ACCESSION: MSBNK-LCSB-LU069005
RECORD_TITLE: Naphthalen-2-yl 2-aminobenzoate; LC-ESI-QFT; MS2; CE: 75; R=17500; [M+H]+
DATE: 2020.08.19
AUTHORS: Elapavalore, A.; Kondić, T.; Singh, R.; Schymanski, E.
LICENSE: CC BY
COPYRIGHT: Copyright © 2019 by Environmental Cheminformatics, LCSB, University of Luxembourg, Luxembourg
PUBLICATION: Elapavalore, A.; Kondić, T.; et al., Adding Open Spectral Data to MassBank and PubChem Using Open Source Tools to Support Non-Targeted Exposomics of Mixtures (submitted).
PROJECT: ENTACT U.S. Environmental Protection Agency’s Non-Targeted Analysis Collaborative Trial
COMMENT: CONFIDENCE standard compound
COMMENT: INTERNAL_ID 690
COMMENT: DATASET 20200303_ENTACT_RP_MIX506
COMMENT: DATA_PROCESSING MERGING RMBmix ver. 0.2.7
COMMENT: DATA_PROCESSING PRESCREENING Shinyscreen ver. 0.8.0
COMMENT: ORIGINAL_ACQUISITION_NO 9983
COMMENT: ORIGINAL_PRECURSOR_SCAN_NO 9981
COMMENT: RAW_DATA available as MSV000091754 at [DOI:10.25345/C5S46HG75]
CH$NAME: Naphthalen-2-yl 2-aminobenzoate
CH$COMPOUND_CLASS: N/A; Environmental Standard
CH$FORMULA: C17H13NO2
CH$EXACT_MASS: 263.0946
CH$SMILES: NC1=C(C=CC=C1)C(=O)OC1=CC2=C(C=CC=C2)C=C1
CH$IUPAC: InChI=1S/C17H13NO2/c18-16-8-4-3-7-15(16)17(19)20-14-10-9-12-5-1-2-6-13(12)11-14/h1-11H,18H2
CH$LINK: CAS 63449-68-3
CH$LINK: PUBCHEM CID:62217
CH$LINK: INCHIKEY YJFCKXVXEKHSEC-UHFFFAOYSA-N
CH$LINK: CHEMSPIDER 56029
AC$INSTRUMENT: Q Exactive Orbitrap (Thermo Scientific)
AC$INSTRUMENT_TYPE: LC-ESI-QFT
AC$MASS_SPECTROMETRY: MS_TYPE MS2
AC$MASS_SPECTROMETRY: ION_MODE POSITIVE
AC$MASS_SPECTROMETRY: IONIZATION ESI
AC$MASS_SPECTROMETRY: FRAGMENTATION_MODE HCD
AC$MASS_SPECTROMETRY: COLLISION_ENERGY 75
AC$MASS_SPECTROMETRY: RESOLUTION 17500
AC$CHROMATOGRAPHY: COLUMN_NAME Acquity BEH C18 1.7um, 2.1x150mm (Waters)
AC$CHROMATOGRAPHY: FLOW_GRADIENT 90/10 at 0-2 min, 0/100 at 15-20 min, 90/10 at 20.1-30 min
AC$CHROMATOGRAPHY: FLOW_RATE 0.20 mL/min
AC$CHROMATOGRAPHY: RETENTION_TIME 19.178 min
AC$CHROMATOGRAPHY: SOLVENT A 0.1% formic acid
AC$CHROMATOGRAPHY: SOLVENT B methanol
MS$FOCUSED_ION: BASE_PEAK 79.0211
MS$FOCUSED_ION: PRECURSOR_M/Z 264.1019
MS$FOCUSED_ION: PRECURSOR_TYPE [M+H]+
MS$FOCUSED_ION: PRECURSOR_INTENSITY 3704299.640625
MS$DATA_PROCESSING: RECALIBRATE loess on assigned fragments and MS1
MS$DATA_PROCESSING: REANALYZE Peaks with additional N2/O included
MS$DATA_PROCESSING: WHOLE RMassBank 2.99.2
PK$SPLASH: splash10-01vo-8900000000-05de14b6b4136e049bd5
PK$ANNOTATION: m/z tentative_formula formula_count mass error(ppm)
  65.0385 C5H5+ 1 65.0386 -0.72
  92.0495 C6H6N+ 1 92.0495 -0.18
  110.0601 C6H8NO+ 1 110.06 0.69
  111.0441 C6H7O2+ 1 111.0441 0.08
  120.0445 C7H6NO+ 1 120.0444 0.69
  172.1124 C12H14N+ 1 172.1121 1.85
PK$NUM_PEAK: 6
PK$PEAK: m/z int. rel.int.
  65.0385 5663.3 324
  92.0495 17411.3 999
  110.0601 8225.4 471
  111.0441 3201.8 183
  120.0445 12282 704
  172.1124 2027 116
//
