ACCESSION: MSBNK-LCSB-LU071805
RECORD_TITLE: Atrazine; LC-ESI-QFT; MS2; CE: 75; R=17500; [M+H]+
DATE: 2020.08.19
AUTHORS: Elapavalore, A.; Kondić, T.; Singh, R.; Schymanski, E.
LICENSE: CC BY
COPYRIGHT: Copyright © 2019 by Environmental Cheminformatics, LCSB, University of Luxembourg, Luxembourg
PUBLICATION: Elapavalore, A.; Kondić, T.; et al., Adding Open Spectral Data to MassBank and PubChem Using Open Source Tools to Support Non-Targeted Exposomics of Mixtures (submitted).
PROJECT: ENTACT U.S. Environmental Protection Agency’s Non-Targeted Analysis Collaborative Trial
COMMENT: CONFIDENCE standard compound
COMMENT: INTERNAL_ID 718
COMMENT: DATASET 20200303_ENTACT_RP_MIX506
COMMENT: DATA_PROCESSING MERGING RMBmix ver. 0.2.7
COMMENT: DATA_PROCESSING PRESCREENING Shinyscreen ver. 0.8.0
COMMENT: ORIGINAL_ACQUISITION_NO 8527
COMMENT: ORIGINAL_PRECURSOR_SCAN_NO 8525
COMMENT: RAW_DATA available as MSV000091754 at [DOI:10.25345/C5S46HG75]
CH$NAME: Atrazine
CH$NAME: 6-chloro-4-N-ethyl-2-N-propan-2-yl-1,3,5-triazine-2,4-diamine
CH$COMPOUND_CLASS: N/A; Environmental Standard
CH$FORMULA: C8H14ClN5
CH$EXACT_MASS: 215.0938
CH$SMILES: CCNC1=NC(NC(C)C)=NC(Cl)=N1
CH$IUPAC: InChI=1S/C8H14ClN5/c1-4-10-7-12-6(9)13-8(14-7)11-5(2)3/h5H,4H2,1-3H3,(H2,10,11,12,13,14)
CH$LINK: CAS 1912-24-9
CH$LINK: CHEBI CHEBI:15930
CH$LINK: KEGG C06551
CH$LINK: PUBCHEM CID:2256
CH$LINK: INCHIKEY MXWJVTOOROXGIU-UHFFFAOYSA-N
CH$LINK: CHEMSPIDER 2169
AC$INSTRUMENT: Q Exactive Orbitrap (Thermo Scientific)
AC$INSTRUMENT_TYPE: LC-ESI-QFT
AC$MASS_SPECTROMETRY: MS_TYPE MS2
AC$MASS_SPECTROMETRY: ION_MODE POSITIVE
AC$MASS_SPECTROMETRY: IONIZATION ESI
AC$MASS_SPECTROMETRY: FRAGMENTATION_MODE HCD
AC$MASS_SPECTROMETRY: COLLISION_ENERGY 75
AC$MASS_SPECTROMETRY: RESOLUTION 17500
AC$CHROMATOGRAPHY: COLUMN_NAME Acquity BEH C18 1.7um, 2.1x150mm (Waters)
AC$CHROMATOGRAPHY: FLOW_GRADIENT 90/10 at 0-2 min, 0/100 at 15-20 min, 90/10 at 20.1-30 min
AC$CHROMATOGRAPHY: FLOW_RATE 0.20 mL/min
AC$CHROMATOGRAPHY: RETENTION_TIME 16.364 min
AC$CHROMATOGRAPHY: SOLVENT A 0.1% formic acid
AC$CHROMATOGRAPHY: SOLVENT B methanol
MS$FOCUSED_ION: BASE_PEAK 79.0211
MS$FOCUSED_ION: PRECURSOR_M/Z 216.101
MS$FOCUSED_ION: PRECURSOR_TYPE [M+H]+
MS$FOCUSED_ION: PRECURSOR_INTENSITY 18842877.40625
MS$DATA_PROCESSING: RECALIBRATE loess on assigned fragments and MS1
MS$DATA_PROCESSING: REANALYZE Peaks with additional N2/O included
MS$DATA_PROCESSING: WHOLE RMassBank 2.99.2
PK$SPLASH: splash10-0g02-9600000000-ccfe60cb16c8ccc63b4b
PK$ANNOTATION: m/z tentative_formula formula_count mass error(ppm)
  53.0023 ClH4N+ 1 53.0027 -8.02
  61.9792 CHClN+ 1 61.9792 0.29
  68.0243 C2H2N3+ 1 68.0243 -0.06
  71.0604 C3H7N2+ 1 71.0604 0.03
  74.0964 C4H12N+ 1 74.0964 -0.1
  79.0058 CH4ClN2+ 1 79.0058 0.34
  85.0761 C4H9N2+ 1 85.076 1.33
  90.0105 C3H5ClN+ 1 90.0105 0.44
  96.0557 C4H6N3+ 1 96.0556 0.37
  104.001 C2H3ClN3+ 1 104.001 0.18
  107.0372 C3H8ClN2+ 1 107.0371 1.04
  110.0462 C3H4N5+ 1 110.0461 0.57
  121.0527 C4H10ClN2+ 1 121.0527 0.16
  132.0324 C4H7ClN3+ 2 132.0323 0.5
  138.0775 C5H8N5+ 2 138.0774 0.48
  146.0228 C3H5ClN5+ 1 146.0228 0.32
  172.0386 C5H7ClN5+ 1 172.0384 0.98
  174.0542 C5H9ClN5+ 1 174.0541 0.65
  180.1243 C8H14N5+ 1 180.1244 -0.25
  216.1011 C8H15ClN5+ 1 216.101 0.03
PK$NUM_PEAK: 20
PK$PEAK: m/z int. rel.int.
  53.0023 19620.5 7
  61.9792 188744.8 70
  68.0243 2341971.5 872
  71.0604 891921.2 332
  74.0964 5158.9 1
  79.0058 1827530.9 681
  85.0761 15187.2 5
  90.0105 75812.2 28
  96.0557 2064483.9 769
  104.001 2680354.8 999
  107.0372 9166.3 3
  110.0462 279671.9 104
  121.0527 4019.4 1
  132.0324 951384.1 354
  138.0775 265423.2 98
  146.0228 740078.8 275
  172.0386 11701.9 4
  174.0542 792140.2 295
  180.1243 3618.5 1
  216.1011 14313.1 5
//
