ACCESSION: MSBNK-LCSB-LU091603
RECORD_TITLE: Methiuron; LC-ESI-QFT; MS2; CE: 45; R=17500; [M+H]+
DATE: 2020.08.19
AUTHORS: Elapavalore, A.; Kondić, T.; Singh, R.; Schymanski, E.
LICENSE: CC BY
COPYRIGHT: Copyright © 2019 by Environmental Cheminformatics, LCSB, University of Luxembourg, Luxembourg
PUBLICATION: Elapavalore, A.; Kondić, T.; et al., Adding Open Spectral Data to MassBank and PubChem Using Open Source Tools to Support Non-Targeted Exposomics of Mixtures (submitted).
PROJECT: ENTACT U.S. Environmental Protection Agency’s Non-Targeted Analysis Collaborative Trial
COMMENT: CONFIDENCE standard compound
COMMENT: INTERNAL_ID 916
COMMENT: DATASET 20200303_ENTACT_RP_MIX508
COMMENT: DATA_PROCESSING MERGING RMBmix ver. 0.2.7
COMMENT: DATA_PROCESSING PRESCREENING Shinyscreen ver. 0.8.0
COMMENT: ORIGINAL_ACQUISITION_NO 7527
COMMENT: ORIGINAL_PRECURSOR_SCAN_NO 7525
COMMENT: RAW_DATA available as MSV000091754 at [DOI:10.25345/C5S46HG75]
CH$NAME: Methiuron
CH$NAME: N,N-dimethyl-N'-(3-methylphenyl)carbamimidothioic acid
CH$COMPOUND_CLASS: N/A; Environmental Standard
CH$FORMULA: C10H14N2S
CH$EXACT_MASS: 194.0878
CH$SMILES: CN(C)C(=S)NC1=CC(C)=CC=C1
CH$IUPAC: InChI=1S/C10H14N2S/c1-8-5-4-6-9(7-8)11-10(13)12(2)3/h4-7H,1-3H3,(H,11,13)
CH$LINK: CAS 21540-35-2
CH$LINK: CHEBI CHEBI:82209
CH$LINK: CHEMSPIDER 2298801
CH$LINK: INCHIKEY MMCJEAKINANSOL-UHFFFAOYSA-N
CH$LINK: KEGG C19086
CH$LINK: PUBCHEM CID:3034319
AC$INSTRUMENT: Q Exactive Orbitrap (Thermo Scientific)
AC$INSTRUMENT_TYPE: LC-ESI-QFT
AC$MASS_SPECTROMETRY: MS_TYPE MS2
AC$MASS_SPECTROMETRY: ION_MODE POSITIVE
AC$MASS_SPECTROMETRY: IONIZATION ESI
AC$MASS_SPECTROMETRY: FRAGMENTATION_MODE HCD
AC$MASS_SPECTROMETRY: COLLISION_ENERGY 45
AC$MASS_SPECTROMETRY: RESOLUTION 17500
AC$CHROMATOGRAPHY: COLUMN_NAME Acquity BEH C18 1.7um, 2.1x150mm (Waters)
AC$CHROMATOGRAPHY: FLOW_GRADIENT 90/10 at 0-2 min, 0/100 at 15-20 min, 90/10 at 20.1-30 min
AC$CHROMATOGRAPHY: FLOW_RATE 0.20 mL/min
AC$CHROMATOGRAPHY: RETENTION_TIME 14.286 min
AC$CHROMATOGRAPHY: SOLVENT A 0.1% formic acid
AC$CHROMATOGRAPHY: SOLVENT B methanol
MS$FOCUSED_ION: BASE_PEAK 79.0211
MS$FOCUSED_ION: PRECURSOR_M/Z 195.095
MS$FOCUSED_ION: PRECURSOR_TYPE [M+H]+
MS$FOCUSED_ION: PRECURSOR_INTENSITY 10389717.25
MS$DATA_PROCESSING: RECALIBRATE loess on assigned fragments and MS1
MS$DATA_PROCESSING: REANALYZE Peaks with additional N2/O included
MS$DATA_PROCESSING: WHOLE RMassBank 2.99.2
PK$SPLASH: splash10-000i-9200000000-b1d5b655d4a2adb3bd0f
PK$ANNOTATION: m/z tentative_formula formula_count mass error(ppm)
  56.0495 C3H6N+ 1 56.0495 0.04
  61.0107 C2H5S+ 1 61.0106 0.38
  63.0262 C2H7S+ 1 63.0263 -1.14
  65.0386 C5H5+ 1 65.0386 0.14
  71.0604 C3H7N2+ 1 71.0604 0.87
  72.998 C2H3NS+ 1 72.9981 -0.86
  88.0216 C3H6NS+ 1 88.0215 0.04
  91.0542 C7H7+ 1 91.0542 -0.2
  92.0621 C7H8+ 1 92.0621 -0.01
  119.0605 C7H7N2+ 1 119.0604 0.7
  123.0263 C7H7S+ 1 123.0263 0.06
  150.0372 C8H8NS+ 1 150.0372 0.25
  157.0113 C10H5S+ 1 157.0106 4.01
  161.1073 C10H13N2+ 1 161.1073 -0.25
  180.9842 C10HN2S+ 1 180.9855 -7.2
  195.0954 C10H15N2S+ 1 195.095 1.98
PK$NUM_PEAK: 16
PK$PEAK: m/z int. rel.int.
  56.0495 20084.8 3
  61.0107 8936.1 1
  63.0262 7472 1
  65.0386 6523 1
  71.0604 13210.3 2
  72.998 42936.3 8
  88.0216 5179672 999
  91.0542 37375.4 7
  92.0621 21550.4 4
  119.0605 22948.2 4
  123.0263 59734.1 11
  150.0372 1055004.2 203
  157.0113 11647 2
  161.1073 16184.7 3
  180.9842 42464 8
  195.0954 69254.8 13
//
