ACCESSION: MSBNK-LCSB-LU079655
RECORD_TITLE: Apomorphine; LC-ESI-QFT; MS2; CE: 75; R=17500; [M-H]-
DATE: 2020.08.19
AUTHORS: Elapavalore, A.; Kondić, T.; Singh, R.; Schymanski, E.
LICENSE: CC BY
COPYRIGHT: Copyright © 2019 by Environmental Cheminformatics, LCSB, University of Luxembourg, Luxembourg
PUBLICATION: Elapavalore, A.; Kondić, T.; et al., Adding Open Spectral Data to MassBank and PubChem Using Open Source Tools to Support Non-Targeted Exposomics of Mixtures (submitted).
PROJECT: ENTACT U.S. Environmental Protection Agency’s Non-Targeted Analysis Collaborative Trial
COMMENT: CONFIDENCE standard compound
COMMENT: INTERNAL_ID 796
COMMENT: DATASET 20200303_ENTACT_RP_MIX505
COMMENT: DATA_PROCESSING MERGING RMBmix ver. 0.2.7
COMMENT: DATA_PROCESSING PRESCREENING Shinyscreen ver. 0.8.0
COMMENT: ORIGINAL_ACQUISITION_NO 2742
COMMENT: ORIGINAL_PRECURSOR_SCAN_NO 2740
COMMENT: RAW_DATA available as MSV000091754 at [DOI:10.25345/C5S46HG75]
CH$NAME: Apomorphine
CH$NAME: (6aR)-6-methyl-5,6,6a,7-tetrahydro-4H-dibenzo[de,g]quinoline-10,11-diol
CH$COMPOUND_CLASS: N/A; Environmental Standard
CH$FORMULA: C17H17NO2
CH$EXACT_MASS: 267.1259
CH$SMILES: CN1CCc2cccc3c2[C@H]1Cc1ccc(O)c(O)c1-3
CH$IUPAC: InChI=1S/C17H17NO2/c1-18-8-7-10-3-2-4-12-15(10)13(18)9-11-5-6-14(19)17(20)16(11)12/h2-6,13,19-20H,7-9H2,1H3/t13-/m1/s1
CH$LINK: CAS 58-00-4
CH$LINK: CHEBI CHEBI:48538
CH$LINK: KEGG D07460
CH$LINK: PUBCHEM CID:6005
CH$LINK: INCHIKEY VMWNQDUVQKEIOC-CYBMUJFWSA-N
CH$LINK: CHEMSPIDER 5783
AC$INSTRUMENT: Q Exactive Orbitrap (Thermo Scientific)
AC$INSTRUMENT_TYPE: LC-ESI-QFT
AC$MASS_SPECTROMETRY: MS_TYPE MS2
AC$MASS_SPECTROMETRY: ION_MODE NEGATIVE
AC$MASS_SPECTROMETRY: IONIZATION ESI
AC$MASS_SPECTROMETRY: FRAGMENTATION_MODE HCD
AC$MASS_SPECTROMETRY: COLLISION_ENERGY 75
AC$MASS_SPECTROMETRY: RESOLUTION 17500
AC$CHROMATOGRAPHY: COLUMN_NAME Acquity BEH C18 1.7um, 2.1x150mm (Waters)
AC$CHROMATOGRAPHY: FLOW_GRADIENT 90/10 at 0-2 min, 0/100 at 15-20 min, 90/10 at 20.1-30 min
AC$CHROMATOGRAPHY: FLOW_RATE 0.20 mL/min
AC$CHROMATOGRAPHY: RETENTION_TIME 11.103 min
AC$CHROMATOGRAPHY: SOLVENT A 0.1% formic acid
AC$CHROMATOGRAPHY: SOLVENT B methanol
MS$FOCUSED_ION: BASE_PEAK 153.0306
MS$FOCUSED_ION: PRECURSOR_M/Z 266.1187
MS$FOCUSED_ION: PRECURSOR_TYPE [M-H]-
MS$FOCUSED_ION: PRECURSOR_INTENSITY 4548562.648926
MS$DATA_PROCESSING: RECALIBRATE loess on assigned fragments and MS1
MS$DATA_PROCESSING: REANALYZE Peaks with additional N2/O included
MS$DATA_PROCESSING: WHOLE RMassBank 2.99.2
PK$SPLASH: splash10-00di-0090000000-df26b283051b71694371
PK$ANNOTATION: m/z tentative_formula formula_count mass error(ppm)
  167.0867 C13H11- 1 167.0866 0.28
  177.0712 C14H9- 1 177.071 1.03
  179.0867 C14H11- 1 179.0866 0.2
  195.0815 C14H11O- 1 195.0815 -0.15
  205.0659 C15H9O- 1 205.0659 -0.16
  208.0531 C14H8O2- 1 208.053 0.43
  209.0607 C14H9O2- 1 209.0608 -0.65
  211.0399 C16H5N- 1 211.0427 -13.28
  221.0609 C15H9O2- 1 221.0608 0.4
  222.0687 C15H10O2- 1 222.0686 0.55
  223.0765 C15H11O2- 1 223.0765 0.14
  224.0842 C15H12O2- 1 224.0843 -0.32
  234.0562 C15H8NO2- 1 234.0561 0.69
  235.0765 C16H11O2- 1 235.0765 0.1
  236.0715 C15H10NO2- 1 236.0717 -1.04
  247.0639 C16H9NO2- 1 247.0639 0.07
  248.0716 C16H10NO2- 1 248.0717 -0.23
  249.0799 C16H11NO2- 1 249.0795 1.43
  250.0874 C16H12NO2- 1 250.0874 0.28
  264.1027 C17H14NO2- 1 264.103 -1
  266.1186 C17H16NO2- 1 266.1187 -0.29
PK$NUM_PEAK: 21
PK$PEAK: m/z int. rel.int.
  167.0867 42654.5 44
  177.0712 7978.6 8
  179.0867 50641.9 52
  195.0815 22352.6 23
  205.0659 11083.6 11
  208.0531 17843.2 18
  209.0607 9561.7 9
  211.0399 8160.1 8
  221.0609 6364.5 6
  222.0687 359836.8 372
  223.0765 964033.4 999
  224.0842 3434.9 3
  234.0562 6261.5 6
  235.0765 21885.3 22
  236.0715 16952.9 17
  247.0639 11850.5 12
  248.0716 73331.4 75
  249.0799 15856.1 16
  250.0874 126418.7 131
  264.1027 4334.7 4
  266.1186 46587.5 48
//
