ACCESSION: MSBNK-LCSB-LU134302
RECORD_TITLE: Cladribine; LC-ESI-QFT; MS2; CE: 30; R=17500; [M+H]+
DATE: 2020.08.19
AUTHORS: Elapavalore, A.; Kondić, T.; Singh, R.; Schymanski, E.
LICENSE: CC BY
COPYRIGHT: Copyright © 2019 by Environmental Cheminformatics, LCSB, University of Luxembourg, Luxembourg
PUBLICATION: Elapavalore, A.; Kondić, T.; et al., Adding Open Spectral Data to MassBank and PubChem Using Open Source Tools to Support Non-Targeted Exposomics of Mixtures (submitted).
PROJECT: ENTACT U.S. Environmental Protection Agency’s Non-Targeted Analysis Collaborative Trial
COMMENT: CONFIDENCE standard compound
COMMENT: INTERNAL_ID 1343
COMMENT: DATASET 20200303_ENTACT_RP_MIX504
COMMENT: DATA_PROCESSING MERGING RMBmix ver. 0.2.7
COMMENT: DATA_PROCESSING PRESCREENING Shinyscreen ver. 0.8.0
COMMENT: ORIGINAL_ACQUISITION_NO 5706
COMMENT: ORIGINAL_PRECURSOR_SCAN_NO 5702
COMMENT: RAW_DATA available as MSV000091754 at [DOI:10.25345/C5S46HG75]
CH$NAME: Cladribine
CH$COMPOUND_CLASS: N/A; Environmental Standard
CH$FORMULA: C10H12ClN5O3
CH$EXACT_MASS: 285.0629
CH$SMILES: NC1=NC(Cl)=NC2=C1N=CN2[C@H]1C[C@H](O)[C@@H](CO)O1
CH$IUPAC: InChI=1S/C10H12ClN5O3/c11-10-14-8(12)7-9(15-10)16(3-13-7)6-1-4(18)5(2-17)19-6/h3-6,17-18H,1-2H2,(H2,12,14,15)/t4-,5+,6+/m0/s1
CH$LINK: CAS 4291-63-8
CH$LINK: CHEBI CHEBI:567361
CH$LINK: KEGG D01370
CH$LINK: PUBCHEM CID:20279
CH$LINK: INCHIKEY PTOAARAWEBMLNO-KVQBGUIXSA-N
CH$LINK: CHEMSPIDER 19105
AC$INSTRUMENT: Q Exactive Orbitrap (Thermo Scientific)
AC$INSTRUMENT_TYPE: LC-ESI-QFT
AC$MASS_SPECTROMETRY: MS_TYPE MS2
AC$MASS_SPECTROMETRY: ION_MODE POSITIVE
AC$MASS_SPECTROMETRY: IONIZATION ESI
AC$MASS_SPECTROMETRY: FRAGMENTATION_MODE HCD
AC$MASS_SPECTROMETRY: COLLISION_ENERGY 30
AC$MASS_SPECTROMETRY: RESOLUTION 17500
AC$CHROMATOGRAPHY: COLUMN_NAME Acquity BEH C18 1.7um, 2.1x150mm (Waters)
AC$CHROMATOGRAPHY: FLOW_GRADIENT 90/10 at 0-2 min, 0/100 at 15-20 min, 90/10 at 20.1-30 min
AC$CHROMATOGRAPHY: FLOW_RATE 0.20 mL/min
AC$CHROMATOGRAPHY: RETENTION_TIME 10.837 min
AC$CHROMATOGRAPHY: SOLVENT A 0.1% formic acid
AC$CHROMATOGRAPHY: SOLVENT B methanol
MS$FOCUSED_ION: BASE_PEAK 79.0212
MS$FOCUSED_ION: PRECURSOR_M/Z 286.0701
MS$FOCUSED_ION: PRECURSOR_TYPE [M+H]+
MS$FOCUSED_ION: PRECURSOR_INTENSITY 2488741
MS$DATA_PROCESSING: RECALIBRATE loess on assigned fragments and MS1
MS$DATA_PROCESSING: REANALYZE Peaks with additional N2/O included
MS$DATA_PROCESSING: WHOLE RMassBank 2.99.2
PK$SPLASH: splash10-00di-0900000000-d10fd078d6fb7fef272c
PK$ANNOTATION: m/z tentative_formula formula_count mass error(ppm)
  57.0335 C3H5O+ 2 57.0335 -0.13
  69.0335 C4H5O+ 2 69.0335 0.16
  70.04 C2H4N3+ 1 70.04 -0.01
  71.0491 C4H7O+ 2 71.0491 0
  73.0284 C3H5O2+ 2 73.0284 0.27
  81.0335 C5H5O+ 2 81.0335 0.33
  99.0441 C5H7O2+ 4 99.0441 0.32
  117.0547 C5H9O3+ 4 117.0546 0.45
  134.0464 C5H4N5+ 4 134.0461 2.24
  152.0572 C5H6N5O+ 3 152.0567 3.27
  170.0229 C5H5ClN5+ 4 170.0228 0.43
  207.9686 C8HClN2O3+ 1 207.967 7.43
  286.0701 C10H13ClN5O3+ 1 286.0701 -0.27
PK$NUM_PEAK: 13
PK$PEAK: m/z int. rel.int.
  57.0335 6391.8 4
  69.0335 8775.9 6
  70.04 4214.5 3
  71.0491 20845 15
  73.0284 27639.6 21
  81.0335 8879.7 6
  99.0441 83496.2 63
  117.0547 288632.8 220
  134.0464 3350 2
  152.0572 1976.6 1
  170.0229 1306352.8 999
  207.9686 2086.7 1
  286.0701 19678.4 15
//
