ACCESSION: MSBNK-LCSB-LU087905
RECORD_TITLE: 3-((Ethylphenylamino)methyl)benzenesulfonic acid; LC-ESI-QFT; MS2; CE: 75; R=17500; [M+H]+
DATE: 2020.08.19
AUTHORS: Elapavalore, A.; Kondić, T.; Singh, R.; Schymanski, E.
LICENSE: CC BY
COPYRIGHT: Copyright © 2019 by Environmental Cheminformatics, LCSB, University of Luxembourg, Luxembourg
PUBLICATION: Elapavalore, A.; Kondić, T.; et al., Adding Open Spectral Data to MassBank and PubChem Using Open Source Tools to Support Non-Targeted Exposomics of Mixtures (submitted).
PROJECT: ENTACT U.S. Environmental Protection Agency’s Non-Targeted Analysis Collaborative Trial
COMMENT: CONFIDENCE standard compound
COMMENT: INTERNAL_ID 879
COMMENT: DATASET 20200303_ENTACT_RP_MIX508
COMMENT: DATA_PROCESSING MERGING RMBmix ver. 0.2.7
COMMENT: DATA_PROCESSING PRESCREENING Shinyscreen ver. 0.8.0
COMMENT: ORIGINAL_ACQUISITION_NO 5916
COMMENT: ORIGINAL_PRECURSOR_SCAN_NO 5914
COMMENT: RAW_DATA available as MSV000091754 at [DOI:10.25345/C5S46HG75]
CH$NAME: 3-((Ethylphenylamino)methyl)benzenesulfonic acid
CH$NAME: 3-[(N-ethylanilino)methyl]benzenesulfonic acid
CH$COMPOUND_CLASS: N/A; Environmental Standard
CH$FORMULA: C15H17NO3S
CH$EXACT_MASS: 291.0929
CH$SMILES: CCN(CC1=CC(=CC=C1)S(O)(=O)=O)C1=CC=CC=C1
CH$IUPAC: InChI=1S/C15H17NO3S/c1-2-16(14-8-4-3-5-9-14)12-13-7-6-10-15(11-13)20(17,18)19/h3-11H,2,12H2,1H3,(H,17,18,19)
CH$LINK: CAS 92-60-4
CH$LINK: PUBCHEM CID:66858
CH$LINK: INCHIKEY BQGRVFPPZJPWPB-UHFFFAOYSA-N
CH$LINK: CHEMSPIDER 60222
AC$INSTRUMENT: Q Exactive Orbitrap (Thermo Scientific)
AC$INSTRUMENT_TYPE: LC-ESI-QFT
AC$MASS_SPECTROMETRY: MS_TYPE MS2
AC$MASS_SPECTROMETRY: ION_MODE POSITIVE
AC$MASS_SPECTROMETRY: IONIZATION ESI
AC$MASS_SPECTROMETRY: FRAGMENTATION_MODE HCD
AC$MASS_SPECTROMETRY: COLLISION_ENERGY 75
AC$MASS_SPECTROMETRY: RESOLUTION 17500
AC$CHROMATOGRAPHY: COLUMN_NAME Acquity BEH C18 1.7um, 2.1x150mm (Waters)
AC$CHROMATOGRAPHY: FLOW_GRADIENT 90/10 at 0-2 min, 0/100 at 15-20 min, 90/10 at 20.1-30 min
AC$CHROMATOGRAPHY: FLOW_RATE 0.20 mL/min
AC$CHROMATOGRAPHY: RETENTION_TIME 11.275 min
AC$CHROMATOGRAPHY: SOLVENT A 0.1% formic acid
AC$CHROMATOGRAPHY: SOLVENT B methanol
MS$FOCUSED_ION: BASE_PEAK 79.0212
MS$FOCUSED_ION: PRECURSOR_M/Z 292.1002
MS$FOCUSED_ION: PRECURSOR_TYPE [M+H]+
MS$FOCUSED_ION: PRECURSOR_INTENSITY 3734428.84375
MS$DATA_PROCESSING: RECALIBRATE loess on assigned fragments and MS1
MS$DATA_PROCESSING: REANALYZE Peaks with additional N2/O included
MS$DATA_PROCESSING: WHOLE RMassBank 2.99.2
PK$SPLASH: splash10-0a4i-0900000000-5be22c665e3deb7d959a
PK$ANNOTATION: m/z tentative_formula formula_count mass error(ppm)
  51.023 C4H3+ 1 51.0229 0.95
  53.0386 C4H5+ 1 53.0386 0.9
  77.0384 C6H5+ 1 77.0386 -2.19
  79.0542 C6H7+ 1 79.0542 -0.28
  91.0542 C7H7+ 1 91.0542 -0.2
  93.0574 C6H7N+ 2 93.0573 0.69
  95.0492 C6H7O+ 1 95.0491 0.14
  104.0494 C7H6N+ 2 104.0495 -0.25
  105.0448 H11NO3S+ 1 105.0454 -5.67
  106.0651 C7H8N+ 2 106.0651 -0.1
  118.065 C8H8N+ 2 118.0651 -0.71
  120.0808 C8H10N+ 2 120.0808 0.13
  121.0886 C8H11N+ 2 121.0886 -0.22
  165.0699 C13H9+ 1 165.0699 0.23
  171.011 C7H7O3S+ 2 171.011 -0.15
  180.0808 C13H10N+ 3 180.0808 -0.06
  181.0887 C13H11N+ 2 181.0886 0.55
  182.0965 C13H12N+ 3 182.0964 0.23
  262.054 C13H12NO3S+ 1 262.0532 2.72
PK$NUM_PEAK: 19
PK$PEAK: m/z int. rel.int.
  51.023 5325.6 1
  53.0386 33746.3 10
  77.0384 15373.7 4
  79.0542 109820.8 33
  91.0542 5578.1 1
  93.0574 8194.2 2
  95.0492 98701.5 29
  104.0494 4802.2 1
  105.0448 41719.2 12
  106.0651 3313696.5 999
  118.065 5870.2 1
  120.0808 49831.2 15
  121.0886 139519.2 42
  165.0699 13917.8 4
  171.011 65720.1 19
  180.0808 13428.4 4
  181.0887 4989.3 1
  182.0965 6028.1 1
  262.054 3565.3 1
//
