ACCESSION: MSBNK-LCSB-LU014201
RECORD_TITLE: 2,2`-[(4-Methylphenyl)imino]diethanol; LC-ESI-QFT; MS2; CE: 15; R=17500; [M+H]+
DATE: 2020.08.19
AUTHORS: Elapavalore, A.; Kondić, T.; Singh, R.; Schymanski, E.
LICENSE: CC BY
COPYRIGHT: Copyright © 2019 by Environmental Cheminformatics, LCSB, University of Luxembourg, Luxembourg
PUBLICATION: Elapavalore, A.; Kondić, T.; et al., Adding Open Spectral Data to MassBank and PubChem Using Open Source Tools to Support Non-Targeted Exposomics of Mixtures (submitted).
PROJECT: ENTACT U.S. Environmental Protection Agency’s Non-Targeted Analysis Collaborative Trial
COMMENT: CONFIDENCE standard compound
COMMENT: INTERNAL_ID 142
COMMENT: DATASET 20200303_ENTACT_RP_MIX500
COMMENT: DATA_PROCESSING MERGING RMBmix ver. 0.2.7
COMMENT: DATA_PROCESSING PRESCREENING Shinyscreen ver. 0.8.0
COMMENT: ORIGINAL_ACQUISITION_NO 4781
COMMENT: ORIGINAL_PRECURSOR_SCAN_NO 4778
COMMENT: RAW_DATA available as MSV000091754 at [DOI:10.25345/C5S46HG75]
CH$NAME: 2,2'-[(4-Methylphenyl)imino]diethanol
CH$NAME: N,N-Bis(2-hydroxyethyl)-p-toluidine
CH$NAME: 2-[N-(2-hydroxyethyl)-4-methylanilino]ethanol
CH$COMPOUND_CLASS: N/A; Environmental Standard
CH$FORMULA: C11H17NO2
CH$EXACT_MASS: 195.1259
CH$SMILES: CC1=CC=C(C=C1)N(CCO)CCO
CH$IUPAC: InChI=1S/C11H17NO2/c1-10-2-4-11(5-3-10)12(6-8-13)7-9-14/h2-5,13-14H,6-9H2,1H3
CH$LINK: CAS 3077-12-1
CH$LINK: PUBCHEM CID:76497
CH$LINK: INCHIKEY JUVSRZCUMWZBFK-UHFFFAOYSA-N
CH$LINK: CHEMSPIDER 68967
AC$INSTRUMENT: Q Exactive Orbitrap (Thermo Scientific)
AC$INSTRUMENT_TYPE: LC-ESI-QFT
AC$MASS_SPECTROMETRY: MS_TYPE MS2
AC$MASS_SPECTROMETRY: ION_MODE POSITIVE
AC$MASS_SPECTROMETRY: IONIZATION ESI
AC$MASS_SPECTROMETRY: FRAGMENTATION_MODE HCD
AC$MASS_SPECTROMETRY: COLLISION_ENERGY 15
AC$MASS_SPECTROMETRY: RESOLUTION 17500
AC$CHROMATOGRAPHY: COLUMN_NAME Acquity BEH C18 1.7um, 2.1x150mm (Waters)
AC$CHROMATOGRAPHY: FLOW_GRADIENT 90/10 at 0-2 min, 0/100 at 15-20 min, 90/10 at 20.1-30 min
AC$CHROMATOGRAPHY: FLOW_RATE 0.20 mL/min
AC$CHROMATOGRAPHY: RETENTION_TIME 9.123 min
AC$CHROMATOGRAPHY: SOLVENT A 0.1% formic acid
AC$CHROMATOGRAPHY: SOLVENT B methanol
MS$FOCUSED_ION: BASE_PEAK 79.0211
MS$FOCUSED_ION: PRECURSOR_M/Z 196.1332
MS$FOCUSED_ION: PRECURSOR_TYPE [M+H]+
MS$FOCUSED_ION: PRECURSOR_INTENSITY 23100406.375
MS$DATA_PROCESSING: RECALIBRATE loess on assigned fragments and MS1
MS$DATA_PROCESSING: REANALYZE Peaks with additional N2/O included
MS$DATA_PROCESSING: WHOLE RMassBank 2.99.2
PK$SPLASH: splash10-0002-0900000000-6efcaf1be017c7255454
PK$ANNOTATION: m/z tentative_formula formula_count mass error(ppm)
  120.0804 C8H10N+ 1 120.0808 -2.96
  132.0807 C9H10N+ 1 132.0808 -0.23
  133.0886 C9H11N+ 1 133.0886 -0.2
  134.0964 C9H12N+ 1 134.0964 -0.29
  150.0914 C9H12NO+ 1 150.0913 0.31
  151.0992 C9H13NO+ 1 151.0992 0.02
  152.107 C9H14NO+ 1 152.107 -0.25
  160.1121 C11H14N+ 1 160.1121 -0.04
  178.1226 C11H16NO+ 1 178.1226 -0.18
  196.1331 C11H18NO2+ 1 196.1332 -0.4
PK$NUM_PEAK: 10
PK$PEAK: m/z int. rel.int.
  120.0804 172791.6 9
  132.0807 84232.5 4
  133.0886 594544.3 33
  134.0964 598001.5 33
  150.0914 20987.4 1
  151.0992 811233.6 45
  152.107 430419.6 24
  160.1121 397257.4 22
  178.1226 2111513 119
  196.1331 17721408 999
//
