ACCESSION: MSBNK-LCSB-LU048002
RECORD_TITLE: AVE9423; LC-ESI-QFT; MS2; CE: 30; R=17500; [M+H]+
DATE: 2020.08.19
AUTHORS: Elapavalore, A.; Kondić, T.; Singh, R.; Schymanski, E.
LICENSE: CC BY
COPYRIGHT: Copyright © 2019 by Environmental Cheminformatics, LCSB, University of Luxembourg, Luxembourg
PUBLICATION: Elapavalore, A.; Kondić, T.; et al., Adding Open Spectral Data to MassBank and PubChem Using Open Source Tools to Support Non-Targeted Exposomics of Mixtures (submitted).
PROJECT: ENTACT U.S. Environmental Protection Agency’s Non-Targeted Analysis Collaborative Trial
COMMENT: CONFIDENCE standard compound
COMMENT: INTERNAL_ID 480
COMMENT: DATASET 20200303_ENTACT_RP_MIX506
COMMENT: DATA_PROCESSING MERGING RMBmix ver. 0.2.7
COMMENT: DATA_PROCESSING PRESCREENING Shinyscreen ver. 0.8.0
COMMENT: ORIGINAL_ACQUISITION_NO 9176
COMMENT: ORIGINAL_PRECURSOR_SCAN_NO 9175
COMMENT: RAW_DATA available as MSV000091754 at [DOI:10.25345/C5S46HG75]
CH$NAME: AVE9423
CH$NAME: 1-(2-carboxyphenyl)-7-chloro-6-(2-chloro-4,6-difluoroanilino)-4-oxoquinoline-3-carboxylic acid
CH$COMPOUND_CLASS: N/A; Environmental Standard
CH$FORMULA: C23H12Cl2F2N2O5
CH$EXACT_MASS: 504.0091
CH$SMILES: OC(=O)C1=CC=CC=C1N1C=C(C(O)=O)C(=O)C2=C1C=C(Cl)C(NC1=C(F)C=C(F)C=C1Cl)=C2
CH$IUPAC: InChI=1S/C23H12Cl2F2N2O5/c24-14-8-19-12(7-17(14)28-20-15(25)5-10(26)6-16(20)27)21(30)13(23(33)34)9-29(19)18-4-2-1-3-11(18)22(31)32/h1-9,28H,(H,31,32)(H,33,34)
CH$LINK: PUBCHEM CID:24798733
CH$LINK: INCHIKEY OEMJXSVJXPIFMA-UHFFFAOYSA-N
CH$LINK: CHEMSPIDER 22376569
AC$INSTRUMENT: Q Exactive Orbitrap (Thermo Scientific)
AC$INSTRUMENT_TYPE: LC-ESI-QFT
AC$MASS_SPECTROMETRY: MS_TYPE MS2
AC$MASS_SPECTROMETRY: ION_MODE POSITIVE
AC$MASS_SPECTROMETRY: IONIZATION ESI
AC$MASS_SPECTROMETRY: FRAGMENTATION_MODE HCD
AC$MASS_SPECTROMETRY: COLLISION_ENERGY 30
AC$MASS_SPECTROMETRY: RESOLUTION 17500
AC$CHROMATOGRAPHY: COLUMN_NAME Acquity BEH C18 1.7um, 2.1x150mm (Waters)
AC$CHROMATOGRAPHY: FLOW_GRADIENT 90/10 at 0-2 min, 0/100 at 15-20 min, 90/10 at 20.1-30 min
AC$CHROMATOGRAPHY: FLOW_RATE 0.20 mL/min
AC$CHROMATOGRAPHY: RETENTION_TIME 17.513 min
AC$CHROMATOGRAPHY: SOLVENT A 0.1% formic acid
AC$CHROMATOGRAPHY: SOLVENT B methanol
MS$FOCUSED_ION: BASE_PEAK 79.0211
MS$FOCUSED_ION: PRECURSOR_M/Z 505.0164
MS$FOCUSED_ION: PRECURSOR_TYPE [M+H]+
MS$FOCUSED_ION: PRECURSOR_INTENSITY 2237332.71875
MS$DATA_PROCESSING: RECALIBRATE loess on assigned fragments and MS1
MS$DATA_PROCESSING: REANALYZE Peaks with additional N2/O included
MS$DATA_PROCESSING: WHOLE RMassBank 2.99.2
PK$SPLASH: splash10-0a4i-0000190000-3947bdb6ca2bad76a553
PK$ANNOTATION: m/z tentative_formula formula_count mass error(ppm)
  443.0164 C22H11Cl2F2N2O2+ 4 443.016 0.96
  459.012 C22H11Cl2F2N2O3+ 2 459.0109 2.37
  468.9938 C23H9Cl2F2N2O3+ 2 468.9953 -3.16
  487.0063 C23H11Cl2F2N2O4+ 1 487.0058 0.96
  505.017 C23H13Cl2F2N2O5+ 1 505.0164 1.15
PK$NUM_PEAK: 5
PK$PEAK: m/z int. rel.int.
  443.0164 12340.2 4
  459.012 7824.7 3
  468.9938 2943.3 1
  487.0063 533691.6 210
  505.017 2527560.8 999
//
