ACCESSION: MSBNK-LCSB-LU085001
RECORD_TITLE: Tolnaftate; LC-ESI-QFT; MS2; CE: 15; R=17500; [M+H]+
DATE: 2020.08.19
AUTHORS: Elapavalore, A.; Kondić, T.; Singh, R.; Schymanski, E.
LICENSE: CC BY
COPYRIGHT: Copyright © 2019 by Environmental Cheminformatics, LCSB, University of Luxembourg, Luxembourg
PUBLICATION: Elapavalore, A.; Kondić, T.; et al., Adding Open Spectral Data to MassBank and PubChem Using Open Source Tools to Support Non-Targeted Exposomics of Mixtures (submitted).
PROJECT: ENTACT U.S. Environmental Protection Agency’s Non-Targeted Analysis Collaborative Trial
COMMENT: CONFIDENCE standard compound
COMMENT: INTERNAL_ID 850
COMMENT: DATASET 20200303_ENTACT_RP_MIX508
COMMENT: DATA_PROCESSING MERGING RMBmix ver. 0.2.7
COMMENT: DATA_PROCESSING PRESCREENING Shinyscreen ver. 0.8.0
COMMENT: ORIGINAL_ACQUISITION_NO 10225
COMMENT: ORIGINAL_PRECURSOR_SCAN_NO 10224
COMMENT: RAW_DATA available as MSV000091754 at [DOI:10.25345/C5S46HG75]
CH$NAME: Tolnaftate
CH$NAME: O-naphthalen-2-yl N-methyl-N-(3-methylphenyl)carbamothioate
CH$COMPOUND_CLASS: N/A; Environmental Standard
CH$FORMULA: C19H17NOS
CH$EXACT_MASS: 307.1031
CH$SMILES: CN(C(=S)OC1=CC2=CC=CC=C2C=C1)C1=CC=CC(C)=C1
CH$IUPAC: InChI=1S/C19H17NOS/c1-14-6-5-9-17(12-14)20(2)19(22)21-18-11-10-15-7-3-4-8-16(15)13-18/h3-13H,1-2H3
CH$LINK: CAS 2398-96-1
CH$LINK: CHEBI CHEBI:9620
CH$LINK: KEGG D00381
CH$LINK: PUBCHEM CID:5510
CH$LINK: INCHIKEY FUSNMLFNXJSCDI-UHFFFAOYSA-N
CH$LINK: CHEMSPIDER 5309
AC$INSTRUMENT: Q Exactive Orbitrap (Thermo Scientific)
AC$INSTRUMENT_TYPE: LC-ESI-QFT
AC$MASS_SPECTROMETRY: MS_TYPE MS2
AC$MASS_SPECTROMETRY: ION_MODE POSITIVE
AC$MASS_SPECTROMETRY: IONIZATION ESI
AC$MASS_SPECTROMETRY: FRAGMENTATION_MODE HCD
AC$MASS_SPECTROMETRY: COLLISION_ENERGY 15
AC$MASS_SPECTROMETRY: RESOLUTION 17500
AC$CHROMATOGRAPHY: COLUMN_NAME Acquity BEH C18 1.7um, 2.1x150mm (Waters)
AC$CHROMATOGRAPHY: FLOW_GRADIENT 90/10 at 0-2 min, 0/100 at 15-20 min, 90/10 at 20.1-30 min
AC$CHROMATOGRAPHY: FLOW_RATE 0.20 mL/min
AC$CHROMATOGRAPHY: RETENTION_TIME 19.422 min
AC$CHROMATOGRAPHY: SOLVENT A 0.1% formic acid
AC$CHROMATOGRAPHY: SOLVENT B methanol
MS$FOCUSED_ION: BASE_PEAK 79.0211
MS$FOCUSED_ION: PRECURSOR_M/Z 308.1104
MS$FOCUSED_ION: PRECURSOR_TYPE [M+H]+
MS$FOCUSED_ION: PRECURSOR_INTENSITY 21224014.90625
MS$DATA_PROCESSING: RECALIBRATE loess on assigned fragments and MS1
MS$DATA_PROCESSING: REANALYZE Peaks with additional N2/O included
MS$DATA_PROCESSING: WHOLE RMassBank 2.99.2
PK$SPLASH: splash10-0a4j-0908000000-271400db804900e9897f
PK$ANNOTATION: m/z tentative_formula formula_count mass error(ppm)
  91.0545 C7H7+ 1 91.0542 2.57
  120.0808 C8H10N+ 1 120.0808 0.32
  121.0886 C8H11N+ 1 121.0886 -0.34
  129.0699 C10H9+ 1 129.0699 0.36
  148.0756 C9H10NO+ 1 148.0757 -0.54
  159.0261 C10H7S+ 1 159.0263 -1.29
  164.0528 C9H10NS+ 1 164.0528 -0.32
  180.0477 C9H10NOS+ 1 180.0478 -0.18
  280.1155 C18H18NS+ 1 280.1154 0.31
  308.1104 C19H18NOS+ 1 308.1104 0.06
PK$NUM_PEAK: 10
PK$PEAK: m/z int. rel.int.
  91.0545 23377.5 3
  120.0808 86995.5 12
  121.0886 55410.1 7
  129.0699 7855.1 1
  148.0756 5040690 709
  159.0261 51168.1 7
  164.0528 614254.8 86
  180.0477 1815661.4 255
  280.1155 35384.6 4
  308.1104 7098242 999
//
