ACCESSION: MSBNK-LCSB-LU106051
RECORD_TITLE: Octylparaben; LC-ESI-QFT; MS2; CE: 15; R=17500; [M-H]-
DATE: 2020.08.19
AUTHORS: Elapavalore, A.; Kondić, T.; Singh, R.; Schymanski, E.
LICENSE: CC BY
COPYRIGHT: Copyright © 2019 by Environmental Cheminformatics, LCSB, University of Luxembourg, Luxembourg
PUBLICATION: Elapavalore, A.; Kondić, T.; et al., Adding Open Spectral Data to MassBank and PubChem Using Open Source Tools to Support Non-Targeted Exposomics of Mixtures (submitted).
PROJECT: ENTACT U.S. Environmental Protection Agency’s Non-Targeted Analysis Collaborative Trial
COMMENT: CONFIDENCE standard compound
COMMENT: INTERNAL_ID 1060
COMMENT: DATASET 20200303_ENTACT_RP_MIX505
COMMENT: DATA_PROCESSING MERGING RMBmix ver. 0.2.7
COMMENT: DATA_PROCESSING PRESCREENING Shinyscreen ver. 0.8.0
COMMENT: ORIGINAL_ACQUISITION_NO 5701
COMMENT: ORIGINAL_PRECURSOR_SCAN_NO 5700
COMMENT: RAW_DATA available as MSV000091754 at [DOI:10.25345/C5S46HG75]
CH$NAME: Octylparaben
CH$NAME: octyl 4-hydroxybenzoate
CH$COMPOUND_CLASS: N/A; Environmental Standard
CH$FORMULA: C15H22O3
CH$EXACT_MASS: 250.1569
CH$SMILES: CCCCCCCCOC(=O)C1=CC=C(O)C=C1
CH$IUPAC: InChI=1S/C15H22O3/c1-2-3-4-5-6-7-12-18-15(17)13-8-10-14(16)11-9-13/h8-11,16H,2-7,12H2,1H3
CH$LINK: CAS 1219-38-1
CH$LINK: PUBCHEM CID:14642
CH$LINK: INCHIKEY RIKCMEDSBFQFAL-UHFFFAOYSA-N
CH$LINK: CHEMSPIDER 13976
AC$INSTRUMENT: Q Exactive Orbitrap (Thermo Scientific)
AC$INSTRUMENT_TYPE: LC-ESI-QFT
AC$MASS_SPECTROMETRY: MS_TYPE MS2
AC$MASS_SPECTROMETRY: ION_MODE NEGATIVE
AC$MASS_SPECTROMETRY: IONIZATION ESI
AC$MASS_SPECTROMETRY: FRAGMENTATION_MODE HCD
AC$MASS_SPECTROMETRY: COLLISION_ENERGY 15
AC$MASS_SPECTROMETRY: RESOLUTION 17500
AC$CHROMATOGRAPHY: COLUMN_NAME Acquity BEH C18 1.7um, 2.1x150mm (Waters)
AC$CHROMATOGRAPHY: FLOW_GRADIENT 90/10 at 0-2 min, 0/100 at 15-20 min, 90/10 at 20.1-30 min
AC$CHROMATOGRAPHY: FLOW_RATE 0.20 mL/min
AC$CHROMATOGRAPHY: RETENTION_TIME 19.955 min
AC$CHROMATOGRAPHY: SOLVENT A 0.1% formic acid
AC$CHROMATOGRAPHY: SOLVENT B methanol
MS$FOCUSED_ION: BASE_PEAK 249.1496
MS$FOCUSED_ION: PRECURSOR_M/Z 249.1496
MS$FOCUSED_ION: PRECURSOR_TYPE [M-H]-
MS$FOCUSED_ION: PRECURSOR_INTENSITY 84514895.39355
MS$DATA_PROCESSING: RECALIBRATE loess on assigned fragments and MS1
MS$DATA_PROCESSING: REANALYZE Peaks with additional N2/O included
MS$DATA_PROCESSING: WHOLE RMassBank 2.99.2
PK$SPLASH: splash10-0002-0090000000-58f875ef2a287c707505
PK$ANNOTATION: m/z tentative_formula formula_count mass error(ppm)
  92.0271 C6H4O- 1 92.0268 3.21
  93.0346 C6H5O- 1 93.0346 0.09
  120.022 C7H4O2- 1 120.0217 2.28
  136.0166 C7H4O3- 1 136.0166 -0.28
  137.0244 C7H5O3- 1 137.0244 0.08
  249.1496 C15H21O3- 1 249.1496 -0.25
PK$NUM_PEAK: 6
PK$PEAK: m/z int. rel.int.
  92.0271 257360 5
  93.0346 277248.7 5
  120.022 72714 1
  136.0166 960965.2 19
  137.0244 1383727.5 27
  249.1496 50448320 999
//
