ACCESSION: MSBNK-LCSB-LU111402
RECORD_TITLE: Mepanipyrim; LC-ESI-QFT; MS2; CE: 30; R=17500; [M+H]+
DATE: 2020.08.19
AUTHORS: Elapavalore, A.; Kondić, T.; Singh, R.; Schymanski, E.
LICENSE: CC BY
COPYRIGHT: Copyright © 2019 by Environmental Cheminformatics, LCSB, University of Luxembourg, Luxembourg
PUBLICATION: Elapavalore, A.; Kondić, T.; et al., Adding Open Spectral Data to MassBank and PubChem Using Open Source Tools to Support Non-Targeted Exposomics of Mixtures (submitted).
PROJECT: ENTACT U.S. Environmental Protection Agency’s Non-Targeted Analysis Collaborative Trial
COMMENT: CONFIDENCE standard compound
COMMENT: INTERNAL_ID 1114
COMMENT: DATASET 20200303_ENTACT_RP_MIX499
COMMENT: DATA_PROCESSING MERGING RMBmix ver. 0.2.7
COMMENT: DATA_PROCESSING PRESCREENING Shinyscreen ver. 0.8.0
COMMENT: ORIGINAL_ACQUISITION_NO 9367
COMMENT: ORIGINAL_PRECURSOR_SCAN_NO 9365
COMMENT: RAW_DATA available as MSV000091754 at [DOI:10.25345/C5S46HG75]
CH$NAME: Mepanipyrim
CH$NAME: 4-methyl-N-phenyl-6-prop-1-ynylpyrimidin-2-amine
CH$COMPOUND_CLASS: N/A; Environmental Standard
CH$FORMULA: C14H13N3
CH$EXACT_MASS: 223.1109
CH$SMILES: CC#CC1=CC(C)=NC(NC2=CC=CC=C2)=N1
CH$IUPAC: InChI=1S/C14H13N3/c1-3-7-13-10-11(2)15-14(17-13)16-12-8-5-4-6-9-12/h4-6,8-10H,1-2H3,(H,15,16,17)
CH$LINK: CAS 110235-47-7
CH$LINK: CHEBI CHEBI:6751
CH$LINK: KEGG C10919
CH$LINK: PUBCHEM CID:86296
CH$LINK: INCHIKEY CIFWZNRJIBNXRE-UHFFFAOYSA-N
CH$LINK: CHEMSPIDER 77839
AC$INSTRUMENT: Q Exactive Orbitrap (Thermo Scientific)
AC$INSTRUMENT_TYPE: LC-ESI-QFT
AC$MASS_SPECTROMETRY: MS_TYPE MS2
AC$MASS_SPECTROMETRY: ION_MODE POSITIVE
AC$MASS_SPECTROMETRY: IONIZATION ESI
AC$MASS_SPECTROMETRY: FRAGMENTATION_MODE HCD
AC$MASS_SPECTROMETRY: COLLISION_ENERGY 30
AC$MASS_SPECTROMETRY: RESOLUTION 17500
AC$CHROMATOGRAPHY: COLUMN_NAME Acquity BEH C18 1.7um, 2.1x150mm (Waters)
AC$CHROMATOGRAPHY: FLOW_GRADIENT 90/10 at 0-2 min, 0/100 at 15-20 min, 90/10 at 20.1-30 min
AC$CHROMATOGRAPHY: FLOW_RATE 0.20 mL/min
AC$CHROMATOGRAPHY: RETENTION_TIME 17.957 min
AC$CHROMATOGRAPHY: SOLVENT A 0.1% formic acid
AC$CHROMATOGRAPHY: SOLVENT B methanol
MS$FOCUSED_ION: BASE_PEAK 79.0211
MS$FOCUSED_ION: PRECURSOR_M/Z 224.1182
MS$FOCUSED_ION: PRECURSOR_TYPE [M+H]+
MS$FOCUSED_ION: PRECURSOR_INTENSITY 52935210.3125
MS$DATA_PROCESSING: RECALIBRATE loess on assigned fragments and MS1
MS$DATA_PROCESSING: REANALYZE Peaks with additional N2/O included
MS$DATA_PROCESSING: WHOLE RMassBank 2.99.2
PK$SPLASH: splash10-00di-0090000000-b5795716a34d678f961b
PK$ANNOTATION: m/z tentative_formula formula_count mass error(ppm)
  106.0651 C7H8N+ 1 106.0651 -0.38
  131.0602 C8H7N2+ 1 131.0604 -1.38
  148.112 C10H14N+ 1 148.1121 -0.36
  183.0918 C12H11N2+ 1 183.0917 0.83
  207.0916 C14H11N2+ 1 207.0917 -0.45
  208.0871 C13H10N3+ 1 208.0869 0.84
  209.0949 C13H11N3+ 1 209.0947 0.49
  224.1181 C14H14N3+ 1 224.1182 -0.68
PK$NUM_PEAK: 8
PK$PEAK: m/z int. rel.int.
  106.0651 118908.3 2
  131.0602 95748.3 2
  148.112 82156 2
  183.0918 104614.9 2
  207.0916 65382.3 1
  208.0871 41950.7 1
  209.0949 126455.2 3
  224.1181 39927740 999
//
