ACCESSION: MSBNK-LCSB-LU107504
RECORD_TITLE: Propamocarb; LC-ESI-QFT; MS2; CE: 60; R=17500; [M+H]+
DATE: 2020.08.19
AUTHORS: Elapavalore, A.; Kondić, T.; Singh, R.; Schymanski, E.
LICENSE: CC BY
COPYRIGHT: Copyright © 2019 by Environmental Cheminformatics, LCSB, University of Luxembourg, Luxembourg
PUBLICATION: Elapavalore, A.; Kondić, T.; et al., Adding Open Spectral Data to MassBank and PubChem Using Open Source Tools to Support Non-Targeted Exposomics of Mixtures (submitted).
PROJECT: ENTACT U.S. Environmental Protection Agency’s Non-Targeted Analysis Collaborative Trial
COMMENT: CONFIDENCE standard compound
COMMENT: INTERNAL_ID 1075
COMMENT: DATASET 20200303_ENTACT_RP_MIX503
COMMENT: DATA_PROCESSING MERGING RMBmix ver. 0.2.7
COMMENT: DATA_PROCESSING PRESCREENING Shinyscreen ver. 0.8.0
COMMENT: ORIGINAL_ACQUISITION_NO 3982
COMMENT: ORIGINAL_PRECURSOR_SCAN_NO 3981
COMMENT: RAW_DATA available as MSV000091754 at [DOI:10.25345/C5S46HG75]
CH$NAME: Propamocarb
CH$NAME: propyl N-[3-(dimethylamino)propyl]carbamate
CH$COMPOUND_CLASS: N/A; Environmental Standard
CH$FORMULA: C9H20N2O2
CH$EXACT_MASS: 188.1525
CH$SMILES: CCCOC(=O)NCCCN(C)C
CH$IUPAC: InChI=1S/C9H20N2O2/c1-4-8-13-9(12)10-6-5-7-11(2)3/h4-8H2,1-3H3,(H,10,12)
CH$LINK: CAS 24579-73-5
CH$LINK: CHEBI CHEBI:82033
CH$LINK: KEGG C18885
CH$LINK: PUBCHEM CID:32490
CH$LINK: INCHIKEY WZZLDXDUQPOXNW-UHFFFAOYSA-N
CH$LINK: CHEMSPIDER 30114
AC$INSTRUMENT: Q Exactive Orbitrap (Thermo Scientific)
AC$INSTRUMENT_TYPE: LC-ESI-QFT
AC$MASS_SPECTROMETRY: MS_TYPE MS2
AC$MASS_SPECTROMETRY: ION_MODE POSITIVE
AC$MASS_SPECTROMETRY: IONIZATION ESI
AC$MASS_SPECTROMETRY: FRAGMENTATION_MODE HCD
AC$MASS_SPECTROMETRY: COLLISION_ENERGY 60
AC$MASS_SPECTROMETRY: RESOLUTION 17500
AC$CHROMATOGRAPHY: COLUMN_NAME Acquity BEH C18 1.7um, 2.1x150mm (Waters)
AC$CHROMATOGRAPHY: FLOW_GRADIENT 90/10 at 0-2 min, 0/100 at 15-20 min, 90/10 at 20.1-30 min
AC$CHROMATOGRAPHY: FLOW_RATE 0.20 mL/min
AC$CHROMATOGRAPHY: RETENTION_TIME 7.607 min
AC$CHROMATOGRAPHY: SOLVENT A 0.1% formic acid
AC$CHROMATOGRAPHY: SOLVENT B methanol
MS$FOCUSED_ION: BASE_PEAK 79.0212
MS$FOCUSED_ION: PRECURSOR_M/Z 189.1598
MS$FOCUSED_ION: PRECURSOR_TYPE [M+H]+
MS$FOCUSED_ION: PRECURSOR_INTENSITY 7989142
MS$DATA_PROCESSING: RECALIBRATE loess on assigned fragments and MS1
MS$DATA_PROCESSING: REANALYZE Peaks with additional N2/O included
MS$DATA_PROCESSING: WHOLE RMassBank 2.99.2
PK$SPLASH: splash10-0udi-4900000000-a8b25ed2c9c042be03b4
PK$ANNOTATION: m/z tentative_formula formula_count mass error(ppm)
  53.0023 C3HO+ 1 53.0022 1.34
  56.0495 C3H6N+ 1 56.0495 0.1
  58.0652 C3H8N+ 1 58.0651 0.59
  74.0236 C2H4NO2+ 1 74.0237 -0.39
  84.0445 C4H6NO+ 1 84.0444 0.82
  84.0808 C5H10N+ 1 84.0808 0.63
  86.0965 C5H12N+ 1 86.0964 0.41
  102.055 C4H8NO2+ 1 102.055 0.29
  103.1231 C5H15N2+ 1 103.123 0.85
  104.0496 C7H6N+ 1 104.0495 1.2
  129.1022 C6H13N2O+ 1 129.1022 -0.23
  144.102 C7H14NO2+ 1 144.1019 0.43
  147.1128 C6H15N2O2+ 1 147.1128 0.2
  189.1599 C9H21N2O2+ 1 189.1598 0.78
PK$NUM_PEAK: 14
PK$PEAK: m/z int. rel.int.
  53.0023 7130 1
  56.0495 8359.4 2
  58.0652 403772.8 101
  74.0236 1521922 382
  84.0445 7420.3 1
  84.0808 7312.5 1
  86.0965 108520.8 27
  102.055 3976620.5 999
  103.1231 4977.2 1
  104.0496 5119.5 1
  129.1022 20199.8 5
  144.102 58036.2 14
  147.1128 4507.3 1
  189.1599 10805.7 2
//
