ACCESSION: MSBNK-LCSB-LU025702
RECORD_TITLE: Pymetrozine; LC-ESI-QFT; MS2; CE: 30; R=17500; [M+H]+
DATE: 2020.08.19
AUTHORS: Elapavalore, A.; Kondić, T.; Singh, R.; Schymanski, E.
LICENSE: CC BY
COPYRIGHT: Copyright © 2019 by Environmental Cheminformatics, LCSB, University of Luxembourg, Luxembourg
PUBLICATION: Elapavalore, A.; Kondić, T.; et al., Adding Open Spectral Data to MassBank and PubChem Using Open Source Tools to Support Non-Targeted Exposomics of Mixtures (submitted).
PROJECT: ENTACT U.S. Environmental Protection Agency’s Non-Targeted Analysis Collaborative Trial
COMMENT: CONFIDENCE standard compound
COMMENT: INTERNAL_ID 257
COMMENT: DATASET 20200303_ENTACT_RP_MIX505
COMMENT: DATA_PROCESSING MERGING RMBmix ver. 0.2.7
COMMENT: DATA_PROCESSING PRESCREENING Shinyscreen ver. 0.8.0
COMMENT: ORIGINAL_ACQUISITION_NO 2679
COMMENT: ORIGINAL_PRECURSOR_SCAN_NO 2677
COMMENT: RAW_DATA available as MSV000091754 at [DOI:10.25345/C5S46HG75]
CH$NAME: Pymetrozine
CH$NAME: 6-methyl-4-[(E)-pyridin-3-ylmethylideneamino]-2,5-dihydro-1,2,4-triazin-3-one
CH$COMPOUND_CLASS: N/A; Environmental Standard
CH$FORMULA: C10H11N5O
CH$EXACT_MASS: 217.0964
CH$SMILES: CC1=NNC(=O)N(C1)\N=C\C1=CC=CN=C1
CH$IUPAC: InChI=1S/C10H11N5O/c1-8-7-15(10(16)14-13-8)12-6-9-3-2-4-11-5-9/h2-6H,7H2,1H3,(H,14,16)/b12-6+
CH$LINK: CAS 123312-89-0
CH$LINK: CHEBI CHEBI:39311
CH$LINK: KEGG C18590
CH$LINK: PUBCHEM CID:9576037
CH$LINK: INCHIKEY QHMTXANCGGJZRX-WUXMJOGZSA-N
CH$LINK: CHEMSPIDER 7850487
AC$INSTRUMENT: Q Exactive Orbitrap (Thermo Scientific)
AC$INSTRUMENT_TYPE: LC-ESI-QFT
AC$MASS_SPECTROMETRY: MS_TYPE MS2
AC$MASS_SPECTROMETRY: ION_MODE POSITIVE
AC$MASS_SPECTROMETRY: IONIZATION ESI
AC$MASS_SPECTROMETRY: FRAGMENTATION_MODE HCD
AC$MASS_SPECTROMETRY: COLLISION_ENERGY 30
AC$MASS_SPECTROMETRY: RESOLUTION 17500
AC$CHROMATOGRAPHY: COLUMN_NAME Acquity BEH C18 1.7um, 2.1x150mm (Waters)
AC$CHROMATOGRAPHY: FLOW_GRADIENT 90/10 at 0-2 min, 0/100 at 15-20 min, 90/10 at 20.1-30 min
AC$CHROMATOGRAPHY: FLOW_RATE 0.20 mL/min
AC$CHROMATOGRAPHY: RETENTION_TIME 5.130 min
AC$CHROMATOGRAPHY: SOLVENT A 0.1% formic acid
AC$CHROMATOGRAPHY: SOLVENT B methanol
MS$FOCUSED_ION: BASE_PEAK 79.0211
MS$FOCUSED_ION: PRECURSOR_M/Z 218.1036
MS$FOCUSED_ION: PRECURSOR_TYPE [M+H]+
MS$FOCUSED_ION: PRECURSOR_INTENSITY 9354016.78125
MS$DATA_PROCESSING: RECALIBRATE loess on assigned fragments and MS1
MS$DATA_PROCESSING: REANALYZE Peaks with additional N2/O included
MS$DATA_PROCESSING: WHOLE RMassBank 2.99.2
PK$SPLASH: splash10-0aor-0940000000-62983d8918771ddc9ae6
PK$ANNOTATION: m/z tentative_formula formula_count mass error(ppm)
  79.0419 C5H5N+ 1 79.0417 2.56
  80.0495 C5H6N+ 1 80.0495 -0.07
  92.0496 C6H6N+ 1 92.0495 1.54
  93.0573 C6H7N+ 1 93.0573 0.07
  98.0349 C3H4N3O+ 1 98.0349 0.12
  105.0447 C6H5N2+ 1 105.0447 0.16
  106.0525 C6H6N2+ 1 106.0525 -0.52
  107.0603 C6H7N2+ 1 107.0604 -0.33
  111.0314 C3H3N4O+ 1 111.0301 11.36
  112.0505 C4H6N3O+ 1 112.0505 0.1
  113.0585 C4H7N3O+ 1 113.0584 0.88
  114.0662 C4H8N3O+ 1 114.0662 0.17
  120.0557 C6H6N3+ 2 120.0556 0.92
  134.0713 C7H8N3+ 2 134.0713 0.14
  148.0505 C7H6N3O+ 1 148.0505 -0.3
  218.1036 C10H12N5O+ 1 218.1036 0
PK$NUM_PEAK: 16
PK$PEAK: m/z int. rel.int.
  79.0419 13571 3
  80.0495 15420.6 3
  92.0496 7912.9 1
  93.0573 11741.8 2
  98.0349 4637.9 1
  105.0447 4215222.5 999
  106.0525 40248.7 9
  107.0603 145619.2 34
  111.0314 7793.4 1
  112.0505 6097.5 1
  113.0585 4815 1
  114.0662 14113.2 3
  120.0557 8504.9 2
  134.0713 29810.7 7
  148.0505 9220.6 2
  218.1036 2450967 580
//
