ACCESSION: MSBNK-LCSB-LU063252
RECORD_TITLE: AVE2865; LC-ESI-QFT; MS2; CE: 30; R=17500; [M-H]-
DATE: 2020.08.19
AUTHORS: Elapavalore, A.; Kondić, T.; Singh, R.; Schymanski, E.
LICENSE: CC BY
COPYRIGHT: Copyright © 2019 by Environmental Cheminformatics, LCSB, University of Luxembourg, Luxembourg
PUBLICATION: Elapavalore, A.; Kondić, T.; et al., Adding Open Spectral Data to MassBank and PubChem Using Open Source Tools to Support Non-Targeted Exposomics of Mixtures (submitted).
PROJECT: ENTACT U.S. Environmental Protection Agency’s Non-Targeted Analysis Collaborative Trial
COMMENT: CONFIDENCE standard compound
COMMENT: INTERNAL_ID 632
COMMENT: DATASET 20200303_ENTACT_RP_MIX506
COMMENT: DATA_PROCESSING MERGING RMBmix ver. 0.2.7
COMMENT: DATA_PROCESSING PRESCREENING Shinyscreen ver. 0.8.0
COMMENT: ORIGINAL_ACQUISITION_NO 5074
COMMENT: ORIGINAL_PRECURSOR_SCAN_NO 5070
COMMENT: RAW_DATA available as MSV000091754 at [DOI:10.25345/C5S46HG75]
CH$NAME: AVE2865
CH$NAME: 1-{2-[3-(2-Chloro-4,5-Difluoro-Benzoyl)-Ureido]-4-Fluoro-Phenyl}-Piperidine-4-Carboxylic Acid
CH$NAME: 1-[2-[(2-chloro-4,5-difluorobenzoyl)carbamoylamino]-4-fluorophenyl]piperidine-4-carboxylic acid
CH$COMPOUND_CLASS: N/A; Environmental Standard
CH$FORMULA: C20H17ClF3N3O4
CH$EXACT_MASS: 455.0860
CH$SMILES: OC(=O)C1CCN(CC1)C1=C(NC(=O)NC(=O)C2=CC(F)=C(F)C=C2Cl)C=C(F)C=C1
CH$IUPAC: InChI=1S/C20H17ClF3N3O4/c21-13-9-15(24)14(23)8-12(13)18(28)26-20(31)25-16-7-11(22)1-2-17(16)27-5-3-10(4-6-27)19(29)30/h1-2,7-10H,3-6H2,(H,29,30)(H2,25,26,28,31)
CH$LINK: PUBCHEM CID:12148754
CH$LINK: INCHIKEY KAJJGOCSAXKXBD-UHFFFAOYSA-N
CH$LINK: CHEMSPIDER 10631476
AC$INSTRUMENT: Q Exactive Orbitrap (Thermo Scientific)
AC$INSTRUMENT_TYPE: LC-ESI-QFT
AC$MASS_SPECTROMETRY: MS_TYPE MS2
AC$MASS_SPECTROMETRY: ION_MODE NEGATIVE
AC$MASS_SPECTROMETRY: IONIZATION ESI
AC$MASS_SPECTROMETRY: FRAGMENTATION_MODE HCD
AC$MASS_SPECTROMETRY: COLLISION_ENERGY 30
AC$MASS_SPECTROMETRY: RESOLUTION 17500
AC$CHROMATOGRAPHY: COLUMN_NAME Acquity BEH C18 1.7um, 2.1x150mm (Waters)
AC$CHROMATOGRAPHY: FLOW_GRADIENT 90/10 at 0-2 min, 0/100 at 15-20 min, 90/10 at 20.1-30 min
AC$CHROMATOGRAPHY: FLOW_RATE 0.20 mL/min
AC$CHROMATOGRAPHY: RETENTION_TIME 18.369 min
AC$CHROMATOGRAPHY: SOLVENT A 0.1% formic acid
AC$CHROMATOGRAPHY: SOLVENT B methanol
MS$FOCUSED_ION: BASE_PEAK 292.098
MS$FOCUSED_ION: PRECURSOR_M/Z 454.0787
MS$FOCUSED_ION: PRECURSOR_TYPE [M-H]-
MS$FOCUSED_ION: PRECURSOR_INTENSITY 6825093.658203
MS$DATA_PROCESSING: RECALIBRATE loess on assigned fragments and MS1
MS$DATA_PROCESSING: REANALYZE Peaks with additional N2/O included
MS$DATA_PROCESSING: WHOLE RMassBank 2.99.2
PK$SPLASH: splash10-014i-0090000000-6388d07df7f21438d4c5
PK$ANNOTATION: m/z tentative_formula formula_count mass error(ppm)
  92.0505 C6H6N- 2 92.0506 -0.8
  112.9858 C2F3O2- 2 112.9856 1.53
  113.989 C2H4ClFO2- 4 113.9889 0.35
  135.0365 C7H4FN2- 5 135.0364 0.67
  151.0313 C7H4FN2O- 9 151.0313 0.15
  189.9878 C7H3ClF2NO- 7 189.9877 0.69
  219.0939 C12H12FN2O- 8 219.0939 0.01
  263.0836 C13H12FN2O3- 11 263.0837 -0.52
PK$NUM_PEAK: 8
PK$PEAK: m/z int. rel.int.
  92.0505 7325.7 2
  112.9858 18184 6
  113.989 5019.1 1
  135.0365 9732.1 3
  151.0313 199272.4 76
  189.9878 46823.7 17
  219.0939 2601133.8 999
  263.0836 6109.3 2
//
