ACCESSION: MSBNK-LCSB-LU050905
RECORD_TITLE: SAR115740; LC-ESI-QFT; MS2; CE: 75; R=17500; [M+H]+
DATE: 2020.08.19
AUTHORS: Elapavalore, A.; Kondić, T.; Singh, R.; Schymanski, E.
LICENSE: CC BY
COPYRIGHT: Copyright © 2019 by Environmental Cheminformatics, LCSB, University of Luxembourg, Luxembourg
PUBLICATION: Elapavalore, A.; Kondić, T.; et al., Adding Open Spectral Data to MassBank and PubChem Using Open Source Tools to Support Non-Targeted Exposomics of Mixtures (submitted).
PROJECT: ENTACT U.S. Environmental Protection Agency’s Non-Targeted Analysis Collaborative Trial
COMMENT: CONFIDENCE standard compound
COMMENT: INTERNAL_ID 509
COMMENT: DATASET 20200303_ENTACT_RP_MIX506
COMMENT: DATA_PROCESSING MERGING RMBmix ver. 0.2.7
COMMENT: DATA_PROCESSING PRESCREENING Shinyscreen ver. 0.8.0
COMMENT: ORIGINAL_ACQUISITION_NO 9575
COMMENT: ORIGINAL_PRECURSOR_SCAN_NO 9573
COMMENT: RAW_DATA available as MSV000091754 at [DOI:10.25345/C5S46HG75]
CH$NAME: SAR115740
CH$NAME: 5-fluoro-1-[(3-fluorophenyl)methyl]-N-(1H-indol-5-yl)indole-2-carboxamide
CH$COMPOUND_CLASS: N/A; Environmental Standard
CH$FORMULA: C24H17F2N3O
CH$EXACT_MASS: 401.1340
CH$SMILES: FC1=CC=C2N(CC3=CC(F)=CC=C3)C(=CC2=C1)C(=O)NC1=CC=C2NC=CC2=C1
CH$IUPAC: InChI=1S/C24H17F2N3O/c25-18-3-1-2-15(10-18)14-29-22-7-4-19(26)11-17(22)13-23(29)24(30)28-20-5-6-21-16(12-20)8-9-27-21/h1-13,27H,14H2,(H,28,30)
CH$LINK: PUBCHEM CID:53316382
CH$LINK: INCHIKEY OCSHTBUKRNOLMC-UHFFFAOYSA-N
CH$LINK: CHEMSPIDER 29786997
AC$INSTRUMENT: Q Exactive Orbitrap (Thermo Scientific)
AC$INSTRUMENT_TYPE: LC-ESI-QFT
AC$MASS_SPECTROMETRY: MS_TYPE MS2
AC$MASS_SPECTROMETRY: ION_MODE POSITIVE
AC$MASS_SPECTROMETRY: IONIZATION ESI
AC$MASS_SPECTROMETRY: FRAGMENTATION_MODE HCD
AC$MASS_SPECTROMETRY: COLLISION_ENERGY 75
AC$MASS_SPECTROMETRY: RESOLUTION 17500
AC$CHROMATOGRAPHY: COLUMN_NAME Acquity BEH C18 1.7um, 2.1x150mm (Waters)
AC$CHROMATOGRAPHY: FLOW_GRADIENT 90/10 at 0-2 min, 0/100 at 15-20 min, 90/10 at 20.1-30 min
AC$CHROMATOGRAPHY: FLOW_RATE 0.20 mL/min
AC$CHROMATOGRAPHY: RETENTION_TIME 18.363 min
AC$CHROMATOGRAPHY: SOLVENT A 0.1% formic acid
AC$CHROMATOGRAPHY: SOLVENT B methanol
MS$FOCUSED_ION: BASE_PEAK 79.0212
MS$FOCUSED_ION: PRECURSOR_M/Z 402.1412
MS$FOCUSED_ION: PRECURSOR_TYPE [M+H]+
MS$FOCUSED_ION: PRECURSOR_INTENSITY 6393287.71875
MS$DATA_PROCESSING: RECALIBRATE loess on assigned fragments and MS1
MS$DATA_PROCESSING: REANALYZE Peaks with additional N2/O included
MS$DATA_PROCESSING: WHOLE RMassBank 2.99.2
PK$SPLASH: splash10-0a59-0900000000-ad4f4dcd99a78eb68f27
PK$ANNOTATION: m/z tentative_formula formula_count mass error(ppm)
  57.0135 C3H2F+ 1 57.0135 -0.7
  59.0292 C3H4F+ 1 59.0292 0.1
  63.0228 C5H3+ 2 63.0229 -1.46
  65.0384 FH4N3+ 2 65.0384 0.82
  80.0495 C5H6N+ 2 80.0495 -0.21
  83.0291 C5H4F+ 3 83.0292 -0.09
  89.0386 C7H5+ 3 89.0386 0.15
  95.0492 C6H7O+ 2 95.0491 0.99
  96.0445 C5H6NO+ 1 96.0444 0.72
  104.0495 C7H6N+ 2 104.0495 0.06
  105.045 C6H5N2+ 2 105.0447 2.88
  105.0573 C7H7N+ 2 105.0573 -0.27
  106.0652 C7H8N+ 2 106.0651 0.7
  107.0292 C7H4F+ 3 107.0292 0.19
  108.0445 C6H6NO+ 1 108.0444 1.48
  109.0448 C7H6F+ 3 109.0448 0.19
  110.0399 C6H5FN+ 2 110.0401 -1
  113.0398 C6H6FO+ 4 113.0397 0.47
  116.0495 C8H6N+ 2 116.0495 0.11
  117.0573 C8H7N+ 2 117.0573 -0.38
  123.024 C7H4FO+ 4 123.0241 -0.25
  123.0351 C6H4FN2+ 2 123.0353 -1.26
  128.0494 C9H6N+ 2 128.0495 -0.87
  130.0526 C8H6N2+ 2 130.0525 0.03
  131.0605 C8H7N2+ 2 131.0604 0.64
  132.0682 C8H8N2+ 2 132.0682 -0.04
  133.076 C8H9N2+ 2 133.076 -0.47
  134.04 C8H5FN+ 2 134.0401 -0.08
  134.06 C8H8NO+ 1 134.06 -0.52
  135.0478 C8H6FN+ 2 135.0479 -0.85
  136.0557 C8H7FN+ 2 136.0557 0.18
  143.0604 C9H7N2+ 2 143.0604 0.37
  144.0555 C8H6N3+ 3 144.0556 -0.97
  145.0762 C9H9N2+ 2 145.076 1.35
  146.0399 C9H5FN+ 2 146.0401 -0.91
  148.0557 C9H7FN+ 2 148.0557 0.17
  149.0272 C8H4FNO+ 2 149.0271 0.55
  150.0349 C8H5FNO+ 2 150.035 -0.65
  152.0506 C8H7FNO+ 2 152.0506 -0.3
  159.0552 C9H7N2O+ 1 159.0553 -0.47
  161.071 C9H9N2O+ 1 161.0709 0.43
  162.035 C9H5FNO+ 2 162.035 0.19
  165.0701 C13H9+ 4 165.0699 1.6
  167.0376 C11H5NO+ 1 167.0366 6.16
  171.0552 C10H7N2O+ 1 171.0553 -0.32
  180.0808 C13H10N+ 2 180.0808 0.02
  185.0761 C13H10F+ 3 185.0761 0.21
  191.0728 C14H9N+ 2 191.073 -0.98
  192.0805 C14H10N+ 2 192.0808 -1.67
  195.0606 C14H8F+ 3 195.0605 0.94
  208.1123 C15H14N+ 2 208.1121 0.96
  211.0793 C14H10FN+ 2 211.0792 0.7
  212.0871 C14H11FN+ 2 212.087 0.36
  219.092 C15H11N2+ 2 219.0917 1.35
  221.0631 C15H8FN+ 2 221.0635 -1.84
  222.0714 C15H9FN+ 2 222.0714 -0.01
  223.0788 C15H10FN+ 2 223.0792 -1.83
  237.0823 C15H10FN2+ 2 237.0823 0.11
  238.0901 C15H11FN2+ 2 238.0901 0.13
  239.098 C15H12FN2+ 2 239.0979 0.41
  240.0617 C15H8F2N+ 1 240.0619 -0.95
  252.0618 C16H8F2N+ 1 252.0619 -0.59
  253.0698 C16H9F2N+ 1 253.0698 0.16
  356.1294 C23H17FN2O+ 2 356.1319 -7.08
  357.1383 C23H18FN2O+ 1 357.1398 -4.18
PK$NUM_PEAK: 65
PK$PEAK: m/z int. rel.int.
  57.0135 19442.5 5
  59.0292 16318.4 4
  63.0228 14857.3 3
  65.0384 5255.8 1
  80.0495 7214.7 1
  83.0291 390753.8 102
  89.0386 51121.6 13
  95.0492 4040.4 1
  96.0445 8071.7 2
  104.0495 437099.2 114
  105.045 4084 1
  105.0573 25772.5 6
  106.0652 14899.4 3
  107.0292 237364.3 62
  108.0445 7487.1 1
  109.0448 3803017 999
  110.0399 23246.9 6
  113.0398 7184.5 1
  116.0495 72297.2 18
  117.0573 20960.1 5
  123.024 7720.9 2
  123.0351 6600.5 1
  128.0494 4459.5 1
  130.0526 9025.2 2
  131.0605 1143490.1 300
  132.0682 1851175.8 486
  133.076 55792.6 14
  134.04 41446.6 10
  134.06 47021.3 12
  135.0478 38318.7 10
  136.0557 215289.6 56
  143.0604 57658.1 15
  144.0555 18745.5 4
  145.0762 14024.2 3
  146.0399 5044.3 1
  148.0557 86394.9 22
  149.0272 19790.2 5
  150.0349 13910.6 3
  152.0506 52743.3 13
  159.0552 5571 1
  161.071 7959.4 2
  162.035 199507.7 52
  165.0701 36107.7 9
  167.0376 20924.6 5
  171.0552 88287.8 23
  180.0808 5833.8 1
  185.0761 13738.7 3
  191.0728 6859.4 1
  192.0805 12143 3
  195.0606 14760.5 3
  208.1123 8234.2 2
  211.0793 20942.8 5
  212.0871 73157.7 19
  219.092 5691.8 1
  221.0631 6080.2 1
  222.0714 82372 21
  223.0788 22015.3 5
  237.0823 20285.6 5
  238.0901 16318.2 4
  239.098 31015.2 8
  240.0617 6386.8 1
  252.0618 28162.6 7
  253.0698 10589.7 2
  356.1294 10751.5 2
  357.1383 8901.9 2
//
