ACCESSION: MSBNK-LCSB-LU103752
RECORD_TITLE: 2,3-Quinolinedicarboxylic acid; LC-ESI-QFT; MS2; CE: 30; R=17500; [M-H]-
DATE: 2020.08.19
AUTHORS: Elapavalore, A.; Kondić, T.; Singh, R.; Schymanski, E.
LICENSE: CC BY
COPYRIGHT: Copyright © 2019 by Environmental Cheminformatics, LCSB, University of Luxembourg, Luxembourg
PUBLICATION: Elapavalore, A.; Kondić, T.; et al., Adding Open Spectral Data to MassBank and PubChem Using Open Source Tools to Support Non-Targeted Exposomics of Mixtures (submitted).
PROJECT: ENTACT U.S. Environmental Protection Agency’s Non-Targeted Analysis Collaborative Trial
COMMENT: CONFIDENCE standard compound
COMMENT: INTERNAL_ID 1037
COMMENT: DATASET 20200303_ENTACT_RP_MIX502
COMMENT: DATA_PROCESSING MERGING RMBmix ver. 0.2.7
COMMENT: DATA_PROCESSING PRESCREENING Shinyscreen ver. 0.8.0
COMMENT: ORIGINAL_ACQUISITION_NO 2873
COMMENT: ORIGINAL_PRECURSOR_SCAN_NO 2871
COMMENT: RAW_DATA available as MSV000091754 at [DOI:10.25345/C5S46HG75]
CH$NAME: 2,3-Quinolinedicarboxylic acid
CH$NAME: quinoline-2,3-dicarboxylic acid
CH$COMPOUND_CLASS: N/A; Environmental Standard
CH$FORMULA: C11H7NO4
CH$EXACT_MASS: 217.0375
CH$SMILES: OC(=O)C1=C(N=C2C=CC=CC2=C1)C(O)=O
CH$IUPAC: InChI=1S/C11H7NO4/c13-10(14)7-5-6-3-1-2-4-8(6)12-9(7)11(15)16/h1-5H,(H,13,14)(H,15,16)
CH$LINK: CAS 643-38-9
CH$LINK: PUBCHEM CID:69508
CH$LINK: INCHIKEY YHUVMHKAHWKQBI-UHFFFAOYSA-N
CH$LINK: CHEMSPIDER 62714
AC$INSTRUMENT: Q Exactive Orbitrap (Thermo Scientific)
AC$INSTRUMENT_TYPE: LC-ESI-QFT
AC$MASS_SPECTROMETRY: MS_TYPE MS2
AC$MASS_SPECTROMETRY: ION_MODE NEGATIVE
AC$MASS_SPECTROMETRY: IONIZATION ESI
AC$MASS_SPECTROMETRY: FRAGMENTATION_MODE HCD
AC$MASS_SPECTROMETRY: COLLISION_ENERGY 30
AC$MASS_SPECTROMETRY: RESOLUTION 17500
AC$CHROMATOGRAPHY: COLUMN_NAME Acquity BEH C18 1.7um, 2.1x150mm (Waters)
AC$CHROMATOGRAPHY: FLOW_GRADIENT 90/10 at 0-2 min, 0/100 at 15-20 min, 90/10 at 20.1-30 min
AC$CHROMATOGRAPHY: FLOW_RATE 0.20 mL/min
AC$CHROMATOGRAPHY: RETENTION_TIME 12.181 min
AC$CHROMATOGRAPHY: SOLVENT A 0.1% formic acid
AC$CHROMATOGRAPHY: SOLVENT B methanol
MS$FOCUSED_ION: BASE_PEAK 112.9857
MS$FOCUSED_ION: PRECURSOR_M/Z 216.0302
MS$FOCUSED_ION: PRECURSOR_TYPE [M-H]-
MS$FOCUSED_ION: PRECURSOR_INTENSITY 223976.3625488
MS$DATA_PROCESSING: RECALIBRATE loess on assigned fragments and MS1
MS$DATA_PROCESSING: REANALYZE Peaks with additional N2/O included
MS$DATA_PROCESSING: WHOLE RMassBank 2.99.2
PK$SPLASH: splash10-00b9-0900000000-577969756dee6e839d66
PK$ANNOTATION: m/z tentative_formula formula_count mass error(ppm)
  128.0506 C9H6N- 1 128.0506 0.12
  144.0456 C9H6NO- 1 144.0455 1.06
  172.0405 C10H6NO2- 1 172.0404 0.81
PK$NUM_PEAK: 3
PK$PEAK: m/z int. rel.int.
  128.0506 32884.8 999
  144.0456 4428.1 134
  172.0405 16510.7 501
//
