ACCESSION: MSBNK-LCSB-LU050403
RECORD_TITLE: Pargyline; LC-ESI-QFT; MS2; CE: 45; R=17500; [M+H]+
DATE: 2020.08.19
AUTHORS: Elapavalore, A.; Kondić, T.; Singh, R.; Schymanski, E.
LICENSE: CC BY
COPYRIGHT: Copyright © 2019 by Environmental Cheminformatics, LCSB, University of Luxembourg, Luxembourg
PUBLICATION: Elapavalore, A.; Kondić, T.; et al., Adding Open Spectral Data to MassBank and PubChem Using Open Source Tools to Support Non-Targeted Exposomics of Mixtures (submitted).
PROJECT: ENTACT U.S. Environmental Protection Agency’s Non-Targeted Analysis Collaborative Trial
COMMENT: CONFIDENCE standard compound
COMMENT: INTERNAL_ID 504
COMMENT: DATASET 20200303_ENTACT_RP_MIX506
COMMENT: DATA_PROCESSING MERGING RMBmix ver. 0.2.7
COMMENT: DATA_PROCESSING PRESCREENING Shinyscreen ver. 0.8.0
COMMENT: ORIGINAL_ACQUISITION_NO 4647
COMMENT: ORIGINAL_PRECURSOR_SCAN_NO 4643
COMMENT: RAW_DATA available as MSV000091754 at [DOI:10.25345/C5S46HG75]
CH$NAME: Pargyline
CH$NAME: N-benzyl-N-methylprop-2-yn-1-amine
CH$COMPOUND_CLASS: N/A; Environmental Standard
CH$FORMULA: C11H13N
CH$EXACT_MASS: 159.1048
CH$SMILES: CN(CC#C)CC1=CC=CC=C1
CH$IUPAC: InChI=1S/C11H13N/c1-3-9-12(2)10-11-7-5-4-6-8-11/h1,4-8H,9-10H2,2H3
CH$LINK: CAS 555-57-7
CH$LINK: CHEBI CHEBI:7930
CH$LINK: KEGG C07414
CH$LINK: PUBCHEM CID:4688
CH$LINK: INCHIKEY DPWPWRLQFGFJFI-UHFFFAOYSA-N
CH$LINK: CHEMSPIDER 4526
AC$INSTRUMENT: Q Exactive Orbitrap (Thermo Scientific)
AC$INSTRUMENT_TYPE: LC-ESI-QFT
AC$MASS_SPECTROMETRY: MS_TYPE MS2
AC$MASS_SPECTROMETRY: ION_MODE POSITIVE
AC$MASS_SPECTROMETRY: IONIZATION ESI
AC$MASS_SPECTROMETRY: FRAGMENTATION_MODE HCD
AC$MASS_SPECTROMETRY: COLLISION_ENERGY 45
AC$MASS_SPECTROMETRY: RESOLUTION 17500
AC$CHROMATOGRAPHY: COLUMN_NAME Acquity BEH C18 1.7um, 2.1x150mm (Waters)
AC$CHROMATOGRAPHY: FLOW_GRADIENT 90/10 at 0-2 min, 0/100 at 15-20 min, 90/10 at 20.1-30 min
AC$CHROMATOGRAPHY: FLOW_RATE 0.20 mL/min
AC$CHROMATOGRAPHY: RETENTION_TIME 8.888 min
AC$CHROMATOGRAPHY: SOLVENT A 0.1% formic acid
AC$CHROMATOGRAPHY: SOLVENT B methanol
MS$FOCUSED_ION: BASE_PEAK 79.0211
MS$FOCUSED_ION: PRECURSOR_M/Z 160.1121
MS$FOCUSED_ION: PRECURSOR_TYPE [M+H]+
MS$FOCUSED_ION: PRECURSOR_INTENSITY 4295489.625
MS$DATA_PROCESSING: RECALIBRATE loess on assigned fragments and MS1
MS$DATA_PROCESSING: REANALYZE Peaks with additional N2/O included
MS$DATA_PROCESSING: WHOLE RMassBank 2.99.2
PK$SPLASH: splash10-0006-9200000000-d77489022ab49dca8b6b
PK$ANNOTATION: m/z tentative_formula formula_count mass error(ppm)
  56.0494 C3H6N+ 1 56.0495 -0.72
  65.0386 C5H5+ 1 65.0386 0.68
  68.0495 C4H6N+ 1 68.0495 -0.03
  82.0651 C5H8N+ 1 82.0651 -0.08
  91.0542 C7H7+ 1 91.0542 0.1
  117.0699 C9H9+ 1 117.0699 0.06
  118.065 C8H8N+ 1 118.0651 -0.79
  128.0621 C10H8+ 1 128.0621 0.42
  129.0698 C10H9+ 1 129.0699 -0.27
  130.0652 C9H8N+ 1 130.0651 0.95
  131.0729 C9H9N+ 1 131.073 -0.2
  131.0856 C10H11+ 1 131.0855 0.48
  132.0808 C9H10N+ 1 132.0808 0.06
  143.0858 C11H11+ 1 143.0855 2.15
  144.0807 C10H10N+ 1 144.0808 -0.37
  145.0888 C10H11N+ 1 145.0886 1.33
  160.1121 C11H14N+ 1 160.1121 0.25
PK$NUM_PEAK: 17
PK$PEAK: m/z int. rel.int.
  56.0494 14530.9 14
  65.0386 3753.9 3
  68.0495 13681.3 13
  82.0651 4334 4
  91.0542 1008399.9 999
  117.0699 2328.4 2
  118.065 2694.5 2
  128.0621 17838.9 17
  129.0698 85412.9 84
  130.0652 3031.8 3
  131.0729 3017.9 2
  131.0856 19863.1 19
  132.0808 2603.8 2
  143.0858 1914.6 1
  144.0807 4245.6 4
  145.0888 16064.5 15
  160.1121 97709.7 96
//
