ACCESSION: MSBNK-LCSB-LU113601
RECORD_TITLE: 1-Naphthol; LC-ESI-QFT; MS2; CE: 15; R=17500; [M+H]+
DATE: 2020.08.19
AUTHORS: Elapavalore, A.; Kondić, T.; Singh, R.; Schymanski, E.
LICENSE: CC BY
COPYRIGHT: Copyright © 2019 by Environmental Cheminformatics, LCSB, University of Luxembourg, Luxembourg
PUBLICATION: Elapavalore, A.; Kondić, T.; et al., Adding Open Spectral Data to MassBank and PubChem Using Open Source Tools to Support Non-Targeted Exposomics of Mixtures (submitted).
PROJECT: ENTACT U.S. Environmental Protection Agency’s Non-Targeted Analysis Collaborative Trial
COMMENT: CONFIDENCE standard compound
COMMENT: INTERNAL_ID 1136
COMMENT: DATASET 20200303_ENTACT_RP_MIX505
COMMENT: DATA_PROCESSING MERGING RMBmix ver. 0.2.7
COMMENT: DATA_PROCESSING PRESCREENING Shinyscreen ver. 0.8.0
COMMENT: ORIGINAL_ACQUISITION_NO 9562
COMMENT: ORIGINAL_PRECURSOR_SCAN_NO 9558
COMMENT: RAW_DATA available as MSV000091754 at [DOI:10.25345/C5S46HG75]
CH$NAME: 1-Naphthol
CH$NAME: naphthalen-1-ol
CH$COMPOUND_CLASS: N/A; Environmental Standard
CH$FORMULA: C10H8O
CH$EXACT_MASS: 144.0575
CH$SMILES: OC1=CC=CC2=CC=CC=C12
CH$IUPAC: InChI=1S/C10H8O/c11-10-7-3-5-8-4-1-2-6-9(8)10/h1-7,11H
CH$LINK: CAS 90-15-3
CH$LINK: CHEBI CHEBI:10319
CH$LINK: KEGG C11714
CH$LINK: PUBCHEM CID:7005
CH$LINK: INCHIKEY KJCVRFUGPWSIIH-UHFFFAOYSA-N
CH$LINK: CHEMSPIDER 6739
AC$INSTRUMENT: Q Exactive Orbitrap (Thermo Scientific)
AC$INSTRUMENT_TYPE: LC-ESI-QFT
AC$MASS_SPECTROMETRY: MS_TYPE MS2
AC$MASS_SPECTROMETRY: ION_MODE POSITIVE
AC$MASS_SPECTROMETRY: IONIZATION ESI
AC$MASS_SPECTROMETRY: FRAGMENTATION_MODE HCD
AC$MASS_SPECTROMETRY: COLLISION_ENERGY 15
AC$MASS_SPECTROMETRY: RESOLUTION 17500
AC$CHROMATOGRAPHY: COLUMN_NAME Acquity BEH C18 1.7um, 2.1x150mm (Waters)
AC$CHROMATOGRAPHY: FLOW_GRADIENT 90/10 at 0-2 min, 0/100 at 15-20 min, 90/10 at 20.1-30 min
AC$CHROMATOGRAPHY: FLOW_RATE 0.20 mL/min
AC$CHROMATOGRAPHY: RETENTION_TIME 18.171 min
AC$CHROMATOGRAPHY: SOLVENT A 0.1% formic acid
AC$CHROMATOGRAPHY: SOLVENT B methanol
MS$FOCUSED_ION: BASE_PEAK 79.0211
MS$FOCUSED_ION: PRECURSOR_M/Z 145.0648
MS$FOCUSED_ION: PRECURSOR_TYPE [M+H]+
MS$FOCUSED_ION: PRECURSOR_INTENSITY 8287143.046875
MS$DATA_PROCESSING: RECALIBRATE loess on assigned fragments and MS1
MS$DATA_PROCESSING: REANALYZE Peaks with additional N2/O included
MS$DATA_PROCESSING: WHOLE RMassBank 2.99.2
PK$SPLASH: splash10-014i-0900000000-2c9a0c1eeec686baf8a3
PK$ANNOTATION: m/z tentative_formula formula_count mass error(ppm)
  51.023 C4H3+ 1 51.0229 1.23
  63.0229 C5H3+ 1 63.0229 -0.89
  89.0384 C7H5+ 1 89.0386 -2.11
  91.0542 C7H7+ 1 91.0542 0
  102.0464 C8H6+ 1 102.0464 -0.01
  105.0333 C7H5O+ 1 105.0335 -1.84
  114.0464 C9H6+ 1 114.0464 -0.06
  115.0542 C9H7+ 1 115.0542 0.11
  116.062 C9H8+ 1 116.0621 -0.12
  117.0698 C9H9+ 1 117.0699 -0.48
  130.0413 C9H6O+ 1 130.0413 0.17
  133.0645 C9H9O+ 1 133.0648 -2.52
  145.0648 C10H9O+ 1 145.0648 -0.1
PK$NUM_PEAK: 13
PK$PEAK: m/z int. rel.int.
  51.023 3563.3 1
  63.0229 4829.6 1
  89.0384 3168 1
  91.0542 467723.5 181
  102.0464 331643.6 128
  105.0333 4441.7 1
  114.0464 3844.5 1
  115.0542 2578109.8 999
  116.062 52429.4 20
  117.0698 2120784.5 821
  130.0413 664914.4 257
  133.0645 4654.8 1
  145.0648 1826477.5 707
//
