ACCESSION: MSBNK-LCSB-LU005651
RECORD_TITLE: Fluroxypyr; LC-ESI-QFT; MS2; CE: 15; R=17500; [M-H]-
DATE: 2020.08.19
AUTHORS: Elapavalore, A.; Kondić, T.; Singh, R.; Schymanski, E.
LICENSE: CC BY
COPYRIGHT: Copyright © 2019 by Environmental Cheminformatics, LCSB, University of Luxembourg, Luxembourg
PUBLICATION: Elapavalore, A.; Kondić, T.; et al., Adding Open Spectral Data to MassBank and PubChem Using Open Source Tools to Support Non-Targeted Exposomics of Mixtures (submitted).
PROJECT: ENTACT U.S. Environmental Protection Agency’s Non-Targeted Analysis Collaborative Trial
COMMENT: CONFIDENCE standard compound
COMMENT: INTERNAL_ID 56
COMMENT: DATASET 20200303_ENTACT_RP_MIX501
COMMENT: DATA_PROCESSING MERGING RMBmix ver. 0.2.7
COMMENT: DATA_PROCESSING PRESCREENING Shinyscreen ver. 0.8.0
COMMENT: ORIGINAL_ACQUISITION_NO 3623
COMMENT: ORIGINAL_PRECURSOR_SCAN_NO 3619
COMMENT: RAW_DATA available as MSV000091754 at [DOI:10.25345/C5S46HG75]
CH$NAME: Fluroxypyr
CH$NAME: 2-(4-amino-3,5-dichloro-6-fluoropyridin-2-yl)oxyacetic acid
CH$COMPOUND_CLASS: N/A; Environmental Standard
CH$FORMULA: C7H5Cl2FN2O3
CH$EXACT_MASS: 253.9661
CH$SMILES: NC1=C(Cl)C(F)=NC(OCC(O)=O)=C1Cl
CH$IUPAC: InChI=1S/C7H5Cl2FN2O3/c8-3-5(11)4(9)7(12-6(3)10)15-1-2(13)14/h1H2,(H2,11,12)(H,13,14)
CH$LINK: CAS 69377-81-7
CH$LINK: CHEBI CHEBI:82017
CH$LINK: KEGG C18858
CH$LINK: PUBCHEM CID:50465
CH$LINK: INCHIKEY MEFQWPUMEMWTJP-UHFFFAOYSA-N
CH$LINK: CHEMSPIDER 45757
AC$INSTRUMENT: Q Exactive Orbitrap (Thermo Scientific)
AC$INSTRUMENT_TYPE: LC-ESI-QFT
AC$MASS_SPECTROMETRY: MS_TYPE MS2
AC$MASS_SPECTROMETRY: ION_MODE NEGATIVE
AC$MASS_SPECTROMETRY: IONIZATION ESI
AC$MASS_SPECTROMETRY: FRAGMENTATION_MODE HCD
AC$MASS_SPECTROMETRY: COLLISION_ENERGY 15
AC$MASS_SPECTROMETRY: RESOLUTION 17500
AC$CHROMATOGRAPHY: COLUMN_NAME Acquity BEH C18 1.7um, 2.1x150mm (Waters)
AC$CHROMATOGRAPHY: FLOW_GRADIENT 90/10 at 0-2 min, 0/100 at 15-20 min, 90/10 at 20.1-30 min
AC$CHROMATOGRAPHY: FLOW_RATE 0.20 mL/min
AC$CHROMATOGRAPHY: RETENTION_TIME 15.115 min
AC$CHROMATOGRAPHY: SOLVENT A 0.1% formic acid
AC$CHROMATOGRAPHY: SOLVENT B methanol
MS$FOCUSED_ION: BASE_PEAK 194.9534
MS$FOCUSED_ION: PRECURSOR_M/Z 252.9588
MS$FOCUSED_ION: PRECURSOR_TYPE [M-H]-
MS$FOCUSED_ION: PRECURSOR_INTENSITY 3135245.142822
MS$DATA_PROCESSING: RECALIBRATE loess on assigned fragments and MS1
MS$DATA_PROCESSING: REANALYZE Peaks with additional N2/O included
MS$DATA_PROCESSING: WHOLE RMassBank 2.99.2
PK$SPLASH: splash10-0006-0930000000-8f8ba57801c6353914c1
PK$ANNOTATION: m/z tentative_formula formula_count mass error(ppm)
  138.9706 C5ClN2O- 2 138.9705 0.94
  152.9858 C6H2ClN2O- 3 152.9861 -2.27
  153.0111 C6H2FN2O2- 1 153.0106 3.18
  172.9925 C6H3ClFN2O- 1 172.9923 0.87
  174.9475 C5HCl2N2O- 2 174.9471 2.12
  188.9629 C6H3Cl2N2O- 3 188.9628 0.67
  193.9463 C5HCl2FN2O- 1 193.9455 4.06
  194.9534 C5H2Cl2FN2O- 1 194.9534 0.22
  216.9823 C7H3ClFN2O3- 1 216.9822 0.38
  232.9527 C7H3Cl2N2O3- 1 232.9526 0.31
  252.959 C7H4Cl2FN2O3- 1 252.9588 0.78
PK$NUM_PEAK: 11
PK$PEAK: m/z int. rel.int.
  138.9706 1899.8 1
  152.9858 2043.8 1
  153.0111 1953.7 1
  172.9925 19610.2 16
  174.9475 2669.9 2
  188.9629 29659.3 24
  193.9463 1818.7 1
  194.9534 1195678.4 999
  216.9823 72977.1 60
  232.9527 250914.1 209
  252.959 111044.9 92
//
