ACCESSION: MSBNK-LCSB-LU134603
RECORD_TITLE: Propiconazole; LC-ESI-QFT; MS2; CE: 45; R=17500; [M+H]+
DATE: 2020.08.19
AUTHORS: Elapavalore, A.; Kondić, T.; Singh, R.; Schymanski, E.
LICENSE: CC BY
COPYRIGHT: Copyright © 2019 by Environmental Cheminformatics, LCSB, University of Luxembourg, Luxembourg
PUBLICATION: Elapavalore, A.; Kondić, T.; et al., Adding Open Spectral Data to MassBank and PubChem Using Open Source Tools to Support Non-Targeted Exposomics of Mixtures (submitted).
PROJECT: ENTACT U.S. Environmental Protection Agency’s Non-Targeted Analysis Collaborative Trial
COMMENT: CONFIDENCE standard compound
COMMENT: INTERNAL_ID 1346
COMMENT: DATASET 20200303_ENTACT_RP_MIX504
COMMENT: DATA_PROCESSING MERGING RMBmix ver. 0.2.7
COMMENT: DATA_PROCESSING PRESCREENING Shinyscreen ver. 0.8.0
COMMENT: ORIGINAL_ACQUISITION_NO 9736
COMMENT: ORIGINAL_PRECURSOR_SCAN_NO 9735
COMMENT: RAW_DATA available as MSV000091754 at [DOI:10.25345/C5S46HG75]
CH$NAME: Propiconazole
CH$NAME: 1-[[2-(2,4-dichlorophenyl)-4-propyl-1,3-dioxolan-2-yl]methyl]-1,2,4-triazole
CH$COMPOUND_CLASS: N/A; Environmental Standard
CH$FORMULA: C15H17Cl2N3O2
CH$EXACT_MASS: 341.0698
CH$SMILES: CCCC1COC(CN2C=NC=N2)(O1)C1=C(Cl)C=C(Cl)C=C1
CH$IUPAC: InChI=1S/C15H17Cl2N3O2/c1-2-3-12-7-21-15(22-12,8-20-10-18-9-19-20)13-5-4-11(16)6-14(13)17/h4-6,9-10,12H,2-3,7-8H2,1H3
CH$LINK: CAS 60207-90-1
CH$LINK: CHEBI CHEBI:8489
CH$LINK: KEGG C11121
CH$LINK: PUBCHEM CID:43234
CH$LINK: INCHIKEY STJLVHWMYQXCPB-UHFFFAOYSA-N
CH$LINK: CHEMSPIDER 39402
AC$INSTRUMENT: Q Exactive Orbitrap (Thermo Scientific)
AC$INSTRUMENT_TYPE: LC-ESI-QFT
AC$MASS_SPECTROMETRY: MS_TYPE MS2
AC$MASS_SPECTROMETRY: ION_MODE POSITIVE
AC$MASS_SPECTROMETRY: IONIZATION ESI
AC$MASS_SPECTROMETRY: FRAGMENTATION_MODE HCD
AC$MASS_SPECTROMETRY: COLLISION_ENERGY 45
AC$MASS_SPECTROMETRY: RESOLUTION 17500
AC$CHROMATOGRAPHY: COLUMN_NAME Acquity BEH C18 1.7um, 2.1x150mm (Waters)
AC$CHROMATOGRAPHY: FLOW_GRADIENT 90/10 at 0-2 min, 0/100 at 15-20 min, 90/10 at 20.1-30 min
AC$CHROMATOGRAPHY: FLOW_RATE 0.20 mL/min
AC$CHROMATOGRAPHY: RETENTION_TIME 18.657 min
AC$CHROMATOGRAPHY: SOLVENT A 0.1% formic acid
AC$CHROMATOGRAPHY: SOLVENT B methanol
MS$FOCUSED_ION: BASE_PEAK 79.0212
MS$FOCUSED_ION: PRECURSOR_M/Z 342.0771
MS$FOCUSED_ION: PRECURSOR_TYPE [M+H]+
MS$FOCUSED_ION: PRECURSOR_INTENSITY 10895081.78125
MS$DATA_PROCESSING: RECALIBRATE loess on assigned fragments and MS1
MS$DATA_PROCESSING: REANALYZE Peaks with additional N2/O included
MS$DATA_PROCESSING: WHOLE RMassBank 2.99.2
PK$SPLASH: splash10-0a4i-4900000000-7e8b031722912d807970
PK$ANNOTATION: m/z tentative_formula formula_count mass error(ppm)
  53.0022 C3HO+ 2 53.0022 0.35
  53.9974 C2NO+ 1 53.9974 0.14
  55.0542 C4H7+ 1 55.0542 0.04
  67.0542 C5H7+ 1 67.0542 -0.15
  69.0698 C5H9+ 1 69.0699 -0.4
  70.0399 C2H4N3+ 1 70.04 -0.44
  84.0557 C3H6N3+ 1 84.0556 0.51
  87.0805 C5H11O+ 2 87.0804 0.75
  122.9995 C7H4Cl+ 1 122.9996 -0.69
  152.0023 C8H5ClO+ 4 152.0023 -0.61
  158.9763 C7H5Cl2+ 2 158.9763 0.02
  169.0051 C8H6ClO2+ 5 169.0051 0.07
  172.9555 C7H3Cl2O+ 2 172.9555 -0.07
  172.9921 C8H7Cl2+ 2 172.9919 0.94
  186.9712 C8H5Cl2O+ 3 186.9712 0.15
  190.9661 C7H5Cl2O2+ 4 190.9661 -0.12
  204.9818 C8H7Cl2O2+ 4 204.9818 0.42
  220.0271 C10H7ClN3O+ 4 220.0272 -0.5
  259.0287 C12H13Cl2O2+ 3 259.0287 -0.08
  342.0777 C15H18Cl2N3O2+ 1 342.0771 1.85
PK$NUM_PEAK: 20
PK$PEAK: m/z int. rel.int.
  53.0022 113068.7 25
  53.9974 15488.2 3
  55.0542 6468.9 1
  67.0542 57131.6 13
  69.0698 2001261.2 455
  70.0399 196782.6 44
  84.0557 6982.3 1
  87.0805 7358.9 1
  122.9995 4795.5 1
  152.0023 4517.1 1
  158.9763 4384909.5 999
  169.0051 5235.5 1
  172.9555 136076.1 31
  172.9921 22072.4 5
  186.9712 238340.3 54
  190.9661 105475.2 24
  204.9818 49300.6 11
  220.0271 8184.5 1
  259.0287 34129.1 7
  342.0777 18947.8 4
//
