ACCESSION: MSBNK-LCSB-LU021452
RECORD_TITLE: 4-Hydroxyacetophenone; LC-ESI-QFT; MS2; CE: 30; R=17500; [M-H]-
DATE: 2020.08.19
AUTHORS: Elapavalore, A.; Kondić, T.; Singh, R.; Schymanski, E.
LICENSE: CC BY
COPYRIGHT: Copyright © 2019 by Environmental Cheminformatics, LCSB, University of Luxembourg, Luxembourg
PUBLICATION: Elapavalore, A.; Kondić, T.; et al., Adding Open Spectral Data to MassBank and PubChem Using Open Source Tools to Support Non-Targeted Exposomics of Mixtures (submitted).
PROJECT: ENTACT U.S. Environmental Protection Agency’s Non-Targeted Analysis Collaborative Trial
COMMENT: CONFIDENCE standard compound
COMMENT: INTERNAL_ID 214
COMMENT: DATASET 20200303_ENTACT_RP_MIX505
COMMENT: DATA_PROCESSING MERGING RMBmix ver. 0.2.7
COMMENT: DATA_PROCESSING PRESCREENING Shinyscreen ver. 0.8.0
COMMENT: ORIGINAL_ACQUISITION_NO 3160
COMMENT: ORIGINAL_PRECURSOR_SCAN_NO 3158
COMMENT: RAW_DATA available as MSV000091754 at [DOI:10.25345/C5S46HG75]
CH$NAME: 4-Hydroxyacetophenone
CH$NAME: 4'-Hydroxyacetophenone
CH$NAME: 1-(4-hydroxyphenyl)ethanone
CH$COMPOUND_CLASS: N/A; Environmental Standard
CH$FORMULA: C8H8O2
CH$EXACT_MASS: 136.0524
CH$SMILES: CC(=O)C1=CC=C(O)C=C1
CH$IUPAC: InChI=1S/C8H8O2/c1-6(9)7-2-4-8(10)5-3-7/h2-5,10H,1H3
CH$LINK: CAS 70-70-2
CH$LINK: CHEBI CHEBI:28032
CH$LINK: KEGG C10700
CH$LINK: PUBCHEM CID:7469
CH$LINK: INCHIKEY TXFPEBPIARQUIG-UHFFFAOYSA-N
CH$LINK: CHEMSPIDER 7189
AC$INSTRUMENT: Q Exactive Orbitrap (Thermo Scientific)
AC$INSTRUMENT_TYPE: LC-ESI-QFT
AC$MASS_SPECTROMETRY: MS_TYPE MS2
AC$MASS_SPECTROMETRY: ION_MODE NEGATIVE
AC$MASS_SPECTROMETRY: IONIZATION ESI
AC$MASS_SPECTROMETRY: FRAGMENTATION_MODE HCD
AC$MASS_SPECTROMETRY: COLLISION_ENERGY 30
AC$MASS_SPECTROMETRY: RESOLUTION 17500
AC$CHROMATOGRAPHY: COLUMN_NAME Acquity BEH C18 1.7um, 2.1x150mm (Waters)
AC$CHROMATOGRAPHY: FLOW_GRADIENT 90/10 at 0-2 min, 0/100 at 15-20 min, 90/10 at 20.1-30 min
AC$CHROMATOGRAPHY: FLOW_RATE 0.20 mL/min
AC$CHROMATOGRAPHY: RETENTION_TIME 12.451 min
AC$CHROMATOGRAPHY: SOLVENT A 0.1% formic acid
AC$CHROMATOGRAPHY: SOLVENT B methanol
MS$FOCUSED_ION: BASE_PEAK 135.0451
MS$FOCUSED_ION: PRECURSOR_M/Z 135.0452
MS$FOCUSED_ION: PRECURSOR_TYPE [M-H]-
MS$FOCUSED_ION: PRECURSOR_INTENSITY 27131474.09033
MS$DATA_PROCESSING: RECALIBRATE loess on assigned fragments and MS1
MS$DATA_PROCESSING: REANALYZE Peaks with additional N2/O included
MS$DATA_PROCESSING: WHOLE RMassBank 2.99.2
PK$SPLASH: splash10-000i-3900000000-dbb3e29b1765f12225db
PK$ANNOTATION: m/z tentative_formula formula_count mass error(ppm)
  82.006 C4H2O2- 1 82.006 -0.05
  92.0267 C6H4O- 1 92.0268 -0.69
  93.0346 C6H5O- 1 93.0346 0.5
  95.0139 C5H3O2- 1 95.0139 0.6
  108.0217 C6H4O2- 1 108.0217 0.42
  117.0347 C8H5O- 1 117.0346 0.53
  120.0216 C7H4O2- 1 120.0217 -0.58
  135.0452 C8H7O2- 1 135.0452 0.31
PK$NUM_PEAK: 8
PK$PEAK: m/z int. rel.int.
  82.006 7567 1
  92.0267 47410.9 6
  93.0346 2585557.5 371
  95.0139 129967.8 18
  108.0217 956311.2 137
  117.0347 12444.8 1
  120.0216 53741.8 7
  135.0452 6948338.5 999
//
