ACCESSION: MSBNK-LCSB-LU061555
RECORD_TITLE: Cyclanilide; LC-ESI-QFT; MS2; CE: 75; R=17500; [M-H]-
DATE: 2020.08.19
AUTHORS: Elapavalore, A.; Kondić, T.; Singh, R.; Schymanski, E.
LICENSE: CC BY
COPYRIGHT: Copyright © 2019 by Environmental Cheminformatics, LCSB, University of Luxembourg, Luxembourg
PUBLICATION: Elapavalore, A.; Kondić, T.; et al., Adding Open Spectral Data to MassBank and PubChem Using Open Source Tools to Support Non-Targeted Exposomics of Mixtures (submitted).
PROJECT: ENTACT U.S. Environmental Protection Agency’s Non-Targeted Analysis Collaborative Trial
COMMENT: CONFIDENCE standard compound
COMMENT: INTERNAL_ID 615
COMMENT: DATASET 20200303_ENTACT_RP_MIX506
COMMENT: DATA_PROCESSING MERGING RMBmix ver. 0.2.7
COMMENT: DATA_PROCESSING PRESCREENING Shinyscreen ver. 0.8.0
COMMENT: ORIGINAL_ACQUISITION_NO 5394
COMMENT: ORIGINAL_PRECURSOR_SCAN_NO 5389
COMMENT: RAW_DATA available as MSV000091754 at [DOI:10.25345/C5S46HG75]
CH$NAME: Cyclanilide
CH$NAME: 1-[(2,4-dichlorophenyl)carbamoyl]cyclopropane-1-carboxylic acid
CH$COMPOUND_CLASS: N/A; Environmental Standard
CH$FORMULA: C11H9Cl2NO3
CH$EXACT_MASS: 272.9959
CH$SMILES: OC(=O)C1(CC1)C(=O)NC1=CC=C(Cl)C=C1Cl
CH$IUPAC: InChI=1S/C11H9Cl2NO3/c12-6-1-2-8(7(13)5-6)14-9(15)11(3-4-11)10(16)17/h1-2,5H,3-4H2,(H,14,15)(H,16,17)
CH$LINK: CAS 113136-77-9
CH$LINK: CHEBI CHEBI:148439
CH$LINK: PUBCHEM CID:11097730
CH$LINK: INCHIKEY GLWWLNJJJCTFMZ-UHFFFAOYSA-N
CH$LINK: CHEMSPIDER 9272872
AC$INSTRUMENT: Q Exactive Orbitrap (Thermo Scientific)
AC$INSTRUMENT_TYPE: LC-ESI-QFT
AC$MASS_SPECTROMETRY: MS_TYPE MS2
AC$MASS_SPECTROMETRY: ION_MODE NEGATIVE
AC$MASS_SPECTROMETRY: IONIZATION ESI
AC$MASS_SPECTROMETRY: FRAGMENTATION_MODE HCD
AC$MASS_SPECTROMETRY: COLLISION_ENERGY 75
AC$MASS_SPECTROMETRY: RESOLUTION 17500
AC$CHROMATOGRAPHY: COLUMN_NAME Acquity BEH C18 1.7um, 2.1x150mm (Waters)
AC$CHROMATOGRAPHY: FLOW_GRADIENT 90/10 at 0-2 min, 0/100 at 15-20 min, 90/10 at 20.1-30 min
AC$CHROMATOGRAPHY: FLOW_RATE 0.20 mL/min
AC$CHROMATOGRAPHY: RETENTION_TIME 19.046 min
AC$CHROMATOGRAPHY: SOLVENT A 0.1% formic acid
AC$CHROMATOGRAPHY: SOLVENT B methanol
MS$FOCUSED_ION: BASE_PEAK 271.9888
MS$FOCUSED_ION: PRECURSOR_M/Z 271.9887
MS$FOCUSED_ION: PRECURSOR_TYPE [M-H]-
MS$FOCUSED_ION: PRECURSOR_INTENSITY 51183716.42383
MS$DATA_PROCESSING: RECALIBRATE loess on assigned fragments and MS1
MS$DATA_PROCESSING: REANALYZE Peaks with additional N2/O included
MS$DATA_PROCESSING: WHOLE RMassBank 2.99.2
PK$SPLASH: splash10-0a4i-0900000000-d089ed90ecce6c59b7ca
PK$ANNOTATION: m/z tentative_formula formula_count mass error(ppm)
  88.0193 C6H2N- 1 88.0193 0.04
  123.9959 C6H3ClN- 2 123.996 -0.09
  128.0504 C9H6N- 1 128.0506 -0.98
  156.0454 C10H6NO- 1 156.0455 -0.52
  159.9727 C6H4Cl2N- 2 159.9726 0.15
  172.0188 C7H7ClNO2- 2 172.0171 10.17
  225.9832 C10H6Cl2NO- 1 225.9832 0.21
PK$NUM_PEAK: 7
PK$PEAK: m/z int. rel.int.
  88.0193 5586.9 1
  123.9959 1500080.2 349
  128.0504 8013.1 1
  156.0454 15916.4 3
  159.9727 4282021.5 999
  172.0188 12162.5 2
  225.9832 53293.1 12
//
