ACCESSION: MSBNK-LCSB-LU088456
RECORD_TITLE: Ethyl 5-oxo-1-phenyl-4,5-dihydro-1H-pyrazole-3-carboxylate; LC-ESI-QFT; MS2; CE: 90; R=17500; [M-H]-
DATE: 2020.08.19
AUTHORS: Elapavalore, A.; Kondić, T.; Singh, R.; Schymanski, E.
LICENSE: CC BY
COPYRIGHT: Copyright © 2019 by Environmental Cheminformatics, LCSB, University of Luxembourg, Luxembourg
PUBLICATION: Elapavalore, A.; Kondić, T.; et al., Adding Open Spectral Data to MassBank and PubChem Using Open Source Tools to Support Non-Targeted Exposomics of Mixtures (submitted).
PROJECT: ENTACT U.S. Environmental Protection Agency’s Non-Targeted Analysis Collaborative Trial
COMMENT: CONFIDENCE standard compound
COMMENT: INTERNAL_ID 884
COMMENT: DATASET 20200303_ENTACT_RP_MIX501
COMMENT: DATA_PROCESSING MERGING RMBmix ver. 0.2.7
COMMENT: DATA_PROCESSING PRESCREENING Shinyscreen ver. 0.8.0
COMMENT: ORIGINAL_ACQUISITION_NO 3866
COMMENT: ORIGINAL_PRECURSOR_SCAN_NO 3864
COMMENT: RAW_DATA available as MSV000091754 at [DOI:10.25345/C5S46HG75]
CH$NAME: Ethyl 5-oxo-1-phenyl-4,5-dihydro-1H-pyrazole-3-carboxylate
CH$NAME: ethyl 5-oxo-1-phenyl-4H-pyrazole-3-carboxylate
CH$COMPOUND_CLASS: N/A; Environmental Standard
CH$FORMULA: C12H12N2O3
CH$EXACT_MASS: 232.0848
CH$SMILES: CCOC(=O)C1=NN(C(=O)C1)C1=CC=CC=C1
CH$IUPAC: InChI=1S/C12H12N2O3/c1-2-17-12(16)10-8-11(15)14(13-10)9-6-4-3-5-7-9/h3-7H,2,8H2,1H3
CH$LINK: CAS 89-33-8
CH$LINK: PUBCHEM CID:66636
CH$LINK: INCHIKEY WBFXQKNQVZMOSQ-UHFFFAOYSA-N
CH$LINK: CHEMSPIDER 60003
AC$INSTRUMENT: Q Exactive Orbitrap (Thermo Scientific)
AC$INSTRUMENT_TYPE: LC-ESI-QFT
AC$MASS_SPECTROMETRY: MS_TYPE MS2
AC$MASS_SPECTROMETRY: ION_MODE NEGATIVE
AC$MASS_SPECTROMETRY: IONIZATION ESI
AC$MASS_SPECTROMETRY: FRAGMENTATION_MODE HCD
AC$MASS_SPECTROMETRY: COLLISION_ENERGY 90
AC$MASS_SPECTROMETRY: RESOLUTION 17500
AC$CHROMATOGRAPHY: COLUMN_NAME Acquity BEH C18 1.7um, 2.1x150mm (Waters)
AC$CHROMATOGRAPHY: FLOW_GRADIENT 90/10 at 0-2 min, 0/100 at 15-20 min, 90/10 at 20.1-30 min
AC$CHROMATOGRAPHY: FLOW_RATE 0.20 mL/min
AC$CHROMATOGRAPHY: RETENTION_TIME 15.876 min
AC$CHROMATOGRAPHY: SOLVENT A 0.1% formic acid
AC$CHROMATOGRAPHY: SOLVENT B methanol
MS$FOCUSED_ION: BASE_PEAK 331.0612
MS$FOCUSED_ION: PRECURSOR_M/Z 231.0775
MS$FOCUSED_ION: PRECURSOR_TYPE [M-H]-
MS$FOCUSED_ION: PRECURSOR_INTENSITY 4699041.237793
MS$DATA_PROCESSING: RECALIBRATE loess on assigned fragments and MS1
MS$DATA_PROCESSING: REANALYZE Peaks with additional N2/O included
MS$DATA_PROCESSING: WHOLE RMassBank 2.99.2
PK$SPLASH: splash10-014i-6900000000-dc72f23f9a12cbd3996c
PK$ANNOTATION: m/z tentative_formula formula_count mass error(ppm)
  65.9985 C3NO- 1 65.9985 0.08
  92.0506 C6H6N- 1 92.0506 -0.06
  101.0397 C8H5- 1 101.0397 0.41
  112.0403 C5H6NO2- 1 112.0404 -0.58
  116.0506 C8H6N- 1 116.0506 -0.04
  117.0458 C7H5N2- 1 117.0458 0.03
  156.0329 C9H4N2O- 1 156.0329 -0.26
  157.0407 C9H5N2O- 1 157.0407 -0.14
PK$NUM_PEAK: 8
PK$PEAK: m/z int. rel.int.
  65.9985 313847.9 999
  92.0506 15255.9 48
  101.0397 2973.9 9
  112.0403 8309.1 26
  116.0506 71038.2 226
  117.0458 192085.6 611
  156.0329 5117.8 16
  157.0407 165082.9 525
//
