ACCESSION: MSBNK-LCSB-LU138452
RECORD_TITLE: Hexylparaben; LC-ESI-QFT; MS2; CE: 30; R=17500; [M-H]-
DATE: 2020.08.19
AUTHORS: Elapavalore, A.; Kondić, T.; Singh, R.; Schymanski, E.
LICENSE: CC BY
COPYRIGHT: Copyright © 2019 by Environmental Cheminformatics, LCSB, University of Luxembourg, Luxembourg
PUBLICATION: Elapavalore, A.; Kondić, T.; et al., Adding Open Spectral Data to MassBank and PubChem Using Open Source Tools to Support Non-Targeted Exposomics of Mixtures (submitted).
PROJECT: ENTACT U.S. Environmental Protection Agency’s Non-Targeted Analysis Collaborative Trial
COMMENT: CONFIDENCE standard compound
COMMENT: INTERNAL_ID 1384
COMMENT: DATASET 20200303_ENTACT_RP_MIX506
COMMENT: DATA_PROCESSING MERGING RMBmix ver. 0.2.7
COMMENT: DATA_PROCESSING PRESCREENING Shinyscreen ver. 0.8.0
COMMENT: ORIGINAL_ACQUISITION_NO 5351
COMMENT: ORIGINAL_PRECURSOR_SCAN_NO 5350
COMMENT: RAW_DATA available as MSV000091754 at [DOI:10.25345/C5S46HG75]
CH$NAME: Hexylparaben
CH$NAME: hexyl 4-hydroxybenzoate
CH$COMPOUND_CLASS: N/A; Environmental Standard
CH$FORMULA: C13H18O3
CH$EXACT_MASS: 222.1256
CH$SMILES: CCCCCCOC(=O)C1=CC=C(O)C=C1
CH$IUPAC: InChI=1S/C13H18O3/c1-2-3-4-5-10-16-13(15)11-6-8-12(14)9-7-11/h6-9,14H,2-5,10H2,1H3
CH$LINK: CAS 1083-27-8
CH$LINK: PUBCHEM CID:14127
CH$LINK: INCHIKEY ULULAZKOCFNOIM-UHFFFAOYSA-N
CH$LINK: CHEMSPIDER 13504
AC$INSTRUMENT: Q Exactive Orbitrap (Thermo Scientific)
AC$INSTRUMENT_TYPE: LC-ESI-QFT
AC$MASS_SPECTROMETRY: MS_TYPE MS2
AC$MASS_SPECTROMETRY: ION_MODE NEGATIVE
AC$MASS_SPECTROMETRY: IONIZATION ESI
AC$MASS_SPECTROMETRY: FRAGMENTATION_MODE HCD
AC$MASS_SPECTROMETRY: COLLISION_ENERGY 30
AC$MASS_SPECTROMETRY: RESOLUTION 17500
AC$CHROMATOGRAPHY: COLUMN_NAME Acquity BEH C18 1.7um, 2.1x150mm (Waters)
AC$CHROMATOGRAPHY: FLOW_GRADIENT 90/10 at 0-2 min, 0/100 at 15-20 min, 90/10 at 20.1-30 min
AC$CHROMATOGRAPHY: FLOW_RATE 0.20 mL/min
AC$CHROMATOGRAPHY: RETENTION_TIME 18.967 min
AC$CHROMATOGRAPHY: SOLVENT A 0.1% formic acid
AC$CHROMATOGRAPHY: SOLVENT B methanol
MS$FOCUSED_ION: BASE_PEAK 221.1183
MS$FOCUSED_ION: PRECURSOR_M/Z 221.1183
MS$FOCUSED_ION: PRECURSOR_TYPE [M-H]-
MS$FOCUSED_ION: PRECURSOR_INTENSITY 46102995.30273
MS$DATA_PROCESSING: RECALIBRATE loess on assigned fragments and MS1
MS$DATA_PROCESSING: REANALYZE Peaks with additional N2/O included
MS$DATA_PROCESSING: WHOLE RMassBank 2.99.2
PK$SPLASH: splash10-00di-1490000000-ef88e8a42ec43ecba939
PK$ANNOTATION: m/z tentative_formula formula_count mass error(ppm)
  82.006 C4H2O2- 1 82.006 0.15
  91.0189 C6H3O- 1 91.0189 -0.23
  92.0263 C6H4O- 1 92.0268 -5.29
  93.0346 C6H5O- 1 93.0346 0.03
  95.0139 C5H3O2- 1 95.0139 0.15
  99.0817 C6H11O- 1 99.0815 2.09
  108.0217 C6H4O2- 1 108.0217 0.09
  119.0137 C7H3O2- 1 119.0139 -1.27
  121.0295 C7H5O2- 1 121.0295 -0.43
  123.0088 C6H3O3- 1 123.0088 0.02
  136.0166 C7H4O3- 1 136.0166 0.01
  137.0244 C7H5O3- 1 137.0244 -0.19
  177.1285 C12H17O- 1 177.1285 0.14
  221.1183 C13H17O3- 1 221.1183 -0.29
PK$NUM_PEAK: 14
PK$PEAK: m/z int. rel.int.
  82.006 19569.8 1
  91.0189 18514.5 1
  92.0263 235900.3 14
  93.0346 1326984.2 81
  95.0139 263434.5 16
  99.0817 18970.1 1
  108.0217 233612.2 14
  119.0137 54864.4 3
  121.0295 39730.5 2
  123.0088 27281.6 1
  136.0166 3494371.8 214
  137.0244 3489673.5 213
  177.1285 32688.9 2
  221.1183 16303643 999
//
