ACCESSION: MSBNK-LCSB-LU105902
RECORD_TITLE: UK-416244; LC-ESI-QFT; MS2; CE: 30; R=17500; [M+H]+
DATE: 2020.08.19
AUTHORS: Elapavalore, A.; Kondić, T.; Singh, R.; Schymanski, E.
LICENSE: CC BY
COPYRIGHT: Copyright © 2019 by Environmental Cheminformatics, LCSB, University of Luxembourg, Luxembourg
PUBLICATION: Elapavalore, A.; Kondić, T.; et al., Adding Open Spectral Data to MassBank and PubChem Using Open Source Tools to Support Non-Targeted Exposomics of Mixtures (submitted).
PROJECT: ENTACT U.S. Environmental Protection Agency’s Non-Targeted Analysis Collaborative Trial
COMMENT: CONFIDENCE standard compound
COMMENT: INTERNAL_ID 1059
COMMENT: DATASET 20200303_ENTACT_RP_MIX503
COMMENT: DATA_PROCESSING MERGING RMBmix ver. 0.2.7
COMMENT: DATA_PROCESSING PRESCREENING Shinyscreen ver. 0.8.0
COMMENT: ORIGINAL_ACQUISITION_NO 7266
COMMENT: ORIGINAL_PRECURSOR_SCAN_NO 7262
COMMENT: RAW_DATA available as MSV000091754 at [DOI:10.25345/C5S46HG75]
CH$NAME: UK-416244
CH$NAME: 3-((Dimethylamino)methyl)-4-(3-methyl-4-(methylthio)phenoxy)benzenesulfonamide
CH$NAME: 3-[(dimethylamino)methyl]-4-(3-methyl-4-methylsulfanylphenoxy)benzenesulfonamide
CH$COMPOUND_CLASS: N/A; Environmental Standard
CH$FORMULA: C17H22N2O3S2
CH$EXACT_MASS: 366.1072
CH$SMILES: CSC1=CC=C(OC2=CC=C(C=C2CN(C)C)S(N)(=O)=O)C=C1C
CH$IUPAC: InChI=1S/C17H22N2O3S2/c1-12-9-14(5-8-17(12)23-4)22-16-7-6-15(24(18,20)21)10-13(16)11-19(2)3/h5-10H,11H2,1-4H3,(H2,18,20,21)
CH$LINK: PUBCHEM CID:9969177
CH$LINK: INCHIKEY QIWQQMZFTOCFGF-UHFFFAOYSA-N
CH$LINK: CHEMSPIDER 8144769
AC$INSTRUMENT: Q Exactive Orbitrap (Thermo Scientific)
AC$INSTRUMENT_TYPE: LC-ESI-QFT
AC$MASS_SPECTROMETRY: MS_TYPE MS2
AC$MASS_SPECTROMETRY: ION_MODE POSITIVE
AC$MASS_SPECTROMETRY: IONIZATION ESI
AC$MASS_SPECTROMETRY: FRAGMENTATION_MODE HCD
AC$MASS_SPECTROMETRY: COLLISION_ENERGY 30
AC$MASS_SPECTROMETRY: RESOLUTION 17500
AC$CHROMATOGRAPHY: COLUMN_NAME Acquity BEH C18 1.7um, 2.1x150mm (Waters)
AC$CHROMATOGRAPHY: FLOW_GRADIENT 90/10 at 0-2 min, 0/100 at 15-20 min, 90/10 at 20.1-30 min
AC$CHROMATOGRAPHY: FLOW_RATE 0.20 mL/min
AC$CHROMATOGRAPHY: RETENTION_TIME 13.853 min
AC$CHROMATOGRAPHY: SOLVENT A 0.1% formic acid
AC$CHROMATOGRAPHY: SOLVENT B methanol
MS$FOCUSED_ION: BASE_PEAK 79.0212
MS$FOCUSED_ION: PRECURSOR_M/Z 367.1145
MS$FOCUSED_ION: PRECURSOR_TYPE [M+H]+
MS$FOCUSED_ION: PRECURSOR_INTENSITY 19238426
MS$DATA_PROCESSING: RECALIBRATE loess on assigned fragments and MS1
MS$DATA_PROCESSING: REANALYZE Peaks with additional N2/O included
MS$DATA_PROCESSING: WHOLE RMassBank 2.99.2
PK$SPLASH: splash10-00b9-0093000000-7d2a057b9a144c880485
PK$ANNOTATION: m/z tentative_formula formula_count mass error(ppm)
  137.0419 C8H9S+ 2 137.0419 -0.3
  186.0221 C7H8NO3S+ 3 186.0219 0.75
  194.0723 C14H10O+ 2 194.0726 -1.42
  195.0804 C14H11O+ 3 195.0804 -0.37
  226.0625 C14H10O3+ 4 226.0624 0.23
  241.068 C15H13OS+ 3 241.0682 -0.52
  242.0759 C15H14OS+ 3 242.076 -0.31
  259.0426 C14H11O3S+ 4 259.0423 1.01
  260.0375 C13H10NO3S+ 4 260.0376 -0.31
  274.0533 C14H12NO3S+ 4 274.0532 0.29
  275.0609 C14H13NO3S+ 4 275.0611 -0.52
  276.0688 C14H14NO3S+ 4 276.0689 -0.45
  306.0254 C14H12NO3S2+ 3 306.0253 0.37
  307.0328 C14H13NO3S2+ 3 307.0331 -1.06
  320.0409 C15H14NO3S2+ 1 320.041 -0.06
  322.0565 C15H16NO3S2+ 1 322.0566 -0.23
  367.1144 C17H23N2O3S2+ 1 367.1145 -0.14
PK$NUM_PEAK: 17
PK$PEAK: m/z int. rel.int.
  137.0419 27530.4 3
  186.0221 43186.5 5
  194.0723 74566.7 9
  195.0804 206254.5 24
  226.0625 78927.6 9
  241.068 68057 8
  242.0759 2155888 260
  259.0426 14115.8 1
  260.0375 1128200 136
  274.0533 1102014.5 133
  275.0609 8273505.5 999
  276.0688 46462.6 5
  306.0254 45517.5 5
  307.0328 70460.1 8
  320.0409 98876 11
  322.0565 3197407.8 386
  367.1144 1119760.4 135
//
