ACCESSION: MSBNK-LCSB-LU067352
RECORD_TITLE: 6-Chloro-2-picolinic acid; LC-ESI-QFT; MS2; CE: 30; R=17500; [M-H]-
DATE: 2020.08.19
AUTHORS: Elapavalore, A.; Kondić, T.; Singh, R.; Schymanski, E.
LICENSE: CC BY
COPYRIGHT: Copyright © 2019 by Environmental Cheminformatics, LCSB, University of Luxembourg, Luxembourg
PUBLICATION: Elapavalore, A.; Kondić, T.; et al., Adding Open Spectral Data to MassBank and PubChem Using Open Source Tools to Support Non-Targeted Exposomics of Mixtures (submitted).
PROJECT: ENTACT U.S. Environmental Protection Agency’s Non-Targeted Analysis Collaborative Trial
COMMENT: CONFIDENCE standard compound
COMMENT: INTERNAL_ID 673
COMMENT: DATASET 20200303_ENTACT_RP_MIX506
COMMENT: DATA_PROCESSING MERGING RMBmix ver. 0.2.7
COMMENT: DATA_PROCESSING PRESCREENING Shinyscreen ver. 0.8.0
COMMENT: ORIGINAL_ACQUISITION_NO 2800
COMMENT: ORIGINAL_PRECURSOR_SCAN_NO 2798
COMMENT: RAW_DATA available as MSV000091754 at [DOI:10.25345/C5S46HG75]
CH$NAME: 6-Chloro-2-picolinic acid
CH$NAME: 6-Chloropicolinic acid
CH$NAME: 6-chloropyridine-2-carboxylic acid
CH$COMPOUND_CLASS: N/A; Environmental Standard
CH$FORMULA: C6H4ClNO2
CH$EXACT_MASS: 156.9931
CH$SMILES: OC(=O)C1=NC(Cl)=CC=C1
CH$IUPAC: InChI=1S/C6H4ClNO2/c7-5-3-1-2-4(8-5)6(9)10/h1-3H,(H,9,10)
CH$LINK: CAS 3222-47-7
CH$LINK: PUBCHEM CID:20812
CH$LINK: INCHIKEY ZLKMOIHCHCMSFW-UHFFFAOYSA-N
CH$LINK: CHEMSPIDER 19588
AC$INSTRUMENT: Q Exactive Orbitrap (Thermo Scientific)
AC$INSTRUMENT_TYPE: LC-ESI-QFT
AC$MASS_SPECTROMETRY: MS_TYPE MS2
AC$MASS_SPECTROMETRY: ION_MODE NEGATIVE
AC$MASS_SPECTROMETRY: IONIZATION ESI
AC$MASS_SPECTROMETRY: FRAGMENTATION_MODE HCD
AC$MASS_SPECTROMETRY: COLLISION_ENERGY 30
AC$MASS_SPECTROMETRY: RESOLUTION 17500
AC$CHROMATOGRAPHY: COLUMN_NAME Acquity BEH C18 1.7um, 2.1x150mm (Waters)
AC$CHROMATOGRAPHY: FLOW_GRADIENT 90/10 at 0-2 min, 0/100 at 15-20 min, 90/10 at 20.1-30 min
AC$CHROMATOGRAPHY: FLOW_RATE 0.20 mL/min
AC$CHROMATOGRAPHY: RETENTION_TIME 11.302 min
AC$CHROMATOGRAPHY: SOLVENT A 0.1% formic acid
AC$CHROMATOGRAPHY: SOLVENT B methanol
MS$FOCUSED_ION: BASE_PEAK 290.0858
MS$FOCUSED_ION: PRECURSOR_M/Z 155.9858
MS$FOCUSED_ION: PRECURSOR_TYPE [M-H]-
MS$FOCUSED_ION: PRECURSOR_INTENSITY 548286.0253906
MS$DATA_PROCESSING: RECALIBRATE loess on assigned fragments and MS1
MS$DATA_PROCESSING: REANALYZE Peaks with additional N2/O included
MS$DATA_PROCESSING: WHOLE RMassBank 2.99.2
PK$SPLASH: splash10-03di-0900000000-691496497a4f6b9d7ed1
PK$ANNOTATION: m/z tentative_formula formula_count mass error(ppm)
  111.996 C5H3ClN- 1 111.996 0.42
  155.986 C6H3ClNO2- 1 155.9858 1.34
PK$NUM_PEAK: 2
PK$PEAK: m/z int. rel.int.
  111.996 114649.7 999
  155.986 15020.5 130
//
