ACCESSION: MSBNK-LCSB-LU041002
RECORD_TITLE: N-(3-Chloro-4-methylphenyl)acetamide; LC-ESI-QFT; MS2; CE: 30; R=17500; [M+H]+
DATE: 2020.08.19
AUTHORS: Elapavalore, A.; Kondić, T.; Singh, R.; Schymanski, E.
LICENSE: CC BY
COPYRIGHT: Copyright © 2019 by Environmental Cheminformatics, LCSB, University of Luxembourg, Luxembourg
PUBLICATION: Elapavalore, A.; Kondić, T.; et al., Adding Open Spectral Data to MassBank and PubChem Using Open Source Tools to Support Non-Targeted Exposomics of Mixtures (submitted).
PROJECT: ENTACT U.S. Environmental Protection Agency’s Non-Targeted Analysis Collaborative Trial
COMMENT: CONFIDENCE standard compound
COMMENT: INTERNAL_ID 410
COMMENT: DATASET 20200303_ENTACT_RP_MIX505
COMMENT: DATA_PROCESSING MERGING RMBmix ver. 0.2.7
COMMENT: DATA_PROCESSING PRESCREENING Shinyscreen ver. 0.8.0
COMMENT: ORIGINAL_ACQUISITION_NO 8631
COMMENT: ORIGINAL_PRECURSOR_SCAN_NO 8627
COMMENT: RAW_DATA available as MSV000091754 at [DOI:10.25345/C5S46HG75]
CH$NAME: N-(3-Chloro-4-methylphenyl)acetamide
CH$COMPOUND_CLASS: N/A; Environmental Standard
CH$FORMULA: C9H10ClNO
CH$EXACT_MASS: 183.0451
CH$SMILES: CC(=O)NC1=CC(Cl)=C(C)C=C1
CH$IUPAC: InChI=1S/C9H10ClNO/c1-6-3-4-8(5-9(6)10)11-7(2)12/h3-5H,1-2H3,(H,11,12)
CH$LINK: CAS 7149-79-3
CH$LINK: PUBCHEM CID:23537
CH$LINK: INCHIKEY IGLVCWPPISIXPR-UHFFFAOYSA-N
CH$LINK: CHEMSPIDER 22007
AC$INSTRUMENT: Q Exactive Orbitrap (Thermo Scientific)
AC$INSTRUMENT_TYPE: LC-ESI-QFT
AC$MASS_SPECTROMETRY: MS_TYPE MS2
AC$MASS_SPECTROMETRY: ION_MODE POSITIVE
AC$MASS_SPECTROMETRY: IONIZATION ESI
AC$MASS_SPECTROMETRY: FRAGMENTATION_MODE HCD
AC$MASS_SPECTROMETRY: COLLISION_ENERGY 30
AC$MASS_SPECTROMETRY: RESOLUTION 17500
AC$CHROMATOGRAPHY: COLUMN_NAME Acquity BEH C18 1.7um, 2.1x150mm (Waters)
AC$CHROMATOGRAPHY: FLOW_GRADIENT 90/10 at 0-2 min, 0/100 at 15-20 min, 90/10 at 20.1-30 min
AC$CHROMATOGRAPHY: FLOW_RATE 0.20 mL/min
AC$CHROMATOGRAPHY: RETENTION_TIME 16.482 min
AC$CHROMATOGRAPHY: SOLVENT A 0.1% formic acid
AC$CHROMATOGRAPHY: SOLVENT B methanol
MS$FOCUSED_ION: BASE_PEAK 79.0211
MS$FOCUSED_ION: PRECURSOR_M/Z 184.0524
MS$FOCUSED_ION: PRECURSOR_TYPE [M+H]+
MS$FOCUSED_ION: PRECURSOR_INTENSITY 735671.75
MS$DATA_PROCESSING: RECALIBRATE loess on assigned fragments and MS1
MS$DATA_PROCESSING: REANALYZE Peaks with additional N2/O included
MS$DATA_PROCESSING: WHOLE RMassBank 2.99.2
PK$SPLASH: splash10-001l-0900000000-43fc662a63a9e6c5fbbd
PK$ANNOTATION: m/z tentative_formula formula_count mass error(ppm)
  106.0651 C7H8N+ 1 106.0651 -0.4
  107.0729 C7H9N+ 1 107.073 -0.07
  138.0124 C7H5ClN+ 1 138.0105 13.7
  142.0419 C7H9ClN+ 1 142.0418 0.6
  143.0258 C7H8ClO+ 1 143.0258 -0.41
  166.0422 C9H9ClN+ 1 166.0418 2.19
  184.0525 C9H11ClNO+ 1 184.0524 0.58
PK$NUM_PEAK: 7
PK$PEAK: m/z int. rel.int.
  106.0651 2145.9 3
  107.0729 36208.7 52
  138.0124 3171.6 4
  142.0419 556522.2 805
  143.0258 2916.1 4
  166.0422 5576.1 8
  184.0525 689881.6 999
//
