ACCESSION: MSBNK-LCSB-LU064904
RECORD_TITLE: 3-Hydroxy-2-naphthoic o-anisidide; LC-ESI-QFT; MS2; CE: 60; R=17500; [M+H]+
DATE: 2020.08.19
AUTHORS: Elapavalore, A.; Kondić, T.; Singh, R.; Schymanski, E.
LICENSE: CC BY
COPYRIGHT: Copyright © 2019 by Environmental Cheminformatics, LCSB, University of Luxembourg, Luxembourg
PUBLICATION: Elapavalore, A.; Kondić, T.; et al., Adding Open Spectral Data to MassBank and PubChem Using Open Source Tools to Support Non-Targeted Exposomics of Mixtures (submitted).
PROJECT: ENTACT U.S. Environmental Protection Agency’s Non-Targeted Analysis Collaborative Trial
COMMENT: CONFIDENCE standard compound
COMMENT: INTERNAL_ID 649
COMMENT: DATASET 20200303_ENTACT_RP_MIX506
COMMENT: DATA_PROCESSING MERGING RMBmix ver. 0.2.7
COMMENT: DATA_PROCESSING PRESCREENING Shinyscreen ver. 0.8.0
COMMENT: ORIGINAL_ACQUISITION_NO 9583
COMMENT: ORIGINAL_PRECURSOR_SCAN_NO 9581
COMMENT: RAW_DATA available as MSV000091754 at [DOI:10.25345/C5S46HG75]
CH$NAME: 3-Hydroxy-2-naphthoic o-anisidide
CH$NAME: 3-Hydroxy-2'-methoxy-2-naphthanilide
CH$NAME: 3-hydroxy-N-(2-methoxyphenyl)naphthalene-2-carboxamide
CH$COMPOUND_CLASS: N/A; Environmental Standard
CH$FORMULA: C18H15NO3
CH$EXACT_MASS: 293.1052
CH$SMILES: COC1=CC=CC=C1NC(=O)C1=CC2=C(C=CC=C2)C=C1O
CH$IUPAC: InChI=1S/C18H15NO3/c1-22-17-9-5-4-8-15(17)19-18(21)14-10-12-6-2-3-7-13(12)11-16(14)20/h2-11,20H,1H3,(H,19,21)
CH$LINK: CAS 135-62-6
CH$LINK: PUBCHEM CID:67274
CH$LINK: INCHIKEY AQYMRQUYPFCXDM-UHFFFAOYSA-N
CH$LINK: CHEMSPIDER 60606
AC$INSTRUMENT: Q Exactive Orbitrap (Thermo Scientific)
AC$INSTRUMENT_TYPE: LC-ESI-QFT
AC$MASS_SPECTROMETRY: MS_TYPE MS2
AC$MASS_SPECTROMETRY: ION_MODE POSITIVE
AC$MASS_SPECTROMETRY: IONIZATION ESI
AC$MASS_SPECTROMETRY: FRAGMENTATION_MODE HCD
AC$MASS_SPECTROMETRY: COLLISION_ENERGY 60
AC$MASS_SPECTROMETRY: RESOLUTION 17500
AC$CHROMATOGRAPHY: COLUMN_NAME Acquity BEH C18 1.7um, 2.1x150mm (Waters)
AC$CHROMATOGRAPHY: FLOW_GRADIENT 90/10 at 0-2 min, 0/100 at 15-20 min, 90/10 at 20.1-30 min
AC$CHROMATOGRAPHY: FLOW_RATE 0.20 mL/min
AC$CHROMATOGRAPHY: RETENTION_TIME 18.374 min
AC$CHROMATOGRAPHY: SOLVENT A 0.1% formic acid
AC$CHROMATOGRAPHY: SOLVENT B methanol
MS$FOCUSED_ION: BASE_PEAK 79.0211
MS$FOCUSED_ION: PRECURSOR_M/Z 294.1125
MS$FOCUSED_ION: PRECURSOR_TYPE [M+H]+
MS$FOCUSED_ION: PRECURSOR_INTENSITY 3770462.25
MS$DATA_PROCESSING: RECALIBRATE loess on assigned fragments and MS1
MS$DATA_PROCESSING: REANALYZE Peaks with additional N2/O included
MS$DATA_PROCESSING: WHOLE RMassBank 2.99.2
PK$SPLASH: splash10-00xr-0900000000-a450232a1c4d8eac39ec
PK$ANNOTATION: m/z tentative_formula formula_count mass error(ppm)
  57.0699 C4H9+ 1 57.0699 0.21
  69.0699 C5H9+ 1 69.0699 -0.33
  79.0541 C6H7+ 1 79.0542 -2.23
  91.0543 C7H7+ 1 91.0542 0.52
  92.0493 C6H6N+ 1 92.0495 -1.76
  95.0492 C6H7O+ 1 95.0491 0.42
  107.0491 C7H7O+ 1 107.0491 -0.85
  109.0524 C6H7NO+ 1 109.0522 1.29
  114.0464 C9H6+ 1 114.0464 -0.12
  115.0543 C9H7+ 1 115.0542 0.38
  124.0757 C7H10NO+ 1 124.0757 -0.24
  130.0414 C9H6O+ 1 130.0413 0.41
  133.0719 C5H11NO3+ 1 133.0733 -11.06
  143.0491 C10H7O+ 1 143.0491 -0.03
  148.1122 C10H14N+ 1 148.1121 1.16
  161.0598 C10H9O2+ 1 161.0597 0.45
  171.0441 C11H7O2+ 1 171.0441 0.41
  175.0394 C10H7O3+ 2 175.039 2.26
  207.994 C16O+ 1 207.9944 -1.66
  233.0835 C16H11NO+ 1 233.0835 -0.06
PK$NUM_PEAK: 20
PK$PEAK: m/z int. rel.int.
  57.0699 14798.8 8
  69.0699 25364 14
  79.0541 2121.4 1
  91.0543 42849.9 24
  92.0493 4589.6 2
  95.0492 4035.3 2
  107.0491 3440.6 1
  109.0524 6548.8 3
  114.0464 3076.5 1
  115.0543 1146117.6 659
  124.0757 10619.7 6
  130.0414 21268.5 12
  133.0719 2254 1
  143.0491 12155.4 6
  148.1122 3056.4 1
  161.0598 146911.8 84
  171.0441 1736498.5 999
  175.0394 11531.3 6
  207.994 6654.3 3
  233.0835 4153.9 2
//
