ACCESSION: MSBNK-LCSB-LU106056
RECORD_TITLE: Octylparaben; LC-ESI-QFT; MS2; CE: 90; R=17500; [M-H]-
DATE: 2020.08.19
AUTHORS: Elapavalore, A.; Kondić, T.; Singh, R.; Schymanski, E.
LICENSE: CC BY
COPYRIGHT: Copyright © 2019 by Environmental Cheminformatics, LCSB, University of Luxembourg, Luxembourg
PUBLICATION: Elapavalore, A.; Kondić, T.; et al., Adding Open Spectral Data to MassBank and PubChem Using Open Source Tools to Support Non-Targeted Exposomics of Mixtures (submitted).
PROJECT: ENTACT U.S. Environmental Protection Agency’s Non-Targeted Analysis Collaborative Trial
COMMENT: CONFIDENCE standard compound
COMMENT: INTERNAL_ID 1060
COMMENT: DATASET 20200303_ENTACT_RP_MIX499
COMMENT: DATA_PROCESSING MERGING RMBmix ver. 0.2.7
COMMENT: DATA_PROCESSING PRESCREENING Shinyscreen ver. 0.8.0
COMMENT: ORIGINAL_ACQUISITION_NO 5002
COMMENT: ORIGINAL_PRECURSOR_SCAN_NO 5000
COMMENT: RAW_DATA available as MSV000091754 at [DOI:10.25345/C5S46HG75]
CH$NAME: Octylparaben
CH$NAME: octyl 4-hydroxybenzoate
CH$COMPOUND_CLASS: N/A; Environmental Standard
CH$FORMULA: C15H22O3
CH$EXACT_MASS: 250.1569
CH$SMILES: CCCCCCCCOC(=O)C1=CC=C(O)C=C1
CH$IUPAC: InChI=1S/C15H22O3/c1-2-3-4-5-6-7-12-18-15(17)13-8-10-14(16)11-9-13/h8-11,16H,2-7,12H2,1H3
CH$LINK: CAS 1219-38-1
CH$LINK: PUBCHEM CID:14642
CH$LINK: INCHIKEY RIKCMEDSBFQFAL-UHFFFAOYSA-N
CH$LINK: CHEMSPIDER 13976
AC$INSTRUMENT: Q Exactive Orbitrap (Thermo Scientific)
AC$INSTRUMENT_TYPE: LC-ESI-QFT
AC$MASS_SPECTROMETRY: MS_TYPE MS2
AC$MASS_SPECTROMETRY: ION_MODE NEGATIVE
AC$MASS_SPECTROMETRY: IONIZATION ESI
AC$MASS_SPECTROMETRY: FRAGMENTATION_MODE HCD
AC$MASS_SPECTROMETRY: COLLISION_ENERGY 90
AC$MASS_SPECTROMETRY: RESOLUTION 17500
AC$CHROMATOGRAPHY: COLUMN_NAME Acquity BEH C18 1.7um, 2.1x150mm (Waters)
AC$CHROMATOGRAPHY: FLOW_GRADIENT 90/10 at 0-2 min, 0/100 at 15-20 min, 90/10 at 20.1-30 min
AC$CHROMATOGRAPHY: FLOW_RATE 0.20 mL/min
AC$CHROMATOGRAPHY: RETENTION_TIME 19.973 min
AC$CHROMATOGRAPHY: SOLVENT A 0.1% formic acid
AC$CHROMATOGRAPHY: SOLVENT B methanol
MS$FOCUSED_ION: BASE_PEAK 249.1495
MS$FOCUSED_ION: PRECURSOR_M/Z 249.1496
MS$FOCUSED_ION: PRECURSOR_TYPE [M-H]-
MS$FOCUSED_ION: PRECURSOR_INTENSITY 82224611.56641
MS$DATA_PROCESSING: RECALIBRATE loess on assigned fragments and MS1
MS$DATA_PROCESSING: REANALYZE Peaks with additional N2/O included
MS$DATA_PROCESSING: WHOLE RMassBank 2.99.2
PK$SPLASH: splash10-0006-9200000000-a927326c7184f3cf6f52
PK$ANNOTATION: m/z tentative_formula formula_count mass error(ppm)
  53.0033 C3HO- 1 53.0033 0.23
  65.0034 C4HO- 1 65.0033 0.98
  65.0397 C5H5- 1 65.0397 -0.09
  67.019 C4H3O- 1 67.0189 0.27
  68.9982 C3HO2- 1 68.9982 0.25
  69.0346 C4H5O- 1 69.0346 0.79
  70.0061 C3H2O2- 1 70.006 0.88
  71.0138 C3H3O2- 1 71.0139 -0.34
  72.9932 C2HO3- 1 72.9931 1.08
  75.024 C6H3- 1 75.024 -0.01
  78.011 C5H2O- 1 78.0111 -1.12
  79.0189 C5H3O- 1 79.0189 -0.48
  79.9904 C4O2- 1 79.9904 -0.3
  80.9982 C4HO2- 1 80.9982 -0.15
  82.006 C4H2O2- 1 82.006 0.24
  86.0012 C3H2O3- 1 86.0009 2.49
  91.019 C6H3O- 1 91.0189 0.48
  92.0268 C6H4O- 1 92.0268 0.65
  93.0346 C6H5O- 1 93.0346 0.16
  95.0139 C5H3O2- 1 95.0139 0
  97.0296 C5H5O2- 1 97.0295 0.56
  98.0009 C4H2O3- 1 98.0009 -0.71
  106.006 C6H2O2- 1 106.006 -0.02
  107.0139 C6H3O2- 1 107.0139 0.8
  108.0217 C6H4O2- 1 108.0217 0.21
  109.0294 C6H5O2- 1 109.0295 -1.06
  119.0142 C7H3O2- 1 119.0139 3.06
  121.0295 C7H5O2- 1 121.0295 0.21
  123.0088 C6H3O3- 1 123.0088 0.55
  125.0973 C8H13O- 1 125.0972 0.5
  127.1129 C8H15O- 1 127.1128 0.48
  136.0165 C7H4O3- 1 136.0166 -0.78
  137.0246 C7H5O3- 1 137.0244 1.06
  149.0246 C8H5O3- 1 149.0244 0.99
PK$NUM_PEAK: 34
PK$PEAK: m/z int. rel.int.
  53.0033 17033.2 1
  65.0034 38152.7 4
  65.0397 195228.2 22
  67.019 32921.6 3
  68.9982 120647.6 14
  69.0346 92484.5 10
  70.0061 57064.8 6
  71.0138 57139.9 6
  72.9932 28449.1 3
  75.024 15143.7 1
  78.011 15016.1 1
  79.0189 62280.3 7
  79.9904 41726.8 4
  80.9982 29790.5 3
  82.006 278857.5 32
  86.0012 14078.2 1
  91.019 863127.6 100
  92.0268 1348753.8 156
  93.0346 8601338 999
  95.0139 3755948 436
  97.0296 63900.9 7
  98.0009 16393.7 1
  106.006 194815.1 22
  107.0139 28844 3
  108.0217 3550022 412
  109.0294 14801.8 1
  119.0142 12962.8 1
  121.0295 313646.7 36
  123.0088 438554.8 50
  125.0973 45823 5
  127.1129 159922.7 18
  136.0165 76669.9 8
  137.0246 58876.9 6
  149.0246 25953.8 3
//
