ACCESSION: MSBNK-LCSB-LU084951
RECORD_TITLE: Aziprotryne; LC-ESI-QFT; MS2; CE: 15; R=17500; [M-H]-
DATE: 2020.08.19
AUTHORS: Elapavalore, A.; Kondić, T.; Singh, R.; Schymanski, E.
LICENSE: CC BY
COPYRIGHT: Copyright © 2019 by Environmental Cheminformatics, LCSB, University of Luxembourg, Luxembourg
PUBLICATION: Elapavalore, A.; Kondić, T.; et al., Adding Open Spectral Data to MassBank and PubChem Using Open Source Tools to Support Non-Targeted Exposomics of Mixtures (submitted).
PROJECT: ENTACT U.S. Environmental Protection Agency’s Non-Targeted Analysis Collaborative Trial
COMMENT: CONFIDENCE standard compound
COMMENT: INTERNAL_ID 849
COMMENT: DATASET 20200303_ENTACT_RP_MIX508
COMMENT: DATA_PROCESSING MERGING RMBmix ver. 0.2.7
COMMENT: DATA_PROCESSING PRESCREENING Shinyscreen ver. 0.8.0
COMMENT: ORIGINAL_ACQUISITION_NO 4792
COMMENT: ORIGINAL_PRECURSOR_SCAN_NO 4789
COMMENT: RAW_DATA available as MSV000091754 at [DOI:10.25345/C5S46HG75]
CH$NAME: Aziprotryne
CH$NAME: 4-azido-6-methylsulfanyl-N-propan-2-yl-1,3,5-triazin-2-amine
CH$COMPOUND_CLASS: N/A; Environmental Standard
CH$FORMULA: C7H11N7S
CH$EXACT_MASS: 225.0797
CH$SMILES: CSC1=NC(NC(C)C)=NC(N=[N+]=[N-])=N1
CH$IUPAC: InChI=1S/C7H11N7S/c1-4(2)9-5-10-6(13-14-8)12-7(11-5)15-3/h4H,1-3H3,(H,9,10,11,12)
CH$LINK: CAS 4658-28-0
CH$LINK: CHEBI CHEBI:82221
CH$LINK: KEGG C19099
CH$LINK: PUBCHEM CID:3032472
CH$LINK: INCHIKEY AFIIBUOYKYSPKB-UHFFFAOYSA-N
CH$LINK: CHEMSPIDER 2297441
AC$INSTRUMENT: Q Exactive Orbitrap (Thermo Scientific)
AC$INSTRUMENT_TYPE: LC-ESI-QFT
AC$MASS_SPECTROMETRY: MS_TYPE MS2
AC$MASS_SPECTROMETRY: ION_MODE NEGATIVE
AC$MASS_SPECTROMETRY: IONIZATION ESI
AC$MASS_SPECTROMETRY: FRAGMENTATION_MODE HCD
AC$MASS_SPECTROMETRY: COLLISION_ENERGY 15
AC$MASS_SPECTROMETRY: RESOLUTION 17500
AC$CHROMATOGRAPHY: COLUMN_NAME Acquity BEH C18 1.7um, 2.1x150mm (Waters)
AC$CHROMATOGRAPHY: FLOW_GRADIENT 90/10 at 0-2 min, 0/100 at 15-20 min, 90/10 at 20.1-30 min
AC$CHROMATOGRAPHY: FLOW_RATE 0.20 mL/min
AC$CHROMATOGRAPHY: RETENTION_TIME 17.621 min
AC$CHROMATOGRAPHY: SOLVENT A 0.1% formic acid
AC$CHROMATOGRAPHY: SOLVENT B methanol
MS$FOCUSED_ION: BASE_PEAK 193.0869
MS$FOCUSED_ION: PRECURSOR_M/Z 224.0724
MS$FOCUSED_ION: PRECURSOR_TYPE [M-H]-
MS$FOCUSED_ION: PRECURSOR_INTENSITY 729781.0458984
MS$DATA_PROCESSING: RECALIBRATE loess on assigned fragments and MS1
MS$DATA_PROCESSING: REANALYZE Peaks with additional N2/O included
MS$DATA_PROCESSING: WHOLE RMassBank 2.99.2
PK$SPLASH: splash10-00xr-5980000000-09dc69deda0340f8abc7
PK$ANNOTATION: m/z tentative_formula formula_count mass error(ppm)
  57.9757 CNS- 1 57.9757 -0.38
  66.0098 C2N3- 1 66.0098 0.53
  80.0128 C2N4- 1 80.0128 -0.74
  87.0022 C2H3N2S- 1 87.0022 -0.73
  96.0567 C4H6N3- 1 96.0567 -0.4
  134.0472 C5H4N5- 1 134.0472 -0.07
  151.0737 C5H7N6- 1 151.0738 -0.33
  153.0114 C4H3N5S- 1 153.0115 -0.61
  154.0194 C4H4N5S- 1 154.0193 0.9
  169.0551 C6H9N4S- 1 169.0553 -1.52
  181.0427 C6H7N5S- 1 181.0428 -0.45
  196.0663 C7H10N5S- 1 196.0662 0.2
  224.0725 C7H10N7S- 1 224.0724 0.33
PK$NUM_PEAK: 13
PK$PEAK: m/z int. rel.int.
  57.9757 1679.2 17
  66.0098 45797.6 486
  80.0128 2227.6 23
  87.0022 3484 37
  96.0567 3728.3 39
  134.0472 3428.9 36
  151.0737 8484.4 90
  153.0114 25225.1 268
  154.0194 8576.5 91
  169.0551 10423.8 110
  181.0427 5449.2 57
  196.0663 36633.9 389
  224.0725 93967.7 999
//
