ACCESSION: MSBNK-LCSB-LU050404
RECORD_TITLE: Pargyline; LC-ESI-QFT; MS2; CE: 60; R=17500; [M+H]+
DATE: 2020.08.19
AUTHORS: Elapavalore, A.; Kondić, T.; Singh, R.; Schymanski, E.
LICENSE: CC BY
COPYRIGHT: Copyright © 2019 by Environmental Cheminformatics, LCSB, University of Luxembourg, Luxembourg
PUBLICATION: Elapavalore, A.; Kondić, T.; et al., Adding Open Spectral Data to MassBank and PubChem Using Open Source Tools to Support Non-Targeted Exposomics of Mixtures (submitted).
PROJECT: ENTACT U.S. Environmental Protection Agency’s Non-Targeted Analysis Collaborative Trial
COMMENT: CONFIDENCE standard compound
COMMENT: INTERNAL_ID 504
COMMENT: DATASET 20200303_ENTACT_RP_MIX506
COMMENT: DATA_PROCESSING MERGING RMBmix ver. 0.2.7
COMMENT: DATA_PROCESSING PRESCREENING Shinyscreen ver. 0.8.0
COMMENT: ORIGINAL_ACQUISITION_NO 4653
COMMENT: ORIGINAL_PRECURSOR_SCAN_NO 4650
COMMENT: RAW_DATA available as MSV000091754 at [DOI:10.25345/C5S46HG75]
CH$NAME: Pargyline
CH$NAME: N-benzyl-N-methylprop-2-yn-1-amine
CH$COMPOUND_CLASS: N/A; Environmental Standard
CH$FORMULA: C11H13N
CH$EXACT_MASS: 159.1048
CH$SMILES: CN(CC#C)CC1=CC=CC=C1
CH$IUPAC: InChI=1S/C11H13N/c1-3-9-12(2)10-11-7-5-4-6-8-11/h1,4-8H,9-10H2,2H3
CH$LINK: CAS 555-57-7
CH$LINK: CHEBI CHEBI:7930
CH$LINK: KEGG C07414
CH$LINK: PUBCHEM CID:4688
CH$LINK: INCHIKEY DPWPWRLQFGFJFI-UHFFFAOYSA-N
CH$LINK: CHEMSPIDER 4526
AC$INSTRUMENT: Q Exactive Orbitrap (Thermo Scientific)
AC$INSTRUMENT_TYPE: LC-ESI-QFT
AC$MASS_SPECTROMETRY: MS_TYPE MS2
AC$MASS_SPECTROMETRY: ION_MODE POSITIVE
AC$MASS_SPECTROMETRY: IONIZATION ESI
AC$MASS_SPECTROMETRY: FRAGMENTATION_MODE HCD
AC$MASS_SPECTROMETRY: COLLISION_ENERGY 60
AC$MASS_SPECTROMETRY: RESOLUTION 17500
AC$CHROMATOGRAPHY: COLUMN_NAME Acquity BEH C18 1.7um, 2.1x150mm (Waters)
AC$CHROMATOGRAPHY: FLOW_GRADIENT 90/10 at 0-2 min, 0/100 at 15-20 min, 90/10 at 20.1-30 min
AC$CHROMATOGRAPHY: FLOW_RATE 0.20 mL/min
AC$CHROMATOGRAPHY: RETENTION_TIME 8.888 min
AC$CHROMATOGRAPHY: SOLVENT A 0.1% formic acid
AC$CHROMATOGRAPHY: SOLVENT B methanol
MS$FOCUSED_ION: BASE_PEAK 79.0211
MS$FOCUSED_ION: PRECURSOR_M/Z 160.1121
MS$FOCUSED_ION: PRECURSOR_TYPE [M+H]+
MS$FOCUSED_ION: PRECURSOR_INTENSITY 3655269.71875
MS$DATA_PROCESSING: RECALIBRATE loess on assigned fragments and MS1
MS$DATA_PROCESSING: REANALYZE Peaks with additional N2/O included
MS$DATA_PROCESSING: WHOLE RMassBank 2.99.2
PK$SPLASH: splash10-0006-9100000000-073448573e7ac777e040
PK$ANNOTATION: m/z tentative_formula formula_count mass error(ppm)
  56.0495 C3H6N+ 1 56.0495 0.44
  65.0386 C5H5+ 1 65.0386 -0.02
  68.0494 C4H6N+ 1 68.0495 -0.7
  82.0652 C5H8N+ 1 82.0651 1.22
  91.0543 C7H7+ 1 91.0542 0.77
  105.0699 C8H9+ 1 105.0699 0.57
  116.062 C9H8+ 1 116.0621 -0.18
  117.0698 C9H9+ 1 117.0699 -0.73
  118.0653 C8H8N+ 1 118.0651 1.53
  128.0621 C10H8+ 1 128.0621 0.3
  129.07 C10H9+ 1 129.0699 0.8
  130.0653 C9H8N+ 1 130.0651 1.54
  131.0731 C9H9N+ 1 131.073 1.43
  131.0857 C10H11+ 1 131.0855 1.18
  132.0805 C9H10N+ 1 132.0808 -1.91
  144.0809 C10H10N+ 1 144.0808 0.69
  145.0888 C10H11N+ 1 145.0886 1.23
  160.112 C11H14N+ 1 160.1121 -0.42
PK$NUM_PEAK: 18
PK$PEAK: m/z int. rel.int.
  56.0495 11333.1 10
  65.0386 12819 12
  68.0494 10509.2 9
  82.0652 2206.2 2
  91.0543 1051642.4 999
  105.0699 3436.3 3
  116.062 2113.9 2
  117.0698 4068.8 3
  118.0653 2301 2
  128.0621 32399.9 30
  129.07 63903.7 60
  130.0653 5106.7 4
  131.0731 2797.5 2
  131.0857 13727.6 13
  132.0805 2629.6 2
  144.0809 13513 12
  145.0888 15445.4 14
  160.112 18578.3 17
//
