ACCESSION: MSBNK-LCSB-LU040152
RECORD_TITLE: Hydroxyflutamide; LC-ESI-QFT; MS2; CE: 30; R=17500; [M-H]-
DATE: 2020.08.19
AUTHORS: Elapavalore, A.; Kondić, T.; Singh, R.; Schymanski, E.
LICENSE: CC BY
COPYRIGHT: Copyright © 2019 by Environmental Cheminformatics, LCSB, University of Luxembourg, Luxembourg
PUBLICATION: Elapavalore, A.; Kondić, T.; et al., Adding Open Spectral Data to MassBank and PubChem Using Open Source Tools to Support Non-Targeted Exposomics of Mixtures (submitted).
PROJECT: ENTACT U.S. Environmental Protection Agency’s Non-Targeted Analysis Collaborative Trial
COMMENT: CONFIDENCE standard compound
COMMENT: INTERNAL_ID 401
COMMENT: DATASET 20200303_ENTACT_RP_MIX505
COMMENT: DATA_PROCESSING MERGING RMBmix ver. 0.2.7
COMMENT: DATA_PROCESSING PRESCREENING Shinyscreen ver. 0.8.0
COMMENT: ORIGINAL_ACQUISITION_NO 4545
COMMENT: ORIGINAL_PRECURSOR_SCAN_NO 4543
COMMENT: RAW_DATA available as MSV000091754 at [DOI:10.25345/C5S46HG75]
CH$NAME: Hydroxyflutamide
CH$NAME: 2-hydroxy-2-methyl-N-[4-nitro-3-(trifluoromethyl)phenyl]propanamide
CH$COMPOUND_CLASS: N/A; Environmental Standard
CH$FORMULA: C11H11F3N2O4
CH$EXACT_MASS: 292.0671
CH$SMILES: CC(C)(O)C(=O)NC1=CC(=C(C=C1)[N+]([O-])=O)C(F)(F)F
CH$IUPAC: InChI=1S/C11H11F3N2O4/c1-10(2,18)9(17)15-6-3-4-8(16(19)20)7(5-6)11(12,13)14/h3-5,18H,1-2H3,(H,15,17)
CH$LINK: CAS 5394-20-7
CH$LINK: KEGG C14204
CH$LINK: PUBCHEM CID:91649
CH$LINK: INCHIKEY YPQLFJODEKMJEF-UHFFFAOYSA-N
CH$LINK: CHEMSPIDER 82752
AC$INSTRUMENT: Q Exactive Orbitrap (Thermo Scientific)
AC$INSTRUMENT_TYPE: LC-ESI-QFT
AC$MASS_SPECTROMETRY: MS_TYPE MS2
AC$MASS_SPECTROMETRY: ION_MODE NEGATIVE
AC$MASS_SPECTROMETRY: IONIZATION ESI
AC$MASS_SPECTROMETRY: FRAGMENTATION_MODE HCD
AC$MASS_SPECTROMETRY: COLLISION_ENERGY 30
AC$MASS_SPECTROMETRY: RESOLUTION 17500
AC$CHROMATOGRAPHY: COLUMN_NAME Acquity BEH C18 1.7um, 2.1x150mm (Waters)
AC$CHROMATOGRAPHY: FLOW_GRADIENT 90/10 at 0-2 min, 0/100 at 15-20 min, 90/10 at 20.1-30 min
AC$CHROMATOGRAPHY: FLOW_RATE 0.20 mL/min
AC$CHROMATOGRAPHY: RETENTION_TIME 16.807 min
AC$CHROMATOGRAPHY: SOLVENT A 0.1% formic acid
AC$CHROMATOGRAPHY: SOLVENT B methanol
MS$FOCUSED_ION: BASE_PEAK 291.0599
MS$FOCUSED_ION: PRECURSOR_M/Z 291.0598
MS$FOCUSED_ION: PRECURSOR_TYPE [M-H]-
MS$FOCUSED_ION: PRECURSOR_INTENSITY 145158598.8867
MS$DATA_PROCESSING: RECALIBRATE loess on assigned fragments and MS1
MS$DATA_PROCESSING: REANALYZE Peaks with additional N2/O included
MS$DATA_PROCESSING: WHOLE RMassBank 2.99.2
PK$SPLASH: splash10-0a4i-0090000000-de77e0d6a0b082b2d69a
PK$ANNOTATION: m/z tentative_formula formula_count mass error(ppm)
  175.0255 C7H4F3NO- 3 175.025 2.59
  205.0229 C7H4F3N2O2- 3 205.023 -0.43
  206.0068 C7H3F3NO3- 3 206.0071 -0.98
  291.0599 C11H10F3N2O4- 1 291.0598 0.34
PK$NUM_PEAK: 4
PK$PEAK: m/z int. rel.int.
  175.0255 116053.5 1
  205.0229 65430000 999
  206.0068 971738 14
  291.0599 13589910 207
//
