ACCESSION: MSBNK-EPA-ENTACT_AGILENT002288
RECORD_TITLE: (1,1-Dimethylethyl)urea; ESI-QTOF; MS2; CE: 40; [M-H]-
DATE: 2023.09.19
AUTHORS: EPA CCTE and Agilent Technologies
LICENSE: CC BY
CH$NAME: (1,1-Dimethylethyl)urea
CH$COMPOUND_CLASS: N/A
CH$FORMULA: C5H12N2O
CH$EXACT_MASS: 116.0949630199
CH$SMILES: CC(C)(C)NC(N)=O
CH$IUPAC: InChI=1S/C5H12N2O/c1-5(2,3)7-4(6)8/h1-3H3,(H3,6,7,8)
CH$LINK: CAS 1118-12-3
CH$LINK: INCHIKEY JLEHSYHLHLHPAL-UHFFFAOYSA-N
CH$LINK: PUBCHEM CID:14233
AC$INSTRUMENT: N/A
AC$INSTRUMENT_TYPE: ESI-QTOF
AC$MASS_SPECTROMETRY: MS_TYPE MS2
AC$MASS_SPECTROMETRY: ION_MODE NEGATIVE
AC$MASS_SPECTROMETRY: IONIZATION ESI
AC$MASS_SPECTROMETRY: COLLISION_ENERGY 40
MS$FOCUSED_ION: PRECURSOR_M/Z 115.0876865682
MS$FOCUSED_ION: PRECURSOR_TYPE [M-H]-
MS$DATA_PROCESSING: WHOLE Agilent ChemVista Version 1.0
PK$SPLASH: splash10-0006-9000000000-ed9699c4af57e11e490d
PK$NUM_PEAK: 4
PK$PEAK: m/z int. rel.int.
  41.014522 2.289916 22
  41.998537 99.999999 999
  42.022347 1.56482 15
  81.045822 1.505114 15
//
