ACCESSION: MSBNK-EPA-ENTACT_AGILENT000915
RECORD_TITLE: 2-Amino-N-cyclohexyl-N-methylbenzenesulfonamide; ESI-QTOF; MS2; CE: 40; [M+H]+
DATE: 2023.05.02
AUTHORS: EPA CCTE and Agilent Technologies
LICENSE: CC BY
CH$NAME: 2-Amino-N-cyclohexyl-N-methylbenzenesulfonamide
CH$NAME: DTXSID1044982
CH$COMPOUND_CLASS: N/A
CH$FORMULA: C13H20N2O2S
CH$EXACT_MASS: 268.1245486274
CH$SMILES: CN(C1CCCCC1)S(=O)(=O)C1=CC=CC=C1N
CH$IUPAC: InChI=1S/C13H20N2O2S/c1-15(11-7-3-2-4-8-11)18(16,17)13-10-6-5-9-12(13)14/h5-6,9-11H,2-4,7-8,14H2,1H3
CH$LINK: CAS 70693-59-3
CH$LINK: INCHIKEY IPEHSCPRVOWQFQ-UHFFFAOYSA-N
CH$LINK: PUBCHEM CID:116814
AC$INSTRUMENT: N/A
AC$INSTRUMENT_TYPE: ESI-QTOF
AC$MASS_SPECTROMETRY: MS_TYPE MS2
AC$MASS_SPECTROMETRY: ION_MODE POSITIVE
AC$MASS_SPECTROMETRY: IONIZATION ESI
AC$MASS_SPECTROMETRY: COLLISION_ENERGY 40
MS$FOCUSED_ION: PRECURSOR_M/Z 269.1318250791
MS$FOCUSED_ION: PRECURSOR_TYPE [M+H]+
MS$DATA_PROCESSING: WHOLE Agilent ChemVista Version 1.0
PK$SPLASH: splash10-0006-9000000000-1ab4b048c7828addd3f0
PK$NUM_PEAK: 10
PK$PEAK: m/z int. rel.int.
  39.022927 1.672658 16
  41.038577 2.948748 29
  55.054227 22.839872 228
  65.038577 30.644189 306
  80.049476 10.917894 109
  83.085527 3.729928 37
  92.049476 100.000002 999
  92.086552 2.09471 20
  92.097785 1.184568 11
  108.04439 15.663158 156
//
