ACCESSION: MSBNK-EPA-ENTACT_AGILENT000634
RECORD_TITLE: Aminoguanidine; ESI-QTOF; MS2; CE: 10; [M+H]+
DATE: 2023.05.02
AUTHORS: EPA CCTE and Agilent Technologies
LICENSE: CC BY
CH$NAME: Aminoguanidine
CH$NAME: DTXSID9044405
CH$COMPOUND_CLASS: N/A
CH$FORMULA: CH6N4
CH$EXACT_MASS: 74.059246221
CH$SMILES: NNC(N)=N
CH$IUPAC: InChI=1S/CH6N4/c2-1(3)5-4/h4H2,(H4,2,3,5)
CH$LINK: CAS 79-17-4
CH$LINK: INCHIKEY HAMNKKUPIHEESI-UHFFFAOYSA-N
AC$INSTRUMENT: N/A
AC$INSTRUMENT_TYPE: ESI-QTOF
AC$MASS_SPECTROMETRY: MS_TYPE MS2
AC$MASS_SPECTROMETRY: ION_MODE POSITIVE
AC$MASS_SPECTROMETRY: IONIZATION ESI
AC$MASS_SPECTROMETRY: COLLISION_ENERGY 10
MS$FOCUSED_ION: PRECURSOR_M/Z 75.0665226727
MS$FOCUSED_ION: PRECURSOR_TYPE [M+H]+
MS$DATA_PROCESSING: WHOLE Agilent ChemVista Version 1.0
PK$SPLASH: splash10-056r-9000000000-de7cc61ede2d9a96109d
PK$NUM_PEAK: 4
PK$PEAK: m/z int. rel.int.
  31.029075 4.414857 44
  45.044725 1.684092 16
  58.039974 97.106142 970
  75.066523 100.000001 999
//
