ACCESSION: MSBNK-EPA-ENTACT_AGILENT002326
RECORD_TITLE: Hydrocinnamic acid; ESI-QTOF; MS2; CE: 10; [M+H]+
DATE: 2023.09.19
AUTHORS: EPA CCTE and Agilent Technologies
LICENSE: CC BY
CH$NAME: Hydrocinnamic acid
CH$NAME: DTXSID2047064
CH$COMPOUND_CLASS: N/A
CH$FORMULA: C9H10O2
CH$EXACT_MASS: 150.0680795636
CH$SMILES: OC(=O)CCC1C=CC=CC=1
CH$IUPAC: InChI=1S/C9H10O2/c10-9(11)7-6-8-4-2-1-3-5-8/h1-5H,6-7H2,(H,10,11)
CH$LINK: CAS 501-52-0
CH$LINK: INCHIKEY XMIIGOLPHOKFCH-UHFFFAOYSA-N
CH$LINK: PUBCHEM CID:107
AC$INSTRUMENT: N/A
AC$INSTRUMENT_TYPE: ESI-QTOF
AC$MASS_SPECTROMETRY: MS_TYPE MS2
AC$MASS_SPECTROMETRY: ION_MODE POSITIVE
AC$MASS_SPECTROMETRY: IONIZATION ESI
AC$MASS_SPECTROMETRY: COLLISION_ENERGY 10
MS$FOCUSED_ION: PRECURSOR_M/Z 151.0753560153
MS$FOCUSED_ION: PRECURSOR_TYPE [M+H]+
MS$DATA_PROCESSING: WHOLE Agilent ChemVista Version 1.0
PK$SPLASH: splash10-004i-9000000000-c545190c713d5bb968a3
PK$NUM_PEAK: 5
PK$PEAK: m/z int. rel.int.
  45.033491 1.748679 17
  63.994366 2.187375 21
  79.017841 99.999998 999
  79.054227 1.597359 15
  89.059706 3.244107 32
//
