ACCESSION: MSBNK-EPA-ENTACT_AGILENT000903
RECORD_TITLE: 2-[2-(2-Propoxyethoxy)ethoxy]ethanol; ESI-QTOF; MS2; CE: 40; [M+H]+
DATE: 2023.05.02
AUTHORS: EPA CCTE and Agilent Technologies
LICENSE: CC BY
CH$NAME: 2-[2-(2-Propoxyethoxy)ethoxy]ethanol
CH$NAME: DTXSID8044880
CH$COMPOUND_CLASS: N/A
CH$FORMULA: C9H20O4
CH$EXACT_MASS: 192.1361591272
CH$SMILES: CCCOCCOCCOCCO
CH$IUPAC: InChI=1S/C9H20O4/c1-2-4-11-6-8-13-9-7-12-5-3-10/h10H,2-9H2,1H3
CH$LINK: CAS 23305-64-8
CH$LINK: INCHIKEY KCBPVRDDYVJQHA-UHFFFAOYSA-N
CH$LINK: PUBCHEM CID:11355992
AC$INSTRUMENT: N/A
AC$INSTRUMENT_TYPE: ESI-QTOF
AC$MASS_SPECTROMETRY: MS_TYPE MS2
AC$MASS_SPECTROMETRY: ION_MODE POSITIVE
AC$MASS_SPECTROMETRY: IONIZATION ESI
AC$MASS_SPECTROMETRY: COLLISION_ENERGY 40
MS$FOCUSED_ION: PRECURSOR_M/Z 193.1434355789
MS$FOCUSED_ION: PRECURSOR_TYPE [M+H]+
MS$DATA_PROCESSING: WHOLE Agilent ChemVista Version 1.0
PK$SPLASH: splash10-0002-9000000000-8e4f26aa3f377cc97274
PK$NUM_PEAK: 5
PK$PEAK: m/z int. rel.int.
  41.038577 11.253295 112
  43.017841 2.363017 23
  43.054227 14.536082 145
  45.033491 99.999999 999
  45.069877 1.153507 11
//
