ACCESSION: MSBNK-EPA-ENTACT_AGILENT000848
RECORD_TITLE: (2-Methylphenoxy)acetic acid; ESI-QTOF; MS2; CE: 10; [M-H]-
DATE: 2023.05.02
AUTHORS: EPA CCTE and Agilent Technologies
LICENSE: CC BY
CH$NAME: (2-Methylphenoxy)acetic acid
CH$NAME: DTXSID9041441
CH$COMPOUND_CLASS: N/A
CH$FORMULA: C9H10O3
CH$EXACT_MASS: 166.0629941859
CH$SMILES: CC1C=CC=CC=1OCC(O)=O
CH$IUPAC: InChI=1S/C9H10O3/c1-7-4-2-3-5-8(7)12-6-9(10)11/h2-5H,6H2,1H3,(H,10,11)
CH$LINK: CAS 1878-49-5
CH$LINK: INCHIKEY QJVXBRUGKLCUMY-UHFFFAOYSA-N
CH$LINK: PUBCHEM CID:74651
AC$INSTRUMENT: N/A
AC$INSTRUMENT_TYPE: ESI-QTOF
AC$MASS_SPECTROMETRY: MS_TYPE MS2
AC$MASS_SPECTROMETRY: ION_MODE NEGATIVE
AC$MASS_SPECTROMETRY: IONIZATION ESI
AC$MASS_SPECTROMETRY: COLLISION_ENERGY 10
MS$FOCUSED_ION: PRECURSOR_M/Z 165.0557177342
MS$FOCUSED_ION: PRECURSOR_TYPE [M-H]-
MS$DATA_PROCESSING: WHOLE Agilent ChemVista Version 1.0
PK$SPLASH: splash10-0a4i-0900000000-0eda6c3be266f4fd479a
PK$NUM_PEAK: 4
PK$PEAK: m/z int. rel.int.
  106.042413 1.253746 12
  107.050238 100.000003 999
  121.065888 5.784351 57
  165.055718 4.188468 41
//
