ACCESSION: MSBNK-EPA-ENTACT_AGILENT001576
RECORD_TITLE: 4-Hydroxy-3-methoxypyridine; ESI-QTOF; MS2; CE: 20; [M-H]-
DATE: 2023.09.19
AUTHORS: EPA CCTE and Agilent Technologies
LICENSE: CC BY
CH$NAME: 4-Hydroxy-3-methoxypyridine
CH$NAME: DTXSID80198757
CH$COMPOUND_CLASS: N/A
CH$FORMULA: C6H7NO2
CH$EXACT_MASS: 125.0476784753
CH$SMILES: COC1C=NC=CC=1O
CH$IUPAC: InChI=1S/C6H7NO2/c1-9-6-4-7-3-2-5(6)8/h2-4H,1H3,(H,7,8)
CH$LINK: CAS 62885-41-0
CH$LINK: INCHIKEY XKECCYGTTKNLOC-UHFFFAOYSA-N
CH$LINK: PUBCHEM CID:186643
AC$INSTRUMENT: N/A
AC$INSTRUMENT_TYPE: ESI-QTOF
AC$MASS_SPECTROMETRY: MS_TYPE MS2
AC$MASS_SPECTROMETRY: ION_MODE NEGATIVE
AC$MASS_SPECTROMETRY: IONIZATION ESI
AC$MASS_SPECTROMETRY: COLLISION_ENERGY 20
MS$FOCUSED_ION: PRECURSOR_M/Z 124.0404020236
MS$FOCUSED_ION: PRECURSOR_TYPE [M-H]-
MS$DATA_PROCESSING: WHOLE Agilent ChemVista Version 1.0
PK$SPLASH: splash10-0a59-5900000000-211225184fd4b5482678
PK$NUM_PEAK: 3
PK$PEAK: m/z int. rel.int.
  65.998537 1.501964 15
  81.022012 62.314524 622
  109.016927 100.000001 999
//
