ACCESSION: MSBNK-EPA-ENTACT_AGILENT001850
RECORD_TITLE: 4-Ethoxy-4-oxobut-2-enoic acid; ESI-QTOF; MS2; CE: 20; [M-H]-
DATE: 2023.09.19
AUTHORS: EPA CCTE and Agilent Technologies
LICENSE: CC BY
CH$NAME: 4-Ethoxy-4-oxobut-2-enoic acid
CH$NAME: DTXSID1044485
CH$COMPOUND_CLASS: N/A
CH$FORMULA: C6H8O4
CH$EXACT_MASS: 144.0422587444
CH$SMILES: CCOC(=O)/C=C/C(O)=O
CH$IUPAC: InChI=1S/C6H8O4/c1-2-10-6(9)4-3-5(7)8/h3-4H,2H2,1H3,(H,7,8)/b4-3+
CH$LINK: CAS 3249-53-4
CH$LINK: INCHIKEY XLYMOEINVGRTEX-ONEGZZNKSA-N
CH$LINK: PUBCHEM CID:41331
AC$INSTRUMENT: N/A
AC$INSTRUMENT_TYPE: ESI-QTOF
AC$MASS_SPECTROMETRY: MS_TYPE MS2
AC$MASS_SPECTROMETRY: ION_MODE NEGATIVE
AC$MASS_SPECTROMETRY: IONIZATION ESI
AC$MASS_SPECTROMETRY: COLLISION_ENERGY 20
MS$FOCUSED_ION: PRECURSOR_M/Z 143.0349822927
MS$FOCUSED_ION: PRECURSOR_TYPE [M-H]-
MS$DATA_PROCESSING: WHOLE Agilent ChemVista Version 1.0
PK$SPLASH: splash10-0005-9000000000-309ec29862742d0a0669
PK$NUM_PEAK: 10
PK$PEAK: m/z int. rel.int.
  41.003288 3.225307 32
  43.018938 53.437496 533
  45.034588 100 999
  55.018938 4.221307 42
  59.013853 4.671929 46
  69.034588 5.193218 51
  71.013853 32.240976 322
  71.050238 3.163598 31
  84.021678 3.730676 37
  99.045153 3.262556 32
//
