ACCESSION: MSBNK-EPA-ENTACT_AGILENT000793
RECORD_TITLE: 2,6-Dihydroxypyridine; ESI-QTOF; MS2; CE: 10; [M-H]-
DATE: 2023.05.02
AUTHORS: EPA CCTE and Agilent Technologies
LICENSE: CC BY
CH$NAME: 2,6-Dihydroxypyridine
CH$COMPOUND_CLASS: N/A
CH$FORMULA: C5H5NO2
CH$EXACT_MASS: 111.0320284115
CH$SMILES: OC1=CC=CC(=O)N1
CH$IUPAC: InChI=1S/C5H5NO2/c7-4-2-1-3-5(8)6-4/h1-3H,(H2,6,7,8)
CH$LINK: CAS 626-06-2
CH$LINK: INCHIKEY WLFXSECCHULRRO-UHFFFAOYSA-N
AC$INSTRUMENT: N/A
AC$INSTRUMENT_TYPE: ESI-QTOF
AC$MASS_SPECTROMETRY: MS_TYPE MS2
AC$MASS_SPECTROMETRY: ION_MODE NEGATIVE
AC$MASS_SPECTROMETRY: IONIZATION ESI
AC$MASS_SPECTROMETRY: COLLISION_ENERGY 10
MS$FOCUSED_ION: PRECURSOR_M/Z 110.0247519598
MS$FOCUSED_ION: PRECURSOR_TYPE [M-H]-
MS$DATA_PROCESSING: WHOLE Agilent ChemVista Version 1.0
PK$SPLASH: splash10-03xr-8900000000-4422e6d7287d3d8a0a9f
PK$NUM_PEAK: 3
PK$PEAK: m/z int. rel.int.
  40.019273 10.891848 108
  66.034923 84.57777 844
  110.024752 99.999997 999
//
