ACCESSION: MSBNK-EPA-ENTACT_AGILENT000016
RECORD_TITLE: 3,5-Dichlorosalicylic acid; ESI-QTOF; MS2; CE: 10; [M-H]-
DATE: 2023.05.02
AUTHORS: EPA CCTE and Agilent Technologies
LICENSE: CC BY
CH$NAME: 3,5-Dichlorosalicylic acid
CH$NAME: DTXSID3044914
CH$COMPOUND_CLASS: N/A
CH$FORMULA: C7H4Cl2O3
CH$EXACT_MASS: 205.9537494145
CH$SMILES: OC1C(Cl)=CC(Cl)=CC=1C(O)=O
CH$IUPAC: InChI=1S/C7H4Cl2O3/c8-3-1-4(7(11)12)6(10)5(9)2-3/h1-2,10H,(H,11,12)
CH$LINK: CAS 320-72-9
CH$LINK: INCHIKEY CNJGWCQEGROXEE-UHFFFAOYSA-N
CH$LINK: PUBCHEM CID:9445
AC$INSTRUMENT: N/A
AC$INSTRUMENT_TYPE: ESI-QTOF
AC$MASS_SPECTROMETRY: MS_TYPE MS2
AC$MASS_SPECTROMETRY: ION_MODE NEGATIVE
AC$MASS_SPECTROMETRY: IONIZATION ESI
AC$MASS_SPECTROMETRY: COLLISION_ENERGY 10
MS$FOCUSED_ION: PRECURSOR_M/Z 204.9464729628
MS$FOCUSED_ION: PRECURSOR_TYPE [M-H]-
MS$DATA_PROCESSING: WHOLE Agilent ChemVista Version 1.0
PK$SPLASH: splash10-0ik9-0950000000-525b2a54165729610f1d
PK$NUM_PEAK: 5
PK$PEAK: m/z int. rel.int.
  34.969401 3.405148 34
  89.003288 2.183792 21
  124.979966 14.85348 148
  160.956644 100.000002 999
  204.946473 68.540174 684
//
