ACCESSION: MSBNK-EPA-ENTACT_AGILENT001119
RECORD_TITLE: Diethyl hydrogen phosphate; ESI-QTOF; MS2; CE: 40; [M-H]-
DATE: 2023.09.19
AUTHORS: EPA CCTE and Agilent Technologies
LICENSE: CC BY
CH$NAME: Diethyl hydrogen phosphate
CH$NAME: DTXSID1044699
CH$COMPOUND_CLASS: N/A
CH$FORMULA: C4H11O4P
CH$EXACT_MASS: 154.0394953301
CH$SMILES: CCOP(O)(=O)OCC
CH$IUPAC: InChI=1S/C4H11O4P/c1-3-7-9(5,6)8-4-2/h3-4H2,1-2H3,(H,5,6)
CH$LINK: CAS 598-02-7
CH$LINK: INCHIKEY UCQFCFPECQILOL-UHFFFAOYSA-N
CH$LINK: PUBCHEM CID:654
AC$INSTRUMENT: N/A
AC$INSTRUMENT_TYPE: ESI-QTOF
AC$MASS_SPECTROMETRY: MS_TYPE MS2
AC$MASS_SPECTROMETRY: ION_MODE NEGATIVE
AC$MASS_SPECTROMETRY: IONIZATION ESI
AC$MASS_SPECTROMETRY: COLLISION_ENERGY 40
MS$FOCUSED_ION: PRECURSOR_M/Z 153.0322188784
MS$FOCUSED_ION: PRECURSOR_TYPE [M-H]-
MS$DATA_PROCESSING: WHOLE Agilent ChemVista Version 1.0
PK$SPLASH: splash10-004i-9000000000-2087ba5c7171a1085fbc
PK$NUM_PEAK: 4
PK$PEAK: m/z int. rel.int.
  62.964139 2.118379 21
  78.959054 99.999995 999
  78.995439 6.397906 63
  79.003682 3.860779 38
//
