ACCESSION: MSBNK-EPA-ENTACT_AGILENT000294
RECORD_TITLE: Nor-nitrogen mustard; ESI-QTOF; MS2; CE: 40; [M+H]+
DATE: 2023.05.02
AUTHORS: EPA CCTE and Agilent Technologies
LICENSE: CC BY
CH$NAME: Nor-nitrogen mustard
CH$COMPOUND_CLASS: N/A
CH$FORMULA: C4H9Cl2N
CH$EXACT_MASS: 141.0112047145
CH$SMILES: ClCCNCCCl
CH$IUPAC: InChI=1S/C4H9Cl2N/c5-1-3-7-4-2-6/h7H,1-4H2
CH$LINK: CAS 334-22-5
CH$LINK: INCHIKEY TXFLGZOGNOOEFZ-UHFFFAOYSA-N
AC$INSTRUMENT: N/A
AC$INSTRUMENT_TYPE: ESI-QTOF
AC$MASS_SPECTROMETRY: MS_TYPE MS2
AC$MASS_SPECTROMETRY: ION_MODE POSITIVE
AC$MASS_SPECTROMETRY: IONIZATION ESI
AC$MASS_SPECTROMETRY: COLLISION_ENERGY 40
MS$FOCUSED_ION: PRECURSOR_M/Z 142.0184811662
MS$FOCUSED_ION: PRECURSOR_TYPE [M+H]+
MS$DATA_PROCESSING: WHOLE Agilent ChemVista Version 1.0
PK$SPLASH: splash10-03di-9000000000-0dda0f1c4218c29a7b69
PK$NUM_PEAK: 2
PK$PEAK: m/z int. rel.int.
  44.049476 2.359042 23
  62.999604 99.999998 999
//
