ACCESSION: MSBNK-EPA-ENTACT_AGILENT000791
RECORD_TITLE: 2-Nitroaniline; ESI-QTOF; MS2; CE: 10; [M-H]-
DATE: 2023.05.02
AUTHORS: EPA CCTE and Agilent Technologies
LICENSE: CC BY
CH$NAME: 2-Nitroaniline
CH$COMPOUND_CLASS: N/A
CH$FORMULA: C6H6N2O2
CH$EXACT_MASS: 138.0429274508
CH$SMILES: NC1=CC=CC=C1[N+]([O-])=O
CH$IUPAC: InChI=1S/C6H6N2O2/c7-5-3-1-2-4-6(5)8(9)10/h1-4H,7H2
CH$LINK: CAS 88-74-4
CH$LINK: INCHIKEY DPJCXCZTLWNFOH-UHFFFAOYSA-N
CH$LINK: PUBCHEM CID:6946
AC$INSTRUMENT: N/A
AC$INSTRUMENT_TYPE: ESI-QTOF
AC$MASS_SPECTROMETRY: MS_TYPE MS2
AC$MASS_SPECTROMETRY: ION_MODE NEGATIVE
AC$MASS_SPECTROMETRY: IONIZATION ESI
AC$MASS_SPECTROMETRY: COLLISION_ENERGY 10
MS$FOCUSED_ION: PRECURSOR_M/Z 137.0356509991
MS$FOCUSED_ION: PRECURSOR_TYPE [M-H]-
MS$DATA_PROCESSING: WHOLE Agilent ChemVista Version 1.0
PK$SPLASH: splash10-000i-1900000000-0a08b51b3883e8b1a6b7
PK$NUM_PEAK: 7
PK$PEAK: m/z int. rel.int.
  41.998537 1.570538 15
  45.993452 16.333555 163
  50.003623 1.442737 14
  65.998537 1.862311 18
  91.030172 2.593923 25
  107.037662 17.179959 171
  137.035651 100.000001 999
//
