ACCESSION: MSBNK-EPA-ENTACT_AGILENT001043
RECORD_TITLE: 4-Amino-1,2,4-triazole; ESI-QTOF; MS2; CE: 10; [M-H]-
DATE: 2023.09.19
AUTHORS: EPA CCTE and Agilent Technologies
LICENSE: CC BY
CH$NAME: 4-Amino-1,2,4-triazole
CH$NAME: DTXSID9033058
CH$COMPOUND_CLASS: N/A
CH$FORMULA: C2H4N4
CH$EXACT_MASS: 84.0435961572
CH$SMILES: NN1C=NN=C1
CH$IUPAC: InChI=1S/C2H4N4/c3-6-1-4-5-2-6/h1-2H,3H2
CH$LINK: CAS 584-13-4
CH$LINK: INCHIKEY FMCUPJKTGNBGEC-UHFFFAOYSA-N
CH$LINK: PUBCHEM CID:11432
AC$INSTRUMENT: N/A
AC$INSTRUMENT_TYPE: ESI-QTOF
AC$MASS_SPECTROMETRY: MS_TYPE MS2
AC$MASS_SPECTROMETRY: ION_MODE NEGATIVE
AC$MASS_SPECTROMETRY: IONIZATION ESI
AC$MASS_SPECTROMETRY: COLLISION_ENERGY 10
MS$FOCUSED_ION: PRECURSOR_M/Z 83.0363197055
MS$FOCUSED_ION: PRECURSOR_TYPE [M-H]-
MS$DATA_PROCESSING: WHOLE Agilent ChemVista Version 1.0
PK$SPLASH: splash10-014i-9000000000-50d37cae5595b0ad7764
PK$NUM_PEAK: 4
PK$PEAK: m/z int. rel.int.
  41.014522 2.64668 26
  56.025421 1.31131 13
  68.025421 99.999997 999
  83.03632 28.468419 284
//
