ACCESSION: MSBNK-EPA-ENTACT_AGILENT001005
RECORD_TITLE: Bismaleimide; ESI-QTOF; MS2; CE: 10; [M+H]+
DATE: 2023.05.02
AUTHORS: EPA CCTE and Agilent Technologies
LICENSE: CC BY
CH$NAME: Bismaleimide
CH$NAME: DTXSID8044381
CH$COMPOUND_CLASS: N/A
CH$FORMULA: C21H14N2O4
CH$EXACT_MASS: 358.0953569506
CH$SMILES: O=C1C=CC(=O)N1C1C=CC(CC2C=CC(=CC=2)N2C(=O)C=CC2=O)=CC=1
CH$IUPAC: InChI=1S/C21H14N2O4/c24-18-9-10-19(25)22(18)16-5-1-14(2-6-16)13-15-3-7-17(8-4-15)23-20(26)11-12-21(23)27/h1-12H,13H2
CH$LINK: CAS 13676-54-5
CH$LINK: INCHIKEY XQUPVDVFXZDTLT-UHFFFAOYSA-N
CH$LINK: PUBCHEM CID:83648
AC$INSTRUMENT: N/A
AC$INSTRUMENT_TYPE: ESI-QTOF
AC$MASS_SPECTROMETRY: MS_TYPE MS2
AC$MASS_SPECTROMETRY: ION_MODE POSITIVE
AC$MASS_SPECTROMETRY: IONIZATION ESI
AC$MASS_SPECTROMETRY: COLLISION_ENERGY 10
MS$FOCUSED_ION: PRECURSOR_M/Z 359.1026334023
MS$FOCUSED_ION: PRECURSOR_TYPE [M+H]+
MS$DATA_PROCESSING: WHOLE Agilent ChemVista Version 1.0
PK$SPLASH: splash10-000i-0900000000-c8421feae88b21f764d3
PK$NUM_PEAK: 7
PK$PEAK: m/z int. rel.int.
  131.045119 1.743906 17
  158.06004 2.354412 23
  186.054955 99.999996 999
  186.103916 1.369296 13
  281.034554 1.226009 12
  292.998168 1.077816 10
  359.102633 1.683011 16
//
