ACCESSION: MSBNK-EPA-ENTACT_AGILENT001771
RECORD_TITLE: (2S,3S)-3-Methyl-2-(3-oxo-1,2-benzothiazol-2(3H)-yl)pentanoic acid; ESI-QTOF; MS2; CE: 10; [M+H]+
DATE: 2023.09.19
AUTHORS: EPA CCTE and Agilent Technologies
LICENSE: CC BY
CH$NAME: (2S,3S)-3-Methyl-2-(3-oxo-1,2-benzothiazol-2(3H)-yl)pentanoic acid
CH$NAME: DTXSID3047261
CH$COMPOUND_CLASS: N/A
CH$FORMULA: C13H15NO3S
CH$EXACT_MASS: 265.0772640828
CH$SMILES: CC(CC)C(C(O)=O)N1SC2C=CC=CC=2C1=O
CH$IUPAC: InChI=1S/C13H15NO3S/c1-3-8(2)11(13(16)17)14-12(15)9-6-4-5-7-10(9)18-14/h4-8,11H,3H2,1-2H3,(H,16,17)
CH$LINK: CAS 177785-47-6
CH$LINK: INCHIKEY FUSYFEXGXRDJNB-UHFFFAOYSA-N
CH$LINK: PUBCHEM CID:462368
AC$INSTRUMENT: N/A
AC$INSTRUMENT_TYPE: ESI-QTOF
AC$MASS_SPECTROMETRY: MS_TYPE MS2
AC$MASS_SPECTROMETRY: ION_MODE POSITIVE
AC$MASS_SPECTROMETRY: IONIZATION ESI
AC$MASS_SPECTROMETRY: COLLISION_ENERGY 10
MS$FOCUSED_ION: PRECURSOR_M/Z 266.0845405345
MS$FOCUSED_ION: PRECURSOR_TYPE [M+H]+
MS$DATA_PROCESSING: WHOLE Agilent ChemVista Version 1.0
PK$SPLASH: splash10-00di-0090000000-bf9ba7e38fa6a26ede03
PK$NUM_PEAK: 5
PK$PEAK: m/z int. rel.int.
  69.069877 2.939265 29
  152.016461 16.773237 167
  220.079061 99.999999 999
  248.073976 7.154472 71
  266.084541 48.760531 487
//
