ACCESSION: MSBNK-EPA-ENTACT_AGILENT001660
RECORD_TITLE: 6H-Dibenzo[c,e][1,2]oxaphosphinine 6-oxide; ESI-QTOF; MS2; CE: 40; [M-H]-
DATE: 2023.09.19
AUTHORS: EPA CCTE and Agilent Technologies
LICENSE: CC BY
CH$NAME: 6H-Dibenzo[c,e][1,2]oxaphosphinine 6-oxide
CH$NAME: DTXSID6044563
CH$COMPOUND_CLASS: N/A
CH$FORMULA: C12H9O2P
CH$EXACT_MASS: 216.0340160217
CH$SMILES: O=P1OC2C=CC=CC=2C2C=CC=CC1=2
CH$IUPAC: InChI=1S/C12H9O2P/c13-15-12-8-4-2-6-10(12)9-5-1-3-7-11(9)14-15/h1-8,15H
CH$LINK: CAS 35948-25-5
CH$LINK: INCHIKEY VBQRUYIOTHNGOP-UHFFFAOYSA-N
CH$LINK: PUBCHEM CID:6328250
AC$INSTRUMENT: N/A
AC$INSTRUMENT_TYPE: ESI-QTOF
AC$MASS_SPECTROMETRY: MS_TYPE MS2
AC$MASS_SPECTROMETRY: ION_MODE NEGATIVE
AC$MASS_SPECTROMETRY: IONIZATION ESI
AC$MASS_SPECTROMETRY: COLLISION_ENERGY 40
MS$FOCUSED_ION: PRECURSOR_M/Z 215.02673957
MS$FOCUSED_ION: PRECURSOR_TYPE [M-H]-
MS$DATA_PROCESSING: WHOLE Agilent ChemVista Version 1.0
PK$SPLASH: splash10-03di-9000000000-f7481beba57188448405
PK$NUM_PEAK: 3
PK$PEAK: m/z int. rel.int.
  46.969225 1.332527 13
  62.964139 100.000003 999
  215.02674 10.313558 103
//
