ACCESSION: MSBNK-EPA-ENTACT_AGILENT000983
RECORD_TITLE: 3,3'-Iminobispropanenitrile; ESI-QTOF; MS2; CE: 40; [M+H]+
DATE: 2023.05.02
AUTHORS: EPA CCTE and Agilent Technologies
LICENSE: CC BY
CH$NAME: 3,3'-Iminobispropanenitrile
CH$COMPOUND_CLASS: N/A
CH$FORMULA: C6H9N3
CH$EXACT_MASS: 123.0796473093
CH$SMILES: N#CCCNCCC#N
CH$IUPAC: InChI=1S/C6H9N3/c7-3-1-5-9-6-2-4-8/h9H,1-2,5-6H2
CH$LINK: CAS 111-94-4
CH$LINK: INCHIKEY SBAJRGRUGUQKAF-UHFFFAOYSA-N
CH$LINK: PUBCHEM CID:8149
AC$INSTRUMENT: N/A
AC$INSTRUMENT_TYPE: ESI-QTOF
AC$MASS_SPECTROMETRY: MS_TYPE MS2
AC$MASS_SPECTROMETRY: ION_MODE POSITIVE
AC$MASS_SPECTROMETRY: IONIZATION ESI
AC$MASS_SPECTROMETRY: COLLISION_ENERGY 40
MS$FOCUSED_ION: PRECURSOR_M/Z 124.086923761
MS$FOCUSED_ION: PRECURSOR_TYPE [M+H]+
MS$DATA_PROCESSING: WHOLE Agilent ChemVista Version 1.0
PK$SPLASH: splash10-0f6x-9000000000-66fb176c0bb34b448c15
PK$NUM_PEAK: 8
PK$PEAK: m/z int. rel.int.
  41.026001 2.335862 23
  42.033826 99.999997 999
  43.041651 4.466567 44
  52.018175 5.948926 59
  52.030752 1.083884 10
  54.033826 52.531895 524
  56.049476 4.614731 46
  78.033826 3.122693 31
//
