ACCESSION: MSBNK-EPA-ENTACT_AGILENT001309
RECORD_TITLE: 4,5-Dihydroxy-1,3-dimethylimidazolidin-2-one; ESI-QTOF; MS2; CE: 20; [M-H]-
DATE: 2023.09.19
AUTHORS: EPA CCTE and Agilent Technologies
LICENSE: CC BY
CH$NAME: 4,5-Dihydroxy-1,3-dimethylimidazolidin-2-one
CH$NAME: DTXSID1044934
CH$COMPOUND_CLASS: N/A
CH$FORMULA: C5H10N2O3
CH$EXACT_MASS: 146.0691422007
CH$SMILES: CN1C(O)C(O)N(C)C1=O
CH$IUPAC: InChI=1S/C5H10N2O3/c1-6-3(8)4(9)7(2)5(6)10/h3-4,8-9H,1-2H3
CH$LINK: CAS 3923-79-3
CH$LINK: INCHIKEY LGJMYGMNWHYGCB-UHFFFAOYSA-N
CH$LINK: PUBCHEM CID:73539
AC$INSTRUMENT: N/A
AC$INSTRUMENT_TYPE: ESI-QTOF
AC$MASS_SPECTROMETRY: MS_TYPE MS2
AC$MASS_SPECTROMETRY: ION_MODE NEGATIVE
AC$MASS_SPECTROMETRY: IONIZATION ESI
AC$MASS_SPECTROMETRY: COLLISION_ENERGY 20
MS$FOCUSED_ION: PRECURSOR_M/Z 145.061865749
MS$FOCUSED_ION: PRECURSOR_TYPE [M-H]-
MS$DATA_PROCESSING: WHOLE Agilent ChemVista Version 1.0
PK$SPLASH: splash10-000i-9000000000-d4858287fb4802115d97
PK$NUM_PEAK: 10
PK$PEAK: m/z int. rel.int.
  28.019273 2.844989 28
  56.014187 41.300069 412
  56.998203 3.146713 31
  58.029837 5.937191 59
  60.993117 2.421069 24
  69.045822 1.316161 13
  86.024752 6.627492 66
  87.056386 100.000004 999
  88.016593 1.155734 11
  88.040402 20.893142 208
//
