ACCESSION: MSBNK-EPA-ENTACT_AGILENT002325
RECORD_TITLE: Methyl 2-methoxybenzoate; ESI-QTOF; MS2; CE: 10; [M+H]+
DATE: 2023.09.19
AUTHORS: EPA CCTE and Agilent Technologies
LICENSE: CC BY
CH$NAME: Methyl 2-methoxybenzoate
CH$NAME: DTXSID5047087
CH$COMPOUND_CLASS: N/A
CH$FORMULA: C9H10O3
CH$EXACT_MASS: 166.0629941859
CH$SMILES: COC(=O)C1C=CC=CC=1OC
CH$IUPAC: InChI=1S/C9H10O3/c1-11-8-6-4-3-5-7(8)9(10)12-2/h3-6H,1-2H3
CH$LINK: CAS 606-45-1
CH$LINK: INCHIKEY PFYHAAAQPNMZHO-UHFFFAOYSA-N
CH$LINK: PUBCHEM CID:61151
AC$INSTRUMENT: N/A
AC$INSTRUMENT_TYPE: ESI-QTOF
AC$MASS_SPECTROMETRY: MS_TYPE MS2
AC$MASS_SPECTROMETRY: ION_MODE POSITIVE
AC$MASS_SPECTROMETRY: IONIZATION ESI
AC$MASS_SPECTROMETRY: COLLISION_ENERGY 10
MS$FOCUSED_ION: PRECURSOR_M/Z 167.0702706376
MS$FOCUSED_ION: PRECURSOR_TYPE [M+H]+
MS$DATA_PROCESSING: WHOLE Agilent ChemVista Version 1.0
PK$SPLASH: splash10-004i-9100000000-05d7c44640ae36f51814
PK$NUM_PEAK: 6
PK$PEAK: m/z int. rel.int.
  63.994366 3.644124 36
  79.017841 99.999997 999
  79.054227 1.662297 16
  107.049141 9.035842 90
  149.02332 4.24448 42
  167.070271 1.35214 13
//
