ACCESSION: MSBNK-EPA-ENTACT_AGILENT000818
RECORD_TITLE: 2-(tert-Butylamino)ethanol; ESI-QTOF; MS2; CE: 20; [M+H]+
DATE: 2023.05.02
AUTHORS: EPA CCTE and Agilent Technologies
LICENSE: CC BY
CH$NAME: 2-(tert-Butylamino)ethanol
CH$NAME: DTXSID1044431
CH$COMPOUND_CLASS: N/A
CH$FORMULA: C6H15NO
CH$EXACT_MASS: 117.1153641082
CH$SMILES: CC(C)(C)NCCO
CH$IUPAC: InChI=1S/C6H15NO/c1-6(2,3)7-4-5-8/h7-8H,4-5H2,1-3H3
CH$LINK: CAS 4620-70-6
CH$LINK: INCHIKEY IUXYVKZUDNLISR-UHFFFAOYSA-N
CH$LINK: PUBCHEM CID:78361
AC$INSTRUMENT: N/A
AC$INSTRUMENT_TYPE: ESI-QTOF
AC$MASS_SPECTROMETRY: MS_TYPE MS2
AC$MASS_SPECTROMETRY: ION_MODE POSITIVE
AC$MASS_SPECTROMETRY: IONIZATION ESI
AC$MASS_SPECTROMETRY: COLLISION_ENERGY 20
MS$FOCUSED_ION: PRECURSOR_M/Z 118.1226405599
MS$FOCUSED_ION: PRECURSOR_TYPE [M+H]+
MS$DATA_PROCESSING: WHOLE Agilent ChemVista Version 1.0
PK$SPLASH: splash10-052f-9000000000-c93a2c5dd29bc48c4173
PK$NUM_PEAK: 7
PK$PEAK: m/z int. rel.int.
  29.038577 1.338415 13
  41.038577 16.882308 168
  44.049476 99.999999 999
  45.033491 8.131837 81
  57.069877 71.734828 716
  57.114816 1.773574 17
  62.06004 36.432325 363
//
