ACCESSION: MSBNK-EPA-ENTACT_AGILENT001703
RECORD_TITLE: Octylphosphonic acid; ESI-QTOF; MS2; CE: 20; [M-H]-
DATE: 2023.09.19
AUTHORS: EPA CCTE and Agilent Technologies
LICENSE: CC BY
CH$NAME: Octylphosphonic acid
CH$NAME: DTXSID3044679
CH$COMPOUND_CLASS: N/A
CH$FORMULA: C8H19O3P
CH$EXACT_MASS: 194.107180963
CH$SMILES: CCCCCCCCP(O)(O)=O
CH$IUPAC: InChI=1S/C8H19O3P/c1-2-3-4-5-6-7-8-12(9,10)11/h2-8H2,1H3,(H2,9,10,11)
CH$LINK: CAS 4724-48-5
CH$LINK: INCHIKEY NJGCRMAPOWGWMW-UHFFFAOYSA-N
CH$LINK: PUBCHEM CID:78452
AC$INSTRUMENT: N/A
AC$INSTRUMENT_TYPE: ESI-QTOF
AC$MASS_SPECTROMETRY: MS_TYPE MS2
AC$MASS_SPECTROMETRY: ION_MODE NEGATIVE
AC$MASS_SPECTROMETRY: IONIZATION ESI
AC$MASS_SPECTROMETRY: COLLISION_ENERGY 20
MS$FOCUSED_ION: PRECURSOR_M/Z 193.0999045113
MS$FOCUSED_ION: PRECURSOR_TYPE [M-H]-
MS$DATA_PROCESSING: WHOLE Agilent ChemVista Version 1.0
PK$SPLASH: splash10-004i-9300000000-3afce06d1a3e3f0dd745
PK$NUM_PEAK: 6
PK$PEAK: m/z int. rel.int.
  59.013853 1.357864 13
  78.959054 100.000002 999
  78.995439 1.766331 17
  79.966879 4.73014 47
  175.08934 3.977876 39
  193.099905 35.74996 357
//
