ACCESSION: MSBNK-EPA-ENTACT_AGILENT002047
RECORD_TITLE: 2-(2-Butoxyethoxy)ethyl acetate; ESI-QTOF; MS2; CE: 20; [M+H]+
DATE: 2023.09.19
AUTHORS: EPA CCTE and Agilent Technologies
LICENSE: CC BY
CH$NAME: 2-(2-Butoxyethoxy)ethyl acetate
CH$COMPOUND_CLASS: N/A
CH$FORMULA: C10H20O4
CH$EXACT_MASS: 204.1361591272
CH$SMILES: CCCCOCCOCCOC(C)=O
CH$IUPAC: InChI=1S/C10H20O4/c1-3-4-5-12-6-7-13-8-9-14-10(2)11/h3-9H2,1-2H3
CH$LINK: CAS 124-17-4
CH$LINK: INCHIKEY VXQBJTKSVGFQOL-UHFFFAOYSA-N
CH$LINK: PUBCHEM CID:31288
AC$INSTRUMENT: N/A
AC$INSTRUMENT_TYPE: ESI-QTOF
AC$MASS_SPECTROMETRY: MS_TYPE MS2
AC$MASS_SPECTROMETRY: ION_MODE POSITIVE
AC$MASS_SPECTROMETRY: IONIZATION ESI
AC$MASS_SPECTROMETRY: COLLISION_ENERGY 20
MS$FOCUSED_ION: PRECURSOR_M/Z 205.1434355789
MS$FOCUSED_ION: PRECURSOR_TYPE [M+H]+
MS$DATA_PROCESSING: WHOLE Agilent ChemVista Version 1.0
PK$SPLASH: splash10-000i-9000000000-f097cf65b0a70399429a
PK$NUM_PEAK: 7
PK$PEAK: m/z int. rel.int.
  43.017841 19.555552 195
  43.054227 1.117137 11
  45.033491 5.355207 53
  55.054227 2.014619 20
  57.069877 4.647446 46
  87.044056 100.000004 999
  87.080441 1.017564 10
//
