ACCESSION: MSBNK-EPA-ENTACT_AGILENT001554
RECORD_TITLE: Todralazine; ESI-QTOF; MS2; CE: 10; [M+H]+
DATE: 2023.09.19
AUTHORS: EPA CCTE and Agilent Technologies
LICENSE: CC BY
CH$NAME: Todralazine
CH$NAME: DTXSID4044664
CH$COMPOUND_CLASS: N/A
CH$FORMULA: C11H12N4O2
CH$EXACT_MASS: 232.096025657
CH$SMILES: CCOC(=O)NNC1=NN=CC2=CC=CC=C21
CH$IUPAC: InChI=1S/C11H12N4O2/c1-2-17-11(16)15-14-10-9-6-4-3-5-8(9)7-12-13-10/h3-7H,2H2,1H3,(H,13,14)(H,15,16)
CH$LINK: CAS 14679-73-3
CH$LINK: INCHIKEY WGZDBVOTUVNQFP-UHFFFAOYSA-N
AC$INSTRUMENT: N/A
AC$INSTRUMENT_TYPE: ESI-QTOF
AC$MASS_SPECTROMETRY: MS_TYPE MS2
AC$MASS_SPECTROMETRY: ION_MODE POSITIVE
AC$MASS_SPECTROMETRY: IONIZATION ESI
AC$MASS_SPECTROMETRY: COLLISION_ENERGY 10
MS$FOCUSED_ION: PRECURSOR_M/Z 233.1033021087
MS$FOCUSED_ION: PRECURSOR_TYPE [M+H]+
MS$DATA_PROCESSING: WHOLE Agilent ChemVista Version 1.0
PK$SPLASH: splash10-001i-0290000000-1227d04be5015b5dac51
PK$NUM_PEAK: 8
PK$PEAK: m/z int. rel.int.
  89.038577 2.368215 23
  132.0682 1.299134 12
  145.063449 1.109065 11
  159.066523 2.451687 24
  161.082173 17.989617 179
  187.061437 13.027577 130
  205.072002 17.267077 172
  233.103302 100.000006 999
//
