ACCESSION: MSBNK-EPA-ENTACT_AGILENT001176
RECORD_TITLE: SAR377142; ESI-QTOF; MS2; CE: 10; [M-H]-
DATE: 2023.09.19
AUTHORS: EPA CCTE and Agilent Technologies
LICENSE: CC BY
CH$NAME: SAR377142
CH$NAME: DTXSID4047385
CH$COMPOUND_CLASS: N/A
CH$FORMULA: C26H33ClN6O4
CH$EXACT_MASS: 528.2251812963
CH$SMILES: CC(C)N1CCC(CC1)NC(=O)C1=CC2=CC(=NC=C2N1CC(=O)NC1C=CC(Cl)=CN=1)OCCOC
CH$IUPAC: InChI=1S/C26H33ClN6O4/c1-17(2)32-8-6-20(7-9-32)30-26(35)21-12-18-13-25(37-11-10-36-3)29-15-22(18)33(21)16-24(34)31-23-5-4-19(27)14-28-23/h4-5,12-15,17,20H,6-11,16H2,1-3H3,(H,30,35)(H,28,31,34)
CH$LINK: INCHIKEY YREBJGUGKMXPGE-UHFFFAOYSA-N
CH$LINK: PUBCHEM CID:60196410
AC$INSTRUMENT: N/A
AC$INSTRUMENT_TYPE: ESI-QTOF
AC$MASS_SPECTROMETRY: MS_TYPE MS2
AC$MASS_SPECTROMETRY: ION_MODE NEGATIVE
AC$MASS_SPECTROMETRY: IONIZATION ESI
AC$MASS_SPECTROMETRY: COLLISION_ENERGY 10
MS$FOCUSED_ION: PRECURSOR_M/Z 527.2179048446
MS$FOCUSED_ION: PRECURSOR_TYPE [M-H]-
MS$DATA_PROCESSING: WHOLE Agilent ChemVista Version 1.0
PK$SPLASH: splash10-0002-0009000000-842ac596c27f64aa3964
PK$NUM_PEAK: 4
PK$PEAK: m/z int. rel.int.
  127.006849 1.508815 15
  399.204266 99.999999 999
  400.204881 1.054175 10
  527.217905 9.290704 92
//
