ACCESSION: MSBNK-EPA-ENTACT_AGILENT000314
RECORD_TITLE: 4-tert-Butylcatechol; ESI-QTOF; MS2; CE: 10; [M-H]-
DATE: 2023.05.02
AUTHORS: EPA CCTE and Agilent Technologies
LICENSE: CC BY
CH$NAME: 4-tert-Butylcatechol
CH$COMPOUND_CLASS: N/A
CH$FORMULA: C10H14O2
CH$EXACT_MASS: 166.0993796912
CH$SMILES: CC(C)(C)C1=CC(O)=C(O)C=C1
CH$IUPAC: InChI=1S/C10H14O2/c1-10(2,3)7-4-5-8(11)9(12)6-7/h4-6,11-12H,1-3H3
CH$LINK: CAS 98-29-3
CH$LINK: INCHIKEY XESZUVZBAMCAEJ-UHFFFAOYSA-N
CH$LINK: PUBCHEM CID:7381
AC$INSTRUMENT: N/A
AC$INSTRUMENT_TYPE: ESI-QTOF
AC$MASS_SPECTROMETRY: MS_TYPE MS2
AC$MASS_SPECTROMETRY: ION_MODE NEGATIVE
AC$MASS_SPECTROMETRY: IONIZATION ESI
AC$MASS_SPECTROMETRY: COLLISION_ENERGY 10
MS$FOCUSED_ION: PRECURSOR_M/Z 165.0921032395
MS$FOCUSED_ION: PRECURSOR_TYPE [M-H]-
MS$DATA_PROCESSING: WHOLE Agilent ChemVista Version 1.0
PK$SPLASH: splash10-014i-0900000000-b2ac86ae885eb2968ec9
PK$NUM_PEAK: 3
PK$PEAK: m/z int. rel.int.
  149.060803 2.151193 21
  150.068628 5.154283 51
  165.092103 100.000003 999
//
