ACCESSION: MSBNK-EPA-ENTACT_AGILENT000318
RECORD_TITLE: 4-Methyl-2-nitroaniline; ESI-QTOF; MS2; CE: 40; [M-H]-
DATE: 2023.05.02
AUTHORS: EPA CCTE and Agilent Technologies
LICENSE: CC BY
CH$NAME: 4-Methyl-2-nitroaniline
CH$COMPOUND_CLASS: N/A
CH$FORMULA: C7H8N2O2
CH$EXACT_MASS: 152.0585775146
CH$SMILES: CC1=CC(=C(N)C=C1)[N+]([O-])=O
CH$IUPAC: InChI=1S/C7H8N2O2/c1-5-2-3-6(8)7(4-5)9(10)11/h2-4H,8H2,1H3
CH$LINK: CAS 89-62-3
CH$LINK: INCHIKEY DLURHXYXQYMPLT-UHFFFAOYSA-N
CH$LINK: PUBCHEM CID:6978
AC$INSTRUMENT: N/A
AC$INSTRUMENT_TYPE: ESI-QTOF
AC$MASS_SPECTROMETRY: MS_TYPE MS2
AC$MASS_SPECTROMETRY: ION_MODE NEGATIVE
AC$MASS_SPECTROMETRY: IONIZATION ESI
AC$MASS_SPECTROMETRY: COLLISION_ENERGY 40
MS$FOCUSED_ION: PRECURSOR_M/Z 151.0513010629
MS$FOCUSED_ION: PRECURSOR_TYPE [M-H]-
MS$DATA_PROCESSING: WHOLE Agilent ChemVista Version 1.0
PK$SPLASH: splash10-0002-9000000000-d93289c45b2f918c9d0b
PK$NUM_PEAK: 5
PK$PEAK: m/z int. rel.int.
  41.998537 2.760365 27
  45.993452 99.999998 999
  46.017261 1.902719 19
  46.029837 1.11864 11
  120.045487 1.304591 13
//
