ACCESSION: MSBNK-EPA-ENTACT_AGILENT000537
RECORD_TITLE: sec-Butylparaben; ESI-QTOF; MS2; CE: 20; [M-H]-
DATE: 2023.05.02
AUTHORS: EPA CCTE and Agilent Technologies
LICENSE: CC BY
CH$NAME: sec-Butylparaben
CH$NAME: DTXSID5044607
CH$COMPOUND_CLASS: N/A
CH$FORMULA: C11H14O3
CH$EXACT_MASS: 194.0942943135
CH$SMILES: CC(CC)OC(=O)C1C=CC(O)=CC=1
CH$IUPAC: InChI=1S/C11H14O3/c1-3-8(2)14-11(13)9-4-6-10(12)7-5-9/h4-8,12H,3H2,1-2H3
CH$LINK: CAS 17696-61-6
CH$LINK: INCHIKEY ZUOTXZHOGPQFIU-UHFFFAOYSA-N
CH$LINK: PUBCHEM CID:86607
AC$INSTRUMENT: N/A
AC$INSTRUMENT_TYPE: ESI-QTOF
AC$MASS_SPECTROMETRY: MS_TYPE MS2
AC$MASS_SPECTROMETRY: ION_MODE NEGATIVE
AC$MASS_SPECTROMETRY: IONIZATION ESI
AC$MASS_SPECTROMETRY: COLLISION_ENERGY 20
MS$FOCUSED_ION: PRECURSOR_M/Z 193.0870178618
MS$FOCUSED_ION: PRECURSOR_TYPE [M-H]-
MS$DATA_PROCESSING: WHOLE Agilent ChemVista Version 1.0
PK$SPLASH: splash10-0006-9200000000-08e105fba3feb4f852f6
PK$NUM_PEAK: 10
PK$PEAK: m/z int. rel.int.
  71.050238 2.568166 25
  92.026763 100.000001 999
  92.063149 5.748226 57
  92.084278 1.459384 14
  93.034588 80.554073 804
  93.070974 4.306711 43
  93.092103 1.054602 10
  136.016593 14.33918 143
  137.024418 33.228825 331
  193.087018 7.507282 74
//
