ACCESSION: MSBNK-EPA-ENTACT_AGILENT000456
RECORD_TITLE: 6-Hydroxy-2-naphthyl disulfide; ESI-QTOF; MS2; CE: 40; [M-H]-
DATE: 2023.05.02
AUTHORS: EPA CCTE and Agilent Technologies
LICENSE: CC BY
CH$NAME: 6-Hydroxy-2-naphthyl disulfide
CH$NAME: DTXSID7025429
CH$COMPOUND_CLASS: N/A
CH$FORMULA: C20H14O2S2
CH$EXACT_MASS: 350.0435211512
CH$SMILES: OC1C=C2C=CC(=CC2=CC=1)SSC1C=C2C=CC(O)=CC2=CC=1
CH$IUPAC: InChI=1S/C20H14O2S2/c21-17-5-1-15-11-19(7-3-13(15)9-17)23-24-20-8-4-14-10-18(22)6-2-16(14)12-20/h1-12,21-22H
CH$LINK: CAS 6088-51-3
CH$LINK: INCHIKEY AHXGXXJEEHFHDK-UHFFFAOYSA-N
CH$LINK: PUBCHEM CID:22463
AC$INSTRUMENT: N/A
AC$INSTRUMENT_TYPE: ESI-QTOF
AC$MASS_SPECTROMETRY: MS_TYPE MS2
AC$MASS_SPECTROMETRY: ION_MODE NEGATIVE
AC$MASS_SPECTROMETRY: IONIZATION ESI
AC$MASS_SPECTROMETRY: COLLISION_ENERGY 40
MS$FOCUSED_ION: PRECURSOR_M/Z 349.0362446995
MS$FOCUSED_ION: PRECURSOR_TYPE [M-H]-
MS$DATA_PROCESSING: WHOLE Agilent ChemVista Version 1.0
PK$SPLASH: splash10-00di-0900000000-4deea041beab2ab58b27
PK$NUM_PEAK: 4
PK$PEAK: m/z int. rel.int.
  146.01957 6.412935 64
  174.014484 100.000003 999
  174.068628 1.967535 19
  175.022309 13.150024 131
//
