ACCESSION: MSBNK-EPA-ENTACT_AGILENT001714
RECORD_TITLE: 1H-Isoindole-1,3(2H)-diimine; ESI-QTOF; MS2; CE: 40; [M+H]+
DATE: 2023.09.19
AUTHORS: EPA CCTE and Agilent Technologies
LICENSE: CC BY
CH$NAME: 1H-Isoindole-1,3(2H)-diimine
CH$NAME: DTXSID0044658
CH$COMPOUND_CLASS: N/A
CH$FORMULA: C8H7N3
CH$EXACT_MASS: 145.0639972455
CH$SMILES: N=C1NC(=N)C2C=CC=CC1=2
CH$IUPAC: InChI=1S/C8H7N3/c9-7-5-3-1-2-4-6(5)8(10)11-7/h1-4H,(H3,9,10,11)
CH$LINK: CAS 3468-11-9
CH$LINK: INCHIKEY RZVCEPSDYHAHLX-UHFFFAOYSA-N
CH$LINK: PUBCHEM CID:18980
AC$INSTRUMENT: N/A
AC$INSTRUMENT_TYPE: ESI-QTOF
AC$MASS_SPECTROMETRY: MS_TYPE MS2
AC$MASS_SPECTROMETRY: ION_MODE POSITIVE
AC$MASS_SPECTROMETRY: IONIZATION ESI
AC$MASS_SPECTROMETRY: COLLISION_ENERGY 40
MS$FOCUSED_ION: PRECURSOR_M/Z 146.0712736972
MS$FOCUSED_ION: PRECURSOR_TYPE [M+H]+
MS$DATA_PROCESSING: WHOLE Agilent ChemVista Version 1.0
PK$SPLASH: splash10-0udi-5900000000-6db0e2c8dedd025a097c
PK$NUM_PEAK: 7
PK$PEAK: m/z int. rel.int.
  51.022927 22.151157 221
  52.018175 2.51327 25
  74.015101 1.848525 18
  75.022927 34.377796 343
  76.018175 11.465904 114
  102.033826 100.000002 999
  129.044725 14.099289 140
//
