ACCESSION: MSBNK-EPA-ENTACT_AGILENT000476
RECORD_TITLE: 2-Butenedioic acid (2Z)-, dioctyl ester; ESI-QTOF; MS2; CE: 40; [M+H]+
DATE: 2023.05.02
AUTHORS: EPA CCTE and Agilent Technologies
LICENSE: CC BY
CH$NAME: 2-Butenedioic acid (2Z)-, dioctyl ester
CH$NAME: DTXSID1027508
CH$COMPOUND_CLASS: N/A
CH$FORMULA: C20H36O4
CH$EXACT_MASS: 340.2613596376
CH$SMILES: CCCCCCCCOC(=O)/C=C/C(=O)OCCCCCCCC
CH$IUPAC: InChI=1S/C20H36O4/c1-3-5-7-9-11-13-17-23-19(21)15-16-20(22)24-18-14-12-10-8-6-4-2/h15-16H,3-14,17-18H2,1-2H3/b16-15+
CH$LINK: CAS 2915-53-9
CH$LINK: INCHIKEY TVWTZAGVNBPXHU-FOCLMDBBSA-N
CH$LINK: PUBCHEM CID:6433353
AC$INSTRUMENT: N/A
AC$INSTRUMENT_TYPE: ESI-QTOF
AC$MASS_SPECTROMETRY: MS_TYPE MS2
AC$MASS_SPECTROMETRY: ION_MODE POSITIVE
AC$MASS_SPECTROMETRY: IONIZATION ESI
AC$MASS_SPECTROMETRY: COLLISION_ENERGY 40
MS$FOCUSED_ION: PRECURSOR_M/Z 341.2686360893
MS$FOCUSED_ION: PRECURSOR_TYPE [M+H]+
MS$DATA_PROCESSING: WHOLE Agilent ChemVista Version 1.0
PK$SPLASH: splash10-0002-9000000000-7209d0718b297b613def
PK$NUM_PEAK: 8
PK$PEAK: m/z int. rel.int.
  41.038577 3.248576 32
  43.054227 15.357409 153
  57.069877 19.179562 191
  71.012756 7.182657 71
  71.085527 7.791767 77
  99.00767 99.999998 999
  99.044056 2.271223 22
  99.065185 1.26524 12
//
