ACCESSION: MSBNK-EPA-ENTACT_AGILENT001153
RECORD_TITLE: 2-Amino-6-hydroxy-1H-pyrimidin-4-one; ESI-QTOF; MS2; CE: 40; [M+H]+
DATE: 2023.09.19
AUTHORS: EPA CCTE and Agilent Technologies
LICENSE: CC BY
CH$NAME: 2-Amino-6-hydroxy-1H-pyrimidin-4-one
CH$NAME: DTXSID3052222
CH$COMPOUND_CLASS: N/A
CH$FORMULA: C4H5N3O2
CH$EXACT_MASS: 127.0381764263
CH$SMILES: NC1NC(=O)CC(=O)N=1
CH$IUPAC: InChI=1S/C4H5N3O2/c5-4-6-2(8)1-3(9)7-4/h1H2,(H3,5,6,7,8,9)
CH$LINK: CAS 56-09-7
CH$LINK: INCHIKEY BTYNVOQLMBUUMS-UHFFFAOYSA-N
CH$LINK: PUBCHEM CID:78146
AC$INSTRUMENT: N/A
AC$INSTRUMENT_TYPE: ESI-QTOF
AC$MASS_SPECTROMETRY: MS_TYPE MS2
AC$MASS_SPECTROMETRY: ION_MODE POSITIVE
AC$MASS_SPECTROMETRY: IONIZATION ESI
AC$MASS_SPECTROMETRY: COLLISION_ENERGY 40
MS$FOCUSED_ION: PRECURSOR_M/Z 128.045452878
MS$FOCUSED_ION: PRECURSOR_TYPE [M+H]+
MS$DATA_PROCESSING: WHOLE Agilent ChemVista Version 1.0
PK$SPLASH: splash10-00kf-9000000000-badc058cae695dddaf37
PK$NUM_PEAK: 8
PK$PEAK: m/z int. rel.int.
  40.018175 2.715905 27
  41.002191 28.722255 286
  43.016498 3.033384 30
  43.029075 100.000002 999
  44.01309 4.902132 48
  60.055624 11.354473 113
  68.01309 5.458261 54
  68.997106 92.334677 922
//
