ACCESSION: MSBNK-EPA-ENTACT_AGILENT000189
RECORD_TITLE: 2,4,5-Trichlorobenzenesulfonic acid; ESI-QTOF; MS2; CE: 40; [M-H]-
DATE: 2023.05.02
AUTHORS: EPA CCTE and Agilent Technologies
LICENSE: CC BY
CH$NAME: 2,4,5-Trichlorobenzenesulfonic acid
CH$NAME: DTXSID2045072
CH$COMPOUND_CLASS: N/A
CH$FORMULA: C6H3Cl3O3S
CH$EXACT_MASS: 259.8868478226
CH$SMILES: OS(=O)(=O)C1=CC(Cl)=C(Cl)C=C1Cl
CH$IUPAC: InChI=1S/C6H3Cl3O3S/c7-3-1-5(9)6(2-4(3)8)13(10,11)12/h1-2H,(H,10,11,12)
CH$LINK: CAS 6378-25-2
CH$LINK: INCHIKEY LEDKKDPOPIKMSZ-UHFFFAOYSA-N
CH$LINK: PUBCHEM CID:80786
AC$INSTRUMENT: N/A
AC$INSTRUMENT_TYPE: ESI-QTOF
AC$MASS_SPECTROMETRY: MS_TYPE MS2
AC$MASS_SPECTROMETRY: ION_MODE NEGATIVE
AC$MASS_SPECTROMETRY: IONIZATION ESI
AC$MASS_SPECTROMETRY: COLLISION_ENERGY 40
MS$FOCUSED_ION: PRECURSOR_M/Z 258.8795713709
MS$FOCUSED_ION: PRECURSOR_TYPE [M-H]-
MS$DATA_PROCESSING: WHOLE Agilent ChemVista Version 1.0
PK$SPLASH: splash10-057i-9600000000-922f3ab13a262d9c2a44
PK$NUM_PEAK: 10
PK$PEAK: m/z int. rel.int.
  34.969401 70.05428 699
  79.957363 100.000002 999
  79.990378 2.95514 29
  80.965188 3.583578 35
  94.969401 3.87447 38
  114.926216 13.443002 134
  122.964316 12.344712 123
  158.940994 90.215789 901
  194.917671 19.928237 199
  258.879571 1.634732 16
//
