ACCESSION: MSBNK-EPA-ENTACT_AGILENT002393
RECORD_TITLE: 1-Benzylquinolinium; ESI-QTOF; MS2; CE: 10; [M+H]+
DATE: 2023.09.19
AUTHORS: EPA CCTE and Agilent Technologies
LICENSE: CC BY
CH$NAME: 1-Benzylquinolinium
CH$NAME: DTXSID8044593
CH$COMPOUND_CLASS: N/A
CH$FORMULA: [C16H14N]+
CH$EXACT_MASS: 220.112624454
CH$SMILES: C(C1C=CC=CC=1)[N+]1C=CC=C2C=CC=CC=12
CH$IUPAC: InChI=1S/C16H14N/c1-2-7-14(8-3-1)13-17-12-6-10-15-9-4-5-11-16(15)17/h1-12H,13H2/q+1
CH$LINK: CAS 27926-80-3
CH$LINK: INCHIKEY VQGBPCIONNQYIL-UHFFFAOYSA-N
AC$INSTRUMENT: N/A
AC$INSTRUMENT_TYPE: ESI-QTOF
AC$MASS_SPECTROMETRY: MS_TYPE MS2
AC$MASS_SPECTROMETRY: ION_MODE POSITIVE
AC$MASS_SPECTROMETRY: IONIZATION ESI
AC$MASS_SPECTROMETRY: COLLISION_ENERGY 10
MS$FOCUSED_ION: PRECURSOR_M/Z 221.1199009057
MS$FOCUSED_ION: PRECURSOR_TYPE [M+H]+
MS$DATA_PROCESSING: WHOLE Agilent ChemVista Version 1.0
PK$SPLASH: splash10-00dl-7090000000-26b6694725d15b43930b
PK$NUM_PEAK: 3
PK$PEAK: m/z int. rel.int.
  91.054227 46.921269 468
  92.062052 32.438593 324
  221.119901 99.999997 999
//
