ACCESSION: MSBNK-EPA-ENTACT_AGILENT001164
RECORD_TITLE: CI-1044; ESI-QTOF; MS2; CE: 10; [M-H]-
DATE: 2023.09.19
AUTHORS: EPA CCTE and Agilent Technologies
LICENSE: CC BY
CH$NAME: CI-1044
CH$COMPOUND_CLASS: N/A
CH$FORMULA: C23H19N5O2
CH$EXACT_MASS: 397.1538748877
CH$SMILES: NC1C=C2CCN3C2=C(C=1)C(=NC(NC(=O)C1=CN=CC=C1)C3=O)C1C=CC=CC=1
CH$IUPAC: InChI=1S/C23H19N5O2/c24-17-11-15-8-10-28-20(15)18(12-17)19(14-5-2-1-3-6-14)26-21(23(28)30)27-22(29)16-7-4-9-25-13-16/h1-7,9,11-13,21H,8,10,24H2,(H,27,29)
CH$LINK: INCHIKEY XGXOSJSGDNPEEF-UHFFFAOYSA-N
CH$LINK: PUBCHEM CID:9843744
AC$INSTRUMENT: N/A
AC$INSTRUMENT_TYPE: ESI-QTOF
AC$MASS_SPECTROMETRY: MS_TYPE MS2
AC$MASS_SPECTROMETRY: ION_MODE NEGATIVE
AC$MASS_SPECTROMETRY: IONIZATION ESI
AC$MASS_SPECTROMETRY: COLLISION_ENERGY 10
MS$FOCUSED_ION: PRECURSOR_M/Z 396.146598436
MS$FOCUSED_ION: PRECURSOR_TYPE [M-H]-
MS$DATA_PROCESSING: WHOLE Agilent ChemVista Version 1.0
PK$SPLASH: splash10-0002-0009000000-3be60cd229b9ccf654e1
PK$NUM_PEAK: 10
PK$PEAK: m/z int. rel.int.
  41.998537 2.414074 24
  121.040736 1.469494 14
  262.098586 1.074535 10
  325.14587 1.327348 13
  352.156769 3.032719 30
  353.140785 9.421457 94
  368.151684 1.485238 14
  369.135699 1.514855 15
  378.136034 1.382873 13
  396.146598 99.999999 999
//
