ACCESSION: MSBNK-EPA-ENTACT_AGILENT001129
RECORD_TITLE: 2-Amino-6-nitrobenzothiazole; ESI-QTOF; MS2; CE: 10; [M-H]-
DATE: 2023.09.19
AUTHORS: EPA CCTE and Agilent Technologies
LICENSE: CC BY
CH$NAME: 2-Amino-6-nitrobenzothiazole
CH$NAME: DTXSID3024491
CH$COMPOUND_CLASS: N/A
CH$FORMULA: C7H5N3O2S
CH$EXACT_MASS: 195.0102471563
CH$SMILES: NC1=NC2=CC=C(C=C2S1)[N+]([O-])=O
CH$IUPAC: InChI=1S/C7H5N3O2S/c8-7-9-5-2-1-4(10(11)12)3-6(5)13-7/h1-3H,(H2,8,9)
CH$LINK: CAS 6285-57-0
CH$LINK: INCHIKEY GPNAVOJCQIEKQF-UHFFFAOYSA-N
CH$LINK: PUBCHEM CID:22704
AC$INSTRUMENT: N/A
AC$INSTRUMENT_TYPE: ESI-QTOF
AC$MASS_SPECTROMETRY: MS_TYPE MS2
AC$MASS_SPECTROMETRY: ION_MODE NEGATIVE
AC$MASS_SPECTROMETRY: IONIZATION ESI
AC$MASS_SPECTROMETRY: COLLISION_ENERGY 10
MS$FOCUSED_ION: PRECURSOR_M/Z 194.0029707046
MS$FOCUSED_ION: PRECURSOR_TYPE [M-H]-
MS$DATA_PROCESSING: WHOLE Agilent ChemVista Version 1.0
PK$SPLASH: splash10-0006-0900000000-c2fe66d642aa18333dcd
PK$NUM_PEAK: 6
PK$PEAK: m/z int. rel.int.
  57.975693 1.126773 11
  148.010067 4.402803 43
  162.0309 2.38093 23
  164.004982 2.847905 28
  177.000231 1.154908 11
  194.002971 100.000002 999
//
