ACCESSION: MSBNK-EPA-ENTACT_AGILENT000867
RECORD_TITLE: 3,3'-(4-Methylbenzene-1,3-diyl)bis(1,1-dimethylurea); ESI-QTOF; MS2; CE: 10; [M+H]+
DATE: 2023.05.02
AUTHORS: EPA CCTE and Agilent Technologies
LICENSE: CC BY
CH$NAME: 3,3'-(4-Methylbenzene-1,3-diyl)bis(1,1-dimethylurea)
CH$NAME: DTXSID0044606
CH$COMPOUND_CLASS: N/A
CH$FORMULA: C13H20N4O2
CH$EXACT_MASS: 264.1586259122
CH$SMILES: CC1=CC=C(C=C1NC(=O)N(C)C)NC(=O)N(C)C
CH$IUPAC: InChI=1S/C13H20N4O2/c1-9-6-7-10(14-12(18)16(2)3)8-11(9)15-13(19)17(4)5/h6-8H,1-5H3,(H,14,18)(H,15,19)
CH$LINK: CAS 17526-94-2
CH$LINK: INCHIKEY KDQTUCKOAOGTLT-UHFFFAOYSA-N
CH$LINK: PUBCHEM CID:87146
AC$INSTRUMENT: N/A
AC$INSTRUMENT_TYPE: ESI-QTOF
AC$MASS_SPECTROMETRY: MS_TYPE MS2
AC$MASS_SPECTROMETRY: ION_MODE POSITIVE
AC$MASS_SPECTROMETRY: IONIZATION ESI
AC$MASS_SPECTROMETRY: COLLISION_ENERGY 10
MS$FOCUSED_ION: PRECURSOR_M/Z 265.1659023639
MS$FOCUSED_ION: PRECURSOR_TYPE [M+H]+
MS$DATA_PROCESSING: WHOLE Agilent ChemVista Version 1.0
PK$SPLASH: splash10-00kb-7090000000-048454ced2bebc25c26a
PK$NUM_PEAK: 5
PK$PEAK: m/z int. rel.int.
  46.065126 100.000001 999
  46.098831 1.044892 10
  72.04439 2.647731 26
  220.108053 35.811357 357
  265.165902 83.770126 836
//
