ACCESSION: MSBNK-EPA-ENTACT_AGILENT001227
RECORD_TITLE: CP-457677; ESI-QTOF; MS2; CE: 10; [M-H]-
DATE: 2023.09.19
AUTHORS: EPA CCTE and Agilent Technologies
LICENSE: CC BY
CH$NAME: CP-457677
CH$NAME: DTXSID2047278
CH$COMPOUND_CLASS: N/A
CH$FORMULA: C22H21FN2O3
CH$EXACT_MASS: 380.1536207516
CH$SMILES: CC(C)(O)C1C=CC(CNC(=O)C2=CC=CN=C2OC2C=CC(F)=CC=2)=CC=1
CH$IUPAC: InChI=1S/C22H21FN2O3/c1-22(2,27)16-7-5-15(6-8-16)14-25-20(26)19-4-3-13-24-21(19)28-18-11-9-17(23)10-12-18/h3-13,27H,14H2,1-2H3,(H,25,26)
CH$LINK: CAS 214535-77-0
CH$LINK: INCHIKEY UHBUSMAHWHZQKS-UHFFFAOYSA-N
CH$LINK: PUBCHEM CID:10407399
AC$INSTRUMENT: N/A
AC$INSTRUMENT_TYPE: ESI-QTOF
AC$MASS_SPECTROMETRY: MS_TYPE MS2
AC$MASS_SPECTROMETRY: ION_MODE NEGATIVE
AC$MASS_SPECTROMETRY: IONIZATION ESI
AC$MASS_SPECTROMETRY: COLLISION_ENERGY 10
MS$FOCUSED_ION: PRECURSOR_M/Z 379.1463442999
MS$FOCUSED_ION: PRECURSOR_TYPE [M-H]-
MS$DATA_PROCESSING: WHOLE Agilent ChemVista Version 1.0
PK$SPLASH: splash10-004i-0009000000-2d850a5b36fae747803e
PK$NUM_PEAK: 3
PK$PEAK: m/z int. rel.int.
  122.025895 2.151402 21
  361.13578 5.108973 51
  379.146344 100.000001 999
//
