ACCESSION: MSBNK-EPA-ENTACT_AGILENT002274
RECORD_TITLE: 4-Chloropyridine 1-oxide; ESI-QTOF; MS2; CE: 20; [M-H]-
DATE: 2023.09.19
AUTHORS: EPA CCTE and Agilent Technologies
LICENSE: CC BY
CH$NAME: 4-Chloropyridine 1-oxide
CH$COMPOUND_CLASS: N/A
CH$FORMULA: C5H4ClNO
CH$EXACT_MASS: 128.9981414673
CH$SMILES: [O-][N+]1C=CC(Cl)=CC=1
CH$IUPAC: InChI=1S/C5H4ClNO/c6-5-1-3-7(8)4-2-5/h1-4H
CH$LINK: CAS 1121-76-2
CH$LINK: INCHIKEY DPJVRASYWYOFSJ-UHFFFAOYSA-N
CH$LINK: PUBCHEM CID:70724
AC$INSTRUMENT: N/A
AC$INSTRUMENT_TYPE: ESI-QTOF
AC$MASS_SPECTROMETRY: MS_TYPE MS2
AC$MASS_SPECTROMETRY: ION_MODE NEGATIVE
AC$MASS_SPECTROMETRY: IONIZATION ESI
AC$MASS_SPECTROMETRY: COLLISION_ENERGY 20
MS$FOCUSED_ION: PRECURSOR_M/Z 127.9908650156
MS$FOCUSED_ION: PRECURSOR_TYPE [M-H]-
MS$DATA_PROCESSING: WHOLE Agilent ChemVista Version 1.0
PK$SPLASH: splash10-003r-9400000000-1d185dba314aaeea6b17
PK$NUM_PEAK: 4
PK$PEAK: m/z int. rel.int.
  34.969401 100.000002 999
  65.003288 5.084246 50
  67.006362 1.786117 17
  127.990865 57.98216 579
//
