ACCESSION: MSBNK-EPA-ENTACT_AGILENT001197
RECORD_TITLE: 6-Methyl-3-hydroxypyridine; ESI-QTOF; MS2; CE: 20; [M-H]-
DATE: 2023.09.19
AUTHORS: EPA CCTE and Agilent Technologies
LICENSE: CC BY
CH$NAME: 6-Methyl-3-hydroxypyridine
CH$COMPOUND_CLASS: N/A
CH$FORMULA: C6H7NO
CH$EXACT_MASS: 109.052763853
CH$SMILES: CC1C=CC(O)=CN=1
CH$IUPAC: InChI=1S/C6H7NO/c1-5-2-3-6(8)4-7-5/h2-4,8H,1H3
CH$LINK: CAS 1121-78-4
CH$LINK: INCHIKEY DHLUJPLHLZJUBW-UHFFFAOYSA-N
CH$LINK: PUBCHEM CID:14275
AC$INSTRUMENT: N/A
AC$INSTRUMENT_TYPE: ESI-QTOF
AC$MASS_SPECTROMETRY: MS_TYPE MS2
AC$MASS_SPECTROMETRY: ION_MODE NEGATIVE
AC$MASS_SPECTROMETRY: IONIZATION ESI
AC$MASS_SPECTROMETRY: COLLISION_ENERGY 20
MS$FOCUSED_ION: PRECURSOR_M/Z 108.0454874013
MS$FOCUSED_ION: PRECURSOR_TYPE [M-H]-
MS$DATA_PROCESSING: WHOLE Agilent ChemVista Version 1.0
PK$SPLASH: splash10-0a4i-4900000000-96c20af373e9764ea9af
PK$NUM_PEAK: 10
PK$PEAK: m/z int. rel.int.
  53.039674 6.379087 63
  64.019273 2.365499 23
  67.006362 4.775854 47
  78.034923 2.677145 26
  80.050573 22.751897 227
  81.034588 1.349919 13
  90.034923 1.738736 17
  93.022012 28.789348 287
  107.037662 53.628882 535
  108.045487 100.000004 999
//
