ACCESSION: MSBNK-EPA-ENTACT_AGILENT000139
RECORD_TITLE: 4-(Diglycidylamino)phenyl glycidyl ether; ESI-QTOF; MS2; CE: 20; [M+H]+
DATE: 2023.05.02
AUTHORS: EPA CCTE and Agilent Technologies
LICENSE: CC BY
CH$NAME: 4-(Diglycidylamino)phenyl glycidyl ether
CH$NAME: DTXSID8027585
CH$COMPOUND_CLASS: N/A
CH$FORMULA: C15H19NO4
CH$EXACT_MASS: 277.1314081027
CH$SMILES: C(C1CO1)N(CC1CO1)C1C=CC(=CC=1)OCC1CO1
CH$IUPAC: InChI=1S/C15H19NO4/c1-3-12(17-9-15-10-20-15)4-2-11(1)16(5-13-7-18-13)6-14-8-19-14/h1-4,13-15H,5-10H2
CH$LINK: CAS 5026-74-4
CH$LINK: INCHIKEY AHIPJALLQVEEQF-UHFFFAOYSA-N
CH$LINK: PUBCHEM CID:62558
AC$INSTRUMENT: N/A
AC$INSTRUMENT_TYPE: ESI-QTOF
AC$MASS_SPECTROMETRY: MS_TYPE MS2
AC$MASS_SPECTROMETRY: ION_MODE POSITIVE
AC$MASS_SPECTROMETRY: IONIZATION ESI
AC$MASS_SPECTROMETRY: COLLISION_ENERGY 20
MS$FOCUSED_ION: PRECURSOR_M/Z 278.1386845544
MS$FOCUSED_ION: PRECURSOR_TYPE [M+H]+
MS$DATA_PROCESSING: WHOLE Agilent ChemVista Version 1.0
PK$SPLASH: splash10-0fi3-0950000000-074d7ecec8520c7baf17
PK$NUM_PEAK: 114
PK$PEAK: m/z int. rel.int.
  41.038577 1.333032 13
  43.017841 1.357888 13
  43.054227 4.753832 47
  45.033491 2.584527 25
  54.033826 2.068373 20
  55.017841 1.850467 18
  55.054227 3.058645 30
  57.033491 18.664777 186
  71.049141 8.698399 86
  77.038577 3.551457 35
  79.054227 1.728413 17
  80.049476 1.163314 11
  83.049141 3.288001 32
  91.054227 7.781588 77
  101.059706 1.218701 12
  103.054227 4.729745 47
  104.049476 1.752094 17
  105.069877 1.019102 10
  107.049141 5.701117 56
  108.04439 4.134153 41
  109.052215 1.147283 11
  115.054227 1.618581 16
  116.049476 1.941153 19
  117.057301 5.520141 55
  118.065126 11.799643 117
  119.072951 2.740688 27
  120.04439 10.520171 105
  120.080776 2.193354 21
  121.064791 2.577486 25
  121.999845 1.086557 10
  122.06004 3.41649 34
  123.044056 1.19691 11
  129.054621 2.093186 20
  129.069877 1.811877 18
  130.065126 13.652552 136
  131.049141 1.90525 19
  131.072951 4.784043 47
  132.04439 4.35764 43
  132.080776 7.058278 70
  133.052215 3.819364 38
  134.06004 19.918657 198
  134.093746 1.2977 12
  135.067865 5.077368 50
  136.07569 6.058387 60
  142.065126 1.022529 10
  143.072951 5.908497 59
  144.080776 9.677037 96
  145.052215 2.209992 22
  145.064791 1.50816 15
  145.088601 1.440516 14
  146.06004 37.518164 374
  146.096426 2.569907 25
  147.067865 5.162182 51
  148.07569 12.274503 122
  149.059706 1.913545 19
  149.080835 1.142252 11
  150.09134 1.792526 17
  156.080776 5.351971 53
  157.088601 2.9348 29
  158.06004 4.628389 46
  158.096426 4.389109 43
  159.067865 6.663579 66
  160.07569 22.181534 221
  161.083515 3.466826 34
  162.054955 2.255338 22
  162.09134 7.417276 74
  163.075356 2.125483 21
  163.096485 1.004559 10
  164.070605 37.981203 379
  165.07843 4.494156 44
  167.072951 1.16353 11
  168.080776 1.223332 12
  170.06004 1.106917 11
  170.093746 1.982227 19
  171.067865 1.874943 18
  172.07569 19.187343 191
  173.083515 9.855284 98
  174.09134 22.577696 225
  175.099165 2.201438 21
  176.070605 99.999999 999
  176.119567 2.071511 20
  177.07843 4.556975 45
  178.086255 21.484257 214
  184.07569 2.929111 29
  185.083515 2.791383 27
  186.09134 9.3214 93
  189.07843 1.492001 14
  190.086255 39.060139 390
  191.09408 15.145907 151
  192.101905 51.072037 510
  198.09134 3.152775 31
  202.086255 50.233181 501
  203.09408 18.637177 186
  204.101905 38.143089 381
  205.10973 4.108501 41
  206.117555 3.314628 33
  216.101905 14.247432 142
  217.10973 1.732994 17
  218.117555 10.50563 104
  220.09682 41.185811 411
  221.104645 52.051654 519
  222.11247 3.202565 31
  228.101905 6.867625 68
  229.10973 1.515157 15
  230.117555 12.043788 120
  232.133205 1.489626 14
  234.11247 26.442809 264
  235.120295 3.339299 33
  242.117555 1.142035 11
  247.120295 4.958674 49
  248.12812 21.768518 217
  250.107384 1.644305 16
  260.12812 23.274682 232
  278.138685 21.241068 212
//
