ACCESSION: MSBNK-EPA-ENTACT_AGILENT002109
RECORD_TITLE: 1-Methyl-1,3-dihydro-2H-benzimidazole-2-thione; ESI-QTOF; MS2; CE: 10; [M-H]-
DATE: 2023.09.19
AUTHORS: EPA CCTE and Agilent Technologies
LICENSE: CC BY
CH$NAME: 1-Methyl-1,3-dihydro-2H-benzimidazole-2-thione
CH$NAME: DTXSID40178252
CH$COMPOUND_CLASS: N/A
CH$FORMULA: C8H8N2S
CH$EXACT_MASS: 164.040819
CH$SMILES: CN1C(=S)NC2=CC=CC=C12
CH$IUPAC: InChI=1S/C8H8N2S/c1-10-7-5-3-2-4-6(7)9-8(10)11/h2-5H,1H3,(H,9,11)
CH$LINK: CAS 2360-22-7
CH$LINK: INCHIKEY CDNHLXOFELOEOL-UHFFFAOYSA-N
CH$LINK: PUBCHEM CID:1522244
AC$INSTRUMENT: N/A
AC$INSTRUMENT_TYPE: ESI-QTOF
AC$MASS_SPECTROMETRY: MS_TYPE MS2
AC$MASS_SPECTROMETRY: ION_MODE NEGATIVE
AC$MASS_SPECTROMETRY: IONIZATION ESI
AC$MASS_SPECTROMETRY: COLLISION_ENERGY 10
MS$FOCUSED_ION: PRECURSOR_M/Z 163.0335425483
MS$FOCUSED_ION: PRECURSOR_TYPE [M-H]-
MS$DATA_PROCESSING: WHOLE Agilent ChemVista Version 1.0
PK$SPLASH: splash10-03di-0900000000-71b8512f274a1c675400
PK$NUM_PEAK: 2
PK$PEAK: m/z int. rel.int.
  148.010067 12.816605 128
  163.033543 100.000003 999
//
