ACCESSION: MSBNK-EPA-ENTACT_AGILENT002487
RECORD_TITLE: Ascorbyl palmitate; ESI-QTOF; MS2; CE: 10; [M+H]+
DATE: 2023.09.19
AUTHORS: EPA CCTE and Agilent Technologies
LICENSE: CC BY
CH$NAME: Ascorbyl palmitate
CH$NAME: DTXSID3041611
CH$COMPOUND_CLASS: N/A
CH$FORMULA: C22H38O7
CH$EXACT_MASS: 414.2617535683
CH$SMILES: CCCCCCCCCCCCCCCC(=O)OCC(O)C1OC(=O)C(=O)C1O
CH$IUPAC: InChI=1S/C22H38O7/c1-2-3-4-5-6-7-8-9-10-11-12-13-14-15-18(24)28-16-17(23)21-19(25)20(26)22(27)29-21/h17,19,21,23,25H,2-16H2,1H3
CH$LINK: CAS 137-66-6
CH$LINK: INCHIKEY CYJPUZLKFAUFHF-UHFFFAOYSA-N
CH$LINK: PUBCHEM CID:54680660
AC$INSTRUMENT: N/A
AC$INSTRUMENT_TYPE: ESI-QTOF
AC$MASS_SPECTROMETRY: MS_TYPE MS2
AC$MASS_SPECTROMETRY: ION_MODE POSITIVE
AC$MASS_SPECTROMETRY: IONIZATION ESI
AC$MASS_SPECTROMETRY: COLLISION_ENERGY 10
MS$FOCUSED_ION: PRECURSOR_M/Z 415.26903002
MS$FOCUSED_ION: PRECURSOR_TYPE [M+H]+
MS$DATA_PROCESSING: WHOLE Agilent ChemVista Version 1.0
PK$SPLASH: splash10-014i-0900000000-b0c4ba9d3c7690fc2b87
PK$NUM_PEAK: 5
PK$PEAK: m/z int. rel.int.
  119.085527 100.000002 999
  129.054621 1.050263 10
  133.064791 1.511336 15
  135.080441 8.746667 87
  281.13835 2.142349 21
//
