ACCESSION: MSBNK-EPA-ENTACT_AGILENT001875
RECORD_TITLE: BPS-MPE4; ESI-QTOF; MS2; CE: 10; [M+H]+
DATE: 2023.09.19
AUTHORS: EPA CCTE and Agilent Technologies
LICENSE: CC BY
CH$NAME: BPS-MPE4
CH$NAME: DTXSID4058655
CH$COMPOUND_CLASS: N/A
CH$FORMULA: C19H16O4S
CH$EXACT_MASS: 340.0769297296
CH$SMILES: OC1C=CC=CC=1S(=O)(=O)C1C=CC(=CC=1)OCC1C=CC=CC=1
CH$IUPAC: InChI=1S/C19H16O4S/c20-18-8-4-5-9-19(18)24(21,22)17-12-10-16(11-13-17)23-14-15-6-2-1-3-7-15/h1-13,20H,14H2
CH$LINK: CAS 63134-33-8
CH$LINK: INCHIKEY OAHRHEHKTRXORG-UHFFFAOYSA-N
CH$LINK: PUBCHEM CID:14178379
AC$INSTRUMENT: N/A
AC$INSTRUMENT_TYPE: ESI-QTOF
AC$MASS_SPECTROMETRY: MS_TYPE MS2
AC$MASS_SPECTROMETRY: ION_MODE POSITIVE
AC$MASS_SPECTROMETRY: IONIZATION ESI
AC$MASS_SPECTROMETRY: COLLISION_ENERGY 10
MS$FOCUSED_ION: PRECURSOR_M/Z 341.0842061813
MS$FOCUSED_ION: PRECURSOR_TYPE [M+H]+
MS$DATA_PROCESSING: WHOLE Agilent ChemVista Version 1.0
PK$SPLASH: splash10-0006-2009000000-f49e5d092c9486342a9d
PK$NUM_PEAK: 6
PK$PEAK: m/z int. rel.int.
  91.054227 24.989387 249
  93.033491 1.203347 12
  109.028406 1.280607 12
  156.995391 6.92164 69
  263.037256 4.050048 40
  341.084206 100.000003 999
//
