ACCESSION: MSBNK-EPA-ENTACT_AGILENT002262
RECORD_TITLE: FR167356; ESI-QTOF; MS2; CE: 10; [M-H]-
DATE: 2023.09.19
AUTHORS: EPA CCTE and Agilent Technologies
LICENSE: CC BY
CH$NAME: FR167356
CH$NAME: DTXSID1048174
CH$COMPOUND_CLASS: N/A
CH$FORMULA: C19H17Cl2NO3
CH$EXACT_MASS: 377.0585488366
CH$SMILES: CC1OC2C(=CC=CC=2C=1C(C)(C)O)NC(=O)C1C(Cl)=CC=CC=1Cl
CH$IUPAC: InChI=1S/C19H17Cl2NO3/c1-10-16(19(2,3)24)11-6-4-9-14(17(11)25-10)22-18(23)15-12(20)7-5-8-13(15)21/h4-9,24H,1-3H3,(H,22,23)
CH$LINK: CAS 174185-16-1
CH$LINK: INCHIKEY GCAOVMKRBUCSET-UHFFFAOYSA-N
CH$LINK: PUBCHEM CID:10068207
AC$INSTRUMENT: N/A
AC$INSTRUMENT_TYPE: ESI-QTOF
AC$MASS_SPECTROMETRY: MS_TYPE MS2
AC$MASS_SPECTROMETRY: ION_MODE NEGATIVE
AC$MASS_SPECTROMETRY: IONIZATION ESI
AC$MASS_SPECTROMETRY: COLLISION_ENERGY 10
MS$FOCUSED_ION: PRECURSOR_M/Z 376.0512723849
MS$FOCUSED_ION: PRECURSOR_TYPE [M-H]-
MS$DATA_PROCESSING: WHOLE Agilent ChemVista Version 1.0
PK$SPLASH: splash10-00di-0902000000-3804e067dfa2e06fe6c7
PK$NUM_PEAK: 7
PK$PEAK: m/z int. rel.int.
  34.969401 1.915075 19
  57.034588 2.186877 21
  144.961729 25.47767 254
  172.040402 100.000002 999
  172.089364 1.479901 14
  230.082267 13.602391 135
  376.051272 40.128308 400
//
