ACCESSION: MSBNK-EPA-ENTACT_AGILENT000251
RECORD_TITLE: 1-Amino-2-propanol; ESI-QTOF; MS2; CE: 10; [M+H]+
DATE: 2023.05.02
AUTHORS: EPA CCTE and Agilent Technologies
LICENSE: CC BY
CH$NAME: 1-Amino-2-propanol
CH$COMPOUND_CLASS: N/A
CH$FORMULA: C3H9NO
CH$EXACT_MASS: 75.0684139168
CH$SMILES: CC(O)CN
CH$IUPAC: InChI=1S/C3H9NO/c1-3(5)2-4/h3,5H,2,4H2,1H3
CH$LINK: CAS 78-96-6
CH$LINK: INCHIKEY HXKKHQJGJAFBHI-UHFFFAOYSA-N
CH$LINK: PUBCHEM CID:4
AC$INSTRUMENT: N/A
AC$INSTRUMENT_TYPE: ESI-QTOF
AC$MASS_SPECTROMETRY: MS_TYPE MS2
AC$MASS_SPECTROMETRY: ION_MODE POSITIVE
AC$MASS_SPECTROMETRY: IONIZATION ESI
AC$MASS_SPECTROMETRY: COLLISION_ENERGY 10
MS$FOCUSED_ION: PRECURSOR_M/Z 76.0756903685
MS$FOCUSED_ION: PRECURSOR_TYPE [M+H]+
MS$DATA_PROCESSING: WHOLE Agilent ChemVista Version 1.0
PK$SPLASH: splash10-0a4i-9000000000-8c61415be65540ca8fc0
PK$NUM_PEAK: 7
PK$PEAK: m/z int. rel.int.
  30.033826 1.747575 17
  31.017841 1.706119 17
  41.038577 30.762468 307
  43.041651 8.214501 82
  58.065126 100.000002 999
  59.049141 4.381702 43
  76.07569 13.961468 139
//
