ACCESSION: MSBNK-EPA-ENTACT_AGILENT001401
RECORD_TITLE: 2,6-Pyridinedicarboxylic acid; ESI-QTOF; MS2; CE: 20; [M-H]-
DATE: 2023.09.19
AUTHORS: EPA CCTE and Agilent Technologies
LICENSE: CC BY
CH$NAME: 2,6-Pyridinedicarboxylic acid
CH$NAME: DTXSID7022043
CH$COMPOUND_CLASS: N/A
CH$FORMULA: C7H5NO4
CH$EXACT_MASS: 167.0218576561
CH$SMILES: OC(=O)C1=CC=CC(=N1)C(O)=O
CH$IUPAC: InChI=1S/C7H5NO4/c9-6(10)4-2-1-3-5(8-4)7(11)12/h1-3H,(H,9,10)(H,11,12)
CH$LINK: CAS 499-83-2
CH$LINK: INCHIKEY WJJMNDUMQPNECX-UHFFFAOYSA-N
CH$LINK: PUBCHEM CID:10367
AC$INSTRUMENT: N/A
AC$INSTRUMENT_TYPE: ESI-QTOF
AC$MASS_SPECTROMETRY: MS_TYPE MS2
AC$MASS_SPECTROMETRY: ION_MODE NEGATIVE
AC$MASS_SPECTROMETRY: IONIZATION ESI
AC$MASS_SPECTROMETRY: COLLISION_ENERGY 20
MS$FOCUSED_ION: PRECURSOR_M/Z 166.0145812044
MS$FOCUSED_ION: PRECURSOR_TYPE [M-H]-
MS$DATA_PROCESSING: WHOLE Agilent ChemVista Version 1.0
PK$SPLASH: splash10-004i-9000000000-321c320489651af1cc07
PK$NUM_PEAK: 2
PK$PEAK: m/z int. rel.int.
  78.034923 99.999997 999
  122.024752 3.553679 35
//
