ACCESSION: MSBNK-EPA-ENTACT_AGILENT001635
RECORD_TITLE: N,N'-Dicyclohexylthiourea; ESI-QTOF; MS2; CE: 10; [M+H]+
DATE: 2023.09.19
AUTHORS: EPA CCTE and Agilent Technologies
LICENSE: CC BY
CH$NAME: N,N'-Dicyclohexylthiourea
CH$COMPOUND_CLASS: N/A
CH$FORMULA: C13H24N2S
CH$EXACT_MASS: 240.1660195104
CH$SMILES: S=C(NC1CCCCC1)NC1CCCCC1
CH$IUPAC: InChI=1S/C13H24N2S/c16-13(14-11-7-3-1-4-8-11)15-12-9-5-2-6-10-12/h11-12H,1-10H2,(H2,14,15,16)
CH$LINK: CAS 1212-29-9
CH$LINK: INCHIKEY KAJICSGLHKRDLN-UHFFFAOYSA-N
CH$LINK: PUBCHEM CID:727200
AC$INSTRUMENT: N/A
AC$INSTRUMENT_TYPE: ESI-QTOF
AC$MASS_SPECTROMETRY: MS_TYPE MS2
AC$MASS_SPECTROMETRY: ION_MODE POSITIVE
AC$MASS_SPECTROMETRY: IONIZATION ESI
AC$MASS_SPECTROMETRY: COLLISION_ENERGY 10
MS$FOCUSED_ION: PRECURSOR_M/Z 241.1732959621
MS$FOCUSED_ION: PRECURSOR_TYPE [M+H]+
MS$DATA_PROCESSING: WHOLE Agilent ChemVista Version 1.0
PK$SPLASH: splash10-0006-0290000000-9bd2df193590cc83f10a
PK$NUM_PEAK: 5
PK$PEAK: m/z int. rel.int.
  55.054227 1.028806 10
  83.085527 2.901822 28
  100.112076 22.84729 228
  159.095046 1.201489 12
  241.173296 99.999998 999
//
