ACCESSION: MSBNK-EPA-ENTACT_AGILENT000727
RECORD_TITLE: Sulfoisophthalic acid; ESI-QTOF; MS2; CE: 20; [M-H]-
DATE: 2023.05.02
AUTHORS: EPA CCTE and Agilent Technologies
LICENSE: CC BY
CH$NAME: Sulfoisophthalic acid
CH$NAME: DTXSID5044819
CH$COMPOUND_CLASS: N/A
CH$FORMULA: C8H6O7S
CH$EXACT_MASS: 245.9834232775
CH$SMILES: OS(=O)(=O)C1C=C(C=C(C=1)C(O)=O)C(O)=O
CH$IUPAC: InChI=1S/C8H6O7S/c9-7(10)4-1-5(8(11)12)3-6(2-4)16(13,14)15/h1-3H,(H,9,10)(H,11,12)(H,13,14,15)
CH$LINK: CAS 22326-31-4
CH$LINK: INCHIKEY CARJPEPCULYFFP-UHFFFAOYSA-N
AC$INSTRUMENT: N/A
AC$INSTRUMENT_TYPE: ESI-QTOF
AC$MASS_SPECTROMETRY: MS_TYPE MS2
AC$MASS_SPECTROMETRY: ION_MODE NEGATIVE
AC$MASS_SPECTROMETRY: IONIZATION ESI
AC$MASS_SPECTROMETRY: COLLISION_ENERGY 20
MS$FOCUSED_ION: PRECURSOR_M/Z 244.9761468258
MS$FOCUSED_ION: PRECURSOR_TYPE [M-H]-
MS$DATA_PROCESSING: WHOLE Agilent ChemVista Version 1.0
PK$SPLASH: splash10-0159-6940000000-76b58abcbbdd16901e24
PK$NUM_PEAK: 10
PK$PEAK: m/z int. rel.int.
  59.013853 1.862091 18
  75.024024 5.420755 54
  80.965188 61.344643 612
  93.034588 3.937661 39
  109.029503 1.046634 10
  119.013853 99.999998 999
  137.024418 1.245094 12
  156.996488 1.780079 17
  200.986318 31.032221 310
  244.976147 23.824194 238
//
