ACCESSION: MSBNK-EPA-ENTACT_AGILENT001406
RECORD_TITLE: Rhodamine 6G; ESI-QTOF; MS2; CE: 20; [M-H]-
DATE: 2023.09.19
AUTHORS: EPA CCTE and Agilent Technologies
LICENSE: CC BY
CH$NAME: Rhodamine 6G
CH$COMPOUND_CLASS: N/A
CH$FORMULA: [C28H31N2O3]+
CH$EXACT_MASS: 443.2334678706
CH$SMILES: CC1=CC2=C(C3C=C(C)C(=CC=3[O+]=C2C=C1NCC)NCC)C1C=CC=CC=1C(=O)OCC
CH$IUPAC: InChI=1S/C28H31N2O3/c1-6-29-23-15-25-21(13-17(23)4)27(19-11-9-10-12-20(19)28(31)32-8-3)22-14-18(5)24(30-7-2)16-26(22)33-25/h9-16,29-30H,6-8H2,1-5H3/q+1
CH$LINK: CAS 989-38-8
CH$LINK: INCHIKEY BRIVWQJCHBUVLE-UHFFFAOYSA-N
CH$LINK: PUBCHEM CID:13806
AC$INSTRUMENT: N/A
AC$INSTRUMENT_TYPE: ESI-QTOF
AC$MASS_SPECTROMETRY: MS_TYPE MS2
AC$MASS_SPECTROMETRY: ION_MODE NEGATIVE
AC$MASS_SPECTROMETRY: IONIZATION ESI
AC$MASS_SPECTROMETRY: COLLISION_ENERGY 20
MS$FOCUSED_ION: PRECURSOR_M/Z 442.2261914189
MS$FOCUSED_ION: PRECURSOR_TYPE [M-H]-
MS$DATA_PROCESSING: WHOLE Agilent ChemVista Version 1.0
PK$SPLASH: splash10-0006-0001900000-dafd64616a3b5b555386
PK$NUM_PEAK: 7
PK$PEAK: m/z int. rel.int.
  353.165937 1.136544 11
  354.173762 1.869357 18
  359.155372 2.241118 22
  367.181587 1.164642 11
  368.189412 4.22675 42
  369.186004 2.981969 29
  442.226191 100.000002 999
//
