ACCESSION: MSBNK-EPA-ENTACT_AGILENT002341
RECORD_TITLE: N-Benzyl-N-hydroxy-1-phenylmethanamine; ESI-QTOF; MS2; CE: 20; [M+H]+
DATE: 2023.09.19
AUTHORS: EPA CCTE and Agilent Technologies
LICENSE: CC BY
CH$NAME: N-Benzyl-N-hydroxy-1-phenylmethanamine
CH$NAME: DTXSID3044702
CH$COMPOUND_CLASS: N/A
CH$FORMULA: C14H15NO
CH$EXACT_MASS: 213.1153641082
CH$SMILES: ON(CC1C=CC=CC=1)CC1C=CC=CC=1
CH$IUPAC: InChI=1S/C14H15NO/c16-15(11-13-7-3-1-4-8-13)12-14-9-5-2-6-10-14/h1-10,16H,11-12H2
CH$LINK: CAS 621-07-8
CH$LINK: INCHIKEY GXELTROTKVKZBQ-UHFFFAOYSA-N
CH$LINK: PUBCHEM CID:69297
AC$INSTRUMENT: N/A
AC$INSTRUMENT_TYPE: ESI-QTOF
AC$MASS_SPECTROMETRY: MS_TYPE MS2
AC$MASS_SPECTROMETRY: ION_MODE POSITIVE
AC$MASS_SPECTROMETRY: IONIZATION ESI
AC$MASS_SPECTROMETRY: COLLISION_ENERGY 20
MS$FOCUSED_ION: PRECURSOR_M/Z 214.1226405599
MS$FOCUSED_ION: PRECURSOR_TYPE [M+H]+
MS$DATA_PROCESSING: WHOLE Agilent ChemVista Version 1.0
PK$SPLASH: splash10-0006-9000000000-cf3d707614a179f1bfa5
PK$NUM_PEAK: 3
PK$PEAK: m/z int. rel.int.
  65.038577 1.531012 15
  91.054227 100.000003 999
  106.065126 5.531173 55
//
