ACCESSION: MSBNK-EPA-ENTACT_AGILENT002046
RECORD_TITLE: Pirinixic acid; ESI-QTOF; MS2; CE: 10; [M+H]+
DATE: 2023.09.19
AUTHORS: EPA CCTE and Agilent Technologies
LICENSE: CC BY
CH$NAME: Pirinixic acid
CH$NAME: DTXSID4020290
CH$COMPOUND_CLASS: N/A
CH$FORMULA: C14H14ClN3O2S
CH$EXACT_MASS: 323.0495251534
CH$SMILES: CC1C(=CC=CC=1C)NC1C=C(Cl)N=C(N=1)SCC(O)=O
CH$IUPAC: InChI=1S/C14H14ClN3O2S/c1-8-4-3-5-10(9(8)2)16-12-6-11(15)17-14(18-12)21-7-13(19)20/h3-6H,7H2,1-2H3,(H,19,20)(H,16,17,18)
CH$LINK: CAS 50892-23-4
CH$LINK: INCHIKEY SZRPDCCEHVWOJX-UHFFFAOYSA-N
CH$LINK: PUBCHEM CID:5694
AC$INSTRUMENT: N/A
AC$INSTRUMENT_TYPE: ESI-QTOF
AC$MASS_SPECTROMETRY: MS_TYPE MS2
AC$MASS_SPECTROMETRY: ION_MODE POSITIVE
AC$MASS_SPECTROMETRY: IONIZATION ESI
AC$MASS_SPECTROMETRY: COLLISION_ENERGY 10
MS$FOCUSED_ION: PRECURSOR_M/Z 324.0568016051
MS$FOCUSED_ION: PRECURSOR_TYPE [M+H]+
MS$DATA_PROCESSING: WHOLE Agilent ChemVista Version 1.0
PK$SPLASH: splash10-00di-0019000000-7cb2c4e11cda112d60d5
PK$NUM_PEAK: 5
PK$PEAK: m/z int. rel.int.
  219.068353 2.401612 23
  242.074645 1.149277 11
  278.051322 14.51103 144
  306.046237 29.699114 296
  324.056802 99.999997 999
//
