ACCESSION: MSBNK-EPA-ENTACT_AGILENT001192
RECORD_TITLE: UK-343664; ESI-QTOF; MS2; CE: 10; [M+H]+
DATE: 2023.09.19
AUTHORS: EPA CCTE and Agilent Technologies
LICENSE: CC BY
CH$NAME: UK-343664
CH$NAME: DTXSID1047289
CH$COMPOUND_CLASS: N/A
CH$FORMULA: C28H35N7O4S
CH$EXACT_MASS: 565.2471233875
CH$SMILES: CCCOC1C=CC(=CC=1C1NC(=O)C2=NN(CC3=CC=CC=N3)C(CC)=C2N=1)S(=O)(=O)N1CCN(CC1)CC
CH$IUPAC: InChI=1S/C28H35N7O4S/c1-4-17-39-24-11-10-21(40(37,38)34-15-13-33(6-3)14-16-34)18-22(24)27-30-25-23(5-2)35(32-26(25)28(36)31-27)19-20-9-7-8-12-29-20/h7-12,18H,4-6,13-17,19H2,1-3H3,(H,30,31,36)
CH$LINK: CAS 215297-27-1
CH$LINK: INCHIKEY NIBCDDKWFDEBEP-UHFFFAOYSA-N
CH$LINK: PUBCHEM CID:9959619
AC$INSTRUMENT: N/A
AC$INSTRUMENT_TYPE: ESI-QTOF
AC$MASS_SPECTROMETRY: MS_TYPE MS2
AC$MASS_SPECTROMETRY: ION_MODE POSITIVE
AC$MASS_SPECTROMETRY: IONIZATION ESI
AC$MASS_SPECTROMETRY: COLLISION_ENERGY 10
MS$FOCUSED_ION: PRECURSOR_M/Z 566.2543998392
MS$FOCUSED_ION: PRECURSOR_TYPE [M+H]+
MS$DATA_PROCESSING: WHOLE Agilent ChemVista Version 1.0
PK$SPLASH: splash10-014i-0001090000-5307ef849028288e6129
PK$NUM_PEAK: 3
PK$PEAK: m/z int. rel.int.
  261.219949 1.173485 11
  315.230514 20.479829 204
  566.2544 100.000004 999
//
