ACCESSION: MSBNK-EPA-ENTACT_AGILENT002287
RECORD_TITLE: (1,1-Dimethylethyl)urea; ESI-QTOF; MS2; CE: 10; [M-H]-
DATE: 2023.09.19
AUTHORS: EPA CCTE and Agilent Technologies
LICENSE: CC BY
CH$NAME: (1,1-Dimethylethyl)urea
CH$COMPOUND_CLASS: N/A
CH$FORMULA: C5H12N2O
CH$EXACT_MASS: 116.0949630199
CH$SMILES: CC(C)(C)NC(N)=O
CH$IUPAC: InChI=1S/C5H12N2O/c1-5(2,3)7-4(6)8/h1-3H3,(H3,6,7,8)
CH$LINK: CAS 1118-12-3
CH$LINK: INCHIKEY JLEHSYHLHLHPAL-UHFFFAOYSA-N
CH$LINK: PUBCHEM CID:14233
AC$INSTRUMENT: N/A
AC$INSTRUMENT_TYPE: ESI-QTOF
AC$MASS_SPECTROMETRY: MS_TYPE MS2
AC$MASS_SPECTROMETRY: ION_MODE NEGATIVE
AC$MASS_SPECTROMETRY: IONIZATION ESI
AC$MASS_SPECTROMETRY: COLLISION_ENERGY 10
MS$FOCUSED_ION: PRECURSOR_M/Z 115.0876865682
MS$FOCUSED_ION: PRECURSOR_TYPE [M-H]-
MS$DATA_PROCESSING: WHOLE Agilent ChemVista Version 1.0
PK$SPLASH: splash10-0006-9000000000-93e290edb33569915a93
PK$NUM_PEAK: 6
PK$PEAK: m/z int. rel.int.
  41.998537 99.999998 999
  42.022347 2.25547 22
  42.034923 1.070201 10
  59.025086 2.210567 22
  97.077122 4.232956 42
  115.087687 11.041836 110
//
