ACCESSION: MSBNK-EPA-ENTACT_AGILENT002212
RECORD_TITLE: Imidazole; ESI-QTOF; MS2; CE: 40; [M+H]+
DATE: 2023.09.19
AUTHORS: EPA CCTE and Agilent Technologies
LICENSE: CC BY
CH$NAME: Imidazole
CH$NAME: DTXSID2029616
CH$COMPOUND_CLASS: N/A
CH$FORMULA: C3H4N2
CH$EXACT_MASS: 68.0374481424
CH$SMILES: C1NC=CN=1
CH$IUPAC: InChI=1S/C3H4N2/c1-2-5-3-4-1/h1-3H,(H,4,5)
CH$LINK: CAS 288-32-4
CH$LINK: INCHIKEY RAXXELZNTBOGNW-UHFFFAOYSA-N
CH$LINK: PUBCHEM CID:795
AC$INSTRUMENT: N/A
AC$INSTRUMENT_TYPE: ESI-QTOF
AC$MASS_SPECTROMETRY: MS_TYPE MS2
AC$MASS_SPECTROMETRY: ION_MODE POSITIVE
AC$MASS_SPECTROMETRY: IONIZATION ESI
AC$MASS_SPECTROMETRY: COLLISION_ENERGY 40
MS$FOCUSED_ION: PRECURSOR_M/Z 69.0447245941
MS$FOCUSED_ION: PRECURSOR_TYPE [M+H]+
MS$DATA_PROCESSING: WHOLE Agilent ChemVista Version 1.0
PK$SPLASH: splash10-0006-9000000000-d4382798ff6b38dff678
PK$NUM_PEAK: 5
PK$PEAK: m/z int. rel.int.
  40.018175 3.196857 31
  41.026001 28.409239 283
  42.021249 2.219645 22
  42.033826 100 999
  69.044725 33.151543 331
//
