ACCESSION: MSBNK-EPA-ENTACT_AGILENT001585
RECORD_TITLE: 5-Amino-1,2-dihydro-3H-1,2,4-triazole-3-thione; ESI-QTOF; MS2; CE: 20; [M-H]-
DATE: 2023.09.19
AUTHORS: EPA CCTE and Agilent Technologies
LICENSE: CC BY
CH$NAME: 5-Amino-1,2-dihydro-3H-1,2,4-triazole-3-thione
CH$NAME: DTXSID7044849
CH$COMPOUND_CLASS: N/A
CH$FORMULA: C2H4N4S
CH$EXACT_MASS: 116.0156668872
CH$SMILES: NC1NNC(=S)N=1
CH$IUPAC: InChI=1S/C2H4N4S/c3-1-4-2(7)6-5-1/h(H4,3,4,5,6,7)
CH$LINK: CAS 16691-43-3
CH$LINK: INCHIKEY WZUUZPAYWFIBDF-UHFFFAOYSA-N
CH$LINK: PUBCHEM CID:2723869
AC$INSTRUMENT: N/A
AC$INSTRUMENT_TYPE: ESI-QTOF
AC$MASS_SPECTROMETRY: MS_TYPE MS2
AC$MASS_SPECTROMETRY: ION_MODE NEGATIVE
AC$MASS_SPECTROMETRY: IONIZATION ESI
AC$MASS_SPECTROMETRY: COLLISION_ENERGY 20
MS$FOCUSED_ION: PRECURSOR_M/Z 115.0083904355
MS$FOCUSED_ION: PRECURSOR_TYPE [M-H]-
MS$DATA_PROCESSING: WHOLE Agilent ChemVista Version 1.0
PK$SPLASH: splash10-0a4i-9000000000-ccafbe972ad3f0dd73f0
PK$NUM_PEAK: 5
PK$PEAK: m/z int. rel.int.
  41.014522 5.08507 50
  57.975693 99.999996 999
  72.986592 8.746322 87
  83.03632 6.361543 63
  115.00839 8.040851 80
//
