ACCESSION: MSBNK-EPA-ENTACT_AGILENT001806
RECORD_TITLE: 3-((Ethylphenylamino)methyl)benzenesulfonic acid; ESI-QTOF; MS2; CE: 10; [M+H]+
DATE: 2023.09.19
AUTHORS: EPA CCTE and Agilent Technologies
LICENSE: CC BY
CH$NAME: 3-((Ethylphenylamino)methyl)benzenesulfonic acid
CH$COMPOUND_CLASS: N/A
CH$FORMULA: C15H17NO3S
CH$EXACT_MASS: 291.0929141466
CH$SMILES: CCN(CC1=CC(=CC=C1)S(O)(=O)=O)C1C=CC=CC=1
CH$IUPAC: InChI=1S/C15H17NO3S/c1-2-16(14-8-4-3-5-9-14)12-13-7-6-10-15(11-13)20(17,18)19/h3-11H,2,12H2,1H3,(H,17,18,19)
CH$LINK: CAS 101-11-1
CH$LINK: INCHIKEY BQGRVFPPZJPWPB-UHFFFAOYSA-N
CH$LINK: PUBCHEM CID:66858
AC$INSTRUMENT: N/A
AC$INSTRUMENT_TYPE: ESI-QTOF
AC$MASS_SPECTROMETRY: MS_TYPE MS2
AC$MASS_SPECTROMETRY: ION_MODE POSITIVE
AC$MASS_SPECTROMETRY: IONIZATION ESI
AC$MASS_SPECTROMETRY: COLLISION_ENERGY 10
MS$FOCUSED_ION: PRECURSOR_M/Z 292.1001905983
MS$FOCUSED_ION: PRECURSOR_TYPE [M+H]+
MS$DATA_PROCESSING: WHOLE Agilent ChemVista Version 1.0
PK$SPLASH: splash10-0006-0590000000-0b473d5fc3225b2b7b58
PK$NUM_PEAK: 5
PK$PEAK: m/z int. rel.int.
  106.065126 6.817505 68
  120.080776 6.053969 60
  121.088601 47.164897 471
  171.011041 1.278164 12
  292.100191 100.000001 999
//
