ACCESSION: MSBNK-EPA-ENTACT_AGILENT000760
RECORD_TITLE: 2-Naphthol-3,6-disulfonic acid; ESI-QTOF; MS2; CE: 20; [M-H]-
DATE: 2023.05.02
AUTHORS: EPA CCTE and Agilent Technologies
LICENSE: CC BY
CH$NAME: 2-Naphthol-3,6-disulfonic acid
CH$NAME: DTXSID8044543
CH$COMPOUND_CLASS: N/A
CH$FORMULA: C10H8O7S2
CH$EXACT_MASS: 303.9711440713
CH$SMILES: OC1=CC2C=CC(=CC=2C=C1S(O)(=O)=O)S(O)(=O)=O
CH$IUPAC: InChI=1S/C10H8O7S2/c11-9-4-6-1-2-8(18(12,13)14)3-7(6)5-10(9)19(15,16)17/h1-5,11H,(H,12,13,14)(H,15,16,17)
CH$LINK: CAS 148-75-4
CH$LINK: INCHIKEY USWINTIHFQKJTR-UHFFFAOYSA-N
AC$INSTRUMENT: N/A
AC$INSTRUMENT_TYPE: ESI-QTOF
AC$MASS_SPECTROMETRY: MS_TYPE MS2
AC$MASS_SPECTROMETRY: ION_MODE NEGATIVE
AC$MASS_SPECTROMETRY: IONIZATION ESI
AC$MASS_SPECTROMETRY: COLLISION_ENERGY 20
MS$FOCUSED_ION: PRECURSOR_M/Z 302.9638676196
MS$FOCUSED_ION: PRECURSOR_TYPE [M-H]-
MS$DATA_PROCESSING: WHOLE Agilent ChemVista Version 1.0
PK$SPLASH: splash10-0fk9-0095000000-007f55f78ee381ece50f
PK$NUM_PEAK: 3
PK$PEAK: m/z int. rel.int.
  159.045153 1.322564 13
  223.007053 99.999997 999
  302.963868 57.190882 571
//
