ACCESSION: MSBNK-EPA-ENTACT_AGILENT000636
RECORD_TITLE: Aminoguanidine; ESI-QTOF; MS2; CE: 40; [M+H]+
DATE: 2023.05.02
AUTHORS: EPA CCTE and Agilent Technologies
LICENSE: CC BY
CH$NAME: Aminoguanidine
CH$NAME: DTXSID9044405
CH$COMPOUND_CLASS: N/A
CH$FORMULA: CH6N4
CH$EXACT_MASS: 74.059246221
CH$SMILES: NNC(N)=N
CH$IUPAC: InChI=1S/CH6N4/c2-1(3)5-4/h4H2,(H4,2,3,5)
CH$LINK: CAS 79-17-4
CH$LINK: INCHIKEY HAMNKKUPIHEESI-UHFFFAOYSA-N
AC$INSTRUMENT: N/A
AC$INSTRUMENT_TYPE: ESI-QTOF
AC$MASS_SPECTROMETRY: MS_TYPE MS2
AC$MASS_SPECTROMETRY: ION_MODE POSITIVE
AC$MASS_SPECTROMETRY: IONIZATION ESI
AC$MASS_SPECTROMETRY: COLLISION_ENERGY 40
MS$FOCUSED_ION: PRECURSOR_M/Z 75.0665226727
MS$FOCUSED_ION: PRECURSOR_TYPE [M+H]+
MS$DATA_PROCESSING: WHOLE Agilent ChemVista Version 1.0
PK$SPLASH: splash10-0006-9000000000-74a5f948ff690efc79bc
PK$NUM_PEAK: 6
PK$PEAK: m/z int. rel.int.
  31.029075 5.517626 55
  42.021249 24.871094 248
  43.029075 99.999998 999
  44.0369 1.311414 13
  45.044725 1.863185 18
  58.039974 6.735872 67
//
