ACCESSION: MSBNK-EPA-ENTACT_AGILENT000991
RECORD_TITLE: alpha-(2,5-Dichlorophenoxy)propionic acid; ESI-QTOF; MS2; CE: 40; [M-H]-
DATE: 2023.05.02
AUTHORS: EPA CCTE and Agilent Technologies
LICENSE: CC BY
CH$NAME: alpha-(2,5-Dichlorophenoxy)propionic acid
CH$NAME: DTXSID5020441
CH$COMPOUND_CLASS: N/A
CH$FORMULA: C9H8Cl2O3
CH$EXACT_MASS: 233.9850495421
CH$SMILES: CC(OC1C=C(Cl)C=CC=1Cl)C(O)=O
CH$IUPAC: InChI=1S/C9H8Cl2O3/c1-5(9(12)13)14-8-4-6(10)2-3-7(8)11/h2-5H,1H3,(H,12,13)
CH$LINK: CAS 6965-71-5
CH$LINK: INCHIKEY LDRYOEIGQCIMEK-UHFFFAOYSA-N
CH$LINK: PUBCHEM CID:97971
AC$INSTRUMENT: N/A
AC$INSTRUMENT_TYPE: ESI-QTOF
AC$MASS_SPECTROMETRY: MS_TYPE MS2
AC$MASS_SPECTROMETRY: ION_MODE NEGATIVE
AC$MASS_SPECTROMETRY: IONIZATION ESI
AC$MASS_SPECTROMETRY: COLLISION_ENERGY 40
MS$FOCUSED_ION: PRECURSOR_M/Z 232.9777730904
MS$FOCUSED_ION: PRECURSOR_TYPE [M-H]-
MS$DATA_PROCESSING: WHOLE Agilent ChemVista Version 1.0
PK$SPLASH: splash10-01x0-7900000000-fb138f884e4a248cb506
PK$NUM_PEAK: 7
PK$PEAK: m/z int. rel.int.
  34.969401 99.999997 999
  61.008374 4.700487 46
  68.998203 1.458252 14
  89.003288 26.267608 262
  124.979966 79.927527 798
  125.987791 1.061807 10
  160.956644 74.77823 747
//
