ACCESSION: MSBNK-EPA-ENTACT_AGILENT001364
RECORD_TITLE: N,N'-Disalicylidene-1,2-diaminopropane; ESI-QTOF; MS2; CE: 10; [M+H]+
DATE: 2023.09.19
AUTHORS: EPA CCTE and Agilent Technologies
LICENSE: CC BY
CH$NAME: N,N'-Disalicylidene-1,2-diaminopropane
CH$COMPOUND_CLASS: N/A
CH$FORMULA: C17H18N2O2
CH$EXACT_MASS: 282.1368278336
CH$SMILES: CC(C/N=C/C1=CC=CC=C1O)/N=C/C1=CC=CC=C1O
CH$IUPAC: InChI=1S/C17H18N2O2/c1-13(19-12-15-7-3-5-9-17(15)21)10-18-11-14-6-2-4-8-16(14)20/h2-9,11-13,20-21H,10H2,1H3/b18-11+,19-12+
CH$LINK: CAS 94-91-7
CH$LINK: INCHIKEY RURPJGZXBHYNEM-GDAWTGGTSA-N
CH$LINK: PUBCHEM CID:5359281
AC$INSTRUMENT: N/A
AC$INSTRUMENT_TYPE: ESI-QTOF
AC$MASS_SPECTROMETRY: MS_TYPE MS2
AC$MASS_SPECTROMETRY: ION_MODE POSITIVE
AC$MASS_SPECTROMETRY: IONIZATION ESI
AC$MASS_SPECTROMETRY: COLLISION_ENERGY 10
MS$FOCUSED_ION: PRECURSOR_M/Z 283.1441042853
MS$FOCUSED_ION: PRECURSOR_TYPE [M+H]+
MS$DATA_PROCESSING: WHOLE Agilent ChemVista Version 1.0
PK$SPLASH: splash10-001i-0190000000-a2333f76bac9a1c7e70c
PK$NUM_PEAK: 6
PK$PEAK: m/z int. rel.int.
  58.065126 1.506364 15
  122.06004 1.159691 11
  145.064791 4.788392 47
  162.09134 14.045961 140
  226.086255 1.393877 13
  283.144104 100.000002 999
//
