ACCESSION: MSBNK-EPA-ENTACT_AGILENT000728
RECORD_TITLE: Sulfoisophthalic acid; ESI-QTOF; MS2; CE: 10; [M-H]-
DATE: 2023.05.02
AUTHORS: EPA CCTE and Agilent Technologies
LICENSE: CC BY
CH$NAME: Sulfoisophthalic acid
CH$NAME: DTXSID5044819
CH$COMPOUND_CLASS: N/A
CH$FORMULA: C8H6O7S
CH$EXACT_MASS: 245.9834232775
CH$SMILES: OS(=O)(=O)C1C=C(C=C(C=1)C(O)=O)C(O)=O
CH$IUPAC: InChI=1S/C8H6O7S/c9-7(10)4-1-5(8(11)12)3-6(2-4)16(13,14)15/h1-3H,(H,9,10)(H,11,12)(H,13,14,15)
CH$LINK: CAS 22326-31-4
CH$LINK: INCHIKEY CARJPEPCULYFFP-UHFFFAOYSA-N
AC$INSTRUMENT: N/A
AC$INSTRUMENT_TYPE: ESI-QTOF
AC$MASS_SPECTROMETRY: MS_TYPE MS2
AC$MASS_SPECTROMETRY: ION_MODE NEGATIVE
AC$MASS_SPECTROMETRY: IONIZATION ESI
AC$MASS_SPECTROMETRY: COLLISION_ENERGY 10
MS$FOCUSED_ION: PRECURSOR_M/Z 244.9761468258
MS$FOCUSED_ION: PRECURSOR_TYPE [M-H]-
MS$DATA_PROCESSING: WHOLE Agilent ChemVista Version 1.0
PK$SPLASH: splash10-0006-0090000000-5ff3eeee6469a928572f
PK$NUM_PEAK: 5
PK$PEAK: m/z int. rel.int.
  75.024024 1.033038 10
  80.965188 6.065009 60
  119.013853 8.355162 83
  200.986318 17.221737 172
  244.976147 99.999997 999
//
