ACCESSION: MSBNK-EPA-ENTACT_AGILENT000714
RECORD_TITLE: N-Ethyl-3-methylaniline; ESI-QTOF; MS2; CE: 10; [M+H]+
DATE: 2023.05.02
AUTHORS: EPA CCTE and Agilent Technologies
LICENSE: CC BY
CH$NAME: N-Ethyl-3-methylaniline
CH$COMPOUND_CLASS: N/A
CH$FORMULA: C9H13N
CH$EXACT_MASS: 135.1047994221
CH$SMILES: CC1C=C(C=CC=1)NCC
CH$IUPAC: InChI=1S/C9H13N/c1-3-10-9-6-4-5-8(2)7-9/h4-7,10H,3H2,1-2H3
CH$LINK: CAS 102-27-2
CH$LINK: INCHIKEY GUYMMHOQXYZMJQ-UHFFFAOYSA-N
CH$LINK: PUBCHEM CID:7603
AC$INSTRUMENT: N/A
AC$INSTRUMENT_TYPE: ESI-QTOF
AC$MASS_SPECTROMETRY: MS_TYPE MS2
AC$MASS_SPECTROMETRY: ION_MODE POSITIVE
AC$MASS_SPECTROMETRY: IONIZATION ESI
AC$MASS_SPECTROMETRY: COLLISION_ENERGY 10
MS$FOCUSED_ION: PRECURSOR_M/Z 136.1120758738
MS$FOCUSED_ION: PRECURSOR_TYPE [M+H]+
MS$DATA_PROCESSING: WHOLE Agilent ChemVista Version 1.0
PK$SPLASH: splash10-0a4r-0900000000-f7f11462afa8cfd9cfba
PK$NUM_PEAK: 5
PK$PEAK: m/z int. rel.int.
  93.057301 3.048539 30
  106.065126 6.116842 61
  107.072951 66.381026 663
  108.080776 78.747488 786
  136.112076 100.000002 999
//
