ACCESSION: MSBNK-EPA-ENTACT_AGILENT002228
RECORD_TITLE: 1-Hydroxybenzotriazole; ESI-QTOF; MS2; CE: 10; [M+H]+
DATE: 2023.09.19
AUTHORS: EPA CCTE and Agilent Technologies
LICENSE: CC BY
CH$NAME: 1-Hydroxybenzotriazole
CH$NAME: DTXSID3044627
CH$COMPOUND_CLASS: N/A
CH$FORMULA: C6H5N3O
CH$EXACT_MASS: 135.043261804
CH$SMILES: ON1N=NC2C=CC=CC1=2
CH$IUPAC: InChI=1S/C6H5N3O/c10-9-6-4-2-1-3-5(6)7-8-9/h1-4,10H
CH$LINK: CAS 2592-95-2
CH$LINK: INCHIKEY ASOKPJOREAFHNY-UHFFFAOYSA-N
CH$LINK: PUBCHEM CID:75771
AC$INSTRUMENT: N/A
AC$INSTRUMENT_TYPE: ESI-QTOF
AC$MASS_SPECTROMETRY: MS_TYPE MS2
AC$MASS_SPECTROMETRY: ION_MODE POSITIVE
AC$MASS_SPECTROMETRY: IONIZATION ESI
AC$MASS_SPECTROMETRY: COLLISION_ENERGY 10
MS$FOCUSED_ION: PRECURSOR_M/Z 136.0505382557
MS$FOCUSED_ION: PRECURSOR_TYPE [M+H]+
MS$DATA_PROCESSING: WHOLE Agilent ChemVista Version 1.0
PK$SPLASH: splash10-000i-2900000000-fe58ec1abdc824ed0e2d
PK$NUM_PEAK: 7
PK$PEAK: m/z int. rel.int.
  53.038577 4.554815 45
  64.030752 2.446147 24
  78.046402 1.003529 10
  80.049476 2.394049 23
  91.041651 20.25536 202
  119.047799 4.614876 46
  136.050538 100 999
//
