ACCESSION: MSBNK-EPA-ENTACT_AGILENT002463
RECORD_TITLE: l-Perillaldehyde; ESI-QTOF; MS2; CE: 20; [M+H]+
DATE: 2023.09.19
AUTHORS: EPA CCTE and Agilent Technologies
LICENSE: CC BY
CH$NAME: l-Perillaldehyde
CH$NAME: DTXSID5041190
CH$COMPOUND_CLASS: N/A
CH$FORMULA: C10H14O
CH$EXACT_MASS: 150.1044650689
CH$SMILES: CC(=C)C1CC=C(CC1)C=O
CH$IUPAC: InChI=1S/C10H14O/c1-8(2)10-5-3-9(7-11)4-6-10/h3,7,10H,1,4-6H2,2H3
CH$LINK: CAS 18031-40-8
CH$LINK: INCHIKEY RUMOYJJNUMEFDD-UHFFFAOYSA-N
CH$LINK: PUBCHEM CID:2724159
AC$INSTRUMENT: N/A
AC$INSTRUMENT_TYPE: ESI-QTOF
AC$MASS_SPECTROMETRY: MS_TYPE MS2
AC$MASS_SPECTROMETRY: ION_MODE POSITIVE
AC$MASS_SPECTROMETRY: IONIZATION ESI
AC$MASS_SPECTROMETRY: COLLISION_ENERGY 20
MS$FOCUSED_ION: PRECURSOR_M/Z 151.1117415206
MS$FOCUSED_ION: PRECURSOR_TYPE [M+H]+
MS$DATA_PROCESSING: WHOLE Agilent ChemVista Version 1.0
PK$SPLASH: splash10-004i-9000000000-995baa4324c76a35ecf1
PK$NUM_PEAK: 6
PK$PEAK: m/z int. rel.int.
  45.033491 12.52624 125
  61.007276 7.205355 71
  63.994366 31.48382 314
  79.017841 100 999
  79.054227 1.372281 13
  95.085527 1.040572 10
//
