ACCESSION: MSBNK-EPA-ENTACT_AGILENT001732
RECORD_TITLE: 4-Chlorophenylurea; ESI-QTOF; MS2; CE: 10; [M-H]-
DATE: 2023.09.19
AUTHORS: EPA CCTE and Agilent Technologies
LICENSE: CC BY
CH$NAME: 4-Chlorophenylurea
CH$NAME: DTXSID5041512
CH$COMPOUND_CLASS: N/A
CH$FORMULA: C7H7ClN2O
CH$EXACT_MASS: 170.0246905704
CH$SMILES: NC(=O)NC1C=CC(Cl)=CC=1
CH$IUPAC: InChI=1S/C7H7ClN2O/c8-5-1-3-6(4-2-5)10-7(9)11/h1-4H,(H3,9,10,11)
CH$LINK: CAS 140-38-5
CH$LINK: INCHIKEY RECCURWJDVZHIH-UHFFFAOYSA-N
CH$LINK: PUBCHEM CID:8796
AC$INSTRUMENT: N/A
AC$INSTRUMENT_TYPE: ESI-QTOF
AC$MASS_SPECTROMETRY: MS_TYPE MS2
AC$MASS_SPECTROMETRY: ION_MODE NEGATIVE
AC$MASS_SPECTROMETRY: IONIZATION ESI
AC$MASS_SPECTROMETRY: COLLISION_ENERGY 10
MS$FOCUSED_ION: PRECURSOR_M/Z 169.0174141187
MS$FOCUSED_ION: PRECURSOR_TYPE [M-H]-
MS$DATA_PROCESSING: WHOLE Agilent ChemVista Version 1.0
PK$SPLASH: splash10-004l-4900000000-7e361e0a4bab1b1f925e
PK$NUM_PEAK: 5
PK$PEAK: m/z int. rel.int.
  34.969401 5.413168 54
  41.998537 54.113222 540
  100.96739 1.445324 14
  126.0116 99.999999 999
  169.017414 7.582815 75
//
