ACCESSION: MSBNK-EPA-ENTACT_AGILENT000546
RECORD_TITLE: N-Cyclohexyl-N-methylcyclohexanamine; ESI-QTOF; MS2; CE: 40; [M+H]+
DATE: 2023.05.02
AUTHORS: EPA CCTE and Agilent Technologies
LICENSE: CC BY
CH$NAME: N-Cyclohexyl-N-methylcyclohexanamine
CH$NAME: DTXSID6044727
CH$COMPOUND_CLASS: N/A
CH$FORMULA: C13H25N
CH$EXACT_MASS: 195.1986998049
CH$SMILES: CN(C1CCCCC1)C1CCCCC1
CH$IUPAC: InChI=1S/C13H25N/c1-14(12-8-4-2-5-9-12)13-10-6-3-7-11-13/h12-13H,2-11H2,1H3
CH$LINK: CAS 7560-83-0
CH$LINK: INCHIKEY GSCCALZHGUWNJW-UHFFFAOYSA-N
CH$LINK: PUBCHEM CID:24210
AC$INSTRUMENT: N/A
AC$INSTRUMENT_TYPE: ESI-QTOF
AC$MASS_SPECTROMETRY: MS_TYPE MS2
AC$MASS_SPECTROMETRY: ION_MODE POSITIVE
AC$MASS_SPECTROMETRY: IONIZATION ESI
AC$MASS_SPECTROMETRY: COLLISION_ENERGY 40
MS$FOCUSED_ION: PRECURSOR_M/Z 196.2059762566
MS$FOCUSED_ION: PRECURSOR_TYPE [M+H]+
MS$DATA_PROCESSING: WHOLE Agilent ChemVista Version 1.0
PK$SPLASH: splash10-0a4i-9000000000-c6b482d12095c84db841
PK$NUM_PEAK: 6
PK$PEAK: m/z int. rel.int.
  32.049476 4.035767 40
  39.022927 2.553642 25
  41.038577 11.401772 113
  53.038577 1.949068 19
  55.054227 100.000002 999
  83.085527 10.569971 105
//
