ACCESSION: MSBNK-EPA-ENTACT_AGILENT001292
RECORD_TITLE: Pantothenic acid; ESI-QTOF; MS2; CE: 10; [M-H]-
DATE: 2023.09.19
AUTHORS: EPA CCTE and Agilent Technologies
LICENSE: CC BY
CH$NAME: Pantothenic acid
CH$COMPOUND_CLASS: N/A
CH$FORMULA: C9H17NO5
CH$EXACT_MASS: 219.1106726612
CH$SMILES: CC(C)(CO)C(O)C(=O)NCCC(O)=O
CH$IUPAC: InChI=1S/C9H17NO5/c1-9(2,5-11)7(14)8(15)10-4-3-6(12)13/h7,11,14H,3-5H2,1-2H3,(H,10,15)(H,12,13)
CH$LINK: CAS 79-83-4
CH$LINK: INCHIKEY GHOKWGTUZJEAQD-UHFFFAOYSA-N
CH$LINK: PUBCHEM CID:23679004
AC$INSTRUMENT: N/A
AC$INSTRUMENT_TYPE: ESI-QTOF
AC$MASS_SPECTROMETRY: MS_TYPE MS2
AC$MASS_SPECTROMETRY: ION_MODE NEGATIVE
AC$MASS_SPECTROMETRY: IONIZATION ESI
AC$MASS_SPECTROMETRY: COLLISION_ENERGY 10
MS$FOCUSED_ION: PRECURSOR_M/Z 218.1033962095
MS$FOCUSED_ION: PRECURSOR_TYPE [M-H]-
MS$DATA_PROCESSING: WHOLE Agilent ChemVista Version 1.0
PK$SPLASH: splash10-00kr-9340000000-125eaf284a22a7e51054
PK$NUM_PEAK: 10
PK$PEAK: m/z int. rel.int.
  44.014187 3.34887 33
  71.013853 11.44945 114
  71.050238 5.772014 57
  88.040402 100.000002 999
  88.076788 3.516459 35
  88.089364 1.773369 17
  99.045153 1.092636 10
  116.071702 1.045176 10
  146.082267 47.96601 479
  218.103396 61.308735 612
//
