ACCESSION: MSBNK-EPA-ENTACT_AGILENT001619
RECORD_TITLE: D-Lactic acid; ESI-QTOF; MS2; CE: 20; [M-H]-
DATE: 2023.09.19
AUTHORS: EPA CCTE and Agilent Technologies
LICENSE: CC BY
CH$NAME: D-Lactic acid
CH$NAME: 乳酸
CH$NAME: 2-羟基丙酸
CH$NAME: α-羟基丙酸
CH$NAME: 丙醇酸
CH$NAME: D-Lactate
CH$NAME: (-)-Lactic acid
CH$NAME: α-Hydroxypropanoic acid
CH$COMPOUND_CLASS: N/A
CH$FORMULA: C3H6O3
CH$EXACT_MASS: 90.0316940583
CH$SMILES: C[C@@H](O)C(O)=O
CH$IUPAC: InChI=1S/C3H6O3/c1-2(4)3(5)6/h2,4H,1H3,(H,5,6)/t2-/m1/s1
CH$LINK: CAS 10326-41-7
CH$LINK: CHEMSPIDER 55423
CH$LINK: INCHIKEY JVTAAEKCZFNVCJ-UWTATZPHSA-N
CH$LINK: PUBCHEM CID:61503
AC$INSTRUMENT: N/A
AC$INSTRUMENT_TYPE: ESI-QTOF
AC$MASS_SPECTROMETRY: MS_TYPE MS2
AC$MASS_SPECTROMETRY: ION_MODE NEGATIVE
AC$MASS_SPECTROMETRY: IONIZATION ESI
AC$MASS_SPECTROMETRY: COLLISION_ENERGY 20
MS$FOCUSED_ION: PRECURSOR_M/Z 89.0244176066
MS$FOCUSED_ION: PRECURSOR_TYPE [M-H]-
MS$DATA_PROCESSING: WHOLE Agilent ChemVista Version 1.0
PK$SPLASH: splash10-0006-9000000000-d1f48ed5c8af860e3373
PK$NUM_PEAK: 6
PK$PEAK: m/z int. rel.int.
  41.003288 10.412317 104
  43.018938 99.999998 999
  44.998203 1.346095 13
  71.013853 1.452428 14
  72.993117 1.51679 15
  89.024418 4.005653 40
//
