ACCESSION: MSBNK-EPA-ENTACT_AGILENT000955
RECORD_TITLE: N-Methyloctan-1-amine; ESI-QTOF; MS2; CE: 10; [M+H]+
DATE: 2023.05.02
AUTHORS: EPA CCTE and Agilent Technologies
LICENSE: CC BY
CH$NAME: N-Methyloctan-1-amine
CH$NAME: DTXSID9044619
CH$COMPOUND_CLASS: N/A
CH$FORMULA: C9H21N
CH$EXACT_MASS: 143.1673996773
CH$SMILES: CCCCCCCCNC
CH$IUPAC: InChI=1S/C9H21N/c1-3-4-5-6-7-8-9-10-2/h10H,3-9H2,1-2H3
CH$LINK: CAS 2439-54-5
CH$LINK: INCHIKEY SEGJNMCIMOLEDM-UHFFFAOYSA-N
CH$LINK: PUBCHEM CID:75538
AC$INSTRUMENT: N/A
AC$INSTRUMENT_TYPE: ESI-QTOF
AC$MASS_SPECTROMETRY: MS_TYPE MS2
AC$MASS_SPECTROMETRY: ION_MODE POSITIVE
AC$MASS_SPECTROMETRY: IONIZATION ESI
AC$MASS_SPECTROMETRY: COLLISION_ENERGY 10
MS$FOCUSED_ION: PRECURSOR_M/Z 144.174676129
MS$FOCUSED_ION: PRECURSOR_TYPE [M+H]+
MS$DATA_PROCESSING: WHOLE Agilent ChemVista Version 1.0
PK$SPLASH: splash10-0006-4900000000-fd3f17658606637548a9
PK$NUM_PEAK: 6
PK$PEAK: m/z int. rel.int.
  32.049476 4.989781 49
  41.038577 2.045456 20
  43.054227 9.96702 99
  57.069877 17.842636 178
  71.085527 12.757752 127
  144.174676 99.999997 999
//
