ACCESSION: MSBNK-EPA-ENTACT_AGILENT001666
RECORD_TITLE: 2-Acetamidophenol; ESI-QTOF; MS2; CE: 10; [M+H]+
DATE: 2023.09.19
AUTHORS: EPA CCTE and Agilent Technologies
LICENSE: CC BY
CH$NAME: 2-Acetamidophenol
CH$NAME: DTXSID8022082
CH$COMPOUND_CLASS: N/A
CH$FORMULA: C8H9NO2
CH$EXACT_MASS: 151.0633285391
CH$SMILES: CC(=O)NC1C=CC=CC=1O
CH$IUPAC: InChI=1S/C8H9NO2/c1-6(10)9-7-4-2-3-5-8(7)11/h2-5,11H,1H3,(H,9,10)
CH$LINK: CAS 614-80-2
CH$LINK: INCHIKEY ADVGKWPZRIDURE-UHFFFAOYSA-N
CH$LINK: PUBCHEM CID:11972
AC$INSTRUMENT: N/A
AC$INSTRUMENT_TYPE: ESI-QTOF
AC$MASS_SPECTROMETRY: MS_TYPE MS2
AC$MASS_SPECTROMETRY: ION_MODE POSITIVE
AC$MASS_SPECTROMETRY: IONIZATION ESI
AC$MASS_SPECTROMETRY: COLLISION_ENERGY 10
MS$FOCUSED_ION: PRECURSOR_M/Z 152.0706049908
MS$FOCUSED_ION: PRECURSOR_TYPE [M+H]+
MS$DATA_PROCESSING: WHOLE Agilent ChemVista Version 1.0
PK$SPLASH: splash10-03di-1900000000-8faf931deb7002d49dc7
PK$NUM_PEAK: 6
PK$PEAK: m/z int. rel.int.
  43.017841 8.035564 80
  65.038577 1.116215 11
  92.049476 2.180145 21
  93.033491 1.249541 12
  110.06004 99.999997 999
  152.070605 9.524593 95
//
