ACCESSION: MSBNK-EPA-ENTACT_AGILENT001978
RECORD_TITLE: 3-Methoxy-5-methylphenol; ESI-QTOF; MS2; CE: 10; [M-H]-
DATE: 2023.09.19
AUTHORS: EPA CCTE and Agilent Technologies
LICENSE: CC BY
CH$NAME: 3-Methoxy-5-methylphenol
CH$NAME: DTXSID1047443
CH$COMPOUND_CLASS: N/A
CH$FORMULA: C8H10O2
CH$EXACT_MASS: 138.0680795636
CH$SMILES: CC1C=C(C=C(O)C=1)OC
CH$IUPAC: InChI=1S/C8H10O2/c1-6-3-7(9)5-8(4-6)10-2/h3-5,9H,1-2H3
CH$LINK: CAS 3209-13-0
CH$LINK: INCHIKEY NOTCZLKDULMKBR-UHFFFAOYSA-N
CH$LINK: PUBCHEM CID:76674
AC$INSTRUMENT: N/A
AC$INSTRUMENT_TYPE: ESI-QTOF
AC$MASS_SPECTROMETRY: MS_TYPE MS2
AC$MASS_SPECTROMETRY: ION_MODE NEGATIVE
AC$MASS_SPECTROMETRY: IONIZATION ESI
AC$MASS_SPECTROMETRY: COLLISION_ENERGY 10
MS$FOCUSED_ION: PRECURSOR_M/Z 137.0608031119
MS$FOCUSED_ION: PRECURSOR_TYPE [M-H]-
MS$DATA_PROCESSING: WHOLE Agilent ChemVista Version 1.0
PK$SPLASH: splash10-00di-0900000000-b755bfb2e2d81a83f6e0
PK$NUM_PEAK: 2
PK$PEAK: m/z int. rel.int.
  122.037328 100.000003 999
  137.060803 44.973066 449
//
