ACCESSION: MSBNK-EPA-ENTACT_AGILENT000656
RECORD_TITLE: CP-544439; ESI-QTOF; MS2; CE: 10; [M-H]-
DATE: 2023.05.02
AUTHORS: EPA CCTE and Agilent Technologies
LICENSE: CC BY
CH$NAME: CP-544439
CH$NAME: DTXSID8047266
CH$COMPOUND_CLASS: N/A
CH$FORMULA: C18H19FN2O6S
CH$EXACT_MASS: 410.0947852847
CH$SMILES: ONC(=O)C1(CCOCC1)NS(=O)(=O)C1=CC=C(C=C1)OC1=CC=C(F)C=C1
CH$IUPAC: InChI=1S/C18H19FN2O6S/c19-13-1-3-14(4-2-13)27-15-5-7-16(8-6-15)28(24,25)21-18(17(22)20-23)9-11-26-12-10-18/h1-8,21,23H,9-12H2,(H,20,22)
CH$LINK: CAS 230954-09-3
CH$LINK: INCHIKEY ZBRHTUMWSDPCMI-UHFFFAOYSA-N
CH$LINK: PUBCHEM CID:9866250
AC$INSTRUMENT: N/A
AC$INSTRUMENT_TYPE: ESI-QTOF
AC$MASS_SPECTROMETRY: MS_TYPE MS2
AC$MASS_SPECTROMETRY: ION_MODE NEGATIVE
AC$MASS_SPECTROMETRY: IONIZATION ESI
AC$MASS_SPECTROMETRY: COLLISION_ENERGY 10
MS$FOCUSED_ION: PRECURSOR_M/Z 409.087508833
MS$FOCUSED_ION: PRECURSOR_TYPE [M-H]-
MS$DATA_PROCESSING: WHOLE Agilent ChemVista Version 1.0
PK$SPLASH: splash10-0a4i-0030900000-dcb1510c94d5029fbd2e
PK$NUM_PEAK: 4
PK$PEAK: m/z int. rel.int.
  142.050967 1.082179 10
  251.017676 1.393557 13
  266.029266 35.273991 352
  409.087509 99.999999 999
//
