ACCESSION: MSBNK-EPA-ENTACT_AGILENT000048
RECORD_TITLE: 4-Methylaniline; ESI-QTOF; MS2; CE: 10; [M+H]+
DATE: 2023.05.02
AUTHORS: EPA CCTE and Agilent Technologies
LICENSE: CC BY
CH$NAME: 4-Methylaniline
CH$COMPOUND_CLASS: N/A
CH$FORMULA: C7H9N
CH$EXACT_MASS: 107.0734992945
CH$SMILES: CC1=CC=C(N)C=C1
CH$IUPAC: InChI=1S/C7H9N/c1-6-2-4-7(8)5-3-6/h2-5H,8H2,1H3
CH$LINK: CAS 106-49-0
CH$LINK: INCHIKEY RZXMPPFPUUCRFN-UHFFFAOYSA-N
CH$LINK: PUBCHEM CID:7813
AC$INSTRUMENT: N/A
AC$INSTRUMENT_TYPE: ESI-QTOF
AC$MASS_SPECTROMETRY: MS_TYPE MS2
AC$MASS_SPECTROMETRY: ION_MODE POSITIVE
AC$MASS_SPECTROMETRY: IONIZATION ESI
AC$MASS_SPECTROMETRY: COLLISION_ENERGY 10
MS$FOCUSED_ION: PRECURSOR_M/Z 108.0807757462
MS$FOCUSED_ION: PRECURSOR_TYPE [M+H]+
MS$DATA_PROCESSING: WHOLE Agilent ChemVista Version 1.0
PK$SPLASH: splash10-0a4i-3900000000-60eb9680571adfcccb33
PK$NUM_PEAK: 4
PK$PEAK: m/z int. rel.int.
  65.038577 1.823721 18
  91.054227 15.058556 150
  93.057301 25.304961 252
  108.080776 99.999999 999
//
