ACCESSION: MSBNK-EPA-ENTACT_AGILENT001444
RECORD_TITLE: Salicylhydroxamic acid; ESI-QTOF; MS2; CE: 20; [M-H]-
DATE: 2023.09.19
AUTHORS: EPA CCTE and Agilent Technologies
LICENSE: CC BY
CH$NAME: Salicylhydroxamic acid
CH$COMPOUND_CLASS: N/A
CH$FORMULA: C7H7NO3
CH$EXACT_MASS: 153.0425930976
CH$SMILES: OC1C=CC=CC=1C(=O)NO
CH$IUPAC: InChI=1S/C7H7NO3/c9-6-4-2-1-3-5(6)7(10)8-11/h1-4,9,11H,(H,8,10)
CH$LINK: CAS 89-73-6
CH$LINK: INCHIKEY HBROZNQEVUILML-UHFFFAOYSA-N
CH$LINK: PUBCHEM CID:66644
AC$INSTRUMENT: N/A
AC$INSTRUMENT_TYPE: ESI-QTOF
AC$MASS_SPECTROMETRY: MS_TYPE MS2
AC$MASS_SPECTROMETRY: ION_MODE NEGATIVE
AC$MASS_SPECTROMETRY: IONIZATION ESI
AC$MASS_SPECTROMETRY: COLLISION_ENERGY 20
MS$FOCUSED_ION: PRECURSOR_M/Z 152.0353166459
MS$FOCUSED_ION: PRECURSOR_TYPE [M-H]-
MS$DATA_PROCESSING: WHOLE Agilent ChemVista Version 1.0
PK$SPLASH: splash10-0006-9100000000-f0feb8b9f4c1c30775a5
PK$NUM_PEAK: 8
PK$PEAK: m/z int. rel.int.
  41.998537 100.000004 999
  42.034923 1.006748 10
  65.003288 1.170839 11
  78.034923 8.951188 89
  91.018938 5.424186 54
  92.026763 63.023451 629
  134.024752 31.296624 312
  136.016593 1.131254 11
//
