ACCESSION: MSBNK-EPA-ENTACT_AGILENT001872
RECORD_TITLE: BPS-MPE4; ESI-QTOF; MS2; CE: 10; [M-H]-
DATE: 2023.09.19
AUTHORS: EPA CCTE and Agilent Technologies
LICENSE: CC BY
CH$NAME: BPS-MPE4
CH$NAME: DTXSID4058655
CH$COMPOUND_CLASS: N/A
CH$FORMULA: C19H16O4S
CH$EXACT_MASS: 340.0769297296
CH$SMILES: OC1C=CC=CC=1S(=O)(=O)C1C=CC(=CC=1)OCC1C=CC=CC=1
CH$IUPAC: InChI=1S/C19H16O4S/c20-18-8-4-5-9-19(18)24(21,22)17-12-10-16(11-13-17)23-14-15-6-2-1-3-7-15/h1-13,20H,14H2
CH$LINK: CAS 63134-33-8
CH$LINK: INCHIKEY OAHRHEHKTRXORG-UHFFFAOYSA-N
CH$LINK: PUBCHEM CID:14178379
AC$INSTRUMENT: N/A
AC$INSTRUMENT_TYPE: ESI-QTOF
AC$MASS_SPECTROMETRY: MS_TYPE MS2
AC$MASS_SPECTROMETRY: ION_MODE NEGATIVE
AC$MASS_SPECTROMETRY: IONIZATION ESI
AC$MASS_SPECTROMETRY: COLLISION_ENERGY 10
MS$FOCUSED_ION: PRECURSOR_M/Z 339.0696532779
MS$FOCUSED_ION: PRECURSOR_TYPE [M-H]-
MS$DATA_PROCESSING: WHOLE Agilent ChemVista Version 1.0
PK$SPLASH: splash10-000j-0079000000-52d09a24dad3a5c7df63
PK$NUM_PEAK: 2
PK$PEAK: m/z int. rel.int.
  248.014878 81.159056 810
  339.069653 99.999997 999
//
