ACCESSION: MSBNK-EPA-ENTACT_AGILENT001790
RECORD_TITLE: Naphthalen-2-yl 2-aminobenzoate; ESI-QTOF; MS2; CE: 40; [M+H]+
DATE: 2023.09.19
AUTHORS: EPA CCTE and Agilent Technologies
LICENSE: CC BY
CH$NAME: Naphthalen-2-yl 2-aminobenzoate
CH$NAME: DTXSID7047697
CH$COMPOUND_CLASS: N/A
CH$FORMULA: C17H13NO2
CH$EXACT_MASS: 263.0946286667
CH$SMILES: NC1C=CC=CC=1C(=O)OC1=CC2C=CC=CC=2C=C1
CH$IUPAC: InChI=1S/C17H13NO2/c18-16-8-4-3-7-15(16)17(19)20-14-10-9-12-5-1-2-6-13(12)11-14/h1-11H,18H2
CH$LINK: CAS 63449-68-3
CH$LINK: INCHIKEY YJFCKXVXEKHSEC-UHFFFAOYSA-N
CH$LINK: PUBCHEM CID:62217
AC$INSTRUMENT: N/A
AC$INSTRUMENT_TYPE: ESI-QTOF
AC$MASS_SPECTROMETRY: MS_TYPE MS2
AC$MASS_SPECTROMETRY: ION_MODE POSITIVE
AC$MASS_SPECTROMETRY: IONIZATION ESI
AC$MASS_SPECTROMETRY: COLLISION_ENERGY 40
MS$FOCUSED_ION: PRECURSOR_M/Z 264.1019051184
MS$FOCUSED_ION: PRECURSOR_TYPE [M+H]+
MS$DATA_PROCESSING: WHOLE Agilent ChemVista Version 1.0
PK$SPLASH: splash10-006x-9300000000-40c7d83de4d0d252b31a
PK$NUM_PEAK: 5
PK$PEAK: m/z int. rel.int.
  39.022927 1.7814 17
  65.038577 47.505197 474
  92.049476 100.000002 999
  92.083181 1.819359 18
  120.04439 57.063331 570
//
