ACCESSION: MSBNK-EPA-ENTACT_AGILENT002379
RECORD_TITLE: Carbonyl cyanide chlorophenylhydrazone; ESI-QTOF; MS2; CE: 40; [M-H]-
DATE: 2023.09.19
AUTHORS: EPA CCTE and Agilent Technologies
LICENSE: CC BY
CH$NAME: Carbonyl cyanide chlorophenylhydrazone
CH$NAME: DTXSID7040990
CH$COMPOUND_CLASS: N/A
CH$FORMULA: C9H5ClN4
CH$EXACT_MASS: 204.0202738991
CH$SMILES: N#CC(C#N)/N=N/C1C=C(Cl)C=CC=1
CH$IUPAC: InChI=1S/C9H5ClN4/c10-7-2-1-3-8(4-7)13-14-9(5-11)6-12/h1-4,9H/b14-13+
CH$LINK: CAS 555-60-2
CH$LINK: INCHIKEY ATTCVKKCGVZURR-BUHFOSPRSA-N
CH$LINK: PUBCHEM CID:2603
AC$INSTRUMENT: N/A
AC$INSTRUMENT_TYPE: ESI-QTOF
AC$MASS_SPECTROMETRY: MS_TYPE MS2
AC$MASS_SPECTROMETRY: ION_MODE NEGATIVE
AC$MASS_SPECTROMETRY: IONIZATION ESI
AC$MASS_SPECTROMETRY: COLLISION_ENERGY 40
MS$FOCUSED_ION: PRECURSOR_M/Z 203.0129974474
MS$FOCUSED_ION: PRECURSOR_TYPE [M-H]-
MS$DATA_PROCESSING: WHOLE Agilent ChemVista Version 1.0
PK$SPLASH: splash10-03di-9100000000-fb71098e6db3c0e2d147
PK$NUM_PEAK: 8
PK$PEAK: m/z int. rel.int.
  34.969401 3.157831 31
  64.006697 99.999998 999
  64.031849 4.163684 41
  65.014522 9.903573 98
  88.019273 1.752713 17
  89.014522 1.146181 11
  115.030172 15.727056 157
  151.006849 4.47252 44
//
