ACCESSION: MSBNK-EPA-ENTACT_AGILENT002454
RECORD_TITLE: Triethylene glycol diacetate; ESI-QTOF; MS2; CE: 10; [M+H]+
DATE: 2023.09.19
AUTHORS: EPA CCTE and Agilent Technologies
LICENSE: CC BY
CH$NAME: Triethylene glycol diacetate
CH$COMPOUND_CLASS: N/A
CH$FORMULA: C10H18O6
CH$EXACT_MASS: 234.110338308
CH$SMILES: CC(=O)OCCOCCOCCOC(C)=O
CH$IUPAC: InChI=1S/C10H18O6/c1-9(11)15-7-5-13-3-4-14-6-8-16-10(2)12/h3-8H2,1-2H3
CH$LINK: CAS 111-21-7
CH$LINK: INCHIKEY OVOUKWFJRHALDD-UHFFFAOYSA-N
CH$LINK: PUBCHEM CID:8098
AC$INSTRUMENT: N/A
AC$INSTRUMENT_TYPE: ESI-QTOF
AC$MASS_SPECTROMETRY: MS_TYPE MS2
AC$MASS_SPECTROMETRY: ION_MODE POSITIVE
AC$MASS_SPECTROMETRY: IONIZATION ESI
AC$MASS_SPECTROMETRY: COLLISION_ENERGY 10
MS$FOCUSED_ION: PRECURSOR_M/Z 235.1176147597
MS$FOCUSED_ION: PRECURSOR_TYPE [M+H]+
MS$DATA_PROCESSING: WHOLE Agilent ChemVista Version 1.0
PK$SPLASH: splash10-000i-9000000000-6d154ea5116cdff8ba3e
PK$NUM_PEAK: 3
PK$PEAK: m/z int. rel.int.
  43.017841 2.614297 26
  87.044056 99.999999 999
  87.080441 1.962764 19
//
