ACCESSION: MSBNK-EPA-ENTACT_AGILENT000944
RECORD_TITLE: N-(3-Dimethylaminopropyl)methacrylamide; ESI-QTOF; MS2; CE: 10; [M+H]+
DATE: 2023.05.02
AUTHORS: EPA CCTE and Agilent Technologies
LICENSE: CC BY
CH$NAME: N-(3-Dimethylaminopropyl)methacrylamide
CH$NAME: DTXSID7040154
CH$COMPOUND_CLASS: N/A
CH$FORMULA: C9H18N2O
CH$EXACT_MASS: 170.1419132113
CH$SMILES: CC(=C)C(=O)NCCCN(C)C
CH$IUPAC: InChI=1S/C9H18N2O/c1-8(2)9(12)10-6-5-7-11(3)4/h1,5-7H2,2-4H3,(H,10,12)
CH$LINK: CAS 5205-93-6
CH$LINK: INCHIKEY GDFCSMCGLZFNFY-UHFFFAOYSA-N
CH$LINK: PUBCHEM CID:78882
AC$INSTRUMENT: N/A
AC$INSTRUMENT_TYPE: ESI-QTOF
AC$MASS_SPECTROMETRY: MS_TYPE MS2
AC$MASS_SPECTROMETRY: ION_MODE POSITIVE
AC$MASS_SPECTROMETRY: IONIZATION ESI
AC$MASS_SPECTROMETRY: COLLISION_ENERGY 10
MS$FOCUSED_ION: PRECURSOR_M/Z 171.149189663
MS$FOCUSED_ION: PRECURSOR_TYPE [M+H]+
MS$DATA_PROCESSING: WHOLE Agilent ChemVista Version 1.0
PK$SPLASH: splash10-00b9-0900000000-18f0f1be4acb90e8a04f
PK$NUM_PEAK: 4
PK$PEAK: m/z int. rel.int.
  69.033491 5.25838 52
  98.06004 3.285664 32
  126.09134 99.999998 999
  171.14919 67.030693 669
//
