ACCESSION: MSBNK-EPA-ENTACT_AGILENT000839
RECORD_TITLE: Pyrazolone T; ESI-QTOF; MS2; CE: 20; [M-H]-
DATE: 2023.05.02
AUTHORS: EPA CCTE and Agilent Technologies
LICENSE: CC BY
CH$NAME: Pyrazolone T
CH$COMPOUND_CLASS: N/A
CH$FORMULA: C10H8N2O6S
CH$EXACT_MASS: 284.0103067338
CH$SMILES: OC(=O)C1CC(=O)N(N=1)C1C=CC(=CC=1)S(O)(=O)=O
CH$IUPAC: InChI=1S/C10H8N2O6S/c13-9-5-8(10(14)15)11-12(9)6-1-3-7(4-2-6)19(16,17)18/h1-4H,5H2,(H,14,15)(H,16,17,18)
CH$LINK: CAS 118-47-8
CH$LINK: INCHIKEY TYCNXOAPQGVAQU-UHFFFAOYSA-N
CH$LINK: PUBCHEM CID:67045
AC$INSTRUMENT: N/A
AC$INSTRUMENT_TYPE: ESI-QTOF
AC$MASS_SPECTROMETRY: MS_TYPE MS2
AC$MASS_SPECTROMETRY: ION_MODE NEGATIVE
AC$MASS_SPECTROMETRY: IONIZATION ESI
AC$MASS_SPECTROMETRY: COLLISION_ENERGY 20
MS$FOCUSED_ION: PRECURSOR_M/Z 283.0030302821
MS$FOCUSED_ION: PRECURSOR_TYPE [M-H]-
MS$DATA_PROCESSING: WHOLE Agilent ChemVista Version 1.0
PK$SPLASH: splash10-00xr-8900000000-f1b73043ed587eaa0778
PK$NUM_PEAK: 9
PK$PEAK: m/z int. rel.int.
  65.998537 97.827513 977
  66.025718 2.242771 22
  66.043476 1.215966 12
  79.957363 27.003264 269
  108.045487 1.173338 11
  172.007387 100.000002 999
  197.002636 2.778655 27
  197.986652 34.791568 347
  239.013201 2.278638 22
//
