ACCESSION: MSBNK-EPA-ENTACT_AGILENT001775
RECORD_TITLE: Tripropylene glycol butyl ether; ESI-QTOF; MS2; CE: 40; [M+H]+
DATE: 2023.09.19
AUTHORS: EPA CCTE and Agilent Technologies
LICENSE: CC BY
CH$NAME: Tripropylene glycol butyl ether
CH$NAME: DTXSID8042503
CH$COMPOUND_CLASS: N/A
CH$FORMULA: C13H28O4
CH$EXACT_MASS: 248.1987593824
CH$SMILES: CC(COC(O)CC)OC(CC)OCCCC
CH$IUPAC: InChI=1S/C13H28O4/c1-5-8-9-15-13(7-3)17-11(4)10-16-12(14)6-2/h11-14H,5-10H2,1-4H3
CH$LINK: CAS 55934-93-5
CH$LINK: INCHIKEY RNFAKTRFMQEEQE-UHFFFAOYSA-N
CH$LINK: PUBCHEM CID:60196418
AC$INSTRUMENT: N/A
AC$INSTRUMENT_TYPE: ESI-QTOF
AC$MASS_SPECTROMETRY: MS_TYPE MS2
AC$MASS_SPECTROMETRY: ION_MODE POSITIVE
AC$MASS_SPECTROMETRY: IONIZATION ESI
AC$MASS_SPECTROMETRY: COLLISION_ENERGY 40
MS$FOCUSED_ION: PRECURSOR_M/Z 249.2060358341
MS$FOCUSED_ION: PRECURSOR_TYPE [M+H]+
MS$DATA_PROCESSING: WHOLE Agilent ChemVista Version 1.0
PK$SPLASH: splash10-0a4i-9000000000-b312bb424f7361092aa0
PK$NUM_PEAK: 10
PK$PEAK: m/z int. rel.int.
  29.038577 1.355853 13
  31.017841 15.484262 154
  39.022927 1.841243 18
  41.038577 56.819496 567
  41.059706 1.257568 12
  55.054227 1.463953 14
  57.033491 1.021004 10
  57.069877 20.247347 202
  59.049141 100.000002 999
  59.085527 1.249099 12
//
