ACCESSION: MSBNK-EPA-ENTACT_AGILENT001936
RECORD_TITLE: N-Butyl-p-toluenesulfonamide; ESI-QTOF; MS2; CE: 20; [M+H]+
DATE: 2023.09.19
AUTHORS: EPA CCTE and Agilent Technologies
LICENSE: CC BY
CH$NAME: N-Butyl-p-toluenesulfonamide
CH$NAME: DTXSID7042198
CH$COMPOUND_CLASS: N/A
CH$FORMULA: C11H17NO2S
CH$EXACT_MASS: 227.0979995243
CH$SMILES: CC1C=CC(=CC=1)S(=O)(=O)NCCCC
CH$IUPAC: InChI=1S/C11H17NO2S/c1-3-4-9-12-15(13,14)11-7-5-10(2)6-8-11/h5-8,12H,3-4,9H2,1-2H3
CH$LINK: CAS 1907-65-9
CH$LINK: INCHIKEY RQUXYBHREKXNKT-UHFFFAOYSA-N
CH$LINK: PUBCHEM CID:61285
AC$INSTRUMENT: N/A
AC$INSTRUMENT_TYPE: ESI-QTOF
AC$MASS_SPECTROMETRY: MS_TYPE MS2
AC$MASS_SPECTROMETRY: ION_MODE POSITIVE
AC$MASS_SPECTROMETRY: IONIZATION ESI
AC$MASS_SPECTROMETRY: COLLISION_ENERGY 20
MS$FOCUSED_ION: PRECURSOR_M/Z 228.105275976
MS$FOCUSED_ION: PRECURSOR_TYPE [M+H]+
MS$DATA_PROCESSING: WHOLE Agilent ChemVista Version 1.0
PK$SPLASH: splash10-0006-9000000000-ef0e587b3d625ad52cf5
PK$NUM_PEAK: 5
PK$PEAK: m/z int. rel.int.
  65.038577 1.892872 18
  72.080776 1.752207 17
  91.054227 100 999
  91.102536 1.177328 11
  155.016127 9.584954 95
//
