ACCESSION: MSBNK-EPA-ENTACT_AGILENT001306
RECORD_TITLE: Arsenobetaine; ESI-QTOF; MS2; CE: 10; [M+H]+
DATE: 2023.09.19
AUTHORS: EPA CCTE and Agilent Technologies
LICENSE: CC BY
CH$NAME: Arsenobetaine
CH$NAME: DTXSID0052833
CH$COMPOUND_CLASS: N/A
CH$FORMULA: C5H11AsO2
CH$EXACT_MASS: 177.9975011955
CH$SMILES: C[As+](C)(C)CC([O-])=O
CH$IUPAC: InChI=1S/C5H11AsO2/c1-6(2,3)4-5(7)8/h4H2,1-3H3
CH$LINK: CAS 64436-13-1
CH$LINK: INCHIKEY SPTHHTGLGVZZRH-UHFFFAOYSA-N
CH$LINK: PUBCHEM CID:47364
AC$INSTRUMENT: N/A
AC$INSTRUMENT_TYPE: ESI-QTOF
AC$MASS_SPECTROMETRY: MS_TYPE MS2
AC$MASS_SPECTROMETRY: ION_MODE POSITIVE
AC$MASS_SPECTROMETRY: IONIZATION ESI
AC$MASS_SPECTROMETRY: COLLISION_ENERGY 10
MS$FOCUSED_ION: PRECURSOR_M/Z 179.0047776472
MS$FOCUSED_ION: PRECURSOR_TYPE [M+H]+
MS$DATA_PROCESSING: WHOLE Agilent ChemVista Version 1.0
PK$SPLASH: splash10-004i-0900000000-7908f440737cb097ea35
PK$NUM_PEAK: 2
PK$PEAK: m/z int. rel.int.
  119.991473 4.956929 49
  179.004778 99.999998 999
//
