ACCESSION: MSBNK-EPA-ENTACT_AGILENT001193
RECORD_TITLE: 6-Methyl-3-hydroxypyridine; ESI-QTOF; MS2; CE: 10; [M+H]+
DATE: 2023.09.19
AUTHORS: EPA CCTE and Agilent Technologies
LICENSE: CC BY
CH$NAME: 6-Methyl-3-hydroxypyridine
CH$COMPOUND_CLASS: N/A
CH$FORMULA: C6H7NO
CH$EXACT_MASS: 109.052763853
CH$SMILES: CC1C=CC(O)=CN=1
CH$IUPAC: InChI=1S/C6H7NO/c1-5-2-3-6(8)4-7-5/h2-4,8H,1H3
CH$LINK: CAS 1121-78-4
CH$LINK: INCHIKEY DHLUJPLHLZJUBW-UHFFFAOYSA-N
CH$LINK: PUBCHEM CID:14275
AC$INSTRUMENT: N/A
AC$INSTRUMENT_TYPE: ESI-QTOF
AC$MASS_SPECTROMETRY: MS_TYPE MS2
AC$MASS_SPECTROMETRY: ION_MODE POSITIVE
AC$MASS_SPECTROMETRY: IONIZATION ESI
AC$MASS_SPECTROMETRY: COLLISION_ENERGY 10
MS$FOCUSED_ION: PRECURSOR_M/Z 110.0600403047
MS$FOCUSED_ION: PRECURSOR_TYPE [M+H]+
MS$DATA_PROCESSING: WHOLE Agilent ChemVista Version 1.0
PK$SPLASH: splash10-03di-0900000000-be7e86e60f22bb25abdc
PK$NUM_PEAK: 3
PK$PEAK: m/z int. rel.int.
  67.041651 1.197933 11
  82.065126 2.703011 27
  110.06004 99.999999 999
//
