ACCESSION: MSBNK-EPA-ENTACT_AGILENT001045
RECORD_TITLE: 4-Amino-1,2,4-triazole; ESI-QTOF; MS2; CE: 40; [M-H]-
DATE: 2023.09.19
AUTHORS: EPA CCTE and Agilent Technologies
LICENSE: CC BY
CH$NAME: 4-Amino-1,2,4-triazole
CH$NAME: DTXSID9033058
CH$COMPOUND_CLASS: N/A
CH$FORMULA: C2H4N4
CH$EXACT_MASS: 84.0435961572
CH$SMILES: NN1C=NN=C1
CH$IUPAC: InChI=1S/C2H4N4/c3-6-1-4-5-2-6/h1-2H,3H2
CH$LINK: CAS 584-13-4
CH$LINK: INCHIKEY FMCUPJKTGNBGEC-UHFFFAOYSA-N
CH$LINK: PUBCHEM CID:11432
AC$INSTRUMENT: N/A
AC$INSTRUMENT_TYPE: ESI-QTOF
AC$MASS_SPECTROMETRY: MS_TYPE MS2
AC$MASS_SPECTROMETRY: ION_MODE NEGATIVE
AC$MASS_SPECTROMETRY: IONIZATION ESI
AC$MASS_SPECTROMETRY: COLLISION_ENERGY 40
MS$FOCUSED_ION: PRECURSOR_M/Z 83.0363197055
MS$FOCUSED_ION: PRECURSOR_TYPE [M-H]-
MS$DATA_PROCESSING: WHOLE Agilent ChemVista Version 1.0
PK$SPLASH: splash10-014l-9000000000-9ebb7a85df5036a19551
PK$NUM_PEAK: 6
PK$PEAK: m/z int. rel.int.
  39.011448 1.374393 13
  40.006697 11.263655 112
  40.019273 6.602811 65
  41.014522 50.48365 504
  66.009771 17.50545 174
  68.025421 99.999996 999
//
