ACCESSION: MSBNK-EPA-ENTACT_AGILENT000347
RECORD_TITLE: N-Butyl-2,2,6,6-tetramethylpiperidin-4-amine; ESI-QTOF; MS2; CE: 10; [M+H]+
DATE: 2023.05.02
AUTHORS: EPA CCTE and Agilent Technologies
LICENSE: CC BY
CH$NAME: N-Butyl-2,2,6,6-tetramethylpiperidin-4-amine
CH$NAME: DTXSID7044926
CH$COMPOUND_CLASS: N/A
CH$FORMULA: C13H28N2
CH$EXACT_MASS: 212.225248908
CH$SMILES: CCCCNC1CC(C)(C)NC(C)(C)C1
CH$IUPAC: InChI=1S/C13H28N2/c1-6-7-8-14-11-9-12(2,3)15-13(4,5)10-11/h11,14-15H,6-10H2,1-5H3
CH$LINK: CAS 36177-92-1
CH$LINK: INCHIKEY FDAKZQLBIFPGSV-UHFFFAOYSA-N
CH$LINK: PUBCHEM CID:118285
AC$INSTRUMENT: N/A
AC$INSTRUMENT_TYPE: ESI-QTOF
AC$MASS_SPECTROMETRY: MS_TYPE MS2
AC$MASS_SPECTROMETRY: ION_MODE POSITIVE
AC$MASS_SPECTROMETRY: IONIZATION ESI
AC$MASS_SPECTROMETRY: COLLISION_ENERGY 10
MS$FOCUSED_ION: PRECURSOR_M/Z 213.2325253597
MS$FOCUSED_ION: PRECURSOR_TYPE [M+H]+
MS$DATA_PROCESSING: WHOLE Agilent ChemVista Version 1.0
PK$SPLASH: splash10-03dl-2690000000-925f8850bf50b578e860
PK$NUM_PEAK: 5
PK$PEAK: m/z int. rel.int.
  58.065126 27.648049 276
  84.080776 1.224486 12
  100.112076 8.867415 88
  140.143376 58.559859 585
  213.232525 100.000002 999
//
