ACCESSION: MSBNK-EPA-ENTACT_AGILENT000369
RECORD_TITLE: 1,5-Dihydroxynaphthalene; ESI-QTOF; MS2; CE: 20; [M-H]-
DATE: 2023.05.02
AUTHORS: EPA CCTE and Agilent Technologies
LICENSE: CC BY
CH$NAME: 1,5-Dihydroxynaphthalene
CH$COMPOUND_CLASS: N/A
CH$FORMULA: C10H8O2
CH$EXACT_MASS: 160.0524294998
CH$SMILES: OC1C=CC=C2C=1C=CC=C2O
CH$IUPAC: InChI=1S/C10H8O2/c11-9-5-1-3-7-8(9)4-2-6-10(7)12/h1-6,11-12H
CH$LINK: CAS 83-56-7
CH$LINK: INCHIKEY BOKGTLAJQHTOKE-UHFFFAOYSA-N
CH$LINK: PUBCHEM CID:6749
AC$INSTRUMENT: N/A
AC$INSTRUMENT_TYPE: ESI-QTOF
AC$MASS_SPECTROMETRY: MS_TYPE MS2
AC$MASS_SPECTROMETRY: ION_MODE NEGATIVE
AC$MASS_SPECTROMETRY: IONIZATION ESI
AC$MASS_SPECTROMETRY: COLLISION_ENERGY 20
MS$FOCUSED_ION: PRECURSOR_M/Z 159.0451530481
MS$FOCUSED_ION: PRECURSOR_TYPE [M-H]-
MS$DATA_PROCESSING: WHOLE Agilent ChemVista Version 1.0
PK$SPLASH: splash10-066r-0900000000-17d707e1772e1f260939
PK$NUM_PEAK: 8
PK$PEAK: m/z int. rel.int.
  41.003288 4.60694 46
  102.047499 1.001846 10
  103.055324 2.25674 22
  115.055324 100 999
  130.042413 6.956144 69
  131.050238 14.299742 142
  158.037328 28.957836 289
  159.045153 26.613778 265
//
