ACCESSION: MSBNK-EPA-ENTACT_AGILENT001152
RECORD_TITLE: 2-Amino-6-hydroxy-1H-pyrimidin-4-one; ESI-QTOF; MS2; CE: 20; [M+H]+
DATE: 2023.09.19
AUTHORS: EPA CCTE and Agilent Technologies
LICENSE: CC BY
CH$NAME: 2-Amino-6-hydroxy-1H-pyrimidin-4-one
CH$NAME: DTXSID3052222
CH$COMPOUND_CLASS: N/A
CH$FORMULA: C4H5N3O2
CH$EXACT_MASS: 127.0381764263
CH$SMILES: NC1NC(=O)CC(=O)N=1
CH$IUPAC: InChI=1S/C4H5N3O2/c5-4-6-2(8)1-3(9)7-4/h1H2,(H3,5,6,7,8,9)
CH$LINK: CAS 56-09-7
CH$LINK: INCHIKEY BTYNVOQLMBUUMS-UHFFFAOYSA-N
CH$LINK: PUBCHEM CID:78146
AC$INSTRUMENT: N/A
AC$INSTRUMENT_TYPE: ESI-QTOF
AC$MASS_SPECTROMETRY: MS_TYPE MS2
AC$MASS_SPECTROMETRY: ION_MODE POSITIVE
AC$MASS_SPECTROMETRY: IONIZATION ESI
AC$MASS_SPECTROMETRY: COLLISION_ENERGY 20
MS$FOCUSED_ION: PRECURSOR_M/Z 128.045452878
MS$FOCUSED_ION: PRECURSOR_TYPE [M+H]+
MS$DATA_PROCESSING: WHOLE Agilent ChemVista Version 1.0
PK$SPLASH: splash10-03di-9000000000-06c7a4e09ee341590a09
PK$NUM_PEAK: 7
PK$PEAK: m/z int. rel.int.
  43.029075 32.246438 322
  60.055624 99.999999 999
  61.039639 1.602112 16
  68.997106 31.315668 312
  86.023655 5.265038 52
  86.034888 2.254882 22
  128.045453 5.66673 56
//
