ACCESSION: MSBNK-EPA-ENTACT_AGILENT000880
RECORD_TITLE: 1-Naphthylsulfonic acid; ESI-QTOF; MS2; CE: 10; [M-H]-
DATE: 2023.05.02
AUTHORS: EPA CCTE and Agilent Technologies
LICENSE: CC BY
CH$NAME: 1-Naphthylsulfonic acid
CH$COMPOUND_CLASS: N/A
CH$FORMULA: C10H8O3S
CH$EXACT_MASS: 208.0194148521
CH$SMILES: OS(=O)(=O)C1=CC=CC2C=CC=CC=21
CH$IUPAC: InChI=1S/C10H8O3S/c11-14(12,13)10-7-3-5-8-4-1-2-6-9(8)10/h1-7H,(H,11,12,13)
CH$LINK: CAS 85-47-2
CH$LINK: INCHIKEY PSZYNBSKGUBXEH-UHFFFAOYSA-N
AC$INSTRUMENT: N/A
AC$INSTRUMENT_TYPE: ESI-QTOF
AC$MASS_SPECTROMETRY: MS_TYPE MS2
AC$MASS_SPECTROMETRY: ION_MODE NEGATIVE
AC$MASS_SPECTROMETRY: IONIZATION ESI
AC$MASS_SPECTROMETRY: COLLISION_ENERGY 10
MS$FOCUSED_ION: PRECURSOR_M/Z 207.0121384004
MS$FOCUSED_ION: PRECURSOR_TYPE [M-H]-
MS$DATA_PROCESSING: WHOLE Agilent ChemVista Version 1.0
PK$SPLASH: splash10-0a4i-0090000000-19700b1da428bdd0c56d
PK$NUM_PEAK: 3
PK$PEAK: m/z int. rel.int.
  79.957363 5.208487 52
  143.050238 8.364493 83
  207.012138 100.000001 999
//
