ACCESSION: MSBNK-EPA-ENTACT_AGILENT001525
RECORD_TITLE: 5-Phenyl-1H-tetrazole; ESI-QTOF; MS2; CE: 10; [M-H]-
DATE: 2023.09.19
AUTHORS: EPA CCTE and Agilent Technologies
LICENSE: CC BY
CH$NAME: 5-Phenyl-1H-tetrazole
CH$NAME: DTXSID6044858
CH$COMPOUND_CLASS: N/A
CH$FORMULA: C7H6N4
CH$EXACT_MASS: 146.059246221
CH$SMILES: C1=CC=CC=C1C1NN=NN=1
CH$IUPAC: InChI=1S/C7H6N4/c1-2-4-6(5-3-1)7-8-10-11-9-7/h1-5H,(H,8,9,10,11)
CH$LINK: CAS 18039-42-4
CH$LINK: INCHIKEY MARUHZGHZWCEQU-UHFFFAOYSA-N
CH$LINK: PUBCHEM CID:87425
AC$INSTRUMENT: N/A
AC$INSTRUMENT_TYPE: ESI-QTOF
AC$MASS_SPECTROMETRY: MS_TYPE MS2
AC$MASS_SPECTROMETRY: ION_MODE NEGATIVE
AC$MASS_SPECTROMETRY: IONIZATION ESI
AC$MASS_SPECTROMETRY: COLLISION_ENERGY 10
MS$FOCUSED_ION: PRECURSOR_M/Z 145.0519697693
MS$FOCUSED_ION: PRECURSOR_TYPE [M-H]-
MS$DATA_PROCESSING: WHOLE Agilent ChemVista Version 1.0
PK$SPLASH: splash10-014i-2900000000-b21738980dcd73a6bafb
PK$NUM_PEAK: 4
PK$PEAK: m/z int. rel.int.
  42.009771 1.514081 15
  89.039674 32.746927 327
  117.045822 100.000002 999
  145.05197 24.295908 242
//
