ACCESSION: MSBNK-EPA-ENTACT_AGILENT000109
RECORD_TITLE: Diisopropyl methylphosphonate; ESI-QTOF; MS2; CE: 20; [M+H]+
DATE: 2023.05.02
AUTHORS: EPA CCTE and Agilent Technologies
LICENSE: CC BY
CH$NAME: Diisopropyl methylphosphonate
CH$NAME: DTXSID5024051
CH$COMPOUND_CLASS: N/A
CH$FORMULA: C7H17O3P
CH$EXACT_MASS: 180.0915308992
CH$SMILES: CP(=O)(OC(C)C)OC(C)C
CH$IUPAC: InChI=1S/C7H17O3P/c1-6(2)9-11(5,8)10-7(3)4/h6-7H,1-5H3
CH$LINK: CAS 1445-75-6
CH$LINK: INCHIKEY WOAFDHWYKSOANX-UHFFFAOYSA-N
CH$LINK: PUBCHEM CID:3073
AC$INSTRUMENT: N/A
AC$INSTRUMENT_TYPE: ESI-QTOF
AC$MASS_SPECTROMETRY: MS_TYPE MS2
AC$MASS_SPECTROMETRY: ION_MODE POSITIVE
AC$MASS_SPECTROMETRY: IONIZATION ESI
AC$MASS_SPECTROMETRY: COLLISION_ENERGY 20
MS$FOCUSED_ION: PRECURSOR_M/Z 181.0988073509
MS$FOCUSED_ION: PRECURSOR_TYPE [M+H]+
MS$DATA_PROCESSING: WHOLE Agilent ChemVista Version 1.0
PK$SPLASH: splash10-0002-9000000000-33d4df94a45d3c7df766
PK$NUM_PEAK: 6
PK$PEAK: m/z int. rel.int.
  46.968128 1.07015 10
  78.994342 20.190642 201
  79.017841 2.388558 23
  97.004907 99.999996 999
  97.041292 1.862585 18
  101.002191 1.280604 12
//
