ACCESSION: MSBNK-EPA-ENTACT_AGILENT000483
RECORD_TITLE: 3,3'-(1,1,3,3-Tetramethyldisiloxane-1,3-diyl)dipropan-1-amine; ESI-QTOF; MS2; CE: 20; [M+H]+
DATE: 2023.05.02
AUTHORS: EPA CCTE and Agilent Technologies
LICENSE: CC BY
CH$NAME: 3,3'-(1,1,3,3-Tetramethyldisiloxane-1,3-diyl)dipropan-1-amine
CH$NAME: DTXSID3044621
CH$COMPOUND_CLASS: N/A
CH$FORMULA: C10H28N2OSi2
CH$EXACT_MASS: 248.1740165103
CH$SMILES: C[Si](C)(CCCN)O[Si](C)(C)CCCN
CH$IUPAC: InChI=1S/C10H28N2OSi2/c1-14(2,9-5-7-11)13-15(3,4)10-6-8-12/h5-12H2,1-4H3
CH$LINK: CAS 2469-55-8
CH$LINK: INCHIKEY GPXCORHXFPYJEH-UHFFFAOYSA-N
CH$LINK: PUBCHEM CID:17181
AC$INSTRUMENT: N/A
AC$INSTRUMENT_TYPE: ESI-QTOF
AC$MASS_SPECTROMETRY: MS_TYPE MS2
AC$MASS_SPECTROMETRY: ION_MODE POSITIVE
AC$MASS_SPECTROMETRY: IONIZATION ESI
AC$MASS_SPECTROMETRY: COLLISION_ENERGY 20
MS$FOCUSED_ION: PRECURSOR_M/Z 249.181292962
MS$FOCUSED_ION: PRECURSOR_TYPE [M+H]+
MS$DATA_PROCESSING: WHOLE Agilent ChemVista Version 1.0
PK$SPLASH: splash10-014i-1900000000-31023e61013ca50885f6
PK$NUM_PEAK: 5
PK$PEAK: m/z int. rel.int.
  74.042052 11.090434 110
  75.026068 2.024055 20
  116.089002 99.999996 999
  116.1308 1.629098 16
  134.099567 2.76925 27
//
