ACCESSION: MSBNK-EPA-ENTACT_AGILENT000285
RECORD_TITLE: 4,4'-Methylenebis(N,N-diglycidylaniline); ESI-QTOF; MS2; CE: 40; [M+H]+
DATE: 2023.05.02
AUTHORS: EPA CCTE and Agilent Technologies
LICENSE: CC BY
CH$NAME: 4,4'-Methylenebis(N,N-diglycidylaniline)
CH$NAME: DTXSID0042248
CH$COMPOUND_CLASS: N/A
CH$FORMULA: C25H30N2O4
CH$EXACT_MASS: 422.220557461
CH$SMILES: C(C1C=CC(=CC=1)N(CC1CO1)CC1CO1)C1C=CC(=CC=1)N(CC1CO1)CC1CO1
CH$IUPAC: InChI=1S/C25H30N2O4/c1-5-20(26(10-22-14-28-22)11-23-15-29-23)6-2-18(1)9-19-3-7-21(8-4-19)27(12-24-16-30-24)13-25-17-31-25/h1-8,22-25H,9-17H2
CH$LINK: CAS 28768-32-3
CH$LINK: INCHIKEY FAUAZXVRLVIARB-UHFFFAOYSA-N
CH$LINK: PUBCHEM CID:91593
AC$INSTRUMENT: N/A
AC$INSTRUMENT_TYPE: ESI-QTOF
AC$MASS_SPECTROMETRY: MS_TYPE MS2
AC$MASS_SPECTROMETRY: ION_MODE POSITIVE
AC$MASS_SPECTROMETRY: IONIZATION ESI
AC$MASS_SPECTROMETRY: COLLISION_ENERGY 40
MS$FOCUSED_ION: PRECURSOR_M/Z 423.2278339127
MS$FOCUSED_ION: PRECURSOR_TYPE [M+H]+
MS$DATA_PROCESSING: WHOLE Agilent ChemVista Version 1.0
PK$SPLASH: splash10-014i-1970000000-bd246fb44db2effecafd
PK$NUM_PEAK: 79
PK$PEAK: m/z int. rel.int.
  29.038577 1.638698 16
  42.033826 1.234462 12
  43.054227 1.950596 19
  45.033491 1.42881 14
  54.033826 1.330538 13
  55.054227 2.629923 26
  57.033491 14.719551 147
  71.049141 2.218947 22
  83.049141 2.229356 22
  90.046402 1.573856 15
  91.054227 6.32394 63
  103.054227 1.043724 10
  104.062052 1.045973 10
  105.069877 20.251956 202
  106.065126 2.771965 27
  107.049141 1.005347 10
  115.054227 2.029505 20
  116.049476 5.913404 59
  117.057301 2.364508 23
  117.069877 5.367232 53
  118.065126 53.286789 532
  119.072951 4.921001 49
  120.080776 1.108754 11
  130.065126 13.986368 139
  131.072951 3.287781 32
  132.080776 21.396771 213
  133.064791 1.157703 11
  133.088601 3.151769 31
  142.065126 1.485336 14
  143.072951 4.315554 43
  144.080776 24.840928 248
  145.088601 6.750335 67
  146.096426 15.280001 152
  156.080776 3.237408 32
  157.088601 1.672947 16
  158.096426 3.36013 33
  160.07569 3.096797 30
  162.09134 12.553629 125
  165.069877 2.932266 29
  166.077702 1.096551 10
  170.096426 2.151053 21
  174.09134 6.127181 61
  175.099165 3.998132 39
  186.09134 2.773868 27
  188.10699 2.424679 24
  192.080776 1.637687 16
  193.088601 1.62337 16
  194.096426 1.071717 10
  208.112076 1.670213 16
  209.117221 2.801719 27
  218.117555 100 999
  218.17507 1.794643 17
  219.091675 6.483831 64
  219.116827 1.514013 15
  221.117221 5.780912 57
  223.122975 1.270292 12
  233.107325 1.246094 12
  235.122975 6.811538 68
  237.138625 10.832591 108
  247.122975 3.441362 34
  249.138625 3.921129 39
  251.130466 7.102023 70
  251.154275 6.892758 68
  261.138625 2.017189 20
  263.154275 8.138228 81
  265.13354 1.721555 17
  273.138625 1.411409 14
  275.154275 6.319465 63
  277.13354 1.407789 14
  277.169925 1.636241 16
  279.14919 3.715509 37
  281.16484 4.547783 45
  293.16484 16.254256 162
  305.16484 3.774499 37
  307.17781 1.676332 16
  319.18049 1.362533 13
  323.175404 8.528453 85
  337.191054 5.818436 58
  349.191054 3.31132 33
//
