ACCESSION: MSBNK-EPA-ENTACT_AGILENT001654
RECORD_TITLE: 2-((Dimethylamino)methyl)phenol; ESI-QTOF; MS2; CE: 20; [M+H]+
DATE: 2023.09.19
AUTHORS: EPA CCTE and Agilent Technologies
LICENSE: CC BY
CH$NAME: 2-((Dimethylamino)methyl)phenol
CH$COMPOUND_CLASS: N/A
CH$FORMULA: C9H13NO
CH$EXACT_MASS: 151.0997140444
CH$SMILES: CN(C)CC1=CC=CC=C1O
CH$IUPAC: InChI=1S/C9H13NO/c1-10(2)7-8-5-3-4-6-9(8)11/h3-6,11H,7H2,1-2H3
CH$LINK: CAS 120-65-0
CH$LINK: INCHIKEY FUIQBJHUESBZNU-UHFFFAOYSA-N
CH$LINK: PUBCHEM CID:32897
AC$INSTRUMENT: N/A
AC$INSTRUMENT_TYPE: ESI-QTOF
AC$MASS_SPECTROMETRY: MS_TYPE MS2
AC$MASS_SPECTROMETRY: ION_MODE POSITIVE
AC$MASS_SPECTROMETRY: IONIZATION ESI
AC$MASS_SPECTROMETRY: COLLISION_ENERGY 20
MS$FOCUSED_ION: PRECURSOR_M/Z 152.1069904961
MS$FOCUSED_ION: PRECURSOR_TYPE [M+H]+
MS$DATA_PROCESSING: WHOLE Agilent ChemVista Version 1.0
PK$SPLASH: splash10-0a4i-4900000000-b2237950df1e72f0f83f
PK$NUM_PEAK: 5
PK$PEAK: m/z int. rel.int.
  46.065126 23.225458 232
  77.038577 16.474591 164
  79.054227 15.114015 150
  107.049141 99.999999 999
  107.085527 3.329149 33
//
