ACCESSION: MSBNK-EPA-ENTACT_AGILENT001399
RECORD_TITLE: 2,6-Pyridinedicarboxylic acid; ESI-QTOF; MS2; CE: 10; [M+H]+
DATE: 2023.09.19
AUTHORS: EPA CCTE and Agilent Technologies
LICENSE: CC BY
CH$NAME: 2,6-Pyridinedicarboxylic acid
CH$NAME: DTXSID7022043
CH$COMPOUND_CLASS: N/A
CH$FORMULA: C7H5NO4
CH$EXACT_MASS: 167.0218576561
CH$SMILES: OC(=O)C1=CC=CC(=N1)C(O)=O
CH$IUPAC: InChI=1S/C7H5NO4/c9-6(10)4-2-1-3-5(8-4)7(11)12/h1-3H,(H,9,10)(H,11,12)
CH$LINK: CAS 499-83-2
CH$LINK: INCHIKEY WJJMNDUMQPNECX-UHFFFAOYSA-N
CH$LINK: PUBCHEM CID:10367
AC$INSTRUMENT: N/A
AC$INSTRUMENT_TYPE: ESI-QTOF
AC$MASS_SPECTROMETRY: MS_TYPE MS2
AC$MASS_SPECTROMETRY: ION_MODE POSITIVE
AC$MASS_SPECTROMETRY: IONIZATION ESI
AC$MASS_SPECTROMETRY: COLLISION_ENERGY 10
MS$FOCUSED_ION: PRECURSOR_M/Z 168.0291341078
MS$FOCUSED_ION: PRECURSOR_TYPE [M+H]+
MS$DATA_PROCESSING: WHOLE Agilent ChemVista Version 1.0
PK$SPLASH: splash10-0fk9-0900000000-68f0bc32cdd825d02ae6
PK$NUM_PEAK: 5
PK$PEAK: m/z int. rel.int.
  66.033826 2.587646 25
  94.02874 7.72239 77
  122.023655 100.000002 999
  150.018569 97.533014 974
  168.029134 30.79185 307
//
