ACCESSION: MSBNK-EPA-ENTACT_AGILENT002336
RECORD_TITLE: Schaffer's acid; ESI-QTOF; MS2; CE: 10; [M-H]-
DATE: 2023.09.19
AUTHORS: EPA CCTE and Agilent Technologies
LICENSE: CC BY
CH$NAME: Schaffer's acid
CH$NAME: DTXSID7029166
CH$NAME: 6-hydroxynaphthalene-2-sulfonate
CH$COMPOUND_CLASS: N/A
CH$FORMULA: C10H8O4S
CH$EXACT_MASS: 224.0143294744
CH$SMILES: OC1C=CC2C=C(C=CC=2C=1)S(O)(=O)=O
CH$IUPAC: InChI=1S/C10H8O4S/c11-9-3-1-8-6-10(15(12,13)14)4-2-7(8)5-9/h1-6,11H,(H,12,13,14)
CH$LINK: CAS 93-01-6
CH$LINK: INCHIKEY VVPHSMHEYVOVLH-UHFFFAOYSA-N
AC$INSTRUMENT: N/A
AC$INSTRUMENT_TYPE: ESI-QTOF
AC$MASS_SPECTROMETRY: MS_TYPE MS2
AC$MASS_SPECTROMETRY: ION_MODE NEGATIVE
AC$MASS_SPECTROMETRY: IONIZATION ESI
AC$MASS_SPECTROMETRY: COLLISION_ENERGY 10
MS$FOCUSED_ION: PRECURSOR_M/Z 223.0070530227
MS$FOCUSED_ION: PRECURSOR_TYPE [M-H]-
MS$DATA_PROCESSING: WHOLE Agilent ChemVista Version 1.0
PK$SPLASH: splash10-00di-0190000000-72202e4785e74491d7d2
PK$NUM_PEAK: 5
PK$PEAK: m/z int. rel.int.
  79.957363 8.317911 83
  143.050238 1.253129 12
  158.037328 4.003039 39
  159.045153 8.173205 81
  223.007053 99.999999 999
//
