ACCESSION: MSBNK-EPA-ENTACT_AGILENT001908
RECORD_TITLE: Hexamethylphosphoramide; ESI-QTOF; MS2; CE: 20; [M+H]+
DATE: 2023.09.19
AUTHORS: EPA CCTE and Agilent Technologies
LICENSE: CC BY
CH$NAME: Hexamethylphosphoramide
CH$NAME: DTXSID6020694
CH$COMPOUND_CLASS: N/A
CH$FORMULA: C6H18N3OP
CH$EXACT_MASS: 179.1187487087
CH$SMILES: CN(C)P(=O)(N(C)C)N(C)C
CH$IUPAC: InChI=1S/C6H18N3OP/c1-7(2)11(10,8(3)4)9(5)6/h1-6H3
CH$LINK: CAS 680-31-9
CH$LINK: CHEMSPIDER 12158
CH$LINK: INCHIKEY GNOIPBMMFNIUFM-UHFFFAOYSA-N
CH$LINK: PUBCHEM CID:12679
AC$INSTRUMENT: N/A
AC$INSTRUMENT_TYPE: ESI-QTOF
AC$MASS_SPECTROMETRY: MS_TYPE MS2
AC$MASS_SPECTROMETRY: ION_MODE POSITIVE
AC$MASS_SPECTROMETRY: IONIZATION ESI
AC$MASS_SPECTROMETRY: COLLISION_ENERGY 20
MS$FOCUSED_ION: PRECURSOR_M/Z 180.1260251604
MS$FOCUSED_ION: PRECURSOR_TYPE [M+H]+
MS$DATA_PROCESSING: WHOLE Agilent ChemVista Version 1.0
PK$SPLASH: splash10-000i-1900000000-364842e902b41aca0b49
PK$NUM_PEAK: 3
PK$PEAK: m/z int. rel.int.
  44.049476 12.190845 121
  92.025666 4.723905 47
  135.068176 99.999997 999
//
