ACCESSION: MSBNK-EPA-ENTACT_AGILENT000718
RECORD_TITLE: Sulfuric acid, monooctadecyl ester; ESI-QTOF; MS2; CE: 20; [M-H]-
DATE: 2023.05.02
AUTHORS: EPA CCTE and Agilent Technologies
LICENSE: CC BY
CH$NAME: Sulfuric acid, monooctadecyl ester
CH$COMPOUND_CLASS: N/A
CH$FORMULA: C18H38O4S
CH$EXACT_MASS: 350.2490804314
CH$SMILES: CCCCCCCCCCCCCCCCCCOS(O)(=O)=O
CH$IUPAC: InChI=1S/C18H38O4S/c1-2-3-4-5-6-7-8-9-10-11-12-13-14-15-16-17-18-22-23(19,20)21/h2-18H2,1H3,(H,19,20,21)
CH$LINK: CAS 143-03-3
CH$LINK: INCHIKEY HVWGGPRWKSHASF-UHFFFAOYSA-N
AC$INSTRUMENT: N/A
AC$INSTRUMENT_TYPE: ESI-QTOF
AC$MASS_SPECTROMETRY: MS_TYPE MS2
AC$MASS_SPECTROMETRY: ION_MODE NEGATIVE
AC$MASS_SPECTROMETRY: IONIZATION ESI
AC$MASS_SPECTROMETRY: COLLISION_ENERGY 20
MS$FOCUSED_ION: PRECURSOR_M/Z 349.2418039797
MS$FOCUSED_ION: PRECURSOR_TYPE [M-H]-
MS$DATA_PROCESSING: WHOLE Agilent ChemVista Version 1.0
PK$SPLASH: splash10-0002-0009000000-99fae30367d942da9907
PK$NUM_PEAK: 2
PK$PEAK: m/z int. rel.int.
  96.960103 10.950507 109
  349.241804 100.000003 999
//
