ACCESSION: MSBNK-EPA-ENTACT_AGILENT000828
RECORD_TITLE: 2-(2-Aminoethoxy)ethanol; ESI-QTOF; MS2; CE: 40; [M+H]+
DATE: 2023.05.02
AUTHORS: EPA CCTE and Agilent Technologies
LICENSE: CC BY
CH$NAME: 2-(2-Aminoethoxy)ethanol
CH$COMPOUND_CLASS: N/A
CH$FORMULA: C4H11NO2
CH$EXACT_MASS: 105.0789786029
CH$SMILES: NCCOCCO
CH$IUPAC: InChI=1S/C4H11NO2/c5-1-3-7-4-2-6/h6H,1-5H2
CH$LINK: CAS 929-06-6
CH$LINK: INCHIKEY GIAFURWZWWWBQT-UHFFFAOYSA-N
CH$LINK: PUBCHEM CID:13578
AC$INSTRUMENT: N/A
AC$INSTRUMENT_TYPE: ESI-QTOF
AC$MASS_SPECTROMETRY: MS_TYPE MS2
AC$MASS_SPECTROMETRY: ION_MODE POSITIVE
AC$MASS_SPECTROMETRY: IONIZATION ESI
AC$MASS_SPECTROMETRY: COLLISION_ENERGY 40
MS$FOCUSED_ION: PRECURSOR_M/Z 106.0862550546
MS$FOCUSED_ION: PRECURSOR_TYPE [M+H]+
MS$DATA_PROCESSING: WHOLE Agilent ChemVista Version 1.0
PK$SPLASH: splash10-0006-9000000000-590d8bc4a272afc0440c
PK$NUM_PEAK: 6
PK$PEAK: m/z int. rel.int.
  42.033826 12.979786 129
  43.017841 4.760667 47
  43.041651 2.76714 27
  44.049476 99.999996 999
  44.083181 1.889529 18
  45.033491 13.529258 135
//
