ACCESSION: MSBNK-EPA-ENTACT_AGILENT000429
RECORD_TITLE: tert-Butyl 4-hydroxybenzoate; ESI-QTOF; MS2; CE: 10; [M-H]-
DATE: 2023.05.02
AUTHORS: EPA CCTE and Agilent Technologies
LICENSE: CC BY
CH$NAME: tert-Butyl 4-hydroxybenzoate
CH$NAME: DTXSID7044895
CH$COMPOUND_CLASS: N/A
CH$FORMULA: C11H14O3
CH$EXACT_MASS: 194.0942943135
CH$SMILES: CC(C)(C)OC(=O)C1C=CC(O)=CC=1
CH$IUPAC: InChI=1S/C11H14O3/c1-11(2,3)14-10(13)8-4-6-9(12)7-5-8/h4-7,12H,1-3H3
CH$LINK: CAS 25804-49-3
CH$LINK: INCHIKEY WHWMOMRHHQLBQQ-UHFFFAOYSA-N
CH$LINK: PUBCHEM CID:117640
AC$INSTRUMENT: N/A
AC$INSTRUMENT_TYPE: ESI-QTOF
AC$MASS_SPECTROMETRY: MS_TYPE MS2
AC$MASS_SPECTROMETRY: ION_MODE NEGATIVE
AC$MASS_SPECTROMETRY: IONIZATION ESI
AC$MASS_SPECTROMETRY: COLLISION_ENERGY 10
MS$FOCUSED_ION: PRECURSOR_M/Z 193.0870178618
MS$FOCUSED_ION: PRECURSOR_TYPE [M-H]-
MS$DATA_PROCESSING: WHOLE Agilent ChemVista Version 1.0
PK$SPLASH: splash10-0006-2900000000-22fd56ce54c5c34e298f
PK$NUM_PEAK: 5
PK$PEAK: m/z int. rel.int.
  92.026763 17.56648 175
  93.034588 29.008362 289
  136.016593 7.53612 75
  137.024418 49.103027 490
  193.087018 99.999998 999
//
