ACCESSION: MSBNK-EPA-ENTACT_AGILENT000008
RECORD_TITLE: 4-Isopropylbenzenesulfonic acid; ESI-QTOF; MS2; CE: 10; [M-H]-
DATE: 2023.05.02
AUTHORS: EPA CCTE and Agilent Technologies
LICENSE: CC BY
CH$NAME: 4-Isopropylbenzenesulfonic acid
CH$NAME: DTXSID1044932
CH$COMPOUND_CLASS: N/A
CH$FORMULA: C9H12O3S
CH$EXACT_MASS: 200.0507149797
CH$SMILES: CC(C)C1C=CC(=CC=1)S(O)(=O)=O
CH$IUPAC: InChI=1S/C9H12O3S/c1-7(2)8-3-5-9(6-4-8)13(10,11)12/h3-7H,1-2H3,(H,10,11,12)
CH$LINK: CAS 16066-35-6
CH$LINK: INCHIKEY CVLHGLWXLDOELD-UHFFFAOYSA-N
CH$LINK: PUBCHEM CID:6640
AC$INSTRUMENT: N/A
AC$INSTRUMENT_TYPE: ESI-QTOF
AC$MASS_SPECTROMETRY: MS_TYPE MS2
AC$MASS_SPECTROMETRY: ION_MODE NEGATIVE
AC$MASS_SPECTROMETRY: IONIZATION ESI
AC$MASS_SPECTROMETRY: COLLISION_ENERGY 10
MS$FOCUSED_ION: PRECURSOR_M/Z 199.043438528
MS$FOCUSED_ION: PRECURSOR_TYPE [M-H]-
MS$DATA_PROCESSING: WHOLE Agilent ChemVista Version 1.0
PK$SPLASH: splash10-0002-0900000000-a0c8af224914fa2f9321
PK$NUM_PEAK: 3
PK$PEAK: m/z int. rel.int.
  183.012138 2.16495 21
  184.019963 3.761472 37
  199.043439 99.999998 999
//
