ACCESSION: MSBNK-EPA-ENTACT_AGILENT001684
RECORD_TITLE: CP-471358; ESI-QTOF; MS2; CE: 10; [M-H]-
DATE: 2023.09.19
AUTHORS: EPA CCTE and Agilent Technologies
LICENSE: CC BY
CH$NAME: CP-471358
CH$COMPOUND_CLASS: N/A
CH$FORMULA: C21H23FN2O7S
CH$EXACT_MASS: 466.1210000346
CH$SMILES: OC(=O)CCN(C1(CCCC1)C(=O)NO)S(=O)(=O)C1C=CC(=CC=1)OC1C=CC(F)=CC=1
CH$IUPAC: InChI=1S/C21H23FN2O7S/c22-15-3-5-16(6-4-15)31-17-7-9-18(10-8-17)32(29,30)24(14-11-19(25)26)21(20(27)23-28)12-1-2-13-21/h3-10,28H,1-2,11-14H2,(H,23,27)(H,25,26)
CH$LINK: INCHIKEY VHHGUBHZBLPTKL-UHFFFAOYSA-N
CH$LINK: PUBCHEM CID:9869142
AC$INSTRUMENT: N/A
AC$INSTRUMENT_TYPE: ESI-QTOF
AC$MASS_SPECTROMETRY: MS_TYPE MS2
AC$MASS_SPECTROMETRY: ION_MODE NEGATIVE
AC$MASS_SPECTROMETRY: IONIZATION ESI
AC$MASS_SPECTROMETRY: COLLISION_ENERGY 10
MS$FOCUSED_ION: PRECURSOR_M/Z 465.1137235829
MS$FOCUSED_ION: PRECURSOR_TYPE [M-H]-
MS$DATA_PROCESSING: WHOLE Agilent ChemVista Version 1.0
PK$SPLASH: splash10-0006-0019100000-9a3959ce4c11c1030a26
PK$NUM_PEAK: 5
PK$PEAK: m/z int. rel.int.
  266.028123 14.836798 148
  338.049252 28.612583 285
  393.091451 100.000004 999
  394.093225 3.486848 34
  465.113724 17.536066 175
//
