ACCESSION: MSBNK-EPA-ENTACT_AGILENT001402
RECORD_TITLE: 2,6-Pyridinedicarboxylic acid; ESI-QTOF; MS2; CE: 40; [M-H]-
DATE: 2023.09.19
AUTHORS: EPA CCTE and Agilent Technologies
LICENSE: CC BY
CH$NAME: 2,6-Pyridinedicarboxylic acid
CH$NAME: DTXSID7022043
CH$COMPOUND_CLASS: N/A
CH$FORMULA: C7H5NO4
CH$EXACT_MASS: 167.0218576561
CH$SMILES: OC(=O)C1=CC=CC(=N1)C(O)=O
CH$IUPAC: InChI=1S/C7H5NO4/c9-6(10)4-2-1-3-5(8-4)7(11)12/h1-3H,(H,9,10)(H,11,12)
CH$LINK: CAS 499-83-2
CH$LINK: INCHIKEY WJJMNDUMQPNECX-UHFFFAOYSA-N
CH$LINK: PUBCHEM CID:10367
AC$INSTRUMENT: N/A
AC$INSTRUMENT_TYPE: ESI-QTOF
AC$MASS_SPECTROMETRY: MS_TYPE MS2
AC$MASS_SPECTROMETRY: ION_MODE NEGATIVE
AC$MASS_SPECTROMETRY: IONIZATION ESI
AC$MASS_SPECTROMETRY: COLLISION_ENERGY 40
MS$FOCUSED_ION: PRECURSOR_M/Z 166.0145812044
MS$FOCUSED_ION: PRECURSOR_TYPE [M-H]-
MS$DATA_PROCESSING: WHOLE Agilent ChemVista Version 1.0
PK$SPLASH: splash10-004i-9000000000-544572a42f2e86ecb178
PK$NUM_PEAK: 5
PK$PEAK: m/z int. rel.int.
  40.019273 1.047801 10
  50.003623 1.895613 18
  51.024024 1.254812 12
  52.019273 2.509075 25
  78.034923 100 999
//
