ACCESSION: MSBNK-EPA-ENTACT_AGILENT000164
RECORD_TITLE: 2,6-Diaminopyridine; ESI-QTOF; MS2; CE: 10; [M+H]+
DATE: 2023.05.02
AUTHORS: EPA CCTE and Agilent Technologies
LICENSE: CC BY
CH$NAME: 2,6-Diaminopyridine
CH$NAME: DTXSID0040127
CH$COMPOUND_CLASS: N/A
CH$FORMULA: C5H7N3
CH$EXACT_MASS: 109.0639972455
CH$SMILES: NC1C=CC=C(N)N=1
CH$IUPAC: InChI=1S/C5H7N3/c6-4-2-1-3-5(7)8-4/h1-3H,(H4,6,7,8)
CH$LINK: CAS 141-86-6
CH$LINK: INCHIKEY VHNQIURBCCNWDN-UHFFFAOYSA-N
CH$LINK: PUBCHEM CID:8861
AC$INSTRUMENT: N/A
AC$INSTRUMENT_TYPE: ESI-QTOF
AC$MASS_SPECTROMETRY: MS_TYPE MS2
AC$MASS_SPECTROMETRY: ION_MODE POSITIVE
AC$MASS_SPECTROMETRY: IONIZATION ESI
AC$MASS_SPECTROMETRY: COLLISION_ENERGY 10
MS$FOCUSED_ION: PRECURSOR_M/Z 110.0712736972
MS$FOCUSED_ION: PRECURSOR_TYPE [M+H]+
MS$DATA_PROCESSING: WHOLE Agilent ChemVista Version 1.0
PK$SPLASH: splash10-03di-2900000000-aea299dd5ee4f7bb6d73
PK$NUM_PEAK: 3
PK$PEAK: m/z int. rel.int.
  66.033826 4.761366 47
  93.044725 27.888495 278
  110.071274 100.000001 999
//
