ACCESSION: MSBNK-EPA-ENTACT_AGILENT002478
RECORD_TITLE: N-Methylacetoacetamide; ESI-QTOF; MS2; CE: 20; [M-H]-
DATE: 2023.09.19
AUTHORS: EPA CCTE and Agilent Technologies
LICENSE: CC BY
CH$NAME: N-Methylacetoacetamide
CH$NAME: DTXSID9040138
CH$COMPOUND_CLASS: N/A
CH$FORMULA: C5H9NO2
CH$EXACT_MASS: 115.0633285391
CH$SMILES: CC(=O)CC(=O)NC
CH$IUPAC: InChI=1S/C5H9NO2/c1-4(7)3-5(8)6-2/h3H2,1-2H3,(H,6,8)
CH$LINK: CAS 20306-75-6
CH$LINK: INCHIKEY ATWLCPHWYPSRBQ-UHFFFAOYSA-N
CH$LINK: PUBCHEM CID:88483
AC$INSTRUMENT: N/A
AC$INSTRUMENT_TYPE: ESI-QTOF
AC$MASS_SPECTROMETRY: MS_TYPE MS2
AC$MASS_SPECTROMETRY: ION_MODE NEGATIVE
AC$MASS_SPECTROMETRY: IONIZATION ESI
AC$MASS_SPECTROMETRY: COLLISION_ENERGY 20
MS$FOCUSED_ION: PRECURSOR_M/Z 114.0560520874
MS$FOCUSED_ION: PRECURSOR_TYPE [M-H]-
MS$DATA_PROCESSING: WHOLE Agilent ChemVista Version 1.0
PK$SPLASH: splash10-0a4i-9000000000-1d5d3aee3f78ce3fa4a8
PK$NUM_PEAK: 7
PK$PEAK: m/z int. rel.int.
  41.003288 17.822779 178
  54.034923 1.206427 12
  57.034588 100.000001 999
  57.058398 1.789433 17
  72.045487 1.152299 11
  82.029837 3.974216 39
  83.013853 1.713225 17
//
