ACCESSION: MSBNK-EPA-ENTACT_AGILENT002059
RECORD_TITLE: Phenyl dihydrogen phosphate; ESI-QTOF; MS2; CE: 40; [M-H]-
DATE: 2023.09.19
AUTHORS: EPA CCTE and Agilent Technologies
LICENSE: CC BY
CH$NAME: Phenyl dihydrogen phosphate
CH$NAME: DTXSID6044981
CH$COMPOUND_CLASS: N/A
CH$FORMULA: C6H7O4P
CH$EXACT_MASS: 174.0081952025
CH$SMILES: OP(O)(=O)OC1C=CC=CC=1
CH$IUPAC: InChI=1S/C6H7O4P/c7-11(8,9)10-6-4-2-1-3-5-6/h1-5H,(H2,7,8,9)
CH$LINK: CAS 701-64-4
CH$LINK: INCHIKEY CMPQUABWPXYYSH-UHFFFAOYSA-N
CH$LINK: PUBCHEM CID:12793
AC$INSTRUMENT: N/A
AC$INSTRUMENT_TYPE: ESI-QTOF
AC$MASS_SPECTROMETRY: MS_TYPE MS2
AC$MASS_SPECTROMETRY: ION_MODE NEGATIVE
AC$MASS_SPECTROMETRY: IONIZATION ESI
AC$MASS_SPECTROMETRY: COLLISION_ENERGY 40
MS$FOCUSED_ION: PRECURSOR_M/Z 173.0009187508
MS$FOCUSED_ION: PRECURSOR_TYPE [M-H]-
MS$DATA_PROCESSING: WHOLE Agilent ChemVista Version 1.0
PK$SPLASH: splash10-004i-9000000000-ce0cb54b42db7b0e17e5
PK$NUM_PEAK: 4
PK$PEAK: m/z int. rel.int.
  62.964139 2.90922 29
  78.959054 100.000001 999
  78.995439 2.495461 24
  79.003682 1.409425 14
//
