ACCESSION: MSBNK-EPA-ENTACT_AGILENT000210
RECORD_TITLE: 2,2',2'',2'''-(1,2-Ethanediyldinitrilo)tetrakisethanol; ESI-QTOF; MS2; CE: 10; [M+H]+
DATE: 2023.05.02
AUTHORS: EPA CCTE and Agilent Technologies
LICENSE: CC BY
CH$NAME: 2,2',2'',2'''-(1,2-Ethanediyldinitrilo)tetrakisethanol
CH$NAME: DTXSID2041917
CH$COMPOUND_CLASS: N/A
CH$FORMULA: C10H24N2O4
CH$EXACT_MASS: 236.1736072696
CH$SMILES: OCCN(CCO)CCN(CCO)CCO
CH$IUPAC: InChI=1S/C10H24N2O4/c13-7-3-11(4-8-14)1-2-12(5-9-15)6-10-16/h13-16H,1-10H2
CH$LINK: CAS 140-07-8
CH$LINK: INCHIKEY BYACHAOCSIPLCM-UHFFFAOYSA-N
CH$LINK: PUBCHEM CID:67322
AC$INSTRUMENT: N/A
AC$INSTRUMENT_TYPE: ESI-QTOF
AC$MASS_SPECTROMETRY: MS_TYPE MS2
AC$MASS_SPECTROMETRY: ION_MODE POSITIVE
AC$MASS_SPECTROMETRY: IONIZATION ESI
AC$MASS_SPECTROMETRY: COLLISION_ENERGY 10
MS$FOCUSED_ION: PRECURSOR_M/Z 237.1808837213
MS$FOCUSED_ION: PRECURSOR_TYPE [M+H]+
MS$DATA_PROCESSING: WHOLE Agilent ChemVista Version 1.0
PK$SPLASH: splash10-001r-0950000000-5e3d2b7e64056b865a37
PK$NUM_PEAK: 4
PK$PEAK: m/z int. rel.int.
  70.065126 1.301643 13
  114.09134 1.100995 10
  132.101905 100.000002 999
  237.180884 62.265755 622
//
