ACCESSION: MSBNK-EPA-ENTACT_AGILENT001473
RECORD_TITLE: 5-Methyl-2-(4-methylphenyl)-2,4-dihydro-3H-pyrazol-3-one; ESI-QTOF; MS2; CE: 10; [M+H]+
DATE: 2023.09.19
AUTHORS: EPA CCTE and Agilent Technologies
LICENSE: CC BY
CH$NAME: 5-Methyl-2-(4-methylphenyl)-2,4-dihydro-3H-pyrazol-3-one
CH$COMPOUND_CLASS: N/A
CH$FORMULA: C11H12N2O
CH$EXACT_MASS: 188.0949630199
CH$SMILES: CC1CC(=O)N(N=1)C1C=CC(C)=CC=1
CH$IUPAC: InChI=1S/C11H12N2O/c1-8-3-5-10(6-4-8)13-11(14)7-9(2)12-13/h3-6H,7H2,1-2H3
CH$LINK: CAS 86-92-0
CH$LINK: INCHIKEY IOQOLGUXWSBWHR-UHFFFAOYSA-N
CH$LINK: PUBCHEM CID:66591
AC$INSTRUMENT: N/A
AC$INSTRUMENT_TYPE: ESI-QTOF
AC$MASS_SPECTROMETRY: MS_TYPE MS2
AC$MASS_SPECTROMETRY: ION_MODE POSITIVE
AC$MASS_SPECTROMETRY: IONIZATION ESI
AC$MASS_SPECTROMETRY: COLLISION_ENERGY 10
MS$FOCUSED_ION: PRECURSOR_M/Z 189.1022394716
MS$FOCUSED_ION: PRECURSOR_TYPE [M+H]+
MS$DATA_PROCESSING: WHOLE Agilent ChemVista Version 1.0
PK$SPLASH: splash10-000i-0900000000-7a63989434b8a08f3a5e
PK$NUM_PEAK: 5
PK$PEAK: m/z int. rel.int.
  107.049141 1.175003 11
  147.091675 4.918525 49
  148.07569 1.1904 11
  161.107325 1.985291 19
  189.102239 99.999996 999
//
