ACCESSION: MSBNK-EPA-ENTACT_AGILENT002464
RECORD_TITLE: l-Perillaldehyde; ESI-QTOF; MS2; CE: 10; [M+H]+
DATE: 2023.09.19
AUTHORS: EPA CCTE and Agilent Technologies
LICENSE: CC BY
CH$NAME: l-Perillaldehyde
CH$NAME: DTXSID5041190
CH$COMPOUND_CLASS: N/A
CH$FORMULA: C10H14O
CH$EXACT_MASS: 150.1044650689
CH$SMILES: CC(=C)C1CC=C(CC1)C=O
CH$IUPAC: InChI=1S/C10H14O/c1-8(2)10-5-3-9(7-11)4-6-10/h3,7,10H,1,4-6H2,2H3
CH$LINK: CAS 18031-40-8
CH$LINK: INCHIKEY RUMOYJJNUMEFDD-UHFFFAOYSA-N
CH$LINK: PUBCHEM CID:2724159
AC$INSTRUMENT: N/A
AC$INSTRUMENT_TYPE: ESI-QTOF
AC$MASS_SPECTROMETRY: MS_TYPE MS2
AC$MASS_SPECTROMETRY: ION_MODE POSITIVE
AC$MASS_SPECTROMETRY: IONIZATION ESI
AC$MASS_SPECTROMETRY: COLLISION_ENERGY 10
MS$FOCUSED_ION: PRECURSOR_M/Z 151.1117415206
MS$FOCUSED_ION: PRECURSOR_TYPE [M+H]+
MS$DATA_PROCESSING: WHOLE Agilent ChemVista Version 1.0
PK$SPLASH: splash10-004i-9000000000-eb3adcd9a1d9bb93c88d
PK$NUM_PEAK: 5
PK$PEAK: m/z int. rel.int.
  45.033491 6.36364 63
  79.017841 100.000003 999
  79.054227 2.169519 21
  107.085527 3.449412 34
  151.111742 3.106385 31
//
