ACCESSION: MSBNK-EPA-ENTACT_AGILENT001343
RECORD_TITLE: Acetoacetanilide; ESI-QTOF; MS2; CE: 20; [M-H]-
DATE: 2023.09.19
AUTHORS: EPA CCTE and Agilent Technologies
LICENSE: CC BY
CH$NAME: Acetoacetanilide
CH$COMPOUND_CLASS: N/A
CH$FORMULA: C10H11NO2
CH$EXACT_MASS: 177.0789786029
CH$SMILES: CC(=O)CC(=O)NC1C=CC=CC=1
CH$IUPAC: InChI=1S/C10H11NO2/c1-8(12)7-10(13)11-9-5-3-2-4-6-9/h2-6H,7H2,1H3,(H,11,13)
CH$LINK: CAS 102-01-2
CH$LINK: INCHIKEY DYRDKSSFIWVSNM-UHFFFAOYSA-N
CH$LINK: PUBCHEM CID:7592
AC$INSTRUMENT: N/A
AC$INSTRUMENT_TYPE: ESI-QTOF
AC$MASS_SPECTROMETRY: MS_TYPE MS2
AC$MASS_SPECTROMETRY: ION_MODE NEGATIVE
AC$MASS_SPECTROMETRY: IONIZATION ESI
AC$MASS_SPECTROMETRY: COLLISION_ENERGY 20
MS$FOCUSED_ION: PRECURSOR_M/Z 176.0717021512
MS$FOCUSED_ION: PRECURSOR_TYPE [M-H]-
MS$DATA_PROCESSING: WHOLE Agilent ChemVista Version 1.0
PK$SPLASH: splash10-000x-9000000000-c46cd15a51e0d16dd983
PK$NUM_PEAK: 6
PK$PEAK: m/z int. rel.int.
  39.024024 1.173173 11
  41.003288 7.899306 78
  57.034588 3.926393 39
  83.013853 71.205627 711
  83.050238 2.510653 25
  92.050573 99.999998 999
//
