ACCESSION: MSBNK-EPA-ENTACT_AGILENT001961
RECORD_TITLE: AVE2865; ESI-QTOF; MS2; CE: 10; [M-H]-
DATE: 2023.09.19
AUTHORS: EPA CCTE and Agilent Technologies
LICENSE: CC BY
CH$NAME: AVE2865
CH$NAME: DTXSID5047376
CH$COMPOUND_CLASS: N/A
CH$FORMULA: C20H17ClF3N3O4
CH$EXACT_MASS: 455.0859683637
CH$SMILES: OC(=O)C1CCN(CC1)C1C=CC(F)=CC=1NC(=O)NC(=O)C1=CC(F)=C(F)C=C1Cl
CH$IUPAC: InChI=1S/C20H17ClF3N3O4/c21-13-9-15(24)14(23)8-12(13)18(28)26-20(31)25-16-7-11(22)1-2-17(16)27-5-3-10(4-6-27)19(29)30/h1-2,7-10H,3-6H2,(H,29,30)(H2,25,26,28,31)
CH$LINK: CAS 648917-13-9
CH$LINK: INCHIKEY KAJJGOCSAXKXBD-UHFFFAOYSA-N
CH$LINK: PUBCHEM CID:12148754
AC$INSTRUMENT: N/A
AC$INSTRUMENT_TYPE: ESI-QTOF
AC$MASS_SPECTROMETRY: MS_TYPE MS2
AC$MASS_SPECTROMETRY: ION_MODE NEGATIVE
AC$MASS_SPECTROMETRY: IONIZATION ESI
AC$MASS_SPECTROMETRY: COLLISION_ENERGY 10
MS$FOCUSED_ION: PRECURSOR_M/Z 454.078691912
MS$FOCUSED_ION: PRECURSOR_TYPE [M-H]-
MS$DATA_PROCESSING: WHOLE Agilent ChemVista Version 1.0
PK$SPLASH: splash10-02t9-0090000000-3fd7150d94ea9db4ad21
PK$NUM_PEAK: 7
PK$PEAK: m/z int. rel.int.
  41.998537 2.901314 28
  151.031315 1.184305 11
  189.987184 6.497654 64
  219.093915 100.000001 999
  220.097917 1.061948 10
  263.083744 50.422552 503
  454.078692 7.943195 79
//
