ACCESSION: MSBNK-EPA-ENTACT_AGILENT000795
RECORD_TITLE: 2,6-Dihydroxypyridine; ESI-QTOF; MS2; CE: 20; [M-H]-
DATE: 2023.05.02
AUTHORS: EPA CCTE and Agilent Technologies
LICENSE: CC BY
CH$NAME: 2,6-Dihydroxypyridine
CH$COMPOUND_CLASS: N/A
CH$FORMULA: C5H5NO2
CH$EXACT_MASS: 111.0320284115
CH$SMILES: OC1=CC=CC(=O)N1
CH$IUPAC: InChI=1S/C5H5NO2/c7-4-2-1-3-5(8)6-4/h1-3H,(H2,6,7,8)
CH$LINK: CAS 626-06-2
CH$LINK: INCHIKEY WLFXSECCHULRRO-UHFFFAOYSA-N
AC$INSTRUMENT: N/A
AC$INSTRUMENT_TYPE: ESI-QTOF
AC$MASS_SPECTROMETRY: MS_TYPE MS2
AC$MASS_SPECTROMETRY: ION_MODE NEGATIVE
AC$MASS_SPECTROMETRY: IONIZATION ESI
AC$MASS_SPECTROMETRY: COLLISION_ENERGY 20
MS$FOCUSED_ION: PRECURSOR_M/Z 110.0247519598
MS$FOCUSED_ION: PRECURSOR_TYPE [M-H]-
MS$DATA_PROCESSING: WHOLE Agilent ChemVista Version 1.0
PK$SPLASH: splash10-014l-9000000000-6dc8c7b4e2d9161f600e
PK$NUM_PEAK: 7
PK$PEAK: m/z int. rel.int.
  40.019273 63.71549 636
  41.003288 2.01838 20
  41.998537 1.79193 17
  50.003623 1.981501 19
  64.019273 1.241952 12
  66.034923 100.000002 999
  110.024752 11.804886 117
//
