ACCESSION: MSBNK-EPA-ENTACT_AGILENT000239
RECORD_TITLE: 4-[(3-oxobutanoyl)amino]benzenesulfonate; ESI-QTOF; MS2; CE: 10; [M-H]-
DATE: 2023.05.02
AUTHORS: EPA CCTE and Agilent Technologies
LICENSE: CC BY
CH$NAME: 4-[(3-oxobutanoyl)amino]benzenesulfonate
CH$NAME: DTXSID1044722
CH$COMPOUND_CLASS: N/A
CH$FORMULA: C10H11NO5S
CH$EXACT_MASS: 257.0357931998
CH$SMILES: CC(=O)CC(=O)NC1C=CC(=CC=1)S(O)(=O)=O
CH$IUPAC: InChI=1S/C10H11NO5S/c1-7(12)6-10(13)11-8-2-4-9(5-3-8)17(14,15)16/h2-5H,6H2,1H3,(H,11,13)(H,14,15,16)
CH$LINK: CAS 6199-95-7
CH$LINK: INCHIKEY GRLSWESXIFWOBF-UHFFFAOYSA-N
AC$INSTRUMENT: N/A
AC$INSTRUMENT_TYPE: ESI-QTOF
AC$MASS_SPECTROMETRY: MS_TYPE MS2
AC$MASS_SPECTROMETRY: ION_MODE NEGATIVE
AC$MASS_SPECTROMETRY: IONIZATION ESI
AC$MASS_SPECTROMETRY: COLLISION_ENERGY 10
MS$FOCUSED_ION: PRECURSOR_M/Z 256.0285167481
MS$FOCUSED_ION: PRECURSOR_TYPE [M-H]-
MS$DATA_PROCESSING: WHOLE Agilent ChemVista Version 1.0
PK$SPLASH: splash10-0a4i-0490000000-76f221155d2c93bf20ee
PK$NUM_PEAK: 4
PK$PEAK: m/z int. rel.int.
  172.007387 7.356879 73
  197.986652 41.446619 414
  198.040796 1.38251 13
  256.028517 100 999
//
