ACCESSION: MSBNK-EPA-ENTACT_AGILENT001353
RECORD_TITLE: Nefiracetam; ESI-QTOF; MS2; CE: 10; [M+H]+
DATE: 2023.09.19
AUTHORS: EPA CCTE and Agilent Technologies
LICENSE: CC BY
CH$NAME: Nefiracetam
CH$NAME: DTXSID2020923
CH$COMPOUND_CLASS: N/A
CH$FORMULA: C14H18N2O2
CH$EXACT_MASS: 246.1368278336
CH$SMILES: CC1C=CC=C(C)C=1NC(=O)CN1CCCC1=O
CH$IUPAC: InChI=1S/C14H18N2O2/c1-10-5-3-6-11(2)14(10)15-12(17)9-16-8-4-7-13(16)18/h3,5-6H,4,7-9H2,1-2H3,(H,15,17)
CH$LINK: CAS 77191-36-7
CH$LINK: INCHIKEY NGHTXZCKLWZPGK-UHFFFAOYSA-N
CH$LINK: PUBCHEM CID:71157
AC$INSTRUMENT: N/A
AC$INSTRUMENT_TYPE: ESI-QTOF
AC$MASS_SPECTROMETRY: MS_TYPE MS2
AC$MASS_SPECTROMETRY: ION_MODE POSITIVE
AC$MASS_SPECTROMETRY: IONIZATION ESI
AC$MASS_SPECTROMETRY: COLLISION_ENERGY 10
MS$FOCUSED_ION: PRECURSOR_M/Z 247.1441042853
MS$FOCUSED_ION: PRECURSOR_TYPE [M+H]+
MS$DATA_PROCESSING: WHOLE Agilent ChemVista Version 1.0
PK$SPLASH: splash10-004j-6900000000-13290cf4a804a395ba91
PK$NUM_PEAK: 7
PK$PEAK: m/z int. rel.int.
  70.065126 1.795489 17
  98.06004 63.708064 636
  98.096426 2.199266 21
  98.117555 1.06428 10
  126.054955 100.000001 999
  126.11515 1.846858 18
  247.144104 5.222049 52
//
