ACCESSION: MSBNK-EPA-ENTACT_AGILENT001769
RECORD_TITLE: (2S,3S)-3-Methyl-2-(3-oxo-1,2-benzothiazol-2(3H)-yl)pentanoic acid; ESI-QTOF; MS2; CE: 20; [M-H]-
DATE: 2023.09.19
AUTHORS: EPA CCTE and Agilent Technologies
LICENSE: CC BY
CH$NAME: (2S,3S)-3-Methyl-2-(3-oxo-1,2-benzothiazol-2(3H)-yl)pentanoic acid
CH$NAME: DTXSID3047261
CH$COMPOUND_CLASS: N/A
CH$FORMULA: C13H15NO3S
CH$EXACT_MASS: 265.0772640828
CH$SMILES: CC(CC)C(C(O)=O)N1SC2C=CC=CC=2C1=O
CH$IUPAC: InChI=1S/C13H15NO3S/c1-3-8(2)11(13(16)17)14-12(15)9-6-4-5-7-10(9)18-14/h4-8,11H,3H2,1-2H3,(H,16,17)
CH$LINK: CAS 177785-47-6
CH$LINK: INCHIKEY FUSYFEXGXRDJNB-UHFFFAOYSA-N
CH$LINK: PUBCHEM CID:462368
AC$INSTRUMENT: N/A
AC$INSTRUMENT_TYPE: ESI-QTOF
AC$MASS_SPECTROMETRY: MS_TYPE MS2
AC$MASS_SPECTROMETRY: ION_MODE NEGATIVE
AC$MASS_SPECTROMETRY: IONIZATION ESI
AC$MASS_SPECTROMETRY: COLLISION_ENERGY 20
MS$FOCUSED_ION: PRECURSOR_M/Z 264.0699876311
MS$FOCUSED_ION: PRECURSOR_TYPE [M-H]-
MS$DATA_PROCESSING: WHOLE Agilent ChemVista Version 1.0
PK$SPLASH: splash10-05fr-0590000000-7ddda272a25f2d982600
PK$NUM_PEAK: 8
PK$PEAK: m/z int. rel.int.
  41.998537 6.831334 68
  108.003919 1.900068 18
  109.011744 53.018898 529
  137.006659 2.037421 20
  150.001908 5.918316 59
  152.017558 2.614347 26
  205.056683 1.028383 10
  220.080158 100.000005 999
//
