ACCESSION: MSBNK-EPA-ENTACT_AGILENT001524
RECORD_TITLE: 5-Phenyl-1H-tetrazole; ESI-QTOF; MS2; CE: 20; [M+H]+
DATE: 2023.09.19
AUTHORS: EPA CCTE and Agilent Technologies
LICENSE: CC BY
CH$NAME: 5-Phenyl-1H-tetrazole
CH$NAME: DTXSID6044858
CH$COMPOUND_CLASS: N/A
CH$FORMULA: C7H6N4
CH$EXACT_MASS: 146.059246221
CH$SMILES: C1=CC=CC=C1C1NN=NN=1
CH$IUPAC: InChI=1S/C7H6N4/c1-2-4-6(5-3-1)7-8-10-11-9-7/h1-5H,(H,8,9,10,11)
CH$LINK: CAS 18039-42-4
CH$LINK: INCHIKEY MARUHZGHZWCEQU-UHFFFAOYSA-N
CH$LINK: PUBCHEM CID:87425
AC$INSTRUMENT: N/A
AC$INSTRUMENT_TYPE: ESI-QTOF
AC$MASS_SPECTROMETRY: MS_TYPE MS2
AC$MASS_SPECTROMETRY: ION_MODE POSITIVE
AC$MASS_SPECTROMETRY: IONIZATION ESI
AC$MASS_SPECTROMETRY: COLLISION_ENERGY 20
MS$FOCUSED_ION: PRECURSOR_M/Z 147.0665226727
MS$FOCUSED_ION: PRECURSOR_TYPE [M+H]+
MS$DATA_PROCESSING: WHOLE Agilent ChemVista Version 1.0
PK$SPLASH: splash10-0udi-1900000000-b701a1aeb0cb63f92128
PK$NUM_PEAK: 7
PK$PEAK: m/z int. rel.int.
  65.038577 1.664997 16
  77.038577 6.231194 62
  84.043048 1.015037 10
  90.046402 2.370842 23
  91.054227 1.643994 16
  104.049476 100 999
  119.060375 1.977045 19
//
