ACCESSION: MSBNK-EPA-ENTACT_AGILENT000637
RECORD_TITLE: 1-Cyclohexylpyrrolidin-2-one; ESI-QTOF; MS2; CE: 10; [M+H]+
DATE: 2023.05.02
AUTHORS: EPA CCTE and Agilent Technologies
LICENSE: CC BY
CH$NAME: 1-Cyclohexylpyrrolidin-2-one
CH$NAME: DTXSID7044716
CH$COMPOUND_CLASS: N/A
CH$FORMULA: C10H17NO
CH$EXACT_MASS: 167.131014172
CH$SMILES: O=C1CCCN1C1CCCCC1
CH$IUPAC: InChI=1S/C10H17NO/c12-10-7-4-8-11(10)9-5-2-1-3-6-9/h9H,1-8H2
CH$LINK: CAS 6837-24-7
CH$LINK: INCHIKEY PZYDAVFRVJXFHS-UHFFFAOYSA-N
CH$LINK: PUBCHEM CID:81278
AC$INSTRUMENT: N/A
AC$INSTRUMENT_TYPE: ESI-QTOF
AC$MASS_SPECTROMETRY: MS_TYPE MS2
AC$MASS_SPECTROMETRY: ION_MODE POSITIVE
AC$MASS_SPECTROMETRY: IONIZATION ESI
AC$MASS_SPECTROMETRY: COLLISION_ENERGY 10
MS$FOCUSED_ION: PRECURSOR_M/Z 168.1382906237
MS$FOCUSED_ION: PRECURSOR_TYPE [M+H]+
MS$DATA_PROCESSING: WHOLE Agilent ChemVista Version 1.0
PK$SPLASH: splash10-014i-3900000000-efce6cb3c2b2204ed289
PK$NUM_PEAK: 4
PK$PEAK: m/z int. rel.int.
  55.054227 2.612342 26
  83.085527 4.19067 41
  86.06004 34.856269 348
  168.138291 99.999998 999
//
