ACCESSION: MSBNK-EPA-ENTACT_AGILENT001441
RECORD_TITLE: Salicylhydroxamic acid; ESI-QTOF; MS2; CE: 40; [M-H]-
DATE: 2023.09.19
AUTHORS: EPA CCTE and Agilent Technologies
LICENSE: CC BY
CH$NAME: Salicylhydroxamic acid
CH$COMPOUND_CLASS: N/A
CH$FORMULA: C7H7NO3
CH$EXACT_MASS: 153.0425930976
CH$SMILES: OC1C=CC=CC=1C(=O)NO
CH$IUPAC: InChI=1S/C7H7NO3/c9-6-4-2-1-3-5(6)7(10)8-11/h1-4,9,11H,(H,8,10)
CH$LINK: CAS 89-73-6
CH$LINK: INCHIKEY HBROZNQEVUILML-UHFFFAOYSA-N
CH$LINK: PUBCHEM CID:66644
AC$INSTRUMENT: N/A
AC$INSTRUMENT_TYPE: ESI-QTOF
AC$MASS_SPECTROMETRY: MS_TYPE MS2
AC$MASS_SPECTROMETRY: ION_MODE NEGATIVE
AC$MASS_SPECTROMETRY: IONIZATION ESI
AC$MASS_SPECTROMETRY: COLLISION_ENERGY 40
MS$FOCUSED_ION: PRECURSOR_M/Z 152.0353166459
MS$FOCUSED_ION: PRECURSOR_TYPE [M-H]-
MS$DATA_PROCESSING: WHOLE Agilent ChemVista Version 1.0
PK$SPLASH: splash10-0006-9000000000-8a3ee418fba14cf32cd1
PK$NUM_PEAK: 5
PK$PEAK: m/z int. rel.int.
  41.003288 1.492619 14
  41.998537 99.999999 999
  50.003623 1.17888 11
  64.031849 3.758735 37
  65.003288 2.883027 28
//
