ACCESSION: MSBNK-EPA-ENTACT_AGILENT000014
RECORD_TITLE: Triethylene glycol dibenzoate; ESI-QTOF; MS2; CE: 40; [M+H]+
DATE: 2023.05.02
AUTHORS: EPA CCTE and Agilent Technologies
LICENSE: CC BY
CH$NAME: Triethylene glycol dibenzoate
CH$COMPOUND_CLASS: N/A
CH$FORMULA: C20H22O6
CH$EXACT_MASS: 358.1416384356
CH$SMILES: O=C(OCCOCCOCCOC(=O)C1C=CC=CC=1)C1C=CC=CC=1
CH$IUPAC: InChI=1S/C20H22O6/c21-19(17-7-3-1-4-8-17)25-15-13-23-11-12-24-14-16-26-20(22)18-9-5-2-6-10-18/h1-10H,11-16H2
CH$LINK: CAS 120-56-9
CH$LINK: INCHIKEY AHSGHEXYEABOKT-UHFFFAOYSA-N
CH$LINK: PUBCHEM CID:67123
AC$INSTRUMENT: N/A
AC$INSTRUMENT_TYPE: ESI-QTOF
AC$MASS_SPECTROMETRY: MS_TYPE MS2
AC$MASS_SPECTROMETRY: ION_MODE POSITIVE
AC$MASS_SPECTROMETRY: IONIZATION ESI
AC$MASS_SPECTROMETRY: COLLISION_ENERGY 40
MS$FOCUSED_ION: PRECURSOR_M/Z 359.1489148873
MS$FOCUSED_ION: PRECURSOR_TYPE [M+H]+
MS$DATA_PROCESSING: WHOLE Agilent ChemVista Version 1.0
PK$SPLASH: splash10-0a4i-1900000000-279def853aef70d8342d
PK$NUM_PEAK: 4
PK$PEAK: m/z int. rel.int.
  77.038577 24.185665 241
  105.033491 100.000002 999
  105.069877 2.439558 24
  149.059706 47.544914 474
//
