ACCESSION: MSBNK-EPA-ENTACT_AGILENT001117
RECORD_TITLE: Diethyl hydrogen phosphate; ESI-QTOF; MS2; CE: 20; [M+H]+
DATE: 2023.09.19
AUTHORS: EPA CCTE and Agilent Technologies
LICENSE: CC BY
CH$NAME: Diethyl hydrogen phosphate
CH$NAME: DTXSID1044699
CH$COMPOUND_CLASS: N/A
CH$FORMULA: C4H11O4P
CH$EXACT_MASS: 154.0394953301
CH$SMILES: CCOP(O)(=O)OCC
CH$IUPAC: InChI=1S/C4H11O4P/c1-3-7-9(5,6)8-4-2/h3-4H2,1-2H3,(H,5,6)
CH$LINK: CAS 598-02-7
CH$LINK: INCHIKEY UCQFCFPECQILOL-UHFFFAOYSA-N
CH$LINK: PUBCHEM CID:654
AC$INSTRUMENT: N/A
AC$INSTRUMENT_TYPE: ESI-QTOF
AC$MASS_SPECTROMETRY: MS_TYPE MS2
AC$MASS_SPECTROMETRY: ION_MODE POSITIVE
AC$MASS_SPECTROMETRY: IONIZATION ESI
AC$MASS_SPECTROMETRY: COLLISION_ENERGY 20
MS$FOCUSED_ION: PRECURSOR_M/Z 155.0467717818
MS$FOCUSED_ION: PRECURSOR_TYPE [M+H]+
MS$DATA_PROCESSING: WHOLE Agilent ChemVista Version 1.0
PK$SPLASH: splash10-0002-9000000000-d27eb5f393680eb01870
PK$NUM_PEAK: 3
PK$PEAK: m/z int. rel.int.
  80.973607 14.023025 140
  98.984172 99.999998 999
  99.020557 1.846973 18
//
