ACCESSION: MSBNK-EPA-ENTACT_AGILENT000346
RECORD_TITLE: N-Butyl-2,2,6,6-tetramethylpiperidin-4-amine; ESI-QTOF; MS2; CE: 20; [M+H]+
DATE: 2023.05.02
AUTHORS: EPA CCTE and Agilent Technologies
LICENSE: CC BY
CH$NAME: N-Butyl-2,2,6,6-tetramethylpiperidin-4-amine
CH$NAME: DTXSID7044926
CH$COMPOUND_CLASS: N/A
CH$FORMULA: C13H28N2
CH$EXACT_MASS: 212.225248908
CH$SMILES: CCCCNC1CC(C)(C)NC(C)(C)C1
CH$IUPAC: InChI=1S/C13H28N2/c1-6-7-8-14-11-9-12(2,3)15-13(4,5)10-11/h11,14-15H,6-10H2,1-5H3
CH$LINK: CAS 36177-92-1
CH$LINK: INCHIKEY FDAKZQLBIFPGSV-UHFFFAOYSA-N
CH$LINK: PUBCHEM CID:118285
AC$INSTRUMENT: N/A
AC$INSTRUMENT_TYPE: ESI-QTOF
AC$MASS_SPECTROMETRY: MS_TYPE MS2
AC$MASS_SPECTROMETRY: ION_MODE POSITIVE
AC$MASS_SPECTROMETRY: IONIZATION ESI
AC$MASS_SPECTROMETRY: COLLISION_ENERGY 20
MS$FOCUSED_ION: PRECURSOR_M/Z 213.2325253597
MS$FOCUSED_ION: PRECURSOR_TYPE [M+H]+
MS$DATA_PROCESSING: WHOLE Agilent ChemVista Version 1.0
PK$SPLASH: splash10-0a4i-9200000000-527ff8300df4d88ee213
PK$NUM_PEAK: 7
PK$PEAK: m/z int. rel.int.
  55.054227 2.132159 21
  58.065126 99.999999 999
  83.085527 1.392662 13
  84.080776 2.864325 28
  100.112076 7.556276 75
  140.143376 24.390559 243
  213.232525 2.894321 28
//
