ACCESSION: MSBNK-EPA-ENTACT_AGILENT001622
RECORD_TITLE: 3-Dimethylaminophenol; ESI-QTOF; MS2; CE: 20; [M-H]-
DATE: 2023.09.19
AUTHORS: EPA CCTE and Agilent Technologies
LICENSE: CC BY
CH$NAME: 3-Dimethylaminophenol
CH$COMPOUND_CLASS: N/A
CH$FORMULA: C8H11NO
CH$EXACT_MASS: 137.0840639806
CH$SMILES: CN(C)C1C=C(O)C=CC=1
CH$IUPAC: InChI=1S/C8H11NO/c1-9(2)7-4-3-5-8(10)6-7/h3-6,10H,1-2H3
CH$LINK: CAS 99-07-0
CH$LINK: INCHIKEY MESJRHHDBDCQTH-UHFFFAOYSA-N
CH$LINK: PUBCHEM CID:7421
AC$INSTRUMENT: N/A
AC$INSTRUMENT_TYPE: ESI-QTOF
AC$MASS_SPECTROMETRY: MS_TYPE MS2
AC$MASS_SPECTROMETRY: ION_MODE NEGATIVE
AC$MASS_SPECTROMETRY: IONIZATION ESI
AC$MASS_SPECTROMETRY: COLLISION_ENERGY 20
MS$FOCUSED_ION: PRECURSOR_M/Z 136.0767875289
MS$FOCUSED_ION: PRECURSOR_TYPE [M-H]-
MS$DATA_PROCESSING: WHOLE Agilent ChemVista Version 1.0
PK$SPLASH: splash10-00di-0900000000-11891cffe650c12fef28
PK$NUM_PEAK: 9
PK$PEAK: m/z int. rel.int.
  50.003623 1.112675 11
  65.998537 3.478681 34
  92.026763 2.929073 29
  93.034588 2.490617 24
  106.042413 1.002241 10
  120.045487 100.000001 999
  120.081873 1.906277 19
  121.053312 33.860212 338
  136.076788 3.01197 30
//
