ACCESSION: MSBNK-EPA-ENTACT_AGILENT002025
RECORD_TITLE: 1,3-Diphenylguanidine; ESI-QTOF; MS2; CE: 20; [M+H]+
DATE: 2023.09.19
AUTHORS: EPA CCTE and Agilent Technologies
LICENSE: CC BY
CH$NAME: 1,3-Diphenylguanidine
CH$COMPOUND_CLASS: N/A
CH$FORMULA: C13H13N3
CH$EXACT_MASS: 211.1109474369
CH$SMILES: N=C(NC1C=CC=CC=1)NC1C=CC=CC=1
CH$IUPAC: InChI=1S/C13H13N3/c14-13(15-11-7-3-1-4-8-11)16-12-9-5-2-6-10-12/h1-10H,(H3,14,15,16)
CH$LINK: CAS 102-06-7
CH$LINK: INCHIKEY OWRCNXZUPFZXOS-UHFFFAOYSA-N
CH$LINK: PUBCHEM CID:7594
AC$INSTRUMENT: N/A
AC$INSTRUMENT_TYPE: ESI-QTOF
AC$MASS_SPECTROMETRY: MS_TYPE MS2
AC$MASS_SPECTROMETRY: ION_MODE POSITIVE
AC$MASS_SPECTROMETRY: IONIZATION ESI
AC$MASS_SPECTROMETRY: COLLISION_ENERGY 20
MS$FOCUSED_ION: PRECURSOR_M/Z 212.1182238886
MS$FOCUSED_ION: PRECURSOR_TYPE [M+H]+
MS$DATA_PROCESSING: WHOLE Agilent ChemVista Version 1.0
PK$SPLASH: splash10-014l-5920000000-9b91e3a97fbbcc6a65e8
PK$NUM_PEAK: 6
PK$PEAK: m/z int. rel.int.
  77.038577 9.490108 94
  92.049476 6.69316 66
  94.065126 60.685916 606
  119.060375 100.000002 999
  195.091675 30.738556 307
  212.118224 32.635714 326
//
