ACCESSION: MSBNK-EPA-ENTACT_AGILENT000392
RECORD_TITLE: 5-Methoxypsoralen; ESI-QTOF; MS2; CE: 10; [M+H]+
DATE: 2023.05.02
AUTHORS: EPA CCTE and Agilent Technologies
LICENSE: CC BY
CH$NAME: 5-Methoxypsoralen
CH$NAME: DTXSID1025560
CH$COMPOUND_CLASS: N/A
CH$FORMULA: C12H8O4
CH$EXACT_MASS: 216.0422587444
CH$SMILES: COC1=C2C=COC2=CC2OC(=O)C=CC=21
CH$IUPAC: InChI=1S/C12H8O4/c1-14-12-7-2-3-11(13)16-10(7)6-9-8(12)4-5-15-9/h2-6H,1H3
CH$LINK: CAS 484-20-8
CH$LINK: INCHIKEY BGEBZHIAGXMEMV-UHFFFAOYSA-N
CH$LINK: PUBCHEM CID:2355
AC$INSTRUMENT: N/A
AC$INSTRUMENT_TYPE: ESI-QTOF
AC$MASS_SPECTROMETRY: MS_TYPE MS2
AC$MASS_SPECTROMETRY: ION_MODE POSITIVE
AC$MASS_SPECTROMETRY: IONIZATION ESI
AC$MASS_SPECTROMETRY: COLLISION_ENERGY 10
MS$FOCUSED_ION: PRECURSOR_M/Z 217.0495351961
MS$FOCUSED_ION: PRECURSOR_TYPE [M+H]+
MS$DATA_PROCESSING: WHOLE Agilent ChemVista Version 1.0
PK$SPLASH: splash10-014i-0090000000-3658527e8c79f88544af
PK$NUM_PEAK: 4
PK$PEAK: m/z int. rel.int.
  101.02332 2.485392 24
  173.059706 1.120186 11
  202.02606 7.445866 74
  217.049535 99.999997 999
//
