ACCESSION: MSBNK-EPA-ENTACT_AGILENT000250
RECORD_TITLE: 1-Amino-2-propanol; ESI-QTOF; MS2; CE: 20; [M+H]+
DATE: 2023.05.02
AUTHORS: EPA CCTE and Agilent Technologies
LICENSE: CC BY
CH$NAME: 1-Amino-2-propanol
CH$COMPOUND_CLASS: N/A
CH$FORMULA: C3H9NO
CH$EXACT_MASS: 75.0684139168
CH$SMILES: CC(O)CN
CH$IUPAC: InChI=1S/C3H9NO/c1-3(5)2-4/h3,5H,2,4H2,1H3
CH$LINK: CAS 78-96-6
CH$LINK: INCHIKEY HXKKHQJGJAFBHI-UHFFFAOYSA-N
CH$LINK: PUBCHEM CID:4
AC$INSTRUMENT: N/A
AC$INSTRUMENT_TYPE: ESI-QTOF
AC$MASS_SPECTROMETRY: MS_TYPE MS2
AC$MASS_SPECTROMETRY: ION_MODE POSITIVE
AC$MASS_SPECTROMETRY: IONIZATION ESI
AC$MASS_SPECTROMETRY: COLLISION_ENERGY 20
MS$FOCUSED_ION: PRECURSOR_M/Z 76.0756903685
MS$FOCUSED_ION: PRECURSOR_TYPE [M+H]+
MS$DATA_PROCESSING: WHOLE Agilent ChemVista Version 1.0
PK$SPLASH: splash10-0006-9000000000-b529ebe26021285f92e0
PK$NUM_PEAK: 10
PK$PEAK: m/z int. rel.int.
  30.033826 5.535134 55
  31.017841 4.237456 42
  39.022927 24.606218 245
  41.038577 100.000002 999
  42.033826 14.501265 144
  43.017841 4.793334 47
  43.041651 95.604679 955
  44.025666 1.844928 18
  58.065126 55.73931 556
  59.049141 5.897243 58
//
