ACCESSION: MSBNK-EPA-ENTACT_AGILENT001855
RECORD_TITLE: 4',5'-Dibromofluorescein; ESI-QTOF; MS2; CE: 40; [M+H]+
DATE: 2023.09.19
AUTHORS: EPA CCTE and Agilent Technologies
LICENSE: CC BY
CH$NAME: 4',5'-Dibromofluorescein
CH$NAME: DTXSID7024904
CH$COMPOUND_CLASS: N/A
CH$FORMULA: C20H10Br2O5
CH$EXACT_MASS: 487.8894992305
CH$SMILES: OC1C=CC2=C(OC3=C(C=CC(O)=C3Br)C32OC(=O)C2=CC=CC=C32)C=1Br
CH$IUPAC: InChI=1S/C20H10Br2O5/c21-15-13(23)7-5-11-17(15)26-18-12(6-8-14(24)16(18)22)20(11)10-4-2-1-3-9(10)19(25)27-20/h1-8,23-24H
CH$LINK: CAS 596-03-2
CH$LINK: INCHIKEY ZDTNHRWWURISAA-UHFFFAOYSA-N
CH$LINK: PUBCHEM CID:11689
AC$INSTRUMENT: N/A
AC$INSTRUMENT_TYPE: ESI-QTOF
AC$MASS_SPECTROMETRY: MS_TYPE MS2
AC$MASS_SPECTROMETRY: ION_MODE POSITIVE
AC$MASS_SPECTROMETRY: IONIZATION ESI
AC$MASS_SPECTROMETRY: COLLISION_ENERGY 40
MS$FOCUSED_ION: PRECURSOR_M/Z 488.8967756822
MS$FOCUSED_ION: PRECURSOR_TYPE [M+H]+
MS$DATA_PROCESSING: WHOLE Agilent ChemVista Version 1.0
PK$SPLASH: splash10-000i-0001900000-658547c86be2235df60a
PK$NUM_PEAK: 9
PK$PEAK: m/z int. rel.int.
  336.985869 6.23965 62
  352.980784 1.167596 11
  363.972958 1.882566 18
  364.980784 6.094234 60
  381.983523 6.873087 68
  442.891296 1.031781 10
  444.906946 5.372005 53
  470.886211 1.04207 10
  488.896776 100.000002 999
//
