ACCESSION: MSBNK-EPA-ENTACT_AGILENT000110
RECORD_TITLE: Diisopropyl methylphosphonate; ESI-QTOF; MS2; CE: 10; [M+H]+
DATE: 2023.05.02
AUTHORS: EPA CCTE and Agilent Technologies
LICENSE: CC BY
CH$NAME: Diisopropyl methylphosphonate
CH$NAME: DTXSID5024051
CH$COMPOUND_CLASS: N/A
CH$FORMULA: C7H17O3P
CH$EXACT_MASS: 180.0915308992
CH$SMILES: CP(=O)(OC(C)C)OC(C)C
CH$IUPAC: InChI=1S/C7H17O3P/c1-6(2)9-11(5,8)10-7(3)4/h6-7H,1-5H3
CH$LINK: CAS 1445-75-6
CH$LINK: INCHIKEY WOAFDHWYKSOANX-UHFFFAOYSA-N
CH$LINK: PUBCHEM CID:3073
AC$INSTRUMENT: N/A
AC$INSTRUMENT_TYPE: ESI-QTOF
AC$MASS_SPECTROMETRY: MS_TYPE MS2
AC$MASS_SPECTROMETRY: ION_MODE POSITIVE
AC$MASS_SPECTROMETRY: IONIZATION ESI
AC$MASS_SPECTROMETRY: COLLISION_ENERGY 10
MS$FOCUSED_ION: PRECURSOR_M/Z 181.0988073509
MS$FOCUSED_ION: PRECURSOR_TYPE [M+H]+
MS$DATA_PROCESSING: WHOLE Agilent ChemVista Version 1.0
PK$SPLASH: splash10-0002-9300000000-312fac34d1370938eb54
PK$NUM_PEAK: 6
PK$PEAK: m/z int. rel.int.
  78.994342 2.767051 27
  97.004907 99.999997 999
  97.041292 2.195007 21
  101.002191 18.438144 184
  102.994342 22.29153 222
  139.051857 1.191138 11
//
