ACCESSION: MSBNK-EPA-ENTACT_AGILENT001266
RECORD_TITLE: CP-671305; ESI-QTOF; MS2; CE: 20; [M+H]+
DATE: 2023.09.19
AUTHORS: EPA CCTE and Agilent Technologies
LICENSE: CC BY
CH$NAME: CP-671305
CH$NAME: DTXSID6047282
CH$COMPOUND_CLASS: N/A
CH$FORMULA: C23H19FN2O7
CH$EXACT_MASS: 454.117629177
CH$SMILES: CC(OC1C=CC(CNC(=O)C2C=CC=NC=2OC2C=C3OCOC3=CC=2)=C(F)C=1)C(O)=O
CH$IUPAC: InChI=1S/C23H19FN2O7/c1-13(23(28)29)32-15-5-4-14(18(24)9-15)11-26-21(27)17-3-2-8-25-22(17)33-16-6-7-19-20(10-16)31-12-30-19/h2-10,13H,11-12H2,1H3,(H,26,27)(H,28,29)
CH$LINK: CAS 445295-04-5
CH$LINK: INCHIKEY CNIGFESSDPOCKS-UHFFFAOYSA-N
CH$LINK: PUBCHEM CID:9955578
AC$INSTRUMENT: N/A
AC$INSTRUMENT_TYPE: ESI-QTOF
AC$MASS_SPECTROMETRY: MS_TYPE MS2
AC$MASS_SPECTROMETRY: ION_MODE POSITIVE
AC$MASS_SPECTROMETRY: IONIZATION ESI
AC$MASS_SPECTROMETRY: COLLISION_ENERGY 20
MS$FOCUSED_ION: PRECURSOR_M/Z 455.1249056287
MS$FOCUSED_ION: PRECURSOR_TYPE [M+H]+
MS$DATA_PROCESSING: WHOLE Agilent ChemVista Version 1.0
PK$SPLASH: splash10-0005-0950000000-71b32a6151872c925a9a
PK$NUM_PEAK: 10
PK$PEAK: m/z int. rel.int.
  125.039719 41.531074 414
  197.060849 100.000003 999
  197.113198 2.950321 29
  197.13362 1.62664 16
  242.044784 78.320387 782
  242.103442 2.449989 24
  242.127251 1.206874 12
  259.071333 4.426505 44
  271.071333 6.175554 61
  455.124906 4.169104 41
//
