ACCESSION: MSBNK-EPA-ENTACT_AGILENT002426
RECORD_TITLE: Ethylene glycol dimethacrylate; ESI-QTOF; MS2; CE: 20; [M+H]+
DATE: 2023.09.19
AUTHORS: EPA CCTE and Agilent Technologies
LICENSE: CC BY
CH$NAME: Ethylene glycol dimethacrylate
CH$COMPOUND_CLASS: N/A
CH$FORMULA: C10H14O4
CH$EXACT_MASS: 198.0892089358
CH$SMILES: CC(=C)C(=O)OCCOC(=O)C(C)=C
CH$IUPAC: InChI=1S/C10H14O4/c1-7(2)9(11)13-5-6-14-10(12)8(3)4/h1,3,5-6H2,2,4H3
CH$LINK: CAS 97-90-5
CH$LINK: INCHIKEY STVZJERGLQHEKB-UHFFFAOYSA-N
CH$LINK: PUBCHEM CID:7355
AC$INSTRUMENT: N/A
AC$INSTRUMENT_TYPE: ESI-QTOF
AC$MASS_SPECTROMETRY: MS_TYPE MS2
AC$MASS_SPECTROMETRY: ION_MODE POSITIVE
AC$MASS_SPECTROMETRY: IONIZATION ESI
AC$MASS_SPECTROMETRY: COLLISION_ENERGY 20
MS$FOCUSED_ION: PRECURSOR_M/Z 199.0964853875
MS$FOCUSED_ION: PRECURSOR_TYPE [M+H]+
MS$DATA_PROCESSING: WHOLE Agilent ChemVista Version 1.0
PK$SPLASH: splash10-00di-0900000000-e5c146373edce00dccc4
PK$NUM_PEAK: 4
PK$PEAK: m/z int. rel.int.
  65.002191 1.024406 10
  69.069877 1.79154 17
  94.041316 3.196233 31
  121.049535 100.000003 999
//
