ACCESSION: MSBNK-EPA-ENTACT_AGILENT002049
RECORD_TITLE: 2-(2-Butoxyethoxy)ethyl acetate; ESI-QTOF; MS2; CE: 10; [M+H]+
DATE: 2023.09.19
AUTHORS: EPA CCTE and Agilent Technologies
LICENSE: CC BY
CH$NAME: 2-(2-Butoxyethoxy)ethyl acetate
CH$COMPOUND_CLASS: N/A
CH$FORMULA: C10H20O4
CH$EXACT_MASS: 204.1361591272
CH$SMILES: CCCCOCCOCCOC(C)=O
CH$IUPAC: InChI=1S/C10H20O4/c1-3-4-5-12-6-7-13-8-9-14-10(2)11/h3-9H2,1-2H3
CH$LINK: CAS 124-17-4
CH$LINK: INCHIKEY VXQBJTKSVGFQOL-UHFFFAOYSA-N
CH$LINK: PUBCHEM CID:31288
AC$INSTRUMENT: N/A
AC$INSTRUMENT_TYPE: ESI-QTOF
AC$MASS_SPECTROMETRY: MS_TYPE MS2
AC$MASS_SPECTROMETRY: ION_MODE POSITIVE
AC$MASS_SPECTROMETRY: IONIZATION ESI
AC$MASS_SPECTROMETRY: COLLISION_ENERGY 10
MS$FOCUSED_ION: PRECURSOR_M/Z 205.1434355789
MS$FOCUSED_ION: PRECURSOR_TYPE [M+H]+
MS$DATA_PROCESSING: WHOLE Agilent ChemVista Version 1.0
PK$SPLASH: splash10-000i-9000000000-da2328153c5a5a1ee053
PK$NUM_PEAK: 6
PK$PEAK: m/z int. rel.int.
  43.017841 5.242801 52
  45.033491 1.241598 12
  57.069877 1.126886 11
  87.044056 100.000003 999
  87.080441 1.433612 14
  89.059706 2.172943 21
//
