ACCESSION: MSBNK-EPA-ENTACT_AGILENT000015
RECORD_TITLE: Triethylene glycol dibenzoate; ESI-QTOF; MS2; CE: 10; [M+H]+
DATE: 2023.05.02
AUTHORS: EPA CCTE and Agilent Technologies
LICENSE: CC BY
CH$NAME: Triethylene glycol dibenzoate
CH$COMPOUND_CLASS: N/A
CH$FORMULA: C20H22O6
CH$EXACT_MASS: 358.1416384356
CH$SMILES: O=C(OCCOCCOCCOC(=O)C1C=CC=CC=1)C1C=CC=CC=1
CH$IUPAC: InChI=1S/C20H22O6/c21-19(17-7-3-1-4-8-17)25-15-13-23-11-12-24-14-16-26-20(22)18-9-5-2-6-10-18/h1-10H,11-16H2
CH$LINK: CAS 120-56-9
CH$LINK: INCHIKEY AHSGHEXYEABOKT-UHFFFAOYSA-N
CH$LINK: PUBCHEM CID:67123
AC$INSTRUMENT: N/A
AC$INSTRUMENT_TYPE: ESI-QTOF
AC$MASS_SPECTROMETRY: MS_TYPE MS2
AC$MASS_SPECTROMETRY: ION_MODE POSITIVE
AC$MASS_SPECTROMETRY: IONIZATION ESI
AC$MASS_SPECTROMETRY: COLLISION_ENERGY 10
MS$FOCUSED_ION: PRECURSOR_M/Z 359.1489148873
MS$FOCUSED_ION: PRECURSOR_TYPE [M+H]+
MS$DATA_PROCESSING: WHOLE Agilent ChemVista Version 1.0
PK$SPLASH: splash10-0002-0900000000-f727d32ec17de8a23e4e
PK$NUM_PEAK: 2
PK$PEAK: m/z int. rel.int.
  105.033491 3.312213 33
  149.059706 99.999996 999
//
