ACCESSION: MSBNK-EPA-ENTACT_AGILENT001498
RECORD_TITLE: 1-(o-Tolyl)biguanide; ESI-QTOF; MS2; CE: 20; [M-H]-
DATE: 2023.09.19
AUTHORS: EPA CCTE and Agilent Technologies
LICENSE: CC BY
CH$NAME: 1-(o-Tolyl)biguanide
CH$COMPOUND_CLASS: N/A
CH$FORMULA: C9H13N5
CH$EXACT_MASS: 191.1170954517
CH$SMILES: CC1C=CC=CC=1NC(=N)NC(N)=N
CH$IUPAC: InChI=1S/C9H13N5/c1-6-4-2-3-5-7(6)13-9(12)14-8(10)11/h2-5H,1H3,(H6,10,11,12,13,14)
CH$LINK: CAS 93-69-6
CH$LINK: INCHIKEY SQZCAOHYQSOZCE-UHFFFAOYSA-N
CH$LINK: PUBCHEM CID:7155
AC$INSTRUMENT: N/A
AC$INSTRUMENT_TYPE: ESI-QTOF
AC$MASS_SPECTROMETRY: MS_TYPE MS2
AC$MASS_SPECTROMETRY: ION_MODE NEGATIVE
AC$MASS_SPECTROMETRY: IONIZATION ESI
AC$MASS_SPECTROMETRY: COLLISION_ENERGY 20
MS$FOCUSED_ION: PRECURSOR_M/Z 190.109819
MS$FOCUSED_ION: PRECURSOR_TYPE [M-H]-
MS$DATA_PROCESSING: WHOLE Agilent ChemVista Version 1.0
PK$SPLASH: splash10-000x-9400000000-627307d58b179405ec62
PK$NUM_PEAK: 6
PK$PEAK: m/z int. rel.int.
  41.014522 100 999
  41.039674 2.549736 25
  83.03632 35.718839 356
  106.066223 43.270359 432
  131.061472 19.876996 198
  148.088021 1.372711 13
//
