ACCESSION: MSBNK-EPA-ENTACT_AGILENT001017
RECORD_TITLE: Candoxatril; ESI-QTOF; MS2; CE: 20; [M-H]-
DATE: 2023.09.19
AUTHORS: EPA CCTE and Agilent Technologies
LICENSE: CC BY
CH$NAME: Candoxatril
CH$COMPOUND_CLASS: N/A
CH$FORMULA: C29H41NO7
CH$EXACT_MASS: 515.2883026714
CH$SMILES: COCCOCC(CC1(CCCC1)C(=O)NC1CCC(CC1)C(O)=O)C(=O)OC1=CC2CCCC=2C=C1
CH$IUPAC: InChI=1S/C29H41NO7/c1-35-15-16-36-19-23(27(33)37-25-12-9-20-5-4-6-22(20)17-25)18-29(13-2-3-14-29)28(34)30-24-10-7-21(8-11-24)26(31)32/h9,12,17,21,23-24H,2-8,10-11,13-16,18-19H2,1H3,(H,30,34)(H,31,32)
CH$LINK: CAS 123122-55-4
CH$LINK: INCHIKEY ZTWZVMIYIIVABD-UHFFFAOYSA-N
CH$LINK: PUBCHEM CID:5362417
AC$INSTRUMENT: N/A
AC$INSTRUMENT_TYPE: ESI-QTOF
AC$MASS_SPECTROMETRY: MS_TYPE MS2
AC$MASS_SPECTROMETRY: ION_MODE NEGATIVE
AC$MASS_SPECTROMETRY: IONIZATION ESI
AC$MASS_SPECTROMETRY: COLLISION_ENERGY 20
MS$FOCUSED_ION: PRECURSOR_M/Z 514.2810262197
MS$FOCUSED_ION: PRECURSOR_TYPE [M-H]-
MS$DATA_PROCESSING: WHOLE Agilent ChemVista Version 1.0
PK$SPLASH: splash10-0ue9-0409000000-8834164f0dfcd4b82538
PK$NUM_PEAK: 9
PK$PEAK: m/z int. rel.int.
  75.045153 1.846768 18
  124.076788 26.972013 269
  133.065888 32.49656 324
  135.081539 1.368446 13
  260.165603 1.208989 12
  304.155432 100.000002 999
  304.219649 1.251165 12
  305.160577 2.836735 28
  380.207861 19.410283 193
//
