ACCESSION: MSBNK-EPA-ENTACT_AGILENT000031
RECORD_TITLE: 2-(Diisopropylamino)ethanol; ESI-QTOF; MS2; CE: 40; [M+H]+
DATE: 2023.05.02
AUTHORS: EPA CCTE and Agilent Technologies
LICENSE: CC BY
CH$NAME: 2-(Diisopropylamino)ethanol
CH$COMPOUND_CLASS: N/A
CH$FORMULA: C8H19NO
CH$EXACT_MASS: 145.1466642358
CH$SMILES: CC(C)N(CCO)C(C)C
CH$IUPAC: InChI=1S/C8H19NO/c1-7(2)9(5-6-10)8(3)4/h7-8,10H,5-6H2,1-4H3
CH$LINK: CAS 96-80-0
CH$LINK: INCHIKEY ZYWUVGFIXPNBDL-UHFFFAOYSA-N
CH$LINK: PUBCHEM CID:7313
AC$INSTRUMENT: N/A
AC$INSTRUMENT_TYPE: ESI-QTOF
AC$MASS_SPECTROMETRY: MS_TYPE MS2
AC$MASS_SPECTROMETRY: ION_MODE POSITIVE
AC$MASS_SPECTROMETRY: IONIZATION ESI
AC$MASS_SPECTROMETRY: COLLISION_ENERGY 40
MS$FOCUSED_ION: PRECURSOR_M/Z 146.1539406875
MS$FOCUSED_ION: PRECURSOR_TYPE [M+H]+
MS$DATA_PROCESSING: WHOLE Agilent ChemVista Version 1.0
PK$SPLASH: splash10-0006-9000000000-e44c20f2de648c5a766c
PK$NUM_PEAK: 7
PK$PEAK: m/z int. rel.int.
  39.022927 2.052344 20
  41.038577 29.331518 293
  42.033826 1.169299 11
  43.054227 25.592294 255
  44.049476 100.000001 999
  45.033491 8.754595 87
  62.06004 2.167749 21
//
