ACCESSION: MSBNK-EPA-ENTACT_AGILENT001568
RECORD_TITLE: AM580; ESI-QTOF; MS2; CE: 20; [M-H]-
DATE: 2023.09.19
AUTHORS: EPA CCTE and Agilent Technologies
LICENSE: CC BY
CH$NAME: AM580
CH$COMPOUND_CLASS: N/A
CH$FORMULA: C22H25NO3
CH$EXACT_MASS: 351.1834436718
CH$SMILES: CC1(C)CCC(C)(C)C2C=CC(=CC1=2)C(=O)NC1C=CC(=CC=1)C(O)=O
CH$IUPAC: InChI=1S/C22H25NO3/c1-21(2)11-12-22(3,4)18-13-15(7-10-17(18)21)19(24)23-16-8-5-14(6-9-16)20(25)26/h5-10,13H,11-12H2,1-4H3,(H,23,24)(H,25,26)
CH$LINK: CAS 102121-60-8
CH$LINK: INCHIKEY SZWKGOZKRMMLAJ-UHFFFAOYSA-N
CH$LINK: PUBCHEM CID:2126
AC$INSTRUMENT: N/A
AC$INSTRUMENT_TYPE: ESI-QTOF
AC$MASS_SPECTROMETRY: MS_TYPE MS2
AC$MASS_SPECTROMETRY: ION_MODE NEGATIVE
AC$MASS_SPECTROMETRY: IONIZATION ESI
AC$MASS_SPECTROMETRY: COLLISION_ENERGY 20
MS$FOCUSED_ION: PRECURSOR_M/Z 350.1761672201
MS$FOCUSED_ION: PRECURSOR_TYPE [M-H]-
MS$DATA_PROCESSING: WHOLE Agilent ChemVista Version 1.0
PK$SPLASH: splash10-0udi-0009000000-76c2e5e6aaf7027aa268
PK$NUM_PEAK: 2
PK$PEAK: m/z int. rel.int.
  306.186338 40.614793 405
  350.176167 100.000001 999
//
