ACCESSION: MSBNK-EPA-ENTACT_AGILENT002309
RECORD_TITLE: N-(2-Hydroxyethyl)acetamide; ESI-QTOF; MS2; CE: 40; [M+H]+
DATE: 2023.09.19
AUTHORS: EPA CCTE and Agilent Technologies
LICENSE: CC BY
CH$NAME: N-(2-Hydroxyethyl)acetamide
CH$NAME: DTXSID6044804
CH$COMPOUND_CLASS: N/A
CH$FORMULA: C4H9NO2
CH$EXACT_MASS: 103.0633285391
CH$SMILES: CC(=O)NCCO
CH$IUPAC: InChI=1S/C4H9NO2/c1-4(7)5-2-3-6/h6H,2-3H2,1H3,(H,5,7)
CH$LINK: CAS 142-26-7
CH$LINK: INCHIKEY PVCJKHHOXFKFRP-UHFFFAOYSA-N
CH$LINK: PUBCHEM CID:8880
AC$INSTRUMENT: N/A
AC$INSTRUMENT_TYPE: ESI-QTOF
AC$MASS_SPECTROMETRY: MS_TYPE MS2
AC$MASS_SPECTROMETRY: ION_MODE POSITIVE
AC$MASS_SPECTROMETRY: IONIZATION ESI
AC$MASS_SPECTROMETRY: COLLISION_ENERGY 40
MS$FOCUSED_ION: PRECURSOR_M/Z 104.0706049908
MS$FOCUSED_ION: PRECURSOR_TYPE [M+H]+
MS$DATA_PROCESSING: WHOLE Agilent ChemVista Version 1.0
PK$SPLASH: splash10-0006-9000000000-3cbf842962442dece1e7
PK$NUM_PEAK: 6
PK$PEAK: m/z int. rel.int.
  31.041651 4.705905 47
  42.033826 1.6054 16
  43.017841 100.000001 999
  43.041651 7.045287 70
  44.049476 87.575317 874
  45.033491 28.969397 289
//
