ACCESSION: MSBNK-EPA-ENTACT_AGILENT001252
RECORD_TITLE: DL-Glutamic acid; ESI-QTOF; MS2; CE: 10; [M-H]-
DATE: 2023.09.19
AUTHORS: EPA CCTE and Agilent Technologies
LICENSE: CC BY
CH$NAME: DL-Glutamic acid
CH$NAME: DTXSID6047155
CH$COMPOUND_CLASS: N/A
CH$FORMULA: C5H9NO4
CH$EXACT_MASS: 147.0531577837
CH$SMILES: NC(CCC(O)=O)C(O)=O
CH$IUPAC: InChI=1S/C5H9NO4/c6-3(5(9)10)1-2-4(7)8/h3H,1-2,6H2,(H,7,8)(H,9,10)
CH$LINK: CAS 617-65-2
CH$LINK: INCHIKEY WHUUTDBJXJRKMK-UHFFFAOYSA-N
AC$INSTRUMENT: N/A
AC$INSTRUMENT_TYPE: ESI-QTOF
AC$MASS_SPECTROMETRY: MS_TYPE MS2
AC$MASS_SPECTROMETRY: ION_MODE NEGATIVE
AC$MASS_SPECTROMETRY: IONIZATION ESI
AC$MASS_SPECTROMETRY: COLLISION_ENERGY 10
MS$FOCUSED_ION: PRECURSOR_M/Z 146.045881332
MS$FOCUSED_ION: PRECURSOR_TYPE [M-H]-
MS$DATA_PROCESSING: WHOLE Agilent ChemVista Version 1.0
PK$SPLASH: splash10-0udi-0900000000-2781f2eaf79a1c8bdc73
PK$NUM_PEAK: 8
PK$PEAK: m/z int. rel.int.
  84.045487 1.558367 15
  85.029503 1.582773 15
  101.024418 2.088436 20
  102.032243 1.262247 12
  102.056052 99.999998 999
  128.011507 1.908979 19
  128.035317 42.964735 429
  146.045881 43.213405 431
//
