ACCESSION: MSBNK-EPA-ENTACT_AGILENT001502
RECORD_TITLE: 1,3-Benzenedicarboxylic acid, dihydrazide; ESI-QTOF; MS2; CE: 10; [M-H]-
DATE: 2023.09.19
AUTHORS: EPA CCTE and Agilent Technologies
LICENSE: CC BY
CH$NAME: 1,3-Benzenedicarboxylic acid, dihydrazide
CH$NAME: DTXSID2038813
CH$COMPOUND_CLASS: N/A
CH$FORMULA: C8H10N4O2
CH$EXACT_MASS: 194.0803755932
CH$SMILES: NNC(=O)C1=CC(=CC=C1)C(=O)NN
CH$IUPAC: InChI=1S/C8H10N4O2/c9-11-7(13)5-2-1-3-6(4-5)8(14)12-10/h1-4H,9-10H2,(H,11,13)(H,12,14)
CH$LINK: CAS 2760-98-7
CH$LINK: INCHIKEY UTTHLMXOSUFZCQ-UHFFFAOYSA-N
CH$LINK: PUBCHEM CID:72700
AC$INSTRUMENT: N/A
AC$INSTRUMENT_TYPE: ESI-QTOF
AC$MASS_SPECTROMETRY: MS_TYPE MS2
AC$MASS_SPECTROMETRY: ION_MODE NEGATIVE
AC$MASS_SPECTROMETRY: IONIZATION ESI
AC$MASS_SPECTROMETRY: COLLISION_ENERGY 10
MS$FOCUSED_ION: PRECURSOR_M/Z 193.0730991415
MS$FOCUSED_ION: PRECURSOR_TYPE [M-H]-
MS$DATA_PROCESSING: WHOLE Agilent ChemVista Version 1.0
PK$SPLASH: splash10-000f-1900000000-36f3cf7f83876053acca
PK$NUM_PEAK: 4
PK$PEAK: m/z int. rel.int.
  41.998537 4.934834 49
  57.009436 23.533133 235
  135.056386 92.566926 924
  193.073099 99.999997 999
//
