ACCESSION: MSBNK-EPA-ENTACT_AGILENT001904
RECORD_TITLE: FK 1052; ESI-QTOF; MS2; CE: 20; [M-H]-
DATE: 2023.09.19
AUTHORS: EPA CCTE and Agilent Technologies
LICENSE: CC BY
CH$NAME: FK 1052
CH$COMPOUND_CLASS: N/A
CH$FORMULA: C18H19N3O
CH$EXACT_MASS: 293.1528122506
CH$SMILES: CC1N=CNC=1CC1CCC2=C(C)C3=CC=CC=C3N2C1=O
CH$IUPAC: InChI=1S/C18H19N3O/c1-11-14-5-3-4-6-17(14)21-16(11)8-7-13(18(21)22)9-15-12(2)19-10-20-15/h3-6,10,13H,7-9H2,1-2H3,(H,19,20)
CH$LINK: CAS 129299-72-5
CH$LINK: INCHIKEY AEKQMJRJRAHOAP-UHFFFAOYSA-N
AC$INSTRUMENT: N/A
AC$INSTRUMENT_TYPE: ESI-QTOF
AC$MASS_SPECTROMETRY: MS_TYPE MS2
AC$MASS_SPECTROMETRY: ION_MODE NEGATIVE
AC$MASS_SPECTROMETRY: IONIZATION ESI
AC$MASS_SPECTROMETRY: COLLISION_ENERGY 20
MS$FOCUSED_ION: PRECURSOR_M/Z 292.1455357989
MS$FOCUSED_ION: PRECURSOR_TYPE [M-H]-
MS$DATA_PROCESSING: WHOLE Agilent ChemVista Version 1.0
PK$SPLASH: splash10-000t-4900000000-89f9a3fdfd0e284114ac
PK$NUM_PEAK: 6
PK$PEAK: m/z int. rel.int.
  81.045822 79.249151 791
  144.081873 16.25843 162
  156.081873 38.828238 387
  170.097523 5.060995 50
  198.092438 100.000003 999
  198.141399 1.348212 13
//
