ACCESSION: MSBNK-EPA-ENTACT_AGILENT002408
RECORD_TITLE: Tridecanedioic acid; ESI-QTOF; MS2; CE: 10; [M-H]-
DATE: 2023.09.19
AUTHORS: EPA CCTE and Agilent Technologies
LICENSE: CC BY
CH$NAME: Tridecanedioic acid
CH$NAME: DTXSID9021683
CH$COMPOUND_CLASS: N/A
CH$FORMULA: C13H24O4
CH$EXACT_MASS: 244.1674592548
CH$SMILES: OC(=O)CCCCCCCCCCCC(O)=O
CH$IUPAC: InChI=1S/C13H24O4/c14-12(15)10-8-6-4-2-1-3-5-7-9-11-13(16)17/h1-11H2,(H,14,15)(H,16,17)
CH$LINK: CAS 505-52-2
CH$LINK: INCHIKEY DXNCZXXFRKPEPY-UHFFFAOYSA-N
CH$LINK: PUBCHEM CID:10458
AC$INSTRUMENT: N/A
AC$INSTRUMENT_TYPE: ESI-QTOF
AC$MASS_SPECTROMETRY: MS_TYPE MS2
AC$MASS_SPECTROMETRY: ION_MODE NEGATIVE
AC$MASS_SPECTROMETRY: IONIZATION ESI
AC$MASS_SPECTROMETRY: COLLISION_ENERGY 10
MS$FOCUSED_ION: PRECURSOR_M/Z 243.1601828031
MS$FOCUSED_ION: PRECURSOR_TYPE [M-H]-
MS$DATA_PROCESSING: WHOLE Agilent ChemVista Version 1.0
PK$SPLASH: splash10-0006-0090000000-34059bca095730b91f9f
PK$NUM_PEAK: 3
PK$PEAK: m/z int. rel.int.
  181.159789 8.720654 87
  225.149618 39.727084 396
  243.160183 100 999
//
