ACCESSION: MSBNK-EPA-ENTACT_AGILENT001833
RECORD_TITLE: Tetraisopropyl methylenediphosphonate; ESI-QTOF; MS2; CE: 20; [M+H]+
DATE: 2023.09.19
AUTHORS: EPA CCTE and Agilent Technologies
LICENSE: CC BY
CH$NAME: Tetraisopropyl methylenediphosphonate
CH$NAME: DTXSID7044847
CH$COMPOUND_CLASS: N/A
CH$FORMULA: C13H30O6P2
CH$EXACT_MASS: 344.1517616708
CH$SMILES: CC(C)OP(=O)(CP(=O)(OC(C)C)OC(C)C)OC(C)C
CH$IUPAC: InChI=1S/C13H30O6P2/c1-10(2)16-20(14,17-11(3)4)9-21(15,18-12(5)6)19-13(7)8/h10-13H,9H2,1-8H3
CH$LINK: CAS 1660-95-3
CH$LINK: INCHIKEY ODTQUKVFOLFLIQ-UHFFFAOYSA-N
CH$LINK: PUBCHEM CID:74266
AC$INSTRUMENT: N/A
AC$INSTRUMENT_TYPE: ESI-QTOF
AC$MASS_SPECTROMETRY: MS_TYPE MS2
AC$MASS_SPECTROMETRY: ION_MODE POSITIVE
AC$MASS_SPECTROMETRY: IONIZATION ESI
AC$MASS_SPECTROMETRY: COLLISION_ENERGY 20
MS$FOCUSED_ION: PRECURSOR_M/Z 345.1590381225
MS$FOCUSED_ION: PRECURSOR_TYPE [M+H]+
MS$DATA_PROCESSING: WHOLE Agilent ChemVista Version 1.0
PK$SPLASH: splash10-004i-0900000000-d9e0ecf2a8a0684a0c38
PK$NUM_PEAK: 6
PK$PEAK: m/z int. rel.int.
  98.984172 1.465271 14
  158.960673 3.74075 37
  176.971237 100 999
  177.022879 3.474928 34
  177.039364 2.18776 21
  219.018188 7.068801 70
//
