ACCESSION: MSBNK-EPA-ENTACT_AGILENT001514
RECORD_TITLE: 2-Chloro-5-nitro-N-phenylbenzamide; ESI-QTOF; MS2; CE: 10; [M-H]-
DATE: 2023.09.19
AUTHORS: EPA CCTE and Agilent Technologies
LICENSE: CC BY
CH$NAME: 2-Chloro-5-nitro-N-phenylbenzamide
CH$NAME: DTXSID8040723
CH$COMPOUND_CLASS: N/A
CH$FORMULA: C13H9ClN2O3
CH$EXACT_MASS: 276.0301698788
CH$SMILES: [O-][N+](=O)C1C=C(C(Cl)=CC=1)C(=O)NC1C=CC=CC=1
CH$IUPAC: InChI=1S/C13H9ClN2O3/c14-12-7-6-10(16(18)19)8-11(12)13(17)15-9-4-2-1-3-5-9/h1-8H,(H,15,17)
CH$LINK: CAS 22978-25-2
CH$LINK: INCHIKEY DNTSIBUQMRRYIU-UHFFFAOYSA-N
CH$LINK: PUBCHEM CID:644213
AC$INSTRUMENT: N/A
AC$INSTRUMENT_TYPE: ESI-QTOF
AC$MASS_SPECTROMETRY: MS_TYPE MS2
AC$MASS_SPECTROMETRY: ION_MODE NEGATIVE
AC$MASS_SPECTROMETRY: IONIZATION ESI
AC$MASS_SPECTROMETRY: COLLISION_ENERGY 10
MS$FOCUSED_ION: PRECURSOR_M/Z 275.0228934271
MS$FOCUSED_ION: PRECURSOR_TYPE [M-H]-
MS$DATA_PROCESSING: WHOLE Agilent ChemVista Version 1.0
PK$SPLASH: splash10-0a4i-0910000000-c7e1ca4669f41a652a6d
PK$NUM_PEAK: 5
PK$PEAK: m/z int. rel.int.
  34.969401 8.045373 80
  155.98578 100.000002 999
  156.032911 3.307831 33
  156.054041 1.760406 17
  275.022893 23.165795 231
//
