ACCESSION: MSBNK-EPA-ENTACT_AGILENT002370
RECORD_TITLE: 2-Ethylhexyl sulfate; ESI-QTOF; MS2; CE: 10; [M-H]-
DATE: 2023.09.19
AUTHORS: EPA CCTE and Agilent Technologies
LICENSE: CC BY
CH$NAME: 2-Ethylhexyl sulfate
CH$NAME: DTXSID0057887
CH$COMPOUND_CLASS: N/A
CH$FORMULA: C8H18O4S
CH$EXACT_MASS: 210.0925797934
CH$SMILES: CCCCC(COS(O)(=O)=O)CC
CH$IUPAC: InChI=1S/C8H18O4S/c1-3-5-6-8(4-2)7-12-13(9,10)11/h8H,3-7H2,1-2H3,(H,9,10,11)
CH$LINK: CAS 72214-01-8
CH$LINK: INCHIKEY MHGOKSLTIUHUBF-UHFFFAOYSA-N
AC$INSTRUMENT: N/A
AC$INSTRUMENT_TYPE: ESI-QTOF
AC$MASS_SPECTROMETRY: MS_TYPE MS2
AC$MASS_SPECTROMETRY: ION_MODE NEGATIVE
AC$MASS_SPECTROMETRY: IONIZATION ESI
AC$MASS_SPECTROMETRY: COLLISION_ENERGY 10
MS$FOCUSED_ION: PRECURSOR_M/Z 209.0853033417
MS$FOCUSED_ION: PRECURSOR_TYPE [M-H]-
MS$DATA_PROCESSING: WHOLE Agilent ChemVista Version 1.0
PK$SPLASH: splash10-0a4i-1090000000-fa3c1a5ab30f962e4cf7
PK$NUM_PEAK: 2
PK$PEAK: m/z int. rel.int.
  96.960103 18.175039 181
  209.085303 100.000003 999
//
