ACCESSION: MSBNK-EPA-ENTACT_AGILENT000865
RECORD_TITLE: 3,3'-(4-Methylbenzene-1,3-diyl)bis(1,1-dimethylurea); ESI-QTOF; MS2; CE: 20; [M+H]+
DATE: 2023.05.02
AUTHORS: EPA CCTE and Agilent Technologies
LICENSE: CC BY
CH$NAME: 3,3'-(4-Methylbenzene-1,3-diyl)bis(1,1-dimethylurea)
CH$NAME: DTXSID0044606
CH$COMPOUND_CLASS: N/A
CH$FORMULA: C13H20N4O2
CH$EXACT_MASS: 264.1586259122
CH$SMILES: CC1=CC=C(C=C1NC(=O)N(C)C)NC(=O)N(C)C
CH$IUPAC: InChI=1S/C13H20N4O2/c1-9-6-7-10(14-12(18)16(2)3)8-11(9)15-13(19)17(4)5/h6-8H,1-5H3,(H,14,18)(H,15,19)
CH$LINK: CAS 17526-94-2
CH$LINK: INCHIKEY KDQTUCKOAOGTLT-UHFFFAOYSA-N
CH$LINK: PUBCHEM CID:87146
AC$INSTRUMENT: N/A
AC$INSTRUMENT_TYPE: ESI-QTOF
AC$MASS_SPECTROMETRY: MS_TYPE MS2
AC$MASS_SPECTROMETRY: ION_MODE POSITIVE
AC$MASS_SPECTROMETRY: IONIZATION ESI
AC$MASS_SPECTROMETRY: COLLISION_ENERGY 20
MS$FOCUSED_ION: PRECURSOR_M/Z 265.1659023639
MS$FOCUSED_ION: PRECURSOR_TYPE [M+H]+
MS$DATA_PROCESSING: WHOLE Agilent ChemVista Version 1.0
PK$SPLASH: splash10-0002-9000000000-5c678718f7c0293908a0
PK$NUM_PEAK: 5
PK$PEAK: m/z int. rel.int.
  46.065126 100 999
  46.098831 1.144385 11
  72.04439 8.650922 86
  175.050204 2.31517 23
  220.108053 9.510036 95
//
