ACCESSION: MSBNK-EPA-ENTACT_AGILENT000769
RECORD_TITLE: Bis(2-ethylhexyl) phosphate; ESI-QTOF; MS2; CE: 10; [M+H]+
DATE: 2023.05.02
AUTHORS: EPA CCTE and Agilent Technologies
LICENSE: CC BY
CH$NAME: Bis(2-ethylhexyl) phosphate
CH$NAME: DTXSID1027134
CH$COMPOUND_CLASS: N/A
CH$FORMULA: C16H35O4P
CH$EXACT_MASS: 322.2272960957
CH$SMILES: CCCCC(COP(O)(=O)OCC(CCCC)CC)CC
CH$IUPAC: InChI=1S/C16H35O4P/c1-5-9-11-15(7-3)13-19-21(17,18)20-14-16(8-4)12-10-6-2/h15-16H,5-14H2,1-4H3,(H,17,18)
CH$LINK: CAS 298-07-7
CH$LINK: INCHIKEY SEGLCEQVOFDUPX-UHFFFAOYSA-N
CH$LINK: PUBCHEM CID:9275
AC$INSTRUMENT: N/A
AC$INSTRUMENT_TYPE: ESI-QTOF
AC$MASS_SPECTROMETRY: MS_TYPE MS2
AC$MASS_SPECTROMETRY: ION_MODE POSITIVE
AC$MASS_SPECTROMETRY: IONIZATION ESI
AC$MASS_SPECTROMETRY: COLLISION_ENERGY 10
MS$FOCUSED_ION: PRECURSOR_M/Z 323.2345725474
MS$FOCUSED_ION: PRECURSOR_TYPE [M+H]+
MS$DATA_PROCESSING: WHOLE Agilent ChemVista Version 1.0
PK$SPLASH: splash10-0002-9000000000-9bdad2dac41f880461dc
PK$NUM_PEAK: 7
PK$PEAK: m/z int. rel.int.
  57.069877 13.698469 136
  71.085527 25.335713 253
  80.973607 2.087059 20
  98.984172 100.000001 999
  99.020557 2.100199 20
  99.035813 1.005473 10
  113.132477 2.145515 21
//
