ACCESSION: MSBNK-EPA-ENTACT_AGILENT000770
RECORD_TITLE: Bis(2-ethylhexyl) phosphate; ESI-QTOF; MS2; CE: 40; [M+H]+
DATE: 2023.05.02
AUTHORS: EPA CCTE and Agilent Technologies
LICENSE: CC BY
CH$NAME: Bis(2-ethylhexyl) phosphate
CH$NAME: DTXSID1027134
CH$COMPOUND_CLASS: N/A
CH$FORMULA: C16H35O4P
CH$EXACT_MASS: 322.2272960957
CH$SMILES: CCCCC(COP(O)(=O)OCC(CCCC)CC)CC
CH$IUPAC: InChI=1S/C16H35O4P/c1-5-9-11-15(7-3)13-19-21(17,18)20-14-16(8-4)12-10-6-2/h15-16H,5-14H2,1-4H3,(H,17,18)
CH$LINK: CAS 298-07-7
CH$LINK: INCHIKEY SEGLCEQVOFDUPX-UHFFFAOYSA-N
CH$LINK: PUBCHEM CID:9275
AC$INSTRUMENT: N/A
AC$INSTRUMENT_TYPE: ESI-QTOF
AC$MASS_SPECTROMETRY: MS_TYPE MS2
AC$MASS_SPECTROMETRY: ION_MODE POSITIVE
AC$MASS_SPECTROMETRY: IONIZATION ESI
AC$MASS_SPECTROMETRY: COLLISION_ENERGY 40
MS$FOCUSED_ION: PRECURSOR_M/Z 323.2345725474
MS$FOCUSED_ION: PRECURSOR_TYPE [M+H]+
MS$DATA_PROCESSING: WHOLE Agilent ChemVista Version 1.0
PK$SPLASH: splash10-0002-9000000000-b746a8d38240f1fe22c2
PK$NUM_PEAK: 7
PK$PEAK: m/z int. rel.int.
  41.038577 3.185484 31
  43.054227 11.538842 115
  57.069877 16.436463 164
  71.085527 5.471608 54
  80.973607 19.652124 196
  98.984172 99.999996 999
  99.020557 2.235591 22
//
