ACCESSION: MSBNK-EPA-ENTACT_AGILENT000307
RECORD_TITLE: 2,4-Dichloro-N-(naphthalene-2-yl)benzamide; ESI-QTOF; MS2; CE: 40; [M-H]-
DATE: 2023.05.02
AUTHORS: EPA CCTE and Agilent Technologies
LICENSE: CC BY
CH$NAME: 2,4-Dichloro-N-(naphthalene-2-yl)benzamide
CH$NAME: DTXSID7058707
CH$COMPOUND_CLASS: N/A
CH$FORMULA: C17H11Cl2NO
CH$EXACT_MASS: 315.0217694006
CH$SMILES: O=C(NC1=CC2C=CC=CC=2C=C1)C1=CC=C(Cl)C=C1Cl
CH$IUPAC: InChI=1S/C17H11Cl2NO/c18-13-6-8-15(16(19)10-13)17(21)20-14-7-5-11-3-1-2-4-12(11)9-14/h1-10H,(H,20,21)
CH$LINK: CAS 199726-92-6
CH$LINK: INCHIKEY VIIUCTJYUORQFK-UHFFFAOYSA-N
CH$LINK: PUBCHEM CID:292795
AC$INSTRUMENT: N/A
AC$INSTRUMENT_TYPE: ESI-QTOF
AC$MASS_SPECTROMETRY: MS_TYPE MS2
AC$MASS_SPECTROMETRY: ION_MODE NEGATIVE
AC$MASS_SPECTROMETRY: IONIZATION ESI
AC$MASS_SPECTROMETRY: COLLISION_ENERGY 40
MS$FOCUSED_ION: PRECURSOR_M/Z 314.0144929489
MS$FOCUSED_ION: PRECURSOR_TYPE [M-H]-
MS$DATA_PROCESSING: WHOLE Agilent ChemVista Version 1.0
PK$SPLASH: splash10-001i-9000000000-b29beb9e009c0f34a758
PK$NUM_PEAK: 2
PK$PEAK: m/z int. rel.int.
  34.969401 99.999999 999
  41.998537 4.524087 45
//
