ACCESSION: MSBNK-EPA-ENTACT_AGILENT000389
RECORD_TITLE: 2-Propene-1-sulfonic acid; ESI-QTOF; MS2; CE: 10; [M-H]-
DATE: 2023.05.02
AUTHORS: EPA CCTE and Agilent Technologies
LICENSE: CC BY
CH$NAME: 2-Propene-1-sulfonic acid
CH$NAME: DTXSID3041451
CH$COMPOUND_CLASS: N/A
CH$FORMULA: C3H6O3S
CH$EXACT_MASS: 122.0037647883
CH$SMILES: C=CCS(O)(=O)=O
CH$IUPAC: InChI=1S/C3H6O3S/c1-2-3-7(4,5)6/h2H,1,3H2,(H,4,5,6)
CH$LINK: CAS 1606-80-0
CH$LINK: INCHIKEY UIIIBRHUICCMAI-UHFFFAOYSA-N
CH$LINK: PUBCHEM CID:23690996
AC$INSTRUMENT: N/A
AC$INSTRUMENT_TYPE: ESI-QTOF
AC$MASS_SPECTROMETRY: MS_TYPE MS2
AC$MASS_SPECTROMETRY: ION_MODE NEGATIVE
AC$MASS_SPECTROMETRY: IONIZATION ESI
AC$MASS_SPECTROMETRY: COLLISION_ENERGY 10
MS$FOCUSED_ION: PRECURSOR_M/Z 120.9964883366
MS$FOCUSED_ION: PRECURSOR_TYPE [M-H]-
MS$DATA_PROCESSING: WHOLE Agilent ChemVista Version 1.0
PK$SPLASH: splash10-004i-9100000000-250b42ad00ff1dd01828
PK$NUM_PEAK: 3
PK$PEAK: m/z int. rel.int.
  79.957363 99.999997 999
  79.993749 2.693242 26
  120.996488 21.679233 216
//
