ACCESSION: MSBNK-EPA-ENTACT_AGILENT002161
RECORD_TITLE: N-(2,4-Dimethylphenyl)acetamide; ESI-QTOF; MS2; CE: 20; [M+H]+
DATE: 2023.09.19
AUTHORS: EPA CCTE and Agilent Technologies
LICENSE: CC BY
CH$NAME: N-(2,4-Dimethylphenyl)acetamide
CH$NAME: DTXSID0044868
CH$COMPOUND_CLASS: N/A
CH$FORMULA: C10H13NO
CH$EXACT_MASS: 163.0997140444
CH$SMILES: CC1C=C(C)C(=CC=1)NC(C)=O
CH$IUPAC: InChI=1S/C10H13NO/c1-7-4-5-10(8(2)6-7)11-9(3)12/h4-6H,1-3H3,(H,11,12)
CH$LINK: CAS 2050-43-3
CH$LINK: INCHIKEY PJEIIBXJUDOMAN-UHFFFAOYSA-N
CH$LINK: PUBCHEM CID:16303
AC$INSTRUMENT: N/A
AC$INSTRUMENT_TYPE: ESI-QTOF
AC$MASS_SPECTROMETRY: MS_TYPE MS2
AC$MASS_SPECTROMETRY: ION_MODE POSITIVE
AC$MASS_SPECTROMETRY: IONIZATION ESI
AC$MASS_SPECTROMETRY: COLLISION_ENERGY 20
MS$FOCUSED_ION: PRECURSOR_M/Z 164.1069904961
MS$FOCUSED_ION: PRECURSOR_TYPE [M+H]+
MS$DATA_PROCESSING: WHOLE Agilent ChemVista Version 1.0
PK$SPLASH: splash10-05fr-0900000000-03aac691dabd7955746b
PK$NUM_PEAK: 8
PK$PEAK: m/z int. rel.int.
  43.017841 9.121296 91
  79.054227 1.185676 11
  105.069877 9.874323 98
  106.065126 4.656323 46
  107.072951 66.35819 662
  122.096426 99.999998 999
  123.080441 1.858841 18
  164.10699 7.224472 72
//
