ACCESSION: MSBNK-EPA-ENTACT_AGILENT001434
RECORD_TITLE: 3-Chloro-7-hydroxy-4-methyl-2-benzopyrone; ESI-QTOF; MS2; CE: 40; [M-H]-
DATE: 2023.09.19
AUTHORS: EPA CCTE and Agilent Technologies
LICENSE: CC BY
CH$NAME: 3-Chloro-7-hydroxy-4-methyl-2-benzopyrone
CH$NAME: DTXSID8052724
CH$COMPOUND_CLASS: N/A
CH$FORMULA: C10H7ClO3
CH$EXACT_MASS: 210.0083718002
CH$SMILES: CC1=C(Cl)C(=O)OC2C=C(O)C=CC=21
CH$IUPAC: InChI=1S/C10H7ClO3/c1-5-7-3-2-6(12)4-8(7)14-10(13)9(5)11/h2-4,12H,1H3
CH$LINK: CAS 6174-86-3
CH$LINK: INCHIKEY ODZHLDRQCZXQFQ-UHFFFAOYSA-N
CH$LINK: PUBCHEM CID:5355079
AC$INSTRUMENT: N/A
AC$INSTRUMENT_TYPE: ESI-QTOF
AC$MASS_SPECTROMETRY: MS_TYPE MS2
AC$MASS_SPECTROMETRY: ION_MODE NEGATIVE
AC$MASS_SPECTROMETRY: IONIZATION ESI
AC$MASS_SPECTROMETRY: COLLISION_ENERGY 40
MS$FOCUSED_ION: PRECURSOR_M/Z 209.0010953485
MS$FOCUSED_ION: PRECURSOR_TYPE [M-H]-
MS$DATA_PROCESSING: WHOLE Agilent ChemVista Version 1.0
PK$SPLASH: splash10-00lr-9500000000-1ef865b37ecb3df2ec5f
PK$NUM_PEAK: 6
PK$PEAK: m/z int. rel.int.
  34.969401 99.999998 999
  41.003288 3.100022 30
  89.039674 11.179957 111
  116.026763 1.26484 12
  117.034588 63.752787 636
  145.029503 7.497784 74
//
