ACCESSION: MSBNK-EPA-ENTACT_AGILENT001803
RECORD_TITLE: 3-((Ethylphenylamino)methyl)benzenesulfonic acid; ESI-QTOF; MS2; CE: 20; [M+H]+
DATE: 2023.09.19
AUTHORS: EPA CCTE and Agilent Technologies
LICENSE: CC BY
CH$NAME: 3-((Ethylphenylamino)methyl)benzenesulfonic acid
CH$COMPOUND_CLASS: N/A
CH$FORMULA: C15H17NO3S
CH$EXACT_MASS: 291.0929141466
CH$SMILES: CCN(CC1=CC(=CC=C1)S(O)(=O)=O)C1C=CC=CC=1
CH$IUPAC: InChI=1S/C15H17NO3S/c1-2-16(14-8-4-3-5-9-14)12-13-7-6-10-15(11-13)20(17,18)19/h3-11H,2,12H2,1H3,(H,17,18,19)
CH$LINK: CAS 101-11-1
CH$LINK: INCHIKEY BQGRVFPPZJPWPB-UHFFFAOYSA-N
CH$LINK: PUBCHEM CID:66858
AC$INSTRUMENT: N/A
AC$INSTRUMENT_TYPE: ESI-QTOF
AC$MASS_SPECTROMETRY: MS_TYPE MS2
AC$MASS_SPECTROMETRY: ION_MODE POSITIVE
AC$MASS_SPECTROMETRY: IONIZATION ESI
AC$MASS_SPECTROMETRY: COLLISION_ENERGY 20
MS$FOCUSED_ION: PRECURSOR_M/Z 292.1001905983
MS$FOCUSED_ION: PRECURSOR_TYPE [M+H]+
MS$DATA_PROCESSING: WHOLE Agilent ChemVista Version 1.0
PK$SPLASH: splash10-00di-0900000000-aba5896dfca7e3763c45
PK$NUM_PEAK: 7
PK$PEAK: m/z int. rel.int.
  106.065126 33.548113 335
  120.080776 3.959674 39
  121.088601 99.999997 999
  171.01035 3.438705 34
  182.093746 1.509301 15
  210.127726 1.282977 12
  292.100191 6.86574 68
//
