ACCESSION: MSBNK-EPA-ENTACT_AGILENT001239
RECORD_TITLE: Dimethyl phosphate; ESI-QTOF; MS2; CE: 40; [M-H]-
DATE: 2023.09.19
AUTHORS: EPA CCTE and Agilent Technologies
LICENSE: CC BY
CH$NAME: Dimethyl phosphate
CH$COMPOUND_CLASS: N/A
CH$FORMULA: C2H7O4P
CH$EXACT_MASS: 126.0081952025
CH$SMILES: COP(O)(=O)OC
CH$IUPAC: InChI=1S/C2H7O4P/c1-5-7(3,4)6-2/h1-2H3,(H,3,4)
CH$LINK: CAS 813-78-5
CH$LINK: INCHIKEY KKUKTXOBAWVSHC-UHFFFAOYSA-N
CH$LINK: PUBCHEM CID:13134
AC$INSTRUMENT: N/A
AC$INSTRUMENT_TYPE: ESI-QTOF
AC$MASS_SPECTROMETRY: MS_TYPE MS2
AC$MASS_SPECTROMETRY: ION_MODE NEGATIVE
AC$MASS_SPECTROMETRY: IONIZATION ESI
AC$MASS_SPECTROMETRY: COLLISION_ENERGY 40
MS$FOCUSED_ION: PRECURSOR_M/Z 125.0009187508
MS$FOCUSED_ION: PRECURSOR_TYPE [M-H]-
MS$DATA_PROCESSING: WHOLE Agilent ChemVista Version 1.0
PK$SPLASH: splash10-004i-9000000000-da5ccf8dd5a050c095c7
PK$NUM_PEAK: 4
PK$PEAK: m/z int. rel.int.
  62.964139 25.562619 255
  78.959054 100.000005 999
  78.995439 3.73158 37
  79.003682 2.244571 22
//
