ACCESSION: MSBNK-EPA-ENTACT_AGILENT002005
RECORD_TITLE: Phosphoric acid, dibutyl ester; ESI-QTOF; MS2; CE: 20; [M+H]+
DATE: 2023.09.19
AUTHORS: EPA CCTE and Agilent Technologies
LICENSE: CC BY
CH$NAME: Phosphoric acid, dibutyl ester
CH$COMPOUND_CLASS: N/A
CH$FORMULA: C8H19O4P
CH$EXACT_MASS: 210.1020955853
CH$SMILES: CCCCOP(O)(=O)OCCCC
CH$IUPAC: InChI=1S/C8H19O4P/c1-3-5-7-11-13(9,10)12-8-6-4-2/h3-8H2,1-2H3,(H,9,10)
CH$LINK: CAS 107-66-4
CH$LINK: INCHIKEY JYFHYPJRHGVZDY-UHFFFAOYSA-N
CH$LINK: PUBCHEM CID:7881
AC$INSTRUMENT: N/A
AC$INSTRUMENT_TYPE: ESI-QTOF
AC$MASS_SPECTROMETRY: MS_TYPE MS2
AC$MASS_SPECTROMETRY: ION_MODE POSITIVE
AC$MASS_SPECTROMETRY: IONIZATION ESI
AC$MASS_SPECTROMETRY: COLLISION_ENERGY 20
MS$FOCUSED_ION: PRECURSOR_M/Z 211.109372037
MS$FOCUSED_ION: PRECURSOR_TYPE [M+H]+
MS$DATA_PROCESSING: WHOLE Agilent ChemVista Version 1.0
PK$SPLASH: splash10-0002-9000000000-3c3bbf75bb67fc0dae6b
PK$NUM_PEAK: 5
PK$PEAK: m/z int. rel.int.
  41.038577 2.227083 22
  57.069877 5.433203 54
  80.973607 4.862829 48
  98.984172 100.000002 999
  99.022927 1.85597 18
//
