ACCESSION: MSBNK-EPA-ENTACT_AGILENT000885
RECORD_TITLE: 2,3-Diaminopyridine; ESI-QTOF; MS2; CE: 10; [M+H]+
DATE: 2023.05.02
AUTHORS: EPA CCTE and Agilent Technologies
LICENSE: CC BY
CH$NAME: 2,3-Diaminopyridine
CH$NAME: DTXSID0051493
CH$COMPOUND_CLASS: N/A
CH$FORMULA: C5H7N3
CH$EXACT_MASS: 109.0639972455
CH$SMILES: NC1=NC=CC=C1N
CH$IUPAC: InChI=1S/C5H7N3/c6-4-2-1-3-8-5(4)7/h1-3H,6H2,(H2,7,8)
CH$LINK: CAS 452-58-4
CH$LINK: INCHIKEY ZZYXNRREDYWPLN-UHFFFAOYSA-N
CH$LINK: PUBCHEM CID:9956
AC$INSTRUMENT: N/A
AC$INSTRUMENT_TYPE: ESI-QTOF
AC$MASS_SPECTROMETRY: MS_TYPE MS2
AC$MASS_SPECTROMETRY: ION_MODE POSITIVE
AC$MASS_SPECTROMETRY: IONIZATION ESI
AC$MASS_SPECTROMETRY: COLLISION_ENERGY 10
MS$FOCUSED_ION: PRECURSOR_M/Z 110.0712736972
MS$FOCUSED_ION: PRECURSOR_TYPE [M+H]+
MS$DATA_PROCESSING: WHOLE Agilent ChemVista Version 1.0
PK$SPLASH: splash10-03di-1900000000-70737b777f0fb469f67d
PK$NUM_PEAK: 4
PK$PEAK: m/z int. rel.int.
  66.033826 1.407163 14
  83.060375 1.499609 14
  93.044725 17.568312 175
  110.071274 100.000002 999
//
