ACCESSION: MSBNK-EPA-ENTACT_AGILENT000875
RECORD_TITLE: 2,2',5,5'-Tetrachlorobenzidine; ESI-QTOF; MS2; CE: 10; [M-H]-
DATE: 2023.05.02
AUTHORS: EPA CCTE and Agilent Technologies
LICENSE: CC BY
CH$NAME: 2,2',5,5'-Tetrachlorobenzidine
CH$NAME: DTXSID7021314
CH$COMPOUND_CLASS: N/A
CH$FORMULA: C12H8Cl4N2
CH$EXACT_MASS: 319.94415911
CH$SMILES: NC1C=C(Cl)C(=CC=1Cl)C1C=C(Cl)C(N)=CC=1Cl
CH$IUPAC: InChI=1S/C12H8Cl4N2/c13-7-3-11(17)9(15)1-5(7)6-2-10(16)12(18)4-8(6)14/h1-4H,17-18H2
CH$LINK: CAS 15721-02-5
CH$LINK: INCHIKEY UXOXUHMFQZEAFR-UHFFFAOYSA-N
CH$LINK: PUBCHEM CID:27465
AC$INSTRUMENT: N/A
AC$INSTRUMENT_TYPE: ESI-QTOF
AC$MASS_SPECTROMETRY: MS_TYPE MS2
AC$MASS_SPECTROMETRY: ION_MODE NEGATIVE
AC$MASS_SPECTROMETRY: IONIZATION ESI
AC$MASS_SPECTROMETRY: COLLISION_ENERGY 10
MS$FOCUSED_ION: PRECURSOR_M/Z 318.9368826583
MS$FOCUSED_ION: PRECURSOR_TYPE [M-H]-
MS$DATA_PROCESSING: WHOLE Agilent ChemVista Version 1.0
PK$SPLASH: splash10-014i-0009000000-d7f06bc11ee1f7a621ed
PK$NUM_PEAK: 2
PK$PEAK: m/z int. rel.int.
  282.960205 2.486915 24
  318.936883 99.999999 999
//
