ACCESSION: MSBNK-EPA-ENTACT_AGILENT000822
RECORD_TITLE: PHA-00568487; ESI-QTOF; MS2; CE: 20; [M+H]+
DATE: 2023.05.02
AUTHORS: EPA CCTE and Agilent Technologies
LICENSE: CC BY
CH$NAME: PHA-00568487
CH$NAME: DTXSID1047285
CH$COMPOUND_CLASS: N/A
CH$FORMULA: C16H20N2O3
CH$EXACT_MASS: 288.1473925197
CH$SMILES: O=C(NC1CN2CCC1CC2)C1C=C2OCCOC2=CC=1
CH$IUPAC: InChI=1S/C16H20N2O3/c19-16(17-13-10-18-5-3-11(13)4-6-18)12-1-2-14-15(9-12)21-8-7-20-14/h1-2,9,11,13H,3-8,10H2,(H,17,19)
CH$LINK: CAS 527680-56-4
CH$LINK: INCHIKEY LUVXHMJTVXZFPD-UHFFFAOYSA-N
CH$LINK: PUBCHEM CID:9932000
AC$INSTRUMENT: N/A
AC$INSTRUMENT_TYPE: ESI-QTOF
AC$MASS_SPECTROMETRY: MS_TYPE MS2
AC$MASS_SPECTROMETRY: ION_MODE POSITIVE
AC$MASS_SPECTROMETRY: IONIZATION ESI
AC$MASS_SPECTROMETRY: COLLISION_ENERGY 20
MS$FOCUSED_ION: PRECURSOR_M/Z 289.1546689714
MS$FOCUSED_ION: PRECURSOR_TYPE [M+H]+
MS$DATA_PROCESSING: WHOLE Agilent ChemVista Version 1.0
PK$SPLASH: splash10-000i-0290000000-99cb546b39d999c52d61
PK$NUM_PEAK: 5
PK$PEAK: m/z int. rel.int.
  82.065126 1.846373 18
  110.096426 11.828992 118
  128.10699 2.465312 24
  163.038971 11.961869 119
  289.154669 100 999
//
