ACCESSION: MSBNK-EPA-ENTACT_AGILENT000478
RECORD_TITLE: Diethyl (N,N-bis(2-hydroxyethyl)amino)methanephosphonate; ESI-QTOF; MS2; CE: 10; [M+H]+
DATE: 2023.05.02
AUTHORS: EPA CCTE and Agilent Technologies
LICENSE: CC BY
CH$NAME: Diethyl (N,N-bis(2-hydroxyethyl)amino)methanephosphonate
CH$NAME: DTXSID2029242
CH$COMPOUND_CLASS: N/A
CH$FORMULA: C9H22NO5P
CH$EXACT_MASS: 255.1235593107
CH$SMILES: CCOP(=O)(CN(CCO)CCO)OCC
CH$IUPAC: InChI=1S/C9H22NO5P/c1-3-14-16(13,15-4-2)9-10(5-7-11)6-8-12/h11-12H,3-9H2,1-2H3
CH$LINK: CAS 2781-11-5
CH$LINK: INCHIKEY CCJKFLLIJCGHMO-UHFFFAOYSA-N
CH$LINK: PUBCHEM CID:17722
AC$INSTRUMENT: N/A
AC$INSTRUMENT_TYPE: ESI-QTOF
AC$MASS_SPECTROMETRY: MS_TYPE MS2
AC$MASS_SPECTROMETRY: ION_MODE POSITIVE
AC$MASS_SPECTROMETRY: IONIZATION ESI
AC$MASS_SPECTROMETRY: COLLISION_ENERGY 10
MS$FOCUSED_ION: PRECURSOR_M/Z 256.1308357624
MS$FOCUSED_ION: PRECURSOR_TYPE [M+H]+
MS$DATA_PROCESSING: WHOLE Agilent ChemVista Version 1.0
PK$SPLASH: splash10-014i-0900000000-2d2ed5a7d7b6bea394e0
PK$NUM_PEAK: 6
PK$PEAK: m/z int. rel.int.
  74.06004 1.024044 10
  89.059706 1.086909 10
  102.09134 1.011454 10
  118.086255 100.000001 999
  118.122641 2.152047 21
  256.130836 6.461302 64
//
