ACCESSION: MSBNK-EPA-ENTACT_AGILENT000144
RECORD_TITLE: Sulfotobias acid; ESI-QTOF; MS2; CE: 10; [M-H]-
DATE: 2023.05.02
AUTHORS: EPA CCTE and Agilent Technologies
LICENSE: CC BY
CH$NAME: Sulfotobias acid
CH$NAME: DTXSID9044611
CH$COMPOUND_CLASS: N/A
CH$FORMULA: C10H9NO6S2
CH$EXACT_MASS: 302.9871284883
CH$SMILES: NC1C=CC2C(=CC=CC=2C=1S(O)(=O)=O)S(O)(=O)=O
CH$IUPAC: InChI=1S/C10H9NO6S2/c11-8-5-4-6-7(10(8)19(15,16)17)2-1-3-9(6)18(12,13)14/h1-5H,11H2,(H,12,13,14)(H,15,16,17)
CH$LINK: CAS 117-62-4
CH$LINK: INCHIKEY YAIKCRUPEVOINQ-UHFFFAOYSA-N
AC$INSTRUMENT: N/A
AC$INSTRUMENT_TYPE: ESI-QTOF
AC$MASS_SPECTROMETRY: MS_TYPE MS2
AC$MASS_SPECTROMETRY: ION_MODE NEGATIVE
AC$MASS_SPECTROMETRY: IONIZATION ESI
AC$MASS_SPECTROMETRY: COLLISION_ENERGY 10
MS$FOCUSED_ION: PRECURSOR_M/Z 301.9798520366
MS$FOCUSED_ION: PRECURSOR_TYPE [M-H]-
MS$DATA_PROCESSING: WHOLE Agilent ChemVista Version 1.0
PK$SPLASH: splash10-0uk9-0089000000-17a3abe4d952cffdfdfe
PK$NUM_PEAK: 3
PK$PEAK: m/z int. rel.int.
  221.981469 1.673158 16
  222.023037 93.74246 936
  301.979852 99.999999 999
//
