ACCESSION: MSBNK-EPA-ENTACT_AGILENT002138
RECORD_TITLE: 3-tert-Butylphenol; ESI-QTOF; MS2; CE: 20; [M-H]-
DATE: 2023.09.19
AUTHORS: EPA CCTE and Agilent Technologies
LICENSE: CC BY
CH$NAME: 3-tert-Butylphenol
CH$NAME: DTXSID9044825
CH$COMPOUND_CLASS: N/A
CH$FORMULA: C10H14O
CH$EXACT_MASS: 150.1044650689
CH$SMILES: CC(C)(C)C1C=C(O)C=CC=1
CH$IUPAC: InChI=1S/C10H14O/c1-10(2,3)8-5-4-6-9(11)7-8/h4-7,11H,1-3H3
CH$LINK: CAS 585-34-2
CH$LINK: INCHIKEY CYEKUDPFXBLGHH-UHFFFAOYSA-N
CH$LINK: PUBCHEM CID:11450
AC$INSTRUMENT: N/A
AC$INSTRUMENT_TYPE: ESI-QTOF
AC$MASS_SPECTROMETRY: MS_TYPE MS2
AC$MASS_SPECTROMETRY: ION_MODE NEGATIVE
AC$MASS_SPECTROMETRY: IONIZATION ESI
AC$MASS_SPECTROMETRY: COLLISION_ENERGY 20
MS$FOCUSED_ION: PRECURSOR_M/Z 149.0971886172
MS$FOCUSED_ION: PRECURSOR_TYPE [M-H]-
MS$DATA_PROCESSING: WHOLE Agilent ChemVista Version 1.0
PK$SPLASH: splash10-001i-0900000000-aa1ad9e29fc886dde965
PK$NUM_PEAK: 7
PK$PEAK: m/z int. rel.int.
  92.026763 2.334383 23
  106.042413 1.358713 13
  117.034588 1.637147 16
  119.050238 1.517306 15
  133.065888 99.999995 999
  134.073714 50.169796 501
  149.097189 70.514608 704
//
