ACCESSION: MSBNK-EPA-ENTACT_AGILENT000010
RECORD_TITLE: 2,5,8,11,14-Pentaoxahexadecan-16-ol; ESI-QTOF; MS2; CE: 20; [M+H]+
DATE: 2023.05.02
AUTHORS: EPA CCTE and Agilent Technologies
LICENSE: CC BY
CH$NAME: 2,5,8,11,14-Pentaoxahexadecan-16-ol
CH$NAME: DTXSID8041371
CH$COMPOUND_CLASS: N/A
CH$FORMULA: C11H24O6
CH$EXACT_MASS: 252.1572884994
CH$SMILES: COCCOCCOCCOCCOCCO
CH$IUPAC: InChI=1S/C11H24O6/c1-13-4-5-15-8-9-17-11-10-16-7-6-14-3-2-12/h12H,2-11H2,1H3
CH$LINK: CAS 23778-52-1
CH$LINK: INCHIKEY SLNYBUIEAMRFSZ-UHFFFAOYSA-N
CH$LINK: PUBCHEM CID:90255
AC$INSTRUMENT: N/A
AC$INSTRUMENT_TYPE: ESI-QTOF
AC$MASS_SPECTROMETRY: MS_TYPE MS2
AC$MASS_SPECTROMETRY: ION_MODE POSITIVE
AC$MASS_SPECTROMETRY: IONIZATION ESI
AC$MASS_SPECTROMETRY: COLLISION_ENERGY 20
MS$FOCUSED_ION: PRECURSOR_M/Z 253.1645649511
MS$FOCUSED_ION: PRECURSOR_TYPE [M+H]+
MS$DATA_PROCESSING: WHOLE Agilent ChemVista Version 1.0
PK$SPLASH: splash10-0a4j-9100000000-257ca8328ca5e1370408
PK$NUM_PEAK: 8
PK$PEAK: m/z int. rel.int.
  31.017841 3.142302 31
  45.033491 82.203149 821
  45.069877 1.319779 13
  59.049141 99.999997 999
  59.085527 1.724212 17
  89.059706 28.929486 289
  103.075356 28.37494 283
  133.085921 2.811117 28
//
