ACCESSION: MSBNK-EPA-ENTACT_AGILENT001584
RECORD_TITLE: 5-Amino-1,2-dihydro-3H-1,2,4-triazole-3-thione; ESI-QTOF; MS2; CE: 40; [M+H]+
DATE: 2023.09.19
AUTHORS: EPA CCTE and Agilent Technologies
LICENSE: CC BY
CH$NAME: 5-Amino-1,2-dihydro-3H-1,2,4-triazole-3-thione
CH$NAME: DTXSID7044849
CH$COMPOUND_CLASS: N/A
CH$FORMULA: C2H4N4S
CH$EXACT_MASS: 116.0156668872
CH$SMILES: NC1NNC(=S)N=1
CH$IUPAC: InChI=1S/C2H4N4S/c3-1-4-2(7)6-5-1/h(H4,3,4,5,6,7)
CH$LINK: CAS 16691-43-3
CH$LINK: INCHIKEY WZUUZPAYWFIBDF-UHFFFAOYSA-N
CH$LINK: PUBCHEM CID:2723869
AC$INSTRUMENT: N/A
AC$INSTRUMENT_TYPE: ESI-QTOF
AC$MASS_SPECTROMETRY: MS_TYPE MS2
AC$MASS_SPECTROMETRY: ION_MODE POSITIVE
AC$MASS_SPECTROMETRY: IONIZATION ESI
AC$MASS_SPECTROMETRY: COLLISION_ENERGY 40
MS$FOCUSED_ION: PRECURSOR_M/Z 117.0229433389
MS$FOCUSED_ION: PRECURSOR_TYPE [M+H]+
MS$DATA_PROCESSING: WHOLE Agilent ChemVista Version 1.0
PK$SPLASH: splash10-0006-9000000000-18c7e3b60d4117800cb0
PK$NUM_PEAK: 9
PK$PEAK: m/z int. rel.int.
  42.021249 2.784947 27
  43.029075 100.000002 999
  44.979347 6.002789 59
  47.990246 4.826796 48
  58.039974 2.736346 27
  59.047799 5.99165 59
  59.990246 11.150899 111
  68.024324 1.154167 11
  75.001145 5.092921 50
//
