ACCESSION: MSBNK-EPA-ENTACT_AGILENT000577
RECORD_TITLE: N-(3-Anilino-2-propenylidene)aniline; ESI-QTOF; MS2; CE: 10; [M+H]+
DATE: 2023.05.02
AUTHORS: EPA CCTE and Agilent Technologies
LICENSE: CC BY
CH$NAME: N-(3-Anilino-2-propenylidene)aniline
CH$NAME: DTXSID4051958
CH$COMPOUND_CLASS: N/A
CH$FORMULA: C15H14N2
CH$EXACT_MASS: 222.1156984614
CH$SMILES: C(/C=N/C1C=CC=CC=1)/C=N/C1C=CC=CC=1
CH$IUPAC: InChI=1S/C15H14N2/c1-3-8-14(9-4-1)16-12-7-13-17-15-10-5-2-6-11-15/h1-6,8-13H,7H2/b16-12+,17-13+
CH$LINK: CAS 4485-89-6
CH$LINK: INCHIKEY FPKDDRIXOSMQPI-UNZYHPAISA-N
AC$INSTRUMENT: N/A
AC$INSTRUMENT_TYPE: ESI-QTOF
AC$MASS_SPECTROMETRY: MS_TYPE MS2
AC$MASS_SPECTROMETRY: ION_MODE POSITIVE
AC$MASS_SPECTROMETRY: IONIZATION ESI
AC$MASS_SPECTROMETRY: COLLISION_ENERGY 10
MS$FOCUSED_ION: PRECURSOR_M/Z 223.1229749131
MS$FOCUSED_ION: PRECURSOR_TYPE [M+H]+
MS$DATA_PROCESSING: WHOLE Agilent ChemVista Version 1.0
PK$SPLASH: splash10-00di-0190000000-c66a4eba989804aed1e0
PK$NUM_PEAK: 5
PK$PEAK: m/z int. rel.int.
  77.038577 1.156254 11
  104.049476 1.641126 16
  120.080776 2.364012 23
  130.065126 10.920493 109
  223.122975 99.999999 999
//
