ACCESSION: MSBNK-EPA-ENTACT_AGILENT001048
RECORD_TITLE: 2-[4-(Diethylamino)-2-hydroxybenzoyl]benzoic acid; ESI-QTOF; MS2; CE: 10; [M+H]+
DATE: 2023.09.19
AUTHORS: EPA CCTE and Agilent Technologies
LICENSE: CC BY
CH$NAME: 2-[4-(Diethylamino)-2-hydroxybenzoyl]benzoic acid
CH$NAME: DTXSID4027604
CH$COMPOUND_CLASS: N/A
CH$FORMULA: C18H19NO4
CH$EXACT_MASS: 313.1314081027
CH$SMILES: CCN(CC)C1=CC(O)=C(C=C1)C(=O)C1C=CC=CC=1C(O)=O
CH$IUPAC: InChI=1S/C18H19NO4/c1-3-19(4-2)12-9-10-15(16(20)11-12)17(21)13-7-5-6-8-14(13)18(22)23/h5-11,20H,3-4H2,1-2H3,(H,22,23)
CH$LINK: CAS 5809-23-4
CH$LINK: INCHIKEY FQNKTJPBXAZUGC-UHFFFAOYSA-N
CH$LINK: PUBCHEM CID:79878
AC$INSTRUMENT: N/A
AC$INSTRUMENT_TYPE: ESI-QTOF
AC$MASS_SPECTROMETRY: MS_TYPE MS2
AC$MASS_SPECTROMETRY: ION_MODE POSITIVE
AC$MASS_SPECTROMETRY: IONIZATION ESI
AC$MASS_SPECTROMETRY: COLLISION_ENERGY 10
MS$FOCUSED_ION: PRECURSOR_M/Z 314.1386845544
MS$FOCUSED_ION: PRECURSOR_TYPE [M+H]+
MS$DATA_PROCESSING: WHOLE Agilent ChemVista Version 1.0
PK$SPLASH: splash10-03xr-0619000000-817ffdc14139f5ccbcd0
PK$NUM_PEAK: 8
PK$PEAK: m/z int. rel.int.
  138.09134 4.102027 40
  149.02332 14.955548 149
  166.122641 54.379306 543
  240.101905 1.252728 12
  268.09682 2.072359 20
  285.099559 1.21422 12
  296.12812 8.933638 89
  314.138685 99.999998 999
//
