ACCESSION: MSBNK-EPA-ENTACT_AGILENT002102
RECORD_TITLE: Cariporide mesylate; ESI-QTOF; MS2; CE: 20; [M+H]+
DATE: 2023.09.19
AUTHORS: EPA CCTE and Agilent Technologies
LICENSE: CC BY
CH$NAME: Cariporide mesylate
CH$NAME: DTXSID3047344
CH$COMPOUND_CLASS: N/A
CH$FORMULA: C12H17N3O3S
CH$EXACT_MASS: 283.0990621614
CH$SMILES: CS(=O)(=O)C1=CC(=CC=C1C(C)C)C(=O)N=C(N)N
CH$IUPAC: InChI=1S/C12H17N3O3S/c1-7(2)9-5-4-8(11(16)15-12(13)14)6-10(9)19(3,17)18/h4-7H,1-3H3,(H4,13,14,15,16)
CH$LINK: CAS 159138-81-5
CH$LINK: INCHIKEY IWXNYAIICFKCTM-UHFFFAOYSA-N
CH$LINK: PUBCHEM CID:178019
AC$INSTRUMENT: N/A
AC$INSTRUMENT_TYPE: ESI-QTOF
AC$MASS_SPECTROMETRY: MS_TYPE MS2
AC$MASS_SPECTROMETRY: ION_MODE POSITIVE
AC$MASS_SPECTROMETRY: IONIZATION ESI
AC$MASS_SPECTROMETRY: COLLISION_ENERGY 20
MS$FOCUSED_ION: PRECURSOR_M/Z 284.1063386131
MS$FOCUSED_ION: PRECURSOR_TYPE [M+H]+
MS$DATA_PROCESSING: WHOLE Agilent ChemVista Version 1.0
PK$SPLASH: splash10-004i-0090000000-67ee72669784af01406c
PK$NUM_PEAK: 6
PK$PEAK: m/z int. rel.int.
  61.039639 4.335267 43
  117.069877 1.961072 19
  225.057991 99.999999 999
  225.110793 2.109862 21
  242.084541 6.426985 64
  284.106339 8.374524 83
//
