ACCESSION: MSBNK-EPA-ENTACT_AGILENT000360
RECORD_TITLE: N-(9-Fluorenylmethoxycarbonyl)-L-leucine; ESI-QTOF; MS2; CE: 10; [M+H]+
DATE: 2023.05.02
AUTHORS: EPA CCTE and Agilent Technologies
LICENSE: CC BY
CH$NAME: N-(9-Fluorenylmethoxycarbonyl)-L-leucine
CH$NAME: DTXSID0040751
CH$COMPOUND_CLASS: N/A
CH$FORMULA: C21H23NO4
CH$EXACT_MASS: 353.1627082303
CH$SMILES: CC(C)CC(NC(=O)OCC1C2C=CC=CC=2C2C=CC=CC=21)C(O)=O
CH$IUPAC: InChI=1S/C21H23NO4/c1-13(2)11-19(20(23)24)22-21(25)26-12-18-16-9-5-3-7-14(16)15-8-4-6-10-17(15)18/h3-10,13,18-19H,11-12H2,1-2H3,(H,22,25)(H,23,24)
CH$LINK: CAS 35661-60-0
CH$LINK: INCHIKEY CBPJQFCAFFNICX-UHFFFAOYSA-N
CH$LINK: PUBCHEM CID:1549133
AC$INSTRUMENT: N/A
AC$INSTRUMENT_TYPE: ESI-QTOF
AC$MASS_SPECTROMETRY: MS_TYPE MS2
AC$MASS_SPECTROMETRY: ION_MODE POSITIVE
AC$MASS_SPECTROMETRY: IONIZATION ESI
AC$MASS_SPECTROMETRY: COLLISION_ENERGY 10
MS$FOCUSED_ION: PRECURSOR_M/Z 354.169984682
MS$FOCUSED_ION: PRECURSOR_TYPE [M+H]+
MS$DATA_PROCESSING: WHOLE Agilent ChemVista Version 1.0
PK$SPLASH: splash10-004i-0900000000-aec6d512d8cae0d53d6e
PK$NUM_PEAK: 5
PK$PEAK: m/z int. rel.int.
  86.096426 16.521207 165
  130.086255 8.385604 83
  132.101905 42.516547 424
  176.091734 1.294206 12
  179.085527 99.999998 999
//
