ACCESSION: MSBNK-EPA-ENTACT_AGILENT001325
RECORD_TITLE: UK-416244; ESI-QTOF; MS2; CE: 10; [M+H]+
DATE: 2023.09.19
AUTHORS: EPA CCTE and Agilent Technologies
LICENSE: CC BY
CH$NAME: UK-416244
CH$NAME: DTXSID0047290
CH$COMPOUND_CLASS: N/A
CH$FORMULA: C17H22N2O3S2
CH$EXACT_MASS: 366.1071840435
CH$SMILES: CC1=CC(=CC=C1SC)OC1=CC=C(C=C1CN(C)C)S(N)(=O)=O
CH$IUPAC: InChI=1S/C17H22N2O3S2/c1-12-9-14(5-8-17(12)23-4)22-16-7-6-15(24(18,20)21)10-13(16)11-19(2)3/h5-10H,11H2,1-4H3,(H2,18,20,21)
CH$LINK: CAS 402910-27-4
CH$LINK: INCHIKEY QIWQQMZFTOCFGF-UHFFFAOYSA-N
CH$LINK: PUBCHEM CID:9969177
AC$INSTRUMENT: N/A
AC$INSTRUMENT_TYPE: ESI-QTOF
AC$MASS_SPECTROMETRY: MS_TYPE MS2
AC$MASS_SPECTROMETRY: ION_MODE POSITIVE
AC$MASS_SPECTROMETRY: IONIZATION ESI
AC$MASS_SPECTROMETRY: COLLISION_ENERGY 10
MS$FOCUSED_ION: PRECURSOR_M/Z 367.1144604952
MS$FOCUSED_ION: PRECURSOR_TYPE [M+H]+
MS$DATA_PROCESSING: WHOLE Agilent ChemVista Version 1.0
PK$SPLASH: splash10-014i-0019000000-bf3ce8b1710c1ca19936
PK$NUM_PEAK: 6
PK$PEAK: m/z int. rel.int.
  242.075987 2.679292 26
  260.03759 2.024354 20
  274.05324 2.137274 21
  275.061065 8.472661 84
  322.056611 13.768023 137
  367.11446 99.999999 999
//
