ACCESSION: MSBNK-EPA-ENTACT_AGILENT000458
RECORD_TITLE: N-(2-Methoxyphenyl)acetamide; ESI-QTOF; MS2; CE: 10; [M+H]+
DATE: 2023.05.02
AUTHORS: EPA CCTE and Agilent Technologies
LICENSE: CC BY
CH$NAME: N-(2-Methoxyphenyl)acetamide
CH$COMPOUND_CLASS: N/A
CH$FORMULA: C9H11NO2
CH$EXACT_MASS: 165.0789786029
CH$SMILES: CC(=O)NC1=CC=CC=C1OC
CH$IUPAC: InChI=1S/C9H11NO2/c1-7(11)10-8-5-3-4-6-9(8)12-2/h3-6H,1-2H3,(H,10,11)
CH$LINK: CAS 93-26-5
CH$LINK: INCHIKEY FGOFNVXHDGQVBG-UHFFFAOYSA-N
CH$LINK: PUBCHEM CID:7135
AC$INSTRUMENT: N/A
AC$INSTRUMENT_TYPE: ESI-QTOF
AC$MASS_SPECTROMETRY: MS_TYPE MS2
AC$MASS_SPECTROMETRY: ION_MODE POSITIVE
AC$MASS_SPECTROMETRY: IONIZATION ESI
AC$MASS_SPECTROMETRY: COLLISION_ENERGY 10
MS$FOCUSED_ION: PRECURSOR_M/Z 166.0862550546
MS$FOCUSED_ION: PRECURSOR_TYPE [M+H]+
MS$DATA_PROCESSING: WHOLE Agilent ChemVista Version 1.0
PK$SPLASH: splash10-00di-0900000000-67d2e7423d9cadcc0ce5
PK$NUM_PEAK: 4
PK$PEAK: m/z int. rel.int.
  43.017841 2.231925 22
  109.052215 5.347544 53
  124.07569 100.000001 999
  166.086255 3.323572 33
//
