ACCESSION: MSBNK-EPA-ENTACT_AGILENT001302
RECORD_TITLE: 3-Hydroxy-2-pyridone; ESI-QTOF; MS2; CE: 10; [M+H]+
DATE: 2023.09.19
AUTHORS: EPA CCTE and Agilent Technologies
LICENSE: CC BY
CH$NAME: 3-Hydroxy-2-pyridone
CH$NAME: DTXSID0051782
CH$COMPOUND_CLASS: N/A
CH$FORMULA: C5H5NO2
CH$EXACT_MASS: 111.0320284115
CH$SMILES: O=C1CCC=NC1=O
CH$IUPAC: InChI=1S/C5H5NO2/c7-4-2-1-3-6-5(4)8/h3H,1-2H2
CH$LINK: CAS 16867-04-2
CH$LINK: INCHIKEY UVHNFZKPTQUPLV-UHFFFAOYSA-N
CH$LINK: PUBCHEM CID:28115
AC$INSTRUMENT: N/A
AC$INSTRUMENT_TYPE: ESI-QTOF
AC$MASS_SPECTROMETRY: MS_TYPE MS2
AC$MASS_SPECTROMETRY: ION_MODE POSITIVE
AC$MASS_SPECTROMETRY: IONIZATION ESI
AC$MASS_SPECTROMETRY: COLLISION_ENERGY 10
MS$FOCUSED_ION: PRECURSOR_M/Z 112.0393048632
MS$FOCUSED_ION: PRECURSOR_TYPE [M+H]+
MS$DATA_PROCESSING: WHOLE Agilent ChemVista Version 1.0
PK$SPLASH: splash10-03di-2900000000-6190c44519c4f3b5bc70
PK$NUM_PEAK: 3
PK$PEAK: m/z int. rel.int.
  66.033826 3.186753 31
  94.02874 24.614379 245
  112.039305 99.999999 999
//
