ACCESSION: MSBNK-EPA-ENTACT_AGILENT000935
RECORD_TITLE: Carbazole; ESI-QTOF; MS2; CE: 20; [M-H]-
DATE: 2023.05.02
AUTHORS: EPA CCTE and Agilent Technologies
LICENSE: CC BY
CH$NAME: Carbazole
CH$COMPOUND_CLASS: N/A
CH$FORMULA: C12H9N
CH$EXACT_MASS: 167.0734992945
CH$SMILES: C1=CC=CC2NC3=CC=CC=C3C=21
CH$IUPAC: InChI=1S/C12H9N/c1-3-7-11-9(5-1)10-6-2-4-8-12(10)13-11/h1-8,13H
CH$LINK: CAS 86-74-8
CH$LINK: INCHIKEY UJOBWOGCFQCDNV-UHFFFAOYSA-N
CH$LINK: PUBCHEM CID:6854
AC$INSTRUMENT: N/A
AC$INSTRUMENT_TYPE: ESI-QTOF
AC$MASS_SPECTROMETRY: MS_TYPE MS2
AC$MASS_SPECTROMETRY: ION_MODE NEGATIVE
AC$MASS_SPECTROMETRY: IONIZATION ESI
AC$MASS_SPECTROMETRY: COLLISION_ENERGY 20
MS$FOCUSED_ION: PRECURSOR_M/Z 166.0662228428
MS$FOCUSED_ION: PRECURSOR_TYPE [M-H]-
MS$DATA_PROCESSING: WHOLE Agilent ChemVista Version 1.0
PK$SPLASH: splash10-014i-0900000000-451db6c7b922102b4da4
PK$NUM_PEAK: 2
PK$PEAK: m/z int. rel.int.
  165.058398 3.108336 31
  166.066223 99.999997 999
//
