ACCESSION: MSBNK-EPA-ENTACT_AGILENT001482
RECORD_TITLE: Carabersat; ESI-QTOF; MS2; CE: 10; [M-H]-
DATE: 2023.09.19
AUTHORS: EPA CCTE and Agilent Technologies
LICENSE: CC BY
CH$NAME: Carabersat
CH$NAME: DTXSID6047319
CH$COMPOUND_CLASS: N/A
CH$FORMULA: C20H20FNO4
CH$EXACT_MASS: 357.1376363346
CH$SMILES: CC(=O)C1C=C2C(NC(=O)C3C=CC(F)=CC=3)C(O)C(C)(C)OC2=CC=1
CH$IUPAC: InChI=1S/C20H20FNO4/c1-11(23)13-6-9-16-15(10-13)17(18(24)20(2,3)26-16)22-19(25)12-4-7-14(21)8-5-12/h4-10,17-18,24H,1-3H3,(H,22,25)
CH$LINK: CAS 184653-84-7
CH$LINK: INCHIKEY RCLXAPJEFHPYEG-UHFFFAOYSA-N
CH$LINK: PUBCHEM CID:193943
AC$INSTRUMENT: N/A
AC$INSTRUMENT_TYPE: ESI-QTOF
AC$MASS_SPECTROMETRY: MS_TYPE MS2
AC$MASS_SPECTROMETRY: ION_MODE NEGATIVE
AC$MASS_SPECTROMETRY: IONIZATION ESI
AC$MASS_SPECTROMETRY: COLLISION_ENERGY 10
MS$FOCUSED_ION: PRECURSOR_M/Z 356.1303598829
MS$FOCUSED_ION: PRECURSOR_TYPE [M-H]-
MS$DATA_PROCESSING: WHOLE Agilent ChemVista Version 1.0
PK$SPLASH: splash10-0a4i-0029000000-d513fea051effdb31069
PK$NUM_PEAK: 6
PK$PEAK: m/z int. rel.int.
  138.034923 1.013263 10
  160.040402 2.001065 19
  284.072845 6.902584 68
  298.088495 24.032204 240
  338.119795 11.262804 112
  356.13036 99.999997 999
//
