ACCESSION: MSBNK-EPA-ENTACT_AGILENT001541
RECORD_TITLE: 2,4-Dihydroxypyridine; ESI-QTOF; MS2; CE: 20; [M+H]+
DATE: 2023.09.19
AUTHORS: EPA CCTE and Agilent Technologies
LICENSE: CC BY
CH$NAME: 2,4-Dihydroxypyridine
CH$NAME: DTXSID90274238
CH$COMPOUND_CLASS: N/A
CH$FORMULA: C5H5NO2
CH$EXACT_MASS: 111.0320284115
CH$SMILES: OC1=CC(O)=NC=C1
CH$IUPAC: InChI=1S/C5H5NO2/c7-4-1-2-6-5(8)3-4/h1-3H,(H2,6,7,8)
CH$LINK: CAS 626-03-9
CH$LINK: INCHIKEY ZEZJPIDPVXJEME-UHFFFAOYSA-N
CH$LINK: PUBCHEM CID:54696004
AC$INSTRUMENT: N/A
AC$INSTRUMENT_TYPE: ESI-QTOF
AC$MASS_SPECTROMETRY: MS_TYPE MS2
AC$MASS_SPECTROMETRY: ION_MODE POSITIVE
AC$MASS_SPECTROMETRY: IONIZATION ESI
AC$MASS_SPECTROMETRY: COLLISION_ENERGY 20
MS$FOCUSED_ION: PRECURSOR_M/Z 112.0393048632
MS$FOCUSED_ION: PRECURSOR_TYPE [M+H]+
MS$DATA_PROCESSING: WHOLE Agilent ChemVista Version 1.0
PK$SPLASH: splash10-0006-9100000000-5f1afb8251f33259e68d
PK$NUM_PEAK: 6
PK$PEAK: m/z int. rel.int.
  39.022927 3.300299 32
  44.01309 2.168084 21
  66.033826 2.12133 21
  76.018175 5.970191 59
  94.02874 100.000001 999
  112.039305 23.211608 231
//
