ACCESSION: MSBNK-EPA-ENTACT_AGILENT000198
RECORD_TITLE: Tetrabutyl ethylidenebisphenol; ESI-QTOF; MS2; CE: 40; [M-H]-
DATE: 2023.05.02
AUTHORS: EPA CCTE and Agilent Technologies
LICENSE: CC BY
CH$NAME: Tetrabutyl ethylidenebisphenol
CH$NAME: DTXSID4038899
CH$COMPOUND_CLASS: N/A
CH$FORMULA: C30H46O2
CH$EXACT_MASS: 438.349780712
CH$SMILES: CC(C1C=C(C=C(C=1O)C(C)(C)C)C(C)(C)C)C1C=C(C=C(C=1O)C(C)(C)C)C(C)(C)C
CH$IUPAC: InChI=1S/C30H46O2/c1-18(21-14-19(27(2,3)4)16-23(25(21)31)29(8,9)10)22-15-20(28(5,6)7)17-24(26(22)32)30(11,12)13/h14-18,31-32H,1-13H3
CH$LINK: CAS 35958-30-6
CH$LINK: INCHIKEY DXCHWXWXYPEZKM-UHFFFAOYSA-N
CH$LINK: PUBCHEM CID:118899
AC$INSTRUMENT: N/A
AC$INSTRUMENT_TYPE: ESI-QTOF
AC$MASS_SPECTROMETRY: MS_TYPE MS2
AC$MASS_SPECTROMETRY: ION_MODE NEGATIVE
AC$MASS_SPECTROMETRY: IONIZATION ESI
AC$MASS_SPECTROMETRY: COLLISION_ENERGY 40
MS$FOCUSED_ION: PRECURSOR_M/Z 437.3425042603
MS$FOCUSED_ION: PRECURSOR_TYPE [M-H]-
MS$DATA_PROCESSING: WHOLE Agilent ChemVista Version 1.0
PK$SPLASH: splash10-0a4i-0090000000-48272d48f6f0e8327e89
PK$NUM_PEAK: 4
PK$PEAK: m/z int. rel.int.
  205.159789 99.999998 999
  206.167614 1.0304 10
  231.175439 2.934455 29
  437.342504 1.149797 11
//
