ACCESSION: MSBNK-EPA-ENTACT_AGILENT001742
RECORD_TITLE: PharmaGSID_48518; ESI-QTOF; MS2; CE: 10; [M-H]-
DATE: 2023.09.19
AUTHORS: EPA CCTE and Agilent Technologies
LICENSE: CC BY
CH$NAME: PharmaGSID_48518
CH$COMPOUND_CLASS: N/A
CH$FORMULA: C13H9BrFNO3S2
CH$EXACT_MASS: 388.9191257214
CH$SMILES: O=C(NS(=O)(=O)/C=C/C1=CC=CS1)C1C=CC(F)=CC=1Br
CH$IUPAC: InChI=1S/C13H9BrFNO3S2/c14-12-8-9(15)3-4-11(12)13(17)16-21(18,19)7-5-10-2-1-6-20-10/h1-8H,(H,16,17)/b7-5+
CH$LINK: INCHIKEY QXWJDGMLSMFETH-FNORWQNLSA-N
CH$LINK: PUBCHEM CID:16036578
AC$INSTRUMENT: N/A
AC$INSTRUMENT_TYPE: ESI-QTOF
AC$MASS_SPECTROMETRY: MS_TYPE MS2
AC$MASS_SPECTROMETRY: ION_MODE NEGATIVE
AC$MASS_SPECTROMETRY: IONIZATION ESI
AC$MASS_SPECTROMETRY: COLLISION_ENERGY 10
MS$FOCUSED_ION: PRECURSOR_M/Z 387.9118492697
MS$FOCUSED_ION: PRECURSOR_TYPE [M-H]-
MS$DATA_PROCESSING: WHOLE Agilent ChemVista Version 1.0
PK$SPLASH: splash10-000i-0009000000-936327960e57cacc9933
PK$NUM_PEAK: 4
PK$PEAK: m/z int. rel.int.
  78.918886 2.025856 20
  125.006659 6.128542 61
  215.946578 1.857955 18
  387.911849 99.999999 999
//
