ACCESSION: MSBNK-EPA-ENTACT_AGILENT002219
RECORD_TITLE: Benzyltriethylammonium; ESI-QTOF; MS2; CE: 20; [M+H]+
DATE: 2023.09.19
AUTHORS: EPA CCTE and Agilent Technologies
LICENSE: CC BY
CH$NAME: Benzyltriethylammonium
CH$NAME: DTXSID9021710
CH$COMPOUND_CLASS: N/A
CH$FORMULA: [C13H22N]+
CH$EXACT_MASS: 192.1752247092
CH$SMILES: CC[N+](CC1C=CC=CC=1)(CC)CC
CH$IUPAC: InChI=1S/C13H22N/c1-4-14(5-2,6-3)12-13-10-8-7-9-11-13/h7-11H,4-6,12H2,1-3H3/q+1
CH$LINK: CAS 16652-03-2
CH$LINK: INCHIKEY VBQDSLGFSUGBBE-UHFFFAOYSA-N
AC$INSTRUMENT: N/A
AC$INSTRUMENT_TYPE: ESI-QTOF
AC$MASS_SPECTROMETRY: MS_TYPE MS2
AC$MASS_SPECTROMETRY: ION_MODE POSITIVE
AC$MASS_SPECTROMETRY: IONIZATION ESI
AC$MASS_SPECTROMETRY: COLLISION_ENERGY 20
MS$FOCUSED_ION: PRECURSOR_M/Z 193.1825011609
MS$FOCUSED_ION: PRECURSOR_TYPE [M+H]+
MS$DATA_PROCESSING: WHOLE Agilent ChemVista Version 1.0
PK$SPLASH: splash10-0006-9200000000-f230c33dcc8152e78c2c
PK$NUM_PEAK: 9
PK$PEAK: m/z int. rel.int.
  65.038577 1.57901 15
  72.080776 1.506479 15
  86.096426 16.767048 167
  87.104251 10.114025 101
  91.054227 94.795539 947
  92.062052 100 999
  100.112076 28.756303 287
  101.119901 26.469133 264
  193.182501 12.183891 121
//
