ACCESSION: MSBNK-EPA-ENTACT_AGILENT001269
RECORD_TITLE: CP-671305; ESI-QTOF; MS2; CE: 10; [M-H]-
DATE: 2023.09.19
AUTHORS: EPA CCTE and Agilent Technologies
LICENSE: CC BY
CH$NAME: CP-671305
CH$NAME: DTXSID6047282
CH$COMPOUND_CLASS: N/A
CH$FORMULA: C23H19FN2O7
CH$EXACT_MASS: 454.117629177
CH$SMILES: CC(OC1C=CC(CNC(=O)C2C=CC=NC=2OC2C=C3OCOC3=CC=2)=C(F)C=1)C(O)=O
CH$IUPAC: InChI=1S/C23H19FN2O7/c1-13(23(28)29)32-15-5-4-14(18(24)9-15)11-26-21(27)17-3-2-8-25-22(17)33-16-6-7-19-20(10-16)31-12-30-19/h2-10,13H,11-12H2,1H3,(H,26,27)(H,28,29)
CH$LINK: CAS 445295-04-5
CH$LINK: INCHIKEY CNIGFESSDPOCKS-UHFFFAOYSA-N
CH$LINK: PUBCHEM CID:9955578
AC$INSTRUMENT: N/A
AC$INSTRUMENT_TYPE: ESI-QTOF
AC$MASS_SPECTROMETRY: MS_TYPE MS2
AC$MASS_SPECTROMETRY: ION_MODE NEGATIVE
AC$MASS_SPECTROMETRY: IONIZATION ESI
AC$MASS_SPECTROMETRY: COLLISION_ENERGY 10
MS$FOCUSED_ION: PRECURSOR_M/Z 453.1103527253
MS$FOCUSED_ION: PRECURSOR_TYPE [M-H]-
MS$DATA_PROCESSING: WHOLE Agilent ChemVista Version 1.0
PK$SPLASH: splash10-053r-0069400000-58e3a30f544e2d52c7b1
PK$NUM_PEAK: 7
PK$PEAK: m/z int. rel.int.
  229.061866 1.122819 11
  257.05678 67.343573 672
  257.118318 1.699705 16
  299.067345 3.880624 38
  381.089223 99.999996 999
  423.099788 2.829644 28
  453.110353 48.21399 481
//
