ACCESSION: MSBNK-EPA-ENTACT_AGILENT001822
RECORD_TITLE: N-(2,4-Dimethylphenyl)-3-oxobutanamide; ESI-QTOF; MS2; CE: 10; [M-H]-
DATE: 2023.09.19
AUTHORS: EPA CCTE and Agilent Technologies
LICENSE: CC BY
CH$NAME: N-(2,4-Dimethylphenyl)-3-oxobutanamide
CH$COMPOUND_CLASS: N/A
CH$FORMULA: C12H15NO2
CH$EXACT_MASS: 205.1102787305
CH$SMILES: CC(=O)CC(=O)NC1=CC=C(C)C=C1C
CH$IUPAC: InChI=1S/C12H15NO2/c1-8-4-5-11(9(2)6-8)13-12(15)7-10(3)14/h4-6H,7H2,1-3H3,(H,13,15)
CH$LINK: CAS 97-36-9
CH$LINK: INCHIKEY HGVIAKXYAZRSEG-UHFFFAOYSA-N
CH$LINK: PUBCHEM CID:222464
AC$INSTRUMENT: N/A
AC$INSTRUMENT_TYPE: ESI-QTOF
AC$MASS_SPECTROMETRY: MS_TYPE MS2
AC$MASS_SPECTROMETRY: ION_MODE NEGATIVE
AC$MASS_SPECTROMETRY: IONIZATION ESI
AC$MASS_SPECTROMETRY: COLLISION_ENERGY 10
MS$FOCUSED_ION: PRECURSOR_M/Z 204.1030022788
MS$FOCUSED_ION: PRECURSOR_TYPE [M-H]-
MS$DATA_PROCESSING: WHOLE Agilent ChemVista Version 1.0
PK$SPLASH: splash10-053r-9110000000-c9a8eed91ad70c054479
PK$NUM_PEAK: 7
PK$PEAK: m/z int. rel.int.
  41.003288 1.531664 15
  57.034588 72.644345 725
  57.058398 1.872858 18
  83.013853 99.999998 999
  83.050238 2.434529 24
  120.081873 34.147262 341
  204.103002 20.361383 203
//
