ACCESSION: MSBNK-EPA-ENTACT_AGILENT001995
RECORD_TITLE: 4-(Diethylamino)salicylaldehyde; ESI-QTOF; MS2; CE: 20; [M-H]-
DATE: 2023.09.19
AUTHORS: EPA CCTE and Agilent Technologies
LICENSE: CC BY
CH$NAME: 4-(Diethylamino)salicylaldehyde
CH$NAME: DTXSID5022271
CH$COMPOUND_CLASS: N/A
CH$FORMULA: C11H15NO2
CH$EXACT_MASS: 193.1102787305
CH$SMILES: CCN(CC)C1C=C(O)C(C=O)=CC=1
CH$IUPAC: InChI=1S/C11H15NO2/c1-3-12(4-2)10-6-5-9(8-13)11(14)7-10/h5-8,14H,3-4H2,1-2H3
CH$LINK: CAS 17754-90-4
CH$LINK: INCHIKEY XFVZSRRZZNLWBW-UHFFFAOYSA-N
CH$LINK: PUBCHEM CID:87293
AC$INSTRUMENT: N/A
AC$INSTRUMENT_TYPE: ESI-QTOF
AC$MASS_SPECTROMETRY: MS_TYPE MS2
AC$MASS_SPECTROMETRY: ION_MODE NEGATIVE
AC$MASS_SPECTROMETRY: IONIZATION ESI
AC$MASS_SPECTROMETRY: COLLISION_ENERGY 20
MS$FOCUSED_ION: PRECURSOR_M/Z 192.1030022788
MS$FOCUSED_ION: PRECURSOR_TYPE [M-H]-
MS$DATA_PROCESSING: WHOLE Agilent ChemVista Version 1.0
PK$SPLASH: splash10-00di-0900000000-baeaee864344dba981eb
PK$NUM_PEAK: 15
PK$PEAK: m/z int. rel.int.
  93.034588 1.077569 10
  107.037662 1.298283 12
  108.045487 1.108455 11
  120.045487 100.000002 999
  120.081873 2.299864 22
  120.103002 1.009156 10
  134.061137 2.344601 23
  135.068962 30.617783 305
  136.076788 7.696461 76
  148.040402 44.274967 442
  162.056052 1.223243 12
  163.063877 4.312477 43
  164.071702 1.703434 17
  164.108088 25.59863 255
  192.103002 10.326177 103
//
