ACCESSION: MSBNK-EPA-ENTACT_AGILENT001490
RECORD_TITLE: 2-Tert-Butyl-5-methylphenol; ESI-QTOF; MS2; CE: 10; [M-H]-
DATE: 2023.09.19
AUTHORS: EPA CCTE and Agilent Technologies
LICENSE: CC BY
CH$NAME: 2-Tert-Butyl-5-methylphenol
CH$COMPOUND_CLASS: N/A
CH$FORMULA: C11H16O
CH$EXACT_MASS: 164.1201151327
CH$SMILES: CC1C=CC(=C(O)C=1)C(C)(C)C
CH$IUPAC: InChI=1S/C11H16O/c1-8-5-6-9(10(12)7-8)11(2,3)4/h5-7,12H,1-4H3
CH$LINK: CAS 88-60-8
CH$LINK: INCHIKEY XOUQAVYLRNOXDO-UHFFFAOYSA-N
CH$LINK: PUBCHEM CID:6937
AC$INSTRUMENT: N/A
AC$INSTRUMENT_TYPE: ESI-QTOF
AC$MASS_SPECTROMETRY: MS_TYPE MS2
AC$MASS_SPECTROMETRY: ION_MODE NEGATIVE
AC$MASS_SPECTROMETRY: IONIZATION ESI
AC$MASS_SPECTROMETRY: COLLISION_ENERGY 10
MS$FOCUSED_ION: PRECURSOR_M/Z 163.112838681
MS$FOCUSED_ION: PRECURSOR_TYPE [M-H]-
MS$DATA_PROCESSING: WHOLE Agilent ChemVista Version 1.0
PK$SPLASH: splash10-03di-0900000000-76c8f147fff0953f297d
PK$NUM_PEAK: 2
PK$PEAK: m/z int. rel.int.
  147.081539 1.239658 12
  163.112839 99.999996 999
//
