ACCESSION: MSBNK-EPA-ENTACT_AGILENT001310
RECORD_TITLE: 4,5-Dihydroxy-1,3-dimethylimidazolidin-2-one; ESI-QTOF; MS2; CE: 10; [M+H]+
DATE: 2023.09.19
AUTHORS: EPA CCTE and Agilent Technologies
LICENSE: CC BY
CH$NAME: 4,5-Dihydroxy-1,3-dimethylimidazolidin-2-one
CH$NAME: DTXSID1044934
CH$COMPOUND_CLASS: N/A
CH$FORMULA: C5H10N2O3
CH$EXACT_MASS: 146.0691422007
CH$SMILES: CN1C(O)C(O)N(C)C1=O
CH$IUPAC: InChI=1S/C5H10N2O3/c1-6-3(8)4(9)7(2)5(6)10/h3-4,8-9H,1-2H3
CH$LINK: CAS 3923-79-3
CH$LINK: INCHIKEY LGJMYGMNWHYGCB-UHFFFAOYSA-N
CH$LINK: PUBCHEM CID:73539
AC$INSTRUMENT: N/A
AC$INSTRUMENT_TYPE: ESI-QTOF
AC$MASS_SPECTROMETRY: MS_TYPE MS2
AC$MASS_SPECTROMETRY: ION_MODE POSITIVE
AC$MASS_SPECTROMETRY: IONIZATION ESI
AC$MASS_SPECTROMETRY: COLLISION_ENERGY 10
MS$FOCUSED_ION: PRECURSOR_M/Z 147.0764186524
MS$FOCUSED_ION: PRECURSOR_TYPE [M+H]+
MS$DATA_PROCESSING: WHOLE Agilent ChemVista Version 1.0
PK$SPLASH: splash10-0002-3900000000-fac2c18df99ef38ee9d7
PK$NUM_PEAK: 5
PK$PEAK: m/z int. rel.int.
  44.049476 5.634756 56
  58.02874 2.133216 21
  72.04439 21.020722 209
  89.070939 6.306006 62
  147.076419 99.999997 999
//
