ACCESSION: MSBNK-EPA-ENTACT_AGILENT000383
RECORD_TITLE: Hexamethyleneimine; ESI-QTOF; MS2; CE: 10; [M+H]+
DATE: 2023.05.02
AUTHORS: EPA CCTE and Agilent Technologies
LICENSE: CC BY
CH$NAME: Hexamethyleneimine
CH$COMPOUND_CLASS: N/A
CH$FORMULA: C6H13N
CH$EXACT_MASS: 99.1047994221
CH$SMILES: C1CCCCCN1
CH$IUPAC: InChI=1S/C6H13N/c1-2-4-6-7-5-3-1/h7H,1-6H2
CH$LINK: CAS 111-49-9
CH$LINK: INCHIKEY ZSIQJIWKELUFRJ-UHFFFAOYSA-N
CH$LINK: PUBCHEM CID:8119
AC$INSTRUMENT: N/A
AC$INSTRUMENT_TYPE: ESI-QTOF
AC$MASS_SPECTROMETRY: MS_TYPE MS2
AC$MASS_SPECTROMETRY: ION_MODE POSITIVE
AC$MASS_SPECTROMETRY: IONIZATION ESI
AC$MASS_SPECTROMETRY: COLLISION_ENERGY 10
MS$FOCUSED_ION: PRECURSOR_M/Z 100.1120758738
MS$FOCUSED_ION: PRECURSOR_TYPE [M+H]+
MS$DATA_PROCESSING: WHOLE Agilent ChemVista Version 1.0
PK$SPLASH: splash10-0udi-1900000000-033f7702cdb305413e22
PK$NUM_PEAK: 4
PK$PEAK: m/z int. rel.int.
  30.033826 1.104724 11
  55.054227 11.629026 116
  83.085527 2.076215 20
  100.112076 99.999996 999
//
