ACCESSION: MSBNK-EPA-ENTACT_AGILENT002361
RECORD_TITLE: Benzylacetone; ESI-QTOF; MS2; CE: 10; [M+H]+
DATE: 2023.09.19
AUTHORS: EPA CCTE and Agilent Technologies
LICENSE: CC BY
CH$NAME: Benzylacetone
CH$NAME: DTXSID6033241
CH$COMPOUND_CLASS: N/A
CH$FORMULA: C10H12O
CH$EXACT_MASS: 148.0888150051
CH$SMILES: CC(=O)CCC1C=CC=CC=1
CH$IUPAC: InChI=1S/C10H12O/c1-9(11)7-8-10-5-3-2-4-6-10/h2-6H,7-8H2,1H3
CH$LINK: CAS 2550-26-7
CH$LINK: INCHIKEY AKGGYBADQZYZPD-UHFFFAOYSA-N
CH$LINK: PUBCHEM CID:17355
AC$INSTRUMENT: N/A
AC$INSTRUMENT_TYPE: ESI-QTOF
AC$MASS_SPECTROMETRY: MS_TYPE MS2
AC$MASS_SPECTROMETRY: ION_MODE POSITIVE
AC$MASS_SPECTROMETRY: IONIZATION ESI
AC$MASS_SPECTROMETRY: COLLISION_ENERGY 10
MS$FOCUSED_ION: PRECURSOR_M/Z 149.0960914568
MS$FOCUSED_ION: PRECURSOR_TYPE [M+H]+
MS$DATA_PROCESSING: WHOLE Agilent ChemVista Version 1.0
PK$SPLASH: splash10-004i-9000000000-d724c903e105da7350df
PK$NUM_PEAK: 5
PK$PEAK: m/z int. rel.int.
  61.007276 1.046601 10
  63.994366 2.369278 23
  79.017841 99.999999 999
  79.054227 3.614732 36
  80.025666 2.587257 25
//
