ACCESSION: MSBNK-EPA-ENTACT_AGILENT000186
RECORD_TITLE: Triflimide; ESI-QTOF; MS2; CE: 40; [M-H]-
DATE: 2023.05.02
AUTHORS: EPA CCTE and Agilent Technologies
LICENSE: CC BY
CH$NAME: Triflimide
CH$COMPOUND_CLASS: N/A
CH$FORMULA: C2HF6NO4S2
CH$EXACT_MASS: 280.9251181885
CH$SMILES: O=S(=O)(NS(=O)(=O)C(F)(F)F)C(F)(F)F
CH$IUPAC: InChI=1S/C2HF6NO4S2/c3-1(4,5)14(10,11)9-15(12,13)2(6,7)8/h9H
CH$LINK: CAS 82113-65-3
CH$LINK: INCHIKEY ZXMGHDIOOHOAAE-UHFFFAOYSA-N
AC$INSTRUMENT: N/A
AC$INSTRUMENT_TYPE: ESI-QTOF
AC$MASS_SPECTROMETRY: MS_TYPE MS2
AC$MASS_SPECTROMETRY: ION_MODE NEGATIVE
AC$MASS_SPECTROMETRY: IONIZATION ESI
AC$MASS_SPECTROMETRY: COLLISION_ENERGY 40
MS$FOCUSED_ION: PRECURSOR_M/Z 279.9178417368
MS$FOCUSED_ION: PRECURSOR_TYPE [M-H]-
MS$DATA_PROCESSING: WHOLE Agilent ChemVista Version 1.0
PK$SPLASH: splash10-004i-9000000000-94c9097999c8d7162103
PK$NUM_PEAK: 4
PK$PEAK: m/z int. rel.int.
  77.965523 100.000002 999
  82.960852 9.007125 89
  82.998832 1.928533 19
  146.960732 11.608327 115
//
