ACCESSION: MSBNK-EPA-ENTACT_AGILENT000926
RECORD_TITLE: Benzyloctyl adipate; ESI-QTOF; MS2; CE: 40; [M+H]+
DATE: 2023.05.02
AUTHORS: EPA CCTE and Agilent Technologies
LICENSE: CC BY
CH$NAME: Benzyloctyl adipate
CH$NAME: DTXSID1047528
CH$COMPOUND_CLASS: N/A
CH$FORMULA: C21H32O4
CH$EXACT_MASS: 348.23005951
CH$SMILES: CCCCC(COC(=O)CCCCC(=O)OCC1C=CC=CC=1)CC
CH$IUPAC: InChI=1S/C21H32O4/c1-3-5-11-18(4-2)16-24-20(22)14-9-10-15-21(23)25-17-19-12-7-6-8-13-19/h6-8,12-13,18H,3-5,9-11,14-17H2,1-2H3
CH$LINK: CAS 58394-64-2
CH$LINK: INCHIKEY OOUQSWGHJPCRLI-UHFFFAOYSA-N
CH$LINK: PUBCHEM CID:94037
AC$INSTRUMENT: N/A
AC$INSTRUMENT_TYPE: ESI-QTOF
AC$MASS_SPECTROMETRY: MS_TYPE MS2
AC$MASS_SPECTROMETRY: ION_MODE POSITIVE
AC$MASS_SPECTROMETRY: IONIZATION ESI
AC$MASS_SPECTROMETRY: COLLISION_ENERGY 40
MS$FOCUSED_ION: PRECURSOR_M/Z 349.2373359617
MS$FOCUSED_ION: PRECURSOR_TYPE [M+H]+
MS$DATA_PROCESSING: WHOLE Agilent ChemVista Version 1.0
PK$SPLASH: splash10-0006-9000000000-f9bd175e19def3e91145
PK$NUM_PEAK: 7
PK$PEAK: m/z int. rel.int.
  43.054227 1.263434 12
  55.054227 1.507142 15
  57.069877 1.575544 15
  65.038577 3.367463 33
  91.054227 99.999999 999
  91.096485 1.907394 19
  101.059706 1.023578 10
//
