ACCESSION: MSBNK-EPA-ENTACT_AGILENT000958
RECORD_TITLE: Triallyl trimellitate; ESI-QTOF; MS2; CE: 20; [M+H]+
DATE: 2023.05.02
AUTHORS: EPA CCTE and Agilent Technologies
LICENSE: CC BY
CH$NAME: Triallyl trimellitate
CH$NAME: DTXSID4044901
CH$COMPOUND_CLASS: N/A
CH$FORMULA: C18H18O6
CH$EXACT_MASS: 330.110338308
CH$SMILES: C=CCOC(=O)C1=CC=C(C=C1C(=O)OCC=C)C(=O)OCC=C
CH$IUPAC: InChI=1S/C18H18O6/c1-4-9-22-16(19)13-7-8-14(17(20)23-10-5-2)15(12-13)18(21)24-11-6-3/h4-8,12H,1-3,9-11H2
CH$LINK: CAS 2694-54-4
CH$LINK: INCHIKEY GRPURDFRFHUDSP-UHFFFAOYSA-N
CH$LINK: PUBCHEM CID:75903
AC$INSTRUMENT: N/A
AC$INSTRUMENT_TYPE: ESI-QTOF
AC$MASS_SPECTROMETRY: MS_TYPE MS2
AC$MASS_SPECTROMETRY: ION_MODE POSITIVE
AC$MASS_SPECTROMETRY: IONIZATION ESI
AC$MASS_SPECTROMETRY: COLLISION_ENERGY 20
MS$FOCUSED_ION: PRECURSOR_M/Z 331.1176147597
MS$FOCUSED_ION: PRECURSOR_TYPE [M+H]+
MS$DATA_PROCESSING: WHOLE Agilent ChemVista Version 1.0
PK$SPLASH: splash10-0006-9100000000-9ddf28729c1adc855c33
PK$NUM_PEAK: 6
PK$PEAK: m/z int. rel.int.
  39.022927 1.299679 12
  41.038577 100.000004 999
  41.059706 1.95931 19
  79.054227 3.784354 37
  81.069877 18.281854 182
  175.002585 18.857382 188
//
