ACCESSION: MSBNK-EPA-ENTACT_AGILENT000560
RECORD_TITLE: 5-Nitroisophthalic acid; ESI-QTOF; MS2; CE: 20; [M-H]-
DATE: 2023.05.02
AUTHORS: EPA CCTE and Agilent Technologies
LICENSE: CC BY
CH$NAME: 5-Nitroisophthalic acid
CH$NAME: DTXSID7041540
CH$COMPOUND_CLASS: N/A
CH$FORMULA: C8H5NO6
CH$EXACT_MASS: 211.0116869007
CH$SMILES: [O-][N+](=O)C1C=C(C=C(C=1)C(O)=O)C(O)=O
CH$IUPAC: InChI=1S/C8H5NO6/c10-7(11)4-1-5(8(12)13)3-6(2-4)9(14)15/h1-3H,(H,10,11)(H,12,13)
CH$LINK: CAS 618-88-2
CH$LINK: INCHIKEY NBDAHKQJXVLAID-UHFFFAOYSA-N
CH$LINK: PUBCHEM CID:12069
AC$INSTRUMENT: N/A
AC$INSTRUMENT_TYPE: ESI-QTOF
AC$MASS_SPECTROMETRY: MS_TYPE MS2
AC$MASS_SPECTROMETRY: ION_MODE NEGATIVE
AC$MASS_SPECTROMETRY: IONIZATION ESI
AC$MASS_SPECTROMETRY: COLLISION_ENERGY 20
MS$FOCUSED_ION: PRECURSOR_M/Z 210.004410449
MS$FOCUSED_ION: PRECURSOR_TYPE [M-H]-
MS$DATA_PROCESSING: WHOLE Agilent ChemVista Version 1.0
PK$SPLASH: splash10-014i-6900000000-912863def5c2705907f0
PK$NUM_PEAK: 6
PK$PEAK: m/z int. rel.int.
  45.993452 60.845826 607
  75.024024 33.262411 332
  92.026763 23.527113 235
  119.013853 99.999995 999
  136.016593 22.351294 223
  166.014581 45.651375 456
//
