ACCESSION: MSBNK-EPA-ENTACT_AGILENT001255
RECORD_TITLE: DL-Glutamic acid; ESI-QTOF; MS2; CE: 40; [M+H]+
DATE: 2023.09.19
AUTHORS: EPA CCTE and Agilent Technologies
LICENSE: CC BY
CH$NAME: DL-Glutamic acid
CH$NAME: DTXSID6047155
CH$COMPOUND_CLASS: N/A
CH$FORMULA: C5H9NO4
CH$EXACT_MASS: 147.0531577837
CH$SMILES: NC(CCC(O)=O)C(O)=O
CH$IUPAC: InChI=1S/C5H9NO4/c6-3(5(9)10)1-2-4(7)8/h3H,1-2,6H2,(H,7,8)(H,9,10)
CH$LINK: CAS 617-65-2
CH$LINK: INCHIKEY WHUUTDBJXJRKMK-UHFFFAOYSA-N
AC$INSTRUMENT: N/A
AC$INSTRUMENT_TYPE: ESI-QTOF
AC$MASS_SPECTROMETRY: MS_TYPE MS2
AC$MASS_SPECTROMETRY: ION_MODE POSITIVE
AC$MASS_SPECTROMETRY: IONIZATION ESI
AC$MASS_SPECTROMETRY: COLLISION_ENERGY 40
MS$FOCUSED_ION: PRECURSOR_M/Z 148.0604342354
MS$FOCUSED_ION: PRECURSOR_TYPE [M+H]+
MS$DATA_PROCESSING: WHOLE Agilent ChemVista Version 1.0
PK$SPLASH: splash10-0a4i-9000000000-7064286c31a622e05c0e
PK$NUM_PEAK: 10
PK$PEAK: m/z int. rel.int.
  28.018175 1.265434 12
  39.022927 3.974711 39
  41.038577 18.637342 186
  43.041651 1.760652 17
  44.997106 1.26683 12
  56.049476 100.000003 999
  57.033491 2.048025 20
  66.033826 1.355761 13
  84.04439 20.795109 207
  85.028406 1.076735 10
//
