ACCESSION: MSBNK-EPA-ENTACT_AGILENT002272
RECORD_TITLE: Nitrilotriacetic acid; ESI-QTOF; MS2; CE: 40; [M+H]+
DATE: 2023.09.19
AUTHORS: EPA CCTE and Agilent Technologies
LICENSE: CC BY
CH$NAME: Nitrilotriacetic acid
CH$NAME: DTXSID6020939
CH$COMPOUND_CLASS: N/A
CH$FORMULA: C6H9NO6
CH$EXACT_MASS: 191.0429870283
CH$SMILES: OC(=O)CN(CC(O)=O)CC(O)=O
CH$IUPAC: InChI=1S/C6H9NO6/c8-4(9)1-7(2-5(10)11)3-6(12)13/h1-3H2,(H,8,9)(H,10,11)(H,12,13)
CH$LINK: CAS 139-13-9
CH$LINK: INCHIKEY MGFYIUFZLHCRTH-UHFFFAOYSA-N
CH$LINK: PUBCHEM CID:8758
AC$INSTRUMENT: N/A
AC$INSTRUMENT_TYPE: ESI-QTOF
AC$MASS_SPECTROMETRY: MS_TYPE MS2
AC$MASS_SPECTROMETRY: ION_MODE POSITIVE
AC$MASS_SPECTROMETRY: IONIZATION ESI
AC$MASS_SPECTROMETRY: COLLISION_ENERGY 40
MS$FOCUSED_ION: PRECURSOR_M/Z 192.05026348
MS$FOCUSED_ION: PRECURSOR_TYPE [M+H]+
MS$DATA_PROCESSING: WHOLE Agilent ChemVista Version 1.0
PK$SPLASH: splash10-0006-9000000000-715c8304ed087d2c4cda
PK$NUM_PEAK: 5
PK$PEAK: m/z int. rel.int.
  42.033826 99.999999 999
  42.067531 1.140143 11
  59.012756 3.168172 31
  60.04439 26.181282 261
  88.039305 6.507902 65
//
