ACCESSION: MSBNK-EPA-ENTACT_AGILENT001104
RECORD_TITLE: 1,4-Diaminoanthraquinone; ESI-QTOF; MS2; CE: 10; [M-H]-
DATE: 2023.09.19
AUTHORS: EPA CCTE and Agilent Technologies
LICENSE: CC BY
CH$NAME: 1,4-Diaminoanthraquinone
CH$COMPOUND_CLASS: N/A
CH$FORMULA: C14H10N2O2
CH$EXACT_MASS: 238.0742275784
CH$SMILES: NC1=CC=C(N)C2=C1C(=O)C1=CC=CC=C1C2=O
CH$IUPAC: InChI=1S/C14H10N2O2/c15-9-5-6-10(16)12-11(9)13(17)7-3-1-2-4-8(7)14(12)18/h1-6H,15-16H2
CH$LINK: CAS 128-95-0
CH$LINK: INCHIKEY FBMQNRKSAWNXBT-UHFFFAOYSA-N
CH$LINK: PUBCHEM CID:31420
AC$INSTRUMENT: N/A
AC$INSTRUMENT_TYPE: ESI-QTOF
AC$MASS_SPECTROMETRY: MS_TYPE MS2
AC$MASS_SPECTROMETRY: ION_MODE NEGATIVE
AC$MASS_SPECTROMETRY: IONIZATION ESI
AC$MASS_SPECTROMETRY: COLLISION_ENERGY 10
MS$FOCUSED_ION: PRECURSOR_M/Z 237.0669511267
MS$FOCUSED_ION: PRECURSOR_TYPE [M-H]-
MS$DATA_PROCESSING: WHOLE Agilent ChemVista Version 1.0
PK$SPLASH: splash10-000i-0090000000-d98b01aa09ccdfdb56c5
PK$NUM_PEAK: 2
PK$PEAK: m/z int. rel.int.
  210.056052 1.500014 14
  237.066951 99.999999 999
//
