ACCESSION: MSBNK-EPA-ENTACT_AGILENT000017
RECORD_TITLE: 3,5-Dichlorosalicylic acid; ESI-QTOF; MS2; CE: 20; [M-H]-
DATE: 2023.05.02
AUTHORS: EPA CCTE and Agilent Technologies
LICENSE: CC BY
CH$NAME: 3,5-Dichlorosalicylic acid
CH$NAME: DTXSID3044914
CH$COMPOUND_CLASS: N/A
CH$FORMULA: C7H4Cl2O3
CH$EXACT_MASS: 205.9537494145
CH$SMILES: OC1C(Cl)=CC(Cl)=CC=1C(O)=O
CH$IUPAC: InChI=1S/C7H4Cl2O3/c8-3-1-4(7(11)12)6(10)5(9)2-3/h1-2,10H,(H,11,12)
CH$LINK: CAS 320-72-9
CH$LINK: INCHIKEY CNJGWCQEGROXEE-UHFFFAOYSA-N
CH$LINK: PUBCHEM CID:9445
AC$INSTRUMENT: N/A
AC$INSTRUMENT_TYPE: ESI-QTOF
AC$MASS_SPECTROMETRY: MS_TYPE MS2
AC$MASS_SPECTROMETRY: ION_MODE NEGATIVE
AC$MASS_SPECTROMETRY: IONIZATION ESI
AC$MASS_SPECTROMETRY: COLLISION_ENERGY 20
MS$FOCUSED_ION: PRECURSOR_M/Z 204.9464729628
MS$FOCUSED_ION: PRECURSOR_TYPE [M-H]-
MS$DATA_PROCESSING: WHOLE Agilent ChemVista Version 1.0
PK$SPLASH: splash10-03k9-1900000000-3f2d90e41cac7303fb75
PK$NUM_PEAK: 6
PK$PEAK: m/z int. rel.int.
  34.969401 17.746544 177
  61.008374 1.430391 14
  89.003288 17.20307 171
  124.979966 65.408448 653
  160.956644 99.999998 999
  204.946473 3.247691 32
//
