ACCESSION: MSBNK-EPA-ENTACT_AGILENT000418
RECORD_TITLE: 2,2,6,6-Tetramethyl-4-piperidone; ESI-QTOF; MS2; CE: 20; [M+H]+
DATE: 2023.05.02
AUTHORS: EPA CCTE and Agilent Technologies
LICENSE: CC BY
CH$NAME: 2,2,6,6-Tetramethyl-4-piperidone
CH$COMPOUND_CLASS: N/A
CH$FORMULA: C9H17NO
CH$EXACT_MASS: 155.131014172
CH$SMILES: CC1(C)CC(=O)CC(C)(C)N1
CH$IUPAC: InChI=1S/C9H17NO/c1-8(2)5-7(11)6-9(3,4)10-8/h10H,5-6H2,1-4H3
CH$LINK: CAS 826-36-8
CH$LINK: INCHIKEY JWUXJYZVKZKLTJ-UHFFFAOYSA-N
CH$LINK: PUBCHEM CID:13220
AC$INSTRUMENT: N/A
AC$INSTRUMENT_TYPE: ESI-QTOF
AC$MASS_SPECTROMETRY: MS_TYPE MS2
AC$MASS_SPECTROMETRY: ION_MODE POSITIVE
AC$MASS_SPECTROMETRY: IONIZATION ESI
AC$MASS_SPECTROMETRY: COLLISION_ENERGY 20
MS$FOCUSED_ION: PRECURSOR_M/Z 156.1382906237
MS$FOCUSED_ION: PRECURSOR_TYPE [M+H]+
MS$DATA_PROCESSING: WHOLE Agilent ChemVista Version 1.0
PK$SPLASH: splash10-0a4i-9000000000-764e8fb8531f47e04e44
PK$NUM_PEAK: 6
PK$PEAK: m/z int. rel.int.
  55.054227 4.070979 40
  58.065126 99.999998 999
  61.007276 1.934071 19
  63.994366 6.538209 65
  79.017841 29.546837 295
  83.049141 5.766783 57
//
