ACCESSION: MSBNK-EPA-ENTACT_AGILENT002220
RECORD_TITLE: Piragliatin; ESI-QTOF; MS2; CE: 10; [M-H]-
DATE: 2023.09.19
AUTHORS: EPA CCTE and Agilent Technologies
LICENSE: CC BY
CH$NAME: Piragliatin
CH$NAME: DTXSID3048520
CH$COMPOUND_CLASS: N/A
CH$FORMULA: C19H20ClN3O4S
CH$EXACT_MASS: 421.0863045894
CH$SMILES: CS(=O)(=O)C1=CC=C(C=C1Cl)C(CC1CC(=O)CC1)C(=O)NC1C=NC=CN=1
CH$IUPAC: InChI=1S/C19H20ClN3O4S/c1-28(26,27)17-5-3-13(10-16(17)20)15(9-12-2-4-14(24)8-12)19(25)23-18-11-21-6-7-22-18/h3,5-7,10-12,15H,2,4,8-9H2,1H3,(H,22,23,25)
CH$LINK: CAS 625114-41-2
CH$LINK: INCHIKEY XEANIURBPHCHMG-UHFFFAOYSA-N
CH$LINK: PUBCHEM CID:10432339
AC$INSTRUMENT: N/A
AC$INSTRUMENT_TYPE: ESI-QTOF
AC$MASS_SPECTROMETRY: MS_TYPE MS2
AC$MASS_SPECTROMETRY: ION_MODE NEGATIVE
AC$MASS_SPECTROMETRY: IONIZATION ESI
AC$MASS_SPECTROMETRY: COLLISION_ENERGY 10
MS$FOCUSED_ION: PRECURSOR_M/Z 420.0790281377
MS$FOCUSED_ION: PRECURSOR_TYPE [M-H]-
MS$DATA_PROCESSING: WHOLE Agilent ChemVista Version 1.0
PK$SPLASH: splash10-0002-0090000000-6a0d8f7b2d2cba92f930
PK$NUM_PEAK: 5
PK$PEAK: m/z int. rel.int.
  299.051416 100.000002 999
  299.116307 2.50297 25
  299.140116 1.035266 10
  325.029338 1.21377 12
  420.079028 9.094452 90
//
