ACCESSION: MSBNK-EPA-ENTACT_AGILENT002105
RECORD_TITLE: 5-Chlorosalicylanilide; ESI-QTOF; MS2; CE: 10; [M+H]+
DATE: 2023.09.19
AUTHORS: EPA CCTE and Agilent Technologies
LICENSE: CC BY
CH$NAME: 5-Chlorosalicylanilide
CH$NAME: DTXSID9037749
CH$COMPOUND_CLASS: N/A
CH$FORMULA: C13H10ClNO2
CH$EXACT_MASS: 247.040006281
CH$SMILES: OC1C=CC(Cl)=CC=1C(=O)NC1C=CC=CC=1
CH$IUPAC: InChI=1S/C13H10ClNO2/c14-9-6-7-12(16)11(8-9)13(17)15-10-4-2-1-3-5-10/h1-8,16H,(H,15,17)
CH$LINK: CAS 4638-48-6
CH$LINK: INCHIKEY KGYNGVVNFRUOOZ-UHFFFAOYSA-N
CH$LINK: PUBCHEM CID:14869
AC$INSTRUMENT: N/A
AC$INSTRUMENT_TYPE: ESI-QTOF
AC$MASS_SPECTROMETRY: MS_TYPE MS2
AC$MASS_SPECTROMETRY: ION_MODE POSITIVE
AC$MASS_SPECTROMETRY: IONIZATION ESI
AC$MASS_SPECTROMETRY: COLLISION_ENERGY 10
MS$FOCUSED_ION: PRECURSOR_M/Z 248.0472827327
MS$FOCUSED_ION: PRECURSOR_TYPE [M+H]+
MS$DATA_PROCESSING: WHOLE Agilent ChemVista Version 1.0
PK$SPLASH: splash10-0002-2190000000-989b0e4910b5e504f70d
PK$NUM_PEAK: 4
PK$PEAK: m/z int. rel.int.
  94.065126 26.164837 261
  120.04439 1.018826 10
  154.989434 15.396536 153
  248.047283 100.000002 999
//
