ACCESSION: MSBNK-EPA-ENTACT_AGILENT001736
RECORD_TITLE: 4-Chlorophenylurea; ESI-QTOF; MS2; CE: 10; [M+H]+
DATE: 2023.09.19
AUTHORS: EPA CCTE and Agilent Technologies
LICENSE: CC BY
CH$NAME: 4-Chlorophenylurea
CH$NAME: DTXSID5041512
CH$COMPOUND_CLASS: N/A
CH$FORMULA: C7H7ClN2O
CH$EXACT_MASS: 170.0246905704
CH$SMILES: NC(=O)NC1C=CC(Cl)=CC=1
CH$IUPAC: InChI=1S/C7H7ClN2O/c8-5-1-3-6(4-2-5)10-7(9)11/h1-4H,(H3,9,10,11)
CH$LINK: CAS 140-38-5
CH$LINK: INCHIKEY RECCURWJDVZHIH-UHFFFAOYSA-N
CH$LINK: PUBCHEM CID:8796
AC$INSTRUMENT: N/A
AC$INSTRUMENT_TYPE: ESI-QTOF
AC$MASS_SPECTROMETRY: MS_TYPE MS2
AC$MASS_SPECTROMETRY: ION_MODE POSITIVE
AC$MASS_SPECTROMETRY: IONIZATION ESI
AC$MASS_SPECTROMETRY: COLLISION_ENERGY 10
MS$FOCUSED_ION: PRECURSOR_M/Z 171.0319670221
MS$FOCUSED_ION: PRECURSOR_TYPE [M+H]+
MS$DATA_PROCESSING: WHOLE Agilent ChemVista Version 1.0
PK$SPLASH: splash10-00di-0900000000-9a565ab125b054e0f89a
PK$NUM_PEAK: 5
PK$PEAK: m/z int. rel.int.
  93.057301 8.810349 88
  126.010503 4.3495 43
  128.026153 35.504083 354
  154.005418 5.829941 58
  171.031967 100.000001 999
//
