ACCESSION: MSBNK-EPA-ENTACT_AGILENT000622
RECORD_TITLE: 4-Acetylaminophenylacetic acid; ESI-QTOF; MS2; CE: 10; [M+H]+
DATE: 2023.05.02
AUTHORS: EPA CCTE and Agilent Technologies
LICENSE: CC BY
CH$NAME: 4-Acetylaminophenylacetic acid
CH$NAME: DTXSID0020020
CH$COMPOUND_CLASS: N/A
CH$FORMULA: C10H11NO3
CH$EXACT_MASS: 193.0738932252
CH$SMILES: CC(=O)NC1C=CC(CC(O)=O)=CC=1
CH$IUPAC: InChI=1S/C10H11NO3/c1-7(12)11-9-4-2-8(3-5-9)6-10(13)14/h2-5H,6H2,1H3,(H,11,12)(H,13,14)
CH$LINK: CAS 18699-02-0
CH$LINK: INCHIKEY MROJXXOCABQVEF-UHFFFAOYSA-N
CH$LINK: PUBCHEM CID:2018
AC$INSTRUMENT: N/A
AC$INSTRUMENT_TYPE: ESI-QTOF
AC$MASS_SPECTROMETRY: MS_TYPE MS2
AC$MASS_SPECTROMETRY: ION_MODE POSITIVE
AC$MASS_SPECTROMETRY: IONIZATION ESI
AC$MASS_SPECTROMETRY: COLLISION_ENERGY 10
MS$FOCUSED_ION: PRECURSOR_M/Z 194.0811696769
MS$FOCUSED_ION: PRECURSOR_TYPE [M+H]+
MS$DATA_PROCESSING: WHOLE Agilent ChemVista Version 1.0
PK$SPLASH: splash10-052g-0900000000-5236c9ba0426ba97bf95
PK$NUM_PEAK: 7
PK$PEAK: m/z int. rel.int.
  43.017841 1.041165 10
  106.065126 61.549947 614
  107.049141 2.008463 20
  116.070605 1.169923 11
  148.07569 99.231894 991
  152.070605 5.138297 51
  194.08117 100.000001 999
//
