ACCESSION: MSBNK-EPA-ENTACT_AGILENT002444
RECORD_TITLE: 1,6-Hexanediamine; ESI-QTOF; MS2; CE: 10; [M+H]+
DATE: 2023.09.19
AUTHORS: EPA CCTE and Agilent Technologies
LICENSE: CC BY
CH$NAME: 1,6-Hexanediamine
CH$COMPOUND_CLASS: N/A
CH$FORMULA: C6H16N2
CH$EXACT_MASS: 116.1313485252
CH$SMILES: NCCCCCCN
CH$IUPAC: InChI=1S/C6H16N2/c7-5-3-1-2-4-6-8/h1-8H2
CH$LINK: CAS 124-09-4
CH$LINK: INCHIKEY NAQMVNRVTILPCV-UHFFFAOYSA-N
CH$LINK: PUBCHEM CID:16402
AC$INSTRUMENT: N/A
AC$INSTRUMENT_TYPE: ESI-QTOF
AC$MASS_SPECTROMETRY: MS_TYPE MS2
AC$MASS_SPECTROMETRY: ION_MODE POSITIVE
AC$MASS_SPECTROMETRY: IONIZATION ESI
AC$MASS_SPECTROMETRY: COLLISION_ENERGY 10
MS$FOCUSED_ION: PRECURSOR_M/Z 117.1386249769
MS$FOCUSED_ION: PRECURSOR_TYPE [M+H]+
MS$DATA_PROCESSING: WHOLE Agilent ChemVista Version 1.0
PK$SPLASH: splash10-0udi-2900000000-921e643d81f875780611
PK$NUM_PEAK: 5
PK$PEAK: m/z int. rel.int.
  30.033826 1.00393 10
  55.054227 20.455662 204
  83.085527 8.804882 87
  100.112076 100.000004 999
  117.138625 8.305983 82
//
