ACCESSION: MSBNK-EPA-ENTACT_AGILENT000023
RECORD_TITLE: N-(2-Methylphenyl)-3-oxobutanamide; ESI-QTOF; MS2; CE: 10; [M-H]-
DATE: 2023.05.02
AUTHORS: EPA CCTE and Agilent Technologies
LICENSE: CC BY
CH$NAME: N-(2-Methylphenyl)-3-oxobutanamide
CH$COMPOUND_CLASS: N/A
CH$FORMULA: C11H13NO2
CH$EXACT_MASS: 191.0946286667
CH$SMILES: CC(=O)CC(=O)NC1C=CC=CC=1C
CH$IUPAC: InChI=1S/C11H13NO2/c1-8-5-3-4-6-10(8)12-11(14)7-9(2)13/h3-6H,7H2,1-2H3,(H,12,14)
CH$LINK: CAS 93-68-5
CH$LINK: INCHIKEY TVZIWRMELPWPPR-UHFFFAOYSA-N
CH$LINK: PUBCHEM CID:7154
AC$INSTRUMENT: N/A
AC$INSTRUMENT_TYPE: ESI-QTOF
AC$MASS_SPECTROMETRY: MS_TYPE MS2
AC$MASS_SPECTROMETRY: ION_MODE NEGATIVE
AC$MASS_SPECTROMETRY: IONIZATION ESI
AC$MASS_SPECTROMETRY: COLLISION_ENERGY 10
MS$FOCUSED_ION: PRECURSOR_M/Z 190.087352215
MS$FOCUSED_ION: PRECURSOR_TYPE [M-H]-
MS$DATA_PROCESSING: WHOLE Agilent ChemVista Version 1.0
PK$SPLASH: splash10-053r-9400000000-4f1f08f440e326ba2566
PK$NUM_PEAK: 9
PK$PEAK: m/z int. rel.int.
  41.003288 4.114323 41
  57.034588 43.649641 436
  58.042413 1.26857 12
  83.013853 99.999996 999
  83.050238 2.710084 27
  84.021678 4.29813 42
  106.066223 48.028435 479
  107.074048 3.788299 37
  190.087352 33.858302 338
//
