ACCESSION: MSBNK-EPA-ENTACT_AGILENT000280
RECORD_TITLE: 2-Amino-5-nitrobenzonitrile; ESI-QTOF; MS2; CE: 10; [M-H]-
DATE: 2023.05.02
AUTHORS: EPA CCTE and Agilent Technologies
LICENSE: CC BY
CH$NAME: 2-Amino-5-nitrobenzonitrile
CH$NAME: DTXSID0038839
CH$COMPOUND_CLASS: N/A
CH$FORMULA: C7H5N3O2
CH$EXACT_MASS: 163.0381764263
CH$SMILES: NC1C=CC(=CC=1C#N)[N+]([O-])=O
CH$IUPAC: InChI=1S/C7H5N3O2/c8-4-5-3-6(10(11)12)1-2-7(5)9/h1-3H,9H2
CH$LINK: CAS 17420-30-3
CH$LINK: INCHIKEY MGCGMYPNXAFGFA-UHFFFAOYSA-N
CH$LINK: PUBCHEM CID:28532
AC$INSTRUMENT: N/A
AC$INSTRUMENT_TYPE: ESI-QTOF
AC$MASS_SPECTROMETRY: MS_TYPE MS2
AC$MASS_SPECTROMETRY: ION_MODE NEGATIVE
AC$MASS_SPECTROMETRY: IONIZATION ESI
AC$MASS_SPECTROMETRY: COLLISION_ENERGY 10
MS$FOCUSED_ION: PRECURSOR_M/Z 162.0308999746
MS$FOCUSED_ION: PRECURSOR_TYPE [M-H]-
MS$DATA_PROCESSING: WHOLE Agilent ChemVista Version 1.0
PK$SPLASH: splash10-03di-0900000000-9ce8d2d4167c37c9787d
PK$NUM_PEAK: 3
PK$PEAK: m/z int. rel.int.
  116.037997 1.546797 15
  132.032911 19.203041 191
  162.0309 100.000005 999
//
