ACCESSION: MSBNK-EPA-ENTACT_AGILENT002136
RECORD_TITLE: Phenolphthalin; ESI-QTOF; MS2; CE: 10; [M-H]-
DATE: 2023.09.19
AUTHORS: EPA CCTE and Agilent Technologies
LICENSE: CC BY
CH$NAME: Phenolphthalin
CH$COMPOUND_CLASS: N/A
CH$FORMULA: C20H16O4
CH$EXACT_MASS: 320.1048589996
CH$SMILES: OC(=O)C1C=CC=CC=1C(C1C=CC(O)=CC=1)C1C=CC(O)=CC=1
CH$IUPAC: InChI=1S/C20H16O4/c21-15-9-5-13(6-10-15)19(14-7-11-16(22)12-8-14)17-3-1-2-4-18(17)20(23)24/h1-12,19,21-22H,(H,23,24)
CH$LINK: CAS 81-90-3
CH$LINK: INCHIKEY FFFPYJTVNSSLBQ-UHFFFAOYSA-N
CH$LINK: PUBCHEM CID:66494
AC$INSTRUMENT: N/A
AC$INSTRUMENT_TYPE: ESI-QTOF
AC$MASS_SPECTROMETRY: MS_TYPE MS2
AC$MASS_SPECTROMETRY: ION_MODE NEGATIVE
AC$MASS_SPECTROMETRY: IONIZATION ESI
AC$MASS_SPECTROMETRY: COLLISION_ENERGY 10
MS$FOCUSED_ION: PRECURSOR_M/Z 319.0975825479
MS$FOCUSED_ION: PRECURSOR_TYPE [M-H]-
MS$DATA_PROCESSING: WHOLE Agilent ChemVista Version 1.0
PK$SPLASH: splash10-00xr-0096000000-614bb49049fa511305c5
PK$NUM_PEAK: 7
PK$PEAK: m/z int. rel.int.
  93.034588 1.171434 11
  181.065888 2.046024 20
  225.055718 1.504859 15
  273.092103 99.999999 999
  274.099928 1.87251 18
  275.107753 3.228777 32
  319.097583 80.887937 808
//
