ACCESSION: MSBNK-EPA-ENTACT_AGILENT001710
RECORD_TITLE: SB243213A; ESI-QTOF; MS2; CE: 20; [M+H]+
DATE: 2023.09.19
AUTHORS: EPA CCTE and Agilent Technologies
LICENSE: CC BY
CH$NAME: SB243213A
CH$NAME: DTXSID5047322
CH$COMPOUND_CLASS: N/A
CH$FORMULA: C22H19F3N4O2
CH$EXACT_MASS: 428.1460104803
CH$SMILES: CC1=NC=CC=C1OC1=CC=C(C=N1)NC(=O)N1CCC2C=C(C)C(=CC1=2)C(F)(F)F
CH$IUPAC: InChI=1S/C22H19F3N4O2/c1-13-10-15-7-9-29(18(15)11-17(13)22(23,24)25)21(30)28-16-5-6-20(27-12-16)31-19-4-3-8-26-14(19)2/h3-6,8,10-12H,7,9H2,1-2H3,(H,28,30)
CH$LINK: CAS 200940-23-4
CH$LINK: INCHIKEY ZETBBVYSBABLHL-UHFFFAOYSA-N
CH$LINK: PUBCHEM CID:15981450
AC$INSTRUMENT: N/A
AC$INSTRUMENT_TYPE: ESI-QTOF
AC$MASS_SPECTROMETRY: MS_TYPE MS2
AC$MASS_SPECTROMETRY: ION_MODE POSITIVE
AC$MASS_SPECTROMETRY: IONIZATION ESI
AC$MASS_SPECTROMETRY: COLLISION_ENERGY 20
MS$FOCUSED_ION: PRECURSOR_M/Z 429.153286932
MS$FOCUSED_ION: PRECURSOR_TYPE [M+H]+
MS$DATA_PROCESSING: WHOLE Agilent ChemVista Version 1.0
PK$SPLASH: splash10-004i-0090400000-8558026fdb865bf34417
PK$NUM_PEAK: 5
PK$PEAK: m/z int. rel.int.
  92.049476 1.342974 13
  228.076753 100.000003 999
  228.132023 5.285149 52
  228.155832 3.069812 30
  429.153287 58.677161 586
//
