ACCESSION: MSBNK-EPA-ENTACT_AGILENT001435
RECORD_TITLE: 3-Chloro-7-hydroxy-4-methyl-2-benzopyrone; ESI-QTOF; MS2; CE: 10; [M+H]+
DATE: 2023.09.19
AUTHORS: EPA CCTE and Agilent Technologies
LICENSE: CC BY
CH$NAME: 3-Chloro-7-hydroxy-4-methyl-2-benzopyrone
CH$NAME: DTXSID8052724
CH$COMPOUND_CLASS: N/A
CH$FORMULA: C10H7ClO3
CH$EXACT_MASS: 210.0083718002
CH$SMILES: CC1=C(Cl)C(=O)OC2C=C(O)C=CC=21
CH$IUPAC: InChI=1S/C10H7ClO3/c1-5-7-3-2-6(12)4-8(7)14-10(13)9(5)11/h2-4,12H,1H3
CH$LINK: CAS 6174-86-3
CH$LINK: INCHIKEY ODZHLDRQCZXQFQ-UHFFFAOYSA-N
CH$LINK: PUBCHEM CID:5355079
AC$INSTRUMENT: N/A
AC$INSTRUMENT_TYPE: ESI-QTOF
AC$MASS_SPECTROMETRY: MS_TYPE MS2
AC$MASS_SPECTROMETRY: ION_MODE POSITIVE
AC$MASS_SPECTROMETRY: IONIZATION ESI
AC$MASS_SPECTROMETRY: COLLISION_ENERGY 10
MS$FOCUSED_ION: PRECURSOR_M/Z 211.0156482519
MS$FOCUSED_ION: PRECURSOR_TYPE [M+H]+
MS$DATA_PROCESSING: WHOLE Agilent ChemVista Version 1.0
PK$SPLASH: splash10-03di-0090000000-d9b3ae7b33577611bb21
PK$NUM_PEAK: 3
PK$PEAK: m/z int. rel.int.
  131.049141 2.393166 23
  132.056966 1.242112 12
  211.015648 100.000001 999
//
