ACCESSION: MSBNK-EPA-ENTACT_AGILENT001150
RECORD_TITLE: 2-Amino-6-hydroxy-1H-pyrimidin-4-one; ESI-QTOF; MS2; CE: 20; [M-H]-
DATE: 2023.09.19
AUTHORS: EPA CCTE and Agilent Technologies
LICENSE: CC BY
CH$NAME: 2-Amino-6-hydroxy-1H-pyrimidin-4-one
CH$NAME: DTXSID3052222
CH$COMPOUND_CLASS: N/A
CH$FORMULA: C4H5N3O2
CH$EXACT_MASS: 127.0381764263
CH$SMILES: NC1NC(=O)CC(=O)N=1
CH$IUPAC: InChI=1S/C4H5N3O2/c5-4-6-2(8)1-3(9)7-4/h1H2,(H3,5,6,7,8,9)
CH$LINK: CAS 56-09-7
CH$LINK: INCHIKEY BTYNVOQLMBUUMS-UHFFFAOYSA-N
CH$LINK: PUBCHEM CID:78146
AC$INSTRUMENT: N/A
AC$INSTRUMENT_TYPE: ESI-QTOF
AC$MASS_SPECTROMETRY: MS_TYPE MS2
AC$MASS_SPECTROMETRY: ION_MODE NEGATIVE
AC$MASS_SPECTROMETRY: IONIZATION ESI
AC$MASS_SPECTROMETRY: COLLISION_ENERGY 20
MS$FOCUSED_ION: PRECURSOR_M/Z 126.0308999746
MS$FOCUSED_ION: PRECURSOR_TYPE [M-H]-
MS$DATA_PROCESSING: WHOLE Agilent ChemVista Version 1.0
PK$SPLASH: splash10-0006-9000000000-6e98f767c044f205f14e
PK$NUM_PEAK: 10
PK$PEAK: m/z int. rel.int.
  38.016199 1.874359 18
  40.019273 67.756191 676
  41.003288 16.444326 164
  41.014522 100.000001 999
  41.998537 30.901111 308
  58.041071 24.585994 245
  65.014522 5.305503 53
  82.041071 38.842104 388
  83.025086 2.958471 29
  84.009102 2.676417 26
//
