ACCESSION: MSBNK-EPA-ENTACT_AGILENT002110
RECORD_TITLE: 1-Methyl-1,3-dihydro-2H-benzimidazole-2-thione; ESI-QTOF; MS2; CE: 40; [M-H]-
DATE: 2023.09.19
AUTHORS: EPA CCTE and Agilent Technologies
LICENSE: CC BY
CH$NAME: 1-Methyl-1,3-dihydro-2H-benzimidazole-2-thione
CH$NAME: DTXSID40178252
CH$COMPOUND_CLASS: N/A
CH$FORMULA: C8H8N2S
CH$EXACT_MASS: 164.040819
CH$SMILES: CN1C(=S)NC2=CC=CC=C12
CH$IUPAC: InChI=1S/C8H8N2S/c1-10-7-5-3-2-4-6(7)9-8(10)11/h2-5H,1H3,(H,9,11)
CH$LINK: CAS 2360-22-7
CH$LINK: INCHIKEY CDNHLXOFELOEOL-UHFFFAOYSA-N
CH$LINK: PUBCHEM CID:1522244
AC$INSTRUMENT: N/A
AC$INSTRUMENT_TYPE: ESI-QTOF
AC$MASS_SPECTROMETRY: MS_TYPE MS2
AC$MASS_SPECTROMETRY: ION_MODE NEGATIVE
AC$MASS_SPECTROMETRY: IONIZATION ESI
AC$MASS_SPECTROMETRY: COLLISION_ENERGY 40
MS$FOCUSED_ION: PRECURSOR_M/Z 163.0335425483
MS$FOCUSED_ION: PRECURSOR_TYPE [M-H]-
MS$DATA_PROCESSING: WHOLE Agilent ChemVista Version 1.0
PK$SPLASH: splash10-0a4i-9500000000-830f950ddcddcd26266c
PK$NUM_PEAK: 8
PK$PEAK: m/z int. rel.int.
  57.975693 99.999998 999
  64.006697 1.769192 17
  104.037997 19.219908 192
  115.030172 1.133999 11
  117.045822 3.497652 34
  130.053647 1.277217 12
  131.061472 1.09046 10
  148.010067 40.355216 403
//
