ACCESSION: MSBNK-Univ_Toyama-TY000254
RECORD_TITLE: Scoparin; LC-ESI-ITTOF; MS2; [M-H]-
DATE: 2016.01.19 (Created 2010.10.26, modified 2011.05.06)
AUTHORS: Toshimitsu HAYASHI, Ken TANAKA
LICENSE: CC BY-SA
CH$NAME: Scoparin
CH$NAME: Chrysoeriol 8-C-glucoside
CH$NAME: 8-beta-D-Glucopyranosyl-5,7-dihydroxy-2-(4-hydroxy-3-methoxyphenyl)-4H-1-benzopyran-4-one
CH$NAME: 8-C-beta-D-Glucopyranosylchrysoeriol
CH$COMPOUND_CLASS: Natural Product; Flavonoid
CH$FORMULA: C22H22O11
CH$EXACT_MASS: 462.116211524
CH$SMILES: COC1=C(C=CC(=C1)C2=CC(=O)C3=C(O2)C(=C(C=C3O)O)[C@H]4[C@@H]([C@H]([C@@H]([C@H](O4)CO)O)O)O)O
CH$IUPAC: InChI=1S/C22H22O11/c1-31-14-4-8(2-3-9(14)24)13-6-12(27)16-10(25)5-11(26)17(21(16)32-13)22-20(30)19(29)18(28)15(7-23)33-22/h2-6,15,18-20,22-26,28-30H,7H2,1H3/t15-,18-,19+,20-,22+/m1/s1
CH$LINK: CAS 301-16-6
CH$LINK: INCHIKEY YXHFXGHAELQJGK-PGPONNFDSA-N
CH$LINK: PUBCHEM CID:20055255
AC$INSTRUMENT: LCMS-IT-TOF
AC$INSTRUMENT_TYPE: LC-ESI-ITTOF
AC$MASS_SPECTROMETRY: MS_TYPE MS2
AC$MASS_SPECTROMETRY: ION_MODE NEGATIVE
AC$MASS_SPECTROMETRY: CDL_TEMPERATURE 200 C
AC$MASS_SPECTROMETRY: INTERFACE_VOLTAGE -3.50 kV
AC$MASS_SPECTROMETRY: SCANNING 0.1 sec/scan (m/z = 200-2000)
AC$CHROMATOGRAPHY: COLUMN_NAME Waters Atlantis T3 (2.1 x 150 mm, 5 um)
AC$CHROMATOGRAPHY: COLUMN_TEMPERATURE 40 C
AC$CHROMATOGRAPHY: FLOW_GRADIENT 10 % B to 100 % B/40 min
AC$CHROMATOGRAPHY: FLOW_RATE 0.2 ml/min
AC$CHROMATOGRAPHY: RETENTION_TIME 10.901983 min
AC$CHROMATOGRAPHY: SOLVENT A 5 mM ammonium acetate
AC$CHROMATOGRAPHY: SOLVENT B CH3CN
MS$FOCUSED_ION: BASE_PEAK 341.063600
MS$FOCUSED_ION: PRECURSOR_M/Z 461.114200
PK$SPLASH: splash10-0006-0019000000-4468690fbe056ea1051c
PK$NUM_PEAK: 15
PK$PEAK: m/z int. rel.int.
  298.056100 1006785.000000 208
  298.404600 26915.000000 6
  299.052300 330433.000000 68
  300.066900 31507.000000 6
  313.072300 442081.000000 91
  314.076300 126374.000000 26
  326.041300 285946.000000 59
  327.048500 66725.000000 14
  341.063600 4845215.000000 999
  341.241100 84399.000000 17
  341.400900 110446.000000 23
  341.614000 60072.000000 12
  341.880400 24043.000000 5
  342.075900 713639.000000 147
  371.085900 85352.000000 18
//
