ACCESSION: MSBNK-Univ_Toyama-TY000169
RECORD_TITLE: Hirsutrin; LC-ESI-ITTOF; MS2; [M+H]+
DATE: 2016.01.19 (Created 2010.10.14, modified 2011.05.06)
AUTHORS: Toshimitsu HAYASHI, Ken TANAKA
LICENSE: CC BY-SA
CH$NAME: Hirsutrin
CH$NAME: 2-(3,4-Dihydroxyphenyl)-3-(beta-D-glucopyranosyloxy)-5,7-dihydroxy-4H-1-benzopyran-4-one
CH$NAME: 3-Glucosylquercetin
CH$NAME: 3-O-beta-D-Glucopyranosylquercetin
CH$NAME: 3',4',5,7-Tetrahydroxyflavone-3-beta-D-glucopyranoside
CH$NAME: Contigoside B
CH$NAME: Glucosyl-3-quercetin
CH$NAME: Isoquercetin
CH$NAME: Isoquercetrin
CH$NAME: Isoquercitrin
CH$NAME: Quercetin 3-D-glucoside
CH$NAME: Quercetin 3-O-glucopyranoside
CH$NAME: Quercetin 3-O-glucoside
CH$NAME: Quercetin 3-O-beta-D-glucopyranoside
CH$NAME: Quercetin 3-O-beta-D-glucoside
CH$NAME: Quercetin 3-O-beta-glucoside
CH$NAME: Quercetin 3-glucoside
CH$NAME: Quercetin 3-mono-D-glucoside
CH$NAME: Quercetin 3-monoglucoside
CH$NAME: Quercetin 3-beta-D-glucopyranoside
CH$NAME: Quercetin 3-beta-D-glucoside
CH$NAME: Quercetin 3beta-O-glucoside
CH$NAME: Quercetin 3beta-glucoside
CH$NAME: Quercetin glucoside
CH$NAME: Quercetin-3-glucose
CH$NAME: Quercetin-3-beta-glucopyranoside
CH$NAME: Quercetol 3-glucoside
CH$NAME: Quercetol 3-monoglucoside
CH$COMPOUND_CLASS: Natural Product; Flavonoid
CH$FORMULA: C21H20O12
CH$EXACT_MASS: 464.09548
CH$SMILES: OCC(O1)C(O)C(O)C(O)C1OC(C(=O)3)=C(Oc(c4)c(c(O)cc(O)4)3)c(c2)cc(O)c(O)c2
CH$IUPAC: InChI=1S/C21H20O12/c22-6-13-15(27)17(29)18(30)21(32-13)33-20-16(28)14-11(26)4-8(23)5-12(14)31-19(20)7-1-2-9(24)10(25)3-7/h1-5,13,15,17-18,21-27,29-30H,6H2/t13-,15-,17+,18-,21+/m1/s1
CH$LINK: CAS 482-35-9
CH$LINK: INCHIKEY OVSQVDMCBVZWGM-QSOFNFLRSA-N
AC$INSTRUMENT: LCMS-IT-TOF
AC$INSTRUMENT_TYPE: LC-ESI-ITTOF
AC$MASS_SPECTROMETRY: MS_TYPE MS2
AC$MASS_SPECTROMETRY: ION_MODE POSITIVE
AC$MASS_SPECTROMETRY: CDL_TEMPERATURE 200 C
AC$MASS_SPECTROMETRY: INTERFACE_VOLTAGE +4.50 kV
AC$MASS_SPECTROMETRY: SCANNING 0.1 sec/scan (m/z = 200-2000)
AC$CHROMATOGRAPHY: COLUMN_NAME Waters Atlantis T3 (2.1 x 150 mm, 5 um)
AC$CHROMATOGRAPHY: COLUMN_TEMPERATURE 40 C
AC$CHROMATOGRAPHY: FLOW_GRADIENT 10 % B to 100 % B/40 min
AC$CHROMATOGRAPHY: FLOW_RATE 0.2 ml/min
AC$CHROMATOGRAPHY: RETENTION_TIME 11.525500 min
AC$CHROMATOGRAPHY: SOLVENT A 5 mM ammonium acetate
AC$CHROMATOGRAPHY: SOLVENT B CH3CN
MS$FOCUSED_ION: BASE_PEAK 303.052300
MS$FOCUSED_ION: PRECURSOR_M/Z 465.108200
PK$SPLASH: splash10-0udi-0009000000-2ebb7df36bf937c2125b
PK$NUM_PEAK: 15
PK$PEAK: m/z int. rel.int.
  161.058300 78395.000000 7
  165.034000 118021.000000 10
  183.056100 71945.000000 6
  187.056400 61971.000000 5
  201.056900 111676.000000 10
  229.058600 456740.000000 40
  257.048500 301725.000000 27
  274.053200 74777.000000 7
  285.059100 80457.000000 7
  303.052300 11345753.000000 999
  303.202800 218888.000000 19
  303.353500 245377.000000 22
  303.587800 155618.000000 14
  303.805500 93658.000000 8
  304.056800 1961157.000000 173
//
