ACCESSION: MSBNK-Univ_Toyama-TY000190
RECORD_TITLE: Capreoside; LC-ESI-ITTOF; MS2; [M+H]+
DATE: 2016.01.19 (Created 2010.10.14, modified 2011.05.06)
AUTHORS: Toshimitsu HAYASHI, Ken TANAKA
LICENSE: CC BY-SA
CH$NAME: Capreoside
CH$NAME: 7-[(6-O-alpha-L-Arabinofuranosyl-beta-D-glucopyranosyl)oxy]-5-hydroxy-2-(3-hydroxy-4-methoxyphenyl)-4H-1-benzopyran-4-one
CH$NAME: Diosmetin-7-arabinoglucoside
CH$COMPOUND_CLASS: Natural Product; Flavonoid
CH$FORMULA: C27H30O15
CH$EXACT_MASS: 594.15847
CH$SMILES: C(C5O)(CO)OC(C5O)OCC(O1)C(C(C(C1Oc(c4)cc(O2)c(c4O)C(C=C2c(c3)cc(O)c(OC)c3)=O)O)O)O
CH$IUPAC: InChI=1S/C27H30O15/c1-37-15-3-2-10(4-12(15)29)16-7-14(31)20-13(30)5-11(6-17(20)40-16)39-27-25(36)23(34)22(33)19(42-27)9-38-26-24(35)21(32)18(8-28)41-26/h2-7,18-19,21-30,32-36H,8-9H2,1H3/t18-,19+,21-,22+,23-,24+,25+,26+,27+/m0/s1
CH$LINK: CAS 7077-96-5
CH$LINK: INCHIKEY GHYGFLACCCIQKR-FZDLENLWSA-N
AC$INSTRUMENT: LCMS-IT-TOF
AC$INSTRUMENT_TYPE: LC-ESI-ITTOF
AC$MASS_SPECTROMETRY: MS_TYPE MS2
AC$MASS_SPECTROMETRY: ION_MODE POSITIVE
AC$MASS_SPECTROMETRY: CDL_TEMPERATURE 200 C
AC$MASS_SPECTROMETRY: INTERFACE_VOLTAGE +4.50 kV
AC$MASS_SPECTROMETRY: SCANNING 0.1 sec/scan (m/z = 200-2000)
AC$CHROMATOGRAPHY: COLUMN_NAME Waters Atlantis T3 (2.1 x 150 mm, 5 um)
AC$CHROMATOGRAPHY: COLUMN_TEMPERATURE 40 C
AC$CHROMATOGRAPHY: FLOW_GRADIENT 10 % B to 100 % B/40 min
AC$CHROMATOGRAPHY: FLOW_RATE 0.2 ml/min
AC$CHROMATOGRAPHY: RETENTION_TIME 11.468567 min
AC$CHROMATOGRAPHY: SOLVENT A 5 mM ammonium acetate
AC$CHROMATOGRAPHY: SOLVENT B CH3CN
MS$FOCUSED_ION: BASE_PEAK 301.076300
MS$FOCUSED_ION: PRECURSOR_M/Z 595.154700
PK$SPLASH: splash10-0udi-0039100000-9e68b22465df05e1fe30
PK$NUM_PEAK: 15
PK$PEAK: m/z int. rel.int.
  229.042400 1804420.000000 14
  257.045500 1187981.000000 9
  258.047900 18601531.000000 148
  259.052200 1160497.000000 9
  286.045300 26938133.000000 215
  287.053900 1539191.000000 12
  301.076300 125194541.000000 999
  301.226400 2321013.000000 19
  301.376600 3001197.000000 24
  301.610200 2048106.000000 16
  301.810500 808756.000000 6
  302.077600 15390356.000000 123
  313.065400 568546.000000 5
  463.119800 14677705.000000 117
  464.113000 5473940.000000 44
//
