ACCESSION: MSBNK-CPU-ACYL_PAS_000001
RECORD_TITLE: Cinnamic_acid_acylated_spermidine; LC-ESI-QTOF; MS2; CE 20 V; [M+H]+
DATE: 2025.04.16
AUTHORS: Yiran Zhang, Qinwen Xiao, Xinyao Zhou, Yan Li, Shilin Wang, Xinyi Zhou, Ruoxun Chen, Ying Zhang, Meiyu Gao, Fengguo Xu, Pei Zhang.
LICENSE: CC BY
CH$NAME: Cinnamic_acid_acylated_spermidine
CH$COMPOUND_CLASS: Natural Product; Acylated Polyamines
CH$FORMULA: C16H25N3O
CH$EXACT_MASS: 275.1998
CH$SMILES: O=C(NCCCNCCCCN)/C=C/C1=CC=CC=C1
CH$IUPAC: InChI=1S/C16H25N3O/c17-11-4-5-12-18-13-6-14-19-16(20)10-9-15-7-2-1-3-8-15/h1-3,7-10,18H,4-6,11-14,17H2,(H,19,20)/b10-9+
CH$LINK: CHEBI 234018
CH$LINK: INCHIKEY XPIMOOLZEIEDTA-MDZDMXLPSA-N
AC$INSTRUMENT: 1290 HPLC, Agilent; Q-TOF, Agilent
AC$INSTRUMENT_TYPE: LC-ESI-QTOF
AC$MASS_SPECTROMETRY: MS_TYPE MS2
AC$MASS_SPECTROMETRY: ION_MODE POSITIVE
AC$MASS_SPECTROMETRY: IONIZATION ESI
AC$MASS_SPECTROMETRY: COLLISION_ENERGY 20 V
MS$FOCUSED_ION: PRECURSOR_M/Z 276.2084
MS$FOCUSED_ION: PRECURSOR_TYPE [M+H]+
PK$SPLASH: splash10-0079-3900000000-be162d0c446d9a2c17a2
PK$NUM_PEAK: 13
PK$PEAK: m/z int. rel.int.
  72.0808 61.16 61
  73.0841 3.18 31
  103.0538 1.9 19
  112.1115 1.5 15
  131.0488 33.97 339
  132.0521 3.02 30
  188.107 100 999
  189.1099 19.89 198
  190.1128 1.26 12
  205.1327 1.6 16
  259.1799 5.62 56
  260.183 1.84 18
  276.2062 1.33 13
//
