ACCESSION: MSBNK-NILU-NL0339
RECORD_TITLE: 1-3-Di-tolylguanidine; ESI-QTOF; MS2; CE: 40
DATE: 2024.11.15
AUTHORS: MILK, NILU
LICENSE: CC BY
CH$NAME: 1-3-Di-tolylguanidine
CH$NAME: 1,2-bis(2-methylphenyl)guanidine
CH$COMPOUND_CLASS: Non-natural product; Industrial chemical
CH$FORMULA: C15H17N3
CH$EXACT_MASS: 239.14225
CH$SMILES: CC1=CC=CC=C1NC(=N)NC1=CC=CC=C1C
CH$IUPAC: InChI=1S/C15H17N3/c1-11-7-3-5-9-13(11)17-15(16)18-14-10-6-4-8-12(14)2/h3-10H,1-2H3,(H3,16,17,18)
CH$LINK: CAS 97-39-2
AC$INSTRUMENT: Agilent 6546 Q-ToF
AC$INSTRUMENT_TYPE: ESI-QTOF
AC$MASS_SPECTROMETRY: MS_TYPE MS2
AC$MASS_SPECTROMETRY: ION_MODE POSITIVE
AC$MASS_SPECTROMETRY: IONIZATION ESI
AC$MASS_SPECTROMETRY: COLLISION_ENERGY 40
MS$FOCUSED_ION: PRECURSOR_M/Z 240.14951
PK$SPLASH: splash10-0a4l-5900000000-c15331c13bc42a5c0f77
PK$NUM_PEAK: 29
PK$PEAK: m/z int. rel.int.
  65.0387 1.117682 11
  77.0374 1.230547 12
  77.0384 4.211141 42
  79.054 11.90222 118
  89.0385 13.83608 138
  91.0542 71.75885 716
  91.0607 6.878939 68
  93.0574 40.60241 405
  93.0623 1.392105 13
  93.0644 1.955622 19
  104.0495 2.285025 22
  106.0651 100 999
  106.0721 9.391626 93
  108.0807 36.59281 365
  108.088 3.535404 35
  116.0494 58.74314 586
  116.0566 3.628437 36
  116.058 1.771975 17
  117.0571 5.552134 55
  118.0523 5.674189 56
  118.0652 3.163918 31
  118.0666 1.491748 14
  131.0605 1.411775 14
  132.0681 8.841493 88
  133.0759 21.08747 210
  133.084 1.667494 16
  134.0605 1.525124 15
  208.099 1.182338 11
  223.124 1.271501 12
//
