ACCESSION: MSBNK-NILU-NL0376
RECORD_TITLE: Bisphenol A bis(2-hydroxypropyl) ether; ESI-QTOF; MS2; CE: 20; [M+NH4]+
DATE: 2024.11.15
AUTHORS: MILK, NILU
LICENSE: CC BY
CH$NAME: Bisphenol A bis(2-hydroxypropyl) ether
CH$NAME: 1,1'-[Isopropylidenebis(p-phenyleneoxy)]di-2-propanol
CH$COMPOUND_CLASS: Non-natural product; Industrial chemical
CH$FORMULA: C21H28O4
CH$EXACT_MASS: 344.19876
CH$SMILES: CC(C)(C1C=CC(=CC=1)OCC(C)O)C1C=CC(=CC=1)OCC(C)O
CH$IUPAC: InChI=1S/C21H28O4/c1-15(22)13-24-19-9-5-17(6-10-19)21(3,4)18-7-11-20(12-8-18)25-14-16(2)23/h5-12,15-16,22-23H,13-14H2,1-4H3
CH$LINK: CAS 116-37-0
CH$LINK: CHEMSPIDER 8005
CH$LINK: KEGG C15208
AC$INSTRUMENT: Agilent 6546 Q-ToF
AC$INSTRUMENT_TYPE: ESI-QTOF
AC$MASS_SPECTROMETRY: MS_TYPE MS2
AC$MASS_SPECTROMETRY: ION_MODE POSITIVE
AC$MASS_SPECTROMETRY: IONIZATION ESI
AC$MASS_SPECTROMETRY: COLLISION_ENERGY 20
AC$CHROMATOGRAPHY: RETENTION_TIME 4.415
MS$FOCUSED_ION: PRECURSOR_M/Z 362.23261
MS$FOCUSED_ION: PRECURSOR_TYPE [M+NH4]+
PK$SPLASH: splash10-000f-0900000000-9501f8ec63932db6601c
PK$NUM_PEAK: 10
PK$PEAK: m/z int. rel.int.
  107.0492 2.19471 21
  135.0806 53.32833 532
  135.0886 3.248388 32
  175.1118 13.4779 134
  175.1206 1.181393 11
  193.1224 100 999
  193.1527 3.392578 33
  269.1533 1.288687 12
  309.1853 4.573936 45
  327.1963 1.410004 14
//
