ACCESSION: MSBNK-NILU-NL0305
RECORD_TITLE: Gentian Violet; LC-ESI-QTOF; MSn
DATE: 2024.09.19
AUTHORS: Environmental Chemistry section, NIVA
LICENSE: CC BY
CH$NAME: Gentian Violet
CH$NAME: [4-[bis[4-(dimethylamino)phenyl]methylidene]cyclohexa-2,5-dien-1-ylidene]-dimethylazanium
CH$COMPOUND_CLASS: Non-Natural Product; Dye
CH$FORMULA: [C25H30N3]+
CH$EXACT_MASS: 372.243424398
CH$SMILES: CN(C)C1=CC=C(C=C1)C(=C2C=CC(=[N+](C)C)C=C2)C3=CC=C(C=C3)N(C)C
CH$IUPAC: InChI=1S/C25H30N3/c1-26(2)22-13-7-19(8-14-22)25(20-9-15-23(16-10-20)27(3)4)21-11-17-24(18-12-21)28(5)6/h7-18H,1-6H3/q+1
AC$INSTRUMENT: Waters G2-S QTOF
AC$INSTRUMENT_TYPE: LC-ESI-QTOF
AC$MASS_SPECTROMETRY: MS_TYPE MSn
AC$MASS_SPECTROMETRY: ION_MODE POSITIVE
MS$FOCUSED_ION: PRECURSOR_M/Z 372.244
MS$FOCUSED_ION: PRECURSOR_TYPE [M]+
PK$SPLASH: splash10-00di-0009000000-2bdd9f73bf8eae5050d0
PK$NUM_PEAK: 24
PK$PEAK: m/z int. rel.int.
  235.1242 220600 8
  236.1307 126200 4
  239.0872 39390 1
  251.1552 319500 12
  252.1583 59720 2
  268.1125 47520 1
  284.1436 147000 5
  285.1485 30080 1
  311.1552 56090 2
  312.1613 108100 4
  313.1686 85940 3
  327.1856 64930 2
  328.1934 503100 19
  329.1990 198600 7
  340.1816 746800 28
  341.1864 266400 10
  342.1937 88770 3
  356.2137 10120000 387
  357.2167 3140000 120
  358.2201 345400 13
  372.2456 26090000 999
  373.2477 8411000 322
  374.2501 839300 32
  375.2508 57420 2
//
