ACCESSION: MSBNK-NILU-NL0242
RECORD_TITLE: 4,4'-(2-Ethylhexylidene)diphenol; ESI-QTOF; MS2; CE: 10
DATE: 2024.11.15
AUTHORS: MILK, NILU
LICENSE: CC BY
CH$NAME: 4,4'-(2-Ethylhexylidene)diphenol
CH$NAME: 1,1-Bis(4-hydroxyphenyl)-2-ethylhexane
CH$COMPOUND_CLASS: Non-natural product; Industrial chemical
CH$FORMULA: C20H26O2
CH$EXACT_MASS: 298.19328
CH$SMILES: CCC(CCCC)C(C1C=CC(O)=CC=1)C1C=CC(O)=CC=1
CH$IUPAC: InChI=1S/C20H26O2/c1-3-5-6-15(4-2)20(16-7-11-18(21)12-8-16)17-9-13-19(22)14-10-17/h7-15,20-22H,3-6H2,1-2H3
CH$LINK: CAS 74462-02-5
AC$INSTRUMENT: Agilent 6546 Q-ToF
AC$INSTRUMENT_TYPE: ESI-QTOF
AC$MASS_SPECTROMETRY: MS_TYPE MS2
AC$MASS_SPECTROMETRY: ION_MODE NEGATIVE
AC$MASS_SPECTROMETRY: IONIZATION ESI
AC$MASS_SPECTROMETRY: COLLISION_ENERGY 10
MS$FOCUSED_ION: PRECURSOR_M/Z 297.186
PK$SPLASH: splash10-0002-0290000000-884593f31640350f5965
PK$NUM_PEAK: 16
PK$PEAK: m/z int. rel.int.
  61.9886 1.1459 11
  148.0327 1.11776 11
  197.0617 1.368408 13
  198.0688 30.1005 300
  198.0777 2.102835 21
  297.0475 2.209989 22
  297.1523 2.638047 26
  297.1862 100 999
  297.1989 8.997427 89
  297.2434 1.718197 17
  297.2544 1.027005 10
  298.1904 1.699189 16
  773.8249 1.017687 10
  955.9652 2.053078 20
  980.0084 1.383316 13
  980.0191 6.325836 63
//
