ACCESSION: MSBNK-NILU-NL0354
RECORD_TITLE: UV-1577; ESI-QTOF; MS2; CE: 40; [M+H]+
DATE: 2024.11.15
AUTHORS: MILK, NILU
LICENSE: CC BY
CH$NAME: UV-1577
CH$NAME: 2-(4,6-Diphenyl-1,3,5-triazin-2-yl)-5-[(hexyl)oxy]-phenol
CH$COMPOUND_CLASS: Non-natural product; UV filer
CH$FORMULA: C27H27N3O2
CH$EXACT_MASS: 425.21033
CH$SMILES: CCCCCCOC1=CC(O)=C(C=C1)C1N=C(N=C(N=1)C1C=CC=CC=1)C1C=CC=CC=1
CH$IUPAC: InChI=1S/C27H27N3O2/c1-2-3-4-11-18-32-22-16-17-23(24(31)19-22)27-29-25(20-12-7-5-8-13-20)28-26(30-27)21-14-9-6-10-15-21/h5-10,12-17,19,31H,2-4,11,18H2,1H3
CH$LINK: CAS 147315-50-2
AC$INSTRUMENT: Agilent 6546 Q-ToF
AC$INSTRUMENT_TYPE: ESI-QTOF
AC$MASS_SPECTROMETRY: MS_TYPE MS2
AC$MASS_SPECTROMETRY: ION_MODE POSITIVE
AC$MASS_SPECTROMETRY: IONIZATION ESI
AC$MASS_SPECTROMETRY: COLLISION_ENERGY 40
AC$CHROMATOGRAPHY: RETENTION_TIME 6.53
MS$FOCUSED_ION: PRECURSOR_M/Z 426.21786
MS$FOCUSED_ION: PRECURSOR_TYPE [M+H]+
PK$SPLASH: splash10-0udr-0900000000-46cd95d0e5ca7c788777
PK$NUM_PEAK: 10
PK$PEAK: m/z int. rel.int.
  77.0385 2.78841 27
  80.0494 1.814162 18
  92.0494 1.209711 12
  104.0497 100 999
  104.072 3.647904 36
  136.0396 76.27409 761
  136.0651 2.967162 29
  220.1334 13.6572 136
  342.1238 5.027297 50
  426.2176 1.523725 15
//
