ACCESSION: MSBNK-NILU-NL0275
RECORD_TITLE: PFDA; LC-ESI-FT; MS2
DATE: 2024.12.10
AUTHORS: MILK, NILU
LICENSE: CC BY
COPYRIGHT: MILK, NILU
CH$NAME: PFDA
CH$NAME: 2,2,3,3,4,4,5,5,6,6,7,7,8,8,9,9,10,10,10-nonadecafluorodecanoic acid
CH$COMPOUND_CLASS: Non-Natural Product; Perfluoroalkyl carboxylic acid
CH$FORMULA: C10HF19O2
CH$EXACT_MASS: 513.9673143
CH$SMILES: C(=O)(C(C(C(C(C(C(C(C(C(F)(F)F)(F)F)(F)F)(F)F)(F)F)(F)F)(F)F)(F)F)(F)F)O
CH$IUPAC: InChI=1S/C10HF19O2/c11-2(12,1(30)31)3(13,14)4(15,16)5(17,18)6(19,20)7(21,22)8(23,24)9(25,26)10(27,28)29/h(H,30,31)
AC$INSTRUMENT: Vanquish LC, Thermo Scientific; Exploris 120 Orbitrap, Thermo Scientific
AC$INSTRUMENT_TYPE: LC-ESI-FT
AC$MASS_SPECTROMETRY: MS_TYPE MS2
AC$MASS_SPECTROMETRY: ION_MODE NEGATIVE
AC$CHROMATOGRAPHY: RETENTION_TIME 7.05959289229711
MS$FOCUSED_ION: PRECURSOR_M/Z 512.95911
MS$FOCUSED_ION: PRECURSOR_TYPE [M-H]-
PK$SPLASH: splash10-014i-0150900000-25a49715f8952b26412c
PK$NUM_PEAK: 16
PK$PEAK: m/z int. rel.int.
  62.98867 54187.00 9
  68.99557 71661.00 11
  84.48540 29951.00 5
  87.44125 25489.00 4
  118.99238 338793.00 54
  168.98921 871282.00 139
  194.35905 23760.00 4
  196.98199 25832.00 4
  216.21370 29715.00 5
  218.98570 1926546.00 308
  236.08130 28703.00 5
  268.98254 1703919.00 273
  318.98013 305433.00 49
  391.56647 28403.00 5
  468.96951 6246477.00 999
  512.96234 60080.00 10
//
