ACCESSION: MSBNK-NILU-NL0228
RECORD_TITLE: 5,5',6,6'-Tetramethyl-3,3'-di-tert-butyl-1,1'-biphenyl-2,2'-diol; ESI-QTOF; MS2; CE: 20
DATE: 2024.11.15
AUTHORS: MILK, NILU
LICENSE: CC BY
CH$NAME: 5,5',6,6'-Tetramethyl-3,3'-di-tert-butyl-1,1'-biphenyl-2,2'-diol
CH$NAME: S-BIPHEN
CH$COMPOUND_CLASS: Non-natural product; Industrial chemical
CH$FORMULA: C24H34O2
CH$EXACT_MASS: 354.25588
CH$SMILES: CC(C)(C)C1C=C(C)C(C)=C(C2C(O)=C(C=C(C)C=2C)C(C)(C)C)C=1O
CH$IUPAC: InChI=1S/C24H34O2/c1-13-11-17(23(5,6)7)21(25)19(15(13)3)20-16(4)14(2)12-18(22(20)26)24(8,9)10/h11-12,25-26H,1-10H3
CH$LINK: CAS 205927-03-3
AC$INSTRUMENT: Agilent 6546 Q-ToF
AC$INSTRUMENT_TYPE: ESI-QTOF
AC$MASS_SPECTROMETRY: MS_TYPE MS2
AC$MASS_SPECTROMETRY: ION_MODE NEGATIVE
AC$MASS_SPECTROMETRY: IONIZATION ESI
AC$MASS_SPECTROMETRY: COLLISION_ENERGY 20
MS$FOCUSED_ION: PRECURSOR_M/Z 353.2486
PK$SPLASH: splash10-0udi-0009000000-db419e9c78345322f8ab
PK$NUM_PEAK: 8
PK$PEAK: m/z int. rel.int.
  113.0226 2.592975 25
  335.2405 1.80091 17
  353.199 2.588384 25
  353.2486 100 999
  353.2608 2.740389 27
  353.2921 1.281317 12
  353.3442 1.234208 12
  354.2529 4.475427 44
//
