ACCESSION: MSBNK-NILU-NL0225
RECORD_TITLE: 4,4'-(4-Methylpentane-2,2-diyl)diphenol; ESI-QTOF; MS2; CE: 20
DATE: 2024.11.15
AUTHORS: MILK, NILU
LICENSE: CC BY
CH$NAME: 4,4'-(4-Methylpentane-2,2-diyl)diphenol
CH$NAME: Bis_MIBK
CH$COMPOUND_CLASS: Non-natural product; Additive
CH$FORMULA: C18H22O2
CH$EXACT_MASS: 270.16198
CH$SMILES: CC(C)CC(C)(C1C=CC(O)=CC=1)C1C=CC(O)=CC=1
CH$IUPAC: InChI=1S/C18H22O2/c1-13(2)12-18(3,14-4-8-16(19)9-5-14)15-6-10-17(20)11-7-15/h4-11,13,19-20H,12H2,1-3H3
CH$LINK: CAS 6807-17-6
AC$INSTRUMENT: Agilent 6546 Q-ToF
AC$INSTRUMENT_TYPE: ESI-QTOF
AC$MASS_SPECTROMETRY: MS_TYPE MS2
AC$MASS_SPECTROMETRY: ION_MODE NEGATIVE
AC$MASS_SPECTROMETRY: IONIZATION ESI
AC$MASS_SPECTROMETRY: COLLISION_ENERGY 20
MS$FOCUSED_ION: PRECURSOR_M/Z 269.15469
PK$SPLASH: splash10-02t9-0090000000-4628d74d02ef4d4d4974
PK$NUM_PEAK: 17
PK$PEAK: m/z int. rel.int.
  83.0139 1.049558 10
  86.9448 1.376944 13
  111.083 1.874184 18
  115.0185 1.447813 14
  116.975 1.002569 10
  149.4958 2.11876 21
  175.1128 1.56182 15
  209.0811 1.251767 12
  211.0772 14.25243 142
  212.0845 92.21555 921
  212.0951 6.912449 69
  213.09 2.741947 27
  225.2212 1.540636 15
  254.1289 4.074597 40
  269.1548 100 999
  269.1668 13.20749 131
  269.2485 10.84069 108
//
