ACCESSION: MSBNK-NILU-NL0375
RECORD_TITLE: Metformin; ESI-QTOF; MS2; CE: 40
DATE: 2024.11.15
AUTHORS: MILK, NILU
LICENSE: CC BY
CH$NAME: Glucophage
CH$NAME: Metformin
CH$COMPOUND_CLASS: Non-natural product; Pharmaceutical
CH$FORMULA: C4H12ClN5
CH$EXACT_MASS: 165.07812
CH$SMILES: Cl.CN(C)C(=N)NC(N)=N
CH$IUPAC: InChI=1S/C4H11N5.ClH/c1-9(2)4(7)8-3(5)6;/h1-2H3,(H5,5,6,7,8);1H
CH$LINK: CAS 1115-70-4
AC$INSTRUMENT: Agilent 6546 Q-ToF
AC$INSTRUMENT_TYPE: ESI-QTOF
AC$MASS_SPECTROMETRY: MS_TYPE MS2
AC$MASS_SPECTROMETRY: ION_MODE POSITIVE
AC$MASS_SPECTROMETRY: IONIZATION ESI
AC$MASS_SPECTROMETRY: COLLISION_ENERGY 40
MS$FOCUSED_ION: PRECURSOR_M/Z 130.1087
MS$DATA_PROCESSING: WHOLE Agilent ChemVista Version 1.0
PK$SPLASH: splash10-00di-9000000000-20f58cc17ed5993abdbc
PK$NUM_PEAK: 5
PK$PEAK: m/z int. rel.int.
  68.0241 29.7301 297
  68.0299 3.134047 31
  71.0602 100 999
  71.0661 6.931597 69
  85.0507 3.807901 38
//
