ACCESSION: MSBNK-NILU-NL0390
RECORD_TITLE: Bemotrizinol ; ESI-QTOF; MS2; CE: 10
DATE: 2024.11.15
AUTHORS: MILK, NILU
LICENSE: CC BY
CH$NAME: Bemotrizinol 
CH$NAME: Bis-ethylhexyloxyphenol Methoxyphenyl Triazine
CH$COMPOUND_CLASS: Non-natural product; UV filter
CH$FORMULA: C38H49N3O5
CH$EXACT_MASS: 627.36722
CH$SMILES: COC1C=CC(=CC=1)C1N=C(N=C(N=1)C1C=CC(=CC=1O)OCC(CCCC)CC)C1C=CC(=CC=1O)OCC(CCCC)CC
CH$IUPAC: InChI=1S/C38H49N3O5/c1-6-10-12-26(8-3)24-45-30-18-20-32(34(42)22-30)37-39-36(28-14-16-29(44-5)17-15-28)40-38(41-37)33-21-19-31(23-35(33)43)46-25-27(9-4)13-11-7-2/h14-23,26-27,42-43H,6-13,24-25H2,1-5H3
CH$LINK: CAS 187393-00-6
AC$INSTRUMENT: Agilent 6546 Q-ToF
AC$INSTRUMENT_TYPE: ESI-QTOF
AC$MASS_SPECTROMETRY: MS_TYPE MS2
AC$MASS_SPECTROMETRY: ION_MODE POSITIVE
AC$MASS_SPECTROMETRY: IONIZATION ESI
AC$MASS_SPECTROMETRY: COLLISION_ENERGY 10
AC$CHROMATOGRAPHY: RETENTION_TIME 9.28
MS$FOCUSED_ION: PRECURSOR_M/Z 628.37513
PK$SPLASH: splash10-004i-0000009000-bdcf54814f57e5fbd06e
PK$NUM_PEAK: 2
PK$PEAK: m/z int. rel.int.
  628.3757 100 999
  628.4266 3.78131 37
//
