ACCESSION: MSBNK-NILU-NL0340
RECORD_TITLE: TETRABUTYLAMMONIUM BROMIDE; ESI-QTOF; MS2; CE: 40
DATE: 2024.11.15
AUTHORS: MILK, NILU
LICENSE: CC BY
CH$NAME: TETRABUTYLAMMONIUM BROMIDE
CH$NAME: N,N,N-TRIBUTYL-1-BUTANAMINUM BROMIDE
CH$COMPOUND_CLASS: Non-natural product; Industrial chemical
CH$FORMULA: C16H36BrN
CH$EXACT_MASS: 321.203112252
CH$SMILES: [Br-].CCCC[N+](CCCC)(CCCC)CCCC
CH$IUPAC: InChI=1S/C16H36N.BrH/c1-5-9-13-17(14-10-6-2,15-11-7-3)16-12-8-4;/h5-16H2,1-4H3;1H/q+1;/p-1
CH$LINK: CAS 1643-19-2
AC$INSTRUMENT: Agilent 6546 Q-ToF
AC$INSTRUMENT_TYPE: ESI-QTOF
AC$MASS_SPECTROMETRY: MS_TYPE MS2
AC$MASS_SPECTROMETRY: ION_MODE POSITIVE
AC$MASS_SPECTROMETRY: IONIZATION ESI
AC$MASS_SPECTROMETRY: COLLISION_ENERGY 40
MS$FOCUSED_ION: PRECURSOR_M/Z 242.28419
PK$SPLASH: splash10-0udi-0900000000-0f513a1efc1de00e077e
PK$NUM_PEAK: 12
PK$PEAK: m/z int. rel.int.
  58.0648 2.268457 22
  72.0806 2.266348 22
  74.0964 2.397298 23
  86.0964 2.196686 21
  100.1121 100 999
  100.1187 1.240821 12
  128.1433 2.707885 27
  130.159 3.824459 38
  142.1591 27.33989 273
  142.1669 2.187037 21
  184.2061 2.116773 21
  186.2215 2.345756 23
//
