ACCESSION: MSBNK-NILU-NL0197
RECORD_TITLE: Trehalose; LC-ESI-QFT; MS2; CE:20; [M-H]-
DATE: 2024.11.18
AUTHORS: MILK, NILU
LICENSE: CC BY
CH$NAME: Trehalose
CH$NAME: (2R,3S,4S,5R,6R)-2-(hydroxymethyl)-6-[(2R,3R,4S,5S,6R)-3,4,5-trihydroxy-6-(hydroxymethyl)oxan-2-yl]oxyoxane-3,4,5-triol
CH$COMPOUND_CLASS: Natural product
CH$FORMULA: C12H22O11
CH$EXACT_MASS: 342.11621
CH$SMILES: C([C@@H]1[C@H]([C@@H]([C@H]([C@H](O1)O[C@@H]2[C@@H]([C@H]([C@@H]([C@H](O2)CO)O)O)O)O)O)O)O
CH$IUPAC: InChI=1S/C12H22O11/c13-1-3-5(15)7(17)9(19)11(21-3)23-12-10(20)8(18)6(16)4(2-14)22-12/h3-20H,1-2H2/t3-,4-,5-,6-,7+,8+,9-,10-,11-,12-/m1/s1
AC$INSTRUMENT:  QExactive Plus Orbitrap
AC$INSTRUMENT_TYPE: LC-ESI-QFT
AC$MASS_SPECTROMETRY: MS_TYPE MS2
AC$MASS_SPECTROMETRY: ION_MODE NEGATIVE
AC$MASS_SPECTROMETRY: COLLISION_ENERGY 20
AC$CHROMATOGRAPHY: RETENTION_TIME 5.99
MS$FOCUSED_ION: PRECURSOR_M/Z 341.1087
MS$FOCUSED_ION: PRECURSOR_TYPE [M-H]-
PK$SPLASH: splash10-03kc-9200000000-412947f309bb47d69afe
PK$NUM_PEAK: 10
PK$PEAK: m/z int. rel.int.
  59.01352 65720 273.126
  61.98812 240381 999
  63.99234 3487 14.492
  74.02385 104382 433.801
  87.02717 7021 29.179
  92.03443 155632 646.791
  123.04836 66719 277.278
  161.04553 4969 20.651
  185.07602 89701 372.789
  339.13452 516 2.144
//

