ACCESSION: MSBNK-NILU-NL0344
RECORD_TITLE: Phenol, 4,4'-sulfonylbis[2-(2-propenyl)-; ESI-QTOF; MS2; CE: 20
DATE: 2024.11.15
AUTHORS: MILK, NILU
LICENSE: CC BY
CH$NAME: Phenol, 4,4'-sulfonylbis[2-(2-propenyl)-
CH$NAME: TGSH
CH$COMPOUND_CLASS: Non-natural product; Industrial chemical
CH$FORMULA: C18H18O4S
CH$EXACT_MASS: 330.09258
CH$SMILES: C=CCC1=CC(=CC=C1O)S(=O)(=O)C1C=C(CC=C)C(O)=CC=1
CH$IUPAC: InChI=1S/C18H18O4S/c1-3-5-13-11-15(7-9-17(13)19)23(21,22)16-8-10-18(20)14(12-16)6-4-2/h3-4,7-12,19-20H,1-2,5-6H2
CH$LINK: CAS 41481-66-7
AC$INSTRUMENT: Agilent 6546 Q-ToF
AC$INSTRUMENT_TYPE: ESI-QTOF
AC$MASS_SPECTROMETRY: MS_TYPE MS2
AC$MASS_SPECTROMETRY: ION_MODE POSITIVE
AC$MASS_SPECTROMETRY: IONIZATION ESI
AC$MASS_SPECTROMETRY: COLLISION_ENERGY 20
MS$FOCUSED_ION: PRECURSOR_M/Z 331.09985
PK$SPLASH: splash10-001j-0901000000-1002f7a32e2557f7fbd2
PK$NUM_PEAK: 83
PK$PEAK: m/z int. rel.int.
  73.0638 1.415639 14
  77.0393 1.120756 11
  79.0541 20.59258 205
  80.0561 1.295074 12
  80.0597 1.450804 14
  83.0852 1.467382 14
  88.0206 1.3433 13
  88.022 1.41162 14
  91.054 1.87429 18
  91.0553 3.492882 34
  93.032 2.38167 23
  93.0334 2.325908 23
  95.086 1.883835 18
  98.9844 1.039877 10
  103.054 15.54039 155
  105.0698 44.98196 449
  105.0739 1.921512 19
  105.078 3.955552 39
  112.1214 1.415639 14
  115.0533 5.457094 54
  115.0552 2.367102 23
  116.053 1.996363 19
  117.07 1.44126 14
  118.0403 2.319378 23
  121.038 1.400569 13
  121.04 1.147381 11
  126.0653 1.105183 11
  132.057 2.855392 28
  133.0648 100 999
  133.0734 8.290381 82
  134.0019 1.354352 13
  134.0673 1.312656 13
  134.0728 1.024304 10
  141.114 1.365906 13
  142.9401 1.177523 11
  145.0645 4.240388 42
  146.0734 1.132311 11
  147.0797 1.118747 11
  149.0598 72.94411 728
  149.0658 4.212255 42
  149.0693 5.869026 58
  150.027 1.087601 10
  150.0666 3.222112 32
  151.0772 3.46274 34
  152.0783 2.001889 19
  152.1065 1.424179 14
  155.0162 1.599502 15
  155.0226 1.469391 14
  156.9955 13.00751 129
  161.0595 1.284022 12
  161.071 43.39603 433
  161.0794 6.318634 63
  165.0708 1.708513 17
  165.0926 1.090615 10
  171.0136 1.29859 12
  173.0965 1.225749 12
  173.1326 1.335765 13
  174.1052 1.120756 11
  197.0269 54.18814 541
  197.0341 1.661794 16
  197.0384 1.361385 13
  198.0317 1.247852 12
  198.0667 1.402076 14
  207.0352 1.475922 14
  210.9564 1.465373 14
  212.9596 1.033346 10
  244.1917 1.902422 19
  249.2225 2.009927 20
  257.0307 1.149391 11
  263.0374 2.380665 23
  275.0422 1.252374 12
  303.0694 8.436065 84
  316.1609 1.843144 18
  331.0995 21.06429 210
  331.1069 1.09815 10
  331.1124 1.515608 15
  331.1726 1.566346 15
  331.1888 1.499533 14
  331.2084 12.259 122
  331.214 11.95859 119
  331.2306 1.277491 12
  332.0984 1.269956 12
  332.225 1.279501 12
//
