ACCESSION: MSBNK-NILU-NL0306
RECORD_TITLE: Ethyl(triphenyl)phosphonium; LC-ESI-QTOF; MSn
DATE: 2024.09.19
AUTHORS: Environmental Chemistry section, NIVA
LICENSE: CC BY
CH$NAME: Ethyl(triphenyl)phosphonium
CH$NAME: Phosphonium, ethyltriphenyl-
CH$COMPOUND_CLASS: Non-Natural Product; Organophosphorus Compound
CH$FORMULA: [C20H20P]+
CH$EXACT_MASS: 291.129714062
CH$SMILES: CC[P+](C1=CC=CC=C1)(C2=CC=CC=C2)C3=CC=CC=C3
CH$IUPAC: InChI=1S/C20H20P/c1-2-21(18-12-6-3-7-13-18,19-14-8-4-9-15-19)20-16-10-5-11-17-20/h3-17H,2H2,1H3/q+1
AC$INSTRUMENT: Waters G2-S QTOF
AC$INSTRUMENT_TYPE: LC-ESI-QTOF
AC$MASS_SPECTROMETRY: MS_TYPE MSn
AC$MASS_SPECTROMETRY: ION_MODE POSITIVE
MS$FOCUSED_ION: PRECURSOR_M/Z 291.1303
MS$FOCUSED_ION: PRECURSOR_TYPE [M]+
PK$SPLASH: splash10-0006-0190000000-65f6340ac90e03063fbd
PK$NUM_PEAK: 11
PK$PEAK: m/z int. rel.int.
  108.0138 165700 27
  183.0364 1005000 169
  184.0410 184800 31
  185.0510 188900 31
  261.0826 408000 68
  262.0897 483700 81
  263.0943 132400 22
  264.0990 12390 2
  275.0972 112300 18
  291.1297 5934000 999
  292.1329 1189000 200
//
