ACCESSION: MSBNK-NILU-NL0367
RECORD_TITLE: 2,4,6-Tris(3-bromophenyl)-1,3,5-triazine; ESI-QTOF; MS2; CE: 10
DATE: 2024.11.15
AUTHORS: MILK, NILU
LICENSE: CC BY
CH$NAME: 2,4,6-Tris(3-bromophenyl)-1,3,5-triazine
CH$NAME: TbrPZ
CH$COMPOUND_CLASS: Non-natural product; Industrial chemical
CH$FORMULA: C21H12Br3N3
CH$EXACT_MASS: 542.85813
CH$SMILES: BrC1C=C(C=CC=1)C1N=C(N=C(N=1)C1=CC(Br)=CC=C1)C1=CC(Br)=CC=C1
CH$IUPAC: InChI=1S/C21H12Br3N3/c22-16-7-1-4-13(10-16)19-25-20(14-5-2-8-17(23)11-14)27-21(26-19)15-6-3-9-18(24)12-15/h1-12H
CH$LINK: CAS 890148-78-4
AC$INSTRUMENT: Agilent 6546 Q-ToF
AC$INSTRUMENT_TYPE: ESI-QTOF
AC$MASS_SPECTROMETRY: MS_TYPE MS2
AC$MASS_SPECTROMETRY: ION_MODE POSITIVE
AC$MASS_SPECTROMETRY: IONIZATION ESI
AC$MASS_SPECTROMETRY: COLLISION_ENERGY 10
MS$FOCUSED_ION: PRECURSOR_M/Z 545.88104
PK$SPLASH: splash10-0002-0011090000-5b01a762d51376c1c121
PK$NUM_PEAK: 26
PK$PEAK: m/z int. rel.int.
  217.1052 6.991597 69
  241.2176 8.582338 85
  250.187 8.950845 89
  283.2642 7.180018 71
  328.2564 10.06303 100
  365.295 8.30721 82
  371.1657 10.78337 107
  385.3468 7.240045 72
  435.0334 9.636165 96
  453.2046 7.016608 70
  468.4141 6.706463 66
  529.1896 6.573068 65
  545.415 7.325085 73
  545.4278 29.74221 297
  545.458 9.894618 98
  545.8606 27.09431 270
  545.8731 15.14874 151
  546.0195 22.36377 223
  546.4175 6.448009 64
  546.4855 100 999
  546.5002 32.74361 327
  676.8822 10.20977 101
  721.5103 6.948242 69
  750.39 8.635697 86
  752.0295 7.625225 76
  817.2506 9.09758 90
//
