ACCESSION: MSBNK-NILU-NL0192
RECORD_TITLE: Bisphenol-PH; LC-ESI-QFT; MS2; CE:20; [M-H]-
DATE: 2024.07.01
AUTHORS: MILK, NILU
LICENSE: CC BY
CH$NAME: Bisphenol-PH
CH$NAME: 4-[2-(4-hydroxy-3-phenylphenyl)propan-2-yl]-2-phenylphenol
CH$COMPOUND_CLASS: Non-natural product; Additive 
CH$FORMULA: C27H24O2
CH$EXACT_MASS: 380.17800
CH$SMILES: CC(C)(C1=CC(=C(C=C1)O)C2=CC=CC=C2)C3=CC(=C(C=C3)O)C4=CC=CC=C4
CH$IUPAC: InChI=1S/C27H24O2/c1-27(2,21-13-15-25(28)23(17-21)19-9-5-3-6-10-19)22-14-16-26(29)24(18-22)20-11-7-4-8-12-20/h3-18,28-29H,1-2H3
AC$INSTRUMENT:  QExactive Plus Orbitrap
AC$INSTRUMENT_TYPE: LC-ESI-QFT
AC$MASS_SPECTROMETRY: MS_TYPE MS2
AC$MASS_SPECTROMETRY: ION_MODE NEGATIVE
AC$MASS_SPECTROMETRY: COLLISION_ENERGY 20
AC$CHROMATOGRAPHY: RETENTION_TIME 16.74
MS$FOCUSED_ION: PRECURSOR_M/Z 379.17072
MS$FOCUSED_ION: PRECURSOR_TYPE [M-H]-
PK$SPLASH: splash10-004i-0009000000-1505c44bc99057c6e3c5
PK$NUM_PEAK: 11
PK$PEAK: m/z int. rel.int.
  50.58608 1692.00 2
  55.62917 1883.00 3
  117.10417 1813.00 3
  134.49321 2325.00 3
  201.39133 1729.00 2
  209.09772 16017.00 23
  325.18420 8717.00 12
  328.70547 2238.00 3
  363.13901 11297.00 16
  364.14749 2907.00 4
  379.17081 707915.00 999
//
