ACCESSION: MSBNK-NILU-NL0298
RECORD_TITLE: Antioxidant 1098; LC-ESI-QTOF; MSn
DATE: 2024.09.19
AUTHORS: Environmental Chemistry section, NIVA
LICENSE: CC BY
CH$NAME: Antioxidant 1098
CH$NAME: Benzenepropanamide, N,N'-1,6-hexanediylbis(3,5-bis(1,1-dimethylethyl)-4-hydroxy-
CH$COMPOUND_CLASS: Non-Natural Product; Polymer
CH$FORMULA: C40H64N2O4
CH$EXACT_MASS: 636.486608549
CH$SMILES: CC(C)(C)C1=CC(CCC(=O)NCCCCCCNC(=O)CCC2=CC(=C(O)C(=C2)C(C)(C)C)C(C)(C)C)=CC(=C1O)C(C)(C)C
CH$IUPAC: InChI=1S/C40H64N2O4/c1-37(2,3)29-23-27(24-30(35(29)45)38(4,5)6)17-19-33(43)41-21-15-13-14-16-22-42-34(44)20-18-28-25-31(39(7,8)9)36(46)32(26-28)40(10,11)12/h23-26,45-46H,13-22H2,1-12H3,(H,41,43)(H,42,44)
AC$INSTRUMENT: Waters G2-S QTOF
AC$INSTRUMENT_TYPE: LC-ESI-QTOF
AC$MASS_SPECTROMETRY: MS_TYPE MSn
AC$MASS_SPECTROMETRY: ION_MODE POSITIVE
MS$FOCUSED_ION: PRECURSOR_M/Z 637.4944
MS$FOCUSED_ION: PRECURSOR_TYPE [M+H]+
PK$SPLASH: splash10-000i-0002039000-14b754716f7d62d19cc1
PK$NUM_PEAK: 46
PK$PEAK: m/z int. rel.int.
  117.1410 70800 3
  149.0612 50810 2
  219.1753 417700 22
  220.1791 60510 3
  248.1657 752200 41
  249.1684 99260 5
  265.1923 1095000 59
  266.1944 154900 8
  267.1950 19350 1
  304.2281 1142000 62
  321.2554 5746000 314
  322.2577 1215000 66
  323.2606 111600 6
  359.3036 19040 1
  360.2904 216500 11
  361.2929 49430 2
  377.3173 1685000 92
  378.3203 407000 22
  413.2445 523600 28
  414.2472 131900 7
  469.3074 2395000 131
  470.3106 664300 36
  471.3105 95570 5
  507.3592 101100 5
  525.3705 6346000 347
  526.3729 2121000 116
  527.3760 370700 20
  581.4328 6128000 335
  582.4357 2296000 125
  583.4379 470300 25
  584.4385 43360 2
  637.4964 18250000 999
  637.7377 96550 5
  638.4985 7053000 386
  639.5011 2098000 114
  640.5046 226700 12
  659.4768 7484000 409
  660.4801 2966000 162
  661.4824 654500 35
  662.4822 84790 4
  675.4499 1236000 67
  676.4526 509600 27
  677.4505 180300 9
  678.4543 45240 2
  681.5294 34230 1
  682.5403 42210 2
//
