ACCESSION: MSBNK-NILU-NL0287
RECORD_TITLE: 4-guanidinobutanamide; LC-ESI-QFT; MS2; CE:20; [M+H]+
DATE: 2024.07.01
AUTHORS: MILK, NILU
LICENSE: CC BY
CH$NAME: 4-guanidinobutanamide
CH$NAME: Tiformin
CH$COMPOUND_CLASS: Non-natural product; Pharmaceutical
CH$FORMULA: C5H12N4O
CH$EXACT_MASS: 144.175
CH$SMILES: C(CC(=O)N)CN=C(N)N
CH$IUPAC: InChI=1S/C5H12N4O/c6-4(10)2-1-3-9-5(7)8/h1-3H2,(H2,6,10)(H4,7,8,9)
AC$INSTRUMENT:  QExactive Plus Orbitrap
AC$INSTRUMENT_TYPE: LC-ESI-QFT
AC$MASS_SPECTROMETRY: MS_TYPE MS2
AC$MASS_SPECTROMETRY: ION_MODE POSITIVE
AC$MASS_SPECTROMETRY: COLLISION_ENERGY 20
AC$CHROMATOGRAPHY: RETENTION_TIME 1.51
MS$FOCUSED_ION: PRECURSOR_M/Z 145.10841
MS$FOCUSED_ION: PRECURSOR_TYPE [M+H]+
PK$SPLASH: splash10-000i-9100000000-0394974a69483c877d3e
PK$NUM_PEAK: 3
PK$PEAK: m/z int. rel.int.
  60.05597 18329 169
  86.06002 108508 999
  128.08185 27761 256
//
