ACCESSION: MSBNK-NILU-NL0342
RECORD_TITLE: TETRABUTYLAMMONIUM BROMIDE; ESI-QTOF; MS2; CE: 10
DATE: 2024.11.15
AUTHORS: MILK, NILU
LICENSE: CC BY
CH$NAME: TETRABUTYLAMMONIUM BROMIDE
CH$NAME: N,N,N-TRIBUTYL-1-BUTANAMINUM BROMIDE
CH$COMPOUND_CLASS: Non-natural product; Industrial chemical
CH$FORMULA: C16H36BrN
CH$EXACT_MASS: 321.203112252
CH$SMILES: [Br-].CCCC[N+](CCCC)(CCCC)CCCC
CH$IUPAC: InChI=1S/C16H36N.BrH/c1-5-9-13-17(14-10-6-2,15-11-7-3)16-12-8-4;/h5-16H2,1-4H3;1H/q+1;/p-1
CH$LINK: CAS 1643-19-2
AC$INSTRUMENT: Agilent 6546 Q-ToF
AC$INSTRUMENT_TYPE: ESI-QTOF
AC$MASS_SPECTROMETRY: MS_TYPE MS2
AC$MASS_SPECTROMETRY: ION_MODE POSITIVE
AC$MASS_SPECTROMETRY: IONIZATION ESI
AC$MASS_SPECTROMETRY: COLLISION_ENERGY 10
MS$FOCUSED_ION: PRECURSOR_M/Z 242.28419
PK$SPLASH: splash10-0006-0090000000-796c07c99816025cbda2
PK$NUM_PEAK: 6
PK$PEAK: m/z int. rel.int.
  100.1121 1.245555 12
  142.1592 3.691325 36
  184.2064 1.04333 10
  186.2212 1.960824 19
  242.2845 100 999
  242.294 1.812072 18
//
