ACCESSION: MSBNK-NILU-NL0292
RECORD_TITLE: Proline; LC-ESI-QFT; MS2; CE:20; [M+H]+
DATE: 2024.07.01
AUTHORS: MILK, NILU
LICENSE: CC BY
CH$NAME: Proline
CH$NAME: Pyrrolidine-2-carboxylic acid
CH$COMPOUND_CLASS: Non-natural product; Pharmaceutical
CH$FORMULA: C5H9NO2
CH$EXACT_MASS: 115.06335
CH$SMILES: C1CC(NC1)C(=O)O
CH$IUPAC: InChI=1S/C5H9NO2/c7-5(8)4-2-1-3-6-4/h4,6H,1-3H2,(H,7,8)/t4-/m0/s1
AC$INSTRUMENT:  QExactive Plus Orbitrap
AC$INSTRUMENT_TYPE: LC-ESI-QFT
AC$MASS_SPECTROMETRY: ION_MODE Positive
AC$MASS_SPECTROMETRY: MS_TYPE MS2
AC$MASS_SPECTROMETRY: COLLISION_ENERGY 20
AC$CHROMATOGRAPHY: RETENTION_TIME 1.50
MS$FOCUSED_ION: PRECURSOR_M/Z 116.07063
MS$FOCUSED_ION: PRECURSOR_TYPE [M+H]+
PK$SPLASH: splash10-00di-9100000000-6f956a48928ff4431ee3
PK$NUM_PEAK: 6
PK$PEAK: m/z int. rel.int.
  53.03899 7600 1
  68.04964 87458 14
  69.68152 3576 1
  70.06527 6223014 999
  98.05988 5867 1
  116.07063 883601 142
//
