ACCESSION: MSBNK-NILU-NL0219
RECORD_TITLE: Pergafast 201; ESI-QTOF; MS2; CE: 10
DATE: 2024.11.15
AUTHORS: MILK, NILU
LICENSE: CC BY
CH$NAME: Pergafast 201
CH$NAME: 3-(3-Tosylureido)phenyl p-toluenesulfonate
CH$COMPOUND_CLASS: Non-natural product; Additive
CH$FORMULA: C21H20N2O6S2
CH$EXACT_MASS: 460.07628
CH$SMILES: CC1C=CC(=CC=1)S(=O)(=O)OC1C=C(C=CC=1)N=C(O)NS(=O)(=O)C1C=CC(C)=CC=1
CH$IUPAC: InChI=1S/C21H20N2O6S2/c1-15-6-10-19(11-7-15)30(25,26)23-21(24)22-17-4-3-5-18(14-17)29-31(27,28)20-12-8-16(2)9-13-20/h3-14H,1-2H3,(H2,22,23,24)
CH$LINK: CAS 232938-43-1
AC$INSTRUMENT: Agilent 6546 Q-ToF
AC$INSTRUMENT_TYPE: ESI-QTOF
AC$MASS_SPECTROMETRY: MS_TYPE MS2
AC$MASS_SPECTROMETRY: ION_MODE NEGATIVE
AC$MASS_SPECTROMETRY: IONIZATION ESI
AC$MASS_SPECTROMETRY: COLLISION_ENERGY 10
MS$FOCUSED_ION: PRECURSOR_M/Z 459.069
PK$SPLASH: splash10-056u-0119200010-82de2316ecc554ce611b
PK$NUM_PEAK: 10
PK$PEAK: m/z int. rel.int.
  130.9452 59.33333 592
  243.1953 47.91195 478
  316.9615 81.04402 809
  349.9015 90.94341 908
  376.9066 100 999
  376.959 48.25157 482
  376.9732 56.33962 562
  459.2101 47.19497 471
  459.3269 60.85535 607
  841.3993 60 599
//
