ACCESSION: MSBNK-NILU-NL0243
RECORD_TITLE: 4,4'-(2-Ethylhexylidene)diphenol; ESI-QTOF; MS2; CE: 40
DATE: 2024.11.15
AUTHORS: MILK, NILU
LICENSE: CC BY
CH$NAME: 4,4'-(2-Ethylhexylidene)diphenol
CH$NAME: 1,1-Bis(4-hydroxyphenyl)-2-ethylhexane
CH$COMPOUND_CLASS: Non-natural product; Industrial chemical
CH$FORMULA: C20H26O2
CH$EXACT_MASS: 298.19328
CH$SMILES: CCC(CCCC)C(C1C=CC(O)=CC=1)C1C=CC(O)=CC=1
CH$IUPAC: InChI=1S/C20H26O2/c1-3-5-6-15(4-2)20(16-7-11-18(21)12-8-16)17-9-13-19(22)14-10-17/h7-15,20-22H,3-6H2,1-2H3
CH$LINK: CAS 74462-02-5
AC$INSTRUMENT: Agilent 6546 Q-ToF
AC$INSTRUMENT_TYPE: ESI-QTOF
AC$MASS_SPECTROMETRY: MS_TYPE MS2
AC$MASS_SPECTROMETRY: ION_MODE NEGATIVE
AC$MASS_SPECTROMETRY: IONIZATION ESI
AC$MASS_SPECTROMETRY: COLLISION_ENERGY 40
MS$FOCUSED_ION: PRECURSOR_M/Z 297.186
PK$SPLASH: splash10-0002-0900000000-4be17b7ebc2e20de1248
PK$NUM_PEAK: 10
PK$PEAK: m/z int. rel.int.
  79.9579 2.663867 26
  93.0338 2.526489 25
  113.0229 1.90592 19
  118.9185 2.200414 21
  132.9828 1.912236 19
  183.0109 5.754868 57
  197.0275 3.753415 37
  197.0612 100 999
  197.0718 2.610179 26
  198.0699 5.119298 51
//
