ACCESSION: MSBNK-NILU-NL0300
RECORD_TITLE: UV-384; LC-ESI-QTOF; MSn
DATE: 2024.09.19
AUTHORS: Environmental Chemistry section, NIVA
LICENSE: CC BY
CH$NAME: UV-384
CH$NAME: Octyl 3-[3-(2H-benzotriazol-2-yl)-5-tert-butyl-4-hydroxyphenyl]propanoate
CH$COMPOUND_CLASS: Non-Natural Product; UV Stabilizer
CH$FORMULA: C27H37N3O3
CH$EXACT_MASS: 451.283492063
CH$SMILES: CCCCCCCCOC(=O)CCC1=CC(=C(O)C(=C1)N1N=C2C=CC=CC2=N1)C(C)(C)C
CH$IUPAC: InChI=1S/C27H37N3O3/c1-5-6-7-8-9-12-17-33-25(31)16-15-20-18-21(27(2,3)4)26(32)24(19-20)30-28-22-13-10-11-14-23(22)29-30/h10-11,13-14,18-19,32H,5-9,12,15-17H2,1-4H3
AC$INSTRUMENT: Waters G2-S QTOF
AC$INSTRUMENT_TYPE: LC-ESI-QTOF
AC$MASS_SPECTROMETRY: MS_TYPE MSn
AC$MASS_SPECTROMETRY: ION_MODE POSITIVE
MS$FOCUSED_ION: PRECURSOR_M/Z 452.2913
MS$FOCUSED_ION: PRECURSOR_TYPE [M+H]+
PK$SPLASH: splash10-0udi-0000900000-a05792607f7e0727c76e
PK$NUM_PEAK: 11
PK$PEAK: m/z int. rel.int.
  102.0374 52610 7
  224.0828 132200 19
  322.1561 20860 3
  396.2289 77980 11
  397.2368 13610 2
  420.4034 90840 13
  452.2918 6609000 999
  453.2948 1852000 279
  474.2724 444400 67
  490.2458 66090 9
  497.3495 249500 37
//
