ACCESSION: MSBNK-NILU-NL0173
RECORD_TITLE: 2,2-Bisphenol F; LC-ESI-QFT; MS2; CE:20; [M-H]-
DATE: 2024.07.01
AUTHORS: MILK, NILU
LICENSE: CC BY
CH$NAME: 2,2-Bisphenol F
CH$NAME: 2-[(2-hydroxyphenyl)methyl]phenol
CH$COMPOUND_CLASS: Non-natural product; Additive 
CH$FORMULA: C13H12O2
CH$EXACT_MASS: 200.08379
CH$SMILES: C1=CC=C(C(=C1)CC2=CC=CC=C2O)O
CH$IUPAC: InChI=1S/C13H12O2/c14-12-7-3-1-5-10(12)9-11-6-2-4-8-13(11)15/h1-8,14-15H,9H2
AC$INSTRUMENT:  QExactive Plus Orbitrap
AC$INSTRUMENT_TYPE: LC-ESI-QFT
AC$MASS_SPECTROMETRY: MS_TYPE MS2
AC$MASS_SPECTROMETRY: ION_MODE NEGATIVE
AC$MASS_SPECTROMETRY: COLLISION_ENERGY 20
AC$CHROMATOGRAPHY: RETENTION_TIME 14.86
MS$FOCUSED_ION: PRECURSOR_M/Z 199.07651
MS$FOCUSED_ION: PRECURSOR_TYPE [M-H]-
PK$SPLASH: splash10-0006-9300000000-c184d431b43417675d84
PK$NUM_PEAK: 19
PK$PEAK: m/z int. rel.int.
  51.66214 2105.00 0
  65.03957 68198.00 12
  69.90376 3930.00 1
  75.02398 3432.00 1
  76.97001 8138.00 1
  77.10296 2427.00 0
  79.95736 4102.00 1
  92.02677 3727.00 1
  92.92813 5582.00 1
  93.03452 5482604.00 999
  94.03776 4484.00 1
  108.99684 3078.00 1
  150.91560 5458.00 1
  166.91005 12989.00 2
  166.98373 6317.00 1
  168.92540 2547.00 0
  184.92107 9387.00 2
  199.07652 2152734.00 392
  199.13367 44376.00 8
//
