ACCESSION: MSBNK-NILU-NL0252
RECORD_TITLE: 24-Di-11-biphenyl-4yl6-Chloro-135-triazine; ESI-QTOF; MS2; CE: 10
DATE: 2024.11.15
AUTHORS: MILK, NILU
LICENSE: CC BY
CH$NAME: 24-Di-11-biphenyl-4yl6-Chloro-135-triazine
CH$NAME: 2-chloro-4,6-bis(4-phenylphenyl)-1,3,5-triazine
CH$COMPOUND_CLASS: Non-natural product; Industrial chemical
CH$FORMULA: C27H18ClN3
CH$EXACT_MASS: 419.11892
CH$SMILES: ClC1N=C(N=C(N=1)C1C=CC(=CC=1)C1C=CC=CC=1)C1C=CC(=CC=1)C1C=CC=CC=1
CH$IUPAC: InChI=1S/C27H18ClN3/c28-27-30-25(23-15-11-21(12-16-23)19-7-3-1-4-8-19)29-26(31-27)24-17-13-22(14-18-24)20-9-5-2-6-10-20/h1-18H
CH$LINK: CAS 182918-13-4
AC$INSTRUMENT: Agilent 6546 Q-ToF
AC$INSTRUMENT_TYPE: ESI-QTOF
AC$MASS_SPECTROMETRY: MS_TYPE MS2
AC$MASS_SPECTROMETRY: ION_MODE NEGATIVE
AC$MASS_SPECTROMETRY: IONIZATION ESI
AC$MASS_SPECTROMETRY: COLLISION_ENERGY 10
MS$FOCUSED_ION: PRECURSOR_M/Z 418.11166
PK$SPLASH: splash10-00kr-0090110200-31a55ef45ed04e59e31b
PK$NUM_PEAK: 7
PK$PEAK: m/z int. rel.int.
  239.0243 88.51279 884
  254.2229 79.59536 795
  285.9977 100 999
  299.9719 81.44597 813
  418.0275 65.08774 650
  509.6071 62.32621 622
  715.4231 79.58577 795
//
