ACCESSION: MSBNK-NILU-NL0283
RECORD_TITLE: HFPO-DA; LC-ESI-FT; MS2
DATE: 2024.12.10
AUTHORS: MILK, NILU
LICENSE: CC BY
COPYRIGHT: MILK, NILU
CH$NAME: HFPO-DA
CH$NAME: 2,3,3,3-tetrafluoro-2-(1,1,2,2,3,3,3-heptafluoropropoxy)propanoic acid
CH$COMPOUND_CLASS: Non-Natural Product; New PFAS
CH$FORMULA: C6HF11O3
CH$EXACT_MASS: 329.97500367
CH$SMILES: C(=O)(C(C(F)(F)F)(OC(C(C(F)(F)F)(F)F)(F)F)F)O
CH$IUPAC: InChI=1S/C6HF11O3/c7-2(1(18)19,4(10,11)12)20-6(16,17)3(8,9)5(13,14)15/h(H,18,19)
AC$INSTRUMENT: Vanquish LC, Thermo Scientific; Exploris 120 Orbitrap, Thermo Scientific
AC$INSTRUMENT_TYPE: LC-ESI-FT
AC$MASS_SPECTROMETRY: MS_TYPE MS2
AC$MASS_SPECTROMETRY: ION_MODE NEGATIVE
AC$CHROMATOGRAPHY: RETENTION_TIME 5.66780752794743
MS$FOCUSED_ION: PRECURSOR_M/Z 328.96744
MS$FOCUSED_ION: PRECURSOR_TYPE [M-H]-
PK$SPLASH: splash10-014i-0900000000-15b187f05f5f04d9d948
PK$NUM_PEAK: 8
PK$PEAK: m/z int. rel.int.
  56.44926 5372.00 25
  59.01397 7203.00 34
  118.99236 123646.00 587
  134.98740 4461.00 21
  168.98920 210520.00 999
  184.98399 105549.00 501
  185.00450 5660.00 27
  294.75842 4252.00 20
//
