ACCESSION: MSBNK-NILU-NL0232
RECORD_TITLE: 4-((4-Isopropoxyphenyl)sulfonyl)phenol; ESI-QTOF; MS2; CE: 10
DATE: 2024.11.15
AUTHORS: MILK, NILU
LICENSE: CC BY
CH$NAME: 4-((4-Isopropoxyphenyl)sulfonyl)phenol
CH$NAME: 4-4-Isopropyloxypheol
CH$COMPOUND_CLASS: Non-natural product; Industrial chemical
CH$FORMULA: C15H16O4S
CH$EXACT_MASS: 292.07693
CH$SMILES: CC(C)OC1C=CC(=CC=1)S(=O)(=O)C1C=CC(O)=CC=1
CH$IUPAC: InChI=1S/C15H16O4S/c1-11(2)19-13-5-9-15(10-6-13)20(17,18)14-7-3-12(16)4-8-14/h3-11,16H,1-2H3
CH$LINK: CAS 95235-30-6
AC$INSTRUMENT: Agilent 6546 Q-ToF
AC$INSTRUMENT_TYPE: ESI-QTOF
AC$MASS_SPECTROMETRY: MS_TYPE MS2
AC$MASS_SPECTROMETRY: ION_MODE NEGATIVE
AC$MASS_SPECTROMETRY: IONIZATION ESI
AC$MASS_SPECTROMETRY: COLLISION_ENERGY 10
MS$FOCUSED_ION: PRECURSOR_M/Z 291.06964
PK$SPLASH: splash10-0006-0090000000-0fcf66b7e063e100cfe8
PK$NUM_PEAK: 4
PK$PEAK: m/z int. rel.int.
  248.0153 15.12611 151
  248.0266 1.155526 11
  291.0703 100 999
  292.0735 1.468286 14
//
