ACCESSION: MSBNK-NILU-NL0201
RECORD_TITLE: D-Galactose; LC-ESI-QFT; MS2; CE:20; [M-H]-
DATE: 2024.11.18
AUTHORS: MILK, NILU
LICENSE: CC BY
CH$NAME: D-Galactose
CH$NAME: (3R,4S,5R,6R)-6-(hydroxymethyl)oxane-2,3,4,5-tetrol
CH$COMPOUND_CLASS: Natural product
CH$FORMULA: C6H12O6
CH$EXACT_MASS: 180.06339
CH$SMILES: C([C@@H]1[C@@H]([C@@H]([C@H](C(O1)O)O)O)O)O
CH$IUPAC: InChI=1S/C6H12O6/c7-1-2-3(8)4(9)5(10)6(11)12-2/h2-11H,1H2/t2-,3+,4+,5-,6?/m1/s1
AC$INSTRUMENT:  QExactive Plus Orbitrap
AC$INSTRUMENT_TYPE: LC-ESI-QFT
AC$MASS_SPECTROMETRY: MS_TYPE MS2
AC$MASS_SPECTROMETRY: ION_MODE NEGATIVE
AC$MASS_SPECTROMETRY: COLLISION_ENERGY 20
AC$CHROMATOGRAPHY: RETENTION_TIME 4.91
MS$FOCUSED_ION: PRECURSOR_M/Z 179.0558
MS$FOCUSED_ION: PRECURSOR_TYPE [M-H]-
PK$SPLASH: splash10-0abi-9200000000-74576f818a24df084ac4
PK$NUM_PEAK: 17
PK$PEAK: m/z int. rel.int.
  59.01354 557311 999
  61.98813 54382 97.48
  71.01376 515796 924.58
  72.0171 34298 61.48
  85.02943 41292 74.02
  89.02235 410095 735.11
  96.96009 23100 41.41
  113.02445 91051 163.21
  115.9207 49358 88.48
  116.92851 222748 399.28
  129.01935 4552 8.16
  142.92482 44489 79.75
  147.02994 2918 5.23
  160.93544 37198 66.68
  171.94673 2144 3.84
  176.89523 10155 18.2
  179.05606 59287 106.27
//

