ACCESSION: MSBNK-NILU-NL0334
RECORD_TITLE: Cyasorb; ESI-QTOF; MS2; CE: 40
DATE: 2024.11.15
AUTHORS: MILK, NILU
LICENSE: CC BY
CH$NAME: Cyasorb
CH$NAME: UV-1164
CH$COMPOUND_CLASS: Non-natural product; UV filter
CH$FORMULA: C33H39N3O2
CH$EXACT_MASS: 509.30423
CH$SMILES: CCCCCCCCOC1=CC(O)=C(C=C1)C1N=C(N=C(N=1)C1=CC=C(C)C=C1C)C1=CC=C(C)C=C1C
CH$IUPAC: InChI=1S/C33H39N3O2/c1-6-7-8-9-10-11-18-38-26-14-17-29(30(37)21-26)33-35-31(27-15-12-22(2)19-24(27)4)34-32(36-33)28-16-13-23(3)20-25(28)5/h12-17,19-21,37H,6-11,18H2,1-5H3
CH$LINK: CAS 2725-22-6
CH$LINK: CHEMSPIDER 10632726
CH$LINK: HMDB HMDB37802
AC$INSTRUMENT: Agilent 6546 Q-ToF
AC$INSTRUMENT_TYPE: ESI-QTOF
AC$MASS_SPECTROMETRY: MS_TYPE MS2
AC$MASS_SPECTROMETRY: ION_MODE POSITIVE
AC$MASS_SPECTROMETRY: IONIZATION ESI
AC$MASS_SPECTROMETRY: COLLISION_ENERGY 40
AC$CHROMATOGRAPHY: RETENTION_TIME 7.51
MS$FOCUSED_ION: PRECURSOR_M/Z 510.31201
PK$SPLASH: splash10-001r-0920000000-4b53131752f2cd574c8f
PK$NUM_PEAK: 11
PK$PEAK: m/z int. rel.int.
  80.0494 1.519514 15
  92.0493 1.051458 10
  117.0573 3.85272 38
  132.0811 100 999
  132.1061 4.197383 41
  136.0396 87.48883 874
  136.065 3.682222 36
  248.1649 48.13568 480
  248.1991 1.989652 19
  398.1864 4.347306 43
  510.3117 10.57667 105
//
