ACCESSION: MSBNK-NILU-NL0368
RECORD_TITLE: 2,4,6-Tris(3-bromophenyl)-1,3,5-triazine; ESI-QTOF; MS2; CE: 20
DATE: 2024.11.15
AUTHORS: MILK, NILU
LICENSE: CC BY
CH$NAME: 2,4,6-Tris(3-bromophenyl)-1,3,5-triazine
CH$NAME: TbrPZ
CH$COMPOUND_CLASS: Non-natural product; Industrial chemical
CH$FORMULA: C21H12Br3N3
CH$EXACT_MASS: 542.85813
CH$SMILES: BrC1C=C(C=CC=1)C1N=C(N=C(N=1)C1=CC(Br)=CC=C1)C1=CC(Br)=CC=C1
CH$IUPAC: InChI=1S/C21H12Br3N3/c22-16-7-1-4-13(10-16)19-25-20(14-5-2-8-17(23)11-14)27-21(26-19)15-6-3-9-18(24)12-15/h1-12H
CH$LINK: CAS 890148-78-4
AC$INSTRUMENT: Agilent 6546 Q-ToF
AC$INSTRUMENT_TYPE: ESI-QTOF
AC$MASS_SPECTROMETRY: MS_TYPE MS2
AC$MASS_SPECTROMETRY: ION_MODE POSITIVE
AC$MASS_SPECTROMETRY: IONIZATION ESI
AC$MASS_SPECTROMETRY: COLLISION_ENERGY 20
MS$FOCUSED_ION: PRECURSOR_M/Z 545.88104
PK$SPLASH: splash10-0002-0113090200-f020ec3cceac71b9be38
PK$NUM_PEAK: 20
PK$PEAK: m/z int. rel.int.
  74.0965 19.1357 191
  159.5997 20.56833 205
  160.0752 20.80447 207
  249.2574 14.05856 140
  283.2624 15.0917 150
  297.2812 12.40948 123
  302.2915 12.81683 128
  307.2668 11.9549 119
  309.2759 41.68962 416
  327.2772 12.13397 121
  528.4872 17.93136 179
  540.3145 17.23473 172
  545.4156 14.31439 143
  545.876 27.06824 270
  546.4801 28.1801 281
  546.4895 100 999
  546.5087 15.44986 154
  763.155 20.17081 201
  764.8353 30.88397 308
  785.5462 12.22646 122
//
