ACCESSION: MSBNK-NILU-NL0263
RECORD_TITLE: PFHPS; LC-ESI-FT; MS2
DATE: 2024.12.10
AUTHORS: MILK, NILU
LICENSE: CC BY
COPYRIGHT: MILK, NILU
CH$NAME: PFHPS
CH$NAME: 1,1,2,2,3,3,4,4,5,5,6,6,7,7,7-pentadecafluoroheptane-1-sulfonic acid
CH$COMPOUND_CLASS: Non-Natural Product; Perfluoroalkyl sulfonic acid
CH$FORMULA: C7HF15O3S
CH$EXACT_MASS: 449.9406875
CH$SMILES: C(C(C(C(F)(F)F)(F)F)(F)F)(C(C(C(F)(F)S(=O)(=O)O)(F)F)(F)F)(F)F
CH$IUPAC: InChI=1S/C7HF15O3S/c8-1(9,2(10,11)4(14,15)6(18,19)20)3(12,13)5(16,17)7(21,22)26(23,24)25/h(H,23,24,25)
AC$INSTRUMENT: Vanquish LC, Thermo Scientific; Exploris 120 Orbitrap, Thermo Scientific
AC$INSTRUMENT_TYPE: LC-ESI-FT
AC$MASS_SPECTROMETRY: MS_TYPE MS2
AC$MASS_SPECTROMETRY: ION_MODE NEGATIVE
AC$CHROMATOGRAPHY: RETENTION_TIME 6.87103621797562
MS$FOCUSED_ION: PRECURSOR_M/Z 448.93259
MS$FOCUSED_ION: PRECURSOR_TYPE [M-H]-
PK$SPLASH: splash10-002b-7000900000-43d86414f02d8fd7c4fc
PK$NUM_PEAK: 15
PK$PEAK: m/z int. rel.int.
  55.85593 79605.00 3
  79.95719 15597827.00 655
  82.96064 281456.00 12
  98.95557 4661433.00 196
  102.52298 76061.00 3
  109.14244 68153.00 3
  117.56425 59391.00 2
  118.99195 413096.00 17
  134.54643 77912.00 3
  155.87218 67157.00 3
  168.98897 432522.00 18
  172.34283 65816.00 3
  337.24271 81193.00 3
  386.85416 77641.00 3
  448.93274 23786412.00 999
//
