ACCESSION: MSBNK-NILU-NL0272
RECORD_TITLE: PFHPA; LC-ESI-FT; MS2
DATE: 2024.12.10
AUTHORS: MILK, NILU
LICENSE: CC BY
COPYRIGHT: MILK, NILU
CH$NAME: PFHPA
CH$NAME: 2,2,3,3,4,4,5,5,6,6,7,7,7-tridecafluoroheptanoic acid
CH$COMPOUND_CLASS: Non-Natural Product; Perfluoroalkyl carboxylic acid
CH$FORMULA: C7HF13O2
CH$EXACT_MASS: 363.9768954
CH$SMILES: C(=O)(C(C(C(C(C(C(F)(F)F)(F)F)(F)F)(F)F)(F)F)(F)F)O
CH$IUPAC: InChI=1S/C7HF13O2/c8-2(9,1(21)22)3(10,11)4(12,13)5(14,15)6(16,17)7(18,19)20/h(H,21,22)
AC$INSTRUMENT: Vanquish LC, Thermo Scientific; Exploris 120 Orbitrap, Thermo Scientific
AC$INSTRUMENT_TYPE: LC-ESI-FT
AC$MASS_SPECTROMETRY: MS_TYPE MS2
AC$MASS_SPECTROMETRY: ION_MODE NEGATIVE
AC$CHROMATOGRAPHY: RETENTION_TIME 5.93397260762056
MS$FOCUSED_ION: PRECURSOR_M/Z 362.96906
MS$FOCUSED_ION: PRECURSOR_TYPE [M-H]-
PK$SPLASH: splash10-014i-1905000000-b5200cdadd51e8e21ce8
PK$NUM_PEAK: 12
PK$PEAK: m/z int. rel.int.
  56.18586 18277.00 34
  62.89724 15516.00 29
  68.99612 21893.00 41
  70.83067 15004.00 28
  82.30859 15967.00 30
  100.80190 16601.00 31
  118.99253 168534.00 314
  134.37556 16953.00 32
  168.98920 537031.00 999
  187.17934 16958.00 32
  213.75392 15794.00 29
  318.97900 495193.00 921
//
