ACCESSION: MSBNK-NILU-NL0366
RECORD_TITLE: Tris-biphenyl triazine; ESI-QTOF; MS2; CE: 20; [M+H]+
DATE: 2024.11.15
AUTHORS: MILK, NILU
LICENSE: CC BY
CH$NAME: Tris-biphenyl triazine
CH$NAME: 2,4,6-tri([1,1'-biphenyl]-4-yl)-1,3,5-triazine
CH$COMPOUND_CLASS: Non-natural product; UV filter
CH$FORMULA: C39H27N3
CH$EXACT_MASS: 537.2205
CH$SMILES: C1=CC(=CC=C1C1N=C(N=C(N=1)C1C=CC(=CC=1)C1C=CC=CC=1)C1C=CC(=CC=1)C1C=CC=CC=1)C1C=CC=CC=1
CH$IUPAC: InChI=1S/C39H27N3/c1-4-10-28(11-5-1)31-16-22-34(23-17-31)37-40-38(35-24-18-32(19-25-35)29-12-6-2-7-13-29)42-39(41-37)36-26-20-33(21-27-36)30-14-8-3-9-15-30/h1-27H
CH$LINK: CAS 31274-51-8
AC$INSTRUMENT: Agilent 6546 Q-ToF
AC$INSTRUMENT_TYPE: ESI-QTOF
AC$MASS_SPECTROMETRY: MS_TYPE MS2
AC$MASS_SPECTROMETRY: ION_MODE POSITIVE
AC$MASS_SPECTROMETRY: IONIZATION ESI
AC$MASS_SPECTROMETRY: COLLISION_ENERGY 20
AC$CHROMATOGRAPHY: RETENTION_TIME 7.349
MS$FOCUSED_ION: PRECURSOR_M/Z 538.2285
MS$FOCUSED_ION: PRECURSOR_TYPE [M+H]+
PK$SPLASH: splash10-000i-0100090000-df6bd0907a2eef02e530
PK$NUM_PEAK: 4
PK$PEAK: m/z int. rel.int.
  180.080727460908 13.51341 134
  180.089083697849 1.184529 11
  538.228057901077 100 999
  538.276080571281 3.655375 36
//
