ACCESSION: MSBNK-NILU-NL0284
RECORD_TITLE: PFECHS; LC-ESI-FT; MS2
DATE: 2024.12.10
AUTHORS: MILK, NILU
LICENSE: CC BY
COPYRIGHT: MILK, NILU
CH$NAME: PFECHS
CH$NAME: 1,2,2,3,3,4,5,5,6,6-decafluoro-4-(1,1,2,2,2-pentafluoroethyl)cyclohexane-1-sulfonic acid
CH$COMPOUND_CLASS: Non-Natural Product; New PFAS
CH$FORMULA: C8HF15O3S
CH$EXACT_MASS: 461.9406875
CH$SMILES: C1(C(C(C(C(C1(F)F)(F)F)(F)S(=O)(=O)O)(F)F)(F)F)(C(C(F)(F)F)(F)F)F
CH$IUPAC: InChI=1S/C8HF15O3S/c9-1(4(14,15)8(21,22)23)2(10,11)5(16,17)7(20,27(24,25)26)6(18,19)3(1,12)13/h(H,24,25,26)
AC$INSTRUMENT: Vanquish LC, Thermo Scientific; Exploris 120 Orbitrap, Thermo Scientific
AC$INSTRUMENT_TYPE: LC-ESI-FT
AC$MASS_SPECTROMETRY: MS_TYPE MS2
AC$MASS_SPECTROMETRY: ION_MODE NEGATIVE
AC$CHROMATOGRAPHY: RETENTION_TIME 6.85994373715719
MS$FOCUSED_ION: PRECURSOR_M/Z 460.93262
MS$FOCUSED_ION: PRECURSOR_TYPE [M-H]-
PK$SPLASH: splash10-03dj-7001900000-a9a035e0cbbd0ea13e42
PK$NUM_PEAK: 11
PK$PEAK: m/z int. rel.int.
  51.15618 31733.00 5
  68.99566 156755.00 23
  69.60473 27437.00 4
  72.06268 31172.00 5
  98.95560 5143845.00 745
  118.99285 46555.00 7
  129.95035 26383.00 4
  284.48788 28775.00 4
  330.97800 33083.00 5
  380.97632 1260516.00 183
  460.93286 6895255.00 999
//
