ACCESSION: MSBNK-NILU-NL0372
RECORD_TITLE: Cyclo-di-BADGE; ESI-QTOF; MS2; CE: 20
DATE: 2024.11.15
AUTHORS: MILK, NILU
LICENSE: CC BY
CH$NAME: Cyclo-di-BADGE
CH$NAME: 2,2,10,10-Tetramethyl-4,8,12,16-tetraoxa-1,3,9,11(1,4)-tetrabenzenacyclohexadecaphane-6,14-diol
CH$COMPOUND_CLASS: Non-natural product; Additive
CH$FORMULA: C36H40O6
CH$EXACT_MASS: 568.28249
CH$SMILES: CC1(C)C2C=CC(=CC=2)OCC(O)COC2C=CC(=CC=2)C(C)(C)C2C=CC(=CC=2)OCC(O)COC2C=CC1=CC=2
CH$IUPAC: InChI=1S/C36H40O6/c1-35(2)25-5-13-31(14-6-25)39-21-29(37)23-41-33-17-9-27(10-18-33)36(3,4)28-11-19-34(20-12-28)42-24-30(38)22-40-32-15-7-26(35)8-16-32/h5-20,29-30,37-38H,21-24H2,1-4H3
CH$LINK: CAS 20583-87-3
AC$INSTRUMENT: Agilent 6546 Q-ToF
AC$INSTRUMENT_TYPE: ESI-QTOF
AC$MASS_SPECTROMETRY: MS_TYPE MS2
AC$MASS_SPECTROMETRY: ION_MODE POSITIVE
AC$MASS_SPECTROMETRY: IONIZATION ESI
AC$MASS_SPECTROMETRY: COLLISION_ENERGY 20
MS$FOCUSED_ION: PRECURSOR_M/Z 586.32629
PK$SPLASH: splash10-014r-0311090000-0ddd145d78e55e18c29b
PK$NUM_PEAK: 29
PK$PEAK: m/z int. rel.int.
  74.0968 1.046918 10
  133.0642 1.582111 15
  133.0664 1.568485 15
  135.0798 21.81118 217
  135.0811 20.40393 203
  135.0831 2.502612 25
  135.0869 1.221026 12
  135.0884 2.061286 20
  147.0764 1.006041 10
  173.097 2.189975 21
  191.1053 4.835658 48
  277.6921 1.027236 10
  285.1484 23.45309 234
  286.1541 1.07417 10
  325.1777 10.63723 106
  325.1814 8.432878 84
  376.0015 1.070385 10
  405.9671 1.062058 10
  419.2188 2.210413 22
  419.2252 5.077137 50
  524.928 1.22254 12
  551.2761 1.077198 10
  569.2824 5.377663 53
  569.2899 100 999
  569.3049 19.54172 195
  570.2891 3.665349 36
  570.2951 3.19223 31
  585.7087 1.327005 13
  716.2429 1.044647 10
//
