ACCESSION: MSBNK-NILU-NL0200
RECORD_TITLE: Erythritol; LC-ESI-QFT; MS2; CE:20; [M-H]-
DATE: 2024.11.18
AUTHORS: MILK, NILU
LICENSE: CC BY
CH$NAME: Erythritol
CH$NAME: (2S,3R)-butane-1,2,3,4-tetrol
CH$COMPOUND_CLASS: Natural product
CH$FORMULA: C4H10O4
CH$EXACT_MASS: 122.05791
CH$SMILES: C([C@H]([C@H](CO)O)O)O
CH$IUPAC: InChI=1S/C4H10O4/c5-1-3(7)4(8)2-6/h3-8H,1-2H2/t3-,4+
AC$INSTRUMENT:  QExactive Plus Orbitrap
AC$INSTRUMENT_TYPE: LC-ESI-QFT
AC$MASS_SPECTROMETRY: MS_TYPE MS2
AC$MASS_SPECTROMETRY: ION_MODE NEGATIVE
AC$MASS_SPECTROMETRY: COLLISION_ENERGY 20
AC$CHROMATOGRAPHY: RETENTION_TIME 4.97
MS$FOCUSED_ION: PRECURSOR_M/Z 121.0505
MS$FOCUSED_ION: PRECURSOR_TYPE [M-H]-
PK$SPLASH: splash10-05mk-9200000000-ff62565050d77cc1005b
PK$NUM_PEAK: 11
PK$PEAK: m/z int. rel.int.
  59.01355 679209 608.23
  61.98814 136626 122.35
  63.96217 1308 1.17
  74.02389 223781 200.4
  79.95736 9385 8.4
  89.02441 66127 59.22
  91.93145 1992 1.78
  99.92584 1115577 999
  113.92628 6249 5.6
  116.9285 699753 626.63
  121.05065 37666 33.73
//