ACCESSION: MSBNK-NILU-NL0176
RECORD_TITLE: 4,4-Bisphenol A; LC-ESI-QFT; MS2; CE:20; [M-H]-
DATE: 2024.07.01
AUTHORS: MILK, NILU
LICENSE: CC BY
CH$NAME: 4,4-Bisphenol A
CH$NAME: 4-[2-(4-hydroxyphenyl)propan-2-yl]phenol
CH$COMPOUND_CLASS: Non-natural product; Additive 
CH$FORMULA: C15H16O2
CH$EXACT_MASS: 228.11514
CH$SMILES: CC(C)(C1=CC=C(C=C1)O)C2=CC=C(C=C2)O
CH$IUPAC: InChI=1S/C15H16O2/c1-15(2,11-3-7-13(16)8-4-11)12-5-9-14(17)10-6-12/h3-10,16-17H,1-2H3
AC$INSTRUMENT:  QExactive Plus Orbitrap
AC$INSTRUMENT_TYPE: LC-ESI-QFT
AC$MASS_SPECTROMETRY: MS_TYPE MS2
AC$MASS_SPECTROMETRY: ION_MODE NEGATIVE
AC$MASS_SPECTROMETRY: COLLISION_ENERGY 20
AC$CHROMATOGRAPHY: RETENTION_TIME 14.8757780833333
MS$FOCUSED_ION: PRECURSOR_M/Z 227.10786
MS$FOCUSED_ION: PRECURSOR_TYPE [M-H]-
PK$SPLASH: splash10-004i-0090000000-20929b7be91da161cfab
PK$NUM_PEAK: 18
PK$PEAK: m/z int. rel.int.
  76.97005 4481.00 4
  88.87929 2001.00 2
  93.03455 13253.00 11
  94.98029 3631.00 3
  104.98698 4401.00 4
  117.03444 3097.00 2
  133.06590 82813.00 67
  150.91629 2737.00 2
  160.42607 2122.00 2
  164.93198 1806.00 1
  176.92900 5400.00 4
  181.30939 1754.00 1
  183.13817 2444.00 2
  184.00230 3504.00 3
  194.94014 2981.00 2
  211.07646 174413.00 140
  226.87756 2594.00 2
  227.10789 1240196.00 999
//
