ACCESSION: MSBNK-NILU-NL0258
RECORD_TITLE: 62FTS; LC-ESI-FT; MS2
DATE: 2024.12.10
AUTHORS: MILK, NILU
LICENSE: CC BY
COPYRIGHT: MILK, NILU
CH$NAME: 62FTS
CH$NAME: 3,3,4,4,5,5,6,6,7,7,8,8,8-tridecafluorooctane-1-sulfonic acid
CH$COMPOUND_CLASS: Non-Natural Product; Fluorotelomer sulfonic acid
CH$FORMULA: C8H5F13O3S
CH$EXACT_MASS: 427.9751813
CH$SMILES: C(CS(=O)(=O)O)C(C(C(C(C(C(F)(F)F)(F)F)(F)F)(F)F)(F)F)(F)F
CH$IUPAC: InChI=1S/C8H5F13O3S/c9-3(10,1-2-25(22,23)24)4(11,12)5(13,14)6(15,16)7(17,18)8(19,20)21/h1-2H2,(H,22,23,24)
AC$INSTRUMENT: Vanquish LC, Thermo Scientific; Exploris 120 Orbitrap, Thermo Scientific
AC$INSTRUMENT_TYPE: LC-ESI-FT
AC$MASS_SPECTROMETRY: MS_TYPE MS2
AC$MASS_SPECTROMETRY: ION_MODE NEGATIVE
AC$CHROMATOGRAPHY: RETENTION_TIME 6.15784160690307
MS$FOCUSED_ION: PRECURSOR_M/Z 426.96738
MS$FOCUSED_ION: PRECURSOR_TYPE [M-H]-
PK$SPLASH: splash10-004i-9000600000-f38c0b4d3acc8be8c376
PK$NUM_PEAK: 17
PK$PEAK: m/z int. rel.int.
  55.78954 1783.00 5
  56.49474 1985.00 6
  76.46037 1992.00 6
  79.95722 217730.00 651
  80.96504 238071.00 712
  91.66885 2199.00 7
  95.23634 2183.00 7
  102.95747 1859.00 6
  114.72237 1892.00 6
  141.83290 2264.00 7
  216.99117 2987.00 9
  254.98375 2618.00 8
  282.98047 3252.00 10
  292.98166 3957.00 12
  386.95447 3485.00 10
  406.96188 26131.00 78
  426.96735 333989.00 999
//
