ACCESSION: MSBNK-NILU-NL0254
RECORD_TITLE: 3,7-MePFOA; LC-ESI-FT; MS2
DATE: 2024.12.10
AUTHORS: MILK, NILU
LICENSE: CC BY
COPYRIGHT: MILK, NILU
CH$NAME: 3,7-MePFOA
CH$NAME: 2,2,3,4,4,5,5,6,6,7,8,8,8-tridecafluoro-3,7-bis(trifluoromethyl)octanoic acid
CH$COMPOUND_CLASS: Non-Natural Product; Perfluoroalkyl carboxylic acid
CH$FORMULA: C10HF19O2
CH$EXACT_MASS: 513.9673143
CH$SMILES: C(=O)(C(C(C(C(C(C(C(F)(F)F)(C(F)(F)F)F)(F)F)(F)F)(F)F)(C(F)(F)F)F)(F)F)O
CH$IUPAC: InChI=1S/C10HF19O2/c11-2(12,1(30)31)3(13,8(21,22)23)5(15,16)7(19,20)6(17,18)4(14,9(24,25)26)10(27,28)29/h(H,30,31)
AC$INSTRUMENT: Vanquish LC, Thermo Scientific; Exploris 120 Orbitrap, Thermo Scientific
AC$INSTRUMENT_TYPE: LC-ESI-FT
AC$MASS_SPECTROMETRY: MS_TYPE MS2
AC$MASS_SPECTROMETRY: ION_MODE NEGATIVE
AC$CHROMATOGRAPHY: RETENTION_TIME 6.86351363715331
MS$FOCUSED_ION: PRECURSOR_M/Z 512.95947
MS$FOCUSED_ION: PRECURSOR_TYPE [M-H]-
PK$SPLASH: splash10-014i-5070900000-ca39740d330cedbabebe
PK$NUM_PEAK: 12
PK$PEAK: m/z int. rel.int.
  68.99557 48322.00 530
  69.00002 3020.00 33
  76.74815 1936.00 21
  79.43188 1806.00 20
  97.17636 2012.00 22
  138.55908 1957.00 21
  155.91606 1960.00 21
  166.98927 1955.00 21
  218.98668 14445.00 158
  268.98264 60339.00 662
  270.48108 1885.00 21
  468.96970 91089.00 999
//
