ACCESSION: MSBNK-NILU-NL0329
RECORD_TITLE: Dimantine; ESI-QTOF; MS2; CE: 10
DATE: 2024.11.15
AUTHORS: MILK, NILU
LICENSE: CC BY
CH$NAME: Stearyldimethylamine
CH$NAME: Dimantine
CH$COMPOUND_CLASS: Non-natural product; Industrial chemical
CH$FORMULA: C20H43N
CH$EXACT_MASS: 297.33955
CH$SMILES: CCCCCCCCCCCCCCCCCCN(C)C
CH$IUPAC: InChI=1S/C20H43N/c1-4-5-6-7-8-9-10-11-12-13-14-15-16-17-18-19-20-21(2)3/h4-20H2,1-3H3
CH$LINK: CAS 124-28-7
CH$LINK: CHEMSPIDER 14626
AC$INSTRUMENT: Agilent 6546 Q-ToF
AC$INSTRUMENT_TYPE: ESI-QTOF
AC$MASS_SPECTROMETRY: MS_TYPE MS2
AC$MASS_SPECTROMETRY: ION_MODE POSITIVE
AC$MASS_SPECTROMETRY: IONIZATION ESI
AC$MASS_SPECTROMETRY: COLLISION_ENERGY 10
MS$FOCUSED_ION: PRECURSOR_M/Z 298.3468
PK$SPLASH: splash10-0002-0090000000-c2f4abdc2b168a7c0a9d
PK$NUM_PEAK: 4
PK$PEAK: m/z int. rel.int.
  298.3472 100 999
  298.3576 3.146774 31
  298.3852 2.092388 20
  299.3502 2.59653 25
//
