ACCESSION: MSBNK-NILU-NL0308
RECORD_TITLE: N,N-Bis(4-tert-octylphenyl)amine; LC-ESI-QTOF; MSn
DATE: 2024.09.19
AUTHORS: Environmental Chemistry section, NIVA
LICENSE: CC BY
CH$NAME: N,N-Bis(4-tert-octylphenyl)amine
CH$NAME: 4-(2,4,4-trimethylpentan-2-yl)-N-[4-(2,4,4-trimethylpentan-2-yl)phenyl]aniline
CH$COMPOUND_CLASS: Non-Natural Product; Industrial chemical
CH$FORMULA: C28H43N
CH$EXACT_MASS: 393.339550389
CH$SMILES: CC(C)(C)CC(C)(C)C1=CC=C(NC2=CC=C(C=C2)C(C)(C)CC(C)(C)C)C=C1
CH$IUPAC: InChI=1S/C28H43N/c1-25(2,3)19-27(7,8)21-11-15-23(16-12-21)29-24-17-13-22(14-18-24)28(9,10)20-26(4,5)6/h11-18,29H,19-20H2,1-10H3
AC$INSTRUMENT: Waters G2-S QTOF
AC$INSTRUMENT_TYPE: LC-ESI-QTOF
AC$MASS_SPECTROMETRY: MS_TYPE MSn
AC$MASS_SPECTROMETRY: ION_MODE POSITIVE
MS$FOCUSED_ION: PRECURSOR_M/Z 394.3474
MS$FOCUSED_ION: PRECURSOR_TYPE [M+H]+
PK$SPLASH: splash10-0006-0009000000-260b6ff96ed71f74e1d8
PK$NUM_PEAK: 25
PK$PEAK: m/z int. rel.int.
  134.0987 2751000 175
  210.1274 49750 3
  220.1127 33280 2
  222.1269 26750 1
  235.1352 47530 3
  236.1438 457500 29
  237.1471 88080 5
  250.1598 980300 62
  251.1669 1444000 92
  252.1708 251700 16
  253.1732 27450 1
  281.2131 48950 3
  282.2196 56410 3
  308.2366 20210 1
  322.2542 6423000 409
  323.2572 2160000 137
  324.2601 240600 15
  336.2658 42720 2
  378.3151 50630 3
  393.3395 1884000 120
  394.3497 15670000 999
  395.3511 7534000 480
  396.3532 866700 55
  397.0412 43990 2
  397.3559 56610 3
//
