ACCESSION: MSBNK-NILU-NL0289
RECORD_TITLE: Benzamide; LC-ESI-QFT; MS2; CE:20; [M+H]+
DATE: 2024.07.01
AUTHORS: MILK, NILU
LICENSE: CC BY
CH$NAME: Benzamide
CH$NAME: Benzenecarboxamide
CH$COMPOUND_CLASS: Non-natural product
CH$FORMULA: C7H7NO
CH$EXACT_MASS: 121.14
CH$SMILES: C1=CC=C(C=C1)C(=O)N
CH$IUPAC: InChI=1S/C7H7NO/c8-7(9)6-4-2-1-3-5-6/h1-5H,(H2,8,9)
AC$INSTRUMENT:  QExactive Plus Orbitrap
AC$INSTRUMENT_TYPE: LC-ESI-QFT
AC$MASS_SPECTROMETRY: MS_TYPE MS2
AC$MASS_SPECTROMETRY: ION_MODE POSITIVE
AC$MASS_SPECTROMETRY: COLLISION_ENERGY 20
AC$CHROMATOGRAPHY: RETENTION_TIME 8.40
MS$FOCUSED_ION: PRECURSOR_M/Z 122.06005
MS$FOCUSED_ION: PRECURSOR_TYPE [M+H]+
PK$SPLASH: splash10-05i0-4900000000-211c1ec4b589005d4486
PK$NUM_PEAK: 4
PK$PEAK: m/z int. rel.int.
  51.02340 15339 319
  79.05429 29210 608
  105.03363 41111 855
  122.06007 48031 999
//
