ACCESSION: MSBNK-NILU-NL0304
RECORD_TITLE: Sorafenib; LC-ESI-QTOF; MSn
DATE: 2024.09.19
AUTHORS: Environmental Chemistry section, NIVA
LICENSE: CC BY
CH$NAME: Sorafenib
CH$NAME: 4-[4-[[4-chloro-3-(trifluoromethyl)phenyl]carbamoylamino]phenoxy]-N-methylpyridine-2-carboxamide
CH$COMPOUND_CLASS: Non-Natural Product; Diarylether
CH$FORMULA: C21H16ClF3N4O3
CH$EXACT_MASS: 464.0863026
CH$SMILES: CNC(=O)C1=CC(OC2=CC=C(NC(=O)NC3=CC=C(Cl)C(=C3)C(F)(F)F)C=C2)=CC=N1
CH$IUPAC: InChI=1S/C21H16ClF3N4O3/c1-26-19(30)18-11-15(8-9-27-18)32-14-5-2-12(3-6-14)28-20(31)29-13-4-7-17(22)16(10-13)21(23,24)25/h2-11H,1H3,(H,26,30)(H2,28,29,31)
AC$INSTRUMENT: Waters G2-S QTOF
AC$INSTRUMENT_TYPE: LC-ESI-QTOF
AC$MASS_SPECTROMETRY: MS_TYPE MSn
AC$MASS_SPECTROMETRY: ION_MODE POSITIVE
MS$FOCUSED_ION: PRECURSOR_M/Z 465.0941
MS$FOCUSED_ION: PRECURSOR_TYPE [M+H]+
PK$SPLASH: splash10-014i-0030900000-5520c3b254737a4f451a
PK$NUM_PEAK: 54
PK$PEAK: m/z int. rel.int.
  134.0623 4044 1
  183.0575 14760 3
  185.0710 9977 2
  197.0072 7692 2
  199.0906 5815 1
  201.9881 281400 74
  203.9849 88350 23
  212.0535 8227 2
  225.0688 30950 8
  226.0981 120700 32
  227.0999 17170 4
  229.0619 463300 122
  237.0596 6928 1
  244.1085 81700 21
  252.0778 1112000 295
  253.0808 171800 45
  269.0326 6275 1
  270.0884 873100 231
  271.0908 126800 33
  272.0936 15870 4
  274.0281 4069 1
  292.0703 4351 1
  358.1901 12030 3
  359.0339 3814 1
  360.0461 4820 1
  361.0345 4595 1
  370.0801 70220 18
  378.0635 7206 1
  386.0515 155400 41
  388.0482 51210 13
  406.0578 500400 132
  408.0545 162300 43
  445.0853 5648 1
  447.0843 375700 99
  448.0863 84050 22
  449.0826 125300 33
  450.0871 23830 6
  465.0953 3764000 999
  466.0979 798800 212
  467.0924 1239000 328
  468.0953 268700 71
  469.0985 35710 9
  471.1041 7171 1
  487.0768 1178000 312
  488.0797 255100 67
  489.0746 393200 104
  490.0760 84310 22
  491.0713 8107 2
  503.0498 346900 92
  504.0515 76740 20
  505.0481 141700 37
  506.0521 30260 8
  507.0446 7190 1
  509.1267 10630 2
//
