ACCESSION: MSBNK-NILU-NL0341
RECORD_TITLE: TETRABUTYLAMMONIUM BROMIDE; ESI-QTOF; MS2; CE: 20
DATE: 2024.11.15
AUTHORS: MILK, NILU
LICENSE: CC BY
CH$NAME: TETRABUTYLAMMONIUM BROMIDE
CH$NAME: N,N,N-TRIBUTYL-1-BUTANAMINUM BROMIDE
CH$COMPOUND_CLASS: Non-natural product; Industrial chemical
CH$FORMULA: C16H36BrN
CH$EXACT_MASS: 321.203112252
CH$SMILES: [Br-].CCCC[N+](CCCC)(CCCC)CCCC
CH$IUPAC: InChI=1S/C16H36N.BrH/c1-5-9-13-17(14-10-6-2,15-11-7-3)16-12-8-4;/h5-16H2,1-4H3;1H/q+1;/p-1
CH$LINK: CAS 1643-19-2
AC$INSTRUMENT: Agilent 6546 Q-ToF
AC$INSTRUMENT_TYPE: ESI-QTOF
AC$MASS_SPECTROMETRY: MS_TYPE MS2
AC$MASS_SPECTROMETRY: ION_MODE POSITIVE
AC$MASS_SPECTROMETRY: IONIZATION ESI
AC$MASS_SPECTROMETRY: COLLISION_ENERGY 20
MS$FOCUSED_ION: PRECURSOR_M/Z 242.28419
PK$SPLASH: splash10-0006-0980000000-5d58574132ff32c7f4d9
PK$NUM_PEAK: 13
PK$PEAK: m/z int. rel.int.
  74.0962 1.100096 10
  100.1119 10.14467 101
  100.1187 1.130311 11
  128.1432 1.692818 16
  130.159 4.973883 49
  142.1591 53.426 533
  142.1673 3.026669 30
  184.2061 10.29069 102
  186.2217 24.90541 248
  186.231 1.796786 17
  242.2846 100 999
  242.2947 1.689136 16
  243.2875 1.017557 10
//
