ACCESSION: MSBNK-NILU-NL0383
RECORD_TITLE: 2-Anilino-3-methyl-6-(dibutylamino)fluoran; ESI-QTOF; MS2; CE: 20
DATE: 2024.11.15
AUTHORS: MILK, NILU
LICENSE: CC BY
CH$NAME: 2-Anilino-3-methyl-6-(dibutylamino)fluoran
CH$NAME: 2'-anilino-6'-(dibutylamino)-3'-methylspiro[2-benzofuran-3,9'-xanthene]-1-one
CH$COMPOUND_CLASS: Non-natural product; Industrial chemical
CH$FORMULA: C35H36N2O3
CH$EXACT_MASS: 532.27259
CH$SMILES: CC1=CC2OC3C=C(C=CC=3C3(OC(=O)C4=CC=CC=C34)C=2C=C1NC1C=CC=CC=1)N(CCCC)CCCC
CH$IUPAC: InChI=1S/C35H36N2O3/c1-4-6-19-37(20-7-5-2)26-17-18-29-33(22-26)39-32-21-24(3)31(36-25-13-9-8-10-14-25)23-30(32)35(29)28-16-12-11-15-27(28)34(38)40-35/h8-18,21-23,36H,4-7,19-20H2,1-3H3
CH$LINK: CAS 89331-94-2
AC$INSTRUMENT: Agilent 6546 Q-ToF
AC$INSTRUMENT_TYPE: ESI-QTOF
AC$MASS_SPECTROMETRY: MS_TYPE MS2
AC$MASS_SPECTROMETRY: ION_MODE POSITIVE
AC$MASS_SPECTROMETRY: IONIZATION ESI
AC$MASS_SPECTROMETRY: COLLISION_ENERGY 20
MS$FOCUSED_ION: PRECURSOR_M/Z 533.27991
PK$SPLASH: splash10-001i-0000090000-e3c0922bbdaf2501195b
PK$NUM_PEAK: 3
PK$PEAK: m/z int. rel.int.
  533.2801 100 999
  533.2946 1.796659 17
  534.2832 4.558184 45
//
