ACCESSION: MSBNK-NILU-NL0361
RECORD_TITLE: Bisphenol A dimethacrylate; ESI-QTOF; MS2; CE: 40
DATE: 2024.11.15
AUTHORS: MILK, NILU
LICENSE: CC BY
CH$NAME: Bisphenol A dimethacrylate
CH$NAME: 4,4'-Isopropylidenediphenol dimethacrylate
CH$COMPOUND_CLASS: Non-natural product; Industrial chemical
CH$FORMULA: C23H24O4
CH$EXACT_MASS: 364.16746
CH$SMILES: CC(C)(C1C=CC(=CC=1)OC(=O)C(C)=C)C1C=CC(=CC=1)OC(=O)C(C)=C
CH$IUPAC: InChI=1S/C23H24O4/c1-15(2)21(24)26-19-11-7-17(8-12-19)23(5,6)18-9-13-20(14-10-18)27-22(25)16(3)4/h7-14H,1,3H2,2,4-6H3
CH$LINK: CAS 3253-39-2
CH$LINK: CHEMSPIDER 69197
CH$LINK: KEGG C14345
AC$INSTRUMENT: Agilent 6546 Q-ToF
AC$INSTRUMENT_TYPE: ESI-QTOF
AC$MASS_SPECTROMETRY: MS_TYPE MS2
AC$MASS_SPECTROMETRY: ION_MODE POSITIVE
AC$MASS_SPECTROMETRY: IONIZATION ESI
AC$MASS_SPECTROMETRY: COLLISION_ENERGY 40
MS$FOCUSED_ION: PRECURSOR_M/Z 365.17474
PK$SPLASH: splash10-0udi-8940000000-b22310a961f8cb70c658
PK$NUM_PEAK: 5
PK$PEAK: m/z int. rel.int.
  69.0325 73.36716 732
  86.0955 69.15269 690
  114.092 59.57634 595
  152.082 100 999
  203.0659 87.86407 877
//
