ACCESSION: MSBNK-NILU-NL0244
RECORD_TITLE: 4,4'-(2-Ethylhexylidene)diphenol; ESI-QTOF; MS2; CE: 20
DATE: 2024.11.15
AUTHORS: MILK, NILU
LICENSE: CC BY
CH$NAME: 4,4'-(2-Ethylhexylidene)diphenol
CH$NAME: 1,1-Bis(4-hydroxyphenyl)-2-ethylhexane
CH$COMPOUND_CLASS: Non-natural product; Industrial chemical
CH$FORMULA: C20H26O2
CH$EXACT_MASS: 298.19328
CH$SMILES: CCC(CCCC)C(C1C=CC(O)=CC=1)C1C=CC(O)=CC=1
CH$IUPAC: InChI=1S/C20H26O2/c1-3-5-6-15(4-2)20(16-7-11-18(21)12-8-16)17-9-13-19(22)14-10-17/h7-15,20-22H,3-6H2,1-2H3
CH$LINK: CAS 74462-02-5
AC$INSTRUMENT: Agilent 6546 Q-ToF
AC$INSTRUMENT_TYPE: ESI-QTOF
AC$MASS_SPECTROMETRY: MS_TYPE MS2
AC$MASS_SPECTROMETRY: ION_MODE NEGATIVE
AC$MASS_SPECTROMETRY: IONIZATION ESI
AC$MASS_SPECTROMETRY: COLLISION_ENERGY 20
MS$FOCUSED_ION: PRECURSOR_M/Z 297.186
PK$SPLASH: splash10-0002-0910000000-40079f6214e565a37de4
PK$NUM_PEAK: 10
PK$PEAK: m/z int. rel.int.
  197.0614 8.876731 88
  198.0691 100 999
  198.0744 3.937191 39
  198.0791 6.583424 65
  264.9883 1.287848 12
  297.1521 2.333477 23
  297.1584 2.140755 21
  297.1866 16.70496 166
  297.2423 2.104171 21
  297.2792 1.112102 11
//
