ACCESSION: MSBNK-NILU-NL0371
RECORD_TITLE: Cyclo-di-BADGE; ESI-QTOF; MS2; CE: 40
DATE: 2024.11.15
AUTHORS: MILK, NILU
LICENSE: CC BY
CH$NAME: Cyclo-di-BADGE
CH$NAME: 2,2,10,10-Tetramethyl-4,8,12,16-tetraoxa-1,3,9,11(1,4)-tetrabenzenacyclohexadecaphane-6,14-diol
CH$COMPOUND_CLASS: Non-natural product; Additive
CH$FORMULA: C36H40O6
CH$EXACT_MASS: 568.28249
CH$SMILES: CC1(C)C2C=CC(=CC=2)OCC(O)COC2C=CC(=CC=2)C(C)(C)C2C=CC(=CC=2)OCC(O)COC2C=CC1=CC=2
CH$IUPAC: InChI=1S/C36H40O6/c1-35(2)25-5-13-31(14-6-25)39-21-29(37)23-41-33-17-9-27(10-18-33)36(3,4)28-11-19-34(20-12-28)42-24-30(38)22-40-32-15-7-26(35)8-16-32/h5-20,29-30,37-38H,21-24H2,1-4H3
CH$LINK: CAS 20583-87-3
AC$INSTRUMENT: Agilent 6546 Q-ToF
AC$INSTRUMENT_TYPE: ESI-QTOF
AC$MASS_SPECTROMETRY: MS_TYPE MS2
AC$MASS_SPECTROMETRY: ION_MODE POSITIVE
AC$MASS_SPECTROMETRY: IONIZATION ESI
AC$MASS_SPECTROMETRY: COLLISION_ENERGY 40
MS$FOCUSED_ION: PRECURSOR_M/Z 586.32629
PK$SPLASH: splash10-000i-0900000000-a14892bfa52e950eb339
PK$NUM_PEAK: 16
PK$PEAK: m/z int. rel.int.
  95.0494 2.526931 25
  105.0689 1.966712 19
  105.0708 1.909752 19
  107.0493 10.78813 107
  133.0648 19.95318 199
  133.0712 1.330755 13
  135.0803 100 999
  135.088 6.608705 66
  135.0895 1.373945 13
  136.0839 1.193673 11
  173.0954 7.249044 72
  173.0979 1.335136 13
  191.1082 1.55359 15
  267.1361 1.035935 10
  285.1494 10.73805 107
  325.1782 6.037219 60
//
