ACCESSION: MSBNK-NILU-NL0299
RECORD_TITLE: 2-(2H-Benzotriazol-2-yl)-4,6-bis(1-methyl-1-phenylethyl)phenol; LC-ESI-QTOF; MSn
DATE: 2024.09.19
AUTHORS: Environmental Chemistry section, NIVA
LICENSE: CC BY
CH$NAME: UV-234
CH$NAME: 2-(2H-Benzotriazol-2-yl)-4,6-bis(1-methyl-1-phenylethyl)phenol
CH$COMPOUND_CLASS: Non-Natural Product; UV Stabilizer
CH$FORMULA: C30H29N3O
CH$EXACT_MASS: 447.231062566
CH$SMILES: CC(C)(C1=CC=CC=C1)C1=CC(N2N=C3C=CC=CC3=N2)=C(O)C(=C1)C(C)(C)C1=CC=CC=C1
CH$IUPAC: InChI=1S/C30H29N3O/c1-29(2,21-13-7-5-8-14-21)23-19-24(30(3,4)22-15-9-6-10-16-22)28(34)27(20-23)33-31-25-17-11-12-18-26(25)32-33/h5-20,34H,1-4H3
AC$INSTRUMENT: Waters G2-S QTOF
AC$INSTRUMENT_TYPE: LC-ESI-QTOF
AC$MASS_SPECTROMETRY: MS_TYPE MSn
AC$MASS_SPECTROMETRY: ION_MODE POSITIVE
MS$FOCUSED_ION: PRECURSOR_M/Z 448.2389
MS$FOCUSED_ION: PRECURSOR_TYPE [M+H]+
PK$SPLASH: splash10-006t-0109700000-7325a7bacc2b5d133710
PK$NUM_PEAK: 21
PK$PEAK: m/z int. rel.int.
  119.0887 479000 243
  167.1470 3308 1
  212.2057 2593 1
  240.2351 6726 3
  252.1143 62230 31
  264.1146 3951 2
  292.1455 164500 83
  321.3175 73590 37
  322.3182 14870 7
  338.3427 627800 318
  339.3460 139700 70
  340.3481 12830 6
  344.3451 4595 2
  360.3264 14640 7
  370.1924 1969000 999
  372.1973 57450 29
  376.3018 2285 1
  445.3615 4114 2
  448.2396 1841000 934
  449.2429 564300 286
  450.2458 84290 42
//
