ACCESSION: MSBNK-NILU-NL0183
RECORD_TITLE: 4-tert-Octylphenol; LC-ESI-QFT; MS2; CE:20; [M-H]-
DATE: 2024.07.01
AUTHORS: MILK, NILU
LICENSE: CC BY
CH$NAME: 4-tert-Octylphenol
CH$NAME: 4-(2,4,4-trimethylpentan-2-yl)phenol
CH$COMPOUND_CLASS: Non-natural product; Industrial chemical 
CH$FORMULA: C14H22O
CH$EXACT_MASS: 206.16710
CH$SMILES: CC(C)(C)CC(C)(C)C1=CC=C(C=C1)O
CH$IUPAC: InChI=1S/C14H22O/c1-13(2,3)10-14(4,5)11-6-8-12(15)9-7-11/h6-9,15H,10H2,1-5H3
AC$INSTRUMENT:  QExactive Plus Orbitrap
AC$INSTRUMENT_TYPE: LC-ESI-QFT
AC$MASS_SPECTROMETRY: ION_MODE Negative
AC$MASS_SPECTROMETRY: MS_TYPE MS2
AC$MASS_SPECTROMETRY: COLLISION_ENERGY 20
AC$CHROMATOGRAPHY: RETENTION_TIME 16.9517135333333
MS$FOCUSED_ION: PRECURSOR_M/Z 205.15982
MS$FOCUSED_ION: PRECURSOR_TYPE [M-H]-
PK$SPLASH: splash10-0a4i-0090000000-902f2a5ada6fab5fc966
PK$NUM_PEAK: 14
PK$PEAK: m/z int. rel.int.
  51.20903 2245.00 0
  66.92064 2410.00 0
  67.42670 2287.00 0
  69.12885 4260.00 0
  69.13218 5959.00 1
  131.08994 2739.00 0
  133.06606 9594.00 1
  148.09059 4454.00 0
  149.09657 6383.00 1
  173.09711 7596.00 1
  189.11052 5663.00 0
  189.12854 242638.00 21
  205.15987 11320423.00 999
  206.16296 17974.00 2
//
