ACCESSION: MSBNK-NILU-NL0276
RECORD_TITLE: PFUNDA; LC-ESI-FT; MS2
DATE: 2024.12.10
AUTHORS: MILK, NILU
LICENSE: CC BY
COPYRIGHT: MILK, NILU
CH$NAME: PFUNDA
CH$NAME: 2,2,3,3,4,4,5,5,6,6,7,7,8,8,9,9,10,10,11,11,11-henicosafluoroundecanoic acid
CH$COMPOUND_CLASS: Non-Natural Product; Perfluoroalkyl carboxylic acid
CH$FORMULA: C11HF21O2
CH$EXACT_MASS: 563.9641207
CH$SMILES: C(=O)(C(C(C(C(C(C(C(C(C(C(F)(F)F)(F)F)(F)F)(F)F)(F)F)(F)F)(F)F)(F)F)(F)F)(F)F)O
CH$IUPAC: InChI=1S/C11HF21O2/c12-2(13,1(33)34)3(14,15)4(16,17)5(18,19)6(20,21)7(22,23)8(24,25)9(26,27)10(28,29)11(30,31)32/h(H,33,34)
AC$INSTRUMENT: Vanquish LC, Thermo Scientific; Exploris 120 Orbitrap, Thermo Scientific
AC$INSTRUMENT_TYPE: LC-ESI-FT
AC$MASS_SPECTROMETRY: MS_TYPE MS2
AC$MASS_SPECTROMETRY: ION_MODE NEGATIVE
AC$CHROMATOGRAPHY: RETENTION_TIME 7.41667957461675
MS$FOCUSED_ION: PRECURSOR_M/Z 562.95587
MS$FOCUSED_ION: PRECURSOR_TYPE [M-H]-
PK$SPLASH: splash10-014i-0121090000-1145869caf107097fb7b
PK$NUM_PEAK: 19
PK$PEAK: m/z int. rel.int.
  62.71921 19012.00 4
  62.98869 23953.00 5
  68.20879 18218.00 4
  68.99522 23608.00 5
  91.68912 20500.00 4
  101.21754 19600.00 4
  102.26468 20090.00 4
  118.99231 353550.00 72
  132.70015 17997.00 4
  137.60968 19941.00 4
  168.98912 573601.00 116
  197.29196 21471.00 4
  218.98572 673202.00 136
  255.04399 20018.00 4
  268.98260 966274.00 196
  318.97922 641278.00 130
  368.97726 87209.00 18
  518.96625 4928524.00 999
  562.96124 62346.00 13
//
