ACCESSION: MSBNK-NILU-NL0286
RECORD_TITLE: 2-PHENYLACETAMIDE; LC-ESI-QFT; MS2; CE:20; [M+H]+
DATE: 2024.07.01
AUTHORS: MILK, NILU
LICENSE: CC BY
CH$NAME: 2-PHENYLACETAMIDE
CH$NAME: Benzeneacetamide
CH$COMPOUND_CLASS: Natural product
CH$FORMULA: C8H9NO
CH$EXACT_MASS: 135.16
CH$SMILES: C1=CC=C(C=C1)CC(=O)N
CH$IUPAC: InChI=1S/C8H9NO/c9-8(10)6-7-4-2-1-3-5-7/h1-5H,6H2,(H2,9,10)
AC$INSTRUMENT:  QExactive Plus Orbitrap
AC$INSTRUMENT_TYPE: LC-ESI-QFT
AC$MASS_SPECTROMETRY: MS_TYPE MS2
AC$MASS_SPECTROMETRY: ION_MODE POSITIVE
AC$MASS_SPECTROMETRY: COLLISION_ENERGY 20
AC$CHROMATOGRAPHY: RETENTION_TIME 9.10
MS$FOCUSED_ION: PRECURSOR_M/Z 136.07574
MS$FOCUSED_ION: PRECURSOR_TYPE [M+H]+
PK$SPLASH: splash10-0006-9200000000-ada27bce0c4c1fce1db0
PK$NUM_PEAK: 4
PK$PEAK: m/z int. rel.int.
  55.93476 3213 23
  65.03879 28130 205
  91.05421 137000 999
  136.07582 41839 305
//
