ACCESSION: MSBNK-NILU-NL0343
RECORD_TITLE: Phenol, 4,4'-sulfonylbis[2-(2-propenyl)-; ESI-QTOF; MS2; CE: 10
DATE: 2024.11.15
AUTHORS: MILK, NILU
LICENSE: CC BY
CH$NAME: Phenol, 4,4'-sulfonylbis[2-(2-propenyl)-
CH$NAME: TGSH
CH$COMPOUND_CLASS: Non-natural product; Industrial chemical
CH$FORMULA: C18H18O4S
CH$EXACT_MASS: 330.09258
CH$SMILES: C=CCC1=CC(=CC=C1O)S(=O)(=O)C1C=C(CC=C)C(O)=CC=1
CH$IUPAC: InChI=1S/C18H18O4S/c1-3-5-13-11-15(7-9-17(13)19)23(21,22)16-8-10-18(20)14(12-16)6-4-2/h3-4,7-12,19-20H,1-2,5-6H2
CH$LINK: CAS 41481-66-7
AC$INSTRUMENT: Agilent 6546 Q-ToF
AC$INSTRUMENT_TYPE: ESI-QTOF
AC$MASS_SPECTROMETRY: MS_TYPE MS2
AC$MASS_SPECTROMETRY: ION_MODE POSITIVE
AC$MASS_SPECTROMETRY: IONIZATION ESI
AC$MASS_SPECTROMETRY: COLLISION_ENERGY 10
MS$FOCUSED_ION: PRECURSOR_M/Z 331.09985
PK$SPLASH: splash10-001i-0409000000-b96c0de04e87f033551f
PK$NUM_PEAK: 21
PK$PEAK: m/z int. rel.int.
  79.0536 1.750257 17
  105.0707 1.981835 19
  133.0644 16.90006 168
  145.0653 2.765403 27
  149.0603 9.443953 94
  156.9951 2.965051 29
  161.0714 3.967425 39
  197.0263 31.06138 310
  197.0322 1.306824 13
  197.0349 2.030291 20
  223.0635 2.275203 22
  303.0682 4.385692 43
  330.9985 1.126708 11
  331.0996 100 999
  331.1119 14.23251 142
  331.132 1.061536 10
  331.1405 1.498396 14
  331.1842 1.07581 10
  331.2097 9.280364 92
  331.2189 3.610575 36
  332.1034 1.701425 16
//
