ACCESSION: MSBNK-NILU-NL0194
RECORD_TITLE: Bisphenol Z; LC-ESI-QFT; MS2; CE:20; [M-H]-
DATE: 2024.07.01
AUTHORS: MILK, NILU
LICENSE: CC BY
CH$NAME: Bisphenol-Z
CH$NAME: 4-[1-(4-hydroxyphenyl)cyclohexyl]phenol
CH$COMPOUND_CLASS: Non-natural product; Additive 
CH$FORMULA: C18H20O2
CH$EXACT_MASS: 268.14656
CH$SMILES: C1CCC(CC1)(C2=CC=C(C=C2)O)C3=CC=C(C=C3)O
CH$IUPAC: InChI=1S/C18H20O2/c19-16-8-4-14(5-9-16)18(12-2-1-3-13-18)15-6-10-17(20)11-7-15/h4-11,19-20H,1-3,12-13H2
AC$INSTRUMENT:  QExactive Plus Orbitrap
AC$INSTRUMENT_TYPE: LC-ESI-QFT
AC$MASS_SPECTROMETRY: MS_TYPE MS2
AC$MASS_SPECTROMETRY: ION_MODE NEGATIVE
AC$MASS_SPECTROMETRY: COLLISION_ENERGY 20
AC$CHROMATOGRAPHY: RETENTION_TIME 16.0157821666667
MS$FOCUSED_ION: PRECURSOR_M/Z 267.13928
MS$FOCUSED_ION: PRECURSOR_TYPE [M-H]-
PK$SPLASH: splash10-014i-0190000000-269f3e77b71de7c21bf8
PK$NUM_PEAK: 16
PK$PEAK: m/z int. rel.int.
  54.49002 1652.00 2
  58.08031 1654.00 2
  59.60910 1629.00 2
  91.52714 1649.00 2
  93.03452 17491.00 16
  95.78191 1674.00 2
  98.95588 6119.00 6
  117.03465 4847.00 5
  145.06604 68718.00 64
  173.09715 79008.00 73
  197.06064 25942.00 24
  198.06888 6391.00 6
  223.07654 80899.00 75
  224.08469 27804.00 26
  230.28523 2127.00 2
  267.13916 1075157.00 999
//
