ACCESSION: MSBNK-NILU-NL0311
RECORD_TITLE: 2-(benzotriazol-2-yl)-4-(2-hydroxyethyl)phenol; LC-ESI-QTOF; MSn
DATE: 2024.09.19
AUTHORS: Environmental Chemistry section, NIVA
LICENSE: CC BY
CH$NAME: 2-(benzotriazol-2-yl)-4-(2-hydroxyethyl)phenol
CH$NAME: Benzeneethanol, 3-(2H-benzotriazol-2-yl)-4-hydroxy-
CH$COMPOUND_CLASS: Non-Natural Product; Benzotriazole
CH$FORMULA: C14H13N3O2
CH$EXACT_MASS: 255.100776671
CH$SMILES: OCCC1=CC(N2N=C3C=CC=CC3=N2)=C(O)C=C1
CH$IUPAC: InChI=1S/C14H13N3O2/c18-8-7-10-5-6-14(19)13(9-10)17-15-11-3-1-2-4-12(11)16-17/h1-6,9,18-19H,7-8H2
AC$INSTRUMENT: Waters G2-S QTOF
AC$INSTRUMENT_TYPE: LC-ESI-QTOF
AC$MASS_SPECTROMETRY: MS_TYPE MSn
AC$MASS_SPECTROMETRY: ION_MODE POSITIVE
MS$FOCUSED_ION: PRECURSOR_M/Z 256.1086
MS$FOCUSED_ION: PRECURSOR_TYPE [M+H]+
PK$SPLASH: splash10-000i-0090000000-a527cd61b15f28366382
PK$NUM_PEAK: 32
PK$PEAK: m/z int. rel.int.
  101.5371 411 3
  107.5926 313 2
  108.0158 269 2
  147.8780 262 2
  148.3172 291 2
  150.2936 424 3
  164.1443 284 2
  164.2809 242 2
  202.2423 204 1
  203.9710 204 1
  212.3517 178 1
  212.4955 378 3
  215.8480 264 2
  219.8230 157 1
  219.8842 129 1
  220.2691 222 1
  222.0736 256 2
  223.8987 121 1
  226.2195 194 1
  227.0870 636 5
  238.0975 118300 999
  239.9996 271 2
  241.5460 217 1
  241.7158 531 4
  242.3704 242 2
  243.5352 191 1
  243.8615 156 1
  243.9447 366 3
  247.5283 253 2
  247.9355 225 1
  248.3790 189 1
  256.1082 52210 440
//
