ACCESSION: MSBNK-NILU-NL0318
RECORD_TITLE: 2,2-Bis[4-(4-aminophenoxy)phenyl]propane; ESI-QTOF; MS2; CE: 10
DATE: 2024.11.15
AUTHORS: MILK, NILU
LICENSE: CC BY
CH$NAME: 2,2-Bis[4-(4-aminophenoxy)phenyl]propane
CH$NAME: BAPP
CH$COMPOUND_CLASS: Non-Natural Product; Industrial Chemical
CH$FORMULA: C27H26N2O2
CH$EXACT_MASS: 410.19943
CH$SMILES: CC(C)(C1C=CC(=CC=1)OC1C=CC(N)=CC=1)C1C=CC(=CC=1)OC1C=CC(N)=CC=1
CH$IUPAC: InChI=1S/C27H26N2O2/c1-27(2,19-3-11-23(12-4-19)30-25-15-7-21(28)8-16-25)20-5-13-24(14-6-20)31-26-17-9-22(29)10-18-26/h3-18H,28-29H2,1-2H3
CH$LINK: CAS 13080-86-9
AC$INSTRUMENT: Agilent 6546 Q-ToF
AC$INSTRUMENT_TYPE: ESI-QTOF
AC$MASS_SPECTROMETRY: MS_TYPE MS2
AC$MASS_SPECTROMETRY: ION_MODE POSITIVE
AC$MASS_SPECTROMETRY: IONIZATION ESI
AC$MASS_SPECTROMETRY: COLLISION_ENERGY 10
MS$FOCUSED_ION: PRECURSOR_M/Z 411.2067
PK$SPLASH: splash10-0400-0167900000-899ec07517c83f551945
PK$NUM_PEAK: 28
PK$PEAK: m/z int. rel.int.
  86.0965 1.12552 11
  88.1118 3.491404 34
  108.0444 14.84526 148
  121.0507 4.498932 44
  130.159 2.141589 21
  210.0915 4.392628 43
  225.0895 1.224857 12
  225.092 2.18047 21
  226.1225 55.45567 554
  226.1331 6.3079 63
  227.1253 1.379706 13
  237.0337 8.868861 88
  237.0379 1.366895 13
  290.1543 5.187999 51
  318.1487 80.5005 804
  318.1597 4.850657 48
  318.1635 1.501292 14
  319.1538 6.037308 60
  319.1578 1.442184 14
  396.1779 2.555119 25
  411.2036 3.274301 32
  411.2064 100 999
  411.2153 3.63569 36
  411.2208 6.993371 69
  411.2393 1.842454 18
  411.2496 1.23924 12
  412.2042 1.375211 13
  412.2121 3.372739 33
//
