ACCESSION: MSBNK-NILU-NL0324
RECORD_TITLE: Bis[4-(4-aminophenoxy)phenyl]sulfone; ESI-QTOF; MS2; CE: 20
DATE: 2024.11.15
AUTHORS: MILK, NILU
LICENSE: CC BY
CH$NAME: Bis[4-(4-aminophenoxy)phenyl]sulfone
CH$NAME: BAPS
CH$COMPOUND_CLASS: Non-Natural Product; Industrial Chemical
CH$FORMULA: C24H20N2O4S
CH$EXACT_MASS: 432.11438
CH$SMILES: NC1C=CC(=CC=1)OC1C=CC(=CC=1)S(=O)(=O)C1C=CC(=CC=1)OC1C=CC(N)=CC=1
CH$IUPAC: InChI=1S/C24H20N2O4S/c25-17-1-5-19(6-2-17)29-21-9-13-23(14-10-21)31(27,28)24-15-11-22(12-16-24)30-20-7-3-18(26)4-8-20/h1-16H,25-26H2
CH$LINK: CAS 13080-89-2
AC$INSTRUMENT: Agilent 6546 Q-ToF
AC$INSTRUMENT_TYPE: ESI-QTOF
AC$MASS_SPECTROMETRY: MS_TYPE MS2
AC$MASS_SPECTROMETRY: ION_MODE POSITIVE
AC$MASS_SPECTROMETRY: IONIZATION ESI
AC$MASS_SPECTROMETRY: COLLISION_ENERGY 20
MS$FOCUSED_ION: PRECURSOR_M/Z 433.1217
PK$SPLASH: splash10-001r-3940200000-3c7c35d51919bc815288
PK$NUM_PEAK: 19
PK$PEAK: m/z int. rel.int.
  72.0808 12.00707 119
  84.0802 8.334785 83
  93.0575 73.82381 737
  108.0429 10.01916 100
  149.023 12.14888 121
  183.0682 10.78297 107
  184.0758 100 999
  185.0836 88.23428 881
  219.0251 11.25818 112
  248.1092 7.344563 73
  258.9854 11.67367 116
  259.0164 29.29366 292
  259.9853 7.528675 75
  276.099 15.73657 157
  276.1037 35.91919 358
  326.085 7.028587 70
  433.1143 23.69816 236
  433.1244 37.37965 373
  646.325 7.767521 77
//
