ACCESSION: MSBNK-NILU-NL0290
RECORD_TITLE: N-Methyl-2-pyrrolidone; LC-ESI-QFT; MS2; CE:20; [M+H]+
DATE: 2024.07.02
AUTHORS: MILK. NILU
LICENSE: CC BY
CH$NAME: N-Methyl-2-pyrrolidone
CH$NAME: Methylpyrrolidone
CH$COMPOUND_CLASS: Non-natural product; Industrial chemical
CH$FORMULA: C5H9NO
CH$EXACT_MASS: 99.06840
CH$SMILES: CN1CCCC1=O
CH$IUPAC: InChI=1S/C5H9NO/c1-6-4-2-3-5(6)7/h2-4H2,1H3
AC$INSTRUMENT:  QExactive Plus Orbitrap
AC$INSTRUMENT_TYPE: LC-ESI-QFT
AC$MASS_SPECTROMETRY: ION_MODE Positive
AC$MASS_SPECTROMETRY: MS_TYPE MS2
AC$MASS_SPECTROMETRY: COLLISION_ENERGY 20
AC$CHROMATOGRAPHY: RETENTION_TIME 5.92
MS$FOCUSED_ION: PRECURSOR_M/Z 100.07568
MS$FOCUSED_ION: PRECURSOR_TYPE [M+H]+
PK$SPLASH: splash10-0udi-3900000000-f828d54843b138d038a1
PK$NUM_PEAK: 9
PK$PEAK: m/z int. rel.int.
  50.52296 1512 14
  55.05470 1483 14
  56.04990 2468 23
  58.02639 2778 25
  58.02909 29600 270
  69.03362 4141 38
  88.98087 1430 13
  98.05950 1575 14
  100.07568 109335 999
//
