ACCESSION: MSBNK-NILU-NL0222
RECORD_TITLE: Santowhite; ESI-QTOF; MS2; CE: 20
DATE: 2024.11.15
AUTHORS: MILK, NILU
LICENSE: CC BY
CH$NAME: Santowhite
CH$NAME: BBM
CH$COMPOUND_CLASS: Non-natural product; Additive
CH$FORMULA: C26H38O2
CH$EXACT_MASS: 382.28718
CH$SMILES: CCCC(C1=CC(=C(O)C=C1C)C(C)(C)C)C1=CC(=C(O)C=C1C)C(C)(C)C
CH$IUPAC: InChI=1S/C26H38O2/c1-10-11-18(19-14-21(25(4,5)6)23(27)12-16(19)2)20-15-22(26(7,8)9)24(28)13-17(20)3/h12-15,18,27-28H,10-11H2,1-9H3
CH$LINK: CAS 85-60-9
AC$INSTRUMENT: Agilent 6546 Q-ToF
AC$INSTRUMENT_TYPE: ESI-QTOF
AC$MASS_SPECTROMETRY: MS_TYPE MS2
AC$MASS_SPECTROMETRY: ION_MODE NEGATIVE
AC$MASS_SPECTROMETRY: IONIZATION ESI
AC$MASS_SPECTROMETRY: COLLISION_ENERGY 20
MS$FOCUSED_ION: PRECURSOR_M/Z 381.27991
PK$SPLASH: splash10-001i-0009000000-ea3b2a6dd72a6b88159e
PK$NUM_PEAK: 8
PK$PEAK: m/z int. rel.int.
  163.1125 2.285071 22
  217.0032 1.347871 13
  338.225 5.059068 50
  381.28 100 999
  381.292 6.305159 62
  381.323 1.736791 17
  381.3724 1.055722 10
  382.2834 3.267042 32
//
