ACCESSION: MSBNK-NILU-NL0321
RECORD_TITLE: 2,2-Bis(4-(3,4-dicarboxyphenoxy)phenyl)propane dianhydride; ESI-QTOF; MS2; CE: 10
DATE: 2024.11.15
AUTHORS: MILK, NILU
LICENSE: CC BY
CH$NAME: 2,2-Bis(4-(3,4-dicarboxyphenoxy)phenyl)propane dianhydride
CH$NAME: BPA_dianhydride
CH$COMPOUND_CLASS: Non-Natural Product; Industrial Chemical
CH$FORMULA: C31H20O8
CH$EXACT_MASS: 520.11582
CH$SMILES: CC(C)(C1C=CC(=CC=1)OC1=CC2=C(C=C1)C(=O)OC2=O)C1C=CC(=CC=1)OC1=CC2=C(C=C1)C(=O)OC2=O
CH$IUPAC: InChI=1S/C31H20O8/c1-31(2,17-3-7-19(8-4-17)36-21-11-13-23-25(15-21)29(34)38-27(23)32)18-5-9-20(10-6-18)37-22-12-14-24-26(16-22)30(35)39-28(24)33/h3-16H,1-2H3
CH$LINK: CAS 38103-06-9
AC$INSTRUMENT: Agilent 6546 Q-ToF
AC$INSTRUMENT_TYPE: ESI-QTOF
AC$MASS_SPECTROMETRY: MS_TYPE MS2
AC$MASS_SPECTROMETRY: ION_MODE POSITIVE
AC$MASS_SPECTROMETRY: IONIZATION ESI
AC$MASS_SPECTROMETRY: COLLISION_ENERGY 10
MS$FOCUSED_ION: PRECURSOR_M/Z 521.12311
PK$SPLASH: splash10-0fl0-0000960000-43818bc2c588ad3b2ab5
PK$NUM_PEAK: 3
PK$PEAK: m/z int. rel.int.
  433.7344 78.52735 784
  454.1693 63.18839 631
  521.2557 100 999
//
