ACCESSION: MSBNK-NILU-NL0251
RECORD_TITLE: 24-Di-11-biphenyl-4yl6-Chloro-135-triazine; ESI-QTOF; MS2; CE: 20
DATE: 2024.11.15
AUTHORS: MILK, NILU
LICENSE: CC BY
CH$NAME: 24-Di-11-biphenyl-4yl6-Chloro-135-triazine
CH$NAME: 2-chloro-4,6-bis(4-phenylphenyl)-1,3,5-triazine
CH$COMPOUND_CLASS: Non-natural product; Industrial chemical
CH$FORMULA: C27H18ClN3
CH$EXACT_MASS: 419.11892
CH$SMILES: ClC1N=C(N=C(N=1)C1C=CC(=CC=1)C1C=CC=CC=1)C1C=CC(=CC=1)C1C=CC=CC=1
CH$IUPAC: InChI=1S/C27H18ClN3/c28-27-30-25(23-15-11-21(12-16-23)19-7-3-1-4-8-19)29-26(31-27)24-17-13-22(14-18-24)20-9-5-2-6-10-20/h1-18H
CH$LINK: CAS 182918-13-4
AC$INSTRUMENT: Agilent 6546 Q-ToF
AC$INSTRUMENT_TYPE: ESI-QTOF
AC$MASS_SPECTROMETRY: MS_TYPE MS2
AC$MASS_SPECTROMETRY: ION_MODE NEGATIVE
AC$MASS_SPECTROMETRY: IONIZATION ESI
AC$MASS_SPECTROMETRY: COLLISION_ENERGY 20
MS$FOCUSED_ION: PRECURSOR_M/Z 418.11166
PK$SPLASH: splash10-03ei-6070090000-9ed7a5ab24708f6ce6d8
PK$NUM_PEAK: 3
PK$PEAK: m/z int. rel.int.
  87.0022 70.08416 700
  281.2495 79.84653 797
  560.8444 100 999
//
