ACCESSION: MSBNK-NILU-NL0229
RECORD_TITLE: 5,5',6,6'-Tetramethyl-3,3'-di-tert-butyl-1,1'-biphenyl-2,2'-diol; ESI-QTOF; MS2; CE: 10
DATE: 2024.11.15
AUTHORS: MILK, NILU
LICENSE: CC BY
CH$NAME: 5,5',6,6'-Tetramethyl-3,3'-di-tert-butyl-1,1'-biphenyl-2,2'-diol
CH$NAME: S-BIPHEN
CH$COMPOUND_CLASS: Non-natural product; Industrial chemical
CH$FORMULA: C24H34O2
CH$EXACT_MASS: 354.25588
CH$SMILES: CC(C)(C)C1C=C(C)C(C)=C(C2C(O)=C(C=C(C)C=2C)C(C)(C)C)C=1O
CH$IUPAC: InChI=1S/C24H34O2/c1-13-11-17(23(5,6)7)21(25)19(15(13)3)20-16(4)14(2)12-18(22(20)26)24(8,9)10/h11-12,25-26H,1-10H3
CH$LINK: CAS 205927-03-3
AC$INSTRUMENT: Agilent 6546 Q-ToF
AC$INSTRUMENT_TYPE: ESI-QTOF
AC$MASS_SPECTROMETRY: MS_TYPE MS2
AC$MASS_SPECTROMETRY: ION_MODE NEGATIVE
AC$MASS_SPECTROMETRY: IONIZATION ESI
AC$MASS_SPECTROMETRY: COLLISION_ENERGY 10
MS$FOCUSED_ION: PRECURSOR_M/Z 353.2486
PK$SPLASH: splash10-0udi-0009000000-658843d620ceee1f96ab
PK$NUM_PEAK: 9
PK$PEAK: m/z int. rel.int.
  221.0376 1.21238 12
  309.2428 1.330759 13
  353.2001 5.550592 55
  353.2487 100 999
  353.2619 7.696145 76
  353.2894 1.65242 16
  353.3425 1.612849 16
  354.2518 4.842318 48
  980.0132 1.181567 11
//
