ACCESSION: MSBNK-NILU-NL0210
RECORD_TITLE: 2,2'-Diallylbisphenol A; ESI-QTOF; MS2; CE: 10
DATE: 2024.11.15
AUTHORS: MILK, NILU
LICENSE: CC BY
CH$NAME: 2,2'-Diallylbisphenol A
CH$NAME: 4,4'-(Propane-2,2-diyl)bis(2-allylphenol)
CH$COMPOUND_CLASS: Non-Natural Product; Industrial Chemical
CH$FORMULA: C21H24O2
CH$EXACT_MASS: 308.17763
CH$SMILES: CC(C)(C1C=C(CC=C)C(O)=CC=1)C1C=C(CC=C)C(O)=CC=1
CH$IUPAC: InChI=1S/C21H24O2/c1-5-7-15-13-17(9-11-19(15)22)21(3,4)18-10-12-20(23)16(14-18)8-6-2/h5-6,9-14,22-23H,1-2,7-8H2,3-4H3
CH$LINK: CAS 1745-89-7
AC$INSTRUMENT: Agilent 6546 Q-ToF
AC$INSTRUMENT_TYPE: ESI-QTOF
AC$MASS_SPECTROMETRY: MS_TYPE MS2
AC$MASS_SPECTROMETRY: ION_MODE NEGATIVE
AC$MASS_SPECTROMETRY: IONIZATION ESI
AC$MASS_SPECTROMETRY: COLLISION_ENERGY 10
MS$FOCUSED_ION: PRECURSOR_M/Z 307.17035
PK$SPLASH: splash10-0a4i-0009000000-246945d603dc4edcb8d7
PK$NUM_PEAK: 6
PK$PEAK: m/z int. rel.int.
  292.1462 1.400534 13
  307.016 1.319565 13
  307.1707 100 999
  307.1822 6.748876 67
  308.1755 1.561696 15
  980.0164 1.713267 17
//
