ACCESSION: MSBNK-NILU-NL0206
RECORD_TITLE: Phthalic acid; LC-ESI-QFT; MS2; CE:20; [M-H]-
DATE: 2024.07.02
AUTHORS: MILK, NILU
LICENSE: CC BY
CH$NAME: Phthalic acid
CH$NAME: 1,2-benzenedicarboxylic acid
CH$COMPOUND_CLASS: Non-natural product; Industrial chemical
CH$FORMULA: C8H6O4
CH$EXACT_MASS: 166.02646
CH$SMILES: C1=CC=C(C(=C1)C(=O)O)C(=O)O
CH$IUPAC: InChI=1S/C8H6O4/c9-7(10)5-3-1-2-4-6(5)8(11)12/h1-4H,(H,9,10)(H,11,12)
AC$INSTRUMENT:  QExactive Plus Orbitrap
AC$INSTRUMENT_TYPE: LC-ESI-QFT
AC$MASS_SPECTROMETRY: MS_TYPE MS2
AC$MASS_SPECTROMETRY: ION_MODE NEGATIVE
AC$MASS_SPECTROMETRY: COLLISION_ENERGY 20
AC$CHROMATOGRAPHY: RETENTION_TIME 1.6879634
MS$FOCUSED_ION: PRECURSOR_M/Z 165.01918
MS$FOCUSED_ION: PRECURSOR_TYPE [M-H]-
PK$SPLASH: splash10-03k9-0900000000-46d98de3b7f4f0627693
PK$NUM_PEAK: 6
PK$PEAK: m/z int. rel.int.
  78.95901 10596 21
  93.03437 10255 20
  121.02945 287848 564
  147.89282 231213 453
  164.89536 509938 999
  165.01900 49476 97
//
