ACCESSION: MSBNK-NILU-NL0245
RECORD_TITLE: 2,2-Bis(4-hydroxy-3,5-dimethylphenyl)propane; ESI-QTOF; MS2; CE: 40
DATE: 2024.11.15
AUTHORS: MILK, NILU
LICENSE: CC BY
CH$NAME: 2,2-Bis(4-hydroxy-3,5-dimethylphenyl)propane
CH$NAME: TMBPA
CH$COMPOUND_CLASS: Non-natural product; Industrial chemical
CH$FORMULA: C19H24O2
CH$EXACT_MASS: 284.17763
CH$SMILES: CC(C)(C1=CC(C)=C(O)C(C)=C1)C1=CC(C)=C(O)C(C)=C1
CH$IUPAC: InChI=1S/C19H24O2/c1-11-7-15(8-12(2)17(11)20)19(5,6)16-9-13(3)18(21)14(4)10-16/h7-10,20-21H,1-6H3
CH$LINK: CAS 5613-46-7
AC$INSTRUMENT: Agilent 6546 Q-ToF
AC$INSTRUMENT_TYPE: ESI-QTOF
AC$MASS_SPECTROMETRY: MS_TYPE MS2
AC$MASS_SPECTROMETRY: ION_MODE NEGATIVE
AC$MASS_SPECTROMETRY: IONIZATION ESI
AC$MASS_SPECTROMETRY: COLLISION_ENERGY 40
MS$FOCUSED_ION: PRECURSOR_M/Z 283.17035
PK$SPLASH: splash10-03di-5960000000-b19e24d0c65bbfbb1649
PK$NUM_PEAK: 12
PK$PEAK: m/z int. rel.int.
  59.0137 12.80444 127
  61.9871 11.7847 117
  73.0289 22.3875 223
  83.0498 10.48118 104
  95.9533 11.6319 116
  121.0658 19.25967 192
  161.097 100 999
  224.0472 8.741074 87
  267.1385 29.60676 295
  267.1424 14.3855 143
  283.1727 18.86675 188
  283.265 10.69012 106
//
