ACCESSION: MSBNK-NILU-NL0281
RECORD_TITLE: F53B; LC-ESI-FT; MS2
DATE: 2024.12.10
AUTHORS: MILK, NILU
LICENSE: CC BY
COPYRIGHT: MILK, NILU
CH$NAME: F53B
CH$NAME: 2-(6-chloro-1,1,2,2,3,3,4,4,5,5,6,6-dodecafluorohexoxy)-1,1,2,2-tetrafluoroethanesulfonic acid
CH$COMPOUND_CLASS: Non-Natural Product; New PFAS
CH$FORMULA: C8HClF16O4S
CH$EXACT_MASS: 531.9028580
CH$SMILES: C(C(C(C(F)(F)Cl)(F)F)(F)F)(C(C(OC(C(F)(F)S(=O)(=O)O)(F)F)(F)F)(F)F)(F)F
CH$IUPAC: InChI=1S/C8HClF16O4S/c9-5(18,19)3(14,15)1(10,11)2(12,13)4(16,17)6(20,21)29-7(22,23)8(24,25)30(26,27)28/h(H,26,27,28)
AC$INSTRUMENT: Vanquish LC, Thermo Scientific; Exploris 120 Orbitrap, Thermo Scientific
AC$INSTRUMENT_TYPE: LC-ESI-FT
AC$MASS_SPECTROMETRY: MS_TYPE MS2
AC$MASS_SPECTROMETRY: ION_MODE NEGATIVE
AC$CHROMATOGRAPHY: RETENTION_TIME 7.54187626795769
MS$FOCUSED_ION: PRECURSOR_M/Z 530.89478
MS$FOCUSED_ION: PRECURSOR_TYPE [M-H]-
PK$SPLASH: splash10-001i-0001090000-0af79e3169265cd5709e
PK$NUM_PEAK: 10
PK$PEAK: m/z int. rel.int.
  60.52582 17203.00 3
  67.39808 17594.00 3
  82.96063 198168.00 39
  84.99049 100875.00 20
  98.95551 100569.00 20
  134.83119 19779.00 4
  173.38196 18739.00 4
  350.88806 28601.00 6
  350.94455 888450.00 174
  530.89496 5101211.00 999
//
