ACCESSION: MSBNK-NILU-NL0188
RECORD_TITLE: Bisphenol E; LC-ESI-QFT; MS2; CE:20; [M-H]-
DATE: 2024.07.01
AUTHORS: MILK, NILU
LICENSE: CC BY
CH$NAME: Bisphenol E
CH$NAME: 4-[1-(4-hydroxyphenyl)ethyl]phenol
CH$COMPOUND_CLASS: Non-natural product; Additive 
CH$FORMULA: C14H14O2
CH$EXACT_MASS: 214.09946
CH$SMILES: CC(C1=CC=C(C=C1)O)C2=CC=C(C=C2)O
CH$IUPAC: InChI=1S/C14H14O2/c1-10(11-2-6-13(15)7-3-11)12-4-8-14(16)9-5-12/h2-10,15-16H,1H3
AC$INSTRUMENT:  QExactive Plus Orbitrap
AC$INSTRUMENT_TYPE: LC-ESI-QFT
AC$MASS_SPECTROMETRY: MS_TYPE MS2
AC$MASS_SPECTROMETRY: ION_MODE NEGATIVE
AC$MASS_SPECTROMETRY: COLLISION_ENERGY 20
AC$CHROMATOGRAPHY: RETENTION_TIME 14.28
MS$FOCUSED_ION: PRECURSOR_M/Z 213.09218
MS$FOCUSED_ION: PRECURSOR_TYPE [M-H]-
PK$SPLASH: splash10-03xr-9800000000-0bdb7b098105a2a8f505
PK$NUM_PEAK: 3
PK$PEAK: m/z int. rel.int.
  63.96228 23688.00 999
  119.05027 14762.81 623
  147.10117 8730.56 368
//
