ACCESSION: MSBNK-NILU-NL0191
RECORD_TITLE: Bisphenol M; LC-ESI-QFT; MS2; CE:20; [M-H]-
DATE: 2024.07.01
AUTHORS: MILK, NILU
LICENSE: CC BY
CH$NAME: Bisphenol-M
CH$NAME: 4-[2-[3-[2-(4-hydroxyphenyl)propan-2-yl]phenyl]propan-2-yl]phenol
CH$COMPOUND_CLASS: Non-natural product; Additive 
CH$FORMULA: C24H26O2
CH$EXACT_MASS: 346.19359
CH$SMILES: CC(C)(C1=CC=C(C=C1)O)C2=CC(=CC=C2)C(C)(C)C3=CC=C(C=C3)O
CH$IUPAC: InChI=1S/C24H26O2/c1-23(2,17-8-12-21(25)13-9-17)19-6-5-7-20(16-19)24(3,4)18-10-14-22(26)15-11-18/h5-16,25-26H,1-4H3
AC$INSTRUMENT:  QExactive Plus Orbitrap
AC$INSTRUMENT_TYPE: LC-ESI-QFT
AC$MASS_SPECTROMETRY: MS_TYPE MS2
AC$MASS_SPECTROMETRY: ION_MODE NEGATIVE
AC$MASS_SPECTROMETRY: COLLISION_ENERGY 20
AC$CHROMATOGRAPHY: RETENTION_TIME 16.62
MS$FOCUSED_ION: PRECURSOR_M/Z 345.18631
MS$FOCUSED_ION: PRECURSOR_TYPE [M-H]-
PK$SPLASH: splash10-01ot-6290000000-7fe444744a5b33bbb512
PK$NUM_PEAK: 4
PK$PEAK: m/z int. rel.int.
  60.97495 56576.94 585
  90.98587 14156.75 146
  133.06596 27987.38 289
  295.24643 96661.81 999
//
