ACCESSION: MSBNK-NILU-NL0189
RECORD_TITLE: Bisphenol-FL; LC-ESI-QFT; MS2; CE:20; [M-H]-
DATE: 2024.07.01
AUTHORS: MILK, NILU
LICENSE: CC BY
CH$NAME: Bisphenol-FL
CH$NAME: 4-[9-(4-hydroxyphenyl)fluoren-9-yl]phenol
CH$COMPOUND_CLASS: Non-natural product; Additive 
CH$FORMULA: C25H18O2
CH$EXACT_MASS: 350.13103
CH$SMILES: C1=CC=C2C(=C1)C3=CC=CC=C3C2(C4=CC=C(C=C4)O)C5=CC=C(C=C5)O
CH$IUPAC: InChI=1S/C25H18O2/c26-19-13-9-17(10-14-19)25(18-11-15-20(27)16-12-18)23-7-3-1-5-21(23)22-6-2-4-8-24(22)25/h1-16,26-27H
AC$INSTRUMENT:  QExactive Plus Orbitrap
AC$INSTRUMENT_TYPE: LC-ESI-QFT
AC$MASS_SPECTROMETRY: MS_TYPE MS2
AC$MASS_SPECTROMETRY: ION_MODE NEGATIVE
AC$MASS_SPECTROMETRY: COLLISION_ENERGY 20
AC$CHROMATOGRAPHY: RETENTION_TIME 15.92
MS$FOCUSED_ION: PRECURSOR_M/Z 349.12375
MS$FOCUSED_ION: PRECURSOR_TYPE [M-H]-
PK$SPLASH: splash10-0002-0039000000-0ff6c2198f9d596252f7
PK$NUM_PEAK: 14
PK$PEAK: m/z int. rel.int.
  54.96889 1561.00 8
  56.48673 1455.00 8
  58.83266 1753.00 9
  70.78341 2067.00 11
  71.01858 1688.00 9
  71.59583 1597.00 9
  103.96610 1806.00 10
  110.48103 1748.00 9
  242.47580 1910.00 10
  256.08960 61616.00 331
  291.06992 4417.00 24
  348.11435 2602.00 14
  349.12378 185741.00 999
  349.19754 4466.00 24
//
