ACCESSION: MSBNK-NILU-NL0381
RECORD_TITLE: CAPROLACTAM; ESI-QTOF; MS2; CE: 20
DATE: 2024.11.15
AUTHORS: MILK, NILU
LICENSE: CC BY
CH$NAME: CAPROLACTAM
CH$NAME: 2-Perhydroazepinone
CH$COMPOUND_CLASS: Non-natural product; Industrial chemical
CH$FORMULA: C6H11NO
CH$EXACT_MASS: 113.084063972
CH$SMILES: OC1CCCCCN=1
CH$IUPAC: InChI=1S/C6H11NO/c8-6-4-2-1-3-5-7-6/h1-5H2,(H,7,8)
CH$LINK: CAS 105-60-2
CH$LINK: CHEMSPIDER 7480
CH$LINK: KEGG C06593
CH$LINK: PUBCHEM CID:7768
AC$INSTRUMENT: Agilent 6546 Q-ToF
AC$INSTRUMENT_TYPE: ESI-QTOF
AC$MASS_SPECTROMETRY: MS_TYPE MS2
AC$MASS_SPECTROMETRY: ION_MODE POSITIVE
AC$MASS_SPECTROMETRY: IONIZATION ESI
AC$MASS_SPECTROMETRY: COLLISION_ENERGY 20
MS$FOCUSED_ION: PRECURSOR_M/Z 114.0913
PK$SPLASH: splash10-03fs-9300000000-a9f259c2316b178c87f5
PK$NUM_PEAK: 25
PK$PEAK: m/z int. rel.int.
  67.0536 1.277056 12
  68.0487 2.712704 27
  69.0697 37.87629 378
  69.0736 1.480791 14
  70.0652 2.572525 25
  72.0806 13.95495 139
  72.082 2.14189 21
  77.0383 11.90454 118
  79.0542 78.34708 782
  79.0595 4.821331 48
  79.061 3.69574 36
  81.0576 2.207821 22
  83.0841 1.141034 11
  84.0808 1.307349 13
  85.0643 1.595429 15
  86.096 5.588752 55
  86.0974 5.98553 59
  95.049 1.658984 16
  96.0808 43.21022 431
  96.0891 1.593647 15
  97.0645 20.16026 201
  105.0438 3.667823 36
  114.0913 100 999
  114.0991 4.966856 49
  538.2962 1.617406 16
//
