ACCESSION: MSBNK-NILU-NL0224
RECORD_TITLE: 4,4'-(4-Methylpentane-2,2-diyl)diphenol; ESI-QTOF; MS2; CE: 40
DATE: 2024.11.15
AUTHORS: MILK, NILU
LICENSE: CC BY
CH$NAME: 4,4'-(4-Methylpentane-2,2-diyl)diphenol
CH$NAME: Bis_MIBK
CH$COMPOUND_CLASS: Non-natural product; Additive
CH$FORMULA: C18H22O2
CH$EXACT_MASS: 270.16198
CH$SMILES: CC(C)CC(C)(C1C=CC(O)=CC=1)C1C=CC(O)=CC=1
CH$IUPAC: InChI=1S/C18H22O2/c1-13(2)12-18(3,14-4-8-16(19)9-5-14)15-6-10-17(20)11-7-15/h4-11,13,19-20H,12H2,1-3H3
CH$LINK: CAS 6807-17-6
AC$INSTRUMENT: Agilent 6546 Q-ToF
AC$INSTRUMENT_TYPE: ESI-QTOF
AC$MASS_SPECTROMETRY: MS_TYPE MS2
AC$MASS_SPECTROMETRY: ION_MODE NEGATIVE
AC$MASS_SPECTROMETRY: IONIZATION ESI
AC$MASS_SPECTROMETRY: COLLISION_ENERGY 40
MS$FOCUSED_ION: PRECURSOR_M/Z 269.15469
PK$SPLASH: splash10-03di-0290000000-141e9f7068c3dbbe2f9f
PK$NUM_PEAK: 10
PK$PEAK: m/z int. rel.int.
  95.0511 3.707075 37
  117.0351 9.93924 99
  132.0577 4.191676 41
  133.0667 5.136279 51
  160.0907 4.521303 45
  175.1142 9.016777 90
  210.069 4.625849 46
  211.0767 100 999
  211.0856 7.783135 77
  219.8607 3.667716 36
//
