ACCESSION: MSBNK-NILU-NL0246
RECORD_TITLE: 2,2-Bis(4-hydroxy-3,5-dimethylphenyl)propane; ESI-QTOF; MS2; CE: 10
DATE: 2024.11.15
AUTHORS: MILK, NILU
LICENSE: CC BY
CH$NAME: 2,2-Bis(4-hydroxy-3,5-dimethylphenyl)propane
CH$NAME: TMBPA
CH$COMPOUND_CLASS: Non-natural product; Industrial chemical
CH$FORMULA: C19H24O2
CH$EXACT_MASS: 284.17763
CH$SMILES: CC(C)(C1=CC(C)=C(O)C(C)=C1)C1=CC(C)=C(O)C(C)=C1
CH$IUPAC: InChI=1S/C19H24O2/c1-11-7-15(8-12(2)17(11)20)19(5,6)16-9-13(3)18(21)14(4)10-16/h7-10,20-21H,1-6H3
CH$LINK: CAS 5613-46-7
AC$INSTRUMENT: Agilent 6546 Q-ToF
AC$INSTRUMENT_TYPE: ESI-QTOF
AC$MASS_SPECTROMETRY: MS_TYPE MS2
AC$MASS_SPECTROMETRY: ION_MODE NEGATIVE
AC$MASS_SPECTROMETRY: IONIZATION ESI
AC$MASS_SPECTROMETRY: COLLISION_ENERGY 10
MS$FOCUSED_ION: PRECURSOR_M/Z 283.17035
PK$SPLASH: splash10-001i-0090000000-353cc20da8650ef7bced
PK$NUM_PEAK: 18
PK$PEAK: m/z int. rel.int.
  161.0134 1.091176 10
  161.0959 1.089375 10
  173.0834 1.27514 12
  250.9976 1.06303 10
  283.0317 1.06956 10
  283.1564 2.929693 29
  283.1703 100 999
  283.1817 4.451169 44
  283.1871 2.287282 22
  283.2642 41.26248 412
  283.2687 2.944329 29
  283.275 4.395327 43
  284.1753 2.631792 26
  603.9264 1.859232 18
  817.3758 1.980824 19
  890.4106 1.313194 13
  922.6343 1.12968 11
  980.0165 2.68133 26
//
