ACCESSION: MSBNK-NILU-NL0370
RECORD_TITLE: Cyclo-di-BADGE; ESI-QTOF; MS2; CE: 10
DATE: 2024.11.15
AUTHORS: MILK, NILU
LICENSE: CC BY
CH$NAME: Cyclo-di-BADGE
CH$NAME: 2,2,10,10-Tetramethyl-4,8,12,16-tetraoxa-1,3,9,11(1,4)-tetrabenzenacyclohexadecaphane-6,14-diol
CH$COMPOUND_CLASS: Non-natural product; Additive
CH$FORMULA: C36H40O6
CH$EXACT_MASS: 568.28249
CH$SMILES: CC1(C)C2C=CC(=CC=2)OCC(O)COC2C=CC(=CC=2)C(C)(C)C2C=CC(=CC=2)OCC(O)COC2C=CC1=CC=2
CH$IUPAC: InChI=1S/C36H40O6/c1-35(2)25-5-13-31(14-6-25)39-21-29(37)23-41-33-17-9-27(10-18-33)36(3,4)28-11-19-34(20-12-28)42-24-30(38)22-40-32-15-7-26(35)8-16-32/h5-20,29-30,37-38H,21-24H2,1-4H3
CH$LINK: CAS 20583-87-3
AC$INSTRUMENT: Agilent 6546 Q-ToF
AC$INSTRUMENT_TYPE: ESI-QTOF
AC$MASS_SPECTROMETRY: MS_TYPE MS2
AC$MASS_SPECTROMETRY: ION_MODE POSITIVE
AC$MASS_SPECTROMETRY: IONIZATION ESI
AC$MASS_SPECTROMETRY: COLLISION_ENERGY 10
MS$FOCUSED_ION: PRECURSOR_M/Z 586.32629
PK$SPLASH: splash10-014r-0100090000-9b6c61b2c5b9e8bd7028
PK$NUM_PEAK: 39
PK$PEAK: m/z int. rel.int.
  74.0948 1.132596 11
  83.0604 1.722295 17
  88.0758 2.18251 21
  88.1117 9.92348 99
  88.1132 1.583451 15
  97.0647 1.171598 11
  97.0762 3.648957 36
  101.096 1.936802 19
  102.1268 2.228532 22
  121.05 7.167651 71
  121.0526 1.55225 15
  130.1583 1.005452 10
  133.065 2.781569 27
  135.0799 6.8533 68
  135.0814 3.808083 38
  137.1053 1.055374 10
  145.576 1.367384 13
  170.1535 1.205139 12
  183.1604 1.514809 15
  183.1631 2.350216 23
  195.1424 1.014813 10
  285.1488 1.125576 11
  304.6579 1.177838 11
  325.1807 8.319748 83
  343.703 1.352564 13
  419.2152 1.810438 18
  419.2242 5.055343 50
  475.2472 2.046006 20
  551.5045 1.049134 10
  554.1311 1.029633 10
  569.2902 100 999
  569.3048 12.23859 122
  570.2057 1.419646 14
  570.291 3.229304 32
  586.316 65.03225 649
  586.3208 6.717577 67
  586.3323 6.366565 63
  586.4765 1.002332 10
  587.3209 1.54523 15
//
