ACCESSION: MSBNK-NILU-NL0373
RECORD_TITLE: Metformin; ESI-QTOF; MS2; CE: 10
DATE: 2024.11.15
AUTHORS: MILK, NILU
LICENSE: CC BY
CH$NAME: Glucophage
CH$NAME: Metformin
CH$COMPOUND_CLASS: Non-natural product; Pharmaceutical
CH$FORMULA: C4H12ClN5
CH$EXACT_MASS: 165.07812
CH$SMILES: Cl.CN(C)C(=N)NC(N)=N
CH$IUPAC: InChI=1S/C4H11N5.ClH/c1-9(2)4(7)8-3(5)6;/h1-2H3,(H5,5,6,7,8);1H
CH$LINK: CAS 1115-70-4
AC$INSTRUMENT: Agilent 6546 Q-ToF
AC$INSTRUMENT_TYPE: ESI-QTOF
AC$MASS_SPECTROMETRY: MS_TYPE MS2
AC$MASS_SPECTROMETRY: ION_MODE POSITIVE
AC$MASS_SPECTROMETRY: IONIZATION ESI
AC$MASS_SPECTROMETRY: COLLISION_ENERGY 10
MS$FOCUSED_ION: PRECURSOR_M/Z 130.1087
PK$SPLASH: splash10-001r-9700000000-6bf506d7638a1483776b
PK$NUM_PEAK: 13
PK$PEAK: m/z int. rel.int.
  60.0553 13.95627 139
  60.0606 1.150858 11
  71.0602 44.95672 449
  71.0661 3.190933 31
  85.0508 40.4915 404
  85.0569 3.133343 31
  88.0868 38.63308 385
  88.0932 3.084458 30
  113.0823 22.00303 219
  113.0896 1.724295 17
  130.1088 100 999
  130.1168 6.777761 67
  130.1588 1.168109 11
//
