ACCESSION: MSBNK-NILU-NL0322
RECORD_TITLE: Bis[4-(4-aminophenoxy)phenyl]sulfone; ESI-QTOF; MS2; CE: 10
DATE: 2024.11.15
AUTHORS: MILK, NILU
LICENSE: CC BY
CH$NAME: Bis[4-(4-aminophenoxy)phenyl]sulfone
CH$NAME: BAPS
CH$COMPOUND_CLASS: Non-Natural Product; Industrial Chemical
CH$FORMULA: C24H20N2O4S
CH$EXACT_MASS: 432.11438
CH$SMILES: NC1C=CC(=CC=1)OC1C=CC(=CC=1)S(=O)(=O)C1C=CC(=CC=1)OC1C=CC(N)=CC=1
CH$IUPAC: InChI=1S/C24H20N2O4S/c25-17-1-5-19(6-2-17)29-21-9-13-23(14-10-21)31(27,28)24-15-11-22(12-16-24)30-20-7-3-18(26)4-8-20/h1-16H,25-26H2
CH$LINK: CAS 13080-89-2
AC$INSTRUMENT: Agilent 6546 Q-ToF
AC$INSTRUMENT_TYPE: ESI-QTOF
AC$MASS_SPECTROMETRY: MS_TYPE MS2
AC$MASS_SPECTROMETRY: ION_MODE POSITIVE
AC$MASS_SPECTROMETRY: IONIZATION ESI
AC$MASS_SPECTROMETRY: COLLISION_ENERGY 10
MS$FOCUSED_ION: PRECURSOR_M/Z 433.1217
PK$SPLASH: splash10-001i-2730900000-a170a95f09786e0e14f4
PK$NUM_PEAK: 46
PK$PEAK: m/z int. rel.int.
  85.0507 4.326188 43
  85.1017 12.23444 122
  87.0796 6.785639 67
  88.1117 29.53598 295
  93.0576 11.50965 114
  102.1281 9.929615 99
  109.0406 5.191103 51
  112.0484 7.560359 75
  112.0516 7.726255 77
  114.0898 4.446986 44
  121.0516 35.50824 354
  149.0242 6.571424 65
  158.1534 3.5563 35
  160.1822 4.80777 48
  163.1474 4.366454 43
  183.162 5.287742 52
  184.0754 37.73254 376
  184.0771 13.9981 139
  185.0825 18.75433 187
  185.0858 8.325415 83
  185.1607 5.669464 56
  188.1258 4.770725 47
  193.1908 3.557911 35
  199.0661 3.545026 35
  219.0228 4.678918 46
  219.0259 5.944884 59
  223.2021 4.194115 41
  241.0067 4.311692 43
  259.0157 42.18597 421
  276.1014 5.998035 59
  276.1068 5.753218 57
  286.1563 3.752798 37
  294.6988 4.912462 49
  350.7208 6.56015 65
  371.0674 7.465331 74
  415.0567 4.221496 42
  415.1675 5.682349 56
  415.2551 4.287532 42
  433.1181 100 999
  433.1234 82.17824 820
  433.1331 27.74172 277
  433.1395 7.412179 74
  434.1211 4.823876 48
  457.7771 5.274857 52
  907.5882 5.057419 50
  907.5993 4.424437 44
//
