ACCESSION: MSBNK-NILU-NL0221
RECORD_TITLE: Santowhite; ESI-QTOF; MS2; CE: 40
DATE: 2024.11.15
AUTHORS: MILK, NILU
LICENSE: CC BY
CH$NAME: Santowhite
CH$NAME: BBM
CH$COMPOUND_CLASS: Non-natural product; Additive
CH$FORMULA: C26H38O2
CH$EXACT_MASS: 382.28718
CH$SMILES: CCCC(C1=CC(=C(O)C=C1C)C(C)(C)C)C1=CC(=C(O)C=C1C)C(C)(C)C
CH$IUPAC: InChI=1S/C26H38O2/c1-10-11-18(19-14-21(25(4,5)6)23(27)12-16(19)2)20-15-22(26(7,8)9)24(28)13-17(20)3/h12-15,18,27-28H,10-11H2,1-9H3
CH$LINK: CAS 85-60-9
AC$INSTRUMENT: Agilent 6546 Q-ToF
AC$INSTRUMENT_TYPE: ESI-QTOF
AC$MASS_SPECTROMETRY: MS_TYPE MS2
AC$MASS_SPECTROMETRY: ION_MODE NEGATIVE
AC$MASS_SPECTROMETRY: IONIZATION ESI
AC$MASS_SPECTROMETRY: COLLISION_ENERGY 40
MS$FOCUSED_ION: PRECURSOR_M/Z 381.27991
MS$DATA_PROCESSING: WHOLE Agilent ChemVista Version 1.0
PK$SPLASH: splash10-01p9-0309000000-703935e8a8205b1162bc
PK$NUM_PEAK: 35
PK$PEAK: m/z int. rel.int.
  61.9886 2.626489 26
  72.994 2.358736 23
  108.9907 1.641444 16
  147.0808 2.328289 23
  148.0844 1.641444 16
  163.1129 100 999
  163.1203 2.887078 28
  170.9603 1.67189 16
  187.0069 1.799946 17
  202.1346 4.134503 41
  217.1584 4.945823 49
  217.1627 5.32999 53
  217.1675 1.591296 15
  232.9298 3.268559 32
  238.8838 1.85099 18
  281.1526 1.686218 16
  322.1953 2.499329 24
  323.2027 30.64118 306
  323.2077 1.847408 18
  335.2035 2.015761 20
  337.1781 3.007075 30
  337.2054 2.21277 22
  337.2114 5.00403 49
  337.2175 76.97233 768
  337.2274 3.562282 35
  338.0299 1.673681 16
  338.2254 59.6024 595
  338.2332 10.80863 107
  338.2391 4.375392 43
  365.2421 2.729471 27
  381.2673 4.150622 41
  381.2809 59.50569 594
  381.2938 2.133071 21
  382.2882 4.205248 42
  853.169 1.889496 18
//
