ACCESSION: MSBNK-NILU-NL0323
RECORD_TITLE: Bis[4-(4-aminophenoxy)phenyl]sulfone; ESI-QTOF; MS2; CE: 40
DATE: 2024.11.15
AUTHORS: MILK, NILU
LICENSE: CC BY
CH$NAME: Bis[4-(4-aminophenoxy)phenyl]sulfone
CH$NAME: BAPS
CH$COMPOUND_CLASS: Non-Natural Product; Industrial Chemical
CH$FORMULA: C24H20N2O4S
CH$EXACT_MASS: 432.11438
CH$SMILES: NC1C=CC(=CC=1)OC1C=CC(=CC=1)S(=O)(=O)C1C=CC(=CC=1)OC1C=CC(N)=CC=1
CH$IUPAC: InChI=1S/C24H20N2O4S/c25-17-1-5-19(6-2-17)29-21-9-13-23(14-10-21)31(27,28)24-15-11-22(12-16-24)30-20-7-3-18(26)4-8-20/h1-16H,25-26H2
CH$LINK: CAS 13080-89-2
AC$INSTRUMENT: Agilent 6546 Q-ToF
AC$INSTRUMENT_TYPE: ESI-QTOF
AC$MASS_SPECTROMETRY: MS_TYPE MS2
AC$MASS_SPECTROMETRY: ION_MODE POSITIVE
AC$MASS_SPECTROMETRY: IONIZATION ESI
AC$MASS_SPECTROMETRY: COLLISION_ENERGY 40
MS$FOCUSED_ION: PRECURSOR_M/Z 433.1217
PK$SPLASH: splash10-053u-3910000000-2b8766c96157a42a2c27
PK$NUM_PEAK: 22
PK$PEAK: m/z int. rel.int.
  92.0478 8.569501 85
  92.05 11.48396 114
  93.0572 100 999
  108.0433 36.78761 367
  108.045 26.30022 262
  129.0686 10.33686 103
  130.0658 12.38711 123
  136.0618 9.542718 95
  144.9276 8.540953 85
  145.0831 7.277069 72
  152.9829 9.028859 90
  152.99 39.54635 395
  156.0816 36.68639 366
  161.1315 11.15956 111
  167.0739 6.882591 68
  184.0759 75.71889 756
  184.0788 14.07921 140
  185.0828 42.22464 421
  232.0406 7.591094 75
  233.0488 10.19931 101
  268.1233 10.51593 105
  276.1053 18.63646 186
//
