ACCESSION: MSBNK-NILU-NL0193
RECORD_TITLE: Bisphenol TMC; LC-ESI-QFT; MS2; CE:20; [M-H]-
DATE: 2024.07.01
AUTHORS: MILK, NILU
LICENSE: CC BY
CH$NAME: Bisphenol TMC
CH$NAME: 4-[1-(4-hydroxyphenyl)-3,3,5-trimethylcyclohexyl]phenol
CH$COMPOUND_CLASS: Non-natural product; Additive 
CH$FORMULA: C21H26O2
CH$EXACT_MASS: 310.19356
CH$SMILES: CC1CC(CC(C1)(C2=CC=C(C=C2)O)C3=CC=C(C=C3)O)(C)C
CH$IUPAC: InChI=1S/C21H26O2/c1-15-12-20(2,3)14-21(13-15,16-4-8-18(22)9-5-16)17-6-10-19(23)11-7-17/h4-11,15,22-23H,12-14H2,1-3H3
AC$INSTRUMENT:  QExactive Plus Orbitrap
AC$INSTRUMENT_TYPE: LC-ESI-QFT
AC$MASS_SPECTROMETRY: MS_TYPE MS2
AC$MASS_SPECTROMETRY: ION_MODE NEGATIVE
AC$MASS_SPECTROMETRY: COLLISION_ENERGY 20
AC$CHROMATOGRAPHY: RETENTION_TIME 16.67
MS$FOCUSED_ION: PRECURSOR_M/Z 309.18628
MS$FOCUSED_ION: PRECURSOR_TYPE [M-H]-
PK$SPLASH: splash10-0a4j-6009000000-f1c8bf98b7f5bff7c90f
PK$NUM_PEAK: 21
PK$PEAK: m/z int. rel.int.
  56.33100 1686.00 13
  56.93591 1778.00 13
  57.51418 1595.00 12
  59.42625 1631.00 12
  59.66322 1530.00 12
  61.24158 1968.00 15
  68.71682 6529.00 49
  77.90509 1718.00 13
  79.95742 11088.00 84
  91.06594 1810.00 14
  96.96013 75622.00 570
  129.28503 1578.00 12
  165.80136 1583.00 12
  176.92996 2600.00 20
  216.64323 1737.00 13
  242.14215 1922.00 14
  249.02249 1842.00 14
  255.92032 1708.00 13
  291.19928 2690.00 20
  309.17590 132516.00 999
  309.20767 11968.00 90
//
