ACCESSION: MSBNK-NILU-NL0266
RECORD_TITLE: PFDS; LC-ESI-FT; MS2
DATE: 2024.12.10
AUTHORS: MILK, NILU
LICENSE: CC BY
COPYRIGHT: MILK, NILU
CH$NAME: PFDS
CH$NAME: 1,1,2,2,3,3,4,4,5,5,6,6,7,7,8,8,9,9,10,10,10-henicosafluorodecane-1-sulfonic acid
CH$COMPOUND_CLASS: Non-Natural Product; Perfluoroalkyl sulfonic acid
CH$FORMULA: C10HF21O3S
CH$EXACT_MASS: 599.9311065
CH$SMILES: C(C(C(C(C(C(F)(F)S(=O)(=O)O)(F)F)(F)F)(F)F)(F)F)(C(C(C(C(F)(F)F)(F)F)(F)F)(F)F)(F)F
CH$IUPAC: InChI=1S/C10HF21O3S/c11-1(12,3(15,16)5(19,20)7(23,24)9(27,28)29)2(13,14)4(17,18)6(21,22)8(25,26)10(30,31)35(32,33)34/h(H,32,33,34)
AC$INSTRUMENT: Vanquish LC, Thermo Scientific; Exploris 120 Orbitrap, Thermo Scientific
AC$INSTRUMENT_TYPE: LC-ESI-FT
AC$MASS_SPECTROMETRY: MS_TYPE MS2
AC$MASS_SPECTROMETRY: ION_MODE NEGATIVE
AC$CHROMATOGRAPHY: RETENTION_TIME 8.00871182438532
MS$FOCUSED_ION: PRECURSOR_M/Z 598.92285
MS$FOCUSED_ION: PRECURSOR_TYPE [M-H]-
PK$SPLASH: splash10-0002-3000090000-4046a1c6f53def6da83e
PK$NUM_PEAK: 16
PK$PEAK: m/z int. rel.int.
  68.99551 84668.00 2
  79.95721 14906147.00 288
  82.96058 396657.00 8
  86.78392 54598.00 1
  98.95558 4494213.00 87
  118.99225 267592.00 5
  129.95438 304005.00 6
  146.24825 65029.00 1
  161.94312 90418.00 2
  168.98903 145101.00 3
  211.58142 62002.00 1
  229.94836 201072.00 4
  279.94333 78173.00 2
  379.93427 62104.00 1
  529.46143 61398.00 1
  598.92328 51789080.00 999
//
