ACCESSION: MSBNK-NILU-NL0386
RECORD_TITLE: Deacetylbisacodyl; ESI-QTOF; MS2; CE: 20
DATE: 2024.11.15
AUTHORS: MILK, NILU
LICENSE: CC BY
CH$NAME: Deacetylbisacodyl
CH$NAME: DDPM
CH$COMPOUND_CLASS: Non-natural product; Pharmaceutical metabolite
CH$FORMULA: C18H15NO2
CH$EXACT_MASS: 277.1102787305
CH$SMILES: OC1C=CC(=CC=1)C(C1=CC=CC=N1)C1C=CC(O)=CC=1
CH$IUPAC: InChI=1S/C18H15NO2/c20-15-8-4-13(5-9-15)18(17-3-1-2-12-19-17)14-6-10-16(21)11-7-14/h1-12,18,20-21H
CH$LINK: CAS 603-41-8
CH$LINK: CHEMSPIDER 62268
AC$INSTRUMENT: Agilent 6546 Q-ToF
AC$INSTRUMENT_TYPE: ESI-QTOF
AC$MASS_SPECTROMETRY: MS_TYPE MS2
AC$MASS_SPECTROMETRY: ION_MODE POSITIVE
AC$MASS_SPECTROMETRY: IONIZATION ESI
AC$MASS_SPECTROMETRY: COLLISION_ENERGY 20
MS$FOCUSED_ION: PRECURSOR_M/Z 278.11761
PK$SPLASH: splash10-001i-0900000000-aa934b057065c08d322a
PK$NUM_PEAK: 5
PK$PEAK: m/z int. rel.int.
  167.0729 3.505208 35
  183.0679 3.395837 33
  184.0759 100 999
  185.0793 1.049079 10
  278.1172 1.139085 11
//
