ACCESSION: MSBNK-NILU-NL0203
RECORD_TITLE: Levoglucosan; LC-ESI-QFT; MS2; CE:20; [M-H]-
DATE: 2024.11.18
AUTHORS: MILK, NILU
LICENSE: CC BY
CH$NAME: Levoglucosan
CH$NAME: (1R,2S,3S,4R,5R)-6,8-dioxabicyclo[3.2.1]octane-2,3,4-triol
CH$COMPOUND_CLASS: Natural product
CH$FORMULA: C6H10O5
CH$EXACT_MASS: 162.05282
CH$SMILES: C1[C@@H]2[C@H]([C@@H]([C@H]([C@H](O1)O2)O)O)O
CH$IUPAC: InChI=1S/C6H10O5/c7-3-2-1-10-6(11-2)5(9)4(3)8/h2-9H,1H2/t2-,3-,4+,5-,6-/m1/s1
AC$INSTRUMENT:  QExactive Plus Orbitrap
AC$INSTRUMENT_TYPE: LC-ESI-QFT
AC$MASS_SPECTROMETRY: MS_TYPE MS2
AC$MASS_SPECTROMETRY: ION_MODE NEGATIVE
AC$MASS_SPECTROMETRY: COLLISION_ENERGY 20
AC$CHROMATOGRAPHY: RETENTION_TIME 8.02
MS$FOCUSED_ION: PRECURSOR_M/Z 161.0453
MS$FOCUSED_ION: PRECURSOR_TYPE [M-H]-
PK$SPLASH: splash10-00kb-9700000000-63f5d5a51639393e5d7d
PK$NUM_PEAK: 17
PK$PEAK: m/z int. rel.int.
  56.99545 12914 2.01
  57.03423 47005 7.31
  60.99283 605987 94.3
  67.01872 7604 1.18
  73.02942 37305 5.81
  75.96217 90616 14.1
  76.97002 897661 139.69
  79.95734 60733 9.45
  83.93075 14449 2.25
  94.97935 13399 2.09
  96.96007 114860 17.87
  99.9258 6419854 999
  100.92587 715865 111.4
  113.02441 15789 2.46
  116.92845 5563356 865.72
  134.89462 405120 63.04
  154.94722 25175 3.92
//