ACCESSION: MSBNK-NILU-NL0184
RECORD_TITLE: 4-tert-pentylphenol; LC-ESI-QFT; MS2; CE:20; [M-H]-
DATE: 2024.07.01
AUTHORS: MILK, NILU
LICENSE: CC BY
CH$NAME: 4-tert-pentylphenol
CH$NAME: 4-(2-methylbutan-2-yl)phenol
CH$COMPOUND_CLASS: Non-natural product; Industrial chemical 
CH$FORMULA: C11H16O
CH$EXACT_MASS: 164.12021
CH$SMILES: CCC(C)(C)C1=CC=C(C=C1)O
CH$IUPAC: InChI=1S/C11H16O/c1-4-11(2,3)9-5-7-10(12)8-6-9/h5-8,12H,4H2,1-3H3
AC$INSTRUMENT:  QExactive Plus Orbitrap
AC$INSTRUMENT_TYPE: LC-ESI-QFT
AC$MASS_SPECTROMETRY: MS_TYPE MS2
AC$MASS_SPECTROMETRY: ION_MODE NEGATIVE
AC$MASS_SPECTROMETRY: COLLISION_ENERGY 20
AC$CHROMATOGRAPHY: RETENTION_TIME 16.1482325
MS$FOCUSED_ION: PRECURSOR_M/Z 163.11293
MS$FOCUSED_ION: PRECURSOR_TYPE [M-H]-
PK$SPLASH: splash10-057i-5900000000-033e7041ef7f65e48f80
PK$NUM_PEAK: 3
PK$PEAK: m/z int. rel.int.
  76.97015 118638.31 999
  108.99641 85877.00 723
  134.97330 94525.06 796
//
