ACCESSION: MSBNK-NILU-NL0207
RECORD_TITLE: Methionine-sulfone; LC-ESI-QFT; MS2; CE:20; [M-H]-
DATE: 2024.07.02
AUTHORS: MILK, NILU
LICENSE: CC BY
CH$NAME: Methionine-sulfone
CH$NAME: (2S)-2-amino-4-methylsulfonylbutanoic acid
CH$COMPOUND_CLASS: Natural product; Metabolite
CH$FORMULA: C5H11NO4S
CH$EXACT_MASS: 181.04076
CH$SMILES: CS(=O)(=O)CC[C@@H](C(=O)O)N
CH$IUPAC: InChI=1S/C5H11NO4S/c1-11(9,10)3-2-4(6)5(7)8/h4H,2-3,6H2,1H3,(H,7,8)/t4-/m0/s1
AC$INSTRUMENT:  QExactive Plus Orbitrap
AC$INSTRUMENT_TYPE: LC-ESI-QFT
AC$MASS_SPECTROMETRY: MS_TYPE MS2
AC$MASS_SPECTROMETRY: ION_MODE NEGATIVE
AC$MASS_SPECTROMETRY: COLLISION_ENERGY 20
AC$CHROMATOGRAPHY: RETENTION_TIME 1.45
MS$FOCUSED_ION: PRECURSOR_M/Z 180.03348
MS$FOCUSED_ION: PRECURSOR_TYPE [M-H]-
PK$SPLASH: splash10-01t9-9000000000-d4a9960be4b5be856ed0
PK$NUM_PEAK: 3
PK$PEAK: m/z int. rel.int.
  63.96225 1117594 685
  78.98593 1628975 999
  180.03352 151624 93
//
