ACCESSION: MSBNK-NILU-NL0345
RECORD_TITLE: Phenol, 4,4'-sulfonylbis[2-(2-propenyl)-; ESI-QTOF; MS2; CE: 40
DATE: 2024.11.15
AUTHORS: MILK, NILU
LICENSE: CC BY
CH$NAME: Phenol, 4,4'-sulfonylbis[2-(2-propenyl)-
CH$NAME: TGSH
CH$COMPOUND_CLASS: Non-natural product; Industrial chemical
CH$FORMULA: C18H18O4S
CH$EXACT_MASS: 330.09258
CH$SMILES: C=CCC1=CC(=CC=C1O)S(=O)(=O)C1C=C(CC=C)C(O)=CC=1
CH$IUPAC: InChI=1S/C18H18O4S/c1-3-5-13-11-15(7-9-17(13)19)23(21,22)16-8-10-18(20)14(12-16)6-4-2/h3-4,7-12,19-20H,1-2,5-6H2
CH$LINK: CAS 41481-66-7
AC$INSTRUMENT: Agilent 6546 Q-ToF
AC$INSTRUMENT_TYPE: ESI-QTOF
AC$MASS_SPECTROMETRY: MS_TYPE MS2
AC$MASS_SPECTROMETRY: ION_MODE POSITIVE
AC$MASS_SPECTROMETRY: IONIZATION ESI
AC$MASS_SPECTROMETRY: COLLISION_ENERGY 40
MS$FOCUSED_ION: PRECURSOR_M/Z 331.09985
PK$SPLASH: splash10-004i-7900000000-3d4e2c0405c1106e02ee
PK$NUM_PEAK: 54
PK$PEAK: m/z int. rel.int.
  65.0379 1.620293 16
  73.047 1.168056 11
  73.0638 1.024137 10
  77.0383 38.47953 384
  78.0453 1.257533 12
  79.0541 100 999
  79.0598 6.276883 62
  83.088 1.312513 13
  84.081 1.691444 16
  89.038 1.234894 12
  91.0538 8.279343 82
  93.0315 1.430019 14
  93.0328 5.826263 58
  95.0866 1.043003 10
  97.0104 1.949634 19
  97.0761 1.239745 12
  103.0544 48.65407 486
  103.0575 1.47368 14
  103.062 1.695217 16
  105.0445 6.213279 62
  105.0699 52.65629 526
  105.0748 1.295803 12
  105.0773 3.123619 31
  107.0494 2.387857 23
  109.0272 3.09559 30
  112.0891 1.3745 13
  115.0545 23.62308 235
  116.0534 1.235972 12
  118.0403 1.068876 10
  119.0502 1.806794 18
  120.0826 1.060791 10
  121.0383 1.347549 13
  128.9543 1.421395 14
  129.0711 1.315208 13
  131.0486 7.995278 79
  131.0502 3.036298 30
  132.0602 2.478412 24
  133.0647 19.16538 191
  145.0631 2.813683 28
  149.0598 13.4507 134
  150.0701 1.414387 14
  152.0628 1.142183 11
  156.9967 1.688749 16
  157.0018 1.059174 10
  157.087 1.147034 11
  162.0078 2.879982 28
  171.1019 2.159313 21
  178.0755 1.30281 13
  178.0783 1.84183 18
  198.0661 1.765828 17
  198.0761 1.344854 13
  207.0335 2.443915 24
  210.954 1.186382 11
  315.1829 1.293647 12
//
