ACCESSION: MSBNK-NILU-NL0348
RECORD_TITLE: 1,3-Bis(4-cyanophenyl)propane; ESI-QTOF; MS2; CE: 20; [M+H]+
DATE: 2024.11.15
AUTHORS: MILK, NILU
LICENSE: CC BY
CH$NAME: 1,3-Bis(4-cyanophenyl)propane
CH$NAME: BPA-dicyanate
CH$COMPOUND_CLASS: Non-natural product; Industrial chemical
CH$FORMULA: C17H14N2O2
CH$EXACT_MASS: 278.10553
CH$SMILES: CC(C)(C1C=CC(=CC=1)OC#N)C1C=CC(=CC=1)OC#N
CH$IUPAC: InChI=1S/C17H14N2O2/c1-17(2,13-3-7-15(8-4-13)20-11-18)14-5-9-16(10-6-14)21-12-19/h3-10H,1-2H3
CH$LINK: CAS 1156-51-0
AC$INSTRUMENT: Agilent 6546 Q-ToF
AC$INSTRUMENT_TYPE: ESI-QTOF
AC$MASS_SPECTROMETRY: MS_TYPE MS2
AC$MASS_SPECTROMETRY: ION_MODE POSITIVE
AC$MASS_SPECTROMETRY: IONIZATION ESI
AC$MASS_SPECTROMETRY: COLLISION_ENERGY 20
MS$FOCUSED_ION: PRECURSOR_M/Z 279.11279
MS$FOCUSED_ION: PRECURSOR_TYPE [M+H]+
PK$SPLASH: splash10-0002-0920000000-3bd97c177766d8ec6fec
PK$NUM_PEAK: 11
PK$PEAK: m/z int. rel.int.
  73.0641 22.29015 222
  105.0706 19.11197 190
  147.0908 53.76448 537
  149.0228 100 999
  149.0267 26.42643 264
  149.0619 15.55127 155
  179.176 31.43858 314
  219.0249 15.37609 153
  233.1631 15.13657 151
  261.1954 15.14014 151
  279.1169 13.94966 139
//
