ACCESSION: MSBNK-NILU-NL0326
RECORD_TITLE: Iscotrizinol; ESI-QTOF; MS2; CE: 40; [M+H]+
DATE: 2024.11.15
AUTHORS: MILK, NILU
LICENSE: CC BY
CH$NAME: Iscotrizinol
CH$NAME: 2-ethylhexyl 4-[[4-[4-(tert-butylcarbamoyl)anilino]-6-[4-(2-ethylhexoxycarbonyl)anilino]-1,3,5-triazin-2-yl]amino]benzoate
CH$COMPOUND_CLASS: Non-natural product; UV filter
CH$FORMULA: C44H59N7O5
CH$EXACT_MASS: 765.45777
CH$SMILES: CC(C)(C)NC(=O)C1C=CC(=CC=1)NC1N=C(NC2C=CC(=CC=2)C(=O)OCC(CCCC)CC)N=C(NC2C=CC(=CC=2)C(=O)OCC(CCCC)CC)N=1
CH$IUPAC: InChI=1S/C44H59N7O5/c1-8-12-14-30(10-3)28-55-39(53)33-18-24-36(25-19-33)46-42-48-41(45-35-22-16-32(17-23-35)38(52)51-44(5,6)7)49-43(50-42)47-37-26-20-34(21-27-37)40(54)56-29-31(11-4)15-13-9-2/h16-27,30-31H,8-15,28-29H2,1-7H3,(H,51,52)(H3,45,46,47,48,49,50)
CH$LINK: CAS 154702-15-5
AC$INSTRUMENT: Agilent 6546 Q-ToF
AC$INSTRUMENT_TYPE: ESI-QTOF
AC$MASS_SPECTROMETRY: MS_TYPE MS2
AC$MASS_SPECTROMETRY: ION_MODE POSITIVE
AC$MASS_SPECTROMETRY: IONIZATION ESI
AC$MASS_SPECTROMETRY: COLLISION_ENERGY 40
AC$CHROMATOGRAPHY: RETENTION_TIME 5.959
MS$FOCUSED_ION: PRECURSOR_M/Z 766.46503
MS$FOCUSED_ION: PRECURSOR_TYPE [M+H]+
PK$SPLASH: splash10-014i-0000112900-18116fc2e23ea3c454e2
PK$NUM_PEAK: 21
PK$PEAK: m/z int. rel.int.
  325.0935 1.152206 11
  450.129 1.227651 12
  453.1308 1.545903 15
  468.142 5.306526 53
  469.1253 2.880267 28
  475.2693 1.029909 10
  486.1536 1.251594 12
  524.2054 1.854912 18
  542.2158 2.554549 25
  565.2546 1.413405 14
  580.2682 3.7841 37
  581.2509 3.014763 30
  636.3297 5.98589 59
  654.3411 12.63533 126
  655.3454 1.119854 11
  693.3774 7.055444 70
  693.3936 1.675596 16
  710.3998 1.082364 10
  766.4668 100 999
  766.5228 4.476812 44
  767.4688 7.570019 75
//
