ACCESSION: MSBNK-NILU-NL0178
RECORD_TITLE: 4,4-Bisphenol S; LC-ESI-QFT; MS2; CE:20; [M-H]-
DATE: 2024.07.01
AUTHORS: MILK, NILU
LICENSE: CC BY
CH$NAME: 4,4-Bisphenol S
CH$NAME: 4-(4-hydroxyphenyl)sulfonylphenol
CH$COMPOUND_CLASS: Non-natural product; Additive 
CH$FORMULA: C12H10O4S
CH$EXACT_MASS: 250.03006
CH$SMILES: C1=CC(=CC=C1O)S(=O)(=O)C2=CC=C(C=C2)O
CH$IUPAC: InChI=1S/C12H10O4S/c13-9-1-5-11(6-2-9)17(15,16)12-7-3-10(14)4-8-12/h1-8,13-14H
AC$INSTRUMENT:  QExactive Plus Orbitrap
AC$INSTRUMENT_TYPE: LC-ESI-QFT
AC$MASS_SPECTROMETRY: MS_TYPE MS2
AC$MASS_SPECTROMETRY: ION_MODE NEGATIVE
AC$MASS_SPECTROMETRY: COLLISION_ENERGY 20
AC$CHROMATOGRAPHY: RETENTION_TIME 11.1405041333333
MS$FOCUSED_ION: PRECURSOR_M/Z 249.02278
MS$FOCUSED_ION: PRECURSOR_TYPE [M-H]-
PK$SPLASH: splash10-0a4i-0900000000-80a0edabb4108fbaf84e
PK$NUM_PEAK: 2
PK$PEAK: m/z int. rel.int.
  63.96231 4966.94 16
  108.02180 315952.00 999
//
