ACCESSION: MSBNK-NILU-NL0362
RECORD_TITLE: Bisphenol A dimethacrylate; ESI-QTOF; MS2; CE: 20
DATE: 2024.11.15
AUTHORS: MILK, NILU
LICENSE: CC BY
CH$NAME: Bisphenol A dimethacrylate
CH$NAME: 4,4'-Isopropylidenediphenol dimethacrylate
CH$COMPOUND_CLASS: Non-natural product; Industrial chemical
CH$FORMULA: C23H24O4
CH$EXACT_MASS: 364.16746
CH$SMILES: CC(C)(C1C=CC(=CC=1)OC(=O)C(C)=C)C1C=CC(=CC=1)OC(=O)C(C)=C
CH$IUPAC: InChI=1S/C23H24O4/c1-15(2)21(24)26-19-11-7-17(8-12-19)23(5,6)18-9-13-20(14-10-18)27-22(25)16(3)4/h7-14H,1,3H2,2,4-6H3
CH$LINK: CAS 3253-39-2
CH$LINK: CHEMSPIDER 69197
CH$LINK: KEGG C14345
AC$INSTRUMENT: Agilent 6546 Q-ToF
AC$INSTRUMENT_TYPE: ESI-QTOF
AC$MASS_SPECTROMETRY: MS_TYPE MS2
AC$MASS_SPECTROMETRY: ION_MODE POSITIVE
AC$MASS_SPECTROMETRY: IONIZATION ESI
AC$MASS_SPECTROMETRY: COLLISION_ENERGY 20
MS$FOCUSED_ION: PRECURSOR_M/Z 365.17474
PK$SPLASH: splash10-014i-5395000000-ae0cc4603e4b46b7e043
PK$NUM_PEAK: 17
PK$PEAK: m/z int. rel.int.
  69.0331 100 999
  70.0648 23.24159 232
  120.0813 21.18392 211
  156.0754 13.11053 130
  167.0717 18.2962 182
  170.0929 17.39188 173
  203.0534 37.85059 378
  203.1079 63.52556 634
  219.0234 17.29576 172
  222.1266 16.40891 163
  247.1632 17.71953 177
  257.1977 16.05505 160
  259.0654 13.46003 134
  298.1384 12.13194 121
  365.1065 90.79074 906
  365.2421 16.96374 169
  365.2744 16.93316 169
//
