ACCESSION: MSBNK-NILU-NL0360
RECORD_TITLE: 2-(3-Bromophenyl)-4,6-diphenyl-1,3,5-triazine; ESI-QTOF; MS2; CE: 20
DATE: 2024.11.15
AUTHORS: MILK, NILU
LICENSE: CC BY
CH$NAME: 2-(3-Bromophenyl)-4,6-diphenyl-1,3,5-triazine
CH$NAME: 1,3,5-Triazine, 2-(3-bromophenyl)-4,6-diphenyl-
CH$COMPOUND_CLASS: Non-natural product; Industrial chemical
CH$FORMULA: C21H14BrN3
CH$EXACT_MASS: 387.03711
CH$SMILES: BrC1C=C(C=CC=1)C1N=C(N=C(N=1)C1C=CC=CC=1)C1C=CC=CC=1
CH$IUPAC: InChI=1S/C21H14BrN3/c22-18-13-7-12-17(14-18)21-24-19(15-8-3-1-4-9-15)23-20(25-21)16-10-5-2-6-11-16/h1-14H
CH$LINK: CAS 864377-31-1
AC$INSTRUMENT: Agilent 6546 Q-ToF
AC$INSTRUMENT_TYPE: ESI-QTOF
AC$MASS_SPECTROMETRY: MS_TYPE MS2
AC$MASS_SPECTROMETRY: ION_MODE POSITIVE
AC$MASS_SPECTROMETRY: IONIZATION ESI
AC$MASS_SPECTROMETRY: COLLISION_ENERGY 20
AC$CHROMATOGRAPHY: RETENTION_TIME 6.07
MS$FOCUSED_ION: PRECURSOR_M/Z 388.04499
PK$SPLASH: splash10-0f79-0907000000-63f26337f79c7ceed155
PK$NUM_PEAK: 7
PK$PEAK: m/z int. rel.int.
  77.0385 1.148194 11
  104.0496 99.13462 990
  104.072 3.500959 34
  181.96 13.72045 137
  181.9684 1.171126 11
  388.045 100 999
  388.0872 4.076289 40
//
