ACCESSION: MSBNK-NILU-NL0271
RECORD_TITLE: PFHXA; LC-ESI-FT; MS2
DATE: 2024.12.10
AUTHORS: MILK, NILU
LICENSE: CC BY
COPYRIGHT: MILK, NILU
CH$NAME: PFHXA
CH$NAME: 2,2,3,3,4,4,5,5,6,6,6-undecafluorohexanoic acid
CH$COMPOUND_CLASS: Non-Natural Product; Perfluoroalkyl carboxylic acid
CH$FORMULA: C6HF11O2
CH$EXACT_MASS: 313.98008905
CH$SMILES: C(=O)(C(C(C(C(C(F)(F)F)(F)F)(F)F)(F)F)(F)F)O
CH$IUPAC: InChI=1S/C6HF11O2/c7-2(8,1(18)19)3(9,10)4(11,12)5(13,14)6(15,16)17/h(H,18,19)
AC$INSTRUMENT: Vanquish LC, Thermo Scientific; Exploris 120 Orbitrap, Thermo Scientific
AC$INSTRUMENT_TYPE: LC-ESI-FT
AC$MASS_SPECTROMETRY: MS_TYPE MS2
AC$MASS_SPECTROMETRY: ION_MODE NEGATIVE
AC$CHROMATOGRAPHY: RETENTION_TIME 5.4790263370355
MS$FOCUSED_ION: PRECURSOR_M/Z 312.97229
MS$FOCUSED_ION: PRECURSOR_TYPE [M-H]-
PK$SPLASH: splash10-014i-1490000000-b5b499b532478e504537
PK$NUM_PEAK: 11
PK$PEAK: m/z int. rel.int.
  55.81845 46882.00 30
  56.15676 45439.00 29
  62.04675 42930.00 27
  68.99579 78289.00 49
  114.77747 50662.00 32
  118.99217 557561.00 351
  137.85086 43868.00 28
  137.88152 46193.00 29
  137.89503 43059.00 27
  233.36497 43986.00 28
  268.98270 1585946.00 999
//
