ACCESSION: MSBNK-NILU-NL0240
RECORD_TITLE: 1,1-Bis(4-hydroxy-3-methylphenyl)cyclohexane; ESI-QTOF; MS2; CE: 20
DATE: 2024.11.15
AUTHORS: MILK, NILU
LICENSE: CC BY
CH$NAME: 1,1-Bis(4-hydroxy-3-methylphenyl)cyclohexane
CH$NAME: Phenol, 4,4'-cyclohexylidenebis[2-methyl-
CH$COMPOUND_CLASS: Non-natural product; Industrial chemical
CH$FORMULA: C20H24O2
CH$EXACT_MASS: 296.17763
CH$SMILES: CC1=CC(=CC=C1O)C1(CCCCC1)C1C=C(C)C(O)=CC=1
CH$IUPAC: InChI=1S/C20H24O2/c1-14-12-16(6-8-18(14)21)20(10-4-3-5-11-20)17-7-9-19(22)15(2)13-17/h6-9,12-13,21-22H,3-5,10-11H2,1-2H3
CH$LINK: CAS 2362-14-3
AC$INSTRUMENT: Agilent 6546 Q-ToF
AC$INSTRUMENT_TYPE: ESI-QTOF
AC$MASS_SPECTROMETRY: MS_TYPE MS2
AC$MASS_SPECTROMETRY: ION_MODE NEGATIVE
AC$MASS_SPECTROMETRY: IONIZATION ESI
AC$MASS_SPECTROMETRY: COLLISION_ENERGY 20
MS$FOCUSED_ION: PRECURSOR_M/Z 295.17035
PK$SPLASH: splash10-0002-0090000000-61587f94bc49e8b81929
PK$NUM_PEAK: 17
PK$PEAK: m/z int. rel.int.
  107.0501 3.359245 33
  114.9367 1.130029 11
  159.0829 1.746656 17
  187.1129 2.909205 29
  187.1155 1.477891 14
  222.9147 1.099816 10
  235.0757 1.374875 13
  251.1101 1.780226 17
  252.1158 4.549489 45
  295.171 100 999
  295.1799 15.21846 152
  295.1853 1.98332 19
  295.1988 1.579439 15
  295.2097 1.576292 15
  296.1712 1.171991 11
  296.1741 1.328298 13
  674.8592 1.517335 15
//
