ACCESSION: MSBNK-NILU-NL0226
RECORD_TITLE: 4,4'-(4-Methylpentane-2,2-diyl)diphenol; ESI-QTOF; MS2; CE: 10
DATE: 2024.11.15
AUTHORS: MILK, NILU
LICENSE: CC BY
CH$NAME: 4,4'-(4-Methylpentane-2,2-diyl)diphenol
CH$NAME: Bis_MIBK
CH$COMPOUND_CLASS: Non-natural product; Additive
CH$FORMULA: C18H22O2
CH$EXACT_MASS: 270.16198
CH$SMILES: CC(C)CC(C)(C1C=CC(O)=CC=1)C1C=CC(O)=CC=1
CH$IUPAC: InChI=1S/C18H22O2/c1-13(2)12-18(3,14-4-8-16(19)9-5-14)15-6-10-17(20)11-7-15/h4-11,13,19-20H,12H2,1-3H3
CH$LINK: CAS 6807-17-6
CH$LINK: INCHIKEY VHLLJTHDWPAQEM-UHFFFAOYSA-N
AC$INSTRUMENT: Agilent 6546 Q-ToF
AC$INSTRUMENT_TYPE: ESI-QTOF
AC$MASS_SPECTROMETRY: MS_TYPE MS2
AC$MASS_SPECTROMETRY: ION_MODE NEGATIVE
AC$MASS_SPECTROMETRY: IONIZATION ESI
AC$MASS_SPECTROMETRY: COLLISION_ENERGY 10
MS$FOCUSED_ION: PRECURSOR_M/Z 269.15469
PK$SPLASH: splash10-014i-0090000000-1de588fd152097c2165d
PK$NUM_PEAK: 12
PK$PEAK: m/z int. rel.int.
  211.076 1.93726 19
  212.0828 1.446156 14
  212.0846 4.617459 46
  269.1372 1.077997 10
  269.1551 100 999
  269.1662 9.560385 95
  269.192 1.252822 12
  269.2475 3.354774 33
  269.2515 2.431877 24
  270.1577 1.237015 12
  955.9721 1.460612 14
  980.008 1.135281 11
//
