ACCESSION: MSBNK-NILU-NL0274
RECORD_TITLE: PFNA; LC-ESI-FT; MS2
DATE: 2024.12.10
AUTHORS: MILK, NILU
LICENSE: CC BY
COPYRIGHT: MILK, NILU
CH$NAME: PFNA
CH$NAME: 2,2,3,3,4,4,5,5,6,6,7,7,8,8,9,9,9-heptadecafluorononanoic acid
CH$COMPOUND_CLASS: Non-Natural Product; Perfluoroalkyl carboxylic acid
CH$FORMULA: C9HF17O2
CH$EXACT_MASS: 463.9705080
CH$SMILES: C(=O)(C(C(C(C(C(C(C(C(F)(F)F)(F)F)(F)F)(F)F)(F)F)(F)F)(F)F)(F)F)O
CH$IUPAC: InChI=1S/C9HF17O2/c10-2(11,1(27)28)3(12,13)4(14,15)5(16,17)6(18,19)7(20,21)8(22,23)9(24,25)26/h(H,27,28)
AC$INSTRUMENT: Vanquish LC, Thermo Scientific; Exploris 120 Orbitrap, Thermo Scientific
AC$INSTRUMENT_TYPE: LC-ESI-FT
AC$MASS_SPECTROMETRY: MS_TYPE MS2
AC$MASS_SPECTROMETRY: ION_MODE NEGATIVE
AC$CHROMATOGRAPHY: RETENTION_TIME 6.70476258254846
MS$FOCUSED_ION: PRECURSOR_M/Z 462.96240
MS$FOCUSED_ION: PRECURSOR_TYPE [M-H]-
PK$SPLASH: splash10-014i-0460900000-3ca49ec209cc3246b392
PK$NUM_PEAK: 11
PK$PEAK: m/z int. rel.int.
  50.87937 16713.00 13
  103.88829 15763.00 12
  118.99265 44317.00 34
  131.66896 14316.00 11
  165.91356 15233.00 12
  168.98904 483650.00 370
  169.00623 30326.00 23
  218.98586 710802.00 543
  224.51463 14583.00 11
  268.98260 178809.00 137
  418.97296 1307480.00 999
//
