ACCESSION: MSBNK-NILU-NL0338
RECORD_TITLE: 1-3-Di-tolylguanidine; ESI-QTOF; MS2; CE: 20
DATE: 2024.11.15
AUTHORS: MILK, NILU
LICENSE: CC BY
CH$NAME: 1-3-Di-tolylguanidine
CH$NAME: 1,2-bis(2-methylphenyl)guanidine
CH$COMPOUND_CLASS: Non-natural product; Industrial chemical
CH$FORMULA: C15H17N3
CH$EXACT_MASS: 239.14225
CH$SMILES: CC1=CC=CC=C1NC(=N)NC1=CC=CC=C1C
CH$IUPAC: InChI=1S/C15H17N3/c1-11-7-3-5-9-13(11)17-15(16)18-14-10-6-4-8-12(14)2/h3-10H,1-2H3,(H3,16,17,18)
CH$LINK: CAS 97-39-2
AC$INSTRUMENT: Agilent 6546 Q-ToF
AC$INSTRUMENT_TYPE: ESI-QTOF
AC$MASS_SPECTROMETRY: MS_TYPE MS2
AC$MASS_SPECTROMETRY: ION_MODE POSITIVE
AC$MASS_SPECTROMETRY: IONIZATION ESI
AC$MASS_SPECTROMETRY: COLLISION_ENERGY 20
MS$FOCUSED_ION: PRECURSOR_M/Z 240.14951
PK$SPLASH: splash10-0a5c-0940000000-69f318270a2d2b1d1126
PK$NUM_PEAK: 21
PK$PEAK: m/z int. rel.int.
  91.0542 6.185422 61
  93.0571 6.455625 64
  106.0651 36.99882 369
  106.0727 3.978149 39
  107.0727 2.325632 23
  108.0807 86.2437 861
  108.0879 7.723269 77
  116.0495 20.76067 207
  116.0572 1.480171 14
  117.0571 1.745454 17
  118.0652 1.702539 17
  133.076 100 999
  133.0824 2.938065 29
  133.0843 6.101368 60
  208.0984 1.657983 16
  223.1227 35.00161 349
  223.1319 2.465722 24
  223.135 1.124274 11
  240.1496 95.88052 957
  240.1592 8.307684 82
  240.1617 3.417789 34
//
