ACCESSION: MSBNK-NILU-NL0196
RECORD_TITLE: 2,8-Quinolinediol; LC-ESI-QFT; MS2; CE:20; [M-H]-
DATE: 2024.07.02
AUTHORS: MILK, NILU
LICENSE: CC BY
CH$NAME: 2,8-Quinolinediol
CH$NAME: 8-hydroxy-1H-quinolin-2-one
CH$COMPOUND_CLASS: Non-natural product; Industrial chemical
CH$FORMULA: C9H7NO2
CH$EXACT_MASS: 161.04768
CH$SMILES: C1=CC2=C(C(=C1)O)NC(=O)C=C2
CH$IUPAC: InChI=1S/C9H7NO2/c11-7-3-1-2-6-4-5-8(12)10-9(6)7/h1-5,11H,(H,10,12)
AC$INSTRUMENT: QExactive Plus Orbitrap
AC$INSTRUMENT_TYPE: LC-ESI-QFT
AC$MASS_SPECTROMETRY: MS_TYPE MS2
AC$MASS_SPECTROMETRY: ION_MODE NEGATIVE
AC$MASS_SPECTROMETRY: COLLISION_ENERGY 20
AC$CHROMATOGRAPHY: RETENTION_TIME 10.44
MS$FOCUSED_ION: PRECURSOR_M/Z 160.04022
MS$FOCUSED_ION: PRECURSOR_TYPE [M-H]-
PK$SPLASH: splash10-001i-2900000000-bdaf62811dd2c3c15373
PK$NUM_PEAK: 4
PK$PEAK: m/z int. rel.int.
  65.99831 10703.94 103
  89.03969 21914.06 211
  104.05067 28245.06 272
  131.03757 103727.13 999
//
