ACCESSION: MSBNK-NILU-NL0320
RECORD_TITLE: 2,2-Bis(4-(3,4-dicarboxyphenoxy)phenyl)propane dianhydride; ESI-QTOF; MS2; CE: 20
DATE: 2024.11.15
AUTHORS: MILK, NILU
LICENSE: CC BY
CH$NAME: 2,2-Bis(4-(3,4-dicarboxyphenoxy)phenyl)propane dianhydride
CH$NAME: BPA_dianhydride
CH$COMPOUND_CLASS: Non-Natural Product; Industrial Chemical
CH$FORMULA: C31H20O8
CH$EXACT_MASS: 520.11582
CH$SMILES: CC(C)(C1C=CC(=CC=1)OC1=CC2=C(C=C1)C(=O)OC2=O)C1C=CC(=CC=1)OC1=CC2=C(C=C1)C(=O)OC2=O
CH$IUPAC: InChI=1S/C31H20O8/c1-31(2,17-3-7-19(8-4-17)36-21-11-13-23-25(15-21)29(34)38-27(23)32)18-5-9-20(10-6-18)37-22-12-14-24-26(16-22)30(35)39-28(24)33/h3-16H,1-2H3
CH$LINK: CAS 38103-06-9
AC$INSTRUMENT: Agilent 6546 Q-ToF
AC$INSTRUMENT_TYPE: ESI-QTOF
AC$MASS_SPECTROMETRY: MS_TYPE MS2
AC$MASS_SPECTROMETRY: ION_MODE POSITIVE
AC$MASS_SPECTROMETRY: IONIZATION ESI
AC$MASS_SPECTROMETRY: COLLISION_ENERGY 20
MS$FOCUSED_ION: PRECURSOR_M/Z 521.12311
PK$SPLASH: splash10-00fr-0902250000-4386d464bb7e75eb3ab9
PK$NUM_PEAK: 8
PK$PEAK: m/z int. rel.int.
  128.0707 90.85689 907
  135.1155 100 999
  176.0915 47.56688 475
  371.0426 79.35621 792
  415.0307 75.71407 756
  521.228 51.80595 517
  521.3129 43.50159 434
  521.3815 43.82651 437
//
