ACCESSION: MSBNK-NILU-NL0347
RECORD_TITLE: 1,3-Bis(4-cyanophenyl)propane; ESI-QTOF; MS2; CE: 40
DATE: 2024.11.15
AUTHORS: MILK, NILU
LICENSE: CC BY
CH$NAME: 1,3-Bis(4-cyanophenyl)propane
CH$NAME: BPA-dicyanate
CH$COMPOUND_CLASS: Non-natural product; Industrial chemical
CH$FORMULA: C17H14N2O2
CH$EXACT_MASS: 278.10553
CH$SMILES: CC(C)(C1C=CC(=CC=1)OC#N)C1C=CC(=CC=1)OC#N
CH$IUPAC: InChI=1S/C17H14N2O2/c1-17(2,13-3-7-15(8-4-13)20-11-18)14-5-9-16(10-6-14)21-12-19/h3-10H,1-2H3
CH$LINK: CAS 1156-51-0
AC$INSTRUMENT: Agilent 6546 Q-ToF
AC$INSTRUMENT_TYPE: ESI-QTOF
AC$MASS_SPECTROMETRY: MS_TYPE MS2
AC$MASS_SPECTROMETRY: ION_MODE POSITIVE
AC$MASS_SPECTROMETRY: IONIZATION ESI
AC$MASS_SPECTROMETRY: COLLISION_ENERGY 40
MS$FOCUSED_ION: PRECURSOR_M/Z 296.1394
PK$SPLASH: splash10-00di-4900000000-eee0dadc9cd14e876186
PK$NUM_PEAK: 2
PK$PEAK: m/z int. rel.int.
  99.0433 48.19472 481
  172.0844 100 999
//
