ACCESSION: MSBNK-NILU-NL0296
RECORD_TITLE: Phenol, 2-(2H-benzotriazol-2-yl)-4-(1,1-dimethylethyl)-; LC-ESI-QTOF; MSn
DATE: 2024.09.19
AUTHORS: Environmental Chemistry section, NIVA
LICENSE: CC BY
CH$NAME: 2-(2H-Benzotriazol-2-yl)-4-tert-butylphenol
CH$NAME: Phenol, 2-(2H-benzotriazol-2-yl)-4-(1,1-dimethylethyl)-
CH$COMPOUND_CLASS: Non-Natural Product; UV stabilizer
CH$FORMULA: C16H17N3O
CH$EXACT_MASS: 267.137162179
CH$SMILES: CC(C)(C)C1=CC(N2N=C3C=CC=CC3=N2)=C(O)C=C1
CH$IUPAC: InChI=1S/C16H17N3O/c1-16(2,3)11-8-9-15(20)14(10-11)19-17-12-6-4-5-7-13(12)18-19/h4-10,20H,1-3H3
AC$INSTRUMENT: Waters G2-S QTOF
AC$INSTRUMENT_TYPE: LC-ESI-QTOF
AC$MASS_SPECTROMETRY: MS_TYPE MSn
AC$MASS_SPECTROMETRY: ION_MODE POSITIVE
MS$FOCUSED_ION: PRECURSOR_M/Z 268.145
MS$FOCUSED_ION: PRECURSOR_TYPE [M+H]+
PK$SPLASH: splash10-014i-0090000000-250d5719a82c10bd15ab
PK$NUM_PEAK: 25
PK$PEAK: m/z int. rel.int.
  108.3650 263 1
  148.3420 352 2
  204.0529 319 1
  212.0831 45740 279
  218.1771 402 2
  219.9596 314 1
  237.1093 889 5
  238.2247 592 3
  243.5221 303 1
  243.9816 318 1
  247.8011 259 1
  251.1260 1953 11
  256.2338 371 2
  264.2693 337 2
  268.1450 163700 999
  269.1471 4290 26
  270.1456 524 3
  274.2236 318 1
  281.8975 303 1
  284.2993 658 4
  284.8537 603 3
  285.2109 517 3
  286.8576 565 3
  287.6902 218 1
  288.1350 239 1
//
