ACCESSION: MSBNK-NILU-NL0174
RECORD_TITLE: 2,4-Bisphenol A; LC-ESI-QFT; MS2; CE:20; [M-H]-
DATE: 2024.07.01
AUTHORS: MILK, NILU
LICENSE: CC BY
CH$NAME: 2,4-Bisphenol A
CH$NAME: 2-[2-(4-hydroxyphenyl)propan-2-yl]phenol
CH$COMPOUND_CLASS: Non-natural product; Additive 
CH$FORMULA: C15H16O2
CH$EXACT_MASS: 228.11521
CH$SMILES: CC(C)(C1=CC=C(C=C1)O)C2=CC=CC=C2O
CH$IUPAC: InChI=1S/C15H16O2/c1-15(2,11-7-9-12(16)10-8-11)13-5-3-4-6-14(13)17/h3-10,16-17H,1-2H3
AC$INSTRUMENT:  QExactive Plus Orbitrap
AC$INSTRUMENT_TYPE: LC-ESI-QFT
AC$MASS_SPECTROMETRY: MS_TYPE MS2
AC$MASS_SPECTROMETRY: ION_MODE NEGATIVE
AC$MASS_SPECTROMETRY: COLLISION_ENERGY 20
AC$CHROMATOGRAPHY: RETENTION_TIME 15.6021875833333
MS$FOCUSED_ION: PRECURSOR_M/Z 227.10793
MS$FOCUSED_ION: PRECURSOR_TYPE [M-H]-
PK$SPLASH: splash10-0006-9300000000-cb4034ed8c5b913e9aec
PK$NUM_PEAK: 3
PK$PEAK: m/z int. rel.int.
  93.03461 53980.75 999
  133.06602 15433.19 286
  184.00177 3562.00 66
//
