ACCESSION: MSBNK-NILU-NL0235
RECORD_TITLE: Tris-biphenyl triazine; ESI-QTOF; MS2; CE: 40
DATE: 2024.11.15
AUTHORS: MILK, NILU
LICENSE: CC BY
CH$NAME: Tris-biphenyl triazine
CH$NAME: 2,4,6-tri([1,1'-biphenyl]-4-yl)-1,3,5-triazine
CH$COMPOUND_CLASS: Non-natural product; UV filter
CH$FORMULA: C39H27N3
CH$EXACT_MASS: 537.2205
CH$SMILES: C1=CC(=CC=C1C1N=C(N=C(N=1)C1C=CC(=CC=1)C1C=CC=CC=1)C1C=CC(=CC=1)C1C=CC=CC=1)C1C=CC=CC=1
CH$IUPAC: InChI=1S/C39H27N3/c1-4-10-28(11-5-1)31-16-22-34(23-17-31)37-40-38(35-24-18-32(19-25-35)29-12-6-2-7-13-29)42-39(41-37)36-26-20-33(21-27-36)30-14-8-3-9-15-30/h1-27H
CH$LINK: CAS 31274-51-8
AC$INSTRUMENT: Agilent 6546 Q-ToF
AC$INSTRUMENT_TYPE: ESI-QTOF
AC$MASS_SPECTROMETRY: MS_TYPE MS2
AC$MASS_SPECTROMETRY: ION_MODE NEGATIVE
AC$MASS_SPECTROMETRY: IONIZATION ESI
AC$MASS_SPECTROMETRY: COLLISION_ENERGY 40
MS$FOCUSED_ION: PRECURSOR_M/Z 536.2132
PK$SPLASH: splash10-02tl-4930600000-4cac883f7e521cd3cb92
PK$NUM_PEAK: 5
PK$PEAK: m/z int. rel.int.
  90.0474 66.08791 660
  161.0632 77.78038 777
  188.9401 61.04333 609
  297.2899 49.00673 489
  468.1134 100 999
//
