ACCESSION: MSBNK-NILU-NL0385
RECORD_TITLE: Deacetylbisacodyl; ESI-QTOF; MS2; CE: 40
DATE: 2024.11.15
AUTHORS: MILK, NILU
LICENSE: CC BY
CH$NAME: Deacetylbisacodyl
CH$NAME: DDPM
CH$COMPOUND_CLASS: Non-natural product; Pharmaceutical metabolite
CH$FORMULA: C18H15NO2
CH$EXACT_MASS: 277.1102787305
CH$SMILES: OC1C=CC(=CC=1)C(C1=CC=CC=N1)C1C=CC(O)=CC=1
CH$IUPAC: InChI=1S/C18H15NO2/c20-15-8-4-13(5-9-15)18(17-3-1-2-12-19-17)14-6-10-16(21)11-7-14/h1-12,18,20-21H
CH$LINK: CAS 603-41-8
CH$LINK: CHEMSPIDER 62268
AC$INSTRUMENT: Agilent 6546 Q-ToF
AC$INSTRUMENT_TYPE: ESI-QTOF
AC$MASS_SPECTROMETRY: MS_TYPE MS2
AC$MASS_SPECTROMETRY: ION_MODE POSITIVE
AC$MASS_SPECTROMETRY: IONIZATION ESI
AC$MASS_SPECTROMETRY: COLLISION_ENERGY 40
MS$FOCUSED_ION: PRECURSOR_M/Z 278.11761
PK$SPLASH: splash10-00lr-0900000000-d31395caa366a98d5628
PK$NUM_PEAK: 17
PK$PEAK: m/z int. rel.int.
  78.0336 1.811466 18
  128.0627 1.048832 10
  129.0698 2.191551 21
  139.0542 1.966552 19
  141.0575 1.130145 11
  154.0652 12.58901 125
  155.073 4.105708 41
  156.0806 11.42781 114
  166.0651 7.985503 79
  167.0731 93.31233 932
  167.0819 6.647265 66
  168.0761 1.422173 14
  182.0604 2.323537 23
  183.068 100 999
  183.077 7.471881 74
  184.0757 66.7893 667
  184.085 5.425112 54
//
