ACCESSION: MSBNK-NILU-NL0268
RECORD_TITLE: PFDOS; LC-ESI-FT; MS2
DATE: 2024.12.10
AUTHORS: MILK, NILU
LICENSE: CC BY
COPYRIGHT: MILK, NILU
CH$NAME: PFDOS
CH$NAME: 1,1,2,2,3,3,4,4,5,5,6,6,7,7,8,8,9,9,10,10,11,11,12,12,12-pentacosafluorododecane-1-sulfonic acid
CH$COMPOUND_CLASS: Non-Natural Product; Perfluoroalkyl sulfonic acid
CH$FORMULA: C12HF25O3S
CH$EXACT_MASS: 699.9247191
CH$SMILES: C(C(C(C(C(C(C(F)(F)S(=O)(=O)O)(F)F)(F)F)(F)F)(F)F)(F)F)(C(C(C(C(C(F)(F)F)(F)F)(F)F)(F)F)(F)F)(F)F
CH$IUPAC: InChI=1S/C12HF25O3S/c13-1(14,3(17,18)5(21,22)7(25,26)9(29,30)11(33,34)35)2(15,16)4(19,20)6(23,24)8(27,28)10(31,32)12(36,37)41(38,39)40/h(H,38,39,40)
AC$INSTRUMENT: Vanquish LC, Thermo Scientific; Exploris 120 Orbitrap, Thermo Scientific
AC$INSTRUMENT_TYPE: LC-ESI-FT
AC$MASS_SPECTROMETRY: MS_TYPE MS2
AC$MASS_SPECTROMETRY: ION_MODE NEGATIVE
AC$CHROMATOGRAPHY: RETENTION_TIME 8.7312227890571
MS$FOCUSED_ION: PRECURSOR_M/Z 698.91620
MS$FOCUSED_ION: PRECURSOR_TYPE [M-H]-
PK$SPLASH: splash10-0002-2000009000-0993d4912d1db1b879a3
PK$NUM_PEAK: 19
PK$PEAK: m/z int. rel.int.
  79.95719 2924757.00 227
  82.96066 76746.00 6
  98.95556 1047215.00 81
  104.53094 15066.00 1
  118.99234 58485.00 5
  129.95398 170498.00 13
  134.22891 12808.00 1
  151.94778 12766.00 1
  161.94411 15801.00 1
  168.98990 27236.00 2
  179.76195 13232.00 1
  179.95145 42408.00 3
  225.36150 13198.00 1
  229.94794 123084.00 10
  261.93561 14849.00 1
  279.94522 72141.00 6
  329.94247 40455.00 3
  379.93573 24466.00 2
  698.91638 12896691.00 999
//
