ACCESSION: MSBNK-NILU-NL0337
RECORD_TITLE: 1-3-Di-tolylguanidine; ESI-QTOF; MS2; CE: 10
DATE: 2024.11.15
AUTHORS: MILK, NILU
LICENSE: CC BY
CH$NAME: 1-3-Di-tolylguanidine
CH$NAME: 1,2-bis(2-methylphenyl)guanidine
CH$COMPOUND_CLASS: Non-natural product; Industrial chemical
CH$FORMULA: C15H17N3
CH$EXACT_MASS: 239.14225
CH$SMILES: CC1=CC=CC=C1NC(=N)NC1=CC=CC=C1C
CH$IUPAC: InChI=1S/C15H17N3/c1-11-7-3-5-9-13(11)17-15(16)18-14-10-6-4-8-12(14)2/h3-10H,1-2H3,(H3,16,17,18)
CH$LINK: CAS 97-39-2
AC$INSTRUMENT: Agilent 6546 Q-ToF
AC$INSTRUMENT_TYPE: ESI-QTOF
AC$MASS_SPECTROMETRY: MS_TYPE MS2
AC$MASS_SPECTROMETRY: ION_MODE POSITIVE
AC$MASS_SPECTROMETRY: IONIZATION ESI
AC$MASS_SPECTROMETRY: COLLISION_ENERGY 10
MS$FOCUSED_ION: PRECURSOR_M/Z 240.14951
PK$SPLASH: splash10-0006-0190000000-ac81de228b1d381ae981
PK$NUM_PEAK: 8
PK$PEAK: m/z int. rel.int.
  88.1117 1.064305 10
  106.0653 1.784743 17
  108.0806 6.60548 65
  133.076 6.512719 65
  223.1231 3.354499 33
  240.1496 100 999
  240.16 9.679624 96
  241.1522 1.238851 12
//
