ACCESSION: MSBNK-NILU-NL0332
RECORD_TITLE: 4,4'-Dimethoxytrityl chloride; ESI-QTOF; MS2; CE: 40
DATE: 2024.11.15
AUTHORS: MILK, NILU
LICENSE: CC BY
CH$NAME: 4,4'-Dimethoxytrityl chloride
CH$NAME: DMTrCl
CH$COMPOUND_CLASS: Non-natural product; Industrial chemical
CH$FORMULA: C21H19ClO2
CH$EXACT_MASS: 338.10736
CH$SMILES: COC1C=CC(=CC=1)C(Cl)(C1C=CC=CC=1)C1C=CC(=CC=1)OC
CH$IUPAC: InChI=1S/C21H19ClO2/c1-23-19-12-8-17(9-13-19)21(22,16-6-4-3-5-7-16)18-10-14-20(24-2)15-11-18/h3-15H,1-2H3
CH$LINK: CAS 40615-36-9
AC$INSTRUMENT: Agilent 6546 Q-ToF
AC$INSTRUMENT_TYPE: ESI-QTOF
AC$MASS_SPECTROMETRY: MS_TYPE MS2
AC$MASS_SPECTROMETRY: ION_MODE POSITIVE
AC$MASS_SPECTROMETRY: IONIZATION ESI
AC$MASS_SPECTROMETRY: COLLISION_ENERGY 40
MS$FOCUSED_ION: PRECURSOR_M/Z 339.11462
PK$SPLASH: splash10-0far-8900000000-1fd6190d4b35d805ea56
PK$NUM_PEAK: 4
PK$PEAK: m/z int. rel.int.
  84.0526 100 999
  87.0996 64.00001 639
  100.0855 83.57397 834
  175.1179 82.50888 824
//
