ACCESSION: MSBNK-NILU-NL0230
RECORD_TITLE: 4-((4-Isopropoxyphenyl)sulfonyl)phenol; ESI-QTOF; MS2; CE: 40
DATE: 2024.11.15
AUTHORS: MILK, NILU
LICENSE: CC BY
CH$NAME: 4-((4-Isopropoxyphenyl)sulfonyl)phenol
CH$NAME: 4-4-Isopropyloxypheol
CH$COMPOUND_CLASS: Non-natural product; Industrial chemical
CH$FORMULA: C15H16O4S
CH$EXACT_MASS: 292.07693
CH$SMILES: CC(C)OC1C=CC(=CC=1)S(=O)(=O)C1C=CC(O)=CC=1
CH$IUPAC: InChI=1S/C15H16O4S/c1-11(2)19-13-5-9-15(10-6-13)20(17,18)14-7-3-12(16)4-8-14/h3-11,16H,1-2H3
CH$LINK: CAS 95235-30-6
AC$INSTRUMENT: Agilent 6546 Q-ToF
AC$INSTRUMENT_TYPE: ESI-QTOF
AC$MASS_SPECTROMETRY: MS_TYPE MS2
AC$MASS_SPECTROMETRY: ION_MODE NEGATIVE
AC$MASS_SPECTROMETRY: IONIZATION ESI
AC$MASS_SPECTROMETRY: COLLISION_ENERGY 40
MS$FOCUSED_ION: PRECURSOR_M/Z 291.06964
PK$SPLASH: splash10-0a5c-2910000000-48001f83d48686d076ee
PK$NUM_PEAK: 27
PK$PEAK: m/z int. rel.int.
  82.9961 1.798328 17
  91.0189 22.36919 223
  91.026 1.741316 17
  92.0267 46.34027 462
  92.0333 1.955215 19
  108.0216 62.70404 626
  108.0291 3.325616 33
  128.0632 14.98063 149
  130.042 1.192306 11
  138.9857 2.121381 21
  139.9938 21.80121 217
  140.0023 1.315736 13
  143.05 1.823768 18
  155.0502 1.391561 13
  155.9887 6.991197 69
  156.0579 39.20264 391
  156.0669 2.918083 29
  183.0452 6.856349 68
  184.0532 100 999
  184.0631 6.906765 68
  185.0561 2.104948 21
  199.0404 6.081493 60
  220.0202 2.682816 26
  247.0081 1.114517 11
  248.0148 40.52175 404
  248.0255 3.004879 30
  249.0218 1.206615 12
//
