ACCESSION: MSBNK-NILU-NL0294
RECORD_TITLE: 4,4'-Bis(dimethylamino)-4''-(methylamino)trityl alcohol; LC-ESI-QTOF; MSn
DATE: 2024.09.19
AUTHORS: Environmental Chemistry section, NIVA
LICENSE: CC BY
CH$NAME: bis[4-(dimethylamino)phenyl]-[4-(methylamino)phenyl]methanol
CH$NAME: 4,4'-Bis(dimethylamino)-4''-(methylamino)trityl alcohol
CH$COMPOUND_CLASS: Non-Natural Product; Seondary Amine
CH$FORMULA: C24H29N3O
CH$EXACT_MASS: 375.231062566
CH$SMILES: CNC1=CC=C(C=C1)C(O)(C1=CC=C(C=C1)N(C)C)C1=CC=C(C=C1)N(C)C
CH$IUPAC: InChI=1S/C24H29N3O/c1-25-21-12-6-18(7-13-21)24(28,19-8-14-22(15-9-19)26(2)3)20-10-16-23(17-11-20)27(4)5/h6-17,25,28H,1-5H3
AC$INSTRUMENT: Waters G2-S QTOF
AC$INSTRUMENT_TYPE: LC-ESI-QTOF
AC$MASS_SPECTROMETRY: MS_TYPE MSn
AC$MASS_SPECTROMETRY: ION_MODE POSITIVE
MS$FOCUSED_ION: PRECURSOR_M/Z 376.2389
MS$FOCUSED_ION: PRECURSOR_TYPE [M+H]+
PK$SPLASH: splash10-0a4i-0009000000-d4023048e99c9fd76396
PK$NUM_PEAK: 20
PK$PEAK: m/z int. rel.int.
  221.1079 9693 3
  235.1251 13290 4
  237.1394 23330 8
  270.1300 8231 3
  272.1427 11840 4
  284.1360 3351 1
  298.1474 5278 1
  299.1531 4530 1
  312.1539 3815 1
  313.1685 13810 5
  327.1738 5499 2
  328.1792 9865 3
  342.1966 776100 291
  343.2006 279800 105
  344.2042 17910 6
  358.2283 2656000 999
  359.2307 674600 253
  360.2338 71220 26
  361.2329 4609 1
  375.1967 2943 1
//
