ACCESSION: MSBNK-NILU-NL0215
RECORD_TITLE: 1,1,1-Tris(4-hydroxyphenyl)ethane; ESI-QTOF; MS2; CE: 20
DATE: 2024.11.15
AUTHORS: MILK, NILU
LICENSE: CC BY
CH$NAME: 1,1,1-Tris(4-hydroxyphenyl)ethane
CH$NAME: TrisP-HAP
CH$COMPOUND_CLASS: Non-natural product; Industrial chemical
CH$FORMULA: C20H18O3
CH$EXACT_MASS: 306.1256
CH$SMILES: CC(C1C=CC(O)=CC=1)(C1C=CC(O)=CC=1)C1C=CC(O)=CC=1
CH$IUPAC: InChI=1S/C20H18O3/c1-20(14-2-8-17(21)9-3-14,15-4-10-18(22)11-5-15)16-6-12-19(23)13-7-16/h2-13,21-23H,1H3
CH$LINK: CAS 27955-94-8
AC$INSTRUMENT: Agilent 6546 Q-ToF
AC$INSTRUMENT_TYPE: ESI-QTOF
AC$MASS_SPECTROMETRY: MS_TYPE MS2
AC$MASS_SPECTROMETRY: ION_MODE NEGATIVE
AC$MASS_SPECTROMETRY: IONIZATION ESI
AC$MASS_SPECTROMETRY: COLLISION_ENERGY 20
MS$FOCUSED_ION: PRECURSOR_M/Z 305.11832
PK$SPLASH: splash10-0a4l-1079000000-64b595e506b5749d9d58
PK$NUM_PEAK: 18
PK$PEAK: m/z int. rel.int.
  59.0127 2.073102 20
  60.0174 2.054377 20
  71.0117 2.543054 25
  85.0277 3.570544 35
  95.0508 4.468163 44
  141.0171 4.637298 46
  211.077 11.64368 116
  223.0253 1.865913 18
  289.0881 3.341609 33
  290.0945 53.52011 534
  290.0989 20.9213 209
  290.1033 3.838139 38
  290.109 6.065877 60
  296.025 1.679261 16
  305.11 2.120822 21
  305.1184 100 999
  305.1295 13.72162 137
  305.2464 3.591082 35
//
