ACCESSION: MSBNK-NILU-NL0288
RECORD_TITLE: 4-IMIDAZOLEACETIC ACID; LC-ESI-QFT; MS2; CE:20; [M+H]+
DATE: 2024.07.01
AUTHORS: MILK, NILU
LICENSE: CC BY
CH$NAME: 4-IMIDAZOLEACETIC ACID
CH$NAME: 2-(1H-imidazol-5-yl)acetic acid
CH$COMPOUND_CLASS: Non-natural product
CH$FORMULA: C5H6N2O2
CH$EXACT_MASS: 126.04293
CH$SMILES: C1=C(NC=N1)CC(=O)O
CH$IUPAC: InChI=1S/C5H6N2O2/c8-5(9)1-4-2-6-3-7-4/h2-3H,1H2,(H,6,7)(H,8,9)
AC$INSTRUMENT:  QExactive Plus Orbitrap
AC$INSTRUMENT_TYPE: LC-ESI-QFT
AC$MASS_SPECTROMETRY: MS_TYPE MS2
AC$MASS_SPECTROMETRY: ION_MODE POSITIVE
AC$MASS_SPECTROMETRY: COLLISION_ENERGY 20
AC$CHROMATOGRAPHY: RETENTION_TIME 1.41
MS$FOCUSED_ION: PRECURSOR_M/Z 127.05022
MS$FOCUSED_ION: PRECURSOR_TYPE [M+H]+
PK$SPLASH: splash10-001i-9000000000-c70a3bce24c90beb58c8
PK$NUM_PEAK: 2
PK$PEAK: m/z int. rel.int.
  54.03425 253111 109
  81.04475 2318391 999
//
