ACCESSION: MSBNK-NILU-NL0257
RECORD_TITLE: 42FTS; LC-ESI-FT; MS2
DATE: 2024.12.10
AUTHORS: MILK, NILU
LICENSE: CC BY
COPYRIGHT: MILK, NILU
CH$NAME: 42FTS
CH$NAME: 3,3,4,4,5,5,6,6,6-nonafluorohexane-1-sulfonic acid
CH$COMPOUND_CLASS: Non-Natural Product; Fluorotelomer sulfonic acid
CH$FORMULA: C6H5F9O3S
CH$EXACT_MASS: 327.98156865
CH$SMILES: C(CS(=O)(=O)O)C(C(C(C(F)(F)F)(F)F)(F)F)(F)F
CH$IUPAC: InChI=1S/C6H5F9O3S/c7-3(8,1-2-19(16,17)18)4(9,10)5(11,12)6(13,14)15/h1-2H2,(H,16,17,18)
AC$INSTRUMENT: Vanquish LC, Thermo Scientific; Exploris 120 Orbitrap, Thermo Scientific
AC$INSTRUMENT_TYPE: LC-ESI-FT
AC$MASS_SPECTROMETRY: MS_TYPE MS2
AC$MASS_SPECTROMETRY: ION_MODE NEGATIVE
AC$CHROMATOGRAPHY: RETENTION_TIME 5.28585841712157
MS$FOCUSED_ION: PRECURSOR_M/Z 326.97379
MS$FOCUSED_ION: PRECURSOR_TYPE [M-H]-
PK$SPLASH: splash10-004i-9008000000-821844e6db870f287426
PK$NUM_PEAK: 11
PK$PEAK: m/z int. rel.int.
  63.96210 2377.00 6
  79.95718 270764.00 690
  80.96500 289478.00 737
  103.34018 2171.00 6
  154.99203 3892.00 10
  182.98846 1965.00 5
  192.99004 3465.00 9
  220.34161 2017.00 5
  306.92206 3018.00 8
  306.96741 107880.00 275
  326.97372 392227.00 999
//
