ACCESSION: MSBNK-NILU-NL0335
RECORD_TITLE: Cyasorb; ESI-QTOF; MS2; CE: 10
DATE: 2024.11.15
AUTHORS: MILK, NILU
LICENSE: CC BY
CH$NAME: Cyasorb
CH$NAME: UV-1164
CH$COMPOUND_CLASS: Non-natural product; UV filter
CH$FORMULA: C33H39N3O2
CH$EXACT_MASS: 509.30423
CH$SMILES: CCCCCCCCOC1=CC(O)=C(C=C1)C1N=C(N=C(N=1)C1=CC=C(C)C=C1C)C1=CC=C(C)C=C1C
CH$IUPAC: InChI=1S/C33H39N3O2/c1-6-7-8-9-10-11-18-38-26-14-17-29(30(37)21-26)33-35-31(27-15-12-22(2)19-24(27)4)34-32(36-33)28-16-13-23(3)20-25(28)5/h12-17,19-21,37H,6-11,18H2,1-5H3
CH$LINK: CAS 2725-22-6
CH$LINK: CHEMSPIDER 10632726
CH$LINK: HMDB HMDB37802
AC$INSTRUMENT: Agilent 6546 Q-ToF
AC$INSTRUMENT_TYPE: ESI-QTOF
AC$MASS_SPECTROMETRY: MS_TYPE MS2
AC$MASS_SPECTROMETRY: ION_MODE POSITIVE
AC$MASS_SPECTROMETRY: IONIZATION ESI
AC$MASS_SPECTROMETRY: COLLISION_ENERGY 10
AC$CHROMATOGRAPHY: RETENTION_TIME 7.51
MS$FOCUSED_ION: PRECURSOR_M/Z 510.31201
PK$SPLASH: splash10-03di-0000090000-2e4a99a2fbc5721e123f
PK$NUM_PEAK: 4
PK$PEAK: m/z int. rel.int.
  132.0808 0.9950785 9
  248.1645 1.135004 11
  510.3127 100 999
  510.3591 3.905996 39
//
