ACCESSION: MSBNK-NILU-NL0310
RECORD_TITLE: 2-(2H-Benzotriazol-2-yl)-4,6-bis(tert-pentyl)phenol N-oxide; LC-ESI-QTOF; MSn
DATE: 2024.09.19
AUTHORS: Environmental Chemistry section, NIVA
LICENSE: CC BY
CH$NAME: 2,4-bis(2-methylbutan-2-yl)-6-(1-oxidobenzotriazol-1-ium-2-yl)phenol
CH$NAME: 2-(2H-Benzotriazol-2-yl)-4,6-bis(tert-pentyl)phenol N-oxide
CH$COMPOUND_CLASS: Non-Natural Product; UV Stabilizer
CH$FORMULA: C22H29N3O2
CH$EXACT_MASS: 367.225977186
CH$SMILES: CCC(C)(C)C1=CC(=C(O)C(=C1)N1N=C2C=CC=CC2=[N+]1[O-])C(C)(C)CC
CH$IUPAC: InChI=1S/C22H29N3O2/c1-7-21(3,4)15-13-16(22(5,6)8-2)20(26)19(14-15)24-23-17-11-9-10-12-18(17)25(24)27/h9-14,26H,7-8H2,1-6H3
AC$INSTRUMENT: Waters G2-S QTOF
AC$INSTRUMENT_TYPE: LC-ESI-QTOF
AC$MASS_SPECTROMETRY: MS_TYPE MSn
AC$MASS_SPECTROMETRY: ION_MODE POSITIVE
MS$FOCUSED_ION: PRECURSOR_M/Z 368.2338
MS$FOCUSED_ION: PRECURSOR_TYPE [M+H]+
PK$SPLASH: splash10-00di-0009000000-22049d5b35d335194b9c
PK$NUM_PEAK: 26
PK$PEAK: m/z int. rel.int.
  183.0694 25890 4
  223.1006 15840 2
  224.1090 37620 5
  237.1079 9441 1
  238.0981 14310 2
  248.1986 10080 1
  250.1243 24560 3
  252.1148 642100 100
  253.1183 81300 12
  264.1429 6882 1
  265.1288 11020 1
  266.1289 42720 6
  280.1444 66780 10
  281.1534 13510 2
  292.1448 39430 6
  294.1589 92570 14
  298.1558 113100 17
  308.1772 20060 3
  322.1933 6399000 999
  323.1954 1367000 213
  336.2078 126300 19
  351.2315 610000 95
  352.2345 144100 22
  368.2356 2815000 439
  369.2379 725000 113
  370.2401 48600 7
//
