ACCESSION: MSBNK-NILU-NL0205
RECORD_TITLE: Sucrose; LC-ESI-QFT; MS2; CE:20; [M-H]-
DATE: 2024.11.18
AUTHORS: MILK, NILU
LICENSE: CC BY
CH$NAME: Sucrose
CH$NAME: Saccharose
CH$COMPOUND_CLASS: Natural product
CH$FORMULA: C12H22O11
CH$EXACT_MASS: 342.11621
CH$SMILES: C([C@@H]1[C@H]([C@@H]([C@H]([C@H](O1)O[C@]2([C@H]([C@@H]([C@H](O2)CO)O)O)CO)O)O)O)O 
CH$IUPAC: InChI=1S/C12H22O11/c13-1-4-6(16)8(18)9(19)11(21-4)23-12(3-15)10(20)7(17)5(2-14)22-12/h4-11,13-20H,1-3H2/t4-,5-,6-,7-,8+,9-,10+,11-,12+/m1/s1
AC$INSTRUMENT:  QExactive Plus Orbitrap
AC$INSTRUMENT_TYPE: LC-ESI-QFT
AC$MASS_SPECTROMETRY: MS_TYPE MS2
AC$MASS_SPECTROMETRY: ION_MODE NEGATIVE
AC$MASS_SPECTROMETRY: COLLISION_ENERGY 20
AC$CHROMATOGRAPHY: RETENTION_TIME 8.52
MS$FOCUSED_ION: PRECURSOR_M/Z 341.1085
MS$FOCUSED_ION: PRECURSOR_TYPE [M-H]-
PK$SPLASH: splash10-0006-0109000000-b5e630c7770c96b00869
PK$NUM_PEAK: 5
PK$PEAK: m/z int. rel.int.
  73.02942 540 4.2
  113.02441 17160 133.46
  274.82654 449 3.49
  314.78467 2625 20.42
  341.10876 128446 999
//