ACCESSION: MSBNK-NILU-NL0261
RECORD_TITLE: PFPS; LC-ESI-FT; MS2
DATE: 2024.12.10
AUTHORS: MILK, NILU
LICENSE: CC BY
COPYRIGHT: MILK, NILU
CH$NAME: PFPS
CH$NAME: 1,1,2,2,3,3,4,4,5,5,5-undecafluoropentane-1-sulfonic acid
CH$COMPOUND_CLASS: Non-Natural Product; Perfluoroalkyl sulfonic acid
CH$FORMULA: C5HF11O3S
CH$EXACT_MASS: 349.94707485
CH$SMILES: C(C(C(F)(F)F)(F)F)(C(C(F)(F)S(=O)(=O)O)(F)F)(F)F
CH$IUPAC: InChI=1S/C5HF11O3S/c6-1(7,2(8,9)4(12,13)14)3(10,11)5(15,16)20(17,18)19/h(H,17,18,19)
AC$INSTRUMENT: Vanquish LC, Thermo Scientific; Exploris 120 Orbitrap, Thermo Scientific
AC$INSTRUMENT_TYPE: LC-ESI-FT
AC$MASS_SPECTROMETRY: MS_TYPE MS2
AC$MASS_SPECTROMETRY: ION_MODE NEGATIVE
AC$CHROMATOGRAPHY: RETENTION_TIME 6.07743175384204
MS$FOCUSED_ION: PRECURSOR_M/Z 348.93936
MS$FOCUSED_ION: PRECURSOR_TYPE [M-H]-
PK$SPLASH: splash10-002b-7009000000-fa78ca8784c38273be17
PK$NUM_PEAK: 15
PK$PEAK: m/z int. rel.int.
  52.66854 30829.00 5
  66.00059 33211.00 6
  79.95720 3829136.00 677
  82.96029 54541.00 10
  95.08640 36766.00 7
  98.94792 62980.00 11
  98.95554 854698.00 151
  102.59447 36505.00 6
  109.00016 29485.00 5
  118.99216 46991.00 8
  139.49419 35884.00 6
  140.38051 32168.00 6
  169.44128 37047.00 7
  317.84781 39372.00 7
  348.93936 5646860.00 999
//
