ACCESSION: MSBNK-NILU-NL0346
RECORD_TITLE: 1,3-Bis(4-cyanophenyl)propane; ESI-QTOF; MS2; CE: 10; [M+H]+
DATE: 2024.11.15
AUTHORS: MILK, NILU
LICENSE: CC BY
CH$NAME: 1,3-Bis(4-cyanophenyl)propane
CH$NAME: BPA-dicyanate
CH$COMPOUND_CLASS: Non-natural product; Industrial chemical
CH$FORMULA: C17H14N2O2
CH$EXACT_MASS: 278.10553
CH$SMILES: CC(C)(C1C=CC(=CC=1)OC#N)C1C=CC(=CC=1)OC#N
CH$IUPAC: InChI=1S/C17H14N2O2/c1-17(2,13-3-7-15(8-4-13)20-11-18)14-5-9-16(10-6-14)21-12-19/h3-10H,1-2H3
CH$LINK: CAS 1156-51-0
AC$INSTRUMENT: Agilent 6546 Q-ToF
AC$INSTRUMENT_TYPE: ESI-QTOF
AC$MASS_SPECTROMETRY: MS_TYPE MS2
AC$MASS_SPECTROMETRY: ION_MODE POSITIVE
AC$MASS_SPECTROMETRY: IONIZATION ESI
AC$MASS_SPECTROMETRY: COLLISION_ENERGY 10
MS$FOCUSED_ION: PRECURSOR_M/Z 279.11279
MS$FOCUSED_ION: PRECURSOR_TYPE [M+H]+
PK$SPLASH: splash10-0002-2920000000-32ffeae0bb4972bfc5ee
PK$NUM_PEAK: 35
PK$PEAK: m/z int. rel.int.
  75.1001 10.65988 106
  84.0587 12.25924 122
  85.1025 15.78088 157
  86.0605 18.20461 181
  87.0821 18.33377 183
  87.0861 13.44072 134
  97.0754 41.56441 415
  101.0715 11.11195 111
  109.1016 15.01349 149
  112.0525 12.34662 123
  113.0364 11.03218 110
  121.0493 43.60825 435
  121.0517 22.619 225
  127.1131 12.3884 123
  130.1598 11.26011 112
  140.0329 10.87642 108
  147.0907 31.30342 312
  147.0926 16.73062 167
  149.0236 100 999
  160.0968 22.42905 224
  162.0493 16.51407 164
  167.1083 12.83288 128
  175.0581 13.55089 135
  187.6316 13.33055 133
  192.0857 20.89807 208
  202.0809 18.03366 180
  202.0892 12.06169 120
  261.0818 10.74346 107
  279.1055 15.21863 152
  279.1241 11.78817 117
  279.1944 15.05527 150
  279.2809 14.63739 146
  380.1497 11.71219 117
  771.7186 12.44539 124
  815.5204 12.60115 125
//
