ACCESSION: MSBNK-NILU-NL0295
RECORD_TITLE: 2-(2H-Benzotriazol-2-yl)-4-methyl-6-(2-propenyl)phenol; LC-ESI-QTOF; MSn
DATE: 2024.09.19
AUTHORS: Environmental Chemistry section, NIVA
LICENSE: CC BY
CH$NAME: UV-9
CH$NAME: 2-(2H-Benzotriazol-2-yl)-4-methyl-6-(2-propenyl)phenol
CH$COMPOUND_CLASS: Non-Natural Product; Triazole
CH$FORMULA: C16H15N3O
CH$EXACT_MASS: 265.121512115
CH$SMILES: CC1=CC(CC=C)=C(O)C(=C1)N1N=C2C=CC=CC2=N1
CH$IUPAC: InChI=1S/C16H15N3O/c1-3-6-12-9-11(2)10-15(16(12)20)19-17-13-7-4-5-8-14(13)18-19/h3-5,7-10,20H,1,6H2,2H3
AC$INSTRUMENT: Waters G2-S QTOF
AC$INSTRUMENT_TYPE: LC-ESI-QTOF
AC$MASS_SPECTROMETRY: MS_TYPE MSn
AC$MASS_SPECTROMETRY: ION_MODE POSITIVE
MS$FOCUSED_ION: PRECURSOR_M/Z 266.1293
MS$FOCUSED_ION: PRECURSOR_TYPE [M+H]+
PK$SPLASH: splash10-014i-0090000000-2839c8c0c601fbbbb39a
PK$NUM_PEAK: 4
PK$PEAK: m/z int. rel.int.
  238.0970 12270 104
  255.1005 5576 47
  266.1299 117000 999
  273.9322 275 2
//
