ACCESSION: MSBNK-NILU-NL0291
RECORD_TITLE: Prolinamide; LC-ESI-QFT; MS2; CE:20; [M+H]+
DATE: 2024.07.01
AUTHORS: MILK, NILU
LICENSE: CC BY
CH$NAME: Prolinamide
CH$NAME: Pyrrolidine-2-carboxamide
CH$COMPOUND_CLASS: Non-natural product; Industrial chemical
CH$FORMULA: C5H10N2O
CH$EXACT_MASS: 114.07931
CH$SMILES: C1CC(NC1)C(=O)N
CH$IUPAC: InChI=1S/C5H10N2O/c6-5(8)4-2-1-3-7-4/h4,7H,1-3H2,(H2,6,8)
AC$INSTRUMENT:  QExactive Plus Orbitrap
AC$INSTRUMENT_TYPE: LC-ESI-QFT
AC$MASS_SPECTROMETRY: MS_TYPE MS2
AC$MASS_SPECTROMETRY: ION_MODE POSITIVE
AC$MASS_SPECTROMETRY: COLLISION_ENERGY 20
AC$CHROMATOGRAPHY: RETENTION_TIME 1.35
MS$FOCUSED_ION: PRECURSOR_M/Z 115.08665
MS$FOCUSED_ION: PRECURSOR_TYPE [M+H]+
PK$SPLASH: splash10-00di-9000000000-2785d6a08090d12c6dff
PK$NUM_PEAK: 11
PK$PEAK: m/z int. rel.int.
  53.03900 10728 1
  55.98772 5702 1
  62.32741 8019 1
  64.13417 6198 1
  68.04955 78740 10
  68.55465 7842 1
  69.57526 5982 1
  69.84514 10759 1
  70.06525 7732857 999
  105.00343 13167 2
  115.08658 688871 89
//
