ACCESSION: MSBNK-NILU-NL0202
RECORD_TITLE: Galactosan; LC-ESI-QFT; MS2; CE:20; [M-H]-
DATE: 2024.11.18
AUTHORS: MILK, NILU
LICENSE: CC BY
CH$NAME: Galactosan
CH$NAME: (1R,2R,3S,4R,5R)-6,8-dioxabicyclo[3.2.1]octane-2,3,4-triol
CH$COMPOUND_CLASS: Natural product
CH$FORMULA: C6H10O5
CH$EXACT_MASS: 162.05282
CH$SMILES: C1[C@@H]2[C@@H]([C@@H]([C@H]([C@H](O1)O2)O)O)O
CH$IUPAC: InChI=1S/C6H10O5/c7-3-2-1-10-6(11-2)5(9)4(3)8/h2-9H,1H2/t2-,3+,4+,5-,6-/m1/s1
AC$INSTRUMENT:  QExactive Plus Orbitrap
AC$INSTRUMENT_TYPE: LC-ESI-QFT
AC$MASS_SPECTROMETRY: MS_TYPE MS2
AC$MASS_SPECTROMETRY: ION_MODE NEGATIVE
AC$MASS_SPECTROMETRY: COLLISION_ENERGY 20
AC$CHROMATOGRAPHY: RETENTION_TIME 7.20
MS$FOCUSED_ION: PRECURSOR_M/Z 161.0453
MS$FOCUSED_ION: PRECURSOR_TYPE [M-H]-
PK$SPLASH: splash10-00kb-9500000000-9145022bb32cb473ceb3
PK$NUM_PEAK: 16
PK$PEAK: m/z int. rel.int.
  59.01353 2734408 450.56
  59.967 125760 20.72
  61.98811 954469 157.27
  73.02945 25856 4.26
  76.97001 772054 127.22
  94.9795 11799 1.94
  96.96007 109772 18.09
  97.9313 281479 46.38
  99.92581 6062810 999
  101.9241 153395 25.28
  113.92619 17889 2.95
  116.92847 5247450 864.65
  117.92863 568084 93.61
  134.89461 415972 68.54
  143.91554 12374 2.04
  160.89262 8029 1.32
//