ACCESSION: MSBNK-NILU-NL0315
RECORD_TITLE: Tans-4,4'-Azodiphenol ; ESI-QTOF; MS2; CE: 20
DATE: 2024.11.15
AUTHORS: MILK, NILU
LICENSE: CC BY
CH$NAME: Tans-4,4'-Azodiphenol 
CH$NAME: 4,4'-Dihydroxyazobenzene
CH$COMPOUND_CLASS: Non-Natural Product; Industrial Chemical
CH$FORMULA: C12H10N2O2
CH$EXACT_MASS: 214.07423
CH$SMILES: C1=CC(=CC=C1N=NC2=CC=C(C=C2)O)O
CH$IUPAC: InChI=1S/C12H10N2O2/c15-11-5-1-9(2-6-11)13-14-10-3-7-12(16)8-4-10/h1-8,15-16H
CH$LINK: CAS 51437-66-2
AC$INSTRUMENT: Agilent 6546 Q-ToF
AC$INSTRUMENT_TYPE: ESI-QTOF
AC$MASS_SPECTROMETRY: MS_TYPE MS2
AC$MASS_SPECTROMETRY: ION_MODE POSITIVE
AC$MASS_SPECTROMETRY: IONIZATION ESI
AC$MASS_SPECTROMETRY: COLLISION_ENERGY 20
MS$FOCUSED_ION: PRECURSOR_M/Z 411.2067
PK$SPLASH: splash10-0ar0-0596000000-33b18797606936ee3e33
PK$NUM_PEAK: 40
PK$PEAK: m/z int. rel.int.
  80.0489 1.195331 11
  93.0569 10.34878 103
  108.0443 100 999
  108.051 6.98873 69
  108.0527 2.195605 21
  181.0985 1.076978 10
  181.1033 1.724276 17
  195.0786 1.176589 11
  195.081 2.807154 28
  197.0961 7.062311 70
  209.096 8.578687 85
  210.0915 35.35945 353
  210.1042 8.998997 89
  211.1119 1.994648 19
  219.0235 5.062457 50
  225.0905 9.502605 94
  226.1224 89.21946 891
  226.1256 1.249475 12
  226.1336 9.349892 93
  227.1266 1.948834 19
  237.0342 7.129643 71
  237.0372 1.729482 17
  290.1537 24.96347 249
  290.1653 1.273076 12
  291.1582 1.207132 12
  300.1388 1.551432 15
  303.1232 1.486875 14
  304.1329 5.272785 52
  318.149 93.83905 937
  318.1553 2.095647 20
  318.1614 9.048629 90
  319.1521 4.85664 48
  319.1578 9.69315 96
  319.1685 1.217544 12
  395.177 1.303966 13
  396.1788 12.71167 126
  396.1864 1.594816 15
  411.199 2.2081 22
  411.2045 3.411761 34
  411.2097 2.461813 24
//
