ACCESSION: MSBNK-NILU-NL0195
RECORD_TITLE: 2,4,6-Trimethylbenzoic acid; LC-ESI-QFT; MS2; CE:20; [M-H]-
DATE: 2024.07.02
AUTHORS: MILK, NILU
LICENSE: CC BY
CH$NAME: 2,4,6-Trimethylbenzoic acid
CH$NAME: Mesitoic acid
CH$COMPOUND_CLASS: Non-natural product; Additive
CH$FORMULA: C10H12O2
CH$EXACT_MASS: 164.08373
CH$SMILES: Cc1cc(C)c(C(=O)O)c(C)c1
CH$IUPAC: InChI=1S/C10H12O2/c1-6-4-7(2)9(10(11)12)8(3)5-6/h4-5H,1-3H3,(H,11,12)
AC$INSTRUMENT: QExactive Plus Orbitrap
AC$INSTRUMENT_TYPE: LC-ESI-QFT
AC$MASS_SPECTROMETRY: MS_TYPE MS2
AC$MASS_SPECTROMETRY: ION_MODE NEGATIVE
AC$MASS_SPECTROMETRY: COLLISION_ENERGY 20
AC$CHROMATOGRAPHY: RETENTION_TIME 11.24
MS$FOCUSED_ION: PRECURSOR_M/Z 163.07631
MS$FOCUSED_ION: PRECURSOR_TYPE [M-H]-
PK$SPLASH: splash10-014i-1900000000-5f9eef991456a6edbece
PK$NUM_PEAK: 2
PK$PEAK: m/z int. rel.int.
  94.98059 75788.81 112
  119.08649 674339.00 999
//
