ACCESSION: MSBNK-NILU-NL0285
RECORD_TITLE: 1,3 Cyclohexanedione; LC-ESI-QFT; MS2; CE:20; [M+H]+
DATE: 2024.07.01
AUTHORS: MILK, NILU
LICENSE: CC BY
CH$NAME: 1,3 Cyclohexanedione
CH$NAME: cyclohexane-1,3-dione
CH$COMPOUND_CLASS: Non-natural product; Industrial chemical
CH$FORMULA: C6H8O2
CH$EXACT_MASS: 112.13
CH$SMILES: C1CC(=O)CC(=O)C1
CH$IUPAC: InChI=1S/C6H8O2/c7-5-2-1-3-6(8)4-5/h1-4H2
AC$INSTRUMENT:  QExactive Plus Orbitrap
AC$INSTRUMENT_TYPE: LC-ESI-QFT
AC$MASS_SPECTROMETRY: MS_TYPE MS2
AC$MASS_SPECTROMETRY: ION_MODE POSITIVE
AC$MASS_SPECTROMETRY: COLLISION_ENERGY 20
AC$CHROMATOGRAPHY: RETENTION_TIME 7.51
MS$FOCUSED_ION: PRECURSOR_M/Z 113.05968
MS$FOCUSED_ION: PRECURSOR_TYPE [M+H]+
PK$SPLASH: splash10-014j-9000000000-dc50f17c35449c2a8fb6
PK$NUM_PEAK: 2
PK$PEAK: m/z int. rel.int.
  67.05428 6900 999
  95.04929 3851 558
//
