ACCESSION: MSBNK-NILU-NL0211
RECORD_TITLE: 2,2'-Diallylbisphenol A; ESI-QTOF; MS2; CE: 20
DATE: 2024.11.15
AUTHORS: MILK, NILU
LICENSE: CC BY
CH$NAME: 2,2'-Diallylbisphenol A
CH$NAME: 4,4'-(Propane-2,2-diyl)bis(2-allylphenol)
CH$COMPOUND_CLASS: Non-Natural Product; Industrial Chemical
CH$FORMULA: C21H24O2
CH$EXACT_MASS: 308.17763
CH$SMILES: CC(C)(C1C=C(CC=C)C(O)=CC=1)C1C=C(CC=C)C(O)=CC=1
CH$IUPAC: InChI=1S/C21H24O2/c1-5-7-15-13-17(9-11-19(15)22)21(3,4)18-10-12-20(23)16(14-18)8-6-2/h5-6,9-14,22-23H,1-2,7-8H2,3-4H3
CH$LINK: CAS 1745-89-7
AC$INSTRUMENT: Agilent 6546 Q-ToF
AC$INSTRUMENT_TYPE: ESI-QTOF
AC$MASS_SPECTROMETRY: MS_TYPE MS2
AC$MASS_SPECTROMETRY: ION_MODE NEGATIVE
AC$MASS_SPECTROMETRY: IONIZATION ESI
AC$MASS_SPECTROMETRY: COLLISION_ENERGY 20
MS$FOCUSED_ION: PRECURSOR_M/Z 307.17035
PK$SPLASH: splash10-0a4i-0029000000-6b8af831ff25429472e2
PK$NUM_PEAK: 13
PK$PEAK: m/z int. rel.int.
  173.0981 2.289971 22
  264.1161 2.805838 28
  277.1236 12.46591 124
  277.1298 1.048492 10
  277.1359 1.130043 11
  291.1381 1.068494 10
  291.1414 1.675564 16
  292.1469 12.86463 128
  292.1573 1.318705 13
  307.1705 100 999
  307.183 7.601086 75
  307.2081 1.287506 12
  308.1746 3.232587 32
//
