ACCESSION: MSBNK-NILU-NL0369
RECORD_TITLE: 2,4,6-Tris(3-bromophenyl)-1,3,5-triazine; ESI-QTOF; MS2; CE: 40
DATE: 2024.11.15
AUTHORS: MILK, NILU
LICENSE: CC BY
CH$NAME: 2,4,6-Tris(3-bromophenyl)-1,3,5-triazine
CH$NAME: TbrPZ
CH$COMPOUND_CLASS: Non-natural product; Industrial chemical
CH$FORMULA: C21H12Br3N3
CH$EXACT_MASS: 542.85813
CH$SMILES: BrC1C=C(C=CC=1)C1N=C(N=C(N=1)C1=CC(Br)=CC=C1)C1=CC(Br)=CC=C1
CH$IUPAC: InChI=1S/C21H12Br3N3/c22-16-7-1-4-13(10-16)19-25-20(14-5-2-8-17(23)11-14)27-21(26-19)15-6-3-9-18(24)12-15/h1-12H
CH$LINK: CAS 890148-78-4
AC$INSTRUMENT: Agilent 6546 Q-ToF
AC$INSTRUMENT_TYPE: ESI-QTOF
AC$MASS_SPECTROMETRY: MS_TYPE MS2
AC$MASS_SPECTROMETRY: ION_MODE POSITIVE
AC$MASS_SPECTROMETRY: IONIZATION ESI
AC$MASS_SPECTROMETRY: COLLISION_ENERGY 40
MS$FOCUSED_ION: PRECURSOR_M/Z 545.88104
PK$SPLASH: splash10-0072-9610000200-31713f81b45931440ff2
PK$NUM_PEAK: 14
PK$PEAK: m/z int. rel.int.
  74.0957 100 999
  83.0857 45.44634 454
  83.0873 34.05371 340
  85.0657 61.41519 613
  95.0863 88.7823 886
  147.1182 44.21059 441
  156.0722 36.47444 364
  159.1186 35.23869 352
  187.145 45.2432 451
  188.0982 38.84437 388
  194.155 38.72588 386
  299.2408 50.78434 507
  528.4793 30.75274 307
  756.8986 73.82914 737
//
