ACCESSION: MSBNK-NILU-NL0328
RECORD_TITLE: Dimantine; ESI-QTOF; MS2; CE: 20
DATE: 2024.11.15
AUTHORS: MILK, NILU
LICENSE: CC BY
CH$NAME: Stearyldimethylamine
CH$NAME: Dimantine
CH$COMPOUND_CLASS: Non-natural product; Industrial chemical
CH$FORMULA: C20H43N
CH$EXACT_MASS: 297.33955
CH$SMILES: CCCCCCCCCCCCCCCCCCN(C)C
CH$IUPAC: InChI=1S/C20H43N/c1-4-5-6-7-8-9-10-11-12-13-14-15-16-17-18-19-20-21(2)3/h4-20H2,1-3H3
CH$LINK: CAS 124-28-7
CH$LINK: CHEMSPIDER 14626
AC$INSTRUMENT: Agilent 6546 Q-ToF
AC$INSTRUMENT_TYPE: ESI-QTOF
AC$MASS_SPECTROMETRY: MS_TYPE MS2
AC$MASS_SPECTROMETRY: ION_MODE POSITIVE
AC$MASS_SPECTROMETRY: IONIZATION ESI
AC$MASS_SPECTROMETRY: COLLISION_ENERGY 20
MS$FOCUSED_ION: PRECURSOR_M/Z 298.3468
PK$SPLASH: splash10-0002-0090000000-17430c4ffa2d140eea9c
PK$NUM_PEAK: 6
PK$PEAK: m/z int. rel.int.
  71.085 1.13708 11
  85.1011 1.363534 13
  298.3472 100 999
  298.3582 2.780152 27
  298.3856 2.121006 21
  299.3499 2.243664 22
//
