ACCESSION: MSBNK-NILU-NL0182
RECORD_TITLE: 4-tert-butylphenol; LC-ESI-QFT; MS2; CE:20; [M-H]-
DATE: 2024.07.01
AUTHORS: MILK, NILU
LICENSE: CC BY
CH$NAME: 4-tert-butylphenol
CH$NAME: Butylphen
CH$COMPOUND_CLASS: Non-natural product; Industrial chemical 
CH$FORMULA: C10H14O
CH$EXACT_MASS: 150.10448
CH$SMILES: CC(C)(C)C1=CC=C(C=C1)O
CH$IUPAC: InChI=1S/C10H14O/c1-10(2,3)8-4-6-9(11)7-5-8/h4-7,11H,1-3H3
AC$INSTRUMENT:  QExactive Plus Orbitrap
AC$INSTRUMENT_TYPE: LC-ESI-QFT
AC$MASS_SPECTROMETRY: MS_TYPE MS2
AC$MASS_SPECTROMETRY: ION_MODE NEGATIVE
AC$MASS_SPECTROMETRY: COLLISION_ENERGY 20
AC$CHROMATOGRAPHY: RETENTION_TIME 15.6469326666667
MS$FOCUSED_ION: PRECURSOR_M/Z 149.09720
MS$FOCUSED_ION: PRECURSOR_TYPE [M-H]-
PK$SPLASH: splash10-0002-0900000000-71699e7536fdd4b55ca9
PK$NUM_PEAK: 20
PK$PEAK: m/z int. rel.int.
  50.26734 2045.00 2
  58.52290 1986.00 2
  58.67083 1948.00 2
  59.96688 3475.00 3
  69.65929 1846.00 2
  75.96233 6326.00 5
  76.97002 36275.00 30
  87.91441 1589.00 1
  92.85097 1572.00 1
  94.98067 43824.00 36
  108.99642 5088.00 4
  117.03429 3501.00 3
  121.02943 3038.00 3
  133.06595 102382.00 85
  134.97336 33224.00 27
  148.98895 10307.00 9
  149.00951 6661.00 6
  149.09724 1209683.00 999
  150.00179 8672.00 7
  150.10060 12069.00 10
//
