ACCESSION: MSBNK-NILU-NL0212
RECORD_TITLE: 2,2'-METHYLENE-BIS-(4-METHYL-6-TERT-BUTYLPHENOL); ESI-QTOF; MS2; CE: 20
DATE: 2024.11.15
AUTHORS: MILK, NILU
LICENSE: CC BY
CH$NAME: 2,2'-METHYLENE-BIS-(4-METHYL-6-TERT-BUTYLPHENOL)
CH$NAME: 6,6'-di-tert-butyl-2,2'-methylenedi-p-cresol
CH$COMPOUND_CLASS: Non-natural product; Antioxidant
CH$FORMULA: C23H32O2
CH$EXACT_MASS: 340.240230264
CH$SMILES: CC(C)(C)C1=CC(C)=CC(CC2C=C(C)C=C(C=2O)C(C)(C)C)=C1O
CH$IUPAC: InChI=1S/C23H32O2/c1-14-9-16(20(24)18(11-14)22(3,4)5)13-17-10-15(2)12-19(21(17)25)23(6,7)8/h9-12,24-25H,13H2,1-8H3
CH$LINK: CAS 119-47-1
CH$LINK: CHEMSPIDER 8092
AC$INSTRUMENT: Agilent 6546 Q-ToF
AC$INSTRUMENT_TYPE: ESI-QTOF
AC$MASS_SPECTROMETRY: MS_TYPE MS2
AC$MASS_SPECTROMETRY: ION_MODE NEGATIVE
AC$MASS_SPECTROMETRY: IONIZATION ESI
AC$MASS_SPECTROMETRY: COLLISION_ENERGY 20
MS$FOCUSED_ION: PRECURSOR_M/Z 339.23294
PK$SPLASH: splash10-01p9-0709000000-d21f00734d768dad6b52
PK$NUM_PEAK: 3
PK$PEAK: m/z int. rel.int.
  163.1136 89.57264 894
  339.234 100 999
  340.2368 2.429685 24
//
