ACCESSION: MSBNK-NILU-NL0227
RECORD_TITLE: 5,5',6,6'-Tetramethyl-3,3'-di-tert-butyl-1,1'-biphenyl-2,2'-diol; ESI-QTOF; MS2; CE: 40
DATE: 2024.11.15
AUTHORS: MILK, NILU
LICENSE: CC BY
CH$NAME: 5,5',6,6'-Tetramethyl-3,3'-di-tert-butyl-1,1'-biphenyl-2,2'-diol
CH$NAME: S-BIPHEN
CH$COMPOUND_CLASS: Non-natural product; Industrial chemical
CH$FORMULA: C24H34O2
CH$EXACT_MASS: 354.25588
CH$SMILES: CC(C)(C)C1C=C(C)C(C)=C(C2C(O)=C(C=C(C)C=2C)C(C)(C)C)C=1O
CH$IUPAC: InChI=1S/C24H34O2/c1-13-11-17(23(5,6)7)21(25)19(15(13)3)20-16(4)14(2)12-18(22(20)26)24(8,9)10/h11-12,25-26H,1-10H3
CH$LINK: CAS 205927-03-3
AC$INSTRUMENT: Agilent 6546 Q-ToF
AC$INSTRUMENT_TYPE: ESI-QTOF
AC$MASS_SPECTROMETRY: MS_TYPE MS2
AC$MASS_SPECTROMETRY: ION_MODE NEGATIVE
AC$MASS_SPECTROMETRY: IONIZATION ESI
AC$MASS_SPECTROMETRY: COLLISION_ENERGY 40
MS$FOCUSED_ION: PRECURSOR_M/Z 353.2486
PK$SPLASH: splash10-0ue9-2179000000-a828ccab35a3f6970a97
PK$NUM_PEAK: 46
PK$PEAK: m/z int. rel.int.
  59.0138 8.873662 88
  61.9875 2.490729 24
  79.9571 2.295765 22
  81.0716 2.386183 23
  82.9749 5.372797 53
  87.0089 2.719599 27
  95.9518 2.396072 23
  96.9603 21.37746 213
  101.061 3.091159 30
  119.9465 3.111645 31
  122.9745 2.759156 27
  123.0797 2.831915 28
  151.113 3.071381 30
  158.0706 2.519691 25
  177.1275 8.517642 85
  177.1308 2.339561 23
  177.1373 2.304948 23
  178.1341 2.228658 22
  180.0802 3.197824 31
  188.9411 2.252675 22
  217.1677 1.932681 19
  227.0731 2.443401 24
  255.2377 2.906085 29
  263.1423 2.958359 29
  277.1572 6.322184 63
  279.1727 20.15541 201
  279.1771 5.08247 50
  279.1866 2.810016 28
  281.1552 75.56458 754
  281.1652 6.560943 65
  281.1697 9.375904 93
  295.1731 2.422209 24
  297.1848 3.868894 38
  298.1868 2.273867 22
  323.1981 5.024547 50
  335.2376 40.51849 404
  335.2433 8.460424 84
  353.1024 3.540423 35
  353.2425 5.365026 53
  353.2494 100 999
  353.2596 12.23678 122
  354.2504 6.82372 68
  512.3957 2.388302 23
  589.0355 6.13923 61
  668.8573 3.428107 34
  740.6242 2.030869 20
//
