ACCESSION: MSBNK-NILU-NL0301
RECORD_TITLE: Tris(2,4-di-tert-butylphenyl) phosphate; LC-ESI-QTOF; MSn
DATE: 2024.09.19
AUTHORS: Environmental Chemistry section, NIVA
LICENSE: CC BY
CH$NAME: Phenol, 2,4-bis(1,1-dimethylethyl)-, phosphate
CH$NAME: Tris(2,4-di-tert-butylphenyl) phosphate
CH$COMPOUND_CLASS: Non-Natural Product; Organophosphate
CH$FORMULA: C42H63O4P
CH$EXACT_MASS: 662.446397507
CH$SMILES: CC(C)(C)C1=CC(=C(OP(=O)(OC2=C(C=C(C=C2)C(C)(C)C)C(C)(C)C)OC2=C(C=C(C=C2)C(C)(C)C)C(C)(C)C)C=C1)C(C)(C)C
CH$IUPAC: InChI=1S/C42H63O4P/c1-37(2,3)28-19-22-34(31(25-28)40(10,11)12)44-47(43,45-35-23-20-29(38(4,5)6)26-32(35)41(13,14)15)46-36-24-21-30(39(7,8)9)27-33(36)42(16,17)18/h19-27H,1-18H3
AC$INSTRUMENT: Waters G2-S QTOF
AC$INSTRUMENT_TYPE: LC-ESI-QTOF
AC$MASS_SPECTROMETRY: MS_TYPE MSn
AC$MASS_SPECTROMETRY: ION_MODE POSITIVE
MS$FOCUSED_ION: PRECURSOR_M/Z 663.4542
MS$FOCUSED_ION: PRECURSOR_TYPE [M+H]+
PK$SPLASH: splash10-03di-0000319000-0734da346c755cd13f3c
PK$NUM_PEAK: 24
PK$PEAK: m/z int. rel.int.
  251.0471 40550 1
  327.0789 1004000 37
  328.0815 176200 6
  383.1416 2156000 80
  384.1447 468900 17
  439.2049 5337000 198
  440.2075 1515000 56
  441.2100 225900 8
  495.2685 11870000 440
  496.2708 4554000 169
  497.2733 732800 27
  498.2750 124800 4
  551.3301 9340000 346
  552.3324 3645000 135
  553.3349 694800 25
  554.3362 103700 3
  607.3924 10480000 389
  608.3953 4295000 159
  609.3981 905500 33
  610.4013 135900 5
  663.4562 26890000 999
  664.4585 16180000 601
  665.4611 4110000 152
  666.4640 496000 18
//
