ACCESSION: MSBNK-NILU-NL0247
RECORD_TITLE: 2,2-Bis(4-hydroxy-3,5-dimethylphenyl)propane; ESI-QTOF; MS2; CE: 20
DATE: 2024.11.15
AUTHORS: MILK, NILU
LICENSE: CC BY
CH$NAME: 2,2-Bis(4-hydroxy-3,5-dimethylphenyl)propane
CH$NAME: TMBPA
CH$COMPOUND_CLASS: Non-natural product; Industrial chemical
CH$FORMULA: C19H24O2
CH$EXACT_MASS: 284.17763
CH$SMILES: CC(C)(C1=CC(C)=C(O)C(C)=C1)C1=CC(C)=C(O)C(C)=C1
CH$IUPAC: InChI=1S/C19H24O2/c1-11-7-15(8-12(2)17(11)20)19(5,6)16-9-13(3)18(21)14(4)10-16/h7-10,20-21H,1-6H3
CH$LINK: CAS 5613-46-7
AC$INSTRUMENT: Agilent 6546 Q-ToF
AC$INSTRUMENT_TYPE: ESI-QTOF
AC$MASS_SPECTROMETRY: MS_TYPE MS2
AC$MASS_SPECTROMETRY: ION_MODE NEGATIVE
AC$MASS_SPECTROMETRY: IONIZATION ESI
AC$MASS_SPECTROMETRY: COLLISION_ENERGY 20
MS$FOCUSED_ION: PRECURSOR_M/Z 283.17035
PK$SPLASH: splash10-001i-0090000000-fc1546d81a9626cbde4f
PK$NUM_PEAK: 24
PK$PEAK: m/z int. rel.int.
  59.0129 1.129127 11
  90.9735 1.436163 14
  106.0426 1.577104 15
  121.0665 2.356074 23
  139.1141 1.343134 13
  161.0968 8.877701 88
  199.3813 1.437361 14
  221.1521 1.478485 14
  223.1069 1.723635 17
  224.9034 1.909694 19
  237.1501 1.150687 11
  239.2348 2.116514 21
  267.1368 1.619427 16
  267.1421 1.558339 15
  268.1441 2.45629 24
  268.1488 5.262737 52
  268.1553 1.299614 12
  283.0963 1.221757 12
  283.1698 100 999
  283.1836 7.48945 74
  283.2644 28.36991 283
  283.2689 5.769008 57
  283.2761 4.264969 42
  284.173 9.948534 99
//
