ACCESSION: MSBNK-NILU-NL0380
RECORD_TITLE: CAPROLACTAM; ESI-QTOF; MS2; CE: 40
DATE: 2024.11.15
AUTHORS: MILK, NILU
LICENSE: CC BY
CH$NAME: CAPROLACTAM
CH$NAME: 2-Perhydroazepinone
CH$COMPOUND_CLASS: Non-natural product; Industrial chemical
CH$FORMULA: C6H11NO
CH$EXACT_MASS: 113.084063972
CH$SMILES: OC1CCCCCN=1
CH$IUPAC: InChI=1S/C6H11NO/c8-6-4-2-1-3-5-7-6/h1-5H2,(H,7,8)
CH$LINK: CAS 105-60-2
CH$LINK: CHEMSPIDER 7480
CH$LINK: KEGG C06593
CH$LINK: PUBCHEM CID:7768
AC$INSTRUMENT: Agilent 6546 Q-ToF
AC$INSTRUMENT_TYPE: ESI-QTOF
AC$MASS_SPECTROMETRY: MS_TYPE MS2
AC$MASS_SPECTROMETRY: ION_MODE POSITIVE
AC$MASS_SPECTROMETRY: IONIZATION ESI
AC$MASS_SPECTROMETRY: COLLISION_ENERGY 40
MS$FOCUSED_ION: PRECURSOR_M/Z 114.0913
PK$SPLASH: splash10-004i-9000000000-6e80f1f2b6f25e9b8264
PK$NUM_PEAK: 7
PK$PEAK: m/z int. rel.int.
  77.0382 100 999
  77.0404 20.01277 199
  79.0544 77.80143 777
  80.0495 25.1508 251
  84.0446 21.96437 219
  95.0491 16.67022 166
  105.0456 16.93989 169
//
