ACCESSION: MSBNK-NILU-NL0331
RECORD_TITLE: 4,4'-Dimethoxytrityl chloride; ESI-QTOF; MS2; CE: 10
DATE: 2024.11.15
AUTHORS: MILK, NILU
LICENSE: CC BY
CH$NAME: 4,4'-Dimethoxytrityl chloride
CH$NAME: DMTrCl
CH$COMPOUND_CLASS: Non-natural product; Industrial chemical
CH$FORMULA: C21H19ClO2
CH$EXACT_MASS: 338.10736
CH$SMILES: COC1C=CC(=CC=1)C(Cl)(C1C=CC=CC=1)C1C=CC(=CC=1)OC
CH$IUPAC: InChI=1S/C21H19ClO2/c1-23-19-12-8-17(9-13-19)21(22,16-6-4-3-5-7-16)18-10-14-20(24-2)15-11-18/h3-15H,1-2H3
CH$LINK: CAS 40615-36-9
AC$INSTRUMENT: Agilent 6546 Q-ToF
AC$INSTRUMENT_TYPE: ESI-QTOF
AC$MASS_SPECTROMETRY: MS_TYPE MS2
AC$MASS_SPECTROMETRY: ION_MODE POSITIVE
AC$MASS_SPECTROMETRY: IONIZATION ESI
AC$MASS_SPECTROMETRY: COLLISION_ENERGY 10
MS$FOCUSED_ION: PRECURSOR_M/Z 339.11462
PK$SPLASH: splash10-000i-1219000000-ceed2ccfde1543bc826c
PK$NUM_PEAK: 40
PK$PEAK: m/z int. rel.int.
  40.7146 33.46722 334
  81.0344 11.65871 116
  83.087 34.46591 344
  83.0925 14.81763 148
  111.0547 12.60312 125
  127.0759 11.65871 116
  131.0861 14.33999 143
  139.0515 12.74425 127
  157.108 30.0152 299
  159.0852 15.67521 156
  164.92 38.68867 386
  164.923 21.92792 219
  171.1356 13.03734 130
  204.1382 16.066 160
  271.1136 16.92358 169
  277.1378 15.13243 151
  280.1807 14.50282 144
  298.0933 22.09075 220
  298.1458 16.55449 165
  303.2326 34.45506 344
  304.3068 11.79983 117
  305.237 12.13634 121
  321.2406 49.64177 495
  322.3215 14.73079 147
  338.3423 29.63526 296
  339.0713 19.84368 198
  339.0877 14.81763 148
  339.0998 18.6713 186
  339.1063 20.44073 204
  339.1148 11.22449 112
  339.1214 30.70994 306
  339.1412 13.72123 137
  339.1699 44.46374 444
  339.1794 66.70647 666
  339.2142 12.38602 123
  339.2509 41.59792 415
  339.2868 23.63222 236
  339.3454 100 999
  340.1252 16.22883 162
  340.4004 10.85541 108
//
