ACCESSION: MSBNK-NILU-NL0309
RECORD_TITLE: UV-1130; LC-ESI-QTOF; MSn
DATE: 2024.09.19
AUTHORS: Environmental Chemistry section, NIVA
LICENSE: CC BY
CH$NAME: UV-1130
CH$NAME: Benzenepropanoic acid, 3-(2H-benzotriazol-2-yl)-5-(1,1-dimethylethyl)-4-hydroxy-, methyl ester
CH$COMPOUND_CLASS: Non-Natural Product; UV Stabilizer
CH$FORMULA: C20H23N3O3
CH$EXACT_MASS: 353.173941613
CH$SMILES: COC(=O)CCC1=CC(=C(O)C(=C1)N1N=C2C=CC=CC2=N1)C(C)(C)C
CH$IUPAC: InChI=1S/C20H23N3O3/c1-20(2,3)14-11-13(9-10-18(24)26-4)12-17(19(14)25)23-21-15-7-5-6-8-16(15)22-23/h5-8,11-12,25H,9-10H2,1-4H3
AC$INSTRUMENT: Waters G2-S QTOF
AC$INSTRUMENT_TYPE: LC-ESI-QTOF
AC$MASS_SPECTROMETRY: MS_TYPE MSn
AC$MASS_SPECTROMETRY: ION_MODE POSITIVE
MS$FOCUSED_ION: PRECURSOR_M/Z 354.1818
MS$FOCUSED_ION: PRECURSOR_TYPE [M+H]+
PK$SPLASH: splash10-00di-0092000000-fcddecd557ae64672081
PK$NUM_PEAK: 23
PK$PEAK: m/z int. rel.int.
  119.0500 5385 5
  167.0745 21310 22
  224.0833 947700 999
  225.0863 128300 135
  226.0869 11570 12
  236.1021 2264 2
  238.0988 12180 12
  264.1106 9211 9
  265.1213 25120 26
  266.0930 41490 43
  267.0978 3498 3
  280.1456 397600 419
  281.1485 53780 56
  282.1465 3217 3
  298.1199 332200 350
  299.1229 41650 43
  300.1284 3700 3
  322.1570 27500 28
  354.1825 382700 403
  355.1855 76670 80
  373.1787 951 1
  376.1634 41510 43
  377.1666 6463 6
//
