ACCESSION: MSBNK-NILU-NL0389
RECORD_TITLE: Bemotrizinol ; ESI-QTOF; MS2; CE: 40
DATE: 2024.11.15
AUTHORS: MILK, NILU
LICENSE: CC BY
CH$NAME: Bemotrizinol 
CH$NAME: Bis-ethylhexyloxyphenol Methoxyphenyl Triazine
CH$COMPOUND_CLASS: Non-natural product; UV filter
CH$FORMULA: C38H49N3O5
CH$EXACT_MASS: 627.36722
CH$SMILES: COC1C=CC(=CC=1)C1N=C(N=C(N=1)C1C=CC(=CC=1O)OCC(CCCC)CC)C1C=CC(=CC=1O)OCC(CCCC)CC
CH$IUPAC: InChI=1S/C38H49N3O5/c1-6-10-12-26(8-3)24-45-30-18-20-32(34(42)22-30)37-39-36(28-14-16-29(44-5)17-15-28)40-38(41-37)33-21-19-31(23-35(33)43)46-25-27(9-4)13-11-7-2/h14-23,26-27,42-43H,6-13,24-25H2,1-5H3
CH$LINK: CAS 187393-00-6
AC$INSTRUMENT: Agilent 6546 Q-ToF
AC$INSTRUMENT_TYPE: ESI-QTOF
AC$MASS_SPECTROMETRY: MS_TYPE MS2
AC$MASS_SPECTROMETRY: ION_MODE POSITIVE
AC$MASS_SPECTROMETRY: IONIZATION ESI
AC$MASS_SPECTROMETRY: COLLISION_ENERGY 40
AC$CHROMATOGRAPHY: RETENTION_TIME 9.28
MS$FOCUSED_ION: PRECURSOR_M/Z 628.37513
PK$SPLASH: splash10-0gdi-0510798000-582d901d3eb0d9d88b99
PK$NUM_PEAK: 12
PK$PEAK: m/z int. rel.int.
  134.0601 21.63985 216
  134.0675 1.742998 17
  136.0394 40.06118 400
  136.0463 2.802245 27
  248.1646 11.62101 116
  248.1742 1.297814 12
  404.1245 85.10574 850
  404.1676 3.369913 33
  516.2499 100 999
  516.298 3.837056 38
  628.3751 95.71085 956
  628.4276 3.738405 37
//
