ACCESSION: MSBNK-NILU-NL0267
RECORD_TITLE: PFUNS; LC-ESI-FT; MS2
DATE: 2024.12.10
AUTHORS: MILK, NILU
LICENSE: CC BY
COPYRIGHT: MILK, NILU
CH$NAME: PFUNS
CH$NAME: 1,1,2,2,3,3,4,4,5,5,6,6,7,7,8,8,9,9,10,10,11,11,11-tricosafluoroundecane-1-sulfonic acid
CH$COMPOUND_CLASS: Non-Natural Product; Perfluoroalkyl sulfonic acid
CH$FORMULA: C11HF23O3S
CH$EXACT_MASS: 649.9279128
CH$SMILES: C(C(C(C(C(C(F)(F)F)(F)F)(F)F)(F)F)(F)F)(C(C(C(C(C(F)(F)S(=O)(=O)O)(F)F)(F)F)(F)F)(F)F)(F)F
CH$IUPAC: InChI=1S/C11HF23O3S/c12-1(13,2(14,15)4(18,19)6(22,23)8(26,27)10(30,31)32)3(16,17)5(20,21)7(24,25)9(28,29)11(33,34)38(35,36)37/h(H,35,36,37)
AC$INSTRUMENT: Vanquish LC, Thermo Scientific; Exploris 120 Orbitrap, Thermo Scientific
AC$INSTRUMENT_TYPE: LC-ESI-FT
AC$MASS_SPECTROMETRY: MS_TYPE MS2
AC$MASS_SPECTROMETRY: ION_MODE NEGATIVE
AC$CHROMATOGRAPHY: RETENTION_TIME 8.39851930893262
MS$FOCUSED_ION: PRECURSOR_M/Z 648.91937
MS$FOCUSED_ION: PRECURSOR_TYPE [M-H]-
PK$SPLASH: splash10-0002-3000009000-e07d5c55c66a338a20a4
PK$NUM_PEAK: 15
PK$PEAK: m/z int. rel.int.
  79.95718 4254690.00 262
  82.96067 78768.00 5
  98.95557 1328673.00 82
  118.99249 74202.00 5
  125.14937 21479.00 1
  129.95412 134433.00 8
  144.13460 21616.00 1
  153.70493 23342.00 1
  168.98981 28696.00 2
  179.95067 26066.00 2
  190.12245 25803.00 2
  229.94873 111046.00 7
  279.94324 39830.00 2
  427.40454 22585.00 1
  648.91962 16195203.00 999
//
