ACCESSION: MSBNK-NILU-NL0330
RECORD_TITLE: Dimantine; ESI-QTOF; MS2; CE: 40
DATE: 2024.11.15
AUTHORS: MILK, NILU
LICENSE: CC BY
CH$NAME: Stearyldimethylamine
CH$NAME: Dimantine
CH$COMPOUND_CLASS: Non-natural product; Industrial chemical
CH$FORMULA: C20H43N
CH$EXACT_MASS: 297.33955
CH$SMILES: CCCCCCCCCCCCCCCCCCN(C)C
CH$IUPAC: InChI=1S/C20H43N/c1-4-5-6-7-8-9-10-11-12-13-14-15-16-17-18-19-20-21(2)3/h4-20H2,1-3H3
CH$LINK: CAS 124-28-7
CH$LINK: CHEMSPIDER 14626
AC$INSTRUMENT: Agilent 6546 Q-ToF
AC$INSTRUMENT_TYPE: ESI-QTOF
AC$MASS_SPECTROMETRY: MS_TYPE MS2
AC$MASS_SPECTROMETRY: ION_MODE POSITIVE
AC$MASS_SPECTROMETRY: IONIZATION ESI
AC$MASS_SPECTROMETRY: COLLISION_ENERGY 40
MS$FOCUSED_ION: PRECURSOR_M/Z 298.3468
PK$SPLASH: splash10-00di-9020000000-3afd141840b6e352b5bf
PK$NUM_PEAK: 32
PK$PEAK: m/z int. rel.int.
  41.0381 1.360563 13
  55.0537 4.212735 42
  57.0695 17.1334 171
  57.0752 1.273016 12
  69.0603 1.198132 11
  69.07 2.378645 23
  70.0653 1.532354 15
  71.0796 1.24053 12
  71.0854 100 999
  71.0903 2.735442 27
  71.0922 4.699476 46
  77.039 1.826381 18
  81.0697 2.589529 25
  85.101 33.39738 333
  87.0439 1.048916 10
  97.0648 1.1695 11
  117.0709 1.238878 12
  119.0336 1.720113 17
  121.0577 1.119395 11
  142.1589 1.634768 16
  147.0431 1.298894 12
  154.0878 1.846203 18
  166.0745 1.304951 13
  170.1914 1.407916 14
  174.1284 1.213549 12
  174.1333 1.362765 13
  175.0793 1.049467 10
  184.2036 1.081953 10
  212.2337 1.459673 14
  298.3467 46.57409 465
  298.357 5.911924 59
  299.3515 2.820236 28
//
