ACCESSION: MSBNK-NILU-NL0378
RECORD_TITLE: Bisphenol A bis(2-hydroxypropyl) ether; ESI-QTOF; MS2; CE: 10; [M+NH4]+
DATE: 2024.11.15
AUTHORS: MILK, NILU
LICENSE: CC BY
CH$NAME: Bisphenol A bis(2-hydroxypropyl) ether
CH$NAME: 1,1'-[Isopropylidenebis(p-phenyleneoxy)]di-2-propanol
CH$COMPOUND_CLASS: Non-natural product; Industrial chemical
CH$FORMULA: C21H28O4
CH$EXACT_MASS: 344.19876
CH$SMILES: CC(C)(C1C=CC(=CC=1)OCC(C)O)C1C=CC(=CC=1)OCC(C)O
CH$IUPAC: InChI=1S/C21H28O4/c1-15(22)13-24-19-9-5-17(6-10-19)21(3,4)18-7-11-20(12-8-18)25-14-16(2)23/h5-12,15-16,22-23H,13-14H2,1-4H3
CH$LINK: CAS 116-37-0
CH$LINK: CHEMSPIDER 8005
CH$LINK: KEGG C15208
AC$INSTRUMENT: Agilent 6546 Q-ToF
AC$INSTRUMENT_TYPE: ESI-QTOF
AC$MASS_SPECTROMETRY: MS_TYPE MS2
AC$MASS_SPECTROMETRY: ION_MODE POSITIVE
AC$MASS_SPECTROMETRY: IONIZATION ESI
AC$MASS_SPECTROMETRY: COLLISION_ENERGY 10
AC$CHROMATOGRAPHY: RETENTION_TIME 4.415
MS$FOCUSED_ION: PRECURSOR_M/Z 362.23261
MS$FOCUSED_ION: PRECURSOR_TYPE [M+NH4]+
PK$SPLASH: splash10-0006-0901000000-4897d0f8bf03de288fc2
PK$NUM_PEAK: 8
PK$PEAK: m/z int. rel.int.
  135.0805 8.358133 83
  175.1118 4.002384 39
  193.1225 100 999
  193.1529 3.725458 37
  309.1845 1.028272 10
  327.1954 3.720708 37
  345.206 4.233834 42
  362.2327 7.997122 79
//
