ACCESSION: MSBNK-NILU-NL0236
RECORD_TITLE: 4,4'-Thiodiphenol; ESI-QTOF; MS2; CE: 20
DATE: 2024.11.15
AUTHORS: MILK, NILU
LICENSE: CC BY
CH$NAME: 4,4'-Thiodiphenol
CH$NAME: Bisphenol T
CH$COMPOUND_CLASS: Non-natural product; Additive
CH$FORMULA: C12H10O2S
CH$EXACT_MASS: 218.04015
CH$SMILES: OC1C=CC(=CC=1)SC1C=CC(O)=CC=1
CH$IUPAC: InChI=1S/C12H10O2S/c13-9-1-5-11(6-2-9)15-12-7-3-10(14)4-8-12/h1-8,13-14H
CH$LINK: CAS 2664-63-3
AC$INSTRUMENT: Agilent 6546 Q-ToF
AC$INSTRUMENT_TYPE: ESI-QTOF
AC$MASS_SPECTROMETRY: MS_TYPE MS2
AC$MASS_SPECTROMETRY: ION_MODE NEGATIVE
AC$MASS_SPECTROMETRY: IONIZATION ESI
AC$MASS_SPECTROMETRY: COLLISION_ENERGY 20
MS$FOCUSED_ION: PRECURSOR_M/Z 217.03287
PK$SPLASH: splash10-00di-0910000000-87578a8ffe61e8e77ffe
PK$NUM_PEAK: 3
PK$PEAK: m/z int. rel.int.
  123.9989 100 999
  124.0066 1.63178 16
  217.0328 14.03845 140
//
