ACCESSION: MSBNK-NILU-NL0278
RECORD_TITLE: PFTRDA; LC-ESI-FT; MS2
DATE: 2024.12.10
AUTHORS: MILK, NILU
LICENSE: CC BY
COPYRIGHT: MILK, NILU
CH$NAME: PFTRDA
CH$NAME: 2,2,3,3,4,4,5,5,6,6,7,7,8,8,9,9,10,10,11,11,12,12,13,13,13-pentacosafluorotridecanoic acid
CH$COMPOUND_CLASS: Non-Natural Product; Perfluoroalkyl carboxylic acid
CH$FORMULA: C13HF25O2
CH$EXACT_MASS: 663.9577333
CH$SMILES: C(=O)(C(C(C(C(C(C(C(C(C(C(C(C(F)(F)F)(F)F)(F)F)(F)F)(F)F)(F)F)(F)F)(F)F)(F)F)(F)F)(F)F)(F)F)O
CH$IUPAC: InChI=1S/C13HF25O2/c14-2(15,1(39)40)3(16,17)4(18,19)5(20,21)6(22,23)7(24,25)8(26,27)9(28,29)10(30,31)11(32,33)12(34,35)13(36,37)38/h(H,39,40)
AC$INSTRUMENT: Vanquish LC, Thermo Scientific; Exploris 120 Orbitrap, Thermo Scientific
AC$INSTRUMENT_TYPE: LC-ESI-FT
AC$MASS_SPECTROMETRY: MS_TYPE MS2
AC$MASS_SPECTROMETRY: ION_MODE NEGATIVE
AC$CHROMATOGRAPHY: RETENTION_TIME 8.2048639124314
MS$FOCUSED_ION: PRECURSOR_M/Z 662.94971
MS$FOCUSED_ION: PRECURSOR_TYPE [M-H]-
PK$SPLASH: splash10-014i-0211009000-2244f2d2423635e0fb81
PK$NUM_PEAK: 15
PK$PEAK: m/z int. rel.int.
  81.11736 12719.00 2
  118.99242 336458.00 66
  119.94852 11804.00 2
  150.71750 11744.00 2
  168.98909 1026432.00 200
  172.28584 11454.00 2
  182.77283 12497.00 2
  218.98593 367618.00 72
  268.98257 411404.00 80
  318.97949 430978.00 84
  368.97610 421385.00 82
  418.97278 261834.00 51
  468.96915 24326.00 5
  618.95978 5126691.00 999
  662.95270 82173.00 16
//
