ACCESSION: MSBNK-NILU-NL0241
RECORD_TITLE: 1,1-Bis(4-hydroxy-3-methylphenyl)cyclohexane; ESI-QTOF; MS2; CE: 40
DATE: 2024.11.15
AUTHORS: MILK, NILU
LICENSE: CC BY
CH$NAME: 1,1-Bis(4-hydroxy-3-methylphenyl)cyclohexane
CH$NAME: Phenol, 4,4'-cyclohexylidenebis[2-methyl-
CH$COMPOUND_CLASS: Non-natural product; Industrial chemical
CH$FORMULA: C20H24O2
CH$EXACT_MASS: 296.17763
CH$SMILES: CC1=CC(=CC=C1O)C1(CCCCC1)C1C=C(C)C(O)=CC=1
CH$IUPAC: InChI=1S/C20H24O2/c1-14-12-16(6-8-18(14)21)20(10-4-3-5-11-20)17-7-9-19(22)15(2)13-17/h6-9,12-13,21-22H,3-5,10-11H2,1-2H3
CH$LINK: CAS 2362-14-3
AC$INSTRUMENT: Agilent 6546 Q-ToF
AC$INSTRUMENT_TYPE: ESI-QTOF
AC$MASS_SPECTROMETRY: MS_TYPE MS2
AC$MASS_SPECTROMETRY: ION_MODE NEGATIVE
AC$MASS_SPECTROMETRY: IONIZATION ESI
AC$MASS_SPECTROMETRY: COLLISION_ENERGY 40
MS$FOCUSED_ION: PRECURSOR_M/Z 295.17035
PK$SPLASH: splash10-0pbi-0980000000-0ceb85fc8d5650763a55
PK$NUM_PEAK: 28
PK$PEAK: m/z int. rel.int.
  114.9358 12.17338 121
  131.0486 12.35913 123
  133.0646 6.712075 67
  144.0581 12.31992 123
  159.0777 18.53044 185
  159.0816 61.69659 616
  159.0836 58.88545 588
  159.0895 9.031992 90
  159.0925 10.01858 100
  180.0797 13.69247 136
  187.1076 12.44169 124
  187.1128 100 999
  209.0623 9.316821 93
  221.0626 6.398348 63
  223.0582 7.545924 75
  225.0906 10.5387 105
  225.0943 28.60681 285
  235.0775 8.472652 84
  236.0845 31.58101 315
  239.1096 9.960784 99
  250.1022 6.454077 64
  251.1038 13.49432 134
  251.1074 98.75542 986
  251.1162 14.24149 142
  252.121 16.65428 166
  295.17 43.94221 438
  875.977 6.449948 64
  929.7535 12.14448 121
//
