ACCESSION: MSBNK-NILU-NL0250
RECORD_TITLE: 2,2'-Methylenebis(6-cyclohexyl-p-cresol); ESI-QTOF; MS2; CE: 10
DATE: 2024.11.15
AUTHORS: MILK, NILU
LICENSE: CC BY
CH$NAME: 2,2'-Methylenebis(6-cyclohexyl-p-cresol)
CH$NAME: Antioxidant ZKF
CH$COMPOUND_CLASS: Non-natural product; Additive
CH$FORMULA: C27H36O2
CH$EXACT_MASS: 392.27153
CH$SMILES: CC1=CC(CC2C=C(C)C=C(C3CCCCC3)C=2O)=C(O)C(=C1)C1CCCCC1
CH$IUPAC: InChI=1S/C27H36O2/c1-18-13-22(26(28)24(15-18)20-9-5-3-6-10-20)17-23-14-19(2)16-25(27(23)29)21-11-7-4-8-12-21/h13-16,20-21,28-29H,3-12,17H2,1-2H3
CH$LINK: CAS 4066-02-8
AC$INSTRUMENT: Agilent 6546 Q-ToF
AC$INSTRUMENT_TYPE: ESI-QTOF
AC$MASS_SPECTROMETRY: MS_TYPE MS2
AC$MASS_SPECTROMETRY: ION_MODE NEGATIVE
AC$MASS_SPECTROMETRY: IONIZATION ESI
AC$MASS_SPECTROMETRY: COLLISION_ENERGY 10
MS$FOCUSED_ION: PRECURSOR_M/Z 391.26425
PK$SPLASH: splash10-0006-0009000000-dd213df3a10b7badd93a
PK$NUM_PEAK: 3
PK$PEAK: m/z int. rel.int.
  189.1286 5.129339 51
  391.2647 100 999
  392.2676 5.336486 53
//
