ACCESSION: MSBNK-NILU-NL0270
RECORD_TITLE: PFPEA; LC-ESI-FT; MS2
DATE: 2024.12.10
AUTHORS: MILK, NILU
LICENSE: CC BY
COPYRIGHT: MILK, NILU
CH$NAME: PFPEA
CH$NAME: 2,2,3,3,4,4,5,5,5-nonafluoropentanoic acid
CH$COMPOUND_CLASS: Non-Natural Product; Perfluoroalkyl carboxylic acid
CH$FORMULA: C5HF9O2
CH$EXACT_MASS: 263.98328273
CH$SMILES: C(=O)(C(C(C(C(F)(F)F)(F)F)(F)F)(F)F)O
CH$IUPAC: InChI=1S/C5HF9O2/c6-2(7,1(15)16)3(8,9)4(10,11)5(12,13)14/h(H,15,16)
AC$INSTRUMENT: Vanquish LC, Thermo Scientific; Exploris 120 Orbitrap, Thermo Scientific
AC$INSTRUMENT_TYPE: LC-ESI-FT
AC$MASS_SPECTROMETRY: MS_TYPE MS2
AC$MASS_SPECTROMETRY: ION_MODE NEGATIVE
AC$CHROMATOGRAPHY: RETENTION_TIME 4.87623866256873
MS$FOCUSED_ION: PRECURSOR_M/Z 262.97556
MS$FOCUSED_ION: PRECURSOR_TYPE [M-H]-
PK$SPLASH: splash10-014i-1090000000-90d60ac0d98a93f3bf7c
PK$NUM_PEAK: 5
PK$PEAK: m/z int. rel.int.
  95.47527 31214.00 96
  95.74044 29062.00 89
  152.35399 28350.00 87
  205.98953 27032.00 83
  218.98610 325543.00 999
//
