ACCESSION: MSBNK-NILU-NL0180
RECORD_TITLE: 4-nonylphenol; LC-ESI-QFT; MS2; CE:20; [M-H]-
DATE: 2024.07.01
AUTHORS: MILK, NILU
LICENSE: CC BY
CH$NAME: 4-nonylphenol
CH$NAME: p-Nonylphenol
CH$COMPOUND_CLASS: Non-natural product; Additive 
CH$FORMULA: C15H24O
CH$EXACT_MASS: 220.18285
CH$SMILES: CCCCCCCCCC1=CC=C(C=C1)O
CH$IUPAC: InChI=1S/C15H24O/c1-2-3-4-5-6-7-8-9-14-10-12-15(16)13-11-14/h10-13,16H,2-9H2,1H3
AC$INSTRUMENT:  QExactive Plus Orbitrap
AC$INSTRUMENT_TYPE: LC-ESI-QFT
AC$MASS_SPECTROMETRY: MS_TYPE MS2
AC$MASS_SPECTROMETRY: ION_MODE NEGATIVE
AC$MASS_SPECTROMETRY: COLLISION_ENERGY 20
AC$CHROMATOGRAPHY: RETENTION_TIME 17.69980075
MS$FOCUSED_ION: PRECURSOR_M/Z 219.17557
MS$FOCUSED_ION: PRECURSOR_TYPE [M-H]-
PK$SPLASH: splash10-014i-0190000000-5fb08dae1a3cd32bc2c5
PK$NUM_PEAK: 20
PK$PEAK: m/z int. rel.int.
  57.80059 1873.00 1
  61.98824 13174.00 9
  67.58984 1912.00 1
  68.66651 9172.00 6
  68.81685 1772.00 1
  74.77667 1459.00 1
  90.20917 1761.00 1
  106.04256 132234.00 86
  107.05029 3457.00 2
  108.02192 24268.00 16
  119.05004 9068.00 6
  133.06590 3611.00 2
  138.03239 12263.00 8
  149.07051 1982.00 1
  160.32840 1695.00 1
  172.88388 4619.00 3
  176.28816 1914.00 1
  177.98840 1775.00 1
  186.87811 2157.00 1
  219.17557 1543541.00 999
//
