ACCESSION: MSBNK-NILU-NL0279
RECORD_TITLE: CLPFOS; LC-ESI-FT; MS2
DATE: 2024.12.10
AUTHORS: MILK, NILU
LICENSE: CC BY
COPYRIGHT: MILK, NILU
CH$NAME: CLPFOS
CH$NAME: 8-chloro-1,1,2,2,3,3,4,4,5,5,6,6,7,7,8,8-hexadecafluorooctane-1-sulfonic acid
CH$COMPOUND_CLASS: Non-Natural Product; New PFAS
CH$FORMULA: C8HClF16O3S
CH$EXACT_MASS: 515.9079434
CH$SMILES: C(C(C(C(C(F)(F)Cl)(F)F)(F)F)(F)F)(C(C(C(F)(F)S(=O)(=O)O)(F)F)(F)F)(F)F
CH$IUPAC: InChI=1S/C8HClF16O3S/c9-7(22,23)5(18,19)3(14,15)1(10,11)2(12,13)4(16,17)6(20,21)8(24,25)29(26,27)28/h(H,26,27,28)
AC$INSTRUMENT: Vanquish LC, Thermo Scientific; Exploris 120 Orbitrap, Thermo Scientific
AC$INSTRUMENT_TYPE: LC-ESI-FT
AC$MASS_SPECTROMETRY: MS_TYPE MS2
AC$MASS_SPECTROMETRY: ION_MODE NEGATIVE
AC$CHROMATOGRAPHY: RETENTION_TIME 7.35699245588779
MS$FOCUSED_ION: PRECURSOR_M/Z 514.89996
MS$FOCUSED_ION: PRECURSOR_TYPE [M-H]-
PK$SPLASH: splash10-03fr-6000090000-ebecce9a27edd5e220df
PK$NUM_PEAK: 10
PK$PEAK: m/z int. rel.int.
  79.95721 1398117.00 558
  82.96056 33341.00 13
  83.54147 13230.00 5
  89.35823 10229.00 4
  98.95557 438315.00 175
  129.95404 13285.00 5
  144.53381 11051.00 4
  325.07156 11341.00 5
  375.32104 10717.00 4
  514.89996 2505269.00 999
//
