ACCESSION: MSBNK-NILU-NL0255
RECORD_TITLE: MEFOSAA; LC-ESI-FT; MS2
DATE: 2024.12.10
AUTHORS: MILK, NILU
LICENSE: CC BY
COPYRIGHT: MILK, NILU
CH$NAME: MEFOSAA
CH$NAME: 2-[1,1,2,2,3,3,4,4,5,5,6,6,7,7,8,8,8-heptadecafluorooctylsulfonyl(methyl)amino]acetic acid
CH$COMPOUND_CLASS: Non-Natural Product; Perfluoroalkyl sulfonamide
CH$FORMULA: C11H6F17NO4S
CH$EXACT_MASS: 570.9746076
CH$SMILES: CN(CC(=O)O)S(=O)(=O)C(C(C(C(C(C(C(C(F)(F)F)(F)F)(F)F)(F)F)(F)F)(F)F)(F)F)(F)F
CH$IUPAC: InChI=1S/C11H6F17NO4S/c1-29(2-3(30)31)34(32,33)11(27,28)9(22,23)7(18,19)5(14,15)4(12,13)6(16,17)8(20,21)10(24,25)26/h2H2,1H3,(H,30,31)
AC$INSTRUMENT: Vanquish LC, Thermo Scientific; Exploris 120 Orbitrap, Thermo Scientific
AC$INSTRUMENT_TYPE: LC-ESI-FT
AC$MASS_SPECTROMETRY: MS_TYPE MS2
AC$MASS_SPECTROMETRY: ION_MODE NEGATIVE
AC$CHROMATOGRAPHY: RETENTION_TIME 7.05824558731715
MS$FOCUSED_ION: PRECURSOR_M/Z 569.96631
MS$FOCUSED_ION: PRECURSOR_TYPE [M-H]-
PK$SPLASH: splash10-014i-4000900000-980c0a3fd0f3d8eba1e2
PK$NUM_PEAK: 2
PK$PEAK: m/z int. rel.int.
  82.96068 108266.56 471
  418.97278 229564.19 999
//
