ACCESSION: MSBNK-NILU-NL0231
RECORD_TITLE: 4-((4-Isopropoxyphenyl)sulfonyl)phenol; ESI-QTOF; MS2; CE: 20
DATE: 2024.11.15
AUTHORS: MILK, NILU
LICENSE: CC BY
CH$NAME: 4-((4-Isopropoxyphenyl)sulfonyl)phenol
CH$NAME: 4-4-Isopropyloxypheol
CH$COMPOUND_CLASS: Non-natural product; Industrial chemical
CH$FORMULA: C15H16O4S
CH$EXACT_MASS: 292.07693
CH$SMILES: CC(C)OC1C=CC(=CC=1)S(=O)(=O)C1C=CC(O)=CC=1
CH$IUPAC: InChI=1S/C15H16O4S/c1-11(2)19-13-5-9-15(10-6-13)20(17,18)14-7-3-12(16)4-8-14/h3-11,16H,1-2H3
CH$LINK: CAS 95235-30-6
AC$INSTRUMENT: Agilent 6546 Q-ToF
AC$INSTRUMENT_TYPE: ESI-QTOF
AC$MASS_SPECTROMETRY: MS_TYPE MS2
AC$MASS_SPECTROMETRY: ION_MODE NEGATIVE
AC$MASS_SPECTROMETRY: IONIZATION ESI
AC$MASS_SPECTROMETRY: COLLISION_ENERGY 20
MS$FOCUSED_ION: PRECURSOR_M/Z 291.06964
PK$SPLASH: splash10-0002-0090000000-99d382c83b3243e47c33
PK$NUM_PEAK: 7
PK$PEAK: m/z int. rel.int.
  108.0215 1.238545 12
  156.0584 1.254348 12
  184.0532 7.8888 78
  248.0153 100 999
  249.0228 3.208732 32
  291.07 32.89864 328
  291.0809 2.029457 20
//
