ACCESSION: MSBNK-NILU-NL0209
RECORD_TITLE: 2,2'-Diallylbisphenol A; ESI-QTOF; MS2; CE: 40
DATE: 2024.11.15
AUTHORS: MILK, NILU
LICENSE: CC BY
CH$NAME: 2,2'-Diallylbisphenol A
CH$NAME: 4,4'-(Propane-2,2-diyl)bis(2-allylphenol)
CH$COMPOUND_CLASS: Non-Natural Product; Industrial Chemical
CH$FORMULA: C21H24O2
CH$EXACT_MASS: 308.17763
CH$SMILES: CC(C)(C1C=C(CC=C)C(O)=CC=1)C1C=C(CC=C)C(O)=CC=1
CH$IUPAC: InChI=1S/C21H24O2/c1-5-7-15-13-17(9-11-19(15)22)21(3,4)18-10-12-20(23)16(14-18)8-6-2/h5-6,9-14,22-23H,1-2,7-8H2,3-4H3
CH$LINK: CAS 1745-89-7
AC$INSTRUMENT: Agilent 6546 Q-ToF
AC$INSTRUMENT_TYPE: ESI-QTOF
AC$MASS_SPECTROMETRY: MS_TYPE MS2
AC$MASS_SPECTROMETRY: ION_MODE NEGATIVE
AC$MASS_SPECTROMETRY: IONIZATION ESI
AC$MASS_SPECTROMETRY: COLLISION_ENERGY 40
MS$FOCUSED_ION: PRECURSOR_M/Z 307.17035
PK$SPLASH: splash10-004l-0290000000-d89bcdcac608a31fc663
PK$NUM_PEAK: 48
PK$PEAK: m/z int. rel.int.
  93.0336 1.415311 14
  93.0356 2.99282 29
  93.0414 1.487649 14
  93.4693 1.887979 18
  100.9544 1.291752 12
  116.9495 1.922127 19
  119.0521 2.409622 24
  133.0663 12.16897 121
  150.9933 1.275577 12
  157.0643 3.169397 31
  157.0659 6.912107 69
  159.0803 1.416659 14
  171.083 2.082079 20
  173.0964 39.48447 394
  173.1072 1.840802 18
  174.0974 1.756333 17
  196.0896 2.916888 29
  221.0971 5.991032 59
  222.1019 4.207741 42
  222.1099 1.316913 13
  223.0697 1.440472 14
  233.0562 1.977391 19
  233.0604 2.786589 27
  235.1138 1.168193 11
  248.0864 5.706622 57
  248.0967 1.876297 18
  249.0893 2.434783 24
  249.0941 6.259717 62
  251.1036 1.349263 13
  251.1076 8.993736 89
  261.0887 5.273941 52
  262.1012 6.220178 62
  262.1062 1.172237 11
  263.1096 10.5672 105
  264.1204 4.673221 46
  265.1226 1.225255 12
  277.1236 100 999
  277.1312 9.900435 98
  277.135 6.705876 66
  277.1672 3.239938 32
  289.1238 1.386555 13
  291.1382 71.94136 718
  291.1459 8.523314 85
  291.1516 6.186929 61
  292.1444 3.72339 37
  292.1495 1.322754 13
  307.1721 14.26274 142
  307.1834 2.116676 21
//
