ACCESSION: MSBNK-NILU-NL0265
RECORD_TITLE: PFNS; LC-ESI-FT; MS2
DATE: 2024.12.10
AUTHORS: MILK, NILU
LICENSE: CC BY
COPYRIGHT: MILK, NILU
CH$NAME: PFNS
CH$NAME: 1,1,2,2,3,3,4,4,5,5,6,6,7,7,8,8,9,9,9-nonadecafluorononane-1-sulfonic acid
CH$COMPOUND_CLASS: Non-Natural Product; Perfluoroalkyl sulfonic acid
CH$FORMULA: C9HF19O3S
CH$EXACT_MASS: 549.9343001
CH$SMILES: C(C(C(C(C(F)(F)F)(F)F)(F)F)(F)F)(C(C(C(C(F)(F)S(=O)(=O)O)(F)F)(F)F)(F)F)(F)F
CH$IUPAC: InChI=1S/C9HF19O3S/c10-1(11,2(12,13)4(16,17)6(20,21)8(24,25)26)3(14,15)5(18,19)7(22,23)9(27,28)32(29,30)31/h(H,29,30,31)
AC$INSTRUMENT: Vanquish LC, Thermo Scientific; Exploris 120 Orbitrap, Thermo Scientific
AC$INSTRUMENT_TYPE: LC-ESI-FT
AC$MASS_SPECTROMETRY: MS_TYPE MS2
AC$MASS_SPECTROMETRY: ION_MODE NEGATIVE
AC$CHROMATOGRAPHY: RETENTION_TIME 7.60529875017007
MS$FOCUSED_ION: PRECURSOR_M/Z 548.92615
MS$FOCUSED_ION: PRECURSOR_TYPE [M-H]-
PK$SPLASH: splash10-0002-4000090000-dfa225f164f6aa4261ba
PK$NUM_PEAK: 13
PK$PEAK: m/z int. rel.int.
  79.95722 11744757.00 384
  81.77522 61110.00 2
  82.96054 284135.00 9
  98.95558 3742148.00 122
  118.99220 136387.00 4
  129.95374 197453.00 6
  168.98962 113930.00 4
  229.94696 145121.00 5
  308.72412 63023.00 2
  315.85815 48208.00 2
  398.27756 53259.00 2
  421.34702 58304.00 2
  548.92657 30571204.00 999
//
