ACCESSION: MSBNK-NILU-NL0262
RECORD_TITLE: PFHXS; LC-ESI-FT; MS2
DATE: 2024.12.10
AUTHORS: MILK, NILU
LICENSE: CC BY
COPYRIGHT: MILK, NILU
CH$NAME: PFHXS
CH$NAME: 1,1,2,2,3,3,4,4,5,5,6,6,6-tridecafluorohexane-1-sulfonic acid
CH$COMPOUND_CLASS: Non-Natural Product; Perfluoroalkyl sulfonic acid
CH$FORMULA: C6HF13O3S
CH$EXACT_MASS: 399.9438812
CH$SMILES: C(C(C(C(F)(F)S(=O)(=O)O)(F)F)(F)F)(C(C(F)(F)F)(F)F)(F)F
CH$IUPAC: InChI=1S/C6HF13O3S/c7-1(8,3(11,12)5(15,16)17)2(9,10)4(13,14)6(18,19)23(20,21)22/h(H,20,21,22)
AC$INSTRUMENT: Vanquish LC, Thermo Scientific; Exploris 120 Orbitrap, Thermo Scientific
AC$INSTRUMENT_TYPE: LC-ESI-FT
AC$MASS_SPECTROMETRY: MS_TYPE MS2
AC$MASS_SPECTROMETRY: ION_MODE NEGATIVE
AC$CHROMATOGRAPHY: RETENTION_TIME 6.51009647684097
MS$FOCUSED_ION: PRECURSOR_M/Z 398.93607
MS$FOCUSED_ION: PRECURSOR_TYPE [M-H]-
PK$SPLASH: splash10-002b-7009000000-a11f6dbaeb111ef357f3
PK$NUM_PEAK: 6
PK$PEAK: m/z int. rel.int.
  79.95721 3119148.00 644
  82.96074 67505.00 14
  98.95568 854618.00 177
  118.99243 102473.00 21
  168.98997 47795.00 10
  398.93613 4836297.00 999
//
