ACCESSION: MSBNK-NILU-NL0190
RECORD_TITLE: Bisphenol-G; LC-ESI-QFT; MS2; CE:20; [M-H]-
DATE: 2024.07.01
AUTHORS: MILK, NILU
LICENSE: CC BY
CH$NAME: Bisphenol-G
CH$NAME: 4-[2-(4-hydroxy-3-propan-2-ylphenyl)propan-2-yl]-2-propan-2-ylphenol
CH$COMPOUND_CLASS: Non-natural product; Additive 
CH$FORMULA: C21H28O2
CH$EXACT_MASS: 312.20931
CH$SMILES: CC(C)C1=C(C=CC(=C1)C(C)(C)C2=CC(=C(C=C2)O)C(C)C)O 
CH$IUPAC: InChI=1S/C21H28O2/c1-13(2)17-11-15(7-9-19(17)22)21(5,6)16-8-10-20(23)18(12-16)14(3)4/h7-14,22-23H,1-6H3
AC$INSTRUMENT:  QExactive Plus Orbitrap
AC$INSTRUMENT_TYPE: LC-ESI-QFT
AC$MASS_SPECTROMETRY: MS_TYPE MS2
AC$MASS_SPECTROMETRY: ION_MODE NEGATIVE
AC$MASS_SPECTROMETRY: COLLISION_ENERGY 20
AC$CHROMATOGRAPHY: RETENTION_TIME 16.60
MS$FOCUSED_ION: PRECURSOR_M/Z 311.20203
MS$FOCUSED_ION: PRECURSOR_TYPE [M-H]-
PK$SPLASH: splash10-03di-0309000000-6c9b5335acfa856b219e
PK$NUM_PEAK: 21
PK$PEAK: m/z int. rel.int.
  73.69611 1814.00 2
  79.95703 15400.00 17
  98.95601 3330.00 4
  119.05029 10280.00 11
  170.00429 10003.00 11
  175.11285 11526.00 13
  179.02061 2324.00 3
  183.01215 396130.00 439
  184.01987 31224.00 35
  197.02780 20965.00 23
  198.03604 5353.00 6
  211.04396 2777.00 3
  216.00917 6278.00 7
  225.05894 6906.00 8
  239.07468 4785.00 5
  267.10883 2541.00 3
  293.21283 4325.00 5
  295.17038 28838.00 32
  302.09555 2286.00 3
  311.16846 901810.00 999
  311.20215 512611.00 568
//
