ACCESSION: MSBNK-NILU-NL0199
RECORD_TITLE: D-Glucose; LC-ESI-QFT; MS2; CE:20; [M-H]-
DATE: 2024.11.18
AUTHORS: MILK, NILU
LICENSE: CC BY
CH$NAME: D-Glucose
CH$NAME: (3R,4S,5S,6R)-6-(hydroxymethyl)oxane-2,3,4,5-tetrol
CH$COMPOUND_CLASS: Natural product
CH$FORMULA: C6H12O6
CH$EXACT_MASS: 180.06339
CH$SMILES: C([C@@H]1[C@H]([C@@H]([C@H](C(O1)O)O)O)O)O
CH$IUPAC: InChI=1S/C6H12O6/c7-1-2-3(8)4(9)5(10)6(11)12-2/h2-11H,1H2/t2-,3-,4+,5-,6?/m1/s1
AC$INSTRUMENT:  QExactive Plus Orbitrap
AC$INSTRUMENT_TYPE: LC-ESI-QFT
AC$MASS_SPECTROMETRY: MS_TYPE MS2
AC$MASS_SPECTROMETRY: ION_MODE NEGATIVE
AC$MASS_SPECTROMETRY: COLLISION_ENERGY 20
AC$CHROMATOGRAPHY: RETENTION_TIME 4.75
MS$FOCUSED_ION: PRECURSOR_M/Z 179.0559
MS$FOCUSED_ION: PRECURSOR_TYPE [M-H]-
PK$SPLASH: splash10-0aor-9300000000-606ffd676598fc54d207
PK$NUM_PEAK: 13
PK$PEAK: m/z int. rel.int.
  59.01352 1886429 999
  71.01374 581992 308.21
  85.02943 91963 48.7
  89.02238 726538 384.75
  114.93403 40730 21.57
  115.92068 183371 97.11
  116.92849 674593 357.25
  117.92865 31097 16.47
  119.03488 343257 181.78
  127.00108 2452 1.3
  131.01353 30826 16.32
  143.92487 64492 34.15
  173.02751 1776 0.94
//