ACCESSION: MSBNK-NILU-NL0351
RECORD_TITLE: 2,4' Bisphenol-F; ESI-QTOF; MS2; CE: 10
DATE: 2024.11.15
AUTHORS: MILK, NILU
LICENSE: CC BY
CH$NAME: 2,4' Bisphenol-F
CH$NAME: 2,4'-Dihydroxydiphenylmethane
CH$COMPOUND_CLASS: Non-natural product; Additive
CH$FORMULA: C13H12O2
CH$EXACT_MASS: 200.08373
CH$SMILES: OC1C=CC(CC2=CC=CC=C2O)=CC=1
CH$IUPAC: InChI=1S/C13H12O2/c14-12-7-5-10(6-8-12)9-11-3-1-2-4-13(11)15/h1-8,14-15H,9H2
CH$LINK: CAS 2467-03-0
AC$INSTRUMENT: Agilent 6546 Q-ToF
AC$INSTRUMENT_TYPE: ESI-QTOF
AC$MASS_SPECTROMETRY: MS_TYPE MS2
AC$MASS_SPECTROMETRY: ION_MODE POSITIVE
AC$MASS_SPECTROMETRY: IONIZATION ESI
AC$MASS_SPECTROMETRY: COLLISION_ENERGY 10
MS$FOCUSED_ION: PRECURSOR_M/Z 298.3468
PK$SPLASH: splash10-0002-0090000000-c2f4abdc2b168a7c0a9d
PK$NUM_PEAK: 4
PK$PEAK: m/z int. rel.int.
  298.3472 100 999
  298.3576 3.146774 31
  298.3852 2.092388 20
  299.3502 2.59653 25
//
