ACCESSION: MSBNK-NILU-NL0297
RECORD_TITLE: UV-320; LC-ESI-QTOF; MSn
DATE: 2024.09.19
AUTHORS: Environmental Chemistry section, NIVA
LICENSE: CC BY
CH$NAME: 2-(2'-Hydroxy-3',5'-di-tert-butylphenyl)benzotriazole
CH$NAME: UV-320
CH$COMPOUND_CLASS: Non-Natural Product; UV Stabilizer
CH$FORMULA: C20H25N3O
CH$EXACT_MASS: 323.199762437
CH$SMILES: CC(C)(C)C1=CC(N2N=C3C=CC=CC3=N2)=C(O)C(=C1)C(C)(C)C
CH$IUPAC: InChI=1S/C20H25N3O/c1-19(2,3)13-11-14(20(4,5)6)18(24)17(12-13)23-21-15-9-7-8-10-16(15)22-23/h7-12,24H,1-6H3
AC$INSTRUMENT: Waters G2-S QTOF
AC$INSTRUMENT_TYPE: LC-ESI-QTOF
AC$MASS_SPECTROMETRY: MS_TYPE MSn
AC$MASS_SPECTROMETRY: ION_MODE POSITIVE
MS$FOCUSED_ION: PRECURSOR_M/Z 324.2076
MS$FOCUSED_ION: PRECURSOR_TYPE [M+H]+
PK$SPLASH: splash10-00di-0029000000-10a9f58421d7e4daef94
PK$NUM_PEAK: 10
PK$PEAK: m/z int. rel.int.
  210.0936 576 1
  212.0829 39730 82
  222.8844 628 1
  223.2128 720 1
  249.1040 503 1
  268.1459 144300 301
  269.1492 5050 10
  300.0857 565 1
  324.2080 478600 999
  325.2110 93380 194
//
