ACCESSION: MSBNK-NILU-NL0216
RECORD_TITLE: 1,1,1-Tris(4-hydroxyphenyl)ethane; ESI-QTOF; MS2; CE: 40
DATE: 2024.11.15
AUTHORS: MILK, NILU
LICENSE: CC BY
CH$NAME: 1,1,1-Tris(4-hydroxyphenyl)ethane
CH$NAME: TrisP-HAP
CH$COMPOUND_CLASS: Non-natural product; Industrial chemical
CH$FORMULA: C20H18O3
CH$EXACT_MASS: 306.1256
CH$SMILES: CC(C1C=CC(O)=CC=1)(C1C=CC(O)=CC=1)C1C=CC(O)=CC=1
CH$IUPAC: InChI=1S/C20H18O3/c1-20(14-2-8-17(21)9-3-14,15-4-10-18(22)11-5-15)16-6-12-19(23)13-7-16/h2-13,21-23H,1H3
CH$LINK: CAS 27955-94-8
AC$INSTRUMENT: Agilent 6546 Q-ToF
AC$INSTRUMENT_TYPE: ESI-QTOF
AC$MASS_SPECTROMETRY: MS_TYPE MS2
AC$MASS_SPECTROMETRY: ION_MODE NEGATIVE
AC$MASS_SPECTROMETRY: IONIZATION ESI
AC$MASS_SPECTROMETRY: COLLISION_ENERGY 40
MS$FOCUSED_ION: PRECURSOR_M/Z 305.11832
PK$SPLASH: splash10-000i-4190000000-3fe4a689a41520dec784
PK$NUM_PEAK: 11
PK$PEAK: m/z int. rel.int.
  59.0135 14.19322 141
  61.9882 9.242189 92
  93.0354 50.72276 506
  99.0079 10.24435 102
  182.0744 15.47376 154
  196.0521 12.15177 121
  211.077 24.75925 247
  248.0464 9.343231 93
  288.079 9.77008 97
  289.0869 100 999
  289.0903 11.45066 114
//
