ACCESSION: MSBNK-NILU-NL0204
RECORD_TITLE: D-(-)-Mannitol; LC-ESI-QFT; MS2; CE:20; [M-H]-
DATE: 2024.11.18
AUTHORS: MILK, NILU
LICENSE: CC BY
CH$NAME: D-(-)-Mannitol
CH$NAME: (2R,3R,4R,5R)-hexane-1,2,3,4,5,6-hexol
CH$COMPOUND_CLASS: Natural product
CH$FORMULA: C6H14O6
CH$EXACT_MASS: 182.07904
CH$SMILES: C([C@H]([C@H]([C@@H]([C@@H](CO)O)O)O)O)O
CH$IUPAC: InChI=1S/C6H14O6/c7-1-3(9)5(11)6(12)4(10)2-8/h3-12H,1-2H2/t3-,4-,5-,6-/m1/s1
AC$INSTRUMENT:  QExactive Plus Orbitrap
AC$INSTRUMENT_TYPE: LC-ESI-QFT
AC$MASS_SPECTROMETRY: MS_TYPE MS2
AC$MASS_SPECTROMETRY: ION_MODE NEGATIVE
AC$MASS_SPECTROMETRY: COLLISION_ENERGY 20
AC$CHROMATOGRAPHY: RETENTION_TIME 4.79
MS$FOCUSED_ION: PRECURSOR_M/Z 181.0715
MS$FOCUSED_ION: PRECURSOR_TYPE [M-H]-
PK$SPLASH: splash10-001i-3900000000-d3397b7705950e0234cc
PK$NUM_PEAK: 19
PK$PEAK: m/z int. rel.int.
  59.01351 1511050 182.21
  68.99558 35122 4.24
  73.0294 809986 97.67
  75.00866 16858 2.03
  82.96904 1748 0.21
  85.02941 309836 37.36
  89.02435 1237116 149.18
  96.96004 25131 3.03
  99.9258 463416 55.88
  102.02772 59912 7.22
  105.0171 133240 16.07
  113.02437 211767 25.54
  114.93398 67224 8.11
  116.92846 1297203 156.42
  119.03485 238277 28.73
  160.93536 20132 2.43
  163.06108 246572 29.73
  179.05611 18271 2.2
  181.07159 8284647 999
//