ACCESSION: MSBNK-NILU-NL0307
RECORD_TITLE: Octrizole; LC-ESI-QTOF; MSn
DATE: 2024.09.19
AUTHORS: Environmental Chemistry section, NIVA
LICENSE: CC BY
CH$NAME: Octrizole
CH$NAME: UV-329
CH$COMPOUND_CLASS: Non-Natural Product; UV stabilizer
CH$FORMULA: C20H25N3O
CH$EXACT_MASS: 323.199762437
CH$SMILES: CC(C)(C)CC(C)(C)C1=CC(N2N=C3C=CC=CC3=N2)=C(O)C=C1
CH$IUPAC: InChI=1S/C20H25N3O/c1-19(2,3)13-20(4,5)14-10-11-18(24)17(12-14)23-21-15-8-6-7-9-16(15)22-23/h6-12,24H,13H2,1-5H3
AC$INSTRUMENT: Waters G2-S QTOF
AC$INSTRUMENT_TYPE: LC-ESI-QTOF
AC$MASS_SPECTROMETRY: MS_TYPE MSn
AC$MASS_SPECTROMETRY: ION_MODE POSITIVE
MS$FOCUSED_ION: PRECURSOR_M/Z 324.2076
MS$FOCUSED_ION: PRECURSOR_TYPE [M+H]+
PK$SPLASH: splash10-00di-0019000000-a4efb8144c2fc07b310f
PK$NUM_PEAK: 10
PK$PEAK: m/z int. rel.int.
  108.2272 382 1
  212.0840 32140 124
  249.1985 611 2
  274.0992 11120 43
  297.1964 871 3
  299.9223 510 1
  301.7130 359 1
  302.0581 336 1
  324.2084 257300 999
  325.2106 60750 235
//
