ACCESSION: MSBNK-NILU-NL0198
RECORD_TITLE: Arabitol; LC-ESI-QFT; MS2; CE:20; [M-H]-
DATE: 2024.11.18
AUTHORS: MILK, NILU
LICENSE: CC BY
CH$NAME: Arabitol
CH$NAME: (2R,4R)-pentane-1,2,3,4,5-pentol
CH$COMPOUND_CLASS: Natural product
CH$FORMULA: C5H12O5
CH$EXACT_MASS: 152.06847
CH$SMILES: C([C@H](C([C@@H](CO)O)O)O)O
CH$IUPAC: InChI=1S/C5H12O5/c6-1-3(8)5(10)4(9)2-7/h3-10H,1-2H2/t3-,4-/m1/s1
AC$INSTRUMENT:  QExactive Plus Orbitrap
AC$INSTRUMENT_TYPE: LC-ESI-QFT
AC$MASS_SPECTROMETRY: MS_TYPE MS2
AC$MASS_SPECTROMETRY: ION_MODE NEGATIVE
AC$MASS_SPECTROMETRY: COLLISION_ENERGY 20
AC$CHROMATOGRAPHY: RETENTION_TIME 4.86
MS$FOCUSED_ION: PRECURSOR_M/Z 151.0611
MS$FOCUSED_ION: PRECURSOR_TYPE [M-H]-
PK$SPLASH: splash10-066r-9700000000-cb4b742915a232800673
PK$NUM_PEAK: 15
PK$PEAK: m/z int. rel.int.
  57.03423 10244 15.96
  59.01352 489517 762.68
  74.02386 248197 386.7
  85.02943 74329 115.81
  89.02292 221778 345.54
  92.03445 204148 318.07
  96.96004 21913 34.14
  105.03777 249164 388.21
  115.92068 104573 162.93
  116.92844 641194 999
  117.92863 6378 9.94
  118.92679 15382 23.97
  133.0506 3318 5.17
  141.92834 24328 37.9
  149.04536 19612 30.56
//