ACCESSION: MSBNK-NILU-NL0374
RECORD_TITLE: Metformin; ESI-QTOF; MS2; CE: 20
DATE: 2024.11.15
AUTHORS: MILK, NILU
LICENSE: CC BY
CH$NAME: Glucophage
CH$NAME: Metformin
CH$COMPOUND_CLASS: Non-natural product; Pharmaceutical
CH$FORMULA: C4H12ClN5
CH$EXACT_MASS: 165.07812
CH$SMILES: Cl.CN(C)C(=N)NC(N)=N
CH$IUPAC: InChI=1S/C4H11N5.ClH/c1-9(2)4(7)8-3(5)6;/h1-2H3,(H5,5,6,7,8);1H
CH$LINK: CAS 1115-70-4
AC$INSTRUMENT: Agilent 6546 Q-ToF
AC$INSTRUMENT_TYPE: ESI-QTOF
AC$MASS_SPECTROMETRY: MS_TYPE MS2
AC$MASS_SPECTROMETRY: ION_MODE POSITIVE
AC$MASS_SPECTROMETRY: IONIZATION ESI
AC$MASS_SPECTROMETRY: COLLISION_ENERGY 20
MS$FOCUSED_ION: PRECURSOR_M/Z 130.1087
PK$SPLASH: splash10-00dr-9000000000-08468b694e76b8d7d09b
PK$NUM_PEAK: 11
PK$PEAK: m/z int. rel.int.
  60.0553 6.183696 61
  68.0241 4.879314 48
  71.0602 100 999
  71.0661 6.58188 65
  85.0508 32.8992 328
  85.0571 2.76754 27
  88.0869 21.3387 213
  88.0929 1.518252 15
  96.0556 1.668916 16
  113.0822 9.406765 93
  130.1082 2.182416 21
//
