ACCESSION: MSBNK-NILU-NL0273
RECORD_TITLE: PFOA; LC-ESI-FT; MS2
DATE: 2024.12.10
AUTHORS: MILK, NILU
LICENSE: CC BY
COPYRIGHT: MILK, NILU
CH$NAME: PFOA
CH$NAME: 2,2,3,3,4,4,5,5,6,6,7,7,8,8,8-pentadecafluorooctanoic acid
CH$COMPOUND_CLASS: Non-Natural Product; Perfluoroalkyl carboxylic acid
CH$FORMULA: C8HF15O2
CH$EXACT_MASS: 413.9737017
CH$SMILES: C(=O)(C(C(C(C(C(C(C(F)(F)F)(F)F)(F)F)(F)F)(F)F)(F)F)(F)F)O
CH$IUPAC: InChI=1S/C8HF15O2/c9-2(10,1(24)25)3(11,12)4(13,14)5(15,16)6(17,18)7(19,20)8(21,22)23/h(H,24,25)
AC$INSTRUMENT: Vanquish LC, Thermo Scientific; Exploris 120 Orbitrap, Thermo Scientific
AC$INSTRUMENT_TYPE: LC-ESI-FT
AC$MASS_SPECTROMETRY: MS_TYPE MS2
AC$MASS_SPECTROMETRY: ION_MODE NEGATIVE
AC$CHROMATOGRAPHY: RETENTION_TIME 6.33564278192123
MS$FOCUSED_ION: PRECURSOR_M/Z 412.96576
MS$FOCUSED_ION: PRECURSOR_TYPE [M-H]-
PK$SPLASH: splash10-014i-0928000000-7b659ea62c9b0d25d60f
PK$NUM_PEAK: 9
PK$PEAK: m/z int. rel.int.
  62.65958 35877.00 8
  68.99556 115375.00 27
  118.99237 424743.00 98
  135.29114 40141.00 9
  168.98911 4022445.00 925
  218.98587 1422149.00 327
  263.20309 36706.00 8
  348.27487 39643.00 9
  368.97604 4344832.00 999
//
