ACCESSION: MSBNK-NILU-NL0312
RECORD_TITLE: Bisoctrizole; LC-ESI-QTOF; MSn
DATE: 2024.09.19
AUTHORS: Environmental Chemistry section, NIVA
LICENSE: CC BY
CH$NAME: Bisoctrizole
CH$NAME: UV-360
CH$COMPOUND_CLASS: Non-Natural Product; UV Stabilizer
CH$FORMULA: C41H50N6O2
CH$EXACT_MASS: 658.399524874
CH$SMILES: CC(C)(C)CC(C)(C)C1=CC(CC2=C(O)C(=CC(=C2)C(C)(C)CC(C)(C)C)N2N=C3C=CC=CC3=N2)=C(O)C(=C1)N1N=C2C=CC=CC2=N1
CH$IUPAC: InChI=1S/C41H50N6O2/c1-38(2,3)24-40(7,8)28-20-26(36(48)34(22-28)46-42-30-15-11-12-16-31(30)43-46)19-27-21-29(41(9,10)25-39(4,5)6)23-35(37(27)49)47-44-32-17-13-14-18-33(32)45-47/h11-18,20-23,48-49H,19,24-25H2,1-10H3
AC$INSTRUMENT: Waters G2-S QTOF
AC$INSTRUMENT_TYPE: LC-ESI-QTOF
AC$MASS_SPECTROMETRY: MS_TYPE MSn
AC$MASS_SPECTROMETRY: ION_MODE POSITIVE
MS$FOCUSED_ION: PRECURSOR_M/Z 659.4073
MS$FOCUSED_ION: PRECURSOR_TYPE [M+H]+
PK$SPLASH: splash10-052r-0029008000-a3e8f5540eff0829549c
PK$NUM_PEAK: 30
PK$PEAK: m/z int. rel.int.
  224.0828 2150000 165
  225.0852 317100 24
  226.0884 20490 1
  250.0983 179300 13
  251.1007 26580 2
  264.1136 103000 7
  265.1214 669600 51
  266.1277 379600 29
  267.1289 52720 4
  280.1411 27000 2
  324.2077 44760 3
  336.2095 13000000 999
  337.2108 4069000 312
  338.2134 358500 27
  338.6550 19910 1
  338.7842 16920 1
  435.1568 158900 12
  547.2824 766400 58
  548.2851 271800 20
  549.4735 20050 1
  565.5622 25680 1
  659.4091 9896000 760
  660.4112 5107000 392
  661.4136 1161000 89
  662.4149 143400 11
  680.3769 30070 2
  681.3892 633100 48
  682.3923 277700 21
  683.3917 57550 4
  697.3572 53310 4
//
