ACCESSION: MSBNK-NILU-NL0185
RECORD_TITLE: Bisphenol-AP; LC-ESI-QFT; MS2; CE:20; [M-H]-
DATE: 2024.07.01
AUTHORS: MILK, NILU
LICENSE: CC BY
CH$NAME: Bisphenol AP
CH$NAME: 4-[1-(4-hydroxyphenyl)-1-phenylethyl]phenol
CH$COMPOUND_CLASS: Non-natural product; Additive 
CH$FORMULA: C20H18O2
CH$EXACT_MASS: 290.13097
CH$SMILES: CC(C1=CC=CC=C1)(C2=CC=C(C=C2)O)C3=CC=C(C=C3)O
CH$IUPAC: InChI=1S/C20H18O2/c1-20(15-5-3-2-4-6-15,16-7-11-18(21)12-8-16)17-9-13-19(22)14-10-17/h2-14,21-22H,1H3
AC$INSTRUMENT:  QExactive Plus Orbitrap
AC$INSTRUMENT_TYPE: LC-ESI-QFT
AC$MASS_SPECTROMETRY: MS_TYPE MS2
AC$MASS_SPECTROMETRY: ION_MODE NEGATIVE
AC$MASS_SPECTROMETRY: COLLISION_ENERGY 20
AC$CHROMATOGRAPHY: RETENTION_TIME 15.73
MS$FOCUSED_ION: PRECURSOR_M/Z 289.12369
MS$FOCUSED_ION: PRECURSOR_TYPE [M-H]-
PK$SPLASH: splash10-000i-0090000000-4ba19d334ab7f12beadc
PK$NUM_PEAK: 8
PK$PEAK: m/z int. rel.int.
  93.03433 5930.00 6
  103.38277 1782.00 2
  195.08145 33023.00 31
  211.07654 29029.00 27
  256.96152 3274.00 3
  273.09229 105800.00 100
  274.10016 244441.00 231
  289.12360 1058234.00 999
//
