ACCESSION: MSBNK-NILU-NL0303
RECORD_TITLE: Quinoxyfen; LC-ESI-QTOF; MSn
DATE: 2024.09.19
AUTHORS: Environmental Chemistry section, NIVA
LICENSE: CC BY
CH$NAME: Quinoxyfen
CH$NAME: 5,7-dichloro-4-(4-fluorophenoxy)quinoline
CH$COMPOUND_CLASS: Non-Natural Product; Fungicide
CH$FORMULA: C15H8Cl2FNO
CH$EXACT_MASS: 306.9966974
CH$SMILES: FC1=CC=C(OC2=CC=NC3=CC(Cl)=CC(Cl)=C23)C=C1
CH$IUPAC: InChI=1S/C15H8Cl2FNO/c16-9-7-12(17)15-13(8-9)19-6-5-14(15)20-11-3-1-10(18)2-4-11/h1-8H
AC$INSTRUMENT: Waters G2-S QTOF
AC$INSTRUMENT_TYPE: LC-ESI-QTOF
AC$MASS_SPECTROMETRY: MS_TYPE MSn
AC$MASS_SPECTROMETRY: ION_MODE POSITIVE
MS$FOCUSED_ION: PRECURSOR_M/Z 308.0045
MS$FOCUSED_ION: PRECURSOR_TYPE [M+H]+
PK$SPLASH: splash10-0bt9-0119000000-21592bbfbf08fe152fa3
PK$NUM_PEAK: 38
PK$PEAK: m/z int. rel.int.
  150.0116 98670 17
  162.0116 448600 77
  164.0083 132700 23
  183.0605 25070 4
  183.9724 12720 2
  184.9797 60740 10
  196.9804 978800 169
  198.9774 615800 106
  201.9783 7114 1
  210.0705 59020 10
  213.9827 556400 96
  215.9800 351100 60
  217.9759 54240 9
  219.0233 17670 3
  225.0332 27160 4
  226.0419 8944 1
  227.0307 8671 1
  237.0590 160300 27
  238.0636 37070 6
  244.0325 117900 20
  245.0400 199400 34
  248.0395 7780 1
  253.0305 21950 3
  255.0249 13240 2
  256.0307 9781 1
  272.0279 601800 104
  274.0251 181400 31
  275.0279 30110 5
  280.0085 46320 8
  282.0058 31100 5
  287.9962 27440 4
  289.9958 15240 2
  308.0051 5757000 999
  309.0081 892600 154
  310.0021 3788000 657
  311.0051 517800 89
  311.9994 530700 92
  313.0006 66570 11
//
