ACCESSION: MSBNK-NILU-NL0259
RECORD_TITLE: 82FTS; LC-ESI-FT; MS2
DATE: 2024.12.10
AUTHORS: MILK, NILU
LICENSE: CC BY
COPYRIGHT: MILK, NILU
CH$NAME: 82FTS
CH$NAME: 3,3,4,4,5,5,6,6,7,7,8,8,9,9,10,10,10-heptadecafluorodecane-1-sulfonic acid
CH$COMPOUND_CLASS: Non-Natural Product; Fluorotelomer sulfonic acid
CH$FORMULA: C10H5F17O3S
CH$EXACT_MASS: 527.9687939
CH$SMILES: C(CS(=O)(=O)O)C(C(C(C(C(C(C(C(F)(F)F)(F)F)(F)F)(F)F)(F)F)(F)F)(F)F)(F)F
CH$IUPAC: InChI=1S/C10H5F17O3S/c11-3(12,1-2-31(28,29)30)4(13,14)5(15,16)6(17,18)7(19,20)8(21,22)9(23,24)10(25,26)27/h1-2H2,(H,28,29,30)
AC$INSTRUMENT: Vanquish LC, Thermo Scientific; Exploris 120 Orbitrap, Thermo Scientific
AC$INSTRUMENT_TYPE: LC-ESI-FT
AC$MASS_SPECTROMETRY: MS_TYPE MS2
AC$MASS_SPECTROMETRY: ION_MODE NEGATIVE
AC$CHROMATOGRAPHY: RETENTION_TIME 6.87892594592571
MS$FOCUSED_ION: PRECURSOR_M/Z 526.96051
MS$FOCUSED_ION: PRECURSOR_TYPE [M-H]-
PK$SPLASH: splash10-004i-9000070000-b3c5be938d135153f029
PK$NUM_PEAK: 11
PK$PEAK: m/z int. rel.int.
  63.25400 2079.00 12
  79.95718 90616.00 530
  80.96503 123379.00 722
  129.88800 1796.00 11
  138.24197 1831.00 11
  198.44049 1971.00 12
  278.42172 1920.00 11
  316.98410 3209.00 19
  486.94482 4487.00 26
  506.95474 12968.00 76
  526.96082 170782.00 999
//
