ACCESSION: MSBNK-NILU-NL0177
RECORD_TITLE: 4,4-Bisphenol F; LC-ESI-QFT; MS2; CE:20; [M-H]-
DATE: 2024.07.01
AUTHORS: MILK, NILU
LICENSE: CC BY
CH$NAME: 4,4-Bisphenol F
CH$NAME: 4-[(4-hydroxyphenyl)methyl]phenol
CH$COMPOUND_CLASS: Non-natural product; Additive 
CH$FORMULA: C13H12O2
CH$EXACT_MASS: 200.08377
CH$SMILES: C1=CC(=CC=C1CC2=CC=C(C=C2)O)O
CH$IUPAC: InChI=1S/C13H12O2/c14-12-5-1-10(2-6-12)9-11-3-7-13(15)8-4-11/h1-8,14-15H,9H2
AC$INSTRUMENT:  QExactive Plus Orbitrap
AC$INSTRUMENT_TYPE: LC-ESI-QFT
AC$MASS_SPECTROMETRY: MS_TYPE MS2
AC$MASS_SPECTROMETRY: ION_MODE NEGATIVE
AC$MASS_SPECTROMETRY: COLLISION_ENERGY 20
AC$CHROMATOGRAPHY: RETENTION_TIME 13.5885785
MS$FOCUSED_ION: PRECURSOR_M/Z 199.07649
MS$FOCUSED_ION: PRECURSOR_TYPE [M-H]-
PK$SPLASH: splash10-006x-9400000000-5d2dd73ba360117c06a6
PK$NUM_PEAK: 2
PK$PEAK: m/z int. rel.int.
  93.03458 25303.50 999
  123.04528 13922.00 550
//
