ACCESSION: MSBNK-NILU-NL0175
RECORD_TITLE: 2,4-Bisphenol F; LC-ESI-QFT; MS2; CE:20; [M-H]-
DATE: 2024.07.01
AUTHORS: MILK, NILU
LICENSE: CC BY
CH$NAME: 2,4-Bisphenol F
CH$NAME: 2-[(4-hydroxyphenyl)methyl]phenol
CH$COMPOUND_CLASS: Non-natural product; Additive
CH$FORMULA: C13H12O2
CH$EXACT_MASS: 200.08376
CH$SMILES: C1=CC=C(C(=C1)CC2=CC=C(C=C2)O)O
CH$IUPAC: InChI=1S/C13H12O2/c14-12-7-5-10(6-8-12)9-11-3-1-2-4-13(11)15/h1-8,14-15H,9H2
AC$INSTRUMENT:  QExactive Plus Orbitrap
AC$INSTRUMENT_TYPE: LC-ESI-QFT
AC$MASS_SPECTROMETRY: MS_TYPE MS2
AC$MASS_SPECTROMETRY: ION_MODE NEGATIVE
AC$MASS_SPECTROMETRY: COLLISION_ENERGY 20
AC$CHROMATOGRAPHY: RETENTION_TIME 13.8644593333333
MS$FOCUSED_ION: PRECURSOR_M/Z 199.07648
MS$FOCUSED_ION: PRECURSOR_TYPE [M-H]-
PK$SPLASH: splash10-0006-9300000000-ba36a44726698dd4a7b7
PK$NUM_PEAK: 4
PK$PEAK: m/z int. rel.int.
  93.03456 124339.75 999
  166.91057 7718.69 62
  184.92085 7552.38 61
  199.07695 30171.88 242
//
