ACCESSION: MSBNK-NILU-NL0363
RECORD_TITLE: Bisphenol A dimethacrylate; ESI-QTOF; MS2; CE: 10
DATE: 2024.11.15
AUTHORS: MILK, NILU
LICENSE: CC BY
CH$NAME: Bisphenol A dimethacrylate
CH$NAME: 4,4'-Isopropylidenediphenol dimethacrylate
CH$COMPOUND_CLASS: Non-natural product; Industrial chemical
CH$FORMULA: C23H24O4
CH$EXACT_MASS: 364.16746
CH$SMILES: CC(C)(C1C=CC(=CC=1)OC(=O)C(C)=C)C1C=CC(=CC=1)OC(=O)C(C)=C
CH$IUPAC: InChI=1S/C23H24O4/c1-15(2)21(24)26-19-11-7-17(8-12-19)23(5,6)18-9-13-20(14-10-18)27-22(25)16(3)4/h7-14H,1,3H2,2,4-6H3
CH$LINK: CAS 3253-39-2
CH$LINK: CHEMSPIDER 69197
CH$LINK: KEGG C14345
AC$INSTRUMENT: Agilent 6546 Q-ToF
AC$INSTRUMENT_TYPE: ESI-QTOF
AC$MASS_SPECTROMETRY: MS_TYPE MS2
AC$MASS_SPECTROMETRY: ION_MODE POSITIVE
AC$MASS_SPECTROMETRY: IONIZATION ESI
AC$MASS_SPECTROMETRY: COLLISION_ENERGY 10
MS$FOCUSED_ION: PRECURSOR_M/Z 365.17474
PK$SPLASH: splash10-0gb9-0069100030-5845784c8b2f5de94f79
PK$NUM_PEAK: 29
PK$PEAK: m/z int. rel.int.
  69.0326 7.750325 77
  94.0733 8.459038 84
  164.081 9.47009 94
  203.0537 11.3394 113
  203.1053 100 999
  203.1105 14.11248 140
  221.1513 7.493497 74
  231.1393 8.029909 80
  307.2124 9.06697 90
  321.69 17.87711 178
  347.2332 9.118985 91
  348.1518 15.41287 153
  356.7192 11.59623 115
  365.1039 84.78218 846
  365.2202 14.77568 147
  365.2571 17.49675 174
  365.3 16.90507 168
  365.7372 6.827048 68
  403.137 8.728868 87
  423.2273 7.613784 76
  443.257 8.328999 83
  488.2998 9.125487 91
  802.132 6.827048 68
  829.1499 27.88037 278
  829.1698 8.966189 89
  889.565 12.44148 124
  896.1748 13.67035 136
  903.5596 7.6658 76
  922.0179 11.4857 114
//
