ACCESSION: MSBNK-NILU-NL0239
RECORD_TITLE: 1,1-Bis(4-hydroxy-3-methylphenyl)cyclohexane; ESI-QTOF; MS2; CE: 10
DATE: 2024.11.15
AUTHORS: MILK, NILU
LICENSE: CC BY
CH$NAME: 1,1-Bis(4-hydroxy-3-methylphenyl)cyclohexane
CH$NAME: Phenol, 4,4'-cyclohexylidenebis[2-methyl-
CH$COMPOUND_CLASS: Non-natural product; Industrial chemical
CH$FORMULA: C20H24O2
CH$EXACT_MASS: 296.17763
CH$SMILES: CC1=CC(=CC=C1O)C1(CCCCC1)C1C=C(C)C(O)=CC=1
CH$IUPAC: InChI=1S/C20H24O2/c1-14-12-16(6-8-18(14)21)20(10-4-3-5-11-20)17-7-9-19(22)15(2)13-17/h6-9,12-13,21-22H,3-5,10-11H2,1-2H3
CH$LINK: CAS 2362-14-3
AC$INSTRUMENT: Agilent 6546 Q-ToF
AC$INSTRUMENT_TYPE: ESI-QTOF
AC$MASS_SPECTROMETRY: MS_TYPE MS2
AC$MASS_SPECTROMETRY: ION_MODE NEGATIVE
AC$MASS_SPECTROMETRY: IONIZATION ESI
AC$MASS_SPECTROMETRY: COLLISION_ENERGY 10
MS$FOCUSED_ION: PRECURSOR_M/Z 295.17035
PK$SPLASH: splash10-0002-0090000000-9eda076f950a16c1b277
PK$NUM_PEAK: 15
PK$PEAK: m/z int. rel.int.
  166.8763 1.004335 10
  294.904 1.108062 11
  295.1552 1.422024 14
  295.1701 100 999
  295.1828 7.024785 70
  295.2271 1.240662 12
  296.1741 5.02189 50
  673.546 1.029999 10
  766.2849 1.228257 12
  793.1657 1.311025 13
  866.5935 1.236171 12
  912.7483 1.59975 15
  955.9807 1.084537 10
  961.8104 1.114051 11
  980.0129 5.367932 53
//
