ACCESSION: MSBNK-NILU-NL0313
RECORD_TITLE: Tans-4,4'-Azodiphenol ; ESI-QTOF; MS2; CE: 40
DATE: 2024.11.15
AUTHORS: MILK, NILU
LICENSE: CC BY
CH$NAME: Tans-4,4'-Azodiphenol 
CH$NAME: 4,4'-Dihydroxyazobenzene
CH$COMPOUND_CLASS: Non-Natural Product; Industrial Chemical
CH$FORMULA: C12H10N2O2
CH$EXACT_MASS: 214.07423
CH$SMILES: OC1C=CC(=CC=1)N=NC1C=CC(O)=CC=1
CH$IUPAC: InChI=1S/C12H10N2O2/c15-11-5-1-9(2-6-11)13-14-10-3-7-12(16)8-4-10/h1-8,15-16H
CH$LINK: CAS 51437-66-2
AC$INSTRUMENT: Agilent 6546 Q-ToF
AC$INSTRUMENT_TYPE: ESI-QTOF
AC$MASS_SPECTROMETRY: MS_TYPE MS2
AC$MASS_SPECTROMETRY: ION_MODE POSITIVE
AC$MASS_SPECTROMETRY: IONIZATION ESI
AC$MASS_SPECTROMETRY: COLLISION_ENERGY 40
MS$FOCUSED_ION: PRECURSOR_M/Z 411.2067
PK$SPLASH: splash10-0a4i-2931000000-f5c876b248d58aece503
PK$NUM_PEAK: 36
PK$PEAK: m/z int. rel.int.
  80.0494 8.310777 83
  93.0573 25.98499 259
  93.0618 1.025771 10
  93.0642 1.563058 15
  105.0694 2.116838 21
  108.0443 100 999
  108.0506 4.433861 44
  108.0519 5.621405 56
  121.0286 1.138741 11
  165.0703 1.514255 15
  166.0767 1.371912 13
  167.0726 1.197712 11
  167.0849 3.10194 30
  169.1003 1.511091 15
  179.0862 1.43382 14
  181.1026 1.008599 10
  182.0716 2.793079 27
  182.0961 1.468841 14
  195.0804 10.5311 105
  196.088 1.376657 13
  197.0954 3.147354 31
  197.0978 1.100331 10
  198.0918 1.693426 16
  209.0969 2.192529 21
  210.0914 29.78554 297
  210.1032 5.729179 57
  211.0978 1.324239 13
  226.1232 11.13842 111
  303.1229 3.043648 30
  303.1272 3.833536 38
  304.1288 1.273176 12
  304.1336 4.950587 49
  304.1366 2.096504 20
  304.1429 1.009729 10
  379.1552 1.266624 12
  396.1784 5.366995 53
//
