ACCESSION: MSBNK-NILU-NL0302
RECORD_TITLE: 4,4'-(9H-Fluorene-9,9-diyl)bis(2-chloroaniline); LC-ESI-QTOF; MSn
DATE: 2024.09.19
AUTHORS: Environmental Chemistry section, NIVA
LICENSE: CC BY
CH$NAME: 9,9-Bis(4-amino-3-chlorophenyl)fluorene
CH$NAME: 4,4'-(9H-Fluorene-9,9-diyl)bis(2-chloroaniline)
CH$COMPOUND_CLASS: Non-Natural Product; Industrial chemical
CH$FORMULA: C25H18Cl2N2
CH$EXACT_MASS: 416.084704
CH$SMILES: NC1=C(Cl)C=C(C=C1)C1(C2=CC=CC=C2C2=CC=CC=C12)C1=CC(Cl)=C(N)C=C1
CH$IUPAC: InChI=1S/C25H18Cl2N2/c26-21-13-15(9-11-23(21)28)25(16-10-12-24(29)22(27)14-16)19-7-3-1-5-17(19)18-6-2-4-8-20(18)25/h1-14H,28-29H2
AC$INSTRUMENT: Waters G2-S QTOF
AC$INSTRUMENT_TYPE: LC-ESI-QTOF
AC$MASS_SPECTROMETRY: MS_TYPE MSn
AC$MASS_SPECTROMETRY: ION_MODE POSITIVE
MS$FOCUSED_ION: PRECURSOR_M/Z 417.0925
MS$FOCUSED_ION: PRECURSOR_TYPE [M+H]+
PK$SPLASH: splash10-014i-0020900000-46a2dd241fee04a55368
PK$NUM_PEAK: 43
PK$PEAK: m/z int. rel.int.
  102.1265 1028 2
  119.0510 2134 5
  226.0764 4585 11
  227.0858 5684 14
  229.0996 5272 13
  236.1192 615 1
  237.2287 567 1
  240.1562 652 1
  242.2842 394 1
  253.0888 1763 4
  255.1002 6051 15
  256.1126 509 1
  262.9341 607 1
  269.1810 570 1
  274.2739 443 1
  275.2017 497 1
  284.3230 505 1
  290.0740 123600 321
  291.0756 27320 71
  292.0709 43410 112
  299.1196 950 2
  300.0861 748 1
  301.0918 1383 3
  302.1059 1168 3
  312.0891 433 1
  313.2312 1179 3
  328.1082 11250 29
  329.1213 6181 16
  330.1228 5704 14
  338.0718 531 1
  339.1454 930 2
  343.1349 2182 5
  345.1385 11470 29
  346.1417 6446 16
  355.1090 1219 3
  370.2928 445 1
  376.9074 407 1
  383.1125 8358 21
  393.2255 759 1
  417.0924 384400 999
  418.0941 98430 255
  419.0899 249600 648
  420.0898 62380 162
//
