ACCESSION: MSBNK-NILU-NL0357
RECORD_TITLE: 2-(4,6-Diphenyl-1,3,5-triazin-2-yl)-5-methoxyphenol; ESI-QTOF; MS2; CE: 40
DATE: 2024.11.15
AUTHORS: MILK, NILU
LICENSE: CC BY
CH$NAME: 2-(4,6-Diphenyl-1,3,5-triazin-2-yl)-5-methoxyphenol
CH$NAME: UV-1579 
CH$COMPOUND_CLASS: Non-natural product; UV filer
CH$FORMULA: C22H17N3O2
CH$EXACT_MASS: 355.13208
CH$SMILES: COC1=CC(O)=C(C=C1)C1N=C(N=C(N=1)C1C=CC=CC=1)C1C=CC=CC=1
CH$IUPAC: InChI=1S/C22H17N3O2/c1-27-17-12-13-18(19(26)14-17)22-24-20(15-8-4-2-5-9-15)23-21(25-22)16-10-6-3-7-11-16/h2-14,26H,1H3
CH$LINK: CAS 106556-36-9
AC$INSTRUMENT: Agilent 6546 Q-ToF
AC$INSTRUMENT_TYPE: ESI-QTOF
AC$MASS_SPECTROMETRY: MS_TYPE MS2
AC$MASS_SPECTROMETRY: ION_MODE POSITIVE
AC$MASS_SPECTROMETRY: IONIZATION ESI
AC$MASS_SPECTROMETRY: COLLISION_ENERGY 40
AC$CHROMATOGRAPHY: RETENTION_TIME 5.77
MS$FOCUSED_ION: PRECURSOR_M/Z 356.13966
PK$SPLASH: splash10-0udi-0900000000-250bda0a3d53d93968a9
PK$NUM_PEAK: 10
PK$PEAK: m/z int. rel.int.
  77.0385 6.770617 67
  95.0491 1.232457 12
  102.0338 1.136187 11
  104.0498 100 999
  104.0722 3.648323 36
  117.0209 1.436018 14
  122.0601 2.518394 25
  132.0444 1.211853 12
  150.0554 63.89254 638
  150.0822 2.525285 25
//
