ACCESSION: MSBNK-NILU-NL0217
RECORD_TITLE: 1,1,1-Tris(4-hydroxyphenyl)ethane; ESI-QTOF; MS2; CE: 10
DATE: 2024.11.15
AUTHORS: MILK, NILU
LICENSE: CC BY
CH$NAME: 1,1,1-Tris(4-hydroxyphenyl)ethane
CH$NAME: TrisP-HAP
CH$COMPOUND_CLASS: Non-natural product; Industrial chemical
CH$FORMULA: C20H18O3
CH$EXACT_MASS: 306.1256
CH$SMILES: CC(C1C=CC(O)=CC=1)(C1C=CC(O)=CC=1)C1C=CC(O)=CC=1
CH$IUPAC: InChI=1S/C20H18O3/c1-20(14-2-8-17(21)9-3-14,15-4-10-18(22)11-5-15)16-6-12-19(23)13-7-16/h2-13,21-23H,1H3
CH$LINK: CAS 27955-94-8
AC$INSTRUMENT: Agilent 6546 Q-ToF
AC$INSTRUMENT_TYPE: ESI-QTOF
AC$MASS_SPECTROMETRY: MS_TYPE MS2
AC$MASS_SPECTROMETRY: ION_MODE NEGATIVE
AC$MASS_SPECTROMETRY: IONIZATION ESI
AC$MASS_SPECTROMETRY: COLLISION_ENERGY 10
MS$FOCUSED_ION: PRECURSOR_M/Z 305.11832
PK$SPLASH: splash10-0a4i-0119000010-7eb35dd59dd5005f51c6
PK$NUM_PEAK: 30
PK$PEAK: m/z int. rel.int.
  116.9729 2.177787 21
  141.0163 15.84015 158
  222.9359 1.307678 13
  245.0746 1.062668 10
  290.0952 8.758927 87
  290.1069 2.263289 22
  305.0681 1.624538 16
  305.087 1.46036 14
  305.1179 100 999
  305.1306 9.740764 97
  313.0784 1.192717 11
  315.0757 1.480119 14
  585.3253 1.756025 17
  593.1706 1.456049 14
  625.1453 1.587895 15
  831.0134 1.415454 14
  835.1888 1.223254 12
  835.2008 1.365877 13
  870.1847 1.601546 15
  877.1405 1.659745 16
  878.2153 2.000675 19
  882.0877 1.63352 16
  894.1456 1.600468 15
  898.5024 2.083663 20
  943.1005 1.147811 11
  956.9698 1.08566 10
  967.0046 1.077038 10
  980.0065 1.867393 18
  980.0181 3.799092 37
  995.0817 1.451738 14
//
