ACCESSION: MSBNK-NILU-NL0379
RECORD_TITLE: CAPROLACTAM; ESI-QTOF; MS2; CE: 10
DATE: 2024.11.15
AUTHORS: MILK, NILU
LICENSE: CC BY
CH$NAME: CAPROLACTAM
CH$NAME: 2-Perhydroazepinone
CH$COMPOUND_CLASS: Non-natural product; Industrial chemical
CH$FORMULA: C6H11NO
CH$EXACT_MASS: 113.084063972
CH$SMILES: OC1CCCCCN=1
CH$IUPAC: InChI=1S/C6H11NO/c8-6-4-2-1-3-5-7-6/h1-5H2,(H,7,8)
CH$LINK: CAS 105-60-2
CH$LINK: CHEMSPIDER 7480
CH$LINK: KEGG C06593
CH$LINK: PUBCHEM CID:7768
AC$INSTRUMENT: Agilent 6546 Q-ToF
AC$INSTRUMENT_TYPE: ESI-QTOF
AC$MASS_SPECTROMETRY: MS_TYPE MS2
AC$MASS_SPECTROMETRY: ION_MODE POSITIVE
AC$MASS_SPECTROMETRY: IONIZATION ESI
AC$MASS_SPECTROMETRY: COLLISION_ENERGY 10
MS$FOCUSED_ION: PRECURSOR_M/Z 114.0913
PK$SPLASH: splash10-03di-1900000000-5aacd619b851a9b67283
PK$NUM_PEAK: 7
PK$PEAK: m/z int. rel.int.
  69.0698 2.583725 25
  79.0539 5.442164 54
  96.0807 5.579052 55
  97.065 2.195738 21
  114.0914 100 999
  114.0982 8.162412 81
  114.1155 1.106124 11
//
