ACCESSION: MSBNK-NILU-NL0377
RECORD_TITLE: Bisphenol A bis(2-hydroxypropyl) ether; ESI-QTOF; MS2; CE: 40; [M+NH4]+
DATE: 2024.11.15
AUTHORS: MILK, NILU
LICENSE: CC BY
CH$NAME: Bisphenol A bis(2-hydroxypropyl) ether
CH$NAME: 1,1'-[Isopropylidenebis(p-phenyleneoxy)]di-2-propanol
CH$COMPOUND_CLASS: Non-natural product; Industrial chemical
CH$FORMULA: C21H28O4
CH$EXACT_MASS: 344.19876
CH$SMILES: CC(C)(C1C=CC(=CC=1)OCC(C)O)C1C=CC(=CC=1)OCC(C)O
CH$IUPAC: InChI=1S/C21H28O4/c1-15(22)13-24-19-9-5-17(6-10-19)21(3,4)18-7-11-20(12-8-18)25-14-16(2)23/h5-12,15-16,22-23H,13-14H2,1-4H3
CH$LINK: CAS 116-37-0
CH$LINK: CHEMSPIDER 8005
CH$LINK: KEGG C15208
AC$INSTRUMENT: Agilent 6546 Q-ToF
AC$INSTRUMENT_TYPE: ESI-QTOF
AC$MASS_SPECTROMETRY: MS_TYPE MS2
AC$MASS_SPECTROMETRY: ION_MODE POSITIVE
AC$MASS_SPECTROMETRY: IONIZATION ESI
AC$MASS_SPECTROMETRY: COLLISION_ENERGY 40
AC$CHROMATOGRAPHY: RETENTION_TIME 4.415
MS$FOCUSED_ION: PRECURSOR_M/Z 362.23261
MS$FOCUSED_ION: PRECURSOR_TYPE [M+NH4]+
PK$SPLASH: splash10-000i-0900000000-231c7b990e6e596deb8a
PK$NUM_PEAK: 10
PK$PEAK: m/z int. rel.int.
  95.0492 4.864462 48
  107.0492 28.10514 280
  107.0558 1.992556 19
  119.0491 1.583009 15
  121.0285 2.266915 22
  135.0806 100 999
  175.1119 2.162586 21
  193.1225 3.159235 31
  196.0881 4.254676 42
  254.1301 1.859576 18
//
