ACCESSION: MSBNK-NILU-NL0220
RECORD_TITLE: Pergafast 201; ESI-QTOF; MS2; CE: 40
DATE: 2024.11.15
AUTHORS: MILK, NILU
LICENSE: CC BY
CH$NAME: Pergafast 201
CH$NAME: 3-(3-Tosylureido)phenyl p-toluenesulfonate
CH$COMPOUND_CLASS: Non-natural product; Additive
CH$FORMULA: C21H20N2O6S2
CH$EXACT_MASS: 460.07628
CH$SMILES: CC1C=CC(=CC=1)S(=O)(=O)OC1C=C(C=CC=1)N=C(O)NS(=O)(=O)C1C=CC(C)=CC=1
CH$IUPAC: InChI=1S/C21H20N2O6S2/c1-15-6-10-19(11-7-15)30(25,26)23-21(24)22-17-4-3-5-18(14-17)29-31(27,28)20-12-8-16(2)9-13-20/h3-14H,1-2H3,(H2,22,23,24)
CH$LINK: CAS 232938-43-1
AC$INSTRUMENT: Agilent 6546 Q-ToF
AC$INSTRUMENT_TYPE: ESI-QTOF
AC$MASS_SPECTROMETRY: MS_TYPE MS2
AC$MASS_SPECTROMETRY: ION_MODE NEGATIVE
AC$MASS_SPECTROMETRY: IONIZATION ESI
AC$MASS_SPECTROMETRY: COLLISION_ENERGY 40
AC$CHROMATOGRAPHY: RETENTION_TIME 4.34
MS$FOCUSED_ION: PRECURSOR_M/Z 459.06912
PK$SPLASH: splash10-00di-0900000000-6a5ae4bcc78af651a8fe
PK$NUM_PEAK: 12
PK$PEAK: m/z int. rel.int.
  78.9731 2.258213 22
  79.9809 4.052277 40
  90.0477 1.117693 11
  106.0662 30.02663 299
  106.0731 1.982969 19
  107.0376 4.670627 46
  107.0502 1.04289 10
  108.0455 1.864395 18
  154.0093 5.687205 56
  170.0283 100 999
  171.0122 19.8155 197
  171.02 1.763958 17
//
