ACCESSION: MSBNK-Antwerp_Univ-AN116730
RECORD_TITLE: Di-n-butyl phosphate; LC-ESI-QTOF; MS2; CE: 30eV; R=7000; [M-H]-
DATE: 2021.08.09
AUTHORS: Belova L, Covaci A, University of Antwerp, Belgium; Caballero-Casero N, University of Cordoba, Spain.
LICENSE: CC BY
COPYRIGHT: Copyright (c) 2021 by Toxicological Center, University of Antwerp, Wilrijk, Belgium
COMMENT: CONFIDENCE Reference Standard (Level 1)
COMMENT: INTERNAL_ID 1167
COMMENT: HBM4EU - science and policy for a healthy future (https://www.hbm4eu.eu)
CH$NAME: Di-n-butyl phosphate
CH$NAME: Dibutyl phosphate
CH$NAME: dibutyl hydrogen phosphate
CH$COMPOUND_CLASS: N/A; Environmental Standard
CH$FORMULA: C8H19O4P
CH$EXACT_MASS: 210.1021
CH$SMILES: CCCCOP(=O)(O)OCCCC
CH$IUPAC: InChI=1S/C8H19O4P/c1-3-5-7-11-13(9,10)12-8-6-4-2/h3-8H2,1-2H3,(H,9,10)
CH$LINK: CAS 19069-28-4
CH$LINK: CHEBI CHEBI:166473
CH$LINK: PUBCHEM CID:7881
CH$LINK: INCHIKEY JYFHYPJRHGVZDY-UHFFFAOYSA-N
CH$LINK: CHEMSPIDER 7593
CH$LINK: COMPTOX DTXSID3040728
AC$INSTRUMENT: Agilent 6560 QTOF
AC$INSTRUMENT_TYPE: LC-ESI-QTOF
AC$MASS_SPECTROMETRY: MS_TYPE MS2
AC$MASS_SPECTROMETRY: ION_MODE NEGATIVE
AC$MASS_SPECTROMETRY: IONIZATION ESI
AC$MASS_SPECTROMETRY: FRAGMENTATION_MODE CID
AC$MASS_SPECTROMETRY: COLLISION_ENERGY 30 eV
AC$MASS_SPECTROMETRY: RESOLUTION 7000
AC$MASS_SPECTROMETRY: MASS_RANGE_M/Z 50-1471
AC$CHROMATOGRAPHY: FLOW_GRADIENT 50/50 isocratic
AC$CHROMATOGRAPHY: FLOW_RATE 200 uL/min
AC$CHROMATOGRAPHY: RETENTION_TIME 0.149 min
MS$FOCUSED_ION: BASE_PEAK 209.0954
MS$FOCUSED_ION: PRECURSOR_M/Z 209.0948
MS$FOCUSED_ION: PRECURSOR_TYPE [M-H]-
MS$FOCUSED_ION: PRECURSOR_INTENSITY 162959.48
MS$DATA_PROCESSING: RECALIBRATE loess on assigned fragments and MS1
MS$DATA_PROCESSING: REANALYZE Peaks with additional N2/O included
MS$DATA_PROCESSING: WHOLE RMassBank 3.1.1
PK$SPLASH: splash10-004i-9000000000-a7b1c67ebdde1c9fc768
PK$ANNOTATION: m/z tentative_formula formula_count mass error(ppm)
  62.9637 O2P- 1 62.9641 -6.72
  76.9779 CH2O2P- 1 76.9798 -24.42
  78.9583 O3P- 1 78.9591 -9.09
  96.9678 H2O4P- 1 96.9696 -18.91
  110.985 CH4O4P- 1 110.9853 -2.57
PK$NUM_PEAK: 5
PK$PEAK: m/z int. rel.int.
  62.9637 17622 137
  76.9779 246.1 1
  78.9583 127846.1 999
  96.9678 374.8 2
  110.985 253.2 1
//
