ACCESSION: MSBNK-Antwerp_Univ-AN124604
RECORD_TITLE: Benzotriazole; LC-ESI-QTOF; MS2; CE: 20eV; R=7000; [M+H]+
DATE: 2021.09.04
AUTHORS: Belova L, Covaci A, University of Antwerp, Belgium; Caballero-Casero N, University of Cordoba, Spain.
LICENSE: CC BY
COPYRIGHT: Copyright (c) 2021 by Toxicological Center, University of Antwerp, Wilrijk, Belgium
COMMENT: CONFIDENCE Reference Standard (Level 1)
COMMENT: INTERNAL_ID 1246
COMMENT: HBM4EU - science and policy for a healthy future (https://www.hbm4eu.eu)
CH$NAME: Benzotriazole
CH$NAME: 1H-Benzotriazole
CH$NAME: 2H-benzotriazole
CH$COMPOUND_CLASS: N/A; Environmental Standard
CH$FORMULA: C6H5N3
CH$EXACT_MASS: 119.0483
CH$SMILES: C1=CC2=NNN=C2C=C1
CH$IUPAC: InChI=1S/C6H5N3/c1-2-4-6-5(3-1)7-9-8-6/h1-4H,(H,7,8,9)
CH$LINK: CAS 95-14-7
CH$LINK: CHEBI CHEBI:75331
CH$LINK: PUBCHEM CID:7220
CH$LINK: INCHIKEY QRUDEWIWKLJBPS-UHFFFAOYSA-N
CH$LINK: CHEMSPIDER 6950
CH$LINK: COMPTOX DTXSID6020147
AC$INSTRUMENT: Agilent 6560 QTOF
AC$INSTRUMENT_TYPE: LC-ESI-QTOF
AC$MASS_SPECTROMETRY: MS_TYPE MS2
AC$MASS_SPECTROMETRY: ION_MODE POSITIVE
AC$MASS_SPECTROMETRY: IONIZATION ESI
AC$MASS_SPECTROMETRY: FRAGMENTATION_MODE CID
AC$MASS_SPECTROMETRY: COLLISION_ENERGY 20 eV
AC$MASS_SPECTROMETRY: RESOLUTION 7000
AC$MASS_SPECTROMETRY: MASS_RANGE_M/Z 51-945
AC$CHROMATOGRAPHY: COLUMN_NAME InfinityLab Poroshell 120 EC-C18 2.7µm, 3x100mm, Agilent Technologies
AC$CHROMATOGRAPHY: FLOW_GRADIENT 95/5 at 0 min, 50/50 at 3 min, 20/80 at 5 min, 2/98 at 16 min, 2/98 at 17 min, 95/5 at 17.1 min, 95/5 at 21 min
AC$CHROMATOGRAPHY: FLOW_RATE 300 uL/min
AC$CHROMATOGRAPHY: RETENTION_TIME 5.204 min
MS$FOCUSED_ION: BASE_PEAK 120.0537
MS$FOCUSED_ION: PRECURSOR_M/Z 120.0556
MS$FOCUSED_ION: PRECURSOR_TYPE [M+H]+
MS$FOCUSED_ION: PRECURSOR_INTENSITY 12522.08
MS$DATA_PROCESSING: RECALIBRATE loess on assigned fragments and MS1
MS$DATA_PROCESSING: REANALYZE Peaks with additional N2/O included
MS$DATA_PROCESSING: WHOLE RMassBank 3.1.1
PK$SPLASH: splash10-014i-9200000000-3720164a9e41fa5d7a07
PK$ANNOTATION: m/z tentative_formula formula_count mass error(ppm)
  64.0292 C5H4+ 1 64.0308 -24.16
  65.0371 C5H5+ 1 65.0386 -21.95
  92.0477 C6H6N+ 1 92.0495 -19.22
  120.0537 C6H6N3+ 1 120.0556 -16.12
PK$NUM_PEAK: 4
PK$PEAK: m/z int. rel.int.
  64.0292 247.7 41
  65.0371 5925 999
  92.0477 1802.1 303
  120.0537 2629.6 443
//
