ACCESSION: MSBNK-Antwerp_Univ-AN118403
RECORD_TITLE: Isodecyl diphenyl phosphate; LC-ESI-QTOF; MS2; CE: 15eV; R=7000; [M+H]+
DATE: 2021.08.09
AUTHORS: Belova L, Covaci A, University of Antwerp, Belgium; Caballero-Casero N, University of Cordoba, Spain.
LICENSE: CC BY
COPYRIGHT: Copyright (c) 2021 by Toxicological Center, University of Antwerp, Wilrijk, Belgium
COMMENT: CONFIDENCE Reference Standard (Level 1)
COMMENT: INTERNAL_ID 1184
COMMENT: HBM4EU - science and policy for a healthy future (https://www.hbm4eu.eu)
CH$NAME: Isodecyl diphenyl phosphate
CH$NAME: 8-methylnonyl diphenyl phosphate
CH$COMPOUND_CLASS: N/A; Environmental Standard
CH$FORMULA: C22H31O4P
CH$EXACT_MASS: 390.1960
CH$SMILES: CC(C)CCCCCCCOP(=O)(OC1=CC=CC=C1)OC2=CC=CC=C2
CH$IUPAC: InChI=1S/C22H31O4P/c1-20(2)14-8-4-3-5-13-19-24-27(23,25-21-15-9-6-10-16-21)26-22-17-11-7-12-18-22/h6-7,9-12,15-18,20H,3-5,8,13-14,19H2,1-2H3
CH$LINK: CAS 29761-21-5
CH$LINK: PUBCHEM CID:34697
CH$LINK: INCHIKEY RYUJRXVZSJCHDZ-UHFFFAOYSA-N
CH$LINK: CHEMSPIDER 31929
CH$LINK: COMPTOX DTXSID60274200
AC$INSTRUMENT: Agilent 6560 QTOF
AC$INSTRUMENT_TYPE: LC-ESI-QTOF
AC$MASS_SPECTROMETRY: MS_TYPE MS2
AC$MASS_SPECTROMETRY: ION_MODE POSITIVE
AC$MASS_SPECTROMETRY: IONIZATION ESI
AC$MASS_SPECTROMETRY: FRAGMENTATION_MODE CID
AC$MASS_SPECTROMETRY: COLLISION_ENERGY 15 eV
AC$MASS_SPECTROMETRY: RESOLUTION 7000
AC$MASS_SPECTROMETRY: MASS_RANGE_M/Z 57-1156
AC$CHROMATOGRAPHY: FLOW_GRADIENT 50/50 isocratic
AC$CHROMATOGRAPHY: FLOW_RATE 200 uL/min
AC$CHROMATOGRAPHY: RETENTION_TIME 0.107 min
MS$FOCUSED_ION: BASE_PEAK 251.0464
MS$FOCUSED_ION: PRECURSOR_M/Z 391.2033
MS$FOCUSED_ION: PRECURSOR_TYPE [M+H]+
MS$FOCUSED_ION: PRECURSOR_INTENSITY 114692.57
MS$DATA_PROCESSING: RECALIBRATE loess on assigned fragments and MS1
MS$DATA_PROCESSING: REANALYZE Peaks with additional N2/O included
MS$DATA_PROCESSING: WHOLE RMassBank 3.1.1
PK$SPLASH: splash10-0udi-0090000000-c6b261a154c003c696c6
PK$ANNOTATION: m/z tentative_formula formula_count mass error(ppm)
  57.0705 C4H9+ 1 57.0699 11.34
  71.0859 C5H11+ 1 71.0855 4.92
  77.0385 C6H5+ 1 77.0386 -0.74
  85.1006 C6H13+ 1 85.1012 -7.2
  95.0509 C6H7O+ 1 95.0491 18.61
  149.0225 C8H5O3+ 1 149.0233 -5.27
  151.0559 C12H7+ 1 151.0542 10.82
  152.0611 C12H8+ 2 152.0621 -6.39
  153.069 C12H9+ 2 153.0699 -5.5
  154.0723 C5H15O3P+ 1 154.0753 -19.66
  175.0124 C6H8O4P+ 1 175.0155 -17.73
  215.0263 C12H8O2P+ 1 215.0256 2.89
  233.0353 C12H10O3P+ 2 233.0362 -3.75
  251.0464 C12H12O4P+ 2 251.0468 -1.53
  252.0496 C12H13O4P+ 1 252.0546 -19.68
  309.1235 C16H22O4P+ 1 309.125 -4.97
PK$NUM_PEAK: 16
PK$PEAK: m/z int. rel.int.
  57.0705 4708.3 54
  71.0859 2484.2 28
  77.0385 1563.2 18
  85.1006 871.6 10
  95.0509 676.8 7
  149.0225 427.8 4
  151.0559 254.1 2
  152.0611 215.6 2
  153.069 2285.7 26
  154.0723 399.3 4
  175.0124 292.4 3
  215.0263 536.3 6
  233.0353 1070.8 12
  251.0464 85616.8 999
  252.0496 8043.1 93
  309.1235 253.4 2
//
