ACCESSION: MSBNK-Antwerp_Univ-AN113527
RECORD_TITLE: Mono(2-ethylhexyl) terephthalate; LC-ESI-QTOF; MS2; CE: 15eV; R=7000; [M-H]-
DATE: 2021.08.06
AUTHORS: Belova L, Covaci A, University of Antwerp, Belgium; Caballero-Casero N, University of Cordoba, Spain.
LICENSE: CC BY
COPYRIGHT: Copyright (c) 2021 by Toxicological Center, University of Antwerp, Wilrijk, Belgium
COMMENT: CONFIDENCE Reference Standard (Level 1)
COMMENT: INTERNAL_ID 1135
COMMENT: HBM4EU - science and policy for a healthy future (https://www.hbm4eu.eu)
CH$NAME: Mono(2-ethylhexyl) terephthalate
CH$NAME: 4-(2-ethylhexoxycarbonyl)benzoic acid
CH$COMPOUND_CLASS: N/A; Environmental Standard
CH$FORMULA: C16H22O4
CH$EXACT_MASS: 278.1518
CH$SMILES: CCCCC(CC)COC(=O)C1=CC=C(C=C1)C(=O)O
CH$IUPAC: InChI=1S/C16H22O4/c1-3-5-6-12(4-2)11-20-16(19)14-9-7-13(8-10-14)15(17)18/h7-10,12H,3-6,11H2,1-2H3,(H,17,18)
CH$LINK: CAS 155603-50-2
CH$LINK: CHEBI CHEBI:165208
CH$LINK: PUBCHEM CID:154683
CH$LINK: INCHIKEY HRUJAEJKCNCOGW-UHFFFAOYSA-N
CH$LINK: CHEMSPIDER 136267
CH$LINK: COMPTOX DTXSID80935240
AC$INSTRUMENT: Agilent 6560 QTOF
AC$INSTRUMENT_TYPE: LC-ESI-QTOF
AC$MASS_SPECTROMETRY: MS_TYPE MS2
AC$MASS_SPECTROMETRY: ION_MODE NEGATIVE
AC$MASS_SPECTROMETRY: IONIZATION ESI
AC$MASS_SPECTROMETRY: FRAGMENTATION_MODE CID
AC$MASS_SPECTROMETRY: COLLISION_ENERGY 15 eV
AC$MASS_SPECTROMETRY: RESOLUTION 7000
AC$MASS_SPECTROMETRY: MASS_RANGE_M/Z 52-1497
AC$CHROMATOGRAPHY: FLOW_GRADIENT 50/50 isocratic
AC$CHROMATOGRAPHY: FLOW_RATE 200 uL/min
AC$CHROMATOGRAPHY: RETENTION_TIME 0.148 min
MS$FOCUSED_ION: BASE_PEAK 277.1463
MS$FOCUSED_ION: PRECURSOR_M/Z 277.1445
MS$FOCUSED_ION: PRECURSOR_TYPE [M-H]-
MS$FOCUSED_ION: PRECURSOR_INTENSITY 236294.09
MS$DATA_PROCESSING: RECALIBRATE loess on assigned fragments and MS1
MS$DATA_PROCESSING: REANALYZE Peaks with additional N2/O included
MS$DATA_PROCESSING: WHOLE RMassBank 3.1.1
PK$SPLASH: splash10-001i-0190000000-f547f27831f777ef8818
PK$ANNOTATION: m/z tentative_formula formula_count mass error(ppm)
  76.0321 C6H4- 1 76.0318 3.34
  77.0396 C6H5- 1 77.0397 -0.44
  120.0217 C7H4O2- 1 120.0217 0.34
  121.0295 C7H5O2- 1 121.0295 -0.15
  127.1135 C8H15O- 1 127.1128 4.82
  189.1618 C14H21- 1 189.1649 -16.49
  233.1552 C15H21O2- 1 233.1547 1.98
  277.1448 C16H21O4- 1 277.1445 0.85
PK$NUM_PEAK: 8
PK$PEAK: m/z int. rel.int.
  76.0321 12760.6 78
  77.0396 467.8 2
  120.0217 25183.1 155
  121.0295 5282.3 32
  127.1135 306.7 1
  189.1618 204.6 1
  233.1552 162121.9 999
  277.1448 8369.4 51
//
