ACCESSION: MSBNK-Antwerp_Univ-METOX_N102016_9EE2
RECORD_TITLE: N-oleoyl-D-erythro-sphingosine; LC-ESI-QTOF; MS2; CE: 10eV; R=7000; [M+Na]+
DATE: 2022.04.07
AUTHORS: da Silva KM, Iturrospe E, van de Lavoir M, Robeyns R, University of Antwerp, Belgium
LICENSE: CC BY
COPYRIGHT: Copyright (c) 2021 by Toxicological Center, University of Antwerp, Wilrijk, Belgium
COMMENT: CONFIDENCE Standard compound
COMMENT: INTERNAL_ID 1020
CH$NAME: N-oleoyl-D-erythro-sphingosine
CH$NAME: N-(oleoyl)-ceramide
CH$NAME: (Z)-N-[(E,2S,3R)-1,3-dihydroxyoctadec-4-en-2-yl]octadec-9-enamide
CH$COMPOUND_CLASS: N/A; Metabolomics Standard
CH$FORMULA: C36H69NO3
CH$EXACT_MASS: 563.5277
CH$SMILES: CCCCCCCCCCCCC/C=C/[C@H]([C@H](CO)NC(=O)CCCCCCC/C=C\CCCCCCCC)O
CH$IUPAC: InChI=1S/C36H69NO3/c1-3-5-7-9-11-13-15-17-18-20-22-24-26-28-30-32-36(40)37-34(33-38)35(39)31-29-27-25-23-21-19-16-14-12-10-8-6-4-2/h17-18,29,31,34-35,38-39H,3-16,19-28,30,32-33H2,1-2H3,(H,37,40)/b18-17-,31-29+/t34-,35+/m0/s1
CH$LINK: CAS 5966-28-9
CH$LINK: CHEBI CHEBI:77996
CH$LINK: LIPIDMAPS LMSP02010003
CH$LINK: PUBCHEM CID:5283563
CH$LINK: INCHIKEY OBFSLMQLPNKVRW-RHPAUOISSA-N
CH$LINK: CHEMSPIDER 4446676
AC$INSTRUMENT: Agilent 6560 QTOF
AC$INSTRUMENT_TYPE: LC-ESI-QTOF
AC$MASS_SPECTROMETRY: MS_TYPE MS2
AC$MASS_SPECTROMETRY: ION_MODE POSITIVE
AC$MASS_SPECTROMETRY: IONIZATION ESI
AC$MASS_SPECTROMETRY: FRAGMENTATION_MODE CID
AC$MASS_SPECTROMETRY: COLLISION_ENERGY 10 eV
AC$MASS_SPECTROMETRY: RESOLUTION 7000
AC$MASS_SPECTROMETRY: MASS_RANGE_M/Z 97-1268
AC$CHROMATOGRAPHY: COLUMN_NAME Direct injection
AC$CHROMATOGRAPHY: FLOW_GRADIENT 50/50 isocratic
AC$CHROMATOGRAPHY: FLOW_RATE 200 uL/min
AC$CHROMATOGRAPHY: RETENTION_TIME 0.153 min
AC$CHROMATOGRAPHY: SOLVENT A 30/70 acetonitrile/water with 2mM ammonium acetate + 0.1% acetic acid
AC$CHROMATOGRAPHY: SOLVENT B 88/10/2 isopropanol/acetonitrile/water with 2mM ammonium acetate + 0.1% acetic acid
MS$FOCUSED_ION: BASE_PEAK 586.5186
MS$FOCUSED_ION: PRECURSOR_M/Z 586.517
MS$FOCUSED_ION: PRECURSOR_TYPE [M+Na]+
MS$FOCUSED_ION: PRECURSOR_INTENSITY 481622
MS$DATA_PROCESSING: RECALIBRATE loess on assigned fragments and MS1
MS$DATA_PROCESSING: REANALYZE Peaks with additional N2/O included
MS$DATA_PROCESSING: WHOLE RMassBank 3.5.2.1
PK$SPLASH: splash10-000i-0000090000-2ddb6ce1ddb120e1ffab
PK$ANNOTATION: m/z tentative_formula formula_count mass error(ppm)
  568.5084 C36H67NNaO2+ 1 568.5064 3.5
  586.5187 C36H69NNaO3+ 1 586.517 3.02
PK$NUM_PEAK: 2
PK$PEAK: m/z int. rel.int.
  568.5084 156.2 1
  586.5187 95362.5 999
//
