ACCESSION: MSBNK-Antwerp_Univ-AN116827
RECORD_TITLE: Diphenyl phosphate; LC-ESI-QTOF; MS2; CE: 15eV; R=7000; [M-H]-
DATE: 2021.08.09
AUTHORS: Belova L, Covaci A, University of Antwerp, Belgium; Caballero-Casero N, University of Cordoba, Spain.
LICENSE: CC BY
COPYRIGHT: Copyright (c) 2021 by Toxicological Center, University of Antwerp, Wilrijk, Belgium
COMMENT: CONFIDENCE Reference Standard (Level 1)
COMMENT: INTERNAL_ID 1168
COMMENT: HBM4EU - science and policy for a healthy future (https://www.hbm4eu.eu)
CH$NAME: Diphenyl phosphate
CH$NAME: diphenyl hydrogen phosphate
CH$COMPOUND_CLASS: N/A; Environmental Standard
CH$FORMULA: C12H11O4P
CH$EXACT_MASS: 250.0395
CH$SMILES: OP(=O)(OC1=CC=CC=C1)OC1=CC=CC=C1
CH$IUPAC: InChI=1S/C12H11O4P/c13-17(14,15-11-7-3-1-4-8-11)16-12-9-5-2-6-10-12/h1-10H,(H,13,14)
CH$LINK: CAS 838-85-7
CH$LINK: CHEBI CHEBI:166468
CH$LINK: PUBCHEM CID:13282
CH$LINK: INCHIKEY ASMQGLCHMVWBQR-UHFFFAOYSA-N
CH$LINK: CHEMSPIDER 12722
CH$LINK: COMPTOX DTXSID1048207
AC$INSTRUMENT: Agilent 6560 QTOF
AC$INSTRUMENT_TYPE: LC-ESI-QTOF
AC$MASS_SPECTROMETRY: MS_TYPE MS2
AC$MASS_SPECTROMETRY: ION_MODE NEGATIVE
AC$MASS_SPECTROMETRY: IONIZATION ESI
AC$MASS_SPECTROMETRY: FRAGMENTATION_MODE CID
AC$MASS_SPECTROMETRY: COLLISION_ENERGY 15 eV
AC$MASS_SPECTROMETRY: RESOLUTION 7000
AC$MASS_SPECTROMETRY: MASS_RANGE_M/Z 50-1498
AC$CHROMATOGRAPHY: FLOW_GRADIENT 50/50 isocratic
AC$CHROMATOGRAPHY: FLOW_RATE 200 uL/min
AC$CHROMATOGRAPHY: RETENTION_TIME 0.148 min
MS$FOCUSED_ION: BASE_PEAK 249.0352
MS$FOCUSED_ION: PRECURSOR_M/Z 249.0322
MS$FOCUSED_ION: PRECURSOR_TYPE [M-H]-
MS$FOCUSED_ION: PRECURSOR_INTENSITY 274958.14
MS$DATA_PROCESSING: RECALIBRATE loess on assigned fragments and MS1
MS$DATA_PROCESSING: REANALYZE Peaks with additional N2/O included
MS$DATA_PROCESSING: WHOLE RMassBank 3.1.1
PK$SPLASH: splash10-0007-9050000000-f508fd35acfb0974d702
PK$ANNOTATION: m/z tentative_formula formula_count mass error(ppm)
  62.9648 O2P- 1 62.9641 9.93
  65.0401 C5H5- 1 65.0397 6.84
  78.9592 O3P- 1 78.9591 1.62
  93.0347 C6H5O- 1 93.0346 1.44
  108.0192 C6H4O2- 1 108.0217 -23.4
  154.9903 C6H4O3P- 1 154.9904 -0.63
  173.0025 C6H6O4P- 1 173.0009 9.23
  249.0328 C12H10O4P- 1 249.0322 2.52
PK$NUM_PEAK: 8
PK$PEAK: m/z int. rel.int.
  62.9648 758.8 5
  65.0401 3146.9 22
  78.9592 4751.1 33
  93.0347 140556 999
  108.0192 303.7 2
  154.9903 9026.9 64
  173.0025 301.3 2
  249.0328 90184.2 640
//
