ACCESSION: MSBNK-Antwerp_Univ-METOX_N105122_E2CE
RECORD_TITLE: Tripalmitin; LC-ESI-QTOF; MS2; CE: 10eV; R=7000; [M+NH4]+
DATE: 2022.04.07
AUTHORS: da Silva KM, Iturrospe E, van de Lavoir M, Robeyns R, University of Antwerp, Belgium
LICENSE: CC BY
COPYRIGHT: Copyright (c) 2021 by Toxicological Center, University of Antwerp, Wilrijk, Belgium
COMMENT: CONFIDENCE Standard compound
COMMENT: INTERNAL_ID 1051
CH$NAME: Tripalmitin
CH$NAME: 2,3-di(hexadecanoyloxy)propyl hexadecanoate
CH$COMPOUND_CLASS: N/A; Metabolomics Standard
CH$FORMULA: C51H98O6
CH$EXACT_MASS: 806.7363
CH$SMILES: [H]C(COC(=O)CCCCCCCCCCCCCCC)(COC(=O)CCCCCCCCCCCCCCC)OC(=O)CCCCCCCCCCCCCCC
CH$IUPAC: InChI=1S/C51H98O6/c1-4-7-10-13-16-19-22-25-28-31-34-37-40-43-49(52)55-46-48(57-51(54)45-42-39-36-33-30-27-24-21-18-15-12-9-6-3)47-56-50(53)44-41-38-35-32-29-26-23-20-17-14-11-8-5-2/h48H,4-47H2,1-3H3
CH$LINK: CAS 555-44-2
CH$LINK: CHEBI CHEBI:77393
CH$LINK: LIPIDMAPS LMGL03010001
CH$LINK: PUBCHEM CID:11147
CH$LINK: INCHIKEY PVNIQBQSYATKKL-UHFFFAOYSA-N
CH$LINK: CHEMSPIDER 10674
AC$INSTRUMENT: Agilent 6560 QTOF
AC$INSTRUMENT_TYPE: LC-ESI-QTOF
AC$MASS_SPECTROMETRY: MS_TYPE MS2
AC$MASS_SPECTROMETRY: ION_MODE POSITIVE
AC$MASS_SPECTROMETRY: IONIZATION ESI
AC$MASS_SPECTROMETRY: FRAGMENTATION_MODE CID
AC$MASS_SPECTROMETRY: COLLISION_ENERGY 10 eV
AC$MASS_SPECTROMETRY: RESOLUTION 7000
AC$MASS_SPECTROMETRY: MASS_RANGE_M/Z 537-826
AC$CHROMATOGRAPHY: COLUMN_NAME Direct injection
AC$CHROMATOGRAPHY: FLOW_GRADIENT 50/50 isocratic
AC$CHROMATOGRAPHY: FLOW_RATE 200 uL/min
AC$CHROMATOGRAPHY: RETENTION_TIME 0.719 min
AC$CHROMATOGRAPHY: SOLVENT A 30/70 acetonitrile/water with 2mM ammonium acetate + 0.1% acetic acid
AC$CHROMATOGRAPHY: SOLVENT B 88/10/2 isopropanol/acetonitrile/water with 2mM ammonium acetate + 0.1% acetic acid
MS$FOCUSED_ION: BASE_PEAK 256.9649
MS$FOCUSED_ION: PRECURSOR_M/Z 824.7702
MS$FOCUSED_ION: PRECURSOR_TYPE [M+NH4]+
MS$FOCUSED_ION: PRECURSOR_INTENSITY 29818
MS$DATA_PROCESSING: RECALIBRATE loess on assigned fragments and MS1
MS$DATA_PROCESSING: REANALYZE Peaks with additional N2/O included
MS$DATA_PROCESSING: WHOLE RMassBank 3.5.2.1
PK$SPLASH: splash10-0udi-0000090010-d0ae5bee0f66092e938a
PK$ANNOTATION: m/z tentative_formula formula_count mass error(ppm)
  537.4931 C37H63NO+ 4 537.4904 5.02
  551.5025 C35H67O4+ 4 551.5034 -1.66
  552.5083 C35H68O4+ 4 552.5112 -5.29
  824.7735 C51H102NO6+ 1 824.7702 4.06
PK$NUM_PEAK: 4
PK$PEAK: m/z int. rel.int.
  537.4931 28.9 5
  551.5025 5652.5 999
  552.5083 758.3 134
  824.7735 1043.7 184
//
