ACCESSION: MSBNK-Antwerp_Univ-AN115532
RECORD_TITLE: Mono-hydroxy-isononyl phthalate; LC-ESI-QTOF; MS2; CE: 40eV; R=7000; [M-H]-
DATE: 2021.08.06
AUTHORS: Belova L, Covaci A, University of Antwerp, Belgium; Caballero-Casero N, University of Cordoba, Spain.
LICENSE: CC BY
COPYRIGHT: Copyright (c) 2021 by Toxicological Center, University of Antwerp, Wilrijk, Belgium
COMMENT: CONFIDENCE Reference Standard (Level 1)
COMMENT: INTERNAL_ID 1155
COMMENT: HBM4EU - science and policy for a healthy future (https://www.hbm4eu.eu)
CH$NAME: Mono-hydroxy-isononyl phthalate
CH$NAME: 1,2-Benzenedicarboxylic Acid 1-(7-Hydroxy-4-methyloctyl) Ester
CH$NAME: 2-(7-hydroxy-4-methyloctoxy)carbonylbenzoic acid
CH$COMPOUND_CLASS: N/A; Environmental Standard
CH$FORMULA: C17H24O5
CH$EXACT_MASS: 308.1624
CH$SMILES: CC(O)CCC(C)CCCOC(=O)C1=CC=CC=C1C(O)=O
CH$IUPAC: InChI=1S/C17H24O5/c1-12(9-10-13(2)18)6-5-11-22-17(21)15-8-4-3-7-14(15)16(19)20/h3-4,7-8,12-13,18H,5-6,9-11H2,1-2H3,(H,19,20)
CH$LINK: PUBCHEM CID:102401880
CH$LINK: INCHIKEY RWCHSWLUPRJYEX-UHFFFAOYSA-N
CH$LINK: CHEMSPIDER 48059182
CH$LINK: COMPTOX DTXSID501009361
AC$INSTRUMENT: Agilent 6560 QTOF
AC$INSTRUMENT_TYPE: LC-ESI-QTOF
AC$MASS_SPECTROMETRY: MS_TYPE MS2
AC$MASS_SPECTROMETRY: ION_MODE NEGATIVE
AC$MASS_SPECTROMETRY: IONIZATION ESI
AC$MASS_SPECTROMETRY: FRAGMENTATION_MODE CID
AC$MASS_SPECTROMETRY: COLLISION_ENERGY 40 eV
AC$MASS_SPECTROMETRY: RESOLUTION 7000
AC$MASS_SPECTROMETRY: MASS_RANGE_M/Z 50-1483
AC$CHROMATOGRAPHY: COLUMN_NAME ZORBAX Extend-C18 3.5um, 2.1x50mm, Agilent Technologies
AC$CHROMATOGRAPHY: FLOW_GRADIENT 80/20 at 0 min, 80/20 at 0.5 min, 5/95 at 6 min, 5/95 at 7 min, 80/20 at 7.1 min, 80/20 at 10 min
AC$CHROMATOGRAPHY: FLOW_RATE 350 uL/min
AC$CHROMATOGRAPHY: RETENTION_TIME 3.724 min
MS$FOCUSED_ION: BASE_PEAK 307.1547
MS$FOCUSED_ION: PRECURSOR_M/Z 307.1551
MS$FOCUSED_ION: PRECURSOR_TYPE [M-H]-
MS$FOCUSED_ION: PRECURSOR_INTENSITY 6974.34
MS$DATA_PROCESSING: RECALIBRATE loess on assigned fragments and MS1
MS$DATA_PROCESSING: REANALYZE Peaks with additional N2/O included
MS$DATA_PROCESSING: WHOLE RMassBank 3.1.1
PK$SPLASH: splash10-004i-9000000000-27d6228b4d809d3ac57e
PK$ANNOTATION: m/z tentative_formula formula_count mass error(ppm)
  75.0251 C6H3- 1 75.024 13.82
  77.0398 C6H5- 1 77.0397 1.36
  113.0967 C7H13O- 1 113.0972 -3.99
  121.028 C7H5O2- 1 121.0295 -12.72
PK$NUM_PEAK: 4
PK$PEAK: m/z int. rel.int.
  75.0251 641.8 149
  77.0398 4278.6 999
  113.0967 279.9 65
  121.028 259.8 60
//
