ACCESSION: MSBNK-Antwerp_Univ-AN117903
RECORD_TITLE: Tris(tert-butylphenyl) phosphate; LC-ESI-QTOF; MS2; CE: 15eV; R=7000; [M+H]+
DATE: 2021.08.09
AUTHORS: Belova L, Covaci A, University of Antwerp, Belgium; Caballero-Casero N, University of Cordoba, Spain.
LICENSE: CC BY
COPYRIGHT: Copyright (c) 2021 by Toxicological Center, University of Antwerp, Wilrijk, Belgium
COMMENT: CONFIDENCE Reference Standard (Level 1)
COMMENT: INTERNAL_ID 1179
COMMENT: HBM4EU - science and policy for a healthy future (https://www.hbm4eu.eu)
CH$NAME: Tris(tert-butylphenyl) phosphate
CH$NAME: tris(2-tert-butylphenyl) phosphate
CH$COMPOUND_CLASS: N/A; Environmental Standard
CH$FORMULA: C30H39O4P
CH$EXACT_MASS: 494.2586
CH$SMILES: CC(C)(C)C1=CC=CC=C1OP(=O)(OC2=CC=CC=C2C(C)(C)C)OC3=CC=CC=C3C(C)(C)C
CH$IUPAC: InChI=1S/C30H39O4P/c1-28(2,3)22-16-10-13-19-25(22)32-35(31,33-26-20-14-11-17-23(26)29(4,5)6)34-27-21-15-12-18-24(27)30(7,8)9/h10-21H,1-9H3
CH$LINK: CAS 28777-70-0
CH$LINK: PUBCHEM CID:3034371
CH$LINK: INCHIKEY SPUXJWDKFVXXBI-UHFFFAOYSA-N
CH$LINK: CHEMSPIDER 2298846
CH$LINK: COMPTOX DTXSID00951422
AC$INSTRUMENT: Agilent 6560 QTOF
AC$INSTRUMENT_TYPE: LC-ESI-QTOF
AC$MASS_SPECTROMETRY: MS_TYPE MS2
AC$MASS_SPECTROMETRY: ION_MODE POSITIVE
AC$MASS_SPECTROMETRY: IONIZATION ESI
AC$MASS_SPECTROMETRY: FRAGMENTATION_MODE CID
AC$MASS_SPECTROMETRY: COLLISION_ENERGY 15 eV
AC$MASS_SPECTROMETRY: RESOLUTION 7000
AC$MASS_SPECTROMETRY: MASS_RANGE_M/Z 57-914
AC$CHROMATOGRAPHY: FLOW_GRADIENT 50/50 isocratic
AC$CHROMATOGRAPHY: FLOW_RATE 200 uL/min
AC$CHROMATOGRAPHY: RETENTION_TIME 0.113 min
MS$FOCUSED_ION: BASE_PEAK 495.265
MS$FOCUSED_ION: PRECURSOR_M/Z 495.2659
MS$FOCUSED_ION: PRECURSOR_TYPE [M+H]+
MS$FOCUSED_ION: PRECURSOR_INTENSITY 110683.89
MS$DATA_PROCESSING: RECALIBRATE loess on assigned fragments and MS1
MS$DATA_PROCESSING: REANALYZE Peaks with additional N2/O included
MS$DATA_PROCESSING: WHOLE RMassBank 3.1.1
PK$SPLASH: splash10-0002-0002900000-1c1e2c4f5dbe50d6c7e7
PK$ANNOTATION: m/z tentative_formula formula_count mass error(ppm)
  57.0703 C4H9+ 1 57.0699 7.01
  215.0208 C12H8O2P+ 1 215.0256 -22.58
  283.1726 C19H23O2+ 1 283.1693 11.71
  327.0771 C18H16O4P+ 2 327.0781 -3.07
  328.0798 C18H17O4P+ 2 328.0859 -18.47
  383.1402 C22H24O4P+ 2 383.1407 -1.27
  384.1424 C22H25O4P+ 3 384.1485 -15.93
  399.0949 C28H16OP+ 2 399.0933 3.94
  439.2023 C26H32O4P+ 1 439.2033 -2.24
  440.2058 C26H33O4P+ 2 440.2111 -12.04
  495.2653 C30H40O4P+ 1 495.2659 -1.13
PK$NUM_PEAK: 11
PK$PEAK: m/z int. rel.int.
  57.0703 2255.9 42
  215.0208 258 4
  283.1726 323 6
  327.0771 6245.9 117
  328.0798 956.7 18
  383.1402 8758.4 165
  384.1424 1545.4 29
  399.0949 207.1 3
  439.2023 18403.1 346
  440.2058 2656.9 50
  495.2653 52982.4 999
//
