ACCESSION: MSBNK-Antwerp_Univ-METOX_P102301_F638
RECORD_TITLE: N-ACETYLPROLINE; LC-ESI-QTOF; MS2; CE: 10eV; R=5000; [M+H]+
DATE: 2021.12.15
AUTHORS: da Silva KM, Iturrospe E, van de Lavoir M, Robeyns R, University of Antwerp, Belgium
LICENSE: CC BY
COPYRIGHT: Copyright (c) 2021 by Toxicological Center, University of Antwerp, Wilrijk, Belgium
COMMENT: CONFIDENCE Standard compound
COMMENT: INTERNAL_ID 1023
CH$NAME: N-ACETYLPROLINE
CH$NAME: N-Acetyl-L-proline
CH$NAME: (2S)-1-acetylpyrrolidine-2-carboxylic acid
CH$COMPOUND_CLASS: N/A; Metabolomics Standard
CH$FORMULA: C7H11NO3
CH$EXACT_MASS: 157.0739
CH$SMILES: [H][C@]1(CCCN1C(C)=O)C(O)=O
CH$IUPAC: InChI=1S/C7H11NO3/c1-5(9)8-4-2-3-6(8)7(10)11/h6H,2-4H2,1H3,(H,10,11)/t6-/m0/s1
CH$LINK: CAS 68-95-1
CH$LINK: CHEBI CHEBI:21560
CH$LINK: PUBCHEM CID:66141
CH$LINK: INCHIKEY GNMSLDIYJOSUSW-LURJTMIESA-N
CH$LINK: CHEMSPIDER 59528
CH$LINK: COMPTOX DTXSID00910312
AC$INSTRUMENT: Agilent 6530 QTOF
AC$INSTRUMENT_TYPE: LC-ESI-QTOF
AC$MASS_SPECTROMETRY: MS_TYPE MS2
AC$MASS_SPECTROMETRY: ION_MODE POSITIVE
AC$MASS_SPECTROMETRY: IONIZATION ESI
AC$MASS_SPECTROMETRY: FRAGMENTATION_MODE CID
AC$MASS_SPECTROMETRY: COLLISION_ENERGY 10 eV
AC$MASS_SPECTROMETRY: RESOLUTION 5000
AC$MASS_SPECTROMETRY: MASS_RANGE_M/Z 40-999
AC$CHROMATOGRAPHY: COLUMN_NAME N/A
AC$CHROMATOGRAPHY: FLOW_GRADIENT 50/50 isocratic
AC$CHROMATOGRAPHY: FLOW_RATE 200 uL/min
AC$CHROMATOGRAPHY: RETENTION_TIME 0.254 min
AC$CHROMATOGRAPHY: SOLVENT A 90/10 water with 10mM ammonium formate + 0.1% formic acid/methanol
AC$CHROMATOGRAPHY: SOLVENT B acetonitrile
MS$FOCUSED_ION: BASE_PEAK 158.0812
MS$FOCUSED_ION: PRECURSOR_M/Z 158.0812
MS$FOCUSED_ION: PRECURSOR_TYPE [M+H]+
MS$FOCUSED_ION: PRECURSOR_INTENSITY 3169697
MS$DATA_PROCESSING: RECALIBRATE loess on assigned fragments and MS1
MS$DATA_PROCESSING: REANALYZE Peaks with additional N2/O included
MS$DATA_PROCESSING: WHOLE RMassBank 3.4.0
PK$SPLASH: splash10-00di-9500000000-2f8300bc89411b2ef6bc
PK$ANNOTATION: m/z tentative_formula formula_count mass error(ppm)
  41.0382 C3H5+ 1 41.0386 -10.29
  43.0176 C2H3O+ 1 43.0178 -5.37
  68.0467 CH8O3+ 1 68.0468 -1.77
  70.0641 C4H8N+ 2 70.0651 -14.78
  71.0688 CH11O3+ 1 71.0703 -20.84
  112.0731 C6H10NO+ 1 112.0757 -23.24
  116.068 C5H10NO2+ 1 116.0706 -22.17
  140.0675 C7H10NO2+ 1 140.0706 -21.99
  158.0774 C7H12NO3+ 1 158.0812 -23.75
PK$NUM_PEAK: 9
PK$PEAK: m/z int. rel.int.
  41.0382 277.6 1
  43.0176 7221.6 27
  68.0467 318 1
  70.0641 266074.7 999
  71.0688 719.9 2
  112.0731 91563.9 343
  116.068 39573.3 148
  140.0675 4780.8 17
  158.0774 21123.3 79
//
