ACCESSION: MSBNK-Antwerp_Univ-AN119106
RECORD_TITLE: Bis(2-chloroethyl) phosphate; LC-ESI-QTOF; MS2; CE: 30eV; R=7000; [M+H]+
DATE: 2021.08.11
AUTHORS: Belova L, Covaci A, University of Antwerp, Belgium; Caballero-Casero N, University of Cordoba, Spain.
LICENSE: CC BY
COPYRIGHT: Copyright (c) 2021 by Toxicological Center, University of Antwerp, Wilrijk, Belgium
COMMENT: CONFIDENCE Reference Standard (Level 1)
COMMENT: INTERNAL_ID 1191
COMMENT: HBM4EU - science and policy for a healthy future (https://www.hbm4eu.eu)
CH$NAME: Bis(2-chloroethyl) phosphate
CH$NAME: bis(2-chloroethyl) hydrogen phosphate
CH$COMPOUND_CLASS: N/A; Environmental Standard
CH$FORMULA: C4H9Cl2O4P
CH$EXACT_MASS: 221.9616
CH$SMILES: C(CCl)OP(=O)(O)OCCCl
CH$IUPAC: InChI=1S/C4H9Cl2O4P/c5-1-3-9-11(7,8)10-4-2-6/h1-4H2,(H,7,8)
CH$LINK: CAS 3040-56-0
CH$LINK: CHEBI CHEBI:166471
CH$LINK: PUBCHEM CID:76438
CH$LINK: INCHIKEY PMGHIGLOERPWGC-UHFFFAOYSA-N
CH$LINK: CHEMSPIDER 68910
CH$LINK: COMPTOX DTXSID50184485
AC$INSTRUMENT: Agilent 6560 QTOF
AC$INSTRUMENT_TYPE: LC-ESI-QTOF
AC$MASS_SPECTROMETRY: MS_TYPE MS2
AC$MASS_SPECTROMETRY: ION_MODE POSITIVE
AC$MASS_SPECTROMETRY: IONIZATION ESI
AC$MASS_SPECTROMETRY: FRAGMENTATION_MODE CID
AC$MASS_SPECTROMETRY: COLLISION_ENERGY 30 eV
AC$MASS_SPECTROMETRY: RESOLUTION 7000
AC$MASS_SPECTROMETRY: MASS_RANGE_M/Z 62-302
AC$CHROMATOGRAPHY: COLUMN_NAME ZORBAX Extend-C18 3.5um, 2.1x50mm, Agilent Technologies
AC$CHROMATOGRAPHY: FLOW_GRADIENT 80/20 at 0 min, 80/20 at 0.5 min, 5/95 at 6 min, 5/95 at 7 min, 80/20 at 7.1 min, 80/20 at 10 min
AC$CHROMATOGRAPHY: FLOW_RATE 350 uL/min
AC$CHROMATOGRAPHY: RETENTION_TIME 0.932 min
MS$FOCUSED_ION: BASE_PEAK 222.9685
MS$FOCUSED_ION: PRECURSOR_M/Z 222.9688
MS$FOCUSED_ION: PRECURSOR_TYPE [M+H]+
MS$FOCUSED_ION: PRECURSOR_INTENSITY 4869.3
MS$DATA_PROCESSING: RECALIBRATE loess on assigned fragments and MS1
MS$DATA_PROCESSING: REANALYZE Peaks with additional N2/O included
MS$DATA_PROCESSING: WHOLE RMassBank 3.1.1
PK$SPLASH: splash10-03dj-9000000000-a386bc176f8cbf96576d
PK$ANNOTATION: m/z tentative_formula formula_count mass error(ppm)
  62.9995 CH4OP+ 2 62.9994 0.61
  80.9726 H2O3P+ 2 80.9736 -12.64
  98.9835 H4O4P+ 2 98.9842 -6.95
PK$NUM_PEAK: 3
PK$PEAK: m/z int. rel.int.
  62.9995 2521.1 999
  80.9726 450.2 178
  98.9835 1751 693
//
