ACCESSION: MSBNK-Antwerp_Univ-METOX_P100802_EF88
RECORD_TITLE: HOMOCYSTEINE; LC-ESI-QTOF; MS2; CE: 20eV; R=5000; [M+H]+
DATE: 2021.12.13
AUTHORS: da Silva KM, Iturrospe E, van de Lavoir M, Robeyns R, University of Antwerp, Belgium
LICENSE: CC BY
COPYRIGHT: Copyright (c) 2021 by Toxicological Center, University of Antwerp, Wilrijk, Belgium
COMMENT: CONFIDENCE Standard compound
COMMENT: INTERNAL_ID 1008
CH$NAME: HOMOCYSTEINE
CH$NAME: DL-Homocysteine
CH$NAME: 2-amino-4-sulfanylbutanoic acid
CH$COMPOUND_CLASS: N/A; Metabolomics Standard
CH$FORMULA: C4H9NO2S
CH$EXACT_MASS: 135.0354
CH$SMILES: C(CS)C(C(=O)O)N
CH$IUPAC: InChI=1S/C4H9NO2S/c5-3(1-2-8)4(6)7/h3,8H,1-2,5H2,(H,6,7)
CH$LINK: CAS 454-29-5
CH$LINK: CHEBI CHEBI:58065
CH$LINK: KEGG C05330
CH$LINK: PUBCHEM CID:778
CH$LINK: INCHIKEY FFFHZYDWPBMWHY-UHFFFAOYSA-N
CH$LINK: CHEMSPIDER 757
AC$INSTRUMENT: Agilent 6530 QTOF
AC$INSTRUMENT_TYPE: LC-ESI-QTOF
AC$MASS_SPECTROMETRY: MS_TYPE MS2
AC$MASS_SPECTROMETRY: ION_MODE POSITIVE
AC$MASS_SPECTROMETRY: IONIZATION ESI
AC$MASS_SPECTROMETRY: FRAGMENTATION_MODE CID
AC$MASS_SPECTROMETRY: COLLISION_ENERGY 20 eV
AC$MASS_SPECTROMETRY: RESOLUTION 5000
AC$MASS_SPECTROMETRY: MASS_RANGE_M/Z 41-976
AC$CHROMATOGRAPHY: COLUMN_NAME N/A
AC$CHROMATOGRAPHY: FLOW_GRADIENT 50/50 isocratic
AC$CHROMATOGRAPHY: FLOW_RATE 200 uL/min
AC$CHROMATOGRAPHY: RETENTION_TIME 0.250 min
AC$CHROMATOGRAPHY: SOLVENT A 90/10 water with 10mM ammonium formate + 0.1% formic acid/methanol
AC$CHROMATOGRAPHY: SOLVENT B acetonitrile
MS$FOCUSED_ION: BASE_PEAK 242.2841
MS$FOCUSED_ION: PRECURSOR_M/Z 136.0427
MS$FOCUSED_ION: PRECURSOR_TYPE [M+H]+
MS$FOCUSED_ION: PRECURSOR_INTENSITY 52121
MS$DATA_PROCESSING: RECALIBRATE loess on assigned fragments and MS1
MS$DATA_PROCESSING: REANALYZE Peaks with additional N2/O included
MS$DATA_PROCESSING: WHOLE RMassBank 3.4.0
PK$SPLASH: splash10-0a4j-9000000000-0cd518687f4b385dd773
PK$ANNOTATION: m/z tentative_formula formula_count mass error(ppm)
  44.9795 CHS+ 1 44.9793 3.96
  46.9949 CH3S+ 1 46.995 -3.1
  56.049 C3H6N+ 1 56.0495 -9.27
  73.0095 C3H5S+ 1 73.0106 -15.51
  74.022 C2H4NO2+ 1 74.0237 -22.47
  74.0735 C4H10O+ 1 74.0726 12.25
  90.0356 C3H8NS+ 1 90.0372 -17.18
  117.9961 C3H4NO2S+ 1 117.9957 3.42
PK$NUM_PEAK: 8
PK$PEAK: m/z int. rel.int.
  44.9795 106.5 55
  46.9949 1462.8 763
  56.049 1913.2 999
  73.0095 145.1 75
  74.022 173 90
  74.0735 19.2 10
  90.0356 305.9 159
  117.9961 6.2 3
//
