ACCESSION: MSBNK-Antwerp_Univ-AN123827
RECORD_TITLE: 4-Nonylphenol; LC-ESI-QTOF; MS2; CE: 15eV; R=7000; [M-H]-
DATE: 2021.08.13
AUTHORS: Belova L, Covaci A, University of Antwerp, Belgium; Caballero-Casero N, University of Cordoba, Spain.
LICENSE: CC BY
COPYRIGHT: Copyright (c) 2021 by Toxicological Center, University of Antwerp, Wilrijk, Belgium
COMMENT: CONFIDENCE Reference Standard (Level 1)
COMMENT: INTERNAL_ID 1238
COMMENT: HBM4EU - science and policy for a healthy future (https://www.hbm4eu.eu)
CH$NAME: 4-Nonylphenol
CH$COMPOUND_CLASS: N/A; Environmental Standard
CH$FORMULA: C15H24O
CH$EXACT_MASS: 220.1827
CH$SMILES: CCCCCCCCCC1=CC=C(C=C1)O
CH$IUPAC: InChI=1S/C15H24O/c1-2-3-4-5-6-7-8-9-14-10-12-15(16)13-11-14/h10-13,16H,2-9H2,1H3
CH$LINK: CAS 104-40-5
CH$LINK: CHEBI CHEBI:34440
CH$LINK: KEGG C14550
CH$LINK: PUBCHEM CID:1752
CH$LINK: INCHIKEY IGFHQQFPSIBGKE-UHFFFAOYSA-N
CH$LINK: CHEMSPIDER 1688
CH$LINK: COMPTOX DTXSID5033836
AC$INSTRUMENT: Agilent 6560 QTOF
AC$INSTRUMENT_TYPE: LC-ESI-QTOF
AC$MASS_SPECTROMETRY: MS_TYPE MS2
AC$MASS_SPECTROMETRY: ION_MODE NEGATIVE
AC$MASS_SPECTROMETRY: IONIZATION ESI
AC$MASS_SPECTROMETRY: FRAGMENTATION_MODE CID
AC$MASS_SPECTROMETRY: COLLISION_ENERGY 15 eV
AC$MASS_SPECTROMETRY: RESOLUTION 7000
AC$MASS_SPECTROMETRY: MASS_RANGE_M/Z 71-1438
AC$CHROMATOGRAPHY: COLUMN_NAME ZORBAX Extend-C18 3.5um, 2.1x50mm, Agilent Technologies
AC$CHROMATOGRAPHY: FLOW_GRADIENT 80/20 at 0 min, 80/20 at 0.5 min, 5/95 at 6 min, 5/95 at 7 min, 80/20 at 7.1 min, 80/20 at 10 min
AC$CHROMATOGRAPHY: FLOW_RATE 350 uL/min
AC$CHROMATOGRAPHY: RETENTION_TIME 6.203 min
MS$FOCUSED_ION: BASE_PEAK 955.9737
MS$FOCUSED_ION: PRECURSOR_M/Z 219.1754
MS$FOCUSED_ION: PRECURSOR_TYPE [M-H]-
MS$FOCUSED_ION: PRECURSOR_INTENSITY 3021.79
MS$DATA_PROCESSING: RECALIBRATE loess on assigned fragments and MS1
MS$DATA_PROCESSING: REANALYZE Peaks with additional N2/O included
MS$DATA_PROCESSING: WHOLE RMassBank 3.1.1
PK$SPLASH: splash10-014i-0490000000-0b114a3c78a66643601b
PK$ANNOTATION: m/z tentative_formula formula_count mass error(ppm)
  106.0422 C7H6O- 1 106.0424 -1.9
  219.1757 C15H23O- 1 219.1754 1.28
PK$NUM_PEAK: 2
PK$PEAK: m/z int. rel.int.
  106.0422 464.1 469
  219.1757 986.8 999
//
