ACCESSION: MSBNK-Antwerp_Univ-AN113529
RECORD_TITLE: Mono(2-ethylhexyl) terephthalate; LC-ESI-QTOF; MS2; CE: 25eV; R=7000; [M-H]-
DATE: 2021.08.06
AUTHORS: Belova L, Covaci A, University of Antwerp, Belgium; Caballero-Casero N, University of Cordoba, Spain.
LICENSE: CC BY
COPYRIGHT: Copyright (c) 2021 by Toxicological Center, University of Antwerp, Wilrijk, Belgium
COMMENT: CONFIDENCE Reference Standard (Level 1)
COMMENT: INTERNAL_ID 1135
COMMENT: HBM4EU - science and policy for a healthy future (https://www.hbm4eu.eu)
CH$NAME: Mono(2-ethylhexyl) terephthalate
CH$NAME: 4-(2-ethylhexoxycarbonyl)benzoic acid
CH$COMPOUND_CLASS: N/A; Environmental Standard
CH$FORMULA: C16H22O4
CH$EXACT_MASS: 278.1518
CH$SMILES: CCCCC(CC)COC(=O)C1=CC=C(C=C1)C(=O)O
CH$IUPAC: InChI=1S/C16H22O4/c1-3-5-6-12(4-2)11-20-16(19)14-9-7-13(8-10-14)15(17)18/h7-10,12H,3-6,11H2,1-2H3,(H,17,18)
CH$LINK: CAS 155603-50-2
CH$LINK: CHEBI CHEBI:165208
CH$LINK: PUBCHEM CID:154683
CH$LINK: INCHIKEY HRUJAEJKCNCOGW-UHFFFAOYSA-N
CH$LINK: CHEMSPIDER 136267
CH$LINK: COMPTOX DTXSID80935240
AC$INSTRUMENT: Agilent 6560 QTOF
AC$INSTRUMENT_TYPE: LC-ESI-QTOF
AC$MASS_SPECTROMETRY: MS_TYPE MS2
AC$MASS_SPECTROMETRY: ION_MODE NEGATIVE
AC$MASS_SPECTROMETRY: IONIZATION ESI
AC$MASS_SPECTROMETRY: FRAGMENTATION_MODE CID
AC$MASS_SPECTROMETRY: COLLISION_ENERGY 25 eV
AC$MASS_SPECTROMETRY: RESOLUTION 7000
AC$MASS_SPECTROMETRY: MASS_RANGE_M/Z 50-1498
AC$CHROMATOGRAPHY: FLOW_GRADIENT 50/50 isocratic
AC$CHROMATOGRAPHY: FLOW_RATE 200 uL/min
AC$CHROMATOGRAPHY: RETENTION_TIME 0.152 min
MS$FOCUSED_ION: BASE_PEAK 277.1471
MS$FOCUSED_ION: PRECURSOR_M/Z 277.1445
MS$FOCUSED_ION: PRECURSOR_TYPE [M-H]-
MS$FOCUSED_ION: PRECURSOR_INTENSITY 168908.93
MS$DATA_PROCESSING: RECALIBRATE loess on assigned fragments and MS1
MS$DATA_PROCESSING: REANALYZE Peaks with additional N2/O included
MS$DATA_PROCESSING: WHOLE RMassBank 3.1.1
PK$SPLASH: splash10-00c0-9840000000-9e0ac4b851113163b2dd
PK$ANNOTATION: m/z tentative_formula formula_count mass error(ppm)
  76.0328 C6H4- 1 76.0318 12.72
  120.0225 C7H4O2- 1 120.0217 6.49
  121.0294 C7H5O2- 1 121.0295 -0.66
  134.0372 C8H6O2- 1 134.0373 -1.23
  233.1562 C15H21O2- 1 233.1547 6.54
PK$NUM_PEAK: 5
PK$PEAK: m/z int. rel.int.
  76.0328 58218.1 999
  120.0225 55492.2 952
  121.0294 2048.5 35
  134.0372 235.7 4
  233.1562 30344.2 520
//
