ACCESSION: MSBNK-Antwerp_Univ-METOX_N105958_4D57
RECORD_TITLE: 1-octadecanoyl-sn-glycero-3-phosphocholine; LC-ESI-QTOF; MS2; CE: 10eV; R=7000; [M-CH3]-
DATE: 2022.04.09
AUTHORS: da Silva KM, Iturrospe E, van de Lavoir M, Robeyns R, University of Antwerp, Belgium
LICENSE: CC BY
COPYRIGHT: Copyright (c) 2021 by Toxicological Center, University of Antwerp, Wilrijk, Belgium
COMMENT: CONFIDENCE Standard compound
COMMENT: INTERNAL_ID 1059
CH$NAME: 1-octadecanoyl-sn-glycero-3-phosphocholine
CH$NAME: [(2R)-2-hydroxy-3-octadecanoyloxypropyl] 2-(trimethylazaniumyl)ethyl phosphate
CH$COMPOUND_CLASS: N/A; Metabolomics Standard
CH$FORMULA: C26H54NO7P
CH$EXACT_MASS: 523.3638
CH$SMILES: CCCCCCCCCCCCCCCCCC(=O)OC[C@H](COP(=O)([O-])OCC[N+](C)(C)C)O
CH$IUPAC: InChI=1S/C26H54NO7P/c1-5-6-7-8-9-10-11-12-13-14-15-16-17-18-19-20-26(29)32-23-25(28)24-34-35(30,31)33-22-21-27(2,3)4/h25,28H,5-24H2,1-4H3/t25-/m1/s1
CH$LINK: CHEBI CHEBI:73858
CH$LINK: LIPIDMAPS LMGP01050026
CH$LINK: PUBCHEM CID:497299
CH$LINK: INCHIKEY IHNKQIMGVNPMTC-RUZDIDTESA-N
CH$LINK: CHEMSPIDER 435389
AC$INSTRUMENT: Agilent 6560 QTOF
AC$INSTRUMENT_TYPE: LC-ESI-QTOF
AC$MASS_SPECTROMETRY: MS_TYPE MS2
AC$MASS_SPECTROMETRY: ION_MODE NEGATIVE
AC$MASS_SPECTROMETRY: IONIZATION ESI
AC$MASS_SPECTROMETRY: FRAGMENTATION_MODE CID
AC$MASS_SPECTROMETRY: COLLISION_ENERGY 10 eV
AC$MASS_SPECTROMETRY: RESOLUTION 7000
AC$MASS_SPECTROMETRY: MASS_RANGE_M/Z 164-1656
AC$CHROMATOGRAPHY: COLUMN_NAME N/A
AC$CHROMATOGRAPHY: FLOW_GRADIENT 50/50 isocratic
AC$CHROMATOGRAPHY: FLOW_RATE 200 uL/min
AC$CHROMATOGRAPHY: RETENTION_TIME 0.169 min
AC$CHROMATOGRAPHY: SOLVENT A 30/70 acetonitrile/water with 2mM ammonium acetate
AC$CHROMATOGRAPHY: SOLVENT B 88/10/2 isopropanol/acetonitrile/water with 2mM ammonium acetate
MS$FOCUSED_ION: BASE_PEAK 582.3796
MS$FOCUSED_ION: PRECURSOR_M/Z 508.3409
MS$FOCUSED_ION: PRECURSOR_TYPE [M-CH3]-
MS$FOCUSED_ION: PRECURSOR_INTENSITY 9424
MS$DATA_PROCESSING: RECALIBRATE loess on assigned fragments and MS1
MS$DATA_PROCESSING: REANALYZE Peaks with additional N2/O included
MS$DATA_PROCESSING: WHOLE RMassBank 3.5.2.1
PK$SPLASH: splash10-053r-0190040000-7d989b22b27b519a0c7c
PK$ANNOTATION: m/z tentative_formula formula_count mass error(ppm)
  164.1835 C2H28O7- 2 164.1841 -3.32
  196.0994 C10H14NO3- 4 196.0979 7.45
  242.0785 C11H14O6- 5 242.0796 -4.62
  244.2311 C15H33P- 5 244.2325 -5.83
  282.9918 C17HNO4- 4 282.9911 2.59
  283.2637 C18H35O2- 6 283.2643 -2.05
  284.9736 C17H2O3P- 2 284.9747 -4.02
  398.0296 C22H8NO7- 3 398.0306 -2.47
  508.3457 C25H51NO7P- 1 508.3409 9.61
PK$NUM_PEAK: 9
PK$PEAK: m/z int. rel.int.
  164.1835 53 166
  196.0994 67.3 212
  242.0785 132.6 417
  244.2311 13 40
  282.9918 78.1 245
  283.2637 282.1 888
  284.9736 71.7 225
  398.0296 30.8 96
  508.3457 317.3 999
//
