ACCESSION: MSBNK-Antwerp_Univ-AN118801
RECORD_TITLE: Tetrekis(2-chlorethyl) dichloroisopentyldiphosphate; LC-ESI-QTOF; MS2; CE: 5eV; R=7000; [M+H]+
DATE: 2021.08.09
AUTHORS: Belova L, Covaci A, University of Antwerp, Belgium; Caballero-Casero N, University of Cordoba, Spain.
LICENSE: CC BY
COPYRIGHT: Copyright (c) 2021 by Toxicological Center, University of Antwerp, Wilrijk, Belgium
COMMENT: CONFIDENCE Reference Standard (Level 1)
COMMENT: INTERNAL_ID 1188
COMMENT: HBM4EU - science and policy for a healthy future (https://www.hbm4eu.eu)
CH$NAME: Tetrekis(2-chlorethyl) dichloroisopentyldiphosphate
CH$NAME: Phosphoric acid, 2,2-bis(chloromethyl)-1,3-propanediyl tetrakis(2-chloroethyl) ester
CH$NAME: [2-[bis(2-chloroethoxy)phosphoryloxymethyl]-3-chloro-2-(chloromethyl)propyl] bis(2-chloroethyl) phosphate
CH$COMPOUND_CLASS: N/A; Environmental Standard
CH$FORMULA: C13H24Cl6O8P2
CH$EXACT_MASS: 579.9078
CH$SMILES: C(CCl)OP(=O)(OCCCl)OCC(COP(=O)(OCCCl)OCCCl)(CCl)CCl
CH$IUPAC: InChI=1S/C13H24Cl6O8P2/c14-1-5-22-28(20,23-6-2-15)26-11-13(9-18,10-19)12-27-29(21,24-7-3-16)25-8-4-17/h1-12H2
CH$LINK: CAS 6341-02-2
CH$LINK: PUBCHEM CID:92310
CH$LINK: INCHIKEY ZGHUDSLVQAGWEY-UHFFFAOYSA-N
CH$LINK: CHEMSPIDER 83339
CH$LINK: COMPTOX DTXSID8028000
AC$INSTRUMENT: Agilent 6560 QTOF
AC$INSTRUMENT_TYPE: LC-ESI-QTOF
AC$MASS_SPECTROMETRY: MS_TYPE MS2
AC$MASS_SPECTROMETRY: ION_MODE POSITIVE
AC$MASS_SPECTROMETRY: IONIZATION ESI
AC$MASS_SPECTROMETRY: FRAGMENTATION_MODE CID
AC$MASS_SPECTROMETRY: COLLISION_ENERGY 5 eV
AC$MASS_SPECTROMETRY: RESOLUTION 7000
AC$MASS_SPECTROMETRY: MASS_RANGE_M/Z 98-912
AC$CHROMATOGRAPHY: FLOW_GRADIENT 50/50 isocratic
AC$CHROMATOGRAPHY: FLOW_RATE 200 uL/min
AC$CHROMATOGRAPHY: RETENTION_TIME 0.110 min
MS$FOCUSED_ION: BASE_PEAK 582.913
MS$FOCUSED_ION: PRECURSOR_M/Z 580.915
MS$FOCUSED_ION: PRECURSOR_TYPE [M+H]+
MS$FOCUSED_ION: PRECURSOR_INTENSITY 29853.94
MS$DATA_PROCESSING: RECALIBRATE loess on assigned fragments and MS1
MS$DATA_PROCESSING: REANALYZE Peaks with additional N2/O included
MS$DATA_PROCESSING: WHOLE RMassBank 3.1.1
PK$SPLASH: splash10-001i-0013090000-93ca9142391d7247c691
PK$ANNOTATION: m/z tentative_formula formula_count mass error(ppm)
  234.9664 Cl4H15O5+ 13 234.9668 -1.88
  284.9603 C5H13Cl2O5P2+ 17 284.961 -2.22
  296.9599 C2H18Cl5O5+ 19 296.9591 2.73
  358.9527 C8H16Cl3O5P2+ 16 358.9533 -1.81
  359.953 C9H18Cl4O2P2+ 20 359.9531 -0.13
  580.916 C13H25Cl6O8P2+ 1 580.915 1.7
PK$NUM_PEAK: 6
PK$PEAK: m/z int. rel.int.
  234.9664 815.4 49
  284.9603 574.1 34
  296.9599 1570.9 95
  358.9527 5563.5 338
  359.953 299.2 18
  580.916 16410.3 999
//
