ACCESSION: MSBNK-Antwerp_Univ-AN117901
RECORD_TITLE: Tris(tert-butylphenyl) phosphate; LC-ESI-QTOF; MS2; CE: 5eV; R=7000; [M+H]+
DATE: 2021.08.09
AUTHORS: Belova L, Covaci A, University of Antwerp, Belgium; Caballero-Casero N, University of Cordoba, Spain.
LICENSE: CC BY
COPYRIGHT: Copyright (c) 2021 by Toxicological Center, University of Antwerp, Wilrijk, Belgium
COMMENT: CONFIDENCE Reference Standard (Level 1)
COMMENT: INTERNAL_ID 1179
COMMENT: HBM4EU - science and policy for a healthy future (https://www.hbm4eu.eu)
CH$NAME: Tris(tert-butylphenyl) phosphate
CH$NAME: tris(2-tert-butylphenyl) phosphate
CH$COMPOUND_CLASS: N/A; Environmental Standard
CH$FORMULA: C30H39O4P
CH$EXACT_MASS: 494.2586
CH$SMILES: CC(C)(C)C1=CC=CC=C1OP(=O)(OC2=CC=CC=C2C(C)(C)C)OC3=CC=CC=C3C(C)(C)C
CH$IUPAC: InChI=1S/C30H39O4P/c1-28(2,3)22-16-10-13-19-25(22)32-35(31,33-26-20-14-11-17-23(26)29(4,5)6)34-27-21-15-12-18-24(27)30(7,8)9/h10-21H,1-9H3
CH$LINK: CAS 28777-70-0
CH$LINK: PUBCHEM CID:3034371
CH$LINK: INCHIKEY SPUXJWDKFVXXBI-UHFFFAOYSA-N
CH$LINK: CHEMSPIDER 2298846
CH$LINK: COMPTOX DTXSID00951422
AC$INSTRUMENT: Agilent 6560 QTOF
AC$INSTRUMENT_TYPE: LC-ESI-QTOF
AC$MASS_SPECTROMETRY: MS_TYPE MS2
AC$MASS_SPECTROMETRY: ION_MODE POSITIVE
AC$MASS_SPECTROMETRY: IONIZATION ESI
AC$MASS_SPECTROMETRY: FRAGMENTATION_MODE CID
AC$MASS_SPECTROMETRY: COLLISION_ENERGY 5 eV
AC$MASS_SPECTROMETRY: RESOLUTION 7000
AC$MASS_SPECTROMETRY: MASS_RANGE_M/Z 57-1237
AC$CHROMATOGRAPHY: FLOW_GRADIENT 50/50 isocratic
AC$CHROMATOGRAPHY: FLOW_RATE 200 uL/min
AC$CHROMATOGRAPHY: RETENTION_TIME 0.113 min
MS$FOCUSED_ION: BASE_PEAK 495.265
MS$FOCUSED_ION: PRECURSOR_M/Z 495.2659
MS$FOCUSED_ION: PRECURSOR_TYPE [M+H]+
MS$FOCUSED_ION: PRECURSOR_INTENSITY 124760.54
MS$DATA_PROCESSING: RECALIBRATE loess on assigned fragments and MS1
MS$DATA_PROCESSING: REANALYZE Peaks with additional N2/O included
MS$DATA_PROCESSING: WHOLE RMassBank 3.1.1
PK$SPLASH: splash10-0002-0000900000-c5f44cf4b453970ecd22
PK$ANNOTATION: m/z tentative_formula formula_count mass error(ppm)
  57.0699 C4H9+ 1 57.0699 0.99
  233.0346 C12H10O3P+ 2 233.0362 -6.99
  327.0761 C18H16O4P+ 2 327.0781 -6.17
  383.14 C22H24O4P+ 2 383.1407 -1.72
  439.2017 C26H32O4P+ 1 439.2033 -3.56
  440.2039 C29H28O4+ 2 440.1982 12.93
  495.2653 C30H40O4P+ 1 495.2659 -1.19
PK$NUM_PEAK: 7
PK$PEAK: m/z int. rel.int.
  57.0699 581.9 6
  233.0346 234.8 2
  327.0761 1759.3 19
  383.14 3242.2 35
  439.2017 5580.5 60
  440.2039 467.4 5
  495.2653 91905.7 999
//
