ACCESSION: MSBNK-Antwerp_Univ-AN121737
RECORD_TITLE: 2,2-Bis(4-hydroxyphenyl)propane dimethacrylate; LC-ESI-QTOF; MS2; CE: 10eV; R=7000; [M+NH4]+
DATE: 2021.08.17
AUTHORS: Belova L, Covaci A, University of Antwerp, Belgium; Caballero-Casero N, University of Cordoba, Spain.
LICENSE: CC BY
COPYRIGHT: Copyright (c) 2021 by Toxicological Center, University of Antwerp, Wilrijk, Belgium
COMMENT: CONFIDENCE Reference Standard (Level 1)
COMMENT: INTERNAL_ID 1217
COMMENT: HBM4EU - science and policy for a healthy future (https://www.hbm4eu.eu)
CH$NAME: 2,2-Bis(4-hydroxyphenyl)propane dimethacrylate
CH$NAME: Bisphenol A dimethacrylate
CH$NAME: [4-[2-[4-(2-methylprop-2-enoyloxy)phenyl]propan-2-yl]phenyl] 2-methylprop-2-enoate
CH$COMPOUND_CLASS: N/A; Environmental Standard
CH$FORMULA: C23H24O4
CH$EXACT_MASS: 364.1675
CH$SMILES: CC(=C)C(=O)Oc1ccc(cc1)C(C)(C)c2ccc(OC(=O)C(C)=C)cc2
CH$IUPAC: InChI=1S/C23H24O4/c1-15(2)21(24)26-19-11-7-17(8-12-19)23(5,6)18-9-13-20(14-10-18)27-22(25)16(3)4/h7-14H,1,3H2,2,4-6H3
CH$LINK: CAS 3253-39-2
CH$LINK: CHEBI CHEBI:34579
CH$LINK: KEGG C14345
CH$LINK: PUBCHEM CID:76739
CH$LINK: INCHIKEY QUZSUMLPWDHKCJ-UHFFFAOYSA-N
CH$LINK: CHEMSPIDER 69197
CH$LINK: COMPTOX DTXSID80863135
AC$INSTRUMENT: Agilent 6560 QTOF
AC$INSTRUMENT_TYPE: LC-ESI-QTOF
AC$MASS_SPECTROMETRY: MS_TYPE MS2
AC$MASS_SPECTROMETRY: ION_MODE POSITIVE
AC$MASS_SPECTROMETRY: IONIZATION ESI
AC$MASS_SPECTROMETRY: FRAGMENTATION_MODE CID
AC$MASS_SPECTROMETRY: COLLISION_ENERGY 10 eV
AC$MASS_SPECTROMETRY: RESOLUTION 7000
AC$MASS_SPECTROMETRY: MASS_RANGE_M/Z 55-1340
AC$CHROMATOGRAPHY: COLUMN_NAME ZORBAX Extend-C18 3.5um, 2.1x50mm, Agilent Technologies
AC$CHROMATOGRAPHY: FLOW_GRADIENT 80/20 at 0 min, 10/90 at 1.5 min, 5/95 at 5 min, 5/95 at 7.5 min, 80/20 at 7.6 min, 80/20 at 10 min
AC$CHROMATOGRAPHY: FLOW_RATE 350 uL/min
AC$CHROMATOGRAPHY: RETENTION_TIME 4.407 min
MS$FOCUSED_ION: BASE_PEAK 382.2017
MS$FOCUSED_ION: PRECURSOR_M/Z 382.2013
MS$FOCUSED_ION: PRECURSOR_TYPE [M+NH4]+
MS$FOCUSED_ION: PRECURSOR_INTENSITY 203701.81
MS$DATA_PROCESSING: RECALIBRATE loess on assigned fragments and MS1
MS$DATA_PROCESSING: REANALYZE Peaks with additional N2/O included
MS$DATA_PROCESSING: WHOLE RMassBank 3.1.1
PK$SPLASH: splash10-0udi-1091000000-dd95af28a7af0004c5b5
PK$ANNOTATION: m/z tentative_formula formula_count mass error(ppm)
  69.0341 C4H5O+ 1 69.0335 8.41
  86.0598 C4H8NO+ 1 86.06 -2.23
  100.1123 C6H14N+ 1 100.1121 2.68
  203.1066 C13H15O2+ 1 203.1067 -0.23
  365.1737 C23H25O4+ 1 365.1747 -2.9
  366.1752 C22H24NO4+ 2 366.17 14.11
  382.2008 C23H28NO4+ 1 382.2013 -1.39
PK$NUM_PEAK: 7
PK$PEAK: m/z int. rel.int.
  69.0341 21911.7 163
  86.0598 417.2 3
  100.1123 216.4 1
  203.1066 133475.1 999
  365.1737 12511.5 93
  366.1752 830.9 6
  382.2008 13901.3 104
//
