ACCESSION: MSBNK-Antwerp_Univ-METOX_N109626_B8BB
RECORD_TITLE: Lignoceric acid; LC-ESI-QTOF; MS2; CE: 20eV; R=7000; [M-H]-
DATE: 2022.04.09
AUTHORS: da Silva KM, Iturrospe E, van de Lavoir M, Robeyns R, University of Antwerp, Belgium
LICENSE: CC BY
COPYRIGHT: Copyright (c) 2021 by Toxicological Center, University of Antwerp, Wilrijk, Belgium
COMMENT: CONFIDENCE Standard compound
COMMENT: INTERNAL_ID 1096
CH$NAME: Lignoceric acid
CH$NAME: tetracosanoic acid
CH$COMPOUND_CLASS: N/A; Metabolomics Standard
CH$FORMULA: C24H48O2
CH$EXACT_MASS: 368.3654
CH$SMILES: CCCCCCCCCCCCCCCCCCCCCCCC(=O)O
CH$IUPAC: InChI=1S/C24H48O2/c1-2-3-4-5-6-7-8-9-10-11-12-13-14-15-16-17-18-19-20-21-22-23-24(25)26/h2-23H2,1H3,(H,25,26)
CH$LINK: CAS 557-59-5
CH$LINK: CHEBI CHEBI:28866
CH$LINK: KEGG C08320
CH$LINK: LIPIDMAPS LMFA01010024
CH$LINK: PUBCHEM CID:11197
CH$LINK: INCHIKEY QZZGJDVWLFXDLK-UHFFFAOYSA-N
CH$LINK: CHEMSPIDER 10724
AC$INSTRUMENT: Agilent 6560 QTOF
AC$INSTRUMENT_TYPE: LC-ESI-QTOF
AC$MASS_SPECTROMETRY: MS_TYPE MS2
AC$MASS_SPECTROMETRY: ION_MODE NEGATIVE
AC$MASS_SPECTROMETRY: IONIZATION ESI
AC$MASS_SPECTROMETRY: FRAGMENTATION_MODE CID
AC$MASS_SPECTROMETRY: COLLISION_ENERGY 20 eV
AC$MASS_SPECTROMETRY: RESOLUTION 7000
AC$MASS_SPECTROMETRY: MASS_RANGE_M/Z 85-1686
AC$CHROMATOGRAPHY: COLUMN_NAME N/A
AC$CHROMATOGRAPHY: FLOW_GRADIENT 50/50 isocratic
AC$CHROMATOGRAPHY: FLOW_RATE 200 uL/min
AC$CHROMATOGRAPHY: RETENTION_TIME 0.145 min
AC$CHROMATOGRAPHY: SOLVENT A 30/70 acetonitrile/water with 2mM ammonium acetate
AC$CHROMATOGRAPHY: SOLVENT B 88/10/2 isopropanol/acetonitrile/water with 2mM ammonium acetate
MS$FOCUSED_ION: BASE_PEAK 367.3594
MS$FOCUSED_ION: PRECURSOR_M/Z 367.3582
MS$FOCUSED_ION: PRECURSOR_TYPE [M-H]-
MS$FOCUSED_ION: PRECURSOR_INTENSITY 269040
MS$DATA_PROCESSING: RECALIBRATE loess on assigned fragments and MS1
MS$DATA_PROCESSING: REANALYZE Peaks with additional N2/O included
MS$DATA_PROCESSING: WHOLE RMassBank 3.5.2.1
PK$SPLASH: splash10-014i-0009000000-b1cc5be2739ae5f15ebd
PK$ANNOTATION: m/z tentative_formula formula_count mass error(ppm)
  211.0548 C17H7- 1 211.0553 -2.31
  349.3515 C24H45O- 1 349.3476 11.2
  365.3416 C24H45O2- 1 365.3425 -2.5
  367.3589 C24H47O2- 1 367.3582 2.08
PK$NUM_PEAK: 4
PK$PEAK: m/z int. rel.int.
  211.0548 74 1
  349.3515 105 2
  365.3416 109.4 2
  367.3589 47435.7 999
//
