ACCESSION: MSBNK-Antwerp_Univ-METOX_P101206_FB57
RECORD_TITLE: N-ACETYLASPARTATE; LC-ESI-QTOF; MS2; CE: 40eV; R=5000; [M+H]+
DATE: 2021.12.23
AUTHORS: da Silva KM, Iturrospe E, van de Lavoir M, Robeyns R, University of Antwerp, Belgium
LICENSE: CC BY
COPYRIGHT: Copyright (c) 2021 by Toxicological Center, University of Antwerp, Wilrijk, Belgium
COMMENT: CONFIDENCE Standard compound
COMMENT: INTERNAL_ID 1012
CH$NAME: N-ACETYLASPARTATE
CH$NAME: N-Acetyl-L-aspartic acid
CH$NAME: (2S)-2-acetamidobutanedioic acid
CH$COMPOUND_CLASS: N/A; Metabolomics Standard
CH$FORMULA: C6H9NO5
CH$EXACT_MASS: 175.0481
CH$SMILES: CC(=O)N[C@@H](CC(O)=O)C(O)=O
CH$IUPAC: InChI=1S/C6H9NO5/c1-3(8)7-4(6(11)12)2-5(9)10/h4H,2H2,1H3,(H,7,8)(H,9,10)(H,11,12)/t4-/m0/s1
CH$LINK: CAS 997-55-7
CH$LINK: CHEBI CHEBI:21547
CH$LINK: KEGG C01042
CH$LINK: PUBCHEM CID:65065
CH$LINK: INCHIKEY OTCCIMWXFLJLIA-BYPYZUCNSA-N
CH$LINK: CHEMSPIDER 58576
AC$INSTRUMENT: Agilent 6530 QTOF
AC$INSTRUMENT_TYPE: LC-ESI-QTOF
AC$MASS_SPECTROMETRY: MS_TYPE MS2
AC$MASS_SPECTROMETRY: ION_MODE POSITIVE
AC$MASS_SPECTROMETRY: IONIZATION ESI
AC$MASS_SPECTROMETRY: FRAGMENTATION_MODE CID
AC$MASS_SPECTROMETRY: COLLISION_ENERGY 40 eV
AC$MASS_SPECTROMETRY: RESOLUTION 5000
AC$MASS_SPECTROMETRY: MASS_RANGE_M/Z 42-951
AC$CHROMATOGRAPHY: COLUMN_NAME N/A
AC$CHROMATOGRAPHY: FLOW_GRADIENT 50/50 isocratic
AC$CHROMATOGRAPHY: FLOW_RATE 200 uL/min
AC$CHROMATOGRAPHY: RETENTION_TIME 0.249 min
AC$CHROMATOGRAPHY: SOLVENT A 90/10 water with 10mM ammonium formate + 0.1% formic acid/methanol
AC$CHROMATOGRAPHY: SOLVENT B acetonitrile
MS$FOCUSED_ION: BASE_PEAK 922.0098
MS$FOCUSED_ION: PRECURSOR_M/Z 176.0553
MS$FOCUSED_ION: PRECURSOR_TYPE [M+H]+
MS$FOCUSED_ION: PRECURSOR_INTENSITY 15499
MS$DATA_PROCESSING: RECALIBRATE loess on assigned fragments and MS1
MS$DATA_PROCESSING: REANALYZE Peaks with additional N2/O included
MS$DATA_PROCESSING: WHOLE RMassBank 3.4.0
PK$SPLASH: splash10-00dm-9000000000-a396945cec1d76480ac5
PK$ANNOTATION: m/z tentative_formula formula_count mass error(ppm)
  44.0486 C2H6N+ 1 44.0495 -19.06
  44.9968 CHO2+ 1 44.9971 -6.2
  46.0282 CH4NO+ 1 46.0287 -11.7
  70.025 H6O4+ 1 70.0261 -15.08
  74.023 C2H4NO2+ 1 74.0237 -9.18
PK$NUM_PEAK: 5
PK$PEAK: m/z int. rel.int.
  44.0486 116.9 564
  44.9968 65.3 315
  46.0282 207 999
  70.025 169.2 816
  74.023 136.6 659
//
