ACCESSION: MSBNK-Antwerp_Univ-AN117421
RECORD_TITLE: Tris(2-ethylhexyl)phosphate; LC-ESI-QTOF; MS2; CE: 45eV; R=7000; [M+Na]+
DATE: 2021.08.09
AUTHORS: Belova L, Covaci A, University of Antwerp, Belgium; Caballero-Casero N, University of Cordoba, Spain.
LICENSE: CC BY
COPYRIGHT: Copyright (c) 2021 by Toxicological Center, University of Antwerp, Wilrijk, Belgium
COMMENT: CONFIDENCE Reference Standard (Level 1)
COMMENT: INTERNAL_ID 1174
COMMENT: HBM4EU - science and policy for a healthy future (https://www.hbm4eu.eu)
CH$NAME: Tris(2-ethylhexyl)phosphate
CH$NAME: tris(2-ethylhexyl) phosphate
CH$COMPOUND_CLASS: N/A; Environmental Standard
CH$FORMULA: C24H51O4P
CH$EXACT_MASS: 434.3525
CH$SMILES: CCCCC(CC)COP(=O)(OCC(CC)CCCC)OCC(CC)CCCC
CH$IUPAC: InChI=1S/C24H51O4P/c1-7-13-16-22(10-4)19-26-29(25,27-20-23(11-5)17-14-8-2)28-21-24(12-6)18-15-9-3/h22-24H,7-21H2,1-6H3
CH$LINK: CAS 78-42-2
CH$LINK: PUBCHEM CID:6537
CH$LINK: INCHIKEY GTVWRXDRKAHEAD-UHFFFAOYSA-N
CH$LINK: CHEMSPIDER 6289
CH$LINK: COMPTOX DTXSID0021414
AC$INSTRUMENT: Agilent 6560 QTOF
AC$INSTRUMENT_TYPE: LC-ESI-QTOF
AC$MASS_SPECTROMETRY: MS_TYPE MS2
AC$MASS_SPECTROMETRY: ION_MODE POSITIVE
AC$MASS_SPECTROMETRY: IONIZATION ESI
AC$MASS_SPECTROMETRY: FRAGMENTATION_MODE CID
AC$MASS_SPECTROMETRY: COLLISION_ENERGY 45 eV
AC$MASS_SPECTROMETRY: RESOLUTION 7000
AC$MASS_SPECTROMETRY: MASS_RANGE_M/Z 57-234
AC$CHROMATOGRAPHY: FLOW_GRADIENT 50/50 isocratic
AC$CHROMATOGRAPHY: FLOW_RATE 200 uL/min
AC$CHROMATOGRAPHY: RETENTION_TIME 0.149 min
MS$FOCUSED_ION: BASE_PEAK 457.3424
MS$FOCUSED_ION: PRECURSOR_M/Z 457.3417
MS$FOCUSED_ION: PRECURSOR_TYPE [M+Na]+
MS$FOCUSED_ION: PRECURSOR_INTENSITY 3570.36
MS$DATA_PROCESSING: RECALIBRATE loess on assigned fragments and MS1
MS$DATA_PROCESSING: REANALYZE Peaks with additional N2/O included
MS$DATA_PROCESSING: WHOLE RMassBank 3.1.1
PK$SPLASH: splash10-00di-1900000000-8e67b5407c60ccbe7a01
PK$ANNOTATION: m/z tentative_formula formula_count mass error(ppm)
  57.0694 C4H9+ 1 57.0699 -9.2
  71.0852 C5H11+ 1 71.0855 -4.58
  120.9666 H3NaO4P+ 2 120.9661 4.31
  233.0914 C8H19NaO4P+ 4 233.0913 0.31
PK$NUM_PEAK: 4
PK$PEAK: m/z int. rel.int.
  57.0694 255.7 95
  71.0852 246.6 92
  120.9666 2674.2 999
  233.0914 206.7 77
//
