ACCESSION: MSBNK-Antwerp_Univ-METOX_P102701_F638
RECORD_TITLE: TRANS-4-HYDROXY-L-PROLINE; LC-ESI-QTOF; MS2; CE: 10eV; R=5000; [M+H]+
DATE: 2021.12.10
AUTHORS: da Silva KM, Iturrospe E, van de Lavoir M, Robeyns R, University of Antwerp, Belgium
LICENSE: CC BY
COPYRIGHT: Copyright (c) 2021 by Toxicological Center, University of Antwerp, Wilrijk, Belgium
COMMENT: CONFIDENCE Standard compound
COMMENT: INTERNAL_ID 1027
CH$NAME: TRANS-4-HYDROXY-L-PROLINE
CH$NAME: Hydroxyproline
CH$NAME: (2S,4R)-4-hydroxypyrrolidine-2-carboxylic acid
CH$COMPOUND_CLASS: N/A; Metabolomics Standard
CH$FORMULA: C5H9NO3
CH$EXACT_MASS: 131.0582
CH$SMILES: O[C@H]1CN[C@@H](C1)C(O)=O
CH$IUPAC: InChI=1S/C5H9NO3/c7-3-1-4(5(8)9)6-2-3/h3-4,6-7H,1-2H2,(H,8,9)/t3-,4+/m1/s1
CH$LINK: CAS 51-35-4
CH$LINK: CHEBI CHEBI:58375
CH$LINK: KEGG C01157
CH$LINK: PUBCHEM CID:5810
CH$LINK: INCHIKEY PMMYEEVYMWASQN-DMTCNVIQSA-N
CH$LINK: CHEMSPIDER 5605
CH$LINK: COMPTOX DTXSID10883225
AC$INSTRUMENT: Agilent 6530 QTOF
AC$INSTRUMENT_TYPE: LC-ESI-QTOF
AC$MASS_SPECTROMETRY: MS_TYPE MS2
AC$MASS_SPECTROMETRY: ION_MODE POSITIVE
AC$MASS_SPECTROMETRY: IONIZATION ESI
AC$MASS_SPECTROMETRY: FRAGMENTATION_MODE CID
AC$MASS_SPECTROMETRY: COLLISION_ENERGY 10 eV
AC$MASS_SPECTROMETRY: RESOLUTION 5000
AC$MASS_SPECTROMETRY: MASS_RANGE_M/Z 40-993
AC$CHROMATOGRAPHY: COLUMN_NAME N/A
AC$CHROMATOGRAPHY: FLOW_GRADIENT 50/50 isocratic
AC$CHROMATOGRAPHY: FLOW_RATE 200 uL/min
AC$CHROMATOGRAPHY: RETENTION_TIME 0.188 min
AC$CHROMATOGRAPHY: SOLVENT A 90/10 water with 10mM ammonium formate + 0.1% formic acid/methanol
AC$CHROMATOGRAPHY: SOLVENT B acetonitrile
MS$FOCUSED_ION: BASE_PEAK 132.0653
MS$FOCUSED_ION: PRECURSOR_M/Z 132.0655
MS$FOCUSED_ION: PRECURSOR_TYPE [M+H]+
MS$FOCUSED_ION: PRECURSOR_INTENSITY 1085254
MS$DATA_PROCESSING: RECALIBRATE loess on assigned fragments and MS1
MS$DATA_PROCESSING: REANALYZE Peaks with additional N2/O included
MS$DATA_PROCESSING: WHOLE RMassBank 3.4.0
PK$SPLASH: splash10-00kr-9100000000-b6a98a7fe6c3a05b990f
PK$ANNOTATION: m/z tentative_formula formula_count mass error(ppm)
  41.0384 C3H5+ 1 41.0386 -3.14
  44.049 C2H6N+ 1 44.0495 -10.82
  58.0652 C3H8N+ 1 58.0651 0.69
  68.0489 C4H6N+ 1 68.0495 -8.99
  86.0589 C4H8NO+ 1 86.06 -13.36
  88.0738 C4H10NO+ 1 88.0757 -21.83
  114.0535 C5H8NO2+ 1 114.055 -12.54
  132.0626 C5H10NO3+ 1 132.0655 -22.26
PK$NUM_PEAK: 8
PK$PEAK: m/z int. rel.int.
  41.0384 5471.2 73
  44.049 115.2 1
  58.0652 3988 53
  68.0489 44609.4 596
  86.0589 74697.2 999
  88.0738 117.7 1
  114.0535 1038.1 13
  132.0626 27059.2 361
//
