ACCESSION: MSBNK-Antwerp_Univ-METOX_P100901_EF88
RECORD_TITLE: O-PHOSPHOSERINE; LC-ESI-QTOF; MS2; CE: 20eV; R=5000; [M+H]+
DATE: 2021.12.14
AUTHORS: da Silva KM, Iturrospe E, van de Lavoir M, Robeyns R, University of Antwerp, Belgium
LICENSE: CC BY
COPYRIGHT: Copyright (c) 2021 by Toxicological Center, University of Antwerp, Wilrijk, Belgium
COMMENT: CONFIDENCE Standard compound
COMMENT: INTERNAL_ID 1009
CH$NAME: O-PHOSPHOSERINE
CH$NAME: dl-O-Phosphoserine
CH$NAME: 2-amino-3-phosphonooxypropanoic acid
CH$COMPOUND_CLASS: N/A; Metabolomics Standard
CH$FORMULA: C3H8NO6P
CH$EXACT_MASS: 185.0089
CH$SMILES: NC(COP(O)(O)=O)C(O)=O
CH$IUPAC: InChI=1S/C3H8NO6P/c4-2(3(5)6)1-10-11(7,8)9/h2H,1,4H2,(H,5,6)(H2,7,8,9)
CH$LINK: CAS 407-41-0
CH$LINK: CHEBI CHEBI:37712
CH$LINK: PUBCHEM CID:106
CH$LINK: INCHIKEY BZQFBWGGLXLEPQ-UHFFFAOYSA-N
CH$LINK: CHEMSPIDER 104
AC$INSTRUMENT: Agilent 6530 QTOF
AC$INSTRUMENT_TYPE: LC-ESI-QTOF
AC$MASS_SPECTROMETRY: MS_TYPE MS2
AC$MASS_SPECTROMETRY: ION_MODE POSITIVE
AC$MASS_SPECTROMETRY: IONIZATION ESI
AC$MASS_SPECTROMETRY: FRAGMENTATION_MODE CID
AC$MASS_SPECTROMETRY: COLLISION_ENERGY 20 eV
AC$MASS_SPECTROMETRY: RESOLUTION 5000
AC$MASS_SPECTROMETRY: MASS_RANGE_M/Z 40-999
AC$CHROMATOGRAPHY: COLUMN_NAME N/A
AC$CHROMATOGRAPHY: FLOW_GRADIENT 50/50 isocratic
AC$CHROMATOGRAPHY: FLOW_RATE 200 uL/min
AC$CHROMATOGRAPHY: RETENTION_TIME 0.359 min
AC$CHROMATOGRAPHY: SOLVENT A 90/10 water with 10mM ammonium formate + 0.1% formic acid/methanol
AC$CHROMATOGRAPHY: SOLVENT B acetonitrile
MS$FOCUSED_ION: BASE_PEAK 121.0508
MS$FOCUSED_ION: PRECURSOR_M/Z 186.0162
MS$FOCUSED_ION: PRECURSOR_TYPE [M+H]+
MS$FOCUSED_ION: PRECURSOR_INTENSITY 36594
MS$DATA_PROCESSING: RECALIBRATE loess on assigned fragments and MS1
MS$DATA_PROCESSING: REANALYZE Peaks with additional N2/O included
MS$DATA_PROCESSING: WHOLE RMassBank 3.4.0
PK$SPLASH: splash10-0076-9000000000-7c9f5d651c27610f07a9
PK$ANNOTATION: m/z tentative_formula formula_count mass error(ppm)
  42.0344 C2H4N+ 1 42.0338 13.8
  70.0297 C3H4NO+ 1 70.0287 13.07
  88.039 C3H6NO2+ 1 88.0393 -3.3
  106.0418 C3H9NOP+ 1 106.0416 1.59
  114.0087 CH7O4P+ 1 114.0076 9.68
PK$NUM_PEAK: 5
PK$PEAK: m/z int. rel.int.
  42.0344 1485.3 999
  70.0297 842.6 566
  88.039 1134.2 762
  106.0418 4.1 2
  114.0087 31.5 21
//
