ACCESSION: MSBNK-Antwerp_Univ-METOX_N106512_1273
RECORD_TITLE: 1-octadecenoyl-rac-glycerol; LC-ESI-QTOF; MS2; CE: 20eV; R=7000; [M-H2O+H]+
DATE: 2022.04.08
AUTHORS: da Silva KM, Iturrospe E, van de Lavoir M, Robeyns R, University of Antwerp, Belgium
LICENSE: CC BY
COPYRIGHT: Copyright (c) 2021 by Toxicological Center, University of Antwerp, Wilrijk, Belgium
COMMENT: CONFIDENCE Standard compound
COMMENT: INTERNAL_ID 1065
CH$NAME: 1-octadecenoyl-rac-glycerol
CH$NAME: Glyceryl monooleate
CH$NAME: 2,3-dihydroxypropyl (Z)-octadec-9-enoate
CH$COMPOUND_CLASS: N/A; Metabolomics Standard
CH$FORMULA: C21H40O4
CH$EXACT_MASS: 356.2927
CH$SMILES: CCCCCCCC/C=C\CCCCCCCC(=O)OCC(CO)O
CH$IUPAC: InChI=1S/C21H40O4/c1-2-3-4-5-6-7-8-9-10-11-12-13-14-15-16-17-21(24)25-19-20(23)18-22/h9-10,20,22-23H,2-8,11-19H2,1H3/b10-9-
CH$LINK: CAS 111-03-5
CH$LINK: CHEBI CHEBI:75342
CH$LINK: LIPIDMAPS LMGL01010005
CH$LINK: PUBCHEM CID:5283468
CH$LINK: INCHIKEY RZRNAYUHWVFMIP-KTKRTIGZSA-N
CH$LINK: CHEMSPIDER 4446588
AC$INSTRUMENT: Agilent 6560 QTOF
AC$INSTRUMENT_TYPE: LC-ESI-QTOF
AC$MASS_SPECTROMETRY: MS_TYPE MS2
AC$MASS_SPECTROMETRY: ION_MODE POSITIVE
AC$MASS_SPECTROMETRY: IONIZATION ESI
AC$MASS_SPECTROMETRY: FRAGMENTATION_MODE CID
AC$MASS_SPECTROMETRY: COLLISION_ENERGY 20 eV
AC$MASS_SPECTROMETRY: RESOLUTION 7000
AC$MASS_SPECTROMETRY: MASS_RANGE_M/Z 83-284
AC$CHROMATOGRAPHY: COLUMN_NAME Direct injection
AC$CHROMATOGRAPHY: FLOW_GRADIENT 50/50 isocratic
AC$CHROMATOGRAPHY: FLOW_RATE 200 uL/min
AC$CHROMATOGRAPHY: RETENTION_TIME 0.128 min
AC$CHROMATOGRAPHY: SOLVENT A 30/70 acetonitrile/water with 2mM ammonium acetate + 0.1% acetic acid
AC$CHROMATOGRAPHY: SOLVENT B 88/10/2 isopropanol/acetonitrile/water with 2mM ammonium acetate + 0.1% acetic acid
MS$FOCUSED_ION: BASE_PEAK 256.9648
MS$FOCUSED_ION: PRECURSOR_M/Z 339.2894
MS$FOCUSED_ION: PRECURSOR_TYPE [M-H2O+H]+
MS$FOCUSED_ION: PRECURSOR_INTENSITY 8861
MS$DATA_PROCESSING: RECALIBRATE loess on assigned fragments and MS1
MS$DATA_PROCESSING: REANALYZE Peaks with additional N2/O included
MS$DATA_PROCESSING: WHOLE RMassBank 3.5.2.1
PK$SPLASH: splash10-01ot-9070000000-ea8c8462a7d41c726bb1
PK$ANNOTATION: m/z tentative_formula formula_count mass error(ppm)
  97.1002 C7H13+ 1 97.1012 -10.21
  210.0653 C14H10O2+ 1 210.0675 -10.54
  283.1674 C19H23O2+ 1 283.1693 -6.48
PK$NUM_PEAK: 3
PK$PEAK: m/z int. rel.int.
  97.1002 129.1 999
  210.0653 77.1 596
  283.1674 36.1 279
//
