ACCESSION: MSBNK-Antwerp_Univ-AN111602
RECORD_TITLE: Tri-n-hexyl trimellitate; LC-ESI-QTOF; MS2; CE: 10eV; R=7000; [M+H]+
DATE: 2021.08.02
AUTHORS: Belova L, Covaci A, University of Antwerp, Belgium; Caballero-Casero N, University of Cordoba, Spain.
LICENSE: CC BY
COPYRIGHT: Copyright (c) 2021 by Toxicological Center, University of Antwerp, Wilrijk, Belgium
COMMENT: CONFIDENCE Reference Standard (Level 1)
COMMENT: INTERNAL_ID 1116
COMMENT: HBM4EU - science and policy for a healthy future (https://www.hbm4eu.eu)
CH$NAME: Tri-n-hexyl trimellitate
CH$NAME: trihexyl benzene-1,2,4-tricarboxylate
CH$COMPOUND_CLASS: N/A; Environmental Standard
CH$FORMULA: C27H42O6
CH$EXACT_MASS: 462.2981
CH$SMILES: CCCCCCOC(=O)C1=CC(=C(C=C1)C(=O)OCCCCCC)C(=O)OCCCCCC
CH$IUPAC: InChI=1S/C27H42O6/c1-4-7-10-13-18-31-25(28)22-16-17-23(26(29)32-19-14-11-8-5-2)24(21-22)27(30)33-20-15-12-9-6-3/h16-17,21H,4-15,18-20H2,1-3H3
CH$LINK: CAS 1528-49-0
CH$LINK: PUBCHEM CID:73718
CH$LINK: INCHIKEY MXHBQKVKHGQWRB-UHFFFAOYSA-N
CH$LINK: CHEMSPIDER 66361
CH$LINK: COMPTOX DTXSID4052681
AC$INSTRUMENT: Agilent 6560 QTOF
AC$INSTRUMENT_TYPE: LC-ESI-QTOF
AC$MASS_SPECTROMETRY: MS_TYPE MS2
AC$MASS_SPECTROMETRY: ION_MODE POSITIVE
AC$MASS_SPECTROMETRY: IONIZATION ESI
AC$MASS_SPECTROMETRY: FRAGMENTATION_MODE CID
AC$MASS_SPECTROMETRY: COLLISION_ENERGY 10 eV
AC$MASS_SPECTROMETRY: RESOLUTION 7000
AC$MASS_SPECTROMETRY: MASS_RANGE_M/Z 53-1269
AC$CHROMATOGRAPHY: FLOW_GRADIENT 50/50 isocratic
AC$CHROMATOGRAPHY: FLOW_RATE 200 uL/min
AC$CHROMATOGRAPHY: RETENTION_TIME 0.111 min
MS$FOCUSED_ION: BASE_PEAK 371.1012
MS$FOCUSED_ION: PRECURSOR_M/Z 463.3054
MS$FOCUSED_ION: PRECURSOR_TYPE [M+H]+
MS$FOCUSED_ION: PRECURSOR_INTENSITY 37526.45
MS$DATA_PROCESSING: RECALIBRATE loess on assigned fragments and MS1
MS$DATA_PROCESSING: REANALYZE Peaks with additional N2/O included
MS$DATA_PROCESSING: WHOLE RMassBank 3.1.1
PK$SPLASH: splash10-004i-0090000000-f2bd8357956a6af2be50
PK$ANNOTATION: m/z tentative_formula formula_count mass error(ppm)
  85.1018 C6H13+ 1 85.1012 6.86
  137.0219 C7H5O3+ 1 137.0233 -10.49
  193.0123 C9H5O5+ 1 193.0131 -4.38
  207.0292 C10H7O5+ 1 207.0288 1.85
  223.063 C11H11O5+ 1 223.0601 12.81
  277.1067 C15H17O5+ 2 277.1071 -1.15
  278.1104 C22H14+ 2 278.109 5.16
  281.0507 C16H9O5+ 1 281.0444 22.22
  297.0799 C17H13O5+ 1 297.0757 13.84
PK$NUM_PEAK: 9
PK$PEAK: m/z int. rel.int.
  85.1018 266.3 9
  137.0219 303.3 10
  193.0123 1487.1 52
  207.0292 374.2 13
  223.063 486.7 17
  277.1067 28490 999
  278.1104 2022.7 70
  281.0507 469.7 16
  297.0799 322.3 11
//
