ACCESSION: MSBNK-Antwerp_Univ-AN114629
RECORD_TITLE: Mono(2-ethyl-5-oxohexyl)phthalate; LC-ESI-QTOF; MS2; CE: 25eV; R=7000; [M-H]-
DATE: 2021.08.06
AUTHORS: Belova L, Covaci A, University of Antwerp, Belgium; Caballero-Casero N, University of Cordoba, Spain.
LICENSE: CC BY
COPYRIGHT: Copyright (c) 2021 by Toxicological Center, University of Antwerp, Wilrijk, Belgium
COMMENT: CONFIDENCE Reference Standard (Level 1)
COMMENT: INTERNAL_ID 1146
COMMENT: HBM4EU - science and policy for a healthy future (https://www.hbm4eu.eu)
CH$NAME: Mono(2-ethyl-5-oxohexyl)phthalate
CH$NAME: 2-(2-ethyl-5-oxohexoxy)carbonylbenzoic acid
CH$COMPOUND_CLASS: N/A; Environmental Standard
CH$FORMULA: C16H20O5
CH$EXACT_MASS: 292.1311
CH$SMILES: CCC(CCC(=O)C)COC(=O)C1=CC=CC=C1C(=O)O
CH$IUPAC: InChI=1S/C16H20O5/c1-3-12(9-8-11(2)17)10-21-16(20)14-7-5-4-6-13(14)15(18)19/h4-7,12H,3,8-10H2,1-2H3,(H,18,19)
CH$LINK: CAS 40321-98-0
CH$LINK: CHEBI CHEBI:132606
CH$LINK: PUBCHEM CID:119096
CH$LINK: INCHIKEY HCWNFKHKKHNSSL-UHFFFAOYSA-N
CH$LINK: CHEMSPIDER 106412
CH$LINK: COMPTOX DTXSID00865994
AC$INSTRUMENT: Agilent 6560 QTOF
AC$INSTRUMENT_TYPE: LC-ESI-QTOF
AC$MASS_SPECTROMETRY: MS_TYPE MS2
AC$MASS_SPECTROMETRY: ION_MODE NEGATIVE
AC$MASS_SPECTROMETRY: IONIZATION ESI
AC$MASS_SPECTROMETRY: FRAGMENTATION_MODE CID
AC$MASS_SPECTROMETRY: COLLISION_ENERGY 25 eV
AC$MASS_SPECTROMETRY: RESOLUTION 7000
AC$MASS_SPECTROMETRY: MASS_RANGE_M/Z 50-1494
AC$CHROMATOGRAPHY: COLUMN_NAME ZORBAX Extend-C18 3.5um, 2.1x50mm, Agilent Technologies
AC$CHROMATOGRAPHY: FLOW_GRADIENT 80/20 at 0 min, 80/20 at 0.5 min, 5/95 at 6 min, 5/95 at 7 min, 80/20 at 7.1 min, 80/20 at 10 min
AC$CHROMATOGRAPHY: FLOW_RATE 350 uL/min
AC$CHROMATOGRAPHY: RETENTION_TIME 2.670 min
MS$FOCUSED_ION: BASE_PEAK 291.1249
MS$FOCUSED_ION: PRECURSOR_M/Z 291.1238
MS$FOCUSED_ION: PRECURSOR_TYPE [M-H]-
MS$FOCUSED_ION: PRECURSOR_INTENSITY 98558.41
MS$DATA_PROCESSING: RECALIBRATE loess on assigned fragments and MS1
MS$DATA_PROCESSING: REANALYZE Peaks with additional N2/O included
MS$DATA_PROCESSING: WHOLE RMassBank 3.1.1
PK$SPLASH: splash10-00b9-9600000000-57fc38a44153f1be130b
PK$ANNOTATION: m/z tentative_formula formula_count mass error(ppm)
  55.0183 C3H3O- 1 55.0189 -11.14
  57.0352 C3H5O- 1 57.0346 10.61
  69.0343 C4H5O- 1 69.0346 -3.56
  71.0507 C4H7O- 1 71.0502 6
  75.0243 C6H3- 1 75.024 3.25
  77.04 C6H5- 1 77.0397 4.23
  83.0517 C5H7O- 1 83.0502 17.42
  95.0513 C6H7O- 1 95.0502 11.27
  97.0676 C6H9O- 1 97.0659 17.28
  99.0808 C6H11O- 1 99.0815 -7.28
  111.0823 C7H11O- 1 111.0815 7.29
  113.0976 C7H13O- 1 113.0972 3.65
  119.0506 C8H7O- 1 119.0502 3.35
  121.0296 C7H5O2- 1 121.0295 0.95
  125.0984 C8H13O- 1 125.0972 9.77
  143.1077 C8H15O2- 1 143.1078 -0.39
  147.0088 C8H3O3- 1 147.0088 -0.05
  184.0896 C13H12O- 1 184.0894 1.34
PK$NUM_PEAK: 18
PK$PEAK: m/z int. rel.int.
  55.0183 264.9 7
  57.0352 3542.9 98
  69.0343 757.7 21
  71.0507 2578.9 71
  75.0243 648.8 18
  77.04 35985.3 999
  83.0517 381.2 10
  95.0513 244 6
  97.0676 258.1 7
  99.0808 2675.8 74
  111.0823 275.9 7
  113.0976 3485.1 96
  119.0506 1119.4 31
  121.0296 25721.1 714
  125.0984 556.4 15
  143.1077 1392.8 38
  147.0088 501.7 13
  184.0896 202.1 5
//
