ACCESSION: MSBNK-Antwerp_Univ-METOX_N106926_9CB7
RECORD_TITLE: Oleic acid; LC-ESI-QTOF; MS2; CE: 10eV; R=7000; [M-H]-
DATE: 2022.04.09
AUTHORS: da Silva KM, Iturrospe E, van de Lavoir M, Robeyns R, University of Antwerp, Belgium
LICENSE: CC BY
COPYRIGHT: Copyright (c) 2021 by Toxicological Center, University of Antwerp, Wilrijk, Belgium
COMMENT: CONFIDENCE Standard compound
COMMENT: INTERNAL_ID 1069
CH$NAME: Oleic acid
CH$NAME: (Z)-octadec-9-enoic acid
CH$COMPOUND_CLASS: N/A; Metabolomics Standard
CH$FORMULA: C18H34O2
CH$EXACT_MASS: 282.2559
CH$SMILES: CCCCCCCC/C=C\CCCCCCCC(=O)O
CH$IUPAC: InChI=1S/C18H34O2/c1-2-3-4-5-6-7-8-9-10-11-12-13-14-15-16-17-18(19)20/h9-10H,2-8,11-17H2,1H3,(H,19,20)/b10-9-
CH$LINK: CAS 112-80-1
CH$LINK: CHEBI CHEBI:16196
CH$LINK: KEGG C00712
CH$LINK: LIPIDMAPS LMFA01030002
CH$LINK: PUBCHEM CID:445639
CH$LINK: INCHIKEY ZQPPMHVWECSIRJ-KTKRTIGZSA-N
CH$LINK: CHEMSPIDER 393217
AC$INSTRUMENT: Agilent 6560 QTOF
AC$INSTRUMENT_TYPE: LC-ESI-QTOF
AC$MASS_SPECTROMETRY: MS_TYPE MS2
AC$MASS_SPECTROMETRY: ION_MODE NEGATIVE
AC$MASS_SPECTROMETRY: IONIZATION ESI
AC$MASS_SPECTROMETRY: FRAGMENTATION_MODE CID
AC$MASS_SPECTROMETRY: COLLISION_ENERGY 10 eV
AC$MASS_SPECTROMETRY: RESOLUTION 7000
AC$MASS_SPECTROMETRY: MASS_RANGE_M/Z 87-1693
AC$CHROMATOGRAPHY: COLUMN_NAME N/A
AC$CHROMATOGRAPHY: FLOW_GRADIENT 50/50 isocratic
AC$CHROMATOGRAPHY: FLOW_RATE 200 uL/min
AC$CHROMATOGRAPHY: RETENTION_TIME 0.146 min
AC$CHROMATOGRAPHY: SOLVENT A 30/70 acetonitrile/water with 2mM ammonium acetate
AC$CHROMATOGRAPHY: SOLVENT B 88/10/2 isopropanol/acetonitrile/water with 2mM ammonium acetate
MS$FOCUSED_ION: BASE_PEAK 281.2497
MS$FOCUSED_ION: PRECURSOR_M/Z 281.2486
MS$FOCUSED_ION: PRECURSOR_TYPE [M-H]-
MS$FOCUSED_ION: PRECURSOR_INTENSITY 342518
MS$DATA_PROCESSING: RECALIBRATE loess on assigned fragments and MS1
MS$DATA_PROCESSING: REANALYZE Peaks with additional N2/O included
MS$DATA_PROCESSING: WHOLE RMassBank 3.5.2.1
PK$SPLASH: splash10-001i-0090000000-ff92e6c296de9e8d2c37
PK$ANNOTATION: m/z tentative_formula formula_count mass error(ppm)
  87.9957 C6O- 1 87.9955 2.41
  281.2495 C18H33O2- 1 281.2486 3.27
PK$NUM_PEAK: 2
PK$PEAK: m/z int. rel.int.
  87.9957 72.2 1
  281.2495 60265 999
//
