ACCESSION: MSBNK-Antwerp_Univ-AN124826
RECORD_TITLE: 5-Methylbenzotriazole; LC-ESI-QTOF; MS2; CE: 10eV; R=7000; [M-H]-
DATE: 2021.08.13
AUTHORS: Belova L, Covaci A, University of Antwerp, Belgium; Caballero-Casero N, University of Cordoba, Spain.
LICENSE: CC BY
COPYRIGHT: Copyright (c) 2021 by Toxicological Center, University of Antwerp, Wilrijk, Belgium
COMMENT: CONFIDENCE Reference Standard (Level 1)
COMMENT: INTERNAL_ID 1248
COMMENT: HBM4EU - science and policy for a healthy future (https://www.hbm4eu.eu)
CH$NAME: 5-Methylbenzotriazole
CH$NAME: 5-Methyl-1H-benzotriazole
CH$NAME: 5-methyl-2H-benzotriazole
CH$COMPOUND_CLASS: N/A; Environmental Standard
CH$FORMULA: C7H7N3
CH$EXACT_MASS: 133.0640
CH$SMILES: CC1=CC2=NNN=C2C=C1
CH$IUPAC: InChI=1S/C7H7N3/c1-5-2-3-6-7(4-5)9-10-8-6/h2-4H,1H3,(H,8,9,10)
CH$LINK: CAS 136-85-6
CH$LINK: CHEBI CHEBI:83455
CH$LINK: PUBCHEM CID:8705
CH$LINK: INCHIKEY LRUDIIUSNGCQKF-UHFFFAOYSA-N
CH$LINK: CHEMSPIDER 8381
CH$LINK: COMPTOX DTXSID1038743
AC$INSTRUMENT: Agilent 6560 QTOF
AC$INSTRUMENT_TYPE: LC-ESI-QTOF
AC$MASS_SPECTROMETRY: MS_TYPE MS2
AC$MASS_SPECTROMETRY: ION_MODE NEGATIVE
AC$MASS_SPECTROMETRY: IONIZATION ESI
AC$MASS_SPECTROMETRY: FRAGMENTATION_MODE CID
AC$MASS_SPECTROMETRY: COLLISION_ENERGY 10 eV
AC$MASS_SPECTROMETRY: RESOLUTION 7000
AC$MASS_SPECTROMETRY: MASS_RANGE_M/Z 50-1497
AC$CHROMATOGRAPHY: FLOW_GRADIENT 50/50 isocratic
AC$CHROMATOGRAPHY: FLOW_RATE 200 uL/min
AC$CHROMATOGRAPHY: RETENTION_TIME 0.188 min
MS$FOCUSED_ION: BASE_PEAK 132.0569
MS$FOCUSED_ION: PRECURSOR_M/Z 132.0567
MS$FOCUSED_ION: PRECURSOR_TYPE [M-H]-
MS$FOCUSED_ION: PRECURSOR_INTENSITY 68464.39
MS$DATA_PROCESSING: RECALIBRATE loess on assigned fragments and MS1
MS$DATA_PROCESSING: REANALYZE Peaks with additional N2/O included
MS$DATA_PROCESSING: WHOLE RMassBank 3.1.1
PK$SPLASH: splash10-001i-0900000000-e493e1138d8bb5ee2449
PK$ANNOTATION: m/z tentative_formula formula_count mass error(ppm)
  64.0196 C4H2N- 1 64.0193 5.46
  89.0272 C6H3N- 1 89.0271 1.54
  102.035 C7H4N- 1 102.0349 0.32
  103.0427 C7H5N- 1 103.0427 -0.17
  104.0506 C7H6N- 1 104.0506 -0.07
  132.0567 C7H6N3- 1 132.0567 -0.06
PK$NUM_PEAK: 6
PK$PEAK: m/z int. rel.int.
  64.0196 2539.2 56
  89.0272 393.7 8
  102.035 1422.4 31
  103.0427 4768.6 106
  104.0506 3876.7 86
  132.0567 44820.5 999
//
