ACCESSION: MSBNK-Antwerp_Univ-AN114327
RECORD_TITLE: Mono(2-propyl-6-carboxyhexyl) phthalate; LC-ESI-QTOF; MS2; CE: 15eV; R=7000; [M-H]-
DATE: 2021.08.05
AUTHORS: Belova L, Covaci A, University of Antwerp, Belgium; Caballero-Casero N, University of Cordoba, Spain.
LICENSE: CC BY
COPYRIGHT: Copyright (c) 2021 by Toxicological Center, University of Antwerp, Wilrijk, Belgium
COMMENT: CONFIDENCE Reference Standard (Level 1)
COMMENT: INTERNAL_ID 1143
COMMENT: HBM4EU - science and policy for a healthy future (https://www.hbm4eu.eu)
CH$NAME: Mono(2-propyl-6-carboxyhexyl) phthalate
CH$NAME: 2-(((6-Carboxy-2-propylhexyl)oxy)carbonyl)benzoic acid
CH$NAME: 2-(6-carboxy-2-propylhexoxy)carbonylbenzoic acid
CH$COMPOUND_CLASS: N/A; Environmental Standard
CH$FORMULA: C18H24O6
CH$EXACT_MASS: 336.1573
CH$SMILES: CCCC(CCCCC(=O)O)COC(=O)c1ccccc1C(=O)O
CH$IUPAC: InChI=1S/C18H24O6/c1-2-7-13(8-3-6-11-16(19)20)12-24-18(23)15-10-5-4-9-14(15)17(21)22/h4-5,9-10,13H,2-3,6-8,11-12H2,1H3,(H,19,20)(H,21,22)
CH$LINK: PUBCHEM CID:139036037
CH$LINK: INCHIKEY DPQMLPCFIOCYFY-UHFFFAOYSA-N
AC$INSTRUMENT: Agilent 6560 QTOF
AC$INSTRUMENT_TYPE: LC-ESI-QTOF
AC$MASS_SPECTROMETRY: MS_TYPE MS2
AC$MASS_SPECTROMETRY: ION_MODE NEGATIVE
AC$MASS_SPECTROMETRY: IONIZATION ESI
AC$MASS_SPECTROMETRY: FRAGMENTATION_MODE CID
AC$MASS_SPECTROMETRY: COLLISION_ENERGY 15 eV
AC$MASS_SPECTROMETRY: RESOLUTION 7000
AC$MASS_SPECTROMETRY: MASS_RANGE_M/Z 50-1494
AC$CHROMATOGRAPHY: COLUMN_NAME ZORBAX Extend-C18 3.5um, 2.1x50mm, Agilent Technologies
AC$CHROMATOGRAPHY: FLOW_GRADIENT 80/20 at 0 min, 80/20 at 0.5 min, 5/95 at 6 min, 5/95 at 7 min, 80/20 at 7.1 min, 80/20 at 10 min
AC$CHROMATOGRAPHY: FLOW_RATE 350 uL/min
AC$CHROMATOGRAPHY: RETENTION_TIME 2.845 min
MS$FOCUSED_ION: BASE_PEAK 335.1506
MS$FOCUSED_ION: PRECURSOR_M/Z 335.15
MS$FOCUSED_ION: PRECURSOR_TYPE [M-H]-
MS$FOCUSED_ION: PRECURSOR_INTENSITY 99512.21
MS$DATA_PROCESSING: RECALIBRATE loess on assigned fragments and MS1
MS$DATA_PROCESSING: REANALYZE Peaks with additional N2/O included
MS$DATA_PROCESSING: WHOLE RMassBank 3.1.1
PK$SPLASH: splash10-000i-0900000000-d3295bb851676a04430d
PK$ANNOTATION: m/z tentative_formula formula_count mass error(ppm)
  77.0399 C6H5- 1 77.0397 3.2
  121.0292 C7H5O2- 1 121.0295 -2.42
  141.1285 C9H17O- 1 141.1285 -0.05
  147.0078 C8H3O3- 1 147.0088 -6.85
  151.1116 C10H15O- 1 151.1128 -7.98
  165.0202 C8H5O4- 1 165.0193 4.97
  169.1241 C10H17O2- 1 169.1234 4.08
  185.1167 C10H17O3- 1 185.1183 -8.58
  187.1342 C10H19O3- 1 187.134 1.48
PK$NUM_PEAK: 9
PK$PEAK: m/z int. rel.int.
  77.0399 3272.9 49
  121.0292 8782.5 132
  141.1285 4478.6 67
  147.0078 312.6 4
  151.1116 298.6 4
  165.0202 1382.6 20
  169.1241 298.3 4
  185.1167 440.3 6
  187.1342 65999.7 999
//
