ACCESSION: MSBNK-Antwerp_Univ-AN124402
RECORD_TITLE: 2-Aminobenzothiazole; LC-ESI-QTOF; MS2; CE: 10eV; R=7000; [M+H]+
DATE: 2021.08.12
AUTHORS: Belova L, Covaci A, University of Antwerp, Belgium; Caballero-Casero N, University of Cordoba, Spain.
LICENSE: CC BY
COPYRIGHT: Copyright (c) 2021 by Toxicological Center, University of Antwerp, Wilrijk, Belgium
COMMENT: CONFIDENCE Reference Standard (Level 1)
COMMENT: INTERNAL_ID 1244
COMMENT: HBM4EU - science and policy for a healthy future (https://www.hbm4eu.eu)
CH$NAME: 2-Aminobenzothiazole
CH$NAME: 1,3-benzothiazol-2-amine
CH$COMPOUND_CLASS: N/A; Environmental Standard
CH$FORMULA: C7H6N2S
CH$EXACT_MASS: 150.0252
CH$SMILES: C1=CC=C2C(=C1)N=C(S2)N
CH$IUPAC: InChI=1S/C7H6N2S/c8-7-9-5-3-1-2-4-6(5)10-7/h1-4H,(H2,8,9)
CH$LINK: CAS 136-95-8
CH$LINK: CHEBI CHEBI:167751
CH$LINK: PUBCHEM CID:8706
CH$LINK: INCHIKEY UHGULLIUJBCTEF-UHFFFAOYSA-N
CH$LINK: CHEMSPIDER 8382
CH$LINK: COMPTOX DTXSID1024467
AC$INSTRUMENT: Agilent 6560 QTOF
AC$INSTRUMENT_TYPE: LC-ESI-QTOF
AC$MASS_SPECTROMETRY: MS_TYPE MS2
AC$MASS_SPECTROMETRY: ION_MODE POSITIVE
AC$MASS_SPECTROMETRY: IONIZATION ESI
AC$MASS_SPECTROMETRY: FRAGMENTATION_MODE CID
AC$MASS_SPECTROMETRY: COLLISION_ENERGY 10 eV
AC$MASS_SPECTROMETRY: RESOLUTION 7000
AC$MASS_SPECTROMETRY: MASS_RANGE_M/Z 53-1345
AC$CHROMATOGRAPHY: FLOW_GRADIENT 50/50 isocratic
AC$CHROMATOGRAPHY: FLOW_RATE 200 uL/min
AC$CHROMATOGRAPHY: RETENTION_TIME 0.147 min
MS$FOCUSED_ION: BASE_PEAK 151.0326
MS$FOCUSED_ION: PRECURSOR_M/Z 151.0324
MS$FOCUSED_ION: PRECURSOR_TYPE [M+H]+
MS$FOCUSED_ION: PRECURSOR_INTENSITY 369884.79
MS$DATA_PROCESSING: RECALIBRATE loess on assigned fragments and MS1
MS$DATA_PROCESSING: REANALYZE Peaks with additional N2/O included
MS$DATA_PROCESSING: WHOLE RMassBank 3.1.1
PK$SPLASH: splash10-0udi-0900000000-bb29b849234c9de7b3f3
PK$ANNOTATION: m/z tentative_formula formula_count mass error(ppm)
  65.0382 C5H5+ 1 65.0386 -5.35
  80.0487 C5H6N+ 1 80.0495 -9.5
  91.0409 C6H5N+ 1 91.0417 -8.43
  92.0494 C6H6N+ 1 92.0495 -1.02
  97.0105 C5H5S+ 1 97.0106 -1.5
  109.0104 C6H5S+ 1 109.0106 -2.55
  118.0524 C7H6N2+ 1 118.0525 -1.57
  124.0213 C6H6NS+ 1 124.0215 -2.36
  151.032 C7H7N2S+ 1 151.0324 -2.81
PK$NUM_PEAK: 9
PK$PEAK: m/z int. rel.int.
  65.0382 2309.2 7
  80.0487 1378.7 4
  91.0409 385.1 1
  92.0494 6342.4 19
  97.0105 770.5 2
  109.0104 15350.4 47
  118.0524 1629.7 5
  124.0213 14834.8 46
  151.032 320341.2 999
//
