ACCESSION: MSBNK-Antwerp_Univ-AN114430
RECORD_TITLE: Mono(2-ethylhexyl) phthalate; LC-ESI-QTOF; MS2; CE: 30eV; R=7000; [M-H]-
DATE: 2021.08.06
AUTHORS: Belova L, Covaci A, University of Antwerp, Belgium; Caballero-Casero N, University of Cordoba, Spain.
LICENSE: CC BY
COPYRIGHT: Copyright (c) 2021 by Toxicological Center, University of Antwerp, Wilrijk, Belgium
COMMENT: CONFIDENCE Reference Standard (Level 1)
COMMENT: INTERNAL_ID 1144
COMMENT: HBM4EU - science and policy for a healthy future (https://www.hbm4eu.eu)
CH$NAME: Mono(2-ethylhexyl) phthalate
CH$NAME: 2-(((2-Ethylhexyl)oxy)carbonyl)benzoic acid
CH$NAME: 2-(2-ethylhexoxycarbonyl)benzoic acid
CH$COMPOUND_CLASS: N/A; Environmental Standard
CH$FORMULA: C16H22O4
CH$EXACT_MASS: 278.1518
CH$SMILES: CCCCC(CC)COC(=O)C1=CC=CC=C1C(=O)O
CH$IUPAC: InChI=1S/C16H22O4/c1-3-5-8-12(4-2)11-20-16(19)14-10-7-6-9-13(14)15(17)18/h6-7,9-10,12H,3-5,8,11H2,1-2H3,(H,17,18)
CH$LINK: CAS 4376-20-9
CH$LINK: CHEBI CHEBI:17243
CH$LINK: KEGG C03343
CH$LINK: PUBCHEM CID:20393
CH$LINK: INCHIKEY DJDSLBVSSOQSLW-UHFFFAOYSA-N
CH$LINK: CHEMSPIDER 19208
CH$LINK: COMPTOX DTXSID2025680
AC$INSTRUMENT: Agilent 6560 QTOF
AC$INSTRUMENT_TYPE: LC-ESI-QTOF
AC$MASS_SPECTROMETRY: MS_TYPE MS2
AC$MASS_SPECTROMETRY: ION_MODE NEGATIVE
AC$MASS_SPECTROMETRY: IONIZATION ESI
AC$MASS_SPECTROMETRY: FRAGMENTATION_MODE CID
AC$MASS_SPECTROMETRY: COLLISION_ENERGY 30 eV
AC$MASS_SPECTROMETRY: RESOLUTION 7000
AC$MASS_SPECTROMETRY: MASS_RANGE_M/Z 50-1494
AC$CHROMATOGRAPHY: FLOW_GRADIENT 50/50 isocratic
AC$CHROMATOGRAPHY: FLOW_RATE 200 uL/min
AC$CHROMATOGRAPHY: RETENTION_TIME 0.115 min
MS$FOCUSED_ION: BASE_PEAK 277.1455
MS$FOCUSED_ION: PRECURSOR_M/Z 277.1445
MS$FOCUSED_ION: PRECURSOR_TYPE [M-H]-
MS$FOCUSED_ION: PRECURSOR_INTENSITY 47509.42
MS$DATA_PROCESSING: RECALIBRATE loess on assigned fragments and MS1
MS$DATA_PROCESSING: REANALYZE Peaks with additional N2/O included
MS$DATA_PROCESSING: WHOLE RMassBank 3.1.1
PK$SPLASH: splash10-004i-9400000000-c23c0024e6387d8b3ac7
PK$ANNOTATION: m/z tentative_formula formula_count mass error(ppm)
  75.0247 C6H3- 1 75.024 8.88
  77.0403 C6H5- 1 77.0397 7.97
  83.0512 C5H7O- 1 83.0502 12.09
  103.0185 C7H3O- 1 103.0189 -4.27
  111.0812 C7H11O- 1 111.0815 -3.36
  119.0147 C7H3O2- 1 119.0139 6.88
  121.0299 C7H5O2- 1 121.0295 3.62
  125.0984 C8H13O- 1 125.0972 10.08
  127.1141 C8H15O- 1 127.1128 10.15
  134.0366 C8H6O2- 1 134.0373 -5.71
  135.047 C8H7O2- 1 135.0452 13.59
  147.0093 C8H3O3- 1 147.0088 3.77
PK$NUM_PEAK: 12
PK$PEAK: m/z int. rel.int.
  75.0247 4473 209
  77.0403 21286.2 999
  83.0512 204.2 9
  103.0185 489.1 22
  111.0812 245 11
  119.0147 519.1 24
  121.0299 3078.7 144
  125.0984 922.6 43
  127.1141 4314.6 202
  134.0366 675.2 31
  135.047 293.5 13
  147.0093 2392.1 112
//
