ACCESSION: MSBNK-Antwerp_Univ-AN114231
RECORD_TITLE: Mono-2-(propyl-6-oxoheptyl)-phthalate; LC-ESI-QTOF; MS2; CE: 35eV; R=7000; [M-H]-
DATE: 2021.08.05
AUTHORS: Belova L, Covaci A, University of Antwerp, Belgium; Caballero-Casero N, University of Cordoba, Spain.
LICENSE: CC BY
COPYRIGHT: Copyright (c) 2021 by Toxicological Center, University of Antwerp, Wilrijk, Belgium
COMMENT: CONFIDENCE Reference Standard (Level 1)
COMMENT: INTERNAL_ID 1142
COMMENT: HBM4EU - science and policy for a healthy future (https://www.hbm4eu.eu)
CH$NAME: Mono-2-(propyl-6-oxoheptyl)-phthalate
CH$NAME: 2-(((6-Oxo-2-propylheptyl)oxy)carbonyl)benzoic Acid
CH$NAME: 2-(6-oxo-2-propylheptoxy)carbonylbenzoic acid
CH$COMPOUND_CLASS: N/A; Environmental Standard
CH$FORMULA: C18H24O5
CH$EXACT_MASS: 320.1624
CH$SMILES: CCCC(CCCC(C)=O)COC(=O)c1ccccc1C(=O)O
CH$IUPAC: InChI=1S/C18H24O5/c1-3-7-14(9-6-8-13(2)19)12-23-18(22)16-11-5-4-10-15(16)17(20)21/h4-5,10-11,14H,3,6-9,12H2,1-2H3,(H,20,21)
CH$LINK: PUBCHEM CID:131668297
CH$LINK: INCHIKEY NSGSMZPMFOBAFF-UHFFFAOYSA-N
CH$LINK: CHEMSPIDER 48062590
CH$LINK: COMPTOX DTXSID101009357
AC$INSTRUMENT: Agilent 6560 QTOF
AC$INSTRUMENT_TYPE: LC-ESI-QTOF
AC$MASS_SPECTROMETRY: MS_TYPE MS2
AC$MASS_SPECTROMETRY: ION_MODE NEGATIVE
AC$MASS_SPECTROMETRY: IONIZATION ESI
AC$MASS_SPECTROMETRY: FRAGMENTATION_MODE CID
AC$MASS_SPECTROMETRY: COLLISION_ENERGY 35 eV
AC$MASS_SPECTROMETRY: RESOLUTION 7000
AC$MASS_SPECTROMETRY: MASS_RANGE_M/Z 51-1491
AC$CHROMATOGRAPHY: COLUMN_NAME ZORBAX Extend-C18 3.5um, 2.1x50mm, Agilent Technologies
AC$CHROMATOGRAPHY: FLOW_GRADIENT 80/20 at 0 min, 80/20 at 0.5 min, 5/95 at 6 min, 5/95 at 7 min, 80/20 at 7.1 min, 80/20 at 10 min
AC$CHROMATOGRAPHY: FLOW_RATE 350 uL/min
AC$CHROMATOGRAPHY: RETENTION_TIME 3.939 min
MS$FOCUSED_ION: BASE_PEAK 319.1546
MS$FOCUSED_ION: PRECURSOR_M/Z 319.1551
MS$FOCUSED_ION: PRECURSOR_TYPE [M-H]-
MS$FOCUSED_ION: PRECURSOR_INTENSITY 41126.54
MS$DATA_PROCESSING: RECALIBRATE loess on assigned fragments and MS1
MS$DATA_PROCESSING: REANALYZE Peaks with additional N2/O included
MS$DATA_PROCESSING: WHOLE RMassBank 3.1.1
PK$SPLASH: splash10-004i-9300000000-02e0b5df63efcc808ee9
PK$ANNOTATION: m/z tentative_formula formula_count mass error(ppm)
  57.0351 C3H5O- 1 57.0346 9.21
  69.0346 C4H5O- 1 69.0346 0.29
  71.0502 C4H7O- 1 71.0502 -0.73
  75.0248 C6H3- 1 75.024 10.45
  77.0401 C6H5- 1 77.0397 5.96
  83.0513 C5H7O- 1 83.0502 12.36
  85.0656 C5H9O- 1 85.0659 -2.92
  119.0504 C8H7O- 1 119.0502 1.66
  121.0293 C7H5O2- 1 121.0295 -1.92
  123.0825 C8H11O- 1 123.0815 8.01
  125.097 C8H13O- 1 125.0972 -1.22
  127.1124 C8H15O- 1 127.1128 -3.69
  147.0087 C8H3O3- 1 147.0088 -0.43
PK$NUM_PEAK: 13
PK$PEAK: m/z int. rel.int.
  57.0351 1730.4 78
  69.0346 263.3 11
  71.0502 460.3 20
  75.0248 479.5 21
  77.0401 21990.9 999
  83.0513 256.4 11
  85.0656 606.9 27
  119.0504 212 9
  121.0293 6718.2 305
  123.0825 428.7 19
  125.097 727.4 33
  127.1124 309.2 14
  147.0087 338.8 15
//
