ACCESSION: MSBNK-Antwerp_Univ-AN115527
RECORD_TITLE: Mono-hydroxy-isononyl phthalate; LC-ESI-QTOF; MS2; CE: 15eV; R=7000; [M-H]-
DATE: 2021.08.06
AUTHORS: Belova L, Covaci A, University of Antwerp, Belgium; Caballero-Casero N, University of Cordoba, Spain.
LICENSE: CC BY
COPYRIGHT: Copyright (c) 2021 by Toxicological Center, University of Antwerp, Wilrijk, Belgium
COMMENT: CONFIDENCE Reference Standard (Level 1)
COMMENT: INTERNAL_ID 1155
COMMENT: HBM4EU - science and policy for a healthy future (https://www.hbm4eu.eu)
CH$NAME: Mono-hydroxy-isononyl phthalate
CH$NAME: 1,2-Benzenedicarboxylic Acid 1-(7-Hydroxy-4-methyloctyl) Ester
CH$NAME: 2-(7-hydroxy-4-methyloctoxy)carbonylbenzoic acid
CH$COMPOUND_CLASS: N/A; Environmental Standard
CH$FORMULA: C17H24O5
CH$EXACT_MASS: 308.1624
CH$SMILES: CC(O)CCC(C)CCCOC(=O)C1=CC=CC=C1C(O)=O
CH$IUPAC: InChI=1S/C17H24O5/c1-12(9-10-13(2)18)6-5-11-22-17(21)15-8-4-3-7-14(15)16(19)20/h3-4,7-8,12-13,18H,5-6,9-11H2,1-2H3,(H,19,20)
CH$LINK: PUBCHEM CID:102401880
CH$LINK: INCHIKEY RWCHSWLUPRJYEX-UHFFFAOYSA-N
CH$LINK: CHEMSPIDER 48059182
CH$LINK: COMPTOX DTXSID501009361
AC$INSTRUMENT: Agilent 6560 QTOF
AC$INSTRUMENT_TYPE: LC-ESI-QTOF
AC$MASS_SPECTROMETRY: MS_TYPE MS2
AC$MASS_SPECTROMETRY: ION_MODE NEGATIVE
AC$MASS_SPECTROMETRY: IONIZATION ESI
AC$MASS_SPECTROMETRY: FRAGMENTATION_MODE CID
AC$MASS_SPECTROMETRY: COLLISION_ENERGY 15 eV
AC$MASS_SPECTROMETRY: RESOLUTION 7000
AC$MASS_SPECTROMETRY: MASS_RANGE_M/Z 51-1497
AC$CHROMATOGRAPHY: COLUMN_NAME ZORBAX Extend-C18 3.5um, 2.1x50mm, Agilent Technologies
AC$CHROMATOGRAPHY: FLOW_GRADIENT 80/20 at 0 min, 80/20 at 0.5 min, 5/95 at 6 min, 5/95 at 7 min, 80/20 at 7.1 min, 80/20 at 10 min
AC$CHROMATOGRAPHY: FLOW_RATE 350 uL/min
AC$CHROMATOGRAPHY: RETENTION_TIME 3.734 min
MS$FOCUSED_ION: BASE_PEAK 307.1555
MS$FOCUSED_ION: PRECURSOR_M/Z 307.1551
MS$FOCUSED_ION: PRECURSOR_TYPE [M-H]-
MS$FOCUSED_ION: PRECURSOR_INTENSITY 112974.11
MS$DATA_PROCESSING: RECALIBRATE loess on assigned fragments and MS1
MS$DATA_PROCESSING: REANALYZE Peaks with additional N2/O included
MS$DATA_PROCESSING: WHOLE RMassBank 3.1.1
PK$SPLASH: splash10-00di-2900000000-6eb4079668165d7147dc
PK$ANNOTATION: m/z tentative_formula formula_count mass error(ppm)
  69.0348 C4H5O- 1 69.0346 2.88
  77.0399 C6H5- 1 77.0397 2.71
  105.0365 C7H5O- 1 105.0346 18.12
  113.0975 C7H13O- 1 113.0972 2.97
  121.0297 C7H5O2- 1 121.0295 1.49
  147.0079 C8H3O3- 1 147.0088 -6.11
  149.0248 C8H5O3- 1 149.0244 2.58
  157.1223 C9H17O2- 1 157.1234 -6.98
  159.1393 C9H19O2- 1 159.1391 1.58
  307.1557 C17H23O5- 1 307.1551 1.98
PK$NUM_PEAK: 10
PK$PEAK: m/z int. rel.int.
  69.0348 255 3
  77.0399 17882.8 271
  105.0365 225.8 3
  113.0975 406 6
  121.0297 65770.1 999
  147.0079 2289.3 34
  149.0248 267.8 4
  157.1223 2764.6 41
  159.1393 2860.1 43
  307.1557 2171.7 32
//
