ACCESSION: MSBNK-Antwerp_Univ-AN112705
RECORD_TITLE: Diisononyl hexahydrophthalate; LC-ESI-QTOF; MS2; CE: 25eV; R=7000; [M+H]+
DATE: 2021.08.02
AUTHORS: Belova L, Covaci A, University of Antwerp, Belgium; Caballero-Casero N, University of Cordoba, Spain.
LICENSE: CC BY
COPYRIGHT: Copyright (c) 2021 by Toxicological Center, University of Antwerp, Wilrijk, Belgium
COMMENT: CONFIDENCE Reference Standard (Level 1)
COMMENT: INTERNAL_ID 1127
COMMENT: HBM4EU - science and policy for a healthy future (https://www.hbm4eu.eu)
CH$NAME: Diisononyl hexahydrophthalate
CH$NAME: bis(7-methyloctyl) cyclohexane-1,2-dicarboxylate
CH$COMPOUND_CLASS: N/A; Environmental Standard
CH$FORMULA: C26H48O4
CH$EXACT_MASS: 424.3553
CH$SMILES: CC(C)CCCCCCOC(=O)C1CCCCC1C(=O)OCCCCCCC(C)C
CH$IUPAC: InChI=1S/C26H48O4/c1-21(2)15-9-5-7-13-19-29-25(27)23-17-11-12-18-24(23)26(28)30-20-14-8-6-10-16-22(3)4/h21-24H,5-20H2,1-4H3
CH$LINK: CAS 166412-78-8
CH$LINK: PUBCHEM CID:11524680
CH$LINK: INCHIKEY HORIEOQXBKUKGQ-UHFFFAOYSA-N
CH$LINK: CHEMSPIDER 9699466
CH$LINK: COMPTOX DTXSID20274044
AC$INSTRUMENT: Agilent 6560 QTOF
AC$INSTRUMENT_TYPE: LC-ESI-QTOF
AC$MASS_SPECTROMETRY: MS_TYPE MS2
AC$MASS_SPECTROMETRY: ION_MODE POSITIVE
AC$MASS_SPECTROMETRY: IONIZATION ESI
AC$MASS_SPECTROMETRY: FRAGMENTATION_MODE CID
AC$MASS_SPECTROMETRY: COLLISION_ENERGY 25 eV
AC$MASS_SPECTROMETRY: RESOLUTION 7000
AC$MASS_SPECTROMETRY: MASS_RANGE_M/Z 51-1169
AC$CHROMATOGRAPHY: FLOW_GRADIENT 50/50 isocratic
AC$CHROMATOGRAPHY: FLOW_RATE 200 uL/min
AC$CHROMATOGRAPHY: RETENTION_TIME 0.151 min
MS$FOCUSED_ION: BASE_PEAK 447.3458
MS$FOCUSED_ION: PRECURSOR_M/Z 425.3625
MS$FOCUSED_ION: PRECURSOR_TYPE [M+H]+
MS$FOCUSED_ION: PRECURSOR_INTENSITY 31112.22
MS$DATA_PROCESSING: RECALIBRATE loess on assigned fragments and MS1
MS$DATA_PROCESSING: REANALYZE Peaks with additional N2/O included
MS$DATA_PROCESSING: WHOLE RMassBank 3.1.1
PK$SPLASH: splash10-0ac0-9100000000-14291b1fc476a91b5ff2
PK$ANNOTATION: m/z tentative_formula formula_count mass error(ppm)
  57.0702 C4H9+ 1 57.0699 5.22
  71.0859 C5H11+ 1 71.0855 5.15
  81.0699 C6H9+ 1 81.0699 0.23
  85.1015 C6H13+ 1 85.1012 3.24
  109.0638 C7H9O+ 1 109.0648 -9.06
  127.0751 C7H11O2+ 1 127.0754 -1.67
  155.0698 C8H11O3+ 1 155.0703 -2.87
  215.0901 C17H11+ 1 215.0855 21.47
PK$NUM_PEAK: 8
PK$PEAK: m/z int. rel.int.
  57.0702 7366.9 927
  71.0859 6460.1 813
  81.0699 7932.1 999
  85.1015 1809.5 227
  109.0638 916 115
  127.0751 1651.1 207
  155.0698 1884.5 237
  215.0901 437.7 55
//
