ACCESSION: MSBNK-Antwerp_Univ-METOX_N103343_571D
RECORD_TITLE: Cortisone; LC-ESI-QTOF; MS2; CE: 10eV; R=7000; [M+Cl]-
DATE: 2022.04.09
AUTHORS: da Silva KM, Iturrospe E, van de Lavoir M, Robeyns R, University of Antwerp, Belgium
LICENSE: CC BY
COPYRIGHT: Copyright (c) 2021 by Toxicological Center, University of Antwerp, Wilrijk, Belgium
COMMENT: CONFIDENCE Standard compound
COMMENT: INTERNAL_ID 1033
CH$NAME: Cortisone
CH$NAME: (8S,9S,10R,13S,14S,17R)-17-hydroxy-17-(2-hydroxyacetyl)-10,13-dimethyl-1,2,6,7,8,9,12,14,15,16-decahydrocyclopenta[a]phenanthrene-3,11-dione
CH$COMPOUND_CLASS: N/A; Metabolomics Standard
CH$FORMULA: C21H28O5
CH$EXACT_MASS: 360.1937
CH$SMILES: C[C@]12CCC(=O)C=C1CC[C@@H]3[C@@H]2C(=O)C[C@]4([C@H]3CC[C@@]4(C(=O)CO)O)C
CH$IUPAC: InChI=1S/C21H28O5/c1-19-7-5-13(23)9-12(19)3-4-14-15-6-8-21(26,17(25)11-22)20(15,2)10-16(24)18(14)19/h9,14-15,18,22,26H,3-8,10-11H2,1-2H3/t14-,15-,18+,19-,20-,21-/m0/s1
CH$LINK: CAS 53-06-5
CH$LINK: CHEBI 16962
CH$LINK: KEGG D07749
CH$LINK: LIPIDMAPS LMST02030090
CH$LINK: PUBCHEM CID:222786
CH$LINK: INCHIKEY MFYSYFVPBJMHGN-ZPOLXVRWSA-N
CH$LINK: CHEMSPIDER 193441
AC$INSTRUMENT: Agilent 6560 QTOF
AC$INSTRUMENT_TYPE: LC-ESI-QTOF
AC$MASS_SPECTROMETRY: MS_TYPE MS2
AC$MASS_SPECTROMETRY: ION_MODE NEGATIVE
AC$MASS_SPECTROMETRY: IONIZATION ESI
AC$MASS_SPECTROMETRY: FRAGMENTATION_MODE CID
AC$MASS_SPECTROMETRY: COLLISION_ENERGY 10 eV
AC$MASS_SPECTROMETRY: RESOLUTION 7000
AC$MASS_SPECTROMETRY: MASS_RANGE_M/Z 70-1699
AC$CHROMATOGRAPHY: COLUMN_NAME N/A
AC$CHROMATOGRAPHY: FLOW_GRADIENT 50/50 isocratic
AC$CHROMATOGRAPHY: FLOW_RATE 200 uL/min
AC$CHROMATOGRAPHY: RETENTION_TIME 0.163 min
AC$CHROMATOGRAPHY: SOLVENT A 30/70 acetonitrile/water with 2mM ammonium acetate
AC$CHROMATOGRAPHY: SOLVENT B 88/10/2 isopropanol/acetonitrile/water with 2mM ammonium acetate
MS$FOCUSED_ION: BASE_PEAK 329.1762
MS$FOCUSED_ION: PRECURSOR_M/Z 395.1631
MS$FOCUSED_ION: PRECURSOR_TYPE [M+Cl]-
MS$FOCUSED_ION: PRECURSOR_INTENSITY 415875
MS$DATA_PROCESSING: RECALIBRATE loess on assigned fragments and MS1
MS$DATA_PROCESSING: REANALYZE Peaks with additional N2/O included
MS$DATA_PROCESSING: WHOLE RMassBank 3.5.2.1
PK$SPLASH: splash10-0002-0229000000-b60cc4d6cb99f225280a
PK$ANNOTATION: m/z tentative_formula formula_count mass error(ppm)
  73.0284 C3H5O2- 1 73.0295 -15.12
  75.1528 ClH24O- 1 75.1521 9.44
  77.1188 CH17O3- 1 77.1183 6.3
  80.981 HO5- 1 80.9829 -23.58
  82.042 C5H6O- 1 82.0424 -4.56
  83.0839 ClH16O2- 1 83.0844 -6.9
  84.1651 C2H25Cl- 1 84.165 0.33
  84.9841 C4H2Cl- 1 84.9851 -11.3
  86.0482 C2H11ClO- 1 86.0504 -24.88
  87.0072 C3H3O3- 1 87.0088 -17.81
  87.1167 ClH20O2- 2 87.1157 10.88
  89.0476 H9O5- 1 89.0455 23.28
  95.048 ClH12O3- 2 95.048 -0.5
  95.1091 C4H15O2- 1 95.1078 14.32
  95.1792 ClH28O2- 2 95.1783 9.57
  96.1002 H16O5- 1 96.1003 -1.27
  102.1156 C4H19Cl- 1 102.1181 -24.34
  102.9572 C3ClO2- 1 102.9592 -19.93
  103.0508 C2H12ClO2- 1 103.0531 -22.44
  105.0352 C7H5O- 1 105.0346 5.57
  105.1488 C3H21O3- 1 105.1496 -7.74
  109.0085 C9H- 2 109.0084 1.08
  109.0511 C3H9O4- 1 109.0506 4.54
  109.0658 C7H9O- 2 109.0659 -0.47
  109.1008 C2H18ClO2- 2 109.1001 7.02
  115.1939 C2H27O4- 1 115.1915 21.38
  115.9887 CH5ClO4- 2 115.9882 4.09
  117.0346 C8H5O- 2 117.0346 0.2
  119.0689 C5H11O3- 1 119.0714 -20.82
  119.1056 ClH20O4- 2 119.1056 0.65
  131.1662 C5H23O3- 1 131.1653 7.19
  134.9838 C4H4ClO3- 1 134.9854 -12.09
  137.0231 CH10ClO5- 2 137.0222 6.67
  137.9844 C7H3ClO- 1 137.9878 -24.42
  138.03 CH11ClO5- 2 138.03 -0.07
  142.0215 C7H7ClO- 1 142.0191 16.74
  147.1635 C5H23O4- 1 147.1602 22.81
  148.0408 C5H8O5- 1 148.0377 21.02
  148.1492 C8H20O2- 1 148.1469 15.73
  150.1286 C7H18O3- 1 150.1261 16.09
  151.0711 C3H16ClO4- 1 151.0743 -20.61
  151.1484 C11H19- 2 151.1492 -5.27
  152.1196 C10H16O- 2 152.1207 -7.07
  157.1961 C11H25- 1 157.1962 -0.29
  158.1546 C6H22O4- 1 158.1524 14.27
  159.1255 C5H19O5- 1 159.1238 10.86
  160.0056 C10H5Cl- 1 160.0085 -18.44
  161.1585 C9H21O2- 1 161.1547 23.32
  164.1564 C12H20- 2 164.157 -3.98
  167.0447 C6H12ClO3- 1 167.048 -19.76
  170.9856 C7H4ClO3- 1 170.9854 0.65
  172.0486 C5H13ClO4- 1 172.0508 -12.46
  172.1357 C6H20O5- 1 172.1316 23.85
  174.9994 C10H4ClO- 2 174.9956 21.69
  179.1039 C5H20ClO4- 2 179.1056 -9.21
  179.1541 C10H24Cl- 1 179.1572 -17.43
  181.082 C4H18ClO5- 2 181.0848 -15.84
  181.177 C9H25O3- 2 181.1809 -21.76
  193.0331 C13H5O2- 1 193.0295 18.81
  195.0988 C5H20ClO5- 3 195.1005 -8.66
  197.1189 C11H17O3- 2 197.1183 2.94
  198.1657 C12H22O2- 1 198.1625 15.96
  201.9853 C11H3ClO2- 1 201.9827 13.04
  202.1658 C9H27ClO2- 1 202.1705 -23.45
  207.9593 C9HClO4- 1 207.9569 11.75
  209.1666 C11H26ClO- 1 209.1678 -5.57
  210.1367 C10H23ClO2- 2 210.1392 -11.87
  211.9836 C9H5ClO4- 1 211.9882 -21.67
  212.1 C12H17ClO- 1 212.0973 12.5
  212.1354 C13H21Cl- 2 212.1337 8
  216.0204 C9H9ClO4- 2 216.0195 4.1
  216.0605 C16H8O- 2 216.0581 11.5
  217.2009 C16H25- 1 217.1962 21.8
  221.9965 C13H2O4- 1 221.9959 2.77
  223.0362 C8H12ClO5- 3 223.0379 -7.54
  227.0283 C14H8ClO- 1 227.0269 6.06
  227.1528 C14H24Cl- 1 227.1572 -19.39
  231.0204 C13H8ClO2- 2 231.0218 -6.32
  231.12 C18H15- 3 231.1179 9.18
  232.0286 C13H9ClO2- 2 232.0297 -4.59
  236.0191 C12H9ClO3- 1 236.0246 -23.21
  236.0767 C10H17ClO4- 1 236.0821 -22.63
  238.9875 C14H4ClO2- 1 238.9905 -12.74
  239.0838 C13H16ClO2- 2 239.0844 -2.69
  241.185 C14H25O3- 1 241.1809 16.86
  245.0188 C17H6Cl- 3 245.0164 10.08
  246.0932 C14H14O4- 1 246.0898 13.81
  249.075 C13H13O5- 2 249.0768 -7.27
  249.1761 C12H25O5- 1 249.1707 21.62
  251.9768 C18HCl- 1 251.9772 -1.72
  253.1169 C11H22ClO4- 1 253.1212 -17.16
  253.1653 C18H21O- 1 253.1598 21.82
  259.9612 C16HClO2- 1 259.9671 -22.36
  261.1702 C13H25O5- 2 261.1707 -1.96
  261.9804 C16H3ClO2- 1 261.9827 -8.69
  263.1397 C13H24ClO3- 2 263.1419 -8.58
  265.0116 C15H5O5- 2 265.0142 -9.86
  266.9863 C15H4ClO3- 1 266.9854 3.15
  269.0381 C16H10ClO2- 1 269.0375 2.48
  269.1375 C14H21O5- 3 269.1394 -7.41
  270.1221 C11H23ClO5- 3 270.124 -6.79
  274.1135 C17H19ClO- 1 274.113 2.04
  276.145 C14H25ClO3- 1 276.1498 -17.3
  278.9814 C16H4ClO3- 1 278.9854 -14.4
  279.0574 C18H12ClO- 1 279.0582 -2.77
  281.0609 C20H9O2- 2 281.0608 0.33
  283.0731 C14H16ClO4- 2 283.0743 -4.15
  284.0936 C18H17ClO- 1 284.0973 -13.28
  284.134 C19H21Cl- 2 284.1337 0.99
  284.1963 C16H28O4- 1 284.1993 -10.58
  285.1844 C19H25O2- 1 285.186 -5.51
  288.137 C17H20O4- 1 288.1367 1.13
  289.9958 C21H3Cl- 3 289.9929 9.93
  290.0861 C20H15Cl- 2 290.0868 -2.25
  291.1161 C17H20ClO2- 1 291.1157 1.4
  295.2068 C21H27O- 1 295.2067 0.26
  297.1108 C18H17O4- 2 297.1132 -8.28
  298.1039 C21H14O2- 2 298.0999 13.31
  301.1786 C19H25O3- 2 301.1809 -7.78
  302.1463 C19H23ClO- 2 302.1443 6.62
  305.0601 C16H14ClO4- 1 305.0586 4.92
  306.9594 C20ClO2- 1 306.9592 0.69
  308.0804 C16H17ClO4- 1 308.0821 -5.52
  309.0023 C17H6ClO4- 1 308.996 20.39
  310.1766 C17H26O5- 2 310.1786 -6.26
  311.1362 C17H24ClO3- 2 311.1419 -18.43
  311.1614 C14H28ClO5- 3 311.1631 -5.44
  315.9851 C21O4- 1 315.9802 15.59
  316.1336 C18H20O5- 1 316.1316 6.35
  317.1502 C16H26ClO4- 1 317.1525 -7.14
  318.0237 C16H11ClO5- 1 318.03 -20.11
  319.0363 C16H12ClO5- 1 319.0379 -4.96
  321.1775 C18H25O5- 1 321.1707 21.12
  325.1452 C20H21O4- 1 325.1445 1.95
  326.0755 C19H15ClO3- 1 326.0715 12.24
  328.0466 C18H13ClO4- 1 328.0508 -12.77
  329.1774 C20H25O4- 1 329.1758 4.77
  330.0288 C17H11ClO5- 1 330.03 -3.8
  330.185 C20H26O4- 1 330.1837 4.06
  337.9726 C21H3ClO3- 1 337.9776 -14.73
  339.0939 C17H20ClO5- 1 339.1005 -19.41
  346.034 C21H11ClO3- 1 346.0402 -18.02
  348.1511 C20H25ClO3- 1 348.1498 3.91
  349.1148 C19H22ClO4- 2 349.1212 -18.48
  356.1447 C18H25ClO5- 1 356.1396 14.19
  357.0523 C19H14ClO5- 1 357.0535 -3.29
  368.0368 C20H13ClO5- 1 368.0457 -24.05
  372.1224 C21H21ClO4- 1 372.1134 24.11
  395.165 C21H28ClO5- 1 395.1631 4.78
PK$NUM_PEAK: 149
PK$PEAK: m/z int. rel.int.
  73.0284 82.7 57
  75.1528 13 9
  77.1188 15 10
  80.981 12.4 8
  82.042 13 9
  83.0839 16 11
  84.1651 13 9
  84.9841 13 9
  86.0482 16.7 11
  87.0072 13 9
  87.1167 12.4 8
  89.0476 12.4 8
  95.048 13.2 9
  95.1091 15 10
  95.1792 13 9
  96.1002 14 9
  102.1156 12 8
  102.9572 15.1 10
  103.0508 13 9
  105.0352 17.4 12
  105.1488 14.3 9
  109.0085 14.9 10
  109.0511 15.8 11
  109.0658 14 9
  109.1008 16.2 11
  115.1939 12 8
  115.9887 14 9
  117.0346 13 9
  119.0689 14 9
  119.1056 16.9 11
  131.1662 17 11
  134.9838 14 9
  137.0231 14.3 9
  137.9844 15.1 10
  138.03 15 10
  142.0215 12.4 8
  147.1635 13.2 9
  148.0408 13 9
  148.1492 17 11
  150.1286 14 9
  151.0711 14.3 9
  151.1484 14.6 10
  152.1196 14.1 9
  157.1961 12.1 8
  158.1546 14 9
  159.1255 12 8
  160.0056 14.2 9
  161.1585 13 9
  164.1564 16 11
  167.0447 14 9
  170.9856 15.1 10
  172.0486 16.9 11
  172.1357 14 9
  174.9994 40 27
  179.1039 73.5 51
  179.1541 18 12
  181.082 14 9
  181.177 17 11
  193.0331 23.7 16
  195.0988 14.3 9
  197.1189 12 8
  198.1657 13 9
  201.9853 13 9
  202.1658 15.1 10
  207.9593 16 11
  209.1666 15 10
  210.1367 15.8 11
  211.9836 14.3 9
  212.1 14 9
  212.1354 12 8
  216.0204 15 10
  216.0605 18.6 13
  217.2009 15.4 10
  221.9965 17 11
  223.0362 13 9
  227.0283 14 9
  227.1528 21 14
  231.0204 13 9
  231.12 16 11
  232.0286 16 11
  236.0191 15.1 10
  236.0767 12 8
  238.9875 14 9
  239.0838 16 11
  241.185 17.8 12
  245.0188 12 8
  246.0932 13 9
  249.075 15 10
  249.1761 13 9
  251.9768 14.6 10
  253.1169 17.8 12
  253.1653 13 9
  259.9612 14.6 10
  261.1702 17.4 12
  261.9804 14.6 10
  263.1397 15 10
  265.0116 12 8
  266.9863 14.9 10
  269.0381 12 8
  269.1375 14 9
  270.1221 14 9
  274.1135 14 9
  276.145 12.1 8
  278.9814 31.1 21
  279.0574 15.1 10
  281.0609 12 8
  283.0731 14.6 10
  284.0936 15 10
  284.134 12 8
  284.1963 16 11
  285.1844 16 11
  288.137 13.5 9
  289.9958 16.9 11
  290.0861 15.1 10
  291.1161 17 11
  295.2068 15.1 10
  297.1108 15 10
  298.1039 14 9
  301.1786 129.3 90
  302.1463 14 9
  305.0601 13 9
  306.9594 12 8
  308.0804 15.4 10
  309.0023 14 9
  310.1766 13 9
  311.1362 14 9
  311.1614 32.2 22
  315.9851 16.9 11
  316.1336 16.9 11
  317.1502 14 9
  318.0237 13 9
  319.0363 13 9
  321.1775 13 9
  325.1452 18.9 13
  326.0755 12 8
  328.0466 45.1 31
  329.1774 598.1 418
  330.0288 34.3 24
  330.185 117 81
  337.9726 13.2 9
  339.0939 15.8 11
  346.034 12 8
  348.1511 13 9
  349.1148 17 11
  356.1447 17 11
  357.0523 13.2 9
  368.0368 16 11
  372.1224 12 8
  395.165 1428.8 999
//
