ACCESSION: MSBNK-Antwerp_Univ-METOX_N100732_3B51
RECORD_TITLE: Medroxyprogesterone; LC-ESI-QTOF; MS2; CE: 10eV; R=7000; [M+CH3COO]-
DATE: 2022.04.09
AUTHORS: da Silva KM, Iturrospe E, van de Lavoir M, Robeyns R, University of Antwerp, Belgium
LICENSE: CC BY
COPYRIGHT: Copyright (c) 2021 by Toxicological Center, University of Antwerp, Wilrijk, Belgium
COMMENT: CONFIDENCE Standard compound
COMMENT: INTERNAL_ID 1007
CH$NAME: Medroxyprogesterone
CH$NAME: 17-Hydroxy-6-methylpregn-4-ene-3,20-dione
CH$NAME: (8R,9S,10R,13S,14S,17R)-17-acetyl-17-hydroxy-6,10,13-trimethyl-2,6,7,8,9,11,12,14,15,16-decahydro-1H-cyclopenta[a]phenanthren-3-one
CH$COMPOUND_CLASS: N/A; Metabolomics Standard
CH$FORMULA: C22H32O3
CH$EXACT_MASS: 344.2351
CH$SMILES: CC1C[C@@H]2[C@H](CC[C@]3([C@H]2CC[C@@]3(C(=O)C)O)C)[C@@]4(C1=CC(=O)CC4)C
CH$IUPAC: InChI=1S/C22H32O3/c1-13-11-16-17(20(3)8-5-15(24)12-19(13)20)6-9-21(4)18(16)7-10-22(21,25)14(2)23/h12-13,16-18,25H,5-11H2,1-4H3/t13?,16-,17+,18+,20-,21+,22+/m1/s1
CH$LINK: CAS 14423-24-6
CH$LINK: PUBCHEM CID:203441
CH$LINK: INCHIKEY FRQMUZJSZHZSGN-NJMUXRGYSA-N
CH$LINK: CHEMSPIDER 176204
AC$INSTRUMENT: Agilent 6560 QTOF
AC$INSTRUMENT_TYPE: LC-ESI-QTOF
AC$MASS_SPECTROMETRY: MS_TYPE MS2
AC$MASS_SPECTROMETRY: ION_MODE NEGATIVE
AC$MASS_SPECTROMETRY: IONIZATION ESI
AC$MASS_SPECTROMETRY: FRAGMENTATION_MODE CID
AC$MASS_SPECTROMETRY: COLLISION_ENERGY 10 eV
AC$MASS_SPECTROMETRY: RESOLUTION 7000
AC$MASS_SPECTROMETRY: MASS_RANGE_M/Z 74-1643
AC$CHROMATOGRAPHY: COLUMN_NAME N/A
AC$CHROMATOGRAPHY: FLOW_GRADIENT 50/50 isocratic
AC$CHROMATOGRAPHY: FLOW_RATE 200 uL/min
AC$CHROMATOGRAPHY: RETENTION_TIME 0.164 min
AC$CHROMATOGRAPHY: SOLVENT A 30/70 acetonitrile/water with 2mM ammonium acetate
AC$CHROMATOGRAPHY: SOLVENT B 88/10/2 isopropanol/acetonitrile/water with 2mM ammonium acetate
MS$FOCUSED_ION: BASE_PEAK 980.0164
MS$FOCUSED_ION: PRECURSOR_M/Z 403.249
MS$FOCUSED_ION: PRECURSOR_TYPE [M+CH3COO]-
MS$FOCUSED_ION: PRECURSOR_INTENSITY 11779
MS$DATA_PROCESSING: RECALIBRATE loess on assigned fragments and MS1
MS$DATA_PROCESSING: REANALYZE Peaks with additional N2/O included
MS$DATA_PROCESSING: WHOLE RMassBank 3.5.2.1
PK$SPLASH: splash10-0006-0129000000-4c2684dafc075e70e0a0
PK$ANNOTATION: m/z tentative_formula formula_count mass error(ppm)
  145.2366 C4H33O4- 1 145.2384 -12.82
  179.0543 C13H7O- 1 179.0502 22.59
  261.2488 C15H33O3- 1 261.2435 20.19
  270.1497 C14H22O5- 1 270.1473 8.99
  294.1467 C16H22O5- 2 294.1473 -1.97
  297.2552 C22H33- 1 297.2588 -12.07
  308.1627 C17H24O5- 2 308.1629 -0.79
  328.1418 C23H20O2- 1 328.1469 -15.36
  343.2245 C22H31O3- 1 343.2279 -9.68
PK$NUM_PEAK: 9
PK$PEAK: m/z int. rel.int.
  145.2366 45.1 95
  179.0543 48.7 102
  261.2488 27.6 58
  270.1497 52.2 109
  294.1467 33.3 70
  297.2552 38.8 81
  308.1627 22.1 46
  328.1418 73.5 154
  343.2245 473.8 999
//
