ACCESSION: MSBNK-Antwerp_Univ-AN116033
RECORD_TITLE: Mono(2-ethyl-5-carboxypentyl) adipate; LC-ESI-QTOF; MS2; CE: 45eV; R=7000; [M-H]-
DATE: 2021.08.06
AUTHORS: Belova L, Covaci A, University of Antwerp, Belgium; Caballero-Casero N, University of Cordoba, Spain.
LICENSE: CC BY
COPYRIGHT: Copyright (c) 2021 by Toxicological Center, University of Antwerp, Wilrijk, Belgium
COMMENT: CONFIDENCE Reference Standard (Level 1)
COMMENT: INTERNAL_ID 1160
COMMENT: HBM4EU - science and policy for a healthy future (https://www.hbm4eu.eu)
CH$NAME: Mono(2-ethyl-5-carboxypentyl) adipate
CH$NAME: 5-(5-carboxypentanoyloxymethyl)heptanoic acid
CH$COMPOUND_CLASS: N/A; Environmental Standard
CH$FORMULA: C14H24O6
CH$EXACT_MASS: 288.1573
CH$SMILES: CCC(CCCC(=O)O)COC(=O)CCCCC(=O)O
CH$IUPAC: InChI=1S/C14H24O6/c1-2-11(6-5-8-13(17)18)10-20-14(19)9-4-3-7-12(15)16/h11H,2-10H2,1H3,(H,15,16)(H,17,18)
CH$LINK: PUBCHEM CID:155898863
CH$LINK: INCHIKEY GSEREAHHKPORII-UHFFFAOYSA-N
AC$INSTRUMENT: Agilent 6560 QTOF
AC$INSTRUMENT_TYPE: LC-ESI-QTOF
AC$MASS_SPECTROMETRY: MS_TYPE MS2
AC$MASS_SPECTROMETRY: ION_MODE NEGATIVE
AC$MASS_SPECTROMETRY: IONIZATION ESI
AC$MASS_SPECTROMETRY: FRAGMENTATION_MODE CID
AC$MASS_SPECTROMETRY: COLLISION_ENERGY 45 eV
AC$MASS_SPECTROMETRY: RESOLUTION 7000
AC$MASS_SPECTROMETRY: MASS_RANGE_M/Z 52-1478
AC$CHROMATOGRAPHY: COLUMN_NAME ZORBAX Extend-C18 3.5um, 2.1x50mm, Agilent Technologies
AC$CHROMATOGRAPHY: FLOW_GRADIENT 80/20 at 0 min, 80/20 at 0.5 min, 5/95 at 6 min, 5/95 at 7 min, 80/20 at 7.1 min, 80/20 at 10 min
AC$CHROMATOGRAPHY: FLOW_RATE 350 uL/min
AC$CHROMATOGRAPHY: RETENTION_TIME 5.288 min
MS$FOCUSED_ION: BASE_PEAK 287.1495
MS$FOCUSED_ION: PRECURSOR_M/Z 287.15
MS$FOCUSED_ION: PRECURSOR_TYPE [M-H]-
MS$FOCUSED_ION: PRECURSOR_INTENSITY 32426.41
MS$DATA_PROCESSING: RECALIBRATE loess on assigned fragments and MS1
MS$DATA_PROCESSING: REANALYZE Peaks with additional N2/O included
MS$DATA_PROCESSING: WHOLE RMassBank 3.1.1
PK$SPLASH: splash10-001i-9200000000-6c7eb399ff3a419bab16
PK$ANNOTATION: m/z tentative_formula formula_count mass error(ppm)
  53.0405 C4H5- 1 53.0397 15.63
  81.0347 C5H5O- 1 81.0346 1.57
  83.05 C5H7O- 1 83.0502 -3.02
  101.0602 C5H9O2- 1 101.0608 -5.53
  113.0964 C7H13O- 1 113.0972 -7.26
  145.0476 C6H9O4- 1 145.0506 -20.86
PK$NUM_PEAK: 6
PK$PEAK: m/z int. rel.int.
  53.0405 406.7 36
  81.0347 11242 999
  83.05 8548.4 759
  101.0602 3808.4 338
  113.0964 774.2 68
  145.0476 303.3 26
//
