ACCESSION: MSBNK-Antwerp_Univ-METOX_N100627_9CB7
RECORD_TITLE: Dimethylbenzimidazole; LC-ESI-QTOF; MS2; CE: 10eV; R=7000; [M-H]-
DATE: 2022.04.09
AUTHORS: da Silva KM, Iturrospe E, van de Lavoir M, Robeyns R, University of Antwerp, Belgium
LICENSE: CC BY
COPYRIGHT: Copyright (c) 2021 by Toxicological Center, University of Antwerp, Wilrijk, Belgium
COMMENT: CONFIDENCE Standard compound
COMMENT: INTERNAL_ID 1006
CH$NAME: Dimethylbenzimidazole
CH$NAME: 5,6-Dimethylbenzimidazole
CH$NAME: 5,6-dimethyl-1H-benzimidazole
CH$COMPOUND_CLASS: N/A; Metabolomics Standard
CH$FORMULA: C9H10N2
CH$EXACT_MASS: 146.0844
CH$SMILES: CC1=CC2=C(C=C1C)N=CN2
CH$IUPAC: InChI=1S/C9H10N2/c1-6-3-8-9(4-7(6)2)11-5-10-8/h3-5H,1-2H3,(H,10,11)
CH$LINK: CAS 582-60-5
CH$LINK: CHEBI CHEBI:15890
CH$LINK: KEGG C03114
CH$LINK: PUBCHEM CID:675
CH$LINK: INCHIKEY LJUQGASMPRMWIW-UHFFFAOYSA-N
CH$LINK: CHEMSPIDER 655
AC$INSTRUMENT: Agilent 6560 QTOF
AC$INSTRUMENT_TYPE: LC-ESI-QTOF
AC$MASS_SPECTROMETRY: MS_TYPE MS2
AC$MASS_SPECTROMETRY: ION_MODE NEGATIVE
AC$MASS_SPECTROMETRY: IONIZATION ESI
AC$MASS_SPECTROMETRY: FRAGMENTATION_MODE CID
AC$MASS_SPECTROMETRY: COLLISION_ENERGY 10 eV
AC$MASS_SPECTROMETRY: RESOLUTION 7000
AC$MASS_SPECTROMETRY: MASS_RANGE_M/Z 78-1675
AC$CHROMATOGRAPHY: COLUMN_NAME N/A
AC$CHROMATOGRAPHY: FLOW_GRADIENT 50/50 isocratic
AC$CHROMATOGRAPHY: FLOW_RATE 200 uL/min
AC$CHROMATOGRAPHY: RETENTION_TIME 0.192 min
AC$CHROMATOGRAPHY: SOLVENT A 30/70 acetonitrile/water with 2mM ammonium acetate
AC$CHROMATOGRAPHY: SOLVENT B 88/10/2 isopropanol/acetonitrile/water with 2mM ammonium acetate
MS$FOCUSED_ION: BASE_PEAK 255.233
MS$FOCUSED_ION: PRECURSOR_M/Z 145.0771
MS$FOCUSED_ION: PRECURSOR_TYPE [M-H]-
MS$FOCUSED_ION: PRECURSOR_INTENSITY 50977
MS$DATA_PROCESSING: RECALIBRATE loess on assigned fragments and MS1
MS$DATA_PROCESSING: REANALYZE Peaks with additional N2/O included
MS$DATA_PROCESSING: WHOLE RMassBank 3.5.2.1
PK$SPLASH: splash10-0002-0900000000-c623793b75966610147c
PK$ANNOTATION: m/z tentative_formula formula_count mass error(ppm)
  144.0688 C9H8N2- 1 144.0693 -3.6
  145.0766 C9H9N2- 1 145.0771 -3.39
PK$NUM_PEAK: 2
PK$PEAK: m/z int. rel.int.
  144.0688 610 87
  145.0766 6988.6 999
//
