ACCESSION: MSBNK-Antwerp_Univ-AN113001
RECORD_TITLE: Dipropyleneglycol-dibenzoate; LC-ESI-QTOF; MS2; CE: 10eV; R=7000; [M+H]+
DATE: 2021.08.05
AUTHORS: Belova L, Covaci A, University of Antwerp, Belgium; Caballero-Casero N, University of Cordoba, Spain.
LICENSE: CC BY
COPYRIGHT: Copyright (c) 2021 by Toxicological Center, University of Antwerp, Wilrijk, Belgium
COMMENT: CONFIDENCE Reference Standard (Level 1)
COMMENT: INTERNAL_ID 1130
COMMENT: HBM4EU - science and policy for a healthy future (https://www.hbm4eu.eu)
CH$NAME: Dipropyleneglycol-dibenzoate
CH$NAME: Di(propylene glycol) dibenzoate
CH$NAME: 1-(2-benzoyloxypropoxy)propan-2-yl benzoate
CH$COMPOUND_CLASS: N/A; Environmental Standard
CH$FORMULA: C20H22O5
CH$EXACT_MASS: 342.1467
CH$SMILES: CC(COCC(C)OC(=O)C1=CC=CC=C1)OC(=O)C1=CC=CC=C1
CH$IUPAC: InChI=1S/C20H22O5/c1-15(24-19(21)17-9-5-3-6-10-17)13-23-14-16(2)25-20(22)18-11-7-4-8-12-18/h3-12,15-16H,13-14H2,1-2H3
CH$LINK: CAS 94-03-1
CH$LINK: PUBCHEM CID:101560
CH$LINK: INCHIKEY IZYUWBATGXUSIK-UHFFFAOYSA-N
CH$LINK: CHEMSPIDER 91768
CH$LINK: COMPTOX DTXSID6027921
AC$INSTRUMENT: Agilent 6560 QTOF
AC$INSTRUMENT_TYPE: LC-ESI-QTOF
AC$MASS_SPECTROMETRY: MS_TYPE MS2
AC$MASS_SPECTROMETRY: ION_MODE POSITIVE
AC$MASS_SPECTROMETRY: IONIZATION ESI
AC$MASS_SPECTROMETRY: FRAGMENTATION_MODE CID
AC$MASS_SPECTROMETRY: COLLISION_ENERGY 10 eV
AC$MASS_SPECTROMETRY: RESOLUTION 7000
AC$MASS_SPECTROMETRY: MASS_RANGE_M/Z 51-644
AC$CHROMATOGRAPHY: COLUMN_NAME ZORBAX Extend-C18 3.5um, 2.1x50mm, Agilent Technologies
AC$CHROMATOGRAPHY: FLOW_GRADIENT 80/20 at 0 min, 80/20 at 0.5 min, 5/95 at 6 min, 5/95 at 7 min, 80/20 at 7.1 min, 80/20 at 10 min
AC$CHROMATOGRAPHY: FLOW_RATE 350 uL/min
AC$CHROMATOGRAPHY: RETENTION_TIME 5.387 min
MS$FOCUSED_ION: BASE_PEAK 365.1373
MS$FOCUSED_ION: PRECURSOR_M/Z 343.154
MS$FOCUSED_ION: PRECURSOR_TYPE [M+H]+
MS$FOCUSED_ION: PRECURSOR_INTENSITY 33344.95
MS$DATA_PROCESSING: RECALIBRATE loess on assigned fragments and MS1
MS$DATA_PROCESSING: REANALYZE Peaks with additional N2/O included
MS$DATA_PROCESSING: WHOLE RMassBank 3.1.1
PK$SPLASH: splash10-03di-0900000000-5d3c11588f877266d588
PK$ANNOTATION: m/z tentative_formula formula_count mass error(ppm)
  77.0395 C6H5+ 1 77.0386 12.16
  105.0335 C7H5O+ 1 105.0335 -0.21
  163.0752 C10H11O2+ 1 163.0754 -0.85
  164.0792 C10H12O2+ 1 164.0832 -24.28
  221.1143 C13H17O3+ 1 221.1172 -13.04
PK$NUM_PEAK: 5
PK$PEAK: m/z int. rel.int.
  77.0395 352.1 15
  105.0335 8237.8 372
  163.0752 22100.5 999
  164.0792 1104.9 49
  221.1143 225.8 10
//
