ACCESSION: MSBNK-Antwerp_Univ-AN117008
RECORD_TITLE: Tris(2-chloroethyl) phosphate; LC-ESI-QTOF; MS2; CE: 40eV; R=7000; [M+H]+
DATE: 2021.08.09
AUTHORS: Belova L, Covaci A, University of Antwerp, Belgium; Caballero-Casero N, University of Cordoba, Spain.
LICENSE: CC BY
COPYRIGHT: Copyright (c) 2021 by Toxicological Center, University of Antwerp, Wilrijk, Belgium
COMMENT: CONFIDENCE Reference Standard (Level 1)
COMMENT: INTERNAL_ID 1170
COMMENT: HBM4EU - science and policy for a healthy future (https://www.hbm4eu.eu)
CH$NAME: Tris(2-chloroethyl) phosphate
CH$COMPOUND_CLASS: N/A; Environmental Standard
CH$FORMULA: C6H12Cl3O4P
CH$EXACT_MASS: 283.9539
CH$SMILES: C(CCl)OP(=O)(OCCCl)OCCCl
CH$IUPAC: InChI=1S/C6H12Cl3O4P/c7-1-4-11-14(10,12-5-2-8)13-6-3-9/h1-6H2
CH$LINK: CAS 68411-66-5
CH$LINK: CHEBI CHEBI:35037
CH$LINK: KEGG C14445
CH$LINK: PUBCHEM CID:8295
CH$LINK: INCHIKEY HQUQLFOMPYWACS-UHFFFAOYSA-N
CH$LINK: CHEMSPIDER 7994
CH$LINK: COMPTOX DTXSID5021411
AC$INSTRUMENT: Agilent 6560 QTOF
AC$INSTRUMENT_TYPE: LC-ESI-QTOF
AC$MASS_SPECTROMETRY: MS_TYPE MS2
AC$MASS_SPECTROMETRY: ION_MODE POSITIVE
AC$MASS_SPECTROMETRY: IONIZATION ESI
AC$MASS_SPECTROMETRY: FRAGMENTATION_MODE CID
AC$MASS_SPECTROMETRY: COLLISION_ENERGY 40 eV
AC$MASS_SPECTROMETRY: RESOLUTION 7000
AC$MASS_SPECTROMETRY: MASS_RANGE_M/Z 62-100
AC$CHROMATOGRAPHY: COLUMN_NAME ZORBAX Extend-C18 3.5um, 2.1x50mm, Agilent Technologies
AC$CHROMATOGRAPHY: FLOW_GRADIENT 80/20 at 0 min, 80/20 at 0.5 min, 5/95 at 6 min, 5/95 at 7 min, 80/20 at 7.1 min, 80/20 at 10 min
AC$CHROMATOGRAPHY: FLOW_RATE 350 uL/min
AC$CHROMATOGRAPHY: RETENTION_TIME 1.779 min
MS$FOCUSED_ION: BASE_PEAK 284.961
MS$FOCUSED_ION: PRECURSOR_M/Z 284.9612
MS$FOCUSED_ION: PRECURSOR_TYPE [M+H]+
MS$FOCUSED_ION: PRECURSOR_INTENSITY 3418.27
MS$DATA_PROCESSING: RECALIBRATE loess on assigned fragments and MS1
MS$DATA_PROCESSING: REANALYZE Peaks with additional N2/O included
MS$DATA_PROCESSING: WHOLE RMassBank 3.1.1
PK$SPLASH: splash10-03ea-9000000000-54be62f300c5c8352eab
PK$ANNOTATION: m/z tentative_formula formula_count mass error(ppm)
  62.9633 CClO+ 2 62.9632 1.41
  62.9997 C2H4Cl+ 2 62.9996 0.86
  80.9744 CH2ClO2+ 2 80.9738 7.44
  98.9843 CH4ClO3+ 2 98.9843 -0.41
PK$NUM_PEAK: 4
PK$PEAK: m/z int. rel.int.
  62.9633 210.1 148
  62.9997 1409.8 999
  80.9744 911.3 645
  98.9843 817.6 579
//
