ACCESSION: MSBNK-Antwerp_Univ-AN124712
RECORD_TITLE: 4-Methylbenzotriazole; LC-ESI-QTOF; MS2; CE: 60eV; R=7000; [M+H]+
DATE: 2021.08.13
AUTHORS: Belova L, Covaci A, University of Antwerp, Belgium; Caballero-Casero N, University of Cordoba, Spain.
LICENSE: CC BY
COPYRIGHT: Copyright (c) 2021 by Toxicological Center, University of Antwerp, Wilrijk, Belgium
COMMENT: CONFIDENCE Reference Standard (Level 1)
COMMENT: INTERNAL_ID 1247
COMMENT: HBM4EU - science and policy for a healthy future (https://www.hbm4eu.eu)
CH$NAME: 4-Methylbenzotriazole
CH$NAME: 4-Methyl-1H-benzotriazole
CH$NAME: 4-methyl-2H-benzotriazole
CH$COMPOUND_CLASS: N/A; Environmental Standard
CH$FORMULA: C7H7N3
CH$EXACT_MASS: 133.0640
CH$SMILES: CC1=CC=CC2=NNN=C12
CH$IUPAC: InChI=1S/C7H7N3/c1-5-3-2-4-6-7(5)9-10-8-6/h2-4H,1H3,(H,8,9,10)
CH$LINK: CAS 29878-31-7
CH$LINK: PUBCHEM CID:122499
CH$LINK: INCHIKEY CMGDVUCDZOBDNL-UHFFFAOYSA-N
CH$LINK: CHEMSPIDER 109219
CH$LINK: COMPTOX DTXSID50274037
AC$INSTRUMENT: Agilent 6560 QTOF
AC$INSTRUMENT_TYPE: LC-ESI-QTOF
AC$MASS_SPECTROMETRY: MS_TYPE MS2
AC$MASS_SPECTROMETRY: ION_MODE POSITIVE
AC$MASS_SPECTROMETRY: IONIZATION ESI
AC$MASS_SPECTROMETRY: FRAGMENTATION_MODE CID
AC$MASS_SPECTROMETRY: COLLISION_ENERGY 60 eV
AC$MASS_SPECTROMETRY: RESOLUTION 7000
AC$MASS_SPECTROMETRY: MASS_RANGE_M/Z 50-1249
AC$CHROMATOGRAPHY: FLOW_GRADIENT 50/50 isocratic
AC$CHROMATOGRAPHY: FLOW_RATE 200 uL/min
AC$CHROMATOGRAPHY: RETENTION_TIME 0.146 min
MS$FOCUSED_ION: BASE_PEAK 134.0713
MS$FOCUSED_ION: PRECURSOR_M/Z 134.0713
MS$FOCUSED_ION: PRECURSOR_TYPE [M+H]+
MS$FOCUSED_ION: PRECURSOR_INTENSITY 20474.31
MS$DATA_PROCESSING: RECALIBRATE loess on assigned fragments and MS1
MS$DATA_PROCESSING: REANALYZE Peaks with additional N2/O included
MS$DATA_PROCESSING: WHOLE RMassBank 3.1.1
PK$SPLASH: splash10-0udi-9000000000-992f7ec4257da51e1f2d
PK$ANNOTATION: m/z tentative_formula formula_count mass error(ppm)
  50.0148 C4H2+ 1 50.0151 -5.39
  51.0231 C4H3+ 1 51.0229 4.03
  53.0384 C4H5+ 1 53.0386 -3.21
  62.0153 C5H2+ 1 62.0151 3.09
  63.0233 C5H3+ 1 63.0229 6.36
  64.0297 C5H4+ 1 64.0308 -16.64
  66.035 C4H4N+ 1 66.0338 17.27
  75.022 C6H3+ 1 75.0229 -12.29
  77.0387 C6H5+ 1 77.0386 1.09
PK$NUM_PEAK: 9
PK$PEAK: m/z int. rel.int.
  50.0148 441.3 37
  51.0231 11852.1 999
  53.0384 456.1 38
  62.0153 202.6 17
  63.0233 1140.5 96
  64.0297 393.1 33
  66.035 240.3 20
  75.022 210.5 17
  77.0387 3462.4 291
//
