ACCESSION: MSBNK-Antwerp_Univ-AN124602
RECORD_TITLE: Benzotriazole; LC-ESI-QTOF; MS2; CE: 10eV; R=7000; [M+H]+
DATE: 2021.09.04
AUTHORS: Belova L, Covaci A, University of Antwerp, Belgium; Caballero-Casero N, University of Cordoba, Spain.
LICENSE: CC BY
COPYRIGHT: Copyright (c) 2021 by Toxicological Center, University of Antwerp, Wilrijk, Belgium
COMMENT: CONFIDENCE Reference Standard (Level 1)
COMMENT: INTERNAL_ID 1246
COMMENT: HBM4EU - science and policy for a healthy future (https://www.hbm4eu.eu)
CH$NAME: Benzotriazole
CH$NAME: 1H-Benzotriazole
CH$NAME: 2H-benzotriazole
CH$COMPOUND_CLASS: N/A; Environmental Standard
CH$FORMULA: C6H5N3
CH$EXACT_MASS: 119.0483
CH$SMILES: C1=CC2=NNN=C2C=C1
CH$IUPAC: InChI=1S/C6H5N3/c1-2-4-6-5(3-1)7-9-8-6/h1-4H,(H,7,8,9)
CH$LINK: CAS 95-14-7
CH$LINK: CHEBI CHEBI:75331
CH$LINK: PUBCHEM CID:7220
CH$LINK: INCHIKEY QRUDEWIWKLJBPS-UHFFFAOYSA-N
CH$LINK: CHEMSPIDER 6950
CH$LINK: COMPTOX DTXSID6020147
AC$INSTRUMENT: Agilent 6560 QTOF
AC$INSTRUMENT_TYPE: LC-ESI-QTOF
AC$MASS_SPECTROMETRY: MS_TYPE MS2
AC$MASS_SPECTROMETRY: ION_MODE POSITIVE
AC$MASS_SPECTROMETRY: IONIZATION ESI
AC$MASS_SPECTROMETRY: FRAGMENTATION_MODE CID
AC$MASS_SPECTROMETRY: COLLISION_ENERGY 10 eV
AC$MASS_SPECTROMETRY: RESOLUTION 7000
AC$MASS_SPECTROMETRY: MASS_RANGE_M/Z 65-942
AC$CHROMATOGRAPHY: COLUMN_NAME InfinityLab Poroshell 120 EC-C18 2.7µm, 3x100mm, Agilent Technologies
AC$CHROMATOGRAPHY: FLOW_GRADIENT 95/5 at 0 min, 50/50 at 3 min, 20/80 at 5 min, 2/98 at 16 min, 2/98 at 17 min, 95/5 at 17.1 min, 95/5 at 21 min
AC$CHROMATOGRAPHY: FLOW_RATE 300 uL/min
AC$CHROMATOGRAPHY: RETENTION_TIME 5.204 min
MS$FOCUSED_ION: BASE_PEAK 120.0537
MS$FOCUSED_ION: PRECURSOR_M/Z 120.0556
MS$FOCUSED_ION: PRECURSOR_TYPE [M+H]+
MS$FOCUSED_ION: PRECURSOR_INTENSITY 20063.27
MS$DATA_PROCESSING: RECALIBRATE loess on assigned fragments and MS1
MS$DATA_PROCESSING: REANALYZE Peaks with additional N2/O included
MS$DATA_PROCESSING: WHOLE RMassBank 3.1.1
PK$SPLASH: splash10-00di-2900000000-cf887d4623c543c060df
PK$ANNOTATION: m/z tentative_formula formula_count mass error(ppm)
  65.037 C5H5+ 1 65.0386 -24.78
  92.0475 C6H6N+ 1 92.0495 -21.47
  120.0533 C6H6N3+ 1 120.0556 -19.62
PK$NUM_PEAK: 3
PK$PEAK: m/z int. rel.int.
  65.037 2652.1 185
  92.0475 1200.6 84
  120.0533 14259.8 999
//
