ACCESSION: MSBNK-Antwerp_Univ-AN116509
RECORD_TITLE: Bis(3,5,5-trimethylhexyl)phosphate; LC-ESI-QTOF; MS2; CE: 45eV; R=7000; [M+H]+
DATE: 2021.08.09
AUTHORS: Belova L, Covaci A, University of Antwerp, Belgium; Caballero-Casero N, University of Cordoba, Spain.
LICENSE: CC BY
COPYRIGHT: Copyright (c) 2021 by Toxicological Center, University of Antwerp, Wilrijk, Belgium
COMMENT: CONFIDENCE Reference Standard (Level 1)
COMMENT: INTERNAL_ID 1165
COMMENT: HBM4EU - science and policy for a healthy future (https://www.hbm4eu.eu)
CH$NAME: Bis(3,5,5-trimethylhexyl)phosphate
CH$NAME: bis(3,5,5-trimethylhexyl) hydrogen phosphate
CH$COMPOUND_CLASS: N/A; Environmental Standard
CH$FORMULA: C18H39O4P
CH$EXACT_MASS: 350.2586
CH$SMILES: CC(CCOP(=O)(O)OCCC(C)CC(C)(C)C)CC(C)(C)C
CH$IUPAC: InChI=1S/C18H39O4P/c1-15(13-17(3,4)5)9-11-21-23(19,20)22-12-10-16(2)14-18(6,7)8/h15-16H,9-14H2,1-8H3,(H,19,20)
CH$LINK: CAS 7153-98-2
CH$LINK: PUBCHEM CID:96179
CH$LINK: INCHIKEY LPOAIFBVIQAMFA-UHFFFAOYSA-N
CH$LINK: CHEMSPIDER 86821
CH$LINK: COMPTOX DTXSID10992028
AC$INSTRUMENT: Agilent 6560 QTOF
AC$INSTRUMENT_TYPE: LC-ESI-QTOF
AC$MASS_SPECTROMETRY: MS_TYPE MS2
AC$MASS_SPECTROMETRY: ION_MODE POSITIVE
AC$MASS_SPECTROMETRY: IONIZATION ESI
AC$MASS_SPECTROMETRY: FRAGMENTATION_MODE CID
AC$MASS_SPECTROMETRY: COLLISION_ENERGY 45 eV
AC$MASS_SPECTROMETRY: RESOLUTION 7000
AC$MASS_SPECTROMETRY: MASS_RANGE_M/Z 55-1182
AC$CHROMATOGRAPHY: COLUMN_NAME ZORBAX Extend-C18 3.5um, 2.1x50mm, Agilent Technologies
AC$CHROMATOGRAPHY: FLOW_GRADIENT 80/20 at 0 min, 80/20 at 0.5 min, 5/95 at 6 min, 5/95 at 7 min, 80/20 at 7.1 min, 80/20 at 10 min
AC$CHROMATOGRAPHY: FLOW_RATE 350 uL/min
AC$CHROMATOGRAPHY: RETENTION_TIME 2.761 min
MS$FOCUSED_ION: BASE_PEAK 351.2657
MS$FOCUSED_ION: PRECURSOR_M/Z 351.2659
MS$FOCUSED_ION: PRECURSOR_TYPE [M+H]+
MS$FOCUSED_ION: PRECURSOR_INTENSITY 18205.41
MS$DATA_PROCESSING: RECALIBRATE loess on assigned fragments and MS1
MS$DATA_PROCESSING: REANALYZE Peaks with additional N2/O included
MS$DATA_PROCESSING: WHOLE RMassBank 3.1.1
PK$SPLASH: splash10-052b-9000000000-2ea067dcc04da1493a12
PK$ANNOTATION: m/z tentative_formula formula_count mass error(ppm)
  57.0705 C4H9+ 1 57.0699 11.68
  62.9638 O2P+ 1 62.963 12.79
  71.0852 C5H11+ 1 71.0855 -5.28
  80.9741 H2O3P+ 1 80.9736 5.69
  98.9844 H4O4P+ 1 98.9842 2.13
PK$NUM_PEAK: 5
PK$PEAK: m/z int. rel.int.
  57.0705 6589 896
  62.9638 524.4 71
  71.0852 1023.2 139
  80.9741 1924.9 262
  98.9844 7339.1 999
//
