ACCESSION: MSBNK-Antwerp_Univ-METOX_P102001_F638
RECORD_TITLE: METHYLGUANIDINE; LC-ESI-QTOF; MS2; CE: 10eV; R=5000; [M+H]+
DATE: 2021.12.13
AUTHORS: da Silva KM, Iturrospe E, van de Lavoir M, Robeyns R, University of Antwerp, Belgium
LICENSE: CC BY
COPYRIGHT: Copyright (c) 2021 by Toxicological Center, University of Antwerp, Wilrijk, Belgium
COMMENT: CONFIDENCE Standard compound
COMMENT: INTERNAL_ID 1020
CH$NAME: METHYLGUANIDINE
CH$NAME: 2-methylguanidine
CH$COMPOUND_CLASS: N/A; Metabolomics Standard
CH$FORMULA: C2H7N3
CH$EXACT_MASS: 73.06400
CH$SMILES: CNC(N)=N
CH$IUPAC: InChI=1S/C2H7N3/c1-5-2(3)4/h1H3,(H4,3,4,5)
CH$LINK: CAS 471-29-4
CH$LINK: CHEBI CHEBI:16628
CH$LINK: KEGG C02294
CH$LINK: PUBCHEM CID:10111
CH$LINK: INCHIKEY CHJJGSNFBQVOTG-UHFFFAOYSA-N
CH$LINK: CHEMSPIDER 9707
CH$LINK: COMPTOX DTXSID4020872
AC$INSTRUMENT: Agilent 6530 QTOF
AC$INSTRUMENT_TYPE: LC-ESI-QTOF
AC$MASS_SPECTROMETRY: MS_TYPE MS2
AC$MASS_SPECTROMETRY: ION_MODE POSITIVE
AC$MASS_SPECTROMETRY: IONIZATION ESI
AC$MASS_SPECTROMETRY: FRAGMENTATION_MODE CID
AC$MASS_SPECTROMETRY: COLLISION_ENERGY 10 eV
AC$MASS_SPECTROMETRY: RESOLUTION 5000
AC$MASS_SPECTROMETRY: MASS_RANGE_M/Z 41-998
AC$CHROMATOGRAPHY: COLUMN_NAME N/A
AC$CHROMATOGRAPHY: FLOW_GRADIENT 50/50 isocratic
AC$CHROMATOGRAPHY: FLOW_RATE 200 uL/min
AC$CHROMATOGRAPHY: RETENTION_TIME 0.218 min
AC$CHROMATOGRAPHY: SOLVENT A 90/10 water with 10mM ammonium formate + 0.1% formic acid/methanol
AC$CHROMATOGRAPHY: SOLVENT B acetonitrile
MS$FOCUSED_ION: BASE_PEAK 74.0724
MS$FOCUSED_ION: PRECURSOR_M/Z 74.0713
MS$FOCUSED_ION: PRECURSOR_TYPE [M+H]+
MS$FOCUSED_ION: PRECURSOR_INTENSITY 5821898
MS$DATA_PROCESSING: RECALIBRATE loess on assigned fragments and MS1
MS$DATA_PROCESSING: REANALYZE Peaks with additional N2/O included
MS$DATA_PROCESSING: WHOLE RMassBank 3.4.0
PK$SPLASH: splash10-0a4i-9000000000-ad2520d3dc7bd43d628b
PK$ANNOTATION: m/z tentative_formula formula_count mass error(ppm)
  43.0296 CH3N2+ 1 43.0291 11.91
  55.0289 C2H3N2+ 1 55.0291 -3.39
  57.0451 C2H5N2+ 1 57.0447 6.8
  59.0478 CH5N3+ 1 59.0478 -0.43
  74.0712 C2H8N3+ 1 74.0713 -0.61
PK$NUM_PEAK: 5
PK$PEAK: m/z int. rel.int.
  43.0296 43395 83
  55.0289 1378.4 2
  57.0451 516847.7 999
  59.0478 1277 2
  74.0712 240100.7 464
//
