ACCESSION: MSBNK-Antwerp_Univ-AN111522
RECORD_TITLE: Butyryl trihexyl citrate; LC-ESI-QTOF; MS2; CE: 50eV; R=7000; [M+Na]+
DATE: 2021.08.02
AUTHORS: Belova L, Covaci A, University of Antwerp, Belgium; Caballero-Casero N, University of Cordoba, Spain.
LICENSE: CC BY
COPYRIGHT: Copyright (c) 2021 by Toxicological Center, University of Antwerp, Wilrijk, Belgium
COMMENT: CONFIDENCE Reference Standard (Level 1)
COMMENT: INTERNAL_ID 1115
COMMENT: HBM4EU - science and policy for a healthy future (https://www.hbm4eu.eu)
CH$NAME: Butyryl trihexyl citrate
CH$NAME: trihexyl 2-butanoyloxypropane-1,2,3-tricarboxylate
CH$COMPOUND_CLASS: N/A; Environmental Standard
CH$FORMULA: C28H50O8
CH$EXACT_MASS: 514.3506
CH$SMILES: CCCCCCOC(=O)CC(CC(=O)OCCCCCC)(C(=O)OCCCCCC)OC(=O)CCC
CH$IUPAC: InChI=1S/C28H50O8/c1-5-9-12-15-19-33-25(30)22-28(36-24(29)18-8-4,27(32)35-21-17-14-11-7-3)23-26(31)34-20-16-13-10-6-2/h5-23H2,1-4H3
CH$LINK: CAS 82469-79-2
CH$LINK: PUBCHEM CID:133914
CH$LINK: INCHIKEY GWVUTNGDMGTPFE-UHFFFAOYSA-N
CH$LINK: CHEMSPIDER 118086
CH$LINK: COMPTOX DTXSID0047535
AC$INSTRUMENT: Agilent 6560 QTOF
AC$INSTRUMENT_TYPE: LC-ESI-QTOF
AC$MASS_SPECTROMETRY: MS_TYPE MS2
AC$MASS_SPECTROMETRY: ION_MODE POSITIVE
AC$MASS_SPECTROMETRY: IONIZATION ESI
AC$MASS_SPECTROMETRY: FRAGMENTATION_MODE CID
AC$MASS_SPECTROMETRY: COLLISION_ENERGY 50 eV
AC$MASS_SPECTROMETRY: RESOLUTION 7000
AC$MASS_SPECTROMETRY: MASS_RANGE_M/Z 68-329
AC$CHROMATOGRAPHY: FLOW_GRADIENT 50/50 isocratic
AC$CHROMATOGRAPHY: FLOW_RATE 200 uL/min
AC$CHROMATOGRAPHY: RETENTION_TIME 0.147 min
MS$FOCUSED_ION: BASE_PEAK 537.3414
MS$FOCUSED_ION: PRECURSOR_M/Z 537.3398
MS$FOCUSED_ION: PRECURSOR_TYPE [M+Na]+
MS$FOCUSED_ION: PRECURSOR_INTENSITY 5518.7
MS$DATA_PROCESSING: RECALIBRATE loess on assigned fragments and MS1
MS$DATA_PROCESSING: REANALYZE Peaks with additional N2/O included
MS$DATA_PROCESSING: WHOLE RMassBank 3.1.1
PK$SPLASH: splash10-0btd-0970000000-16b4fa9e1237b73bffa0
PK$ANNOTATION: m/z tentative_formula formula_count mass error(ppm)
  111.0069 C5H3O3+ 2 111.0077 -7.13
  148.0705 C4H13NaO4+ 2 148.0706 -0.6
  190.999 C9H3O5+ 2 190.9975 7.96
  207.0304 C10H7O5+ 2 207.0288 7.7
  248.9849 C14HO5+ 2 248.9818 12.13
PK$NUM_PEAK: 5
PK$PEAK: m/z int. rel.int.
  111.0069 362.4 691
  148.0705 208.5 397
  190.999 302.8 577
  207.0304 523.8 999
  248.9849 205.4 391
//
