ACCESSION: MSBNK-Antwerp_Univ-AN118006
RECORD_TITLE: Tris(2-butoxyethyl) phosphate; LC-ESI-QTOF; MS2; CE: 30eV; R=7000; [M+H]+
DATE: 2021.08.09
AUTHORS: Belova L, Covaci A, University of Antwerp, Belgium; Caballero-Casero N, University of Cordoba, Spain.
LICENSE: CC BY
COPYRIGHT: Copyright (c) 2021 by Toxicological Center, University of Antwerp, Wilrijk, Belgium
COMMENT: CONFIDENCE Reference Standard (Level 1)
COMMENT: INTERNAL_ID 1180
COMMENT: HBM4EU - science and policy for a healthy future (https://www.hbm4eu.eu)
CH$NAME: Tris(2-butoxyethyl) phosphate
CH$COMPOUND_CLASS: N/A; Environmental Standard
CH$FORMULA: C18H39O7P
CH$EXACT_MASS: 398.2433
CH$SMILES: CCCCOCCOP(=O)(OCCOCCCC)OCCOCCCC
CH$IUPAC: InChI=1S/C18H39O7P/c1-4-7-10-20-13-16-23-26(19,24-17-14-21-11-8-5-2)25-18-15-22-12-9-6-3/h4-18H2,1-3H3
CH$LINK: CAS 78-51-3
CH$LINK: CHEBI CHEBI:35038
CH$LINK: KEGG C14446
CH$LINK: PUBCHEM CID:6540
CH$LINK: INCHIKEY WTLBZVNBAKMVDP-UHFFFAOYSA-N
CH$LINK: CHEMSPIDER 6292
CH$LINK: COMPTOX DTXSID5021758
AC$INSTRUMENT: Agilent 6560 QTOF
AC$INSTRUMENT_TYPE: LC-ESI-QTOF
AC$MASS_SPECTROMETRY: MS_TYPE MS2
AC$MASS_SPECTROMETRY: ION_MODE POSITIVE
AC$MASS_SPECTROMETRY: IONIZATION ESI
AC$MASS_SPECTROMETRY: FRAGMENTATION_MODE CID
AC$MASS_SPECTROMETRY: COLLISION_ENERGY 30 eV
AC$MASS_SPECTROMETRY: RESOLUTION 7000
AC$MASS_SPECTROMETRY: MASS_RANGE_M/Z 55-841
AC$CHROMATOGRAPHY: FLOW_GRADIENT 50/50 isocratic
AC$CHROMATOGRAPHY: FLOW_RATE 200 uL/min
AC$CHROMATOGRAPHY: RETENTION_TIME 0.115 min
MS$FOCUSED_ION: BASE_PEAK 149.0233
MS$FOCUSED_ION: PRECURSOR_M/Z 399.2506
MS$FOCUSED_ION: PRECURSOR_TYPE [M+H]+
MS$FOCUSED_ION: PRECURSOR_INTENSITY 9027.47
MS$DATA_PROCESSING: RECALIBRATE loess on assigned fragments and MS1
MS$DATA_PROCESSING: REANALYZE Peaks with additional N2/O included
MS$DATA_PROCESSING: WHOLE RMassBank 3.1.1
PK$SPLASH: splash10-0a4i-9000000000-e787e6ae9a34067d94d4
PK$ANNOTATION: m/z tentative_formula formula_count mass error(ppm)
  55.0543 C4H7+ 1 55.0542 1.47
  57.0701 C4H9+ 1 57.0699 3.44
  59.0497 C3H7O+ 1 59.0491 9.74
  98.9845 H4O4P+ 1 98.9842 3.15
PK$NUM_PEAK: 4
PK$PEAK: m/z int. rel.int.
  55.0543 2050.2 519
  57.0701 3938.9 999
  59.0497 263.9 66
  98.9845 1194.6 302
//
