ACCESSION: MSBNK-Antwerp_Univ-AN119602
RECORD_TITLE: Bis(2-butoxyethyl) hydrogen phosphate; LC-ESI-QTOF; MS2; CE: 10eV; R=7000; [M+H]+
DATE: 2021.08.11
AUTHORS: Belova L, Covaci A, University of Antwerp, Belgium; Caballero-Casero N, University of Cordoba, Spain.
LICENSE: CC BY
COPYRIGHT: Copyright (c) 2021 by Toxicological Center, University of Antwerp, Wilrijk, Belgium
COMMENT: CONFIDENCE Reference Standard (Level 1)
COMMENT: INTERNAL_ID 1196
COMMENT: HBM4EU - science and policy for a healthy future (https://www.hbm4eu.eu)
CH$NAME: Bis(2-butoxyethyl) hydrogen phosphate
CH$COMPOUND_CLASS: N/A; Environmental Standard
CH$FORMULA: C12H27O6P
CH$EXACT_MASS: 298.1545
CH$SMILES: CCCCOCCOP(=O)(O)OCCOCCCC
CH$IUPAC: InChI=1S/C12H27O6P/c1-3-5-7-15-9-11-17-19(13,14)18-12-10-16-8-6-4-2/h3-12H2,1-2H3,(H,13,14)
CH$LINK: CAS 14260-97-0
CH$LINK: PUBCHEM CID:84299
CH$LINK: INCHIKEY NNXWIPHZHATIFE-UHFFFAOYSA-N
CH$LINK: CHEMSPIDER 76047
CH$LINK: COMPTOX DTXSID3065740
AC$INSTRUMENT: Agilent 6560 QTOF
AC$INSTRUMENT_TYPE: LC-ESI-QTOF
AC$MASS_SPECTROMETRY: MS_TYPE MS2
AC$MASS_SPECTROMETRY: ION_MODE POSITIVE
AC$MASS_SPECTROMETRY: IONIZATION ESI
AC$MASS_SPECTROMETRY: FRAGMENTATION_MODE CID
AC$MASS_SPECTROMETRY: COLLISION_ENERGY 10 eV
AC$MASS_SPECTROMETRY: RESOLUTION 7000
AC$MASS_SPECTROMETRY: MASS_RANGE_M/Z 55-1207
AC$CHROMATOGRAPHY: FLOW_GRADIENT 50/50 isocratic
AC$CHROMATOGRAPHY: FLOW_RATE 200 uL/min
AC$CHROMATOGRAPHY: RETENTION_TIME 0.145 min
MS$FOCUSED_ION: BASE_PEAK 321.1445
MS$FOCUSED_ION: PRECURSOR_M/Z 299.1618
MS$FOCUSED_ION: PRECURSOR_TYPE [M+H]+
MS$FOCUSED_ION: PRECURSOR_INTENSITY 15938.8
MS$DATA_PROCESSING: RECALIBRATE loess on assigned fragments and MS1
MS$DATA_PROCESSING: REANALYZE Peaks with additional N2/O included
MS$DATA_PROCESSING: WHOLE RMassBank 3.1.1
PK$SPLASH: splash10-0a4j-9400000000-b9f708cbb8be8170c6dd
PK$ANNOTATION: m/z tentative_formula formula_count mass error(ppm)
  55.0547 C4H7+ 1 55.0542 8.09
  57.0706 C4H9+ 1 57.0699 12.54
  59.0496 C3H7O+ 1 59.0491 7.75
  83.0851 C6H11+ 1 83.0855 -5.52
  98.9837 H4O4P+ 1 98.9842 -4.91
  101.0959 C6H13O+ 1 101.0961 -1.72
  143.0097 C2H8O5P+ 2 143.0104 -5.07
  199.0735 C6H16O5P+ 1 199.073 2.81
  299.161 C12H28O6P+ 1 299.1618 -2.63
PK$NUM_PEAK: 9
PK$PEAK: m/z int. rel.int.
  55.0547 2206 494
  57.0706 4455.5 999
  59.0496 408.8 91
  83.0851 952.7 213
  98.9837 561.8 125
  101.0959 1410.6 316
  143.0097 991.9 222
  199.0735 2294 514
  299.161 494.3 110
//
