ACCESSION: MSBNK-Antwerp_Univ-METOX_N107606_F638
RECORD_TITLE: 1-hexadecanoyl-2-(9Z-octadecenoyl)-sn-glycero-3-phosphocholine; LC-ESI-QTOF; MS2; CE: 10eV; R=7000; [M+H]+
DATE: 2022.04.07
AUTHORS: da Silva KM, Iturrospe E, van de Lavoir M, Robeyns R, University of Antwerp, Belgium
LICENSE: CC BY
COPYRIGHT: Copyright (c) 2021 by Toxicological Center, University of Antwerp, Wilrijk, Belgium
COMMENT: CONFIDENCE Standard compound
COMMENT: INTERNAL_ID 1076
CH$NAME: 1-hexadecanoyl-2-(9Z-octadecenoyl)-sn-glycero-3-phosphocholine
CH$NAME: 1-Palmitoyl-2-oleoyl-sn-glycero-3-phosphocholine
CH$NAME: [(2R)-3-hexadecanoyloxy-2-[(Z)-octadec-9-enoyl]oxypropyl] 2-(trimethylazaniumyl)ethyl phosphate
CH$COMPOUND_CLASS: N/A; Metabolomics Standard
CH$FORMULA: C42H82NO8P
CH$EXACT_MASS: 759.5778
CH$SMILES: [C@](COP(=O)([O-])OCC[N+](C)(C)C)([H])(OC(CCCCCCC/C=C\CCCCCCCC)=O)COC(CCCCCCCCCCCCCCC)=O
CH$IUPAC: InChI=1S/C42H82NO8P/c1-6-8-10-12-14-16-18-20-21-23-25-27-29-31-33-35-42(45)51-40(39-50-52(46,47)49-37-36-43(3,4)5)38-48-41(44)34-32-30-28-26-24-22-19-17-15-13-11-9-7-2/h20-21,40H,6-19,22-39H2,1-5H3/b21-20-/t40-/m1/s1
CH$LINK: CAS 70778-75-5
CH$LINK: CHEBI CHEBI:73001
CH$LINK: LIPIDMAPS LMGP01010005
CH$LINK: PUBCHEM CID:5497103
CH$LINK: INCHIKEY WTJKGGKOPKCXLL-VYOBOKEXSA-N
CH$LINK: CHEMSPIDER 4593686
AC$INSTRUMENT: Agilent 6560 QTOF
AC$INSTRUMENT_TYPE: LC-ESI-QTOF
AC$MASS_SPECTROMETRY: MS_TYPE MS2
AC$MASS_SPECTROMETRY: ION_MODE POSITIVE
AC$MASS_SPECTROMETRY: IONIZATION ESI
AC$MASS_SPECTROMETRY: FRAGMENTATION_MODE CID
AC$MASS_SPECTROMETRY: COLLISION_ENERGY 10 eV
AC$MASS_SPECTROMETRY: RESOLUTION 7000
AC$MASS_SPECTROMETRY: MASS_RANGE_M/Z 71-1571
AC$CHROMATOGRAPHY: COLUMN_NAME Direct injection
AC$CHROMATOGRAPHY: FLOW_GRADIENT 50/50 isocratic
AC$CHROMATOGRAPHY: FLOW_RATE 200 uL/min
AC$CHROMATOGRAPHY: RETENTION_TIME 0.211 min
AC$CHROMATOGRAPHY: SOLVENT A 30/70 acetonitrile/water with 2mM ammonium acetate + 0.1% acetic acid
AC$CHROMATOGRAPHY: SOLVENT B 88/10/2 isopropanol/acetonitrile/water with 2mM ammonium acetate + 0.1% acetic acid
MS$FOCUSED_ION: BASE_PEAK 760.5875
MS$FOCUSED_ION: PRECURSOR_M/Z 760.5851
MS$FOCUSED_ION: PRECURSOR_TYPE [M+H]+
MS$FOCUSED_ION: PRECURSOR_INTENSITY 2042661
MS$DATA_PROCESSING: RECALIBRATE loess on assigned fragments and MS1
MS$DATA_PROCESSING: REANALYZE Peaks with additional N2/O included
MS$DATA_PROCESSING: WHOLE RMassBank 3.5.2.1
PK$SPLASH: splash10-03di-0400000900-80cc63875830c55b548c
PK$ANNOTATION: m/z tentative_formula formula_count mass error(ppm)
  86.097 C5H12N+ 1 86.0964 6.53
  98.9829 H4O4P+ 1 98.9842 -13.15
  104.1066 C5H14NO+ 2 104.107 -3.71
  124.9989 C2H6O4P+ 1 124.9998 -7.65
  184.0738 C5H15NO4P+ 4 184.0733 2.77
  185.0771 C2H18O7P+ 4 185.0785 -7.25
  281.0528 C12H11NO7+ 5 281.053 -0.55
  371.1011 C19H17NO7+ 6 371.1 2.99
  760.5875 C42H83NO8P+ 1 760.5851 3.14
PK$NUM_PEAK: 9
PK$PEAK: m/z int. rel.int.
  86.097 3791.2 15
  98.9829 606.2 2
  104.1066 772.3 3
  124.9989 2221.7 9
  184.0738 119562.5 490
  185.0771 1758.6 7
  281.0528 262.9 1
  371.1011 335.4 1
  760.5875 243280.1 999
//
