ACCESSION: MSBNK-Antwerp_Univ-AN119408
RECORD_TITLE: Bis(2-butoxyethyl) 3?-hydroxy-2-butoxyethyl phosphate ; LC-ESI-QTOF; MS2; CE: 40eV; R=7000; [M+H]+
DATE: 2021.08.11
AUTHORS: Belova L, Covaci A, University of Antwerp, Belgium; Caballero-Casero N, University of Cordoba, Spain.
LICENSE: CC BY
COPYRIGHT: Copyright (c) 2021 by Toxicological Center, University of Antwerp, Wilrijk, Belgium
COMMENT: CONFIDENCE Reference Standard (Level 1)
COMMENT: INTERNAL_ID 1194
COMMENT: HBM4EU - science and policy for a healthy future (https://www.hbm4eu.eu)
CH$NAME: Bis(2-butoxyethyl) 3?-hydroxy-2-butoxyethyl phosphate 
CH$NAME: Bis(2-butoxyethyl) 3-hydroxyl-2-butoxyethyl phosphate
CH$NAME: bis(2-butoxyethyl) 2-(3-hydroxybutoxy)ethyl phosphate
CH$COMPOUND_CLASS: N/A; Environmental Standard
CH$FORMULA: C18H39O8P
CH$EXACT_MASS: 414.2383
CH$SMILES: CCCCOCCOP(=O)(OCCOCCCC)OCCOCCC(C)O
CH$IUPAC: InChI=1S/C18H39O8P/c1-4-6-9-21-12-15-24-27(20,25-16-13-22-10-7-5-2)26-17-14-23-11-8-18(3)19/h18-19H,4-17H2,1-3H3
CH$LINK: PUBCHEM CID:134818028
CH$LINK: INCHIKEY ZYWDPVGRFHQPGL-UHFFFAOYSA-N
CH$LINK: CHEMSPIDER 77494176
AC$INSTRUMENT: Agilent 6560 QTOF
AC$INSTRUMENT_TYPE: LC-ESI-QTOF
AC$MASS_SPECTROMETRY: MS_TYPE MS2
AC$MASS_SPECTROMETRY: ION_MODE POSITIVE
AC$MASS_SPECTROMETRY: IONIZATION ESI
AC$MASS_SPECTROMETRY: FRAGMENTATION_MODE CID
AC$MASS_SPECTROMETRY: COLLISION_ENERGY 40 eV
AC$MASS_SPECTROMETRY: RESOLUTION 7000
AC$MASS_SPECTROMETRY: MASS_RANGE_M/Z 53-1399
AC$CHROMATOGRAPHY: FLOW_GRADIENT 50/50 isocratic
AC$CHROMATOGRAPHY: FLOW_RATE 200 uL/min
AC$CHROMATOGRAPHY: RETENTION_TIME 0.150 min
MS$FOCUSED_ION: BASE_PEAK 415.2487
MS$FOCUSED_ION: PRECURSOR_M/Z 415.2455
MS$FOCUSED_ION: PRECURSOR_TYPE [M+H]+
MS$FOCUSED_ION: PRECURSOR_INTENSITY 144667.48
MS$DATA_PROCESSING: RECALIBRATE loess on assigned fragments and MS1
MS$DATA_PROCESSING: REANALYZE Peaks with additional N2/O included
MS$DATA_PROCESSING: WHOLE RMassBank 3.1.1
PK$SPLASH: splash10-0a4i-9000000000-a7d5c5ad9ea791523a20
PK$ANNOTATION: m/z tentative_formula formula_count mass error(ppm)
  55.0546 C4H7+ 1 55.0542 7.66
  57.0706 C4H9+ 1 57.0699 11.87
  59.0496 C3H7O+ 1 59.0491 8.44
  62.9633 O2P+ 1 62.963 4.56
  69.0708 C5H9+ 1 69.0699 12.66
  71.0492 C4H7O+ 1 71.0491 0.28
  73.0655 C4H9O+ 1 73.0648 9.25
  79.0532 C6H7+ 1 79.0542 -13.56
  80.9741 H2O3P+ 1 80.9736 5.54
  81.0696 C6H9+ 1 81.0699 -3.94
  83.0854 C6H11+ 1 83.0855 -1.35
  98.9845 H4O4P+ 1 98.9842 2.9
  124.9995 C2H6O4P+ 2 124.9998 -2.89
  143.0111 C2H8O5P+ 2 143.0104 4.81
PK$NUM_PEAK: 14
PK$PEAK: m/z int. rel.int.
  55.0546 51776.4 999
  57.0706 35687.8 688
  59.0496 2118.5 40
  62.9633 260.8 5
  69.0708 540.5 10
  71.0492 3096.2 59
  73.0655 2519.6 48
  79.0532 396.7 7
  80.9741 1396.2 26
  81.0696 1375.5 26
  83.0854 1035.7 19
  98.9845 28898.3 557
  124.9995 7866.4 151
  143.0111 1160.2 22
//
