ACCESSION: MSBNK-Antwerp_Univ-AN112704
RECORD_TITLE: Diisononyl hexahydrophthalate; LC-ESI-QTOF; MS2; CE: 20eV; R=7000; [M+H]+
DATE: 2021.08.02
AUTHORS: Belova L, Covaci A, University of Antwerp, Belgium; Caballero-Casero N, University of Cordoba, Spain.
LICENSE: CC BY
COPYRIGHT: Copyright (c) 2021 by Toxicological Center, University of Antwerp, Wilrijk, Belgium
COMMENT: CONFIDENCE Reference Standard (Level 1)
COMMENT: INTERNAL_ID 1127
COMMENT: HBM4EU - science and policy for a healthy future (https://www.hbm4eu.eu)
CH$NAME: Diisononyl hexahydrophthalate
CH$NAME: bis(7-methyloctyl) cyclohexane-1,2-dicarboxylate
CH$COMPOUND_CLASS: N/A; Environmental Standard
CH$FORMULA: C26H48O4
CH$EXACT_MASS: 424.3553
CH$SMILES: CC(C)CCCCCCOC(=O)C1CCCCC1C(=O)OCCCCCCC(C)C
CH$IUPAC: InChI=1S/C26H48O4/c1-21(2)15-9-5-7-13-19-29-25(27)23-17-11-12-18-24(23)26(28)30-20-14-8-6-10-16-22(3)4/h21-24H,5-20H2,1-4H3
CH$LINK: CAS 166412-78-8
CH$LINK: PUBCHEM CID:11524680
CH$LINK: INCHIKEY HORIEOQXBKUKGQ-UHFFFAOYSA-N
CH$LINK: CHEMSPIDER 9699466
CH$LINK: COMPTOX DTXSID20274044
AC$INSTRUMENT: Agilent 6560 QTOF
AC$INSTRUMENT_TYPE: LC-ESI-QTOF
AC$MASS_SPECTROMETRY: MS_TYPE MS2
AC$MASS_SPECTROMETRY: ION_MODE POSITIVE
AC$MASS_SPECTROMETRY: IONIZATION ESI
AC$MASS_SPECTROMETRY: FRAGMENTATION_MODE CID
AC$MASS_SPECTROMETRY: COLLISION_ENERGY 20 eV
AC$MASS_SPECTROMETRY: RESOLUTION 7000
AC$MASS_SPECTROMETRY: MASS_RANGE_M/Z 55-1243
AC$CHROMATOGRAPHY: FLOW_GRADIENT 50/50 isocratic
AC$CHROMATOGRAPHY: FLOW_RATE 200 uL/min
AC$CHROMATOGRAPHY: RETENTION_TIME 0.151 min
MS$FOCUSED_ION: BASE_PEAK 447.3458
MS$FOCUSED_ION: PRECURSOR_M/Z 425.3625
MS$FOCUSED_ION: PRECURSOR_TYPE [M+H]+
MS$FOCUSED_ION: PRECURSOR_INTENSITY 33764.1
MS$DATA_PROCESSING: RECALIBRATE loess on assigned fragments and MS1
MS$DATA_PROCESSING: REANALYZE Peaks with additional N2/O included
MS$DATA_PROCESSING: WHOLE RMassBank 3.1.1
PK$SPLASH: splash10-0ac0-9200000000-2e787112bd71c24969b6
PK$ANNOTATION: m/z tentative_formula formula_count mass error(ppm)
  57.07 C4H9+ 1 57.0699 2.92
  71.0858 C5H11+ 1 71.0855 3.9
  81.0699 C6H9+ 1 81.0699 -0.29
  85.1011 C6H13+ 1 85.1012 -0.35
  109.0651 C7H9O+ 1 109.0648 2.54
  127.0751 C7H11O2+ 1 127.0754 -1.67
  155.0698 C8H11O3+ 1 155.0703 -2.88
  215.0885 C17H11+ 1 215.0855 13.91
PK$NUM_PEAK: 8
PK$PEAK: m/z int. rel.int.
  57.07 5219.5 765
  71.0858 6810.3 999
  81.0699 5748.7 843
  85.1011 4048.7 593
  109.0651 1364.4 200
  127.0751 2045.8 300
  155.0698 3809.3 558
  215.0885 339.4 49
//
