ACCESSION: MSBNK-Antwerp_Univ-AN111508
RECORD_TITLE: Butyryl trihexyl citrate; LC-ESI-QTOF; MS2; CE: 40eV; R=7000; [M+H]+
DATE: 2021.08.02
AUTHORS: Belova L, Covaci A, University of Antwerp, Belgium; Caballero-Casero N, University of Cordoba, Spain.
LICENSE: CC BY
COPYRIGHT: Copyright (c) 2021 by Toxicological Center, University of Antwerp, Wilrijk, Belgium
COMMENT: CONFIDENCE Reference Standard (Level 1)
COMMENT: INTERNAL_ID 1115
COMMENT: HBM4EU - science and policy for a healthy future (https://www.hbm4eu.eu)
CH$NAME: Butyryl trihexyl citrate
CH$NAME: trihexyl 2-butanoyloxypropane-1,2,3-tricarboxylate
CH$COMPOUND_CLASS: N/A; Environmental Standard
CH$FORMULA: C28H50O8
CH$EXACT_MASS: 514.3506
CH$SMILES: CCCCCCOC(=O)CC(CC(=O)OCCCCCC)(C(=O)OCCCCCC)OC(=O)CCC
CH$IUPAC: InChI=1S/C28H50O8/c1-5-9-12-15-19-33-25(30)22-28(36-24(29)18-8-4,27(32)35-21-17-14-11-7-3)23-26(31)34-20-16-13-10-6-2/h5-23H2,1-4H3
CH$LINK: CAS 82469-79-2
CH$LINK: PUBCHEM CID:133914
CH$LINK: INCHIKEY GWVUTNGDMGTPFE-UHFFFAOYSA-N
CH$LINK: CHEMSPIDER 118086
CH$LINK: COMPTOX DTXSID0047535
AC$INSTRUMENT: Agilent 6560 QTOF
AC$INSTRUMENT_TYPE: LC-ESI-QTOF
AC$MASS_SPECTROMETRY: MS_TYPE MS2
AC$MASS_SPECTROMETRY: ION_MODE POSITIVE
AC$MASS_SPECTROMETRY: IONIZATION ESI
AC$MASS_SPECTROMETRY: FRAGMENTATION_MODE CID
AC$MASS_SPECTROMETRY: COLLISION_ENERGY 40 eV
AC$MASS_SPECTROMETRY: RESOLUTION 7000
AC$MASS_SPECTROMETRY: MASS_RANGE_M/Z 57-1423
AC$CHROMATOGRAPHY: FLOW_GRADIENT 50/50 isocratic
AC$CHROMATOGRAPHY: FLOW_RATE 200 uL/min
AC$CHROMATOGRAPHY: RETENTION_TIME 0.110 min
MS$FOCUSED_ION: BASE_PEAK 537.3395
MS$FOCUSED_ION: PRECURSOR_M/Z 515.3578
MS$FOCUSED_ION: PRECURSOR_TYPE [M+H]+
MS$FOCUSED_ION: PRECURSOR_INTENSITY 44606.31
MS$DATA_PROCESSING: RECALIBRATE loess on assigned fragments and MS1
MS$DATA_PROCESSING: REANALYZE Peaks with additional N2/O included
MS$DATA_PROCESSING: WHOLE RMassBank 3.1.1
PK$SPLASH: splash10-004r-4900000000-fb6320e36789ecf52ebf
PK$ANNOTATION: m/z tentative_formula formula_count mass error(ppm)
  57.0702 C4H9+ 1 57.0699 6.48
  68.9973 C3HO2+ 1 68.9971 2.27
  71.0491 C4H7O+ 1 71.0491 0.03
  85.1018 C6H13+ 1 85.1012 7.23
  87.0076 C3H3O3+ 1 87.0077 -0.32
  89.0593 C4H9O2+ 1 89.0597 -4.42
  111.0076 C5H3O3+ 1 111.0077 -0.32
  129.018 C5H5O4+ 1 129.0182 -1.44
  139.0026 C6H3O4+ 1 139.0026 -0.1
  157.0146 C6H5O5+ 1 157.0131 9.4
PK$NUM_PEAK: 10
PK$PEAK: m/z int. rel.int.
  57.0702 1560.4 117
  68.9973 3910.1 295
  71.0491 4048 305
  85.1018 1327.8 100
  87.0076 659.4 49
  89.0593 1000.1 75
  111.0076 6519.9 492
  129.018 13237.1 999
  139.0026 7912.4 597
  157.0146 365 27
//
