ACCESSION: MSBNK-Antwerp_Univ-METOX_N103028_9CB7
RECORD_TITLE: Coenzyme Q10; LC-ESI-QTOF; MS2; CE: 10eV; R=7000; [M-H]-
DATE: 2022.04.09
AUTHORS: da Silva KM, Iturrospe E, van de Lavoir M, Robeyns R, University of Antwerp, Belgium
LICENSE: CC BY
COPYRIGHT: Copyright (c) 2021 by Toxicological Center, University of Antwerp, Wilrijk, Belgium
COMMENT: CONFIDENCE Standard compound
COMMENT: INTERNAL_ID 1030
CH$NAME: Coenzyme Q10
CH$NAME: 2-[(2E,6E,10E,14E,18E,22E,26E,30E,34E)-3,7,11,15,19,23,27,31,35,39-decamethyltetraconta-2,6,10,14,18,22,26,30,34,38-decaenyl]-5,6-dimethoxy-3-methylcyclohexa-2,5-diene-1,4-dione
CH$COMPOUND_CLASS: N/A; Metabolomics Standard
CH$FORMULA: C59H90O4
CH$EXACT_MASS: 862.6839
CH$SMILES: CC1=C(C(=O)C(=C(C1=O)OC)OC)C/C=C(\C)/CC/C=C(\C)/CC/C=C(\C)/CC/C=C(\C)/CC/C=C(\C)/CC/C=C(\C)/CC/C=C(\C)/CC/C=C(\C)/CC/C=C(\C)/CCC=C(C)C
CH$IUPAC: InChI=1S/C59H90O4/c1-44(2)24-15-25-45(3)26-16-27-46(4)28-17-29-47(5)30-18-31-48(6)32-19-33-49(7)34-20-35-50(8)36-21-37-51(9)38-22-39-52(10)40-23-41-53(11)42-43-55-54(12)56(60)58(62-13)59(63-14)57(55)61/h24,26,28,30,32,34,36,38,40,42H,15-23,25,27,29,31,33,35,37,39,41,43H2,1-14H3/b45-26+,46-28+,47-30+,48-32+,49-34+,50-36+,51-38+,52-40+,53-42+
CH$LINK: CAS 303-98-0
CH$LINK: CHEBI 46245
CH$LINK: KEGG C11378
CH$LINK: LIPIDMAPS LMPR02010001
CH$LINK: PUBCHEM CID:5281915
CH$LINK: INCHIKEY ACTIUHUUMQJHFO-UPTCCGCDSA-N
CH$LINK: CHEMSPIDER 4445197
AC$INSTRUMENT: Agilent 6560 QTOF
AC$INSTRUMENT_TYPE: LC-ESI-QTOF
AC$MASS_SPECTROMETRY: MS_TYPE MS2
AC$MASS_SPECTROMETRY: ION_MODE NEGATIVE
AC$MASS_SPECTROMETRY: IONIZATION ESI
AC$MASS_SPECTROMETRY: FRAGMENTATION_MODE CID
AC$MASS_SPECTROMETRY: COLLISION_ENERGY 10 eV
AC$MASS_SPECTROMETRY: RESOLUTION 7000
AC$MASS_SPECTROMETRY: MASS_RANGE_M/Z 70-1699
AC$CHROMATOGRAPHY: COLUMN_NAME N/A
AC$CHROMATOGRAPHY: FLOW_GRADIENT 50/50 isocratic
AC$CHROMATOGRAPHY: FLOW_RATE 200 uL/min
AC$CHROMATOGRAPHY: RETENTION_TIME 0.403 min
AC$CHROMATOGRAPHY: SOLVENT A 30/70 acetonitrile/water with 2mM ammonium acetate
AC$CHROMATOGRAPHY: SOLVENT B 88/10/2 isopropanol/acetonitrile/water with 2mM ammonium acetate
MS$FOCUSED_ION: BASE_PEAK 980.0164
MS$FOCUSED_ION: PRECURSOR_M/Z 861.6766
MS$FOCUSED_ION: PRECURSOR_TYPE [M-H]-
MS$FOCUSED_ION: PRECURSOR_INTENSITY 849701
MS$DATA_PROCESSING: RECALIBRATE loess on assigned fragments and MS1
MS$DATA_PROCESSING: REANALYZE Peaks with additional N2/O included
MS$DATA_PROCESSING: WHOLE RMassBank 3.5.2.1
PK$SPLASH: splash10-0iki-1688987610-5215f4cf886e922f86c2
PK$ANNOTATION: m/z tentative_formula formula_count mass error(ppm)
  70.0986 C2H14O2- 1 70.0999 -18.34
  71.0853 C5H11- 1 71.0866 -18.11
  71.3673 C2H47- 1 71.3683 -14.57
  72.0214 C3H4O2- 1 72.0217 -3.79
  72.2828 C3H36- 1 72.2822 7.77
  74.074 C4H10O- 1 74.0737 3.53
  75.1404 C2H19O2- 1 75.1391 18.51
  76.0534 C3H8O2- 1 76.053 5.58
  77.2857 C2H37O- 1 77.285 9.71
  78.0314 C2H6O3- 1 78.0322 -10.42
  78.128 CH18O3- 1 78.1261 23.36
  78.3859 CH50O- 1 78.3867 -11.01
  79.0205 C5H3O- 1 79.0189 20.16
  79.1721 C2H23O2- 1 79.1704 22.64
  79.2062 C3H27O- 1 79.2067 -7.44
  81.1129 H17O4- 1 81.1132 -4.42
  81.5388 CH69- 1 81.5405 -21
  82.0259 CH6O4- 1 82.0272 -14.8
  82.5493 CH70- 1 82.5483 12.32
  83.1439 C4H19O- 1 83.1441 -3.13
  84.2819 C4H36- 1 84.2822 -3.92
  85.2184 C2H29O2- 1 85.2173 12.95
  86.0959 C2H14O3- 1 86.0948 12.2
  86.1331 C3H18O2- 1 86.1312 22.15
  86.1673 C4H22O- 1 86.1676 -3.83
  86.4853 C2H62- 1 86.4857 -4.56
  87.4218 H55O2- 1 87.4208 11.71
  87.4921 C2H63- 1 87.4935 -16.11
  88.1251 C6H16- 1 88.1257 -7.09
  88.221 C5H28- 1 88.2196 15.5
  89.2101 CH29O3- 1 89.2122 -23.64
  89.5654 H73O- 1 89.5667 -14.3
  90.124 C2H18O3- 1 90.1261 -23.97
  91.2642 C2H35O2- 1 91.2643 -0.07
  91.3003 C3H39O- 1 91.3006 -4.12
  91.3948 C2H51O- 1 91.3945 2.33
  92.0466 C3H8O3- 1 92.0479 -14.26
  92.3083 C3H40O- 1 92.3085 -2.24
  92.404 C2H52O- 1 92.4024 17.56
  93.0937 C4H13O2- 1 93.0921 16.79
  93.2587 C5H33- 1 93.2588 -1.18
  93.3521 C4H45- 1 93.3527 -5.82
  93.4679 H61O2- 1 93.4677 2.1
  94.0273 C2H6O4- 1 94.0272 1.06
  94.098 C4H14O2- 1 94.0999 -20.27
  94.1362 C5H18O- 1 94.1363 -1.53
  94.2646 C5H34- 1 94.2666 -21.47
  94.42 C2H54O- 1 94.418 21.22
  96.1902 C6H24- 1 96.1883 19.34
  96.3374 C3H44O- 1 96.3398 -24.49
  96.3616 H48O3- 1 96.3609 6.88
  97.1422 CH21O4- 1 97.1445 -23.86
  98.1517 CH22O4- 1 98.1524 -6.65
  98.3186 C2H42O2- 1 98.319 -4.75
  99.0671 C2H11O4- 1 99.0663 8.04
  99.1015 C3H15O3- 1 99.1027 -12.06
  100.072 C2H12O4- 1 100.0741 -21.47
  100.1687 CH24O4- 1 100.168 6.41
  100.2042 C2H28O3- 1 100.2044 -2.29
  100.2777 C4H36O- 1 100.2772 5.46
  100.3148 C5H40- 1 100.3135 12.79
  100.4669 C2H60O- 1 100.465 19.28
  101.5657 CH73O- 1 101.5667 -9.58
  102.1642 C4H22O2- 1 102.1625 16.55
  103.3215 CH43O3- 1 103.3218 -2.29
  103.3363 C5H43- 1 103.337 -7.15
  103.3971 C3H51O- 1 103.3945 24.31
  103.4182 H55O3- 1 103.4157 24.7
  104.0245 C7H4O- 1 104.0268 -21.77
  104.2381 C2H32O3- 1 104.2357 23.24
  104.2525 C6H32- 1 104.2509 15.25
  104.3452 C5H44- 1 104.3448 3.7
  104.4587 CH60O2- 1 104.4599 -11.3
  105.1295 C6H17O- 1 105.1285 9.41
  105.2795 C3H37O2- 1 105.2799 -4.17
  106.2509 C2H34O3- 1 106.2513 -4
  106.4176 C3H54O- 1 106.418 -3.43
  107.352 CH47O3- 1 107.3531 -10.42
  108.0445 C3H8O4- 1 108.0428 16.02
  108.2094 C4H28O2- 1 108.2095 -0.51
  108.2807 C6H36- 1 108.2822 -13.89
  108.4329 C3H56O- 1 108.4337 -7.04
  108.6562 C2H84- 1 108.6579 -15.62
  109.1978 C7H25- 1 109.1962 14.47
  109.5929 H77O2- 1 109.5929 -0.2
  110.2616 C5H34O- 1 110.2615 0.53
  111.1052 C4H15O3- 1 111.1027 23.2
  111.1376 C5H19O2- 1 111.1391 -13.31
  111.2896 C2H39O3- 1 111.2905 -7.42
  111.3472 H47O4- 1 111.348 -6.66
  111.3871 CH51O3- 1 111.3844 24.27
  112.0155 C5H4O3- 1 112.0166 -9.72
  112.033 C9H4- 1 112.0318 10.56
  112.1255 C8H16- 1 112.1257 -2.35
  113.3782 C4H49O- 1 113.3789 -6.2
  113.9986 C4H2O4- 1 113.9959 23.95
  114.1969 C6H26O- 1 114.1989 -17.97
  114.3162 C2H42O3- 1 114.3139 20
  114.386 C4H50O- 1 114.3867 -6.26
  114.6105 C3H78- 1 114.6109 -3.27
  115.0022 C4H3O4- 1 115.0037 -12.78
  115.1928 C2H27O4- 1 115.1915 11.53
  115.288 CH39O4- 1 115.2854 23.09
  115.3574 C3H47O2- 1 115.3582 -6.86
  115.3965 C4H51O- 1 115.3945 17.25
  115.4499 C2H59O2- 1 115.4521 -18.61
  115.487 C3H63O- 1 115.4884 -12.7
  116.2521 C7H32- 1 116.2509 9.61
  116.2915 CH40O4- 1 116.2932 -14.48
  116.3464 C6H44- 1 116.3448 13.16
  117.5995 C2H77O- 1 117.598 13.25
  118.1209 C3H18O4- 1 118.1211 -1.03
  118.1381 C7H18O- 1 118.1363 15.52
  118.2861 C4H38O2- 1 118.2877 -13.93
  118.4008 H54O4- 1 118.4028 -16.54
  119.071 C5H11O3- 1 119.0714 -2.76
  119.225 C2H31O4- 1 119.2228 18.51
  119.3164 CH43O4- 1 119.3167 -2.05
  119.4278 C4H55O- 1 119.4258 16.29
  119.5203 C3H67O- 1 119.5197 4.43
  119.9876 C6O3- 1 119.9853 19.37
  120.6819 H88O2- 1 120.679 24.47
  121.2202 C5H29O2- 1 121.2173 23.7
  121.2357 C2H33O4- 1 121.2384 -22.36
  121.4038 C3H53O2- 1 121.4051 -10.43
  121.5727 C4H73- 1 121.5718 7.65
  123.3629 C5H47O- 1 123.3632 -3.02
  123.6096 CH79O2- 1 123.6086 8.32
  123.6464 C2H83O- 1 123.6449 11.85
  124.112 C5H16O3- 1 124.1105 11.94
  124.169 C3H24O4- 1 124.168 8.13
  124.265 C2H36O4- 1 124.2619 25
  124.358 CH48O4- 1 124.3558 17.56
  125.2297 C8H29- 1 125.2275 17.7
  125.3983 C2H53O3- 1 125.4 -13.81
  125.5087 C5H65- 1 125.5092 -4.07
  126.2917 C6H38O- 1 126.2928 -8.54
  127.0978 C4H15O4- 1 127.0976 1.57
  128.0854 C7H12O2- 1 128.0843 8.73
  128.1409 C5H20O3- 1 128.1418 -6.6
  128.2339 C4H32O3- 1 128.2357 -13.93
  128.3456 C7H44- 1 128.3448 6.12
  128.4933 C4H64O- 1 128.4963 -22.87
  128.53 C5H68- 1 128.5327 -20.46
  129.3138 C6H41O- 1 129.3163 -19.37
  129.3557 C7H45- 1 129.3527 23.18
  130.0617 C6H10O3- 1 130.0635 -14.46
  130.212 C3H30O4- 1 130.215 -22.84
  130.3238 C6H42O- 1 130.3241 -2.16
  130.4981 H66O4- 1 130.4967 10.99
  131.1077 C7H15O2- 1 131.1078 -0.64
  131.1805 C9H23- 1 131.1805 0.05
  131.294 C5H39O2- 1 131.2956 -11.82
  131.4498 C2H59O3- 1 131.447 21.23
  131.5068 H67O4- 1 131.5045 17.52
  131.5568 C5H71- 1 131.5561 5.36
  131.5799 C2H75O2- 1 131.5773 20.34
  131.6324 H83O3- 1 131.6348 -18.36
  131.9839 C7O3- 1 131.9853 -10.86
  132.1896 C9H24- 1 132.1883 9.67
  132.676 CH88O2- 1 132.679 -22.31
  133.3133 C5H41O2- 1 133.3112 15.49
  133.4749 C6H61- 1 133.4779 -22.34
  133.5373 C4H69O- 1 133.5354 14.1
  133.5533 CH73O3- 1 133.5565 -23.82
  133.6525 H85O3- 1 133.6504 15.33
  135.3507 C2H47O4- 1 135.348 19.81
  135.4019 C7H51- 1 135.3996 17.03
  136.0166 C7H4O3- 1 136.0166 0.18
  136.0726 C5H12O4- 1 136.0741 -10.83
  136.0924 C9H12O- 1 136.0894 22
  137.269 C3H37O4- 1 137.2697 -5.23
  137.3044 C4H41O3- 1 137.3061 -12.81
  137.6244 C2H81O2- 1 137.6242 1.71
  138.2939 C7H38O- 1 138.2928 7.64
  138.5966 CH78O3- 1 138.5956 6.65
  139.0525 C11H7- 1 139.0553 -20.14
  139.0957 C5H15O4- 1 139.0976 -13.18
  139.1941 C4H27O4- 1 139.1915 18.45
  139.4538 C4H59O2- 1 139.4521 12.5
  139.6056 CH79O3- 1 139.6035 15.16
  140.1064 C5H16O4- 1 140.1054 7.06
  140.3637 C5H48O2- 1 140.366 -16.53
  141.0948 C8H13O2- 1 141.0921 18.81
  141.5282 C2H69O3- 1 141.5252 20.95
  142.2491 C5H34O3- 1 142.2513 -15.65
  142.4382 C3H58O3- 1 142.4391 -6.37
  143.0375 C6H7O4- 1 143.035 17.92
  143.1462 C9H19O- 1 143.1441 14.27
  144.1724 C6H24O3- 1 144.1731 -4.89
  144.5515 C2H72O3- 1 144.5487 19.33
  145.2918 C9H37- 1 145.2901 11.96
  145.6512 CH85O3- 1 145.6504 5.13
  146.0935 C7H14O3- 1 146.0948 -9.01
  146.5273 CH70O4- 1 146.528 -4.59
  147.9962 C11O- 1 147.9955 5.31
  148.5451 CH72O4- 1 148.5436 10.26
  149.1914 C9H25O- 1 149.1911 2.27
  149.3206 C9H41- 1 149.3214 -5.07
  149.3433 C6H45O2- 1 149.3425 5.5
  149.5696 C5H73O- 1 149.5667 19.15
  149.6418 H85O4- 1 149.6453 -23.48
  149.9934 C7H2O4- 1 149.9959 -16.1
  150.0504 C12H6- 1 150.0475 19.47
  150.3526 C6H46O2- 1 150.3503 15.08
  151.1934 C5H27O4- 1 151.1915 12.64
  151.4164 C4H55O3- 1 151.4157 4.91
  151.4506 C5H59O2- 1 151.4521 -9.45
  152.1196 C10H16O- 1 152.1207 -7.32
  152.5518 C4H72O2- 1 152.5538 -12.94
  154.0048 C10H2O2- 1 154.006 -7.72
  154.0419 C11H6O- 1 154.0424 -3.64
  154.3212 C8H42O- 1 154.3241 -18.85
  154.5729 C4H74O2- 1 154.5694 22.26
  154.6027 C5H78O- 1 154.6058 -20.35
  155.6731 C3H87O2- 1 155.6712 12.45
  156.1728 C7H24O3- 1 156.1731 -1.73
  156.4195 C3H56O4- 1 156.4184 6.82
  157.1228 C9H17O2- 1 157.1234 -3.94
  157.219 C8H29O2- 1 157.2173 10.85
  157.6662 C6H85- 1 157.6657 3.1
  158.2849 C6H38O3- 1 158.2826 14.07
  158.3516 C8H46O- 1 158.3554 -24.18
  159.0452 C10H7O2- 1 159.0452 0.56
  159.1757 C10H23O- 1 159.1754 1.41
  159.2565 C5H35O4- 1 159.2541 15.17
  159.2875 C6H39O3- 1 159.2905 -18.57
  159.364 C8H47O- 1 159.3632 4.65
  159.5884 C7H75- 1 159.5874 5.99
  159.6092 C4H79O2- 1 159.6086 4.19
  160.0556 C10H8O2- 1 160.053 16.19
  160.2429 C8H32O2- 1 160.2408 13.55
  160.2631 C5H36O4- 1 160.2619 7.47
  161 C12HO- 1 161.0033 -20.5
  161.38 C8H49O- 1 161.3789 7.01
  161.4183 C9H53- 1 161.4153 18.95
  161.5511 C2H73O4- 1 161.5514 -2.06
  161.5851 C3H77O3- 1 161.5878 -17.06
  161.6474 CH85O4- 1 161.6453 12.51
  162.3141 C6H42O3- 1 162.3139 0.89
  163.152 C12H19- 1 163.1492 17.3
  163.2033 C10H27O- 1 163.2067 -20.89
  163.32 C6H43O3- 1 163.3218 -10.8
  163.5069 C4H67O3- 1 163.5096 -16.19
  164.2011 C6H28O4- 1 164.1993 10.89
  164.2966 C5H40O4- 1 164.2932 20.45
  164.6724 CH88O4- 1 164.6688 21.97
  165.0152 C8H5O4- 1 165.0193 -24.97
  165.1632 C12H21- 1 165.1649 -9.9
  165.2242 C10H29O- 1 165.2224 11.12
  165.4894 C3H65O4- 1 165.4888 3.58
  165.594 C6H77O- 1 165.598 -23.93
  166.0234 C8H6O4- 1 166.0272 -22.59
  166.1742 C12H22- 1 166.1727 8.92
  166.3272 C9H42O- 1 166.3241 18.45
  166.5118 C7H66O- 1 166.5119 -0.68
  167.1785 C12H23- 1 167.1805 -12.19
  168.3422 C9H44O- 1 168.3398 14.33
  168.4326 C8H56O- 1 168.4337 -6.06
  168.4661 C9H60- 1 168.4701 -23.28
  168.552 C4H72O3- 1 168.5487 19.55
  169.6167 C2H81O4- 1 169.614 15.7
  170.1069 C13H14- 1 170.1101 -19.02
  170.3208 C8H42O2- 1 170.319 10.58
  170.487 C9H62- 1 170.4857 7.46
  170.6728 C7H86- 1 170.6735 -4.35
  171.2512 C6H35O4- 1 171.2541 -16.62
  171.3955 C10H51- 1 171.3996 -23.78
  171.5862 C8H75- 1 171.5874 -7
  172.1509 C10H20O2- 1 172.1469 23.62
  172.1705 C7H24O4- 1 172.168 14.38
  172.2779 C10H36O- 1 172.2772 4.27
  172.3532 C5H48O4- 1 172.3558 -14.97
  173.1526 C10H21O2- 1 173.1547 -12.34
  173.2463 C9H33O2- 1 173.2486 -13.24
  173.4533 C4H61O4- 1 173.4575 -24.54
  173.5095 C9H65- 1 173.5092 1.59
  173.6443 C2H85O4- 1 173.6453 -6.16
  174.0713 C11H10O2- 1 174.0686 15.42
  174.2524 C9H34O2- 1 174.2564 -23.3
  174.4787 C8H62O- 1 174.4806 -10.78
  174.633 C5H82O2- 1 174.632 5.66
  175.0163 C13H3O- 1 175.0189 -14.89
  175.1377 C9H19O3- 1 175.134 21.34
  175.2267 C8H31O3- 1 175.2279 -6.51
  176.1604 C13H20- 1 176.157 19.08
  176.3126 C10H40O- 1 176.3085 23.26
  176.5937 C7H76O- 1 176.5902 20.1
  177.2415 C8H33O3- 1 177.2435 -11.31
  177.2555 C12H33- 1 177.2588 -18.66
  177.3023 C6H41O4- 1 177.301 7.04
  177.5866 C3H77O4- 1 177.5827 21.67
  178.2836 C9H38O2- 1 178.2877 -22.91
  178.4798 C7H62O2- 1 178.4755 24.14
  178.6022 C7H78O- 1 178.6058 -20.31
  178.6249 C4H82O3- 1 178.6269 -11.19
  179.1849 C13H23- 1 179.1805 24.21
  179.2959 C9H39O2- 1 179.2956 2.17
  180.091 C14H12- 1 180.0944 -18.88
  180.5479 C5H72O3- 1 180.5487 -4.44
  181.1274 C11H17O2- 1 181.1234 22.13
  181.6108 C3H81O4- 1 181.614 -17.84
  182.0962 C10H14O3- 1 182.0948 7.49
  182.1278 C11H18O2- 1 182.1312 -19.09
  182.4141 C8H54O2- 1 182.4129 6.68
  183.0467 C12H7O2- 1 183.0452 8.33
  183.1927 C9H27O3- 1 183.1966 -21.12
  183.3064 C12H39- 1 183.3057 3.54
  183.439 C5H59O4- 1 183.4419 -15.82
  184.4061 C11H52- 1 184.4075 -7.35
  184.4541 C5H60O4- 1 184.4497 23.87
  185.0044 C14HO- 1 185.0033 6.21
  185.1937 C12H25O- 1 185.1911 14.03
  185.4602 C5H61O4- 1 185.4575 14.43
  185.4918 C6H65O3- 1 185.4939 -11.19
  185.5994 C9H77- 1 185.6031 -19.9
  185.697 C8H89- 1 185.697 -0.13
  186.1233 C10H18O3- 1 186.1261 -15.28
  186.1839 C8H26O4- 1 186.1837 1.31
  186.6688 C7H86O- 1 186.6684 2.11
  187.036 C11H7O3- 1 187.0401 -21.56
  187.5251 C10H67- 1 187.5248 1.23
  188.1597 C14H20- 1 188.157 13.91
  188.2965 C7H40O4- 1 188.2932 17.38
  188.4236 C7H56O3- 1 188.4235 0.4
  189.152 C10H21O3- 1 189.1496 12.4
  189.2233 C12H29O- 1 189.2224 4.9
  189.4062 C10H53O- 1 189.4102 -21.18
  189.4317 C7H57O3- 1 189.4313 1.91
  189.4708 C8H61O2- 1 189.4677 16.09
  189.6362 C9H81- 1 189.6344 9.47
  189.657 C6H85O2- 1 189.6555 8
  189.6748 C3H89O4- 1 189.6766 -9.81
  190.5481 C10H70- 1 190.5483 -1.17
  190.5943 C4H78O4- 1 190.5906 19.87
  191.3179 C7H43O4- 1 191.3167 6.15
  192.0551 C14H8O- 1 192.0581 -15.32
  192.2323 C8H32O4- 1 192.2306 8.84
  192.4325 C10H56O- 1 192.4337 -6.11
  192.4567 C7H60O3- 1 192.4548 10.03
  193.0503 C10H9O4- 1 193.0506 -1.91
  193.2395 C8H33O4- 1 193.2384 5.7
  193.5321 C9H69O- 1 193.5354 -16.99
  193.629 C8H81O- 1 193.6293 -1.5
  194.2663 C12H34O- 1 194.2615 24.64
  194.3148 C10H42O2- 1 194.319 -21.51
  195.0285 C16H3- 1 195.024 22.85
  195.1623 C9H23O4- 1 195.1602 10.81
  195.236 C11H31O2- 1 195.233 15.42
  195.2569 C8H35O4- 1 195.2541 14.4
  195.2923 C9H39O3- 1 195.2905 9.58
  195.3851 C8H51O3- 1 195.3844 3.99
  195.6687 C5H87O3- 1 195.6661 13.62
  196.3109 C13H40- 1 196.3135 -13.63
  196.395 C8H52O3- 1 196.3922 14.44
  196.6544 C8H84O- 1 196.6528 8.26
  197.2855 C12H37O- 1 197.285 2.42
  197.3963 C8H53O3- 1 197.4 -18.9
  197.569 C9H73O- 1 197.5667 11.87
  197.661 C8H85O- 1 197.6606 1.88
  197.6998 C9H89- 1 197.697 14.41
  198.089 C10H14O4- 1 198.0898 -4
  198.2558 C11H34O2- 1 198.2564 -3.22
  199.1357 C11H19O3- 1 199.134 8.48
  199.3407 C13H43- 1 199.337 18.43
  200.1048 C10H16O4- 1 200.1054 -3.22
  200.2038 C9H28O4- 1 200.1993 22.24
  200.2329 C10H32O3- 1 200.2357 -14.11
  200.2758 C11H36O2- 1 200.2721 18.49
  200.3083 C12H40O- 1 200.3085 -0.76
  201.094 C13H13O2- 1 201.0921 9.31
  201.3416 C9H45O3- 1 201.3374 20.9
  202.0306 C11H6O4- 1 202.0272 17.19
  202.2523 C10H34O3- 1 202.2513 4.87
  202.3092 C8H42O4- 1 202.3089 1.89
  203.3135 C8H43O4- 1 203.3167 -15.63
  203.5206 C10H67O- 1 203.5197 4.12
  203.5538 C11H71- 1 203.5561 -11.53
  204.0788 C12H12O3- 1 204.0792 -1.84
  204.2496 C13H32O- 1 204.2459 18.16
  204.4186 C7H56O4- 1 204.4184 0.83
  204.4534 C8H60O3- 1 204.4548 -6.87
  204.5279 C10H68O- 1 204.5276 1.69
  204.5477 C7H72O3- 1 204.5487 -4.87
  204.6434 C6H84O3- 1 204.6426 3.83
  205.1788 C11H25O3- 1 205.1809 -10.45
  205.3353 C8H45O4- 1 205.3323 14.25
  206.1565 C10H22O4- 1 206.1524 20.23
  206.4474 C11H58O- 1 206.4493 -9.47
  206.6589 C6H86O3- 1 206.6582 2.98
  207.2734 C13H35O- 1 207.2693 19.83
  207.4431 C7H59O4- 1 207.4419 5.99
  208.021 C13H4O3- 1 208.0166 21.11
  208.1728 C10H24O4- 1 208.168 22.84
  208.215 C15H28- 1 208.2196 -22.44
  208.6522 C9H84O- 1 208.6528 -2.54
  209.1566 C13H21O2- 1 209.1547 9.11
  209.1943 C14H25O- 1 209.1911 15.31
  209.2248 C15H29- 1 209.2275 -12.74
  209.2668 C9H37O4- 1 209.2697 -14.04
  209.5464 C6H73O4- 1 209.5514 -24.02
  209.5867 C7H77O3- 1 209.5878 -5.51
  209.6081 C11H77- 1 209.6031 23.8
  210.072 C14H10O2- 1 210.0686 16.09
  210.5069 C8H66O3- 1 210.5017 24.52
  212.1469 C12H20O3- 1 212.1418 23.88
  212.4762 C7H64O4- 1 212.481 -22.47
  212.5722 C6H76O4- 1 212.5749 -12.95
  212.6876 C9H88O- 1 212.6841 16.63
  213.1533 C12H21O3- 1 213.1496 17.39
  213.399 C8H53O4- 1 213.3949 19.04
  213.5986 C10H77O- 1 213.598 2.77
  213.639 C11H81- 1 213.6344 21.59
  214.0626 C13H10O3- 1 214.0635 -4.29
  214.2298 C14H30O- 1 214.2302 -1.74
  214.5009 C7H66O4- 1 214.4967 19.83
  215.2733 C15H35- 1 215.2744 -5.21
  216.0166 C15H4O2- 1 216.0217 -23.58
  216.1783 C12H24O3- 1 216.1731 24.23
  216.6566 C11H84- 1 216.6579 -5.78
  217.2545 C14H33O- 1 217.2537 3.72
  217.4217 C8H57O4- 1 217.4262 -20.7
  217.6684 C11H85- 1 217.6657 12.66
  218.0616 C12H10O4- 1 218.0585 14.3
  218.1084 C17H14- 1 218.1101 -7.67
  218.1847 C12H26O3- 1 218.1887 -18.55
  218.2042 C16H26- 1 218.204 0.87
  218.2647 C14H34O- 1 218.2615 14.76
  218.3765 C10H50O3- 1 218.3765 0
  218.4342 C8H58O4- 1 218.4341 0.77
  218.6784 C11H86- 1 218.6735 22.2
  219.1402 C14H19O2- 1 219.1391 5.03
  219.3025 C15H39- 1 219.3057 -14.76
  219.5919 C12H75- 1 219.5874 20.55
  219.9987 C17O- 1 219.9955 14.77
  220.0342 C18H4- 1 220.0318 10.47
  220.3133 C15H40- 1 220.3135 -1.26
  220.3731 C13H48O- 1 220.3711 9.24
  220.4508 C8H60O4- 1 220.4497 4.73
  220.501 C13H64- 1 220.5014 -1.72
  221.2439 C13H33O2- 1 221.2486 -21.19
  221.2894 C14H37O- 1 221.285 20.04
  221.3255 C15H41- 1 221.3214 18.57
  221.4619 C8H61O4- 1 221.4575 19.8
  222.0478 C18H6- 1 222.0475 1.39
  222.4812 C12H62O- 1 222.4806 2.8
  223.2857 C10H39O4- 1 223.2854 1.2
  223.38 C9H51O4- 1 223.3793 3.14
  223.4172 C10H55O3- 1 223.4157 6.92
  224.0297 C17H4O- 1 224.0268 13.01
  224.2967 C10H40O4- 1 224.2932 15.53
  224.572 C7H76O4- 1 224.5749 -13.12
  224.5922 C11H76O- 1 224.5902 9.04
  224.6136 C8H80O3- 1 224.6113 10.33
  225.3506 C15H45- 1 225.3527 -9.14
  225.399 C9H53O4- 1 225.3949 18.23
  226.3972 C9H54O4- 1 226.4028 -24.41
  226.5661 C10H74O2- 1 226.5694 -14.87
  226.5861 C7H78O4- 1 226.5906 -19.73
  227.0481 C17H7O- 1 227.0502 -9.34
  227.2704 C16H35- 1 227.2744 -17.85
  227.3656 C15H47- 1 227.3683 -12.14
  227.52 C12H67O- 1 227.5197 1.21
  228.0049 C19- 1 228.0005 18.89
  228.1377 C12H20O4- 1 228.1367 4.23
  228.3416 C14H44O- 1 228.3398 7.83
  228.4604 C10H60O3- 1 228.4548 24.6
  229.069 C17H9O- 1 229.0659 13.49
  229.1991 C17H25- 1 229.1962 12.84
  229.2329 C11H33O4- 1 229.2384 -24.1
  229.3634 C11H49O3- 1 229.3687 -23.04
  230.1581 C12H22O4- 1 230.1524 24.76
  231.1552 C12H23O4- 1 231.1602 -21.55
  231.3592 C14H47O- 1 231.3632 -17.34
  231.6323 C7H83O4- 1 231.6297 11.34
  232.0198 C15H4O3- 1 232.0166 13.84
  232.1787 C16H24O- 1 232.1833 -19.47
  232.2039 C13H28O3- 1 232.2044 -2.03
  232.4827 C10H64O3- 1 232.4861 -14.4
  232.502 C14H64- 1 232.5014 2.81
  232.5588 C12H72O- 1 232.5589 -0.4
  232.617 C10H80O2- 1 232.6164 2.5
  232.6738 C8H88O3- 1 232.6739 -0.55
  233.4758 C13H61O- 1 233.4728 12.96
  233.6221 C10H81O2- 1 233.6242 -9.15
  233.6797 C8H89O3- 1 233.6817 -8.65
  235.291 C11H39O4- 1 235.2854 23.99
  235.4873 C13H63O- 1 235.4884 -4.96
  235.5097 C10H67O3- 1 235.5096 0.37
  236.4775 C9H64O4- 1 236.481 -14.67
  236.5771 C8H76O4- 1 236.5749 9.31
  236.6819 C11H88O- 1 236.6841 -9.3
  237.0215 C14H5O4- 1 237.0193 9.14
  237.2477 C13H33O3- 1 237.2435 17.65
  237.2807 C14H37O2- 1 237.2799 3.45
  237.4889 C9H65O4- 1 237.4888 0.31
  237.5398 C14H69- 1 237.5405 -2.82
  237.6185 C9H81O3- 1 237.6191 -2.7
  237.6577 C10H85O2- 1 237.6555 9.42
  238.2343 C16H30O- 1 238.2302 17.08
  238.4372 C11H58O3- 1 238.4391 -8.31
  238.6214 C9H82O3- 1 238.6269 -23.41
  239.1441 C17H19O- 1 239.1441 -0.33
  239.2591 C13H35O3- 1 239.2592 -0.33
  239.4479 C11H59O3- 1 239.447 3.76
  239.5814 C11H75O2- 1 239.5773 17.31
  240.0455 C14H8O4- 1 240.0428 11.08
  240.4594 C11H60O3- 1 240.4548 18.96
  240.5893 C11H76O2- 1 240.5851 17.55
  240.6092 C8H80O4- 1 240.6062 12.37
  241.1213 C16H17O2- 1 241.1234 -8.61
  241.1607 C17H21O- 1 241.1598 3.65
  241.2872 C17H37- 1 241.2901 -11.8
  241.3118 C14H41O2- 1 241.3112 2.66
  241.503 C12H65O2- 1 241.499 16.37
  241.6657 C13H85- 1 241.6657 0.29
  242.09 C15H14O3- 1 242.0948 -20.12
  242.1668 C17H22O- 1 242.1676 -3.33
  242.4086 C13H54O2- 1 242.4129 -18.03
  242.4483 C14H58O- 1 242.4493 -4.11
  243.1767 C17H23O- 1 243.1754 5.21
  244.0928 C18H12O- 1 244.0894 13.93
  244.6899 C13H88- 1 244.6892 3.24
  245.3379 C14H45O2- 1 245.3425 -18.61
  245.4357 C13H57O2- 1 245.4364 -2.87
  245.491 C11H65O3- 1 245.4939 -12.08
  245.6443 C8H85O4- 1 245.6453 -4.2
  246.0517 C20H6- 1 246.0475 17.19
  246.1665 C16H22O2- 1 246.1625 15.93
  246.3313 C17H42- 1 246.3292 8.4
  246.448 C13H58O2- 1 246.4442 15.46
  246.5744 C13H74O- 1 246.5745 -0.63
  247.1539 C19H19- 1 247.1492 18.83
  247.4102 C12H55O3- 1 247.4157 -21.95
  247.4347 C16H55- 1 247.4309 15.16
  248.5007 C14H64O- 1 248.4963 17.74
  249.0393 C19H5O- 1 249.0346 18.74
  249.4314 C12H57O3- 1 249.4313 0.16
  249.6743 C8H89O4- 1 249.6766 -9.2
  250.1373 C18H18O- 1 250.1363 3.98
  250.2452 C14H34O3- 1 250.2513 -24.59
  250.4122 C15H54O- 1 250.418 -23.15
  250.4537 C16H58- 1 250.4544 -2.82
  250.5716 C12H74O2- 1 250.5694 8.73
  251.1123 C17H15O2- 1 251.1078 18.04
  251.2171 C13H31O4- 1 251.2228 -22.58
  251.556 C15H71- 1 251.5561 -0.55
  251.6718 C11H87O2- 1 251.6712 2.39
  252.62 C13H80O- 1 252.6215 -5.79
  253.0464 C15H9O4- 1 253.0506 -16.89
  253.1835 C15H25O3- 1 253.1809 10.05
  253.406 C14H53O2- 1 253.4051 3.43
  253.4315 C11H57O4- 1 253.4262 20.78
  253.4762 C16H61- 1 253.4779 -6.42
  254.0069 C17H2O3- 1 254.0009 23.54
  254.2231 C16H30O2- 1 254.2251 -8.01
  255.2861 C14H39O3- 1 255.2905 -17.21
  255.3586 C16H47O- 1 255.3632 -18.08
  255.4776 C12H63O3- 1 255.4783 -2.65
  255.5766 C11H75O3- 1 255.5722 17.44
  256.2354 C16H32O2- 1 256.2408 -21.07
  256.295 C14H40O3- 1 256.2983 -12.76
  256.4274 C14H56O2- 1 256.4286 -4.75
  256.4552 C11H60O4- 1 256.4497 21.37
  256.4862 C12H64O3- 1 256.4861 0.53
  257.0387 C21H5- 1 257.0397 -3.86
  257.2271 C19H29- 1 257.2275 -1.45
  257.5878 C11H77O3- 1 257.5878 -0.19
  258.1382 C20H18- 1 258.1414 -12.21
  258.4453 C14H58O2- 1 258.4442 4.02
  258.5593 C10H74O4- 1 258.5593 0.11
  259.0409 C17H7O3- 1 259.0401 3.11
  259.3242 C14H43O3- 1 259.3218 9.19
  259.3939 C16H51O- 1 259.3945 -2.61
  260.0206 C20H4O- 1 260.0268 -23.53
  260.1417 C16H20O3- 1 260.1418 -0.47
  260.3605 C15H48O2- 1 260.366 -20.99
  260.436 C17H56- 1 260.4388 -10.44
  260.4641 C14H60O2- 1 260.4599 16.11
  261.0363 C20H5O- 1 261.0346 6.59
  261.1286 C19H17O- 1 261.1285 0.49
  261.3483 C18H45- 1 261.3527 -16.81
  261.494 C11H65O4- 1 261.4888 19.82
  261.5268 C12H69O3- 1 261.5252 5.97
  262.0426 C20H6O- 1 262.0424 0.7
  262.3271 C17H42O- 1 262.3241 11.37
  262.449 C17H58- 1 262.4544 -20.52
  263.3591 C14H47O3- 1 263.3531 22.92
  263.5076 C11H67O4- 1 263.5045 11.78
  263.602 C10H79O4- 1 263.5984 13.85
  263.6556 C15H83- 1 263.65 21.07
  264.0257 C19H4O2- 1 264.0217 15.11
  264.1824 C20H24- 1 264.1883 -22.53
  264.5587 C16H72- 1 264.564 -19.71
  264.5909 C13H76O2- 1 264.5851 21.93
  265.3441 C17H45O- 1 265.3476 -13.16
  265.5536 C12H73O3- 1 265.5565 -10.99
  265.6306 C14H81O- 1 265.6293 4.88
  266.1328 C18H18O2- 1 266.1312 6.08
  266.2772 C15H38O3- 1 266.2826 -20.26
  266.3175 C16H42O2- 1 266.319 -5.83
  266.3783 C14H50O3- 1 266.3765 6.7
  266.4335 C12H58O4- 1 266.4341 -2.22
  266.6364 C14H82O- 1 266.6371 -2.68
  266.6605 C11H86O3- 1 266.6582 8.58
  267.4768 C13H63O3- 1 267.4783 -5.52
  267.5467 C15H71O- 1 267.551 -16.08
  268.2773 C18H36O- 1 268.2772 0.53
  268.4454 C12H60O4- 1 268.4497 -16.19
  269.0654 C19H9O2- 1 269.0608 17.12
  269.3975 C14H53O3- 1 269.4 -9.51
  270.2312 C20H30- 1 270.2353 -15.09
  270.2877 C18H38O- 1 270.2928 -18.98
  271.226 C16H31O3- 1 271.2279 -7.07
  271.386 C13H51O4- 1 271.3793 24.63
  271.4741 C12H63O4- 1 271.4732 3.48
  271.5193 C17H67- 1 271.5248 -20.42
  271.6701 C14H87O- 1 271.6762 -22.57
  271.9931 C20O2- 1 271.9904 10.07
  272.155 C21H20- 1 272.157 -7.58
  272.2775 C17H36O2- 1 272.2721 19.9
  272.4335 C18H56- 1 272.4388 -19.41
  272.4781 C12H64O4- 1 272.481 -10.7
  272.6802 C14H88O- 1 272.6841 -14.24
  273.4332 C14H57O3- 1 273.4313 6.75
  274.2365 C19H30O- 1 274.2302 23.01
  274.4968 C12H66O4- 1 274.4967 0.56
  275.2003 C18H27O2- 1 275.2017 -4.84
  275.226 C15H31O4- 1 275.2228 11.8
  275.4582 C18H59- 1 275.4622 -14.69
  275.5713 C14H75O2- 1 275.5773 -21.7
  275.6145 C15H79O- 1 275.6136 3.07
  276.0878 C22H12- 1 276.0944 -24.1
  276.2467 C19H32O- 1 276.2459 2.93
  276.5106 C12H68O4- 1 276.5123 -6.04
  276.5443 C13H72O3- 1 276.5487 -15.92
  277.0644 C21H9O- 1 277.0659 -5.54
  277.1855 C17H25O3- 1 277.1809 16.47
  277.2374 C15H33O4- 1 277.2384 -3.7
  277.4319 C13H57O4- 1 277.4262 20.26
  278.003 C19H2O3- 1 278.0009 7.44
  278.2012 C21H26- 1 278.204 -10.02
  278.2409 C15H34O4- 1 278.2463 -19.17
  278.2882 C16H38O3- 1 278.2826 20
  278.5633 C13H74O3- 1 278.5643 -3.66
  279.0518 C20H7O2- 1 279.0452 23.74
  279.143 C19H19O2- 1 279.1391 14.25
  279.364 C18H47O- 1 279.3632 2.61
  279.386 C15H51O3- 1 279.3844 5.77
  279.4156 C16H55O2- 1 279.4208 -18.42
  279.6428 C15H83O- 1 279.6449 -7.56
  279.9992 C22O- 1 279.9955 13.25
  280.093 C21H12O- 1 280.0894 13.1
  280.2166 C21H28- 1 280.2196 -10.81
  280.2966 C16H40O3- 1 280.2983 -6.06
  280.3378 C17H44O2- 1 280.3347 11.29
  280.4109 C19H52- 1 280.4075 12.26
  280.6387 C11H84O4- 1 280.6375 4.39
  280.6829 C16H88- 1 280.6892 -22.2
  280.9934 C18HO4- 1 280.988 19.18
  281.0287 C19H5O3- 1 281.0244 15.32
  281.4615 C13H61O4- 1 281.4575 14.19
  281.5351 C15H69O2- 1 281.5303 17
  282.0088 C22H2O- 1 282.0111 -8.05
  282.1047 C21H14O- 1 282.105 -1.27
  282.1954 C20H26O- 1 282.1989 -12.42
  282.2246 C17H30O3- 1 282.22 16.21
  282.357 C17H46O2- 1 282.3503 23.49
  282.6597 C11H86O4- 1 282.6532 23.12
  282.9981 C18H3O4- 1 283.0037 -19.65
  283.0745 C20H11O2- 1 283.0765 -6.99
  283.1038 C17H15O4- 1 283.0976 22.03
  283.3582 C17H47O2- 1 283.3582 0.22
  284.1444 C18H20O3- 1 284.1418 9.09
  284.3355 C16H44O3- 1 284.3296 20.77
  284.6157 C13H80O3- 1 284.6113 15.6
  285.1632 C22H21- 1 285.1649 -5.84
  285.45 C19H57- 1 285.4466 11.98
  285.6342 C17H81- 1 285.6344 -0.6
  285.6753 C11H89O4- 1 285.6766 -4.6
  286.2292 C20H30O- 1 286.2302 -3.53
  286.2913 C18H38O2- 1 286.2877 12.53
  286.3505 C16H46O3- 1 286.3452 18.51
  286.5328 C14H70O3- 1 286.533 -0.76
  286.6101 C16H78O- 1 286.6058 14.87
  286.6705 C14H86O2- 1 286.6633 24.97
  287.0118 C21H3O2- 1 287.0139 -7.3
  287.1063 C20H15O2- 1 287.1078 -4.9
  287.3305 C19H43O- 1 287.3319 -4.97
  287.6642 C14H87O2- 1 287.6712 -24.04
  287.9782 C20O3- 1 287.9853 -24.68
  288.0993 C23H12- 1 288.0944 16.76
  288.1537 C21H20O- 1 288.152 6.02
  288.1853 C22H24- 1 288.1883 -10.6
  288.2421 C20H32O- 1 288.2459 -13.16
  288.346 C19H44O- 1 288.3398 21.51
  288.5183 C13H68O4- 1 288.5123 20.68
  288.5658 C18H72- 1 288.564 6.41
  289.0819 C19H13O3- 1 289.087 -17.61
  289.1636 C21H21O- 1 289.1598 13.31
  289.5976 C15H77O2- 1 289.5929 16.24
  289.6646 C17H85- 1 289.6657 -3.62
  290.0044 C20H2O3- 1 290.0009 12.08
  290.0993 C19H14O3- 1 290.0948 15.36
  290.3545 C19H46O- 1 290.3554 -3.16
  290.6614 C13H86O3- 1 290.6582 10.83
  291.1028 C19H15O3- 1 291.1027 0.56
  291.1327 C20H19O2- 1 291.1391 -21.97
  291.1991 C18H27O3- 1 291.1966 8.58
  291.4539 C18H59O- 1 291.4571 -11.12
  291.4875 C19H63- 1 291.4935 -20.66
  291.5811 C18H75- 1 291.5874 -21.55
  291.639 C16H83O- 1 291.6449 -20.26
  292.0457 C21H8O2- 1 292.053 -24.96
  292.0827 C22H12O- 1 292.0894 -22.82
  292.1174 C19H16O3- 1 292.1105 23.76
  292.2442 C19H32O2- 1 292.2408 11.82
  292.3001 C17H40O3- 1 292.2983 6.14
  292.3663 C19H48O- 1 292.3711 -16.16
  292.3976 C16H52O3- 1 292.3922 18.36
  293.1007 C22H13O- 1 293.0972 11.97
  293.4675 C18H61O- 1 293.4728 -18
  293.6053 C18H77- 1 293.6031 7.55
  294.1286 C19H18O3- 1 294.1261 8.43
  294.2241 C18H30O3- 1 294.22 13.96
  294.253 C19H34O2- 1 294.2564 -11.76
  294.5383 C16H70O2- 1 294.5381 0.59
  294.5751 C17H74O- 1 294.5745 1.89
  295.0905 C18H15O4- 1 295.0976 -24.05
  295.1423 C23H19- 1 295.1492 -23.31
  295.3763 C15H51O4- 1 295.3793 -10.17
  295.5527 C16H71O2- 1 295.546 22.97
  295.6046 C14H79O3- 1 295.6035 3.98
  296.0109 C19H4O4- 1 296.0115 -2.17
  296.137 C19H20O3- 1 296.1418 -16.11
  296.3518 C21H44- 1 296.3448 23.61
  296.4167 C16H56O3- 1 296.4235 -22.88
  296.5509 C16H72O2- 1 296.5538 -9.68
  296.5804 C13H76O4- 1 296.5749 18.59
  296.6286 C18H80- 1 296.6266 6.93
  296.6638 C12H88O4- 1 296.6688 -16.77
  297.0171 C19H5O4- 1 297.0193 -7.45
  297.1191 C18H17O4- 1 297.1132 19.59
  297.4967 C18H65O- 1 297.5041 -24.89
  297.6959 C16H89O- 1 297.6919 13.58
  298.0975 C21H14O2- 1 298.0999 -8.15
  298.1352 C22H18O- 1 298.1363 -3.84
  298.5135 C18H66O- 1 298.5119 5.16
  298.6284 C14H82O3- 1 298.6269 4.82
  299.0541 C23H7O- 1 299.0502 12.85
  299.4298 C19H55O- 1 299.4258 13.33
  299.4856 C17H63O2- 1 299.4834 7.38
  299.5375 C15H71O3- 1 299.5409 -11.37
  300.4361 C19H56O- 1 300.4337 8.16
  301.0094 C25H- 1 301.0084 3.3
  301.1484 C18H21O4- 1 301.1445 12.97
  302.1872 C19H26O3- 1 302.1887 -5.24
  302.2461 C17H34O4- 1 302.2463 -0.36
  302.6537 C14H86O3- 1 302.6582 -15.14
  303.3881 C17H51O3- 1 303.3844 12.28
  303.6059 C16H79O2- 1 303.6086 -8.67
  304.0527 C22H8O2- 1 304.053 -0.8
  304.2179 C23H28- 1 304.2196 -5.89
  304.2656 C17H36O4- 1 304.2619 12.01
  304.33 C19H44O2- 1 304.3347 -15.31
  304.3518 C16H48O4- 1 304.3558 -13.04
  304.3967 C17H52O3- 1 304.3922 14.93
  304.6192 C16H80O2- 1 304.6164 9.3
  305.0988 C23H13O- 1 305.0972 5.24
  305.2146 C19H29O3- 1 305.2122 7.75
  305.3834 C20H49O- 1 305.3789 14.65
  305.4316 C18H57O2- 1 305.4364 -15.88
  306.0344 C21H6O3- 1 306.0322 6.94
  306.3551 C19H46O2- 1 306.3503 15.62
  306.4518 C18H58O2- 1 306.4442 24.8
  306.5108 C20H66- 1 306.517 -20.38
  307.0336 C21H7O3- 1 307.0401 -20.97
  307.3188 C18H43O3- 1 307.3218 -9.5
  307.5092 C16H67O3- 1 307.5096 -1.24
  308.1171 C23H16O- 1 308.1207 -11.68
  308.3686 C19H48O2- 1 308.366 8.36
  308.4175 C17H56O3- 1 308.4235 -19.37
  308.4786 C15H64O4- 1 308.481 -7.91
  308.6171 C15H80O3- 1 308.6113 18.71
  308.679 C17H88O- 1 308.6841 -16.26
  309.0193 C20H5O4- 1 309.0193 -0.11
  309.1307 C23H17O- 1 309.1285 7.29
  309.2869 C20H37O2- 1 309.2799 22.72
  309.4742 C18H61O2- 1 309.4677 20.96
  309.5772 C14H77O4- 1 309.5827 -17.99
  309.6262 C15H81O3- 1 309.6191 22.82
  310.086 C25H10- 1 310.0788 23.29
  310.3463 C18H46O3- 1 310.3452 3.37
  310.3968 C16H54O4- 1 310.4028 -19.34
  310.4415 C17H58O3- 1 310.4391 7.63
  310.5514 C20H70- 1 310.5483 9.92
  310.5883 C14H78O4- 1 310.5906 -7.36
  311.0413 C20H7O4- 1 311.035 20.38
  311.1742 C24H23- 1 311.1805 -20.3
  311.3944 C19H51O2- 1 311.3895 16
  311.4613 C21H59- 1 311.4622 -3.01
  311.4846 C18H63O2- 1 311.4834 4.15
  311.5182 C19H67O- 1 311.5197 -4.92
  311.6549 C19H83- 1 311.65 15.73
  312.2318 C18H32O4- 1 312.2306 3.76
  312.4047 C19H52O2- 1 312.3973 23.78
  312.5116 C15H68O4- 1 312.5123 -2.2
  312.5682 C20H72- 1 312.564 13.44
  313.1653 C23H21O- 1 313.1598 17.52
  313.2706 C19H37O3- 1 313.2748 -13.33
  313.3416 C21H45O- 1 313.3476 -19.06
  313.4048 C19H53O2- 1 313.4051 -1.09
  314.0618 C20H10O4- 1 314.0585 10.64
  314.1705 C23H22O- 1 314.1676 9.26
  314.2095 C24H26- 1 314.204 17.46
  314.3172 C20H42O2- 1 314.319 -5.81
  314.5379 C19H70O- 1 314.5432 -16.99
  314.599 C17H78O2- 1 314.6007 -5.39
  315.0053 C22H3O3- 1 315.0088 -10.94
  315.0495 C23H7O2- 1 315.0452 13.93
  315.1111 C25H15- 1 315.1179 -21.6
  315.5516 C19H71O- 1 315.551 1.92
  315.5889 C20H75- 1 315.5874 4.73
  315.6777 C19H87- 1 315.6813 -11.59
  316.2114 C20H28O3- 1 316.2044 22.01
  316.5923 C20H76- 1 316.5953 -9.44
  317.2913 C22H37O- 1 317.285 19.78
  317.3779 C21H49O- 1 317.3789 -3.02
  317.6462 C14H85O4- 1 317.6453 2.84
  318.1663 C22H22O2- 1 318.1625 11.78
  318.2054 C23H26O- 1 318.1989 20.3
  318.2799 C18H38O4- 1 318.2776 7.38
  318.3531 C20H46O2- 1 318.3503 8.84
  318.5517 C15H74O4- 1 318.5593 -23.6
  319.0022 C21H3O4- 1 319.0037 -4.66
  319.0725 C23H11O2- 1 319.0765 -12.49
  319.2569 C21H35O2- 1 319.2643 -22.97
  319.3524 C20H47O2- 1 319.3582 -18.16
  319.5628 C15H75O4- 1 319.5671 -13.53
  319.9939 C24O2- 1 319.9904 11.12
  320.0645 C26H8- 1 320.0631 4.29
  320.4054 C21H52O- 1 320.4024 9.36
  320.5782 C15H76O4- 1 320.5749 10.11
  321.0974 C23H13O2- 1 321.0921 16.51
  321.1722 C25H21- 1 321.1649 22.94
  321.6271 C20H81- 2 321.6344 -22.69
  322.2835 C21H38O2- 1 322.2877 -13.05
  322.3739 C20H50O2- 1 322.3816 -24.04
  322.5769 C18H74O2- 1 322.5694 23.05
  322.6377 C20H82- 1 322.6422 -13.86
  322.6702 C17H86O2- 1 322.6633 21.42
  323.1052 C23H15O2- 1 323.1078 -7.93
  323.3844 C20H51O2- 1 323.3895 -15.57
  323.4285 C21H55O- 1 323.4258 8.13
  323.4809 C19H63O2- 1 323.4834 -7.62
  324.2314 C19H32O4- 1 324.2306 2.51
  324.4602 C18H60O3- 1 324.4548 16.79
  325.146 C20H21O4- 1 325.1445 4.47
  325.2522 C23H33O- 1 325.2537 -4.59
  325.6627 C20H85- 1 325.6657 -9.01
  326.2634 C23H34O- 1 326.2615 5.78
  326.6595 C16H86O3- 1 326.6582 3.77
  327.0128 C23H3O3- 1 327.0088 12.32
  327.0397 C24H7O2- 1 327.0452 -16.73
  327.3429 C18H47O4- 1 327.348 -15.59
  327.6813 C20H87- 1 327.6813 -0.05
  328.378 C22H48O- 1 328.3711 21.22
  328.5542 C20H72O- 1 328.5589 -14.29
  329.2448 C22H33O2- 1 329.2486 -11.46
  329.279 C23H37O- 1 329.285 -18.11
  329.5572 C16H73O4- 1 329.5514 17.64
  329.6459 C15H85O4- 1 329.6453 1.73
  330.0908 C21H14O4- 1 330.0898 3.31
  330.5519 C16H74O4- 1 330.5593 -22.21
  330.6311 C18H82O2- 1 330.632 -2.83
  331.1029 C21H15O4- 1 331.0976 16
  331.1846 C20H27O4- 1 331.1915 -20.63
  331.3085 C23H39O- 1 331.3006 23.81
  331.4295 C23H55- 1 331.4309 -4.34
  331.6405 C18H83O2- 1 331.6399 1.95
  332.2334 C21H32O3- 1 332.2357 -6.93
  332.3119 C23H40O- 1 332.3085 10.23
  332.4737 C17H64O4- 1 332.481 -21.84
  332.5559 C19H72O2- 1 332.5538 6.31
  332.598 C20H76O- 1 332.5902 23.41
  332.6777 C19H88O- 1 332.6841 -19.03
  333.0765 C27H9- 1 333.071 16.72
  333.6689 C15H89O4- 1 333.6766 -23.14
  334.0125 C25H2O2- 1 334.006 19.36
  334.4326 C19H58O3- 1 334.4391 -19.68
  335.5483 C18H71O3- 2 335.5409 22.25
  335.5779 C19H75O2- 1 335.5773 2.05
  336.1546 C25H20O- 1 336.152 7.97
  336.3088 C22H40O2- 1 336.3034 16.06
  336.393 C21H52O2- 1 336.3973 -12.76
  336.4353 C22H56O- 1 336.4337 4.72
  336.5134 C17H68O4- 1 336.5123 3.14
  337.0356 C25H5O2- 1 337.0295 17.98
  337.0836 C23H13O3- 1 337.087 -10.15
  337.1426 C21H21O4- 1 337.1445 -5.74
  337.181 C22H25O3- 1 337.1809 0.19
  337.3114 C22H41O2- 1 337.3112 0.54
  337.4264 C18H57O4- 1 337.4262 0.54
  337.6794 C18H89O2- 1 337.6868 -21.99
  338.3366 C19H46O4- 1 338.3402 -10.48
  338.4177 C21H54O2- 1 338.4129 14
  338.539 C21H70O- 1 338.5432 -12.31
  339.0085 C24H3O3- 1 339.0088 -0.8
  339.0775 C26H11O- 1 339.0815 -11.97
  339.1229 C27H15- 1 339.1179 14.77
  339.3235 C22H43O2- 1 339.3269 -9.81
  339.4611 C22H59O- 1 339.4571 11.64
  339.547 C21H71O- 1 339.551 -11.85
  339.5879 C22H75- 1 339.5874 1.45
  340.0675 C22H12O4- 1 340.0741 -19.44
  340.1242 C27H16- 1 340.1257 -4.55
  340.3935 C20H52O3- 1 340.3922 3.96
  340.5957 C22H76- 1 340.5953 1.2
  341.1002 C26H13O- 1 341.0972 8.7
  341.2492 C23H33O2- 1 341.2486 1.67
  341.3273 C25H41- 1 341.3214 17.31
  341.4156 C24H53- 1 341.4153 0.95
  341.4567 C18H61O4- 1 341.4575 -2.31
  341.5876 C18H77O3- 1 341.5878 -0.77
  341.6221 C19H81O2- 1 341.6242 -6.29
  341.9926 C23H2O4- 1 341.9959 -9.62
  342.1574 C24H22O2- 1 342.1625 -14.96
  342.4009 C20H54O3- 1 342.4078 -20.27
  342.5114 C23H66- 1 342.517 -16.27
  342.6707 C20H86O- 1 342.6684 6.69
  343.1911 C21H27O4- 1 343.1915 -1.24
  343.222 C22H31O3- 1 343.2279 -17.23
  343.3008 C24H39O- 1 343.3006 0.34
  343.4551 C21H59O2- 1 343.4521 8.74
  344.0253 C27H4O- 1 344.0268 -4.16
  344.0978 C22H16O4- 1 344.1054 -22.09
  344.3922 C19H52O4- 1 344.3871 14.64
  344.615 C18H80O3- 1 344.6113 10.84
  345.1774 C24H25O2- 1 345.186 -24.85
  345.329 C21H45O3- 1 345.3374 -24.52
  346.0334 C23H6O4- 1 346.0272 18.1
  346.1293 C26H18O- 2 346.1363 -20.29
  346.3158 C20H42O4- 2 346.3089 20.02
  346.3389 C21H46O3- 1 346.3452 -18.43
  346.4949 C18H66O4- 1 346.4967 -4.99
  346.6141 C21H78O- 1 346.6058 23.85
  347.0585 C27H7O- 1 347.0502 23.68
  347.3881 C22H51O2- 1 347.3895 -4.01
  347.5226 C22H67O- 1 347.5197 8.18
  347.6148 C21H79O- 1 347.6136 3.43
  348.0898 C28H12- 1 348.0944 -13.34
  348.5206 C22H68O- 2 348.5276 -19.92
  348.6358 C18H84O3- 1 348.6426 -19.51
  349.0153 C29H- 1 349.0084 19.71
  349.1198 C25H17O2- 1 349.1234 -10.37
  349.1683 C26H21O- 1 349.1598 24.37
  349.2622 C25H33O- 1 349.2537 24.33
  349.337 C20H45O4- 1 349.3323 13.32
  349.5377 C22H69O- 1 349.5354 6.65
  349.6627 C22H85- 1 349.6657 -8.4
  350.208 C27H26- 1 350.204 11.56
  350.383 C21H50O3- 1 350.3765 18.4
  350.4856 C24H62- 1 350.4857 -0.18
  350.5664 C19H74O3- 1 350.5643 5.89
  350.6328 C21H82O- 1 350.6371 -12.3
  351.2049 C27H27- 2 351.2118 -19.65
  351.5901 C23H75- 1 351.5874 7.52
  352.0761 C23H12O4- 1 352.0741 5.7
  352.1739 C22H24O4- 1 352.168 16.65
  353.1921 C26H25O- 1 353.1911 2.83
  353.3958 C21H53O3- 1 353.4 -11.95
  353.6191 C20H81O2- 1 353.6242 -14.36
  354.2705 C21H38O4- 1 354.2776 -19.95
  354.3489 C23H46O2- 1 354.3503 -3.91
  354.5442 C21H70O2- 1 354.5381 17.24
  355.1282 C24H19O3- 1 355.134 -16.32
  355.2562 C24H35O2- 1 355.2643 -22.64
  355.3432 C26H43- 1 355.337 17.3
  355.3952 C24H51O- 1 355.3945 1.72
  355.9831 C27O2- 1 355.9904 -20.53
  356.1072 C23H16O4- 1 356.1054 4.91
  356.4325 C25H56- 1 356.4388 -17.42
  356.5353 C24H68- 1 356.5327 7.37
  357.028 C28H5O- 2 357.0346 -18.5
  357.0481 C25H9O3- 1 357.0557 -21.47
  357.1817 C25H25O2- 1 357.186 -12.18
  357.2955 C21H41O4- 1 357.301 -15.49
  357.3219 C25H41O- 1 357.3163 15.62
  357.3561 C26H45- 1 357.3527 9.65
  357.6372 C23H81- 1 357.6344 7.79
  359.2252 C22H31O4- 1 359.2228 6.61
  359.4478 C21H59O3- 1 359.447 2.25
  359.4798 C22H63O2- 1 359.4834 -9.8
  359.5136 C23H67O- 1 359.5197 -17.17
  359.5599 C24H71- 1 359.5561 10.51
  359.6318 C19H83O3- 1 359.6348 -8.24
  360.0153 C27H4O2- 1 360.0217 -17.84
  360.0642 C28H8O- 1 360.0581 17.04
  360.2658 C23H36O3- 1 360.267 -3.22
  360.2944 C24H40O2- 1 360.3034 -24.87
  360.39 C23H52O2- 1 360.3973 -20.18
  360.4941 C22H64O2- 1 360.4912 8.14
  361.2662 C23H37O3- 1 361.2748 -23.96
  361.4806 C25H61- 1 361.4779 7.58
  361.5319 C23H69O- 1 361.5354 -9.6
  361.5972 C21H77O2- 1 361.5929 11.96
  361.6576 C19H85O3- 2 361.6504 19.93
  362.0336 C27H6O2- 1 362.0373 -10.4
  362.2977 C27H38- 1 362.2979 -0.66
  362.474 C21H62O3- 1 362.4704 9.84
  362.5596 C20H74O3- 1 362.5643 -13.07
  362.6417 C22H82O- 1 362.6371 12.61
  363.1805 C27H23O- 1 363.1754 13.85
  363.3192 C24H43O2- 1 363.3269 -20.93
  363.4824 C21H63O3- 1 363.4783 11.47
  363.5953 C24H75- 1 363.5874 21.52
  364.0129 C26H4O3- 1 364.0166 -10.22
  364.142 C26H20O2- 1 364.1469 -13.41
  364.2244 C28H28- 1 364.2196 13.12
  364.3504 C21H48O4- 1 364.3558 -14.73
  364.4068 C26H52- 1 364.4075 -1.66
  364.458 C24H60O- 2 364.465 -19.06
  364.6075 C21H80O2- 1 364.6164 -24.26
  365.5462 C19H73O4- 1 365.5514 -14.3
  366.1548 C26H22O2- 1 366.1625 -21.04
  366.9946 C25H3O4- 1 367.0037 -24.83
  367.3612 C24H47O2- 1 367.3582 8.16
  367.45 C23H59O2- 1 367.4521 -5.67
  367.6178 C24H79- 1 367.6187 -2.55
  367.6439 C21H83O2- 1 367.6399 11.12
  368.0631 C30H8- 1 368.0631 -0.1
  368.2156 C27H28O- 1 368.2146 2.87
  368.269 C25H36O2- 1 368.2721 -8.43
  368.3036 C26H40O- 1 368.3085 -13.1
  368.3869 C21H52O4- 1 368.3871 -0.47
  368.4612 C23H60O2- 1 368.4599 3.54
  368.6199 C24H80- 2 368.6266 -17.99
  369.1354 C28H17O- 1 369.1285 18.83
  369.2132 C23H29O4- 2 369.2071 16.42
  370.2274 C27H30O- 1 370.2302 -7.7
  370.389 C24H50O2- 1 370.3816 19.84
  370.4876 C20H66O4- 1 370.4967 -24.51
  371.2981 C25H39O2- 1 371.2956 6.83
  371.5514 C25H71- 1 371.5561 -12.79
  371.639 C20H83O3- 1 371.6348 11.27
  372.2497 C27H32O- 1 372.2459 10.32
  372.3576 C23H48O3- 1 372.3609 -8.73
  372.4708 C26H60- 1 372.4701 2.08
  372.6288 C23H80O- 1 372.6215 19.69
  372.6697 C21H88O2- 1 372.679 -24.93
  373.0338 C28H5O2- 1 373.0295 11.45
  373.1368 C24H21O4- 1 373.1445 -20.79
  373.1646 C28H21O- 1 373.1598 12.95
  373.239 C23H33O4- 1 373.2384 1.4
  373.3464 C26H45O- 1 373.3476 -3.25
  373.55 C21H73O3- 1 373.5565 -17.47
  374.0015 C27H2O3- 1 374.0009 1.47
  374.454 C25H58O- 1 374.4493 12.49
  375.4328 C21H59O4- 1 375.4419 -24.14
  376.0542 C28H8O2- 1 376.053 3.24
  377.081 C25H13O4- 1 377.0819 -2.35
  377.4493 C21H61O4- 1 377.4575 -21.72
  378.0452 C31H6- 1 378.0475 -5.98
  378.4972 C22H66O3- 1 378.5017 -12.13
  379.0897 C25H15O4- 1 379.0976 -20.68
  379.2344 C25H31O3- 2 379.2279 17.35
  379.4488 C24H59O2- 1 379.4521 -8.58
  379.6083 C21H79O3- 1 379.6035 12.85
  380.1821 C27H24O2- 1 380.1782 10.35
  380.2329 C25H32O3- 1 380.2357 -7.27
  380.2696 C26H36O2- 1 380.2721 -6.45
  380.5836 C24H76O- 2 380.5902 -17.33
  381.2127 C24H29O4- 1 381.2071 14.52
  381.2536 C29H33- 1 381.2588 -13.7
  381.6743 C19H89O4- 1 381.6766 -6.23
  382.1032 C28H14O2- 1 382.0999 8.6
  382.1702 C30H22- 1 382.1727 -6.49
  382.2357 C28H30O- 1 382.2302 14.35
  382.3437 C24H46O3- 1 382.3452 -3.98
  383.1139 C28H15O2- 1 383.1078 16.08
  383.2239 C24H31O4- 1 383.2228 2.96
  383.3669 C28H47- 1 383.3683 -3.64
  383.4663 C27H59- 1 383.4622 10.73
  383.5405 C22H71O3- 1 383.5409 -1
  383.5915 C20H79O4- 1 383.5984 -17.89
  383.656 C25H83- 1 383.65 15.46
  383.9882 C28O3- 1 383.9853 7.64
  384.0751 C27H12O3- 1 384.0792 -10.75
  384.1484 C29H20O- 1 384.152 -9.21
  384.218 C27H28O2- 1 384.2095 22.19
  384.3939 C25H52O2- 1 384.3973 -8.72
  384.623 C24H80O- 1 384.6215 3.96
  385.3489 C27H45O- 1 385.3476 3.49
  385.5391 C25H69O- 1 385.5354 9.65
  386.0368 C29H6O2- 1 386.0373 -1.31
  386.1303 C28H18O2- 1 386.1312 -2.5
  386.3708 C24H50O3- 1 386.3765 -14.93
  386.4263 C22H58O4- 1 386.4341 -20.17
  386.5156 C24H66O2- 1 386.5068 22.62
  387.0545 C29H7O2- 1 387.0452 24.14
  387.2965 C25H39O3- 2 387.2905 15.64
  387.4967 C27H63- 1 387.4935 8.26
  387.539 C21H71O4- 1 387.5358 8.19
  387.6082 C23H79O2- 1 387.6086 -0.83
  387.6399 C24H83O- 1 387.6449 -13.13
  388.1562 C28H20O2- 1 388.1469 23.93
  388.2148 C30H28- 1 388.2196 -12.38
  389.0517 C29H9O2- 1 389.0608 -23.33
  389.3456 C26H45O2- 1 389.3425 8.06
  389.5636 C25H73O- 1 389.5667 -7.9
  389.6162 C23H81O2- 1 389.6242 -20.58
  390.1711 C28H22O2- 1 390.1625 21.89
  390.2032 C29H26O- 1 390.1989 11.09
  390.2518 C27H34O2- 1 390.2564 -11.76
  390.4393 C25H58O2- 1 390.4442 -12.6
  390.5691 C25H74O- 1 390.5745 -13.89
  391.0303 C28H7O3- 1 391.0401 -24.95
  391.126 C27H19O3- 1 391.134 -20.49
  391.3507 C26H47O2- 1 391.3582 -18.95
  391.4731 C22H63O4- 1 391.4732 -0.17
  392.0465 C28H8O3- 1 392.0479 -3.57
  392.1794 C28H24O2- 1 392.1782 3.08
  392.395 C27H52O- 2 392.4024 -18.7
  392.5654 C21H76O4- 1 392.5749 -24.27
  392.5947 C25H76O- 1 392.5902 11.56
  393.0603 C28H9O3- 1 393.0557 11.67
  393.1885 C28H25O2- 1 393.186 6.4
  393.2313 C29H29O- 1 393.2224 22.56
  393.4277 C24H57O3- 1 393.4313 -9.3
  393.5255 C23H69O3- 1 393.5252 0.69
  393.6577 C23H85O2- 1 393.6555 5.67
  394.0352 C31H6O- 2 394.0424 -18.19
  394.3771 C26H50O2- 1 394.3816 -11.5
  395.1336 C26H19O4- 1 395.1289 12.06
  395.2769 C30H35- 1 395.2744 6.2
  395.3467 C25H47O3- 1 395.3531 -16.22
  395.5405 C23H71O3- 1 395.5409 -0.82
  396.0698 C28H12O3- 1 396.0792 -23.67
  396.316 C24H44O4- 1 396.3245 -21.44
  396.473 C28H60- 1 396.4701 7.5
  396.5918 C24H76O2- 1 396.5851 16.95
  396.6515 C26H84- 2 396.6579 -16.1
  396.9953 C29HO3- 1 396.9931 5.58
  397.0652 C31H9O- 1 397.0659 -1.61
  397.2307 C25H33O4- 1 397.2384 -19.35
  397.2704 C26H37O3- 1 397.2748 -11.24
  397.3039 C27H41O2- 1 397.3112 -18.51
  397.3516 C28H45O- 1 397.3476 10.12
  397.6148 C21H81O4- 1 397.614 1.86
  397.6482 C22H85O3- 1 397.6504 -5.71
  398.4503 C27H58O- 1 398.4493 2.6
  398.6082 C24H78O2- 1 398.6007 18.75
  399.1002 C28H15O3- 1 399.1027 -6.14
  399.1674 C26H23O4- 2 399.1602 17.98
  399.2021 C27H27O3- 2 399.1966 13.8
  399.2873 C26H39O3- 1 399.2905 -7.87
  399.3215 C27H43O2- 1 399.3269 -13.39
  399.4545 C27H59O- 1 399.4571 -6.61
  400.0337 C33H4- 1 400.0318 4.64
  400.1404 C29H20O2- 1 400.1469 -16.07
  400.3365 C27H44O2- 1 400.3347 4.43
  400.3854 C25H52O3- 1 400.3922 -16.98
  400.4993 C28H64- 1 400.5014 -5.04
  400.9804 C28HO4- 1 400.988 -19.12
  401.2636 C25H37O4- 1 401.2697 -15.29
  401.3949 C25H53O3- 1 401.4 -12.67
  401.5211 C25H69O2- 1 401.5303 -23.01
  401.6498 C21H85O4- 1 401.6453 11.22
  402.0121 C32H2O- 1 402.0111 2.54
  402.1939 C30H26O- 1 402.1989 -12.39
  402.2249 C27H30O3- 1 402.22 12.09
  402.2701 C25H38O4- 1 402.2776 -18.55
  402.4236 C29H54- 1 402.4231 1.23
  403.1789 C29H23O2- 1 403.1704 21.09
  403.2407 C31H31- 1 403.2431 -5.99
  403.3495 C27H47O2- 1 403.3582 -21.52
  403.4379 C29H55- 1 403.4309 17.24
  403.5614 C22H75O4- 1 403.5671 -14
  403.6389 C24H83O2- 1 403.6399 -2.36
  404.0123 C28H4O4- 1 404.0115 2.05
  404.1165 C31H16O- 1 404.1207 -10.35
  404.3226 C26H44O3- 1 404.3296 -17.42
  404.4709 C23H64O4- 1 404.481 -24.99
  404.4965 C27H64O- 1 404.4963 0.64
  405.0013 C31HO2- 1 404.9982 7.62
  405.0919 C30H13O2- 1 405.0921 -0.42
  405.2056 C26H29O4- 1 405.2071 -3.84
  405.4013 C24H53O4- 2 405.3949 15.68
  405.4521 C29H57- 1 405.4466 13.53
  405.4924 C23H65O4- 1 405.4888 8.9
  405.5623 C25H73O2- 1 405.5616 1.65
  405.6835 C21H89O4- 2 405.6766 17.01
  406.0454 C32H6O- 1 406.0424 7.46
  406.1225 C27H18O4- 1 406.1211 3.59
  406.2627 C31H34- 1 406.2666 -9.59
  406.3869 C27H50O2- 1 406.3816 12.89
  406.5702 C25H74O2- 1 406.5694 1.94
  407.0858 C33H11- 1 407.0866 -1.98
  407.3091 C25H43O4- 1 407.3167 -18.56
  407.3493 C26H47O3- 1 407.3531 -9.37
  407.4244 C28H55O- 1 407.4258 -3.42
  407.5317 C24H71O3- 1 407.5409 -22.42
  407.6501 C27H83- 1 407.65 0.1
  408.0817 C29H12O3- 1 408.0792 6.14
  408.1768 C28H24O3- 1 408.1731 9.12
  408.298 C28H40O2- 1 408.3034 -13.1
  408.3329 C29H44O- 2 408.3398 -16.84
  408.4734 C29H60- 1 408.4701 8.1
  409.1459 C27H21O4- 1 409.1445 3.33
  409.343 C29H45O- 1 409.3476 -11.26
  409.6859 C24H89O2- 1 409.6868 -2.29
  410.1597 C27H22O4- 2 410.1524 17.87
  410.286 C27H38O3- 1 410.2826 8.21
  410.3199 C28H42O2- 1 410.319 2.19
  410.4128 C27H54O2- 1 410.4129 -0.4
  410.5268 C23H70O4- 1 410.528 -2.78
  410.5974 C25H78O2- 1 410.6007 -8.13
  411.1109 C33H15- 2 411.1179 -16.99
  411.6794 C27H87- 1 411.6813 -4.59
  412.0837 C32H12O- 2 412.0894 -13.65
  412.2095 C28H28O3- 2 412.2044 12.28
  412.2752 C30H36O- 1 412.2772 -4.81
  412.4657 C28H60O- 1 412.465 1.73
  412.6465 C26H84O- 2 412.6528 -15.12
  413.0184 C30H5O3- 1 413.0244 -14.68
  413.1582 C30H21O2- 1 413.1547 8.45
  413.2032 C28H29O3- 1 413.2122 -21.83
  413.2329 C32H29- 1 413.2275 13.24
  413.3557 C25H49O4- 1 413.3636 -19.2
  413.5142 C29H65- 1 413.5092 12.18
  413.6046 C28H77- 1 413.6031 3.8
  414.2709 C26H38O4- 1 414.2776 -16.14
  414.474 C28H62O- 2 414.4806 -16
  415.0289 C33H3O- 1 415.0189 24.06
  415.4196 C26H55O3- 1 415.4157 9.37
  415.9811 C32O2- 1 415.9904 -22.38
  416.163 C33H20- 1 416.157 14.28
  416.5252 C29H68- 2 416.5327 -17.77
  416.6293 C28H80- 1 416.6266 6.65
  417.1321 C32H17O- 1 417.1285 8.65
  417.2156 C31H29O- 2 417.2224 -16.28
  417.2494 C28H33O3- 2 417.2435 14.06
  417.4206 C29H53O- 1 417.4102 24.97
  417.4957 C24H65O4- 2 417.4888 16.35
  417.5246 C25H69O3- 1 417.5252 -1.57
  418.4271 C29H54O- 1 418.418 21.62
  418.4669 C27H62O2- 1 418.4755 -20.63
  418.5743 C26H74O2- 1 418.5694 11.58
  418.6663 C25H86O2- 1 418.6633 7.19
  419.0391 C29H7O4- 1 419.035 9.91
  419.1219 C28H19O4- 1 419.1289 -16.66
  419.2318 C31H31O- 2 419.238 -14.97
  419.4672 C30H59- 1 419.4622 11.89
  421.3987 C28H53O2- 1 421.4051 -15.08
  421.4285 C25H57O4- 1 421.4262 5.31
  421.9986 C31H2O3- 1 422.0009 -5.56
  422.1551 C28H22O4- 1 422.1524 6.55
  422.3756 C27H50O3- 1 422.3765 -2.24
  422.4821 C30H62- 1 422.4857 -8.51
  422.5335 C24H70O4- 2 422.528 13.14
  422.5704 C25H74O3- 2 422.5643 14.37
  422.6486 C24H86O3- 1 422.6582 -22.82
  423.1301 C31H19O2- 1 423.1391 -21.14
  423.3799 C27H51O3- 1 423.3844 -10.54
  423.9844 C30O4- 1 423.9802 9.93
  424.0215 C31H4O3- 2 424.0166 11.65
  424.1364 C31H20O2- 1 424.1469 -24.64
  424.2587 C27H36O4- 1 424.2619 -7.68
  424.293 C28H40O3- 1 424.2983 -12.46
  424.5783 C25H76O3- 1 424.58 -3.94
  425.0064 C34HO- 1 425.0033 7.32
  425.1492 C31H21O2- 1 425.1547 -12.85
  425.4261 C28H57O2- 1 425.4364 -24.11
  425.4545 C25H61O4- 1 425.4575 -7.03
  426.0299 C31H6O3- 1 426.0322 -5.59
  427.2364 C33H31- 2 427.2431 -15.72
  427.3809 C26H51O4- 1 427.3793 3.87
  427.5831 C28H75O- 1 427.5823 1.86
  428.0684 C35H8- 1 428.0631 12.15
  428.2338 C29H32O3- 1 428.2357 -4.54
  428.3309 C28H44O3- 1 428.3296 2.96
  428.3789 C26H52O4- 1 428.3871 -19.07
  428.433 C31H56- 2 428.4388 -13.52
  428.5295 C30H68- 1 428.5327 -7.42
  429.089 C32H13O2- 1 429.0921 -7.22
  429.43 C27H57O3- 1 429.4313 -2.99
  430.0189 C30H6O4- 1 430.0272 -19.18
  430.1032 C32H14O2- 1 430.0999 7.5
  430.1329 C33H18O- 1 430.1363 -7.84
  430.1863 C31H26O2- 1 430.1938 -17.41
  430.4068 C26H54O4- 1 430.4028 9.39
  430.5937 C24H78O4- 1 430.5906 7.31
  430.6642 C26H86O2- 1 430.6633 2.12
  431.1207 C29H19O4- 1 431.1289 -19.04
  431.158 C30H23O3- 1 431.1653 -16.8
  431.288 C30H39O2- 1 431.2956 -17.57
  431.3266 C31H43O- 2 431.3319 -12.37
  431.3752 C32H47- 1 431.3683 15.95
  432.0762 C31H12O3- 1 432.0792 -7
  432.4508 C27H60O3- 1 432.4548 -9.15
  432.5181 C25H68O4- 2 432.5123 13.38
  432.5858 C27H76O2- 1 432.5851 1.71
  434.0747 C34H10O- 1 434.0737 2.32
  434.1708 C33H22O- 1 434.1676 7.41
  435.1102 C31H15O3- 2 435.1027 17.31
  435.4022 C32H51- 1 435.3996 5.89
  435.5319 C25H71O4- 1 435.5358 -9.02
  435.6456 C28H83O- 1 435.6449 1.5
  436.145 C32H20O2- 1 436.1469 -4.26
  436.1726 C29H24O4- 2 436.168 10.53
  436.3035 C29H40O3- 2 436.2983 11.99
  436.3807 C31H48O- 1 436.3711 22.12
  436.5922 C30H76- 1 436.5953 -7.08
  436.6528 C28H84O- 1 436.6528 0.04
  436.9801 C31HO4- 1 436.988 -18.09
  437.0718 C30H13O4- 1 437.0819 -23.1
  437.1112 C31H17O3- 1 437.1183 -16.33
  437.1524 C32H21O2- 1 437.1547 -5.32
  437.5055 C31H65- 1 437.5092 -8.48
  438.0311 C32H6O3- 1 438.0322 -2.52
  438.2817 C28H38O4- 1 438.2776 9.36
  438.3957 C31H50O- 1 438.3867 20.5
  438.4871 C30H62O- 1 438.4806 14.86
  438.5107 C31H66- 2 438.517 -14.36
  439.0894 C30H15O4- 1 439.0976 -18.53
  439.1441 C35H19- 2 439.1492 -11.74
  439.3082 C32H39O- 1 439.3006 17.21
  439.3945 C31H51O- 1 439.3945 -0.04
  439.4196 C28H55O3- 1 439.4157 8.84
  439.5731 C25H75O4- 2 439.5671 13.75
  440.1007 C30H16O4- 1 440.1054 -10.72
  440.1377 C31H20O3- 1 440.1418 -9.37
  440.1898 C29H28O4- 1 440.1993 -21.67
  440.2953 C28H40O4- 1 440.2932 4.74
  440.3286 C29H44O3- 1 440.3296 -2.24
  440.5825 C29H76O- 2 440.5902 -17.29
  440.6947 C28H88O- 1 440.6841 24.17
  441.2293 C33H29O- 1 441.2224 15.7
  441.4909 C26H65O4- 1 441.4888 4.65
  441.6981 C28H89O- 1 441.6919 14.14
  442.0951 C33H14O2- 1 442.0999 -10.82
  442.3364 C29H46O3- 1 442.3452 -19.93
  442.4304 C28H58O3- 1 442.4391 -19.72
  442.549 C31H70- 1 442.5483 1.62
  442.6568 C27H86O2- 1 442.6633 -14.85
  443.2282 C29H31O4- 2 443.2228 12.12
  443.3423 C32H43O- 2 443.3319 23.35
  443.5211 C30H67O- 1 443.5197 3.01
  443.6186 C29H79O- 1 443.6136 11.21
  444.0324 C31H8O4- 2 444.0428 -23.45
  444.0993 C36H12- 1 444.0944 10.82
  444.2184 C32H28O2- 1 444.2095 20.06
  444.3167 C28H44O4- 1 444.3245 -17.62
  444.3434 C32H44O- 1 444.3398 8.28
  444.4074 C30H52O2- 2 444.3973 22.83
  444.4634 C32H60- 2 444.4701 -15
  444.5875 C28H76O2- 1 444.5851 5.39
  446.178 C34H22O- 2 446.1676 23.31
  446.3144 C31H42O2- 1 446.319 -10.44
  447.0592 C31H11O4- 1 447.0663 -15.89
  447.0946 C32H15O3- 1 447.1027 -18.01
  447.129 C33H19O2- 1 447.1391 -22.49
  447.33 C31H43O2- 1 447.3269 6.99
  448.187 C34H24O- 1 448.1833 8.28
  448.306 C34H40- 2 448.3135 -16.82
  448.4129 C33H52- 1 448.4075 12.05
  448.5462 C26H72O4- 1 448.5436 5.76
  448.9983 C36HO- 2 449.0033 -11.09
  449.1915 C34H25O- 1 449.1911 0.84
  449.2725 C29H37O4- 1 449.2697 6.06
  449.4224 C33H53- 1 449.4153 15.86
  450.2036 C34H26O- 1 450.1989 10.44
  450.3652 C28H50O4- 1 450.3715 -13.93
  450.4871 C31H62O- 1 450.4806 14.48
  450.5365 C29H70O2- 1 450.5381 -3.71
  451.0791 C34H11O2- 1 451.0765 5.94
  451.1393 C32H19O3- 2 451.134 11.86
  451.2153 C34H27O- 1 451.2067 19.05
  451.2408 C35H31- 1 451.2431 -5.1
  451.365 C31H47O2- 1 451.3582 15.14
  451.5595 C26H75O4- 1 451.5671 -16.74
  452.309 C33H40O- 1 452.3085 1.11
  452.622 C31H80- 2 452.6266 -10
  453.2907 C29H41O4- 2 453.301 -22.73
  453.5064 C31H65O- 1 453.5041 5.06
  454.1189 C31H18O4- 1 454.1211 -4.7
  454.4883 C27H66O4- 1 454.4967 -18.29
  454.6631 C28H86O2- 1 454.6633 -0.43
  455.369 C34H47- 1 455.3683 1.41
  455.6301 C27H83O3- 1 455.6348 -10.29
  456.225 C30H32O4- 1 456.2306 -12.32
  456.2744 C31H36O3- 2 456.267 16.14
  456.4048 C31H52O2- 1 456.3973 16.39
  456.5197 C27H68O4- 2 456.5123 16.17
  456.6324 C27H84O3- 2 456.6426 -22.28
  457.1967 C36H25- 1 457.1962 1.08
  457.3159 C32H41O2- 1 457.3112 10.33
  457.4477 C32H57O- 1 457.4415 13.64
  458.3417 C29H46O4- 1 458.3402 3.26
  458.3838 C30H50O3- 2 458.3765 15.8
  458.4859 C33H62- 1 458.4857 0.54
  458.5543 C28H74O3- 2 458.5643 -21.91
  459.2074 C36H27- 2 459.2118 -9.63
  459.3252 C32H43O2- 1 459.3269 -3.56
  459.6748 C31H87- 2 459.6813 -14.18
  460.1573 C34H20O2- 2 460.1469 22.61
  460.191 C35H24O- 1 460.1833 16.92
  460.2264 C36H28- 1 460.2196 14.61
  460.5527 C31H72O- 2 460.5589 -13.37
  461.0712 C35H9O2- 2 461.0608 22.5
  461.2582 C33H33O2- 1 461.2486 20.77
  461.4838 C29H65O3- 2 461.4939 -21.93
  462.068 C35H10O2- 1 462.0686 -1.29
  462.2204 C32H30O3- 1 462.22 0.74
  462.4137 C30H54O3- 2 462.4078 12.62
  462.6238 C29H82O2- 1 462.632 -17.69
  462.9932 C33H3O4- 1 463.0037 -22.73
  463.4249 C34H55- 2 463.4309 -12.98
  463.4679 C28H63O4- 1 463.4732 -11.35
  463.5236 C33H67- 1 463.5248 -2.75
  463.9974 C36O2- 1 463.9904 15.18
  464.0367 C37H4O- 2 464.0268 21.4
  464.0946 C35H12O2- 2 464.0843 22.29
  464.1922 C31H28O4- 1 464.1993 -15.39
  464.5478 C30H72O2- 1 464.5538 -12.81
  464.6616 C26H88O4- 1 464.6688 -15.57
  466.0649 C34H10O3- 1 466.0635 2.94
  466.2378 C35H30O- 1 466.2302 16.16
  466.4279 C33H54O- 2 466.418 21.1
  466.6659 C29H86O2- 1 466.6633 5.53
  467.1286 C32H19O4- 1 467.1289 -0.7
  467.3916 C32H51O2- 1 467.3895 4.57
  467.5127 C32H67O- 2 467.5197 -15.01
  467.6214 C31H79O- 1 467.6136 16.62
  468.2238 C31H32O4- 1 468.2306 -14.57
  468.3733 C35H48- 1 468.3762 -6.03
  468.4551 C30H60O3- 1 468.4548 0.67
  468.6777 C29H88O2- 1 468.679 -2.68
  469.0053 C39H- 1 469.0084 -6.51
  469.1065 C38H13- 1 469.1023 9.02
  469.175 C33H25O3- 1 469.1809 -12.6
  470.1131 C38H14- 1 470.1101 6.44
  470.174 C36H22O- 1 470.1676 13.5
  470.358 C34H46O- 1 470.3554 5.49
  471.2722 C35H35O- 1 471.2693 5.99
  471.5569 C32H71O- 1 471.551 12.33
  471.68 C32H87- 1 471.6813 -2.9
  472.0299 C39H4- 1 472.0318 -4.13
  472.1644 C32H24O4- 1 472.168 -7.6
  472.3774 C34H48O- 1 472.3711 13.35
  472.4124 C35H52- 1 472.4075 10.48
  472.5895 C33H76- 2 472.5953 -12.18
  472.621 C30H80O2- 1 472.6164 9.7
  473.0446 C39H5- 1 473.0397 10.37
  473.0938 C37H13O- 1 473.0972 -7.23
  473.1444 C35H21O2- 1 473.1547 -21.77
  473.2162 C33H29O3- 2 473.2122 8.36
  473.3507 C33H45O2- 1 473.3425 17.27
  473.4883 C30H65O3- 1 473.4939 -11.82
  473.5482 C28H73O4- 1 473.5514 -6.88
  473.6655 C31H85O- 1 473.6606 10.39
  474.3045 C32H42O3- 2 474.3139 -19.96
  474.6616 C31H86O- 2 474.6684 -14.27
  475.0019 C34H3O4- 1 475.0037 -3.67
  475.152 C38H19- 1 475.1492 5.83
  475.1883 C32H27O4- 1 475.1915 -6.79
  475.3596 C33H47O2- 1 475.3582 2.95
  475.5523 C31H71O2- 1 475.546 13.41
  476.0232 C38H4O- 2 476.0268 -7.59
  476.6412 C30H84O2- 1 476.6477 -13.69
  477.1902 C35H25O2- 1 477.186 8.78
  477.3921 C30H53O4- 1 477.3949 -5.85
  477.5895 C28H77O4- 2 477.5827 14.22
  478.0208 C34H6O4- 1 478.0272 -13.24
  478.0526 C38H6O- 2 478.0424 21.28
  478.1087 C36H14O2- 1 478.0999 18.41
  478.2042 C35H26O2- 2 478.1938 21.78
  478.2565 C33H34O3- 2 478.2513 10.72
  478.3 C31H42O4- 1 478.3089 -18.54
  478.3249 C35H42O- 1 478.3241 1.64
  478.3806 C33H50O2- 1 478.3816 -2.11
  478.5167 C33H66O- 1 478.5119 9.9
  478.5508 C34H70- 1 478.5483 5.33
  478.6041 C32H78O- 1 478.6058 -3.65
  479.0428 C38H7O- 2 479.0502 -15.61
  479.2877 C34H39O2- 1 479.2956 -16.32
  479.3554 C32H47O3- 1 479.3531 4.78
  479.4637 C35H59- 1 479.4622 3.14
  479.5093 C29H67O4- 2 479.5045 10
  479.6653 C30H87O2- 1 479.6712 -12.17
  480.0966 C39H12- 1 480.0944 4.44
  480.2244 C32H32O4- 1 480.2306 -12.87
  480.3735 C36H48- 1 480.3762 -5.5
  480.5892 C31H76O2- 1 480.5851 8.49
  480.9987 C36HO3- 2 480.9931 11.54
  481.0821 C35H13O3- 1 481.087 -10.16
  481.1637 C37H21O- 1 481.1598 8.11
  481.5091 C32H65O2- 2 481.499 21.05
  482.0545 C34H10O4- 1 482.0585 -8.16
  482.21 C38H26- 1 482.204 12.34
  482.4218 C33H54O2- 1 482.4129 18.44
  482.5704 C30H74O3- 2 482.5643 12.54
  483.0347 C37H7O2- 1 483.0452 -21.6
  483.2773 C36H35O- 1 483.2693 16.42
  483.3621 C35H47O- 1 483.3632 -2.33
  483.3936 C36H51- 2 483.3996 -12.55
  483.4752 C31H63O3- 1 483.4783 -6.37
  484.2847 C36H36O- 1 484.2772 15.53
  484.4927 C31H64O3- 2 484.4861 13.59
  484.5357 C29H72O4- 1 484.5436 -16.33
  484.5934 C34H76- 1 484.5953 -3.82
  484.6957 C33H88- 1 484.6892 13.51
  485.035 C40H5- 2 485.0397 -9.55
  485.129 C39H17- 2 485.1336 -9.37
  485.4495 C30H61O4- 1 485.4575 -16.47
  485.6646 C32H85O- 1 485.6606 8.3
  486.0587 C37H10O2- 1 486.0686 -20.47
  486.1762 C33H26O4- 1 486.1837 -15.39
  486.3218 C37H42- 2 486.3292 -15.24
  487.0971 C34H15O4- 1 487.0976 -1
  488.0147 C35H4O4- 2 488.0115 6.44
  488.1704 C36H24O2- 1 488.1782 -16.03
  488.2504 C38H32- 1 488.2509 -1.17
  489.3959 C31H53O4- 1 489.3949 2.06
  489.6062 C33H77O- 1 489.598 16.79
  490.009 C38H2O2- 1 490.006 5.96
  490.0556 C36H10O3- 1 490.0635 -16.12
  490.661 C31H86O2- 1 490.6633 -4.81
  491.0706 C36H11O3- 1 491.0714 -1.59
  491.1897 C36H27O2- 1 491.2017 -24.25
  491.5074 C30H67O4- 1 491.5045 5.99
  492.038 C35H8O4- 1 492.0428 -9.81
  492.143 C34H20O4- 2 492.1367 12.79
  492.3154 C32H44O4- 2 492.3245 -18.57
  492.38 C37H48- 1 492.3762 7.79
  492.4414 C35H56O- 1 492.4337 15.72
  492.5425 C31H72O3- 1 492.5487 -12.65
  493.1508 C34H21O4- 2 493.1445 12.62
  493.3153 C35H41O2- 1 493.3112 8.29
  493.4342 C35H57O- 2 493.4415 -14.75
  494.1293 C37H18O2- 1 494.1312 -3.84
  494.1577 C34H22O4- 2 494.1524 10.87
  495.0014 C37H3O3- 1 495.0088 -14.93
  495.1964 C35H27O3- 1 495.1966 -0.33
  495.529 C30H71O4- 1 495.5358 -13.65
  495.663 C30H87O3- 1 495.6661 -6.23
  496.0641 C35H12O4- 2 496.0741 -20.09
  496.1744 C34H24O4- 2 496.168 12.97
  496.3147 C38H40- 1 496.3135 2.36
  496.35 C32H48O4- 1 496.3558 -11.74
  496.5969 C35H76- 1 496.5953 3.23
  497.0296 C37H5O3- 2 497.0244 10.44
  497.2593 C33H37O4- 2 497.2697 -21
  497.3789 C36H49O- 1 497.3789 0.09
  497.4315 C34H57O2- 1 497.4364 -9.82
  497.5799 C31H77O3- 1 497.5878 -15.95
  497.6763 C30H89O3- 1 497.6817 -10.9
  498.3691 C32H50O4- 1 498.3715 -4.68
  498.5997 C31H78O3- 2 498.5956 8.08
  499.0155 C40H3O- 2 499.0189 -6.88
  499.081 C38H11O2- 1 499.0765 9.06
  499.1269 C36H19O3- 1 499.134 -14.14
  499.2364 C39H31- 2 499.2431 -13.47
  499.4166 C33H55O3- 1 499.4157 1.82
  499.6218 C35H79- 1 499.6187 6.06
  500.0377 C37H8O3- 2 500.0479 -20.47
  500.0832 C38H12O2- 1 500.0843 -2.19
  500.347 C38H44- 1 500.3448 4.29
  500.5322 C36H68- 1 500.5327 -1
  500.6885 C33H88O- 1 500.6841 8.9
  501.0401 C40H5O- 1 501.0346 10.95
  501.2261 C38H29O- 1 501.2224 7.42
  501.2741 C36H37O2- 1 501.2799 -11.57
  502.2305 C38H30O- 1 502.2302 0.65
  502.3415 C34H46O3- 1 502.3452 -7.45
  502.4662 C34H62O2- 1 502.4755 -18.63
  502.5595 C33H74O2- 1 502.5694 -19.78
  503.1441 C39H19O- 1 503.1441 0
  503.3032 C36H39O2- 1 503.2956 15.21
  503.3433 C34H47O3- 2 503.3531 -19.47
  503.5327 C32H71O3- 1 503.5409 -16.23
  503.5686 C33H75O2- 1 503.5773 -17.13
  504.1439 C35H20O4- 2 504.1367 14.19
  504.3539 C34H48O3- 1 504.3609 -13.96
  504.4431 C36H56O- 2 504.4337 18.65
  504.5864 C33H76O2- 1 504.5851 2.53
  504.6654 C35H84- 1 504.6579 15.06
  505.2133 C37H29O2- 1 505.2173 -7.98
  505.2805 C35H37O3- 2 505.2748 11.27
  506.2131 C37H30O2- 1 506.2251 -23.68
  506.3216 C36H42O2- 1 506.319 5.17
  506.3519 C37H46O- 2 506.3554 -6.95
  506.4933 C37H62- 1 506.4857 14.93
  506.5391 C35H70O- 2 506.5432 -8.2
  507.1544 C35H23O4- 1 507.1602 -11.39
  507.2483 C34H35O4- 1 507.2541 -11.42
  507.4447 C32H59O4- 2 507.4419 5.61
  507.6101 C33H79O2- 1 507.6086 3.05
  507.9833 C37O4- 2 507.9802 6
  508.3261 C36H44O2- 1 508.3347 -16.82
  508.37 C37H48O- 1 508.3711 -2.17
  509.0943 C40H13O- 2 509.0972 -5.63
  509.2353 C40H29- 1 509.2275 15.3
  509.3449 C36H45O2- 1 509.3425 4.69
  509.5534 C31H73O4- 1 509.5514 3.94
  510.2181 C36H30O3- 1 510.22 -3.75
  510.4281 C38H54- 1 510.4231 9.72
  510.5889 C32H78O3- 1 510.5956 -13.12
  511.519 C37H67- 2 511.5248 -11.35
  511.6001 C32H79O3- 1 511.6035 -6.49
  512.0686 C42H8- 1 512.0631 10.55
  512.469 C35H60O2- 2 512.4599 17.88
  512.5078 C33H68O3- 2 512.5174 -18.69
  512.6083 C32H80O3- 1 512.6113 -5.8
  513.1013 C39H13O2- 2 513.0921 17.84
  513.1512 C37H21O3- 1 513.1496 3.01
  513.3223 C38H41O- 1 513.3163 11.77
  513.4289 C34H57O3- 1 513.4313 -4.7
  513.5589 C34H73O2- 1 513.5616 -5.28
  513.5945 C35H77O- 2 513.598 -6.88
  513.6645 C33H85O2- 2 513.6555 17.56
  514.0269 C37H6O4- 1 514.0272 -0.41
  514.1357 C40H18O- 1 514.1363 -1.23
  514.1717 C41H22- 1 514.1727 -2.03
  514.3692 C36H50O2- 1 514.3816 -24.16
  514.5341 C33H70O3- 1 514.533 2.04
  515.0239 C40H3O2- 2 515.0139 19.58
  515.2637 C36H35O3- 2 515.2592 8.85
  515.336 C38H43O- 1 515.3319 7.83
  515.3726 C39H47- 1 515.3683 8.3
  515.4101 C33H55O4- 1 515.4106 -0.89
  515.5165 C36H67O- 2 515.5197 -6.29
  515.6393 C32H83O3- 2 515.6348 8.86
  516.1134 C39H16O2- 1 516.1156 -4.18
  516.2195 C38H28O2- 2 516.2095 19.44
  516.2786 C40H36- 2 516.2822 -7.03
  516.3765 C39H48- 1 516.3762 0.75
  517.2029 C41H25- 1 517.1962 13.07
  517.4246 C33H57O4- 1 517.4262 -3.15
  517.9995 C39H2O3- 1 518.0009 -2.79
  518.0369 C40H6O2- 1 518.0373 -0.91
  518.092 C38H14O3- 1 518.0948 -5.53
  518.3133 C37H42O2- 1 518.319 -11.05
  518.4195 C36H54O2- 1 518.4129 12.76
  519.0307 C43H3- 1 519.024 12.89
  519.2647 C39H35O- 2 519.2693 -9
  519.3656 C38H47O- 1 519.3632 4.51
  519.4552 C37H59O- 1 519.4571 -3.74
  519.4967 C38H63- 1 519.4935 6.16
  520.2009 C37H28O3- 1 520.2044 -6.77
  520.6133 C34H80O2- 1 520.6164 -5.86
  521.3746 C38H49O- 2 521.3789 -8.19
  521.4954 C34H65O3- 1 521.4939 2.83
  521.5614 C36H73O- 2 521.5667 -10.15
  522.1562 C39H22O2- 1 522.1625 -12.07
  522.2256 C37H30O3- 2 522.22 10.69
  522.302 C39H38O- 2 522.2928 17.61
  522.5058 C34H66O3- 2 522.5017 7.77
  522.5601 C32H74O4- 1 522.5593 1.58
  522.6729 C35H86O- 1 522.6684 8.58
  523.0568 C43H7- 1 523.0553 2.85
  523.2755 C35H39O4- 2 523.2854 -18.79
  523.3229 C36H43O3- 1 523.3218 2.07
  523.5705 C32H75O4- 2 523.5671 6.43
  524.0716 C40H12O2- 1 524.0843 -24.15
  524.2518 C41H32- 1 524.2509 1.53
  524.3866 C34H52O4- 1 524.3871 -1.06
  524.4878 C33H64O4- 2 524.481 12.93
  524.5741 C32H76O4- 1 524.5749 -1.61
  525.0195 C38H5O4- 1 525.0193 0.32
  525.1363 C41H17O- 1 525.1285 14.95
  525.3441 C36H45O3- 2 525.3374 12.71
  525.5512 C35H73O2- 1 525.5616 -19.75
  525.5955 C36H77O- 2 525.598 -4.8
  525.995 C41H2O2- 1 526.006 -20.95
  526.2062 C36H30O4- 2 526.215 -16.64
  526.3083 C35H42O4- 1 526.3089 -1.03
  526.4077 C34H54O4- 2 526.4028 9.39
  526.4376 C35H58O3- 1 526.4391 -3.03
  526.5146 C37H66O- 1 526.5119 5.01
  526.556 C38H70- 1 526.5483 14.53
  527.2208 C36H31O4- 1 527.2228 -3.79
  527.3628 C40H47- 2 527.3683 -10.42
  527.5041 C33H67O4- 1 527.5045 -0.72
  527.5761 C35H75O2- 1 527.5773 -2.24
  527.6314 C33H83O3- 1 527.6348 -6.33
  528.0063 C44- 1 528.0005 10.93
  528.2402 C40H32O- 2 528.2459 -10.78
  528.4009 C37H52O2- 1 528.3973 6.83
  529.021 C41H5O2- 2 529.0295 -16.15
  529.4402 C38H57O- 1 529.4415 -2.51
  530.0752 C42H10O- 1 530.0737 2.89
  530.5679 C34H74O3- 2 530.5643 6.68
  530.6221 C32H82O4- 1 530.6219 0.41
  531.0342 C41H7O2- 1 531.0452 -20.55
  531.1412 C40H19O2- 1 531.1391 4.1
  531.2287 C39H31O2- 1 531.233 -7.99
  531.2528 C36H35O4- 1 531.2541 -2.33
  531.3758 C36H51O3- 2 531.3844 -16.04
  531.685 C37H87- 1 531.6813 6.96
  532.0549 C41H8O2- 1 532.053 3.6
  532.0854 C42H12O- 2 532.0894 -7.54
  532.2003 C38H28O3- 1 532.2044 -7.62
  532.4358 C37H56O2- 1 532.4286 13.57
  532.5921 C38H76- 2 532.5953 -5.94
  532.6305 C32H84O4- 1 532.6375 -13.2
  532.6933 C37H88- 1 532.6892 7.85
  533.2569 C39H33O2- 2 533.2486 15.5
  533.3595 C35H49O4- 1 533.3636 -7.78
  533.4091 C40H53- 2 533.4153 -11.63
  533.5604 C37H73O- 2 533.5667 -11.81
  533.5936 C34H77O3- 2 533.5878 10.78
  534.1734 C37H26O4- 2 534.1837 -19.27
  534.2351 C42H30- 1 534.2353 -0.37
  534.3505 C38H46O2- 1 534.3503 0.38
  534.4184 C40H54- 2 534.4231 -8.8
  534.6619 C36H86O- 2 534.6684 -12.17
  535.0767 C41H11O2- 1 535.0765 0.42
  535.1104 C42H15O- 2 535.1128 -4.51
  535.3951 C39H51O- 1 535.3945 1.1
  535.6785 C36H87O- 1 535.6762 4.16
  535.9892 C42O2- 1 535.9904 -2.13
  536.5829 C37H76O- 2 536.5902 -13.52
  536.6341 C38H80- 1 536.6266 14.13
  537.0305 C43H5O- 2 537.0346 -7.55
  537.2403 C38H33O3- 1 537.2435 -6.03
  537.3026 C36H41O4- 1 537.301 2.87
  537.6862 C36H89O- 2 537.6919 -10.56
  538.0844 C44H10- 1 538.0788 10.45
  538.2758 C39H38O2- 1 538.2877 -22.22
  538.4357 C36H58O3- 1 538.4391 -6.46
  538.4972 C34H66O4- 1 538.4967 0.94
  538.5831 C33H78O4- 1 538.5906 -13.86
  538.6183 C34H82O3- 2 538.6269 -15.99
  539.0017 C42H3O2- 1 539.0139 -22.63
  539.1853 C43H23- 1 539.1805 8.87
  539.3262 C40H43O- 2 539.3319 -10.64
  539.5676 C36H75O2- 1 539.5773 -17.82
  540.3803 C41H48- 1 540.3762 7.75
  540.5834 C36H76O2- 1 540.5851 -3.12
  540.6745 C35H88O2- 1 540.679 -8.34
  541.1503 C38H21O4- 2 541.1445 10.75
  541.1833 C39H25O3- 2 541.1809 4.31
  541.2406 C37H33O4- 2 541.2384 3.95
  541.3477 C40H45O- 1 541.3476 0.28
  541.5566 C35H73O3- 1 541.5565 0.12
  541.5907 C36H77O2- 1 541.5929 -4.16
  541.636 C37H81O- 1 541.6293 12.31
  542.0576 C39H10O4- 1 542.0585 -1.55
  542.2426 C37H34O4- 1 542.2463 -6.65
  542.3866 C41H50- 2 542.3918 -9.54
  542.6198 C33H82O4- 1 542.6219 -3.83
  543.1411 C41H19O2- 1 543.1391 3.68
  543.3501 C36H47O4- 2 543.348 3.87
  543.4989 C40H63- 1 543.4935 9.84
  543.5317 C34H71O4- 1 543.5358 -7.54
  543.633 C33H83O4- 2 543.6297 6.07
  544.069 C39H12O4- 1 544.0741 -9.34
  544.2305 C40H32O2- 1 544.2408 -18.81
  544.2855 C41H36O- 2 544.2772 15.28
  544.3512 C36H48O4- 1 544.3558 -8.38
  544.4091 C41H52- 1 544.4075 3.03
  544.4468 C35H60O4- 1 544.4497 -5.42
  545.0185 C41H5O3- 1 545.0244 -10.85
  545.0582 C42H9O2- 1 545.0608 -4.78
  545.1844 C42H25O- 2 545.1911 -12.34
  545.4047 C37H53O3- 2 545.4 8.51
  545.5008 C36H65O3- 2 545.4939 12.53
  545.5919 C35H77O3- 2 545.5878 7.45
  545.6802 C34H89O3- 1 545.6817 -2.87
  546.0984 C43H14O- 2 546.105 -12.1
  546.3575 C39H46O2- 1 546.3503 13.12
  546.429 C41H54- 1 546.4231 10.75
  546.4774 C39H62O- 2 546.4806 -5.94
  546.5319 C37H70O2- 1 546.5381 -11.34
  546.5851 C35H78O3- 2 546.5956 -19.31
  547.4039 C40H51O- 2 547.3945 17.07
  547.5152 C36H67O3- 2 547.5096 10.28
  548.3511 C42H44- 1 548.3448 11.44
  548.4386 C41H56- 1 548.4388 -0.21
  549.2101 C38H29O4- 2 549.2071 5.41
  549.3142 C41H41O- 2 549.3163 -3.8
  549.5261 C36H69O3- 1 549.5252 1.53
  550.3785 C39H50O2- 1 550.3816 -5.72
  550.4435 C37H58O3- 2 550.4391 7.98
  551.1823 C44H23- 1 551.1805 3.18
  551.3559 C38H47O3- 2 551.3531 5.05
  552.1136 C42H16O2- 1 552.1156 -3.62
  552.9975 C42HO3- 2 552.9931 7.93
  553.3133 C40H41O2- 1 553.3112 3.78
  553.4781 C41H61- 1 553.4779 0.38
  553.6187 C34H81O4- 2 553.614 8.49
  553.6555 C35H85O3- 2 553.6504 9.16
  554.2008 C44H26- 2 554.204 -5.85
  554.2384 C38H34O4- 2 554.2463 -14.12
  554.2753 C39H38O3- 2 554.2826 -13.28
  554.5135 C38H66O2- 1 554.5068 11.99
  554.5877 C37H78O2- 1 554.6007 -23.46
  555.1179 C45H15- 1 555.1179 -0.06
  555.3295 C40H43O2- 1 555.3269 4.75
  555.5947 C40H75- 2 555.5874 13.04
  556.0154 C42H4O3- 1 556.0166 -2.21
  556.1819 C43H24O- 1 556.1833 -2.41
  556.2486 C41H32O2- 2 556.2408 14.13
  556.3227 C40H44O2- 1 556.3347 -21.48
  556.3823 C38H52O3- 2 556.3922 -17.71
  556.5551 C39H72O- 2 556.5589 -6.8
  557.121 C41H17O3- 2 557.1183 4.86
  557.2888 C42H37O- 1 557.285 6.84
  557.395 C38H53O3- 1 557.4 -8.96
  557.4973 C37H65O3- 2 557.4939 6.05
  557.5394 C38H69O2- 2 557.5303 16.33
  557.61 C40H77- 1 557.6031 12.36
  558.0178 C45H2O- 1 558.0111 12.05
  558.3732 C37H50O4- 2 558.3715 3.14
  558.6353 C37H82O2- 1 558.632 5.87
  558.9926 C41H3O4- 1 559.0037 -19.87
  559.3573 C40H47O2- 1 559.3582 -1.5
  559.541 C38H71O2- 1 559.546 -8.85
  559.6661 C34H87O4- 2 559.661 9.2
  560.0078 C41H4O4- 1 560.0115 -6.65
  560.1355 C41H20O3- 1 560.1418 -11.17
  560.3346 C39H44O3- 2 560.3296 8.96
  560.3991 C41H52O- 2 560.4024 -5.88
  561.0563 C42H9O3- 1 561.0557 1.12
  561.1375 C44H17O- 2 561.1285 15.99
  561.1679 C45H21- 1 561.1649 5.35
  561.3692 C40H49O2- 1 561.3738 -8.21
  561.6295 C40H81- 2 561.6344 -8.71
  561.7003 C38H89O- 1 561.6919 14.92
  562.0299 C41H6O4- 2 562.0272 4.83
  562.6585 C37H86O2- 1 562.6633 -8.57
  563.0029 C44H3O2- 1 563.0139 -19.51
  563.3 C41H39O2- 1 563.2956 7.98
  564.1708 C41H24O3- 1 564.1731 -4.02
  564.3863 C40H52O2- 1 564.3973 -19.4
  564.4384 C41H56O- 1 564.4337 8.36
  564.4983 C39H64O2- 2 564.4912 12.58
  565.0068 C47H- 2 565.0084 -2.76
  565.1552 C44H21O- 2 565.1598 -8.06
  565.4303 C37H57O4- 2 565.4262 7.24
  565.4739 C42H61- 2 565.4779 -7.11
  565.6361 C39H81O- 1 565.6293 12.12
  565.9924 C43H2O3- 1 566.0009 -15.04
  566.1876 C41H26O3- 1 566.1887 -1.95
  566.5499 C40H70O- 1 566.5432 11.8
  566.5857 C41H74- 1 566.5796 10.76
  567.3844 C39H51O3- 1 567.3844 0.02
  567.4175 C40H55O2- 1 567.4208 -5.74
  567.467 C41H59O- 2 567.4571 17.45
  567.5305 C36H71O4- 1 567.5358 -9.3
  567.6472 C39H83O- 1 567.6449 4.01
  568.0359 C47H4- 1 568.0318 7.06
  568.1211 C46H16- 2 568.1257 -8.15
  568.1855 C44H24O- 1 568.1833 3.88
  568.2293 C42H32O2- 1 568.2408 -20.25
  568.3857 C39H52O3- 1 568.3922 -11.47
  568.4778 C38H64O3- 2 568.4861 -14.53
  568.6475 C39H84O- 2 568.6528 -9.24
  568.6896 C40H88- 1 568.6892 0.76
  569.0303 C43H5O3- 2 569.0244 10.26
  569.3631 C38H49O4- 1 569.3636 -0.9
  569.4281 C40H57O2- 1 569.4364 -14.54
  569.4953 C38H65O3- 2 569.4939 2.44
  569.6612 C39H85O- 1 569.6606 1
  570.1085 C45H14O- 1 570.105 6.2
  570.2687 C39H38O4- 2 570.2776 -15.59
  571.0094 C42H3O4- 2 571.0037 9.99
  571.4023 C42H51O- 2 571.3945 13.61
  572.0886 C44H12O2- 1 572.0843 7.63
  572.412 C42H52O- 2 572.4024 16.8
  572.5038 C41H64O- 2 572.4963 13.23
  573.3184 C43H41O- 1 573.3163 3.67
  573.4242 C39H57O3- 2 573.4313 -12.38
  574.1576 C42H22O3- 1 574.1574 0.34
  574.2518 C41H34O3- 1 574.2513 0.75
  574.2954 C42H38O2- 2 574.2877 13.34
  574.4123 C42H54O- 2 574.418 -10.02
  574.493 C37H66O4- 1 574.4967 -6.34
  574.634 C37H82O3- 2 574.6269 12.25
  575.0585 C46H7O- 2 575.0502 14.35
  575.5735 C39H75O2- 1 575.5773 -6.54
  575.6573 C41H83- 2 575.65 12.57
  576.0742 C43H12O3- 1 576.0792 -8.75
  576.1539 C45H20O- 1 576.152 3.3
  576.2143 C43H28O2- 1 576.2095 8.44
  576.4688 C43H60- 2 576.4701 -2.22
  577.1079 C47H13- 1 577.1023 9.73
  577.6672 C41H85- 1 577.6657 2.56
  578.0159 C48H2- 1 578.0162 -0.46
  578.0991 C43H14O3- 2 578.0948 7.45
  578.179 C42H26O3- 2 578.1887 -16.85
  579.0307 C48H3- 2 579.024 11.6
  579.15 C41H23O4- 2 579.1602 -17.54
  579.6203 C36H83O4- 2 579.6297 -16.21
  580.1304 C47H16- 1 580.1257 7.96
  580.1776 C45H24O- 2 580.1833 -9.77
  580.5181 C40H68O2- 1 580.5225 -7.47
  580.6513 C40H84O- 2 580.6528 -2.5
  581.246 C43H33O2- 1 581.2486 -4.42
  582.0589 C45H10O2- 1 582.0686 -16.64
  582.4723 C38H62O4- 2 582.4654 11.92
  583.0226 C47H3O- 1 583.0189 6.32
  583.2036 C45H27O- 2 583.2067 -5.46
  583.2787 C40H39O4- 2 583.2854 -11.37
  583.3685 C42H47O2- 2 583.3582 17.7
  583.5672 C37H75O4- 1 583.5671 0.13
  584.1245 C46H16O- 1 584.1207 6.57
  584.4601 C41H60O2- 1 584.4599 0.43
  584.6153 C38H80O3- 2 584.6113 6.93
  584.6772 C40H88O- 2 584.6841 -11.8
  585.2081 C41H29O4- 2 585.2071 1.58
  585.2735 C43H37O2- 1 585.2799 -10.98
  585.5834 C37H77O4- 2 585.5827 1.2
  586.0438 C47H6O- 1 586.0424 2.44
  586.094 C45H14O2- 1 586.0999 -10.14
  586.2603 C46H34- 2 586.2666 -10.72
  586.4021 C39H54O4- 1 586.4028 -1.14
  586.5053 C42H66O- 2 586.5119 -11.31
  587.0172 C46H3O2- 1 587.0139 5.71
  587.408 C39H55O4- 1 587.4106 -4.38
  587.5291 C42H67O- 2 587.5197 15.92
  587.683 C39H87O2- 1 587.6712 20.09
  588.2949 C43H40O2- 1 588.3034 -14.33
  588.3758 C45H48- 1 588.3762 -0.53
  588.4854 C41H64O2- 1 588.4912 -9.86
  588.5626 C43H72- 2 588.564 -2.31
  588.6566 C42H84- 2 588.6579 -2.19
  590.1399 C45H18O2- 2 590.1312 14.75
  590.199 C47H26- 2 590.204 -8.45
  590.4197 C42H54O2- 2 590.4129 11.4
  590.6239 C37H82O4- 2 590.6219 3.47
  591.1162 C48H15- 2 591.1179 -2.96
  591.1892 C43H27O3- 2 591.1966 -12.5
  591.6141 C40H79O2- 1 591.6086 9.39
  592.1156 C44H16O3- 2 592.1105 8.65
  592.2095 C43H28O3- 2 592.2044 8.57
  592.3111 C46H40- 2 592.3135 -4.07
  592.3854 C41H52O3- 2 592.3922 -11.54
  592.4685 C43H60O- 1 592.465 5.95
  592.6501 C41H84O- 2 592.6528 -4.53
  593.2014 C46H25O- 2 593.1911 17.39
  593.3387 C43H45O2- 1 593.3425 -6.45
  593.5217 C41H69O2- 1 593.5303 -14.52
  594.2646 C44H34O2- 2 594.2564 13.79
  594.334 C46H42- 1 594.3292 8.06
  594.4009 C41H54O3- 2 594.4078 -11.6
  595.1922 C42H27O4- 2 595.1915 1.16
  595.2442 C47H31- 1 595.2431 1.73
  595.6313 C40H83O2- 1 595.6399 -14.41
  596.4164 C41H56O3- 2 596.4235 -11.97
  596.5431 C41H72O2- 1 596.5538 -17.86
  596.6298 C43H80- 1 596.6266 5.51
  596.9968 C47HO2- 1 596.9982 -2.31
  597.3209 C45H41O- 1 597.3163 7.73
  597.4852 C39H65O4- 1 597.4888 -6.08
  597.6127 C39H81O3- 2 597.6191 -10.68
  597.6819 C37H89O4- 2 597.6766 8.82
  598.0606 C45H10O3- 1 598.0635 -4.89
  598.1444 C47H18O- 2 598.1363 13.51
  598.2282 C46H30O- 2 598.2302 -3.31
  598.3338 C45H42O- 2 598.3241 16.17
  598.4659 C42H62O2- 1 598.4755 -16.07
  598.5439 C44H70- 2 598.5483 -7.35
  599.0342 C44H7O4- 1 599.035 -1.37
  599.1773 C48H23- 2 599.1805 -5.33
  599.4543 C41H59O3- 2 599.447 12.28
  599.657 C43H83- 2 599.65 11.7
  600.1281 C43H20O4- 2 600.1367 -14.27
  600.3543 C42H48O3- 2 600.3609 -10.91
  600.5087 C39H68O4- 1 600.5123 -6.05
  600.5873 C41H76O2- 1 600.5851 3.64
  601.1809 C44H25O3- 1 601.1809 0.03
  601.4137 C43H53O2- 2 601.4051 14.34
  602.2436 C42H34O4- 1 602.2463 -4.36
  602.5614 C40H74O3- 1 602.5643 -4.92
  603.3623 C45H47O- 2 603.3632 -1.63
  603.6418 C42H83O- 2 603.6449 -5.21
  604.0194 C46H4O3- 2 604.0166 4.67
  604.3784 C45H48O- 2 604.3711 12.06
  604.6952 C43H88- 1 604.6892 10.06
  605.4671 C44H61O- 2 605.4728 -9.42
  605.6159 C41H81O2- 1 605.6242 -13.73
  606.0122 C49H2O- 1 606.0111 1.72
  606.0717 C47H10O2- 1 606.0686 5.13
  606.1329 C45H18O3- 2 606.1261 11.13
  606.2292 C48H30- 2 606.2353 -10.04
  606.4571 C40H62O4- 2 606.4654 -13.57
  606.6066 C44H78- 2 606.6109 -7.17
  606.6288 C41H82O2- 1 606.632 -5.33
  607.2428 C48H31- 2 607.2431 -0.58
  607.5222 C45H67- 2 607.5248 -4.39
  607.628 C41H83O2- 1 607.6399 -19.44
  608.1113 C44H16O4- 2 608.1054 9.71
  608.1477 C45H20O3- 2 608.1418 9.65
  608.4585 C43H60O2- 1 608.4599 -2.29
  608.5005 C44H64O- 1 608.4963 7.01
  608.6737 C38H88O4- 2 608.6688 7.98
  609.0381 C49H5O- 1 609.0346 5.76
  609.4759 C43H61O2- 2 609.4677 13.5
  609.5356 C45H69- 2 609.5405 -7.93
  609.6492 C41H85O2- 1 609.6555 -10.28
  610.4673 C43H62O2- 1 610.4755 -13.44
  610.6275 C40H82O3- 2 610.6269 0.85
  611.1769 C49H23- 2 611.1805 -5.86
  611.2241 C43H31O4- 2 611.2228 2.2
  612.1628 C45H24O3- 2 612.1731 -16.82
  612.3446 C46H44O- 1 612.3398 7.84
  612.4069 C44H52O2- 2 612.3973 15.68
  612.4803 C43H64O2- 1 612.4912 -17.8
  613.0625 C49H9O- 2 613.0659 -5.48
  613.1749 C45H25O3- 2 613.1809 -9.79
  613.2376 C43H33O4- 1 613.2384 -1.29
  613.2968 C48H37- 2 613.2901 10.99
  613.5801 C42H77O2- 1 613.5929 -20.92
  614.0138 C51H2- 2 614.0162 -3.96
  614.2385 C43H34O4- 2 614.2463 -12.64
  614.5036 C43H66O2- 1 614.5068 -5.18
  615.0327 C48H7O2- 1 615.0452 -20.29
  615.1318 C47H19O2- 1 615.1391 -11.86
  615.4618 C45H59O- 1 615.4571 7.55
  616.1427 C47H20O2- 1 616.1469 -6.81
  616.4524 C41H60O4- 2 616.4497 4.33
  616.4819 C42H64O3- 1 616.4861 -6.72
  616.6632 C43H84O- 2 616.6528 16.88
  617.0428 C51H5- 1 617.0397 5.01
  617.3279 C48H41- 2 617.3214 10.57
  618.4242 C47H54- 1 618.4231 1.71
  618.5092 C42H66O3- 2 618.5017 12.09
  618.5782 C44H74O- 1 618.5745 5.97
  618.6441 C39H86O4- 2 618.6532 -14.6
  619.0082 C46H3O4- 2 619.0037 7.28
  619.2485 C49H31- 1 619.2431 8.68
  619.2934 C47H39O- 2 619.3006 -11.62
  619.563 C40H75O4- 1 619.5671 -6.57
  620.3613 C45H48O2- 1 620.366 -7.53
  621.0324 C50H5O- 2 621.0346 -3.48
  621.1008 C48H13O2- 2 621.0921 14.08
  621.1698 C50H21- 1 621.1649 7.93
  621.2498 C45H33O3- 2 621.2435 10.15
  621.3218 C47H41O- 1 621.3163 8.92
  621.4224 C43H57O3- 2 621.4313 -14.42
  621.4868 C41H65O4- 1 621.4888 -3.2
  622.2942 C46H38O2- 2 622.2877 10.4
  622.3487 C44H46O3- 2 622.3452 5.59
  623.0449 C50H7O- 2 623.0502 -8.5
  623.5524 C46H71- 2 623.5561 -6
  623.6686 C42H87O2- 1 623.6712 -4.17
  623.9912 C48O3- 2 623.9853 9.4
  624.1519 C49H20O- 2 624.152 -0.17
  624.4531 C43H60O3- 1 624.4548 -2.72
  624.6469 C41H84O3- 2 624.6426 6.94
  624.6822 C42H88O2- 1 624.679 5.2
  625.0557 C46H9O4- 2 625.0506 8.16
  625.2299 C44H33O4- 2 625.2384 -13.69
  625.3564 C47H45O- 2 625.3476 14.01
  625.4254 C42H57O4- 1 625.4262 -1.32
  626.0042 C48H2O3- 2 626.0009 5.2
  626.3237 C46H42O2- 1 626.319 7.38
  627.0545 C49H7O2- 2 627.0452 14.87
  627.2539 C44H35O4- 2 627.2541 -0.25
  627.2982 C49H39- 2 627.3057 -12.02
  627.5045 C44H67O2- 1 627.5147 -16.25
  628.0122 C48H4O3- 1 628.0166 -7.06
  628.063 C49H8O2- 2 628.053 15.91
  628.4191 C45H56O2- 1 628.4286 -15.13
  628.5638 C45H72O- 1 628.5589 7.89
  629.2373 C47H33O2- 1 629.2486 -18.04
  629.3734 C47H49O- 2 629.3789 -8.7
  629.4243 C45H57O2- 1 629.4364 -19.21
  629.6144 C43H81O2- 1 629.6242 -15.53
  630.2741 C44H38O4- 1 630.2776 -5.48
  630.5555 C41H74O4- 1 630.5593 -5.96
  630.6586 C40H86O4- 2 630.6532 8.7
  631.064 C49H11O2- 1 631.0765 -19.8
  631.5803 C45H75O- 2 631.5823 -3.23
  632.1121 C46H16O4- 2 632.1054 10.53
  632.243 C46H32O3- 2 632.2357 11.51
  632.4718 C42H64O4- 2 632.481 -14.49
  632.5249 C43H68O3- 2 632.5174 11.86
  632.5961 C45H76O- 2 632.5902 9.44
  633.2269 C49H29O- 1 633.2224 7.08
  633.3154 C48H41O- 2 633.3163 -1.39
  633.3922 C43H53O4- 1 633.3949 -4.32
  634.0798 C52H10- 1 634.0788 1.64
  634.481 C45H62O2- 2 634.4755 8.66
  634.545 C47H70- 2 634.5483 -5.21
  634.6466 C46H82- 1 634.6422 6.91
  635.1393 C50H19O- 2 635.1441 -7.66
  635.5745 C44H75O2- 1 635.5773 -4.39
  636.1172 C49H16O2- 1 636.1156 2.54
  637.0447 C47H9O4- 2 637.0506 -9.37
  637.1004 C52H13- 2 637.1023 -2.91
  637.2025 C51H25- 2 637.1962 9.85
  637.245 C45H33O4- 2 637.2384 10.38
  637.4562 C44H61O3- 2 637.4626 -10.09
  637.9892 C49H2O3- 1 638.0009 -18.39
  638.0582 C47H10O4- 2 638.0585 -0.45
  638.1349 C49H18O2- 1 638.1312 5.83
  638.2524 C45H34O4- 2 638.2463 9.59
  638.2904 C50H38- 2 638.2979 -11.72
  638.4324 C43H58O4- 1 638.4341 -2.6
  638.5618 C43H74O3- 1 638.5643 -3.96
  638.9961 C49H3O3- 1 639.0088 -19.9
  639.1263 C49H19O2- 1 639.1391 -19.92
  639.3607 C48H47O- 2 639.3632 -4.01
  639.5657 C43H75O3- 2 639.5722 -10.1
  639.6453 C45H83O- 2 639.6449 0.54
  640.0941 C51H12O- 1 640.0894 7.41
  640.2951 C46H40O3- 1 640.2983 -4.97
  640.3285 C47H44O2- 1 640.3347 -9.59
  640.3808 C48H48O- 2 640.3711 15.25
  640.4364 C46H56O2- 2 640.4286 12.21
  640.5295 C45H68O2- 2 640.5225 10.93
  641.198 C50H25O- 2 641.1911 10.71
  641.249 C48H33O2- 1 641.2486 0.55
  641.3051 C46H41O3- 1 641.3061 -1.59
  641.4981 C44H65O3- 2 641.4939 6.49
  641.557 C42H73O4- 2 641.5514 8.68
  641.6657 C45H85O- 2 641.6606 8.01
  642.3084 C46H42O3- 2 642.3139 -8.58
  642.4548 C43H62O4- 2 642.4654 -16.4
  642.5061 C44H66O3- 2 642.5017 6.84
  642.6412 C44H82O2- 2 642.632 14.3
  643.1635 C49H23O2- 1 643.1704 -10.66
  643.2345 C47H31O3- 2 643.2279 10.27
  643.2835 C45H39O4- 1 643.2854 -2.91
  643.4191 C45H55O3- 2 643.4157 5.28
  644.0252 C52H4O- 2 644.0268 -2.44
  644.0721 C50H12O2- 1 644.0843 -18.89
  644.2745 C48H36O2- 1 644.2721 3.79
  644.4668 C46H60O2- 2 644.4599 10.81
  644.9983 C51HO2- 1 644.9982 0.19
  645.0755 C53H9- 1 645.071 7.07
  645.2286 C50H29O- 2 645.2224 9.69
  645.514 C47H65O- 2 645.5041 15.28
  646.0665 C49H10O3- 2 646.0635 4.64
  646.1984 C49H26O2- 1 646.1938 7.01
  646.2791 C48H38O2- 1 646.2877 -13.28
  646.4196 C48H54O- 1 646.418 2.44
  646.5325 C44H70O3- 2 646.533 -0.91
  646.6639 C44H86O2- 1 646.6633 0.89
  647.0201 C51H3O2- 2 647.0139 9.66
  647.1331 C47H19O4- 2 647.1289 6.48
  647.2895 C48H39O2- 1 647.2956 -9.32
  647.4227 C48H55O- 2 647.4258 -4.92
  647.5825 C45H75O2- 2 647.5773 8.11
  648.3156 C45H44O4- 2 648.3245 -13.72
  648.4559 C45H60O3- 2 648.4548 1.65
  648.5928 C45H76O2- 2 648.5851 11.9
  649.0023 C54H- 2 649.0084 -9.29
  649.0865 C49H13O3- 2 649.087 -0.83
  649.3368 C45H45O4- 2 649.3323 6.9
  650.2687 C50H34O- 2 650.2615 11.02
  650.4217 C47H54O2- 2 650.4129 13.53
  650.661 C43H86O3- 2 650.6582 4.21
  651.1534 C47H23O4- 2 651.1602 -10.37
  651.1963 C48H27O3- 2 651.1966 -0.44
  651.5677 C44H75O3- 1 651.5722 -6.88
  652.6121 C45H80O2- 1 652.6164 -6.62
  653.0734 C48H13O4- 2 653.0819 -13.06
  653.2735 C46H37O4- 2 653.2697 5.81
  654.1457 C53H18- 1 654.1414 6.58
  654.3013 C50H38O- 2 654.2928 12.94
  654.3372 C48H46O2- 1 654.3503 -20.08
  655.2207 C48H31O3- 2 655.2279 -10.91
  655.3861 C45H51O4- 2 655.3793 10.33
  655.5353 C46H71O2- 1 655.546 -16.28
  655.6346 C45H83O2- 1 655.6399 -8.01
  655.9959 C52O2- 2 655.9904 8.41
  656.0679 C54H8- 2 656.0631 7.21
  656.1957 C47H28O4- 1 656.1993 -5.51
  656.2668 C49H36O2- 1 656.2721 -8
  656.4042 C49H52O- 1 656.4024 2.73
  657.4106 C49H53O- 2 657.4102 0.69
  657.6282 C48H81- 2 657.6344 -9.33
  658.2477 C48H34O3- 1 658.2513 -5.55
  658.4429 C46H58O3- 2 658.4391 5.75
  659.2508 C48H35O3- 2 659.2592 -12.66
  659.6027 C43H79O4- 2 659.5984 6.62
  659.6315 C44H83O3- 1 659.6348 -4.95
  660.3081 C49H40O2- 2 660.3034 7.12
  660.4684 C50H60- 2 660.4701 -2.57
  660.5631 C49H72- 2 660.564 -1.25
  660.676 C45H88O2- 1 660.679 -4.53
  661.1059 C54H13- 1 661.1023 5.49
  661.2194 C50H29O2- 1 661.2173 3.23
  661.3476 C50H45O- 2 661.3476 0.04
  661.5779 C49H73- 2 661.5718 9.26
  662.0638 C49H10O4- 2 662.0585 8.14
  662.1063 C54H14- 2 662.1101 -5.71
  662.3791 C47H50O3- 2 662.3765 3.84
  663.1405 C51H19O2- 1 663.1391 2.23
  663.2905 C48H39O3- 2 663.2905 0.01
  663.4656 C49H59O- 2 663.4571 12.69
  663.5859 C49H75- 2 663.5874 -2.26
  663.6462 C47H83O- 2 663.6449 1.89
  664.295 C48H40O3- 1 664.2983 -4.94
  664.3619 C46H48O4- 2 664.3558 9.12
  664.4353 C48H56O2- 2 664.4286 10.18
  664.6611 C47H84O- 2 664.6528 12.59
  665.1122 C50H17O3- 2 665.1183 -9.2
  665.2524 C50H33O2- 1 665.2486 5.67
  665.301 C48H41O3- 2 665.3061 -7.75
  665.4254 C48H57O2- 1 665.4364 -16.53
  666.1424 C54H18- 2 666.1414 1.51
  666.3855 C50H50O- 2 666.3867 -1.87
  666.4286 C51H54- 2 666.4231 8.19
  666.6607 C43H86O4- 2 666.6532 11.25
  667.0144 C54H3O- 2 667.0189 -6.76
  667.1809 C51H23O2- 2 667.1704 15.75
  667.271 C50H35O2- 2 667.2643 10.1
  667.4135 C47H55O3- 1 667.4157 -3.22
  667.4654 C45H63O4- 2 667.4732 -11.68
  667.5845 C48H75O- 1 667.5823 3.2
  668.1241 C53H16O- 1 668.1207 5.08
  668.226 C49H32O3- 2 668.2357 -14.48
  668.3297 C48H44O3- 2 668.3296 0.2
  669.0029 C53HO2- 2 668.9982 7.01
  669.0772 C55H9- 2 669.071 9.28
  669.1498 C50H21O3- 2 669.1496 0.29
  669.501 C49H65O- 2 669.5041 -4.62
  669.5436 C50H69- 1 669.5405 4.65
  669.6138 C45H81O3- 2 669.6191 -7.94
  670.269 C53H34- 1 670.2666 3.64
  670.5805 C44H78O4- 2 670.5906 -14.95
  670.6594 C46H86O2- 1 670.6633 -5.83
  671.5582 C50H71- 1 671.5561 3.1
  672.2605 C49H36O3- 2 672.267 -9.73
  672.313 C50H40O2- 2 672.3034 14.36
  672.6616 C49H84- 1 672.6579 5.53
  673.1177 C52H17O2- 1 673.1234 -8.41
  673.3741 C48H49O3- 2 673.3687 7.92
  673.4224 C46H57O4- 1 673.4262 -5.73
  673.496 C48H65O2- 1 673.499 -4.41
  673.6128 C44H81O4- 2 673.614 -1.84
  674.0131 C56H2- 2 674.0162 -4.58
  675.0913 C54H11O- 2 675.0815 14.5
  675.3367 C50H43O2- 2 675.3269 14.65
  675.4307 C49H55O2- 2 675.4208 14.72
  675.6502 C48H83O- 2 675.6449 7.75
  676.0254 C56H4- 2 676.0318 -9.6
  676.2749 C52H36O- 2 676.2772 -3.38
  676.3326 C50H44O2- 1 676.3347 -3.03
  676.6816 C49H88- 2 676.6892 -11.1
  677.3614 C47H49O4- 1 677.3636 -3.36
  677.9835 C51H2O4- 1 677.9959 -18.22
  678.1147 C54H14O- 2 678.105 14.34
  678.1742 C49H26O4- 2 678.1837 -13.98
  678.4054 C48H54O3- 1 678.4078 -3.58
  678.5108 C51H66- 2 678.517 -9.15
  678.6812 C48H86O- 1 678.6684 18.81
  679.0656 C53H11O2- 1 679.0765 -15.96
  679.2056 C53H27O- 2 679.2067 -1.63
  679.5598 C45H75O4- 2 679.5671 -10.65
  680.1677 C52H24O2- 1 680.1782 -15.37
  680.2336 C50H32O3- 1 680.2357 -3.05
  680.2643 C51H36O2- 1 680.2721 -11.37
  680.3737 C50H48O2- 2 680.366 11.28
  680.424 C48H56O3- 2 680.4235 0.79
  680.511 C47H68O3- 2 680.5174 -9.35
  680.5738 C45H76O4- 2 680.5749 -1.57
  681.2306 C53H29O- 2 681.2224 12
  681.3343 C49H45O3- 1 681.3374 -4.54
  681.5713 C48H73O2- 2 681.5616 14.21
  681.6737 C44H89O4- 1 681.6766 -4.29
  682.1924 C52H26O2- 1 682.1938 -2.11
  682.447 C52H58- 2 682.4544 -10.84
  682.5814 C45H78O4- 2 682.5906 -13.39
  683.5453 C47H71O3- 2 683.5409 6.46
  684.5751 C48H76O2- 1 684.5851 -14.6
  684.9869 C53HO3- 1 684.9931 -9.04
  685.0785 C52H13O3- 2 685.087 -12.47
  685.1525 C54H21O- 2 685.1598 -10.57
  685.4198 C47H57O4- 2 685.4262 -9.35
  687.1536 C50H23O4- 2 687.1602 -9.53
  687.3653 C52H47O- 1 687.3632 3.04
  689.0091 C56HO- 2 689.0033 8.4
  689.0577 C54H9O2- 1 689.0608 -4.55
  689.1764 C50H25O4- 2 689.1758 0.8
  689.5567 C46H73O4- 2 689.5514 7.58
  690.2963 C53H38O- 1 690.2928 5.02
  690.4886 C51H62O- 2 690.4806 11.63
  690.5313 C49H70O2- 1 690.5381 -9.93
  690.9884 C52H3O4- 1 691.0037 -22.12
  691.3213 C50H43O3- 2 691.3218 -0.72
  692.391 C48H52O4- 2 692.3871 5.69
  693.0279 C56H5O- 2 693.0346 -9.7
  693.3031 C49H41O4- 2 693.301 2.98
  694.3102 C49H42O4- 2 694.3089 1.9
  694.4273 C52H54O- 2 694.418 13.36
  694.5006 C47H66O4- 2 694.4967 5.62
  695.0496 C56H7O- 2 695.0502 -0.99
  695.4259 C52H55O- 2 695.4258 0.12
  695.5715 C49H75O2- 1 695.5773 -8.33
  695.6105 C50H79O- 2 695.6136 -4.46
  695.9839 C54O3- 2 695.9853 -2.06
  696.3535 C50H48O3- 2 696.3609 -10.65
  696.4098 C48H56O4- 2 696.4184 -12.32
  697.0023 C58H- 2 697.0084 -8.74
  697.6145 C46H81O4- 2 697.614 0.65
  698.4745 C49H62O3- 2 698.4704 5.8
  699.1151 C57H15- 2 699.1179 -3.97
  699.2293 C53H31O2- 1 699.233 -5.22
  699.6632 C47H87O3- 1 699.6661 -4.05
  700.0063 C54H4O3- 2 700.0166 -14.65
  700.092 C56H12O- 1 700.0894 3.77
  700.1874 C55H24O- 2 700.1833 5.97
  700.3108 C55H40- 2 700.3135 -3.93
  700.5849 C48H76O3- 2 700.58 7.01
  701.072 C52H13O4- 2 701.0819 -14.2
  701.419 C54H53- 2 701.4153 5.28
  701.4687 C52H61O- 2 701.4728 -5.86
  701.6361 C46H85O4- 2 701.6453 -13.18
  702.0492 C58H6- 2 702.0475 2.47
  702.1958 C55H26O- 2 702.1989 -4.37
  702.4616 C48H62O4- 2 702.4654 -5.42
  702.5424 C50H70O2- 2 702.5381 6.04
  703.0541 C58H7- 2 703.0553 -1.74
  703.2728 C53H35O2- 2 703.2643 12.18
  704.4984 C52H64O- 2 704.4963 3.01
  704.5533 C50H72O2- 1 704.5538 -0.7
  705.0044 C56HO2- 2 704.9982 8.78
  705.2533 C56H33- 2 705.2588 -7.76
  705.3749 C52H49O2- 1 705.3738 1.61
  706.5313 C49H70O3- 2 706.533 -2.48
  706.582 C47H78O4- 2 706.5906 -12.1
  706.9987 C56H3O2- 1 707.0139 -21.41
  707.1113 C55H15O2- 2 707.1078 5.03
  708.0252 C56H4O2- 2 708.0217 4.91
  708.1503 C56H20O- 2 708.152 -2.35
  708.1954 C57H24- 2 708.1883 9.92
  708.309 C53H40O2- 2 708.3034 7.99
  708.45 C50H60O3- 2 708.4548 -6.82
  708.541 C49H72O3- 2 708.5487 -10.83
  708.6755 C49H88O2- 1 708.679 -4.88
  709.0485 C53H9O4- 2 709.0506 -2.97
  709.3508 C54H45O- 1 709.3476 4.5
  709.4469 C53H57O- 2 709.4415 7.58
  709.6389 C51H81O- 2 709.6293 13.48
  709.6857 C49H89O2- 1 709.6868 -1.5
  710.111 C58H14- 2 710.1101 1.31
  710.2278 C54H30O2- 1 710.2251 3.76
  710.3399 C50H46O4- 2 710.3402 -0.36
  710.6711 C52H86- 2 710.6735 -3.41
  711.1018 C54H15O3- 2 711.1027 -1.25
  711.1948 C53H27O3- 2 711.1966 -2.53
  711.2573 C51H35O4- 2 711.2541 4.5
  711.646 C51H83O- 2 711.6449 1.43
  712.1158 C54H16O3- 2 712.1105 7.5
  712.1576 C52H24O4- 2 712.168 -14.6
  712.2273 C57H28- 2 712.2196 10.78
  712.3127 C56H40- 2 712.3135 -1.26
  712.4445 C49H60O4- 2 712.4497 -7.25
  712.5866 C49H76O3- 2 712.58 9.31
  713.2852 C55H37O- 2 713.285 0.27
  713.3801 C54H49O- 2 713.3789 1.65
  714.03 C55H6O3- 2 714.0322 -3.12
  714.0759 C56H10O2- 2 714.0686 10.21
  714.2294 C57H30- 2 714.2353 -8.26
  714.4825 C53H62O- 2 714.4806 2.67
  715.188 C52H27O4- 2 715.1915 -4.81
  715.2351 C53H31O3- 2 715.2279 10.13
  715.4325 C55H55- 2 715.4309 2.17
  715.4677 C49H63O4- 2 715.4732 -7.7
  715.5446 C51H71O2- 1 715.546 -1.94
  716.2593 C54H36O2- 1 716.2721 -17.78
  716.4399 C55H56- 2 716.4388 1.57
  717.2269 C56H29O- 2 717.2224 6.29
  717.3674 C53H49O2- 1 717.3738 -8.97
  717.6617 C50H85O2- 2 717.6555 8.64
  718.295 C54H38O2- 2 718.2877 10.1
  718.678 C50H86O2- 1 718.6633 20.45
  719.0372 C54H7O4- 2 719.035 3.04
  719.1623 C54H23O3- 1 719.1653 -4.17
  719.2313 C56H31O- 2 719.238 -9.4
  719.2802 C57H35- 2 719.2744 8.09
  719.5517 C54H71- 2 719.5561 -6.14
  719.9823 C56O3- 1 719.9853 -4.22
  720.2118 C55H28O2- 1 720.2095 3.17
  720.2591 C53H36O3- 2 720.267 -11.02
  720.4219 C50H56O4- 2 720.4184 4.78
  720.6014 C48H80O4- 2 720.6062 -6.67
  721.1245 C56H17O2- 1 721.1234 1.47
  721.1694 C57H21O- 2 721.1598 13.28
  721.2146 C55H29O2- 1 721.2173 -3.78
  721.2756 C53H37O3- 2 721.2748 1.09
  721.3857 C56H49- 2 721.384 2.39
  721.5139 C49H69O4- 2 721.5201 -8.59
  722.2379 C52H34O4- 2 722.2463 -11.52
  722.4427 C54H58O- 2 722.4493 -9.09
  722.5089 C52H66O2- 1 722.5068 2.91
  722.6134 C48H82O4- 2 722.6219 -11.65
  722.6676 C53H86- 2 722.6735 -8.16
  723.1276 C56H19O2- 1 723.1391 -15.84
  723.2352 C55H31O2- 1 723.233 3.06
  723.3704 C55H47O- 2 723.3632 9.87
  723.635 C48H83O4- 2 723.6297 7.36
  723.6812 C53H87- 2 723.6813 -0.22
  724.0546 C57H8O2- 1 724.053 2.18
  724.136 C56H20O2- 1 724.1469 -15.09
  724.1838 C57H24O- 2 724.1833 0.78
  725.0369 C56H5O3- 1 725.0244 17.16
  725.4948 C51H65O3- 2 725.4939 1.2
  726.0861 C54H14O4- 2 726.0898 -4.97
  726.2808 C52H38O4- 2 726.2776 4.5
  727.2944 C56H39O- 2 727.3006 -8.65
  727.9836 C58O2- 1 727.9904 -9.25
  728.1286 C58H16O- 2 728.1207 10.95
  728.3828 C51H52O4- 2 728.3871 -5.89
  728.6137 C50H80O3- 2 728.6113 3.32
  729.2431 C54H33O3- 2 729.2435 -0.55
  729.281 C55H37O2- 1 729.2799 1.45
  729.6872 C52H89O- 2 729.6919 -6.39
  730.2664 C58H34- 2 730.2666 -0.29
  730.3784 C54H50O2- 1 730.3816 -4.47
  730.4993 C50H66O4- 2 730.4967 3.61
  731.1864 C59H23- 2 731.1805 8.05
  731.5574 C55H71- 2 731.5561 1.72
  731.6211 C53H79O- 2 731.6136 10.13
  731.6684 C51H87O2- 1 731.6712 -3.72
  732.4889 C53H64O2- 1 732.4912 -3.09
  732.5232 C54H68O- 2 732.5276 -5.9
  732.5739 C52H76O2- 1 732.5851 -15.24
  733.0096 C57HO3- 1 732.9931 22.54
  733.0676 C59H9O- 2 733.0659 2.29
  733.2055 C56H29O2- 1 733.2173 -16.06
  733.4064 C54H53O2- 1 733.4051 1.72
  733.5365 C54H69O- 2 733.5354 1.53
  734.0681 C59H10O- 2 734.0737 -7.62
  734.2339 C56H30O2- 2 734.2251 11.92
  734.2926 C58H38- 2 734.2979 -7.26
  734.3561 C56H46O- 2 734.3554 0.94
  734.5742 C55H74- 2 734.5796 -7.39
  734.6205 C49H82O4- 2 734.6219 -1.92
  735.0171 C57H3O3- 1 735.0088 11.27
  735.5417 C50H71O4- 2 735.5358 8.09
  736.1177 C56H16O3- 1 736.1105 9.79
  736.2044 C55H28O3- 2 736.2044 0.06
  736.665 C50H88O3- 2 736.6739 -12.02
  737.0167 C57H5O3- 1 737.0244 -10.53
  737.2046 C55H29O3- 2 737.2122 -10.4
  738.0696 C58H10O2- 1 738.0686 1.31
  738.4005 C53H54O3- 2 738.4078 -9.97
  738.5398 C53H70O2- 1 738.5381 2.23
  738.5928 C51H78O3- 3 738.5956 -3.84
  739.0423 C57H7O3- 1 739.0401 3.04
  739.0785 C58H11O2- 1 739.0765 2.81
  739.2108 C58H27O- 2 739.2067 5.51
  739.5393 C53H71O2- 1 739.546 -9.02
  739.5854 C54H75O- 3 739.5823 4.13
  739.693 C53H87O- 1 739.6762 22.59
  739.9968 C59O2- 2 739.9904 8.63
  740.2708 C56H36O2- 1 740.2721 -1.68
  740.3322 C54H44O3- 2 740.3296 3.45
  740.4372 C57H56- 2 740.4388 -2.09
  740.5191 C52H68O3- 2 740.5174 2.25
  741.0001 C59HO2- 1 740.9982 2.53
  741.0432 C57H9O3- 1 741.0557 -16.89
  741.5636 C53H73O2- 1 741.5616 2.74
  742.5835 C50H78O4- 2 742.5906 -9.48
  742.6803 C52H86O2- 1 742.6633 22.85
  743.2588 C55H35O3- 2 743.2592 -0.5
  743.4655 C57H59- 3 743.4622 4.34
  743.5632 C56H71- 2 743.5561 9.58
  744.2381 C54H32O4- 2 744.2306 10.08
  744.4031 C55H52O2- 2 744.3973 7.82
  745.2684 C55H37O3- 2 745.2748 -8.65
  745.3557 C57H45O- 2 745.3476 10.92
  745.5497 C52H73O3- 2 745.5565 -9.17
  745.625 C54H81O- 2 745.6293 -5.7
  745.6597 C55H85- 2 745.6657 -8.04
  746.5587 C52H74O3- 2 746.5643 -7.51
  747.507 C54H67O2- 1 747.5147 -10.23
  747.9859 C57O4- 1 747.9802 7.64
  748.2613 C54H36O4- 2 748.2619 -0.8
  748.612 C53H80O2- 1 748.6164 -5.87
  749.0062 C57HO4- 2 748.988 24.24
  749.079 C56H13O4- 2 749.0819 -3.93
  749.375 C57H49O- 2 749.3789 -5.19
  749.5727 C55H73O- 2 749.5667 8.03
  750.0165 C58H6O3- 1 750.0322 -20.99
  750.2635 C57H34O2- 2 750.2564 9.38
  750.5247 C57H66- 2 750.517 10.3
  750.6096 C56H78- 2 750.6109 -1.67
  751.1243 C57H19O3- 1 751.134 -12.87
  752.2227 C59H28O- 2 752.2146 10.81
  752.6739 C50H88O4- 2 752.6688 6.8
  753.1981 C55H29O4- 2 753.2071 -11.99
  753.3145 C58H41O- 2 753.3163 -2.4
  753.4796 C52H65O4- 2 753.4888 -12.2
  753.562 C54H73O2- 1 753.5616 0.52
  754.2902 C57H38O2- 2 754.2877 3.32
  754.3397 C55H46O3- 2 754.3452 -7.34
  755.074 C58H11O3- 1 755.0714 3.5
  755.4483 C54H59O3- 2 755.447 1.78
  755.5176 C56H67O- 2 755.5197 -2.78
  756.2888 C57H40O2- 1 756.3034 -19.3
  756.3679 C55H48O3- 2 756.3609 9.24
  757.108 C59H17O2- 1 757.1234 -20.29
  757.1919 C57H25O3- 1 757.1809 14.49
  757.3082 C57H41O2- 1 757.3112 -4.01
  757.5222 C52H69O4- 2 757.5201 2.77
  757.6071 C51H81O4- 2 757.614 -9.15
  758.0063 C59H2O3- 1 758.0009 7.08
  758.3652 C58H46O- 2 758.3554 12.95
  759.3402 C54H47O4- 2 759.348 -10.27
  760.4179 C56H56O2- 1 760.4286 -14
  760.4584 C57H60O- 2 760.465 -8.57
  761.0015 C58HO4- 1 760.988 17.67
  761.2495 C58H33O2- 1 761.2486 1.21
  761.5572 C52H73O4- 2 761.5514 7.51
  761.6454 C51H85O4- 2 761.6453 0.06
  762.3388 C57H46O2- 1 762.3503 -15.15
  762.464 C53H62O4- 2 762.4654 -1.83
  762.5705 C56H74O- 2 762.5745 -5.2
  763.2448 C57H31O3- 1 763.2279 22.13
  763.3902 C58H51O- 2 763.3945 -5.72
  764.5338 C58H68- 2 764.5327 1.51
  765.11 C57H17O4- 1 765.1132 -4.18
  765.2183 C56H29O4- 1 765.2071 14.64
  765.374 C57H49O2- 1 765.3738 0.2
  765.6436 C54H85O2- 1 765.6555 -15.57
  766.5602 C55H74O2- 1 766.5694 -12.03
  767.0342 C58H7O4- 1 767.035 -0.96
  768.1189 C57H20O4- 1 768.1367 -23.22
  768.5089 C53H68O4- 3 768.5123 -4.48
  768.548 C54H72O3- 2 768.5487 -0.93
  769.3129 C58H41O2- 1 769.3112 2.2
  769.4894 C56H65O2- 1 769.499 -12.55
  769.5623 C54H73O3- 2 769.5565 7.56
  770.4568 C58H58O- 2 770.4493 9.78
  770.581 C58H74- 2 770.5796 1.8
  771.1849 C58H27O3- 1 771.1966 -15.13
  771.2703 C56H35O4- 1 771.2541 21.09
  771.5742 C54H75O3- 2 771.5722 2.66
  771.6691 C53H87O3- 2 771.6661 3.9
  773.0637 C58H13O4- 1 773.0819 -23.6
  773.3335 C58H45O2- 1 773.3425 -11.62
  773.3985 C56H53O3- 1 773.4 -1.97
  773.449 C54H61O4- 2 773.4575 -10.99
  773.6405 C52H85O4- 2 773.6453 -6.19
  773.6919 C57H89- 2 773.697 -6.54
  774.3912 C59H50O- 2 774.3867 5.83
  774.4676 C54H62O4- 2 774.4654 2.91
  774.636 C55H82O2- 2 774.632 5.11
  775.3134 C57H43O3- 1 775.3218 -10.76
  775.3784 C55H51O4- 2 775.3793 -1.13
  775.4717 C54H63O4- 2 775.4732 -1.95
  775.5517 C56H71O2- 2 775.546 7.39
  776.2848 C56H40O4- 2 776.2932 -10.87
  776.378 C55H52O4- 2 776.3871 -11.72
  776.6843 C56H88O- 2 776.6841 0.29
  777.4297 C56H57O3- 1 777.4313 -2.14
  777.5332 C59H69- 2 777.5405 -9.33
  778.1959 C57H30O4- 1 778.215 -24.49
  778.4347 C56H58O3- 2 778.4391 -5.69
  779.1488 C59H23O3- 1 779.1653 -21.11
  779.2421 C58H35O3- 2 779.2592 -21.87
  779.3089 C56H43O4- 2 779.3167 -9.93
  780.0551 C59H8O4- 1 780.0428 15.73
  780.2283 C57H32O4- 1 780.2306 -2.92
  780.4167 C55H56O4- 3 780.4184 -2.13
  780.5752 C56H76O2- 1 780.5851 -12.6
  781.1631 C59H25O3- 2 781.1809 -22.76
  781.3462 C56H45O4- 1 781.3323 17.69
  781.4887 C57H65O2- 1 781.499 -13.16
  781.6191 C53H81O4- 2 781.614 6.54
  782.5309 C54H70O4- 2 782.528 3.78
  782.5789 C59H74- 2 782.5796 -0.89
  782.6332 C57H82O- 2 782.6371 -5.04
  783.2064 C59H27O3- 1 783.1966 12.53
  783.3801 C57H51O3- 1 783.3844 -5.47
  783.6349 C53H83O4- 2 783.6297 6.7
  784.3044 C58H40O3- 1 784.2983 7.79
  784.5524 C58H72O- 2 784.5589 -8.26
  785.3473 C59H45O2- 2 785.3425 6.12
  787.5647 C54H75O4- 3 787.5671 -3.05
  787.6874 C57H87O- 1 787.6762 14.22
  788.2311 C59H32O3- 1 788.2357 -5.81
  788.2797 C57H40O4- 1 788.2932 -17.18
  788.5293 C56H68O3- 1 788.5174 15.11
  789.2584 C59H33O3- 1 789.2435 18.82
  789.5343 C56H69O3- 1 789.5252 11.48
  790.1961 C58H30O4- 1 790.215 -23.91
  790.3749 C59H50O2- 1 790.3816 -8.53
  790.605 C58H78O- 2 790.6058 -0.99
  791.2317 C58H31O4- 1 791.2228 11.28
  791.3707 C58H47O3- 2 791.3531 22.25
  791.5336 C56H71O3- 2 791.5409 -9.2
  793.1619 C59H21O4- 1 793.1445 21.9
  793.5873 C57H77O2- 1 793.5929 -7.13
  794.3989 C59H54O2- 1 794.4129 -17.68
  794.4661 C57H62O3- 1 794.4704 -5.42
  794.5723 C56H74O3- 1 794.5643 9.96
  795.2588 C58H35O4- 1 795.2541 5.95
  795.6152 C57H79O2- 2 795.6086 8.33
  796.1492 C59H24O4- 1 796.168 -23.62
  796.2678 C58H36O4- 1 796.2619 7.38
  796.3149 C59H40O3- 1 796.2983 20.86
  797.1837 C59H25O4- 1 797.1758 9.9
  797.6157 C57H81O2- 1 797.6242 -10.64
  797.685 C55H89O3- 2 797.6817 4.07
  798.2008 C59H26O4- 1 798.1837 21.53
  798.2727 C58H38O4- 1 798.2776 -6.09
  798.5233 C58H70O2- 1 798.5381 -18.54
  798.6227 C57H82O2- 1 798.632 -11.66
  799.327 C59H43O3- 1 799.3218 6.49
  799.4528 C59H59O2- 1 799.4521 0.9
  799.5764 C59H75O- 2 799.5823 -7.43
  800.2156 C59H28O4- 1 800.1993 20.36
  800.3362 C59H44O3- 1 800.3296 8.29
  800.4057 C58H56O3- 2 800.4235 -22.27
  800.5521 C58H72O2- 1 800.5538 -2.09
  801.1912 C59H29O4- 1 801.2071 -19.86
  801.2861 C58H41O4- 1 801.301 -18.65
  801.6387 C57H85O2- 2 801.6555 -20.92
  804.4414 C58H60O3- 1 804.4548 -16.69
  804.6608 C57H88O2- 2 804.679 -22.54
  805.3562 C59H49O3- 1 805.3687 -15.6
  805.4211 C57H57O4- 1 805.4262 -6.35
  805.5131 C56H69O4- 2 805.5201 -8.78
  806.2574 C59H34O4- 1 806.2463 13.82
  806.3345 C58H46O4- 1 806.3402 -7.06
  806.6324 C59H82O- 2 806.6371 -5.79
  807.6232 C55H83O4- 2 807.6297 -8.01
  808.3391 C58H48O4- 1 808.3558 -20.7
  809.4564 C57H61O4- 1 809.4575 -1.36
  809.4856 C58H65O3- 1 809.4939 -10.34
  810.2786 C59H38O4- 1 810.2776 1.27
  810.5382 C59H70O2- 1 810.5381 0.13
  811.4086 C59H55O3- 1 811.4157 -8.76
  811.524 C58H67O3- 1 811.5096 17.76
  812.3995 C58H52O4- 1 812.3871 15.28
  812.5198 C58H68O3- 1 812.5174 2.93
  812.6974 C59H88O- 1 812.6841 16.46
  813.3955 C58H53O4- 1 813.3949 0.66
  814.3282 C59H42O4- 1 814.3089 23.77
  814.4376 C59H58O3- 1 814.4391 -1.95
  814.4952 C57H66O4- 1 814.4967 -1.78
  814.6172 C57H82O3- 1 814.6269 -12
  815.4455 C59H59O3- 1 815.447 -1.81
  816.3049 C59H44O4- 1 816.3245 -24.02
  816.6028 C56H80O4- 2 816.6062 -4.15
  817.4717 C59H61O3- 1 817.4626 11.13
  819.5583 C58H75O3- 1 819.5722 -16.91
  819.6372 C56H83O4- 1 819.6297 9.13
  820.5727 C58H76O3- 1 820.58 -8.85
  820.63 C56H84O4- 2 820.6375 -9.13
  821.3713 C59H49O4- 1 821.3636 9.27
  821.6179 C59H81O2- 1 821.6242 -7.65
  822.3531 C59H50O4- 1 822.3715 -22.3
  822.5894 C58H78O3- 1 822.5956 -7.62
  824.5067 C59H68O3- 1 824.5174 -12.93
  825.4807 C58H65O4- 1 825.4888 -9.91
  825.5238 C59H69O3- 1 825.5252 -1.69
  825.6444 C59H85O2- 1 825.6555 -13.47
  826.5227 C59H70O3- 1 826.533 -12.54
  826.583 C57H78O4- 1 826.5906 -9.17
  827.6809 C59H87O2- 1 827.6712 11.77
  828.6226 C57H80O4- 2 828.6062 19.77
  829.5719 C59H73O3- 1 829.5565 18.53
  829.6428 C58H85O3- 1 829.6504 -9.19
  830.6744 C58H86O3- 1 830.6582 19.49
  832.6342 C57H84O4- 1 832.6375 -3.97
  833.6637 C58H89O3- 2 833.6817 -21.63
  835.6806 C57H87O4- 1 835.661 23.48
  836.5665 C58H76O4- 1 836.5749 -10.11
  836.6283 C59H80O3- 1 836.6113 20.38
  836.6859 C57H88O4- 1 836.6688 20.46
  837.6095 C59H81O3- 1 837.6191 -11.52
  839.6162 C58H79O4- 2 839.5984 21.19
  842.5481 C59H70O4- 1 842.528 23.88
  843.5259 C59H71O4- 1 843.5358 -11.73
  845.5454 C59H73O4- 1 845.5514 -7.11
  847.5724 C59H75O4- 1 847.5671 6.24
  851.593 C59H79O4- 1 851.5984 -6.34
  861.6793 C59H89O4- 1 861.6766 3.13
PK$NUM_PEAK: 2678
PK$PEAK: m/z int. rel.int.
  70.0986 26.2 101
  71.0853 13 50
  71.3673 20 77
  72.0214 12 46
  72.2828 15 57
  74.074 14.3 55
  75.1404 14 54
  76.0534 14 54
  77.2857 15 57
  78.0314 15.4 59
  78.128 14.9 57
  78.3859 15 57
  79.0205 13 50
  79.1721 14.9 57
  79.2062 20 77
  81.1129 14 54
  81.5388 12 46
  82.0259 17.8 68
  82.5493 16.7 64
  83.1439 19.6 75
  84.2819 16 61
  85.2184 13.2 50
  86.0959 13 50
  86.1331 17.8 68
  86.1673 13 50
  86.4853 22 84
  87.4218 20.9 80
  87.4921 16.7 64
  88.1251 25 96
  88.221 15.1 58
  89.2101 13 50
  89.5654 13 50
  90.124 16.1 62
  91.2642 18 69
  91.3003 16.5 63
  91.3948 14 54
  92.0466 12.1 46
  92.3083 17.1 66
  92.404 18.8 72
  93.0937 18 69
  93.2587 16.9 65
  93.3521 15.8 60
  93.4679 14 54
  94.0273 18.3 70
  94.098 14 54
  94.1362 14.6 56
  94.2646 16.9 65
  94.42 14 54
  96.1902 13 50
  96.3374 15 57
  96.3616 15.8 60
  97.1422 13 50
  98.1517 16 61
  98.3186 21.5 82
  99.0671 15 57
  99.1015 17.7 68
  100.072 16 61
  100.1687 19.6 75
  100.2042 14 54
  100.2777 14 54
  100.3148 16.7 64
  100.4669 16 61
  101.5657 14 54
  102.1642 16 61
  103.3215 14.3 55
  103.3363 14.9 57
  103.3971 17 65
  103.4182 15.4 59
  104.0245 12 46
  104.2381 12.1 46
  104.2525 15.5 59
  104.3452 17.8 68
  104.4587 15.8 60
  105.1295 14.6 56
  105.2795 17.7 68
  106.2509 18 69
  106.4176 18.8 72
  107.352 15.1 58
  108.0445 17.1 66
  108.2094 13 50
  108.2807 19.6 75
  108.4329 17 65
  108.6562 14 54
  109.1978 14.6 56
  109.5929 14.3 55
  110.2616 15 57
  111.1052 14 54
  111.1376 16.1 62
  111.2896 12 46
  111.3472 19.6 75
  111.3871 12.1 46
  112.0155 18.9 73
  112.033 16 61
  112.1255 15 57
  113.3782 12 46
  113.9986 14 54
  114.1969 14 54
  114.3162 17.1 66
  114.386 14.6 56
  114.6105 16.2 62
  115.0022 16 61
  115.1928 20 77
  115.288 17.1 66
  115.3574 14 54
  115.3965 12 46
  115.4499 17.7 68
  115.487 19.6 75
  116.2521 17.1 66
  116.2915 13.1 50
  116.3464 19.3 74
  117.5995 14 54
  118.1209 19.3 74
  118.1381 15.8 60
  118.2861 13.2 50
  118.4008 15 57
  119.071 14 54
  119.225 15.4 59
  119.3164 14.3 55
  119.4278 16.7 64
  119.5203 18.5 71
  119.9876 13 50
  120.6819 19.1 73
  121.2202 18.9 73
  121.2357 13 50
  121.4038 20 77
  121.5727 15.8 60
  123.3629 18.8 72
  123.6096 15.1 58
  123.6464 22.8 88
  124.112 13.2 50
  124.169 17 65
  124.265 14.3 55
  124.358 16 61
  125.2297 16.7 64
  125.3983 16.7 64
  125.5087 14 54
  126.2917 22.4 86
  127.0978 15.1 58
  128.0854 14 54
  128.1409 15.4 59
  128.2339 19.1 73
  128.3456 14.4 55
  128.4933 12 46
  128.53 17.1 66
  129.3138 16 61
  129.3557 17.7 68
  130.0617 18 69
  130.212 15.1 58
  130.3238 18.5 71
  130.4981 15 57
  131.1077 12 46
  131.1805 17 65
  131.294 16.9 65
  131.4498 18 69
  131.5068 19.9 76
  131.5568 18.8 72
  131.5799 12.1 46
  131.6324 19.7 76
  131.9839 14 54
  132.1896 15.1 58
  132.676 15.8 60
  133.3133 14.3 55
  133.4749 14 54
  133.5373 12.4 47
  133.5533 12 46
  133.6525 15.1 58
  135.3507 16.5 63
  135.4019 16.7 64
  136.0166 13 50
  136.0726 14.9 57
  136.0924 13.5 52
  137.269 16 61
  137.3044 19.1 73
  137.6244 15.1 58
  138.2939 25 96
  138.5966 21.5 82
  139.0525 16.5 63
  139.0957 15.8 60
  139.1941 15.1 58
  139.4538 15 57
  139.6056 13.5 52
  140.1064 16.2 62
  140.3637 18 69
  141.0948 17 65
  141.5282 17 65
  142.2491 18 69
  142.4382 16.2 62
  143.0375 19 73
  143.1462 15 57
  144.1724 18.2 70
  144.5515 16.7 64
  145.2918 15 57
  145.6512 15.4 59
  146.0935 14.3 55
  146.5273 16 61
  147.9962 17.4 67
  148.5451 14.3 55
  149.1914 16 61
  149.3206 17 65
  149.3433 21.6 83
  149.5696 15 57
  149.6418 15 57
  149.9934 17.7 68
  150.0504 13 50
  150.3526 15.1 58
  151.1934 17 65
  151.4164 21 81
  151.4506 16.9 65
  152.1196 13.2 50
  152.5518 20.5 79
  154.0048 14 54
  154.0419 12 46
  154.3212 12.4 47
  154.5729 12 46
  154.6027 18 69
  155.6731 14 54
  156.1728 15.1 58
  156.4195 18.6 71
  157.1228 20 77
  157.219 21.1 81
  157.6662 16 61
  158.2849 13 50
  158.3516 13 50
  159.0452 17 65
  159.1757 14 54
  159.2565 16 61
  159.2875 17 65
  159.364 14.4 55
  159.5884 16.2 62
  159.6092 15 58
  160.0556 20.2 78
  160.2429 14 54
  160.2631 15.8 60
  161 14 54
  161.38 14 54
  161.4183 19 73
  161.5511 17.8 68
  161.5851 15.1 58
  161.6474 15 57
  162.3141 17.7 68
  163.152 17 65
  163.2033 13 50
  163.32 16.7 64
  163.5069 15 58
  164.2011 16.7 64
  164.2966 14.6 56
  164.6724 15 57
  165.0152 15 57
  165.1632 17.4 67
  165.2242 12 46
  165.4894 16 61
  165.594 13.5 52
  166.0234 17.7 68
  166.1742 16 61
  166.3272 17.2 66
  166.5118 15.8 60
  167.1785 17.2 66
  168.3422 16 61
  168.4326 17.1 66
  168.4661 15 57
  168.552 14 54
  169.6167 13.2 51
  170.1069 18.6 71
  170.3208 14 54
  170.487 15 57
  170.6728 18 69
  171.2512 17.4 67
  171.3955 20 77
  171.5862 18.6 71
  172.1509 14.9 57
  172.1705 18.5 71
  172.2779 14 54
  172.3532 17.4 67
  173.1526 15.8 60
  173.2463 16 61
  173.4533 19.8 76
  173.5095 15 57
  173.6443 14.9 57
  174.0713 15 57
  174.2524 17 65
  174.4787 15 57
  174.633 13 50
  175.0163 19.6 75
  175.1377 18 69
  175.2267 15.1 58
  176.1604 15 57
  176.3126 16.1 62
  176.5937 19 73
  177.2415 18 69
  177.2555 16.7 64
  177.3023 14.3 55
  177.5866 18.2 70
  178.2836 16 61
  178.4798 12 46
  178.6022 14 54
  178.6249 16.7 64
  179.1849 16.7 64
  179.2959 12.1 46
  180.091 13 50
  180.5479 21.4 82
  181.1274 16.7 64
  181.6108 17.8 68
  182.0962 16.2 62
  182.1278 16.7 64
  182.4141 15 57
  183.0467 14.9 57
  183.1927 14 54
  183.3064 13.1 50
  183.439 17.4 67
  184.4061 15 57
  184.4541 14.3 55
  185.0044 15 58
  185.1937 15 57
  185.4602 14.1 54
  185.4918 18 69
  185.5994 15 57
  185.697 17.2 66
  186.1233 13.2 50
  186.1839 13.2 50
  186.6688 18.9 73
  187.036 18.3 70
  187.5251 15 57
  188.1597 13 50
  188.2965 14 54
  188.4236 17.1 66
  189.152 47.1 181
  189.2233 17.1 66
  189.4062 15.1 58
  189.4317 19 73
  189.4708 17 65
  189.6362 15.4 59
  189.657 12.4 47
  189.6748 13.2 51
  190.5481 14 54
  190.5943 16.3 63
  191.3179 16.7 64
  192.0551 14 54
  192.2323 13 50
  192.4325 16 61
  192.4567 18 69
  193.0503 14 54
  193.2395 13 50
  193.5321 16.3 63
  193.629 17 65
  194.2663 13 50
  194.3148 12 46
  195.0285 15 57
  195.1623 13.2 50
  195.236 14.6 56
  195.2569 17.4 67
  195.2923 13.2 50
  195.3851 18.5 71
  195.6687 17 65
  196.3109 13.2 50
  196.395 14.3 55
  196.6544 14.3 55
  197.2855 14 54
  197.3963 14 54
  197.569 23.6 90
  197.661 13.2 50
  197.6998 19 73
  198.089 17.4 67
  198.2558 15 57
  199.1357 17.7 68
  199.3407 15.1 58
  200.1048 16 61
  200.2038 17 65
  200.2329 17 65
  200.2758 17.4 67
  200.3083 12.4 47
  201.094 18.9 73
  201.3416 15.1 58
  202.0306 15.8 60
  202.2523 12 46
  202.3092 13.2 50
  203.3135 14 54
  203.5206 16 61
  203.5538 14 54
  204.0788 18 69
  204.2496 14.9 57
  204.4186 17.1 66
  204.4534 14.3 55
  204.5279 17.1 66
  204.5477 16.3 63
  204.6434 16 61
  205.1788 14 54
  205.3353 16.9 65
  206.1565 15 57
  206.4474 14.9 57
  206.6589 20.5 79
  207.2734 19 73
  207.4431 13 50
  208.021 18.9 73
  208.1728 16 61
  208.215 14.9 57
  208.6522 21 81
  209.1566 17.4 67
  209.1943 14 54
  209.2248 12 46
  209.2668 13.2 50
  209.5464 20 77
  209.5867 17 65
  209.6081 16 61
  210.072 15.4 59
  210.5069 16.2 62
  212.1469 13 50
  212.4762 23.1 89
  212.5722 13.2 50
  212.6876 26.6 102
  213.1533 12.1 46
  213.399 19.3 74
  213.5986 14 54
  213.639 16 61
  214.0626 17.8 68
  214.2298 15.4 59
  214.5009 14 54
  215.2733 16 61
  216.0166 14.1 54
  216.1783 19 73
  216.6566 14.1 54
  217.2545 13 50
  217.4217 16.7 64
  217.6684 20.5 79
  218.0616 19.2 74
  218.1084 14.9 57
  218.1847 14.9 57
  218.2042 15 57
  218.2647 17.1 66
  218.3765 22.5 86
  218.4342 19.3 74
  218.6784 17.1 65
  219.1402 17.1 66
  219.3025 18 69
  219.5919 14.6 56
  219.9987 12 46
  220.0342 13 50
  220.3133 12 46
  220.3731 16 61
  220.4508 15 57
  220.501 15 57
  221.2439 16 61
  221.2894 15.1 58
  221.3255 13 50
  221.4619 15 57
  222.0478 19.1 73
  222.4812 13 50
  223.2857 14.1 54
  223.38 13.5 52
  223.4172 14 54
  224.0297 14 54
  224.2967 14.6 56
  224.572 17 65
  224.5922 14.1 54
  224.6136 14 54
  225.3506 13 50
  225.399 18 69
  226.3972 14.4 55
  226.5661 16 61
  226.5861 15.4 59
  227.0481 13.5 52
  227.2704 19.1 73
  227.3656 16.2 62
  227.52 19.7 76
  228.0049 13 50
  228.1377 13.5 52
  228.3416 14.9 57
  228.4604 12 46
  229.069 17 65
  229.1991 16.7 64
  229.2329 16 61
  229.3634 12.4 47
  230.1581 18 69
  231.1552 17.1 66
  231.3592 15.4 59
  231.6323 14 54
  232.0198 14 54
  232.1787 14.1 54
  232.2039 13 50
  232.4827 15.8 60
  232.502 12 46
  232.5588 18 69
  232.617 20.5 79
  232.6738 17.2 66
  233.4758 16 61
  233.6221 14 54
  233.6797 13.2 50
  235.291 19 73
  235.4873 16 61
  235.5097 20 77
  236.4775 14 54
  236.5771 14 54
  236.6819 13 50
  237.0215 13.2 50
  237.2477 12 46
  237.2807 15 57
  237.4889 17.1 66
  237.5398 15 57
  237.6185 13 50
  237.6577 17.2 66
  238.2343 16.7 64
  238.4372 13.5 52
  238.6214 13 50
  239.1441 16.2 62
  239.2591 13 50
  239.4479 14.6 56
  239.5814 20.2 78
  240.0455 18.6 71
  240.4594 16.7 64
  240.5893 17.1 66
  240.6092 13 50
  241.1213 15.4 59
  241.1607 14 54
  241.2872 14 54
  241.3118 13 50
  241.503 14.9 57
  241.6657 17.1 66
  242.09 16.9 65
  242.1668 13 50
  242.4086 16.7 64
  242.4483 13 50
  243.1767 12.1 46
  244.0928 14 54
  244.6899 13.2 50
  245.3379 17 65
  245.4357 16.1 62
  245.491 13 50
  245.6443 21 81
  246.0517 18.9 73
  246.1665 19 73
  246.3313 13.5 52
  246.448 16 61
  246.5744 13.2 50
  247.1539 19.7 76
  247.4102 14 54
  247.4347 13 50
  248.5007 21.9 84
  249.0393 14 54
  249.4314 22.7 87
  249.6743 14 54
  250.1373 12 46
  250.2452 17.7 68
  250.4122 12 46
  250.4537 16.9 65
  250.5716 13 50
  251.1123 15.1 58
  251.2171 13 50
  251.556 15.8 60
  251.6718 14 54
  252.62 14.3 55
  253.0464 13.5 52
  253.1835 17.8 68
  253.406 13.2 50
  253.4315 17.4 67
  253.4762 15.4 59
  254.0069 14 54
  254.2231 14 54
  255.2861 17 65
  255.3586 12 46
  255.4776 14 54
  255.5766 19.1 73
  256.2354 14.3 55
  256.295 17.7 68
  256.4274 13 50
  256.4552 13 50
  256.4862 15.1 58
  257.0387 16.5 63
  257.2271 16.1 62
  257.5878 17.1 66
  258.1382 15.4 59
  258.4453 16.2 62
  258.5593 13.2 50
  259.0409 17.8 68
  259.3242 15.1 58
  259.3939 13 50
  260.0206 19.1 73
  260.1417 13 50
  260.3605 16.2 62
  260.436 13.5 52
  260.4641 21 81
  261.0363 14 54
  261.1286 14 54
  261.3483 15.4 59
  261.494 14 54
  261.5268 16 61
  262.0426 25.5 98
  262.3271 14 54
  262.449 15.8 60
  263.3591 18.8 72
  263.5076 17 65
  263.602 16 61
  263.6556 12 46
  264.0257 19 73
  264.1824 17 65
  264.5587 20.2 78
  264.5909 13 50
  265.3441 24 92
  265.5536 16.2 62
  265.6306 19 73
  266.1328 13.2 50
  266.2772 14 54
  266.3175 14.9 57
  266.3783 15.4 59
  266.4335 14 54
  266.6364 19.6 75
  266.6605 13 50
  267.4768 19.7 76
  267.5467 12 46
  268.2773 17 65
  268.4454 15 57
  269.0654 19.7 76
  269.3975 15.8 60
  270.2312 15.2 58
  270.2877 16 61
  271.226 12 46
  271.386 13.2 50
  271.4741 14.9 57
  271.5193 13 50
  271.6701 12.1 46
  271.9931 15.1 58
  272.155 14 54
  272.2775 13.2 51
  272.4335 13 50
  272.4781 13.2 50
  272.6802 14.3 55
  273.4332 18.9 73
  274.2365 14 54
  274.4968 15.1 58
  275.2003 14 54
  275.226 17 65
  275.4582 16.5 63
  275.5713 20 77
  275.6145 18.9 73
  276.0878 18.8 72
  276.2467 14.9 57
  276.5106 14 54
  276.5443 49.1 189
  277.0644 14.9 57
  277.1855 15 57
  277.2374 17.7 68
  277.4319 14.3 55
  278.003 12 46
  278.2012 16.9 65
  278.2409 19.6 75
  278.2882 18 69
  278.5633 15 57
  279.0518 15 57
  279.143 16.5 63
  279.364 17 65
  279.386 14.3 55
  279.4156 17.4 67
  279.6428 15.8 60
  279.9992 14.6 56
  280.093 19 73
  280.2166 13 50
  280.2966 20 77
  280.3378 21.9 84
  280.4109 13 50
  280.6387 14 54
  280.6829 14.9 57
  280.9934 19 73
  281.0287 16.5 63
  281.4615 22.6 87
  281.5351 16 61
  282.0088 14 54
  282.1047 20.9 80
  282.1954 14 54
  282.2246 16 61
  282.357 14 54
  282.6597 12 46
  282.9981 15.8 60
  283.0745 14 54
  283.1038 13 50
  283.3582 13.2 50
  284.1444 14.9 57
  284.3355 15 57
  284.6157 17.7 68
  285.1632 13.2 50
  285.45 12 46
  285.6342 16.5 63
  285.6753 13.2 50
  286.2292 13 50
  286.2913 16.1 62
  286.3505 18.6 71
  286.5328 17 65
  286.6101 13.5 52
  286.6705 12 46
  287.0118 13 50
  287.1063 15.1 58
  287.3305 15.8 60
  287.6642 14.9 57
  287.9782 13 50
  288.0993 14 54
  288.1537 14 54
  288.1853 15.4 59
  288.2421 18 69
  288.346 18 69
  288.5183 16 61
  288.5658 17.4 67
  289.0819 15 57
  289.1636 16.2 62
  289.5976 16.2 62
  289.6646 17.1 66
  290.0044 15.1 58
  290.0993 14.3 55
  290.3545 15.1 58
  290.6614 13 50
  291.1028 14.3 55
  291.1327 15 57
  291.1991 15.4 59
  291.4539 15.1 58
  291.4875 14 54
  291.5811 13 50
  291.639 14 54
  292.0457 15.4 59
  292.0827 16.5 63
  292.1174 16 61
  292.2442 17.8 68
  292.3001 14 54
  292.3663 14 54
  292.3976 15 57
  293.1007 19.8 76
  293.4675 15.1 58
  293.6053 14.3 55
  294.1286 19.9 76
  294.2241 16.9 65
  294.253 15.8 60
  294.5383 14.2 55
  294.5751 18.8 72
  295.0905 15 57
  295.1423 13 50
  295.3763 20.5 78
  295.5527 17.7 68
  295.6046 16 61
  296.0109 13 50
  296.137 14.9 57
  296.3518 15.1 58
  296.4167 13.2 51
  296.5509 14 54
  296.5804 17 65
  296.6286 14 54
  296.6638 13 50
  297.0171 12 46
  297.1191 18.9 73
  297.4967 21.1 81
  297.6959 12 46
  298.0975 15 57
  298.1352 16.9 65
  298.5135 15.4 59
  298.6284 17.1 66
  299.0541 16.9 65
  299.4298 16 61
  299.4856 12 46
  299.5375 20.2 78
  300.4361 13.5 52
  301.0094 15.8 60
  301.1484 14.9 57
  302.1872 12.1 46
  302.2461 14.1 54
  302.6537 22.4 86
  303.3881 16 61
  303.6059 12 46
  304.0527 17 65
  304.2179 12 46
  304.2656 17 65
  304.33 13 50
  304.3518 21.1 81
  304.3967 18.8 72
  304.6192 17.8 68
  305.0988 13.2 50
  305.2146 17 65
  305.3834 17.8 68
  305.4316 15.4 59
  306.0344 16.1 62
  306.3551 16.5 63
  306.4518 13 50
  306.5108 18 69
  307.0336 12.1 46
  307.3188 17.8 68
  307.5092 13 50
  308.1171 18.1 69
  308.3686 15.4 59
  308.4175 15.8 60
  308.4786 15 57
  308.6171 19 73
  308.679 16 61
  309.0193 20.8 80
  309.1307 13.2 50
  309.2869 18.2 70
  309.4742 16 61
  309.5772 16.7 64
  309.6262 12 46
  310.086 16 61
  310.3463 17 65
  310.3968 15.4 59
  310.4415 13 50
  310.5514 14 54
  310.5883 14 54
  311.0413 15.1 58
  311.1742 17.8 68
  311.3944 13.5 52
  311.4613 16 61
  311.4846 13.2 51
  311.5182 16.5 63
  311.6549 14 54
  312.2318 14 54
  312.4047 16.2 62
  312.5116 12 46
  312.5682 14.3 55
  313.1653 14.9 57
  313.2706 14 54
  313.3416 14.9 57
  313.4048 12 46
  314.0618 15 57
  314.1705 18.2 70
  314.2095 13.5 52
  314.3172 17.7 68
  314.5379 12 46
  314.599 17.8 68
  315.0053 20.6 79
  315.0495 13 50
  315.1111 17.1 66
  315.5516 16 61
  315.5889 15 57
  315.6777 20.5 79
  316.2114 16.9 65
  316.5923 18.6 71
  317.2913 14 54
  317.3779 21.6 83
  317.6462 17.2 66
  318.1663 13 50
  318.2054 18 69
  318.2799 17 65
  318.3531 14.3 55
  318.5517 16 61
  319.0022 12.4 47
  319.0725 14.6 56
  319.2569 21.9 84
  319.3524 14.4 55
  319.5628 12 46
  319.9939 15 57
  320.0645 14.1 54
  320.4054 20.1 77
  320.5782 16 61
  321.0974 20 77
  321.1722 12.4 47
  321.6271 13 50
  322.2835 12 46
  322.3739 20.6 79
  322.5769 16 61
  322.6377 17 65
  322.6702 21.4 82
  323.1052 21.2 81
  323.3844 15.5 59
  323.4285 19.3 74
  323.4809 22 84
  324.2314 12 46
  324.4602 14 54
  325.146 16.1 62
  325.2522 19 73
  325.6627 14 54
  326.2634 16.1 62
  326.6595 12 46
  327.0128 13.5 52
  327.0397 16.6 64
  327.3429 19 73
  327.6813 15 57
  328.378 13 50
  328.5542 14 54
  329.2448 16 61
  329.279 14 54
  329.5572 15.1 58
  329.6459 16 61
  330.0908 17.1 66
  330.5519 14.9 57
  330.6311 14 54
  331.1029 12 46
  331.1846 15.1 58
  331.3085 13.2 50
  331.4295 16 61
  331.6405 13 50
  332.2334 20 77
  332.3119 12 46
  332.4737 15 57
  332.5559 14 54
  332.598 21.7 83
  332.6777 12 46
  333.0765 18 69
  333.6689 13 50
  334.0125 18.2 70
  334.4326 14 54
  335.5483 17.7 68
  335.5779 16.9 65
  336.1546 18 69
  336.3088 19.1 73
  336.393 14 54
  336.4353 18.8 72
  336.5134 17.7 68
  337.0356 14 54
  337.0836 16 61
  337.1426 14.3 55
  337.181 19 73
  337.3114 16.5 63
  337.4264 14 54
  337.6794 18 69
  338.3366 17 65
  338.4177 14.4 55
  338.539 19.6 75
  339.0085 19 73
  339.0775 19 73
  339.1229 15.2 58
  339.3235 15 57
  339.4611 14.1 54
  339.547 14 54
  339.5879 13 50
  340.0675 15.4 59
  340.1242 15.1 58
  340.3935 15 58
  340.5957 14.3 55
  341.1002 18 69
  341.2492 17 65
  341.3273 15.1 58
  341.4156 15.4 59
  341.4567 16 61
  341.5876 12 46
  341.6221 17.7 68
  341.9926 15.8 60
  342.1574 17.7 68
  342.4009 15.4 59
  342.5114 20 77
  342.6707 15.8 60
  343.1911 17.1 66
  343.222 15.4 59
  343.3008 16.2 62
  343.4551 16 61
  344.0253 18 69
  344.0978 16.2 62
  344.3922 15 57
  344.615 17.8 68
  345.1774 14 54
  345.329 19.1 73
  346.0334 19.1 73
  346.1293 14.2 55
  346.3158 18.8 72
  346.3389 16 61
  346.4949 15 57
  346.6141 17 65
  347.0585 21.9 84
  347.3881 13 50
  347.5226 12 46
  347.6148 14 54
  348.0898 13.2 50
  348.5206 14.3 55
  348.6358 17 65
  349.0153 17.2 66
  349.1198 13.2 51
  349.1683 16.9 65
  349.2622 15 57
  349.337 17 65
  349.5377 13.1 50
  349.6627 16 61
  350.208 14.6 56
  350.383 13 50
  350.4856 18.9 73
  350.5664 14 54
  350.6328 16.9 65
  351.2049 16.1 62
  351.5901 13 50
  352.0761 18 69
  352.1739 15.1 58
  353.1921 14.3 55
  353.3958 17.4 67
  353.6191 18.8 72
  354.2705 13.2 50
  354.3489 17.1 66
  354.5442 17.1 66
  355.1282 15.4 59
  355.2562 14.9 57
  355.3432 14.9 57
  355.3952 20.1 77
  355.9831 12 46
  356.1072 17.1 66
  356.4325 18 69
  356.5353 16 61
  357.028 13 50
  357.0481 14 54
  357.1817 16 61
  357.2955 14.3 55
  357.3219 13 50
  357.3561 15.4 59
  357.6372 14 54
  359.2252 17 65
  359.4478 14.9 57
  359.4798 14 54
  359.5136 13.5 52
  359.5599 14 54
  359.6318 15.1 58
  360.0153 15.4 59
  360.0642 17.7 68
  360.2658 14.9 57
  360.2944 16 61
  360.39 12 46
  360.4941 18 69
  361.2662 18.5 71
  361.4806 14 54
  361.5319 15.1 58
  361.5972 19.3 74
  361.6576 14 54
  362.0336 15.4 59
  362.2977 18.6 71
  362.474 17.1 65
  362.5596 17.4 67
  362.6417 15.1 58
  363.1805 18.6 71
  363.3192 15.8 60
  363.4824 13.5 52
  363.5953 13 50
  364.0129 12 46
  364.142 15.8 60
  364.2244 16 61
  364.3504 18 69
  364.4068 16 61
  364.458 14.9 57
  364.6075 15 57
  365.5462 13 50
  366.1548 14.9 57
  366.9946 14.1 54
  367.3612 18 69
  367.45 14 54
  367.6178 14.6 56
  367.6439 13 50
  368.0631 17.1 65
  368.2156 12.4 47
  368.269 29 111
  368.3036 16 61
  368.3869 14 54
  368.4612 15 57
  368.6199 17.1 65
  369.1354 18 69
  369.2132 17.7 68
  370.2274 14.1 54
  370.389 15.4 59
  370.4876 16 61
  371.2981 13 50
  371.5514 17 65
  371.639 17.4 67
  372.2497 17.8 68
  372.3576 17.7 68
  372.4708 14 54
  372.6288 14 54
  372.6697 17 65
  373.0338 16.5 63
  373.1368 14 54
  373.1646 17.1 66
  373.239 14 54
  373.3464 17.2 66
  373.55 12.4 47
  374.0015 15.1 58
  374.454 18 69
  375.4328 17 65
  376.0542 13.5 52
  377.081 14 54
  377.4493 12 46
  378.0452 13.2 50
  378.4972 19.3 74
  379.0897 15.2 58
  379.2344 14.3 55
  379.4488 14.3 55
  379.6083 17 65
  380.1821 12 46
  380.2329 17 65
  380.2696 17 65
  380.5836 14 54
  381.2127 20 77
  381.2536 18 69
  381.6743 18 69
  382.1032 17.6 68
  382.1702 13 50
  382.2357 14.9 57
  382.3437 14 54
  383.1139 17.1 66
  383.2239 20 77
  383.3669 20 77
  383.4663 16 61
  383.5405 13 50
  383.5915 17 65
  383.656 14 54
  383.9882 17.8 68
  384.0751 15.1 58
  384.1484 15.8 60
  384.218 14 54
  384.3939 17.7 68
  384.623 15.8 60
  385.3489 15 58
  385.5391 18.3 70
  386.0368 19 73
  386.1303 16 61
  386.3708 17.7 68
  386.4263 13 50
  386.5156 23 88
  387.0545 16 61
  387.2965 15.1 58
  387.4967 12 46
  387.539 13 50
  387.6082 15.5 59
  387.6399 99.9 385
  388.1562 17 65
  388.2148 15.4 59
  389.0517 13 50
  389.3456 17 65
  389.5636 19 73
  389.6162 15 57
  390.1711 13 50
  390.2032 18.2 70
  390.2518 12 46
  390.4393 17.1 66
  390.5691 14 54
  391.0303 16.2 62
  391.126 17.8 68
  391.3507 15 57
  391.4731 16 61
  392.0465 14.9 57
  392.1794 18 69
  392.395 15 57
  392.5654 21.1 81
  392.5947 12 46
  393.0603 15.1 58
  393.1885 14.3 55
  393.2313 14.9 57
  393.4277 14 54
  393.5255 15 57
  393.6577 12 46
  394.0352 13.2 50
  394.3771 15.1 58
  395.1336 17 65
  395.2769 12.1 46
  395.3467 18 69
  395.5405 22 84
  396.0698 16 61
  396.316 17 65
  396.473 15 57
  396.5918 18 69
  396.6515 18.8 72
  396.9953 12 46
  397.0652 14.9 57
  397.2307 16.9 65
  397.2704 13.5 52
  397.3039 17.1 66
  397.3516 15 57
  397.6148 14 54
  397.6482 13 50
  398.4503 18.1 69
  398.6082 17.7 68
  399.1002 20.2 77
  399.1674 14.1 54
  399.2021 13 50
  399.2873 16 61
  399.3215 21.3 82
  399.4545 17.1 66
  400.0337 16.7 64
  400.1404 14 54
  400.3365 16.9 65
  400.3854 15.8 60
  400.4993 18.2 70
  400.9804 18.5 71
  401.2636 15 57
  401.3949 18 69
  401.5211 18 69
  401.6498 23.6 91
  402.0121 15.1 58
  402.1939 14.9 57
  402.2249 12.4 47
  402.2701 20.3 78
  402.4236 13 50
  403.1789 13.2 50
  403.2407 15.4 59
  403.3495 14 54
  403.4379 15.4 59
  403.5614 16 61
  403.6389 14 54
  404.0123 16.5 63
  404.1165 24.1 92
  404.3226 16.5 63
  404.4709 13.2 50
  404.4965 16.5 63
  405.0013 15.8 60
  405.0919 16.2 62
  405.2056 20.2 78
  405.4013 14 54
  405.4521 16 61
  405.4924 18.8 72
  405.5623 18.1 69
  405.6835 13 50
  406.0454 16 61
  406.1225 12.1 46
  406.2627 18 69
  406.3869 15.1 58
  406.5702 13.2 50
  407.0858 15.8 60
  407.3091 14 54
  407.3493 15 57
  407.4244 17 65
  407.5317 14 54
  407.6501 18 69
  408.0817 14 54
  408.1768 13 50
  408.298 17.8 68
  408.3329 15.8 60
  408.4734 13.2 50
  409.1459 14 54
  409.343 13.2 50
  409.6859 18.8 72
  410.1597 19.1 73
  410.286 15.8 60
  410.3199 15.1 58
  410.4128 13.2 50
  410.5268 18 69
  410.5974 17 65
  411.1109 16 61
  411.6794 15.8 60
  412.0837 16.5 63
  412.2095 14 54
  412.2752 12 46
  412.4657 19 73
  412.6465 17.1 66
  413.0184 12 46
  413.1582 18 69
  413.2032 15 57
  413.2329 15 57
  413.3557 18 69
  413.5142 14.3 55
  413.6046 13 50
  414.2709 14 54
  414.474 18.2 70
  415.0289 16.5 63
  415.4196 13.2 50
  415.9811 17.7 68
  416.163 15 57
  416.5252 16 61
  416.6293 15.8 60
  417.1321 17.7 68
  417.2156 15.1 58
  417.2494 14 54
  417.4206 15.4 59
  417.4957 16 61
  417.5246 16.6 64
  418.4271 18 69
  418.4669 16 61
  418.5743 17 65
  418.6663 14.3 55
  419.0391 19.3 74
  419.1219 13 50
  419.2318 14 54
  419.4672 18.2 70
  421.3987 15 57
  421.4285 17.7 68
  421.9986 16 61
  422.1551 15 58
  422.3756 14.9 57
  422.4821 16 61
  422.5335 16 61
  422.5704 18 69
  422.6486 16 61
  423.1301 13 50
  423.3799 16 61
  423.9844 14 54
  424.0215 19.6 75
  424.1364 20 77
  424.2587 18 69
  424.293 14.3 55
  424.5783 14.9 57
  425.0064 16.9 65
  425.1492 15.8 60
  425.4261 20.8 80
  425.4545 14 54
  426.0299 18.2 70
  427.2364 13 50
  427.3809 14.9 57
  427.5831 13 50
  428.0684 12 46
  428.2338 13.2 50
  428.3309 13 50
  428.3789 13.5 52
  428.433 18 69
  428.5295 15 58
  429.089 13 50
  429.43 13.2 50
  430.0189 20 77
  430.1032 15 57
  430.1329 16 61
  430.1863 13.5 52
  430.4068 15.1 58
  430.5937 14 54
  430.6642 14 54
  431.1207 20.2 78
  431.158 17.7 68
  431.288 14 54
  431.3266 12 46
  431.3752 15 57
  432.0762 18 69
  432.4508 18.6 71
  432.5181 14 54
  432.5858 18.6 71
  434.0747 18.9 73
  434.1708 19.3 74
  435.1102 14 54
  435.4022 13 50
  435.5319 14 54
  435.6456 16 61
  436.145 17.4 67
  436.1726 14 54
  436.3035 17.1 66
  436.3807 14.9 57
  436.5922 15.5 59
  436.6528 16 61
  436.9801 21.6 83
  437.0718 15 58
  437.1112 15.1 58
  437.1524 14 54
  437.5055 12 46
  438.0311 14 54
  438.2817 15.1 58
  438.3957 14.3 55
  438.4871 14.3 55
  438.5107 17.7 68
  439.0894 16.2 62
  439.1441 14 54
  439.3082 13 50
  439.3945 17.8 68
  439.4196 17.2 66
  439.5731 15 57
  440.1007 16.2 62
  440.1377 15 57
  440.1898 16.5 63
  440.2953 15 57
  440.3286 14.6 56
  440.5825 15 57
  440.6947 15.4 59
  441.2293 14 54
  441.4909 12 46
  441.6981 15 57
  442.0951 19 73
  442.3364 14 54
  442.4304 13 50
  442.549 16 61
  442.6568 18.8 72
  443.2282 19.7 76
  443.3423 15.8 60
  443.5211 19.7 76
  443.6186 14 54
  444.0324 19.7 76
  444.0993 18 69
  444.2184 15.1 58
  444.3167 16.7 64
  444.3434 12 46
  444.4074 13.2 50
  444.4634 14.9 57
  444.5875 15.1 58
  446.178 15.1 58
  446.3144 14.3 55
  447.0592 18.3 70
  447.0946 14.9 57
  447.129 16 61
  447.33 13 50
  448.187 16 61
  448.306 18 69
  448.4129 15 58
  448.5462 16 61
  448.9983 20.5 79
  449.1915 14 54
  449.2725 13.2 50
  449.4224 15.1 58
  450.2036 14 54
  450.3652 14 54
  450.4871 15 57
  450.5365 14 54
  451.0791 14 54
  451.1393 184 710
  451.2153 24.3 94
  451.2408 26.4 101
  451.365 15.1 58
  451.5595 14 54
  452.309 16 61
  452.622 20 77
  453.2907 18 69
  453.5064 16 61
  454.1189 15.4 59
  454.4883 14 54
  454.6631 15 57
  455.369 17 65
  455.6301 14 54
  456.225 16 61
  456.2744 20.5 79
  456.4048 18.9 73
  456.5197 17 65
  456.6324 12 46
  457.1967 13.2 50
  457.3159 12 46
  457.4477 14.3 55
  458.3417 14.3 55
  458.3838 18 69
  458.4859 16 61
  458.5543 16.1 62
  459.2074 13 50
  459.3252 14.6 56
  459.6748 13 50
  460.1573 18 69
  460.191 15.4 59
  460.2264 13 50
  460.5527 20 77
  461.0712 13 50
  461.2582 14 54
  461.4838 13.2 50
  462.068 17 65
  462.2204 15.8 60
  462.4137 12 46
  462.6238 14.3 55
  462.9932 13.2 50
  463.4249 13 50
  463.4679 16.2 62
  463.5236 14 54
  463.9974 13 50
  464.0367 13 50
  464.0946 47.2 182
  464.1922 16 61
  464.5478 13.2 50
  464.6616 17.4 67
  466.0649 18.9 73
  466.2378 15.5 59
  466.4279 14 54
  466.6659 19.7 76
  467.1286 15.1 58
  467.3916 14 54
  467.5127 16.7 64
  467.6214 13 50
  468.2238 12 46
  468.3733 16.9 65
  468.4551 16 61
  468.6777 17.4 67
  469.0053 20 77
  469.1065 15.1 58
  469.175 15 57
  470.1131 13 50
  470.174 18 69
  470.358 14.9 57
  471.2722 17 65
  471.5569 17.7 68
  471.68 14 54
  472.0299 17.3 66
  472.1644 19.6 75
  472.3774 14.9 57
  472.4124 17.7 68
  472.5895 14 54
  472.621 16 61
  473.0446 19.1 73
  473.0938 15.8 60
  473.1444 14.6 56
  473.2162 16.3 63
  473.3507 16.2 62
  473.4883 16.5 63
  473.5482 12 46
  473.6655 13.2 50
  474.3045 14 54
  474.6616 15.8 60
  475.0019 14 54
  475.152 16.9 65
  475.1883 18 69
  475.3596 15.1 58
  475.5523 18.6 71
  476.0232 20.5 78
  476.6412 18.8 72
  477.1902 16.9 65
  477.3921 13 50
  477.5895 15.4 59
  478.0208 12 46
  478.0526 16.5 63
  478.1087 15.8 60
  478.2042 17.4 67
  478.2565 17.7 68
  478.3 12.4 47
  478.3249 18.6 71
  478.3806 16 61
  478.5167 13 50
  478.5508 14 54
  478.6041 19 73
  479.0428 15.2 58
  479.2877 14 54
  479.3554 19 73
  479.4637 18.8 72
  479.5093 21 81
  479.6653 13 50
  480.0966 16.2 62
  480.2244 17 65
  480.3735 15.4 59
  480.5892 15 57
  480.9987 17.1 66
  481.0821 13 50
  481.1637 14.3 55
  481.5091 15 57
  482.0545 14.6 56
  482.21 15.8 60
  482.4218 17.7 68
  482.5704 13 50
  483.0347 18.8 72
  483.2773 13 50
  483.3621 13 50
  483.3936 15 57
  483.4752 16 61
  484.2847 19.9 76
  484.4927 15.8 60
  484.5357 17.1 66
  484.5934 14 54
  484.6957 14.9 57
  485.035 14 54
  485.129 18.5 71
  485.4495 13 50
  485.6646 14 54
  486.0587 16 61
  486.1762 14.3 55
  486.3218 15.8 60
  487.0971 17.8 68
  488.0147 14 54
  488.1704 23 88
  488.2504 14.3 55
  489.3959 15.1 58
  489.6062 15 57
  490.009 16.2 62
  490.0556 14.1 54
  490.661 16 61
  491.0706 19 73
  491.1897 15.8 60
  491.5074 14 54
  492.038 15 57
  492.143 12 46
  492.3154 14.4 55
  492.38 16.7 64
  492.4414 19 73
  492.5425 14.3 55
  493.1508 16 61
  493.3153 16.7 64
  493.4342 17.1 66
  494.1293 14.9 57
  494.1577 19.3 74
  495.0014 14 54
  495.1964 14 54
  495.529 14 54
  495.663 12 46
  496.0641 16 61
  496.1744 19.1 73
  496.3147 15.1 58
  496.35 14 54
  496.5969 14.9 57
  497.0296 13 50
  497.2593 13 50
  497.3789 16.1 62
  497.4315 14.9 57
  497.5799 13 50
  497.6763 22 85
  498.3691 12 46
  498.5997 18 69
  499.0155 18 69
  499.081 19.7 76
  499.1269 16 61
  499.2364 15 57
  499.4166 14.3 55
  499.6218 14.3 55
  500.0377 13 50
  500.0832 17 65
  500.347 17 65
  500.5322 14.1 54
  500.6885 18 69
  501.0401 15 57
  501.2261 15 57
  501.2741 13 50
  502.2305 14.3 55
  502.3415 13 50
  502.4662 17.2 66
  502.5595 14 54
  503.1441 13 50
  503.3032 16.1 62
  503.3433 17.1 66
  503.5327 16.2 62
  503.5686 14 54
  504.1439 18.6 71
  504.3539 18 69
  504.4431 18 69
  504.5864 14 54
  504.6654 13 50
  505.2133 17.7 68
  505.2805 12 46
  506.2131 20.5 78
  506.3216 15 57
  506.3519 18 69
  506.4933 17 65
  506.5391 16 61
  507.1544 15 57
  507.2483 15.4 59
  507.4447 14.3 55
  507.6101 18.1 69
  507.9833 13 50
  508.3261 12 46
  508.37 19.1 73
  509.0943 12 46
  509.2353 14 54
  509.3449 16.7 64
  509.5534 15.1 58
  510.2181 12.4 47
  510.4281 15.1 58
  510.5889 14.2 55
  511.519 17.7 68
  511.6001 15.1 58
  512.0686 14.6 56
  512.469 15 57
  512.5078 16.9 65
  512.6083 14.3 55
  513.1013 13 50
  513.1512 13 50
  513.3223 16.5 63
  513.4289 13 50
  513.5589 19.9 76
  513.5945 14.9 57
  513.6645 14 54
  514.0269 16 61
  514.1357 12 46
  514.1717 13 50
  514.3692 13.2 50
  514.5341 17 65
  515.0239 13 50
  515.2637 15 57
  515.336 15.1 58
  515.3726 14.9 57
  515.4101 14.3 55
  515.5165 14.1 54
  515.6393 17 65
  516.1134 20.2 77
  516.2195 16.9 65
  516.2786 14 54
  516.3765 18.5 71
  517.2029 16.7 64
  517.4246 12 46
  517.9995 17.1 66
  518.0369 18.5 71
  518.092 14.9 57
  518.3133 15.8 60
  518.4195 14 54
  519.0307 18.5 71
  519.2647 15 57
  519.3656 14 54
  519.4552 19.6 75
  519.4967 16.7 64
  520.2009 13.5 52
  520.6133 14.3 55
  521.3746 16.2 62
  521.4954 17 65
  521.5614 13 50
  522.1562 12 46
  522.2256 18.8 72
  522.302 14.9 57
  522.5058 15 57
  522.5601 12 46
  522.6729 14 54
  523.0568 14 54
  523.2755 18.8 72
  523.3229 17.1 66
  523.5705 15.1 58
  524.0716 17.1 66
  524.2518 15 57
  524.3866 19.8 76
  524.4878 16.1 62
  524.5741 21.5 82
  525.0195 17.7 68
  525.1363 13 50
  525.3441 14 54
  525.5512 14 54
  525.5955 16 61
  525.995 16 61
  526.2062 15.1 58
  526.3083 15.8 60
  526.4077 19.1 73
  526.4376 15.1 58
  526.5146 19 73
  526.556 17.7 68
  527.2208 16 61
  527.3628 15.8 60
  527.5041 15.1 58
  527.5761 16 61
  527.6314 15.8 60
  528.0063 22.1 85
  528.2402 18.2 70
  528.4009 16 61
  529.021 14 54
  529.4402 16.9 65
  530.0752 14.3 55
  530.5679 20 77
  530.6221 16.2 62
  531.0342 14.4 55
  531.1412 15.4 59
  531.2287 16 61
  531.2528 15 57
  531.3758 12 46
  531.685 21 81
  532.0549 13.5 52
  532.0854 14.3 55
  532.2003 13 50
  532.4358 15.4 59
  532.5921 14 54
  532.6305 13.2 50
  532.6933 17.7 68
  533.2569 15.1 58
  533.3595 14 54
  533.4091 15 57
  533.5604 16 61
  533.5936 14.3 55
  534.1734 14 54
  534.2351 14 54
  534.3505 17.7 68
  534.4184 13 50
  534.6619 13.5 52
  535.0767 15.4 59
  535.1104 17.7 68
  535.3951 15.1 58
  535.6785 13 50
  535.9892 17.7 68
  536.5829 14.9 57
  536.6341 12.4 47
  537.0305 14 54
  537.2403 12 46
  537.3026 17 65
  537.6862 16.7 64
  538.0844 18 69
  538.2758 16.2 62
  538.4357 15.1 58
  538.4972 16 61
  538.5831 13 50
  538.6183 17.1 66
  539.0017 15.2 58
  539.1853 13 50
  539.3262 17 65
  539.5676 16.2 62
  540.3803 13 50
  540.5834 15.8 60
  540.6745 15.1 58
  541.1503 16 61
  541.1833 13.1 50
  541.2406 17.4 67
  541.3477 15.4 59
  541.5566 15.1 58
  541.5907 14 54
  541.636 17.8 68
  542.0576 17.8 68
  542.2426 15 57
  542.3866 16.9 65
  542.6198 16 61
  543.1411 13.2 50
  543.3501 18.8 72
  543.4989 17 65
  543.5317 17 65
  543.633 13 50
  544.069 15.8 60
  544.2305 16.7 64
  544.2855 15.1 58
  544.3512 15 58
  544.4091 14.1 54
  544.4468 15 58
  545.0185 16.2 62
  545.0582 12 46
  545.1844 15 57
  545.4047 22 84
  545.5008 14.3 55
  545.5919 15 57
  545.6802 15.4 59
  546.0984 15.1 58
  546.3575 17.8 68
  546.429 14.9 57
  546.4774 14 54
  546.5319 14 54
  546.5851 12.1 46
  547.4039 19 73
  547.5152 13.2 50
  548.3511 21.7 83
  548.4386 14.1 54
  549.2101 16.2 62
  549.3142 14.9 57
  549.5261 15.8 60
  550.3785 16.5 63
  550.4435 16.5 63
  551.1823 14 54
  551.3559 14.6 56
  552.1136 20 77
  552.9975 14.2 55
  553.3133 15 57
  553.4781 14.3 55
  553.6187 14.3 55
  553.6555 15 57
  554.2008 15.4 59
  554.2384 16.7 64
  554.2753 16.2 62
  554.5135 17 65
  554.5877 15 57
  555.1179 16 61
  555.3295 13 50
  555.5947 17.1 66
  556.0154 19 73
  556.1819 18.2 70
  556.2486 15.1 58
  556.3227 14 54
  556.3823 14.9 57
  556.5551 16.9 65
  557.121 15 57
  557.2888 12 46
  557.395 15.8 60
  557.4973 15.2 58
  557.5394 17.7 68
  557.61 16 61
  558.0178 15.1 58
  558.3732 14.9 57
  558.6353 19.2 74
  558.9926 17.1 66
  559.3573 16.5 63
  559.541 15.4 59
  559.6661 20.6 79
  560.0078 12 46
  560.1355 14.3 55
  560.3346 14 54
  560.3991 12.1 46
  561.0563 18.2 70
  561.1375 16.5 63
  561.1679 16 61
  561.3692 13.5 52
  561.6295 14.9 57
  561.7003 16 61
  562.0299 17.7 68
  562.6585 17 65
  563.0029 17 65
  563.3 20 77
  564.1708 15.8 60
  564.3863 16.7 64
  564.4384 18.9 73
  564.4983 15 57
  565.0068 15.2 58
  565.1552 13.2 51
  565.4303 12 46
  565.4739 12 46
  565.6361 17.1 66
  565.9924 15 57
  566.1876 16 61
  566.5499 15.1 58
  566.5857 14.3 55
  567.3844 13 50
  567.4175 13 50
  567.467 12.1 46
  567.5305 14 54
  567.6472 16.9 65
  568.0359 14 54
  568.1211 15 57
  568.1855 20.8 80
  568.2293 12 46
  568.3857 18.2 70
  568.4778 12 46
  568.6475 17 65
  568.6896 23.6 91
  569.0303 16.9 65
  569.3631 16 61
  569.4281 16 61
  569.4953 13.5 52
  569.6612 18.2 70
  570.1085 18.8 72
  570.2687 15 58
  571.0094 18.8 72
  571.4023 13.2 50
  572.0886 18.5 71
  572.412 13.2 50
  572.5038 12 46
  573.3184 13.5 52
  573.4242 19.1 73
  574.1576 15 57
  574.2518 15.4 59
  574.2954 14 54
  574.4123 16 61
  574.493 12 46
  574.634 17.1 66
  575.0585 14 54
  575.5735 15 57
  575.6573 17 65
  576.0742 16.5 63
  576.1539 13 50
  576.2143 16.9 65
  576.4688 13 50
  577.1079 19 73
  577.6672 15.8 60
  578.0159 13 50
  578.0991 15.4 59
  578.179 14 54
  579.0307 16 61
  579.15 14.9 57
  579.6203 15.4 59
  580.1304 13.2 51
  580.1776 15.8 60
  580.5181 19 73
  580.6513 12 46
  581.246 17 65
  582.0589 14 54
  582.4723 13.1 50
  583.0226 14 54
  583.2036 22.5 86
  583.2787 18.8 72
  583.3685 16 61
  583.5672 19.3 74
  584.1245 14 54
  584.4601 14.9 57
  584.6153 14.1 54
  584.6772 16.2 62
  585.2081 15.4 59
  585.2735 15.1 58
  585.5834 12 46
  586.0438 27 104
  586.094 18.8 72
  586.2603 14.2 55
  586.4021 14.1 54
  586.5053 12.1 46
  587.0172 15.4 59
  587.408 21 81
  587.5291 14 54
  587.683 14 54
  588.2949 15 58
  588.3758 16 61
  588.4854 16 61
  588.5626 20 77
  588.6566 15.1 58
  590.1399 19 73
  590.199 15 57
  590.4197 16 61
  590.6239 15.2 58
  591.1162 16 61
  591.1892 14 54
  591.6141 13 50
  592.1156 19 73
  592.2095 16 61
  592.3111 15.8 60
  592.3854 14 54
  592.4685 18 69
  592.6501 16 61
  593.2014 16.1 62
  593.3387 15 57
  593.5217 15 57
  594.2646 16 61
  594.334 14 54
  594.4009 15.8 60
  595.1922 16 61
  595.2442 12 46
  595.6313 16.9 65
  596.4164 14 54
  596.5431 19.1 73
  596.6298 21 81
  596.9968 14.9 57
  597.3209 13.5 52
  597.4852 14 54
  597.6127 13 50
  597.6819 15.1 58
  598.0606 30.1 116
  598.1444 19.8 76
  598.2282 14.1 54
  598.3338 14.6 56
  598.4659 18.2 70
  598.5439 16.5 63
  599.0342 18.4 71
  599.1773 14.9 57
  599.4543 18.8 72
  599.657 17.8 68
  600.1281 17.8 68
  600.3543 16 61
  600.5087 17.1 66
  600.5873 12.4 47
  601.1809 16.1 62
  601.4137 20.5 79
  602.2436 18.1 69
  602.5614 15.1 58
  603.3623 15 57
  603.6418 17.4 67
  604.0194 19.9 76
  604.3784 16 61
  604.6952 15.4 59
  605.4671 16 61
  605.6159 15.4 59
  606.0122 13 50
  606.0717 14 54
  606.1329 17.4 67
  606.2292 17 65
  606.4571 13 50
  606.6066 19.8 76
  606.6288 14 54
  607.2428 12 46
  607.5222 14 54
  607.628 13 50
  608.1113 15 57
  608.1477 16.7 64
  608.4585 16.1 62
  608.5005 20 77
  608.6737 14.1 54
  609.0381 17 65
  609.4759 13.2 50
  609.5356 13.2 50
  609.6492 18 69
  610.4673 15 57
  610.6275 18 69
  611.1769 16.1 62
  611.2241 19.3 74
  612.1628 16.9 65
  612.3446 16 61
  612.4069 18.8 72
  612.4803 15.4 59
  613.0625 13.5 52
  613.1749 13 50
  613.2376 16.2 62
  613.2968 16 61
  613.5801 15.4 59
  614.0138 14 54
  614.2385 16 61
  614.5036 14 54
  615.0327 17 65
  615.1318 16.5 63
  615.4618 15.4 59
  616.1427 16.1 62
  616.4524 15.1 58
  616.4819 16 61
  616.6632 15 57
  617.0428 13.5 52
  617.3279 12 46
  618.4242 14.9 57
  618.5092 13.2 50
  618.5782 21 81
  618.6441 19.2 74
  619.0082 16.9 65
  619.2485 13 50
  619.2934 14 54
  619.563 17.7 68
  620.3613 13 50
  621.0324 15.8 60
  621.1008 12 46
  621.1698 14 54
  621.2498 14 54
  621.3218 16 61
  621.4224 17 65
  621.4868 16.7 64
  622.2942 18 69
  622.3487 12 46
  623.0449 15.1 58
  623.5524 17.7 68
  623.6686 16.7 64
  623.9912 20.1 77
  624.1519 13.1 50
  624.4531 16 61
  624.6469 19 73
  624.6822 16.9 65
  625.0557 18.1 69
  625.2299 14 54
  625.3564 17.1 66
  625.4254 13 50
  626.0042 12 46
  626.3237 21.5 82
  627.0545 13 50
  627.2539 17.8 68
  627.2982 13.5 52
  627.5045 18.5 71
  628.0122 12 46
  628.063 15.1 58
  628.4191 13 50
  628.5638 16 61
  629.2373 15.1 58
  629.3734 15 57
  629.4243 14 54
  629.6144 15.4 59
  630.2741 19.8 76
  630.5555 18.8 72
  630.6586 18 69
  631.064 16 61
  631.5803 17 65
  632.1121 15 58
  632.243 18 69
  632.4718 16.2 62
  632.5249 15.8 60
  632.5961 14.9 57
  633.2269 13 50
  633.3154 16.2 62
  633.3922 15.2 58
  634.0798 13 50
  634.481 12.1 46
  634.545 13 50
  634.6466 18 69
  635.1393 22.8 88
  635.5745 14 54
  636.1172 14.3 55
  637.0447 14.3 55
  637.1004 14.9 57
  637.2025 18 69
  637.245 14 54
  637.4562 19.1 73
  637.9892 18 69
  638.0582 20 77
  638.1349 19.6 75
  638.2524 19 73
  638.2904 14.1 54
  638.4324 13 50
  638.5618 13.2 50
  638.9961 18.1 69
  639.1263 13 50
  639.3607 14.6 56
  639.5657 13 50
  639.6453 14.9 57
  640.0941 19 73
  640.2951 14 54
  640.3285 12 46
  640.3808 15.8 60
  640.4364 16.6 64
  640.5295 17.1 66
  641.198 18 69
  641.249 15.8 60
  641.3051 12 46
  641.4981 16.1 62
  641.557 16.7 64
  641.6657 18.1 69
  642.3084 16.5 63
  642.4548 16.9 65
  642.5061 15.1 58
  642.6412 12 46
  643.1635 16.9 65
  643.2345 14.6 56
  643.2835 20 77
  643.4191 13 50
  644.0252 13 50
  644.0721 14.6 56
  644.2745 12 46
  644.4668 18 69
  644.9983 18.9 73
  645.0755 17 65
  645.2286 14.3 55
  645.514 16.7 64
  646.0665 12 46
  646.1984 17.1 66
  646.2791 14.1 54
  646.4196 14 54
  646.5325 17 65
  646.6639 17.7 68
  647.0201 14.6 56
  647.1331 17 65
  647.2895 15 57
  647.4227 13 50
  647.5825 16.7 64
  648.3156 15 57
  648.4559 15.4 59
  648.5928 19 73
  649.0023 14 54
  649.0865 19 73
  649.3368 14 54
  650.2687 15.4 59
  650.4217 16 61
  650.661 22.1 85
  651.1534 17.7 68
  651.1963 18 69
  651.5677 14 54
  652.6121 14.9 57
  653.0734 16.9 65
  653.2735 13.1 50
  654.1457 13 50
  654.3013 13 50
  654.3372 14 54
  655.2207 19 73
  655.3861 15 58
  655.5353 13 50
  655.6346 15.8 60
  655.9959 20 77
  656.0679 15 57
  656.1957 14.9 57
  656.2668 15 57
  656.4042 13 50
  657.4106 17.1 65
  657.6282 12 46
  658.2477 18.2 70
  658.4429 16.2 62
  659.2508 15 57
  659.6027 15 57
  659.6315 14 54
  660.3081 15 57
  660.4684 16 61
  660.5631 14.6 56
  660.676 12.1 46
  661.1059 14.6 56
  661.2194 15 57
  661.3476 15 57
  661.5779 16 61
  662.0638 14 54
  662.1063 16 61
  662.3791 14.9 57
  663.1405 18 69
  663.2905 13.2 50
  663.4656 17 65
  663.5859 19.2 74
  663.6462 19 73
  664.295 15.1 58
  664.3619 17 65
  664.4353 14.6 56
  664.6611 17 65
  665.1122 16 61
  665.2524 13 50
  665.301 17.2 66
  665.4254 15.8 60
  666.1424 13 50
  666.3855 16.2 62
  666.4286 15.8 60
  666.6607 12 46
  667.0144 14 54
  667.1809 14 54
  667.271 12 46
  667.4135 13 50
  667.4654 17 65
  667.5845 23.6 90
  668.1241 16.9 65
  668.226 16 61
  668.3297 17.1 66
  669.0029 18.9 73
  669.0772 19 73
  669.1498 21.6 83
  669.501 16.9 65
  669.5436 16.1 62
  669.6138 13 50
  670.269 17.7 68
  670.5805 17 65
  670.6594 20.5 78
  671.5582 14 54
  672.2605 13 50
  672.313 12.1 46
  672.6616 15.4 59
  673.1177 20.9 80
  673.3741 17.8 68
  673.4224 13.2 50
  673.496 23.1 89
  673.6128 15 57
  674.0131 18 69
  675.0913 15.1 58
  675.3367 18 69
  675.4307 14.9 57
  675.6502 14 54
  676.0254 14 54
  676.2749 16 61
  676.3326 14 54
  676.6816 18.6 71
  677.3614 13 50
  677.9835 15.1 58
  678.1147 12 46
  678.1742 16 61
  678.4054 17 65
  678.5108 19.7 76
  678.6812 16.9 65
  679.0656 19.6 75
  679.2056 14 54
  679.5598 13 50
  680.1677 19.1 73
  680.2336 14.9 57
  680.2643 16.9 65
  680.3737 16.9 65
  680.424 17.5 67
  680.511 18.1 69
  680.5738 14.3 55
  681.2306 19 73
  681.3343 16 61
  681.5713 17 65
  681.6737 20.5 79
  682.1924 18.8 72
  682.447 15.1 58
  682.5814 12 46
  683.5453 14 54
  684.5751 15.1 58
  684.9869 17.4 67
  685.0785 14.1 54
  685.1525 17 65
  685.4198 17.7 68
  687.1536 14 54
  687.3653 19 73
  689.0091 20.5 78
  689.0577 15 57
  689.1764 15 58
  689.5567 13 50
  690.2963 12 46
  690.4886 16.5 63
  690.5313 14 54
  690.9884 18 69
  691.3213 18.8 72
  692.391 13 50
  693.0279 19.1 73
  693.3031 14.3 55
  694.3102 15 57
  694.4273 14 54
  694.5006 15.1 58
  695.0496 18 69
  695.4259 14 54
  695.5715 16.5 63
  695.6105 13 50
  695.9839 19.1 73
  696.3535 14.6 56
  696.4098 15.4 59
  697.0023 16 61
  697.6145 16 61
  698.4745 12 46
  699.1151 12 46
  699.2293 17.7 68
  699.6632 15.8 60
  700.0063 17 65
  700.092 12 46
  700.1874 15 57
  700.3108 14 54
  700.5849 13 50
  701.072 15.4 59
  701.419 13 50
  701.4687 14.1 54
  701.6361 19 73
  702.0492 19.8 76
  702.1958 20 77
  702.4616 16 61
  702.5424 20.5 79
  703.0541 25.1 97
  703.2728 16.7 64
  704.4984 19 73
  704.5533 15.4 59
  705.0044 16.5 63
  705.2533 15.4 59
  705.3749 14 54
  706.5313 21.1 81
  706.582 14.9 57
  706.9987 13 50
  707.1113 14 54
  708.0252 16.5 63
  708.1503 19.1 73
  708.1954 14.3 55
  708.309 14.3 55
  708.45 14 54
  708.541 18.2 70
  708.6755 16.7 64
  709.0485 18.1 69
  709.3508 15.1 58
  709.4469 15.1 58
  709.6389 17 65
  709.6857 22 84
  710.111 18 69
  710.2278 22 85
  710.3399 14.9 57
  710.6711 17.8 68
  711.1018 14 54
  711.1948 16 61
  711.2573 15 57
  711.646 15.1 58
  712.1158 13 50
  712.1576 16.1 62
  712.2273 12 46
  712.3127 16.2 62
  712.4445 15.2 58
  712.5866 14.3 55
  713.2852 14 54
  713.3801 14.3 55
  714.03 13 50
  714.0759 14.9 57
  714.2294 19.6 75
  714.4825 13.2 50
  715.188 16.1 62
  715.2351 15 57
  715.4325 14.9 57
  715.4677 12.1 46
  715.5446 13 50
  716.2593 13 50
  716.4399 16.7 64
  717.2269 15.4 59
  717.3674 18 69
  717.6617 17 65
  718.295 20.6 79
  718.678 13.5 52
  719.0372 16 61
  719.1623 18 69
  719.2313 14.9 57
  719.2802 22.4 86
  719.5517 19.6 75
  719.9823 16 61
  720.2118 19 73
  720.2591 15.8 60
  720.4219 13.2 50
  720.6014 17.1 66
  721.1245 14 54
  721.1694 16.2 62
  721.2146 20.2 78
  721.2756 17.2 66
  721.3857 18.5 71
  721.5139 12 46
  722.2379 21.1 81
  722.4427 15.4 59
  722.5089 19.1 73
  722.6134 15.8 60
  722.6676 16.7 64
  723.1276 18 69
  723.2352 16.2 62
  723.3704 15.4 59
  723.635 19.6 75
  723.6812 13 50
  724.0546 15.4 59
  724.136 16 61
  724.1838 16 61
  725.0369 21.3 82
  725.4948 15 57
  726.0861 12 46
  726.2808 16 61
  727.2944 14 54
  727.9836 17.7 68
  728.1286 15.8 60
  728.3828 15.2 58
  728.6137 18 69
  729.2431 16.2 62
  729.281 17 65
  729.6872 19.1 73
  730.2664 14.3 55
  730.3784 24 92
  730.4993 16 61
  731.1864 19 73
  731.5574 17.1 66
  731.6211 15.1 58
  731.6684 18.2 70
  732.4889 14 54
  732.5232 14 54
  732.5739 13 50
  733.0096 15 57
  733.0676 21.7 83
  733.2055 15.8 60
  733.4064 18.8 72
  733.5365 15.1 58
  734.0681 12 46
  734.2339 17 65
  734.2926 19.3 74
  734.3561 13.1 50
  734.5742 23 88
  734.6205 15 57
  735.0171 19.9 76
  735.5417 14 54
  736.1177 16.7 64
  736.2044 18.6 71
  736.665 15 57
  737.0167 16 61
  737.2046 15 57
  738.0696 14 54
  738.4005 14 54
  738.5398 15 57
  738.5928 14 54
  739.0423 15.8 60
  739.0785 14 54
  739.2108 14 54
  739.5393 16 61
  739.5854 120 463
  739.693 18.1 69
  739.9968 14.4 55
  740.2708 16 61
  740.3322 15.4 59
  740.4372 14.3 55
  740.5191 16 61
  741.0001 13.2 51
  741.0432 12 46
  741.5636 12 46
  742.5835 19 73
  742.6803 18 69
  743.2588 14 54
  743.4655 16 61
  743.5632 15.8 60
  744.2381 19 73
  744.4031 23 88
  745.2684 14 54
  745.3557 17.4 67
  745.5497 17.7 68
  745.625 15 57
  745.6597 14 54
  746.5587 16.5 63
  747.507 15.1 58
  747.9859 17.7 68
  748.2613 14.9 57
  748.612 13 50
  749.0062 18.5 71
  749.079 17.7 68
  749.375 14 54
  749.5727 13 50
  750.0165 14.9 57
  750.2635 17 65
  750.5247 12 46
  750.6096 13.5 52
  751.1243 14 54
  752.2227 13 50
  752.6739 22 84
  753.1981 14.3 55
  753.3145 13 50
  753.4796 17.1 66
  753.562 17 65
  754.2902 19.3 74
  754.3397 14 54
  755.074 13.2 50
  755.4483 14 54
  755.5176 19.1 73
  756.2888 13 50
  756.3679 16 61
  757.108 15.1 58
  757.1919 19 73
  757.3082 19.1 73
  757.5222 16 61
  757.6071 15 57
  758.0063 16 61
  758.3652 17.7 68
  759.3402 14 54
  760.4179 15 57
  760.4584 19 73
  761.0015 15 57
  761.2495 14 54
  761.5572 15.1 58
  761.6454 14.9 57
  762.3388 15.4 59
  762.464 18.8 72
  762.5705 16.7 64
  763.2448 16.5 63
  763.3902 17.1 65
  764.5338 19.6 75
  765.11 14 54
  765.2183 41.7 161
  765.374 14 54
  765.6436 12 46
  766.5602 14.9 57
  767.0342 19.7 76
  768.1189 16.9 65
  768.5089 18.8 72
  768.548 19 73
  769.3129 14 54
  769.4894 20.7 80
  769.5623 14.1 54
  770.4568 25.7 99
  770.581 14 54
  771.1849 19 73
  771.2703 14.9 57
  771.5742 15.8 60
  771.6691 17.1 66
  773.0637 13.5 52
  773.3335 15.1 58
  773.3985 15 57
  773.449 12 46
  773.6405 14 54
  773.6919 13 50
  774.3912 18 69
  774.4676 14.9 57
  774.636 14 54
  775.3134 16.9 65
  775.3784 14.9 57
  775.4717 14.3 55
  775.5517 12 46
  776.2848 19 73
  776.378 14.4 55
  776.6843 13 50
  777.4297 19.2 74
  777.5332 17 65
  778.1959 15.1 58
  778.4347 14 54
  779.1488 19.1 73
  779.2421 18.9 73
  779.3089 16 61
  780.0551 15.8 60
  780.2283 14.3 55
  780.4167 13 50
  780.5752 14 54
  781.1631 19 73
  781.3462 15 57
  781.4887 15.4 59
  781.6191 16 61
  782.5309 16.2 62
  782.5789 14 54
  782.6332 12 46
  783.2064 15 57
  783.3801 18 69
  783.6349 12 46
  784.3044 17 65
  784.5524 14 54
  785.3473 18.8 72
  787.5647 14 54
  787.6874 16 61
  788.2311 12.4 47
  788.2797 13.5 52
  788.5293 14 54
  789.2584 13 50
  789.5343 13 50
  790.1961 19.1 73
  790.3749 14 54
  790.605 18 69
  791.2317 14 54
  791.3707 18 69
  791.5336 16.7 64
  793.1619 13.5 52
  793.5873 17 65
  794.3989 14.9 57
  794.4661 19.3 74
  794.5723 12 46
  795.2588 15.4 59
  795.6152 14 54
  796.1492 14 54
  796.2678 14 54
  796.3149 14.9 57
  797.1837 15 58
  797.6157 17.7 68
  797.685 15 57
  798.2008 18 69
  798.2727 16.7 64
  798.5233 17.4 67
  798.6227 15.4 59
  799.327 14 54
  799.4528 14.3 55
  799.5764 15.8 60
  800.2156 15.8 60
  800.3362 14.9 57
  800.4057 17.8 68
  800.5521 18 69
  801.1912 15 57
  801.2861 17.8 68
  801.6387 15.8 60
  804.4414 19 73
  804.6608 18.5 71
  805.3562 14.9 57
  805.4211 15.1 58
  805.5131 14.9 57
  806.2574 12.4 47
  806.3345 17.7 68
  806.6324 18 69
  807.6232 15.8 60
  808.3391 16.1 62
  809.4564 17.8 68
  809.4856 15.1 58
  810.2786 13.5 52
  810.5382 13.2 50
  811.4086 14 54
  811.524 14 54
  812.3995 16.7 64
  812.5198 14.9 57
  812.6974 15 57
  813.3955 17.8 68
  814.3282 16.2 62
  814.4376 19.8 76
  814.4952 16.2 62
  814.6172 20 77
  815.4455 15.1 58
  816.3049 16 61
  816.6028 15.1 58
  817.4717 14 54
  819.5583 16.5 63
  819.6372 13 50
  820.5727 13 50
  820.63 13 50
  821.3713 15 57
  821.6179 16 61
  822.3531 20.5 79
  822.5894 14 54
  824.5067 15.8 60
  825.4807 15.4 59
  825.5238 15 57
  825.6444 17.4 67
  826.5227 15 57
  826.583 20.5 79
  827.6809 15.4 59
  828.6226 17.8 68
  829.5719 13.2 50
  829.6428 15.1 58
  830.6744 14.4 55
  832.6342 30.5 117
  833.6637 18 69
  835.6806 18.6 71
  836.5665 12.4 47
  836.6283 20 77
  836.6859 14 54
  837.6095 16 61
  839.6162 14 54
  842.5481 13 50
  843.5259 16 61
  845.5454 19.2 74
  847.5724 16.2 62
  851.593 20.5 79
  861.6793 258.7 999
//
