ACCESSION: MSBNK-Antwerp_Univ-METOX_N109926_9C9C
RECORD_TITLE: Tricosylic acid; LC-ESI-QTOF; MS2; CE: 40eV; R=7000; [M-H]-
DATE: 2022.04.09
AUTHORS: da Silva KM, Iturrospe E, van de Lavoir M, Robeyns R, University of Antwerp, Belgium
LICENSE: CC BY
COPYRIGHT: Copyright (c) 2021 by Toxicological Center, University of Antwerp, Wilrijk, Belgium
COMMENT: CONFIDENCE Standard compound
COMMENT: INTERNAL_ID 1099
CH$NAME: Tricosylic acid
CH$NAME: tricosanoic acid
CH$COMPOUND_CLASS: N/A; Metabolomics Standard
CH$FORMULA: C23H46O2
CH$EXACT_MASS: 354.3498
CH$SMILES: CCCCCCCCCCCCCCCCCCCCCCC(O)=O
CH$IUPAC: InChI=1S/C23H46O2/c1-2-3-4-5-6-7-8-9-10-11-12-13-14-15-16-17-18-19-20-21-22-23(24)25/h2-22H2,1H3,(H,24,25)
CH$LINK: CAS 2433-96-7
CH$LINK: CHEBI 42394
CH$LINK: LIPIDMAPS LMFA01010023
CH$LINK: PUBCHEM CID:17085
CH$LINK: INCHIKEY XEZVDURJDFGERA-UHFFFAOYSA-N
CH$LINK: CHEMSPIDER 16170
AC$INSTRUMENT: Agilent 6560 QTOF
AC$INSTRUMENT_TYPE: LC-ESI-QTOF
AC$MASS_SPECTROMETRY: MS_TYPE MS2
AC$MASS_SPECTROMETRY: ION_MODE NEGATIVE
AC$MASS_SPECTROMETRY: IONIZATION ESI
AC$MASS_SPECTROMETRY: FRAGMENTATION_MODE CID
AC$MASS_SPECTROMETRY: COLLISION_ENERGY 40 eV
AC$MASS_SPECTROMETRY: RESOLUTION 7000
AC$MASS_SPECTROMETRY: MASS_RANGE_M/Z 70-1699
AC$CHROMATOGRAPHY: COLUMN_NAME N/A
AC$CHROMATOGRAPHY: FLOW_GRADIENT 50/50 isocratic
AC$CHROMATOGRAPHY: FLOW_RATE 200 uL/min
AC$CHROMATOGRAPHY: RETENTION_TIME 0.147 min
AC$CHROMATOGRAPHY: SOLVENT A 30/70 acetonitrile/water with 2mM ammonium acetate
AC$CHROMATOGRAPHY: SOLVENT B 88/10/2 isopropanol/acetonitrile/water with 2mM ammonium acetate
MS$FOCUSED_ION: BASE_PEAK 353.3428
MS$FOCUSED_ION: PRECURSOR_M/Z 353.3425
MS$FOCUSED_ION: PRECURSOR_TYPE [M-H]-
MS$FOCUSED_ION: PRECURSOR_INTENSITY 750532
MS$DATA_PROCESSING: RECALIBRATE loess on assigned fragments and MS1
MS$DATA_PROCESSING: REANALYZE Peaks with additional N2/O included
MS$DATA_PROCESSING: WHOLE RMassBank 3.5.2.1
PK$SPLASH: splash10-05n0-1892000000-36658b92f191295eb8f7
PK$ANNOTATION: m/z tentative_formula formula_count mass error(ppm)
  73.0068 C6H- 1 73.0084 -21.85
  76.0891 C4H12O- 1 76.0894 -3.44
  76.124 C5H16- 1 76.1257 -23.02
  80.9996 C4HO2- 1 80.9982 17.39
  81.035 C5H5O- 1 81.0346 5.14
  86.1109 C6H14- 1 86.1101 9.75
  86.3174 CH42O2- 1 86.319 -19.26
  87.0438 C4H7O2- 1 87.0452 -15.36
  88.3116 C4H40- 1 88.3135 -21.83
  89.3195 C4H41- 1 89.3214 -20.83
  89.3405 CH45O2- 1 89.3425 -22.3
  90.3298 C4H42- 1 90.3292 6.85
  91.2986 C3H39O- 1 91.3006 -22.25
  93.0898 C4H13O2- 1 93.0921 -24.42
  94.1367 C5H18O- 1 94.1363 4.44
  95.274 C5H35- 1 95.2744 -4.37
  96.2103 C3H28O2- 1 96.2095 8.02
  97.2541 C4H33O- 1 97.2537 3.91
  100.2748 C4H36O- 1 100.2772 -23.32
  101.0983 C6H13O- 1 101.0972 10.84
  103.1716 C4H23O2- 1 103.1704 12.06
  103.2626 C3H35O2- 1 103.2643 -16.47
  104.2502 C6H32- 1 104.2509 -7.25
  108.2847 C6H36- 1 108.2822 22.84
  108.3018 C3H40O2- 1 108.3034 -14.29
  111.9942 C8O- 1 111.9955 -11.08
  114.1036 C7H14O- 1 114.105 -12.72
  119.1078 C6H15O2- 1 119.1078 0.63
  124.0289 C10H4- 1 124.0318 -23.73
  126.1961 C7H26O- 1 126.1989 -22.57
  128.0255 C9H4O- 1 128.0268 -9.52
  129.2588 C8H33- 1 129.2588 0.13
  130.2855 C5H38O2- 1 130.2877 -17.37
  131.0111 C8H3O2- 1 131.0139 -20.93
  131.2011 C6H27O2- 1 131.2017 -4.12
  133.0999 C10H13- 1 133.1023 -17.67
  134.0155 C11H2- 1 134.0162 -4.95
  134.132 C7H18O2- 1 134.1312 6.06
  134.3173 C5H42O2- 1 134.319 -13.21
  135.0789 C9H11O- 1 135.0815 -19.42
  135.1415 C7H19O2- 1 135.1391 18.45
  136.2177 C9H28- 1 136.2196 -14.59
  137.288 C7H37O- 1 137.285 21.67
  138.047 C11H6- 1 138.0475 -3.83
  138.1997 C8H26O- 1 138.1989 5.63
  140.0822 C8H12O2- 1 140.0843 -14.92
  141.0697 C11H9- 1 141.071 -9.02
  142.3249 C7H42O- 1 142.3241 5.31
  144.0614 C10H8O- 1 144.0581 23.03
  144.2117 C7H28O2- 1 144.2095 15.38
  146.0382 C9H6O2- 1 146.0373 5.68
  148.1834 C9H24O- 1 148.1833 0.83
  148.2404 C7H32O2- 1 148.2408 -2.82
  149.1941 C9H25O- 1 149.1911 20.38
  149.3245 C9H41- 1 149.3214 21.1
  159.0244 C13H3- 1 159.024 2.23
  161.1574 C9H21O2- 1 161.1547 16.46
  162.1042 C11H14O- 1 162.105 -5.01
  163.1496 C12H19- 1 163.1492 2.34
  163.2056 C10H27O- 1 163.2067 -6.88
  164.0878 C10H12O2- 1 164.0843 21.66
  164.16 C12H20- 1 164.157 17.99
  165.1686 C12H21- 1 165.1649 22.41
  166.2337 C10H30O- 1 166.2302 20.86
  167.241 C10H31O- 1 167.238 17.52
  168.2483 C10H32O- 1 168.2459 14.5
  170.3162 C8H42O2- 1 170.319 -16.83
  172.0517 C11H8O2- 1 172.053 -7.19
  172.3339 C8H44O2- 1 172.3347 -4.78
  173.0369 C14H5- 1 173.0397 -15.84
  173.19 C11H25O- 1 173.1911 -6.23
  173.2245 C12H29- 1 173.2275 -17.34
  174.1645 C10H22O2- 1 174.1625 11.28
  175.0199 C13H3O- 1 175.0189 5.29
  177.3483 C11H45- 1 177.3527 -24.48
  178.1328 C12H18O- 1 178.1363 -19.55
  179.0894 C14H11- 1 179.0866 15.47
  182.1314 C11H18O2- 1 182.1312 0.71
  183.0831 C13H11O- 1 183.0815 8.33
  183.9991 C14O- 1 183.9955 20.02
  187.2474 C13H31- 1 187.2431 22.7
  187.3034 C11H39O- 1 187.3006 14.69
  188.2148 C12H28O- 1 188.2146 1.08
  189.184 C11H25O2- 1 189.186 -10.65
  190.1404 C13H18O- 1 190.1363 21.73
  191.2747 C13H35- 1 191.2744 1.22
  193.0046 C16H- 1 193.0084 -19.67
  193.1004 C15H13- 1 193.1023 -9.47
  193.2936 C13H37- 1 193.2901 18.08
  194.0367 C13H6O2- 1 194.0373 -3.46
  195.0461 C13H7O2- 1 195.0452 5
  198.0489 C16H6- 1 198.0475 6.91
  198.0734 C13H10O2- 1 198.0686 23.9
  198.2912 C12H38O- 1 198.2928 -8.06
  199.2639 C11H35O2- 1 199.2643 -2.03
  200.1761 C12H24O2- 1 200.1782 -10.51
  200.3489 C13H44- 1 200.3448 20.18
  201.096 C13H13O2- 1 201.0921 19.56
  203.0535 C15H7O- 1 203.0502 16.2
  204.0042 C17- 1 204.0005 17.78
  208.1429 C13H20O2- 1 208.1469 -18.9
  209.1902 C14H25O- 1 209.1911 -4.35
  209.2227 C15H29- 1 209.2275 -22.89
  211.1755 C13H23O2- 1 211.1704 24.27
  211.2434 C15H31- 1 211.2431 1.47
  212.254 C15H32- 1 212.2509 14.34
  213.093 C14H13O2- 1 213.0921 4.28
  215.0521 C16H7O- 1 215.0502 8.45
  217.0053 C18H- 1 217.0084 -14.14
  217.3133 C12H41O2- 1 217.3112 9.68
  219.3314 C12H43O2- 1 219.3269 20.69
  220.2354 C13H32O2- 1 220.2408 -24.61
  220.2755 C14H36O- 1 220.2772 -7.6
  221.1361 C17H17- 1 221.1336 11.5
  225.3479 C15H45- 1 225.3527 -21.23
  226.1755 C17H22- 1 226.1727 12.4
  227.0178 C16H3O2- 1 227.0139 17.37
  229.1258 C15H17O2- 1 229.1234 10.31
  231.0483 C16H7O2- 1 231.0452 13.55
  231.2355 C14H31O2- 1 231.233 10.9
  231.2672 C15H35O- 1 231.2693 -9.31
  232.0936 C17H12O- 1 232.0894 18.34
  232.121 C18H16- 1 232.1257 -20.25
  232.3147 C16H40- 1 232.3135 5.06
  233.0371 C19H5- 1 233.0397 -10.86
  233.226 C17H29- 1 233.2275 -6.2
  233.2843 C15H37O- 1 233.285 -3.17
  236.2098 C16H28O- 1 236.2146 -20.14
  237.092 C16H13O2- 1 237.0921 -0.43
  237.1817 C15H25O2- 1 237.186 -17.95
  238.2881 C14H38O2- 1 238.2877 1.75
  240.0272 C17H4O2- 1 240.0217 22.98
  241.1027 C19H13- 1 241.1023 1.88
  241.3117 C14H41O2- 1 241.3112 1.91
  242.1683 C17H22O- 1 242.1676 2.88
  243.3306 C14H43O2- 1 243.3269 15.29
  245.1314 C19H17- 1 245.1336 -8.89
  245.2335 C18H29- 1 245.2275 24.76
  245.3252 C17H41- 1 245.3214 15.71
  246.1104 C18H14O- 1 246.105 21.77
  247.3022 C16H39O- 1 247.3006 6.38
  249.2812 C15H37O2- 1 249.2799 5
  250.3252 C16H42O- 1 250.3241 4.53
  252.3433 C16H44O- 1 252.3398 14.13
  253.1011 C20H13- 1 253.1023 -4.68
  253.3526 C16H45O- 1 253.3476 19.88
  255.2694 C17H35O- 1 255.2693 0.07
  256.2184 C19H28- 1 256.2196 -4.88
  256.9996 C20HO- 1 257.0033 -14.43
  257.2813 C17H37O- 1 257.285 -14.51
  258.3276 C18H42- 1 258.3292 -6.39
  260.0886 C18H12O2- 1 260.0843 16.57
  260.1198 C19H16O- 1 260.1207 -3.49
  261.1665 C20H21- 1 261.1649 6.17
  261.9996 C19H2O2- 1 262.006 -24.59
  262.1384 C19H18O- 1 262.1363 8.01
  262.291 C16H38O2- 1 262.2877 12.44
  264.1889 C20H24- 1 264.1883 2.16
  266.1289 C18H18O2- 1 266.1312 -8.81
  269.0424 C22H5- 1 269.0397 10.3
  269.0906 C20H13O- 1 269.0972 -24.62
  272.1629 C21H20- 1 272.157 21.41
  272.2754 C17H36O2- 1 272.2721 12.38
  274.0041 C20H2O2- 1 274.006 -6.9
  276.1514 C20H20O- 1 276.152 -1.99
  277.103 C22H13- 1 277.1023 2.73
  278.0442 C20H6O2- 1 278.0373 24.65
  278.2973 C20H38- 1 278.2979 -2.31
  286.2363 C20H30O- 1 286.2302 21.26
  286.2851 C18H38O2- 1 286.2877 -9.16
  287.0887 C23H11- 1 287.0866 7.27
  287.3332 C19H43O- 1 287.3319 4.31
  288.2974 C18H40O2- 1 288.3034 -20.69
  289.1293 C20H17O2- 1 289.1234 20.33
  290.2981 C21H38- 1 290.2979 0.69
  291.1404 C20H19O2- 1 291.1391 4.61
  293.2297 C22H29- 1 293.2275 7.75
  295.0724 C21H11O2- 1 295.0765 -13.57
  295.1689 C20H23O2- 1 295.1704 -4.88
  295.2987 C20H39O- 1 295.3006 -6.52
  298.192 C20H26O2- 1 298.1938 -6.28
  298.3179 C20H42O- 1 298.3241 -20.73
  299.1994 C20H27O2- 1 299.2017 -7.45
  300.2058 C20H28O2- 1 300.2095 -12.11
  300.2514 C21H32O- 1 300.2459 18.29
  300.3094 C19H40O2- 1 300.3034 20.11
  301.1662 C22H21O- 1 301.1598 21.44
  301.2008 C23H25- 1 301.1962 15.25
  302.0733 C23H10O- 1 302.0737 -1.43
  302.2231 C20H30O2- 1 302.2251 -6.69
  304.1539 C21H20O2- 1 304.1469 23.2
  307.1063 C23H15O- 1 307.1128 -21.14
  307.3027 C21H39O- 1 307.3006 6.86
  309.1285 C23H17O- 1 309.1285 0.04
  311.0154 C23H3O2- 1 311.0139 5.04
  311.2089 C21H27O2- 1 311.2017 23.43
  311.2723 C23H35- 1 311.2744 -6.9
  313.1522 C23H21O- 1 313.1598 -24.36
  314.1643 C23H22O- 1 314.1676 -10.58
  316.2767 C22H36O- 1 316.2772 -1.47
  317.1909 C23H25O- 1 317.1911 -0.54
  319.2642 C21H35O2- 1 319.2643 -0.17
  320.2695 C21H36O2- 1 320.2721 -8.15
  324.1102 C23H16O2- 1 324.1156 -16.48
  335.3359 C23H43O- 1 335.3319 11.7
  338.3111 C22H42O2- 1 338.319 -23.34
  348.3035 C23H40O2- 1 348.3034 0.33
  349.3033 C23H41O2- 1 349.3112 -22.54
  352.3346 C23H44O2- 1 352.3347 -0.35
PK$NUM_PEAK: 209
PK$PEAK: m/z int. rel.int.
  73.0068 17 402
  76.0891 18 425
  76.124 17.7 417
  80.9996 20 472
  81.035 18.3 433
  86.1109 17.1 404
  86.3174 18 426
  87.0438 16 378
  88.3116 15.8 372
  89.3195 16 378
  89.3405 14 331
  90.3298 16 378
  91.2986 16.4 387
  93.0898 20 473
  94.1367 13 307
  95.274 13 307
  96.2103 15 354
  97.2541 17.1 404
  100.2748 17.8 421
  101.0983 15.8 372
  103.1716 15.1 357
  103.2626 21 496
  104.2502 25 591
  108.2847 23 542
  108.3018 17 401
  111.9942 20.8 491
  114.1036 18.8 443
  119.1078 14.9 351
  124.0289 19.1 451
  126.1961 14.6 345
  128.0255 14 331
  129.2588 17.8 421
  130.2855 14.9 351
  131.0111 18 426
  131.2011 15 354
  133.0999 17.8 421
  134.0155 16 378
  134.132 14.6 345
  134.3173 20.5 485
  135.0789 22 519
  135.1415 16.5 390
  136.2177 16.5 390
  137.288 13 307
  138.047 13.1 310
  138.1997 16 378
  140.0822 13.2 311
  141.0697 17 401
  142.3249 12 283
  144.0614 14.9 351
  144.2117 16.9 399
  146.0382 15 354
  148.1834 15 354
  148.2404 14 330
  149.1941 13 307
  149.3245 18.2 430
  159.0244 18 425
  161.1574 15.8 372
  162.1042 15.1 357
  163.1496 18 425
  163.2056 20 473
  164.0878 19.8 469
  164.16 16.5 390
  165.1686 15 355
  166.2337 17 401
  167.241 16 378
  168.2483 15.1 356
  170.3162 13 307
  172.0517 13.5 319
  172.3339 17.1 403
  173.0369 21 496
  173.19 14 330
  173.2245 16.2 383
  174.1645 14 330
  175.0199 15.4 364
  177.3483 13 307
  178.1328 14 331
  179.0894 13 307
  182.1314 15.1 357
  183.0831 14 331
  183.9991 14.6 345
  187.2474 14 330
  187.3034 16 378
  188.2148 21.7 513
  189.184 18.2 430
  190.1404 15.4 364
  191.2747 14.6 345
  193.0046 18.6 439
  193.1004 12 283
  193.2936 14.1 333
  194.0367 14 331
  195.0461 19 449
  198.0489 16 378
  198.0734 16.2 383
  198.2912 17.7 417
  199.2639 18.2 431
  200.1761 14.6 345
  200.3489 15.8 373
  201.096 14 330
  203.0535 12 283
  204.0042 13.5 319
  208.1429 17 401
  209.1902 15.4 364
  209.2227 14.9 351
  211.1755 15.4 364
  211.2434 15 354
  212.254 14 330
  213.093 19.6 462
  215.0521 12 283
  217.0053 15 354
  217.3133 42.3 999
  219.3314 17.1 404
  220.2354 13.2 311
  220.2755 15.8 372
  221.1361 14 330
  225.3479 13.2 311
  226.1755 12 283
  227.0178 12 283
  229.1258 15 355
  231.0483 15.1 357
  231.2355 15.1 357
  231.2672 12.4 292
  232.0936 17.4 410
  232.121 16 378
  232.3147 13.5 319
  233.0371 22.7 536
  233.226 16.9 399
  233.2843 16.2 383
  236.2098 14 331
  237.092 14.3 337
  237.1817 16 378
  238.2881 18 425
  240.0272 16.2 383
  241.1027 14 331
  241.3117 12 283
  242.1683 14.3 337
  243.3306 13 308
  245.1314 14 331
  245.2335 14 330
  245.3252 14.3 337
  246.1104 14.3 337
  247.3022 15.2 359
  249.2812 16.9 398
  250.3252 15.8 373
  252.3433 13.1 310
  253.1011 15.8 373
  253.3526 15.4 364
  255.2694 13 307
  256.2184 25 590
  256.9996 15.2 359
  257.2813 14.1 333
  258.3276 15.4 364
  260.0886 17.8 421
  260.1198 15 354
  261.1665 16 378
  261.9996 16 378
  262.1384 17.8 421
  262.291 15.1 356
  264.1889 13.2 311
  266.1289 15.1 357
  269.0424 16 378
  269.0906 13 307
  272.1629 17 401
  272.2754 13 307
  274.0041 14 330
  276.1514 21 497
  277.103 14.3 337
  278.0442 16 378
  278.2973 15.4 364
  286.2363 13 307
  286.2851 15.1 357
  287.0887 15 354
  287.3332 17 401
  288.2974 16 378
  289.1293 16.7 395
  290.2981 13 308
  291.1404 24 567
  293.2297 13.5 319
  295.0724 14 330
  295.1689 14 330
  295.2987 18.6 439
  298.192 14.3 337
  298.3179 21.7 513
  299.1994 16 378
  300.2058 16.5 390
  300.2514 14 331
  300.3094 16.7 395
  301.1662 14.9 351
  301.2008 18 425
  302.0733 14 330
  302.2231 17.7 417
  304.1539 13 307
  307.1063 19.7 465
  307.3027 16.3 386
  309.1285 17.8 421
  311.0154 14 330
  311.2089 16 378
  311.2723 17.7 417
  313.1522 17.2 405
  314.1643 14 330
  316.2767 20.8 491
  317.1909 12.1 286
  319.2642 14.1 333
  320.2695 16.9 398
  324.1102 16.7 395
  335.3359 38.1 901
  338.3111 13 307
  348.3035 17.1 404
  349.3033 17.1 404
  352.3346 15.1 357
//
