ACCESSION: MSBNK-Antwerp_Univ-AN115733
RECORD_TITLE: Mono-carboxy-isononyl phthalate; LC-ESI-QTOF; MS2; CE: 45eV; R=7000; [M-H]-
DATE: 2021.08.06
AUTHORS: Belova L, Covaci A, University of Antwerp, Belgium; Caballero-Casero N, University of Cordoba, Spain.
LICENSE: CC BY
COPYRIGHT: Copyright (c) 2021 by Toxicological Center, University of Antwerp, Wilrijk, Belgium
COMMENT: CONFIDENCE Reference Standard (Level 1)
COMMENT: INTERNAL_ID 1157
COMMENT: HBM4EU - science and policy for a healthy future (https://www.hbm4eu.eu)
CH$NAME: Mono-carboxy-isononyl phthalate
CH$NAME: Mono-carboxy isononyl phthalate
CH$NAME: 2-(9-carboxynonan-2-yloxycarbonyl)benzoic acid
CH$COMPOUND_CLASS: N/A; Environmental Standard
CH$FORMULA: C18H24O6
CH$EXACT_MASS: 336.1573
CH$SMILES: CC(CCCCCCCC(=O)O)OC(=O)C1=CC=CC=C1C(=O)O
CH$IUPAC: InChI=1S/C18H24O6/c1-13(9-5-3-2-4-6-12-16(19)20)24-18(23)15-11-8-7-10-14(15)17(21)22/h7-8,10-11,13H,2-6,9,12H2,1H3,(H,19,20)(H,21,22)
CH$LINK: CHEBI CHEBI:165209
CH$LINK: PUBCHEM CID:145459124
CH$LINK: INCHIKEY IOWADRRGIUUGJH-UHFFFAOYSA-N
CH$LINK: CHEMSPIDER 58785100
AC$INSTRUMENT: Agilent 6560 QTOF
AC$INSTRUMENT_TYPE: LC-ESI-QTOF
AC$MASS_SPECTROMETRY: MS_TYPE MS2
AC$MASS_SPECTROMETRY: ION_MODE NEGATIVE
AC$MASS_SPECTROMETRY: IONIZATION ESI
AC$MASS_SPECTROMETRY: FRAGMENTATION_MODE CID
AC$MASS_SPECTROMETRY: COLLISION_ENERGY 45 eV
AC$MASS_SPECTROMETRY: RESOLUTION 7000
AC$MASS_SPECTROMETRY: MASS_RANGE_M/Z 75-1387
AC$CHROMATOGRAPHY: COLUMN_NAME ZORBAX Extend-C18 3.5um, 2.1x50mm, Agilent Technologies
AC$CHROMATOGRAPHY: FLOW_GRADIENT 80/20 at 0 min, 80/20 at 0.5 min, 5/95 at 6 min, 5/95 at 7 min, 80/20 at 7.1 min, 80/20 at 10 min
AC$CHROMATOGRAPHY: FLOW_RATE 350 uL/min
AC$CHROMATOGRAPHY: RETENTION_TIME 2.799 min
MS$FOCUSED_ION: BASE_PEAK 980.0164
MS$FOCUSED_ION: PRECURSOR_M/Z 335.15
MS$FOCUSED_ION: PRECURSOR_TYPE [M-H]-
MS$FOCUSED_ION: PRECURSOR_INTENSITY 4337.25
MS$DATA_PROCESSING: RECALIBRATE loess on assigned fragments and MS1
MS$DATA_PROCESSING: REANALYZE Peaks with additional N2/O included
MS$DATA_PROCESSING: WHOLE RMassBank 3.1.1
PK$SPLASH: splash10-004i-9300000000-81069c8a3cdfe29d09df
PK$ANNOTATION: m/z tentative_formula formula_count mass error(ppm)
  77.0401 C6H5- 1 77.0397 5.33
  121.0295 C7H5O2- 1 121.0295 -0.17
PK$NUM_PEAK: 2
PK$PEAK: m/z int. rel.int.
  77.0401 1836.8 999
  121.0295 731.1 397
//
