ACCESSION: MSBNK-Antwerp_Univ-AN124027
RECORD_TITLE: 4-n-Octylphenol; LC-ESI-QTOF; MS2; CE: 15eV; R=7000; [M-H]-
DATE: 2021.08.13
AUTHORS: Belova L, Covaci A, University of Antwerp, Belgium; Caballero-Casero N, University of Cordoba, Spain.
LICENSE: CC BY
COPYRIGHT: Copyright (c) 2021 by Toxicological Center, University of Antwerp, Wilrijk, Belgium
COMMENT: CONFIDENCE Reference Standard (Level 1)
COMMENT: INTERNAL_ID 1240
COMMENT: HBM4EU - science and policy for a healthy future (https://www.hbm4eu.eu)
CH$NAME: 4-n-Octylphenol
CH$NAME: 4-octylphenol
CH$COMPOUND_CLASS: N/A; Environmental Standard
CH$FORMULA: C14H22O
CH$EXACT_MASS: 206.1671
CH$SMILES: CCCCCCCCC1=CC=C(C=C1)O
CH$IUPAC: InChI=1S/C14H22O/c1-2-3-4-5-6-7-8-13-9-11-14(15)12-10-13/h9-12,15H,2-8H2,1H3
CH$LINK: CAS 1806-26-4
CH$LINK: CHEBI CHEBI:34432
CH$LINK: KEGG C14132
CH$LINK: PUBCHEM CID:15730
CH$LINK: INCHIKEY NTDQQZYCCIDJRK-UHFFFAOYSA-N
CH$LINK: CHEMSPIDER 14958
CH$LINK: COMPTOX DTXSID9022312
AC$INSTRUMENT: Agilent 6560 QTOF
AC$INSTRUMENT_TYPE: LC-ESI-QTOF
AC$MASS_SPECTROMETRY: MS_TYPE MS2
AC$MASS_SPECTROMETRY: ION_MODE NEGATIVE
AC$MASS_SPECTROMETRY: IONIZATION ESI
AC$MASS_SPECTROMETRY: FRAGMENTATION_MODE CID
AC$MASS_SPECTROMETRY: COLLISION_ENERGY 15 eV
AC$MASS_SPECTROMETRY: RESOLUTION 7000
AC$MASS_SPECTROMETRY: MASS_RANGE_M/Z 53-1324
AC$CHROMATOGRAPHY: COLUMN_NAME ZORBAX Extend-C18 3.5um, 2.1x50mm, Agilent Technologies
AC$CHROMATOGRAPHY: FLOW_GRADIENT 80/20 at 0 min, 80/20 at 0.5 min, 5/95 at 6 min, 5/95 at 7 min, 80/20 at 7.1 min, 80/20 at 10 min
AC$CHROMATOGRAPHY: FLOW_RATE 350 uL/min
AC$CHROMATOGRAPHY: RETENTION_TIME 5.817 min
MS$FOCUSED_ION: BASE_PEAK 955.9716
MS$FOCUSED_ION: PRECURSOR_M/Z 205.1598
MS$FOCUSED_ION: PRECURSOR_TYPE [M-H]-
MS$FOCUSED_ION: PRECURSOR_INTENSITY 2626.58
MS$DATA_PROCESSING: RECALIBRATE loess on assigned fragments and MS1
MS$DATA_PROCESSING: REANALYZE Peaks with additional N2/O included
MS$DATA_PROCESSING: WHOLE RMassBank 3.1.1
PK$SPLASH: splash10-0a4i-0590000000-b743f62716e8ed565c38
PK$ANNOTATION: m/z tentative_formula formula_count mass error(ppm)
  106.0422 C7H6O- 1 106.0424 -1.69
  205.1603 C14H21O- 1 205.1598 2.48
PK$NUM_PEAK: 2
PK$PEAK: m/z int. rel.int.
  106.0422 651 638
  205.1603 1018.7 999
//
