ACCESSION: MSBNK-Antwerp_Univ-AN114725
RECORD_TITLE: Mono-iso-butyl phthalate; LC-ESI-QTOF; MS2; CE: 5eV; R=7000; [M-H]-
DATE: 2021.08.06
AUTHORS: Belova L, Covaci A, University of Antwerp, Belgium; Caballero-Casero N, University of Cordoba, Spain.
LICENSE: CC BY
COPYRIGHT: Copyright (c) 2021 by Toxicological Center, University of Antwerp, Wilrijk, Belgium
COMMENT: CONFIDENCE Reference Standard (Level 1)
COMMENT: INTERNAL_ID 1147
COMMENT: HBM4EU - science and policy for a healthy future (https://www.hbm4eu.eu)
CH$NAME: Mono-iso-butyl phthalate
CH$NAME: Monoisobutyl phthalate
CH$NAME: 2-(2-methylpropoxycarbonyl)benzoic acid
CH$COMPOUND_CLASS: N/A; Environmental Standard
CH$FORMULA: C12H14O4
CH$EXACT_MASS: 222.0892
CH$SMILES: CC(C)COC(=O)C1=CC=CC=C1C(=O)O
CH$IUPAC: InChI=1S/C12H14O4/c1-8(2)7-16-12(15)10-6-4-3-5-9(10)11(13)14/h3-6,8H,7H2,1-2H3,(H,13,14)
CH$LINK: CAS 30833-53-5
CH$LINK: CHEBI CHEBI:90038
CH$LINK: PUBCHEM CID:92272
CH$LINK: INCHIKEY RZJSUWQGFCHNFS-UHFFFAOYSA-N
CH$LINK: CHEMSPIDER 83306
CH$LINK: COMPTOX DTXSID5052701
AC$INSTRUMENT: Agilent 6560 QTOF
AC$INSTRUMENT_TYPE: LC-ESI-QTOF
AC$MASS_SPECTROMETRY: MS_TYPE MS2
AC$MASS_SPECTROMETRY: ION_MODE NEGATIVE
AC$MASS_SPECTROMETRY: IONIZATION ESI
AC$MASS_SPECTROMETRY: FRAGMENTATION_MODE CID
AC$MASS_SPECTROMETRY: COLLISION_ENERGY 5 eV
AC$MASS_SPECTROMETRY: RESOLUTION 7000
AC$MASS_SPECTROMETRY: MASS_RANGE_M/Z 70-1478
AC$CHROMATOGRAPHY: FLOW_GRADIENT 50/50 isocratic
AC$CHROMATOGRAPHY: FLOW_RATE 200 uL/min
AC$CHROMATOGRAPHY: RETENTION_TIME 0.151 min
MS$FOCUSED_ION: BASE_PEAK 221.0828
MS$FOCUSED_ION: PRECURSOR_M/Z 221.0819
MS$FOCUSED_ION: PRECURSOR_TYPE [M-H]-
MS$FOCUSED_ION: PRECURSOR_INTENSITY 11736.33
MS$DATA_PROCESSING: RECALIBRATE loess on assigned fragments and MS1
MS$DATA_PROCESSING: REANALYZE Peaks with additional N2/O included
MS$DATA_PROCESSING: WHOLE RMassBank 3.1.1
PK$SPLASH: splash10-00fr-9230000000-c109c586306e7e549296
PK$ANNOTATION: m/z tentative_formula formula_count mass error(ppm)
  71.051 C4H7O- 1 71.0502 10.32
  75.025 C6H3- 1 75.024 13.67
  77.0403 C6H5- 1 77.0397 8.05
  105.0355 C7H5O- 1 105.0346 8.24
  121.0281 C7H5O2- 1 121.0295 -11.24
  134.0378 C8H6O2- 1 134.0373 3.4
  149.0954 C10H13O- 1 149.0972 -12.19
  177.0933 C11H13O2- 1 177.0921 6.58
  221.0824 C12H13O4- 1 221.0819 2.34
PK$NUM_PEAK: 9
PK$PEAK: m/z int. rel.int.
  71.051 2070.6 708
  75.025 390.4 133
  77.0403 2920.3 999
  105.0355 257.8 88
  121.0281 370.4 126
  134.0378 228.6 78
  149.0954 211.5 72
  177.0933 316 108
  221.0824 2041 698
//
