ACCESSION: MSBNK-Antwerp_Univ-AN120333
RECORD_TITLE: Bisphenol B; LC-ESI-QTOF; MS2; CE: 45eV; R=7000; [M-H]-
DATE: 2021.08.11
AUTHORS: Belova L, Covaci A, University of Antwerp, Belgium; Caballero-Casero N, University of Cordoba, Spain.
LICENSE: CC BY
COPYRIGHT: Copyright (c) 2021 by Toxicological Center, University of Antwerp, Wilrijk, Belgium
COMMENT: CONFIDENCE Reference Standard (Level 1)
COMMENT: INTERNAL_ID 1203
COMMENT: HBM4EU - science and policy for a healthy future (https://www.hbm4eu.eu)
CH$NAME: Bisphenol B
CH$NAME: 4-[2-(4-hydroxyphenyl)butan-2-yl]phenol
CH$COMPOUND_CLASS: N/A; Environmental Standard
CH$FORMULA: C16H18O2
CH$EXACT_MASS: 242.1307
CH$SMILES: CCC(C)(C1=CC=C(C=C1)O)C2=CC=C(C=C2)O
CH$IUPAC: InChI=1S/C16H18O2/c1-3-16(2,12-4-8-14(17)9-5-12)13-6-10-15(18)11-7-13/h4-11,17-18H,3H2,1-2H3
CH$LINK: CAS 77-40-7
CH$LINK: CHEBI CHEBI:34581
CH$LINK: KEGG C14225
CH$LINK: PUBCHEM CID:66166
CH$LINK: INCHIKEY HTVITOHKHWFJKO-UHFFFAOYSA-N
CH$LINK: CHEMSPIDER 59553
CH$LINK: COMPTOX DTXSID4022442
AC$INSTRUMENT: Agilent 6560 QTOF
AC$INSTRUMENT_TYPE: LC-ESI-QTOF
AC$MASS_SPECTROMETRY: MS_TYPE MS2
AC$MASS_SPECTROMETRY: ION_MODE NEGATIVE
AC$MASS_SPECTROMETRY: IONIZATION ESI
AC$MASS_SPECTROMETRY: FRAGMENTATION_MODE CID
AC$MASS_SPECTROMETRY: COLLISION_ENERGY 45 eV
AC$MASS_SPECTROMETRY: RESOLUTION 7000
AC$MASS_SPECTROMETRY: MASS_RANGE_M/Z 53-1495
AC$CHROMATOGRAPHY: COLUMN_NAME ZORBAX Extend-C18 3.5um, 2.1x50mm, Agilent Technologies
AC$CHROMATOGRAPHY: FLOW_GRADIENT 80/20 at 0 min, 80/20 at 0.5 min, 5/95 at 6 min, 5/95 at 7 min, 80/20 at 7.1 min, 80/20 at 10 min
AC$CHROMATOGRAPHY: FLOW_RATE 350 uL/min
AC$CHROMATOGRAPHY: RETENTION_TIME 3.617 min
MS$FOCUSED_ION: BASE_PEAK 241.1237
MS$FOCUSED_ION: PRECURSOR_M/Z 241.1234
MS$FOCUSED_ION: PRECURSOR_TYPE [M-H]-
MS$FOCUSED_ION: PRECURSOR_INTENSITY 8385.92
MS$DATA_PROCESSING: RECALIBRATE loess on assigned fragments and MS1
MS$DATA_PROCESSING: REANALYZE Peaks with additional N2/O included
MS$DATA_PROCESSING: WHOLE RMassBank 3.1.1
PK$SPLASH: splash10-02tc-4960000000-e39ac1d1f082a0c22eb2
PK$ANNOTATION: m/z tentative_formula formula_count mass error(ppm)
  93.0345 C6H5O- 1 93.0346 -0.52
  116.0284 C8H4O- 1 116.0268 13.79
  117.0349 C8H5O- 1 117.0346 2.54
  132.0569 C9H8O- 1 132.0581 -8.49
  195.044 C13H7O2- 1 195.0452 -5.71
  209.0584 C14H9O2- 1 209.0608 -11.26
  210.0684 C14H10O2- 1 210.0686 -1
  211.0759 C14H11O2- 1 211.0765 -2.56
PK$NUM_PEAK: 8
PK$PEAK: m/z int. rel.int.
  93.0345 1145.1 999
  116.0284 255.9 223
  117.0349 1091.2 951
  132.0569 531.4 463
  195.044 227 198
  209.0584 266.1 232
  210.0684 280.6 244
  211.0759 1055.8 921
//
