ACCESSION: MSBNK-Antwerp_Univ-METOX_N107806_F638
RECORD_TITLE: 1-(9Z-octadecenoyl)-2-hexadecanoyl-sn-glycero-3-phosphocholine; LC-ESI-QTOF; MS2; CE: 10eV; R=7000; [M+H]+
DATE: 2022.04.07
AUTHORS: da Silva KM, Iturrospe E, van de Lavoir M, Robeyns R, University of Antwerp, Belgium
LICENSE: CC BY
COPYRIGHT: Copyright (c) 2021 by Toxicological Center, University of Antwerp, Wilrijk, Belgium
COMMENT: CONFIDENCE Standard compound
COMMENT: INTERNAL_ID 1078
CH$NAME: 1-(9Z-octadecenoyl)-2-hexadecanoyl-sn-glycero-3-phosphocholine
CH$NAME: 1-Oleoyl-2-palmitoyl-sn-glycero-3-phosphocholine
CH$NAME: [(2R)-2-hexadecanoyloxy-3-[(Z)-octadec-9-enoyl]oxypropyl] 2-(trimethylazaniumyl)ethyl phosphate
CH$COMPOUND_CLASS: N/A; Metabolomics Standard
CH$FORMULA: C42H82NO8P
CH$EXACT_MASS: 759.5778
CH$SMILES: [C@](COP(=O)([O-])OCC[N+](C)(C)C)([H])(OC(CCCCCCCCCCCCCCC)=O)COC(CCCCCCC/C=C\CCCCCCCC)=O
CH$IUPAC: InChI=1S/C42H82NO8P/c1-6-8-10-12-14-16-18-20-21-23-24-26-28-30-32-34-41(44)48-38-40(39-50-52(46,47)49-37-36-43(3,4)5)51-42(45)35-33-31-29-27-25-22-19-17-15-13-11-9-7-2/h20-21,40H,6-19,22-39H2,1-5H3/b21-20-/t40-/m1/s1
CH$LINK: CAS 59491-62-2
CH$LINK: CHEBI CHEBI:74667
CH$LINK: LIPIDMAPS LMGP01010884
CH$LINK: PUBCHEM CID:24778933
CH$LINK: INCHIKEY RRVPPYNAZJRZFR-VYOBOKEXSA-N
CH$LINK: CHEMSPIDER 24766764
AC$INSTRUMENT: Agilent 6560 QTOF
AC$INSTRUMENT_TYPE: LC-ESI-QTOF
AC$MASS_SPECTROMETRY: MS_TYPE MS2
AC$MASS_SPECTROMETRY: ION_MODE POSITIVE
AC$MASS_SPECTROMETRY: IONIZATION ESI
AC$MASS_SPECTROMETRY: FRAGMENTATION_MODE CID
AC$MASS_SPECTROMETRY: COLLISION_ENERGY 10 eV
AC$MASS_SPECTROMETRY: RESOLUTION 7000
AC$MASS_SPECTROMETRY: MASS_RANGE_M/Z 71-1619
AC$CHROMATOGRAPHY: COLUMN_NAME Direct injection
AC$CHROMATOGRAPHY: FLOW_GRADIENT 50/50 isocratic
AC$CHROMATOGRAPHY: FLOW_RATE 200 uL/min
AC$CHROMATOGRAPHY: RETENTION_TIME 0.212 min
AC$CHROMATOGRAPHY: SOLVENT A 30/70 acetonitrile/water with 2mM ammonium acetate + 0.1% acetic acid
AC$CHROMATOGRAPHY: SOLVENT B 88/10/2 isopropanol/acetonitrile/water with 2mM ammonium acetate + 0.1% acetic acid
MS$FOCUSED_ION: BASE_PEAK 760.5871
MS$FOCUSED_ION: PRECURSOR_M/Z 760.5851
MS$FOCUSED_ION: PRECURSOR_TYPE [M+H]+
MS$FOCUSED_ION: PRECURSOR_INTENSITY 1792925
MS$DATA_PROCESSING: RECALIBRATE loess on assigned fragments and MS1
MS$DATA_PROCESSING: REANALYZE Peaks with additional N2/O included
MS$DATA_PROCESSING: WHOLE RMassBank 3.5.2.1
PK$SPLASH: splash10-03e9-0500000900-333c8ad4e42f6f6a5b01
PK$ANNOTATION: m/z tentative_formula formula_count mass error(ppm)
  86.0963 C5H12N+ 1 86.0964 -1.07
  98.9833 H4O4P+ 1 98.9842 -8.95
  104.1068 C5H14NO+ 2 104.107 -1.91
  124.9993 C2H6O4P+ 2 124.9998 -4.12
  184.0737 C5H15NO4P+ 4 184.0733 2.25
  185.0764 C2H18O7P+ 3 185.0785 -11.32
  243.9648 C7H3NO7P+ 3 243.9642 2.57
  478.3269 C28H46O6+ 9 478.3289 -4.11
  522.3544 C30H50O7+ 8 522.3551 -1.36
  760.5878 C42H83NO8P+ 1 760.5851 3.55
PK$NUM_PEAK: 10
PK$PEAK: m/z int. rel.int.
  86.0963 3130 15
  98.9833 262.1 1
  104.1068 334.5 1
  124.9993 844 4
  184.0737 112315.5 541
  185.0764 1803.8 8
  243.9648 221.3 1
  478.3269 250 1
  522.3544 270.3 1
  760.5878 207221.3 999
//
