ACCESSION: MSBNK-Antwerp_Univ-METOX_N102016_2347
RECORD_TITLE: N-oleoyl-D-erythro-sphingosine; LC-ESI-QTOF; MS2; CE: 40eV; R=7000; [M+Na]+
DATE: 2022.04.07
AUTHORS: da Silva KM, Iturrospe E, van de Lavoir M, Robeyns R, University of Antwerp, Belgium
LICENSE: CC BY
COPYRIGHT: Copyright (c) 2021 by Toxicological Center, University of Antwerp, Wilrijk, Belgium
COMMENT: CONFIDENCE Standard compound
COMMENT: INTERNAL_ID 1020
CH$NAME: N-oleoyl-D-erythro-sphingosine
CH$NAME: N-(oleoyl)-ceramide
CH$NAME: (Z)-N-[(E,2S,3R)-1,3-dihydroxyoctadec-4-en-2-yl]octadec-9-enamide
CH$COMPOUND_CLASS: N/A; Metabolomics Standard
CH$FORMULA: C36H69NO3
CH$EXACT_MASS: 563.5277
CH$SMILES: CCCCCCCCCCCCC/C=C/[C@H]([C@H](CO)NC(=O)CCCCCCC/C=C\CCCCCCCC)O
CH$IUPAC: InChI=1S/C36H69NO3/c1-3-5-7-9-11-13-15-17-18-20-22-24-26-28-30-32-36(40)37-34(33-38)35(39)31-29-27-25-23-21-19-16-14-12-10-8-6-4-2/h17-18,29,31,34-35,38-39H,3-16,19-28,30,32-33H2,1-2H3,(H,37,40)/b18-17-,31-29+/t34-,35+/m0/s1
CH$LINK: CAS 5966-28-9
CH$LINK: CHEBI CHEBI:77996
CH$LINK: LIPIDMAPS LMSP02010003
CH$LINK: PUBCHEM CID:5283563
CH$LINK: INCHIKEY OBFSLMQLPNKVRW-RHPAUOISSA-N
CH$LINK: CHEMSPIDER 4446676
AC$INSTRUMENT: Agilent 6560 QTOF
AC$INSTRUMENT_TYPE: LC-ESI-QTOF
AC$MASS_SPECTROMETRY: MS_TYPE MS2
AC$MASS_SPECTROMETRY: ION_MODE POSITIVE
AC$MASS_SPECTROMETRY: IONIZATION ESI
AC$MASS_SPECTROMETRY: FRAGMENTATION_MODE CID
AC$MASS_SPECTROMETRY: COLLISION_ENERGY 40 eV
AC$MASS_SPECTROMETRY: RESOLUTION 7000
AC$MASS_SPECTROMETRY: MASS_RANGE_M/Z 89-588
AC$CHROMATOGRAPHY: COLUMN_NAME Direct injection
AC$CHROMATOGRAPHY: FLOW_GRADIENT 50/50 isocratic
AC$CHROMATOGRAPHY: FLOW_RATE 200 uL/min
AC$CHROMATOGRAPHY: RETENTION_TIME 0.153 min
AC$CHROMATOGRAPHY: SOLVENT A 30/70 acetonitrile/water with 2mM ammonium acetate + 0.1% acetic acid
AC$CHROMATOGRAPHY: SOLVENT B 88/10/2 isopropanol/acetonitrile/water with 2mM ammonium acetate + 0.1% acetic acid
MS$FOCUSED_ION: BASE_PEAK 586.5187
MS$FOCUSED_ION: PRECURSOR_M/Z 586.517
MS$FOCUSED_ION: PRECURSOR_TYPE [M+Na]+
MS$FOCUSED_ION: PRECURSOR_INTENSITY 7258
MS$DATA_PROCESSING: RECALIBRATE loess on assigned fragments and MS1
MS$DATA_PROCESSING: REANALYZE Peaks with additional N2/O included
MS$DATA_PROCESSING: WHOLE RMassBank 3.5.2.1
PK$SPLASH: splash10-000i-0000090000-e45ec4a4eb58fa6b3f9c
PK$ANNOTATION: m/z tentative_formula formula_count mass error(ppm)
  89.06 C4H9O2+ 1 89.0597 3.14
  253.4957 C11H66NaO2+ 2 253.4955 0.61
  362.1804 C22H27NaO3+ 5 362.1852 -13.39
  381.0607 C30H7N+ 6 381.0573 8.82
  402.2778 C26H37NNaO+ 2 402.2767 2.62
  538.5187 C34H68NO3+ 3 538.5194 -1.21
  568.507 C36H67NNaO2+ 1 568.5064 1.05
  586.5185 C36H69NNaO3+ 1 586.517 2.63
PK$NUM_PEAK: 8
PK$PEAK: m/z int. rel.int.
  89.06 120 93
  253.4957 108.4 84
  362.1804 74.7 58
  381.0607 46.2 35
  402.2778 85.6 66
  538.5187 18.8 14
  568.507 48.6 37
  586.5185 1284.1 999
//
