ACCESSION: MSBNK-Antwerp_Univ-METOX_N108126_9CB7
RECORD_TITLE: Petroselinic acid; LC-ESI-QTOF; MS2; CE: 10eV; R=7000; [M-H]-
DATE: 2022.04.09
AUTHORS: da Silva KM, Iturrospe E, van de Lavoir M, Robeyns R, University of Antwerp, Belgium
LICENSE: CC BY
COPYRIGHT: Copyright (c) 2021 by Toxicological Center, University of Antwerp, Wilrijk, Belgium
COMMENT: CONFIDENCE Standard compound
COMMENT: INTERNAL_ID 1081
CH$NAME: Petroselinic acid
CH$NAME: (Z)-octadec-6-enoic acid
CH$COMPOUND_CLASS: N/A; Metabolomics Standard
CH$FORMULA: C18H34O2
CH$EXACT_MASS: 282.2559
CH$SMILES: CCCCCCCCCCC/C=C\CCCCC(O)=O
CH$IUPAC: InChI=1S/C18H34O2/c1-2-3-4-5-6-7-8-9-10-11-12-13-14-15-16-17-18(19)20/h12-13H,2-11,14-17H2,1H3,(H,19,20)/b13-12-
CH$LINK: CAS 593-39-5
CH$LINK: CHEBI CHEBI:28194
CH$LINK: KEGG C08363
CH$LINK: LIPIDMAPS LMFA01030066
CH$LINK: PUBCHEM CID:5281125
CH$LINK: INCHIKEY CNVZJPUDSLNTQU-SEYXRHQNSA-N
CH$LINK: CHEMSPIDER 4444569
AC$INSTRUMENT: Agilent 6560 QTOF
AC$INSTRUMENT_TYPE: LC-ESI-QTOF
AC$MASS_SPECTROMETRY: MS_TYPE MS2
AC$MASS_SPECTROMETRY: ION_MODE NEGATIVE
AC$MASS_SPECTROMETRY: IONIZATION ESI
AC$MASS_SPECTROMETRY: FRAGMENTATION_MODE CID
AC$MASS_SPECTROMETRY: COLLISION_ENERGY 10 eV
AC$MASS_SPECTROMETRY: RESOLUTION 7000
AC$MASS_SPECTROMETRY: MASS_RANGE_M/Z 76-1670
AC$CHROMATOGRAPHY: COLUMN_NAME N/A
AC$CHROMATOGRAPHY: FLOW_GRADIENT 50/50 isocratic
AC$CHROMATOGRAPHY: FLOW_RATE 200 uL/min
AC$CHROMATOGRAPHY: RETENTION_TIME 0.168 min
AC$CHROMATOGRAPHY: SOLVENT A 30/70 acetonitrile/water with 2mM ammonium acetate
AC$CHROMATOGRAPHY: SOLVENT B 88/10/2 isopropanol/acetonitrile/water with 2mM ammonium acetate
MS$FOCUSED_ION: BASE_PEAK 281.2489
MS$FOCUSED_ION: PRECURSOR_M/Z 281.2486
MS$FOCUSED_ION: PRECURSOR_TYPE [M-H]-
MS$FOCUSED_ION: PRECURSOR_INTENSITY 481681
MS$DATA_PROCESSING: RECALIBRATE loess on assigned fragments and MS1
MS$DATA_PROCESSING: REANALYZE Peaks with additional N2/O included
MS$DATA_PROCESSING: WHOLE RMassBank 3.5.2.1
PK$SPLASH: splash10-001i-0090000000-73fe2de3131cc2f2430c
PK$ANNOTATION: m/z tentative_formula formula_count mass error(ppm)
  83.0504 C5H7O- 1 83.0502 2.31
  263.2369 C18H31O- 1 263.238 -4.43
  264.2414 C18H32O- 1 264.2459 -16.99
  281.2494 C18H33O2- 1 281.2486 2.98
PK$NUM_PEAK: 4
PK$PEAK: m/z int. rel.int.
  83.0504 183 2
  263.2369 692.9 7
  264.2414 207.3 2
  281.2494 88357 999
//
