ACCESSION: MSBNK-Antwerp_Univ-AN119017
RECORD_TITLE: 5-Hydroxy-2-ethylhexyl diphenyl phosphate; LC-ESI-QTOF; MS2; CE: 25eV; R=7000; [M+Na]+
DATE: 2021.08.11
AUTHORS: Belova L, Covaci A, University of Antwerp, Belgium; Caballero-Casero N, University of Cordoba, Spain.
LICENSE: CC BY
COPYRIGHT: Copyright (c) 2021 by Toxicological Center, University of Antwerp, Wilrijk, Belgium
COMMENT: CONFIDENCE Reference Standard (Level 1)
COMMENT: INTERNAL_ID 1190
COMMENT: HBM4EU - science and policy for a healthy future (https://www.hbm4eu.eu)
CH$NAME: 5-Hydroxy-2-ethylhexyl diphenyl phosphate
CH$NAME: 2-Ethyl-5-hydroxyhexyl diphenyl phosphate
CH$NAME: (2-ethyl-5-hydroxyhexyl) diphenyl phosphate
CH$COMPOUND_CLASS: N/A; Environmental Standard
CH$FORMULA: C20H27O5P
CH$EXACT_MASS: 378.1596
CH$SMILES: CCC(CCC(C)O)COP(=O)(Oc1ccccc1)Oc2ccccc2
CH$IUPAC: InChI=1S/C20H27O5P/c1-3-18(15-14-17(2)21)16-23-26(22,24-19-10-6-4-7-11-19)25-20-12-8-5-9-13-20/h4-13,17-18,21H,3,14-16H2,1-2H3
CH$LINK: PUBCHEM CID:134818005
CH$LINK: INCHIKEY PZMFWNXABLTZRN-UHFFFAOYSA-N
CH$LINK: CHEMSPIDER 107438697
AC$INSTRUMENT: Agilent 6560 QTOF
AC$INSTRUMENT_TYPE: LC-ESI-QTOF
AC$MASS_SPECTROMETRY: MS_TYPE MS2
AC$MASS_SPECTROMETRY: ION_MODE POSITIVE
AC$MASS_SPECTROMETRY: IONIZATION ESI
AC$MASS_SPECTROMETRY: FRAGMENTATION_MODE CID
AC$MASS_SPECTROMETRY: COLLISION_ENERGY 25 eV
AC$MASS_SPECTROMETRY: RESOLUTION 7000
AC$MASS_SPECTROMETRY: MASS_RANGE_M/Z 55-768
AC$CHROMATOGRAPHY: FLOW_GRADIENT 50/50 isocratic
AC$CHROMATOGRAPHY: FLOW_RATE 200 uL/min
AC$CHROMATOGRAPHY: RETENTION_TIME 0.146 min
MS$FOCUSED_ION: BASE_PEAK 401.1512
MS$FOCUSED_ION: PRECURSOR_M/Z 401.1488
MS$FOCUSED_ION: PRECURSOR_TYPE [M+Na]+
MS$FOCUSED_ION: PRECURSOR_INTENSITY 12810.21
MS$DATA_PROCESSING: RECALIBRATE loess on assigned fragments and MS1
MS$DATA_PROCESSING: REANALYZE Peaks with additional N2/O included
MS$DATA_PROCESSING: WHOLE RMassBank 3.1.1
PK$SPLASH: splash10-00di-2090000000-5e37d35fbc0e117e4d9c
PK$ANNOTATION: m/z tentative_formula formula_count mass error(ppm)
  69.0702 C5H9+ 1 69.0699 4.21
  273.0292 C12H11NaO4P+ 3 273.0287 1.87
PK$NUM_PEAK: 2
PK$PEAK: m/z int. rel.int.
  69.0702 2519.5 287
  273.0292 8744 999
//
