ACCESSION: MSBNK-Antwerp_Univ-AN114125
RECORD_TITLE: 6-Hydroxy Monopropylheptylphthalate; LC-ESI-QTOF; MS2; CE: 5eV; R=7000; [M-H]-
DATE: 2021.08.05
AUTHORS: Belova L, Covaci A, University of Antwerp, Belgium; Caballero-Casero N, University of Cordoba, Spain.
LICENSE: CC BY
COPYRIGHT: Copyright (c) 2021 by Toxicological Center, University of Antwerp, Wilrijk, Belgium
COMMENT: CONFIDENCE Reference Standard (Level 1)
COMMENT: INTERNAL_ID 1141
COMMENT: HBM4EU - science and policy for a healthy future (https://www.hbm4eu.eu)
CH$NAME: 6-Hydroxy Monopropylheptylphthalate
CH$NAME: Monopropylheptylphthalate 6-Hydroxy
CH$NAME: 2-(6-hydroxy-2-propylheptoxy)carbonylbenzoic acid
CH$COMPOUND_CLASS: N/A; Environmental Standard
CH$FORMULA: C18H26O5
CH$EXACT_MASS: 322.1780
CH$SMILES: CCCC(CCCC(C)O)COC(=O)C1=CC=CC=C1C(=O)O
CH$IUPAC: InChI=1S/C18H26O5/c1-3-7-14(9-6-8-13(2)19)12-23-18(22)16-11-5-4-10-15(16)17(20)21/h4-5,10-11,13-14,19H,3,6-9,12H2,1-2H3,(H,20,21)
CH$LINK: PUBCHEM CID:131668311
CH$LINK: INCHIKEY KNDRVUYMYPIFIU-UHFFFAOYSA-N
CH$LINK: CHEMSPIDER 48062696
CH$LINK: COMPTOX DTXSID801009358
AC$INSTRUMENT: Agilent 6560 QTOF
AC$INSTRUMENT_TYPE: LC-ESI-QTOF
AC$MASS_SPECTROMETRY: MS_TYPE MS2
AC$MASS_SPECTROMETRY: ION_MODE NEGATIVE
AC$MASS_SPECTROMETRY: IONIZATION ESI
AC$MASS_SPECTROMETRY: FRAGMENTATION_MODE CID
AC$MASS_SPECTROMETRY: COLLISION_ENERGY 5 eV
AC$MASS_SPECTROMETRY: RESOLUTION 7000
AC$MASS_SPECTROMETRY: MASS_RANGE_M/Z 54-1479
AC$CHROMATOGRAPHY: COLUMN_NAME ZORBAX Extend-C18 3.5um, 2.1x50mm, Agilent Technologies
AC$CHROMATOGRAPHY: FLOW_GRADIENT 80/20 at 0 min, 80/20 at 0.5 min, 5/95 at 6 min, 5/95 at 7 min, 80/20 at 7.1 min, 80/20 at 10 min
AC$CHROMATOGRAPHY: FLOW_RATE 350 uL/min
AC$CHROMATOGRAPHY: RETENTION_TIME 4.248 min
MS$FOCUSED_ION: BASE_PEAK 321.1713
MS$FOCUSED_ION: PRECURSOR_M/Z 321.1707
MS$FOCUSED_ION: PRECURSOR_TYPE [M-H]-
MS$FOCUSED_ION: PRECURSOR_INTENSITY 107218.53
MS$DATA_PROCESSING: RECALIBRATE loess on assigned fragments and MS1
MS$DATA_PROCESSING: REANALYZE Peaks with additional N2/O included
MS$DATA_PROCESSING: WHOLE RMassBank 3.1.1
PK$SPLASH: splash10-00di-0609000000-b1b6a760cd60cbc8ba44
PK$ANNOTATION: m/z tentative_formula formula_count mass error(ppm)
  77.0401 C6H5- 1 77.0397 5.39
  111.1176 C8H15- 1 111.1179 -3.12
  121.0297 C7H5O2- 1 121.0295 1.61
  147.0097 C8H3O3- 1 147.0088 6.52
  171.1374 C10H19O2- 1 171.1391 -9.38
  173.1545 C10H21O2- 1 173.1547 -1.27
  321.1713 C18H25O5- 1 321.1707 1.61
PK$NUM_PEAK: 7
PK$PEAK: m/z int. rel.int.
  77.0401 3481.7 66
  111.1176 575.1 11
  121.0297 27962.1 536
  147.0097 614.1 11
  171.1374 1350.7 25
  173.1545 6668.4 128
  321.1713 52037 999
//
