ACCESSION: MSBNK-Antwerp_Univ-AN114929
RECORD_TITLE: Monocyclohexyl phthalate; LC-ESI-QTOF; MS2; CE: 25eV; R=7000; [M-H]-
DATE: 2021.08.06
AUTHORS: Belova L, Covaci A, University of Antwerp, Belgium; Caballero-Casero N, University of Cordoba, Spain.
LICENSE: CC BY
COPYRIGHT: Copyright (c) 2021 by Toxicological Center, University of Antwerp, Wilrijk, Belgium
COMMENT: CONFIDENCE Reference Standard (Level 1)
COMMENT: INTERNAL_ID 1149
COMMENT: HBM4EU - science and policy for a healthy future (https://www.hbm4eu.eu)
CH$NAME: Monocyclohexyl phthalate
CH$NAME: 2-cyclohexyloxycarbonylbenzoic acid
CH$COMPOUND_CLASS: N/A; Environmental Standard
CH$FORMULA: C14H16O4
CH$EXACT_MASS: 248.1049
CH$SMILES: C1CCC(CC1)OC(=O)C2=CC=CC=C2C(=O)O
CH$IUPAC: InChI=1S/C14H16O4/c15-13(16)11-8-4-5-9-12(11)14(17)18-10-6-2-1-3-7-10/h4-5,8-10H,1-3,6-7H2,(H,15,16)
CH$LINK: CAS 7517-36-4
CH$LINK: CHEBI CHEBI:132609
CH$LINK: PUBCHEM CID:165618
CH$LINK: INCHIKEY PMDKYLLIOLFQPO-UHFFFAOYSA-N
CH$LINK: CHEMSPIDER 145146
CH$LINK: COMPTOX DTXSID3052729
AC$INSTRUMENT: Agilent 6560 QTOF
AC$INSTRUMENT_TYPE: LC-ESI-QTOF
AC$MASS_SPECTROMETRY: MS_TYPE MS2
AC$MASS_SPECTROMETRY: ION_MODE NEGATIVE
AC$MASS_SPECTROMETRY: IONIZATION ESI
AC$MASS_SPECTROMETRY: FRAGMENTATION_MODE CID
AC$MASS_SPECTROMETRY: COLLISION_ENERGY 25 eV
AC$MASS_SPECTROMETRY: RESOLUTION 7000
AC$MASS_SPECTROMETRY: MASS_RANGE_M/Z 51-1483
AC$CHROMATOGRAPHY: FLOW_GRADIENT 50/50 isocratic
AC$CHROMATOGRAPHY: FLOW_RATE 200 uL/min
AC$CHROMATOGRAPHY: RETENTION_TIME 0.151 min
MS$FOCUSED_ION: BASE_PEAK 247.0985
MS$FOCUSED_ION: PRECURSOR_M/Z 247.0976
MS$FOCUSED_ION: PRECURSOR_TYPE [M-H]-
MS$FOCUSED_ION: PRECURSOR_INTENSITY 35630.21
MS$DATA_PROCESSING: RECALIBRATE loess on assigned fragments and MS1
MS$DATA_PROCESSING: REANALYZE Peaks with additional N2/O included
MS$DATA_PROCESSING: WHOLE RMassBank 3.1.1
PK$SPLASH: splash10-004j-9100000000-e7aeac3ec86548fab9b8
PK$ANNOTATION: m/z tentative_formula formula_count mass error(ppm)
  69.0345 C4H5O- 1 69.0346 -1.61
  75.0246 C6H3- 1 75.024 8.2
  77.0398 C6H5- 1 77.0397 1.63
  95.0508 C6H7O- 1 95.0502 5.72
  97.0661 C6H9O- 1 97.0659 2.32
  119.0138 C7H3O2- 1 119.0139 -0.78
  121.0292 C7H5O2- 1 121.0295 -2.72
  147.0091 C8H3O3- 1 147.0088 2.41
PK$NUM_PEAK: 8
PK$PEAK: m/z int. rel.int.
  69.0345 304.4 21
  75.0246 1913.8 135
  77.0398 14069.4 999
  95.0508 4082.7 289
  97.0661 5478.5 389
  119.0138 347.1 24
  121.0292 2142.4 152
  147.0091 737.1 52
//
