ACCESSION: MSBNK-Antwerp_Univ-METOX_N107326_B8BB
RECORD_TITLE: Palmitoleic acid; LC-ESI-QTOF; MS2; CE: 20eV; R=7000; [M-H]-
DATE: 2022.04.09
AUTHORS: da Silva KM, Iturrospe E, van de Lavoir M, Robeyns R, University of Antwerp, Belgium
LICENSE: CC BY
COPYRIGHT: Copyright (c) 2021 by Toxicological Center, University of Antwerp, Wilrijk, Belgium
COMMENT: CONFIDENCE Standard compound
COMMENT: INTERNAL_ID 1073
CH$NAME: Palmitoleic acid
CH$NAME: (Z)-hexadec-9-enoic acid
CH$COMPOUND_CLASS: N/A; Metabolomics Standard
CH$FORMULA: C16H30O2
CH$EXACT_MASS: 254.2246
CH$SMILES: CCCCCC\C=C/CCCCCCCC(O)=O
CH$IUPAC: InChI=1S/C16H30O2/c1-2-3-4-5-6-7-8-9-10-11-12-13-14-15-16(17)18/h7-8H,2-6,9-15H2,1H3,(H,17,18)/b8-7-
CH$LINK: CAS 373-49-9
CH$LINK: CHEBI CHEBI:28716
CH$LINK: KEGG C08362
CH$LINK: LIPIDMAPS LMFA01030056
CH$LINK: PUBCHEM CID:445638
CH$LINK: INCHIKEY SECPZKHBENQXJG-FPLPWBNLSA-N
CH$LINK: CHEMSPIDER 393216
AC$INSTRUMENT: Agilent 6560 QTOF
AC$INSTRUMENT_TYPE: LC-ESI-QTOF
AC$MASS_SPECTROMETRY: MS_TYPE MS2
AC$MASS_SPECTROMETRY: ION_MODE NEGATIVE
AC$MASS_SPECTROMETRY: IONIZATION ESI
AC$MASS_SPECTROMETRY: FRAGMENTATION_MODE CID
AC$MASS_SPECTROMETRY: COLLISION_ENERGY 20 eV
AC$MASS_SPECTROMETRY: RESOLUTION 7000
AC$MASS_SPECTROMETRY: MASS_RANGE_M/Z 112-1570
AC$CHROMATOGRAPHY: COLUMN_NAME N/A
AC$CHROMATOGRAPHY: FLOW_GRADIENT 50/50 isocratic
AC$CHROMATOGRAPHY: FLOW_RATE 200 uL/min
AC$CHROMATOGRAPHY: RETENTION_TIME 0.144 min
AC$CHROMATOGRAPHY: SOLVENT A 30/70 acetonitrile/water with 2mM ammonium acetate
AC$CHROMATOGRAPHY: SOLVENT B 88/10/2 isopropanol/acetonitrile/water with 2mM ammonium acetate
MS$FOCUSED_ION: BASE_PEAK 980.0164
MS$FOCUSED_ION: PRECURSOR_M/Z 253.2173
MS$FOCUSED_ION: PRECURSOR_TYPE [M-H]-
MS$FOCUSED_ION: PRECURSOR_INTENSITY 21062
MS$DATA_PROCESSING: RECALIBRATE loess on assigned fragments and MS1
MS$DATA_PROCESSING: REANALYZE Peaks with additional N2/O included
MS$DATA_PROCESSING: WHOLE RMassBank 3.5.2.1
PK$SPLASH: splash10-0udi-0190000000-45bd2b8877c15c5110fc
PK$ANNOTATION: m/z tentative_formula formula_count mass error(ppm)
  171.1368 C10H19O2- 1 171.1391 -13.34
  172.143 C10H20O2- 1 172.1469 -22.28
  173.0572 C11H9O2- 1 173.0608 -20.88
  235.2075 C16H27O- 1 235.2067 3.28
  253.2183 C16H29O2- 1 253.2173 3.95
PK$NUM_PEAK: 5
PK$PEAK: m/z int. rel.int.
  171.1368 78.8 32
  172.143 168 69
  173.0572 124.3 51
  235.2075 57.9 23
  253.2183 2410.1 999
//
