ACCESSION: MSBNK-Antwerp_Univ-AN118806
RECORD_TITLE: Tetrekis(2-chlorethyl) dichloroisopentyldiphosphate; LC-ESI-QTOF; MS2; CE: 30eV; R=7000; [M+H]+
DATE: 2021.08.09
AUTHORS: Belova L, Covaci A, University of Antwerp, Belgium; Caballero-Casero N, University of Cordoba, Spain.
LICENSE: CC BY
COPYRIGHT: Copyright (c) 2021 by Toxicological Center, University of Antwerp, Wilrijk, Belgium
COMMENT: CONFIDENCE Reference Standard (Level 1)
COMMENT: INTERNAL_ID 1188
COMMENT: HBM4EU - science and policy for a healthy future (https://www.hbm4eu.eu)
CH$NAME: Tetrekis(2-chlorethyl) dichloroisopentyldiphosphate
CH$NAME: Phosphoric acid, 2,2-bis(chloromethyl)-1,3-propanediyl tetrakis(2-chloroethyl) ester
CH$NAME: [2-[bis(2-chloroethoxy)phosphoryloxymethyl]-3-chloro-2-(chloromethyl)propyl] bis(2-chloroethyl) phosphate
CH$COMPOUND_CLASS: N/A; Environmental Standard
CH$FORMULA: C13H24Cl6O8P2
CH$EXACT_MASS: 579.9078
CH$SMILES: C(CCl)OP(=O)(OCCCl)OCC(COP(=O)(OCCCl)OCCCl)(CCl)CCl
CH$IUPAC: InChI=1S/C13H24Cl6O8P2/c14-1-5-22-28(20,23-6-2-15)26-11-13(9-18,10-19)12-27-29(21,24-7-3-16)25-8-4-17/h1-12H2
CH$LINK: CAS 6341-02-2
CH$LINK: PUBCHEM CID:92310
CH$LINK: INCHIKEY ZGHUDSLVQAGWEY-UHFFFAOYSA-N
CH$LINK: CHEMSPIDER 83339
CH$LINK: COMPTOX DTXSID8028000
AC$INSTRUMENT: Agilent 6560 QTOF
AC$INSTRUMENT_TYPE: LC-ESI-QTOF
AC$MASS_SPECTROMETRY: MS_TYPE MS2
AC$MASS_SPECTROMETRY: ION_MODE POSITIVE
AC$MASS_SPECTROMETRY: IONIZATION ESI
AC$MASS_SPECTROMETRY: FRAGMENTATION_MODE CID
AC$MASS_SPECTROMETRY: COLLISION_ENERGY 30 eV
AC$MASS_SPECTROMETRY: RESOLUTION 7000
AC$MASS_SPECTROMETRY: MASS_RANGE_M/Z 63-882
AC$CHROMATOGRAPHY: FLOW_GRADIENT 50/50 isocratic
AC$CHROMATOGRAPHY: FLOW_RATE 200 uL/min
AC$CHROMATOGRAPHY: RETENTION_TIME 0.146 min
MS$FOCUSED_ION: BASE_PEAK 604.8951
MS$FOCUSED_ION: PRECURSOR_M/Z 580.915
MS$FOCUSED_ION: PRECURSOR_TYPE [M+H]+
MS$FOCUSED_ION: PRECURSOR_INTENSITY 14521.62
MS$DATA_PROCESSING: RECALIBRATE loess on assigned fragments and MS1
MS$DATA_PROCESSING: REANALYZE Peaks with additional N2/O included
MS$DATA_PROCESSING: WHOLE RMassBank 3.1.1
PK$SPLASH: splash10-001j-3191000000-f8bde842bbb1bba62376
PK$ANNOTATION: m/z tentative_formula formula_count mass error(ppm)
  63.0006 C2H4Cl+ 2 62.9996 15.45
  65.0385 C5H5+ 1 65.0386 -1.94
  74.9995 C2H4OP+ 2 74.9994 1.14
  98.9837 H4O4P+ 2 98.9842 -4.27
  101.0145 C4H6OP+ 2 101.0151 -5.52
  124.9992 C2H6O4P+ 3 124.9998 -4.83
  160.9763 CH7O5P2+ 5 160.9763 -0.4
  234.9691 C6H10Cl3O3+ 11 234.969 0.54
  296.9606 C6H13Cl2O5P2+ 17 296.961 -1.41
  358.9532 C8H16Cl3O5P2+ 17 358.9533 -0.36
PK$NUM_PEAK: 10
PK$PEAK: m/z int. rel.int.
  63.0006 762.1 152
  65.0385 1033 207
  74.9995 243.9 48
  98.9837 801.5 160
  101.0145 238 47
  124.9992 228 45
  160.9763 490.5 98
  234.9691 4976.8 999
  296.9606 2235.9 448
  358.9532 1068.1 214
//
