ACCESSION: MSBNK-Antwerp_Univ-AN120327
RECORD_TITLE: Bisphenol B; LC-ESI-QTOF; MS2; CE: 15eV; R=7000; [M-H]-
DATE: 2021.08.11
AUTHORS: Belova L, Covaci A, University of Antwerp, Belgium; Caballero-Casero N, University of Cordoba, Spain.
LICENSE: CC BY
COPYRIGHT: Copyright (c) 2021 by Toxicological Center, University of Antwerp, Wilrijk, Belgium
COMMENT: CONFIDENCE Reference Standard (Level 1)
COMMENT: INTERNAL_ID 1203
COMMENT: HBM4EU - science and policy for a healthy future (https://www.hbm4eu.eu)
CH$NAME: Bisphenol B
CH$NAME: 4-[2-(4-hydroxyphenyl)butan-2-yl]phenol
CH$COMPOUND_CLASS: N/A; Environmental Standard
CH$FORMULA: C16H18O2
CH$EXACT_MASS: 242.1307
CH$SMILES: CCC(C)(C1=CC=C(C=C1)O)C2=CC=C(C=C2)O
CH$IUPAC: InChI=1S/C16H18O2/c1-3-16(2,12-4-8-14(17)9-5-12)13-6-10-15(18)11-7-13/h4-11,17-18H,3H2,1-2H3
CH$LINK: CAS 77-40-7
CH$LINK: CHEBI CHEBI:34581
CH$LINK: KEGG C14225
CH$LINK: PUBCHEM CID:66166
CH$LINK: INCHIKEY HTVITOHKHWFJKO-UHFFFAOYSA-N
CH$LINK: CHEMSPIDER 59553
CH$LINK: COMPTOX DTXSID4022442
AC$INSTRUMENT: Agilent 6560 QTOF
AC$INSTRUMENT_TYPE: LC-ESI-QTOF
AC$MASS_SPECTROMETRY: MS_TYPE MS2
AC$MASS_SPECTROMETRY: ION_MODE NEGATIVE
AC$MASS_SPECTROMETRY: IONIZATION ESI
AC$MASS_SPECTROMETRY: FRAGMENTATION_MODE CID
AC$MASS_SPECTROMETRY: COLLISION_ENERGY 15 eV
AC$MASS_SPECTROMETRY: RESOLUTION 7000
AC$MASS_SPECTROMETRY: MASS_RANGE_M/Z 73-1388
AC$CHROMATOGRAPHY: COLUMN_NAME ZORBAX Extend-C18 3.5um, 2.1x50mm, Agilent Technologies
AC$CHROMATOGRAPHY: FLOW_GRADIENT 80/20 at 0 min, 80/20 at 0.5 min, 5/95 at 6 min, 5/95 at 7 min, 80/20 at 7.1 min, 80/20 at 10 min
AC$CHROMATOGRAPHY: FLOW_RATE 350 uL/min
AC$CHROMATOGRAPHY: RETENTION_TIME 3.441 min
MS$FOCUSED_ION: BASE_PEAK 982.9905
MS$FOCUSED_ION: PRECURSOR_M/Z 241.1234
MS$FOCUSED_ION: PRECURSOR_TYPE [M-H]-
MS$FOCUSED_ION: PRECURSOR_INTENSITY 20176.72
MS$DATA_PROCESSING: RECALIBRATE loess on assigned fragments and MS1
MS$DATA_PROCESSING: REANALYZE Peaks with additional N2/O included
MS$DATA_PROCESSING: WHOLE RMassBank 3.1.1
PK$SPLASH: splash10-03di-0090000000-45061769442ecc9c777f
PK$ANNOTATION: m/z tentative_formula formula_count mass error(ppm)
  147.081 C10H11O- 1 147.0815 -3.61
  211.078 C14H11O2- 1 211.0765 7.26
  212.0837 C14H12O2- 1 212.0843 -2.56
  213.0902 C14H13O2- 1 213.0921 -8.71
  226.1009 C15H14O2- 1 226.0999 4.23
  241.1235 C16H17O2- 1 241.1234 0.58
PK$NUM_PEAK: 6
PK$PEAK: m/z int. rel.int.
  147.081 483.7 67
  211.078 2982.7 419
  212.0837 7111 999
  213.0902 562.8 79
  226.1009 530.7 74
  241.1235 4426.4 621
//
