ACCESSION: MSBNK-Antwerp_Univ-METOX_N104326_9CB7
RECORD_TITLE: Behenic acid; LC-ESI-QTOF; MS2; CE: 10eV; R=7000; [M-H]-
DATE: 2022.04.09
AUTHORS: da Silva KM, Iturrospe E, van de Lavoir M, Robeyns R, University of Antwerp, Belgium
LICENSE: CC BY
COPYRIGHT: Copyright (c) 2021 by Toxicological Center, University of Antwerp, Wilrijk, Belgium
COMMENT: CONFIDENCE Standard compound
COMMENT: INTERNAL_ID 1043
CH$NAME: Behenic acid
CH$NAME: docosanoic acid
CH$COMPOUND_CLASS: N/A; Metabolomics Standard
CH$FORMULA: C22H44O2
CH$EXACT_MASS: 340.3341
CH$SMILES: CCCCCCCCCCCCCCCCCCCCCC(=O)O
CH$IUPAC: InChI=1S/C22H44O2/c1-2-3-4-5-6-7-8-9-10-11-12-13-14-15-16-17-18-19-20-21-22(23)24/h2-21H2,1H3,(H,23,24)
CH$LINK: CAS 505-56-6
CH$LINK: CHEBI CHEBI:28941
CH$LINK: KEGG C08281
CH$LINK: LIPIDMAPS LMFA01010022
CH$LINK: PUBCHEM CID:8215
CH$LINK: INCHIKEY UKMSUNONTOPOIO-UHFFFAOYSA-N
CH$LINK: CHEMSPIDER 7923
AC$INSTRUMENT: Agilent 6560 QTOF
AC$INSTRUMENT_TYPE: LC-ESI-QTOF
AC$MASS_SPECTROMETRY: MS_TYPE MS2
AC$MASS_SPECTROMETRY: ION_MODE NEGATIVE
AC$MASS_SPECTROMETRY: IONIZATION ESI
AC$MASS_SPECTROMETRY: FRAGMENTATION_MODE CID
AC$MASS_SPECTROMETRY: COLLISION_ENERGY 10 eV
AC$MASS_SPECTROMETRY: RESOLUTION 7000
AC$MASS_SPECTROMETRY: MASS_RANGE_M/Z 101-1598
AC$CHROMATOGRAPHY: COLUMN_NAME N/A
AC$CHROMATOGRAPHY: FLOW_GRADIENT 50/50 isocratic
AC$CHROMATOGRAPHY: FLOW_RATE 200 uL/min
AC$CHROMATOGRAPHY: RETENTION_TIME 0.143 min
AC$CHROMATOGRAPHY: SOLVENT A 30/70 acetonitrile/water with 2mM ammonium acetate
AC$CHROMATOGRAPHY: SOLVENT B 88/10/2 isopropanol/acetonitrile/water with 2mM ammonium acetate
MS$FOCUSED_ION: BASE_PEAK 339.3284
MS$FOCUSED_ION: PRECURSOR_M/Z 339.3269
MS$FOCUSED_ION: PRECURSOR_TYPE [M-H]-
MS$FOCUSED_ION: PRECURSOR_INTENSITY 393575
MS$DATA_PROCESSING: RECALIBRATE loess on assigned fragments and MS1
MS$DATA_PROCESSING: REANALYZE Peaks with additional N2/O included
MS$DATA_PROCESSING: WHOLE RMassBank 3.5.2.1
PK$SPLASH: splash10-000i-0009000000-08299627fcd784d945cf
PK$ANNOTATION: m/z tentative_formula formula_count mass error(ppm)
  101.2462 C3H33O2- 1 101.2486 -23.93
  319.2998 C22H39O- 1 319.3006 -2.69
  337.3147 C22H41O2- 1 337.3112 10.27
  339.3281 C22H43O2- 1 339.3269 3.63
PK$NUM_PEAK: 4
PK$PEAK: m/z int. rel.int.
  101.2462 167.3 2
  319.2998 99.4 1
  337.3147 130.4 2
  339.3281 64295.2 999
//
