ACCESSION: MSBNK-Antwerp_Univ-METOX_N107919_CC60
RECORD_TITLE: 1,2-dihexadecanoyl-sn-glycero-3-phosphoethanolamine; LC-ESI-QTOF; MS2; CE: 20eV; R=7000; [M+Na]+
DATE: 2022.04.07
AUTHORS: da Silva KM, Iturrospe E, van de Lavoir M, Robeyns R, University of Antwerp, Belgium
LICENSE: CC BY
COPYRIGHT: Copyright (c) 2021 by Toxicological Center, University of Antwerp, Wilrijk, Belgium
COMMENT: CONFIDENCE Standard compound
COMMENT: INTERNAL_ID 1079
CH$NAME: 1,2-dihexadecanoyl-sn-glycero-3-phosphoethanolamine
CH$NAME: 1,2-Dipalmitoyl-sn-glycero-3-phosphoethanolamine
CH$NAME: [(2R)-3-[2-aminoethoxy(hydroxy)phosphoryl]oxy-2-hexadecanoyloxypropyl] hexadecanoate
CH$COMPOUND_CLASS: N/A; Metabolomics Standard
CH$FORMULA: C37H74NO8P
CH$EXACT_MASS: 691.5152
CH$SMILES: CCCCCCCCCCCCCCCC(=O)OC[C@H](COP(=O)(O)OCCN)OC(=O)CCCCCCCCCCCCCCC
CH$IUPAC: InChI=1S/C37H74NO8P/c1-3-5-7-9-11-13-15-17-19-21-23-25-27-29-36(39)43-33-35(34-45-47(41,42)44-32-31-38)46-37(40)30-28-26-24-22-20-18-16-14-12-10-8-6-4-2/h35H,3-34,38H2,1-2H3,(H,41,42)/t35-/m1/s1
CH$LINK: CAS 923-61-5
CH$LINK: CHEBI CHEBI:73005
CH$LINK: LIPIDMAPS LMGP02010037
CH$LINK: PUBCHEM CID:445468
CH$LINK: INCHIKEY SLKDGVPOSSLUAI-PGUFJCEWSA-N
CH$LINK: CHEMSPIDER 393103
AC$INSTRUMENT: Agilent 6560 QTOF
AC$INSTRUMENT_TYPE: LC-ESI-QTOF
AC$MASS_SPECTROMETRY: MS_TYPE MS2
AC$MASS_SPECTROMETRY: ION_MODE POSITIVE
AC$MASS_SPECTROMETRY: IONIZATION ESI
AC$MASS_SPECTROMETRY: FRAGMENTATION_MODE CID
AC$MASS_SPECTROMETRY: COLLISION_ENERGY 20 eV
AC$MASS_SPECTROMETRY: RESOLUTION 7000
AC$MASS_SPECTROMETRY: MASS_RANGE_M/Z 120-716
AC$CHROMATOGRAPHY: COLUMN_NAME Direct injection
AC$CHROMATOGRAPHY: FLOW_GRADIENT 50/50 isocratic
AC$CHROMATOGRAPHY: FLOW_RATE 200 uL/min
AC$CHROMATOGRAPHY: RETENTION_TIME 0.238 min
AC$CHROMATOGRAPHY: SOLVENT A 30/70 acetonitrile/water with 2mM ammonium acetate + 0.1% acetic acid
AC$CHROMATOGRAPHY: SOLVENT B 88/10/2 isopropanol/acetonitrile/water with 2mM ammonium acetate + 0.1% acetic acid
MS$FOCUSED_ION: BASE_PEAK 692.5243
MS$FOCUSED_ION: PRECURSOR_M/Z 714.5044
MS$FOCUSED_ION: PRECURSOR_TYPE [M+Na]+
MS$FOCUSED_ION: PRECURSOR_INTENSITY 14713
MS$DATA_PROCESSING: RECALIBRATE loess on assigned fragments and MS1
MS$DATA_PROCESSING: REANALYZE Peaks with additional N2/O included
MS$DATA_PROCESSING: WHOLE RMassBank 3.5.2.1
PK$SPLASH: splash10-03k9-0900032300-068fdac95cc22cf12f72
PK$ANNOTATION: m/z tentative_formula formula_count mass error(ppm)
  120.9644 H3NaO4P+ 1 120.9661 -13.89
  121.0793 C5H14OP+ 1 121.0777 13.44
  164.008 C6H5NaO4+ 6 164.008 -0.04
  239.234 C14H32NaO+ 7 239.2345 -2.29
  338.9678 C21NaO4+ 7 338.9689 -3.22
  572.9367 C34HNNaO6P+ 2 572.9434 -11.58
  573.4884 C33H68NO4P+ 14 573.488 0.59
  610.9392 C37HNaO7P+ 1 610.9352 6.55
  632.9663 C36H5NNaO8P+ 2 632.9645 2.9
  671.4659 C37H68O8P+ 4 671.4646 1.85
  672.4676 C35H70NaO8P+ 4 672.4701 -3.6
  714.5059 C37H74NNaO8P+ 1 714.5044 2.11
PK$NUM_PEAK: 12
PK$PEAK: m/z int. rel.int.
  120.9644 237 176
  121.0793 47 35
  164.008 1341.4 999
  239.234 47 35
  338.9678 78.3 58
  572.9367 45.1 33
  573.4884 520.2 387
  610.9392 49.2 36
  632.9663 68.1 50
  671.4659 295.1 219
  672.4676 69.1 51
  714.5059 621.3 462
//
