ACCESSION: MSBNK-Antwerp_Univ-AN116330
RECORD_TITLE: 2-Ethyl-4-hydroxyhexylsalicylate; LC-ESI-QTOF; MS2; CE: 30eV; R=7000; [M-H]-
DATE: 2021.08.06
AUTHORS: Belova L, Covaci A, University of Antwerp, Belgium; Caballero-Casero N, University of Cordoba, Spain.
LICENSE: CC BY
COPYRIGHT: Copyright (c) 2021 by Toxicological Center, University of Antwerp, Wilrijk, Belgium
COMMENT: CONFIDENCE Reference Standard (Level 1)
COMMENT: INTERNAL_ID 1163
COMMENT: HBM4EU - science and policy for a healthy future (https://www.hbm4eu.eu)
CH$NAME: 2-Ethyl-4-hydroxyhexylsalicylate
CH$COMPOUND_CLASS: N/A; Environmental Standard
CH$FORMULA: C15H22O4
CH$EXACT_MASS: 266.1518
CH$SMILES: CCC(O)CC(CC)COC(=O)c1ccccc1O
CH$IUPAC: InChI=1S/C15H22O4/c1-3-11(9-12(16)4-2)10-19-15(18)13-7-5-6-8-14(13)17/h5-8,11-12,16-17H,3-4,9-10H2,1-2H3
CH$LINK: INCHIKEY RRYJOTVSZOKNQZ-UHFFFAOYSA-N
AC$INSTRUMENT: Agilent 6560 QTOF
AC$INSTRUMENT_TYPE: LC-ESI-QTOF
AC$MASS_SPECTROMETRY: MS_TYPE MS2
AC$MASS_SPECTROMETRY: ION_MODE NEGATIVE
AC$MASS_SPECTROMETRY: IONIZATION ESI
AC$MASS_SPECTROMETRY: FRAGMENTATION_MODE CID
AC$MASS_SPECTROMETRY: COLLISION_ENERGY 30 eV
AC$MASS_SPECTROMETRY: RESOLUTION 7000
AC$MASS_SPECTROMETRY: MASS_RANGE_M/Z 50-1499
AC$CHROMATOGRAPHY: COLUMN_NAME ZORBAX Extend-C18 3.5um, 2.1x50mm, Agilent Technologies
AC$CHROMATOGRAPHY: FLOW_GRADIENT 80/20 at 0 min, 80/20 at 0.5 min, 5/95 at 6 min, 5/95 at 7 min, 80/20 at 7.1 min, 80/20 at 10 min
AC$CHROMATOGRAPHY: FLOW_RATE 350 uL/min
AC$CHROMATOGRAPHY: RETENTION_TIME 7.448 min
MS$FOCUSED_ION: BASE_PEAK 982.99
MS$FOCUSED_ION: PRECURSOR_M/Z 265.1445
MS$FOCUSED_ION: PRECURSOR_TYPE [M-H]-
MS$FOCUSED_ION: PRECURSOR_INTENSITY 34334.31
MS$DATA_PROCESSING: RECALIBRATE loess on assigned fragments and MS1
MS$DATA_PROCESSING: REANALYZE Peaks with additional N2/O included
MS$DATA_PROCESSING: WHOLE RMassBank 3.1.1
PK$SPLASH: splash10-0006-9100000000-6a55fbdf53d0f7aacdf0
PK$ANNOTATION: m/z tentative_formula formula_count mass error(ppm)
  57.0355 C3H5O- 1 57.0346 16.67
  65.0405 C5H5- 1 65.0397 12.49
  83.0499 C5H7O- 1 83.0502 -3.74
  91.0184 C6H3O- 1 91.0189 -5.66
  93.0351 C6H5O- 1 93.0346 5.07
  137.0247 C7H5O3- 1 137.0244 2.26
PK$NUM_PEAK: 6
PK$PEAK: m/z int. rel.int.
  57.0355 775.1 34
  65.0405 473.2 20
  83.0499 216.9 9
  91.0184 251.4 11
  93.0351 22662.1 999
  137.0247 2731.9 120
//
