ACCESSION: MSBNK-Antwerp_Univ-METOX_N108316_CC60
RECORD_TITLE: Prostaglandin A1; LC-ESI-QTOF; MS2; CE: 20eV; R=7000; [M+Na]+
DATE: 2022.04.07
AUTHORS: da Silva KM, Iturrospe E, van de Lavoir M, Robeyns R, University of Antwerp, Belgium
LICENSE: CC BY
COPYRIGHT: Copyright (c) 2021 by Toxicological Center, University of Antwerp, Wilrijk, Belgium
COMMENT: CONFIDENCE Standard compound
COMMENT: INTERNAL_ID 1083
CH$NAME: Prostaglandin A1
CH$NAME: 7-[(1R,2S)-2-[(E,3S)-3-hydroxyoct-1-enyl]-5-oxocyclopent-3-en-1-yl]heptanoic acid
CH$COMPOUND_CLASS: N/A; Metabolomics Standard
CH$FORMULA: C20H32O4
CH$EXACT_MASS: 336.2301
CH$SMILES: CCCCC[C@@H](/C=C/[C@H]1C=CC(=O)[C@@H]1CCCCCCC(=O)O)O
CH$IUPAC: InChI=1S/C20H32O4/c1-2-3-6-9-17(21)14-12-16-13-15-19(22)18(16)10-7-4-5-8-11-20(23)24/h12-18,21H,2-11H2,1H3,(H,23,24)/b14-12+/t16-,17-,18+/m0/s1
CH$LINK: CAS 14152-28-4
CH$LINK: CHEBI CHEBI:15545
CH$LINK: LIPIDMAPS LMFA03010005
CH$LINK: PUBCHEM CID:5281912
CH$LINK: INCHIKEY BGKHCLZFGPIKKU-LDDQNKHRSA-N
CH$LINK: CHEMSPIDER 4445196
AC$INSTRUMENT: Agilent 6560 QTOF
AC$INSTRUMENT_TYPE: LC-ESI-QTOF
AC$MASS_SPECTROMETRY: MS_TYPE MS2
AC$MASS_SPECTROMETRY: ION_MODE POSITIVE
AC$MASS_SPECTROMETRY: IONIZATION ESI
AC$MASS_SPECTROMETRY: FRAGMENTATION_MODE CID
AC$MASS_SPECTROMETRY: COLLISION_ENERGY 20 eV
AC$MASS_SPECTROMETRY: RESOLUTION 7000
AC$MASS_SPECTROMETRY: MASS_RANGE_M/Z 91-361
AC$CHROMATOGRAPHY: COLUMN_NAME Direct injection
AC$CHROMATOGRAPHY: FLOW_GRADIENT 50/50 isocratic
AC$CHROMATOGRAPHY: FLOW_RATE 200 uL/min
AC$CHROMATOGRAPHY: RETENTION_TIME 0.184 min
AC$CHROMATOGRAPHY: SOLVENT A 30/70 acetonitrile/water with 2mM ammonium acetate + 0.1% acetic acid
AC$CHROMATOGRAPHY: SOLVENT B 88/10/2 isopropanol/acetonitrile/water with 2mM ammonium acetate + 0.1% acetic acid
MS$FOCUSED_ION: BASE_PEAK 301.2171
MS$FOCUSED_ION: PRECURSOR_M/Z 359.2193
MS$FOCUSED_ION: PRECURSOR_TYPE [M+Na]+
MS$FOCUSED_ION: PRECURSOR_INTENSITY 13766
MS$DATA_PROCESSING: RECALIBRATE loess on assigned fragments and MS1
MS$DATA_PROCESSING: REANALYZE Peaks with additional N2/O included
MS$DATA_PROCESSING: WHOLE RMassBank 3.5.2.1
PK$SPLASH: splash10-0a4i-1019000000-28cb9938e54c86df7534
PK$ANNOTATION: m/z tentative_formula formula_count mass error(ppm)
  91.0539 C7H7+ 2 91.0542 -3.62
  117.0701 C9H9+ 2 117.0699 1.83
  149.083 C6H13O4+ 1 149.0808 14.31
  209.0634 C14H9O2+ 1 209.0597 17.63
  211.1324 C12H19O3+ 2 211.1329 -2.14
  213.0724 C17H9+ 2 213.0699 11.65
  341.2095 C20H30NaO3+ 1 341.2087 2.22
  342.2082 C20H31NaO3+ 1 342.2165 -24.41
  359.2206 C20H32NaO4+ 1 359.2193 3.64
PK$NUM_PEAK: 9
PK$PEAK: m/z int. rel.int.
  91.0539 339.1 134
  117.0701 68.4 27
  149.083 67.2 26
  209.0634 77.5 30
  211.1324 159.9 63
  213.0724 98 38
  341.2095 134 53
  342.2082 26.1 10
  359.2206 2523.3 999
//
