ACCESSION: MSBNK-Antwerp_Univ-AN111314
RECORD_TITLE: Tributyl acetylcitrate; LC-ESI-QTOF; MS2; CE: 10eV; R=7000; [M+Na]+
DATE: 2021.08.01
AUTHORS: Belova L, Covaci A, University of Antwerp, Belgium; Caballero-Casero N, University of Cordoba, Spain.
LICENSE: CC BY
COPYRIGHT: Copyright (c) 2021 by Toxicological Center, University of Antwerp, Wilrijk, Belgium
COMMENT: CONFIDENCE Reference Standard (Level 1)
COMMENT: INTERNAL_ID 1113
COMMENT: HBM4EU - science and policy for a healthy future (https://www.hbm4eu.eu)
CH$NAME: Tributyl acetylcitrate
CH$NAME: Acetyl tributyl citrate
CH$NAME: tributyl 2-acetyloxypropane-1,2,3-tricarboxylate
CH$COMPOUND_CLASS: N/A; Environmental Standard
CH$FORMULA: C20H34O8
CH$EXACT_MASS: 402.2254
CH$SMILES: CCCCOC(=O)CC(CC(=O)OCCCC)(C(=O)OCCCC)OC(=O)C
CH$IUPAC: InChI=1S/C20H34O8/c1-5-8-11-25-17(22)14-20(28-16(4)21,19(24)27-13-10-7-3)15-18(23)26-12-9-6-2/h5-15H2,1-4H3
CH$LINK: CAS 77-90-7
CH$LINK: CHEBI CHEBI:168067
CH$LINK: PUBCHEM CID:6505
CH$LINK: INCHIKEY QZCLKYGREBVARF-UHFFFAOYSA-N
CH$LINK: CHEMSPIDER 6259
CH$LINK: COMPTOX DTXSID2026446
AC$INSTRUMENT: Agilent 6560 QTOF
AC$INSTRUMENT_TYPE: LC-ESI-QTOF
AC$MASS_SPECTROMETRY: MS_TYPE MS2
AC$MASS_SPECTROMETRY: ION_MODE POSITIVE
AC$MASS_SPECTROMETRY: IONIZATION ESI
AC$MASS_SPECTROMETRY: FRAGMENTATION_MODE CID
AC$MASS_SPECTROMETRY: COLLISION_ENERGY 10 eV
AC$MASS_SPECTROMETRY: RESOLUTION 7000
AC$MASS_SPECTROMETRY: MASS_RANGE_M/Z 106-1011
AC$CHROMATOGRAPHY: FLOW_GRADIENT 50/50 isocratic
AC$CHROMATOGRAPHY: FLOW_RATE 200 uL/min
AC$CHROMATOGRAPHY: RETENTION_TIME 0.148 min
MS$FOCUSED_ION: BASE_PEAK 425.219
MS$FOCUSED_ION: PRECURSOR_M/Z 425.2146
MS$FOCUSED_ION: PRECURSOR_TYPE [M+Na]+
MS$FOCUSED_ION: PRECURSOR_INTENSITY 872445.13
MS$DATA_PROCESSING: RECALIBRATE loess on assigned fragments and MS1
MS$DATA_PROCESSING: REANALYZE Peaks with additional N2/O included
MS$DATA_PROCESSING: WHOLE RMassBank 3.1.1
PK$SPLASH: splash10-004i-0000900000-ae3eda95fbfeecddd7a5
PK$ANNOTATION: m/z tentative_formula formula_count mass error(ppm)
  281.1366 C13H22NaO5+ 3 281.1359 2.32
  282.1398 C20H19Na+ 3 282.1379 6.58
  309.1314 C14H22NaO6+ 2 309.1309 1.69
  327.1417 C14H24NaO7+ 2 327.1414 0.69
  365.1943 C18H30NaO6+ 2 365.1935 2.28
  366.1962 C18H31NaO6+ 2 366.2013 -13.78
  369.1524 C16H26NaO8+ 2 369.152 1.2
  383.2039 C18H32NaO7+ 2 383.204 -0.34
  425.2157 C20H34NaO8+ 1 425.2146 2.66
PK$NUM_PEAK: 9
PK$PEAK: m/z int. rel.int.
  281.1366 10452 14
  282.1398 946.4 1
  309.1314 1723.2 2
  327.1417 1237.9 1
  365.1943 51381 73
  366.1962 6269.5 8
  369.1524 2710 3
  383.2039 1162.5 1
  425.2157 699703.9 999
//
