ACCESSION: MSBNK-Antwerp_Univ-AN112605
RECORD_TITLE: Diisodecyl phthalate ; LC-ESI-QTOF; MS2; CE: 25eV; R=7000; [M+H]+
DATE: 2021.08.02
AUTHORS: Belova L, Covaci A, University of Antwerp, Belgium; Caballero-Casero N, University of Cordoba, Spain.
LICENSE: CC BY
COPYRIGHT: Copyright (c) 2021 by Toxicological Center, University of Antwerp, Wilrijk, Belgium
COMMENT: CONFIDENCE Reference Standard (Level 1)
COMMENT: INTERNAL_ID 1126
COMMENT: HBM4EU - science and policy for a healthy future (https://www.hbm4eu.eu)
CH$NAME: Diisodecyl phthalate 
CH$NAME: Diisodecyl phthalate
CH$NAME: bis(8-methylnonyl) benzene-1,2-dicarboxylate
CH$COMPOUND_CLASS: N/A; Environmental Standard
CH$FORMULA: C28H46O4
CH$EXACT_MASS: 446.3396
CH$SMILES: CC(C)CCCCCCCOC(=O)C1=CC=CC=C1C(=O)OCCCCCCCC(C)C
CH$IUPAC: InChI=1S/C28H46O4/c1-23(2)17-11-7-5-9-15-21-31-27(29)25-19-13-14-20-26(25)28(30)32-22-16-10-6-8-12-18-24(3)4/h13-14,19-20,23-24H,5-12,15-18,21-22H2,1-4H3
CH$LINK: CAS 89-16-7
CH$LINK: CHEBI CHEBI:34709
CH$LINK: KEGG C14578
CH$LINK: PUBCHEM CID:33599
CH$LINK: INCHIKEY ZVFDTKUVRCTHQE-UHFFFAOYSA-N
CH$LINK: CHEMSPIDER 30996
CH$LINK: COMPTOX DTXSID50274032
AC$INSTRUMENT: Agilent 6560 QTOF
AC$INSTRUMENT_TYPE: LC-ESI-QTOF
AC$MASS_SPECTROMETRY: MS_TYPE MS2
AC$MASS_SPECTROMETRY: ION_MODE POSITIVE
AC$MASS_SPECTROMETRY: IONIZATION ESI
AC$MASS_SPECTROMETRY: FRAGMENTATION_MODE CID
AC$MASS_SPECTROMETRY: COLLISION_ENERGY 25 eV
AC$MASS_SPECTROMETRY: RESOLUTION 7000
AC$MASS_SPECTROMETRY: MASS_RANGE_M/Z 57-1145
AC$CHROMATOGRAPHY: FLOW_GRADIENT 50/50 isocratic
AC$CHROMATOGRAPHY: FLOW_RATE 200 uL/min
AC$CHROMATOGRAPHY: RETENTION_TIME 0.147 min
MS$FOCUSED_ION: BASE_PEAK 469.3293
MS$FOCUSED_ION: PRECURSOR_M/Z 447.3469
MS$FOCUSED_ION: PRECURSOR_TYPE [M+H]+
MS$FOCUSED_ION: PRECURSOR_INTENSITY 34604.61
MS$DATA_PROCESSING: RECALIBRATE loess on assigned fragments and MS1
MS$DATA_PROCESSING: REANALYZE Peaks with additional N2/O included
MS$DATA_PROCESSING: WHOLE RMassBank 3.1.1
PK$SPLASH: splash10-0aba-9200000000-5ba62ce13ecb7b56b45d
PK$ANNOTATION: m/z tentative_formula formula_count mass error(ppm)
  57.07 C4H9+ 1 57.0699 2.42
  71.0856 C5H11+ 1 71.0855 1.24
  85.1008 C6H13+ 1 85.1012 -4.97
  93.0346 C6H5O+ 1 93.0335 12.27
  149.0225 C8H5O3+ 1 149.0233 -5.23
PK$NUM_PEAK: 5
PK$PEAK: m/z int. rel.int.
  57.07 11744 999
  71.0856 7137.6 607
  85.1008 4979 423
  93.0346 333 28
  149.0225 7688.3 653
//
