ACCESSION: MSBNK-Antwerp_Univ-AN113525
RECORD_TITLE: Mono(2-ethylhexyl) terephthalate; LC-ESI-QTOF; MS2; CE: 5eV; R=7000; [M-H]-
DATE: 2021.08.06
AUTHORS: Belova L, Covaci A, University of Antwerp, Belgium; Caballero-Casero N, University of Cordoba, Spain.
LICENSE: CC BY
COPYRIGHT: Copyright (c) 2021 by Toxicological Center, University of Antwerp, Wilrijk, Belgium
COMMENT: CONFIDENCE Reference Standard (Level 1)
COMMENT: INTERNAL_ID 1135
COMMENT: HBM4EU - science and policy for a healthy future (https://www.hbm4eu.eu)
CH$NAME: Mono(2-ethylhexyl) terephthalate
CH$NAME: 4-(2-ethylhexoxycarbonyl)benzoic acid
CH$COMPOUND_CLASS: N/A; Environmental Standard
CH$FORMULA: C16H22O4
CH$EXACT_MASS: 278.1518
CH$SMILES: CCCCC(CC)COC(=O)C1=CC=C(C=C1)C(=O)O
CH$IUPAC: InChI=1S/C16H22O4/c1-3-5-6-12(4-2)11-20-16(19)14-9-7-13(8-10-14)15(17)18/h7-10,12H,3-6,11H2,1-2H3,(H,17,18)
CH$LINK: CAS 155603-50-2
CH$LINK: CHEBI CHEBI:165208
CH$LINK: PUBCHEM CID:154683
CH$LINK: INCHIKEY HRUJAEJKCNCOGW-UHFFFAOYSA-N
CH$LINK: CHEMSPIDER 136267
CH$LINK: COMPTOX DTXSID80935240
AC$INSTRUMENT: Agilent 6560 QTOF
AC$INSTRUMENT_TYPE: LC-ESI-QTOF
AC$MASS_SPECTROMETRY: MS_TYPE MS2
AC$MASS_SPECTROMETRY: ION_MODE NEGATIVE
AC$MASS_SPECTROMETRY: IONIZATION ESI
AC$MASS_SPECTROMETRY: FRAGMENTATION_MODE CID
AC$MASS_SPECTROMETRY: COLLISION_ENERGY 5 eV
AC$MASS_SPECTROMETRY: RESOLUTION 7000
AC$MASS_SPECTROMETRY: MASS_RANGE_M/Z 51-1497
AC$CHROMATOGRAPHY: FLOW_GRADIENT 50/50 isocratic
AC$CHROMATOGRAPHY: FLOW_RATE 200 uL/min
AC$CHROMATOGRAPHY: RETENTION_TIME 0.148 min
MS$FOCUSED_ION: BASE_PEAK 277.1463
MS$FOCUSED_ION: PRECURSOR_M/Z 277.1445
MS$FOCUSED_ION: PRECURSOR_TYPE [M-H]-
MS$FOCUSED_ION: PRECURSOR_INTENSITY 321976.4
MS$DATA_PROCESSING: RECALIBRATE loess on assigned fragments and MS1
MS$DATA_PROCESSING: REANALYZE Peaks with additional N2/O included
MS$DATA_PROCESSING: WHOLE RMassBank 3.1.1
PK$SPLASH: splash10-0059-0090000000-87c2ba4c78484eecc30d
PK$ANNOTATION: m/z tentative_formula formula_count mass error(ppm)
  76.0316 C6H4- 1 76.0318 -3.82
  77.0402 C6H5- 1 77.0397 6.74
  120.0211 C7H4O2- 1 120.0217 -4.64
  121.0296 C7H5O2- 1 121.0295 0.55
  203.1431 C14H19O- 1 203.1441 -5.32
  233.1554 C15H21O2- 1 233.1547 2.96
  277.1451 C16H21O4- 1 277.1445 2.11
PK$NUM_PEAK: 7
PK$PEAK: m/z int. rel.int.
  76.0316 2917.5 18
  77.0402 277.2 1
  120.0211 5977.5 38
  121.0296 3955.4 25
  203.1431 209 1
  233.1554 125691.8 806
  277.1451 155760.2 999
//
