ACCESSION: MSBNK-Antwerp_Univ-METOX_N100101_F638
RECORD_TITLE: SPHINGOMYELIN; LC-ESI-QTOF; MS2; CE: 10eV; R=5000; [M+H]+
DATE: 2022.03.23
AUTHORS: da Silva KM, Iturrospe E, van de Lavoir M, Robeyns R, University of Antwerp, Belgium
LICENSE: CC BY
COPYRIGHT: Copyright (c) 2021 by Toxicological Center, University of Antwerp, Wilrijk, Belgium
COMMENT: CONFIDENCE Standard compound
COMMENT: INTERNAL_ID 1001
CH$NAME: SPHINGOMYELIN
CH$NAME: N-(octadecanoyl)-sphing-4-enine-1-phosphocholine
CH$NAME: [(E,2S,3R)-3-hydroxy-2-(octadecanoylamino)octadec-4-enyl] 2-(trimethylazaniumyl)ethyl phosphate
CH$COMPOUND_CLASS: N/A; Metabolomics Standard
CH$FORMULA: C41H83N2O6P
CH$EXACT_MASS: 730.5989
CH$SMILES: C[N+](C)(C)CCOP([O-])(=O)OC[C@H](NC(=O)CCCCCCCCCCCCCCCCC)[C@H](O)\C=C\CCCCCCCCCCCCC
CH$IUPAC: InChI=1S/C41H83N2O6P/c1-6-8-10-12-14-16-18-20-21-23-25-27-29-31-33-35-41(45)42-39(38-49-50(46,47)48-37-36-43(3,4)5)40(44)34-32-30-28-26-24-22-19-17-15-13-11-9-7-2/h32,34,39-40,44H,6-31,33,35-38H2,1-5H3,(H-,42,45,46,47)/b34-32+/t39-,40+/m0/s1
CH$LINK: CAS 58909-84-5
CH$LINK: CHEBI CHEBI:83358
CH$LINK: LIPIDMAPS LMSP03010001
CH$LINK: PUBCHEM CID:6453725
CH$LINK: INCHIKEY LKQLRGMMMAHREN-YJFXYUILSA-N
CH$LINK: CHEMSPIDER 4956085
AC$INSTRUMENT: Agilent 6560 QTOF
AC$INSTRUMENT_TYPE: LC-ESI-QTOF
AC$MASS_SPECTROMETRY: MS_TYPE MS2
AC$MASS_SPECTROMETRY: ION_MODE POSITIVE
AC$MASS_SPECTROMETRY: IONIZATION ESI
AC$MASS_SPECTROMETRY: FRAGMENTATION_MODE CID
AC$MASS_SPECTROMETRY: COLLISION_ENERGY 10 eV
AC$MASS_SPECTROMETRY: RESOLUTION 5000
AC$MASS_SPECTROMETRY: MASS_RANGE_M/Z 86-1577
AC$CHROMATOGRAPHY: COLUMN_NAME N/A
AC$CHROMATOGRAPHY: FLOW_GRADIENT 50/50 isocratic
AC$CHROMATOGRAPHY: FLOW_RATE 200 uL/min
AC$CHROMATOGRAPHY: RETENTION_TIME 17.709 min
AC$CHROMATOGRAPHY: SOLVENT A 30/70 acetonitrile/water with 2mM ammonium acetate + 0.1% acetic acid
AC$CHROMATOGRAPHY: SOLVENT B 88/10/2 isopropanol/acetonitrile/water with 2mM ammonium acetate + 0.1% acetic acid
MS$FOCUSED_ION: BASE_PEAK 388.3953
MS$FOCUSED_ION: PRECURSOR_M/Z 731.6062
MS$FOCUSED_ION: PRECURSOR_TYPE [M+H]+
MS$FOCUSED_ION: PRECURSOR_INTENSITY 90286
MS$DATA_PROCESSING: RECALIBRATE loess on assigned fragments and MS1
MS$DATA_PROCESSING: REANALYZE Peaks with additional N2/O included
MS$DATA_PROCESSING: WHOLE RMassBank 3.5.2.1
PK$SPLASH: splash10-001i-0900000000-372ac35630b69f66c500
PK$ANNOTATION: m/z tentative_formula formula_count mass error(ppm)
  86.0963 C5H12N+ 2 86.0964 -1.5
  104.1075 CH17N2OP+ 2 104.1073 2.27
  125.0011 C2H6O4P+ 4 124.9998 9.87
  184.0729 C9H12O4+ 5 184.073 -0.41
  185.0762 C4H13N2O6+ 2 185.0768 -3.49
  197.6303 C3H83NO4+ 2 197.6317 -7.05
  265.286 C12H42O3P+ 6 265.2866 -2.43
  507.29 C31H42NO3P+ 12 507.2897 0.65
  679.3876 C39H56N2O6P+ 2 679.3871 0.86
  713.6029 C41H82N2O5P+ 1 713.5956 10.3
  714.6028 C41H83N2O5P+ 1 714.6034 -0.82
  731.6098 C41H84N2O6P+ 1 731.6062 5.02
PK$NUM_PEAK: 12
PK$PEAK: m/z int. rel.int.
  86.0963 595.9 27
  104.1075 436.1 20
  125.0011 227.2 10
  184.0729 21294 999
  185.0762 1218.7 57
  197.6303 22.8 1
  265.286 124 5
  507.29 42.7 2
  679.3876 25.2 1
  713.6029 248.2 11
  714.6028 104.2 4
  731.6098 1170.5 54
//
