ACCESSION: MSBNK-Antwerp_Univ-AN115525
RECORD_TITLE: Mono-hydroxy-isononyl phthalate; LC-ESI-QTOF; MS2; CE: 5eV; R=7000; [M-H]-
DATE: 2021.08.06
AUTHORS: Belova L, Covaci A, University of Antwerp, Belgium; Caballero-Casero N, University of Cordoba, Spain.
LICENSE: CC BY
COPYRIGHT: Copyright (c) 2021 by Toxicological Center, University of Antwerp, Wilrijk, Belgium
COMMENT: CONFIDENCE Reference Standard (Level 1)
COMMENT: INTERNAL_ID 1155
COMMENT: HBM4EU - science and policy for a healthy future (https://www.hbm4eu.eu)
CH$NAME: Mono-hydroxy-isononyl phthalate
CH$NAME: 1,2-Benzenedicarboxylic Acid 1-(7-Hydroxy-4-methyloctyl) Ester
CH$NAME: 2-(7-hydroxy-4-methyloctoxy)carbonylbenzoic acid
CH$COMPOUND_CLASS: N/A; Environmental Standard
CH$FORMULA: C17H24O5
CH$EXACT_MASS: 308.1624
CH$SMILES: CC(O)CCC(C)CCCOC(=O)C1=CC=CC=C1C(O)=O
CH$IUPAC: InChI=1S/C17H24O5/c1-12(9-10-13(2)18)6-5-11-22-17(21)15-8-4-3-7-14(15)16(19)20/h3-4,7-8,12-13,18H,5-6,9-11H2,1-2H3,(H,19,20)
CH$LINK: PUBCHEM CID:102401880
CH$LINK: INCHIKEY RWCHSWLUPRJYEX-UHFFFAOYSA-N
CH$LINK: CHEMSPIDER 48059182
CH$LINK: COMPTOX DTXSID501009361
AC$INSTRUMENT: Agilent 6560 QTOF
AC$INSTRUMENT_TYPE: LC-ESI-QTOF
AC$MASS_SPECTROMETRY: MS_TYPE MS2
AC$MASS_SPECTROMETRY: ION_MODE NEGATIVE
AC$MASS_SPECTROMETRY: IONIZATION ESI
AC$MASS_SPECTROMETRY: FRAGMENTATION_MODE CID
AC$MASS_SPECTROMETRY: COLLISION_ENERGY 5 eV
AC$MASS_SPECTROMETRY: RESOLUTION 7000
AC$MASS_SPECTROMETRY: MASS_RANGE_M/Z 51-1499
AC$CHROMATOGRAPHY: COLUMN_NAME ZORBAX Extend-C18 3.5um, 2.1x50mm, Agilent Technologies
AC$CHROMATOGRAPHY: FLOW_GRADIENT 80/20 at 0 min, 80/20 at 0.5 min, 5/95 at 6 min, 5/95 at 7 min, 80/20 at 7.1 min, 80/20 at 10 min
AC$CHROMATOGRAPHY: FLOW_RATE 350 uL/min
AC$CHROMATOGRAPHY: RETENTION_TIME 3.734 min
MS$FOCUSED_ION: BASE_PEAK 307.1555
MS$FOCUSED_ION: PRECURSOR_M/Z 307.1551
MS$FOCUSED_ION: PRECURSOR_TYPE [M-H]-
MS$FOCUSED_ION: PRECURSOR_INTENSITY 143972.87
MS$DATA_PROCESSING: RECALIBRATE loess on assigned fragments and MS1
MS$DATA_PROCESSING: REANALYZE Peaks with additional N2/O included
MS$DATA_PROCESSING: WHOLE RMassBank 3.1.1
PK$SPLASH: splash10-0ab9-0609000000-7ea039c02bd8b2bff452
PK$ANNOTATION: m/z tentative_formula formula_count mass error(ppm)
  77.0398 C6H5- 1 77.0397 1.5
  121.0294 C7H5O2- 1 121.0295 -1.16
  147.0079 C8H3O3- 1 147.0088 -5.73
  157.1234 C9H17O2- 1 157.1234 -0.16
  159.139 C9H19O2- 1 159.1391 -0.1
  307.1555 C17H23O5- 1 307.1551 1.39
PK$NUM_PEAK: 6
PK$PEAK: m/z int. rel.int.
  77.0398 3708.3 53
  121.0294 39708.2 575
  147.0079 407.5 5
  157.1234 3097.9 44
  159.139 8451 122
  307.1555 68915.7 999
//
