ACCESSION: MSBNK-Antwerp_Univ-METOX_P100802_F638
RECORD_TITLE: HOMOCYSTEINE; LC-ESI-QTOF; MS2; CE: 10eV; R=5000; [M+H]+
DATE: 2021.12.13
AUTHORS: da Silva KM, Iturrospe E, van de Lavoir M, Robeyns R, University of Antwerp, Belgium
LICENSE: CC BY
COPYRIGHT: Copyright (c) 2021 by Toxicological Center, University of Antwerp, Wilrijk, Belgium
COMMENT: CONFIDENCE Standard compound
COMMENT: INTERNAL_ID 1008
CH$NAME: HOMOCYSTEINE
CH$NAME: DL-Homocysteine
CH$NAME: 2-amino-4-sulfanylbutanoic acid
CH$COMPOUND_CLASS: N/A; Metabolomics Standard
CH$FORMULA: C4H9NO2S
CH$EXACT_MASS: 135.0354
CH$SMILES: C(CS)C(C(=O)O)N
CH$IUPAC: InChI=1S/C4H9NO2S/c5-3(1-2-8)4(6)7/h3,8H,1-2,5H2,(H,6,7)
CH$LINK: CAS 454-29-5
CH$LINK: CHEBI CHEBI:58065
CH$LINK: KEGG C05330
CH$LINK: PUBCHEM CID:778
CH$LINK: INCHIKEY FFFHZYDWPBMWHY-UHFFFAOYSA-N
CH$LINK: CHEMSPIDER 757
AC$INSTRUMENT: Agilent 6530 QTOF
AC$INSTRUMENT_TYPE: LC-ESI-QTOF
AC$MASS_SPECTROMETRY: MS_TYPE MS2
AC$MASS_SPECTROMETRY: ION_MODE POSITIVE
AC$MASS_SPECTROMETRY: IONIZATION ESI
AC$MASS_SPECTROMETRY: FRAGMENTATION_MODE CID
AC$MASS_SPECTROMETRY: COLLISION_ENERGY 10 eV
AC$MASS_SPECTROMETRY: RESOLUTION 5000
AC$MASS_SPECTROMETRY: MASS_RANGE_M/Z 40-997
AC$CHROMATOGRAPHY: COLUMN_NAME N/A
AC$CHROMATOGRAPHY: FLOW_GRADIENT 50/50 isocratic
AC$CHROMATOGRAPHY: FLOW_RATE 200 uL/min
AC$CHROMATOGRAPHY: RETENTION_TIME 0.256 min
AC$CHROMATOGRAPHY: SOLVENT A 90/10 water with 10mM ammonium formate + 0.1% formic acid/methanol
AC$CHROMATOGRAPHY: SOLVENT B acetonitrile
MS$FOCUSED_ION: BASE_PEAK 242.284
MS$FOCUSED_ION: PRECURSOR_M/Z 136.0427
MS$FOCUSED_ION: PRECURSOR_TYPE [M+H]+
MS$FOCUSED_ION: PRECURSOR_INTENSITY 65407
MS$DATA_PROCESSING: RECALIBRATE loess on assigned fragments and MS1
MS$DATA_PROCESSING: REANALYZE Peaks with additional N2/O included
MS$DATA_PROCESSING: WHOLE RMassBank 3.4.0
PK$SPLASH: splash10-0a4l-9000000000-c609e76f2835b81b0142
PK$ANNOTATION: m/z tentative_formula formula_count mass error(ppm)
  44.0492 C2H6N+ 1 44.0495 -7.14
  46.9948 CH3S+ 1 46.995 -4.42
  56.0487 C3H6N+ 1 56.0495 -13.92
  66.0542 CH8NO2+ 1 66.055 -11.71
  74.0236 C2H4NO2+ 1 74.0237 -0.12
  90.0366 C3H8NS+ 1 90.0372 -6.94
  118.0305 C4H8NOS+ 1 118.0321 -13.73
  119.0419 C4H9NOS+ 1 119.0399 16.52
PK$NUM_PEAK: 8
PK$PEAK: m/z int. rel.int.
  44.0492 139 43
  46.9948 660 204
  56.0487 3220.4 999
  66.0542 21 6
  74.0236 66 20
  90.0366 1854.7 575
  118.0305 202.7 62
  119.0419 4.1 1
//
