ACCESSION: MSBNK-Antwerp_Univ-AN113104
RECORD_TITLE: 3,5-Ditert-butyl-4-hydroxybenzaldehyde; LC-ESI-QTOF; MS2; CE: 20eV; R=7000; [M+H]+
DATE: 2021.08.05
AUTHORS: Belova L, Covaci A, University of Antwerp, Belgium; Caballero-Casero N, University of Cordoba, Spain.
LICENSE: CC BY
COPYRIGHT: Copyright (c) 2021 by Toxicological Center, University of Antwerp, Wilrijk, Belgium
COMMENT: CONFIDENCE Reference Standard (Level 1)
COMMENT: INTERNAL_ID 1131
COMMENT: HBM4EU - science and policy for a healthy future (https://www.hbm4eu.eu)
CH$NAME: 3,5-Ditert-butyl-4-hydroxybenzaldehyde
CH$NAME: 3,5-Di-tert-butyl-4-hydroxybenzaldehyde
CH$COMPOUND_CLASS: N/A; Environmental Standard
CH$FORMULA: C15H22O2
CH$EXACT_MASS: 234.162
CH$SMILES: CC(C)(C)C1=CC(=CC(=C1O)C(C)(C)C)C=O
CH$IUPAC: InChI=1S/C15H22O2/c1-14(2,3)11-7-10(9-16)8-12(13(11)17)15(4,5)6/h7-9,17H,1-6H3
CH$LINK: CAS 1620-98-0
CH$LINK: CHEBI CHEBI:170060
CH$LINK: PUBCHEM CID:73219
CH$LINK: INCHIKEY DOZRDZLFLOODMB-UHFFFAOYSA-N
CH$LINK: CHEMSPIDER 65974
CH$LINK: COMPTOX DTXSID7057658
AC$INSTRUMENT: Agilent 6560 QTOF
AC$INSTRUMENT_TYPE: LC-ESI-QTOF
AC$MASS_SPECTROMETRY: MS_TYPE MS2
AC$MASS_SPECTROMETRY: ION_MODE POSITIVE
AC$MASS_SPECTROMETRY: IONIZATION ESI
AC$MASS_SPECTROMETRY: FRAGMENTATION_MODE CID
AC$MASS_SPECTROMETRY: COLLISION_ENERGY 20 eV
AC$MASS_SPECTROMETRY: RESOLUTION 7000
AC$MASS_SPECTROMETRY: MASS_RANGE_M/Z 57-1130
AC$CHROMATOGRAPHY: COLUMN_NAME ZORBAX Extend-C18 3.5um, 2.1x50mm, Agilent Technologies
AC$CHROMATOGRAPHY: FLOW_GRADIENT 80/20 at 0 min, 80/20 at 0.5 min, 5/95 at 6 min, 5/95 at 7 min, 80/20 at 7.1 min, 80/20 at 10 min
AC$CHROMATOGRAPHY: FLOW_RATE 350 uL/min
AC$CHROMATOGRAPHY: RETENTION_TIME 5.549 min
MS$FOCUSED_ION: BASE_PEAK 235.1694
MS$FOCUSED_ION: PRECURSOR_M/Z 235.1693
MS$FOCUSED_ION: PRECURSOR_TYPE [M+H]+
MS$FOCUSED_ION: PRECURSOR_INTENSITY 12097.98
MS$DATA_PROCESSING: RECALIBRATE loess on assigned fragments and MS1
MS$DATA_PROCESSING: REANALYZE Peaks with additional N2/O included
MS$DATA_PROCESSING: WHOLE RMassBank 3.1.1
PK$SPLASH: splash10-0a4i-9310000000-14b849dc45f50bc66954
PK$ANNOTATION: m/z tentative_formula formula_count mass error(ppm)
  57.0705 C4H9+ 1 57.0699 10.21
  95.048 C6H7O+ 1 95.0491 -12.16
  123.043 C7H7O2+ 1 123.0441 -8.86
  179.1072 C11H15O2+ 1 179.1067 3.2
  235.1697 C15H23O2+ 1 235.1693 1.95
PK$NUM_PEAK: 5
PK$PEAK: m/z int. rel.int.
  57.0705 6531 999
  95.048 303.7 46
  123.043 260.3 39
  179.1072 2590.2 396
  235.1697 959.5 146
//
