ACCESSION: MSBNK-Antwerp_Univ-AN113627
RECORD_TITLE: Mono(2-ethyl-5-hydroxyhexyl) terephthalate; LC-ESI-QTOF; MS2; CE: 15eV; R=7000; [M-H]-
DATE: 2021.08.06
AUTHORS: Belova L, Covaci A, University of Antwerp, Belgium; Caballero-Casero N, University of Cordoba, Spain.
LICENSE: CC BY
COPYRIGHT: Copyright (c) 2021 by Toxicological Center, University of Antwerp, Wilrijk, Belgium
COMMENT: CONFIDENCE Reference Standard (Level 1)
COMMENT: INTERNAL_ID 1136
COMMENT: HBM4EU - science and policy for a healthy future (https://www.hbm4eu.eu)
CH$NAME: Mono(2-ethyl-5-hydroxyhexyl) terephthalate
CH$NAME: 4-(2-ethyl-5-hydroxyhexoxy)carbonylbenzoic acid
CH$COMPOUND_CLASS: N/A; Environmental Standard
CH$FORMULA: C16H22O5
CH$EXACT_MASS: 294.1467
CH$SMILES: CCC(CCC(C)O)COC(=O)c1ccc(C(=O)O)cc1
CH$IUPAC: InChI=1S/C16H22O5/c1-3-12(5-4-11(2)17)10-21-16(20)14-8-6-13(7-9-14)15(18)19/h6-9,11-12,17H,3-5,10H2,1-2H3,(H,18,19)
CH$LINK: PUBCHEM CID:155898867
CH$LINK: INCHIKEY ODRKAFOVPBFSIN-UHFFFAOYSA-N
CH$LINK: CHEMSPIDER 95725027
AC$INSTRUMENT: Agilent 6560 QTOF
AC$INSTRUMENT_TYPE: LC-ESI-QTOF
AC$MASS_SPECTROMETRY: MS_TYPE MS2
AC$MASS_SPECTROMETRY: ION_MODE NEGATIVE
AC$MASS_SPECTROMETRY: IONIZATION ESI
AC$MASS_SPECTROMETRY: FRAGMENTATION_MODE CID
AC$MASS_SPECTROMETRY: COLLISION_ENERGY 15 eV
AC$MASS_SPECTROMETRY: RESOLUTION 7000
AC$MASS_SPECTROMETRY: MASS_RANGE_M/Z 52-1478
AC$CHROMATOGRAPHY: FLOW_GRADIENT 50/50 isocratic
AC$CHROMATOGRAPHY: FLOW_RATE 200 uL/min
AC$CHROMATOGRAPHY: RETENTION_TIME 0.153 min
MS$FOCUSED_ION: BASE_PEAK 293.1408
MS$FOCUSED_ION: PRECURSOR_M/Z 293.1394
MS$FOCUSED_ION: PRECURSOR_TYPE [M-H]-
MS$FOCUSED_ION: PRECURSOR_INTENSITY 126732.11
MS$DATA_PROCESSING: RECALIBRATE loess on assigned fragments and MS1
MS$DATA_PROCESSING: REANALYZE Peaks with additional N2/O included
MS$DATA_PROCESSING: WHOLE RMassBank 3.1.1
PK$SPLASH: splash10-00di-4900000000-8509e4e25491eba99cc9
PK$ANNOTATION: m/z tentative_formula formula_count mass error(ppm)
  77.0395 C6H5- 1 77.0397 -1.63
  121.0292 C7H5O2- 1 121.0295 -2.59
  220.1469 C14H20O2- 1 220.1469 0.18
  221.1548 C14H21O2- 1 221.1547 0.36
  236.1057 C13H16O4- 1 236.1054 1.38
  293.1382 C16H21O5- 1 293.1394 -4.19
PK$NUM_PEAK: 6
PK$PEAK: m/z int. rel.int.
  77.0395 33048.2 473
  121.0292 69699.3 999
  220.1469 687.8 9
  221.1548 1350.9 19
  236.1057 359.3 5
  293.1382 3038 43
//
