ACCESSION: MSBNK-Antwerp_Univ-AN124829
RECORD_TITLE: 5-Methylbenzotriazole; LC-ESI-QTOF; MS2; CE: 25eV; R=7000; [M-H]-
DATE: 2021.08.13
AUTHORS: Belova L, Covaci A, University of Antwerp, Belgium; Caballero-Casero N, University of Cordoba, Spain.
LICENSE: CC BY
COPYRIGHT: Copyright (c) 2021 by Toxicological Center, University of Antwerp, Wilrijk, Belgium
COMMENT: CONFIDENCE Reference Standard (Level 1)
COMMENT: INTERNAL_ID 1248
COMMENT: HBM4EU - science and policy for a healthy future (https://www.hbm4eu.eu)
CH$NAME: 5-Methylbenzotriazole
CH$NAME: 5-Methyl-1H-benzotriazole
CH$NAME: 5-methyl-2H-benzotriazole
CH$COMPOUND_CLASS: N/A; Environmental Standard
CH$FORMULA: C7H7N3
CH$EXACT_MASS: 133.0640
CH$SMILES: CC1=CC2=NNN=C2C=C1
CH$IUPAC: InChI=1S/C7H7N3/c1-5-2-3-6-7(4-5)9-10-8-6/h2-4H,1H3,(H,8,9,10)
CH$LINK: CAS 136-85-6
CH$LINK: CHEBI CHEBI:83455
CH$LINK: PUBCHEM CID:8705
CH$LINK: INCHIKEY LRUDIIUSNGCQKF-UHFFFAOYSA-N
CH$LINK: CHEMSPIDER 8381
CH$LINK: COMPTOX DTXSID1038743
AC$INSTRUMENT: Agilent 6560 QTOF
AC$INSTRUMENT_TYPE: LC-ESI-QTOF
AC$MASS_SPECTROMETRY: MS_TYPE MS2
AC$MASS_SPECTROMETRY: ION_MODE NEGATIVE
AC$MASS_SPECTROMETRY: IONIZATION ESI
AC$MASS_SPECTROMETRY: FRAGMENTATION_MODE CID
AC$MASS_SPECTROMETRY: COLLISION_ENERGY 25 eV
AC$MASS_SPECTROMETRY: RESOLUTION 7000
AC$MASS_SPECTROMETRY: MASS_RANGE_M/Z 50-1483
AC$CHROMATOGRAPHY: FLOW_GRADIENT 50/50 isocratic
AC$CHROMATOGRAPHY: FLOW_RATE 200 uL/min
AC$CHROMATOGRAPHY: RETENTION_TIME 0.189 min
MS$FOCUSED_ION: BASE_PEAK 132.0567
MS$FOCUSED_ION: PRECURSOR_M/Z 132.0567
MS$FOCUSED_ION: PRECURSOR_TYPE [M-H]-
MS$FOCUSED_ION: PRECURSOR_INTENSITY 12755.69
MS$DATA_PROCESSING: RECALIBRATE loess on assigned fragments and MS1
MS$DATA_PROCESSING: REANALYZE Peaks with additional N2/O included
MS$DATA_PROCESSING: WHOLE RMassBank 3.1.1
PK$SPLASH: splash10-03di-9500000000-d7569d2c6ffbe2962a42
PK$ANNOTATION: m/z tentative_formula formula_count mass error(ppm)
  64.0193 C4H2N- 1 64.0193 0.15
  88.0177 C6H2N- 1 88.0193 -17.68
  89.0273 C6H3N- 1 89.0271 2.72
  102.0354 C7H4N- 1 102.0349 4.47
  103.0425 C7H5N- 1 103.0427 -2.88
  104.0496 C7H6N- 1 104.0506 -9.66
  132.0563 C7H6N3- 1 132.0567 -3.38
PK$NUM_PEAK: 7
PK$PEAK: m/z int. rel.int.
  64.0193 4587.1 999
  88.0177 256.6 55
  89.0273 798.3 173
  102.0354 642.5 139
  103.0425 771.2 167
  104.0496 507.1 110
  132.0563 1438.7 313
//
