ACCESSION: MSBNK-Antwerp_Univ-AN124708
RECORD_TITLE: 4-Methylbenzotriazole; LC-ESI-QTOF; MS2; CE: 40eV; R=7000; [M+H]+
DATE: 2021.08.12
AUTHORS: Belova L, Covaci A, University of Antwerp, Belgium; Caballero-Casero N, University of Cordoba, Spain.
LICENSE: CC BY
COPYRIGHT: Copyright (c) 2021 by Toxicological Center, University of Antwerp, Wilrijk, Belgium
COMMENT: CONFIDENCE Reference Standard (Level 1)
COMMENT: INTERNAL_ID 1247
COMMENT: HBM4EU - science and policy for a healthy future (https://www.hbm4eu.eu)
CH$NAME: 4-Methylbenzotriazole
CH$NAME: 4-Methyl-1H-benzotriazole
CH$NAME: 4-methyl-2H-benzotriazole
CH$COMPOUND_CLASS: N/A; Environmental Standard
CH$FORMULA: C7H7N3
CH$EXACT_MASS: 133.0640
CH$SMILES: CC1=CC=CC2=NNN=C12
CH$IUPAC: InChI=1S/C7H7N3/c1-5-3-2-4-6-7(5)9-10-8-6/h2-4H,1H3,(H,8,9,10)
CH$LINK: CAS 29878-31-7
CH$LINK: PUBCHEM CID:122499
CH$LINK: INCHIKEY CMGDVUCDZOBDNL-UHFFFAOYSA-N
CH$LINK: CHEMSPIDER 109219
CH$LINK: COMPTOX DTXSID50274037
AC$INSTRUMENT: Agilent 6560 QTOF
AC$INSTRUMENT_TYPE: LC-ESI-QTOF
AC$MASS_SPECTROMETRY: MS_TYPE MS2
AC$MASS_SPECTROMETRY: ION_MODE POSITIVE
AC$MASS_SPECTROMETRY: IONIZATION ESI
AC$MASS_SPECTROMETRY: FRAGMENTATION_MODE CID
AC$MASS_SPECTROMETRY: COLLISION_ENERGY 40 eV
AC$MASS_SPECTROMETRY: RESOLUTION 7000
AC$MASS_SPECTROMETRY: MASS_RANGE_M/Z 50-811
AC$CHROMATOGRAPHY: FLOW_GRADIENT 50/50 isocratic
AC$CHROMATOGRAPHY: FLOW_RATE 200 uL/min
AC$CHROMATOGRAPHY: RETENTION_TIME 0.146 min
MS$FOCUSED_ION: BASE_PEAK 134.0712
MS$FOCUSED_ION: PRECURSOR_M/Z 134.0713
MS$FOCUSED_ION: PRECURSOR_TYPE [M+H]+
MS$FOCUSED_ION: PRECURSOR_INTENSITY 35824.38
MS$DATA_PROCESSING: RECALIBRATE loess on assigned fragments and MS1
MS$DATA_PROCESSING: REANALYZE Peaks with additional N2/O included
MS$DATA_PROCESSING: WHOLE RMassBank 3.1.1
PK$SPLASH: splash10-0ufr-9000000000-2b4393c89350769e2b1d
PK$ANNOTATION: m/z tentative_formula formula_count mass error(ppm)
  51.0231 C4H3+ 1 51.0229 3.97
  53.0382 C4H5+ 1 53.0386 -7.84
  54.0344 C3H4N+ 1 54.0338 9.99
  63.0227 C5H3+ 1 63.0229 -2.83
  65.0386 C5H5+ 1 65.0386 -0.36
  66.0461 C5H6+ 1 66.0464 -4.4
  67.0407 C4H5N+ 1 67.0417 -14.02
  75.0217 C6H3+ 1 75.0229 -16.74
  77.0386 C6H5+ 1 77.0386 0.86
  79.0537 C6H7+ 1 79.0542 -6.13
  80.0503 C5H6N+ 1 80.0495 10.11
  104.0483 C7H6N+ 1 104.0495 -10.93
  105.0439 C6H5N2+ 1 105.0447 -8.27
PK$NUM_PEAK: 13
PK$PEAK: m/z int. rel.int.
  51.0231 14187.4 999
  53.0382 1282.9 90
  54.0344 466.4 32
  63.0227 1054.2 74
  65.0386 1267.6 89
  66.0461 652.8 45
  67.0407 301.2 21
  75.0217 229.9 16
  77.0386 12567.2 884
  79.0537 407 28
  80.0503 357.8 25
  104.0483 391.1 27
  105.0439 229.1 16
//
