ACCESSION: MSBNK-Antwerp_Univ-AN114329
RECORD_TITLE: Mono(2-propyl-6-carboxyhexyl) phthalate; LC-ESI-QTOF; MS2; CE: 25eV; R=7000; [M-H]-
DATE: 2021.08.05
AUTHORS: Belova L, Covaci A, University of Antwerp, Belgium; Caballero-Casero N, University of Cordoba, Spain.
LICENSE: CC BY
COPYRIGHT: Copyright (c) 2021 by Toxicological Center, University of Antwerp, Wilrijk, Belgium
COMMENT: CONFIDENCE Reference Standard (Level 1)
COMMENT: INTERNAL_ID 1143
COMMENT: HBM4EU - science and policy for a healthy future (https://www.hbm4eu.eu)
CH$NAME: Mono(2-propyl-6-carboxyhexyl) phthalate
CH$NAME: 2-(((6-Carboxy-2-propylhexyl)oxy)carbonyl)benzoic acid
CH$NAME: 2-(6-carboxy-2-propylhexoxy)carbonylbenzoic acid
CH$COMPOUND_CLASS: N/A; Environmental Standard
CH$FORMULA: C18H24O6
CH$EXACT_MASS: 336.1573
CH$SMILES: CCCC(CCCCC(=O)O)COC(=O)c1ccccc1C(=O)O
CH$IUPAC: InChI=1S/C18H24O6/c1-2-7-13(8-3-6-11-16(19)20)12-24-18(23)15-10-5-4-9-14(15)17(21)22/h4-5,9-10,13H,2-3,6-8,11-12H2,1H3,(H,19,20)(H,21,22)
CH$LINK: PUBCHEM CID:139036037
CH$LINK: INCHIKEY DPQMLPCFIOCYFY-UHFFFAOYSA-N
AC$INSTRUMENT: Agilent 6560 QTOF
AC$INSTRUMENT_TYPE: LC-ESI-QTOF
AC$MASS_SPECTROMETRY: MS_TYPE MS2
AC$MASS_SPECTROMETRY: ION_MODE NEGATIVE
AC$MASS_SPECTROMETRY: IONIZATION ESI
AC$MASS_SPECTROMETRY: FRAGMENTATION_MODE CID
AC$MASS_SPECTROMETRY: COLLISION_ENERGY 25 eV
AC$MASS_SPECTROMETRY: RESOLUTION 7000
AC$MASS_SPECTROMETRY: MASS_RANGE_M/Z 53-1485
AC$CHROMATOGRAPHY: COLUMN_NAME ZORBAX Extend-C18 3.5um, 2.1x50mm, Agilent Technologies
AC$CHROMATOGRAPHY: FLOW_GRADIENT 80/20 at 0 min, 80/20 at 0.5 min, 5/95 at 6 min, 5/95 at 7 min, 80/20 at 7.1 min, 80/20 at 10 min
AC$CHROMATOGRAPHY: FLOW_RATE 350 uL/min
AC$CHROMATOGRAPHY: RETENTION_TIME 2.845 min
MS$FOCUSED_ION: BASE_PEAK 335.1505
MS$FOCUSED_ION: PRECURSOR_M/Z 335.15
MS$FOCUSED_ION: PRECURSOR_TYPE [M-H]-
MS$FOCUSED_ION: PRECURSOR_INTENSITY 70915.82
MS$DATA_PROCESSING: RECALIBRATE loess on assigned fragments and MS1
MS$DATA_PROCESSING: REANALYZE Peaks with additional N2/O included
MS$DATA_PROCESSING: WHOLE RMassBank 3.1.1
PK$SPLASH: splash10-009i-2900000000-27926da0ca1312c9613b
PK$ANNOTATION: m/z tentative_formula formula_count mass error(ppm)
  77.0401 C6H5- 1 77.0397 5.75
  121.0294 C7H5O2- 1 121.0295 -0.83
  139.1127 C9H15O- 1 139.1128 -1
  141.128 C9H17O- 1 141.1285 -3.35
  147.0081 C8H3O3- 1 147.0088 -4.54
  151.1112 C10H15O- 1 151.1128 -10.78
  165.0211 C8H5O4- 1 165.0193 10.85
  169.1239 C10H17O2- 1 169.1234 3.18
  185.1183 C10H17O3- 1 185.1183 -0.09
  187.1341 C10H19O3- 1 187.134 0.57
PK$NUM_PEAK: 10
PK$PEAK: m/z int. rel.int.
  77.0401 11316.6 504
  121.0294 11275.9 502
  139.1127 512.5 22
  141.128 9749.6 434
  147.0081 455.9 20
  151.1112 681.7 30
  165.0211 392.1 17
  169.1239 449.4 20
  185.1183 868.7 38
  187.1341 22409 999
//
