ACCESSION: MSBNK-Antwerp_Univ-AN116326
RECORD_TITLE: 2-Ethyl-4-hydroxyhexylsalicylate; LC-ESI-QTOF; MS2; CE: 10eV; R=7000; [M-H]-
DATE: 2021.08.06
AUTHORS: Belova L, Covaci A, University of Antwerp, Belgium; Caballero-Casero N, University of Cordoba, Spain.
LICENSE: CC BY
COPYRIGHT: Copyright (c) 2021 by Toxicological Center, University of Antwerp, Wilrijk, Belgium
COMMENT: CONFIDENCE Reference Standard (Level 1)
COMMENT: INTERNAL_ID 1163
COMMENT: HBM4EU - science and policy for a healthy future (https://www.hbm4eu.eu)
CH$NAME: 2-Ethyl-4-hydroxyhexylsalicylate
CH$COMPOUND_CLASS: N/A; Environmental Standard
CH$FORMULA: C15H22O4
CH$EXACT_MASS: 266.1518
CH$SMILES: CCC(O)CC(CC)COC(=O)c1ccccc1O
CH$IUPAC: InChI=1S/C15H22O4/c1-3-11(9-12(16)4-2)10-19-15(18)13-7-5-6-8-14(13)17/h5-8,11-12,16-17H,3-4,9-10H2,1-2H3
CH$LINK: INCHIKEY RRYJOTVSZOKNQZ-UHFFFAOYSA-N
AC$INSTRUMENT: Agilent 6560 QTOF
AC$INSTRUMENT_TYPE: LC-ESI-QTOF
AC$MASS_SPECTROMETRY: MS_TYPE MS2
AC$MASS_SPECTROMETRY: ION_MODE NEGATIVE
AC$MASS_SPECTROMETRY: IONIZATION ESI
AC$MASS_SPECTROMETRY: FRAGMENTATION_MODE CID
AC$MASS_SPECTROMETRY: COLLISION_ENERGY 10 eV
AC$MASS_SPECTROMETRY: RESOLUTION 7000
AC$MASS_SPECTROMETRY: MASS_RANGE_M/Z 56-1497
AC$CHROMATOGRAPHY: COLUMN_NAME ZORBAX Extend-C18 3.5um, 2.1x50mm, Agilent Technologies
AC$CHROMATOGRAPHY: FLOW_GRADIENT 80/20 at 0 min, 80/20 at 0.5 min, 5/95 at 6 min, 5/95 at 7 min, 80/20 at 7.1 min, 80/20 at 10 min
AC$CHROMATOGRAPHY: FLOW_RATE 350 uL/min
AC$CHROMATOGRAPHY: RETENTION_TIME 7.024 min
MS$FOCUSED_ION: BASE_PEAK 982.9905
MS$FOCUSED_ION: PRECURSOR_M/Z 265.1445
MS$FOCUSED_ION: PRECURSOR_TYPE [M-H]-
MS$FOCUSED_ION: PRECURSOR_INTENSITY 54138.41
MS$DATA_PROCESSING: RECALIBRATE loess on assigned fragments and MS1
MS$DATA_PROCESSING: REANALYZE Peaks with additional N2/O included
MS$DATA_PROCESSING: WHOLE RMassBank 3.1.1
PK$SPLASH: splash10-000i-1900000000-46ca8b74a14a13c60030
PK$ANNOTATION: m/z tentative_formula formula_count mass error(ppm)
  57.0343 C3H5O- 1 57.0346 -4.86
  93.0351 C6H5O- 1 93.0346 6.04
  137.0242 C7H5O3- 1 137.0244 -1.31
  145.1239 C8H17O2- 1 145.1234 3.52
  265.1443 C15H21O4- 1 265.1445 -0.98
PK$NUM_PEAK: 5
PK$PEAK: m/z int. rel.int.
  57.0343 227.9 6
  93.0351 5071.4 140
  137.0242 36004.6 999
  145.1239 270.2 7
  265.1443 3809.7 105
//
