ACCESSION: MSBNK-Antwerp_Univ-AN114131
RECORD_TITLE: 6-Hydroxy Monopropylheptylphthalate; LC-ESI-QTOF; MS2; CE: 35eV; R=7000; [M-H]-
DATE: 2021.08.05
AUTHORS: Belova L, Covaci A, University of Antwerp, Belgium; Caballero-Casero N, University of Cordoba, Spain.
LICENSE: CC BY
COPYRIGHT: Copyright (c) 2021 by Toxicological Center, University of Antwerp, Wilrijk, Belgium
COMMENT: CONFIDENCE Reference Standard (Level 1)
COMMENT: INTERNAL_ID 1141
COMMENT: HBM4EU - science and policy for a healthy future (https://www.hbm4eu.eu)
CH$NAME: 6-Hydroxy Monopropylheptylphthalate
CH$NAME: Monopropylheptylphthalate 6-Hydroxy
CH$NAME: 2-(6-hydroxy-2-propylheptoxy)carbonylbenzoic acid
CH$COMPOUND_CLASS: N/A; Environmental Standard
CH$FORMULA: C18H26O5
CH$EXACT_MASS: 322.1780
CH$SMILES: CCCC(CCCC(C)O)COC(=O)C1=CC=CC=C1C(=O)O
CH$IUPAC: InChI=1S/C18H26O5/c1-3-7-14(9-6-8-13(2)19)12-23-18(22)16-11-5-4-10-15(16)17(20)21/h4-5,10-11,13-14,19H,3,6-9,12H2,1-2H3,(H,20,21)
CH$LINK: PUBCHEM CID:131668311
CH$LINK: INCHIKEY KNDRVUYMYPIFIU-UHFFFAOYSA-N
CH$LINK: CHEMSPIDER 48062696
CH$LINK: COMPTOX DTXSID801009358
AC$INSTRUMENT: Agilent 6560 QTOF
AC$INSTRUMENT_TYPE: LC-ESI-QTOF
AC$MASS_SPECTROMETRY: MS_TYPE MS2
AC$MASS_SPECTROMETRY: ION_MODE NEGATIVE
AC$MASS_SPECTROMETRY: IONIZATION ESI
AC$MASS_SPECTROMETRY: FRAGMENTATION_MODE CID
AC$MASS_SPECTROMETRY: COLLISION_ENERGY 35 eV
AC$MASS_SPECTROMETRY: RESOLUTION 7000
AC$MASS_SPECTROMETRY: MASS_RANGE_M/Z 57-1472
AC$CHROMATOGRAPHY: COLUMN_NAME ZORBAX Extend-C18 3.5um, 2.1x50mm, Agilent Technologies
AC$CHROMATOGRAPHY: FLOW_GRADIENT 80/20 at 0 min, 80/20 at 0.5 min, 5/95 at 6 min, 5/95 at 7 min, 80/20 at 7.1 min, 80/20 at 10 min
AC$CHROMATOGRAPHY: FLOW_RATE 350 uL/min
AC$CHROMATOGRAPHY: RETENTION_TIME 4.250 min
MS$FOCUSED_ION: BASE_PEAK 321.1701
MS$FOCUSED_ION: PRECURSOR_M/Z 321.1707
MS$FOCUSED_ION: PRECURSOR_TYPE [M-H]-
MS$FOCUSED_ION: PRECURSOR_INTENSITY 18838.47
MS$DATA_PROCESSING: RECALIBRATE loess on assigned fragments and MS1
MS$DATA_PROCESSING: REANALYZE Peaks with additional N2/O included
MS$DATA_PROCESSING: WHOLE RMassBank 3.1.1
PK$SPLASH: splash10-004i-9200000000-561ce4ef244cb46eeabd
PK$ANNOTATION: m/z tentative_formula formula_count mass error(ppm)
  75.0231 C6H3- 1 75.024 -12.69
  77.0403 C6H5- 1 77.0397 7.99
  119.0143 C7H3O2- 1 119.0139 3.34
  121.0293 C7H5O2- 1 121.0295 -2.07
  127.1125 C8H15O- 1 127.1128 -2.6
PK$NUM_PEAK: 5
PK$PEAK: m/z int. rel.int.
  75.0231 498.1 46
  77.0403 10772.5 999
  119.0143 254.5 23
  121.0293 2889.5 267
  127.1125 255.3 23
//
