ACCESSION: MSBNK-Antwerp_Univ-METOX_P100203_EF88
RECORD_TITLE: ASPARAGINE; LC-ESI-QTOF; MS2; CE: 20eV; R=5000; [M+H]+
DATE: 2021.12.13
AUTHORS: da Silva KM, Iturrospe E, van de Lavoir M, Robeyns R, University of Antwerp, Belgium
LICENSE: CC BY
COPYRIGHT: Copyright (c) 2021 by Toxicological Center, University of Antwerp, Wilrijk, Belgium
COMMENT: CONFIDENCE Standard compound
COMMENT: INTERNAL_ID 1002
CH$NAME: ASPARAGINE
CH$NAME: (2S)-2,4-diamino-4-oxobutanoic acid
CH$COMPOUND_CLASS: N/A; Metabolomics Standard
CH$FORMULA: C4H8N2O3
CH$EXACT_MASS: 132.0535
CH$SMILES: N[C@@H](CC(N)=O)C(O)=O
CH$IUPAC: InChI=1S/C4H8N2O3/c5-2(4(8)9)1-3(6)7/h2H,1,5H2,(H2,6,7)(H,8,9)/t2-/m0/s1
CH$LINK: CAS 70-47-3
CH$LINK: CHEBI CHEBI:58048
CH$LINK: KEGG C00152
CH$LINK: PUBCHEM CID:6267
CH$LINK: INCHIKEY DCXYFEDJOCDNAF-REOHCLBHSA-N
CH$LINK: CHEMSPIDER 6031
CH$LINK: COMPTOX DTXSID10883220
AC$INSTRUMENT: Agilent 6530 QTOF
AC$INSTRUMENT_TYPE: LC-ESI-QTOF
AC$MASS_SPECTROMETRY: MS_TYPE MS2
AC$MASS_SPECTROMETRY: ION_MODE POSITIVE
AC$MASS_SPECTROMETRY: IONIZATION ESI
AC$MASS_SPECTROMETRY: FRAGMENTATION_MODE CID
AC$MASS_SPECTROMETRY: COLLISION_ENERGY 20 eV
AC$MASS_SPECTROMETRY: RESOLUTION 5000
AC$MASS_SPECTROMETRY: MASS_RANGE_M/Z 40-965
AC$CHROMATOGRAPHY: COLUMN_NAME N/A
AC$CHROMATOGRAPHY: FLOW_GRADIENT 50/50 isocratic
AC$CHROMATOGRAPHY: FLOW_RATE 200 uL/min
AC$CHROMATOGRAPHY: RETENTION_TIME 0.218 min
AC$CHROMATOGRAPHY: SOLVENT A 90/10 water with 10mM ammonium formate + 0.1% formic acid/methanol
AC$CHROMATOGRAPHY: SOLVENT B acetonitrile
MS$FOCUSED_ION: BASE_PEAK 121.0508
MS$FOCUSED_ION: PRECURSOR_M/Z 133.0608
MS$FOCUSED_ION: PRECURSOR_TYPE [M+H]+
MS$FOCUSED_ION: PRECURSOR_INTENSITY 62238
MS$DATA_PROCESSING: RECALIBRATE loess on assigned fragments and MS1
MS$DATA_PROCESSING: REANALYZE Peaks with additional N2/O included
MS$DATA_PROCESSING: WHOLE RMassBank 3.4.0
PK$SPLASH: splash10-00di-9000000000-16b25624a06bd4337d8f
PK$ANNOTATION: m/z tentative_formula formula_count mass error(ppm)
  41.0392 C3H5+ 1 41.0386 14.2
  43.018 C2H3O+ 1 43.0178 3.72
  44.0135 CH2NO+ 1 44.0131 10.45
  44.049 C2H6N+ 1 44.0495 -9.89
  46.0282 CH4NO+ 1 46.0287 -11.84
  70.0283 C3H4NO+ 1 70.0287 -5.79
  74.0232 C2H4NO2+ 1 74.0237 -5.68
  91.05 C2H7N2O2+ 1 91.0502 -2.32
PK$NUM_PEAK: 8
PK$PEAK: m/z int. rel.int.
  41.0392 37.8 8
  43.018 932.9 209
  44.0135 120 26
  44.049 787.4 176
  46.0282 577.2 129
  70.0283 549.1 123
  74.0232 4455.1 999
  91.05 12.5 2
//
