ACCESSION: MSBNK-Antwerp_Univ-AN118414
RECORD_TITLE: Isodecyl diphenyl phosphate; LC-ESI-QTOF; MS2; CE: 10eV; R=7000; [M+Na]+
DATE: 2021.08.09
AUTHORS: Belova L, Covaci A, University of Antwerp, Belgium; Caballero-Casero N, University of Cordoba, Spain.
LICENSE: CC BY
COPYRIGHT: Copyright (c) 2021 by Toxicological Center, University of Antwerp, Wilrijk, Belgium
COMMENT: CONFIDENCE Reference Standard (Level 1)
COMMENT: INTERNAL_ID 1184
COMMENT: HBM4EU - science and policy for a healthy future (https://www.hbm4eu.eu)
CH$NAME: Isodecyl diphenyl phosphate
CH$NAME: 8-methylnonyl diphenyl phosphate
CH$COMPOUND_CLASS: N/A; Environmental Standard
CH$FORMULA: C22H31O4P
CH$EXACT_MASS: 390.1960
CH$SMILES: CC(C)CCCCCCCOP(=O)(OC1=CC=CC=C1)OC2=CC=CC=C2
CH$IUPAC: InChI=1S/C22H31O4P/c1-20(2)14-8-4-3-5-13-19-24-27(23,25-21-15-9-6-10-16-21)26-22-17-11-7-12-18-22/h6-7,9-12,15-18,20H,3-5,8,13-14,19H2,1-2H3
CH$LINK: CAS 29761-21-5
CH$LINK: PUBCHEM CID:34697
CH$LINK: INCHIKEY RYUJRXVZSJCHDZ-UHFFFAOYSA-N
CH$LINK: CHEMSPIDER 31929
CH$LINK: COMPTOX DTXSID60274200
AC$INSTRUMENT: Agilent 6560 QTOF
AC$INSTRUMENT_TYPE: LC-ESI-QTOF
AC$MASS_SPECTROMETRY: MS_TYPE MS2
AC$MASS_SPECTROMETRY: ION_MODE POSITIVE
AC$MASS_SPECTROMETRY: IONIZATION ESI
AC$MASS_SPECTROMETRY: FRAGMENTATION_MODE CID
AC$MASS_SPECTROMETRY: COLLISION_ENERGY 10 eV
AC$MASS_SPECTROMETRY: RESOLUTION 7000
AC$MASS_SPECTROMETRY: MASS_RANGE_M/Z 58-1338
AC$CHROMATOGRAPHY: FLOW_GRADIENT 50/50 isocratic
AC$CHROMATOGRAPHY: FLOW_RATE 200 uL/min
AC$CHROMATOGRAPHY: RETENTION_TIME 0.145 min
MS$FOCUSED_ION: BASE_PEAK 413.1861
MS$FOCUSED_ION: PRECURSOR_M/Z 413.1852
MS$FOCUSED_ION: PRECURSOR_TYPE [M+Na]+
MS$FOCUSED_ION: PRECURSOR_INTENSITY 282823.68
MS$DATA_PROCESSING: RECALIBRATE loess on assigned fragments and MS1
MS$DATA_PROCESSING: REANALYZE Peaks with additional N2/O included
MS$DATA_PROCESSING: WHOLE RMassBank 3.1.1
PK$SPLASH: splash10-03di-0030900000-e5056caebd786c784d43
PK$ANNOTATION: m/z tentative_formula formula_count mass error(ppm)
  58.0739 C2H11Na+ 1 58.0753 -24.58
  273.0288 C12H11NaO4P+ 4 273.0287 0.28
  274.0322 C12H12NaO4P+ 4 274.0365 -15.94
  301.1421 C16H22NaO4+ 3 301.141 3.68
  413.1847 C22H31NaO4P+ 1 413.1852 -1.13
PK$NUM_PEAK: 5
PK$PEAK: m/z int. rel.int.
  58.0739 245.1 1
  273.0288 63503.6 346
  274.0322 4292.9 23
  301.1421 267.7 1
  413.1847 183051.4 999
//
