ACCESSION: MSBNK-Antwerp_Univ-METOX_P101505_F638
RECORD_TITLE: SELENOCYSTAMINE; LC-ESI-QTOF; MS2; CE: 10eV; R=5000; [M+H]+
DATE: 2021.12.13
AUTHORS: da Silva KM, Iturrospe E, van de Lavoir M, Robeyns R, University of Antwerp, Belgium
LICENSE: CC BY
COPYRIGHT: Copyright (c) 2021 by Toxicological Center, University of Antwerp, Wilrijk, Belgium
COMMENT: CONFIDENCE Standard compound
COMMENT: INTERNAL_ID 1015
CH$NAME: SELENOCYSTAMINE
CH$NAME: 2-(2-aminoethyldiselanyl)ethanamine
CH$COMPOUND_CLASS: N/A; Metabolomics Standard
CH$FORMULA: C4H12N2Se2
CH$EXACT_MASS: 247.9331
CH$SMILES: C(C[Se][Se]CCN)N
CH$IUPAC: InChI=1S/C4H12N2Se2/c5-1-3-7-8-4-2-6/h1-6H2
CH$LINK: CAS 3542-13-0
CH$LINK: CHEBI CHEBI:166587
CH$LINK: PUBCHEM CID:115119
CH$LINK: INCHIKEY QNGIKJLVQNCRRC-UHFFFAOYSA-N
CH$LINK: CHEMSPIDER 103013
CH$LINK: COMPTOX DTXSID10181470
AC$INSTRUMENT: Agilent 6530 QTOF
AC$INSTRUMENT_TYPE: LC-ESI-QTOF
AC$MASS_SPECTROMETRY: MS_TYPE MS2
AC$MASS_SPECTROMETRY: ION_MODE POSITIVE
AC$MASS_SPECTROMETRY: IONIZATION ESI
AC$MASS_SPECTROMETRY: FRAGMENTATION_MODE CID
AC$MASS_SPECTROMETRY: COLLISION_ENERGY 10 eV
AC$MASS_SPECTROMETRY: RESOLUTION 5000
AC$MASS_SPECTROMETRY: MASS_RANGE_M/Z 42-986
AC$CHROMATOGRAPHY: COLUMN_NAME N/A
AC$CHROMATOGRAPHY: FLOW_GRADIENT 50/50 isocratic
AC$CHROMATOGRAPHY: FLOW_RATE 200 uL/min
AC$CHROMATOGRAPHY: RETENTION_TIME 0.905 min
AC$CHROMATOGRAPHY: SOLVENT A 90/10 water with 10mM ammonium formate + 0.1% formic acid/methanol
AC$CHROMATOGRAPHY: SOLVENT B acetonitrile
MS$FOCUSED_ION: BASE_PEAK 121.0508
MS$FOCUSED_ION: PRECURSOR_M/Z 248.9404
MS$FOCUSED_ION: PRECURSOR_TYPE [M+H]+
MS$FOCUSED_ION: PRECURSOR_INTENSITY 15031
MS$DATA_PROCESSING: RECALIBRATE loess on assigned fragments and MS1
MS$DATA_PROCESSING: REANALYZE Peaks with additional N2/O included
MS$DATA_PROCESSING: WHOLE RMassBank 3.4.0
PK$SPLASH: splash10-0006-9020000000-d0c6ea2b71ae155d3f71
PK$ANNOTATION: m/z tentative_formula formula_count mass error(ppm)
  44.0498 C2H6N+ 1 44.0495 8.44
  186.8594 C2H3Se2+ 1 186.856 18.2
  197.9297 CH12NSe2+ 1 197.9295 1.08
  207.9114 C2H10NSe2+ 1 207.9138 -11.4
  229.8931 C4H8NSe2+ 1 229.8982 -21.99
PK$NUM_PEAK: 5
PK$PEAK: m/z int. rel.int.
  44.0498 242.2 999
  186.8594 16 66
  197.9297 7 29
  207.9114 51.8 213
  229.8931 10 41
//
