ACCESSION: MSBNK-Antwerp_Univ-AN111605
RECORD_TITLE: Tri-n-hexyl trimellitate; LC-ESI-QTOF; MS2; CE: 25eV; R=7000; [M+H]+
DATE: 2021.08.02
AUTHORS: Belova L, Covaci A, University of Antwerp, Belgium; Caballero-Casero N, University of Cordoba, Spain.
LICENSE: CC BY
COPYRIGHT: Copyright (c) 2021 by Toxicological Center, University of Antwerp, Wilrijk, Belgium
COMMENT: CONFIDENCE Reference Standard (Level 1)
COMMENT: INTERNAL_ID 1116
COMMENT: HBM4EU - science and policy for a healthy future (https://www.hbm4eu.eu)
CH$NAME: Tri-n-hexyl trimellitate
CH$NAME: trihexyl benzene-1,2,4-tricarboxylate
CH$COMPOUND_CLASS: N/A; Environmental Standard
CH$FORMULA: C27H42O6
CH$EXACT_MASS: 462.2981
CH$SMILES: CCCCCCOC(=O)C1=CC(=C(C=C1)C(=O)OCCCCCC)C(=O)OCCCCCC
CH$IUPAC: InChI=1S/C27H42O6/c1-4-7-10-13-18-31-25(28)22-16-17-23(26(29)32-19-14-11-8-5-2)24(21-22)27(30)33-20-15-12-9-6-3/h16-17,21H,4-15,18-20H2,1-3H3
CH$LINK: CAS 1528-49-0
CH$LINK: PUBCHEM CID:73718
CH$LINK: INCHIKEY MXHBQKVKHGQWRB-UHFFFAOYSA-N
CH$LINK: CHEMSPIDER 66361
CH$LINK: COMPTOX DTXSID4052681
AC$INSTRUMENT: Agilent 6560 QTOF
AC$INSTRUMENT_TYPE: LC-ESI-QTOF
AC$MASS_SPECTROMETRY: MS_TYPE MS2
AC$MASS_SPECTROMETRY: ION_MODE POSITIVE
AC$MASS_SPECTROMETRY: IONIZATION ESI
AC$MASS_SPECTROMETRY: FRAGMENTATION_MODE CID
AC$MASS_SPECTROMETRY: COLLISION_ENERGY 25 eV
AC$MASS_SPECTROMETRY: RESOLUTION 7000
AC$MASS_SPECTROMETRY: MASS_RANGE_M/Z 57-1201
AC$CHROMATOGRAPHY: FLOW_GRADIENT 50/50 isocratic
AC$CHROMATOGRAPHY: FLOW_RATE 200 uL/min
AC$CHROMATOGRAPHY: RETENTION_TIME 0.114 min
MS$FOCUSED_ION: BASE_PEAK 371.1017
MS$FOCUSED_ION: PRECURSOR_M/Z 463.3054
MS$FOCUSED_ION: PRECURSOR_TYPE [M+H]+
MS$FOCUSED_ION: PRECURSOR_INTENSITY 34808.11
MS$DATA_PROCESSING: RECALIBRATE loess on assigned fragments and MS1
MS$DATA_PROCESSING: REANALYZE Peaks with additional N2/O included
MS$DATA_PROCESSING: WHOLE RMassBank 3.1.1
PK$SPLASH: splash10-004i-0390000000-82276d62ae894580e2ba
PK$ANNOTATION: m/z tentative_formula formula_count mass error(ppm)
  57.0697 C4H9+ 1 57.0699 -2.91
  85.1002 C6H13+ 1 85.1012 -11.51
  165.0152 C8H5O4+ 1 165.0182 -18.21
  193.013 C9H5O5+ 1 193.0131 -0.63
  207.0301 C10H7O5+ 1 207.0288 6.07
  266.9983 C14H3O6+ 1 266.9924 22.12
  277.1067 C15H17O5+ 2 277.1071 -1.37
  278.1099 C22H14+ 2 278.109 3.17
  281.0503 C16H9O5+ 1 281.0444 20.77
PK$NUM_PEAK: 9
PK$PEAK: m/z int. rel.int.
  57.0697 246 13
  85.1002 264.5 14
  165.0152 224.7 12
  193.013 8791.5 475
  207.0301 716 38
  266.9983 228.7 12
  277.1067 18457.3 999
  278.1099 1294.3 70
  281.0503 522 28
//
