ACCESSION: MSBNK-Antwerp_Univ-AN119705
RECORD_TITLE: Bis(1,3-dichloro-2-propyl) phosphate; LC-ESI-QTOF; MS2; CE: 25eV; R=7000; [M+H]+
DATE: 2021.08.11
AUTHORS: Belova L, Covaci A, University of Antwerp, Belgium; Caballero-Casero N, University of Cordoba, Spain.
LICENSE: CC BY
COPYRIGHT: Copyright (c) 2021 by Toxicological Center, University of Antwerp, Wilrijk, Belgium
COMMENT: CONFIDENCE Reference Standard (Level 1)
COMMENT: INTERNAL_ID 1197
COMMENT: HBM4EU - science and policy for a healthy future (https://www.hbm4eu.eu)
CH$NAME: Bis(1,3-dichloro-2-propyl) phosphate
CH$NAME: bis(1,3-dichloropropan-2-yl) hydrogen phosphate
CH$COMPOUND_CLASS: N/A; Environmental Standard
CH$FORMULA: C6H11Cl4O4P
CH$EXACT_MASS: 317.9149
CH$SMILES: C(C(CCl)OP(=O)(O)OC(CCl)CCl)Cl
CH$IUPAC: InChI=1S/C6H11Cl4O4P/c7-1-5(2-8)13-15(11,12)14-6(3-9)4-10/h5-6H,1-4H2,(H,11,12)
CH$LINK: CAS 72236-72-7
CH$LINK: CHEBI CHEBI:166469
CH$LINK: PUBCHEM CID:188119
CH$LINK: INCHIKEY NNKRUBFJSSBFSS-UHFFFAOYSA-N
CH$LINK: CHEMSPIDER 163519
CH$LINK: COMPTOX DTXSID30992969
AC$INSTRUMENT: Agilent 6560 QTOF
AC$INSTRUMENT_TYPE: LC-ESI-QTOF
AC$MASS_SPECTROMETRY: MS_TYPE MS2
AC$MASS_SPECTROMETRY: ION_MODE POSITIVE
AC$MASS_SPECTROMETRY: IONIZATION ESI
AC$MASS_SPECTROMETRY: FRAGMENTATION_MODE CID
AC$MASS_SPECTROMETRY: COLLISION_ENERGY 25 eV
AC$MASS_SPECTROMETRY: RESOLUTION 7000
AC$MASS_SPECTROMETRY: MASS_RANGE_M/Z 74-114
AC$CHROMATOGRAPHY: COLUMN_NAME ZORBAX Extend-C18 3.5um, 2.1x50mm, Agilent Technologies
AC$CHROMATOGRAPHY: FLOW_GRADIENT 80/20 at 0 min, 80/20 at 0.5 min, 5/95 at 6 min, 5/95 at 7 min, 80/20 at 7.1 min, 80/20 at 10 min
AC$CHROMATOGRAPHY: FLOW_RATE 350 uL/min
AC$CHROMATOGRAPHY: RETENTION_TIME 4.533 min
MS$FOCUSED_ION: BASE_PEAK 320.9193
MS$FOCUSED_ION: PRECURSOR_M/Z 318.9222
MS$FOCUSED_ION: PRECURSOR_TYPE [M+H]+
MS$FOCUSED_ION: PRECURSOR_INTENSITY 3111.99
MS$DATA_PROCESSING: RECALIBRATE loess on assigned fragments and MS1
MS$DATA_PROCESSING: REANALYZE Peaks with additional N2/O included
MS$DATA_PROCESSING: WHOLE RMassBank 3.1.1
PK$SPLASH: splash10-0002-9000000000-9b8d05b27e43a990a829
PK$ANNOTATION: m/z tentative_formula formula_count mass error(ppm)
  74.9995 C2H4OP+ 2 74.9994 1.16
  80.9735 H2O3P+ 2 80.9736 -1.32
  98.9842 H4O4P+ 2 98.9842 -0.06
PK$NUM_PEAK: 3
PK$PEAK: m/z int. rel.int.
  74.9995 352.5 144
  80.9735 222.8 91
  98.9842 2444.7 999
//
