ACCESSION: MSBNK-Antwerp_Univ-METOX_N103026_9C9C
RECORD_TITLE: Coenzyme Q10; LC-ESI-QTOF; MS2; CE: 40eV; R=7000; [M-H]-
DATE: 2022.04.09
AUTHORS: da Silva KM, Iturrospe E, van de Lavoir M, Robeyns R, University of Antwerp, Belgium
LICENSE: CC BY
COPYRIGHT: Copyright (c) 2021 by Toxicological Center, University of Antwerp, Wilrijk, Belgium
COMMENT: CONFIDENCE Standard compound
COMMENT: INTERNAL_ID 1030
CH$NAME: Coenzyme Q10
CH$NAME: 2-[(2E,6E,10E,14E,18E,22E,26E,30E,34E)-3,7,11,15,19,23,27,31,35,39-decamethyltetraconta-2,6,10,14,18,22,26,30,34,38-decaenyl]-5,6-dimethoxy-3-methylcyclohexa-2,5-diene-1,4-dione
CH$COMPOUND_CLASS: N/A; Metabolomics Standard
CH$FORMULA: C59H90O4
CH$EXACT_MASS: 862.6839
CH$SMILES: CC1=C(C(=O)C(=C(C1=O)OC)OC)C/C=C(\C)/CC/C=C(\C)/CC/C=C(\C)/CC/C=C(\C)/CC/C=C(\C)/CC/C=C(\C)/CC/C=C(\C)/CC/C=C(\C)/CC/C=C(\C)/CCC=C(C)C
CH$IUPAC: InChI=1S/C59H90O4/c1-44(2)24-15-25-45(3)26-16-27-46(4)28-17-29-47(5)30-18-31-48(6)32-19-33-49(7)34-20-35-50(8)36-21-37-51(9)38-22-39-52(10)40-23-41-53(11)42-43-55-54(12)56(60)58(62-13)59(63-14)57(55)61/h24,26,28,30,32,34,36,38,40,42H,15-23,25,27,29,31,33,35,37,39,41,43H2,1-14H3/b45-26+,46-28+,47-30+,48-32+,49-34+,50-36+,51-38+,52-40+,53-42+
CH$LINK: CAS 303-98-0
CH$LINK: CHEBI 46245
CH$LINK: KEGG C11378
CH$LINK: LIPIDMAPS LMPR02010001
CH$LINK: PUBCHEM CID:5281915
CH$LINK: INCHIKEY ACTIUHUUMQJHFO-UPTCCGCDSA-N
CH$LINK: CHEMSPIDER 4445197
AC$INSTRUMENT: Agilent 6560 QTOF
AC$INSTRUMENT_TYPE: LC-ESI-QTOF
AC$MASS_SPECTROMETRY: MS_TYPE MS2
AC$MASS_SPECTROMETRY: ION_MODE NEGATIVE
AC$MASS_SPECTROMETRY: IONIZATION ESI
AC$MASS_SPECTROMETRY: FRAGMENTATION_MODE CID
AC$MASS_SPECTROMETRY: COLLISION_ENERGY 40 eV
AC$MASS_SPECTROMETRY: RESOLUTION 7000
AC$MASS_SPECTROMETRY: MASS_RANGE_M/Z 70-1699
AC$CHROMATOGRAPHY: COLUMN_NAME N/A
AC$CHROMATOGRAPHY: FLOW_GRADIENT 50/50 isocratic
AC$CHROMATOGRAPHY: FLOW_RATE 200 uL/min
AC$CHROMATOGRAPHY: RETENTION_TIME 0.336 min
AC$CHROMATOGRAPHY: SOLVENT A 30/70 acetonitrile/water with 2mM ammonium acetate
AC$CHROMATOGRAPHY: SOLVENT B 88/10/2 isopropanol/acetonitrile/water with 2mM ammonium acetate
MS$FOCUSED_ION: BASE_PEAK 980.0164
MS$FOCUSED_ION: PRECURSOR_M/Z 861.6766
MS$FOCUSED_ION: PRECURSOR_TYPE [M-H]-
MS$FOCUSED_ION: PRECURSOR_INTENSITY 801515
MS$DATA_PROCESSING: RECALIBRATE loess on assigned fragments and MS1
MS$DATA_PROCESSING: REANALYZE Peaks with additional N2/O included
MS$DATA_PROCESSING: WHOLE RMassBank 3.5.2.1
PK$SPLASH: splash10-001j-1798787610-bb1fa5069593da2b025e
PK$ANNOTATION: m/z tentative_formula formula_count mass error(ppm)
  70.2654 C3H34- 1 70.2666 -16.42
  72.3412 CH44O- 1 72.3398 19.53
  75.4555 H59O- 1 75.4571 -22.03
  76.1838 C3H24O- 1 76.1833 6.66
  76.407 C2H52- 1 76.4075 -5.49
  77.1529 C2H21O2- 1 77.1547 -23.9
  78.3852 CH50O- 1 78.3867 -19.45
  80.1793 C2H24O2- 1 80.1782 14.29
  80.2352 H32O3- 1 80.2357 -6.07
  80.2502 C4H32- 1 80.2509 -9.93
  81.2579 C4H33- 1 81.2588 -10.23
  81.3731 H49O2- 1 81.3738 -8.68
  81.5046 H65O- 1 81.5041 6.04
  82.0629 C2H10O3- 1 82.0635 -7.47
  83.2374 C3H31O- 1 83.238 -8.07
  85.0515 CH9O4- 1 85.0506 9.66
  85.3467 C2H45O- 1 85.3476 -10.4
  85.573 CH73- 1 85.5718 14.53
  86.4846 C2H62- 1 86.4857 -13.15
  87.2888 H39O3- 1 87.2905 -19.46
  87.5504 H71O- 1 87.551 -7.25
  88.3005 H40O3- 1 88.2983 24.87
  89.0409 C7H5- 1 89.0397 14.31
  89.0612 C4H9O2- 1 89.0608 4.85
  89.1559 C3H21O2- 1 89.1547 13.49
  89.2506 C2H33O2- 1 89.2486 22.09
  89.3216 C4H41- 1 89.3214 2.69
  89.6019 CH77- 1 89.6031 -12.73
  90.0133 C6H2O- 1 90.0111 24.26
  91.1899 H27O4- 1 91.1915 -17.01
  91.265 C2H35O2- 1 91.2643 8.13
  91.4903 CH63O- 1 91.4884 20.59
  92.1044 CH16O4- 1 92.1054 -10.45
  92.2365 CH32O3- 1 92.2357 8.44
  93.3723 CH49O2- 1 93.3738 -15.68
  95.9997 C8- 1 96.0005 -8.81
  96.9924 C4HO3- 1 96.9931 -7.88
  97.1602 C5H21O- 1 97.1598 3.99
  98.2639 C4H34O- 1 98.2615 24.39
  98.5808 C2H74- 1 98.5796 11.84
  99.1004 C3H15O3- 1 99.1027 -23.24
  99.3035 C5H39- 1 99.3057 -22.67
  99.3833 H51O3- 1 99.3844 -10.87
  99.4567 C2H59O- 1 99.4571 -4.04
  100.0541 C5H8O2- 1 100.053 11.09
  100.0741 C2H12O4- 1 100.0741 0.23
  100.0899 C6H12O- 1 100.0894 5.43
  100.314 C5H40- 1 100.3135 4.9
  100.3908 H52O3- 1 100.3922 -14.26
  100.5026 C3H64- 1 100.5014 12.8
  101.6616 H85O- 1 101.6606 10.36
  102.1814 CH26O4- 1 102.1837 -21.77
  102.3311 C5H42- 1 102.3292 18.71
  102.388 C3H50O- 1 102.3867 12.78
  103.0985 C2H15O4- 1 103.0976 9.08
  103.527 C3H67- 1 103.5248 20.91
  104.5562 H72O2- 1 104.5538 23.22
  106.0087 C6H2O2- 1 106.006 24.75
  106.0976 C5H14O2- 1 106.0999 -21.79
  106.4522 C4H58- 1 106.4544 -20.7
  106.511 C2H66O- 1 106.5119 -9.06
  107.5794 H75O2- 1 107.5773 20.03
  108.0595 C7H8O- 1 108.0581 13.54
  108.3372 C4H44O- 1 108.3398 -23.47
  108.5861 H76O2- 1 108.5851 9.3
  109.1623 C6H21O- 1 109.1598 22.96
  109.6667 C2H85- 1 109.6657 9.72
  110.0562 C3H10O4- 1 110.0585 -20.43
  110.3928 C5H50- 1 110.3918 8.84
  111.3846 CH51O3- 1 111.3844 1.78
  111.9927 C8O- 1 111.9955 -24.73
  112.0169 C5H4O3- 1 112.0166 2.94
  112.1463 C5H20O2- 1 112.1469 -4.88
  112.3899 CH52O3- 1 112.3922 -20.83
  112.467 C3H60O- 1 112.465 17.76
  113.3421 C3H45O2- 1 113.3425 -3.75
  113.5076 C4H65- 1 113.5092 -14.25
  115.5222 C4H67- 1 115.5248 -22.68
  116.235 C3H32O3- 1 116.2357 -5.54
  116.3452 C6H44- 1 116.3448 3.21
  116.4574 C2H60O2- 1 116.4599 -21.25
  117.3726 C3H49O2- 1 117.3738 -10.2
  117.3925 H53O4- 1 117.3949 -20.37
  117.5418 C4H69- 1 117.5405 11.21
  118.2672 C7H34- 1 118.2666 4.99
  118.3842 C3H50O2- 1 118.3816 22.12
  119.178 C8H23- 1 119.1805 -21.12
  119.3708 C6H47- 1 119.3683 20.94
  120.3227 CH44O4- 1 120.3245 -15.33
  120.6768 H88O2- 1 120.679 -18.01
  120.9928 C6HO3- 1 120.9931 -2.22
  121.3502 C5H45O- 1 121.3476 21.52
  122.0562 C4H10O4- 1 122.0585 -18.9
  122.1892 C4H26O3- 1 122.1887 3.6
  122.2453 C2H34O4- 1 122.2463 -7.82
  123.2929 C3H39O3- 1 123.2905 20.08
  124.1849 C7H24O- 1 124.1833 13.28
  124.2954 C3H40O3- 1 124.2983 -23.14
  124.3938 C2H52O3- 1 124.3922 13.24
  124.5828 H76O3- 1 124.58 22.47
  125.6009 C4H77- 1 125.6031 -17.35
  126.0702 C7H10O2- 1 126.0686 12.58
  126.3303 C7H42- 1 126.3292 8.91
  126.3844 C5H50O- 1 126.3867 -18.14
  127.2255 C4H31O3- 1 127.2279 -18.4
  127.3248 C3H43O3- 1 127.3218 23.91
  127.4333 C6H55- 1 127.4309 18.97
  127.4532 C3H59O2- 1 127.4521 9.37
  128.2931 C2H40O4- 1 128.2932 -0.91
  128.3281 C3H44O3- 1 128.3296 -11.67
  128.5349 C5H68- 1 128.5327 17.42
  128.587 C3H76O- 1 128.5902 -24.69
  129.281 C5H37O2- 1 129.2799 8.29
  129.398 CH53O4- 1 129.3949 23.38
  130.1375 C8H18O- 1 130.1363 9.26
  130.1581 C5H22O3- 1 130.1574 4.78
  130.1948 C6H26O2- 1 130.1938 7.27
  131.3673 C7H47- 1 131.3683 -8.16
  132.4188 CH56O4- 1 132.4184 2.97
  132.6423 H84O3- 1 132.6426 -2.29
  132.6776 CH88O2- 1 132.679 -10.56
  133.5569 CH73O3- 1 133.5565 3.11
  133.596 C2H77O2- 1 133.5929 23.38
  134.5451 C4H70O- 1 134.5432 13.71
  134.5782 C5H74- 1 134.5796 -10.41
  135.2133 C9H27- 1 135.2118 11.16
  135.2355 C6H31O2- 1 135.233 19.03
  135.2681 C7H35O- 1 135.2693 -9.38
  136.055 C8H8O2- 1 136.053 14.76
  136.0919 C9H12O- 1 136.0894 18.74
  136.4277 C4H56O2- 1 136.4286 -6.54
  137.0391 C11H5- 1 137.0397 -4.21
  137.0852 C5H13O4- 1 137.0819 24.08
  137.1304 C10H17- 1 137.1336 -23.47
  137.5848 CH77O3- 1 137.5878 -21.99
  137.6579 C3H85O- 1 137.6606 -19.19
  137.9944 C6H2O4- 1 137.9959 -10.3
  139.1102 C9H15O- 1 139.1128 -19.18
  139.1682 C7H23O2- 1 139.1704 -15.24
  139.4705 CH63O4- 1 139.4732 -19.12
  140.2921 C3H40O4- 1 140.2932 -8.12
  140.5768 H76O4- 1 140.5749 13.34
  141.0344 C10H5O- 1 141.0346 -1.26
  141.241 C5H33O3- 1 141.2435 -17.57
  141.3167 C7H41O- 1 141.3163 3.12
  142.0621 C7H10O3- 1 142.0635 -9.96
  142.0777 C11H10- 1 142.0788 -7.53
  143.6746 C2H87O2- 1 143.6712 23.8
  144.1867 C10H24- 1 144.1883 -11.36
  144.2273 C4H32O4- 1 144.2306 -23.21
  144.3232 C3H44O4- 1 144.3245 -8.8
  144.3636 C4H48O3- 1 144.3609 19
  144.603 H80O4- 1 144.6062 -22.07
  144.625 C4H80O- 1 144.6215 24.63
  145.0652 C10H9O- 1 145.0659 -4.95
  145.2403 C4H33O4- 1 145.2384 12.76
  145.4601 C3H61O3- 1 145.4626 -17.18
  145.4785 C7H61- 1 145.4779 4.26
  145.6278 C4H81O- 1 145.6293 -10.01
  146.2809 C5H38O3- 1 146.2826 -12.04
  146.3549 C7H46O- 1 146.3554 -3.49
  146.6727 C5H86- 1 146.6735 -5.41
  147.0468 C9H7O2- 1 147.0452 11.25
  147.0682 C6H11O4- 1 147.0663 12.7
  147.2105 C10H27- 1 147.2118 -9.06
  147.2684 C8H35O- 1 147.2693 -6.15
  147.4576 C6H59O- 1 147.4571 3.35
  148.0761 C6H12O4- 1 148.0741 13.6
  148.2806 C8H36O- 1 148.2772 23.04
  148.3556 C3H48O4- 1 148.3558 -1.68
  148.5784 C2H76O3- 1 148.58 -10.98
  149.0432 C12H5- 1 149.0397 23.89
  150.185 C5H26O4- 1 150.1837 9.18
  150.3878 C7H50O- 1 150.3867 7
  151.0185 C11H3O- 1 151.0189 -2.78
  152.1225 C10H16O- 1 152.1207 11.88
  152.5302 C7H68- 1 152.5327 -16.02
  152.6118 C2H80O3- 1 152.6113 3.62
  153.13 C10H17O- 1 153.1285 10.04
  153.6197 C2H81O3- 1 153.6191 3.52
  154.1564 C7H22O3- 1 154.1574 -6.58
  154.3583 C9H46- 1 154.3605 -14.08
  154.6042 C5H78O- 1 154.6058 -10.28
  154.663 C3H86O2- 1 154.6633 -1.82
  155.4642 C8H59- 1 155.4622 12.8
  155.5044 C2H67O4- 1 155.5045 -0.68
  156.1705 C7H24O3- 1 156.1731 -16.65
  156.303 C7H40O2- 1 156.3034 -2.12
  156.3974 C6H52O2- 1 156.3973 1.04
  157.1009 C12H13- 1 157.1023 -8.81
  157.1778 C7H25O3- 1 157.1809 -19.99
  157.29 C10H37- 1 157.2901 -0.2
  157.649 C2H85O3- 1 157.6504 -8.95
  157.6829 C3H89O2- 1 157.6868 -24.92
  158.4519 C7H58O- 1 158.4493 16.33
  158.531 C2H70O4- 1 158.528 19.49
  158.6749 C6H86- 1 158.6735 8.54
  159.1954 C7H27O3- 1 159.1966 -7.03
  159.2359 C8H31O2- 1 159.233 18.75
  159.4603 C7H59O- 1 159.4571 19.77
  160.205 C7H28O3- 1 160.2044 3.58
  160.3 C6H40O3- 1 160.2983 10.59
  160.4462 C3H60O4- 1 160.4497 -21.7
  160.5578 C6H72O- 1 160.5589 -6.35
  160.6547 C5H84O- 1 160.6528 12
  161.0858 C7H13O4- 1 161.0819 23.71
  161.2859 C9H37O- 1 161.285 5.84
  161.4947 C4H65O3- 1 161.4939 5.14
  161.5494 C2H73O4- 1 161.5514 -12.64
  162.1805 C6H26O4- 1 162.1837 -19.76
  162.2536 C8H34O2- 1 162.2564 -17.42
  162.3262 C10H42- 1 162.3292 -18.71
  162.371 C4H50O4- 1 162.3715 -2.94
  162.499 C4H66O3- 1 162.5017 -16.94
  162.5378 C5H70O2- 1 162.5381 -2.09
  163.038 C9H7O3- 1 163.0401 -12.58
  163.2278 C7H31O3- 1 163.2279 -0.43
  163.3964 C8H51O- 1 163.3945 11.29
  164.2472 C11H32- 1 164.2509 -22.72
  164.2735 C8H36O2- 1 164.2721 8.75
  164.624 C7H80- 1 164.6266 -15.27
  166.0263 C8H6O4- 1 166.0272 -4.89
  166.2299 C10H30O- 1 166.2302 -1.99
  166.313 C5H42O4- 1 166.3089 24.73
  166.4431 C5H58O3- 1 166.4391 24.06
  167.0834 C13H11- 1 167.0866 -19.57
  167.2395 C10H31O- 1 167.238 8.94
  167.2613 C7H35O3- 1 167.2592 13.03
  168.6096 C2H80O4- 1 168.6062 19.93
  169.0281 C11H5O2- 1 169.0295 -8.05
  169.2209 C9H29O2- 1 169.2173 21.39
  169.5579 C4H73O3- 1 169.5565 8.04
  170.3545 C9H46O- 1 170.3554 -5.52
  171.1992 C8H27O3- 1 171.1966 15.16
  171.9834 C9O4- 1 171.9802 18.62
  172.216 C12H28- 1 172.2196 -21.37
  172.2988 C7H40O3- 1 172.2983 2.75
  172.521 C6H68O2- 1 172.5225 -8.75
  173.0572 C11H9O2- 1 173.0608 -20.8
  173.3977 C6H53O3- 1 173.4 -13.53
  173.6285 C5H81O2- 1 173.6242 24.67
  174.2012 C11H26O- 1 174.1989 13.1
  174.2597 C9H34O2- 1 174.2564 18.84
  174.3479 C8H46O2- 1 174.3503 -14.21
  176.1448 C9H20O3- 1 176.1418 17.35
  176.305 C10H40O- 1 176.3085 -19.73
  176.3293 C7H44O3- 1 176.3296 -1.49
  176.3466 C11H44- 1 176.3448 9.81
  176.3852 C5H52O4- 1 176.3871 -10.95
  176.4223 C6H56O3- 1 176.4235 -7.03
  176.5352 C9H68- 1 176.5327 14.61
  177.3198 C10H41O- 1 177.3163 19.63
  177.3525 C11H45- 1 177.3527 -0.77
  177.3738 C8H49O2- 1 177.3738 -0.02
  177.4311 C6H57O3- 1 177.4313 -1.15
  177.5953 C7H77O- 1 177.598 -15.37
  177.6591 C5H85O2- 1 177.6555 20.32
  178.2897 C9H38O2- 1 178.2877 11.14
  178.6269 C4H82O3- 1 178.6269 -0.51
  179.0483 C13H7O- 1 179.0502 -10.92
  179.199 C10H27O2- 1 179.2017 -14.55
  179.2726 C12H35- 1 179.2744 -10.08
  179.5378 C5H71O3- 1 179.5409 -16.82
  180.1482 C12H20O- 1 180.152 -21.01
  180.1706 C9H24O3- 1 180.1731 -13.74
  180.4206 C5H56O4- 1 180.4184 12.01
  180.4511 C6H60O3- 1 180.4548 -20.35
  181.272 C8H37O3- 1 181.2748 -15.38
  181.5924 C6H77O2- 1 181.5929 -2.75
  182.4686 C6H62O3- 1 182.4704 -9.88
  182.5409 C8H70O- 1 182.5432 -12.55
  182.6019 C6H78O2- 1 182.6007 6.18
  182.6405 C7H82O- 1 182.6371 18.53
  183.5855 C9H75- 1 183.5874 -10.31
  183.9923 C14O- 1 183.9955 -17.15
  184.1426 C11H20O2- 1 184.1469 -23.28
  184.2744 C11H36O- 1 184.2772 -15.19
  184.2969 C8H40O3- 1 184.2983 -7.64
  184.4068 C11H52- 1 184.4075 -3.45
  184.4896 C6H64O3- 1 184.4861 18.77
  184.5581 C8H72O- 1 184.5589 -4.35
  184.6331 C3H84O4- 1 184.6375 -23.7
  185.2876 C11H37O- 1 185.285 14.35
  185.3965 C7H53O3- 1 185.4 -18.8
  185.454 C5H61O4- 1 185.4575 -18.8
  185.6471 C3H85O4- 1 185.6453 9.67
  186.1963 C12H26O- 1 186.1989 -14.23
  186.5174 C10H66- 1 186.517 2.38
  187.1929 C8H27O4- 1 187.1915 7.71
  187.4901 C9H63O- 1 187.4884 8.89
  188.3085 C11H40O- 1 188.3085 0.31
  188.3326 C8H44O3- 1 188.3296 16.01
  188.4805 C5H64O4- 1 188.481 -2.74
  188.5002 C9H64O- 1 188.4963 20.96
  188.6465 C6H84O2- 1 188.6477 -6.24
  189.1694 C14H21- 1 189.1649 23.91
  189.4098 C10H53O- 1 189.4102 -1.88
  189.4683 C8H61O2- 1 189.4677 3.09
  189.5014 C9H65O- 1 189.5041 -13.95
  189.5615 C7H73O2- 1 189.5616 -0.33
  189.6308 C9H81- 1 189.6344 -19.11
  190.1938 C11H26O2- 1 190.1938 -0.16
  190.3085 C7H42O4- 1 190.3089 -2.11
  191.0337 C10H7O4- 1 191.035 -6.75
  191.0899 C15H11- 1 191.0866 17.21
  191.1804 C14H23- 1 191.1805 -0.83
  191.2378 C12H31O- 1 191.238 -1.44
  191.6331 C5H83O3- 1 191.6348 -8.54
  192.5501 C6H72O3- 1 192.5487 7.24
  193.3429 C11H45O- 1 193.3476 -24.15
  193.3683 C8H49O3- 1 193.3687 -1.94
  193.5943 C7H77O2- 1 193.5929 7.2
  194.0121 C16H2- 1 194.0162 -21.05
  194.0619 C10H10O4- 1 194.0585 17.76
  194.1902 C10H26O3- 1 194.1887 7.62
  194.2217 C11H30O2- 1 194.2251 -17.87
  194.483 C11H62- 1 194.4857 -13.67
  194.5752 C10H74- 1 194.5796 -22.64
  194.634 C8H82O- 1 194.6371 -16.08
  195.2682 C12H35O- 1 195.2693 -5.96
  196.2087 C10H28O3- 1 196.2044 21.91
  196.3088 C13H40- 1 196.3135 -24.23
  196.4885 C7H64O3- 1 196.4861 12.02
  197.0955 C14H13O- 1 197.0972 -8.56
  197.2449 C11H33O2- 1 197.2486 -18.74
  197.4006 C8H53O3- 1 197.4 3.16
  197.57 C9H73O- 1 197.5667 16.79
  198.0297 C12H6O3- 1 198.0322 -13.03
  198.294 C12H38O- 1 198.2928 6.07
  198.3258 C13H42- 1 198.3292 -16.98
  198.4816 C10H62O- 1 198.4806 5.17
  199.0395 C12H7O3- 1 199.0401 -2.77
  199.1468 C15H19- 1 199.1492 -12.08
  199.5448 C8H71O2- 1 199.546 -5.95
  199.615 C10H79- 1 199.6187 -18.52
  199.6767 C8H87O- 1 199.6762 2.29
  200.0275 C15H4O- 1 200.0268 3.88
  200.1423 C11H20O3- 1 200.1418 2.78
  200.1983 C9H28O4- 1 200.1993 -5.06
  200.4249 C8H56O3- 1 200.4235 6.86
  200.4598 C9H60O2- 1 200.4599 -0.54
  200.5556 C8H72O2- 1 200.5538 8.9
  200.645 C7H84O2- 1 200.6477 -13.41
  200.6713 C4H88O4- 1 200.6688 12.52
  201.145 C11H21O3- 1 201.1496 -22.97
  201.6343 C10H81- 1 201.6344 -0.45
  204.0203 C14H4O2- 1 204.0217 -6.69
  204.044 C11H8O4- 1 204.0428 6.05
  204.5313 C10H68O- 1 204.5276 18.08
  205.0877 C12H13O3- 1 205.087 3.2
  205.1553 C14H21O- 1 205.1598 -21.89
  205.3851 C13H49- 1 205.384 5.65
  205.459 C8H61O3- 1 205.4626 -17.65
  205.595 C8H77O2- 1 205.5929 10.27
  205.6332 C9H81O- 1 205.6293 19.25
  207.1055 C12H15O3- 1 207.1027 13.89
  207.1778 C14H23O- 1 207.1754 11.53
  207.3092 C14H39- 1 207.3057 16.99
  207.4819 C8H63O3- 1 207.4783 17.46
  207.5307 C6H71O4- 1 207.5358 -24.69
  208.0792 C11H12O4- 1 208.0741 24.7
  208.1791 C14H24O- 1 208.1833 -19.98
  208.5431 C6H72O4- 1 208.5436 -2.43
  208.6496 C9H84O- 1 208.6528 -15.18
  209.283 C13H37O- 1 209.285 -9.54
  209.4764 C11H61O- 1 209.4728 17.45
  209.5318 C9H69O2- 1 209.5303 6.95
  209.6816 C6H89O3- 1 209.6817 -0.74
  210.1872 C10H26O4- 1 210.1837 16.83
  210.5133 C12H66- 1 210.517 -17.36
  211.358 C11H47O2- 1 211.3582 -0.92
  211.5255 C12H67- 1 211.5248 3.23
  211.6348 C8H83O2- 1 211.6399 -23.83
  211.6793 C9H87O- 1 211.6762 14.38
  211.9952 C15O2- 1 211.9904 22.67
  212.5225 C8H68O3- 1 212.5174 24.18
  212.5903 C10H76O- 1 212.5902 0.85
  213.3156 C13H41O- 1 213.3163 -3.2
  213.5942 C10H77O- 1 213.598 -17.68
  214.1215 C11H18O4- 1 214.1211 2.05
  214.1726 C16H22- 1 214.1727 -0.57
  214.3258 C13H42O- 1 214.3241 8.03
  215.1038 C14H15O2- 1 215.1078 -18.2
  215.1423 C15H19O- 1 215.1441 -8.32
  215.2211 C10H31O4- 1 215.2228 -7.87
  215.3368 C13H43O- 1 215.3319 22.62
  215.3917 C11H51O2- 1 215.3895 10.53
  216.0186 C15H4O2- 1 216.0217 -14.08
  216.423 C8H56O4- 1 216.4184 21.24
  217.3355 C9H45O4- 1 217.3323 14.61
  217.3885 C14H49- 1 217.384 20.88
  218.0137 C18H2- 1 218.0162 -11.62
  218.377 C10H50O3- 1 218.3765 1.88
  218.4523 C12H58O- 1 218.4493 13.73
  218.4876 C13H62- 1 218.4857 8.63
  218.5772 C12H74- 1 218.5796 -11.19
  218.6684 C11H86- 1 218.6735 -23.21
  219.0987 C13H15O3- 1 219.1027 -18.01
  219.1226 C17H15- 1 219.1179 21.22
  219.211 C16H27- 1 219.2118 -3.91
  219.3432 C9H47O4- 1 219.348 -21.93
  219.4192 C11H55O2- 1 219.4208 -7.06
  219.4938 C13H63- 1 219.4935 1.43
  219.6253 C6H83O4- 1 219.6297 -19.76
  220.5223 C10H68O2- 1 220.5225 -0.91
  220.9908 C13HO4- 1 220.988 12.38
  221.0272 C14H5O3- 1 221.0244 12.7
  221.3069 C11H41O3- 1 221.3061 3.64
  221.4033 C10H53O3- 1 221.4 14.96
  221.6455 C6H85O4- 1 221.6453 0.72
  222.1277 C13H18O3- 1 222.1261 7.17
  222.5916 C8H78O3- 1 222.5956 -18.05
  223.5822 C11H75O- 1 223.5823 -0.56
  224.1561 C17H20- 1 224.157 -4.19
  224.2172 C15H28O- 1 224.2146 11.79
  224.2408 C12H32O3- 1 224.2357 22.81
  224.5774 C7H76O4- 1 224.5749 11.31
  225.0371 C17H5O- 1 225.0346 11.14
  225.3572 C15H45- 1 225.3527 19.93
  225.6302 C12H81- 1 225.6344 -18.55
  226.0062 C16H2O2- 1 226.006 0.86
  227.3641 C15H47- 1 227.3683 -18.44
  227.6724 C9H87O2- 1 227.6712 5.33
  228.0774 C14H12O3- 1 228.0792 -8.04
  228.194 C17H24- 1 228.1883 24.95
  228.624 C11H80O- 1 228.6215 10.97
  229.069 C17H9O- 1 229.0659 13.44
  229.2191 C14H29O2- 1 229.2173 7.81
  229.4461 C13H57O- 1 229.4415 20.06
  229.5707 C13H73- 1 229.5718 -4.65
  229.6909 C9H89O2- 1 229.6868 17.64
  230.0352 C16H6O2- 1 230.0373 -9.45
  230.1052 C18H14- 1 230.1101 -21.2
  230.3019 C16H38- 1 230.2979 17.53
  230.4493 C13H58O- 1 230.4493 0.03
  230.5754 C13H74- 1 230.5796 -18.27
  230.6314 C11H82O- 1 230.6371 -24.71
  233.0805 C13H13O4- 1 233.0819 -5.97
  233.1549 C15H21O2- 1 233.1547 0.64
  234.257 C14H34O2- 1 234.2564 2.5
  234.3091 C12H42O3- 1 234.3139 -20.6
  234.3706 C10H50O4- 1 234.3715 -3.63
  234.4479 C12H58O2- 1 234.4442 15.67
  234.5054 C10H66O3- 1 234.5017 15.66
  235.0959 C13H15O4- 1 235.0976 -7.3
  235.1548 C18H19- 1 235.1492 23.69
  235.3552 C13H47O2- 1 235.3582 -12.52
  235.4138 C11H55O3- 1 235.4157 -7.91
  236.5115 C10H68O3- 1 236.5174 -24.88
  236.5343 C14H68- 1 236.5327 6.8
  236.6245 C13H80- 1 236.6266 -8.72
  237.0965 C16H13O2- 1 237.0921 18.63
  237.1511 C14H21O3- 1 237.1496 6.41
  237.3024 C11H41O4- 1 237.301 5.86
  237.4448 C15H57- 1 237.4466 -7.27
  237.619 C9H81O3- 1 237.6191 -0.32
  238.0055 C17H2O2- 1 238.006 -2.33
  238.0603 C15H10O3- 1 238.0635 -13.59
  238.1253 C13H18O4- 1 238.1211 17.79
  238.2543 C13H34O3- 1 238.2513 12.6
  238.5157 C13H66O- 1 238.5119 15.89
  239.0146 C17H3O2- 1 239.0139 3.04
  239.1081 C16H15O2- 1 239.1078 1.43
  239.3699 C16H47- 1 239.3683 6.59
  239.429 C14H55O- 1 239.4258 13.39
  240.3001 C14H40O2- 1 240.3034 -13.59
  240.4913 C12H64O2- 1 240.4912 0.31
  240.6108 C8H80O4- 1 240.6062 18.88
  241.1044 C19H13- 1 241.1023 8.99
  241.2556 C16H33O- 1 241.2537 7.79
  241.4622 C11H61O3- 1 241.4626 -1.75
  242.2795 C13H38O3- 1 242.2826 -13.15
  242.3955 C16H50- 1 242.3918 15.46
  242.4875 C15H62- 1 242.4857 7.59
  242.5638 C10H74O3- 1 242.5643 -2.09
  242.6387 C12H82O- 1 242.6371 6.61
  243.0683 C14H11O4- 1 243.0663 8.34
  243.3258 C14H43O2- 1 243.3269 -4.31
  243.5205 C12H67O2- 1 243.5147 23.94
  243.9775 C15O4- 1 243.9802 -11.08
  244.1635 C13H24O4- 1 244.168 -18.49
  244.276 C16H36O- 1 244.2772 -4.87
  244.4848 C11H64O3- 1 244.4861 -5.21
  244.5215 C12H68O2- 1 244.5225 -3.92
  244.5568 C13H72O- 1 244.5589 -8.42
  244.9893 C15HO4- 1 244.988 5.04
  245.1289 C19H17- 1 245.1336 -19.05
  246.1203 C15H18O3- 1 246.1261 -23.58
  246.2049 C17H26O- 1 246.1989 24.47
  246.532 C12H70O2- 1 246.5381 -24.7
  246.5735 C13H74O- 1 246.5745 -4.29
  246.6701 C12H86O- 1 246.6684 6.78
  247.206 C17H27O- 1 247.2067 -3.1
  247.3996 C15H51O- 1 247.3945 20.31
  247.5879 C13H75O- 1 247.5823 22.46
  248.0262 C19H4O- 1 248.0268 -2.35
  248.1057 C14H16O4- 1 248.1054 1.12
  248.1947 C13H28O4- 1 248.1993 -18.48
  248.4221 C12H56O3- 1 248.4235 -5.53
  249.0141 C15H5O4- 1 249.0193 -20.92
  249.052 C16H9O3- 1 249.0557 -14.98
  249.0865 C17H13O2- 1 249.0921 -22.62
  249.4253 C12H57O3- 1 249.4313 -24.18
  250.1528 C15H22O3- 1 250.1574 -18.47
  251.1596 C15H23O3- 1 251.1653 -22.39
  252.2273 C13H32O4- 1 252.2306 -13.28
  252.304 C15H40O2- 1 252.3034 2.57
  252.6775 C11H88O2- 1 252.679 -5.76
  253.0494 C15H9O4- 1 253.0506 -4.81
  253.2689 C14H37O3- 1 253.2748 -23.29
  253.5208 C10H69O4- 1 253.5201 2.74
  255.077 C19H11O- 1 255.0815 -17.77
  255.4516 C15H59O- 1 255.4571 -21.81
  255.6842 C14H87- 1 255.6813 11.19
  256.0189 C17H4O3- 1 256.0166 8.84
  256.3171 C18H40- 1 256.3135 13.77
  256.5271 C13H68O2- 1 256.5225 17.86
  257.0623 C18H9O2- 1 257.0608 5.79
  257.4704 C15H61O- 1 257.4728 -9.34
  257.5713 C14H73O- 1 257.5667 18.03
  257.6921 C14H89- 1 257.697 -18.75
  258.0078 C20H2O- 1 258.0111 -12.95
  258.1975 C18H26O- 1 258.1989 -5.47
  258.2527 C16H34O2- 1 258.2564 -14.37
  258.393 C16H50O- 1 258.3867 24.4
  258.5701 C14H74O- 1 258.5745 -16.99
  259.0764 C18H11O2- 1 259.0765 -0.12
  259.1734 C17H23O2- 1 259.1704 11.57
  259.5096 C12H67O3- 1 259.5096 0
  260.3465 C18H44- 1 260.3448 6.43
  260.4038 C16H52O- 1 260.4024 5.69
  260.5001 C15H64O- 1 260.4963 14.75
  261.1523 C16H21O3- 1 261.1496 10.26
  262.0029 C19H2O2- 1 262.006 -12.05
  262.1356 C19H18O- 1 262.1363 -2.64
  262.5014 C11H66O4- 1 262.4967 18.11
  263.1025 C18H15O2- 1 263.1078 -19.86
  263.523 C15H67O- 1 263.5197 12.35
  264.4155 C12H56O4- 1 264.4184 -11.04
  265.0332 C19H5O2- 1 265.0295 14.09
  265.1196 C18H17O2- 1 265.1234 -14.49
  265.6683 C15H85- 1 265.6657 9.81
  266.3404 C13H46O4- 1 266.3402 0.92
  266.6177 C10H82O4- 1 266.6219 -15.77
  266.655 C11H86O3- 1 266.6582 -12.11
  267.3082 C19H39- 1 267.3057 9.23
  267.4821 C13H63O3- 1 267.4783 14.28
  267.5145 C14H67O2- 1 267.5147 -0.6
  267.6851 C15H87- 1 267.6813 14.24
  268.4106 C18H52- 1 268.4075 11.92
  268.5542 C15H72O- 1 268.5589 -17.2
  268.64 C10H84O4- 1 268.6375 9.42
  268.6881 C15H88- 1 268.6892 -3.93
  269.0642 C19H9O2- 1 269.0608 12.7
  269.2866 C18H37O- 1 269.285 5.98
  270.1612 C18H22O2- 1 270.1625 -5.07
  270.3931 C17H50O- 1 270.3867 23.61
  270.5192 C17H66- 1 270.517 8.07
  270.5702 C15H74O- 1 270.5745 -15.88
  271.0804 C19H11O2- 1 271.0765 14.48
  271.1462 C21H19- 1 271.1492 -11.12
  271.4218 C14H55O3- 1 271.4157 22.65
  271.6824 C14H87O- 1 271.6762 22.8
  272.4264 C14H56O3- 1 272.4235 10.84
  272.4934 C16H64O- 1 272.4963 -10.61
  272.5212 C13H68O3- 1 272.5174 14.02
  273.1678 C21H21- 1 273.1649 10.73
  273.3933 C13H53O4- 1 273.3949 -6.08
  273.6557 C13H85O2- 1 273.6555 0.76
  274.0985 C19H14O2- 1 274.0999 -5.28
  274.1264 C16H18O4- 1 274.1211 19.54
  274.166 C21H22- 1 274.1727 -24.57
  274.3198 C18H42O- 1 274.3241 -15.81
  274.3611 C19H46- 1 274.3605 2.08
  274.5328 C13H70O3- 1 274.533 -0.88
  274.5533 C17H70- 1 274.5483 18.34
  275.1051 C19H15O2- 1 275.1078 -9.5
  275.2803 C20H35- 1 275.2744 21.39
  275.3947 C16H51O2- 1 275.3895 19.22
  275.432 C17H55O- 1 275.4258 22.51
  276.375 C19H48- 1 276.3762 -4.33
  276.6038 C11H80O4- 1 276.6062 -8.61
  277.196 C21H25- 1 277.1962 -0.57
  277.2221 C18H29O2- 1 277.2173 17.39
  277.6894 C13H89O2- 1 277.6868 9.5
  278.2842 C16H38O3- 1 278.2826 5.7
  278.6363 C15H82O- 1 278.6371 -2.77
  279.1645 C16H23O4- 1 279.1602 15.58
  279.3313 C17H43O2- 1 279.3269 15.86
  279.4422 C13H59O4- 1 279.4419 1.21
  279.4759 C14H63O3- 1 279.4783 -8.65
  279.6623 C12H87O3- 1 279.6661 -13.47
  280.0939 C21H12O- 1 280.0894 16.03
  280.1492 C19H20O2- 1 280.1469 8.13
  280.234 C18H32O2- 1 280.2408 -24.15
  280.4964 C18H64- 1 280.5014 -17.61
  280.5159 C15H68O2- 1 280.5225 -23.32
  280.5574 C16H72O- 1 280.5589 -5.4
  281.0628 C20H9O2- 1 281.0608 7.01
  281.0857 C17H13O4- 1 281.0819 13.51
  281.1597 C19H21O2- 1 281.1547 17.75
  281.219 C17H29O3- 1 281.2122 24.18
  281.3022 C16H41O3- 1 281.3061 -13.8
  281.3478 C17H45O2- 1 281.3425 18.68
  282.0905 C17H14O4- 1 282.0898 2.76
  282.5345 C15H70O2- 1 282.5381 -12.95
  282.6059 C17H78- 1 282.6109 -17.7
  283.0766 C20H11O2- 1 283.0765 0.57
  283.1917 C16H27O4- 1 283.1915 0.88
  283.4465 C16H59O2- 1 283.4521 -19.75
  283.4949 C17H63O- 1 283.4884 22.81
  283.5796 C16H75O- 1 283.5823 -9.64
  283.6102 C13H79O3- 1 283.6035 23.83
  284.2653 C18H36O2- 1 284.2721 -23.85
  284.4323 C19H56- 1 284.4388 -22.61
  285.0343 C22H5O- 1 285.0346 -0.85
  285.126 C21H17O- 1 285.1285 -8.69
  285.2031 C16H29O4- 1 285.2071 -14.24
  285.5829 C12H77O4- 1 285.5827 0.42
  285.6151 C13H81O3- 1 285.6191 -14.02
  285.6618 C14H85O2- 1 285.6555 22.16
  286.2198 C16H30O4- 1 286.215 17
  286.2838 C18H38O2- 1 286.2877 -13.59
  286.3155 C15H42O4- 1 286.3089 23.21
  286.5495 C18H70- 1 286.5483 4.14
  287.0207 C21H3O2- 1 287.0139 23.9
  287.1681 C18H23O3- 1 287.1653 10.02
  287.231 C20H31O- 1 287.238 -24.4
  287.4187 C18H55O- 1 287.4258 -24.83
  287.4571 C19H59- 1 287.4622 -17.72
  287.5542 C18H71- 1 287.5561 -6.75
  287.5823 C15H75O2- 1 287.5773 17.66
  287.6767 C14H87O2- 1 287.6712 19.26
  288.1345 C17H20O4- 1 288.1367 -7.57
  288.6513 C17H84- 1 288.6579 -22.77
  288.9917 C20HO3- 1 288.9931 -4.88
  289.1414 C17H21O4- 1 289.1445 -10.79
  290.0195 C24H2- 1 290.0162 11.5
  290.1679 C21H22O- 1 290.1676 0.83
  290.2996 C21H38- 1 290.2979 5.8
  290.3782 C16H50O3- 1 290.3765 5.79
  290.5212 C13H70O4- 1 290.528 -23.38
  290.5417 C17H70O- 1 290.5432 -5.06
  291.0701 C18H11O4- 1 291.0663 13.29
  291.4244 C17H55O2- 1 291.4208 12.63
  291.4602 C18H59O- 1 291.4571 10.53
  291.5125 C16H67O2- 1 291.5147 -7.25
  291.5338 C13H71O4- 1 291.5358 -6.76
  292.2686 C16H36O4- 1 292.2619 23.04
  292.4354 C17H56O2- 1 292.4286 23.23
  292.4648 C18H60O- 1 292.465 -0.54
  293.0077 C23HO- 1 293.0033 15.16
  293.2856 C20H37O- 1 293.285 2.03
  293.7032 C17H89- 1 293.697 21.34
  294.0894 C18H14O4- 1 294.0898 -1.32
  294.1692 C20H22O2- 1 294.1625 22.79
  294.3359 C21H42- 1 294.3292 22.69
  294.3733 C15H50O4- 1 294.3715 6.26
  294.4259 C20H54- 1 294.4231 9.38
  295.0931 C18H15O4- 1 295.0976 -15.32
  295.227 C18H31O3- 1 295.2279 -3.02
  295.317 C17H43O3- 1 295.3218 -16.13
  295.5624 C13H75O4- 1 295.5671 -15.69
  295.682 C16H87O- 1 295.6762 19.34
  298.2192 C17H30O4- 1 298.215 14.14
  298.2526 C18H34O3- 1 298.2513 4.29
  298.3495 C17H46O3- 1 298.3452 14.31
  298.442 C16H58O3- 1 298.4391 9.73
  298.5649 C16H74O2- 1 298.5694 -15.33
  299.094 C24H11- 1 299.0866 24.65
  299.3595 C17H47O3- 1 299.3531 21.48
  299.4469 C16H59O3- 1 299.447 -0.22
  299.5038 C14H67O4- 1 299.5045 -2.17
  299.5405 C15H71O3- 1 299.5409 -1.12
  299.5793 C16H75O2- 1 299.5773 6.7
  299.6113 C17H79O- 1 299.6136 -7.67
  299.6504 C18H83- 1 299.65 1.19
  300.0903 C24H12- 1 300.0944 -13.96
  300.1562 C22H20O- 1 300.152 14.01
  300.3305 C16H44O4- 1 300.3245 19.92
  300.411 C15H56O4- 1 300.4184 -24.5
  300.4687 C20H60- 1 300.4701 -4.34
  301.0055 C25H- 1 301.0084 -9.66
  301.1777 C19H25O3- 1 301.1809 -10.81
  301.4116 C18H53O2- 1 301.4051 21.57
  302.2547 C21H34O- 1 302.2615 -22.54
  302.3406 C16H46O4- 1 302.3402 1.55
  302.5459 C18H70O- 1 302.5432 9.03
  303.1149 C24H15- 1 303.1179 -9.94
  303.1533 C18H23O4- 1 303.1602 -22.8
  303.2659 C21H35O- 1 303.2693 -11.26
  303.3254 C19H43O2- 1 303.3269 -4.74
  303.4788 C16H63O3- 1 303.4783 1.86
  303.664 C14H87O3- 1 303.6661 -6.94
  304.082 C23H12O- 1 304.0894 -24.08
  304.2093 C19H28O3- 1 304.2044 16.09
  304.4245 C18H56O2- 1 304.4286 -13.37
  304.5454 C14H72O4- 1 304.5436 5.93
  304.6574 C17H84O- 1 304.6528 15.29
  305.0272 C21H5O3- 1 305.0244 9.24
  305.1129 C20H17O3- 1 305.1183 -17.91
  305.195 C22H25O- 1 305.1911 12.66
  305.3592 C16H49O4- 1 305.3636 -14.54
  305.3853 C20H49O- 1 305.3789 20.84
  305.6188 C16H81O2- 1 305.6242 -17.77
  306.1017 C23H14O- 1 306.105 -10.83
  306.1961 C22H26O- 1 306.1989 -9.2
  306.3175 C18H42O3- 1 306.3139 11.51
  307.007 C20H3O4- 1 307.0037 10.95
  307.1945 C18H27O4- 1 307.1915 9.84
  307.2628 C20H35O2- 1 307.2643 -4.61
  308.1741 C21H24O2- 1 308.1782 -13.36
  308.2576 C23H32- 1 308.2509 21.59
  308.343 C22H44- 1 308.3448 -5.93
  308.5764 C14H76O4- 1 308.5749 4.75
  309.0914 C22H13O2- 1 309.0921 -2.27
  309.212 C18H29O4- 1 309.2071 15.82
  309.3324 C18H45O3- 1 309.3374 -16.21
  309.3787 C19H49O2- 1 309.3738 15.68
  309.4132 C20H53O- 1 309.4102 9.69
  309.4871 C15H65O4- 1 309.4888 -5.57
  309.6052 C18H77O- 1 309.598 23.4
  310.0718 C25H10- 1 310.0788 -22.73
  310.1298 C23H18O- 1 310.1363 -21.07
  310.3975 C16H54O4- 1 310.4028 -16.99
  310.5965 C14H78O4- 1 310.5906 19.02
  310.6359 C19H82- 1 310.6422 -20.15
  311.5447 C16H71O3- 1 311.5409 12.38
  311.5734 C17H75O2- 1 311.5773 -12.43
  312.1433 C19H20O4- 1 312.1367 21.18
  312.324 C17H44O4- 1 312.3245 -1.67
  312.4659 C21H60- 1 312.4701 -13.42
  312.5498 C16H72O3- 1 312.5487 3.49
  313.6175 C14H81O4- 1 313.614 11.14
  314.0561 C20H10O4- 1 314.0585 -7.61
  315.3074 C23H39- 1 315.3057 5.43
  315.3698 C21H47O- 1 315.3632 20.95
  315.6303 C14H83O4- 1 315.6297 1.9
  316.9936 C21HO4- 1 316.988 17.61
  317.2115 C20H29O3- 1 317.2122 -2.34
  318.3684 C17H50O4- 1 318.3715 -9.63
  318.4216 C22H54- 1 318.4231 -4.63
  318.4579 C16H62O4- 1 318.4654 -23.54
  319.221 C20H31O3- 1 319.2279 -21.37
  319.3221 C19H43O3- 1 319.3218 1.16
  319.4569 C19H59O2- 1 319.4521 15.05
  319.5147 C17H67O3- 1 319.5096 16.15
  319.6658 C14H87O4- 1 319.661 14.94
  320.0486 C22H8O3- 1 320.0479 2.23
  320.1456 C21H20O3- 1 320.1418 11.76
  320.4532 C19H60O2- 1 320.4599 -20.87
  320.4879 C16H64O4- 1 320.481 21.43
  320.597 C19H76O- 1 320.5902 21.44
  321.0323 C25H5O- 1 321.0346 -7.12
  321.0558 C22H9O3- 1 321.0557 0.4
  321.1476 C21H21O3- 1 321.1496 -6.25
  321.21 C19H29O4- 1 321.2071 8.81
  321.5307 C17H69O3- 1 321.5252 16.89
  322.0588 C22H10O3- 1 322.0635 -14.61
  322.1371 C24H18O- 1 322.1363 2.37
  322.1622 C21H22O3- 1 322.1574 14.79
  323.2438 C23H31O- 1 323.238 17.94
  323.4293 C21H55O- 1 323.4258 10.63
  323.6507 C20H83- 1 323.65 2.15
  324.6858 C17H88O2- 1 324.679 21.11
  325.079 C22H13O3- 1 325.087 -24.71
  325.1206 C23H17O2- 1 325.1234 -8.54
  325.366 C19H49O3- 1 325.3687 -8.27
  325.6364 C19H81O- 1 325.6293 21.79
  326.0718 C25H10O- 1 326.0737 -5.98
  326.4158 C20H54O2- 1 326.4129 8.66
  326.5713 C17H74O3- 1 326.5643 21.21
  327.0269 C27H3- 1 327.024 8.83
  327.1553 C20H23O4- 1 327.1602 -14.8
  327.2155 C25H27- 1 327.2118 11.2
  327.6642 C16H87O3- 1 327.6661 -5.78
  327.9987 C26O- 1 327.9955 10.02
  328.3613 C18H48O4- 1 328.3558 16.76
  328.4614 C21H60O- 1 328.465 -10.87
  328.5552 C20H72O- 1 328.5589 -11.2
  328.6857 C20H88- 1 328.6892 -10.6
  329.0091 C26HO- 1 329.0033 17.75
  329.042 C27H5- 1 329.0397 7.07
  329.0784 C21H13O4- 1 329.0819 -10.79
  329.2688 C19H37O4- 1 329.2697 -2.79
  329.3629 C18H49O4- 1 329.3636 -2.28
  329.434 C20H57O2- 1 329.4364 -7.38
  329.566 C20H73O- 1 329.5667 -2.07
  330.2508 C22H34O2- 1 330.2564 -17.04
  330.2741 C19H38O4- 1 330.2776 -10.44
  330.6078 C21H78- 1 330.6109 -9.34
  331.1761 C23H23O2- 1 331.1704 17.41
  331.1999 C24H27O- 1 331.2067 -20.75
  331.4182 C19H55O3- 1 331.4157 7.61
  331.5905 C20H75O- 1 331.5823 24.69
  331.6774 C19H87O- 1 331.6762 3.34
  332.3327 C20H44O3- 1 332.3296 9.37
  332.3944 C18H52O4- 2 332.3871 21.94
  332.5563 C19H72O2- 1 332.5538 7.69
  333.1234 C25H17O- 1 333.1285 -15.4
  333.541 C22H69- 1 333.5405 1.55
  333.6326 C21H81- 1 333.6344 -5.18
  334.5432 C22H70- 1 334.5483 -15.22
  335.0648 C23H11O3- 1 335.0714 -19.62
  335.0911 C27H11- 1 335.0866 13.28
  335.1859 C26H23- 1 335.1805 16.03
  336.0614 C26H8O- 1 336.0581 9.94
  336.4317 C22H56O- 1 336.4337 -5.93
  336.4734 C23H60- 1 336.4701 9.81
  336.6048 C16H80O4- 1 336.6062 -4.07
  337.0004 C24HO3- 2 336.9931 21.48
  337.097 C27H13- 1 337.1023 -15.74
  337.2673 C21H37O3- 1 337.2748 -22.38
  338.4933 C23H62- 1 338.4857 22.41
  338.6164 C16H82O4- 1 338.6219 -15.98
  339.0653 C22H11O4- 1 339.0663 -3.04
  339.2245 C23H31O2- 1 339.233 -24.87
  339.4251 C21H55O2- 1 339.4208 12.82
  339.4978 C23H63- 1 339.4935 12.46
  339.5922 C22H75- 1 339.5874 14.05
  339.991 C27O- 1 339.9955 -13.08
  340.1296 C27H16- 1 340.1257 11.35
  340.1748 C21H24O4- 2 340.168 19.92
  341.0614 C25H9O2- 1 341.0608 1.63
  341.247 C23H33O2- 1 341.2486 -4.84
  341.373 C23H49O- 1 341.3789 -17.25
  341.4421 C21H57O2- 1 341.4364 16.81
  341.5948 C18H77O3- 2 341.5878 20.57
  341.6512 C16H85O4- 1 341.6453 17.12
  342.4254 C24H54- 1 342.4231 6.74
  342.6058 C22H78- 1 342.6109 -14.99
  343.1067 C26H15O- 1 343.1128 -17.89
  343.157 C27H19- 1 343.1492 22.57
  343.3001 C24H39O- 1 343.3006 -1.66
  343.3639 C22H47O2- 1 343.3582 16.82
  343.4326 C24H55- 1 343.4309 4.82
  343.4838 C22H63O- 1 343.4884 -13.56
  343.5881 C21H75O- 1 343.5823 16.69
  344.1291 C26H16O- 1 344.1207 24.64
  344.4303 C20H56O3- 2 344.4235 19.82
  344.6734 C16H88O4- 1 344.6688 13.2
  345.1241 C26H17O- 1 345.1285 -12.61
  345.2023 C21H29O4- 1 345.2071 -13.99
  345.6306 C22H81- 1 345.6344 -10.99
  346.012 C26H2O2- 1 346.006 17.13
  346.2129 C21H30O4- 1 346.215 -5.86
  346.3404 C21H46O3- 1 346.3452 -14.13
  346.4539 C24H58- 1 346.4544 -1.31
  347.0119 C26H3O2- 1 347.0139 -5.56
  347.0506 C27H7O- 1 347.0502 1.12
  347.1783 C27H23- 1 347.1805 -6.33
  347.4076 C19H55O4- 1 347.4106 -8.47
  347.4422 C20H59O3- 1 347.447 -13.86
  347.6539 C22H83- 1 347.65 11.22
  348.0775 C24H12O3- 1 348.0792 -4.96
  348.3189 C20H44O4- 1 348.3245 -16.16
  348.3547 C21H48O3- 1 348.3609 -17.78
  348.4001 C22H52O2- 1 348.3973 8.21
  349.1741 C23H25O3- 1 349.1809 -19.56
  349.2352 C21H33O4- 1 349.2384 -9.12
  349.3446 C24H45O- 1 349.3476 -8.62
  349.3733 C21H49O3- 1 349.3687 13.06
  349.5155 C18H69O4- 1 349.5201 -13.31
  350.0722 C27H10O- 1 350.0737 -4.46
  350.239 C21H34O4- 1 350.2463 -20.8
  350.3337 C20H46O4- 1 350.3402 -18.46
  350.3687 C21H50O3- 1 350.3765 -22.26
  350.5325 C18H70O4- 1 350.528 13.09
  351.1034 C24H15O3- 1 351.1027 2.06
  351.2052 C27H27- 2 351.2118 -18.92
  351.2671 C25H35O- 1 351.2693 -6.48
  351.6722 C18H87O3- 1 351.6661 17.52
  352.0844 C27H12O- 1 352.0894 -14.14
  352.1269 C28H16- 1 352.1257 3.32
  352.3012 C22H40O3- 1 352.2983 8.33
  352.3409 C23H44O2- 1 352.3347 17.7
  352.4369 C22H56O2- 1 352.4286 23.7
  352.6669 C18H88O3- 1 352.6739 -19.7
  353.0847 C23H13O4- 1 353.0819 7.82
  353.2457 C24H33O2- 1 353.2486 -8.15
  354.1657 C25H22O2- 1 354.1625 9.01
  354.196 C26H26O- 1 354.1989 -8.31
  354.3532 C23H46O2- 1 354.3503 8.24
  354.5196 C24H66- 1 354.517 7.31
  355.0525 C29H7- 1 355.0553 -7.95
  355.2426 C27H31- 1 355.2431 -1.42
  355.5691 C18H75O4- 1 355.5671 5.73
  356.1065 C23H16O4- 1 356.1054 2.93
  356.272 C24H36O2- 1 356.2721 -0.1
  356.4778 C19H64O4- 1 356.481 -8.98
  356.5697 C18H76O4- 1 356.5749 -14.67
  356.6793 C21H88O- 1 356.6841 -13.3
  357.0697 C29H9- 1 357.071 -3.56
  357.4481 C25H57- 1 357.4466 4.32
  357.5417 C24H69- 1 357.5405 3.52
  358.3186 C25H42O- 1 358.3241 -15.45
  358.4192 C24H54O- 1 358.418 3.43
  359.1366 C27H19O- 2 359.1441 -21.08
  359.2094 C25H27O2- 1 359.2017 21.49
  359.4265 C24H55O- 1 359.4258 1.83
  359.4976 C19H67O4- 1 359.5045 -19.19
  359.6212 C22H79O- 1 359.6136 21.02
  359.6676 C20H87O2- 1 359.6712 -9.78
  360.647 C19H84O3- 1 360.6426 12.34
  360.6777 C20H88O2- 1 360.679 -3.69
  361.3431 C25H45O- 1 361.3476 -12.38
  361.429 C20H57O4- 1 361.4262 7.71
  361.5164 C19H69O4- 1 361.5201 -10.36
  362.0862 C25H14O3- 1 362.0948 -23.78
  362.3127 C24H42O2- 1 362.319 -17.57
  362.3703 C22H50O3- 1 362.3765 -17.22
  363.018 C30H3- 1 363.024 -16.66
  363.4178 C23H55O2- 1 363.4208 -8.12
  363.6009 C21H79O2- 1 363.6086 -20.99
  363.6823 C23H87- 1 363.6813 2.65
  364.3027 C23H40O3- 1 364.2983 12.01
  364.5055 C25H64- 1 364.5014 11.29
  364.5363 C19H72O4- 1 364.5436 -20.17
  364.6138 C21H80O2- 1 364.6164 -6.94
  364.6704 C19H88O3- 1 364.6739 -9.48
  365.0033 C29HO- 1 365.0033 0.05
  365.1883 C27H25O- 1 365.1911 -7.65
  365.3011 C23H41O3- 1 365.3061 -13.82
  365.5945 C20H77O3- 2 365.5878 18.26
  366.1187 C25H18O3- 1 366.1261 -20.23
  367.2317 C24H31O3- 1 367.2279 10.32
  367.4071 C22H55O3- 1 367.4157 -23.29
  367.6702 C22H87O- 1 367.6762 -16.35
  368.2778 C25H36O2- 1 368.2721 15.53
  368.4653 C23H60O2- 1 368.4599 14.67
  368.5319 C25H68- 1 368.5327 -2.14
  369.1155 C24H17O4- 1 369.1132 6.23
  369.2131 C23H29O4- 1 369.2071 16.24
  369.3507 C27H45- 1 369.3527 -5.38
  369.4767 C23H61O2- 1 369.4677 24.28
  369.5294 C21H69O3- 1 369.5252 11.3
  369.6063 C23H77O- 1 369.598 22.53
  370.0221 C25H6O4- 1 370.0272 -13.74
  370.0615 C26H10O3- 1 370.0635 -5.6
  370.3968 C21H54O4- 1 370.4028 -15.99
  371.1594 C25H23O3- 1 371.1653 -15.9
  371.2635 C24H35O3- 1 371.2592 11.71
  371.2868 C25H39O2- 1 371.2956 -23.45
  371.329 C26H43O- 1 371.3319 -7.97
  371.4407 C22H59O3- 1 371.447 -16.79
  371.4913 C23H63O2- 1 371.4834 21.26
  371.5383 C21H71O3- 1 371.5409 -7.01
  372.3306 C22H44O4- 2 372.3245 16.49
  373.2871 C28H37- 1 373.2901 -7.91
  373.3322 C22H45O4- 1 373.3323 -0.37
  373.9959 C27H2O3- 1 374.0009 -13.54
  375.1696 C28H23O- 1 375.1754 -15.49
  375.2597 C23H35O4- 1 375.2541 14.89
  376.0595 C28H8O2- 1 376.053 17.47
  376.1716 C24H24O4- 1 376.168 9.49
  376.6606 C23H84O- 1 376.6528 20.81
  377.0222 C27H5O3- 1 377.0244 -5.97
  377.1825 C24H25O4- 2 377.1758 17.79
  377.4026 C23H53O3- 1 377.4 6.92
  378.1877 C24H26O4- 1 378.1837 10.73
  378.3641 C22H50O4- 1 378.3715 -19.34
  378.439 C24H58O2- 1 378.4442 -13.94
  379.0087 C26H3O4- 1 379.0037 13.14
  379.3357 C28H43- 1 379.337 -3.5
  379.4322 C27H55- 1 379.4309 3.46
  379.4711 C21H63O4- 1 379.4732 -5.41
  380.1026 C25H16O4- 1 380.1054 -7.44
  380.1337 C26H20O3- 1 380.1418 -21.21
  380.1735 C27H24O2- 1 380.1782 -12.21
  380.5582 C23H72O2- 1 380.5538 11.64
  380.6438 C22H84O2- 1 380.6477 -10.27
  381.0356 C30H5O- 1 381.0346 2.65
  381.1573 C30H21- 2 381.1649 -19.9
  381.2126 C24H29O4- 1 381.2071 14.37
  381.2544 C29H33- 1 381.2588 -11.43
  381.3084 C23H41O4- 2 381.301 19.42
  381.3762 C25H49O2- 1 381.3738 6.28
  381.4115 C26H53O- 1 381.4102 3.38
  382.0109 C29H2O2- 1 382.006 12.72
  382.0643 C27H10O3- 1 382.0635 1.92
  382.1307 C29H18O- 1 382.1363 -14.68
  382.3569 C28H46- 1 382.3605 -9.4
  382.4035 C22H54O4- 1 382.4028 1.88
  382.5736 C23H74O2- 1 382.5694 11.02
  383.1386 C29H19O- 1 383.1441 -14.42
  383.3137 C23H43O4- 1 383.3167 -7.72
  383.4273 C26H55O- 1 383.4258 3.9
  383.5731 C23H75O2- 1 383.5773 -10.87
  384.0621 C30H8O- 1 384.0581 10.42
  384.1381 C25H20O4- 1 384.1367 3.64
  384.1681 C26H24O3- 1 384.1731 -12.95
  384.4844 C24H64O2- 1 384.4912 -17.67
  385.0145 C32H- 1 385.0084 15.99
  385.5839 C23H77O2- 1 385.5929 -23.29
  386.507 C24H66O2- 1 386.5068 0.35
  387.151 C25H23O4- 1 387.1602 -23.83
  387.2555 C24H35O4- 1 387.2541 3.59
  387.5091 C24H67O2- 1 387.5147 -14.32
  388.1268 C31H16- 1 388.1257 2.75
  388.2927 C25H40O3- 1 388.2983 -14.51
  388.6138 C23H80O2- 1 388.6164 -6.71
  389.1098 C27H17O3- 1 389.1183 -22
  389.2625 C24H37O4- 1 389.2697 -18.56
  389.991 C27H2O4- 1 389.9959 -12.43
  390.0466 C32H6- 1 390.0475 -2.38
  390.1544 C28H22O2- 1 390.1625 -20.82
  390.3097 C25H42O3- 1 390.3139 -10.8
  390.4757 C26H62O- 1 390.4806 -12.67
  391.1337 C27H19O3- 1 391.134 -0.66
  391.2555 C27H35O2- 1 391.2643 -22.26
  391.3309 C29H43- 2 391.337 -15.6
  391.3934 C27H51O- 1 391.3945 -2.83
  391.5507 C24H71O2- 1 391.546 12.09
  391.6775 C24H87O- 1 391.6762 3.15
  392.0155 C27H4O4- 1 392.0115 10.15
  392.11 C26H16O4- 1 392.1054 11.72
  392.2563 C30H32- 1 392.2509 13.75
  392.3707 C26H48O2- 1 392.366 12.11
  392.419 C24H56O3- 1 392.4235 -11.46
  392.5372 C27H68- 1 392.5327 11.59
  393.244 C26H33O3- 1 393.2435 1.17
  393.2889 C27H37O2- 1 393.2799 22.78
  393.3587 C29H45- 1 393.3527 15.23
  393.4634 C25H61O2- 1 393.4677 -11.02
  393.6645 C23H85O2- 1 393.6555 22.89
  393.6935 C24H89O- 1 393.6919 4.17
  394.1608 C27H22O3- 1 394.1574 8.42
  394.4797 C25H62O2- 1 394.4755 10.66
  394.516 C26H66O- 1 394.5119 10.41
  394.6032 C25H78O- 1 394.6058 -6.72
  395.0139 C30H3O2- 1 395.0139 0.02
  395.192 C28H27O2- 1 395.2017 -24.45
  395.2612 C26H35O3- 1 395.2592 5.26
  395.388 C26H51O2- 1 395.3895 -3.64
  395.4595 C28H59- 1 395.4622 -6.93
  395.5466 C23H71O3- 2 395.5409 14.5
  396.1761 C27H24O3- 1 396.1731 7.57
  396.3045 C27H40O2- 1 396.3034 2.74
  396.4274 C27H56O- 2 396.4337 -15.92
  396.6338 C22H84O3- 1 396.6426 -22.24
  397.0428 C27H9O4- 1 397.0506 -19.84
  397.1355 C26H21O4- 1 397.1445 -22.83
  397.466 C24H61O3- 1 397.4626 8.52
  397.5016 C25H65O2- 1 397.499 6.61
  398.2712 C29H34O- 1 398.2615 24.31
  398.5589 C23H74O3- 1 398.5643 -13.68
  398.6434 C25H82O- 1 398.6371 15.79
  399.0238 C33H3- 1 399.024 -0.62
  399.1176 C32H15- 1 399.1179 -0.89
  400.2377 C28H32O2- 1 400.2408 -7.6
  400.539 C22H72O4- 1 400.5436 -11.61
  401.0048 C32HO- 1 401.0033 3.7
  401.2077 C27H29O3- 1 401.2122 -11.3
  401.3411 C27H45O2- 1 401.3425 -3.48
  401.9953 C28H2O4- 1 401.9959 -1.43
  402.0314 C29H6O3- 1 402.0322 -2.06
  402.0675 C30H10O2- 1 402.0686 -2.87
  402.1806 C26H26O4- 1 402.1837 -7.58
  402.2843 C25H38O4- 2 402.2776 16.85
  402.3271 C30H42- 1 402.3292 -5.27
  402.6342 C24H82O2- 1 402.632 5.31
  403.6849 C25H87O- 1 403.6762 21.47
  406.0963 C30H14O2- 1 406.0999 -8.96
  407.2606 C27H35O3- 1 407.2592 3.39
  407.316 C25H43O4- 1 407.3167 -1.7
  407.4358 C28H55O- 1 407.4258 24.49
  408.1441 C27H20O4- 2 408.1367 18.07
  408.1896 C32H24- 1 408.1883 3.07
  408.2603 C27H36O3- 1 408.267 -16.43
  408.306 C28H40O2- 1 408.3034 6.32
  408.3423 C29H44O- 1 408.3398 6.16
  408.4296 C28H56O- 1 408.4337 -9.98
  409.1189 C30H17O2- 1 409.1234 -11
  409.1611 C31H21O- 1 409.1598 3.16
  409.2344 C26H33O4- 1 409.2384 -9.81
  409.5737 C28H73- 1 409.5718 4.81
  409.6111 C22H81O4- 1 409.614 -7.1
  409.9969 C30H2O3- 1 410.0009 -9.81
  410.5004 C26H66O2- 1 410.5068 -15.59
  410.6669 C27H86- 2 410.6735 -16.12
  411.2345 C29H31O2- 1 411.233 3.87
  411.471 C25H63O3- 1 411.4783 -17.69
  411.6099 C25H79O2- 1 411.6086 3.24
  412.1825 C31H24O- 1 412.1833 -1.8
  412.3748 C29H48O- 1 412.3711 9.02
  413.2182 C28H29O3- 2 413.2122 14.48
  413.2769 C26H37O4- 2 413.2697 17.38
  413.559 C23H73O4- 2 413.5514 18.28
  414.1617 C30H22O2- 1 414.1625 -2.01
  414.4339 C27H58O2- 1 414.4442 -24.86
  415.1602 C30H23O2- 1 415.1704 -24.55
  415.1883 C27H27O4- 1 415.1915 -7.74
  415.2405 C32H31- 1 415.2431 -6.25
  415.4057 C26H55O3- 1 415.4157 -23.92
  415.5919 C27H75O- 1 415.5823 22.88
  416.1423 C29H20O3- 1 416.1418 1.25
  416.1792 C30H24O2- 1 416.1782 2.55
  416.2302 C28H32O3- 1 416.2357 -13.29
  416.648 C25H84O2- 1 416.6477 0.85
  417.0784 C34H9- 1 417.071 17.74
  417.1919 C30H25O2- 1 417.186 14.11
  417.286 C29H37O2- 1 417.2799 14.56
  417.3648 C28H49O2- 1 417.3738 -21.66
  417.4906 C24H65O4- 1 417.4888 4.18
  417.5566 C26H73O2- 1 417.5616 -12.06
  417.6384 C28H81- 1 417.6344 9.63
  418.1008 C31H14O2- 1 418.0999 2.08
  418.16 C29H22O3- 1 418.1574 6.22
  418.6738 C25H86O2- 1 418.6633 24.97
  419.1645 C29H23O3- 1 419.1653 -1.79
  419.4391 C26H59O3- 1 419.447 -18.73
  420.1556 C32H20O- 1 420.152 8.74
  420.5198 C24H68O4- 2 420.5123 17.88
  420.5527 C25H72O3- 1 420.5487 9.58
  421.2146 C30H29O2- 1 421.2173 -6.37
  421.3257 C26H45O4- 1 421.3323 -15.85
  421.4598 C26H61O3- 1 421.4626 -6.69
  422.386 C31H50- 2 422.3918 -13.77
  423.2881 C28H39O3- 1 423.2905 -5.7
  423.4774 C26H63O3- 1 423.4783 -2.02
  423.6399 C27H83O- 2 423.6449 -11.96
  424.0233 C31H4O3- 2 424.0166 15.79
  424.231 C30H32O2- 1 424.2408 -23.03
  424.358 C26H48O4- 1 424.3558 5.06
  424.6327 C23H84O4- 1 424.6375 -11.34
  425.3609 C26H49O4- 1 425.3636 -6.51
  425.6709 C27H85O- 1 425.6606 24.21
  426.0429 C35H6- 1 426.0475 -10.78
  426.1291 C30H18O3- 1 426.1261 7
  426.1655 C31H22O2- 1 426.1625 6.88
  426.4714 C25H62O4- 2 426.4654 14.13
  426.9967 C30H3O4- 1 427.0037 -16.35
  427.053 C35H7- 1 427.0553 -5.51
  427.0928 C29H15O4- 1 427.0976 -11.12
  427.1381 C30H19O3- 1 427.134 9.6
  427.163 C31H23O2- 1 427.1704 -17.11
  427.3354 C32H43- 1 427.337 -3.9
  427.3805 C26H51O4- 1 427.3793 2.92
  427.513 C26H67O3- 1 427.5096 8.02
  428.0304 C34H4O- 1 428.0268 8.5
  429.2005 C28H29O4- 1 429.2071 -15.55
  429.4059 C30H53O- 1 429.4102 -9.91
  429.6933 C27H89O- 1 429.6919 3.23
  430.5432 C30H70- 2 430.5483 -11.86
  431.0874 C35H11- 1 431.0866 1.74
  431.1501 C33H19O- 1 431.1441 13.76
  431.5045 C25H67O4- 1 431.5045 -0.04
  432.2212 C28H32O4- 1 432.2306 -21.74
  432.3363 C31H44O- 1 432.3398 -7.99
  432.4157 C26H56O4- 1 432.4184 -6.27
  432.6509 C29H84- 2 432.6579 -16.11
  433.1083 C35H13- 1 433.1023 13.81
  433.1942 C34H25- 1 433.1962 -4.55
  433.2952 C33H37- 1 433.2901 11.72
  433.6002 C27H77O2- 1 433.5929 16.73
  434.1908 C30H26O3- 1 434.1887 4.81
  434.429 C26H58O4- 1 434.4341 -11.63
  435.0666 C30H11O4- 1 435.0663 0.76
  435.5574 C29H71O- 1 435.551 14.62
  436.0899 C34H12O- 1 436.0894 1.15
  436.3694 C31H48O- 1 436.3711 -3.9
  436.5068 C31H64- 1 436.5014 12.37
  436.5381 C25H72O4- 1 436.5436 -12.63
  436.5976 C30H76- 1 436.5953 5.27
  437.1043 C34H13O- 1 437.0972 16.37
  437.1625 C32H21O2- 1 437.1547 17.82
  437.4306 C29H57O2- 1 437.4364 -13.16
  437.6094 C30H77- 1 437.6031 14.49
  438.4334 C29H58O2- 1 438.4442 -24.61
  438.5704 C29H74O- 1 438.5745 -9.36
  439.2547 C31H35O2- 1 439.2643 -21.79
  439.4681 C26H63O4- 1 439.4732 -11.61
  439.6368 C27H83O2- 1 439.6399 -7.06
  439.6729 C28H87O- 1 439.6762 -7.51
  440.0015 C31H4O4- 1 440.0115 -22.68
  440.0633 C36H8- 1 440.0631 0.23
  440.2024 C29H28O4- 1 440.1993 6.99
  440.5939 C29H76O- 1 440.5902 8.42
  441.1337 C34H17O- 1 441.1285 11.86
  441.2872 C31H37O2- 1 441.2799 16.64
  441.4862 C26H65O4- 1 441.4888 -5.92
  442.0126 C34H2O2- 1 442.006 14.9
  442.22 C29H30O4- 2 442.215 11.3
  442.593 C25H78O4- 1 442.5906 5.53
  443.1985 C32H27O2- 1 443.2017 -7.21
  443.4359 C31H55O- 1 443.4258 22.59
  443.6267 C26H83O3- 1 443.6348 -18.27
  443.6622 C27H87O2- 1 443.6712 -20.2
  444.3991 C30H52O2- 1 444.3973 4.13
  444.5401 C27H72O3- 1 444.5487 -19.4
  444.6901 C27H88O2- 1 444.679 24.91
  445.01 C37H- 1 445.0084 3.56
  445.067 C35H9O- 1 445.0659 2.52
  445.4213 C27H57O4- 1 445.4262 -10.97
  446.2412 C29H34O4- 1 446.2463 -11.34
  447.0856 C35H11O- 1 447.0815 9.17
  447.1304 C33H19O2- 1 447.1391 -19.39
  447.3158 C31H43O2- 1 447.3269 -24.66
  447.4689 C28H63O3- 1 447.4783 -20.91
  448.0717 C31H12O4- 1 448.0741 -5.45
  448.1701 C30H24O4- 1 448.168 4.68
  448.2812 C33H36O- 1 448.2772 8.95
  448.3937 C29H52O3- 1 448.3922 3.46
  449.0067 C36HO- 1 449.0033 7.7
  449.0652 C34H9O2- 1 449.0608 9.74
  449.1473 C33H21O2- 1 449.1547 -16.59
  449.1815 C30H25O4- 2 449.1758 12.71
  450.5103 C32H66- 2 450.517 -14.79
  451.1372 C32H19O3- 1 451.134 7.22
  451.2056 C34H27O- 1 451.2067 -2.46
  451.4249 C33H55- 2 451.4309 -13.32
  451.684 C29H87O- 1 451.6762 17.17
  452.044 C33H8O3- 1 452.0479 -8.55
  452.1758 C33H24O2- 1 452.1782 -5.31
  452.245 C35H32- 2 452.2509 -13.17
  452.3456 C34H44- 1 452.3448 1.6
  452.5763 C26H76O4- 1 452.5749 3.12
  453.0764 C37H9- 1 453.071 11.94
  453.3858 C28H53O4- 1 453.3949 -20.24
  453.5598 C29H73O2- 1 453.5616 -3.92
  453.6244 C27H81O3- 2 453.6191 11.6
  453.6852 C29H89O- 2 453.6919 -14.64
  454.0705 C33H10O3- 2 454.0635 15.34
  454.1987 C33H26O2- 1 454.1938 10.66
  454.5187 C31H66O- 1 454.5119 14.88
  455.2065 C33H27O2- 1 455.2017 10.73
  455.2779 C35H35- 1 455.2744 7.65
  455.3104 C29H43O4- 1 455.3167 -13.85
  455.4022 C28H55O4- 1 455.4106 -18.48
  455.5904 C26H79O4- 1 455.5984 -17.52
  457.0359 C35H5O2- 1 457.0295 13.96
  457.2365 C30H33O4- 1 457.2384 -4.23
  457.5331 C31H69O- 1 457.5354 -4.96
  458.1564 C31H22O4- 2 458.1524 8.76
  458.2723 C31H38O3- 2 458.2826 -22.57
  458.6154 C26H82O4- 1 458.6219 -14.02
  458.6713 C31H86- 1 458.6735 -4.83
  459.1097 C33H15O3- 2 459.1027 15.28
  459.243 C33H31O2- 2 459.233 21.92
  459.3283 C32H43O2- 1 459.3269 3.18
  460.3328 C32H44O2- 1 460.3347 -4.11
  460.4229 C31H56O2- 1 460.4286 -12.24
  460.5051 C33H64- 1 460.5014 8.12
  460.6206 C29H80O2- 1 460.6164 9.13
  460.9864 C33HO4- 1 460.988 -3.44
  461.491 C29H65O3- 1 461.4939 -6.25
  461.6861 C27H89O3- 2 461.6817 9.59
  462.0826 C32H14O4- 1 462.0898 -15.46
  462.1602 C34H22O2- 1 462.1625 -5.02
  462.2932 C34H38O- 1 462.2928 0.87
  462.4467 C31H58O2- 1 462.4442 5.26
  462.6043 C32H78- 2 462.6109 -14.28
  463.0911 C32H15O4- 1 463.0976 -13.93
  463.5213 C33H67- 1 463.5248 -7.64
  463.5867 C31H75O- 1 463.5823 9.43
  464.0616 C38H8- 1 464.0631 -3.43
  464.1065 C32H16O4- 1 464.1054 2.31
  464.1983 C31H28O4- 1 464.1993 -2.15
  464.2578 C36H32- 1 464.2509 14.67
  464.3358 C31H44O3- 2 464.3296 13.27
  464.3774 C29H52O4- 2 464.3871 -20.9
  464.4681 C31H60O2- 1 464.4599 17.72
  465.1311 C36H17O- 1 465.1285 5.71
  465.177 C34H25O2- 1 465.186 -19.35
  465.2121 C31H29O4- 2 465.2071 10.76
  465.5107 C32H65O- 1 465.5041 14.13
  467.0547 C37H7O- 1 467.0502 9.59
  467.3933 C32H51O2- 1 467.3895 8.16
  467.5028 C28H67O4- 1 467.5045 -3.7
  467.5927 C27H79O4- 1 467.5984 -12.11
  468.024 C36H4O2- 1 468.0217 4.93
  468.1508 C36H20O- 1 468.152 -2.56
  468.292 C33H40O2- 1 468.3034 -24.35
  468.3419 C34H44O- 1 468.3398 4.51
  468.4375 C33H56O- 1 468.4337 8.13
  468.6857 C29H88O2- 1 468.679 14.24
  469.1156 C35H17O2- 1 469.1234 -16.7
  469.336 C30H45O4- 2 469.3323 7.74
  469.3847 C35H49- 1 469.384 1.51
  470.0729 C37H10O- 1 470.0737 -1.78
  470.1274 C35H18O2- 1 470.1312 -8.09
  470.3264 C33H42O2- 1 470.319 15.64
  470.6757 C32H86- 1 470.6735 4.7
  471.0868 C37H11O- 1 471.0815 11.06
  471.1995 C33H27O3- 1 471.1966 6.13
  471.2977 C32H39O3- 2 471.2905 15.38
  471.396 C35H51- 2 471.3996 -7.74
  471.5226 C31H67O2- 1 471.5147 16.83
  472.108 C34H16O3- 1 472.1105 -5.25
  472.1715 C32H24O4- 2 472.168 7.35
  472.334 C33H44O2- 1 472.3347 -1.36
  472.4452 C29H60O4- 1 472.4497 -9.44
  472.5005 C34H64- 1 472.5014 -1.71
  473.0679 C36H9O2- 1 473.0608 14.99
  473.203 C33H29O3- 1 473.2122 -19.4
  473.3225 C36H41- 1 473.3214 2.37
  473.3707 C30H49O4- 2 473.3636 14.99
  473.4167 C35H53- 1 473.4153 3.04
  473.4765 C33H61O- 1 473.4728 7.74
  473.5364 C31H69O2- 1 473.5303 12.85
  474.0878 C33H14O4- 1 474.0898 -4.12
  474.273 C31H38O4- 1 474.2776 -9.61
  474.3185 C32H42O3- 2 474.3139 9.62
  474.5284 C31H70O2- 1 474.5381 -20.6
  474.5761 C32H74O- 1 474.5745 3.37
  475.0599 C39H7- 1 475.0553 9.72
  475.4854 C33H63O- 1 475.4884 -6.37
  476.1776 C35H24O2- 1 476.1782 -1.31
  476.4212 C31H56O3- 1 476.4235 -4.88
  476.5995 C32H76O- 2 476.5902 19.68
  477.2607 C37H33- 1 477.2588 4.03
  478.2012 C35H26O2- 1 478.1938 15.36
  478.5628 C31H74O2- 1 478.5694 -13.89
  478.6155 C32H78O- 2 478.6058 20.15
  479.0148 C37H3O2- 1 479.0139 1.93
  479.5056 C29H67O4- 1 479.5045 2.34
  480.0422 C34H8O4- 1 480.0428 -1.31
  480.0737 C35H12O3- 1 480.0792 -11.47
  480.2621 C33H36O3- 1 480.267 -10.13
  481.3841 C36H49- 1 481.384 0.31
  481.4992 C32H65O2- 1 481.499 0.43
  481.9984 C36H2O3- 1 482.0009 -5.3
  482.1006 C35H14O3- 2 482.0948 12
  482.2048 C38H26- 1 482.204 1.67
  482.243 C32H34O4- 1 482.2463 -6.82
  482.3955 C36H50- 1 482.3918 7.74
  483.1998 C34H27O3- 2 483.1966 6.66
  483.4186 C33H55O2- 1 483.4208 -4.52
  483.6265 C28H83O4- 1 483.6297 -6.62
  484.2002 C34H28O3- 1 484.2044 -8.61
  484.3857 C32H52O3- 1 484.3922 -13.34
  484.5612 C33H72O- 1 484.5589 4.87
  484.997 C39HO- 2 485.0033 -13
  485.1291 C39H17- 2 485.1336 -9.23
  485.1861 C37H25O- 2 485.1911 -10.3
  485.2332 C38H29- 1 485.2275 11.78
  485.5597 C33H73O- 2 485.5667 -14.34
  486.1439 C39H18- 1 486.1414 5.11
  486.3231 C37H42- 2 486.3292 -12.54
  487.0197 C39H3O- 1 487.0189 1.65
  487.2499 C38H31- 1 487.2431 14.01
  487.293 C36H39O- 2 487.3006 -15.63
  487.3908 C35H51O- 2 487.3945 -7.72
  488.3135 C36H40O- 1 488.3085 10.32
  488.3674 C34H48O2- 1 488.366 2.94
  488.5677 C29H76O4- 1 488.5749 -14.71
  488.6868 C32H88O- 1 488.6841 5.67
  489.0018 C38HO2- 1 488.9982 7.35
  489.3715 C34H49O2- 1 489.3738 -4.62
  489.4089 C35H53O- 1 489.4102 -2.66
  489.5323 C31H69O3- 2 489.5252 14.51
  489.613 C30H81O3- 1 489.6191 -12.44
  490.0881 C37H14O2- 1 490.0999 -24.2
  490.1602 C35H22O3- 1 490.1574 5.59
  490.4551 C36H58- 1 490.4544 1.41
  491.0017 C38H3O2- 1 491.0139 -24.72
  491.1075 C37H15O2- 1 491.1078 -0.56
  491.2769 C38H35- 1 491.2744 5.11
  491.3344 C36H43O- 1 491.3319 5.11
  492.1608 C38H20O- 1 492.152 17.92
  492.275 C38H36- 2 492.2822 -14.68
  493.1649 C38H21O- 1 493.1598 10.46
  493.4091 C34H53O2- 1 493.4051 8.05
  493.456 C32H61O3- 1 493.4626 -13.5
  493.6061 C29H81O4- 1 493.614 -16.14
  495.0528 C38H7O2- 1 495.0452 15.4
  495.1795 C38H23O- 1 495.1754 8.23
  495.2023 C35H27O3- 2 495.1966 11.55
  495.2332 C36H31O2- 1 495.233 0.54
  495.3294 C35H43O2- 1 495.3269 5.06
  495.5886 C35H75- 1 495.5874 2.42
  496.0473 C38H8O2- 1 496.053 -11.35
  496.2742 C37H36O- 2 496.2772 -6.02
  496.3431 C35H44O2- 1 496.3347 16.93
  496.3975 C33H52O3- 2 496.3922 10.6
  497.3725 C36H49O- 2 497.3789 -12.8
  497.6184 C32H81O2- 1 497.6242 -11.74
  497.6914 C34H89- 2 497.697 -11.16
  498.1053 C39H14O- 1 498.105 0.63
  498.4512 C34H58O2- 1 498.4442 13.93
  498.4887 C35H62O- 1 498.4806 16.3
  499.1879 C34H27O4- 1 499.1915 -7.16
  499.2454 C39H31- 1 499.2431 4.51
  499.284 C33H39O4- 1 499.2854 -2.7
  499.5567 C30H75O4- 2 499.5671 -20.78
  499.6059 C31H79O3- 1 499.6035 4.87
  499.686 C33H87O- 1 499.6762 19.59
  500.2953 C33H40O4- 1 500.2932 4.19
  500.4641 C34H60O2- 1 500.4599 8.43
  500.6661 C29H88O4- 1 500.6688 -5.41
  501.0541 C37H9O3- 1 501.0557 -3.26
  501.0851 C38H13O2- 1 501.0921 -13.96
  501.1407 C36H21O3- 2 501.1496 -17.87
  501.244 C35H33O3- 1 501.2435 1.01
  501.5181 C32H69O3- 1 501.5252 -14.17
  502.248 C35H34O3- 1 502.2513 -6.65
  502.363 C38H46- 1 502.3605 5.05
  502.4912 C31H66O4- 1 502.4967 -10.84
  503.4652 C37H59- 1 503.4622 5.85
  504.2051 C37H28O2- 1 504.2095 -8.6
  504.4018 C35H52O2- 1 504.3973 8.93
  504.4324 C36H56O- 1 504.4337 -2.61
  505.0857 C37H13O3- 1 505.087 -2.62
  505.3052 C36H41O2- 1 505.3112 -11.93
  505.367 C34H49O3- 1 505.3687 -3.32
  505.5096 C31H69O4- 2 505.5201 -20.78
  505.6376 C34H81O- 1 505.6293 16.51
  506.1824 C36H26O3- 1 506.1887 -12.56
  507.0198 C42H3- 2 507.024 -8.31
  507.3961 C38H51- 2 507.3996 -6.91
  507.5332 C31H71O4- 1 507.5358 -5.1
  507.6005 C33H79O2- 1 507.6086 -15.93
  507.6459 C34H83O- 1 507.6449 1.81
  507.6804 C35H87- 1 507.6813 -1.77
  508.0897 C40H12O- 1 508.0894 0.68
  508.1649 C35H24O4- 1 508.168 -6.09
  508.3171 C39H40- 1 508.3135 7.04
  508.3916 C34H52O3- 1 508.3922 -1.21
  508.4693 C36H60O- 1 508.465 8.51
  508.4972 C37H64- 2 508.5014 -8.16
  508.5982 C36H76- 1 508.5953 5.76
  508.6962 C35H88- 1 508.6892 13.83
  508.9857 C37HO4- 1 508.988 -4.66
  509.0501 C39H9O2- 1 509.0608 -20.96
  509.1299 C41H17- 2 509.1336 -7.2
  509.2132 C36H29O3- 1 509.2122 1.94
  509.2953 C38H37O- 2 509.285 20.21
  509.5016 C37H65- 2 509.5092 -14.82
  510.0948 C36H14O4- 2 510.0898 9.88
  510.1659 C38H22O2- 1 510.1625 6.51
  510.4043 C34H54O3- 1 510.4078 -7.03
  510.5064 C33H66O3- 2 510.5017 9.1
  510.5631 C31H74O4- 2 510.5593 7.5
  511.0888 C36H15O4- 2 511.0976 -17.25
  511.2319 C36H31O3- 2 511.2279 7.94
  511.5197 C37H67- 2 511.5248 -9.95
  511.625 C36H79- 1 511.6187 12.19
  511.6824 C34H87O- 1 511.6762 12.06
  512.1731 C38H24O2- 1 512.1782 -9.83
  512.3898 C33H52O4- 2 512.3871 5.29
  513.5 C36H65O- 2 513.5041 -7.87
  513.6489 C33H85O2- 1 513.6555 -12.95
  513.6824 C30H89O4- 2 513.6766 11.15
  514.139 C40H18O- 1 514.1363 5.32
  514.3746 C36H50O2- 1 514.3816 -13.65
  514.6633 C33H86O2- 1 514.6633 0.01
  515.0921 C42H11- 1 515.0866 10.71
  515.258 C36H35O3- 1 515.2592 -2.31
  515.4881 C35H63O2- 1 515.4834 9.2
  515.5857 C34H75O2- 2 515.5773 16.37
  516.1397 C36H20O4- 2 516.1367 5.73
  516.1784 C37H24O3- 2 516.1731 10.36
  516.217 C38H28O2- 1 516.2095 14.51
  516.2918 C37H40O2- 1 516.3034 -22.39
  516.3522 C35H48O3- 2 516.3609 -16.88
  516.4531 C34H60O3- 1 516.4548 -3.27
  516.5183 C32H68O4- 2 516.5123 11.65
  517.0793 C38H13O3- 1 517.087 -14.96
  517.2337 C35H33O4- 1 517.2384 -9.09
  517.3321 C34H45O4- 1 517.3323 -0.54
  518.1195 C39H18O2- 1 518.1312 -22.61
  518.251 C35H34O4- 2 518.2463 9.17
  518.359 C38H46O- 1 518.3554 6.97
  518.4377 C33H58O4- 2 518.4341 7.1
  518.5167 C35H66O2- 2 518.5068 19.02
  519.1241 C42H15- 1 519.1179 11.9
  519.37 C38H47O- 1 519.3632 13.1
  520.0107 C39H4O3- 1 520.0166 -11.37
  520.3864 C35H52O3- 1 520.3922 -11.06
  520.4761 C34H64O3- 2 520.4861 -19.15
  520.6775 C32H88O3- 2 520.6739 6.88
  521.1134 C38H17O3- 1 521.1183 -9.47
  521.6137 C34H81O2- 1 521.6242 -20.23
  521.6967 C36H89- 1 521.697 -0.46
  522.1277 C38H18O3- 1 522.1261 2.96
  522.4455 C36H58O2- 1 522.4442 2.41
  522.5492 C32H74O4- 2 522.5593 -19.29
  523.0079 C38H3O4- 2 523.0037 7.99
  523.3347 C40H43- 2 523.337 -4.48
  523.6382 C34H83O2- 1 523.6399 -3.24
  524.2308 C37H32O3- 1 524.2357 -9.27
  524.2587 C41H32- 1 524.2509 14.73
  524.5412 C35H72O2- 1 524.5538 -23.98
  524.581 C32H76O4- 2 524.5749 11.64
  525.0392 C42H5O- 1 525.0346 8.86
  525.1284 C41H17O- 1 525.1285 -0.24
  525.1764 C39H25O2- 1 525.186 -18.27
  525.3376 C36H45O3- 1 525.3374 0.33
  526.0126 C41H2O2- 1 526.006 12.49
  526.2174 C36H30O4- 2 526.215 4.61
  526.5607 C35H74O2- 1 526.5694 -16.53
  527.1074 C40H15O2- 1 527.1078 -0.69
  527.3109 C35H43O4- 1 527.3167 -11.04
  527.5942 C32H79O4- 1 527.5984 -7.87
  528.0404 C38H8O4- 1 528.0428 -4.64
  528.0677 C42H8O- 2 528.0581 18.26
  528.2887 C41H36- 1 528.2822 12.18
  528.5181 C33H68O4- 2 528.5123 11.01
  529.2182 C39H29O2- 1 529.2173 1.75
  529.3273 C35H45O4- 1 529.3323 -9.43
  529.3959 C37H53O2- 1 529.4051 -17.4
  530.1158 C43H14- 1 530.1101 10.8
  530.4572 C38H58O- 2 530.4493 14.91
  530.5935 C35H78O2- 1 530.6007 -13.57
  531.0303 C44H3- 1 531.024 11.74
  531.2178 C42H27- 1 531.2118 11.27
  531.2949 C37H39O3- 2 531.2905 8.34
  531.5593 C37H71O- 2 531.551 15.52
  532.031 C44H4- 1 532.0318 -1.64
  532.0836 C42H12O- 2 532.0894 -10.82
  532.1755 C37H24O4- 2 532.168 13.99
  532.2705 C40H36O- 2 532.2772 -12.46
  532.3524 C35H48O4- 1 532.3558 -6.36
  532.6122 C35H80O2- 1 532.6164 -7.81
  533.0245 C40H5O3- 1 533.0244 0.17
  533.1123 C39H17O3- 1 533.1183 -11.28
  533.188 C41H25O- 2 533.1911 -5.75
  533.2589 C39H33O2- 2 533.2486 19.35
  533.4328 C37H57O2- 1 533.4364 -6.77
  533.5028 C39H65- 2 533.5092 -11.88
  533.6563 C36H85O- 2 533.6606 -7.98
  534.2224 C38H30O3- 2 534.22 4.4
  534.3511 C38H46O2- 1 534.3503 1.42
  534.4681 C34H62O4- 2 534.4654 5.16
  534.6499 C32H86O4- 1 534.6532 -6.09
  535.4742 C34H63O4- 1 535.4732 1.88
  536.2912 C36H40O4- 1 536.2932 -3.73
  536.3672 C38H48O2- 1 536.366 2.33
  536.4101 C39H52O- 1 536.4024 14.33
  536.4709 C34H64O4- 2 536.481 -18.9
  536.6269 C38H80- 1 536.6266 0.74
  537.0236 C39H5O4- 2 537.0193 7.9
  537.0782 C44H9- 1 537.071 13.41
  537.4593 C37H61O2- 1 537.4677 -15.73
  538.3742 C38H50O2- 1 538.3816 -13.71
  538.4951 C34H66O4- 1 538.4967 -2.97
  538.5383 C35H70O3- 2 538.533 9.76
  539.0069 C42H3O2- 1 539.0139 -12.83
  539.1562 C39H23O3- 2 539.1653 -16.78
  539.2176 C37H31O4- 1 539.2228 -9.57
  539.3419 C40H43O- 2 539.3319 18.43
  539.9958 C45- 2 540.0005 -8.73
  540.406 C35H56O4- 2 540.4184 -22.99
  540.4304 C35H56O4- 2 540.4184 22.13
  540.6607 C38H84- 1 540.6579 5.18
  541.0624 C43H9O- 2 541.0659 -6.46
  541.4485 C39H57O- 1 541.4415 12.97
  541.5334 C38H69O- 2 541.5354 -3.75
  541.6152 C33H81O4- 1 541.614 2.14
  541.9915 C41H2O3- 1 542.0009 -17.34
  542.1907 C39H26O3- 2 542.1887 3.67
  543.1923 C39H27O3- 1 543.1966 -7.82
  543.4012 C41H51- 1 543.3996 2.95
  543.4358 C35H59O4- 1 543.4419 -11.2
  543.5453 C38H71O- 2 543.551 -10.62
  543.9804 C40O4- 1 543.9802 0.3
  544.0687 C39H12O4- 1 544.0741 -9.93
  544.1931 C42H24O- 2 544.1833 18.07
  544.2945 C38H40O3- 1 544.2983 -6.9
  544.3466 C36H48O4- 2 544.3558 -16.83
  544.9966 C44HO- 2 545.0033 -12.21
  545.1185 C40H17O3- 1 545.1183 0.3
  545.4837 C36H65O3- 2 545.4939 -18.73
  545.5281 C37H69O2- 1 545.5303 -4.07
  545.5827 C35H77O3- 1 545.5878 -9.31
  545.679 C34H89O3- 1 545.6817 -5.06
  546.0811 C39H14O4- 2 546.0898 -15.92
  546.2146 C39H30O3- 1 546.22 -9.94
  546.3655 C36H50O4- 1 546.3715 -10.96
  547.4096 C37H55O3- 1 547.4157 -11.03
  547.4567 C38H59O2- 1 547.4521 8.43
  548.1296 C43H16O- 2 548.1207 16.26
  549.0445 C44H5O- 2 549.0346 18.01
  549.2561 C43H33- 2 549.2588 -4.93
  549.3229 C41H41O- 1 549.3163 12.09
  550.5474 C40H70- 1 550.5483 -1.72
  550.629 C35H82O3- 2 550.6269 3.8
  551.1306 C39H19O4- 2 551.1289 3.08
  551.1688 C40H23O3- 2 551.1653 6.43
  552.3046 C40H40O2- 1 552.3034 2.22
  552.3353 C41H44O- 2 552.3398 -8.01
  552.3982 C39H52O2- 1 552.3973 1.62
  552.6782 C36H88O2- 1 552.679 -1.48
  553.0226 C43H5O2- 1 553.0295 -12.46
  553.1863 C40H25O3- 2 553.1809 9.72
  553.2285 C38H33O4- 2 553.2384 -17.91
  553.3275 C37H45O4- 1 553.3323 -8.67
  553.4035 C39H53O2- 1 553.4051 -2.88
  553.4446 C40H57O- 1 553.4415 5.56
  554.0613 C40H10O4- 2 554.0585 5.06
  554.1152 C45H14- 1 554.1101 9.23
  554.1539 C39H22O4- 2 554.1524 2.87
  554.2767 C39H38O3- 1 554.2826 -10.79
  554.4548 C40H58O- 1 554.4493 9.88
  554.6341 C38H82O- 2 554.6371 -5.5
  554.6717 C39H86- 2 554.6735 -3.31
  555.4907 C41H63- 2 555.4935 -5.02
  555.6134 C37H79O2- 1 555.6086 8.65
  556.2115 C40H28O3- 2 556.2044 12.86
  556.3121 C43H40- 2 556.3135 -2.62
  556.4039 C42H52- 2 556.4075 -6.38
  557.0109 C45HO- 2 557.0033 13.71
  557.0761 C40H13O4- 1 557.0819 -10.4
  557.1482 C42H21O2- 1 557.1547 -11.7
  557.2261 C44H29- 2 557.2275 -2.45
  557.3281 C43H41- 1 557.3214 12.09
  557.4035 C38H53O3- 2 557.4 6.24
  557.4753 C40H61O- 1 557.4728 4.53
  557.5586 C35H73O4- 2 557.5514 12.85
  557.614 C37H81O2- 1 557.6242 -18.35
  557.6855 C35H89O3- 2 557.6817 6.79
  558.104 C44H14O- 1 558.105 -1.87
  558.1353 C45H18- 2 558.1414 -10.92
  558.3919 C41H50O- 1 558.3867 9.27
  559.4146 C38H55O3- 1 559.4157 -1.94
  559.5262 C41H67- 1 559.5248 2.44
  560.0886 C43H12O2- 1 560.0843 7.68
  560.1978 C39H28O4- 1 560.1993 -2.71
  560.4239 C38H56O3- 1 560.4235 0.74
  561.0296 C45H5O- 2 561.0346 -8.8
  561.4877 C36H65O4- 1 561.4888 -2
  561.6189 C36H81O3- 1 561.6191 -0.36
  562.0236 C41H6O4- 1 562.0272 -6.33
  562.1726 C45H22- 1 562.1727 -0.23
  562.2147 C39H30O4- 1 562.215 -0.5
  562.4707 C39H62O2- 1 562.4755 -8.55
  562.6067 C39H78O- 1 562.6058 1.59
  562.6438 C40H82- 1 562.6422 2.89
  563.0363 C41H7O4- 2 563.035 2.38
  563.1568 C41H23O3- 2 563.1653 -15.12
  563.4378 C38H59O3- 2 563.447 -16.33
  563.46 C38H59O3- 2 563.447 23.14
  563.5852 C38H75O2- 2 563.5773 14.06
  564.5916 C38H76O2- 1 564.5851 11.6
  565.333 C38H45O4- 1 565.3323 1.13
  565.4319 C37H57O4- 2 565.4262 10.04
  565.5141 C36H69O4- 1 565.5201 -10.67
  565.5719 C41H73- 1 565.5718 0.23
  565.6374 C39H81O- 2 565.6293 14.34
  566.0883 C42H14O3- 1 566.0948 -11.64
  566.1646 C44H22O- 2 566.1676 -5.4
  566.2278 C42H30O2- 1 566.2251 4.64
  567.1746 C44H23O- 1 567.1754 -1.46
  567.3981 C43H51- 2 567.3996 -2.67
  567.5306 C36H71O4- 1 567.5358 -9.18
  568.1192 C46H16- 2 568.1257 -11.59
  568.6903 C40H88- 1 568.6892 2.01
  569.0362 C47H5- 2 569.0397 -6.14
  569.3637 C38H49O4- 1 569.3636 0.12
  569.4268 C40H57O2- 1 569.4364 -16.88
  569.7028 C40H89- 1 569.697 10.22
  570.0065 C46H2O- 2 570.0111 -8.08
  570.0769 C44H10O2- 2 570.0686 14.44
  570.5702 C40H74O- 2 570.5745 -7.49
  571.5283 C42H67- 1 571.5248 6.08
  571.6779 C39H87O- 1 571.6762 2.86
  572.559 C39H72O2- 1 572.5538 9.19
  573.456 C40H61O2- 1 573.4677 -20.41
  574.201 C43H26O2- 2 574.1938 12.5
  574.2317 C44H30O- 1 574.2302 2.66
  574.3114 C39H42O4- 2 574.3089 4.46
  574.3692 C41H50O2- 1 574.3816 -21.65
  575.034 C42H7O4- 1 575.035 -1.75
  575.1755 C46H23- 2 575.1805 -8.74
  575.4067 C38H55O4- 1 575.4106 -6.71
  576.0962 C47H12- 1 576.0944 3.07
  576.1382 C41H20O4- 2 576.1367 2.52
  576.2403 C44H32O- 2 576.2459 -9.74
  576.3324 C43H44O- 2 576.3398 -12.72
  576.4604 C39H60O3- 2 576.4548 9.7
  577.0839 C43H13O3- 1 577.087 -5.41
  577.6948 C38H89O2- 1 577.6868 13.78
  578.3572 C43H46O- 1 578.3554 3.11
  578.3914 C44H50- 1 578.3918 -0.72
  579.0788 C46H11O- 2 579.0815 -4.66
  579.2438 C40H35O4- 2 579.2541 -17.74
  579.3901 C40H51O3- 2 579.3844 9.88
  579.5659 C38H75O3- 1 579.5722 -10.84
  580.1891 C45H24O- 1 580.1833 10.13
  580.2935 C41H40O3- 1 580.2983 -8.29
  581.2935 C44H37O- 2 581.285 14.66
  581.3208 C45H41- 1 581.3214 -0.98
  581.5308 C40H69O2- 1 581.5303 0.8
  581.6175 C39H81O2- 1 581.6242 -11.45
  582.0199 C47H2O- 2 582.0111 15.17
  582.2384 C46H30- 1 582.2353 5.36
  582.3157 C41H42O3- 2 582.3139 2.98
  582.518 C43H66- 1 582.517 1.66
  583.0068 C43H3O4- 2 583.0037 5.36
  583.1145 C46H15O- 1 583.1128 2.87
  583.1857 C41H27O4- 1 583.1915 -9.98
  583.5803 C41H75O- 2 583.5823 -3.48
  583.9951 C46O2- 1 583.9904 8.14
  584.3849 C39H52O4- 1 584.3871 -3.78
  584.4981 C42H64O- 1 584.4963 3.09
  584.9994 C46HO2- 1 584.9982 2.08
  585.5085 C42H65O- 1 585.5041 7.52
  586.1012 C45H14O2- 1 586.0999 2.16
  586.188 C44H26O2- 1 586.1938 -9.92
  587.135 C42H19O4- 2 587.1289 10.48
  587.2824 C43H39O2- 1 587.2956 -22.4
  587.4139 C39H55O4- 2 587.4106 5.71
  587.6753 C39H87O2- 1 587.6712 7.11
  588.3087 C43H40O2- 1 588.3034 8.99
  588.4197 C39H56O4- 2 588.4184 2.21
  588.4602 C40H60O3- 2 588.4548 9.21
  589.0038 C49H- 2 589.0084 -7.7
  589.0379 C46H5O2- 2 589.0295 14.22
  589.3623 C41H49O3- 1 589.3687 -10.85
  589.5191 C38H69O4- 1 589.5201 -1.83
  589.6885 C39H89O2- 1 589.6868 2.95
  590.0116 C49H2- 2 590.0162 -7.74
  590.0768 C47H10O- 1 590.0737 5.18
  590.1349 C45H18O2- 1 590.1312 6.14
  590.2017 C47H26- 2 590.204 -3.95
  590.3987 C45H50- 2 590.3918 11.66
  590.4994 C41H66O2- 1 590.5068 -12.56
  590.6293 C37H82O4- 2 590.6219 12.52
  590.6624 C38H86O3- 2 590.6582 6.98
  591.0892 C47H11O- 2 591.0815 12.96
  591.1226 C48H15- 1 591.1179 7.87
  591.381 C41H51O3- 1 591.3844 -5.65
  591.4725 C40H63O3- 1 591.4783 -9.77
  591.6411 C41H83O- 2 591.6449 -6.49
  592.0877 C47H12O- 2 592.0894 -2.83
  592.209 C43H28O3- 2 592.2044 7.85
  592.3832 C41H52O3- 2 592.3922 -15.11
  592.4159 C42H56O2- 1 592.4286 -21.35
  592.497 C44H64- 2 592.5014 -7.29
  592.612 C40H80O2- 1 592.6164 -7.36
  593.0113 C48HO- 2 593.0033 13.59
  593.0716 C43H13O4- 2 593.0819 -17.41
  593.1339 C48H17- 1 593.1336 0.6
  593.2642 C41H37O4- 1 593.2697 -9.36
  593.3242 C46H41- 1 593.3214 4.72
  593.5338 C41H69O2- 1 593.5303 5.9
  593.5758 C42H73O- 2 593.5667 15.34
  593.6729 C38H89O3- 2 593.6817 -14.8
  594.1156 C44H18O3- 2 594.1261 -17.77
  595.6679 C37H87O4- 2 595.661 11.55
  596.1157 C47H16O- 2 596.1207 -8.37
  596.2127 C46H28O- 2 596.2146 -3.15
  596.5322 C44H68- 2 596.5327 -0.68
  596.6226 C43H80- 2 596.6266 -6.63
  596.6904 C41H88O- 1 596.6841 10.6
  597.1464 C44H21O3- 1 597.1496 -5.39
  597.3815 C43H49O2- 2 597.3738 12.91
  597.5046 C43H65O- 1 597.5041 0.79
  597.6861 C41H89O- 2 597.6919 -9.67
  598.1257 C43H18O4- 2 598.1211 7.78
  598.2421 C43H34O3- 2 598.2513 -15.46
  598.3711 C43H50O2- 1 598.3816 -17.63
  598.4217 C44H54O- 1 598.418 6.23
  599.049 C48H7O- 2 599.0502 -2.12
  599.0959 C46H15O2- 1 599.1078 -19.8
  599.6569 C43H83- 2 599.65 11.49
  599.9924 C46O3- 2 599.9853 11.92
  600.4758 C45H60- 1 600.4701 9.55
  601.2633 C46H33O- 2 601.2537 15.91
  601.5208 C39H69O4- 2 601.5201 1.04
  601.5621 C40H73O3- 2 601.5565 9.34
  601.6843 C40H89O2- 1 601.6868 -4.1
  601.9918 C46H2O3- 1 602.0009 -15.17
  602.0759 C48H10O- 1 602.0737 3.7
  602.2697 C46H34O- 2 602.2615 13.61
  602.5378 C43H70O- 2 602.5432 -8.96
  603.2008 C44H27O3- 2 603.1966 6.99
  603.2827 C43H39O3- 2 603.2905 -12.93
  603.4277 C43H55O2- 2 603.4208 11.46
  603.9658 C45O4- 1 603.9802 -23.8
  604.1036 C45H16O3- 2 604.1105 -11.36
  604.4998 C45H64- 2 604.5014 -2.55
  604.5434 C39H72O4- 1 604.5436 -0.38
  605.2908 C46H37O- 1 605.285 9.52
  605.3759 C45H49O- 2 605.3789 -4.95
  605.4153 C46H53- 1 605.4153 0.09
  605.5452 C39H73O4- 2 605.5514 -10.3
  605.6878 C39H89O3- 2 605.6817 10.11
  606.0413 C50H6- 2 606.0475 -10.21
  606.2746 C42H38O4- 1 606.2776 -4.81
  606.4201 C46H54- 2 606.4231 -4.9
  606.5393 C42H70O2- 1 606.5381 1.91
  607.0085 C45H3O4- 2 607.0037 7.98
  607.243 C48H31- 2 607.2431 -0.15
  607.344 C47H43- 2 607.337 11.46
  607.563 C39H75O4- 1 607.5671 -6.71
  607.6326 C41H83O2- 1 607.6399 -11.88
  608.0607 C50H8- 2 608.0631 -4.06
  608.1514 C49H20- 2 608.157 -9.34
  608.495 C44H64O- 2 608.4963 -2
  608.5906 C43H76O- 1 608.5902 0.71
  608.6194 C44H80- 2 608.6266 -11.81
  609.1015 C47H13O2- 2 609.0921 15.4
  609.1703 C49H21- 1 609.1649 8.95
  609.3667 C44H49O2- 1 609.3738 -11.58
  609.5392 C45H69- 2 609.5405 -2.04
  610.0005 C48H2O2- 1 610.006 -9.08
  610.1999 C46H26O2- 2 610.1938 9.99
  610.2707 C48H34- 1 610.2666 6.69
  610.4159 C45H54O- 2 610.418 -3.4
  611.2253 C43H31O4- 2 611.2228 4.18
  612.272 C44H36O3- 2 612.267 8.17
  613.3737 C43H49O3- 2 613.3687 8.1
  613.5313 C44H69O- 2 613.5354 -6.59
  614.0503 C45H10O4- 2 614.0585 -13.29
  614.1739 C48H22O- 2 614.1676 10.2
  614.4119 C44H54O2- 1 614.4129 -1.6
  614.4537 C45H58O- 1 614.4493 7.14
  614.6246 C39H82O4- 2 614.6219 4.51
  615.1279 C47H19O2- 1 615.1391 -18.1
  615.3196 C45H43O2- 1 615.3269 -11.73
  616.0067 C47H4O3- 2 616.0166 -16.07
  616.4159 C44H56O2- 1 616.4286 -20.63
  616.9764 C46HO4- 1 616.988 -18.92
  617.0452 C51H5- 1 617.0397 9.02
  617.2192 C45H29O3- 2 617.2122 11.37
  617.3263 C48H41- 1 617.3214 7.96
  617.5365 C43H69O2- 2 617.5303 9.99
  618.178 C44H26O4- 1 618.1837 -9.14
  618.2927 C47H38O- 2 618.2928 -0.15
  619.0112 C46H3O4- 2 619.0037 12.22
  619.1954 C44H27O4- 2 619.1915 6.25
  619.5163 C42H67O3- 2 619.5096 10.87
  619.5832 C44H75O- 1 619.5823 1.46
  619.9767 C49O2- 1 619.9904 -22.04
  620.2666 C46H36O2- 1 620.2721 -8.87
  620.3531 C45H48O2- 1 620.366 -20.7
  620.6378 C42H84O2- 1 620.6477 -15.95
  621.0276 C50H5O- 2 621.0346 -11.19
  621.6157 C41H81O3- 1 621.6191 -5.55
  621.6793 C39H89O4- 2 621.6766 4.28
  623.072 C47H11O3- 2 623.0714 1.06
  623.1262 C45H19O4- 1 623.1289 -4.26
  623.6567 C45H83- 2 623.65 10.71
  624.23 C44H32O4- 1 624.2306 -0.97
  624.3534 C44H48O3- 2 624.3609 -11.96
  624.4196 C42H56O4- 2 624.4184 1.84
  625.375 C44H49O3- 2 625.3687 10.03
  626.1011 C47H14O3- 2 626.0948 10.07
  626.3042 C49H38- 2 626.2979 10.13
  627.1523 C45H23O4- 2 627.1602 -12.55
  627.2905 C45H39O3- 2 627.2905 0.12
  627.3502 C43H47O4- 2 627.348 3.6
  627.6206 C40H83O4- 2 627.6297 -14.42
  628.0644 C46H12O4- 2 628.0741 -15.41
  628.1496 C48H20O2- 1 628.1469 4.25
  628.2248 C50H28- 1 628.2196 8.27
  628.4993 C47H64- 2 628.5014 -3.33
  628.5478 C41H72O4- 2 628.5436 6.69
  628.6161 C43H80O2- 1 628.6164 -0.51
  628.6667 C41H88O3- 2 628.6739 -11.41
  629.1589 C48H21O2- 1 629.1547 6.62
  629.2556 C47H33O2- 2 629.2486 11.07
  629.4913 C43H65O3- 1 629.4939 -4.15
  629.5343 C44H69O2- 1 629.5303 6.29
  629.6171 C43H81O2- 1 629.6242 -11.22
  630.1492 C51H18- 2 630.1414 12.4
  630.2443 C47H34O2- 1 630.2564 -19.21
  630.6421 C43H82O2- 2 630.632 16.01
  631.5351 C44H71O2- 1 631.546 -17.14
  632.196 C45H28O4- 1 632.1993 -5.25
  632.2466 C50H32- 2 632.2509 -6.91
  632.3853 C43H52O4- 1 632.3871 -2.92
  632.4635 C45H60O2- 1 632.4599 5.7
  633.014 C47H5O4- 1 633.0193 -8.37
  633.4436 C48H57- 2 633.4466 -4.71
  634.6084 C45H78O- 1 634.6058 4.06
  634.6552 C43H86O2- 1 634.6633 -12.77
  635.0465 C51H7O- 2 635.0502 -5.95
  635.2187 C45H31O4- 1 635.2228 -6.42
  635.4307 C47H55O- 1 635.4258 7.63
  635.4705 C45H63O2- 1 635.4834 -20.24
  635.6438 C46H83- 2 635.65 -9.73
  636.247 C49H32O- 1 636.2459 1.82
  636.3787 C49H48- 1 636.3762 3.99
  636.6885 C43H88O2- 1 636.679 14.99
  637.2648 C46H37O3- 2 637.2748 -15.75
  638.0041 C49H2O3- 2 638.0009 4.95
  638.2462 C45H34O4- 2 638.2463 -0.05
  638.3627 C48H46O- 2 638.3554 11.4
  638.5584 C43H74O3- 2 638.5643 -9.37
  638.6459 C45H82O- 2 638.6371 13.83
  639.2953 C46H39O3- 2 639.2905 7.58
  639.3672 C48H47O- 1 639.3632 6.25
  640.0964 C51H12O- 2 640.0894 10.94
  640.2045 C47H28O3- 2 640.2044 0.19
  640.2573 C45H36O4- 1 640.2619 -7.23
  640.3497 C44H48O4- 2 640.3558 -9.61
  640.4057 C49H52- 2 640.4075 -2.76
  640.508 C48H64- 2 640.5014 10.33
  641.0977 C51H13O- 2 641.0972 0.78
  641.1368 C52H17- 1 641.1336 5.06
  641.3364 C47H45O2- 1 641.3425 -9.59
  641.3716 C48H49O- 2 641.3789 -11.42
  641.6773 C42H89O3- 1 641.6817 -6.82
  642.1512 C49H22O2- 1 642.1625 -17.63
  642.2421 C51H30- 2 642.2353 10.66
  642.574 C46H74O- 2 642.5745 -0.77
  643.1284 C48H19O3- 2 643.134 -8.73
  643.5723 C42H75O4- 2 643.5671 8.07
  644.0583 C53H8- 2 644.0631 -7.47
  644.1314 C48H20O3- 2 644.1418 -16.08
  644.1995 C46H28O4- 2 644.1993 0.36
  644.2773 C48H36O2- 2 644.2721 8.12
  644.6845 C45H88O- 2 644.6841 0.62
  645.0402 C52H5O- 2 645.0346 8.65
  645.1774 C49H25O2- 1 645.186 -13.38
  645.477 C46H61O2- 2 645.4677 14.34
  646.0658 C49H10O3- 2 646.0635 3.54
  646.5016 C43H66O4- 2 646.4967 7.72
  647.2418 C50H31O- 1 647.238 5.77
  648.3693 C50H48- 2 648.3762 -10.64
  648.443 C48H56O- 2 648.4337 14.43
  648.9828 C50HO3- 1 648.9931 -15.9
  649.3953 C47H53O2- 1 649.4051 -15.08
  649.4565 C45H61O3- 2 649.4626 -9.42
  650.1332 C50H18O2- 1 650.1312 3.01
  650.2642 C50H34O- 1 650.2615 4.14
  650.5778 C48H74- 2 650.5796 -2.74
  651.1689 C51H23O- 2 651.1754 -10.06
  651.2948 C47H39O3- 2 651.2905 6.64
  651.396 C50H51- 2 651.3996 -5.51
  652.1535 C50H20O2- 2 652.1469 10.2
  652.3619 C45H48O4- 2 652.3558 9.39
  652.5334 C43H72O4- 2 652.5436 -15.72
  652.6653 C43H88O3- 2 652.6739 -13.23
  653.1312 C53H17- 2 653.1336 -3.67
  653.4288 C47H57O2- 1 653.4364 -11.66
  653.4795 C48H61O- 2 653.4728 10.31
  654.2092 C51H26O- 2 654.1989 15.76
  654.4914 C45H66O3- 2 654.5017 -15.73
  655.1857 C47H27O4- 2 655.1915 -8.76
  655.354 C48H47O2- 1 655.3582 -6.33
  655.412 C46H55O3- 1 655.4157 -5.63
  655.4789 C44H63O4- 2 655.4732 8.79
  655.5503 C46H71O2- 1 655.546 6.61
  655.5873 C47H75O- 2 655.5823 7.51
  656.0908 C51H12O2- 2 656.0843 9.94
  656.2387 C48H32O3- 2 656.2357 4.53
  656.355 C48H48O2- 1 656.366 -16.74
  657.0507 C50H9O3- 2 657.0557 -7.57
  657.1111 C48H17O4- 1 657.1132 -3.23
  657.2371 C48H33O3- 2 657.2435 -9.69
  657.3684 C48H49O2- 1 657.3738 -8.24
  657.4043 C49H53O- 2 657.4102 -9.02
  657.488 C44H65O4- 2 657.4888 -1.28
  657.5992 C47H77O- 1 657.598 1.91
  657.693 C46H89O- 2 657.6919 1.72
  658.2848 C49H38O2- 1 658.2877 -4.43
  658.3894 C48H50O2- 2 658.3816 11.74
  659.4635 C50H59- 1 659.4622 1.89
  659.6001 C43H79O4- 2 659.5984 2.65
  660.1522 C52H20O- 2 660.152 0.36
  660.3106 C49H40O2- 2 660.3034 10.93
  660.6479 C44H84O3- 2 660.6426 7.96
  661.537 C48H69O- 1 661.5354 2.46
  662.083 C53H10O- 2 662.0737 13.99
  662.1448 C48H22O4- 2 662.1524 -11.4
  662.5451 C48H70O- 1 662.5432 2.87
  662.5914 C46H78O2- 1 662.6007 -14.04
  663.1446 C51H19O2- 2 663.1391 8.39
  663.261 C47H35O4- 2 663.2541 10.38
  663.5999 C46H79O2- 1 663.6086 -12.98
  663.641 C47H83O- 2 663.6449 -6.01
  663.9666 C50O4- 1 663.9802 -20.49
  664.1923 C52H24O- 2 664.1833 13.55
  664.3034 C48H40O3- 2 664.2983 7.66
  664.426 C48H56O2- 1 664.4286 -3.93
  664.695 C48H88- 1 664.6892 8.75
  665.1599 C51H21O2- 2 665.1547 7.74
  665.3077 C48H41O3- 2 665.3061 2.36
  665.408 C51H53- 2 665.4153 -10.89
  665.4781 C49H61O- 2 665.4728 7.98
  665.693 C48H89- 2 665.697 -5.97
  665.9806 C50H2O4- 1 665.9959 -22.98
  666.2538 C50H34O2- 1 666.2564 -3.9
  667.0859 C52H11O2- 2 667.0765 14.2
  667.425 C51H55- 2 667.4309 -8.81
  667.5243 C50H67- 2 667.5248 -0.76
  668.0374 C51H8O3- 2 668.0479 -15.73
  668.0969 C49H16O4- 2 668.1054 -12.7
  668.1308 C53H16O- 2 668.1207 15.11
  668.255 C53H32- 1 668.2509 6.11
  668.4152 C47H56O3- 2 668.4235 -12.4
  669.1545 C50H21O3- 2 669.1496 7.35
  669.2443 C49H33O3- 2 669.2435 1.14
  669.6566 C46H85O2- 1 669.6555 1.59
  670.5977 C44H78O4- 2 670.5906 10.7
  671.3384 C51H43O- 2 671.3319 9.62
  671.5329 C46H71O3- 2 671.5409 -11.93
  671.604 C44H79O4- 2 671.5984 8.41
  672.0193 C53H4O2- 1 672.0217 -3.49
  672.0705 C51H12O3- 2 672.0792 -12.92
  672.1478 C53H20O- 2 672.152 -6.16
  672.3234 C47H44O4- 2 672.3245 -1.6
  672.435 C50H56O- 2 672.4337 1.95
  672.558 C50H72- 2 672.564 -8.91
  673.044 C50H9O4- 2 673.0506 -9.9
  673.1954 C54H25- 2 673.1962 -1.18
  673.2513 C52H33O- 2 673.2537 -3.61
  673.4647 C47H61O3- 2 673.4626 3.12
  674.1079 C55H14- 2 674.1101 -3.26
  674.1625 C53H22O- 2 674.1676 -7.64
  674.4798 C51H62- 2 674.4857 -8.82
  674.5358 C49H70O- 2 674.5432 -11.04
  674.6188 C44H82O4- 1 674.6219 -4.55
  675.0755 C54H11O- 2 675.0815 -8.88
  675.1812 C53H23O- 2 675.1754 8.48
  675.3984 C52H51- 2 675.3996 -1.83
  675.4526 C50H59O- 2 675.4571 -6.78
  676.1276 C55H16- 1 676.1257 2.79
  676.2596 C48H36O4- 1 676.2619 -3.36
  676.5412 C45H72O4- 1 676.5436 -3.54
  676.6699 C45H88O3- 1 676.6739 -5.89
  677.0384 C56H5- 2 677.0397 -1.83
  677.0622 C53H9O2- 1 677.0608 2.11
  677.1566 C52H21O2- 1 677.1547 2.79
  677.3712 C47H49O4- 2 677.3636 11.19
  678.1619 C52H22O2- 1 678.1625 -0.92
  678.3117 C49H42O3- 1 678.3139 -3.3
  679.1258 C51H19O3- 2 679.134 -12.03
  679.1738 C52H23O2- 1 679.1704 5.08
  679.4514 C49H59O2- 1 679.4521 -1
  679.4834 C50H63O- 2 679.4884 -7.43
  679.5702 C45H75O4- 2 679.5671 4.57
  680.0401 C52H8O3- 2 680.0479 -11.48
  680.2278 C50H32O3- 2 680.2357 -11.63
  680.4427 C52H56- 1 680.4388 5.77
  680.9831 C54HO2- 1 680.9982 -22.21
  681.0691 C56H9- 2 681.071 -2.7
  681.113 C50H17O4- 2 681.1132 -0.33
  681.17 C55H21- 2 681.1649 7.46
  681.3367 C49H45O3- 2 681.3374 -1.04
  681.5778 C45H77O4- 2 681.5827 -7.27
  681.6903 C48H89O- 2 681.6919 -2.37
  682.1582 C51H22O3- 2 682.1574 1.14
  682.4881 C46H66O4- 2 682.4967 -12.59
  682.643 C50H82- 2 682.6422 1.2
  683.0058 C54H3O2- 1 683.0139 -11.74
  683.1117 C53H15O2- 1 683.1078 5.82
  683.442 C48H59O3- 2 683.447 -7.34
  683.5369 C47H71O3- 1 683.5409 -5.79
  683.6128 C49H79O- 2 683.6136 -1.27
  683.6604 C47H87O2- 1 683.6712 -15.71
  684.0523 C55H8O- 2 684.0581 -8.5
  684.2843 C54H36- 1 684.2822 3.05
  684.3991 C50H52O2- 1 684.3973 2.72
  684.5767 C48H76O2- 1 684.5851 -12.23
  685.3251 C48H45O4- 2 685.3323 -10.58
  685.3736 C49H49O3- 2 685.3687 7.11
  686.2871 C50H38O3- 2 686.2826 6.53
  686.5223 C46H70O4- 2 686.528 -8.24
  687.4586 C51H59O- 2 687.4571 2.06
  687.5094 C49H67O2- 1 687.5147 -7.66
  687.5566 C50H71O- 2 687.551 8.02
  687.6055 C48H79O2- 1 687.6086 -4.47
  688.0426 C54H8O2- 1 688.053 -15.13
  688.236 C52H32O2- 1 688.2408 -6.92
  689.2551 C52H33O2- 2 689.2486 9.37
  689.2934 C53H37O- 2 689.285 12.17
  689.417 C53H53- 2 689.4153 2.47
  689.5927 C47H77O3- 2 689.5878 7.08
  690.1075 C55H14O- 1 690.105 3.58
  690.1711 C53H22O2- 2 690.1625 12.36
  690.2375 C55H30- 1 690.2353 3.17
  690.4665 C47H62O4- 2 690.4654 1.72
  690.5549 C46H74O4- 2 690.5593 -6.33
  690.6168 C51H78- 2 690.6109 8.52
  691.1553 C56H19- 2 691.1492 8.81
  692.0306 C56H4O- 1 692.0268 5.48
  692.4566 C50H60O2- 1 692.4599 -4.75
  692.5442 C49H72O2- 1 692.5538 -13.86
  692.5935 C50H76O- 1 692.5902 4.81
  693.3521 C54H45- 2 693.3527 -0.85
  693.4583 C50H61O2- 1 693.4677 -13.56
  693.541 C52H69- 2 693.5405 0.75
  694.2799 C52H38O2- 1 694.2877 -11.29
  694.4935 C47H66O4- 1 694.4967 -4.5
  694.5717 C49H74O2- 1 694.5694 3.28
  695.3723 C54H47- 2 695.3683 5.77
  695.498 C47H67O4- 2 695.5045 -9.34
  695.5885 C46H79O4- 2 695.5984 -14.19
  696.3927 C51H52O2- 1 696.3973 -6.63
  696.6069 C46H80O4- 2 696.6062 0.96
  697.1675 C55H21O- 2 697.1598 11.1
  697.4247 C48H57O4- 2 697.4262 -2.21
  697.9859 C54H2O3- 1 698.0009 -21.55
  698.141 C54H18O2- 2 698.1312 13.98
  698.2732 C51H38O3- 2 698.2826 -13.53
  699.103 C53H15O3- 2 699.1027 0.43
  699.2005 C52H27O3- 2 699.1966 5.69
  699.4057 C54H51- 2 699.3996 8.69
  699.4662 C52H59O- 2 699.4571 12.94
  699.5924 C52H75- 2 699.5874 7.05
  699.6825 C51H87- 2 699.6813 1.65
  700.2933 C51H40O3- 2 700.2983 -7.13
  700.3734 C53H48O- 1 700.3711 3.26
  700.4458 C48H60O4- 2 700.4497 -5.59
  701.0535 C55H9O2- 1 701.0608 -10.43
  701.0941 C56H13O- 2 701.0972 -4.46
  701.2937 C54H37O- 2 701.285 12.43
  701.4538 C48H61O4- 2 701.4575 -5.25
  702.1513 C54H22O2- 1 702.1625 -16.01
  702.4151 C50H54O3- 2 702.4078 10.28
  702.5162 C53H66- 2 702.517 -1.16
  703.3558 C52H47O2- 1 703.3582 -3.32
  704.2101 C55H28O- 2 704.2146 -6.4
  704.5052 C52H64O- 2 704.4963 12.71
  704.6113 C48H80O3- 2 704.6113 -0.01
  705.0407 C57H5O- 2 705.0346 8.69
  705.428 C50H57O3- 1 705.4313 -4.65
  705.6411 C52H81- 2 705.6344 9.46
  706.0861 C55H14O2- 2 706.0999 -19.62
  706.1159 C55H14O2- 2 706.0999 22.57
  706.2313 C55H30O- 2 706.2302 1.52
  706.3471 C51H46O3- 2 706.3452 2.62
  706.5727 C50H74O2- 1 706.5694 4.67
  707.0296 C53H7O4- 2 707.035 -7.65
  707.149 C56H19O- 2 707.1441 6.91
  707.1921 C54H27O2- 1 707.2017 -13.45
  707.2975 C53H39O2- 1 707.2956 2.72
  707.3557 C51H47O3- 2 707.3531 3.7
  707.4044 C49H55O4- 2 707.4106 -8.72
  707.4814 C51H63O2- 1 707.4834 -2.73
  707.6265 C48H83O3- 2 707.6348 -11.65
  708.4935 C51H64O2- 1 708.4912 3.34
  708.5634 C53H72- 2 708.564 -0.81
  708.6603 C52H84- 1 708.6579 3.48
  709.0429 C53H9O4- 2 709.0506 -10.95
  709.1654 C56H21O- 2 709.1598 7.92
  709.5078 C51H65O2- 2 709.499 12.35
  709.7039 C49H89O2- 1 709.6868 24.02
  710.0273 C56H6O2- 1 710.0373 -14.16
  710.1599 C52H22O4- 2 710.1524 10.56
  710.2685 C55H34O- 2 710.2615 9.88
  710.3195 C53H42O2- 1 710.319 0.65
  710.5014 C51H66O2- 1 710.5068 -7.61
  711.2005 C53H27O3- 2 711.1966 5.46
  711.405 C55H51- 2 711.3996 7.5
  711.4525 C53H59O- 2 711.4571 -6.49
  711.6451 C51H83O- 2 711.6449 0.18
  712.2611 C51H36O4- 2 712.2619 -1.11
  712.6133 C50H80O2- 1 712.6164 -4.37
  713.3285 C56H41- 2 713.3214 10.04
  714.0083 C58H2O- 2 714.0111 -3.99
  714.1336 C54H18O3- 2 714.1261 10.5
  714.4221 C55H54- 2 714.4231 -1.46
  714.5078 C50H66O3- 2 714.5017 8.45
  715.0787 C56H11O2- 1 715.0765 3.15
  715.3318 C56H43- 2 715.337 -7.24
  715.437 C55H55- 2 715.4309 8.47
  715.5599 C48H75O4- 2 715.5671 -9.98
  715.6775 C51H87O- 2 715.6762 1.76
  716.0215 C58H4O- 2 716.0268 -7.39
  716.1444 C54H20O3- 2 716.1418 3.57
  716.238 C53H32O3- 2 716.2357 3.25
  716.5182 C50H68O3- 2 716.5174 1.19
  716.6104 C49H80O3- 2 716.6113 -1.26
  716.7 C51H88O- 1 716.6841 22.22
  717.2395 C53H33O3- 2 717.2435 -5.62
  717.2979 C51H41O4- 1 717.301 -4.3
  717.3347 C52H45O3- 1 717.3374 -3.85
  717.4697 C52H61O2- 1 717.4677 2.71
  717.6255 C49H81O3- 2 717.6191 8.93
  718.0742 C59H10- 2 718.0788 -6.45
  718.1007 C56H14O2- 1 718.0999 1.04
  718.294 C54H38O2- 2 718.2877 8.7
  718.3462 C52H46O3- 2 718.3452 1.39
  718.5452 C54H70- 2 718.5483 -4.25
  719.1078 C56H15O2- 1 719.1078 0.1
  719.3543 C52H47O3- 2 719.3531 1.66
  719.4492 C51H59O3- 2 719.447 3.1
  719.4905 C52H63O2- 2 719.4834 9.89
  719.6338 C49H83O3- 2 719.6348 -1.38
  720.24 C56H32O- 2 720.2459 -8.2
  720.5053 C49H68O4- 2 720.5123 -9.72
  721.2632 C56H33O- 2 721.2537 13.12
  721.4669 C51H61O3- 2 721.4626 5.88
  721.526 C49H69O4- 2 721.5201 8.08
  722.6375 C52H82O- 2 722.6371 0.58
  723.1127 C59H15- 2 723.1179 -7.27
  723.3045 C57H39- 2 723.3057 -1.72
  723.4266 C53H55O2- 2 723.4208 8.07
  723.6434 C52H83O- 2 723.6449 -2.18
  724.049 C57H8O2- 1 724.053 -5.46
  724.4262 C53H56O2- 1 724.4286 -3.24
  725.32 C57H41- 2 725.3214 -1.87
  725.5275 C52H69O2- 1 725.5303 -3.88
  726.0151 C59H2O- 2 726.0111 5.55
  726.13 C55H18O3- 2 726.1261 5.33
  726.3143 C53H42O3- 2 726.3139 0.42
  726.3827 C55H50O- 2 726.3867 -5.46
  726.6612 C52H86O- 2 726.6684 -9.88
  727.0242 C59H3O- 2 727.0189 7.23
  727.0665 C57H11O2- 1 727.0765 -13.71
  727.2766 C52H39O4- 2 727.2854 -12.14
  728.0088 C55H4O4- 2 728.0115 -3.69
  728.1073 C54H16O4- 2 728.1054 2.55
  728.3692 C54H48O2- 2 728.366 4.43
  728.6547 C51H84O2- 2 728.6477 9.62
  729.0404 C59H5O- 2 729.0346 8
  729.3384 C53H45O3- 2 729.3374 1.38
  729.542 C55H69- 2 729.5405 2.1
  729.6364 C54H81- 2 729.6344 2.8
  730.145 C58H18O- 2 730.1363 11.89
  730.2563 C54H34O3- 2 730.2513 6.85
  730.4174 C55H54O- 2 730.418 -0.87
  731.0209 C58H3O2- 2 731.0139 9.58
  731.076 C56H11O3- 1 731.0714 6.35
  731.3556 C53H47O3- 2 731.3531 3.52
  731.6586 C51H87O2- 1 731.6712 -17.2
  732.5175 C50H68O4- 2 732.5123 7.15
  733.255 C57H33O- 2 733.2537 1.75
  733.3493 C56H45O- 2 733.3476 2.4
  734.0202 C58H6O2- 1 734.0373 -23.28
  734.4219 C54H54O2- 2 734.4129 12.25
  735.2844 C54H39O3- 2 735.2905 -8.29
  736.2824 C57H36O- 2 736.2772 7.08
  736.3707 C56H48O- 2 736.3711 -0.49
  736.5189 C53H68O2- 1 736.5225 -4.9
  737.1119 C56H17O3- 2 737.1183 -8.69
  737.1832 C54H25O4- 2 737.1758 10.06
  737.2323 C59H29- 2 737.2275 6.5
  737.505 C56H65- 2 737.5092 -5.65
  737.7034 C54H89- 1 737.697 8.65
  738.0956 C55H14O4- 2 738.0898 7.97
  738.2233 C55H30O3- 2 738.22 4.39
  738.6713 C53H86O- 2 738.6684 3.94
  739.3192 C54H43O3- 2 739.3218 -3.46
  739.4043 C56H51O- 2 739.3945 13.15
  740.1488 C56H20O3- 1 740.1418 9.44
  740.1912 C54H28O4- 2 740.1993 -10.99
  740.5974 C54H76O- 2 740.5902 9.72
  740.6864 C53H88O- 2 740.6841 3.2
  740.9993 C59HO2- 1 740.9982 1.44
  741.2385 C55H33O3- 2 741.2435 -6.75
  741.2835 C56H37O2- 2 741.2799 4.88
  741.6711 C49H89O4- 2 741.6766 -7.45
  742.2211 C54H30O4- 2 742.215 8.22
  742.2671 C59H34- 2 742.2666 0.67
  742.3942 C52H54O4- 2 742.4028 -11.52
  742.5096 C55H66O- 2 742.5119 -3.09
  742.6322 C51H82O3- 2 742.6269 7.05
  743.2052 C57H27O2- 2 743.2017 4.81
  744.284 C59H36- 2 744.2822 2.33
  745.4657 C53H61O3- 2 745.4626 4.15
  745.5144 C51H69O4- 2 745.5201 -7.66
  745.5788 C56H73- 2 745.5718 9.37
  746.0486 C56H10O4- 2 746.0585 -13.22
  746.1388 C58H18O2- 2 746.1312 10.1
  746.1943 C56H26O3- 1 746.1887 7.43
  746.492 C57H62- 2 746.4857 8.39
  747.0393 C59H7O2- 1 747.0452 -7.79
  747.2064 C56H27O3- 1 747.1966 13.14
  747.272 C58H35O- 3 747.2693 3.52
  747.3782 C54H51O3- 2 747.3844 -8.29
  747.5595 C55H71O- 2 747.551 11.29
  747.6395 C54H83O- 2 747.6449 -7.32
  748.4306 C55H56O2- 1 748.4286 2.71
  748.4688 C56H60O- 2 748.465 5.1
  748.5257 C54H68O2- 2 748.5225 4.24
  748.6234 C53H80O2- 2 748.6164 9.32
  749.0985 C56H13O4- 1 749.0819 22.18
  749.1416 C58H21O2- 1 749.1547 -17.43
  749.6818 C51H89O3- 2 749.6817 0.16
  750.0348 C58H6O3- 1 750.0322 3.36
  750.1213 C57H18O3- 1 750.1261 -6.44
  750.2652 C57H34O2- 2 750.2564 11.68
  751.2897 C58H39O- 2 751.3006 -14.51
  751.3136 C58H39O- 2 751.3006 17.23
  751.4437 C55H59O2- 1 751.4521 -11.13
  751.4856 C56H63O- 2 751.4884 -3.82
  751.5481 C54H71O2- 1 751.546 2.88
  751.6916 C54H87O- 1 751.6762 20.43
  752.3889 C53H52O4- 2 752.3871 2.42
  752.4665 C55H60O2- 2 752.4599 8.75
  752.6929 C54H88O- 1 752.6841 11.72
  753.142 C57H21O3- 1 753.1496 -10.1
  753.2871 C57H37O2- 2 753.2799 9.5
  753.3988 C53H53O4- 2 753.3949 5.11
  753.4618 C55H61O2- 1 753.4677 -7.86
  753.4952 C52H65O4- 2 753.4888 8.39
  754.0313 C57H6O4- 1 754.0272 5.45
  754.1847 C58H26O2- 1 754.1938 -12.04
  754.2214 C55H30O4- 2 754.215 8.59
  754.6278 C52H82O3- 2 754.6269 1.07
  755.2086 C58H27O2- 2 755.2017 9.15
  755.3229 C54H43O4- 2 755.3167 8.17
  756.1225 C59H16O2- 2 756.1156 9.2
  756.1694 C57H24O3- 1 756.1731 -4.95
  756.2223 C55H32O4- 2 756.2306 -10.95
  756.4212 C53H56O4- 2 756.4184 3.65
  756.6373 C52H84O3- 2 756.6426 -6.97
  756.6878 C53H88O2- 1 756.679 11.62
  757.4655 C54H61O3- 2 757.4626 3.78
  757.6508 C52H85O3- 2 757.6504 0.48
  758.1734 C57H26O3- 1 758.1887 -20.25
  758.2542 C59H34O- 2 758.2615 -9.66
  758.3689 C55H50O3- 2 758.3765 -10.07
  758.4615 C54H62O3- 2 758.4704 -11.75
  759.3303 C57H43O2- 2 759.3269 4.5
  759.5715 C53H75O3- 2 759.5722 -0.92
  760.0023 C59H4O3- 1 760.0166 -18.8
  760.0765 C57H12O4- 1 760.0741 3.12
  760.2948 C56H40O3- 2 760.2983 -4.6
  761.1884 C56H25O4- 1 761.1758 16.48
  761.3119 C56H41O3- 1 761.3061 7.55
  761.4595 C53H61O4- 2 761.4575 2.64
  761.6087 C57H77- 2 761.6031 7.45
  762.4833 C57H62O- 3 762.4806 3.55
  762.5782 C56H74O- 3 762.5745 4.89
  763.3174 C56H43O3- 2 763.3218 -5.77
  763.6589 C51H87O4- 2 763.661 -2.66
  764.0078 C58H4O4- 1 764.0115 -4.86
  764.5848 C56H76O- 2 764.5902 -7.04
  765.1952 C59H25O2- 2 765.186 11.99
  765.3096 C59H41O- 2 765.3163 -8.73
  765.3994 C54H53O4- 2 765.3949 5.86
  766.2484 C57H34O3- 1 766.2513 -3.9
  766.283 C58H38O2- 1 766.2877 -6.2
  766.5203 C57H66O- 2 766.5119 10.94
  766.6538 C54H86O2- 1 766.6633 -12.48
  767.2077 C59H27O2- 2 767.2017 7.83
  767.2631 C57H35O3- 1 767.2592 5.14
  767.4109 C54H55O4- 2 767.4106 0.46
  767.6826 C54H87O2- 1 767.6712 14.87
  768.3836 C57H52O2- 1 768.3973 -17.74
  768.4814 C56H64O2- 1 768.4912 -12.72
  769.4367 C58H57O- 2 769.4415 -6.21
  769.548 C54H73O3- 2 769.5565 -11.07
  769.6043 C52H81O4- 2 769.614 -12.63
  770.065 C58H10O4- 1 770.0585 8.51
  770.6142 C52H82O4- 2 770.6219 -9.93
  771.0624 C58H11O4- 1 771.0663 -5.04
  771.4137 C57H55O2- 1 771.4208 -9.08
  771.5077 C56H67O2- 1 771.5147 -9.03
  771.6167 C55H79O2- 2 771.6086 10.59
  772.0844 C58H12O4- 1 772.0741 13.39
  772.2613 C56H36O4- 1 772.2619 -0.76
  772.6009 C58H76- 2 772.5953 7.31
  773.1278 C59H17O3- 1 773.1183 12.2
  774.3261 C57H42O3- 1 774.3139 15.69
  775.0072 C59H3O4- 1 775.0037 4.58
  775.1308 C59H19O3- 1 775.134 -4.05
  775.2761 C56H39O4- 2 775.2854 -11.95
  775.4176 C56H55O3- 1 775.4157 2.46
  775.6765 C56H87O- 2 775.6762 0.35
  776.0915 C58H16O4- 1 776.1054 -17.95
  776.3063 C56H40O4- 1 776.2932 16.81
  776.6756 C52H88O4- 2 776.6688 8.77
  777.4125 C59H53O- 3 777.4102 2.95
  777.4516 C57H61O2- 1 777.4677 -20.72
  777.5582 C56H73O2- 1 777.5616 -4.39
  778.1148 C58H18O4- 1 778.1211 -8.1
  778.2012 C57H30O4- 1 778.215 -17.72
  778.5073 C58H66O- 2 778.5119 -5.89
  779.0402 C59H7O4- 1 779.035 6.69
  779.1095 C58H19O4- 1 779.1289 -24.81
  779.3259 C56H43O4- 1 779.3167 11.82
  779.4268 C59H55O- 2 779.4258 1.29
  779.6256 C54H83O3- 2 779.6348 -11.83
  780.3916 C58H52O2- 1 780.3973 -7.34
  780.5048 C54H68O4- 2 780.5123 -9.6
  781.0428 C59H9O4- 1 781.0506 -10.02
  781.2477 C57H33O4- 1 781.2384 11.9
  781.4638 C56H61O3- 1 781.4626 1.46
  781.553 C55H73O3- 3 781.5565 -4.5
  781.6027 C56H77O2- 2 781.5929 12.5
  782.2306 C57H34O4- 1 782.2463 -19.99
  782.4648 C56H62O3- 2 782.4704 -7.25
  783.3789 C57H51O3- 1 783.3844 -7.01
  784.1843 C58H24O4- 1 784.168 20.77
  784.2446 C57H36O4- 1 784.2619 -22.01
  784.3041 C58H40O3- 1 784.2983 7.47
  784.4316 C58H56O2- 2 784.4286 3.8
  784.5877 C59H76- 2 784.5953 -9.57
  784.6547 C57H84O- 3 784.6528 2.41
  785.5403 C57H69O2- 2 785.5303 12.77
  787.3067 C58H43O3- 1 787.3218 -19.15
  787.3966 C56H51O4- 2 787.3793 21.93
  788.3439 C58H44O3- 1 788.3296 18.11
  790.3909 C59H50O2- 2 790.3816 11.68
  792.137 C59H20O4- 1 792.1367 0.38
  792.2579 C59H36O3- 1 792.267 -11.53
  792.4213 C56H56O4- 1 792.4184 3.59
  792.4746 C58H64O2- 1 792.4912 -20.89
  792.5598 C56H72O3- 1 792.5487 13.96
  794.5569 C56H74O3- 2 794.5643 -9.33
  794.6253 C54H82O4- 2 794.6219 4.35
  795.3484 C57H47O4- 1 795.348 0.56
  795.3794 C58H51O3- 1 795.3844 -6.23
  795.5283 C55H71O4- 2 795.5358 -9.38
  796.4103 C58H52O3- 2 796.3922 22.7
  796.5552 C59H72O- 2 796.5589 -4.62
  796.5991 C57H80O2- 2 796.6164 -21.74
  797.594 C56H77O3- 1 797.5878 7.73
  798.5216 C58H70O2- 2 798.5381 -20.66
  799.3688 C57H51O4- 1 799.3793 -13.16
  799.437 C59H59O2- 1 799.4521 -18.85
  800.2758 C58H40O4- 1 800.2932 -21.7
  800.3364 C59H44O3- 1 800.3296 8.54
  800.3776 C57H52O4- 1 800.3871 -11.83
  801.6473 C57H85O2- 1 801.6555 -10.2
  802.4916 C56H66O4- 2 802.4967 -6.32
  803.3424 C59H47O3- 1 803.3531 -13.24
  803.4791 C59H63O2- 1 803.4834 -5.35
  804.2347 C59H32O4- 1 804.2306 5.06
  804.3607 C59H48O3- 1 804.3609 -0.22
  804.4305 C57H56O4- 1 804.4184 14.99
  804.5179 C56H68O4- 1 804.5123 6.96
  805.2309 C59H33O4- 1 805.2384 -9.33
  805.3334 C58H45O4- 1 805.3323 1.35
  806.3633 C59H50O3- 1 806.3765 -16.44
  806.4682 C58H62O3- 1 806.4704 -2.79
  807.3547 C58H47O4- 1 807.348 8.32
  807.4666 C58H63O3- 1 807.4783 -14.48
  807.5557 C57H75O3- 2 807.5722 -20.41
  807.6608 C56H87O3- 2 807.6661 -6.55
  808.4092 C59H52O3- 1 808.3922 20.98
  809.2522 C59H37O4- 1 809.2697 -21.64
  809.5056 C58H65O3- 1 809.4939 14.4
  809.6453 C55H85O4- 2 809.6453 -0.03
  813.2898 C59H41O4- 1 813.301 -13.86
  814.6116 C57H82O3- 1 814.6269 -18.88
  816.4434 C59H60O3- 1 816.4548 -13.9
  816.6021 C56H80O4- 2 816.6062 -5.01
  817.4255 C58H57O4- 1 817.4262 -0.9
  817.5715 C58H73O3- 1 817.5565 18.32
  818.3558 C59H46O4- 1 818.3402 19.17
  818.6286 C56H82O4- 1 818.6219 8.26
  819.3432 C59H47O4- 1 819.348 -5.89
  819.6442 C56H83O4- 1 819.6297 17.71
  819.6796 C57H87O3- 1 819.6661 16.48
  820.4559 C58H60O4- 1 820.4497 7.5
  820.6879 C57H88O3- 1 820.6739 17.1
  822.3796 C59H50O4- 1 822.3715 9.89
  824.5268 C59H68O3- 1 824.5174 11.35
  825.5753 C57H77O4- 1 825.5827 -9.03
  825.6707 C56H89O4- 2 825.6766 -7.16
  828.4262 C59H56O4- 1 828.4184 9.44
  829.4191 C59H57O4- 1 829.4262 -8.61
  831.5169 C58H71O4- 1 831.5358 -22.71
  831.5876 C59H75O3- 1 831.5722 18.5
  832.6464 C57H84O4- 1 832.6375 10.72
  835.6469 C57H87O4- 1 835.661 -16.87
  837.6218 C59H81O3- 1 837.6191 3.21
  837.6836 C57H89O4- 1 837.6766 8.36
  839.5837 C58H79O4- 1 839.5984 -17.47
  842.5461 C59H70O4- 1 842.528 21.57
  843.6705 C59H87O3- 1 843.6661 5.22
  844.6542 C58H84O4- 2 844.6375 19.73
  847.6472 C58H87O4- 1 847.661 -16.23
  851.585 C59H79O4- 1 851.5984 -15.66
  858.6461 C59H86O4- 1 858.6532 -8.25
  861.6739 C59H89O4- 1 861.6766 -3.23
PK$NUM_PEAK: 2455
PK$PEAK: m/z int. rel.int.
  70.2654 15.4 31
  72.3412 14 28
  75.4555 12 24
  76.1838 21 43
  76.407 14 28
  77.1529 17 34
  78.3852 14 28
  80.1793 13 26
  80.2352 16.9 34
  80.2502 22 45
  81.2579 14 28
  81.3731 19.1 39
  81.5046 16.2 33
  82.0629 14.3 29
  83.2374 16 32
  85.0515 17.8 36
  85.3467 13.2 26
  85.573 14.9 30
  86.4846 16.5 33
  87.2888 13 26
  87.5504 13.2 26
  88.3005 15.8 32
  89.0409 17.3 35
  89.0612 17.4 35
  89.1559 14 28
  89.2506 18 36
  89.3216 14 28
  89.6019 13.5 27
  90.0133 17.7 36
  91.1899 19 38
  91.265 14.6 29
  91.4903 22.7 46
  92.1044 17 34
  92.2365 21 43
  93.3723 15.4 31
  95.9997 19.1 39
  96.9924 17 34
  97.1602 17.7 36
  98.2639 16.7 34
  98.5808 16.5 33
  99.1004 13 26
  99.3035 15.4 31
  99.3833 19.1 39
  99.4567 16 32
  100.0541 13 26
  100.0741 12 24
  100.0899 18 36
  100.314 12.1 24
  100.3908 12 24
  100.5026 14.3 29
  101.6616 14 28
  102.1814 14 28
  102.3311 15 30
  102.388 14 28
  103.0985 14 28
  103.527 18 36
  104.5562 15.8 32
  106.0087 18 36
  106.0976 14 28
  106.4522 15.8 32
  106.511 15 30
  107.5794 19 38
  108.0595 16 32
  108.3372 15 30
  108.5861 15.1 30
  109.1623 14 28
  109.6667 14 28
  110.0562 13 26
  110.3928 18.8 38
  111.3846 18.6 38
  111.9927 17 34
  112.0169 16.7 34
  112.1463 13.2 27
  112.3899 18 36
  112.467 15.8 32
  113.3421 14.9 30
  113.5076 14.9 30
  115.5222 16.1 32
  116.235 14 28
  116.3452 18 36
  116.4574 14.3 29
  117.3726 14 28
  117.3925 12.1 24
  117.5418 17.7 36
  118.2672 16.7 34
  118.3842 15.4 31
  119.178 14.6 29
  119.3708 15.4 31
  120.3227 21.3 43
  120.6768 17 34
  120.9928 20 40
  121.3502 14 28
  122.0562 17.1 35
  122.1892 14 28
  122.2453 13 26
  123.2929 14 28
  124.1849 14.9 30
  124.2954 15.1 30
  124.3938 19.3 39
  124.5828 21 43
  125.6009 13.1 26
  126.0702 14 28
  126.3303 17.8 36
  126.3844 17.1 35
  127.2255 17.4 35
  127.3248 16.2 33
  127.4333 14.2 29
  127.4532 16.7 34
  128.2931 15.1 30
  128.3281 12 24
  128.5349 21.3 43
  128.587 19 38
  129.281 13.1 26
  129.398 14.9 30
  130.1375 13 26
  130.1581 16.9 34
  130.1948 14 28
  131.3673 14 28
  132.4188 13 26
  132.6423 12 24
  132.6776 15 30
  133.5569 14 28
  133.596 13.1 26
  134.5451 16.7 34
  134.5782 16 32
  135.2133 14.1 28
  135.2355 18 36
  135.2681 16.1 32
  136.055 13.5 27
  136.0919 14.3 29
  136.4277 19.8 40
  137.0391 18.5 37
  137.0852 19 38
  137.1304 21.7 44
  137.5848 13 26
  137.6579 14.9 30
  137.9944 21.1 43
  139.1102 16 32
  139.1682 19.1 39
  139.4705 13 26
  140.2921 16.7 34
  140.5768 13.2 26
  141.0344 14 28
  141.241 15 30
  141.3167 14.6 29
  142.0621 22.8 46
  142.0777 13.2 26
  143.6746 14.6 29
  144.1867 12.4 25
  144.2273 17.2 35
  144.3232 18 36
  144.3636 18.8 38
  144.603 15.2 31
  144.625 17 34
  145.0652 17.4 35
  145.2403 13 26
  145.4601 14 28
  145.4785 17.8 36
  145.6278 14 28
  146.2809 12.4 25
  146.3549 16 32
  146.6727 19.6 40
  147.0468 13.5 27
  147.0682 18.8 38
  147.2105 15.1 30
  147.2684 97 198
  147.4576 16.9 34
  148.0761 15.8 32
  148.2806 16.7 34
  148.3556 17.8 36
  148.5784 14 28
  149.0432 16 32
  150.185 17.4 35
  150.3878 12 24
  151.0185 15.4 31
  152.1225 14.9 30
  152.5302 15.8 32
  152.6118 19 38
  153.13 13 26
  153.6197 15 30
  154.1564 18 36
  154.3583 16.1 32
  154.6042 14.3 29
  154.663 15.8 32
  155.4642 13 26
  155.5044 14.3 29
  156.1705 12 24
  156.303 13.2 26
  156.3974 13 26
  157.1009 14 28
  157.1778 15.1 30
  157.29 12 24
  157.649 14 28
  157.6829 16.9 34
  158.4519 15 30
  158.531 14.3 29
  158.6749 15.1 30
  159.1954 15.1 30
  159.2359 15.4 31
  159.4603 16 32
  160.205 17.8 36
  160.3 14.1 28
  160.4462 17.8 36
  160.5578 15 30
  160.6547 12 24
  161.0858 15 30
  161.2859 14 28
  161.4947 15 30
  161.5494 13 26
  162.1805 17 34
  162.2536 17.1 35
  162.3262 14.9 30
  162.371 15.4 31
  162.499 16 32
  162.5378 18.5 37
  163.038 14 28
  163.2278 13.2 26
  163.3964 16.9 34
  164.2472 17.1 35
  164.2735 16.2 33
  164.624 13 26
  166.0263 16.9 34
  166.2299 13 26
  166.313 15.8 32
  166.4431 14.3 29
  167.0834 15.1 30
  167.2395 14 28
  167.2613 19.8 40
  168.6096 18.6 38
  169.0281 17 34
  169.2209 16 32
  169.5579 16 32
  170.3545 16 32
  171.1992 16 32
  171.9834 12.1 24
  172.216 20.2 41
  172.2988 15.4 31
  172.521 15.4 31
  173.0572 35.2 72
  173.3977 17.4 35
  173.6285 19.7 40
  174.2012 15.8 32
  174.2597 18.8 38
  174.3479 16.5 33
  176.1448 17 34
  176.305 16.2 33
  176.3293 16 32
  176.3466 14.9 30
  176.3852 14 28
  176.4223 15.8 32
  176.5352 13 26
  177.3198 15 30
  177.3525 16.9 34
  177.3738 16.7 34
  177.4311 12 24
  177.5953 19.6 40
  177.6591 13 26
  178.2897 17.1 35
  178.6269 20.2 41
  179.0483 14.3 29
  179.199 15 30
  179.2726 16.9 34
  179.5378 17 34
  180.1482 17 34
  180.1706 20.5 41
  180.4206 17 34
  180.4511 14 28
  181.272 13 26
  181.5924 16 32
  182.4686 17.4 35
  182.5409 16 32
  182.6019 17 34
  182.6405 15.1 30
  183.5855 16.7 34
  183.9923 14 28
  184.1426 14 28
  184.2744 15 30
  184.2969 12 24
  184.4068 16.1 32
  184.4896 20 41
  184.5581 15 30
  184.6331 13 26
  185.2876 13.5 27
  185.3965 17.8 36
  185.454 13 26
  185.6471 18.1 37
  186.1963 14 28
  186.5174 13 26
  187.1929 14 28
  187.4901 16.9 34
  188.3085 17.8 36
  188.3326 12.4 25
  188.4805 16.2 33
  188.5002 14 28
  188.6465 17.7 36
  189.1694 20.5 41
  189.4098 16.2 33
  189.4683 14.1 28
  189.5014 14 28
  189.5615 14.1 28
  189.6308 14 28
  190.1938 12 24
  190.3085 13.5 27
  191.0337 170.3 348
  191.0899 32 65
  191.1804 12.1 24
  191.2378 14.9 30
  191.6331 14.3 29
  192.5501 14.9 30
  193.3429 16 32
  193.3683 18.9 38
  193.5943 15.1 30
  194.0121 16.5 33
  194.0619 16.9 34
  194.1902 14.3 29
  194.2217 16.7 34
  194.483 14.6 29
  194.5752 17.1 35
  194.634 14.9 30
  195.2682 13.5 27
  196.2087 15.1 30
  196.3088 21 43
  196.4885 17.7 36
  197.0955 14.3 29
  197.2449 12 24
  197.4006 16 32
  197.57 12 24
  198.0297 17.7 36
  198.294 16 32
  198.3258 17.8 36
  198.4816 18 36
  199.0395 16 32
  199.1468 17.7 36
  199.5448 15 30
  199.615 15 30
  199.6767 17.4 35
  200.0275 16 32
  200.1423 22.1 45
  200.1983 19.6 40
  200.4249 15 30
  200.4598 17.1 35
  200.5556 14.9 30
  200.645 17.1 35
  200.6713 18.8 38
  201.145 14 28
  201.6343 14.6 29
  204.0203 19.1 39
  204.044 23 47
  204.5313 13 26
  205.0877 16.7 34
  205.1553 14 28
  205.3851 13 26
  205.459 14 28
  205.595 15 30
  205.6332 14.9 30
  207.1055 17.4 35
  207.1778 15 30
  207.3092 12 24
  207.4819 16.9 34
  207.5307 13 26
  208.0792 12.4 25
  208.1791 17.8 36
  208.5431 14 28
  208.6496 17.7 36
  209.283 15.8 32
  209.4764 14.3 29
  209.5318 14 28
  209.6816 14.3 29
  210.1872 15.4 31
  210.5133 14 28
  211.358 14.9 30
  211.5255 16.9 34
  211.6348 13.2 26
  211.6793 15.1 30
  211.9952 14 28
  212.5225 14.3 29
  212.5903 20 40
  213.3156 14 28
  213.5942 17 34
  214.1215 14.3 29
  214.1726 16.9 34
  214.3258 17.7 36
  215.1038 18.2 37
  215.1423 15 30
  215.2211 14.9 30
  215.3368 17.2 35
  215.3917 25.8 52
  216.0186 12.1 24
  216.423 14.1 28
  217.3355 13 26
  217.3885 16.9 34
  218.0137 13 26
  218.377 12 24
  218.4523 16 32
  218.4876 19.8 40
  218.5772 13.2 26
  218.6684 14.6 29
  219.0987 14 28
  219.1226 21.8 44
  219.211 13 26
  219.3432 15.4 31
  219.4192 16.5 33
  219.4938 16.9 34
  219.6253 23.5 48
  220.5223 17 34
  220.9908 14 28
  221.0272 17 34
  221.3069 16 32
  221.4033 13 26
  221.6455 14 28
  222.1277 17.7 36
  222.5916 15.4 31
  223.5822 17.7 36
  224.1561 14.6 29
  224.2172 16 32
  224.2408 17.1 35
  224.5774 18 36
  225.0371 15.2 31
  225.3572 14 28
  225.6302 12 24
  226.0062 28.5 58
  227.3641 15.4 31
  227.6724 19.1 39
  228.0774 12.4 25
  228.194 15.4 31
  228.624 20.6 42
  229.069 13.2 26
  229.2191 17.7 36
  229.4461 16.7 34
  229.5707 16.5 33
  229.6909 15.8 32
  230.0352 13.2 27
  230.1052 13 26
  230.3019 16.2 33
  230.4493 13 26
  230.5754 18.1 37
  230.6314 16 32
  233.0805 487.7 999
  233.1549 30.3 62
  234.257 21 43
  234.3091 15.1 30
  234.3706 16.2 33
  234.4479 16.1 32
  234.5054 14 28
  235.0959 14 28
  235.1548 14.3 29
  235.3552 15 30
  235.4138 19.6 40
  236.5115 15 30
  236.5343 14.6 29
  236.6245 17 34
  237.0965 14.3 29
  237.1511 15.1 30
  237.3024 18.9 38
  237.4448 12 24
  237.619 18.2 37
  238.0055 18 36
  238.0603 19 39
  238.1253 15 30
  238.2543 16 32
  238.5157 13 26
  239.0146 17 34
  239.1081 19 38
  239.3699 36 73
  239.429 17 34
  240.3001 13 26
  240.4913 15.8 32
  240.6108 21 43
  241.1044 13 26
  241.2556 22 45
  241.4622 17.7 36
  242.2795 16.7 34
  242.3955 15.8 32
  242.4875 18 36
  242.5638 20 41
  242.6387 13 26
  243.0683 16.7 34
  243.3258 14 28
  243.5205 14 28
  243.9775 15 30
  244.1635 19.3 39
  244.276 13.2 26
  244.4848 16.9 34
  244.5215 18.8 38
  244.5568 14 28
  244.9893 12.4 25
  245.1289 16 32
  246.1203 14 28
  246.2049 14.6 29
  246.532 40.1 82
  246.5735 20.2 41
  246.6701 16.9 34
  247.206 16.1 32
  247.3996 12.4 25
  247.5879 16.5 33
  248.0262 14.9 30
  248.1057 212.8 435
  248.1947 20.8 42
  248.4221 21.7 44
  249.0141 17.7 36
  249.052 16 32
  249.0865 17 34
  249.4253 14 28
  250.1528 15.8 32
  251.1596 14.1 28
  252.2273 12 24
  252.304 13.2 26
  252.6775 13 26
  253.0494 14.2 29
  253.2689 21 43
  253.5208 14.3 29
  255.077 16 32
  255.4516 17.4 35
  255.6842 19 38
  256.0189 13 26
  256.3171 13 26
  256.5271 16.3 33
  257.0623 18.9 38
  257.4704 16 32
  257.5713 14 28
  257.6921 17.8 36
  258.0078 15.8 32
  258.1975 15.8 32
  258.2527 18.8 38
  258.393 16.9 34
  258.5701 16 32
  259.0764 17.8 36
  259.1734 18.2 37
  259.5096 14 28
  260.3465 15.8 32
  260.4038 15 30
  260.5001 19.6 40
  261.1523 16.2 33
  262.0029 17.1 35
  262.1356 13.2 27
  262.5014 19 38
  263.1025 14.3 29
  263.523 14.9 30
  264.4155 13.2 26
  265.0332 13 26
  265.1196 13 26
  265.6683 16.2 33
  266.3404 19 38
  266.6177 18 36
  266.655 14.9 30
  267.3082 14 28
  267.4821 16.1 32
  267.5145 15.1 30
  267.6851 13.2 26
  268.4106 17.2 35
  268.5542 13 26
  268.64 14 28
  268.6881 12.4 25
  269.0642 14.6 29
  269.2866 14.3 29
  270.1612 14.9 30
  270.3931 15 30
  270.5192 16.1 33
  270.5702 19.1 39
  271.0804 14.3 29
  271.1462 16.2 33
  271.4218 17.7 36
  271.6824 14 28
  272.4264 16 32
  272.4934 16.7 34
  272.5212 14 28
  273.1678 17.1 34
  273.3933 20.2 41
  273.6557 12.4 25
  274.0985 16.5 33
  274.1264 18.5 37
  274.166 13.2 27
  274.3198 18.8 38
  274.3611 16 32
  274.5328 15 30
  274.5533 15 30
  275.1051 17.1 35
  275.2803 14 28
  275.3947 13 26
  275.432 14 28
  276.375 15.1 30
  276.6038 16 32
  277.196 15.1 30
  277.2221 15.2 31
  277.6894 17 34
  278.2842 14 28
  278.6363 15.8 32
  279.1645 23.6 48
  279.3313 14 28
  279.4422 15 30
  279.4759 13.2 26
  279.6623 18.6 38
  280.0939 18.3 37
  280.1492 15 30
  280.234 14.9 30
  280.4964 15.4 31
  280.5159 13.1 26
  280.5574 19.7 40
  281.0628 22.4 45
  281.0857 14 28
  281.1597 16.6 34
  281.219 14 28
  281.3022 12.1 24
  281.3478 15 30
  282.0905 18 36
  282.5345 17 34
  282.6059 17.4 35
  283.0766 18 36
  283.1917 13.1 26
  283.4465 21.7 44
  283.4949 13.1 26
  283.5796 17 34
  283.6102 17.1 35
  284.2653 16.9 34
  284.4323 17.7 36
  285.0343 19.2 39
  285.126 16 32
  285.2031 14.3 29
  285.5829 12 24
  285.6151 17.8 36
  285.6618 17 34
  286.2198 15 30
  286.2838 15 30
  286.3155 15 30
  286.5495 14.6 29
  287.0207 22.6 46
  287.1681 17 34
  287.231 15 30
  287.4187 13 26
  287.4571 16.9 34
  287.5542 15.4 31
  287.5823 18.5 37
  287.6767 16.2 33
  288.1345 17 34
  288.6513 15.1 30
  288.9917 16 32
  289.1414 14 28
  290.0195 16 32
  290.1679 13.5 27
  290.2996 16.7 34
  290.3782 15.2 31
  290.5212 14.9 30
  290.5417 15 30
  291.0701 15.4 31
  291.4244 12.4 25
  291.4602 19.6 40
  291.5125 17.8 36
  291.5338 15 30
  292.2686 17.1 34
  292.4354 13 26
  292.4648 16 32
  293.0077 13 26
  293.2856 15.1 30
  293.7032 17.4 35
  294.0894 16.2 33
  294.1692 13.5 27
  294.3359 13 26
  294.3733 16 32
  294.4259 16 32
  295.0931 15.4 31
  295.227 21.3 43
  295.317 16 32
  295.5624 13.5 27
  295.682 12 24
  298.2192 18 36
  298.2526 17.1 35
  298.3495 14.9 30
  298.442 15 30
  298.5649 14 28
  299.094 15.4 31
  299.3595 14 28
  299.4469 12.4 25
  299.5038 14 28
  299.5405 65.4 133
  299.5793 24 49
  299.6113 17.7 36
  299.6504 19.1 39
  300.0903 14 28
  300.1562 16 32
  300.3305 17.1 35
  300.411 13.5 27
  300.4687 15.8 32
  301.0055 15 30
  301.1777 18.8 38
  301.4116 36.2 74
  302.2547 13.2 26
  302.3406 15.8 32
  302.5459 19.6 40
  303.1149 18 36
  303.1533 14.3 29
  303.2659 13.5 27
  303.3254 16.5 33
  303.4788 14.6 29
  303.664 17.1 35
  304.082 17.7 36
  304.2093 16 32
  304.4245 13 26
  304.5454 19.8 40
  304.6574 16.2 33
  305.0272 16 32
  305.1129 18 36
  305.195 13.2 26
  305.3592 12 24
  305.3853 14 28
  305.6188 13.2 26
  306.1017 19.7 40
  306.1961 13.5 27
  306.3175 16 32
  307.007 15.1 30
  307.1945 19 38
  307.2628 14.3 29
  308.1741 15.1 30
  308.2576 17.4 35
  308.343 14.3 29
  308.5764 14.3 29
  309.0914 19.8 40
  309.212 16.2 33
  309.3324 16.5 33
  309.3787 15.8 32
  309.4132 16.9 34
  309.4871 17.8 36
  309.6052 14 28
  310.0718 16.9 34
  310.1298 13.2 26
  310.3975 15.1 30
  310.5965 16.7 34
  310.6359 16 32
  311.5447 20.5 42
  311.5734 16.5 33
  312.1433 18.1 37
  312.324 16.7 34
  312.4659 13.2 27
  312.5498 18.8 38
  313.6175 12 24
  314.0561 14 28
  315.3074 14.3 29
  315.3698 17.1 35
  315.6303 13 26
  316.9936 16.7 34
  317.2115 12 24
  318.3684 14 28
  318.4216 13 26
  318.4579 15.1 30
  319.221 15.8 32
  319.3221 14 28
  319.4569 16.5 33
  319.5147 16.1 32
  319.6658 23.4 48
  320.0486 15.1 30
  320.1456 13.5 27
  320.4532 15 30
  320.4879 13.2 26
  320.597 15.8 32
  321.0323 14 28
  321.0558 14 28
  321.1476 14.3 29
  321.21 15 30
  321.5307 14 28
  322.0588 15.2 31
  322.1371 20 40
  322.1622 13.5 27
  323.2438 15 30
  323.4293 18.5 37
  323.6507 23.1 47
  324.6858 16.9 34
  325.079 13 26
  325.1206 16.2 33
  325.366 18 36
  325.6364 16.2 33
  326.0718 14 28
  326.4158 16.7 34
  326.5713 16 32
  327.0269 16 32
  327.1553 16.5 33
  327.2155 16 32
  327.6642 13 26
  327.9987 18.8 38
  328.3613 16 32
  328.4614 20.6 42
  328.5552 13.2 26
  328.6857 16 32
  329.0091 14 28
  329.042 17.1 35
  329.0784 14.3 29
  329.2688 12 24
  329.3629 20 41
  329.434 17 34
  329.566 16.7 34
  330.2508 18.8 38
  330.2741 17.2 35
  330.6078 19 38
  331.1761 13.2 26
  331.1999 14.1 28
  331.4182 12 24
  331.5905 13 26
  331.6774 13.2 26
  332.3327 13.2 27
  332.3944 16.5 33
  332.5563 23 47
  333.1234 15.1 30
  333.541 13 26
  333.6326 15.2 31
  334.5432 18 36
  335.0648 15.1 30
  335.0911 14.3 29
  335.1859 13.1 26
  336.0614 16.7 34
  336.4317 14 28
  336.4734 16.7 34
  336.6048 21 43
  337.0004 14.1 28
  337.097 25 51
  337.2673 14 28
  338.4933 16.9 34
  338.6164 13 26
  339.0653 17.1 35
  339.2245 18.8 38
  339.4251 14 28
  339.4978 15.1 30
  339.5922 14.6 29
  339.991 15.1 30
  340.1296 16.9 34
  340.1748 14.1 28
  341.0614 16.2 33
  341.247 13 26
  341.373 15.1 30
  341.4421 16.7 34
  341.5948 16.2 33
  341.6512 12.1 24
  342.4254 14 28
  342.6058 15 30
  343.1067 14.9 30
  343.157 14 28
  343.3001 16.2 33
  343.3639 16 32
  343.4326 12 24
  343.4838 18.2 37
  343.5881 16 32
  344.1291 14.9 30
  344.4303 14.3 29
  344.6734 55.7 114
  345.1241 18.2 37
  345.2023 17.1 35
  345.6306 18.1 37
  346.012 13.2 26
  346.2129 19.1 39
  346.3404 17.7 36
  346.4539 19 39
  347.0119 15.8 32
  347.0506 15.1 30
  347.1783 12 24
  347.4076 16 32
  347.4422 13.2 26
  347.6539 14 28
  348.0775 20 41
  348.3189 16.2 33
  348.3547 17.1 35
  348.4001 16 32
  349.1741 16.5 33
  349.2352 15 30
  349.3446 12 24
  349.3733 14 28
  349.5155 15.1 30
  350.0722 15 30
  350.239 18.1 37
  350.3337 15.1 30
  350.3687 15 30
  350.5325 19 38
  351.1034 14 28
  351.2052 16.9 34
  351.2671 15 30
  351.6722 15 30
  352.0844 13.2 26
  352.1269 17 34
  352.3012 14 28
  352.3409 16.2 33
  352.4369 12 24
  352.6669 19 38
  353.0847 13 26
  353.2457 21.3 43
  354.1657 19.1 39
  354.196 13 26
  354.3532 12 24
  354.5196 23.4 48
  355.0525 15.8 32
  355.2426 15 30
  355.5691 12 24
  356.1065 14 28
  356.272 14 28
  356.4778 12.1 24
  356.5697 12.1 24
  356.6793 14 28
  357.0697 13 26
  357.4481 19.1 39
  357.5417 16.1 32
  358.3186 12 24
  358.4192 16.1 33
  359.1366 12 24
  359.2094 14.6 29
  359.4265 16 32
  359.4976 18 36
  359.6212 17.4 35
  359.6676 17 34
  360.647 14.9 30
  360.6777 14.6 29
  361.3431 15.1 30
  361.429 16 32
  361.5164 15 30
  362.0862 14.3 29
  362.3127 15 30
  362.3703 16.7 34
  363.018 12.4 25
  363.4178 19.6 40
  363.6009 13 26
  363.6823 16 32
  364.3027 20 41
  364.5055 15.8 32
  364.5363 17 34
  364.6138 13.2 26
  364.6704 12 24
  365.0033 15.8 32
  365.1883 12 24
  365.3011 13 26
  365.5945 15.4 31
  366.1187 16 32
  367.2317 13 26
  367.4071 15.4 31
  367.6702 13 26
  368.2778 14 28
  368.4653 15.1 30
  368.5319 17.1 35
  369.1155 12 24
  369.2131 18 36
  369.3507 18.2 37
  369.4767 14 28
  369.5294 19 38
  369.6063 19.8 40
  370.0221 17.4 35
  370.0615 16.2 33
  370.3968 20.5 42
  371.1594 16.5 33
  371.2635 14 28
  371.2868 13.2 27
  371.329 15 30
  371.4407 14 28
  371.4913 14 28
  371.5383 13 26
  372.3306 14 28
  373.2871 13.5 27
  373.3322 15.8 32
  373.9959 13 26
  375.1696 15 30
  375.2597 17.4 35
  376.0595 22.6 46
  376.1716 17 34
  376.6606 12 24
  377.0222 13 26
  377.1825 14.4 29
  377.4026 15 30
  378.1877 14 28
  378.3641 18 36
  378.439 13 26
  379.0087 16.9 34
  379.3357 19.1 39
  379.4322 15.1 30
  379.4711 14.6 29
  380.1026 14 28
  380.1337 12.4 25
  380.1735 17.7 36
  380.5582 16.9 34
  380.6438 13 26
  381.0356 18 36
  381.1573 17 34
  381.2126 15.2 31
  381.2544 12 24
  381.3084 14 28
  381.3762 15 30
  381.4115 17.7 36
  382.0109 14 28
  382.0643 15.1 30
  382.1307 17.2 35
  382.3569 16.7 34
  382.4035 14 28
  382.5736 13 26
  383.1386 17 34
  383.3137 16.7 34
  383.4273 24.1 49
  383.5731 13 26
  384.0621 13 26
  384.1381 16 32
  384.1681 15.4 31
  384.4844 16 32
  385.0145 22 45
  385.5839 14 28
  386.507 15.4 31
  387.151 14 28
  387.2555 19.1 39
  387.5091 15 30
  388.1268 17.2 35
  388.2927 14 28
  388.6138 15.5 31
  389.1098 16.1 32
  389.2625 13 26
  389.991 15.8 32
  390.0466 13 26
  390.1544 15 30
  390.3097 12.1 24
  390.4757 15.4 31
  391.1337 16 32
  391.2555 13 26
  391.3309 14 28
  391.3934 14 28
  391.5507 15.1 30
  391.6775 20.9 42
  392.0155 19.6 40
  392.11 16 32
  392.2563 23.1 47
  392.3707 16 32
  392.419 14.3 29
  392.5372 15.8 32
  393.244 22.7 46
  393.2889 14 28
  393.3587 16 32
  393.4634 18.2 37
  393.6645 17.4 35
  393.6935 15.1 30
  394.1608 18.5 37
  394.4797 15.8 32
  394.516 15.1 30
  394.6032 16 32
  395.0139 17.8 36
  395.192 14 28
  395.2612 13.2 27
  395.388 22 45
  395.4595 16.9 34
  395.5466 14 28
  396.1761 19 38
  396.3045 16.9 34
  396.4274 51.3 105
  396.6338 15.4 31
  397.0428 16.2 33
  397.1355 14.9 30
  397.466 16.2 33
  397.5016 15 30
  398.2712 13 26
  398.5589 15 30
  398.6434 16.5 33
  399.0238 20.5 42
  399.1176 14 28
  400.2377 14 28
  400.539 16.2 33
  401.0048 17 34
  401.2077 15 30
  401.3411 12 24
  401.9953 13.5 27
  402.0314 19.1 39
  402.0675 17 34
  402.1806 14.9 30
  402.2843 20.5 42
  402.3271 14.9 30
  402.6342 12.1 24
  403.6849 16 32
  406.0963 16.1 33
  407.2606 14 28
  407.316 13 26
  407.4358 17.8 36
  408.1441 13 26
  408.1896 16 32
  408.2603 15.1 30
  408.306 16.1 32
  408.3423 17.7 36
  408.4296 15.1 30
  409.1189 13 26
  409.1611 15.1 30
  409.2344 16 32
  409.5737 14 28
  409.6111 13.2 26
  409.9969 12.1 24
  410.5004 14.9 30
  410.6669 16.2 33
  411.2345 17.7 36
  411.471 14 28
  411.6099 15 30
  412.1825 13.2 26
  412.3748 13 26
  413.2182 17.7 36
  413.2769 12.4 25
  413.559 18.9 38
  414.1617 20.5 42
  414.4339 15 30
  415.1602 13 26
  415.1883 15.8 32
  415.2405 15.1 30
  415.4057 17 34
  415.5919 15.4 31
  416.1423 13 26
  416.1792 14.3 29
  416.2302 16 32
  416.648 18.2 37
  417.0784 14 28
  417.1919 15 30
  417.286 61 124
  417.3648 17.7 36
  417.4906 17 34
  417.5566 18.2 37
  417.6384 17.7 36
  418.1008 16.7 34
  418.16 14.9 30
  418.6738 15.2 31
  419.1645 14 28
  419.4391 20 41
  420.1556 17 34
  420.5198 14 28
  420.5527 27.3 55
  421.2146 14 28
  421.3257 13.5 27
  421.4598 13 26
  422.386 18.5 37
  423.2881 14 28
  423.4774 18 36
  423.6399 15.8 32
  424.0233 14.1 28
  424.231 12 24
  424.358 12 24
  424.6327 16.5 33
  425.3609 13.2 26
  425.6709 13 26
  426.0429 14 28
  426.1291 15.8 32
  426.1655 16 32
  426.4714 15.8 32
  426.9967 15 30
  427.053 12.1 24
  427.0928 14.3 29
  427.1381 18.2 37
  427.163 15.8 32
  427.3354 16 32
  427.3805 15 30
  427.513 17 34
  428.0304 17.1 34
  429.2005 14 28
  429.4059 17.7 36
  429.6933 15.4 31
  430.5432 15.4 31
  431.0874 13 26
  431.1501 15.8 32
  431.5045 16.7 34
  432.2212 16 32
  432.3363 14.6 29
  432.4157 13.5 27
  432.6509 16.2 33
  433.1083 13.5 27
  433.1942 13 26
  433.2952 16 32
  433.6002 18 36
  434.1908 14 28
  434.429 14 28
  435.0666 13 26
  435.5574 14 28
  436.0899 13 26
  436.3694 20 40
  436.5068 18 36
  436.5381 13 26
  436.5976 15.8 32
  437.1043 14.6 29
  437.1625 16 32
  437.4306 16 32
  437.6094 18.8 38
  438.4334 21.6 44
  438.5704 14.3 29
  439.2547 16 32
  439.4681 21.1 43
  439.6368 13.2 26
  439.6729 13.5 27
  440.0015 12 24
  440.0633 17.4 35
  440.2024 15 30
  440.5939 15.4 31
  441.1337 16.7 34
  441.2872 13 26
  441.4862 17.7 36
  442.0126 15 30
  442.22 17.1 35
  442.593 14.9 30
  443.1985 16 32
  443.4359 14 28
  443.6267 20.9 42
  443.6622 22.5 46
  444.3991 15.2 31
  444.5401 14 28
  444.6901 16.2 33
  445.01 14.9 30
  445.067 20 40
  445.4213 15 30
  446.2412 14 28
  447.0856 15.1 30
  447.1304 15 30
  447.3158 14 28
  447.4689 16 32
  448.0717 17.1 35
  448.1701 16 32
  448.2812 16.2 33
  448.3937 19 38
  449.0067 12 24
  449.0652 14.3 29
  449.1473 15.8 32
  449.1815 15 30
  450.5103 12 24
  451.1372 13.2 26
  451.2056 15.8 32
  451.4249 13.5 27
  451.684 12 24
  452.044 16 32
  452.1758 17.8 36
  452.245 15.2 31
  452.3456 15.1 30
  452.5763 14.9 30
  453.0764 18 36
  453.3858 14.9 30
  453.5598 14 28
  453.6244 14 28
  453.6852 16.3 33
  454.0705 14 28
  454.1987 14.1 28
  454.5187 14 28
  455.2065 61.8 126
  455.2779 14 28
  455.3104 13 26
  455.4022 14 28
  455.5904 13 26
  457.0359 15 30
  457.2365 14 28
  457.5331 16 32
  458.1564 14.1 28
  458.2723 12.4 25
  458.6154 18 36
  458.6713 14.3 29
  459.1097 12.4 25
  459.243 15 30
  459.3283 16 32
  460.3328 14.9 30
  460.4229 14.2 29
  460.5051 16.9 34
  460.6206 14 28
  460.9864 12 24
  461.491 17 34
  461.6861 15.1 30
  462.0826 18.8 38
  462.1602 16.2 33
  462.2932 12 24
  462.4467 14.3 29
  462.6043 18 36
  463.0911 13.2 26
  463.5213 13 26
  463.5867 13 26
  464.0616 14 28
  464.1065 14 28
  464.1983 17 34
  464.2578 15 30
  464.3358 15 30
  464.3774 18.1 37
  464.4681 13.5 27
  465.1311 14 28
  465.177 17.7 36
  465.2121 18 36
  465.5107 16.7 34
  467.0547 14.6 29
  467.3933 17.8 36
  467.5028 17.7 36
  467.5927 14 28
  468.024 15 30
  468.1508 14 28
  468.292 16 32
  468.3419 15 30
  468.4375 18 36
  468.6857 15.8 32
  469.1156 23 47
  469.336 18.3 37
  469.3847 14 28
  470.0729 18.6 38
  470.1274 13 26
  470.3264 17 34
  470.6757 14.3 29
  471.0868 13 26
  471.1995 14 28
  471.2977 14 28
  471.396 20.2 41
  471.5226 12 24
  472.108 15 30
  472.1715 13.2 26
  472.334 15.2 31
  472.4452 14 28
  472.5005 14 28
  473.0679 18 36
  473.203 13.2 26
  473.3225 16.9 34
  473.3707 17 34
  473.4167 14 28
  473.4765 16 32
  473.5364 17.7 36
  474.0878 14 28
  474.273 13.5 27
  474.3185 16 32
  474.5284 16 32
  474.5761 14 28
  475.0599 14 28
  475.4854 16.2 33
  476.1776 15.8 32
  476.4212 14 28
  476.5995 16.2 33
  477.2607 16.9 34
  478.2012 16.7 34
  478.5628 14 28
  478.6155 16.7 34
  479.0148 15.1 30
  479.5056 17.7 36
  480.0422 19.1 39
  480.0737 19.8 40
  480.2621 13.5 27
  481.3841 14 28
  481.4992 19.6 40
  481.9984 16.2 33
  482.1006 15.1 30
  482.2048 16.1 32
  482.243 16.1 32
  482.3955 16 32
  483.1998 16.7 34
  483.4186 17.8 36
  483.6265 14 28
  484.2002 14.6 29
  484.3857 20 41
  484.5612 15.1 30
  484.997 13 26
  485.1291 14.9 30
  485.1861 13.1 26
  485.2332 14.3 29
  485.5597 15 30
  486.1439 17.8 36
  486.3231 19.2 39
  487.0197 16.2 33
  487.2499 16.9 34
  487.293 17.1 35
  487.3908 16.5 33
  488.3135 15 30
  488.3674 15 30
  488.5677 15 30
  488.6868 14.6 29
  489.0018 15.2 31
  489.3715 15.4 31
  489.4089 12 24
  489.5323 14.6 29
  489.613 15 30
  490.0881 15.1 30
  490.1602 17.7 36
  490.4551 12 24
  491.0017 12 24
  491.1075 22.5 46
  491.2769 12.4 25
  491.3344 14 28
  492.1608 14 28
  492.275 13 26
  493.1649 13 26
  493.4091 19.9 40
  493.456 14 28
  493.6061 12.4 25
  495.0528 14 28
  495.1795 16.7 34
  495.2023 14 28
  495.2332 14 28
  495.3294 15.1 30
  495.5886 13 26
  496.0473 16 32
  496.2742 14 28
  496.3431 18 36
  496.3975 14.9 30
  497.3725 17 34
  497.6184 12 24
  497.6914 12 24
  498.1053 15.1 30
  498.4512 17 34
  498.4887 15.1 30
  499.1879 14 28
  499.2454 12 24
  499.284 13 26
  499.5567 16.2 33
  499.6059 14 28
  499.686 15 30
  500.2953 19.7 40
  500.4641 18.9 38
  500.6661 15.4 31
  501.0541 21 43
  501.0851 17 34
  501.1407 17 34
  501.244 16.7 34
  501.5181 16 32
  502.248 16.2 33
  502.363 14 28
  502.4912 17 34
  503.4652 17.7 36
  504.2051 14.3 29
  504.4018 20.5 41
  504.4324 16.2 33
  505.0857 19.3 39
  505.3052 12 24
  505.367 17 34
  505.5096 15 30
  505.6376 15 30
  506.1824 13 26
  507.0198 14 28
  507.3961 16.1 32
  507.5332 13 26
  507.6005 14.3 29
  507.6459 16.7 34
  507.6804 23 47
  508.0897 14.6 29
  508.1649 19.8 40
  508.3171 14 28
  508.3916 16 32
  508.4693 15 30
  508.4972 15.1 30
  508.5982 21 43
  508.6962 15.1 30
  508.9857 16 32
  509.0501 13.2 26
  509.1299 15 30
  509.2132 16 32
  509.2953 15 30
  509.5016 16.2 33
  510.0948 17 34
  510.1659 18 36
  510.4043 15.2 31
  510.5064 19.5 39
  510.5631 18 36
  511.0888 14 28
  511.2319 14 28
  511.5197 16.2 33
  511.625 19.6 40
  511.6824 12 24
  512.1731 14.1 28
  512.3898 23.4 48
  513.5 13 26
  513.6489 18 36
  513.6824 16.1 32
  514.139 13.2 26
  514.3746 13.5 27
  514.6633 16.5 33
  515.0921 13 26
  515.258 16 32
  515.4881 16.2 33
  515.5857 14 28
  516.1397 14.1 28
  516.1784 16.2 33
  516.217 14 28
  516.2918 17 34
  516.3522 16 32
  516.4531 21.6 44
  516.5183 14 28
  517.0793 14 28
  517.2337 14 28
  517.3321 15.2 31
  518.1195 13 26
  518.251 14 28
  518.359 17.8 36
  518.4377 14 28
  518.5167 14 28
  519.1241 14.6 29
  519.37 14 28
  520.0107 15 30
  520.3864 15 30
  520.4761 19.1 39
  520.6775 19.8 40
  521.1134 17.1 34
  521.6137 17.1 35
  521.6967 14.9 30
  522.1277 18.6 38
  522.4455 20 40
  522.5492 15.1 30
  523.0079 14 28
  523.3347 12.1 24
  523.6382 14 28
  524.2308 13 26
  524.2587 13 26
  524.5412 12.4 25
  524.581 13 26
  525.0392 17.7 36
  525.1284 13 26
  525.1764 16 32
  525.3376 16.5 33
  526.0126 14 28
  526.2174 16.9 34
  526.5607 16 32
  527.1074 13 26
  527.3109 13 26
  527.5942 13 26
  528.0404 16.2 33
  528.0677 14.3 29
  528.2887 14 28
  528.5181 13.5 27
  529.2182 13.2 26
  529.3273 15.1 30
  529.3959 15 30
  530.1158 12 24
  530.4572 14.9 30
  530.5935 14 28
  531.0303 14 28
  531.2178 15.4 31
  531.2949 12 24
  531.5593 12 24
  532.031 15.4 31
  532.0836 14 28
  532.1755 13 26
  532.2705 13.2 26
  532.3524 15.8 32
  532.6122 16 32
  533.0245 15 30
  533.1123 15.1 30
  533.188 16.2 33
  533.2589 15 30
  533.4328 15 30
  533.5028 20 41
  533.6563 18.5 37
  534.2224 18.2 37
  534.3511 14 28
  534.4681 16.9 34
  534.6499 17.7 36
  535.4742 17 34
  536.2912 13 26
  536.3672 23.8 48
  536.4101 12 24
  536.4709 18.8 38
  536.6269 19.6 40
  537.0236 14 28
  537.0782 14.1 28
  537.4593 16.2 33
  538.3742 17 34
  538.4951 18 36
  538.5383 16 32
  539.0069 12.1 24
  539.1562 12 24
  539.2176 16 32
  539.3419 15 30
  539.9958 17 34
  540.406 16 32
  540.4304 16 32
  540.6607 17.2 35
  541.0624 16.5 33
  541.4485 16.7 34
  541.5334 13 26
  541.6152 15 30
  541.9915 16.7 34
  542.1907 13 26
  543.1923 15 30
  543.4012 17 34
  543.4358 12 24
  543.5453 16 32
  543.9804 14 28
  544.0687 14.9 30
  544.1931 16 32
  544.2945 16 32
  544.3466 15 30
  544.9966 13.2 26
  545.1185 19.2 39
  545.4837 14.3 29
  545.5281 12 24
  545.5827 13.2 26
  545.679 14 28
  546.0811 15.2 31
  546.2146 15.4 31
  546.3655 17.4 35
  547.4096 13 26
  547.4567 15.4 31
  548.1296 13 26
  549.0445 13.2 26
  549.2561 17 34
  549.3229 17 34
  550.5474 17.1 34
  550.629 14.6 29
  551.1306 14 28
  551.1688 14 28
  552.3046 13 26
  552.3353 17.8 36
  552.3982 19.8 40
  552.6782 17.1 34
  553.0226 17 34
  553.1863 16 32
  553.2285 17 34
  553.3275 14 28
  553.4035 18 36
  553.4446 15 30
  554.0613 18 36
  554.1152 18.8 38
  554.1539 16.9 34
  554.2767 14 28
  554.4548 13 26
  554.6341 15.1 30
  554.6717 14 28
  555.4907 17.2 35
  555.6134 13 26
  556.2115 14 28
  556.3121 12 24
  556.4039 14 28
  557.0109 17 34
  557.0761 14 28
  557.1482 14 28
  557.2261 16 32
  557.3281 15.1 30
  557.4035 15.8 32
  557.4753 20.5 42
  557.5586 13 26
  557.614 18.6 38
  557.6855 13.2 27
  558.104 14 28
  558.1353 13 26
  558.3919 18.3 37
  559.4146 13.2 26
  559.5262 16 32
  560.0886 17.1 35
  560.1978 14 28
  560.4239 16.1 32
  561.0296 14.9 30
  561.4877 17.1 35
  561.6189 15.4 31
  562.0236 14.1 28
  562.1726 18.2 37
  562.2147 15 30
  562.4707 13 26
  562.6067 14.3 29
  562.6438 13 26
  563.0363 17 34
  563.1568 16.1 33
  563.4378 19.8 40
  563.46 19.7 40
  563.5852 15.4 31
  564.5916 15.1 30
  565.333 17.4 35
  565.4319 19.6 40
  565.5141 20.5 41
  565.5719 17.1 35
  565.6374 16.7 34
  566.0883 14 28
  566.1646 16 32
  566.2278 18.6 38
  567.1746 12.4 25
  567.3981 13 26
  567.5306 12 24
  568.1192 18.1 37
  568.6903 13.5 27
  569.0362 14.2 29
  569.3637 14 28
  569.4268 12.1 24
  569.7028 15 30
  570.0065 15.4 31
  570.0769 16.7 34
  570.5702 13 26
  571.5283 16 32
  571.6779 15 30
  572.559 12 24
  573.456 15 30
  574.201 15.4 31
  574.2317 20 40
  574.3114 14.3 29
  574.3692 15.2 31
  575.034 15.1 30
  575.1755 12 24
  575.4067 20.6 42
  576.0962 14 28
  576.1382 17.8 36
  576.2403 20.9 42
  576.3324 14.6 29
  576.4604 14 28
  577.0839 16.7 34
  577.6948 13.5 27
  578.3572 14 28
  578.3914 16.5 33
  579.0788 16 32
  579.2438 13 26
  579.3901 18.6 38
  579.5659 20.5 42
  580.1891 14 28
  580.2935 18 36
  581.2935 15.1 30
  581.3208 16 32
  581.5308 15 30
  581.6175 20 40
  582.0199 14.3 29
  582.2384 16.7 34
  582.3157 12 24
  582.518 14.3 29
  583.0068 16 32
  583.1145 15 30
  583.1857 14 28
  583.5803 13.5 27
  583.9951 16.2 33
  584.3849 19.2 39
  584.4981 13 26
  584.9994 16 32
  585.5085 17.1 35
  586.1012 17.7 36
  586.188 14 28
  587.135 16 32
  587.2824 17 34
  587.4139 15.4 31
  587.6753 14.1 28
  588.3087 16.9 34
  588.4197 15.1 30
  588.4602 14 28
  589.0038 14 28
  589.0379 13 26
  589.3623 17 34
  589.5191 16.5 33
  589.6885 19.1 39
  590.0116 17 34
  590.0768 16.7 34
  590.1349 15.4 31
  590.2017 15.1 30
  590.3987 16.1 32
  590.4994 16 32
  590.6293 19.1 39
  590.6624 15.8 32
  591.0892 19.3 39
  591.1226 15 30
  591.381 16.5 33
  591.4725 18 36
  591.6411 15.8 32
  592.0877 19.7 40
  592.209 14.6 29
  592.3832 13.5 27
  592.4159 17.7 36
  592.497 14 28
  592.612 15 30
  593.0113 19.3 39
  593.0716 18.8 38
  593.1339 12 24
  593.2642 18.3 37
  593.3242 17 34
  593.5338 13 26
  593.5758 16 32
  593.6729 54.2 111
  594.1156 15.1 30
  595.6679 18 36
  596.1157 14.9 30
  596.2127 16.2 33
  596.5322 17 34
  596.6226 19.6 40
  596.6904 15 30
  597.1464 18 36
  597.3815 14.3 29
  597.5046 14 28
  597.6861 20 41
  598.1257 18.2 37
  598.2421 15 30
  598.3711 18.2 37
  598.4217 16 32
  599.049 14.9 30
  599.0959 14.9 30
  599.6569 15 30
  599.9924 15.1 30
  600.4758 14 28
  601.2633 15 30
  601.5208 20.4 41
  601.5621 13 26
  601.6843 18.9 38
  601.9918 16 32
  602.0759 21.6 44
  602.2697 15.4 31
  602.5378 19.6 40
  603.2008 16 32
  603.2827 14.6 29
  603.4277 13.5 27
  603.9658 16.2 33
  604.1036 18 36
  604.4998 15.8 32
  604.5434 17.1 35
  605.2908 13 26
  605.3759 16.9 34
  605.4153 14 28
  605.5452 14 28
  605.6878 16.7 34
  606.0413 14.1 28
  606.2746 12 24
  606.4201 12 24
  606.5393 17.8 36
  607.0085 13.2 26
  607.243 14.3 29
  607.344 14.6 29
  607.563 17 34
  607.6326 17 34
  608.0607 14.3 29
  608.1514 15.1 30
  608.495 15.8 32
  608.5906 15 30
  608.6194 13.5 27
  609.1015 13.2 26
  609.1703 13 26
  609.3667 13 26
  609.5392 13 26
  610.0005 19 38
  610.1999 16.7 34
  610.2707 14 28
  610.4159 16.2 33
  611.2253 14.3 29
  612.272 19.4 39
  613.3737 15.1 30
  613.5313 16.1 32
  614.0503 15 30
  614.1739 14.9 30
  614.4119 15.4 31
  614.4537 13.1 26
  614.6246 17.1 35
  615.1279 15 30
  615.3196 16.5 33
  616.0067 15.8 32
  616.4159 15.1 30
  616.9764 19.6 40
  617.0452 14 28
  617.2192 13 26
  617.3263 16 32
  617.5365 13.2 26
  618.178 12.1 24
  618.2927 14 28
  619.0112 14 28
  619.1954 13.5 27
  619.5163 15.1 30
  619.5832 17.1 35
  619.9767 15.4 31
  620.2666 12.4 25
  620.3531 15.8 32
  620.6378 14.9 30
  621.0276 16 32
  621.6157 16 32
  621.6793 17.8 36
  623.072 17.7 36
  623.1262 19 38
  623.6567 17.4 35
  624.23 14.6 29
  624.3534 14.3 29
  624.4196 14 28
  625.375 15 30
  626.1011 12.4 25
  626.3042 16.1 32
  627.1523 16.9 34
  627.2905 15 30
  627.3502 16.9 34
  627.6206 15.1 30
  628.0644 17.7 36
  628.1496 14.1 28
  628.2248 13 26
  628.4993 13 26
  628.5478 15.1 30
  628.6161 18 36
  628.6667 13.2 26
  629.1589 14 28
  629.2556 16 32
  629.4913 15 30
  629.5343 16.9 34
  629.6171 13 26
  630.1492 13 26
  630.2443 20.2 41
  630.6421 14.3 29
  631.5351 15.1 30
  632.196 17.4 35
  632.2466 18.8 38
  632.3853 14.6 29
  632.4635 17.7 36
  633.014 13 26
  633.4436 14.9 30
  634.6084 14 28
  634.6552 15.4 31
  635.0465 15.4 31
  635.2187 16.9 34
  635.4307 15.4 31
  635.4705 15.8 32
  635.6438 14 28
  636.247 15.4 31
  636.3787 15 30
  636.6885 20.9 42
  637.2648 17.4 35
  638.0041 15.1 30
  638.2462 16.2 33
  638.3627 15 30
  638.5584 19 38
  638.6459 17.1 35
  639.2953 15 30
  639.3672 18 36
  640.0964 17.7 36
  640.2045 13 26
  640.2573 13 26
  640.3497 16.2 33
  640.4057 14.9 30
  640.508 16.2 33
  641.0977 13.2 26
  641.1368 14 28
  641.3364 16 32
  641.3716 16 32
  641.6773 14.9 30
  642.1512 18.8 38
  642.2421 16 32
  642.574 14.1 28
  643.1284 17.4 35
  643.5723 16.9 34
  644.0583 20 41
  644.1314 17.7 36
  644.1995 13.1 26
  644.2773 16 32
  644.6845 16.2 33
  645.0402 16.7 34
  645.1774 14 28
  645.477 19.6 40
  646.0658 12 24
  646.5016 15.1 30
  647.2418 16.9 34
  648.3693 15.8 32
  648.443 15.8 32
  648.9828 16 32
  649.3953 15.2 31
  649.4565 15.1 30
  650.1332 18 36
  650.2642 18 36
  650.5778 13 26
  651.1689 14.9 30
  651.2948 13 26
  651.396 19.3 39
  652.1535 18.2 37
  652.3619 12 24
  652.5334 12 24
  652.6653 15 30
  653.1312 16 32
  653.4288 18.6 38
  653.4795 14 28
  654.2092 18.1 37
  654.4914 18 36
  655.1857 13 26
  655.354 17.8 36
  655.412 14 28
  655.4789 19 38
  655.5503 16 32
  655.5873 19 38
  656.0908 13.2 26
  656.2387 17.7 36
  656.355 16.7 34
  657.0507 13 26
  657.1111 15.8 32
  657.2371 16.9 34
  657.3684 13.5 27
  657.4043 15 30
  657.488 16 32
  657.5992 19.1 39
  657.693 17.8 36
  658.2848 20.6 42
  658.3894 17.4 35
  659.4635 19.1 39
  659.6001 18 36
  660.1522 12 24
  660.3106 21.5 44
  660.6479 15.8 32
  661.537 12 24
  662.083 16 32
  662.1448 13 26
  662.5451 13.5 27
  662.5914 15.4 31
  663.1446 15 30
  663.261 14 28
  663.5999 14 28
  663.641 18 36
  663.9666 15 30
  664.1923 21.7 44
  664.3034 16.2 33
  664.426 15.8 32
  664.695 16.3 33
  665.1599 15.1 30
  665.3077 15.4 31
  665.408 14 28
  665.4781 13 26
  665.693 18.5 37
  665.9806 15.8 32
  666.2538 14 28
  667.0859 14.2 29
  667.425 13 26
  667.5243 14 28
  668.0374 14 28
  668.0969 17.1 35
  668.1308 18.8 38
  668.255 15 30
  668.4152 18 36
  669.1545 12 24
  669.2443 17.7 36
  669.6566 22 45
  670.5977 14 28
  671.3384 19.9 40
  671.5329 14.9 30
  671.604 15 30
  672.0193 16.7 34
  672.0705 20 40
  672.1478 23.8 48
  672.3234 17 34
  672.435 13 26
  672.558 15 30
  673.044 12.4 25
  673.1954 16.2 33
  673.2513 13.2 27
  673.4647 14.9 30
  674.1079 14.6 29
  674.1625 12.4 25
  674.4798 16 32
  674.5358 14.3 29
  674.6188 15.4 31
  675.0755 25.1 51
  675.1812 18.2 37
  675.3984 16 32
  675.4526 17 34
  676.1276 14.9 30
  676.2596 15 30
  676.5412 16.2 33
  676.6699 17.1 35
  677.0384 16.5 33
  677.0622 24.5 50
  677.1566 15 30
  677.3712 14.9 30
  678.1619 16 32
  678.3117 19 38
  679.1258 15.1 30
  679.1738 16.9 34
  679.4514 19.8 40
  679.4834 18.8 38
  679.5702 19.6 40
  680.0401 19.8 40
  680.2278 17.4 35
  680.4427 15.8 32
  680.9831 14.3 29
  681.0691 13 26
  681.113 12 24
  681.17 15.1 30
  681.3367 15.8 32
  681.5778 17.4 35
  681.6903 20.1 41
  682.1582 17.8 36
  682.4881 16.2 33
  682.643 15.4 31
  683.0058 15.4 31
  683.1117 14 28
  683.442 15 30
  683.5369 12 24
  683.6128 14.3 29
  683.6604 13 26
  684.0523 15.1 30
  684.2843 13 26
  684.3991 15.5 31
  684.5767 14 28
  685.3251 19.7 40
  685.3736 12 24
  686.2871 17.4 35
  686.5223 14 28
  687.4586 13 26
  687.5094 17.4 35
  687.5566 16 32
  687.6055 16.5 33
  688.0426 12.1 24
  688.236 14 28
  689.2551 12 24
  689.2934 14 28
  689.417 20.8 42
  689.5927 12 24
  690.1075 17.4 35
  690.1711 16.2 33
  690.2375 16 32
  690.4665 20 40
  690.5549 16.9 34
  690.6168 15 30
  691.1553 16.7 34
  692.0306 15.8 32
  692.4566 13.2 26
  692.5442 14 28
  692.5935 13.2 27
  693.3521 16.2 33
  693.4583 14.3 29
  693.541 14.3 29
  694.2799 17.4 35
  694.4935 18.1 37
  694.5717 18 36
  695.3723 16.7 34
  695.498 18 36
  695.5885 16.2 33
  696.3927 18.6 38
  696.6069 18.1 37
  697.1675 18 36
  697.4247 14 28
  697.9859 14 28
  698.141 16.9 34
  698.2732 17.8 36
  699.103 17.1 35
  699.2005 14.9 30
  699.4057 14 28
  699.4662 12 24
  699.5924 19 38
  699.6825 16 32
  700.2933 14 28
  700.3734 15.8 32
  700.4458 15.8 32
  701.0535 13 26
  701.0941 12 24
  701.2937 21 43
  701.4538 19 39
  702.1513 15 30
  702.4151 13 26
  702.5162 15.4 31
  703.3558 17.1 35
  704.2101 13 26
  704.5052 13 26
  704.6113 14.3 29
  705.0407 17.7 36
  705.428 15.4 31
  705.6411 18.5 37
  706.0861 16 32
  706.1159 21.5 44
  706.2313 13 26
  706.3471 14.1 28
  706.5727 14 28
  707.0296 17.7 36
  707.149 12.1 24
  707.1921 17.4 35
  707.2975 21.1 43
  707.3557 20.2 41
  707.4044 14 28
  707.4814 15.1 30
  707.6265 15.4 31
  708.4935 13 26
  708.5634 15.1 30
  708.6603 16 32
  709.0429 14.3 29
  709.1654 19.1 39
  709.5078 16.9 34
  709.7039 16 32
  710.0273 17 34
  710.1599 12 24
  710.2685 14.6 29
  710.3195 13 26
  710.5014 13 26
  711.2005 15.8 32
  711.405 15 30
  711.4525 14 28
  711.6451 12.1 24
  712.2611 18 36
  712.6133 16 32
  713.3285 15.1 30
  714.0083 14 28
  714.1336 14.2 29
  714.4221 16 32
  714.5078 17 34
  715.0787 14.3 29
  715.3318 14 28
  715.437 14.9 30
  715.5599 15 30
  715.6775 15.1 30
  716.0215 13 26
  716.1444 23.1 47
  716.238 13 26
  716.5182 12 24
  716.6104 14.6 29
  716.7 15.1 30
  717.2395 14 28
  717.2979 16.7 34
  717.3347 14.3 29
  717.4697 13 26
  717.6255 13 26
  718.0742 21.9 44
  718.1007 16 32
  718.294 16 32
  718.3462 14.9 30
  718.5452 17.8 36
  719.1078 16.2 33
  719.3543 15 30
  719.4492 17 34
  719.4905 15.1 30
  719.6338 14.3 29
  720.24 15.1 30
  720.5053 16.2 33
  721.2632 14 28
  721.4669 17 34
  721.526 16.1 32
  722.6375 15 30
  723.1127 15.4 31
  723.3045 15.1 30
  723.4266 15.1 30
  723.6434 12 24
  724.049 17.4 35
  724.4262 17.7 36
  725.32 13 26
  725.5275 16 32
  726.0151 16.2 33
  726.13 15.1 30
  726.3143 13.1 26
  726.3827 12.4 25
  726.6612 15.4 31
  727.0242 14 28
  727.0665 18 36
  727.2766 14 28
  728.0088 13 26
  728.1073 13.5 27
  728.3692 21.1 43
  728.6547 14.9 30
  729.0404 15 30
  729.3384 14 28
  729.542 17.8 36
  729.6364 16 32
  730.145 17 34
  730.2563 20.6 42
  730.4174 16.9 34
  731.0209 16.2 33
  731.076 16 32
  731.3556 16 32
  731.6586 14 28
  732.5175 15.1 30
  733.255 17 34
  733.3493 18 36
  734.0202 13 26
  734.4219 16 32
  735.2844 14 28
  736.2824 15.8 32
  736.3707 17.8 36
  736.5189 17 34
  737.1119 21.9 44
  737.1832 14 28
  737.2323 15 30
  737.505 16 32
  737.7034 16.9 34
  738.0956 14 28
  738.2233 20 40
  738.6713 17.8 36
  739.3192 19 38
  739.4043 21 43
  740.1488 13.2 26
  740.1912 13 26
  740.5974 16 32
  740.6864 14.3 29
  740.9993 14 28
  741.2385 18.2 37
  741.2835 15.4 31
  741.6711 17.4 35
  742.2211 16 32
  742.2671 16.3 33
  742.3942 20 41
  742.5096 16.7 34
  742.6322 16.1 32
  743.2052 14 28
  744.284 13 26
  745.4657 15 30
  745.5144 16.7 34
  745.5788 16.7 34
  746.0486 13 26
  746.1388 12.4 25
  746.1943 17.2 35
  746.492 14.3 29
  747.0393 12.1 24
  747.2064 16.5 33
  747.272 18 36
  747.3782 13 26
  747.5595 19.9 40
  747.6395 14 28
  748.4306 14.3 29
  748.4688 13 26
  748.5257 14 28
  748.6234 13 26
  749.0985 14 28
  749.1416 15 30
  749.6818 14 28
  750.0348 13 26
  750.1213 17.1 35
  750.2652 18 36
  751.2897 20.7 42
  751.3136 20.2 41
  751.4437 15 30
  751.4856 15 30
  751.5481 16.7 34
  751.6916 12.1 24
  752.3889 14.3 29
  752.4665 14 28
  752.6929 19 38
  753.142 18 36
  753.2871 13.5 27
  753.3988 14.9 30
  753.4618 13 26
  753.4952 27 55
  754.0313 13.5 27
  754.1847 12 24
  754.2214 15 30
  754.6278 21.8 44
  755.2086 15.4 31
  755.3229 14 28
  756.1225 19.1 39
  756.1694 18.6 38
  756.2223 16 32
  756.4212 19 38
  756.6373 13.2 27
  756.6878 15.8 32
  757.4655 14 28
  757.6508 14.3 29
  758.1734 14.4 29
  758.2542 17.2 35
  758.3689 15.4 31
  758.4615 16 32
  759.3303 14 28
  759.5715 16 32
  760.0023 14 28
  760.0765 18.6 38
  760.2948 16.1 32
  761.1884 15.8 32
  761.3119 13 26
  761.4595 15 30
  761.6087 17.2 35
  762.4833 16.3 33
  762.5782 16.7 34
  763.3174 13 26
  763.6589 15 30
  764.0078 14 28
  764.5848 13.5 27
  765.1952 13 26
  765.3096 16 32
  765.3994 15.8 32
  766.2484 14.6 29
  766.283 14.3 29
  766.5203 14 28
  766.6538 14.9 30
  767.2077 14 28
  767.2631 15 30
  767.4109 12 24
  767.6826 15 30
  768.3836 14 28
  768.4814 16.2 33
  769.4367 16 32
  769.548 15 30
  769.6043 18.5 37
  770.065 15 30
  770.6142 15.8 32
  771.0624 15 30
  771.4137 16.1 32
  771.5077 17 34
  771.6167 14.1 28
  772.0844 14 28
  772.2613 14 28
  772.6009 15.1 30
  773.1278 14 28
  774.3261 15 30
  775.0072 19.8 40
  775.1308 19.1 39
  775.2761 16 32
  775.4176 14 28
  775.6765 13.2 26
  776.0915 15.1 30
  776.3063 12 24
  776.6756 16 32
  777.4125 14 28
  777.4516 13 26
  777.5582 13 26
  778.1148 14 28
  778.2012 12.1 24
  778.5073 15.4 31
  779.0402 16.2 33
  779.1095 13 26
  779.3259 15.1 30
  779.4268 15 30
  779.6256 15.2 31
  780.3916 16.2 33
  780.5048 12 24
  781.0428 16 32
  781.2477 15.8 32
  781.4638 12.4 25
  781.553 13.5 27
  781.6027 15 30
  782.2306 15 30
  782.4648 13.2 26
  783.3789 22.5 46
  784.1843 16 32
  784.2446 15.4 31
  784.3041 17.1 34
  784.4316 15.1 30
  784.5877 14 28
  784.6547 16 32
  785.5403 22.5 46
  787.3067 15.1 30
  787.3966 13.2 26
  788.3439 16.1 33
  790.3909 13 26
  792.137 14.1 28
  792.2579 16 32
  792.4213 18 36
  792.4746 13 26
  792.5598 15.1 30
  794.5569 18.6 38
  794.6253 15.8 32
  795.3484 18 36
  795.3794 16.2 33
  795.5283 16.1 32
  796.4103 17.1 35
  796.5552 15 30
  796.5991 17.4 35
  797.594 19.3 39
  798.5216 12 24
  799.3688 13 26
  799.437 14.9 30
  800.2758 18.2 37
  800.3364 17 34
  800.3776 13 26
  801.6473 14 28
  802.4916 12.4 25
  803.3424 16.1 32
  803.4791 12 24
  804.2347 19 38
  804.3607 18.2 37
  804.4305 15 30
  804.5179 14 28
  805.2309 13.2 26
  805.3334 17.7 36
  806.3633 16.7 34
  806.4682 16.9 34
  807.3547 15.1 30
  807.4666 16.2 33
  807.5557 14 28
  807.6608 16 32
  808.4092 17 34
  809.2522 13 26
  809.5056 17 34
  809.6453 14 28
  813.2898 16 32
  814.6116 15.1 30
  816.4434 15.1 30
  816.6021 25 51
  817.4255 17.7 36
  817.5715 14.9 30
  818.3558 14 28
  818.6286 16 32
  819.3432 17 34
  819.6442 25.5 52
  819.6796 14.9 30
  820.4559 16.5 33
  820.6879 16 32
  822.3796 14 28
  824.5268 17.7 36
  825.5753 15.1 30
  825.6707 15.1 30
  828.4262 12 24
  829.4191 15.4 31
  831.5169 17.8 36
  831.5876 14.3 29
  832.6464 32.1 65
  835.6469 18.9 38
  837.6218 16.7 34
  837.6836 16.2 33
  839.5837 18.6 38
  842.5461 18.6 38
  843.6705 12 24
  844.6542 14 28
  847.6472 83.7 171
  851.585 14 28
  858.6461 13 26
  861.6739 98.8 202
//
