ACCESSION: MSBNK-Antwerp_Univ-METOX_N106123_E2CE
RECORD_TITLE: 1-(9Z-octadecenoyl)-sn-glycero-3-phosphoethanolamine; LC-ESI-QTOF; MS2; CE: 10eV; R=7000; [M+NH4]+
DATE: 2022.04.07
AUTHORS: da Silva KM, Iturrospe E, van de Lavoir M, Robeyns R, University of Antwerp, Belgium
LICENSE: CC BY
COPYRIGHT: Copyright (c) 2021 by Toxicological Center, University of Antwerp, Wilrijk, Belgium
COMMENT: CONFIDENCE Standard compound
COMMENT: INTERNAL_ID 1061
CH$NAME: 1-(9Z-octadecenoyl)-sn-glycero-3-phosphoethanolamine
CH$NAME: [(2R)-3-[2-aminoethoxy(hydroxy)phosphoryl]oxy-2-hydroxypropyl] (Z)-octadec-9-enoate
CH$COMPOUND_CLASS: N/A; Metabolomics Standard
CH$FORMULA: C23H46NO7P
CH$EXACT_MASS: 479.3012
CH$SMILES: CCCCCCCC/C=C\CCCCCCCC(=O)OC[C@H](COP(=O)([O-])OCC[NH3+])O
CH$IUPAC: InChI=1S/C23H46NO7P/c1-2-3-4-5-6-7-8-9-10-11-12-13-14-15-16-17-23(26)29-20-22(25)21-31-32(27,28)30-19-18-24/h9-10,22,25H,2-8,11-21,24H2,1H3,(H,27,28)/b10-9-/t22-/m1/s1
CH$LINK: CHEBI CHEBI:74971
CH$LINK: LIPIDMAPS LMGP02050004
CH$LINK: PUBCHEM CID:9547071
CH$LINK: INCHIKEY PYVRVRFVLRNJLY-MZMPXXGTSA-N
CH$LINK: CHEMSPIDER 7826021
AC$INSTRUMENT: Agilent 6560 QTOF
AC$INSTRUMENT_TYPE: LC-ESI-QTOF
AC$MASS_SPECTROMETRY: MS_TYPE MS2
AC$MASS_SPECTROMETRY: ION_MODE POSITIVE
AC$MASS_SPECTROMETRY: IONIZATION ESI
AC$MASS_SPECTROMETRY: FRAGMENTATION_MODE CID
AC$MASS_SPECTROMETRY: COLLISION_ENERGY 10 eV
AC$MASS_SPECTROMETRY: RESOLUTION 7000
AC$MASS_SPECTROMETRY: MASS_RANGE_M/Z 153-498
AC$CHROMATOGRAPHY: COLUMN_NAME Direct injection
AC$CHROMATOGRAPHY: FLOW_GRADIENT 50/50 isocratic
AC$CHROMATOGRAPHY: FLOW_RATE 200 uL/min
AC$CHROMATOGRAPHY: RETENTION_TIME 0.268 min
AC$CHROMATOGRAPHY: SOLVENT A 30/70 acetonitrile/water with 2mM ammonium acetate + 0.1% acetic acid
AC$CHROMATOGRAPHY: SOLVENT B 88/10/2 isopropanol/acetonitrile/water with 2mM ammonium acetate + 0.1% acetic acid
MS$FOCUSED_ION: BASE_PEAK 256.9653
MS$FOCUSED_ION: PRECURSOR_M/Z 497.335
MS$FOCUSED_ION: PRECURSOR_TYPE [M+NH4]+
MS$FOCUSED_ION: PRECURSOR_INTENSITY 8130
MS$DATA_PROCESSING: RECALIBRATE loess on assigned fragments and MS1
MS$DATA_PROCESSING: REANALYZE Peaks with additional N2/O included
MS$DATA_PROCESSING: WHOLE RMassBank 3.5.2.1
PK$SPLASH: splash10-000i-0239400000-7d3bf4a7b7b5b630e412
PK$ANNOTATION: m/z tentative_formula formula_count mass error(ppm)
  153.0871 C4H13N2O4+ 3 153.087 0.68
  180.9785 C6H2N2O3P+ 3 180.9798 -7.01
  256.9649 C15NO2P+ 3 256.9661 -4.59
  285.2409 C10H38O6P+ 7 285.2401 3.14
  338.9656 C23O2P+ 4 338.963 7.42
  414.9533 C23N2O5P+ 1 414.9539 -1.47
  415.958 C23HN2O5P+ 1 415.9618 -8.99
  497.3451 C23H50N2O7P+ 1 497.335 20.29
PK$NUM_PEAK: 8
PK$PEAK: m/z int. rel.int.
  153.0871 85.4 97
  180.9785 112.3 128
  256.9649 305.7 349
  285.2409 48 54
  338.9656 873.8 999
  414.9533 113.7 130
  415.958 98.2 112
  497.3451 176.9 202
//
