ACCESSION: MSBNK-Antwerp_Univ-AN114130
RECORD_TITLE: 6-Hydroxy Monopropylheptylphthalate; LC-ESI-QTOF; MS2; CE: 30eV; R=7000; [M-H]-
DATE: 2021.08.05
AUTHORS: Belova L, Covaci A, University of Antwerp, Belgium; Caballero-Casero N, University of Cordoba, Spain.
LICENSE: CC BY
COPYRIGHT: Copyright (c) 2021 by Toxicological Center, University of Antwerp, Wilrijk, Belgium
COMMENT: CONFIDENCE Reference Standard (Level 1)
COMMENT: INTERNAL_ID 1141
COMMENT: HBM4EU - science and policy for a healthy future (https://www.hbm4eu.eu)
CH$NAME: 6-Hydroxy Monopropylheptylphthalate
CH$NAME: Monopropylheptylphthalate 6-Hydroxy
CH$NAME: 2-(6-hydroxy-2-propylheptoxy)carbonylbenzoic acid
CH$COMPOUND_CLASS: N/A; Environmental Standard
CH$FORMULA: C18H26O5
CH$EXACT_MASS: 322.1780
CH$SMILES: CCCC(CCCC(C)O)COC(=O)C1=CC=CC=C1C(=O)O
CH$IUPAC: InChI=1S/C18H26O5/c1-3-7-14(9-6-8-13(2)19)12-23-18(22)16-11-5-4-10-15(16)17(20)21/h4-5,10-11,13-14,19H,3,6-9,12H2,1-2H3,(H,20,21)
CH$LINK: PUBCHEM CID:131668311
CH$LINK: INCHIKEY KNDRVUYMYPIFIU-UHFFFAOYSA-N
CH$LINK: CHEMSPIDER 48062696
CH$LINK: COMPTOX DTXSID801009358
AC$INSTRUMENT: Agilent 6560 QTOF
AC$INSTRUMENT_TYPE: LC-ESI-QTOF
AC$MASS_SPECTROMETRY: MS_TYPE MS2
AC$MASS_SPECTROMETRY: ION_MODE NEGATIVE
AC$MASS_SPECTROMETRY: IONIZATION ESI
AC$MASS_SPECTROMETRY: FRAGMENTATION_MODE CID
AC$MASS_SPECTROMETRY: COLLISION_ENERGY 30 eV
AC$MASS_SPECTROMETRY: RESOLUTION 7000
AC$MASS_SPECTROMETRY: MASS_RANGE_M/Z 53-1495
AC$CHROMATOGRAPHY: COLUMN_NAME ZORBAX Extend-C18 3.5um, 2.1x50mm, Agilent Technologies
AC$CHROMATOGRAPHY: FLOW_GRADIENT 80/20 at 0 min, 80/20 at 0.5 min, 5/95 at 6 min, 5/95 at 7 min, 80/20 at 7.1 min, 80/20 at 10 min
AC$CHROMATOGRAPHY: FLOW_RATE 350 uL/min
AC$CHROMATOGRAPHY: RETENTION_TIME 4.248 min
MS$FOCUSED_ION: BASE_PEAK 321.1716
MS$FOCUSED_ION: PRECURSOR_M/Z 321.1707
MS$FOCUSED_ION: PRECURSOR_TYPE [M-H]-
MS$FOCUSED_ION: PRECURSOR_INTENSITY 46263.35
MS$DATA_PROCESSING: RECALIBRATE loess on assigned fragments and MS1
MS$DATA_PROCESSING: REANALYZE Peaks with additional N2/O included
MS$DATA_PROCESSING: WHOLE RMassBank 3.1.1
PK$SPLASH: splash10-00b9-9600000000-4a63d2714fd534d4d004
PK$ANNOTATION: m/z tentative_formula formula_count mass error(ppm)
  77.0402 C6H5- 1 77.0397 7.27
  103.0203 C7H3O- 1 103.0189 13.39
  119.0154 C7H3O2- 1 119.0139 12.89
  121.0297 C7H5O2- 1 121.0295 1.94
  127.1128 C8H15O- 1 127.1128 -0.7
  141.1268 C9H17O- 1 141.1285 -11.71
  147.0105 C8H3O3- 1 147.0088 11.54
  171.1387 C10H19O2- 1 171.1391 -2.36
PK$NUM_PEAK: 8
PK$PEAK: m/z int. rel.int.
  77.0402 21669.8 999
  103.0203 208 9
  119.0154 201.2 9
  121.0297 13210.7 609
  127.1128 1024.4 47
  141.1268 224.1 10
  147.0105 659.1 30
  171.1387 257.8 11
//
