ACCESSION: MSBNK-Antwerp_Univ-METOX_N105527_9CB7
RECORD_TITLE: Linoleic acid; LC-ESI-QTOF; MS2; CE: 10eV; R=7000; [M-H]-
DATE: 2022.04.09
AUTHORS: da Silva KM, Iturrospe E, van de Lavoir M, Robeyns R, University of Antwerp, Belgium
LICENSE: CC BY
COPYRIGHT: Copyright (c) 2021 by Toxicological Center, University of Antwerp, Wilrijk, Belgium
COMMENT: CONFIDENCE Standard compound
COMMENT: INTERNAL_ID 1055
CH$NAME: Linoleic acid
CH$NAME: (9Z,12Z)-octadeca-9,12-dienoic acid
CH$COMPOUND_CLASS: N/A; Metabolomics Standard
CH$FORMULA: C18H32O2
CH$EXACT_MASS: 280.2402
CH$SMILES: CCCCC\C=C/C\C=C/CCCCCCCC(O)=O
CH$IUPAC: InChI=1S/C18H32O2/c1-2-3-4-5-6-7-8-9-10-11-12-13-14-15-16-17-18(19)20/h6-7,9-10H,2-5,8,11-17H2,1H3,(H,19,20)/b7-6-,10-9-
CH$LINK: CAS 60-33-3
CH$LINK: CHEBI CHEBI:17351
CH$LINK: KEGG C01595
CH$LINK: LIPIDMAPS LMFA01030120
CH$LINK: PUBCHEM CID:5280450
CH$LINK: INCHIKEY OYHQOLUKZRVURQ-HZJYTTRNSA-N
CH$LINK: CHEMSPIDER 4444105
AC$INSTRUMENT: Agilent 6560 QTOF
AC$INSTRUMENT_TYPE: LC-ESI-QTOF
AC$MASS_SPECTROMETRY: MS_TYPE MS2
AC$MASS_SPECTROMETRY: ION_MODE NEGATIVE
AC$MASS_SPECTROMETRY: IONIZATION ESI
AC$MASS_SPECTROMETRY: FRAGMENTATION_MODE CID
AC$MASS_SPECTROMETRY: COLLISION_ENERGY 10 eV
AC$MASS_SPECTROMETRY: RESOLUTION 7000
AC$MASS_SPECTROMETRY: MASS_RANGE_M/Z 76-1644
AC$CHROMATOGRAPHY: COLUMN_NAME N/A
AC$CHROMATOGRAPHY: FLOW_GRADIENT 50/50 isocratic
AC$CHROMATOGRAPHY: FLOW_RATE 200 uL/min
AC$CHROMATOGRAPHY: RETENTION_TIME 0.191 min
AC$CHROMATOGRAPHY: SOLVENT A 30/70 acetonitrile/water with 2mM ammonium acetate
AC$CHROMATOGRAPHY: SOLVENT B 88/10/2 isopropanol/acetonitrile/water with 2mM ammonium acetate
MS$FOCUSED_ION: BASE_PEAK 357.1891
MS$FOCUSED_ION: PRECURSOR_M/Z 279.233
MS$FOCUSED_ION: PRECURSOR_TYPE [M-H]-
MS$FOCUSED_ION: PRECURSOR_INTENSITY 66989
MS$DATA_PROCESSING: RECALIBRATE loess on assigned fragments and MS1
MS$DATA_PROCESSING: REANALYZE Peaks with additional N2/O included
MS$DATA_PROCESSING: WHOLE RMassBank 3.5.2.1
PK$SPLASH: splash10-004i-0090000000-35e7b39370d6ff179ee7
PK$ANNOTATION: m/z tentative_formula formula_count mass error(ppm)
  217.1581 C15H21O- 1 217.1598 -7.81
  261.2237 C18H29O- 1 261.2224 5.12
  279.2316 C18H31O2- 1 279.233 -4.79
PK$NUM_PEAK: 3
PK$PEAK: m/z int. rel.int.
  217.1581 91.6 8
  261.2237 36.2 3
  279.2316 10681.8 999
//
