ACCESSION: MSBNK-Antwerp_Univ-METOX_N102411_1273
RECORD_TITLE: Cholesterol; LC-ESI-QTOF; MS2; CE: 20eV; R=7000; [M-H2O+H]+
DATE: 2022.04.08
AUTHORS: da Silva KM, Iturrospe E, van de Lavoir M, Robeyns R, University of Antwerp, Belgium
LICENSE: CC BY
COPYRIGHT: Copyright (c) 2021 by Toxicological Center, University of Antwerp, Wilrijk, Belgium
COMMENT: CONFIDENCE Standard compound
COMMENT: INTERNAL_ID 1024
CH$NAME: Cholesterol
CH$NAME: Cholest-5-en-3-ol
CH$NAME: 10,13-dimethyl-17-(6-methylheptan-2-yl)-2,3,4,7,8,9,11,12,14,15,16,17-dodecahydro-1H-cyclopenta[a]phenanthren-3-ol
CH$COMPOUND_CLASS: N/A; Metabolomics Standard
CH$FORMULA: C27H46O
CH$EXACT_MASS: 386.3549
CH$SMILES: CC(C)CCCC(C)C1CCC2C1(CCC3C2CC=C4C3(CCC(C4)O)C)C
CH$IUPAC: InChI=1S/C27H46O/c1-18(2)7-6-8-19(3)23-11-12-24-22-10-9-20-17-21(28)13-15-26(20,4)25(22)14-16-27(23,24)5/h9,18-19,21-25,28H,6-8,10-17H2,1-5H3
CH$LINK: CAS 57-88-5
CH$LINK: PUBCHEM CID:304
CH$LINK: INCHIKEY HVYWMOMLDIMFJA-UHFFFAOYSA-N
CH$LINK: CHEMSPIDER 298
AC$INSTRUMENT: Agilent 6560 QTOF
AC$INSTRUMENT_TYPE: LC-ESI-QTOF
AC$MASS_SPECTROMETRY: MS_TYPE MS2
AC$MASS_SPECTROMETRY: ION_MODE POSITIVE
AC$MASS_SPECTROMETRY: IONIZATION ESI
AC$MASS_SPECTROMETRY: FRAGMENTATION_MODE CID
AC$MASS_SPECTROMETRY: COLLISION_ENERGY 20 eV
AC$MASS_SPECTROMETRY: RESOLUTION 7000
AC$MASS_SPECTROMETRY: MASS_RANGE_M/Z 69-370
AC$CHROMATOGRAPHY: COLUMN_NAME Direct injection
AC$CHROMATOGRAPHY: FLOW_GRADIENT 50/50 isocratic
AC$CHROMATOGRAPHY: FLOW_RATE 200 uL/min
AC$CHROMATOGRAPHY: RETENTION_TIME 22.063 min
AC$CHROMATOGRAPHY: SOLVENT A 30/70 acetonitrile/water with 2mM ammonium acetate + 0.1% acetic acid
AC$CHROMATOGRAPHY: SOLVENT B 88/10/2 isopropanol/acetonitrile/water with 2mM ammonium acetate + 0.1% acetic acid
MS$FOCUSED_ION: BASE_PEAK 369.3541
MS$FOCUSED_ION: PRECURSOR_M/Z 369.3516
MS$FOCUSED_ION: PRECURSOR_TYPE [M-H2O+H]+
MS$FOCUSED_ION: PRECURSOR_INTENSITY 5735
MS$DATA_PROCESSING: RECALIBRATE loess on assigned fragments and MS1
MS$DATA_PROCESSING: REANALYZE Peaks with additional N2/O included
MS$DATA_PROCESSING: WHOLE RMassBank 3.5.2.1
PK$SPLASH: splash10-030s-5901000000-543be29898dadcd7b8d3
PK$ANNOTATION: m/z tentative_formula formula_count mass error(ppm)
  69.0696 C5H9+ 1 69.0699 -4.19
  81.0697 C6H9+ 1 81.0699 -2.28
  97.1009 C7H13+ 1 97.1012 -2.53
  107.0836 C8H11+ 1 107.0855 -17.81
  109.1011 C8H13+ 1 109.1012 -0.9
  121.1008 C9H13+ 1 121.1012 -2.75
  147.1169 C11H15+ 1 147.1168 0.78
  161.1323 C12H17+ 1 161.1325 -1.16
  273.2616 C20H33+ 1 273.2577 14.49
  369.3545 C27H45+ 1 369.3516 7.88
PK$NUM_PEAK: 10
PK$PEAK: m/z int. rel.int.
  69.0696 250.6 943
  81.0697 201.5 759
  97.1009 46.9 176
  107.0836 81.6 307
  109.1011 88.3 332
  121.1008 166.1 625
  147.1169 233.7 880
  161.1323 265.2 999
  273.2616 39.9 150
  369.3545 98.9 372
//
