ACCESSION: MSBNK-Antwerp_Univ-AN124901
RECORD_TITLE: 5,6-Dimethylbenzotriazole; LC-ESI-QTOF; MS2; CE: 5eV; R=7000; [M+H]+
DATE: 2021.08.12
AUTHORS: Belova L, Covaci A, University of Antwerp, Belgium; Caballero-Casero N, University of Cordoba, Spain.
LICENSE: CC BY
COPYRIGHT: Copyright (c) 2021 by Toxicological Center, University of Antwerp, Wilrijk, Belgium
COMMENT: CONFIDENCE Reference Standard (Level 1)
COMMENT: INTERNAL_ID 1249
COMMENT: HBM4EU - science and policy for a healthy future (https://www.hbm4eu.eu)
CH$NAME: 5,6-Dimethylbenzotriazole
CH$NAME: 5,6-Dimethyl-1H-benzotriazole
CH$NAME: 5,6-dimethyl-2H-benzotriazole
CH$COMPOUND_CLASS: N/A; Environmental Standard
CH$FORMULA: C8H9N3
CH$EXACT_MASS: 147.0796
CH$SMILES: CC1=CC2=NNN=C2C=C1C
CH$IUPAC: InChI=1S/C8H9N3/c1-5-3-7-8(4-6(5)2)10-11-9-7/h3-4H,1-2H3,(H,9,10,11)
CH$LINK: CAS 4184-79-6
CH$LINK: PUBCHEM CID:77849
CH$LINK: INCHIKEY MVPKIPGHRNIOPT-UHFFFAOYSA-N
CH$LINK: CHEMSPIDER 70242
CH$LINK: COMPTOX DTXSID70881186
AC$INSTRUMENT: Agilent 6560 QTOF
AC$INSTRUMENT_TYPE: LC-ESI-QTOF
AC$MASS_SPECTROMETRY: MS_TYPE MS2
AC$MASS_SPECTROMETRY: ION_MODE POSITIVE
AC$MASS_SPECTROMETRY: IONIZATION ESI
AC$MASS_SPECTROMETRY: FRAGMENTATION_MODE CID
AC$MASS_SPECTROMETRY: COLLISION_ENERGY 5 eV
AC$MASS_SPECTROMETRY: RESOLUTION 7000
AC$MASS_SPECTROMETRY: MASS_RANGE_M/Z 56-1308
AC$CHROMATOGRAPHY: FLOW_GRADIENT 50/50 isocratic
AC$CHROMATOGRAPHY: FLOW_RATE 200 uL/min
AC$CHROMATOGRAPHY: RETENTION_TIME 0.151 min
MS$FOCUSED_ION: BASE_PEAK 148.0868
MS$FOCUSED_ION: PRECURSOR_M/Z 148.0869
MS$FOCUSED_ION: PRECURSOR_TYPE [M+H]+
MS$FOCUSED_ION: PRECURSOR_INTENSITY 79146.01
MS$DATA_PROCESSING: RECALIBRATE loess on assigned fragments and MS1
MS$DATA_PROCESSING: REANALYZE Peaks with additional N2/O included
MS$DATA_PROCESSING: WHOLE RMassBank 3.1.1
PK$SPLASH: splash10-0002-0900000000-340aa38c64bee2d14c5f
PK$ANNOTATION: m/z tentative_formula formula_count mass error(ppm)
  77.0387 C6H5+ 1 77.0386 2.03
  80.0483 C5H6N+ 1 80.0495 -15.01
  91.0539 C7H7+ 1 91.0542 -3.69
  93.0699 C7H9+ 1 93.0699 0.39
  103.0544 C8H7+ 1 103.0542 2.02
  104.0479 C7H6N+ 1 104.0495 -15.46
  120.0804 C8H10N+ 1 120.0808 -2.93
  148.0868 C8H10N3+ 1 148.0869 -0.79
PK$NUM_PEAK: 8
PK$PEAK: m/z int. rel.int.
  77.0387 805 11
  80.0483 270.7 3
  91.0539 704.2 9
  93.0699 1146.8 16
  103.0544 437.2 6
  104.0479 226.2 3
  120.0804 1249.2 17
  148.0868 70971 999
//
