ACCESSION: MSBNK-Antwerp_Univ-METOX_N105327_9C9C
RECORD_TITLE: Cortisol; LC-ESI-QTOF; MS2; CE: 40eV; R=7000; [M-H]-
DATE: 2022.04.09
AUTHORS: da Silva KM, Iturrospe E, van de Lavoir M, Robeyns R, University of Antwerp, Belgium
LICENSE: CC BY
COPYRIGHT: Copyright (c) 2021 by Toxicological Center, University of Antwerp, Wilrijk, Belgium
COMMENT: CONFIDENCE Standard compound
COMMENT: INTERNAL_ID 1053
CH$NAME: Cortisol
CH$NAME: Hydrocortisone
CH$NAME: (8S,9S,10R,11S,13S,14S,17R)-11,17-dihydroxy-17-(2-hydroxyacetyl)-10,13-dimethyl-2,6,7,8,9,11,12,14,15,16-decahydro-1H-cyclopenta[a]phenanthren-3-one
CH$COMPOUND_CLASS: N/A; Metabolomics Standard
CH$FORMULA: C21H30O5
CH$EXACT_MASS: 362.2093
CH$SMILES: C[C@]12CCC(=O)C=C1CC[C@@H]3[C@@H]2[C@H](C[C@]4([C@H]3CC[C@@]4(C(=O)CO)O)C)O
CH$IUPAC: InChI=1S/C21H30O5/c1-19-7-5-13(23)9-12(19)3-4-14-15-6-8-21(26,17(25)11-22)20(15,2)10-16(24)18(14)19/h9,14-16,18,22,24,26H,3-8,10-11H2,1-2H3/t14-,15-,16-,18+,19-,20-,21-/m0/s1
CH$LINK: CAS 50-23-7
CH$LINK: CHEBI CHEBI:17650
CH$LINK: KEGG C00735
CH$LINK: LIPIDMAPS LMST02030001
CH$LINK: PUBCHEM CID:5754
CH$LINK: INCHIKEY JYGXADMDTFJGBT-VWUMJDOOSA-N
CH$LINK: CHEMSPIDER 5551
AC$INSTRUMENT: Agilent 6560 QTOF
AC$INSTRUMENT_TYPE: LC-ESI-QTOF
AC$MASS_SPECTROMETRY: MS_TYPE MS2
AC$MASS_SPECTROMETRY: ION_MODE NEGATIVE
AC$MASS_SPECTROMETRY: IONIZATION ESI
AC$MASS_SPECTROMETRY: FRAGMENTATION_MODE CID
AC$MASS_SPECTROMETRY: COLLISION_ENERGY 40 eV
AC$MASS_SPECTROMETRY: RESOLUTION 7000
AC$MASS_SPECTROMETRY: MASS_RANGE_M/Z 121-1624
AC$CHROMATOGRAPHY: COLUMN_NAME N/A
AC$CHROMATOGRAPHY: FLOW_GRADIENT 50/50 isocratic
AC$CHROMATOGRAPHY: FLOW_RATE 200 uL/min
AC$CHROMATOGRAPHY: RETENTION_TIME 0.240 min
AC$CHROMATOGRAPHY: SOLVENT A 30/70 acetonitrile/water with 2mM ammonium acetate
AC$CHROMATOGRAPHY: SOLVENT B 88/10/2 isopropanol/acetonitrile/water with 2mM ammonium acetate
MS$FOCUSED_ION: BASE_PEAK 421.2246
MS$FOCUSED_ION: PRECURSOR_M/Z 361.202
MS$FOCUSED_ION: PRECURSOR_TYPE [M-H]-
MS$FOCUSED_ION: PRECURSOR_INTENSITY 4424
MS$DATA_PROCESSING: RECALIBRATE loess on assigned fragments and MS1
MS$DATA_PROCESSING: REANALYZE Peaks with additional N2/O included
MS$DATA_PROCESSING: WHOLE RMassBank 3.5.2.1
PK$SPLASH: splash10-01c0-0390000000-4ad22d52f2b344fc2bf9
PK$ANNOTATION: m/z tentative_formula formula_count mass error(ppm)
  121.0295 C7H5O2- 1 121.0295 0.08
  171.0816 C12H11O- 1 171.0815 0.11
  253.0111 C21H- 2 253.0084 10.66
  265.119 C18H17O2- 1 265.1234 -16.44
  267.1412 C18H19O2- 1 267.1391 8.13
  282.1267 C18H18O3- 1 282.1261 2.08
PK$NUM_PEAK: 6
PK$PEAK: m/z int. rel.int.
  121.0295 115 570
  171.0816 55.1 272
  253.0111 30.8 152
  265.119 201.6 999
  267.1412 56 277
  282.1267 151.6 751
//
