ACCESSION: MSBNK-Antwerp_Univ-AN111506
RECORD_TITLE: Butyryl trihexyl citrate; LC-ESI-QTOF; MS2; CE: 30eV; R=7000; [M+H]+
DATE: 2021.08.02
AUTHORS: Belova L, Covaci A, University of Antwerp, Belgium; Caballero-Casero N, University of Cordoba, Spain.
LICENSE: CC BY
COPYRIGHT: Copyright (c) 2021 by Toxicological Center, University of Antwerp, Wilrijk, Belgium
COMMENT: CONFIDENCE Reference Standard (Level 1)
COMMENT: INTERNAL_ID 1115
COMMENT: HBM4EU - science and policy for a healthy future (https://www.hbm4eu.eu)
CH$NAME: Butyryl trihexyl citrate
CH$NAME: trihexyl 2-butanoyloxypropane-1,2,3-tricarboxylate
CH$COMPOUND_CLASS: N/A; Environmental Standard
CH$FORMULA: C28H50O8
CH$EXACT_MASS: 514.3506
CH$SMILES: CCCCCCOC(=O)CC(CC(=O)OCCCCCC)(C(=O)OCCCCCC)OC(=O)CCC
CH$IUPAC: InChI=1S/C28H50O8/c1-5-9-12-15-19-33-25(30)22-28(36-24(29)18-8-4,27(32)35-21-17-14-11-7-3)23-26(31)34-20-16-13-10-6-2/h5-23H2,1-4H3
CH$LINK: CAS 82469-79-2
CH$LINK: PUBCHEM CID:133914
CH$LINK: INCHIKEY GWVUTNGDMGTPFE-UHFFFAOYSA-N
CH$LINK: CHEMSPIDER 118086
CH$LINK: COMPTOX DTXSID0047535
AC$INSTRUMENT: Agilent 6560 QTOF
AC$INSTRUMENT_TYPE: LC-ESI-QTOF
AC$MASS_SPECTROMETRY: MS_TYPE MS2
AC$MASS_SPECTROMETRY: ION_MODE POSITIVE
AC$MASS_SPECTROMETRY: IONIZATION ESI
AC$MASS_SPECTROMETRY: FRAGMENTATION_MODE CID
AC$MASS_SPECTROMETRY: COLLISION_ENERGY 30 eV
AC$MASS_SPECTROMETRY: RESOLUTION 7000
AC$MASS_SPECTROMETRY: MASS_RANGE_M/Z 57-1440
AC$CHROMATOGRAPHY: FLOW_GRADIENT 50/50 isocratic
AC$CHROMATOGRAPHY: FLOW_RATE 200 uL/min
AC$CHROMATOGRAPHY: RETENTION_TIME 0.108 min
MS$FOCUSED_ION: BASE_PEAK 537.3395
MS$FOCUSED_ION: PRECURSOR_M/Z 515.3578
MS$FOCUSED_ION: PRECURSOR_TYPE [M+H]+
MS$FOCUSED_ION: PRECURSOR_INTENSITY 63471.83
MS$DATA_PROCESSING: RECALIBRATE loess on assigned fragments and MS1
MS$DATA_PROCESSING: REANALYZE Peaks with additional N2/O included
MS$DATA_PROCESSING: WHOLE RMassBank 3.1.1
PK$SPLASH: splash10-004r-4900000000-cf0fe478fbc255ab899c
PK$ANNOTATION: m/z tentative_formula formula_count mass error(ppm)
  57.0702 C4H9+ 1 57.0699 5.1
  61.0271 C2H5O2+ 1 61.0284 -20.93
  68.9972 C3HO2+ 1 68.9971 1.54
  71.0493 C4H7O+ 1 71.0491 2.85
  85.0276 C4H5O2+ 1 85.0284 -9.9
  85.1019 C6H13+ 1 85.1012 8.48
  89.0596 C4H9O2+ 1 89.0597 -1.72
  111.0078 C5H3O3+ 1 111.0077 1.27
  129.0184 C5H5O4+ 1 129.0182 1.33
  139.0027 C6H3O4+ 1 139.0026 0.58
  157.0112 C6H5O5+ 2 157.0131 -12.43
  213.1118 C11H17O4+ 1 213.1121 -1.68
PK$NUM_PEAK: 12
PK$PEAK: m/z int. rel.int.
  57.0702 1984 86
  61.0271 279 12
  68.9972 1287.2 55
  71.0493 6713.2 291
  85.0276 215 9
  85.1019 3201 138
  89.0596 4053.4 175
  111.0078 5668 246
  129.0184 23010.1 999
  139.0027 9580.8 415
  157.0112 595.9 25
  213.1118 1567.2 68
//
