ACCESSION: MSBNK-Antwerp_Univ-METOX_N103341_C0B4
RECORD_TITLE: Cortisone; LC-ESI-QTOF; MS2; CE: 40eV; R=7000; [M+Cl]-
DATE: 2022.04.09
AUTHORS: da Silva KM, Iturrospe E, van de Lavoir M, Robeyns R, University of Antwerp, Belgium
LICENSE: CC BY
COPYRIGHT: Copyright (c) 2021 by Toxicological Center, University of Antwerp, Wilrijk, Belgium
COMMENT: CONFIDENCE Standard compound
COMMENT: INTERNAL_ID 1033
CH$NAME: Cortisone
CH$NAME: (8S,9S,10R,13S,14S,17R)-17-hydroxy-17-(2-hydroxyacetyl)-10,13-dimethyl-1,2,6,7,8,9,12,14,15,16-decahydrocyclopenta[a]phenanthrene-3,11-dione
CH$COMPOUND_CLASS: N/A; Metabolomics Standard
CH$FORMULA: C21H28O5
CH$EXACT_MASS: 360.1937
CH$SMILES: C[C@]12CCC(=O)C=C1CC[C@@H]3[C@@H]2C(=O)C[C@]4([C@H]3CC[C@@]4(C(=O)CO)O)C
CH$IUPAC: InChI=1S/C21H28O5/c1-19-7-5-13(23)9-12(19)3-4-14-15-6-8-21(26,17(25)11-22)20(15,2)10-16(24)18(14)19/h9,14-15,18,22,26H,3-8,10-11H2,1-2H3/t14-,15-,18+,19-,20-,21-/m0/s1
CH$LINK: CAS 53-06-5
CH$LINK: CHEBI 16962
CH$LINK: KEGG D07749
CH$LINK: LIPIDMAPS LMST02030090
CH$LINK: PUBCHEM CID:222786
CH$LINK: INCHIKEY MFYSYFVPBJMHGN-ZPOLXVRWSA-N
CH$LINK: CHEMSPIDER 193441
AC$INSTRUMENT: Agilent 6560 QTOF
AC$INSTRUMENT_TYPE: LC-ESI-QTOF
AC$MASS_SPECTROMETRY: MS_TYPE MS2
AC$MASS_SPECTROMETRY: ION_MODE NEGATIVE
AC$MASS_SPECTROMETRY: IONIZATION ESI
AC$MASS_SPECTROMETRY: FRAGMENTATION_MODE CID
AC$MASS_SPECTROMETRY: COLLISION_ENERGY 40 eV
AC$MASS_SPECTROMETRY: RESOLUTION 7000
AC$MASS_SPECTROMETRY: MASS_RANGE_M/Z 70-1700
AC$CHROMATOGRAPHY: COLUMN_NAME N/A
AC$CHROMATOGRAPHY: FLOW_GRADIENT 50/50 isocratic
AC$CHROMATOGRAPHY: FLOW_RATE 200 uL/min
AC$CHROMATOGRAPHY: RETENTION_TIME 0.168 min
AC$CHROMATOGRAPHY: SOLVENT A 30/70 acetonitrile/water with 2mM ammonium acetate
AC$CHROMATOGRAPHY: SOLVENT B 88/10/2 isopropanol/acetonitrile/water with 2mM ammonium acetate
MS$FOCUSED_ION: BASE_PEAK 327.1607
MS$FOCUSED_ION: PRECURSOR_M/Z 395.1631
MS$FOCUSED_ION: PRECURSOR_TYPE [M+Cl]-
MS$FOCUSED_ION: PRECURSOR_INTENSITY 616075
MS$DATA_PROCESSING: RECALIBRATE loess on assigned fragments and MS1
MS$DATA_PROCESSING: REANALYZE Peaks with additional N2/O included
MS$DATA_PROCESSING: WHOLE RMassBank 3.5.2.1
PK$SPLASH: splash10-0019-1963000000-074c8e0b32baca7c2648
PK$ANNOTATION: m/z tentative_formula formula_count mass error(ppm)
  70.0068 C3H2O2- 1 70.006 10.63
  77.0818 H13O4- 1 77.0819 -1.23
  80.0841 C3H12O2- 1 80.0843 -2.06
  82.1929 C2H26O2- 1 82.1938 -11.3
  86.0516 C2H11ClO- 1 86.0504 14.03
  87.2139 C5H27- 1 87.2118 23.95
  89.0229 C3H5O3- 1 89.0244 -16.66
  89.0395 C7H5- 2 89.0397 -1.45
  90.0827 C2H15ClO- 1 90.0817 11.51
  91.1356 C2H19O3- 1 91.134 17.91
  92.0053 C3H5ClO- 1 92.0034 20.03
  93.1403 C3H22Cl- 1 93.1416 -13.56
  94.9909 C2H4ClO2- 1 94.9905 3.57
  95.123 C2H20ClO- 1 95.1208 23.31
  95.9642 CHClO3- 1 95.962 22.95
  97.044 C3H10ClO- 1 97.0426 14.64
  99.1049 C3H15O3- 1 99.1027 22.93
  100.1336 H20O5- 1 100.1316 19.26
  102.0452 C2H11ClO2- 2 102.0453 -1.24
  102.1033 ClH19O3- 2 102.1028 4.26
  102.1847 CH26O4- 1 102.1837 10.33
  103.0752 C5H11O2- 1 103.0765 -12.35
  103.1479 CH24ClO2- 2 103.147 8.65
  105.1152 C2H17O4- 1 105.1132 19.11
  108.1939 H28O5- 1 108.1942 -3.03
  111.1207 C8H15- 1 111.1179 24.98
  111.9777 C4O4- 1 111.9802 -22.65
  112.11 C4H16O3- 1 112.1105 -4.6
  112.2209 C7H28- 1 112.2196 10.81
  112.9855 C4HO4- 1 112.988 -22.27
  114.1731 C3H27ClO- 1 114.1756 -22
  114.9952 C5H4ClO- 1 114.9956 -3.58
  115.0791 C6H11O2- 1 115.0765 22.82
  115.0915 C4H16ClO- 1 115.0895 17.21
  116.0043 C5H5ClO- 1 116.0034 7.21
  116.0664 C2H12O5- 1 116.069 -22.25
  116.082 ClH17O4- 2 116.0821 -0.81
  116.1779 C5H24O2- 1 116.1782 -2.63
  117.0477 C6H10Cl- 1 117.0477 0.04
  117.9681 ClH3O5- 1 117.9674 5.55
  119.1036 ClH20O4- 1 119.1056 -16.5
  119.1635 C4H23O3- 1 119.1653 -14.92
  121.029 C7H5O2- 2 121.0295 -4.26
  122.0513 C5H11ClO- 1 122.0504 7.38
  122.0742 C8H10O- 2 122.0737 3.72
  125.0759 C5H14ClO- 1 125.0739 16.24
  125.139 C2H21O5- 1 125.1394 -3.3
  126.9935 C6H4ClO- 1 126.9956 -16.87
  127.186 C4H28ClO- 1 127.1834 20.4
  129.1509 C5H21O3- 1 129.1496 9.63
  131.0476 C3H12ClO3- 2 131.048 -3.47
  131.0833 C4H16ClO2- 1 131.0844 -8.41
  131.9756 C8HCl- 1 131.9772 -12.5
  132.0344 C6H9ClO- 1 132.0347 -2.65
  132.0711 C7H13Cl- 1 132.0711 -0.55
  132.1519 C8H20O- 2 132.152 -0.18
  133.1398 C5H22ClO- 1 133.1365 24.96
  134.1303 C7H18O2- 2 134.1312 -7.2
  135.0475 C8H7O2- 1 135.0452 17.64
  135.2112 C9H27- 1 135.2118 -4.57
  136.0354 C4H8O5- 1 136.0377 -17.14
  136.0492 C2H13ClO4- 1 136.0508 -11.56
  137.0604 C8H9O2- 2 137.0608 -3.06
  137.0834 C5H13O4- 1 137.0819 10.79
  137.1699 C5H26ClO- 1 137.1678 15.24
  138.0082 C4H7ClO3- 2 138.0089 -5.12
  138.0674 C2H15ClO4- 2 138.0664 7.2
  138.136 C4H23ClO2- 1 138.1392 -22.92
  138.1956 C8H26O- 1 138.1989 -24.01
  139.043 C7H7O3- 1 139.0401 20.95
  139.1466 C4H24ClO2- 2 139.147 -3.39
  140.1417 C6H20O3- 2 140.1418 -0.92
  141.1523 C6H21O3- 1 141.1496 19.24
  143.0847 C5H16ClO2- 2 143.0844 1.59
  144.0912 C5H17ClO2- 2 144.0923 -7.59
  145.067 C10H9O- 2 145.0659 7.62
  147.0469 C9H7O2- 1 147.0452 11.55
  147.099 CH20ClO5- 1 147.1005 -10.3
  148.0841 C4H17ClO3- 1 148.0872 -20.72
  149.9868 C8H3ClO- 1 149.9878 -6.74
  152.1232 C10H16O- 1 152.1207 16.74
  153.0893 C3H18ClO4- 2 153.0899 -4.24
  153.1529 C7H21O3- 1 153.1496 21.16
  157.1789 C7H25O3- 1 157.1809 -13.09
  158.0539 C8H11ClO- 1 158.0504 22.26
  158.15 C6H22O4- 1 158.1524 -15.16
  158.9655 C9ClO- 1 158.9643 7.4
  159.1847 C8H28Cl- 1 159.1885 -24.2
  161.1782 C6H25O4- 1 161.1758 14.72
  162.0659 C4H15ClO4- 2 162.0664 -3.23
  165.0512 C3H14ClO5- 2 165.0535 -14
  167.9821 C4H5ClO5- 2 167.9831 -6.11
  168.1361 C7H20O4- 1 168.1367 -3.84
  169.154 C5H26ClO3- 1 169.1576 -20.98
  170.0187 C14H2- 2 170.0162 14.83
  170.1328 C10H18O2- 2 170.1312 9.34
  171.1734 C5H28ClO3- 2 171.1732 0.61
  172.0202 C10H4O3- 1 172.0166 21.14
  172.1058 C3H21ClO5- 2 172.1083 -14.32
  174.104 C12H14O- 2 174.105 -5.56
  174.9978 C10H4ClO- 1 174.9956 12.27
  175.0315 C11H8Cl- 1 175.032 -2.77
  175.1463 C7H24ClO2- 2 175.147 -4.34
  177.0025 C12HO2- 1 176.9982 24.4
  179.1185 C9H20ClO- 1 179.1208 -12.77
  179.9734 C12HCl- 1 179.9772 -21.08
  180.0023 C15- 3 180.0005 9.59
  182.077 C13H10O- 1 182.0737 18.27
  183.0103 C11H3O3- 2 183.0088 8.38
  183.0829 C13H11O- 2 183.0815 7.25
  184.0633 C10H13ClO- 1 184.066 -14.71
  184.1311 C7H20O5- 1 184.1316 -3.03
  186.1755 C9H27ClO- 1 186.1756 -0.42
  188.0369 C12H9Cl- 1 188.0398 -15.51
  188.962 C6H2ClO5- 1 188.9596 12.48
  189.1451 C4H26ClO5- 3 189.1474 -12.43
  190.017 C11H7ClO- 1 190.0191 -11.09
  190.1152 C10H19ClO- 1 190.113 11.82
  190.1478 C11H23Cl- 1 190.1494 -8.44
  192.0309 C11H9ClO- 1 192.0347 -19.93
  192.1455 C7H25ClO3- 1 192.1498 -22.13
  193.1052 C8H17O5- 2 193.1081 -15.19
  195.1138 C9H20ClO2- 2 195.1157 -10.02
  198.0444 C10H11ClO2- 2 198.0453 -4.55
  198.1495 C8H22O5- 1 198.1473 11.47
  199.1735 C12H23O2- 1 199.1704 15.88
  201.9791 C11H3ClO2- 1 201.9827 -17.87
  202.0447 C15H6O- 2 202.0424 11.09
  203.1332 C10H19O4- 1 203.1289 21.06
  204.0428 C11H8O4- 1 204.0428 -0.04
  204.0805 C12H12O3- 2 204.0792 6.58
  204.1781 C11H24O3- 1 204.1731 24.47
  205.0662 C15H9O- 2 205.0659 1.75
  205.0901 C12H13O3- 1 205.087 15.18
  205.1117 C9H17O5- 1 205.1081 17.22
  208.0293 C11H9ClO2- 2 208.0297 -1.92
  208.1864 C14H24O- 1 208.1833 14.95
  209.1232 C12H17O3- 1 209.1183 23.3
  209.1774 C10H25O4- 1 209.1758 7.59
  210.0472 C17H6- 2 210.0475 -1.36
  211.0532 C11H12ClO2- 2 211.0531 0.38
  212.0493 C13H8O3- 2 212.0479 6.59
  214.0514 C14H11Cl- 1 214.0555 -19.08
  214.0982 C8H19ClO4- 2 214.0977 2.37
  215.1575 C13H24Cl- 1 215.1572 1.25
  215.9794 C15HCl- 2 215.9772 10.15
  216.0421 C12H8O4- 1 216.0428 -3.38
  217.1059 C10H17O5- 2 217.1081 -10.27
  218.0139 C12H7ClO2- 2 218.014 -0.63
  219.1353 C8H24ClO4- 2 219.1369 -6.99
  220.0535 C15H8O2- 2 220.053 2.46
  220.9799 C14H2ClO- 1 220.98 -0.11
  221.0204 C8H10ClO5- 3 221.0222 -8.21
  222.0835 C13H15ClO- 1 222.0817 8.33
  222.1223 C7H23ClO5- 3 222.124 -7.33
  222.1775 C12H27ClO- 1 222.1756 8.47
  224.1321 C14H21Cl- 1 224.1337 -7.13
  224.9955 C10H6ClO4- 2 224.996 -2.07
  226.971 C16Cl- 2 226.9694 7.24
  227.0075 C10H8ClO4- 1 227.0117 -18.46
  227.9734 C16HCl- 1 227.9772 -16.69
  228.1332 C12H20O4- 2 228.1367 -15.26
  229.0669 C17H9O- 2 229.0659 4.52
  229.1129 C11H17O5- 1 229.1081 20.88
  230.0372 C16H6O2- 2 230.0373 -0.6
  231.0337 C12H7O5- 1 231.0299 16.37
  233.0868 C13H13O4- 1 233.0819 20.69
  234.0531 C12H10O5- 2 234.0534 -1.2
  236.0153 C14H4O4- 1 236.0115 16.19
  237.0481 C16H10Cl- 2 237.0477 1.91
  237.0974 C16H13O2- 1 237.0921 22.51
  237.1434 C15H22Cl- 2 237.1416 7.8
  239.0724 C15H11O3- 2 239.0714 4.27
  240.1491 C11H25ClO3- 2 240.1498 -2.91
  240.2145 C15H28O2- 1 240.2095 20.81
  243.1692 C11H28ClO3- 1 243.1732 -16.58
  243.1955 C14H27O3- 1 243.1966 -4.24
  244.087 C12H17ClO3- 2 244.0872 -0.75
  244.222 C18H28- 1 244.2196 9.49
  246.9444 C11ClO5- 1 246.944 1.81
  248.0228 C13H9ClO3- 2 248.0246 -6.98
  248.0496 C16H8O3- 2 248.0479 6.93
  249.1832 C16H25O2- 1 249.186 -11.23
  250.1962 C16H26O2- 1 250.1938 9.34
  250.9776 C11H4ClO5- 1 250.9753 9.1
  252.0301 C16H9ClO- 1 252.0347 -18.33
  254.0684 C13H15ClO3- 2 254.0715 -12.47
  254.2095 C19H26- 1 254.204 21.48
  254.9476 C13ClO4- 1 254.9491 -5.91
  255.0428 C12H12ClO4- 2 255.043 -0.57
  255.1966 C15H27O3- 1 255.1966 0.29
  256.0004 C20O- 1 255.9955 19.34
  256.0388 C14H8O5- 1 256.0377 4.23
  256.0688 C16H13ClO- 2 256.066 10.89
  259.069 C12H16ClO4- 1 259.0743 -20.15
  259.1373 C16H19O3- 2 259.134 13.03
  259.9755 C15O5- 1 259.9751 1.28
  260.0687 C14H12O5- 2 260.069 -1.37
  262.1982 C17H26O2- 1 262.1938 16.78
  264.0378 C17H9ClO- 2 264.0347 11.66
  264.1057 C14H16O5- 1 264.1003 20.49
  264.9678 C15H2ClO3- 1 264.9698 -7.44
  266.0626 C16H10O4- 1 266.0585 15.46
  267.0076 C12H8ClO5- 2 267.0066 3.98
  267.0976 C11H20ClO5- 3 267.1005 -10.85
  268.064 C17H13ClO- 1 268.066 -7.6
  268.1381 C14H20O5- 2 268.1316 24.32
  269.1404 C14H21O5- 1 269.1394 3.69
  270.9503 C13ClO5- 1 270.944 23.28
  271.032 C19H8Cl- 2 271.032 0.17
  271.1717 C18H23O2- 2 271.1704 5.03
  271.9733 C16O5- 2 271.9751 -6.56
  273.0268 C15H10ClO3- 1 273.0324 -20.46
  274.9955 C16H3O5- 2 274.9986 -11.21
  275.9956 C17H5ClO2- 1 275.9984 -9.92
  277.1907 C21H25- 1 277.1962 -19.69
  277.9985 C13H7ClO5- 3 277.9987 -0.83
  278.1048 C16H19ClO2- 1 278.1079 -11.04
  279.1861 C18H28Cl- 1 279.1885 -8.74
  281.0818 C17H13O4- 1 281.0819 -0.5
  282.0323 C19H6O3- 2 282.0322 0.27
  282.0726 C20H10O2- 2 282.0686 14.21
  283.9932 C21O2- 2 283.9904 10.07
  284.1815 C19H24O2- 1 284.1782 11.74
  284.9942 C15H6ClO4- 2 284.996 -6.35
  285.0411 C20H10Cl- 1 285.0477 -22.84
  285.1864 C19H25O2- 1 285.186 1.55
  285.9697 C14H3ClO5- 1 285.9674 7.78
  286.0298 C18H6O4- 1 286.0272 9.33
  287.0493 C16H12ClO3- 1 287.048 4.42
  288.003 C17H4O5- 2 288.0064 -12.04
  288.1434 C15H25ClO3- 2 288.1498 -22.28
  288.2042 C19H28O2- 1 288.2095 -18.42
  288.986 C21H2Cl- 3 288.9851 3.32
  290.0197 C17H6O5- 2 290.0221 -8.21
  290.0516 C19H11ClO- 2 290.0504 4.32
  293.0677 C19H14ClO- 2 293.0739 -20.96
  293.1374 C16H21O5- 2 293.1394 -7.1
  294.104 C16H19ClO3- 1 294.1028 4.05
  294.1774 C18H27ClO- 2 294.1756 6.18
  295.0393 C20H7O3- 3 295.0401 -2.5
  295.1869 C18H28ClO- 2 295.1834 11.64
  296.1272 C20H21Cl- 1 296.1337 -22.03
  297.165 C17H26ClO2- 2 297.1627 7.85
  298.0395 C17H11ClO3- 1 298.0402 -2.25
  298.1494 C20H23Cl- 2 298.1494 0.19
  299.1448 C16H24ClO3- 1 299.1419 9.59
  300.0021 C19H5ClO2- 2 299.9984 12.53
  300.0714 C21H13Cl- 2 300.0711 1.03
  300.1065 C17H16O5- 2 300.1003 20.45
  301.9951 C15H7ClO5- 2 301.9987 -11.92
  304.0329 C19H9ClO2- 2 304.0297 10.66
  307.0004 C20H3O4- 2 307.0037 -10.74
  308.1207 C17H21ClO3- 1 308.1185 7.38
  308.2002 C18H28O4- 1 308.1993 2.82
  310.1216 C19H18O4- 1 310.1211 1.83
  310.9852 C20H4ClO2- 1 310.9905 -17.16
  311.1287 C19H19O4- 1 311.1289 -0.46
  311.1521 C21H24Cl- 1 311.1572 -16.29
  311.1876 C17H27O5- 1 311.1864 3.94
  312.1529 C17H25ClO3- 1 312.1498 9.89
  312.191 C17H28O5- 1 312.1942 -10.43
  314.1069 C19H19ClO2- 1 314.1079 -3.19
  315.0012 C16H8ClO5- 1 315.0066 -17.12
  315.0827 C18H16ClO3- 1 315.0793 10.78
  315.1477 C20H24ClO- 1 315.1521 -13.92
  316.0658 C21H13ClO- 1 316.066 -0.63
  319.0842 C21H16ClO- 1 319.0895 -16.65
  320.0762 C17H17ClO4- 2 320.0821 -18.25
  321.0133 C21H5O4- 1 321.0193 -18.66
  321.9709 C17H3ClO5- 1 321.9674 10.79
  322.1504 C15H27ClO5- 2 322.1553 -15.11
  325.1362 C21H22ClO- 1 325.1365 -0.71
  326.1446 C21H23ClO- 2 326.1443 0.99
  329.0742 C21H13O4- 1 329.0819 -23.61
  330.0123 C20H7ClO3- 1 330.0089 10.18
  332.0666 C20H12O5- 2 332.069 -7.38
  332.1566 C20H25ClO2- 2 332.1549 5.35
  332.9673 C18H2ClO5- 1 332.9596 23.06
  334.0991 C18H19ClO4- 1 334.0977 4.06
  335.0713 C17H16ClO5- 1 335.0692 6.47
  335.1449 C19H24ClO3- 1 335.1419 8.86
  336.1285 C21H20O4- 1 336.1367 -24.39
  337.1276 C18H22ClO4- 1 337.1212 19.02
  339.005 C18H8ClO5- 1 339.0066 -4.54
  340.0935 C20H17ClO3- 1 340.0872 18.73
  341.1415 C20H21O5- 1 341.1394 6.02
  342.0677 C19H15ClO4- 1 342.0664 3.61
  342.1299 C17H23ClO5- 1 342.124 17.48
  342.1786 C21H26O4- 1 342.1837 -14.86
  343.9797 C20H5ClO4- 1 343.9882 -24.77
  344.0216 C21H9ClO3- 1 344.0246 -8.64
  344.1436 C17H25ClO5- 1 344.1396 11.55
  345.974 C19H3ClO5- 1 345.9674 19.06
  347.0777 C18H16ClO5- 1 347.0692 24.64
  347.1107 C19H20ClO4- 1 347.1056 14.76
  349.0839 C18H18ClO5- 1 349.0848 -2.55
  355.9846 C21H5ClO4- 1 355.9882 -10.17
  360.0188 C21H9ClO4- 1 360.0195 -1.93
  361.1275 C20H22ClO4- 1 361.1212 17.4
  364.1081 C19H21ClO5- 1 364.1083 -0.63
  364.149 C20H25ClO4- 1 364.1447 11.74
  367.9553 C21HClO5- 1 367.9518 9.41
  373.9986 C21H7ClO5- 1 373.9987 -0.37
  379.0319 C21H12ClO5- 1 379.0379 -15.83
PK$NUM_PEAK: 305
PK$PEAK: m/z int. rel.int.
  70.0068 15.1 50
  77.0818 14 47
  80.0841 15.2 51
  82.1929 18.9 63
  86.0516 14 46
  87.2139 12.4 41
  89.0229 111.8 375
  89.0395 21.6 72
  90.0827 15.1 50
  91.1356 12.4 41
  92.0053 13 43
  93.1403 18 60
  94.9909 19 63
  95.123 20.6 69
  95.9642 14 47
  97.044 12.1 40
  99.1049 13.1 44
  100.1336 14.6 49
  102.0452 13 43
  102.1033 17.7 59
  102.1847 15.8 53
  103.0752 15 50
  103.1479 13 43
  105.1152 14 46
  108.1939 12 40
  111.1207 13.2 44
  111.9777 14 46
  112.11 16 53
  112.2209 14 46
  112.9855 16.7 56
  114.1731 13.2 44
  114.9952 17 57
  115.0791 14 46
  115.0915 14 47
  116.0043 16 53
  116.0664 18.8 62
  116.082 15 50
  116.1779 13 43
  117.0477 13 43
  117.9681 18 60
  119.1036 16 53
  119.1635 15.1 50
  121.029 12 40
  122.0513 15 50
  122.0742 17 57
  125.0759 17 57
  125.139 19.7 66
  126.9935 17.1 57
  127.186 15.4 51
  129.1509 14.1 47
  131.0476 112.9 379
  131.0833 19.8 66
  131.9756 18 60
  132.0344 16 53
  132.0711 19.8 66
  132.1519 13.2 44
  133.1398 14 47
  134.1303 14.2 47
  135.0475 16.7 56
  135.2112 15.1 50
  136.0354 15.4 51
  136.0492 113.7 381
  137.0604 264.9 889
  137.0834 55.1 184
  137.1699 14 46
  138.0082 14 47
  138.0674 206.4 692
  138.136 20.2 67
  138.1956 22 73
  139.043 19.6 65
  139.1466 17.3 58
  140.1417 19.1 64
  141.1523 13 43
  143.0847 13 43
  144.0912 18 60
  145.067 14 47
  147.0469 15.4 51
  147.099 13.2 44
  148.0841 13 43
  149.9868 17.8 59
  152.1232 14 47
  153.0893 15 50
  153.1529 16.9 56
  157.1789 14 46
  158.0539 18.8 62
  158.15 17.8 59
  158.9655 16 53
  159.1847 14 47
  161.1782 13 43
  162.0659 15 50
  165.0512 15.8 53
  167.9821 17.2 57
  168.1361 12 40
  169.154 19.2 64
  170.0187 14.9 49
  170.1328 19.8 66
  171.1734 14 46
  172.0202 13 43
  172.1058 16.9 56
  174.104 17.8 59
  174.9978 15 50
  175.0315 15.1 50
  175.1463 14.6 49
  177.0025 14 46
  179.1185 18.2 61
  179.9734 17 57
  180.0023 13 43
  182.077 17 57
  183.0103 297.6 999
  183.0829 27.4 92
  184.0633 13 43
  184.1311 17 57
  186.1755 12 40
  188.0369 15 50
  188.962 14 46
  189.1451 13 43
  190.017 13.2 44
  190.1152 14 47
  190.1478 13 43
  192.0309 19.6 65
  192.1455 12 40
  193.1052 17.1 57
  195.1138 17 57
  198.0444 15.1 50
  198.1495 19 63
  199.1735 13.2 44
  201.9791 13.2 44
  202.0447 16 53
  203.1332 14 46
  204.0428 17.7 59
  204.0805 17.3 58
  204.1781 14 47
  205.0662 19.1 64
  205.0901 17 57
  205.1117 14.9 49
  208.0293 17 57
  208.1864 18.1 60
  209.1232 15 50
  209.1774 14.2 47
  210.0472 14 46
  211.0532 17 57
  212.0493 15 50
  214.0514 17.1 57
  214.0982 14 47
  215.1575 18.8 62
  215.9794 13.2 44
  216.0421 12 40
  217.1059 12 40
  218.0139 14.3 47
  219.1353 15 50
  220.0535 15.8 53
  220.9799 15 50
  221.0204 12 40
  222.0835 18 60
  222.1223 12 40
  222.1775 16.9 56
  224.1321 16 53
  224.9955 15.4 51
  226.971 17.7 59
  227.0075 12 40
  227.9734 14 47
  228.1332 22.7 76
  229.0669 15.1 50
  229.1129 12 40
  230.0372 14 47
  231.0337 13.2 44
  233.0868 16 53
  234.0531 13 43
  236.0153 13.2 44
  237.0481 13 43
  237.0974 13.2 44
  237.1434 19 63
  239.0724 13 43
  240.1491 14.9 49
  240.2145 13.2 44
  243.1692 15 50
  243.1955 13 43
  244.087 16 53
  244.222 14 46
  246.9444 18.1 60
  248.0228 15.1 50
  248.0496 14 46
  249.1832 16 53
  250.1962 14.3 47
  250.9776 16 53
  252.0301 15 50
  254.0684 16 53
  254.2095 13 43
  254.9476 13 43
  255.0428 15.4 51
  255.1966 18 60
  256.0004 17 57
  256.0388 14 47
  256.0688 18 60
  259.069 13.5 45
  259.1373 13.5 45
  259.9755 17 57
  260.0687 13 43
  262.1982 14 46
  264.0378 13.2 44
  264.1057 15 50
  264.9678 14.2 47
  266.0626 14 47
  267.0076 16.9 56
  267.0976 13 43
  268.064 13.2 44
  268.1381 12 40
  269.1404 19.1 64
  270.9503 14 47
  271.032 15.1 50
  271.1717 14 47
  271.9733 16 53
  273.0268 16.9 56
  274.9955 16 53
  275.9956 19 63
  277.1907 15 50
  277.9985 19.3 64
  278.1048 16 53
  279.1861 19 63
  281.0818 16 53
  282.0323 13 43
  282.0726 15.1 50
  283.9932 13 43
  284.1815 16.7 56
  284.9942 15 50
  285.0411 12 40
  285.1864 14 46
  285.9697 17.8 59
  286.0298 16.2 54
  287.0493 15 50
  288.003 14 46
  288.1434 12 40
  288.2042 17.8 59
  288.986 24 80
  290.0197 15.1 50
  290.0516 14.3 47
  293.0677 14 47
  293.1374 16.2 54
  294.104 16.5 55
  294.1774 16 53
  295.0393 12 40
  295.1869 13.5 45
  296.1272 13 43
  297.165 13.2 44
  298.0395 15.1 50
  298.1494 14 47
  299.1448 14.3 47
  300.0021 14 47
  300.0714 35.6 119
  300.1065 14 46
  301.9951 17.2 57
  304.0329 13 43
  307.0004 12.4 41
  308.1207 15 50
  308.2002 12.1 40
  310.1216 12 40
  310.9852 12 40
  311.1287 14 46
  311.1521 13 43
  311.1876 61.9 207
  312.1529 16 53
  312.191 19.1 64
  314.1069 17.1 57
  315.0012 12 40
  315.0827 15 50
  315.1477 13.2 44
  316.0658 14.9 49
  319.0842 14 46
  320.0762 16 53
  321.0133 13 43
  321.9709 15.8 52
  322.1504 20.1 67
  325.1362 13.5 45
  326.1446 106.2 356
  329.0742 19 63
  330.0123 14 46
  332.0666 14 47
  332.1566 16 53
  332.9673 14 46
  334.0991 14.6 49
  335.0713 15 50
  335.1449 13 43
  336.1285 19.7 66
  337.1276 13 43
  339.005 14 46
  340.0935 18.8 63
  341.1415 15.8 52
  342.0677 14 47
  342.1299 14 46
  342.1786 17.1 57
  343.9797 18.8 62
  344.0216 15.1 50
  344.1436 14 46
  345.974 14.3 47
  347.0777 17 57
  347.1107 14 46
  349.0839 14 46
  355.9846 15.4 51
  360.0188 12 40
  361.1275 12 40
  364.1081 15.8 53
  364.149 16 53
  367.9553 19 63
  373.9986 16 53
  379.0319 13 43
//
