ACCESSION: MSBNK-Antwerp_Univ-AN123404
RECORD_TITLE: 2-Propenoic acid, (octahydro-4,7-methano-1H-indene-5 - diyl)bis(methyleneiminocarbonyloxy-2,1-ethanediyl) ester; LC-ESI-QTOF; MS2; CE: 10eV; R=7000; [M+H]+
DATE: 2021.08.17
AUTHORS: Belova L, Covaci A, University of Antwerp, Belgium; Caballero-Casero N, University of Cordoba, Spain.
LICENSE: CC BY
COPYRIGHT: Copyright (c) 2021 by Toxicological Center, University of Antwerp, Wilrijk, Belgium
COMMENT: CONFIDENCE Reference Standard (Level 1)
COMMENT: INTERNAL_ID 1234
COMMENT: HBM4EU - science and policy for a healthy future (https://www.hbm4eu.eu)
CH$NAME: 2-Propenoic acid, (octahydro-4,7-methano-1H-indene-5 - diyl)bis(methyleneiminocarbonyloxy-2,1-ethanediyl) ester
CH$COMPOUND_CLASS: N/A; Environmental Standard
CH$FORMULA: C24H34N2O8
CH$EXACT_MASS: 478.2315
CH$SMILES: C=CC(=O)OCCOC(=O)NCC1CCC2C3CC(CNC(=O)OCCOC(=O)C=C)C(C3)C12
CH$IUPAC: InChI=1S/C24H34N2O8/c1-3-20(27)31-7-9-33-23(29)25-13-15-5-6-18-16-11-17(19(12-16)22(15)18)14-26-24(30)34-10-8-32-21(28)4-2/h3-4,15-19,22H,1-2,5-14H2,(H,25,29)(H,26,30)
CH$LINK: INCHIKEY WNYXLVFCZZCCLX-UHFFFAOYSA-N
AC$INSTRUMENT: Agilent 6560 QTOF
AC$INSTRUMENT_TYPE: LC-ESI-QTOF
AC$MASS_SPECTROMETRY: MS_TYPE MS2
AC$MASS_SPECTROMETRY: ION_MODE POSITIVE
AC$MASS_SPECTROMETRY: IONIZATION ESI
AC$MASS_SPECTROMETRY: FRAGMENTATION_MODE CID
AC$MASS_SPECTROMETRY: COLLISION_ENERGY 10 eV
AC$MASS_SPECTROMETRY: RESOLUTION 7000
AC$MASS_SPECTROMETRY: MASS_RANGE_M/Z 54-1418
AC$CHROMATOGRAPHY: COLUMN_NAME ZORBAX Extend-C18 3.5um, 2.1x50mm, Agilent Technologies
AC$CHROMATOGRAPHY: FLOW_GRADIENT 80/20 at 0 min, 10/90 at 1.5 min, 5/95 at 5 min, 5/95 at 7.5 min, 80/20 at 7.6 min, 80/20 at 10 min
AC$CHROMATOGRAPHY: FLOW_RATE 350 uL/min
AC$CHROMATOGRAPHY: RETENTION_TIME 3.366 min
MS$FOCUSED_ION: BASE_PEAK 453.3484
MS$FOCUSED_ION: PRECURSOR_M/Z 479.2388
MS$FOCUSED_ION: PRECURSOR_TYPE [M+H]+
MS$FOCUSED_ION: PRECURSOR_INTENSITY 184113.78
MS$DATA_PROCESSING: RECALIBRATE loess on assigned fragments and MS1
MS$DATA_PROCESSING: REANALYZE Peaks with additional N2/O included
MS$DATA_PROCESSING: WHOLE RMassBank 3.1.1
PK$SPLASH: splash10-0002-9000100000-f37cd967154e94dfa7ae
PK$ANNOTATION: m/z tentative_formula formula_count mass error(ppm)
  55.0186 C3H3O+ 1 55.0178 13.57
  73.0273 C3H5O2+ 1 73.0284 -15.15
  99.0447 C5H7O2+ 1 99.0441 6.64
  100.0478 H8N2O4+ 1 100.0479 -0.34
  117.0542 C5H9O3+ 1 117.0546 -3.96
  249.1631 C19H21+ 4 249.1638 -2.72
  291.1692 C16H23N2O3+ 4 291.1703 -4
  292.1714 C20H22NO+ 4 292.1696 6.04
  335.1961 C18H27N2O4+ 4 335.1965 -1.33
  363.1899 C16H29NO8+ 4 363.1888 3.03
  407.2166 C21H31N2O6+ 2 407.2177 -2.68
  408.2192 C22H32O7+ 2 408.2143 12.15
PK$NUM_PEAK: 12
PK$PEAK: m/z int. rel.int.
  55.0186 7981.2 60
  73.0273 230.4 1
  99.0447 131919 999
  100.0478 4624.6 35
  117.0542 4214.8 31
  249.1631 212.1 1
  291.1692 6094.1 46
  292.1714 200.2 1
  335.1961 293 2
  363.1899 628.5 4
  407.2166 19853.9 150
  408.2192 1764.7 13
//
