ACCESSION: MSBNK-Antwerp_Univ-METOX_P101702_EF88
RECORD_TITLE: METHYL4-AMINOBUTYRATE; LC-ESI-QTOF; MS2; CE: 20eV; R=5000; [M+H]+
DATE: 2021.12.14
AUTHORS: da Silva KM, Iturrospe E, van de Lavoir M, Robeyns R, University of Antwerp, Belgium
LICENSE: CC BY
COPYRIGHT: Copyright (c) 2021 by Toxicological Center, University of Antwerp, Wilrijk, Belgium
COMMENT: CONFIDENCE Standard compound
COMMENT: INTERNAL_ID 1017
CH$NAME: METHYL4-AMINOBUTYRATE
CH$NAME: methyl 4-aminobutanoate
CH$COMPOUND_CLASS: N/A; Metabolomics Standard
CH$FORMULA: C5H11NO2
CH$EXACT_MASS: 117.07898
CH$SMILES: COC(CCCN)=O
CH$IUPAC: InChI=1S/C5H11NO2/c1-8-5(7)3-2-4-6/h2-4,6H2,1H3
CH$LINK: CAS 3251-07-8
CH$LINK: CHEBI CHEBI:42955
CH$LINK: PUBCHEM CID:18614
CH$LINK: INCHIKEY KVQGGLZHHFGHPU-UHFFFAOYSA-N
CH$LINK: CHEMSPIDER 17580
CH$LINK: COMPTOX DTXSID10954242
AC$INSTRUMENT: Agilent 6530 QTOF
AC$INSTRUMENT_TYPE: LC-ESI-QTOF
AC$MASS_SPECTROMETRY: MS_TYPE MS2
AC$MASS_SPECTROMETRY: ION_MODE POSITIVE
AC$MASS_SPECTROMETRY: IONIZATION ESI
AC$MASS_SPECTROMETRY: FRAGMENTATION_MODE CID
AC$MASS_SPECTROMETRY: COLLISION_ENERGY 20 eV
AC$MASS_SPECTROMETRY: RESOLUTION 5000
AC$MASS_SPECTROMETRY: MASS_RANGE_M/Z 40-1000
AC$CHROMATOGRAPHY: COLUMN_NAME N/A
AC$CHROMATOGRAPHY: FLOW_GRADIENT 50/50 isocratic
AC$CHROMATOGRAPHY: FLOW_RATE 200 uL/min
AC$CHROMATOGRAPHY: RETENTION_TIME 0.564 min
AC$CHROMATOGRAPHY: SOLVENT A 90/10 water with 10mM ammonium formate + 0.1% formic acid/methanol
AC$CHROMATOGRAPHY: SOLVENT B acetonitrile
MS$FOCUSED_ION: BASE_PEAK 121.0508
MS$FOCUSED_ION: PRECURSOR_M/Z 118.0863
MS$FOCUSED_ION: PRECURSOR_TYPE [M+H]+
MS$FOCUSED_ION: PRECURSOR_INTENSITY 311523
MS$DATA_PROCESSING: RECALIBRATE loess on assigned fragments and MS1
MS$DATA_PROCESSING: REANALYZE Peaks with additional N2/O included
MS$DATA_PROCESSING: WHOLE RMassBank 3.4.0
PK$SPLASH: splash10-0a4i-9000000000-1f1dfde85c9e580367dc
PK$ANNOTATION: m/z tentative_formula formula_count mass error(ppm)
  41.0391 C3H5+ 1 41.0386 11.81
  58.0646 C3H8N+ 1 58.0651 -8.51
  59.0123 C2H3O2+ 1 59.0128 -7.08
  59.0491 C3H7O+ 1 59.0491 -1.03
  68.0482 C4H6N+ 1 68.0495 -18.55
  69.0325 C4H5O+ 1 69.0335 -14.78
  73.0647 C4H9O+ 1 73.0648 -1.16
  101.0583 C5H9O2+ 1 101.0597 -13.43
  102.0889 C5H12NO+ 1 102.0913 -23.64
  118.084 C5H12NO2+ 1 118.0863 -18.98
PK$NUM_PEAK: 10
PK$PEAK: m/z int. rel.int.
  41.0391 2924.4 122
  58.0646 3489.1 145
  59.0123 5739.5 240
  59.0491 23889.9 999
  68.0482 225.9 9
  69.0325 2029 84
  73.0647 87 3
  101.0583 3179 132
  102.0889 29.2 1
  118.084 659.9 27
//
