ACCESSION: MSBNK-Antwerp_Univ-METOX_P101005_FB57
RECORD_TITLE: N-ACETYLALANINE; LC-ESI-QTOF; MS2; CE: 40eV; R=5000; [M+H]+
DATE: 2021.12.23
AUTHORS: da Silva KM, Iturrospe E, van de Lavoir M, Robeyns R, University of Antwerp, Belgium
LICENSE: CC BY
COPYRIGHT: Copyright (c) 2021 by Toxicological Center, University of Antwerp, Wilrijk, Belgium
COMMENT: CONFIDENCE Standard compound
COMMENT: INTERNAL_ID 1010
CH$NAME: N-ACETYLALANINE
CH$NAME: N-Acetyl-L-alanine
CH$NAME: (2S)-2-acetamidopropanoic acid
CH$COMPOUND_CLASS: N/A; Metabolomics Standard
CH$FORMULA: C5H9NO3
CH$EXACT_MASS: 131.0582
CH$SMILES: C[C@H](NC(C)=O)C(O)=O
CH$IUPAC: InChI=1S/C5H9NO3/c1-3(5(8)9)6-4(2)7/h3H,1-2H3,(H,6,7)(H,8,9)/t3-/m0/s1
CH$LINK: CAS 97-69-8
CH$LINK: CHEBI CHEBI:40992
CH$LINK: PUBCHEM CID:88064
CH$LINK: INCHIKEY KTHDTJVBEPMMGL-VKHMYHEASA-N
CH$LINK: CHEMSPIDER 79449
AC$INSTRUMENT: Agilent 6530 QTOF
AC$INSTRUMENT_TYPE: LC-ESI-QTOF
AC$MASS_SPECTROMETRY: MS_TYPE MS2
AC$MASS_SPECTROMETRY: ION_MODE POSITIVE
AC$MASS_SPECTROMETRY: IONIZATION ESI
AC$MASS_SPECTROMETRY: FRAGMENTATION_MODE CID
AC$MASS_SPECTROMETRY: COLLISION_ENERGY 40 eV
AC$MASS_SPECTROMETRY: RESOLUTION 5000
AC$MASS_SPECTROMETRY: MASS_RANGE_M/Z 40-978
AC$CHROMATOGRAPHY: COLUMN_NAME N/A
AC$CHROMATOGRAPHY: FLOW_GRADIENT 50/50 isocratic
AC$CHROMATOGRAPHY: FLOW_RATE 200 uL/min
AC$CHROMATOGRAPHY: RETENTION_TIME 0.219 min
AC$CHROMATOGRAPHY: SOLVENT A 90/10 water with 10mM ammonium formate + 0.1% formic acid/methanol
AC$CHROMATOGRAPHY: SOLVENT B acetonitrile
MS$FOCUSED_ION: BASE_PEAK 922.0098
MS$FOCUSED_ION: PRECURSOR_M/Z 132.0655
MS$FOCUSED_ION: PRECURSOR_TYPE [M+H]+
MS$FOCUSED_ION: PRECURSOR_INTENSITY 51742
MS$DATA_PROCESSING: RECALIBRATE loess on assigned fragments and MS1
MS$DATA_PROCESSING: REANALYZE Peaks with additional N2/O included
MS$DATA_PROCESSING: WHOLE RMassBank 3.4.0
PK$SPLASH: splash10-0006-9000000000-9f9d59cd2adaa4a3edb7
PK$ANNOTATION: m/z tentative_formula formula_count mass error(ppm)
  43.0184 C2H3O+ 1 43.0178 12.65
  55.0413 C3H5N+ 1 55.0417 -7.16
PK$NUM_PEAK: 2
PK$PEAK: m/z int. rel.int.
  43.0184 1510.3 999
  55.0413 6.2 4
//
