ACCESSION: MSBNK-Antwerp_Univ-METOX_N103027_B8BB
RECORD_TITLE: Coenzyme Q10; LC-ESI-QTOF; MS2; CE: 20eV; R=7000; [M-H]-
DATE: 2022.04.09
AUTHORS: da Silva KM, Iturrospe E, van de Lavoir M, Robeyns R, University of Antwerp, Belgium
LICENSE: CC BY
COPYRIGHT: Copyright (c) 2021 by Toxicological Center, University of Antwerp, Wilrijk, Belgium
COMMENT: CONFIDENCE Standard compound
COMMENT: INTERNAL_ID 1030
CH$NAME: Coenzyme Q10
CH$NAME: 2-[(2E,6E,10E,14E,18E,22E,26E,30E,34E)-3,7,11,15,19,23,27,31,35,39-decamethyltetraconta-2,6,10,14,18,22,26,30,34,38-decaenyl]-5,6-dimethoxy-3-methylcyclohexa-2,5-diene-1,4-dione
CH$COMPOUND_CLASS: N/A; Metabolomics Standard
CH$FORMULA: C59H90O4
CH$EXACT_MASS: 862.6839
CH$SMILES: CC1=C(C(=O)C(=C(C1=O)OC)OC)C/C=C(\C)/CC/C=C(\C)/CC/C=C(\C)/CC/C=C(\C)/CC/C=C(\C)/CC/C=C(\C)/CC/C=C(\C)/CC/C=C(\C)/CC/C=C(\C)/CCC=C(C)C
CH$IUPAC: InChI=1S/C59H90O4/c1-44(2)24-15-25-45(3)26-16-27-46(4)28-17-29-47(5)30-18-31-48(6)32-19-33-49(7)34-20-35-50(8)36-21-37-51(9)38-22-39-52(10)40-23-41-53(11)42-43-55-54(12)56(60)58(62-13)59(63-14)57(55)61/h24,26,28,30,32,34,36,38,40,42H,15-23,25,27,29,31,33,35,37,39,41,43H2,1-14H3/b45-26+,46-28+,47-30+,48-32+,49-34+,50-36+,51-38+,52-40+,53-42+
CH$LINK: CAS 303-98-0
CH$LINK: CHEBI 46245
CH$LINK: KEGG C11378
CH$LINK: LIPIDMAPS LMPR02010001
CH$LINK: PUBCHEM CID:5281915
CH$LINK: INCHIKEY ACTIUHUUMQJHFO-UPTCCGCDSA-N
CH$LINK: CHEMSPIDER 4445197
AC$INSTRUMENT: Agilent 6560 QTOF
AC$INSTRUMENT_TYPE: LC-ESI-QTOF
AC$MASS_SPECTROMETRY: MS_TYPE MS2
AC$MASS_SPECTROMETRY: ION_MODE NEGATIVE
AC$MASS_SPECTROMETRY: IONIZATION ESI
AC$MASS_SPECTROMETRY: FRAGMENTATION_MODE CID
AC$MASS_SPECTROMETRY: COLLISION_ENERGY 20 eV
AC$MASS_SPECTROMETRY: RESOLUTION 7000
AC$MASS_SPECTROMETRY: MASS_RANGE_M/Z 70-1700
AC$CHROMATOGRAPHY: COLUMN_NAME N/A
AC$CHROMATOGRAPHY: FLOW_GRADIENT 50/50 isocratic
AC$CHROMATOGRAPHY: FLOW_RATE 200 uL/min
AC$CHROMATOGRAPHY: RETENTION_TIME 0.310 min
AC$CHROMATOGRAPHY: SOLVENT A 30/70 acetonitrile/water with 2mM ammonium acetate
AC$CHROMATOGRAPHY: SOLVENT B 88/10/2 isopropanol/acetonitrile/water with 2mM ammonium acetate
MS$FOCUSED_ION: BASE_PEAK 980.0164
MS$FOCUSED_ION: PRECURSOR_M/Z 861.6766
MS$FOCUSED_ION: PRECURSOR_TYPE [M-H]-
MS$FOCUSED_ION: PRECURSOR_INTENSITY 1046559
MS$DATA_PROCESSING: RECALIBRATE loess on assigned fragments and MS1
MS$DATA_PROCESSING: REANALYZE Peaks with additional N2/O included
MS$DATA_PROCESSING: WHOLE RMassBank 3.5.2.1
PK$SPLASH: splash10-03di-0688987620-c189d00b15158e3238e4
PK$ANNOTATION: m/z tentative_formula formula_count mass error(ppm)
  71.0138 C3H3O2- 1 71.0139 -0.38
  71.294 H39O2- 1 71.2956 -22.08
  71.368 C2H47- 1 71.3683 -4.53
  72.0218 C3H4O2- 1 72.0217 1.87
  72.0597 C4H8O- 1 72.0581 22.7
  73.0288 C3H5O2- 1 73.0295 -10.06
  73.0645 C4H9O- 1 73.0659 -18.63
  73.0859 CH13O3- 1 73.087 -14.71
  73.3854 C2H49- 1 73.384 19.93
  74.32 H42O2- 1 74.319 13.11
  75.0461 C3H7O2- 1 75.0452 13.02
  75.3262 H43O2- 1 75.3269 -8.88
  76.1481 C2H20O2- 1 76.1469 15.56
  77.1194 CH17O3- 1 77.1183 14.24
  77.4738 H61O- 1 77.4728 12.7
  78.0487 C6H6- 1 78.0475 15.37
  79.49 H63O- 1 79.4884 19.05
  79.6194 H79- 1 79.6187 8.5
  81.0909 C3H13O2- 1 81.0921 -15.32
  81.6361 H81- 1 81.6344 20.96
  83.0864 C6H11- 1 83.0866 -2.17
  83.1286 H19O4- 1 83.1289 -3.89
  84.0197 C4H4O2- 1 84.0217 -23.48
  84.0441 CH8O4- 1 84.0428 15.18
  84.0577 C5H8O- 1 84.0581 -4.32
  84.1364 H20O4- 1 84.1367 -3.94
  84.1875 C5H24- 1 84.1883 -9.91
  86.4856 C2H62- 1 86.4857 -1.04
  87.0227 C7H3- 1 87.024 -15.1
  87.2134 C5H27- 1 87.2118 17.9
  87.5885 CH75- 1 87.5874 12.28
  87.9818 C2O4- 1 87.9802 18.48
  88.0732 CH12O4- 1 88.0741 -9.91
  88.1088 C2H16O3- 1 88.1105 -19.48
  90.0112 C6H2O- 1 90.0111 1.14
  90.0676 C4H10O2- 1 90.0686 -11
  91.0179 C6H3O- 1 91.0189 -11.11
  91.5254 C2H67- 1 91.5248 6.37
  92.0127 C2H4O4- 1 92.0115 12.5
  94.4764 H62O2- 1 94.4755 8.99
  96.0578 C6H8O- 1 96.0581 -2.63
  96.4719 C3H60- 1 96.4701 19.02
  96.5627 C2H72- 1 96.564 -12.96
  97.2742 CH37O3- 1 97.2748 -5.85
  97.6665 CH85- 1 97.6657 8.25
  98.1515 CH22O4- 1 98.1524 -8.52
  98.3188 C2H42O2- 1 98.319 -2.75
  98.353 C3H46O- 1 98.3554 -24.29
  98.3915 C4H50- 1 98.3918 -3.37
  98.5052 H66O2- 1 98.5068 -16.73
  99.0676 C2H11O4- 1 99.0663 13.03
  99.0827 C6H11O- 1 99.0815 11.33
  99.1988 C2H27O3- 1 99.1966 22.01
  99.5531 CH71O- 1 99.551 21.17
  100.4648 C2H60O- 1 100.465 -1.52
  101.5081 C3H65- 1 101.5092 -10.18
  101.9946 C3H2O4- 1 101.9959 -12.44
  102.128 C3H18O3- 1 102.1261 18.61
  102.1613 C4H22O2- 1 102.1625 -11.73
  102.5374 H70O2- 1 102.5381 -7.51
  103.2859 H39O4- 1 103.2854 5.28
  103.4317 C4H55- 1 103.4309 7.91
  103.6758 H87O- 1 103.6762 -4.12
  103.9881 C6O2- 1 103.9904 -21.76
  104.4585 CH60O2- 1 104.4599 -13.19
  105.0935 C5H13O2- 1 105.0921 13.52
  105.3148 C4H41O- 1 105.3163 -14.38
  105.4324 H57O3- 1 105.4313 10.16
  106.3229 C4H42O- 1 106.3241 -11.07
  106.4201 C3H54O- 1 106.418 19.52
  107.0508 C7H7O- 1 107.0502 5.17
  107.1784 C7H23- 1 107.1805 -19.76
  107.4647 C4H59- 1 107.4622 23.06
  108.246 C5H32O- 1 108.2459 1.49
  108.2696 C2H36O3- 1 108.267 23.82
  108.6571 C2H84- 1 108.6579 -6.48
  109.0293 C6H5O2- 1 109.0295 -1.51
  109.4786 C4H61- 1 109.4779 6.2
  109.5335 C2H69O- 1 109.5354 -17.65
  109.5905 H77O2- 1 109.5929 -21.95
  109.6271 CH81O- 1 109.6293 -19.59
  110.1096 C8H14- 1 110.1101 -4.38
  110.3574 C4H46O- 1 110.3554 17.73
  110.3921 C5H50- 1 110.3918 3.01
  110.4876 C4H62- 1 110.4857 17.29
  111.2141 C7H27- 1 111.2118 20.77
  112.0305 C9H4- 1 112.0318 -11.98
  112.1258 C8H16- 1 112.1257 0.05
  113.0044 C8HO- 1 113.0033 9.61
  113.2254 C7H29- 1 113.2275 -18.48
  113.4739 C3H61O- 1 113.4728 9.84
  113.4964 H65O3- 1 113.4939 21.68
  114.1278 C4H18O3- 1 114.1261 14.71
  114.3283 C6H42- 1 114.3292 -8.13
  114.3697 H50O4- 1 114.3715 -14.99
  114.3895 C4H50O- 1 114.3867 24.57
  115.0547 C9H7- 1 115.0553 -5.38
  115.1135 C7H15O- 1 115.1128 5.77
  115.1702 C5H23O2- 1 115.1704 -1.1
  115.1906 C2H27O4- 1 115.1915 -7.34
  115.6383 H83O2- 1 115.6399 -13.59
  115.6758 CH87O- 1 115.6762 -3.45
  115.9875 C7O2- 1 115.9904 -24.65
  116.1571 C8H20- 1 116.157 0.3
  116.2 C2H28O4- 1 116.1993 6.07
  116.2694 C4H36O2- 1 116.2721 -23.03
  118.6428 C3H82- 1 118.6422 4.79
  119.0142 C7H3O2- 1 119.0139 3.14
  119.1298 C3H19O4- 1 119.1289 7.72
  119.4258 C4H55O- 1 119.4258 -0.47
  119.4861 C2H63O2- 1 119.4834 23.27
  120.2321 C2H32O4- 1 120.2306 12.54
  120.5475 H72O3- 1 120.5487 -9.79
  121.5354 C3H69O- 1 121.5354 0.48
  121.5541 H73O3- 1 121.5565 -19.51
  121.6864 H89O2- 1 121.6868 -3.46
  122.1876 C4H26O3- 1 122.1887 -9.12
  122.4497 C4H58O- 1 122.4493 2.75
  123.3815 C2H51O3- 1 123.3844 -23.24
  123.4925 C5H63- 1 123.4935 -8.31
  124.0142 C6H4O3- 1 124.0166 -18.99
  124.0339 C10H4- 1 124.0318 16.71
  124.6546 C2H84O- 1 124.6528 14.69
  124.6897 C3H88- 1 124.6892 4.03
  125.175 C3H25O4- 1 125.1758 -6.79
  125.3075 C3H41O3- 1 125.3061 10.79
  126.0679 C7H10O2- 1 126.0686 -5.84
  126.2917 C6H38O- 1 126.2928 -8.95
  127.0033 C5H3O4- 1 127.0037 -2.89
  128.0269 C9H4O- 1 128.0268 1.22
  128.1446 C5H20O3- 1 128.1418 21.61
  128.3326 C3H44O3- 1 128.3296 23.71
  128.3901 CH52O4- 1 128.3871 23.18
  128.4232 C2H56O3- 1 128.4235 -2.25
  128.5926 C3H76O- 1 128.5902 19.07
  129.1126 C4H17O4- 1 129.1132 -4.84
  129.2591 C8H33- 1 129.2588 2.37
  130.3247 C6H42O- 1 130.3241 4.86
  130.4032 CH54O4- 1 130.4028 3.34
  130.5137 C4H66O- 1 130.5119 14.03
  130.6057 C3H78O- 1 130.6058 -1.04
  130.6249 H82O3- 1 130.6269 -15.67
  131.2047 C6H27O2- 1 131.2017 23.11
  131.4856 C3H63O2- 1 131.4834 17.02
  132.0453 C5H8O4- 1 132.0428 18.94
  132.4577 C2H60O3- 1 132.4548 21.61
  132.5293 C4H68O- 1 132.5276 13.35
  132.6186 C3H80O- 1 132.6215 -21.33
  132.6402 H84O3- 1 132.6426 -18.41
  133.0631 C9H9O- 1 133.0659 -21.25
  133.1417 C4H21O4- 1 133.1445 -20.94
  134.3002 C8H38- 1 134.2979 17.46
  134.5659 CH74O3- 1 134.5643 11.79
  134.6405 C3H82O- 1 134.6371 24.98
  134.6555 H86O3- 1 134.6582 -20.46
  135.0646 C5H11O4- 1 135.0663 -12.82
  135.3028 C8H39- 1 135.3057 -21.78
  136.0319 C11H4- 1 136.0318 0.37
  136.1647 C4H24O4- 1 136.168 -24
  136.2389 C6H32O2- 1 136.2408 -13.87
  136.2979 C4H40O3- 1 136.2983 -2.64
  136.4098 C7H52- 1 136.4075 17.44
  136.4496 CH60O4- 1 136.4497 -0.62
  136.5813 CH76O3- 1 136.58 9.24
  137.0393 C11H5- 1 137.0397 -2.93
  137.1195 C6H17O3- 1 137.1183 8.48
  137.4121 C7H53- 1 137.4153 -22.89
  138.3131 C4H42O3- 1 138.3139 -5.97
  138.3317 C8H42- 1 138.3292 17.8
  138.4681 CH62O4- 1 138.4654 19.79
  139.005 C6H3O4- 1 139.0037 9.62
  139.1133 C9H15O- 1 139.1128 3.12
  139.4886 C5H63O- 1 139.4884 1.34
  139.5662 H75O4- 1 139.5671 -6.35
  140.4232 C3H56O3- 1 140.4235 -2.13
  140.481 CH64O4- 1 140.481 0.25
  141.0945 C8H13O2- 1 141.0921 16.77
  141.1531 C6H21O3- 1 141.1496 24.67
  141.3525 C8H45- 1 141.3527 -1.09
  141.374 C5H49O2- 1 141.3738 1.04
  141.4656 C4H61O2- 1 141.4677 -14.76
  141.6571 C2H85O2- 1 141.6555 11.48
  141.6904 C3H89O- 1 141.6919 -10.57
  142.0989 C8H14O2- 1 142.0999 -6.92
  142.3114 C3H42O4- 1 142.3089 18.2
  142.383 C5H50O2- 1 142.3816 9.43
  142.4054 C2H54O4- 1 142.4028 18.46
  142.4987 CH66O4- 1 142.4967 14.48
  143.1073 C8H15O2- 1 143.1078 -3.27
  143.1319 C5H19O4- 1 143.1289 21.31
  143.1832 C10H23- 1 143.1805 18.64
  143.2404 C8H31O- 1 143.238 16.2
  143.5023 CH67O4- 1 143.5045 -15.47
  143.9984 C12- 1 144.0005 -14.81
  144.2322 C4H32O4- 1 144.2306 11.37
  144.4927 C4H64O2- 1 144.4912 10.27
  144.5254 C5H68O- 1 144.5276 -15.2
  145.1217 C8H17O2- 1 145.1234 -12
  145.3512 C7H45O- 1 145.3476 25
  145.6481 CH85O3- 1 145.6504 -15.99
  146.057 C6H10O4- 1 146.0585 -10.29
  146.0956 C7H14O3- 1 146.0948 4.91
  146.3532 C7H46O- 1 146.3554 -15.36
  146.5461 C5H70O- 1 146.5432 19.83
  147.0809 C10H11O- 1 147.0815 -4.62
  147.3035 C9H39- 1 147.3057 -15.1
  147.3472 C3H47O4- 1 147.348 -5.41
  147.9926 C11O- 1 147.9955 -19.24
  148.1134 C7H16O3- 1 148.1105 19.42
  148.2435 C7H32O2- 1 148.2408 18.59
  148.45 C2H60O4- 1 148.4497 1.73
  148.5469 CH72O4- 1 148.5436 22.47
  149.0428 C12H5- 1 149.0397 21.25
  149.273 C4H37O4- 1 149.2697 21.57
  149.3792 C7H49O- 1 149.3789 2.01
  149.4756 C6H61O- 1 149.4728 18.57
  149.5491 CH73O4- 1 149.5514 -15.8
  150.0878 C6H14O4- 1 150.0898 -12.89
  150.1447 C11H18- 1 150.1414 21.97
  150.163 C8H22O2- 1 150.1625 2.91
  150.236 C10H30- 1 150.2353 4.83
  150.3271 C9H42- 1 150.3292 -14.1
  151.1352 C7H19O3- 1 151.134 7.95
  151.3402 C9H43- 1 151.337 21.01
  151.4758 C2H63O4- 1 151.4732 17.12
  151.5475 C4H71O2- 1 151.546 10.33
  152.0862 C9H12O2- 1 152.0843 12.71
  152.3064 C8H40O- 1 152.3085 -13.52
  152.4015 C7H52O- 1 152.4024 -5.43
  152.5745 CH76O4- 1 152.5749 -2.94
  152.6467 C3H84O2- 1 152.6477 -6.57
  153.0173 C7H5O4- 1 153.0193 -13.28
  153.0932 C9H13O2- 1 153.0921 7.15
  153.1146 C6H17O4- 1 153.1132 8.97
  153.2061 C5H29O4- 1 153.2071 -6.88
  153.2221 C9H29O- 1 153.2224 -1.67
  153.2573 C10H33- 1 153.2588 -9.82
  153.3127 C8H41O- 1 153.3163 -23.09
  153.3352 C5H45O3- 1 153.3374 -14.74
  153.3517 C9H45- 1 153.3527 -6.5
  153.3982 C3H53O4- 1 153.3949 21.5
  153.4879 C2H65O4- 1 153.4888 -5.78
  153.6349 C6H81- 1 153.6344 3.35
  154.384 C6H50O2- 1 154.3816 15.62
  154.587 CH78O4- 1 154.5906 -23.11
  154.6273 C2H82O3- 1 154.6269 2.03
  155.1428 C10H19O- 1 155.1441 -8.71
  155.1654 C7H23O3- 1 155.1653 0.87
  155.6528 C6H83- 1 155.65 17.86
  155.9862 C9O3- 1 155.9853 5.85
  156.0178 C10H4O2- 1 156.0217 -24.79
  156.0927 C12H12- 1 156.0944 -11.01
  156.1538 C10H20O- 1 156.152 11.7
  156.5247 C6H68O- 1 156.5276 -18.08
  157.0488 C7H9O4- 1 157.0506 -11.35
  157.1612 C10H21O- 1 157.1598 9.14
  157.1928 C11H25- 1 157.1962 -21.31
  157.2346 C5H33O4- 1 157.2384 -24.62
  157.2518 C9H33O- 1 157.2537 -12
  157.5348 C6H69O- 1 157.5354 -3.67
  158.0032 C9H2O3- 1 158.0009 14.26
  158.5297 C2H70O4- 1 158.528 10.68
  158.565 C3H74O3- 1 158.5643 4.2
  159.069 C7H11O4- 1 159.0663 17.27
  159.1379 C9H19O2- 1 159.1391 -7.09
  159.2554 C5H35O4- 1 159.2541 8.43
  159.3287 C7H43O2- 1 159.3269 11.43
  159.3864 C5H51O3- 1 159.3844 12.98
  159.4456 C3H59O4- 1 159.4419 23.46
  159.6065 C4H79O2- 1 159.6086 -12.91
  160.086 C11H12O- 1 160.0894 -21.07
  160.1833 C10H24O- 1 160.1833 -0.09
  160.3119 C10H40- 1 160.3135 -10.19
  160.5412 C2H72O4- 1 160.5436 -15.13
  160.6876 C6H88- 1 160.6892 -9.39
  161.2253 C11H29- 1 161.2275 -13.48
  161.3224 C10H41- 1 161.3214 6.66
  161.3798 C8H49O- 1 161.3789 5.89
  161.6991 C6H89- 1 161.697 13.17
  162.4452 C6H58O2- 1 162.4442 5.81
  163.1364 C8H19O3- 1 163.134 15.13
  163.1667 C9H23O2- 1 163.1704 -22.22
  163.2982 C9H39O- 1 163.3006 -15.17
  163.4538 C6H59O2- 1 163.4521 10.84
  163.5801 C6H75O- 1 163.5823 -13.59
  164.0094 C8H4O4- 1 164.0115 -12.69
  164.1243 C11H16O- 1 164.1207 22.09
  164.6823 C5H88O- 1 164.6841 -10.73
  165.056 C9H9O3- 1 165.0557 1.62
  165.1826 C9H25O2- 1 165.186 -20.56
  165.489 C3H65O4- 1 165.4888 0.71
  166.0611 C9H10O3- 1 166.0635 -14.88
  166.0776 C13H10- 1 166.0788 -7.4
  166.1018 C10H14O2- 1 166.0999 11.12
  166.2647 C11H34- 1 166.2666 -11.26
  166.4033 C4H54O4- 1 166.4028 3.49
  167.0838 C13H11- 1 167.0866 -16.94
  167.2565 C7H35O3- 1 167.2592 -15.89
  167.371 C10H47- 1 167.3683 15.98
  167.5578 C8H71- 1 167.5561 9.74
  168.0753 C9H12O3- 1 168.0792 -23.02
  168.1737 C8H24O3- 1 168.1731 3.62
  168.2695 C7H36O3- 1 168.267 14.94
  168.2995 C8H40O2- 1 168.3034 -23.2
  168.5653 C8H72- 1 168.564 7.74
  168.5861 C5H76O2- 1 168.5851 6.34
  169.1844 C8H25O3- 1 169.1809 20.77
  169.4457 C8H57O- 1 169.4415 24.65
  170.0172 C14H2- 1 170.0162 6.09
  170.1873 C8H26O3- 1 170.1887 -8.46
  170.3595 C9H46O- 1 170.3554 24.21
  170.524 C3H70O4- 1 170.528 -23.14
  171.0266 C14H3- 1 171.024 14.96
  171.0443 C11H7O2- 1 171.0452 -5
  171.1005 C9H15O3- 1 171.1027 -12.84
  171.1169 C13H15- 1 171.1179 -5.81
  171.2091 C12H27- 1 171.2118 -15.94
  171.4978 C9H63- 1 171.4935 24.66
  171.5547 C7H71O- 1 171.551 21.46
  171.6674 C3H87O3- 1 171.6661 7.78
  172.0202 C10H4O3- 1 172.0166 20.85
  172.1453 C10H20O2- 1 172.1469 -9.09
  172.2034 C8H28O3- 1 172.2044 -6.02
  172.4857 C5H64O3- 1 172.4861 -2.21
  172.5945 C8H76- 1 172.5953 -4.26
  173.0008 C13HO- 1 173.0033 -14.52
  173.0236 C10H5O3- 1 173.0244 -4.97
  173.1739 C7H25O4- 1 173.1758 -11.06
  173.2156 C8H29O3- 1 173.2122 19.61
  173.3064 C7H41O3- 1 173.3061 1.54
  173.4558 C4H61O4- 1 173.4575 -10.21
  173.4923 C5H65O3- 1 173.4939 -9.22
  173.6238 C5H81O2- 1 173.6242 -2.18
  173.6488 C2H85O4- 1 173.6453 19.81
  174.0872 C8H14O4- 1 174.0898 -14.41
  174.1263 C9H18O3- 1 174.1261 0.73
  174.4239 C10H54- 1 174.4231 4.81
  174.4643 C4H62O4- 1 174.4654 -6.06
  175.0208 C13H3O- 1 175.0189 10.64
  175.2099 C11H27O- 1 175.2067 18.17
  175.266 C9H35O2- 1 175.2643 10.16
  175.2875 C6H39O4- 1 175.2854 11.86
  175.3768 C5H51O4- 1 175.3793 -13.89
  175.5456 C6H71O2- 1 175.546 -2.07
  175.5995 C4H79O3- 1 175.6035 -22.7
  175.6779 C6H87O- 1 175.6762 9.27
  176.1581 C13H20- 1 176.157 6.12
  176.2331 C8H32O3- 1 176.2357 -14.86
  176.3414 C11H44- 1 176.3448 -19.29
  176.5149 C5H68O3- 1 176.5174 -14.41
  176.6137 C4H80O3- 1 176.6113 13.41
  176.631 C8H80- 1 176.6266 24.94
  177.054 C10H9O3- 1 177.0557 -9.74
  177.1088 C8H17O4- 1 177.1132 -25
  177.2627 C12H33- 1 177.2588 22.11
  177.3368 C7H45O3- 1 177.3374 -3.62
  177.3977 C5H53O4- 1 177.3949 15.58
  177.583 C3H77O4- 1 177.5827 1.24
  177.602 C7H77O- 1 177.598 22.8
  178.0627 C10H10O3- 1 178.0635 -4.62
  178.1213 C8H18O4- 1 178.1211 1.13
  178.2182 C7H30O4- 1 178.215 18.26
  178.3068 C6H42O4- 1 178.3089 -11.3
  178.4193 C9H54O- 1 178.418 7.18
  178.5508 C9H70- 1 178.5483 13.93
  178.6677 C5H86O2- 1 178.6633 24.22
  179.141 C12H19O- 1 179.1441 -17.51
  179.1978 C10H27O2- 1 179.2017 -21.68
  179.3857 C8H51O2- 1 179.3895 -21.11
  179.5062 C4H67O4- 1 179.5045 9.48
  179.9998 C15- 1 180.0005 -4.23
  180.3254 C6H44O4- 1 180.3245 5.09
  180.3374 C10H44O- 1 180.3398 -13.09
  180.3789 C11H48- 1 180.3762 15.29
  180.4568 C6H60O3- 1 180.4548 11.01
  180.4868 C7H64O2- 1 180.4912 -24.25
  180.5303 C8H68O- 1 180.5276 14.9
  180.9922 C11HO3- 1 180.9931 -5.06
  181.0689 C13H9O- 1 181.0659 16.68
  181.1251 C11H17O2- 1 181.1234 9.55
  181.6274 C7H81O- 1 181.6293 -10.36
  181.6507 C4H85O3- 1 181.6504 1.67
  182.4699 C6H62O3- 1 182.4704 -3
  182.531 C4H70O4- 1 182.528 16.58
  182.6553 C4H86O3- 1 182.6582 -16.37
  183.0216 C15H3- 1 183.024 -13.33
  183.254 C7H35O4- 1 183.2541 -0.67
  183.293 C8H39O3- 1 183.2905 13.65
  183.3828 C7H51O3- 1 183.3844 -8.64
  183.5467 C8H71O- 1 183.551 -23.81
  183.5753 C5H75O3- 1 183.5722 17.05
  183.6473 C7H83O- 1 183.6449 12.8
  183.9924 C14O- 1 183.9955 -16.82
  184.0498 C12H8O2- 1 184.053 -17.18
  184.5759 C5H76O3- 1 184.58 -21.96
  184.6208 C6H80O2- 1 184.6164 24.14
  186.0087 C14H2O- 1 186.0111 -12.8
  186.2031 C12H26O- 1 186.1989 22.68
  186.2361 C13H30- 1 186.2353 4.11
  186.2543 C10H34O2- 1 186.2564 -11.25
  186.4046 C7H54O3- 1 186.4078 -17.16
  186.4779 C9H62O- 1 186.4806 -14.48
  186.5032 C6H66O3- 1 186.5017 8.02
  186.5565 C4H74O4- 1 186.5593 -14.7
  186.6289 C6H82O2- 1 186.632 -16.92
  187.0359 C11H7O3- 1 187.0401 -22.2
  187.1301 C10H19O3- 1 187.134 -20.77
  187.3817 C6H51O4- 1 187.3793 13.08
  188.0657 C15H8- 1 188.0631 13.4
  189.0524 C11H9O3- 1 189.0557 -17.41
  189.1322 C13H17O- 1 189.1285 19.76
  189.2262 C12H29O- 1 189.2224 19.93
  189.2543 C13H33- 1 189.2588 -23.86
  189.355 C12H45- 1 189.3527 12.33
  189.4346 C7H57O3- 1 189.4313 17.56
  189.4699 C8H61O2- 1 189.4677 11.7
  190.121 C9H18O4- 1 190.1211 -0.15
  190.2863 C10H38O2- 1 190.2877 -7.65
  190.5163 C9H66O- 1 190.5119 23.01
  191.0823 C15H11- 1 191.0866 -22.86
  191.1274 C9H19O4- 1 191.1289 -7.86
  191.1465 C13H19O- 1 191.1441 12.52
  191.1758 C14H23- 1 191.1805 -24.82
  191.5063 C5H67O4- 1 191.5045 9.61
  191.537 C6H71O3- 1 191.5409 -20.32
  191.5565 C10H71- 1 191.5561 1.98
  191.9845 C12O3- 1 191.9853 -4.22
  192.2435 C12H32O- 1 192.2459 -12.33
  192.3766 C12H48- 1 192.3762 2.54
  192.6208 C8H80O- 1 192.6215 -3.29
  193.0503 C10H9O4- 1 193.0506 -1.97
  193.2854 C13H37- 1 193.2901 -24.34
  193.3309 C7H45O4- 1 193.3323 -7.39
  193.4592 C7H61O3- 1 193.4626 -17.67
  193.5016 C8H65O2- 1 193.499 13.42
  193.5361 C9H69O- 1 193.5354 3.64
  193.685 C6H89O2- 1 193.6868 -9.27
  194.1149 C15H14- 1 194.1101 24.9
  194.2509 C8H34O4- 1 194.2463 23.84
  194.2941 C13H38- 1 194.2979 -19.73
  195.0469 C13H7O2- 1 195.0452 8.96
  195.1051 C11H15O3- 1 195.1027 12.31
  195.216 C14H27- 1 195.2118 21.51
  195.6288 C4H83O4- 1 195.6297 -4.55
  196.1268 C15H16- 1 196.1257 5.42
  196.2022 C10H28O3- 1 196.2044 -11.39
  196.3922 C8H52O3- 1 196.3922 0.02
  196.5431 C5H72O4- 1 196.5436 -2.63
  196.6492 C8H84O- 1 196.6528 -18.15
  197.3972 C8H53O3- 1 197.4 -14.33
  197.4344 C9H57O2- 1 197.4364 -10.34
  197.5556 C5H73O4- 1 197.5514 21.32
  198.1854 C9H26O4- 1 198.1837 8.86
  198.2735 C8H38O4- 1 198.2776 -20.38
  198.4763 C10H62O- 1 198.4806 -21.58
  199.0555 C16H7- 1 199.0553 0.8
  199.0979 C10H15O4- 1 199.0976 1.4
  199.2451 C14H31- 1 199.2431 9.83
  199.2862 C8H39O4- 1 199.2854 4.27
  199.4162 C8H55O3- 1 199.4157 2.59
  199.5216 C11H67- 1 199.5248 -16.28
  200.0243 C15H4O- 1 200.0268 -12.2
  200.1062 C10H16O4- 1 200.1054 4.13
  200.1533 C15H20- 1 200.157 -18.74
  200.178 C12H24O2- 1 200.1782 -0.96
  200.2384 C10H32O3- 1 200.2357 13.3
  200.2714 C11H36O2- 1 200.2721 -3.27
  200.4185 C8H56O3- 1 200.4235 -24.76
  200.558 C8H72O2- 1 200.5538 20.91
  200.6295 C10H80- 1 200.6266 14.55
  201.0605 C12H9O3- 1 201.0557 23.69
  201.0956 C13H13O2- 1 201.0921 17.57
  201.2042 C9H29O4- 1 201.2071 -14.44
  201.2637 C14H33- 1 201.2588 24.43
  201.3037 C8H41O4- 1 201.301 13
  201.3364 C9H45O3- 1 201.3374 -4.83
  201.3703 C10H49O2- 1 201.3738 -17.51
  201.5596 C8H73O2- 1 201.5616 -9.8
  201.6568 C7H85O2- 1 201.6555 6.26
  202.104 C13H14O2- 1 202.0999 20.07
  202.3103 C8H42O4- 1 202.3089 7.21
  202.5357 C7H70O3- 1 202.533 12.92
  203.1656 C11H23O3- 1 203.1653 1.63
  203.4625 C12H59- 1 203.4622 1.31
  204.0591 C15H8O- 1 204.0581 4.95
  204.1779 C11H24O3- 1 204.1731 23.56
  204.3713 C13H48- 1 204.3762 -23.64
  204.4671 C12H60- 1 204.4701 -14.3
  204.515 C6H68O4- 1 204.5123 13.04
  204.9948 C13HO3- 1 204.9931 8.32
  205.3363 C8H45O4- 1 205.3323 19.32
  205.4466 C11H57O- 1 205.4415 24.68
  206.1272 C13H18O2- 1 206.1312 -19.5
  206.1633 C14H22O- 1 206.1676 -21.11
  206.2005 C15H26- 1 206.204 -16.99
  206.3739 C9H50O3- 1 206.3765 -12.74
  206.6398 C9H82O- 1 206.6371 12.76
  207.0815 C15H11O- 1 207.0815 -0.36
  207.1195 C16H15- 1 207.1179 7.72
  208.4263 C10H56O2- 1 208.4286 -11.15
  208.5757 C7H76O3- 1 208.58 -20.75
  209.192 C14H25O- 1 209.1911 4.13
  209.2874 C13H37O- 1 209.285 11.64
  209.3164 C14H41- 1 209.3214 -23.96
  209.3459 C11H45O2- 1 209.3425 16.24
  209.38 C12H49O- 1 209.3789 5.17
  209.4191 C13H53- 1 209.4153 18.07
  209.5258 C9H69O2- 1 209.5303 -21.66
  210.043 C17H6- 1 210.0475 -21.59
  210.1075 C15H14O- 1 210.105 11.98
  210.1447 C16H18- 1 210.1414 15.49
  210.2325 C15H30- 1 210.2353 -13.16
  210.2799 C9H38O4- 1 210.2776 11.18
  210.4078 C9H54O3- 1 210.4078 -0.05
  210.5914 C7H78O3- 1 210.5956 -20.12
  211.1344 C12H19O3- 1 211.134 2.07
  211.1926 C10H27O4- 1 211.1915 5.46
  211.3592 C11H47O2- 1 211.3582 4.93
  211.4743 C7H63O4- 1 211.4732 5.25
  211.5068 C8H67O3- 1 211.5096 -13.32
  212.1252 C15H16O- 1 212.1207 21.31
  212.3047 C13H40O- 1 212.3085 -17.93
  212.3282 C10H44O3- 1 212.3296 -6.51
  212.3867 C8H52O4- 1 212.3871 -1.89
  212.4242 C9H56O3- 1 212.4235 3.25
  212.5761 C6H76O4- 1 212.5749 5.48
  212.6109 C7H80O3- 1 212.6113 -1.78
  213.0715 C17H9- 1 213.071 2.44
  213.336 C10H45O3- 1 213.3374 -6.68
  213.3506 C14H45- 1 213.3527 -9.68
  213.4858 C7H65O4- 1 213.4888 -14.13
  214.0238 C12H6O4- 1 214.0272 -15.5
  214.5858 C6H78O4- 1 214.5906 -22.27
  215.2956 C12H39O2- 1 215.2956 0.21
  215.3721 C14H47- 1 215.3683 17.32
  215.4447 C9H59O3- 1 215.447 -10.43
  215.5159 C11H67O- 1 215.5197 -17.76
  215.9988 C18- 1 216.0005 -8.23
  216.1123 C14H16O2- 1 216.1156 -15.02
  216.2053 C13H28O2- 1 216.2095 -19.17
  216.2323 C10H32O4- 1 216.2306 8.01
  216.2618 C11H36O3- 1 216.267 -24.04
  216.552 C8H72O3- 1 216.5487 15.25
  216.5827 C9H76O2- 1 216.5851 -11.08
  216.6101 C6H80O4- 1 216.6062 17.77
  217.1073 C17H13- 1 217.1023 22.96
  217.345 C13H45O- 1 217.3476 -11.76
  217.3723 C10H49O3- 1 217.3687 16.59
  217.6317 C10H81O- 1 217.6293 11.04
  218.0954 C13H14O3- 1 218.0948 2.67
  218.1493 C11H22O4- 1 218.1524 -13.84
  218.2487 C10H34O4- 1 218.2463 11.39
  218.3715 C10H50O3- 1 218.3765 -22.94
  218.4678 C9H62O3- 1 218.4704 -12
  218.5099 C10H66O2- 1 218.5068 14.06
  218.5639 C8H74O3- 1 218.5643 -2.26
  218.6699 C11H86- 1 218.6735 -16.59
  219.0431 C15H7O2- 1 219.0452 -9.39
  219.1373 C14H19O2- 1 219.1391 -7.81
  219.2118 C16H27- 1 219.2118 -0.32
  219.5902 C12H75- 1 219.5874 12.52
  219.6085 C9H79O2- 1 219.6086 -0.44
  219.6791 C11H87- 1 219.6813 -10.12
  220.0491 C15H8O2- 1 220.053 -17.49
  220.3522 C9H48O4- 1 220.3558 -16.56
  220.5835 C8H76O3- 1 220.58 15.94
  220.6779 C7H88O3- 1 220.6739 18.31
  221.187 C15H25O- 1 221.1911 -18.47
  221.2875 C14H37O- 1 221.285 11.15
  221.3443 C12H45O2- 1 221.3425 8.18
  221.3815 C13H49O- 1 221.3789 11.68
  221.4737 C12H61O- 1 221.4728 4.19
  221.51 C13H65- 1 221.5092 3.6
  221.5672 C11H73O- 1 221.5667 2.3
  222.3474 C12H46O2- 1 222.3503 -13.29
  222.627 C9H82O2- 1 222.632 -22.74
  223.0088 C13H3O4- 1 223.0037 22.9
  223.0431 C14H7O3- 1 223.0401 13.46
  223.0982 C12H15O4- 1 223.0976 2.62
  223.3602 C12H47O2- 1 223.3582 9.32
  223.5798 C11H75O- 1 223.5823 -11.55
  223.6203 C12H79- 1 223.6187 6.89
  224.0461 C14H8O3- 1 224.0479 -8.14
  224.1549 C17H20- 1 224.157 -9.42
  224.2169 C15H28O- 1 224.2146 10.62
  224.3347 C11H44O3- 1 224.3296 22.54
  224.4559 C11H60O2- 1 224.4599 -17.67
  224.4779 C8H64O4- 1 224.481 -14.02
  224.5953 C11H76O- 1 224.5902 22.96
  225.131 C16H17O- 1 225.1285 11.14
  225.2779 C13H37O2- 1 225.2799 -9
  225.3322 C11H45O3- 1 225.3374 -23.37
  225.4988 C12H65O- 1 225.5041 -23.41
  226.0735 C18H10- 1 226.0788 -23.63
  226.1162 C12H18O4- 1 226.1211 -21.38
  226.4172 C13H54O- 1 226.418 -3.58
  226.5882 C7H78O4- 1 226.5906 -10.4
  227.0921 C18H11- 1 227.0866 23.98
  227.124 C12H19O4- 1 227.1289 -21.29
  227.1608 C13H23O3- 1 227.1653 -19.89
  227.2346 C15H31O- 1 227.238 -14.98
  227.4643 C14H59- 1 227.4622 9.22
  227.5771 C10H75O2- 1 227.5773 -0.69
  227.6344 C8H83O3- 1 227.6348 -1.42
  228.002 C19- 1 228.0005 6.36
  228.1124 C15H16O2- 1 228.1156 -13.81
  229.0702 C17H9O- 1 229.0659 18.68
  229.3307 C10H45O4- 1 229.3323 -6.91
  229.5567 C9H73O3- 1 229.5565 0.82
  229.6185 C7H81O4- 1 229.614 19.4
  230.063 C13H10O4- 1 230.0585 19.61
  230.1926 C13H26O3- 1 230.1887 16.58
  230.2289 C14H30O2- 1 230.2251 16.23
  230.4696 C10H62O3- 1 230.4704 -3.86
  230.5252 C8H70O4- 1 230.528 -11.99
  230.6263 C7H82O4- 1 230.6219 19.33
  231.0415 C16H7O2- 1 231.0452 -15.76
  231.4247 C12H55O2- 1 231.4208 17.11
  231.4891 C14H63- 1 231.4935 -19.3
  231.5521 C12H71O- 1 231.551 4.54
  231.6102 C10H79O2- 1 231.6086 6.95
  232.0298 C19H4- 1 232.0318 -8.99
  232.0578 C16H8O2- 1 232.053 20.78
  232.1104 C14H16O3- 1 232.1105 -0.61
  232.1461 C15H20O2- 1 232.1469 -3.36
  232.2754 C15H36O- 1 232.2772 -7.52
  232.6531 C11H84O- 1 232.6528 1.52
  233.0265 C15H5O3- 1 233.0244 9.04
  233.0873 C13H13O4- 1 233.0819 22.98
  233.396 C11H53O3- 1 233.4 -17.24
  233.4421 C12H57O2- 1 233.4364 24.52
  233.6437 C7H85O4- 1 233.6453 -7.02
  233.6971 C12H89- 1 233.697 0.63
  233.9991 C14H2O4- 1 233.9959 13.74
  234.0288 C15H6O3- 1 234.0322 -14.88
  234.0497 C19H6- 1 234.0475 9.62
  234.4419 C12H58O2- 1 234.4442 -9.89
  234.5363 C11H70O2- 1 234.5381 -7.76
  235.0085 C14H3O4- 1 235.0037 20.3
  235.1154 C17H15O- 1 235.1128 10.83
  235.2281 C13H31O3- 1 235.2279 1.11
  235.2889 C11H39O4- 1 235.2854 14.9
  235.3384 C16H43- 1 235.337 5.88
  235.681 C11H87O- 1 235.6762 20.15
  236.176 C15H24O2- 1 236.1782 -9.02
  236.3051 C15H40O- 1 236.3085 -14.18
  236.4054 C14H52O- 1 236.4024 12.84
  236.9947 C17HO2- 1 236.9982 -14.65
  237.111 C13H17O4- 1 237.1132 -9.33
  237.3758 C13H49O2- 1 237.3738 8.3
  237.507 C13H65O- 1 237.5041 12.07
  237.5775 C8H77O4- 1 237.5827 -21.96
  237.6368 C13H81- 1 237.6344 10.3
  238.0615 C15H10O3- 1 238.0635 -8.46
  238.0774 C19H10- 1 238.0788 -5.86
  238.2845 C14H38O2- 1 238.2877 -13.48
  238.3469 C12H46O3- 1 238.3452 7.13
  238.3827 C13H50O2- 1 238.3816 4.44
  238.5703 C11H74O2- 1 238.5694 3.8
  239.0303 C14H7O4- 1 239.035 -19.57
  239.1295 C13H19O4- 1 239.1289 2.73
  239.3183 C11H43O4- 1 239.3167 6.67
  239.5359 C10H71O3- 1 239.5409 -20.81
  239.6001 C8H79O4- 1 239.5984 7.07
  240.0523 C18H8O- 1 240.0581 -23.96
  240.2703 C13H36O3- 1 240.267 13.76
  240.3626 C12H48O3- 1 240.3609 7.28
  240.4564 C11H60O3- 1 240.4548 6.7
  240.6826 C10H88O2- 1 240.679 15.2
  242.2214 C15H30O2- 1 242.2251 -15.54
  242.2465 C12H34O4- 1 242.2463 1.2
  242.4348 C10H58O4- 1 242.4341 2.91
  243.1763 C17H23O- 1 243.1754 3.44
  243.2594 C12H35O4- 1 243.2541 22.02
  243.4753 C11H63O3- 1 243.4783 -12.32
  243.5304 C9H71O4- 1 243.5358 -22
  243.5861 C14H75- 1 243.5874 -5.27
  244.3361 C14H44O2- 1 244.3347 5.7
  245.0283 C16H5O3- 1 245.0244 15.85
  245.0847 C14H13O4- 1 245.0819 11.49
  245.139 C19H17- 1 245.1336 22.13
  245.17 C13H25O4- 1 245.1758 -23.83
  245.6976 C13H89- 1 245.697 2.54
  246.008 C19H2O- 1 246.0111 -12.63
  246.2327 C18H30- 1 246.2353 -10.48
  246.2965 C16H38O- 1 246.2928 14.77
  246.4801 C14H62O- 1 246.4806 -2.05
  246.5061 C11H66O3- 1 246.5017 17.59
  246.6054 C14H78- 1 246.6109 -22.39
  247.0824 C17H11O2- 1 247.0765 24.04
  247.2794 C12H39O4- 1 247.2854 -24.17
  247.3796 C11H51O4- 1 247.3793 1.25
  247.4107 C12H55O3- 1 247.4157 -19.97
  247.599 C10H79O3- 1 247.6035 -18.17
  248.1034 C14H16O4- 1 248.1054 -8.25
  248.2204 C17H28O- 1 248.2146 23.46
  248.254 C18H32- 1 248.2509 12.32
  248.48 C10H64O4- 1 248.481 -3.87
  248.678 C12H88O- 1 248.6841 -24.5
  249.0186 C15H5O4- 1 249.0193 -2.76
  249.1284 C18H17O- 1 249.1285 -0.2
  249.1609 C19H21- 1 249.1649 -16.01
  249.185 C16H25O2- 1 249.186 -4.18
  249.5232 C11H69O3- 1 249.5252 -7.98
  250.0739 C20H10- 1 250.0788 -19.69
  250.1684 C19H22- 1 250.1727 -17.08
  250.4955 C10H66O4- 1 250.4967 -4.47
  250.6008 C13H78O- 1 250.6058 -20.02
  251.0326 C15H7O4- 1 251.035 -9.56
  251.0846 C20H11- 1 251.0866 -8.16
  251.2185 C13H31O4- 1 251.2228 -17.18
  251.4603 C16H59- 1 251.4622 -7.6
  251.4818 C13H63O2- 1 251.4834 -6.23
  252.0397 C15H8O4- 1 252.0428 -12.3
  252.339 C16H44O- 1 252.3398 -2.86
  252.3652 C13H48O3- 1 252.3609 16.99
  252.4276 C15H56O- 1 252.4337 -24.03
  252.4687 C16H60- 1 252.4701 -5.23
  252.5133 C10H68O4- 1 252.5123 3.78
  253.2578 C17H33O- 1 253.2537 16.39
  253.3457 C16H45O- 1 253.3476 -7.36
  253.366 C13H49O3- 1 253.3687 -10.78
  253.3988 C14H53O2- 1 253.4051 -24.88
  253.5677 C15H73- 1 253.5718 -16.06
  253.6314 C13H81O- 1 253.6293 8.32
  254.2514 C13H34O4- 1 254.2463 20.18
  254.282 C14H38O3- 1 254.2826 -2.59
  254.3339 C12H46O4- 1 254.3402 -24.6
  254.3829 C13H50O3- 1 254.3765 24.9
  254.491 C16H62- 1 254.4857 21
  254.5859 C15H74- 1 254.5796 24.62
  254.642 C13H82O- 1 254.6371 19.12
  255.0848 C19H11O- 1 255.0815 12.75
  255.1053 C16H15O3- 1 255.1027 10.2
  255.1356 C17H19O2- 1 255.1391 -13.63
  255.2851 C14H39O3- 1 255.2905 -21.21
  255.3655 C16H47O- 1 255.3632 8.99
  255.4436 C11H59O4- 1 255.4419 6.89
  255.4804 C12H63O3- 1 255.4783 8.15
  256.0677 C15H12O4- 1 256.0741 -25
  256.2759 C17H36O- 1 256.2772 -5.07
  256.3313 C15H44O2- 1 256.3347 -13.12
  256.3981 C13H52O3- 1 256.3922 23.01
  256.5177 C13H68O2- 1 256.5225 -18.68
  256.5915 C15H76- 1 256.5953 -14.43
  256.6369 C9H84O4- 1 256.6375 -2.5
  257.059 C18H9O2- 1 257.0608 -6.95
  257.1222 C16H17O3- 1 257.1183 15
  257.1921 C18H25O- 1 257.1911 3.94
  257.2817 C17H37O- 1 257.285 -12.79
  257.6261 C12H81O2- 1 257.6242 7.2
  258.1258 C16H18O3- 1 258.1261 -1.44
  258.1802 C14H26O4- 1 258.1837 -13.54
  258.4175 C17H54- 1 258.4231 -21.71
  259.0033 C16H3O4- 1 259.0037 -1.38
  259.1151 C19H15O- 1 259.1128 8.82
  259.3035 C17H39O- 1 259.3006 11.04
  259.4499 C14H59O2- 1 259.4521 -8.26
  259.515 C12H67O3- 1 259.5096 20.86
  260.1053 C15H16O4- 1 260.1054 -0.58
  260.1579 C20H20- 1 260.157 3.24
  260.2113 C18H28O- 1 260.2146 -12.62
  260.3349 C14H44O3- 1 260.3296 20.25
  260.4541 C14H60O2- 1 260.4599 -22.29
  260.5574 C13H72O2- 1 260.5538 13.84
  260.6099 C11H80O3- 1 260.6113 -5.31
  261.1241 C19H17O- 1 261.1285 -16.69
  261.2484 C15H33O3- 1 261.2435 18.79
  261.3423 C14H45O3- 1 261.3374 18.78
  261.37 C15H49O2- 1 261.3738 -14.74
  261.5207 C12H69O3- 1 261.5252 -17.25
  261.6604 C12H85O2- 1 261.6555 18.66
  261.6893 C13H89O- 1 261.6919 -9.89
  262.0584 C17H10O3- 1 262.0635 -19.6
  262.0945 C18H14O2- 1 262.0999 -20.69
  262.2127 C14H30O4- 1 262.215 -8.43
  262.2502 C15H34O3- 1 262.2513 -4.36
  262.342 C14H46O3- 1 262.3452 -12.54
  262.4008 C12H54O4- 1 262.4028 -7.39
  262.508 C15H66O- 1 262.5119 -15.08
  262.6415 C15H82- 1 262.6422 -2.49
  263.0776 C17H11O3- 1 263.0714 23.52
  263.1787 C20H23- 1 263.1805 -7.01
  263.2946 C16H39O2- 1 263.2956 -3.67
  263.3582 C14H47O3- 1 263.3531 19.31
  263.4464 C13H59O3- 1 263.447 -2
  263.4662 C17H59- 1 263.4622 15.17
  263.5107 C11H67O4- 1 263.5045 23.63
  264.0726 C17H12O3- 1 264.0792 -24.88
  264.1523 C19H20O- 1 264.152 1.2
  264.3821 C18H48- 1 264.3762 22.61
  264.4729 C17H60- 1 264.4701 10.62
  264.5585 C16H72- 1 264.564 -20.6
  264.9973 C18HO3- 1 264.9931 15.85
  265.124 C18H17O2- 1 265.1234 2.12
  265.1757 C16H25O3- 1 265.1809 -19.83
  265.2167 C17H29O2- 1 265.2173 -2.17
  265.2415 C14H33O4- 1 265.2384 11.57
  265.3289 C13H45O4- 1 265.3323 -12.76
  265.4594 C13H61O3- 1 265.4626 -12.22
  265.5689 C16H73- 1 265.5718 -11
  266.0151 C22H2- 1 266.0162 -4.2
  266.0439 C19H6O2- 1 266.0373 24.72
  266.0651 C16H10O4- 1 266.0585 24.83
  266.1577 C15H22O4- 1 266.1524 20.2
  266.1975 C20H26- 1 266.204 -24.6
  266.5462 C15H70O- 1 266.5432 11.23
  267.0421 C19H7O2- 1 267.0452 -11.25
  267.0694 C16H11O4- 1 267.0663 11.73
  267.1211 C21H15- 1 267.1179 11.95
  267.1657 C15H23O4- 1 267.1602 20.69
  267.1977 C16H27O3- 1 267.1966 4.28
  267.251 C14H35O4- 1 267.2541 -11.55
  267.3215 C16H43O2- 1 267.3269 -19.87
  267.4421 C12H59O4- 1 267.4419 0.98
  267.6646 C11H87O3- 1 267.6661 -5.63
  267.6841 C15H87- 1 267.6813 10.3
  268.2598 C14H36O4- 1 268.2619 -7.99
  268.3388 C16H44O2- 1 268.3347 15.42
  268.4224 C15H56O2- 1 268.4286 -23.15
  268.4797 C13H64O3- 1 268.4861 -23.8
  268.5194 C14H68O2- 1 268.5225 -11.39
  268.5598 C15H72O- 1 268.5589 3.61
  269.1766 C15H25O4- 1 269.1758 2.79
  269.2213 C20H29- 1 269.2275 -22.85
  269.5668 C15H73O- 1 269.5667 0.4
  269.6616 C14H85O- 1 269.6606 3.68
  270.138 C21H18- 1 270.1414 -12.59
  270.1852 C15H26O4- 1 270.1837 5.79
  270.2339 C20H30- 1 270.2353 -5
  271.1734 C18H23O2- 1 271.1704 11.14
  271.2238 C16H31O3- 1 271.2279 -15.18
  271.2944 C18H39O- 1 271.3006 -22.9
  271.984 C20O2- 1 271.9904 -23.32
  272.2307 C16H32O3- 1 272.2357 -18.42
  272.2551 C20H32- 1 272.2509 15.29
  272.349 C19H44- 1 272.3448 15.23
  272.5581 C14H72O2- 1 272.5538 15.82
  273.1106 C16H17O4- 1 273.1132 -9.81
  273.4011 C13H53O4- 1 273.3949 22.52
  273.4457 C18H57- 1 273.4466 -3.05
  273.6775 C10H89O4- 1 273.6766 3.03
  274.0229 C17H6O4- 1 274.0272 -15.55
  274.1257 C16H18O4- 1 274.1211 17.1
  274.3069 C14H42O4- 1 274.3089 -7.03
  274.4696 C15H62O2- 1 274.4755 -21.69
  275.0896 C22H11- 1 275.0866 10.7
  275.1319 C16H19O4- 1 275.1289 10.88
  275.1715 C17H23O3- 1 275.1653 22.47
  275.2019 C18H27O2- 1 275.2017 0.75
  275.3646 C19H47- 1 275.3683 -13.37
  275.4125 C13H55O4- 1 275.4106 6.78
  275.5378 C13H71O3- 1 275.5409 -11.17
  276.1409 C16H20O4- 1 276.1367 15.01
  276.3093 C17H40O2- 1 276.3034 21.4
  276.4717 C18H60- 1 276.4701 5.87
  276.6254 C15H80O- 1 276.6215 14.08
  277.0264 C20H5O2- 1 277.0295 -11.23
  277.0932 C18H13O3- 1 277.087 22.26
  277.1476 C16H21O4- 1 277.1445 10.97
  277.2338 C15H33O4- 1 277.2384 -16.66
  277.2843 C20H37- 1 277.2901 -20.78
  277.4287 C13H57O4- 1 277.4262 9
  277.4788 C18H61- 1 277.4779 3.41
  277.5599 C13H73O3- 1 277.5565 12.07
  278.0793 C21H10O- 1 278.0737 20.18
  278.1655 C20H22O- 1 278.1676 -7.45
  278.3501 C18H46O- 1 278.3554 -19.01
  278.3764 C15H50O3- 1 278.3765 -0.37
  278.4827 C18H62- 1 278.4857 -10.9
  278.5422 C16H70O- 1 278.5432 -3.78
  278.6254 C11H82O4- 1 278.6219 12.86
  278.6583 C12H86O3- 1 278.6582 0.15
  279.0118 C19H3O3- 1 279.0088 10.97
  279.1078 C18H15O3- 1 279.1027 18.43
  279.1544 C16H23O4- 1 279.1602 -20.54
  279.3535 C14H47O4- 1 279.348 19.78
  279.4434 C13H59O4- 1 279.4419 5.43
  279.4887 C18H63- 1 279.4935 -17.12
  280.0536 C20H8O2- 1 280.053 2.17
  280.259 C15H36O4- 1 280.2619 -10.35
  280.462 C17H60O- 1 280.465 -10.66
  280.5436 C12H72O4- 1 280.5436 -0.07
  281.1024 C21H13O- 1 281.0972 18.52
  281.2063 C17H29O3- 1 281.2122 -21.06
  281.2426 C18H33O2- 1 281.2486 -21.31
  281.2745 C15H37O4- 1 281.2697 16.94
  281.3366 C17H45O2- 1 281.3425 -21.08
  281.5108 C18H65- 1 281.5092 5.87
  281.5506 C12H73O4- 1 281.5514 -2.93
  281.6786 C12H89O3- 1 281.6817 -11.17
  282.0755 C20H10O2- 1 282.0686 24.52
  282.1903 C16H26O4- 1 282.1837 23.46
  282.2396 C21H30- 1 282.2353 15.26
  282.5745 C16H74O- 1 282.5745 -0.12
  282.6347 C14H82O2- 1 282.632 9.51
  282.6626 C15H86O- 1 282.6684 -20.65
  283.0063 C18H3O4- 1 283.0037 9.35
  283.0491 C23H7- 1 283.0553 -22.11
  283.1122 C21H15O- 1 283.1128 -2.23
  283.3429 C20H43- 1 283.337 20.82
  283.4897 C17H63O- 1 283.4884 4.56
  283.5661 C12H75O4- 1 283.5671 -3.55
  283.6159 C17H79- 1 283.6187 -10.01
  284.4286 C15H56O3- 1 284.4235 18.1
  284.4606 C16H60O2- 1 284.4599 2.68
  285.2093 C16H29O4- 1 285.2071 7.51
  285.3585 C20H45- 1 285.3527 20.57
  285.3993 C14H53O4- 1 285.3949 15.23
  286.0254 C18H6O4- 1 286.0272 -6.14
  286.0646 C19H10O3- 1 286.0635 3.59
  286.2629 C21H34- 1 286.2666 -12.83
  286.2813 C18H38O2- 1 286.2877 -22.42
  286.3221 C19H42O- 1 286.3241 -6.96
  286.3519 C16H46O3- 1 286.3452 23.35
  286.4327 C15H58O3- 1 286.4391 -22.38
  286.5283 C14H70O3- 1 286.533 -16.52
  286.5736 C15H74O2- 1 286.5694 14.52
  287.1258 C17H19O4- 1 287.1289 -10.91
  287.1766 C22H23- 1 287.1805 -13.59
  287.2067 C19H27O2- 1 287.2017 17.69
  287.5244 C17H67O- 1 287.5197 16.28
  288.2669 C17H36O3- 1 288.267 -0.28
  288.3097 C18H40O2- 1 288.3034 21.95
  288.4946 C16H64O2- 1 288.4912 11.75
  288.5503 C14H72O3- 1 288.5487 5.46
  288.6737 C14H88O2- 1 288.679 -18.28
  289.0537 C18H9O4- 1 289.0506 10.53
  289.1082 C23H13- 1 289.1023 20.41
  289.1575 C21H21O- 1 289.1598 -7.99
  289.316 C18H41O2- 1 289.3112 16.43
  289.3784 C20H49- 1 289.384 -19.42
  289.4044 C17H53O2- 1 289.4051 -2.3
  289.4708 C19H61- 1 289.4779 -24.49
  289.4971 C16H65O2- 1 289.499 -6.74
  289.5242 C13H69O4- 1 289.5201 13.88
  290.0696 C22H10O- 1 290.0737 -14.26
  290.0959 C19H14O3- 1 290.0948 3.78
  290.5657 C14H74O3- 1 290.5643 4.79
  291.0676 C18H11O4- 1 291.0663 4.69
  291.1544 C17H23O4- 1 291.1602 -19.73
  291.2129 C22H27- 1 291.2118 3.86
  291.2547 C16H35O4- 1 291.2541 1.96
  291.4359 C14H59O4- 1 291.4419 -20.41
  291.5772 C14H75O3- 1 291.5722 17.4
  291.6704 C13H87O3- 1 291.6661 14.83
  292.0015 C23O- 1 291.9955 20.62
  292.0943 C22H12O- 1 292.0894 17
  292.2423 C19H32O2- 1 292.2408 5.24
  292.4323 C17H56O2- 1 292.4286 12.88
  292.479 C15H64O3- 1 292.4861 -24.12
  292.9819 C19HO4- 1 292.988 -20.93
  293.0255 C20H5O3- 1 293.0244 3.72
  293.2178 C18H29O3- 1 293.2122 18.99
  293.3103 C17H41O3- 1 293.3061 14.22
  293.3568 C15H49O4- 1 293.3636 -23.31
  293.4342 C17H57O2- 1 293.4364 -7.57
  293.4894 C15H65O3- 1 293.4939 -15.57
  293.5488 C13H73O4- 1 293.5514 -9.07
  293.5884 C14H77O3- 1 293.5878 2.07
  293.6034 C18H77- 1 293.6031 1.03
  293.6558 C16H85O- 1 293.6606 -16.18
  294.0544 C24H6- 1 294.0475 23.63
  294.0875 C18H14O4- 1 294.0898 -7.75
  294.1276 C19H18O3- 1 294.1261 4.98
  294.3504 C18H46O2- 1 294.3503 0.19
  294.5003 C15H66O3- 1 294.5017 -4.98
  295.142 C23H19- 1 295.1492 -24.55
  295.3744 C15H51O4- 1 295.3793 -16.47
  295.4496 C17H59O2- 1 295.4521 -8.36
  295.4667 C14H63O4- 1 295.4732 -21.94
  295.6381 C15H83O2- 1 295.6399 -5.94
  295.6771 C16H87O- 1 295.6762 2.78
  296.3107 C20H40O- 1 296.3085 7.67
  296.3859 C15H52O4- 1 296.3871 -4.18
  296.5114 C15H68O3- 1 296.5174 -20.33
  296.604 C14H80O3- 1 296.6113 -24.44
  297.0275 C23H5O- 1 297.0346 -24
  297.2114 C17H29O4- 1 297.2071 14.49
  297.4245 C16H57O3- 1 297.4313 -22.83
  297.4704 C17H61O2- 1 297.4677 9.01
  297.6403 C18H81- 1 297.6344 19.82
  297.6705 C12H89O4- 1 297.6766 -20.48
  298.1916 C20H26O2- 1 298.1938 -7.4
  298.4563 C20H58- 1 298.4544 6.52
  299.1721 C19H23O3- 1 299.1653 22.75
  299.2939 C19H39O2- 1 299.2956 -5.56
  299.3637 C21H47- 1 299.3683 -15.59
  299.4203 C19H55O- 1 299.4258 -18.34
  299.5241 C18H67O- 1 299.5197 14.51
  300.2378 C17H32O4- 1 300.2306 24.07
  300.3604 C17H48O3- 1 300.3609 -1.79
  300.5494 C15H72O3- 1 300.5487 2.48
  301.5003 C17H65O2- 1 301.499 4.41
  301.542 C18H69O- 1 301.5354 21.84
  302.0124 C25H2- 1 302.0162 -12.52
  302.0586 C19H10O4- 1 302.0585 0.41
  302.2254 C20H30O2- 1 302.2251 0.97
  302.541 C18H70O- 1 302.5432 -7.23
  302.6176 C13H82O4- 1 302.6219 -14.24
  303.0127 C21H3O3- 1 303.0088 13.07
  303.0481 C22H7O2- 1 303.0452 9.82
  303.1152 C24H15- 1 303.1179 -8.89
  303.1824 C22H23O- 1 303.1754 22.92
  303.3062 C22H39- 1 303.3057 1.61
  303.3643 C20H47O- 1 303.3632 3.41
  303.6144 C16H79O2- 1 303.6086 19.3
  303.6781 C18H87- 1 303.6813 -10.73
  304.2011 C19H28O3- 1 304.2044 -10.71
  304.3936 C17H52O3- 1 304.3922 4.78
  304.4529 C15H60O4- 1 304.4497 10.61
  305.076 C19H13O4- 1 305.0819 -19.53
  305.1485 C21H21O2- 1 305.1547 -20.48
  305.1798 C18H25O4- 1 305.1758 12.98
  305.4299 C18H57O2- 1 305.4364 -21.37
  305.5052 C20H65- 1 305.5092 -13.17
  305.6934 C18H89- 1 305.697 -11.67
  306.1239 C20H18O3- 1 306.1261 -7.28
  306.1636 C21H22O2- 1 306.1625 3.35
  306.1929 C22H26O- 1 306.1989 -19.48
  306.2572 C20H34O2- 1 306.2564 2.66
  306.503 C16H66O3- 1 306.5017 3.98
  306.5685 C18H74O- 1 306.5745 -19.59
  306.6613 C17H86O- 1 306.6684 -23.37
  307.091 C19H15O4- 1 307.0976 -21.58
  307.1162 C23H15O- 1 307.1128 10.89
  307.1894 C18H27O4- 1 307.1915 -6.64
  307.2282 C19H31O3- 1 307.2279 1.18
  307.4916 C19H63O- 1 307.4884 10.32
  307.523 C20H67- 1 307.5248 -5.8
  307.5643 C14H75O4- 1 307.5671 -8.91
  308.2483 C23H32- 1 308.2509 -8.6
  308.3851 C16H52O4- 1 308.3871 -6.4
  308.4851 C15H64O4- 1 308.481 13.22
  308.5948 C18H76O- 1 308.5902 14.86
  309.1904 C21H25O2- 1 309.186 14.22
  309.4098 C20H53O- 1 309.4102 -1.41
  309.5182 C16H69O3- 1 309.5252 -22.62
  309.5936 C18H77O- 1 309.598 -14.33
  309.6499 C16H85O2- 1 309.6555 -18.11
  309.6796 C13H89O4- 1 309.6766 9.47
  310.0567 C21H10O3- 1 310.0635 -22.07
  310.4225 C20H54O- 1 310.418 14.61
  310.5254 C16H70O3- 1 310.533 -24.48
  310.6026 C18H78O- 1 310.6058 -10.25
  311.0485 C24H7O- 1 311.0502 -5.7
  311.0833 C25H11- 1 311.0866 -10.54
  311.1723 C20H23O3- 1 311.1653 22.59
  311.1964 C21H27O2- 1 311.2017 -16.96
  311.3189 C17H43O4- 1 311.3167 7.14
  311.3513 C18H47O3- 1 311.3531 -5.63
  311.4455 C17H59O3- 1 311.447 -4.68
  311.5616 C20H71- 1 311.5561 17.52
  311.6348 C15H83O3- 1 311.6348 0.01
  312.2746 C19H36O3- 2 312.267 24.25
  312.3274 C17H44O4- 1 312.3245 9.41
  312.4716 C21H60- 1 312.4701 5.01
  312.5319 C19H68O- 1 312.5276 13.97
  313.191 C24H25- 1 313.1962 -16.62
  313.3084 C20H41O2- 1 313.3112 -8.96
  313.4626 C17H61O3- 1 313.4626 -0.01
  313.4978 C18H65O2- 1 313.499 -3.94
  313.5938 C17H77O2- 1 313.5929 2.93
  313.6356 C18H81O- 1 313.6293 20.17
  313.686 C16H89O2- 1 313.6868 -2.43
  314.0773 C24H10O- 1 314.0737 11.28
  314.19 C20H26O3- 1 314.1887 4.14
  314.2265 C21H30O2- 1 314.2251 4.33
  314.3211 C20H42O2- 1 314.319 6.51
  314.5047 C18H66O2- 1 314.5068 -6.85
  315.068 C20H11O4- 1 315.0663 5.57
  315.1042 C21H15O3- 1 315.1027 4.95
  315.2879 C19H39O3- 1 315.2905 -8.28
  315.5836 C20H75- 1 315.5874 -12.01
  315.644 C18H83O- 1 315.6449 -2.91
  316.2703 C22H36O- 1 316.2772 -21.73
  316.3737 C21H48O- 1 316.3711 8.44
  317.0044 C25HO- 1 317.0033 3.65
  317.0756 C20H13O4- 1 317.0819 -19.95
  317.2146 C20H29O3- 1 317.2122 7.38
  317.4053 C18H53O3- 1 317.4 16.53
  317.68 C15H89O3- 1 317.6817 -5.46
  318.0407 C26H6- 1 318.0475 -21.29
  318.2425 C24H30- 1 318.2353 22.54
  318.4364 C19H58O2- 1 318.4442 -24.57
  318.6039 C20H78- 1 318.6109 -22.05
  318.6758 C18H86O- 1 318.6684 23.13
  319.1402 C21H19O3- 1 319.134 19.57
  319.1749 C22H23O2- 1 319.1704 14.1
  319.1963 C19H27O4- 1 319.1915 15.04
  319.3882 C21H51O- 1 319.3945 -19.88
  320.1753 C22H24O2- 1 320.1782 -8.87
  320.2081 C23H28O- 1 320.2146 -20.33
  320.3305 C19H44O3- 1 320.3296 2.73
  320.4822 C16H64O4- 1 320.481 3.76
  321.0391 C25H5O- 1 321.0346 14.06
  321.0981 C23H13O2- 1 321.0921 18.59
  321.1535 C21H21O3- 1 321.1496 12.17
  321.3982 C17H53O4- 1 321.3949 10.05
  321.4526 C22H57- 1 321.4466 18.6
  321.5439 C21H69- 1 321.5405 10.78
  321.6058 C19H77O- 1 321.598 24.19
  322.0116 C24H2O2- 1 322.006 17.43
  322.0812 C26H10- 1 322.0788 7.43
  322.2186 C19H30O4- 1 322.215 11.28
  322.2832 C21H38O2- 1 322.2877 -13.9
  322.3553 C23H46- 1 322.3605 -16.21
  322.6587 C17H86O2- 1 322.6633 -14.43
  323.0872 C26H11- 1 323.0866 1.74
  323.4681 C22H59- 1 323.4622 18.02
  323.5278 C20H67O- 1 323.5197 24.79
  323.6071 C19H79O- 1 323.6136 -20.19
  324.1204 C23H16O2- 1 324.1156 14.97
  324.2721 C20H36O3- 1 324.267 15.7
  324.304 C21H40O2- 1 324.3034 1.83
  324.5415 C17H72O3- 1 324.5487 -22.29
  324.5874 C18H76O2- 1 324.5851 7.28
  324.9984 C23HO3- 1 324.9931 16.14
  325.1044 C26H13- 1 325.1023 6.51
  325.3902 C23H49- 1 325.384 19.01
  325.428 C17H57O4- 1 325.4262 5.44
  325.4591 C18H61O3- 1 325.4626 -10.73
  325.5632 C17H73O3- 1 325.5565 20.5
  325.608 C15H81O4- 1 325.614 -18.48
  325.6552 C16H85O3- 1 325.6504 14.66
  326.1823 C21H26O3- 1 326.1887 -19.66
  326.3257 C21H42O2- 1 326.319 20.33
  326.4522 C21H58O- 1 326.4493 8.82
  327.1989 C21H27O3- 1 327.1966 7.18
  327.2565 C19H35O4- 1 327.2541 7.25
  327.31 C24H39- 1 327.3057 13.11
  327.4153 C20H55O2- 1 327.4208 -16.69
  327.5809 C21H75- 1 327.5874 -20.07
  328.015 C23H4O3- 1 328.0166 -4.96
  328.037 C27H4- 1 328.0318 15.84
  328.208 C21H28O3- 1 328.2044 10.93
  328.3552 C18H48O4- 1 328.3558 -1.89
  328.4974 C22H64- 1 328.5014 -11.88
  328.6905 C20H88- 1 328.6892 4.18
  329.064 C24H9O2- 1 329.0608 9.75
  329.2648 C19H37O4- 1 329.2697 -14.89
  329.6177 C18H81O2- 1 329.6242 -19.87
  329.6558 C19H85O- 1 329.6606 -14.46
  330.0143 C26H2O- 1 330.0111 9.76
  330.1085 C25H14O- 1 330.105 10.63
  330.2809 C19H38O4- 1 330.2776 10.1
  330.4205 C23H54- 1 330.4231 -7.74
  330.4615 C17H62O4- 1 330.4654 -11.63
  330.496 C18H66O3- 1 330.5017 -17.3
  331.0468 C23H7O3- 1 331.0401 20.35
  331.1007 C21H15O4- 1 331.0976 9.35
  331.2083 C24H27O- 1 331.2067 4.63
  331.2615 C22H35O2- 1 331.2643 -8.2
  331.2915 C19H39O4- 1 331.2854 18.43
  331.3428 C24H43- 1 331.337 17.39
  331.423 C19H55O3- 2 331.4157 22.24
  331.6242 C21H79- 1 331.6187 16.38
  331.9832 C25O2- 1 331.9904 -21.67
  332.0061 C22H4O4- 1 332.0115 -16.26
  332.1611 C26H20- 1 332.157 12.16
  332.2975 C19H40O4- 1 332.2932 12.83
  332.4832 C17H64O4- 1 332.481 6.53
  332.6126 C17H80O3- 1 332.6113 4.01
  332.6908 C19H88O- 1 332.6841 20.13
  332.9999 C25HO2- 1 332.9982 5.11
  333.3341 C20H45O3- 1 333.3374 -9.91
  333.369 C21H49O2- 1 333.3738 -14.36
  333.3915 C18H53O4- 1 333.3949 -10.15
  333.5378 C22H69- 1 333.5405 -8.08
  333.5594 C19H73O2- 1 333.5616 -6.58
  333.6038 C20H77O- 1 333.598 17.55
  333.6572 C18H85O2- 1 333.6555 5.1
  333.6936 C19H89O- 1 333.6919 5.16
  334.2352 C24H30O- 1 334.2302 14.93
  334.2877 C22H38O2- 1 334.2877 -0.05
  334.3537 C24H46- 1 334.3605 -20.21
  334.5034 C17H66O4- 1 334.4967 20.2
  334.5365 C18H70O3- 1 334.533 10.19
  334.6441 C21H82- 1 334.6422 5.79
  335.0383 C22H7O4- 1 335.035 9.8
  335.0686 C23H11O3- 1 335.0714 -8.16
  335.1576 C22H23O3- 1 335.1653 -22.75
  335.2221 C20H31O4- 1 335.2228 -2.15
  335.2673 C25H35- 2 335.2744 -21.19
  335.3581 C20H47O3- 1 335.3531 15.14
  335.4539 C19H59O3- 2 335.447 20.65
  335.5277 C21H67O- 1 335.5197 23.66
  335.9979 C28- 1 336.0005 -7.99
  336.1101 C24H16O2- 1 336.1156 -16.38
  336.2611 C21H36O3- 1 336.267 -17.59
  336.3593 C20H48O3- 1 336.3609 -4.67
  336.4024 C21H52O2- 1 336.3973 15.19
  336.6265 C20H80O- 1 336.6215 15.08
  336.9999 C24HO3- 1 336.9931 20.18
  337.0654 C26H9O- 1 337.0659 -1.59
  337.2408 C20H33O4- 1 337.2384 7.05
  337.2893 C25H37- 1 337.2901 -2.37
  337.5584 C18H73O3- 1 337.5565 5.56
  337.6888 C18H89O2- 1 337.6868 5.78
  338.2857 C21H38O3- 1 338.2826 8.91
  338.4129 C21H54O2- 1 338.4129 -0.12
  338.6378 C20H82O- 1 338.6371 1.96
  339.1417 C24H19O2- 1 339.1391 7.69
  339.1713 C25H23O- 1 339.1754 -12.11
  339.2466 C20H35O4- 1 339.2541 -22.09
  339.3045 C25H39- 1 339.3057 -3.59
  339.4195 C21H55O2- 1 339.4208 -3.66
  339.5142 C20H67O2- 1 339.5147 -1.25
  339.5463 C21H71O- 1 339.551 -13.82
  339.5886 C22H75- 1 339.5874 3.36
  340.0763 C22H12O4- 1 340.0741 6.45
  340.1891 C25H24O- 1 340.1833 17.1
  340.2456 C23H32O2- 1 340.2408 14.22
  340.3751 C23H48O- 1 340.3711 11.99
  340.4228 C21H56O2- 1 340.4286 -16.92
  340.4972 C23H64- 1 340.5014 -12.22
  340.5245 C20H68O2- 1 340.5225 5.95
  340.6146 C19H80O2- 1 340.6164 -5.34
  340.9868 C23HO4- 1 340.988 -3.48
  341.1683 C21H25O4- 1 341.1758 -22.14
  341.4226 C24H53- 1 341.4153 21.56
  341.5514 C17H73O4- 1 341.5514 -0.2
  342.0292 C24H6O3- 1 342.0322 -9
  342.2581 C23H34O2- 1 342.2564 4.86
  342.288 C24H38O- 1 342.2928 -13.94
  342.5067 C19H66O3- 1 342.5017 14.41
  342.5343 C20H70O2- 1 342.5381 -11.06
  342.5958 C18H78O3- 1 342.5956 0.32
  343.0379 C24H7O3- 1 343.0401 -6.25
  343.1116 C26H15O- 1 343.1128 -3.75
  343.2081 C25H27O- 1 343.2067 4.03
  343.2652 C23H35O2- 1 343.2643 2.65
  343.3343 C25H43- 1 343.337 -7.85
  343.3994 C23H51O- 1 343.3945 14.11
  343.477 C18H63O4- 1 343.4732 10.98
  343.5767 C21H75O- 1 343.5823 -16.33
  343.5993 C18H79O3- 1 343.6035 -12.23
  344.1867 C24H24O2- 1 344.1782 24.68
  344.3857 C19H52O4- 1 344.3871 -3.96
  344.467 C21H60O2- 1 344.4599 20.61
  344.5356 C23H68- 1 344.5327 8.58
  344.6486 C19H84O2- 1 344.6477 2.55
  345.0374 C27H5O- 1 345.0346 8.11
  345.2239 C25H29O- 1 345.2224 4.44
  345.5171 C19H69O3- 1 345.5252 -23.42
  345.5479 C23H69- 1 345.5405 21.59
  346.0581 C24H10O3- 1 346.0635 -15.62
  346.1323 C26H18O- 1 346.1363 -11.68
  346.3634 C25H46- 1 346.3605 8.43
  346.3902 C22H50O2- 1 346.3816 24.69
  346.4171 C23H54O- 1 346.418 -2.75
  346.6239 C18H82O3- 1 346.6269 -8.83
  347.0404 C23H7O4- 1 347.035 15.71
  347.111 C25H15O2- 1 347.1078 9.33
  347.3932 C22H51O2- 1 347.3895 10.72
  347.479 C21H63O2- 1 347.4834 -12.53
  347.5417 C19H71O3- 1 347.5409 2.33
  347.6745 C19H87O2- 1 347.6712 9.74
  348.0238 C26H4O2- 1 348.0217 5.97
  348.0632 C27H8O- 1 348.0581 14.82
  348.1811 C27H24- 2 348.1883 -20.72
  348.2271 C21H32O4- 1 348.2306 -10.2
  348.2786 C26H36- 1 348.2822 -10.57
  348.4919 C21H64O2- 1 348.4912 2.06
  349.1583 C26H21O- 1 349.1598 -4.32
  349.2192 C24H29O2- 1 349.2173 5.33
  349.2536 C25H33O- 1 349.2537 -0.31
  349.4029 C22H53O2- 1 349.4051 -6.24
  349.9995 C25H2O3- 1 350.0009 -4.24
  350.0761 C27H10O- 1 350.0737 6.94
  350.1123 C28H14- 1 350.1101 6.28
  350.242 C21H34O4- 1 350.2463 -12.21
  350.3543 C24H46O- 1 350.3554 -3.07
  350.3976 C25H50- 1 350.3918 16.66
  350.4924 C24H62- 1 350.4857 19.09
  350.527 C18H70O4- 1 350.528 -2.69
  350.6535 C18H86O3- 1 350.6582 -13.61
  351.0593 C23H11O4- 1 351.0663 -19.79
  351.2252 C24H31O2- 1 351.233 -22.09
  351.4871 C24H63- 1 351.4935 -18.17
  351.653 C21H83O- 1 351.6449 23
  352.0252 C29H4- 2 352.0318 -18.92
  352.1593 C22H24O4- 1 352.168 -24.75
  352.1913 C26H24O- 1 352.1833 22.72
  352.2962 C22H40O3- 1 352.2983 -5.98
  352.3368 C23H44O2- 1 352.3347 5.93
  352.4831 C20H64O3- 1 352.4861 -8.36
  352.5851 C19H76O3- 1 352.58 14.42
  352.6449 C17H84O4- 2 352.6375 21.04
  352.6921 C22H88- 1 352.6892 8.49
  353.0078 C28HO- 1 353.0033 12.91
  353.103 C27H13O- 1 353.0972 16.55
  353.1737 C22H25O4- 1 353.1758 -6.17
  353.222 C27H29- 1 353.2275 -15.48
  353.3126 C22H41O3- 2 353.3061 18.46
  353.3926 C21H53O3- 1 353.4 -20.94
  353.481 C23H61O- 1 353.4728 23.3
  353.5391 C21H69O2- 1 353.5303 24.8
  354.1343 C28H18- 2 354.1414 -20.19
  354.3678 C20H50O4- 1 354.3715 -10.38
  354.4093 C21H54O3- 1 354.4078 4.05
  354.4943 C20H66O3- 1 354.5017 -20.89
  355.0568 C29H7- 1 355.0553 4.28
  355.0976 C23H15O4- 1 355.0976 -0.07
  355.1311 C24H19O3- 1 355.134 -8.08
  355.3598 C23H47O2- 1 355.3582 4.55
  355.4098 C21H55O3- 1 355.4157 -16.49
  355.5159 C20H67O3- 1 355.5096 17.72
  356.3267 C22H44O3- 1 356.3296 -8.13
  356.4354 C25H56- 1 356.4388 -9.48
  356.4817 C19H64O4- 1 356.481 1.93
  356.5392 C24H68- 1 356.5327 18.37
  356.6155 C19H80O3- 1 356.6113 11.8
  357.2184 C26H29O- 1 357.2224 -11.13
  357.2731 C24H37O2- 1 357.2799 -19.12
  357.3414 C22H45O3- 1 357.3374 11.1
  357.4634 C22H61O2- 1 357.4677 -12.11
  357.5767 C18H77O4- 1 357.5827 -16.76
  357.6504 C20H85O2- 1 357.6555 -14.3
  358.0248 C24H6O4- 1 358.0272 -6.48
  358.1893 C25H26O2- 1 358.1938 -12.52
  358.35 C22H46O3- 1 358.3452 13.21
  358.4218 C24H54O- 1 358.418 10.59
  358.6147 C22H78O- 1 358.6058 24.7
  359.1218 C23H19O4- 1 359.1289 -19.7
  359.3161 C21H43O4- 1 359.3167 -1.5
  359.3725 C26H47- 1 359.3683 11.75
  359.4619 C25H59- 1 359.4622 -0.98
  359.4956 C19H67O4- 1 359.5045 -24.8
  359.6365 C19H83O3- 1 359.6348 4.7
  360.1322 C23H20O4- 1 360.1367 -12.6
  360.2766 C27H36- 1 360.2822 -15.64
  360.532 C23H68O- 1 360.5276 12.22
  360.615 C22H80O- 2 360.6215 -17.83
  361.054 C24H9O4- 1 361.0506 9.31
  361.23 C22H33O4- 1 361.2384 -23.45
  361.2623 C26H33O- 1 361.2537 23.96
  361.3969 C23H53O2- 1 361.4051 -22.69
  361.565 C24H73- 2 361.5718 -18.7
  361.6693 C23H85- 1 361.6657 10.04
  362.0741 C28H10O- 1 362.0737 0.96
  362.171 C27H22O- 1 362.1676 9.36
  362.197 C28H26- 2 362.204 -19.43
  362.2562 C26H34O- 1 362.2615 -14.56
  362.3134 C24H42O2- 1 362.319 -15.48
  362.3385 C21H46O4- 1 362.3402 -4.58
  362.6449 C22H82O- 1 362.6371 21.38
  363.0189 C30H3- 1 363.024 -14.14
  363.3313 C24H43O2- 1 363.3269 12.17
  363.4798 C21H63O3- 1 363.4783 4.2
  363.6459 C22H83O- 1 363.6449 2.58
  363.6845 C23H87- 1 363.6813 8.62
  364.0279 C30H4- 1 364.0318 -10.89
  364.314 C27H40- 1 364.3135 1.33
  364.3386 C24H44O2- 1 364.3347 10.71
  364.4782 C21H64O3- 1 364.4861 -21.57
  364.5247 C22H68O2- 1 364.5225 6.07
  365.0224 C26H5O3- 1 365.0244 -5.63
  365.1167 C25H17O3- 1 365.1183 -4.41
  365.1727 C23H25O4- 1 365.1758 -8.61
  365.2808 C26H37O- 1 365.285 -11.41
  365.3259 C27H41- 1 365.3214 12.31
  365.4341 C23H57O2- 1 365.4364 -6.31
  365.5515 C19H73O4- 1 365.5514 0.28
  365.6169 C21H81O2- 1 365.6242 -19.97
  365.6512 C18H85O4- 1 365.6453 15.93
  366.0202 C29H2O- 1 366.0111 24.9
  366.2898 C26H38O- 1 366.2928 -8.31
  366.3519 C24H46O2- 1 366.3503 4.35
  366.6534 C18H86O4- 1 366.6532 0.59
  367.0537 C30H7- 1 367.0553 -4.49
  367.1998 C27H27O- 2 367.2067 -18.93
  367.2334 C24H31O3- 1 367.2279 15.19
  367.3182 C23H43O3- 1 367.3218 -9.7
  367.6456 C21H83O2- 1 367.6399 15.67
  368.0138 C25H4O4- 1 368.0115 6.19
  368.044 C26H8O3- 1 368.0479 -10.61
  368.1328 C25H20O3- 1 368.1418 -24.32
  368.2303 C24H32O3- 1 368.2357 -14.51
  368.2918 C22H40O4- 1 368.2932 -3.94
  368.3412 C27H44- 1 368.3448 -9.83
  368.4213 C22H56O3- 1 368.4235 -5.97
  368.5242 C21H68O3- 2 368.5174 18.43
  368.9981 C28HO2- 1 368.9982 -0.41
  369.0513 C26H9O3- 1 369.0557 -11.86
  369.2773 C25H37O2- 1 369.2799 -7.06
  369.4534 C26H57- 1 369.4466 18.55
  369.699 C22H89O- 1 369.6919 19.18
  370.1858 C26H26O2- 1 370.1938 -21.6
  370.257 C24H34O3- 1 370.2513 15.15
  370.3059 C22H42O4- 1 370.3089 -7.89
  370.413 C25H54O- 1 370.418 -13.67
  370.4781 C23H62O2- 1 370.4755 6.93
  371.1027 C27H15O2- 1 371.1078 -13.52
  371.1749 C29H23- 1 371.1805 -15.28
  371.4024 C21H55O4- 1 371.4106 -22.03
  371.4649 C26H59- 1 371.4622 7.33
  371.5174 C24H67O- 1 371.5197 -6.2
  371.6742 C21H87O2- 1 371.6712 8.32
  372.0543 C29H8O- 1 372.0581 -10.03
  372.4562 C22H60O3- 1 372.4548 3.75
  372.5364 C24H68O- 1 372.5276 23.6
  373.0561 C25H9O4- 1 373.0506 14.59
  373.1321 C27H17O2- 1 373.1234 23.37
  373.1785 C25H25O3- 1 373.1809 -6.43
  373.212 C26H29O2- 1 373.2173 -14.23
  373.3611 C23H49O3- 1 373.3687 -20.34
  373.398 C24H53O2- 1 373.4051 -19.16
  373.4571 C22H61O3- 1 373.4626 -14.65
  373.5733 C25H73- 1 373.5718 4.16
  373.6631 C24H85- 1 373.6657 -6.97
  374.0017 C27H2O3- 1 374.0009 1.93
  374.1395 C27H18O2- 1 374.1312 22.02
  374.2437 C23H34O4- 1 374.2463 -6.85
  374.336 C22H46O4- 1 374.3402 -11.11
  374.4573 C25H58O- 1 374.4493 21.37
  374.4749 C22H62O3- 1 374.4704 11.91
  374.5976 C22H78O2- 1 374.6007 -8.44
  374.6641 C20H86O3- 1 374.6582 15.61
  375.0022 C27H3O3- 1 375.0088 -17.4
  375.094 C26H15O3- 1 375.1027 -23.09
  375.4279 C24H55O2- 1 375.4208 19.09
  375.5087 C23H67O2- 1 375.5147 -15.79
  375.5403 C20H71O4- 1 375.5358 12.07
  375.5568 C24H71O- 1 375.551 15.3
  375.6055 C22H79O2- 1 375.6086 -8.11
  376.0843 C29H12O- 1 376.0894 -13.45
  376.1861 C28H24O- 1 376.1833 7.42
  376.4926 C22H64O3- 2 376.4861 17.38
  376.614 C22H80O2- 1 376.6164 -6.32
  376.6579 C23H84O- 1 376.6528 13.63
  377.0038 C30HO- 1 377.0033 1.33
  377.0744 C25H13O4- 1 377.0819 -19.93
  377.1765 C24H25O4- 1 377.1758 1.82
  377.3848 C26H49O- 1 377.3789 15.57
  377.4308 C24H57O2- 1 377.4364 -14.74
  377.4681 C25H61O- 1 377.4728 -12.55
  377.6205 C22H81O2- 1 377.6242 -9.82
  378.0599 C28H10O2- 1 378.0686 -23
  378.1994 C28H26O- 1 378.1989 1.2
  378.2289 C29H30- 2 378.2353 -16.91
  378.2753 C23H38O4- 1 378.2776 -6.06
  378.3237 C28H42- 1 378.3292 -14.51
  379.1172 C29H15O- 1 379.1128 11.59
  379.3034 C27H39O- 1 379.3006 7.4
  379.4103 C23H55O3- 1 379.4157 -14.22
  380.4991 C25H64O- 1 380.4963 7.57
  380.5888 C24H76O- 1 380.5902 -3.68
  381.5097 C25H65O- 1 381.5041 14.66
  381.5401 C26H69- 1 381.5405 -1.03
  381.6329 C25H81- 1 381.6344 -3.75
  381.6864 C23H89O- 1 381.6919 -14.26
  382.0418 C30H6O- 1 382.0424 -1.69
  382.1089 C28H14O2- 1 382.0999 23.51
  382.177 C30H22- 1 382.1727 11.18
  382.2443 C25H34O3- 1 382.2513 -18.3
  382.2854 C26H38O2- 1 382.2877 -6.16
  382.4098 C22H54O4- 2 382.4028 18.48
  382.4761 C24H62O2- 1 382.4755 1.47
  382.5182 C25H66O- 1 382.5119 16.42
  382.6247 C21H82O3- 1 382.6269 -5.97
  382.6645 C22H86O2- 1 382.6633 3.18
  383.0743 C27H11O3- 1 383.0714 7.76
  383.1284 C25H19O4- 1 383.1289 -1.25
  383.221 C24H31O4- 1 383.2228 -4.75
  383.4863 C24H63O2- 1 383.4834 7.58
  383.5736 C23H75O2- 1 383.5773 -9.6
  383.998 C32- 1 384.0005 -6.59
  384.1066 C28H16O2- 1 384.1156 -23.46
  384.2983 C26H40O2- 1 384.3034 -13.33
  384.3492 C27H44O- 1 384.3398 24.63
  384.5298 C25H68O- 1 384.5276 5.81
  384.6553 C25H84- 1 384.6579 -6.51
  385.0569 C26H9O4- 2 385.0506 16.39
  385.3324 C23H45O4- 1 385.3323 0.28
  385.5061 C24H65O2- 1 385.499 18.48
  385.5841 C23H77O2- 1 385.5929 -22.76
  385.681 C22H89O2- 1 385.6868 -15.04
  386.071 C30H10O- 1 386.0737 -6.96
  386.2018 C30H26- 1 386.204 -5.73
  386.2342 C27H30O2- 1 386.2251 23.37
  386.3028 C29H38- 1 386.2979 12.69
  386.4108 C25H54O2- 1 386.4129 -5.51
  386.6791 C25H86- 1 386.6735 14.42
  387.1333 C28H19O2- 1 387.1391 -14.8
  387.1936 C26H27O3- 1 387.1966 -7.75
  387.3337 C26H43O2- 1 387.3269 17.56
  387.3666 C27H47O- 1 387.3632 8.59
  387.4388 C22H59O4- 1 387.4419 -7.98
  387.573 C22H75O3- 1 387.5722 2.05
  387.6056 C23H79O2- 1 387.6086 -7.75
  387.9812 C27O4- 1 387.9802 2.65
  388.0697 C26H12O4- 1 388.0741 -11.23
  388.1318 C31H16- 1 388.1257 15.7
  388.2626 C24H36O4- 1 388.2619 1.74
  388.4274 C25H56O2- 1 388.4286 -3.04
  389.09 C30H13O- 2 389.0972 -18.58
  389.1309 C31H17- 1 389.1336 -6.96
  389.2208 C30H29- 2 389.2275 -17.14
  389.2712 C24H37O4- 1 389.2697 3.74
  389.4039 C24H53O3- 1 389.4 9.89
  389.4664 C26H61O- 2 389.4728 -16.38
  389.5256 C24H69O2- 1 389.5303 -12.08
  389.6028 C26H77- 1 389.6031 -0.8
  390.3542 C26H46O2- 1 390.3503 9.84
  390.4384 C25H58O2- 1 390.4442 -14.84
  390.6409 C23H82O2- 1 390.632 22.75
  391.0434 C28H7O3- 1 391.0401 8.43
  391.256 C27H35O2- 1 391.2643 -21.15
  392.0181 C27H4O4- 2 392.0115 16.89
  392.2756 C27H36O2- 1 392.2721 8.98
  392.3258 C25H44O3- 1 392.3296 -9.68
  392.3843 C23H52O4- 1 392.3871 -7.22
  392.5155 C23H68O3- 1 392.5174 -4.94
  392.5891 C25H76O- 1 392.5902 -2.72
  393.2488 C26H33O3- 1 393.2435 13.41
  393.2953 C24H41O4- 1 393.301 -14.57
  393.3472 C29H45- 2 393.3527 -14.01
  393.6118 C22H81O3- 1 393.6191 -18.65
  394.0366 C31H6O- 2 394.0424 -14.84
  394.3659 C29H46- 1 394.3605 13.79
  394.4216 C27H54O- 1 394.418 9.17
  394.4536 C28H58- 1 394.4544 -2.15
  395.0078 C30H3O2- 1 395.0139 -15.22
  395.0431 C31H7O- 2 395.0502 -18.12
  395.1467 C30H19O- 1 395.1441 6.48
  395.2141 C25H31O4- 1 395.2228 -22.06
  395.5034 C22H67O4- 1 395.5045 -2.72
  395.5494 C27H71- 2 395.5561 -16.92
  396.1249 C29H16O2- 1 396.1156 23.56
  396.3767 C29H48- 1 396.3762 1.29
  396.4593 C24H60O3- 1 396.4548 11.24
  396.5535 C23H72O3- 1 396.5487 12.08
  396.5842 C24H76O2- 1 396.5851 -2.16
  397.1666 C30H21O- 1 397.1598 17.1
  397.2588 C29H33O- 1 397.2537 12.9
  397.4106 C26H53O2- 1 397.4051 13.85
  397.4381 C27H57O- 1 397.4415 -8.43
  397.6271 C25H81O- 1 397.6293 -5.59
  397.6851 C23H89O2- 1 397.6868 -4.35
  398.0551 C27H10O4- 1 398.0585 -8.45
  398.0915 C28H14O3- 1 398.0948 -8.48
  398.1538 C26H22O4- 1 398.1524 3.56
  398.2037 C31H26- 1 398.204 -0.82
  398.3668 C25H50O3- 1 398.3765 -24.43
  398.4194 C26H54O2- 1 398.4129 16.29
  398.4884 C28H62- 1 398.4857 6.79
  398.5711 C23H74O3- 2 398.5643 16.99
  399.1001 C28H15O3- 1 399.1027 -6.53
  399.2294 C28H31O2- 1 399.233 -8.85
  399.3224 C27H43O2- 1 399.3269 -11.06
  399.3891 C25H51O3- 1 399.3844 11.96
  399.4417 C23H59O4- 1 399.4419 -0.51
  399.4806 C24H63O3- 1 399.4783 5.9
  399.5943 C27H75- 1 399.5874 17.16
  400.0168 C29H4O3- 1 400.0166 0.54
  400.2064 C27H28O3- 1 400.2044 4.99
  400.2591 C25H36O4- 1 400.2619 -7.1
  400.3868 C25H52O3- 1 400.3922 -13.37
  400.616 C24H80O2- 1 400.6164 -0.9
  400.6841 C26H88- 1 400.6892 -12.53
  401.042 C33H5- 1 401.0397 5.75
  401.0823 C27H13O4- 1 401.0819 0.9
  401.2061 C27H29O3- 1 401.2122 -15.34
  401.2816 C29H37O- 1 401.285 -8.48
  401.4819 C27H61O- 1 401.4728 22.72
  401.5666 C26H73O- 1 401.5667 -0.23
  401.639 C21H85O4- 1 401.6453 -15.78
  402.033 C29H6O3- 1 402.0322 1.76
  402.0646 C30H10O2- 1 402.0686 -10.1
  402.1133 C31H14O- 1 402.105 20.73
  402.2612 C28H34O2- 1 402.2564 11.78
  402.4985 C24H66O3- 1 402.5017 -8.07
  402.638 C24H82O2- 1 402.632 14.72
  403.0735 C30H11O2- 1 403.0765 -7.22
  403.1604 C29H23O2- 1 403.1704 -24.74
  403.2994 C29H39O- 1 403.3006 -3.05
  403.4246 C29H55- 2 403.4309 -15.61
  403.4646 C23H63O4- 1 403.4732 -21.26
  403.4962 C27H63O- 1 403.4884 19.11
  403.5316 C28H67- 1 403.5248 16.76
  403.5712 C22H75O4- 1 403.5671 10.28
  403.6439 C24H83O2- 1 403.6399 10.06
  403.6649 C21H87O4- 1 403.661 9.75
  404.0653 C33H8- 1 404.0631 5.31
  404.1224 C31H16O- 1 404.1207 4.3
  404.1857 C29H24O2- 1 404.1782 18.56
  404.2476 C31H32- 1 404.2509 -8.2
  404.3662 C27H48O2- 1 404.366 0.48
  404.5493 C25H72O2- 1 404.5538 -11.16
  404.6444 C24H84O2- 1 404.6477 -8.09
  405.1998 C26H29O4- 1 405.2071 -18.09
  405.3569 C30H45- 1 405.3527 10.47
  405.4128 C28H53O- 1 405.4102 6.48
  405.4845 C23H65O4- 1 405.4888 -10.75
  405.6121 C23H81O3- 1 405.6191 -17.32
  405.7013 C25H89O- 1 405.6919 23.24
  406.0388 C32H6O- 1 406.0424 -8.83
  406.2227 C30H30O- 2 406.2302 -18.55
  406.2851 C28H38O2- 1 406.2877 -6.52
  406.3199 C29H42O- 1 406.3241 -10.45
  406.5128 C27H66O- 1 406.5119 2.27
  406.5666 C25H74O2- 1 406.5694 -7.07
  406.607 C26H78O- 1 406.6058 3
  407.0557 C32H7O- 1 407.0502 13.36
  407.217 C26H31O4- 1 407.2228 -14.29
  407.2943 C28H39O2- 1 407.2956 -3.1
  407.3343 C29H43O- 1 407.3319 5.78
  407.4647 C29H59- 1 407.4622 6.12
  407.5221 C27H67O- 1 407.5197 5.82
  407.5988 C22H79O4- 1 407.5984 1.05
  408.018 C31H4O2- 1 408.0217 -9.01
  408.0956 C33H12- 1 408.0944 2.8
  408.475 C29H60- 1 408.4701 12.1
  408.9937 C30HO3- 1 408.9931 1.39
  409.1839 C28H25O3- 1 409.1809 7.25
  409.2269 C29H29O2- 1 409.2173 23.46
  409.3588 C26H49O3- 1 409.3687 -24.16
  409.6076 C22H81O4- 1 409.614 -15.78
  409.9976 C30H2O3- 1 410.0009 -8.18
  410.1177 C33H14- 1 410.1101 18.43
  410.1493 C27H22O4- 1 410.1524 -7.46
  410.1894 C28H26O3- 1 410.1887 1.72
  410.2724 C27H38O3- 1 410.2826 -24.85
  410.3166 C28H42O2- 1 410.319 -5.81
  411.2541 C26H35O4- 1 411.2541 -0.06
  411.3441 C25H47O4- 1 411.348 -9.38
  411.4217 C27H55O2- 1 411.4208 2.33
  411.5134 C26H67O2- 1 411.5147 -3.14
  411.5829 C28H75- 1 411.5874 -11.07
  411.6604 C23H87O3- 1 411.6661 -13.67
  411.9995 C33O- 1 411.9955 9.87
  412.3624 C25H48O4- 2 412.3558 15.91
  412.486 C25H64O3- 1 412.4861 -0.34
  413.0393 C34H5- 1 413.0397 -0.79
  413.1384 C33H17- 1 413.1336 11.68
  413.2761 C26H37O4- 2 413.2697 15.47
  413.4827 C28H61O- 1 413.4728 24.01
  414.02 C33H2O- 1 414.0111 21.44
  414.1897 C27H26O4- 2 414.1837 14.65
  414.2618 C29H34O2- 1 414.2564 13.01
  414.2822 C26H38O4- 1 414.2776 11.27
  414.3436 C28H46O2- 1 414.3503 -16.28
  414.6064 C28H78- 1 414.6109 -10.9
  415.0224 C33H3O- 1 415.0189 8.26
  415.1093 C32H15O- 1 415.1128 -8.49
  415.1636 C30H23O2- 1 415.1704 -16.23
  415.2218 C28H31O3- 1 415.2279 -14.64
  415.2875 C26H39O4- 1 415.2854 5.15
  415.3308 C31H43- 2 415.337 -15.01
  415.4513 C27H59O2- 1 415.4521 -1.88
  415.5203 C29H67- 1 415.5248 -11.01
  415.5455 C26H71O2- 1 415.546 -1
  415.5864 C27H75O- 1 415.5823 9.84
  415.6252 C28H79- 1 415.6187 15.55
  415.6609 C22H87O4- 1 415.661 -0.14
  415.9822 C32O2- 1 415.9904 -19.55
  416.2004 C27H28O4- 1 416.1993 2.65
  416.2517 C32H32- 1 416.2509 1.73
  416.6339 C28H80- 1 416.6266 17.55
  417.1657 C33H21- 1 417.1649 2.09
  417.2542 C32H33- 1 417.2588 -10.93
  417.48 C24H65O4- 1 417.4888 -21.08
  417.5862 C23H77O4- 1 417.5827 8.41
  418.0953 C31H14O2- 1 418.0999 -11.06
  418.1734 C33H22- 1 418.1727 1.61
  418.2406 C31H30O- 1 418.2302 24.78
  418.3186 C30H42O- 2 418.3241 -13.23
  418.5206 C28H66O- 1 418.5119 20.69
  419.0925 C34H11- 1 419.0866 13.93
  419.1557 C29H23O3- 1 419.1653 -22.87
  419.4539 C26H59O3- 2 419.447 16.6
  419.5668 C26H75O2- 1 419.5773 -24.98
  419.6672 C25H87O2- 1 419.6712 -9.37
  420.0133 C32H4O2- 1 420.0217 -19.91
  420.0615 C33H8O- 1 420.0581 8.1
  420.1305 C28H20O4- 1 420.1367 -14.89
  420.1803 C29H24O3- 2 420.1731 17.16
  420.2883 C32H36- 1 420.2822 14.44
  420.3454 C30H44O- 1 420.3398 13.29
  420.5415 C25H72O3- 1 420.5487 -17.2
  420.6172 C27H80O- 1 420.6215 -10.07
  421.1995 C33H25- 1 421.1962 7.81
  421.2238 C30H29O2- 1 421.2173 15.51
  421.2681 C28H37O3- 1 421.2748 -16.06
  421.3854 C31H49- 1 421.384 3.42
  421.4562 C26H61O3- 1 421.4626 -15.34
  422.0605 C29H10O4- 1 422.0585 4.81
  422.0865 C30H14O3- 1 422.0948 -19.73
  422.1225 C31H18O2- 1 422.1312 -20.63
  422.1676 C32H22O- 1 422.1676 -0.08
  422.4286 C25H58O4- 1 422.4341 -12.84
  422.637 C27H82O- 1 422.6371 -0.26
  423.0352 C32H7O2- 1 423.0452 -23.44
  423.0769 C33H11O- 1 423.0815 -10.85
  423.2058 C33H27- 2 423.2118 -14.31
  423.5047 C27H67O2- 1 423.5147 -23.39
  423.6129 C26H79O2- 1 423.6086 10.3
  424.104 C30H16O3- 1 424.1105 -15.3
  424.1573 C31H20O2- 1 424.1469 24.56
  424.2641 C27H36O4- 1 424.2619 5.26
  424.3524 C26H48O4- 1 424.3558 -7.93
  424.4752 C29H60O- 1 424.465 24.17
  424.5439 C24H72O4- 1 424.5436 0.59
  424.6204 C26H80O2- 1 424.6164 9.56
  424.6494 C27H84O- 1 424.6528 -8.03
  425.0778 C29H13O4- 1 425.0819 -9.75
  425.1071 C33H13O- 1 425.0972 23.21
  425.1766 C28H25O4- 1 425.1758 1.81
  425.2107 C29H29O3- 1 425.2122 -3.55
  425.3419 C29H45O2- 1 425.3425 -1.45
  425.42 C31H53- 1 425.4153 11.11
  425.4631 C25H61O4- 2 425.4575 12.97
  425.6891 C24H89O3- 2 425.6817 17.42
  425.9913 C30H2O4- 1 425.9959 -10.62
  426.0347 C31H6O3- 1 426.0322 5.79
  426.2181 C29H30O3- 1 426.22 -4.55
  426.2968 C31H38O- 1 426.2928 9.29
  426.3474 C29H46O2- 1 426.3503 -6.96
  426.4069 C27H54O3- 1 426.4078 -2.13
  426.4448 C28H58O2- 1 426.4442 1.28
  426.5015 C26H66O3- 1 426.5017 -0.65
  426.659 C23H86O4- 2 426.6532 13.63
  427.0342 C31H7O3- 1 427.0401 -13.63
  427.1222 C33H15O- 1 427.1128 21.83
  427.2095 C32H27O- 1 427.2067 6.39
  427.2905 C27H39O4- 2 427.2854 11.91
  427.4635 C25H63O4- 1 427.4732 -22.63
  427.4986 C29H63O- 1 427.4884 23.86
  427.5523 C27H71O2- 1 427.546 14.82
  428.1834 C31H24O2- 1 428.1782 12.1
  428.4041 C30H52O- 1 428.4024 3.94
  428.4899 C29H64O- 2 428.4963 -14.89
  429.0267 C30H5O4- 2 429.0193 17.23
  429.1898 C31H25O2- 1 429.186 8.85
  429.4949 C25H65O4- 2 429.4888 14.16
  429.6389 C29H81- 1 429.6344 10.56
  430.1525 C30H22O3- 1 430.1574 -11.46
  430.2855 C30H38O2- 1 430.2877 -5.14
  430.4661 C28H62O2- 1 430.4755 -21.85
  430.4997 C25H66O4- 1 430.4967 7.07
  430.5253 C26H70O3- 1 430.533 -17.93
  430.6407 C29H82- 1 430.6422 -3.39
  431.0443 C34H7O- 2 431.0502 -13.86
  431.1203 C29H19O4- 1 431.1289 -19.99
  431.2046 C31H27O2- 1 431.2017 6.93
  431.2813 C33H35- 1 431.2744 15.99
  431.3282 C31H43O- 1 431.3319 -8.55
  431.4654 C31H59- 1 431.4622 7.36
  431.5993 C24H79O4- 1 431.5984 2.13
  431.6293 C25H83O3- 1 431.6348 -12.71
  431.9835 C32O3- 1 431.9853 -4.19
  432.3752 C32H48- 1 432.3762 -2.14
  432.4346 C30H56O- 1 432.4337 2.2
  433.2005 C34H25- 1 433.1962 9.95
  433.2508 C32H33O- 1 433.2537 -6.75
  433.2863 C33H37- 1 433.2901 -8.79
  433.3503 C31H45O- 1 433.3476 6.24
  434.0061 C32H2O3- 2 434.0009 11.91
  434.1077 C35H14- 1 434.1101 -5.56
  434.2277 C31H30O2- 1 434.2251 5.88
  435.0297 C36H3- 1 435.024 13.15
  435.0834 C34H11O- 1 435.0815 4.34
  435.1296 C32H19O2- 1 435.1391 -21.72
  435.2684 C32H35O- 1 435.2693 -2.06
  436.0557 C33H8O2- 1 436.053 6.25
  436.189 C33H24O- 1 436.1833 13.26
  436.2266 C34H28- 1 436.2196 16.03
  436.32 C33H40- 1 436.3135 14.69
  436.4578 C30H60O- 2 436.465 -16.49
  436.6844 C29H88- 2 436.6892 -10.99
  437.1589 C32H21O2- 1 437.1547 9.64
  437.2233 C34H29- 1 437.2275 -9.53
  437.2763 C28H37O4- 2 437.2697 15.01
  437.3634 C27H49O4- 1 437.3636 -0.46
  437.464 C26H61O4- 2 437.4575 14.68
  437.5058 C31H65- 1 437.5092 -7.79
  437.5663 C29H73O- 1 437.5667 -0.91
  437.6707 C28H85O- 1 437.6606 23.07
  438.0034 C31H2O4- 2 437.9959 17.15
  438.0543 C36H6- 1 438.0475 15.54
  438.5002 C27H66O3- 1 438.5017 -3.6
  438.6255 C27H82O2- 1 438.632 -14.84
  438.9935 C31H3O4- 1 439.0037 -23.16
  439.0673 C33H11O2- 1 439.0765 -20.9
  439.1071 C34H15O- 2 439.1128 -13.12
  439.1554 C35H19- 1 439.1492 13.97
  439.1817 C29H27O4- 1 439.1915 -22.22
  439.2398 C34H31- 1 439.2431 -7.49
  439.3912 C31H51O- 1 439.3945 -7.51
  439.4252 C32H55- 2 439.4309 -13.05
  439.5244 C31H67- 1 439.5248 -0.93
  439.5698 C25H75O4- 1 439.5671 6.17
  440.0442 C32H8O3- 1 440.0479 -8.43
  440.1227 C34H16O- 1 440.1207 4.74
  440.1885 C32H24O2- 2 440.1782 23.49
  440.2122 C33H28O- 1 440.2146 -5.43
  440.6851 C28H88O- 1 440.6841 2.34
  441.0944 C33H13O2- 1 441.0921 5.32
  441.1331 C34H17O- 1 441.1285 10.42
  441.2791 C31H37O2- 1 441.2799 -1.85
  441.3417 C29H45O3- 2 441.3374 9.63
  441.4809 C26H65O4- 1 441.4888 -18.08
  441.5651 C28H73O2- 1 441.5616 7.85
  441.6515 C27H85O2- 1 441.6555 -9.02
  441.7003 C28H89O- 1 441.6919 19.1
  442.0164 C34H2O2- 2 442.006 23.41
  442.0922 C33H14O2- 1 442.0999 -17.47
  442.1787 C35H22- 1 442.1727 13.54
  442.4544 C32H58- 1 442.4544 0.07
  442.5315 C27H70O3- 1 442.533 -3.59
  442.6544 C27H86O2- 1 442.6633 -20.16
  443.0525 C35H7O- 1 443.0502 5.04
  443.2213 C29H31O4- 1 443.2228 -3.43
  443.4394 C28H59O3- 1 443.447 -16.97
  443.462 C32H59- 1 443.4622 -0.51
  443.5051 C26H67O4- 1 443.5045 1.29
  443.6697 C27H87O2- 1 443.6712 -3.39
  444.0031 C37- 1 444.0005 5.68
  444.0444 C31H8O4- 1 444.0428 3.56
  444.1144 C33H16O2- 1 444.1156 -2.74
  445.0094 C37H- 1 445.0084 2.38
  445.0656 C35H9O- 1 445.0659 -0.55
  445.1197 C33H17O2- 1 445.1234 -8.33
  445.3743 C29H49O3- 2 445.3687 12.46
  445.4054 C30H53O2- 1 445.4051 0.6
  445.4551 C28H61O3- 1 445.4626 -16.98
  445.4961 C29H65O2- 1 445.499 -6.44
  446.0771 C35H10O- 1 446.0737 7.57
  446.1294 C33H18O2- 1 446.1312 -4.04
  446.4061 C30H54O2- 1 446.4129 -15.27
  446.4338 C27H58O4- 1 446.4341 -0.66
  446.6311 C29H82O- 2 446.6371 -13.53
  447.2116 C35H27- 1 447.2118 -0.58
  447.5322 C26H71O4- 1 447.5358 -7.91
  447.6107 C28H79O2- 1 447.6086 4.89
  447.6564 C26H87O3- 1 447.6661 -21.71
  448.2971 C30H40O3- 1 448.2983 -2.72
  448.4701 C31H60O- 1 448.465 11.48
  448.5786 C27H76O3- 1 448.58 -3.11
  448.9775 C32HO4- 1 448.988 -23.37
  449.0561 C34H9O2- 1 449.0608 -10.42
  449.1076 C35H13O- 2 449.0972 23.26
  449.1412 C36H17- 1 449.1336 17.09
  449.1711 C30H25O4- 1 449.1758 -10.55
  449.2487 C32H33O2- 1 449.2486 0.19
  449.395 C29H53O3- 1 449.4 -11.21
  449.4731 C31H61O- 1 449.4728 0.77
  450.1198 C32H18O3- 1 450.1261 -14.06
  450.1753 C30H26O4- 1 450.1837 -18.63
  450.4274 C33H54- 1 450.4231 9.65
  450.486 C31H62O- 1 450.4806 11.9
  450.5404 C29H70O2- 1 450.5381 5.04
  450.6127 C31H78- 1 450.6109 4.03
  451.1498 C36H19- 1 451.1492 1.21
  451.2578 C32H35O2- 1 451.2643 -14.35
  451.6564 C25H87O4- 1 451.661 -10.15
  451.6859 C29H87O- 1 451.6762 21.35
  452.042 C33H8O3- 1 452.0479 -12.97
  452.27 C32H36O2- 1 452.2721 -4.67
  452.408 C32H52O- 1 452.4024 12.5
  452.4601 C30H60O2- 1 452.4599 0.6
  452.5249 C28H68O3- 2 452.5174 16.52
  452.6111 C27H80O3- 1 452.6113 -0.4
  452.6636 C25H88O4- 1 452.6688 -11.47
  453.072 C37H9- 1 453.071 2.2
  453.166 C36H21- 1 453.1649 2.51
  453.4013 C28H53O4- 2 453.3949 14.06
  453.4901 C27H65O4- 1 453.4888 2.88
  453.5561 C29H73O2- 1 453.5616 -12.17
  453.6496 C28H85O2- 1 453.6555 -13.06
  454.0367 C36H6O- 2 454.0424 -12.49
  454.1654 C36H22- 2 454.1727 -15.98
  454.2512 C31H34O3- 1 454.2513 -0.37
  454.34 C30H46O3- 1 454.3452 -11.58
  454.4109 C32H54O- 2 454.418 -15.71
  454.5559 C32H70- 1 454.5483 16.72
  455.0401 C32H7O4- 2 455.035 11.33
  455.1743 C36H23- 2 455.1805 -13.77
  455.2797 C35H35- 1 455.2744 11.67
  455.3137 C29H43O4- 1 455.3167 -6.66
  455.4996 C27H67O4- 1 455.5045 -10.72
  456.0148 C35H4O2- 1 456.0217 -15.02
  456.2568 C31H36O3- 2 456.267 -22.33
  456.436 C32H56O- 1 456.4337 5.21
  457.146 C31H21O4- 1 457.1445 3.18
  457.2611 C34H33O- 1 457.2537 16.25
  457.325 C29H45O4- 1 457.3323 -15.95
  457.4046 C31H53O2- 1 457.4051 -1.07
  457.5277 C27H69O4- 2 457.5201 16.51
  457.6136 C26H81O4- 1 457.614 -1.01
  457.6966 C28H89O2- 1 457.6868 21.39
  458.107 C37H14- 1 458.1101 -6.86
  458.1648 C35H22O- 1 458.1676 -6.09
  458.2348 C33H30O2- 2 458.2251 21.13
  458.3375 C29H46O4- 1 458.3402 -5.91
  458.4661 C29H62O3- 1 458.4704 -9.48
  458.5917 C29H78O2- 1 458.6007 -19.59
  459.1797 C35H23O- 1 459.1754 9.35
  459.2329 C33H31O2- 1 459.233 -0.08
  459.4036 C34H51- 1 459.3996 8.64
  459.5209 C30H67O2- 1 459.5147 13.54
  459.5696 C28H75O3- 1 459.5722 -5.58
  459.6154 C29H79O2- 1 459.6086 14.89
  460.0537 C35H8O2- 1 460.053 1.59
  460.1425 C34H20O2- 1 460.1469 -9.47
  460.2152 C36H28- 2 460.2196 -9.68
  460.2506 C33H32O2- 2 460.2408 21.33
  460.2917 C31H40O3- 1 460.2983 -14.41
  460.6056 C29H80O2- 1 460.6164 -23.4
  460.6432 C26H84O4- 2 460.6375 12.32
  461.2037 C32H29O3- 1 461.2122 -18.45
  461.5095 C33H65- 1 461.5092 0.77
  461.6706 C30H85O- 2 461.6606 21.65
  462.17 C34H22O2- 1 462.1625 16.1
  462.3287 C35H42- 1 462.3292 -1.16
  462.5312 C30H70O2- 1 462.5381 -14.95
  462.5631 C27H74O4- 2 462.5593 8.22
  462.6388 C29H82O2- 1 462.632 14.57
  463.0021 C33H3O4- 1 463.0037 -3.5
  463.0345 C34H7O3- 1 463.0401 -12.04
  463.461 C31H59O2- 1 463.4521 19.34
  463.543 C30H71O2- 1 463.546 -6.45
  463.6092 C28H79O3- 2 463.6035 12.41
  463.6755 C30H87O- 1 463.6762 -1.57
  464.1807 C34H24O2- 1 464.1782 5.53
  464.3081 C34H40O- 1 464.3085 -0.76
  464.3404 C35H44- 2 464.3448 -9.57
  464.4324 C34H56- 2 464.4388 -13.73
  464.4989 C32H64O- 1 464.4963 5.78
  464.6332 C32H80- 1 464.6266 14.25
  465.0655 C38H9- 2 465.071 -11.72
  465.1185 C32H17O4- 2 465.1132 11.33
  465.2202 C35H29O- 1 465.2224 -4.77
  465.2855 C33H37O2- 1 465.2799 12.09
  465.4476 C34H57- 1 465.4466 2.12
  465.5105 C32H65O- 1 465.5041 13.73
  465.6868 C30H89O- 2 465.6919 -10.92
  466.0079 C36H2O2- 1 466.006 3.93
  466.1479 C33H22O3- 2 466.1574 -20.41
  466.2632 C36H34- 1 466.2666 -7.31
  466.3514 C31H46O3- 2 466.3452 13.14
  466.5866 C27H78O4- 1 466.5906 -8.39
  467.0508 C37H7O- 1 467.0502 1.23
  467.111 C35H15O2- 1 467.1078 7.01
  467.389 C32H51O2- 1 467.3895 -0.99
  467.5389 C29H71O3- 1 467.5409 -4.23
  468.0237 C36H4O2- 1 468.0217 4.24
  468.1841 C37H24- 2 468.1883 -9.03
  468.2535 C35H32O- 1 468.2459 16.33
  468.2877 C36H36- 1 468.2822 11.73
  468.3684 C31H48O3- 2 468.3609 15.98
  468.404 C32H52O2- 1 468.3973 14.33
  468.5858 C30H76O2- 1 468.5851 1.52
  468.6832 C29H88O2- 1 468.679 9.05
  469.0326 C36H5O2- 1 469.0295 6.59
  469.0794 C34H13O3- 1 469.087 -16.2
  469.2543 C35H33O- 1 469.2537 1.26
  469.3429 C34H45O- 2 469.3476 -9.96
  469.41 C32H53O2- 1 469.4051 10.49
  469.4966 C31H65O2- 1 469.499 -5.17
  469.5861 C30H77O2- 1 469.5929 -14.44
  470.3147 C33H42O2- 1 470.319 -9.21
  470.3442 C30H46O4- 2 470.3402 8.58
  470.4143 C32H54O2- 1 470.4129 2.84
  470.4782 C34H62- 2 470.4857 -16.03
  471.1034 C34H15O3- 1 471.1027 1.64
  471.1366 C35H19O2- 1 471.1391 -5.21
  471.1731 C36H23O- 1 471.1754 -4.91
  471.3515 C30H47O4- 2 471.348 7.41
  471.5046 C31H67O2- 1 471.5147 -21.26
  471.5626 C29H75O3- 2 471.5722 -20.29
  471.617 C30H79O2- 1 471.6086 17.83
  472.0207 C35H4O3- 2 472.0166 8.72
  472.1909 C36H24O- 1 472.1833 16.23
  472.2674 C31H36O4- 2 472.2619 11.62
  472.4336 C32H56O2- 1 472.4286 10.64
  472.5352 C28H72O4- 1 472.5436 -17.74
  472.5651 C32H72O- 1 472.5589 13.17
  472.6295 C27H84O4- 1 472.6375 -17.05
  472.9942 C34HO4- 2 472.988 12.97
  473.04 C39H5- 1 473.0397 0.75
  473.2966 C32H41O3- 2 473.3061 -20.2
  473.3666 C30H49O4- 1 473.3636 6.32
  473.5058 C34H65- 1 473.5092 -7.2
  473.6896 C32H89- 2 473.697 -15.52
  474.017 C38H2O- 1 474.0111 12.51
  474.0681 C36H10O2- 1 474.0686 -1.14
  474.4358 C32H58O2- 1 474.4442 -17.81
  474.5109 C34H66- 2 474.517 -12.93
  474.5456 C31H70O2- 1 474.5381 15.81
  474.5927 C29H78O3- 1 474.5956 -6.18
  475.4812 C33H63O- 2 475.4884 -15.19
  475.6702 C31H87O- 2 475.6762 -12.72
  476.028 C38H4O- 1 476.0268 2.64
  476.12 C37H16O- 1 476.1207 -1.39
  476.2285 C33H32O3- 1 476.2357 -15.17
  476.2666 C34H36O2- 1 476.2721 -11.51
  476.3329 C32H44O3- 1 476.3296 6.99
  476.4595 C32H60O2- 1 476.4599 -0.74
  476.5886 C32H76O- 1 476.5902 -3.35
  476.6673 C27H88O4- 1 476.6688 -3.15
  477.0104 C34H5O4- 1 477.0193 -18.78
  477.2395 C33H33O3- 1 477.2435 -8.42
  477.3109 C35H41O- 2 477.3163 -11.33
  477.349 C36H45- 2 477.3527 -7.61
  477.4774 C32H61O2- 2 477.4677 20.25
  477.5265 C30H69O3- 1 477.5252 2.74
  477.6478 C30H85O2- 1 477.6555 -16.09
  478.535 C30H70O3- 1 478.533 4
  479.0394 C34H7O4- 2 479.035 9.14
  479.0927 C39H11- 1 479.0866 12.69
  479.1733 C38H23- 2 479.1805 -15.12
  479.4383 C31H59O3- 1 479.447 -18.02
  479.5453 C30H71O3- 2 479.5409 9.26
  479.6325 C29H83O3- 1 479.6348 -4.76
  479.9812 C36O3- 1 479.9853 -8.56
  480.0177 C37H4O2- 1 480.0217 -8.21
  480.1736 C34H24O3- 1 480.1731 1.03
  480.3009 C34H40O2- 1 480.3034 -5.22
  480.568 C34H72- 1 480.564 8.41
  481.2421 C32H33O4- 2 481.2384 7.67
  481.2806 C33H37O3- 2 481.2748 11.98
  481.3485 C35H45O- 1 481.3476 1.88
  481.476 C35H61- 1 481.4779 -3.94
  481.6334 C32H81O- 1 481.6293 8.6
  482.0238 C40H2- 1 482.0162 15.71
  482.0571 C34H10O4- 1 482.0585 -2.91
  482.211 C38H26- 1 482.204 14.6
  482.5302 C29H70O4- 1 482.528 4.62
  482.5968 C31H78O2- 1 482.6007 -8.05
  484.0422 C37H8O2- 1 484.053 -22.34
  484.1232 C39H16- 1 484.1257 -5.35
  484.1921 C37H24O- 1 484.1833 18.25
  484.2542 C32H36O4- 1 484.2619 -15.93
  484.484 C31H64O3- 1 484.4861 -4.24
  484.5995 C34H76- 1 484.5953 8.73
  485.0662 C37H9O2- 1 485.0608 11.19
  485.2275 C38H29- 1 485.2275 -0.02
  485.366 C31H49O4- 1 485.3636 4.97
  485.4014 C32H53O3- 1 485.4 2.95
  485.541 C29H73O4- 2 485.5514 -21.48
  485.5869 C30H77O3- 1 485.5878 -1.89
  486.0188 C39H2O- 1 486.0111 15.87
  486.0598 C37H10O2- 1 486.0686 -18.24
  486.3691 C31H50O4- 1 486.3715 -4.78
  486.5674 C33H74O- 2 486.5745 -14.65
  487.1277 C35H19O3- 1 487.134 -12.89
  487.3167 C33H43O3- 1 487.3218 -10.38
  487.6426 C31H83O2- 1 487.6399 5.63
  487.6844 C32H87O- 1 487.6762 16.79
  487.9793 C38O2- 1 487.9904 -22.73
  488.0527 C36H8O3- 2 488.0479 9.78
  488.1867 C36H24O2- 1 488.1782 17.48
  488.2339 C34H32O3- 1 488.2357 -3.68
  488.3953 C35H52O- 2 488.4024 -14.4
  489.0002 C38HO2- 1 488.9982 4.16
  489.0509 C36H9O3- 1 489.0557 -9.94
  489.1564 C35H21O3- 2 489.1496 13.9
  489.1916 C36H25O2- 1 489.186 11.37
  489.3399 C33H45O3- 1 489.3374 5.01
  489.4092 C35H53O- 1 489.4102 -2.12
  489.4655 C33H61O2- 1 489.4677 -4.49
  489.5593 C32H73O2- 1 489.5616 -4.72
  490.1735 C39H22- 1 490.1727 1.66
  490.2799 C35H38O2- 1 490.2877 -15.94
  490.3369 C33H46O3- 1 490.3452 -16.99
  490.3867 C34H50O2- 1 490.3816 10.27
  490.4244 C35H54O- 1 490.418 12.93
  490.5347 C31H70O3- 1 490.533 3.3
  491.0043 C38H3O2- 1 491.0139 -19.39
  491.0509 C39H7O- 1 491.0502 1.26
  491.1037 C37H15O2- 1 491.1078 -8.22
  491.2042 C36H27O2- 1 491.2017 5.1
  491.2609 C34H35O3- 1 491.2592 3.56
  491.3688 C37H47- 1 491.3683 0.9
  491.4665 C36H59- 1 491.4622 8.71
  491.5975 C29H79O4- 1 491.5984 -1.81
  491.9794 C37O3- 1 491.9853 -12.06
  492.144 C34H20O4- 2 492.1367 14.84
  492.1794 C35H24O3- 2 492.1731 12.89
  492.2326 C33H32O4- 1 492.2306 4.05
  492.5878 C32H76O2- 1 492.5851 5.56
  492.6713 C31H88O2- 1 492.679 -15.57
  493.0247 C38H5O2- 1 493.0295 -9.68
  493.0593 C39H9O- 2 493.0659 -13.29
  493.1298 C37H17O2- 1 493.1234 12.99
  493.2972 C38H37- 1 493.2901 14.46
  493.5005 C33H65O2- 1 493.499 3.1
  493.5619 C31H73O3- 2 493.5565 10.92
  494.19 C35H26O3- 1 494.1887 2.6
  494.3426 C32H46O4- 1 494.3402 4.9
  494.3761 C33H50O3- 1 494.3765 -0.87
  494.4444 C35H58O- 2 494.4493 -10.03
  494.6448 C33H82O- 1 494.6371 15.59
  495.106 C36H15O3- 2 495.1027 6.68
  495.2502 C33H35O4- 1 495.2541 -7.75
  495.4886 C36H63- 2 495.4935 -9.99
  495.6498 C33H83O- 1 495.6449 9.77
  495.6845 C34H87- 1 495.6813 6.47
  496.0832 C39H12O- 2 496.0894 -12.44
  496.18 C38H24O- 2 496.1833 -6.67
  496.318 C38H40- 1 496.3135 8.94
  496.4826 C32H64O3- 1 496.4861 -7.02
  496.5545 C34H72O- 2 496.5589 -8.78
  496.6746 C30H88O3- 1 496.6739 1.45
  497.0361 C41H5- 2 497.0397 -7.12
  497.0801 C35H13O4- 1 497.0819 -3.73
  497.2411 C36H33O2- 1 497.2486 -15.06
  497.3777 C36H49O- 1 497.3789 -2.34
  497.4266 C34H57O2- 1 497.4364 -19.68
  497.5099 C36H65- 1 497.5092 1.4
  497.6047 C35H77- 1 497.6031 3.23
  498.0117 C40H2O- 1 498.0111 1.19
  498.1639 C37H22O2- 1 498.1625 2.67
  498.4066 C33H54O3- 1 498.4078 -2.4
  498.4651 C31H62O4- 1 498.4654 -0.51
  498.521 C36H66- 1 498.517 8.05
  498.56 C30H74O4- 1 498.5593 1.57
  498.6413 C32H82O2- 2 498.632 18.5
  499.0996 C35H15O4- 1 499.0976 4.06
  499.2595 C36H35O2- 1 499.2643 -9.44
  499.3488 C35H47O2- 1 499.3582 -18.72
  499.482 C35H63O- 2 499.4884 -12.81
  499.6286 C32H83O2- 1 499.6399 -22.57
  500.0114 C36H4O4- 1 500.0115 -0.3
  500.0966 C35H16O4- 2 500.1054 -17.71
  500.218 C38H28O- 1 500.2146 6.85
  500.3073 C37H40O- 1 500.3085 -2.31
  500.3396 C38H44- 2 500.3448 -10.44
  500.3977 C36H52O- 2 500.4024 -9.32
  500.513 C32H68O3- 1 500.5174 -8.75
  500.5564 C33H72O2- 1 500.5538 5.21
  500.6259 C35H80- 1 500.6266 -1.22
  501.02 C36H5O4- 1 501.0193 1.25
  501.2808 C36H37O2- 1 501.2799 1.72
  501.5919 C34H77O- 2 501.598 -12.15
  501.6373 C35H81- 1 501.6344 5.79
  502.2166 C34H30O4- 1 502.215 3.32
  502.2467 C35H34O3- 1 502.2513 -9.33
  502.3067 C33H42O4- 1 502.3089 -4.28
  502.3568 C38H46- 2 502.3605 -7.31
  502.4829 C34H62O2- 1 502.4755 14.62
  502.6278 C31H82O3- 1 502.6269 1.66
  503.0728 C37H11O3- 1 503.0714 2.94
  503.3862 C35H51O2- 1 503.3895 -6.4
  503.9799 C38O3- 1 503.9853 -10.73
  504.0259 C39H4O2- 1 504.0217 8.39
  504.1182 C38H16O2- 1 504.1156 5.28
  504.3014 C36H40O2- 1 504.3034 -3.91
  504.4736 C37H60- 1 504.4701 7.01
  504.5592 C36H72- 2 504.564 -9.41
  504.5854 C33H76O2- 1 504.5851 0.63
  504.6338 C31H84O3- 2 504.6426 -17.41
  504.6903 C32H88O2- 1 504.679 22.4
  505.0943 C37H13O3- 2 505.087 14.49
  505.1458 C35H21O4- 1 505.1445 2.51
  505.1828 C36H25O3- 1 505.1809 3.72
  505.4013 C35H53O2- 1 505.4051 -7.57
  505.4879 C34H65O2- 1 505.499 -21.88
  505.6212 C30H81O4- 2 505.614 14.22
  506.0088 C42H2- 2 506.0162 -14.69
  506.1102 C41H14- 1 506.1101 0.27
  506.2414 C34H34O4- 1 506.2463 -9.59
  506.289 C35H38O3- 2 506.2826 12.64
  506.5035 C34H66O2- 1 506.5068 -6.5
  506.5479 C35H70O- 1 506.5432 9.18
  506.6016 C33H78O2- 1 506.6007 1.73
  507.0129 C38H3O3- 2 507.0088 8.15
  507.2855 C35H39O3- 1 507.2905 -9.79
  507.3922 C38H51- 2 507.3996 -14.56
  507.5081 C34H67O2- 1 507.5147 -12.93
  507.5985 C33H79O2- 1 507.6086 -19.86
  507.6587 C31H87O3- 1 507.6661 -14.48
  508.2114 C36H28O3- 2 508.2044 13.86
  509.0098 C41HO- 1 509.0033 12.87
  509.2667 C34H37O4- 1 509.2697 -6
  509.4552 C32H61O4- 1 509.4575 -4.6
  509.5234 C34H69O2- 1 509.5303 -13.58
  509.566 C35H73O- 1 509.5667 -1.43
  509.6904 C35H89- 2 509.697 -12.9
  510.0365 C38H6O3- 2 510.0322 8.37
  510.0876 C36H14O4- 1 510.0898 -4.16
  510.2278 C40H30- 2 510.2353 -14.68
  510.4042 C34H54O3- 1 510.4078 -7.17
  510.5282 C34H70O2- 1 510.5381 -19.45
  510.5545 C31H74O4- 1 510.5593 -9.28
  511.1799 C38H23O2- 2 511.1704 18.64
  511.2088 C39H27O- 1 511.2067 4.05
  511.4963 C36H63O- 1 511.4884 15.32
  511.5831 C35H75O- 1 511.5823 1.49
  512.0861 C39H12O2- 1 512.0843 3.48
  512.1618 C41H20- 1 512.157 9.31
  512.2176 C39H28O- 1 512.2146 5.99
  512.2522 C40H32- 1 512.2509 2.38
  512.3424 C39H44- 1 512.3448 -4.78
  512.3754 C36H48O2- 2 512.366 18.43
  512.4908 C36H64O- 2 512.4963 -10.69
  512.6601 C30H88O4- 2 512.6688 -17.04
  513.4491 C38H57- 1 513.4466 4.89
  513.6577 C33H85O2- 1 513.6555 4.26
  514.0113 C40H2O2- 1 514.006 10.34
  514.0713 C42H10- 2 514.0788 -14.65
  514.4857 C35H62O2- 2 514.4755 19.86
  514.5392 C33H70O3- 2 514.533 11.9
  514.6458 C36H82- 1 514.6422 6.99
  515.0027 C40H3O2- 1 515.0139 -21.74
  515.2231 C35H31O4- 1 515.2228 0.6
  515.2552 C36H35O3- 1 515.2592 -7.69
  515.3103 C34H43O4- 1 515.3167 -12.4
  515.4677 C38H59- 1 515.4622 10.56
  515.6375 C32H83O3- 2 515.6348 5.25
  515.9975 C43- 2 516.0005 -5.82
  516.0359 C37H8O4- 1 516.0428 -13.31
  516.2107 C38H28O2- 1 516.2095 2.41
  516.261 C36H36O3- 1 516.267 -11.67
  516.3051 C37H40O2- 1 516.3034 3.32
  516.5095 C32H68O4- 1 516.5123 -5.38
  516.6623 C36H84- 1 516.6579 8.71
  516.9952 C39HO3- 1 516.9931 4.01
  517.2308 C35H33O4- 1 517.2384 -14.81
  517.4671 C34H61O3- 2 517.4626 8.68
  517.6159 C31H81O4- 1 517.614 3.7
  518.0378 C40H6O2- 1 518.0373 0.86
  518.5832 C37H74- 1 518.5796 6.88
  518.664 C32H86O3- 2 518.6582 11.04
  519.0549 C40H7O2- 2 519.0452 18.71
  519.2725 C39H35O- 1 519.2693 6.1
  519.4466 C33H59O4- 2 519.4419 9.15
  519.6593 C32H87O3- 1 519.6661 -12.98
  520.0163 C39H4O3- 1 520.0166 -0.6
  520.2094 C37H28O3- 2 520.2044 9.69
  520.3212 C40H40- 1 520.3135 14.67
  520.3992 C35H52O3- 2 520.3922 13.43
  520.5038 C38H64- 1 520.5014 4.78
  520.5407 C32H72O4- 1 520.5436 -5.68
  520.5866 C33H76O3- 2 520.58 12.63
  521.0239 C39H5O3- 1 521.0244 -0.96
  521.0655 C40H9O2- 1 521.0608 9
  521.2874 C39H37O- 1 521.285 4.53
  521.3209 C40H41- 1 521.3214 -0.97
  521.4563 C33H61O4- 1 521.4575 -2.39
  521.6129 C34H81O2- 1 521.6242 -21.67
  521.7042 C36H89- 1 521.697 13.84
  522.2304 C41H30- 2 522.2353 -9.32
  522.3267 C40H42- 2 522.3292 -4.83
  522.5021 C34H66O3- 1 522.5017 0.64
  522.6373 C34H82O2- 1 522.632 10.18
  523.0601 C43H7- 1 523.0553 9.16
  523.1778 C39H23O2- 1 523.1704 14.17
  523.4788 C33H63O4- 2 523.4732 10.75
  524.2475 C41H32- 2 524.2509 -6.57
  524.5057 C37H64O- 2 524.4963 17.93
  524.5461 C35H72O2- 1 524.5538 -14.65
  525.2209 C40H29O- 1 525.2224 -2.92
  525.2944 C35H41O4- 1 525.301 -12.55
  525.3587 C40H45- 1 525.3527 11.54
  525.433 C35H57O3- 1 525.4313 3.19
  525.5812 C32H77O4- 1 525.5827 -2.85
  526.1155 C37H18O4- 1 526.1211 -10.52
  526.2805 C38H38O2- 1 526.2877 -13.65
  526.352 C36H46O3- 2 526.3452 12.82
  526.3904 C37H50O2- 2 526.3816 16.6
  526.6493 C37H82- 1 526.6422 13.42
  527.0781 C39H11O3- 2 527.0714 12.85
  527.1937 C39H27O2- 1 527.2017 -15.04
  527.4002 C34H55O4- 2 527.4106 -19.69
  527.4952 C33H67O4- 2 527.5045 -17.59
  527.5418 C34H71O3- 1 527.5409 1.83
  527.9728 C40O3- 1 527.9853 -23.72
  528.0671 C42H8O- 2 528.0581 17.18
  528.3168 C35H44O4- 1 528.3245 -14.61
  528.3516 C36H48O3- 2 528.3609 -17.59
  528.4237 C34H56O4- 2 528.4184 10.03
  528.4757 C39H60- 1 528.4701 10.71
  528.564 C38H72- 1 528.564 0.15
  528.6053 C32H80O4- 1 528.6062 -1.71
  528.9819 C40HO3- 1 528.9931 -21.26
  529.0227 C41H5O2- 1 529.0295 -12.89
  529.0669 C42H9O- 1 529.0659 1.99
  529.257 C40H33O- 1 529.2537 6.35
  529.3877 C40H49- 1 529.384 7.06
  529.4338 C34H57O4- 2 529.4262 14.3
  529.5889 C35H77O2- 1 529.5929 -7.48
  529.6686 C37H85- 1 529.6657 5.47
  529.9902 C40H2O3- 1 530.0009 -20.2
  530.1606 C41H22O- 2 530.1676 -13.2
  530.1893 C38H26O3- 1 530.1887 1.06
  530.3886 C40H50- 2 530.3918 -5.98
  530.4728 C35H62O3- 2 530.4704 4.39
  530.5619 C34H74O3- 1 530.5643 -4.6
  531.0238 C44H3- 1 531.024 -0.5
  531.0597 C38H11O4- 1 531.0663 -12.46
  531.2995 C41H39- 2 531.3057 -11.78
  531.4028 C40H51- 1 531.3996 5.97
  531.5242 C36H67O2- 2 531.5147 17.9
  531.6753 C37H87- 2 531.6813 -11.36
  531.9706 C39O4- 1 531.9802 -18.07
  532.3349 C38H44O2- 1 532.3347 0.43
  532.4477 C34H60O4- 1 532.4497 -3.76
  532.5626 C37H72O- 1 532.5589 6.92
  532.6417 C32H84O4- 2 532.6375 7.85
  532.6759 C33H88O3- 2 532.6739 3.85
  533.0321 C44H5- 2 533.0397 -14.29
  533.3382 C38H45O2- 1 533.3425 -7.99
  533.3854 C39H49O- 1 533.3789 12.12
  533.4795 C38H61O- 1 533.4728 12.56
  533.5389 C36H69O2- 2 533.5303 16.11
  533.6212 C35H81O2- 1 533.6242 -5.69
  533.6543 C36H85O- 2 533.6606 -11.73
  534.026 C40H6O3- 1 534.0322 -11.74
  534.1313 C39H18O3- 2 534.1261 9.71
  534.1857 C37H26O4- 2 534.1837 3.77
  534.2508 C39H34O2- 1 534.2564 -10.61
  534.4383 C37H58O2- 1 534.4442 -11.02
  534.5216 C39H66- 1 534.517 8.63
  535.1076 C42H15O- 2 535.1128 -9.76
  535.2433 C42H31- 1 535.2431 0.31
  535.3902 C39H51O- 2 535.3945 -8.14
  535.4601 C37H59O2- 2 535.4521 15.03
  535.6878 C36H87O- 1 535.6762 21.52
  536.0079 C39H4O4- 1 536.0115 -6.8
  536.2756 C39H36O2- 1 536.2721 6.53
  536.3509 C41H44- 1 536.3448 11.35
  536.4786 C34H64O4- 1 536.481 -4.54
  536.5312 C39H68- 1 536.5327 -2.75
  536.9915 C42HO2- 1 536.9982 -12.45
  537.0463 C40H9O3- 2 537.0557 -17.47
  537.3378 C37H45O3- 1 537.3374 0.76
  537.5039 C38H65O- 1 537.5041 -0.32
  537.5672 C36H73O2- 1 537.5616 10.48
  537.6122 C34H81O3- 1 537.6191 -12.92
  537.6605 C35H85O2- 1 537.6555 9.33
  538.0762 C44H10- 2 538.0788 -4.91
  538.3031 C36H42O4- 1 538.3089 -10.79
  538.3993 C35H54O4- 1 538.4028 -6.36
  538.4503 C40H58- 2 538.4544 -7.69
  538.6462 C38H82- 1 538.6422 7.34
  539.0086 C42H3O2- 1 539.0139 -9.71
  539.0634 C40H11O3- 2 539.0714 -14.84
  539.1471 C42H19O- 1 539.1441 5.52
  539.2371 C41H31O- 1 539.238 -1.66
  539.2991 C39H39O2- 1 539.2956 6.59
  539.4895 C37H63O2- 1 539.4834 11.42
  540.0257 C42H4O2- 1 540.0217 7.45
  540.0662 C43H8O- 2 540.0581 15.05
  540.3263 C36H44O4- 2 540.3245 3.29
  540.6258 C37H80O- 1 540.6215 8.01
  541.0429 C39H9O4- 2 541.0506 -14.22
  541.2762 C38H37O3- 1 541.2748 2.56
  542.1272 C41H18O2- 1 542.1312 -7.51
  542.1858 C39H26O3- 1 542.1887 -5.46
  542.3237 C39H42O2- 1 542.319 8.68
  542.4031 C38H54O2- 1 542.4129 -18.18
  542.5026 C37H66O2- 1 542.5068 -7.79
  542.5484 C38H70O- 1 542.5432 9.59
  543.1453 C41H19O2- 1 543.1391 11.54
  543.3156 C39H43O2- 1 543.3269 -20.79
  543.5681 C35H75O3- 1 543.5722 -7.51
  543.6692 C34H87O3- 2 543.6661 5.71
  544.1048 C40H16O3- 1 544.1105 -10.4
  544.2108 C39H28O3- 2 544.2044 11.76
  544.3316 C39H44O2- 1 544.3347 -5.69
  544.425 C38H56O2- 1 544.4286 -6.53
  544.4833 C36H64O3- 1 544.4861 -5.2
  545.0344 C45H5- 2 545.0397 -9.61
  545.1701 C38H25O4- 1 545.1758 -10.51
  545.2693 C37H37O4- 1 545.2697 -0.86
  545.5901 C35H77O3- 2 545.5878 4.17
  545.6494 C33H85O4- 2 545.6453 7.38
  546.0144 C44H2O- 1 546.0111 6.01
  546.2389 C43H30- 1 546.2353 6.63
  546.3062 C38H42O3- 2 546.3139 -14.15
  546.4343 C38H58O2- 1 546.4442 -18.23
  546.5112 C40H66- 2 546.517 -10.63
  547.1101 C43H15O- 2 547.1128 -4.96
  547.1509 C44H19- 1 547.1492 3.12
  547.21 C42H27O- 1 547.2067 6.04
  547.3033 C41H39O- 1 547.3006 4.8
  547.4099 C37H55O3- 1 547.4157 -10.55
  548.0718 C42H12O2- 1 548.0843 -22.78
  548.2664 C40H36O2- 1 548.2721 -10.42
  548.3611 C39H48O2- 1 548.366 -8.98
  548.3942 C36H52O4- 2 548.3871 12.95
  548.474 C35H64O4- 1 548.481 -12.77
  548.5139 C36H68O3- 1 548.5174 -6.41
  548.5871 C38H76O- 2 548.5902 -5.53
  549.2964 C37H41O4- 1 549.301 -8.47
  549.4184 C40H53O- 2 549.4102 15.02
  549.5374 C40H69- 2 549.5405 -5.61
  549.6329 C39H81- 1 549.6344 -2.6
  549.9999 C43H2O2- 1 550.006 -11.17
  550.0562 C41H10O3- 1 550.0635 -13.38
  550.0934 C42H14O2- 1 550.0999 -11.88
  550.1382 C43H18O- 1 550.1363 3.51
  550.2223 C38H30O4- 2 550.215 13.26
  550.2759 C40H38O2- 1 550.2877 -21.48
  550.3181 C41H42O- 2 550.3241 -10.9
  550.3882 C39H50O2- 1 550.3816 11.91
  550.5221 C39H66O- 2 550.5119 18.56
  550.604 C38H78O- 2 550.6058 -3.32
  550.6558 C36H86O2- 1 550.6633 -13.73
  551.1885 C41H27O2- 1 551.2017 -23.95
  551.2644 C39H35O3- 2 551.2592 9.56
  551.3072 C37H43O4- 2 551.3167 -17.12
  551.5872 C37H75O2- 2 551.5773 17.97
  551.6399 C35H83O3- 2 551.6348 9.23
  551.6685 C36H87O2- 1 551.6712 -4.83
  552.0171 C43H4O2- 1 552.0217 -8.22
  552.0526 C44H8O- 2 552.0581 -9.92
  552.0822 C41H12O3- 2 552.0792 5.42
  552.2738 C39H36O3- 2 552.267 12.28
  552.4006 C39H52O2- 1 552.3973 5.95
  552.5042 C35H68O4- 2 552.5123 -14.62
  552.5582 C40H72- 2 552.564 -10.32
  552.619 C38H80O- 2 552.6215 -4.45
  552.9874 C42HO3- 1 552.9931 -10.3
  553.1501 C39H21O4- 2 553.1445 10.14
  553.2108 C41H29O2- 1 553.2173 -11.82
  553.3389 C37H45O4- 2 553.3323 11.93
  553.6142 C34H81O4- 1 553.614 0.21
  553.6727 C39H85- 1 553.6657 12.77
  554.0181 C46H2- 1 554.0162 3.46
  554.0915 C41H14O3- 1 554.0948 -6.01
  554.1665 C43H22O- 1 554.1676 -1.97
  554.2367 C38H34O4- 2 554.2463 -17.18
  554.3201 C40H42O2- 1 554.319 1.98
  554.633 C38H82O- 2 554.6371 -7.39
  555.1964 C40H27O3- 1 555.1966 -0.35
  555.2701 C42H35O- 1 555.2693 1.33
  555.3827 C38H51O3- 1 555.3844 -3.06
  555.4986 C41H63- 1 555.4935 9.16
  555.5519 C39H71O- 1 555.551 1.53
  556.0909 C44H12O- 1 556.0894 2.69
  556.2152 C44H28- 2 556.2196 -8.07
  556.2713 C42H36O- 2 556.2772 -10.54
  556.3585 C37H48O4- 2 556.3558 4.84
  556.4159 C39H56O2- 1 556.4286 -22.77
  556.5566 C39H72O- 2 556.5589 -4.1
  556.9971 C45HO- 2 557.0033 -11.06
  557.0886 C40H13O4- 2 557.0819 11.94
  557.2603 C38H37O4- 2 557.2697 -16.92
  557.3891 C41H49O- 2 557.3789 18.34
  558.0296 C42H6O3- 1 558.0322 -4.79
  558.0765 C43H10O2- 2 558.0686 14.03
  558.2136 C40H30O3- 1 558.22 -11.55
  558.3196 C39H42O3- 2 558.3139 10.07
  558.3536 C40H46O2- 1 558.3503 5.9
  558.5117 C41H66- 2 558.517 -9.52
  559.0008 C41H3O4- 1 559.0037 -5.23
  559.1317 C41H19O3- 1 559.134 -3.98
  559.2245 C40H31O3- 1 559.2279 -6.01
  559.3088 C42H39O- 2 559.3006 14.68
  559.5564 C38H71O2- 2 559.546 18.58
  559.6243 C40H79- 1 559.6187 10.03
  560.0878 C43H12O2- 1 560.0843 6.22
  560.1229 C44H16O- 1 560.1207 3.91
  560.2191 C43H28O- 1 560.2146 8.01
  560.3656 C40H48O2- 1 560.366 -0.61
  560.5194 C37H68O3- 2 560.5174 3.53
  560.5788 C35H76O4- 2 560.5749 6.91
  561.2905 C41H37O2- 2 561.2799 18.79
  561.527 C37H69O3- 2 561.5252 3.15
  561.637 C40H81- 1 561.6344 4.67
  561.6879 C38H89O- 2 561.6919 -7.03
  562.0396 C45H6O- 2 562.0424 -4.96
  562.1328 C44H18O- 2 562.1363 -6.32
  562.1685 C45H22- 2 562.1727 -7.46
  562.2053 C39H30O4- 2 562.215 -17.09
  562.2491 C40H34O3- 1 562.2513 -4.03
  562.3594 C43H46- 1 562.3605 -1.9
  562.5423 C41H70- 2 562.5483 -10.64
  562.63 C36H82O3- 2 562.6269 5.45
  563.2504 C40H35O3- 2 563.2592 -15.5
  563.3161 C38H43O4- 1 563.3167 -0.96
  563.3755 C43H47- 2 563.3683 12.77
  563.4313 C41H55O- 1 563.4258 9.72
  563.5166 C40H67O- 2 563.5197 -5.54
  563.5679 C38H75O2- 1 563.5773 -16.67
  563.6448 C40H83- 2 563.65 -9.35
  563.984 C43O3- 1 563.9853 -2.24
  564.1621 C44H20O- 2 564.152 17.93
  564.2083 C42H28O2- 1 564.2095 -2.03
  564.2627 C40H36O3- 1 564.267 -7.66
  564.2971 C41H40O2- 1 564.3034 -11.12
  564.3337 C42H44O- 2 564.3398 -10.78
  565.0578 C41H9O4- 2 565.0506 12.71
  565.1213 C43H17O2- 1 565.1234 -3.65
  565.1995 C45H25- 1 565.1962 5.89
  565.3842 C43H49- 1 565.384 0.33
  565.5659 C41H73- 2 565.5718 -10.45
  565.9965 C43H2O3- 1 566.0009 -7.85
  566.0276 C44H6O2- 1 566.0373 -17.13
  566.0925 C42H14O3- 1 566.0948 -4.09
  566.1939 C41H26O3- 2 566.1887 9.07
  566.2788 C40H38O3- 1 566.2826 -6.72
  566.3307 C38H46O4- 2 566.3402 -16.74
  566.4238 C37H58O4- 2 566.4341 -18.1
  566.6553 C36H86O3- 1 566.6582 -5.17
  567.1635 C40H23O4- 2 567.1602 5.93
  567.2097 C45H27- 2 567.2118 -3.78
  567.3906 C39H51O3- 2 567.3844 10.9
  567.5572 C40H71O- 1 567.551 10.85
  567.6882 C40H87- 1 567.6813 12.04
  567.9719 C42O4- 1 567.9802 -14.55
  568.0942 C45H12O- 1 568.0894 8.5
  568.2603 C39H36O4- 1 568.2619 -2.91
  568.3208 C44H40- 2 568.3135 12.7
  568.5541 C40H72O- 2 568.5589 -8.44
  568.9799 C42HO4- 1 568.988 -14.36
  569.0184 C43H5O3- 1 569.0244 -10.51
  569.1851 C44H25O- 2 569.1911 -10.44
  569.3043 C40H41O3- 1 569.3061 -3.18
  569.4125 C43H53- 2 569.4153 -4.91
  569.4538 C37H61O4- 1 569.4575 -6.62
  569.5717 C40H73O- 1 569.5667 8.83
  569.617 C38H81O2- 1 569.6242 -12.59
  569.6692 C39H85O- 2 569.6606 15.17
  570.1976 C44H26O- 2 570.1989 -2.36
  570.3721 C38H50O4- 1 570.3715 1.06
  570.5739 C40H74O- 1 570.5745 -1.02
  570.6047 C41H78- 2 570.6109 -10.89
  571.0193 C46H3O- 1 571.0189 0.65
  571.0852 C44H11O2- 2 571.0765 15.36
  571.1595 C43H23O2- 1 571.1704 -19.08
  571.2109 C44H27O- 1 571.2067 7.27
  571.3365 C44H43- 1 571.337 -0.84
  571.4737 C37H63O4- 1 571.4732 0.89
  571.6472 C38H83O2- 2 571.6399 12.81
  572.1229 C45H16O- 1 572.1207 3.89
  572.2342 C41H32O3- 1 572.2357 -2.6
  572.2856 C39H40O4- 2 572.2932 -13.29
  572.438 C43H56- 1 572.4388 -1.39
  573.0211 C42H5O4- 2 573.0193 3.1
  573.1785 C43H25O2- 1 573.186 -13.01
  573.2736 C42H37O2- 1 573.2799 -10.97
  574.0077 C45H2O2- 1 574.006 2.86
  574.0822 C47H10- 1 574.0788 5.92
  574.1513 C42H22O3- 1 574.1574 -10.74
  574.1825 C43H26O2- 1 574.1938 -19.66
  574.2613 C45H34- 2 574.2666 -9.15
  574.4324 C39H58O3- 1 574.4391 -11.73
  574.5735 C39H74O2- 1 574.5694 7.05
  575.1535 C45H19O- 2 575.1441 16.29
  575.2323 C44H31O- 2 575.238 -9.92
  575.4231 C42H55O- 2 575.4258 -4.72
  575.4579 C43H59- 2 575.4622 -7.43
  575.6189 C40H79O- 1 575.6136 9.14
  576.1533 C45H20O- 1 576.152 2.3
  576.1795 C42H24O3- 2 576.1731 11.07
  576.2824 C45H36- 1 576.2822 0.3
  576.4724 C43H60- 1 576.4701 4.02
  576.5822 C39H76O2- 1 576.5851 -5
  577.0695 C46H9O- 1 577.0659 6.22
  577.1715 C42H25O3- 2 577.1809 -16.38
  577.2224 C43H29O2- 1 577.2173 8.82
  577.2847 C45H37- 2 577.2901 -9.33
  577.6722 C41H85- 1 577.6657 11.33
  578.0061 C44H2O3- 2 578.0009 8.94
  578.0913 C43H14O3- 1 578.0948 -6.05
  578.2029 C46H26- 2 578.204 -1.85
  578.2419 C40H34O4- 1 578.2463 -7.59
  578.5038 C40H66O2- 1 578.5068 -5.21
  578.5445 C41H70O- 1 578.5432 2.26
  578.5892 C39H78O2- 1 578.6007 -19.99
  578.9966 C44H3O3- 1 579.0088 -21.03
  579.0461 C45H7O2- 1 579.0452 1.62
  579.2034 C42H27O3- 2 579.1966 11.75
  579.341 C39H47O4- 2 579.348 -12.08
  579.6214 C36H83O4- 2 579.6297 -14.21
  579.6727 C37H87O3- 2 579.6661 11.39
  580.1488 C44H20O2- 1 580.1469 3.36
  580.2361 C43H32O2- 1 580.2408 -8.03
  580.3627 C39H48O4- 2 580.3558 11.81
  580.46 C42H60O- 2 580.465 -8.61
  580.6189 C39H80O2- 1 580.6164 4.39
  581.0399 C48H5- 1 581.0397 0.34
  581.1721 C41H25O4- 1 581.1758 -6.48
  581.4455 C41H57O2- 2 581.4364 15.62
  582.0336 C44H6O3- 2 582.0322 2.34
  582.1538 C44H22O2- 1 582.1625 -14.94
  582.203 C45H26O- 1 582.1989 7.1
  582.2974 C44H38O- 1 582.2928 7.83
  582.3397 C42H46O2- 1 582.3503 -18.33
  582.4046 C40H54O3- 1 582.4078 -5.56
  582.4567 C38H62O4- 2 582.4654 -14.82
  582.5596 C37H74O4- 1 582.5593 0.6
  582.6702 C40H86O- 1 582.6684 3.05
  583.2641 C43H35O2- 1 583.2643 -0.3
  583.3529 C42H47O2- 1 583.3582 -9.08
  583.4359 C44H55- 1 583.4309 8.45
  583.6856 C40H87O- 1 583.6762 15.96
  584.1236 C46H16O- 1 584.1207 5.02
  584.1843 C44H24O2- 1 584.1782 10.45
  584.2515 C46H32- 1 584.2509 0.97
  584.3623 C42H48O2- 1 584.366 -6.33
  584.4455 C44H56- 2 584.4388 11.62
  584.531 C43H68- 2 584.5327 -2.84
  584.6218 C42H80- 2 584.6266 -8.15
  585.0848 C45H13O2- 1 585.0921 -12.48
  585.1481 C43H21O3- 1 585.1496 -2.64
  585.2711 C43H37O2- 1 585.2799 -15
  585.3916 C39H53O4- 1 585.3949 -5.78
  585.4439 C44H57- 2 585.4466 -4.55
  586.0727 C48H10- 2 586.0788 -10.48
  586.3285 C44H42O- 1 586.3241 7.5
  587.0587 C47H7O- 2 587.0502 14.49
  587.3297 C44H43O- 2 587.3319 -3.79
  587.5702 C40H75O2- 1 587.5773 -11.94
  587.6092 C41H79O- 2 587.6136 -7.58
  588.125 C45H16O2- 2 588.1156 16.04
  588.5659 C43H72- 1 588.564 3.33
  588.6185 C41H80O- 2 588.6215 -4.99
  588.6649 C42H84- 2 588.6579 12
  589.4668 C40H61O3- 2 589.4626 7.17
  589.5699 C43H73- 2 589.5718 -3.26
  590.1281 C45H18O2- 1 590.1312 -5.3
  590.1975 C47H26- 2 590.204 -10.95
  590.5181 C38H70O4- 2 590.528 -16.74
  591.002 C45H3O3- 1 591.0088 -11.44
  591.076 C47H11O- 2 591.0815 -9.45
  591.1207 C48H15- 1 591.1179 4.74
  591.6197 C37H83O4- 2 591.6297 -16.83
  592.1096 C44H16O3- 1 592.1105 -1.5
  592.2755 C45H36O- 2 592.2772 -2.8
  593.0085 C48HO- 1 593.0033 8.75
  593.052 C46H9O2- 1 593.0608 -14.9
  593.2337 C47H29- 1 593.2275 10.45
  593.2783 C45H37O- 2 593.285 -11.35
  593.3176 C46H41- 2 593.3214 -6.34
  593.3564 C40H49O4- 2 593.3636 -12.2
  593.4723 C43H61O- 2 593.4728 -0.84
  594.0867 C43H14O4- 1 594.0898 -5.22
  594.2838 C41H38O4- 2 594.2776 10.56
  594.3638 C40H50O4- 2 594.3715 -12.94
  594.4503 C42H58O2- 1 594.4442 10.19
  594.5205 C44H66- 1 594.517 5.94
  594.6564 C37H86O4- 2 594.6532 5.5
  595.1361 C44H19O3- 2 595.134 3.65
  595.6728 C41H87O- 2 595.6762 -5.84
  596.0708 C49H8- 2 596.0631 12.76
  596.1593 C48H20- 1 596.157 3.71
  596.2937 C41H40O4- 2 596.2932 0.82
  596.3972 C44H52O- 2 596.4024 -8.73
  596.466 C42H60O2- 1 596.4599 10.29
  596.5847 C42H76O- 2 596.5902 -9.24
  597.032 C48H5O- 2 597.0346 -4.39
  597.0933 C46H13O2- 1 597.0921 1.97
  597.1491 C44H21O3- 1 597.1496 -0.81
  597.252 C47H33- 2 597.2588 -11.41
  597.3115 C45H41O- 2 597.3163 -8
  597.3863 C40H53O4- 2 597.3949 -14.43
  597.4739 C42H61O2- 1 597.4677 10.29
  597.51 C43H65O- 1 597.5041 9.91
  597.5844 C38H77O4- 2 597.5827 2.84
  598.0792 C49H10- 1 598.0788 0.72
  598.1308 C47H18O- 2 598.1363 -9.25
  598.3562 C46H46- 2 598.3605 -7.22
  598.4045 C40H54O4- 2 598.4028 2.95
  598.6445 C43H82- 1 598.6422 3.84
  599.04 C44H7O4- 2 599.035 8.41
  599.2116 C45H27O2- 2 599.2017 16.68
  599.5708 C41H75O2- 1 599.5773 -10.78
  599.6175 C42H79O- 1 599.6136 6.5
  599.664 C40H87O2- 1 599.6712 -11.86
  600.2701 C43H36O3- 2 600.267 5.17
  600.3913 C43H52O2- 1 600.3973 -9.96
  601.5517 C40H73O3- 1 601.5565 -8.09
  601.5936 C41H77O2- 1 601.5929 1.08
  601.6757 C40H89O2- 1 601.6868 -18.38
  602.0476 C47H6O2- 2 602.0373 17.14
  602.2294 C45H30O2- 1 602.2251 7.17
  602.3154 C44H42O2- 1 602.319 -5.96
  602.3601 C45H46O- 1 602.3554 7.72
  602.4145 C43H54O2- 1 602.4129 2.54
  602.5322 C39H70O4- 2 602.528 7.03
  602.6641 C39H86O3- 2 602.6582 9.79
  603.0741 C48H11O- 2 603.0815 -12.34
  603.216 C48H27- 1 603.2118 6.89
  603.256 C42H35O4- 2 603.2541 3.22
  603.4575 C44H59O- 1 603.4571 0.54
  604.0398 C47H8O2- 1 604.053 -21.75
  604.0982 C48H12O- 2 604.0894 14.55
  604.1463 C46H20O2- 1 604.1469 -0.94
  604.2438 C45H32O2- 1 604.2408 5.07
  604.3013 C43H40O3- 2 604.2983 5
  604.5457 C39H72O4- 2 604.5436 3.4
  604.5806 C40H76O3- 2 604.58 1.03
  605.3181 C47H41- 2 605.3214 -5.36
  605.5245 C42H69O2- 1 605.5303 -9.61
  606.0917 C44H14O4- 2 606.0898 3.28
  606.3149 C43H42O3- 2 606.3139 1.51
  606.3794 C45H50O- 2 606.3867 -12.1
  606.4527 C43H58O2- 2 606.4442 14.05
  606.6507 C38H86O4- 1 606.6532 -4.07
  607.0932 C44H15O4- 1 607.0976 -7.19
  607.2857 C42H39O4- 2 607.2854 0.52
  607.5145 C41H67O3- 2 607.5096 8.1
  607.5876 C43H75O- 1 607.5823 8.61
  607.9865 C48O2- 1 607.9904 -6.43
  608.0987 C44H16O4- 2 608.1054 -11.08
  608.1554 C49H20- 2 608.157 -2.71
  608.3131 C46H40O- 1 608.3085 7.67
  608.3999 C45H52O- 2 608.4024 -4.09
  608.5691 C39H76O4- 1 608.5749 -9.61
  608.6191 C44H80- 2 608.6266 -12.26
  609.1539 C45H21O3- 2 609.1496 7
  609.3651 C44H49O2- 1 609.3738 -14.28
  609.5398 C45H69- 2 609.5405 -1.15
  609.6179 C40H81O3- 1 609.6191 -1.94
  609.6858 C42H89O- 2 609.6919 -10.03
  610.0098 C48H2O2- 1 610.006 6.19
  610.0913 C47H14O2- 1 610.0999 -14.1
  610.3351 C43H46O3- 2 610.3452 -16.7
  611.0241 C48H3O2- 2 611.0139 16.76
  611.1089 C47H15O2- 1 611.1078 1.83
  611.2028 C46H27O2- 1 611.2017 1.8
  611.5266 C44H67O- 2 611.5197 11.17
  612.0776 C46H12O3- 1 612.0792 -2.58
  612.1273 C44H20O4- 2 612.1367 -15.41
  612.2706 C44H36O3- 2 612.267 5.84
  612.3247 C42H44O4- 2 612.3245 0.32
  612.493 C43H64O2- 1 612.4912 3.02
  612.6208 C43H80O- 2 612.6215 -1.1
  613.1315 C47H17O2- 2 613.1234 13.26
  613.3174 C45H41O2- 2 613.3112 10.16
  613.4882 C43H65O2- 1 613.499 -17.59
  613.5684 C45H73- 2 613.5718 -5.5
  613.5994 C42H77O2- 2 613.5929 10.61
  613.9908 C47H2O3- 1 614.0009 -16.59
  614.3952 C47H50- 1 614.3918 5.48
  614.5224 C40H70O4- 1 614.528 -9.13
  614.5749 C45H74- 2 614.5796 -7.68
  615.1925 C45H27O3- 1 615.1966 -6.67
  615.2612 C43H35O4- 2 615.2541 11.54
  615.4534 C45H59O- 2 615.4571 -6.15
  615.6416 C43H83O- 2 615.6449 -5.49
  616.0985 C49H12O- 2 616.0894 14.81
  616.278 C47H36O- 1 616.2772 1.38
  616.5098 C43H68O2- 1 616.5225 -20.61
  617.0906 C49H13O- 2 617.0972 -10.73
  617.2574 C46H33O2- 2 617.2486 14.31
  617.5099 C46H65- 1 617.5092 1.14
  617.6105 C45H77- 2 617.6031 11.95
  617.9977 C46H2O4- 2 617.9959 3
  618.2464 C46H34O2- 1 618.2564 -16.21
  618.3231 C48H42- 2 618.3292 -9.87
  618.3818 C46H50O- 2 618.3867 -7.95
  618.4767 C45H62O- 2 618.4806 -6.26
  619.0586 C51H7- 1 619.0553 5.33
  619.2682 C46H35O2- 1 619.2643 6.41
  619.5509 C43H71O2- 1 619.546 8.04
  619.6339 C42H83O2- 1 619.6399 -9.55
  620.0168 C46H4O4- 2 620.0115 8.61
  620.1412 C46H20O3- 1 620.1418 -1.02
  620.2998 C43H40O4- 2 620.2932 10.6
  620.4376 C47H56- 2 620.4388 -1.8
  620.4838 C41H64O4- 2 620.481 4.47
  620.5474 C43H72O2- 1 620.5538 -10.32
  620.671 C39H88O4- 2 620.6688 3.57
  621.0767 C51H9- 2 621.071 9.29
  621.1968 C44H29O4- 2 621.2071 -16.58
  621.233 C45H33O3- 2 621.2435 -16.97
  621.4199 C46H53O- 2 621.4102 15.67
  621.5945 C44H77O- 2 621.598 -5.63
  622.0055 C49H2O2- 1 622.006 -0.84
  622.1036 C48H14O2- 1 622.0999 5.87
  622.2499 C45H34O3- 1 622.2513 -2.29
  622.3798 C45H50O2- 1 622.3816 -2.87
  622.5022 C41H66O4- 2 622.4967 8.9
  622.5309 C42H70O3- 1 622.533 -3.47
  622.5761 C43H74O2- 2 622.5694 10.73
  622.6538 C42H86O2- 1 622.6633 -15.25
  623.0594 C50H7O- 2 623.0502 14.74
  623.1572 C46H23O3- 2 623.1653 -12.89
  623.2991 C46H39O2- 1 623.2956 5.72
  623.3434 C44H47O3- 2 623.3531 -15.59
  623.6813 C42H87O2- 1 623.6712 16.31
  624.2261 C44H32O4- 1 624.2306 -7.23
  624.352 C44H48O3- 2 624.3609 -14.25
  625.1132 C48H17O2- 1 625.1234 -16.32
  625.184 C46H25O3- 2 625.1809 4.95
  625.259 C48H33O- 1 625.2537 8.56
  625.4628 C43H61O3- 2 625.4626 0.26
  625.5236 C41H69O4- 2 625.5201 5.58
  626.1167 C51H14- 2 626.1101 10.61
  626.5996 C43H78O2- 1 626.6007 -1.87
  627.1222 C51H15- 1 627.1179 6.85
  627.2704 C48H35O- 1 627.2693 1.63
  627.3962 C48H51- 2 627.3996 -5.51
  627.585 C46H75- 2 627.5874 -3.81
  627.9777 C47O4- 1 627.9802 -3.96
  628.2519 C44H36O4- 2 628.2619 -15.89
  628.3644 C47H48O- 2 628.3711 -10.61
  628.554 C45H72O- 2 628.5589 -7.72
  629.0476 C49H9O2- 1 629.0608 -21.04
  629.1883 C49H25O- 2 629.1911 -4.44
  629.2513 C47H33O2- 1 629.2486 4.35
  629.298 C45H41O3- 2 629.3061 -12.88
  629.337 C46H45O2- 1 629.3425 -8.73
  629.4032 C44H53O3- 2 629.4 5.05
  630.0595 C49H10O2- 1 630.0686 -14.56
  630.1004 C50H14O- 2 630.105 -7.28
  630.217 C46H30O3- 1 630.22 -4.83
  630.2543 C47H34O2- 1 630.2564 -3.42
  630.3173 C45H42O3- 2 630.3139 5.25
  630.513 C47H66- 2 630.517 -6.34
  630.6732 C44H86O- 1 630.6684 7.57
  631.0044 C47H3O4- 2 631.0037 1.09
  631.1323 C47H19O3- 1 631.134 -2.6
  631.1832 C45H27O4- 2 631.1915 -13.09
  631.5907 C45H75O- 2 631.5823 13.18
  631.981 C50O2- 1 631.9904 -14.84
  632.0493 C48H8O3- 2 632.0479 2.28
  632.3197 C45H44O3- 2 632.3296 -15.59
  632.3658 C46H48O2- 1 632.366 -0.25
  632.4586 C45H60O2- 1 632.4599 -1.99
  632.5227 C43H68O3- 2 632.5174 8.37
  632.5863 C45H76O- 2 632.5902 -6.15
  632.6335 C43H84O2- 2 632.6477 -22.4
  632.6628 C43H84O2- 2 632.6477 23.91
  632.9835 C50HO2- 1 632.9982 -23.17
  633.139 C50H17O- 2 633.1285 16.63
  633.4289 C44H57O3- 1 633.4313 -3.86
  633.4787 C42H65O4- 2 633.4888 -16.03
  634.3068 C44H42O4- 1 634.3089 -3.29
  634.4394 C44H58O3- 2 634.4391 0.36
  634.4998 C42H66O4- 2 634.4967 4.98
  634.5499 C47H70- 1 634.5483 2.59
  634.6137 C45H78O- 2 634.6058 12.42
  635.029 C47H7O4- 2 635.035 -9.47
  635.4256 C47H55O- 2 635.4258 -0.32
  635.4617 C48H59- 2 635.4622 -0.77
  635.4999 C42H67O4- 1 635.5045 -7.21
  635.5801 C44H75O2- 1 635.5773 4.43
  636.0619 C51H8O- 1 636.0581 6.01
  636.0952 C52H12- 1 636.0944 1.23
  636.3885 C46H52O2- 1 636.3973 -13.84
  636.4688 C48H60- 2 636.4701 -2
  636.5487 C43H72O3- 2 636.5487 0.05
  636.6713 C43H88O2- 1 636.679 -12.12
  637.1094 C52H13- 2 637.1023 11.23
  637.148 C46H21O4- 2 637.1445 5.44
  637.2342 C45H33O4- 1 637.2384 -6.66
  637.2747 C46H37O3- 2 637.2748 -0.24
  637.3106 C47H41O2- 1 637.3112 -0.9
  637.3749 C45H49O3- 2 637.3687 9.67
  637.4347 C47H57O- 2 637.4415 -10.73
  637.5588 C43H73O3- 2 637.5565 3.64
  637.6414 C42H85O3- 2 637.6504 -14.16
  638.034 C50H6O2- 1 638.0373 -5.26
  638.0871 C48H14O3- 2 638.0948 -12.14
  638.5008 C45H66O2- 1 638.5068 -9.52
  639.0626 C47H11O4- 1 639.0663 -5.74
  639.2272 C48H31O2- 1 639.233 -9.01
  639.4793 C44H63O3- 2 639.4783 1.58
  639.5584 C46H71O- 2 639.551 11.48
  639.6146 C44H79O2- 2 639.6086 9.38
  640.4452 C43H60O4- 1 640.4497 -7.03
  640.4788 C44H64O3- 2 640.4861 -11.4
  640.5732 C43H76O3- 2 640.58 -10.57
  641.0922 C51H13O- 2 641.0972 -7.75
  641.3811 C48H49O- 1 641.3789 3.38
  641.5139 C48H65- 1 641.5092 7.36
  641.608 C47H77- 1 641.6031 7.62
  641.6432 C41H85O4- 1 641.6453 -3.36
  642.1398 C52H18- 2 642.1414 -2.55
  642.2228 C47H30O3- 2 642.22 4.25
  642.3502 C47H46O2- 1 642.3503 -0.14
  642.6161 C47H78- 2 642.6109 8.03
  643.0781 C50H11O2- 1 643.0765 2.63
  643.1403 C48H19O3- 2 643.134 9.87
  643.258 C48H35O2- 1 643.2643 -9.72
  643.3005 C49H39O- 2 643.3006 -0.17
  643.3457 C47H47O2- 1 643.3582 -19.34
  643.4662 C43H63O4- 2 643.4732 -10.89
  643.5902 C46H75O- 2 643.5823 12.25
  644.1703 C49H24O2- 1 644.1782 -12.21
  644.3618 C47H48O2- 1 644.366 -6.5
  644.4168 C45H56O3- 2 644.4235 -10.31
  644.4542 C46H60O2- 1 644.4599 -8.75
  644.6158 C43H80O3- 2 644.6113 7.04
  645.0458 C49H9O3- 2 645.0557 -15.33
  645.0717 C49H9O3- 2 645.0557 24.76
  645.1709 C52H21- 2 645.1649 9.39
  645.3819 C47H49O2- 2 645.3738 12.49
  645.5473 C48H69- 2 645.5405 10.59
  646.0299 C48H6O4- 2 646.0272 4.23
  646.099 C50H14O2- 1 646.0999 -1.46
  646.5341 C44H70O3- 2 646.533 1.69
  646.6619 C44H86O2- 1 646.6633 -2.17
  647.1905 C49H27O2- 1 647.2017 -17.3
  647.3799 C47H51O2- 1 647.3895 -14.81
  647.4691 C49H59- 2 647.4622 10.57
  647.5493 C48H71- 2 647.5561 -10.58
  647.6473 C47H83- 2 647.65 -4.19
  647.9751 C50O3- 1 647.9853 -15.77
  648.1002 C53H12- 2 648.0944 8.88
  648.1648 C48H24O3- 2 648.1731 -12.83
  648.4259 C44H56O4- 2 648.4184 11.51
  648.5029 C43H68O4- 2 648.5123 -14.54
  648.5567 C48H72- 2 648.564 -11.25
  648.5807 C45H76O2- 1 648.5851 -6.69
  648.6461 C43H84O3- 2 648.6426 5.44
  648.6948 C44H88O2- 1 648.679 24.43
  649.1458 C47H21O4- 2 649.1445 1.88
  649.4041 C47H53O2- 1 649.4051 -1.55
  649.516 C43H69O4- 1 649.5201 -6.32
  650.0353 C51H6O2- 1 650.0373 -3.16
  650.0993 C49H14O3- 2 650.0948 6.92
  650.1606 C51H22O- 2 650.1676 -10.79
  650.393 C50H50- 1 650.3918 1.91
  650.564 C44H74O3- 2 650.5643 -0.54
  650.6194 C42H82O4- 1 650.6219 -3.76
  651.1171 C53H15- 2 651.1179 -1.21
  651.2963 C47H39O3- 2 651.2905 8.94
  651.3877 C46H51O3- 2 651.3844 5.07
  652.0379 C54H4- 2 652.0318 9.21
  652.2509 C49H32O2- 2 652.2408 15.52
  652.3034 C47H40O3- 2 652.2983 7.87
  652.3383 C48H44O2- 1 652.3347 5.54
  652.4134 C50H52- 2 652.4075 9.17
  652.4752 C48H60O- 2 652.465 15.66
  652.6422 C42H84O4- 2 652.6375 7.15
  652.6931 C47H88- 1 652.6892 6
  653.0842 C48H13O4- 2 653.0819 3.45
  653.1688 C47H25O4- 2 653.1758 -10.81
  653.224 C52H29- 2 653.2275 -5.32
  653.4069 C46H53O3- 2 653.4 10.57
  653.4478 C44H61O4- 2 653.4575 -14.92
  653.4813 C48H61O- 2 653.4728 13.02
  653.5399 C46H69O2- 2 653.5303 14.62
  653.6479 C42H85O4- 2 653.6453 3.97
  653.6924 C47H89- 2 653.697 -7.07
  654.067 C51H10O2- 1 654.0686 -2.43
  654.2059 C51H26O- 2 654.1989 10.65
  654.2923 C50H38O- 2 654.2928 -0.79
  654.3993 C46H54O3- 2 654.4078 -13.09
  654.5797 C47H74O- 2 654.5745 7.88
  655.1591 C50H23O2- 1 655.1704 -17.23
  655.4345 C50H55- 1 655.4309 5.51
  655.5323 C49H67- 2 655.5248 11.34
  655.5933 C44H79O3- 2 655.6035 -15.49
  655.9855 C52O2- 1 655.9904 -7.38
  656.0513 C50H8O3- 2 656.0479 5.24
  656.3205 C47H44O3- 2 656.3296 -13.88
  656.4488 C47H60O2- 1 656.4599 -16.9
  656.5324 C49H68- 2 656.5327 -0.45
  656.593 C47H76O- 1 656.5902 4.26
  657.0898 C51H13O2- 1 657.0921 -3.55
  657.2891 C49H37O2- 2 657.2799 13.93
  657.379 C48H49O2- 2 657.3738 7.95
  657.4485 C50H57- 1 657.4466 3
  657.5614 C46H73O2- 1 657.5616 -0.27
  658.0517 C53H6O- 2 658.0424 14.15
  658.085 C54H10- 2 658.0788 9.48
  658.1486 C49H22O3- 2 658.1574 -13.48
  658.2338 C51H30O- 1 658.2302 5.5
  658.4277 C49H54O- 2 658.418 14.64
  658.5606 C46H74O2- 1 658.5694 -13.34
  658.6264 C44H82O3- 2 658.6269 -0.87
  659.0509 C53H7O- 2 659.0502 0.93
  659.1439 C52H19O- 2 659.1441 -0.29
  659.2962 C49H39O2- 1 659.2956 1.04
  659.4675 C50H59- 2 659.4622 7.96
  660.0153 C52H4O2- 2 660.0217 -9.7
  660.2309 C47H32O4- 2 660.2306 0.48
  660.4329 C49H56O- 2 660.4337 -1.1
  660.5105 C44H68O4- 1 660.5123 -2.7
  660.5638 C49H72- 2 660.564 -0.26
  660.61 C43H80O4- 2 660.6062 5.7
  660.9924 C51HO3- 2 660.9931 -1.02
  661.0952 C54H13- 2 661.1023 -10.71
  661.1551 C52H21O- 2 661.1598 -7.1
  661.3743 C47H49O3- 2 661.3687 8.49
  661.6666 C48H85- 2 661.6657 1.33
  662.2327 C50H30O2- 2 662.2251 11.43
  662.2913 C52H38- 2 662.2979 -9.9
  663.0224 C55H3- 2 663.024 -2.46
  663.1036 C50H15O3- 2 663.1027 1.37
  663.3318 C49H43O2- 2 663.3269 7.45
  663.4867 C50H63- 2 663.4935 -10.3
  663.6634 C44H87O3- 1 663.6661 -4.03
  663.976 C50O4- 1 663.9802 -6.4
  664.1951 C49H28O3- 2 664.2044 -13.94
  664.2456 C50H32O2- 2 664.2408 7.19
  664.3251 C49H44O2- 1 664.3347 -14.4
  664.362 C46H48O4- 2 664.3558 9.38
  664.459 C49H60O- 2 664.465 -8.93
  664.6216 C43H84O4- 2 664.6375 -23.89
  664.6496 C43H84O4- 2 664.6375 18.23
  665.2501 C50H33O2- 1 665.2486 2.21
  665.31 C48H41O3- 2 665.3061 5.84
  665.3537 C46H49O4- 2 665.3636 -14.99
  665.4742 C49H61O- 1 665.4728 2.11
  665.6805 C44H89O3- 2 665.6817 -1.83
  666.0102 C54H2O- 2 666.0111 -1.39
  666.109 C53H14O- 1 666.105 6.06
  666.1689 C51H22O2- 2 666.1625 9.56
  666.2253 C49H30O3- 2 666.22 7.9
  666.4336 C48H58O2- 1 666.4442 -15.94
  666.546 C47H70O2- 2 666.5381 11.83
  667.0325 C51H7O3- 2 667.0401 -11.36
  667.0804 C52H11O2- 1 667.0765 5.91
  667.2285 C49H31O3- 2 667.2279 0.93
  667.2735 C50H35O2- 2 667.2643 13.93
  667.3656 C49H47O2- 2 667.3582 11.16
  667.4436 C48H59O2- 1 667.4521 -12.68
  667.5133 C46H67O3- 2 667.5096 5.61
  668.1794 C51H24O2- 1 668.1782 1.81
  668.3593 C49H48O2- 1 668.366 -9.95
  668.4898 C49H64O- 2 668.4963 -9.6
  668.6428 C46H84O2- 1 668.6477 -7.34
  669.1044 C49H17O4- 2 669.1132 -13.23
  669.2132 C48H29O4- 2 669.2071 8.99
  669.4305 C47H57O3- 2 669.4313 -1.17
  669.543 C50H69- 1 669.5405 3.84
  669.5908 C48H77O- 2 669.598 -10.69
  670.3508 C48H46O3- 2 670.3452 8.23
  670.574 C47H74O2- 2 670.5694 6.83
  670.6774 C46H86O2- 1 670.6633 20.91
  671.1021 C52H15O2- 1 671.1078 -8.45
  671.2818 C53H35- 2 671.2744 11
  671.3695 C52H47- 2 671.3683 1.77
  671.5447 C46H71O3- 2 671.5409 5.66
  672.0052 C56- 2 672.0005 6.97
  672.1129 C52H16O2- 1 672.1156 -4.02
  672.1625 C53H20O- 2 672.152 15.68
  672.1989 C51H28O2- 1 672.2095 -15.66
  672.3503 C51H44O- 2 672.3398 15.63
  672.6321 C45H84O3- 2 672.6426 -15.65
  672.6839 C46H88O2- 1 672.679 7.37
  673.1008 C55H13- 2 673.1023 -2.14
  673.3357 C47H45O4- 2 673.3323 5.05
  673.4075 C49H53O2- 1 673.4051 3.5
  673.4636 C47H61O3- 2 673.4626 1.4
  673.6615 C49H85- 2 673.6657 -6.2
  674.0397 C53H6O2- 1 674.0373 3.51
  674.2166 C51H30O2- 1 674.2251 -12.72
  674.4797 C51H62- 2 674.4857 -8.91
  674.6271 C44H82O4- 2 674.6219 7.77
  675.1687 C53H23O- 2 675.1754 -9.94
  675.3068 C53H39- 2 675.3057 1.61
  675.5086 C48H67O2- 1 675.5147 -8.97
  675.6043 C47H79O2- 1 675.6086 -6.23
  675.6525 C48H83O- 2 675.6449 11.11
  675.9817 C51O4- 2 675.9802 2.25
  676.213 C54H28- 2 676.2196 -9.83
  676.2763 C52H36O- 2 676.2772 -1.33
  676.3519 C47H48O4- 1 676.3558 -5.79
  677.1142 C51H17O3- 1 677.1183 -6.03
  677.3449 C50H45O2- 1 677.3425 3.51
  677.4373 C49H57O2- 1 677.4364 1.36
  677.5422 C45H73O4- 2 677.5514 -13.67
  677.6448 C44H85O4- 2 677.6453 -0.8
  677.7045 C49H89- 1 677.697 11.13
  678.0847 C50H14O4- 2 678.0898 -7.39
  678.1935 C53H26O- 2 678.1989 -8.05
  678.554 C45H74O4- 2 678.5593 -7.73
  678.6359 C47H82O2- 1 678.632 5.7
  678.6843 C48H86O- 1 678.6684 23.44
  679.3398 C53H43- 1 679.337 4.12
  679.3818 C47H51O4- 2 679.3793 3.75
  680.0846 C53H12O2- 1 680.0843 0.42
  680.6001 C49H76O- 2 680.5902 14.59
  680.6641 C44H88O4- 2 680.6688 -6.97
  680.998 C54HO2- 1 680.9982 -0.32
  681.0325 C55H5O- 2 681.0346 -3.01
  681.1645 C55H21- 2 681.1649 -0.57
  681.2071 C49H29O4- 2 681.2071 -0.11
  681.2803 C51H37O2- 1 681.2799 0.54
  681.6373 C50H81- 1 681.6344 4.33
  682.0098 C54H2O2- 1 682.006 5.6
  682.2103 C49H30O4- 2 682.215 -6.89
  682.4101 C47H54O4- 2 682.4028 10.75
  682.4561 C52H58- 2 682.4544 2.43
  682.5963 C45H78O4- 2 682.5906 8.34
  682.67 C47H86O2- 1 682.6633 9.7
  683.0492 C55H7O- 2 683.0502 -1.57
  683.0888 C56H11- 1 683.0866 3.11
  683.279 C54H35- 2 683.2744 6.67
  683.4074 C47H55O4- 1 683.4106 -4.7
  683.6073 C49H79O- 2 683.6136 -9.32
  684.031 C54H4O2- 2 684.0217 13.59
  684.313 C51H40O2- 2 684.3034 14.11
  684.3826 C53H48- 2 684.3762 9.39
  684.4422 C51H56O- 2 684.4337 12.48
  684.5592 C51H72- 2 684.564 -6.98
  684.5902 C48H76O2- 2 684.5851 7.53
  685.0775 C52H13O3- 2 685.087 -13.91
  685.2375 C49H33O4- 2 685.2384 -1.38
  685.3603 C49H49O3- 2 685.3687 -12.32
  685.4956 C49H65O2- 1 685.499 -4.96
  685.5354 C50H69O- 2 685.5354 0.07
  685.5741 C51H73- 1 685.5718 3.45
  685.6832 C47H89O2- 1 685.6868 -5.29
  686.1769 C54H22O- 2 686.1676 13.49
  686.3275 C51H42O2- 2 686.319 12.41
  686.4386 C47H58O4- 2 686.4341 6.62
  686.4741 C48H62O3- 2 686.4704 5.38
  686.5115 C49H66O2- 2 686.5068 6.82
  686.6171 C45H82O4- 2 686.6219 -6.94
  687.0651 C51H11O4- 2 687.0663 -1.73
  687.1699 C54H23O- 2 687.1754 -8.09
  687.3073 C54H39- 2 687.3057 2.31
  687.35 C48H47O4- 2 687.348 2.88
  687.5998 C48H79O2- 1 687.6086 -12.71
  688.0345 C57H4- 1 688.0318 3.84
  688.1362 C53H20O2- 1 688.1469 -15.58
  688.5108 C49H68O2- 1 688.5225 -16.97
  688.5653 C50H72O- 2 688.5589 9.38
  688.6772 C46H88O3- 2 688.6739 4.77
  689.4174 C53H53- 1 689.4153 3.12
  689.5387 C49H69O2- 2 689.5303 12.14
  690.0787 C54H10O2- 2 690.0686 14.55
  690.1376 C56H18- 2 690.1414 -5.53
  690.4552 C47H62O4- 2 690.4654 -14.69
  690.5031 C48H66O3- 2 690.5017 1.9
  690.6512 C45H86O4- 2 690.6532 -2.77
  691.1107 C55H15O- 2 691.1128 -3.13
  691.1821 C50H27O4- 2 691.1915 -13.61
  691.2245 C51H31O3- 1 691.2279 -4.85
  691.2765 C49H39O4- 2 691.2854 -12.79
  691.3624 C51H47O2- 2 691.3582 6.17
  691.6915 C49H87O- 1 691.6762 22.08
  692.251 C55H32- 2 692.2509 0.02
  692.346 C54H44- 2 692.3448 1.66
  692.3895 C48H52O4- 2 692.3871 3.51
  692.5626 C49H72O2- 2 692.5538 12.68
  692.9945 C55HO2- 1 692.9982 -5.3
  693.1402 C52H21O3- 2 693.1496 -13.56
  693.1856 C53H25O2- 1 693.186 -0.63
  693.2638 C55H33- 2 693.2588 7.23
  693.5065 C51H65O- 1 693.5041 3.41
  694.1614 C52H22O3- 2 694.1574 5.73
  694.3924 C48H54O4- 2 694.4028 -14.9
  694.4305 C49H58O3- 2 694.4391 -12.51
  694.474 C50H62O2- 1 694.4755 -2.26
  694.5983 C50H78O- 2 694.6058 -10.78
  695.297 C52H39O2- 1 695.2956 2.01
  695.5538 C52H71- 2 695.5561 -3.36
  695.5933 C46H79O4- 2 695.5984 -7.32
  696.0038 C58- 1 696.0005 4.6
  696.0744 C53H12O3- 2 696.0792 -6.85
  696.1316 C51H20O4- 2 696.1367 -7.34
  696.2417 C54H32O- 2 696.2459 -5.91
  696.4849 C50H64O2- 1 696.4912 -9.05
  697.3839 C54H49- 2 697.384 -0.04
  697.5713 C52H73- 2 697.5718 -0.7
  698.0104 C58H2- 2 698.0162 -8.38
  698.3548 C53H46O- 2 698.3554 -0.89
  698.4151 C51H54O2- 1 698.4129 3.14
  698.4489 C52H58O- 2 698.4493 -0.58
  699.0073 C54H3O3- 2 699.0088 -2.15
  699.0843 C56H11O- 1 699.0815 4.01
  699.3201 C52H43O2- 1 699.3269 -9.64
  699.3855 C50H51O3- 2 699.3844 1.66
  699.5664 C48H75O3- 2 699.5722 -8.18
  699.6101 C49H79O2- 1 699.6086 2.2
  700.0847 C56H12O- 2 700.0894 -6.66
  700.2801 C54H36O- 1 700.2772 4.16
  700.5613 C51H72O- 1 700.5589 3.44
  700.5976 C52H76- 1 700.5953 3.32
  700.6821 C51H88- 2 700.6892 -10.13
  701.4069 C50H53O3- 2 701.4 9.8
  701.4469 C51H57O2- 2 701.4364 14.95
  701.5135 C53H65- 2 701.5092 6.1
  701.5586 C47H73O4- 2 701.5514 10.27
  701.5913 C48H77O3- 2 701.5878 5.03
  702.1598 C54H22O2- 1 702.1625 -3.91
  702.3465 C52H46O2- 1 702.3503 -5.5
  702.3998 C50H54O3- 2 702.4078 -11.42
  702.4501 C51H58O2- 2 702.4442 8.31
  703.0178 C57H3O- 2 703.0189 -1.66
  703.1997 C55H27O- 2 703.2067 -10.07
  703.3116 C51H43O3- 2 703.3218 -14.39
  703.6686 C46H87O4- 2 703.661 10.76
  704.0789 C55H12O2- 1 704.0843 -7.57
  704.1811 C54H24O2- 1 704.1782 4.16
  704.2524 C56H32- 2 704.2509 2.01
  704.4365 C54H56- 2 704.4388 -3.12
  704.5407 C50H72O2- 1 704.5538 -18.61
  704.5897 C51H76O- 2 704.5902 -0.59
  705.1766 C54H25O2- 1 705.186 -13.29
  705.5518 C50H73O2- 1 705.5616 -13.88
  706.2661 C56H34- 2 706.2666 -0.73
  706.3611 C55H46- 2 706.3605 0.89
  706.4572 C54H58- 1 706.4544 3.93
  706.59 C47H78O4- 2 706.5906 -0.75
  706.6761 C49H86O2- 1 706.6633 18.06
  707.1215 C52H19O4- 2 707.1289 -10.41
  707.1984 C54H27O2- 1 707.2017 -4.55
  707.246 C55H31O- 2 707.238 11.21
  708.1976 C54H28O2- 1 708.2095 -16.79
  708.3543 C51H48O3- 2 708.3609 -9.34
  708.4406 C53H56O- 2 708.4337 9.8
  708.5553 C49H72O3- 2 708.5487 9.27
  709.268 C52H37O3- 2 709.2748 -9.56
  710.0636 C53H10O4- 2 710.0585 7.18
  710.1135 C58H14- 1 710.1101 4.73
  710.1803 C53H26O3- 2 710.1887 -11.88
  710.2274 C54H30O2- 1 710.2251 3.18
  710.267 C55H34O- 2 710.2615 7.75
  710.5758 C53H74- 2 710.5796 -5.28
  710.6691 C52H86- 2 710.6735 -6.13
  711.0224 C59H3- 2 711.024 -2.25
  711.2676 C55H35O- 2 711.2693 -2.38
  711.3227 C53H43O2- 1 711.3269 -5.89
  711.3834 C51H51O3- 2 711.3844 -1.31
  711.9999 C58O- 2 711.9955 6.2
  712.1174 C54H16O3- 2 712.1105 9.72
  712.2609 C51H36O4- 2 712.2619 -1.44
  712.3198 C56H40- 2 712.3135 8.74
  712.4867 C50H64O3- 2 712.4861 0.82
  712.6159 C50H80O2- 1 712.6164 -0.62
  712.6747 C48H88O3- 2 712.6739 1.07
  713.0724 C53H13O4- 2 713.0819 -13.39
  713.1133 C54H17O3- 2 713.1183 -6.97
  713.1546 C55H21O2- 1 713.1547 -0.15
  713.2439 C54H33O2- 1 713.2486 -6.62
  713.3195 C56H41- 2 713.3214 -2.62
  713.3696 C50H49O4- 2 713.3636 8.34
  714.1692 C55H22O2- 2 714.1625 9.34
  714.2503 C54H34O2- 1 714.2564 -8.62
  714.3313 C56H42- 2 714.3292 2.91
  714.5294 C51H70O2- 1 714.5381 -12.27
  714.5947 C49H78O3- 2 714.5956 -1.28
  714.668 C51H86O- 2 714.6684 -0.53
  715.5045 C50H67O3- 2 715.5096 -7.08
  715.6095 C49H79O3- 2 715.6035 8.46
  716.0162 C54H4O4- 2 716.0115 6.51
  716.1712 C55H24O2- 1 716.1782 -9.78
  716.3702 C53H48O2- 2 716.366 5.86
  716.6114 C49H80O3- 2 716.6113 0.17
  716.6974 C51H88O- 1 716.6841 18.57
  717.0136 C54H5O4- 2 717.0193 -8.06
  717.1019 C56H13O2- 2 717.0921 13.6
  717.2783 C54H37O2- 1 717.2799 -2.23
  717.3324 C52H45O3- 2 717.3374 -6.94
  717.4002 C50H53O4- 2 717.3949 7.34
  717.4705 C52H61O2- 1 717.4677 3.92
  717.5049 C53H65O- 2 717.5041 1.19
  717.6889 C51H89O- 2 717.6919 -4.13
  718.3481 C52H46O3- 2 718.3452 4.03
  718.4061 C50H54O4- 2 718.4028 4.67
  718.4472 C55H58- 2 718.4544 -10.03
  718.5894 C48H78O4- 2 718.5906 -1.6
  719.0021 C57H3O2- 1 719.0139 -16.36
  719.1294 C53H19O4- 2 719.1289 0.73
  719.3683 C56H47- 2 719.3683 -0.04
  719.5872 C51H75O2- 2 719.5773 13.76
  719.6789 C50H87O2- 1 719.6712 10.81
  720.195 C58H24- 2 720.1883 9.24
  720.2819 C57H36- 2 720.2822 -0.5
  720.3214 C51H44O4- 1 720.3245 -4.3
  720.439 C54H56O- 2 720.4337 7.44
  720.6854 C50H88O2- 1 720.679 8.93
  721.0695 C58H9O- 2 721.0659 4.94
  721.1397 C53H21O4- 2 721.1445 -6.69
  721.1846 C54H25O3- 2 721.1809 5.08
  721.6327 C52H81O- 2 721.6293 4.73
  721.6762 C50H89O2- 1 721.6868 -14.71
  722.0005 C56H2O3- 1 722.0009 -0.64
  722.0831 C58H10O- 2 722.0737 12.98
  722.4419 C54H58O- 2 722.4493 -10.26
  722.6126 C48H82O4- 2 722.6219 -12.81
  723.0674 C54H11O4- 2 723.0663 1.49
  723.1833 C57H23O- 2 723.1754 10.91
  723.2957 C53H39O3- 2 723.2905 7.2
  723.3595 C55H47O- 2 723.3632 -5.11
  723.4695 C51H63O3- 2 723.4783 -12.06
  723.5219 C52H67O2- 2 723.5147 10.05
  723.978 C55O4- 2 723.9802 -3.09
  724.3141 C57H40- 2 724.3135 0.69
  724.4075 C56H52- 2 724.4075 0.11
  724.6494 C52H84O- 2 724.6528 -4.63
  724.9891 C55HO4- 2 724.988 1.44
  725.1868 C57H25O- 2 725.1911 -5.96
  725.5394 C52H69O2- 2 725.5303 12.51
  725.6539 C52H85O- 2 725.6606 -9.2
  725.9898 C55H2O4- 1 725.9959 -8.29
  726.0266 C56H6O3- 2 726.0322 -7.79
  726.0944 C54H14O4- 2 726.0898 6.35
  726.491 C54H62O- 2 726.4806 14.27
  726.5727 C53H74O- 2 726.5745 -2.56
  726.6643 C52H86O- 2 726.6684 -5.69
  727.1027 C54H15O4- 2 727.0976 7
  727.1909 C53H27O4- 2 727.1915 -0.81
  727.3013 C56H39O- 2 727.3006 0.85
  727.3971 C55H51O- 2 727.3945 3.51
  727.4369 C56H55- 2 727.4309 8.18
  727.5844 C53H75O- 2 727.5823 2.8
  728.0515 C56H8O3- 1 728.0479 4.95
  728.0954 C54H16O4- 2 728.1054 -13.7
  728.2545 C58H32- 2 728.2509 4.85
  728.4324 C56H56- 2 728.4388 -8.75
  728.5792 C49H76O4- 2 728.5749 5.94
  729.0506 C56H9O3- 2 729.0557 -7.07
  729.1241 C58H17O- 2 729.1285 -5.98
  729.1772 C56H25O2- 1 729.186 -12.09
  729.2637 C58H33- 2 729.2588 6.73
  729.4089 C55H53O- 2 729.4102 -1.74
  729.5745 C49H77O4- 2 729.5827 -11.34
  729.6745 C48H89O4- 2 729.6766 -2.9
  730.0614 C56H10O3- 1 730.0635 -2.91
  730.1185 C54H18O4- 2 730.1211 -3.47
  730.1818 C56H26O2- 1 730.1938 -16.54
  730.2701 C58H34- 2 730.2666 4.79
  730.4635 C53H62O2- 1 730.4755 -16.44
  730.5876 C49H78O4- 3 730.5906 -3.99
  730.6528 C51H86O2- 1 730.6633 -14.43
  731.146 C58H19O- 2 731.1441 2.58
  731.2439 C57H31O- 2 731.238 8.05
  731.3059 C55H39O2- 2 731.2956 14.18
  731.3937 C54H51O2- 2 731.3895 5.85
  731.5182 C54H67O- 2 731.5197 -2.06
  731.5973 C49H79O4- 2 731.5984 -1.42
  731.681 C51H87O2- 1 731.6712 13.5
  732.0747 C56H12O3- 2 732.0792 -6.13
  732.3511 C53H48O3- 2 732.3609 -13.44
  732.4948 C53H64O2- 2 732.4912 4.98
  732.5866 C52H76O2- 1 732.5851 2.01
  732.6646 C54H84- 2 732.6579 9.27
  733.2544 C57H33O- 2 733.2537 0.93
  733.306 C55H41O2- 1 733.3112 -7.1
  733.5006 C53H65O2- 1 733.499 2.22
  733.6031 C52H77O2- 2 733.5929 13.95
  734.0236 C58H6O2- 1 734.0373 -18.72
  734.0835 C59H10O- 2 734.0737 13.36
  734.2859 C54H38O3- 2 734.2826 4.5
  735.2125 C59H27- 2 735.2118 0.85
  735.4333 C51H59O4- 2 735.4419 -11.71
  735.9743 C56O4- 1 735.9802 -8.02
  736.0781 C55H12O4- 2 736.0741 5.4
  736.1461 C57H20O2- 1 736.1469 -0.99
  736.5191 C53H68O2- 1 736.5225 -4.52
  736.6192 C52H80O2- 2 736.6164 3.83
  736.6762 C50H88O3- 2 736.6739 3.18
  737.3058 C54H41O3- 2 737.3061 -0.45
  737.3683 C52H49O4- 2 737.3636 6.32
  737.5935 C51H77O3- 2 737.5878 7.69
  738.1037 C59H14O- 2 738.105 -1.8
  738.3489 C55H46O2- 1 738.3503 -1.9
  738.4015 C53H54O3- 2 738.4078 -8.63
  738.4547 C54H58O2- 2 738.4442 14.13
  738.6237 C52H82O2- 1 738.632 -11.34
  738.9891 C56H3O4- 1 739.0037 -19.69
  739.1063 C59H15O- 2 739.1128 -8.8
  739.9935 C59O2- 2 739.9904 4.28
  740.1061 C55H16O4- 2 740.1054 0.94
  740.1723 C57H24O2- 1 740.1782 -7.96
  740.26 C56H36O2- 1 740.2721 -16.28
  740.5073 C52H68O3- 2 740.5174 -13.66
  740.5753 C50H76O4- 2 740.5749 0.54
  741.0639 C57H9O3- 1 741.0557 11.03
  741.1901 C57H25O2- 2 741.186 5.55
  741.235 C55H33O3- 2 741.2435 -11.51
  741.2995 C53H41O4- 2 741.301 -2.12
  741.3633 C55H49O2- 1 741.3738 -14.23
  741.6389 C55H81- 2 741.6344 6.05
  742.0327 C56H6O4- 1 742.0272 7.44
  742.1268 C55H18O4- 2 742.1211 7.69
  742.2331 C58H30O- 3 742.2302 3.9
  742.3492 C54H46O3- 2 742.3452 5.35
  742.4386 C53H58O3- 2 742.4391 -0.7
  742.6764 C52H86O2- 1 742.6633 17.65
  743.1185 C55H19O4- 2 743.1289 -13.96
  743.3542 C54H47O3- 2 743.3531 1.54
  743.5161 C55H67O- 2 743.5197 -4.89
  743.5514 C56H71- 2 743.5561 -6.36
  744.0401 C56H8O4- 2 744.0428 -3.61
  744.0867 C57H12O3- 1 744.0792 10.1
  744.478 C54H64O2- 1 744.4912 -17.7
  744.98 C58HO3- 1 744.9931 -17.62
  745.5996 C53H77O2- 2 745.5929 9.02
  746.12 C58H18O2- 1 746.1312 -15.11
  746.1654 C59H22O- 2 746.1676 -2.99
  746.2719 C58H34O- 2 746.2615 13.92
  746.5346 C51H70O4- 2 746.528 8.86
  747.1524 C55H23O4- 2 747.1602 -10.45
  747.3306 C56H43O2- 2 747.3269 4.95
  747.6674 C51H87O3- 2 747.6661 1.78
  747.9781 C57O4- 1 747.9802 -2.79
  748.032 C58H4O3- 1 748.0166 20.62
  748.0676 C56H12O4- 2 748.0741 -8.67
  748.3677 C57H48O- 2 748.3711 -4.54
  748.6562 C54H84O- 3 748.6528 4.56
  749.1151 C57H17O3- 1 749.1183 -4.29
  749.1786 C55H25O4- 2 749.1758 3.66
  749.4828 C56H61O- 2 749.4728 13.42
  750.0079 C57H2O4- 1 749.9959 16.06
  750.0705 C59H10O2- 1 750.0686 2.51
  750.146 C58H22O2- 1 750.1625 -22.08
  750.2218 C56H30O3- 1 750.22 2.33
  750.3109 C55H42O3- 3 750.3139 -4.11
  750.3545 C56H46O2- 2 750.3503 5.52
  750.5935 C52H78O3- 2 750.5956 -2.86
  751.004 C57H3O4- 1 751.0037 0.41
  751.139 C57H19O3- 1 751.134 6.64
  751.3127 C55H43O3- 2 751.3218 -12.11
  751.6468 C53H83O2- 2 751.6399 9.22
  752.1368 C57H20O3- 1 752.1418 -6.59
  752.3759 C56H48O2- 2 752.366 13.21
  752.6256 C56H80- 2 752.6266 -1.32
  752.6654 C50H88O4- 3 752.6688 -4.58
  753.4022 C53H53O4- 2 753.3949 9.69
  753.4323 C54H57O3- 2 753.4313 1.3
  753.5836 C51H77O4- 2 753.5827 1.18
  753.6617 C53H85O2- 2 753.6555 8.2
  754.1182 C56H18O4- 2 754.1211 -3.81
  754.2506 C56H34O3- 1 754.2513 -1.02
  754.5215 C56H66O- 2 754.5119 12.72
  754.5737 C54H74O2- 2 754.5694 5.6
  755.1418 C56H19O4- 1 755.1289 17.09
  755.2161 C55H31O4- 2 755.2228 -8.8
  755.2799 C57H39O2- 1 755.2956 -20.77
  755.4604 C58H59- 2 755.4622 -2.37
  755.5301 C56H67O- 2 755.5197 13.74
  755.5948 C51H79O4- 3 755.5984 -4.79
  755.6812 C53H87O2- 1 755.6712 13.33
  755.9838 C59O3- 1 755.9853 -1.93
  756.069 C58H12O3- 1 756.0792 -13.51
  756.1193 C59H16O2- 2 756.1156 4.92
  756.4999 C55H64O2- 2 756.4912 11.51
  756.5688 C57H72- 2 756.564 6.4
  757.0949 C58H13O3- 1 757.087 10.47
  757.1282 C59H17O2- 2 757.1234 6.39
  757.2304 C55H33O4- 2 757.2384 -10.64
  757.6192 C51H81O4- 2 757.614 6.88
  758.1624 C56H22O4- 1 758.1524 13.19
  758.2046 C57H26O3- 1 758.1887 20.91
  758.2466 C55H34O4- 2 758.2463 0.47
  758.3611 C58H46O- 2 758.3554 7.52
  758.4142 C56H54O2- 1 758.4129 1.62
  758.4939 C55H66O2- 1 758.5068 -17.08
  758.6524 C52H86O3- 2 758.6582 -7.75
  759.1314 C59H19O2- 1 759.1391 -10.02
  759.2481 C55H35O4- 2 759.2541 -7.93
  759.4016 C59H51- 2 759.3996 2.62
  759.5544 C56H71O- 3 759.551 4.39
  759.6511 C55H83O- 2 759.6449 8.05
  760.0782 C57H12O4- 1 760.0741 5.44
  760.6766 C52H88O3- 2 760.6739 3.6
  761.0942 C57H13O4- 1 761.0819 16.16
  761.1322 C58H17O3- 1 761.1183 18.29
  761.428 C56H57O2- 1 761.4364 -11.04
  761.4923 C54H65O3- 2 761.4939 -2.12
  761.6906 C56H89- 2 761.697 -8.43
  761.9901 C58H2O4- 1 761.9959 -7.59
  762.0717 C57H14O4- 1 762.0898 -23.68
  762.2897 C59H38O- 2 762.2928 -4.13
  762.3446 C57H46O2- 1 762.3503 -7.52
  763.2098 C57H31O3- 2 763.2279 -23.63
  763.4689 C53H63O4- 2 763.4732 -5.63
  763.5403 C55H71O2- 1 763.546 -7.36
  764.0262 C58H4O4- 1 764.0115 19.18
  764.2458 C57H32O3- 1 764.2357 13.18
  764.3209 C56H44O3- 2 764.3296 -11.44
  765.2025 C56H29O4- 2 765.2071 -6.05
  765.2866 C58H37O2- 2 765.2799 8.81
  765.6245 C53H81O3- 2 765.6191 6.99
  766.0545 C59H10O3- 1 766.0635 -11.85
  767.124 C57H19O4- 1 767.1289 -6.39
  767.2242 C56H31O4- 1 767.2228 1.84
  767.2929 C58H39O2- 1 767.2956 -3.5
  767.5895 C52H79O4- 2 767.5984 -11.56
  768.1299 C57H20O4- 1 768.1367 -8.87
  768.2751 C57H36O3- 1 768.267 10.52
  768.3345 C59H44O- 2 768.3398 -6.9
  768.6817 C54H88O2- 1 768.679 3.54
  769.0547 C58H9O4- 1 769.0506 5.27
  769.4924 C56H65O2- 1 769.499 -8.63
  770.3046 C58H42O2- 1 770.319 -18.8
  770.3821 C56H50O3- 1 770.3765 7.26
  771.1629 C57H23O4- 1 771.1602 3.5
  771.2592 C56H35O4- 1 771.2541 6.66
  771.4515 C58H59O- 2 771.4571 -7.28
  771.5069 C56H67O2- 1 771.5147 -9.99
  771.5558 C54H75O3- 2 771.5722 -21.2
  771.5908 C54H75O3- 3 771.5722 24.2
  771.6455 C56H83O- 2 771.6449 0.7
  772.0904 C58H12O4- 1 772.0741 21.14
  772.1845 C57H24O4- 1 772.168 21.33
  772.2868 C57H40O3- 1 772.2983 -14.86
  772.3251 C58H44O2- 1 772.3347 -12.38
  772.4573 C54H60O4- 2 772.4497 9.81
  772.6207 C55H80O2- 2 772.6164 5.66
  772.9845 C59HO4- 1 772.988 -4.59
  773.404 C56H53O3- 1 773.4 5.13
  773.5643 C57H73O- 2 773.5667 -3.04
  773.6308 C55H81O2- 2 773.6242 8.47
  774.2648 C59H34O2- 2 774.2564 10.86
  774.4047 C56H54O3- 2 774.4078 -4.08
  774.4709 C54H62O4- 2 774.4654 7.16
  774.5448 C56H70O2- 2 774.5381 8.58
  774.6227 C55H82O2- 1 774.632 -12.06
  775.3686 C58H47O2- 2 775.3582 13.48
  775.4505 C57H59O2- 1 775.4521 -1.99
  775.546 C56H71O2- 1 775.546 0.03
  776.1175 C58H16O4- 1 776.1054 15.58
  776.314 C57H44O3- 1 776.3296 -20.13
  776.4536 C57H60O2- 1 776.4599 -8.04
  777.1516 C59H21O3- 1 777.1496 2.59
  777.236 C58H33O3- 1 777.2435 -9.71
  777.3163 C56H41O4- 1 777.301 19.7
  777.4841 C54H65O4- 2 777.4888 -6.07
  778.0441 C59H6O4- 1 778.0272 21.77
  778.3378 C57H46O3- 1 778.3452 -9.63
  778.3874 C58H50O2- 2 778.3816 7.42
  778.4575 C57H62O2- 2 778.4755 -23.18
  778.6518 C55H86O2- 1 778.6633 -14.79
  779.1338 C58H19O4- 1 779.1289 6.35
  779.4134 C55H55O4- 2 779.4106 3.59
  779.5152 C58H67O- 2 779.5197 -5.86
  780.6577 C58H84- 2 780.6579 -0.13
  781.3472 C56H45O4- 1 781.3323 19.02
  781.5683 C59H73- 2 781.5718 -4.5
  781.6585 C58H85- 2 781.6657 -9.2
  782.1755 C59H26O3- 1 782.1887 -16.92
  782.2616 C57H34O4- 1 782.2463 19.65
  782.4129 C58H54O2- 1 782.4129 -0.05
  783.0562 C59H11O4- 1 783.0663 -12.94
  783.2098 C59H27O3- 1 783.1966 16.86
  783.6596 C54H87O3- 2 783.6661 -8.25
  784.0759 C59H12O4- 1 784.0741 2.24
  784.1676 C58H24O4- 1 784.168 -0.55
  784.2442 C57H36O4- 1 784.2619 -22.59
  784.336 C59H44O2- 1 784.3347 1.64
  784.3823 C57H52O3- 1 784.3922 -12.58
  784.429 C58H56O2- 1 784.4286 0.56
  784.5786 C55H76O3- 2 784.58 -1.74
  785.177 C58H25O4- 1 785.1758 1.53
  785.2578 C57H37O4- 1 785.2697 -15.22
  785.4704 C59H61O- 2 785.4728 -3.05
  786.2316 C59H30O3- 1 786.22 14.72
  786.3229 C58H42O3- 1 786.3139 11.44
  786.6118 C59H78- 2 786.6109 1.2
  786.6457 C53H86O4- 2 786.6532 -9.5
  787.2386 C59H31O3- 1 787.2279 13.69
  787.5276 C56H67O3- 2 787.5096 22.86
  787.6463 C56H83O2- 2 787.6399 8.12
  788.2972 C57H40O4- 1 788.2932 5
  788.3494 C59H48O2- 1 788.366 -21.01
  788.4287 C57H56O3- 1 788.4235 6.61
  789.2059 C58H29O4- 1 789.2071 -1.62
  789.3752 C59H49O2- 2 789.3738 1.82
  789.4204 C57H57O3- 1 789.4313 -13.79
  789.5678 C57H73O2- 2 789.5616 7.84
  790.5061 C59H66O- 2 790.5119 -7.35
  791.311 C57H43O4- 1 791.3167 -7.23
  791.4879 C58H63O2- 2 791.4834 5.79
  791.5968 C54H79O4- 3 791.5984 -2
  792.2185 C58H32O4- 1 792.2306 -15.31
  792.283 C59H36O3- 1 792.267 20.19
  792.362 C58H48O3- 1 792.3609 1.36
  793.3929 C59H53O2- 1 793.4051 -15.39
  794.2344 C58H34O4- 1 794.2463 -14.89
  794.5023 C58H66O2- 1 794.5068 -5.75
  794.5393 C59H70O- 2 794.5432 -4.93
  794.5928 C57H78O2- 1 794.6007 -9.98
  795.4092 C59H55O2- 1 795.4208 -14.52
  795.4484 C56H59O4- 1 795.4419 8.21
  796.1561 C59H24O4- 1 796.168 -14.91
  796.4908 C57H64O3- 1 796.4861 5.88
  796.6393 C54H84O4- 2 796.6375 2.23
  797.2853 C58H37O4- 1 797.2697 19.55
  797.5398 C58H69O2- 2 797.5303 11.94
  798.1681 C59H26O4- 1 798.1837 -19.48
  798.3614 C57H50O4- 1 798.3715 -12.55
  798.4495 C59H58O2- 2 798.4442 6.66
  798.5454 C58H70O2- 2 798.5381 9.05
  798.6107 C56H78O3- 1 798.5956 18.91
  798.6706 C58H86O- 2 798.6684 2.75
  799.4222 C58H55O3- 1 799.4157 8.23
  799.5377 C58H71O2- 1 799.546 -10.38
  800.4232 C58H56O3- 1 800.4235 -0.33
  800.5279 C57H68O3- 1 800.5174 13.12
  800.6618 C54H88O4- 2 800.6688 -8.77
  801.3822 C57H53O4- 1 801.3949 -15.83
  801.4771 C59H61O2- 2 801.4677 11.73
  801.5236 C57H69O3- 1 801.5252 -2.01
  801.6219 C56H81O3- 1 801.6191 3.44
  802.2123 C59H30O4- 1 802.215 -3.27
  802.3993 C57H54O4- 1 802.4028 -4.25
  802.4793 C59H62O2- 2 802.4755 4.75
  802.5397 C57H70O3- 1 802.533 8.27
  802.6338 C56H82O3- 1 802.6269 8.55
  803.2105 C59H31O4- 1 803.2228 -15.32
  803.3002 C58H43O4- 1 803.3167 -20.54
  803.3328 C58H43O4- 1 803.3167 20.12
  803.5047 C56H67O4- 1 803.5045 0.3
  803.5851 C58H75O2- 2 803.5773 9.82
  804.3637 C59H48O3- 1 804.3609 3.44
  804.4171 C57H56O4- 1 804.4184 -1.62
  804.6245 C59H80O- 3 804.6215 3.83
  805.3379 C58H45O4- 1 805.3323 6.97
  805.5338 C56H69O4- 1 805.5201 16.97
  805.6376 C59H81O- 2 805.6293 10.33
  806.4165 C57H58O4- 1 806.4341 -21.81
  806.4733 C58H62O3- 1 806.4704 3.54
  806.5704 C57H74O3- 1 806.5643 7.54
  806.6363 C59H82O- 2 806.6371 -0.96
  807.253 C59H35O4- 1 807.2541 -1.34
  807.3408 C58H47O4- 1 807.348 -8.91
  807.6438 C59H83O- 2 807.6449 -1.41
  808.5474 C56H72O4- 1 808.5436 4.65
  809.2822 C59H37O4- 1 809.2697 15.46
  809.5656 C56H73O4- 1 809.5514 17.48
  809.7004 C56H89O3- 1 809.6817 23.08
  810.3856 C58H50O4- 1 810.3715 17.48
  810.5638 C56H74O4- 1 810.5593 5.6
  810.6171 C58H82O2- 1 810.632 -18.44
  811.3772 C58H51O4- 1 811.3793 -2.58
  811.4907 C57H63O4- 2 811.4732 21.59
  811.5554 C59H71O2- 2 811.546 11.63
  811.6831 C59H87O- 1 811.6762 8.47
  812.5523 C59H72O2- 1 812.5538 -1.85
  812.7005 C59H88O- 1 812.6841 20.26
  813.3112 C59H41O4- 1 813.301 12.5
  813.4872 C57H65O4- 1 813.4888 -2.03
  814.5496 C58H70O3- 2 814.533 20.36
  815.6234 C57H83O3- 1 815.6348 -13.99
  815.6769 C58H87O2- 1 815.6712 7.04
  816.4981 C57H68O4- 1 816.5123 -17.44
  816.5364 C58H72O3- 1 816.5487 -15.08
  817.4577 C59H61O3- 1 817.4626 -6.01
  817.5857 C59H77O2- 1 817.5929 -8.86
  818.4811 C59H62O3- 1 818.4704 13.03
  819.6744 C57H87O3- 1 819.6661 10.16
  820.6081 C59H80O2- 1 820.6164 -10.06
  821.4801 C59H65O3- 1 821.4939 -16.85
  821.5418 C57H73O4- 1 821.5514 -11.68
  822.4498 C58H62O4- 1 822.4654 -18.88
  822.5538 C57H74O4- 1 822.5593 -6.67
  823.3609 C59H51O4- 1 823.3793 -22.29
  823.5521 C57H75O4- 1 823.5671 -18.15
  824.5204 C59H68O3- 1 824.5174 3.62
  824.6341 C59H84O2- 1 824.6477 -16.45
  826.4766 C58H66O4- 1 826.4967 -24.33
  826.5788 C57H78O4- 1 826.5906 -14.24
  826.6202 C58H82O3- 1 826.6269 -8.11
  827.4125 C59H55O4- 1 827.4106 2.3
  827.6725 C59H87O2- 1 827.6712 1.65
  828.5157 C58H68O4- 1 828.5123 4.08
  828.6444 C58H84O3- 1 828.6426 2.23
  829.6702 C59H89O2- 2 829.6868 -19.96
  830.5433 C58H70O4- 1 830.528 18.51
  832.6745 C58H88O3- 1 832.6739 0.72
  833.5399 C58H73O4- 1 833.5514 -13.82
  833.6483 C57H85O4- 1 833.6453 3.57
  834.5448 C58H74O4- 1 834.5593 -17.29
  835.5688 C58H75O4- 1 835.5671 2.06
  835.6559 C57H87O4- 1 835.661 -6.08
  837.6257 C59H81O3- 1 837.6191 7.87
  837.6808 C57H89O4- 1 837.6766 4.98
  842.5413 C59H70O4- 1 842.528 15.83
  842.6445 C59H86O3- 1 842.6582 -16.28
  844.5434 C59H72O4- 1 844.5436 -0.28
  860.649 C59H88O4- 1 860.6688 -23
  861.6734 C59H89O4- 1 861.6766 -3.73
PK$NUM_PEAK: 3660
PK$PEAK: m/z int. rel.int.
  71.0138 14.9 19
  71.294 23.8 30
  71.368 14 18
  72.0218 14.9 19
  72.0597 13 16
  73.0288 17.1 22
  73.0645 14 18
  73.0859 15.1 19
  73.3854 15.5 20
  74.32 18.9 24
  75.0461 13.2 17
  75.3262 13 16
  76.1481 19 24
  77.1194 14.3 18
  77.4738 16.1 20
  78.0487 17 22
  79.49 14.3 18
  79.6194 21.5 27
  81.0909 16 20
  81.6361 16.7 21
  83.0864 17.7 22
  83.1286 14 18
  84.0197 14.3 18
  84.0441 12 15
  84.0577 14 18
  84.1364 17.4 22
  84.1875 17.8 23
  86.4856 19 24
  87.0227 16.2 21
  87.2134 13.2 17
  87.5885 17 22
  87.9818 16.9 21
  88.0732 17.7 22
  88.1088 17 22
  90.0112 22 28
  90.0676 20.1 26
  91.0179 14 18
  91.5254 19.6 25
  92.0127 16.6 21
  94.4764 14.3 18
  96.0578 12 15
  96.4719 16.9 21
  96.5627 15.1 19
  97.2742 14.9 19
  97.6665 15.8 20
  98.1515 18.1 23
  98.3188 19 24
  98.353 13.1 16
  98.3915 13.2 17
  98.5052 13.5 17
  99.0676 17.1 22
  99.0827 16.1 20
  99.1988 15.1 19
  99.5531 15 19
  100.4648 17.7 22
  101.5081 24 31
  101.9946 13.2 17
  102.128 14.2 18
  102.1613 12 15
  102.5374 15.8 20
  103.2859 15.1 19
  103.4317 16.9 21
  103.6758 14 18
  103.9881 12 15
  104.4585 17.1 22
  105.0935 16.9 21
  105.3148 17.1 22
  105.4324 16.7 21
  106.3229 18 23
  106.4201 13 16
  107.0508 16 20
  107.1784 14 18
  107.4647 20.1 26
  108.246 15.8 20
  108.2696 14.9 19
  108.6571 18 23
  109.0293 16 20
  109.4786 12 15
  109.5335 14.9 19
  109.5905 18.8 24
  109.6271 16.7 21
  110.1096 14 18
  110.3574 15 19
  110.3921 19.3 25
  110.4876 14.1 18
  111.2141 15.1 19
  112.0305 18 23
  112.1258 15.8 20
  113.0044 15.8 20
  113.2254 18.8 24
  113.4739 15 19
  113.4964 15.1 19
  114.1278 13 16
  114.3283 14 18
  114.3697 20.2 26
  114.3895 20 25
  115.0547 15.4 19
  115.1135 17 22
  115.1702 17.1 22
  115.1906 18.9 24
  115.6383 16.3 21
  115.6758 19.8 25
  115.9875 16.3 21
  116.1571 17.3 22
  116.2 15.2 19
  116.2694 21.1 27
  118.6428 18.9 24
  119.0142 14 18
  119.1298 12 15
  119.4258 13 16
  119.4861 17.4 22
  120.2321 16 20
  120.5475 16 20
  121.5354 17.2 22
  121.5541 15 19
  121.6864 14 18
  122.1876 15 19
  122.4497 15 19
  123.3815 18.6 24
  123.4925 16 20
  124.0142 21.9 28
  124.0339 20.9 27
  124.6546 15 19
  124.6897 13 16
  125.175 16 20
  125.3075 13 16
  126.0679 19 24
  126.2917 17.1 22
  127.0033 19 24
  128.0269 13 16
  128.1446 16.9 21
  128.3326 16 20
  128.3901 24.2 31
  128.4232 16 20
  128.5926 16 20
  129.1126 18.8 24
  129.2591 14 18
  130.3247 14.3 18
  130.4032 15 19
  130.5137 16 20
  130.6057 15 19
  130.6249 18 23
  131.2047 13.1 16
  131.4856 18 23
  132.0453 16.2 21
  132.4577 15 19
  132.5293 19.1 24
  132.6186 17.8 23
  132.6402 13 16
  133.0631 16 20
  133.1417 14 18
  134.3002 16.7 21
  134.5659 14.9 19
  134.6405 15 19
  134.6555 28.2 36
  135.0646 14.3 18
  135.3028 18.8 24
  136.0319 18 23
  136.1647 20 25
  136.2389 17.2 22
  136.2979 16.2 21
  136.4098 14 18
  136.4496 14.1 18
  136.5813 17.4 22
  137.0393 16.5 21
  137.1195 18.6 24
  137.4121 20 25
  138.3131 13.2 17
  138.3317 13 16
  138.4681 14.3 18
  139.005 16.7 21
  139.1133 16.2 21
  139.4886 18.1 23
  139.5662 16 20
  140.4232 18 23
  140.481 24.1 31
  141.0945 19 24
  141.1531 12.4 16
  141.3525 14.9 19
  141.374 14 18
  141.4656 15 19
  141.6571 19.8 25
  141.6904 13.5 17
  142.0989 14 18
  142.3114 18.8 24
  142.383 14 18
  142.4054 14 18
  142.4987 14 18
  143.1073 15 19
  143.1319 15.1 19
  143.1832 16 20
  143.2404 15 19
  143.5023 14 18
  143.9984 20 25
  144.2322 18.5 23
  144.4927 14 18
  144.5254 18 23
  145.1217 14 18
  145.3512 12 15
  145.6481 17 22
  146.057 18.8 24
  146.0956 17.4 22
  146.3532 13 16
  146.5461 14.1 18
  147.0809 16.9 21
  147.3035 15 19
  147.3472 14 18
  147.9926 17 22
  148.1134 17.1 22
  148.2435 16.2 21
  148.45 16.9 21
  148.5469 29.2 37
  149.0428 15.8 20
  149.273 18.2 23
  149.3792 18.8 24
  149.4756 15.8 20
  149.5491 21.5 27
  150.0878 15.4 19
  150.1447 23.4 30
  150.163 18.2 23
  150.236 14 18
  150.3271 14 18
  151.1352 14.6 18
  151.3402 14.6 18
  151.4758 13 16
  151.5475 15 19
  152.0862 19.6 25
  152.3064 16.7 21
  152.4015 15 19
  152.5745 12 15
  152.6467 16 20
  153.0173 14 18
  153.0932 14.3 18
  153.1146 18 23
  153.2061 13 16
  153.2221 17 22
  153.2573 19.1 24
  153.3127 19.7 25
  153.3352 13 16
  153.3517 19.6 25
  153.3982 16 20
  153.4879 13 16
  153.6349 13 16
  154.384 17.1 22
  154.587 13 16
  154.6273 18.9 24
  155.1428 16 20
  155.1654 12 15
  155.6528 15.8 20
  155.9862 16.7 21
  156.0178 15.2 19
  156.0927 18.1 23
  156.1538 15 19
  156.5247 17 22
  157.0488 17 22
  157.1612 19 24
  157.1928 19.8 25
  157.2346 16.2 20
  157.2518 15.1 19
  157.5348 13 16
  158.0032 16.2 20
  158.5297 15.1 19
  158.565 16 20
  159.069 19.8 25
  159.1379 14 18
  159.2554 17.7 22
  159.3287 17 22
  159.3864 15 19
  159.4456 16.9 21
  159.6065 16.1 20
  160.086 21 27
  160.1833 14 18
  160.3119 16.3 21
  160.5412 14 18
  160.6876 19.7 25
  161.2253 12 15
  161.3224 15 19
  161.3798 20 25
  161.6991 16.6 21
  162.4452 14.9 19
  163.1364 15 19
  163.1667 13 16
  163.2982 14.1 18
  163.4538 16 20
  163.5801 19.2 24
  164.0094 12.1 15
  164.1243 14 18
  164.6823 13 16
  165.056 17.6 22
  165.1826 17 22
  165.489 13 16
  166.0611 15.4 19
  166.0776 17 22
  166.1018 16.5 21
  166.2647 15 19
  166.4033 13.2 17
  167.0838 14.9 19
  167.2565 14.3 18
  167.371 12 15
  167.5578 16.2 21
  168.0753 16.2 20
  168.1737 16.5 21
  168.2695 15.8 20
  168.2995 16.2 21
  168.5653 16 20
  168.5861 17.8 23
  169.1844 13 16
  169.4457 15.8 20
  170.0172 13 16
  170.1873 19.7 25
  170.3595 21 27
  170.524 17 22
  171.0266 19 24
  171.0443 16.9 21
  171.1005 15.8 20
  171.1169 13.2 17
  171.2091 15.4 19
  171.4978 14.9 19
  171.5547 15.1 19
  171.6674 15.1 19
  172.0202 16.9 21
  172.1453 15 19
  172.2034 18.8 24
  172.4857 21.1 27
  172.5945 19.1 24
  173.0008 19.7 25
  173.0236 13 16
  173.1739 22.1 28
  173.2156 13.5 17
  173.3064 17.7 22
  173.4558 18.2 23
  173.4923 15.1 19
  173.6238 18.2 23
  173.6488 15.4 19
  174.0872 14.6 18
  174.1263 13 16
  174.4239 13.2 17
  174.4643 13 16
  175.0208 17.7 22
  175.2099 18.6 24
  175.266 17 22
  175.2875 16 20
  175.3768 24 31
  175.5456 14 18
  175.5995 17.8 23
  175.6779 14.1 18
  176.1581 16 20
  176.2331 18 23
  176.3414 19 24
  176.5149 18 23
  176.6137 16.9 21
  176.631 16.6 21
  177.054 17.4 22
  177.1088 18 23
  177.2627 15.1 19
  177.3368 14 18
  177.3977 13.1 16
  177.583 13 16
  177.602 15.4 19
  178.0627 19.1 24
  178.1213 12.4 16
  178.2182 14.4 18
  178.3068 12.4 16
  178.4193 17.1 22
  178.5508 15.1 19
  178.6677 13.2 17
  179.141 16.2 21
  179.1978 19.2 24
  179.3857 15.8 20
  179.5062 24 31
  179.9998 19 24
  180.3254 18.2 23
  180.3374 19.6 25
  180.3789 16 20
  180.4568 14.9 19
  180.4868 14.9 19
  180.5303 14.3 18
  180.9922 22.5 29
  181.0689 16 20
  181.1251 21.7 28
  181.6274 15.8 20
  181.6507 15.4 19
  182.4699 19 24
  182.531 15.8 20
  182.6553 17.7 22
  183.0216 22 28
  183.254 13.2 17
  183.293 13 16
  183.3828 20.8 26
  183.5467 16 20
  183.5753 20.8 26
  183.6473 12 15
  183.9924 17.4 22
  184.0498 14 18
  184.5759 16.1 20
  184.6208 14.3 18
  186.0087 17.7 22
  186.2031 16.2 21
  186.2361 15 19
  186.2543 15.8 20
  186.4046 16.5 21
  186.4779 13.5 17
  186.5032 13.1 16
  186.5565 16.5 21
  186.6289 18.2 23
  187.0359 17.8 23
  187.1301 16.1 20
  187.3817 13.5 17
  188.0657 15 19
  189.0524 16.5 21
  189.1322 16 20
  189.2262 18 23
  189.2543 19 24
  189.355 17 22
  189.4346 18.1 23
  189.4699 16 20
  190.121 14.2 18
  190.2863 14.9 19
  190.5163 18.2 23
  191.0823 18.9 24
  191.1274 19.3 25
  191.1465 16 20
  191.1758 14 18
  191.5063 14 18
  191.537 15 19
  191.5565 17 22
  191.9845 14.3 18
  192.2435 20.9 27
  192.3766 19.6 25
  192.6208 16.1 20
  193.0503 17 22
  193.2854 17.2 22
  193.3309 18.8 24
  193.4592 16.9 21
  193.5016 14 18
  193.5361 16 20
  193.685 18.2 23
  194.1149 19 24
  194.2509 18.6 24
  194.2941 18 23
  195.0469 14.3 18
  195.1051 15.8 20
  195.216 14.3 18
  195.6288 15.1 19
  196.1268 13 16
  196.2022 19 24
  196.3922 20.8 26
  196.5431 19.1 24
  196.6492 19 24
  197.3972 12.4 16
  197.4344 19.1 24
  197.5556 14.9 19
  198.1854 21.4 27
  198.2735 18.8 24
  198.4763 16 20
  199.0555 16 20
  199.0979 18.8 24
  199.2451 14 18
  199.2862 21.1 27
  199.4162 15 19
  199.5216 16 20
  200.0243 13 16
  200.1062 22 28
  200.1533 18 23
  200.178 13 16
  200.2384 16 20
  200.2714 13 16
  200.4185 20.1 26
  200.558 16.9 21
  200.6295 12 15
  201.0605 14 18
  201.0956 17 22
  201.2042 15.5 20
  201.2637 12 15
  201.3037 17 22
  201.3364 18 23
  201.3703 14.3 18
  201.5596 17 22
  201.6568 15.2 19
  202.104 17.4 22
  202.3103 16 20
  202.5357 15.1 19
  203.1656 12.1 15
  203.4625 19.4 25
  204.0591 14.3 18
  204.1779 16 20
  204.3713 17 22
  204.4671 18.1 23
  204.515 14.9 19
  204.9948 12 15
  205.3363 17.4 22
  205.4466 18 23
  206.1272 16.9 21
  206.1633 16.9 21
  206.2005 19 24
  206.3739 17 22
  206.6398 16 20
  207.0815 15.1 19
  207.1195 16.5 21
  208.4263 14 18
  208.5757 17.1 22
  209.192 14 18
  209.2874 16.9 21
  209.3164 15 19
  209.3459 15 19
  209.38 14.6 18
  209.4191 12 15
  209.5258 13.1 16
  210.043 16.5 21
  210.1075 15.4 19
  210.1447 14.9 19
  210.2325 13.2 17
  210.2799 14.4 18
  210.4078 14.9 19
  210.5914 15.1 19
  211.1344 13.2 17
  211.1926 21.7 28
  211.3592 13 16
  211.4743 16 20
  211.5068 14.3 18
  212.1252 16.2 21
  212.3047 18.8 24
  212.3282 17.7 22
  212.3867 16.9 21
  212.4242 19.8 25
  212.5761 20.6 26
  212.6109 15 19
  213.0715 16 20
  213.336 22.2 28
  213.3506 13.2 17
  213.4858 24.1 31
  214.0238 17 22
  214.5858 17.4 22
  215.2956 17.7 22
  215.3721 16 20
  215.4447 18.5 23
  215.5159 14.4 18
  215.9988 19.3 24
  216.1123 18.4 23
  216.2053 15.4 19
  216.2323 14 18
  216.2618 13.2 17
  216.552 15 19
  216.5827 14.3 18
  216.6101 16.2 21
  217.1073 15.2 19
  217.345 18.1 23
  217.3723 13 16
  217.6317 17 22
  218.0954 17 22
  218.1493 20 25
  218.2487 16.7 21
  218.3715 15 19
  218.4678 17.1 22
  218.5099 12.1 15
  218.5639 20.2 26
  218.6699 21.6 27
  219.0431 18.2 23
  219.1373 25 32
  219.2118 17.7 22
  219.5902 20.8 26
  219.6085 21.2 27
  219.6791 13 16
  220.0491 14 18
  220.3522 13.5 17
  220.5835 17.4 22
  220.6779 17.1 22
  221.187 15 19
  221.2875 19 24
  221.3443 19 24
  221.3815 19.1 24
  221.4737 58 75
  221.51 18 23
  221.5672 15 19
  222.3474 16.7 21
  222.627 17.1 22
  223.0088 13 16
  223.0431 15 19
  223.0982 20 25
  223.3602 16 20
  223.5798 24.2 31
  223.6203 20 25
  224.0461 18 23
  224.1549 16 20
  224.2169 16.7 21
  224.3347 17.4 22
  224.4559 17.7 22
  224.4779 15.1 19
  224.5953 15.4 19
  225.131 15.2 19
  225.2779 15 19
  225.3322 15 19
  225.4988 16.2 21
  226.0735 14 18
  226.1162 17 22
  226.4172 14 18
  226.5882 18.1 23
  227.0921 19.6 25
  227.124 15.8 20
  227.1608 15.4 19
  227.2346 17.1 22
  227.4643 14 18
  227.5771 18 23
  227.6344 17.7 22
  228.002 17 22
  228.1124 12.4 16
  229.0702 12 15
  229.3307 16.2 21
  229.5567 17.2 22
  229.6185 16.5 21
  230.063 19 24
  230.1926 19 24
  230.2289 17.7 22
  230.4696 17.8 23
  230.5252 13.1 16
  230.6263 15 19
  231.0415 18 23
  231.4247 15.8 20
  231.4891 19 24
  231.5521 12.1 15
  231.6102 15 19
  232.0298 15 19
  232.0578 16 20
  232.1104 16.5 21
  232.1461 19.1 24
  232.2754 20.8 26
  232.6531 13.2 17
  233.0265 20 25
  233.0873 22 28
  233.396 14 18
  233.4421 18 23
  233.6437 14.9 19
  233.6971 13 16
  233.9991 15.2 19
  234.0288 16 20
  234.0497 13.1 16
  234.4419 15.1 19
  234.5363 16.9 21
  235.0085 18.8 24
  235.1154 19 24
  235.2281 18 23
  235.2889 15.1 19
  235.3384 16 20
  235.681 18.1 23
  236.176 16.7 21
  236.3051 15 19
  236.4054 14.6 18
  236.9947 20.5 26
  237.111 19.7 25
  237.3758 16.2 21
  237.507 14 18
  237.5775 13 16
  237.6368 18 23
  238.0615 19 24
  238.0774 17.7 22
  238.2845 13.2 17
  238.3469 17.4 22
  238.3827 15.2 19
  238.5703 14.3 18
  239.0303 15 19
  239.1295 15.2 19
  239.3183 16 20
  239.5359 18 23
  239.6001 14.4 18
  240.0523 16.7 21
  240.2703 16 20
  240.3626 14.1 18
  240.4564 14.9 19
  240.6826 14 18
  242.2214 14.9 19
  242.2465 15 19
  242.4348 21 27
  243.1763 15 19
  243.2594 12 15
  243.4753 17.1 22
  243.5304 13 16
  243.5861 19 24
  244.3361 17.7 22
  245.0283 13 16
  245.0847 15.8 20
  245.139 14 18
  245.17 19.8 25
  245.6976 20.2 26
  246.008 17 22
  246.2327 16.2 21
  246.2965 17.8 23
  246.4801 16.3 21
  246.5061 12.1 15
  246.6054 20.5 26
  247.0824 15.8 20
  247.2794 16.9 21
  247.3796 21.1 27
  247.4107 18.8 24
  247.599 17 22
  248.1034 331.6 429
  248.2204 23 29
  248.254 36 46
  248.48 17.8 23
  248.678 17.4 22
  249.0186 16.9 21
  249.1284 22.8 29
  249.1609 16.9 21
  249.185 19 24
  249.5232 16 20
  250.0739 16 20
  250.1684 18 23
  250.4955 17.7 22
  250.6008 18 23
  251.0326 15 19
  251.0846 17.2 22
  251.2185 13 16
  251.4603 15 19
  251.4818 14 18
  252.0397 17.2 22
  252.339 17 22
  252.3652 15.2 19
  252.4276 21 27
  252.4687 17.7 22
  252.5133 13 16
  253.2578 21.5 27
  253.3457 16 20
  253.366 14 18
  253.3988 19.3 25
  253.5677 17.4 22
  253.6314 13.2 17
  254.2514 14 18
  254.282 13.2 17
  254.3339 17 22
  254.3829 16 20
  254.491 14 18
  254.5859 16 20
  254.642 13 16
  255.0848 17 22
  255.1053 16.3 21
  255.1356 20 25
  255.2851 18.6 24
  255.3655 16.5 21
  255.4436 12 15
  255.4804 13.5 17
  256.0677 14.1 18
  256.2759 19.1 24
  256.3313 13 16
  256.3981 13 16
  256.5177 14.3 18
  256.5915 17.2 22
  256.6369 13 16
  257.059 15.2 19
  257.1222 12 15
  257.1921 13 16
  257.2817 18 23
  257.6261 16.3 21
  258.1258 15.4 19
  258.1802 20 25
  258.4175 14.1 18
  259.0033 15.1 19
  259.1151 16.1 20
  259.3035 13 16
  259.4499 18 23
  259.515 18.6 24
  260.1053 15.1 19
  260.1579 19.9 25
  260.2113 16.7 21
  260.3349 19 24
  260.4541 13.2 17
  260.5574 16.2 21
  260.6099 14.3 18
  261.1241 14 18
  261.2484 18 23
  261.3423 18.8 24
  261.37 15.8 20
  261.5207 13.2 17
  261.6604 14.9 19
  261.6893 18.9 24
  262.0584 15.4 19
  262.0945 15.2 19
  262.2127 16.2 21
  262.2502 38.2 49
  262.342 14.6 18
  262.4008 19.2 24
  262.508 14 18
  262.6415 16 20
  263.0776 15.8 20
  263.1787 16.1 20
  263.2946 18 23
  263.3582 16.2 21
  263.4464 16.7 21
  263.4662 13.2 17
  263.5107 19.9 25
  264.0726 13 16
  264.1523 13 16
  264.3821 20 25
  264.4729 17.7 22
  264.5585 14 18
  264.9973 16 20
  265.124 15 19
  265.1757 13 16
  265.2167 13 16
  265.2415 14.9 19
  265.3289 16.5 21
  265.4594 14.3 18
  265.5689 24.2 31
  266.0151 18.1 23
  266.0439 16.2 21
  266.0651 12 15
  266.1577 15 19
  266.1975 19.2 24
  266.5462 17 22
  267.0421 14 18
  267.0694 12 15
  267.1211 18 23
  267.1657 13.2 17
  267.1977 16.1 20
  267.251 14.4 18
  267.3215 14.9 19
  267.4421 17 22
  267.6646 21 27
  267.6841 15.1 19
  268.2598 14.3 18
  268.3388 13 16
  268.4224 17.4 22
  268.4797 13 16
  268.5194 18.5 23
  268.5598 15.2 19
  269.1766 14 18
  269.2213 16.7 21
  269.5668 17 22
  269.6616 14.3 18
  270.138 12 15
  270.1852 12 15
  270.2339 16 20
  271.1734 17.8 23
  271.2238 12.1 15
  271.2944 14.9 19
  271.984 16.2 21
  272.2307 18.9 24
  272.2551 18.2 23
  272.349 16 20
  272.5581 14.2 18
  273.1106 17.1 22
  273.4011 16 20
  273.4457 19.6 25
  273.6775 18.2 23
  274.0229 16.7 21
  274.1257 16.5 21
  274.3069 19.6 25
  274.4696 18 23
  275.0896 17.7 22
  275.1319 13 16
  275.1715 15.8 20
  275.2019 14.3 18
  275.3646 14.3 18
  275.4125 18 23
  275.5378 16 20
  276.1409 15 19
  276.3093 16 20
  276.4717 16.2 21
  276.6254 20 25
  277.0264 14.6 18
  277.0932 18.9 24
  277.1476 12 15
  277.2338 22.4 29
  277.2843 20.1 26
  277.4287 17 22
  277.4788 13 16
  277.5599 15.8 20
  278.0793 14.6 18
  278.1655 21 27
  278.3501 12.1 15
  278.3764 17.8 23
  278.4827 16.9 21
  278.5422 13 16
  278.6254 15.4 19
  278.6583 16.5 21
  279.0118 18.9 24
  279.1078 15.1 19
  279.1544 13 16
  279.3535 20.2 26
  279.4434 16.2 20
  279.4887 17.7 22
  280.0536 14.9 19
  280.259 18.9 24
  280.462 13 16
  280.5436 15 19
  281.1024 19 24
  281.2063 15 19
  281.2426 14 18
  281.2745 15 19
  281.3366 17.7 22
  281.5108 14.3 18
  281.5506 16 20
  281.6786 15.8 20
  282.0755 13 16
  282.1903 16 20
  282.2396 17.4 22
  282.5745 14 18
  282.6347 22.7 29
  282.6626 16.7 21
  283.0063 23 29
  283.0491 14 18
  283.1122 17.4 22
  283.3429 26.5 34
  283.4897 14.9 19
  283.5661 12 15
  283.6159 16 20
  284.4286 14 18
  284.4606 16.5 21
  285.2093 15.8 20
  285.3585 16 20
  285.3993 14 18
  286.0254 18.5 23
  286.0646 13 16
  286.2629 20.6 26
  286.2813 15 19
  286.3221 15.4 19
  286.3519 22.2 28
  286.4327 14.1 18
  286.5283 16 20
  286.5736 16.9 21
  287.1258 16 20
  287.1766 13 16
  287.2067 13.2 17
  287.5244 20.2 26
  288.2669 16.1 20
  288.3097 14.9 19
  288.4946 15.1 19
  288.5503 14.3 18
  288.6737 16 20
  289.0537 18.8 24
  289.1082 16.4 21
  289.1575 13 16
  289.316 20.5 26
  289.3784 15.8 20
  289.4044 14.9 19
  289.4708 16.9 21
  289.4971 14 18
  289.5242 18 23
  290.0696 19.3 25
  290.0959 15.1 19
  290.5657 12.4 16
  291.0676 14 18
  291.1544 12.1 15
  291.2129 17.2 22
  291.2547 13.2 17
  291.4359 14.9 19
  291.5772 16 20
  291.6704 19.3 25
  292.0015 17.1 22
  292.0943 14 18
  292.2423 17.5 22
  292.4323 14 18
  292.479 15.8 20
  292.9819 15.4 19
  293.0255 16 20
  293.2178 15 19
  293.3103 21.1 27
  293.3568 14 18
  293.4342 13 16
  293.4894 23.9 30
  293.5488 13 16
  293.5884 21.1 27
  293.6034 23.1 29
  293.6558 14 18
  294.0544 16 20
  294.0875 17.1 22
  294.1276 16 20
  294.3504 20.2 26
  294.5003 14 18
  295.142 14.9 19
  295.3744 19.3 25
  295.4496 17 22
  295.4667 15.4 19
  295.6381 13 16
  295.6771 18.6 24
  296.3107 15.8 20
  296.3859 14 18
  296.5114 15.1 19
  296.604 15.1 19
  297.0275 16.2 21
  297.2114 16.2 21
  297.4245 16 20
  297.4704 19 24
  297.6403 15.1 19
  297.6705 17.1 22
  298.1916 16 20
  298.4563 14 18
  299.1721 18.1 23
  299.2939 15.4 19
  299.3637 18 23
  299.4203 15.1 19
  299.5241 18 23
  300.2378 14.9 19
  300.3604 17.4 22
  300.5494 22.5 29
  301.5003 15 19
  301.542 19.9 25
  302.0124 16.9 21
  302.0586 15.8 20
  302.2254 16 20
  302.541 15 19
  302.6176 14.9 19
  303.0127 14 18
  303.0481 22.2 28
  303.1152 14.3 18
  303.1824 18.8 24
  303.3062 14.3 18
  303.3643 18 23
  303.6144 15.8 20
  303.6781 16 20
  304.2011 13 16
  304.3936 13.2 17
  304.4529 16 20
  305.076 14 18
  305.1485 18.8 24
  305.1798 15.8 20
  305.4299 14.1 18
  305.5052 13 16
  305.6934 14.1 18
  306.1239 17 22
  306.1636 18.5 23
  306.1929 15.4 19
  306.2572 19.7 25
  306.503 12 15
  306.5685 19.3 25
  306.6613 16 20
  307.091 14.1 18
  307.1162 17.4 22
  307.1894 21.9 28
  307.2282 17.1 22
  307.4916 18 23
  307.523 14.9 19
  307.5643 14.9 19
  308.2483 14 18
  308.3851 17 22
  308.4851 19.6 25
  308.5948 17.7 22
  309.1904 21.7 28
  309.4098 15 19
  309.5182 14.3 18
  309.5936 21.6 27
  309.6499 18.6 24
  309.6796 13.2 17
  310.0567 15 19
  310.4225 16.6 21
  310.5254 15 19
  310.6026 14 18
  311.0485 14 18
  311.0833 12 15
  311.1723 16.5 21
  311.1964 17.2 22
  311.3189 18.4 23
  311.3513 18.2 23
  311.4455 16.5 21
  311.5616 16.5 21
  311.6348 15.4 19
  312.2746 13 16
  312.3274 16 20
  312.4716 16.2 21
  312.5319 15.8 20
  313.191 18.5 23
  313.3084 16 20
  313.4626 16 20
  313.4978 16.7 21
  313.5938 21.6 27
  313.6356 15.8 20
  313.686 18 23
  314.0773 16.5 21
  314.19 18.2 23
  314.2265 18.1 23
  314.3211 18 23
  314.5047 14 18
  315.068 16.2 20
  315.1042 14 18
  315.2879 16.1 20
  315.5836 15 19
  315.644 17 22
  316.2703 17 22
  316.3737 14 18
  317.0044 18.6 24
  317.0756 16.6 21
  317.2146 17.8 23
  317.4053 17.1 22
  317.68 16.7 21
  318.0407 18.9 24
  318.2425 14 18
  318.4364 15 19
  318.6039 15 19
  318.6758 15.8 20
  319.1402 17.7 22
  319.1749 15 19
  319.1963 12 15
  319.3882 15.8 20
  320.1753 15.8 20
  320.2081 17.8 23
  320.3305 15.1 19
  320.4822 16.9 21
  321.0391 18 23
  321.0981 16.9 21
  321.1535 12.4 16
  321.3982 14.2 18
  321.4526 22.5 29
  321.5439 18.9 24
  321.6058 16.7 21
  322.0116 14 18
  322.0812 16.2 20
  322.2186 16 20
  322.2832 14 18
  322.3553 17.2 22
  322.6587 17 22
  323.0872 20.2 26
  323.4681 17 22
  323.5278 13 16
  323.6071 18.1 23
  324.1204 12 15
  324.2721 13 16
  324.304 16.2 21
  324.5415 14.9 19
  324.5874 14.9 19
  324.9984 17 22
  325.1044 15.1 19
  325.3902 14 18
  325.428 23 29
  325.4591 17 22
  325.5632 16.2 21
  325.608 17.1 22
  325.6552 12 15
  326.1823 15.4 19
  326.3257 14 18
  326.4522 12 15
  327.1989 13 16
  327.2565 12 15
  327.31 15.8 20
  327.4153 19 24
  327.5809 17.1 22
  328.015 16.9 21
  328.037 19.1 24
  328.208 20.8 26
  328.3552 17.4 22
  328.4974 14 18
  328.6905 18 23
  329.064 18.6 24
  329.2648 13.2 17
  329.6177 18.5 23
  329.6558 14.3 18
  330.0143 15 19
  330.1085 24.2 31
  330.2809 15 19
  330.4205 18 23
  330.4615 18 23
  330.496 12 15
  331.0468 19.2 24
  331.1007 17.2 22
  331.2083 17 22
  331.2615 15.4 19
  331.2915 19.1 24
  331.3428 14.3 18
  331.423 14 18
  331.6242 16.5 21
  331.9832 17.1 22
  332.0061 12 15
  332.1611 17.7 22
  332.2975 13.2 17
  332.4832 18.3 23
  332.6126 14.3 18
  332.6908 15 19
  332.9999 15 19
  333.3341 12.1 15
  333.369 13.5 17
  333.3915 18.5 23
  333.5378 16 20
  333.5594 12.4 16
  333.6038 18 23
  333.6572 14.1 18
  333.6936 17 22
  334.2352 17.4 22
  334.2877 14 18
  334.3537 20 25
  334.5034 17.1 22
  334.5365 15 19
  334.6441 14.1 18
  335.0383 16 20
  335.0686 13 16
  335.1576 15.1 19
  335.2221 17.7 22
  335.2673 15.4 19
  335.3581 15 19
  335.4539 19 24
  335.5277 16.3 21
  335.9979 14 18
  336.1101 19 24
  336.2611 14 18
  336.3593 16.2 21
  336.4024 17.7 22
  336.6265 17 22
  336.9999 15.4 19
  337.0654 21.7 28
  337.2408 15.1 19
  337.2893 19 24
  337.5584 13 16
  337.6888 14.9 19
  338.2857 13.5 17
  338.4129 15.1 19
  338.6378 20.2 26
  339.1417 14 18
  339.1713 12.1 15
  339.2466 16 20
  339.3045 13 16
  339.4195 17 22
  339.5142 18 23
  339.5463 15.1 19
  339.5886 16 20
  340.0763 14.9 19
  340.1891 18.4 23
  340.2456 17.1 22
  340.3751 18.1 23
  340.4228 18.2 23
  340.4972 14.3 18
  340.5245 15 19
  340.6146 14 18
  340.9868 20.5 26
  341.1683 17 22
  341.4226 18 23
  341.5514 14.9 19
  342.0292 22 28
  342.2581 17.1 22
  342.288 17.7 22
  342.5067 12 15
  342.5343 15.8 20
  342.5958 14 18
  343.0379 13 16
  343.1116 12 15
  343.2081 12 15
  343.2652 17.7 22
  343.3343 14 18
  343.3994 14.1 18
  343.477 20 25
  343.5767 13 16
  343.5993 14 18
  344.1867 13 16
  344.3857 16.2 20
  344.467 15 19
  344.5356 13 16
  344.6486 22.7 29
  345.0374 15.8 20
  345.2239 18.8 24
  345.5171 16.5 21
  345.5479 16.7 21
  346.0581 13 16
  346.1323 16.2 21
  346.3634 14.9 19
  346.3902 18.3 23
  346.4171 13 16
  346.6239 15.1 19
  347.0404 18.1 23
  347.111 18.8 24
  347.3932 19.6 25
  347.479 19.3 24
  347.5417 18.5 23
  347.6745 16.5 21
  348.0238 16.9 21
  348.0632 14 18
  348.1811 17 22
  348.2271 17 22
  348.2786 15.4 19
  348.4919 14.9 19
  349.1583 15 19
  349.2192 15 19
  349.2536 19 24
  349.4029 15.2 19
  349.9995 16.5 21
  350.0761 14 18
  350.1123 13 16
  350.242 13.5 17
  350.3543 15.4 19
  350.3976 16.7 21
  350.4924 15 19
  350.527 15 19
  350.6535 18 23
  351.0593 15.4 19
  351.2252 13 16
  351.4871 17 22
  351.653 13.2 17
  352.0252 13 16
  352.1593 17.1 22
  352.1913 14 18
  352.2962 19 24
  352.3368 14.9 19
  352.4831 14 18
  352.5851 16.5 21
  352.6449 16.5 21
  352.6921 15.1 19
  353.0078 16 20
  353.103 20.5 26
  353.1737 17.7 22
  353.222 14.3 18
  353.3126 23.4 30
  353.3926 13 16
  353.481 20 25
  353.5391 17.8 23
  354.1343 18.6 24
  354.3678 17.3 22
  354.4093 13 16
  354.4943 14.6 18
  355.0568 18 23
  355.0976 16.5 21
  355.1311 12 15
  355.3598 16.2 20
  355.4098 19.1 24
  355.5159 14.3 18
  356.3267 13.2 17
  356.4354 14 18
  356.4817 15.8 20
  356.5392 19 24
  356.6155 15.1 19
  357.2184 13 16
  357.2731 18.8 24
  357.3414 16.5 21
  357.4634 16.2 21
  357.5767 14.1 18
  357.6504 13 16
  358.0248 14.3 18
  358.1893 15.8 20
  358.35 15.8 20
  358.4218 18 23
  358.6147 13 16
  359.1218 16.7 21
  359.3161 16.9 21
  359.3725 17 22
  359.4619 15.4 19
  359.4956 14.4 18
  359.6365 15 19
  360.1322 13.5 17
  360.2766 17.8 23
  360.532 23 29
  360.615 18 23
  361.054 18.1 23
  361.23 15.4 19
  361.2623 16 20
  361.3969 16 20
  361.565 13.2 17
  361.6693 13 16
  362.0741 14 18
  362.171 20 25
  362.197 15.1 19
  362.2562 15.1 19
  362.3134 16 20
  362.3385 14.3 18
  362.6449 13 16
  363.0189 15 19
  363.3313 15.1 19
  363.4798 18.5 23
  363.6459 15 19
  363.6845 13 16
  364.0279 17.7 22
  364.314 18.8 24
  364.3386 14 18
  364.4782 19.3 25
  364.5247 19.1 24
  365.0224 13 16
  365.1167 17.7 22
  365.1727 14.9 19
  365.2808 22 28
  365.3259 17.1 22
  365.4341 15 19
  365.5515 19 24
  365.6169 15 19
  365.6512 14.3 18
  366.0202 15.8 20
  366.2898 17.1 22
  366.3519 13.2 17
  366.6534 13 16
  367.0537 15.2 19
  367.1998 16 20
  367.2334 15.8 20
  367.3182 18 23
  367.6456 13 16
  368.0138 14.1 18
  368.044 12 15
  368.1328 16 20
  368.2303 15.8 20
  368.2918 15 19
  368.3412 18 23
  368.4213 19.3 25
  368.5242 15 19
  368.9981 12 15
  369.0513 22.3 28
  369.2773 15 19
  369.4534 16.5 21
  369.699 14.9 19
  370.1858 20.9 27
  370.257 15.2 19
  370.3059 16 20
  370.413 12 15
  370.4781 18.2 23
  371.1027 15 19
  371.1749 13.1 16
  371.4024 18 23
  371.4649 19.8 25
  371.5174 16 20
  371.6742 16 20
  372.0543 20 25
  372.4562 14 18
  372.5364 14.6 18
  373.0561 14.3 18
  373.1321 14.9 19
  373.1785 19.7 25
  373.212 15.2 19
  373.3611 17 22
  373.398 18.1 23
  373.4571 16.2 21
  373.5733 17.7 22
  373.6631 18 23
  374.0017 14 18
  374.1395 14.1 18
  374.2437 16 20
  374.336 17 22
  374.4573 21 27
  374.4749 14.3 18
  374.5976 16.1 20
  374.6641 20.6 26
  375.0022 23.4 30
  375.094 19.6 25
  375.4279 14 18
  375.5087 14 18
  375.5403 20.9 27
  375.5568 14.9 19
  375.6055 16 20
  376.0843 13.2 17
  376.1861 14.1 18
  376.4926 14 18
  376.614 15 19
  376.6579 18.8 24
  377.0038 15.1 19
  377.0744 14 18
  377.1765 14.1 18
  377.3848 14 18
  377.4308 12 15
  377.4681 16 20
  377.6205 18.6 24
  378.0599 15.8 20
  378.1994 15.8 20
  378.2289 14.9 19
  378.2753 19.3 25
  378.3237 16.9 21
  379.1172 17.7 22
  379.3034 12 15
  379.4103 14 18
  380.4991 13.2 17
  380.5888 22 28
  381.5097 15.2 19
  381.5401 14.9 19
  381.6329 16 20
  381.6864 17 22
  382.0418 17.3 22
  382.1089 17.7 22
  382.177 14.3 18
  382.2443 17.8 23
  382.2854 20.6 26
  382.4098 12 15
  382.4761 18 23
  382.5182 15 19
  382.6247 16 20
  382.6645 13.2 17
  383.0743 12.4 16
  383.1284 21.9 28
  383.221 19.3 25
  383.4863 14 18
  383.5736 16.5 21
  383.998 13.2 17
  384.1066 16 20
  384.2983 14 18
  384.3492 12 15
  384.5298 19 24
  384.6553 13.5 17
  385.0569 16.9 21
  385.3324 17.7 22
  385.5061 18 23
  385.5841 15 19
  385.681 14 18
  386.071 17.1 22
  386.2018 14.6 18
  386.2342 15.1 19
  386.3028 17.1 22
  386.4108 15 19
  386.6791 23 29
  387.1333 13 16
  387.1936 17 22
  387.3337 15 19
  387.3666 13 16
  387.4388 15.1 19
  387.573 16.1 20
  387.6056 13.2 17
  387.9812 18 23
  388.0697 14 18
  388.1318 17.1 22
  388.2626 19.1 24
  388.4274 14 18
  389.09 17.8 23
  389.1309 16.2 21
  389.2208 13 16
  389.2712 17.4 22
  389.4039 14.1 18
  389.4664 15 19
  389.5256 14.9 19
  389.6028 16.2 21
  390.3542 19.6 25
  390.4384 18 23
  390.6409 18 23
  391.0434 13 16
  391.256 15 19
  392.0181 19 24
  392.2756 14.9 19
  392.3258 18.6 24
  392.3843 14.9 19
  392.5155 18 23
  392.5891 16.1 20
  393.2488 16 20
  393.2953 14 18
  393.3472 16.7 21
  393.6118 16 20
  394.0366 16.9 21
  394.3659 18 23
  394.4216 12.4 16
  394.4536 16.2 21
  395.0078 20.5 26
  395.0431 13.2 17
  395.1467 15 19
  395.2141 18.2 23
  395.5034 14.4 18
  395.5494 18.6 24
  396.1249 15 19
  396.3767 14 18
  396.4593 16 20
  396.5535 18 23
  396.5842 15 19
  397.1666 15 19
  397.2588 16.9 21
  397.4106 14 18
  397.4381 14.3 18
  397.6271 14 18
  397.6851 18.5 23
  398.0551 15 19
  398.0915 19.1 24
  398.1538 14 18
  398.2037 14.9 19
  398.3668 17.7 22
  398.4194 17 22
  398.4884 14 18
  398.5711 15 19
  399.1001 15 19
  399.2294 16.4 21
  399.3224 15 19
  399.3891 14.9 19
  399.4417 16.2 21
  399.4806 14.3 18
  399.5943 13.5 17
  400.0168 16 20
  400.2064 16 20
  400.2591 16.2 21
  400.3868 13 16
  400.616 17 22
  400.6841 17 22
  401.042 15.8 20
  401.0823 16.5 21
  401.2061 17 22
  401.2816 15.1 19
  401.4819 14.9 19
  401.5666 18.2 23
  401.639 17.8 23
  402.033 14.1 18
  402.0646 13 16
  402.1133 13.2 17
  402.2612 19 24
  402.4985 18.8 24
  402.638 16.2 20
  403.0735 17.7 22
  403.1604 43 55
  403.2994 17 22
  403.4246 17.8 23
  403.4646 14.2 18
  403.4962 13 16
  403.5316 12.1 15
  403.5712 16.2 21
  403.6439 16 20
  403.6649 18.5 23
  404.0653 13.1 16
  404.1224 19.6 25
  404.1857 18.8 24
  404.2476 13 16
  404.3662 15.1 19
  404.5493 16 20
  404.6444 16 20
  405.1998 16 20
  405.3569 16.6 21
  405.4128 14 18
  405.4845 18 23
  405.6121 15.1 19
  405.7013 18.9 24
  406.0388 19.9 25
  406.2227 13 16
  406.2851 17 22
  406.3199 15.1 19
  406.5128 14 18
  406.5666 15 19
  406.607 15 19
  407.0557 29 37
  407.217 14.9 19
  407.2943 16.1 20
  407.3343 15.4 19
  407.4647 15.1 19
  407.5221 13 16
  407.5988 16 20
  408.018 16.2 21
  408.0956 16 20
  408.475 14 18
  408.9937 14 18
  409.1839 128.1 165
  409.2269 26.2 33
  409.3588 14 18
  409.6076 16.5 21
  409.9976 15.1 19
  410.1177 21.7 28
  410.1493 19.6 25
  410.1894 18.6 24
  410.2724 16.2 21
  410.3166 19.3 25
  411.2541 15.8 20
  411.3441 23.8 30
  411.4217 12 15
  411.5134 14 18
  411.5829 13 16
  411.6604 16.2 21
  411.9995 15 19
  412.3624 17.4 22
  412.486 18.6 24
  413.0393 13 16
  413.1384 19.8 25
  413.2761 15.8 20
  413.4827 14.6 18
  414.02 14 18
  414.1897 14 18
  414.2618 16.1 20
  414.2822 18.9 24
  414.3436 17.7 22
  414.6064 20.1 26
  415.0224 20.6 26
  415.1093 14 18
  415.1636 14 18
  415.2218 19.6 25
  415.2875 15.8 20
  415.3308 15.8 20
  415.4513 20 25
  415.5203 22 28
  415.5455 17.7 22
  415.5864 15.8 20
  415.6252 17.8 23
  415.6609 15 19
  415.9822 16.5 21
  416.2004 18 23
  416.2517 20.2 26
  416.6339 18 23
  417.1657 14 18
  417.2542 17.8 23
  417.48 12 15
  417.5862 15 19
  418.0953 23.3 30
  418.1734 16 20
  418.2406 14.6 18
  418.3186 19.3 25
  418.5206 18 23
  419.0925 14 18
  419.1557 15 19
  419.4539 16.3 21
  419.5668 13.2 17
  419.6672 22 28
  420.0133 15.8 20
  420.0615 14.3 18
  420.1305 17.8 23
  420.1803 15 19
  420.2883 19 24
  420.3454 16.5 21
  420.5415 16.9 21
  420.6172 15.2 19
  421.1995 16.7 21
  421.2238 23 29
  421.2681 13 16
  421.3854 14.6 18
  421.4562 16.7 21
  422.0605 18.9 24
  422.0865 15.4 19
  422.1225 14 18
  422.1676 18.6 24
  422.4286 20 25
  422.637 15.1 19
  423.0352 22.1 28
  423.0769 15 19
  423.2058 12.1 15
  423.5047 15 19
  423.6129 18 23
  424.104 14.9 19
  424.1573 13.1 16
  424.2641 20 25
  424.3524 19.8 25
  424.4752 15.1 19
  424.5439 16.9 21
  424.6204 19.6 25
  424.6494 15.1 19
  425.0778 17.1 22
  425.1071 16.5 21
  425.1766 19 24
  425.2107 21.1 27
  425.3419 14.3 18
  425.42 17.6 22
  425.4631 17.1 22
  425.6891 16.5 21
  425.9913 15.1 19
  426.0347 15.4 19
  426.2181 16.7 21
  426.2968 19.1 24
  426.3474 15.5 20
  426.4069 20.1 26
  426.4448 23.6 30
  426.5015 16 20
  426.659 21.3 27
  427.0342 16 20
  427.1222 16.7 21
  427.2095 13 16
  427.2905 16 20
  427.4635 12.1 15
  427.4986 16.5 21
  427.5523 22.4 29
  428.1834 15 19
  428.4041 17.4 22
  428.4899 14.3 18
  429.0267 17.7 22
  429.1898 18 23
  429.4949 15.1 19
  429.6389 14 18
  430.1525 14.3 18
  430.2855 17 22
  430.4661 14 18
  430.4997 18.5 23
  430.5253 17 22
  430.6407 14 18
  431.0443 17.8 23
  431.1203 14 18
  431.2046 14.1 18
  431.2813 13.2 17
  431.3282 13 16
  431.4654 13 16
  431.5993 14 18
  431.6293 14.3 18
  431.9835 13 16
  432.3752 14 18
  432.4346 17.4 22
  433.2005 16 20
  433.2508 14 18
  433.2863 16.2 21
  433.3503 19 24
  434.0061 18 23
  434.1077 17.8 23
  434.2277 17 22
  435.0297 14 18
  435.0834 19.6 25
  435.1296 15.4 19
  435.2684 16.9 21
  436.0557 15.2 19
  436.189 20 25
  436.2266 14 18
  436.32 18 23
  436.4578 20.9 27
  436.6844 12 15
  437.1589 16 20
  437.2233 19 24
  437.2763 17.1 22
  437.3634 14.3 18
  437.464 17 22
  437.5058 15.2 19
  437.5663 18.2 23
  437.6707 17 22
  438.0034 17 22
  438.0543 16.2 20
  438.5002 18.2 23
  438.6255 17.1 22
  438.9935 14.3 18
  439.0673 18 23
  439.1071 15.1 19
  439.1554 16 20
  439.1817 15.4 19
  439.2398 14 18
  439.3912 17.1 22
  439.4252 18 23
  439.5244 14 18
  439.5698 15 19
  440.0442 13.5 17
  440.1227 16.7 21
  440.1885 16 20
  440.2122 18.8 24
  440.6851 14.9 19
  441.0944 15 19
  441.1331 12 15
  441.2791 12 15
  441.3417 18 23
  441.4809 16 20
  441.5651 16.2 21
  441.6515 19 24
  441.7003 17.1 22
  442.0164 15.8 20
  442.0922 16 20
  442.1787 17.8 23
  442.4544 17.1 22
  442.5315 14 18
  442.6544 13 16
  443.0525 18 23
  443.2213 12 15
  443.4394 15 19
  443.462 14.9 19
  443.5051 13.2 17
  443.6697 12 15
  444.0031 15.1 19
  444.0444 22.3 28
  444.1144 17 22
  445.0094 16.2 21
  445.0656 14 18
  445.1197 13.5 17
  445.3743 16 20
  445.4054 16.9 21
  445.4551 16.9 21
  445.4961 16.5 21
  446.0771 14 18
  446.1294 15 19
  446.4061 13 16
  446.4338 12 15
  446.6311 17.4 22
  447.2116 13 16
  447.5322 15.1 19
  447.6107 14 18
  447.6564 17.2 22
  448.2971 16.9 21
  448.4701 18.2 23
  448.5786 15 19
  448.9775 13.5 17
  449.0561 15.2 19
  449.1076 19.1 24
  449.1412 16.7 21
  449.1711 15 19
  449.2487 14 18
  449.395 13 16
  449.4731 14 18
  450.1198 15.4 19
  450.1753 17.1 22
  450.4274 19.6 25
  450.486 17.8 23
  450.5404 14 18
  450.6127 16.5 21
  451.1498 15.1 19
  451.2578 15 19
  451.6564 17.7 22
  451.6859 16 20
  452.042 14.3 18
  452.27 17.7 22
  452.408 19.1 24
  452.4601 21.3 27
  452.5249 15.1 19
  452.6111 16 20
  452.6636 18 23
  453.072 18.8 24
  453.166 14.3 18
  453.4013 16 20
  453.4901 15 19
  453.5561 15.8 20
  453.6496 13.5 17
  454.0367 12 15
  454.1654 15 19
  454.2512 13.2 17
  454.34 14.3 18
  454.4109 16 20
  454.5559 13.2 17
  455.0401 14 18
  455.1743 14 18
  455.2797 14 18
  455.3137 15.1 19
  455.4996 15 19
  456.0148 15 19
  456.2568 17.1 22
  456.436 16.5 21
  457.146 16 20
  457.2611 16 20
  457.325 16.9 21
  457.4046 13.2 17
  457.5277 20 25
  457.6136 15.2 19
  457.6966 19.1 24
  458.107 17 22
  458.1648 17 22
  458.2348 13.1 16
  458.3375 15.4 19
  458.4661 18 23
  458.5917 15 19
  459.1797 15 19
  459.2329 19.7 25
  459.4036 18.1 23
  459.5209 16 20
  459.5696 14 18
  459.6154 16.7 21
  460.0537 15.4 19
  460.1425 17 22
  460.2152 16 20
  460.2506 13 16
  460.2917 19.7 25
  460.6056 14 18
  460.6432 19.1 24
  461.2037 12 15
  461.5095 14.4 18
  461.6706 14.1 18
  462.17 14.1 18
  462.3287 15.4 19
  462.5312 14.6 18
  462.5631 13 16
  462.6388 14.6 18
  463.0021 18 23
  463.0345 15.4 19
  463.461 16.2 21
  463.543 16.5 21
  463.6092 13 16
  463.6755 22 28
  464.1807 15.4 19
  464.3081 13 16
  464.3404 14 18
  464.4324 15.4 19
  464.4989 20.1 26
  464.6332 18 23
  465.0655 16.9 21
  465.1185 16.5 21
  465.2202 18.6 24
  465.2855 17 22
  465.4476 17 22
  465.5105 14.6 18
  465.6868 14 18
  466.0079 14.3 18
  466.1479 16 20
  466.2632 19.3 25
  466.3514 18.3 23
  466.5866 17 22
  467.0508 17.7 22
  467.111 13.2 17
  467.389 13.2 17
  467.5389 18.1 23
  468.0237 17 22
  468.1841 12.4 16
  468.2535 14 18
  468.2877 14.9 19
  468.3684 13.2 17
  468.404 15.1 19
  468.5858 18.5 23
  468.6832 16.2 21
  469.0326 16 20
  469.0794 22 28
  469.2543 14 18
  469.3429 13.5 17
  469.41 15 19
  469.4966 16 20
  469.5861 19 24
  470.3147 13.2 17
  470.3442 15 19
  470.4143 17 22
  470.4782 14 18
  471.1034 17.4 22
  471.1366 16 20
  471.1731 16.9 21
  471.3515 15.8 20
  471.5046 15 19
  471.5626 15.4 19
  471.617 16.2 20
  472.0207 19.1 24
  472.1909 14 18
  472.2674 18.1 23
  472.4336 17.4 22
  472.5352 12 15
  472.5651 13.2 17
  472.6295 18.6 24
  472.9942 12.4 16
  473.04 21 27
  473.2966 14.3 18
  473.3666 12 15
  473.5058 18 23
  473.6896 13.5 17
  474.017 14.9 19
  474.0681 13.5 17
  474.4358 15.8 20
  474.5109 14.6 18
  474.5456 15.4 19
  474.5927 17.7 22
  475.4812 17.7 22
  475.6702 14 18
  476.028 13.2 17
  476.12 17 22
  476.2285 14.6 18
  476.2666 13.1 16
  476.3329 16.2 21
  476.4595 12 15
  476.5886 17 22
  476.6673 18 23
  477.0104 19 24
  477.2395 16 20
  477.3109 16.9 21
  477.349 16.1 20
  477.4774 21 27
  477.5265 20 25
  477.6478 18.2 23
  478.535 17.2 22
  479.0394 13 16
  479.0927 16.1 20
  479.1733 18.1 23
  479.4383 15.2 19
  479.5453 16.9 21
  479.6325 14 18
  479.9812 12.4 16
  480.0177 17.3 22
  480.1736 12 15
  480.3009 24.9 32
  480.568 15.1 19
  481.2421 16.5 21
  481.2806 14 18
  481.3485 22.4 29
  481.476 19 24
  481.6334 18.2 23
  482.0238 19.7 25
  482.0571 15.5 20
  482.211 15 19
  482.5302 16 20
  482.5968 20 25
  484.0422 16.1 20
  484.1232 15 19
  484.1921 17.8 23
  484.2542 17 22
  484.484 13 16
  484.5995 19.7 25
  485.0662 15.2 19
  485.2275 15.8 20
  485.366 13 16
  485.4014 17 22
  485.541 17.7 22
  485.5869 19 24
  486.0188 16.2 20
  486.0598 15.4 19
  486.3691 13.5 17
  486.5674 19 24
  487.1277 14.2 18
  487.3167 14.1 18
  487.6426 14 18
  487.6844 20.5 26
  487.9793 15 19
  488.0527 15 19
  488.1867 14.9 19
  488.2339 19.6 25
  488.3953 12 15
  489.0002 15 19
  489.0509 15 19
  489.1564 14.6 18
  489.1916 16 20
  489.3399 17.7 22
  489.4092 15.1 19
  489.4655 18.9 24
  489.5593 26 33
  490.1735 15.1 19
  490.2799 15.8 20
  490.3369 13.5 17
  490.3867 19.6 25
  490.4244 15.8 20
  490.5347 21.4 27
  491.0043 13 16
  491.0509 18 23
  491.1037 15.8 20
  491.2042 18 23
  491.2609 15 19
  491.3688 15 19
  491.4665 13 16
  491.5975 13 16
  491.9794 14 18
  492.144 18 23
  492.1794 14.3 18
  492.2326 16.1 20
  492.5878 18 23
  492.6713 15.5 20
  493.0247 15.2 19
  493.0593 18 23
  493.1298 14.3 18
  493.2972 15 19
  493.5005 14 18
  493.5619 19.6 25
  494.19 13 16
  494.3426 13 16
  494.3761 15.1 19
  494.4444 13 16
  494.6448 17.3 22
  495.106 12 15
  495.2502 16 20
  495.4886 14 18
  495.6498 15.4 19
  495.6845 15 19
  496.0832 18.6 24
  496.18 15.1 19
  496.318 18.2 23
  496.4826 22 28
  496.5545 15.4 19
  496.6746 14 18
  497.0361 16.2 21
  497.0801 16 20
  497.2411 15.1 19
  497.3777 17.7 22
  497.4266 14.3 18
  497.5099 17.1 22
  497.6047 13.2 17
  498.0117 15.1 19
  498.1639 15.4 19
  498.4066 18 23
  498.4651 15 19
  498.521 17.1 22
  498.56 14.9 19
  498.6413 15.8 20
  499.0996 19.1 24
  499.2595 20.5 26
  499.3488 18 23
  499.482 14 18
  499.6286 13 16
  500.0114 15.1 19
  500.0966 16 20
  500.218 16.2 21
  500.3073 21.3 27
  500.3396 14.9 19
  500.3977 15.1 19
  500.513 20.7 26
  500.5564 20 25
  500.6259 14.3 18
  501.02 19.3 25
  501.2808 16.9 21
  501.5919 20.6 26
  501.6373 15 19
  502.2166 14.9 19
  502.2467 15.2 19
  502.3067 19.3 25
  502.3568 14.9 19
  502.4829 16.9 21
  502.6278 26 33
  503.0728 16.9 21
  503.3862 18 23
  503.9799 15.1 19
  504.0259 16 20
  504.1182 16.2 21
  504.3014 18.3 23
  504.4736 15 19
  504.5592 15 19
  504.5854 13.2 17
  504.6338 14.3 18
  504.6903 15 19
  505.0943 18 23
  505.1458 15.8 20
  505.1828 15.5 20
  505.4013 14 18
  505.4879 14 18
  505.6212 16.7 21
  506.0088 13.2 17
  506.1102 19.1 24
  506.2414 21.9 28
  506.289 17 22
  506.5035 13 16
  506.5479 14 18
  506.6016 14.9 19
  507.0129 18.3 23
  507.2855 16.9 21
  507.3922 13 16
  507.5081 12.1 15
  507.5985 13.2 17
  507.6587 19.9 25
  508.2114 14.9 19
  509.0098 15.1 19
  509.2667 12.1 15
  509.4552 16 20
  509.5234 21.5 27
  509.566 15.8 20
  509.6904 12 15
  510.0365 20.7 26
  510.0876 16.3 21
  510.2278 16.1 20
  510.4042 13.2 17
  510.5282 14.3 18
  510.5545 16.2 21
  511.1799 16.7 21
  511.2088 15.4 19
  511.4963 14.9 19
  511.5831 12 15
  512.0861 15.1 19
  512.1618 14 18
  512.2176 14.6 18
  512.2522 17.3 22
  512.3424 15.2 19
  512.3754 18.6 24
  512.4908 14 18
  512.6601 14.6 18
  513.4491 14 18
  513.6577 17.8 23
  514.0113 15.2 19
  514.0713 17.1 22
  514.4857 13 16
  514.5392 15 19
  514.6458 17 22
  515.0027 14.9 19
  515.2231 13 16
  515.2552 15.1 19
  515.3103 14.9 19
  515.4677 13 16
  515.6375 17.8 23
  515.9975 14 18
  516.0359 14.4 18
  516.2107 14 18
  516.261 14 18
  516.3051 16.7 21
  516.5095 14 18
  516.6623 18.6 24
  516.9952 18.1 23
  517.2308 14.1 18
  517.4671 14 18
  517.6159 17 22
  518.0378 14 18
  518.5832 15.1 19
  518.664 14.6 18
  519.0549 14 18
  519.2725 14 18
  519.4466 14.3 18
  519.6593 19 24
  520.0163 15 19
  520.2094 17 22
  520.3212 20.5 26
  520.3992 14.3 18
  520.5038 14.6 18
  520.5407 22.6 29
  520.5866 14.1 18
  521.0239 14 18
  521.0655 20 25
  521.2874 18 23
  521.3209 16.7 21
  521.4563 12 15
  521.6129 25.7 33
  521.7042 14 18
  522.2304 14 18
  522.3267 15.8 20
  522.5021 15 19
  522.6373 13.2 17
  523.0601 16.9 21
  523.1778 14 18
  523.4788 17 22
  524.2475 14 18
  524.5057 16 20
  524.5461 17.7 22
  525.2209 19.3 25
  525.2944 13.5 17
  525.3587 24.1 31
  525.433 19.7 25
  525.5812 14.3 18
  526.1155 18.8 24
  526.2805 17.4 22
  526.352 18 23
  526.3904 16.2 20
  526.6493 18 23
  527.0781 13.2 17
  527.1937 14 18
  527.4002 22.7 29
  527.4952 21.5 27
  527.5418 17.7 22
  527.9728 15 19
  528.0671 13 16
  528.3168 14 18
  528.3516 13 16
  528.4237 16 20
  528.4757 13.2 17
  528.564 12.1 15
  528.6053 14.9 19
  528.9819 18.8 24
  529.0227 16.7 21
  529.0669 14 18
  529.257 16.2 20
  529.3877 19.1 24
  529.4338 15 19
  529.5889 17 22
  529.6686 15.4 19
  529.9902 16 20
  530.1606 13 16
  530.1893 15 19
  530.3886 19 24
  530.4728 18.9 24
  530.5619 15.4 19
  531.0238 14.6 18
  531.0597 15.1 19
  531.2995 17 22
  531.4028 16.3 21
  531.5242 17.7 22
  531.6753 17.4 22
  531.9706 15.4 19
  532.3349 18 23
  532.4477 16 20
  532.5626 14.6 18
  532.6417 18.9 24
  532.6759 19.1 24
  533.0321 19 24
  533.3382 18.2 23
  533.3854 17 22
  533.4795 16.2 21
  533.5389 19.6 25
  533.6212 13 16
  533.6543 16 20
  534.026 15.8 20
  534.1313 14 18
  534.1857 14 18
  534.2508 15.4 19
  534.4383 19 24
  534.5216 17 22
  535.1076 12 15
  535.2433 13 16
  535.3902 16 20
  535.4601 16.7 21
  535.6878 16 20
  536.0079 16 20
  536.2756 14 18
  536.3509 16.5 21
  536.4786 14 18
  536.5312 13.2 17
  536.9915 16 20
  537.0463 16.9 21
  537.3378 14.3 18
  537.5039 15 19
  537.5672 13 16
  537.6122 15 19
  537.6605 15 19
  538.0762 14.9 19
  538.3031 13 16
  538.3993 18 23
  538.4503 20.8 26
  538.6462 14 18
  539.0086 14.3 18
  539.0634 19.7 25
  539.1471 17 22
  539.2371 17.8 23
  539.2991 17.1 22
  539.4895 15 19
  540.0257 16 20
  540.0662 18.6 24
  540.3263 20 25
  540.6258 15 19
  541.0429 13.2 17
  541.2762 16.5 21
  542.1272 19.6 25
  542.1858 17.8 23
  542.3237 21.9 28
  542.4031 20 25
  542.5026 14.3 18
  542.5484 18.2 23
  543.1453 15.4 19
  543.3156 14.9 19
  543.5681 13 16
  543.6692 22 28
  544.1048 14.2 18
  544.2108 16 20
  544.3316 16.2 21
  544.425 44.7 57
  544.4833 19 24
  545.0344 16.1 20
  545.1701 15.2 19
  545.2693 13 16
  545.5901 14 18
  545.6494 15.1 19
  546.0144 15.8 20
  546.2389 18.8 24
  546.3062 15.1 19
  546.4343 15.8 20
  546.5112 14.3 18
  547.1101 15.8 20
  547.1509 24 31
  547.21 13.2 17
  547.3033 14 18
  547.4099 14.3 18
  548.0718 18 23
  548.2664 15 19
  548.3611 14 18
  548.3942 15.1 19
  548.474 15.8 20
  548.5139 20 25
  548.5871 23.3 30
  549.2964 15.8 20
  549.4184 13 16
  549.5374 13.5 17
  549.6329 15 19
  549.9999 21.1 27
  550.0562 13.1 16
  550.0934 19.7 25
  550.1382 20 25
  550.2223 16.7 21
  550.2759 15.1 19
  550.3181 15.4 19
  550.3882 15.1 19
  550.5221 13.5 17
  550.604 14.9 19
  550.6558 17 22
  551.1885 18.5 23
  551.2644 15.1 19
  551.3072 18 23
  551.5872 21.2 27
  551.6399 15 19
  551.6685 15.4 19
  552.0171 15 19
  552.0526 18 23
  552.0822 19.1 24
  552.2738 14.9 19
  552.4006 15.8 20
  552.5042 17.1 22
  552.5582 14 18
  552.619 16 20
  552.9874 19 24
  553.1501 15.2 19
  553.2108 15.2 19
  553.3389 20.5 26
  553.6142 18.1 23
  553.6727 15.4 19
  554.0181 20.8 26
  554.0915 19.7 25
  554.1665 16.2 21
  554.2367 16.1 20
  554.3201 14.9 19
  554.633 17.1 22
  555.1964 13.5 17
  555.2701 16 20
  555.3827 16.9 21
  555.4986 18 23
  555.5519 16 20
  556.0909 13.5 17
  556.2152 18.2 23
  556.2713 16 20
  556.3585 18 23
  556.4159 16.9 21
  556.5566 14 18
  556.9971 18 23
  557.0886 14.1 18
  557.2603 15.1 19
  557.3891 13 16
  558.0296 14 18
  558.0765 13 16
  558.2136 17.7 22
  558.3196 16.1 20
  558.3536 20 25
  558.5117 13 16
  559.0008 17.7 22
  559.1317 16 20
  559.2245 23.8 30
  559.3088 12 15
  559.5564 14 18
  559.6243 16.7 21
  560.0878 15 19
  560.1229 12 15
  560.2191 16.7 21
  560.3656 13.2 17
  560.5194 14 18
  560.5788 14 18
  561.2905 17 22
  561.527 17 22
  561.637 14 18
  561.6879 16 20
  562.0396 18 23
  562.1328 18.8 24
  562.1685 15.2 19
  562.2053 15.8 20
  562.2491 21.7 28
  562.3594 13.2 17
  562.5423 19.6 25
  562.63 15 19
  563.2504 18 23
  563.3161 20.9 27
  563.3755 13 16
  563.4313 21.1 27
  563.5166 13 16
  563.5679 16.9 21
  563.6448 16.7 21
  563.984 15 19
  564.1621 13.2 17
  564.2083 15 19
  564.2627 15 19
  564.2971 15 19
  564.3337 13 16
  565.0578 19 24
  565.1213 14.3 18
  565.1995 17.4 22
  565.3842 12 15
  565.5659 16 20
  565.9965 13 16
  566.0276 12 15
  566.0925 14 18
  566.1939 14 18
  566.2788 16.5 21
  566.3307 25 32
  566.4238 15.1 19
  566.6553 16.9 21
  567.1635 14 18
  567.2097 19.1 24
  567.3906 16 20
  567.5572 17.2 22
  567.6882 15.4 19
  567.9719 15 19
  568.0942 20.8 26
  568.2603 15.1 19
  568.3208 18.1 23
  568.5541 20.1 26
  568.9799 13.1 16
  569.0184 15.4 19
  569.1851 17.7 22
  569.3043 18 23
  569.4125 18.6 24
  569.4538 13.2 17
  569.5717 15 19
  569.617 14 18
  569.6692 18 23
  570.1976 19 24
  570.3721 16.5 21
  570.5739 17 22
  570.6047 17.2 22
  571.0193 15 19
  571.0852 18.2 23
  571.1595 17 22
  571.2109 17.4 22
  571.3365 19 24
  571.4737 16.6 21
  571.6472 13.2 17
  572.1229 16.7 21
  572.2342 16.7 21
  572.2856 19.6 25
  572.438 14 18
  573.0211 14 18
  573.1785 16.7 21
  573.2736 14 18
  574.0077 18 23
  574.0822 17 22
  574.1513 13 16
  574.1825 14 18
  574.2613 17.8 23
  574.4324 16 20
  574.5735 17 22
  575.1535 18 23
  575.2323 13 16
  575.4231 18 23
  575.4579 17 22
  575.6189 16.5 21
  576.1533 14 18
  576.1795 16.5 21
  576.2824 17.8 23
  576.4724 15.4 19
  576.5822 13.1 16
  577.0695 14 18
  577.1715 12.1 15
  577.2224 16.9 21
  577.2847 14 18
  577.6722 16.9 21
  578.0061 15.8 20
  578.0913 16 20
  578.2029 16.2 20
  578.2419 16.5 21
  578.5038 19.6 25
  578.5445 14.2 18
  578.5892 17 22
  578.9966 13 16
  579.0461 16.9 21
  579.2034 14 18
  579.341 19.8 25
  579.6214 14 18
  579.6727 19.8 25
  580.1488 15.1 19
  580.2361 13.2 17
  580.3627 17 22
  580.46 21.6 27
  580.6189 15 19
  581.0399 13.5 17
  581.1721 14.1 18
  581.4455 14.3 18
  582.0336 15.1 19
  582.1538 14.9 19
  582.203 17.7 22
  582.2974 15.1 19
  582.3397 22.1 28
  582.4046 15.8 20
  582.4567 15 19
  582.5596 17.4 22
  582.6702 18 23
  583.2641 14.9 19
  583.3529 14.4 18
  583.4359 14 18
  583.6856 16.9 21
  584.1236 17.7 22
  584.1843 17.1 22
  584.2515 15 19
  584.3623 16 20
  584.4455 16.1 20
  584.531 17.1 22
  584.6218 14 18
  585.0848 15 19
  585.1481 12.4 16
  585.2711 18.2 23
  585.3916 15.4 19
  585.4439 14 18
  586.0727 15 19
  586.3285 18.5 23
  587.0587 18.8 24
  587.3297 15.8 20
  587.5702 15.2 19
  587.6092 15.8 20
  588.125 17.7 22
  588.5659 14.3 18
  588.6185 18 23
  588.6649 15.1 19
  589.4668 12 15
  589.5699 20.9 27
  590.1281 17.1 22
  590.1975 12.1 15
  590.5181 19 24
  591.002 20 25
  591.076 15 19
  591.1207 14 18
  591.6197 16.2 20
  592.1096 16.7 21
  592.2755 17.8 23
  593.0085 14.9 19
  593.052 13 16
  593.2337 24 31
  593.2783 19.3 24
  593.3176 14 18
  593.3564 14 18
  593.4723 16.5 21
  594.0867 14 18
  594.2838 18 23
  594.3638 16.9 21
  594.4503 19.4 25
  594.5205 16.9 21
  594.6564 17.7 22
  595.1361 17.8 23
  595.6728 15 19
  596.0708 16 20
  596.1593 16.9 21
  596.2937 13.5 17
  596.3972 15.4 19
  596.466 14.1 18
  596.5847 14 18
  597.032 19 24
  597.0933 18 23
  597.1491 13.2 17
  597.252 24.4 31
  597.3115 14.9 19
  597.3863 14 18
  597.4739 21.7 28
  597.51 17.7 22
  597.5844 19.6 25
  598.0792 15.1 19
  598.1308 14 18
  598.3562 15 19
  598.4045 13 16
  598.6445 17 22
  599.04 14.3 18
  599.2116 15.1 19
  599.5708 18.6 24
  599.6175 17.7 22
  599.664 15.1 19
  600.2701 17.2 22
  600.3913 14.3 18
  601.5517 16.1 20
  601.5936 19.8 25
  601.6757 14.6 18
  602.0476 16.5 21
  602.2294 14 18
  602.3154 17 22
  602.3601 21 27
  602.4145 16.7 21
  602.5322 13.2 17
  602.6641 15 19
  603.0741 14 18
  603.216 14.9 19
  603.256 12 15
  603.4575 16.2 21
  604.0398 15.1 19
  604.0982 17.1 22
  604.1463 16.9 21
  604.2438 17.7 22
  604.3013 19.6 25
  604.5457 14 18
  604.5806 19.1 24
  605.3181 16.5 21
  605.5245 13.2 17
  606.0917 14 18
  606.3149 14 18
  606.3794 15.1 19
  606.4527 12 15
  606.6507 17.7 22
  607.0932 18.9 24
  607.2857 15 19
  607.5145 14 18
  607.5876 18.5 23
  607.9865 15 19
  608.0987 18.8 24
  608.1554 14.3 18
  608.3131 14.3 18
  608.3999 15 19
  608.5691 18.9 24
  608.6191 19.2 24
  609.1539 16.2 20
  609.3651 19 24
  609.5398 14.3 18
  609.6179 14 18
  609.6858 13 16
  610.0098 13 16
  610.0913 16.2 21
  610.3351 15.8 20
  611.0241 14 18
  611.1089 16.1 20
  611.2028 18 23
  611.5266 15 19
  612.0776 16.2 21
  612.1273 15.1 19
  612.2706 17.4 22
  612.3247 15.1 19
  612.493 14 18
  612.6208 16.1 20
  613.1315 15.8 20
  613.3174 15.4 19
  613.4882 20.7 26
  613.5684 19.6 25
  613.5994 15.1 19
  613.9908 16 20
  614.3952 13.5 17
  614.5224 13 16
  614.5749 20.4 26
  615.1925 19 24
  615.2612 17.8 23
  615.4534 14 18
  615.6416 13 16
  616.0985 18.9 24
  616.278 41.6 53
  616.5098 15.1 19
  617.0906 14.6 18
  617.2574 16.7 21
  617.5099 20 25
  617.6105 15.4 19
  617.9977 14 18
  618.2464 20.6 26
  618.3231 15.8 20
  618.3818 19.6 25
  618.4767 19 24
  619.0586 13 16
  619.2682 16.5 21
  619.5509 14.9 19
  619.6339 15 19
  620.0168 17.7 22
  620.1412 15 19
  620.2998 14 18
  620.4376 14 18
  620.4838 18 23
  620.5474 18.2 23
  620.671 15.4 19
  621.0767 15 19
  621.1968 13.2 17
  621.233 18.5 23
  621.4199 14 18
  621.5945 16.2 21
  622.0055 14 18
  622.1036 15.1 19
  622.2499 20 25
  622.3798 14 18
  622.5022 18 23
  622.5309 16 20
  622.5761 13 16
  622.6538 16.5 21
  623.0594 14 18
  623.1572 16.9 21
  623.2991 16.1 20
  623.3434 17 22
  623.6813 14 18
  624.2261 20.2 26
  624.352 16.9 21
  625.1132 14 18
  625.184 19 24
  625.259 18.6 24
  625.4628 13 16
  625.5236 14.3 18
  626.1167 13.2 17
  626.5996 16 20
  627.1222 18.9 24
  627.2704 14 18
  627.3962 12 15
  627.585 16.5 21
  627.9777 20.9 27
  628.2519 14.1 18
  628.3644 17.1 22
  628.554 15 19
  629.0476 16.1 20
  629.1883 22 28
  629.2513 13.2 17
  629.298 17.4 22
  629.337 21.6 27
  629.4032 14.9 19
  630.0595 21 27
  630.1004 16.5 21
  630.217 16 20
  630.2543 15.8 20
  630.3173 15.8 20
  630.513 18.1 23
  630.6732 13.2 17
  631.0044 17.4 22
  631.1323 15 19
  631.1832 15 19
  631.5907 15.8 20
  631.981 20 25
  632.0493 18.2 23
  632.3197 16.2 20
  632.3658 16 20
  632.4586 13.1 16
  632.5227 19 24
  632.5863 13 16
  632.6335 18.2 23
  632.6628 15.8 20
  632.9835 14 18
  633.139 14 18
  633.4289 16 20
  633.4787 15.8 20
  634.3068 16 20
  634.4394 16 20
  634.4998 19 24
  634.5499 18 23
  634.6137 12.4 16
  635.029 13.2 17
  635.4256 13.2 17
  635.4617 16.5 21
  635.4999 13.5 17
  635.5801 16.1 20
  636.0619 15.2 19
  636.0952 17 22
  636.3885 13 16
  636.4688 17.7 22
  636.5487 17.1 22
  636.6713 22 28
  637.1094 14.9 19
  637.148 14.3 18
  637.2342 12 15
  637.2747 16.7 21
  637.3106 14 18
  637.3749 16.9 21
  637.4347 16.7 21
  637.5588 12.4 16
  637.6414 16 20
  638.034 14 18
  638.0871 17.7 22
  638.5008 17.2 22
  639.0626 18.2 23
  639.2272 19 24
  639.4793 16.7 21
  639.5584 16.7 21
  639.6146 16 20
  640.4452 18 23
  640.4788 16 20
  640.5732 16 20
  641.0922 18.5 23
  641.3811 22 28
  641.5139 14.3 18
  641.608 14 18
  641.6432 14 18
  642.1398 18 23
  642.2228 15.4 19
  642.3502 15.4 19
  642.6161 16.5 21
  643.0781 15.1 19
  643.1403 16.2 21
  643.258 14.6 18
  643.3005 14.3 18
  643.3457 17 22
  643.4662 14.3 18
  643.5902 14 18
  644.1703 16.5 21
  644.3618 15.8 20
  644.4168 15.4 19
  644.4542 18.2 23
  644.6158 18 23
  645.0458 14 18
  645.0717 14.3 18
  645.1709 13 16
  645.3819 17.2 22
  645.5473 17.2 22
  646.0299 16 20
  646.099 17 22
  646.5341 15.1 19
  646.6619 17 22
  647.1905 19.8 25
  647.3799 14.1 18
  647.4691 22.1 28
  647.5493 19.2 24
  647.6473 15.8 20
  647.9751 14 18
  648.1002 17.7 22
  648.1648 16 20
  648.4259 12.1 15
  648.5029 15 19
  648.5567 19.8 25
  648.5807 17.4 22
  648.6461 13.2 17
  648.6948 13 16
  649.1458 15 19
  649.4041 16 20
  649.516 13 16
  650.0353 19.1 24
  650.0993 16 20
  650.1606 13.5 17
  650.393 14 18
  650.564 17.8 22
  650.6194 15.1 19
  651.1171 18 23
  651.2963 14 18
  651.3877 20.6 26
  652.0379 14 18
  652.2509 13 16
  652.3034 16 20
  652.3383 14.9 19
  652.4134 18 23
  652.4752 17 22
  652.6422 15.1 19
  652.6931 16 20
  653.0842 14 18
  653.1688 17 22
  653.224 15.4 19
  653.4069 17.7 22
  653.4478 20.2 26
  653.4813 13 16
  653.5399 19.1 24
  653.6479 15.1 19
  653.6924 12.4 16
  654.067 15.8 20
  654.2059 13.2 17
  654.2923 13 16
  654.3993 18.8 24
  654.5797 17.4 22
  655.1591 21.9 28
  655.4345 24 31
  655.5323 17.8 23
  655.5933 16 20
  655.9855 13.1 16
  656.0513 19.3 25
  656.3205 16.7 21
  656.4488 16.2 21
  656.5324 16.9 21
  656.593 18.3 23
  657.0898 13.1 16
  657.2891 20.1 26
  657.379 19.3 25
  657.4485 17.1 22
  657.5614 13.2 17
  658.0517 15.8 20
  658.085 18.4 23
  658.1486 16.2 21
  658.2338 18 23
  658.4277 17.7 22
  658.5606 13 16
  658.6264 14 18
  659.0509 17.1 22
  659.1439 16.1 20
  659.2962 17.1 22
  659.4675 15.4 19
  660.0153 18.1 23
  660.2309 15.1 19
  660.4329 22 28
  660.5105 14 18
  660.5638 16.9 21
  660.61 17.7 22
  660.9924 12 15
  661.0952 19.3 25
  661.1551 18.5 23
  661.3743 13.2 17
  661.6666 15.4 19
  662.2327 21.7 28
  662.2913 20 25
  663.0224 18.6 24
  663.1036 20.9 27
  663.3318 17 22
  663.4867 17.8 23
  663.6634 14 18
  663.976 16.1 20
  664.1951 12 15
  664.2456 20.1 26
  664.3251 16 20
  664.362 16 20
  664.459 23.1 29
  664.6216 23.3 30
  664.6496 12 15
  665.2501 16 20
  665.31 14 18
  665.3537 14.9 19
  665.4742 13.2 17
  665.6805 31.2 40
  666.0102 16.1 20
  666.109 15.1 19
  666.1689 14 18
  666.2253 14.1 18
  666.4336 18.2 23
  666.546 13 16
  667.0325 13.2 17
  667.0804 15.8 20
  667.2285 18 23
  667.2735 17.7 22
  667.3656 15 19
  667.4436 13 16
  667.5133 12 15
  668.1794 16.9 21
  668.3593 19.1 24
  668.4898 17.7 22
  668.6428 13 16
  669.1044 15 19
  669.2132 16 20
  669.4305 15 19
  669.543 15.4 19
  669.5908 16.9 21
  670.3508 15.8 20
  670.574 18.6 24
  670.6774 16.1 20
  671.1021 15.1 19
  671.2818 15.8 20
  671.3695 16 20
  671.5447 18 23
  672.0052 14 18
  672.1129 14.9 19
  672.1625 21.4 27
  672.1989 17 22
  672.3503 18 23
  672.6321 17.7 22
  672.6839 13.2 17
  673.1008 20.5 26
  673.3357 14 18
  673.4075 13 16
  673.4636 14 18
  673.6615 15.4 19
  674.0397 17 22
  674.2166 18 23
  674.4797 15 19
  674.6271 18.5 23
  675.1687 15.8 20
  675.3068 17.1 22
  675.5086 20 25
  675.6043 14.9 19
  675.6525 17 22
  675.9817 19.1 24
  676.213 12.4 16
  676.2763 14 18
  676.3519 15.8 20
  677.1142 20.7 26
  677.3449 16.2 21
  677.4373 16 20
  677.5422 18 23
  677.6448 18.5 23
  677.7045 15.8 20
  678.0847 19 24
  678.1935 13.5 17
  678.554 17.1 22
  678.6359 19.1 24
  678.6843 14.3 18
  679.3398 16 20
  679.3818 13.2 17
  680.0846 14 18
  680.6001 15 19
  680.6641 19 24
  680.998 15.2 19
  681.0325 19.8 25
  681.1645 20 25
  681.2071 17 22
  681.2803 15 19
  681.6373 15 19
  682.0098 23.8 30
  682.2103 16 20
  682.4101 13 16
  682.4561 16 20
  682.5963 17.1 22
  682.67 18 23
  683.0492 19.2 24
  683.0888 15 19
  683.279 15.4 19
  683.4074 20 25
  683.6073 20 25
  684.031 17.1 22
  684.313 17 22
  684.3826 13 16
  684.4422 14 18
  684.5592 13 16
  684.5902 17.8 23
  685.0775 14.9 19
  685.2375 18 23
  685.3603 17 22
  685.4956 14.3 18
  685.5354 23 29
  685.5741 13 16
  685.6832 14 18
  686.1769 14 18
  686.3275 14.9 19
  686.4386 15.8 20
  686.4741 14 18
  686.5115 13.2 17
  686.6171 15 19
  687.0651 16 20
  687.1699 13 16
  687.3073 16.7 21
  687.35 12 15
  687.5998 14 18
  688.0345 16.5 21
  688.1362 14 18
  688.5108 15.2 19
  688.5653 15.1 19
  688.6772 15 19
  689.4174 13 16
  689.5387 17.8 23
  690.0787 14.9 19
  690.1376 14.9 19
  690.4552 14 18
  690.5031 14 18
  690.6512 16.2 21
  691.1107 17 22
  691.1821 19.1 24
  691.2245 16 20
  691.2765 15.1 19
  691.3624 25 32
  691.6915 13 16
  692.251 18.1 23
  692.346 17.7 22
  692.3895 17.1 22
  692.5626 12 15
  692.9945 17.1 22
  693.1402 16.2 21
  693.1856 20 25
  693.2638 20 25
  693.5065 16.2 21
  694.1614 18 23
  694.3924 16.7 21
  694.4305 15.4 19
  694.474 19.3 25
  694.5983 14 18
  695.297 16 20
  695.5538 16.7 21
  695.5933 16 20
  696.0038 18 23
  696.0744 17.7 22
  696.1316 15.2 19
  696.2417 14.6 18
  696.4849 15.8 20
  697.3839 13 16
  697.5713 16 20
  698.0104 15.8 20
  698.3548 13 16
  698.4151 19.7 25
  698.4489 15.4 19
  699.0073 15.8 20
  699.0843 14 18
  699.3201 20.3 26
  699.3855 16 20
  699.5664 14 18
  699.6101 18 23
  700.0847 20.9 27
  700.2801 16.1 20
  700.5613 15.8 20
  700.5976 17.7 22
  700.6821 18 23
  701.4069 14.6 18
  701.4469 15.1 19
  701.5135 16.5 21
  701.5586 14 18
  701.5913 13.2 17
  702.1598 20 25
  702.3465 13 16
  702.3998 25.4 32
  702.4501 15.4 19
  703.0178 16 20
  703.1997 17.8 23
  703.3116 12 15
  703.6686 18.8 24
  704.0789 14 18
  704.1811 17.8 23
  704.2524 15.8 20
  704.4365 14 18
  704.5407 18.8 24
  704.5897 16 20
  705.1766 17.7 22
  705.5518 14.1 18
  706.2661 15 19
  706.3611 13 16
  706.4572 16 20
  706.59 17 22
  706.6761 16.2 21
  707.1215 18.6 24
  707.1984 17.7 22
  707.246 12 15
  708.1976 16.1 20
  708.3543 14 18
  708.4406 14 18
  708.5553 19.1 24
  709.268 14 18
  710.0636 18.9 24
  710.1135 19.3 25
  710.1803 18 23
  710.2274 13 16
  710.267 13.2 17
  710.5758 18.5 23
  710.6691 16.2 21
  711.0224 15.2 19
  711.2676 13 16
  711.3227 19 24
  711.3834 12 15
  711.9999 16 20
  712.1174 15.1 19
  712.2609 17 22
  712.3198 13 16
  712.4867 17.8 23
  712.6159 18 23
  712.6747 17.4 22
  713.0724 15 19
  713.1133 14 18
  713.1546 13.2 17
  713.2439 18.8 24
  713.3195 21 27
  713.3696 17 22
  714.1692 12.4 16
  714.2503 17.3 22
  714.3313 17.8 23
  714.5294 19.2 24
  714.5947 15.8 20
  714.668 14.6 18
  715.5045 16 20
  715.6095 12.4 16
  716.0162 18 23
  716.1712 16 20
  716.3702 19.1 24
  716.6114 14 18
  716.6974 14 18
  717.0136 16.5 21
  717.1019 20.1 26
  717.2783 17.7 22
  717.3324 18 23
  717.4002 19.6 25
  717.4705 18 23
  717.5049 19.3 25
  717.6889 13.2 17
  718.3481 21.6 27
  718.4061 20.8 26
  718.4472 16.5 21
  718.5894 14 18
  719.0021 13.5 17
  719.1294 14.9 19
  719.3683 12 15
  719.5872 18.8 24
  719.6789 14 18
  720.195 15 19
  720.2819 13 16
  720.3214 18 23
  720.439 16 20
  720.6854 13 16
  721.0695 19.3 25
  721.1397 13.5 17
  721.1846 22 28
  721.6327 13 16
  721.6762 14.9 19
  722.0005 17.8 23
  722.0831 20 25
  722.4419 16 20
  722.6126 16.2 21
  723.0674 18 23
  723.1833 13.2 17
  723.2957 17.8 23
  723.3595 16.1 20
  723.4695 14.4 18
  723.5219 16.7 21
  723.978 13 16
  724.3141 18.6 24
  724.4075 18 23
  724.6494 14 18
  724.9891 16 20
  725.1868 15 19
  725.5394 16.2 21
  725.6539 17.8 23
  725.9898 20.6 26
  726.0266 17.7 22
  726.0944 20.2 26
  726.491 13 16
  726.5727 13.2 17
  726.6643 14 18
  727.1027 15.8 20
  727.1909 16.7 21
  727.3013 13.5 17
  727.3971 14.3 18
  727.4369 14.9 19
  727.5844 20.5 26
  728.0515 13 16
  728.0954 14 18
  728.2545 15 19
  728.4324 17.1 22
  728.5792 12 15
  729.0506 13 16
  729.1241 17 22
  729.1772 15.1 19
  729.2637 15 19
  729.4089 14 18
  729.5745 14.9 19
  729.6745 15.4 19
  730.0614 17 22
  730.1185 12 15
  730.1818 13.5 17
  730.2701 16 20
  730.4635 13 16
  730.5876 15.8 20
  730.6528 23.2 30
  731.146 15.4 19
  731.2439 16 20
  731.3059 13.1 16
  731.3937 15.1 19
  731.5182 13 16
  731.5973 19.6 25
  731.681 15.5 20
  732.0747 15 19
  732.3511 18.6 24
  732.4948 15.1 19
  732.5866 16.7 21
  732.6646 16.9 21
  733.2544 12.1 15
  733.306 14.6 18
  733.5006 12.4 16
  733.6031 19 24
  734.0236 13.5 17
  734.0835 16.9 21
  734.2859 15.4 19
  735.2125 14.1 18
  735.4333 16.2 21
  735.9743 17.7 22
  736.0781 16 20
  736.1461 16.1 20
  736.5191 16.3 21
  736.6192 17.4 22
  736.6762 18.8 24
  737.3058 13.2 17
  737.3683 14.9 19
  737.5935 16.7 21
  738.1037 12 15
  738.3489 19.3 25
  738.4015 15.1 19
  738.4547 15 19
  738.6237 18.8 24
  738.9891 15.1 19
  739.1063 18.6 24
  739.9935 16 20
  740.1061 15.5 20
  740.1723 16 20
  740.26 17 22
  740.5073 15 19
  740.5753 15 19
  741.0639 16.2 21
  741.1901 13.5 17
  741.235 18.8 24
  741.2995 14.9 19
  741.3633 17 22
  741.6389 14 18
  742.0327 17 22
  742.1268 19.6 25
  742.2331 15 19
  742.3492 18.6 24
  742.4386 17.1 22
  742.6764 15 19
  743.1185 18 23
  743.3542 16.3 21
  743.5161 14.9 19
  743.5514 16.5 21
  744.0401 33.4 43
  744.0867 24.1 31
  744.478 15 19
  744.98 14 18
  745.5996 17.2 22
  746.12 16.1 20
  746.1654 14.1 18
  746.2719 20.9 27
  746.5346 18 23
  747.1524 14 18
  747.3306 15.4 19
  747.6674 18.8 24
  747.9781 13 16
  748.032 19.1 24
  748.0676 13.5 17
  748.3677 19.3 25
  748.6562 19 24
  749.1151 21.3 27
  749.1786 14.1 18
  749.4828 19.1 24
  750.0079 26 33
  750.0705 15 19
  750.146 14 18
  750.2218 14 18
  750.3109 15 19
  750.3545 14 18
  750.5935 13 16
  751.004 16 20
  751.139 16 20
  751.3127 19 24
  751.6468 20 25
  752.1368 17 22
  752.3759 13 16
  752.6256 17.1 22
  752.6654 20 25
  753.4022 15 19
  753.4323 14.9 19
  753.5836 14 18
  753.6617 16.9 21
  754.1182 13 16
  754.2506 14.1 18
  754.5215 13.2 17
  754.5737 16.7 21
  755.1418 16.1 20
  755.2161 13 16
  755.2799 18.2 23
  755.4604 13.1 16
  755.5301 14.1 18
  755.5948 19.6 25
  755.6812 15.8 20
  755.9838 16.9 21
  756.069 16.5 21
  756.1193 13.2 17
  756.4999 15.8 20
  756.5688 15.4 19
  757.0949 18 23
  757.1282 14.6 18
  757.2304 14.6 18
  757.6192 15.1 19
  758.1624 14 18
  758.2046 12.1 15
  758.2466 16.5 21
  758.3611 16.2 21
  758.4142 16.7 21
  758.4939 22 28
  758.6524 14.3 18
  759.1314 18.5 23
  759.2481 12.1 15
  759.4016 19 24
  759.5544 22.1 28
  759.6511 17.2 22
  760.0782 13 16
  760.6766 14.3 18
  761.0942 13 16
  761.1322 14 18
  761.428 15.1 19
  761.4923 18.8 24
  761.6906 15.2 19
  761.9901 15.4 19
  762.0717 15.4 19
  762.2897 14 18
  762.3446 13 16
  763.2098 18 23
  763.4689 22.8 29
  763.5403 16.2 21
  764.0262 16.2 21
  764.2458 13 16
  764.3209 14 18
  765.2025 16 20
  765.2866 16.9 21
  765.6245 15.8 20
  766.0545 23.4 30
  767.124 16.2 21
  767.2242 14 18
  767.2929 19.6 25
  767.5895 13 16
  768.1299 14 18
  768.2751 14 18
  768.3345 17.1 22
  768.6817 19.1 24
  769.0547 19.9 25
  769.4924 12 15
  770.3046 20 25
  770.3821 12 15
  771.1629 17 22
  771.2592 18 23
  771.4515 13.1 16
  771.5069 19.1 24
  771.5558 20.6 26
  771.5908 18.1 23
  771.6455 18.8 24
  772.0904 18.2 23
  772.1845 12 15
  772.2868 15.2 19
  772.3251 17.7 22
  772.4573 13 16
  772.6207 16 20
  772.9845 15 19
  773.404 14 18
  773.5643 14 18
  773.6308 14 18
  774.2648 12 15
  774.4047 14.2 18
  774.4709 17 22
  774.5448 15 19
  774.6227 12 15
  775.3686 14.9 19
  775.4505 15.8 20
  775.546 13 16
  776.1175 15 19
  776.314 16.7 21
  776.4536 14 18
  777.1516 13 16
  777.236 13.2 17
  777.3163 13 16
  777.4841 15.4 19
  778.0441 16 20
  778.3378 14.9 19
  778.3874 14 18
  778.4575 14 18
  778.6518 12 15
  779.1338 16.7 21
  779.4134 17 22
  779.5152 12 15
  780.6577 19.6 25
  781.3472 18.8 24
  781.5683 17.8 23
  781.6585 19 24
  782.1755 14.3 18
  782.2616 16 20
  782.4129 14 18
  783.0562 16 20
  783.2098 15.1 19
  783.6596 15 19
  784.0759 18.8 24
  784.1676 18.2 23
  784.2442 20 25
  784.336 14.6 18
  784.3823 17.2 22
  784.429 21.2 27
  784.5786 16.5 21
  785.177 13.2 17
  785.2578 16 20
  785.4704 22.8 29
  786.2316 20 25
  786.3229 15.1 19
  786.6118 18 23
  786.6457 18.8 24
  787.2386 12 15
  787.5276 17.7 22
  787.6463 25.5 32
  788.2972 13.2 17
  788.3494 18 23
  788.4287 15 19
  789.2059 14.9 19
  789.3752 14 18
  789.4204 16.2 21
  789.5678 17.7 22
  790.5061 16 20
  791.311 17.6 22
  791.4879 17.1 22
  791.5968 14 18
  792.2185 16.2 21
  792.283 17 22
  792.362 15.4 19
  793.3929 15.8 20
  794.2344 20.1 26
  794.5023 14.9 19
  794.5393 21.3 27
  794.5928 17.1 22
  795.4092 12 15
  795.4484 14 18
  796.1561 18.9 24
  796.4908 17.2 22
  796.6393 18 23
  797.2853 16 20
  797.5398 18.5 23
  798.1681 14 18
  798.3614 17.8 23
  798.4495 14 18
  798.5454 15.4 19
  798.6107 15.8 20
  798.6706 18.3 23
  799.4222 21.1 27
  799.5377 15 19
  800.4232 13.2 17
  800.5279 14.3 18
  800.6618 25 32
  801.3822 13 16
  801.4771 23 29
  801.5236 16.7 21
  801.6219 15.8 20
  802.2123 19.9 25
  802.3993 16 20
  802.4793 16 20
  802.5397 19 24
  802.6338 16 20
  803.2105 15.1 19
  803.3002 16 20
  803.3328 16.7 21
  803.5047 12.1 15
  803.5851 20 25
  804.3637 12.1 15
  804.4171 15.1 19
  804.6245 16.2 21
  805.3379 21.1 27
  805.5338 15.1 19
  805.6376 14.9 19
  806.4165 20.9 27
  806.4733 18 23
  806.5704 17.7 22
  806.6363 16 20
  807.253 17 22
  807.3408 21.6 27
  807.6438 14 18
  808.5474 16 20
  809.2822 13 16
  809.5656 19.6 25
  809.7004 17.7 22
  810.3856 16.1 20
  810.5638 15 19
  810.6171 14.3 18
  811.3772 12.4 16
  811.4907 14 18
  811.5554 14.3 18
  811.6831 16 20
  812.5523 18.5 23
  812.7005 14.4 18
  813.3112 20.3 26
  813.4872 14 18
  814.5496 16.1 20
  815.6234 16 20
  815.6769 16.2 21
  816.4981 14 18
  816.5364 15.1 19
  817.4577 102.1 132
  817.5857 18.8 24
  818.4811 18 23
  819.6744 14 18
  820.6081 21.2 27
  821.4801 16.2 21
  821.5418 15.1 19
  822.4498 16 20
  822.5538 20.5 26
  823.3609 20 25
  823.5521 15.2 19
  824.5204 16.1 20
  824.6341 16.9 21
  826.4766 18.2 23
  826.5788 14.9 19
  826.6202 16 20
  827.4125 16.3 21
  827.6725 17 22
  828.5157 19.6 25
  828.6444 17 22
  829.6702 16.2 21
  830.5433 15.2 19
  832.6745 14.3 18
  833.5399 15.1 19
  833.6483 18.8 24
  834.5448 16 20
  835.5688 19.7 25
  835.6559 15.1 19
  837.6257 15.4 19
  837.6808 14.6 18
  842.5413 14.9 19
  842.6445 17 22
  844.5434 14 18
  860.649 13.2 17
  861.6734 771.3 999
//
