ACCESSION: MSBNK-Antwerp_Univ-METOX_N106726_9C9C
RECORD_TITLE: Nervonic acid; LC-ESI-QTOF; MS2; CE: 40eV; R=7000; [M-H]-
DATE: 2022.04.09
AUTHORS: da Silva KM, Iturrospe E, van de Lavoir M, Robeyns R, University of Antwerp, Belgium
LICENSE: CC BY
COPYRIGHT: Copyright (c) 2021 by Toxicological Center, University of Antwerp, Wilrijk, Belgium
COMMENT: CONFIDENCE Standard compound
COMMENT: INTERNAL_ID 1067
CH$NAME: Nervonic acid
CH$NAME: (Z)-tetracos-15-enoic acid
CH$COMPOUND_CLASS: N/A; Metabolomics Standard
CH$FORMULA: C24H46O2
CH$EXACT_MASS: 366.3498
CH$SMILES: CCCCCCCC\C=C/CCCCCCCCCCCCCC(O)=O
CH$IUPAC: InChI=1S/C24H46O2/c1-2-3-4-5-6-7-8-9-10-11-12-13-14-15-16-17-18-19-20-21-22-23-24(25)26/h9-10H,2-8,11-23H2,1H3,(H,25,26)/b10-9-
CH$LINK: CAS 506-37-6
CH$LINK: CHEBI 44247
CH$LINK: KEGG C08323
CH$LINK: LIPIDMAPS LMFA01030092
CH$LINK: PUBCHEM CID:5281120
CH$LINK: INCHIKEY GWHCXVQVJPWHRF-KTKRTIGZSA-N
CH$LINK: CHEMSPIDER 4444565
AC$INSTRUMENT: Agilent 6560 QTOF
AC$INSTRUMENT_TYPE: LC-ESI-QTOF
AC$MASS_SPECTROMETRY: MS_TYPE MS2
AC$MASS_SPECTROMETRY: ION_MODE NEGATIVE
AC$MASS_SPECTROMETRY: IONIZATION ESI
AC$MASS_SPECTROMETRY: FRAGMENTATION_MODE CID
AC$MASS_SPECTROMETRY: COLLISION_ENERGY 40 eV
AC$MASS_SPECTROMETRY: RESOLUTION 7000
AC$MASS_SPECTROMETRY: MASS_RANGE_M/Z 70-1700
AC$CHROMATOGRAPHY: COLUMN_NAME N/A
AC$CHROMATOGRAPHY: FLOW_GRADIENT 50/50 isocratic
AC$CHROMATOGRAPHY: FLOW_RATE 200 uL/min
AC$CHROMATOGRAPHY: RETENTION_TIME 0.163 min
AC$CHROMATOGRAPHY: SOLVENT A 30/70 acetonitrile/water with 2mM ammonium acetate
AC$CHROMATOGRAPHY: SOLVENT B 88/10/2 isopropanol/acetonitrile/water with 2mM ammonium acetate
MS$FOCUSED_ION: BASE_PEAK 365.3425
MS$FOCUSED_ION: PRECURSOR_M/Z 365.3425
MS$FOCUSED_ION: PRECURSOR_TYPE [M-H]-
MS$FOCUSED_ION: PRECURSOR_INTENSITY 3036529
MS$DATA_PROCESSING: RECALIBRATE loess on assigned fragments and MS1
MS$DATA_PROCESSING: REANALYZE Peaks with additional N2/O included
MS$DATA_PROCESSING: WHOLE RMassBank 3.5.2.1
PK$SPLASH: splash10-014i-1793000000-355b14154e1c6ed523b1
PK$ANNOTATION: m/z tentative_formula formula_count mass error(ppm)
  70.3244 CH42O- 1 70.3241 3.62
  71.0508 C4H7O- 1 71.0502 7.32
  73.0084 C6H- 1 73.0084 0.83
  74.1311 C2H18O2- 1 74.1312 -1.74
  74.1679 C3H22O- 1 74.1676 3.47
  75.1746 C3H23O- 1 75.1754 -11.11
  76.1472 C2H20O2- 1 76.1469 3.76
  77.0041 C5HO- 1 77.0033 10.47
  78.294 C2H38O- 1 78.2928 15.29
  80.0624 C6H8- 1 80.0631 -8.86
  80.1226 C4H16O- 1 80.1207 24.1
  81.1845 C2H25O2- 1 81.186 -18.35
  82.0804 C6H10- 1 82.0788 19.02
  84.1166 C3H16O2- 1 84.1156 12.23
  85.1253 C3H17O2- 1 85.1234 22.07
  86.1332 C3H18O2- 1 86.1312 22.51
  87.0471 C4H7O2- 1 87.0452 22.47
  87.2317 C2H31O2- 1 87.233 -14.29
  87.3072 C4H39- 1 87.3057 17.47
  92.1209 C5H16O- 1 92.1207 2.76
  92.9984 C5HO2- 1 92.9982 2.51
  93.0336 C6H5O- 1 93.0346 -11.07
  95.0141 C5H3O2- 1 95.0139 2.16
  96.1172 C4H16O2- 1 96.1156 17.32
  96.281 C5H36- 1 96.2822 -13.38
  97.0641 C6H9O- 1 97.0659 -18.66
  98.0377 C5H6O2- 1 98.0373 4.19
  98.2062 C6H26- 1 98.204 22.65
  98.2615 C4H34O- 1 98.2615 0.06
  99.1197 C7H15- 1 99.1179 17.84
  99.1405 C4H19O2- 1 99.1391 14.85
  99.175 C5H23O- 1 99.1754 -4.51
  99.2316 C3H31O2- 1 99.233 -14.1
  100.1241 C7H16- 1 100.1257 -16.63
  102.2011 C5H26O- 1 102.1989 21.68
  102.2909 C4H38O- 1 102.2928 -19.09
  102.331 C5H42- 1 102.3292 17.58
  103.9894 C6O2- 1 103.9904 -9.34
  104.1781 C4H24O2- 1 104.1782 -0.33
  104.2154 C5H28O- 1 104.2146 8.37
  106.0797 C8H10- 1 106.0788 8.83
  106.1964 C4H26O2- 1 106.1938 23.92
  106.2875 C3H38O2- 1 106.2877 -2.27
  107.0506 C7H7O- 1 107.0502 3.78
  107.1803 C7H23- 1 107.1805 -2.26
  107.2005 C4H27O2- 1 107.2017 -11.03
  107.3326 C4H43O- 1 107.3319 6.47
  108.0225 C6H4O2- 1 108.0217 7.57
  108.3014 C3H40O2- 1 108.3034 -17.91
  109.1579 C6H21O- 1 109.1598 -16.98
  109.194 C7H25- 1 109.1962 -20.19
  109.3461 C4H45O- 1 109.3476 -13.39
  111.1374 C5H19O2- 1 111.1391 -14.89
  111.3061 C6H39- 1 111.3057 3.48
  112.0323 C9H4- 1 112.0318 3.75
  112.1453 C5H20O2- 1 112.1469 -13.88
  113.1328 C8H17- 1 113.1336 -6.91
  114.0684 C6H10O2- 1 114.0686 -2.37
  115.3356 C6H43- 1 115.337 -12.4
  116.1794 C5H24O2- 1 116.1782 10.81
  117.1883 C5H25O2- 1 117.186 19.51
  119.2735 C7H35- 1 119.2744 -7.63
  121.1252 C6H17O2- 1 121.1234 14.88
  122.129 C6H18O2- 1 122.1312 -18.6
  122.2624 C6H34O- 1 122.2615 7.43
  123.0236 C10H3- 1 123.024 -3.49
  124.3373 C4H44O2- 1 124.3347 21.41
  125.2861 C6H37O- 1 125.285 8.47
  127.0184 C9H3O- 1 127.0189 -4.37
  128.1192 C8H16O- 1 128.1207 -11.75
  128.3093 C6H40O- 1 128.3085 6.59
  129.0946 C7H13O2- 1 129.0921 19.21
  130.1906 C6H26O2- 1 130.1938 -24.89
  131.1089 C7H15O2- 1 131.1078 8.37
  131.2372 C7H31O- 1 131.238 -6.08
  131.2775 C8H35- 1 131.2744 23.61
  132.1187 C7H16O2- 1 132.1156 23.39
  132.1874 C9H24- 1 132.1883 -7.34
  133.1577 C8H21O- 1 133.1598 -15.73
  133.2912 C8H37- 1 133.2901 8.23
  135.3062 C8H39- 1 135.3057 3.54
  135.9968 C10O- 1 135.9955 10.09
  136.3138 C8H40- 1 136.3135 1.72
  137.1329 C10H17- 1 137.1336 -5.24
  137.2513 C6H33O2- 1 137.2486 19.31
  138.2362 C9H30- 1 138.2353 6.75
  138.2926 C7H38O- 1 138.2928 -1.35
  138.3258 C8H42- 1 138.3292 -24.7
  139.0783 C8H11O2- 1 139.0765 13
  142.1369 C9H18O- 1 142.1363 4.3
  143.1067 C8H15O2- 1 143.1078 -7.36
  144.0567 C10H8O- 1 144.0581 -9.59
  144.1135 C8H16O2- 1 144.1156 -14.42
  144.1877 C10H24- 1 144.1883 -4.71
  146.0363 C9H6O2- 1 146.0373 -6.74
  146.1072 C11H14- 1 146.1101 -19.54
  146.1647 C9H22O- 1 146.1676 -19.77
  146.2637 C8H34O- 1 146.2615 14.66
  146.3169 C6H42O2- 1 146.319 -14.85
  147.2687 C8H35O- 1 147.2693 -4.63
  149.2864 C8H37O- 1 149.285 9.21
  150.0723 C9H10O2- 1 150.0686 24.62
  151.15 C11H19- 1 151.1492 5.13
  151.2994 C8H39O- 1 151.3006 -8.07
  152.123 C10H16O- 1 152.1207 15.04
  153.3126 C8H41O- 1 153.3163 -23.95
  155.1076 C9H15O2- 1 155.1078 -0.78
  155.1808 C11H23- 1 155.1805 1.87
  156.2092 C8H28O2- 1 156.2095 -2.09
  156.2791 C10H36- 1 156.2822 -20.41
  159.3257 C7H43O2- 1 159.3269 -6.96
  160.0554 C10H8O2- 1 160.053 15.03
  160.1292 C12H16- 1 160.1257 21.56
  160.183 C10H24O- 1 160.1833 -1.65
  160.2223 C11H28- 1 160.2196 16.42
  161.1581 C9H21O2- 1 161.1547 21.24
  162.0146 C12H2O- 1 162.0111 21.54
  162.257 C8H34O2- 1 162.2564 3.76
  162.3254 C10H42- 1 162.3292 -23.52
  164.0297 C12H4O- 1 164.0268 17.86
  164.2171 C10H28O- 1 164.2146 15.72
  165.0384 C12H5O- 1 165.0346 22.8
  165.0923 C10H13O2- 1 165.0921 1.46
  165.1279 C11H17O- 1 165.1285 -3.72
  165.1655 C12H21- 1 165.1649 3.97
  165.276 C8H37O2- 1 165.2799 -23.47
  165.3203 C9H41O- 1 165.3163 24.5
  166.2915 C8H38O2- 1 166.2877 22.65
  169.0112 C14H- 1 169.0084 17.01
  169.069 C12H9O- 1 169.0659 18.6
  169.1246 C10H17O2- 1 169.1234 6.89
  169.1969 C12H25- 1 169.1962 4.33
  170.0163 C14H2- 1 170.0162 0.67
  171.331 C8H43O2- 1 171.3269 23.92
  172.0342 C14H4- 1 172.0318 13.81
  172.0882 C12H12O- 1 172.0894 -6.8
  173.0043 C13HO- 1 173.0033 5.6
  173.1343 C13H17- 1 173.1336 3.96
  175.244 C12H31- 1 175.2431 5.27
  175.261 C9H35O2- 1 175.2643 -18.34
  175.2991 C10H39O- 1 175.3006 -8.95
  175.3401 C11H43- 1 175.337 17.53
  177.258 C12H33- 1 177.2588 -4.17
  178.0766 C14H10- 1 178.0788 -12.51
  179.2374 C11H31O- 1 179.238 -3.5
  180.1921 C13H24- 1 180.1883 20.89
  182.3002 C12H38- 1 182.2979 12.44
  183.1413 C11H19O2- 1 183.1391 12.12
  183.3039 C12H39- 1 183.3057 -9.86
  184.314 C12H40- 1 184.3135 2.43
  185.0041 C14HO- 1 185.0033 4.62
  185.3421 C9H45O2- 1 185.3425 -2.33
  186.1024 C13H14O- 1 186.105 -13.87
  187.0145 C14H3O- 1 187.0189 -23.75
  188.0594 C15H8- 1 188.0631 -20.18
  188.0849 C12H12O2- 1 188.0843 3.4
  188.2727 C10H36O2- 1 188.2721 3.45
  188.9957 C13HO2- 1 188.9982 -13.21
  189.2199 C12H29O- 1 189.2224 -13.37
  191.0538 C14H7O- 1 191.0502 18.85
  191.2054 C11H27O2- 1 191.2017 19.36
  191.2972 C10H39O2- 1 191.2956 8.67
  193.0279 C13H5O2- 1 193.0295 -8.41
  193.0996 C15H13- 1 193.1023 -13.8
  193.1983 C14H25- 1 193.1962 10.95
  194.1119 C15H14- 1 194.1101 9.2
  194.2073 C14H26- 1 194.204 17.19
  194.3168 C10H42O2- 1 194.319 -11.68
  195.1372 C12H19O2- 1 195.1391 -9.75
  195.1793 C13H23O- 1 195.1754 19.87
  195.2286 C11H31O2- 1 195.233 -22.21
  196.0309 C16H4- 1 196.0318 -4.79
  197.0595 C13H9O2- 1 197.0608 -6.81
  197.34 C10H45O2- 1 197.3425 -12.8
  198.1428 C15H18- 1 198.1414 6.9
  199.2023 C13H27O- 1 199.2067 -22.43
  201.1329 C14H17O- 1 201.1285 21.8
  201.1616 C15H21- 1 201.1649 -16.38
  201.254 C14H33- 1 201.2588 -23.66
  201.3529 C13H45- 1 201.3527 1.24
  202.2341 C13H30O- 1 202.2302 19.41
  203.0551 C15H7O- 1 203.0502 24.08
  203.2697 C14H35- 1 203.2744 -23.17
  204.0906 C16H12- 1 204.0944 -19.06
  204.1545 C14H20O- 1 204.152 12.34
  204.243 C13H32O- 1 204.2459 -13.82
  205.0264 C14H5O2- 1 205.0295 -15.15
  206.1346 C13H18O2- 1 206.1312 16.18
  206.2935 C14H38- 1 206.2979 -21.37
  206.3177 C11H42O2- 1 206.319 -6.37
  207.1368 C13H19O2- 1 207.1391 -10.75
  207.2283 C12H31O2- 1 207.233 -22.46
  208.1217 C16H16- 1 208.1257 -19.52
  209.1952 C14H25O- 1 209.1911 19.83
  209.3429 C11H45O2- 1 209.3425 1.87
  210.1978 C14H26O- 1 210.1989 -5.38
  210.2362 C15H30- 1 210.2353 4.51
  211.0227 C16H3O- 1 211.0189 17.83
  211.053 C17H7- 1 211.0553 -11.04
  211.1115 C15H15O- 1 211.1128 -6.12
  211.2416 C15H31- 1 211.2431 -7.07
  213.1855 C13H25O2- 1 213.186 -2.29
  213.255 C15H33- 1 213.2588 -17.63
  213.3212 C13H41O- 1 213.3163 23.01
  214.192 C13H26O2- 1 214.1938 -8.31
  214.3192 C13H42O- 1 214.3241 -22.98
  215.1062 C14H15O2- 1 215.1078 -7.42
  217.0087 C18H- 1 217.0084 1.33
  217.0972 C17H13- 1 217.1023 -23.57
  217.198 C16H25- 1 217.1962 8.54
  219.0409 C15H7O2- 1 219.0452 -19.58
  219.2279 C13H31O2- 1 219.233 -23.24
  220.054 C15H8O2- 1 220.053 4.48
  220.1808 C15H24O- 1 220.1833 -11.41
  220.34 C12H44O2- 1 220.3347 24.23
  221.3229 C15H41- 1 221.3214 6.79
  222.2009 C15H26O- 1 222.1989 9.13
  222.2875 C14H38O- 1 222.2928 -23.92
  223.1096 C16H15O- 1 223.1128 -14.74
  223.3015 C14H39O- 1 223.3006 3.66
  223.336 C15H43- 1 223.337 -4.71
  224.0273 C17H4O- 1 224.0268 2.43
  224.246 C16H32- 1 224.2509 -22.01
  224.3468 C15H44- 1 224.3448 8.91
  225.0379 C17H5O- 1 225.0346 14.57
  226.0025 C16H2O2- 1 226.006 -15.73
  226.0442 C17H6O- 1 226.0424 8.05
  226.1911 C14H26O2- 1 226.1938 -12.25
  226.2357 C15H30O- 1 226.2302 24.29
  227.1436 C16H19O- 1 227.1441 -2.27
  227.2023 C14H27O2- 1 227.2017 2.63
  228.3439 C14H44O- 1 228.3398 18.31
  229.0694 C17H9O- 1 229.0659 15.27
  229.2584 C15H33O- 1 229.2537 20.38
  231.2305 C14H31O2- 1 231.233 -10.41
  231.2731 C15H35O- 1 231.2693 16.2
  231.3273 C13H43O2- 1 231.3269 1.99
  233.0567 C16H9O2- 1 233.0608 -17.48
  234.2574 C14H34O2- 1 234.2564 3.96
  234.2884 C15H38O- 1 234.2928 -18.76
  236.0615 C19H8- 1 236.0631 -6.78
  237.1601 C18H21- 1 237.1649 -20.23
  238.105 C16H14O2- 1 238.0999 21.39
  239.2352 C16H31O- 1 239.238 -11.88
  239.2769 C17H35- 1 239.2744 10.45
  239.3332 C15H43O- 1 239.3319 5.1
  239.9997 C20- 1 240.0005 -3.36
  240.2765 C17H36- 1 240.2822 -23.75
  241.0289 C17H5O2- 1 241.0295 -2.42
  242.0154 C20H2- 1 242.0162 -3.49
  242.1348 C16H18O2- 1 242.1312 14.74
  242.22 C15H30O2- 1 242.2251 -21.3
  242.3151 C14H42O2- 1 242.319 -16.28
  243.0847 C18H11O- 1 243.0815 13.16
  243.1709 C17H23O- 1 243.1754 -18.54
  243.2709 C16H35O- 1 243.2693 6.24
  244.2136 C18H28- 1 244.2196 -24.8
  246.0147 C19H2O- 1 246.0111 14.67
  246.0708 C17H10O2- 1 246.0686 8.8
  247.0611 C20H7- 1 247.0553 23.48
  247.152 C19H19- 1 247.1492 11.35
  247.2011 C17H27O- 1 247.2067 -22.72
  247.3042 C16H39O- 1 247.3006 14.56
  248.0217 C19H4O- 1 248.0268 -20.28
  248.0632 C20H8- 1 248.0631 0.36
  249.0648 C20H9- 1 249.071 -24.77
  249.1321 C18H17O- 1 249.1285 14.47
  249.2827 C15H37O2- 1 249.2799 11.33
  249.3557 C17H45- 1 249.3527 12.09
  250.1724 C19H22- 1 250.1727 -1.31
  251.1982 C16H27O2- 1 251.2017 -13.88
  252.2413 C17H32O- 1 252.2459 -18.24
  253.2919 C18H37- 1 253.2901 7.17
  254.0345 C18H6O2- 1 254.0373 -11
  254.2959 C18H38- 1 254.2979 -7.78
  254.3249 C15H42O2- 1 254.319 23.14
  255.025 C21H3- 1 255.024 3.85
  255.0878 C19H11O- 1 255.0815 24.43
  255.2131 C19H27- 1 255.2118 5.15
  256.0944 C19H12O- 1 256.0894 19.67
  256.3191 C18H40- 1 256.3135 21.74
  257.1295 C20H17- 1 257.1336 -15.7
  258.2599 C16H34O2- 1 258.2564 13.57
  259.0241 C20H3O- 1 259.0189 19.93
  259.1679 C17H23O2- 1 259.1704 -9.56
  259.338 C18H43- 1 259.337 3.59
  260.1775 C17H24O2- 1 260.1782 -2.69
  260.277 C16H36O2- 1 260.2721 18.72
  260.3483 C18H44- 1 260.3448 13.38
  261.2585 C19H33- 1 261.2588 -0.97
  261.3537 C18H45- 1 261.3527 3.99
  262.0976 C18H14O2- 1 262.0999 -9.01
  263.1994 C17H27O2- 1 263.2017 -8.65
  264.0264 C19H4O2- 1 264.0217 18.06
  264.184 C20H24- 1 264.1883 -16.41
  265.1968 C20H25- 1 265.1962 2.46
  265.3056 C16H41O2- 1 265.3112 -21.07
  266.2301 C17H30O2- 1 266.2251 18.79
  266.2591 C18H34O- 1 266.2615 -9.25
  266.2973 C19H38- 1 266.2979 -2.29
  267.0488 C19H7O2- 1 267.0452 13.83
  267.2663 C18H35O- 1 267.2693 -11.54
  267.2999 C19H39- 1 267.3057 -21.97
  268.1523 C18H20O2- 1 268.1469 20.29
  268.3171 C19H40- 1 268.3135 13.12
  269.2492 C17H33O2- 1 269.2486 2.07
  270.01 C21H2O- 1 270.0111 -4.1
  270.1608 C18H22O2- 1 270.1625 -6.58
  270.325 C19H42- 1 270.3292 -15.49
  271.0546 C22H7- 1 271.0553 -2.78
  271.1467 C21H19- 1 271.1492 -9.17
  272.0237 C21H4O- 1 272.0268 -11.38
  272.1633 C21H20- 1 272.157 22.86
  274.0752 C22H10- 1 274.0788 -13.09
  275.1059 C19H15O2- 1 275.1078 -6.7
  275.1414 C20H19O- 1 275.1441 -9.97
  275.1852 C21H23- 1 275.1805 16.93
  275.2891 C17H39O2- 1 275.2956 -23.47
  276.1944 C21H24- 1 276.1883 21.81
  278.1285 C19H18O2- 1 278.1312 -9.75
  278.2025 C21H26- 1 278.204 -5.56
  278.2277 C18H30O2- 1 278.2251 9.27
  279.1134 C22H15- 1 279.1179 -16.2
  280.236 C18H32O2- 1 280.2408 -16.9
  281.0944 C21H13O- 1 281.0972 -10.04
  281.1402 C22H17- 1 281.1336 23.68
  281.1929 C20H25O- 1 281.1911 6.32
  281.2428 C18H33O2- 1 281.2486 -20.54
  282.1676 C19H22O2- 1 282.1625 17.88
  283.1176 C21H15O- 1 283.1128 16.87
  283.175 C19H23O2- 1 283.1704 16.58
  283.2609 C18H35O2- 1 283.2643 -11.81
  284.027 C22H4O- 1 284.0268 0.88
  285.22 C20H29O- 1 285.2224 -8.47
  285.2578 C21H33- 1 285.2588 -3.34
  285.3465 C20H45- 1 285.3527 -21.79
  286.0444 C22H6O- 1 286.0424 6.77
  286.1726 C22H22- 1 286.1727 -0.51
  286.2602 C21H34- 1 286.2666 -22.45
  287.0842 C23H11- 1 287.0866 -8.51
  288.0921 C23H12- 1 288.0944 -8.02
  289.0265 C21H5O2- 1 289.0295 -10.27
  289.1194 C20H17O2- 1 289.1234 -13.98
  289.2605 C20H33O- 1 289.2537 23.5
  290.0335 C21H6O2- 1 290.0373 -13.09
  291.0269 C24H3- 1 291.024 10.03
  293.2287 C22H29- 1 293.2275 4.26
  294.1041 C22H14O- 1 294.105 -3.08
  295.2657 C19H35O2- 1 295.2643 4.79
  295.3418 C21H43- 1 295.337 16.11
  295.9858 C22O2- 1 295.9904 -15.39
  296.0619 C24H8- 1 296.0631 -4.16
  296.1711 C20H24O2- 1 296.1782 -24.06
  296.2498 C22H32- 1 296.2509 -3.71
  296.303 C20H40O- 1 296.3085 -18.59
  297.0732 C24H9- 1 297.071 7.51
  297.2211 C21H29O- 1 297.2224 -4.39
  297.3557 C21H45- 1 297.3527 10.3
  298.0352 C23H6O- 1 298.0424 -24.1
  299.2452 C21H31O- 1 299.238 23.78
  301.0263 C22H5O2- 1 301.0295 -10.71
  301.1211 C21H17O2- 1 301.1234 -7.54
  301.2202 C20H29O2- 1 301.2173 9.52
  302.2008 C23H26- 1 302.204 -10.65
  303.0799 C23H11O- 1 303.0815 -5.55
  303.2152 C23H27- 1 303.2118 11.29
  304.1299 C24H16- 1 304.1257 13.54
  305.0001 C24HO- 1 305.0033 -10.41
  305.1847 C22H25O- 1 305.1911 -20.95
  306.1924 C22H26O- 1 306.1989 -21.2
  306.2917 C21H38O- 1 306.2928 -3.76
  307.1089 C23H15O- 1 307.1128 -12.77
  307.2398 C23H31- 1 307.2431 -10.8
  307.2592 C20H35O2- 1 307.2643 -16.61
  308.1802 C21H24O2- 1 308.1782 6.44
  308.2657 C20H36O2- 1 308.2721 -20.62
  308.347 C22H44- 1 308.3448 7.05
  308.9984 C23HO2- 1 308.9982 0.64
  312.1543 C23H20O- 1 312.152 7.55
  312.1951 C24H24- 1 312.1883 21.62
  312.2963 C20H40O2- 1 312.3034 -22.74
  312.3441 C21H44O- 1 312.3398 13.76
  313.3158 C20H41O2- 1 313.3112 14.66
  314.066 C24H10O- 1 314.0737 -24.71
  314.2112 C24H26- 1 314.204 22.82
  315.1422 C22H19O2- 1 315.1391 9.86
  315.2703 C22H35O- 1 315.2693 3.02
  317.1579 C22H21O2- 1 317.1547 10.09
  317.2325 C24H29- 1 317.2275 15.94
  317.3171 C23H41- 1 317.3214 -13.36
  319.0824 C23H11O2- 1 319.0765 18.76
  319.1695 C22H23O2- 1 319.1704 -2.81
  319.2136 C23H27O- 1 319.2067 21.51
  320.1811 C22H24O2- 1 320.1782 9.06
  321.1261 C24H17O- 1 321.1285 -7.3
  321.359 C23H45- 1 321.3527 19.73
  322.1894 C22H26O2- 1 322.1938 -13.59
  322.2286 C23H30O- 1 322.2302 -5.16
  323.1489 C24H19O- 1 323.1441 14.71
  323.3 C21H39O2- 1 323.2956 13.76
  325.1559 C24H21O- 1 325.1598 -12.05
  325.3034 C21H41O2- 1 325.3112 -23.93
  326.2613 C23H34O- 1 326.2615 -0.66
  328.3293 C21H44O2- 1 328.3347 -16.32
  329.3389 C21H45O2- 1 329.3425 -10.91
  330.1551 C23H22O2- 1 330.1625 -22.35
  331.2033 C24H27O- 1 331.2067 -10.53
  333.1842 C23H25O2- 1 333.186 -5.41
  334.0986 C24H14O2- 1 334.0999 -4.01
  334.2369 C24H30O- 1 334.2302 20.09
  339.1423 C24H19O2- 1 339.1391 9.65
  340.1507 C24H20O2- 1 340.1469 11.11
  342.169 C24H22O2- 1 342.1625 18.96
  343.1705 C24H23O2- 1 343.1704 0.41
  344.2752 C23H36O2- 1 344.2721 9.17
  345.3101 C24H41O- 1 345.3163 -17.91
  347.3276 C24H43O- 1 347.3319 -12.55
  351.3239 C23H43O2- 1 351.3269 -8.37
  352.2487 C24H32O2- 1 352.2408 22.45
  353.254 C24H33O2- 1 353.2486 15.34
  353.3425 C23H45O2- 1 353.3425 0.03
  363.3318 C24H43O2- 1 363.3269 13.68
  365.3448 C24H45O2- 1 365.3425 6.33
PK$NUM_PEAK: 423
PK$PEAK: m/z int. rel.int.
  70.3244 27.1 113
  71.0508 23 96
  73.0084 26.7 112
  74.1311 19 79
  74.1679 25.9 108
  75.1746 20.5 85
  76.1472 26.9 112
  77.0041 32.1 134
  78.294 25.1 105
  80.0624 27 113
  80.1226 28.4 119
  81.1845 22.2 93
  82.0804 33 138
  84.1166 21.7 91
  85.1253 29.3 123
  86.1332 103 432
  87.0471 25.2 105
  87.2317 23.1 97
  87.3072 27 113
  92.1209 27 113
  92.9984 32.4 136
  93.0336 22 92
  95.0141 25.9 108
  96.1172 24.1 101
  96.281 26.5 111
  97.0641 26 109
  98.0377 25.9 108
  98.2062 15.1 63
  98.2615 28.1 118
  99.1197 29.1 122
  99.1405 26 109
  99.175 28.5 119
  99.2316 25 105
  100.1241 23.1 97
  102.2011 21.1 88
  102.2909 22 92
  102.331 25 105
  103.9894 25.6 107
  104.1781 25.1 105
  104.2154 22.6 94
  106.0797 30.2 126
  106.1964 24.1 101
  106.2875 23 96
  107.0506 23.3 97
  107.1803 22.1 92
  107.2005 21 88
  107.3326 24.7 103
  108.0225 24.2 101
  108.3014 23.3 98
  109.1579 23.1 97
  109.194 26.1 109
  109.3461 20.8 87
  111.1374 30.4 127
  111.3061 23.2 97
  112.0323 24.7 103
  112.1453 22.1 92
  113.1328 19.2 80
  114.0684 24.7 103
  115.3356 25.4 106
  116.1794 17 71
  117.1883 27 113
  119.2735 28.2 118
  121.1252 21.1 88
  122.129 29.1 122
  122.2624 24.8 103
  123.0236 21.1 88
  124.3373 22.8 95
  125.2861 27 113
  127.0184 31.2 130
  128.1192 30 126
  128.3093 22 92
  129.0946 27 113
  130.1906 24 100
  131.1089 27.8 116
  131.2372 25.2 105
  131.2775 27 113
  132.1187 23.6 99
  132.1874 25.2 105
  133.1577 21.6 90
  133.2912 15 63
  135.3062 30.3 127
  135.9968 25.3 106
  136.3138 24.2 101
  137.1329 22.7 95
  137.2513 23.1 96
  138.2362 25 105
  138.2926 23.9 100
  138.3258 23.1 97
  139.0783 31.2 130
  142.1369 22.1 92
  143.1067 22.1 92
  144.0567 25.2 105
  144.1135 16.7 70
  144.1877 25 105
  146.0363 20.1 84
  146.1072 26.1 109
  146.1647 26.6 111
  146.2637 22.2 93
  146.3169 21.1 88
  147.2687 26.1 109
  149.2864 29.1 122
  150.0723 26.1 109
  151.15 26.3 110
  151.2994 23.1 97
  152.123 31.2 130
  153.3126 16.9 70
  155.1076 60 252
  155.1808 24.2 101
  156.2092 28.4 119
  156.2791 19 79
  159.3257 23 96
  160.0554 21.8 91
  160.1292 31 130
  160.183 20 84
  160.2223 20.5 86
  161.1581 24 100
  162.0146 21.2 88
  162.257 19.2 80
  162.3254 25.3 106
  164.0297 25 105
  164.2171 26 109
  165.0384 17.1 71
  165.0923 25.2 106
  165.1279 73.7 309
  165.1655 30 126
  165.276 22 92
  165.3203 26.1 109
  166.2915 25.1 105
  169.0112 34.2 143
  169.069 27.2 114
  169.1246 95.7 401
  169.1969 27.2 114
  170.0163 26.3 110
  171.331 19 79
  172.0342 25.3 106
  172.0882 26.5 111
  173.0043 28.7 120
  173.1343 25.8 108
  175.244 21 88
  175.261 29 121
  175.2991 25.2 105
  175.3401 23.1 97
  177.258 32 134
  178.0766 22.1 92
  179.2374 28.1 117
  180.1921 26.2 109
  182.3002 24.8 104
  183.1413 60.9 255
  183.3039 22 92
  184.314 25 105
  185.0041 25.5 107
  185.3421 26.6 111
  186.1024 22 92
  187.0145 21.9 91
  188.0594 25.8 108
  188.0849 21.3 89
  188.2727 26 109
  188.9957 21.3 89
  189.2199 20.4 85
  191.0538 26.1 109
  191.2054 22 92
  191.2972 21.1 88
  193.0279 24 100
  193.0996 25.6 107
  193.1983 26.7 112
  194.1119 28 117
  194.2073 26.1 109
  194.3168 28 117
  195.1372 26 109
  195.1793 24.2 101
  195.2286 28.8 120
  196.0309 27.3 114
  197.0595 27 113
  197.34 24.8 104
  198.1428 24.2 101
  199.2023 25.2 106
  201.1329 24.4 102
  201.1616 19.6 82
  201.254 19.1 80
  201.3529 24.7 103
  202.2341 28.7 120
  203.0551 22.6 94
  203.2697 22.1 92
  204.0906 27.1 113
  204.1545 27 113
  204.243 19.1 80
  205.0264 27.1 113
  206.1346 24.4 102
  206.2935 21.1 88
  206.3177 31.5 132
  207.1368 30.1 126
  207.2283 23.3 97
  208.1217 26 109
  209.1952 23.3 97
  209.3429 27 113
  210.1978 21 88
  210.2362 32.3 135
  211.0227 22.1 92
  211.053 16.1 67
  211.1115 31.2 131
  211.2416 18.1 75
  213.1855 25.7 107
  213.255 25.1 105
  213.3212 29.4 123
  214.192 23.9 100
  214.3192 26.1 109
  215.1062 21.6 90
  217.0087 20.1 84
  217.0972 21 88
  217.198 28.1 118
  219.0409 24.2 101
  219.2279 25 105
  220.054 27.5 115
  220.1808 28.1 118
  220.34 24.2 101
  221.3229 30 126
  222.2009 26 109
  222.2875 24.4 102
  223.1096 17 71
  223.3015 19 80
  223.336 24.6 103
  224.0273 27 113
  224.246 27.2 114
  224.3468 31.2 131
  225.0379 32 134
  226.0025 22.2 93
  226.0442 18.8 78
  226.1911 23 96
  226.2357 24 100
  227.1436 22.1 93
  227.2023 24.6 103
  228.3439 19.7 82
  229.0694 17.7 74
  229.2584 27.2 114
  231.2305 28 117
  231.2731 25.1 105
  231.3273 27.2 114
  233.0567 20 84
  234.2574 21 88
  234.2884 20.3 85
  236.0615 19 79
  237.1601 19.2 80
  238.105 22.2 93
  239.2352 24.4 102
  239.2769 23.7 99
  239.3332 27 113
  239.9997 31.4 131
  240.2765 24.1 101
  241.0289 28 117
  242.0154 25 105
  242.1348 24 100
  242.22 28.3 118
  242.3151 19 79
  243.0847 22.1 92
  243.1709 17 71
  243.2709 26 109
  244.2136 24 100
  246.0147 21.1 88
  246.0708 22.7 95
  247.0611 22 92
  247.152 28.1 118
  247.2011 23.8 99
  247.3042 29 121
  248.0217 18.9 79
  248.0632 18.1 76
  249.0648 20.2 84
  249.1321 25 105
  249.2827 22 92
  249.3557 21.6 90
  250.1724 29 121
  251.1982 22.1 92
  252.2413 26 109
  253.2919 27.5 115
  254.0345 25 105
  254.2959 31.1 130
  254.3249 20.2 85
  255.025 22 92
  255.0878 23.2 97
  255.2131 23.6 98
  256.0944 29.1 122
  256.3191 32.5 136
  257.1295 29 121
  258.2599 23.1 96
  259.0241 22.8 95
  259.1679 23 96
  259.338 21.9 91
  260.1775 22.2 93
  260.277 24 100
  260.3483 25 105
  261.2585 24 100
  261.3537 25.4 106
  262.0976 25.6 107
  263.1994 24.2 101
  264.0264 28.2 118
  264.184 28.6 120
  265.1968 18.5 77
  265.3056 28 117
  266.2301 21 88
  266.2591 24 100
  266.2973 21.1 88
  267.0488 22 92
  267.2663 23.3 98
  267.2999 28 117
  268.1523 21.3 89
  268.3171 27 113
  269.2492 22 92
  270.01 27 113
  270.1608 25.1 105
  270.325 25.2 106
  271.0546 20 84
  271.1467 20 84
  272.0237 26.2 110
  272.1633 29.4 123
  274.0752 24.1 101
  275.1059 23.6 98
  275.1414 29.7 124
  275.1852 26.1 109
  275.2891 21.2 89
  276.1944 21.7 91
  278.1285 28.1 117
  278.2025 26.1 109
  278.2277 24.4 102
  279.1134 21 88
  280.236 25.8 108
  281.0944 24.1 101
  281.1402 28.1 118
  281.1929 23.1 96
  281.2428 22 92
  282.1676 26.1 109
  283.1176 32 134
  283.175 21.1 88
  283.2609 56.1 235
  284.027 21.7 91
  285.22 48 201
  285.2578 25.1 105
  285.3465 28 117
  286.0444 29.4 123
  286.1726 25.1 105
  286.2602 24.2 101
  287.0842 27.6 115
  288.0921 20 84
  289.0265 26 109
  289.1194 29.4 123
  289.2605 22.1 92
  290.0335 29.1 122
  291.0269 20 84
  293.2287 22.1 92
  294.1041 21.7 91
  295.2657 29.2 122
  295.3418 20.1 84
  295.9858 32.1 135
  296.0619 31.2 130
  296.1711 23.3 97
  296.2498 22.3 93
  296.303 16 67
  297.0732 26 109
  297.2211 27.2 114
  297.3557 27.6 115
  298.0352 26 109
  299.2452 26 109
  301.0263 20.9 87
  301.1211 25.1 105
  301.2202 29.1 122
  302.2008 24 100
  303.0799 23 96
  303.2152 23.1 96
  304.1299 25.1 105
  305.0001 20.6 86
  305.1847 26.1 109
  306.1924 29.7 124
  306.2917 23.9 100
  307.1089 23.3 97
  307.2398 24.7 103
  307.2592 15.5 65
  308.1802 28 117
  308.2657 23.3 97
  308.347 21.7 91
  308.9984 16.4 68
  312.1543 27.1 113
  312.1951 23 96
  312.2963 21.3 89
  312.3441 21.8 91
  313.3158 30 126
  314.066 20.1 84
  314.2112 27 113
  315.1422 21.1 88
  315.2703 24.1 101
  317.1579 20.1 84
  317.2325 18.1 76
  317.3171 19.6 82
  319.0824 28 117
  319.1695 21 88
  319.2136 20.3 85
  320.1811 23 96
  321.1261 27.1 113
  321.359 26.3 110
  322.1894 27 113
  322.2286 21.6 90
  323.1489 25 105
  323.3 28.6 119
  325.1559 24.3 102
  325.3034 25.1 105
  326.2613 27.2 114
  328.3293 29.6 124
  329.3389 23 96
  330.1551 27 113
  331.2033 31 130
  333.1842 30.1 126
  334.0986 21 88
  334.2369 27.1 113
  339.1423 39 163
  340.1507 26 109
  342.169 21.9 92
  343.1705 21 88
  344.2752 25 105
  345.3101 21.2 89
  347.3276 64.4 270
  351.3239 35 147
  352.2487 25.2 105
  353.254 22.2 93
  353.3425 20 84
  363.3318 29 121
  365.3448 237.9 999
//
