ACCESSION: MSBNK-HBM4EU-HB002245
RECORD_TITLE: Sulfamoxole; LC-ESI-QFT; MS2; CE: 80%; R=17500; [M+H]+
DATE: 2020.02.20
AUTHORS: Jean-Philippe Antignac, Yann Guitoon, LABERCA, Oniris, INRAE, UMR 1329, 44307, Nantes, France
LICENSE: CC0
COPYRIGHT: Copyright (c) 2020 by LABERCA, Oniris, INRAE, UMR 1329, 44307, Nantes, France
PUBLICATION: Oberacher H, Sasse M, Antignac J-P, Guitton Y, Debrauwer L, Jamin EL, Schulze T, Krauss M, Covaci A, Caballero-Casero N, Rosseau K, Damont A, Fenaille F, Lamoree M, Schymanski E, A European proposal for quality control and quality assurance of tandem mass spectral libraries, Environmental Sciences Europe, https://doi.org/10.1186/s12302-020-00314-9
COMMENT: CONFIDENCE Reference Standard (Level 1)
COMMENT: HBM4EU - science and policy for a healthy future (https://www.hbm4eu.eu)
CH$NAME: Sulfamoxole
CH$NAME: 4-Amino-N-(4,5-dimethyl-1,3-oxazol-2-yl)benzene-1-sulfonamide
CH$COMPOUND_CLASS: N/A; Environmental Standard
CH$FORMULA: C11H13N3O3S
CH$EXACT_MASS: 267.0678
CH$SMILES: CC1=C(C)N=C(NS(=O)(=O)C2=CC=C(N)C=C2)O1
CH$IUPAC: InChI=1S/C11H13N3O3S/c1-7-8(2)17-11(13-7)14-18(15,16)10-5-3-9(12)4-6-10/h3-6H,12H2,1-2H3,(H,13,14)
CH$LINK: CAS 729-99-7
CH$LINK: COMPTOX DTXSID5023617
CH$LINK: INCHIKEY CYFLXLSBHQBMFT-UHFFFAOYSA-N
CH$LINK: PUBCHEM CID:12894
AC$INSTRUMENT: Q Exactive Thermo Fisher Scientific
AC$INSTRUMENT_TYPE: LC-ESI-QFT
AC$MASS_SPECTROMETRY: MS_TYPE MS2
AC$MASS_SPECTROMETRY: ION_MODE POSITIVE
AC$MASS_SPECTROMETRY: IONIZATION ESI
AC$MASS_SPECTROMETRY: FRAGMENTATION_MODE HCD
AC$MASS_SPECTROMETRY: COLLISION_ENERGY 80% (nominal)
AC$MASS_SPECTROMETRY: RESOLUTION 17500
AC$CHROMATOGRAPHY: COLUMN_NAME Hypersil GOLD 1.9 um 2.1 x 100 mm Thermo Fisher Scientific
AC$CHROMATOGRAPHY: FLOW_GRADIENT 95/5 at 0 min, 95/5 at 2.4 min, 75/25 at 4.5 min, 30/70 at 11 min, 0/100 at 14 min, 0/100 at 16.5 min, 95/5 at 19 min, 95/5 at 25 min
AC$CHROMATOGRAPHY: FLOW_RATE 400 uL/min
AC$CHROMATOGRAPHY: SOLVENT A water with 0.1% acetic acid
AC$CHROMATOGRAPHY: SOLVENT B acetonitrile with 0.1% acetic acid
MS$FOCUSED_ION: PRECURSOR_M/Z 268.0751
MS$FOCUSED_ION: PRECURSOR_TYPE [M+H]+
PK$SPLASH: splash10-066u-9400000000-2a7c09664d8a99540edd
PK$NUM_PEAK: 18
PK$PEAK: m/z int. rel.int.
  54.0348 4866569.9 29
  65.0394 164985248 999
  68.0503 4061606.8 25
  69.0581 8370031.6 51
  70.066 50287998.5 304
  79.0187 443150.4 3
  80.0502 41906088 254
  83.0611 827071 5
  92.0501 157226981.7 952
  93.0579 1759402.7 11
  94.0658 447770 3
  108.0449 119566624.1 724
  110.0605 27070779.5 164
  111.0557 11748764.5 71
  112.0635 8577583 52
  113.0714 45511510.6 276
  120.056 1021093.7 6
  140.0166 5088970 31
//
