ACCESSION: MSBNK-HBM4EU-HB004053
RECORD_TITLE: b Zearalanol; LC-ESI-ITFT; MS2; CE: 40%; R=7500; [M+H]+
DATE: 2021.10.11
AUTHORS: Laurent Debrauwer, Emilien L. Jamin, Research Centre in Food Toxicology (TOXALIM), INRAE, MetaboHUB-Metatoul platform, Toulouse, France
LICENSE: CC0
COPYRIGHT: Copyright (c) 2021 by Research Centre in Food Toxicology (TOXALIM), INRAE, MetaboHUB-Metatoul platform, Toulouse, France
COMMENT: HBM4EU - science and policy for a healthy future (https://www.hbm4eu.eu)
COMMENT: CONFIDENCE Reference Standard (Level 1)
COMMENT: INTERNAL_ID 2100
CH$NAME: b Zearalanol
CH$NAME: Ralgro
CH$NAME: 8,16,18-trihydroxy-4-methyl-3-oxabicyclo[12.4.0]octadeca-1(14),15,17-trien-2-one
CH$COMPOUND_CLASS: N/A; Environmental Standard
CH$FORMULA: C18H26O5
CH$EXACT_MASS: 322.1780
CH$SMILES: CC1CCCC(CCCCCC2=C(C(=CC(=C2)O)O)C(=O)O1)O
CH$IUPAC: InChI=1S/C18H26O5/c1-12-6-5-9-14(19)8-4-2-3-7-13-10-15(20)11-16(21)17(13)18(22)23-12/h10-12,14,19-21H,2-9H2,1H3
CH$LINK: CAS 42422-68-4
CH$LINK: PUBCHEM CID:22283
CH$LINK: INCHIKEY DWTTZBARDOXEAM-UHFFFAOYSA-N
CH$LINK: CHEMSPIDER 20916
AC$INSTRUMENT: LTQ Orbitrap XL Thermo Scientific
AC$INSTRUMENT_TYPE: LC-ESI-ITFT
AC$MASS_SPECTROMETRY: MS_TYPE MS2
AC$MASS_SPECTROMETRY: ION_MODE POSITIVE
AC$MASS_SPECTROMETRY: IONIZATION ESI
AC$MASS_SPECTROMETRY: FRAGMENTATION_MODE HCD
AC$MASS_SPECTROMETRY: COLLISION_ENERGY 40 % (nominal)
AC$MASS_SPECTROMETRY: RESOLUTION 7500
AC$CHROMATOGRAPHY: COLUMN_NAME Hypersil GOLD C18 1.9 um 100 x 2.1 mm Thermo Fisher Scientific
AC$CHROMATOGRAPHY: FLOW_GRADIENT 100/0 at 0 min, 0/100 at 30 min, 0/100 at 35 min
AC$CHROMATOGRAPHY: FLOW_RATE 300 uL/min
AC$CHROMATOGRAPHY: RETENTION_TIME 18.692 min
AC$CHROMATOGRAPHY: SOLVENT A water with 5% methanol and 0.1% acetic acid
AC$CHROMATOGRAPHY: SOLVENT B methanol with 0.1% acetic acid
MS$FOCUSED_ION: BASE_PEAK 323.1851
MS$FOCUSED_ION: PRECURSOR_M/Z 323.1853
MS$FOCUSED_ION: PRECURSOR_TYPE [M+H]+
MS$FOCUSED_ION: PRECURSOR_INTENSITY 9109356.525879
MS$DATA_PROCESSING: RECALIBRATE loess on assigned fragments and MS1
MS$DATA_PROCESSING: REANALYZE Peaks with additional N2/O included
MS$DATA_PROCESSING: WHOLE RMassBank 3.2.0
PK$SPLASH: splash10-0a4i-0019000000-07e07e5ba0abd73ba9e4
PK$ANNOTATION: m/z tentative_formula formula_count mass error(ppm)
  167.034 C8H7O4+ 1 167.0339 0.65
  177.0907 C11H13O2+ 1 177.091 -1.53
  191.1065 C12H15O2+ 1 191.1067 -0.83
  277.1797 C17H25O3+ 1 277.1798 -0.3
  287.1636 C18H23O3+ 1 287.1642 -2.02
  305.174 C18H25O4+ 1 305.1747 -2.49
PK$NUM_PEAK: 6
PK$PEAK: m/z int. rel.int.
  167.034 9211.3 31
  177.0907 3946.7 13
  191.1065 8697.2 29
  277.1797 29103 98
  287.1636 26190.7 88
  305.174 295684.2 999
//
