ACCESSION: MSBNK-HBM4EU-HB003241
RECORD_TITLE: Verrucofortine; LC-ESI-ITFT; MS2; CE: 40%; R=7500; [M-H]-
DATE: 2021.10.11
AUTHORS: Laurent Debrauwer, Emilien L. Jamin, Research Centre in Food Toxicology (TOXALIM), INRAE, MetaboHUB-Metatoul platform, Toulouse, France
LICENSE: CC0
COPYRIGHT: Copyright (c) 2021 by Research Centre in Food Toxicology (TOXALIM), INRAE, MetaboHUB-Metatoul platform, Toulouse, France
COMMENT: HBM4EU - science and policy for a healthy future (https://www.hbm4eu.eu)
COMMENT: CONFIDENCE Reference Standard (Level 1)
COMMENT: INTERNAL_ID 81
CH$NAME: Verrucofortine
CH$NAME: 6-Acetyl-10b-(1,1-dimethyl-2-propenyl)-3-isobutyl-6,10b,11,11a-tetrahydro-2H-pyrazino[2`,1`:5,1]pyrrolo[2,3-b]indole-1,4(3H,5aH)-dione
CH$NAME: 16-acetyl-9-(2-methylbut-3-en-2-yl)-4-(2-methylpropyl)-2,5,16-triazatetracyclo[7.7.0.02,7.010,15]hexadeca-10,12,14-triene-3,6-dione
CH$COMPOUND_CLASS: N/A; Environmental Standard
CH$FORMULA: C24H31N3O3
CH$EXACT_MASS: 409.23654
CH$SMILES: CC(C)CC1C(=O)N2C(CC3(C2N(C4=CC=CC=C43)C(=O)C)C(C)(C)C=C)C(=O)N1
CH$IUPAC: InChI=1S/C24H31N3O3/c1-7-23(5,6)24-13-19-20(29)25-17(12-14(2)3)21(30)27(19)22(24)26(15(4)28)18-11-9-8-10-16(18)24/h7-11,14,17,19,22H,1,12-13H2,2-6H3,(H,25,29)
CH$LINK: CAS 113706-21-1
CH$LINK: PUBCHEM CID:494936
CH$LINK: INCHIKEY BMRZKNPRSPWNNW-UHFFFAOYSA-N
CH$LINK: CHEMSPIDER 433229
AC$INSTRUMENT: LTQ Orbitrap XL Thermo Scientific
AC$INSTRUMENT_TYPE: LC-ESI-ITFT
AC$MASS_SPECTROMETRY: MS_TYPE MS2
AC$MASS_SPECTROMETRY: ION_MODE NEGATIVE
AC$MASS_SPECTROMETRY: IONIZATION ESI
AC$MASS_SPECTROMETRY: FRAGMENTATION_MODE HCD
AC$MASS_SPECTROMETRY: COLLISION_ENERGY 40 % (nominal)
AC$MASS_SPECTROMETRY: RESOLUTION 7500
AC$CHROMATOGRAPHY: COLUMN_NAME Hypersil GOLD C18 1.9 um 100 x 2.1 mm Thermo Fisher Scientific
AC$CHROMATOGRAPHY: FLOW_GRADIENT 100/0 at 0 min, 0/100 at 30 min, 0/100 at 35 min
AC$CHROMATOGRAPHY: FLOW_RATE 300 uL/min
AC$CHROMATOGRAPHY: RETENTION_TIME 21.480 min
AC$CHROMATOGRAPHY: SOLVENT A water with 5% methanol and 0.1% acetic acid
AC$CHROMATOGRAPHY: SOLVENT B methanol with 0.1% acetic acid
MS$FOCUSED_ION: BASE_PEAK 408.2298
MS$FOCUSED_ION: PRECURSOR_M/Z 408.2293
MS$FOCUSED_ION: PRECURSOR_TYPE [M-H]-
MS$FOCUSED_ION: PRECURSOR_INTENSITY 1880006.21167
MS$DATA_PROCESSING: RECALIBRATE loess on assigned fragments and MS1
MS$DATA_PROCESSING: REANALYZE Peaks with additional N2/O included
MS$DATA_PROCESSING: WHOLE RMassBank 3.2.0
PK$SPLASH: splash10-0a4i-0000900000-27611765ec6e170789a1
PK$ANNOTATION: m/z tentative_formula formula_count mass error(ppm)
  140.0723 C7H10NO2- 1 140.0717 4.5
  408.2298 C24H30N3O3- 1 408.2293 1.42
PK$NUM_PEAK: 2
PK$PEAK: m/z int. rel.int.
  140.0723 4807.4 18
  408.2298 256804.2 999
//
