ACCESSION: MSBNK-HBM4EU-HB002883
RECORD_TITLE: Metazachlor-OH (TENTATIVE); LC-ESI-QFT; MS2; CE: 30%; R=70000; [M+H]+
DATE: 2021.02.23
AUTHORS: Carolin Huber, Tobias Schulze, Martin Krauss, Department of Effect-Directed Analysis, Helmholtz Centre for Environmental Research - UFZ GmbH, Leipzig, Germany
LICENSE: CC0
COPYRIGHT: Copyright (C) 2021 Helmholtz Centre for Environmental Research - UFZ, Leipzig, Germany 
PUBLICATION: Huber C, Mueller E, Schulze T, Brack W, Krauss M, Improving the Screening Analysis of Pesticide Metabolites in Human Biomonitoring by Combining High-Throughput In Vitro Incubation and Automated LC–HRMS Data Processing, Analytical Chemistry, https://doi.org/10.1021/acs.analchem.1c00972
COMMENT: HBM4EU - science and policy for a healthy future (https://www.hbm4eu.eu)
COMMENT: COMMENT: CONFIDENCE: Tentative structure, with evidences on substitutes (Level 3b)
COMMENT: COMMENT: generated by human liver S9 incubation
COMMENT: Metazachlor_OH_30eV.txt
CH$NAME: Metazachlor-OH
CH$COMPOUND_CLASS: N/A; Biotransformation Product
CH$FORMULA: C14H16ClN3O2
CH$EXACT_MASS: 293.0918
CH$SMILES: C(*)C1=C(C(=C(*)C(*)=C(*)1)C)N(C(*)N2C=C(*)C(*)=N2)C(=O)C(*)Cl *=[OH (n=1) & H (n=7)]
CH$IUPAC: N/A
AC$INSTRUMENT: Q Exactive Plus Orbitrap Thermo Scientific
AC$INSTRUMENT_TYPE: LC-ESI-QFT
AC$MASS_SPECTROMETRY: MS_TYPE MS2
AC$MASS_SPECTROMETRY: ION_MODE POSITIVE
AC$MASS_SPECTROMETRY: IONIZATION ESI
AC$MASS_SPECTROMETRY: FRAGMENTATION_MODE HCD
AC$MASS_SPECTROMETRY: COLLISION_ENERGY 30% (nominal)
AC$MASS_SPECTROMETRY: RESOLUTION 70000
AC$CHROMATOGRAPHY: COLUMN_NAME Waters UPLC BEH C18 1.7 um 2.1 mm x 100 mm with pre-column
AC$CHROMATOGRAPHY: FLOW_GRADIENT 100/0 at 0 min, 0/100 at 15 min, 0/100 at 21 min, 100/0 at 22 min, 100/0 at 30 min
AC$CHROMATOGRAPHY: FLOW_RATE 300 uL/min
AC$CHROMATOGRAPHY: RETENTION_TIME 11.2 min
AC$CHROMATOGRAPHY: SOLVENT A water with 1% ammonium carbonate 1M
AC$CHROMATOGRAPHY: SOLVENT B methanol with 1% ammonium carbonate 1M and 5% water
MS$FOCUSED_ION: PRECURSOR_M/Z 294.0996
MS$FOCUSED_ION: PRECURSOR_TYPE [M+H]+
MS$DATA_PROCESSING: COMMENT Peaks removed that cannot be explained by GenForm and Molecular Formula (5 ppm)
MS$DATA_PROCESSING: WHOLE mzR
PK$SPLASH: splash10-0159-4900000000-d7b83bae73b0f1561f4c
PK$NUM_PEAK: 19
PK$PEAK: m/z int. rel.int.
  65.9872 24227.9 3
  69.0448 7321680 999
  105.0699 218442.3 30
  115.0543 48462.3 7
  117.0573 807273.8 110
  120.0808 299975.8 41
  121.0649 175014.5 24
  130.0653 39550.3 5
  132.0808 4555915.4 622
  142.0652 112239.9 15
  144.0807 21171.9 3
  147.0678 24475.7 3
  150.0915 87988.3 12
  160.0757 2513752.4 343
  161.0836 28493.7 4
  166.0417 99048.4 14
  168.0576 31431.9 4
  178.0418 1510169.7 206
  196.0524 2969424.5 405
//
