ACCESSION: MSBNK-HBM4EU-HB001109
RECORD_TITLE: Mefruside; LC-ESI-ITFT; MS2; CE: 30%; R=15000; [M+H]+
DATE: 2018.09.08
AUTHORS: Tobias Schulze, Carolin Huber, Martin Krauss, Department of Effect-Directed Analysis, Helmholtz Centre for Environmental Research GmbH - UFZ, Leipzig, Germany
LICENSE: CC0
COPYRIGHT: Copyright (C) 2018
PUBLICATION: Oberacher H, Sasse M, Antignac J-P, Guitton Y, Debrauwer L, Jamin E L, Schulze T, Krauss M, Covaci A, Caballero-Casero N, Rosseau K, Damont A, Fenaille F, Lamoree M, Schymanski E, A European proposal for quality control and quality assurance of tandem mass spectral libraries, Environmental Sciences Europe, https://doi.org/10.1186/s12302-020-00314-9
COMMENT: CONFIDENCE Reference Standard (Level 1)
COMMENT: HBM4EU - science and policy for a healthy future (https://www.hbm4eu.eu)
CH$NAME: Mefruside
CH$NAME: 4-chloro-1-N-methyl-1-N-[(2-methyloxolan-2-yl)methyl]benzene-1,3-disulfonamide
CH$COMPOUND_CLASS: N/A; Environmental Standard
CH$FORMULA: C13H19ClN2O5S2
CH$EXACT_MASS: 382.0424
CH$SMILES: CC1(CCCO1)CN(C)S(=O)(=O)C2=CC(=C(C=C2)Cl)S(=O)(=O)N
CH$IUPAC: InChI=1S/C13H19ClN2O5S2/c1-13(6-3-7-21-13)9-16(2)23(19,20)10-4-5-11(14)12(8-10)22(15,17)18/h4-5,8H,3,6-7,9H2,1-2H3,(H2,15,17,18)
CH$LINK: CAS 7195-27-9
CH$LINK: CHEBI CHEBI:31809
CH$LINK: KEGG D01877
CH$LINK: PUBCHEM CID:4047
CH$LINK: INCHIKEY SMNOERSLNYGGOU-UHFFFAOYSA-N
CH$LINK: CHEMSPIDER 3907
AC$INSTRUMENT: LTQ Orbitrap XL Thermo Scientific
AC$INSTRUMENT_TYPE: LC-ESI-ITFT
AC$MASS_SPECTROMETRY: MS_TYPE MS2
AC$MASS_SPECTROMETRY: ION_MODE POSITIVE
AC$MASS_SPECTROMETRY: IONIZATION ESI
AC$MASS_SPECTROMETRY: FRAGMENTATION_MODE CID
AC$MASS_SPECTROMETRY: COLLISION_ENERGY 30% (nominal)
AC$MASS_SPECTROMETRY: RESOLUTION 15000
AC$CHROMATOGRAPHY: COLUMN_NAME Kinetex Evo C18 2.6 um 50 x 2.1 mm
AC$CHROMATOGRAPHY: FLOW_GRADIENT 95/5 at 0 min, 95/5 at 1 min, 0/100 at 13 min, 0/100 at 24 min, 95/5 at 24.3 min, 95/5 at 32 min
AC$CHROMATOGRAPHY: FLOW_RATE 300 uL/min
AC$CHROMATOGRAPHY: RETENTION_TIME 9.032 min
AC$CHROMATOGRAPHY: SOLVENT A water with 0.1% formic acid
AC$CHROMATOGRAPHY: SOLVENT B methanol with 0.1% formic acid
MS$FOCUSED_ION: BASE_PEAK 428.2364
MS$FOCUSED_ION: PRECURSOR_M/Z 383.0497
MS$FOCUSED_ION: PRECURSOR_TYPE [M+H]+
MS$DATA_PROCESSING: RECALIBRATE loess on assigned fragments and MS1
MS$DATA_PROCESSING: REANALYZE Peaks with additional N2/O included
MS$DATA_PROCESSING: WHOLE RMassBank 2.9.1
PK$SPLASH: splash10-001i-0292000000-8a7b8431aecbd97a400f
PK$ANNOTATION: m/z tentative_formula formula_count mass error(ppm)
  97.0647 C6H9O+ 1 97.0648 -0.47
  128.1069 C7H14NO+ 2 128.107 -0.89
  129.1147 C7H15NO+ 2 129.1148 -0.76
  267.9484 C13HClN2OS+ 2 267.9493 -3.29
  268.9819 C7H10ClN2O3S2+ 2 268.9816 1.11
  284.9764 C7H10ClN2O4S2+ 2 284.9765 -0.41
  288.0453 C12H15ClNO3S+ 1 288.0456 -0.84
  296.9765 C8H10ClN2O4S2+ 2 296.9765 0.03
  352.0073 C12H15ClNO5S2+ 1 352.0075 -0.45
  365.0391 C13H18ClN2O4S2+ 1 365.0391 -0.01
PK$NUM_PEAK: 10
PK$PEAK: m/z int. rel.int.
  97.0647 20104.6 116
  128.1069 33250.8 192
  129.1147 21482.2 124
  267.9484 1154.2 6
  268.9819 2239.8 12
  284.9764 172159.3 999
  288.0453 27597.4 160
  296.9765 26790.9 155
  352.0073 40098.7 232
  365.0391 33513.4 194
//
