ACCESSION: MSBNK-HBM4EU-HB002471
RECORD_TITLE: Amiloride; LC-ESI-QTOF; MS2; CE: 20 eV; R=3600; [M+H]+
DATE: 2020.02.20
AUTHORS: Noelia Caballero-Casero, Adrian Covaci, Toxicological Center, University of Antwerp, Wilrijk, Belgium
LICENSE: CC0
COPYRIGHT: Copyright (c) by Toxicological Center, University of Antwerp, Wilrijk, Belgium
PUBLICATION: Oberacher H, Sasse M, Antignac J-P, Guitton Y, Debrauwer L, Jamin E L, Schulze T, Krauss M, Covaci A, Caballero-Casero N, Rosseau K, Damont A, Fenaille F, Lamoree M, Schymanski E, A European proposal for quality control and quality assurance of tandem mass spectral libraries, Environmental Sciences Europe, https://doi.org/10.1186/s12302-020-00314-9
COMMENT: CONFIDENCE Reference Standard (Level 1)
COMMENT: HBM4EU - science and policy for a healthy future (https://www.hbm4eu.eu)
COMMENT: Flow Injection
CH$NAME: Amiloride
CH$NAME: 3,5-Diamino-N-carbamimidoyl-6-chloropyrazine-2-carboxamide
CH$COMPOUND_CLASS: N/A; Environmental Standard
CH$FORMULA: C6H8ClN7O
CH$EXACT_MASS: 229.0479
CH$SMILES: NC(=N)NC(=O)C1=NC(Cl)=C(N)N=C1N
CH$IUPAC: InChI=1S/C6H8ClN7O/c7-2-4(9)13-3(8)1(12-2)5(15)14-6(10)11/h(H4,8,9,13)(H4,10,11,14,15)
CH$LINK: CAS 2609-46-3
CH$LINK: COMPTOX DTXSID9043853
CH$LINK: INCHIKEY XSDQTOBWRPYKKA-UHFFFAOYSA-N
CH$LINK: PUBCHEM CID:16231
AC$INSTRUMENT: 6532 QTOF Agilent
AC$INSTRUMENT_TYPE: LC-ESI-QTOF
AC$MASS_SPECTROMETRY: MS_TYPE MS2
AC$MASS_SPECTROMETRY: ION_MODE POSITIVE
AC$MASS_SPECTROMETRY: IONIZATION ESI
AC$MASS_SPECTROMETRY: FRAGMENTATION_MODE CID
AC$MASS_SPECTROMETRY: COLLISION_ENERGY 20 eV
AC$MASS_SPECTROMETRY: RESOLUTION 3600
AC$CHROMATOGRAPHY: FLOW_GRADIENT 50/50
AC$CHROMATOGRAPHY: FLOW_RATE 300 uL/min
AC$CHROMATOGRAPHY: SOLVENT A water
AC$CHROMATOGRAPHY: SOLVENT B methanol
MS$FOCUSED_ION: PRECURSOR_M/Z 230.0552
MS$FOCUSED_ION: PRECURSOR_TYPE [M+H]+
PK$SPLASH: splash10-044i-7900000000-12379016b37131145b45
PK$NUM_PEAK: 14
PK$PEAK: m/z int. rel.int.
  55.0557 6079.7 66
  60.0579 91697.3 999
  61.985 11706.9 128
  63.9971 23274.1 254
  73.9811 4805.2 52
  86.0356 7660.6 83
  88.9913 23858.2 260
  96.0877 6026.8 66
  100.9938 22266.8 243
  108.0433 12305.1 134
  116.0018 87554 954
  143.0151 24734.5 269
  171.0085 66778.7 728
  230.0552 5309.8 58
//
