ACCESSION: MSBNK-HBM4EU-HB000557
RECORD_TITLE: Desipramine; LC-ESI-ITFT; MS2; CE: 120%; R=15000; [M+H]+
DATE: 2018.09.08
AUTHORS: Tobias Schulze, Carolin Huber, Martin Krauss, Department of Effect-Directed Analysis, Helmholtz Centre for Environmental Research GmbH - UFZ, Leipzig, Germany
LICENSE: CC0
COPYRIGHT: Copyright (C) 2018
PUBLICATION: Oberacher H, Sasse M, Antignac J-P, Guitton Y, Debrauwer L, Jamin E L, Schulze T, Krauss M, Covaci A, Caballero-Casero N, Rosseau K, Damont A, Fenaille F, Lamoree M, Schymanski E, A European proposal for quality control and quality assurance of tandem mass spectral libraries, Environmental Sciences Europe, https://doi.org/10.1186/s12302-020-00314-9
COMMENT: CONFIDENCE Reference Standard (Level 1)
COMMENT: HBM4EU - science and policy for a healthy future (https://www.hbm4eu.eu)
CH$NAME: Desipramine
CH$NAME: 3-(5,6-dihydrobenzo[b][1]benzazepin-11-yl)-N-methylpropan-1-amine
CH$COMPOUND_CLASS: N/A; Environmental Standard
CH$FORMULA: C18H22N2
CH$EXACT_MASS: 266.1783
CH$SMILES: CNCCCN1C2=CC=CC=C2CCC3=CC=CC=C31
CH$IUPAC: InChI=1S/C18H22N2/c1-19-13-6-14-20-17-9-4-2-7-15(17)11-12-16-8-3-5-10-18(16)20/h2-5,7-10,19H,6,11-14H2,1H3
CH$LINK: CAS 58-28-6
CH$LINK: CHEBI CHEBI:47781
CH$LINK: KEGG D07791
CH$LINK: PUBCHEM CID:2995
CH$LINK: INCHIKEY HCYAFALTSJYZDH-UHFFFAOYSA-N
CH$LINK: CHEMSPIDER 2888
AC$INSTRUMENT: LTQ Orbitrap XL Thermo Scientific
AC$INSTRUMENT_TYPE: LC-ESI-ITFT
AC$MASS_SPECTROMETRY: MS_TYPE MS2
AC$MASS_SPECTROMETRY: ION_MODE POSITIVE
AC$MASS_SPECTROMETRY: IONIZATION ESI
AC$MASS_SPECTROMETRY: FRAGMENTATION_MODE CID
AC$MASS_SPECTROMETRY: COLLISION_ENERGY 120% (nominal)
AC$MASS_SPECTROMETRY: RESOLUTION 15000
AC$CHROMATOGRAPHY: COLUMN_NAME Kinetex Evo C18 2.6 um 50 x 2.1 mm
AC$CHROMATOGRAPHY: FLOW_GRADIENT 95/5 at 0 min, 95/5 at 1 min, 0/100 at 13 min, 0/100 at 24 min, 95/5 at 24.3 min, 95/5 at 32 min
AC$CHROMATOGRAPHY: FLOW_RATE 300 uL/min
AC$CHROMATOGRAPHY: RETENTION_TIME 8.447 min
AC$CHROMATOGRAPHY: SOLVENT A water with 0.1% formic acid
AC$CHROMATOGRAPHY: SOLVENT B methanol with 0.1% formic acid
MS$FOCUSED_ION: BASE_PEAK 267.1857
MS$FOCUSED_ION: PRECURSOR_M/Z 267.1856
MS$FOCUSED_ION: PRECURSOR_TYPE [M+H]+
MS$DATA_PROCESSING: RECALIBRATE loess on assigned fragments and MS1
MS$DATA_PROCESSING: REANALYZE Peaks with additional N2/O included
MS$DATA_PROCESSING: WHOLE RMassBank 2.9.1
PK$SPLASH: splash10-000i-0090000000-39b96042c0324695aa70
PK$ANNOTATION: m/z tentative_formula formula_count mass error(ppm)
  167.0852 C13H11+ 1 167.0855 -1.86
  196.1118 C14H14N+ 1 196.1121 -1.38
  208.1118 C15H14N+ 1 208.1121 -1.35
  236.1433 C17H18N+ 1 236.1434 -0.41
PK$NUM_PEAK: 4
PK$PEAK: m/z int. rel.int.
  167.0852 140748.7 65
  196.1118 103378.3 47
  208.1118 361115.8 167
  236.1433 2160178.5 999
//
