ACCESSION: MSBNK-HBM4EU-HB002196
RECORD_TITLE: Phenazone; LC-ESI-QFT; MS2; CE: 60%; R=17500; [M+H]+
DATE: 2020.02.20
AUTHORS: Jean-Philippe Antignac, Yann Guitoon, LABERCA, Oniris, INRAE, UMR 1329, 44307, Nantes, France
LICENSE: CC0
COPYRIGHT: Copyright (c) 2020 by LABERCA, Oniris, INRAE, UMR 1329, 44307, Nantes, France
PUBLICATION: Oberacher H, Sasse M, Antignac J-P, Guitton Y, Debrauwer L, Jamin EL, Schulze T, Krauss M, Covaci A, Caballero-Casero N, Rosseau K, Damont A, Fenaille F, Lamoree M, Schymanski E, A European proposal for quality control and quality assurance of tandem mass spectral libraries, Environmental Sciences Europe, https://doi.org/10.1186/s12302-020-00314-9
COMMENT: CONFIDENCE Reference Standard (Level 1)
COMMENT: HBM4EU - science and policy for a healthy future (https://www.hbm4eu.eu)
CH$NAME: Phenazone
CH$NAME: 1,5-Dimethyl-2-phenyl-1,2-dihydro-3H-pyrazol-3-one
CH$COMPOUND_CLASS: N/A; Environmental Standard
CH$FORMULA: C11H12N2O
CH$EXACT_MASS: 188.095
CH$SMILES: CN1N(C(=O)C=C1C)C1=CC=CC=C1
CH$IUPAC: InChI=1S/C11H12N2O/c1-9-8-11(14)13(12(9)2)10-6-4-3-5-7-10/h3-8H,1-2H3
CH$LINK: CAS 60-80-0
CH$LINK: COMPTOX DTXSID6021117
CH$LINK: INCHIKEY VEQOALNAAJBPNY-UHFFFAOYSA-N
CH$LINK: PUBCHEM CID:2206
AC$INSTRUMENT: Q Exactive Thermo Fisher Scientific
AC$INSTRUMENT_TYPE: LC-ESI-QFT
AC$MASS_SPECTROMETRY: MS_TYPE MS2
AC$MASS_SPECTROMETRY: ION_MODE POSITIVE
AC$MASS_SPECTROMETRY: IONIZATION ESI
AC$MASS_SPECTROMETRY: FRAGMENTATION_MODE HCD
AC$MASS_SPECTROMETRY: COLLISION_ENERGY 60% (nominal)
AC$MASS_SPECTROMETRY: RESOLUTION 17500
AC$CHROMATOGRAPHY: COLUMN_NAME Hypersil GOLD 1.9 um 2.1 x 100 mm Thermo Fisher Scientific
AC$CHROMATOGRAPHY: FLOW_GRADIENT 95/5 at 0 min, 95/5 at 2.4 min, 75/25 at 4.5 min, 30/70 at 11 min, 0/100 at 14 min, 0/100 at 16.5 min, 95/5 at 19 min, 95/5 at 25 min
AC$CHROMATOGRAPHY: FLOW_RATE 400 uL/min
AC$CHROMATOGRAPHY: SOLVENT A water with 0.1% acetic acid
AC$CHROMATOGRAPHY: SOLVENT B acetonitrile with 0.1% acetic acid
MS$FOCUSED_ION: PRECURSOR_M/Z 189.1023
MS$FOCUSED_ION: PRECURSOR_TYPE [M+H]+
PK$SPLASH: splash10-0a4r-3900000000-164c090244dc722d42c9
PK$NUM_PEAK: 20
PK$PEAK: m/z int. rel.int.
  56.0504 67847891.2 515
  58.066 73702595.5 559
  65.0394 13261108.7 101
  91.0548 18351422.8 139
  95.0498 16796429.6 127
  96.0688 28968977.1 220
  104.05 76873174.6 583
  106.0656 52256993 396
  117.0703 20647622.9 157
  118.0655 31714748.8 241
  120.081 23938465.4 182
  130.0654 36722472.4 279
  131.0732 44977701.6 341
  132.081 17939524.1 136
  144.081 33476547.5 254
  146.084 34301530.4 260
  147.0918 53583314.6 406
  161.1074 17009426.1 129
  174.0789 24066632.1 183
  189.1023 131723272 999
//
