ACCESSION: MSBNK-HBM4EU-HB003984
RECORD_TITLE: Fusarochromanone; LC-ESI-ITFT; MS2; CE: 15%; R=7500; [M+H]+
DATE: 2021.10.11
AUTHORS: Laurent Debrauwer, Emilien L. Jamin, Research Centre in Food Toxicology (TOXALIM), INRAE, MetaboHUB-Metatoul platform, Toulouse, France
LICENSE: CC0
COPYRIGHT: Copyright (c) 2021 by Research Centre in Food Toxicology (TOXALIM), INRAE, MetaboHUB-Metatoul platform, Toulouse, France
COMMENT: HBM4EU - science and policy for a healthy future (https://www.hbm4eu.eu)
COMMENT: CONFIDENCE Reference Standard (Level 1)
COMMENT: INTERNAL_ID 147
CH$NAME: Fusarochromanone
CH$NAME: 5-amino-6-(3-amino-4-hydroxybutanoyl)-2,2-dimethyl-3H-chromen-4-one
CH$COMPOUND_CLASS: N/A; Environmental Standard
CH$FORMULA: C15H20N2O4
CH$EXACT_MASS: 292.1423
CH$SMILES: CC1(CC(=O)C2=C(O1)C=CC(=C2N)C(=O)CC(CO)N)C
CH$IUPAC: InChI=1S/C15H20N2O4/c1-15(2)6-11(20)13-12(21-15)4-3-9(14(13)17)10(19)5-8(16)7-18/h3-4,8,18H,5-7,16-17H2,1-2H3
CH$LINK: CAS 104653-89-6
CH$LINK: CHEBI CHEBI:174090
CH$LINK: PUBCHEM CID:107777
CH$LINK: INCHIKEY COSICWYFCAPPJB-UHFFFAOYSA-N
CH$LINK: CHEMSPIDER 96933
CH$LINK: COMPTOX DTXSID20909102
AC$INSTRUMENT: LTQ Orbitrap XL Thermo Scientific
AC$INSTRUMENT_TYPE: LC-ESI-ITFT
AC$MASS_SPECTROMETRY: MS_TYPE MS2
AC$MASS_SPECTROMETRY: ION_MODE POSITIVE
AC$MASS_SPECTROMETRY: IONIZATION ESI
AC$MASS_SPECTROMETRY: FRAGMENTATION_MODE HCD
AC$MASS_SPECTROMETRY: COLLISION_ENERGY 15 % (nominal)
AC$MASS_SPECTROMETRY: RESOLUTION 7500
AC$CHROMATOGRAPHY: COLUMN_NAME Hypersil GOLD C18 1.9 um 100 x 2.1 mm Thermo Fisher Scientific
AC$CHROMATOGRAPHY: FLOW_GRADIENT 100/0 at 0 min, 0/100 at 30 min, 0/100 at 35 min
AC$CHROMATOGRAPHY: FLOW_RATE 300 uL/min
AC$CHROMATOGRAPHY: RETENTION_TIME 10.122 min
AC$CHROMATOGRAPHY: SOLVENT A water with 5% methanol and 0.1% acetic acid
AC$CHROMATOGRAPHY: SOLVENT B methanol with 0.1% acetic acid
MS$FOCUSED_ION: BASE_PEAK 293.1491
MS$FOCUSED_ION: PRECURSOR_M/Z 293.1496
MS$FOCUSED_ION: PRECURSOR_TYPE [M+H]+
MS$FOCUSED_ION: PRECURSOR_INTENSITY 29005851.85498
MS$DATA_PROCESSING: RECALIBRATE loess on assigned fragments and MS1
MS$DATA_PROCESSING: REANALYZE Peaks with additional N2/O included
MS$DATA_PROCESSING: WHOLE RMassBank 3.2.0
PK$SPLASH: splash10-0006-0090000000-f2634b0e017df8cb470d
PK$ANNOTATION: m/z tentative_formula formula_count mass error(ppm)
  192.1014 C11H14NO2+ 1 192.1019 -2.5
  234.1119 C13H16NO3+ 1 234.1125 -2.5
  258.1113 C15H16NO3+ 1 258.1125 -4.66
  275.1385 C15H19N2O3+ 1 275.139 -2.02
  276.1224 C15H18NO4+ 1 276.123 -2.26
  293.1488 C15H21N2O4+ 1 293.1496 -2.6
PK$NUM_PEAK: 6
PK$PEAK: m/z int. rel.int.
  192.1014 264242.4 39
  234.1119 460516.4 69
  258.1113 103210 15
  275.1385 2666239 403
  276.1224 182969.9 27
  293.1488 6607406 999
//
