ACCESSION: MSBNK-HBM4EU-HB003973
RECORD_TITLE: Malformin A1; LC-ESI-ITFT; MS2; CE: 20%; R=7500; [M+H]+
DATE: 2021.10.11
AUTHORS: Laurent Debrauwer, Emilien L. Jamin, Research Centre in Food Toxicology (TOXALIM), INRAE, MetaboHUB-Metatoul platform, Toulouse, France
LICENSE: CC0
COPYRIGHT: Copyright (c) 2021 by Research Centre in Food Toxicology (TOXALIM), INRAE, MetaboHUB-Metatoul platform, Toulouse, France
COMMENT: HBM4EU - science and policy for a healthy future (https://www.hbm4eu.eu)
COMMENT: CONFIDENCE Reference Standard (Level 1)
COMMENT: INTERNAL_ID 144
CH$NAME: Malformin A1
CH$NAME: Malformin A
CH$NAME: 4-butan-2-yl-7-(2-methylpropyl)-10-propan-2-yl-15,16-dithia-2,5,8,11,19-pentazabicyclo[11.4.2]nonadecane-3,6,9,12,18-pentone
CH$COMPOUND_CLASS: N/A; Environmental Standard
CH$FORMULA: C23H39N5O5S2
CH$EXACT_MASS: 529.2393
CH$SMILES: CCC(C)C1C(=O)NC2CSSCC(C(=O)NC(C(=O)NC(C(=O)N1)CC(C)C)C(C)C)NC2=O
CH$IUPAC: InChI=1S/C23H39N5O5S2/c1-7-13(6)18-23(33)26-15-9-34-35-10-16(25-20(15)30)21(31)27-17(12(4)5)22(32)24-14(8-11(2)3)19(29)28-18/h11-18H,7-10H2,1-6H3,(H,24,32)(H,25,30)(H,26,33)(H,27,31)(H,28,29)
CH$LINK: CAS 3022-92-2
CH$LINK: PUBCHEM CID:4005
CH$LINK: INCHIKEY RNCGDQLZIATDOU-UHFFFAOYSA-N
CH$LINK: CHEMSPIDER 3865
CH$LINK: COMPTOX DTXSID60911481
AC$INSTRUMENT: LTQ Orbitrap XL Thermo Scientific
AC$INSTRUMENT_TYPE: LC-ESI-ITFT
AC$MASS_SPECTROMETRY: MS_TYPE MS2
AC$MASS_SPECTROMETRY: ION_MODE POSITIVE
AC$MASS_SPECTROMETRY: IONIZATION ESI
AC$MASS_SPECTROMETRY: FRAGMENTATION_MODE HCD
AC$MASS_SPECTROMETRY: COLLISION_ENERGY 20 % (nominal)
AC$MASS_SPECTROMETRY: RESOLUTION 7500
AC$CHROMATOGRAPHY: COLUMN_NAME Hypersil GOLD C18 1.9 um 100 x 2.1 mm Thermo Fisher Scientific
AC$CHROMATOGRAPHY: FLOW_GRADIENT 100/0 at 0 min, 0/100 at 30 min, 0/100 at 35 min
AC$CHROMATOGRAPHY: FLOW_RATE 300 uL/min
AC$CHROMATOGRAPHY: RETENTION_TIME 21.536 min
AC$CHROMATOGRAPHY: SOLVENT A water with 5% methanol and 0.1% acetic acid
AC$CHROMATOGRAPHY: SOLVENT B methanol with 0.1% acetic acid
MS$FOCUSED_ION: BASE_PEAK 530.2473
MS$FOCUSED_ION: PRECURSOR_M/Z 530.2465
MS$FOCUSED_ION: PRECURSOR_TYPE [M+H]+
MS$FOCUSED_ION: PRECURSOR_INTENSITY 8766828.852051
MS$DATA_PROCESSING: RECALIBRATE loess on assigned fragments and MS1
MS$DATA_PROCESSING: REANALYZE Peaks with additional N2/O included
MS$DATA_PROCESSING: WHOLE RMassBank 3.2.0
PK$SPLASH: splash10-00lr-0000690000-6efe81dec07a997ef7bc
PK$ANNOTATION: m/z tentative_formula formula_count mass error(ppm)
  86.0964 C5H12N+ 1 86.0964 -0.19
  96.2769 H36N2O2+ 1 96.2771 -2.21
  185.166 C4H27NO4S+ 2 185.1655 2.68
  199.1807 C11H23N2O+ 3 199.1805 0.82
  201.1692 C8H25O5+ 2 201.1697 -2.28
  227.1753 C12H23N2O2+ 3 227.1754 -0.31
  372.141 C16H26N3O3S2+ 3 372.141 -0.14
  389.168 C16H29N4O3S2+ 4 389.1676 1.13
  417.1627 C17H29N4O4S2+ 3 417.1625 0.52
  485.2251 C22H37N4O4S2+ 1 485.2251 0.01
  502.2517 C22H40N5O4S2+ 1 502.2516 0.15
  530.2465 C23H40N5O5S2+ 1 530.2465 0.01
PK$NUM_PEAK: 12
PK$PEAK: m/z int. rel.int.
  86.0964 2641.7 13
  96.2769 2741.5 14
  185.166 3764.6 19
  199.1807 18986 99
  201.1692 2031.1 10
  227.1753 16025.3 83
  372.141 10113.6 52
  389.168 5802.4 30
  417.1627 116333 609
  485.2251 36948.6 193
  502.2517 22665.3 118
  530.2465 190700.3 999
//
