ACCESSION: MSBNK-HBM4EU-HB001026
RECORD_TITLE: Etofylline; LC-ESI-ITFT; MS2; CE: 75%; R=15000; [M+H]+
DATE: 2018.09.08
AUTHORS: Tobias Schulze, Carolin Huber, Martin Krauss, Department of Effect-Directed Analysis, Helmholtz Centre for Environmental Research GmbH - UFZ, Leipzig, Germany
LICENSE: CC0
COPYRIGHT: Copyright (C) 2018
PUBLICATION: Oberacher H, Sasse M, Antignac J-P, Guitton Y, Debrauwer L, Jamin E L, Schulze T, Krauss M, Covaci A, Caballero-Casero N, Rosseau K, Damont A, Fenaille F, Lamoree M, Schymanski E, A European proposal for quality control and quality assurance of tandem mass spectral libraries, Environmental Sciences Europe, https://doi.org/10.1186/s12302-020-00314-9
COMMENT: CONFIDENCE Reference Standard (Level 1)
COMMENT: HBM4EU - science and policy for a healthy future (https://www.hbm4eu.eu)
CH$NAME: Etofylline
CH$NAME: 7-(2-hydroxyethyl)-1,3-dimethylpurine-2,6-dione
CH$COMPOUND_CLASS: N/A; Environmental Standard
CH$FORMULA: C9H12N4O3
CH$EXACT_MASS: 224.0909
CH$SMILES: CN1C2=C(C(=O)N(C1=O)C)N(C=N2)CCO
CH$IUPAC: InChI=1S/C9H12N4O3/c1-11-7-6(8(15)12(2)9(11)16)13(3-4-14)5-10-7/h5,14H,3-4H2,1-2H3
CH$LINK: CAS 519-37-9
CH$LINK: CHEBI CHEBI:94764
CH$LINK: KEGG D07933
CH$LINK: PUBCHEM CID:1892
CH$LINK: INCHIKEY NWPRCRWQMGIBOT-UHFFFAOYSA-N
CH$LINK: CHEMSPIDER 1820
AC$INSTRUMENT: LTQ Orbitrap XL Thermo Scientific
AC$INSTRUMENT_TYPE: LC-ESI-ITFT
AC$MASS_SPECTROMETRY: MS_TYPE MS2
AC$MASS_SPECTROMETRY: ION_MODE POSITIVE
AC$MASS_SPECTROMETRY: IONIZATION ESI
AC$MASS_SPECTROMETRY: FRAGMENTATION_MODE HCD
AC$MASS_SPECTROMETRY: COLLISION_ENERGY 75% (nominal)
AC$MASS_SPECTROMETRY: RESOLUTION 15000
AC$CHROMATOGRAPHY: COLUMN_NAME Kinetex Evo C18 2.6 um 50 x 2.1 mm
AC$CHROMATOGRAPHY: FLOW_GRADIENT 95/5 at 0 min, 95/5 at 1 min, 0/100 at 13 min, 0/100 at 24 min, 95/5 at 24.3 min, 95/5 at 32 min
AC$CHROMATOGRAPHY: FLOW_RATE 300 uL/min
AC$CHROMATOGRAPHY: RETENTION_TIME 2.579 min
AC$CHROMATOGRAPHY: SOLVENT A water with 0.1% formic acid
AC$CHROMATOGRAPHY: SOLVENT B methanol with 0.1% formic acid
MS$FOCUSED_ION: BASE_PEAK 300.1474
MS$FOCUSED_ION: PRECURSOR_M/Z 225.0982
MS$FOCUSED_ION: PRECURSOR_TYPE [M+H]+
MS$DATA_PROCESSING: RECALIBRATE loess on assigned fragments and MS1
MS$DATA_PROCESSING: REANALYZE Peaks with additional N2/O included
MS$DATA_PROCESSING: WHOLE RMassBank 2.9.1
PK$SPLASH: splash10-00e9-0900000000-63fcc21f25e2be104a25
PK$ANNOTATION: m/z tentative_formula formula_count mass error(ppm)
  69.0446 C3H5N2+ 1 69.0447 -1.1
  72.0445 C3H6NO+ 1 72.0444 1.11
  83.024 C3H3N2O+ 1 83.024 -0.15
  96.0557 C4H6N3+ 1 96.0556 0.83
  97.0399 C4H5N2O+ 1 97.0396 2.6
  108.0557 C5H6N3+ 1 108.0556 0.77
  109.0268 C4H3N3O+ 1 109.0271 -2.28
  110.0712 C5H8N3+ 1 110.0713 -0.25
  123.0553 C6H7N2O+ 1 123.0553 0.33
  124.0506 C5H6N3O+ 1 124.0505 0.6
  137.0823 C6H9N4+ 1 137.0822 0.58
  142.0612 C5H8N3O2+ 1 142.0611 0.89
  149.0458 C6H5N4O+ 1 149.0458 0.15
  168.0766 C7H10N3O2+ 1 168.0768 -0.66
  181.0722 C7H9N4O2+ 1 181.072 0.88
PK$NUM_PEAK: 15
PK$PEAK: m/z int. rel.int.
  69.0446 49525.3 57
  72.0445 2002.9 2
  83.024 1765.8 2
  96.0557 87075.8 100
  97.0399 2337.8 2
  108.0557 3165.7 3
  109.0268 1394.9 1
  110.0712 2756.4 3
  123.0553 1766.8 2
  124.0506 867650.7 999
  137.0823 11244.7 12
  142.0612 15053.3 17
  149.0458 1293 1
  168.0766 2782 3
  181.0722 512195.4 589
//
