ACCESSION: MSBNK-HBM4EU-HB001711
RECORD_TITLE: Sulfamoxole; LC-ESI-ITFT; MS2; CE: 40%; R=15000; [M+H]+
DATE: 2018.09.08
AUTHORS: Tobias Schulze, Carolin Huber, Martin Krauss, Department of Effect-Directed Analysis, Helmholtz Centre for Environmental Research GmbH - UFZ, Leipzig, Germany
LICENSE: CC0
COPYRIGHT: Copyright (C) 2018
PUBLICATION: Oberacher H, Sasse M, Antignac J-P, Guitton Y, Debrauwer L, Jamin E L, Schulze T, Krauss M, Covaci A, Caballero-Casero N, Rosseau K, Damont A, Fenaille F, Lamoree M, Schymanski E, A European proposal for quality control and quality assurance of tandem mass spectral libraries, Environmental Sciences Europe, https://doi.org/10.1186/s12302-020-00314-9
COMMENT: CONFIDENCE Reference Standard (Level 1)
COMMENT: HBM4EU - science and policy for a healthy future (https://www.hbm4eu.eu)
CH$NAME: Sulfamoxole
CH$NAME: 4-amino-N-(4,5-dimethyl-1,3-oxazol-2-yl)benzenesulfonamide
CH$COMPOUND_CLASS: N/A; Environmental Standard
CH$FORMULA: C11H13N3O3S
CH$EXACT_MASS: 267.0678
CH$SMILES: CC1=C(OC(=N1)NS(=O)(=O)C2=CC=C(C=C2)N)C
CH$IUPAC: InChI=1S/C11H13N3O3S/c1-7-8(2)17-11(13-7)14-18(15,16)10-5-3-9(12)4-6-10/h3-6H,12H2,1-2H3,(H,13,14)
CH$LINK: CAS 729-99-7
CH$LINK: CHEBI CHEBI:55548
CH$LINK: KEGG D02516
CH$LINK: PUBCHEM CID:12894
CH$LINK: INCHIKEY CYFLXLSBHQBMFT-UHFFFAOYSA-N
CH$LINK: CHEMSPIDER 12361
AC$INSTRUMENT: LTQ Orbitrap XL Thermo Scientific
AC$INSTRUMENT_TYPE: LC-ESI-ITFT
AC$MASS_SPECTROMETRY: MS_TYPE MS2
AC$MASS_SPECTROMETRY: ION_MODE POSITIVE
AC$MASS_SPECTROMETRY: IONIZATION ESI
AC$MASS_SPECTROMETRY: FRAGMENTATION_MODE HCD
AC$MASS_SPECTROMETRY: COLLISION_ENERGY 40% (nominal)
AC$MASS_SPECTROMETRY: RESOLUTION 15000
AC$CHROMATOGRAPHY: COLUMN_NAME Kinetex Evo C18 2.6 um 50 x 2.1 mm
AC$CHROMATOGRAPHY: FLOW_GRADIENT 95/5 at 0 min, 95/5 at 1 min, 0/100 at 13 min, 0/100 at 24 min, 95/5 at 24.3 min, 95/5 at 32 min
AC$CHROMATOGRAPHY: FLOW_RATE 300 uL/min
AC$CHROMATOGRAPHY: RETENTION_TIME 4.506 min
AC$CHROMATOGRAPHY: SOLVENT A water with 0.1% formic acid
AC$CHROMATOGRAPHY: SOLVENT B methanol with 0.1% formic acid
MS$FOCUSED_ION: BASE_PEAK 268.0749
MS$FOCUSED_ION: PRECURSOR_M/Z 268.075
MS$FOCUSED_ION: PRECURSOR_TYPE [M+H]+
MS$DATA_PROCESSING: RECALIBRATE loess on assigned fragments and MS1
MS$DATA_PROCESSING: REANALYZE Peaks with additional N2/O included
MS$DATA_PROCESSING: WHOLE RMassBank 2.9.1
PK$SPLASH: splash10-0a4i-1900000000-a977be4219b4c0115c6f
PK$ANNOTATION: m/z tentative_formula formula_count mass error(ppm)
  65.0384 C5H5+ 1 65.0386 -2.74
  69.0572 C4H7N+ 1 69.0573 -1.69
  70.0651 C4H8N+ 1 70.0651 -0.82
  92.0495 C6H6N+ 1 92.0495 0.13
  93.0575 C6H7N+ 1 93.0573 1.77
  94.0652 C6H8N+ 1 94.0651 0.54
  108.0444 C6H6NO+ 1 108.0444 0.15
  110.0601 C6H8NO+ 1 110.06 0.53
  111.0553 C5H7N2O+ 1 111.0553 0.22
  112.0631 C5H8N2O+ 1 112.0631 0.3
  113.0709 C5H9N2O+ 1 113.0709 -0.09
  120.0556 C6H6N3+ 1 120.0556 -0.44
  140.0165 C6H6NOS+ 1 140.0165 0
  156.0114 C6H6NO2S+ 1 156.0114 -0.03
  158.027 C6H8NO2S+ 1 158.027 -0.2
  175.0172 C5H7N2O3S+ 2 175.0172 -0.13
  268.0751 C11H14N3O3S+ 1 268.075 0.25
PK$NUM_PEAK: 17
PK$PEAK: m/z int. rel.int.
  65.0384 8285.9 14
  69.0572 755.7 1
  70.0651 1117.2 1
  92.0495 160551.7 275
  93.0575 884.1 1
  94.0652 2013.6 3
  108.0444 215400.8 369
  110.0601 2905.1 4
  111.0553 12114.1 20
  112.0631 76502.9 131
  113.0709 287623.5 492
  120.0556 2458.5 4
  140.0165 49371.7 84
  156.0114 582918.7 999
  158.027 6287.8 10
  175.0172 2066.5 3
  268.0751 45463 77
//
