ACCESSION: MSBNK-HBM4EU-HB004070
RECORD_TITLE: Alternariol monomethyl ether; LC-ESI-ITFT; MS2; CE: 60%; R=7500; [M+H]+
DATE: 2021.10.11
AUTHORS: Laurent Debrauwer, Emilien L. Jamin, Research Centre in Food Toxicology (TOXALIM), INRAE, MetaboHUB-Metatoul platform, Toulouse, France
LICENSE: CC0
COPYRIGHT: Copyright (c) 2021 by Research Centre in Food Toxicology (TOXALIM), INRAE, MetaboHUB-Metatoul platform, Toulouse, France
COMMENT: HBM4EU - science and policy for a healthy future (https://www.hbm4eu.eu)
COMMENT: CONFIDENCE Reference Standard (Level 1)
COMMENT: INTERNAL_ID 4400
CH$NAME: Alternariol monomethyl ether
CH$NAME: 3,7-dihydroxy-9-methoxy-1-methylbenzo[c]chromen-6-one
CH$COMPOUND_CLASS: N/A; Environmental Standard
CH$FORMULA: C15H12O5
CH$EXACT_MASS: 272.0685
CH$SMILES: CC1=CC(=CC2=C1C3=C(C(=CC(=C3)OC)O)C(=O)O2)O
CH$IUPAC: InChI=1S/C15H12O5/c1-7-3-8(16)4-12-13(7)10-5-9(19-2)6-11(17)14(10)15(18)20-12/h3-6,16-17H,1-2H3
CH$LINK: CAS 23452-05-3
CH$LINK: CHEBI CHEBI:141315
CH$LINK: PUBCHEM CID:5360741
CH$LINK: INCHIKEY LCSDQFNUYFTXMT-UHFFFAOYSA-N
CH$LINK: CHEMSPIDER 4514573
CH$LINK: COMPTOX DTXSID30178004
AC$INSTRUMENT: LTQ Orbitrap XL Thermo Scientific
AC$INSTRUMENT_TYPE: LC-ESI-ITFT
AC$MASS_SPECTROMETRY: MS_TYPE MS2
AC$MASS_SPECTROMETRY: ION_MODE POSITIVE
AC$MASS_SPECTROMETRY: IONIZATION ESI
AC$MASS_SPECTROMETRY: FRAGMENTATION_MODE HCD
AC$MASS_SPECTROMETRY: COLLISION_ENERGY 60 % (nominal)
AC$MASS_SPECTROMETRY: RESOLUTION 7500
AC$CHROMATOGRAPHY: COLUMN_NAME Hypersil GOLD C18 1.9 um 100 x 2.1 mm Thermo Fisher Scientific
AC$CHROMATOGRAPHY: FLOW_GRADIENT 100/0 at 0 min, 0/100 at 30 min, 0/100 at 35 min
AC$CHROMATOGRAPHY: FLOW_RATE 300 uL/min
AC$CHROMATOGRAPHY: RETENTION_TIME 22.240 min
AC$CHROMATOGRAPHY: SOLVENT A water with 5% methanol and 0.1% acetic acid
AC$CHROMATOGRAPHY: SOLVENT B methanol with 0.1% acetic acid
MS$FOCUSED_ION: BASE_PEAK 273.0762
MS$FOCUSED_ION: PRECURSOR_M/Z 273.0757
MS$FOCUSED_ION: PRECURSOR_TYPE [M+H]+
MS$FOCUSED_ION: PRECURSOR_INTENSITY 4158392.78418
MS$DATA_PROCESSING: RECALIBRATE loess on assigned fragments and MS1
MS$DATA_PROCESSING: REANALYZE Peaks with additional N2/O included
MS$DATA_PROCESSING: WHOLE RMassBank 3.2.0
PK$SPLASH: splash10-00di-0090000000-4f129f47d17afbf2f6a7
PK$ANNOTATION: m/z tentative_formula formula_count mass error(ppm)
  241.0496 C14H9O4+ 1 241.0495 0.19
  255.0656 C15H11O4+ 1 255.0652 1.66
  258.0528 C14H10O5+ 1 258.0523 1.87
  273.0762 C15H13O5+ 1 273.0757 1.69
PK$NUM_PEAK: 4
PK$PEAK: m/z int. rel.int.
  241.0496 26151.8 26
  255.0656 27916.9 28
  258.0528 38628.2 39
  273.0762 977208.6 999
//
