ACCESSION: MSBNK-HBM4EU-HB000211
RECORD_TITLE: Nylidrin; LC-ESI-ITFT; MS2; CE: 40%; R=15000; [M+H]+
DATE: 2018.09.08
AUTHORS: Tobias Schulze, Carolin Huber, Martin Krauss, Department of Effect-Directed Analysis, Helmholtz Centre for Environmental Research GmbH - UFZ, Leipzig, Germany
LICENSE: CC0
COPYRIGHT: Copyright (C) 2018
PUBLICATION: Oberacher H, Sasse M, Antignac J-P, Guitton Y, Debrauwer L, Jamin E L, Schulze T, Krauss M, Covaci A, Caballero-Casero N, Rosseau K, Damont A, Fenaille F, Lamoree M, Schymanski E, A European proposal for quality control and quality assurance of tandem mass spectral libraries, Environmental Sciences Europe, https://doi.org/10.1186/s12302-020-00314-9
COMMENT: CONFIDENCE Reference Standard (Level 1)
COMMENT: HBM4EU - science and policy for a healthy future (https://www.hbm4eu.eu)
CH$NAME: Nylidrin
CH$NAME: 4-[1-hydroxy-2-(4-phenylbutan-2-ylamino)propyl]phenol
CH$COMPOUND_CLASS: N/A; Environmental Standard
CH$FORMULA: C19H25NO2
CH$EXACT_MASS: 299.1885
CH$SMILES: CC(CCC1=CC=CC=C1)NC(C)C(C2=CC=C(C=C2)O)O
CH$IUPAC: InChI=1S/C19H25NO2/c1-14(8-9-16-6-4-3-5-7-16)20-15(2)19(22)17-10-12-18(21)13-11-17/h3-7,10-15,19-22H,8-9H2,1-2H3
CH$LINK: CAS 447-41-6
CH$LINK: CHEBI CHEBI:91656
CH$LINK: KEGG D07551
CH$LINK: PUBCHEM CID:4567
CH$LINK: INCHIKEY PTGXAUBQBSGPKF-UHFFFAOYSA-N
CH$LINK: CHEMSPIDER 4407
AC$INSTRUMENT: LTQ Orbitrap XL Thermo Scientific
AC$INSTRUMENT_TYPE: LC-ESI-ITFT
AC$MASS_SPECTROMETRY: MS_TYPE MS2
AC$MASS_SPECTROMETRY: ION_MODE POSITIVE
AC$MASS_SPECTROMETRY: IONIZATION ESI
AC$MASS_SPECTROMETRY: FRAGMENTATION_MODE HCD
AC$MASS_SPECTROMETRY: COLLISION_ENERGY 40% (nominal)
AC$MASS_SPECTROMETRY: RESOLUTION 15000
AC$CHROMATOGRAPHY: COLUMN_NAME Kinetex Evo C18 2.6 um 50 x 2.1 mm
AC$CHROMATOGRAPHY: FLOW_GRADIENT 95/5 at 0 min, 95/5 at 1 min, 0/100 at 13 min, 0/100 at 24 min, 95/5 at 24.3 min, 95/5 at 32 min
AC$CHROMATOGRAPHY: FLOW_RATE 300 uL/min
AC$CHROMATOGRAPHY: RETENTION_TIME 6.895 min
AC$CHROMATOGRAPHY: SOLVENT A water with 0.1% formic acid
AC$CHROMATOGRAPHY: SOLVENT B methanol with 0.1% formic acid
MS$FOCUSED_ION: BASE_PEAK 300.1959
MS$FOCUSED_ION: PRECURSOR_M/Z 300.1958
MS$FOCUSED_ION: PRECURSOR_TYPE [M+H]+
MS$DATA_PROCESSING: RECALIBRATE loess on assigned fragments and MS1
MS$DATA_PROCESSING: REANALYZE Peaks with additional N2/O included
MS$DATA_PROCESSING: WHOLE RMassBank 2.9.1
PK$SPLASH: splash10-0ue9-2930000000-7f353bfc8e9b915d5998
PK$ANNOTATION: m/z tentative_formula formula_count mass error(ppm)
  56.0492 C3H6N+ 1 56.0495 -4.15
  57.0332 C3H5O+ 1 57.0335 -4.49
  91.0542 C7H7+ 1 91.0542 0.18
  105.0699 C8H9+ 1 105.0699 0.36
  107.0492 C7H7O+ 1 107.0491 0.6
  109.0649 C7H9O+ 1 109.0648 0.7
  133.0648 C9H9O+ 1 133.0648 0.24
  133.1012 C10H13+ 1 133.1012 0.29
  135.0805 C9H11O+ 1 135.0804 0.12
  148.1121 C10H14N+ 1 148.1121 0.44
  150.0914 C9H12NO+ 1 150.0913 0.08
  151.0752 C9H11O2+ 1 151.0754 -0.79
  178.1227 C11H16NO+ 1 178.1226 0.24
  227.0582 C13H9NO3+ 1 227.0577 2.25
  240.1384 C16H18NO+ 1 240.1383 0.35
  282.1854 C19H24NO+ 1 282.1852 0.47
  300.1961 C19H26NO2+ 1 300.1958 1.01
PK$NUM_PEAK: 17
PK$PEAK: m/z int. rel.int.
  56.0492 14716.9 1
  57.0332 13271.2 1
  91.0542 3444691.8 397
  105.0699 131584.2 15
  107.0492 62207 7
  109.0649 43391 5
  133.0648 903673.9 104
  133.1012 169944 19
  135.0805 458185.4 52
  148.1121 49255.2 5
  150.0914 8646470 999
  151.0752 502230.1 58
  178.1227 462865.8 53
  227.0582 13971.8 1
  240.1384 97572.6 11
  282.1854 4150314.2 479
  300.1961 142152.6 16
//
