ACCESSION: MSBNK-HBM4EU-HB002929
RECORD_TITLE: Terbutryn-OH-desethyl (TENTATIVE); LC-ESI-QFT; MS2; CE: 30%; R=70000; [M+H]+
DATE: 2021.02.23
AUTHORS: Carolin Huber, Tobias Schulze, Martin Krauss, Department of Effect-Directed Analysis, Helmholtz Centre for Environmental Research - UFZ GmbH, Leipzig, Germany
LICENSE: CC0
COPYRIGHT: Copyright (C) 2021 Helmholtz Centre for Environmental Research - UFZ, Leipzig, Germany 
PUBLICATION: Huber C, Mueller E, Schulze T, Brack W, Krauss M, Improving the Screening Analysis of Pesticide Metabolites in Human Biomonitoring by Combining High-Throughput In Vitro Incubation and Automated LC–HRMS Data Processing, Analytical Chemistry, https://doi.org/10.1021/acs.analchem.1c00972
COMMENT: HBM4EU - science and policy for a healthy future (https://www.hbm4eu.eu)
COMMENT: COMMENT: CONFIDENCE: Tentative structure, isomers possible (Level 3a)
COMMENT: COMMENT: generated by human liver S9 incubation
COMMENT: Terbutryn_OH_desethyl_30eV.txt
CH$NAME: Terbutryn-OH-desethyl
CH$NAME: N2-tert-butyl-6-(methylsulfanyl)-1,3,5-triazine-2,4-diamine
CH$COMPOUND_CLASS: N/A; Biotransformation Product
CH$FORMULA: C8H15N5S
CH$EXACT_MASS: 213.1038
CH$SMILES: NC1=NC(=NC(=N1)SC)NC(C)(C)C
CH$IUPAC: InChI=1S/C8H15N5S/c1-8(2,3)13-6-10-5(9)11-7(12-6)14-4/h1-4H3,(H3,9,10,11,12,13)
CH$LINK: CAS 30125-65-6
CH$LINK: COMPTOX DTXSID10891446
CH$LINK: INCHIKEY MWWBDLRPMWTLRX-UHFFFAOYSA-N
CH$LINK: PUBCHEM CID:13019211
AC$INSTRUMENT: Q Exactive Plus Orbitrap Thermo Scientific
AC$INSTRUMENT_TYPE: LC-ESI-QFT
AC$MASS_SPECTROMETRY: MS_TYPE MS2
AC$MASS_SPECTROMETRY: ION_MODE POSITIVE
AC$MASS_SPECTROMETRY: IONIZATION ESI
AC$MASS_SPECTROMETRY: FRAGMENTATION_MODE HCD
AC$MASS_SPECTROMETRY: COLLISION_ENERGY 30% (nominal)
AC$MASS_SPECTROMETRY: RESOLUTION 70000
AC$CHROMATOGRAPHY: COLUMN_NAME Waters UPLC BEH C18 1.7 um 2.1 mm x 100 mm with pre-column
AC$CHROMATOGRAPHY: FLOW_GRADIENT 100/0 at 0 min, 0/100 at 15 min, 0/100 at 21 min, 100/0 at 22 min, 100/0 at 30 min
AC$CHROMATOGRAPHY: FLOW_RATE 300 uL/min
AC$CHROMATOGRAPHY: RETENTION_TIME 12.09 min
AC$CHROMATOGRAPHY: SOLVENT A water with 1% ammonium carbonate 1M
AC$CHROMATOGRAPHY: SOLVENT B methanol with 1% ammonium carbonate 1M and 5% water
MS$FOCUSED_ION: PRECURSOR_M/Z 214.1116
MS$FOCUSED_ION: PRECURSOR_TYPE [M+H]+
MS$DATA_PROCESSING: COMMENT Peaks removed that cannot be explained by GenForm and Molecular Formula (5 ppm)
MS$DATA_PROCESSING: WHOLE mzR
PK$SPLASH: splash10-0a4i-4900000000-4ecbf8c63d920a4b2118
PK$NUM_PEAK: 15
PK$PEAK: m/z int. rel.int.
  57.0702 198795.9 24
  68.0244 1863569.4 226
  74.0038 44526.8 5
  74.0059 718754.5 87
  85.0509 3088757.1 374
  91.0324 376218 46
  102.012 31313.1 4
  108.0699 18458.5 2
  110.0462 1791754.4 217
  112.0617 51065.1 6
  116.0277 1493355.5 181
  125.0696 26300.9 3
  143.0257 19961.6 2
  154.1345 16060.9 2
  158.0495 8250811 999
//
