ACCESSION: MSBNK-HBM4EU-HB003186
RECORD_TITLE: Cyclopenin; LC-ESI-ITFT; MS2; CE: 15%; R=7500; [M-H]-
DATE: 2021.10.11
AUTHORS: Laurent Debrauwer, Emilien L. Jamin, Research Centre in Food Toxicology (TOXALIM), INRAE, MetaboHUB-Metatoul platform, Toulouse, France
LICENSE: CC0
COPYRIGHT: Copyright (c) 2021 by Research Centre in Food Toxicology (TOXALIM), INRAE, MetaboHUB-Metatoul platform, Toulouse, France
COMMENT: HBM4EU - science and policy for a healthy future (https://www.hbm4eu.eu)
COMMENT: CONFIDENCE Reference Standard (Level 1)
COMMENT: INTERNAL_ID 69
CH$NAME: Cyclopenin
CH$NAME: 4-methyl-3`-phenylspiro[1H-1,4-benzodiazepine-3,2`-oxirane]-2,5-dione
CH$COMPOUND_CLASS: N/A; Environmental Standard
CH$FORMULA: C17H14N2O3
CH$EXACT_MASS: 294.10044
CH$SMILES: CN1C(=O)C2=CC=CC=C2NC(=O)C13C(O3)C4=CC=CC=C4
CH$IUPAC: InChI=1S/C17H14N2O3/c1-19-15(20)12-9-5-6-10-13(12)18-16(21)17(19)14(22-17)11-7-3-2-4-8-11/h2-10,14H,1H3,(H,18,21)
CH$LINK: CAS 20007-87-8
CH$LINK: PUBCHEM CID:271117
CH$LINK: INCHIKEY APLKWZASYUZSBL-UHFFFAOYSA-N
CH$LINK: CHEMSPIDER 238443
AC$INSTRUMENT: LTQ Orbitrap XL Thermo Scientific
AC$INSTRUMENT_TYPE: LC-ESI-ITFT
AC$MASS_SPECTROMETRY: MS_TYPE MS2
AC$MASS_SPECTROMETRY: ION_MODE NEGATIVE
AC$MASS_SPECTROMETRY: IONIZATION ESI
AC$MASS_SPECTROMETRY: FRAGMENTATION_MODE HCD
AC$MASS_SPECTROMETRY: COLLISION_ENERGY 15 % (nominal)
AC$MASS_SPECTROMETRY: RESOLUTION 7500
AC$CHROMATOGRAPHY: COLUMN_NAME Hypersil GOLD C18 1.9 um 100 x 2.1 mm Thermo Fisher Scientific
AC$CHROMATOGRAPHY: FLOW_GRADIENT 100/0 at 0 min, 0/100 at 30 min, 0/100 at 35 min
AC$CHROMATOGRAPHY: FLOW_RATE 300 uL/min
AC$CHROMATOGRAPHY: RETENTION_TIME 15.052 min
AC$CHROMATOGRAPHY: SOLVENT A water with 5% methanol and 0.1% acetic acid
AC$CHROMATOGRAPHY: SOLVENT B methanol with 0.1% acetic acid
MS$FOCUSED_ION: BASE_PEAK 293.0936
MS$FOCUSED_ION: PRECURSOR_M/Z 293.0932
MS$FOCUSED_ION: PRECURSOR_TYPE [M-H]-
MS$FOCUSED_ION: PRECURSOR_INTENSITY 21192973.17993
MS$DATA_PROCESSING: RECALIBRATE loess on assigned fragments and MS1
MS$DATA_PROCESSING: REANALYZE Peaks with additional N2/O included
MS$DATA_PROCESSING: WHOLE RMassBank 3.2.0
PK$SPLASH: splash10-0006-0290000000-6d688959c99fe96ad200
PK$ANNOTATION: m/z tentative_formula formula_count mass error(ppm)
  102.035 C7H4N- 1 102.0349 0.55
  121.0297 C7H5O2- 1 121.0295 2.03
  146.061 C9H8NO- 1 146.0611 -0.6
  149.0724 C8H9N2O- 1 149.072 2.73
  159.0565 C9H7N2O- 1 159.0564 0.67
  175.0514 C9H7N2O2- 1 175.0513 0.54
  177.0674 C9H9N2O2- 1 177.067 2.42
  187.0514 C10H7N2O2- 1 187.0513 0.32
  207.068 C14H9NO- 1 207.069 -4.87
  208.0771 C14H10NO- 1 208.0768 1.43
  222.0925 C15H12NO- 1 222.0924 0.41
  236.0719 C15H10NO2- 1 236.0717 0.82
  249.1033 C16H13N2O- 1 249.1033 -0.33
  250.0874 C16H12NO2- 1 250.0874 0.07
  293.0932 C17H13N2O3- 1 293.0932 0.03
PK$NUM_PEAK: 15
PK$PEAK: m/z int. rel.int.
  102.035 70155.9 14
  121.0297 55876 11
  146.061 9830.9 1
  149.0724 6213.4 1
  159.0565 1233732.8 247
  175.0514 49411.6 9
  177.0674 13472.7 2
  187.0514 26276.8 5
  207.068 9201 1
  208.0771 32799.3 6
  222.0925 202819.2 40
  236.0719 370177 74
  249.1033 150686.8 30
  250.0874 189432.5 38
  293.0932 4973634.5 999
//
