ACCESSION: MSBNK-HBM4EU-HB000637
RECORD_TITLE: Dosulepin; LC-ESI-ITFT; MS2; CE: 80%; R=15000; [M+H]+
DATE: 2018.09.08
AUTHORS: Tobias Schulze, Carolin Huber, Martin Krauss, Department of Effect-Directed Analysis, Helmholtz Centre for Environmental Research GmbH - UFZ, Leipzig, Germany
LICENSE: CC0
COPYRIGHT: Copyright (C) 2018
PUBLICATION: Oberacher H, Sasse M, Antignac J-P, Guitton Y, Debrauwer L, Jamin E L, Schulze T, Krauss M, Covaci A, Caballero-Casero N, Rosseau K, Damont A, Fenaille F, Lamoree M, Schymanski E, A European proposal for quality control and quality assurance of tandem mass spectral libraries, Environmental Sciences Europe, https://doi.org/10.1186/s12302-020-00314-9
COMMENT: CONFIDENCE Reference Standard (Level 1)
COMMENT: HBM4EU - science and policy for a healthy future (https://www.hbm4eu.eu)
CH$NAME: Dosulepin
CH$NAME: Dothiepin
CH$NAME: 3-(6H-benzo[c][1]benzothiepin-11-ylidene)-N,N-dimethylpropan-1-amine
CH$COMPOUND_CLASS: N/A; Environmental Standard
CH$FORMULA: C19H21NS
CH$EXACT_MASS: 295.1395
CH$SMILES: CN(C)CCC=C1C2=CC=CC=C2CSC3=CC=CC=C31
CH$IUPAC: InChI=1S/C19H21NS/c1-20(2)13-7-11-17-16-9-4-3-8-15(16)14-21-19-12-6-5-10-18(17)19/h3-6,8-12H,7,13-14H2,1-2H3
CH$LINK: CAS 113-53-1
CH$LINK: PUBCHEM CID:3155
CH$LINK: INCHIKEY PHTUQLWOUWZIMZ-UHFFFAOYSA-N
CH$LINK: CHEMSPIDER 3043
AC$INSTRUMENT: LTQ Orbitrap XL Thermo Scientific
AC$INSTRUMENT_TYPE: LC-ESI-ITFT
AC$MASS_SPECTROMETRY: MS_TYPE MS2
AC$MASS_SPECTROMETRY: ION_MODE POSITIVE
AC$MASS_SPECTROMETRY: IONIZATION ESI
AC$MASS_SPECTROMETRY: FRAGMENTATION_MODE CID
AC$MASS_SPECTROMETRY: COLLISION_ENERGY 80% (nominal)
AC$MASS_SPECTROMETRY: RESOLUTION 15000
AC$CHROMATOGRAPHY: COLUMN_NAME Kinetex Evo C18 2.6 um 50 x 2.1 mm
AC$CHROMATOGRAPHY: FLOW_GRADIENT 95/5 at 0 min, 95/5 at 1 min, 0/100 at 13 min, 0/100 at 24 min, 95/5 at 24.3 min, 95/5 at 32 min
AC$CHROMATOGRAPHY: FLOW_RATE 300 uL/min
AC$CHROMATOGRAPHY: RETENTION_TIME 8.162 min
AC$CHROMATOGRAPHY: SOLVENT A water with 0.1% formic acid
AC$CHROMATOGRAPHY: SOLVENT B methanol with 0.1% formic acid
MS$FOCUSED_ION: BASE_PEAK 296.1467
MS$FOCUSED_ION: PRECURSOR_M/Z 296.1467
MS$FOCUSED_ION: PRECURSOR_TYPE [M+H]+
MS$DATA_PROCESSING: RECALIBRATE loess on assigned fragments and MS1
MS$DATA_PROCESSING: REANALYZE Peaks with additional N2/O included
MS$DATA_PROCESSING: WHOLE RMassBank 2.9.1
PK$SPLASH: splash10-004i-0190000000-8a9dfca01fde7a88822c
PK$ANNOTATION: m/z tentative_formula formula_count mass error(ppm)
  91.0542 C7H7+ 1 91.0542 -0.49
  115.0543 C9H7+ 1 115.0542 0.88
  117.0699 C9H9+ 1 117.0699 -0.2
  123.0262 C7H7S+ 1 123.0263 -0.87
  141.07 C11H9+ 1 141.0699 1.09
  142.0777 C11H10+ 1 142.0777 0.34
  147.0263 C9H7S+ 1 147.0263 -0.09
  173.042 C11H9S+ 1 173.0419 0.09
  178.0782 C14H10+ 1 178.0777 3.07
  179.0858 C14H11+ 1 179.0855 1.37
  191.0856 C15H11+ 1 191.0855 0.15
  192.0934 C15H12+ 1 192.0934 0
  205.1009 C16H13+ 1 205.1012 -1.53
  209.042 C14H9S+ 1 209.0419 0.44
  210.05 C14H10S+ 1 210.0498 0.96
  211.0577 C14H11S+ 1 211.0576 0.31
  217.1013 C17H13+ 1 217.1012 0.57
  218.1091 C17H14+ 1 218.109 0.3
  221.0415 C15H9S+ 1 221.0419 -2.1
  222.05 C15H10S+ 1 222.0498 0.94
  223.0577 C15H11S+ 1 223.0576 0.67
  225.0732 C15H13S+ 1 225.0732 -0.4
  236.0653 C16H12S+ 1 236.0654 -0.33
  249.0733 C17H13S+ 1 249.0732 0.35
  251.0889 C17H15S+ 1 251.0889 0.07
  253.1044 C17H17S+ 1 253.1045 -0.63
  265.1046 C18H17S+ 1 265.1045 0.17
PK$NUM_PEAK: 27
PK$PEAK: m/z int. rel.int.
  91.0542 390817 14
  115.0543 30184.2 1
  117.0699 411214.1 15
  123.0262 205353.5 7
  141.07 125565.3 4
  142.0777 86256.5 3
  147.0263 4897036 187
  173.042 322289 12
  178.0782 30683.9 1
  179.0858 46203.4 1
  191.0856 656460.9 25
  192.0934 69711.3 2
  205.1009 40895.6 1
  209.042 1408999.8 53
  210.05 47415.5 1
  211.0577 85122.9 3
  217.1013 843845.1 32
  218.1091 2614039 100
  221.0415 91225.7 3
  222.05 838047.9 32
  223.0577 6163912.5 235
  225.0732 26105336 999
  236.0653 653611.2 25
  249.0733 70459 2
  251.0889 12078860 462
  253.1044 1376507.6 52
  265.1046 149056.1 5
//
