ACCESSION: MSBNK-HBM4EU-HB002399
RECORD_TITLE: Nylidrin; LC-ESI-ITFT; MS2; CE: 35%; R=7500; [M+H]+
DATE: 2020.02.20
AUTHORS: Laurent Debrauwer, Emilien L. Jamin, Research Centre in Food Toxicology (TOXALIM), INRAE, MetaboHUB-Metatoul platform, Toulouse, France
LICENSE: CC0
COPYRIGHT: Copyright (c) 2000 by Research Centre in Food Toxicology (TOXALIM), INRAE, MetaboHUB-Metatoul platform, Toulouse, France
PUBLICATION: Oberacher H, Sasse M, Antignac J-P, Guitton Y, Debrauwer L, Jamin E L, Schulze T, Krauss M, Covaci A, Caballero-Casero N, Rosseau K, Damont A, Fenaille F, Lamoree M, Schymanski E, A European proposal for quality control and quality assurance of tandem mass spectral libraries, Environmental Sciences Europe, https://doi.org/10.1186/s12302-020-00314-9
COMMENT: CONFIDENCE Reference Standard (Level 1)
COMMENT: HBM4EU - science and policy for a healthy future (https://www.hbm4eu.eu)
CH$NAME: Nylidrin
CH$NAME: 4-{1-Hydroxy-2-[(4-phenylbutan-2-yl)amino]propyl}phenol
CH$COMPOUND_CLASS: N/A; Environmental Standard
CH$FORMULA: C19H25NO2
CH$EXACT_MASS: 299.1885
CH$SMILES: CC(CCC1=CC=CC=C1)NC(C)C(O)C1=CC=C(O)C=C1
CH$IUPAC: InChI=1S/C19H25NO2/c1-14(8-9-16-6-4-3-5-7-16)20-15(2)19(22)17-10-12-18(21)13-11-17/h3-7,10-15,19-22H,8-9H2,1-2H3
CH$LINK: CAS 447-41-6
CH$LINK: COMPTOX DTXSID4023387
CH$LINK: INCHIKEY PTGXAUBQBSGPKF-UHFFFAOYSA-N
CH$LINK: PUBCHEM CID:4567
AC$INSTRUMENT: LTQ Orbitrap XL Thermo Fisher Scientific
AC$INSTRUMENT_TYPE: LC-ESI-ITFT
AC$MASS_SPECTROMETRY: MS_TYPE MS2
AC$MASS_SPECTROMETRY: ION_MODE POSITIVE
AC$MASS_SPECTROMETRY: IONIZATION ESI
AC$MASS_SPECTROMETRY: FRAGMENTATION_MODE HCD
AC$MASS_SPECTROMETRY: COLLISION_ENERGY 35% (nominal)
AC$MASS_SPECTROMETRY: RESOLUTION 7500
AC$CHROMATOGRAPHY: COLUMN_NAME Hypersil GOLD C18 1.9 um 100 x 2.1 mm Thermo Fisher Scientific
AC$CHROMATOGRAPHY: FLOW_GRADIENT 100/0 at 0 min, 0/100 at 30 min, 0/100 at 35 min
AC$CHROMATOGRAPHY: FLOW_RATE 300 uL/min
AC$CHROMATOGRAPHY: SOLVENT A water with 5% methanol and 0.1% acetic acid
AC$CHROMATOGRAPHY: SOLVENT B methanol with 0.1% acetic acid
MS$FOCUSED_ION: PRECURSOR_M/Z 300.1959
MS$FOCUSED_ION: PRECURSOR_TYPE [M+H]+
PK$SPLASH: splash10-0f89-0591000000-584169de3536262398d0
PK$NUM_PEAK: 13
PK$PEAK: m/z int. rel.int.
  57.0064 15437.8 1
  73.1445 12762.9 1
  91.0541 1264333.5 89
  107.0491 39682.9 3
  109.0648 19051.8 1
  133.0647 298810.1 21
  135.0803 363435.4 26
  148.1123 64497.2 5
  150.0914 6497117.6 456
  151.0753 420462.7 30
  178.1226 697190.4 49
  282.1856 14228376 999
  300.1959 1720865.2 121
//
