ACCESSION: MSBNK-HBM4EU-HB002822
RECORD_TITLE: Atrazine-despropyl (PROBABLE); LC-ESI-QFT; MS2; CE: 30%; R=70000; [M+H]+
DATE: 2021.02.23
AUTHORS: Carolin Huber, Tobias Schulze, Martin Krauss, Department of Effect-Directed Analysis, Helmholtz Centre for Environmental Research - UFZ GmbH, Leipzig, Germany
LICENSE: CC0
COPYRIGHT: Copyright (C) 2021 Helmholtz Centre for Environmental Research - UFZ, Leipzig, Germany 
PUBLICATION: Huber C, Mueller E, Schulze T, Brack W, Krauss M, Improving the Screening Analysis of Pesticide Metabolites in Human Biomonitoring by Combining High-Throughput In Vitro Incubation and Automated LC–HRMS Data Processing, Analytical Chemistry, https://doi.org/10.1021/acs.analchem.1c00972
COMMENT: HBM4EU - science and policy for a healthy future (https://www.hbm4eu.eu)
COMMENT: COMMENT: CONFIDENCE: Probable structure confirmed via library spectrum match (Level 2a)
COMMENT: COMMENT: generated by human liver S9 incubation
COMMENT: Atrazine_despropyl_30eV.txt
CH$NAME: Atrazine-despropyl
CH$NAME: 6-chloro-N2-ethyl-1,3,5-triazine-2,4-diamine
CH$COMPOUND_CLASS: N/A; Biotransformation Product
CH$FORMULA: C5H8ClN5
CH$EXACT_MASS: 173.046
CH$SMILES: CCNC1=NC(=NC(=N1)N)Cl
CH$IUPAC: InChI=1S/C5H8ClN5/c1-2-8-5-10-3(6)9-4(7)11-5/h2H2,1H3,(H3,7,8,9,10,11)
CH$LINK: CAS 1007-28-9
CH$LINK: COMPTOX DTXSID0037495
CH$LINK: INCHIKEY IVENSCMCQBJAKW-UHFFFAOYSA-N
CH$LINK: PUBCHEM CID:13878
AC$INSTRUMENT: Q Exactive Plus Orbitrap Thermo Scientific
AC$INSTRUMENT_TYPE: LC-ESI-QFT
AC$MASS_SPECTROMETRY: MS_TYPE MS2
AC$MASS_SPECTROMETRY: ION_MODE POSITIVE
AC$MASS_SPECTROMETRY: IONIZATION ESI
AC$MASS_SPECTROMETRY: FRAGMENTATION_MODE HCD
AC$MASS_SPECTROMETRY: COLLISION_ENERGY 30% (nominal)
AC$MASS_SPECTROMETRY: RESOLUTION 70000
AC$CHROMATOGRAPHY: COLUMN_NAME Waters UPLC BEH C18 1.7 um 2.1 mm x 100 mm with pre-column
AC$CHROMATOGRAPHY: FLOW_GRADIENT 100/0 at 0 min, 0/100 at 15 min, 0/100 at 21 min, 100/0 at 22 min, 100/0 at 30 min
AC$CHROMATOGRAPHY: FLOW_RATE 300 uL/min
AC$CHROMATOGRAPHY: RETENTION_TIME 8.18 min
AC$CHROMATOGRAPHY: SOLVENT A water with 1% ammonium carbonate 1M
AC$CHROMATOGRAPHY: SOLVENT B methanol with 1% ammonium carbonate 1M and 5% water
MS$FOCUSED_ION: PRECURSOR_M/Z 174.0538
MS$FOCUSED_ION: PRECURSOR_TYPE [M+H]+
MS$DATA_PROCESSING: COMMENT Peaks removed that cannot be explained by GenForm and Molecular Formula (5 ppm)
MS$DATA_PROCESSING: WHOLE mzR
PK$SPLASH: splash10-0gb9-9400000000-55e33edc12d56a656d50
PK$NUM_PEAK: 16
PK$PEAK: m/z int. rel.int.
  55.0545 2793.5 7
  58.0653 2926.5 7
  61.9794 81450 193
  67.0544 2865.4 7
  68.0244 422544 999
  69.0699 3518.6 8
  71.0604 75042.1 177
  79.0057 176582.8 417
  90.0104 5987.2 14
  96.0556 103052.6 244
  104.0009 340261.6 804
  110.0461 15987.6 38
  132.0323 43115.5 102
  138.0774 9896.7 23
  146.0229 20465.7 48
  174.0545 12324.6 29
//
