ACCESSION: MSBNK-HBM4EU-HB002879
RECORD_TITLE: Metamitron-OH (TENTATIVE); LC-ESI-QFT; MS2; CE: 30%; R=70000; [M+H]+
DATE: 2021.02.23
AUTHORS: Carolin Huber, Tobias Schulze, Martin Krauss, Department of Effect-Directed Analysis, Helmholtz Centre for Environmental Research - UFZ GmbH, Leipzig, Germany
LICENSE: CC0
COPYRIGHT: Copyright (C) 2021 Helmholtz Centre for Environmental Research - UFZ, Leipzig, Germany 
PUBLICATION: Huber C, Mueller E, Schulze T, Brack W, Krauss M, Improving the Screening Analysis of Pesticide Metabolites in Human Biomonitoring by Combining High-Throughput In Vitro Incubation and Automated LC–HRMS Data Processing, Analytical Chemistry, https://doi.org/10.1021/acs.analchem.1c00972
COMMENT: HBM4EU - science and policy for a healthy future (https://www.hbm4eu.eu)
COMMENT: COMMENT: CONFIDENCE: Tentative structure, with evidences on substitutes (Level 3b)
COMMENT: COMMENT: generated by human liver S9 incubation
COMMENT: Metamitron_OH_30eV.txt
CH$NAME: Metamitron-OH
CH$COMPOUND_CLASS: N/A; Biotransformation Product
CH$FORMULA: C10H10N4O2
CH$EXACT_MASS: 218.0795
CH$SMILES: C(*)C1=NN=C(C(=O)N1N)C2=C(*)C(*)=C(*)C=C2 *=[OH (n=1) & H (n=3)]
CH$IUPAC: N/A
AC$INSTRUMENT: Q Exactive Plus Orbitrap Thermo Scientific
AC$INSTRUMENT_TYPE: LC-ESI-QFT
AC$MASS_SPECTROMETRY: MS_TYPE MS2
AC$MASS_SPECTROMETRY: ION_MODE POSITIVE
AC$MASS_SPECTROMETRY: IONIZATION ESI
AC$MASS_SPECTROMETRY: FRAGMENTATION_MODE HCD
AC$MASS_SPECTROMETRY: COLLISION_ENERGY 30% (nominal)
AC$MASS_SPECTROMETRY: RESOLUTION 70000
AC$CHROMATOGRAPHY: COLUMN_NAME Waters UPLC BEH C18 1.7 um 2.1 mm x 100 mm with pre-column
AC$CHROMATOGRAPHY: FLOW_GRADIENT 100/0 at 0 min, 0/100 at 15 min, 0/100 at 21 min, 100/0 at 22 min, 100/0 at 30 min
AC$CHROMATOGRAPHY: FLOW_RATE 300 uL/min
AC$CHROMATOGRAPHY: RETENTION_TIME 7.19 min
AC$CHROMATOGRAPHY: SOLVENT A water with 1% ammonium carbonate 1M
AC$CHROMATOGRAPHY: SOLVENT B methanol with 1% ammonium carbonate 1M and 5% water
MS$FOCUSED_ION: PRECURSOR_M/Z 219.0873
MS$FOCUSED_ION: PRECURSOR_TYPE [M+H]+
MS$DATA_PROCESSING: COMMENT Peaks removed that cannot be explained by GenForm and Molecular Formula (5 ppm)
MS$DATA_PROCESSING: WHOLE mzR
PK$SPLASH: splash10-00e9-2900000000-915c0d0d80ea057fa32a
PK$NUM_PEAK: 24
PK$PEAK: m/z int. rel.int.
  56.0135 4350.4 42
  57.045 12039.8 117
  57.0702 3192 31
  59.0243 6991.3 68
  65.0387 8102.4 79
  67.0543 3463.5 34
  83.024 14021.6 136
  91.0543 5566.6 54
  95.0491 7071.7 69
  105.0335 10738.1 104
  107.049 2732.5 26
  108.0444 3091.6 30
  111.044 5106.1 50
  119.0365 3621.5 35
  120.0444 103033 999
  121.0396 9666.3 94
  121.0523 3664.5 36
  133.0396 36858.8 357
  134.0475 12601.6 122
  161.0345 3082.7 30
  175.0739 20188.6 196
  190.0738 4795.1 46
  191.093 15695.1 152
  219.0866 3265.7 32
//
