ACCESSION: MSBNK-HBM4EU-HB000226
RECORD_TITLE: Nylidrin; LC-ESI-ITFT; MS2; CE: 75%; R=15000; [M+H]+
DATE: 2018.09.08
AUTHORS: Tobias Schulze, Carolin Huber, Martin Krauss, Department of Effect-Directed Analysis, Helmholtz Centre for Environmental Research GmbH - UFZ, Leipzig, Germany
LICENSE: CC0
COPYRIGHT: Copyright (C) 2018
PUBLICATION: Oberacher H, Sasse M, Antignac J-P, Guitton Y, Debrauwer L, Jamin E L, Schulze T, Krauss M, Covaci A, Caballero-Casero N, Rosseau K, Damont A, Fenaille F, Lamoree M, Schymanski E, A European proposal for quality control and quality assurance of tandem mass spectral libraries, Environmental Sciences Europe, https://doi.org/10.1186/s12302-020-00314-9
COMMENT: CONFIDENCE Reference Standard (Level 1)
COMMENT: HBM4EU - science and policy for a healthy future (https://www.hbm4eu.eu)
CH$NAME: Nylidrin
CH$NAME: 4-[1-hydroxy-2-(4-phenylbutan-2-ylamino)propyl]phenol
CH$COMPOUND_CLASS: N/A; Environmental Standard
CH$FORMULA: C19H25NO2
CH$EXACT_MASS: 299.1885
CH$SMILES: CC(CCC1=CC=CC=C1)NC(C)C(C2=CC=C(C=C2)O)O
CH$IUPAC: InChI=1S/C19H25NO2/c1-14(8-9-16-6-4-3-5-7-16)20-15(2)19(22)17-10-12-18(21)13-11-17/h3-7,10-15,19-22H,8-9H2,1-2H3
CH$LINK: CAS 447-41-6
CH$LINK: CHEBI CHEBI:91656
CH$LINK: KEGG D07551
CH$LINK: PUBCHEM CID:4567
CH$LINK: INCHIKEY PTGXAUBQBSGPKF-UHFFFAOYSA-N
CH$LINK: CHEMSPIDER 4407
AC$INSTRUMENT: LTQ Orbitrap XL Thermo Scientific
AC$INSTRUMENT_TYPE: LC-ESI-ITFT
AC$MASS_SPECTROMETRY: MS_TYPE MS2
AC$MASS_SPECTROMETRY: ION_MODE POSITIVE
AC$MASS_SPECTROMETRY: IONIZATION ESI
AC$MASS_SPECTROMETRY: FRAGMENTATION_MODE HCD
AC$MASS_SPECTROMETRY: COLLISION_ENERGY 75% (nominal)
AC$MASS_SPECTROMETRY: RESOLUTION 15000
AC$CHROMATOGRAPHY: COLUMN_NAME Kinetex Evo C18 2.6 um 50 x 2.1 mm
AC$CHROMATOGRAPHY: FLOW_GRADIENT 95/5 at 0 min, 95/5 at 1 min, 0/100 at 13 min, 0/100 at 24 min, 95/5 at 24.3 min, 95/5 at 32 min
AC$CHROMATOGRAPHY: FLOW_RATE 300 uL/min
AC$CHROMATOGRAPHY: RETENTION_TIME 6.871 min
AC$CHROMATOGRAPHY: SOLVENT A water with 0.1% formic acid
AC$CHROMATOGRAPHY: SOLVENT B methanol with 0.1% formic acid
MS$FOCUSED_ION: BASE_PEAK 300.1959
MS$FOCUSED_ION: PRECURSOR_M/Z 300.1958
MS$FOCUSED_ION: PRECURSOR_TYPE [M+H]+
MS$DATA_PROCESSING: RECALIBRATE loess on assigned fragments and MS1
MS$DATA_PROCESSING: REANALYZE Peaks with additional N2/O included
MS$DATA_PROCESSING: WHOLE RMassBank 2.9.1
PK$SPLASH: splash10-052f-7900000000-bc27525896ae3f67c3d4
PK$ANNOTATION: m/z tentative_formula formula_count mass error(ppm)
  55.0176 C3H3O+ 1 55.0178 -3.8
  56.0493 C3H6N+ 1 56.0495 -3.96
  57.0332 C3H5O+ 1 57.0335 -4.32
  65.0384 C5H5+ 1 65.0386 -3.22
  79.0542 C6H7+ 1 79.0542 -0.53
  81.07 C6H9+ 1 81.0699 1.98
  91.0542 C7H7+ 1 91.0542 0.23
  95.0491 C6H7O+ 1 95.0491 -0.84
  103.0542 C8H7+ 1 103.0542 0.19
  105.0699 C8H9+ 1 105.0699 0.1
  107.0491 C7H7O+ 1 107.0491 -0.23
  109.0648 C7H9O+ 1 109.0648 0.44
  115.0542 C9H7+ 1 115.0542 -0.1
  131.049 C9H7O+ 1 131.0491 -1.34
  133.0648 C9H9O+ 1 133.0648 0.3
  135.0679 C8H9NO+ 1 135.0679 0
  135.0802 C9H11O+ 1 135.0804 -1.71
  143.0602 C9H7N2+ 1 143.0604 -0.98
  150.0914 C9H12NO+ 1 150.0913 0.19
  151.0751 C9H11O2+ 1 151.0754 -1.4
PK$NUM_PEAK: 20
PK$PEAK: m/z int. rel.int.
  55.0176 100811.8 8
  56.0493 431532.6 35
  57.0332 125302.9 10
  65.0384 31787.6 2
  79.0542 253781.5 21
  81.07 44902 3
  91.0542 11992038 999
  95.0491 86492.2 7
  103.0542 186919 15
  105.0699 6439810 536
  107.0491 516942.8 43
  109.0648 396750.8 33
  115.0542 191097.7 15
  131.049 49297.2 4
  133.0648 4999083.5 416
  135.0679 512574.4 42
  135.0802 122959.1 10
  143.0602 37907.4 3
  150.0914 2826582.8 235
  151.0751 61682.3 5
//
