ACCESSION: MSBNK-HBM4EU-HB002011
RECORD_TITLE: Phentermine; LC-ESI-QFT; MS2; CE: 40%; R=30000; [M+H]+
DATE: 2020.02.20
AUTHORS: Annelaure Damont, Kathleen Rousseau, Laboratoire d Etude du Metabolisme des Medicaments, CEA, Universite Paris Saclay, Paris, France
LICENSE: CC0
COPYRIGHT: Copyright (c) 2020 by Laboratoire d Etude du Metabolisme des Medicaments, CEA, Universite Paris Saclay, Paris, France
PUBLICATION: Oberacher H, Sasse M, Antignac J-P, Guitton Y, Debrauwer L, Jamin E L, Schulze T, Krauss M, Covaci A, Caballero-Casero N, Rosseau K, Damont A, Fenaille F, Lamoree M, Schymanski E, A European proposal for quality control and quality assurance of tandem mass spectral libraries, Environmental Sciences Europe, https://doi.org/10.1186/s12302-020-00314-9
COMMENT: CONFIDENCE Reference Standard (Level 1)
COMMENT: HBM4EU - science and policy for a healthy future (https://www.hbm4eu.eu)
COMMENT: Flow Injection
CH$NAME: Phentermine
CH$NAME: 2-Methyl-1-phenylpropan-2-amine
CH$COMPOUND_CLASS: N/A; Environmental Standard
CH$FORMULA: C10H15N
CH$EXACT_MASS: 149.1204
CH$SMILES: CC(C)(N)CC1=CC=CC=C1
CH$IUPAC: InChI=1S/C10H15N/c1-10(2,11)8-9-6-4-3-5-7-9/h3-7H,8,11H2,1-2H3
CH$LINK: CAS 122-09-8
CH$LINK: COMPTOX DTXSID9023461
CH$LINK: INCHIKEY DHHVAGZRUROJKS-UHFFFAOYSA-N
CH$LINK: PUBCHEM CID:4771
AC$INSTRUMENT: Orbitrap Fusion Tribrid Thermo Fisher Scientific
AC$INSTRUMENT_TYPE: LC-ESI-QFT
AC$MASS_SPECTROMETRY: MS_TYPE MS2
AC$MASS_SPECTROMETRY: ION_MODE POSITIVE
AC$MASS_SPECTROMETRY: IONIZATION ESI
AC$MASS_SPECTROMETRY: FRAGMENTATION_MODE HCD
AC$MASS_SPECTROMETRY: COLLISION_ENERGY 40% (nominal)
AC$MASS_SPECTROMETRY: RESOLUTION 30000
AC$CHROMATOGRAPHY: FLOW_GRADIENT 95/5
AC$CHROMATOGRAPHY: FLOW_RATE 100 uL/min
AC$CHROMATOGRAPHY: SOLVENT A water with 0.1% formic acid
AC$CHROMATOGRAPHY: SOLVENT B acetonitrile with 0.1% formic acid
MS$FOCUSED_ION: PRECURSOR_M/Z 150.1278
MS$FOCUSED_ION: PRECURSOR_TYPE [M+H]+
PK$SPLASH: splash10-0006-9000000000-4dc7559180552e5e42d9
PK$NUM_PEAK: 4
PK$PEAK: m/z int. rel.int.
  55.0544 88982.2 29
  65.0388 20017.3 7
  91.0545 3018291 999
  105.0701 137108.9 45
//
