ACCESSION: MSBNK-HBM4EU-HB002888
RECORD_TITLE: Metazachlor-OH-deschloro (PROBABLE); LC-ESI-QFT; MS2; CE: 30%; R=70000; [M+H]+
DATE: 2021.02.23
AUTHORS: Carolin Huber, Tobias Schulze, Martin Krauss, Department of Effect-Directed Analysis, Helmholtz Centre for Environmental Research - UFZ GmbH, Leipzig, Germany
LICENSE: CC0
COPYRIGHT: Copyright (C) 2021 Helmholtz Centre for Environmental Research - UFZ, Leipzig, Germany 
PUBLICATION: Huber C, Mueller E, Schulze T, Brack W, Krauss M, Improving the Screening Analysis of Pesticide Metabolites in Human Biomonitoring by Combining High-Throughput In Vitro Incubation and Automated LC–HRMS Data Processing, Analytical Chemistry, https://doi.org/10.1021/acs.analchem.1c00972
COMMENT: HBM4EU - science and policy for a healthy future (https://www.hbm4eu.eu)
COMMENT: COMMENT: CONFIDENCE: Probable structure confirmed via library spectrum match (Level 2a)
COMMENT: COMMENT: generated by human liver S9 incubation
COMMENT: Metazachlor_OH-deschloro_30eV.txt
CH$NAME: Metazachlor-OH-deschloro
CH$NAME: N-(2,6-dimethylphenyl)-2-hydroxy-N-[(1H-pyrazol-1-yl)methyl]acetamide
CH$COMPOUND_CLASS: N/A; Biotransformation Product
CH$FORMULA: C14H17N3O2
CH$EXACT_MASS: 259.1311
CH$SMILES: CC1=C(C(=CC=C1)C)N(CN2C=CC=N2)C(=O)CO
CH$IUPAC: InChI=1S/C14H17N3O2/c1-11-5-3-6-12(2)14(11)17(13(19)9-18)10-16-8-4-7-15-16/h3-8,18H,9-10H2,1-2H3
CH$LINK: INCHIKEY IQUFNHHHOOCCDU-UHFFFAOYSA-N
CH$LINK: PUBCHEM CID:53434808
AC$INSTRUMENT: Q Exactive Plus Orbitrap Thermo Scientific
AC$INSTRUMENT_TYPE: LC-ESI-QFT
AC$MASS_SPECTROMETRY: MS_TYPE MS2
AC$MASS_SPECTROMETRY: ION_MODE POSITIVE
AC$MASS_SPECTROMETRY: IONIZATION ESI
AC$MASS_SPECTROMETRY: FRAGMENTATION_MODE HCD
AC$MASS_SPECTROMETRY: COLLISION_ENERGY 30% (nominal)
AC$MASS_SPECTROMETRY: RESOLUTION 70000
AC$CHROMATOGRAPHY: COLUMN_NAME Waters UPLC BEH C18 1.7 um 2.1 mm x 100 mm with pre-column
AC$CHROMATOGRAPHY: FLOW_GRADIENT 100/0 at 0 min, 0/100 at 15 min, 0/100 at 21 min, 100/0 at 22 min, 100/0 at 30 min
AC$CHROMATOGRAPHY: FLOW_RATE 300 uL/min
AC$CHROMATOGRAPHY: RETENTION_TIME 11.13 min
AC$CHROMATOGRAPHY: SOLVENT A water with 1% ammonium carbonate 1M
AC$CHROMATOGRAPHY: SOLVENT B methanol with 1% ammonium carbonate 1M and 5% water
MS$FOCUSED_ION: PRECURSOR_M/Z 260.1389
MS$FOCUSED_ION: PRECURSOR_TYPE [M+H]+
MS$DATA_PROCESSING: COMMENT Peaks removed that cannot be explained by GenForm and Molecular Formula (5 ppm)
MS$DATA_PROCESSING: WHOLE mzR
PK$SPLASH: splash10-001i-0900000000-8ce8780ecc93470d6d12
PK$NUM_PEAK: 11
PK$PEAK: m/z int. rel.int.
  79.0542 10982 3
  91.0542 9786.6 2
  105.0699 139249.9 35
  106.0778 35559.4 9
  107.0855 112854.9 28
  109.0649 9841.2 2
  117.0574 7302.8 2
  119.073 72704 18
  123.0804 12044.5 3
  132.0809 23386.2 6
  134.0964 4010723 999
//
