ACCESSION: MSBNK-HBM4EU-HB001632
RECORD_TITLE: Sulfamethoxazole; LC-ESI-ITFT; MS2; CE: 75%; R=15000; [M+H]+
DATE: 2018.09.08
AUTHORS: Tobias Schulze, Carolin Huber, Martin Krauss, Department of Effect-Directed Analysis, Helmholtz Centre for Environmental Research GmbH - UFZ, Leipzig, Germany
LICENSE: CC0
COPYRIGHT: Copyright (C) 2018
PUBLICATION: Oberacher H, Sasse M, Antignac J-P, Guitton Y, Debrauwer L, Jamin E L, Schulze T, Krauss M, Covaci A, Caballero-Casero N, Rosseau K, Damont A, Fenaille F, Lamoree M, Schymanski E, A European proposal for quality control and quality assurance of tandem mass spectral libraries, Environmental Sciences Europe, https://doi.org/10.1186/s12302-020-00314-9
COMMENT: CONFIDENCE Reference Standard (Level 1)
COMMENT: HBM4EU - science and policy for a healthy future (https://www.hbm4eu.eu)
CH$NAME: Sulfamethoxazole
CH$NAME: 4-amino-N-(5-methyl-1,2-oxazol-3-yl)benzenesulfonamide
CH$COMPOUND_CLASS: N/A; Environmental Standard
CH$FORMULA: C10H11N3O3S
CH$EXACT_MASS: 253.0521
CH$SMILES: CC1=CC(=NO1)NS(=O)(=O)C2=CC=C(C=C2)N
CH$IUPAC: InChI=1S/C10H11N3O3S/c1-7-6-10(12-16-7)13-17(14,15)9-4-2-8(11)3-5-9/h2-6H,11H2,1H3,(H,12,13)
CH$LINK: CAS 723-46-6
CH$LINK: CHEBI CHEBI:9332
CH$LINK: KEGG D00447
CH$LINK: PUBCHEM CID:5329
CH$LINK: INCHIKEY JLKIGFTWXXRPMT-UHFFFAOYSA-N
CH$LINK: CHEMSPIDER 5138
AC$INSTRUMENT: LTQ Orbitrap XL Thermo Scientific
AC$INSTRUMENT_TYPE: LC-ESI-ITFT
AC$MASS_SPECTROMETRY: MS_TYPE MS2
AC$MASS_SPECTROMETRY: ION_MODE POSITIVE
AC$MASS_SPECTROMETRY: IONIZATION ESI
AC$MASS_SPECTROMETRY: FRAGMENTATION_MODE CID
AC$MASS_SPECTROMETRY: COLLISION_ENERGY 75% (nominal)
AC$MASS_SPECTROMETRY: RESOLUTION 15000
AC$CHROMATOGRAPHY: COLUMN_NAME Kinetex Evo C18 2.6 um 50 x 2.1 mm
AC$CHROMATOGRAPHY: FLOW_GRADIENT 95/5 at 0 min, 95/5 at 1 min, 0/100 at 13 min, 0/100 at 24 min, 95/5 at 24.3 min, 95/5 at 32 min
AC$CHROMATOGRAPHY: FLOW_RATE 300 uL/min
AC$CHROMATOGRAPHY: RETENTION_TIME 5.617 min
AC$CHROMATOGRAPHY: SOLVENT A water with 0.1% formic acid
AC$CHROMATOGRAPHY: SOLVENT B methanol with 0.1% formic acid
MS$FOCUSED_ION: BASE_PEAK 189.1023
MS$FOCUSED_ION: PRECURSOR_M/Z 254.0594
MS$FOCUSED_ION: PRECURSOR_TYPE [M+H]+
MS$DATA_PROCESSING: RECALIBRATE loess on assigned fragments and MS1
MS$DATA_PROCESSING: REANALYZE Peaks with additional N2/O included
MS$DATA_PROCESSING: WHOLE RMassBank 2.9.1
PK$SPLASH: splash10-0a4v-0900000000-cc771f863e55ea1e83a3
PK$ANNOTATION: m/z tentative_formula formula_count mass error(ppm)
  65.0385 C5H5+ 1 65.0386 -1.66
  80.0494 C5H6N+ 1 80.0495 -0.33
  92.0496 C6H6N+ 1 92.0495 1.26
  93.0574 C6H7N+ 1 93.0573 0.99
  94.0652 C6H8N+ 1 94.0651 0.97
  99.0554 C4H7N2O+ 1 99.0553 1.43
  107.0606 C6H7N2+ 1 107.0604 1.68
  108.0445 C6H6NO+ 1 108.0444 1.03
  119.0605 C7H7N2+ 1 119.0604 0.97
  121.0762 C7H9N2+ 1 121.076 1.65
  131.0605 C8H7N2+ 1 131.0604 1.05
  132.0683 C8H8N2+ 1 132.0682 0.8
  133.0637 C7H7N3+ 1 133.0634 2.18
  145.0763 C9H9N2+ 1 145.076 2.08
  146.0715 C8H8N3+ 1 146.0713 1.67
  147.0793 C8H9N3+ 1 147.0791 1.15
  148.087 C8H10N3+ 1 148.0869 0.42
  156.0116 C6H6NO2S+ 1 156.0114 1.15
  160.087 C9H10N3+ 1 160.0869 0.71
  161.0017 C4H5N2O3S+ 1 161.0015 1.24
  161.071 C9H9N2O+ 1 161.0709 0.65
  161.0943 C9H11N3+ 1 161.0947 -2.51
  163.0865 C9H11N2O+ 1 163.0866 -0.27
  172.0872 C10H10N3+ 1 172.0869 1.58
  173.0583 C9H7N3O+ 1 173.0584 -0.3
  173.0713 C10H9N2O+ 1 173.0709 2.15
  176.0279 C8H6N3S+ 1 176.0277 1.44
  177.0121 C8H5N2OS+ 1 177.0117 2.18
  188.0821 C10H10N3O+ 1 188.0818 1.62
  190.0976 C10H12N3O+ 1 190.0975 0.74
  193.0306 C8H7N3OS+ 1 193.0304 0.77
  194.0384 C8H8N3OS+ 1 194.0383 0.78
  236.0492 C10H10N3O2S+ 1 236.0488 1.8
  254.0596 C10H12N3O3S+ 1 254.0594 0.65
PK$NUM_PEAK: 34
PK$PEAK: m/z int. rel.int.
  65.0385 5527.1 6
  80.0494 4414.3 5
  92.0496 96148.7 111
  93.0574 25448.3 29
  94.0652 26054.7 30
  99.0554 17481.8 20
  107.0606 24680.5 28
  108.0445 216638.8 252
  119.0605 1215.1 1
  121.0762 4668.3 5
  131.0605 8188.3 9
  132.0683 2798.9 3
  133.0637 2323.5 2
  145.0763 2466.4 2
  146.0715 135966.7 158
  147.0793 538400.6 626
  148.087 129937.8 151
  156.0116 857880.8 999
  160.087 389000.5 452
  161.0017 7109.8 8
  161.071 10801.1 12
  161.0943 2998.7 3
  163.0865 4882.1 5
  172.0872 14169.6 16
  173.0583 1608.2 1
  173.0713 2078.8 2
  176.0279 30703 35
  177.0121 4838.6 5
  188.0821 782417.1 911
  190.0976 245496.6 285
  193.0306 2975.1 3
  194.0384 318138.6 370
  236.0492 12556.4 14
  254.0596 7418.3 8
//
