ACCESSION: MSBNK-HBM4EU-HB003441
RECORD_TITLE: Asperphenamate; LC-ESI-ITFT; MS2; CE: 50%; R=7500; [M-H]-
DATE: 2021.10.11
AUTHORS: Laurent Debrauwer, Emilien L. Jamin, Research Centre in Food Toxicology (TOXALIM), INRAE, MetaboHUB-Metatoul platform, Toulouse, France
LICENSE: CC0
COPYRIGHT: Copyright (c) 2021 by Research Centre in Food Toxicology (TOXALIM), INRAE, MetaboHUB-Metatoul platform, Toulouse, France
COMMENT: HBM4EU - science and policy for a healthy future (https://www.hbm4eu.eu)
COMMENT: CONFIDENCE Reference Standard (Level 1)
COMMENT: INTERNAL_ID 131
CH$NAME: Asperphenamate
CH$NAME: (2-benzamido-3-phenylpropyl) 2-benzamido-3-phenylpropanoate
CH$COMPOUND_CLASS: N/A; Environmental Standard
CH$FORMULA: C32H30N2O4
CH$EXACT_MASS: 506.22056
CH$SMILES: C1=CC=C(C=C1)CC(COC(=O)C(CC2=CC=CC=C2)NC(=O)C3=CC=CC=C3)NC(=O)C4=CC=CC=C4
CH$IUPAC: InChI=1S/C32H30N2O4/c35-30(26-17-9-3-10-18-26)33-28(21-24-13-5-1-6-14-24)23-38-32(37)29(22-25-15-7-2-8-16-25)34-31(36)27-19-11-4-12-20-27/h1-20,28-29H,21-23H2,(H,33,35)(H,34,36)
CH$LINK: CAS 63631-36-7
CH$LINK: PUBCHEM CID:328238
CH$LINK: INCHIKEY CVULDJMCSSACEO-UHFFFAOYSA-N
CH$LINK: CHEMSPIDER 290710
CH$LINK: COMPTOX DTXSID80979841
AC$INSTRUMENT: LTQ Orbitrap XL Thermo Scientific
AC$INSTRUMENT_TYPE: LC-ESI-ITFT
AC$MASS_SPECTROMETRY: MS_TYPE MS2
AC$MASS_SPECTROMETRY: ION_MODE NEGATIVE
AC$MASS_SPECTROMETRY: IONIZATION ESI
AC$MASS_SPECTROMETRY: FRAGMENTATION_MODE HCD
AC$MASS_SPECTROMETRY: COLLISION_ENERGY 50 % (nominal)
AC$MASS_SPECTROMETRY: RESOLUTION 7500
AC$CHROMATOGRAPHY: COLUMN_NAME Hypersil GOLD C18 1.9 um 100 x 2.1 mm Thermo Fisher Scientific
AC$CHROMATOGRAPHY: FLOW_GRADIENT 100/0 at 0 min, 0/100 at 30 min, 0/100 at 35 min
AC$CHROMATOGRAPHY: FLOW_RATE 300 uL/min
AC$CHROMATOGRAPHY: RETENTION_TIME 23.957 min
AC$CHROMATOGRAPHY: SOLVENT A water with 5% methanol and 0.1% acetic acid
AC$CHROMATOGRAPHY: SOLVENT B methanol with 0.1% acetic acid
MS$FOCUSED_ION: BASE_PEAK 505.2145
MS$FOCUSED_ION: PRECURSOR_M/Z 505.2133
MS$FOCUSED_ION: PRECURSOR_TYPE [M-H]-
MS$FOCUSED_ION: PRECURSOR_INTENSITY 5480214.932617
MS$DATA_PROCESSING: RECALIBRATE loess on assigned fragments and MS1
MS$DATA_PROCESSING: REANALYZE Peaks with additional N2/O included
MS$DATA_PROCESSING: WHOLE RMassBank 3.2.0
PK$SPLASH: splash10-014i-0090000000-74f0db77ac797fb9d39b
PK$ANNOTATION: m/z tentative_formula formula_count mass error(ppm)
  120.0456 C7H6NO- 1 120.0455 1.18
  132.0461 C8H6NO- 1 132.0455 4.29
  147.0454 C9H7O2- 1 147.0452 1.77
  224.1083 C15H14NO- 1 224.1081 1.1
  268.098 C16H14NO3- 1 268.0979 0.28
PK$NUM_PEAK: 5
PK$PEAK: m/z int. rel.int.
  120.0456 9161.1 55
  132.0461 2213.6 13
  147.0454 2677.6 16
  224.1083 28941.7 174
  268.098 166109.4 999
//
