ACCESSION: MSBNK-HBM4EU-HB000659
RECORD_TITLE: Dosulepin; LC-ESI-ITFT; MS2; CE: 130%; R=15000; [M+H]+
DATE: 2018.09.08
AUTHORS: Tobias Schulze, Carolin Huber, Martin Krauss, Department of Effect-Directed Analysis, Helmholtz Centre for Environmental Research GmbH - UFZ, Leipzig, Germany
LICENSE: CC0
COPYRIGHT: Copyright (C) 2018
PUBLICATION: Oberacher H, Sasse M, Antignac J-P, Guitton Y, Debrauwer L, Jamin E L, Schulze T, Krauss M, Covaci A, Caballero-Casero N, Rosseau K, Damont A, Fenaille F, Lamoree M, Schymanski E, A European proposal for quality control and quality assurance of tandem mass spectral libraries, Environmental Sciences Europe, https://doi.org/10.1186/s12302-020-00314-9
COMMENT: CONFIDENCE Reference Standard (Level 1)
COMMENT: HBM4EU - science and policy for a healthy future (https://www.hbm4eu.eu)
CH$NAME: Dosulepin
CH$NAME: Dothiepin
CH$NAME: 3-(6H-benzo[c][1]benzothiepin-11-ylidene)-N,N-dimethylpropan-1-amine
CH$COMPOUND_CLASS: N/A; Environmental Standard
CH$FORMULA: C19H21NS
CH$EXACT_MASS: 295.1395
CH$SMILES: CN(C)CCC=C1C2=CC=CC=C2CSC3=CC=CC=C31
CH$IUPAC: InChI=1S/C19H21NS/c1-20(2)13-7-11-17-16-9-4-3-8-15(16)14-21-19-12-6-5-10-18(17)19/h3-6,8-12H,7,13-14H2,1-2H3
CH$LINK: CAS 113-53-1
CH$LINK: PUBCHEM CID:3155
CH$LINK: INCHIKEY PHTUQLWOUWZIMZ-UHFFFAOYSA-N
CH$LINK: CHEMSPIDER 3043
AC$INSTRUMENT: LTQ Orbitrap XL Thermo Scientific
AC$INSTRUMENT_TYPE: LC-ESI-ITFT
AC$MASS_SPECTROMETRY: MS_TYPE MS2
AC$MASS_SPECTROMETRY: ION_MODE POSITIVE
AC$MASS_SPECTROMETRY: IONIZATION ESI
AC$MASS_SPECTROMETRY: FRAGMENTATION_MODE CID
AC$MASS_SPECTROMETRY: COLLISION_ENERGY 130% (nominal)
AC$MASS_SPECTROMETRY: RESOLUTION 15000
AC$CHROMATOGRAPHY: COLUMN_NAME Kinetex Evo C18 2.6 um 50 x 2.1 mm
AC$CHROMATOGRAPHY: FLOW_GRADIENT 95/5 at 0 min, 95/5 at 1 min, 0/100 at 13 min, 0/100 at 24 min, 95/5 at 24.3 min, 95/5 at 32 min
AC$CHROMATOGRAPHY: FLOW_RATE 300 uL/min
AC$CHROMATOGRAPHY: RETENTION_TIME 8.160 min
AC$CHROMATOGRAPHY: SOLVENT A water with 0.1% formic acid
AC$CHROMATOGRAPHY: SOLVENT B methanol with 0.1% formic acid
MS$FOCUSED_ION: BASE_PEAK 296.1469
MS$FOCUSED_ION: PRECURSOR_M/Z 296.1467
MS$FOCUSED_ION: PRECURSOR_TYPE [M+H]+
MS$DATA_PROCESSING: RECALIBRATE loess on assigned fragments and MS1
MS$DATA_PROCESSING: REANALYZE Peaks with additional N2/O included
MS$DATA_PROCESSING: WHOLE RMassBank 2.9.1
PK$SPLASH: splash10-004i-0190000000-21f8c9b0bb503525cf36
PK$ANNOTATION: m/z tentative_formula formula_count mass error(ppm)
  91.0542 C7H7+ 1 91.0542 0.23
  117.0699 C9H9+ 1 117.0699 0.49
  123.0259 C7H7S+ 1 123.0263 -3.12
  141.0699 C11H9+ 1 141.0699 -0.09
  142.0779 C11H10+ 1 142.0777 1.74
  147.0263 C9H7S+ 1 147.0263 0.05
  173.0419 C11H9S+ 1 173.0419 -0.31
  191.0854 C15H11+ 1 191.0855 -0.65
  209.042 C14H9S+ 1 209.0419 0.48
  210.0496 C14H10S+ 1 210.0498 -0.6
  217.1013 C17H13+ 1 217.1012 0.38
  218.109 C17H14+ 1 218.109 0.18
  222.0499 C15H10S+ 1 222.0498 0.73
  223.0577 C15H11S+ 1 223.0576 0.26
  225.0732 C15H13S+ 1 225.0732 -0.18
  236.0653 C16H12S+ 1 236.0654 -0.36
  251.089 C17H15S+ 1 251.0889 0.31
  253.1047 C17H17S+ 1 253.1045 0.7
  265.1046 C18H17S+ 1 265.1045 0.19
PK$NUM_PEAK: 19
PK$PEAK: m/z int. rel.int.
  91.0542 138325.2 15
  117.0699 151514.9 17
  123.0259 60990.3 7
  141.0699 47097.2 5
  142.0779 55363.1 6
  147.0263 1774355.6 204
  173.0419 121322.5 13
  191.0854 299412 34
  209.042 633141.7 72
  210.0496 50383.4 5
  217.1013 314376.3 36
  218.109 1140328.8 131
  222.0499 376765.2 43
  223.0577 2764736.5 318
  225.0732 8685051 999
  236.0653 291893.6 33
  251.089 4257167 489
  253.1047 371918.5 42
  265.1046 53224.4 6
//
