ACCESSION: MSBNK-HBM4EU-HB003742
RECORD_TITLE: Verrucofortine; LC-ESI-ITFT; MS2; CE: 60%; R=7500; [M+H]+
DATE: 2021.10.11
AUTHORS: Laurent Debrauwer, Emilien L. Jamin, Research Centre in Food Toxicology (TOXALIM), INRAE, MetaboHUB-Metatoul platform, Toulouse, France
LICENSE: CC0
COPYRIGHT: Copyright (c) 2021 by Research Centre in Food Toxicology (TOXALIM), INRAE, MetaboHUB-Metatoul platform, Toulouse, France
COMMENT: HBM4EU - science and policy for a healthy future (https://www.hbm4eu.eu)
COMMENT: CONFIDENCE Reference Standard (Level 1)
COMMENT: INTERNAL_ID 81
CH$NAME: Verrucofortine
CH$NAME: 6-Acetyl-10b-(1,1-dimethyl-2-propenyl)-3-isobutyl-6,10b,11,11a-tetrahydro-2H-pyrazino[2`,1`:5,1]pyrrolo[2,3-b]indole-1,4(3H,5aH)-dione
CH$NAME: 16-acetyl-9-(2-methylbut-3-en-2-yl)-4-(2-methylpropyl)-2,5,16-triazatetracyclo[7.7.0.02,7.010,15]hexadeca-10,12,14-triene-3,6-dione
CH$COMPOUND_CLASS: N/A; Environmental Standard
CH$FORMULA: C24H31N3O3
CH$EXACT_MASS: 409.2365
CH$SMILES: CC(C)CC1C(=O)N2C(CC3(C2N(C4=CC=CC=C43)C(=O)C)C(C)(C)C=C)C(=O)N1
CH$IUPAC: InChI=1S/C24H31N3O3/c1-7-23(5,6)24-13-19-20(29)25-17(12-14(2)3)21(30)27(19)22(24)26(15(4)28)18-11-9-8-10-16(18)24/h7-11,14,17,19,22H,1,12-13H2,2-6H3,(H,25,29)
CH$LINK: CAS 113706-21-1
CH$LINK: PUBCHEM CID:494936
CH$LINK: INCHIKEY BMRZKNPRSPWNNW-UHFFFAOYSA-N
CH$LINK: CHEMSPIDER 433229
AC$INSTRUMENT: LTQ Orbitrap XL Thermo Scientific
AC$INSTRUMENT_TYPE: LC-ESI-ITFT
AC$MASS_SPECTROMETRY: MS_TYPE MS2
AC$MASS_SPECTROMETRY: ION_MODE POSITIVE
AC$MASS_SPECTROMETRY: IONIZATION ESI
AC$MASS_SPECTROMETRY: FRAGMENTATION_MODE HCD
AC$MASS_SPECTROMETRY: COLLISION_ENERGY 60 % (nominal)
AC$MASS_SPECTROMETRY: RESOLUTION 7500
AC$CHROMATOGRAPHY: COLUMN_NAME Hypersil GOLD C18 1.9 um 100 x 2.1 mm Thermo Fisher Scientific
AC$CHROMATOGRAPHY: FLOW_GRADIENT 100/0 at 0 min, 0/100 at 30 min, 0/100 at 35 min
AC$CHROMATOGRAPHY: FLOW_RATE 300 uL/min
AC$CHROMATOGRAPHY: RETENTION_TIME 21.507 min
AC$CHROMATOGRAPHY: SOLVENT A water with 5% methanol and 0.1% acetic acid
AC$CHROMATOGRAPHY: SOLVENT B methanol with 0.1% acetic acid
MS$FOCUSED_ION: BASE_PEAK 410.2453
MS$FOCUSED_ION: PRECURSOR_M/Z 410.2438
MS$FOCUSED_ION: PRECURSOR_TYPE [M+H]+
MS$FOCUSED_ION: PRECURSOR_INTENSITY 39959793.96484
MS$DATA_PROCESSING: RECALIBRATE loess on assigned fragments and MS1
MS$DATA_PROCESSING: REANALYZE Peaks with additional N2/O included
MS$DATA_PROCESSING: WHOLE RMassBank 3.2.0
PK$SPLASH: splash10-001i-0900000000-16cc38aa21a26df27ff8
PK$ANNOTATION: m/z tentative_formula formula_count mass error(ppm)
  69.0699 C5H9+ 1 69.0699 1.02
  72.2433 H30N3+ 1 72.2434 -1.87
  72.2562 CH32N2+ 1 72.256 2.42
  86.0965 C5H12N+ 1 86.0964 0.43
  118.0648 C8H8N+ 1 118.0651 -2.62
  130.0653 C9H8N+ 1 130.0651 1.53
  132.0809 C9H10N+ 1 132.0808 0.64
  141.1025 C7H13N2O+ 1 141.1022 2.03
  144.0812 C10H10N+ 1 144.0808 2.61
  159.0919 C10H11N2+ 1 159.0917 1.44
  170.0604 C11H8NO+ 1 170.06 1.87
  171.0919 C11H11N2+ 1 171.0917 1.56
  171.1132 C8H15N2O2+ 1 171.1128 2.3
  172.0759 C11H10NO+ 1 172.0757 1.24
  174.0915 C11H12NO+ 1 174.0913 0.97
  182.0605 C12H8NO+ 1 182.06 2.41
  187.0868 C11H11N2O+ 1 187.0866 1.32
  198.128 C14H16N+ 1 198.1277 1.44
  200.144 C14H18N+ 1 200.1434 3.27
  255.1492 C16H19N2O+ 1 255.1492 -0.07
  272.1768 C16H22N3O+ 2 272.1757 3.75
  300.1711 C17H22N3O2+ 2 300.1707 1.49
  312.1714 C20H24O3+ 2 312.172 -1.97
PK$NUM_PEAK: 23
PK$PEAK: m/z int. rel.int.
  69.0699 72020 25
  72.2433 5992 2
  72.2562 5448.7 1
  86.0965 13293.9 4
  118.0648 9509.8 3
  130.0653 2816350.8 999
  132.0809 81322.5 28
  141.1025 41413.3 14
  144.0812 72476.9 25
  159.0919 62113.5 22
  170.0604 110022.1 39
  171.0919 22177.9 7
  171.1132 22492.3 7
  172.0759 7451.8 2
  174.0915 23178.2 8
  182.0605 17090.3 6
  187.0868 15985.2 5
  198.128 174302.2 61
  200.144 7471.7 2
  255.1492 7222.5 2
  272.1768 5346.9 1
  300.1711 34087.8 12
  312.1714 22516.3 7
//
