ACCESSION: MSBNK-HBM4EU-HB002525
RECORD_TITLE: Dothiepin; LC-ESI-QTOF; MS2; CE: 40 eV; R=3600; [M+H]+
DATE: 2020.02.20
AUTHORS: Noelia Caballero-Casero, Adrian Covaci, Toxicological Center, University of Antwerp, Wilrijk, Belgium
LICENSE: CC0
COPYRIGHT: Copyright (c) by Toxicological Center, University of Antwerp, Wilrijk, Belgium
PUBLICATION: Oberacher H, Sasse M, Antignac J-P, Guitton Y, Debrauwer L, Jamin E L, Schulze T, Krauss M, Covaci A, Caballero-Casero N, Rosseau K, Damont A, Fenaille F, Lamoree M, Schymanski E, A European proposal for quality control and quality assurance of tandem mass spectral libraries, Environmental Sciences Europe, https://doi.org/10.1186/s12302-020-00314-9
COMMENT: CONFIDENCE Reference Standard (Level 1)
COMMENT: HBM4EU - science and policy for a healthy future (https://www.hbm4eu.eu)
COMMENT: Flow Injection
CH$NAME: Dothiepin
CH$NAME: 3-(Dibenzo[b,e]thiepin-11(6H)-ylidene)-N,N-dimethylpropan-1-amine
CH$COMPOUND_CLASS: N/A; Environmental Standard
CH$FORMULA: C19H21NS
CH$EXACT_MASS: 295.1395
CH$SMILES: CN(C)CCC=C1C2=CC=CC=C2CSC2=C1C=CC=C2
CH$IUPAC: InChI=1S/C19H21NS/c1-20(2)13-7-11-17-16-9-4-3-8-15(16)14-21-19-12-6-5-10-18(17)19/h3-6,8-12H,7,13-14H2,1-2H3
CH$LINK: CAS 113-53-1
CH$LINK: COMPTOX DTXSID2022961
CH$LINK: INCHIKEY PHTUQLWOUWZIMZ-UHFFFAOYSA-N
CH$LINK: PUBCHEM CID:3155
AC$INSTRUMENT: 6586 QTOF Agilent
AC$INSTRUMENT_TYPE: LC-ESI-QTOF
AC$MASS_SPECTROMETRY: MS_TYPE MS2
AC$MASS_SPECTROMETRY: ION_MODE POSITIVE
AC$MASS_SPECTROMETRY: IONIZATION ESI
AC$MASS_SPECTROMETRY: FRAGMENTATION_MODE CID
AC$MASS_SPECTROMETRY: COLLISION_ENERGY 40 eV
AC$MASS_SPECTROMETRY: RESOLUTION 3600
AC$CHROMATOGRAPHY: FLOW_GRADIENT 50/50
AC$CHROMATOGRAPHY: FLOW_RATE 300 uL/min
AC$CHROMATOGRAPHY: SOLVENT A water
AC$CHROMATOGRAPHY: SOLVENT B methanol
MS$FOCUSED_ION: PRECURSOR_M/Z 296.1468
MS$FOCUSED_ION: PRECURSOR_TYPE [M+H]+
PK$SPLASH: splash10-0v4i-1590000000-5fa8f7ca0d4cd9a96586
PK$NUM_PEAK: 31
PK$PEAK: m/z int. rel.int.
  44.98 29022.8 137
  58.0658 45357.2 215
  65.0384 13198.4 62
  91.0541 87470.9 414
  115.0536 74623.4 353
  117.0693 33592.8 159
  123.0255 12058.2 57
  128.061 15788.7 75
  129.0687 12035.4 57
  141.0688 17412.3 82
  147.0255 22937.9 108
  165.0692 66374.3 314
  178.0765 139756.5 661
  189.0689 24646.3 117
  190.0764 13816.7 65
  191.0846 42921.1 203
  192.0918 17181.2 81
  201.069 11610.8 55
  202.0766 211231.9 999
  203.084 131315.5 621
  208.033 17334.7 82
  209.041 11517.4 54
  210.0487 30418 144
  215.0846 49491.2 234
  216.091 17153.7 81
  217.1 67662.7 320
  218.1069 25908.9 123
  221.0409 208346.1 985
  223.0569 29824.7 141
  234.0485 26457.6 125
  235.0564 27100 128
//
