ACCESSION: MSBNK-HBM4EU-HB001721
RECORD_TITLE: Sulfamoxole; LC-ESI-ITFT; MS2; CE: 70%; R=15000; [M+H]+
DATE: 2018.09.08
AUTHORS: Tobias Schulze, Carolin Huber, Martin Krauss, Department of Effect-Directed Analysis, Helmholtz Centre for Environmental Research GmbH - UFZ, Leipzig, Germany
LICENSE: CC0
COPYRIGHT: Copyright (C) 2018
PUBLICATION: Oberacher H, Sasse M, Antignac J-P, Guitton Y, Debrauwer L, Jamin E L, Schulze T, Krauss M, Covaci A, Caballero-Casero N, Rosseau K, Damont A, Fenaille F, Lamoree M, Schymanski E, A European proposal for quality control and quality assurance of tandem mass spectral libraries, Environmental Sciences Europe, https://doi.org/10.1186/s12302-020-00314-9
COMMENT: CONFIDENCE Reference Standard (Level 1)
COMMENT: HBM4EU - science and policy for a healthy future (https://www.hbm4eu.eu)
CH$NAME: Sulfamoxole
CH$NAME: 4-amino-N-(4,5-dimethyl-1,3-oxazol-2-yl)benzenesulfonamide
CH$COMPOUND_CLASS: N/A; Environmental Standard
CH$FORMULA: C11H13N3O3S
CH$EXACT_MASS: 267.0678
CH$SMILES: CC1=C(OC(=N1)NS(=O)(=O)C2=CC=C(C=C2)N)C
CH$IUPAC: InChI=1S/C11H13N3O3S/c1-7-8(2)17-11(13-7)14-18(15,16)10-5-3-9(12)4-6-10/h3-6H,12H2,1-2H3,(H,13,14)
CH$LINK: CAS 729-99-7
CH$LINK: CHEBI CHEBI:55548
CH$LINK: KEGG D02516
CH$LINK: PUBCHEM CID:12894
CH$LINK: INCHIKEY CYFLXLSBHQBMFT-UHFFFAOYSA-N
CH$LINK: CHEMSPIDER 12361
AC$INSTRUMENT: LTQ Orbitrap XL Thermo Scientific
AC$INSTRUMENT_TYPE: LC-ESI-ITFT
AC$MASS_SPECTROMETRY: MS_TYPE MS2
AC$MASS_SPECTROMETRY: ION_MODE POSITIVE
AC$MASS_SPECTROMETRY: IONIZATION ESI
AC$MASS_SPECTROMETRY: FRAGMENTATION_MODE HCD
AC$MASS_SPECTROMETRY: COLLISION_ENERGY 70% (nominal)
AC$MASS_SPECTROMETRY: RESOLUTION 15000
AC$CHROMATOGRAPHY: COLUMN_NAME Kinetex Evo C18 2.6 um 50 x 2.1 mm
AC$CHROMATOGRAPHY: FLOW_GRADIENT 95/5 at 0 min, 95/5 at 1 min, 0/100 at 13 min, 0/100 at 24 min, 95/5 at 24.3 min, 95/5 at 32 min
AC$CHROMATOGRAPHY: FLOW_RATE 300 uL/min
AC$CHROMATOGRAPHY: RETENTION_TIME 3.950 min
AC$CHROMATOGRAPHY: SOLVENT A water with 0.1% formic acid
AC$CHROMATOGRAPHY: SOLVENT B methanol with 0.1% formic acid
MS$FOCUSED_ION: BASE_PEAK 268.0749
MS$FOCUSED_ION: PRECURSOR_M/Z 268.075
MS$FOCUSED_ION: PRECURSOR_TYPE [M+H]+
MS$DATA_PROCESSING: RECALIBRATE loess on assigned fragments and MS1
MS$DATA_PROCESSING: REANALYZE Peaks with additional N2/O included
MS$DATA_PROCESSING: WHOLE RMassBank 2.9.1
PK$SPLASH: splash10-06r6-6900000000-a273e16fd84b9d008c07
PK$ANNOTATION: m/z tentative_formula formula_count mass error(ppm)
  65.0384 C5H5+ 1 65.0386 -3.29
  68.0492 C4H6N+ 1 68.0495 -4.09
  69.0571 C4H7N+ 1 69.0573 -2.48
  70.065 C4H8N+ 1 70.0651 -2.23
  80.0495 C5H6N+ 1 80.0495 -0.32
  83.0604 C4H7N2+ 1 83.0604 0.48
  92.0495 C6H6N+ 1 92.0495 0.19
  93.0571 C6H7N+ 1 93.0573 -2.27
  108.0444 C6H6NO+ 1 108.0444 0.32
  110.0601 C6H8NO+ 1 110.06 0.14
  111.0553 C5H7N2O+ 1 111.0553 0.33
  112.0631 C5H8N2O+ 1 112.0631 0.21
  113.0709 C5H9N2O+ 1 113.0709 0.02
  120.0557 C6H6N3+ 1 120.0556 0.47
  140.0165 C6H6NOS+ 1 140.0165 0.24
  156.0114 C6H6NO2S+ 1 156.0114 0.17
PK$NUM_PEAK: 16
PK$PEAK: m/z int. rel.int.
  65.0384 63860.6 117
  68.0492 1608.8 2
  69.0571 13156 24
  70.065 32935.8 60
  80.0495 6499.4 11
  83.0604 1770.5 3
  92.0495 544078.7 999
  93.0571 1223.5 2
  108.0444 380438.2 698
  110.0601 40433.5 74
  111.0553 16733.4 30
  112.0631 80606.9 148
  113.0709 260250.3 477
  120.0557 10982.5 20
  140.0165 25158.8 46
  156.0114 42318.6 77
//
