ACCESSION: MSBNK-HBM4EU-HB003445
RECORD_TITLE: Aspochalasin 1; LC-ESI-ITFT; MS2; CE: 30%; R=7500; [M-H]-
DATE: 2021.10.11
AUTHORS: Laurent Debrauwer, Emilien L. Jamin, Research Centre in Food Toxicology (TOXALIM), INRAE, MetaboHUB-Metatoul platform, Toulouse, France
LICENSE: CC0
COPYRIGHT: Copyright (c) 2021 by Research Centre in Food Toxicology (TOXALIM), INRAE, MetaboHUB-Metatoul platform, Toulouse, France
COMMENT: HBM4EU - science and policy for a healthy future (https://www.hbm4eu.eu)
COMMENT: CONFIDENCE Reference Standard (Level 1)
COMMENT: INTERNAL_ID 132
CH$NAME: Aspochalasin 1
CH$COMPOUND_CLASS: N/A; Environmental Standard
CH$FORMULA: C24H35NO5
CH$EXACT_MASS: 417.25152
CH$SMILES: CC(C)C[C@@H]1NC(=O)[C@]23OC(=O)C=C[C@@H](O)[C@@H](O)CCC(C)=C[C@H]3C=C(C)[C@@H](C)[C@@H]12
CH$IUPAC: InChI=1S/C24H35NO5/c1-13(2)10-18-22-16(5)15(4)12-17-11-14(3)6-7-19(26)20(27)8-9-21(28)30-24(17,22)23(29)25-18/h8-9,11-13,16-20,22,26-27H,6-7,10H2,1-5H3,(H,25,29)/t16-,17+,18+,19+,20-,22+,24-/m1/s1
CH$LINK: CAS 71968-02-0
CH$LINK: INCHIKEY TYOGSRFPSVCJQL-JMFILFSWSA-N
AC$INSTRUMENT: LTQ Orbitrap XL Thermo Scientific
AC$INSTRUMENT_TYPE: LC-ESI-ITFT
AC$MASS_SPECTROMETRY: MS_TYPE MS2
AC$MASS_SPECTROMETRY: ION_MODE NEGATIVE
AC$MASS_SPECTROMETRY: IONIZATION ESI
AC$MASS_SPECTROMETRY: FRAGMENTATION_MODE HCD
AC$MASS_SPECTROMETRY: COLLISION_ENERGY 30 % (nominal)
AC$MASS_SPECTROMETRY: RESOLUTION 7500
AC$CHROMATOGRAPHY: COLUMN_NAME Hypersil GOLD C18 1.9 um 100 x 2.1 mm Thermo Fisher Scientific
AC$CHROMATOGRAPHY: FLOW_GRADIENT 100/0 at 0 min, 0/100 at 30 min, 0/100 at 35 min
AC$CHROMATOGRAPHY: FLOW_RATE 300 uL/min
AC$CHROMATOGRAPHY: RETENTION_TIME 23.546 min
AC$CHROMATOGRAPHY: SOLVENT A water with 5% methanol and 0.1% acetic acid
AC$CHROMATOGRAPHY: SOLVENT B methanol with 0.1% acetic acid
MS$FOCUSED_ION: BASE_PEAK 476.2652
MS$FOCUSED_ION: PRECURSOR_M/Z 416.2442
MS$FOCUSED_ION: PRECURSOR_TYPE [M-H]-
MS$FOCUSED_ION: PRECURSOR_INTENSITY 5004883.491699
MS$DATA_PROCESSING: RECALIBRATE loess on assigned fragments and MS1
MS$DATA_PROCESSING: REANALYZE Peaks with additional N2/O included
MS$DATA_PROCESSING: WHOLE RMassBank 3.2.0
PK$SPLASH: splash10-0gb9-0710900000-9e2220d93b1b940811c5
PK$ANNOTATION: m/z tentative_formula formula_count mass error(ppm)
  73.1811 H25O3- 1 73.1809 2.67
  113.0243 C5H5O3- 1 113.0244 -1.3
  127.04 C6H7O3- 1 127.0401 -0.55
  135.1172 C10H15- 1 135.1179 -4.99
  136.0774 C8H10NO- 1 136.0768 4.15
  154.0869 C8H12NO2- 1 154.0874 -2.67
  180.1025 C10H14NO2- 1 180.103 -2.55
  217.1591 C15H21O- 1 217.1598 -3.39
  235.133 C14H19O3- 1 235.134 -4.16
  261.1487 C16H21O3- 1 261.1496 -3.46
  288.1954 C15H28O5- 1 288.1942 4.13
  398.233 C24H32NO4- 1 398.2337 -1.79
  416.2432 C24H34NO5- 1 416.2442 -2.51
PK$NUM_PEAK: 13
PK$PEAK: m/z int. rel.int.
  73.1811 2727.1 6
  113.0243 13771.7 31
  127.04 3348.1 7
  135.1172 5997.2 13
  136.0774 4478.1 10
  154.0869 338311.1 767
  180.1025 15495.3 35
  217.1591 18563.5 42
  235.133 1881.2 4
  261.1487 54296.7 123
  288.1954 10883.7 24
  398.233 7065.2 16
  416.2432 440090.6 999
//
