ACCESSION: MSBNK-HBM4EU-HB001353
RECORD_TITLE: Antipyrine; LC-ESI-ITFT; MS2; CE: 170%; R=15000; [M+H]+
DATE: 2018.09.08
AUTHORS: Tobias Schulze, Carolin Huber, Martin Krauss, Department of Effect-Directed Analysis, Helmholtz Centre for Environmental Research GmbH - UFZ, Leipzig, Germany
LICENSE: CC0
COPYRIGHT: Copyright (C) 2018
PUBLICATION: Oberacher H, Sasse M, Antignac J-P, Guitton Y, Debrauwer L, Jamin E L, Schulze T, Krauss M, Covaci A, Caballero-Casero N, Rosseau K, Damont A, Fenaille F, Lamoree M, Schymanski E, A European proposal for quality control and quality assurance of tandem mass spectral libraries, Environmental Sciences Europe, https://doi.org/10.1186/s12302-020-00314-9
COMMENT: CONFIDENCE Reference Standard (Level 1)
COMMENT: HBM4EU - science and policy for a healthy future (https://www.hbm4eu.eu)
CH$NAME: Antipyrine
CH$NAME: 1,5-dimethyl-2-phenylpyrazol-3-one
CH$COMPOUND_CLASS: N/A; Environmental Standard
CH$FORMULA: C11H12N2O
CH$EXACT_MASS: 188.0950
CH$SMILES: CC1=CC(=O)N(N1C)C2=CC=CC=C2
CH$IUPAC: InChI=1S/C11H12N2O/c1-9-8-11(14)13(12(9)2)10-6-4-3-5-7-10/h3-8H,1-2H3
CH$LINK: CAS 60-80-0
CH$LINK: CHEBI CHEBI:31225
CH$LINK: KEGG D01776
CH$LINK: PUBCHEM CID:2206
CH$LINK: INCHIKEY VEQOALNAAJBPNY-UHFFFAOYSA-N
CH$LINK: CHEMSPIDER 2121
AC$INSTRUMENT: LTQ Orbitrap XL Thermo Scientific
AC$INSTRUMENT_TYPE: LC-ESI-ITFT
AC$MASS_SPECTROMETRY: MS_TYPE MS2
AC$MASS_SPECTROMETRY: ION_MODE POSITIVE
AC$MASS_SPECTROMETRY: IONIZATION ESI
AC$MASS_SPECTROMETRY: FRAGMENTATION_MODE HCD
AC$MASS_SPECTROMETRY: COLLISION_ENERGY 170% (nominal)
AC$MASS_SPECTROMETRY: RESOLUTION 15000
AC$CHROMATOGRAPHY: COLUMN_NAME Kinetex Evo C18 2.6 um 50 x 2.1 mm
AC$CHROMATOGRAPHY: FLOW_GRADIENT 95/5 at 0 min, 95/5 at 1 min, 0/100 at 13 min, 0/100 at 24 min, 95/5 at 24.3 min, 95/5 at 32 min
AC$CHROMATOGRAPHY: FLOW_RATE 300 uL/min
AC$CHROMATOGRAPHY: RETENTION_TIME 5.555 min
AC$CHROMATOGRAPHY: SOLVENT A water with 0.1% formic acid
AC$CHROMATOGRAPHY: SOLVENT B methanol with 0.1% formic acid
MS$FOCUSED_ION: BASE_PEAK 189.1023
MS$FOCUSED_ION: PRECURSOR_M/Z 189.1022
MS$FOCUSED_ION: PRECURSOR_TYPE [M+H]+
MS$DATA_PROCESSING: RECALIBRATE loess on assigned fragments and MS1
MS$DATA_PROCESSING: REANALYZE Peaks with additional N2/O included
MS$DATA_PROCESSING: WHOLE RMassBank 2.9.1
PK$SPLASH: splash10-056r-9800000000-0ccaeaca6d445d447c69
PK$ANNOTATION: m/z tentative_formula formula_count mass error(ppm)
  54.0336 C3H4N+ 1 54.0338 -4.36
  58.0649 C3H8N+ 1 58.0651 -4.41
  65.0384 C5H5+ 1 65.0386 -2.78
  75.0229 C6H3+ 1 75.0229 -0.59
  77.0385 C6H5+ 1 77.0386 -0.76
  78.0464 C6H6+ 1 78.0464 -0.22
  79.0542 C6H7+ 1 79.0542 -0.85
  80.0496 C5H6N+ 1 80.0495 1.51
  81.0446 C4H5N2+ 1 81.0447 -2.12
  82.0287 C4H4NO+ 1 82.0287 -0.15
  89.0386 C7H5+ 1 89.0386 -0.1
  90.0464 C7H6+ 1 90.0464 -0.26
  91.0542 C7H7+ 1 91.0542 -0.09
  92.0493 C6H6N+ 1 92.0495 -1.96
  93.0574 C6H7N+ 1 93.0573 1.33
  95.0491 C6H7O+ 1 95.0491 -0.08
  95.06 C5H7N2+ 1 95.0604 -3.65
  102.0464 C8H6+ 1 102.0464 0.31
  103.0542 C8H7+ 1 103.0542 0.15
  104.0495 C7H6N+ 1 104.0495 -0.12
  105.0447 C6H5N2+ 1 105.0447 -0.15
  106.065 C7H8N+ 1 106.0651 -0.95
  115.0542 C9H7+ 1 115.0542 0
  117.0572 C8H7N+ 1 117.0573 -0.98
  118.0651 C8H8N+ 1 118.0651 -0.05
  128.0492 C9H6N+ 1 128.0495 -1.94
  129.045 C8H5N2+ 1 129.0447 2.24
  130.0651 C9H8N+ 1 130.0651 -0.25
  131.0603 C8H7N2+ 1 131.0604 -0.23
  145.0761 C9H9N2+ 1 145.076 0.5
PK$NUM_PEAK: 30
PK$PEAK: m/z int. rel.int.
  54.0336 34837.8 33
  58.0649 79389 76
  65.0384 256558 247
  75.0229 20432.9 19
  77.0385 1036289.2 999
  78.0464 93759.9 90
  79.0542 72325.9 69
  80.0496 18390.5 17
  81.0446 28107.5 27
  82.0287 16887.3 16
  89.0386 71503.9 68
  90.0464 61033.8 58
  91.0542 215367.6 207
  92.0493 27905.8 26
  93.0574 28963.9 27
  95.0491 244917.7 236
  95.06 40141.2 38
  102.0464 63115.3 60
  103.0542 102577.9 98
  104.0495 250659.8 241
  105.0447 978753.5 943
  106.065 72649.3 70
  115.0542 187523.6 180
  117.0572 60749.4 58
  118.0651 46964.2 45
  128.0492 29261.9 28
  129.045 19086.6 18
  130.0651 132881.6 128
  131.0603 145640.4 140
  145.0761 36399.3 35
//
