ACCESSION: MSBNK-HBM4EU-HB003709
RECORD_TITLE: Mycophenolic Acid; LC-ESI-ITFT; MS2; CE: 60%; R=7500; [M+H]+
DATE: 2021.10.11
AUTHORS: Laurent Debrauwer, Emilien L. Jamin, Research Centre in Food Toxicology (TOXALIM), INRAE, MetaboHUB-Metatoul platform, Toulouse, France
LICENSE: CC0
COPYRIGHT: Copyright (c) 2021 by Research Centre in Food Toxicology (TOXALIM), INRAE, MetaboHUB-Metatoul platform, Toulouse, France
COMMENT: HBM4EU - science and policy for a healthy future (https://www.hbm4eu.eu)
COMMENT: CONFIDENCE Reference Standard (Level 1)
COMMENT: INTERNAL_ID 74
CH$NAME: Mycophenolic Acid
CH$NAME: (E)-6-(4-hydroxy-6-methoxy-7-methyl-3-oxo-1H-2-benzofuran-5-yl)-4-methylhex-4-enoic acid
CH$COMPOUND_CLASS: N/A; Environmental Standard
CH$FORMULA: C17H20O6
CH$EXACT_MASS: 320.1260
CH$SMILES: CC1=C2COC(=O)C2=C(C(=C1OC)C/C=C(\C)/CCC(=O)O)O
CH$IUPAC: InChI=1S/C17H20O6/c1-9(5-7-13(18)19)4-6-11-15(20)14-12(8-23-17(14)21)10(2)16(11)22-3/h4,20H,5-8H2,1-3H3,(H,18,19)/b9-4+
CH$LINK: CAS 24280-93-1
CH$LINK: CHEBI CHEBI:92545
CH$LINK: KEGG C20380
CH$LINK: PUBCHEM CID:446541
CH$LINK: INCHIKEY HPNSFSBZBAHARI-RUDMXATFSA-N
CH$LINK: CHEMSPIDER 393865
CH$LINK: COMPTOX DTXSID4041070
AC$INSTRUMENT: LTQ Orbitrap XL Thermo Scientific
AC$INSTRUMENT_TYPE: LC-ESI-ITFT
AC$MASS_SPECTROMETRY: MS_TYPE MS2
AC$MASS_SPECTROMETRY: ION_MODE POSITIVE
AC$MASS_SPECTROMETRY: IONIZATION ESI
AC$MASS_SPECTROMETRY: FRAGMENTATION_MODE HCD
AC$MASS_SPECTROMETRY: COLLISION_ENERGY 60 % (nominal)
AC$MASS_SPECTROMETRY: RESOLUTION 7500
AC$CHROMATOGRAPHY: COLUMN_NAME Hypersil GOLD C18 1.9 um 100 x 2.1 mm Thermo Fisher Scientific
AC$CHROMATOGRAPHY: FLOW_GRADIENT 100/0 at 0 min, 0/100 at 30 min, 0/100 at 35 min
AC$CHROMATOGRAPHY: FLOW_RATE 300 uL/min
AC$CHROMATOGRAPHY: RETENTION_TIME 19.426 min
AC$CHROMATOGRAPHY: SOLVENT A water with 5% methanol and 0.1% acetic acid
AC$CHROMATOGRAPHY: SOLVENT B methanol with 0.1% acetic acid
MS$FOCUSED_ION: BASE_PEAK 321.1337
MS$FOCUSED_ION: PRECURSOR_M/Z 321.1333
MS$FOCUSED_ION: PRECURSOR_TYPE [M+H]+
MS$FOCUSED_ION: PRECURSOR_INTENSITY 22637468.6123
MS$DATA_PROCESSING: RECALIBRATE loess on assigned fragments and MS1
MS$DATA_PROCESSING: REANALYZE Peaks with additional N2/O included
MS$DATA_PROCESSING: WHOLE RMassBank 3.2.0
PK$SPLASH: splash10-0a4i-0490000000-193f188da0fe24167797
PK$ANNOTATION: m/z tentative_formula formula_count mass error(ppm)
  81.07 C6H9+ 1 81.0699 1.16
  159.0441 C10H7O2+ 1 159.0441 0.26
  161.0599 C10H9O2+ 1 161.0597 1.34
  175.076 C11H11O2+ 1 175.0754 3.88
  177.0546 C10H9O3+ 1 177.0546 0.1
  179.0704 C10H11O3+ 1 179.0703 0.88
  195.0653 C10H11O4+ 1 195.0652 0.8
  207.0653 C11H11O4+ 1 207.0652 0.49
  215.1063 C14H15O2+ 1 215.1067 -1.51
  219.0644 C12H11O4+ 1 219.0652 -3.57
  223.0604 C11H11O5+ 1 223.0601 1.32
  285.1119 C17H17O4+ 1 285.1121 -0.97
PK$NUM_PEAK: 12
PK$PEAK: m/z int. rel.int.
  81.07 3099.3 3
  159.0441 254300.7 321
  161.0599 3648.4 4
  175.076 6207.7 7
  177.0546 81073.2 102
  179.0704 6158.9 7
  195.0653 26875.2 33
  207.0653 790722 999
  215.1063 7364.1 9
  219.0644 3601.2 4
  223.0604 6847.2 8
  285.1119 9318.4 11
//
