ACCESSION: MSBNK-HBM4EU-HB002273
RECORD_TITLE: Cyclizine; LC-ESI-ITFT; MS2; CE: 60%; R=7500; [M+H]+
DATE: 2020.02.20
AUTHORS: Laurent Debrauwer, Emilien L. Jamin, Research Centre in Food Toxicology (TOXALIM), INRAE, MetaboHUB-Metatoul platform, Toulouse, France
LICENSE: CC0
COPYRIGHT: Copyright (c) 2000 by Research Centre in Food Toxicology (TOXALIM), INRAE, MetaboHUB-Metatoul platform, Toulouse, France
PUBLICATION: Oberacher H, Sasse M, Antignac J-P, Guitton Y, Debrauwer L, Jamin E L, Schulze T, Krauss M, Covaci A, Caballero-Casero N, Rosseau K, Damont A, Fenaille F, Lamoree M, Schymanski E, A European proposal for quality control and quality assurance of tandem mass spectral libraries, Environmental Sciences Europe, https://doi.org/10.1186/s12302-020-00314-9
COMMENT: CONFIDENCE Reference Standard (Level 1)
COMMENT: HBM4EU - science and policy for a healthy future (https://www.hbm4eu.eu)
CH$NAME: Cyclizine
CH$NAME: 1-(Diphenylmethyl)-4-methylpiperazine
CH$COMPOUND_CLASS: N/A; Environmental Standard
CH$FORMULA: C18H22N2
CH$EXACT_MASS: 266.1783
CH$SMILES: CN1CCN(CC1)C(C1=CC=CC=C1)C1=CC=CC=C1
CH$IUPAC: InChI=1S/C18H22N2/c1-19-12-14-20(15-13-19)18(16-8-4-2-5-9-16)17-10-6-3-7-11-17/h2-11,18H,12-15H2,1H3
CH$LINK: CAS 82-92-8
CH$LINK: COMPTOX DTXSID4022864
CH$LINK: INCHIKEY UVKZSORBKUEBAZ-UHFFFAOYSA-N
CH$LINK: PUBCHEM CID:6726
AC$INSTRUMENT: LTQ Orbitrap XL Thermo Fisher Scientific
AC$INSTRUMENT_TYPE: LC-ESI-ITFT
AC$MASS_SPECTROMETRY: MS_TYPE MS2
AC$MASS_SPECTROMETRY: ION_MODE POSITIVE
AC$MASS_SPECTROMETRY: IONIZATION ESI
AC$MASS_SPECTROMETRY: FRAGMENTATION_MODE HCD
AC$MASS_SPECTROMETRY: COLLISION_ENERGY 60% (nominal)
AC$MASS_SPECTROMETRY: RESOLUTION 7500
AC$CHROMATOGRAPHY: COLUMN_NAME Hypersil GOLD C18 1.9 um 100 x 2.1 mm Thermo Fisher Scientific
AC$CHROMATOGRAPHY: FLOW_GRADIENT 100/0 at 0 min, 0/100 at 30 min, 0/100 at 35 min
AC$CHROMATOGRAPHY: FLOW_RATE 300 uL/min
AC$CHROMATOGRAPHY: SOLVENT A water with 5% methanol and 0.1% acetic acid
AC$CHROMATOGRAPHY: SOLVENT B methanol with 0.1% acetic acid
MS$FOCUSED_ION: PRECURSOR_M/Z 267.1856
MS$FOCUSED_ION: PRECURSOR_TYPE [M+H]+
PK$SPLASH: splash10-014i-0900000000-61a9aa7b0a9505745c39
PK$NUM_PEAK: 7
PK$PEAK: m/z int. rel.int.
  57.1413 16031.5 1
  57.1596 11809.8 1
  99.0917 36676.4 2
  152.0622 542469 30
  165.0703 858947.8 48
  166.0783 281975.6 16
  167.0857 17812734 999
//
