ACCESSION: MSBNK-HBM4EU-HB000605
RECORD_TITLE: Dosulepin; LC-ESI-ITFT; MS2; CE: 30%; R=15000; [M+H]+
DATE: 2018.09.08
AUTHORS: Tobias Schulze, Carolin Huber, Martin Krauss, Department of Effect-Directed Analysis, Helmholtz Centre for Environmental Research GmbH - UFZ, Leipzig, Germany
LICENSE: CC0
COPYRIGHT: Copyright (C) 2018
PUBLICATION: Oberacher H, Sasse M, Antignac J-P, Guitton Y, Debrauwer L, Jamin E L, Schulze T, Krauss M, Covaci A, Caballero-Casero N, Rosseau K, Damont A, Fenaille F, Lamoree M, Schymanski E, A European proposal for quality control and quality assurance of tandem mass spectral libraries, Environmental Sciences Europe, https://doi.org/10.1186/s12302-020-00314-9
COMMENT: CONFIDENCE Reference Standard (Level 1)
COMMENT: HBM4EU - science and policy for a healthy future (https://www.hbm4eu.eu)
CH$NAME: Dosulepin
CH$NAME: Dothiepin
CH$NAME: 3-(6H-benzo[c][1]benzothiepin-11-ylidene)-N,N-dimethylpropan-1-amine
CH$COMPOUND_CLASS: N/A; Environmental Standard
CH$FORMULA: C19H21NS
CH$EXACT_MASS: 295.1395
CH$SMILES: CN(C)CCC=C1C2=CC=CC=C2CSC3=CC=CC=C31
CH$IUPAC: InChI=1S/C19H21NS/c1-20(2)13-7-11-17-16-9-4-3-8-15(16)14-21-19-12-6-5-10-18(17)19/h3-6,8-12H,7,13-14H2,1-2H3
CH$LINK: CAS 113-53-1
CH$LINK: PUBCHEM CID:3155
CH$LINK: INCHIKEY PHTUQLWOUWZIMZ-UHFFFAOYSA-N
CH$LINK: CHEMSPIDER 3043
AC$INSTRUMENT: LTQ Orbitrap XL Thermo Scientific
AC$INSTRUMENT_TYPE: LC-ESI-ITFT
AC$MASS_SPECTROMETRY: MS_TYPE MS2
AC$MASS_SPECTROMETRY: ION_MODE POSITIVE
AC$MASS_SPECTROMETRY: IONIZATION ESI
AC$MASS_SPECTROMETRY: FRAGMENTATION_MODE HCD
AC$MASS_SPECTROMETRY: COLLISION_ENERGY 30% (nominal)
AC$MASS_SPECTROMETRY: RESOLUTION 15000
AC$CHROMATOGRAPHY: COLUMN_NAME Kinetex Evo C18 2.6 um 50 x 2.1 mm
AC$CHROMATOGRAPHY: FLOW_GRADIENT 95/5 at 0 min, 95/5 at 1 min, 0/100 at 13 min, 0/100 at 24 min, 95/5 at 24.3 min, 95/5 at 32 min
AC$CHROMATOGRAPHY: FLOW_RATE 300 uL/min
AC$CHROMATOGRAPHY: RETENTION_TIME 8.193 min
AC$CHROMATOGRAPHY: SOLVENT A water with 0.1% formic acid
AC$CHROMATOGRAPHY: SOLVENT B methanol with 0.1% formic acid
MS$FOCUSED_ION: BASE_PEAK 296.1469
MS$FOCUSED_ION: PRECURSOR_M/Z 296.1467
MS$FOCUSED_ION: PRECURSOR_TYPE [M+H]+
MS$DATA_PROCESSING: RECALIBRATE loess on assigned fragments and MS1
MS$DATA_PROCESSING: REANALYZE Peaks with additional N2/O included
MS$DATA_PROCESSING: WHOLE RMassBank 2.9.1
PK$SPLASH: splash10-0002-0090000000-84e589ccb2759b9c97b7
PK$ANNOTATION: m/z tentative_formula formula_count mass error(ppm)
  91.0542 C7H7+ 1 91.0542 -0.51
  117.0698 C9H9+ 1 117.0699 -0.37
  123.0261 C7H7S+ 1 123.0263 -1.44
  147.0262 C9H7S+ 1 147.0263 -0.93
  173.0416 C11H9S+ 1 173.0419 -2.19
  191.0854 C15H11+ 1 191.0855 -0.49
  209.0423 C14H9S+ 1 209.0419 1.67
  217.1009 C17H13+ 1 217.1012 -1.07
  218.1089 C17H14+ 1 218.109 -0.35
  222.0499 C15H10S+ 1 222.0498 0.61
  223.0575 C15H11S+ 1 223.0576 -0.48
  225.0731 C15H13S+ 1 225.0732 -0.58
  236.0658 C16H12S+ 1 236.0654 1.74
  251.0888 C17H15S+ 1 251.0889 -0.25
  253.1043 C17H17S+ 1 253.1045 -1.13
  296.1467 C19H22NS+ 1 296.1467 -0.09
PK$NUM_PEAK: 16
PK$PEAK: m/z int. rel.int.
  91.0542 107013.5 13
  117.0698 185968.6 22
  123.0261 90318.9 10
  147.0262 177135.1 21
  173.0416 28362.1 3
  191.0854 47711.8 5
  209.0423 107222.9 13
  217.1009 113896.1 13
  218.1089 424737.3 51
  222.0499 97995 11
  223.0575 401373.2 48
  225.0731 1011110.2 122
  236.0658 78827.3 9
  251.0888 1647033.6 200
  253.1043 44224.3 5
  296.1467 8221507.5 999
//
