ACCESSION: MSBNK-HBM4EU-HB003598
RECORD_TITLE: Verrucarol; LC-ESI-ITFT; MS2; CE: 20%; R=7500; [M+H]+
DATE: 2021.10.11
AUTHORS: Laurent Debrauwer, Emilien L. Jamin, Research Centre in Food Toxicology (TOXALIM), INRAE, MetaboHUB-Metatoul platform, Toulouse, France
LICENSE: CC0
COPYRIGHT: Copyright (c) 2021 by Research Centre in Food Toxicology (TOXALIM), INRAE, MetaboHUB-Metatoul platform, Toulouse, France
COMMENT: HBM4EU - science and policy for a healthy future (https://www.hbm4eu.eu)
COMMENT: CONFIDENCE Reference Standard (Level 1)
COMMENT: INTERNAL_ID 42
CH$NAME: Verrucarol
CH$NAME: 2-(hydroxymethyl)-1,5-dimethylspiro[8-oxatricyclo[7.2.1.02,7]dodec-5-ene-12,2`-oxirane]-11-ol
CH$COMPOUND_CLASS: N/A; Environmental Standard
CH$FORMULA: C15H22O4
CH$EXACT_MASS: 266.1518
CH$SMILES: CC1=CC2C(CC1)(C3(C(CC(C34CO4)O2)O)C)CO
CH$IUPAC: InChI=1S/C15H22O4/c1-9-3-4-14(7-16)11(5-9)19-12-6-10(17)13(14,2)15(12)8-18-15/h5,10-12,16-17H,3-4,6-8H2,1-2H3
CH$LINK: CAS 2198-92-7
CH$LINK: PUBCHEM CID:5660
CH$LINK: INCHIKEY ZSRVBNXAPSQDFY-UHFFFAOYSA-N
CH$LINK: CHEMSPIDER 5458
AC$INSTRUMENT: LTQ Orbitrap XL Thermo Scientific
AC$INSTRUMENT_TYPE: LC-ESI-ITFT
AC$MASS_SPECTROMETRY: MS_TYPE MS2
AC$MASS_SPECTROMETRY: ION_MODE POSITIVE
AC$MASS_SPECTROMETRY: IONIZATION ESI
AC$MASS_SPECTROMETRY: FRAGMENTATION_MODE HCD
AC$MASS_SPECTROMETRY: COLLISION_ENERGY 20 % (nominal)
AC$MASS_SPECTROMETRY: RESOLUTION 7500
AC$CHROMATOGRAPHY: COLUMN_NAME Hypersil GOLD C18 1.9 um 100 x 2.1 mm Thermo Fisher Scientific
AC$CHROMATOGRAPHY: FLOW_GRADIENT 100/0 at 0 min, 0/100 at 30 min, 0/100 at 35 min
AC$CHROMATOGRAPHY: FLOW_RATE 300 uL/min
AC$CHROMATOGRAPHY: RETENTION_TIME 9.552 min
AC$CHROMATOGRAPHY: SOLVENT A water with 5% methanol and 0.1% acetic acid
AC$CHROMATOGRAPHY: SOLVENT B methanol with 0.1% acetic acid
MS$FOCUSED_ION: BASE_PEAK 281.1746
MS$FOCUSED_ION: PRECURSOR_M/Z 267.1591
MS$FOCUSED_ION: PRECURSOR_TYPE [M+H]+
MS$FOCUSED_ION: PRECURSOR_INTENSITY 1444987.136719
MS$DATA_PROCESSING: RECALIBRATE loess on assigned fragments and MS1
MS$DATA_PROCESSING: REANALYZE Peaks with additional N2/O included
MS$DATA_PROCESSING: WHOLE RMassBank 3.2.0
PK$SPLASH: splash10-0159-0090000000-c84d3bac3f65e0763881
PK$ANNOTATION: m/z tentative_formula formula_count mass error(ppm)
  231.1371 C15H19O2+ 1 231.138 -3.78
  267.158 C15H23O4+ 1 267.1591 -4.22
PK$NUM_PEAK: 2
PK$PEAK: m/z int. rel.int.
  231.1371 5282.2 828
  267.158 6367.5 999
//
