ACCESSION: MSBNK-HBM4EU-HB003987
RECORD_TITLE: Fusarochromanone; LC-ESI-ITFT; MS2; CE: 40%; R=7500; [M+H]+
DATE: 2021.10.11
AUTHORS: Laurent Debrauwer, Emilien L. Jamin, Research Centre in Food Toxicology (TOXALIM), INRAE, MetaboHUB-Metatoul platform, Toulouse, France
LICENSE: CC0
COPYRIGHT: Copyright (c) 2021 by Research Centre in Food Toxicology (TOXALIM), INRAE, MetaboHUB-Metatoul platform, Toulouse, France
COMMENT: HBM4EU - science and policy for a healthy future (https://www.hbm4eu.eu)
COMMENT: CONFIDENCE Reference Standard (Level 1)
COMMENT: INTERNAL_ID 147
CH$NAME: Fusarochromanone
CH$NAME: 5-amino-6-(3-amino-4-hydroxybutanoyl)-2,2-dimethyl-3H-chromen-4-one
CH$COMPOUND_CLASS: N/A; Environmental Standard
CH$FORMULA: C15H20N2O4
CH$EXACT_MASS: 292.1423
CH$SMILES: CC1(CC(=O)C2=C(O1)C=CC(=C2N)C(=O)CC(CO)N)C
CH$IUPAC: InChI=1S/C15H20N2O4/c1-15(2)6-11(20)13-12(21-15)4-3-9(14(13)17)10(19)5-8(16)7-18/h3-4,8,18H,5-7,16-17H2,1-2H3
CH$LINK: CAS 104653-89-6
CH$LINK: CHEBI CHEBI:174090
CH$LINK: PUBCHEM CID:107777
CH$LINK: INCHIKEY COSICWYFCAPPJB-UHFFFAOYSA-N
CH$LINK: CHEMSPIDER 96933
CH$LINK: COMPTOX DTXSID20909102
AC$INSTRUMENT: LTQ Orbitrap XL Thermo Scientific
AC$INSTRUMENT_TYPE: LC-ESI-ITFT
AC$MASS_SPECTROMETRY: MS_TYPE MS2
AC$MASS_SPECTROMETRY: ION_MODE POSITIVE
AC$MASS_SPECTROMETRY: IONIZATION ESI
AC$MASS_SPECTROMETRY: FRAGMENTATION_MODE HCD
AC$MASS_SPECTROMETRY: COLLISION_ENERGY 40 % (nominal)
AC$MASS_SPECTROMETRY: RESOLUTION 7500
AC$CHROMATOGRAPHY: COLUMN_NAME Hypersil GOLD C18 1.9 um 100 x 2.1 mm Thermo Fisher Scientific
AC$CHROMATOGRAPHY: FLOW_GRADIENT 100/0 at 0 min, 0/100 at 30 min, 0/100 at 35 min
AC$CHROMATOGRAPHY: FLOW_RATE 300 uL/min
AC$CHROMATOGRAPHY: RETENTION_TIME 10.122 min
AC$CHROMATOGRAPHY: SOLVENT A water with 5% methanol and 0.1% acetic acid
AC$CHROMATOGRAPHY: SOLVENT B methanol with 0.1% acetic acid
MS$FOCUSED_ION: BASE_PEAK 293.1491
MS$FOCUSED_ION: PRECURSOR_M/Z 293.1496
MS$FOCUSED_ION: PRECURSOR_TYPE [M+H]+
MS$FOCUSED_ION: PRECURSOR_INTENSITY 29005851.85498
MS$DATA_PROCESSING: RECALIBRATE loess on assigned fragments and MS1
MS$DATA_PROCESSING: REANALYZE Peaks with additional N2/O included
MS$DATA_PROCESSING: WHOLE RMassBank 3.2.0
PK$SPLASH: splash10-001l-0490000000-133b79a3a4a01a29cb0d
PK$ANNOTATION: m/z tentative_formula formula_count mass error(ppm)
  60.0442 C2H6NO+ 1 60.0444 -3.35
  136.0389 C7H6NO2+ 1 136.0393 -3.28
  178.0494 C9H8NO3+ 1 178.0499 -2.45
  192.1014 C11H14NO2+ 1 192.1019 -2.74
  202.0493 C11H8NO3+ 1 202.0499 -2.66
  216.1012 C13H14NO2+ 1 216.1019 -3.04
  218.0808 C12H12NO3+ 1 218.0812 -1.8
  220.0596 C11H10NO4+ 1 220.0604 -3.75
  230.1175 C14H16NO2+ 1 230.1176 -0.11
  234.1118 C13H16NO3+ 1 234.1125 -2.83
  258.1117 C15H16NO3+ 1 258.1125 -2.88
  275.1385 C15H19N2O3+ 1 275.139 -2.02
  276.1223 C15H18NO4+ 1 276.123 -2.59
  293.1483 C15H21N2O4+ 1 293.1496 -4.37
PK$NUM_PEAK: 14
PK$PEAK: m/z int. rel.int.
  60.0442 87986 20
  136.0389 38463.3 9
  178.0494 500980.8 117
  192.1014 3191892.5 751
  202.0493 160451.2 37
  216.1012 38085.2 8
  218.0808 166359.9 39
  220.0596 99024.7 23
  230.1175 96660.9 22
  234.1118 4245505 999
  258.1117 1911239.2 449
  275.1385 776828.9 182
  276.1223 571526.9 134
  293.1483 113854.4 26
//
