ACCESSION: MSBNK-HBM4EU-HB002194
RECORD_TITLE: Phenazone; LC-ESI-QFT; MS2; CE: 50%; R=17500; [M+H]+
DATE: 2020.02.20
AUTHORS: Jean-Philippe Antignac, Yann Guitoon, LABERCA, Oniris, INRAE, UMR 1329, 44307, Nantes, France
LICENSE: CC0
COPYRIGHT: Copyright (c) 2020 by LABERCA, Oniris, INRAE, UMR 1329, 44307, Nantes, France
PUBLICATION: Oberacher H, Sasse M, Antignac J-P, Guitton Y, Debrauwer L, Jamin EL, Schulze T, Krauss M, Covaci A, Caballero-Casero N, Rosseau K, Damont A, Fenaille F, Lamoree M, Schymanski E, A European proposal for quality control and quality assurance of tandem mass spectral libraries, Environmental Sciences Europe, https://doi.org/10.1186/s12302-020-00314-9
COMMENT: CONFIDENCE Reference Standard (Level 1)
COMMENT: HBM4EU - science and policy for a healthy future (https://www.hbm4eu.eu)
CH$NAME: Phenazone
CH$NAME: 1,5-Dimethyl-2-phenyl-1,2-dihydro-3H-pyrazol-3-one
CH$COMPOUND_CLASS: N/A; Environmental Standard
CH$FORMULA: C11H12N2O
CH$EXACT_MASS: 188.095
CH$SMILES: CN1N(C(=O)C=C1C)C1=CC=CC=C1
CH$IUPAC: InChI=1S/C11H12N2O/c1-9-8-11(14)13(12(9)2)10-6-4-3-5-7-10/h3-8H,1-2H3
CH$LINK: CAS 60-80-0
CH$LINK: COMPTOX DTXSID6021117
CH$LINK: INCHIKEY VEQOALNAAJBPNY-UHFFFAOYSA-N
CH$LINK: PUBCHEM CID:2206
AC$INSTRUMENT: Q Exactive Thermo Fisher Scientific
AC$INSTRUMENT_TYPE: LC-ESI-QFT
AC$MASS_SPECTROMETRY: MS_TYPE MS2
AC$MASS_SPECTROMETRY: ION_MODE POSITIVE
AC$MASS_SPECTROMETRY: IONIZATION ESI
AC$MASS_SPECTROMETRY: FRAGMENTATION_MODE HCD
AC$MASS_SPECTROMETRY: COLLISION_ENERGY 50% (nominal)
AC$MASS_SPECTROMETRY: RESOLUTION 17500
AC$CHROMATOGRAPHY: COLUMN_NAME Hypersil GOLD 1.9 um 2.1 x 100 mm Thermo Fisher Scientific
AC$CHROMATOGRAPHY: FLOW_GRADIENT 95/5 at 0 min, 95/5 at 2.4 min, 75/25 at 4.5 min, 30/70 at 11 min, 0/100 at 14 min, 0/100 at 16.5 min, 95/5 at 19 min, 95/5 at 25 min
AC$CHROMATOGRAPHY: FLOW_RATE 400 uL/min
AC$CHROMATOGRAPHY: SOLVENT A water with 0.1% acetic acid
AC$CHROMATOGRAPHY: SOLVENT B acetonitrile with 0.1% acetic acid
MS$FOCUSED_ION: PRECURSOR_M/Z 189.1023
MS$FOCUSED_ION: PRECURSOR_TYPE [M+H]+
PK$SPLASH: splash10-000i-1900000000-564af6a84885bf8796de
PK$NUM_PEAK: 20
PK$PEAK: m/z int. rel.int.
  56.0504 56228879.7 126
  58.066 74037008.6 167
  91.0548 17659776 40
  96.0688 33902648.1 76
  98.0606 11550210.4 26
  104.05 68951700.3 155
  106.0656 34867386.4 78
  117.0702 15231495.7 34
  118.0655 32842857.2 74
  120.081 27948542.1 63
  130.0653 36907017.5 83
  131.0731 55369409.7 125
  132.0809 23685393.4 53
  144.0809 45177472.7 102
  145.0648 17750386.8 40
  146.0838 46342087.9 104
  147.0918 67877251.7 153
  161.1074 37344525.5 84
  174.0789 34822081.1 78
  189.1023 444170528 999
//
