ACCESSION: MSBNK-HBM4EU-HB002909
RECORD_TITLE: Picolinafen-Fluoroaniline (TENTATIVE); LC-ESI-QFT; MS2; CE: 30%; R=70000; [M+H]+
DATE: 2021.02.23
AUTHORS: Carolin Huber, Tobias Schulze, Martin Krauss, Department of Effect-Directed Analysis, Helmholtz Centre for Environmental Research - UFZ GmbH, Leipzig, Germany
LICENSE: CC0
COPYRIGHT: Copyright (C) 2021 Helmholtz Centre for Environmental Research - UFZ, Leipzig, Germany 
PUBLICATION: Huber C, Mueller E, Schulze T, Brack W, Krauss M, Improving the Screening Analysis of Pesticide Metabolites in Human Biomonitoring by Combining High-Throughput In Vitro Incubation and Automated LC–HRMS Data Processing, Analytical Chemistry, https://doi.org/10.1021/acs.analchem.1c00972
COMMENT: HBM4EU - science and policy for a healthy future (https://www.hbm4eu.eu)
COMMENT: COMMENT: CONFIDENCE: Tentative structure, isomers possible (Level 3a)
COMMENT: COMMENT: generated by human liver S9 incubation
COMMENT: Picolinafen_Fluoroaniline_30eV.txt
CH$NAME: Picolinafen-Fluoroaniline
CH$NAME: 4-fluoroaniline
CH$COMPOUND_CLASS: N/A; Biotransformation Product
CH$FORMULA: C6H6FN
CH$EXACT_MASS: 111.0477
CH$SMILES: C1=CC(=CC=C1N)F
CH$IUPAC: InChI=1S/C6H6FN/c7-5-1-3-6(8)4-2-5/h1-4H,8H2
CH$LINK: CAS 371-40-4
CH$LINK: COMPTOX DTXSID9022027
CH$LINK: INCHIKEY KRZCOLNOCZKSDF-UHFFFAOYSA-N
CH$LINK: PUBCHEM CID:9731
AC$INSTRUMENT: Q Exactive Plus Orbitrap Thermo Scientific
AC$INSTRUMENT_TYPE: LC-ESI-QFT
AC$MASS_SPECTROMETRY: MS_TYPE MS2
AC$MASS_SPECTROMETRY: ION_MODE POSITIVE
AC$MASS_SPECTROMETRY: IONIZATION ESI
AC$MASS_SPECTROMETRY: FRAGMENTATION_MODE HCD
AC$MASS_SPECTROMETRY: COLLISION_ENERGY 30% (nominal)
AC$MASS_SPECTROMETRY: RESOLUTION 70000
AC$CHROMATOGRAPHY: COLUMN_NAME Waters UPLC BEH C18 1.7 um 2.1 mm x 100 mm with pre-column
AC$CHROMATOGRAPHY: FLOW_GRADIENT 100/0 at 0 min, 0/100 at 15 min, 0/100 at 21 min, 100/0 at 22 min, 100/0 at 30 min
AC$CHROMATOGRAPHY: FLOW_RATE 300 uL/min
AC$CHROMATOGRAPHY: RETENTION_TIME 2.59 min
AC$CHROMATOGRAPHY: SOLVENT A water with 1% ammonium carbonate 1M
AC$CHROMATOGRAPHY: SOLVENT B methanol with 1% ammonium carbonate 1M and 5% water
MS$FOCUSED_ION: PRECURSOR_M/Z 112.0555
MS$FOCUSED_ION: PRECURSOR_TYPE [M+H]+
MS$DATA_PROCESSING: COMMENT Peaks removed that cannot be explained by GenForm and Molecular Formula (5 ppm)
MS$DATA_PROCESSING: WHOLE mzR
PK$SPLASH: splash10-004i-9000000000-a24cd4b20f66cf0e2c80
PK$NUM_PEAK: 10
PK$PEAK: m/z int. rel.int.
  59.0294 3016.8 18
  65.0387 43643.4 261
  71.0291 4148.8 25
  74.0151 26522.5 159
  75.0229 166851 999
  84.037 5967.2 36
  92.0494 12494.9 75
  95.0291 21912.7 131
  111.0479 22976.6 138
  112.0556 5162.3 31
//
