ACCESSION: MSBNK-HBM4EU-HB003426
RECORD_TITLE: Ascladiol Z; LC-ESI-ITFT; MS2; CE: 40%; R=7500; [M-H]-
DATE: 2021.10.11
AUTHORS: Laurent Debrauwer, Emilien L. Jamin, Research Centre in Food Toxicology (TOXALIM), INRAE, MetaboHUB-Metatoul platform, Toulouse, France
LICENSE: CC0
COPYRIGHT: Copyright (c) 2021 by Research Centre in Food Toxicology (TOXALIM), INRAE, MetaboHUB-Metatoul platform, Toulouse, France
COMMENT: HBM4EU - science and policy for a healthy future (https://www.hbm4eu.eu)
COMMENT: CONFIDENCE Reference Standard (Level 1)
COMMENT: INTERNAL_ID 123
CH$NAME: Ascladiol Z
CH$NAME: 5-(2-hydroxyethylidene)-4-(hydroxymethyl)furan-2-one
CH$COMPOUND_CLASS: N/A; Environmental Standard
CH$FORMULA: C7H8O4
CH$EXACT_MASS: 156.0423
CH$SMILES: C1=C(C(=CCO)OC1=O)CO
CH$IUPAC: InChI=1S/C7H8O4/c8-2-1-6-5(4-9)3-7(10)11-6/h1,3,8-9H,2,4H2
CH$LINK: CAS 32013-85-7
CH$LINK: PUBCHEM CID:160214
CH$LINK: INCHIKEY HLJKDERCZVTVSN-UHFFFAOYSA-N
CH$LINK: CHEMSPIDER 62895912
AC$INSTRUMENT: LTQ Orbitrap XL Thermo Scientific
AC$INSTRUMENT_TYPE: LC-ESI-ITFT
AC$MASS_SPECTROMETRY: MS_TYPE MS2
AC$MASS_SPECTROMETRY: ION_MODE NEGATIVE
AC$MASS_SPECTROMETRY: IONIZATION ESI
AC$MASS_SPECTROMETRY: FRAGMENTATION_MODE HCD
AC$MASS_SPECTROMETRY: COLLISION_ENERGY 40 % (nominal)
AC$MASS_SPECTROMETRY: RESOLUTION 7500
AC$CHROMATOGRAPHY: COLUMN_NAME Hypersil GOLD C18 1.9 um 100 x 2.1 mm Thermo Fisher Scientific
AC$CHROMATOGRAPHY: FLOW_GRADIENT 100/0 at 0 min, 0/100 at 30 min, 0/100 at 35 min
AC$CHROMATOGRAPHY: FLOW_RATE 300 uL/min
AC$CHROMATOGRAPHY: RETENTION_TIME 2.427 min
AC$CHROMATOGRAPHY: SOLVENT A water with 5% methanol and 0.1% acetic acid
AC$CHROMATOGRAPHY: SOLVENT B methanol with 0.1% acetic acid
MS$FOCUSED_ION: BASE_PEAK 155.035
MS$FOCUSED_ION: PRECURSOR_M/Z 155.035
MS$FOCUSED_ION: PRECURSOR_TYPE [M-H]-
MS$FOCUSED_ION: PRECURSOR_INTENSITY 889358.7783203
MS$DATA_PROCESSING: RECALIBRATE loess on assigned fragments and MS1
MS$DATA_PROCESSING: REANALYZE Peaks with additional N2/O included
MS$DATA_PROCESSING: WHOLE RMassBank 3.2.0
PK$SPLASH: splash10-0a70-1900000000-70cbbd0e28019104783f
PK$ANNOTATION: m/z tentative_formula formula_count mass error(ppm)
  65.0396 C5H5- 1 65.0397 -1.81
  81.0346 C5H5O- 1 81.0346 0.16
  83.0503 C5H7O- 1 83.0502 0.88
  93.0346 C6H5O- 1 93.0346 -0.4
  109.0295 C6H5O2- 1 109.0295 0.39
  111.0454 C6H7O2- 1 111.0452 2
  125.0247 C6H5O3- 1 125.0244 1.9
  127.0405 C6H7O3- 1 127.0401 3.21
  137.0244 C7H5O3- 1 137.0244 -0.02
  155.035 C7H7O4- 1 155.035 0.29
PK$NUM_PEAK: 10
PK$PEAK: m/z int. rel.int.
  65.0396 2157.6 35
  81.0346 8680.5 144
  83.0503 12703.2 210
  93.0346 7345.8 121
  109.0295 7641.9 126
  111.0454 10791.9 179
  125.0247 34136.5 566
  127.0405 6521.9 108
  137.0244 34640.2 575
  155.035 60167.8 999
//
