ACCESSION: MSBNK-HBM4EU-HB001116
RECORD_TITLE: Mefruside; LC-ESI-ITFT; MS2; CE: 45%; R=15000; [M+H]+
DATE: 2018.09.08
AUTHORS: Tobias Schulze, Carolin Huber, Martin Krauss, Department of Effect-Directed Analysis, Helmholtz Centre for Environmental Research GmbH - UFZ, Leipzig, Germany
LICENSE: CC0
COPYRIGHT: Copyright (C) 2018
PUBLICATION: Oberacher H, Sasse M, Antignac J-P, Guitton Y, Debrauwer L, Jamin E L, Schulze T, Krauss M, Covaci A, Caballero-Casero N, Rosseau K, Damont A, Fenaille F, Lamoree M, Schymanski E, A European proposal for quality control and quality assurance of tandem mass spectral libraries, Environmental Sciences Europe, https://doi.org/10.1186/s12302-020-00314-9
COMMENT: CONFIDENCE Reference Standard (Level 1)
COMMENT: HBM4EU - science and policy for a healthy future (https://www.hbm4eu.eu)
CH$NAME: Mefruside
CH$NAME: 4-chloro-1-N-methyl-1-N-[(2-methyloxolan-2-yl)methyl]benzene-1,3-disulfonamide
CH$COMPOUND_CLASS: N/A; Environmental Standard
CH$FORMULA: C13H19ClN2O5S2
CH$EXACT_MASS: 382.0424
CH$SMILES: CC1(CCCO1)CN(C)S(=O)(=O)C2=CC(=C(C=C2)Cl)S(=O)(=O)N
CH$IUPAC: InChI=1S/C13H19ClN2O5S2/c1-13(6-3-7-21-13)9-16(2)23(19,20)10-4-5-11(14)12(8-10)22(15,17)18/h4-5,8H,3,6-7,9H2,1-2H3,(H2,15,17,18)
CH$LINK: CAS 7195-27-9
CH$LINK: CHEBI CHEBI:31809
CH$LINK: KEGG D01877
CH$LINK: PUBCHEM CID:4047
CH$LINK: INCHIKEY SMNOERSLNYGGOU-UHFFFAOYSA-N
CH$LINK: CHEMSPIDER 3907
AC$INSTRUMENT: LTQ Orbitrap XL Thermo Scientific
AC$INSTRUMENT_TYPE: LC-ESI-ITFT
AC$MASS_SPECTROMETRY: MS_TYPE MS2
AC$MASS_SPECTROMETRY: ION_MODE POSITIVE
AC$MASS_SPECTROMETRY: IONIZATION ESI
AC$MASS_SPECTROMETRY: FRAGMENTATION_MODE HCD
AC$MASS_SPECTROMETRY: COLLISION_ENERGY 45% (nominal)
AC$MASS_SPECTROMETRY: RESOLUTION 15000
AC$CHROMATOGRAPHY: COLUMN_NAME Kinetex Evo C18 2.6 um 50 x 2.1 mm
AC$CHROMATOGRAPHY: FLOW_GRADIENT 95/5 at 0 min, 95/5 at 1 min, 0/100 at 13 min, 0/100 at 24 min, 95/5 at 24.3 min, 95/5 at 32 min
AC$CHROMATOGRAPHY: FLOW_RATE 300 uL/min
AC$CHROMATOGRAPHY: RETENTION_TIME 9.023 min
AC$CHROMATOGRAPHY: SOLVENT A water with 0.1% formic acid
AC$CHROMATOGRAPHY: SOLVENT B methanol with 0.1% formic acid
MS$FOCUSED_ION: BASE_PEAK 428.2363
MS$FOCUSED_ION: PRECURSOR_M/Z 383.0497
MS$FOCUSED_ION: PRECURSOR_TYPE [M+H]+
MS$DATA_PROCESSING: RECALIBRATE loess on assigned fragments and MS1
MS$DATA_PROCESSING: REANALYZE Peaks with additional N2/O included
MS$DATA_PROCESSING: WHOLE RMassBank 2.9.1
PK$SPLASH: splash10-001i-9210000000-3fef0594e0ba32b6f1b9
PK$ANNOTATION: m/z tentative_formula formula_count mass error(ppm)
  55.054 C4H7+ 1 55.0542 -3.96
  57.0333 C3H5O+ 1 57.0335 -4.03
  69.0697 C5H9+ 1 69.0699 -3.06
  71.0854 C5H11+ 1 71.0855 -1.8
  79.0542 C6H7+ 1 79.0542 -0.81
  81.0698 C6H9+ 1 81.0699 -1.23
  84.0807 C5H10N+ 1 84.0808 -0.86
  86.06 C4H8NO+ 1 86.06 -0.76
  96.0806 C6H10N+ 1 96.0808 -1.78
  97.0647 C6H9O+ 1 97.0648 -0.71
  99.0804 C6H11O+ 1 99.0804 -0.67
  110.0964 C7H12N+ 1 110.0964 -0.44
  112.1118 C7H14N+ 1 112.1121 -2.27
  128.1069 C7H14NO+ 2 128.107 -0.7
  129.1147 C7H15NO+ 2 129.1148 -1.05
  203.9883 C7H7ClNO2S+ 3 203.9881 1.34
  217.9784 C9H2N2O3S+ 2 217.9781 1.74
  253.9342 C6H5ClNO4S2+ 2 253.9343 -0.31
  284.9763 C7H10ClN2O4S2+ 2 284.9765 -0.65
PK$NUM_PEAK: 19
PK$PEAK: m/z int. rel.int.
  55.054 1662.5 13
  57.0333 5952 48
  69.0697 3849.3 31
  71.0854 2074.3 16
  79.0542 4996.2 40
  81.0698 123102.5 999
  84.0807 54550.9 442
  86.06 8954.6 72
  96.0806 4101.5 33
  97.0647 5863.3 47
  99.0804 44935.7 364
  110.0964 3949.3 32
  112.1118 1565.9 12
  128.1069 17718.3 143
  129.1147 54494.7 442
  203.9883 3593.1 29
  217.9784 19483.1 158
  253.9342 20481.9 166
  284.9763 4088.7 33
//
