ACCESSION: MSBNK-HBM4EU-HB003515
RECORD_TITLE: 15 Acetoxyscirpenol; LC-ESI-ITFT; MS2; CE: 15%; R=7500; [M+H]+
DATE: 2021.10.11
AUTHORS: Laurent Debrauwer, Emilien L. Jamin, Research Centre in Food Toxicology (TOXALIM), INRAE, MetaboHUB-Metatoul platform, Toulouse, France
LICENSE: CC0
COPYRIGHT: Copyright (c) 2021 by Research Centre in Food Toxicology (TOXALIM), INRAE, MetaboHUB-Metatoul platform, Toulouse, France
COMMENT: HBM4EU - science and policy for a healthy future (https://www.hbm4eu.eu)
COMMENT: CONFIDENCE Reference Standard (Level 1)
COMMENT: INTERNAL_ID 7
CH$NAME: 15 Acetoxyscirpenol
CH$NAME: Desacetylanguidine
CH$NAME: (10,11-dihydroxy-1,5-dimethylspiro[8-oxatricyclo[7.2.1.02,7]dodec-5-ene-12,2`-oxirane]-2-yl)methyl acetate
CH$COMPOUND_CLASS: N/A; Environmental Standard
CH$FORMULA: C17H24O6
CH$EXACT_MASS: 324.1573
CH$SMILES: CC1=CC2C(CC1)(C3(C(C(C(C34CO4)O2)O)O)C)COC(=O)C
CH$IUPAC: InChI=1S/C17H24O6/c1-9-4-5-16(7-21-10(2)18)11(6-9)23-14-12(19)13(20)15(16,3)17(14)8-22-17/h6,11-14,19-20H,4-5,7-8H2,1-3H3
CH$LINK: CAS 2623-22-5
CH$LINK: CHEBI CHEBI:175144
CH$LINK: PUBCHEM CID:429922
CH$LINK: INCHIKEY IRXDUBNENLKYTC-UHFFFAOYSA-N
CH$LINK: CHEMSPIDER 380266
AC$INSTRUMENT: LTQ Orbitrap XL Thermo Scientific
AC$INSTRUMENT_TYPE: LC-ESI-ITFT
AC$MASS_SPECTROMETRY: MS_TYPE MS2
AC$MASS_SPECTROMETRY: ION_MODE POSITIVE
AC$MASS_SPECTROMETRY: IONIZATION ESI
AC$MASS_SPECTROMETRY: FRAGMENTATION_MODE HCD
AC$MASS_SPECTROMETRY: COLLISION_ENERGY 15 % (nominal)
AC$MASS_SPECTROMETRY: RESOLUTION 7500
AC$CHROMATOGRAPHY: COLUMN_NAME Hypersil GOLD C18 1.9 um 100 x 2.1 mm Thermo Fisher Scientific
AC$CHROMATOGRAPHY: FLOW_GRADIENT 100/0 at 0 min, 0/100 at 30 min, 0/100 at 35 min
AC$CHROMATOGRAPHY: FLOW_RATE 300 uL/min
AC$CHROMATOGRAPHY: RETENTION_TIME 13.094 min
AC$CHROMATOGRAPHY: SOLVENT A water with 5% methanol and 0.1% acetic acid
AC$CHROMATOGRAPHY: SOLVENT B methanol with 0.1% acetic acid
MS$FOCUSED_ION: BASE_PEAK 265.1431
MS$FOCUSED_ION: PRECURSOR_M/Z 325.1646
MS$FOCUSED_ION: PRECURSOR_TYPE [M+H]+
MS$FOCUSED_ION: PRECURSOR_INTENSITY 2968139.53125
MS$DATA_PROCESSING: RECALIBRATE loess on assigned fragments and MS1
MS$DATA_PROCESSING: REANALYZE Peaks with additional N2/O included
MS$DATA_PROCESSING: WHOLE RMassBank 3.2.0
PK$SPLASH: splash10-0ldj-0390000000-74ce7be4351e81d69afd
PK$ANNOTATION: m/z tentative_formula formula_count mass error(ppm)
  145.1007 C11H13+ 1 145.1012 -3.03
  159.1164 C12H15+ 1 159.1168 -2.63
  173.132 C13H17+ 1 173.1325 -2.58
  201.1273 C14H17O+ 1 201.1274 -0.27
  219.1377 C14H19O2+ 1 219.138 -1.02
  247.1319 C15H19O3+ 1 247.1329 -4.08
  265.1427 C15H21O4+ 1 265.1434 -2.93
  307.155 C17H23O5+ 1 307.154 3.17
PK$NUM_PEAK: 8
PK$PEAK: m/z int. rel.int.
  145.1007 2034.6 121
  159.1164 12095.4 724
  173.132 7493.7 449
  201.1273 16669.1 999
  219.1377 12863.2 770
  247.1319 15788.1 946
  265.1427 5186.6 310
  307.155 3188 191
//
