ACCESSION: MSBNK-HBM4EU-HB003819
RECORD_TITLE: Terrein; LC-ESI-ITFT; MS2; CE: 15%; R=7500; [M+H]+
DATE: 2021.10.11
AUTHORS: Laurent Debrauwer, Emilien L. Jamin, Research Centre in Food Toxicology (TOXALIM), INRAE, MetaboHUB-Metatoul platform, Toulouse, France
LICENSE: CC0
COPYRIGHT: Copyright (c) 2021 by Research Centre in Food Toxicology (TOXALIM), INRAE, MetaboHUB-Metatoul platform, Toulouse, France
COMMENT: HBM4EU - science and policy for a healthy future (https://www.hbm4eu.eu)
COMMENT: CONFIDENCE Reference Standard (Level 1)
COMMENT: INTERNAL_ID 102
CH$NAME: Terrein
CH$NAME: 4,5-dihydroxy-3-prop-1-enylcyclopent-2-en-1-one
CH$COMPOUND_CLASS: N/A; Environmental Standard
CH$FORMULA: C8H10O3
CH$EXACT_MASS: 154.0630
CH$SMILES: CC=CC1=CC(=O)C(C1O)O
CH$IUPAC: InChI=1S/C8H10O3/c1-2-3-5-4-6(9)8(11)7(5)10/h2-4,7-8,10-11H,1H3
CH$LINK: CAS 582-46-7
CH$LINK: PUBCHEM CID:324799
CH$LINK: INCHIKEY MHOOPNKRBMHHEC-UHFFFAOYSA-N
CH$LINK: CHEMSPIDER 287595
AC$INSTRUMENT: LTQ Orbitrap XL Thermo Scientific
AC$INSTRUMENT_TYPE: LC-ESI-ITFT
AC$MASS_SPECTROMETRY: MS_TYPE MS2
AC$MASS_SPECTROMETRY: ION_MODE POSITIVE
AC$MASS_SPECTROMETRY: IONIZATION ESI
AC$MASS_SPECTROMETRY: FRAGMENTATION_MODE HCD
AC$MASS_SPECTROMETRY: COLLISION_ENERGY 15 % (nominal)
AC$MASS_SPECTROMETRY: RESOLUTION 7500
AC$CHROMATOGRAPHY: COLUMN_NAME Hypersil GOLD C18 1.9 um 100 x 2.1 mm Thermo Fisher Scientific
AC$CHROMATOGRAPHY: FLOW_GRADIENT 100/0 at 0 min, 0/100 at 30 min, 0/100 at 35 min
AC$CHROMATOGRAPHY: FLOW_RATE 300 uL/min
AC$CHROMATOGRAPHY: RETENTION_TIME 4.669 min
AC$CHROMATOGRAPHY: SOLVENT A water with 5% methanol and 0.1% acetic acid
AC$CHROMATOGRAPHY: SOLVENT B methanol with 0.1% acetic acid
MS$FOCUSED_ION: BASE_PEAK 155.0702
MS$FOCUSED_ION: PRECURSOR_M/Z 155.0703
MS$FOCUSED_ION: PRECURSOR_TYPE [M+H]+
MS$FOCUSED_ION: PRECURSOR_INTENSITY 2735875.845215
MS$DATA_PROCESSING: RECALIBRATE loess on assigned fragments and MS1
MS$DATA_PROCESSING: REANALYZE Peaks with additional N2/O included
MS$DATA_PROCESSING: WHOLE RMassBank 3.2.0
PK$SPLASH: splash10-0a4r-0900000000-0dcd5520459d7d09b1e0
PK$ANNOTATION: m/z tentative_formula formula_count mass error(ppm)
  81.0698 C6H9+ 1 81.0699 -1.14
  91.0542 C7H7+ 1 91.0542 -0.44
  93.0694 C7H9+ 1 93.0699 -4.74
  95.0493 C6H7O+ 1 95.0491 1.4
  109.0647 C7H9O+ 1 109.0648 -0.8
  119.0492 C8H7O+ 1 119.0491 0.24
  137.0596 C8H9O2+ 1 137.0597 -0.75
  155.0702 C8H11O3+ 1 155.0703 -0.17
PK$NUM_PEAK: 8
PK$PEAK: m/z int. rel.int.
  81.0698 13310.3 33
  91.0542 9873.1 24
  93.0694 5934.6 14
  95.0493 3696.1 9
  109.0647 51158.9 127
  119.0492 3608.7 8
  137.0596 279928.4 696
  155.0702 401476.7 999
//
