ACCESSION: MSBNK-HBM4EU-HB003332
RECORD_TITLE: Terrein; LC-ESI-ITFT; MS2; CE: 50%; R=7500; [M-H]-
DATE: 2021.10.11
AUTHORS: Laurent Debrauwer, Emilien L. Jamin, Research Centre in Food Toxicology (TOXALIM), INRAE, MetaboHUB-Metatoul platform, Toulouse, France
LICENSE: CC0
COPYRIGHT: Copyright (c) 2021 by Research Centre in Food Toxicology (TOXALIM), INRAE, MetaboHUB-Metatoul platform, Toulouse, France
COMMENT: HBM4EU - science and policy for a healthy future (https://www.hbm4eu.eu)
COMMENT: CONFIDENCE Reference Standard (Level 1)
COMMENT: INTERNAL_ID 102
CH$NAME: Terrein
CH$NAME: 4,5-dihydroxy-3-prop-1-enylcyclopent-2-en-1-one
CH$COMPOUND_CLASS: N/A; Environmental Standard
CH$FORMULA: C8H10O3
CH$EXACT_MASS: 154.0630
CH$SMILES: CC=CC1=CC(=O)C(C1O)O
CH$IUPAC: InChI=1S/C8H10O3/c1-2-3-5-4-6(9)8(11)7(5)10/h2-4,7-8,10-11H,1H3
CH$LINK: CAS 582-46-7
CH$LINK: PUBCHEM CID:324799
CH$LINK: INCHIKEY MHOOPNKRBMHHEC-UHFFFAOYSA-N
CH$LINK: CHEMSPIDER 287595
AC$INSTRUMENT: LTQ Orbitrap XL Thermo Scientific
AC$INSTRUMENT_TYPE: LC-ESI-ITFT
AC$MASS_SPECTROMETRY: MS_TYPE MS2
AC$MASS_SPECTROMETRY: ION_MODE NEGATIVE
AC$MASS_SPECTROMETRY: IONIZATION ESI
AC$MASS_SPECTROMETRY: FRAGMENTATION_MODE HCD
AC$MASS_SPECTROMETRY: COLLISION_ENERGY 50 % (nominal)
AC$MASS_SPECTROMETRY: RESOLUTION 7500
AC$CHROMATOGRAPHY: COLUMN_NAME Hypersil GOLD C18 1.9 um 100 x 2.1 mm Thermo Fisher Scientific
AC$CHROMATOGRAPHY: FLOW_GRADIENT 100/0 at 0 min, 0/100 at 30 min, 0/100 at 35 min
AC$CHROMATOGRAPHY: FLOW_RATE 300 uL/min
AC$CHROMATOGRAPHY: RETENTION_TIME 4.817 min
AC$CHROMATOGRAPHY: SOLVENT A water with 5% methanol and 0.1% acetic acid
AC$CHROMATOGRAPHY: SOLVENT B methanol with 0.1% acetic acid
MS$FOCUSED_ION: BASE_PEAK 153.0557
MS$FOCUSED_ION: PRECURSOR_M/Z 153.0557
MS$FOCUSED_ION: PRECURSOR_TYPE [M-H]-
MS$FOCUSED_ION: PRECURSOR_INTENSITY 2044825.407471
MS$DATA_PROCESSING: RECALIBRATE loess on assigned fragments and MS1
MS$DATA_PROCESSING: REANALYZE Peaks with additional N2/O included
MS$DATA_PROCESSING: WHOLE RMassBank 3.2.0
PK$SPLASH: splash10-0udi-0900000000-f5ec066371df703ff6cd
PK$ANNOTATION: m/z tentative_formula formula_count mass error(ppm)
  69.0344 C4H5O- 1 69.0346 -2.97
  85.0295 C4H5O2- 1 85.0295 -0.31
  91.0557 C7H7- 1 91.0553 3.6
  95.0502 C6H7O- 1 95.0502 -0.7
  97.0295 C5H5O2- 1 97.0295 0.11
  97.0661 C6H9O- 1 97.0659 2.61
  107.0504 C7H7O- 1 107.0502 1.35
  109.0294 C6H5O2- 1 109.0295 -0.59
  109.0661 C7H9O- 1 109.0659 1.57
  111.045 C6H7O2- 1 111.0452 -1.58
  112.0167 C5H4O3- 1 112.0166 1.15
  123.0453 C7H7O2- 1 123.0452 1.15
  124.017 C6H4O3- 1 124.0166 2.91
  125.0611 C7H9O2- 1 125.0608 2.08
  135.0453 C8H7O2- 1 135.0452 1.24
  153.0559 C8H9O3- 1 153.0557 0.96
PK$NUM_PEAK: 16
PK$PEAK: m/z int. rel.int.
  69.0344 2769.2 6
  85.0295 3299.9 7
  91.0557 2581.7 6
  95.0502 8535.9 20
  97.0295 10454.4 25
  97.0661 15357.7 36
  107.0504 16410 39
  109.0294 2732.3 6
  109.0661 32782.9 78
  111.045 2788.5 6
  112.0167 33564.3 80
  123.0453 3463.1 8
  124.017 20309.8 48
  125.0611 81056 195
  135.0453 70358.5 169
  153.0559 415215.1 999
//
