ACCESSION: MSBNK-HBM4EU-HB001327
RECORD_TITLE: Antipyrine; LC-ESI-ITFT; MS2; CE: 60%; R=15000; [M+H]+
DATE: 2018.09.08
AUTHORS: Tobias Schulze, Carolin Huber, Martin Krauss, Department of Effect-Directed Analysis, Helmholtz Centre for Environmental Research GmbH - UFZ, Leipzig, Germany
LICENSE: CC0
COPYRIGHT: Copyright (C) 2018
PUBLICATION: Oberacher H, Sasse M, Antignac J-P, Guitton Y, Debrauwer L, Jamin E L, Schulze T, Krauss M, Covaci A, Caballero-Casero N, Rosseau K, Damont A, Fenaille F, Lamoree M, Schymanski E, A European proposal for quality control and quality assurance of tandem mass spectral libraries, Environmental Sciences Europe, https://doi.org/10.1186/s12302-020-00314-9
COMMENT: CONFIDENCE Reference Standard (Level 1)
COMMENT: HBM4EU - science and policy for a healthy future (https://www.hbm4eu.eu)
CH$NAME: Antipyrine
CH$NAME: 1,5-dimethyl-2-phenylpyrazol-3-one
CH$COMPOUND_CLASS: N/A; Environmental Standard
CH$FORMULA: C11H12N2O
CH$EXACT_MASS: 188.0950
CH$SMILES: CC1=CC(=O)N(N1C)C2=CC=CC=C2
CH$IUPAC: InChI=1S/C11H12N2O/c1-9-8-11(14)13(12(9)2)10-6-4-3-5-7-10/h3-8H,1-2H3
CH$LINK: CAS 60-80-0
CH$LINK: CHEBI CHEBI:31225
CH$LINK: KEGG D01776
CH$LINK: PUBCHEM CID:2206
CH$LINK: INCHIKEY VEQOALNAAJBPNY-UHFFFAOYSA-N
CH$LINK: CHEMSPIDER 2121
AC$INSTRUMENT: LTQ Orbitrap XL Thermo Scientific
AC$INSTRUMENT_TYPE: LC-ESI-ITFT
AC$MASS_SPECTROMETRY: MS_TYPE MS2
AC$MASS_SPECTROMETRY: ION_MODE POSITIVE
AC$MASS_SPECTROMETRY: IONIZATION ESI
AC$MASS_SPECTROMETRY: FRAGMENTATION_MODE CID
AC$MASS_SPECTROMETRY: COLLISION_ENERGY 60% (nominal)
AC$MASS_SPECTROMETRY: RESOLUTION 15000
AC$CHROMATOGRAPHY: COLUMN_NAME Kinetex Evo C18 2.6 um 50 x 2.1 mm
AC$CHROMATOGRAPHY: FLOW_GRADIENT 95/5 at 0 min, 95/5 at 1 min, 0/100 at 13 min, 0/100 at 24 min, 95/5 at 24.3 min, 95/5 at 32 min
AC$CHROMATOGRAPHY: FLOW_RATE 300 uL/min
AC$CHROMATOGRAPHY: RETENTION_TIME 5.661 min
AC$CHROMATOGRAPHY: SOLVENT A water with 0.1% formic acid
AC$CHROMATOGRAPHY: SOLVENT B methanol with 0.1% formic acid
MS$FOCUSED_ION: BASE_PEAK 189.1022
MS$FOCUSED_ION: PRECURSOR_M/Z 189.1022
MS$FOCUSED_ION: PRECURSOR_TYPE [M+H]+
MS$DATA_PROCESSING: RECALIBRATE loess on assigned fragments and MS1
MS$DATA_PROCESSING: REANALYZE Peaks with additional N2/O included
MS$DATA_PROCESSING: WHOLE RMassBank 2.9.1
PK$SPLASH: splash10-000t-0900000000-20c7e24001e8b83dace4
PK$ANNOTATION: m/z tentative_formula formula_count mass error(ppm)
  55.054 C4H7+ 1 55.0542 -4.51
  56.0493 C3H6N+ 1 56.0495 -3.35
  58.0649 C3H8N+ 1 58.0651 -3.29
  77.0385 C6H5+ 1 77.0386 -1.4
  86.0601 C4H8NO+ 1 86.06 0.75
  91.0543 C7H7+ 1 91.0542 0.73
  94.065 C6H8N+ 1 94.0651 -1.06
  95.0602 C5H7N2+ 1 95.0604 -1.83
  96.0444 C5H6NO+ 1 96.0444 0.07
  96.0682 C5H8N2+ 1 96.0682 0.48
  98.0596 C5H8NO+ 1 98.06 -4.39
  103.0542 C8H7+ 1 103.0542 0.19
  104.0495 C7H6N+ 1 104.0495 -0.09
  105.0336 C7H5O+ 1 105.0335 1.34
  105.07 C8H9+ 1 105.0699 0.75
  106.0649 C7H8N+ 1 106.0651 -1.89
  111.0554 C5H7N2O+ 1 111.0553 0.65
  115.0542 C9H7+ 1 115.0542 -0.24
  117.0574 C8H7N+ 1 117.0573 0.87
  117.0699 C9H9+ 1 117.0699 -0.07
  118.0651 C8H8N+ 1 118.0651 0.11
  119.0602 C7H7N2+ 1 119.0604 -1.26
  120.0808 C8H10N+ 1 120.0808 0.27
  129.0701 C10H9+ 1 129.0699 1.99
  130.0652 C9H8N+ 1 130.0651 0.59
  131.073 C9H9N+ 1 131.073 0.01
  132.0808 C9H10N+ 1 132.0808 -0.1
  133.0522 C8H7NO+ 1 133.0522 0.1
  133.076 C8H9N2+ 1 133.076 0.05
  134.0966 C9H12N+ 1 134.0964 1.07
  135.0554 C7H7N2O+ 1 135.0553 0.59
  144.0809 C10H10N+ 1 144.0808 0.7
  145.0649 C10H9O+ 1 145.0648 0.63
  145.0758 C9H9N2+ 1 145.076 -1.28
  145.0885 C10H11N+ 1 145.0886 -0.67
  146.0839 C9H10N2+ 1 146.0838 0.29
  146.0964 C10H12N+ 1 146.0964 -0.05
  147.0917 C9H11N2+ 1 147.0917 -0.03
  148.0757 C9H10NO+ 1 148.0757 -0.2
  149.0709 C8H9N2O+ 1 149.0709 -0.4
  154.0652 C11H8N+ 1 154.0651 0.29
  157.052 C10H7NO+ 1 157.0522 -1.21
  158.0602 C10H8NO+ 1 158.06 1.01
  159.0918 C10H11N2+ 1 159.0917 0.96
  160.0995 C10H12N2+ 1 160.0995 0
  161.1073 C10H13N2+ 1 161.1073 0
  162.0913 C10H12NO+ 1 162.0913 -0.34
  171.0916 C11H11N2+ 1 171.0917 -0.31
  172.0757 C11H10NO+ 1 172.0757 0.09
  174.0788 C10H10N2O+ 1 174.0788 -0.05
  189.1023 C11H13N2O+ 1 189.1022 0.2
PK$NUM_PEAK: 51
PK$PEAK: m/z int. rel.int.
  55.054 11174.2 6
  56.0493 22229.2 13
  58.0649 59719.1 36
  77.0385 7567.7 4
  86.0601 10242.1 6
  91.0543 42084.1 25
  94.065 10316.3 6
  95.0602 12146.7 7
  96.0444 41212.6 24
  96.0682 54291 32
  98.0596 7650.1 4
  103.0542 34306.6 20
  104.0495 103949 62
  105.0336 10259.4 6
  105.07 32030.3 19
  106.0649 25004.4 15
  111.0554 46609.3 28
  115.0542 18373.2 11
  117.0574 58024.9 35
  117.0699 59378.2 35
  118.0651 390412.7 236
  119.0602 9094.3 5
  120.0808 410759.7 248
  129.0701 45397.4 27
  130.0652 607634.7 367
  131.073 1650675.6 999
  132.0808 400708.3 242
  133.0522 30289.3 18
  133.076 188758.8 114
  134.0966 37047.6 22
  135.0554 71679.5 43
  144.0809 1374528.9 831
  145.0649 155232.1 93
  145.0758 13817 8
  145.0885 37838.7 22
  146.0839 1067524.5 646
  146.0964 813956.2 492
  147.0917 978254.5 592
  148.0757 221461.6 134
  149.0709 39768.6 24
  154.0652 16165.9 9
  157.052 15310.1 9
  158.0602 87495.6 52
  159.0918 27541.5 16
  160.0995 46598.4 28
  161.1073 1366730.9 827
  162.0913 60780.3 36
  171.0916 37644 22
  172.0757 631890.7 382
  174.0788 601592.6 364
  189.1023 455620.1 275
//
