ACCESSION: MSBNK-HBM4EU-HB002368
RECORD_TITLE: Mefruside; LC-ESI-ITFT; MS2; CE: 30%; R=7500; [M+H]+
DATE: 2020.02.20
AUTHORS: Laurent Debrauwer, Emilien L. Jamin, Research Centre in Food Toxicology (TOXALIM), INRAE, MetaboHUB-Metatoul platform, Toulouse, France
LICENSE: CC0
COPYRIGHT: Copyright (c) 2000 by Research Centre in Food Toxicology (TOXALIM), INRAE, MetaboHUB-Metatoul platform, Toulouse, France
PUBLICATION: Oberacher H, Sasse M, Antignac J-P, Guitton Y, Debrauwer L, Jamin E L, Schulze T, Krauss M, Covaci A, Caballero-Casero N, Rosseau K, Damont A, Fenaille F, Lamoree M, Schymanski E, A European proposal for quality control and quality assurance of tandem mass spectral libraries, Environmental Sciences Europe, https://doi.org/10.1186/s12302-020-00314-9
COMMENT: CONFIDENCE Reference Standard (Level 1)
COMMENT: HBM4EU - science and policy for a healthy future (https://www.hbm4eu.eu)
CH$NAME: Mefruside
CH$NAME: 4-Chloro-N1-methyl-N1-[(2-methyloxolan-2-yl)methyl]benzene-1,3-disulfonamide
CH$COMPOUND_CLASS: N/A; Environmental Standard
CH$FORMULA: C13H19ClN2O5S2
CH$EXACT_MASS: 382.0424
CH$SMILES: CN(CC1(C)CCCO1)S(=O)(=O)C1=CC=C(Cl)C(=C1)S(N)(=O)=O
CH$IUPAC: InChI=1S/C13H19ClN2O5S2/c1-13(6-3-7-21-13)9-16(2)23(19,20)10-4-5-11(14)12(8-10)22(15,17)18/h4-5,8H,3,6-7,9H2,1-2H3,(H2,15,17,18)
CH$LINK: CAS 7195-27-9
CH$LINK: COMPTOX DTXSID0048844
CH$LINK: INCHIKEY SMNOERSLNYGGOU-UHFFFAOYSA-N
CH$LINK: PUBCHEM CID:4047
AC$INSTRUMENT: LTQ Orbitrap XL Thermo Fisher Scientific
AC$INSTRUMENT_TYPE: LC-ESI-ITFT
AC$MASS_SPECTROMETRY: MS_TYPE MS2
AC$MASS_SPECTROMETRY: ION_MODE POSITIVE
AC$MASS_SPECTROMETRY: IONIZATION ESI
AC$MASS_SPECTROMETRY: FRAGMENTATION_MODE HCD
AC$MASS_SPECTROMETRY: COLLISION_ENERGY 30% (nominal)
AC$MASS_SPECTROMETRY: RESOLUTION 7500
AC$CHROMATOGRAPHY: COLUMN_NAME Hypersil GOLD C18 1.9 um 100 x 2.1 mm Thermo Fisher Scientific
AC$CHROMATOGRAPHY: FLOW_GRADIENT 100/0 at 0 min, 0/100 at 30 min, 0/100 at 35 min
AC$CHROMATOGRAPHY: FLOW_RATE 300 uL/min
AC$CHROMATOGRAPHY: SOLVENT A water with 5% methanol and 0.1% acetic acid
AC$CHROMATOGRAPHY: SOLVENT B methanol with 0.1% acetic acid
MS$FOCUSED_ION: PRECURSOR_M/Z 383.0497
MS$FOCUSED_ION: PRECURSOR_TYPE [M+H]+
PK$SPLASH: splash10-003r-8950000000-c98946f5b3562a63d160
PK$NUM_PEAK: 31
PK$PEAK: m/z int. rel.int.
  57.0334 4411.1 11
  69.0698 3783.3 10
  71.0853 2731.6 7
  73.1388 2464.9 6
  79.0542 9659.9 25
  81.0698 216022.9 558
  84.0806 69476.1 179
  86.0599 23050.7 59
  96.0808 3462.8 9
  97.0648 15138.1 39
  99.0804 149085.5 385
  110.0964 7140.8 18
  111.1042 5230.5 13
  112.1117 2834.9 7
  128.1069 96775.8 250
  129.1148 387075.3 999
  188.9039 2644.9 7
  188.9298 3404.3 9
  203.1218 1480.6 4
  203.9886 1378.8 4
  212.0901 1568.8 4
  217.9786 4271.8 11
  237.9402 5691.9 15
  253.9347 22320.3 58
  267.9506 18314.9 47
  273.8041 5956.3 15
  284.9768 200821.6 518
  288.0445 1877.7 5
  296.9767 35050.4 90
  365.0398 6359.6 16
  383.0497 8276.4 21
//
