ACCESSION: MSBNK-HBM4EU-HB001648
RECORD_TITLE: Sulfamethoxazole; LC-ESI-ITFT; MS2; CE: 145%; R=15000; [M+H]+
DATE: 2018.09.08
AUTHORS: Tobias Schulze, Carolin Huber, Martin Krauss, Department of Effect-Directed Analysis, Helmholtz Centre for Environmental Research GmbH - UFZ, Leipzig, Germany
LICENSE: CC0
COPYRIGHT: Copyright (C) 2018
PUBLICATION: Oberacher H, Sasse M, Antignac J-P, Guitton Y, Debrauwer L, Jamin E L, Schulze T, Krauss M, Covaci A, Caballero-Casero N, Rosseau K, Damont A, Fenaille F, Lamoree M, Schymanski E, A European proposal for quality control and quality assurance of tandem mass spectral libraries, Environmental Sciences Europe, https://doi.org/10.1186/s12302-020-00314-9
COMMENT: CONFIDENCE Reference Standard (Level 1)
COMMENT: HBM4EU - science and policy for a healthy future (https://www.hbm4eu.eu)
CH$NAME: Sulfamethoxazole
CH$NAME: 4-amino-N-(5-methyl-1,2-oxazol-3-yl)benzenesulfonamide
CH$COMPOUND_CLASS: N/A; Environmental Standard
CH$FORMULA: C10H11N3O3S
CH$EXACT_MASS: 253.0521
CH$SMILES: CC1=CC(=NO1)NS(=O)(=O)C2=CC=C(C=C2)N
CH$IUPAC: InChI=1S/C10H11N3O3S/c1-7-6-10(12-16-7)13-17(14,15)9-4-2-8(11)3-5-9/h2-6H,11H2,1H3,(H,12,13)
CH$LINK: CAS 723-46-6
CH$LINK: CHEBI CHEBI:9332
CH$LINK: KEGG D00447
CH$LINK: PUBCHEM CID:5329
CH$LINK: INCHIKEY JLKIGFTWXXRPMT-UHFFFAOYSA-N
CH$LINK: CHEMSPIDER 5138
AC$INSTRUMENT: LTQ Orbitrap XL Thermo Scientific
AC$INSTRUMENT_TYPE: LC-ESI-ITFT
AC$MASS_SPECTROMETRY: MS_TYPE MS2
AC$MASS_SPECTROMETRY: ION_MODE POSITIVE
AC$MASS_SPECTROMETRY: IONIZATION ESI
AC$MASS_SPECTROMETRY: FRAGMENTATION_MODE HCD
AC$MASS_SPECTROMETRY: COLLISION_ENERGY 145% (nominal)
AC$MASS_SPECTROMETRY: RESOLUTION 15000
AC$CHROMATOGRAPHY: COLUMN_NAME Kinetex Evo C18 2.6 um 50 x 2.1 mm
AC$CHROMATOGRAPHY: FLOW_GRADIENT 95/5 at 0 min, 95/5 at 1 min, 0/100 at 13 min, 0/100 at 24 min, 95/5 at 24.3 min, 95/5 at 32 min
AC$CHROMATOGRAPHY: FLOW_RATE 300 uL/min
AC$CHROMATOGRAPHY: RETENTION_TIME 5.593 min
AC$CHROMATOGRAPHY: SOLVENT A water with 0.1% formic acid
AC$CHROMATOGRAPHY: SOLVENT B methanol with 0.1% formic acid
MS$FOCUSED_ION: BASE_PEAK 189.1021
MS$FOCUSED_ION: PRECURSOR_M/Z 254.0594
MS$FOCUSED_ION: PRECURSOR_TYPE [M+H]+
MS$DATA_PROCESSING: RECALIBRATE loess on assigned fragments and MS1
MS$DATA_PROCESSING: REANALYZE Peaks with additional N2/O included
MS$DATA_PROCESSING: WHOLE RMassBank 2.9.1
PK$SPLASH: splash10-014i-9000000000-d9837a0f37a2845a85c3
PK$ANNOTATION: m/z tentative_formula formula_count mass error(ppm)
  53.0383 C4H5+ 1 53.0386 -4.82
  54.0336 C3H4N+ 1 54.0338 -4.36
  56.0493 C3H6N+ 1 56.0495 -2.72
  63.0227 C5H3+ 1 63.0229 -3.41
  65.0384 C5H5+ 1 65.0386 -2.68
  66.0336 C4H4N+ 1 66.0338 -2.84
  66.0462 C5H6+ 1 66.0464 -3
  77.0387 C6H5+ 1 77.0386 2.11
  78.0336 C5H4N+ 1 78.0338 -2.52
  79.0415 C5H5N+ 1 79.0417 -1.97
  80.0494 C5H6N+ 1 80.0495 -0.56
  90.0338 C6H4N+ 1 90.0338 -0.57
  91.0417 C6H5N+ 1 91.0417 0.77
  92.0495 C6H6N+ 1 92.0495 0.01
  93.0573 C6H7N+ 1 93.0573 -0.31
  99.0554 C4H7N2O+ 1 99.0553 1.31
  105.0447 C6H5N2+ 1 105.0447 -0.4
  107.0603 C6H7N2+ 1 107.0604 -0.95
  108.0444 C6H6NO+ 1 108.0444 0.04
  110.0601 C6H8NO+ 1 110.06 0.76
  118.0526 C7H6N2+ 1 118.0525 0.66
  119.0601 C7H7N2+ 1 119.0604 -2.15
  131.0606 C8H7N2+ 1 131.0604 1.6
  146.0712 C8H8N3+ 1 146.0713 -0.69
PK$NUM_PEAK: 24
PK$PEAK: m/z int. rel.int.
  53.0383 16977.7 33
  54.0336 1173.3 2
  56.0493 1916 3
  63.0227 1342.4 2
  65.0384 501018.4 999
  66.0336 15473.2 30
  66.0462 16729.4 33
  77.0387 1815.8 3
  78.0336 1375.6 2
  79.0415 1530.6 3
  80.0494 196689.6 392
  90.0338 2076.8 4
  91.0417 2890 5
  92.0495 77006.8 153
  93.0573 46239.3 92
  99.0554 2488.9 4
  105.0447 5273.7 10
  107.0603 1198.5 2
  108.0444 46308 92
  110.0601 4483.9 8
  118.0526 1440 2
  119.0601 2490.9 4
  131.0606 954.7 1
  146.0712 3207.1 6
//
