ACCESSION: MSBNK-HBM4EU-HB002771
RECORD_TITLE: Cyclizine; LC-ESI-QFT; MS2; CE: CE45; R=17500; [M+H]+
DATE: 2019.09.23
AUTHORS: Kondic T, Singh R, Elapavalore A, Krier J, Mohammed Taha H, Narayanan M, Schymanski E
LICENSE: CC0
COPYRIGHT: Copyright (c) by Environmental Cheminformatics, LCSB, University of Luxembourg, Luxembourg
PUBLICATION: Oberacher H, Sasse M, Antignac J-P, Guitton Y, Debrauwer L, Jamin E L, Schulze T, Krauss M, Covaci A, Caballero-Casero N, Rosseau K, Damont A, Fenaille F, Lamoree M, Schymanski E, A European proposal for quality control and quality assurance of tandem mass spectral libraries, Environmental Sciences Europe, https://doi.org/10.1186/s12302-020-00314-9
COMMENT: CONFIDENCE standard compound
COMMENT: INTERNAL_ID 1
COMMENT: HBM4EU - science and policy for a healthy future (https://www.hbm4eu.eu)
CH$NAME: Cyclizine
CH$NAME: 1-benzhydryl-4-methylpiperazine
CH$COMPOUND_CLASS: N/A; Environmental Standard
CH$FORMULA: C18H22N2
CH$EXACT_MASS: 266.1783
CH$SMILES: CN1CCN(CC1)C(C1=CC=CC=C1)C1=CC=CC=C1
CH$IUPAC: InChI=1S/C18H22N2/c1-19-12-14-20(15-13-19)18(16-8-4-2-5-9-16)17-10-6-3-7-11-17/h2-11,18H,12-15H2,1H3
CH$LINK: CAS 82-92-8
CH$LINK: CHEBI CHEBI:3994
CH$LINK: KEGG C06930
CH$LINK: PUBCHEM CID:6726
CH$LINK: INCHIKEY UVKZSORBKUEBAZ-UHFFFAOYSA-N
CH$LINK: CHEMSPIDER 6470
AC$INSTRUMENT: Q Exactive Thermo Fisher Scientific
AC$INSTRUMENT_TYPE: LC-ESI-QFT
AC$MASS_SPECTROMETRY: MS_TYPE MS2
AC$MASS_SPECTROMETRY: ION_MODE POSITIVE
AC$MASS_SPECTROMETRY: IONIZATION ESI
AC$MASS_SPECTROMETRY: FRAGMENTATION_MODE HCD
AC$MASS_SPECTROMETRY: COLLISION_ENERGY CE45
AC$MASS_SPECTROMETRY: RESOLUTION 17500
AC$CHROMATOGRAPHY: COLUMN_NAME Acquity UPLC BEH C18 1.7 um, 2.1 x 150 mm, Waters
AC$CHROMATOGRAPHY: FLOW_GRADIENT 90/10 at 0 min, 90/10 at 2 min, 0/100 at 15 min, 0/100 at 20 min, 90/10 at 21 min, 90/10 at 30 min
AC$CHROMATOGRAPHY: FLOW_RATE 200 uL/min
AC$CHROMATOGRAPHY: RETENTION_TIME 18.291 min
AC$CHROMATOGRAPHY: SOLVENT A water with 0.1% formic acid
AC$CHROMATOGRAPHY: SOLVENT B methanol
MS$FOCUSED_ION: BASE_PEAK 223.0628
MS$FOCUSED_ION: PRECURSOR_M/Z 267.1856
MS$FOCUSED_ION: PRECURSOR_TYPE [M+H]+
MS$DATA_PROCESSING: RECALIBRATE loess on assigned fragments and MS1
MS$DATA_PROCESSING: REANALYZE Peaks with additional N2/O included
MS$DATA_PROCESSING: WHOLE RMassBank 2.11.3.1
PK$SPLASH: splash10-0gb9-0900000000-f7085c10e702ecbadaa4
PK$ANNOTATION: m/z tentative_formula formula_count mass error(ppm)
  63.0233 C5H3+ 1 63.0229 6.13
  65.0391 C5H5+ 1 65.0386 8.57
  70.0652 C4H8N+ 1 70.0651 0.48
  115.0537 C9H7+ 1 115.0542 -4.57
  128.0618 C10H8+ 1 128.0621 -1.58
  139.0535 C11H7+ 1 139.0542 -5.29
  141.0692 C11H9+ 1 141.0699 -4.45
  151.0542 C12H7+ 1 151.0542 -0.29
  152.0612 C12H8+ 1 152.0621 -5.3
  165.0697 C13H9+ 1 165.0699 -1.1
  166.0782 C13H10+ 1 166.0777 2.74
  167.0857 C13H11+ 1 167.0855 1.12
  179.0598 C12H7N2+ 1 179.0604 -3.44
PK$NUM_PEAK: 13
PK$PEAK: m/z int. rel.int.
  63.0233 4157.7 1
  65.0391 7782.2 3
  70.0652 5968.2 2
  115.0537 36590.5 15
  128.0618 126594.9 52
  139.0535 9128.5 3
  141.0692 137347.1 56
  151.0542 6634.8 2
  152.0612 2405715.2 992
  165.0697 2421223.8 999
  166.0782 658616.4 271
  167.0857 775150.6 319
  179.0598 40289.1 16
//
