ACCESSION: MSBNK-HBM4EU-HB002367
RECORD_TITLE: Mefruside; LC-ESI-ITFT; MS2; CE: 25%; R=7500; [M+H]+
DATE: 2020.02.20
AUTHORS: Laurent Debrauwer, Emilien L. Jamin, Research Centre in Food Toxicology (TOXALIM), INRAE, MetaboHUB-Metatoul platform, Toulouse, France
LICENSE: CC0
COPYRIGHT: Copyright (c) 2000 by Research Centre in Food Toxicology (TOXALIM), INRAE, MetaboHUB-Metatoul platform, Toulouse, France
PUBLICATION: Oberacher H, Sasse M, Antignac J-P, Guitton Y, Debrauwer L, Jamin E L, Schulze T, Krauss M, Covaci A, Caballero-Casero N, Rosseau K, Damont A, Fenaille F, Lamoree M, Schymanski E, A European proposal for quality control and quality assurance of tandem mass spectral libraries, Environmental Sciences Europe, https://doi.org/10.1186/s12302-020-00314-9
COMMENT: CONFIDENCE Reference Standard (Level 1)
COMMENT: HBM4EU - science and policy for a healthy future (https://www.hbm4eu.eu)
CH$NAME: Mefruside
CH$NAME: 4-Chloro-N1-methyl-N1-[(2-methyloxolan-2-yl)methyl]benzene-1,3-disulfonamide
CH$COMPOUND_CLASS: N/A; Environmental Standard
CH$FORMULA: C13H19ClN2O5S2
CH$EXACT_MASS: 382.0424
CH$SMILES: CN(CC1(C)CCCO1)S(=O)(=O)C1=CC=C(Cl)C(=C1)S(N)(=O)=O
CH$IUPAC: InChI=1S/C13H19ClN2O5S2/c1-13(6-3-7-21-13)9-16(2)23(19,20)10-4-5-11(14)12(8-10)22(15,17)18/h4-5,8H,3,6-7,9H2,1-2H3,(H2,15,17,18)
CH$LINK: CAS 7195-27-9
CH$LINK: COMPTOX DTXSID0048844
CH$LINK: INCHIKEY SMNOERSLNYGGOU-UHFFFAOYSA-N
CH$LINK: PUBCHEM CID:4047
AC$INSTRUMENT: LTQ Orbitrap XL Thermo Fisher Scientific
AC$INSTRUMENT_TYPE: LC-ESI-ITFT
AC$MASS_SPECTROMETRY: MS_TYPE MS2
AC$MASS_SPECTROMETRY: ION_MODE POSITIVE
AC$MASS_SPECTROMETRY: IONIZATION ESI
AC$MASS_SPECTROMETRY: FRAGMENTATION_MODE HCD
AC$MASS_SPECTROMETRY: COLLISION_ENERGY 25% (nominal)
AC$MASS_SPECTROMETRY: RESOLUTION 7500
AC$CHROMATOGRAPHY: COLUMN_NAME Hypersil GOLD C18 1.9 um 100 x 2.1 mm Thermo Fisher Scientific
AC$CHROMATOGRAPHY: FLOW_GRADIENT 100/0 at 0 min, 0/100 at 30 min, 0/100 at 35 min
AC$CHROMATOGRAPHY: FLOW_RATE 300 uL/min
AC$CHROMATOGRAPHY: SOLVENT A water with 5% methanol and 0.1% acetic acid
AC$CHROMATOGRAPHY: SOLVENT B methanol with 0.1% acetic acid
MS$FOCUSED_ION: PRECURSOR_M/Z 383.0497
MS$FOCUSED_ION: PRECURSOR_TYPE [M+H]+
PK$SPLASH: splash10-003r-7951000000-2fa501a91d0451870ea9
PK$NUM_PEAK: 26
PK$PEAK: m/z int. rel.int.
  57.0334 3304.7 8
  69.0698 4068 10
  71.0852 1132.7 3
  73.1194 3342.6 8
  79.054 8867.3 21
  81.0697 178870.1 429
  84.0806 64904.6 156
  86.0599 24781.7 59
  97.0648 18627.1 45
  99.0804 148367 356
  110.0964 4671.3 11
  111.1044 4938.9 12
  128.1069 118356.3 284
  129.1147 416891.3 999
  135.9587 1669.2 4
  188.9308 4400.7 11
  203.1159 2046.1 5
  212.0929 1715.1 4
  237.9397 5291.6 13
  253.9347 8521.7 20
  267.9502 10962.2 26
  284.9768 251107.4 602
  288.0472 2909.5 7
  296.9765 33077 79
  365.0387 11403.2 27
  383.0497 58935.5 141
//
