ACCESSION: MSBNK-HBM4EU-HB000826
RECORD_TITLE: Ethambutol; LC-ESI-ITFT; MS2; CE: 75%; R=15000; [M+H]+
DATE: 2018.09.08
AUTHORS: Tobias Schulze, Carolin Huber, Martin Krauss, Department of Effect-Directed Analysis, Helmholtz Centre for Environmental Research GmbH - UFZ, Leipzig, Germany
LICENSE: CC0
COPYRIGHT: Copyright (C) 2018
PUBLICATION: Oberacher H, Sasse M, Antignac J-P, Guitton Y, Debrauwer L, Jamin E L, Schulze T, Krauss M, Covaci A, Caballero-Casero N, Rosseau K, Damont A, Fenaille F, Lamoree M, Schymanski E, A European proposal for quality control and quality assurance of tandem mass spectral libraries, Environmental Sciences Europe, https://doi.org/10.1186/s12302-020-00314-9
COMMENT: CONFIDENCE Reference Standard (Level 1)
COMMENT: HBM4EU - science and policy for a healthy future (https://www.hbm4eu.eu)
CH$NAME: Ethambutol
CH$NAME: 2-[2-(1-hydroxybutan-2-ylamino)ethylamino]butan-1-ol
CH$COMPOUND_CLASS: N/A; Environmental Standard
CH$FORMULA: C10H24N2O2
CH$EXACT_MASS: 204.1838
CH$SMILES: CCC(CO)NCCNC(CC)CO
CH$IUPAC: InChI=1S/C10H24N2O2/c1-3-9(7-13)11-5-6-12-10(4-2)8-14/h9-14H,3-8H2,1-2H3
CH$LINK: CAS 74-55-5
CH$LINK: CHEBI CHEBI:94436
CH$LINK: PUBCHEM CID:3279
CH$LINK: INCHIKEY AEUTYOVWOVBAKS-UHFFFAOYSA-N
CH$LINK: CHEMSPIDER 3164
AC$INSTRUMENT: LTQ Orbitrap XL Thermo Scientific
AC$INSTRUMENT_TYPE: LC-ESI-ITFT
AC$MASS_SPECTROMETRY: MS_TYPE MS2
AC$MASS_SPECTROMETRY: ION_MODE POSITIVE
AC$MASS_SPECTROMETRY: IONIZATION ESI
AC$MASS_SPECTROMETRY: FRAGMENTATION_MODE HCD
AC$MASS_SPECTROMETRY: COLLISION_ENERGY 75% (nominal)
AC$MASS_SPECTROMETRY: RESOLUTION 15000
AC$CHROMATOGRAPHY: COLUMN_NAME Kinetex Evo C18 2.6 um 50 x 2.1 mm
AC$CHROMATOGRAPHY: FLOW_GRADIENT 95/5 at 0 min, 95/5 at 1 min, 0/100 at 13 min, 0/100 at 24 min, 95/5 at 24.3 min, 95/5 at 32 min
AC$CHROMATOGRAPHY: FLOW_RATE 300 uL/min
AC$CHROMATOGRAPHY: RETENTION_TIME 0.342 min
AC$CHROMATOGRAPHY: SOLVENT A water with 0.1% formic acid
AC$CHROMATOGRAPHY: SOLVENT B methanol with 0.1% formic acid
MS$FOCUSED_ION: BASE_PEAK 158.9749
MS$FOCUSED_ION: PRECURSOR_M/Z 205.1911
MS$FOCUSED_ION: PRECURSOR_TYPE [M+H]+
MS$DATA_PROCESSING: RECALIBRATE loess on assigned fragments and MS1
MS$DATA_PROCESSING: REANALYZE Peaks with additional N2/O included
MS$DATA_PROCESSING: WHOLE RMassBank 2.9.1
PK$SPLASH: splash10-014i-2900000000-26925cafe50a5457f7c0
PK$ANNOTATION: m/z tentative_formula formula_count mass error(ppm)
  53.0383 C4H5+ 1 53.0386 -4.79
  55.054 C4H7+ 1 55.0542 -4.44
  56.0492 C3H6N+ 1 56.0495 -4.64
  62.0599 C2H8NO+ 1 62.06 -2.78
  69.0697 C5H9+ 1 69.0699 -2.28
  70.065 C4H8N+ 1 70.0651 -1.38
  72.0806 C4H10N+ 1 72.0808 -1.76
  73.0649 C4H9O+ 1 73.0648 1.84
  74.0599 C3H8NO+ 1 74.06 -1.7
  81.0699 C6H9+ 1 81.0699 0.38
  90.0913 C4H12NO+ 1 90.0913 -0.44
  98.0964 C6H12N+ 1 98.0964 -0.35
  116.1069 C6H14NO+ 1 116.107 -0.62
PK$NUM_PEAK: 13
PK$PEAK: m/z int. rel.int.
  53.0383 5977.3 3
  55.054 217079.8 113
  56.0492 43505.7 22
  62.0599 19352.1 10
  69.0697 8303.1 4
  70.065 10390.8 5
  72.0806 20508.2 10
  73.0649 2910.4 1
  74.0599 22505.9 11
  81.0699 6533.1 3
  90.0913 10756.6 5
  98.0964 99186.2 51
  116.1069 1909703.6 999
//
