ACCESSION: MSBNK-HBM4EU-HB002798
RECORD_TITLE: Sulfamoxole; LC-ESI-QFT; MS2; CE: CE30; R=17500; [M+H]+
DATE: 2019.09.23
AUTHORS: Kondic T, Singh R, Elapavalore A, Krier J, Mohammed Taha H, Narayanan M, Schymanski E
LICENSE: CC0
COPYRIGHT: Copyright (c) by Environmental Cheminformatics, LCSB, University of Luxembourg, Luxembourg
PUBLICATION: Oberacher H, Sasse M, Antignac J-P, Guitton Y, Debrauwer L, Jamin E L, Schulze T, Krauss M, Covaci A, Caballero-Casero N, Rosseau K, Damont A, Fenaille F, Lamoree M, Schymanski E, A European proposal for quality control and quality assurance of tandem mass spectral libraries, Environmental Sciences Europe, https://doi.org/10.1186/s12302-020-00314-9
COMMENT: CONFIDENCE standard compound
COMMENT: INTERNAL_ID 8
COMMENT: HBM4EU - science and policy for a healthy future (https://www.hbm4eu.eu)
CH$NAME: Sulfamoxole
CH$NAME: 4-amino-N-(4,5-dimethyl-1,3-oxazol-2-yl)benzenesulfonamide
CH$COMPOUND_CLASS: N/A; Environmental Standard
CH$FORMULA: C11H13N3O3S
CH$EXACT_MASS: 267.0678
CH$SMILES: CC1=C(C)N=C(NS(=O)(=O)C2=CC=C(N)C=C2)O1
CH$IUPAC: InChI=1S/C11H13N3O3S/c1-7-8(2)17-11(13-7)14-18(15,16)10-5-3-9(12)4-6-10/h3-6H,12H2,1-2H3,(H,13,14)
CH$LINK: CAS 729-99-7
CH$LINK: CHEBI CHEBI:55548
CH$LINK: KEGG D02516
CH$LINK: PUBCHEM CID:12894
CH$LINK: INCHIKEY CYFLXLSBHQBMFT-UHFFFAOYSA-N
CH$LINK: CHEMSPIDER 12361
AC$INSTRUMENT: Q Exactive Thermo Fisher Scientific
AC$INSTRUMENT_TYPE: LC-ESI-QFT
AC$MASS_SPECTROMETRY: MS_TYPE MS2
AC$MASS_SPECTROMETRY: ION_MODE POSITIVE
AC$MASS_SPECTROMETRY: IONIZATION ESI
AC$MASS_SPECTROMETRY: FRAGMENTATION_MODE HCD
AC$MASS_SPECTROMETRY: COLLISION_ENERGY CE30
AC$MASS_SPECTROMETRY: RESOLUTION 17500
AC$CHROMATOGRAPHY: COLUMN_NAME Acquity UPLC BEH C18 1.7 um, 2.1 x 150 mm, Waters
AC$CHROMATOGRAPHY: FLOW_GRADIENT 90/10 at 0 min, 90/10 at 2 min, 0/100 at 15 min, 0/100 at 20 min, 90/10 at 21 min, 90/10 at 30 min
AC$CHROMATOGRAPHY: FLOW_RATE 200 uL/min
AC$CHROMATOGRAPHY: RETENTION_TIME 13.974 min
AC$CHROMATOGRAPHY: SOLVENT A water with 0.1% formic acid
AC$CHROMATOGRAPHY: SOLVENT B methanol
MS$FOCUSED_ION: BASE_PEAK 223.0628
MS$FOCUSED_ION: PRECURSOR_M/Z 268.075
MS$FOCUSED_ION: PRECURSOR_TYPE [M+H]+
MS$DATA_PROCESSING: RECALIBRATE loess on assigned fragments and MS1
MS$DATA_PROCESSING: REANALYZE Peaks with additional N2/O included
MS$DATA_PROCESSING: WHOLE RMassBank 2.11.3.1
PK$SPLASH: splash10-0bt9-4900000000-600128b2276f9da3189c
PK$ANNOTATION: m/z tentative_formula formula_count mass error(ppm)
  53.0025 C3HO+ 1 53.0022 6.32
  53.0391 C4H5+ 1 53.0386 10.8
  54.0343 C3H4N+ 1 54.0338 7.88
  55.0181 C3H3O+ 1 55.0178 4.03
  65.0387 C5H5+ 1 65.0386 1.4
  68.0496 C4H6N+ 1 68.0495 1.65
  69.0336 C4H5O+ 1 69.0335 1.84
  69.0575 C4H7N+ 1 69.0573 3.47
  70.0652 C4H8N+ 1 70.0651 0.69
  78.034 C5H4N+ 1 78.0338 2.33
  79.0183 C5H3O+ 1 79.0178 5.28
  80.0497 C5H6N+ 1 80.0495 2.68
  83.0611 C4H7N2+ 1 83.0604 8.27
  92.0498 C6H6N+ 2 92.0495 3.06
  93.0575 C6H7N+ 2 93.0573 1.96
  96.044 C5H6NO+ 1 96.0444 -3.55
  108.0448 C6H6NO+ 1 108.0444 3.93
  110.0595 C6H8NO+ 1 110.06 -4.9
  111.0553 C5H7N2O+ 1 111.0553 -0.33
  112.0635 C5H8N2O+ 1 112.0631 3.32
  113.0707 C5H9N2O+ 1 113.0709 -1.74
  120.0555 C6H6N3+ 3 120.0556 -1.43
  140.0165 C6H6NOS+ 1 140.0165 0.53
  156.0105 C6H6NO2S+ 1 156.0114 -5.61
PK$NUM_PEAK: 24
PK$PEAK: m/z int. rel.int.
  53.0025 8528.9 8
  53.0391 9320.5 8
  54.0343 32174.2 30
  55.0181 8035.5 7
  65.0387 213077.5 201
  68.0496 197116.9 186
  69.0336 16148.6 15
  69.0575 43401.3 41
  70.0652 109195.9 103
  78.034 25071.9 23
  79.0183 24625 23
  80.0497 50591.7 47
  83.0611 5242.8 4
  92.0498 551332.6 521
  93.0575 7258.6 6
  96.044 29572 27
  108.0448 1057086.2 999
  110.0595 263058.4 248
  111.0553 49221.3 46
  112.0635 158997.4 150
  113.0707 644845.4 609
  120.0555 28604.2 27
  140.0165 76897.3 72
  156.0105 178352.3 168
//
