ACCESSION: MSBNK-HBM4EU-HB000555
RECORD_TITLE: Desipramine; LC-ESI-ITFT; MS2; CE: 180%; R=15000; [M+H]+
DATE: 2018.09.08
AUTHORS: Tobias Schulze, Carolin Huber, Martin Krauss, Department of Effect-Directed Analysis, Helmholtz Centre for Environmental Research GmbH - UFZ, Leipzig, Germany
LICENSE: CC0
COPYRIGHT: Copyright (C) 2018
PUBLICATION: Oberacher H, Sasse M, Antignac J-P, Guitton Y, Debrauwer L, Jamin E L, Schulze T, Krauss M, Covaci A, Caballero-Casero N, Rosseau K, Damont A, Fenaille F, Lamoree M, Schymanski E, A European proposal for quality control and quality assurance of tandem mass spectral libraries, Environmental Sciences Europe, https://doi.org/10.1186/s12302-020-00314-9
COMMENT: CONFIDENCE Reference Standard (Level 1)
COMMENT: HBM4EU - science and policy for a healthy future (https://www.hbm4eu.eu)
CH$NAME: Desipramine
CH$NAME: 3-(5,6-dihydrobenzo[b][1]benzazepin-11-yl)-N-methylpropan-1-amine
CH$COMPOUND_CLASS: N/A; Environmental Standard
CH$FORMULA: C18H22N2
CH$EXACT_MASS: 266.1783
CH$SMILES: CNCCCN1C2=CC=CC=C2CCC3=CC=CC=C31
CH$IUPAC: InChI=1S/C18H22N2/c1-19-13-6-14-20-17-9-4-2-7-15(17)11-12-16-8-3-5-10-18(16)20/h2-5,7-10,19H,6,11-14H2,1H3
CH$LINK: CAS 58-28-6
CH$LINK: CHEBI CHEBI:47781
CH$LINK: KEGG D07791
CH$LINK: PUBCHEM CID:2995
CH$LINK: INCHIKEY HCYAFALTSJYZDH-UHFFFAOYSA-N
CH$LINK: CHEMSPIDER 2888
AC$INSTRUMENT: LTQ Orbitrap XL Thermo Scientific
AC$INSTRUMENT_TYPE: LC-ESI-ITFT
AC$MASS_SPECTROMETRY: MS_TYPE MS2
AC$MASS_SPECTROMETRY: ION_MODE POSITIVE
AC$MASS_SPECTROMETRY: IONIZATION ESI
AC$MASS_SPECTROMETRY: FRAGMENTATION_MODE HCD
AC$MASS_SPECTROMETRY: COLLISION_ENERGY 180% (nominal)
AC$MASS_SPECTROMETRY: RESOLUTION 15000
AC$CHROMATOGRAPHY: COLUMN_NAME Kinetex Evo C18 2.6 um 50 x 2.1 mm
AC$CHROMATOGRAPHY: FLOW_GRADIENT 95/5 at 0 min, 95/5 at 1 min, 0/100 at 13 min, 0/100 at 24 min, 95/5 at 24.3 min, 95/5 at 32 min
AC$CHROMATOGRAPHY: FLOW_RATE 300 uL/min
AC$CHROMATOGRAPHY: RETENTION_TIME 8.452 min
AC$CHROMATOGRAPHY: SOLVENT A water with 0.1% formic acid
AC$CHROMATOGRAPHY: SOLVENT B methanol with 0.1% formic acid
MS$FOCUSED_ION: BASE_PEAK 267.1855
MS$FOCUSED_ION: PRECURSOR_M/Z 267.1856
MS$FOCUSED_ION: PRECURSOR_TYPE [M+H]+
MS$DATA_PROCESSING: RECALIBRATE loess on assigned fragments and MS1
MS$DATA_PROCESSING: REANALYZE Peaks with additional N2/O included
MS$DATA_PROCESSING: WHOLE RMassBank 2.9.1
PK$SPLASH: splash10-00kf-1900000000-596a2dafd5dbdf239a9f
PK$ANNOTATION: m/z tentative_formula formula_count mass error(ppm)
  65.0384 C5H5+ 1 65.0386 -2.43
  72.0807 C4H10N+ 1 72.0808 -0.37
  77.0386 C6H5+ 1 77.0386 0.23
  89.0386 C7H5+ 1 89.0386 -0.19
  90.0464 C7H6+ 1 90.0464 0.33
  91.0542 C7H7+ 1 91.0542 -0.84
  105.0446 C6H5N2+ 1 105.0447 -1.46
  115.0542 C9H7+ 1 115.0542 0.13
  117.0571 C8H7N+ 1 117.0573 -1.63
  128.0495 C9H6N+ 1 128.0495 0.32
  139.0542 C11H7+ 1 139.0542 -0.38
  140.0495 C10H6N+ 1 140.0495 0.08
  140.062 C11H8+ 1 140.0621 -0.49
  151.0539 C12H7+ 1 151.0542 -2.43
  152.062 C12H8+ 1 152.0621 -0.41
  153.0571 C11H7N+ 1 153.0573 -1.48
  163.0541 C13H7+ 1 163.0542 -1.07
  164.0621 C13H8+ 1 164.0621 0.06
  165.0699 C13H9+ 1 165.0699 -0.12
  166.0651 C12H8N+ 1 166.0651 -0.09
  167.0731 C12H9N+ 1 167.073 0.65
  176.0615 C14H8+ 1 176.0621 -3.05
  177.0574 C13H7N+ 1 177.0573 0.79
  177.069 C14H9+ 1 177.0699 -4.74
  178.065 C13H8N+ 1 178.0651 -0.75
  178.0778 C14H10+ 1 178.0777 0.35
  179.073 C13H9N+ 1 179.073 0.55
  180.081 C13H10N+ 1 180.0808 1.32
  190.0651 C14H8N+ 1 190.0651 -0.22
  191.0729 C14H9N+ 1 191.073 -0.45
  192.0808 C14H10N+ 1 192.0808 0.04
  193.0881 C14H11N+ 1 193.0886 -2.4
  204.0807 C15H10N+ 1 204.0808 -0.55
PK$NUM_PEAK: 33
PK$PEAK: m/z int. rel.int.
  65.0384 104641.3 131
  72.0807 66927.4 84
  77.0386 74143 93
  89.0386 215501.6 270
  90.0464 112523.5 141
  91.0542 159189.1 199
  105.0446 85220.7 107
  115.0542 119952.4 150
  117.0571 62031.7 77
  128.0495 58499.5 73
  139.0542 193767.7 243
  140.0495 64606.9 81
  140.062 49446 62
  151.0539 60492.8 75
  152.062 233344.2 293
  153.0571 39735.3 49
  163.0541 63483.2 79
  164.0621 178820.3 224
  165.0699 646029.1 811
  166.0651 196267 246
  167.0731 196502.4 246
  176.0615 64202.2 80
  177.0574 74407.7 93
  177.069 32965.8 41
  178.065 155926.3 195
  178.0778 84409.6 106
  179.073 102263.9 128
  180.081 54596.9 68
  190.0651 283040.8 355
  191.0729 795171.7 999
  192.0808 362548.9 455
  193.0881 88385.6 111
  204.0807 61222.1 76
//
