ACCESSION: MSBNK-HBM4EU-HB002873
RECORD_TITLE: Isoproturon-OH (TENTATIVE); LC-ESI-QFT; MS2; CE: 30%; R=70000; [M+H]+
DATE: 2021.02.23
AUTHORS: Carolin Huber, Tobias Schulze, Martin Krauss, Department of Effect-Directed Analysis, Helmholtz Centre for Environmental Research - UFZ GmbH, Leipzig, Germany
LICENSE: CC0
COPYRIGHT: Copyright (C) 2021 Helmholtz Centre for Environmental Research - UFZ, Leipzig, Germany 
PUBLICATION: Huber C, Mueller E, Schulze T, Brack W, Krauss M, Improving the Screening Analysis of Pesticide Metabolites in Human Biomonitoring by Combining High-Throughput In Vitro Incubation and Automated LC–HRMS Data Processing, Analytical Chemistry, https://doi.org/10.1021/acs.analchem.1c00972
COMMENT: HBM4EU - science and policy for a healthy future (https://www.hbm4eu.eu)
COMMENT: COMMENT: CONFIDENCE: Tentative structure, with evidences on substitutes (Level 3b)
COMMENT: COMMENT: generated by human liver S9 incubation
COMMENT: Isoproturon_OH_30eV.txt
CH$NAME: Isoproturon-OH
CH$COMPOUND_CLASS: N/A; Biotransformation Product
CH$FORMULA: C12H18N2O2
CH$EXACT_MASS: 222.1358
CH$SMILES: C(*)C(C)C1=C(*)C(*)=C(C=C1)NC(=O)N(C)C(*) *=[OH (n=1) & H (n=3)] 
CH$IUPAC: N/A
AC$INSTRUMENT: Q Exactive Plus Orbitrap Thermo Scientific
AC$INSTRUMENT_TYPE: LC-ESI-QFT
AC$MASS_SPECTROMETRY: MS_TYPE MS2
AC$MASS_SPECTROMETRY: ION_MODE POSITIVE
AC$MASS_SPECTROMETRY: IONIZATION ESI
AC$MASS_SPECTROMETRY: FRAGMENTATION_MODE HCD
AC$MASS_SPECTROMETRY: COLLISION_ENERGY 30% (nominal)
AC$MASS_SPECTROMETRY: RESOLUTION 70000
AC$CHROMATOGRAPHY: COLUMN_NAME Waters UPLC BEH C18 1.7 um 2.1 mm x 100 mm with pre-column
AC$CHROMATOGRAPHY: FLOW_GRADIENT 100/0 at 0 min, 0/100 at 15 min, 0/100 at 21 min, 100/0 at 22 min, 100/0 at 30 min
AC$CHROMATOGRAPHY: FLOW_RATE 300 uL/min
AC$CHROMATOGRAPHY: RETENTION_TIME 12.85 min
AC$CHROMATOGRAPHY: SOLVENT A water with 1% ammonium carbonate 1M
AC$CHROMATOGRAPHY: SOLVENT B methanol with 1% ammonium carbonate 1M and 5% water
MS$FOCUSED_ION: PRECURSOR_M/Z 223.1436
MS$FOCUSED_ION: PRECURSOR_TYPE [M+H]+
MS$DATA_PROCESSING: COMMENT Peaks removed that cannot be explained by GenForm and Molecular Formula (5 ppm)
MS$DATA_PROCESSING: WHOLE mzR
PK$SPLASH: splash10-001i-1900000000-2c5d0ecc8c0dae3c4ecf
PK$NUM_PEAK: 19
PK$PEAK: m/z int. rel.int.
  67.0543 4741.4 42
  72.0444 7595.1 67
  79.0542 7372.8 65
  81.0699 5723 50
  91.0542 12202.4 108
  93.0699 4622.5 41
  95.0854 5467.7 48
  105.0701 5742.2 51
  106.0652 63128.6 557
  107.0857 8720.9 77
  109.1016 2811.8 25
  117.0696 4320.9 38
  119.0853 3664.8 32
  121.0283 4838.6 43
  121.0649 3442.9 30
  124.0758 5827.1 51
  132.0444 113284 999
  134.0964 14464.1 128
  149.0711 24091.7 212
//
