ACCESSION: MSBNK-HBM4EU-HB002312
RECORD_TITLE: Dixyrazine ; LC-ESI-ITFT; MS2; CE: 45%; R=7500; [M+H]+
DATE: 2020.02.20
AUTHORS: Laurent Debrauwer, Emilien L. Jamin, Research Centre in Food Toxicology (TOXALIM), INRAE, MetaboHUB-Metatoul platform, Toulouse, France
LICENSE: CC0
COPYRIGHT: Copyright (c) 2000 by Research Centre in Food Toxicology (TOXALIM), INRAE, MetaboHUB-Metatoul platform, Toulouse, France
PUBLICATION: Oberacher H, Sasse M, Antignac J-P, Guitton Y, Debrauwer L, Jamin E L, Schulze T, Krauss M, Covaci A, Caballero-Casero N, Rosseau K, Damont A, Fenaille F, Lamoree M, Schymanski E, A European proposal for quality control and quality assurance of tandem mass spectral libraries, Environmental Sciences Europe, https://doi.org/10.1186/s12302-020-00314-9
COMMENT: CONFIDENCE Reference Standard (Level 1)
COMMENT: HBM4EU - science and policy for a healthy future (https://www.hbm4eu.eu)
CH$NAME: Dixyrazine
CH$NAME: 2-(2-{4-[2-Methyl-3-(10H-phenothiazin-10-yl)propyl]piperazin-1-yl}ethoxy)ethan-1-ol
CH$COMPOUND_CLASS: N/A; Environmental Standard
CH$FORMULA: C24H33N3O2S
CH$EXACT_MASS: 427.2293
CH$SMILES: CC(CN1CCN(CCOCCO)CC1)CN1C2=CC=CC=C2SC2=CC=CC=C12
CH$IUPAC: InChI=1S/C24H33N3O2S/c1-20(18-26-12-10-25(11-13-26)14-16-29-17-15-28)19-27-21-6-2-4-8-23(21)30-24-9-5-3-7-22(24)27/h2-9,20,28H,10-19H2,1H3
CH$LINK: CAS 2470-73-7
CH$LINK: COMPTOX DTXSID10947639
CH$LINK: INCHIKEY MSYUMPGNGDNTIQ-UHFFFAOYSA-N
CH$LINK: PUBCHEM CID:17182
AC$INSTRUMENT: LTQ Orbitrap XL Thermo Fisher Scientific
AC$INSTRUMENT_TYPE: LC-ESI-ITFT
AC$MASS_SPECTROMETRY: MS_TYPE MS2
AC$MASS_SPECTROMETRY: ION_MODE POSITIVE
AC$MASS_SPECTROMETRY: IONIZATION ESI
AC$MASS_SPECTROMETRY: FRAGMENTATION_MODE HCD
AC$MASS_SPECTROMETRY: COLLISION_ENERGY 45% (nominal)
AC$MASS_SPECTROMETRY: RESOLUTION 7500
AC$CHROMATOGRAPHY: COLUMN_NAME Hypersil GOLD C18 1.9 um 100 x 2.1 mm Thermo Fisher Scientific
AC$CHROMATOGRAPHY: FLOW_GRADIENT 100/0 at 0 min, 0/100 at 30 min, 0/100 at 35 min
AC$CHROMATOGRAPHY: FLOW_RATE 300 uL/min
AC$CHROMATOGRAPHY: SOLVENT A water with 5% methanol and 0.1% acetic acid
AC$CHROMATOGRAPHY: SOLVENT B methanol with 0.1% acetic acid
MS$FOCUSED_ION: PRECURSOR_M/Z 428.2367
MS$FOCUSED_ION: PRECURSOR_TYPE [M+H]+
PK$SPLASH: splash10-004r-1790000000-2803b37f476a17dbc538
PK$NUM_PEAK: 33
PK$PEAK: m/z int. rel.int.
  57.1129 6450.3 2
  57.1257 5656.9 1
  57.1391 7095.8 2
  70.065 42443 10
  82.065 10039.3 2
  87.044 66538.1 16
  97.076 90514 22
  98.0839 435361 106
  99.0917 47170.7 11
  100.1123 9776.2 2
  101.1074 785943 191
  110.0837 6824.4 2
  112.1121 23671.7 6
  113.1075 9850.2 2
  118.0863 24510.4 6
  125.1073 265219.2 64
  127.123 7305.4 2
  132.1018 11766 3
  139.1229 5451.3 1
  140.1307 72684.2 18
  144.102 84228.1 20
  155.1544 39441.9 10
  172.1207 208033.8 51
  180.0809 66390.1 16
  187.1442 2944063.1 715
  198.0376 7173.9 2
  199.0449 27634.8 7
  212.053 1076305.6 262
  220.112 6080.3 1
  221.1201 34319.4 8
  229.1915 4111096.5 999
  254.1002 189110.4 46
  428.2367 273737.4 67
//
