ACCESSION: MSBNK-HBM4EU-HB002801
RECORD_TITLE: Sulfamoxole; LC-ESI-QFT; MS2; CE: CE75; R=17500; [M+H]+
DATE: 2019.09.23
AUTHORS: Kondic T, Singh R, Elapavalore A, Krier J, Mohammed Taha H, Narayanan M, Schymanski E
LICENSE: CC0
COPYRIGHT: Copyright (c) by Environmental Cheminformatics, LCSB, University of Luxembourg, Luxembourg
PUBLICATION: Oberacher H, Sasse M, Antignac J-P, Guitton Y, Debrauwer L, Jamin E L, Schulze T, Krauss M, Covaci A, Caballero-Casero N, Rosseau K, Damont A, Fenaille F, Lamoree M, Schymanski E, A European proposal for quality control and quality assurance of tandem mass spectral libraries, Environmental Sciences Europe, https://doi.org/10.1186/s12302-020-00314-9
COMMENT: CONFIDENCE standard compound
COMMENT: INTERNAL_ID 8
COMMENT: HBM4EU - science and policy for a healthy future (https://www.hbm4eu.eu)
CH$NAME: Sulfamoxole
CH$NAME: 4-amino-N-(4,5-dimethyl-1,3-oxazol-2-yl)benzenesulfonamide
CH$COMPOUND_CLASS: N/A; Environmental Standard
CH$FORMULA: C11H13N3O3S
CH$EXACT_MASS: 267.0678
CH$SMILES: CC1=C(C)N=C(NS(=O)(=O)C2=CC=C(N)C=C2)O1
CH$IUPAC: InChI=1S/C11H13N3O3S/c1-7-8(2)17-11(13-7)14-18(15,16)10-5-3-9(12)4-6-10/h3-6H,12H2,1-2H3,(H,13,14)
CH$LINK: CAS 729-99-7
CH$LINK: CHEBI CHEBI:55548
CH$LINK: KEGG D02516
CH$LINK: PUBCHEM CID:12894
CH$LINK: INCHIKEY CYFLXLSBHQBMFT-UHFFFAOYSA-N
CH$LINK: CHEMSPIDER 12361
AC$INSTRUMENT: Q Exactive Thermo Fisher Scientific
AC$INSTRUMENT_TYPE: LC-ESI-QFT
AC$MASS_SPECTROMETRY: MS_TYPE MS2
AC$MASS_SPECTROMETRY: ION_MODE POSITIVE
AC$MASS_SPECTROMETRY: IONIZATION ESI
AC$MASS_SPECTROMETRY: FRAGMENTATION_MODE HCD
AC$MASS_SPECTROMETRY: COLLISION_ENERGY CE75
AC$MASS_SPECTROMETRY: RESOLUTION 17500
AC$CHROMATOGRAPHY: COLUMN_NAME Acquity UPLC BEH C18 1.7 um, 2.1 x 150 mm, Waters
AC$CHROMATOGRAPHY: FLOW_GRADIENT 90/10 at 0 min, 90/10 at 2 min, 0/100 at 15 min, 0/100 at 20 min, 90/10 at 21 min, 90/10 at 30 min
AC$CHROMATOGRAPHY: FLOW_RATE 200 uL/min
AC$CHROMATOGRAPHY: RETENTION_TIME 13.974 min
AC$CHROMATOGRAPHY: SOLVENT A water with 0.1% formic acid
AC$CHROMATOGRAPHY: SOLVENT B methanol
MS$FOCUSED_ION: BASE_PEAK 223.0628
MS$FOCUSED_ION: PRECURSOR_M/Z 268.075
MS$FOCUSED_ION: PRECURSOR_TYPE [M+H]+
MS$DATA_PROCESSING: RECALIBRATE loess on assigned fragments and MS1
MS$DATA_PROCESSING: REANALYZE Peaks with additional N2/O included
MS$DATA_PROCESSING: WHOLE RMassBank 2.11.3.1
PK$SPLASH: splash10-014i-9000000000-aa0474d7a575eef063ed
PK$ANNOTATION: m/z tentative_formula formula_count mass error(ppm)
  50.0156 C4H2+ 1 50.0151 9.27
  51.0234 C4H3+ 1 51.0229 9.68
  52.0186 C3H2N+ 1 52.0182 8.2
  53.0026 C3HO+ 1 53.0022 6.88
  53.0388 C4H5+ 1 53.0386 4.64
  53.9977 C2NO+ 1 53.9974 4.86
  54.0343 C3H4N+ 1 54.0338 8.4
  55.0181 C3H3O+ 1 55.0178 4.14
  56.0497 C3H6N+ 1 56.0495 4.3
  63.0233 C5H3+ 1 63.0229 6.52
  65.0387 C5H5+ 1 65.0386 1.43
  66.0341 C4H4N+ 1 66.0338 4.61
  68.0495 C4H6N+ 1 68.0495 1.05
  70.0652 C4H8N+ 1 70.0651 0.75
  80.0497 C5H6N+ 1 80.0495 2.56
  83.0496 C5H7O+ 1 83.0491 5.31
  92.0497 C6H6N+ 2 92.0495 2.25
  108.0448 C6H6NO+ 1 108.0444 3.83
  110.0607 C6H8NO+ 1 110.06 5.91
  111.0553 C5H7N2O+ 1 111.0553 -0.11
  171.0158 C10H5NS+ 1 171.0137 12.05
PK$NUM_PEAK: 21
PK$PEAK: m/z int. rel.int.
  50.0156 3036.3 3
  51.0234 5924.4 6
  52.0186 6476.6 7
  53.0026 96425 110
  53.0388 80721.6 92
  53.9977 11116.3 12
  54.0343 45222.9 51
  55.0181 4922.5 5
  56.0497 12467.8 14
  63.0233 7230.4 8
  65.0387 872384 999
  66.0341 8478 9
  68.0495 14820.2 16
  70.0652 52984.2 60
  80.0497 329126.6 376
  83.0496 8084.6 9
  92.0497 41339.1 47
  108.0448 37388.8 42
  110.0607 4419.4 5
  111.0553 17172.7 19
  171.0158 7780.1 8
//
