ACCESSION: MSBNK-HBM4EU-HB003958
RECORD_TITLE: Funalenone; LC-ESI-ITFT; MS2; CE: 50%; R=7500; [M+H]+
DATE: 2021.10.11
AUTHORS: Laurent Debrauwer, Emilien L. Jamin, Research Centre in Food Toxicology (TOXALIM), INRAE, MetaboHUB-Metatoul platform, Toulouse, France
LICENSE: CC0
COPYRIGHT: Copyright (c) 2021 by Research Centre in Food Toxicology (TOXALIM), INRAE, MetaboHUB-Metatoul platform, Toulouse, France
COMMENT: HBM4EU - science and policy for a healthy future (https://www.hbm4eu.eu)
COMMENT: CONFIDENCE Reference Standard (Level 1)
COMMENT: INTERNAL_ID 141
CH$NAME: Funalenone
CH$COMPOUND_CLASS: N/A; Environmental Standard
CH$FORMULA: C15H12O6
CH$EXACT_MASS: 288.0634
CH$SMILES: O=C1C(OC)=C(O)C2=C(O)C=C(C)C3=C2C1=C(O)C=C3O
CH$IUPAC: InChI=1S/C15H12O6/c1-5-3-6(16)10-12-9(5)7(17)4-8(18)11(12)14(20)15(21-2)13(10)19/h3-4,16-19H,1-2H3
CH$LINK: CAS 259728-61-5
CH$LINK: CHEBI CHEBI:65932
CH$LINK: INCHIKEY QAPJKCNKHLDDAK-UHFFFAOYSA-N
CH$LINK: CHEMSPIDER 28532995
AC$INSTRUMENT: LTQ Orbitrap XL Thermo Scientific
AC$INSTRUMENT_TYPE: LC-ESI-ITFT
AC$MASS_SPECTROMETRY: MS_TYPE MS2
AC$MASS_SPECTROMETRY: ION_MODE POSITIVE
AC$MASS_SPECTROMETRY: IONIZATION ESI
AC$MASS_SPECTROMETRY: FRAGMENTATION_MODE HCD
AC$MASS_SPECTROMETRY: COLLISION_ENERGY 50 % (nominal)
AC$MASS_SPECTROMETRY: RESOLUTION 7500
AC$CHROMATOGRAPHY: COLUMN_NAME Hypersil GOLD C18 1.9 um 100 x 2.1 mm Thermo Fisher Scientific
AC$CHROMATOGRAPHY: FLOW_GRADIENT 100/0 at 0 min, 0/100 at 30 min, 0/100 at 35 min
AC$CHROMATOGRAPHY: FLOW_RATE 300 uL/min
AC$CHROMATOGRAPHY: RETENTION_TIME 17.679 min
AC$CHROMATOGRAPHY: SOLVENT A water with 5% methanol and 0.1% acetic acid
AC$CHROMATOGRAPHY: SOLVENT B methanol with 0.1% acetic acid
MS$FOCUSED_ION: BASE_PEAK 575.1196
MS$FOCUSED_ION: PRECURSOR_M/Z 289.0707
MS$FOCUSED_ION: PRECURSOR_TYPE [M+H]+
MS$FOCUSED_ION: PRECURSOR_INTENSITY 387393.3964844
MS$DATA_PROCESSING: RECALIBRATE loess on assigned fragments and MS1
MS$DATA_PROCESSING: REANALYZE Peaks with additional N2/O included
MS$DATA_PROCESSING: WHOLE RMassBank 3.2.0
PK$SPLASH: splash10-00di-0090000000-24e6a6f6b64eca90eeec
PK$ANNOTATION: m/z tentative_formula formula_count mass error(ppm)
  274.0475 C14H10O6+ 1 274.0472 1.09
  289.0706 C15H13O6+ 1 289.0707 -0.32
PK$NUM_PEAK: 2
PK$PEAK: m/z int. rel.int.
  274.0475 71147.6 999
  289.0706 31028.4 435
//
