ACCESSION: MSBNK-HBM4EU-HB001647
RECORD_TITLE: Sulfamethoxazole; LC-ESI-ITFT; MS2; CE: 100%; R=15000; [M+H]+
DATE: 2018.09.08
AUTHORS: Tobias Schulze, Carolin Huber, Martin Krauss, Department of Effect-Directed Analysis, Helmholtz Centre for Environmental Research GmbH - UFZ, Leipzig, Germany
LICENSE: CC0
COPYRIGHT: Copyright (C) 2018
PUBLICATION: Oberacher H, Sasse M, Antignac J-P, Guitton Y, Debrauwer L, Jamin E L, Schulze T, Krauss M, Covaci A, Caballero-Casero N, Rosseau K, Damont A, Fenaille F, Lamoree M, Schymanski E, A European proposal for quality control and quality assurance of tandem mass spectral libraries, Environmental Sciences Europe, https://doi.org/10.1186/s12302-020-00314-9
COMMENT: CONFIDENCE Reference Standard (Level 1)
COMMENT: HBM4EU - science and policy for a healthy future (https://www.hbm4eu.eu)
CH$NAME: Sulfamethoxazole
CH$NAME: 4-amino-N-(5-methyl-1,2-oxazol-3-yl)benzenesulfonamide
CH$COMPOUND_CLASS: N/A; Environmental Standard
CH$FORMULA: C10H11N3O3S
CH$EXACT_MASS: 253.0521
CH$SMILES: CC1=CC(=NO1)NS(=O)(=O)C2=CC=C(C=C2)N
CH$IUPAC: InChI=1S/C10H11N3O3S/c1-7-6-10(12-16-7)13-17(14,15)9-4-2-8(11)3-5-9/h2-6H,11H2,1H3,(H,12,13)
CH$LINK: CAS 723-46-6
CH$LINK: CHEBI CHEBI:9332
CH$LINK: KEGG D00447
CH$LINK: PUBCHEM CID:5329
CH$LINK: INCHIKEY JLKIGFTWXXRPMT-UHFFFAOYSA-N
CH$LINK: CHEMSPIDER 5138
AC$INSTRUMENT: LTQ Orbitrap XL Thermo Scientific
AC$INSTRUMENT_TYPE: LC-ESI-ITFT
AC$MASS_SPECTROMETRY: MS_TYPE MS2
AC$MASS_SPECTROMETRY: ION_MODE POSITIVE
AC$MASS_SPECTROMETRY: IONIZATION ESI
AC$MASS_SPECTROMETRY: FRAGMENTATION_MODE CID
AC$MASS_SPECTROMETRY: COLLISION_ENERGY 100% (nominal)
AC$MASS_SPECTROMETRY: RESOLUTION 15000
AC$CHROMATOGRAPHY: COLUMN_NAME Kinetex Evo C18 2.6 um 50 x 2.1 mm
AC$CHROMATOGRAPHY: FLOW_GRADIENT 95/5 at 0 min, 95/5 at 1 min, 0/100 at 13 min, 0/100 at 24 min, 95/5 at 24.3 min, 95/5 at 32 min
AC$CHROMATOGRAPHY: FLOW_RATE 300 uL/min
AC$CHROMATOGRAPHY: RETENTION_TIME 5.593 min
AC$CHROMATOGRAPHY: SOLVENT A water with 0.1% formic acid
AC$CHROMATOGRAPHY: SOLVENT B methanol with 0.1% formic acid
MS$FOCUSED_ION: BASE_PEAK 189.1021
MS$FOCUSED_ION: PRECURSOR_M/Z 254.0594
MS$FOCUSED_ION: PRECURSOR_TYPE [M+H]+
MS$DATA_PROCESSING: RECALIBRATE loess on assigned fragments and MS1
MS$DATA_PROCESSING: REANALYZE Peaks with additional N2/O included
MS$DATA_PROCESSING: WHOLE RMassBank 2.9.1
PK$SPLASH: splash10-0a4v-0900000000-120369208f2d6e6290de
PK$ANNOTATION: m/z tentative_formula formula_count mass error(ppm)
  65.0384 C5H5+ 1 65.0386 -2.33
  80.0494 C5H6N+ 1 80.0495 -0.85
  92.0495 C6H6N+ 1 92.0495 0.67
  93.0573 C6H7N+ 1 93.0573 0.35
  94.0652 C6H8N+ 1 94.0651 0.61
  99.0553 C4H7N2O+ 1 99.0553 0.38
  107.0604 C6H7N2+ 1 107.0604 0.62
  108.0444 C6H6NO+ 1 108.0444 0.46
  121.0762 C7H9N2+ 1 121.076 1.3
  131.0604 C8H7N2+ 1 131.0604 -0.03
  132.0682 C8H8N2+ 1 132.0682 -0.04
  133.0632 C7H7N3+ 1 133.0634 -1.62
  145.0762 C9H9N2+ 1 145.076 1.19
  146.0714 C8H8N3+ 1 146.0713 0.77
  147.0791 C8H9N3+ 1 147.0791 0.24
  148.0869 C8H10N3+ 1 148.0869 -0.38
  156.0114 C6H6NO2S+ 1 156.0114 0.38
  160.0869 C9H10N3+ 1 160.0869 -0.06
  161.0016 C4H5N2O3S+ 1 161.0015 0.19
  161.0708 C9H9N2O+ 1 161.0709 -0.68
  163.0866 C9H11N2O+ 1 163.0866 -0.1
  172.0871 C10H10N3+ 1 172.0869 1.13
  173.0707 C10H9N2O+ 1 173.0709 -1.57
  176.0277 C8H6N3S+ 1 176.0277 0.25
  177.0119 C8H5N2OS+ 1 177.0117 1.07
  188.0819 C10H10N3O+ 1 188.0818 0.5
  190.0974 C10H12N3O+ 1 190.0975 -0.46
  193.0301 C8H7N3OS+ 1 193.0304 -1.7
  194.0382 C8H8N3OS+ 1 194.0383 -0.43
  236.049 C10H10N3O2S+ 1 236.0488 0.83
  254.0594 C10H12N3O3S+ 1 254.0594 0.23
PK$NUM_PEAK: 31
PK$PEAK: m/z int. rel.int.
  65.0384 5871.6 7
  80.0494 3753.1 4
  92.0495 84403.1 110
  93.0573 22164.1 29
  94.0652 20808 27
  99.0553 13752.3 18
  107.0604 20900.7 27
  108.0444 189201.3 248
  121.0762 4101.2 5
  131.0604 7446.5 9
  132.0682 3936.6 5
  133.0632 2902.6 3
  145.0762 2741.5 3
  146.0714 110482.7 145
  147.0791 446299.5 586
  148.0869 113316.8 148
  156.0114 759758.1 999
  160.0869 324505.5 426
  161.0016 6233.5 8
  161.0708 8077.4 10
  163.0866 4288.4 5
  172.0871 11582 15
  173.0707 1316.2 1
  176.0277 25173.2 33
  177.0119 4631.2 6
  188.0819 667740.1 878
  190.0974 208436.3 274
  193.0301 2672.4 3
  194.0382 266845.9 350
  236.049 11410.9 15
  254.0594 6684 8
//
