ACCESSION: MSBNK-HBM4EU-HB001905
RECORD_TITLE: Tetracycline; LC-ESI-ITFT; MS2; CE: 30%; R=15000; [M+H]+
DATE: 2018.09.08
AUTHORS: Tobias Schulze, Carolin Huber, Martin Krauss, Department of Effect-Directed Analysis, Helmholtz Centre for Environmental Research GmbH - UFZ, Leipzig, Germany
LICENSE: CC0
COPYRIGHT: Copyright (C) 2018
PUBLICATION: Oberacher H, Sasse M, Antignac J-P, Guitton Y, Debrauwer L, Jamin E L, Schulze T, Krauss M, Covaci A, Caballero-Casero N, Rosseau K, Damont A, Fenaille F, Lamoree M, Schymanski E, A European proposal for quality control and quality assurance of tandem mass spectral libraries, Environmental Sciences Europe, https://doi.org/10.1186/s12302-020-00314-9
COMMENT: CONFIDENCE Reference Standard (Level 1)
COMMENT: HBM4EU - science and policy for a healthy future (https://www.hbm4eu.eu)
CH$NAME: Tetracycline
CH$NAME: 2-[amino(hydroxy)methylidene]-4-(dimethylamino)-6,10,11,12a-tetrahydroxy-6-methyl-4,4a,5,5a-tetrahydrotetracene-1,3,12-trione
CH$COMPOUND_CLASS: N/A; Environmental Standard
CH$FORMULA: C22H24N2O8
CH$EXACT_MASS: 444.1533
CH$SMILES: [H][C@@]12C[C@@]3([H])C(=C(O)[C@]1(O)C(=O)C(C(N)=O)=C(O)[C@H]2N(C)C)C(=O)C1=C(C=CC=C1O)[C@@]3(C)O
CH$IUPAC: InChI=1S/C22H24N2O8/c1-21(31)8-5-4-6-11(25)12(8)16(26)13-9(21)7-10-15(24(2)3)17(27)14(20(23)30)19(29)22(10,32)18(13)28/h4-6,9-10,15,25,27-28,31-32H,7H2,1-3H3,(H2,23,30)/t9-,10-,15-,21+,22-/m0/s1
CH$LINK: CAS 60-54-8
CH$LINK: INCHIKEY OFVLGDICTFRJMM-WESIUVDSSA-N
CH$LINK: CHEMSPIDER 10257122
CH$LINK: COMPTOX DTXSID7023645
AC$INSTRUMENT: LTQ Orbitrap XL Thermo Scientific
AC$INSTRUMENT_TYPE: LC-ESI-ITFT
AC$MASS_SPECTROMETRY: MS_TYPE MS2
AC$MASS_SPECTROMETRY: ION_MODE POSITIVE
AC$MASS_SPECTROMETRY: IONIZATION ESI
AC$MASS_SPECTROMETRY: FRAGMENTATION_MODE HCD
AC$MASS_SPECTROMETRY: COLLISION_ENERGY 30% (nominal)
AC$MASS_SPECTROMETRY: RESOLUTION 15000
AC$CHROMATOGRAPHY: COLUMN_NAME Kinetex Evo C18 2.6 um 50 x 2.1 mm
AC$CHROMATOGRAPHY: FLOW_GRADIENT 95/5 at 0 min, 95/5 at 1 min, 0/100 at 13 min, 0/100 at 24 min, 95/5 at 24.3 min, 95/5 at 32 min
AC$CHROMATOGRAPHY: FLOW_RATE 300 uL/min
AC$CHROMATOGRAPHY: RETENTION_TIME 3.385 min
AC$CHROMATOGRAPHY: SOLVENT A water with 0.1% formic acid
AC$CHROMATOGRAPHY: SOLVENT B methanol with 0.1% formic acid
MS$FOCUSED_ION: BASE_PEAK 300.1474
MS$FOCUSED_ION: PRECURSOR_M/Z 445.1605
MS$FOCUSED_ION: PRECURSOR_TYPE [M+H]+
MS$DATA_PROCESSING: RECALIBRATE loess on assigned fragments and MS1
MS$DATA_PROCESSING: REANALYZE Peaks with additional N2/O included
MS$DATA_PROCESSING: WHOLE RMassBank 2.9.1
PK$SPLASH: splash10-0ik9-0800900000-380a9badea39318875dc
PK$ANNOTATION: m/z tentative_formula formula_count mass error(ppm)
  154.0497 C7H8NO3+ 1 154.0499 -0.94
  410.1234 C22H20NO7+ 1 410.1234 -0.14
  427.1492 C22H23N2O7+ 1 427.15 -1.86
  428.1327 C22H22NO8+ 1 428.134 -3
PK$NUM_PEAK: 4
PK$PEAK: m/z int. rel.int.
  154.0497 92204.2 987
  410.1234 93243.2 999
  427.1492 2769.7 29
  428.1327 5044.3 54
//
