ACCESSION: MSBNK-HBM4EU-HB000610
RECORD_TITLE: Dosulepin; LC-ESI-ITFT; MS2; CE: 35%; R=15000; [M+H]+
DATE: 2018.09.08
AUTHORS: Tobias Schulze, Carolin Huber, Martin Krauss, Department of Effect-Directed Analysis, Helmholtz Centre for Environmental Research GmbH - UFZ, Leipzig, Germany
LICENSE: CC0
COPYRIGHT: Copyright (C) 2018
PUBLICATION: Oberacher H, Sasse M, Antignac J-P, Guitton Y, Debrauwer L, Jamin E L, Schulze T, Krauss M, Covaci A, Caballero-Casero N, Rosseau K, Damont A, Fenaille F, Lamoree M, Schymanski E, A European proposal for quality control and quality assurance of tandem mass spectral libraries, Environmental Sciences Europe, https://doi.org/10.1186/s12302-020-00314-9
COMMENT: CONFIDENCE Reference Standard (Level 1)
COMMENT: HBM4EU - science and policy for a healthy future (https://www.hbm4eu.eu)
CH$NAME: Dosulepin
CH$NAME: Dothiepin
CH$NAME: 3-(6H-benzo[c][1]benzothiepin-11-ylidene)-N,N-dimethylpropan-1-amine
CH$COMPOUND_CLASS: N/A; Environmental Standard
CH$FORMULA: C19H21NS
CH$EXACT_MASS: 295.1395
CH$SMILES: CN(C)CCC=C1C2=CC=CC=C2CSC3=CC=CC=C31
CH$IUPAC: InChI=1S/C19H21NS/c1-20(2)13-7-11-17-16-9-4-3-8-15(16)14-21-19-12-6-5-10-18(17)19/h3-6,8-12H,7,13-14H2,1-2H3
CH$LINK: CAS 113-53-1
CH$LINK: PUBCHEM CID:3155
CH$LINK: INCHIKEY PHTUQLWOUWZIMZ-UHFFFAOYSA-N
CH$LINK: CHEMSPIDER 3043
AC$INSTRUMENT: LTQ Orbitrap XL Thermo Scientific
AC$INSTRUMENT_TYPE: LC-ESI-ITFT
AC$MASS_SPECTROMETRY: MS_TYPE MS2
AC$MASS_SPECTROMETRY: ION_MODE POSITIVE
AC$MASS_SPECTROMETRY: IONIZATION ESI
AC$MASS_SPECTROMETRY: FRAGMENTATION_MODE HCD
AC$MASS_SPECTROMETRY: COLLISION_ENERGY 35% (nominal)
AC$MASS_SPECTROMETRY: RESOLUTION 15000
AC$CHROMATOGRAPHY: COLUMN_NAME Kinetex Evo C18 2.6 um 50 x 2.1 mm
AC$CHROMATOGRAPHY: FLOW_GRADIENT 95/5 at 0 min, 95/5 at 1 min, 0/100 at 13 min, 0/100 at 24 min, 95/5 at 24.3 min, 95/5 at 32 min
AC$CHROMATOGRAPHY: FLOW_RATE 300 uL/min
AC$CHROMATOGRAPHY: RETENTION_TIME 8.113 min
AC$CHROMATOGRAPHY: SOLVENT A water with 0.1% formic acid
AC$CHROMATOGRAPHY: SOLVENT B methanol with 0.1% formic acid
MS$FOCUSED_ION: BASE_PEAK 296.1466
MS$FOCUSED_ION: PRECURSOR_M/Z 296.1467
MS$FOCUSED_ION: PRECURSOR_TYPE [M+H]+
MS$DATA_PROCESSING: RECALIBRATE loess on assigned fragments and MS1
MS$DATA_PROCESSING: REANALYZE Peaks with additional N2/O included
MS$DATA_PROCESSING: WHOLE RMassBank 2.9.1
PK$SPLASH: splash10-0002-0190000000-41b8d6aee1d9907eb544
PK$ANNOTATION: m/z tentative_formula formula_count mass error(ppm)
  58.0649 C3H8N+ 1 58.0651 -3.67
  91.0542 C7H7+ 1 91.0542 0.25
  117.0698 C9H9+ 1 117.0699 -0.92
  123.0262 C7H7S+ 1 123.0263 -0.98
  141.0699 C11H9+ 1 141.0699 -0.02
  142.0777 C11H10+ 1 142.0777 0.3
  147.0262 C9H7S+ 1 147.0263 -0.67
  173.0418 C11H9S+ 1 173.0419 -0.64
  191.0853 C15H11+ 1 191.0855 -1.26
  192.0931 C15H12+ 1 192.0934 -1.33
  209.0418 C14H9S+ 1 209.0419 -0.53
  217.1011 C17H13+ 1 217.1012 -0.2
  218.1088 C17H14+ 1 218.109 -0.96
  221.042 C15H9S+ 1 221.0419 0.25
  222.0496 C15H10S+ 1 222.0498 -0.64
  223.0574 C15H11S+ 1 223.0576 -1.03
  225.073 C15H13S+ 1 225.0732 -0.93
  236.0652 C16H12S+ 1 236.0654 -0.74
  251.0888 C17H15S+ 1 251.0889 -0.41
  253.1037 C17H17S+ 1 253.1045 -3.41
  265.1039 C18H17S+ 1 265.1045 -2.57
  296.1467 C19H22NS+ 1 296.1467 -0.24
PK$NUM_PEAK: 22
PK$PEAK: m/z int. rel.int.
  58.0649 1347373.1 173
  91.0542 286022.8 36
  117.0698 718853 92
  123.0262 341774 43
  141.0699 108061.8 13
  142.0777 74859.7 9
  147.0262 560063.4 71
  173.0418 132533.5 17
  191.0853 188720.8 24
  192.0931 65712.4 8
  209.0418 448907.8 57
  217.1011 378125.6 48
  218.1088 1596160.1 205
  221.042 59178.4 7
  222.0496 428875.9 55
  223.0574 1473681.4 189
  225.073 2551711 327
  236.0652 289881.2 37
  251.0888 3146573.8 404
  253.1037 81859.1 10
  265.1039 29076.1 3
  296.1467 7778347.5 999
//
