ACCESSION: MSBNK-HBM4EU-HB003663
RECORD_TITLE: Territrem B; LC-ESI-ITFT; MS2; CE: 20%; R=7500; [M+H]+
DATE: 2021.10.11
AUTHORS: Laurent Debrauwer, Emilien L. Jamin, Research Centre in Food Toxicology (TOXALIM), INRAE, MetaboHUB-Metatoul platform, Toulouse, France
LICENSE: CC0
COPYRIGHT: Copyright (c) 2021 by Research Centre in Food Toxicology (TOXALIM), INRAE, MetaboHUB-Metatoul platform, Toulouse, France
COMMENT: HBM4EU - science and policy for a healthy future (https://www.hbm4eu.eu)
COMMENT: CONFIDENCE Reference Standard (Level 1)
COMMENT: INTERNAL_ID 62
CH$NAME: Territrem B
CH$NAME: 1,7-dihydroxy-2,6,6,10-tetramethyl-14-(3,4,5-trimethoxyphenyl)-11,15-dioxatetracyclo[8.8.0.02,7.012,17]octadeca-4,12(17),13-triene-3,16-dione
CH$COMPOUND_CLASS: N/A; Environmental Standard
CH$FORMULA: C29H34O9
CH$EXACT_MASS: 526.2203
CH$SMILES: CC1(C=CC(=O)C2(C1(CCC3(C2(CC4=C(O3)C=C(OC4=O)C5=CC(=C(C(=C5)OC)OC)OC)O)C)O)C)C
CH$IUPAC: InChI=1S/C29H34O9/c1-25(2)9-8-22(30)27(4)28(25,32)11-10-26(3)29(27,33)15-17-19(38-26)14-18(37-24(17)31)16-12-20(34-5)23(36-7)21(13-16)35-6/h8-9,12-14,32-33H,10-11,15H2,1-7H3
CH$LINK: CAS 70407-20-4
CH$LINK: PUBCHEM CID:5255814
CH$LINK: INCHIKEY PBXNNDFKPQPJBB-UHFFFAOYSA-N
CH$LINK: CHEMSPIDER 4421889
AC$INSTRUMENT: LTQ Orbitrap XL Thermo Scientific
AC$INSTRUMENT_TYPE: LC-ESI-ITFT
AC$MASS_SPECTROMETRY: MS_TYPE MS2
AC$MASS_SPECTROMETRY: ION_MODE POSITIVE
AC$MASS_SPECTROMETRY: IONIZATION ESI
AC$MASS_SPECTROMETRY: FRAGMENTATION_MODE HCD
AC$MASS_SPECTROMETRY: COLLISION_ENERGY 20 % (nominal)
AC$MASS_SPECTROMETRY: RESOLUTION 7500
AC$CHROMATOGRAPHY: COLUMN_NAME Hypersil GOLD C18 1.9 um 100 x 2.1 mm Thermo Fisher Scientific
AC$CHROMATOGRAPHY: FLOW_GRADIENT 100/0 at 0 min, 0/100 at 30 min, 0/100 at 35 min
AC$CHROMATOGRAPHY: FLOW_RATE 300 uL/min
AC$CHROMATOGRAPHY: RETENTION_TIME 21.132 min
AC$CHROMATOGRAPHY: SOLVENT A water with 5% methanol and 0.1% acetic acid
AC$CHROMATOGRAPHY: SOLVENT B methanol with 0.1% acetic acid
MS$FOCUSED_ION: BASE_PEAK 527.228
MS$FOCUSED_ION: PRECURSOR_M/Z 527.2276
MS$FOCUSED_ION: PRECURSOR_TYPE [M+H]+
MS$FOCUSED_ION: PRECURSOR_INTENSITY 6556556.929199
MS$DATA_PROCESSING: RECALIBRATE loess on assigned fragments and MS1
MS$DATA_PROCESSING: REANALYZE Peaks with additional N2/O included
MS$DATA_PROCESSING: WHOLE RMassBank 3.2.0
PK$SPLASH: splash10-004i-0000090000-5c3c16b7b3c20ccaad24
PK$ANNOTATION: m/z tentative_formula formula_count mass error(ppm)
  195.065 C10H11O4+ 1 195.0652 -0.76
  291.0864 C15H15O6+ 1 291.0863 0.12
  491.2062 C29H31O7+ 1 491.2064 -0.52
  509.2168 C29H33O8+ 1 509.217 -0.37
  527.2272 C29H35O9+ 1 527.2276 -0.59
PK$NUM_PEAK: 5
PK$PEAK: m/z int. rel.int.
  195.065 6161.2 23
  291.0864 8720.1 33
  491.2062 27967.3 106
  509.2168 42335 161
  527.2272 261886.2 999
//
