ACCESSION: MSBNK-HBM4EU-HB003596
RECORD_TITLE: Verrucarin A; LC-ESI-ITFT; MS2; CE: 60%; R=7500; [M+H]+
DATE: 2021.10.11
AUTHORS: Laurent Debrauwer, Emilien L. Jamin, Research Centre in Food Toxicology (TOXALIM), INRAE, MetaboHUB-Metatoul platform, Toulouse, France
LICENSE: CC0
COPYRIGHT: Copyright (c) 2021 by Research Centre in Food Toxicology (TOXALIM), INRAE, MetaboHUB-Metatoul platform, Toulouse, France
COMMENT: HBM4EU - science and policy for a healthy future (https://www.hbm4eu.eu)
COMMENT: CONFIDENCE Reference Standard (Level 1)
COMMENT: INTERNAL_ID 41
CH$NAME: Verrucarin A
CH$NAME: Muconomycin A
CH$NAME: 12-hydroxy-5,13,25-trimethylspiro[2,10,16,23-tetraoxatetracyclo[22.2.1.03,8.08,25]heptacosa-4,18,20-triene-26,2`-oxirane]-11,17,22-trione
CH$COMPOUND_CLASS: N/A; Environmental Standard
CH$FORMULA: C27H34O9
CH$EXACT_MASS: 502.2203
CH$SMILES: CC1CCOC(=O)C=CC=CC(=O)OC2CC3C4(C2(C5(CCC(=CC5O3)C)COC(=O)C1O)C)CO4
CH$IUPAC: InChI=1S/C27H34O9/c1-16-8-10-26-14-33-24(31)23(30)17(2)9-11-32-21(28)6-4-5-7-22(29)36-18-13-20(35-19(26)12-16)27(15-34-27)25(18,26)3/h4-7,12,17-20,23,30H,8-11,13-15H2,1-3H3
CH$LINK: CAS 3148-09-2
CH$LINK: PUBCHEM CID:104830
CH$LINK: INCHIKEY NLUGUZJQJYVUHS-UHFFFAOYSA-N
CH$LINK: CHEMSPIDER 94626
AC$INSTRUMENT: LTQ Orbitrap XL Thermo Scientific
AC$INSTRUMENT_TYPE: LC-ESI-ITFT
AC$MASS_SPECTROMETRY: MS_TYPE MS2
AC$MASS_SPECTROMETRY: ION_MODE POSITIVE
AC$MASS_SPECTROMETRY: IONIZATION ESI
AC$MASS_SPECTROMETRY: FRAGMENTATION_MODE HCD
AC$MASS_SPECTROMETRY: COLLISION_ENERGY 60 % (nominal)
AC$MASS_SPECTROMETRY: RESOLUTION 7500
AC$CHROMATOGRAPHY: COLUMN_NAME Hypersil GOLD C18 1.9 um 100 x 2.1 mm Thermo Fisher Scientific
AC$CHROMATOGRAPHY: FLOW_GRADIENT 100/0 at 0 min, 0/100 at 30 min, 0/100 at 35 min
AC$CHROMATOGRAPHY: FLOW_RATE 300 uL/min
AC$CHROMATOGRAPHY: RETENTION_TIME 19.599 min
AC$CHROMATOGRAPHY: SOLVENT A water with 5% methanol and 0.1% acetic acid
AC$CHROMATOGRAPHY: SOLVENT B methanol with 0.1% acetic acid
MS$FOCUSED_ION: BASE_PEAK 503.2284
MS$FOCUSED_ION: PRECURSOR_M/Z 503.2276
MS$FOCUSED_ION: PRECURSOR_TYPE [M+H]+
MS$FOCUSED_ION: PRECURSOR_INTENSITY 5459707.901123
MS$DATA_PROCESSING: RECALIBRATE loess on assigned fragments and MS1
MS$DATA_PROCESSING: REANALYZE Peaks with additional N2/O included
MS$DATA_PROCESSING: WHOLE RMassBank 3.2.0
PK$SPLASH: splash10-0ac9-1911000000-390fbdf8350b59329e5e
PK$ANNOTATION: m/z tentative_formula formula_count mass error(ppm)
  56.0259 C3H4O+ 1 56.0257 3.58
  81.07 C6H9+ 1 81.0699 1.44
  105.0703 C8H9+ 1 105.0699 3.62
  123.0804 C8H11O+ 1 123.0804 -0.27
  143.0855 C11H11+ 1 143.0855 -0.08
  157.1015 C12H13+ 1 157.1012 2.16
  161.0959 C11H13O+ 1 161.0961 -1.46
  185.1324 C14H17+ 1 185.1325 -0.27
  231.1391 C15H19O2+ 1 231.138 4.97
  352.1465 C25H20O2+ 1 352.1458 2.08
PK$NUM_PEAK: 10
PK$PEAK: m/z int. rel.int.
  56.0259 2223 439
  81.07 2153.9 426
  105.0703 2569.5 508
  123.0804 5047.7 999
  143.0855 3413.3 675
  157.1015 4005.4 792
  161.0959 2682 530
  185.1324 4714.2 932
  231.1391 3879.5 767
  352.1465 3296.8 652
//
