ACCESSION: MSBNK-HBM4EU-HB003280
RECORD_TITLE: Citreoviridin; LC-ESI-ITFT; MS2; CE: 60%; R=7500; [M-H]-
DATE: 2021.10.11
AUTHORS: Laurent Debrauwer, Emilien L. Jamin, Research Centre in Food Toxicology (TOXALIM), INRAE, MetaboHUB-Metatoul platform, Toulouse, France
LICENSE: CC0
COPYRIGHT: Copyright (c) 2021 by Research Centre in Food Toxicology (TOXALIM), INRAE, MetaboHUB-Metatoul platform, Toulouse, France
COMMENT: HBM4EU - science and policy for a healthy future (https://www.hbm4eu.eu)
COMMENT: CONFIDENCE Reference Standard (Level 1)
COMMENT: INTERNAL_ID 89
CH$NAME: Citreoviridin
CH$NAME: 6-[8-(3,4-dihydroxy-2,4,5-trimethyloxolan-2-yl)-7-methylocta-1,3,5,7-tetraenyl]-4-methoxy-5-methylpyran-2-one
CH$COMPOUND_CLASS: N/A; Environmental Standard
CH$FORMULA: C23H30O6
CH$EXACT_MASS: 402.20424
CH$SMILES: CC1C(C(C(O1)(C)C=C(C)C=CC=CC=CC2=C(C(=CC(=O)O2)OC)C)O)(C)O
CH$IUPAC: InChI=1S/C23H30O6/c1-15(14-22(4)21(25)23(5,26)17(3)29-22)11-9-7-8-10-12-18-16(2)19(27-6)13-20(24)28-18/h7-14,17,21,25-26H,1-6H3
CH$LINK: CAS 25425-12-1
CH$LINK: PUBCHEM CID:293275
CH$LINK: INCHIKEY JLSVDPQAIKFBTO-UHFFFAOYSA-N
CH$LINK: CHEMSPIDER 258843
AC$INSTRUMENT: LTQ Orbitrap XL Thermo Scientific
AC$INSTRUMENT_TYPE: LC-ESI-ITFT
AC$MASS_SPECTROMETRY: MS_TYPE MS2
AC$MASS_SPECTROMETRY: ION_MODE NEGATIVE
AC$MASS_SPECTROMETRY: IONIZATION ESI
AC$MASS_SPECTROMETRY: FRAGMENTATION_MODE HCD
AC$MASS_SPECTROMETRY: COLLISION_ENERGY 60 % (nominal)
AC$MASS_SPECTROMETRY: RESOLUTION 7500
AC$CHROMATOGRAPHY: COLUMN_NAME Hypersil GOLD C18 1.9 um 100 x 2.1 mm Thermo Fisher Scientific
AC$CHROMATOGRAPHY: FLOW_GRADIENT 100/0 at 0 min, 0/100 at 30 min, 0/100 at 35 min
AC$CHROMATOGRAPHY: FLOW_RATE 300 uL/min
AC$CHROMATOGRAPHY: RETENTION_TIME 21.773 min
AC$CHROMATOGRAPHY: SOLVENT A water with 5% methanol and 0.1% acetic acid
AC$CHROMATOGRAPHY: SOLVENT B methanol with 0.1% acetic acid
MS$FOCUSED_ION: BASE_PEAK 461.2174
MS$FOCUSED_ION: PRECURSOR_M/Z 401.197
MS$FOCUSED_ION: PRECURSOR_TYPE [M-H]-
MS$FOCUSED_ION: PRECURSOR_INTENSITY 658677.859375
MS$DATA_PROCESSING: RECALIBRATE loess on assigned fragments and MS1
MS$DATA_PROCESSING: REANALYZE Peaks with additional N2/O included
MS$DATA_PROCESSING: WHOLE RMassBank 3.2.0
PK$SPLASH: splash10-0udr-0169000000-76f33b460c33e3cabb34
PK$ANNOTATION: m/z tentative_formula formula_count mass error(ppm)
  153.055 C8H9O3- 1 153.0557 -4.78
  243.1027 C15H15O3- 1 243.1027 0.34
  285.1119 C17H17O4- 1 285.1132 -4.61
  300.1353 C18H20O4- 1 300.1367 -4.79
  357.1711 C21H25O5- 1 357.1707 1.09
PK$NUM_PEAK: 5
PK$PEAK: m/z int. rel.int.
  153.055 9795 140
  243.1027 3914.6 56
  285.1119 46847.9 673
  300.1353 69465.1 999
  357.1711 2054.8 29
//
