ACCESSION: MSBNK-HBM4EU-HB004067
RECORD_TITLE: Alternariol; LC-ESI-ITFT; MS2; CE: 60%; R=7500; [M+H]+
DATE: 2021.10.11
AUTHORS: Laurent Debrauwer, Emilien L. Jamin, Research Centre in Food Toxicology (TOXALIM), INRAE, MetaboHUB-Metatoul platform, Toulouse, France
LICENSE: CC0
COPYRIGHT: Copyright (c) 2021 by Research Centre in Food Toxicology (TOXALIM), INRAE, MetaboHUB-Metatoul platform, Toulouse, France
COMMENT: HBM4EU - science and policy for a healthy future (https://www.hbm4eu.eu)
COMMENT: CONFIDENCE Reference Standard (Level 1)
COMMENT: INTERNAL_ID 4300
CH$NAME: Alternariol
CH$NAME: 3,7,9-trihydroxy-1-methylbenzo[c]chromen-6-one
CH$COMPOUND_CLASS: N/A; Environmental Standard
CH$FORMULA: C14H10O5
CH$EXACT_MASS: 258.0528
CH$SMILES: CC1=CC(=CC2=C1C3=C(C(=CC(=C3)O)O)C(=O)O2)O
CH$IUPAC: InChI=1S/C14H10O5/c1-6-2-7(15)5-11-12(6)9-3-8(16)4-10(17)13(9)14(18)19-11/h2-5,15-17H,1H3
CH$LINK: CAS 641-38-3
CH$LINK: CHEBI CHEBI:64983
CH$LINK: KEGG C16838
CH$LINK: PUBCHEM CID:5359485
CH$LINK: INCHIKEY CEBXXEKPIIDJHL-UHFFFAOYSA-N
CH$LINK: CHEMSPIDER 4514301
CH$LINK: COMPTOX DTXSID80214305
AC$INSTRUMENT: LTQ Orbitrap XL Thermo Scientific
AC$INSTRUMENT_TYPE: LC-ESI-ITFT
AC$MASS_SPECTROMETRY: MS_TYPE MS2
AC$MASS_SPECTROMETRY: ION_MODE POSITIVE
AC$MASS_SPECTROMETRY: IONIZATION ESI
AC$MASS_SPECTROMETRY: FRAGMENTATION_MODE HCD
AC$MASS_SPECTROMETRY: COLLISION_ENERGY 60 % (nominal)
AC$MASS_SPECTROMETRY: RESOLUTION 7500
AC$CHROMATOGRAPHY: COLUMN_NAME Hypersil GOLD C18 1.9 um 100 x 2.1 mm Thermo Fisher Scientific
AC$CHROMATOGRAPHY: FLOW_GRADIENT 100/0 at 0 min, 0/100 at 30 min, 0/100 at 35 min
AC$CHROMATOGRAPHY: FLOW_RATE 300 uL/min
AC$CHROMATOGRAPHY: RETENTION_TIME 18.062 min
AC$CHROMATOGRAPHY: SOLVENT A water with 5% methanol and 0.1% acetic acid
AC$CHROMATOGRAPHY: SOLVENT B methanol with 0.1% acetic acid
MS$FOCUSED_ION: BASE_PEAK 259.0606
MS$FOCUSED_ION: PRECURSOR_M/Z 259.0601
MS$FOCUSED_ION: PRECURSOR_TYPE [M+H]+
MS$FOCUSED_ION: PRECURSOR_INTENSITY 4160948.613037
MS$DATA_PROCESSING: RECALIBRATE loess on assigned fragments and MS1
MS$DATA_PROCESSING: REANALYZE Peaks with additional N2/O included
MS$DATA_PROCESSING: WHOLE RMassBank 3.2.0
PK$SPLASH: splash10-0a4i-0090000000-be459d14d6782c06b39a
PK$ANNOTATION: m/z tentative_formula formula_count mass error(ppm)
  241.0502 C14H9O4+ 1 241.0495 2.91
  244.0374 C13H8O5+ 1 244.0366 3.14
  259.0606 C14H11O5+ 1 259.0601 1.94
PK$NUM_PEAK: 3
PK$PEAK: m/z int. rel.int.
  241.0502 65099 42
  244.0374 23100.5 15
  259.0606 1528144.2 999
//
