ACCESSION: MSBNK-HBM4EU-HB001985
RECORD_TITLE: Ethambutol; LC-ESI-QFT; MS2; CE: 10%; R=30000; [M+H]+
DATE: 2020.02.20
AUTHORS: Annelaure Damont, Kathleen Rousseau, Laboratoire d Etude du Metabolisme des Medicaments, CEA, Universite Paris Saclay, Paris, France
LICENSE: CC0
COPYRIGHT: Copyright (c) 2020 by Laboratoire d Etude du Metabolisme des Medicaments, CEA, Universite Paris Saclay, Paris, France
PUBLICATION: Oberacher H, Sasse M, Antignac J-P, Guitton Y, Debrauwer L, Jamin E L, Schulze T, Krauss M, Covaci A, Caballero-Casero N, Rosseau K, Damont A, Fenaille F, Lamoree M, Schymanski E, A European proposal for quality control and quality assurance of tandem mass spectral libraries, Environmental Sciences Europe, https://doi.org/10.1186/s12302-020-00314-9
COMMENT: CONFIDENCE Reference Standard (Level 1)
COMMENT: HBM4EU - science and policy for a healthy future (https://www.hbm4eu.eu)
COMMENT: Flow Injection
CH$NAME: Ethambutol
CH$NAME: (2S,2'S)-2,2'-(Ethane-1,2-diyldiazanediyl)di(butan-1-ol)
CH$COMPOUND_CLASS: N/A; Environmental Standard
CH$FORMULA: C10H24N2O2
CH$EXACT_MASS: 204.1838
CH$SMILES: CC[C@@H](CO)NCCN[C@@H](CC)CO
CH$IUPAC: InChI=1S/C10H24N2O2/c1-3-9(7-13)11-5-6-12-10(4-2)8-14/h9-14H,3-8H2,1-2H3/t9-,10-/m0/s1
CH$LINK: CAS 74-55-5
CH$LINK: COMPTOX DTXSID8023006
CH$LINK: INCHIKEY AEUTYOVWOVBAKS-UWVGGRQHSA-N
CH$LINK: PUBCHEM CID:14052
AC$INSTRUMENT: Orbitrap Fusion Tribrid Thermo Fisher Scientific
AC$INSTRUMENT_TYPE: LC-ESI-QFT
AC$MASS_SPECTROMETRY: MS_TYPE MS2
AC$MASS_SPECTROMETRY: ION_MODE POSITIVE
AC$MASS_SPECTROMETRY: IONIZATION ESI
AC$MASS_SPECTROMETRY: FRAGMENTATION_MODE HCD
AC$MASS_SPECTROMETRY: COLLISION_ENERGY 10% (nominal)
AC$MASS_SPECTROMETRY: RESOLUTION 30000
AC$CHROMATOGRAPHY: FLOW_GRADIENT 95/5
AC$CHROMATOGRAPHY: FLOW_RATE 100 uL/min
AC$CHROMATOGRAPHY: SOLVENT A water with 0.1% formic acid
AC$CHROMATOGRAPHY: SOLVENT B acetonitrile with 0.1% formic acid
MS$FOCUSED_ION: PRECURSOR_M/Z 205.1911
MS$FOCUSED_ION: PRECURSOR_TYPE [M+H]+
PK$SPLASH: splash10-014i-0940000000-1c6ae3c07c138249bc7b
PK$NUM_PEAK: 5
PK$PEAK: m/z int. rel.int.
  55.0547 33299.7 1
  90.0916 309236.2 7
  98.097 26060.7 1
  116.1073 42582792 999
  205.1911 20754299.2 487
//
