ACCESSION: MSBNK-HBM4EU-HB002965
RECORD_TITLE: Nivalenol; LC-ESI-ITFT; MS2; CE: 40%; R=7500; [M-H]-
DATE: 2021.10.11
AUTHORS: Laurent Debrauwer, Emilien L. Jamin, Research Centre in Food Toxicology (TOXALIM), INRAE, MetaboHUB-Metatoul platform, Toulouse, France
LICENSE: CC0
COPYRIGHT: Copyright (c) 2021 by Research Centre in Food Toxicology (TOXALIM), INRAE, MetaboHUB-Metatoul platform, Toulouse, France
COMMENT: HBM4EU - science and policy for a healthy future (https://www.hbm4eu.eu)
COMMENT: CONFIDENCE Reference Standard (Level 1)
COMMENT: INTERNAL_ID 11
CH$NAME: Nivalenol
CH$NAME: Trichothec-9-en-8-one, 12,13-epoxy-3alpha,4beta,7alpha,15-tetrahydroxy-
CH$NAME: 3,10,11-trihydroxy-2-(hydroxymethyl)-1,5-dimethylspiro[8-oxatricyclo[7.2.1.02,7]dodec-5-ene-12,2`-oxirane]-4-one
CH$COMPOUND_CLASS: N/A; Environmental Standard
CH$FORMULA: C15H20O7
CH$EXACT_MASS: 312.1209
CH$SMILES: CC1=CC2C(C(C1=O)O)(C3(C(C(C(C34CO4)O2)O)O)C)CO
CH$IUPAC: InChI=1S/C15H20O7/c1-6-3-7-14(4-16,11(20)8(6)17)13(2)10(19)9(18)12(22-7)15(13)5-21-15/h3,7,9-12,16,18-20H,4-5H2,1-2H3
CH$LINK: CAS 23282-20-4
CH$LINK: PUBCHEM CID:430146
CH$LINK: INCHIKEY UKOTXHQERFPCBU-UHFFFAOYSA-N
CH$LINK: CHEMSPIDER 380419
AC$INSTRUMENT: LTQ Orbitrap XL Thermo Scientific
AC$INSTRUMENT_TYPE: LC-ESI-ITFT
AC$MASS_SPECTROMETRY: MS_TYPE MS2
AC$MASS_SPECTROMETRY: ION_MODE NEGATIVE
AC$MASS_SPECTROMETRY: IONIZATION ESI
AC$MASS_SPECTROMETRY: FRAGMENTATION_MODE HCD
AC$MASS_SPECTROMETRY: COLLISION_ENERGY 40 % (nominal)
AC$MASS_SPECTROMETRY: RESOLUTION 7500
AC$CHROMATOGRAPHY: COLUMN_NAME Hypersil GOLD C18 1.9 um 100 x 2.1 mm Thermo Fisher Scientific
AC$CHROMATOGRAPHY: FLOW_GRADIENT 100/0 at 0 min, 0/100 at 30 min, 0/100 at 35 min
AC$CHROMATOGRAPHY: FLOW_RATE 300 uL/min
AC$CHROMATOGRAPHY: RETENTION_TIME 3.864 min
AC$CHROMATOGRAPHY: SOLVENT A water with 5% methanol and 0.1% acetic acid
AC$CHROMATOGRAPHY: SOLVENT B methanol with 0.1% acetic acid
MS$FOCUSED_ION: BASE_PEAK 371.1349
MS$FOCUSED_ION: PRECURSOR_M/Z 311.1136
MS$FOCUSED_ION: PRECURSOR_TYPE [M-H]-
MS$FOCUSED_ION: PRECURSOR_INTENSITY 294779.0429688
MS$DATA_PROCESSING: RECALIBRATE loess on assigned fragments and MS1
MS$DATA_PROCESSING: REANALYZE Peaks with additional N2/O included
MS$DATA_PROCESSING: WHOLE RMassBank 3.2.0
PK$SPLASH: splash10-01q9-0094000000-228696418111a619a734
PK$ANNOTATION: m/z tentative_formula formula_count mass error(ppm)
  281.103 C14H17O6- 1 281.1031 -0.2
  311.1144 C15H19O7- 1 311.1136 2.62
PK$NUM_PEAK: 2
PK$PEAK: m/z int. rel.int.
  281.103 44056.7 999
  311.1144 22374.2 507
//
