ACCESSION: MSBNK-HBM4EU-HB002499
RECORD_TITLE: Dibucaine; LC-ESI-QTOF; MS2; CE: 10 eV; R=3600; [M+H]+
DATE: 2020.02.20
AUTHORS: Noelia Caballero-Casero, Adrian Covaci, Toxicological Center, University of Antwerp, Wilrijk, Belgium
LICENSE: CC0
COPYRIGHT: Copyright (c) by Toxicological Center, University of Antwerp, Wilrijk, Belgium
PUBLICATION: Oberacher H, Sasse M, Antignac J-P, Guitton Y, Debrauwer L, Jamin E L, Schulze T, Krauss M, Covaci A, Caballero-Casero N, Rosseau K, Damont A, Fenaille F, Lamoree M, Schymanski E, A European proposal for quality control and quality assurance of tandem mass spectral libraries, Environmental Sciences Europe, https://doi.org/10.1186/s12302-020-00314-9
COMMENT: CONFIDENCE Reference Standard (Level 1)
COMMENT: HBM4EU - science and policy for a healthy future (https://www.hbm4eu.eu)
COMMENT: Flow Injection
CH$NAME: Dibucaine
CH$NAME: 2-Butoxy-N-[2-(diethylamino)ethyl]quinoline-4-carboxamide
CH$COMPOUND_CLASS: N/A; Environmental Standard
CH$FORMULA: C20H29N3O2
CH$EXACT_MASS: 343.226
CH$SMILES: CCCCOC1=CC(C(=O)NCCN(CC)CC)=C2C=CC=CC2=N1
CH$IUPAC: InChI=1S/C20H29N3O2/c1-4-7-14-25-19-15-17(16-10-8-9-11-18(16)22-19)20(24)21-12-13-23(5-2)6-3/h8-11,15H,4-7,12-14H2,1-3H3,(H,21,24)
CH$LINK: CAS 85-79-0
CH$LINK: COMPTOX DTXSID3045271
CH$LINK: INCHIKEY PUFQVTATUTYEAL-UHFFFAOYSA-N
CH$LINK: PUBCHEM CID:3025
AC$INSTRUMENT: 6560 QTOF Agilent
AC$INSTRUMENT_TYPE: LC-ESI-QTOF
AC$MASS_SPECTROMETRY: MS_TYPE MS2
AC$MASS_SPECTROMETRY: ION_MODE POSITIVE
AC$MASS_SPECTROMETRY: IONIZATION ESI
AC$MASS_SPECTROMETRY: FRAGMENTATION_MODE CID
AC$MASS_SPECTROMETRY: COLLISION_ENERGY 10 eV
AC$MASS_SPECTROMETRY: RESOLUTION 3600
AC$CHROMATOGRAPHY: FLOW_GRADIENT 50/50
AC$CHROMATOGRAPHY: FLOW_RATE 300 uL/min
AC$CHROMATOGRAPHY: SOLVENT A water
AC$CHROMATOGRAPHY: SOLVENT B methanol
MS$FOCUSED_ION: PRECURSOR_M/Z 344.2333
MS$FOCUSED_ION: PRECURSOR_TYPE [M+H]+
PK$SPLASH: splash10-00di-0193000000-4fa56e6d337182766b9c
PK$NUM_PEAK: 7
PK$PEAK: m/z int. rel.int.
  74.096 24369.5 46
  116.0481 27984.7 53
  144.0426 25621.7 49
  172.0378 31096 59
  215.0788 163166.2 311
  271.1417 523950.9 999
  344.2333 250685.4 478
//
