ACCESSION: MSBNK-HBM4EU-HB003117
RECORD_TITLE: Citromycetin; LC-ESI-ITFT; MS2; CE: 15%; R=7500; [M-H]-
DATE: 2021.10.11
AUTHORS: Laurent Debrauwer, Emilien L. Jamin, Research Centre in Food Toxicology (TOXALIM), INRAE, MetaboHUB-Metatoul platform, Toulouse, France
LICENSE: CC0
COPYRIGHT: Copyright (c) 2021 by Research Centre in Food Toxicology (TOXALIM), INRAE, MetaboHUB-Metatoul platform, Toulouse, France
COMMENT: HBM4EU - science and policy for a healthy future (https://www.hbm4eu.eu)
COMMENT: CONFIDENCE Reference Standard (Level 1)
COMMENT: INTERNAL_ID 50
CH$NAME: Citromycetin
CH$NAME: 8,9-dihydroxy-2-methyl-4-oxo-5H-pyrano[3,2-c]chromene-10-carboxylic acid
CH$COMPOUND_CLASS: N/A; Environmental Standard
CH$FORMULA: C14H10O7
CH$EXACT_MASS: 290.04265
CH$SMILES: CC1=CC(=O)C2=C(O1)C3=C(C=C(C(=C3C(=O)O)O)O)OC2
CH$IUPAC: InChI=1S/C14H10O7/c1-5-2-7(15)6-4-20-9-3-8(16)12(17)11(14(18)19)10(9)13(6)21-5/h2-3,16-17H,4H2,1H3,(H,18,19)
CH$LINK: CAS 478-60-4
CH$LINK: PUBCHEM CID:65029
CH$LINK: INCHIKEY PKEPGKZPVDAVKI-UHFFFAOYSA-N
CH$LINK: CHEMSPIDER 58541
CH$LINK: COMPTOX DTXSID60197283
AC$INSTRUMENT: LTQ Orbitrap XL Thermo Scientific
AC$INSTRUMENT_TYPE: LC-ESI-ITFT
AC$MASS_SPECTROMETRY: MS_TYPE MS2
AC$MASS_SPECTROMETRY: ION_MODE NEGATIVE
AC$MASS_SPECTROMETRY: IONIZATION ESI
AC$MASS_SPECTROMETRY: FRAGMENTATION_MODE HCD
AC$MASS_SPECTROMETRY: COLLISION_ENERGY 15 % (nominal)
AC$MASS_SPECTROMETRY: RESOLUTION 7500
AC$CHROMATOGRAPHY: COLUMN_NAME Hypersil GOLD C18 1.9 um 100 x 2.1 mm Thermo Fisher Scientific
AC$CHROMATOGRAPHY: FLOW_GRADIENT 100/0 at 0 min, 0/100 at 30 min, 0/100 at 35 min
AC$CHROMATOGRAPHY: FLOW_RATE 300 uL/min
AC$CHROMATOGRAPHY: RETENTION_TIME 8.700 min
AC$CHROMATOGRAPHY: SOLVENT A water with 5% methanol and 0.1% acetic acid
AC$CHROMATOGRAPHY: SOLVENT B methanol with 0.1% acetic acid
MS$FOCUSED_ION: BASE_PEAK 289.0356
MS$FOCUSED_ION: PRECURSOR_M/Z 289.0354
MS$FOCUSED_ION: PRECURSOR_TYPE [M-H]-
MS$FOCUSED_ION: PRECURSOR_INTENSITY 8472847.195313
MS$DATA_PROCESSING: RECALIBRATE loess on assigned fragments and MS1
MS$DATA_PROCESSING: REANALYZE Peaks with additional N2/O included
MS$DATA_PROCESSING: WHOLE RMassBank 3.2.0
PK$SPLASH: splash10-000i-0090000000-c3fec39adfd1f1cfb37f
PK$ANNOTATION: m/z tentative_formula formula_count mass error(ppm)
  245.0455 C13H9O5- 1 245.0455 -0.32
  289.0353 C14H9O7- 1 289.0354 -0.31
PK$NUM_PEAK: 2
PK$PEAK: m/z int. rel.int.
  245.0455 134262.6 59
  289.0353 2248030 999
//
