ACCESSION: MSBNK-HBM4EU-HB000604
RECORD_TITLE: Dosulepin; LC-ESI-ITFT; MS2; CE: 35%; R=15000; [M+H]+
DATE: 2018.09.08
AUTHORS: Tobias Schulze, Carolin Huber, Martin Krauss, Department of Effect-Directed Analysis, Helmholtz Centre for Environmental Research GmbH - UFZ, Leipzig, Germany
LICENSE: CC0
COPYRIGHT: Copyright (C) 2018
PUBLICATION: Oberacher H, Sasse M, Antignac J-P, Guitton Y, Debrauwer L, Jamin E L, Schulze T, Krauss M, Covaci A, Caballero-Casero N, Rosseau K, Damont A, Fenaille F, Lamoree M, Schymanski E, A European proposal for quality control and quality assurance of tandem mass spectral libraries, Environmental Sciences Europe, https://doi.org/10.1186/s12302-020-00314-9
COMMENT: CONFIDENCE Reference Standard (Level 1)
COMMENT: HBM4EU - science and policy for a healthy future (https://www.hbm4eu.eu)
CH$NAME: Dosulepin
CH$NAME: Dothiepin
CH$NAME: 3-(6H-benzo[c][1]benzothiepin-11-ylidene)-N,N-dimethylpropan-1-amine
CH$COMPOUND_CLASS: N/A; Environmental Standard
CH$FORMULA: C19H21NS
CH$EXACT_MASS: 295.1395
CH$SMILES: CN(C)CCC=C1C2=CC=CC=C2CSC3=CC=CC=C31
CH$IUPAC: InChI=1S/C19H21NS/c1-20(2)13-7-11-17-16-9-4-3-8-15(16)14-21-19-12-6-5-10-18(17)19/h3-6,8-12H,7,13-14H2,1-2H3
CH$LINK: CAS 113-53-1
CH$LINK: PUBCHEM CID:3155
CH$LINK: INCHIKEY PHTUQLWOUWZIMZ-UHFFFAOYSA-N
CH$LINK: CHEMSPIDER 3043
AC$INSTRUMENT: LTQ Orbitrap XL Thermo Scientific
AC$INSTRUMENT_TYPE: LC-ESI-ITFT
AC$MASS_SPECTROMETRY: MS_TYPE MS2
AC$MASS_SPECTROMETRY: ION_MODE POSITIVE
AC$MASS_SPECTROMETRY: IONIZATION ESI
AC$MASS_SPECTROMETRY: FRAGMENTATION_MODE CID
AC$MASS_SPECTROMETRY: COLLISION_ENERGY 35% (nominal)
AC$MASS_SPECTROMETRY: RESOLUTION 15000
AC$CHROMATOGRAPHY: COLUMN_NAME Kinetex Evo C18 2.6 um 50 x 2.1 mm
AC$CHROMATOGRAPHY: FLOW_GRADIENT 95/5 at 0 min, 95/5 at 1 min, 0/100 at 13 min, 0/100 at 24 min, 95/5 at 24.3 min, 95/5 at 32 min
AC$CHROMATOGRAPHY: FLOW_RATE 300 uL/min
AC$CHROMATOGRAPHY: RETENTION_TIME 8.193 min
AC$CHROMATOGRAPHY: SOLVENT A water with 0.1% formic acid
AC$CHROMATOGRAPHY: SOLVENT B methanol with 0.1% formic acid
MS$FOCUSED_ION: BASE_PEAK 296.1469
MS$FOCUSED_ION: PRECURSOR_M/Z 296.1467
MS$FOCUSED_ION: PRECURSOR_TYPE [M+H]+
MS$DATA_PROCESSING: RECALIBRATE loess on assigned fragments and MS1
MS$DATA_PROCESSING: REANALYZE Peaks with additional N2/O included
MS$DATA_PROCESSING: WHOLE RMassBank 2.9.1
PK$SPLASH: splash10-0002-0090000000-e134620e5d887be10691
PK$ANNOTATION: m/z tentative_formula formula_count mass error(ppm)
  91.0543 C7H7+ 1 91.0542 0.33
  117.0699 C9H9+ 1 117.0699 -0.05
  123.0262 C7H7S+ 1 123.0263 -1.01
  147.0263 C9H7S+ 1 147.0263 -0.2
  173.042 C11H9S+ 1 173.0419 0.55
  191.0857 C15H11+ 1 191.0855 0.79
  209.042 C14H9S+ 1 209.0419 0.21
  217.1013 C17H13+ 1 217.1012 0.48
  218.1091 C17H14+ 1 218.109 0.42
  222.05 C15H10S+ 1 222.0498 1.02
  223.0578 C15H11S+ 1 223.0576 0.69
  225.0733 C15H13S+ 1 225.0732 0.03
  236.0654 C16H12S+ 1 236.0654 -0.26
  251.089 C17H15S+ 1 251.0889 0.42
  253.1046 C17H17S+ 1 253.1045 0.08
  265.1041 C18H17S+ 1 265.1045 -1.78
  296.1468 C19H22NS+ 1 296.1467 0.33
PK$NUM_PEAK: 17
PK$PEAK: m/z int. rel.int.
  91.0543 127866.4 3
  117.0699 136109.7 4
  123.0262 87638.7 2
  147.0263 1926251.2 57
  173.042 114394.3 3
  191.0857 312371.5 9
  209.042 533678.6 15
  217.1013 314861.6 9
  218.1091 929322.3 27
  222.05 305771.7 9
  223.0578 2484146 73
  225.0733 14156376 420
  236.0654 216523.5 6
  251.089 6044852 179
  253.1046 651773.9 19
  265.1041 93277.3 2
  296.1468 33604620 999
//
