ACCESSION: MSBNK-HBM4EU-HB003452
RECORD_TITLE: Aspterric acid; LC-ESI-ITFT; MS2; CE: 50%; R=7500; [M-H]-
DATE: 2021.10.11
AUTHORS: Laurent Debrauwer, Emilien L. Jamin, Research Centre in Food Toxicology (TOXALIM), INRAE, MetaboHUB-Metatoul platform, Toulouse, France
LICENSE: CC0
COPYRIGHT: Copyright (c) 2021 by Research Centre in Food Toxicology (TOXALIM), INRAE, MetaboHUB-Metatoul platform, Toulouse, France
COMMENT: HBM4EU - science and policy for a healthy future (https://www.hbm4eu.eu)
COMMENT: CONFIDENCE Reference Standard (Level 1)
COMMENT: INTERNAL_ID 133
CH$NAME: Aspterric acid
CH$NAME: (1S,5S,8R,9R)-8-hydroxy-4-propan-2-ylidene-10-oxatricyclo[7.2.1.01,5]dodecane-8-carboxylic acid
CH$COMPOUND_CLASS: N/A; Environmental Standard
CH$FORMULA: C15H22O4
CH$EXACT_MASS: 266.1518
CH$SMILES: OC([C@]1(O)[C@@H](C2)OC[C@]2(CC/C3=C(C)/C)[C@@]3([H])CC1)=O
CH$IUPAC: InChI=1S/C15H22O4/c1-9(2)10-3-5-14-7-12(19-8-14)15(18,13(16)17)6-4-11(10)14/h11-12,18H,3-8H2,1-2H3,(H,16,17)/t11-,12+,14+,15+/m0/s1
CH$LINK: CAS 67309-95-9
CH$LINK: PUBCHEM CID:21125446
CH$LINK: INCHIKEY IOYVXXQKVQKQIG-CTHBEMJXSA-N
CH$LINK: CHEMSPIDER 19992309
AC$INSTRUMENT: LTQ Orbitrap XL Thermo Scientific
AC$INSTRUMENT_TYPE: LC-ESI-ITFT
AC$MASS_SPECTROMETRY: MS_TYPE MS2
AC$MASS_SPECTROMETRY: ION_MODE NEGATIVE
AC$MASS_SPECTROMETRY: IONIZATION ESI
AC$MASS_SPECTROMETRY: FRAGMENTATION_MODE HCD
AC$MASS_SPECTROMETRY: COLLISION_ENERGY 50 % (nominal)
AC$MASS_SPECTROMETRY: RESOLUTION 7500
AC$CHROMATOGRAPHY: COLUMN_NAME Hypersil GOLD C18 1.9 um 100 x 2.1 mm Thermo Fisher Scientific
AC$CHROMATOGRAPHY: FLOW_GRADIENT 100/0 at 0 min, 0/100 at 30 min, 0/100 at 35 min
AC$CHROMATOGRAPHY: FLOW_RATE 300 uL/min
AC$CHROMATOGRAPHY: RETENTION_TIME 20.143 min
AC$CHROMATOGRAPHY: SOLVENT A water with 5% methanol and 0.1% acetic acid
AC$CHROMATOGRAPHY: SOLVENT B methanol with 0.1% acetic acid
MS$FOCUSED_ION: BASE_PEAK 265.145
MS$FOCUSED_ION: PRECURSOR_M/Z 265.1445
MS$FOCUSED_ION: PRECURSOR_TYPE [M-H]-
MS$FOCUSED_ION: PRECURSOR_INTENSITY 18128067.21094
MS$DATA_PROCESSING: RECALIBRATE loess on assigned fragments and MS1
MS$DATA_PROCESSING: REANALYZE Peaks with additional N2/O included
MS$DATA_PROCESSING: WHOLE RMassBank 3.2.0
PK$SPLASH: splash10-014i-0090000000-2fd808041022b4f81e63
PK$ANNOTATION: m/z tentative_formula formula_count mass error(ppm)
  219.1396 C14H19O2- 1 219.1391 2.44
  265.1447 C15H21O4- 1 265.1445 0.66
PK$NUM_PEAK: 2
PK$PEAK: m/z int. rel.int.
  219.1396 14455.7 1
  265.1447 7462138 999
//
