ACCESSION: MSBNK-HBM4EU-HB002830
RECORD_TITLE: Atrazine-OH (TENTATIVE); LC-ESI-QFT; MS2; CE: 30%; R=70000; [M+H]+
DATE: 2021.02.23
AUTHORS: Carolin Huber, Tobias Schulze, Martin Krauss, Department of Effect-Directed Analysis, Helmholtz Centre for Environmental Research - UFZ GmbH, Leipzig, Germany
LICENSE: CC0
COPYRIGHT: Copyright (C) 2021 Helmholtz Centre for Environmental Research - UFZ, Leipzig, Germany 
PUBLICATION: Huber C, Mueller E, Schulze T, Brack W, Krauss M, Improving the Screening Analysis of Pesticide Metabolites in Human Biomonitoring by Combining High-Throughput In Vitro Incubation and Automated LC–HRMS Data Processing, Analytical Chemistry, https://doi.org/10.1021/acs.analchem.1c00972
COMMENT: HBM4EU - science and policy for a healthy future (https://www.hbm4eu.eu)
COMMENT: COMMENT: CONFIDENCE: Tentative structure, with evidences on substitutes (Level 3b)
COMMENT: COMMENT: generated by human liver S9 incubation
COMMENT: Atrazine_OH_30eV.txt
CH$NAME: Atrazine-OH
CH$COMPOUND_CLASS: N/A; Biotransformation Product
CH$FORMULA: C8H15N5O
CH$EXACT_MASS: 197.1268
CH$SMILES: C(*)C(*)NC1=NC(=NC(=N1)Cl)NC(C*)C* * = [OH (n=1) & H (n=3)]
CH$IUPAC: N/A
AC$INSTRUMENT: Q Exactive Plus Orbitrap Thermo Scientific
AC$INSTRUMENT_TYPE: LC-ESI-QFT
AC$MASS_SPECTROMETRY: MS_TYPE MS2
AC$MASS_SPECTROMETRY: ION_MODE POSITIVE
AC$MASS_SPECTROMETRY: IONIZATION ESI
AC$MASS_SPECTROMETRY: FRAGMENTATION_MODE HCD
AC$MASS_SPECTROMETRY: COLLISION_ENERGY 30% (nominal)
AC$MASS_SPECTROMETRY: RESOLUTION 70000
AC$CHROMATOGRAPHY: COLUMN_NAME Waters UPLC BEH C18 1.7 um 2.1 mm x 100 mm with pre-column
AC$CHROMATOGRAPHY: FLOW_GRADIENT 100/0 at 0 min, 0/100 at 15 min, 0/100 at 21 min, 100/0 at 22 min, 100/0 at 30 min
AC$CHROMATOGRAPHY: FLOW_RATE 300 uL/min
AC$CHROMATOGRAPHY: RETENTION_TIME 10.23 min
AC$CHROMATOGRAPHY: SOLVENT A water with 1% ammonium carbonate 1M
AC$CHROMATOGRAPHY: SOLVENT B methanol with 1% ammonium carbonate 1M and 5% water
MS$FOCUSED_ION: PRECURSOR_M/Z 198.1346
MS$FOCUSED_ION: PRECURSOR_TYPE [M+H]+
MS$DATA_PROCESSING: COMMENT Peaks removed that cannot be explained by GenForm and Molecular Formula (5 ppm)
MS$DATA_PROCESSING: WHOLE mzR
PK$SPLASH: splash10-029i-9400000000-981ab0329e16e52f1444
PK$NUM_PEAK: 22
PK$PEAK: m/z int. rel.int.
  55.0545 3635.9 25
  56.0497 3873.4 27
  67.0543 6352.6 44
  68.0244 4030.2 28
  69.0084 90498.9 624
  71.0603 14842.7 102
  77.0386 2654.9 18
  85.0509 5715.7 39
  86.0349 144913 999
  91.0542 6964.4 48
  92.0574 4823.4 33
  95.0491 5723.7 39
  96.0556 5540.8 38
  97.0396 63536.5 438
  100.1121 13798.6 95
  105.0449 3259.1 22
  113.0819 6305.5 43
  114.0662 86822.7 599
  126.1277 10556.4 73
  128.0567 8795 61
  142.0731 3629.5 25
  156.088 49240.1 339
//
