ACCESSION: MSBNK-HBM4EU-HB001348
RECORD_TITLE: Antipyrine; LC-ESI-ITFT; MS2; CE: 145%; R=15000; [M+H]+
DATE: 2018.09.08
AUTHORS: Tobias Schulze, Carolin Huber, Martin Krauss, Department of Effect-Directed Analysis, Helmholtz Centre for Environmental Research GmbH - UFZ, Leipzig, Germany
LICENSE: CC0
COPYRIGHT: Copyright (C) 2018
PUBLICATION: Oberacher H, Sasse M, Antignac J-P, Guitton Y, Debrauwer L, Jamin E L, Schulze T, Krauss M, Covaci A, Caballero-Casero N, Rosseau K, Damont A, Fenaille F, Lamoree M, Schymanski E, A European proposal for quality control and quality assurance of tandem mass spectral libraries, Environmental Sciences Europe, https://doi.org/10.1186/s12302-020-00314-9
COMMENT: CONFIDENCE Reference Standard (Level 1)
COMMENT: HBM4EU - science and policy for a healthy future (https://www.hbm4eu.eu)
CH$NAME: Antipyrine
CH$NAME: 1,5-dimethyl-2-phenylpyrazol-3-one
CH$COMPOUND_CLASS: N/A; Environmental Standard
CH$FORMULA: C11H12N2O
CH$EXACT_MASS: 188.0950
CH$SMILES: CC1=CC(=O)N(N1C)C2=CC=CC=C2
CH$IUPAC: InChI=1S/C11H12N2O/c1-9-8-11(14)13(12(9)2)10-6-4-3-5-7-10/h3-8H,1-2H3
CH$LINK: CAS 60-80-0
CH$LINK: CHEBI CHEBI:31225
CH$LINK: KEGG D01776
CH$LINK: PUBCHEM CID:2206
CH$LINK: INCHIKEY VEQOALNAAJBPNY-UHFFFAOYSA-N
CH$LINK: CHEMSPIDER 2121
AC$INSTRUMENT: LTQ Orbitrap XL Thermo Scientific
AC$INSTRUMENT_TYPE: LC-ESI-ITFT
AC$MASS_SPECTROMETRY: MS_TYPE MS2
AC$MASS_SPECTROMETRY: ION_MODE POSITIVE
AC$MASS_SPECTROMETRY: IONIZATION ESI
AC$MASS_SPECTROMETRY: FRAGMENTATION_MODE HCD
AC$MASS_SPECTROMETRY: COLLISION_ENERGY 145% (nominal)
AC$MASS_SPECTROMETRY: RESOLUTION 15000
AC$CHROMATOGRAPHY: COLUMN_NAME Kinetex Evo C18 2.6 um 50 x 2.1 mm
AC$CHROMATOGRAPHY: FLOW_GRADIENT 95/5 at 0 min, 95/5 at 1 min, 0/100 at 13 min, 0/100 at 24 min, 95/5 at 24.3 min, 95/5 at 32 min
AC$CHROMATOGRAPHY: FLOW_RATE 300 uL/min
AC$CHROMATOGRAPHY: RETENTION_TIME 5.674 min
AC$CHROMATOGRAPHY: SOLVENT A water with 0.1% formic acid
AC$CHROMATOGRAPHY: SOLVENT B methanol with 0.1% formic acid
MS$FOCUSED_ION: BASE_PEAK 189.1022
MS$FOCUSED_ION: PRECURSOR_M/Z 189.1022
MS$FOCUSED_ION: PRECURSOR_TYPE [M+H]+
MS$DATA_PROCESSING: RECALIBRATE loess on assigned fragments and MS1
MS$DATA_PROCESSING: REANALYZE Peaks with additional N2/O included
MS$DATA_PROCESSING: WHOLE RMassBank 2.9.1
PK$SPLASH: splash10-0a4i-9600000000-88b4fb646adcd9bc6fb8
PK$ANNOTATION: m/z tentative_formula formula_count mass error(ppm)
  55.0414 C3H5N+ 1 55.0417 -4.18
  56.0492 C3H6N+ 1 56.0495 -4.9
  58.0649 C3H8N+ 1 58.0651 -4.69
  65.0383 C5H5+ 1 65.0386 -3.5
  67.0179 C4H3O+ 1 67.0178 0.23
  68.0494 C4H6N+ 1 68.0495 -1.33
  69.057 C4H7N+ 1 69.0573 -4.54
  77.0385 C6H5+ 1 77.0386 -1.26
  78.0462 C6H6+ 1 78.0464 -1.97
  79.0542 C6H7+ 1 79.0542 -0.94
  80.0493 C5H6N+ 1 80.0495 -1.9
  81.0447 C4H5N2+ 1 81.0447 -0.01
  82.0288 C4H4NO+ 1 82.0287 0.56
  89.0385 C7H5+ 1 89.0386 -1.12
  90.0341 C6H4N+ 1 90.0338 3.49
  90.0463 C7H6+ 1 90.0464 -0.86
  91.0542 C7H7+ 1 91.0542 -0.52
  92.0494 C6H6N+ 1 92.0495 -0.82
  93.0572 C6H7N+ 1 93.0573 -0.64
  95.0491 C6H7O+ 1 95.0491 -0.52
  95.0603 C5H7N2+ 1 95.0604 -0.72
  98.0599 C5H8NO+ 1 98.06 -1.13
  102.0464 C8H6+ 1 102.0464 -0.47
  103.0542 C8H7+ 1 103.0542 -0.46
  104.0494 C7H6N+ 1 104.0495 -0.44
  105.0447 C6H5N2+ 1 105.0447 -0.62
  106.065 C7H8N+ 1 106.0651 -1.07
  115.0542 C9H7+ 1 115.0542 -0.55
  116.0497 C8H6N+ 1 116.0495 2.05
  116.0619 C9H8+ 1 116.0621 -0.93
  117.0572 C8H7N+ 1 117.0573 -0.69
  117.07 C9H9+ 1 117.0699 0.91
  118.065 C8H8N+ 1 118.0651 -1.18
  128.0494 C9H6N+ 1 128.0495 -0.78
  129.0572 C9H7N+ 1 129.0573 -0.76
  130.065 C9H8N+ 1 130.0651 -0.87
  131.0603 C8H7N2+ 1 131.0604 -0.73
  131.0725 C9H9N+ 1 131.073 -3.77
  132.0444 C8H6NO+ 1 132.0444 0.24
  132.0681 C8H8N2+ 1 132.0682 -0.73
  144.0809 C10H10N+ 1 144.0808 0.77
  145.0759 C9H9N2+ 1 145.076 -1.12
PK$NUM_PEAK: 42
PK$PEAK: m/z int. rel.int.
  55.0414 26835.2 17
  56.0492 1499939.1 999
  58.0649 214616.8 142
  65.0383 326264.3 217
  67.0179 25987.9 17
  68.0494 24778.5 16
  69.057 28186.7 18
  77.0385 1388711.1 924
  78.0462 121574.2 80
  79.0542 165738.9 110
  80.0493 31133.3 20
  81.0447 50770.3 33
  82.0288 25177 16
  89.0385 42086.8 28
  90.0341 16364.3 10
  90.0463 53988 35
  91.0542 327532 218
  92.0494 45898.4 30
  93.0572 55488 36
  95.0491 317298.1 211
  95.0603 82741.3 55
  98.0599 70933.3 47
  102.0464 79946.5 53
  103.0542 156693.5 104
  104.0494 440197.9 293
  105.0447 1131114.4 753
  106.065 342654.1 228
  115.0542 276483.8 184
  116.0497 21574.1 14
  116.0619 25995 17
  117.0572 146668.8 97
  117.07 24906.2 16
  118.065 107260.1 71
  128.0494 49364.7 32
  129.0572 28011.4 18
  130.065 268387.4 178
  131.0603 258789.6 172
  131.0725 21762.8 14
  132.0444 15245.6 10
  132.0681 62278.5 41
  144.0809 27832.5 18
  145.0759 94021 62
//
