ACCESSION: MSBNK-HBM4EU-HB002906
RECORD_TITLE: Picolinafen-OH-O-dealkylation (TENTATIVE); LC-ESI-QFT; MS2; CE: 55%; R=70000; [M+H]+
DATE: 2021.02.23
AUTHORS: Carolin Huber, Tobias Schulze, Martin Krauss, Department of Effect-Directed Analysis, Helmholtz Centre for Environmental Research - UFZ GmbH, Leipzig, Germany
LICENSE: CC0
COPYRIGHT: Copyright (C) 2021 Helmholtz Centre for Environmental Research - UFZ, Leipzig, Germany 
PUBLICATION: Huber C, Mueller E, Schulze T, Brack W, Krauss M, Improving the Screening Analysis of Pesticide Metabolites in Human Biomonitoring by Combining High-Throughput In Vitro Incubation and Automated LC–HRMS Data Processing, Analytical Chemistry, https://doi.org/10.1021/acs.analchem.1c00972
COMMENT: HBM4EU - science and policy for a healthy future (https://www.hbm4eu.eu)
COMMENT: COMMENT: CONFIDENCE: Tentative structure, isomers possible (Level 3a)
COMMENT: COMMENT: generated by human liver S9 incubation
COMMENT: Picolinafen_OH-O-dealkylation_55eV.txt
CH$NAME: Picolinafen-OH-O-dealkylation
CH$NAME: 6-[3-(trifluoromethyl)phenoxy]pyridine-2-carboxylic acid
CH$COMPOUND_CLASS: N/A; Biotransformation Product
CH$FORMULA: C13H8F3NO3
CH$EXACT_MASS: 283.0445
CH$SMILES: C1=CC(=CC(=C1)OC2=CC=CC(=N2)C(=O)O)C(F)(F)F
CH$IUPAC: InChI=1S/C13H8F3NO3/c14-13(15,16)8-3-1-4-9(7-8)20-11-6-2-5-10(17-11)12(18)19/h1-7H,(H,18,19)
CH$LINK: CAS 137640-84-7
CH$LINK: COMPTOX DTXSID60401438
CH$LINK: INCHIKEY LFRASJXUIQMIMC-UHFFFAOYSA-N
CH$LINK: PUBCHEM CID:4271775
AC$INSTRUMENT: Q Exactive Plus Orbitrap Thermo Scientific
AC$INSTRUMENT_TYPE: LC-ESI-QFT
AC$MASS_SPECTROMETRY: MS_TYPE MS2
AC$MASS_SPECTROMETRY: ION_MODE POSITIVE
AC$MASS_SPECTROMETRY: IONIZATION ESI
AC$MASS_SPECTROMETRY: FRAGMENTATION_MODE HCD
AC$MASS_SPECTROMETRY: COLLISION_ENERGY 55% (nominal)
AC$MASS_SPECTROMETRY: RESOLUTION 70000
AC$CHROMATOGRAPHY: COLUMN_NAME Waters UPLC BEH C18 1.7 um 2.1 mm x 100 mm with pre-column
AC$CHROMATOGRAPHY: FLOW_GRADIENT 100/0 at 0 min, 0/100 at 15 min, 0/100 at 21 min, 100/0 at 22 min, 100/0 at 30 min
AC$CHROMATOGRAPHY: FLOW_RATE 300 uL/min
AC$CHROMATOGRAPHY: RETENTION_TIME 14.02 min
AC$CHROMATOGRAPHY: SOLVENT A water with 1% ammonium carbonate 1M
AC$CHROMATOGRAPHY: SOLVENT B methanol with 1% ammonium carbonate 1M and 5% water
MS$FOCUSED_ION: PRECURSOR_M/Z 284.0523
MS$FOCUSED_ION: PRECURSOR_TYPE [M+H]+
MS$DATA_PROCESSING: COMMENT Peaks removed that cannot be explained by GenForm and Molecular Formula (5 ppm)
MS$DATA_PROCESSING: WHOLE mzR
PK$SPLASH: splash10-0002-0900000000-a47f16a7e3b407826c2e
PK$NUM_PEAK: 32
PK$PEAK: m/z int. rel.int.
  50.0155 7910.6 4
  51.0233 15749.4 8
  53.0025 13425.1 7
  71.0292 18090.3 9
  75.0041 10774.2 5
  75.0229 28323.5 14
  81.9947 4374 2
  93.0207 5334.7 3
  94.0288 5870 3
  95.0102 7741.9 4
  95.0292 24673.4 13
  113.0397 84138.2 43
  119.0105 9288.3 5
  125.0198 95382.5 49
  133.0448 24635.4 13
  140.0495 13834.3 7
  141.0573 30965.1 16
  143.0296 14222.6 7
  145.026 1957881 999
  163.0356 17011.7 9
  165.0312 4614.1 2
  170.04 6949.6 4
  173.0323 36395.4 19
  181.0461 5755.9 3
  182.0339 13453.6 7
  183.0416 31492.7 16
  188.0509 14810.1 8
  190.0464 58747.6 30
  191.0414 31234.7 16
  198.0475 4312.4 2
  210.0523 13069.3 7
  238.0473 7797.2 4
//
