ACCESSION: MSBNK-HBM4EU-HB003739
RECORD_TITLE: Verrucofortine; LC-ESI-ITFT; MS2; CE: 30%; R=7500; [M+H]+
DATE: 2021.10.11
AUTHORS: Laurent Debrauwer, Emilien L. Jamin, Research Centre in Food Toxicology (TOXALIM), INRAE, MetaboHUB-Metatoul platform, Toulouse, France
LICENSE: CC0
COPYRIGHT: Copyright (c) 2021 by Research Centre in Food Toxicology (TOXALIM), INRAE, MetaboHUB-Metatoul platform, Toulouse, France
COMMENT: HBM4EU - science and policy for a healthy future (https://www.hbm4eu.eu)
COMMENT: CONFIDENCE Reference Standard (Level 1)
COMMENT: INTERNAL_ID 81
CH$NAME: Verrucofortine
CH$NAME: 6-Acetyl-10b-(1,1-dimethyl-2-propenyl)-3-isobutyl-6,10b,11,11a-tetrahydro-2H-pyrazino[2`,1`:5,1]pyrrolo[2,3-b]indole-1,4(3H,5aH)-dione
CH$NAME: 16-acetyl-9-(2-methylbut-3-en-2-yl)-4-(2-methylpropyl)-2,5,16-triazatetracyclo[7.7.0.02,7.010,15]hexadeca-10,12,14-triene-3,6-dione
CH$COMPOUND_CLASS: N/A; Environmental Standard
CH$FORMULA: C24H31N3O3
CH$EXACT_MASS: 409.2365
CH$SMILES: CC(C)CC1C(=O)N2C(CC3(C2N(C4=CC=CC=C43)C(=O)C)C(C)(C)C=C)C(=O)N1
CH$IUPAC: InChI=1S/C24H31N3O3/c1-7-23(5,6)24-13-19-20(29)25-17(12-14(2)3)21(30)27(19)22(24)26(15(4)28)18-11-9-8-10-16(18)24/h7-11,14,17,19,22H,1,12-13H2,2-6H3,(H,25,29)
CH$LINK: CAS 113706-21-1
CH$LINK: PUBCHEM CID:494936
CH$LINK: INCHIKEY BMRZKNPRSPWNNW-UHFFFAOYSA-N
CH$LINK: CHEMSPIDER 433229
AC$INSTRUMENT: LTQ Orbitrap XL Thermo Scientific
AC$INSTRUMENT_TYPE: LC-ESI-ITFT
AC$MASS_SPECTROMETRY: MS_TYPE MS2
AC$MASS_SPECTROMETRY: ION_MODE POSITIVE
AC$MASS_SPECTROMETRY: IONIZATION ESI
AC$MASS_SPECTROMETRY: FRAGMENTATION_MODE HCD
AC$MASS_SPECTROMETRY: COLLISION_ENERGY 30 % (nominal)
AC$MASS_SPECTROMETRY: RESOLUTION 7500
AC$CHROMATOGRAPHY: COLUMN_NAME Hypersil GOLD C18 1.9 um 100 x 2.1 mm Thermo Fisher Scientific
AC$CHROMATOGRAPHY: FLOW_GRADIENT 100/0 at 0 min, 0/100 at 30 min, 0/100 at 35 min
AC$CHROMATOGRAPHY: FLOW_RATE 300 uL/min
AC$CHROMATOGRAPHY: RETENTION_TIME 21.507 min
AC$CHROMATOGRAPHY: SOLVENT A water with 5% methanol and 0.1% acetic acid
AC$CHROMATOGRAPHY: SOLVENT B methanol with 0.1% acetic acid
MS$FOCUSED_ION: BASE_PEAK 410.2453
MS$FOCUSED_ION: PRECURSOR_M/Z 410.2438
MS$FOCUSED_ION: PRECURSOR_TYPE [M+H]+
MS$FOCUSED_ION: PRECURSOR_INTENSITY 39959793.96484
MS$DATA_PROCESSING: RECALIBRATE loess on assigned fragments and MS1
MS$DATA_PROCESSING: REANALYZE Peaks with additional N2/O included
MS$DATA_PROCESSING: WHOLE RMassBank 3.2.0
PK$SPLASH: splash10-0udi-0109100000-30c19932d68d14931702
PK$ANNOTATION: m/z tentative_formula formula_count mass error(ppm)
  69.0698 C5H9+ 1 69.0699 -0.86
  72.2435 H30N3+ 1 72.2434 1.62
  130.0652 C9H8N+ 1 130.0651 0.36
  132.0808 C9H10N+ 1 132.0808 -0.17
  144.0808 C10H10N+ 1 144.0808 0.07
  169.0978 C8H13N2O2+ 1 169.0972 4.03
  172.0756 C11H10NO+ 1 172.0757 -0.71
  174.0913 C11H12NO+ 1 174.0913 -0.43
  198.1279 C14H16N+ 1 198.1277 0.74
  201.0906 C11H11N3O+ 2 201.0897 4.85
  256.1088 C16H16O3+ 2 256.1094 -2.34
  298.154 C17H20N3O2+ 1 298.155 -3.53
  300.1707 C17H22N3O2+ 2 300.1707 0.07
  312.1707 C18H22N3O2+ 2 312.1707 0.27
  342.1816 C19H24N3O3+ 1 342.1812 1.06
  354.1818 C20H24N3O3+ 1 354.1812 1.54
  368.2334 C22H30N3O2+ 2 368.2333 0.31
  410.2443 C24H32N3O3+ 1 410.2438 1.23
PK$NUM_PEAK: 18
PK$PEAK: m/z int. rel.int.
  69.0698 28764.6 8
  72.2435 5424.7 1
  130.0652 447451.1 128
  132.0808 52135.1 14
  144.0808 11330.9 3
  169.0978 3636.7 1
  172.0756 7482.3 2
  174.0913 9853.3 2
  198.1279 231489.2 66
  201.0906 5857.5 1
  256.1088 6457.9 1
  298.154 7242.6 2
  300.1707 3472656.5 999
  312.1707 223271 64
  342.1816 1549986.6 445
  354.1818 87664.5 25
  368.2334 102699.3 29
  410.2443 659955.4 189
//
