ACCESSION: MSBNK-HBM4EU-HB000629
RECORD_TITLE: Dosulepin; LC-ESI-ITFT; MS2; CE: 70%; R=15000; [M+H]+
DATE: 2018.09.08
AUTHORS: Tobias Schulze, Carolin Huber, Martin Krauss, Department of Effect-Directed Analysis, Helmholtz Centre for Environmental Research GmbH - UFZ, Leipzig, Germany
LICENSE: CC0
COPYRIGHT: Copyright (C) 2018
PUBLICATION: Oberacher H, Sasse M, Antignac J-P, Guitton Y, Debrauwer L, Jamin E L, Schulze T, Krauss M, Covaci A, Caballero-Casero N, Rosseau K, Damont A, Fenaille F, Lamoree M, Schymanski E, A European proposal for quality control and quality assurance of tandem mass spectral libraries, Environmental Sciences Europe, https://doi.org/10.1186/s12302-020-00314-9
COMMENT: CONFIDENCE Reference Standard (Level 1)
COMMENT: HBM4EU - science and policy for a healthy future (https://www.hbm4eu.eu)
CH$NAME: Dosulepin
CH$NAME: Dothiepin
CH$NAME: 3-(6H-benzo[c][1]benzothiepin-11-ylidene)-N,N-dimethylpropan-1-amine
CH$COMPOUND_CLASS: N/A; Environmental Standard
CH$FORMULA: C19H21NS
CH$EXACT_MASS: 295.1395
CH$SMILES: CN(C)CCC=C1C2=CC=CC=C2CSC3=CC=CC=C31
CH$IUPAC: InChI=1S/C19H21NS/c1-20(2)13-7-11-17-16-9-4-3-8-15(16)14-21-19-12-6-5-10-18(17)19/h3-6,8-12H,7,13-14H2,1-2H3
CH$LINK: CAS 113-53-1
CH$LINK: PUBCHEM CID:3155
CH$LINK: INCHIKEY PHTUQLWOUWZIMZ-UHFFFAOYSA-N
CH$LINK: CHEMSPIDER 3043
AC$INSTRUMENT: LTQ Orbitrap XL Thermo Scientific
AC$INSTRUMENT_TYPE: LC-ESI-ITFT
AC$MASS_SPECTROMETRY: MS_TYPE MS2
AC$MASS_SPECTROMETRY: ION_MODE POSITIVE
AC$MASS_SPECTROMETRY: IONIZATION ESI
AC$MASS_SPECTROMETRY: FRAGMENTATION_MODE CID
AC$MASS_SPECTROMETRY: COLLISION_ENERGY 70% (nominal)
AC$MASS_SPECTROMETRY: RESOLUTION 15000
AC$CHROMATOGRAPHY: COLUMN_NAME Kinetex Evo C18 2.6 um 50 x 2.1 mm
AC$CHROMATOGRAPHY: FLOW_GRADIENT 95/5 at 0 min, 95/5 at 1 min, 0/100 at 13 min, 0/100 at 24 min, 95/5 at 24.3 min, 95/5 at 32 min
AC$CHROMATOGRAPHY: FLOW_RATE 300 uL/min
AC$CHROMATOGRAPHY: RETENTION_TIME 8.168 min
AC$CHROMATOGRAPHY: SOLVENT A water with 0.1% formic acid
AC$CHROMATOGRAPHY: SOLVENT B methanol with 0.1% formic acid
MS$FOCUSED_ION: BASE_PEAK 296.1465
MS$FOCUSED_ION: PRECURSOR_M/Z 296.1467
MS$FOCUSED_ION: PRECURSOR_TYPE [M+H]+
MS$DATA_PROCESSING: RECALIBRATE loess on assigned fragments and MS1
MS$DATA_PROCESSING: REANALYZE Peaks with additional N2/O included
MS$DATA_PROCESSING: WHOLE RMassBank 2.9.1
PK$SPLASH: splash10-004i-0190000000-9349492ddc068acfedc4
PK$ANNOTATION: m/z tentative_formula formula_count mass error(ppm)
  91.0542 C7H7+ 1 91.0542 0.06
  117.0698 C9H9+ 1 117.0699 -0.78
  123.0263 C7H7S+ 1 123.0263 0.26
  137.0418 C8H9S+ 1 137.0419 -0.85
  141.0699 C11H9+ 1 141.0699 -0.06
  142.0774 C11H10+ 1 142.0777 -2.21
  147.0263 C9H7S+ 1 147.0263 -0.08
  173.0419 C11H9S+ 1 173.0419 -0.24
  186.1277 C13H16N+ 1 186.1277 0.03
  191.0855 C15H11+ 1 191.0855 0.04
  192.0936 C15H12+ 1 192.0934 1.39
  203.0863 C16H11+ 1 203.0855 3.94
  209.042 C14H9S+ 1 209.0419 0.43
  210.0499 C14H10S+ 1 210.0498 0.43
  211.0575 C14H11S+ 1 211.0576 -0.58
  217.1012 C17H13+ 1 217.1012 0.14
  218.1091 C17H14+ 1 218.109 0.28
  221.042 C15H9S+ 1 221.0419 0.28
  222.0498 C15H10S+ 1 222.0498 0.28
  223.0577 C15H11S+ 1 223.0576 0.49
  225.0731 C15H13S+ 1 225.0732 -0.53
  236.0654 C16H12S+ 1 236.0654 -0.07
  249.0736 C17H13S+ 1 249.0732 1.22
  251.0889 C17H15S+ 1 251.0889 -0.11
  253.1044 C17H17S+ 1 253.1045 -0.75
  265.1044 C18H17S+ 1 265.1045 -0.67
PK$NUM_PEAK: 26
PK$PEAK: m/z int. rel.int.
  91.0542 265736.7 12
  117.0698 253480.2 11
  123.0263 163171.8 7
  137.0418 35058.7 1
  141.0699 107966 4
  142.0774 74338.4 3
  147.0263 3724413.8 170
  173.0419 250029 11
  186.1277 47081.8 2
  191.0855 499924.9 22
  192.0936 69342.3 3
  203.0863 31538.5 1
  209.042 1035146.9 47
  210.0499 40373.7 1
  211.0575 70174.1 3
  217.1012 650760 29
  218.1091 1875240.8 85
  221.042 91075.1 4
  222.0498 620564.7 28
  223.0577 4751270.5 216
  225.0731 21876800 999
  236.0654 465832.1 21
  249.0736 43494.7 1
  251.0889 9571236 437
  253.1044 1115161.1 50
  265.1044 185853.4 8
//
