ACCESSION: MSBNK-HBM4EU-HB003205
RECORD_TITLE: Mycophenolic Acid; LC-ESI-ITFT; MS2; CE: 20%; R=7500; [M-H]-
DATE: 2021.10.11
AUTHORS: Laurent Debrauwer, Emilien L. Jamin, Research Centre in Food Toxicology (TOXALIM), INRAE, MetaboHUB-Metatoul platform, Toulouse, France
LICENSE: CC0
COPYRIGHT: Copyright (c) 2021 by Research Centre in Food Toxicology (TOXALIM), INRAE, MetaboHUB-Metatoul platform, Toulouse, France
COMMENT: HBM4EU - science and policy for a healthy future (https://www.hbm4eu.eu)
COMMENT: CONFIDENCE Reference Standard (Level 1)
COMMENT: INTERNAL_ID 74
CH$NAME: Mycophenolic Acid
CH$NAME: 6-(4-Hydroxy-6-methoxy-7-methyl-3-oxo-1H-isobenzofuran-5-yl)-4-methyl-4-hexenoic acid
CH$NAME: 6-(4-hydroxy-6-methoxy-7-methyl-3-oxo-1H-2-benzofuran-5-yl)-4-methylhex-4-enoic acid
CH$COMPOUND_CLASS: N/A; Environmental Standard
CH$FORMULA: C17H20O6
CH$EXACT_MASS: 320.12599
CH$SMILES: CC1=C2COC(=O)C2=C(C(=C1OC)CC=C(C)CCC(=O)O)O
CH$IUPAC: InChI=1S/C17H20O6/c1-9(5-7-13(18)19)4-6-11-15(20)14-12(8-23-17(14)21)10(2)16(11)22-3/h4,20H,5-8H2,1-3H3,(H,18,19)
CH$LINK: CAS 24280-93-1
CH$LINK: PUBCHEM CID:4272
CH$LINK: INCHIKEY HPNSFSBZBAHARI-UHFFFAOYSA-N
CH$LINK: CHEMSPIDER 4122
AC$INSTRUMENT: LTQ Orbitrap XL Thermo Scientific
AC$INSTRUMENT_TYPE: LC-ESI-ITFT
AC$MASS_SPECTROMETRY: MS_TYPE MS2
AC$MASS_SPECTROMETRY: ION_MODE NEGATIVE
AC$MASS_SPECTROMETRY: IONIZATION ESI
AC$MASS_SPECTROMETRY: FRAGMENTATION_MODE HCD
AC$MASS_SPECTROMETRY: COLLISION_ENERGY 20 % (nominal)
AC$MASS_SPECTROMETRY: RESOLUTION 7500
AC$CHROMATOGRAPHY: COLUMN_NAME Hypersil GOLD C18 1.9 um 100 x 2.1 mm Thermo Fisher Scientific
AC$CHROMATOGRAPHY: FLOW_GRADIENT 100/0 at 0 min, 0/100 at 30 min, 0/100 at 35 min
AC$CHROMATOGRAPHY: FLOW_RATE 300 uL/min
AC$CHROMATOGRAPHY: RETENTION_TIME 19.389 min
AC$CHROMATOGRAPHY: SOLVENT A water with 5% methanol and 0.1% acetic acid
AC$CHROMATOGRAPHY: SOLVENT B methanol with 0.1% acetic acid
MS$FOCUSED_ION: BASE_PEAK 319.1191
MS$FOCUSED_ION: PRECURSOR_M/Z 319.1187
MS$FOCUSED_ION: PRECURSOR_TYPE [M-H]-
MS$FOCUSED_ION: PRECURSOR_INTENSITY 25437503.6377
MS$DATA_PROCESSING: RECALIBRATE loess on assigned fragments and MS1
MS$DATA_PROCESSING: REANALYZE Peaks with additional N2/O included
MS$DATA_PROCESSING: WHOLE RMassBank 3.2.0
PK$SPLASH: splash10-014i-0009000000-d39f4e7010a3588a4486
PK$ANNOTATION: m/z tentative_formula formula_count mass error(ppm)
  201.0555 C12H9O3- 1 201.0557 -1.06
  275.1288 C16H19O4- 1 275.1289 -0.27
  319.1187 C17H19O6- 1 319.1187 -0.05
PK$NUM_PEAK: 3
PK$PEAK: m/z int. rel.int.
  201.0555 9597.2 1
  275.1288 51138.9 7
  319.1187 7228402.5 999
//
