ACCESSION: MSBNK-HBM4EU-HB003154
RECORD_TITLE: Penitrem A; LC-ESI-ITFT; MS2; CE: 50%; R=7500; [M-H]-
DATE: 2021.10.11
AUTHORS: Laurent Debrauwer, Emilien L. Jamin, Research Centre in Food Toxicology (TOXALIM), INRAE, MetaboHUB-Metatoul platform, Toulouse, France
LICENSE: CC0
COPYRIGHT: Copyright (c) 2021 by Research Centre in Food Toxicology (TOXALIM), INRAE, MetaboHUB-Metatoul platform, Toulouse, France
COMMENT: HBM4EU - science and policy for a healthy future (https://www.hbm4eu.eu)
COMMENT: CONFIDENCE Reference Standard (Level 1)
COMMENT: INTERNAL_ID 59
CH$NAME: Penitrem A
CH$NAME: CID 4732
CH$NAME: 21-chloro-15,16,33,33-tetramethyl-24-methylidene-10-prop-1-en-2-yl-7,11,32-trioxa-18-azadecacyclo[25.4.2.02,16.05,15.06,8.06,12.017,31.019,30.022,29.025,28]tritriaconta-17(31),19,21,29-tetraene-5,9,28-triol
CH$COMPOUND_CLASS: N/A; Environmental Standard
CH$FORMULA: C37H44ClNO6
CH$EXACT_MASS: 633.28572
CH$SMILES: CC(=C)C1C(C2C3(O2)C(O1)CCC4(C3(CCC5C4(C6=C7C5OC(C8CC9C8(C1=C7C(=CC(=C1CC9=C)Cl)N6)O)(C)C)C)O)C)O
CH$IUPAC: InChI=1S/C37H44ClNO6/c1-15(2)28-27(40)31-37(45-31)23(43-28)9-10-33(6)34(7)18(8-11-35(33,37)41)29-25-24-21(39-30(25)34)14-20(38)17-12-16(3)19-13-22(32(4,5)44-29)36(19,42)26(17)24/h14,18-19,22-23,27-29,31,39-42H,1,3,8-13H2,2,4-7H3
CH$LINK: CAS 12627-35-9
CH$LINK: PUBCHEM CID:4732
CH$LINK: INCHIKEY JDUWHZOLEDOQSR-UHFFFAOYSA-N
CH$LINK: CHEMSPIDER 4570
AC$INSTRUMENT: LTQ Orbitrap XL Thermo Scientific
AC$INSTRUMENT_TYPE: LC-ESI-ITFT
AC$MASS_SPECTROMETRY: MS_TYPE MS2
AC$MASS_SPECTROMETRY: ION_MODE NEGATIVE
AC$MASS_SPECTROMETRY: IONIZATION ESI
AC$MASS_SPECTROMETRY: FRAGMENTATION_MODE HCD
AC$MASS_SPECTROMETRY: COLLISION_ENERGY 50 % (nominal)
AC$MASS_SPECTROMETRY: RESOLUTION 7500
AC$CHROMATOGRAPHY: COLUMN_NAME Hypersil GOLD C18 1.9 um 100 x 2.1 mm Thermo Fisher Scientific
AC$CHROMATOGRAPHY: FLOW_GRADIENT 100/0 at 0 min, 0/100 at 30 min, 0/100 at 35 min
AC$CHROMATOGRAPHY: FLOW_RATE 300 uL/min
AC$CHROMATOGRAPHY: RETENTION_TIME 24.685 min
AC$CHROMATOGRAPHY: SOLVENT A water with 5% methanol and 0.1% acetic acid
AC$CHROMATOGRAPHY: SOLVENT B methanol with 0.1% acetic acid
MS$FOCUSED_ION: BASE_PEAK 632.2786
MS$FOCUSED_ION: PRECURSOR_M/Z 632.2784
MS$FOCUSED_ION: PRECURSOR_TYPE [M-H]-
MS$FOCUSED_ION: PRECURSOR_INTENSITY 4362385.265625
MS$DATA_PROCESSING: RECALIBRATE loess on assigned fragments and MS1
MS$DATA_PROCESSING: REANALYZE Peaks with additional N2/O included
MS$DATA_PROCESSING: WHOLE RMassBank 3.2.0
PK$SPLASH: splash10-0002-0000090000-21ffc1a071607ed4c06e
PK$ANNOTATION: m/z tentative_formula formula_count mass error(ppm)
  269.2821 C12H42ClO3- 1 269.2828 -2.44
  546.204 C32H33ClNO5- 2 546.2053 -2.36
  632.2808 C37H43ClNO6- 1 632.2784 3.67
PK$NUM_PEAK: 3
PK$PEAK: m/z int. rel.int.
  269.2821 3051.3 46
  546.204 65628.5 999
  632.2808 6516.9 99
//
