ACCESSION: MSBNK-HBM4EU-HB001735
RECORD_TITLE: Sulfamoxole; LC-ESI-ITFT; MS2; CE: 120%; R=15000; [M+H]+
DATE: 2018.09.08
AUTHORS: Tobias Schulze, Carolin Huber, Martin Krauss, Department of Effect-Directed Analysis, Helmholtz Centre for Environmental Research GmbH - UFZ, Leipzig, Germany
LICENSE: CC0
COPYRIGHT: Copyright (C) 2018
PUBLICATION: Oberacher H, Sasse M, Antignac J-P, Guitton Y, Debrauwer L, Jamin E L, Schulze T, Krauss M, Covaci A, Caballero-Casero N, Rosseau K, Damont A, Fenaille F, Lamoree M, Schymanski E, A European proposal for quality control and quality assurance of tandem mass spectral libraries, Environmental Sciences Europe, https://doi.org/10.1186/s12302-020-00314-9
COMMENT: CONFIDENCE Reference Standard (Level 1)
COMMENT: HBM4EU - science and policy for a healthy future (https://www.hbm4eu.eu)
CH$NAME: Sulfamoxole
CH$NAME: 4-amino-N-(4,5-dimethyl-1,3-oxazol-2-yl)benzenesulfonamide
CH$COMPOUND_CLASS: N/A; Environmental Standard
CH$FORMULA: C11H13N3O3S
CH$EXACT_MASS: 267.0678
CH$SMILES: CC1=C(OC(=N1)NS(=O)(=O)C2=CC=C(C=C2)N)C
CH$IUPAC: InChI=1S/C11H13N3O3S/c1-7-8(2)17-11(13-7)14-18(15,16)10-5-3-9(12)4-6-10/h3-6H,12H2,1-2H3,(H,13,14)
CH$LINK: CAS 729-99-7
CH$LINK: CHEBI CHEBI:55548
CH$LINK: KEGG D02516
CH$LINK: PUBCHEM CID:12894
CH$LINK: INCHIKEY CYFLXLSBHQBMFT-UHFFFAOYSA-N
CH$LINK: CHEMSPIDER 12361
AC$INSTRUMENT: LTQ Orbitrap XL Thermo Scientific
AC$INSTRUMENT_TYPE: LC-ESI-ITFT
AC$MASS_SPECTROMETRY: MS_TYPE MS2
AC$MASS_SPECTROMETRY: ION_MODE POSITIVE
AC$MASS_SPECTROMETRY: IONIZATION ESI
AC$MASS_SPECTROMETRY: FRAGMENTATION_MODE HCD
AC$MASS_SPECTROMETRY: COLLISION_ENERGY 120% (nominal)
AC$MASS_SPECTROMETRY: RESOLUTION 15000
AC$CHROMATOGRAPHY: COLUMN_NAME Kinetex Evo C18 2.6 um 50 x 2.1 mm
AC$CHROMATOGRAPHY: FLOW_GRADIENT 95/5 at 0 min, 95/5 at 1 min, 0/100 at 13 min, 0/100 at 24 min, 95/5 at 24.3 min, 95/5 at 32 min
AC$CHROMATOGRAPHY: FLOW_RATE 300 uL/min
AC$CHROMATOGRAPHY: RETENTION_TIME 3.953 min
AC$CHROMATOGRAPHY: SOLVENT A water with 0.1% formic acid
AC$CHROMATOGRAPHY: SOLVENT B methanol with 0.1% formic acid
MS$FOCUSED_ION: BASE_PEAK 268.0751
MS$FOCUSED_ION: PRECURSOR_M/Z 268.075
MS$FOCUSED_ION: PRECURSOR_TYPE [M+H]+
MS$DATA_PROCESSING: RECALIBRATE loess on assigned fragments and MS1
MS$DATA_PROCESSING: REANALYZE Peaks with additional N2/O included
MS$DATA_PROCESSING: WHOLE RMassBank 2.9.1
PK$SPLASH: splash10-014i-9200000000-1a4b6e08b27972925bdc
PK$ANNOTATION: m/z tentative_formula formula_count mass error(ppm)
  54.0336 C3H4N+ 1 54.0338 -4.12
  65.0385 C5H5+ 1 65.0386 -1.9
  66.0337 C4H4N+ 1 66.0338 -2.07
  69.0572 C4H7N+ 1 69.0573 -1.38
  70.065 C4H8N+ 1 70.0651 -1.17
  80.0495 C5H6N+ 1 80.0495 0.15
  92.0495 C6H6N+ 1 92.0495 0.68
  93.0572 C6H7N+ 1 93.0573 -1.47
  108.0445 C6H6NO+ 1 108.0444 0.61
  110.0601 C6H8NO+ 1 110.06 0.51
  111.0554 C5H7N2O+ 1 111.0553 0.55
  112.0632 C5H8N2O+ 1 112.0631 0.71
  113.0709 C5H9N2O+ 1 113.0709 -0.02
  140.0167 C6H6NOS+ 1 140.0165 1.42
PK$NUM_PEAK: 14
PK$PEAK: m/z int. rel.int.
  54.0336 9665 32
  65.0385 295533.6 999
  66.0337 4694.8 15
  69.0572 4140.9 13
  70.065 58320.1 197
  80.0495 88383 298
  92.0495 131579.5 444
  93.0572 1464.6 4
  108.0445 84290.9 284
  110.0601 9008.7 30
  111.0554 15984 54
  112.0632 3368.8 11
  113.0709 17851.5 60
  140.0167 2097.3 7
//
