ACCESSION: MSBNK-HBM4EU-HB003945
RECORD_TITLE: Cyclopenol; LC-ESI-ITFT; MS2; CE: 40%; R=7500; [M+H]+
DATE: 2021.10.11
AUTHORS: Laurent Debrauwer, Emilien L. Jamin, Research Centre in Food Toxicology (TOXALIM), INRAE, MetaboHUB-Metatoul platform, Toulouse, France
LICENSE: CC0
COPYRIGHT: Copyright (c) 2021 by Research Centre in Food Toxicology (TOXALIM), INRAE, MetaboHUB-Metatoul platform, Toulouse, France
COMMENT: HBM4EU - science and policy for a healthy future (https://www.hbm4eu.eu)
COMMENT: CONFIDENCE Reference Standard (Level 1)
COMMENT: INTERNAL_ID 139
CH$NAME: Cyclopenol
CH$NAME: Spiro[3H-1,4-benzodiazepine-3,2`-oxirane]-2,5(1H,4H)-dione, 3`-(3-hydroxyphenyl)-4-methyl-, cis-(-)-
CH$NAME: 3`-(3-hydroxyphenyl)-4-methylspiro[1H-1,4-benzodiazepine-3,2`-oxirane]-2,5-dione
CH$COMPOUND_CLASS: N/A; Environmental Standard
CH$FORMULA: C17H14N2O4
CH$EXACT_MASS: 310.0954
CH$SMILES: CN1C(=O)C2=CC=CC=C2NC(=O)C13C(O3)C4=CC(=CC=C4)O
CH$IUPAC: InChI=1S/C17H14N2O4/c1-19-15(21)12-7-2-3-8-13(12)18-16(22)17(19)14(23-17)10-5-4-6-11(20)9-10/h2-9,14,20H,1H3,(H,18,22)
CH$LINK: CAS 20007-85-6
CH$LINK: PUBCHEM CID:101201
CH$LINK: INCHIKEY BDDNYDPRCCDQQJ-UHFFFAOYSA-N
CH$LINK: CHEMSPIDER 91438
AC$INSTRUMENT: LTQ Orbitrap XL Thermo Scientific
AC$INSTRUMENT_TYPE: LC-ESI-ITFT
AC$MASS_SPECTROMETRY: MS_TYPE MS2
AC$MASS_SPECTROMETRY: ION_MODE POSITIVE
AC$MASS_SPECTROMETRY: IONIZATION ESI
AC$MASS_SPECTROMETRY: FRAGMENTATION_MODE HCD
AC$MASS_SPECTROMETRY: COLLISION_ENERGY 40 % (nominal)
AC$MASS_SPECTROMETRY: RESOLUTION 7500
AC$CHROMATOGRAPHY: COLUMN_NAME Hypersil GOLD C18 1.9 um 100 x 2.1 mm Thermo Fisher Scientific
AC$CHROMATOGRAPHY: FLOW_GRADIENT 100/0 at 0 min, 0/100 at 30 min, 0/100 at 35 min
AC$CHROMATOGRAPHY: FLOW_RATE 300 uL/min
AC$CHROMATOGRAPHY: RETENTION_TIME 11.691 min
AC$CHROMATOGRAPHY: SOLVENT A water with 5% methanol and 0.1% acetic acid
AC$CHROMATOGRAPHY: SOLVENT B methanol with 0.1% acetic acid
MS$FOCUSED_ION: BASE_PEAK 311.1023
MS$FOCUSED_ION: PRECURSOR_M/Z 311.1026
MS$FOCUSED_ION: PRECURSOR_TYPE [M+H]+
MS$FOCUSED_ION: PRECURSOR_INTENSITY 8180848.185547
MS$DATA_PROCESSING: RECALIBRATE loess on assigned fragments and MS1
MS$DATA_PROCESSING: REANALYZE Peaks with additional N2/O included
MS$DATA_PROCESSING: WHOLE RMassBank 3.2.0
PK$SPLASH: splash10-0002-0910000000-c79cb96fa96eb4ff0896
PK$ANNOTATION: m/z tentative_formula formula_count mass error(ppm)
  120.0442 C7H6NO+ 1 120.0444 -1.49
  121.0278 C7H5O2+ 1 121.0284 -4.81
  132.0441 C8H6NO+ 1 132.0444 -1.83
  134.0597 C8H8NO+ 1 134.06 -2.55
  136.0755 C8H10NO+ 1 136.0757 -1.21
  146.0235 C8H4NO2+ 1 146.0237 -1.34
  161.0702 C9H9N2O+ 1 161.0709 -4.84
  162.0547 C9H8NO2+ 1 162.055 -1.27
  174.0543 C10H8NO2+ 1 174.055 -3.98
  177.0655 C9H9N2O2+ 1 177.0659 -2.15
  198.0908 C13H12NO+ 1 198.0913 -2.68
  203.1031 C8H15N2O4+ 1 203.1026 2.44
  210.0915 C14H12NO+ 1 210.0913 0.9
  224.0704 C14H10NO2+ 1 224.0706 -1.11
  226.0868 C14H12NO2+ 1 226.0863 2.56
  236.0705 C15H10NO2+ 1 236.0706 -0.44
  239.1175 C15H15N2O+ 1 239.1179 -1.78
  252.0651 C15H10NO3+ 1 252.0655 -1.75
  254.0816 C15H12NO3+ 1 254.0812 1.65
  255.1128 C15H15N2O2+ 1 255.1128 0.14
  265.0972 C16H13N2O2+ 1 265.0972 0.28
  267.1117 C16H15N2O2+ 1 267.1128 -4.15
  280.0598 C16H10NO4+ 1 280.0604 -2.19
  283.1079 C16H15N2O3+ 1 283.1077 0.61
  311.1038 C17H15N2O4+ 1 311.1026 3.79
PK$NUM_PEAK: 25
PK$PEAK: m/z int. rel.int.
  120.0442 98638.5 98
  121.0278 5303.6 5
  132.0441 43742.8 43
  134.0597 8765.9 8
  136.0755 14065.9 14
  146.0235 996128.2 999
  161.0702 7494.8 7
  162.0547 9961.4 9
  174.0543 4846.4 4
  177.0655 473803.7 475
  198.0908 22434.2 22
  203.1031 2336.1 2
  210.0915 2571 2
  224.0704 68191.3 68
  226.0868 9376 9
  236.0705 7725.8 7
  239.1175 4270.9 4
  252.0651 119995 120
  254.0816 5854.9 5
  255.1128 3518 3
  265.0972 11464.7 11
  267.1117 3099.2 3
  280.0598 24603.8 24
  283.1079 5646.1 5
  311.1038 2871.3 2
//
