ACCESSION: MSBNK-HBM4EU-HB002785
RECORD_TITLE: Nylidrin; LC-ESI-QFT; MS2; CE: CE15; R=17500; [M+H]+
DATE: 2019.09.23
AUTHORS: Kondic T, Singh R, Elapavalore A, Krier J, Mohammed Taha H, Narayanan M, Schymanski E
LICENSE: CC0
COPYRIGHT: Copyright (c) by Environmental Cheminformatics, LCSB, University of Luxembourg, Luxembourg
PUBLICATION: Oberacher H, Sasse M, Antignac J-P, Guitton Y, Debrauwer L, Jamin E L, Schulze T, Krauss M, Covaci A, Caballero-Casero N, Rosseau K, Damont A, Fenaille F, Lamoree M, Schymanski E, A European proposal for quality control and quality assurance of tandem mass spectral libraries, Environmental Sciences Europe, https://doi.org/10.1186/s12302-020-00314-9
COMMENT: CONFIDENCE standard compound
COMMENT: INTERNAL_ID 6
COMMENT: HBM4EU - science and policy for a healthy future (https://www.hbm4eu.eu)
CH$NAME: Nylidrin
CH$NAME: 4-[1-hydroxy-2-(4-phenylbutan-2-ylamino)propyl]phenol
CH$COMPOUND_CLASS: N/A; Environmental Standard
CH$FORMULA: C19H25NO2
CH$EXACT_MASS: 299.1885
CH$SMILES: CC(CCC1=CC=CC=C1)NC(C)C(O)C1=CC=C(O)C=C1
CH$IUPAC: InChI=1S/C19H25NO2/c1-14(8-9-16-6-4-3-5-7-16)20-15(2)19(22)17-10-12-18(21)13-11-17/h3-7,10-15,19-22H,8-9H2,1-2H3
CH$LINK: CAS 447-41-6
CH$LINK: CHEBI CHEBI:91656
CH$LINK: KEGG D07551
CH$LINK: PUBCHEM CID:4567
CH$LINK: INCHIKEY PTGXAUBQBSGPKF-UHFFFAOYSA-N
CH$LINK: CHEMSPIDER 4407
AC$INSTRUMENT: Q Exactive Thermo Fisher Scientific
AC$INSTRUMENT_TYPE: LC-ESI-QFT
AC$MASS_SPECTROMETRY: MS_TYPE MS2
AC$MASS_SPECTROMETRY: ION_MODE POSITIVE
AC$MASS_SPECTROMETRY: IONIZATION ESI
AC$MASS_SPECTROMETRY: FRAGMENTATION_MODE HCD
AC$MASS_SPECTROMETRY: COLLISION_ENERGY CE15
AC$MASS_SPECTROMETRY: RESOLUTION 17500
AC$CHROMATOGRAPHY: COLUMN_NAME Acquity UPLC BEH C18 1.7 um, 2.1 x 150 mm, Waters
AC$CHROMATOGRAPHY: FLOW_GRADIENT 90/10 at 0 min, 90/10 at 2 min, 0/100 at 15 min, 0/100 at 20 min, 90/10 at 21 min, 90/10 at 30 min
AC$CHROMATOGRAPHY: FLOW_RATE 200 uL/min
AC$CHROMATOGRAPHY: RETENTION_TIME 17.136 min
AC$CHROMATOGRAPHY: SOLVENT A water with 0.1% formic acid
AC$CHROMATOGRAPHY: SOLVENT B methanol
MS$FOCUSED_ION: BASE_PEAK 223.0629
MS$FOCUSED_ION: PRECURSOR_M/Z 300.1958
MS$FOCUSED_ION: PRECURSOR_TYPE [M+H]+
MS$DATA_PROCESSING: RECALIBRATE loess on assigned fragments and MS1
MS$DATA_PROCESSING: REANALYZE Peaks with additional N2/O included
MS$DATA_PROCESSING: WHOLE RMassBank 2.11.3.1
PK$SPLASH: splash10-001i-1490000000-6cff9b8576029ee54d9c
PK$ANNOTATION: m/z tentative_formula formula_count mass error(ppm)
  56.0497 C3H6N+ 1 56.0495 3.99
  91.0542 C7H7+ 1 91.0542 -0.01
  105.0695 C8H9+ 1 105.0699 -3.64
  107.0493 C7H7O+ 1 107.0491 1.24
  109.0641 C7H9O+ 1 109.0648 -5.97
  133.065 C9H9O+ 1 133.0648 1.32
  135.0809 C9H11O+ 1 135.0804 3.6
  148.1127 C10H14N+ 1 148.1121 4.12
  150.0919 C9H12NO+ 1 150.0913 3.99
  151.0753 C9H11O2+ 1 151.0754 -0.62
  178.1227 C11H16NO+ 1 178.1226 0.16
  282.1865 C19H24NO+ 1 282.1852 4.37
PK$NUM_PEAK: 12
PK$PEAK: m/z int. rel.int.
  56.0497 4205.4 1
  91.0542 420873.5 122
  105.0695 25964.7 7
  107.0493 10533.4 3
  109.0641 5979 1
  133.065 100306.3 29
  135.0809 90307.5 26
  148.1127 17140.2 5
  150.0919 1313646.2 383
  151.0753 70916.8 20
  178.1227 193786.9 56
  282.1865 3423664.2 999
//
