ACCESSION: MSBNK-HBM4EU-HB003414
RECORD_TITLE: Skyrin; LC-ESI-ITFT; MS2; CE: 20%; R=7500; [M-H]-
DATE: 2021.10.11
AUTHORS: Laurent Debrauwer, Emilien L. Jamin, Research Centre in Food Toxicology (TOXALIM), INRAE, MetaboHUB-Metatoul platform, Toulouse, France
LICENSE: CC0
COPYRIGHT: Copyright (c) 2021 by Research Centre in Food Toxicology (TOXALIM), INRAE, MetaboHUB-Metatoul platform, Toulouse, France
COMMENT: HBM4EU - science and policy for a healthy future (https://www.hbm4eu.eu)
COMMENT: CONFIDENCE Reference Standard (Level 1)
COMMENT: INTERNAL_ID 121
CH$NAME: Skyrin
CH$NAME: 2,4,5-trihydroxy-7-methyl-1-(2,4,5-trihydroxy-7-methyl-9,10-dioxoanthracen-1-yl)anthracene-9,10-dione
CH$COMPOUND_CLASS: N/A; Environmental Standard
CH$FORMULA: C30H18O10
CH$EXACT_MASS: 538.09000
CH$SMILES: CC1=CC2=C(C(=C1)O)C(=O)C3=C(C=C(C(=C3C2=O)C4=C5C(=C(C=C4O)O)C(=O)C6=C(C5=O)C=C(C=C6O)C)O)O
CH$IUPAC: InChI=1S/C30H18O10/c1-9-3-11-19(13(31)5-9)29(39)23-17(35)7-15(33)21(25(23)27(11)37)22-16(34)8-18(36)24-26(22)28(38)12-4-10(2)6-14(32)20(12)30(24)40/h3-8,31-36H,1-2H3
CH$LINK: CAS 602-06-2
CH$LINK: CHEBI CHEBI:144311
CH$LINK: PUBCHEM CID:73071
CH$LINK: INCHIKEY MQSXZQXHIJMNAF-UHFFFAOYSA-N
CH$LINK: CHEMSPIDER 65863
CH$LINK: COMPTOX DTXSID00208943
AC$INSTRUMENT: LTQ Orbitrap XL Thermo Scientific
AC$INSTRUMENT_TYPE: LC-ESI-ITFT
AC$MASS_SPECTROMETRY: MS_TYPE MS2
AC$MASS_SPECTROMETRY: ION_MODE NEGATIVE
AC$MASS_SPECTROMETRY: IONIZATION ESI
AC$MASS_SPECTROMETRY: FRAGMENTATION_MODE HCD
AC$MASS_SPECTROMETRY: COLLISION_ENERGY 20 % (nominal)
AC$MASS_SPECTROMETRY: RESOLUTION 7500
AC$CHROMATOGRAPHY: COLUMN_NAME Hypersil GOLD C18 1.9 um 100 x 2.1 mm Thermo Fisher Scientific
AC$CHROMATOGRAPHY: FLOW_GRADIENT 100/0 at 0 min, 0/100 at 30 min, 0/100 at 35 min
AC$CHROMATOGRAPHY: FLOW_RATE 300 uL/min
AC$CHROMATOGRAPHY: RETENTION_TIME 26.834 min
AC$CHROMATOGRAPHY: SOLVENT A water with 5% methanol and 0.1% acetic acid
AC$CHROMATOGRAPHY: SOLVENT B methanol with 0.1% acetic acid
MS$FOCUSED_ION: BASE_PEAK 537.083
MS$FOCUSED_ION: PRECURSOR_M/Z 537.0827
MS$FOCUSED_ION: PRECURSOR_TYPE [M-H]-
MS$FOCUSED_ION: PRECURSOR_INTENSITY 3901699.678467
MS$DATA_PROCESSING: RECALIBRATE loess on assigned fragments and MS1
MS$DATA_PROCESSING: REANALYZE Peaks with additional N2/O included
MS$DATA_PROCESSING: WHOLE RMassBank 3.2.0
PK$SPLASH: splash10-000i-0000090000-5facfaaa6b2ce7cc0834
PK$ANNOTATION: m/z tentative_formula formula_count mass error(ppm)
  201.0837 C2H17O10- 1 201.0827 4.96
  537.0819 C30H17O10- 1 537.0827 -1.44
PK$NUM_PEAK: 2
PK$PEAK: m/z int. rel.int.
  201.0837 3494.4 56
  537.0819 61386.5 999
//
