ACCESSION: MSBNK-HBM4EU-HB003329
RECORD_TITLE: Terrein; LC-ESI-ITFT; MS2; CE: 15%; R=7500; [M-H]-
DATE: 2021.10.11
AUTHORS: Laurent Debrauwer, Emilien L. Jamin, Research Centre in Food Toxicology (TOXALIM), INRAE, MetaboHUB-Metatoul platform, Toulouse, France
LICENSE: CC0
COPYRIGHT: Copyright (c) 2021 by Research Centre in Food Toxicology (TOXALIM), INRAE, MetaboHUB-Metatoul platform, Toulouse, France
COMMENT: HBM4EU - science and policy for a healthy future (https://www.hbm4eu.eu)
COMMENT: CONFIDENCE Reference Standard (Level 1)
COMMENT: INTERNAL_ID 102
CH$NAME: Terrein
CH$NAME: 4,5-dihydroxy-3-prop-1-enylcyclopent-2-en-1-one
CH$COMPOUND_CLASS: N/A; Environmental Standard
CH$FORMULA: C8H10O3
CH$EXACT_MASS: 154.0630
CH$SMILES: CC=CC1=CC(=O)C(C1O)O
CH$IUPAC: InChI=1S/C8H10O3/c1-2-3-5-4-6(9)8(11)7(5)10/h2-4,7-8,10-11H,1H3
CH$LINK: CAS 582-46-7
CH$LINK: PUBCHEM CID:324799
CH$LINK: INCHIKEY MHOOPNKRBMHHEC-UHFFFAOYSA-N
CH$LINK: CHEMSPIDER 287595
AC$INSTRUMENT: LTQ Orbitrap XL Thermo Scientific
AC$INSTRUMENT_TYPE: LC-ESI-ITFT
AC$MASS_SPECTROMETRY: MS_TYPE MS2
AC$MASS_SPECTROMETRY: ION_MODE NEGATIVE
AC$MASS_SPECTROMETRY: IONIZATION ESI
AC$MASS_SPECTROMETRY: FRAGMENTATION_MODE HCD
AC$MASS_SPECTROMETRY: COLLISION_ENERGY 15 % (nominal)
AC$MASS_SPECTROMETRY: RESOLUTION 7500
AC$CHROMATOGRAPHY: COLUMN_NAME Hypersil GOLD C18 1.9 um 100 x 2.1 mm Thermo Fisher Scientific
AC$CHROMATOGRAPHY: FLOW_GRADIENT 100/0 at 0 min, 0/100 at 30 min, 0/100 at 35 min
AC$CHROMATOGRAPHY: FLOW_RATE 300 uL/min
AC$CHROMATOGRAPHY: RETENTION_TIME 4.717 min
AC$CHROMATOGRAPHY: SOLVENT A water with 5% methanol and 0.1% acetic acid
AC$CHROMATOGRAPHY: SOLVENT B methanol with 0.1% acetic acid
MS$FOCUSED_ION: BASE_PEAK 153.0558
MS$FOCUSED_ION: PRECURSOR_M/Z 153.0557
MS$FOCUSED_ION: PRECURSOR_TYPE [M-H]-
MS$FOCUSED_ION: PRECURSOR_INTENSITY 1525738.071777
MS$DATA_PROCESSING: RECALIBRATE loess on assigned fragments and MS1
MS$DATA_PROCESSING: REANALYZE Peaks with additional N2/O included
MS$DATA_PROCESSING: WHOLE RMassBank 3.2.0
PK$SPLASH: splash10-0udi-0900000000-7df7361c9158d98c71d6
PK$ANNOTATION: m/z tentative_formula formula_count mass error(ppm)
  69.0349 C4H5O- 1 69.0346 4.48
  85.0294 C4H5O2- 1 85.0295 -0.93
  95.05 C6H7O- 1 95.0502 -2.36
  97.0294 C5H5O2- 1 97.0295 -0.96
  97.0659 C6H9O- 1 97.0659 0.29
  107.0502 C7H7O- 1 107.0502 -0.34
  109.0659 C7H9O- 1 109.0659 0.32
  112.0166 C5H4O3- 1 112.0166 -0.27
  123.045 C7H7O2- 1 123.0452 -1.15
  124.0166 C6H4O3- 1 124.0166 0.45
  125.0609 C7H9O2- 1 125.0608 0.85
  135.0452 C8H7O2- 1 135.0452 0.31
  138.0329 C7H6O3- 1 138.0322 4.79
  153.0557 C8H9O3- 1 153.0557 0.05
PK$NUM_PEAK: 14
PK$PEAK: m/z int. rel.int.
  69.0349 2750.1 6
  85.0294 3240 8
  95.05 2864 7
  97.0294 10501.9 25
  97.0659 3377.8 8
  107.0502 6458.1 15
  109.0659 25741.8 63
  112.0166 23231 57
  123.045 4855.6 12
  124.0166 13346.9 32
  125.0609 50987.5 126
  135.0452 45334.1 112
  138.0329 2698.7 6
  153.0557 404142 999
//
