ACCESSION: MSBNK-HBM4EU-HB003112
RECORD_TITLE: Tentotoxin; LC-ESI-ITFT; MS2; CE: 20%; R=7500; [M-H]-
DATE: 2021.10.11
AUTHORS: Laurent Debrauwer, Emilien L. Jamin, Research Centre in Food Toxicology (TOXALIM), INRAE, MetaboHUB-Metatoul platform, Toulouse, France
LICENSE: CC0
COPYRIGHT: Copyright (c) 2021 by Research Centre in Food Toxicology (TOXALIM), INRAE, MetaboHUB-Metatoul platform, Toulouse, France
COMMENT: HBM4EU - science and policy for a healthy future (https://www.hbm4eu.eu)
COMMENT: CONFIDENCE Reference Standard (Level 1)
COMMENT: INTERNAL_ID 49
CH$NAME: Tentotoxin
CH$NAME: 12-benzylidene-1,6,7-trimethyl-3-(2-methylpropyl)-1,4,7,10-tetrazacyclododecane-2,5,8,11-tetrone
CH$COMPOUND_CLASS: N/A; Environmental Standard
CH$FORMULA: C22H30N4O4
CH$EXACT_MASS: 414.22671
CH$SMILES: CC1C(=O)NC(C(=O)N(C(=CC2=CC=CC=C2)C(=O)NCC(=O)N1C)C)CC(C)C
CH$IUPAC: InChI=1S/C22H30N4O4/c1-14(2)11-17-22(30)26(5)18(12-16-9-7-6-8-10-16)21(29)23-13-19(27)25(4)15(3)20(28)24-17/h6-10,12,14-15,17H,11,13H2,1-5H3,(H,23,29)(H,24,28)
CH$LINK: CAS 28540-82-1
CH$LINK: PUBCHEM CID:5398
CH$LINK: INCHIKEY SIIRBDOFKDACOK-UHFFFAOYSA-N
CH$LINK: CHEMSPIDER 5205
AC$INSTRUMENT: LTQ Orbitrap XL Thermo Scientific
AC$INSTRUMENT_TYPE: LC-ESI-ITFT
AC$MASS_SPECTROMETRY: MS_TYPE MS2
AC$MASS_SPECTROMETRY: ION_MODE NEGATIVE
AC$MASS_SPECTROMETRY: IONIZATION ESI
AC$MASS_SPECTROMETRY: FRAGMENTATION_MODE HCD
AC$MASS_SPECTROMETRY: COLLISION_ENERGY 20 % (nominal)
AC$MASS_SPECTROMETRY: RESOLUTION 7500
AC$CHROMATOGRAPHY: COLUMN_NAME Hypersil GOLD C18 1.9 um 100 x 2.1 mm Thermo Fisher Scientific
AC$CHROMATOGRAPHY: FLOW_GRADIENT 100/0 at 0 min, 0/100 at 30 min, 0/100 at 35 min
AC$CHROMATOGRAPHY: FLOW_RATE 300 uL/min
AC$CHROMATOGRAPHY: RETENTION_TIME 18.863 min
AC$CHROMATOGRAPHY: SOLVENT A water with 5% methanol and 0.1% acetic acid
AC$CHROMATOGRAPHY: SOLVENT B methanol with 0.1% acetic acid
MS$FOCUSED_ION: BASE_PEAK 413.2183
MS$FOCUSED_ION: PRECURSOR_M/Z 413.2194
MS$FOCUSED_ION: PRECURSOR_TYPE [M-H]-
MS$FOCUSED_ION: PRECURSOR_INTENSITY 34299889.53418
MS$DATA_PROCESSING: RECALIBRATE loess on assigned fragments and MS1
MS$DATA_PROCESSING: REANALYZE Peaks with additional N2/O included
MS$DATA_PROCESSING: WHOLE RMassBank 3.2.0
PK$SPLASH: splash10-03di-0000900000-97c8ff1a3728a5c8124b
PK$ANNOTATION: m/z tentative_formula formula_count mass error(ppm)
  141.0664 C6H9N2O2- 1 141.067 -4
  199.087 C12H11N2O- 1 199.0877 -3.34
  243.1493 C15H19N2O- 1 243.1503 -4.1
  246.1244 C13H16N3O2- 1 246.1248 -1.62
  271.144 C16H19N2O2- 1 271.1452 -4.46
  413.2181 C22H29N4O4- 1 413.2194 -3.19
PK$NUM_PEAK: 6
PK$PEAK: m/z int. rel.int.
  141.0664 260132.8 60
  199.087 9806.3 2
  243.1493 139362.9 32
  246.1244 25548.7 5
  271.144 244977 57
  413.2181 4280694.5 999
//
