ACCESSION: MSBNK-HBM4EU-HB002800
RECORD_TITLE: Sulfamoxole; LC-ESI-QFT; MS2; CE: CE60; R=17500; [M+H]+
DATE: 2019.09.23
AUTHORS: Kondic T, Singh R, Elapavalore A, Krier J, Mohammed Taha H, Narayanan M, Schymanski E
LICENSE: CC0
COPYRIGHT: Copyright (c) by Environmental Cheminformatics, LCSB, University of Luxembourg, Luxembourg
PUBLICATION: Oberacher H, Sasse M, Antignac J-P, Guitton Y, Debrauwer L, Jamin E L, Schulze T, Krauss M, Covaci A, Caballero-Casero N, Rosseau K, Damont A, Fenaille F, Lamoree M, Schymanski E, A European proposal for quality control and quality assurance of tandem mass spectral libraries, Environmental Sciences Europe, https://doi.org/10.1186/s12302-020-00314-9
COMMENT: CONFIDENCE standard compound
COMMENT: INTERNAL_ID 8
COMMENT: HBM4EU - science and policy for a healthy future (https://www.hbm4eu.eu)
CH$NAME: Sulfamoxole
CH$NAME: 4-amino-N-(4,5-dimethyl-1,3-oxazol-2-yl)benzenesulfonamide
CH$COMPOUND_CLASS: N/A; Environmental Standard
CH$FORMULA: C11H13N3O3S
CH$EXACT_MASS: 267.0678
CH$SMILES: CC1=C(C)N=C(NS(=O)(=O)C2=CC=C(N)C=C2)O1
CH$IUPAC: InChI=1S/C11H13N3O3S/c1-7-8(2)17-11(13-7)14-18(15,16)10-5-3-9(12)4-6-10/h3-6H,12H2,1-2H3,(H,13,14)
CH$LINK: CAS 729-99-7
CH$LINK: CHEBI CHEBI:55548
CH$LINK: KEGG D02516
CH$LINK: PUBCHEM CID:12894
CH$LINK: INCHIKEY CYFLXLSBHQBMFT-UHFFFAOYSA-N
CH$LINK: CHEMSPIDER 12361
AC$INSTRUMENT: Q Exactive Thermo Fisher Scientific
AC$INSTRUMENT_TYPE: LC-ESI-QFT
AC$MASS_SPECTROMETRY: MS_TYPE MS2
AC$MASS_SPECTROMETRY: ION_MODE POSITIVE
AC$MASS_SPECTROMETRY: IONIZATION ESI
AC$MASS_SPECTROMETRY: FRAGMENTATION_MODE HCD
AC$MASS_SPECTROMETRY: COLLISION_ENERGY CE60
AC$MASS_SPECTROMETRY: RESOLUTION 17500
AC$CHROMATOGRAPHY: COLUMN_NAME Acquity UPLC BEH C18 1.7 um, 2.1 x 150 mm, Waters
AC$CHROMATOGRAPHY: FLOW_GRADIENT 90/10 at 0 min, 90/10 at 2 min, 0/100 at 15 min, 0/100 at 20 min, 90/10 at 21 min, 90/10 at 30 min
AC$CHROMATOGRAPHY: FLOW_RATE 200 uL/min
AC$CHROMATOGRAPHY: RETENTION_TIME 13.974 min
AC$CHROMATOGRAPHY: SOLVENT A water with 0.1% formic acid
AC$CHROMATOGRAPHY: SOLVENT B methanol
MS$FOCUSED_ION: BASE_PEAK 223.0628
MS$FOCUSED_ION: PRECURSOR_M/Z 268.075
MS$FOCUSED_ION: PRECURSOR_TYPE [M+H]+
MS$DATA_PROCESSING: RECALIBRATE loess on assigned fragments and MS1
MS$DATA_PROCESSING: REANALYZE Peaks with additional N2/O included
MS$DATA_PROCESSING: WHOLE RMassBank 2.11.3.1
PK$SPLASH: splash10-014i-9100000000-b0a24ab7d3398f607300
PK$ANNOTATION: m/z tentative_formula formula_count mass error(ppm)
  53.0026 C3HO+ 1 53.0022 6.99
  53.0388 C4H5+ 1 53.0386 4.78
  54.0342 C3H4N+ 1 54.0338 7.65
  55.0181 C3H3O+ 1 55.0178 4.11
  55.0545 C4H7+ 1 55.0542 4.51
  56.0497 C3H6N+ 1 56.0495 4.27
  63.0229 C5H3+ 1 63.0229 -1.04
  65.0387 C5H5+ 1 65.0386 1.38
  66.0341 C4H4N+ 1 66.0338 4.57
  68.0496 C4H6N+ 1 68.0495 1.61
  69.0575 C4H7N+ 1 69.0573 3.07
  70.0652 C4H8N+ 1 70.0651 0.4
  80.0497 C5H6N+ 1 80.0495 2.47
  83.0496 C5H7O+ 1 83.0491 5.28
  92.0497 C6H6N+ 2 92.0495 2.85
  93.0575 C6H7N+ 2 93.0573 2.04
  108.0447 C6H6NO+ 1 108.0444 3.31
  110.0604 C6H8NO+ 1 110.06 3.64
  111.0552 C5H7N2O+ 1 111.0553 -0.68
  113.0707 C5H9N2O+ 1 113.0709 -2.31
  140.0151 C6H6NOS+ 2 140.0165 -9.52
PK$NUM_PEAK: 21
PK$PEAK: m/z int. rel.int.
  53.0026 39507.3 38
  53.0388 35294.2 34
  54.0342 49146.9 47
  55.0181 3957.8 3
  55.0545 3002.7 2
  56.0497 7500.1 7
  63.0229 3019.4 2
  65.0387 1027766.8 999
  66.0341 3165.4 3
  68.0496 13093.8 12
  69.0575 4791.7 4
  70.0652 122270.4 118
  80.0497 364936.3 354
  83.0496 10288.2 10
  92.0497 148880.8 144
  93.0575 3275.9 3
  108.0447 157589.6 153
  110.0604 33789.6 32
  111.0552 36842.6 35
  113.0707 26613.7 25
  140.0151 4725.2 4
//
