ACCESSION: MSBNK-HBM4EU-HB002766
RECORD_TITLE: Sulfamoxole; ESI-QTOF; MS2; CE: 45eV; R=15000; [M+H]+
DATE: 2020.02.20
AUTHORS: Herbert Oberacher, Institute of Legal Medicine and Core Facility Metabolomics, Medical University of Innsbruck, Innsbruck, Austria
LICENSE: CC0
COPYRIGHT: Copyright (c) 2020 by Institute of Legal Medicine and Core Facility Metabolomics, Medical University of Innsbruck, Innsbruck, Austria
PUBLICATION: Oberacher H, Sasse M, Antignac J-P, Guitton Y, Debrauwer L, Jamin E L, Schulze T, Krauss M, Covaci A, Caballero-Casero N, Rosseau K, Damont A, Fenaille F, Lamoree M, Schymanski E, A European proposal for quality control and quality assurance of tandem mass spectral libraries, Environmental Sciences Europe, https://doi.org/10.1186/s12302-020-00314-9
COMMENT: CONFIDENCE Reference Standard (Level 1)
COMMENT: HBM4EU - science and policy for a healthy future (https://www.hbm4eu.eu)
CH$NAME: Sulfamoxole
CH$NAME: 4-Amino-N-(4,5-dimethyl-1,3-oxazol-2-yl)benzene-1-sulfonamide
CH$COMPOUND_CLASS: N/A; Environmental Standard
CH$FORMULA: C11H13N3O3S
CH$EXACT_MASS: 267.0678
CH$SMILES: CC1=C(C)N=C(NS(=O)(=O)C2=CC=C(N)C=C2)O1
CH$IUPAC: InChI=1S/C11H13N3O3S/c1-7-8(2)17-11(13-7)14-18(15,16)10-5-3-9(12)4-6-10/h3-6H,12H2,1-2H3,(H,13,14)
CH$LINK: CAS 729-99-7
CH$LINK: COMPTOX DTXSID5023617
CH$LINK: INCHIKEY CYFLXLSBHQBMFT-UHFFFAOYSA-N
CH$LINK: PUBCHEM CID:12894
AC$INSTRUMENT: TripleTOF 5600+SCIEX
AC$INSTRUMENT_TYPE: ESI-QTOF
AC$MASS_SPECTROMETRY: MS_TYPE MS2
AC$MASS_SPECTROMETRY: ION_MODE POSITIVE
AC$MASS_SPECTROMETRY: IONIZATION ESI
AC$MASS_SPECTROMETRY: FRAGMENTATION_MODE CID
AC$MASS_SPECTROMETRY: COLLISION_ENERGY 45 eV
AC$MASS_SPECTROMETRY: RESOLUTION 15000
AC$CHROMATOGRAPHY: FLOW_RATE 20 uL/min
AC$CHROMATOGRAPHY: FLOW_GRADIENT 50/50
AC$CHROMATOGRAPHY: SOLVENT A water with 0.1% acetic acid
AC$CHROMATOGRAPHY: SOLVENT B acetonitrile
MS$FOCUSED_ION: PRECURSOR_M/Z 268.0751
MS$FOCUSED_ION: PRECURSOR_TYPE [M+H]+
PK$SPLASH: splash10-0btc-7900000000-a6c317aaca6053eeba96
PK$NUM_PEAK: 39
PK$PEAK: m/z int. rel.int.
  51.025 0.3 1
  53.0414 3.6 7
  54.0366 10.2 19
  55.0205 0.3 1
  65.0408 170.8 313
  66.036 3 6
  68.0515 1.5 3
  69.0592 13.1 24
  70.067 52.2 96
  71.0509 0.4 1
  76.0323 0.5 1
  77.04 0.6 1
  78.0355 0.3 1
  79.0562 0.5 1
  80.0509 53 97
  83.062 1.8 3
  90.0347 0.7 1
  92.0507 452.5 829
  93.0585 3.8 7
  94.0664 1.3 2
  95.9779 0.5 1
  97.0404 1.3 2
  107.0865 0.3 1
  107.959 0.3 1
  108.0452 545.1 999
  110.061 1.1 2
  111.0561 34.8 64
  112.0639 59.8 110
  113.0717 245.2 449
  120.0564 0.5 1
  123.0139 1.2 2
  124.0083 0.6 1
  125.0282 0.4 1
  140.0169 35.3 65
  145.0767 0.4 1
  153.0224 0.4 1
  156.0118 56 103
  158.0276 0.5 1
  167.9983 0.3 1
//
