ACCESSION: MSBNK-HBM4EU-HB000231
RECORD_TITLE: Nylidrin; LC-ESI-ITFT; MS2; CE: 100%; R=15000; [M+H]+
DATE: 2018.09.08
AUTHORS: Tobias Schulze, Carolin Huber, Martin Krauss, Department of Effect-Directed Analysis, Helmholtz Centre for Environmental Research GmbH - UFZ, Leipzig, Germany
LICENSE: CC0
COPYRIGHT: Copyright (C) 2018
PUBLICATION: Oberacher H, Sasse M, Antignac J-P, Guitton Y, Debrauwer L, Jamin E L, Schulze T, Krauss M, Covaci A, Caballero-Casero N, Rosseau K, Damont A, Fenaille F, Lamoree M, Schymanski E, A European proposal for quality control and quality assurance of tandem mass spectral libraries, Environmental Sciences Europe, https://doi.org/10.1186/s12302-020-00314-9
COMMENT: CONFIDENCE Reference Standard (Level 1)
COMMENT: HBM4EU - science and policy for a healthy future (https://www.hbm4eu.eu)
CH$NAME: Nylidrin
CH$NAME: 4-[1-hydroxy-2-(4-phenylbutan-2-ylamino)propyl]phenol
CH$COMPOUND_CLASS: N/A; Environmental Standard
CH$FORMULA: C19H25NO2
CH$EXACT_MASS: 299.1885
CH$SMILES: CC(CCC1=CC=CC=C1)NC(C)C(C2=CC=C(C=C2)O)O
CH$IUPAC: InChI=1S/C19H25NO2/c1-14(8-9-16-6-4-3-5-7-16)20-15(2)19(22)17-10-12-18(21)13-11-17/h3-7,10-15,19-22H,8-9H2,1-2H3
CH$LINK: CAS 447-41-6
CH$LINK: CHEBI CHEBI:91656
CH$LINK: KEGG D07551
CH$LINK: PUBCHEM CID:4567
CH$LINK: INCHIKEY PTGXAUBQBSGPKF-UHFFFAOYSA-N
CH$LINK: CHEMSPIDER 4407
AC$INSTRUMENT: LTQ Orbitrap XL Thermo Scientific
AC$INSTRUMENT_TYPE: LC-ESI-ITFT
AC$MASS_SPECTROMETRY: MS_TYPE MS2
AC$MASS_SPECTROMETRY: ION_MODE POSITIVE
AC$MASS_SPECTROMETRY: IONIZATION ESI
AC$MASS_SPECTROMETRY: FRAGMENTATION_MODE HCD
AC$MASS_SPECTROMETRY: COLLISION_ENERGY 100% (nominal)
AC$MASS_SPECTROMETRY: RESOLUTION 15000
AC$CHROMATOGRAPHY: COLUMN_NAME Kinetex Evo C18 2.6 um 50 x 2.1 mm
AC$CHROMATOGRAPHY: FLOW_GRADIENT 95/5 at 0 min, 95/5 at 1 min, 0/100 at 13 min, 0/100 at 24 min, 95/5 at 24.3 min, 95/5 at 32 min
AC$CHROMATOGRAPHY: FLOW_RATE 300 uL/min
AC$CHROMATOGRAPHY: RETENTION_TIME 6.880 min
AC$CHROMATOGRAPHY: SOLVENT A water with 0.1% formic acid
AC$CHROMATOGRAPHY: SOLVENT B methanol with 0.1% formic acid
MS$FOCUSED_ION: BASE_PEAK 300.1958
MS$FOCUSED_ION: PRECURSOR_M/Z 300.1958
MS$FOCUSED_ION: PRECURSOR_TYPE [M+H]+
MS$DATA_PROCESSING: RECALIBRATE loess on assigned fragments and MS1
MS$DATA_PROCESSING: REANALYZE Peaks with additional N2/O included
MS$DATA_PROCESSING: WHOLE RMassBank 2.9.1
PK$SPLASH: splash10-0006-9600000000-9605bf08cc8d8753fb35
PK$ANNOTATION: m/z tentative_formula formula_count mass error(ppm)
  55.0176 C3H3O+ 1 55.0178 -4.54
  56.0492 C3H6N+ 1 56.0495 -4.94
  57.0333 C3H5O+ 1 57.0335 -2.99
  65.0384 C5H5+ 1 65.0386 -2.37
  77.0385 C6H5+ 1 77.0386 -1.3
  79.0542 C6H7+ 1 79.0542 -0.7
  81.0697 C6H9+ 1 81.0699 -2.21
  91.0542 C7H7+ 1 91.0542 -0.5
  94.0415 C6H6O+ 1 94.0413 1.44
  95.0491 C6H7O+ 1 95.0491 -0.27
  103.0542 C8H7+ 1 103.0542 -0.2
  105.0446 C6H5N2+ 1 105.0447 -1.36
  105.0698 C8H9+ 1 105.0699 -0.69
  107.0491 C7H7O+ 1 107.0491 -0.64
  109.0648 C7H9O+ 1 109.0648 -0.17
  115.0541 C9H7+ 1 115.0542 -0.72
  117.057 C8H7N+ 1 117.0573 -2.27
  118.0407 C8H6O+ 1 118.0413 -4.83
  120.044 C7H6NO+ 1 120.0444 -2.99
  131.0491 C9H7O+ 1 131.0491 -0.44
  132.057 C9H8O+ 1 132.057 0.01
  133.0647 C9H9O+ 1 133.0648 -0.45
  134.0601 C8H8NO+ 1 134.06 0.13
  135.0678 C8H9NO+ 1 135.0679 -0.78
  150.0911 C9H12NO+ 1 150.0913 -1.58
PK$NUM_PEAK: 25
PK$PEAK: m/z int. rel.int.
  55.0176 115351.6 10
  56.0492 283061.8 26
  57.0333 53572.3 4
  65.0384 138277.5 12
  77.0385 294375.2 27
  79.0542 1098358.5 101
  81.0697 78246.7 7
  91.0542 10837357 999
  94.0415 52873.9 4
  95.0491 109534 10
  103.0542 768062.4 70
  105.0446 265933.8 24
  105.0698 4789543 441
  107.0491 639769.7 58
  109.0648 183662.4 16
  115.0541 358809.1 33
  117.057 61388.2 5
  118.0407 24046.3 2
  120.044 49406.7 4
  131.0491 154218.6 14
  132.057 49745.1 4
  133.0647 825176.9 76
  134.0601 90901.4 8
  135.0678 580532.6 53
  150.0911 124178.3 11
//
