ACCESSION: MSBNK-HBM4EU-HB003284
RECORD_TITLE: Dihydrocitrinone; LC-ESI-ITFT; MS2; CE: 50%; R=7500; [M-H]-
DATE: 2021.10.11
AUTHORS: Laurent Debrauwer, Emilien L. Jamin, Research Centre in Food Toxicology (TOXALIM), INRAE, MetaboHUB-Metatoul platform, Toulouse, France
LICENSE: CC0
COPYRIGHT: Copyright (c) 2021 by Research Centre in Food Toxicology (TOXALIM), INRAE, MetaboHUB-Metatoul platform, Toulouse, France
COMMENT: HBM4EU - science and policy for a healthy future (https://www.hbm4eu.eu)
COMMENT: CONFIDENCE Reference Standard (Level 1)
COMMENT: INTERNAL_ID 90
CH$NAME: Dihydrocitrinone
CH$NAME: 3,4-Dihydro-6,8-dihydroxy-3,4,5-trimethyl-isocoumarin-7-carboxylic acid
CH$NAME: 6,8-dihydroxy-3,4,5-trimethyl-1-oxo-3,4-dihydroisochromene-7-carboxylic acid
CH$COMPOUND_CLASS: N/A; Environmental Standard
CH$FORMULA: C13H14O6
CH$EXACT_MASS: 266.0790
CH$SMILES: CC1C(OC(=O)C2=C(C(=C(C(=C12)C)O)C(=O)O)O)C
CH$IUPAC: InChI=1S/C13H14O6/c1-4-6(3)19-13(18)8-7(4)5(2)10(14)9(11(8)15)12(16)17/h4,6,14-15H,1-3H3,(H,16,17)
CH$LINK: CAS 65718-85-6
CH$LINK: PUBCHEM CID:15558919
CH$LINK: INCHIKEY VVVMDYGNIVXIIG-UHFFFAOYSA-N
CH$LINK: CHEMSPIDER 28566878
AC$INSTRUMENT: LTQ Orbitrap XL Thermo Scientific
AC$INSTRUMENT_TYPE: LC-ESI-ITFT
AC$MASS_SPECTROMETRY: MS_TYPE MS2
AC$MASS_SPECTROMETRY: ION_MODE NEGATIVE
AC$MASS_SPECTROMETRY: IONIZATION ESI
AC$MASS_SPECTROMETRY: FRAGMENTATION_MODE HCD
AC$MASS_SPECTROMETRY: COLLISION_ENERGY 50 % (nominal)
AC$MASS_SPECTROMETRY: RESOLUTION 7500
AC$CHROMATOGRAPHY: COLUMN_NAME Hypersil GOLD C18 1.9 um 100 x 2.1 mm Thermo Fisher Scientific
AC$CHROMATOGRAPHY: FLOW_GRADIENT 100/0 at 0 min, 0/100 at 30 min, 0/100 at 35 min
AC$CHROMATOGRAPHY: FLOW_RATE 300 uL/min
AC$CHROMATOGRAPHY: RETENTION_TIME 15.754 min
AC$CHROMATOGRAPHY: SOLVENT A water with 5% methanol and 0.1% acetic acid
AC$CHROMATOGRAPHY: SOLVENT B methanol with 0.1% acetic acid
MS$FOCUSED_ION: BASE_PEAK 265.0722
MS$FOCUSED_ION: PRECURSOR_M/Z 265.0718
MS$FOCUSED_ION: PRECURSOR_TYPE [M-H]-
MS$FOCUSED_ION: PRECURSOR_INTENSITY 7055748.92749
MS$DATA_PROCESSING: RECALIBRATE loess on assigned fragments and MS1
MS$DATA_PROCESSING: REANALYZE Peaks with additional N2/O included
MS$DATA_PROCESSING: WHOLE RMassBank 3.2.0
PK$SPLASH: splash10-014i-0090000000-5d3984ec354e3d688c2a
PK$ANNOTATION: m/z tentative_formula formula_count mass error(ppm)
  221.082 C12H13O4- 1 221.0819 0.26
  247.0615 C13H11O5- 1 247.0612 1.25
  265.072 C13H13O6- 1 265.0718 0.73
PK$NUM_PEAK: 3
PK$PEAK: m/z int. rel.int.
  221.082 94355 39
  247.0615 29767.7 12
  265.072 2384180.2 999
//
