ACCESSION: MSBNK-HBM4EU-HB002933
RECORD_TITLE: Chlorotoluron-diOH (TENTATIVE); LC-ESI-QFT; MS2; CE: 42%; R=70000; [M-H]-
DATE: 2020.02.03
AUTHORS: Carolin Huber, Tobias Schulze, Martin Krauss, Department of Effect-Directed Analysis, Helmholtz Centre for Environmental Research - UFZ GmbH, Leipzig, Germany
LICENSE: CC0
COPYRIGHT: Copyright (C) 2021 Helmholtz Centre for Environmental Research - UFZ, Leipzig, Germany 
PUBLICATION: Huber C, Mueller E, Schulze T, Brack W, Krauss M, Improving the Screening Analysis of Pesticide Metabolites in Human Biomonitoring by Combining High-Throughput In Vitro Incubation and Automated LC–HRMS Data Processing, Analytical Chemistry, https://doi.org/10.1021/acs.analchem.1c00972
COMMENT: HBM4EU - science and policy for a healthy future (https://www.hbm4eu.eu)
COMMENT: COMMENT: CONFIDENCE: Tentative structure, with evidences on substitutes (Level 3b)
COMMENT: COMMENT: generated by human liver S9 incubation
COMMENT: Chlorotoluron_diOH_CE42eV.txt
CH$NAME: Chlorotoluron-diOH
CH$COMPOUND_CLASS: N/A; Biotransformation Product
CH$FORMULA: C10H13ClN2O3
CH$EXACT_MASS: 244.0615
CH$SMILES: C(*)C1=C(c(*)=C(C(*)=C(*)1)NC(=O)N(C(*))C(*))Cl * = [OH (n=2) & H (n=4)]
CH$IUPAC: N/A
AC$INSTRUMENT: Q Exactive Plus Orbitrap Thermo Scientific
AC$INSTRUMENT_TYPE: LC-ESI-QFT
AC$MASS_SPECTROMETRY: MS_TYPE MS2
AC$MASS_SPECTROMETRY: ION_MODE NEGATIVE
AC$MASS_SPECTROMETRY: IONIZATION ESI
AC$MASS_SPECTROMETRY: FRAGMENTATION_MODE HCD
AC$MASS_SPECTROMETRY: COLLISION_ENERGY 42% (nominal) with stepped collision energies 30% and 55%
AC$MASS_SPECTROMETRY: RESOLUTION 70000
AC$CHROMATOGRAPHY: COLUMN_NAME Phenomenex Synergi Polar-RP 2.5 um 100 mm x 3 mm with pre-column
AC$CHROMATOGRAPHY: FLOW_GRADIENT 5/0/0 at 0 min, 5/0/0 at 2 min, 5/95/0at 8 min, 5/80/15 at 12 min, 5/25/70 at 19 min
AC$CHROMATOGRAPHY: FLOW_RATE 400 uL/min
AC$CHROMATOGRAPHY: RETENTION_TIME 9.83 min
AC$CHROMATOGRAPHY: SOLVENT A water with 1mM ammoniumfloride
AC$CHROMATOGRAPHY: SOLVENT B methanol
AC$CHROMATOGRAPHY: SOLVENT C acetonitrile
MS$FOCUSED_ION: PRECURSOR_M/Z 243.0544
MS$FOCUSED_ION: PRECURSOR_TYPE [M-H]-
MS$DATA_PROCESSING: COMMENT Peaks removed that cannot be explained by GenForm and Molecular Formula (5 ppm)
MS$DATA_PROCESSING: WHOLE mzR
PK$SPLASH: splash10-0006-3900000000-fc4c5f55765530e8c9ba
PK$NUM_PEAK: 4
PK$PEAK: m/z int. rel.int.
  93.0346 3627771.7 494
  140.0275 7337340 999
  141.0305 450944.8 61
  197.0494 1585092.9 216
//
