ACCESSION: MSBNK-HBM4EU-HB001659
RECORD_TITLE: Sulfamethoxazole; LC-ESI-ITFT; MS2; CE: 130%; R=15000; [M+H]+
DATE: 2018.09.08
AUTHORS: Tobias Schulze, Carolin Huber, Martin Krauss, Department of Effect-Directed Analysis, Helmholtz Centre for Environmental Research GmbH - UFZ, Leipzig, Germany
LICENSE: CC0
COPYRIGHT: Copyright (C) 2018
PUBLICATION: Oberacher H, Sasse M, Antignac J-P, Guitton Y, Debrauwer L, Jamin E L, Schulze T, Krauss M, Covaci A, Caballero-Casero N, Rosseau K, Damont A, Fenaille F, Lamoree M, Schymanski E, A European proposal for quality control and quality assurance of tandem mass spectral libraries, Environmental Sciences Europe, https://doi.org/10.1186/s12302-020-00314-9
COMMENT: CONFIDENCE Reference Standard (Level 1)
COMMENT: HBM4EU - science and policy for a healthy future (https://www.hbm4eu.eu)
CH$NAME: Sulfamethoxazole
CH$NAME: 4-amino-N-(5-methyl-1,2-oxazol-3-yl)benzenesulfonamide
CH$COMPOUND_CLASS: N/A; Environmental Standard
CH$FORMULA: C10H11N3O3S
CH$EXACT_MASS: 253.0521
CH$SMILES: CC1=CC(=NO1)NS(=O)(=O)C2=CC=C(C=C2)N
CH$IUPAC: InChI=1S/C10H11N3O3S/c1-7-6-10(12-16-7)13-17(14,15)9-4-2-8(11)3-5-9/h2-6H,11H2,1H3,(H,12,13)
CH$LINK: CAS 723-46-6
CH$LINK: CHEBI CHEBI:9332
CH$LINK: KEGG D00447
CH$LINK: PUBCHEM CID:5329
CH$LINK: INCHIKEY JLKIGFTWXXRPMT-UHFFFAOYSA-N
CH$LINK: CHEMSPIDER 5138
AC$INSTRUMENT: LTQ Orbitrap XL Thermo Scientific
AC$INSTRUMENT_TYPE: LC-ESI-ITFT
AC$MASS_SPECTROMETRY: MS_TYPE MS2
AC$MASS_SPECTROMETRY: ION_MODE POSITIVE
AC$MASS_SPECTROMETRY: IONIZATION ESI
AC$MASS_SPECTROMETRY: FRAGMENTATION_MODE CID
AC$MASS_SPECTROMETRY: COLLISION_ENERGY 130% (nominal)
AC$MASS_SPECTROMETRY: RESOLUTION 15000
AC$CHROMATOGRAPHY: COLUMN_NAME Kinetex Evo C18 2.6 um 50 x 2.1 mm
AC$CHROMATOGRAPHY: FLOW_GRADIENT 95/5 at 0 min, 95/5 at 1 min, 0/100 at 13 min, 0/100 at 24 min, 95/5 at 24.3 min, 95/5 at 32 min
AC$CHROMATOGRAPHY: FLOW_RATE 300 uL/min
AC$CHROMATOGRAPHY: RETENTION_TIME 5.650 min
AC$CHROMATOGRAPHY: SOLVENT A water with 0.1% formic acid
AC$CHROMATOGRAPHY: SOLVENT B methanol with 0.1% formic acid
MS$FOCUSED_ION: BASE_PEAK 189.1024
MS$FOCUSED_ION: PRECURSOR_M/Z 254.0594
MS$FOCUSED_ION: PRECURSOR_TYPE [M+H]+
MS$DATA_PROCESSING: RECALIBRATE loess on assigned fragments and MS1
MS$DATA_PROCESSING: REANALYZE Peaks with additional N2/O included
MS$DATA_PROCESSING: WHOLE RMassBank 2.9.1
PK$SPLASH: splash10-0a4v-0900000000-bbc7686c414bb0245b24
PK$ANNOTATION: m/z tentative_formula formula_count mass error(ppm)
  65.0384 C5H5+ 1 65.0386 -2.08
  80.0495 C5H6N+ 1 80.0495 -0.03
  92.0495 C6H6N+ 1 92.0495 0.76
  93.0573 C6H7N+ 1 93.0573 -0.07
  94.0652 C6H8N+ 1 94.0651 0.9
  99.0554 C4H7N2O+ 1 99.0553 0.86
  107.0605 C6H7N2+ 1 107.0604 0.85
  108.0445 C6H6NO+ 1 108.0444 0.77
  131.0603 C8H7N2+ 1 131.0604 -0.32
  145.0763 C9H9N2+ 1 145.076 1.87
  146.0714 C8H8N3+ 1 146.0713 0.84
  147.0792 C8H9N3+ 1 147.0791 0.63
  148.087 C8H10N3+ 1 148.0869 0.33
  156.0115 C6H6NO2S+ 1 156.0114 0.83
  160.087 C9H10N3+ 1 160.0869 0.58
  161.0016 C4H5N2O3S+ 1 161.0015 0.35
  161.0711 C9H9N2O+ 1 161.0709 1.09
  163.0865 C9H11N2O+ 1 163.0866 -0.51
  172.0868 C10H10N3+ 1 172.0869 -0.43
  176.0277 C8H6N3S+ 1 176.0277 0.28
  177.0113 C8H5N2OS+ 1 177.0117 -2.26
  188.082 C10H10N3O+ 1 188.0818 0.95
  190.0976 C10H12N3O+ 1 190.0975 0.4
  194.0383 C8H8N3OS+ 1 194.0383 0.37
  236.049 C10H10N3O2S+ 1 236.0488 0.86
  254.0598 C10H12N3O3S+ 1 254.0594 1.45
PK$NUM_PEAK: 26
PK$PEAK: m/z int. rel.int.
  65.0384 2003.7 7
  80.0495 1812.4 6
  92.0495 29060.1 106
  93.0573 7895.5 28
  94.0652 7765.5 28
  99.0554 5818.3 21
  107.0605 6592.6 24
  108.0445 67160.2 245
  131.0603 2063.5 7
  145.0763 1460.1 5
  146.0714 39771.1 145
  147.0792 152665.4 557
  148.087 35889.7 130
  156.0115 273794.8 999
  160.087 111748.2 407
  161.0016 2172.3 7
  161.0711 2378.7 8
  163.0865 1909.9 6
  172.0868 3752.4 13
  176.0277 8566.7 31
  177.0113 1700.6 6
  188.082 231545.1 844
  190.0976 73370.9 267
  194.0383 90444.1 330
  236.049 6734.5 24
  254.0598 3822.3 13
//
