ACCESSION: MSBNK-HBM4EU-HB000639
RECORD_TITLE: Dosulepin; LC-ESI-ITFT; MS2; CE: 90%; R=15000; [M+H]+
DATE: 2018.09.08
AUTHORS: Tobias Schulze, Carolin Huber, Martin Krauss, Department of Effect-Directed Analysis, Helmholtz Centre for Environmental Research GmbH - UFZ, Leipzig, Germany
LICENSE: CC0
COPYRIGHT: Copyright (C) 2018
PUBLICATION: Oberacher H, Sasse M, Antignac J-P, Guitton Y, Debrauwer L, Jamin E L, Schulze T, Krauss M, Covaci A, Caballero-Casero N, Rosseau K, Damont A, Fenaille F, Lamoree M, Schymanski E, A European proposal for quality control and quality assurance of tandem mass spectral libraries, Environmental Sciences Europe, https://doi.org/10.1186/s12302-020-00314-9
COMMENT: CONFIDENCE Reference Standard (Level 1)
COMMENT: HBM4EU - science and policy for a healthy future (https://www.hbm4eu.eu)
CH$NAME: Dosulepin
CH$NAME: Dothiepin
CH$NAME: 3-(6H-benzo[c][1]benzothiepin-11-ylidene)-N,N-dimethylpropan-1-amine
CH$COMPOUND_CLASS: N/A; Environmental Standard
CH$FORMULA: C19H21NS
CH$EXACT_MASS: 295.1395
CH$SMILES: CN(C)CCC=C1C2=CC=CC=C2CSC3=CC=CC=C31
CH$IUPAC: InChI=1S/C19H21NS/c1-20(2)13-7-11-17-16-9-4-3-8-15(16)14-21-19-12-6-5-10-18(17)19/h3-6,8-12H,7,13-14H2,1-2H3
CH$LINK: CAS 113-53-1
CH$LINK: PUBCHEM CID:3155
CH$LINK: INCHIKEY PHTUQLWOUWZIMZ-UHFFFAOYSA-N
CH$LINK: CHEMSPIDER 3043
AC$INSTRUMENT: LTQ Orbitrap XL Thermo Scientific
AC$INSTRUMENT_TYPE: LC-ESI-ITFT
AC$MASS_SPECTROMETRY: MS_TYPE MS2
AC$MASS_SPECTROMETRY: ION_MODE POSITIVE
AC$MASS_SPECTROMETRY: IONIZATION ESI
AC$MASS_SPECTROMETRY: FRAGMENTATION_MODE CID
AC$MASS_SPECTROMETRY: COLLISION_ENERGY 90% (nominal)
AC$MASS_SPECTROMETRY: RESOLUTION 15000
AC$CHROMATOGRAPHY: COLUMN_NAME Kinetex Evo C18 2.6 um 50 x 2.1 mm
AC$CHROMATOGRAPHY: FLOW_GRADIENT 95/5 at 0 min, 95/5 at 1 min, 0/100 at 13 min, 0/100 at 24 min, 95/5 at 24.3 min, 95/5 at 32 min
AC$CHROMATOGRAPHY: FLOW_RATE 300 uL/min
AC$CHROMATOGRAPHY: RETENTION_TIME 8.162 min
AC$CHROMATOGRAPHY: SOLVENT A water with 0.1% formic acid
AC$CHROMATOGRAPHY: SOLVENT B methanol with 0.1% formic acid
MS$FOCUSED_ION: BASE_PEAK 296.1467
MS$FOCUSED_ION: PRECURSOR_M/Z 296.1467
MS$FOCUSED_ION: PRECURSOR_TYPE [M+H]+
MS$DATA_PROCESSING: RECALIBRATE loess on assigned fragments and MS1
MS$DATA_PROCESSING: REANALYZE Peaks with additional N2/O included
MS$DATA_PROCESSING: WHOLE RMassBank 2.9.1
PK$SPLASH: splash10-004i-0190000000-60242e043d6818d0f314
PK$ANNOTATION: m/z tentative_formula formula_count mass error(ppm)
  91.0542 C7H7+ 1 91.0542 0.18
  117.0698 C9H9+ 1 117.0699 -0.26
  123.0262 C7H7S+ 1 123.0263 -0.56
  141.0698 C11H9+ 1 141.0699 -0.85
  142.0779 C11H10+ 1 142.0777 1.52
  147.0263 C9H7S+ 1 147.0263 -0.09
  173.0419 C11H9S+ 1 173.0419 -0.17
  178.0776 C14H10+ 1 178.0777 -0.7
  191.0855 C15H11+ 1 191.0855 0.07
  192.0934 C15H12+ 1 192.0934 0.48
  205.1013 C16H13+ 1 205.1012 0.4
  209.0421 C14H9S+ 1 209.0419 0.66
  210.049 C14H10S+ 1 210.0498 -3.84
  211.0578 C14H11S+ 1 211.0576 1.11
  217.1013 C17H13+ 1 217.1012 0.71
  218.1091 C17H14+ 1 218.109 0.44
  221.0421 C15H9S+ 1 221.0419 0.87
  222.0499 C15H10S+ 1 222.0498 0.6
  223.0578 C15H11S+ 1 223.0576 0.74
  225.0732 C15H13S+ 1 225.0732 -0.26
  236.0654 C16H12S+ 1 236.0654 0
  249.0737 C17H13S+ 1 249.0732 1.82
  251.0889 C17H15S+ 1 251.0889 0.19
  253.1044 C17H17S+ 1 253.1045 -0.39
  265.1045 C18H17S+ 1 265.1045 -0.18
PK$NUM_PEAK: 25
PK$PEAK: m/z int. rel.int.
  91.0542 340392 14
  117.0698 270648.1 11
  123.0262 202958.8 8
  141.0698 149531.7 6
  142.0779 74834.6 3
  147.0263 4395925 187
  173.0419 269971.9 11
  178.0776 43293.3 1
  191.0855 656068.3 27
  192.0934 65632.9 2
  205.1013 54224.3 2
  209.0421 1293349.2 55
  210.049 63499.2 2
  211.0578 71649 3
  217.1013 824181.2 35
  218.1091 2302442.2 97
  221.0421 76245.2 3
  222.0499 757898 32
  223.0578 5881701.5 250
  225.0732 23482050 999
  236.0654 516062.7 21
  249.0737 39934.5 1
  251.0889 10744814 457
  253.1044 1257623.4 53
  265.1045 171208.3 7
//
