ACCESSION: MSBNK-HBM4EU-HB003475
RECORD_TITLE: Fulvic acid; LC-ESI-ITFT; MS2; CE: 40%; R=7500; [M-H]-
DATE: 2021.10.11
AUTHORS: Laurent Debrauwer, Emilien L. Jamin, Research Centre in Food Toxicology (TOXALIM), INRAE, MetaboHUB-Metatoul platform, Toulouse, France
LICENSE: CC0
COPYRIGHT: Copyright (c) 2021 by Research Centre in Food Toxicology (TOXALIM), INRAE, MetaboHUB-Metatoul platform, Toulouse, France
COMMENT: HBM4EU - science and policy for a healthy future (https://www.hbm4eu.eu)
COMMENT: CONFIDENCE Reference Standard (Level 1)
COMMENT: INTERNAL_ID 140
CH$NAME: Fulvic acid
CH$NAME: 3,7,8-trihydroxy-3-methyl-10-oxo-1,4-dihydropyrano[4,3-b]chromene-9-carboxylic acid
CH$COMPOUND_CLASS: N/A; Environmental Standard
CH$FORMULA: C14H12O8
CH$EXACT_MASS: 308.05322
CH$SMILES: CC1(CC2=C(CO1)C(=O)C3=C(O2)C=C(C(=C3C(=O)O)O)O)O
CH$IUPAC: InChI=1S/C14H12O8/c1-14(20)3-8-5(4-21-14)11(16)9-7(22-8)2-6(15)12(17)10(9)13(18)19/h2,15,17,20H,3-4H2,1H3,(H,18,19)
CH$LINK: CAS 479-66-3
CH$LINK: PUBCHEM CID:5359407
CH$LINK: INCHIKEY FCYKAQOGGFGCMD-UHFFFAOYSA-N
CH$LINK: CHEMSPIDER 4514278
AC$INSTRUMENT: LTQ Orbitrap XL Thermo Scientific
AC$INSTRUMENT_TYPE: LC-ESI-ITFT
AC$MASS_SPECTROMETRY: MS_TYPE MS2
AC$MASS_SPECTROMETRY: ION_MODE NEGATIVE
AC$MASS_SPECTROMETRY: IONIZATION ESI
AC$MASS_SPECTROMETRY: FRAGMENTATION_MODE HCD
AC$MASS_SPECTROMETRY: COLLISION_ENERGY 40 % (nominal)
AC$MASS_SPECTROMETRY: RESOLUTION 7500
AC$CHROMATOGRAPHY: COLUMN_NAME Hypersil GOLD C18 1.9 um 100 x 2.1 mm Thermo Fisher Scientific
AC$CHROMATOGRAPHY: FLOW_GRADIENT 100/0 at 0 min, 0/100 at 30 min, 0/100 at 35 min
AC$CHROMATOGRAPHY: FLOW_RATE 300 uL/min
AC$CHROMATOGRAPHY: RETENTION_TIME 11.342 min
AC$CHROMATOGRAPHY: SOLVENT A water with 5% methanol and 0.1% acetic acid
AC$CHROMATOGRAPHY: SOLVENT B methanol with 0.1% acetic acid
MS$FOCUSED_ION: BASE_PEAK 307.0459
MS$FOCUSED_ION: PRECURSOR_M/Z 307.0459
MS$FOCUSED_ION: PRECURSOR_TYPE [M-H]-
MS$FOCUSED_ION: PRECURSOR_INTENSITY 8037311.709473
MS$DATA_PROCESSING: RECALIBRATE loess on assigned fragments and MS1
MS$DATA_PROCESSING: REANALYZE Peaks with additional N2/O included
MS$DATA_PROCESSING: WHOLE RMassBank 3.2.0
PK$SPLASH: splash10-0a4i-0049000000-9c1515be608b5ff9f1a4
PK$ANNOTATION: m/z tentative_formula formula_count mass error(ppm)
  203.035 C11H7O4- 1 203.035 0.26
  221.0454 C11H9O5- 1 221.0455 -0.52
  233.0462 C12H9O5- 1 233.0455 2.68
  245.0455 C13H9O5- 1 245.0455 -0.01
  247.0246 C12H7O6- 1 247.0248 -0.7
  263.0561 C13H11O6- 1 263.0561 -0.16
  277.0359 C13H9O7- 1 277.0354 2.07
  289.0351 C14H9O7- 1 289.0354 -0.84
  307.0456 C14H11O8- 1 307.0459 -0.95
PK$NUM_PEAK: 9
PK$PEAK: m/z int. rel.int.
  203.035 180260.8 139
  221.0454 10049 7
  233.0462 11987.1 9
  245.0455 44825.8 34
  247.0246 25448.8 19
  263.0561 304930.7 235
  277.0359 7706.6 5
  289.0351 24276.2 18
  307.0456 1291732.5 999
//
