ACCESSION: MSBNK-HBM4EU-HB000607
RECORD_TITLE: Dosulepin; LC-ESI-ITFT; MS2; CE: 20%; R=15000; [M+H]+
DATE: 2018.09.08
AUTHORS: Tobias Schulze, Carolin Huber, Martin Krauss, Department of Effect-Directed Analysis, Helmholtz Centre for Environmental Research GmbH - UFZ, Leipzig, Germany
LICENSE: CC0
COPYRIGHT: Copyright (C) 2018
PUBLICATION: Oberacher H, Sasse M, Antignac J-P, Guitton Y, Debrauwer L, Jamin E L, Schulze T, Krauss M, Covaci A, Caballero-Casero N, Rosseau K, Damont A, Fenaille F, Lamoree M, Schymanski E, A European proposal for quality control and quality assurance of tandem mass spectral libraries, Environmental Sciences Europe, https://doi.org/10.1186/s12302-020-00314-9
COMMENT: CONFIDENCE Reference Standard (Level 1)
COMMENT: HBM4EU - science and policy for a healthy future (https://www.hbm4eu.eu)
CH$NAME: Dosulepin
CH$NAME: Dothiepin
CH$NAME: 3-(6H-benzo[c][1]benzothiepin-11-ylidene)-N,N-dimethylpropan-1-amine
CH$COMPOUND_CLASS: N/A; Environmental Standard
CH$FORMULA: C19H21NS
CH$EXACT_MASS: 295.1395
CH$SMILES: CN(C)CCC=C1C2=CC=CC=C2CSC3=CC=CC=C31
CH$IUPAC: InChI=1S/C19H21NS/c1-20(2)13-7-11-17-16-9-4-3-8-15(16)14-21-19-12-6-5-10-18(17)19/h3-6,8-12H,7,13-14H2,1-2H3
CH$LINK: CAS 113-53-1
CH$LINK: PUBCHEM CID:3155
CH$LINK: INCHIKEY PHTUQLWOUWZIMZ-UHFFFAOYSA-N
CH$LINK: CHEMSPIDER 3043
AC$INSTRUMENT: LTQ Orbitrap XL Thermo Scientific
AC$INSTRUMENT_TYPE: LC-ESI-ITFT
AC$MASS_SPECTROMETRY: MS_TYPE MS2
AC$MASS_SPECTROMETRY: ION_MODE POSITIVE
AC$MASS_SPECTROMETRY: IONIZATION ESI
AC$MASS_SPECTROMETRY: FRAGMENTATION_MODE CID
AC$MASS_SPECTROMETRY: COLLISION_ENERGY 20% (nominal)
AC$MASS_SPECTROMETRY: RESOLUTION 15000
AC$CHROMATOGRAPHY: COLUMN_NAME Kinetex Evo C18 2.6 um 50 x 2.1 mm
AC$CHROMATOGRAPHY: FLOW_GRADIENT 95/5 at 0 min, 95/5 at 1 min, 0/100 at 13 min, 0/100 at 24 min, 95/5 at 24.3 min, 95/5 at 32 min
AC$CHROMATOGRAPHY: FLOW_RATE 300 uL/min
AC$CHROMATOGRAPHY: RETENTION_TIME 8.113 min
AC$CHROMATOGRAPHY: SOLVENT A water with 0.1% formic acid
AC$CHROMATOGRAPHY: SOLVENT B methanol with 0.1% formic acid
MS$FOCUSED_ION: BASE_PEAK 296.1466
MS$FOCUSED_ION: PRECURSOR_M/Z 296.1467
MS$FOCUSED_ION: PRECURSOR_TYPE [M+H]+
MS$DATA_PROCESSING: RECALIBRATE loess on assigned fragments and MS1
MS$DATA_PROCESSING: REANALYZE Peaks with additional N2/O included
MS$DATA_PROCESSING: WHOLE RMassBank 2.9.1
PK$SPLASH: splash10-0002-0090000000-b2f7db426e9a6292442a
PK$ANNOTATION: m/z tentative_formula formula_count mass error(ppm)
  91.0543 C7H7+ 1 91.0542 1.26
  117.0698 C9H9+ 1 117.0699 -0.98
  147.0262 C9H7S+ 1 147.0263 -0.67
  173.0422 C11H9S+ 1 173.0419 1.38
  191.0855 C15H11+ 1 191.0855 0.02
  209.042 C14H9S+ 1 209.0419 0.2
  217.1013 C17H13+ 1 217.1012 0.44
  218.109 C17H14+ 1 218.109 -0.12
  222.0497 C15H10S+ 1 222.0498 -0.15
  223.0575 C15H11S+ 1 223.0576 -0.28
  225.0731 C15H13S+ 1 225.0732 -0.66
  236.0652 C16H12S+ 1 236.0654 -0.74
  251.0889 C17H15S+ 1 251.0889 -0.17
  253.1046 C17H17S+ 1 253.1045 0.09
  265.1053 C18H17S+ 1 265.1045 2.96
  296.1467 C19H22NS+ 1 296.1467 -0.24
PK$NUM_PEAK: 16
PK$PEAK: m/z int. rel.int.
  91.0543 55391.9 1
  117.0698 59378.9 1
  147.0262 935591.2 20
  173.0422 55555.4 1
  191.0855 129850.7 2
  209.042 283389.7 6
  217.1013 188448.8 4
  218.109 504694.3 11
  222.0497 138333.4 3
  223.0575 1183618.8 26
  225.0731 7725157.5 172
  236.0652 84512.5 1
  251.0889 3519489.2 78
  253.1046 396548.2 8
  265.1053 54431.6 1
  296.1467 44850112 999
//
