ACCESSION: MSBNK-HBM4EU-HB002520
RECORD_TITLE: Dothiepin; LC-ESI-QTOF; MS2; CE: 15 eV; R=3600; [M+H]+
DATE: 2020.02.20
AUTHORS: Noelia Caballero-Casero, Adrian Covaci, Toxicological Center, University of Antwerp, Wilrijk, Belgium
LICENSE: CC0
COPYRIGHT: Copyright (c) by Toxicological Center, University of Antwerp, Wilrijk, Belgium
PUBLICATION: Oberacher H, Sasse M, Antignac J-P, Guitton Y, Debrauwer L, Jamin E L, Schulze T, Krauss M, Covaci A, Caballero-Casero N, Rosseau K, Damont A, Fenaille F, Lamoree M, Schymanski E, A European proposal for quality control and quality assurance of tandem mass spectral libraries, Environmental Sciences Europe, https://doi.org/10.1186/s12302-020-00314-9
COMMENT: CONFIDENCE Reference Standard (Level 1)
COMMENT: HBM4EU - science and policy for a healthy future (https://www.hbm4eu.eu)
COMMENT: Flow Injection
CH$NAME: Dothiepin
CH$NAME: 3-(Dibenzo[b,e]thiepin-11(6H)-ylidene)-N,N-dimethylpropan-1-amine
CH$COMPOUND_CLASS: N/A; Environmental Standard
CH$FORMULA: C19H21NS
CH$EXACT_MASS: 295.1395
CH$SMILES: CN(C)CCC=C1C2=CC=CC=C2CSC2=C1C=CC=C2
CH$IUPAC: InChI=1S/C19H21NS/c1-20(2)13-7-11-17-16-9-4-3-8-15(16)14-21-19-12-6-5-10-18(17)19/h3-6,8-12H,7,13-14H2,1-2H3
CH$LINK: CAS 113-53-1
CH$LINK: COMPTOX DTXSID2022961
CH$LINK: INCHIKEY PHTUQLWOUWZIMZ-UHFFFAOYSA-N
CH$LINK: PUBCHEM CID:3155
AC$INSTRUMENT: 6581 QTOF Agilent
AC$INSTRUMENT_TYPE: LC-ESI-QTOF
AC$MASS_SPECTROMETRY: MS_TYPE MS2
AC$MASS_SPECTROMETRY: ION_MODE POSITIVE
AC$MASS_SPECTROMETRY: IONIZATION ESI
AC$MASS_SPECTROMETRY: FRAGMENTATION_MODE CID
AC$MASS_SPECTROMETRY: COLLISION_ENERGY 15 eV
AC$MASS_SPECTROMETRY: RESOLUTION 3600
AC$CHROMATOGRAPHY: FLOW_GRADIENT 50/50
AC$CHROMATOGRAPHY: FLOW_RATE 300 uL/min
AC$CHROMATOGRAPHY: SOLVENT A water
AC$CHROMATOGRAPHY: SOLVENT B methanol
MS$FOCUSED_ION: PRECURSOR_M/Z 296.1468
MS$FOCUSED_ION: PRECURSOR_TYPE [M+H]+
PK$SPLASH: splash10-01ba-1290000000-54489a30b69a72fc7fc9
PK$NUM_PEAK: 28
PK$PEAK: m/z int. rel.int.
  44.9797 10886 58
  58.0654 67465 357
  91.0538 42397.6 224
  115.0533 20849.4 110
  117.0686 60600.8 320
  123.0252 29062.9 154
  141.0685 9256.2 49
  147.025 41534.5 220
  165.0686 22698.7 120
  173.0403 11052.5 58
  178.0766 41702.7 221
  179.0837 14245.1 75
  191.0847 25356.3 134
  192.0911 23457.7 124
  202.0761 35657.1 189
  203.084 88712.6 469
  209.0402 30876.4 163
  210.0479 28234.2 149
  217.0997 61677.9 326
  218.1074 116980.9 619
  221.0403 62866 332
  222.0479 46901.9 248
  223.0557 129439.2 684
  225.072 64322.6 340
  235.056 15254.7 81
  236.0637 20850.7 110
  251.0875 44130.7 233
  296.1468 188924.8 999
//
