ACCESSION: MSBNK-HBM4EU-HB003510
RECORD_TITLE: Ochratoxin B; LC-ESI-ITFT; MS2; CE: 30%; R=7500; [M+H]+
DATE: 2021.10.11
AUTHORS: Laurent Debrauwer, Emilien L. Jamin, Research Centre in Food Toxicology (TOXALIM), INRAE, MetaboHUB-Metatoul platform, Toulouse, France
LICENSE: CC0
COPYRIGHT: Copyright (c) 2021 by Research Centre in Food Toxicology (TOXALIM), INRAE, MetaboHUB-Metatoul platform, Toulouse, France
COMMENT: HBM4EU - science and policy for a healthy future (https://www.hbm4eu.eu)
COMMENT: CONFIDENCE Reference Standard (Level 1)
COMMENT: INTERNAL_ID 2
CH$NAME: Ochratoxin B
CH$NAME: 2-[(8-Hydroxy-3-methyl-1-oxoisochroman-7-carbonyl)amino]-3-phenylpropionic acid
CH$NAME: 2-[(8-hydroxy-3-methyl-1-oxo-3,4-dihydroisochromene-7-carbonyl)amino]-3-phenylpropanoic acid
CH$COMPOUND_CLASS: N/A; Environmental Standard
CH$FORMULA: C20H19NO6
CH$EXACT_MASS: 369.1212
CH$SMILES: CC1CC2=C(C(=C(C=C2)C(=O)NC(CC3=CC=CC=C3)C(=O)O)O)C(=O)O1
CH$IUPAC: InChI=1S/C20H19NO6/c1-11-9-13-7-8-14(17(22)16(13)20(26)27-11)18(23)21-15(19(24)25)10-12-5-3-2-4-6-12/h2-8,11,15,22H,9-10H2,1H3,(H,21,23)(H,24,25)
CH$LINK: CAS 4825-86-9
CH$LINK: PUBCHEM CID:609663
CH$LINK: INCHIKEY DAEYIVCTQUFNTM-UHFFFAOYSA-N
CH$LINK: CHEMSPIDER 529965
AC$INSTRUMENT: LTQ Orbitrap XL Thermo Scientific
AC$INSTRUMENT_TYPE: LC-ESI-ITFT
AC$MASS_SPECTROMETRY: MS_TYPE MS2
AC$MASS_SPECTROMETRY: ION_MODE POSITIVE
AC$MASS_SPECTROMETRY: IONIZATION ESI
AC$MASS_SPECTROMETRY: FRAGMENTATION_MODE HCD
AC$MASS_SPECTROMETRY: COLLISION_ENERGY 30 % (nominal)
AC$MASS_SPECTROMETRY: RESOLUTION 7500
AC$CHROMATOGRAPHY: COLUMN_NAME Hypersil GOLD C18 1.9 um 100 x 2.1 mm Thermo Fisher Scientific
AC$CHROMATOGRAPHY: FLOW_GRADIENT 100/0 at 0 min, 0/100 at 30 min, 0/100 at 35 min
AC$CHROMATOGRAPHY: FLOW_RATE 300 uL/min
AC$CHROMATOGRAPHY: RETENTION_TIME 19.318 min
AC$CHROMATOGRAPHY: SOLVENT A water with 5% methanol and 0.1% acetic acid
AC$CHROMATOGRAPHY: SOLVENT B methanol with 0.1% acetic acid
MS$FOCUSED_ION: BASE_PEAK 370.1301
MS$FOCUSED_ION: PRECURSOR_M/Z 370.1285
MS$FOCUSED_ION: PRECURSOR_TYPE [M+H]+
MS$FOCUSED_ION: PRECURSOR_INTENSITY 39749495.42383
MS$DATA_PROCESSING: RECALIBRATE loess on assigned fragments and MS1
MS$DATA_PROCESSING: REANALYZE Peaks with additional N2/O included
MS$DATA_PROCESSING: WHOLE RMassBank 3.2.0
PK$SPLASH: splash10-0a4i-0390000000-d526d58f34f52ea7fab5
PK$ANNOTATION: m/z tentative_formula formula_count mass error(ppm)
  120.0808 C8H10N+ 1 120.0808 0.14
  187.0391 C11H7O3+ 1 187.039 0.71
  201.1268 C14H17O+ 1 201.1274 -3
  205.0496 C11H9O4+ 1 205.0495 0.5
  223.0604 C11H11O5+ 1 223.0601 1.45
  237.0761 C12H13O5+ 1 237.0757 1.31
  307.0965 C19H15O4+ 1 307.0965 -0.05
PK$NUM_PEAK: 7
PK$PEAK: m/z int. rel.int.
  120.0808 80228.1 11
  187.0391 3255220.2 468
  201.1268 10168.9 1
  205.0496 6948134.5 999
  223.0604 542631.9 78
  237.0761 38078.2 5
  307.0965 12548.6 1
//
