ACCESSION: MSBNK-HBM4EU-HB000654
RECORD_TITLE: Dosulepin; LC-ESI-ITFT; MS2; CE: 125%; R=15000; [M+H]+
DATE: 2018.09.08
AUTHORS: Tobias Schulze, Carolin Huber, Martin Krauss, Department of Effect-Directed Analysis, Helmholtz Centre for Environmental Research GmbH - UFZ, Leipzig, Germany
LICENSE: CC0
COPYRIGHT: Copyright (C) 2018
PUBLICATION: Oberacher H, Sasse M, Antignac J-P, Guitton Y, Debrauwer L, Jamin E L, Schulze T, Krauss M, Covaci A, Caballero-Casero N, Rosseau K, Damont A, Fenaille F, Lamoree M, Schymanski E, A European proposal for quality control and quality assurance of tandem mass spectral libraries, Environmental Sciences Europe, https://doi.org/10.1186/s12302-020-00314-9
COMMENT: CONFIDENCE Reference Standard (Level 1)
COMMENT: HBM4EU - science and policy for a healthy future (https://www.hbm4eu.eu)
CH$NAME: Dosulepin
CH$NAME: Dothiepin
CH$NAME: 3-(6H-benzo[c][1]benzothiepin-11-ylidene)-N,N-dimethylpropan-1-amine
CH$COMPOUND_CLASS: N/A; Environmental Standard
CH$FORMULA: C19H21NS
CH$EXACT_MASS: 295.1395
CH$SMILES: CN(C)CCC=C1C2=CC=CC=C2CSC3=CC=CC=C31
CH$IUPAC: InChI=1S/C19H21NS/c1-20(2)13-7-11-17-16-9-4-3-8-15(16)14-21-19-12-6-5-10-18(17)19/h3-6,8-12H,7,13-14H2,1-2H3
CH$LINK: CAS 113-53-1
CH$LINK: PUBCHEM CID:3155
CH$LINK: INCHIKEY PHTUQLWOUWZIMZ-UHFFFAOYSA-N
CH$LINK: CHEMSPIDER 3043
AC$INSTRUMENT: LTQ Orbitrap XL Thermo Scientific
AC$INSTRUMENT_TYPE: LC-ESI-ITFT
AC$MASS_SPECTROMETRY: MS_TYPE MS2
AC$MASS_SPECTROMETRY: ION_MODE POSITIVE
AC$MASS_SPECTROMETRY: IONIZATION ESI
AC$MASS_SPECTROMETRY: FRAGMENTATION_MODE CID
AC$MASS_SPECTROMETRY: COLLISION_ENERGY 125% (nominal)
AC$MASS_SPECTROMETRY: RESOLUTION 15000
AC$CHROMATOGRAPHY: COLUMN_NAME Kinetex Evo C18 2.6 um 50 x 2.1 mm
AC$CHROMATOGRAPHY: FLOW_GRADIENT 95/5 at 0 min, 95/5 at 1 min, 0/100 at 13 min, 0/100 at 24 min, 95/5 at 24.3 min, 95/5 at 32 min
AC$CHROMATOGRAPHY: FLOW_RATE 300 uL/min
AC$CHROMATOGRAPHY: RETENTION_TIME 8.166 min
AC$CHROMATOGRAPHY: SOLVENT A water with 0.1% formic acid
AC$CHROMATOGRAPHY: SOLVENT B methanol with 0.1% formic acid
MS$FOCUSED_ION: BASE_PEAK 296.1468
MS$FOCUSED_ION: PRECURSOR_M/Z 296.1467
MS$FOCUSED_ION: PRECURSOR_TYPE [M+H]+
MS$DATA_PROCESSING: RECALIBRATE loess on assigned fragments and MS1
MS$DATA_PROCESSING: REANALYZE Peaks with additional N2/O included
MS$DATA_PROCESSING: WHOLE RMassBank 2.9.1
PK$SPLASH: splash10-004i-0190000000-2bc445ce8ccf8ca6968b
PK$ANNOTATION: m/z tentative_formula formula_count mass error(ppm)
  91.0542 C7H7+ 1 91.0542 0
  117.0698 C9H9+ 1 117.0699 -0.81
  123.0263 C7H7S+ 1 123.0263 0.31
  141.0698 C11H9+ 1 141.0699 -0.59
  142.0777 C11H10+ 1 142.0777 -0.16
  147.0263 C9H7S+ 1 147.0263 0.02
  173.0419 C11H9S+ 1 173.0419 -0.05
  191.0855 C15H11+ 1 191.0855 -0.38
  192.093 C15H12+ 1 192.0934 -1.96
  205.1013 C16H13+ 1 205.1012 0.42
  209.042 C14H9S+ 1 209.0419 0.1
  217.1014 C17H13+ 1 217.1012 0.82
  218.109 C17H14+ 1 218.109 -0.01
  221.042 C15H9S+ 1 221.0419 0.16
  222.0499 C15H10S+ 1 222.0498 0.58
  223.0577 C15H11S+ 1 223.0576 0.32
  225.0732 C15H13S+ 1 225.0732 -0.13
  236.0653 C16H12S+ 1 236.0654 -0.32
  251.089 C17H15S+ 1 251.0889 0.31
  253.1047 C17H17S+ 1 253.1045 0.46
  265.1047 C18H17S+ 1 265.1045 0.62
PK$NUM_PEAK: 21
PK$PEAK: m/z int. rel.int.
  91.0542 176912.4 18
  117.0698 147967 15
  123.0263 102796.6 10
  141.0698 56733 5
  142.0777 63026.9 6
  147.0263 2159705.2 226
  173.0419 181246.9 19
  191.0855 312602.2 32
  192.093 33008.3 3
  205.1013 31863.2 3
  209.042 664040.7 69
  217.1014 384211.9 40
  218.109 1248617.5 130
  221.042 31592 3
  222.0499 386938.2 40
  223.0577 2944895.2 308
  225.0732 9529494 999
  236.0653 331864.4 34
  251.089 4503799 472
  253.1047 395216.4 41
  265.1047 53222.3 5
//
