ACCESSION: MSBNK-HBM4EU-HB000551
RECORD_TITLE: Desipramine; LC-ESI-ITFT; MS2; CE: 160%; R=15000; [M+H]+
DATE: 2018.09.08
AUTHORS: Tobias Schulze, Carolin Huber, Martin Krauss, Department of Effect-Directed Analysis, Helmholtz Centre for Environmental Research GmbH - UFZ, Leipzig, Germany
LICENSE: CC0
COPYRIGHT: Copyright (C) 2018
PUBLICATION: Oberacher H, Sasse M, Antignac J-P, Guitton Y, Debrauwer L, Jamin E L, Schulze T, Krauss M, Covaci A, Caballero-Casero N, Rosseau K, Damont A, Fenaille F, Lamoree M, Schymanski E, A European proposal for quality control and quality assurance of tandem mass spectral libraries, Environmental Sciences Europe, https://doi.org/10.1186/s12302-020-00314-9
COMMENT: CONFIDENCE Reference Standard (Level 1)
COMMENT: HBM4EU - science and policy for a healthy future (https://www.hbm4eu.eu)
CH$NAME: Desipramine
CH$NAME: 3-(5,6-dihydrobenzo[b][1]benzazepin-11-yl)-N-methylpropan-1-amine
CH$COMPOUND_CLASS: N/A; Environmental Standard
CH$FORMULA: C18H22N2
CH$EXACT_MASS: 266.1783
CH$SMILES: CNCCCN1C2=CC=CC=C2CCC3=CC=CC=C31
CH$IUPAC: InChI=1S/C18H22N2/c1-19-13-6-14-20-17-9-4-2-7-15(17)11-12-16-8-3-5-10-18(16)20/h2-5,7-10,19H,6,11-14H2,1H3
CH$LINK: CAS 58-28-6
CH$LINK: CHEBI CHEBI:47781
CH$LINK: KEGG D07791
CH$LINK: PUBCHEM CID:2995
CH$LINK: INCHIKEY HCYAFALTSJYZDH-UHFFFAOYSA-N
CH$LINK: CHEMSPIDER 2888
AC$INSTRUMENT: LTQ Orbitrap XL Thermo Scientific
AC$INSTRUMENT_TYPE: LC-ESI-ITFT
AC$MASS_SPECTROMETRY: MS_TYPE MS2
AC$MASS_SPECTROMETRY: ION_MODE POSITIVE
AC$MASS_SPECTROMETRY: IONIZATION ESI
AC$MASS_SPECTROMETRY: FRAGMENTATION_MODE HCD
AC$MASS_SPECTROMETRY: COLLISION_ENERGY 160% (nominal)
AC$MASS_SPECTROMETRY: RESOLUTION 15000
AC$CHROMATOGRAPHY: COLUMN_NAME Kinetex Evo C18 2.6 um 50 x 2.1 mm
AC$CHROMATOGRAPHY: FLOW_GRADIENT 95/5 at 0 min, 95/5 at 1 min, 0/100 at 13 min, 0/100 at 24 min, 95/5 at 24.3 min, 95/5 at 32 min
AC$CHROMATOGRAPHY: FLOW_RATE 300 uL/min
AC$CHROMATOGRAPHY: RETENTION_TIME 8.452 min
AC$CHROMATOGRAPHY: SOLVENT A water with 0.1% formic acid
AC$CHROMATOGRAPHY: SOLVENT B methanol with 0.1% formic acid
MS$FOCUSED_ION: BASE_PEAK 267.1855
MS$FOCUSED_ION: PRECURSOR_M/Z 267.1856
MS$FOCUSED_ION: PRECURSOR_TYPE [M+H]+
MS$DATA_PROCESSING: RECALIBRATE loess on assigned fragments and MS1
MS$DATA_PROCESSING: REANALYZE Peaks with additional N2/O included
MS$DATA_PROCESSING: WHOLE RMassBank 2.9.1
PK$SPLASH: splash10-00kf-1900000000-e28588a006496c259eff
PK$ANNOTATION: m/z tentative_formula formula_count mass error(ppm)
  65.0384 C5H5+ 1 65.0386 -3.01
  72.0806 C4H10N+ 1 72.0808 -2.17
  77.0384 C6H5+ 1 77.0386 -1.75
  89.0385 C7H5+ 1 89.0386 -0.44
  90.0463 C7H6+ 1 90.0464 -1.28
  91.0542 C7H7+ 1 91.0542 -0.34
  105.0446 C6H5N2+ 1 105.0447 -1.02
  115.0542 C9H7+ 1 115.0542 -0.2
  116.0495 C8H6N+ 1 116.0495 -0.09
  117.0571 C8H7N+ 1 117.0573 -1.83
  128.0494 C9H6N+ 1 128.0495 -0.63
  139.0542 C11H7+ 1 139.0542 -0.49
  140.0493 C10H6N+ 1 140.0495 -1.45
  140.0619 C11H8+ 1 140.0621 -0.81
  152.062 C12H8+ 1 152.0621 -0.61
  164.062 C13H8+ 1 164.0621 -0.31
  165.0698 C13H9+ 1 165.0699 -0.39
  166.0651 C12H8N+ 1 166.0651 0
  167.0729 C12H9N+ 1 167.073 -0.45
  177.057 C13H7N+ 1 177.0573 -1.8
  177.0696 C14H9+ 1 177.0699 -1.64
  178.0653 C13H8N+ 1 178.0651 1.05
  178.0775 C14H10+ 1 178.0777 -1.28
  179.073 C13H9N+ 1 179.073 0.03
  180.0809 C13H10N+ 1 180.0808 0.64
  190.0649 C14H8N+ 1 190.0651 -1.1
  191.0729 C14H9N+ 1 191.073 -0.45
  192.0807 C14H10N+ 1 192.0808 -0.51
  193.0886 C14H11N+ 1 193.0886 -0.03
  194.0963 C14H12N+ 1 194.0964 -0.41
  204.0806 C15H10N+ 1 204.0808 -0.7
PK$NUM_PEAK: 31
PK$PEAK: m/z int. rel.int.
  65.0384 108691.8 95
  72.0806 392829.6 344
  77.0384 57225.4 50
  89.0385 260343.2 228
  90.0463 144794.6 127
  91.0542 303652 266
  105.0446 102220.4 89
  115.0542 124139.4 109
  116.0495 41761.9 36
  117.0571 72417.4 63
  128.0494 93420 82
  139.0542 116554.6 102
  140.0493 33723.5 29
  140.0619 46150.3 40
  152.062 276342.4 242
  164.062 115255.3 101
  165.0698 1074327 943
  166.0651 270408.8 237
  167.0729 430076.9 377
  177.057 78517.7 68
  177.0696 61621.8 54
  178.0653 135176.2 118
  178.0775 147372.5 129
  179.073 244575.4 214
  180.0809 209894.8 184
  190.0649 186750.5 163
  191.0729 1137649.4 999
  192.0807 1049930.8 921
  193.0886 413308 362
  194.0963 99900.7 87
  204.0806 102688.2 90
//
