ACCESSION: MSBNK-HBM4EU-HB001714
RECORD_TITLE: Sulfamoxole; LC-ESI-ITFT; MS2; CE: 45%; R=15000; [M+H]+
DATE: 2018.09.08
AUTHORS: Tobias Schulze, Carolin Huber, Martin Krauss, Department of Effect-Directed Analysis, Helmholtz Centre for Environmental Research GmbH - UFZ, Leipzig, Germany
LICENSE: CC0
COPYRIGHT: Copyright (C) 2018
PUBLICATION: Oberacher H, Sasse M, Antignac J-P, Guitton Y, Debrauwer L, Jamin E L, Schulze T, Krauss M, Covaci A, Caballero-Casero N, Rosseau K, Damont A, Fenaille F, Lamoree M, Schymanski E, A European proposal for quality control and quality assurance of tandem mass spectral libraries, Environmental Sciences Europe, https://doi.org/10.1186/s12302-020-00314-9
COMMENT: CONFIDENCE Reference Standard (Level 1)
COMMENT: HBM4EU - science and policy for a healthy future (https://www.hbm4eu.eu)
CH$NAME: Sulfamoxole
CH$NAME: 4-amino-N-(4,5-dimethyl-1,3-oxazol-2-yl)benzenesulfonamide
CH$COMPOUND_CLASS: N/A; Environmental Standard
CH$FORMULA: C11H13N3O3S
CH$EXACT_MASS: 267.0678
CH$SMILES: CC1=C(OC(=N1)NS(=O)(=O)C2=CC=C(C=C2)N)C
CH$IUPAC: InChI=1S/C11H13N3O3S/c1-7-8(2)17-11(13-7)14-18(15,16)10-5-3-9(12)4-6-10/h3-6H,12H2,1-2H3,(H,13,14)
CH$LINK: CAS 729-99-7
CH$LINK: CHEBI CHEBI:55548
CH$LINK: KEGG D02516
CH$LINK: PUBCHEM CID:12894
CH$LINK: INCHIKEY CYFLXLSBHQBMFT-UHFFFAOYSA-N
CH$LINK: CHEMSPIDER 12361
AC$INSTRUMENT: LTQ Orbitrap XL Thermo Scientific
AC$INSTRUMENT_TYPE: LC-ESI-ITFT
AC$MASS_SPECTROMETRY: MS_TYPE MS2
AC$MASS_SPECTROMETRY: ION_MODE POSITIVE
AC$MASS_SPECTROMETRY: IONIZATION ESI
AC$MASS_SPECTROMETRY: FRAGMENTATION_MODE CID
AC$MASS_SPECTROMETRY: COLLISION_ENERGY 45% (nominal)
AC$MASS_SPECTROMETRY: RESOLUTION 15000
AC$CHROMATOGRAPHY: COLUMN_NAME Kinetex Evo C18 2.6 um 50 x 2.1 mm
AC$CHROMATOGRAPHY: FLOW_GRADIENT 95/5 at 0 min, 95/5 at 1 min, 0/100 at 13 min, 0/100 at 24 min, 95/5 at 24.3 min, 95/5 at 32 min
AC$CHROMATOGRAPHY: FLOW_RATE 300 uL/min
AC$CHROMATOGRAPHY: RETENTION_TIME 4.506 min
AC$CHROMATOGRAPHY: SOLVENT A water with 0.1% formic acid
AC$CHROMATOGRAPHY: SOLVENT B methanol with 0.1% formic acid
MS$FOCUSED_ION: BASE_PEAK 268.0749
MS$FOCUSED_ION: PRECURSOR_M/Z 268.075
MS$FOCUSED_ION: PRECURSOR_TYPE [M+H]+
MS$DATA_PROCESSING: RECALIBRATE loess on assigned fragments and MS1
MS$DATA_PROCESSING: REANALYZE Peaks with additional N2/O included
MS$DATA_PROCESSING: WHOLE RMassBank 2.9.1
PK$SPLASH: splash10-0a4i-0900000000-789ce3b1d8bececb53fa
PK$ANNOTATION: m/z tentative_formula formula_count mass error(ppm)
  65.0384 C5H5+ 1 65.0386 -2.03
  80.0494 C5H6N+ 1 80.0495 -0.48
  92.0496 C6H6N+ 1 92.0495 1.13
  94.0652 C6H8N+ 1 94.0651 0.62
  108.0445 C6H6NO+ 1 108.0444 1.07
  111.0554 C5H7N2O+ 1 111.0553 1.18
  112.0632 C5H8N2O+ 1 112.0631 0.85
  113.071 C5H9N2O+ 1 113.0709 0.92
  129.0659 C5H9N2O2+ 1 129.0659 0.5
  140.0166 C6H6NOS+ 1 140.0165 0.98
  156.0115 C6H6NO2S+ 1 156.0114 0.95
  158.027 C6H8NO2S+ 1 158.027 -0.3
  161.1074 C10H13N2+ 1 161.1073 0.2
  162.0912 C10H12NO+ 1 162.0913 -1.07
  175.0174 C5H7N2O3S+ 1 175.0172 1.27
  204.1133 C11H14N3O+ 1 204.1131 0.7
  250.0645 C11H12N3O2S+ 1 250.0645 -0.06
  268.0754 C11H14N3O3S+ 1 268.075 1.39
PK$NUM_PEAK: 18
PK$PEAK: m/z int. rel.int.
  65.0384 5827.2 4
  80.0494 2396.1 1
  92.0496 115469.3 89
  94.0652 2761.4 2
  108.0445 271154.9 209
  111.0554 55355.4 42
  112.0632 16504.2 12
  113.071 182329.7 140
  129.0659 2825.5 2
  140.0166 615723 475
  156.0115 1292565.8 999
  158.027 17279.2 13
  161.1074 16863 13
  162.0912 3878.4 2
  175.0174 20047.8 15
  204.1133 9037.1 6
  250.0645 1415.2 1
  268.0754 18887.9 14
//
