ACCESSION: MSBNK-HBM4EU-HB001110
RECORD_TITLE: Mefruside; LC-ESI-ITFT; MS2; CE: 35%; R=15000; [M+H]+
DATE: 2018.09.08
AUTHORS: Tobias Schulze, Carolin Huber, Martin Krauss, Department of Effect-Directed Analysis, Helmholtz Centre for Environmental Research GmbH - UFZ, Leipzig, Germany
LICENSE: CC0
COPYRIGHT: Copyright (C) 2018
PUBLICATION: Oberacher H, Sasse M, Antignac J-P, Guitton Y, Debrauwer L, Jamin E L, Schulze T, Krauss M, Covaci A, Caballero-Casero N, Rosseau K, Damont A, Fenaille F, Lamoree M, Schymanski E, A European proposal for quality control and quality assurance of tandem mass spectral libraries, Environmental Sciences Europe, https://doi.org/10.1186/s12302-020-00314-9
COMMENT: CONFIDENCE Reference Standard (Level 1)
COMMENT: HBM4EU - science and policy for a healthy future (https://www.hbm4eu.eu)
CH$NAME: Mefruside
CH$NAME: 4-chloro-1-N-methyl-1-N-[(2-methyloxolan-2-yl)methyl]benzene-1,3-disulfonamide
CH$COMPOUND_CLASS: N/A; Environmental Standard
CH$FORMULA: C13H19ClN2O5S2
CH$EXACT_MASS: 382.0424
CH$SMILES: CC1(CCCO1)CN(C)S(=O)(=O)C2=CC(=C(C=C2)Cl)S(=O)(=O)N
CH$IUPAC: InChI=1S/C13H19ClN2O5S2/c1-13(6-3-7-21-13)9-16(2)23(19,20)10-4-5-11(14)12(8-10)22(15,17)18/h4-5,8H,3,6-7,9H2,1-2H3,(H2,15,17,18)
CH$LINK: CAS 7195-27-9
CH$LINK: CHEBI CHEBI:31809
CH$LINK: KEGG D01877
CH$LINK: PUBCHEM CID:4047
CH$LINK: INCHIKEY SMNOERSLNYGGOU-UHFFFAOYSA-N
CH$LINK: CHEMSPIDER 3907
AC$INSTRUMENT: LTQ Orbitrap XL Thermo Scientific
AC$INSTRUMENT_TYPE: LC-ESI-ITFT
AC$MASS_SPECTROMETRY: MS_TYPE MS2
AC$MASS_SPECTROMETRY: ION_MODE POSITIVE
AC$MASS_SPECTROMETRY: IONIZATION ESI
AC$MASS_SPECTROMETRY: FRAGMENTATION_MODE HCD
AC$MASS_SPECTROMETRY: COLLISION_ENERGY 35% (nominal)
AC$MASS_SPECTROMETRY: RESOLUTION 15000
AC$CHROMATOGRAPHY: COLUMN_NAME Kinetex Evo C18 2.6 um 50 x 2.1 mm
AC$CHROMATOGRAPHY: FLOW_GRADIENT 95/5 at 0 min, 95/5 at 1 min, 0/100 at 13 min, 0/100 at 24 min, 95/5 at 24.3 min, 95/5 at 32 min
AC$CHROMATOGRAPHY: FLOW_RATE 300 uL/min
AC$CHROMATOGRAPHY: RETENTION_TIME 9.032 min
AC$CHROMATOGRAPHY: SOLVENT A water with 0.1% formic acid
AC$CHROMATOGRAPHY: SOLVENT B methanol with 0.1% formic acid
MS$FOCUSED_ION: BASE_PEAK 428.2364
MS$FOCUSED_ION: PRECURSOR_M/Z 383.0497
MS$FOCUSED_ION: PRECURSOR_TYPE [M+H]+
MS$DATA_PROCESSING: RECALIBRATE loess on assigned fragments and MS1
MS$DATA_PROCESSING: REANALYZE Peaks with additional N2/O included
MS$DATA_PROCESSING: WHOLE RMassBank 2.9.1
PK$SPLASH: splash10-003r-9420000000-80f4450dca30e90fbb43
PK$ANNOTATION: m/z tentative_formula formula_count mass error(ppm)
  57.0333 C3H5O+ 1 57.0335 -2.54
  69.0697 C5H9+ 1 69.0699 -2.14
  71.0854 C5H11+ 1 71.0855 -2.01
  79.0543 C6H7+ 1 79.0542 0.74
  81.0698 C6H9+ 1 81.0699 -0.69
  84.0807 C5H10N+ 1 84.0808 -0.45
  86.0601 C4H8NO+ 2 86.06 0.7
  97.0648 C6H9O+ 1 97.0648 -0.15
  99.0804 C6H11O+ 1 99.0804 -0.65
  128.107 C7H14NO+ 2 128.107 -0.06
  129.1148 C7H15NO+ 2 129.1148 -0.41
  253.9342 C6H5ClNO4S2+ 2 253.9343 -0.56
  267.9496 C10H4O5S2+ 3 267.9495 0.39
  284.9766 C7H10ClN2O4S2+ 2 284.9765 0.24
  296.9758 C11H7NO5S2+ 2 296.976 -0.8
PK$NUM_PEAK: 15
PK$PEAK: m/z int. rel.int.
  57.0333 2421.9 47
  69.0697 2033.1 39
  71.0854 1298.2 25
  79.0543 1472.8 28
  81.0698 51315.9 999
  84.0807 13700.9 266
  86.0601 3806 74
  97.0648 1951.8 37
  99.0804 27894.8 543
  128.107 8246.2 160
  129.1148 45247.6 880
  253.9342 7449.2 145
  267.9496 2549.2 49
  284.9766 12093.6 235
  296.9758 2863.7 55
//
