ACCESSION: MSBNK-HBM4EU-HB003519
RECORD_TITLE: Diacetoxyscirpenol; LC-ESI-ITFT; MS2; CE: 20%; R=7500; [M+H]+
DATE: 2021.10.11
AUTHORS: Laurent Debrauwer, Emilien L. Jamin, Research Centre in Food Toxicology (TOXALIM), INRAE, MetaboHUB-Metatoul platform, Toulouse, France
LICENSE: CC0
COPYRIGHT: Copyright (c) 2021 by Research Centre in Food Toxicology (TOXALIM), INRAE, MetaboHUB-Metatoul platform, Toulouse, France
COMMENT: HBM4EU - science and policy for a healthy future (https://www.hbm4eu.eu)
COMMENT: CONFIDENCE Reference Standard (Level 1)
COMMENT: INTERNAL_ID 8
CH$NAME: Diacetoxyscirpenol
CH$NAME: Anguidine
CH$NAME: (11-acetyloxy-10-hydroxy-1,5-dimethylspiro[8-oxatricyclo[7.2.1.02,7]dodec-5-ene-12,2`-oxirane]-2-yl)methyl acetate
CH$COMPOUND_CLASS: N/A; Environmental Standard
CH$FORMULA: C19H26O7
CH$EXACT_MASS: 366.1679
CH$SMILES: CC1=CC2C(CC1)(C3(C(C(C(C34CO4)O2)O)OC(=O)C)C)COC(=O)C
CH$IUPAC: InChI=1S/C19H26O7/c1-10-5-6-18(8-23-11(2)20)13(7-10)26-16-14(22)15(25-12(3)21)17(18,4)19(16)9-24-19/h7,13-16,22H,5-6,8-9H2,1-4H3
CH$LINK: CAS 2270-40-8
CH$LINK: PUBCHEM CID:422111
CH$LINK: INCHIKEY AUGQEEXBDZWUJY-UHFFFAOYSA-N
CH$LINK: CHEMSPIDER 373646
AC$INSTRUMENT: LTQ Orbitrap XL Thermo Scientific
AC$INSTRUMENT_TYPE: LC-ESI-ITFT
AC$MASS_SPECTROMETRY: MS_TYPE MS2
AC$MASS_SPECTROMETRY: ION_MODE POSITIVE
AC$MASS_SPECTROMETRY: IONIZATION ESI
AC$MASS_SPECTROMETRY: FRAGMENTATION_MODE HCD
AC$MASS_SPECTROMETRY: COLLISION_ENERGY 20 % (nominal)
AC$MASS_SPECTROMETRY: RESOLUTION 7500
AC$CHROMATOGRAPHY: COLUMN_NAME Hypersil GOLD C18 1.9 um 100 x 2.1 mm Thermo Fisher Scientific
AC$CHROMATOGRAPHY: FLOW_GRADIENT 100/0 at 0 min, 0/100 at 30 min, 0/100 at 35 min
AC$CHROMATOGRAPHY: FLOW_RATE 300 uL/min
AC$CHROMATOGRAPHY: RETENTION_TIME 15.433 min
AC$CHROMATOGRAPHY: SOLVENT A water with 5% methanol and 0.1% acetic acid
AC$CHROMATOGRAPHY: SOLVENT B methanol with 0.1% acetic acid
MS$FOCUSED_ION: BASE_PEAK 367.1767
MS$FOCUSED_ION: PRECURSOR_M/Z 367.1751
MS$FOCUSED_ION: PRECURSOR_TYPE [M+H]+
MS$FOCUSED_ION: PRECURSOR_INTENSITY 1873263.75
MS$DATA_PROCESSING: RECALIBRATE loess on assigned fragments and MS1
MS$DATA_PROCESSING: REANALYZE Peaks with additional N2/O included
MS$DATA_PROCESSING: WHOLE RMassBank 3.2.0
PK$SPLASH: splash10-014i-0059000000-45ac8f997fb02dd225fb
PK$ANNOTATION: m/z tentative_formula formula_count mass error(ppm)
  201.1491 C11H21O3+ 1 201.1485 2.78
  229.1218 C15H17O2+ 1 229.1223 -2.29
  247.1336 C15H19O3+ 1 247.1329 2.9
  367.1766 C19H27O7+ 1 367.1751 3.87
PK$NUM_PEAK: 4
PK$PEAK: m/z int. rel.int.
  201.1491 2901.7 162
  229.1218 3915.3 219
  247.1336 4606.3 257
  367.1766 17847.6 999
//
