ACCESSION: MSBNK-HBM4EU-HB001829
RECORD_TITLE: Sulthiame; LC-ESI-ITFT; MS2; CE: 70%; R=15000; [M+H]+
DATE: 2018.09.08
AUTHORS: Tobias Schulze, Carolin Huber, Martin Krauss, Department of Effect-Directed Analysis, Helmholtz Centre for Environmental Research GmbH - UFZ, Leipzig, Germany
LICENSE: CC0
COPYRIGHT: Copyright (C) 2018
PUBLICATION: Oberacher H, Sasse M, Antignac J-P, Guitton Y, Debrauwer L, Jamin E L, Schulze T, Krauss M, Covaci A, Caballero-Casero N, Rosseau K, Damont A, Fenaille F, Lamoree M, Schymanski E, A European proposal for quality control and quality assurance of tandem mass spectral libraries, Environmental Sciences Europe, https://doi.org/10.1186/s12302-020-00314-9
COMMENT: CONFIDENCE Reference Standard (Level 1)
COMMENT: HBM4EU - science and policy for a healthy future (https://www.hbm4eu.eu)
CH$NAME: Sulthiame
CH$NAME: 4-(1,1-dioxothiazinan-2-yl)benzenesulfonamide
CH$COMPOUND_CLASS: N/A; Environmental Standard
CH$FORMULA: C10H14N2O4S2
CH$EXACT_MASS: 290.0395
CH$SMILES: C1CCS(=O)(=O)N(C1)C2=CC=C(C=C2)S(=O)(=O)N
CH$IUPAC: InChI=1S/C10H14N2O4S2/c11-18(15,16)10-5-3-9(4-6-10)12-7-1-2-8-17(12,13)14/h3-6H,1-2,7-8H2,(H2,11,15,16)
CH$LINK: CAS 61-56-3
CH$LINK: CHEBI CHEBI:32171
CH$LINK: KEGG D01787
CH$LINK: PUBCHEM CID:5356
CH$LINK: INCHIKEY HMHVCUVYZFYAJI-UHFFFAOYSA-N
CH$LINK: CHEMSPIDER 5163
AC$INSTRUMENT: LTQ Orbitrap XL Thermo Scientific
AC$INSTRUMENT_TYPE: LC-ESI-ITFT
AC$MASS_SPECTROMETRY: MS_TYPE MS2
AC$MASS_SPECTROMETRY: ION_MODE POSITIVE
AC$MASS_SPECTROMETRY: IONIZATION ESI
AC$MASS_SPECTROMETRY: FRAGMENTATION_MODE CID
AC$MASS_SPECTROMETRY: COLLISION_ENERGY 70% (nominal)
AC$MASS_SPECTROMETRY: RESOLUTION 15000
AC$CHROMATOGRAPHY: COLUMN_NAME Kinetex Evo C18 2.6 um 50 x 2.1 mm
AC$CHROMATOGRAPHY: FLOW_GRADIENT 95/5 at 0 min, 95/5 at 1 min, 0/100 at 13 min, 0/100 at 24 min, 95/5 at 24.3 min, 95/5 at 32 min
AC$CHROMATOGRAPHY: FLOW_RATE 300 uL/min
AC$CHROMATOGRAPHY: RETENTION_TIME 4.421 min
AC$CHROMATOGRAPHY: SOLVENT A water with 0.1% formic acid
AC$CHROMATOGRAPHY: SOLVENT B methanol with 0.1% formic acid
MS$FOCUSED_ION: BASE_PEAK 313.0287
MS$FOCUSED_ION: PRECURSOR_M/Z 291.0468
MS$FOCUSED_ION: PRECURSOR_TYPE [M+H]+
MS$DATA_PROCESSING: RECALIBRATE loess on assigned fragments and MS1
MS$DATA_PROCESSING: REANALYZE Peaks with additional N2/O included
MS$DATA_PROCESSING: WHOLE RMassBank 2.9.1
PK$SPLASH: splash10-004r-0690000000-16b10de34efe59bedabd
PK$ANNOTATION: m/z tentative_formula formula_count mass error(ppm)
  132.0809 C9H10N+ 1 132.0808 0.83
  147.1043 C10H13N+ 1 147.1043 0.47
  156.0115 C6H6NO2S+ 1 156.0114 0.89
  173.0385 C6H9N2O2S+ 1 173.0379 3.34
  185.038 C7H9N2O2S+ 1 185.0379 0.47
  210.0585 C10H12NO2S+ 1 210.0583 0.68
  212.0378 C9H10NO3S+ 1 212.0376 1.01
  226.054 C10H12NO3S+ 1 226.0532 3.53
  227.0849 C10H15N2O2S+ 1 227.0849 0
  274.0203 C10H12NO4S2+ 1 274.0202 0.15
PK$NUM_PEAK: 10
PK$PEAK: m/z int. rel.int.
  132.0809 1228.3 1
  147.1043 22503.8 31
  156.0115 12337.3 17
  173.0385 1935.9 2
  185.038 486551.3 676
  210.0585 1887.8 2
  212.0378 3687.2 5
  226.054 1415.8 1
  227.0849 718976.7 999
  274.0203 43927.1 61
//
