ACCESSION: MSBNK-HBM4EU-HB001968
RECORD_TITLE: Cyclizine; LC-ESI-QFT; MS2; CE: 80%; R=30000; [M+H]+
DATE: 2020.02.20
AUTHORS: Annelaure Damont, Kathleen Rousseau, Laboratoire d Etude du Metabolisme des Medicaments, CEA, Universite Paris Saclay, Paris, France
LICENSE: CC0
COPYRIGHT: Copyright (c) 2020 by Laboratoire d Etude du Metabolisme des Medicaments, CEA, Universite Paris Saclay, Paris, France
PUBLICATION: Oberacher H, Sasse M, Antignac J-P, Guitton Y, Debrauwer L, Jamin E L, Schulze T, Krauss M, Covaci A, Caballero-Casero N, Rosseau K, Damont A, Fenaille F, Lamoree M, Schymanski E, A European proposal for quality control and quality assurance of tandem mass spectral libraries, Environmental Sciences Europe, https://doi.org/10.1186/s12302-020-00314-9
COMMENT: CONFIDENCE Reference Standard (Level 1)
COMMENT: HBM4EU - science and policy for a healthy future (https://www.hbm4eu.eu)
COMMENT: Flow Injection
CH$NAME: Cyclizine
CH$NAME: 1-(Diphenylmethyl)-4-methylpiperazine
CH$COMPOUND_CLASS: N/A; Environmental Standard
CH$FORMULA: C18H22N2
CH$EXACT_MASS: 266.1783
CH$SMILES: CN1CCN(CC1)C(C1=CC=CC=C1)C1=CC=CC=C1
CH$IUPAC: InChI=1S/C18H22N2/c1-19-12-14-20(15-13-19)18(16-8-4-2-5-9-16)17-10-6-3-7-11-17/h2-11,18H,12-15H2,1H3
CH$LINK: CAS 82-92-8
CH$LINK: COMPTOX DTXSID4022864
CH$LINK: INCHIKEY UVKZSORBKUEBAZ-UHFFFAOYSA-N
CH$LINK: PUBCHEM CID:6726
AC$INSTRUMENT: Orbitrap Fusion Tribrid Thermo Fisher Scientific
AC$INSTRUMENT_TYPE: LC-ESI-QFT
AC$MASS_SPECTROMETRY: MS_TYPE MS2
AC$MASS_SPECTROMETRY: ION_MODE POSITIVE
AC$MASS_SPECTROMETRY: IONIZATION ESI
AC$MASS_SPECTROMETRY: FRAGMENTATION_MODE HCD
AC$MASS_SPECTROMETRY: COLLISION_ENERGY 80% (nominal)
AC$MASS_SPECTROMETRY: RESOLUTION 30000
AC$CHROMATOGRAPHY: FLOW_GRADIENT 95/5
AC$CHROMATOGRAPHY: FLOW_RATE 100 uL/min
AC$CHROMATOGRAPHY: SOLVENT A water with 0.1% formic acid
AC$CHROMATOGRAPHY: SOLVENT B acetonitrile with 0.1% formic acid
MS$FOCUSED_ION: PRECURSOR_M/Z 267.1856
MS$FOCUSED_ION: PRECURSOR_TYPE [M+H]+
PK$SPLASH: splash10-0gb9-0900000000-9b7722ff0880ab6ea3f6
PK$NUM_PEAK: 11
PK$PEAK: m/z int. rel.int.
  115.0544 3915317.3 42
  128.0623 7733904.8 83
  141.0701 6700091.8 72
  151.0545 3675644.1 39
  152.0622 81834276.8 874
  164.0624 1755826.1 19
  165.07 93549264 999
  166.0777 16119380.1 172
  167.0855 6204093.6 66
  169.0649 1805781.4 19
  179.0605 1662183.3 18
//
