ACCESSION: MSBNK-HBM4EU-HB003561
RECORD_TITLE: Beauvericin; LC-ESI-ITFT; MS2; CE: 15%; R=7500; [M+H]+
DATE: 2021.10.11
AUTHORS: Laurent Debrauwer, Emilien L. Jamin, Research Centre in Food Toxicology (TOXALIM), INRAE, MetaboHUB-Metatoul platform, Toulouse, France
LICENSE: CC0
COPYRIGHT: Copyright (c) 2021 by Research Centre in Food Toxicology (TOXALIM), INRAE, MetaboHUB-Metatoul platform, Toulouse, France
COMMENT: HBM4EU - science and policy for a healthy future (https://www.hbm4eu.eu)
COMMENT: CONFIDENCE Reference Standard (Level 1)
COMMENT: INTERNAL_ID 27
CH$NAME: Beauvericin
CH$NAME: Cyclo[DL-OVal-DL-N(Me)Phe-DL-OVal-DL-N(Me)Phe-DL-OVal-DL-N(Me)Phe]
CH$NAME: 3,9,15-tribenzyl-4,10,16-trimethyl-6,12,18-tri(propan-2-yl)-1,7,13-trioxa-4,10,16-triazacyclooctadecane-2,5,8,11,14,17-hexone
CH$COMPOUND_CLASS: N/A; Environmental Standard
CH$FORMULA: C45H57N3O9
CH$EXACT_MASS: 783.4095
CH$SMILES: CC(C)C1C(=O)N(C(C(=O)OC(C(=O)N(C(C(=O)OC(C(=O)N(C(C(=O)O1)CC2=CC=CC=C2)C)C(C)C)CC3=CC=CC=C3)C)C(C)C)CC4=CC=CC=C4)C
CH$IUPAC: InChI=1S/C45H57N3O9/c1-28(2)37-40(49)46(7)35(26-32-21-15-11-16-22-32)44(53)56-39(30(5)6)42(51)48(9)36(27-33-23-17-12-18-24-33)45(54)57-38(29(3)4)41(50)47(8)34(43(52)55-37)25-31-19-13-10-14-20-31/h10-24,28-30,34-39H,25-27H2,1-9H3
CH$LINK: CAS 26048-05-5
CH$LINK: KEGG C11590
CH$LINK: PUBCHEM CID:105014
CH$LINK: INCHIKEY GYSCAQFHASJXRS-UHFFFAOYSA-N
CH$LINK: CHEMSPIDER 94757
AC$INSTRUMENT: LTQ Orbitrap XL Thermo Scientific
AC$INSTRUMENT_TYPE: LC-ESI-ITFT
AC$MASS_SPECTROMETRY: MS_TYPE MS2
AC$MASS_SPECTROMETRY: ION_MODE POSITIVE
AC$MASS_SPECTROMETRY: IONIZATION ESI
AC$MASS_SPECTROMETRY: FRAGMENTATION_MODE HCD
AC$MASS_SPECTROMETRY: COLLISION_ENERGY 15 % (nominal)
AC$MASS_SPECTROMETRY: RESOLUTION 7500
AC$CHROMATOGRAPHY: COLUMN_NAME Hypersil GOLD C18 1.9 um 100 x 2.1 mm Thermo Fisher Scientific
AC$CHROMATOGRAPHY: FLOW_GRADIENT 100/0 at 0 min, 0/100 at 30 min, 0/100 at 35 min
AC$CHROMATOGRAPHY: FLOW_RATE 300 uL/min
AC$CHROMATOGRAPHY: RETENTION_TIME 26.983 min
AC$CHROMATOGRAPHY: SOLVENT A water with 5% methanol and 0.1% acetic acid
AC$CHROMATOGRAPHY: SOLVENT B methanol with 0.1% acetic acid
MS$FOCUSED_ION: BASE_PEAK 784.4193
MS$FOCUSED_ION: PRECURSOR_M/Z 784.4168
MS$FOCUSED_ION: PRECURSOR_TYPE [M+H]+
MS$FOCUSED_ION: PRECURSOR_INTENSITY 27361940.61523
MS$DATA_PROCESSING: RECALIBRATE loess on assigned fragments and MS1
MS$DATA_PROCESSING: REANALYZE Peaks with additional N2/O included
MS$DATA_PROCESSING: WHOLE RMassBank 3.2.0
PK$SPLASH: splash10-0006-0090000000-07e0ea0e70dcf5a1c550
PK$ANNOTATION: m/z tentative_formula formula_count mass error(ppm)
  134.0967 C9H12N+ 1 134.0964 2.25
  201.1376 C13H17N2+ 1 201.1386 -4.99
  216.1387 C14H18NO+ 1 216.1383 1.89
  234.149 C14H20NO2+ 1 234.1489 0.4
  244.1334 C15H18NO2+ 1 244.1332 0.88
  262.1437 C15H20NO3+ 1 262.1438 -0.09
  362.1955 C20H28NO5+ 1 362.1962 -1.82
PK$NUM_PEAK: 7
PK$PEAK: m/z int. rel.int.
  134.0967 16379 34
  201.1376 3292.7 6
  216.1387 3132.7 6
  234.149 18496.8 38
  244.1334 474476.4 999
  262.1437 178924.7 376
  362.1955 2090.3 4
//
