ACCESSION: MSBNK-HBM4EU-HB003646
RECORD_TITLE: Fumigaclavine C; LC-ESI-ITFT; MS2; CE: 30%; R=7500; [M+H]+
DATE: 2021.10.11
AUTHORS: Laurent Debrauwer, Emilien L. Jamin, Research Centre in Food Toxicology (TOXALIM), INRAE, MetaboHUB-Metatoul platform, Toulouse, France
LICENSE: CC0
COPYRIGHT: Copyright (c) 2021 by Research Centre in Food Toxicology (TOXALIM), INRAE, MetaboHUB-Metatoul platform, Toulouse, France
COMMENT: HBM4EU - science and policy for a healthy future (https://www.hbm4eu.eu)
COMMENT: CONFIDENCE Reference Standard (Level 1)
COMMENT: INTERNAL_ID 54
CH$NAME: Fumigaclavine C
CH$NAME: CID 75144606
CH$NAME: [7,9-dimethyl-5-(2-methylbut-3-en-2-yl)-6,6a,8,9,10,10a-hexahydro-4H-indolo[4,3-fg]quinolin-10-yl] acetate
CH$COMPOUND_CLASS: N/A; Environmental Standard
CH$FORMULA: C23H30N2O2
CH$EXACT_MASS: 366.2307
CH$SMILES: CC1CN(C2CC3=C(NC4=CC=CC(=C34)C2C1OC(=O)C)C(C)(C)C=C)C
CH$IUPAC: InChI=1S/C23H30N2O2/c1-7-23(4,5)22-16-11-18-20(15-9-8-10-17(24-22)19(15)16)21(27-14(3)26)13(2)12-25(18)6/h7-10,13,18,20-21,24H,1,11-12H2,2-6H3
CH$LINK: CAS 62867-47-4
CH$LINK: PUBCHEM CID:75144606
CH$LINK: INCHIKEY OSICWVVWEXKSBD-UHFFFAOYSA-N
AC$INSTRUMENT: LTQ Orbitrap XL Thermo Scientific
AC$INSTRUMENT_TYPE: LC-ESI-ITFT
AC$MASS_SPECTROMETRY: MS_TYPE MS2
AC$MASS_SPECTROMETRY: ION_MODE POSITIVE
AC$MASS_SPECTROMETRY: IONIZATION ESI
AC$MASS_SPECTROMETRY: FRAGMENTATION_MODE HCD
AC$MASS_SPECTROMETRY: COLLISION_ENERGY 30 % (nominal)
AC$MASS_SPECTROMETRY: RESOLUTION 7500
AC$CHROMATOGRAPHY: COLUMN_NAME Hypersil GOLD C18 1.9 um 100 x 2.1 mm Thermo Fisher Scientific
AC$CHROMATOGRAPHY: FLOW_GRADIENT 100/0 at 0 min, 0/100 at 30 min, 0/100 at 35 min
AC$CHROMATOGRAPHY: FLOW_RATE 300 uL/min
AC$CHROMATOGRAPHY: RETENTION_TIME 13.208 min
AC$CHROMATOGRAPHY: SOLVENT A water with 5% methanol and 0.1% acetic acid
AC$CHROMATOGRAPHY: SOLVENT B methanol with 0.1% acetic acid
MS$FOCUSED_ION: BASE_PEAK 367.2377
MS$FOCUSED_ION: PRECURSOR_M/Z 367.238
MS$FOCUSED_ION: PRECURSOR_TYPE [M+H]+
MS$FOCUSED_ION: PRECURSOR_INTENSITY 49259323.36621
MS$DATA_PROCESSING: RECALIBRATE loess on assigned fragments and MS1
MS$DATA_PROCESSING: REANALYZE Peaks with additional N2/O included
MS$DATA_PROCESSING: WHOLE RMassBank 3.2.0
PK$SPLASH: splash10-014i-0009000000-eb7d75eb296281c2766f
PK$ANNOTATION: m/z tentative_formula formula_count mass error(ppm)
  264.1747 C19H22N+ 1 264.1747 -0.09
  276.1751 C20H22N+ 1 276.1747 1.59
  307.2165 C21H27N2+ 1 307.2169 -1.27
  367.2376 C23H31N2O2+ 1 367.238 -0.99
PK$NUM_PEAK: 4
PK$PEAK: m/z int. rel.int.
  264.1747 76407.3 8
  276.1751 30162.6 3
  307.2165 163394.2 17
  367.2376 9469420 999
//
