ACCESSION: MSBNK-HBM4EU-HB003468
RECORD_TITLE: Cyclopenol; LC-ESI-ITFT; MS2; CE: 30%; R=7500; [M-H]-
DATE: 2021.10.11
AUTHORS: Laurent Debrauwer, Emilien L. Jamin, Research Centre in Food Toxicology (TOXALIM), INRAE, MetaboHUB-Metatoul platform, Toulouse, France
LICENSE: CC0
COPYRIGHT: Copyright (c) 2021 by Research Centre in Food Toxicology (TOXALIM), INRAE, MetaboHUB-Metatoul platform, Toulouse, France
COMMENT: HBM4EU - science and policy for a healthy future (https://www.hbm4eu.eu)
COMMENT: CONFIDENCE Reference Standard (Level 1)
COMMENT: INTERNAL_ID 139
CH$NAME: Cyclopenol
CH$NAME: Spiro[3H-1,4-benzodiazepine-3,2`-oxirane]-2,5(1H,4H)-dione, 3`-(3-hydroxyphenyl)-4-methyl-, cis-(-)-
CH$NAME: 3`-(3-hydroxyphenyl)-4-methylspiro[1H-1,4-benzodiazepine-3,2`-oxirane]-2,5-dione
CH$COMPOUND_CLASS: N/A; Environmental Standard
CH$FORMULA: C17H14N2O4
CH$EXACT_MASS: 310.09536
CH$SMILES: CN1C(=O)C2=CC=CC=C2NC(=O)C13C(O3)C4=CC(=CC=C4)O
CH$IUPAC: InChI=1S/C17H14N2O4/c1-19-15(21)12-7-2-3-8-13(12)18-16(22)17(19)14(23-17)10-5-4-6-11(20)9-10/h2-9,14,20H,1H3,(H,18,22)
CH$LINK: CAS 20007-85-6
CH$LINK: PUBCHEM CID:101201
CH$LINK: INCHIKEY BDDNYDPRCCDQQJ-UHFFFAOYSA-N
CH$LINK: CHEMSPIDER 91438
AC$INSTRUMENT: LTQ Orbitrap XL Thermo Scientific
AC$INSTRUMENT_TYPE: LC-ESI-ITFT
AC$MASS_SPECTROMETRY: MS_TYPE MS2
AC$MASS_SPECTROMETRY: ION_MODE NEGATIVE
AC$MASS_SPECTROMETRY: IONIZATION ESI
AC$MASS_SPECTROMETRY: FRAGMENTATION_MODE HCD
AC$MASS_SPECTROMETRY: COLLISION_ENERGY 30 % (nominal)
AC$MASS_SPECTROMETRY: RESOLUTION 7500
AC$CHROMATOGRAPHY: COLUMN_NAME Hypersil GOLD C18 1.9 um 100 x 2.1 mm Thermo Fisher Scientific
AC$CHROMATOGRAPHY: FLOW_GRADIENT 100/0 at 0 min, 0/100 at 30 min, 0/100 at 35 min
AC$CHROMATOGRAPHY: FLOW_RATE 300 uL/min
AC$CHROMATOGRAPHY: RETENTION_TIME 11.668 min
AC$CHROMATOGRAPHY: SOLVENT A water with 5% methanol and 0.1% acetic acid
AC$CHROMATOGRAPHY: SOLVENT B methanol with 0.1% acetic acid
MS$FOCUSED_ION: BASE_PEAK 309.0888
MS$FOCUSED_ION: PRECURSOR_M/Z 309.0881
MS$FOCUSED_ION: PRECURSOR_TYPE [M-H]-
MS$FOCUSED_ION: PRECURSOR_INTENSITY 11202976.82837
MS$DATA_PROCESSING: RECALIBRATE loess on assigned fragments and MS1
MS$DATA_PROCESSING: REANALYZE Peaks with additional N2/O included
MS$DATA_PROCESSING: WHOLE RMassBank 3.2.0
PK$SPLASH: splash10-0adi-0924000000-5fc9e01c9f8a9992aaaa
PK$ANNOTATION: m/z tentative_formula formula_count mass error(ppm)
  93.0346 C6H5O- 1 93.0346 0.24
  102.035 C7H4N- 1 102.0349 0.63
  121.0297 C7H5O2- 1 121.0295 1.47
  133.0297 C8H5O2- 1 133.0295 1.26
  137.0245 C7H5O3- 1 137.0244 0.71
  149.0246 C8H5O3- 1 149.0244 0.96
  149.0724 C8H9N2O- 1 149.072 2.42
  159.0565 C9H7N2O- 1 159.0564 0.48
  175.0514 C9H7N2O2- 1 175.0513 0.45
  177.0673 C9H9N2O2- 1 177.067 1.99
  187.0516 C10H7N2O2- 1 187.0513 1.38
  223.0635 C14H9NO2- 1 223.0639 -1.49
  224.0718 C14H10NO2- 1 224.0717 0.59
  238.0874 C15H12NO2- 1 238.0874 0.34
  250.0755 C15H10N2O2- 1 250.0748 2.71
  252.0667 C15H10NO3- 1 252.0666 0.25
  261.0674 C16H9N2O2- 1 261.067 1.78
  263.0827 C16H11N2O2- 1 263.0826 0.54
  265.0985 C16H13N2O2- 1 265.0983 0.93
  266.0822 C16H12NO3- 1 266.0823 -0.11
  281.0927 C16H13N2O3- 1 281.0932 -1.58
  291.0769 C17H11N2O3- 1 291.0775 -1.98
  309.0879 C17H13N2O4- 1 309.0881 -0.65
PK$NUM_PEAK: 23
PK$PEAK: m/z int. rel.int.
  93.0346 5576.7 6
  102.035 29123.5 32
  121.0297 593743.6 670
  133.0297 32947.7 37
  137.0245 36430.6 41
  149.0246 6418.2 7
  149.0724 6098.5 6
  159.0565 251316.3 283
  175.0514 884439.2 999
  177.0673 7242.8 8
  187.0516 22496.3 25
  223.0635 5416.6 6
  224.0718 21776.7 24
  238.0874 128298.7 144
  250.0755 3558.7 4
  252.0667 150739.4 170
  261.0674 2474.8 2
  263.0827 8548.7 9
  265.0985 87637.1 98
  266.0822 188613.4 213
  281.0927 9522.3 10
  291.0769 5919.2 6
  309.0879 872496 985
//
