ACCESSION: MSBNK-HBM4EU-HB002466
RECORD_TITLE: Sulfamoxole; LC-ESI-ITFT; MS2; CE: 70%; R=7500; [M+H]+
DATE: 2020.02.20
AUTHORS: Laurent Debrauwer, Emilien L. Jamin, Research Centre in Food Toxicology (TOXALIM), INRAE, MetaboHUB-Metatoul platform, Toulouse, France
LICENSE: CC0
COPYRIGHT: Copyright (c) 2000 by Research Centre in Food Toxicology (TOXALIM), INRAE, MetaboHUB-Metatoul platform, Toulouse, France
PUBLICATION: Oberacher H, Sasse M, Antignac J-P, Guitton Y, Debrauwer L, Jamin E L, Schulze T, Krauss M, Covaci A, Caballero-Casero N, Rosseau K, Damont A, Fenaille F, Lamoree M, Schymanski E, A European proposal for quality control and quality assurance of tandem mass spectral libraries, Environmental Sciences Europe, https://doi.org/10.1186/s12302-020-00314-9
COMMENT: CONFIDENCE Reference Standard (Level 1)
COMMENT: HBM4EU - science and policy for a healthy future (https://www.hbm4eu.eu)
CH$NAME: Sulfamoxole
CH$NAME: 4-Amino-N-(4,5-dimethyl-1,3-oxazol-2-yl)benzene-1-sulfonamide
CH$COMPOUND_CLASS: N/A; Environmental Standard
CH$FORMULA: C11H13N3O3S
CH$EXACT_MASS: 267.0678
CH$SMILES: CC1=C(C)N=C(NS(=O)(=O)C2=CC=C(N)C=C2)O1
CH$IUPAC: InChI=1S/C11H13N3O3S/c1-7-8(2)17-11(13-7)14-18(15,16)10-5-3-9(12)4-6-10/h3-6H,12H2,1-2H3,(H,13,14)
CH$LINK: CAS 729-99-7
CH$LINK: COMPTOX DTXSID5023617
CH$LINK: INCHIKEY CYFLXLSBHQBMFT-UHFFFAOYSA-N
CH$LINK: PUBCHEM CID:12894
AC$INSTRUMENT: LTQ Orbitrap XL Thermo Fisher Scientific
AC$INSTRUMENT_TYPE: LC-ESI-ITFT
AC$MASS_SPECTROMETRY: MS_TYPE MS2
AC$MASS_SPECTROMETRY: ION_MODE POSITIVE
AC$MASS_SPECTROMETRY: IONIZATION ESI
AC$MASS_SPECTROMETRY: FRAGMENTATION_MODE HCD
AC$MASS_SPECTROMETRY: COLLISION_ENERGY 70% (nominal)
AC$MASS_SPECTROMETRY: RESOLUTION 7500
AC$CHROMATOGRAPHY: COLUMN_NAME Hypersil GOLD C18 1.9 um 100 x 2.1 mm Thermo Fisher Scientific
AC$CHROMATOGRAPHY: FLOW_GRADIENT 100/0 at 0 min, 0/100 at 30 min, 0/100 at 35 min
AC$CHROMATOGRAPHY: FLOW_RATE 300 uL/min
AC$CHROMATOGRAPHY: SOLVENT A water with 5% methanol and 0.1% acetic acid
AC$CHROMATOGRAPHY: SOLVENT B methanol with 0.1% acetic acid
MS$FOCUSED_ION: PRECURSOR_M/Z 268.0751
MS$FOCUSED_ION: PRECURSOR_TYPE [M+H]+
PK$SPLASH: splash10-0btc-4900000000-153344bebad8c73dd168
PK$NUM_PEAK: 18
PK$PEAK: m/z int. rel.int.
  54.0334 93191 6
  56.5628 168793.2 11
  65.0381 1476328.1 93
  69.0567 234376.2 15
  70.0646 535188.7 34
  80.049 107113.6 7
  92.0489 15803127 999
  94.0642 69328.3 4
  108.0439 15229110 963
  110.0595 1667735.6 105
  111.0547 576482.3 36
  112.0625 3182923.6 201
  113.0704 10738177.4 679
  120.055 367470.1 23
  135.0634 64935 4
  140.0158 1138963 72
  156.0107 2187658.5 138
  188.9204 192766.5 12
//
