ACCESSION: MSBNK-HBM4EU-HB003991
RECORD_TITLE: Lovastatin; LC-ESI-ITFT; MS2; CE: 20%; R=7500; [M+H]+
DATE: 2021.10.11
AUTHORS: Laurent Debrauwer, Emilien L. Jamin, Research Centre in Food Toxicology (TOXALIM), INRAE, MetaboHUB-Metatoul platform, Toulouse, France
LICENSE: CC0
COPYRIGHT: Copyright (c) 2021 by Research Centre in Food Toxicology (TOXALIM), INRAE, MetaboHUB-Metatoul platform, Toulouse, France
COMMENT: HBM4EU - science and policy for a healthy future (https://www.hbm4eu.eu)
COMMENT: CONFIDENCE Reference Standard (Level 1)
COMMENT: INTERNAL_ID 148
CH$NAME: Lovastatin
CH$NAME: Monacolin K
CH$NAME: [8-[2-(4-hydroxy-6-oxooxan-2-yl)ethyl]-3,7-dimethyl-1,2,3,7,8,8a-hexahydronaphthalen-1-yl] 2-methylbutanoate
CH$COMPOUND_CLASS: N/A; Environmental Standard
CH$FORMULA: C24H36O5
CH$EXACT_MASS: 404.2563
CH$SMILES: CCC(C)C(=O)OC1CC(C=C2C1C(C(C=C2)C)CCC3CC(CC(=O)O3)O)C
CH$IUPAC: InChI=1S/C24H36O5/c1-5-15(3)24(27)29-21-11-14(2)10-17-7-6-16(4)20(23(17)21)9-8-19-12-18(25)13-22(26)28-19/h6-7,10,14-16,18-21,23,25H,5,8-9,11-13H2,1-4H3
CH$LINK: CAS 75330-75-5
CH$LINK: PUBCHEM CID:3962
CH$LINK: INCHIKEY PCZOHLXUXFIOCF-UHFFFAOYSA-N
CH$LINK: CHEMSPIDER 3825
AC$INSTRUMENT: LTQ Orbitrap XL Thermo Scientific
AC$INSTRUMENT_TYPE: LC-ESI-ITFT
AC$MASS_SPECTROMETRY: MS_TYPE MS2
AC$MASS_SPECTROMETRY: ION_MODE POSITIVE
AC$MASS_SPECTROMETRY: IONIZATION ESI
AC$MASS_SPECTROMETRY: FRAGMENTATION_MODE HCD
AC$MASS_SPECTROMETRY: COLLISION_ENERGY 20 % (nominal)
AC$MASS_SPECTROMETRY: RESOLUTION 7500
AC$CHROMATOGRAPHY: COLUMN_NAME Hypersil GOLD C18 1.9 um 100 x 2.1 mm Thermo Fisher Scientific
AC$CHROMATOGRAPHY: FLOW_GRADIENT 100/0 at 0 min, 0/100 at 30 min, 0/100 at 35 min
AC$CHROMATOGRAPHY: FLOW_RATE 300 uL/min
AC$CHROMATOGRAPHY: RETENTION_TIME 25.875 min
AC$CHROMATOGRAPHY: SOLVENT A water with 5% methanol and 0.1% acetic acid
AC$CHROMATOGRAPHY: SOLVENT B methanol with 0.1% acetic acid
MS$FOCUSED_ION: BASE_PEAK 405.2638
MS$FOCUSED_ION: PRECURSOR_M/Z 405.2636
MS$FOCUSED_ION: PRECURSOR_TYPE [M+H]+
MS$FOCUSED_ION: PRECURSOR_INTENSITY 6072459.847656
MS$DATA_PROCESSING: RECALIBRATE loess on assigned fragments and MS1
MS$DATA_PROCESSING: REANALYZE Peaks with additional N2/O included
MS$DATA_PROCESSING: WHOLE RMassBank 3.2.0
PK$SPLASH: splash10-000b-0590000000-f2f4294894f94d314d0b
PK$ANNOTATION: m/z tentative_formula formula_count mass error(ppm)
  73.2163 CH29O2+ 1 73.2162 1.55
  143.0697 C7H11O3+ 1 143.0703 -3.84
  159.1166 C12H15+ 1 159.1168 -1.48
  173.1323 C13H17+ 1 173.1325 -1.3
  199.1478 C15H19+ 1 199.1481 -1.41
  201.1634 C15H21+ 1 201.1638 -1.84
  223.1481 C17H19+ 1 223.1481 -0.18
  225.1633 C17H21+ 1 225.1638 -1.93
  243.174 C17H23O+ 1 243.1743 -1.42
  249.164 C19H21+ 1 249.1638 0.84
  267.1744 C19H23O+ 1 267.1743 0.14
  285.1846 C19H25O2+ 1 285.1849 -1.24
  303.1949 C19H27O3+ 1 303.1955 -1.96
PK$NUM_PEAK: 13
PK$PEAK: m/z int. rel.int.
  73.2163 3345.1 58
  143.0697 2929.4 50
  159.1166 3409.2 59
  173.1323 21618.6 375
  199.1478 57563.7 999
  201.1634 8451 146
  223.1481 4180.7 72
  225.1633 27175 471
  243.174 31903.8 553
  249.164 8174.7 141
  267.1744 21964.7 381
  285.1846 50375.5 874
  303.1949 14719.1 255
//
