ACCESSION: MSBNK-HBM4EU-HB001226
RECORD_TITLE: Metoclopramide; LC-ESI-ITFT; MS2; CE: 75%; R=15000; [M+H]+
DATE: 2018.09.08
AUTHORS: Tobias Schulze, Carolin Huber, Martin Krauss, Department of Effect-Directed Analysis, Helmholtz Centre for Environmental Research GmbH - UFZ, Leipzig, Germany
LICENSE: CC0
COPYRIGHT: Copyright (C) 2018
PUBLICATION: Oberacher H, Sasse M, Antignac J-P, Guitton Y, Debrauwer L, Jamin E L, Schulze T, Krauss M, Covaci A, Caballero-Casero N, Rosseau K, Damont A, Fenaille F, Lamoree M, Schymanski E, A European proposal for quality control and quality assurance of tandem mass spectral libraries, Environmental Sciences Europe, https://doi.org/10.1186/s12302-020-00314-9
COMMENT: CONFIDENCE Reference Standard (Level 1)
COMMENT: HBM4EU - science and policy for a healthy future (https://www.hbm4eu.eu)
CH$NAME: Metoclopramide
CH$NAME: 4-amino-5-chloro-N-[2-(diethylamino)ethyl]-2-methoxybenzamide
CH$COMPOUND_CLASS: N/A; Environmental Standard
CH$FORMULA: C14H22ClN3O2
CH$EXACT_MASS: 299.1401
CH$SMILES: CCN(CC)CCNC(=O)C1=CC(=C(C=C1OC)N)Cl
CH$IUPAC: InChI=1S/C14H22ClN3O2/c1-4-18(5-2)7-6-17-14(19)10-8-11(15)12(16)9-13(10)20-3/h8-9H,4-7,16H2,1-3H3,(H,17,19)
CH$LINK: CAS 364-62-5
CH$LINK: CHEBI CHEBI:107736
CH$LINK: KEGG D00726
CH$LINK: PUBCHEM CID:4168
CH$LINK: INCHIKEY TTWJBBZEZQICBI-UHFFFAOYSA-N
CH$LINK: CHEMSPIDER 4024
AC$INSTRUMENT: LTQ Orbitrap XL Thermo Scientific
AC$INSTRUMENT_TYPE: LC-ESI-ITFT
AC$MASS_SPECTROMETRY: MS_TYPE MS2
AC$MASS_SPECTROMETRY: ION_MODE POSITIVE
AC$MASS_SPECTROMETRY: IONIZATION ESI
AC$MASS_SPECTROMETRY: FRAGMENTATION_MODE HCD
AC$MASS_SPECTROMETRY: COLLISION_ENERGY 75% (nominal)
AC$MASS_SPECTROMETRY: RESOLUTION 15000
AC$CHROMATOGRAPHY: COLUMN_NAME Kinetex Evo C18 2.6 um 50 x 2.1 mm
AC$CHROMATOGRAPHY: FLOW_GRADIENT 95/5 at 0 min, 95/5 at 1 min, 0/100 at 13 min, 0/100 at 24 min, 95/5 at 24.3 min, 95/5 at 32 min
AC$CHROMATOGRAPHY: FLOW_RATE 300 uL/min
AC$CHROMATOGRAPHY: RETENTION_TIME 2.743 min
AC$CHROMATOGRAPHY: SOLVENT A water with 0.1% formic acid
AC$CHROMATOGRAPHY: SOLVENT B methanol with 0.1% formic acid
MS$FOCUSED_ION: BASE_PEAK 300.1474
MS$FOCUSED_ION: PRECURSOR_M/Z 300.1473
MS$FOCUSED_ION: PRECURSOR_TYPE [M+H]+
MS$DATA_PROCESSING: RECALIBRATE loess on assigned fragments and MS1
MS$DATA_PROCESSING: REANALYZE Peaks with additional N2/O included
MS$DATA_PROCESSING: WHOLE RMassBank 2.9.1
PK$SPLASH: splash10-001i-0920000000-e388091c36ab1b4ddbcc
PK$ANNOTATION: m/z tentative_formula formula_count mass error(ppm)
  72.0807 C4H10N+ 1 72.0808 -1.33
  90.0339 C6H4N+ 1 90.0338 0.29
  92.0494 C6H6N+ 1 92.0495 -1.35
  93.0573 C6H7N+ 1 93.0573 0.02
  100.1121 C6H14N+ 1 100.1121 0.33
  108.0443 C6H6NO+ 1 108.0444 -0.97
  113.0027 C5H4ClN+ 2 113.0027 0.01
  120.0444 C7H6NO+ 2 120.0444 -0.17
  126.0105 C6H5ClN+ 2 126.0105 0.11
  128.0261 C6H7ClN+ 2 128.0262 -0.07
  129.0104 C6H6ClO+ 1 129.0102 1.76
  140.9976 C6H4ClNO+ 2 140.9976 0.07
  144.0211 C6H7ClNO+ 2 144.0211 0.18
  147.0554 C8H7N2O+ 2 147.0553 0.75
  148.0631 C8H8N2O+ 2 148.0631 0.23
  154.0054 C7H5ClNO+ 2 154.0054 0.09
  156.0211 C7H7ClNO+ 2 156.0211 0.09
  157.0249 C2H8ClN3O3+ 1 157.0249 0.06
  168.0085 C7H5ClN2O+ 2 168.0085 0.03
  168.9925 C7H4ClNO2+ 1 168.9925 0.07
  170.0004 C7H5ClNO2+ 1 170.0003 0.43
  182.0243 C8H7ClN2O+ 2 182.0241 0.92
  183.0321 C8H8ClN2O+ 2 183.032 0.93
  184.016 C8H7ClNO2+ 1 184.016 0.14
  187.003 C7H6ClNO3+ 1 187.0031 -0.27
  211.0269 C9H8ClN2O2+ 1 211.0269 0.22
  212.0347 C9H9ClN2O2+ 1 212.0347 0.07
  227.0581 C10H12ClN2O2+ 1 227.0582 -0.18
PK$NUM_PEAK: 28
PK$PEAK: m/z int. rel.int.
  72.0807 8012.4 4
  90.0339 18107.7 10
  92.0494 6050.1 3
  93.0573 19086.3 10
  100.1121 45587.9 26
  108.0443 4290.2 2
  113.0027 5922 3
  120.0444 18573.1 10
  126.0105 56297.1 32
  128.0261 32806.2 18
  129.0104 5654.5 3
  140.9976 120676.1 69
  144.0211 25683.8 14
  147.0554 10677.2 6
  148.0631 47563.8 27
  154.0054 28893.3 16
  156.0211 117410.4 67
  157.0249 2943.7 1
  168.0085 132302.8 76
  168.9925 75739.8 43
  170.0004 33403 19
  182.0243 19569.3 11
  183.0321 408462.4 234
  184.016 1738548.5 999
  187.003 24460.8 14
  211.0269 17403.9 10
  212.0347 495689.8 284
  227.0581 404297.3 232
//
