ACCESSION: MSBNK-HBM4EU-HB002020
RECORD_TITLE: Sulfamoxole; LC-ESI-QFT; MS2; CE: 80%; R=30000; [M+H]+
DATE: 2020.02.20
AUTHORS: Annelaure Damont, Kathleen Rousseau, Laboratoire d Etude du Metabolisme des Medicaments, CEA, Universite Paris Saclay, Paris, France
LICENSE: CC0
COPYRIGHT: Copyright (c) 2020 by Laboratoire d Etude du Metabolisme des Medicaments, CEA, Universite Paris Saclay, Paris, France
PUBLICATION: Oberacher H, Sasse M, Antignac J-P, Guitton Y, Debrauwer L, Jamin E L, Schulze T, Krauss M, Covaci A, Caballero-Casero N, Rosseau K, Damont A, Fenaille F, Lamoree M, Schymanski E, A European proposal for quality control and quality assurance of tandem mass spectral libraries, Environmental Sciences Europe, https://doi.org/10.1186/s12302-020-00314-9
COMMENT: CONFIDENCE Reference Standard (Level 1)
COMMENT: HBM4EU - science and policy for a healthy future (https://www.hbm4eu.eu)
COMMENT: Flow Injection
CH$NAME: Sulfamoxole
CH$NAME: 4-Amino-N-(4,5-dimethyl-1,3-oxazol-2-yl)benzene-1-sulfonamide
CH$COMPOUND_CLASS: N/A; Environmental Standard
CH$FORMULA: C11H13N3O3S
CH$EXACT_MASS: 267.0678
CH$SMILES: CC1=C(C)N=C(NS(=O)(=O)C2=CC=C(N)C=C2)O1
CH$IUPAC: InChI=1S/C11H13N3O3S/c1-7-8(2)17-11(13-7)14-18(15,16)10-5-3-9(12)4-6-10/h3-6H,12H2,1-2H3,(H,13,14)
CH$LINK: CAS 729-99-7
CH$LINK: COMPTOX DTXSID5023617
CH$LINK: INCHIKEY CYFLXLSBHQBMFT-UHFFFAOYSA-N
CH$LINK: PUBCHEM CID:12894
AC$INSTRUMENT: Orbitrap Fusion Tribrid Thermo Fisher Scientific
AC$INSTRUMENT_TYPE: LC-ESI-QFT
AC$MASS_SPECTROMETRY: MS_TYPE MS2
AC$MASS_SPECTROMETRY: ION_MODE POSITIVE
AC$MASS_SPECTROMETRY: IONIZATION ESI
AC$MASS_SPECTROMETRY: FRAGMENTATION_MODE HCD
AC$MASS_SPECTROMETRY: COLLISION_ENERGY 80% (nominal)
AC$MASS_SPECTROMETRY: RESOLUTION 30000
AC$CHROMATOGRAPHY: FLOW_GRADIENT 95/5
AC$CHROMATOGRAPHY: FLOW_RATE 100 uL/min
AC$CHROMATOGRAPHY: SOLVENT A water with 0.1% formic acid
AC$CHROMATOGRAPHY: SOLVENT B acetonitrile with 0.1% formic acid
MS$FOCUSED_ION: PRECURSOR_M/Z 268.0751
MS$FOCUSED_ION: PRECURSOR_TYPE [M+H]+
PK$SPLASH: splash10-059x-9400000000-e65224ae09a4955bb818
PK$NUM_PEAK: 14
PK$PEAK: m/z int. rel.int.
  70.0653 4244284.5 505
  76.0313 7209.9 1
  80.0497 5939969.8 706
  83.0609 59217.2 7
  92.0497 8403176 999
  93.0574 186374 22
  94.0657 18327.3 2
  108.0446 6329003.3 752
  110.0602 524828.8 62
  111.0555 981516.2 117
  112.0632 253423 30
  113.0711 1714768.9 204
  120.0562 5680.5 1
  140.0165 244154.3 29
//
