ACCESSION: MSBNK-HBM4EU-HB001720
RECORD_TITLE: Sulfamoxole; LC-ESI-ITFT; MS2; CE: 65%; R=15000; [M+H]+
DATE: 2018.09.08
AUTHORS: Tobias Schulze, Carolin Huber, Martin Krauss, Department of Effect-Directed Analysis, Helmholtz Centre for Environmental Research GmbH - UFZ, Leipzig, Germany
LICENSE: CC0
COPYRIGHT: Copyright (C) 2018
PUBLICATION: Oberacher H, Sasse M, Antignac J-P, Guitton Y, Debrauwer L, Jamin E L, Schulze T, Krauss M, Covaci A, Caballero-Casero N, Rosseau K, Damont A, Fenaille F, Lamoree M, Schymanski E, A European proposal for quality control and quality assurance of tandem mass spectral libraries, Environmental Sciences Europe, https://doi.org/10.1186/s12302-020-00314-9
COMMENT: CONFIDENCE Reference Standard (Level 1)
COMMENT: HBM4EU - science and policy for a healthy future (https://www.hbm4eu.eu)
CH$NAME: Sulfamoxole
CH$NAME: 4-amino-N-(4,5-dimethyl-1,3-oxazol-2-yl)benzenesulfonamide
CH$COMPOUND_CLASS: N/A; Environmental Standard
CH$FORMULA: C11H13N3O3S
CH$EXACT_MASS: 267.0678
CH$SMILES: CC1=C(OC(=N1)NS(=O)(=O)C2=CC=C(C=C2)N)C
CH$IUPAC: InChI=1S/C11H13N3O3S/c1-7-8(2)17-11(13-7)14-18(15,16)10-5-3-9(12)4-6-10/h3-6H,12H2,1-2H3,(H,13,14)
CH$LINK: CAS 729-99-7
CH$LINK: CHEBI CHEBI:55548
CH$LINK: KEGG D02516
CH$LINK: PUBCHEM CID:12894
CH$LINK: INCHIKEY CYFLXLSBHQBMFT-UHFFFAOYSA-N
CH$LINK: CHEMSPIDER 12361
AC$INSTRUMENT: LTQ Orbitrap XL Thermo Scientific
AC$INSTRUMENT_TYPE: LC-ESI-ITFT
AC$MASS_SPECTROMETRY: MS_TYPE MS2
AC$MASS_SPECTROMETRY: ION_MODE POSITIVE
AC$MASS_SPECTROMETRY: IONIZATION ESI
AC$MASS_SPECTROMETRY: FRAGMENTATION_MODE HCD
AC$MASS_SPECTROMETRY: COLLISION_ENERGY 65% (nominal)
AC$MASS_SPECTROMETRY: RESOLUTION 15000
AC$CHROMATOGRAPHY: COLUMN_NAME Kinetex Evo C18 2.6 um 50 x 2.1 mm
AC$CHROMATOGRAPHY: FLOW_GRADIENT 95/5 at 0 min, 95/5 at 1 min, 0/100 at 13 min, 0/100 at 24 min, 95/5 at 24.3 min, 95/5 at 32 min
AC$CHROMATOGRAPHY: FLOW_RATE 300 uL/min
AC$CHROMATOGRAPHY: RETENTION_TIME 3.924 min
AC$CHROMATOGRAPHY: SOLVENT A water with 0.1% formic acid
AC$CHROMATOGRAPHY: SOLVENT B methanol with 0.1% formic acid
MS$FOCUSED_ION: BASE_PEAK 268.0749
MS$FOCUSED_ION: PRECURSOR_M/Z 268.075
MS$FOCUSED_ION: PRECURSOR_TYPE [M+H]+
MS$DATA_PROCESSING: RECALIBRATE loess on assigned fragments and MS1
MS$DATA_PROCESSING: REANALYZE Peaks with additional N2/O included
MS$DATA_PROCESSING: WHOLE RMassBank 2.9.1
PK$SPLASH: splash10-06r6-5900000000-225a7bb2436a25c0a923
PK$ANNOTATION: m/z tentative_formula formula_count mass error(ppm)
  54.0336 C3H4N+ 1 54.0338 -4.33
  65.0384 C5H5+ 1 65.0386 -2.46
  68.0493 C4H6N+ 1 68.0495 -2.79
  69.0572 C4H7N+ 1 69.0573 -2.14
  70.065 C4H8N+ 1 70.0651 -1.94
  80.0493 C5H6N+ 1 80.0495 -1.89
  92.0495 C6H6N+ 1 92.0495 -0.19
  93.0576 C6H7N+ 2 93.0573 2.82
  94.0652 C6H8N+ 1 94.0651 0.82
  108.0444 C6H6NO+ 1 108.0444 -0.16
  110.06 C6H8NO+ 1 110.06 -0.43
  111.0553 C5H7N2O+ 1 111.0553 0.08
  112.0631 C5H8N2O+ 1 112.0631 -0.06
  113.0709 C5H9N2O+ 1 113.0709 -0.39
  120.0556 C6H6N3+ 1 120.0556 -0.08
  140.0164 C6H6NOS+ 1 140.0165 -0.21
  156.0113 C6H6NO2S+ 1 156.0114 -0.18
PK$NUM_PEAK: 17
PK$PEAK: m/z int. rel.int.
  54.0336 3892.5 9
  65.0384 35709.8 86
  68.0493 1032.7 2
  69.0572 9079.7 22
  70.065 16304.5 39
  80.0493 2233.1 5
  92.0495 410591.8 999
  93.0576 1431.5 3
  94.0652 1211.3 2
  108.0444 305967.4 744
  110.06 24478.7 59
  111.0553 10240.4 24
  112.0631 72856.7 177
  113.0709 223389.2 543
  120.0556 10105.8 24
  140.0164 23849.1 58
  156.0113 64919.6 157
//
