ACCESSION: MSBNK-HBM4EU-HB000749
RECORD_TITLE: Dixyrazine; LC-ESI-ITFT; MS2; CE: 110%; R=15000; [M+H]+
DATE: 2018.09.08
AUTHORS: Tobias Schulze, Carolin Huber, Martin Krauss, Department of Effect-Directed Analysis, Helmholtz Centre for Environmental Research GmbH - UFZ, Leipzig, Germany
LICENSE: CC0
COPYRIGHT: Copyright (C) 2018
PUBLICATION: Oberacher H, Sasse M, Antignac J-P, Guitton Y, Debrauwer L, Jamin E L, Schulze T, Krauss M, Covaci A, Caballero-Casero N, Rosseau K, Damont A, Fenaille F, Lamoree M, Schymanski E, A European proposal for quality control and quality assurance of tandem mass spectral libraries, Environmental Sciences Europe, https://doi.org/10.1186/s12302-020-00314-9
COMMENT: CONFIDENCE Reference Standard (Level 1)
COMMENT: HBM4EU - science and policy for a healthy future (https://www.hbm4eu.eu)
CH$NAME: Dixyrazine
CH$NAME: 2-[2-[4-(2-methyl-3-phenothiazin-10-ylpropyl)piperazin-1-yl]ethoxy]ethanol
CH$COMPOUND_CLASS: N/A; Environmental Standard
CH$FORMULA: C24H33N3O2S
CH$EXACT_MASS: 427.2293
CH$SMILES: CC(CN1CCN(CC1)CCOCCO)CN2C3=CC=CC=C3SC4=CC=CC=C42
CH$IUPAC: InChI=1S/C24H33N3O2S/c1-20(18-26-12-10-25(11-13-26)14-16-29-17-15-28)19-27-21-6-2-4-8-23(21)30-24-9-5-3-7-22(24)27/h2-9,20,28H,10-19H2,1H3
CH$LINK: CAS 2470-73-7
CH$LINK: CHEBI CHEBI:135695
CH$LINK: KEGG D07865
CH$LINK: PUBCHEM CID:17182
CH$LINK: INCHIKEY MSYUMPGNGDNTIQ-UHFFFAOYSA-N
CH$LINK: CHEMSPIDER 16265
AC$INSTRUMENT: LTQ Orbitrap XL Thermo Scientific
AC$INSTRUMENT_TYPE: LC-ESI-ITFT
AC$MASS_SPECTROMETRY: MS_TYPE MS2
AC$MASS_SPECTROMETRY: ION_MODE POSITIVE
AC$MASS_SPECTROMETRY: IONIZATION ESI
AC$MASS_SPECTROMETRY: FRAGMENTATION_MODE CID
AC$MASS_SPECTROMETRY: COLLISION_ENERGY 110% (nominal)
AC$MASS_SPECTROMETRY: RESOLUTION 15000
AC$CHROMATOGRAPHY: COLUMN_NAME Kinetex Evo C18 2.6 um 50 x 2.1 mm
AC$CHROMATOGRAPHY: FLOW_GRADIENT 95/5 at 0 min, 95/5 at 1 min, 0/100 at 13 min, 0/100 at 24 min, 95/5 at 24.3 min, 95/5 at 32 min
AC$CHROMATOGRAPHY: FLOW_RATE 300 uL/min
AC$CHROMATOGRAPHY: RETENTION_TIME 8.957 min
AC$CHROMATOGRAPHY: SOLVENT A water with 0.1% formic acid
AC$CHROMATOGRAPHY: SOLVENT B methanol with 0.1% formic acid
MS$FOCUSED_ION: BASE_PEAK 428.2363
MS$FOCUSED_ION: PRECURSOR_M/Z 428.2366
MS$FOCUSED_ION: PRECURSOR_TYPE [M+H]+
MS$DATA_PROCESSING: RECALIBRATE loess on assigned fragments and MS1
MS$DATA_PROCESSING: REANALYZE Peaks with additional N2/O included
MS$DATA_PROCESSING: WHOLE RMassBank 2.9.1
PK$SPLASH: splash10-004i-0190000000-6bddf6905db3d48f5958
PK$ANNOTATION: m/z tentative_formula formula_count mass error(ppm)
  125.1073 C7H13N2+ 1 125.1073 -0.17
  140.1307 C8H16N2+ 1 140.1308 -0.64
  144.1023 C7H14NO2+ 1 144.1019 3.02
  172.1206 C8H16N2O2+ 1 172.1206 -0.19
  180.0808 C13H10N+ 2 180.0808 -0.02
  187.1441 C9H19N2O2+ 1 187.1441 -0.28
  188.1474 C10H22NS+ 1 188.1467 3.26
  212.0528 C13H10NS+ 1 212.0528 -0.25
  213.0565 C8H11N3O2S+ 2 213.0566 -0.77
  220.1118 C16H14N+ 2 220.1121 -1.1
  221.12 C16H15N+ 2 221.1199 0.31
  229.191 C12H25N2O2+ 1 229.1911 -0.4
  230.194 C13H28NS+ 1 230.1937 1.45
  254.0996 C16H16NS+ 1 254.0998 -0.62
  366.1994 C22H28N3S+ 2 366.1998 -1.13
PK$NUM_PEAK: 15
PK$PEAK: m/z int. rel.int.
  125.1073 110394.7 6
  140.1307 35443.3 1
  144.1023 20747.7 1
  172.1206 295444.6 16
  180.0808 217187.1 12
  187.1441 2827870 157
  188.1474 62113.8 3
  212.0528 975629.3 54
  213.0565 25238.4 1
  220.1118 23747.7 1
  221.12 58698.5 3
  229.191 17932420 999
  230.194 534135.8 29
  254.0996 547302.4 30
  366.1994 108866.4 6
//
