ACCESSION: MSBNK-HBM4EU-HB000644
RECORD_TITLE: Dosulepin; LC-ESI-ITFT; MS2; CE: 105%; R=15000; [M+H]+
DATE: 2018.09.08
AUTHORS: Tobias Schulze, Carolin Huber, Martin Krauss, Department of Effect-Directed Analysis, Helmholtz Centre for Environmental Research GmbH - UFZ, Leipzig, Germany
LICENSE: CC0
COPYRIGHT: Copyright (C) 2018
PUBLICATION: Oberacher H, Sasse M, Antignac J-P, Guitton Y, Debrauwer L, Jamin E L, Schulze T, Krauss M, Covaci A, Caballero-Casero N, Rosseau K, Damont A, Fenaille F, Lamoree M, Schymanski E, A European proposal for quality control and quality assurance of tandem mass spectral libraries, Environmental Sciences Europe, https://doi.org/10.1186/s12302-020-00314-9
COMMENT: CONFIDENCE Reference Standard (Level 1)
COMMENT: HBM4EU - science and policy for a healthy future (https://www.hbm4eu.eu)
CH$NAME: Dosulepin
CH$NAME: Dothiepin
CH$NAME: 3-(6H-benzo[c][1]benzothiepin-11-ylidene)-N,N-dimethylpropan-1-amine
CH$COMPOUND_CLASS: N/A; Environmental Standard
CH$FORMULA: C19H21NS
CH$EXACT_MASS: 295.1395
CH$SMILES: CN(C)CCC=C1C2=CC=CC=C2CSC3=CC=CC=C31
CH$IUPAC: InChI=1S/C19H21NS/c1-20(2)13-7-11-17-16-9-4-3-8-15(16)14-21-19-12-6-5-10-18(17)19/h3-6,8-12H,7,13-14H2,1-2H3
CH$LINK: CAS 113-53-1
CH$LINK: PUBCHEM CID:3155
CH$LINK: INCHIKEY PHTUQLWOUWZIMZ-UHFFFAOYSA-N
CH$LINK: CHEMSPIDER 3043
AC$INSTRUMENT: LTQ Orbitrap XL Thermo Scientific
AC$INSTRUMENT_TYPE: LC-ESI-ITFT
AC$MASS_SPECTROMETRY: MS_TYPE MS2
AC$MASS_SPECTROMETRY: ION_MODE POSITIVE
AC$MASS_SPECTROMETRY: IONIZATION ESI
AC$MASS_SPECTROMETRY: FRAGMENTATION_MODE CID
AC$MASS_SPECTROMETRY: COLLISION_ENERGY 105% (nominal)
AC$MASS_SPECTROMETRY: RESOLUTION 15000
AC$CHROMATOGRAPHY: COLUMN_NAME Kinetex Evo C18 2.6 um 50 x 2.1 mm
AC$CHROMATOGRAPHY: FLOW_GRADIENT 95/5 at 0 min, 95/5 at 1 min, 0/100 at 13 min, 0/100 at 24 min, 95/5 at 24.3 min, 95/5 at 32 min
AC$CHROMATOGRAPHY: FLOW_RATE 300 uL/min
AC$CHROMATOGRAPHY: RETENTION_TIME 8.178 min
AC$CHROMATOGRAPHY: SOLVENT A water with 0.1% formic acid
AC$CHROMATOGRAPHY: SOLVENT B methanol with 0.1% formic acid
MS$FOCUSED_ION: BASE_PEAK 296.1467
MS$FOCUSED_ION: PRECURSOR_M/Z 296.1467
MS$FOCUSED_ION: PRECURSOR_TYPE [M+H]+
MS$DATA_PROCESSING: RECALIBRATE loess on assigned fragments and MS1
MS$DATA_PROCESSING: REANALYZE Peaks with additional N2/O included
MS$DATA_PROCESSING: WHOLE RMassBank 2.9.1
PK$SPLASH: splash10-004i-0190000000-f80b2872fa5f9f1f3539
PK$ANNOTATION: m/z tentative_formula formula_count mass error(ppm)
  91.0542 C7H7+ 1 91.0542 0.06
  115.0541 C9H7+ 1 115.0542 -0.99
  117.0698 C9H9+ 1 117.0699 -0.75
  123.0264 C7H7S+ 1 123.0263 1.13
  141.0701 C11H9+ 1 141.0699 1.34
  142.0776 C11H10+ 1 142.0777 -0.39
  147.0263 C9H7S+ 1 147.0263 -0.28
  173.0418 C11H9S+ 1 173.0419 -0.76
  191.0855 C15H11+ 1 191.0855 -0.12
  192.093 C15H12+ 1 192.0934 -2.09
  209.042 C14H9S+ 1 209.0419 0.41
  210.0502 C14H10S+ 1 210.0498 1.87
  211.0583 C14H11S+ 1 211.0576 3.09
  217.1012 C17H13+ 1 217.1012 0.32
  218.109 C17H14+ 1 218.109 0.05
  221.0417 C15H9S+ 1 221.0419 -0.96
  222.0499 C15H10S+ 1 222.0498 0.43
  223.0577 C15H11S+ 1 223.0576 0.3
  225.0731 C15H13S+ 1 225.0732 -0.5
  236.0653 C16H12S+ 1 236.0654 -0.37
  249.0728 C17H13S+ 1 249.0732 -1.79
  251.0889 C17H15S+ 1 251.0889 -0.05
  253.1044 C17H17S+ 1 253.1045 -0.45
  265.1047 C18H17S+ 1 265.1045 0.38
PK$NUM_PEAK: 24
PK$PEAK: m/z int. rel.int.
  91.0542 277796.7 14
  115.0541 44212.9 2
  117.0698 246237.6 13
  123.0264 172153.3 9
  141.0701 103840.2 5
  142.0776 85193.4 4
  147.0263 3752915 202
  173.0418 224316.9 12
  191.0855 541505.2 29
  192.093 73801.9 3
  209.042 1209565.2 65
  210.0502 48178.8 2
  211.0583 65417.3 3
  217.1012 686260.1 36
  218.109 2204213.5 118
  221.0417 61846.7 3
  222.0499 664567.1 35
  223.0577 5186654.5 279
  225.0731 18558628 999
  236.0653 516331.3 27
  249.0728 53311.7 2
  251.0889 8809342 474
  253.1044 895670.3 48
  265.1047 112023.2 6
//
