ACCESSION: MSBNK-HBM4EU-HB000729
RECORD_TITLE: Dixyrazine; LC-ESI-ITFT; MS2; CE: 70%; R=15000; [M+H]+
DATE: 2018.09.08
AUTHORS: Tobias Schulze, Carolin Huber, Martin Krauss, Department of Effect-Directed Analysis, Helmholtz Centre for Environmental Research GmbH - UFZ, Leipzig, Germany
LICENSE: CC0
COPYRIGHT: Copyright (C) 2018
PUBLICATION: Oberacher H, Sasse M, Antignac J-P, Guitton Y, Debrauwer L, Jamin E L, Schulze T, Krauss M, Covaci A, Caballero-Casero N, Rosseau K, Damont A, Fenaille F, Lamoree M, Schymanski E, A European proposal for quality control and quality assurance of tandem mass spectral libraries, Environmental Sciences Europe, https://doi.org/10.1186/s12302-020-00314-9
COMMENT: CONFIDENCE Reference Standard (Level 1)
COMMENT: HBM4EU - science and policy for a healthy future (https://www.hbm4eu.eu)
CH$NAME: Dixyrazine
CH$NAME: 2-[2-[4-(2-methyl-3-phenothiazin-10-ylpropyl)piperazin-1-yl]ethoxy]ethanol
CH$COMPOUND_CLASS: N/A; Environmental Standard
CH$FORMULA: C24H33N3O2S
CH$EXACT_MASS: 427.2293
CH$SMILES: CC(CN1CCN(CC1)CCOCCO)CN2C3=CC=CC=C3SC4=CC=CC=C42
CH$IUPAC: InChI=1S/C24H33N3O2S/c1-20(18-26-12-10-25(11-13-26)14-16-29-17-15-28)19-27-21-6-2-4-8-23(21)30-24-9-5-3-7-22(24)27/h2-9,20,28H,10-19H2,1H3
CH$LINK: CAS 2470-73-7
CH$LINK: CHEBI CHEBI:135695
CH$LINK: KEGG D07865
CH$LINK: PUBCHEM CID:17182
CH$LINK: INCHIKEY MSYUMPGNGDNTIQ-UHFFFAOYSA-N
CH$LINK: CHEMSPIDER 16265
AC$INSTRUMENT: LTQ Orbitrap XL Thermo Scientific
AC$INSTRUMENT_TYPE: LC-ESI-ITFT
AC$MASS_SPECTROMETRY: MS_TYPE MS2
AC$MASS_SPECTROMETRY: ION_MODE POSITIVE
AC$MASS_SPECTROMETRY: IONIZATION ESI
AC$MASS_SPECTROMETRY: FRAGMENTATION_MODE CID
AC$MASS_SPECTROMETRY: COLLISION_ENERGY 70% (nominal)
AC$MASS_SPECTROMETRY: RESOLUTION 15000
AC$CHROMATOGRAPHY: COLUMN_NAME Kinetex Evo C18 2.6 um 50 x 2.1 mm
AC$CHROMATOGRAPHY: FLOW_GRADIENT 95/5 at 0 min, 95/5 at 1 min, 0/100 at 13 min, 0/100 at 24 min, 95/5 at 24.3 min, 95/5 at 32 min
AC$CHROMATOGRAPHY: FLOW_RATE 300 uL/min
AC$CHROMATOGRAPHY: RETENTION_TIME 8.949 min
AC$CHROMATOGRAPHY: SOLVENT A water with 0.1% formic acid
AC$CHROMATOGRAPHY: SOLVENT B methanol with 0.1% formic acid
MS$FOCUSED_ION: BASE_PEAK 428.2363
MS$FOCUSED_ION: PRECURSOR_M/Z 428.2366
MS$FOCUSED_ION: PRECURSOR_TYPE [M+H]+
MS$DATA_PROCESSING: RECALIBRATE loess on assigned fragments and MS1
MS$DATA_PROCESSING: REANALYZE Peaks with additional N2/O included
MS$DATA_PROCESSING: WHOLE RMassBank 2.9.1
PK$SPLASH: splash10-004i-0190000000-8e397550ff0c6f0de634
PK$ANNOTATION: m/z tentative_formula formula_count mass error(ppm)
  125.1074 C7H13N2+ 1 125.1073 0.27
  140.1306 C8H16N2+ 1 140.1308 -1.1
  144.1019 C7H14NO2+ 1 144.1019 -0.12
  172.1206 C8H16N2O2+ 1 172.1206 0.08
  180.0808 C13H10N+ 2 180.0808 0.04
  187.1441 C9H19N2O2+ 1 187.1441 0
  212.0529 C13H10NS+ 1 212.0528 0.16
  221.1197 C16H15N+ 2 221.1199 -0.94
  229.1909 C12H25N2O2+ 1 229.1911 -0.52
  230.1937 C13H28NS+ 1 230.1937 -0.01
  254.0996 C16H16NS+ 1 254.0998 -0.78
  366.1997 C22H28N3S+ 2 366.1998 -0.48
PK$NUM_PEAK: 12
PK$PEAK: m/z int. rel.int.
  125.1074 190169.2 5
  140.1306 76745.7 2
  144.1019 53240 1
  172.1206 454750.3 12
  180.0808 296898.4 8
  187.1441 5182713.5 143
  212.0529 1602969.8 44
  221.1197 117471.3 3
  229.1909 36129652 999
  230.1937 69273.5 1
  254.0996 951961.3 26
  366.1997 226705.4 6
//
