ACCESSION: MSBNK-HBM4EU-HB003122
RECORD_TITLE: Citromycetin; LC-ESI-ITFT; MS2; CE: 60%; R=7500; [M-H]-
DATE: 2021.10.11
AUTHORS: Laurent Debrauwer, Emilien L. Jamin, Research Centre in Food Toxicology (TOXALIM), INRAE, MetaboHUB-Metatoul platform, Toulouse, France
LICENSE: CC0
COPYRIGHT: Copyright (c) 2021 by Research Centre in Food Toxicology (TOXALIM), INRAE, MetaboHUB-Metatoul platform, Toulouse, France
COMMENT: HBM4EU - science and policy for a healthy future (https://www.hbm4eu.eu)
COMMENT: CONFIDENCE Reference Standard (Level 1)
COMMENT: INTERNAL_ID 50
CH$NAME: Citromycetin
CH$NAME: 8,9-dihydroxy-2-methyl-4-oxo-5H-pyrano[3,2-c]chromene-10-carboxylic acid
CH$COMPOUND_CLASS: N/A; Environmental Standard
CH$FORMULA: C14H10O7
CH$EXACT_MASS: 290.04265
CH$SMILES: CC1=CC(=O)C2=C(O1)C3=C(C=C(C(=C3C(=O)O)O)O)OC2
CH$IUPAC: InChI=1S/C14H10O7/c1-5-2-7(15)6-4-20-9-3-8(16)12(17)11(14(18)19)10(9)13(6)21-5/h2-3,16-17H,4H2,1H3,(H,18,19)
CH$LINK: CAS 478-60-4
CH$LINK: PUBCHEM CID:65029
CH$LINK: INCHIKEY PKEPGKZPVDAVKI-UHFFFAOYSA-N
CH$LINK: CHEMSPIDER 58541
CH$LINK: COMPTOX DTXSID60197283
AC$INSTRUMENT: LTQ Orbitrap XL Thermo Scientific
AC$INSTRUMENT_TYPE: LC-ESI-ITFT
AC$MASS_SPECTROMETRY: MS_TYPE MS2
AC$MASS_SPECTROMETRY: ION_MODE NEGATIVE
AC$MASS_SPECTROMETRY: IONIZATION ESI
AC$MASS_SPECTROMETRY: FRAGMENTATION_MODE HCD
AC$MASS_SPECTROMETRY: COLLISION_ENERGY 60 % (nominal)
AC$MASS_SPECTROMETRY: RESOLUTION 7500
AC$CHROMATOGRAPHY: COLUMN_NAME Hypersil GOLD C18 1.9 um 100 x 2.1 mm Thermo Fisher Scientific
AC$CHROMATOGRAPHY: FLOW_GRADIENT 100/0 at 0 min, 0/100 at 30 min, 0/100 at 35 min
AC$CHROMATOGRAPHY: FLOW_RATE 300 uL/min
AC$CHROMATOGRAPHY: RETENTION_TIME 8.700 min
AC$CHROMATOGRAPHY: SOLVENT A water with 5% methanol and 0.1% acetic acid
AC$CHROMATOGRAPHY: SOLVENT B methanol with 0.1% acetic acid
MS$FOCUSED_ION: BASE_PEAK 289.0356
MS$FOCUSED_ION: PRECURSOR_M/Z 289.0354
MS$FOCUSED_ION: PRECURSOR_TYPE [M-H]-
MS$FOCUSED_ION: PRECURSOR_INTENSITY 8472847.195313
MS$DATA_PROCESSING: RECALIBRATE loess on assigned fragments and MS1
MS$DATA_PROCESSING: REANALYZE Peaks with additional N2/O included
MS$DATA_PROCESSING: WHOLE RMassBank 3.2.0
PK$SPLASH: splash10-0002-0190000000-e3f40d1caabba16795ca
PK$ANNOTATION: m/z tentative_formula formula_count mass error(ppm)
  117.0348 C8H5O- 1 117.0346 1.6
  131.0504 C9H7O- 1 131.0502 1.22
  147.0453 C9H7O2- 1 147.0452 1.04
  157.0659 C11H9O- 1 157.0659 0.01
  159.0452 C10H7O2- 1 159.0452 0.5
  173.0607 C11H9O2- 1 173.0608 -0.54
  177.0559 C10H9O3- 1 177.0557 1.15
  183.045 C12H7O2- 1 183.0452 -0.88
  186.0325 C11H6O3- 1 186.0322 1.32
  199.0403 C12H7O3- 1 199.0401 1.39
  201.0557 C12H9O3- 1 201.0557 0.07
  203.0347 C11H7O4- 1 203.035 -1.17
  217.0507 C12H9O4- 1 217.0506 0.52
  227.0349 C13H7O4- 1 227.035 -0.31
  245.0454 C13H9O5- 1 245.0455 -0.45
  289.0351 C14H9O7- 1 289.0354 -0.84
PK$NUM_PEAK: 16
PK$PEAK: m/z int. rel.int.
  117.0348 104874.1 108
  131.0504 9643.9 9
  147.0453 22566.6 23
  157.0659 8829.5 9
  159.0452 18675.6 19
  173.0607 41360.1 42
  177.0559 9714.8 10
  183.045 14279.5 14
  186.0325 6679.9 6
  199.0403 11153.6 11
  201.0557 367222.1 379
  203.0347 4747.6 4
  217.0507 19352.5 20
  227.0349 58764.7 60
  245.0454 966653.1 999
  289.0351 75557.1 78
//
