ACCESSION: MSBNK-HBM4EU-HB003670
RECORD_TITLE: Andrastin A; LC-ESI-ITFT; MS2; CE: 30%; R=7500; [M+H]+
DATE: 2021.10.11
AUTHORS: Laurent Debrauwer, Emilien L. Jamin, Research Centre in Food Toxicology (TOXALIM), INRAE, MetaboHUB-Metatoul platform, Toulouse, France
LICENSE: CC0
COPYRIGHT: Copyright (c) 2021 by Research Centre in Food Toxicology (TOXALIM), INRAE, MetaboHUB-Metatoul platform, Toulouse, France
COMMENT: HBM4EU - science and policy for a healthy future (https://www.hbm4eu.eu)
COMMENT: CONFIDENCE Reference Standard (Level 1)
COMMENT: INTERNAL_ID 64
CH$NAME: Andrastin A
CH$NAME: methyl 3-acetyloxy-10-formyl-4,4,8,12,13,16-hexamethyl-15,17-dioxo-2,3,5,6,7,9-hexahydro-1H-cyclopenta[a]phenanthrene-14-carboxylate
CH$COMPOUND_CLASS: N/A; Environmental Standard
CH$FORMULA: C28H38O7
CH$EXACT_MASS: 486.2618
CH$SMILES: CC1C(=O)C2(C(=CC3C(C2(C1=O)C(=O)OC)(CCC4C3(CCC(C4(C)C)OC(=O)C)C=O)C)C)C
CH$IUPAC: InChI=1S/C28H38O7/c1-15-13-19-25(6,28(23(33)34-8)22(32)16(2)21(31)26(15,28)7)11-9-18-24(4,5)20(35-17(3)30)10-12-27(18,19)14-29/h13-14,16,18-20H,9-12H2,1-8H3
CH$LINK: CAS 174232-42-9
CH$LINK: PUBCHEM CID:3596515
CH$LINK: INCHIKEY GRBXNADBNJGZRK-UHFFFAOYSA-N
CH$LINK: CHEMSPIDER 2832507
AC$INSTRUMENT: LTQ Orbitrap XL Thermo Scientific
AC$INSTRUMENT_TYPE: LC-ESI-ITFT
AC$MASS_SPECTROMETRY: MS_TYPE MS2
AC$MASS_SPECTROMETRY: ION_MODE POSITIVE
AC$MASS_SPECTROMETRY: IONIZATION ESI
AC$MASS_SPECTROMETRY: FRAGMENTATION_MODE HCD
AC$MASS_SPECTROMETRY: COLLISION_ENERGY 30 % (nominal)
AC$MASS_SPECTROMETRY: RESOLUTION 7500
AC$CHROMATOGRAPHY: COLUMN_NAME Hypersil GOLD C18 1.9 um 100 x 2.1 mm Thermo Fisher Scientific
AC$CHROMATOGRAPHY: FLOW_GRADIENT 100/0 at 0 min, 0/100 at 30 min, 0/100 at 35 min
AC$CHROMATOGRAPHY: FLOW_RATE 300 uL/min
AC$CHROMATOGRAPHY: RETENTION_TIME 23.422 min
AC$CHROMATOGRAPHY: SOLVENT A water with 5% methanol and 0.1% acetic acid
AC$CHROMATOGRAPHY: SOLVENT B methanol with 0.1% acetic acid
MS$FOCUSED_ION: BASE_PEAK 487.2703
MS$FOCUSED_ION: PRECURSOR_M/Z 487.269
MS$FOCUSED_ION: PRECURSOR_TYPE [M+H]+
MS$FOCUSED_ION: PRECURSOR_INTENSITY 8750042.074951
MS$DATA_PROCESSING: RECALIBRATE loess on assigned fragments and MS1
MS$DATA_PROCESSING: REANALYZE Peaks with additional N2/O included
MS$DATA_PROCESSING: WHOLE RMassBank 3.2.0
PK$SPLASH: splash10-0006-0390000000-83f7620c290eb579bebd
PK$ANNOTATION: m/z tentative_formula formula_count mass error(ppm)
  151.0395 C8H7O3+ 1 151.039 3.3
  175.1485 C13H19+ 1 175.1481 1.95
  185.1326 C14H17+ 1 185.1325 0.56
  215.179 C16H23+ 1 215.1794 -1.87
  225.1638 C17H21+ 1 225.1638 0.18
  243.1746 C17H23O+ 1 243.1743 1.21
  377.2108 C25H29O3+ 1 377.2111 -0.73
PK$NUM_PEAK: 7
PK$PEAK: m/z int. rel.int.
  151.0395 9382.9 296
  175.1485 2636.4 83
  185.1326 3612.1 114
  215.179 4510.9 142
  225.1638 7696.9 243
  243.1746 31622 999
  377.2108 4300.7 135
//
