ACCESSION: MSBNK-HBM4EU-HB002948
RECORD_TITLE: Ochratoxin B; LC-ESI-ITFT; MS2; CE: 40%; R=7500; [M-H]-
DATE: 2021.10.11
AUTHORS: Laurent Debrauwer, Emilien L. Jamin, Research Centre in Food Toxicology (TOXALIM), INRAE, MetaboHUB-Metatoul platform, Toulouse, France
LICENSE: CC0
COPYRIGHT: Copyright (c) 2021 by Research Centre in Food Toxicology (TOXALIM), INRAE, MetaboHUB-Metatoul platform, Toulouse, France
COMMENT: HBM4EU - science and policy for a healthy future (https://www.hbm4eu.eu)
COMMENT: CONFIDENCE Reference Standard (Level 1)
COMMENT: INTERNAL_ID 2
CH$NAME: Ochratoxin B
CH$NAME: 2-[(8-Hydroxy-3-methyl-1-oxoisochroman-7-carbonyl)amino]-3-phenylpropionic acid
CH$NAME: 2-[(8-hydroxy-3-methyl-1-oxo-3,4-dihydroisochromene-7-carbonyl)amino]-3-phenylpropanoic acid
CH$COMPOUND_CLASS: N/A; Environmental Standard
CH$FORMULA: C20H19NO6
CH$EXACT_MASS: 369.1212
CH$SMILES: CC1CC2=C(C(=C(C=C2)C(=O)NC(CC3=CC=CC=C3)C(=O)O)O)C(=O)O1
CH$IUPAC: InChI=1S/C20H19NO6/c1-11-9-13-7-8-14(17(22)16(13)20(26)27-11)18(23)21-15(19(24)25)10-12-5-3-2-4-6-12/h2-8,11,15,22H,9-10H2,1H3,(H,21,23)(H,24,25)
CH$LINK: CAS 4825-86-9
CH$LINK: PUBCHEM CID:609663
CH$LINK: INCHIKEY DAEYIVCTQUFNTM-UHFFFAOYSA-N
CH$LINK: CHEMSPIDER 529965
AC$INSTRUMENT: LTQ Orbitrap XL Thermo Scientific
AC$INSTRUMENT_TYPE: LC-ESI-ITFT
AC$MASS_SPECTROMETRY: MS_TYPE MS2
AC$MASS_SPECTROMETRY: ION_MODE NEGATIVE
AC$MASS_SPECTROMETRY: IONIZATION ESI
AC$MASS_SPECTROMETRY: FRAGMENTATION_MODE HCD
AC$MASS_SPECTROMETRY: COLLISION_ENERGY 40 % (nominal)
AC$MASS_SPECTROMETRY: RESOLUTION 7500
AC$CHROMATOGRAPHY: COLUMN_NAME Hypersil GOLD C18 1.9 um 100 x 2.1 mm Thermo Fisher Scientific
AC$CHROMATOGRAPHY: FLOW_GRADIENT 100/0 at 0 min, 0/100 at 30 min, 0/100 at 35 min
AC$CHROMATOGRAPHY: FLOW_RATE 300 uL/min
AC$CHROMATOGRAPHY: RETENTION_TIME 19.397 min
AC$CHROMATOGRAPHY: SOLVENT A water with 5% methanol and 0.1% acetic acid
AC$CHROMATOGRAPHY: SOLVENT B methanol with 0.1% acetic acid
MS$FOCUSED_ION: BASE_PEAK 368.114
MS$FOCUSED_ION: PRECURSOR_M/Z 368.114
MS$FOCUSED_ION: PRECURSOR_TYPE [M-H]-
MS$FOCUSED_ION: PRECURSOR_INTENSITY 94825848.57129
MS$DATA_PROCESSING: RECALIBRATE loess on assigned fragments and MS1
MS$DATA_PROCESSING: REANALYZE Peaks with additional N2/O included
MS$DATA_PROCESSING: WHOLE RMassBank 3.2.0
PK$SPLASH: splash10-014i-0009000000-b4b3a99987190ebca07e
PK$ANNOTATION: m/z tentative_formula formula_count mass error(ppm)
  324.1246 C19H18NO4- 1 324.1241 1.42
  368.1136 C20H18NO6- 1 368.114 -0.92
PK$NUM_PEAK: 2
PK$PEAK: m/z int. rel.int.
  324.1246 82075.4 4
  368.1136 18922212 999
//
