ACCESSION: MSBNK-HBM4EU-HB001726
RECORD_TITLE: Sulfamoxole; LC-ESI-ITFT; MS2; CE: 75%; R=15000; [M+H]+
DATE: 2018.09.08
AUTHORS: Tobias Schulze, Carolin Huber, Martin Krauss, Department of Effect-Directed Analysis, Helmholtz Centre for Environmental Research GmbH - UFZ, Leipzig, Germany
LICENSE: CC0
COPYRIGHT: Copyright (C) 2018
PUBLICATION: Oberacher H, Sasse M, Antignac J-P, Guitton Y, Debrauwer L, Jamin E L, Schulze T, Krauss M, Covaci A, Caballero-Casero N, Rosseau K, Damont A, Fenaille F, Lamoree M, Schymanski E, A European proposal for quality control and quality assurance of tandem mass spectral libraries, Environmental Sciences Europe, https://doi.org/10.1186/s12302-020-00314-9
COMMENT: CONFIDENCE Reference Standard (Level 1)
COMMENT: HBM4EU - science and policy for a healthy future (https://www.hbm4eu.eu)
CH$NAME: Sulfamoxole
CH$NAME: 4-amino-N-(4,5-dimethyl-1,3-oxazol-2-yl)benzenesulfonamide
CH$COMPOUND_CLASS: N/A; Environmental Standard
CH$FORMULA: C11H13N3O3S
CH$EXACT_MASS: 267.0678
CH$SMILES: CC1=C(OC(=N1)NS(=O)(=O)C2=CC=C(C=C2)N)C
CH$IUPAC: InChI=1S/C11H13N3O3S/c1-7-8(2)17-11(13-7)14-18(15,16)10-5-3-9(12)4-6-10/h3-6H,12H2,1-2H3,(H,13,14)
CH$LINK: CAS 729-99-7
CH$LINK: CHEBI CHEBI:55548
CH$LINK: KEGG D02516
CH$LINK: PUBCHEM CID:12894
CH$LINK: INCHIKEY CYFLXLSBHQBMFT-UHFFFAOYSA-N
CH$LINK: CHEMSPIDER 12361
AC$INSTRUMENT: LTQ Orbitrap XL Thermo Scientific
AC$INSTRUMENT_TYPE: LC-ESI-ITFT
AC$MASS_SPECTROMETRY: MS_TYPE MS2
AC$MASS_SPECTROMETRY: ION_MODE POSITIVE
AC$MASS_SPECTROMETRY: IONIZATION ESI
AC$MASS_SPECTROMETRY: FRAGMENTATION_MODE HCD
AC$MASS_SPECTROMETRY: COLLISION_ENERGY 75% (nominal)
AC$MASS_SPECTROMETRY: RESOLUTION 15000
AC$CHROMATOGRAPHY: COLUMN_NAME Kinetex Evo C18 2.6 um 50 x 2.1 mm
AC$CHROMATOGRAPHY: FLOW_GRADIENT 95/5 at 0 min, 95/5 at 1 min, 0/100 at 13 min, 0/100 at 24 min, 95/5 at 24.3 min, 95/5 at 32 min
AC$CHROMATOGRAPHY: FLOW_RATE 300 uL/min
AC$CHROMATOGRAPHY: RETENTION_TIME 4.011 min
AC$CHROMATOGRAPHY: SOLVENT A water with 0.1% formic acid
AC$CHROMATOGRAPHY: SOLVENT B methanol with 0.1% formic acid
MS$FOCUSED_ION: BASE_PEAK 268.0748
MS$FOCUSED_ION: PRECURSOR_M/Z 268.075
MS$FOCUSED_ION: PRECURSOR_TYPE [M+H]+
MS$DATA_PROCESSING: RECALIBRATE loess on assigned fragments and MS1
MS$DATA_PROCESSING: REANALYZE Peaks with additional N2/O included
MS$DATA_PROCESSING: WHOLE RMassBank 2.9.1
PK$SPLASH: splash10-06r6-8900000000-9c617cdc48896fe7e3cb
PK$ANNOTATION: m/z tentative_formula formula_count mass error(ppm)
  54.0336 C3H4N+ 1 54.0338 -4.49
  65.0384 C5H5+ 1 65.0386 -2.17
  69.0572 C4H7N+ 1 69.0573 -2.02
  70.065 C4H8N+ 1 70.0651 -1.49
  80.0495 C5H6N+ 1 80.0495 -0.27
  92.0495 C6H6N+ 1 92.0495 0.14
  93.0574 C6H7N+ 1 93.0573 1
  94.065 C6H8N+ 1 94.0651 -1.62
  108.0444 C6H6NO+ 1 108.0444 0.02
  110.06 C6H8NO+ 1 110.06 -0.15
  111.0554 C5H7N2O+ 1 111.0553 0.59
  112.0631 C5H8N2O+ 1 112.0631 0.05
  113.0709 C5H9N2O+ 1 113.0709 -0.13
  120.0558 C6H6N3+ 2 120.0556 1.33
  140.0165 C6H6NOS+ 1 140.0165 0.57
  156.0114 C6H6NO2S+ 1 156.0114 -0.08
PK$NUM_PEAK: 16
PK$PEAK: m/z int. rel.int.
  54.0336 7543.2 17
  65.0384 65604.1 151
  69.0572 10730.8 24
  70.065 34289.4 79
  80.0495 6422 14
  92.0495 433539.5 999
  93.0574 1437 3
  94.065 1277.3 2
  108.0444 289510.7 667
  110.06 38597.9 88
  111.0554 15182.2 34
  112.0631 55459.5 127
  113.0709 187910.6 433
  120.0558 7235.3 16
  140.0165 16640.2 38
  156.0114 17644.9 40
//
