ACCESSION: MSBNK-HBM4EU-HB003464
RECORD_TITLE: Butyrolactone II; LC-ESI-ITFT; MS2; CE: 50%; R=7500; [M-H]-
DATE: 2021.10.11
AUTHORS: Laurent Debrauwer, Emilien L. Jamin, Research Centre in Food Toxicology (TOXALIM), INRAE, MetaboHUB-Metatoul platform, Toulouse, France
LICENSE: CC0
COPYRIGHT: Copyright (c) 2021 by Research Centre in Food Toxicology (TOXALIM), INRAE, MetaboHUB-Metatoul platform, Toulouse, France
COMMENT: HBM4EU - science and policy for a healthy future (https://www.hbm4eu.eu)
COMMENT: CONFIDENCE Reference Standard (Level 1)
COMMENT: INTERNAL_ID 138
CH$NAME: Butyrolactone II
CH$NAME: methyl 4-hydroxy-3-(4-hydroxyphenyl)-2-[(4-hydroxyphenyl)methyl]-5-oxofuran-2-carboxylate
CH$COMPOUND_CLASS: N/A; Environmental Standard
CH$FORMULA: C19H16O7
CH$EXACT_MASS: 356.08960
CH$SMILES: COC(=O)C1(C(=C(C(=O)O1)O)C2=CC=C(C=C2)O)CC3=CC=C(C=C3)O
CH$IUPAC: InChI=1S/C19H16O7/c1-25-18(24)19(10-11-2-6-13(20)7-3-11)15(16(22)17(23)26-19)12-4-8-14(21)9-5-12/h2-9,20-22H,10H2,1H3
CH$LINK: CAS 87414-44-6
CH$LINK: PUBCHEM CID:16745402
CH$LINK: INCHIKEY AEKPZNDJHWFONI-UHFFFAOYSA-N
CH$LINK: CHEMSPIDER 20576636
AC$INSTRUMENT: LTQ Orbitrap XL Thermo Scientific
AC$INSTRUMENT_TYPE: LC-ESI-ITFT
AC$MASS_SPECTROMETRY: MS_TYPE MS2
AC$MASS_SPECTROMETRY: ION_MODE NEGATIVE
AC$MASS_SPECTROMETRY: IONIZATION ESI
AC$MASS_SPECTROMETRY: FRAGMENTATION_MODE HCD
AC$MASS_SPECTROMETRY: COLLISION_ENERGY 50 % (nominal)
AC$MASS_SPECTROMETRY: RESOLUTION 7500
AC$CHROMATOGRAPHY: COLUMN_NAME Hypersil GOLD C18 1.9 um 100 x 2.1 mm Thermo Fisher Scientific
AC$CHROMATOGRAPHY: FLOW_GRADIENT 100/0 at 0 min, 0/100 at 30 min, 0/100 at 35 min
AC$CHROMATOGRAPHY: FLOW_RATE 300 uL/min
AC$CHROMATOGRAPHY: RETENTION_TIME 15.759 min
AC$CHROMATOGRAPHY: SOLVENT A water with 5% methanol and 0.1% acetic acid
AC$CHROMATOGRAPHY: SOLVENT B methanol with 0.1% acetic acid
MS$FOCUSED_ION: BASE_PEAK 711.1693
MS$FOCUSED_ION: PRECURSOR_M/Z 355.0823
MS$FOCUSED_ION: PRECURSOR_TYPE [M-H]-
MS$FOCUSED_ION: PRECURSOR_INTENSITY 18730409.33447
MS$DATA_PROCESSING: RECALIBRATE loess on assigned fragments and MS1
MS$DATA_PROCESSING: REANALYZE Peaks with additional N2/O included
MS$DATA_PROCESSING: WHOLE RMassBank 3.2.0
PK$SPLASH: splash10-0002-0090000000-dbecadf90963f2c3fa6c
PK$ANNOTATION: m/z tentative_formula formula_count mass error(ppm)
  145.0292 C9H5O2- 1 145.0295 -1.98
  189.0187 C10H5O4- 1 189.0193 -3.57
  203.0344 C11H7O4- 1 203.035 -2.67
  204.0421 C11H8O4- 1 204.0428 -3.59
  205.0133 C10H5O5- 1 205.0142 -4.46
  205.05 C11H9O4- 1 205.0506 -3.08
  206.0172 C17H2- 1 206.0162 5
  223.076 C15H11O2- 1 223.0765 -1.91
  249.0397 C12H9O6- 1 249.0405 -3.05
  251.0704 C16H11O3- 1 251.0714 -3.96
  279.0656 C17H11O4- 1 279.0663 -2.5
  283.0974 C17H15O4- 1 283.0976 -0.67
  295.0603 C17H11O5- 1 295.0612 -2.93
  296.0677 C17H12O5- 1 296.069 -4.51
PK$NUM_PEAK: 14
PK$PEAK: m/z int. rel.int.
  145.0292 18955.6 11
  189.0187 43119.8 27
  203.0344 7629.4 4
  204.0421 194731.2 123
  205.0133 12740 8
  205.05 59331.1 37
  206.0172 11809.3 7
  223.076 17845.8 11
  249.0397 184968.7 116
  251.0704 55058.3 34
  279.0656 4757.9 3
  283.0974 17333.9 10
  295.0603 19072.5 12
  296.0677 1579503.2 999
//
