ACCESSION: MSBNK-HBM4EU-HB001607
RECORD_TITLE: Sulfamethoxazole; LC-ESI-ITFT; MS2; CE: 20%; R=15000; [M+H]+
DATE: 2018.09.08
AUTHORS: Tobias Schulze, Carolin Huber, Martin Krauss, Department of Effect-Directed Analysis, Helmholtz Centre for Environmental Research GmbH - UFZ, Leipzig, Germany
LICENSE: CC0
COPYRIGHT: Copyright (C) 2018
PUBLICATION: Oberacher H, Sasse M, Antignac J-P, Guitton Y, Debrauwer L, Jamin E L, Schulze T, Krauss M, Covaci A, Caballero-Casero N, Rosseau K, Damont A, Fenaille F, Lamoree M, Schymanski E, A European proposal for quality control and quality assurance of tandem mass spectral libraries, Environmental Sciences Europe, https://doi.org/10.1186/s12302-020-00314-9
COMMENT: CONFIDENCE Reference Standard (Level 1)
COMMENT: HBM4EU - science and policy for a healthy future (https://www.hbm4eu.eu)
CH$NAME: Sulfamethoxazole
CH$NAME: 4-amino-N-(5-methyl-1,2-oxazol-3-yl)benzenesulfonamide
CH$COMPOUND_CLASS: N/A; Environmental Standard
CH$FORMULA: C10H11N3O3S
CH$EXACT_MASS: 253.0521
CH$SMILES: CC1=CC(=NO1)NS(=O)(=O)C2=CC=C(C=C2)N
CH$IUPAC: InChI=1S/C10H11N3O3S/c1-7-6-10(12-16-7)13-17(14,15)9-4-2-8(11)3-5-9/h2-6H,11H2,1H3,(H,12,13)
CH$LINK: CAS 723-46-6
CH$LINK: CHEBI CHEBI:9332
CH$LINK: KEGG D00447
CH$LINK: PUBCHEM CID:5329
CH$LINK: INCHIKEY JLKIGFTWXXRPMT-UHFFFAOYSA-N
CH$LINK: CHEMSPIDER 5138
AC$INSTRUMENT: LTQ Orbitrap XL Thermo Scientific
AC$INSTRUMENT_TYPE: LC-ESI-ITFT
AC$MASS_SPECTROMETRY: MS_TYPE MS2
AC$MASS_SPECTROMETRY: ION_MODE POSITIVE
AC$MASS_SPECTROMETRY: IONIZATION ESI
AC$MASS_SPECTROMETRY: FRAGMENTATION_MODE CID
AC$MASS_SPECTROMETRY: COLLISION_ENERGY 20% (nominal)
AC$MASS_SPECTROMETRY: RESOLUTION 15000
AC$CHROMATOGRAPHY: COLUMN_NAME Kinetex Evo C18 2.6 um 50 x 2.1 mm
AC$CHROMATOGRAPHY: FLOW_GRADIENT 95/5 at 0 min, 95/5 at 1 min, 0/100 at 13 min, 0/100 at 24 min, 95/5 at 24.3 min, 95/5 at 32 min
AC$CHROMATOGRAPHY: FLOW_RATE 300 uL/min
AC$CHROMATOGRAPHY: RETENTION_TIME 5.487 min
AC$CHROMATOGRAPHY: SOLVENT A water with 0.1% formic acid
AC$CHROMATOGRAPHY: SOLVENT B methanol with 0.1% formic acid
MS$FOCUSED_ION: BASE_PEAK 189.102
MS$FOCUSED_ION: PRECURSOR_M/Z 254.0594
MS$FOCUSED_ION: PRECURSOR_TYPE [M+H]+
MS$DATA_PROCESSING: RECALIBRATE loess on assigned fragments and MS1
MS$DATA_PROCESSING: REANALYZE Peaks with additional N2/O included
MS$DATA_PROCESSING: WHOLE RMassBank 2.9.1
PK$SPLASH: splash10-0udi-0590000000-ac50511d096e510bfb3a
PK$ANNOTATION: m/z tentative_formula formula_count mass error(ppm)
  92.0495 C6H6N+ 1 92.0495 0.42
  93.0574 C6H7N+ 1 93.0573 0.71
  94.0652 C6H8N+ 1 94.0651 0.43
  99.0554 C4H7N2O+ 1 99.0553 0.72
  107.0605 C6H7N2+ 1 107.0604 0.99
  108.0444 C6H6NO+ 1 108.0444 0.31
  131.0606 C8H7N2+ 1 131.0604 1.4
  146.0714 C8H8N3+ 1 146.0713 0.55
  147.0792 C8H9N3+ 1 147.0791 0.54
  148.0869 C8H10N3+ 1 148.0869 -0.2
  156.0114 C6H6NO2S+ 1 156.0114 0.44
  160.0869 C9H10N3+ 1 160.0869 0.13
  161.0014 C4H5N2O3S+ 1 161.0015 -0.69
  161.0709 C9H9N2O+ 1 161.0709 -0.23
  172.087 C10H10N3+ 1 172.0869 0.29
  176.0277 C8H6N3S+ 1 176.0277 0.12
  177.0116 C8H5N2OS+ 1 177.0117 -0.63
  188.082 C10H10N3O+ 1 188.0818 0.63
  190.0975 C10H12N3O+ 1 190.0975 0.13
  194.0383 C8H8N3OS+ 1 194.0383 0.26
  236.0489 C10H10N3O2S+ 1 236.0488 0.22
  254.0594 C10H12N3O3S+ 1 254.0594 0.12
PK$NUM_PEAK: 22
PK$PEAK: m/z int. rel.int.
  92.0495 40273.2 15
  93.0574 9606.9 3
  94.0652 12269.6 4
  99.0554 8391.1 3
  107.0605 10146.1 3
  108.0444 85385.1 31
  131.0606 2820.8 1
  146.0714 56788 21
  147.0792 231996.5 86
  148.0869 55914.6 20
  156.0114 406537 152
  160.0869 163560.2 61
  161.0014 3354.2 1
  161.0709 3474.2 1
  172.087 5302.9 1
  176.0277 13294 4
  177.0116 2910.8 1
  188.082 388756.8 145
  190.0975 146755.9 54
  194.0383 152260.1 56
  236.0489 15848 5
  254.0594 2669500.8 999
//
