ACCESSION: MSBNK-HBM4EU-HB000221
RECORD_TITLE: Nylidrin; LC-ESI-ITFT; MS2; CE: 70%; R=15000; [M+H]+
DATE: 2018.09.08
AUTHORS: Tobias Schulze, Carolin Huber, Martin Krauss, Department of Effect-Directed Analysis, Helmholtz Centre for Environmental Research GmbH - UFZ, Leipzig, Germany
LICENSE: CC0
COPYRIGHT: Copyright (C) 2018
PUBLICATION: Oberacher H, Sasse M, Antignac J-P, Guitton Y, Debrauwer L, Jamin E L, Schulze T, Krauss M, Covaci A, Caballero-Casero N, Rosseau K, Damont A, Fenaille F, Lamoree M, Schymanski E, A European proposal for quality control and quality assurance of tandem mass spectral libraries, Environmental Sciences Europe, https://doi.org/10.1186/s12302-020-00314-9
COMMENT: CONFIDENCE Reference Standard (Level 1)
COMMENT: HBM4EU - science and policy for a healthy future (https://www.hbm4eu.eu)
CH$NAME: Nylidrin
CH$NAME: 4-[1-hydroxy-2-(4-phenylbutan-2-ylamino)propyl]phenol
CH$COMPOUND_CLASS: N/A; Environmental Standard
CH$FORMULA: C19H25NO2
CH$EXACT_MASS: 299.1885
CH$SMILES: CC(CCC1=CC=CC=C1)NC(C)C(C2=CC=C(C=C2)O)O
CH$IUPAC: InChI=1S/C19H25NO2/c1-14(8-9-16-6-4-3-5-7-16)20-15(2)19(22)17-10-12-18(21)13-11-17/h3-7,10-15,19-22H,8-9H2,1-2H3
CH$LINK: CAS 447-41-6
CH$LINK: CHEBI CHEBI:91656
CH$LINK: KEGG D07551
CH$LINK: PUBCHEM CID:4567
CH$LINK: INCHIKEY PTGXAUBQBSGPKF-UHFFFAOYSA-N
CH$LINK: CHEMSPIDER 4407
AC$INSTRUMENT: LTQ Orbitrap XL Thermo Scientific
AC$INSTRUMENT_TYPE: LC-ESI-ITFT
AC$MASS_SPECTROMETRY: MS_TYPE MS2
AC$MASS_SPECTROMETRY: ION_MODE POSITIVE
AC$MASS_SPECTROMETRY: IONIZATION ESI
AC$MASS_SPECTROMETRY: FRAGMENTATION_MODE HCD
AC$MASS_SPECTROMETRY: COLLISION_ENERGY 70% (nominal)
AC$MASS_SPECTROMETRY: RESOLUTION 15000
AC$CHROMATOGRAPHY: COLUMN_NAME Kinetex Evo C18 2.6 um 50 x 2.1 mm
AC$CHROMATOGRAPHY: FLOW_GRADIENT 95/5 at 0 min, 95/5 at 1 min, 0/100 at 13 min, 0/100 at 24 min, 95/5 at 24.3 min, 95/5 at 32 min
AC$CHROMATOGRAPHY: FLOW_RATE 300 uL/min
AC$CHROMATOGRAPHY: RETENTION_TIME 6.879 min
AC$CHROMATOGRAPHY: SOLVENT A water with 0.1% formic acid
AC$CHROMATOGRAPHY: SOLVENT B methanol with 0.1% formic acid
MS$FOCUSED_ION: BASE_PEAK 300.1958
MS$FOCUSED_ION: PRECURSOR_M/Z 300.1958
MS$FOCUSED_ION: PRECURSOR_TYPE [M+H]+
MS$DATA_PROCESSING: RECALIBRATE loess on assigned fragments and MS1
MS$DATA_PROCESSING: REANALYZE Peaks with additional N2/O included
MS$DATA_PROCESSING: WHOLE RMassBank 2.9.1
PK$SPLASH: splash10-0006-6900000000-1c9f484a778370b2f8c0
PK$ANNOTATION: m/z tentative_formula formula_count mass error(ppm)
  79.0541 C6H7+ 1 79.0542 -1.69
  81.0697 C6H9+ 1 81.0699 -2.53
  91.0542 C7H7+ 1 91.0542 -0.59
  95.049 C6H7O+ 1 95.0491 -1.68
  103.0543 C8H7+ 1 103.0542 0.5
  105.0698 C8H9+ 1 105.0699 -0.49
  107.0491 C7H7O+ 1 107.0491 -0.8
  109.0648 C7H9O+ 1 109.0648 -0.18
  115.0543 C9H7+ 1 115.0542 0.91
  131.0489 C9H7O+ 1 131.0491 -1.93
  132.0804 C9H10N+ 1 132.0808 -2.54
  133.0648 C9H9O+ 1 133.0648 -0.3
  135.0677 C8H9NO+ 1 135.0679 -1.07
  135.0804 C9H11O+ 1 135.0804 0.03
  143.0604 C9H7N2+ 1 143.0604 0.17
  150.0913 C9H12NO+ 1 150.0913 -0.56
  151.075 C9H11O2+ 1 151.0754 -2.34
PK$NUM_PEAK: 17
PK$PEAK: m/z int. rel.int.
  79.0541 100886.6 9
  81.0697 41147.4 3
  91.0542 11090411 999
  95.049 73437.4 6
  103.0543 109706.9 9
  105.0698 5311433.5 478
  107.0491 364108.1 32
  109.0648 331935.7 29
  115.0543 110265.9 9
  131.0489 38412.8 3
  132.0804 55763.5 5
  133.0648 5212968 469
  135.0677 377900.5 34
  135.0804 163454.4 14
  143.0604 44030.5 3
  150.0913 4129911.8 372
  151.075 64574.9 5
//
