ACCESSION: MSBNK-HBM4EU-HB001950
RECORD_TITLE: Tetracycline; LC-ESI-ITFT; MS2; CE: 155%; R=15000; [M+H]+
DATE: 2018.09.08
AUTHORS: Tobias Schulze, Carolin Huber, Martin Krauss, Department of Effect-Directed Analysis, Helmholtz Centre for Environmental Research GmbH - UFZ, Leipzig, Germany
LICENSE: CC0
COPYRIGHT: Copyright (C) 2018
PUBLICATION: Oberacher H, Sasse M, Antignac J-P, Guitton Y, Debrauwer L, Jamin E L, Schulze T, Krauss M, Covaci A, Caballero-Casero N, Rosseau K, Damont A, Fenaille F, Lamoree M, Schymanski E, A European proposal for quality control and quality assurance of tandem mass spectral libraries, Environmental Sciences Europe, https://doi.org/10.1186/s12302-020-00314-9
COMMENT: CONFIDENCE Reference Standard (Level 1)
COMMENT: HBM4EU - science and policy for a healthy future (https://www.hbm4eu.eu)
CH$NAME: Tetracycline
CH$NAME: 2-[amino(hydroxy)methylidene]-4-(dimethylamino)-6,10,11,12a-tetrahydroxy-6-methyl-4,4a,5,5a-tetrahydrotetracene-1,3,12-trione
CH$COMPOUND_CLASS: N/A; Environmental Standard
CH$FORMULA: C22H24N2O8
CH$EXACT_MASS: 444.1533
CH$SMILES: [H][C@@]12C[C@@]3([H])C(=C(O)[C@]1(O)C(=O)C(C(N)=O)=C(O)[C@H]2N(C)C)C(=O)C1=C(C=CC=C1O)[C@@]3(C)O
CH$IUPAC: InChI=1S/C22H24N2O8/c1-21(31)8-5-4-6-11(25)12(8)16(26)13-9(21)7-10-15(24(2)3)17(27)14(20(23)30)19(29)22(10,32)18(13)28/h4-6,9-10,15,25,27-28,31-32H,7H2,1-3H3,(H2,23,30)/t9-,10-,15-,21+,22-/m0/s1
CH$LINK: CAS 60-54-8
CH$LINK: INCHIKEY OFVLGDICTFRJMM-WESIUVDSSA-N
CH$LINK: CHEMSPIDER 10257122
CH$LINK: COMPTOX DTXSID7023645
AC$INSTRUMENT: LTQ Orbitrap XL Thermo Scientific
AC$INSTRUMENT_TYPE: LC-ESI-ITFT
AC$MASS_SPECTROMETRY: MS_TYPE MS2
AC$MASS_SPECTROMETRY: ION_MODE POSITIVE
AC$MASS_SPECTROMETRY: IONIZATION ESI
AC$MASS_SPECTROMETRY: FRAGMENTATION_MODE HCD
AC$MASS_SPECTROMETRY: COLLISION_ENERGY 155% (nominal)
AC$MASS_SPECTROMETRY: RESOLUTION 15000
AC$CHROMATOGRAPHY: COLUMN_NAME Kinetex Evo C18 2.6 um 50 x 2.1 mm
AC$CHROMATOGRAPHY: FLOW_GRADIENT 95/5 at 0 min, 95/5 at 1 min, 0/100 at 13 min, 0/100 at 24 min, 95/5 at 24.3 min, 95/5 at 32 min
AC$CHROMATOGRAPHY: FLOW_RATE 300 uL/min
AC$CHROMATOGRAPHY: RETENTION_TIME 2.750 min
AC$CHROMATOGRAPHY: SOLVENT A water with 0.1% formic acid
AC$CHROMATOGRAPHY: SOLVENT B methanol with 0.1% formic acid
MS$FOCUSED_ION: BASE_PEAK 300.1475
MS$FOCUSED_ION: PRECURSOR_M/Z 445.1605
MS$FOCUSED_ION: PRECURSOR_TYPE [M+H]+
MS$DATA_PROCESSING: RECALIBRATE loess on assigned fragments and MS1
MS$DATA_PROCESSING: REANALYZE Peaks with additional N2/O included
MS$DATA_PROCESSING: WHOLE RMassBank 2.9.1
PK$SPLASH: splash10-0uxr-0900000000-33a0a3247f7d3f28157b
PK$ANNOTATION: m/z tentative_formula formula_count mass error(ppm)
  115.0539 C9H7+ 1 115.0542 -2.48
  139.0542 C11H7+ 1 139.0542 0.08
  140.062 C11H8+ 1 140.0621 -0.26
  141.0694 C11H9+ 1 141.0699 -3.3
  151.0542 C12H7+ 1 151.0542 -0.01
  152.0622 C12H8+ 1 152.0621 1.01
  163.0543 C13H7+ 1 163.0542 0.36
  165.0701 C13H9+ 1 165.0699 1.38
  168.0572 C12H8O+ 1 168.057 1.15
  176.0616 C14H8+ 1 176.0621 -2.58
  180.0575 C13H8O+ 1 180.057 2.98
PK$NUM_PEAK: 11
PK$PEAK: m/z int. rel.int.
  115.0539 2191.4 197
  139.0542 6411.1 577
  140.062 2912 262
  141.0694 1373 123
  151.0542 2375.3 213
  152.0622 11097 999
  163.0543 1666.7 150
  165.0701 3484.7 313
  168.0572 2238.7 201
  176.0616 2592 233
  180.0575 1055.4 95
//
