ACCESSION: MSBNK-HBM4EU-HB001620
RECORD_TITLE: Sulfamethoxazole; LC-ESI-ITFT; MS2; CE: 65%; R=15000; [M+H]+
DATE: 2018.09.08
AUTHORS: Tobias Schulze, Carolin Huber, Martin Krauss, Department of Effect-Directed Analysis, Helmholtz Centre for Environmental Research GmbH - UFZ, Leipzig, Germany
LICENSE: CC0
COPYRIGHT: Copyright (C) 2018
PUBLICATION: Oberacher H, Sasse M, Antignac J-P, Guitton Y, Debrauwer L, Jamin E L, Schulze T, Krauss M, Covaci A, Caballero-Casero N, Rosseau K, Damont A, Fenaille F, Lamoree M, Schymanski E, A European proposal for quality control and quality assurance of tandem mass spectral libraries, Environmental Sciences Europe, https://doi.org/10.1186/s12302-020-00314-9
COMMENT: CONFIDENCE Reference Standard (Level 1)
COMMENT: HBM4EU - science and policy for a healthy future (https://www.hbm4eu.eu)
CH$NAME: Sulfamethoxazole
CH$NAME: 4-amino-N-(5-methyl-1,2-oxazol-3-yl)benzenesulfonamide
CH$COMPOUND_CLASS: N/A; Environmental Standard
CH$FORMULA: C10H11N3O3S
CH$EXACT_MASS: 253.0521
CH$SMILES: CC1=CC(=NO1)NS(=O)(=O)C2=CC=C(C=C2)N
CH$IUPAC: InChI=1S/C10H11N3O3S/c1-7-6-10(12-16-7)13-17(14,15)9-4-2-8(11)3-5-9/h2-6H,11H2,1H3,(H,12,13)
CH$LINK: CAS 723-46-6
CH$LINK: CHEBI CHEBI:9332
CH$LINK: KEGG D00447
CH$LINK: PUBCHEM CID:5329
CH$LINK: INCHIKEY JLKIGFTWXXRPMT-UHFFFAOYSA-N
CH$LINK: CHEMSPIDER 5138
AC$INSTRUMENT: LTQ Orbitrap XL Thermo Scientific
AC$INSTRUMENT_TYPE: LC-ESI-ITFT
AC$MASS_SPECTROMETRY: MS_TYPE MS2
AC$MASS_SPECTROMETRY: ION_MODE POSITIVE
AC$MASS_SPECTROMETRY: IONIZATION ESI
AC$MASS_SPECTROMETRY: FRAGMENTATION_MODE HCD
AC$MASS_SPECTROMETRY: COLLISION_ENERGY 65% (nominal)
AC$MASS_SPECTROMETRY: RESOLUTION 15000
AC$CHROMATOGRAPHY: COLUMN_NAME Kinetex Evo C18 2.6 um 50 x 2.1 mm
AC$CHROMATOGRAPHY: FLOW_GRADIENT 95/5 at 0 min, 95/5 at 1 min, 0/100 at 13 min, 0/100 at 24 min, 95/5 at 24.3 min, 95/5 at 32 min
AC$CHROMATOGRAPHY: FLOW_RATE 300 uL/min
AC$CHROMATOGRAPHY: RETENTION_TIME 5.604 min
AC$CHROMATOGRAPHY: SOLVENT A water with 0.1% formic acid
AC$CHROMATOGRAPHY: SOLVENT B methanol with 0.1% formic acid
MS$FOCUSED_ION: BASE_PEAK 189.1022
MS$FOCUSED_ION: PRECURSOR_M/Z 254.0594
MS$FOCUSED_ION: PRECURSOR_TYPE [M+H]+
MS$DATA_PROCESSING: RECALIBRATE loess on assigned fragments and MS1
MS$DATA_PROCESSING: REANALYZE Peaks with additional N2/O included
MS$DATA_PROCESSING: WHOLE RMassBank 2.9.1
PK$SPLASH: splash10-052f-9700000000-969a8f39bea4a7eae57b
PK$ANNOTATION: m/z tentative_formula formula_count mass error(ppm)
  65.0384 C5H5+ 1 65.0386 -2.34
  68.0494 C4H6N+ 1 68.0495 -0.54
  72.0442 C3H6NO+ 1 72.0444 -2.42
  80.0495 C5H6N+ 1 80.0495 -0.18
  92.0495 C6H6N+ 1 92.0495 0.14
  93.0573 C6H7N+ 1 93.0573 -0.46
  94.0651 C6H8N+ 1 94.0651 0.17
  99.0553 C4H7N2O+ 1 99.0553 0.01
  107.0604 C6H7N2+ 1 107.0604 0.43
  108.0444 C6H6NO+ 1 108.0444 -0.09
  110.06 C6H8NO+ 1 110.06 -0.36
  120.0556 C6H6N3+ 1 120.0556 -0.08
  121.0762 C7H9N2+ 1 121.076 1.29
  131.0604 C8H7N2+ 1 131.0604 0.06
  132.0681 C8H8N2+ 1 132.0682 -0.99
  146.0713 C8H8N3+ 1 146.0713 0.01
  147.0791 C8H9N3+ 1 147.0791 0.01
  148.087 C8H10N3+ 1 148.0869 0.2
  156.0114 C6H6NO2S+ 1 156.0114 0.01
  160.0869 C9H10N3+ 1 160.0869 -0.09
  161.0015 C4H5N2O3S+ 1 161.0015 -0.42
  173.0584 C9H7N3O+ 1 173.0584 0.18
  176.0277 C8H6N3S+ 1 176.0277 -0.22
PK$NUM_PEAK: 23
PK$PEAK: m/z int. rel.int.
  65.0384 62026.8 100
  68.0494 1312.7 2
  72.0442 3462.6 5
  80.0495 9880.4 15
  92.0495 616986.8 999
  93.0573 112029.5 181
  94.0651 5773.2 9
  99.0553 104924.1 169
  107.0604 15500 25
  108.0444 478644.6 775
  110.06 38178 61
  120.0556 13021.3 21
  121.0762 1484 2
  131.0604 1996.9 3
  132.0681 1505.4 2
  146.0713 17525.2 28
  147.0791 35378.3 57
  148.087 2315.3 3
  156.0114 100667.8 162
  160.0869 41348.9 66
  161.0015 3688.5 5
  173.0584 1246.9 2
  176.0277 1341.4 2
//
