ACCESSION: MSBNK-HBM4EU-HB002644
RECORD_TITLE: Desipramine; ESI-QTOF; MS2; CE: 30eV; R=15000; [M+H]+
DATE: 2020.02.20
AUTHORS: Herbert Oberacher, Institute of Legal Medicine and Core Facility Metabolomics, Medical University of Innsbruck, Innsbruck, Austria
LICENSE: CC0
COPYRIGHT: Copyright (c) 2020 by Institute of Legal Medicine and Core Facility Metabolomics, Medical University of Innsbruck, Innsbruck, Austria
PUBLICATION: Oberacher H, Sasse M, Antignac J-P, Guitton Y, Debrauwer L, Jamin E L, Schulze T, Krauss M, Covaci A, Caballero-Casero N, Rosseau K, Damont A, Fenaille F, Lamoree M, Schymanski E, A European proposal for quality control and quality assurance of tandem mass spectral libraries, Environmental Sciences Europe, https://doi.org/10.1186/s12302-020-00314-9
COMMENT: CONFIDENCE Reference Standard (Level 1)
COMMENT: HBM4EU - science and policy for a healthy future (https://www.hbm4eu.eu)
CH$NAME: Desipramine
CH$NAME: 3-(10,11-Dihydro-5H-dibenzo[b,f]azepin-5-yl)-N-methylpropan-1-amine
CH$COMPOUND_CLASS: N/A; Environmental Standard
CH$FORMULA: C18H22N2
CH$EXACT_MASS: 266.1783
CH$SMILES: CNCCCN1C2=C(CCC3=C1C=CC=C3)C=CC=C2
CH$IUPAC: InChI=1S/C18H22N2/c1-19-13-6-14-20-17-9-4-2-7-15(17)11-12-16-8-3-5-10-18(16)20/h2-5,7-10,19H,6,11-14H2,1H3
CH$LINK: CAS 50-47-5
CH$LINK: COMPTOX DTXSID6022896
CH$LINK: INCHIKEY HCYAFALTSJYZDH-UHFFFAOYSA-N
CH$LINK: PUBCHEM CID:2995
AC$INSTRUMENT: TripleTOF 5600+SCIEX
AC$INSTRUMENT_TYPE: ESI-QTOF
AC$MASS_SPECTROMETRY: MS_TYPE MS2
AC$MASS_SPECTROMETRY: ION_MODE POSITIVE
AC$MASS_SPECTROMETRY: IONIZATION ESI
AC$MASS_SPECTROMETRY: FRAGMENTATION_MODE CID
AC$MASS_SPECTROMETRY: COLLISION_ENERGY 30 eV
AC$MASS_SPECTROMETRY: RESOLUTION 15000
AC$CHROMATOGRAPHY: FLOW_RATE 20 uL/min
AC$CHROMATOGRAPHY: FLOW_GRADIENT 50/50
AC$CHROMATOGRAPHY: SOLVENT A water with 0.1% acetic acid
AC$CHROMATOGRAPHY: SOLVENT B acetonitrile
MS$FOCUSED_ION: PRECURSOR_M/Z 267.1856
MS$FOCUSED_ION: PRECURSOR_TYPE [M+H]+
PK$SPLASH: splash10-00di-9130000000-35ef3c9fae87e64dc074
PK$NUM_PEAK: 36
PK$PEAK: m/z int. rel.int.
  55.0568 16.4 1
  56.0519 35.1 3
  57.0598 95.5 9
  67.056 28.7 3
  69.0716 17.5 2
  70.0669 10.4 1
  71.0871 37.7 3
  72.083 11132 999
  79.0557 11.1 1
  81.0712 34.3 3
  83.0867 12.5 1
  85.1023 21.4 2
  91.0551 16.1 1
  95.0863 54 5
  97.102 10.2 1
  105.0704 23.6 2
  107.0859 7.8 1
  109.1016 25.4 2
  115.0544 5.9 1
  118.0654 10.5 1
  123.117 6.8 1
  130.0652 18.5 2
  132.0807 8.1 1
  144.0807 11.7 1
  145.0885 8.9 1
  158.0963 35.3 3
  166.0771 7.9 1
  167.0729 20.3 2
  181.0885 11.8 1
  193.0883 1124.9 101
  195.104 188.2 17
  196.1117 195.7 18
  208.112 3496.2 314
  210.1275 7 1
  236.1431 517.5 46
  267.1856 122.5 11
//
