ACCESSION: MSBNK-HBM4EU-HB004083
RECORD_TITLE: Dehydrocyclopeptine; LC-ESI-ITFT; MS2; CE: 40%; R=7500; [M+H]+
DATE: 2021.10.11
AUTHORS: Laurent Debrauwer, Emilien L. Jamin, Research Centre in Food Toxicology (TOXALIM), INRAE, MetaboHUB-Metatoul platform, Toulouse, France
LICENSE: CC0
COPYRIGHT: Copyright (c) 2021 by Research Centre in Food Toxicology (TOXALIM), INRAE, MetaboHUB-Metatoul platform, Toulouse, France
COMMENT: HBM4EU - science and policy for a healthy future (https://www.hbm4eu.eu)
COMMENT: CONFIDENCE Reference Standard (Level 1)
COMMENT: INTERNAL_ID 7200
CH$NAME: Dehydrocyclopeptine
CH$NAME: 1H-1,4-Benzodiazepine-2,5-dione, 3-benzylidene-3,4-dihydro-4-methyl-
CH$NAME: 3-benzylidene-4-methyl-1H-1,4-benzodiazepine-2,5-dione
CH$COMPOUND_CLASS: N/A; Environmental Standard
CH$FORMULA: C17H14N2O2
CH$EXACT_MASS: 278.1055
CH$SMILES: CN1C(=CC2=CC=CC=C2)C(=O)NC3=CC=CC=C3C1=O
CH$IUPAC: InChI=1S/C17H14N2O2/c1-19-15(11-12-7-3-2-4-8-12)16(20)18-14-10-6-5-9-13(14)17(19)21/h2-11H,1H3,(H,18,20)
CH$LINK: CAS 31965-37-4
CH$LINK: PUBCHEM CID:92282
CH$LINK: INCHIKEY FYVKHLSOIIPVEH-UHFFFAOYSA-N
CH$LINK: CHEMSPIDER 83316
CH$LINK: COMPTOX DTXSID10953851
AC$INSTRUMENT: LTQ Orbitrap XL Thermo Scientific
AC$INSTRUMENT_TYPE: LC-ESI-ITFT
AC$MASS_SPECTROMETRY: MS_TYPE MS2
AC$MASS_SPECTROMETRY: ION_MODE POSITIVE
AC$MASS_SPECTROMETRY: IONIZATION ESI
AC$MASS_SPECTROMETRY: FRAGMENTATION_MODE HCD
AC$MASS_SPECTROMETRY: COLLISION_ENERGY 40 % (nominal)
AC$MASS_SPECTROMETRY: RESOLUTION 7500
AC$CHROMATOGRAPHY: COLUMN_NAME Hypersil GOLD C18 1.9 um 100 x 2.1 mm Thermo Fisher Scientific
AC$CHROMATOGRAPHY: FLOW_GRADIENT 100/0 at 0 min, 0/100 at 30 min, 0/100 at 35 min
AC$CHROMATOGRAPHY: FLOW_RATE 300 uL/min
AC$CHROMATOGRAPHY: RETENTION_TIME 17.696 min
AC$CHROMATOGRAPHY: SOLVENT A water with 5% methanol and 0.1% acetic acid
AC$CHROMATOGRAPHY: SOLVENT B methanol with 0.1% acetic acid
MS$FOCUSED_ION: BASE_PEAK 279.1136
MS$FOCUSED_ION: PRECURSOR_M/Z 279.1128
MS$FOCUSED_ION: PRECURSOR_TYPE [M+H]+
MS$FOCUSED_ION: PRECURSOR_INTENSITY 9269127.76416
MS$DATA_PROCESSING: RECALIBRATE loess on assigned fragments and MS1
MS$DATA_PROCESSING: REANALYZE Peaks with additional N2/O included
MS$DATA_PROCESSING: WHOLE RMassBank 3.2.0
PK$SPLASH: splash10-004i-0090000000-41ddb849cdbb1c0a481e
PK$ANNOTATION: m/z tentative_formula formula_count mass error(ppm)
  120.0442 C7H6NO+ 1 120.0444 -1.35
  132.0806 C9H10N+ 1 132.0808 -1
  279.1132 C17H15N2O2+ 1 279.1128 1.36
PK$NUM_PEAK: 3
PK$PEAK: m/z int. rel.int.
  120.0442 4223.4 1
  132.0806 4533.9 1
  279.1132 4017551.2 999
//
