ACCESSION: MSBNK-HBM4EU-HB000649
RECORD_TITLE: Dosulepin; LC-ESI-ITFT; MS2; CE: 110%; R=15000; [M+H]+
DATE: 2018.09.08
AUTHORS: Tobias Schulze, Carolin Huber, Martin Krauss, Department of Effect-Directed Analysis, Helmholtz Centre for Environmental Research GmbH - UFZ, Leipzig, Germany
LICENSE: CC0
COPYRIGHT: Copyright (C) 2018
PUBLICATION: Oberacher H, Sasse M, Antignac J-P, Guitton Y, Debrauwer L, Jamin E L, Schulze T, Krauss M, Covaci A, Caballero-Casero N, Rosseau K, Damont A, Fenaille F, Lamoree M, Schymanski E, A European proposal for quality control and quality assurance of tandem mass spectral libraries, Environmental Sciences Europe, https://doi.org/10.1186/s12302-020-00314-9
COMMENT: CONFIDENCE Reference Standard (Level 1)
COMMENT: HBM4EU - science and policy for a healthy future (https://www.hbm4eu.eu)
CH$NAME: Dosulepin
CH$NAME: Dothiepin
CH$NAME: 3-(6H-benzo[c][1]benzothiepin-11-ylidene)-N,N-dimethylpropan-1-amine
CH$COMPOUND_CLASS: N/A; Environmental Standard
CH$FORMULA: C19H21NS
CH$EXACT_MASS: 295.1395
CH$SMILES: CN(C)CCC=C1C2=CC=CC=C2CSC3=CC=CC=C31
CH$IUPAC: InChI=1S/C19H21NS/c1-20(2)13-7-11-17-16-9-4-3-8-15(16)14-21-19-12-6-5-10-18(17)19/h3-6,8-12H,7,13-14H2,1-2H3
CH$LINK: CAS 113-53-1
CH$LINK: PUBCHEM CID:3155
CH$LINK: INCHIKEY PHTUQLWOUWZIMZ-UHFFFAOYSA-N
CH$LINK: CHEMSPIDER 3043
AC$INSTRUMENT: LTQ Orbitrap XL Thermo Scientific
AC$INSTRUMENT_TYPE: LC-ESI-ITFT
AC$MASS_SPECTROMETRY: MS_TYPE MS2
AC$MASS_SPECTROMETRY: ION_MODE POSITIVE
AC$MASS_SPECTROMETRY: IONIZATION ESI
AC$MASS_SPECTROMETRY: FRAGMENTATION_MODE CID
AC$MASS_SPECTROMETRY: COLLISION_ENERGY 110% (nominal)
AC$MASS_SPECTROMETRY: RESOLUTION 15000
AC$CHROMATOGRAPHY: COLUMN_NAME Kinetex Evo C18 2.6 um 50 x 2.1 mm
AC$CHROMATOGRAPHY: FLOW_GRADIENT 95/5 at 0 min, 95/5 at 1 min, 0/100 at 13 min, 0/100 at 24 min, 95/5 at 24.3 min, 95/5 at 32 min
AC$CHROMATOGRAPHY: FLOW_RATE 300 uL/min
AC$CHROMATOGRAPHY: RETENTION_TIME 8.177 min
AC$CHROMATOGRAPHY: SOLVENT A water with 0.1% formic acid
AC$CHROMATOGRAPHY: SOLVENT B methanol with 0.1% formic acid
MS$FOCUSED_ION: BASE_PEAK 296.1469
MS$FOCUSED_ION: PRECURSOR_M/Z 296.1467
MS$FOCUSED_ION: PRECURSOR_TYPE [M+H]+
MS$DATA_PROCESSING: RECALIBRATE loess on assigned fragments and MS1
MS$DATA_PROCESSING: REANALYZE Peaks with additional N2/O included
MS$DATA_PROCESSING: WHOLE RMassBank 2.9.1
PK$SPLASH: splash10-004i-0190000000-bd7db7044fca9eae64ef
PK$ANNOTATION: m/z tentative_formula formula_count mass error(ppm)
  91.0542 C7H7+ 1 91.0542 -0.1
  115.0546 C9H7+ 1 115.0542 2.96
  117.0699 C9H9+ 1 117.0699 0
  123.0264 C7H7S+ 1 123.0263 1.1
  141.0702 C11H9+ 1 141.0699 2.54
  142.0777 C11H10+ 1 142.0777 -0.28
  147.0263 C9H7S+ 1 147.0263 -0.03
  173.0421 C11H9S+ 1 173.0419 0.98
  191.0855 C15H11+ 1 191.0855 -0.23
  192.0931 C15H12+ 1 192.0934 -1.5
  209.042 C14H9S+ 1 209.0419 0.35
  210.0499 C14H10S+ 1 210.0498 0.65
  211.058 C14H11S+ 1 211.0576 1.89
  217.1012 C17H13+ 1 217.1012 0.23
  218.109 C17H14+ 1 218.109 0.04
  221.042 C15H9S+ 1 221.0419 0.29
  222.0498 C15H10S+ 1 222.0498 0.24
  223.0577 C15H11S+ 1 223.0576 0.39
  225.0731 C15H13S+ 1 225.0732 -0.46
  236.0654 C16H12S+ 1 236.0654 -0.19
  249.0733 C17H13S+ 1 249.0732 0.38
  251.0889 C17H15S+ 1 251.0889 0.05
  253.1044 C17H17S+ 1 253.1045 -0.71
  265.1049 C18H17S+ 1 265.1045 1.24
PK$NUM_PEAK: 24
PK$PEAK: m/z int. rel.int.
  91.0542 215882.8 14
  115.0546 37165.6 2
  117.0699 204075 13
  123.0264 143021.9 9
  141.0702 94362.9 6
  142.0777 65732.6 4
  147.0263 3032614.5 201
  173.0421 188595 12
  191.0855 469718.7 31
  192.0931 59837.6 3
  209.042 997462.3 66
  210.0499 34937.8 2
  211.058 51140.9 3
  217.1012 593498.3 39
  218.109 1727761.5 114
  221.042 61435.5 4
  222.0498 529711.8 35
  223.0577 4268923.5 283
  225.0731 15063767 999
  236.0654 402110.4 26
  249.0733 49118.8 3
  251.0889 7086426 469
  253.1044 779926.4 51
  265.1049 115973.9 7
//
