ACCESSION: MSBNK-HBM4EU-HB000936
RECORD_TITLE: Etilefrine; LC-ESI-ITFT; MS2; CE: 105%; R=15000; [M+H]+
DATE: 2018.09.08
AUTHORS: Tobias Schulze, Carolin Huber, Martin Krauss, Department of Effect-Directed Analysis, Helmholtz Centre for Environmental Research GmbH - UFZ, Leipzig, Germany
LICENSE: CC0
COPYRIGHT: Copyright (C) 2018
PUBLICATION: Oberacher H, Sasse M, Antignac J-P, Guitton Y, Debrauwer L, Jamin E L, Schulze T, Krauss M, Covaci A, Caballero-Casero N, Rosseau K, Damont A, Fenaille F, Lamoree M, Schymanski E, A European proposal for quality control and quality assurance of tandem mass spectral libraries, Environmental Sciences Europe, https://doi.org/10.1186/s12302-020-00314-9
COMMENT: CONFIDENCE Reference Standard (Level 1)
COMMENT: HBM4EU - science and policy for a healthy future (https://www.hbm4eu.eu)
CH$NAME: Etilefrine
CH$NAME: 3-[2-(ethylamino)-1-hydroxyethyl]phenol
CH$COMPOUND_CLASS: N/A; Environmental Standard
CH$FORMULA: C10H15NO2
CH$EXACT_MASS: 181.1103
CH$SMILES: CCNCC(C1=CC(=CC=C1)O)O
CH$IUPAC: InChI=1S/C10H15NO2/c1-2-11-7-10(13)8-4-3-5-9(12)6-8/h3-6,10-13H,2,7H2,1H3
CH$LINK: CAS 709-55-7
CH$LINK: CHEBI CHEBI:91518
CH$LINK: KEGG D07931
CH$LINK: PUBCHEM CID:3306
CH$LINK: INCHIKEY SQVIAVUSQAWMKL-UHFFFAOYSA-N
CH$LINK: CHEMSPIDER 3190
AC$INSTRUMENT: LTQ Orbitrap XL Thermo Scientific
AC$INSTRUMENT_TYPE: LC-ESI-ITFT
AC$MASS_SPECTROMETRY: MS_TYPE MS2
AC$MASS_SPECTROMETRY: ION_MODE POSITIVE
AC$MASS_SPECTROMETRY: IONIZATION ESI
AC$MASS_SPECTROMETRY: FRAGMENTATION_MODE HCD
AC$MASS_SPECTROMETRY: COLLISION_ENERGY 105% (nominal)
AC$MASS_SPECTROMETRY: RESOLUTION 15000
AC$CHROMATOGRAPHY: COLUMN_NAME Kinetex Evo C18 2.6 um 50 x 2.1 mm
AC$CHROMATOGRAPHY: FLOW_GRADIENT 95/5 at 0 min, 95/5 at 1 min, 0/100 at 13 min, 0/100 at 24 min, 95/5 at 24.3 min, 95/5 at 32 min
AC$CHROMATOGRAPHY: FLOW_RATE 300 uL/min
AC$CHROMATOGRAPHY: RETENTION_TIME 0.618 min
AC$CHROMATOGRAPHY: SOLVENT A water with 0.1% formic acid
AC$CHROMATOGRAPHY: SOLVENT B methanol with 0.1% formic acid
MS$FOCUSED_ION: BASE_PEAK 182.1177
MS$FOCUSED_ION: PRECURSOR_M/Z 182.1176
MS$FOCUSED_ION: PRECURSOR_TYPE [M+H]+
MS$DATA_PROCESSING: RECALIBRATE loess on assigned fragments and MS1
MS$DATA_PROCESSING: REANALYZE Peaks with additional N2/O included
MS$DATA_PROCESSING: WHOLE RMassBank 2.9.1
PK$SPLASH: splash10-0006-9600000000-ac5268c93f4aa3657b63
PK$ANNOTATION: m/z tentative_formula formula_count mass error(ppm)
  56.0492 C3H6N+ 1 56.0495 -4.43
  65.0384 C5H5+ 1 65.0386 -2.14
  77.0386 C6H5+ 1 77.0386 -0.11
  79.0542 C6H7+ 1 79.0542 -0.1
  80.0495 C5H6N+ 1 80.0495 -0.11
  81.0699 C6H9+ 1 81.0699 0.27
  90.0465 C7H6+ 1 90.0464 1.4
  91.0543 C7H7+ 1 91.0542 0.6
  92.0492 C6H6N+ 1 92.0495 -2.63
  93.0573 C6H7N+ 1 93.0573 -0.15
  94.0413 C6H6O+ 1 94.0413 0.15
  95.0492 C6H7O+ 1 95.0491 0.79
  103.0543 C8H7+ 1 103.0542 0.96
  104.0497 C7H6N+ 1 104.0495 2.45
  105.0449 C6H5N2+ 1 105.0447 1.37
  106.0652 C7H8N+ 1 106.0651 0.98
  107.0492 C7H7O+ 1 107.0491 0.41
  107.073 C7H9N+ 1 107.073 0
  108.0571 C7H8O+ 1 108.057 1
  108.0808 C7H10N+ 1 108.0808 0.31
  109.0648 C7H9O+ 1 109.0648 0.47
  117.0574 C8H7N+ 1 117.0573 0.93
  118.0416 C8H6O+ 1 118.0413 2.22
  118.0652 C8H8N+ 1 118.0651 0.55
  119.0492 C8H7O+ 1 119.0491 0.86
  120.0445 C7H6NO+ 1 120.0444 0.64
  134.0601 C8H8NO+ 1 134.06 0.63
  135.0679 C8H9NO+ 1 135.0679 0.41
  136.0757 C8H10NO+ 1 136.0757 0.19
  164.1065 C10H14NO+ 1 164.107 -3.13
PK$NUM_PEAK: 30
PK$PEAK: m/z int. rel.int.
  56.0492 6033.1 18
  65.0384 9693.1 28
  77.0386 9323.9 27
  79.0542 7729.7 23
  80.0495 2122.1 6
  81.0699 13764.4 41
  90.0465 2192.7 6
  91.0543 334508.5 999
  92.0492 1980.7 5
  93.0573 3601.3 10
  94.0413 10516 31
  95.0492 2759.6 8
  103.0543 11578.1 34
  104.0497 2856.7 8
  105.0449 6350.7 18
  106.0652 11019.6 32
  107.0492 37566.7 112
  107.073 4149.8 12
  108.0571 10214.1 30
  108.0808 1715.5 5
  109.0648 26047.1 77
  117.0574 8862.1 26
  118.0416 3801.8 11
  118.0652 29827.2 89
  119.0492 17365.2 51
  120.0445 16673.6 49
  134.0601 60601.4 180
  135.0679 49805.5 148
  136.0757 4898.3 14
  164.1065 3963.2 11
//
