ACCESSION: MSBNK-HBM4EU-HB001630
RECORD_TITLE: Sulfamethoxazole; LC-ESI-ITFT; MS2; CE: 95%; R=15000; [M+H]+
DATE: 2018.09.08
AUTHORS: Tobias Schulze, Carolin Huber, Martin Krauss, Department of Effect-Directed Analysis, Helmholtz Centre for Environmental Research GmbH - UFZ, Leipzig, Germany
LICENSE: CC0
COPYRIGHT: Copyright (C) 2018
PUBLICATION: Oberacher H, Sasse M, Antignac J-P, Guitton Y, Debrauwer L, Jamin E L, Schulze T, Krauss M, Covaci A, Caballero-Casero N, Rosseau K, Damont A, Fenaille F, Lamoree M, Schymanski E, A European proposal for quality control and quality assurance of tandem mass spectral libraries, Environmental Sciences Europe, https://doi.org/10.1186/s12302-020-00314-9
COMMENT: CONFIDENCE Reference Standard (Level 1)
COMMENT: HBM4EU - science and policy for a healthy future (https://www.hbm4eu.eu)
CH$NAME: Sulfamethoxazole
CH$NAME: 4-amino-N-(5-methyl-1,2-oxazol-3-yl)benzenesulfonamide
CH$COMPOUND_CLASS: N/A; Environmental Standard
CH$FORMULA: C10H11N3O3S
CH$EXACT_MASS: 253.0521
CH$SMILES: CC1=CC(=NO1)NS(=O)(=O)C2=CC=C(C=C2)N
CH$IUPAC: InChI=1S/C10H11N3O3S/c1-7-6-10(12-16-7)13-17(14,15)9-4-2-8(11)3-5-9/h2-6H,11H2,1H3,(H,12,13)
CH$LINK: CAS 723-46-6
CH$LINK: CHEBI CHEBI:9332
CH$LINK: KEGG D00447
CH$LINK: PUBCHEM CID:5329
CH$LINK: INCHIKEY JLKIGFTWXXRPMT-UHFFFAOYSA-N
CH$LINK: CHEMSPIDER 5138
AC$INSTRUMENT: LTQ Orbitrap XL Thermo Scientific
AC$INSTRUMENT_TYPE: LC-ESI-ITFT
AC$MASS_SPECTROMETRY: MS_TYPE MS2
AC$MASS_SPECTROMETRY: ION_MODE POSITIVE
AC$MASS_SPECTROMETRY: IONIZATION ESI
AC$MASS_SPECTROMETRY: FRAGMENTATION_MODE HCD
AC$MASS_SPECTROMETRY: COLLISION_ENERGY 95% (nominal)
AC$MASS_SPECTROMETRY: RESOLUTION 15000
AC$CHROMATOGRAPHY: COLUMN_NAME Kinetex Evo C18 2.6 um 50 x 2.1 mm
AC$CHROMATOGRAPHY: FLOW_GRADIENT 95/5 at 0 min, 95/5 at 1 min, 0/100 at 13 min, 0/100 at 24 min, 95/5 at 24.3 min, 95/5 at 32 min
AC$CHROMATOGRAPHY: FLOW_RATE 300 uL/min
AC$CHROMATOGRAPHY: RETENTION_TIME 5.582 min
AC$CHROMATOGRAPHY: SOLVENT A water with 0.1% formic acid
AC$CHROMATOGRAPHY: SOLVENT B methanol with 0.1% formic acid
MS$FOCUSED_ION: BASE_PEAK 189.1022
MS$FOCUSED_ION: PRECURSOR_M/Z 254.0594
MS$FOCUSED_ION: PRECURSOR_TYPE [M+H]+
MS$DATA_PROCESSING: RECALIBRATE loess on assigned fragments and MS1
MS$DATA_PROCESSING: REANALYZE Peaks with additional N2/O included
MS$DATA_PROCESSING: WHOLE RMassBank 2.9.1
PK$SPLASH: splash10-052f-9300000000-3561286a21a0ed729ceb
PK$ANNOTATION: m/z tentative_formula formula_count mass error(ppm)
  65.0384 C5H5+ 1 65.0386 -2.28
  71.0602 C3H7N2+ 1 71.0604 -2.12
  72.0443 C3H6NO+ 1 72.0444 -1.32
  80.0494 C5H6N+ 1 80.0495 -0.37
  92.0495 C6H6N+ 1 92.0495 0.22
  93.0572 C6H7N+ 1 93.0573 -0.56
  94.0651 C6H8N+ 1 94.0651 0.16
  99.0553 C4H7N2O+ 1 99.0553 -0.08
  105.0447 C6H5N2+ 1 105.0447 -0.07
  106.0522 C6H6N2+ 1 106.0525 -3.02
  107.0604 C6H7N2+ 1 107.0604 0.38
  108.0444 C6H6NO+ 1 108.0444 0.02
  110.06 C6H8NO+ 1 110.06 -0.15
  118.0522 C7H6N2+ 1 118.0525 -2.9
  119.0605 C7H7N2+ 1 119.0604 1.18
  120.0556 C6H6N3+ 1 120.0556 -0.38
  131.0606 C8H7N2+ 1 131.0604 1.43
  132.0679 C8H8N2+ 1 132.0682 -1.92
  133.0635 C7H7N3+ 1 133.0634 0.19
  143.0603 C9H7N2+ 1 143.0604 -0.23
  145.0633 C8H7N3+ 1 145.0634 -0.84
  146.0713 C8H8N3+ 1 146.0713 0.2
  147.0791 C8H9N3+ 1 147.0791 -0.32
  159.0786 C9H9N3+ 1 159.0791 -2.86
  160.0871 C9H10N3+ 1 160.0869 1.16
PK$NUM_PEAK: 25
PK$PEAK: m/z int. rel.int.
  65.0384 348025.9 566
  71.0602 1721.8 2
  72.0443 8916.5 14
  80.0494 102922.4 167
  92.0495 613847.5 999
  93.0572 118779.7 193
  94.0651 4363.3 7
  99.0553 46346.5 75
  105.0447 1959.4 3
  106.0522 1631.8 2
  107.0604 12423 20
  108.0444 387982.2 631
  110.06 58916.1 95
  118.0522 1953.9 3
  119.0605 3333.4 5
  120.0556 7842 12
  131.0606 3574.5 5
  132.0679 2717.6 4
  133.0635 2171.6 3
  143.0603 1634.6 2
  145.0633 1397.9 2
  146.0713 20380.6 33
  147.0791 7307.7 11
  159.0786 1563 2
  160.0871 4258 6
//
