ACCESSION: MSBNK-HBM4EU-HB001640
RECORD_TITLE: Sulfamethoxazole; LC-ESI-ITFT; MS2; CE: 125%; R=15000; [M+H]+
DATE: 2018.09.08
AUTHORS: Tobias Schulze, Carolin Huber, Martin Krauss, Department of Effect-Directed Analysis, Helmholtz Centre for Environmental Research GmbH - UFZ, Leipzig, Germany
LICENSE: CC0
COPYRIGHT: Copyright (C) 2018
PUBLICATION: Oberacher H, Sasse M, Antignac J-P, Guitton Y, Debrauwer L, Jamin E L, Schulze T, Krauss M, Covaci A, Caballero-Casero N, Rosseau K, Damont A, Fenaille F, Lamoree M, Schymanski E, A European proposal for quality control and quality assurance of tandem mass spectral libraries, Environmental Sciences Europe, https://doi.org/10.1186/s12302-020-00314-9
COMMENT: CONFIDENCE Reference Standard (Level 1)
COMMENT: HBM4EU - science and policy for a healthy future (https://www.hbm4eu.eu)
CH$NAME: Sulfamethoxazole
CH$NAME: 4-amino-N-(5-methyl-1,2-oxazol-3-yl)benzenesulfonamide
CH$COMPOUND_CLASS: N/A; Environmental Standard
CH$FORMULA: C10H11N3O3S
CH$EXACT_MASS: 253.0521
CH$SMILES: CC1=CC(=NO1)NS(=O)(=O)C2=CC=C(C=C2)N
CH$IUPAC: InChI=1S/C10H11N3O3S/c1-7-6-10(12-16-7)13-17(14,15)9-4-2-8(11)3-5-9/h2-6H,11H2,1H3,(H,12,13)
CH$LINK: CAS 723-46-6
CH$LINK: CHEBI CHEBI:9332
CH$LINK: KEGG D00447
CH$LINK: PUBCHEM CID:5329
CH$LINK: INCHIKEY JLKIGFTWXXRPMT-UHFFFAOYSA-N
CH$LINK: CHEMSPIDER 5138
AC$INSTRUMENT: LTQ Orbitrap XL Thermo Scientific
AC$INSTRUMENT_TYPE: LC-ESI-ITFT
AC$MASS_SPECTROMETRY: MS_TYPE MS2
AC$MASS_SPECTROMETRY: ION_MODE POSITIVE
AC$MASS_SPECTROMETRY: IONIZATION ESI
AC$MASS_SPECTROMETRY: FRAGMENTATION_MODE HCD
AC$MASS_SPECTROMETRY: COLLISION_ENERGY 125% (nominal)
AC$MASS_SPECTROMETRY: RESOLUTION 15000
AC$CHROMATOGRAPHY: COLUMN_NAME Kinetex Evo C18 2.6 um 50 x 2.1 mm
AC$CHROMATOGRAPHY: FLOW_GRADIENT 95/5 at 0 min, 95/5 at 1 min, 0/100 at 13 min, 0/100 at 24 min, 95/5 at 24.3 min, 95/5 at 32 min
AC$CHROMATOGRAPHY: FLOW_RATE 300 uL/min
AC$CHROMATOGRAPHY: RETENTION_TIME 5.629 min
AC$CHROMATOGRAPHY: SOLVENT A water with 0.1% formic acid
AC$CHROMATOGRAPHY: SOLVENT B methanol with 0.1% formic acid
MS$FOCUSED_ION: BASE_PEAK 189.1022
MS$FOCUSED_ION: PRECURSOR_M/Z 254.0594
MS$FOCUSED_ION: PRECURSOR_TYPE [M+H]+
MS$DATA_PROCESSING: RECALIBRATE loess on assigned fragments and MS1
MS$DATA_PROCESSING: REANALYZE Peaks with additional N2/O included
MS$DATA_PROCESSING: WHOLE RMassBank 2.9.1
PK$SPLASH: splash10-014l-9100000000-3720a5aea40160cc9f51
PK$ANNOTATION: m/z tentative_formula formula_count mass error(ppm)
  65.0384 C5H5+ 1 65.0386 -2.97
  66.0336 C4H4N+ 1 66.0338 -2.99
  66.0462 C5H6+ 1 66.0464 -2.91
  72.0442 C3H6NO+ 1 72.0444 -2.55
  77.0386 C6H5+ 1 77.0386 0.88
  80.0494 C5H6N+ 1 80.0495 -0.49
  90.0335 C6H4N+ 1 90.0338 -3.14
  91.042 C6H5N+ 2 91.0417 3.82
  92.0495 C6H6N+ 1 92.0495 0.03
  93.0573 C6H7N+ 1 93.0573 -0.23
  94.065 C6H8N+ 1 94.0651 -1.05
  99.0552 C4H7N2O+ 1 99.0553 -0.51
  105.0447 C6H5N2+ 1 105.0447 0.21
  107.0602 C6H7N2+ 1 107.0604 -1.68
  108.0444 C6H6NO+ 1 108.0444 -0.03
  110.06 C6H8NO+ 1 110.06 -0.18
  118.0522 C7H6N2+ 1 118.0525 -3.3
  119.0603 C7H7N2+ 1 119.0604 -0.31
  146.0714 C8H8N3+ 1 146.0713 0.71
PK$NUM_PEAK: 19
PK$PEAK: m/z int. rel.int.
  65.0384 414607.5 999
  66.0336 7972.3 19
  66.0462 8191.6 19
  72.0442 1932.4 4
  77.0386 1663.3 4
  80.0494 152447.6 367
  90.0335 1438 3
  91.042 1414.6 3
  92.0495 150455.4 362
  93.0573 58121.7 140
  94.065 1279.8 3
  99.0552 5011.8 12
  105.0447 2375.7 5
  107.0602 2307.7 5
  108.0444 96752.7 233
  110.06 11553.8 27
  118.0522 1682.9 4
  119.0603 2585 6
  146.0714 5253.8 12
//
