ACCESSION: MSBNK-HBM4EU-HB000614
RECORD_TITLE: Dosulepin; LC-ESI-ITFT; MS2; CE: 45%; R=15000; [M+H]+
DATE: 2018.09.08
AUTHORS: Tobias Schulze, Carolin Huber, Martin Krauss, Department of Effect-Directed Analysis, Helmholtz Centre for Environmental Research GmbH - UFZ, Leipzig, Germany
LICENSE: CC0
COPYRIGHT: Copyright (C) 2018
PUBLICATION: Oberacher H, Sasse M, Antignac J-P, Guitton Y, Debrauwer L, Jamin E L, Schulze T, Krauss M, Covaci A, Caballero-Casero N, Rosseau K, Damont A, Fenaille F, Lamoree M, Schymanski E, A European proposal for quality control and quality assurance of tandem mass spectral libraries, Environmental Sciences Europe, https://doi.org/10.1186/s12302-020-00314-9
COMMENT: CONFIDENCE Reference Standard (Level 1)
COMMENT: HBM4EU - science and policy for a healthy future (https://www.hbm4eu.eu)
CH$NAME: Dosulepin
CH$NAME: Dothiepin
CH$NAME: 3-(6H-benzo[c][1]benzothiepin-11-ylidene)-N,N-dimethylpropan-1-amine
CH$COMPOUND_CLASS: N/A; Environmental Standard
CH$FORMULA: C19H21NS
CH$EXACT_MASS: 295.1395
CH$SMILES: CN(C)CCC=C1C2=CC=CC=C2CSC3=CC=CC=C31
CH$IUPAC: InChI=1S/C19H21NS/c1-20(2)13-7-11-17-16-9-4-3-8-15(16)14-21-19-12-6-5-10-18(17)19/h3-6,8-12H,7,13-14H2,1-2H3
CH$LINK: CAS 113-53-1
CH$LINK: PUBCHEM CID:3155
CH$LINK: INCHIKEY PHTUQLWOUWZIMZ-UHFFFAOYSA-N
CH$LINK: CHEMSPIDER 3043
AC$INSTRUMENT: LTQ Orbitrap XL Thermo Scientific
AC$INSTRUMENT_TYPE: LC-ESI-ITFT
AC$MASS_SPECTROMETRY: MS_TYPE MS2
AC$MASS_SPECTROMETRY: ION_MODE POSITIVE
AC$MASS_SPECTROMETRY: IONIZATION ESI
AC$MASS_SPECTROMETRY: FRAGMENTATION_MODE CID
AC$MASS_SPECTROMETRY: COLLISION_ENERGY 45% (nominal)
AC$MASS_SPECTROMETRY: RESOLUTION 15000
AC$CHROMATOGRAPHY: COLUMN_NAME Kinetex Evo C18 2.6 um 50 x 2.1 mm
AC$CHROMATOGRAPHY: FLOW_GRADIENT 95/5 at 0 min, 95/5 at 1 min, 0/100 at 13 min, 0/100 at 24 min, 95/5 at 24.3 min, 95/5 at 32 min
AC$CHROMATOGRAPHY: FLOW_RATE 300 uL/min
AC$CHROMATOGRAPHY: RETENTION_TIME 8.351 min
AC$CHROMATOGRAPHY: SOLVENT A water with 0.1% formic acid
AC$CHROMATOGRAPHY: SOLVENT B methanol with 0.1% formic acid
MS$FOCUSED_ION: BASE_PEAK 296.1467
MS$FOCUSED_ION: PRECURSOR_M/Z 296.1467
MS$FOCUSED_ION: PRECURSOR_TYPE [M+H]+
MS$DATA_PROCESSING: RECALIBRATE loess on assigned fragments and MS1
MS$DATA_PROCESSING: REANALYZE Peaks with additional N2/O included
MS$DATA_PROCESSING: WHOLE RMassBank 2.9.1
PK$SPLASH: splash10-004i-0190000000-d49539b61835f05cc50d
PK$ANNOTATION: m/z tentative_formula formula_count mass error(ppm)
  91.0542 C7H7+ 1 91.0542 -0.32
  115.054 C9H7+ 1 115.0542 -1.72
  117.0699 C9H9+ 1 117.0699 0.62
  123.0262 C7H7S+ 1 123.0263 -0.54
  141.0698 C11H9+ 1 141.0699 -0.19
  142.0774 C11H10+ 1 142.0777 -2.02
  147.0263 C9H7S+ 1 147.0263 -0.1
  173.042 C11H9S+ 1 173.0419 0.09
  178.0773 C14H10+ 1 178.0777 -1.98
  179.085 C14H11+ 1 179.0855 -2.97
  191.0856 C15H11+ 1 191.0855 0.16
  192.0927 C15H12+ 1 192.0934 -3.16
  205.102 C16H13+ 1 205.1012 3.96
  209.0421 C14H9S+ 1 209.0419 0.51
  210.0497 C14H10S+ 1 210.0498 -0.28
  211.0578 C14H11S+ 1 211.0576 0.97
  217.1013 C17H13+ 1 217.1012 0.45
  218.1091 C17H14+ 1 218.109 0.46
  221.0412 C15H9S+ 1 221.0419 -3.16
  222.05 C15H10S+ 1 222.0498 0.99
  223.0578 C15H11S+ 1 223.0576 0.73
  225.0732 C15H13S+ 1 225.0732 -0.2
  236.0656 C16H12S+ 1 236.0654 0.56
  251.089 C17H15S+ 1 251.0889 0.33
  253.1045 C17H17S+ 1 253.1045 -0.07
  265.1046 C18H17S+ 1 265.1045 0.14
PK$NUM_PEAK: 26
PK$PEAK: m/z int. rel.int.
  91.0542 10689.5 11
  115.054 1237.1 1
  117.0699 9533.5 10
  123.0262 6501.2 6
  141.0698 3845.1 4
  142.0774 1943.5 2
  147.0263 146449.3 156
  173.042 8929.9 9
  178.0773 1027.3 1
  179.085 1477.1 1
  191.0856 19124.1 20
  192.0927 1498.6 1
  205.102 2119.6 2
  209.0421 40567.1 43
  210.0497 1577.6 1
  211.0578 2511.9 2
  217.1013 25011.6 26
  218.1091 71609.8 76
  221.0412 2132.9 2
  222.05 21956.2 23
  223.0578 186496 198
  225.0732 937086.7 999
  236.0656 18042.3 19
  251.089 409340.5 436
  253.1045 48212 51
  265.1046 7253.8 7
//
