ACCESSION: MSBNK-HBM4EU-HB003149
RECORD_TITLE: Paxilline; LC-ESI-ITFT; MS2; CE: 60%; R=7500; [M-H]-
DATE: 2021.10.11
AUTHORS: Laurent Debrauwer, Emilien L. Jamin, Research Centre in Food Toxicology (TOXALIM), INRAE, MetaboHUB-Metatoul platform, Toulouse, France
LICENSE: CC0
COPYRIGHT: Copyright (c) 2021 by Research Centre in Food Toxicology (TOXALIM), INRAE, MetaboHUB-Metatoul platform, Toulouse, France
COMMENT: HBM4EU - science and policy for a healthy future (https://www.hbm4eu.eu)
COMMENT: CONFIDENCE Reference Standard (Level 1)
COMMENT: INTERNAL_ID 58
CH$NAME: Paxilline
CH$NAME: 4b-Hydroxy-2-(1-hydroxy-1-methylethyl)-12b,12c-dimethyl-5,6,6a,7,12,12b,12c,13,14,14a-decahydro-2H-chromeno[5`,6`:6,7]indeno[1,2-b]indol-3(4bH)-one
CH$NAME: 11-hydroxy-7-(2-hydroxypropan-2-yl)-1,2-dimethyl-6-oxa-23-azahexacyclo[12.10.0.02,11.05,10.016,24.017,22]tetracosa-9,16(24),17,19,21-pentaen-8-one
CH$COMPOUND_CLASS: N/A; Environmental Standard
CH$FORMULA: C27H33NO4
CH$EXACT_MASS: 435.24096
CH$SMILES: CC12CCC3C(=CC(=O)C(O3)C(C)(C)O)C1(CCC4C2(C5=C(C4)C6=CC=CC=C6N5)C)O
CH$IUPAC: InChI=1S/C27H33NO4/c1-24(2,30)23-20(29)14-18-21(32-23)10-11-25(3)26(4)15(9-12-27(18,25)31)13-17-16-7-5-6-8-19(16)28-22(17)26/h5-8,14-15,21,23,28,30-31H,9-13H2,1-4H3
CH$LINK: CAS 57186-25-1
CH$LINK: PUBCHEM CID:4697
CH$LINK: INCHIKEY ACNHBCIZLNNLRS-UHFFFAOYSA-N
CH$LINK: CHEMSPIDER 4535
CH$LINK: COMPTOX DTXSID10972643
AC$INSTRUMENT: LTQ Orbitrap XL Thermo Scientific
AC$INSTRUMENT_TYPE: LC-ESI-ITFT
AC$MASS_SPECTROMETRY: MS_TYPE MS2
AC$MASS_SPECTROMETRY: ION_MODE NEGATIVE
AC$MASS_SPECTROMETRY: IONIZATION ESI
AC$MASS_SPECTROMETRY: FRAGMENTATION_MODE HCD
AC$MASS_SPECTROMETRY: COLLISION_ENERGY 60 % (nominal)
AC$MASS_SPECTROMETRY: RESOLUTION 7500
AC$CHROMATOGRAPHY: COLUMN_NAME Hypersil GOLD C18 1.9 um 100 x 2.1 mm Thermo Fisher Scientific
AC$CHROMATOGRAPHY: FLOW_GRADIENT 100/0 at 0 min, 0/100 at 30 min, 0/100 at 35 min
AC$CHROMATOGRAPHY: FLOW_RATE 300 uL/min
AC$CHROMATOGRAPHY: RETENTION_TIME 25.237 min
AC$CHROMATOGRAPHY: SOLVENT A water with 5% methanol and 0.1% acetic acid
AC$CHROMATOGRAPHY: SOLVENT B methanol with 0.1% acetic acid
MS$FOCUSED_ION: BASE_PEAK 434.2324
MS$FOCUSED_ION: PRECURSOR_M/Z 434.2337
MS$FOCUSED_ION: PRECURSOR_TYPE [M-H]-
MS$FOCUSED_ION: PRECURSOR_INTENSITY 5774354.810547
MS$DATA_PROCESSING: RECALIBRATE loess on assigned fragments and MS1
MS$DATA_PROCESSING: REANALYZE Peaks with additional N2/O included
MS$DATA_PROCESSING: WHOLE RMassBank 3.2.0
PK$SPLASH: splash10-0059-0009400000-869c82a16b9f74bf23b9
PK$ANNOTATION: m/z tentative_formula formula_count mass error(ppm)
  199.0059 C14HNO- 1 199.0064 -2.37
  358.18 C24H24NO2- 1 358.1813 -3.6
  376.1912 C24H26NO3- 1 376.1918 -1.52
  434.2328 C27H32NO4- 1 434.2337 -2.06
PK$NUM_PEAK: 4
PK$PEAK: m/z int. rel.int.
  199.0059 3394.3 43
  358.18 27876.3 360
  376.1912 77243.3 999
  434.2328 49775.4 643
//
