ACCESSION: MSBNK-HBM4EU-HB003466
RECORD_TITLE: Cyclopenol; LC-ESI-ITFT; MS2; CE: 15%; R=7500; [M-H]-
DATE: 2021.10.11
AUTHORS: Laurent Debrauwer, Emilien L. Jamin, Research Centre in Food Toxicology (TOXALIM), INRAE, MetaboHUB-Metatoul platform, Toulouse, France
LICENSE: CC0
COPYRIGHT: Copyright (c) 2021 by Research Centre in Food Toxicology (TOXALIM), INRAE, MetaboHUB-Metatoul platform, Toulouse, France
COMMENT: HBM4EU - science and policy for a healthy future (https://www.hbm4eu.eu)
COMMENT: CONFIDENCE Reference Standard (Level 1)
COMMENT: INTERNAL_ID 139
CH$NAME: Cyclopenol
CH$NAME: Spiro[3H-1,4-benzodiazepine-3,2`-oxirane]-2,5(1H,4H)-dione, 3`-(3-hydroxyphenyl)-4-methyl-, cis-(-)-
CH$NAME: 3`-(3-hydroxyphenyl)-4-methylspiro[1H-1,4-benzodiazepine-3,2`-oxirane]-2,5-dione
CH$COMPOUND_CLASS: N/A; Environmental Standard
CH$FORMULA: C17H14N2O4
CH$EXACT_MASS: 310.09536
CH$SMILES: CN1C(=O)C2=CC=CC=C2NC(=O)C13C(O3)C4=CC(=CC=C4)O
CH$IUPAC: InChI=1S/C17H14N2O4/c1-19-15(21)12-7-2-3-8-13(12)18-16(22)17(19)14(23-17)10-5-4-6-11(20)9-10/h2-9,14,20H,1H3,(H,18,22)
CH$LINK: CAS 20007-85-6
CH$LINK: PUBCHEM CID:101201
CH$LINK: INCHIKEY BDDNYDPRCCDQQJ-UHFFFAOYSA-N
CH$LINK: CHEMSPIDER 91438
AC$INSTRUMENT: LTQ Orbitrap XL Thermo Scientific
AC$INSTRUMENT_TYPE: LC-ESI-ITFT
AC$MASS_SPECTROMETRY: MS_TYPE MS2
AC$MASS_SPECTROMETRY: ION_MODE NEGATIVE
AC$MASS_SPECTROMETRY: IONIZATION ESI
AC$MASS_SPECTROMETRY: FRAGMENTATION_MODE HCD
AC$MASS_SPECTROMETRY: COLLISION_ENERGY 15 % (nominal)
AC$MASS_SPECTROMETRY: RESOLUTION 7500
AC$CHROMATOGRAPHY: COLUMN_NAME Hypersil GOLD C18 1.9 um 100 x 2.1 mm Thermo Fisher Scientific
AC$CHROMATOGRAPHY: FLOW_GRADIENT 100/0 at 0 min, 0/100 at 30 min, 0/100 at 35 min
AC$CHROMATOGRAPHY: FLOW_RATE 300 uL/min
AC$CHROMATOGRAPHY: RETENTION_TIME 11.668 min
AC$CHROMATOGRAPHY: SOLVENT A water with 5% methanol and 0.1% acetic acid
AC$CHROMATOGRAPHY: SOLVENT B methanol with 0.1% acetic acid
MS$FOCUSED_ION: BASE_PEAK 309.0888
MS$FOCUSED_ION: PRECURSOR_M/Z 309.0881
MS$FOCUSED_ION: PRECURSOR_TYPE [M-H]-
MS$FOCUSED_ION: PRECURSOR_INTENSITY 11202976.82837
MS$DATA_PROCESSING: RECALIBRATE loess on assigned fragments and MS1
MS$DATA_PROCESSING: REANALYZE Peaks with additional N2/O included
MS$DATA_PROCESSING: WHOLE RMassBank 3.2.0
PK$SPLASH: splash10-0a4i-0219000000-9ded13b3f0da40bb0eb2
PK$ANNOTATION: m/z tentative_formula formula_count mass error(ppm)
  71.9856 C2O3- 1 71.9853 4.39
  102.0349 C7H4N- 1 102.0349 0.03
  121.0297 C7H5O2- 1 121.0295 1.78
  133.0298 C8H5O2- 1 133.0295 2.17
  137.0247 C7H5O3- 1 137.0244 1.82
  159.0562 C9H7N2O- 1 159.0564 -0.96
  175.0514 C9H7N2O2- 1 175.0513 0.62
  224.0707 C14H10NO2- 1 224.0717 -4.38
  238.0875 C15H12NO2- 1 238.0874 0.46
  252.0668 C15H10NO3- 1 252.0666 0.68
  265.0985 C16H13N2O2- 1 265.0983 0.82
  266.0824 C16H12NO3- 1 266.0823 0.46
  309.088 C17H13N2O4- 1 309.0881 -0.26
PK$NUM_PEAK: 13
PK$PEAK: m/z int. rel.int.
  71.9856 2753.1 1
  102.0349 3572.1 1
  121.0297 137258.6 69
  133.0298 11899.2 6
  137.0247 8581.6 4
  159.0562 26313.4 13
  175.0514 352646.4 177
  224.0707 4640.4 2
  238.0875 56850.8 28
  252.0668 63509 32
  265.0985 50529.8 25
  266.0824 77519.2 39
  309.088 1980290.9 999
//
