ACCESSION: MSBNK-HBM4EU-HB002370
RECORD_TITLE: Mefruside; LC-ESI-ITFT; MS2; CE: 40%; R=7500; [M+H]+
DATE: 2020.02.20
AUTHORS: Laurent Debrauwer, Emilien L. Jamin, Research Centre in Food Toxicology (TOXALIM), INRAE, MetaboHUB-Metatoul platform, Toulouse, France
LICENSE: CC0
COPYRIGHT: Copyright (c) 2000 by Research Centre in Food Toxicology (TOXALIM), INRAE, MetaboHUB-Metatoul platform, Toulouse, France
PUBLICATION: Oberacher H, Sasse M, Antignac J-P, Guitton Y, Debrauwer L, Jamin E L, Schulze T, Krauss M, Covaci A, Caballero-Casero N, Rosseau K, Damont A, Fenaille F, Lamoree M, Schymanski E, A European proposal for quality control and quality assurance of tandem mass spectral libraries, Environmental Sciences Europe, https://doi.org/10.1186/s12302-020-00314-9
COMMENT: CONFIDENCE Reference Standard (Level 1)
COMMENT: HBM4EU - science and policy for a healthy future (https://www.hbm4eu.eu)
CH$NAME: Mefruside
CH$NAME: 4-Chloro-N1-methyl-N1-[(2-methyloxolan-2-yl)methyl]benzene-1,3-disulfonamide
CH$COMPOUND_CLASS: N/A; Environmental Standard
CH$FORMULA: C13H19ClN2O5S2
CH$EXACT_MASS: 382.0424
CH$SMILES: CN(CC1(C)CCCO1)S(=O)(=O)C1=CC=C(Cl)C(=C1)S(N)(=O)=O
CH$IUPAC: InChI=1S/C13H19ClN2O5S2/c1-13(6-3-7-21-13)9-16(2)23(19,20)10-4-5-11(14)12(8-10)22(15,17)18/h4-5,8H,3,6-7,9H2,1-2H3,(H2,15,17,18)
CH$LINK: CAS 7195-27-9
CH$LINK: COMPTOX DTXSID0048844
CH$LINK: INCHIKEY SMNOERSLNYGGOU-UHFFFAOYSA-N
CH$LINK: PUBCHEM CID:4047
AC$INSTRUMENT: LTQ Orbitrap XL Thermo Fisher Scientific
AC$INSTRUMENT_TYPE: LC-ESI-ITFT
AC$MASS_SPECTROMETRY: MS_TYPE MS2
AC$MASS_SPECTROMETRY: ION_MODE POSITIVE
AC$MASS_SPECTROMETRY: IONIZATION ESI
AC$MASS_SPECTROMETRY: FRAGMENTATION_MODE HCD
AC$MASS_SPECTROMETRY: COLLISION_ENERGY 40% (nominal)
AC$MASS_SPECTROMETRY: RESOLUTION 7500
AC$CHROMATOGRAPHY: COLUMN_NAME Hypersil GOLD C18 1.9 um 100 x 2.1 mm Thermo Fisher Scientific
AC$CHROMATOGRAPHY: FLOW_GRADIENT 100/0 at 0 min, 0/100 at 30 min, 0/100 at 35 min
AC$CHROMATOGRAPHY: FLOW_RATE 300 uL/min
AC$CHROMATOGRAPHY: SOLVENT A water with 5% methanol and 0.1% acetic acid
AC$CHROMATOGRAPHY: SOLVENT B methanol with 0.1% acetic acid
MS$FOCUSED_ION: PRECURSOR_M/Z 383.0497
MS$FOCUSED_ION: PRECURSOR_TYPE [M+H]+
PK$SPLASH: splash10-003r-9540000000-686c9ae69df2e5770be3
PK$NUM_PEAK: 32
PK$PEAK: m/z int. rel.int.
  57.0334 5255.7 20
  69.0695 4980.3 19
  71.0855 4595.7 18
  73.1148 3808 15
  79.0541 11289.7 44
  81.0697 257103.2 999
  84.0806 102832 400
  86.0599 24802.5 96
  96.0807 7280.9 28
  97.0647 11975.4 47
  97.3374 2801.4 11
  99.0804 120976.3 470
  110.0964 9967.9 39
  111.1041 6721.7 26
  112.1122 4612.9 18
  128.1069 59015.2 229
  129.1147 254779.8 990
  135.9943 1750.4 7
  136.0272 3560.9 14
  188.9128 3349.3 13
  188.9324 4548.2 18
  198.7895 4449.4 17
  203.1376 2369.7 9
  203.9878 12053.3 47
  217.9786 39376.4 153
  237.9395 4547.9 18
  253.9345 81170.6 315
  267.95 27174 106
  273.8045 6879.3 27
  284.9767 82132.9 319
  296.9766 23135.7 90
  350.5942 3815.9 15
//
