ACCESSION: MSBNK-HBM4EU-HB000240
RECORD_TITLE: Nylidrin; LC-ESI-ITFT; MS2; CE: 125%; R=15000; [M+H]+
DATE: 2018.09.08
AUTHORS: Tobias Schulze, Carolin Huber, Martin Krauss, Department of Effect-Directed Analysis, Helmholtz Centre for Environmental Research GmbH - UFZ, Leipzig, Germany
LICENSE: CC0
COPYRIGHT: Copyright (C) 2018
PUBLICATION: Oberacher H, Sasse M, Antignac J-P, Guitton Y, Debrauwer L, Jamin E L, Schulze T, Krauss M, Covaci A, Caballero-Casero N, Rosseau K, Damont A, Fenaille F, Lamoree M, Schymanski E, A European proposal for quality control and quality assurance of tandem mass spectral libraries, Environmental Sciences Europe, https://doi.org/10.1186/s12302-020-00314-9
COMMENT: CONFIDENCE Reference Standard (Level 1)
COMMENT: HBM4EU - science and policy for a healthy future (https://www.hbm4eu.eu)
CH$NAME: Nylidrin
CH$NAME: 4-[1-hydroxy-2-(4-phenylbutan-2-ylamino)propyl]phenol
CH$COMPOUND_CLASS: N/A; Environmental Standard
CH$FORMULA: C19H25NO2
CH$EXACT_MASS: 299.1885
CH$SMILES: CC(CCC1=CC=CC=C1)NC(C)C(C2=CC=C(C=C2)O)O
CH$IUPAC: InChI=1S/C19H25NO2/c1-14(8-9-16-6-4-3-5-7-16)20-15(2)19(22)17-10-12-18(21)13-11-17/h3-7,10-15,19-22H,8-9H2,1-2H3
CH$LINK: CAS 447-41-6
CH$LINK: CHEBI CHEBI:91656
CH$LINK: KEGG D07551
CH$LINK: PUBCHEM CID:4567
CH$LINK: INCHIKEY PTGXAUBQBSGPKF-UHFFFAOYSA-N
CH$LINK: CHEMSPIDER 4407
AC$INSTRUMENT: LTQ Orbitrap XL Thermo Scientific
AC$INSTRUMENT_TYPE: LC-ESI-ITFT
AC$MASS_SPECTROMETRY: MS_TYPE MS2
AC$MASS_SPECTROMETRY: ION_MODE POSITIVE
AC$MASS_SPECTROMETRY: IONIZATION ESI
AC$MASS_SPECTROMETRY: FRAGMENTATION_MODE HCD
AC$MASS_SPECTROMETRY: COLLISION_ENERGY 125% (nominal)
AC$MASS_SPECTROMETRY: RESOLUTION 15000
AC$CHROMATOGRAPHY: COLUMN_NAME Kinetex Evo C18 2.6 um 50 x 2.1 mm
AC$CHROMATOGRAPHY: FLOW_GRADIENT 95/5 at 0 min, 95/5 at 1 min, 0/100 at 13 min, 0/100 at 24 min, 95/5 at 24.3 min, 95/5 at 32 min
AC$CHROMATOGRAPHY: FLOW_RATE 300 uL/min
AC$CHROMATOGRAPHY: RETENTION_TIME 6.861 min
AC$CHROMATOGRAPHY: SOLVENT A water with 0.1% formic acid
AC$CHROMATOGRAPHY: SOLVENT B methanol with 0.1% formic acid
MS$FOCUSED_ION: BASE_PEAK 300.1958
MS$FOCUSED_ION: PRECURSOR_M/Z 300.1958
MS$FOCUSED_ION: PRECURSOR_TYPE [M+H]+
MS$DATA_PROCESSING: RECALIBRATE loess on assigned fragments and MS1
MS$DATA_PROCESSING: REANALYZE Peaks with additional N2/O included
MS$DATA_PROCESSING: WHOLE RMassBank 2.9.1
PK$SPLASH: splash10-0006-9300000000-8b9da045e34bcdd0474d
PK$ANNOTATION: m/z tentative_formula formula_count mass error(ppm)
  65.0384 C5H5+ 1 65.0386 -3.32
  77.0385 C6H5+ 1 77.0386 -0.8
  79.0542 C6H7+ 1 79.0542 -0.96
  81.0696 C6H9+ 1 81.0699 -3.49
  89.0384 C7H5+ 1 89.0386 -1.64
  91.0542 C7H7+ 1 91.0542 -0.57
  94.0413 C6H6O+ 1 94.0413 -0.66
  95.0491 C6H7O+ 1 95.0491 -0.58
  103.0542 C8H7+ 1 103.0542 -0.52
  105.0447 C6H5N2+ 1 105.0447 -0.52
  105.0698 C8H9+ 1 105.0699 -0.79
  107.0491 C7H7O+ 1 107.0491 -0.52
  108.0572 C7H8O+ 1 108.057 2.27
  115.0542 C9H7+ 1 115.0542 -0.51
  117.0573 C8H7N+ 1 117.0573 -0.37
  120.0444 C7H6NO+ 1 120.0444 -0.25
  131.0491 C9H7O+ 1 131.0491 -0.55
  133.0649 C9H9O+ 1 133.0648 0.84
  134.0598 C8H8NO+ 1 134.06 -1.76
  135.0679 C8H9NO+ 1 135.0679 0.07
PK$NUM_PEAK: 20
PK$PEAK: m/z int. rel.int.
  65.0384 922707.9 98
  77.0385 574211 61
  79.0542 1195479.9 127
  81.0696 36084.9 3
  89.0384 36659.5 3
  91.0542 9342674 999
  94.0413 205958.7 22
  95.0491 177061 18
  103.0542 854477.4 91
  105.0447 710257.4 75
  105.0698 1545283.6 165
  107.0491 734716.4 78
  108.0572 44742.8 4
  115.0542 441705.8 47
  117.0573 37849 4
  120.0444 155456.5 16
  131.0491 105505.2 11
  133.0649 66669.2 7
  134.0598 145354.2 15
  135.0679 211112.5 22
//
