ACCESSION: MSBNK-HBM4EU-HB002396
RECORD_TITLE: Nylidrin; LC-ESI-ITFT; MS2; CE: 20%; R=7500; [M+H]+
DATE: 2020.02.20
AUTHORS: Laurent Debrauwer, Emilien L. Jamin, Research Centre in Food Toxicology (TOXALIM), INRAE, MetaboHUB-Metatoul platform, Toulouse, France
LICENSE: CC0
COPYRIGHT: Copyright (c) 2000 by Research Centre in Food Toxicology (TOXALIM), INRAE, MetaboHUB-Metatoul platform, Toulouse, France
PUBLICATION: Oberacher H, Sasse M, Antignac J-P, Guitton Y, Debrauwer L, Jamin E L, Schulze T, Krauss M, Covaci A, Caballero-Casero N, Rosseau K, Damont A, Fenaille F, Lamoree M, Schymanski E, A European proposal for quality control and quality assurance of tandem mass spectral libraries, Environmental Sciences Europe, https://doi.org/10.1186/s12302-020-00314-9
COMMENT: CONFIDENCE Reference Standard (Level 1)
COMMENT: HBM4EU - science and policy for a healthy future (https://www.hbm4eu.eu)
CH$NAME: Nylidrin
CH$NAME: 4-{1-Hydroxy-2-[(4-phenylbutan-2-yl)amino]propyl}phenol
CH$COMPOUND_CLASS: N/A; Environmental Standard
CH$FORMULA: C19H25NO2
CH$EXACT_MASS: 299.1885
CH$SMILES: CC(CCC1=CC=CC=C1)NC(C)C(O)C1=CC=C(O)C=C1
CH$IUPAC: InChI=1S/C19H25NO2/c1-14(8-9-16-6-4-3-5-7-16)20-15(2)19(22)17-10-12-18(21)13-11-17/h3-7,10-15,19-22H,8-9H2,1-2H3
CH$LINK: CAS 447-41-6
CH$LINK: COMPTOX DTXSID4023387
CH$LINK: INCHIKEY PTGXAUBQBSGPKF-UHFFFAOYSA-N
CH$LINK: PUBCHEM CID:4567
AC$INSTRUMENT: LTQ Orbitrap XL Thermo Fisher Scientific
AC$INSTRUMENT_TYPE: LC-ESI-ITFT
AC$MASS_SPECTROMETRY: MS_TYPE MS2
AC$MASS_SPECTROMETRY: ION_MODE POSITIVE
AC$MASS_SPECTROMETRY: IONIZATION ESI
AC$MASS_SPECTROMETRY: FRAGMENTATION_MODE HCD
AC$MASS_SPECTROMETRY: COLLISION_ENERGY 20% (nominal)
AC$MASS_SPECTROMETRY: RESOLUTION 7500
AC$CHROMATOGRAPHY: COLUMN_NAME Hypersil GOLD C18 1.9 um 100 x 2.1 mm Thermo Fisher Scientific
AC$CHROMATOGRAPHY: FLOW_GRADIENT 100/0 at 0 min, 0/100 at 30 min, 0/100 at 35 min
AC$CHROMATOGRAPHY: FLOW_RATE 300 uL/min
AC$CHROMATOGRAPHY: SOLVENT A water with 5% methanol and 0.1% acetic acid
AC$CHROMATOGRAPHY: SOLVENT B methanol with 0.1% acetic acid
MS$FOCUSED_ION: PRECURSOR_M/Z 300.1959
MS$FOCUSED_ION: PRECURSOR_TYPE [M+H]+
PK$SPLASH: splash10-0udi-0039000000-2d9159bb03002ccfcec3
PK$NUM_PEAK: 6
PK$PEAK: m/z int. rel.int.
  91.0529 35093.4 2
  150.1275 137413.6 8
  151.0748 22722.1 1
  178.1222 43317.3 2
  282.1851 6405870 361
  300.1959 17723926 999
//
