ACCESSION: MSBNK-HBM4EU-HB002957
RECORD_TITLE: T-2 tetraol; LC-ESI-ITFT; MS2; CE: 60%; R=7500; [M-H]-
DATE: 2021.10.11
AUTHORS: Laurent Debrauwer, Emilien L. Jamin, Research Centre in Food Toxicology (TOXALIM), INRAE, MetaboHUB-Metatoul platform, Toulouse, France
LICENSE: CC0
COPYRIGHT: Copyright (c) 2021 by Research Centre in Food Toxicology (TOXALIM), INRAE, MetaboHUB-Metatoul platform, Toulouse, France
COMMENT: HBM4EU - science and policy for a healthy future (https://www.hbm4eu.eu)
COMMENT: CONFIDENCE Reference Standard (Level 1)
COMMENT: INTERNAL_ID 6
CH$NAME: T-2 tetraol
CH$NAME: T-2 Toxin tetraol
CH$NAME: 2-(hydroxymethyl)-1,5-dimethylspiro[8-oxatricyclo[7.2.1.02,7]dodec-5-ene-12,2`-oxirane]-4,10,11-triol
CH$COMPOUND_CLASS: N/A; Environmental Standard
CH$FORMULA: C15H22O6
CH$EXACT_MASS: 298.1416
CH$SMILES: CC1=CC2C(CC1O)(C3(C(C(C(C34CO4)O2)O)O)C)CO
CH$IUPAC: InChI=1S/C15H22O6/c1-7-3-9-14(5-16,4-8(7)17)13(2)11(19)10(18)12(21-9)15(13)6-20-15/h3,8-12,16-19H,4-6H2,1-2H3
CH$LINK: CAS 34114-99-3
CH$LINK: CHEBI CHEBI:172528
CH$LINK: PUBCHEM CID:599328
CH$LINK: INCHIKEY ZAXZBJSXSOISTF-UHFFFAOYSA-N
CH$LINK: CHEMSPIDER 521016
AC$INSTRUMENT: LTQ Orbitrap XL Thermo Scientific
AC$INSTRUMENT_TYPE: LC-ESI-ITFT
AC$MASS_SPECTROMETRY: MS_TYPE MS2
AC$MASS_SPECTROMETRY: ION_MODE NEGATIVE
AC$MASS_SPECTROMETRY: IONIZATION ESI
AC$MASS_SPECTROMETRY: FRAGMENTATION_MODE HCD
AC$MASS_SPECTROMETRY: COLLISION_ENERGY 60 % (nominal)
AC$MASS_SPECTROMETRY: RESOLUTION 7500
AC$CHROMATOGRAPHY: COLUMN_NAME Hypersil GOLD C18 1.9 um 100 x 2.1 mm Thermo Fisher Scientific
AC$CHROMATOGRAPHY: FLOW_GRADIENT 100/0 at 0 min, 0/100 at 30 min, 0/100 at 35 min
AC$CHROMATOGRAPHY: FLOW_RATE 300 uL/min
AC$CHROMATOGRAPHY: RETENTION_TIME 3.875 min
AC$CHROMATOGRAPHY: SOLVENT A water with 5% methanol and 0.1% acetic acid
AC$CHROMATOGRAPHY: SOLVENT B methanol with 0.1% acetic acid
MS$FOCUSED_ION: BASE_PEAK 357.1554
MS$FOCUSED_ION: PRECURSOR_M/Z 297.1344
MS$FOCUSED_ION: PRECURSOR_TYPE [M-H]-
MS$FOCUSED_ION: PRECURSOR_INTENSITY 105070.7783203
MS$DATA_PROCESSING: RECALIBRATE loess on assigned fragments and MS1
MS$DATA_PROCESSING: REANALYZE Peaks with additional N2/O included
MS$DATA_PROCESSING: WHOLE RMassBank 3.2.0
PK$SPLASH: splash10-0uy0-0390000000-2c2a650b6bf57456e14d
PK$ANNOTATION: m/z tentative_formula formula_count mass error(ppm)
  137.0605 C8H9O2- 1 137.0608 -2.53
  201.0343 C15H5O- 1 201.0346 -1.67
  201.0923 C13H13O2- 1 201.0921 1.04
  219.1021 C13H15O3- 1 219.1027 -2.68
PK$NUM_PEAK: 4
PK$PEAK: m/z int. rel.int.
  137.0605 7528.5 975
  201.0343 3587.8 464
  201.0923 6104.3 790
  219.1021 7712.1 999
//
