ACCESSION: MSBNK-HBM4EU-HB001759
RECORD_TITLE: Sulfamoxole; LC-ESI-ITFT; MS2; CE: 130%; R=15000; [M+H]+
DATE: 2018.09.08
AUTHORS: Tobias Schulze, Carolin Huber, Martin Krauss, Department of Effect-Directed Analysis, Helmholtz Centre for Environmental Research GmbH - UFZ, Leipzig, Germany
LICENSE: CC0
COPYRIGHT: Copyright (C) 2018
PUBLICATION: Oberacher H, Sasse M, Antignac J-P, Guitton Y, Debrauwer L, Jamin E L, Schulze T, Krauss M, Covaci A, Caballero-Casero N, Rosseau K, Damont A, Fenaille F, Lamoree M, Schymanski E, A European proposal for quality control and quality assurance of tandem mass spectral libraries, Environmental Sciences Europe, https://doi.org/10.1186/s12302-020-00314-9
COMMENT: CONFIDENCE Reference Standard (Level 1)
COMMENT: HBM4EU - science and policy for a healthy future (https://www.hbm4eu.eu)
CH$NAME: Sulfamoxole
CH$NAME: 4-amino-N-(4,5-dimethyl-1,3-oxazol-2-yl)benzenesulfonamide
CH$COMPOUND_CLASS: N/A; Environmental Standard
CH$FORMULA: C11H13N3O3S
CH$EXACT_MASS: 267.0678
CH$SMILES: CC1=C(OC(=N1)NS(=O)(=O)C2=CC=C(C=C2)N)C
CH$IUPAC: InChI=1S/C11H13N3O3S/c1-7-8(2)17-11(13-7)14-18(15,16)10-5-3-9(12)4-6-10/h3-6H,12H2,1-2H3,(H,13,14)
CH$LINK: CAS 729-99-7
CH$LINK: CHEBI CHEBI:55548
CH$LINK: KEGG D02516
CH$LINK: PUBCHEM CID:12894
CH$LINK: INCHIKEY CYFLXLSBHQBMFT-UHFFFAOYSA-N
CH$LINK: CHEMSPIDER 12361
AC$INSTRUMENT: LTQ Orbitrap XL Thermo Scientific
AC$INSTRUMENT_TYPE: LC-ESI-ITFT
AC$MASS_SPECTROMETRY: MS_TYPE MS2
AC$MASS_SPECTROMETRY: ION_MODE POSITIVE
AC$MASS_SPECTROMETRY: IONIZATION ESI
AC$MASS_SPECTROMETRY: FRAGMENTATION_MODE CID
AC$MASS_SPECTROMETRY: COLLISION_ENERGY 130% (nominal)
AC$MASS_SPECTROMETRY: RESOLUTION 15000
AC$CHROMATOGRAPHY: COLUMN_NAME Kinetex Evo C18 2.6 um 50 x 2.1 mm
AC$CHROMATOGRAPHY: FLOW_GRADIENT 95/5 at 0 min, 95/5 at 1 min, 0/100 at 13 min, 0/100 at 24 min, 95/5 at 24.3 min, 95/5 at 32 min
AC$CHROMATOGRAPHY: FLOW_RATE 300 uL/min
AC$CHROMATOGRAPHY: RETENTION_TIME 4.028 min
AC$CHROMATOGRAPHY: SOLVENT A water with 0.1% formic acid
AC$CHROMATOGRAPHY: SOLVENT B methanol with 0.1% formic acid
MS$FOCUSED_ION: BASE_PEAK 268.075
MS$FOCUSED_ION: PRECURSOR_M/Z 268.075
MS$FOCUSED_ION: PRECURSOR_TYPE [M+H]+
MS$DATA_PROCESSING: RECALIBRATE loess on assigned fragments and MS1
MS$DATA_PROCESSING: REANALYZE Peaks with additional N2/O included
MS$DATA_PROCESSING: WHOLE RMassBank 2.9.1
PK$SPLASH: splash10-0a4i-0900000000-ec2f2be5bf1351321c7a
PK$ANNOTATION: m/z tentative_formula formula_count mass error(ppm)
  65.0384 C5H5+ 1 65.0386 -2.43
  92.0495 C6H6N+ 1 92.0495 0.01
  108.0444 C6H6NO+ 1 108.0444 0
  111.0554 C5H7N2O+ 1 111.0553 0.57
  112.063 C5H8N2O+ 1 112.0631 -0.99
  113.0709 C5H9N2O+ 1 113.0709 0.05
  140.0165 C6H6NOS+ 1 140.0165 -0.01
  156.0114 C6H6NO2S+ 1 156.0114 0.15
  158.0271 C6H8NO2S+ 1 158.027 0.45
  161.1072 C10H13N2+ 1 161.1073 -0.48
  175.0171 C5H7N2O3S+ 2 175.0172 -0.36
  204.1134 C11H14N3O+ 1 204.1131 1.19
PK$NUM_PEAK: 12
PK$PEAK: m/z int. rel.int.
  65.0384 2246.3 5
  92.0495 38041.6 100
  108.0444 82593.2 217
  111.0554 13337.1 35
  112.063 4501.1 11
  113.0709 56794.8 149
  140.0165 150101 395
  156.0114 378821.2 999
  158.0271 3913.7 10
  161.1072 3416.1 9
  175.0171 4420.1 11
  204.1134 1420.5 3
//
