ACCESSION: MSBNK-HBM4EU-HB000345
RECORD_TITLE: Dibucaine; LC-ESI-ITFT; MS2; CE: 150%; R=15000; [M+H]+
DATE: 2018.09.08
AUTHORS: Tobias Schulze, Carolin Huber, Martin Krauss, Department of Effect-Directed Analysis, Helmholtz Centre for Environmental Research GmbH - UFZ, Leipzig, Germany
LICENSE: CC0
COPYRIGHT: Copyright (C) 2018
PUBLICATION: Oberacher H, Sasse M, Antignac J-P, Guitton Y, Debrauwer L, Jamin E L, Schulze T, Krauss M, Covaci A, Caballero-Casero N, Rosseau K, Damont A, Fenaille F, Lamoree M, Schymanski E, A European proposal for quality control and quality assurance of tandem mass spectral libraries, Environmental Sciences Europe, https://doi.org/10.1186/s12302-020-00314-9
COMMENT: CONFIDENCE Reference Standard (Level 1)
COMMENT: HBM4EU - science and policy for a healthy future (https://www.hbm4eu.eu)
CH$NAME: Dibucaine
CH$NAME: 2-butoxy-N-[2-(diethylamino)ethyl]quinoline-4-carboxamide
CH$COMPOUND_CLASS: N/A; Environmental Standard
CH$FORMULA: C20H29N3O2
CH$EXACT_MASS: 343.2260
CH$SMILES: CCCCOC1=NC2=CC=CC=C2C(=C1)C(=O)NCCN(CC)CC
CH$IUPAC: InChI=1S/C20H29N3O2/c1-4-7-14-25-19-15-17(16-10-8-9-11-18(16)22-19)20(24)21-12-13-23(5-2)6-3/h8-11,15H,4-7,12-14H2,1-3H3,(H,21,24)
CH$LINK: CAS 85-79-0
CH$LINK: CHEBI CHEBI:247956
CH$LINK: KEGG D00733
CH$LINK: PUBCHEM CID:3025
CH$LINK: INCHIKEY PUFQVTATUTYEAL-UHFFFAOYSA-N
CH$LINK: CHEMSPIDER 2917
AC$INSTRUMENT: LTQ Orbitrap XL Thermo Scientific
AC$INSTRUMENT_TYPE: LC-ESI-ITFT
AC$MASS_SPECTROMETRY: MS_TYPE MS2
AC$MASS_SPECTROMETRY: ION_MODE POSITIVE
AC$MASS_SPECTROMETRY: IONIZATION ESI
AC$MASS_SPECTROMETRY: FRAGMENTATION_MODE HCD
AC$MASS_SPECTROMETRY: COLLISION_ENERGY 150% (nominal)
AC$MASS_SPECTROMETRY: RESOLUTION 15000
AC$CHROMATOGRAPHY: COLUMN_NAME Kinetex Evo C18 2.6 um 50 x 2.1 mm
AC$CHROMATOGRAPHY: FLOW_GRADIENT 95/5 at 0 min, 95/5 at 1 min, 0/100 at 13 min, 0/100 at 24 min, 95/5 at 24.3 min, 95/5 at 32 min
AC$CHROMATOGRAPHY: FLOW_RATE 300 uL/min
AC$CHROMATOGRAPHY: RETENTION_TIME 8.751 min
AC$CHROMATOGRAPHY: SOLVENT A water with 0.1% formic acid
AC$CHROMATOGRAPHY: SOLVENT B methanol with 0.1% formic acid
MS$FOCUSED_ION: BASE_PEAK 344.2333
MS$FOCUSED_ION: PRECURSOR_M/Z 344.2333
MS$FOCUSED_ION: PRECURSOR_TYPE [M+H]+
MS$DATA_PROCESSING: RECALIBRATE loess on assigned fragments and MS1
MS$DATA_PROCESSING: REANALYZE Peaks with additional N2/O included
MS$DATA_PROCESSING: WHOLE RMassBank 2.9.1
PK$SPLASH: splash10-014r-6900000000-d0ba1640fbfc11f6154d
PK$ANNOTATION: m/z tentative_formula formula_count mass error(ppm)
  63.0227 C5H3+ 1 63.0229 -3.96
  72.0808 C4H10N+ 1 72.0808 0.2
  89.0385 C7H5+ 1 89.0386 -0.35
  90.0337 C6H4N+ 1 90.0338 -1.34
  91.0541 C7H7+ 1 91.0542 -1.29
  115.0419 C8H5N+ 1 115.0417 2.41
  116.0494 C8H6N+ 1 116.0495 -0.55
  117.0573 C8H7N+ 1 117.0573 0.19
  128.0493 C9H6N+ 1 128.0495 -1.56
  129.0447 C8H5N2+ 1 129.0447 -0.46
  134.06 C8H8NO+ 1 134.06 -0.07
  144.0444 C9H6NO+ 1 144.0444 0.33
  154.0397 C9H4N3+ 1 154.04 -1.59
PK$NUM_PEAK: 13
PK$PEAK: m/z int. rel.int.
  63.0227 160158.4 26
  72.0808 38564.1 6
  89.0385 4734297.5 782
  90.0337 150322.3 24
  91.0541 49308.1 8
  115.0419 100593.6 16
  116.0494 6047356 999
  117.0573 60386.4 9
  128.0493 44964.9 7
  129.0447 63872.5 10
  134.06 178080 29
  144.0444 68229.3 11
  154.0397 95548.8 15
//
