ACCESSION: MSBNK-HBM4EU-HB001616
RECORD_TITLE: Sulfamethoxazole; LC-ESI-ITFT; MS2; CE: 45%; R=15000; [M+H]+
DATE: 2018.09.08
AUTHORS: Tobias Schulze, Carolin Huber, Martin Krauss, Department of Effect-Directed Analysis, Helmholtz Centre for Environmental Research GmbH - UFZ, Leipzig, Germany
LICENSE: CC0
COPYRIGHT: Copyright (C) 2018
PUBLICATION: Oberacher H, Sasse M, Antignac J-P, Guitton Y, Debrauwer L, Jamin E L, Schulze T, Krauss M, Covaci A, Caballero-Casero N, Rosseau K, Damont A, Fenaille F, Lamoree M, Schymanski E, A European proposal for quality control and quality assurance of tandem mass spectral libraries, Environmental Sciences Europe, https://doi.org/10.1186/s12302-020-00314-9
COMMENT: CONFIDENCE Reference Standard (Level 1)
COMMENT: HBM4EU - science and policy for a healthy future (https://www.hbm4eu.eu)
CH$NAME: Sulfamethoxazole
CH$NAME: 4-amino-N-(5-methyl-1,2-oxazol-3-yl)benzenesulfonamide
CH$COMPOUND_CLASS: N/A; Environmental Standard
CH$FORMULA: C10H11N3O3S
CH$EXACT_MASS: 253.0521
CH$SMILES: CC1=CC(=NO1)NS(=O)(=O)C2=CC=C(C=C2)N
CH$IUPAC: InChI=1S/C10H11N3O3S/c1-7-6-10(12-16-7)13-17(14,15)9-4-2-8(11)3-5-9/h2-6H,11H2,1H3,(H,12,13)
CH$LINK: CAS 723-46-6
CH$LINK: CHEBI CHEBI:9332
CH$LINK: KEGG D00447
CH$LINK: PUBCHEM CID:5329
CH$LINK: INCHIKEY JLKIGFTWXXRPMT-UHFFFAOYSA-N
CH$LINK: CHEMSPIDER 5138
AC$INSTRUMENT: LTQ Orbitrap XL Thermo Scientific
AC$INSTRUMENT_TYPE: LC-ESI-ITFT
AC$MASS_SPECTROMETRY: MS_TYPE MS2
AC$MASS_SPECTROMETRY: ION_MODE POSITIVE
AC$MASS_SPECTROMETRY: IONIZATION ESI
AC$MASS_SPECTROMETRY: FRAGMENTATION_MODE HCD
AC$MASS_SPECTROMETRY: COLLISION_ENERGY 45% (nominal)
AC$MASS_SPECTROMETRY: RESOLUTION 15000
AC$CHROMATOGRAPHY: COLUMN_NAME Kinetex Evo C18 2.6 um 50 x 2.1 mm
AC$CHROMATOGRAPHY: FLOW_GRADIENT 95/5 at 0 min, 95/5 at 1 min, 0/100 at 13 min, 0/100 at 24 min, 95/5 at 24.3 min, 95/5 at 32 min
AC$CHROMATOGRAPHY: FLOW_RATE 300 uL/min
AC$CHROMATOGRAPHY: RETENTION_TIME 5.604 min
AC$CHROMATOGRAPHY: SOLVENT A water with 0.1% formic acid
AC$CHROMATOGRAPHY: SOLVENT B methanol with 0.1% formic acid
MS$FOCUSED_ION: BASE_PEAK 189.1022
MS$FOCUSED_ION: PRECURSOR_M/Z 254.0594
MS$FOCUSED_ION: PRECURSOR_TYPE [M+H]+
MS$DATA_PROCESSING: RECALIBRATE loess on assigned fragments and MS1
MS$DATA_PROCESSING: REANALYZE Peaks with additional N2/O included
MS$DATA_PROCESSING: WHOLE RMassBank 2.9.1
PK$SPLASH: splash10-0a4i-4900000000-f7fed4e1386b7c88fb6f
PK$ANNOTATION: m/z tentative_formula formula_count mass error(ppm)
  65.0384 C5H5+ 1 65.0386 -2.46
  80.0496 C5H6N+ 1 80.0495 1.63
  92.0495 C6H6N+ 1 92.0495 -0.03
  93.0573 C6H7N+ 1 93.0573 -0.46
  94.0651 C6H8N+ 1 94.0651 -0.39
  99.0553 C4H7N2O+ 1 99.0553 -0.3
  107.0604 C6H7N2+ 1 107.0604 0.43
  108.0444 C6H6NO+ 1 108.0444 -0.3
  110.06 C6H8NO+ 1 110.06 -0.36
  120.0556 C6H6N3+ 1 120.0556 -0.27
  121.0759 C7H9N2+ 1 121.076 -1.42
  131.0601 C8H7N2+ 1 131.0604 -2.39
  132.0683 C8H8N2+ 1 132.0682 0.51
  133.0633 C7H7N3+ 1 133.0634 -1.2
  146.0713 C8H8N3+ 1 146.0713 -0.09
  147.0791 C8H9N3+ 1 147.0791 -0.1
  148.0868 C8H10N3+ 1 148.0869 -0.73
  156.0113 C6H6NO2S+ 1 156.0114 -0.18
  160.0868 C9H10N3+ 1 160.0869 -0.57
  161.0015 C4H5N2O3S+ 1 161.0015 -0.33
  161.0711 C9H9N2O+ 1 161.0709 0.79
  176.0274 C8H6N3S+ 1 176.0277 -1.86
  188.0818 C10H10N3O+ 1 188.0818 -0.26
  190.0976 C10H12N3O+ 1 190.0975 0.72
  194.0379 C8H8N3OS+ 1 194.0383 -1.95
  254.0594 C10H12N3O3S+ 1 254.0594 -0.1
PK$NUM_PEAK: 26
PK$PEAK: m/z int. rel.int.
  65.0384 23899.3 34
  80.0496 3464.6 4
  92.0495 387726 556
  93.0573 149724.6 215
  94.0651 13875.8 19
  99.0553 158281.6 227
  107.0604 18635.8 26
  108.0444 449599.6 645
  110.06 11311.9 16
  120.0556 10042 14
  121.0759 2660.2 3
  131.0601 4494.9 6
  132.0683 3080.1 4
  133.0633 3371.7 4
  146.0713 21931.8 31
  147.0791 80999 116
  148.0868 20267.1 29
  156.0113 695651.1 999
  160.0868 110447.8 158
  161.0015 8530.5 12
  161.0711 1107.5 1
  176.0274 5666.8 8
  188.0818 31043.9 44
  190.0976 8676 12
  194.0379 6230 8
  254.0594 30095.1 43
//
