ACCESSION: MSBNK-Eawag_Additional_Specs-ET070001
RECORD_TITLE: FLU_310.1415_14.5; LC-ESI-QFT; MS2; CE: 15-90; R=17500; [M+H]+
DATE: 2016.03.17 (Created 2015.09.25, modified 2016.02.03)
AUTHORS: R. Gulde, E. Schymanski, K. Fenner, Department of Environmental Chemistry, Eawag
LICENSE: CC BY
COPYRIGHT: Copyright (C) 2016 Eawag, Duebendorf, Switzerland
PUBLICATION: Gulde, R.; Meier, U.; Schymanski, E. L.; Kohler, H.-P. E.; Helbling, D. E.; Derrer, S.; Rentsch, D.; Fenner, K. Systematic Exploration of Biotransformation Reactions of Amine-Containing Micropollutants in Activated Sludge. Environmental Science & Technology 2016, 50 (6), 2908–20. DOI:10.1021/acs.est.5b05186
COMMENT: CONFIDENCE Parent Substance with Reference Standard (Level 1)
COMMENT: INTERNAL_ID 700
CH$NAME: FLU_310.1415_14.5
CH$NAME: Fluoxetine
CH$NAME: N-methyl-3-phenyl-3-[4-(trifluoromethyl)phenoxy]propan-1-amine
CH$COMPOUND_CLASS: N/A; Environmental Reference Standard
CH$FORMULA: C17H18F3NO
CH$EXACT_MASS: 309.1340
CH$SMILES: CNCCC(OC1=CC=C(C=C1)C(F)(F)F)C1=CC=CC=C1
CH$IUPAC: InChI=1S/C17H18F3NO/c1-21-12-11-16(13-5-3-2-4-6-13)22-15-9-7-14(8-10-15)17(18,19)20/h2-10,16,21H,11-12H2,1H3
CH$LINK: CAS 59333-67-4
CH$LINK: CHEBI CHEBI:5118
CH$LINK: KEGG D00326
CH$LINK: PUBCHEM CID:3386
CH$LINK: INCHIKEY RTHCYVBBDHJXIQ-UHFFFAOYSA-N
CH$LINK: CHEMSPIDER 3269
CH$LINK: COMPTOX DTXSID7023067
AC$INSTRUMENT: Q Exactive Orbitrap Thermo Scientific
AC$INSTRUMENT_TYPE: LC-ESI-QFT
AC$MASS_SPECTROMETRY: MS_TYPE MS2
AC$MASS_SPECTROMETRY: ION_MODE POSITIVE
AC$MASS_SPECTROMETRY: IONIZATION ESI
AC$MASS_SPECTROMETRY: FRAGMENTATION_MODE HCD
AC$MASS_SPECTROMETRY: COLLISION_ENERGY 15, 30, 45, 60, 70 or 90 (nominal)
AC$MASS_SPECTROMETRY: RESOLUTION 17500
AC$CHROMATOGRAPHY: COLUMN_NAME Atlantis T3 3um, 3.0x150mm, Waters with guard column
AC$CHROMATOGRAPHY: FLOW_GRADIENT 95/5 at 0 min, 5/95 at 15 min, 5/95 at 20 min, 95/5 at 20.1 min, 95/5 at 25 min
AC$CHROMATOGRAPHY: FLOW_RATE 300 uL/min
AC$CHROMATOGRAPHY: RETENTION_TIME 14.8 min
AC$CHROMATOGRAPHY: SOLVENT A water with 0.1% formic acid
AC$CHROMATOGRAPHY: SOLVENT B methanol with 0.1% formic acid
MS$FOCUSED_ION: BASE_PEAK 310.1411
MS$FOCUSED_ION: PRECURSOR_M/Z 310.1413
MS$FOCUSED_ION: PRECURSOR_TYPE [M+H]+
MS$DATA_PROCESSING: RECALIBRATE loess on assigned fragments and MS1
MS$DATA_PROCESSING: REANALYZE Peaks with additional N2/O included
MS$DATA_PROCESSING: WHOLE RMassBank 1.99.7
PK$SPLASH: splash10-014l-4900000000-2940e7bc3f6a559e61fc
PK$ANNOTATION: m/z tentative_formula formula_count mass error(ppm)
  91.0543 C7H7+ 1 91.0542 1.14
  117.0696 C9H9+ 1 117.0699 -2.79
PK$NUM_PEAK: 2
PK$PEAK: m/z int. rel.int.
  91.0543 21661.1 525
  117.0696 41211.1 999
//
