ACCESSION: MSBNK-Eawag_Additional_Specs-ET181002
RECORD_TITLE: SPI_270.2429_14.9; LC-ESI-QFT; MS2; CE: 30; R=17500; [M+H]+
DATE: 2016.03.17 (Created 2015.09.25, modified 2016.02.03)
AUTHORS: R. Gulde, E. Schymanski, K. Fenner, Department of Environmental Chemistry, Eawag
LICENSE: CC BY
COPYRIGHT: Copyright (C) 2016 Eawag, Duebendorf, Switzerland
PUBLICATION: Gulde, R.; Meier, U.; Schymanski, E. L.; Kohler, H.-P. E.; Helbling, D. E.; Derrer, S.; Rentsch, D.; Fenner, K. Systematic Exploration of Biotransformation Reactions of Amine-Containing Micropollutants in Activated Sludge. Environmental Science & Technology 2016, 50 (6), 2908–20. DOI:10.1021/acs.est.5b05186
COMMENT: CONFIDENCE Probable structure via diagnostic evidence, tentative identification (Level 2b)
COMMENT: INTERNAL_ID 1810
CH$NAME: SPI_270.2429_14.9
CH$NAME: N-deethylspiroxamine
CH$COMPOUND_CLASS: N/A; Environmental Transformation Products
CH$FORMULA: C16H31NO2
CH$EXACT_MASS: 269.2355
CH$SMILES: CCCNCC1COC2(CCC(CC2)C(C)(C)C)O1
CH$IUPAC: InChI=1S/C16H31NO2/c1-5-10-17-11-14-12-18-16(19-14)8-6-13(7-9-16)15(2,3)4/h13-14,17H,5-12H2,1-4H3
CH$LINK: INCHIKEY YYICKHZBDGQJBW-UHFFFAOYSA-N
CH$LINK: COMPTOX DTXSID60891577
CH$LINK: PUBCHEM CID:14990451
AC$INSTRUMENT: Q Exactive Plus Orbitrap Thermo Scientific
AC$INSTRUMENT_TYPE: LC-ESI-QFT
AC$MASS_SPECTROMETRY: MS_TYPE MS2
AC$MASS_SPECTROMETRY: ION_MODE POSITIVE
AC$MASS_SPECTROMETRY: IONIZATION ESI
AC$MASS_SPECTROMETRY: FRAGMENTATION_MODE HCD
AC$MASS_SPECTROMETRY: COLLISION_ENERGY 30 (nominal)
AC$MASS_SPECTROMETRY: RESOLUTION 17500
AC$CHROMATOGRAPHY: COLUMN_NAME Atlantis T3 3um, 3.0x150mm, Waters with guard column
AC$CHROMATOGRAPHY: FLOW_GRADIENT 95/5 at 0 min, 5/95 at 15 min, 5/95 at 20 min, 95/5 at 20.1 min, 95/5 at 25 min
AC$CHROMATOGRAPHY: FLOW_RATE 300 uL/min
AC$CHROMATOGRAPHY: RETENTION_TIME 14.8 min
AC$CHROMATOGRAPHY: SOLVENT A water with 0.1% formic acid
AC$CHROMATOGRAPHY: SOLVENT B methanol with 0.1% formic acid
MS$FOCUSED_ION: BASE_PEAK 65.0597
MS$FOCUSED_ION: PRECURSOR_M/Z 270.2428
MS$FOCUSED_ION: PRECURSOR_TYPE [M+H]+
MS$DATA_PROCESSING: RECALIBRATE loess on assigned fragments and MS1
MS$DATA_PROCESSING: REANALYZE Peaks with additional N2/O included
MS$DATA_PROCESSING: WHOLE RMassBank 1.99.7
PK$SPLASH: splash10-014i-0910000000-c4917b4310c0d231742d
PK$ANNOTATION: m/z tentative_formula formula_count mass error(ppm)
  58.065 C3H8N+ 1 58.0651 -1.99
  60.0807 C3H10N+ 1 60.0808 -0.93
  72.0808 C4H10N+ 1 72.0808 -0.22
  98.0966 C6H12N+ 1 98.0964 1.88
  116.107 C6H14NO+ 1 116.107 -0.09
  132.1018 C6H14NO2+ 1 132.1019 -1.1
  270.2428 C16H32NO2+ 1 270.2428 0.35
PK$NUM_PEAK: 7
PK$PEAK: m/z int. rel.int.
  58.065 5532.6 13
  60.0807 1227.5 3
  72.0808 27181.8 67
  98.0966 1509.8 3
  116.107 402134.3 999
  132.1018 5411.1 13
  270.2428 50762.5 126
//
