ACCESSION: MSBNK-Eawag_Additional_Specs-ET090202
RECORD_TITLE: MEX_236.1645_17.7; LC-ESI-QFT; MS2; CE: 30; R=17500; [M+H]+
DATE: 2016.03.17 (Created 2015.09.25, modified 2016.02.03)
AUTHORS: R. Gulde, E. Schymanski, K. Fenner, Department of Environmental Chemistry, Eawag
LICENSE: CC BY
COPYRIGHT: Copyright (C) 2016 Eawag, Duebendorf, Switzerland
PUBLICATION: Gulde, R.; Meier, U.; Schymanski, E. L.; Kohler, H.-P. E.; Helbling, D. E.; Derrer, S.; Rentsch, D.; Fenner, K. Systematic Exploration of Biotransformation Reactions of Amine-Containing Micropollutants in Activated Sludge. Environmental Science & Technology 2016, 50 (6), 2908–20. DOI:10.1021/acs.est.5b05186
COMMENT: CONFIDENCE Tentative identification: most likely structure (Level 3)
COMMENT: INTERNAL_ID 902
CH$NAME: MEX_236.1645_17.7
CH$NAME: N-propionylmexiletine
CH$NAME: Mexiletine propionate
CH$COMPOUND_CLASS: N/A; Environmental Transformation Products
CH$FORMULA: C14H21NO2
CH$EXACT_MASS: 235.1572
CH$SMILES: CCC(=O)NC(C)COc1c(C)cccc1C
CH$IUPAC: InChI=1S/C14H21NO2/c1-5-13(16)15-12(4)9-17-14-10(2)7-6-8-11(14)3/h6-8,12H,5,9H2,1-4H3,(H,15,16)
CH$LINK: INCHIKEY KQTNKAWCVIBWHG-UHFFFAOYSA-N
CH$LINK: COMPTOX DTXSID00891591
CH$LINK: PUBCHEM CID:133052753
AC$INSTRUMENT: Q Exactive Plus Orbitrap Thermo Scientific
AC$INSTRUMENT_TYPE: LC-ESI-QFT
AC$MASS_SPECTROMETRY: MS_TYPE MS2
AC$MASS_SPECTROMETRY: ION_MODE POSITIVE
AC$MASS_SPECTROMETRY: IONIZATION ESI
AC$MASS_SPECTROMETRY: FRAGMENTATION_MODE HCD
AC$MASS_SPECTROMETRY: COLLISION_ENERGY 30 (nominal)
AC$MASS_SPECTROMETRY: RESOLUTION 17500
AC$CHROMATOGRAPHY: COLUMN_NAME Atlantis T3 3um, 3.0x150mm, Waters with guard column
AC$CHROMATOGRAPHY: FLOW_GRADIENT 95/5 at 0 min, 5/95 at 15 min, 5/95 at 20 min, 95/5 at 20.1 min, 95/5 at 25 min
AC$CHROMATOGRAPHY: FLOW_RATE 300 uL/min
AC$CHROMATOGRAPHY: RETENTION_TIME 17.3 min
AC$CHROMATOGRAPHY: SOLVENT A water with 0.1% formic acid
AC$CHROMATOGRAPHY: SOLVENT B methanol with 0.1% formic acid
MS$FOCUSED_ION: BASE_PEAK 65.0597
MS$FOCUSED_ION: PRECURSOR_M/Z 236.1645
MS$FOCUSED_ION: PRECURSOR_TYPE [M+H]+
MS$DATA_PROCESSING: RECALIBRATE loess on assigned fragments and MS1
MS$DATA_PROCESSING: REANALYZE Peaks with additional N2/O included
MS$DATA_PROCESSING: WHOLE RMassBank 1.99.7
PK$SPLASH: splash10-03di-1900000000-aa2164a371d142c2e806
PK$ANNOTATION: m/z tentative_formula formula_count mass error(ppm)
  57.0335 C3H5O+ 1 57.0335 -0.72
  58.0652 C3H8N+ 1 58.0651 0.59
  101.0599 C5H9O2+ 1 101.0597 2.02
  114.0914 C6H12NO+ 1 114.0913 0.43
  163.1121 C11H15O+ 1 163.1117 1.89
  180.1384 C11H18NO+ 1 180.1383 0.55
PK$NUM_PEAK: 6
PK$PEAK: m/z int. rel.int.
  57.0335 13623 11
  58.0652 148322.7 128
  101.0599 1196.3 1
  114.0914 1152050 999
  163.1121 8276.4 7
  180.1384 47521.7 41
//
