ACCESSION: MSBNK-Eawag_Additional_Specs-ET120002
RECORD_TITLE: NVE_264.1959_12.6; LC-ESI-QFT; MS2; CE: 15-90; R=17500; [M+H]+
DATE: 2016.03.17 (Created 2015.09.25, modified 2016.02.03)
AUTHORS: R. Gulde, E. Schymanski, K. Fenner, Department of Environmental Chemistry, Eawag
LICENSE: CC BY
COPYRIGHT: Copyright (C) 2016 Eawag, Duebendorf, Switzerland
PUBLICATION: Gulde, R.; Meier, U.; Schymanski, E. L.; Kohler, H.-P. E.; Helbling, D. E.; Derrer, S.; Rentsch, D.; Fenner, K. Systematic Exploration of Biotransformation Reactions of Amine-Containing Micropollutants in Activated Sludge. Environmental Science & Technology 2016, 50 (6), 2908–20. DOI:10.1021/acs.est.5b05186
COMMENT: CONFIDENCE Parent Substance with Reference Standard (Level 1)
COMMENT: INTERNAL_ID 1200
CH$NAME: NVE_264.1959_12.6
CH$NAME: N-desmethylvenlafaxine
CH$NAME: 1-[1-(4-methoxyphenyl)-2-(methylamino)ethyl]cyclohexan-1-ol
CH$COMPOUND_CLASS: N/A; Environmental Reference Standard
CH$FORMULA: C16H25NO2
CH$EXACT_MASS: 263.1885
CH$SMILES: CNCC(C1=CC=C(OC)C=C1)C1(O)CCCCC1
CH$IUPAC: InChI=1S/C16H25NO2/c1-17-12-15(16(18)10-4-3-5-11-16)13-6-8-14(19-2)9-7-13/h6-9,15,17-18H,3-5,10-12H2,1-2H3
CH$LINK: CAS 149289-30-5
CH$LINK: CHEBI CHEBI:83525
CH$LINK: PUBCHEM CID:3501942
CH$LINK: INCHIKEY MKAFOJAJJMUXLW-UHFFFAOYSA-N
CH$LINK: CHEMSPIDER 2741972
CH$LINK: COMPTOX DTXSID20881050
AC$INSTRUMENT: Q Exactive Orbitrap Thermo Scientific
AC$INSTRUMENT_TYPE: LC-ESI-QFT
AC$MASS_SPECTROMETRY: MS_TYPE MS2
AC$MASS_SPECTROMETRY: ION_MODE POSITIVE
AC$MASS_SPECTROMETRY: IONIZATION ESI
AC$MASS_SPECTROMETRY: FRAGMENTATION_MODE HCD
AC$MASS_SPECTROMETRY: COLLISION_ENERGY 15, 30, 45, 60, 70 or 90 (nominal)
AC$MASS_SPECTROMETRY: RESOLUTION 17500
AC$CHROMATOGRAPHY: COLUMN_NAME Atlantis T3 3um, 3.0x150mm, Waters with guard column
AC$CHROMATOGRAPHY: FLOW_GRADIENT 95/5 at 0 min, 5/95 at 15 min, 5/95 at 20 min, 95/5 at 20.1 min, 95/5 at 25 min
AC$CHROMATOGRAPHY: FLOW_RATE 300 uL/min
AC$CHROMATOGRAPHY: RETENTION_TIME 12.9 min
AC$CHROMATOGRAPHY: SOLVENT A water with 0.1% formic acid
AC$CHROMATOGRAPHY: SOLVENT B methanol with 0.1% formic acid
MS$FOCUSED_ION: BASE_PEAK 264.1957
MS$FOCUSED_ION: PRECURSOR_M/Z 264.1958
MS$FOCUSED_ION: PRECURSOR_TYPE [M+H]+
MS$DATA_PROCESSING: RECALIBRATE loess on assigned fragments and MS1
MS$DATA_PROCESSING: REANALYZE Peaks with additional N2/O included
MS$DATA_PROCESSING: WHOLE RMassBank 1.99.7
PK$SPLASH: splash10-01ot-0090000000-836c194578f4828ab7c0
PK$ANNOTATION: m/z tentative_formula formula_count mass error(ppm)
  81.07 C6H9+ 1 81.0699 0.9
  107.0851 C8H11+ 1 107.0855 -3.89
  121.0645 C8H9O+ 1 121.0648 -2.08
  135.0799 C9H11O+ 1 135.0804 -3.93
  138.1281 C9H16N+ 1 138.1277 2.35
  147.0804 C10H11O+ 1 147.0804 -0.42
  159.08 C11H11O+ 1 159.0804 -2.65
  173.0956 C12H13O+ 1 173.0961 -2.84
  215.1431 C15H19O+ 1 215.143 0.18
  246.1852 C16H24NO+ 1 246.1852 -0.08
  264.1957 C16H26NO2+ 1 264.1958 -0.36
PK$NUM_PEAK: 11
PK$PEAK: m/z int. rel.int.
  81.07 38974.5 1
  107.0851 51189.6 1
  121.0645 1380087.9 49
  135.0799 28603.3 1
  138.1281 182770.5 6
  147.0804 442623.2 15
  159.08 122298.4 4
  173.0956 122572.7 4
  215.1431 6192042 221
  246.1852 27956414 999
  264.1957 24184350 864
//
