ACCESSION: MSBNK-Eawag_Additional_Specs-ET111202
RECORD_TITLE: NPE_228.1019_12.4; LC-ESI-QFT; MS2; CE: 30; R=17500; [M+H]+
DATE: 2016.03.17 (Created 2015.09.25, modified 2016.02.03)
AUTHORS: R. Gulde, E. Schymanski, K. Fenner, Department of Environmental Chemistry, Eawag
LICENSE: CC BY
COPYRIGHT: Copyright (C) 2016 Eawag, Duebendorf, Switzerland
PUBLICATION: Gulde, R.; Meier, U.; Schymanski, E. L.; Kohler, H.-P. E.; Helbling, D. E.; Derrer, S.; Rentsch, D.; Fenner, K. Systematic Exploration of Biotransformation Reactions of Amine-Containing Micropollutants in Activated Sludge. Environmental Science & Technology 2016, 50 (6), 2908–20. DOI:10.1021/acs.est.5b05186
COMMENT: CONFIDENCE Tentative identification: most likely structure (Level 3)
COMMENT: INTERNAL_ID 1112
CH$NAME: NPE_228.1019_12.4
CH$NAME: 3-phenyl-3-pyridin-2-ylpropanoic acid
CH$COMPOUND_CLASS: N/A; Environmental Transformation Products
CH$FORMULA: C14H13NO2
CH$EXACT_MASS: 227.0946
CH$SMILES: OC(=O)CC(C1=CC=CC=C1)C1=NC=CC=C1
CH$IUPAC: InChI=1S/C14H13NO2/c16-14(17)10-12(11-6-2-1-3-7-11)13-8-4-5-9-15-13/h1-9,12H,10H2,(H,16,17)
CH$LINK: PUBCHEM CID:10633058
CH$LINK: INCHIKEY XTQOUVPIWQGVEJ-UHFFFAOYSA-N
CH$LINK: CHEMSPIDER 8808420
CH$LINK: COMPTOX DTXSID20891598
AC$INSTRUMENT: Q Exactive Plus Orbitrap Thermo Scientific
AC$INSTRUMENT_TYPE: LC-ESI-QFT
AC$MASS_SPECTROMETRY: MS_TYPE MS2
AC$MASS_SPECTROMETRY: ION_MODE POSITIVE
AC$MASS_SPECTROMETRY: IONIZATION ESI
AC$MASS_SPECTROMETRY: FRAGMENTATION_MODE HCD
AC$MASS_SPECTROMETRY: COLLISION_ENERGY 30 (nominal)
AC$MASS_SPECTROMETRY: RESOLUTION 17500
AC$CHROMATOGRAPHY: COLUMN_NAME Atlantis T3 3um, 3.0x150mm, Waters with guard column
AC$CHROMATOGRAPHY: FLOW_GRADIENT 95/5 at 0 min, 5/95 at 15 min, 5/95 at 20 min, 95/5 at 20.1 min, 95/5 at 25 min
AC$CHROMATOGRAPHY: FLOW_RATE 300 uL/min
AC$CHROMATOGRAPHY: RETENTION_TIME 12.2 min
AC$CHROMATOGRAPHY: SOLVENT A water with 0.1% formic acid
AC$CHROMATOGRAPHY: SOLVENT B methanol with 0.1% formic acid
MS$FOCUSED_ION: BASE_PEAK 65.0597
MS$FOCUSED_ION: PRECURSOR_M/Z 228.1019
MS$FOCUSED_ION: PRECURSOR_TYPE [M+H]+
MS$DATA_PROCESSING: RECALIBRATE loess on assigned fragments and MS1
MS$DATA_PROCESSING: REANALYZE Peaks with additional N2/O included
MS$DATA_PROCESSING: WHOLE RMassBank 1.99.7
PK$SPLASH: splash10-03di-0090000000-bf70aac4c414491f6798
PK$ANNOTATION: m/z tentative_formula formula_count mass error(ppm)
  93.0696 C7H9+ 1 93.0699 -3.4
  168.0803 C12H10N+ 1 168.0808 -2.89
  182.0967 C13H12N+ 1 182.0964 1.56
  210.0914 C14H12NO+ 1 210.0913 0.09
  228.102 C14H14NO2+ 1 228.1019 0.46
PK$NUM_PEAK: 5
PK$PEAK: m/z int. rel.int.
  93.0696 744.7 6
  168.0803 7593.9 64
  182.0967 1475.2 12
  210.0914 117812.3 999
  228.102 36710.2 311
//
