ACCESSION: MSBNK-Eawag_Additional_Specs-ET310259
RECORD_TITLE: SMZ-Pt; LC-ESI-QFT; MS2; CE: 180%; R=17500; [M-H]-
DATE: 2016.12.08
AUTHORS: Michael Stravs, Francesco Pomati, Juliane Hollender
LICENSE: CC BY-SA
COPYRIGHT: Copyright (C) Michael Stravs @ Eawag
COMMENT: CONFIDENCE Probable structure via diagnostic evidence, tentative identification (Level 2b)
COMMENT: ALGAE_TP_ID 3102
CH$NAME: SMZ-Pt
CH$COMPOUND_CLASS: N/A; Environmental Standard
CH$FORMULA: C17H16N8O4S
CH$EXACT_MASS: 428.1015
CH$SMILES: CC1=CC(NS(=O)(C2=CC=C(NCC3=NC(C(NC(N)=N4)=O)=C4N=C3)C=C2)=O)=NO1
CH$IUPAC: InChI=1S/C17H16N8O4S/c1-9-6-13(24-29-9)25-30(27,28)12-4-2-10(3-5-12)19-7-11-8-20-15-14(21-11)16(26)23-17(18)22-15/h2-6,8,19H,7H2,1H3,(H,24,25)(H3,18,20,22,23,26)
CH$LINK: INCHIKEY LVUVWJASQQPDSL-UHFFFAOYSA-N
CH$LINK: PUBCHEM CID:137195719
AC$INSTRUMENT: Q-Exactive + Thermo Scientific
AC$INSTRUMENT_TYPE: LC-ESI-QFT
AC$MASS_SPECTROMETRY: MS_TYPE MS2
AC$MASS_SPECTROMETRY: ION_MODE NEGATIVE
AC$MASS_SPECTROMETRY: IONIZATION ESI
AC$MASS_SPECTROMETRY: FRAGMENTATION_MODE HCD
AC$MASS_SPECTROMETRY: COLLISION_ENERGY 180 % (nominal)
AC$MASS_SPECTROMETRY: RESOLUTION 17500
AC$CHROMATOGRAPHY: COLUMN_NAME Atlantis T3 3um, 3.0x150mm, Waters
AC$CHROMATOGRAPHY: FLOW_GRADIENT 87/13 at 0 min, 87/13 at 5 min, 5/95 at 20 min, 5/95 at 29 min, 87/13 at 29.5 min, 87/13 at 35 min
AC$CHROMATOGRAPHY: FLOW_RATE 300 uL/min
AC$CHROMATOGRAPHY: RETENTION_TIME 16.758 min
AC$CHROMATOGRAPHY: SOLVENT A water with 0.1% formic acid
AC$CHROMATOGRAPHY: SOLVENT B MeOH with 0.1% formic acid
MS$FOCUSED_ION: BASE_PEAK 91.0036
MS$FOCUSED_ION: PRECURSOR_M/Z 427.0942
MS$FOCUSED_ION: PRECURSOR_TYPE [M-H]-
MS$DATA_PROCESSING: RECALIBRATE loess on assigned fragments and MS1
MS$DATA_PROCESSING: REANALYZE Peaks with additional N2/O included
MS$DATA_PROCESSING: WHOLE RMassBank 1.99.11
PK$SPLASH: splash10-014i-9000000000-a744e5452e0255b42ce6
PK$ANNOTATION: m/z tentative_formula formula_count mass error(ppm)
  63.9626 O2S- 1 63.9624 2.4
  66.0098 C2N3- 1 66.0098 0.28
  243.0457 C10H7N6S- 3 243.0458 -0.63
PK$NUM_PEAK: 3
PK$PEAK: m/z int. rel.int.
  63.9626 2700.2 181
  66.0098 14837 999
  243.0457 1742 117
//
