ACCESSION: MSBNK-Eawag_Additional_Specs-ET110505
RECORD_TITLE: NPE_269.1647_12.5; LC-ESI-QFT; MS2; CE: 75; R=17500; [M+H]+
DATE: 2016.03.17 (Created 2015.09.25, modified 2016.02.03)
AUTHORS: R. Gulde, E. Schymanski, K. Fenner, Department of Environmental Chemistry, Eawag
LICENSE: CC BY
COPYRIGHT: Copyright (C) 2016 Eawag, Duebendorf, Switzerland
PUBLICATION: Gulde, R.; Meier, U.; Schymanski, E. L.; Kohler, H.-P. E.; Helbling, D. E.; Derrer, S.; Rentsch, D.; Fenner, K. Systematic Exploration of Biotransformation Reactions of Amine-Containing Micropollutants in Activated Sludge. Environmental Science & Technology 2016, 50 (6), 2908–20. DOI:10.1021/acs.est.5b05186
COMMENT: CONFIDENCE Tentative identification: most likely structure (Level 3)
COMMENT: INTERNAL_ID 1105
CH$NAME: NPE_269.1647_12.5
CH$NAME: Norpheniramine acetate
CH$NAME: N-methyl-N-(3-phenyl-3-pyridin-2-ylpropyl)acetamide
CH$COMPOUND_CLASS: N/A; Environmental Transformation Products
CH$FORMULA: C17H20N2O
CH$EXACT_MASS: 268.1576
CH$SMILES: CN(CCC(C1=CC=CC=C1)C1=NC=CC=C1)C(C)=O
CH$IUPAC: InChI=1S/C17H20N2O/c1-14(20)19(2)13-11-16(15-8-4-3-5-9-15)17-10-6-7-12-18-17/h3-10,12,16H,11,13H2,1-2H3
CH$LINK: PUBCHEM CID:524050
CH$LINK: INCHIKEY VLRZUFDFIGKGCN-UHFFFAOYSA-N
CH$LINK: CHEMSPIDER 457020
CH$LINK: COMPTOX DTXSID80891594
AC$INSTRUMENT: Q Exactive Plus Orbitrap Thermo Scientific
AC$INSTRUMENT_TYPE: LC-ESI-QFT
AC$MASS_SPECTROMETRY: MS_TYPE MS2
AC$MASS_SPECTROMETRY: ION_MODE POSITIVE
AC$MASS_SPECTROMETRY: IONIZATION ESI
AC$MASS_SPECTROMETRY: FRAGMENTATION_MODE HCD
AC$MASS_SPECTROMETRY: COLLISION_ENERGY 75 (nominal)
AC$MASS_SPECTROMETRY: RESOLUTION 17500
AC$CHROMATOGRAPHY: COLUMN_NAME Atlantis T3 3um, 3.0x150mm, Waters with guard column
AC$CHROMATOGRAPHY: FLOW_GRADIENT 95/5 at 0 min, 5/95 at 15 min, 5/95 at 20 min, 95/5 at 20.1 min, 95/5 at 25 min
AC$CHROMATOGRAPHY: FLOW_RATE 300 uL/min
AC$CHROMATOGRAPHY: RETENTION_TIME 12.2 min
AC$CHROMATOGRAPHY: SOLVENT A water with 0.1% formic acid
AC$CHROMATOGRAPHY: SOLVENT B methanol with 0.1% formic acid
MS$FOCUSED_ION: BASE_PEAK 65.0597
MS$FOCUSED_ION: PRECURSOR_M/Z 269.1648
MS$FOCUSED_ION: PRECURSOR_TYPE [M+H]+
MS$DATA_PROCESSING: RECALIBRATE loess on assigned fragments and MS1
MS$DATA_PROCESSING: REANALYZE Peaks with additional N2/O included
MS$DATA_PROCESSING: WHOLE RMassBank 1.99.7
PK$SPLASH: splash10-014i-0900000000-c7ce9d8ee857cada0c1a
PK$ANNOTATION: m/z tentative_formula formula_count mass error(ppm)
  55.0543 C4H7+ 1 55.0542 0.79
  57.0697 C4H9+ 1 57.0699 -2.4
  67.0541 C5H7+ 1 67.0542 -2.63
  69.0699 C5H9+ 1 69.0699 0.48
  79.0542 C6H7+ 1 79.0542 -0.84
  81.0698 C6H9+ 1 81.0699 -1.32
  91.0543 C7H7+ 1 91.0542 0.59
  93.0701 C7H9+ 1 93.0699 2.72
  95.0853 C7H11+ 1 95.0855 -2.07
  105.07 C8H9+ 1 105.0699 1.27
  107.0854 C8H11+ 1 107.0855 -1.09
  110.06 C6H8NO+ 1 110.06 -0.37
  117.0571 C8H7N+ 1 117.0573 -1.54
  118.0651 C8H8N+ 1 118.0651 -0.05
  119.0728 C8H9N+ 1 119.073 -1.6
  167.0729 C12H9N+ 1 167.073 0
  168.0808 C12H10N+ 1 168.0808 -0.03
  194.0969 C14H12N+ 1 194.0964 2.34
  196.112 C14H14N+ 1 196.1121 -0.28
PK$NUM_PEAK: 19
PK$PEAK: m/z int. rel.int.
  55.0543 1315 11
  57.0697 1582.6 13
  67.0541 1645.8 14
  69.0699 2021.8 17
  79.0542 1676.4 14
  81.0698 2069.5 18
  91.0543 20443.8 178
  93.0701 1292.9 11
  95.0853 765.4 6
  105.07 1182.8 10
  107.0854 1450 12
  110.06 1525.5 13
  117.0571 3327.9 29
  118.0651 12364 107
  119.0728 1145 9
  167.0729 77594.1 676
  168.0808 114625.1 999
  194.0969 4289.1 37
  196.112 97156.2 846
//
