ACCESSION: MSBNK-Eawag_Additional_Specs-ET030106
RECORD_TITLE: CPP_387.1471_17.0; LC-ESI-QFT; MS2; CE: 90; R=17500; [M+H]+
DATE: 2016.03.17 (Created 2015.09.25, modified 2016.02.03)
AUTHORS: R. Gulde, E. Schymanski, K. Fenner, Department of Environmental Chemistry, Eawag
LICENSE: CC BY
COPYRIGHT: Copyright (C) 2016 Eawag, Duebendorf, Switzerland
PUBLICATION: Gulde, R.; Meier, U.; Schymanski, E. L.; Kohler, H.-P. E.; Helbling, D. E.; Derrer, S.; Rentsch, D.; Fenner, K. Systematic Exploration of Biotransformation Reactions of Amine-Containing Micropollutants in Activated Sludge. Environmental Science & Technology 2016, 50 (6), 2908–20. DOI:10.1021/acs.est.5b05186
COMMENT: CONFIDENCE Probable structure via diagnostic evidence, tentative identification (Level 2b)
COMMENT: INTERNAL_ID 301
CH$NAME: CPP_387.1471_17.0
CH$NAME: N-succinyl-1[(4-chlorophenyl)phenylmethyl]piperazine
CH$COMPOUND_CLASS: N/A; Environmental Transformation Products
CH$FORMULA: C21H23ClN2O3
CH$EXACT_MASS: 386.1397
CH$SMILES: OC(=O)CCC(=O)N1CCN(CC1)C(C1=CC=CC=C1)C1=CC=C(Cl)C=C1
CH$IUPAC: InChI=1S/C21H23ClN2O3/c22-18-8-6-17(7-9-18)21(16-4-2-1-3-5-16)24-14-12-23(13-15-24)19(25)10-11-20(26)27/h1-9,21H,10-15H2,(H,26,27)
CH$LINK: INCHIKEY PZFKWKDGOCAIDK-UHFFFAOYSA-N
CH$LINK: COMPTOX DTXSID60891673
CH$LINK: PUBCHEM CID:133052750
AC$INSTRUMENT: Q Exactive Plus Orbitrap Thermo Scientific
AC$INSTRUMENT_TYPE: LC-ESI-QFT
AC$MASS_SPECTROMETRY: MS_TYPE MS2
AC$MASS_SPECTROMETRY: ION_MODE POSITIVE
AC$MASS_SPECTROMETRY: IONIZATION ESI
AC$MASS_SPECTROMETRY: FRAGMENTATION_MODE HCD
AC$MASS_SPECTROMETRY: COLLISION_ENERGY 90 (nominal)
AC$MASS_SPECTROMETRY: RESOLUTION 17500
AC$CHROMATOGRAPHY: COLUMN_NAME Atlantis T3 3um, 3.0x150mm, Waters with guard column
AC$CHROMATOGRAPHY: FLOW_GRADIENT 95/5 at 0 min, 5/95 at 15 min, 5/95 at 20 min, 95/5 at 20.1 min, 95/5 at 25 min
AC$CHROMATOGRAPHY: FLOW_RATE 300 uL/min
AC$CHROMATOGRAPHY: RETENTION_TIME 16.6 min
AC$CHROMATOGRAPHY: SOLVENT A water with 0.1% formic acid
AC$CHROMATOGRAPHY: SOLVENT B methanol with 0.1% formic acid
MS$FOCUSED_ION: BASE_PEAK 65.0597
MS$FOCUSED_ION: PRECURSOR_M/Z 387.147
MS$FOCUSED_ION: PRECURSOR_TYPE [M+H]+
MS$DATA_PROCESSING: RECALIBRATE loess on assigned fragments and MS1
MS$DATA_PROCESSING: REANALYZE Peaks with additional N2/O included
MS$DATA_PROCESSING: WHOLE RMassBank 1.99.7
PK$SPLASH: splash10-014i-0900000000-b0264496232e79fd8879
PK$ANNOTATION: m/z tentative_formula formula_count mass error(ppm)
  60.0807 C3H10N+ 1 60.0808 -1.59
  91.0545 C7H7+ 1 91.0542 2.67
  105.0695 C8H9+ 1 105.0699 -3.3
  165.07 C13H9+ 1 165.0699 0.57
  166.0778 C13H10+ 1 166.0777 0.77
PK$NUM_PEAK: 5
PK$PEAK: m/z int. rel.int.
  60.0807 1540.1 23
  91.0545 4778.2 72
  105.0695 3517.9 53
  165.07 65594.4 999
  166.0778 26984.4 410
//
