ACCESSION: MSBNK-Eawag_Additional_Specs-ET181005
RECORD_TITLE: SPI_270.2429_14.9; LC-ESI-QFT; MS2; CE: 75; R=17500; [M+H]+
DATE: 2016.03.17 (Created 2015.09.25, modified 2016.02.03)
AUTHORS: R. Gulde, E. Schymanski, K. Fenner, Department of Environmental Chemistry, Eawag
LICENSE: CC BY
COPYRIGHT: Copyright (C) 2016 Eawag, Duebendorf, Switzerland
PUBLICATION: Gulde, R.; Meier, U.; Schymanski, E. L.; Kohler, H.-P. E.; Helbling, D. E.; Derrer, S.; Rentsch, D.; Fenner, K. Systematic Exploration of Biotransformation Reactions of Amine-Containing Micropollutants in Activated Sludge. Environmental Science & Technology 2016, 50 (6), 2908–20. DOI:10.1021/acs.est.5b05186
COMMENT: CONFIDENCE Probable structure via diagnostic evidence, tentative identification (Level 2b)
COMMENT: INTERNAL_ID 1810
CH$NAME: SPI_270.2429_14.9
CH$NAME: N-deethylspiroxamine
CH$COMPOUND_CLASS: N/A; Environmental Transformation Products
CH$FORMULA: C16H31NO2
CH$EXACT_MASS: 269.2355
CH$SMILES: CCCNCC1COC2(CCC(CC2)C(C)(C)C)O1
CH$IUPAC: InChI=1S/C16H31NO2/c1-5-10-17-11-14-12-18-16(19-14)8-6-13(7-9-16)15(2,3)4/h13-14,17H,5-12H2,1-4H3
CH$LINK: INCHIKEY YYICKHZBDGQJBW-UHFFFAOYSA-N
CH$LINK: COMPTOX DTXSID60891577
CH$LINK: PUBCHEM CID:14990451
AC$INSTRUMENT: Q Exactive Plus Orbitrap Thermo Scientific
AC$INSTRUMENT_TYPE: LC-ESI-QFT
AC$MASS_SPECTROMETRY: MS_TYPE MS2
AC$MASS_SPECTROMETRY: ION_MODE POSITIVE
AC$MASS_SPECTROMETRY: IONIZATION ESI
AC$MASS_SPECTROMETRY: FRAGMENTATION_MODE HCD
AC$MASS_SPECTROMETRY: COLLISION_ENERGY 75 (nominal)
AC$MASS_SPECTROMETRY: RESOLUTION 17500
AC$CHROMATOGRAPHY: COLUMN_NAME Atlantis T3 3um, 3.0x150mm, Waters with guard column
AC$CHROMATOGRAPHY: FLOW_GRADIENT 95/5 at 0 min, 5/95 at 15 min, 5/95 at 20 min, 95/5 at 20.1 min, 95/5 at 25 min
AC$CHROMATOGRAPHY: FLOW_RATE 300 uL/min
AC$CHROMATOGRAPHY: RETENTION_TIME 14.8 min
AC$CHROMATOGRAPHY: SOLVENT A water with 0.1% formic acid
AC$CHROMATOGRAPHY: SOLVENT B methanol with 0.1% formic acid
MS$FOCUSED_ION: BASE_PEAK 65.0597
MS$FOCUSED_ION: PRECURSOR_M/Z 270.2428
MS$FOCUSED_ION: PRECURSOR_TYPE [M+H]+
MS$DATA_PROCESSING: RECALIBRATE loess on assigned fragments and MS1
MS$DATA_PROCESSING: REANALYZE Peaks with additional N2/O included
MS$DATA_PROCESSING: WHOLE RMassBank 1.99.7
PK$SPLASH: splash10-00xr-9400000000-51c1396b3e4f481b0aea
PK$ANNOTATION: m/z tentative_formula formula_count mass error(ppm)
  56.0495 C3H6N+ 1 56.0495 0.44
  57.0698 C4H9+ 1 57.0699 -1.87
  58.065 C3H8N+ 1 58.0651 -1.65
  60.0806 C3H10N+ 1 60.0808 -2.59
  67.054 C5H7+ 1 67.0542 -3.83
  70.0651 C4H8N+ 1 70.0651 -0.08
  72.0808 C4H10N+ 1 72.0808 -0.22
  74.06 C3H8NO+ 1 74.06 -0.68
  79.0542 C6H7+ 1 79.0542 -0.84
  81.07 C6H9+ 1 81.0699 1.15
  91.0541 C7H7+ 1 91.0542 -1.39
  98.0964 C6H12N+ 1 98.0964 -0.57
  116.107 C6H14NO+ 1 116.107 -0.26
PK$NUM_PEAK: 13
PK$PEAK: m/z int. rel.int.
  56.0495 23853.8 229
  57.0698 3926.3 37
  58.065 3941.1 37
  60.0806 1298.4 12
  67.054 1156.1 11
  70.0651 12091.8 116
  72.0808 103839.3 999
  74.06 6951.8 66
  79.0542 1020.9 9
  81.07 1345.2 12
  91.0541 1910.8 18
  98.0964 11657.2 112
  116.107 84257.9 810
//
