ACCESSION: MSBNK-Eawag_Additional_Specs-ET310202
RECORD_TITLE: SMZ-Pt; LC-ESI-QFT; MS2; CE: 30%; R=17500; [M+H]+
DATE: 2016.12.08
AUTHORS: Michael Stravs, Francesco Pomati, Juliane Hollender
LICENSE: CC BY-SA
COPYRIGHT: Copyright (C) Michael Stravs @ Eawag
COMMENT: CONFIDENCE Probable structure via diagnostic evidence, tentative identification (Level 2b)
COMMENT: ALGAE_TP_ID 3102
CH$NAME: SMZ-Pt
CH$COMPOUND_CLASS: N/A; Environmental Standard
CH$FORMULA: C17H16N8O4S
CH$EXACT_MASS: 428.1015
CH$SMILES: CC1=CC(NS(=O)(C2=CC=C(NCC3=NC(C(NC(N)=N4)=O)=C4N=C3)C=C2)=O)=NO1
CH$IUPAC: InChI=1S/C17H16N8O4S/c1-9-6-13(24-29-9)25-30(27,28)12-4-2-10(3-5-12)19-7-11-8-20-15-14(21-11)16(26)23-17(18)22-15/h2-6,8,19H,7H2,1H3,(H,24,25)(H3,18,20,22,23,26)
CH$LINK: INCHIKEY LVUVWJASQQPDSL-UHFFFAOYSA-N
CH$LINK: PUBCHEM CID:137195719
AC$INSTRUMENT: Q-Exactive + Thermo Scientific
AC$INSTRUMENT_TYPE: LC-ESI-QFT
AC$MASS_SPECTROMETRY: MS_TYPE MS2
AC$MASS_SPECTROMETRY: ION_MODE POSITIVE
AC$MASS_SPECTROMETRY: IONIZATION ESI
AC$MASS_SPECTROMETRY: FRAGMENTATION_MODE HCD
AC$MASS_SPECTROMETRY: COLLISION_ENERGY 30 % (nominal)
AC$MASS_SPECTROMETRY: RESOLUTION 17500
AC$CHROMATOGRAPHY: COLUMN_NAME Atlantis T3 3um, 3.0x150mm, Waters
AC$CHROMATOGRAPHY: FLOW_GRADIENT 87/13 at 0 min, 87/13 at 5 min, 5/95 at 20 min, 5/95 at 29 min, 87/13 at 29.5 min, 87/13 at 35 min
AC$CHROMATOGRAPHY: FLOW_RATE 300 uL/min
AC$CHROMATOGRAPHY: RETENTION_TIME 16.780 min
AC$CHROMATOGRAPHY: SOLVENT A water with 0.1% formic acid
AC$CHROMATOGRAPHY: SOLVENT B MeOH with 0.1% formic acid
MS$FOCUSED_ION: BASE_PEAK 164.9846
MS$FOCUSED_ION: PRECURSOR_M/Z 429.1088
MS$FOCUSED_ION: PRECURSOR_TYPE [M+H]+
MS$DATA_PROCESSING: RECALIBRATE loess on assigned fragments and MS1
MS$DATA_PROCESSING: REANALYZE Peaks with additional N2/O included
MS$DATA_PROCESSING: WHOLE RMassBank 1.99.11
PK$SPLASH: splash10-0159-0290000000-ce8b389498aaaba2936c
PK$ANNOTATION: m/z tentative_formula formula_count mass error(ppm)
  176.0566 C7H6N5O+ 2 176.0567 -0.63
  208.953 C8HO5S+ 1 208.9539 -4.25
  224.094 C12H10N5+ 3 224.0931 4.14
  233.0498 C10H9N4OS+ 2 233.0492 2.75
  240.0877 C12H10N5O+ 4 240.088 -1.18
  250.0725 C13H8N5O+ 4 250.0723 0.81
  267.0988 C13H11N6O+ 3 267.0989 -0.15
  283.0938 C13H11N6O2+ 3 283.0938 -0.09
  299.0907 C15H13N3O4+ 3 299.0901 2.2
  349.071 C13H13N6O4S+ 1 349.0714 -1.14
PK$NUM_PEAK: 10
PK$PEAK: m/z int. rel.int.
  176.0566 54129.1 496
  208.953 4238 38
  224.094 1991.9 18
  233.0498 1917.8 17
  240.0877 11182.1 102
  250.0725 4113 37
  267.0988 108981.9 999
  283.0938 90099.8 825
  299.0907 1951.3 17
  349.071 12576.5 115
//
