ACCESSION: MSBNK-Eawag_Additional_Specs-ET060301
RECORD_TITLE: FEN_220.0944_12.9; LC-ESI-QFT; MS2; CE: 15; R=17500; [M+H]+
DATE: 2016.03.17 (Created 2015.09.25, modified 2016.02.03)
AUTHORS: R. Gulde, E. Schymanski, K. Fenner, Department of Environmental Chemistry, Eawag
LICENSE: CC BY
COPYRIGHT: Copyright (C) 2016 Eawag, Duebendorf, Switzerland
PUBLICATION: Gulde, R.; Meier, U.; Schymanski, E. L.; Kohler, H.-P. E.; Helbling, D. E.; Derrer, S.; Rentsch, D.; Fenner, K. Systematic Exploration of Biotransformation Reactions of Amine-Containing Micropollutants in Activated Sludge. Environmental Science & Technology 2016, 50 (6), 2908–20. DOI:10.1021/acs.est.5b05186
COMMENT: CONFIDENCE Tentative identification: most likely structure (Level 3)
COMMENT: INTERNAL_ID 603
CH$NAME: FEN_220.0944_12.9
CH$NAME: N-desethyl-N-hydroxylfeniramine
CH$NAME: N-[1-[3-(trifluoromethyl)phenyl]propan-2-yl]hydroxylamine
CH$COMPOUND_CLASS: N/A; Environmental Transformation Products
CH$FORMULA: C10H12F3NO
CH$EXACT_MASS: 219.0871
CH$SMILES: CC(CC1=CC(=CC=C1)C(F)(F)F)NO
CH$IUPAC: InChI=1S/C10H12F3NO/c1-7(14-15)5-8-3-2-4-9(6-8)10(11,12)13/h2-4,6-7,14-15H,5H2,1H3
CH$LINK: PUBCHEM CID:12225835
CH$LINK: INCHIKEY WCJDAVUCGZTNMX-UHFFFAOYSA-N
CH$LINK: COMPTOX DTXSID70891588
AC$INSTRUMENT: Q Exactive Plus Orbitrap Thermo Scientific
AC$INSTRUMENT_TYPE: LC-ESI-QFT
AC$MASS_SPECTROMETRY: MS_TYPE MS2
AC$MASS_SPECTROMETRY: ION_MODE POSITIVE
AC$MASS_SPECTROMETRY: IONIZATION ESI
AC$MASS_SPECTROMETRY: FRAGMENTATION_MODE HCD
AC$MASS_SPECTROMETRY: COLLISION_ENERGY 15 (nominal)
AC$MASS_SPECTROMETRY: RESOLUTION 17500
AC$CHROMATOGRAPHY: COLUMN_NAME Atlantis T3 3um, 3.0x150mm, Waters with guard column
AC$CHROMATOGRAPHY: FLOW_GRADIENT 95/5 at 0 min, 5/95 at 15 min, 5/95 at 20 min, 95/5 at 20.1 min, 95/5 at 25 min
AC$CHROMATOGRAPHY: FLOW_RATE 300 uL/min
AC$CHROMATOGRAPHY: RETENTION_TIME 12.8 min
AC$CHROMATOGRAPHY: SOLVENT A water with 0.1% formic acid
AC$CHROMATOGRAPHY: SOLVENT B methanol with 0.1% formic acid
MS$FOCUSED_ION: BASE_PEAK 65.0597
MS$FOCUSED_ION: PRECURSOR_M/Z 220.0944
MS$FOCUSED_ION: PRECURSOR_TYPE [M+H]+
MS$DATA_PROCESSING: RECALIBRATE loess on assigned fragments and MS1
MS$DATA_PROCESSING: REANALYZE Peaks with additional N2/O included
MS$DATA_PROCESSING: WHOLE RMassBank 1.99.7
PK$SPLASH: splash10-052r-0920000000-3f7b1ee5eb31e26e3fb2
PK$ANNOTATION: m/z tentative_formula formula_count mass error(ppm)
  59.0491 C3H7O+ 1 59.0491 0.15
  87.0438 C4H7O2+ 1 87.0441 -2.94
  101.0599 C5H9O2+ 2 101.0597 1.82
  159.0416 C8H6F3+ 1 159.0416 -0.07
  167.0673 C10H9F2+ 2 167.0667 3.63
  182.0784 C10H10F2N+ 2 182.0776 4.33
  187.0729 C10H10F3+ 1 187.0729 -0.06
  200.0875 C10H12F2NO+ 1 200.0881 -3.23
  220.0944 C10H13F3NO+ 1 220.0944 0.25
PK$NUM_PEAK: 9
PK$PEAK: m/z int. rel.int.
  59.0491 1068.7 2
  87.0438 935.3 2
  101.0599 4280.3 10
  159.0416 231167.6 577
  167.0673 1047.3 2
  182.0784 2042.9 5
  187.0729 399751.8 999
  200.0875 885.5 2
  220.0944 155921.1 389
//
