ACCESSION: MSBNK-Eawag_Additional_Specs-ET120503
RECORD_TITLE: NVE_278.1753_9.6; LC-ESI-QFT; MS2; CE: 45; R=17500; [M+H]+
DATE: 2016.03.17 (Created 2015.09.25, modified 2016.02.03)
AUTHORS: R. Gulde, E. Schymanski, K. Fenner, Department of Environmental Chemistry, Eawag
LICENSE: CC BY
COPYRIGHT: Copyright (C) 2016 Eawag, Duebendorf, Switzerland
PUBLICATION: Gulde, R.; Meier, U.; Schymanski, E. L.; Kohler, H.-P. E.; Helbling, D. E.; Derrer, S.; Rentsch, D.; Fenner, K. Systematic Exploration of Biotransformation Reactions of Amine-Containing Micropollutants in Activated Sludge. Environmental Science & Technology 2016, 50 (6), 2908–20. DOI:10.1021/acs.est.5b05186
COMMENT: CONFIDENCE Tentative identification: substance class known (Level 3)
COMMENT: INTERNAL_ID 1205
CH$NAME: NVE_278.1753_9.6
CH$COMPOUND_CLASS: N/A; Environmental Transformation Products
CH$FORMULA: C16H23NO3
CH$EXACT_MASS: 277.1678
CH$SMILES: N/A
CH$IUPAC: N/A
AC$INSTRUMENT: Q Exactive Plus Orbitrap Thermo Scientific
AC$INSTRUMENT_TYPE: LC-ESI-QFT
AC$MASS_SPECTROMETRY: MS_TYPE MS2
AC$MASS_SPECTROMETRY: ION_MODE POSITIVE
AC$MASS_SPECTROMETRY: IONIZATION ESI
AC$MASS_SPECTROMETRY: FRAGMENTATION_MODE HCD
AC$MASS_SPECTROMETRY: COLLISION_ENERGY 45 (nominal)
AC$MASS_SPECTROMETRY: RESOLUTION 17500
AC$CHROMATOGRAPHY: COLUMN_NAME Atlantis T3 3um, 3.0x150mm, Waters with guard column
AC$CHROMATOGRAPHY: FLOW_GRADIENT 95/5 at 0 min, 5/95 at 15 min, 5/95 at 20 min, 95/5 at 20.1 min, 95/5 at 25 min
AC$CHROMATOGRAPHY: FLOW_RATE 300 uL/min
AC$CHROMATOGRAPHY: RETENTION_TIME 9.5 min
AC$CHROMATOGRAPHY: SOLVENT A water with 0.1% formic acid
AC$CHROMATOGRAPHY: SOLVENT B methanol with 0.1% formic acid
MS$FOCUSED_ION: BASE_PEAK 65.0597
MS$FOCUSED_ION: PRECURSOR_M/Z 278.1751
MS$FOCUSED_ION: PRECURSOR_TYPE [M+H]+
MS$DATA_PROCESSING: RECALIBRATE loess on assigned fragments and MS1
MS$DATA_PROCESSING: REANALYZE Peaks with additional N2/O included
MS$DATA_PROCESSING: WHOLE RMassBank 1.99.7
PK$SPLASH: splash10-00di-1940000000-3c87c1e0f7d7f841da77
PK$ANNOTATION: m/z tentative_formula formula_count mass error(ppm)
  57.0698 C4H9+ 1 57.0699 -1.52
  58.065 C3H8N+ 1 58.0651 -2.51
  121.0647 C8H9O+ 1 121.0648 -0.59
  149.0233 C8H5O3+ 1 149.0233 -0.07
  171.0806 C12H11O+ 1 171.0804 1.1
  180.1104 C6H16N2O4+ 1 180.1105 -0.1
  211.1109 C15H15O+ 1 211.1117 -3.8
  217.1229 C14H17O2+ 1 217.1223 2.69
  236.1729 C10H24N2O4+ 1 236.1731 -0.59
PK$NUM_PEAK: 9
PK$PEAK: m/z int. rel.int.
  57.0698 3338.9 230
  58.065 1202.9 83
  121.0647 14456.4 999
  149.0233 3722.7 257
  171.0806 3459.9 239
  180.1104 911.4 62
  211.1109 1484.5 102
  217.1229 3862.5 266
  236.1729 5616.7 388
//
