ACCESSION: MSBNK-Eawag_Additional_Specs-ET405501
RECORD_TITLE: DIC_n_259.9873_15.6; LC-ESI-QFT; MS2; CE: 55%; R=17500; [M-H]-
DATE: 2020.12.17
AUTHORS: B. Clerc, R. Gulde, B. Lauper [com],  C. McArdell, Department of Environmental Chemistry, Eawag
LICENSE: CC BY-SA
COPYRIGHT: Copyright (C) Eawag 2020
PUBLICATION: Gulde et al. 2020, Formation of transformation products during ozonation of secondary wastewater effluent and their fate in post-treatment: From laboratory- to full-scale, Water Research
COMMENT: CONFIDENCE Tentative structure (3)
COMMENT: UCHEM_ID 4055
CH$NAME: DIC_n_259.9873_15.6
CH$NAME: Diclofenac -C4H2+O
CH$NAME: 2-(2-((2,6-dichlorophenyl)amino)phenyl)acetic acid -C4H2+O
CH$COMPOUND_CLASS: identified ozonation transformation product
CH$FORMULA: C10H9Cl2NO3
CH$EXACT_MASS: 260.9959
CH$SMILES: N/A
CH$IUPAC: N/A
AC$INSTRUMENT: Q Exactive Plus Orbitrap Thermo Scientific
AC$INSTRUMENT_TYPE: LC-ESI-QFT
AC$MASS_SPECTROMETRY: MS_TYPE MS2
AC$MASS_SPECTROMETRY: ION_MODE NEGATIVE
AC$MASS_SPECTROMETRY: IONIZATION ESI
AC$MASS_SPECTROMETRY: FRAGMENTATION_MODE HCD
AC$MASS_SPECTROMETRY: COLLISION_ENERGY 55 % (nominal)
AC$MASS_SPECTROMETRY: RESOLUTION 17500
AC$CHROMATOGRAPHY: COLUMN_NAME C18 Atlantis T3 5 um, 3x150 mm, Waters
AC$CHROMATOGRAPHY: FLOW_GRADIENT 260/40 at 0 min, 260/40 at 5 min, 15/285 at 20 min, 15/285 at 29 min, 260/40 at 29.5 min, 260/40 at 35 min
AC$CHROMATOGRAPHY: FLOW_RATE 300 uL/min
AC$CHROMATOGRAPHY: RETENTION_TIME 15.641 min
AC$CHROMATOGRAPHY: SOLVENT A water with 0.1% formic acid
AC$CHROMATOGRAPHY: SOLVENT B MeOH with 0.1% formic acid
MS$FOCUSED_ION: BASE_PEAK 91.0038
MS$FOCUSED_ION: PRECURSOR_M/Z 259.9887
MS$FOCUSED_ION: PRECURSOR_TYPE [M-H]-
MS$FOCUSED_ION: PRECURSOR_INTENSITY 88526.8984375
MS$DATA_PROCESSING: RECALIBRATE loess on assigned fragments and MS1
MS$DATA_PROCESSING: REANALYZE Peaks with additional N2/O included
MS$DATA_PROCESSING: WHOLE RMassBank 2.99.2
PK$SPLASH: splash10-0a4i-0900000000-e08f602c16c6b9c1339c
PK$ANNOTATION: m/z tentative_formula formula_count mass error(ppm)
  123.9956 C9O- 2 123.9955 0.75
  159.9727 C6H4Cl2N- 2 159.9726 0.29
PK$NUM_PEAK: 2
PK$PEAK: m/z int. rel.int.
  123.9956 2843.4 48
  159.9727 58680.7 999
//
