ACCESSION: MSBNK-Eawag_Additional_Specs-ET180805
RECORD_TITLE: SPI_314.2691_12.0; LC-ESI-QFT; MS2; CE: 75; R=17500; [M+H]+
DATE: 2016.03.17 (Created 2015.09.25, modified 2016.02.03)
AUTHORS: R. Gulde, E. Schymanski, K. Fenner, Department of Environmental Chemistry, Eawag
LICENSE: CC BY
COPYRIGHT: Copyright (C) 2016 Eawag, Duebendorf, Switzerland
PUBLICATION: Gulde, R.; Meier, U.; Schymanski, E. L.; Kohler, H.-P. E.; Helbling, D. E.; Derrer, S.; Rentsch, D.; Fenner, K. Systematic Exploration of Biotransformation Reactions of Amine-Containing Micropollutants in Activated Sludge. Environmental Science & Technology 2016, 50 (6), 2908–20. DOI:10.1021/acs.est.5b05186
COMMENT: CONFIDENCE Tentative identification: substance class known (Level 3)
COMMENT: INTERNAL_ID 1808
CH$NAME: SPI_314.2691_12.0
CH$COMPOUND_CLASS: N/A; Environmental Transformation Products
CH$FORMULA: C18H35NO3
CH$EXACT_MASS: 313.2617
CH$SMILES: N/A
CH$IUPAC: N/A
AC$INSTRUMENT: Q Exactive Plus Orbitrap Thermo Scientific
AC$INSTRUMENT_TYPE: LC-ESI-QFT
AC$MASS_SPECTROMETRY: MS_TYPE MS2
AC$MASS_SPECTROMETRY: ION_MODE POSITIVE
AC$MASS_SPECTROMETRY: IONIZATION ESI
AC$MASS_SPECTROMETRY: FRAGMENTATION_MODE HCD
AC$MASS_SPECTROMETRY: COLLISION_ENERGY 75 (nominal)
AC$MASS_SPECTROMETRY: RESOLUTION 17500
AC$CHROMATOGRAPHY: COLUMN_NAME Atlantis T3 3um, 3.0x150mm, Waters with guard column
AC$CHROMATOGRAPHY: FLOW_GRADIENT 95/5 at 0 min, 5/95 at 15 min, 5/95 at 20 min, 95/5 at 20.1 min, 95/5 at 25 min
AC$CHROMATOGRAPHY: FLOW_RATE 300 uL/min
AC$CHROMATOGRAPHY: RETENTION_TIME 11.9 min
AC$CHROMATOGRAPHY: SOLVENT A water with 0.1% formic acid
AC$CHROMATOGRAPHY: SOLVENT B methanol with 0.1% formic acid
MS$FOCUSED_ION: BASE_PEAK 65.0597
MS$FOCUSED_ION: PRECURSOR_M/Z 314.269
MS$FOCUSED_ION: PRECURSOR_TYPE [M+H]+
MS$DATA_PROCESSING: RECALIBRATE loess on assigned fragments and MS1
MS$DATA_PROCESSING: REANALYZE Peaks with additional N2/O included
MS$DATA_PROCESSING: WHOLE RMassBank 1.99.7
PK$SPLASH: splash10-0udi-4900000000-bb9b914ec73883ba4b48
PK$ANNOTATION: m/z tentative_formula formula_count mass error(ppm)
  56.0494 C3H6N+ 1 56.0495 -1.17
  57.0698 C4H9+ 1 57.0699 -1.17
  58.0652 C3H8N+ 1 58.0651 0.94
  59.0492 C3H7O+ 1 59.0491 0.32
  67.0542 C5H7+ 1 67.0542 -0.99
  70.0649 C4H8N+ 1 70.0651 -3.79
  72.0808 C4H10N+ 1 72.0808 0.34
  81.0697 C6H9+ 1 81.0699 -1.56
  83.0489 C5H7O+ 1 83.0491 -3.51
  84.0808 C5H10N+ 1 84.0808 0.76
  86.0964 C5H12N+ 1 86.0964 0.16
  95.0858 C7H11+ 1 95.0855 3.19
  98.0964 C6H12N+ 1 98.0964 -0.06
  100.1121 C6H14N+ 1 100.1121 0.44
  102.0913 C5H12NO+ 1 102.0913 -0.1
  116.1073 C6H14NO+ 1 116.107 2.49
  126.1278 C8H16N+ 1 126.1277 0.35
  144.1384 C8H18NO+ 1 144.1383 0.62
PK$NUM_PEAK: 18
PK$PEAK: m/z int. rel.int.
  56.0494 5046.1 11
  57.0698 2215.7 4
  58.0652 91517.6 201
  59.0492 1620.2 3
  67.0542 3892.1 8
  70.0649 988 2
  72.0808 151260 332
  81.0697 3590.5 7
  83.0489 1598.6 3
  84.0808 16613.1 36
  86.0964 5998.4 13
  95.0858 1260.1 2
  98.0964 3950.6 8
  100.1121 454730.8 999
  102.0913 17865 39
  116.1073 1001.5 2
  126.1278 9086.4 19
  144.1384 124252.4 272
//
