ACCESSION: MSBNK-Eawag_Additional_Specs-ET050105
RECORD_TITLE: DEP_204.1383_10.9; LC-ESI-QFT; MS2; CE: 15-90; R=17500; [M+H]+
DATE: 2016.03.17 (Created 2015.09.25, modified 2016.02.03)
AUTHORS: R. Gulde, E. Schymanski, K. Fenner, Department of Environmental Chemistry, Eawag
LICENSE: CC BY
COPYRIGHT: Copyright (C) 2016 Eawag, Duebendorf, Switzerland
PUBLICATION: Gulde, R.; Meier, U.; Schymanski, E. L.; Kohler, H.-P. E.; Helbling, D. E.; Derrer, S.; Rentsch, D.; Fenner, K. Systematic Exploration of Biotransformation Reactions of Amine-Containing Micropollutants in Activated Sludge. Environmental Science & Technology 2016, 50 (6), 2908–20. DOI:10.1021/acs.est.5b05186
COMMENT: CONFIDENCE Transformation product with Reference Standard (Level 1)
COMMENT: INTERNAL_ID 501
CH$NAME: DEP_204.1383_10.9
CH$NAME: Deprenyl N-Oxide
CH$NAME: N-methyl-1-phenyl-N-prop-2-ynylpropan-2-amine oxide
CH$COMPOUND_CLASS: N/A; Environmental Reference Standard
CH$FORMULA: C13H17NO
CH$EXACT_MASS: 203.1310
CH$SMILES: CC(CC1=CC=CC=C1)N(C)(=O)CC#C
CH$IUPAC: InChI=1S/C13H17NO/c1-4-10-14(3,15)12(2)11-13-8-6-5-7-9-13/h1,5-9,12H,10-11H2,2-3H3
CH$LINK: PUBCHEM CID:11447032
CH$LINK: INCHIKEY IVFPCTFUZXEDKP-UHFFFAOYSA-N
CH$LINK: CHEMSPIDER 9621885
CH$LINK: COMPTOX DTXSID90891585
AC$INSTRUMENT: Q Exactive Orbitrap Thermo Scientific
AC$INSTRUMENT_TYPE: LC-ESI-QFT
AC$MASS_SPECTROMETRY: MS_TYPE MS2
AC$MASS_SPECTROMETRY: ION_MODE POSITIVE
AC$MASS_SPECTROMETRY: IONIZATION ESI
AC$MASS_SPECTROMETRY: FRAGMENTATION_MODE HCD
AC$MASS_SPECTROMETRY: COLLISION_ENERGY 15, 30, 45, 60, 70 or 90 (nominal)
AC$MASS_SPECTROMETRY: RESOLUTION 17500
AC$CHROMATOGRAPHY: COLUMN_NAME Atlantis T3 3um, 3.0x150mm, Waters with guard column
AC$CHROMATOGRAPHY: FLOW_GRADIENT 95/5 at 0 min, 5/95 at 15 min, 5/95 at 20 min, 95/5 at 20.1 min, 95/5 at 25 min
AC$CHROMATOGRAPHY: FLOW_RATE 300 uL/min
AC$CHROMATOGRAPHY: RETENTION_TIME 11.2 min
AC$CHROMATOGRAPHY: SOLVENT A water with 0.1% formic acid
AC$CHROMATOGRAPHY: SOLVENT B methanol with 0.1% formic acid
MS$FOCUSED_ION: BASE_PEAK 204.1389
MS$FOCUSED_ION: PRECURSOR_M/Z 204.1383
MS$FOCUSED_ION: PRECURSOR_TYPE [M+H]+
MS$DATA_PROCESSING: RECALIBRATE loess on assigned fragments and MS1
MS$DATA_PROCESSING: REANALYZE Peaks with additional N2/O included
MS$DATA_PROCESSING: WHOLE RMassBank 1.99.7
PK$SPLASH: splash10-014l-7920000000-2a281d1548972d2d54d4
PK$ANNOTATION: m/z tentative_formula formula_count mass error(ppm)
  77.0388 C6H5+ 1 77.0386 2.77
  86.0602 C4H8NO+ 1 86.06 2.44
  91.0544 C7H7+ 1 91.0542 1.9
  119.0858 C9H11+ 1 119.0855 1.96
  204.1388 C13H18NO+ 1 204.1383 2.54
PK$NUM_PEAK: 5
PK$PEAK: m/z int. rel.int.
  77.0388 78399.5 1
  86.0602 14111648 193
  91.0544 46542816 637
  119.0858 72972976 999
  204.1388 16658464 228
//
