ACCESSION: MSBNK-Eawag_Additional_Specs-ET050802
RECORD_TITLE: DEP_178.1226_15.3; LC-ESI-QFT; MS2; CE: 30; R=17500; [M+H]+
DATE: 2016.03.17 (Created 2015.09.25, modified 2016.02.03)
AUTHORS: R. Gulde, E. Schymanski, K. Fenner, Department of Environmental Chemistry, Eawag
LICENSE: CC BY
COPYRIGHT: Copyright (C) 2016 Eawag, Duebendorf, Switzerland
PUBLICATION: Gulde, R.; Meier, U.; Schymanski, E. L.; Kohler, H.-P. E.; Helbling, D. E.; Derrer, S.; Rentsch, D.; Fenner, K. Systematic Exploration of Biotransformation Reactions of Amine-Containing Micropollutants in Activated Sludge. Environmental Science & Technology 2016, 50 (6), 2908–20. DOI:10.1021/acs.est.5b05186
COMMENT: CONFIDENCE Tentative identification: most likely structure (Level 3)
COMMENT: INTERNAL_ID 508
CH$NAME: DEP_178.1226_15.3
CH$NAME: N-formylmethamphetamine
CH$NAME: N-methyl-N-(1-phenylpropan-2-yl)formamide
CH$COMPOUND_CLASS: N/A; Environmental Transformation Products
CH$FORMULA: C11H15NO
CH$EXACT_MASS: 177.1154
CH$SMILES: CC(CC1=CC=CC=C1)N(C)C=O
CH$IUPAC: InChI=1S/C11H15NO/c1-10(12(2)9-13)8-11-6-4-3-5-7-11/h3-7,9-10H,8H2,1-2H3
CH$LINK: CAS 42932-20-7
CH$LINK: PUBCHEM CID:170705
CH$LINK: INCHIKEY GLSMSUZWTDVJMA-UHFFFAOYSA-N
CH$LINK: CHEMSPIDER 149242
CH$LINK: COMPTOX DTXSID10891587
AC$INSTRUMENT: Q Exactive Orbitrap Thermo Scientific
AC$INSTRUMENT_TYPE: LC-ESI-QFT
AC$MASS_SPECTROMETRY: MS_TYPE MS2
AC$MASS_SPECTROMETRY: ION_MODE POSITIVE
AC$MASS_SPECTROMETRY: IONIZATION ESI
AC$MASS_SPECTROMETRY: FRAGMENTATION_MODE HCD
AC$MASS_SPECTROMETRY: COLLISION_ENERGY 30 (nominal)
AC$MASS_SPECTROMETRY: RESOLUTION 17500
AC$CHROMATOGRAPHY: COLUMN_NAME Atlantis T3 3um, 3.0x150mm, Waters with guard column
AC$CHROMATOGRAPHY: FLOW_GRADIENT 95/5 at 0 min, 5/95 at 15 min, 5/95 at 20 min, 95/5 at 20.1 min, 95/5 at 25 min
AC$CHROMATOGRAPHY: FLOW_RATE 300 uL/min
AC$CHROMATOGRAPHY: RETENTION_TIME 15.3 min
AC$CHROMATOGRAPHY: SOLVENT A water with 0.1% formic acid
AC$CHROMATOGRAPHY: SOLVENT B methanol with 0.1% formic acid
MS$FOCUSED_ION: BASE_PEAK 60.0809
MS$FOCUSED_ION: PRECURSOR_M/Z 178.1226
MS$FOCUSED_ION: PRECURSOR_TYPE [M+H]+
MS$DATA_PROCESSING: RECALIBRATE loess on assigned fragments and MS1
MS$DATA_PROCESSING: REANALYZE Peaks with additional N2/O included
MS$DATA_PROCESSING: WHOLE RMassBank 1.99.7
PK$SPLASH: splash10-00kf-9600000000-81a19c675cd18a913999
PK$ANNOTATION: m/z tentative_formula formula_count mass error(ppm)
  91.0542 C7H7+ 1 91.0542 -0.29
  119.0854 C9H11+ 1 119.0855 -1.23
PK$NUM_PEAK: 2
PK$PEAK: m/z int. rel.int.
  91.0542 11605.5 999
  119.0854 7763.1 668
//
