ACCESSION: MSBNK-Eawag_Additional_Specs-ET110205
RECORD_TITLE: NPE_327.1704_12.2; LC-ESI-QFT; MS2; CE: 75; R=17500; [M+H]+
DATE: 2016.03.17 (Created 2015.09.25, modified 2016.02.03)
AUTHORS: R. Gulde, E. Schymanski, K. Fenner, Department of Environmental Chemistry, Eawag
LICENSE: CC BY
COPYRIGHT: Copyright (C) 2016 Eawag, Duebendorf, Switzerland
PUBLICATION: Gulde, R.; Meier, U.; Schymanski, E. L.; Kohler, H.-P. E.; Helbling, D. E.; Derrer, S.; Rentsch, D.; Fenner, K. Systematic Exploration of Biotransformation Reactions of Amine-Containing Micropollutants in Activated Sludge. Environmental Science & Technology 2016, 50 (6), 2908–20. DOI:10.1021/acs.est.5b05186
COMMENT: CONFIDENCE Tentative identification: most likely structure (Level 3)
COMMENT: INTERNAL_ID 1102
CH$NAME: NPE_327.1704_12.2
CH$NAME: N-succinylnorpheniramine
CH$COMPOUND_CLASS: N/A; Environmental Transformation Products
CH$FORMULA: C19H22N2O3
CH$EXACT_MASS: 326.1630
CH$SMILES: CN(CCC(C1=CC=CC=C1)C1=NC=CC=C1)C(=O)CCC(O)=O
CH$IUPAC: InChI=1S/C19H22N2O3/c1-21(18(22)10-11-19(23)24)14-12-16(15-7-3-2-4-8-15)17-9-5-6-13-20-17/h2-9,13,16H,10-12,14H2,1H3,(H,23,24)
CH$LINK: INCHIKEY WVBWTLRAHFVIAJ-UHFFFAOYSA-N
CH$LINK: COMPTOX DTXSID00891672
CH$LINK: PUBCHEM CID:133052757
AC$INSTRUMENT: Q Exactive Plus Orbitrap Thermo Scientific
AC$INSTRUMENT_TYPE: LC-ESI-QFT
AC$MASS_SPECTROMETRY: MS_TYPE MS2
AC$MASS_SPECTROMETRY: ION_MODE POSITIVE
AC$MASS_SPECTROMETRY: IONIZATION ESI
AC$MASS_SPECTROMETRY: FRAGMENTATION_MODE HCD
AC$MASS_SPECTROMETRY: COLLISION_ENERGY 75 (nominal)
AC$MASS_SPECTROMETRY: RESOLUTION 17500
AC$CHROMATOGRAPHY: COLUMN_NAME Atlantis T3 3um, 3.0x150mm, Waters with guard column
AC$CHROMATOGRAPHY: FLOW_GRADIENT 95/5 at 0 min, 5/95 at 15 min, 5/95 at 20 min, 95/5 at 20.1 min, 95/5 at 25 min
AC$CHROMATOGRAPHY: FLOW_RATE 300 uL/min
AC$CHROMATOGRAPHY: RETENTION_TIME 11.9 min
AC$CHROMATOGRAPHY: SOLVENT A water with 0.1% formic acid
AC$CHROMATOGRAPHY: SOLVENT B methanol with 0.1% formic acid
MS$FOCUSED_ION: BASE_PEAK 65.0597
MS$FOCUSED_ION: PRECURSOR_M/Z 327.1703
MS$FOCUSED_ION: PRECURSOR_TYPE [M+H]+
MS$DATA_PROCESSING: RECALIBRATE loess on assigned fragments and MS1
MS$DATA_PROCESSING: REANALYZE Peaks with additional N2/O included
MS$DATA_PROCESSING: WHOLE RMassBank 1.99.7
PK$SPLASH: splash10-014i-0900000000-f600ba1c79403163c688
PK$ANNOTATION: m/z tentative_formula formula_count mass error(ppm)
  55.0178 C3H3O+ 1 55.0178 -0.02
  65.0385 C5H5+ 1 65.0386 -0.87
  73.0284 C3H5O2+ 1 73.0284 0.06
  79.0542 C6H7+ 1 79.0542 -0.34
  80.0496 C5H6N+ 1 80.0495 1.55
  91.0542 C7H7+ 1 91.0542 -0.4
  92.0493 C6H6N+ 1 92.0495 -1.58
  93.0572 C6H7N+ 1 93.0573 -0.97
  94.0651 C6H8N+ 1 94.0651 -0.38
  101.0234 C4H5O3+ 1 101.0233 0.89
  103.0539 C8H7+ 1 103.0542 -2.88
  105.0448 C6H5N2+ 1 105.0447 1.1
  110.0599 C6H8NO+ 1 110.06 -1.55
  115.0541 C9H7+ 1 115.0542 -0.75
  117.0572 C8H7N+ 1 117.0573 -0.69
  118.065 C8H8N+ 1 118.0651 -0.98
  119.0729 C8H9N+ 1 119.073 -0.17
  129.0699 C10H9+ 1 129.0699 0.18
  152.062 C12H8+ 1 152.0621 -0.14
  166.0645 C12H8N+ 1 166.0651 -3.71
  167.0729 C12H9N+ 1 167.073 -0.42
  168.0807 C12H10N+ 1 168.0808 -0.57
  180.0805 C13H10N+ 1 180.0808 -1.48
  181.0884 C13H11N+ 1 181.0886 -1.33
  194.0963 C14H12N+ 1 194.0964 -0.44
  195.1041 C14H13N+ 1 195.1043 -0.72
  196.1119 C14H14N+ 1 196.1121 -0.69
PK$NUM_PEAK: 27
PK$PEAK: m/z int. rel.int.
  55.0178 12259.5 10
  65.0385 6534.2 5
  73.0284 19212.6 15
  79.0542 2057.7 1
  80.0496 1369.2 1
  91.0542 215596.7 178
  92.0493 5771 4
  93.0572 2197.6 1
  94.0651 1409.4 1
  101.0234 6192.8 5
  103.0539 4629.2 3
  105.0448 1357.7 1
  110.0599 17672.9 14
  115.0541 4545.1 3
  117.0572 50406.3 41
  118.065 142040.2 117
  119.0729 25456 21
  129.0699 2691.1 2
  152.062 2040.8 1
  166.0645 2010.3 1
  167.0729 850296.8 703
  168.0807 1207448.4 999
  180.0805 21186.6 17
  181.0884 18081.2 14
  194.0963 51441.9 42
  195.1041 17057.8 14
  196.1119 1036062.3 857
//
