ACCESSION: MSBNK-Eawag_Additional_Specs-ET060003
RECORD_TITLE: FEN_232.1308_12.4; LC-ESI-QFT; MS2; CE: 15-90; R=17500; [M+H]+
DATE: 2016.03.17 (Created 2015.09.25, modified 2016.02.03)
AUTHORS: R. Gulde, E. Schymanski, K. Fenner, Department of Environmental Chemistry, Eawag
LICENSE: CC BY
COPYRIGHT: Copyright (C) 2016 Eawag, Duebendorf, Switzerland
PUBLICATION: Gulde, R.; Meier, U.; Schymanski, E. L.; Kohler, H.-P. E.; Helbling, D. E.; Derrer, S.; Rentsch, D.; Fenner, K. Systematic Exploration of Biotransformation Reactions of Amine-Containing Micropollutants in Activated Sludge. Environmental Science & Technology 2016, 50 (6), 2908–20. DOI:10.1021/acs.est.5b05186
COMMENT: CONFIDENCE Parent Substance with Reference Standard (Level 1)
COMMENT: INTERNAL_ID 600
CH$NAME: FEN_232.1308_12.4
CH$NAME: Feniramine (Fenfluramine)
CH$NAME: N-ethyl-1-[3-(trifluoromethyl)phenyl]propan-2-amine
CH$COMPOUND_CLASS: N/A; Environmental Reference Standard
CH$FORMULA: C12H16F3N
CH$EXACT_MASS: 231.1235
CH$SMILES: CCNC(C)CC1=CC=CC(=C1)C(F)(F)F
CH$IUPAC: InChI=1S/C12H16F3N/c1-3-16-9(2)7-10-5-4-6-11(8-10)12(13,14)15/h4-6,8-9,16H,3,7H2,1-2H3
CH$LINK: CAS 458-24-2
CH$LINK: CHEBI CHEBI:5000
CH$LINK: KEGG D07945
CH$LINK: PUBCHEM CID:3337
CH$LINK: INCHIKEY DBGIVFWFUFKIQN-UHFFFAOYSA-N
CH$LINK: CHEMSPIDER 3220
CH$LINK: COMPTOX DTXSID4023044
AC$INSTRUMENT: Q Exactive Orbitrap Thermo Scientific
AC$INSTRUMENT_TYPE: LC-ESI-QFT
AC$MASS_SPECTROMETRY: MS_TYPE MS2
AC$MASS_SPECTROMETRY: ION_MODE POSITIVE
AC$MASS_SPECTROMETRY: IONIZATION ESI
AC$MASS_SPECTROMETRY: FRAGMENTATION_MODE HCD
AC$MASS_SPECTROMETRY: COLLISION_ENERGY 15, 30, 45, 60, 70 or 90 (nominal)
AC$MASS_SPECTROMETRY: RESOLUTION 17500
AC$CHROMATOGRAPHY: COLUMN_NAME Atlantis T3 3um, 3.0x150mm, Waters with guard column
AC$CHROMATOGRAPHY: FLOW_GRADIENT 95/5 at 0 min, 5/95 at 15 min, 5/95 at 20 min, 95/5 at 20.1 min, 95/5 at 25 min
AC$CHROMATOGRAPHY: FLOW_RATE 300 uL/min
AC$CHROMATOGRAPHY: RETENTION_TIME 12.7 min
AC$CHROMATOGRAPHY: SOLVENT A water with 0.1% formic acid
AC$CHROMATOGRAPHY: SOLVENT B methanol with 0.1% formic acid
MS$FOCUSED_ION: BASE_PEAK 232.1307
MS$FOCUSED_ION: PRECURSOR_M/Z 232.1308
MS$FOCUSED_ION: PRECURSOR_TYPE [M+H]+
MS$DATA_PROCESSING: RECALIBRATE loess on assigned fragments and MS1
MS$DATA_PROCESSING: REANALYZE Peaks with additional N2/O included
MS$DATA_PROCESSING: WHOLE RMassBank 1.99.7
PK$SPLASH: splash10-0a4i-0900000000-486062095dc4b5f9673d
PK$ANNOTATION: m/z tentative_formula formula_count mass error(ppm)
  72.0808 C4H10N+ 1 72.0808 -0.22
  109.0446 C7H6F+ 1 109.0448 -1.6
  139.035 C8H5F2+ 1 139.0354 -2.83
  147.0602 C10H8F+ 1 147.0605 -1.8
  159.0416 C8H6F3+ 1 159.0416 -0.01
  187.0732 C10H10F3+ 1 187.0729 1.33
  232.1308 C12H17F3N+ 1 232.1308 0.3
PK$NUM_PEAK: 7
PK$PEAK: m/z int. rel.int.
  72.0808 191579.2 1
  109.0446 2524101.5 21
  139.035 318935.2 2
  147.0602 204321.6 1
  159.0416 116724048 999
  187.0732 437914.4 3
  232.1308 129047.8 1
//
