ACCESSION: MSBNK-Eawag_Additional_Specs-ET050202
RECORD_TITLE: DEP_150.1278_9.6; LC-ESI-QFT; MS2; CE: 30; R=17500; [M+H]+
DATE: 2016.03.17 (Created 2015.09.25, modified 2016.02.03)
AUTHORS: R. Gulde, E. Schymanski, K. Fenner, Department of Environmental Chemistry, Eawag
LICENSE: CC BY
COPYRIGHT: Copyright (C) 2016 Eawag, Duebendorf, Switzerland
PUBLICATION: Gulde, R.; Meier, U.; Schymanski, E. L.; Kohler, H.-P. E.; Helbling, D. E.; Derrer, S.; Rentsch, D.; Fenner, K. Systematic Exploration of Biotransformation Reactions of Amine-Containing Micropollutants in Activated Sludge. Environmental Science & Technology 2016, 50 (6), 2908–20. DOI:10.1021/acs.est.5b05186
COMMENT: CONFIDENCE Identification confirmed with Reference Standard (Level 1)
COMMENT: INTERNAL_ID 502
CH$NAME: DEP_150.1278_9.6
CH$NAME: Methamphetamine
CH$NAME: N-methyl-1-phenylpropan-2-amine
CH$COMPOUND_CLASS: N/A; Environmental Transformation Products
CH$FORMULA: C10H15N
CH$EXACT_MASS: 149.1204
CH$SMILES: CNC(C)CC1=CC=CC=C1
CH$IUPAC: InChI=1S/C10H15N/c1-9(11-2)8-10-6-4-3-5-7-10/h3-7,9,11H,8H2,1-2H3
CH$LINK: CAS 537-46-2
CH$LINK: PUBCHEM CID:1206
CH$LINK: INCHIKEY MYWUZJCMWCOHBA-UHFFFAOYSA-N
CH$LINK: CHEMSPIDER 1169
CH$LINK: COMPTOX DTXSID3043861
AC$INSTRUMENT: Q Exactive Orbitrap Thermo Scientific
AC$INSTRUMENT_TYPE: LC-ESI-QFT
AC$MASS_SPECTROMETRY: MS_TYPE MS2
AC$MASS_SPECTROMETRY: ION_MODE POSITIVE
AC$MASS_SPECTROMETRY: IONIZATION ESI
AC$MASS_SPECTROMETRY: FRAGMENTATION_MODE HCD
AC$MASS_SPECTROMETRY: COLLISION_ENERGY 30 (nominal)
AC$MASS_SPECTROMETRY: RESOLUTION 17500
AC$CHROMATOGRAPHY: COLUMN_NAME Atlantis T3 3um, 3.0x150mm, Waters with guard column
AC$CHROMATOGRAPHY: FLOW_GRADIENT 95/5 at 0 min, 5/95 at 15 min, 5/95 at 20 min, 95/5 at 20.1 min, 95/5 at 25 min
AC$CHROMATOGRAPHY: FLOW_RATE 300 uL/min
AC$CHROMATOGRAPHY: RETENTION_TIME 9.6 min
AC$CHROMATOGRAPHY: SOLVENT A water with 0.1% formic acid
AC$CHROMATOGRAPHY: SOLVENT B methanol with 0.1% formic acid
MS$FOCUSED_ION: BASE_PEAK 61.0285
MS$FOCUSED_ION: PRECURSOR_M/Z 150.1277
MS$FOCUSED_ION: PRECURSOR_TYPE [M+H]+
MS$DATA_PROCESSING: RECALIBRATE loess on assigned fragments and MS1
MS$DATA_PROCESSING: REANALYZE Peaks with additional N2/O included
MS$DATA_PROCESSING: WHOLE RMassBank 1.99.7
PK$SPLASH: splash10-00kf-8900000000-ca19ea752787c467a1c0
PK$ANNOTATION: m/z tentative_formula formula_count mass error(ppm)
  58.0653 C3H8N+ 1 58.0651 3.69
  65.0387 C5H5+ 1 65.0386 1.28
  91.0543 C7H7+ 1 91.0542 0.37
  119.0857 C9H11+ 1 119.0855 1.03
  150.1278 C10H16N+ 1 150.1277 0.83
PK$NUM_PEAK: 5
PK$PEAK: m/z int. rel.int.
  58.0653 6159 3
  65.0387 6003.2 3
  91.0543 1966922.5 999
  119.0857 1429114.1 725
  150.1278 756620.9 384
//
