ACCESSION: MSBNK-Eawag_Additional_Specs-ET090101
RECORD_TITLE: MEX_222.1488_17.1; LC-ESI-QFT; MS2; CE: 15; R=17500; [M+H]+
DATE: 2016.03.17 (Created 2015.09.25, modified 2016.02.03)
AUTHORS: R. Gulde, E. Schymanski, K. Fenner, Department of Environmental Chemistry, Eawag
LICENSE: CC BY
COPYRIGHT: Copyright (C) 2016 Eawag, Duebendorf, Switzerland
PUBLICATION: Gulde, R.; Meier, U.; Schymanski, E. L.; Kohler, H.-P. E.; Helbling, D. E.; Derrer, S.; Rentsch, D.; Fenner, K. Systematic Exploration of Biotransformation Reactions of Amine-Containing Micropollutants in Activated Sludge. Environmental Science & Technology 2016, 50 (6), 2908–20. DOI:10.1021/acs.est.5b05186
COMMENT: CONFIDENCE Tentative identification: most likely structure (Level 3)
COMMENT: INTERNAL_ID 901
CH$NAME: MEX_222.1488_17.1
CH$NAME: Mexiletine acetate
CH$NAME: N-[1-(2,6-dimethylphenoxy)propan-2-yl]acetamide
CH$COMPOUND_CLASS: N/A; Environmental Transformation Products
CH$FORMULA: C13H19NO2
CH$EXACT_MASS: 221.1416
CH$SMILES: CC(COc1c(C)cccc1C)NC(C)=O
CH$IUPAC: InChI=1S/C13H19NO2/c1-9-6-5-7-10(2)13(9)16-8-11(3)14-12(4)15/h5-7,11H,8H2,1-4H3,(H,14,15)
CH$LINK: CAS 91452-27-6
CH$LINK: PUBCHEM CID:567741
CH$LINK: INCHIKEY DNSFMKGQWLZMOJ-UHFFFAOYSA-N
CH$LINK: CHEMSPIDER 493593
CH$LINK: COMPTOX DTXSID20340814
AC$INSTRUMENT: Q Exactive Plus Orbitrap Thermo Scientific
AC$INSTRUMENT_TYPE: LC-ESI-QFT
AC$MASS_SPECTROMETRY: MS_TYPE MS2
AC$MASS_SPECTROMETRY: ION_MODE POSITIVE
AC$MASS_SPECTROMETRY: IONIZATION ESI
AC$MASS_SPECTROMETRY: FRAGMENTATION_MODE HCD
AC$MASS_SPECTROMETRY: COLLISION_ENERGY 15 (nominal)
AC$MASS_SPECTROMETRY: RESOLUTION 17500
AC$CHROMATOGRAPHY: COLUMN_NAME Atlantis T3 3um, 3.0x150mm, Waters with guard column
AC$CHROMATOGRAPHY: FLOW_GRADIENT 95/5 at 0 min, 5/95 at 15 min, 5/95 at 20 min, 95/5 at 20.1 min, 95/5 at 25 min
AC$CHROMATOGRAPHY: FLOW_RATE 300 uL/min
AC$CHROMATOGRAPHY: RETENTION_TIME 16.7 min
AC$CHROMATOGRAPHY: SOLVENT A water with 0.1% formic acid
AC$CHROMATOGRAPHY: SOLVENT B methanol with 0.1% formic acid
MS$FOCUSED_ION: BASE_PEAK 65.0597
MS$FOCUSED_ION: PRECURSOR_M/Z 222.1489
MS$FOCUSED_ION: PRECURSOR_TYPE [M+H]+
MS$DATA_PROCESSING: RECALIBRATE loess on assigned fragments and MS1
MS$DATA_PROCESSING: REANALYZE Peaks with additional N2/O included
MS$DATA_PROCESSING: WHOLE RMassBank 1.99.7
PK$SPLASH: splash10-0udi-0900000000-0be34ea3d2aa4b863a34
PK$ANNOTATION: m/z tentative_formula formula_count mass error(ppm)
  58.0651 C3H8N+ 1 58.0651 -0.61
  100.0756 C5H10NO+ 1 100.0757 -1.4
  163.1117 C11H15O+ 1 163.1117 -0.07
  180.1381 C11H18NO+ 1 180.1383 -0.78
  222.1487 C13H20NO2+ 1 222.1489 -0.79
PK$NUM_PEAK: 5
PK$PEAK: m/z int. rel.int.
  58.0651 1669489.8 53
  100.0756 31057242 999
  163.1117 85885.8 2
  180.1381 342742.5 11
  222.1487 2016335.8 64
//
