ACCESSION: MSBNK-Eawag_Additional_Specs-ET180201
RECORD_TITLE: SPI_314.2691_15.4; LC-ESI-QFT; MS2; CE: 15; R=17500; [M+H]+
DATE: 2016.03.17 (Created 2015.09.25, modified 2016.02.03)
AUTHORS: R. Gulde, E. Schymanski, K. Fenner, Department of Environmental Chemistry, Eawag
LICENSE: CC BY
COPYRIGHT: Copyright (C) 2016 Eawag, Duebendorf, Switzerland
PUBLICATION: Gulde, R.; Meier, U.; Schymanski, E. L.; Kohler, H.-P. E.; Helbling, D. E.; Derrer, S.; Rentsch, D.; Fenner, K. Systematic Exploration of Biotransformation Reactions of Amine-Containing Micropollutants in Activated Sludge. Environmental Science & Technology 2016, 50 (6), 2908–20. DOI:10.1021/acs.est.5b05186
COMMENT: CONFIDENCE Tentative identification: substance class known (Level 3)
COMMENT: INTERNAL_ID 1802
CH$NAME: SPI_314.2691_15.4
CH$COMPOUND_CLASS: N/A; Environmental Transformation Products
CH$FORMULA: C18H35NO3
CH$EXACT_MASS: 313.2617
CH$SMILES: N/A
CH$IUPAC: N/A
AC$INSTRUMENT: Q Exactive Plus Orbitrap Thermo Scientific
AC$INSTRUMENT_TYPE: LC-ESI-QFT
AC$MASS_SPECTROMETRY: MS_TYPE MS2
AC$MASS_SPECTROMETRY: ION_MODE POSITIVE
AC$MASS_SPECTROMETRY: IONIZATION ESI
AC$MASS_SPECTROMETRY: FRAGMENTATION_MODE HCD
AC$MASS_SPECTROMETRY: COLLISION_ENERGY 15 (nominal)
AC$MASS_SPECTROMETRY: RESOLUTION 17500
AC$CHROMATOGRAPHY: COLUMN_NAME Atlantis T3 3um, 3.0x150mm, Waters with guard column
AC$CHROMATOGRAPHY: FLOW_GRADIENT 95/5 at 0 min, 5/95 at 15 min, 5/95 at 20 min, 95/5 at 20.1 min, 95/5 at 25 min
AC$CHROMATOGRAPHY: FLOW_RATE 300 uL/min
AC$CHROMATOGRAPHY: RETENTION_TIME 15.2 min
AC$CHROMATOGRAPHY: SOLVENT A water with 0.1% formic acid
AC$CHROMATOGRAPHY: SOLVENT B methanol with 0.1% formic acid
MS$FOCUSED_ION: BASE_PEAK 65.0597
MS$FOCUSED_ION: PRECURSOR_M/Z 314.269
MS$FOCUSED_ION: PRECURSOR_TYPE [M+H]+
MS$DATA_PROCESSING: RECALIBRATE loess on assigned fragments and MS1
MS$DATA_PROCESSING: REANALYZE Peaks with additional N2/O included
MS$DATA_PROCESSING: WHOLE RMassBank 1.99.7
PK$SPLASH: splash10-03di-0009000000-a75aacb79ec55b91b3a9
PK$ANNOTATION: m/z tentative_formula formula_count mass error(ppm)
  60.0807 C3H10N+ 1 60.0808 -1.76
  100.1123 C6H14N+ 1 100.1121 2.64
  130.1227 C7H16NO+ 1 130.1226 0.3
  142.1228 C8H16NO+ 1 142.1226 0.91
  144.1382 C8H18NO+ 1 144.1383 -0.35
  160.1333 C8H18NO2+ 1 160.1332 0.28
  314.269 C18H36NO3+ 1 314.269 0.06
PK$NUM_PEAK: 7
PK$PEAK: m/z int. rel.int.
  60.0807 2450.3 1
  100.1123 4948.3 2
  130.1227 11262.9 5
  142.1228 5833.7 2
  144.1382 8349.5 4
  160.1333 137705.4 69
  314.269 1990857.8 999
//
