ACCESSION: MSBNK-Eawag_Additional_Specs-ET170404
RECORD_TITLE: PYR_273.1235_11.5; LC-ESI-QFT; MS2; CE: 60; R=17500; [M+H]+
DATE: 2016.03.17 (Created 2015.09.25, modified 2016.02.03)
AUTHORS: R. Gulde, E. Schymanski, K. Fenner, Department of Environmental Chemistry, Eawag
LICENSE: CC BY
COPYRIGHT: Copyright (C) 2016 Eawag, Duebendorf, Switzerland
PUBLICATION: Gulde, R.; Meier, U.; Schymanski, E. L.; Kohler, H.-P. E.; Helbling, D. E.; Derrer, S.; Rentsch, D.; Fenner, K. Systematic Exploration of Biotransformation Reactions of Amine-Containing Micropollutants in Activated Sludge. Environmental Science & Technology 2016, 50 (6), 2908–20. DOI:10.1021/acs.est.5b05186
COMMENT: CONFIDENCE Tentative identification: most likely structure (Level 3)
COMMENT: INTERNAL_ID 1704
CH$NAME: PYR_273.1235_11.5
CH$COMPOUND_CLASS: N/A; Environmental Transformation Products
CH$FORMULA: C15H16N2O3
CH$EXACT_MASS: 272.1161
CH$SMILES: COc1ccc(CN(CC(O)=O)c2ccccn2)cc1
CH$IUPAC: InChI=1S/C15H16N2O3/c1-20-13-7-5-12(6-8-13)10-17(11-15(18)19)14-4-2-3-9-16-14/h2-9H,10-11H2,1H3,(H,18,19)
CH$LINK: INCHIKEY PPJDHLMQESOTEN-UHFFFAOYSA-N
CH$LINK: COMPTOX DTXSID30891605
CH$LINK: PUBCHEM CID:133052763
AC$INSTRUMENT: Q Exactive Orbitrap Thermo Scientific
AC$INSTRUMENT_TYPE: LC-ESI-QFT
AC$MASS_SPECTROMETRY: MS_TYPE MS2
AC$MASS_SPECTROMETRY: ION_MODE POSITIVE
AC$MASS_SPECTROMETRY: IONIZATION ESI
AC$MASS_SPECTROMETRY: FRAGMENTATION_MODE HCD
AC$MASS_SPECTROMETRY: COLLISION_ENERGY 60 (nominal)
AC$MASS_SPECTROMETRY: RESOLUTION 17500
AC$CHROMATOGRAPHY: COLUMN_NAME Atlantis T3 3um, 3.0x150mm, Waters with guard column
AC$CHROMATOGRAPHY: FLOW_GRADIENT 95/5 at 0 min, 5/95 at 15 min, 5/95 at 20 min, 95/5 at 20.1 min, 95/5 at 25 min
AC$CHROMATOGRAPHY: FLOW_RATE 300 uL/min
AC$CHROMATOGRAPHY: RETENTION_TIME 11.5 min
AC$CHROMATOGRAPHY: SOLVENT A water with 0.1% formic acid
AC$CHROMATOGRAPHY: SOLVENT B methanol with 0.1% formic acid
MS$FOCUSED_ION: BASE_PEAK 61.0284
MS$FOCUSED_ION: PRECURSOR_M/Z 273.1234
MS$FOCUSED_ION: PRECURSOR_TYPE [M+H]+
MS$DATA_PROCESSING: RECALIBRATE loess on assigned fragments and MS1
MS$DATA_PROCESSING: REANALYZE Peaks with additional N2/O included
MS$DATA_PROCESSING: WHOLE RMassBank 1.99.7
PK$SPLASH: splash10-00di-1900000000-0350a7fc27f5780785f1
PK$ANNOTATION: m/z tentative_formula formula_count mass error(ppm)
  79.0542 C6H7+ 1 79.0542 0.17
  91.0545 C7H7+ 1 91.0542 3
  93.0699 C7H9+ 1 93.0699 -0.07
  95.0489 C6H7O+ 1 95.0491 -2.33
  105.0447 C6H5N2+ 1 105.0447 -0.23
  105.0701 C8H9+ 1 105.0699 1.74
  107.0491 C7H7O+ 1 107.0491 -0.57
  107.0605 C6H7N2+ 1 107.0604 0.8
  117.0697 C9H9+ 1 117.0699 -1.51
  121.0648 C8H9O+ 1 121.0648 0.15
  135.0808 C9H11O+ 1 135.0804 2.58
  163.0755 C10H11O2+ 1 163.0754 1.19
PK$NUM_PEAK: 12
PK$PEAK: m/z int. rel.int.
  79.0542 6412.9 38
  91.0545 11156.2 67
  93.0699 6726.5 40
  95.0489 1754.9 10
  105.0447 1980.3 12
  105.0701 1307.9 7
  107.0491 5235.7 31
  107.0605 5226.4 31
  117.0697 7681.3 46
  121.0648 164499.9 999
  135.0808 10606.5 64
  163.0755 2388.8 14
//
