ACCESSION: MSBNK-Eawag_Additional_Specs-ET050403
RECORD_TITLE: DEP_204.1384_15.1; LC-ESI-QFT; MS2; CE: 45; R=17500; [M+H]+
DATE: 2016.03.17 (Created 2015.09.25, modified 2016.02.03)
AUTHORS: R. Gulde, E. Schymanski, K. Fenner, Department of Environmental Chemistry, Eawag
LICENSE: CC BY
COPYRIGHT: Copyright (C) 2016 Eawag, Duebendorf, Switzerland
PUBLICATION: Gulde, R.; Meier, U.; Schymanski, E. L.; Kohler, H.-P. E.; Helbling, D. E.; Derrer, S.; Rentsch, D.; Fenner, K. Systematic Exploration of Biotransformation Reactions of Amine-Containing Micropollutants in Activated Sludge. Environmental Science & Technology 2016, 50 (6), 2908–20. DOI:10.1021/acs.est.5b05186
COMMENT: CONFIDENCE Tentative identification: substance class known (Level 3)
COMMENT: INTERNAL_ID 504
CH$NAME: DEP_204.1384_15.1
CH$COMPOUND_CLASS: N/A; Environmental Transformation Products
CH$FORMULA: C13H17NO
CH$EXACT_MASS: 203.1310
CH$SMILES: N/A
CH$IUPAC: N/A
AC$INSTRUMENT: Q Exactive Orbitrap Thermo Scientific
AC$INSTRUMENT_TYPE: LC-ESI-QFT
AC$MASS_SPECTROMETRY: MS_TYPE MS2
AC$MASS_SPECTROMETRY: ION_MODE POSITIVE
AC$MASS_SPECTROMETRY: IONIZATION ESI
AC$MASS_SPECTROMETRY: FRAGMENTATION_MODE HCD
AC$MASS_SPECTROMETRY: COLLISION_ENERGY 45 (nominal)
AC$MASS_SPECTROMETRY: RESOLUTION 17500
AC$CHROMATOGRAPHY: COLUMN_NAME Atlantis T3 3um, 3.0x150mm, Waters with guard column
AC$CHROMATOGRAPHY: FLOW_GRADIENT 95/5 at 0 min, 5/95 at 15 min, 5/95 at 20 min, 95/5 at 20.1 min, 95/5 at 25 min
AC$CHROMATOGRAPHY: FLOW_RATE 300 uL/min
AC$CHROMATOGRAPHY: RETENTION_TIME 15.0 min
AC$CHROMATOGRAPHY: SOLVENT A water with 0.1% formic acid
AC$CHROMATOGRAPHY: SOLVENT B methanol with 0.1% formic acid
MS$FOCUSED_ION: BASE_PEAK 60.0809
MS$FOCUSED_ION: PRECURSOR_M/Z 204.1383
MS$FOCUSED_ION: PRECURSOR_TYPE [M+H]+
MS$DATA_PROCESSING: RECALIBRATE loess on assigned fragments and MS1
MS$DATA_PROCESSING: REANALYZE Peaks with additional N2/O included
MS$DATA_PROCESSING: WHOLE RMassBank 1.99.7
PK$SPLASH: splash10-0006-9000000000-46737ab584622b20a78f
PK$ANNOTATION: m/z tentative_formula formula_count mass error(ppm)
  56.0497 C3H6N+ 1 56.0495 4.36
  58.0653 C3H8N+ 1 58.0651 2.66
  65.0386 C5H5+ 1 65.0386 0.21
  68.0495 C4H6N+ 1 68.0495 0.51
  70.0651 C4H8N+ 1 70.0651 -0.22
  86.0601 C4H8NO+ 1 86.06 0.35
  91.0542 C7H7+ 1 91.0542 0.26
  96.0808 C6H10N+ 1 96.0808 0.67
  109.065 C7H9O+ 1 109.0648 1.55
  119.0856 C9H11+ 1 119.0855 0.87
  204.1384 C13H18NO+ 1 204.1383 0.49
PK$NUM_PEAK: 11
PK$PEAK: m/z int. rel.int.
  56.0497 2277.4 2
  58.0653 11227.7 13
  65.0386 2854.1 3
  68.0495 52439.6 62
  70.0651 2446.7 2
  86.0601 261657.2 313
  91.0542 834208.4 999
  96.0808 2029.3 2
  109.065 2537.3 3
  119.0856 107141.8 128
  204.1384 72566 86
//
