ACCESSION: MSBNK-Eawag_Additional_Specs-ET130401
RECORD_TITLE: OCP_225.0789_16.6; LC-ESI-QFT; MS2; CE: 15; R=17500; [M+H]+
DATE: 2016.03.17 (Created 2015.09.25, modified 2016.02.03)
AUTHORS: R. Gulde, E. Schymanski, K. Fenner, Department of Environmental Chemistry, Eawag
LICENSE: CC BY
COPYRIGHT: Copyright (C) 2016 Eawag, Duebendorf, Switzerland
PUBLICATION: Gulde, R.; Meier, U.; Schymanski, E. L.; Kohler, H.-P. E.; Helbling, D. E.; Derrer, S.; Rentsch, D.; Fenner, K. Systematic Exploration of Biotransformation Reactions of Amine-Containing Micropollutants in Activated Sludge. Environmental Science & Technology 2016, 50 (6), 2908–20. DOI:10.1021/acs.est.5b05186
COMMENT: CONFIDENCE Tentative identification: most likely structure (Level 3)
COMMENT: INTERNAL_ID 1304
CH$NAME: OCP_225.0789_16.6
CH$NAME: N-formyl-o-Chloropiperarzine
CH$NAME: 4-(3-chlorophenyl)piperazine-1-carbaldehyde
CH$COMPOUND_CLASS: N/A; Environmental Transformation Products
CH$FORMULA: C11H13ClN2O
CH$EXACT_MASS: 224.0716
CH$SMILES: Clc1cccc(c1)N1CCN(CC1)C=O
CH$IUPAC: InChI=1S/C11H13ClN2O/c12-10-2-1-3-11(8-10)14-6-4-13(9-15)5-7-14/h1-3,8-9H,4-7H2
CH$LINK: CAS 20011-14-7
CH$LINK: PUBCHEM CID:11264593
CH$LINK: INCHIKEY IGIBHEMNRYAZQH-UHFFFAOYSA-N
CH$LINK: CHEMSPIDER 9439605
CH$LINK: COMPTOX DTXSID30891569
AC$INSTRUMENT: Q Exactive Orbitrap Thermo Scientific
AC$INSTRUMENT_TYPE: LC-ESI-QFT
AC$MASS_SPECTROMETRY: MS_TYPE MS2
AC$MASS_SPECTROMETRY: ION_MODE POSITIVE
AC$MASS_SPECTROMETRY: IONIZATION ESI
AC$MASS_SPECTROMETRY: FRAGMENTATION_MODE HCD
AC$MASS_SPECTROMETRY: COLLISION_ENERGY 15 (nominal)
AC$MASS_SPECTROMETRY: RESOLUTION 17500
AC$CHROMATOGRAPHY: COLUMN_NAME Atlantis T3 3um, 3.0x150mm, Waters with guard column
AC$CHROMATOGRAPHY: FLOW_GRADIENT 95/5 at 0 min, 5/95 at 15 min, 5/95 at 20 min, 95/5 at 20.1 min, 95/5 at 25 min
AC$CHROMATOGRAPHY: FLOW_RATE 300 uL/min
AC$CHROMATOGRAPHY: RETENTION_TIME 16.4 min
AC$CHROMATOGRAPHY: SOLVENT A water with 0.1% formic acid
AC$CHROMATOGRAPHY: SOLVENT B methanol with 0.1% formic acid
MS$FOCUSED_ION: BASE_PEAK 60.0809
MS$FOCUSED_ION: PRECURSOR_M/Z 225.0789
MS$FOCUSED_ION: PRECURSOR_TYPE [M+H]+
MS$DATA_PROCESSING: RECALIBRATE loess on assigned fragments and MS1
MS$DATA_PROCESSING: REANALYZE Peaks with additional N2/O included
MS$DATA_PROCESSING: WHOLE RMassBank 1.99.7
PK$SPLASH: splash10-002b-0950000000-c052556d5f5322842117
PK$ANNOTATION: m/z tentative_formula formula_count mass error(ppm)
  154.0417 C8H9ClN+ 2 154.0418 -0.41
  197.0841 C10H14ClN2+ 1 197.084 0.39
  225.0786 C11H14ClN2O+ 1 225.0789 -1.45
PK$NUM_PEAK: 3
PK$PEAK: m/z int. rel.int.
  154.0417 2488.2 14
  197.0841 165964.2 999
  225.0786 103715.3 624
//
