ACCESSION: MSBNK-Eawag_Additional_Specs-ET181101
RECORD_TITLE: SPI_256.2273_14.6; LC-ESI-QFT; MS2; CE: 15; R=17500; [M+H]+
DATE: 2016.03.17 (Created 2015.09.25, modified 2016.02.03)
AUTHORS: R. Gulde, E. Schymanski, K. Fenner, Department of Environmental Chemistry, Eawag
LICENSE: CC BY
COPYRIGHT: Copyright (C) 2016 Eawag, Duebendorf, Switzerland
PUBLICATION: Gulde, R.; Meier, U.; Schymanski, E. L.; Kohler, H.-P. E.; Helbling, D. E.; Derrer, S.; Rentsch, D.; Fenner, K. Systematic Exploration of Biotransformation Reactions of Amine-Containing Micropollutants in Activated Sludge. Environmental Science & Technology 2016, 50 (6), 2908–20. DOI:10.1021/acs.est.5b05186
COMMENT: CONFIDENCE Probable structure via diagnostic evidence, tentative identification (Level 2b)
COMMENT: INTERNAL_ID 1811
CH$NAME: SPI_256.2273_14.6
CH$NAME: N-depropylspiroxamine
CH$COMPOUND_CLASS: N/A; Environmental Transformation Products
CH$FORMULA: C15H29NO2
CH$EXACT_MASS: 255.2198
CH$SMILES: CCNCC1COC2(CCC(CC2)C(C)(C)C)O1
CH$IUPAC: InChI=1S/C15H29NO2/c1-5-16-10-13-11-17-15(18-13)8-6-12(7-9-15)14(2,3)4/h12-13,16H,5-11H2,1-4H3
CH$LINK: INCHIKEY AUYSPPNVFQBFHX-UHFFFAOYSA-N
CH$LINK: COMPTOX DTXSID00891576
CH$LINK: PUBCHEM CID:102298117
AC$INSTRUMENT: Q Exactive Plus Orbitrap Thermo Scientific
AC$INSTRUMENT_TYPE: LC-ESI-QFT
AC$MASS_SPECTROMETRY: MS_TYPE MS2
AC$MASS_SPECTROMETRY: ION_MODE POSITIVE
AC$MASS_SPECTROMETRY: IONIZATION ESI
AC$MASS_SPECTROMETRY: FRAGMENTATION_MODE HCD
AC$MASS_SPECTROMETRY: COLLISION_ENERGY 15 (nominal)
AC$MASS_SPECTROMETRY: RESOLUTION 17500
AC$CHROMATOGRAPHY: COLUMN_NAME Atlantis T3 3um, 3.0x150mm, Waters with guard column
AC$CHROMATOGRAPHY: FLOW_GRADIENT 95/5 at 0 min, 5/95 at 15 min, 5/95 at 20 min, 95/5 at 20.1 min, 95/5 at 25 min
AC$CHROMATOGRAPHY: FLOW_RATE 300 uL/min
AC$CHROMATOGRAPHY: RETENTION_TIME 14.4 min
AC$CHROMATOGRAPHY: SOLVENT A water with 0.1% formic acid
AC$CHROMATOGRAPHY: SOLVENT B methanol with 0.1% formic acid
MS$FOCUSED_ION: BASE_PEAK 65.0597
MS$FOCUSED_ION: PRECURSOR_M/Z 256.2271
MS$FOCUSED_ION: PRECURSOR_TYPE [M+H]+
MS$DATA_PROCESSING: RECALIBRATE loess on assigned fragments and MS1
MS$DATA_PROCESSING: REANALYZE Peaks with additional N2/O included
MS$DATA_PROCESSING: WHOLE RMassBank 1.99.7
PK$SPLASH: splash10-0pb9-0790000000-0be12d33c63c2048f6ee
PK$ANNOTATION: m/z tentative_formula formula_count mass error(ppm)
  57.0701 C4H9+ 1 57.0699 4.61
  58.0652 C3H8N+ 1 58.0651 1.8
  60.0807 C3H10N+ 1 60.0808 -1.09
  74.0963 C4H12N+ 1 74.0964 -1.43
  89.0596 C4H9O2+ 1 89.0597 -1.3
  94.0651 C6H8N+ 1 94.0651 0.05
  102.0913 C5H12NO+ 1 102.0913 -0.2
  133.0858 C6H13O3+ 1 133.0859 -0.91
  256.2271 C15H30NO2+ 1 256.2271 -0.02
PK$NUM_PEAK: 9
PK$PEAK: m/z int. rel.int.
  57.0701 928.8 4
  58.0652 3826 18
  60.0807 1539.1 7
  74.0963 7550.1 35
  89.0596 1637.9 7
  94.0651 1824 8
  102.0913 167551.8 795
  133.0858 3908.8 18
  256.2271 210482.1 999
//
