ACCESSION: MSBNK-Eawag_Additional_Specs-ET080002
RECORD_TITLE: LID_235.1805_10.1; LC-ESI-QFT; MS2; CE: 15-90; R=17500; [M+H]+
DATE: 2016.03.17 (Created 2015.09.25, modified 2016.02.03)
AUTHORS: R. Gulde, E. Schymanski, K. Fenner, Department of Environmental Chemistry, Eawag
LICENSE: CC BY
COPYRIGHT: Copyright (C) 2016 Eawag, Duebendorf, Switzerland
PUBLICATION: Gulde, R.; Meier, U.; Schymanski, E. L.; Kohler, H.-P. E.; Helbling, D. E.; Derrer, S.; Rentsch, D.; Fenner, K. Systematic Exploration of Biotransformation Reactions of Amine-Containing Micropollutants in Activated Sludge. Environmental Science & Technology 2016, 50 (6), 2908–20. DOI:10.1021/acs.est.5b05186
COMMENT: CONFIDENCE Parent Substance with Reference Standard (Level 1)
COMMENT: INTERNAL_ID 800
CH$NAME: LID_235.1805_10.1
CH$NAME: Lidocaine
CH$NAME: 2-(diethylamino)-N-(2,6-dimethylphenyl)acetamide
CH$COMPOUND_CLASS: N/A; Environmental Reference Standard
CH$FORMULA: C14H22N2O
CH$EXACT_MASS: 234.1732
CH$SMILES: CCN(CC)CC(=O)NC1=C(C)C=CC=C1C
CH$IUPAC: InChI=1S/C14H22N2O/c1-5-16(6-2)10-13(17)15-14-11(3)8-7-9-12(14)4/h7-9H,5-6,10H2,1-4H3,(H,15,17)
CH$LINK: CAS 137-58-6
CH$LINK: CHEBI CHEBI:6456
CH$LINK: KEGG D00358
CH$LINK: PUBCHEM CID:3676
CH$LINK: INCHIKEY NNJVILVZKWQKPM-UHFFFAOYSA-N
CH$LINK: CHEMSPIDER 3548
CH$LINK: COMPTOX DTXSID1045166
AC$INSTRUMENT: Q Exactive Orbitrap Thermo Scientific
AC$INSTRUMENT_TYPE: LC-ESI-QFT
AC$MASS_SPECTROMETRY: MS_TYPE MS2
AC$MASS_SPECTROMETRY: ION_MODE POSITIVE
AC$MASS_SPECTROMETRY: IONIZATION ESI
AC$MASS_SPECTROMETRY: FRAGMENTATION_MODE HCD
AC$MASS_SPECTROMETRY: COLLISION_ENERGY 15, 30, 45, 60, 70 or 90 (nominal)
AC$MASS_SPECTROMETRY: RESOLUTION 17500
AC$CHROMATOGRAPHY: COLUMN_NAME Atlantis T3 3um, 3.0x150mm, Waters with guard column
AC$CHROMATOGRAPHY: FLOW_GRADIENT 95/5 at 0 min, 5/95 at 15 min, 5/95 at 20 min, 95/5 at 20.1 min, 95/5 at 25 min
AC$CHROMATOGRAPHY: FLOW_RATE 300 uL/min
AC$CHROMATOGRAPHY: RETENTION_TIME 10.4 min
AC$CHROMATOGRAPHY: SOLVENT A water with 0.1% formic acid
AC$CHROMATOGRAPHY: SOLVENT B methanol with 0.1% formic acid
MS$FOCUSED_ION: BASE_PEAK 235.1808
MS$FOCUSED_ION: PRECURSOR_M/Z 235.1805
MS$FOCUSED_ION: PRECURSOR_TYPE [M+H]+
MS$DATA_PROCESSING: RECALIBRATE loess on assigned fragments and MS1
MS$DATA_PROCESSING: REANALYZE Peaks with additional N2/O included
MS$DATA_PROCESSING: WHOLE RMassBank 1.99.7
PK$SPLASH: splash10-000i-9000000000-5a056c9766b47a19f0a2
PK$ANNOTATION: m/z tentative_formula formula_count mass error(ppm)
  86.0965 C5H12N+ 1 86.0964 0.98
PK$NUM_PEAK: 2
PK$PEAK: m/z int. rel.int.
  58.0656 10486253 118
  86.0965 88057136 999
//
