ACCESSION: MSBNK-KWR-KW105902
RECORD_TITLE: 7,8-dimethoxy-1,3-dihydro-2H-3-benzazepin-2-one; LC-ESI-ITFT; MS2; CE: 35 eV; R=7500; [M+H]+
DATE: 2017.03.12
AUTHORS: Erik Emke, Andrea Brunner, KWR
LICENSE: CC BY
COPYRIGHT: Copyright (C) 2017 KWR watercycle research institute
COMMENT: CONFIDENCE Reference Standard (Level 1)
COMMENT: INTERNAL_ID 1059
CH$NAME: 7,8-dimethoxy-1,3-dihydro-2H-3-benzazepin-2-one
CH$COMPOUND_CLASS: N/A; Environmental Standard
CH$FORMULA: C12H13NO3
CH$EXACT_MASS: 219.0895
CH$SMILES: COc1cc2CC(=O)NC=Cc2cc1OC
CH$IUPAC: InChI=1S/C12H13NO3/c1-15-10-5-8-3-4-13-12(14)7-9(8)6-11(10)16-2/h3-6H,7H2,1-2H3,(H,13,14)
CH$LINK: CAS 73942-87-7
CH$LINK: PUBCHEM CID:1482373
CH$LINK: INCHIKEY CPNZASIAJKSBBH-UHFFFAOYSA-N
CH$LINK: CHEMSPIDER 1223536
CH$LINK: COMPTOX DTXSID10363259
AC$INSTRUMENT: Orbitrap Classic, Thermo Scientific
AC$INSTRUMENT_TYPE: LC-ESI-ITFT
AC$MASS_SPECTROMETRY: MS_TYPE MS2
AC$MASS_SPECTROMETRY: ION_MODE POSITIVE
AC$MASS_SPECTROMETRY: IONIZATION ESI
AC$MASS_SPECTROMETRY: FRAGMENTATION_MODE CID
AC$MASS_SPECTROMETRY: COLLISION_ENERGY 35 eV FT-MS
AC$MASS_SPECTROMETRY: RESOLUTION 7500
AC$CHROMATOGRAPHY: COLUMN_NAME XBridge C18 3.5um, 2.1x150mm, Waters
AC$CHROMATOGRAPHY: FLOW_GRADIENT 95/5 at 0 min, 0/100 at 40 min, 0/100 at 45 min, 95/5 at 47 min, 95/5 at 52 min
AC$CHROMATOGRAPHY: FLOW_RATE 300 uL/min
AC$CHROMATOGRAPHY: RETENTION_TIME 10.496 min
AC$CHROMATOGRAPHY: SOLVENT A water with 0.05% formic acid
AC$CHROMATOGRAPHY: SOLVENT B acetonitrile with 0.05% formic acid
MS$FOCUSED_ION: BASE_PEAK 220.0965
MS$FOCUSED_ION: PRECURSOR_M/Z 220.0968
MS$FOCUSED_ION: PRECURSOR_TYPE [M+H]+
MS$DATA_PROCESSING: RECALIBRATE identity
MS$DATA_PROCESSING: REANALYZE Peaks with additional N2/O included
MS$DATA_PROCESSING: WHOLE RMassBank 2.2.0
PK$SPLASH: splash10-0006-0900000000-8a0f24ce27d68bef1d3b
PK$ANNOTATION: m/z tentative_formula formula_count mass error(ppm)
  160.0757 C10H10NO+ 1 160.0757 -0.14
  161.0833 C10H11NO+ 1 161.0835 -1.07
  188.0702 C11H10NO2+ 1 188.0706 -1.96
  189.0792 C11H11NO2+ 1 189.0784 4.12
  192.1018 C11H14NO2+ 1 192.1019 -0.59
  193.0374 C9H7NO4+ 1 193.037 2.04
  203.0702 C12H11O3+ 1 203.0703 -0.24
PK$NUM_PEAK: 7
PK$PEAK: m/z int. rel.int.
  160.0757 86323.3 2
  161.0833 842439.1 27
  188.0702 105735.6 3
  189.0792 186933.7 6
  192.1018 30363198 999
  193.0374 94459.8 3
  203.0702 434780 14
//
