ACCESSION: MSBNK-KWR-KW106603
RECORD_TITLE: methylcinnamate; LC-ESI-ITFT; MS2; CE: 35 eV; R=30000; [M+H]+
DATE: 2017.03.12
AUTHORS: Erik Emke, Andrea Brunner, KWR
LICENSE: CC BY
COPYRIGHT: Copyright (C) 2017 KWR watercycle research institute
COMMENT: CONFIDENCE Reference Standard (Level 1)
COMMENT: INTERNAL_ID 1066
CH$NAME: methylcinnamate
CH$COMPOUND_CLASS: N/A; Environmental Standard
CH$FORMULA: C10H10O2
CH$EXACT_MASS: 162.0681
CH$SMILES: O=C(OC)C=Cc(cccc1)c1
CH$IUPAC: InChI=1S/C10H10O2/c1-12-10(11)8-7-9-5-3-2-4-6-9/h2-8H,1H3
CH$LINK: CAS 103-26-4
CH$LINK: PUBCHEM CID:7644
CH$LINK: INCHIKEY CCRCUPLGCSFEDV-UHFFFAOYSA-N
CH$LINK: CHEMSPIDER 7361
CH$LINK: COMPTOX DTXSID6042151
AC$INSTRUMENT: Orbitrap Classic, Thermo Scientific
AC$INSTRUMENT_TYPE: LC-ESI-ITFT
AC$MASS_SPECTROMETRY: MS_TYPE MS2
AC$MASS_SPECTROMETRY: ION_MODE POSITIVE
AC$MASS_SPECTROMETRY: IONIZATION ESI
AC$MASS_SPECTROMETRY: FRAGMENTATION_MODE CID
AC$MASS_SPECTROMETRY: COLLISION_ENERGY 35 eV FT-MS II
AC$MASS_SPECTROMETRY: RESOLUTION 30000
AC$CHROMATOGRAPHY: COLUMN_NAME XBridge C18 3.5um, 2.1x150mm, Waters
AC$CHROMATOGRAPHY: FLOW_GRADIENT 95/5 at 0 min, 0/100 at 40 min, 0/100 at 45 min, 95/5 at 47 min, 95/5 at 52 min
AC$CHROMATOGRAPHY: FLOW_RATE 300 uL/min
AC$CHROMATOGRAPHY: RETENTION_TIME 20.119 min
AC$CHROMATOGRAPHY: SOLVENT A water with 0.05% formic acid
AC$CHROMATOGRAPHY: SOLVENT B acetonitrile with 0.05% formic acid
MS$FOCUSED_ION: BASE_PEAK 131.049
MS$FOCUSED_ION: PRECURSOR_M/Z 163.0754
MS$FOCUSED_ION: PRECURSOR_TYPE [M+H]+
MS$DATA_PROCESSING: RECALIBRATE identity
MS$DATA_PROCESSING: REANALYZE Peaks with additional N2/O included
MS$DATA_PROCESSING: WHOLE RMassBank 2.2.0
PK$SPLASH: splash10-001i-0900000000-19d6a15cefa47d73b7a1
PK$ANNOTATION: m/z tentative_formula formula_count mass error(ppm)
  89.0596 C4H9O2+ 1 89.0597 -0.92
  103.0542 C8H7+ 1 103.0542 -0.12
  107.0701 C4H11O3+ 1 107.0703 -1.18
  107.0855 C8H11+ 1 107.0855 -0.3
  121.0647 C8H9O+ 1 121.0648 -0.46
  131.0491 C9H7O+ 1 131.0491 -0.64
PK$NUM_PEAK: 6
PK$PEAK: m/z int. rel.int.
  89.0596 1506.7 18
  103.0542 576.7 7
  107.0701 629.4 7
  107.0855 230.7 2
  121.0647 1002.9 12
  131.0491 82103.7 999
//
