ACCESSION: MSBNK-KWR-KW107502
RECORD_TITLE: Valsartan; LC-ESI-ITFT; MS2; CE: 35 eV; R=7500; [M+H]+
DATE: 2017.03.12
AUTHORS: Erik Emke, Andrea Brunner, KWR
LICENSE: CC BY
COPYRIGHT: Copyright (C) 2017 KWR watercycle research institute
COMMENT: CONFIDENCE Reference Standard (Level 1)
COMMENT: INTERNAL_ID 1075
CH$NAME: Valsartan
CH$COMPOUND_CLASS: N/A; Environmental Standard
CH$FORMULA: C24H29N5O3
CH$EXACT_MASS: 435.2270
CH$SMILES: CCCCC(=O)N(Cc1ccc(cc1)c2ccccc2c3[nH]nnn3)[C@@H](C(C)C)C(O)=O
CH$IUPAC: InChI=1S/C24H29N5O3/c1-4-5-10-21(30)29(22(16(2)3)24(31)32)15-17-11-13-18(14-12-17)19-8-6-7-9-20(19)23-25-27-28-26-23/h6-9,11-14,16,22H,4-5,10,15H2,1-3H3,(H,31,32)(H,25,26,27,28)/t22-/m0/s1
CH$LINK: CAS 137862-53-4
CH$LINK: CHEBI CHEBI:9927
CH$LINK: KEGG D00400
CH$LINK: PUBCHEM CID:60846
CH$LINK: INCHIKEY ACWBQPMHZXGDFX-QFIPXVFZSA-N
CH$LINK: CHEMSPIDER 54833
AC$INSTRUMENT: Orbitrap Classic, Thermo Scientific
AC$INSTRUMENT_TYPE: LC-ESI-ITFT
AC$MASS_SPECTROMETRY: MS_TYPE MS2
AC$MASS_SPECTROMETRY: ION_MODE POSITIVE
AC$MASS_SPECTROMETRY: IONIZATION ESI
AC$MASS_SPECTROMETRY: FRAGMENTATION_MODE CID
AC$MASS_SPECTROMETRY: COLLISION_ENERGY 35 eV FT-MS
AC$MASS_SPECTROMETRY: RESOLUTION 7500
AC$CHROMATOGRAPHY: COLUMN_NAME XBridge C18 3.5um, 2.1x150mm, Waters
AC$CHROMATOGRAPHY: FLOW_GRADIENT 95/5 at 0 min, 0/100 at 40 min, 0/100 at 45 min, 95/5 at 47 min, 95/5 at 52 min
AC$CHROMATOGRAPHY: FLOW_RATE 300 uL/min
AC$CHROMATOGRAPHY: RETENTION_TIME 20.120 min
AC$CHROMATOGRAPHY: SOLVENT A water with 0.05% formic acid
AC$CHROMATOGRAPHY: SOLVENT B acetonitrile with 0.05% formic acid
MS$FOCUSED_ION: BASE_PEAK 436.2342
MS$FOCUSED_ION: PRECURSOR_M/Z 436.2343
MS$FOCUSED_ION: PRECURSOR_TYPE [M+H]+
MS$DATA_PROCESSING: RECALIBRATE identity
MS$DATA_PROCESSING: REANALYZE Peaks with additional N2/O included
MS$DATA_PROCESSING: WHOLE RMassBank 2.2.0
PK$SPLASH: splash10-066r-0012900000-8d8ed5cb8ffd5e304c76
PK$ANNOTATION: m/z tentative_formula formula_count mass error(ppm)
  180.0799 C13H10N+ 1 180.0808 -4.98
  190.0649 C14H8N+ 1 190.0651 -1.05
  191.0779 C5H11N4O4+ 1 191.0775 2.41
  206.0834 C14H10N2+ 1 206.0838 -2.23
  207.0914 C14H11N2+ 1 207.0917 -1.55
  210.1732 C12H22N2O+ 1 210.1727 2.56
  235.0977 C14H11N4+ 1 235.0978 -0.64
  291.1491 C19H19N2O+ 2 291.1492 -0.17
  306.1713 C18H20N5+ 2 306.1713 -0.19
  352.1767 C19H22N5O2+ 2 352.1768 -0.3
  353.1769 C23H21N4+ 1 353.1761 2.28
  362.2224 C23H28N3O+ 1 362.2227 -0.68
  408.2281 C24H30N3O3+ 1 408.2282 -0.2
  418.2233 C24H28N5O2+ 1 418.2238 -1.01
  419.1707 C21H21N7O3+ 2 419.17 1.54
  419.2304 C24H29N5O2+ 1 419.2316 -2.79
PK$NUM_PEAK: 16
PK$PEAK: m/z int. rel.int.
  180.0799 77552.4 6
  190.0649 99266.9 7
  191.0779 15330.3 1
  206.0834 46956.1 3
  207.0914 378202.2 30
  210.1732 21039.7 1
  235.0977 2012976.5 161
  291.1491 494123.4 39
  306.1713 2791901.5 224
  352.1767 612987.2 49
  353.1769 21597.5 1
  362.2224 2295525.2 184
  408.2281 5399874.5 434
  418.2233 12426005 999
  419.1707 26220.5 2
  419.2304 219793.3 17
//
