ACCESSION: MSBNK-KWR-KW106204
RECORD_TITLE: 1,3-diethyldiphenylurea; LC-ESI-ITFT; MS2; CE: 65 eV; R=30000; [M+H]+
DATE: 2017.03.12
AUTHORS: Erik Emke, Andrea Brunner, KWR
LICENSE: CC BY
COPYRIGHT: Copyright (C) 2017 KWR watercycle research institute
COMMENT: CONFIDENCE Reference Standard (Level 1)
COMMENT: INTERNAL_ID 1062
CH$NAME: 1,3-diethyldiphenylurea
CH$COMPOUND_CLASS: N/A; Environmental Standard
CH$FORMULA: C17H20N2O
CH$EXACT_MASS: 268.1576
CH$SMILES: CCN(C(=O)N(CC)c1ccccc1)c2ccccc2
CH$IUPAC: InChI=1S/C17H20N2O/c1-3-18(15-11-7-5-8-12-15)17(20)19(4-2)16-13-9-6-10-14-16/h5-14H,3-4H2,1-2H3
CH$LINK: CAS 85-98-3
CH$LINK: PUBCHEM CID:6828
CH$LINK: INCHIKEY PZIMIYVOZBTARW-UHFFFAOYSA-N
CH$LINK: CHEMSPIDER 6567
CH$LINK: COMPTOX DTXSID8025040
AC$INSTRUMENT: Orbitrap Classic, Thermo Scientific
AC$INSTRUMENT_TYPE: LC-ESI-ITFT
AC$MASS_SPECTROMETRY: MS_TYPE MS2
AC$MASS_SPECTROMETRY: ION_MODE POSITIVE
AC$MASS_SPECTROMETRY: IONIZATION ESI
AC$MASS_SPECTROMETRY: FRAGMENTATION_MODE CID
AC$MASS_SPECTROMETRY: COLLISION_ENERGY 65 eV FT-MS
AC$MASS_SPECTROMETRY: RESOLUTION 30000
AC$CHROMATOGRAPHY: COLUMN_NAME XBridge C18 3.5um, 2.1x150mm, Waters
AC$CHROMATOGRAPHY: FLOW_GRADIENT 95/5 at 0 min, 0/100 at 40 min, 0/100 at 45 min, 95/5 at 47 min, 95/5 at 52 min
AC$CHROMATOGRAPHY: FLOW_RATE 300 uL/min
AC$CHROMATOGRAPHY: RETENTION_TIME 23.996 min
AC$CHROMATOGRAPHY: SOLVENT A water with 0.05% formic acid
AC$CHROMATOGRAPHY: SOLVENT B acetonitrile with 0.05% formic acid
MS$FOCUSED_ION: BASE_PEAK 269.1648
MS$FOCUSED_ION: PRECURSOR_M/Z 269.1648
MS$FOCUSED_ION: PRECURSOR_TYPE [M+H]+
MS$DATA_PROCESSING: RECALIBRATE identity
MS$DATA_PROCESSING: REANALYZE Peaks with additional N2/O included
MS$DATA_PROCESSING: WHOLE RMassBank 2.2.0
PK$SPLASH: splash10-0002-0900000000-bded6d7ff47b9d788eff
PK$ANNOTATION: m/z tentative_formula formula_count mass error(ppm)
  77.0386 C6H5+ 1 77.0386 0.17
  92.0495 C6H6N+ 1 92.0495 0.01
  120.0443 C7H6NO+ 1 120.0444 -0.46
  148.0757 C9H10NO+ 1 148.0757 -0.05
  189.1718 C8H21N4O+ 1 189.171 4.53
  205.1084 C10H13N4O+ 1 205.1084 0.13
PK$NUM_PEAK: 6
PK$PEAK: m/z int. rel.int.
  77.0386 78709.8 2
  92.0495 522264.8 17
  120.0443 15046067 494
  148.0757 30393386 999
  189.1718 34243.2 1
  205.1084 32392 1
//
