ACCESSION: MSBNK-KWR-KW106802
RECORD_TITLE: 4,4?-Dichlorobenzophenone; LC-ESI-ITFT; MS2; CE: 35 eV; R=7500; [M+H]+
DATE: 2017.03.12
AUTHORS: Erik Emke, Andrea Brunner, KWR
LICENSE: CC BY
COPYRIGHT: Copyright (C) 2017 KWR watercycle research institute
COMMENT: CONFIDENCE Reference Standard (Level 1)
COMMENT: INTERNAL_ID 1068
CH$NAME: 4,4?-Dichlorobenzophenone
CH$COMPOUND_CLASS: N/A; Environmental Standard
CH$FORMULA: C13H8Cl2O
CH$EXACT_MASS: 249.9952
CH$SMILES: O=C(c(ccc(c1)Cl)c1)c(ccc(c2)Cl)c2
CH$IUPAC: InChI=1S/C13H8Cl2O/c14-11-5-1-9(2-6-11)13(16)10-3-7-12(15)8-4-10/h1-8H
CH$LINK: CAS 90-98-2
CH$LINK: KEGG C06643
CH$LINK: PUBCHEM CID:7034
CH$LINK: INCHIKEY OKISUZLXOYGIFP-UHFFFAOYSA-N
CH$LINK: CHEMSPIDER 6767
CH$LINK: COMPTOX DTXSID3037626
AC$INSTRUMENT: Orbitrap Classic, Thermo Scientific
AC$INSTRUMENT_TYPE: LC-ESI-ITFT
AC$MASS_SPECTROMETRY: MS_TYPE MS2
AC$MASS_SPECTROMETRY: ION_MODE POSITIVE
AC$MASS_SPECTROMETRY: IONIZATION ESI
AC$MASS_SPECTROMETRY: FRAGMENTATION_MODE CID
AC$MASS_SPECTROMETRY: COLLISION_ENERGY 35 eV FT-MS
AC$MASS_SPECTROMETRY: RESOLUTION 7500
AC$CHROMATOGRAPHY: COLUMN_NAME XBridge C18 3.5um, 2.1x150mm, Waters
AC$CHROMATOGRAPHY: FLOW_GRADIENT 95/5 at 0 min, 0/100 at 40 min, 0/100 at 45 min, 95/5 at 47 min, 95/5 at 52 min
AC$CHROMATOGRAPHY: FLOW_RATE 300 uL/min
AC$CHROMATOGRAPHY: RETENTION_TIME 28.332 min
AC$CHROMATOGRAPHY: SOLVENT A water with 0.05% formic acid
AC$CHROMATOGRAPHY: SOLVENT B acetonitrile with 0.05% formic acid
MS$FOCUSED_ION: BASE_PEAK 251.0026
MS$FOCUSED_ION: PRECURSOR_M/Z 251.0025
MS$FOCUSED_ION: PRECURSOR_TYPE [M+H]+
MS$DATA_PROCESSING: RECALIBRATE identity
MS$DATA_PROCESSING: REANALYZE Peaks with additional N2/O included
MS$DATA_PROCESSING: WHOLE RMassBank 2.2.0
PK$SPLASH: splash10-000i-0900000000-7ba7708d1e98be17cb3d
PK$ANNOTATION: m/z tentative_formula formula_count mass error(ppm)
  89.0601 C4H9O2+ 1 89.0597 4.56
  110.9997 C6H4Cl+ 1 110.9996 0.88
  138.9946 C7H4ClO+ 1 138.9945 0.24
  251.0022 C13H9Cl2O+ 1 251.0025 -1.01
PK$NUM_PEAK: 4
PK$PEAK: m/z int. rel.int.
  89.0601 1433.5 1
  110.9997 3374.5 3
  138.9946 1064530 999
  251.0022 28488.4 26
//
