ACCESSION: MSBNK-KWR-KW105904
RECORD_TITLE: 7,8-dimethoxy-1,3-dihydro-2H-3-benzazepin-2-one; LC-ESI-ITFT; MS2; CE: 65 eV; R=30000; [M+H]+
DATE: 2017.03.12
AUTHORS: Erik Emke, Andrea Brunner, KWR
LICENSE: CC BY
COPYRIGHT: Copyright (C) 2017 KWR watercycle research institute
COMMENT: CONFIDENCE Reference Standard (Level 1)
COMMENT: INTERNAL_ID 1059
CH$NAME: 7,8-dimethoxy-1,3-dihydro-2H-3-benzazepin-2-one
CH$COMPOUND_CLASS: N/A; Environmental Standard
CH$FORMULA: C12H13NO3
CH$EXACT_MASS: 219.0895
CH$SMILES: COc1cc2CC(=O)NC=Cc2cc1OC
CH$IUPAC: InChI=1S/C12H13NO3/c1-15-10-5-8-3-4-13-12(14)7-9(8)6-11(10)16-2/h3-6H,7H2,1-2H3,(H,13,14)
CH$LINK: CAS 73942-87-7
CH$LINK: PUBCHEM CID:1482373
CH$LINK: INCHIKEY CPNZASIAJKSBBH-UHFFFAOYSA-N
CH$LINK: CHEMSPIDER 1223536
CH$LINK: COMPTOX DTXSID10363259
AC$INSTRUMENT: Orbitrap Classic, Thermo Scientific
AC$INSTRUMENT_TYPE: LC-ESI-ITFT
AC$MASS_SPECTROMETRY: MS_TYPE MS2
AC$MASS_SPECTROMETRY: ION_MODE POSITIVE
AC$MASS_SPECTROMETRY: IONIZATION ESI
AC$MASS_SPECTROMETRY: FRAGMENTATION_MODE CID
AC$MASS_SPECTROMETRY: COLLISION_ENERGY 65 eV FT-MS
AC$MASS_SPECTROMETRY: RESOLUTION 30000
AC$CHROMATOGRAPHY: COLUMN_NAME XBridge C18 3.5um, 2.1x150mm, Waters
AC$CHROMATOGRAPHY: FLOW_GRADIENT 95/5 at 0 min, 0/100 at 40 min, 0/100 at 45 min, 95/5 at 47 min, 95/5 at 52 min
AC$CHROMATOGRAPHY: FLOW_RATE 300 uL/min
AC$CHROMATOGRAPHY: RETENTION_TIME 10.496 min
AC$CHROMATOGRAPHY: SOLVENT A water with 0.05% formic acid
AC$CHROMATOGRAPHY: SOLVENT B acetonitrile with 0.05% formic acid
MS$FOCUSED_ION: BASE_PEAK 220.0965
MS$FOCUSED_ION: PRECURSOR_M/Z 220.0968
MS$FOCUSED_ION: PRECURSOR_TYPE [M+H]+
MS$DATA_PROCESSING: RECALIBRATE identity
MS$DATA_PROCESSING: REANALYZE Peaks with additional N2/O included
MS$DATA_PROCESSING: WHOLE RMassBank 2.2.0
PK$SPLASH: splash10-0006-0900000000-968f3dc62259e4140e9e
PK$ANNOTATION: m/z tentative_formula formula_count mass error(ppm)
  160.0757 C10H10NO+ 1 160.0757 -0.14
  161.058 C8H7N3O+ 1 161.0584 -2.26
  161.0834 C10H11NO+ 1 161.0835 -0.5
  188.07 C11H10NO2+ 1 188.0706 -3.18
  189.0784 C11H11NO2+ 1 189.0784 -0.16
  192.1017 C11H14NO2+ 1 192.1019 -1.31
  193.036 C9H7NO4+ 1 193.037 -4.83
  203.0699 C12H11O3+ 1 203.0703 -1.6
  205.0731 C11H11NO3+ 1 205.0733 -1.32
PK$NUM_PEAK: 9
PK$PEAK: m/z int. rel.int.
  160.0757 65185.8 2
  161.058 35610.7 1
  161.0834 698886.3 26
  188.07 66651.8 2
  189.0784 123120.4 4
  192.1017 26242520 999
  193.036 66687.7 2
  203.0699 359199.8 13
  205.0731 49725.6 1
//
