ACCESSION: MSBNK-KWR-KW109401
RECORD_TITLE: 2-(2-(2-ethoxyethoxy)ethoxy)ethanol; LC-ESI-ITFT; MS2; CE: 35 eV; R=nominal; [M+H]+
DATE: 2017.03.12
AUTHORS: Erik Emke, Andrea Brunner, KWR
LICENSE: CC BY
COPYRIGHT: Copyright (C) 2017 KWR watercycle research institute
COMMENT: CONFIDENCE Reference Standard (Level 1)
COMMENT: INTERNAL_ID 1094
CH$NAME: 2-(2-(2-ethoxyethoxy)ethoxy)ethanol
CH$COMPOUND_CLASS: N/A; Environmental Standard
CH$FORMULA: C8H18O4
CH$EXACT_MASS: 178.1205
CH$SMILES: COCCOCCOCCOC
CH$IUPAC: InChI=1S/C8H18O4/c1-9-3-5-11-7-8-12-6-4-10-2/h3-8H2,1-2H3
CH$LINK: CAS 112-49-2
CH$LINK: PUBCHEM CID:8189
CH$LINK: INCHIKEY YFNKIDBQEZZDLK-UHFFFAOYSA-N
CH$LINK: CHEMSPIDER 13835222
CH$LINK: COMPTOX DTXSID8026224
AC$INSTRUMENT: Orbitrap Classic, Thermo Scientific
AC$INSTRUMENT_TYPE: LC-ESI-ITFT
AC$MASS_SPECTROMETRY: MS_TYPE MS2
AC$MASS_SPECTROMETRY: ION_MODE POSITIVE
AC$MASS_SPECTROMETRY: IONIZATION ESI
AC$MASS_SPECTROMETRY: FRAGMENTATION_MODE CID
AC$MASS_SPECTROMETRY: COLLISION_ENERGY 35 eV IT-MS
AC$MASS_SPECTROMETRY: RESOLUTION nominal
AC$CHROMATOGRAPHY: COLUMN_NAME XBridge C18 3.5um, 2.1x150mm, Waters
AC$CHROMATOGRAPHY: FLOW_GRADIENT 95/5 at 0 min, 0/100 at 40 min, 0/100 at 45 min, 95/5 at 47 min, 95/5 at 52 min
AC$CHROMATOGRAPHY: FLOW_RATE 300 uL/min
AC$CHROMATOGRAPHY: RETENTION_TIME 5.464 min
AC$CHROMATOGRAPHY: SOLVENT A water with 0.05% formic acid
AC$CHROMATOGRAPHY: SOLVENT B acetonitrile with 0.05% formic acid
MS$FOCUSED_ION: BASE_PEAK 179.1275
MS$FOCUSED_ION: PRECURSOR_M/Z 179.1278
MS$FOCUSED_ION: PRECURSOR_TYPE [M+H]+
MS$DATA_PROCESSING: RECALIBRATE identity
MS$DATA_PROCESSING: REANALYZE Peaks with additional N2/O included
MS$DATA_PROCESSING: WHOLE RMassBank 2.2.0
PK$SPLASH: splash10-000i-9000000000-91c2ac4486956a5ff8c5
PK$ANNOTATION: m/z tentative_formula formula_count mass error(ppm)
  87.1042 C5H13N+ 1 87.1043 -1
  89.0957 C5H13O+ 1 89.0961 -4.02
PK$NUM_PEAK: 2
PK$PEAK: m/z int. rel.int.
  87.1042 1251 23
  89.0957 52195.7 999
//
