ACCESSION: MSBNK-KWR-KW106002
RECORD_TITLE: N-phenylbenzenesulphonamide; LC-ESI-ITFT; MS2; CE: 35 eV; R=7500; [M+H]+
DATE: 2017.03.12
AUTHORS: Erik Emke, Andrea Brunner, KWR
LICENSE: CC BY
COPYRIGHT: Copyright (C) 2017 KWR watercycle research institute
COMMENT: CONFIDENCE Reference Standard (Level 1)
COMMENT: INTERNAL_ID 1060
CH$NAME: N-phenylbenzenesulphonamide
CH$COMPOUND_CLASS: N/A; Environmental Standard
CH$FORMULA: C12H11NO2S
CH$EXACT_MASS: 233.0510
CH$SMILES: c1ccccc1S(=O)(=O)Nc2ccccc2
CH$IUPAC: InChI=1S/C12H11NO2S/c14-16(15,12-9-5-2-6-10-12)13-11-7-3-1-4-8-11/h1-10,13H
CH$LINK: CAS 1678-25-7
CH$LINK: PUBCHEM CID:74296
CH$LINK: INCHIKEY XAUGWFWQVYXATQ-UHFFFAOYSA-N
CH$LINK: CHEMSPIDER 66899
CH$LINK: COMPTOX DTXSID00168371
AC$INSTRUMENT: Orbitrap Classic, Thermo Scientific
AC$INSTRUMENT_TYPE: LC-ESI-ITFT
AC$MASS_SPECTROMETRY: MS_TYPE MS2
AC$MASS_SPECTROMETRY: ION_MODE POSITIVE
AC$MASS_SPECTROMETRY: IONIZATION ESI
AC$MASS_SPECTROMETRY: FRAGMENTATION_MODE CID
AC$MASS_SPECTROMETRY: COLLISION_ENERGY 35 eV FT-MS
AC$MASS_SPECTROMETRY: RESOLUTION 7500
AC$CHROMATOGRAPHY: COLUMN_NAME XBridge C18 3.5um, 2.1x150mm, Waters
AC$CHROMATOGRAPHY: FLOW_GRADIENT 95/5 at 0 min, 0/100 at 40 min, 0/100 at 45 min, 95/5 at 47 min, 95/5 at 52 min
AC$CHROMATOGRAPHY: FLOW_RATE 300 uL/min
AC$CHROMATOGRAPHY: RETENTION_TIME 18.830 min
AC$CHROMATOGRAPHY: SOLVENT A water with 0.05% formic acid
AC$CHROMATOGRAPHY: SOLVENT B acetonitrile with 0.05% formic acid
MS$FOCUSED_ION: BASE_PEAK 234.058
MS$FOCUSED_ION: PRECURSOR_M/Z 234.0583
MS$FOCUSED_ION: PRECURSOR_TYPE [M+H]+
MS$DATA_PROCESSING: RECALIBRATE identity
MS$DATA_PROCESSING: REANALYZE Peaks with additional N2/O included
MS$DATA_PROCESSING: WHOLE RMassBank 2.2.0
PK$SPLASH: splash10-0006-9400000000-b59493c2919c8d849fc1
PK$ANNOTATION: m/z tentative_formula formula_count mass error(ppm)
  92.0495 C6H6N+ 1 92.0495 0.67
  93.0572 C6H7N+ 1 93.0573 -1.27
  108.0443 C6H6NO+ 1 108.0444 -1.08
  109.0521 C6H7NO+ 1 109.0522 -1.47
  117.9746 C6NS+ 1 117.9746 -0.34
  156.0112 C6H6NO2S+ 1 156.0114 -0.93
  169.0838 C7H11N3O2+ 1 169.0846 -4.41
  170.0918 C7H12N3O2+ 1 170.0924 -3.65
  234.058 C12H12NO2S+ 1 234.0583 -1.59
PK$NUM_PEAK: 9
PK$PEAK: m/z int. rel.int.
  92.0495 1647.6 6
  93.0572 237521.2 999
  108.0443 42156.1 177
  109.0521 49363.5 207
  117.9746 723.5 3
  156.0112 4001.5 16
  169.0838 9014.5 37
  170.0918 2760.9 11
  234.058 19786.9 83
//
