ACCESSION: MSBNK-BAFG-CSL2501064579
RECORD_TITLE: 4-Hydroxy-1H-benzotriazole; LC-ESI-QTOF; MS2; 40 V
DATE: 2025.01.06
AUTHORS: Ole Lessmann; Kevin S. Jewell; Björn Ehlig; Arne Wick
LICENSE: dl-de/by-2-0
COPYRIGHT: Copyright 2025 Federal Institute of Hydrology, Koblenz, Germany
COMMENT: CONFIDENCE Reference Standard (Level 1)
COMMENT: Chromatography method: dx.doi.org/10.1016/j.chroma.2015.11.014
COMMENT: Acquisition method: 10.1002/rcm.8541
CH$NAME: 4-Hydroxy-1H-benzotriazole
CH$COMPOUND_CLASS: Industrial_process; Transformation_product; Transformation_product-Metabolite
CH$FORMULA: C6H5N3O
CH$EXACT_MASS: 135.0433
CH$SMILES: c1cc2c(c(c1)O)[nH]nn2
CH$IUPAC: InChI=1S/C6H5N3O/c10-5-3-1-2-4-6(5)8-9-7-4/h1-3,10H,(H,7,8,9)
CH$LINK: CAS 26725-51-9
CH$LINK: INCHIKEY JMTMSDXUXJISAY-UHFFFAOYSA-N
AC$INSTRUMENT: TripleTOF 5600 SCIEX
AC$INSTRUMENT_TYPE: LC-ESI-QTOF
AC$MASS_SPECTROMETRY: MS_TYPE MS2
AC$MASS_SPECTROMETRY: ION_MODE POSITIVE
AC$MASS_SPECTROMETRY: COLLISION_ENERGY 40
AC$MASS_SPECTROMETRY: FRAGMENTATION_MODE CID
AC$MASS_SPECTROMETRY: IONIZATION ESI
AC$CHROMATOGRAPHY: COLUMN_NAME Zorbax Eclipse Plus C18 2.1 mm x 150 mm, 3.5 um, Agilent
AC$CHROMATOGRAPHY: COLUMN_TEMPERATURE 40 °C
AC$CHROMATOGRAPHY: FLOW_GRADIENT 0 min min 98% A, 1 min 98% A, 2 min 80% A, 16.5 min 2% A, 22 min 2% A, 22.1 min 98% A, 27 min 98% A
AC$CHROMATOGRAPHY: FLOW_RATE 0.3 mL/min
AC$CHROMATOGRAPHY: RETENTION_TIME 5.337 min
AC$CHROMATOGRAPHY: SOLVENT A: Water 0.1% Formic acid, B: Acetonitrile 0.1% Formic acid
MS$FOCUSED_ION: PRECURSOR_M/Z 136.0505
MS$FOCUSED_ION: PRECURSOR_TYPE [M+H]+
MS$DATA_PROCESSING: COMMENT Export with pycsl 0.1.0.dev1 and CSL 24.4
PK$SPLASH: splash10-0f89-9000000000-fb60c8118f5536318cf5
PK$NUM_PEAK: 12
PK$PEAK: m/z int. rel.int.
  51.0279 1.0 52
  52.0357 0.5 26
  53.0439 15.3 808
  54.0384 1.8 95
  68.016 0.7 37
  78.0353 1.2 63
  79.0444 0.5 26
  80.0514 18.9 999
  81.0351 4.0 211
  90.0347 1.1 58
  109.0125 0.5 26
  136.0498 2.6 137
//