ACCESSION: MSBNK-BAFG-CSL2311094380
RECORD_TITLE: 5,6-Dimethyl-1H-benzotriazol; LC-ESI-QTOF; MS2; 130 V
DATE: 2023.11.09
AUTHORS: Kevin S. Jewell; Björn Ehlig; Arne Wick
LICENSE: dl-de/by-2-0
COPYRIGHT: Copyright 2023 Federal Institute of Hydrology, Koblenz, Germany
COMMENT: CONFIDENCE Reference Standard (Level 1)
COMMENT: Chromatography method: dx.doi.org/10.1016/j.chroma.2015.11.014
COMMENT: Acquisition method: 10.1002/rcm.8541
CH$NAME: 5,6-Dimethyl-1H-benzotriazol
CH$COMPOUND_CLASS: Industrial_process; Antimicrobial
CH$FORMULA: C8H9N3
CH$EXACT_MASS: 147.0796
CH$SMILES: Cc1cc2n[nH]nc2cc1C
CH$IUPAC: InChI=1S/C8H9N3/c1-5-3-7-8(4-6(5)2)10-11-9-7/h3-4H,1-2H3,(H,9,10,11)
CH$LINK: CAS 4184-79-6
CH$LINK: INCHIKEY MVPKIPGHRNIOPT-UHFFFAOYSA-N
AC$INSTRUMENT: TripleTOF 5600 SCIEX
AC$INSTRUMENT_TYPE: LC-ESI-QTOF
AC$MASS_SPECTROMETRY: MS_TYPE MS2
AC$MASS_SPECTROMETRY: ION_MODE POSITIVE
AC$MASS_SPECTROMETRY: COLLISION_ENERGY 130
AC$MASS_SPECTROMETRY: FRAGMENTATION_MODE CID
AC$MASS_SPECTROMETRY: IONIZATION ESI
AC$CHROMATOGRAPHY: COLUMN_NAME Zorbax Eclipse Plus C18 2.1 mm x 150 mm, 3.5 um, Agilent
AC$CHROMATOGRAPHY: COLUMN_TEMPERATURE 40 °C
AC$CHROMATOGRAPHY: FLOW_GRADIENT 0 min min 98% A, 1 min 98% A, 2 min 80% A, 16.5 min 2% A, 22 min 2% A, 22.1 min 98% A, 27 min 98% A
AC$CHROMATOGRAPHY: FLOW_RATE 0.3 mL/min
AC$CHROMATOGRAPHY: RETENTION_TIME 8.012 min
AC$CHROMATOGRAPHY: SOLVENT A: Water 0.1% Formic acid, B: Acetonitrile 0.1% Formic acid
MS$FOCUSED_ION: PRECURSOR_M/Z 148.0869
MS$FOCUSED_ION: PRECURSOR_TYPE [M+H]+
MS$DATA_PROCESSING: COMMENT Export with Spectra 1.9.12 MsBackendMassbank 1.7.4
MS$DATA_PROCESSING: WHOLE RMassBank 2.3.1
PK$SPLASH: splash10-0uk9-9000000000-c16caf76969ee2777cd8
PK$NUM_PEAK: 8
PK$PEAK: m/z int. rel.int.
  38.0115 0.6 108
  51.0183 0.8 145
  51.0284 5.5 999
  52.0233 3.4 617
  60.0037 2.9 526
  73.0085 2 363
  74.0173 3.5 635
  75.0126 1 181
//
