ACCESSION: MSBNK-BAFG-CSL25011734669
RECORD_TITLE: Brilliant Green Cation; LC-ESI-QTOF; MS2; 90 V
DATE: 2025.01.17
AUTHORS: Ole Lessmann; Kevin S. Jewell; Björn Ehlig; Arne Wick
LICENSE: dl-de/by-2-0
COPYRIGHT: Copyright 2025 Federal Institute of Hydrology, Koblenz, Germany
COMMENT: CONFIDENCE Reference Standard (Level 1)
COMMENT: Chromatography method: dx.doi.org/10.1016/j.chroma.2015.11.014
CH$NAME: Brilliant Green Cation
CH$FORMULA: [C27H33N2]+
CH$EXACT_MASS: 385.2638
CH$SMILES: CCN(CC)C1=CC=C(C=C1)C(=C2C=CC(=[N+](CC)CC)C=C2)C3=CC=CC=C3
CH$IUPAC: InChI=1S/C27H33N2/c1-5-28(6-2)25-18-14-23(15-19-25)27(22-12-10-9-11-13-22)24-16-20-26(21-17-24)29(7-3)8-4/h9-21H,5-8H2,1-4H3/q+1
CH$LINK: CAS 18198-35-1
CH$LINK: INCHIKEY HXCILVUBKWANLN-UHFFFAOYSA-N
AC$INSTRUMENT: TripleTOF 6600 SCIEX
AC$INSTRUMENT_TYPE: LC-ESI-QTOF
AC$MASS_SPECTROMETRY: MS_TYPE MS2
AC$MASS_SPECTROMETRY: ION_MODE POSITIVE
AC$MASS_SPECTROMETRY: COLLISION_ENERGY 90
AC$MASS_SPECTROMETRY: FRAGMENTATION_MODE CID
AC$MASS_SPECTROMETRY: IONIZATION ESI
AC$CHROMATOGRAPHY: COLUMN_NAME Zorbax Eclipse Plus C18 2.1 mm x 150 mm, 3.5 um, Agilent
AC$CHROMATOGRAPHY: COLUMN_TEMPERATURE 40 °C
AC$CHROMATOGRAPHY: FLOW_GRADIENT 0 min min 98% A, 1 min 98% A, 2 min 80% A, 16.5 min 2% A, 22 min 2% A, 22.1 min 98% A, 27 min 98% A
AC$CHROMATOGRAPHY: FLOW_RATE 0.3 mL/min
AC$CHROMATOGRAPHY: RETENTION_TIME 12.461 min
AC$CHROMATOGRAPHY: SOLVENT A: Water 0.1% Formic acid, B: Acetonitrile 0.1% Formic acid
MS$FOCUSED_ION: PRECURSOR_M/Z 385.2638
MS$FOCUSED_ION: PRECURSOR_TYPE [M]+
MS$DATA_PROCESSING: COMMENT Export with pycsl 0.1.0.dev1 and CSL 25.0
PK$SPLASH: splash10-00kf-0390000000-39b63c64ff266f7f102a
PK$NUM_PEAK: 21
PK$PEAK: m/z int. rel.int.
  152.0588 21.0 50
  164.0599 28.2 67
  165.0682 156.1 373
  190.0637 28.8 68
  191.0717 36.3 86
  192.0798 189.5 452
  215.0843 46.3 110
  219.0908 37.9 90
  226.076 46.3 110
  228.0919 24.5 58
  239.0846 159.2 380
  240.0914 89.6 214
  241.1005 418.0 999
  253.0985 22.1 52
  254.0981 42.9 102
  255.114 32.2 76
  267.1019 26.8 64
  268.1115 123.5 295
  269.1187 68.3 163
  283.1349 54.8 130
  297.1371 86.6 206
//
