ACCESSION: MSBNK-BAFG-CSL25011734586
RECORD_TITLE: Food Yellow 3 free acid; LC-ESI-QTOF; MS2; 60 V
DATE: 2025.01.17
AUTHORS: Ole Lessmann; Kevin S. Jewell; Björn Ehlig; Arne Wick
LICENSE: dl-de/by-2-0
COPYRIGHT: Copyright 2025 Federal Institute of Hydrology, Koblenz, Germany
COMMENT: CONFIDENCE Reference Standard (Level 1)
COMMENT: Chromatography method: dx.doi.org/10.1016/j.chroma.2015.11.014
CH$NAME: Food Yellow 3 free acid
CH$FORMULA: C16H12N2O7S2
CH$EXACT_MASS: 408.0086
CH$SMILES: C1=CC(=CC=C1N=NC2=C(C=CC3=C2C=CC(=C3)S(=O)(=O)O)O)S(=O)(=O)O
CH$IUPAC: InChI=1S/C16H12N2O7S2/c19-15-8-1-10-9-13(27(23,24)25)6-7-14(10)16(15)18-17-11-2-4-12(5-3-11)26(20,21)22/h1-9,19H,(H,20,21,22)(H,23,24,25)
CH$LINK: CAS 5859-11-0
CH$LINK: INCHIKEY KEYWXKLGZZGHMT-UHFFFAOYSA-N
AC$INSTRUMENT: TripleTOF 6600 SCIEX
AC$INSTRUMENT_TYPE: LC-ESI-QTOF
AC$MASS_SPECTROMETRY: MS_TYPE MS2
AC$MASS_SPECTROMETRY: ION_MODE POSITIVE
AC$MASS_SPECTROMETRY: COLLISION_ENERGY 60
AC$MASS_SPECTROMETRY: FRAGMENTATION_MODE CID
AC$MASS_SPECTROMETRY: IONIZATION ESI
AC$CHROMATOGRAPHY: COLUMN_NAME Zorbax Eclipse Plus C18 2.1 mm x 150 mm, 3.5 um, Agilent
AC$CHROMATOGRAPHY: COLUMN_TEMPERATURE 40 °C
AC$CHROMATOGRAPHY: FLOW_GRADIENT 0 min min 98% A, 1 min 98% A, 2 min 80% A, 16.5 min 2% A, 22 min 2% A, 22.1 min 98% A, 27 min 98% A
AC$CHROMATOGRAPHY: FLOW_RATE 0.3 mL/min
AC$CHROMATOGRAPHY: RETENTION_TIME 5.59 min
AC$CHROMATOGRAPHY: SOLVENT A: Water 0.1% Formic acid, B: Acetonitrile 0.1% Formic acid
MS$FOCUSED_ION: PRECURSOR_M/Z 409.0159
MS$FOCUSED_ION: PRECURSOR_TYPE [M+H]+
MS$DATA_PROCESSING: COMMENT Export with pycsl 0.1.0.dev1 and CSL 25.0
PK$SPLASH: splash10-0a4i-2931000000-46f544557b76b6de2045
PK$NUM_PEAK: 38
PK$PEAK: m/z int. rel.int.
  65.038 5.8 14
  77.0385 5.8 14
  80.0492 108.1 276
  81.0326 10.3 26
  89.0384 108.0 275
  92.0493 26.0 66
  99.0228 5.5 14
  100.0304 5.9 15
  101.0374 12.1 30
  108.0443 391.0 999
  109.0516 35.4 90
  115.041 7.3 18
  116.0493 85.3 217
  117.0324 8.4 21
  126.0334 85.4 218
  127.0415 170.0 434
  128.0488 40.1 102
  133.0287 7.0 17
  144.0434 45.4 115
  154.0317 71.1 181
  156.0106 22.3 56
  173.014 200.8 513
  208.0065 297.9 761
  210.0207 10.0 25
  217.0752 8.9 22
  218.0819 20.9 53
  219.0921 10.0 25
  229.0749 16.1 41
  230.084 40.5 103
  231.0913 5.7 14
  246.0778 15.2 38
  247.0864 15.5 39
  299.046 16.5 42
  310.0401 28.2 72
  311.0486 49.7 126
  327.0441 21.0 53
  391.0038 34.5 88
  392.017 5.3 13
//
