ACCESSION: MSBNK-BAFG-CSL23111010554
RECORD_TITLE: Hostavin VSU P; LC-ESI-QTOF; MS2; 60 V
DATE: 2023.11.10
AUTHORS: Kevin S. Jewell; Björn Ehlig; Arne Wick
LICENSE: dl-de/by-2-0
COPYRIGHT: Copyright 2023 Federal Institute of Hydrology, Koblenz, Germany
COMMENT: CONFIDENCE Reference Standard (Level 1)
COMMENT: Chromatography method: dx.doi.org/10.1016/j.chroma.2015.11.014
COMMENT: Acquisition method: 10.1002/rcm.8541
CH$NAME: Hostavin VSU P
CH$FORMULA: C18H20N2O3
CH$EXACT_MASS: 312.1474
CH$SMILES: CCC1=CC=CC=C1NC(=O)C(=O)NC2=CC=CC=C2OCC
CH$IUPAC: InChI=1S/C18H20N2O3/c1-3-13-9-5-6-10-14(13)19-17(21)18(22)20-15-11-7-8-12-16(15)23-4-2/h5-12H,3-4H2,1-2H3,(H,19,21)(H,20,22)
CH$LINK: CAS 23949-66-8
CH$LINK: INCHIKEY YIMHRDBSVCPJOV-UHFFFAOYSA-N
AC$INSTRUMENT: TripleTOF 5600 SCIEX
AC$INSTRUMENT_TYPE: LC-ESI-QTOF
AC$MASS_SPECTROMETRY: MS_TYPE MS2
AC$MASS_SPECTROMETRY: ION_MODE POSITIVE
AC$MASS_SPECTROMETRY: COLLISION_ENERGY 60
AC$MASS_SPECTROMETRY: FRAGMENTATION_MODE CID
AC$MASS_SPECTROMETRY: IONIZATION ESI
AC$CHROMATOGRAPHY: COLUMN_NAME Zorbax Eclipse Plus C18 2.1 mm x 150 mm, 3.5 um, Agilent
AC$CHROMATOGRAPHY: COLUMN_TEMPERATURE 40 °C
AC$CHROMATOGRAPHY: FLOW_GRADIENT 0 min min 98% A, 1 min 98% A, 2 min 80% A, 16.5 min 2% A, 22 min 2% A, 22.1 min 98% A, 27 min 98% A
AC$CHROMATOGRAPHY: FLOW_RATE 0.3 mL/min
AC$CHROMATOGRAPHY: RETENTION_TIME 15.402 min
AC$CHROMATOGRAPHY: SOLVENT A: Water 0.1% Formic acid, B: Acetonitrile 0.1% Formic acid
MS$FOCUSED_ION: PRECURSOR_M/Z 313.1547
MS$FOCUSED_ION: PRECURSOR_TYPE [M+H]+
MS$DATA_PROCESSING: COMMENT Export with Spectra 1.9.12 MsBackendMassbank 1.7.4
MS$DATA_PROCESSING: WHOLE RMassBank 2.3.1
PK$SPLASH: splash10-0549-3900000000-edbc322367859ebf20e5
PK$NUM_PEAK: 24
PK$PEAK: m/z int. rel.int.
  65.0389 2.4 204
  77.0384 2.8 239
  79.0534 1.1 93
  80.0498 4.6 392
  91.0539 1.8 153
  92.048 2.1 179
  93.0334 1.9 162
  93.0565 1 85
  94.066 1.2 102
  103.0546 3.3 281
  105.0696 1.2 102
  106.0638 1 85
  108.0445 3.2 273
  109.0522 4.6 392
  110.0599 2.6 222
  117.0568 0.6 51
  118.0631 1.5 128
  119.0739 0.5 42
  120.0445 0.8 68
  120.0807 3.6 307
  122.0955 1.7 145
  130.0653 7.1 606
  136.0389 11.7 999
  148.0756 0.6 51
//
