ACCESSION: MSBNK-BAFG-CSL25010634485
RECORD_TITLE: Disperse brown 1; LC-ESI-QTOF; MS2; 140 V
DATE: 2025.01.06
AUTHORS: Ole Lessmann; Kevin S. Jewell; Björn Ehlig; Arne Wick
LICENSE: dl-de/by-2-0
COPYRIGHT: Copyright 2025 Federal Institute of Hydrology, Koblenz, Germany
COMMENT: CONFIDENCE Reference Standard (Level 1)
COMMENT: Chromatography method: dx.doi.org/10.1016/j.chroma.2015.11.014
COMMENT: Acquisition method: 10.1002/rcm.8541
CH$NAME: Disperse brown 1
CH$FORMULA: C16H15Cl3N4O4
CH$EXACT_MASS: 432.0159
CH$SMILES: C1=CC(=C(C=C1N(CCO)CCO)Cl)N=NC2=C(C=C(C=C2Cl)[N+](=O)[O-])Cl
CH$IUPAC: InChI=1S/C16H15Cl3N4O4/c17-12-7-10(22(3-5-24)4-6-25)1-2-15(12)20-21-16-13(18)8-11(23(26)27)9-14(16)19/h1-2,7-9,24-25H,3-6H2
CH$LINK: CAS 23355-64-8
CH$LINK: INCHIKEY HXXLWTPFYWMBSC-UHFFFAOYSA-N
AC$INSTRUMENT: TripleTOF 6600 SCIEX
AC$INSTRUMENT_TYPE: LC-ESI-QTOF
AC$MASS_SPECTROMETRY: MS_TYPE MS2
AC$MASS_SPECTROMETRY: ION_MODE POSITIVE
AC$MASS_SPECTROMETRY: COLLISION_ENERGY 140
AC$MASS_SPECTROMETRY: FRAGMENTATION_MODE CID
AC$MASS_SPECTROMETRY: IONIZATION ESI
AC$CHROMATOGRAPHY: COLUMN_NAME Zorbax Eclipse Plus C18 2.1 mm x 150 mm, 3.5 um, Agilent
AC$CHROMATOGRAPHY: COLUMN_TEMPERATURE 40 °C
AC$CHROMATOGRAPHY: FLOW_GRADIENT 0 min min 98% A, 1 min 98% A, 2 min 80% A, 16.5 min 2% A, 22 min 2% A, 22.1 min 98% A, 27 min 98% A
AC$CHROMATOGRAPHY: FLOW_RATE 0.3 mL/min
AC$CHROMATOGRAPHY: RETENTION_TIME 12.39 min
AC$CHROMATOGRAPHY: SOLVENT A: Water 0.1% Formic acid, B: Acetonitrile 0.1% Formic acid
MS$FOCUSED_ION: PRECURSOR_M/Z 433.0232
MS$FOCUSED_ION: PRECURSOR_TYPE [M+H]+
MS$DATA_PROCESSING: COMMENT Export with pycsl 0.1.0.dev1 and CSL 24.4
PK$SPLASH: splash10-05i0-9300000000-d111b063fc012d39c5da
PK$NUM_PEAK: 26
PK$PEAK: m/z int. rel.int.
  51.0237 0.9 157
  62.0154 0.5 87
  63.023 1.1 192
  65.0379 0.6 105
  72.984 0.9 157
  73.0081 0.5 87
  74.0148 5.7 999
  75.0106 0.6 105
  75.022 2.6 455
  76.0184 1.6 280
  77.0382 1.2 210
  78.0346 0.6 105
  83.9764 1.0 175
  89.0398 1.2 210
  90.034 1.2 210
  91.0432 0.7 122
  92.0478 0.5 87
  98.9985 0.6 105
  102.0345 0.4 70
  104.0493 1.0 175
  107.9764 2.5 438
  108.9819 2.8 490
  111.0005 0.4 70
  117.0571 0.9 157
  149.0365 0.6 105
  150.0448 0.7 122
//