ACCESSION: MSBNK-BAFG-CSL25010634068
RECORD_TITLE: 4'-O-Demethyl pantoprazole sulfide; LC-ESI-QTOF; MS2; 130 V
DATE: 2025.01.06
AUTHORS: Ole Lessmann; Kevin S. Jewell; Björn Ehlig; Arne Wick
LICENSE: dl-de/by-2-0
COPYRIGHT: Copyright 2025 Federal Institute of Hydrology, Koblenz, Germany
COMMENT: CONFIDENCE Reference Standard (Level 1)
COMMENT: Chromatography method: dx.doi.org/10.1016/j.chroma.2015.11.014
COMMENT: Acquisition method: 10.1002/rcm.8541
CH$NAME: 4'-O-Demethyl pantoprazole sulfide
CH$COMPOUND_CLASS: Pharmaceutical; Transformation_product-Metabolite
CH$FORMULA: C15H13F2N3O3S
CH$EXACT_MASS: 353.0646
CH$SMILES: COC1=C(NC=CC1=O)CSC2=NC3=C(N2)C=C(C=C3)OC(F)F
CH$IUPAC: InChI=1S/C15H13F2N3O3S/c1-22-13-11(18-5-4-12(13)21)7-24-15-19-9-3-2-8(23-14(16)17)6-10(9)20-15/h2-6,14H,7H2,1H3,(H,18,21)(H,19,20)
CH$LINK: CAS 141854-21-9
CH$LINK: INCHIKEY ILLQTAPXYCRJRB-UHFFFAOYSA-N
AC$INSTRUMENT: TripleTOF 6600 SCIEX
AC$INSTRUMENT_TYPE: LC-ESI-QTOF
AC$MASS_SPECTROMETRY: MS_TYPE MS2
AC$MASS_SPECTROMETRY: ION_MODE NEGATIVE
AC$MASS_SPECTROMETRY: COLLISION_ENERGY 130
AC$MASS_SPECTROMETRY: FRAGMENTATION_MODE CID
AC$MASS_SPECTROMETRY: IONIZATION ESI
AC$CHROMATOGRAPHY: COLUMN_NAME Zorbax Eclipse Plus C18 2.1 mm x 150 mm, 3.5 um, Agilent
AC$CHROMATOGRAPHY: COLUMN_TEMPERATURE 40 °C
AC$CHROMATOGRAPHY: FLOW_GRADIENT 0 min min 98% A, 1 min 98% A, 2 min 80% A, 16.5 min 2% A, 22 min 2% A, 22.1 min 98% A, 27 min 98% A
AC$CHROMATOGRAPHY: FLOW_RATE 0.3 mL/min
AC$CHROMATOGRAPHY: RETENTION_TIME 7.57 min
AC$CHROMATOGRAPHY: SOLVENT A: Water 0.1% Formic acid, B: Acetonitrile 0.1% Formic acid
MS$FOCUSED_ION: PRECURSOR_M/Z 352.0573
MS$FOCUSED_ION: PRECURSOR_TYPE [M-H]-
MS$DATA_PROCESSING: COMMENT Export with pycsl 0.1.0.dev1 and CSL 24.4
PK$SPLASH: splash10-0a4i-9300000000-fed7d22d7077a9e6a8b6
PK$NUM_PEAK: 13
PK$PEAK: m/z int. rel.int.
  57.9747 124.2 999
  64.0177 3.7 29
  65.013 6.2 49
  65.997 8.6 69
  74.0022 2.9 23
  81.9745 1.4 11
  88.0177 6.4 51
  89.014 3.2 25
  113.0145 4.0 32
  115.0293 38.2 307
  118.984 2.4 19
  145.9931 7.9 63
  147.0022 9.1 73
//