ACCESSION: MSBNK-BAFG-CSL2310266138
RECORD_TITLE: Triphenylphosphine oxide; LC-ESI-QTOF; MS2; 140 V
DATE: 2023.10.26
AUTHORS: Kevin S. Jewell; Björn Ehlig; Arne Wick
LICENSE: dl-de/by-2-0
COPYRIGHT: Copyright 2023 Federal Institute of Hydrology, Koblenz, Germany
COMMENT: CONFIDENCE Reference Standard (Level 1)
COMMENT: Chromatography method: dx.doi.org/10.1016/j.chroma.2015.11.014
COMMENT: Acquisition method: 10.1002/rcm.8541
CH$NAME: Triphenylphosphine oxide
CH$COMPOUND_CLASS: Industrial_process
CH$FORMULA: C18H15OP
CH$EXACT_MASS: 278.0861
CH$SMILES: O=[P](c1ccccc1)(c2ccccc2)c3ccccc3
CH$IUPAC: InChI=1S/C18H15OP/c19-20(16-10-4-1-5-11-16,17-12-6-2-7-13-17)18-14-8-3-9-15-18/h1-15H
CH$LINK: CAS 791-28-6
CH$LINK: INCHIKEY FIQMHBFVRAXMOP-UHFFFAOYSA-N
AC$INSTRUMENT: TripleTOF 5600 SCIEX
AC$INSTRUMENT_TYPE: LC-ESI-QTOF
AC$MASS_SPECTROMETRY: MS_TYPE MS2
AC$MASS_SPECTROMETRY: ION_MODE POSITIVE
AC$MASS_SPECTROMETRY: COLLISION_ENERGY 140
AC$MASS_SPECTROMETRY: FRAGMENTATION_MODE CID
AC$MASS_SPECTROMETRY: IONIZATION ESI
AC$CHROMATOGRAPHY: COLUMN_NAME Zorbax Eclipse Plus C18 2.1 mm x 150 mm, 3.5 um, Agilent
AC$CHROMATOGRAPHY: COLUMN_TEMPERATURE 40 °C
AC$CHROMATOGRAPHY: FLOW_GRADIENT 0 min min 98% A, 1 min 98% A, 2 min 80% A, 16.5 min 2% A, 22 min 2% A, 22.1 min 98% A, 27 min 98% A
AC$CHROMATOGRAPHY: FLOW_RATE 0.3 mL/min
AC$CHROMATOGRAPHY: RETENTION_TIME 10.458 min
AC$CHROMATOGRAPHY: SOLVENT A: Water 0.1% Formic acid, B: Acetonitrile 0.1% Formic acid
MS$FOCUSED_ION: PRECURSOR_M/Z 279.0933
MS$FOCUSED_ION: PRECURSOR_TYPE [M+H]+
MS$DATA_PROCESSING: COMMENT Export with Spectra 1.9.12 MsBackendMassbank 1.7.4
MS$DATA_PROCESSING: WHOLE RMassBank 2.3.1
PK$SPLASH: splash10-0udi-9200000000-a10f6667fe5c64e269f1
PK$NUM_PEAK: 37
PK$PEAK: m/z int. rel.int.
  51.0305 35.4 999
  52.0367 0.5 14
  65.0448 0.8 22
  67.9844 3.8 107
  68.9918 3.2 90
  74.019 4.4 124
  75.0275 1.5 42
  76.0339 1.5 42
  77.0413 6.4 180
  78.0495 1 28
  79.9825 1.5 42
  80.9926 1.9 53
  86.0171 0.9 25
  87.0243 1.4 39
  89.0413 1.7 47
  91.983 1.1 31
  98.0178 1.2 33
  99.0238 0.6 16
  100.033 0.7 19
  101.0401 0.4 11
  102.0476 1.5 42
  103.9797 0.6 16
  107.0054 2.7 76
  113.0425 0.5 14
  115.0546 1.1 31
  125.0356 0.7 19
  126.0466 2.8 79
  127.0524 0.6 16
  131.0033 0.5 14
  139.0547 0.5 14
  150.0449 2.6 73
  151.0541 3 84
  152.0605 1.8 50
  157.0192 0.6 16
  168.0133 0.7 19
  179.0042 0.5 14
  181.0198 1 28
//
