ACCESSION: MSBNK-BAFG-CSL23102614641
RECORD_TITLE: 4-Bromoantipyrine; LC-ESI-QTOF; MS2; 90 V
DATE: 2023.10.26
AUTHORS: Kevin S. Jewell; Björn Ehlig; Arne Wick
LICENSE: dl-de/by-2-0
COPYRIGHT: Copyright 2023 Federal Institute of Hydrology, Koblenz, Germany
COMMENT: CONFIDENCE Reference Standard (Level 1)
COMMENT: Chromatography method: dx.doi.org/10.1016/j.chroma.2015.11.014
COMMENT: Acquisition method: 10.1002/rcm.8541
CH$NAME: 4-Bromoantipyrine
CH$COMPOUND_CLASS: Industrial_process
CH$FORMULA: C11H11BrN2O
CH$EXACT_MASS: 266.0055
CH$SMILES: CC1=C(C(=O)N(N1C)C2=CC=CC=C2)Br
CH$IUPAC: InChI=1S/C11H11BrN2O/c1-8-10(12)11(15)14(13(8)2)9-6-4-3-5-7-9/h3-7H,1-2H3
CH$LINK: CAS 5426-65-3
CH$LINK: INCHIKEY QYWWSDVPNCBSIA-UHFFFAOYSA-N
AC$INSTRUMENT: TripleTOF 6600 SCIEX
AC$INSTRUMENT_TYPE: LC-ESI-QTOF
AC$MASS_SPECTROMETRY: MS_TYPE MS2
AC$MASS_SPECTROMETRY: ION_MODE POSITIVE
AC$MASS_SPECTROMETRY: COLLISION_ENERGY 90
AC$MASS_SPECTROMETRY: FRAGMENTATION_MODE CID
AC$MASS_SPECTROMETRY: IONIZATION ESI
AC$CHROMATOGRAPHY: COLUMN_NAME Zorbax Eclipse Plus C18 2.1 mm x 150 mm, 3.5 um, Agilent
AC$CHROMATOGRAPHY: COLUMN_TEMPERATURE 40 °C
AC$CHROMATOGRAPHY: FLOW_GRADIENT 0 min min 98% A, 1 min 98% A, 2 min 80% A, 16.5 min 2% A, 22 min 2% A, 22.1 min 98% A, 27 min 98% A
AC$CHROMATOGRAPHY: FLOW_RATE 0.3 mL/min
AC$CHROMATOGRAPHY: RETENTION_TIME 7.678 min
AC$CHROMATOGRAPHY: SOLVENT A: Water 0.1% Formic acid, B: Acetonitrile 0.1% Formic acid
MS$FOCUSED_ION: PRECURSOR_M/Z 267.0128
MS$FOCUSED_ION: PRECURSOR_TYPE [M+H]+
MS$DATA_PROCESSING: COMMENT Export with Spectra 1.9.12 MsBackendMassbank 1.7.4
MS$DATA_PROCESSING: WHOLE RMassBank 2.3.1
PK$SPLASH: splash10-0pdi-9100000000-a410df5ff25518d5ffe2
PK$NUM_PEAK: 18
PK$PEAK: m/z int. rel.int.
  39.0218 0.8 106
  42.0329 1.8 239
  50.0138 1 133
  51.0212 3 399
  54.0323 1 133
  56.0482 7.5 999
  63.022 0.4 53
  65.037 1.3 173
  75.0215 0.4 53
  76.0293 0.4 53
  77.0363 5.6 745
  89.0355 0.9 119
  91.0525 1.1 146
  102.0426 0.8 106
  104.9311 0.9 119
  115.0517 1 133
  117.0546 0.5 66
  130.0636 0.5 66
//
