ACCESSION: MSBNK-BAFG-CSL23111015382
RECORD_TITLE: 2-(3-Hydroxyquinolin-2-yl)indene-1,3-dione; LC-ESI-QTOF; MS2; 50 V
DATE: 2023.11.10
AUTHORS: Kevin S. Jewell; Björn Ehlig; Arne Wick
LICENSE: dl-de/by-2-0
COPYRIGHT: Copyright 2023 Federal Institute of Hydrology, Koblenz, Germany
COMMENT: CONFIDENCE Reference Standard (Level 1)
COMMENT: Chromatography method: dx.doi.org/10.1016/j.chroma.2015.11.014
COMMENT: Acquisition method: 10.1002/rcm.8541
CH$NAME: 2-(3-Hydroxyquinolin-2-yl)indene-1,3-dione
CH$COMPOUND_CLASS: Industrial_process; Personal_care_product; Pigment
CH$FORMULA: C18H11NO3
CH$EXACT_MASS: 289.0739
CH$SMILES: C1=CC=C2C(=C1)C=C(C(=N2)C3C(=O)C4=CC=CC=C4C3=O)O
CH$IUPAC: InChI=1S/C18H11NO3/c20-14-9-10-5-1-4-8-13(10)19-16(14)15-17(21)11-6-2-3-7-12(11)18(15)22/h1-9,15,20H
CH$LINK: CAS 7576-65-0
CH$LINK: INCHIKEY FDTLQXNAPKJJAM-UHFFFAOYSA-N
AC$INSTRUMENT: TripleTOF 6600 SCIEX
AC$INSTRUMENT_TYPE: LC-ESI-QTOF
AC$MASS_SPECTROMETRY: MS_TYPE MS2
AC$MASS_SPECTROMETRY: ION_MODE POSITIVE
AC$MASS_SPECTROMETRY: COLLISION_ENERGY 50
AC$MASS_SPECTROMETRY: FRAGMENTATION_MODE CID
AC$MASS_SPECTROMETRY: IONIZATION ESI
AC$CHROMATOGRAPHY: COLUMN_NAME Zorbax Eclipse Plus C18 2.1 mm x 150 mm, 3.5 um, Agilent
AC$CHROMATOGRAPHY: COLUMN_TEMPERATURE 40 °C
AC$CHROMATOGRAPHY: FLOW_GRADIENT 0 min min 98% A, 1 min 98% A, 2 min 80% A, 16.5 min 2% A, 22 min 2% A, 22.1 min 98% A, 27 min 98% A
AC$CHROMATOGRAPHY: FLOW_RATE 0.3 mL/min
AC$CHROMATOGRAPHY: RETENTION_TIME 14.718 min
AC$CHROMATOGRAPHY: SOLVENT A: Water 0.1% Formic acid, B: Acetonitrile 0.1% Formic acid
MS$FOCUSED_ION: PRECURSOR_M/Z 290.0812
MS$FOCUSED_ION: PRECURSOR_TYPE [M+H]+
MS$DATA_PROCESSING: COMMENT Export with Spectra 1.9.12 MsBackendMassbank 1.7.4
MS$DATA_PROCESSING: WHOLE RMassBank 2.3.1
PK$SPLASH: splash10-014i-0390000000-95a14ab3fd0fff8412ef
PK$NUM_PEAK: 40
PK$PEAK: m/z int. rel.int.
  77.0381 3.6 74
  89.0382 1.6 33
  91.0546 0.7 14
  105.0334 4 83
  115.0537 2.2 45
  116.0492 3.2 66
  117.0562 1.3 27
  128.0493 1.2 24
  129.0566 0.8 16
  130.0641 1.4 29
  158.0581 1.3 27
  165.0699 1.4 29
  177.0581 0.6 12
  178.0779 1.1 22
  179.0859 0.7 14
  188.0612 0.7 14
  189.0691 14.1 292
  190.0657 4.9 101
  191.0862 0.5 10
  204.0802 5.7 118
  205.0878 1.8 37
  206.0943 2.3 47
  214.0631 4.3 89
  215.0721 7.2 149
  216.0805 48.1 999
  217.0653 0.9 18
  217.0886 8.6 178
  218.0932 0.9 18
  232.0744 2.1 43
  233.0833 3.7 76
  234.093 2.6 54
  243.0667 1.2 24
  244.0744 5.2 108
  245.0819 1.6 33
  246.0897 2.4 49
  260.072 1.2 24
  261.077 2.2 45
  262.0871 1.2 24
  272.0692 9.6 199
  290.0807 4.5 93
//
