ACCESSION: MSBNK-BAFG-CSL25011734696
RECORD_TITLE: Reactive Orange; LC-ESI-QTOF; MS2; 50 V
DATE: 2025.01.17
AUTHORS: Ole Lessmann; Kevin S. Jewell; Björn Ehlig; Arne Wick
LICENSE: dl-de/by-2-0
COPYRIGHT: Copyright 2025 Federal Institute of Hydrology, Koblenz, Germany
COMMENT: CONFIDENCE Reference Standard (Level 1)
COMMENT: Chromatography method: dx.doi.org/10.1016/j.chroma.2015.11.014
CH$NAME: Reactive Orange
CH$FORMULA: C20H19N3O11S3
CH$EXACT_MASS: 573.0182
CH$SMILES: CC(=O)NC1=CC2=C(C(=C(C=C2C=C1)S(=O)(=O)O)N=NC3=CC=C(C=C3)S(=O)(=O)CCOS(=O)(=O)O)O
CH$IUPAC: InChI=1S/C20H19N3O11S3/c1-12(24)21-15-3-2-13-10-18(36(28,29)30)19(20(25)17(13)11-15)23-22-14-4-6-16(7-5-14)35(26,27)9-8-34-37(31,32)33/h2-7,10-11,25H,8-9H2,1H3,(H,21,24)(H,28,29,30)(H,31,32,33)
CH$LINK: CAS 109603-48-7
CH$LINK: INCHIKEY INOIOAWTVPHTCJ-UHFFFAOYSA-N
AC$INSTRUMENT: TripleTOF 6600 SCIEX
AC$INSTRUMENT_TYPE: LC-ESI-QTOF
AC$MASS_SPECTROMETRY: MS_TYPE MS2
AC$MASS_SPECTROMETRY: ION_MODE NEGATIVE
AC$MASS_SPECTROMETRY: COLLISION_ENERGY 50
AC$MASS_SPECTROMETRY: FRAGMENTATION_MODE CID
AC$MASS_SPECTROMETRY: IONIZATION ESI
AC$CHROMATOGRAPHY: COLUMN_NAME Zorbax Eclipse Plus C18 2.1 mm x 150 mm, 3.5 um, Agilent
AC$CHROMATOGRAPHY: COLUMN_TEMPERATURE 40 °C
AC$CHROMATOGRAPHY: FLOW_GRADIENT 0 min min 98% A, 1 min 98% A, 2 min 80% A, 16.5 min 2% A, 22 min 2% A, 22.1 min 98% A, 27 min 98% A
AC$CHROMATOGRAPHY: FLOW_RATE 0.3 mL/min
AC$CHROMATOGRAPHY: RETENTION_TIME 5.751 min
AC$CHROMATOGRAPHY: SOLVENT A: Water 0.1% Formic acid, B: Acetonitrile 0.1% Formic acid
MS$FOCUSED_ION: PRECURSOR_M/Z 285.5022
MS$FOCUSED_ION: PRECURSOR_TYPE [M-2H]2-
MS$DATA_PROCESSING: COMMENT Export with pycsl 0.1.0.dev1 and CSL 25.0
PK$SPLASH: splash10-0002-9520000000-3b851f16e51072970539
PK$NUM_PEAK: 92
PK$PEAK: m/z int. rel.int.
  41.9986 3.6453 2
  63.962 29.2766 17
  64.9696 1.454 0
  76.0315 2.0441 1
  79.7087 2.5273 1
  79.9572 494.3107 297
  80.9642 11.3679 6
  90.9852 22.0894 13
  91.0439 1.0689 0
  93.034 1.5083 0
  95.9522 5.4824 3
  96.6587 7.1524 4
  96.9602 1659.4344 999
  97.9578 1.8902 1
  103.042 2.1609 1
  107.0366 1.6266 0
  108.0203 1.0862 0
  114.0338 1.3109 0
  116.0499 5.6111 3
  117.0341 3.3888 2
  127.0418 6.2047 3
  128.0495 16.6759 10
  129.0494 141.0329 84
  130.0301 4.9678 2
  130.053 14.2829 8
  131.0369 3.1487 1
  132.0435 4.6569 2
  139.9927 1.7082 1
  141.045 2.5682 1
  143.5937 1.8327 1
  144.0455 454.6857 273
  145.0286 10.93 6
  145.049 14.2724 8
  155.0374 7.4346 4
  156.0445 23.5221 14
  157.0444 7.8942 4
  158.0238 26.8462 16
  158.0621 1.6801 1
  159.0295 1.3356 0
  167.0167 1.6908 1
  169.042 3.2012 1
  170.0606 5.998 3
  171.0446 3.1816 1
  171.0676 15.4133 9
  171.4977 1.9045 1
  172.0406 547.3804 329
  173.0471 70.4545 42
  174.0536 2.765 1
  182.028 1.4962 0
  183.0111 1.0141 0
  183.0553 2.1737 1
  184.0402 23.7416 14
  185.0404 1.2555 0
  186.0193 7.8756 4
  186.0538 2.0909 1
  198.0557 3.3742 2
  199.0274 1.1239 0
  199.0632 13.957 8
  200.035 179.0771 107
  201.0384 4.3658 2
  202.0502 1.7001 1
  208.0071 15.4191 9
  209.9985 16.1478 9
  214.0498 2.2663 1
  215.0587 1.4791 0
  220.0736 1.8981 1
  227.0438 1.1559 0
  229.0555 1.1887 0
  230.0594 1.319 0
  231.0714 2.0965 1
  232.0753 5.637 3
  233.082 2.7732 1
  235.0086 1.9561 1
  236.0015 188.5668 113
  237.0094 140.6747 84
  238.0145 2.4212 1
  247.0635 1.7519 1
  248.0731 1.9954 1
  249.9817 1.4082 0
  250.0183 2.7712 1
  251.0249 1.459 0
  260.0713 1.0187 0
  262.9865 1.0529 0
  263.1608 1.1341 0
  263.9967 113.3569 68
  265.0017 2.0418 1
  274.0811 1.3607 0
  275.095 2.0372 1
  276.069 1.0169 0
  276.999 1.6249 0
  278.0124 13.6784 8
  279.0208 6.6441 3
//
