ACCESSION: MSBNK-BAFG-CSL23102513325
RECORD_TITLE: Thymine; LC-ESI-QTOF; MS2; 50 V
DATE: 2023.10.25
AUTHORS: Kevin S. Jewell; Björn Ehlig; Arne Wick
LICENSE: dl-de/by-2-0
COPYRIGHT: Copyright 2023 Federal Institute of Hydrology, Koblenz, Germany
COMMENT: CONFIDENCE Reference Standard (Level 1)
COMMENT: Chromatography method: dx.doi.org/10.1016/j.chroma.2015.11.014
COMMENT: Acquisition method: 10.1002/rcm.8541
CH$NAME: Thymine
CH$COMPOUND_CLASS: Metabolite
CH$FORMULA: C5H6N2O2
CH$EXACT_MASS: 126.0429
CH$SMILES: CC1=CNC(NC1=O)=O
CH$IUPAC: InChI=1S/C5H6N2O2/c1-3-2-6-5(9)7-4(3)8/h2H,1H3,(H2,6,7,8,9)
CH$LINK: CAS 65-71-4
CH$LINK: INCHIKEY RWQNBRDOKXIBIV-UHFFFAOYSA-N
AC$INSTRUMENT: TripleTOF 5600 SCIEX
AC$INSTRUMENT_TYPE: LC-ESI-QTOF
AC$MASS_SPECTROMETRY: MS_TYPE MS2
AC$MASS_SPECTROMETRY: ION_MODE POSITIVE
AC$MASS_SPECTROMETRY: COLLISION_ENERGY 50
AC$MASS_SPECTROMETRY: FRAGMENTATION_MODE CID
AC$MASS_SPECTROMETRY: IONIZATION ESI
AC$CHROMATOGRAPHY: COLUMN_NAME Zorbax Eclipse Plus C18 2.1 mm x 150 mm, 3.5 um, Agilent
AC$CHROMATOGRAPHY: COLUMN_TEMPERATURE 40 °C
AC$CHROMATOGRAPHY: FLOW_GRADIENT 0 min min 98% A, 1 min 98% A, 2 min 80% A, 16.5 min 2% A, 22 min 2% A, 22.1 min 98% A, 27 min 98% A
AC$CHROMATOGRAPHY: FLOW_RATE 0.3 mL/min
AC$CHROMATOGRAPHY: RETENTION_TIME 3.227 min
AC$CHROMATOGRAPHY: SOLVENT A: Water 0.1% Formic acid, B: Acetonitrile 0.1% Formic acid
MS$FOCUSED_ION: PRECURSOR_M/Z 127.0502
MS$FOCUSED_ION: PRECURSOR_TYPE [M+H]+
MS$DATA_PROCESSING: COMMENT Export with Spectra 1.9.12 MsBackendMassbank 1.7.4
MS$DATA_PROCESSING: WHOLE RMassBank 2.3.1
PK$SPLASH: splash10-0udl-9000000000-721020770ea10f804f57
PK$NUM_PEAK: 5
PK$PEAK: m/z int. rel.int.
  44.0131 5.2 641
  52.0174 0.5 61
  54.0338 8.1 999
  56.0491 1.7 209
  82.0296 0.7 86
//
