ACCESSION: MSBNK-BAFG-CSL23110912073
RECORD_TITLE: Atenolol acid; LC-ESI-QTOF; MS2; 90 V
DATE: 2023.11.09
AUTHORS: Kevin S. Jewell; Björn Ehlig; Arne Wick
LICENSE: dl-de/by-2-0
COPYRIGHT: Copyright 2023 Federal Institute of Hydrology, Koblenz, Germany
COMMENT: CONFIDENCE Reference Standard (Level 1)
COMMENT: Chromatography method: dx.doi.org/10.1016/j.chroma.2015.11.014
COMMENT: Acquisition method: 10.1002/rcm.8541
CH$NAME: Atenolol acid
CH$COMPOUND_CLASS: Pharmaceutical
CH$FORMULA: C14H21NO4
CH$EXACT_MASS: 267.1471
CH$SMILES: CC(C)NCC(COC1=CC=C(C=C1)CC(=O)O)O
CH$IUPAC: InChI=1S/C14H21NO4/c1-10(2)15-8-12(16)9-19-13-5-3-11(4-6-13)7-14(17)18/h3-6,10,12,15-16H,7-9H2,1-2H3,(H,17,18)
CH$LINK: CAS 56392-14-4
CH$LINK: INCHIKEY PUQIRTNPJRFRCZ-UHFFFAOYSA-N
AC$INSTRUMENT: TripleTOF 5600 SCIEX
AC$INSTRUMENT_TYPE: LC-ESI-QTOF
AC$MASS_SPECTROMETRY: MS_TYPE MS2
AC$MASS_SPECTROMETRY: ION_MODE POSITIVE
AC$MASS_SPECTROMETRY: COLLISION_ENERGY 90
AC$MASS_SPECTROMETRY: FRAGMENTATION_MODE CID
AC$MASS_SPECTROMETRY: IONIZATION ESI
AC$CHROMATOGRAPHY: COLUMN_NAME Zorbax Eclipse Plus C18 2.1 mm x 150 mm, 3.5 um, Agilent
AC$CHROMATOGRAPHY: COLUMN_TEMPERATURE 40 °C
AC$CHROMATOGRAPHY: FLOW_GRADIENT 0 min min 98% A, 1 min 98% A, 2 min 80% A, 16.5 min 2% A, 22 min 2% A, 22.1 min 98% A, 27 min 98% A
AC$CHROMATOGRAPHY: FLOW_RATE 0.3 mL/min
AC$CHROMATOGRAPHY: RETENTION_TIME 4.893 min
AC$CHROMATOGRAPHY: SOLVENT A: Water 0.1% Formic acid, B: Acetonitrile 0.1% Formic acid
MS$FOCUSED_ION: PRECURSOR_M/Z 268.1543
MS$FOCUSED_ION: PRECURSOR_TYPE [M+H]+
MS$DATA_PROCESSING: COMMENT Export with Spectra 1.9.12 MsBackendMassbank 1.7.4
MS$DATA_PROCESSING: WHOLE RMassBank 2.3.1
PK$SPLASH: splash10-004i-9100000000-47b7326a0b47948afe6c
PK$NUM_PEAK: 24
PK$PEAK: m/z int. rel.int.
  39.0233 1.3 42
  41.0385 1.6 52
  43.0543 0.7 22
  50.0155 0.6 19
  51.0231 4.3 140
  56.0496 2.6 84
  58.0663 0.8 26
  61.0076 0.4 13
  62.0143 0.6 19
  63.0233 3.3 107
  65.0392 5.2 169
  72.0813 0.4 13
  74.0612 0.5 16
  77.039 30.6 999
  78.0469 1 32
  79.0544 3.5 114
  89.0393 8.7 284
  91.0543 9.1 297
  94.0404 0.6 19
  102.0444 0.4 13
  103.0587 0.4 13
  107.0506 1.8 58
  115.0543 9.1 297
  116.0617 0.5 16
//
