ACCESSION: MSBNK-BAFG-CSL2310308636
RECORD_TITLE: Ethyl-N-(3-amino-2-methylphenyl)carbamate; LC-ESI-QTOF; MS2; 40 V
DATE: 2023.10.30
AUTHORS: Kevin S. Jewell; Björn Ehlig; Arne Wick
LICENSE: dl-de/by-2-0
COPYRIGHT: Copyright 2023 Federal Institute of Hydrology, Koblenz, Germany
COMMENT: CONFIDENCE Reference Standard (Level 1)
COMMENT: Chromatography method: dx.doi.org/10.1016/j.chroma.2015.11.014
COMMENT: Acquisition method: 10.1002/rcm.8541
CH$NAME: Ethyl-N-(3-amino-2-methylphenyl)carbamate
CH$COMPOUND_CLASS: Industrial_process
CH$FORMULA: C10H14N2O2
CH$EXACT_MASS: 194.1055
CH$SMILES: CCOC(=O)NC1=CC=CC(=C1C)N
CH$IUPAC: InChI=1S/C10H14N2O2/c1-3-14-10(13)12-9-6-4-5-8(11)7(9)2/h4-6H,3,11H2,1-2H3,(H,12,13)
CH$LINK: CAS 1016755-26-2
CH$LINK: INCHIKEY CUARKGNESAJPQR-UHFFFAOYSA-N
AC$INSTRUMENT: TripleTOF 5600 SCIEX
AC$INSTRUMENT_TYPE: LC-ESI-QTOF
AC$MASS_SPECTROMETRY: MS_TYPE MS2
AC$MASS_SPECTROMETRY: ION_MODE POSITIVE
AC$MASS_SPECTROMETRY: COLLISION_ENERGY 40
AC$MASS_SPECTROMETRY: FRAGMENTATION_MODE CID
AC$MASS_SPECTROMETRY: IONIZATION ESI
AC$CHROMATOGRAPHY: COLUMN_NAME Zorbax Eclipse Plus C18 2.1 mm x 150 mm, 3.5 um, Agilent
AC$CHROMATOGRAPHY: COLUMN_TEMPERATURE 40 °C
AC$CHROMATOGRAPHY: FLOW_GRADIENT 0 min min 98% A, 1 min 98% A, 2 min 80% A, 16.5 min 2% A, 22 min 2% A, 22.1 min 98% A, 27 min 98% A
AC$CHROMATOGRAPHY: FLOW_RATE 0.3 mL/min
AC$CHROMATOGRAPHY: RETENTION_TIME 5.082 min
AC$CHROMATOGRAPHY: SOLVENT A: Water 0.1% Formic acid, B: Acetonitrile 0.1% Formic acid
MS$FOCUSED_ION: PRECURSOR_M/Z 195.1128
MS$FOCUSED_ION: PRECURSOR_TYPE [M+H]+
MS$DATA_PROCESSING: COMMENT Export with Spectra 1.9.12 MsBackendMassbank 1.7.4
MS$DATA_PROCESSING: WHOLE RMassBank 2.3.1
PK$SPLASH: splash10-0a6r-3900000000-6b9adb462c79e715a163
PK$NUM_PEAK: 20
PK$PEAK: m/z int. rel.int.
  77.0439 47.7 313
  78.0386 7 46
  79.0595 78.5 515
  80.054 3.7 24
  81.0607 3.3 21
  94.0691 10.3 67
  104.0515 11.4 74
  105.0529 3.4 22
  106.0669 152 999
  107.0533 2 13
  107.0738 11.7 76
  108.07 41.8 274
  109.056 2.3 15
  119.075 1.7 11
  121.0776 28 184
  122.0837 3.8 24
  123.0925 12.3 80
  132.0458 3.9 25
  134.0486 45.2 297
  149.0717 28.6 187
//
