ACCESSION: MSBNK-BAFG-CSL2311093756
RECORD_TITLE: Haloxyfop-2-ethoxyethyl; LC-ESI-QTOF; MS2; 100 V
DATE: 2023.11.09
AUTHORS: Kevin S. Jewell; Björn Ehlig; Arne Wick
LICENSE: dl-de/by-2-0
COPYRIGHT: Copyright 2023 Federal Institute of Hydrology, Koblenz, Germany
COMMENT: CONFIDENCE Reference Standard (Level 1)
COMMENT: Chromatography method: dx.doi.org/10.1016/j.chroma.2015.11.014
COMMENT: Acquisition method: 10.1002/rcm.8541
CH$NAME: Haloxyfop-2-ethoxyethyl
CH$COMPOUND_CLASS: Herbicide
CH$FORMULA: C19H19ClF3NO5
CH$EXACT_MASS: 433.0904
CH$SMILES: CCOCCOC(=O)C(C)Oc1ccc(Oc2ncc(cc2Cl)C(F)(F)F)cc1
CH$IUPAC: InChI=1S/C19H19ClF3NO5/c1-3-26-8-9-27-18(25)12(2)28-14-4-6-15(7-5-14)29-17-16(20)10-13(11-24-17)19(21,22)23/h4-7,10-12H,3,8-9H2,1-2H3
CH$LINK: CAS 87237-48-7
CH$LINK: INCHIKEY MIJLZGZLQLAQCM-UHFFFAOYSA-N
AC$INSTRUMENT: TripleTOF 5600 SCIEX
AC$INSTRUMENT_TYPE: LC-ESI-QTOF
AC$MASS_SPECTROMETRY: MS_TYPE MS2
AC$MASS_SPECTROMETRY: ION_MODE POSITIVE
AC$MASS_SPECTROMETRY: COLLISION_ENERGY 100
AC$MASS_SPECTROMETRY: FRAGMENTATION_MODE CID
AC$MASS_SPECTROMETRY: IONIZATION ESI
AC$CHROMATOGRAPHY: COLUMN_NAME Zorbax Eclipse Plus C18 2.1 mm x 150 mm, 3.5 um, Agilent
AC$CHROMATOGRAPHY: COLUMN_TEMPERATURE 40 °C
AC$CHROMATOGRAPHY: FLOW_GRADIENT 0 min min 98% A, 1 min 98% A, 2 min 80% A, 16.5 min 2% A, 22 min 2% A, 22.1 min 98% A, 27 min 98% A
AC$CHROMATOGRAPHY: FLOW_RATE 0.3 mL/min
AC$CHROMATOGRAPHY: RETENTION_TIME 15.493 min
AC$CHROMATOGRAPHY: SOLVENT A: Water 0.1% Formic acid, B: Acetonitrile 0.1% Formic acid
MS$FOCUSED_ION: PRECURSOR_M/Z 434.0977
MS$FOCUSED_ION: PRECURSOR_TYPE [M+H]+
MS$DATA_PROCESSING: COMMENT Export with Spectra 1.9.12 MsBackendMassbank 1.7.4
MS$DATA_PROCESSING: WHOLE RMassBank 2.3.1
PK$SPLASH: splash10-054o-8930000000-95dac850493dffa63290
PK$NUM_PEAK: 16
PK$PEAK: m/z int. rel.int.
  45.0416 0.5 178
  65.0419 0.9 321
  75.027 1.1 392
  91.0557 2.8 999
  140.0491 0.7 249
  158.0397 0.5 178
  159.0439 0.6 214
  159.9751 0.5 178
  168.0453 0.6 214
  179.983 0.9 321
  188.0299 0.6 214
  189.0371 0.7 249
  190.0461 0.6 214
  208.0366 0.7 249
  209.0463 1 356
  216.0252 0.6 214
//
