ACCESSION: MSBNK-BAFG-CSL23102617108
RECORD_TITLE: Mandipropamid; LC-ESI-QTOF; MS2; 70 V
DATE: 2023.10.26
AUTHORS: Kevin S. Jewell; Björn Ehlig; Arne Wick
LICENSE: dl-de/by-2-0
COPYRIGHT: Copyright 2023 Federal Institute of Hydrology, Koblenz, Germany
COMMENT: CONFIDENCE Reference Standard (Level 1)
COMMENT: Chromatography method: dx.doi.org/10.1016/j.chroma.2015.11.014
COMMENT: Acquisition method: 10.1002/rcm.8541
CH$NAME: Mandipropamid
CH$COMPOUND_CLASS: Fungicide
CH$FORMULA: C23H22ClNO4
CH$EXACT_MASS: 411.1237
CH$SMILES: COC1=C(C=CC(=C1)CCNC(=O)C(C2=CC=C(C=C2)Cl)OCC#C)OCC#C
CH$IUPAC: InChI=1S/C23H22ClNO4/c1-4-14-28-20-11-6-17(16-21(20)27-3)12-13-25-23(26)22(29-15-5-2)18-7-9-19(24)10-8-18/h1-2,6-11,16,22H,12-15H2,3H3,(H,25,26)
CH$LINK: CAS 374726-62-2
CH$LINK: INCHIKEY KWLVWJPJKJMCSH-UHFFFAOYSA-N
AC$INSTRUMENT: TripleTOF 6600 SCIEX
AC$INSTRUMENT_TYPE: LC-ESI-QTOF
AC$MASS_SPECTROMETRY: MS_TYPE MS2
AC$MASS_SPECTROMETRY: ION_MODE POSITIVE
AC$MASS_SPECTROMETRY: COLLISION_ENERGY 70
AC$MASS_SPECTROMETRY: FRAGMENTATION_MODE CID
AC$MASS_SPECTROMETRY: IONIZATION ESI
AC$CHROMATOGRAPHY: COLUMN_NAME Zorbax Eclipse Plus C18 2.1 mm x 150 mm, 3.5 um, Agilent
AC$CHROMATOGRAPHY: COLUMN_TEMPERATURE 40 °C
AC$CHROMATOGRAPHY: FLOW_GRADIENT 0 min min 98% A, 1 min 98% A, 2 min 80% A, 16.5 min 2% A, 22 min 2% A, 22.1 min 98% A, 27 min 98% A
AC$CHROMATOGRAPHY: FLOW_RATE 0.3 mL/min
AC$CHROMATOGRAPHY: RETENTION_TIME 12.239 min
AC$CHROMATOGRAPHY: SOLVENT A: Water 0.1% Formic acid, B: Acetonitrile 0.1% Formic acid
MS$FOCUSED_ION: PRECURSOR_M/Z 412.131
MS$FOCUSED_ION: PRECURSOR_TYPE [M+H]+
MS$DATA_PROCESSING: COMMENT Export with Spectra 1.9.12 MsBackendMassbank 1.7.4
MS$DATA_PROCESSING: WHOLE RMassBank 2.3.1
PK$SPLASH: splash10-004i-1900000000-88c12c76f8a94512df3a
PK$NUM_PEAK: 68
PK$PEAK: m/z int. rel.int.
  65.0379 1.2 11
  77.0383 3.3 30
  79.054 1.7 15
  89.0378 9.9 92
  90.0457 2.8 26
  91.0536 14.1 131
  93.0689 1.6 14
  98.9988 4 37
  103.0535 4.6 42
  107.0479 2.7 25
  115.0532 5.3 49
  116.0616 2.6 24
  117.0568 1.4 13
  117.0685 3.9 36
  118.0637 6.4 59
  119.0482 2.6 24
  121.0634 5 46
  122.059 3.4 31
  125.0146 107.5 999
  127.0536 2.8 26
  128.0615 6.8 63
  129.0692 2.1 19
  130.0641 1.9 17
  131.0479 5.8 53
  132.0565 1.1 10
  133.0276 1.3 12
  133.0514 1.3 12
  134.059 3.3 30
  135.0431 4.8 44
  136.0764 2.8 26
  137.0594 1.1 10
  140.0256 1.6 14
  144.0557 1.7 15
  145.063 2.2 20
  146.0595 3.9 36
  147.0428 5.8 53
  148.051 3.1 28
  148.075 2.4 22
  149.0596 1.8 16
  150.0541 3.9 36
  152.0254 2.9 26
  160.0738 1.2 11
  162.0551 1.6 14
  164.0698 3.7 34
  165.0692 5.7 52
  166.0764 1.6 14
  176.0684 2.2 20
  177.0691 1.2 11
  178.0771 5.4 50
  179.0846 2.7 25
  182.0717 1.5 13
  189.0692 1.8 16
  190.0767 1.8 16
  191.0846 3.2 29
  193.0947 1.4 13
  194.0717 3.5 32
  202.0763 2.7 25
  203.0843 2.9 26
  204.092 1.3 12
  205.0982 1.6 14
  207.082 1.4 13
  208.0878 3.1 28
  210.0675 1.4 13
  215.0848 4.5 41
  217.0891 1.2 11
  229.0408 1.3 12
  231.0788 1.7 15
  234.0902 1.5 13
//
