ACCESSION: MSBNK-BAFG-CSL23102616228
RECORD_TITLE: Bis(triphenylphosphonio)amine; LC-ESI-QTOF; MS2; 150 V
DATE: 2023.10.26
AUTHORS: Kevin S. Jewell; Björn Ehlig; Arne Wick
LICENSE: dl-de/by-2-0
COPYRIGHT: Copyright 2023 Federal Institute of Hydrology, Koblenz, Germany
COMMENT: CONFIDENCE Reference Standard (Level 1)
COMMENT: Chromatography method: dx.doi.org/10.1016/j.chroma.2015.11.014
COMMENT: Acquisition method: 10.1002/rcm.8541
CH$NAME: Bis(triphenylphosphonio)amine
CH$FORMULA: [C36H30NP2]+
CH$EXACT_MASS: 538.1848
CH$SMILES: C1=CC=C(C=C1)P(=N[P+](C2=CC=CC=C2)(C3=CC=CC=C3)C4=CC=CC=C4)(C5=CC=CC=C5)C6=CC=CC=C6
CH$IUPAC: InChI=1S/C36H30NP2/c1-7-19-31(20-8-1)38(32-21-9-2-10-22-32,33-23-11-3-12-24-33)37-39(34-25-13-4-14-26-34,35-27-15-5-16-28-35)36-29-17-6-18-30-36/h1-30H/q+1
CH$LINK: CAS 21050-13-5
CH$LINK: INCHIKEY FXCZFAOTGUCDBE-UHFFFAOYSA-N
AC$INSTRUMENT: TripleTOF 6600 SCIEX
AC$INSTRUMENT_TYPE: LC-ESI-QTOF
AC$MASS_SPECTROMETRY: MS_TYPE MS2
AC$MASS_SPECTROMETRY: ION_MODE POSITIVE
AC$MASS_SPECTROMETRY: COLLISION_ENERGY 150
AC$MASS_SPECTROMETRY: FRAGMENTATION_MODE CID
AC$MASS_SPECTROMETRY: IONIZATION ESI
AC$CHROMATOGRAPHY: COLUMN_NAME Zorbax Eclipse Plus C18 2.1 mm x 150 mm, 3.5 um, Agilent
AC$CHROMATOGRAPHY: COLUMN_TEMPERATURE 40 °C
AC$CHROMATOGRAPHY: FLOW_GRADIENT 0 min min 98% A, 1 min 98% A, 2 min 80% A, 16.5 min 2% A, 22 min 2% A, 22.1 min 98% A, 27 min 98% A
AC$CHROMATOGRAPHY: FLOW_RATE 0.3 mL/min
AC$CHROMATOGRAPHY: RETENTION_TIME 12.265 min
AC$CHROMATOGRAPHY: SOLVENT A: Water 0.1% Formic acid, B: Acetonitrile 0.1% Formic acid
MS$FOCUSED_ION: PRECURSOR_M/Z 538.1848
MS$FOCUSED_ION: PRECURSOR_TYPE [M]+
MS$DATA_PROCESSING: COMMENT Export with Spectra 1.9.12 MsBackendMassbank 1.7.4
MS$DATA_PROCESSING: WHOLE RMassBank 2.3.1
PK$SPLASH: splash10-001i-0900000000-4a44f8d8fe9100760c4e
PK$NUM_PEAK: 7
PK$PEAK: m/z int. rel.int.
  77.0373 14.3 67
  107.0026 41.6 196
  122.0138 12.3 58
  152.0615 53.5 253
  152.9882 12 56
  157.0194 23.1 109
  183.0359 211 999
//
