ACCESSION: MSBNK-BAFG-CSL25010627969
RECORD_TITLE: N-[2-[(2-Bromo-4,6-dinitrophenyl)azo]-5-(diethylamino)phenyl]acetamide; LC-ESI-QTOF; MS2; 80 V
DATE: 2025.01.06
AUTHORS: Ole Lessmann; Kevin S. Jewell; Björn Ehlig; Arne Wick
LICENSE: dl-de/by-2-0
COPYRIGHT: Copyright 2025 Federal Institute of Hydrology, Koblenz, Germany
COMMENT: CONFIDENCE Reference Standard (Level 1)
COMMENT: Chromatography method: dx.doi.org/10.1016/j.chroma.2015.11.014
COMMENT: Acquisition method: 10.1002/rcm.8541
CH$NAME: N-[2-[(2-Bromo-4,6-dinitrophenyl)azo]-5-(diethylamino)phenyl]acetamide
CH$FORMULA: C18H19BrN6O5
CH$EXACT_MASS: 478.06
CH$SMILES: CCN(CC)C1=CC(=C(C=C1)N=NC2=C(C=C(C=C2Br)[N+](=O)[O-])[N+](=O)[O-])NC(=O)C
CH$IUPAC: InChI=1S/C18H19BrN6O5/c1-4-23(5-2)12-6-7-15(16(9-12)20-11(3)26)21-22-18-14(19)8-13(24(27)28)10-17(18)25(29)30/h6-10H,4-5H2,1-3H3,(H,20,26)
CH$LINK: CAS 52697-38-8
CH$LINK: INCHIKEY WFFKSTRPZWRBEW-UHFFFAOYSA-N
AC$INSTRUMENT: TripleTOF X500R SCIEX
AC$INSTRUMENT_TYPE: LC-ESI-QTOF
AC$MASS_SPECTROMETRY: MS_TYPE MS2
AC$MASS_SPECTROMETRY: ION_MODE POSITIVE
AC$MASS_SPECTROMETRY: COLLISION_ENERGY 80
AC$MASS_SPECTROMETRY: FRAGMENTATION_MODE CID
AC$MASS_SPECTROMETRY: IONIZATION ESI
AC$CHROMATOGRAPHY: COLUMN_NAME Zorbax Eclipse Plus C18 2.1 mm x 150 mm, 3.5 um, Agilent
AC$CHROMATOGRAPHY: COLUMN_TEMPERATURE 40 °C
AC$CHROMATOGRAPHY: FLOW_GRADIENT 0 min min 98% A, 1 min 98% A, 2 min 80% A, 16.5 min 2% A, 22 min 2% A, 22.1 min 98% A, 27 min 98% A
AC$CHROMATOGRAPHY: FLOW_RATE 0.3 mL/min
AC$CHROMATOGRAPHY: RETENTION_TIME 16.579 min
AC$CHROMATOGRAPHY: SOLVENT A: Water 0.1% Formic acid, B: Acetonitrile 0.1% Formic acid
MS$FOCUSED_ION: PRECURSOR_M/Z 479.0673
MS$FOCUSED_ION: PRECURSOR_TYPE [M+H]+
MS$DATA_PROCESSING: COMMENT Export with pycsl 0.1.0.dev1 and CSL 24.4
PK$SPLASH: splash10-00ec-0900000000-17c8aabaf87db76e601f
PK$NUM_PEAK: 80
PK$PEAK: m/z int. rel.int.
  43.0178 3.2 76
  80.0498 3.9 92
  92.0512 2.0 47
  93.0577 10.8 256
  94.0658 4.3 102
  95.0601 1.1 26
  104.0504 1.6 38
  105.0457 3.4 80
  106.0529 1.1 26
  106.0657 2.1 49
  107.0375 2.5 59
  107.0604 11.0 261
  108.0453 5.6 133
  108.068 1.4 33
  108.081 3.2 76
  109.0765 3.5 83
  117.056 3.4 80
  118.066 2.3 54
  119.0607 4.3 102
  120.0592 9.3 221
  121.0765 42.0 999
  122.0615 1.6 38
  122.0967 1.8 42
  123.0911 1.4 33
  128.9344 1.1 26
  131.0602 2.3 54
  132.0439 1.0 23
  132.0785 1.6 38
  133.0646 10.3 244
  134.072 20.5 487
  135.0606 0.5 11
  135.0919 4.5 107
  136.0765 4.5 107
  145.076 2.7 64
  146.071 3.4 80
  147.0562 5.0 118
  147.0802 6.1 145
  148.0638 15.4 366
  148.0883 9.2 218
  149.0727 0.7 16
  149.1076 9.9 235
  150.0915 0.8 19
  161.0706 4.1 97
  161.1013 1.1 26
  162.0777 3.2 76
  162.1027 8.1 192
  163.0868 24.2 575
  163.1219 4.5 107
  167.071 1.6 38
  175.0756 1.8 42
  176.09 0.7 16
  176.1179 0.7 16
  177.1024 7.3 173
  179.0623 1.3 30
  191.1186 24.8 589
  193.0759 3.9 92
  194.0734 5.3 126
  195.086 0.9 21
  221.0853 2.9 68
  222.0678 0.7 16
  222.091 0.4 9
  222.11 1.5 35
  237.1156 1.9 45
  244.9829 1.0 23
  250.0981 0.5 11
  250.1305 1.8 42
  257.9836 1.0 23
  265.1452 4.9 116
  271.9863 0.7 16
  272.992 2.8 66
  273.9943 0.5 11
  284.9913 1.4 33
  300.0006 1.5 35
  300.9922 1.9 45
  313.0252 0.5 11
  315.027 0.7 16
  328.044 2.3 54
  329.0503 0.6 14
  344.0628 1.0 23
  345.9952 0.5 11
//