ACCESSION: MSBNK-BAFG-CSL23102727132
RECORD_TITLE: Thieno[3,2-b]pyridin-7-ol; LC-ESI-QTOF; MS2; 40 V
DATE: 2023.10.27
AUTHORS: Kevin S. Jewell; Björn Ehlig; Arne Wick
LICENSE: dl-de/by-2-0
COPYRIGHT: Copyright 2023 Federal Institute of Hydrology, Koblenz, Germany
COMMENT: CONFIDENCE Reference Standard (Level 1)
COMMENT: Chromatography method: dx.doi.org/10.1016/j.chroma.2015.11.014
COMMENT: Acquisition method: 10.1002/rcm.8541
CH$NAME: Thieno[3,2-b]pyridin-7-ol
CH$FORMULA: C7H5NOS
CH$EXACT_MASS: 151.0092
CH$SMILES: C1=CNC2=C(C1=O)SC=C2
CH$IUPAC: InChI=1S/C7H5NOS/c9-6-1-3-8-5-2-4-10-7(5)6/h1-4H,(H,8,9)
CH$LINK: CAS 107818-20-2
CH$LINK: INCHIKEY AACVULYSNJAKEQ-UHFFFAOYSA-N
AC$INSTRUMENT: TripleTOF 6600 SCIEX
AC$INSTRUMENT_TYPE: LC-ESI-QTOF
AC$MASS_SPECTROMETRY: MS_TYPE MS2
AC$MASS_SPECTROMETRY: ION_MODE POSITIVE
AC$MASS_SPECTROMETRY: COLLISION_ENERGY 40
AC$MASS_SPECTROMETRY: FRAGMENTATION_MODE CID
AC$MASS_SPECTROMETRY: IONIZATION ESI
AC$CHROMATOGRAPHY: COLUMN_NAME Zorbax Eclipse Plus C18 2.1 mm x 150 mm, 3.5 um, Agilent
AC$CHROMATOGRAPHY: COLUMN_TEMPERATURE 40 °C
AC$CHROMATOGRAPHY: FLOW_GRADIENT 0 min min 98% A, 1 min 98% A, 2 min 80% A, 16.5 min 2% A, 22 min 2% A, 22.1 min 98% A, 27 min 98% A
AC$CHROMATOGRAPHY: FLOW_RATE 0.3 mL/min
AC$CHROMATOGRAPHY: RETENTION_TIME 4.72 min
AC$CHROMATOGRAPHY: SOLVENT A: Water 0.1% Formic acid, B: Acetonitrile 0.1% Formic acid
MS$FOCUSED_ION: PRECURSOR_M/Z 152.0165
MS$FOCUSED_ION: PRECURSOR_TYPE [M+H]+
MS$DATA_PROCESSING: COMMENT Export with Spectra 1.9.12 MsBackendMassbank 1.7.4
MS$DATA_PROCESSING: WHOLE RMassBank 2.3.1
PK$SPLASH: splash10-0f8a-9700000000-e32b728ea344919d4d7c
PK$NUM_PEAK: 34
PK$PEAK: m/z int. rel.int.
  39.0233 22.6 103
  44.9797 10.2 46
  53.0023 8.5 39
  53.039 23.2 106
  55.0178 3 13
  63.0226 6.5 29
  65.0384 2.2 10
  67.0418 11.4 52
  68.0136 8.2 37
  68.9791 7.7 35
  70.9943 4.3 19
  76.0182 7.5 34
  78.033 3 13
  80.0495 171.3 786
  82.9949 45.8 210
  83.9892 4.1 18
  84.0026 7.9 36
  90.0335 14.5 66
  91.0415 4.5 20
  94.0286 29 133
  96.0021 2.5 11
  97.0105 167.8 770
  98.0054 5.1 23
  100.0211 12.5 57
  106.9939 5.2 23
  108.0442 25.6 117
  110.0059 117 536
  111.0005 10.3 47
  111.9849 6 27
  120.0434 11.8 54
  123.0134 8.4 38
  124.0213 35 160
  134.0059 50.1 229
  152.0164 217.7 999
//
