ACCESSION: MSBNK-BAFG-CSL25011734572
RECORD_TITLE: Amido Black 10B; LC-ESI-QTOF; MS2; 80 V
DATE: 2025.01.17
AUTHORS: Ole Lessmann; Kevin S. Jewell; Björn Ehlig; Arne Wick
LICENSE: dl-de/by-2-0
COPYRIGHT: Copyright 2025 Federal Institute of Hydrology, Koblenz, Germany
COMMENT: CONFIDENCE Reference Standard (Level 1)
COMMENT: Chromatography method: dx.doi.org/10.1016/j.chroma.2015.11.014
CH$NAME: Amido Black 10B
CH$FORMULA: C22H16N6O9S2
CH$EXACT_MASS: 572.042
CH$SMILES: C1=CC=C(C=C1)N=NC2=C(C3=C(C(=C(C=C3C=C2S(=O)(=O)O)S(=O)(=O)O)N=NC4=CC=C(C=C4)[N+](=O)[O-])N)O
CH$IUPAC: InChI=1S/C22H16N6O9S2/c23-19-18-12(11-17(39(35,36)37)21(22(18)29)27-24-13-4-2-1-3-5-13)10-16(38(32,33)34)20(19)26-25-14-6-8-15(9-7-14)28(30)31/h1-11,29H,23H2,(H,32,33,34)(H,35,36,37)
CH$LINK: CAS 3121-74-2
CH$LINK: INCHIKEY HKJKONMZMPUGHJ-UHFFFAOYSA-N
AC$INSTRUMENT: TripleTOF 6600 SCIEX
AC$INSTRUMENT_TYPE: LC-ESI-QTOF
AC$MASS_SPECTROMETRY: MS_TYPE MS2
AC$MASS_SPECTROMETRY: ION_MODE POSITIVE
AC$MASS_SPECTROMETRY: COLLISION_ENERGY 80
AC$MASS_SPECTROMETRY: FRAGMENTATION_MODE CID
AC$MASS_SPECTROMETRY: IONIZATION ESI
AC$CHROMATOGRAPHY: COLUMN_NAME Zorbax Eclipse Plus C18 2.1 mm x 150 mm, 3.5 um, Agilent
AC$CHROMATOGRAPHY: COLUMN_TEMPERATURE 40 °C
AC$CHROMATOGRAPHY: FLOW_GRADIENT 0 min min 98% A, 1 min 98% A, 2 min 80% A, 16.5 min 2% A, 22 min 2% A, 22.1 min 98% A, 27 min 98% A
AC$CHROMATOGRAPHY: FLOW_RATE 0.3 mL/min
AC$CHROMATOGRAPHY: RETENTION_TIME 9.552 min
AC$CHROMATOGRAPHY: SOLVENT A: Water 0.1% Formic acid, B: Acetonitrile 0.1% Formic acid
MS$FOCUSED_ION: PRECURSOR_M/Z 573.0493
MS$FOCUSED_ION: PRECURSOR_TYPE [M+H]+
MS$DATA_PROCESSING: COMMENT Export with pycsl 0.1.0.dev1 and CSL 25.0
PK$SPLASH: splash10-0006-9141000000-92a27a6213bd76e18d90
PK$NUM_PEAK: 59
PK$PEAK: m/z int. rel.int.
  39.0225 3.2 18
  65.0382 53.6 318
  66.0454 8.5 50
  75.0219 11.6 68
  77.0383 8.0 47
  80.0481 4.4 26
  92.0254 6.6 39
  92.0491 78.7 467
  93.057 168.3 999
  108.0447 2.0 11
  114.0342 2.7 16
  122.0236 5.7 33
  129.0449 4.0 23
  139.0295 2.2 13
  145.0398 4.9 29
  150.0297 7.3 43
  157.0373 8.0 47
  167.0237 1.9 11
  173.0345 26.2 155
  177.0538 2.0 11
  178.0609 2.1 12
  204.064 4.2 24
  205.0741 10.7 63
  215.0601 3.1 18
  216.0563 9.7 57
  217.0639 3.6 21
  218.0712 1.7 10
  220.0863 1.9 11
  230.0697 6.9 40
  231.0734 9.4 55
  232.0857 17.9 106
  233.0873 3.0 17
  234.0782 2.0 11
  242.059 8.4 49
  243.0686 10.5 62
  245.0564 1.8 10
  248.0836 4.6 27
  258.0691 2.3 13
  259.069 9.8 58
  260.0829 5.3 31
  261.0881 3.5 20
  265.0316 2.1 12
  270.0533 17.1 101
  271.0624 33.2 197
  273.0751 1.9 11
  276.0712 2.0 11
  287.0589 4.8 28
  306.0996 3.2 18
  307.0938 3.1 18
  308.1104 2.2 13
  319.0948 4.7 27
  320.1068 2.2 13
  334.1036 2.6 15
  335.0984 1.7 10
  340.0377 5.7 33
  341.0447 2.0 11
  345.1005 3.2 18
  346.1078 7.0 41
  362.1064 4.1 24
//
