ACCESSION: MSBNK-BAFG-CSL23102517129
RECORD_TITLE: N-Desmethyltramadol; LC-ESI-QTOF; MS2; 130 V
DATE: 2023.10.25
AUTHORS: Kevin S. Jewell; Björn Ehlig; Arne Wick
LICENSE: dl-de/by-2-0
COPYRIGHT: Copyright 2023 Federal Institute of Hydrology, Koblenz, Germany
COMMENT: CONFIDENCE Reference Standard (Level 1)
COMMENT: Chromatography method: dx.doi.org/10.1016/j.chroma.2015.11.014
COMMENT: Acquisition method: 10.1002/rcm.8541
CH$NAME: N-Desmethyltramadol
CH$COMPOUND_CLASS: Transformation_product; Metabolite
CH$FORMULA: C15H23NO2
CH$EXACT_MASS: 249.1729
CH$SMILES: CNCC1CCCCC1(C2=CC(=CC=C2)OC)O
CH$IUPAC: InChI=1S/C15H23NO2/c1-16-11-13-6-3-4-9-15(13,17)12-7-5-8-14(10-12)18-2/h5,7-8,10,13,16-17H,3-4,6,9,11H2,1-2H3
CH$LINK: CAS 73806-55-0
CH$LINK: INCHIKEY VUMQHLSPUAFKKK-UHFFFAOYSA-N
AC$INSTRUMENT: TripleTOF 6600 SCIEX
AC$INSTRUMENT_TYPE: LC-ESI-QTOF
AC$MASS_SPECTROMETRY: MS_TYPE MS2
AC$MASS_SPECTROMETRY: ION_MODE POSITIVE
AC$MASS_SPECTROMETRY: COLLISION_ENERGY 130
AC$MASS_SPECTROMETRY: FRAGMENTATION_MODE CID
AC$MASS_SPECTROMETRY: IONIZATION ESI
AC$CHROMATOGRAPHY: COLUMN_NAME Zorbax Eclipse Plus C18 2.1 mm x 150 mm, 3.5 um, Agilent
AC$CHROMATOGRAPHY: COLUMN_TEMPERATURE 40 °C
AC$CHROMATOGRAPHY: FLOW_GRADIENT 0 min min 98% A, 1 min 98% A, 2 min 80% A, 16.5 min 2% A, 22 min 2% A, 22.1 min 98% A, 27 min 98% A
AC$CHROMATOGRAPHY: FLOW_RATE 0.3 mL/min
AC$CHROMATOGRAPHY: RETENTION_TIME 6.246 min
AC$CHROMATOGRAPHY: SOLVENT A: Water 0.1% Formic acid, B: Acetonitrile 0.1% Formic acid
MS$FOCUSED_ION: PRECURSOR_M/Z 250.1802
MS$FOCUSED_ION: PRECURSOR_TYPE [M+H]+
MS$DATA_PROCESSING: COMMENT Export with Spectra 1.9.12 MsBackendMassbank 1.7.4
MS$DATA_PROCESSING: WHOLE RMassBank 2.3.1
PK$SPLASH: splash10-0006-9000000000-82d09e0b8973411cebdd
PK$NUM_PEAK: 35
PK$PEAK: m/z int. rel.int.
  30.0341 1.1 30
  36.0002 0.5 13
  37.0077 2.6 71
  38.0149 1.9 52
  39.0231 6.5 179
  41.0261 0.6 16
  41.0391 0.7 19
  42.034 9.6 264
  43.0179 0.5 13
  43.0418 2 55
  44.0499 36.2 999
  49.007 1.5 41
  50.0151 8.7 240
  51.023 9.5 262
  52.0305 1.6 44
  54.0337 0.4 11
  59.999 0.6 16
  61.0071 2.1 57
  62.0151 5.8 160
  63.0228 12.6 347
  64.0311 1.1 30
  65.0385 2.3 63
  74.0155 1.4 38
  75.0232 1.4 38
  76.0299 0.7 19
  77.0383 3.2 88
  78.0461 1.3 35
  86.0152 0.5 13
  89.0389 1.8 49
  91.0544 0.8 22
  102.046 1.1 30
  115.0538 1.8 49
  126.0455 0.5 13
  127.0546 0.4 11
  128.0622 0.6 16
//
