ACCESSION: MSBNK-BAFG-CSL25010634256
RECORD_TITLE: 4-Aminoazobenzene; LC-ESI-QTOF; MS2; 140 V
DATE: 2025.01.06
AUTHORS: Ole Lessmann; Kevin S. Jewell; Björn Ehlig; Arne Wick
LICENSE: dl-de/by-2-0
COPYRIGHT: Copyright 2025 Federal Institute of Hydrology, Koblenz, Germany
COMMENT: CONFIDENCE Reference Standard (Level 1)
COMMENT: Chromatography method: dx.doi.org/10.1016/j.chroma.2015.11.014
COMMENT: Acquisition method: 10.1002/rcm.8541
CH$NAME: 4-Aminoazobenzene
CH$FORMULA: C12H11N3
CH$EXACT_MASS: 197.0953
CH$SMILES: C1=CC=C(C=C1)N=NC2=CC=C(C=C2)N
CH$IUPAC: InChI=1S/C12H11N3/c13-10-6-8-12(9-7-10)15-14-11-4-2-1-3-5-11/h1-9H,13H2
CH$LINK: CAS 60-09-3
CH$LINK: INCHIKEY QPQKUYVSJWQSDY-UHFFFAOYSA-N
AC$INSTRUMENT: TripleTOF 6600 SCIEX
AC$INSTRUMENT_TYPE: LC-ESI-QTOF
AC$MASS_SPECTROMETRY: MS_TYPE MS2
AC$MASS_SPECTROMETRY: ION_MODE POSITIVE
AC$MASS_SPECTROMETRY: COLLISION_ENERGY 140
AC$MASS_SPECTROMETRY: FRAGMENTATION_MODE CID
AC$MASS_SPECTROMETRY: IONIZATION ESI
AC$CHROMATOGRAPHY: COLUMN_NAME Zorbax Eclipse Plus C18 2.1 mm x 150 mm, 3.5 um, Agilent
AC$CHROMATOGRAPHY: COLUMN_TEMPERATURE 40 °C
AC$CHROMATOGRAPHY: FLOW_GRADIENT 0 min min 98% A, 1 min 98% A, 2 min 80% A, 16.5 min 2% A, 22 min 2% A, 22.1 min 98% A, 27 min 98% A
AC$CHROMATOGRAPHY: FLOW_RATE 0.3 mL/min
AC$CHROMATOGRAPHY: RETENTION_TIME 12.247 min
AC$CHROMATOGRAPHY: SOLVENT A: Water 0.1% Formic acid, B: Acetonitrile 0.1% Formic acid
MS$FOCUSED_ION: PRECURSOR_M/Z 198.1026
MS$FOCUSED_ION: PRECURSOR_TYPE [M+H]+
MS$DATA_PROCESSING: COMMENT Export with pycsl 0.1.0.dev1 and CSL 24.4
PK$SPLASH: splash10-0udi-9000000000-d5677f247269b788d2f1
PK$NUM_PEAK: 16
PK$PEAK: m/z int. rel.int.
  35.9993 1.5 19
  37.0075 9.8 127
  38.0151 4.7 61
  39.0227 6.4 83
  49.0073 23.1 301
  50.0154 76.5 999
  51.0105 1.2 15
  51.0227 18.4 240
  52.0178 6.1 79
  61.0068 1.7 22
  62.0152 0.9 11
  65.0006 0.9 11
  66.0092 0.9 11
  73.0067 6.6 86
  74.0144 13.5 176
  77.0134 3.3 43
//