ACCESSION: MSBNK-BAFG-CSL2311099600
RECORD_TITLE: Sulfathiazole; LC-ESI-QTOF; MS2; 90 V
DATE: 2023.11.09
AUTHORS: Kevin S. Jewell; Björn Ehlig; Arne Wick
LICENSE: dl-de/by-2-0
COPYRIGHT: Copyright 2023 Federal Institute of Hydrology, Koblenz, Germany
COMMENT: CONFIDENCE Reference Standard (Level 1)
COMMENT: Chromatography method: dx.doi.org/10.1016/j.chroma.2015.11.014
COMMENT: Acquisition method: 10.1002/rcm.8541
CH$NAME: Sulfathiazole
CH$COMPOUND_CLASS: Antimicrobial; Pharmaceutical
CH$FORMULA: C9H9N3O2S2
CH$EXACT_MASS: 255.0136
CH$SMILES: C1=CC(=CC=C1N)S(=O)(=O)NC2=NC=CS2
CH$IUPAC: InChI=1S/C9H9N3O2S2/c10-7-1-3-8(4-2-7)16(13,14)12-9-11-5-6-15-9/h1-6H,10H2,(H,11,12)
CH$LINK: CAS 72-14-0
CH$LINK: INCHIKEY JNMRHUJNCSQMMB-UHFFFAOYSA-N
AC$INSTRUMENT: TripleTOF 5600 SCIEX
AC$INSTRUMENT_TYPE: LC-ESI-QTOF
AC$MASS_SPECTROMETRY: MS_TYPE MS2
AC$MASS_SPECTROMETRY: ION_MODE POSITIVE
AC$MASS_SPECTROMETRY: COLLISION_ENERGY 90
AC$MASS_SPECTROMETRY: FRAGMENTATION_MODE CID
AC$MASS_SPECTROMETRY: IONIZATION ESI
AC$CHROMATOGRAPHY: COLUMN_NAME Zorbax Eclipse Plus C18 2.1 mm x 150 mm, 3.5 um, Agilent
AC$CHROMATOGRAPHY: COLUMN_TEMPERATURE 40 °C
AC$CHROMATOGRAPHY: FLOW_GRADIENT 0 min min 98% A, 1 min 98% A, 2 min 80% A, 16.5 min 2% A, 22 min 2% A, 22.1 min 98% A, 27 min 98% A
AC$CHROMATOGRAPHY: FLOW_RATE 0.3 mL/min
AC$CHROMATOGRAPHY: RETENTION_TIME 5.367 min
AC$CHROMATOGRAPHY: SOLVENT A: Water 0.1% Formic acid, B: Acetonitrile 0.1% Formic acid
MS$FOCUSED_ION: PRECURSOR_M/Z 256.0209
MS$FOCUSED_ION: PRECURSOR_TYPE [M+H]+
MS$DATA_PROCESSING: COMMENT Export with Spectra 1.9.12 MsBackendMassbank 1.7.4
MS$DATA_PROCESSING: WHOLE RMassBank 2.3.1
PK$SPLASH: splash10-014i-9000000000-60b43f13ec52d87010e9
PK$NUM_PEAK: 14
PK$PEAK: m/z int. rel.int.
  56.986 0.7 18
  57.9957 3.4 90
  59.0039 2.9 77
  65.0459 37.4 999
  66.0396 1.7 45
  66.0489 0.4 10
  73.0035 1.1 29
  74.0119 0.5 13
  80.0543 14.7 392
  92.0535 4.5 120
  93.0613 0.5 13
  100.0128 1.7 45
  101.0198 2.3 61
  108.0481 2.7 72
//
