ACCESSION: MSBNK-BAFG-CSL2310265768
RECORD_TITLE: Metazachlor; LC-ESI-QTOF; MS2; 120 V
DATE: 2023.10.26
AUTHORS: Kevin S. Jewell; Björn Ehlig; Arne Wick
LICENSE: dl-de/by-2-0
COPYRIGHT: Copyright 2023 Federal Institute of Hydrology, Koblenz, Germany
COMMENT: CONFIDENCE Reference Standard (Level 1)
COMMENT: Chromatography method: dx.doi.org/10.1016/j.chroma.2015.11.014
COMMENT: Acquisition method: 10.1002/rcm.8541
CH$NAME: Metazachlor
CH$COMPOUND_CLASS: Herbicide
CH$FORMULA: C14H16ClN3O
CH$EXACT_MASS: 277.0982
CH$SMILES: Cc1cccc(C)c1N(Cn2cccn2)C(=O)CCl
CH$IUPAC: InChI=1S/C14H16ClN3O/c1-11-5-3-6-12(2)14(11)18(13(19)9-15)10-17-8-4-7-16-17/h3-8H,9-10H2,1-2H3
CH$LINK: CAS 67129-08-2
CH$LINK: INCHIKEY STEPQTYSZVCJPV-UHFFFAOYSA-N
AC$INSTRUMENT: TripleTOF 5600 SCIEX
AC$INSTRUMENT_TYPE: LC-ESI-QTOF
AC$MASS_SPECTROMETRY: MS_TYPE MS2
AC$MASS_SPECTROMETRY: ION_MODE POSITIVE
AC$MASS_SPECTROMETRY: COLLISION_ENERGY 120
AC$MASS_SPECTROMETRY: FRAGMENTATION_MODE CID
AC$MASS_SPECTROMETRY: IONIZATION ESI
AC$CHROMATOGRAPHY: COLUMN_NAME Zorbax Eclipse Plus C18 2.1 mm x 150 mm, 3.5 um, Agilent
AC$CHROMATOGRAPHY: COLUMN_TEMPERATURE 40 °C
AC$CHROMATOGRAPHY: FLOW_GRADIENT 0 min min 98% A, 1 min 98% A, 2 min 80% A, 16.5 min 2% A, 22 min 2% A, 22.1 min 98% A, 27 min 98% A
AC$CHROMATOGRAPHY: FLOW_RATE 0.3 mL/min
AC$CHROMATOGRAPHY: RETENTION_TIME 11.114 min
AC$CHROMATOGRAPHY: SOLVENT A: Water 0.1% Formic acid, B: Acetonitrile 0.1% Formic acid
MS$FOCUSED_ION: PRECURSOR_M/Z 278.1055
MS$FOCUSED_ION: PRECURSOR_TYPE [M+H]+
MS$DATA_PROCESSING: COMMENT Export with Spectra 1.9.12 MsBackendMassbank 1.7.4
MS$DATA_PROCESSING: WHOLE RMassBank 2.3.1
PK$SPLASH: splash10-004i-9200000000-9d86d3d86103dbe278c0
PK$NUM_PEAK: 15
PK$PEAK: m/z int. rel.int.
  53.0443 1.4 23
  65.043 3.5 58
  76.9834 0.9 15
  77.0417 59.7 999
  78.0497 1.3 21
  79.0569 8.8 147
  89.0404 12.7 212
  90.0481 7.4 123
  91.0561 6.3 105
  102.0469 1.5 25
  103.0542 8.1 135
  105.0685 2.7 45
  117.0567 10.7 179
  118.0647 0.9 15
  130.0642 1.4 23
//
