ACCESSION: MSBNK-BAFG-CSL2501067070
RECORD_TITLE: N-desmethyl-venlafaxine; LC-ESI-QTOF; MS2; 30 V
DATE: 2025.01.06
AUTHORS: Ole Lessmann; Kevin S. Jewell; Björn Ehlig; Arne Wick
LICENSE: dl-de/by-2-0
COPYRIGHT: Copyright 2025 Federal Institute of Hydrology, Koblenz, Germany
COMMENT: CONFIDENCE Reference Standard (Level 1)
COMMENT: Chromatography method: dx.doi.org/10.1016/j.chroma.2015.11.014
COMMENT: Acquisition method: 10.1002/rcm.8541
CH$NAME: N-desmethyl-venlafaxine
CH$COMPOUND_CLASS: Pharmaceutical; Metabolite; Transformation_product-Metabolite
CH$FORMULA: C16H25NO2
CH$EXACT_MASS: 263.1885
CH$SMILES: CNCC(c1ccc(cc1)OC)C2(CCCCC2)O
CH$IUPAC: InChI=1S/C16H25NO2/c1-17-12-15(16(18)10-4-3-5-11-16)13-6-8-14(19-2)9-7-13/h6-9,15,17-18H,3-5,10-12H2,1-2H3
CH$LINK: CAS 149289-30-5
CH$LINK: INCHIKEY MKAFOJAJJMUXLW-UHFFFAOYSA-N
AC$INSTRUMENT: TripleTOF 5600 SCIEX
AC$INSTRUMENT_TYPE: LC-ESI-QTOF
AC$MASS_SPECTROMETRY: MS_TYPE MS2
AC$MASS_SPECTROMETRY: ION_MODE POSITIVE
AC$MASS_SPECTROMETRY: COLLISION_ENERGY 30
AC$MASS_SPECTROMETRY: FRAGMENTATION_MODE CID
AC$MASS_SPECTROMETRY: IONIZATION ESI
AC$CHROMATOGRAPHY: COLUMN_NAME Zorbax Eclipse Plus C18 2.1 mm x 150 mm, 3.5 um, Agilent
AC$CHROMATOGRAPHY: COLUMN_TEMPERATURE 40 °C
AC$CHROMATOGRAPHY: FLOW_GRADIENT 0 min min 98% A, 1 min 98% A, 2 min 80% A, 16.5 min 2% A, 22 min 2% A, 22.1 min 98% A, 27 min 98% A
AC$CHROMATOGRAPHY: FLOW_RATE 0.3 mL/min
AC$CHROMATOGRAPHY: RETENTION_TIME 6.444 min
AC$CHROMATOGRAPHY: SOLVENT A: Water 0.1% Formic acid, B: Acetonitrile 0.1% Formic acid
MS$FOCUSED_ION: PRECURSOR_M/Z 264.1958
MS$FOCUSED_ION: PRECURSOR_TYPE [M+H]+
MS$DATA_PROCESSING: COMMENT Export with pycsl 0.1.0.dev1 and CSL 24.4
PK$SPLASH: splash10-00dm-2910000000-537f70e1a4d02beb9cdf
PK$NUM_PEAK: 30
PK$PEAK: m/z int. rel.int.
  44.0583 49.7 636
  69.0718 1.5 19
  77.0411 0.9 11
  79.0548 2.7 34
  81.0704 3.0 38
  91.0537 6.2 79
  93.0693 1.5 19
  107.0487 0.9 11
  107.0846 3.9 49
  117.0684 0.9 11
  119.0878 0.9 11
  121.0641 78.0 999
  132.0555 3.0 38
  135.0785 5.0 64
  138.1256 1.5 19
  144.0553 1.1 14
  145.0637 1.0 12
  147.0792 55.2 706
  149.0822 2.3 29
  158.0707 2.0 25
  159.0793 15.8 202
  161.0935 1.0 12
  163.0971 1.1 14
  164.1063 3.7 47
  173.0946 21.1 270
  183.1173 1.6 20
  187.1095 1.4 17
  215.1418 29.0 371
  246.1839 6.1 78
  264.1907 0.9 11
//