ACCESSION: MSBNK-BAFG-CSL23102615722
RECORD_TITLE: Prochloraz; LC-ESI-QTOF; MS2; 100 V
DATE: 2023.10.26
AUTHORS: Kevin S. Jewell; Björn Ehlig; Arne Wick
LICENSE: dl-de/by-2-0
COPYRIGHT: Copyright 2023 Federal Institute of Hydrology, Koblenz, Germany
COMMENT: CONFIDENCE Reference Standard (Level 1)
COMMENT: Chromatography method: dx.doi.org/10.1016/j.chroma.2015.11.014
COMMENT: Acquisition method: 10.1002/rcm.8541
CH$NAME: Prochloraz
CH$COMPOUND_CLASS: Fungicide
CH$FORMULA: C15H16Cl3N3O2
CH$EXACT_MASS: 375.0308
CH$SMILES: CCCN(CCOc1c(cc(cc1Cl)Cl)Cl)C(=O)n2ccnc2
CH$IUPAC: InChI=1S/C15H16Cl3N3O2/c1-2-4-20(15(22)21-5-3-19-10-21)6-7-23-14-12(17)8-11(16)9-13(14)18/h3,5,8-10H,2,4,6-7H2,1H3
CH$LINK: CAS 67747-09-5
CH$LINK: INCHIKEY TVLSRXXIMLFWEO-UHFFFAOYSA-N
AC$INSTRUMENT: TripleTOF 6600 SCIEX
AC$INSTRUMENT_TYPE: LC-ESI-QTOF
AC$MASS_SPECTROMETRY: MS_TYPE MS2
AC$MASS_SPECTROMETRY: ION_MODE POSITIVE
AC$MASS_SPECTROMETRY: COLLISION_ENERGY 100
AC$MASS_SPECTROMETRY: FRAGMENTATION_MODE CID
AC$MASS_SPECTROMETRY: IONIZATION ESI
AC$CHROMATOGRAPHY: COLUMN_NAME Zorbax Eclipse Plus C18 2.1 mm x 150 mm, 3.5 um, Agilent
AC$CHROMATOGRAPHY: COLUMN_TEMPERATURE 40 °C
AC$CHROMATOGRAPHY: FLOW_GRADIENT 0 min min 98% A, 1 min 98% A, 2 min 80% A, 16.5 min 2% A, 22 min 2% A, 22.1 min 98% A, 27 min 98% A
AC$CHROMATOGRAPHY: FLOW_RATE 0.3 mL/min
AC$CHROMATOGRAPHY: RETENTION_TIME 11.258 min
AC$CHROMATOGRAPHY: SOLVENT A: Water 0.1% Formic acid, B: Acetonitrile 0.1% Formic acid
MS$FOCUSED_ION: PRECURSOR_M/Z 376.0381
MS$FOCUSED_ION: PRECURSOR_TYPE [M+H]+
MS$DATA_PROCESSING: COMMENT Export with Spectra 1.9.12 MsBackendMassbank 1.7.4
MS$DATA_PROCESSING: WHOLE RMassBank 2.3.1
PK$SPLASH: splash10-0a5c-9600000000-4509de9dd8b01252ed13
PK$NUM_PEAK: 33
PK$PEAK: m/z int. rel.int.
  37.0074 0.6 95
  38.0032 0.5 79
  38.0151 0.6 95
  39.0229 2.8 444
  41.0387 4.5 713
  42.0336 3.7 586
  43.0546 1.6 253
  56.0495 2.2 348
  62.0158 0.5 79
  63.0229 1.8 285
  70.0287 1.9 301
  70.0652 2.2 348
  72.9836 2.8 444
  74.0153 0.6 95
  82.9446 6.1 967
  89.038 2.4 380
  90.0458 0.4 63
  96.9839 1.7 269
  97.9919 0.7 111
  98.9987 1.9 301
  106.9446 5.7 903
  107.9756 6.3 999
  108.9838 2.2 348
  123.0005 0.9 142
  125.0159 2.1 333
  132.9609 2.4 380
  142.9449 1.6 253
  144.9604 1.4 222
  158.9773 0.4 63
  161.9629 1.8 285
  166.9212 4.4 697
  172.9686 0.4 63
  179.928 0.5 79
//
