ACCESSION: MSBNK-BAFG-CSL23103012512
RECORD_TITLE: Tadalafil; LC-ESI-QTOF; MS2; 70 V
DATE: 2023.10.30
AUTHORS: Kevin S. Jewell; Björn Ehlig; Arne Wick
LICENSE: dl-de/by-2-0
COPYRIGHT: Copyright 2023 Federal Institute of Hydrology, Koblenz, Germany
COMMENT: CONFIDENCE Reference Standard (Level 1)
COMMENT: Chromatography method: dx.doi.org/10.1016/j.chroma.2015.11.014
COMMENT: Acquisition method: 10.1002/rcm.8541
CH$NAME: Tadalafil
CH$COMPOUND_CLASS: Pharmaceutical
CH$FORMULA: C22H19N3O4
CH$EXACT_MASS: 389.1376
CH$SMILES: CN1CC(=O)N2C(C1=O)CC3=C(C2C4=CC5=C(C=C4)OCO5)NC6=CC=CC=C36
CH$IUPAC: InChI=1S/C22H19N3O4/c1-24-10-19(26)25-16(22(24)27)9-14-13-4-2-3-5-15(13)23-20(14)21(25)12-6-7-17-18(8-12)29-11-28-17/h2-8,16,21,23H,9-11H2,1H3
CH$LINK: CAS 171596-29-5
CH$LINK: INCHIKEY WOXKDUGGOYFFRN-UHFFFAOYSA-N
AC$INSTRUMENT: TripleTOF 5600 SCIEX
AC$INSTRUMENT_TYPE: LC-ESI-QTOF
AC$MASS_SPECTROMETRY: MS_TYPE MS2
AC$MASS_SPECTROMETRY: ION_MODE POSITIVE
AC$MASS_SPECTROMETRY: COLLISION_ENERGY 70
AC$MASS_SPECTROMETRY: FRAGMENTATION_MODE CID
AC$MASS_SPECTROMETRY: IONIZATION ESI
AC$CHROMATOGRAPHY: COLUMN_NAME Zorbax Eclipse Plus C18 2.1 mm x 150 mm, 3.5 um, Agilent
AC$CHROMATOGRAPHY: COLUMN_TEMPERATURE 40 °C
AC$CHROMATOGRAPHY: FLOW_GRADIENT 0 min min 98% A, 1 min 98% A, 2 min 80% A, 16.5 min 2% A, 22 min 2% A, 22.1 min 98% A, 27 min 98% A
AC$CHROMATOGRAPHY: FLOW_RATE 0.3 mL/min
AC$CHROMATOGRAPHY: RETENTION_TIME 9.801 min
AC$CHROMATOGRAPHY: SOLVENT A: Water 0.1% Formic acid, B: Acetonitrile 0.1% Formic acid
MS$FOCUSED_ION: PRECURSOR_M/Z 390.1448
MS$FOCUSED_ION: PRECURSOR_TYPE [M+H]+
MS$DATA_PROCESSING: COMMENT Export with Spectra 1.9.12 MsBackendMassbank 1.7.4
MS$DATA_PROCESSING: WHOLE RMassBank 2.3.1
PK$SPLASH: splash10-0udi-0590000000-47dd9a34bab3cecc700a
PK$NUM_PEAK: 44
PK$PEAK: m/z int. rel.int.
  77.0386 3.6 66
  79.0542 1.1 20
  99.0553 0.6 11
  105.0318 1.2 22
  115.0537 4.3 79
  130.0655 1.7 31
  135.0436 8.2 152
  140.05 0.6 11
  142.0665 2.1 38
  154.0632 0.7 12
  165.0688 1.4 25
  166.0674 0.6 11
  167.0646 1.8 33
  168.0678 1.9 35
  169.0764 21.2 393
  170.0622 1.1 20
  176.0633 1.1 20
  177.0714 1 18
  178.0724 0.9 16
  179.0798 0.6 11
  180.0818 1 18
  189.068 2.5 46
  190.0669 1.3 24
  191.0753 4.5 83
  192.0796 2.8 51
  193.089 1.6 29
  197.071 1.1 20
  202.0653 0.9 16
  203.0733 2.9 53
  204.0817 53.8 999
  205.0895 9 167
  206.0978 3.5 64
  214.0609 0.8 14
  215.0717 2.4 44
  216.0819 4.1 76
  217.0904 2.8 51
  220.0735 1.2 22
  232.0755 7 129
  233.0817 2.2 40
  234.09 0.9 16
  244.0783 1 18
  261.0802 1.1 20
  262.088 7 129
  274.0826 0.8 14
//
