ACCESSION: MSBNK-BAFG-CSL25011734632
RECORD_TITLE: Metachrome Yellow free acid; LC-ESI-QTOF; MS2; 40 V
DATE: 2025.01.17
AUTHORS: Ole Lessmann; Kevin S. Jewell; Björn Ehlig; Arne Wick
LICENSE: dl-de/by-2-0
COPYRIGHT: Copyright 2025 Federal Institute of Hydrology, Koblenz, Germany
COMMENT: CONFIDENCE Reference Standard (Level 1)
COMMENT: Chromatography method: dx.doi.org/10.1016/j.chroma.2015.11.014
CH$NAME: Metachrome Yellow free acid
CH$FORMULA: C13H9N3O5
CH$EXACT_MASS: 287.0542
CH$SMILES: C1=CC(=CC(=C1)[N+](=O)[O-])N=NC2=CC(=C(C=C2)O)C(=O)O
CH$IUPAC: InChI=1S/C13H9N3O5/c17-12-5-4-9(7-11(12)13(18)19)15-14-8-2-1-3-10(6-8)16(20)21/h1-7,17H,(H,18,19)
CH$LINK: CAS 6283-26-7
CH$LINK: INCHIKEY LJOXBIGRIKPBSQ-UHFFFAOYSA-N
AC$INSTRUMENT: TripleTOF 6600 SCIEX
AC$INSTRUMENT_TYPE: LC-ESI-QTOF
AC$MASS_SPECTROMETRY: MS_TYPE MS2
AC$MASS_SPECTROMETRY: ION_MODE POSITIVE
AC$MASS_SPECTROMETRY: COLLISION_ENERGY 40
AC$MASS_SPECTROMETRY: FRAGMENTATION_MODE CID
AC$MASS_SPECTROMETRY: IONIZATION ESI
AC$CHROMATOGRAPHY: COLUMN_NAME Zorbax Eclipse Plus C18 2.1 mm x 150 mm, 3.5 um, Agilent
AC$CHROMATOGRAPHY: COLUMN_TEMPERATURE 40 °C
AC$CHROMATOGRAPHY: FLOW_GRADIENT 0 min min 98% A, 1 min 98% A, 2 min 80% A, 16.5 min 2% A, 22 min 2% A, 22.1 min 98% A, 27 min 98% A
AC$CHROMATOGRAPHY: FLOW_RATE 0.3 mL/min
AC$CHROMATOGRAPHY: RETENTION_TIME 11.919 min
AC$CHROMATOGRAPHY: SOLVENT A: Water 0.1% Formic acid, B: Acetonitrile 0.1% Formic acid
MS$FOCUSED_ION: PRECURSOR_M/Z 288.0615
MS$FOCUSED_ION: PRECURSOR_TYPE [M+H]+
MS$DATA_PROCESSING: COMMENT Export with pycsl 0.1.0.dev1 and CSL 25.0
PK$SPLASH: splash10-00kf-3930000000-0ca1041e0de497a2c991
PK$NUM_PEAK: 48
PK$PEAK: m/z int. rel.int.
  39.0227 0.9 12
  63.0219 8.6 117
  64.0295 17.1 232
  75.0219 19.7 268
  76.0299 2.5 34
  77.0244 0.8 10
  77.0375 0.8 10
  91.0164 14.2 193
  92.0246 65.1 886
  106.0277 1.2 16
  114.043 2.1 28
  117.0535 1.4 19
  119.0115 31.1 423
  120.0304 7.3 99
  122.0218 26.3 357
  128.0618 2.5 34
  129.0466 0.7 9
  130.051 0.8 10
  134.0223 9.7 132
  139.0531 15.1 205
  140.0579 20.0 272
  141.0559 5.3 72
  142.051 5.1 69
  147.0178 6.6 89
  150.0286 33.8 460
  153.0533 1.0 13
  154.0496 1.4 19
  155.0584 9.4 127
  156.0654 2.2 29
  166.0478 1.3 17
  167.0589 23.9 325
  168.0665 68.1 926
  169.0504 2.9 39
  170.0473 4.6 62
  171.0545 1.6 21
  179.0582 1.1 14
  182.0437 1.4 19
  183.0503 1.7 23
  184.0607 2.1 28
  186.0551 3.0 40
  195.0541 25.8 351
  196.0627 44.0 598
  214.0593 4.2 57
  222.038 2.0 27
  223.0516 12.6 171
  224.0577 11.5 156
  242.0552 73.4 999
  270.049 19.4 264
//
