ACCESSION: MSBNK-BAFG-CSL23102616787
RECORD_TITLE: 1-Boc-4-[3-(ethoxycarbonyl)phenyl]piperazine; LC-ESI-QTOF; MS2; 10 V
DATE: 2023.10.26
AUTHORS: Kevin S. Jewell; Björn Ehlig; Arne Wick
LICENSE: dl-de/by-2-0
COPYRIGHT: Copyright 2023 Federal Institute of Hydrology, Koblenz, Germany
COMMENT: CONFIDENCE Reference Standard (Level 1)
COMMENT: Chromatography method: dx.doi.org/10.1016/j.chroma.2015.11.014
COMMENT: Acquisition method: 10.1002/rcm.8541
CH$NAME: 1-Boc-4-[3-(ethoxycarbonyl)phenyl]piperazine
CH$FORMULA: C18H26N2O4
CH$EXACT_MASS: 334.1893
CH$SMILES: CCOC(=O)C1=CC(=CC=C1)N2CCN(CC2)C(=O)OC(C)(C)C
CH$IUPAC: InChI=1S/C18H26N2O4/c1-5-23-16(21)14-7-6-8-15(13-14)19-9-11-20(12-10-19)17(22)24-18(2,3)4/h6-8,13H,5,9-12H2,1-4H3
CH$LINK: CAS 261925-94-4
CH$LINK: INCHIKEY CCLGNFZMWMCRCH-UHFFFAOYSA-N
AC$INSTRUMENT: TripleTOF 6600 SCIEX
AC$INSTRUMENT_TYPE: LC-ESI-QTOF
AC$MASS_SPECTROMETRY: MS_TYPE MS2
AC$MASS_SPECTROMETRY: ION_MODE POSITIVE
AC$MASS_SPECTROMETRY: COLLISION_ENERGY 10
AC$MASS_SPECTROMETRY: FRAGMENTATION_MODE CID
AC$MASS_SPECTROMETRY: IONIZATION ESI
AC$CHROMATOGRAPHY: COLUMN_NAME Zorbax Eclipse Plus C18 2.1 mm x 150 mm, 3.5 um, Agilent
AC$CHROMATOGRAPHY: COLUMN_TEMPERATURE 40 °C
AC$CHROMATOGRAPHY: FLOW_GRADIENT 0 min min 98% A, 1 min 98% A, 2 min 80% A, 16.5 min 2% A, 22 min 2% A, 22.1 min 98% A, 27 min 98% A
AC$CHROMATOGRAPHY: FLOW_RATE 0.3 mL/min
AC$CHROMATOGRAPHY: RETENTION_TIME 14.611 min
AC$CHROMATOGRAPHY: SOLVENT A: Water 0.1% Formic acid, B: Acetonitrile 0.1% Formic acid
MS$FOCUSED_ION: PRECURSOR_M/Z 335.1965
MS$FOCUSED_ION: PRECURSOR_TYPE [M+H]+
MS$DATA_PROCESSING: COMMENT Export with Spectra 1.9.12 MsBackendMassbank 1.7.4
MS$DATA_PROCESSING: WHOLE RMassBank 2.3.1
PK$SPLASH: splash10-004i-0090000000-8c5056232c0a4642752f
PK$NUM_PEAK: 2
PK$PEAK: m/z int. rel.int.
  235.1454 584.1 113
  279.1358 5124.7 999
//
