ACCESSION: MSBNK-BAFG-CSL25010627948
RECORD_TITLE: Basic Red 1; LC-ESI-QTOF; MS2; 50 V
DATE: 2025.01.06
AUTHORS: Ole Lessmann; Kevin S. Jewell; Björn Ehlig; Arne Wick
LICENSE: dl-de/by-2-0
COPYRIGHT: Copyright 2025 Federal Institute of Hydrology, Koblenz, Germany
COMMENT: CONFIDENCE Reference Standard (Level 1)
COMMENT: Chromatography method: dx.doi.org/10.1016/j.chroma.2015.11.014
COMMENT: Acquisition method: 10.1002/rcm.8541
CH$NAME: Basic Red 1
CH$FORMULA: C28H30N2O3
CH$EXACT_MASS: 442.2256
CH$SMILES: CCNC1=CC2=C(C=C1C)C(=C3C=C(C(=NCC)C=C3O2)C)C4=CC=CC=C4C(=O)OCC
CH$IUPAC: InChI=1S/C28H30N2O3/c1-6-29-23-15-25-21(13-17(23)4)27(19-11-9-10-12-20(19)28(31)32-8-3)22-14-18(5)24(30-7-2)16-26(22)33-25/h9-16,29H,6-8H2,1-5H3
CH$LINK: CAS 989-38-8
CH$LINK: INCHIKEY IWWWBRIIGAXLCJ-UHFFFAOYSA-N
AC$INSTRUMENT: TripleTOF X500R SCIEX
AC$INSTRUMENT_TYPE: LC-ESI-QTOF
AC$MASS_SPECTROMETRY: MS_TYPE MS2
AC$MASS_SPECTROMETRY: ION_MODE POSITIVE
AC$MASS_SPECTROMETRY: COLLISION_ENERGY 50
AC$MASS_SPECTROMETRY: FRAGMENTATION_MODE CID
AC$MASS_SPECTROMETRY: IONIZATION ESI
AC$CHROMATOGRAPHY: COLUMN_NAME Zorbax Eclipse Plus C18 2.1 mm x 150 mm, 3.5 um, Agilent
AC$CHROMATOGRAPHY: COLUMN_TEMPERATURE 40 °C
AC$CHROMATOGRAPHY: FLOW_GRADIENT 0 min min 98% A, 1 min 98% A, 2 min 80% A, 16.5 min 2% A, 22 min 2% A, 22.1 min 98% A, 27 min 98% A
AC$CHROMATOGRAPHY: FLOW_RATE 0.3 mL/min
AC$CHROMATOGRAPHY: RETENTION_TIME 11.107 min
AC$CHROMATOGRAPHY: SOLVENT A: Water 0.1% Formic acid, B: Acetonitrile 0.1% Formic acid
MS$FOCUSED_ION: PRECURSOR_M/Z 443.2329
MS$FOCUSED_ION: PRECURSOR_TYPE [M+H]+
MS$DATA_PROCESSING: COMMENT Export with pycsl 0.1.0.dev1 and CSL 24.4
PK$SPLASH: splash10-014i-0009800000-0bddc38f155c60183f24
PK$NUM_PEAK: 19
PK$PEAK: m/z int. rel.int.
  312.1276 26.4 32
  313.1349 34.5 42
  326.1538 21.4 26
  327.15 54.8 67
  341.1657 256.2 314
  342.1737 18.3 22
  357.1249 71.5 87
  359.1527 12.3 15
  371.1461 71.5 87
  371.2119 10.3 12
  372.1595 25.0 30
  385.156 19.9 24
  386.1628 376.9 462
  387.1714 44.7 54
  399.1717 38.2 46
  400.1796 49.3 60
  415.1444 19.3 23
  415.2009 814.1 999
  443.2341 109.0 133
//