ACCESSION: MSBNK-BAFG-CSL23111018490
RECORD_TITLE: Trazodone; LC-ESI-QTOF; MS2; 120 V
DATE: 2023.11.10
AUTHORS: Kevin S. Jewell; Björn Ehlig; Arne Wick
LICENSE: dl-de/by-2-0
COPYRIGHT: Copyright 2023 Federal Institute of Hydrology, Koblenz, Germany
COMMENT: CONFIDENCE Reference Standard (Level 1)
COMMENT: Chromatography method: dx.doi.org/10.1016/j.chroma.2015.11.014
COMMENT: Acquisition method: 10.1002/rcm.8541
CH$NAME: Trazodone
CH$COMPOUND_CLASS: Pharmaceutical
CH$FORMULA: C19H22ClN5O
CH$EXACT_MASS: 371.1513
CH$SMILES: C1CN(CCN1CCCN2C(=O)N3C=CC=CC3=N2)C4=CC(=CC=C4)Cl
CH$IUPAC: InChI=1S/C19H22ClN5O/c20-16-5-3-6-17(15-16)23-13-11-22(12-14-23)8-4-10-25-19(26)24-9-2-1-7-18(24)21-25/h1-3,5-7,9,15H,4,8,10-14H2
CH$LINK: CAS 19794-93-5
CH$LINK: INCHIKEY PHLBKPHSAVXXEF-UHFFFAOYSA-N
AC$INSTRUMENT: TripleTOF 6600 SCIEX
AC$INSTRUMENT_TYPE: LC-ESI-QTOF
AC$MASS_SPECTROMETRY: MS_TYPE MS2
AC$MASS_SPECTROMETRY: ION_MODE POSITIVE
AC$MASS_SPECTROMETRY: COLLISION_ENERGY 120
AC$MASS_SPECTROMETRY: FRAGMENTATION_MODE CID
AC$MASS_SPECTROMETRY: IONIZATION ESI
AC$CHROMATOGRAPHY: COLUMN_NAME Zorbax Eclipse Plus C18 2.1 mm x 150 mm, 3.5 um, Agilent
AC$CHROMATOGRAPHY: COLUMN_TEMPERATURE 40 °C
AC$CHROMATOGRAPHY: FLOW_GRADIENT 0 min min 98% A, 1 min 98% A, 2 min 80% A, 16.5 min 2% A, 22 min 2% A, 22.1 min 98% A, 27 min 98% A
AC$CHROMATOGRAPHY: FLOW_RATE 0.3 mL/min
AC$CHROMATOGRAPHY: RETENTION_TIME 7.095 min
AC$CHROMATOGRAPHY: SOLVENT A: Water 0.1% Formic acid, B: Acetonitrile 0.1% Formic acid
MS$FOCUSED_ION: PRECURSOR_M/Z 372.1586
MS$FOCUSED_ION: PRECURSOR_TYPE [M+H]+
MS$DATA_PROCESSING: COMMENT Export with Spectra 1.9.12 MsBackendMassbank 1.7.4
MS$DATA_PROCESSING: WHOLE RMassBank 2.3.1
PK$SPLASH: splash10-004i-9100000000-8008d9b1d43b2b071553
PK$NUM_PEAK: 36
PK$PEAK: m/z int. rel.int.
  37.0059 8.1 27
  38.0141 13.9 46
  39.0218 27.1 91
  41.0246 11.5 38
  42.0325 7.7 25
  50.0139 20 67
  51.0216 100.2 337
  52.0168 8.3 27
  52.0283 6.5 21
  64.0165 7.6 25
  65.0245 33.6 113
  66.0195 5 16
  66.032 16.6 55
  67.0399 8 26
  74.0134 10.2 34
  75.0207 24.4 82
  77.0372 7.5 25
  78.0325 296.3 999
  79.0402 25.2 84
  80.0482 6 20
  89.0369 5.1 17
  90.0459 3.3 11
  91.0524 12.6 42
  92.0351 51.4 173
  93.0432 15.2 51
  104.0482 4.4 14
  105.0427 3.2 10
  110.9978 26.4 89
  117.0553 8 26
  118.063 14.5 48
  119.0583 23.3 78
  120.0295 9.8 33
  130.0634 4.8 16
  131.0587 5.9 19
  138.0074 5.5 18
  139.0036 6.4 21
//
