ACCESSION: MSBNK-BAFG-CSL23102612864
RECORD_TITLE: Olmesartan-d6; LC-ESI-QTOF; MS2; 100 V
DATE: 2023.10.26
AUTHORS: Kevin S. Jewell; Björn Ehlig; Arne Wick
LICENSE: dl-de/by-2-0
COPYRIGHT: Copyright 2023 Federal Institute of Hydrology, Koblenz, Germany
COMMENT: CONFIDENCE Reference Standard (Level 1)
COMMENT: Chromatography method: dx.doi.org/10.1016/j.chroma.2015.11.014
COMMENT: Acquisition method: 10.1002/rcm.8541
CH$NAME: Olmesartan-d6
CH$COMPOUND_CLASS: Surrogate_standard
CH$FORMULA: C24H20N6O3 2H6
CH$EXACT_MASS: 452.2443
CH$SMILES: [2H]C([2H])([2H])C(C1=C(N(C(=N1)CCC)CC2=CC=C(C=C2)C3=CC=CC=C3C4=NNN=N4)C(=O)O)(C([2H])([2H])[2H])O
CH$IUPAC: InChI=1S/C24H26N6O3/c1-4-7-19-25-21(24(2,3)33)20(23(31)32)30(19)14-15-10-12-16(13-11-15)17-8-5-6-9-18(17)22-26-28-29-27-22/h5-6,8-13,33H,4,7,14H2,1-3H3,(H,31,32)(H,26,27,28,29)/i2D3,3D3
CH$LINK: CAS 1185144-74-4
CH$LINK: INCHIKEY VTRAEEWXHOVJFV-XERRXZQWSA-N
AC$INSTRUMENT: TripleTOF 5600 SCIEX
AC$INSTRUMENT_TYPE: LC-ESI-QTOF
AC$MASS_SPECTROMETRY: MS_TYPE MS2
AC$MASS_SPECTROMETRY: ION_MODE POSITIVE
AC$MASS_SPECTROMETRY: COLLISION_ENERGY 100
AC$MASS_SPECTROMETRY: FRAGMENTATION_MODE CID
AC$MASS_SPECTROMETRY: IONIZATION ESI
AC$CHROMATOGRAPHY: COLUMN_NAME Zorbax Eclipse Plus C18 2.1 mm x 150 mm, 3.5 um, Agilent
AC$CHROMATOGRAPHY: COLUMN_TEMPERATURE 40 °C
AC$CHROMATOGRAPHY: FLOW_GRADIENT 0 min min 98% A, 1 min 98% A, 2 min 80% A, 16.5 min 2% A, 22 min 2% A, 22.1 min 98% A, 27 min 98% A
AC$CHROMATOGRAPHY: FLOW_RATE 0.3 mL/min
AC$CHROMATOGRAPHY: RETENTION_TIME 7.306 min
AC$CHROMATOGRAPHY: SOLVENT A: Water 0.1% Formic acid, B: Acetonitrile 0.1% Formic acid
MS$FOCUSED_ION: PRECURSOR_M/Z 453.2527
MS$FOCUSED_ION: PRECURSOR_TYPE [M+H]+
MS$DATA_PROCESSING: COMMENT Export with Spectra 1.9.12 MsBackendMassbank 1.7.4
MS$DATA_PROCESSING: WHOLE RMassBank 2.3.1
PK$SPLASH: splash10-0ufu-0900000000-e2d3a25be5a257bc480a
PK$NUM_PEAK: 44
PK$PEAK: m/z int. rel.int.
  77.042 5.3 37
  89.0418 1.7 12
  102.035 1.5 10
  113.0399 3.5 24
  114.0467 2.2 15
  115.057 5.6 39
  116.053 1.6 11
  125.0389 1.8 12
  126.0473 3.2 22
  127.0554 12.2 86
  128.0616 7.2 51
  137.0378 2.3 16
  138.0466 4.8 34
  139.0542 8.1 57
  140.0501 20.6 146
  141.0599 3.6 25
  150.0467 12.4 88
  151.0543 48.3 344
  152.0621 121.3 864
  153.0684 32.3 230
  154.0666 5.1 36
  162.047 3.4 24
  163.0546 42 299
  164.0569 40.2 286
  165.0663 32.1 228
  166.0671 7 49
  167.0712 3.3 23
  168.0682 2.6 18
  176.0611 22.5 160
  177.0668 36.9 262
  178.0741 79 562
  179.0733 23 163
  180.081 19.5 138
  181.0848 3.5 24
  183.1393 2.6 18
  188.0474 7.1 50
  189.0575 14.8 105
  190.0652 140.2 999
  191.0708 29.9 213
  192.0691 18.2 129
  193.0745 2.2 15
  205.0762 67.9 483
  206.0815 16.5 117
  207.09 2 14
//
