ACCESSION: MSBNK-BAFG-CSL25011734705
RECORD_TITLE: Solway Green G; LC-ESI-QTOF; MS2; 30 V
DATE: 2025.01.17
AUTHORS: Ole Lessmann; Kevin S. Jewell; Björn Ehlig; Arne Wick
LICENSE: dl-de/by-2-0
COPYRIGHT: Copyright 2025 Federal Institute of Hydrology, Koblenz, Germany
COMMENT: CONFIDENCE Reference Standard (Level 1)
COMMENT: Chromatography method: dx.doi.org/10.1016/j.chroma.2015.11.014
CH$NAME: Solway Green G
CH$FORMULA: C28H22N2O8S2
CH$EXACT_MASS: 578.0818
CH$SMILES: CC1=CC(=C(C=C1)NC2=C3C(=C(C=C2)NC4=C(C=C(C=C4)C)S(=O)(=O)O)C(=O)C5=CC=CC=C5C3=O)S(=O)(=O)O
CH$IUPAC: InChI=1S/C28H22N2O8S2/c1-15-7-9-19(23(13-15)39(33,34)35)29-21-11-12-22(30-20-10-8-16(2)14-24(20)40(36,37)38)26-25(21)27(31)17-5-3-4-6-18(17)28(26)32/h3-14,29-30H,1-2H3,(H,33,34,35)(H,36,37,38)
CH$LINK: CAS 3443-90-1
CH$LINK: INCHIKEY BGBDMEPBLWJCHI-UHFFFAOYSA-N
AC$INSTRUMENT: TripleTOF 6600 SCIEX
AC$INSTRUMENT_TYPE: LC-ESI-QTOF
AC$MASS_SPECTROMETRY: MS_TYPE MS2
AC$MASS_SPECTROMETRY: ION_MODE NEGATIVE
AC$MASS_SPECTROMETRY: COLLISION_ENERGY 30
AC$MASS_SPECTROMETRY: FRAGMENTATION_MODE CID
AC$MASS_SPECTROMETRY: IONIZATION ESI
AC$CHROMATOGRAPHY: COLUMN_NAME Zorbax Eclipse Plus C18 2.1 mm x 150 mm, 3.5 um, Agilent
AC$CHROMATOGRAPHY: COLUMN_TEMPERATURE 40 °C
AC$CHROMATOGRAPHY: FLOW_GRADIENT 0 min min 98% A, 1 min 98% A, 2 min 80% A, 16.5 min 2% A, 22 min 2% A, 22.1 min 98% A, 27 min 98% A
AC$CHROMATOGRAPHY: FLOW_RATE 0.3 mL/min
AC$CHROMATOGRAPHY: RETENTION_TIME 10.62 min
AC$CHROMATOGRAPHY: SOLVENT A: Water 0.1% Formic acid, B: Acetonitrile 0.1% Formic acid
MS$FOCUSED_ION: PRECURSOR_M/Z 288.0336
MS$FOCUSED_ION: PRECURSOR_TYPE [M-2H]2-
MS$DATA_PROCESSING: COMMENT Export with pycsl 0.1.0.dev1 and CSL 25.0
PK$SPLASH: splash10-004r-9151400000-a47f4f0c6a3e0c2f0006
PK$NUM_PEAK: 44
PK$PEAK: m/z int. rel.int.
  79.9568 198.2465 999
  80.9642 8.2001 41
  121.0504 1.4402 7
  132.0433 1.0178 5
  170.0035 7.1793 36
  184.0084 2.0508 10
  185.0136 14.7195 74
  186.0222 13.1513 66
  196.0048 1.135 5
  288.0331 112.5607 567
  288.5348 3.0199 15
  299.0942 4.0482 20
  300.103 2.6203 13
  310.086 14.4162 72
  311.093 1.0807 5
  315.0919 1.0715 5
  324.0896 1.5997 8
  325.0974 1.387 6
  326.0823 1.0482 5
  339.1183 1.034 5
  379.0493 2.9434 14
  385.1302 1.9119 9
  387.1443 5.0752 25
  390.0366 1.7882 9
  397.1322 1.284 6
  398.1426 1.1274 5
  399.1487 3.6417 18
  401.13 2.9675 14
  413.1323 1.5279 7
  414.1348 6.6704 33
  415.1423 30.1718 152
  416.1499 9.9583 50
  431.1432 2.0534 10
  432.1424 2.3856 12
  439.1112 1.7488 8
  467.1058 11.101 55
  478.0922 1.3091 6
  479.1117 1.9142 9
  481.0875 1.4533 7
  483.0988 1.9114 9
  495.0997 18.7362 94
  496.106 7.357 37
  511.0938 3.6147 18
  512.1033 1.196 6
//
