ACCESSION: MSBNK-BAFG-CSL23102517911
RECORD_TITLE: Omethoate; LC-ESI-QTOF; MS2; 40 V
DATE: 2023.10.25
AUTHORS: Kevin S. Jewell; Björn Ehlig; Arne Wick
LICENSE: dl-de/by-2-0
COPYRIGHT: Copyright 2023 Federal Institute of Hydrology, Koblenz, Germany
COMMENT: CONFIDENCE Reference Standard (Level 1)
COMMENT: Chromatography method: dx.doi.org/10.1016/j.chroma.2015.11.014
COMMENT: Acquisition method: 10.1002/rcm.8541
CH$NAME: Omethoate
CH$COMPOUND_CLASS: Insecticide; Transformation_product
CH$FORMULA: C5H12NO4PS
CH$EXACT_MASS: 213.0225
CH$SMILES: CNC(=O)CSP(=O)(OC)OC
CH$IUPAC: InChI=1S/C5H12NO4PS/c1-6-5(7)4-12-11(8,9-2)10-3/h4H2,1-3H3,(H,6,7)
CH$LINK: CAS 1113-02-6
CH$LINK: INCHIKEY PZXOQEXFMJCDPG-UHFFFAOYSA-N
AC$INSTRUMENT: TripleTOF 6600 SCIEX
AC$INSTRUMENT_TYPE: LC-ESI-QTOF
AC$MASS_SPECTROMETRY: MS_TYPE MS2
AC$MASS_SPECTROMETRY: ION_MODE POSITIVE
AC$MASS_SPECTROMETRY: COLLISION_ENERGY 40
AC$MASS_SPECTROMETRY: FRAGMENTATION_MODE CID
AC$MASS_SPECTROMETRY: IONIZATION ESI
AC$CHROMATOGRAPHY: COLUMN_NAME Zorbax Eclipse Plus C18 2.1 mm x 150 mm, 3.5 um, Agilent
AC$CHROMATOGRAPHY: COLUMN_TEMPERATURE 40 °C
AC$CHROMATOGRAPHY: FLOW_GRADIENT 0 min min 98% A, 1 min 98% A, 2 min 80% A, 16.5 min 2% A, 22 min 2% A, 22.1 min 98% A, 27 min 98% A
AC$CHROMATOGRAPHY: FLOW_RATE 0.3 mL/min
AC$CHROMATOGRAPHY: RETENTION_TIME 4.837 min
AC$CHROMATOGRAPHY: SOLVENT A: Water 0.1% Formic acid, B: Acetonitrile 0.1% Formic acid
MS$FOCUSED_ION: PRECURSOR_M/Z 214.0298
MS$FOCUSED_ION: PRECURSOR_TYPE [M+H]+
MS$DATA_PROCESSING: COMMENT Export with Spectra 1.9.12 MsBackendMassbank 1.7.4
MS$DATA_PROCESSING: WHOLE RMassBank 2.3.1
PK$SPLASH: splash10-0ab9-2900000000-4421e9e78ca5fc6994a2
PK$NUM_PEAK: 14
PK$PEAK: m/z int. rel.int.
  42.0329 1.1 19
  44.0484 2.6 45
  44.9785 2 35
  46.9668 0.9 15
  46.9939 2.8 49
  61.0089 1.3 22
  72.0428 1 17
  76.0201 1.8 31
  78.9932 14.6 256
  104.0151 1.4 24
  109.0033 56.8 999
  124.9806 50.1 881
  127.0138 2.3 40
  154.9905 1.8 31
//
