ACCESSION: MSBNK-BAFG-CSL2311096219
RECORD_TITLE: Acridine; LC-ESI-QTOF; MS2; 120 V
DATE: 2023.11.09
AUTHORS: Kevin S. Jewell; Björn Ehlig; Arne Wick
LICENSE: dl-de/by-2-0
COPYRIGHT: Copyright 2023 Federal Institute of Hydrology, Koblenz, Germany
COMMENT: CONFIDENCE Reference Standard (Level 1)
COMMENT: Chromatography method: dx.doi.org/10.1016/j.chroma.2015.11.014
COMMENT: Acquisition method: 10.1002/rcm.8541
CH$NAME: Acridine
CH$COMPOUND_CLASS: Industrial_process
CH$FORMULA: C13H9N
CH$EXACT_MASS: 179.0735
CH$SMILES: c1ccc2nc3ccccc3cc2c1
CH$IUPAC: InChI=1S/C13H9N/c1-3-7-12-10(5-1)9-11-6-2-4-8-13(11)14-12/h1-9H
CH$LINK: CAS 260-94-6
CH$LINK: INCHIKEY DZBUGLKDJFMEHC-UHFFFAOYSA-N
AC$INSTRUMENT: TripleTOF 5600 SCIEX
AC$INSTRUMENT_TYPE: LC-ESI-QTOF
AC$MASS_SPECTROMETRY: MS_TYPE MS2
AC$MASS_SPECTROMETRY: ION_MODE POSITIVE
AC$MASS_SPECTROMETRY: COLLISION_ENERGY 120
AC$MASS_SPECTROMETRY: FRAGMENTATION_MODE CID
AC$MASS_SPECTROMETRY: IONIZATION ESI
AC$CHROMATOGRAPHY: COLUMN_NAME Zorbax Eclipse Plus C18 2.1 mm x 150 mm, 3.5 um, Agilent
AC$CHROMATOGRAPHY: COLUMN_TEMPERATURE 40 °C
AC$CHROMATOGRAPHY: FLOW_GRADIENT 0 min min 98% A, 1 min 98% A, 2 min 80% A, 16.5 min 2% A, 22 min 2% A, 22.1 min 98% A, 27 min 98% A
AC$CHROMATOGRAPHY: FLOW_RATE 0.3 mL/min
AC$CHROMATOGRAPHY: RETENTION_TIME 5.776 min
AC$CHROMATOGRAPHY: SOLVENT A: Water 0.1% Formic acid, B: Acetonitrile 0.1% Formic acid
MS$FOCUSED_ION: PRECURSOR_M/Z 180.0808
MS$FOCUSED_ION: PRECURSOR_TYPE [M+H]+
MS$DATA_PROCESSING: COMMENT Export with Spectra 1.9.12 MsBackendMassbank 1.7.4
MS$DATA_PROCESSING: WHOLE RMassBank 2.3.1
PK$SPLASH: splash10-00di-9100000000-14360c87c78772db8189
PK$NUM_PEAK: 28
PK$PEAK: m/z int. rel.int.
  52.0233 1.2 15
  60.0049 1 12
  73.011 14.1 178
  74.0194 78.9 999
  74.054 1.2 15
  75.0265 19.4 245
  76.0219 3 37
  76.034 2.6 32
  77.0417 2.4 30
  84.0009 1.3 16
  85.0097 15.8 200
  86.018 16.8 212
  87.0247 4.4 55
  89.0411 1.5 18
  97.0087 6.6 83
  98.0169 30.6 387
  99.0117 1.8 22
  99.0226 4.4 55
  100.0267 1.5 18
  109.0083 5.6 70
  110.0159 5 63
  111.0222 1.2 15
  121.0088 1.4 17
  122.016 4.4 55
  123.0203 1.6 20
  126.0478 0.9 11
  149.04 1 12
  150.0473 3.1 39
//
