ACCESSION: MSBNK-BAFG-CSL23103014707
RECORD_TITLE: 2-Propinyl-triphenylphosphonium; LC-ESI-QTOF; MS2; 70 V
DATE: 2023.10.30
AUTHORS: Kevin S. Jewell; Björn Ehlig; Arne Wick
LICENSE: dl-de/by-2-0
COPYRIGHT: Copyright 2023 Federal Institute of Hydrology, Koblenz, Germany
COMMENT: CONFIDENCE Reference Standard (Level 1)
COMMENT: Chromatography method: dx.doi.org/10.1016/j.chroma.2015.11.014
COMMENT: Acquisition method: 10.1002/rcm.8541
CH$NAME: 2-Propinyl-triphenylphosphonium
CH$FORMULA: [C21H18P]+
CH$EXACT_MASS: 301.1141
CH$SMILES: C#CC[P+](C1=CC=CC=C1)(C2=CC=CC=C2)C3=CC=CC=C3
CH$IUPAC: InChI=1S/C21H18P/c1-2-18-22(19-12-6-3-7-13-19,20-14-8-4-9-15-20)21-16-10-5-11-17-21/h1,3-17H,18H2/q+1
CH$LINK: CAS 2091-46-5
CH$LINK: INCHIKEY GNEAAXYJEIDVFX-UHFFFAOYSA-N
AC$INSTRUMENT: TripleTOF 6600 SCIEX
AC$INSTRUMENT_TYPE: LC-ESI-QTOF
AC$MASS_SPECTROMETRY: MS_TYPE MS2
AC$MASS_SPECTROMETRY: ION_MODE POSITIVE
AC$MASS_SPECTROMETRY: COLLISION_ENERGY 70
AC$MASS_SPECTROMETRY: FRAGMENTATION_MODE CID
AC$MASS_SPECTROMETRY: IONIZATION ESI
AC$CHROMATOGRAPHY: COLUMN_NAME Zorbax Eclipse Plus C18 2.1 mm x 150 mm, 3.5 um, Agilent
AC$CHROMATOGRAPHY: COLUMN_TEMPERATURE 40 °C
AC$CHROMATOGRAPHY: FLOW_GRADIENT 0 min min 98% A, 1 min 98% A, 2 min 80% A, 16.5 min 2% A, 22 min 2% A, 22.1 min 98% A, 27 min 98% A
AC$CHROMATOGRAPHY: FLOW_RATE 0.3 mL/min
AC$CHROMATOGRAPHY: RETENTION_TIME 7.928 min
AC$CHROMATOGRAPHY: SOLVENT A: Water 0.1% Formic acid, B: Acetonitrile 0.1% Formic acid
MS$FOCUSED_ION: PRECURSOR_M/Z 301.1141
MS$FOCUSED_ION: PRECURSOR_TYPE [M]+
MS$DATA_PROCESSING: COMMENT Export with Spectra 1.9.12 MsBackendMassbank 1.7.4
MS$DATA_PROCESSING: WHOLE RMassBank 2.3.1
PK$SPLASH: splash10-05o0-0910000000-538e33cbd5ae5ab1f8ba
PK$NUM_PEAK: 17
PK$PEAK: m/z int. rel.int.
  77.0356 46.2 68
  103.0503 37.6 55
  107.0008 170.3 252
  108.0082 36.2 53
  115.0506 99.1 146
  121.0164 45.4 67
  145.017 110.5 163
  147.0321 37.9 56
  152.0591 129.9 192
  157.0171 46.9 69
  165.0673 311.8 462
  178.0748 70.1 103
  183.0334 674 999
  189.0667 61.8 91
  191.0825 58.1 86
  207.0331 170.6 252
  220.0402 40.5 60
//
