ACCESSION: MSBNK-BAFG-CSL2310253812
RECORD_TITLE: Benzophenone-3; LC-ESI-QTOF; MS2; 90 V
DATE: 2023.10.25
AUTHORS: Kevin S. Jewell; Björn Ehlig; Arne Wick
LICENSE: dl-de/by-2-0
COPYRIGHT: Copyright 2023 Federal Institute of Hydrology, Koblenz, Germany
COMMENT: CONFIDENCE Reference Standard (Level 1)
COMMENT: Chromatography method: dx.doi.org/10.1016/j.chroma.2015.11.014
COMMENT: Acquisition method: 10.1002/rcm.8541
CH$NAME: Benzophenone-3
CH$COMPOUND_CLASS: Personal_care_product
CH$FORMULA: C14H12O3
CH$EXACT_MASS: 228.0786
CH$SMILES: COc1ccc(c(O)c1)C(=O)c2ccccc2
CH$IUPAC: InChI=1S/C14H12O3/c1-17-11-7-8-12(13(15)9-11)14(16)10-5-3-2-4-6-10/h2-9,15H,1H3
CH$LINK: CAS 131-57-7
CH$LINK: INCHIKEY DXGLGDHPHMLXJC-UHFFFAOYSA-N
AC$INSTRUMENT: TripleTOF 5600 SCIEX
AC$INSTRUMENT_TYPE: LC-ESI-QTOF
AC$MASS_SPECTROMETRY: MS_TYPE MS2
AC$MASS_SPECTROMETRY: ION_MODE POSITIVE
AC$MASS_SPECTROMETRY: COLLISION_ENERGY 90
AC$MASS_SPECTROMETRY: FRAGMENTATION_MODE CID
AC$MASS_SPECTROMETRY: IONIZATION ESI
AC$CHROMATOGRAPHY: COLUMN_NAME Zorbax Eclipse Plus C18 2.1 mm x 150 mm, 3.5 um, Agilent
AC$CHROMATOGRAPHY: COLUMN_TEMPERATURE 40 °C
AC$CHROMATOGRAPHY: FLOW_GRADIENT 0 min min 98% A, 1 min 98% A, 2 min 80% A, 16.5 min 2% A, 22 min 2% A, 22.1 min 98% A, 27 min 98% A
AC$CHROMATOGRAPHY: FLOW_RATE 0.3 mL/min
AC$CHROMATOGRAPHY: RETENTION_TIME 13.504 min
AC$CHROMATOGRAPHY: SOLVENT A: Water 0.1% Formic acid, B: Acetonitrile 0.1% Formic acid
MS$FOCUSED_ION: PRECURSOR_M/Z 229.0859
MS$FOCUSED_ION: PRECURSOR_TYPE [M+H]+
MS$DATA_PROCESSING: COMMENT Export with Spectra 1.9.12 MsBackendMassbank 1.7.4
MS$DATA_PROCESSING: WHOLE RMassBank 2.3.1
PK$SPLASH: splash10-004i-9100000000-a33417b60dbcf1d5c5cb
PK$NUM_PEAK: 22
PK$PEAK: m/z int. rel.int.
  52.0364 11.7 339
  53.0083 1.3 37
  55.0228 0.9 26
  65.043 2.7 78
  69.001 4.8 139
  74.0181 0.6 17
  75.0273 0.6 17
  77.0415 34.4 999
  79.0193 1.3 37
  80.0283 4.6 133
  87.0242 0.9 26
  88.0345 0.9 26
  89.0397 2.3 66
  95.0515 0.7 20
  108.0208 1.4 40
  113.0391 1.8 52
  114.0484 0.6 17
  126.0449 0.6 17
  138.0468 0.8 23
  139.054 6.4 185
  150.0476 1.1 31
  151.0529 0.5 14
//
