ACCESSION: MSBNK-BAFG-CSL23110911838
RECORD_TITLE: Fexofenadinone; LC-ESI-QTOF; MS2; 30 V
DATE: 2023.11.09
AUTHORS: Kevin S. Jewell; Björn Ehlig; Arne Wick
LICENSE: dl-de/by-2-0
COPYRIGHT: Copyright 2023 Federal Institute of Hydrology, Koblenz, Germany
COMMENT: CONFIDENCE Reference Standard (Level 1)
COMMENT: Chromatography method: dx.doi.org/10.1016/j.chroma.2015.11.014
COMMENT: Acquisition method: 10.1002/rcm.8541
CH$NAME: Fexofenadinone
CH$COMPOUND_CLASS: Pharmaceutical
CH$FORMULA: C32H37NO4
CH$EXACT_MASS: 499.2723
CH$SMILES: O=C(C1=CC=C(C(C)(C(O)=O)C)C=C1)CCCN(CCC2)CC2C(C3=CC=CC=C3)(O)C4=CC=CC=C4
CH$IUPAC: InChI=1S/C32H37NO4/c1-31(2,30(35)36)25-19-17-24(18-20-25)29(34)16-10-22-33-21-9-15-28(23-33)32(37,26-11-5-3-6-12-26)27-13-7-4-8-14-27/h3-8,11-14,17-20,28,37H,9-10,15-16,21-23H2,1-2H3,(H,35,36)
CH$LINK: CAS 76811-98-8
CH$LINK: INCHIKEY OQXVWJQUBIBIHZ-UHFFFAOYSA-N
AC$INSTRUMENT: TripleTOF 5600 SCIEX
AC$INSTRUMENT_TYPE: LC-ESI-QTOF
AC$MASS_SPECTROMETRY: MS_TYPE MS2
AC$MASS_SPECTROMETRY: ION_MODE NEGATIVE
AC$MASS_SPECTROMETRY: COLLISION_ENERGY 30
AC$MASS_SPECTROMETRY: FRAGMENTATION_MODE CID
AC$MASS_SPECTROMETRY: IONIZATION ESI
AC$CHROMATOGRAPHY: COLUMN_NAME Zorbax Eclipse Plus C18 2.1 mm x 150 mm, 3.5 um, Agilent
AC$CHROMATOGRAPHY: COLUMN_TEMPERATURE 40 °C
AC$CHROMATOGRAPHY: FLOW_GRADIENT 0 min min 98% A, 1 min 98% A, 2 min 80% A, 16.5 min 2% A, 22 min 2% A, 22.1 min 98% A, 27 min 98% A
AC$CHROMATOGRAPHY: FLOW_RATE 0.3 mL/min
AC$CHROMATOGRAPHY: RETENTION_TIME 8.706 min
AC$CHROMATOGRAPHY: SOLVENT A: Water 0.1% Formic acid, B: Acetonitrile 0.1% Formic acid
MS$FOCUSED_ION: PRECURSOR_M/Z 498.2652
MS$FOCUSED_ION: PRECURSOR_TYPE [M-H]-
MS$DATA_PROCESSING: COMMENT Export with Spectra 1.9.12 MsBackendMassbank 1.7.4
MS$DATA_PROCESSING: WHOLE RMassBank 2.3.1
PK$SPLASH: splash10-004i-0009400000-a5177147d4e601726be4
PK$NUM_PEAK: 7
PK$PEAK: m/z int. rel.int.
  183.0803 0.6558 12
  187.1117 1.0461 19
  300.1983 0.5134 9
  348.2265 0.6438 11
  375.04 0.6217 11
  376.2264 53.8641 999
  454.2723 24.7963 459
//
