ACCESSION: MSBNK-BAFG-CSL25010634345
RECORD_TITLE: Iobitridol; LC-ESI-QTOF; MS2; 70 V
DATE: 2025.01.06
AUTHORS: Ole Lessmann; Kevin S. Jewell; Björn Ehlig; Arne Wick
LICENSE: dl-de/by-2-0
COPYRIGHT: Copyright 2025 Federal Institute of Hydrology, Koblenz, Germany
COMMENT: CONFIDENCE Reference Standard (Level 1)
COMMENT: Chromatography method: dx.doi.org/10.1016/j.chroma.2015.11.014
COMMENT: Acquisition method: 10.1002/rcm.8541
CH$NAME: Iobitridol
CH$COMPOUND_CLASS: Pharmaceutical
CH$FORMULA: C20H28I3N3O9
CH$EXACT_MASS: 834.896
CH$SMILES: CN(CC(O)CO)C(=O)c1c(I)c(NC(=O)C(CO)CO)c(I)c(c1I)C(=O)N(C)CC(O)CO
CH$IUPAC: InChI=1S/C20H28I3N3O9/c1-25(3-10(31)7-29)19(34)12-14(21)13(20(35)26(2)4-11(32)8-30)16(23)17(15(12)22)24-18(33)9(5-27)6-28/h9-11,27-32H,3-8H2,1-2H3,(H,24,33)
CH$LINK: CAS 136949-58-1
CH$LINK: INCHIKEY YLPBXIKWXNRACS-UHFFFAOYSA-N
AC$INSTRUMENT: TripleTOF 6600 SCIEX
AC$INSTRUMENT_TYPE: LC-ESI-QTOF
AC$MASS_SPECTROMETRY: MS_TYPE MS2
AC$MASS_SPECTROMETRY: ION_MODE POSITIVE
AC$MASS_SPECTROMETRY: COLLISION_ENERGY 70
AC$MASS_SPECTROMETRY: FRAGMENTATION_MODE CID
AC$MASS_SPECTROMETRY: IONIZATION ESI
AC$CHROMATOGRAPHY: COLUMN_NAME Zorbax Eclipse Plus C18 2.1 mm x 150 mm, 3.5 um, Agilent
AC$CHROMATOGRAPHY: COLUMN_TEMPERATURE 40 °C
AC$CHROMATOGRAPHY: FLOW_GRADIENT 0 min min 98% A, 1 min 98% A, 2 min 80% A, 16.5 min 2% A, 22 min 2% A, 22.1 min 98% A, 27 min 98% A
AC$CHROMATOGRAPHY: FLOW_RATE 0.3 mL/min
AC$CHROMATOGRAPHY: RETENTION_TIME 4.58 min
AC$CHROMATOGRAPHY: SOLVENT A: Water 0.1% Formic acid, B: Acetonitrile 0.1% Formic acid
MS$FOCUSED_ION: PRECURSOR_M/Z 835.9033
MS$FOCUSED_ION: PRECURSOR_TYPE [M+H]+
MS$DATA_PROCESSING: COMMENT Export with pycsl 0.1.0.dev1 and CSL 24.4
PK$SPLASH: splash10-0udi-0005941000-3fc5cec351f041ce388d
PK$NUM_PEAK: 35
PK$PEAK: m/z int. rel.int.
  218.0522 0.4 58
  296.9187 0.6 88
  303.0925 0.4 58
  317.9601 0.6 88
  321.1073 1.2 176
  325.9339 0.8 117
  326.9417 0.5 73
  339.926 0.5 73
  343.9339 1.8 264
  343.9527 0.7 102
  344.9457 1.0 146
  369.9229 1.5 220
  387.9415 2.5 367
  400.9992 3.7 543
  413.8027 1.0 146
  425.8107 0.6 88
  426.9726 0.8 117
  430.999 0.8 117
  439.7858 2.7 396
  449.0151 0.8 117
  451.8399 0.6 88
  467.8311 1.0 146
  470.8316 0.8 117
  497.7284 0.9 132
  497.832 5.5 808
  499.8427 0.8 117
  500.8818 0.5 73
  515.8055 0.9 132
  515.8487 0.5 73
  528.8572 0.5 73
  554.8861 6.8 999
  584.8798 0.5 73
  584.9144 0.9 132
  602.8806 0.7 102
  602.9184 2.7 396
//