ACCESSION: MSBNK-BAFG-CSL2310309433
RECORD_TITLE: Trifloxystrobin; LC-ESI-QTOF; MS2; 40 V
DATE: 2023.10.30
AUTHORS: Kevin S. Jewell; Björn Ehlig; Arne Wick
LICENSE: dl-de/by-2-0
COPYRIGHT: Copyright 2023 Federal Institute of Hydrology, Koblenz, Germany
COMMENT: CONFIDENCE Reference Standard (Level 1)
COMMENT: Chromatography method: dx.doi.org/10.1016/j.chroma.2015.11.014
COMMENT: Acquisition method: 10.1002/rcm.8541
CH$NAME: Trifloxystrobin
CH$COMPOUND_CLASS: Fungicide
CH$FORMULA: C20H19F3N2O4
CH$EXACT_MASS: 408.1297
CH$SMILES: CC(=NOCC1=CC=CC=C1C(=NOC)C(=O)OC)C2=CC(=CC=C2)C(F)(F)F
CH$IUPAC: InChI=1S/C20H19F3N2O4/c1-13(14-8-6-9-16(11-14)20(21,22)23)24-29-12-15-7-4-5-10-17(15)18(25-28-3)19(26)27-2/h4-11H,12H2,1-3H3
CH$LINK: CAS 141517-21-7
CH$LINK: INCHIKEY ONCZDRURRATYFI-UHFFFAOYSA-N
AC$INSTRUMENT: TripleTOF 5600 SCIEX
AC$INSTRUMENT_TYPE: LC-ESI-QTOF
AC$MASS_SPECTROMETRY: MS_TYPE MS2
AC$MASS_SPECTROMETRY: ION_MODE POSITIVE
AC$MASS_SPECTROMETRY: COLLISION_ENERGY 40
AC$MASS_SPECTROMETRY: FRAGMENTATION_MODE CID
AC$MASS_SPECTROMETRY: IONIZATION ESI
AC$CHROMATOGRAPHY: COLUMN_NAME Zorbax Eclipse Plus C18 2.1 mm x 150 mm, 3.5 um, Agilent
AC$CHROMATOGRAPHY: COLUMN_TEMPERATURE 40 °C
AC$CHROMATOGRAPHY: FLOW_GRADIENT 0 min min 98% A, 1 min 98% A, 2 min 80% A, 16.5 min 2% A, 22 min 2% A, 22.1 min 98% A, 27 min 98% A
AC$CHROMATOGRAPHY: FLOW_RATE 0.3 mL/min
AC$CHROMATOGRAPHY: RETENTION_TIME 15.037 min
AC$CHROMATOGRAPHY: SOLVENT A: Water 0.1% Formic acid, B: Acetonitrile 0.1% Formic acid
MS$FOCUSED_ION: PRECURSOR_M/Z 409.137
MS$FOCUSED_ION: PRECURSOR_TYPE [M+H]+
MS$DATA_PROCESSING: COMMENT Export with Spectra 1.9.12 MsBackendMassbank 1.7.4
MS$DATA_PROCESSING: WHOLE RMassBank 2.3.1
PK$SPLASH: splash10-0019-0900000000-7132c7b38b52d4b5db46
PK$NUM_PEAK: 24
PK$PEAK: m/z int. rel.int.
  89.043 28.5 35
  90.0502 9 11
  91.0579 36.2 44
  95.0326 11.8 14
  103.0567 8.3 10
  105.0727 29.2 36
  116.0515 384.6 475
  117.0595 54.9 67
  118.0669 57.4 70
  119.0513 16.4 20
  130.067 45.7 56
  131.0747 294.1 363
  132.0822 163.1 201
  143.0382 20.5 25
  145.0272 233.7 288
  146.0622 104.9 129
  147.0695 19.3 23
  148.0778 9.6 11
  162.0938 20.5 25
  173.0333 79.1 97
  175.0638 11.2 13
  178.0874 8.7 10
  186.0533 808.5 999
  206.0827 125.3 154
//
