ACCESSION: MSBNK-BAFG-CSL23110914999
RECORD_TITLE: (5-Methoxy-5-oxopentyl)triphenylphosphonium; LC-ESI-QTOF; MS2; 50 V
DATE: 2023.11.09
AUTHORS: Kevin S. Jewell; Björn Ehlig; Arne Wick
LICENSE: dl-de/by-2-0
COPYRIGHT: Copyright 2023 Federal Institute of Hydrology, Koblenz, Germany
COMMENT: CONFIDENCE Reference Standard (Level 1)
COMMENT: Chromatography method: dx.doi.org/10.1016/j.chroma.2015.11.014
COMMENT: Acquisition method: 10.1002/rcm.8541
CH$NAME: (5-Methoxy-5-oxopentyl)triphenylphosphonium
CH$COMPOUND_CLASS: Industrial_process
CH$FORMULA: [C24H26O2P]+
CH$EXACT_MASS: 377.1665
CH$SMILES: COC(=O)CCCC[P+](C1=CC=CC=C1)(C2=CC=CC=C2)C3=CC=CC=C3
CH$IUPAC: InChI=1S/C24H26O2P/c1-26-24(25)19-11-12-20-27(21-13-5-2-6-14-21,22-15-7-3-8-16-22)23-17-9-4-10-18-23/h2-10,13-18H,11-12,19-20H2,1H3/q+1
CH$LINK: CAS 79837-79-9
CH$LINK: INCHIKEY NESMDKFCXPKLCY-UHFFFAOYSA-N
AC$INSTRUMENT: TripleTOF 6600 SCIEX
AC$INSTRUMENT_TYPE: LC-ESI-QTOF
AC$MASS_SPECTROMETRY: MS_TYPE MS2
AC$MASS_SPECTROMETRY: ION_MODE POSITIVE
AC$MASS_SPECTROMETRY: COLLISION_ENERGY 50
AC$MASS_SPECTROMETRY: FRAGMENTATION_MODE CID
AC$MASS_SPECTROMETRY: IONIZATION ESI
AC$CHROMATOGRAPHY: COLUMN_NAME Zorbax Eclipse Plus C18 2.1 mm x 150 mm, 3.5 um, Agilent
AC$CHROMATOGRAPHY: COLUMN_TEMPERATURE 40 °C
AC$CHROMATOGRAPHY: FLOW_GRADIENT 0 min min 98% A, 1 min 98% A, 2 min 80% A, 16.5 min 2% A, 22 min 2% A, 22.1 min 98% A, 27 min 98% A
AC$CHROMATOGRAPHY: FLOW_RATE 0.3 mL/min
AC$CHROMATOGRAPHY: RETENTION_TIME 8.303 min
AC$CHROMATOGRAPHY: SOLVENT A: Water 0.1% Formic acid, B: Acetonitrile 0.1% Formic acid
MS$FOCUSED_ION: PRECURSOR_M/Z 377.1665
MS$FOCUSED_ION: PRECURSOR_TYPE [M]+
MS$DATA_PROCESSING: COMMENT Export with Spectra 1.9.12 MsBackendMassbank 1.7.4
MS$DATA_PROCESSING: WHOLE RMassBank 2.3.1
PK$SPLASH: splash10-01u0-2895000000-da2b60dcb9a20bde3f94
PK$NUM_PEAK: 11
PK$PEAK: m/z int. rel.int.
  55.0586 243.8 170
  73.0686 380.1 266
  107.0068 94 65
  108.0145 370.5 259
  183.0375 1361.6 954
  185.053 351.2 246
  261.0823 561.2 393
  262.0901 648.4 454
  263.0977 525.3 368
  275.0974 645 452
  377.1615 1424.8 999
//
