ACCESSION: MSBNK-BAFG-CSL23103012116
RECORD_TITLE: Propyphenazone; LC-ESI-QTOF; MS2; 110 V
DATE: 2023.10.30
AUTHORS: Kevin S. Jewell; Björn Ehlig; Arne Wick
LICENSE: dl-de/by-2-0
COPYRIGHT: Copyright 2023 Federal Institute of Hydrology, Koblenz, Germany
COMMENT: CONFIDENCE Reference Standard (Level 1)
COMMENT: Chromatography method: dx.doi.org/10.1016/j.chroma.2015.11.014
COMMENT: Acquisition method: 10.1002/rcm.8541
CH$NAME: Propyphenazone
CH$COMPOUND_CLASS: Pharmaceutical
CH$FORMULA: C14H18N2O
CH$EXACT_MASS: 230.1419
CH$SMILES: CC1=C(C(=O)N(N1C)C2=CC=CC=C2)C(C)C
CH$IUPAC: InChI=1S/C14H18N2O/c1-10(2)13-11(3)15(4)16(14(13)17)12-8-6-5-7-9-12/h5-10H,1-4H3
CH$LINK: CAS 479-92-5
CH$LINK: INCHIKEY PXWLVJLKJGVOKE-UHFFFAOYSA-N
AC$INSTRUMENT: TripleTOF 5600 SCIEX
AC$INSTRUMENT_TYPE: LC-ESI-QTOF
AC$MASS_SPECTROMETRY: MS_TYPE MS2
AC$MASS_SPECTROMETRY: ION_MODE POSITIVE
AC$MASS_SPECTROMETRY: COLLISION_ENERGY 110
AC$MASS_SPECTROMETRY: FRAGMENTATION_MODE CID
AC$MASS_SPECTROMETRY: IONIZATION ESI
AC$CHROMATOGRAPHY: COLUMN_NAME Zorbax Eclipse Plus C18 2.1 mm x 150 mm, 3.5 um, Agilent
AC$CHROMATOGRAPHY: COLUMN_TEMPERATURE 40 °C
AC$CHROMATOGRAPHY: FLOW_GRADIENT 0 min min 98% A, 1 min 98% A, 2 min 80% A, 16.5 min 2% A, 22 min 2% A, 22.1 min 98% A, 27 min 98% A
AC$CHROMATOGRAPHY: FLOW_RATE 0.3 mL/min
AC$CHROMATOGRAPHY: RETENTION_TIME 9.545 min
AC$CHROMATOGRAPHY: SOLVENT A: Water 0.1% Formic acid, B: Acetonitrile 0.1% Formic acid
MS$FOCUSED_ION: PRECURSOR_M/Z 231.1492
MS$FOCUSED_ION: PRECURSOR_TYPE [M+H]+
MS$DATA_PROCESSING: COMMENT Export with Spectra 1.9.12 MsBackendMassbank 1.7.4
MS$DATA_PROCESSING: WHOLE RMassBank 2.3.1
PK$SPLASH: splash10-0zfr-9000000000-190ddd1d60c1c07cd38c
PK$NUM_PEAK: 29
PK$PEAK: m/z int. rel.int.
  37.0074 0.8 60
  38.015 0.9 68
  39.0229 3.2 242
  41.027 1.4 105
  41.039 0.7 52
  42.0343 1.4 105
  49.0075 0.7 52
  50.0151 6.5 491
  51.0229 13.2 999
  52.0183 0.7 52
  53.0385 1.1 83
  56.0494 10.9 824
  62.0154 0.5 37
  63.0228 1.8 136
  65.0385 3.1 234
  66.0468 0.5 37
  67.0408 4.9 370
  74.0159 0.7 52
  75.0227 0.8 60
  77.0388 8.6 650
  78.0339 0.4 30
  80.0496 5 378
  81.0572 0.5 37
  82.0658 1.1 83
  89.0388 1.8 136
  91.0538 0.8 60
  93.0581 0.5 37
  94.0647 0.8 60
  115.0538 1.1 83
//
