ACCESSION: MSBNK-BAFG-CSL25011734657
RECORD_TITLE: Reactive Orange; LC-ESI-QTOF; MS2; 130 V
DATE: 2025.01.17
AUTHORS: Ole Lessmann; Kevin S. Jewell; Björn Ehlig; Arne Wick
LICENSE: dl-de/by-2-0
COPYRIGHT: Copyright 2025 Federal Institute of Hydrology, Koblenz, Germany
COMMENT: CONFIDENCE Reference Standard (Level 1)
COMMENT: Chromatography method: dx.doi.org/10.1016/j.chroma.2015.11.014
CH$NAME: Reactive Orange
CH$FORMULA: C20H19N3O11S3
CH$EXACT_MASS: 573.0182
CH$SMILES: CC(=O)NC1=CC2=C(C(=C(C=C2C=C1)S(=O)(=O)O)N=NC3=CC=C(C=C3)S(=O)(=O)CCOS(=O)(=O)O)O
CH$IUPAC: InChI=1S/C20H19N3O11S3/c1-12(24)21-15-3-2-13-10-18(36(28,29)30)19(20(25)17(13)11-15)23-22-14-4-6-16(7-5-14)35(26,27)9-8-34-37(31,32)33/h2-7,10-11,25H,8-9H2,1H3,(H,21,24)(H,28,29,30)(H,31,32,33)
CH$LINK: CAS 109603-48-7
CH$LINK: INCHIKEY INOIOAWTVPHTCJ-UHFFFAOYSA-N
AC$INSTRUMENT: TripleTOF 6600 SCIEX
AC$INSTRUMENT_TYPE: LC-ESI-QTOF
AC$MASS_SPECTROMETRY: MS_TYPE MS2
AC$MASS_SPECTROMETRY: ION_MODE POSITIVE
AC$MASS_SPECTROMETRY: COLLISION_ENERGY 130
AC$MASS_SPECTROMETRY: FRAGMENTATION_MODE CID
AC$MASS_SPECTROMETRY: IONIZATION ESI
AC$CHROMATOGRAPHY: COLUMN_NAME Zorbax Eclipse Plus C18 2.1 mm x 150 mm, 3.5 um, Agilent
AC$CHROMATOGRAPHY: COLUMN_TEMPERATURE 40 °C
AC$CHROMATOGRAPHY: FLOW_GRADIENT 0 min min 98% A, 1 min 98% A, 2 min 80% A, 16.5 min 2% A, 22 min 2% A, 22.1 min 98% A, 27 min 98% A
AC$CHROMATOGRAPHY: FLOW_RATE 0.3 mL/min
AC$CHROMATOGRAPHY: RETENTION_TIME 5.751 min
AC$CHROMATOGRAPHY: SOLVENT A: Water 0.1% Formic acid, B: Acetonitrile 0.1% Formic acid
MS$FOCUSED_ION: PRECURSOR_M/Z 574.0255
MS$FOCUSED_ION: PRECURSOR_TYPE [M+H]+
MS$DATA_PROCESSING: COMMENT Export with pycsl 0.1.0.dev1 and CSL 25.0
PK$SPLASH: splash10-001l-5910000000-8d0a6374337e5e8ae6d1
PK$NUM_PEAK: 72
PK$PEAK: m/z int. rel.int.
  39.0222 1.1 13
  43.0169 2.6 32
  44.9784 2.5 31
  46.9946 2.2 27
  51.0224 2.2 27
  53.0379 13.1 164
  61.0061 0.8 10
  62.0137 1.5 18
  63.0219 3.3 41
  64.0308 1.0 12
  65.0373 8.1 101
  68.0124 3.2 40
  75.0202 1.4 17
  76.0298 1.7 21
  77.0376 11.4 143
  78.0332 1.8 22
  80.0483 16.8 211
  81.0326 78.0 980
  87.0219 1.0 12
  88.0295 8.4 105
  89.0375 12.4 155
  90.0424 1.7 21
  91.0406 3.5 43
  92.0485 4.0 50
  93.0561 3.2 40
  102.0335 2.8 35
  102.0465 0.9 11
  103.0397 4.8 60
  103.0524 1.0 12
  104.0486 18.1 227
  108.0434 17.3 217
  114.0329 23.2 291
  115.0413 45.6 573
  116.0479 10.2 128
  117.0558 3.0 37
  128.0501 2.4 30
  129.0441 17.7 222
  130.047 1.7 21
  130.0624 2.8 35
  131.0594 9.6 120
  141.0437 4.7 59
  142.0512 79.5 999
  143.0585 2.1 26
  150.0471 0.8 10
  151.0539 5.9 74
  152.0587 1.8 22
  163.0519 1.4 17
  169.0387 1.4 17
  170.0452 6.5 81
  176.06 4.0 50
  177.0572 4.1 51
  178.0662 4.0 50
  179.0634 1.8 22
  188.048 2.4 30
  189.0591 1.5 18
  190.065 1.7 21
  192.0647 1.1 13
  203.0587 2.8 35
  204.0789 3.3 41
  205.0749 19.4 243
  206.0812 3.3 41
  215.0576 2.2 27
  216.067 3.1 38
  217.0734 1.5 18
  218.0865 1.0 12
  220.0807 0.8 10
  230.0729 3.2 40
  231.0786 2.3 28
  232.0858 5.9 74
  233.0719 1.4 17
  233.0953 1.2 15
  243.077 1.2 15
//
