ACCESSION: MSBNK-BAFG-CSL23111012106
RECORD_TITLE: Propyphenazone; LC-ESI-QTOF; MS2; 120 V
DATE: 2023.11.10
AUTHORS: Kevin S. Jewell; Björn Ehlig; Arne Wick
LICENSE: dl-de/by-2-0
COPYRIGHT: Copyright 2023 Federal Institute of Hydrology, Koblenz, Germany
COMMENT: CONFIDENCE Reference Standard (Level 1)
COMMENT: Chromatography method: dx.doi.org/10.1016/j.chroma.2015.11.014
COMMENT: Acquisition method: 10.1002/rcm.8541
CH$NAME: Propyphenazone
CH$COMPOUND_CLASS: Pharmaceutical
CH$FORMULA: C14H18N2O
CH$EXACT_MASS: 230.1419
CH$SMILES: CC1=C(C(=O)N(N1C)C2=CC=CC=C2)C(C)C
CH$IUPAC: InChI=1S/C14H18N2O/c1-10(2)13-11(3)15(4)16(14(13)17)12-8-6-5-7-9-12/h5-10H,1-4H3
CH$LINK: CAS 479-92-5
CH$LINK: INCHIKEY PXWLVJLKJGVOKE-UHFFFAOYSA-N
AC$INSTRUMENT: TripleTOF 5600 SCIEX
AC$INSTRUMENT_TYPE: LC-ESI-QTOF
AC$MASS_SPECTROMETRY: MS_TYPE MS2
AC$MASS_SPECTROMETRY: ION_MODE POSITIVE
AC$MASS_SPECTROMETRY: COLLISION_ENERGY 120
AC$MASS_SPECTROMETRY: FRAGMENTATION_MODE CID
AC$MASS_SPECTROMETRY: IONIZATION ESI
AC$CHROMATOGRAPHY: COLUMN_NAME Zorbax Eclipse Plus C18 2.1 mm x 150 mm, 3.5 um, Agilent
AC$CHROMATOGRAPHY: COLUMN_TEMPERATURE 40 °C
AC$CHROMATOGRAPHY: FLOW_GRADIENT 0 min min 98% A, 1 min 98% A, 2 min 80% A, 16.5 min 2% A, 22 min 2% A, 22.1 min 98% A, 27 min 98% A
AC$CHROMATOGRAPHY: FLOW_RATE 0.3 mL/min
AC$CHROMATOGRAPHY: RETENTION_TIME 9.545 min
AC$CHROMATOGRAPHY: SOLVENT A: Water 0.1% Formic acid, B: Acetonitrile 0.1% Formic acid
MS$FOCUSED_ION: PRECURSOR_M/Z 231.1492
MS$FOCUSED_ION: PRECURSOR_TYPE [M+H]+
MS$DATA_PROCESSING: COMMENT Export with Spectra 1.9.12 MsBackendMassbank 1.7.4
MS$DATA_PROCESSING: WHOLE RMassBank 2.3.1
PK$SPLASH: splash10-0udi-9000000000-c3aec7fdc797181e9eca
PK$NUM_PEAK: 32
PK$PEAK: m/z int. rel.int.
  37.0077 1.1 70
  38.0152 0.7 44
  39.0229 3.5 224
  41.0269 1.5 96
  41.0391 0.8 51
  42.0341 1.5 96
  49.0084 1.1 70
  50.0154 8.4 537
  51.0231 15.6 999
  52.0189 1.1 70
  52.0293 0.4 25
  53.0384 1.6 102
  54.0334 0.6 38
  56.0499 9.7 621
  61.0065 0.4 25
  62.0151 0.9 57
  63.023 1.9 121
  65.0388 2.6 166
  67.0416 4.3 275
  74.0154 1.1 70
  75.0236 0.8 51
  77.0389 7.4 473
  78.0349 0.5 32
  79.0422 0.4 25
  80.0495 5 320
  81.0582 0.4 25
  82.0656 1 64
  89.039 1.8 115
  91.0523 0.4 25
  94.0662 0.4 25
  102.0464 0.5 32
  115.0531 0.6 38
//
