ACCESSION: MSBNK-BAFG-CSL23103014301
RECORD_TITLE: Inabenfide; LC-ESI-QTOF; MS2; 100 V
DATE: 2023.10.30
AUTHORS: Kevin S. Jewell; Björn Ehlig; Arne Wick
LICENSE: dl-de/by-2-0
COPYRIGHT: Copyright 2023 Federal Institute of Hydrology, Koblenz, Germany
COMMENT: CONFIDENCE Reference Standard (Level 1)
COMMENT: Chromatography method: dx.doi.org/10.1016/j.chroma.2015.11.014
COMMENT: Acquisition method: 10.1002/rcm.8541
CH$NAME: Inabenfide
CH$FORMULA: C19H15ClN2O2
CH$EXACT_MASS: 338.0822
CH$SMILES: C1=CC=C(C=C1)C(C2=C(C=CC(=C2)Cl)NC(=O)C3=CC=NC=C3)O
CH$IUPAC: InChI=1S/C19H15ClN2O2/c20-15-6-7-17(22-19(24)14-8-10-21-11-9-14)16(12-15)18(23)13-4-2-1-3-5-13/h1-12,18,23H,(H,22,24)
CH$LINK: CAS 82211-24-3
CH$LINK: INCHIKEY PFDCOZXELJAUTR-UHFFFAOYSA-N
AC$INSTRUMENT: TripleTOF 6600 SCIEX
AC$INSTRUMENT_TYPE: LC-ESI-QTOF
AC$MASS_SPECTROMETRY: MS_TYPE MS2
AC$MASS_SPECTROMETRY: ION_MODE NEGATIVE
AC$MASS_SPECTROMETRY: COLLISION_ENERGY 100
AC$MASS_SPECTROMETRY: FRAGMENTATION_MODE CID
AC$MASS_SPECTROMETRY: IONIZATION ESI
AC$CHROMATOGRAPHY: COLUMN_NAME Zorbax Eclipse Plus C18 2.1 mm x 150 mm, 3.5 um, Agilent
AC$CHROMATOGRAPHY: COLUMN_TEMPERATURE 40 °C
AC$CHROMATOGRAPHY: FLOW_GRADIENT 0 min min 98% A, 1 min 98% A, 2 min 80% A, 16.5 min 2% A, 22 min 2% A, 22.1 min 98% A, 27 min 98% A
AC$CHROMATOGRAPHY: FLOW_RATE 0.3 mL/min
AC$CHROMATOGRAPHY: RETENTION_TIME 10.231 min
AC$CHROMATOGRAPHY: SOLVENT A: Water 0.1% Formic acid, B: Acetonitrile 0.1% Formic acid
MS$FOCUSED_ION: PRECURSOR_M/Z 337.0749
MS$FOCUSED_ION: PRECURSOR_TYPE [M-H]-
MS$DATA_PROCESSING: COMMENT Export with Spectra 1.9.12 MsBackendMassbank 1.7.4
MS$DATA_PROCESSING: WHOLE RMassBank 2.3.1
PK$SPLASH: splash10-004i-9000000000-ed6b792f5ba66c72178d
PK$NUM_PEAK: 4
PK$PEAK: m/z int. rel.int.
  34.9683 4.7 257
  41.9969 5.3 290
  49.0067 0.5 27
  78.0322 18.2 999
//
