ACCESSION: MSBNK-BAFG-CSL2310306252
RECORD_TITLE: Clothianidin; LC-ESI-QTOF; MS2; 60 V
DATE: 2023.10.30
AUTHORS: Kevin S. Jewell; Björn Ehlig; Arne Wick
LICENSE: dl-de/by-2-0
COPYRIGHT: Copyright 2023 Federal Institute of Hydrology, Koblenz, Germany
COMMENT: CONFIDENCE Reference Standard (Level 1)
COMMENT: Chromatography method: dx.doi.org/10.1016/j.chroma.2015.11.014
COMMENT: Acquisition method: 10.1002/rcm.8541
CH$NAME: Clothianidin
CH$COMPOUND_CLASS: Insecticide
CH$FORMULA: C6H8ClN5O2S
CH$EXACT_MASS: 249.0087
CH$SMILES: CN=C(NCc1sc(Cl)nc1)N[N+]([O-])=O
CH$IUPAC: InChI=1S/C6H8ClN5O2S/c1-8-6(11-12(13)14)10-3-4-2-9-5(7)15-4/h2H,3H2,1H3,(H2,8,10,11)
CH$LINK: CAS 210880-92-5
CH$LINK: INCHIKEY PGOOBECODWQEAB-UHFFFAOYSA-N
AC$INSTRUMENT: TripleTOF 5600 SCIEX
AC$INSTRUMENT_TYPE: LC-ESI-QTOF
AC$MASS_SPECTROMETRY: MS_TYPE MS2
AC$MASS_SPECTROMETRY: ION_MODE POSITIVE
AC$MASS_SPECTROMETRY: COLLISION_ENERGY 60
AC$MASS_SPECTROMETRY: FRAGMENTATION_MODE CID
AC$MASS_SPECTROMETRY: IONIZATION ESI
AC$CHROMATOGRAPHY: COLUMN_NAME Zorbax Eclipse Plus C18 2.1 mm x 150 mm, 3.5 um, Agilent
AC$CHROMATOGRAPHY: COLUMN_TEMPERATURE 40 °C
AC$CHROMATOGRAPHY: FLOW_GRADIENT 0 min min 98% A, 1 min 98% A, 2 min 80% A, 16.5 min 2% A, 22 min 2% A, 22.1 min 98% A, 27 min 98% A
AC$CHROMATOGRAPHY: FLOW_RATE 0.3 mL/min
AC$CHROMATOGRAPHY: RETENTION_TIME 6.736 min
AC$CHROMATOGRAPHY: SOLVENT A: Water 0.1% Formic acid, B: Acetonitrile 0.1% Formic acid
MS$FOCUSED_ION: PRECURSOR_M/Z 250.016
MS$FOCUSED_ION: PRECURSOR_TYPE [M+H]+
MS$DATA_PROCESSING: COMMENT Export with Spectra 1.9.12 MsBackendMassbank 1.7.4
MS$DATA_PROCESSING: WHOLE RMassBank 2.3.1
PK$SPLASH: splash10-03e9-7900000000-8fcb563d6d5fb1ef1aa2
PK$NUM_PEAK: 20
PK$PEAK: m/z int. rel.int.
  54.0389 1.1 219
  57.0507 0.8 159
  58.9999 0.5 99
  69.0483 0.8 159
  70.9964 2.2 439
  71.0114 0.8 159
  83.992 0.4 79
  86.0063 5 999
  96.0551 2.1 419
  98.0048 0.5 99
  108.0552 0.5 99
  110.0693 3.4 679
  111.0789 1.9 379
  113.0151 5 999
  118.9549 0.6 119
  119.9669 0.6 119
  126.0141 0.4 79
  131.9648 4.2 839
  132.9734 1 199
  146.973 0.5 99
//
