ACCESSION: MSBNK-BAFG-CSL23110927448
RECORD_TITLE: 1,5-Naphthalenediamine; LC-ESI-QTOF; MS2; 60 V
DATE: 2023.11.09
AUTHORS: Kevin S. Jewell; Björn Ehlig; Arne Wick
LICENSE: dl-de/by-2-0
COPYRIGHT: Copyright 2023 Federal Institute of Hydrology, Koblenz, Germany
COMMENT: CONFIDENCE Reference Standard (Level 1)
COMMENT: Chromatography method: dx.doi.org/10.1016/j.chroma.2015.11.014
COMMENT: Acquisition method: 10.1002/rcm.8541
CH$NAME: 1,5-Naphthalenediamine
CH$FORMULA: C10H10N2
CH$EXACT_MASS: 158.0844
CH$SMILES: C1=CC2=C(C=CC=C2N)C(=C1)N
CH$IUPAC: InChI=1S/C10H10N2/c11-9-5-1-3-7-8(9)4-2-6-10(7)12/h1-6H,11-12H2
CH$LINK: CAS 2243-62-1
CH$LINK: INCHIKEY KQSABULTKYLFEV-UHFFFAOYSA-N
AC$INSTRUMENT: TripleTOF X500R SCIEX
AC$INSTRUMENT_TYPE: LC-ESI-QTOF
AC$MASS_SPECTROMETRY: MS_TYPE MS2
AC$MASS_SPECTROMETRY: ION_MODE POSITIVE
AC$MASS_SPECTROMETRY: COLLISION_ENERGY 60
AC$MASS_SPECTROMETRY: FRAGMENTATION_MODE CID
AC$MASS_SPECTROMETRY: IONIZATION ESI
AC$CHROMATOGRAPHY: COLUMN_NAME Zorbax Eclipse Plus C18 2.1 mm x 150 mm, 3.5 um, Agilent
AC$CHROMATOGRAPHY: COLUMN_TEMPERATURE 40 °C
AC$CHROMATOGRAPHY: FLOW_GRADIENT 0 min min 98% A, 1 min 98% A, 2 min 80% A, 16.5 min 2% A, 22 min 2% A, 22.1 min 98% A, 27 min 98% A
AC$CHROMATOGRAPHY: FLOW_RATE 0.3 mL/min
AC$CHROMATOGRAPHY: RETENTION_TIME 2.752 min
AC$CHROMATOGRAPHY: SOLVENT A: Water 0.1% Formic acid, B: Acetonitrile 0.1% Formic acid
MS$FOCUSED_ION: PRECURSOR_M/Z 159.0917
MS$FOCUSED_ION: PRECURSOR_TYPE [M+H]+
MS$DATA_PROCESSING: COMMENT Export with Spectra 1.9.12 MsBackendMassbank 1.7.4
MS$DATA_PROCESSING: WHOLE RMassBank 2.3.1
PK$SPLASH: splash10-014i-2900000000-6ecfac75fb84609d2c7e
PK$NUM_PEAK: 24
PK$PEAK: m/z int. rel.int.
  39.0226 0.2 44
  41.0377 0.2 44
  51.0244 0.2 44
  65.0388 0.5 111
  75.0224 0.2 44
  88.0302 0.3 66
  89.0385 1.4 310
  93.0699 0.2 44
  102.0455 0.2 44
  103.0381 0.2 44
  103.0555 0.6 133
  113.04 0.7 155
  114.0456 1 222
  115.0547 4.5 999
  116.0502 0.1 22
  116.0676 0.2 44
  117.0577 0.1 22
  126.0527 0.1 22
  130.0504 0.2 44
  130.0649 1.6 355
  140.0497 0.6 133
  141.0556 0.3 66
  142.0624 0.2 44
  157.077 0.3 66
//
