ACCESSION: MSBNK-BAFG-CSL25011734580
RECORD_TITLE: Amido Black 10B; LC-ESI-QTOF; MS2; 40 V
DATE: 2025.01.17
AUTHORS: Ole Lessmann; Kevin S. Jewell; Björn Ehlig; Arne Wick
LICENSE: dl-de/by-2-0
COPYRIGHT: Copyright 2025 Federal Institute of Hydrology, Koblenz, Germany
COMMENT: CONFIDENCE Reference Standard (Level 1)
COMMENT: Chromatography method: dx.doi.org/10.1016/j.chroma.2015.11.014
CH$NAME: Amido Black 10B
CH$FORMULA: C22H16N6O9S2
CH$EXACT_MASS: 572.042
CH$SMILES: C1=CC=C(C=C1)N=NC2=C(C3=C(C(=C(C=C3C=C2S(=O)(=O)O)S(=O)(=O)O)N=NC4=CC=C(C=C4)[N+](=O)[O-])N)O
CH$IUPAC: InChI=1S/C22H16N6O9S2/c23-19-18-12(11-17(39(35,36)37)21(22(18)29)27-24-13-4-2-1-3-5-13)10-16(38(32,33)34)20(19)26-25-14-6-8-15(9-7-14)28(30)31/h1-11,29H,23H2,(H,32,33,34)(H,35,36,37)
CH$LINK: CAS 3121-74-2
CH$LINK: INCHIKEY HKJKONMZMPUGHJ-UHFFFAOYSA-N
AC$INSTRUMENT: TripleTOF 6600 SCIEX
AC$INSTRUMENT_TYPE: LC-ESI-QTOF
AC$MASS_SPECTROMETRY: MS_TYPE MS2
AC$MASS_SPECTROMETRY: ION_MODE POSITIVE
AC$MASS_SPECTROMETRY: COLLISION_ENERGY 40
AC$MASS_SPECTROMETRY: FRAGMENTATION_MODE CID
AC$MASS_SPECTROMETRY: IONIZATION ESI
AC$CHROMATOGRAPHY: COLUMN_NAME Zorbax Eclipse Plus C18 2.1 mm x 150 mm, 3.5 um, Agilent
AC$CHROMATOGRAPHY: COLUMN_TEMPERATURE 40 °C
AC$CHROMATOGRAPHY: FLOW_GRADIENT 0 min min 98% A, 1 min 98% A, 2 min 80% A, 16.5 min 2% A, 22 min 2% A, 22.1 min 98% A, 27 min 98% A
AC$CHROMATOGRAPHY: FLOW_RATE 0.3 mL/min
AC$CHROMATOGRAPHY: RETENTION_TIME 9.552 min
AC$CHROMATOGRAPHY: SOLVENT A: Water 0.1% Formic acid, B: Acetonitrile 0.1% Formic acid
MS$FOCUSED_ION: PRECURSOR_M/Z 573.0493
MS$FOCUSED_ION: PRECURSOR_TYPE [M+H]+
MS$DATA_PROCESSING: COMMENT Export with pycsl 0.1.0.dev1 and CSL 25.0
PK$SPLASH: splash10-00di-3004390000-6022698d12e758a28751
PK$NUM_PEAK: 46
PK$PEAK: m/z int. rel.int.
  65.0382 10.4 19
  92.0492 109.5 209
  93.0568 137.1 262
  108.0435 7.6 14
  122.0247 7.5 14
  150.0282 22.8 43
  201.0294 10.5 20
  260.0787 13.8 26
  261.0909 7.8 14
  271.0611 5.6 10
  277.0005 6.4 12
  301.0575 19.7 37
  306.0778 7.3 13
  316.0441 8.8 16
  317.0529 49.1 93
  335.1097 5.3 10
  341.0469 24.4 46
  355.0461 7.3 13
  362.1041 12.6 24
  363.1105 14.8 28
  364.1171 11.3 21
  382.0219 47.5 90
  391.0942 7.1 13
  392.1036 8.3 15
  398.0191 86.5 165
  399.0227 40.7 77
  400.0309 16.6 31
  402.9777 32.3 61
  409.1048 8.7 16
  411.1191 5.8 11
  426.0665 11.8 22
  427.0967 34.8 66
  429.9935 9.6 18
  444.0785 33.9 64
  445.0834 23.8 45
  448.0014 32.6 62
  450.9984 10.7 20
  456.0627 12.0 22
  473.0629 22.1 42
  474.0664 11.1 21
  479.9854 6.6 12
  490.0675 6.8 13
  491.0735 26.9 51
  537.0296 9.3 17
  555.0379 192.5 368
  573.049 521.9 999
//
