ACCESSION: MSBNK-BAFG-CSL2310264826
RECORD_TITLE: Nitenpyram; LC-ESI-QTOF; MS2; 80 V
DATE: 2023.10.26
AUTHORS: Kevin S. Jewell; Björn Ehlig; Arne Wick
LICENSE: dl-de/by-2-0
COPYRIGHT: Copyright 2023 Federal Institute of Hydrology, Koblenz, Germany
COMMENT: CONFIDENCE Reference Standard (Level 1)
COMMENT: Chromatography method: dx.doi.org/10.1016/j.chroma.2015.11.014
COMMENT: Acquisition method: 10.1002/rcm.8541
CH$NAME: Nitenpyram
CH$COMPOUND_CLASS: Pharmaceutical; Insecticide
CH$FORMULA: C11H15ClN4O2
CH$EXACT_MASS: 270.0884
CH$SMILES: CCN(Cc1ccc(Cl)nc1)\C(NC)=C\[N+]([O-])=O
CH$IUPAC: InChI=1S/C11H15ClN4O2/c1-3-15(11(13-2)8-16(17)18)7-9-4-5-10(12)14-6-9/h4-6,8,13H,3,7H2,1-2H3/b11-8+
CH$LINK: CAS 150824-47-8
CH$LINK: INCHIKEY CFRPSFYHXJZSBI-DHZHZOJOSA-N
AC$INSTRUMENT: TripleTOF 5600 SCIEX
AC$INSTRUMENT_TYPE: LC-ESI-QTOF
AC$MASS_SPECTROMETRY: MS_TYPE MS2
AC$MASS_SPECTROMETRY: ION_MODE POSITIVE
AC$MASS_SPECTROMETRY: COLLISION_ENERGY 80
AC$MASS_SPECTROMETRY: FRAGMENTATION_MODE CID
AC$MASS_SPECTROMETRY: IONIZATION ESI
AC$CHROMATOGRAPHY: COLUMN_NAME Zorbax Eclipse Plus C18 2.1 mm x 150 mm, 3.5 um, Agilent
AC$CHROMATOGRAPHY: COLUMN_TEMPERATURE 40 °C
AC$CHROMATOGRAPHY: FLOW_GRADIENT 0 min min 98% A, 1 min 98% A, 2 min 80% A, 16.5 min 2% A, 22 min 2% A, 22.1 min 98% A, 27 min 98% A
AC$CHROMATOGRAPHY: FLOW_RATE 0.3 mL/min
AC$CHROMATOGRAPHY: RETENTION_TIME 5.386 min
AC$CHROMATOGRAPHY: SOLVENT A: Water 0.1% Formic acid, B: Acetonitrile 0.1% Formic acid
MS$FOCUSED_ION: PRECURSOR_M/Z 271.0956
MS$FOCUSED_ION: PRECURSOR_TYPE [M+H]+
MS$DATA_PROCESSING: COMMENT Export with Spectra 1.9.12 MsBackendMassbank 1.7.4
MS$DATA_PROCESSING: WHOLE RMassBank 2.3.1
PK$SPLASH: splash10-0a4i-9300000000-e6feaf04e779fd33f790
PK$NUM_PEAK: 43
PK$PEAK: m/z int. rel.int.
  55.0363 0.5 17
  56.0558 28.5 999
  57.0489 0.6 21
  57.0623 0.5 17
  58.0691 0.8 28
  64.0337 0.4 14
  65.0428 0.6 21
  72.9872 10.6 371
  73.0135 0.4 14
  73.0296 0.5 17
  75.0258 0.4 14
  76.0214 0.7 24
  77.0422 1.2 42
  78.0359 1.6 56
  84.984 0.5 17
  89.0417 0.5 17
  90.0354 7 245
  91.0438 3.2 112
  92.0514 0.8 28
  99.0006 8.8 308
  102.0342 2.4 84
  104.0499 0.7 24
  106.0624 0.4 14
  111.9929 1.1 38
  114.0099 0.6 21
  116.0496 0.9 31
  117.044 0.7 24
  117.0584 1.3 45
  118.0525 0.8 28
  119.0599 0.5 17
  126.01 6.9 241
  127.0171 0.5 17
  129.0456 0.5 17
  131.06 1.4 49
  132.0697 0.6 21
  138.0094 0.7 24
  139.0051 0.9 31
  144.0551 0.5 17
  145.0683 0.8 28
  151.0194 0.6 21
  152.0196 0.6 21
  165.021 0.7 24
  180.0308 0.5 17
//
