ACCESSION: MSBNK-BAFG-CSL23102617576
RECORD_TITLE: Cocaine; LC-ESI-QTOF; MS2; 80 V
DATE: 2023.10.26
AUTHORS: Kevin S. Jewell; Björn Ehlig; Arne Wick
LICENSE: dl-de/by-2-0
COPYRIGHT: Copyright 2023 Federal Institute of Hydrology, Koblenz, Germany
COMMENT: CONFIDENCE Reference Standard (Level 1)
COMMENT: Chromatography method: dx.doi.org/10.1016/j.chroma.2015.11.014
COMMENT: Acquisition method: 10.1002/rcm.8541
CH$NAME: Cocaine
CH$COMPOUND_CLASS: Pharmaceutical
CH$FORMULA: C17H21NO4
CH$EXACT_MASS: 303.1471
CH$SMILES: CN1C2CCC1C(C(C2)OC(=O)C3=CC=CC=C3)C(=O)OC
CH$IUPAC: InChI=1S/C17H21NO4/c1-18-12-8-9-13(18)15(17(20)21-2)14(10-12)22-16(19)11-6-4-3-5-7-11/h3-7,12-15H,8-10H2,1-2H3
CH$LINK: CAS 50-36-2
CH$LINK: INCHIKEY ZPUCINDJVBIVPJ-UHFFFAOYSA-N
AC$INSTRUMENT: TripleTOF 6600 SCIEX
AC$INSTRUMENT_TYPE: LC-ESI-QTOF
AC$MASS_SPECTROMETRY: MS_TYPE MS2
AC$MASS_SPECTROMETRY: ION_MODE POSITIVE
AC$MASS_SPECTROMETRY: COLLISION_ENERGY 80
AC$MASS_SPECTROMETRY: FRAGMENTATION_MODE CID
AC$MASS_SPECTROMETRY: IONIZATION ESI
AC$CHROMATOGRAPHY: COLUMN_NAME Zorbax Eclipse Plus C18 2.1 mm x 150 mm, 3.5 um, Agilent
AC$CHROMATOGRAPHY: COLUMN_TEMPERATURE 40 °C
AC$CHROMATOGRAPHY: FLOW_GRADIENT 0 min min 98% A, 1 min 98% A, 2 min 80% A, 16.5 min 2% A, 22 min 2% A, 22.1 min 98% A, 27 min 98% A
AC$CHROMATOGRAPHY: FLOW_RATE 0.3 mL/min
AC$CHROMATOGRAPHY: RETENTION_TIME 6.407 min
AC$CHROMATOGRAPHY: SOLVENT A: Water 0.1% Formic acid, B: Acetonitrile 0.1% Formic acid
MS$FOCUSED_ION: PRECURSOR_M/Z 304.1543
MS$FOCUSED_ION: PRECURSOR_TYPE [M+H]+
MS$DATA_PROCESSING: COMMENT Export with Spectra 1.9.12 MsBackendMassbank 1.7.4
MS$DATA_PROCESSING: WHOLE RMassBank 2.3.1
PK$SPLASH: splash10-004i-9000000000-e365ee22773cb45a0274
PK$NUM_PEAK: 18
PK$PEAK: m/z int. rel.int.
  39.0229 0.7 37
  41.0385 0.5 26
  42.0336 0.6 31
  50.0149 1.3 69
  51.0227 4.2 223
  53.0388 0.4 21
  65.0385 2.7 143
  67.0421 2.4 127
  67.0531 0.5 26
  68.0492 2.2 116
  77.0385 18.8 999
  79.0537 0.8 42
  80.0492 0.7 37
  82.0649 6.1 324
  83.0728 0.5 26
  91.0534 2.9 154
  94.0644 2.5 132
  105.0325 1.1 58
//
