ACCESSION: MSBNK-BAFG-CSL23102616363
RECORD_TITLE: Amitriptyline; LC-ESI-QTOF; MS2; 30 V
DATE: 2023.10.26
AUTHORS: Kevin S. Jewell; Björn Ehlig; Arne Wick
LICENSE: dl-de/by-2-0
COPYRIGHT: Copyright 2023 Federal Institute of Hydrology, Koblenz, Germany
COMMENT: CONFIDENCE Reference Standard (Level 1)
COMMENT: Chromatography method: dx.doi.org/10.1016/j.chroma.2015.11.014
COMMENT: Acquisition method: 10.1002/rcm.8541
CH$NAME: Amitriptyline
CH$COMPOUND_CLASS: Pharmaceutical
CH$FORMULA: C20H23N
CH$EXACT_MASS: 277.183
CH$SMILES: CN(C)CCC=C1C2=CC=CC=C2CCC3=CC=CC=C31
CH$IUPAC: InChI=1S/C20H23N/c1-21(2)15-7-12-20-18-10-5-3-8-16(18)13-14-17-9-4-6-11-19(17)20/h3-6,8-12H,7,13-15H2,1-2H3
CH$LINK: CAS 50-48-6
CH$LINK: INCHIKEY KRMDCWKBEZIMAB-UHFFFAOYSA-N
AC$INSTRUMENT: TripleTOF 6600 SCIEX
AC$INSTRUMENT_TYPE: LC-ESI-QTOF
AC$MASS_SPECTROMETRY: MS_TYPE MS2
AC$MASS_SPECTROMETRY: ION_MODE POSITIVE
AC$MASS_SPECTROMETRY: COLLISION_ENERGY 30
AC$MASS_SPECTROMETRY: FRAGMENTATION_MODE CID
AC$MASS_SPECTROMETRY: IONIZATION ESI
AC$CHROMATOGRAPHY: COLUMN_NAME Zorbax Eclipse Plus C18 2.1 mm x 150 mm, 3.5 um, Agilent
AC$CHROMATOGRAPHY: COLUMN_TEMPERATURE 40 °C
AC$CHROMATOGRAPHY: FLOW_GRADIENT 0 min min 98% A, 1 min 98% A, 2 min 80% A, 16.5 min 2% A, 22 min 2% A, 22.1 min 98% A, 27 min 98% A
AC$CHROMATOGRAPHY: FLOW_RATE 0.3 mL/min
AC$CHROMATOGRAPHY: RETENTION_TIME 8.708 min
AC$CHROMATOGRAPHY: SOLVENT A: Water 0.1% Formic acid, B: Acetonitrile 0.1% Formic acid
MS$FOCUSED_ION: PRECURSOR_M/Z 278.1903
MS$FOCUSED_ION: PRECURSOR_TYPE [M+H]+
MS$DATA_PROCESSING: COMMENT Export with Spectra 1.9.12 MsBackendMassbank 1.7.4
MS$DATA_PROCESSING: WHOLE RMassBank 2.3.1
PK$SPLASH: splash10-05nf-2980000000-dbd60db6fa27120b62dd
PK$NUM_PEAK: 26
PK$PEAK: m/z int. rel.int.
  58.0652 51.2 43
  84.081 174.3 147
  85.0887 11.8 9
  91.0546 786 665
  103.0539 14.1 11
  105.0703 737.5 624
  115.0541 36.7 31
  117.0703 741.5 627
  129.0699 114.6 97
  141.0697 43.6 36
  155.0858 291.1 246
  178.0781 145.9 123
  179.0859 177.8 150
  190.078 12.9 10
  191.0862 741.7 627
  192.0935 48.7 41
  193.1012 87.7 74
  203.086 88 74
  204.0938 133.8 113
  205.1017 384.3 325
  207.117 43.9 37
  217.1014 20.4 17
  218.1099 483.5 409
  231.1175 37.6 31
  233.1336 1180.2 999
  278.1915 514.5 435
//
