ACCESSION: MSBNK-BAFG-CSL2311099284
RECORD_TITLE: Drometrizole; LC-ESI-QTOF; MS2; 90 V
DATE: 2023.11.09
AUTHORS: Kevin S. Jewell; Björn Ehlig; Arne Wick
LICENSE: dl-de/by-2-0
COPYRIGHT: Copyright 2023 Federal Institute of Hydrology, Koblenz, Germany
COMMENT: CONFIDENCE Reference Standard (Level 1)
COMMENT: Chromatography method: dx.doi.org/10.1016/j.chroma.2015.11.014
COMMENT: Acquisition method: 10.1002/rcm.8541
CH$NAME: Drometrizole
CH$COMPOUND_CLASS: Industrial_process
CH$FORMULA: C13H11N3O
CH$EXACT_MASS: 225.0902
CH$SMILES: CC1=CC(=C(C=C1)O)N2N=C3C=CC=CC3=N2
CH$IUPAC: InChI=1S/C13H11N3O/c1-9-6-7-13(17)12(8-9)16-14-10-4-2-3-5-11(10)15-16/h2-8,17H,1H3
CH$LINK: CAS 2440-22-4
CH$LINK: INCHIKEY MCPKSFINULVDNX-UHFFFAOYSA-N
AC$INSTRUMENT: TripleTOF 5600 SCIEX
AC$INSTRUMENT_TYPE: LC-ESI-QTOF
AC$MASS_SPECTROMETRY: MS_TYPE MS2
AC$MASS_SPECTROMETRY: ION_MODE POSITIVE
AC$MASS_SPECTROMETRY: COLLISION_ENERGY 90
AC$MASS_SPECTROMETRY: FRAGMENTATION_MODE CID
AC$MASS_SPECTROMETRY: IONIZATION ESI
AC$CHROMATOGRAPHY: COLUMN_NAME Zorbax Eclipse Plus C18 2.1 mm x 150 mm, 3.5 um, Agilent
AC$CHROMATOGRAPHY: COLUMN_TEMPERATURE 40 °C
AC$CHROMATOGRAPHY: FLOW_GRADIENT 0 min min 98% A, 1 min 98% A, 2 min 80% A, 16.5 min 2% A, 22 min 2% A, 22.1 min 98% A, 27 min 98% A
AC$CHROMATOGRAPHY: FLOW_RATE 0.3 mL/min
AC$CHROMATOGRAPHY: RETENTION_TIME 15.201 min
AC$CHROMATOGRAPHY: SOLVENT A: Water 0.1% Formic acid, B: Acetonitrile 0.1% Formic acid
MS$FOCUSED_ION: PRECURSOR_M/Z 226.0975
MS$FOCUSED_ION: PRECURSOR_TYPE [M+H]+
MS$DATA_PROCESSING: COMMENT Export with Spectra 1.9.12 MsBackendMassbank 1.7.4
MS$DATA_PROCESSING: WHOLE RMassBank 2.3.1
PK$SPLASH: splash10-004i-9400000000-8f90719aea1bf5ef6d8c
PK$NUM_PEAK: 28
PK$PEAK: m/z int. rel.int.
  65.0454 5.4 275
  74.0202 0.7 35
  75.0279 1.9 96
  76.034 0.7 35
  77.0444 19.6 999
  78.0393 4.4 224
  79.0472 1.5 76
  79.0609 0.4 20
  80.0574 0.7 35
  89.0434 0.7 35
  93.0571 0.4 20
  101.0411 1.1 56
  102.038 0.5 25
  102.0484 1.4 71
  105.0467 4.2 214
  115.0553 1 50
  126.0489 2 101
  127.0568 2.2 112
  128.0553 1.1 56
  139.0563 0.7 35
  150.0457 1.2 61
  151.0584 0.6 30
  152.0614 0.7 35
  153.0574 0.9 45
  154.0647 0.4 20
  164.0519 0.6 30
  166.0674 1 50
  167.0718 0.6 30
//
