ACCESSION: MSBNK-BAFG-CSL2310309092
RECORD_TITLE: Norfloxacin; LC-ESI-QTOF; MS2; 40 V
DATE: 2023.10.30
AUTHORS: Kevin S. Jewell; Björn Ehlig; Arne Wick
LICENSE: dl-de/by-2-0
COPYRIGHT: Copyright 2023 Federal Institute of Hydrology, Koblenz, Germany
COMMENT: CONFIDENCE Reference Standard (Level 1)
COMMENT: Chromatography method: dx.doi.org/10.1016/j.chroma.2015.11.014
COMMENT: Acquisition method: 10.1002/rcm.8541
CH$NAME: Norfloxacin
CH$COMPOUND_CLASS: Antimicrobial; Pharmaceutical
CH$FORMULA: C16H18FN3O3
CH$EXACT_MASS: 319.1332
CH$SMILES: CCN1C=C(C(=O)C2=CC(=C(C=C21)N3CCNCC3)F)C(=O)O
CH$IUPAC: InChI=1S/C16H18FN3O3/c1-2-19-9-11(16(22)23)15(21)10-7-12(17)14(8-13(10)19)20-5-3-18-4-6-20/h7-9,18H,2-6H2,1H3,(H,22,23)
CH$LINK: CAS 70458-96-7
CH$LINK: INCHIKEY OGJPXUAPXNRGGI-UHFFFAOYSA-N
AC$INSTRUMENT: TripleTOF 5600 SCIEX
AC$INSTRUMENT_TYPE: LC-ESI-QTOF
AC$MASS_SPECTROMETRY: MS_TYPE MS2
AC$MASS_SPECTROMETRY: ION_MODE POSITIVE
AC$MASS_SPECTROMETRY: COLLISION_ENERGY 40
AC$MASS_SPECTROMETRY: FRAGMENTATION_MODE CID
AC$MASS_SPECTROMETRY: IONIZATION ESI
AC$CHROMATOGRAPHY: COLUMN_NAME Zorbax Eclipse Plus C18 2.1 mm x 150 mm, 3.5 um, Agilent
AC$CHROMATOGRAPHY: COLUMN_TEMPERATURE 40 °C
AC$CHROMATOGRAPHY: FLOW_GRADIENT 0 min min 98% A, 1 min 98% A, 2 min 80% A, 16.5 min 2% A, 22 min 2% A, 22.1 min 98% A, 27 min 98% A
AC$CHROMATOGRAPHY: FLOW_RATE 0.3 mL/min
AC$CHROMATOGRAPHY: RETENTION_TIME 5.167 min
AC$CHROMATOGRAPHY: SOLVENT A: Water 0.1% Formic acid, B: Acetonitrile 0.1% Formic acid
MS$FOCUSED_ION: PRECURSOR_M/Z 320.1405
MS$FOCUSED_ION: PRECURSOR_TYPE [M+H]+
MS$DATA_PROCESSING: COMMENT Export with Spectra 1.9.12 MsBackendMassbank 1.7.4
MS$DATA_PROCESSING: WHOLE RMassBank 2.3.1
PK$SPLASH: splash10-0ue9-0096000000-bbc66e0d0b7ef0c039f4
PK$NUM_PEAK: 31
PK$PEAK: m/z int. rel.int.
  176.0765 1.9 20
  185.0752 1.5 16
  187.0683 1 11
  189.0821 2.1 23
  191.0624 2.1 23
  198.0696 0.9 9
  198.0978 1.1 12
  203.0603 4.7 51
  204.0707 2.2 24
  204.1055 5.8 63
  205.0759 8.5 93
  211.1124 1.4 15
  219.092 5.1 56
  225.0844 1 11
  226.0937 2.6 28
  226.1285 1.9 20
  227.1011 1.7 18
  228.112 1 11
  231.0561 19.1 210
  233.1074 17.2 189
  246.139 1.1 12
  253.077 1 11
  254.0893 8.9 98
  254.1264 2.3 25
  256.1456 2 22
  259.0901 1.4 15
  274.095 3.4 37
  274.1249 0.9 9
  276.1499 3.1 34
  282.1229 25.9 285
  302.1296 90.6 999
//
