ACCESSION: MSBNK-BAFG-CSL25010627296
RECORD_TITLE: Methiocarb; LC-ESI-QTOF; MS2; 100 V
DATE: 2025.01.06
AUTHORS: Ole Lessmann; Kevin S. Jewell; Björn Ehlig; Arne Wick
LICENSE: dl-de/by-2-0
COPYRIGHT: Copyright 2025 Federal Institute of Hydrology, Koblenz, Germany
COMMENT: CONFIDENCE Reference Standard (Level 1)
COMMENT: Chromatography method: dx.doi.org/10.1016/j.chroma.2015.11.014
COMMENT: Acquisition method: 10.1002/rcm.8541
CH$NAME: Methiocarb
CH$COMPOUND_CLASS: Acaricide; Insecticide
CH$FORMULA: C11H15NO2S
CH$EXACT_MASS: 225.0823
CH$SMILES: Cc1cc(cc(c1SC)C)OC(=O)NC
CH$IUPAC: InChI=1S/C11H15NO2S/c1-7-5-9(14-11(13)12-3)6-8(2)10(7)15-4/h5-6H,1-4H3,(H,12,13)
CH$LINK: CAS 2032-65-7
CH$LINK: INCHIKEY YFBPRJGDJKVWAH-UHFFFAOYSA-N
AC$INSTRUMENT: TripleTOF 6600 SCIEX
AC$INSTRUMENT_TYPE: LC-ESI-QTOF
AC$MASS_SPECTROMETRY: MS_TYPE MS2
AC$MASS_SPECTROMETRY: ION_MODE POSITIVE
AC$MASS_SPECTROMETRY: COLLISION_ENERGY 100
AC$MASS_SPECTROMETRY: FRAGMENTATION_MODE CID
AC$MASS_SPECTROMETRY: IONIZATION ESI
AC$CHROMATOGRAPHY: COLUMN_NAME Zorbax Eclipse Plus C18 2.1 mm x 150 mm, 3.5 um, Agilent
AC$CHROMATOGRAPHY: COLUMN_TEMPERATURE 40 °C
AC$CHROMATOGRAPHY: FLOW_GRADIENT 0 min min 98% A, 1 min 98% A, 2 min 80% A, 16.5 min 2% A, 22 min 2% A, 22.1 min 98% A, 27 min 98% A
AC$CHROMATOGRAPHY: FLOW_RATE 0.3 mL/min
AC$CHROMATOGRAPHY: RETENTION_TIME 11.34614 min
AC$CHROMATOGRAPHY: SOLVENT A: Water 0.1% Formic acid, B: Acetonitrile 0.1% Formic acid
MS$FOCUSED_ION: PRECURSOR_M/Z 226.0896
MS$FOCUSED_ION: PRECURSOR_TYPE [M+H]+
MS$DATA_PROCESSING: COMMENT Export with pycsl 0.1.0.dev1 and CSL 24.4
PK$SPLASH: splash10-0ufr-9000000000-099c2685c1b20c2db729
PK$NUM_PEAK: 33
PK$PEAK: m/z int. rel.int.
  35.9982 0.4 15
  37.005 1.9 71
  38.0133 1.8 67
  39.0209 7.5 281
  41.0357 1.6 60
  44.977 2.5 93
  49.005 0.9 33
  50.0126 8.6 322
  51.0207 26.6 999
  52.03 0.9 33
  53.036 2.3 86
  55.0159 0.9 33
  58.0274 0.5 18
  58.9928 0.6 22
  61.0063 0.5 18
  62.0126 1.1 41
  63.0203 2.0 75
  65.0359 5.9 221
  68.9778 1.0 37
  74.0127 0.8 30
  75.0205 0.6 22
  77.0358 26.1 980
  78.0438 2.3 86
  79.0517 1.9 71
  81.0306 0.5 18
  89.0358 1.0 37
  91.0516 5.6 210
  103.0527 0.7 26
  105.0399 0.4 15
  107.0466 1.5 56
  121.0075 0.5 18
  121.0615 0.6 22
  134.0173 0.6 22
//