ACCESSION: MSBNK-BAFG-CSL2501069937
RECORD_TITLE: Terbutrynesulfoxide; LC-ESI-QTOF; MS2; 100 V
DATE: 2025.01.06
AUTHORS: Ole Lessmann; Kevin S. Jewell; Björn Ehlig; Arne Wick
LICENSE: dl-de/by-2-0
COPYRIGHT: Copyright 2025 Federal Institute of Hydrology, Koblenz, Germany
COMMENT: CONFIDENCE Reference Standard (Level 1)
COMMENT: Chromatography method: dx.doi.org/10.1016/j.chroma.2015.11.014
COMMENT: Acquisition method: 10.1002/rcm.8541
CH$NAME: Terbutrynesulfoxide
CH$COMPOUND_CLASS: Transformation_product; Herbicide; Pesticide; Transformation_product-Metabolite
CH$FORMULA: C10H19N5OS
CH$EXACT_MASS: 257.131
CH$SMILES: CCNC1=NC(=NC(=N1)S(=O)C)NC(C)(C)C
CH$IUPAC: InChI=1S/C10H19N5OS/c1-6-11-7-12-8(15-10(2,3)4)14-9(13-7)17(5)16/h6H2,1-5H3,(H2,11,12,13,14,15)
CH$LINK: CAS 82985-33-9
CH$LINK: INCHIKEY LMUNBZZRYCNYLJ-UHFFFAOYSA-N
AC$INSTRUMENT: TripleTOF 5600 SCIEX
AC$INSTRUMENT_TYPE: LC-ESI-QTOF
AC$MASS_SPECTROMETRY: MS_TYPE MS2
AC$MASS_SPECTROMETRY: ION_MODE POSITIVE
AC$MASS_SPECTROMETRY: COLLISION_ENERGY 100
AC$MASS_SPECTROMETRY: FRAGMENTATION_MODE CID
AC$MASS_SPECTROMETRY: IONIZATION ESI
AC$CHROMATOGRAPHY: COLUMN_NAME Zorbax Eclipse Plus C18 2.1 mm x 150 mm, 3.5 um, Agilent
AC$CHROMATOGRAPHY: COLUMN_TEMPERATURE 40 °C
AC$CHROMATOGRAPHY: FLOW_GRADIENT 0 min min 98% A, 1 min 98% A, 2 min 80% A, 16.5 min 2% A, 22 min 2% A, 22.1 min 98% A, 27 min 98% A
AC$CHROMATOGRAPHY: FLOW_RATE 0.3 mL/min
AC$CHROMATOGRAPHY: RETENTION_TIME 8.816 min
AC$CHROMATOGRAPHY: SOLVENT A: Water 0.1% Formic acid, B: Acetonitrile 0.1% Formic acid
MS$FOCUSED_ION: PRECURSOR_M/Z 258.1383
MS$FOCUSED_ION: PRECURSOR_TYPE [M+H]+
MS$DATA_PROCESSING: COMMENT Export with pycsl 0.1.0.dev1 and CSL 24.4
PK$SPLASH: splash10-014i-9000000000-f42b9f985c7b6c7cb9d2
PK$NUM_PEAK: 27
PK$PEAK: m/z int. rel.int.
  41.0272 2.2 37
  42.0362 2.2 37
  42.0484 0.7 11
  43.0421 22.0 375
  44.0518 1.7 28
  44.0625 1.0 17
  47.0041 0.8 13
  53.0218 2.2 37
  54.0433 0.7 11
  55.0379 2.4 40
  56.0472 1.4 23
  57.9823 3.6 61
  59.0573 0.8 13
  67.037 1.9 32
  68.0314 58.6 999
  69.015 25.2 429
  69.043 5.5 93
  70.047 2.6 44
  71.0669 1.3 22
  71.9962 1.6 27
  84.0607 1.0 17
  84.9908 17.6 300
  86.0416 1.0 17
  94.043 1.4 23
  96.0575 0.8 13
  111.0685 0.9 15
  112.064 0.6 10
//