ACCESSION: MSBNK-BAFG-CSL23102511540
RECORD_TITLE: Benzyltriphenylphosphonium; LC-ESI-QTOF; MS2; 110 V
DATE: 2023.10.25
AUTHORS: Kevin S. Jewell; Björn Ehlig; Arne Wick
LICENSE: dl-de/by-2-0
COPYRIGHT: Copyright 2023 Federal Institute of Hydrology, Koblenz, Germany
COMMENT: CONFIDENCE Reference Standard (Level 1)
COMMENT: Chromatography method: dx.doi.org/10.1016/j.chroma.2015.11.014
COMMENT: Acquisition method: 10.1002/rcm.8541
CH$NAME: Benzyltriphenylphosphonium
CH$FORMULA: C25H22P
CH$EXACT_MASS: 353.1454
CH$SMILES: C1=CC=C(C=C1)C[P+](C2=CC=CC=C2)(C3=CC=CC=C3)C4=CC=CC=C4
CH$IUPAC: InChI=1S/C25H22P/c1-5-13-22(14-6-1)21-26(23-15-7-2-8-16-23,24-17-9-3-10-18-24)25-19-11-4-12-20-25/h1-20H,21H2/q+1
CH$LINK: CAS 15853-35-7
CH$LINK: INCHIKEY BNQRPLGZFADFGA-UHFFFAOYSA-N
AC$INSTRUMENT: TripleTOF 5600 SCIEX
AC$INSTRUMENT_TYPE: LC-ESI-QTOF
AC$MASS_SPECTROMETRY: MS_TYPE MS2
AC$MASS_SPECTROMETRY: ION_MODE POSITIVE
AC$MASS_SPECTROMETRY: COLLISION_ENERGY 110
AC$MASS_SPECTROMETRY: FRAGMENTATION_MODE CID
AC$MASS_SPECTROMETRY: IONIZATION ESI
AC$CHROMATOGRAPHY: COLUMN_NAME Zorbax Eclipse Plus C18 2.1 mm x 150 mm, 3.5 um, Agilent
AC$CHROMATOGRAPHY: COLUMN_TEMPERATURE 40 °C
AC$CHROMATOGRAPHY: FLOW_GRADIENT 0 min min 98% A, 1 min 98% A, 2 min 80% A, 16.5 min 2% A, 22 min 2% A, 22.1 min 98% A, 27 min 98% A
AC$CHROMATOGRAPHY: FLOW_RATE 0.3 mL/min
AC$CHROMATOGRAPHY: RETENTION_TIME 8.706 min
AC$CHROMATOGRAPHY: SOLVENT A: Water 0.1% Formic acid, B: Acetonitrile 0.1% Formic acid
MS$FOCUSED_ION: PRECURSOR_M/Z 353.1454
MS$FOCUSED_ION: PRECURSOR_TYPE [M]+
MS$DATA_PROCESSING: COMMENT Export with Spectra 1.9.12 MsBackendMassbank 1.7.4
MS$DATA_PROCESSING: WHOLE RMassBank 2.3.1
PK$SPLASH: splash10-100u-3900000000-bd45a37363be3a5a6406
PK$NUM_PEAK: 13
PK$PEAK: m/z int. rel.int.
  39.0233 4.4 52
  65.0382 37.7 445
  80.9875 4.5 53
  91.0525 59.5 703
  107.0034 53.2 628
  115.0529 22.7 268
  133.0189 7.3 86
  139.0539 18.5 218
  151.054 12.3 145
  152.0616 84.5 999
  157.0197 40.4 477
  181.0211 14.8 174
  183.036 63 744
//
