ACCESSION: MSBNK-BAFG-CSL25010627949
RECORD_TITLE: Basic Red 1; LC-ESI-QTOF; MS2; 60 V
DATE: 2025.01.06
AUTHORS: Ole Lessmann; Kevin S. Jewell; Björn Ehlig; Arne Wick
LICENSE: dl-de/by-2-0
COPYRIGHT: Copyright 2025 Federal Institute of Hydrology, Koblenz, Germany
COMMENT: CONFIDENCE Reference Standard (Level 1)
COMMENT: Chromatography method: dx.doi.org/10.1016/j.chroma.2015.11.014
COMMENT: Acquisition method: 10.1002/rcm.8541
CH$NAME: Basic Red 1
CH$FORMULA: C28H30N2O3
CH$EXACT_MASS: 442.2256
CH$SMILES: CCNC1=CC2=C(C=C1C)C(=C3C=C(C(=NCC)C=C3O2)C)C4=CC=CC=C4C(=O)OCC
CH$IUPAC: InChI=1S/C28H30N2O3/c1-6-29-23-15-25-21(13-17(23)4)27(19-11-9-10-12-20(19)28(31)32-8-3)22-14-18(5)24(30-7-2)16-26(22)33-25/h9-16,29H,6-8H2,1-5H3
CH$LINK: CAS 989-38-8
CH$LINK: INCHIKEY IWWWBRIIGAXLCJ-UHFFFAOYSA-N
AC$INSTRUMENT: TripleTOF X500R SCIEX
AC$INSTRUMENT_TYPE: LC-ESI-QTOF
AC$MASS_SPECTROMETRY: MS_TYPE MS2
AC$MASS_SPECTROMETRY: ION_MODE POSITIVE
AC$MASS_SPECTROMETRY: COLLISION_ENERGY 60
AC$MASS_SPECTROMETRY: FRAGMENTATION_MODE CID
AC$MASS_SPECTROMETRY: IONIZATION ESI
AC$CHROMATOGRAPHY: COLUMN_NAME Zorbax Eclipse Plus C18 2.1 mm x 150 mm, 3.5 um, Agilent
AC$CHROMATOGRAPHY: COLUMN_TEMPERATURE 40 °C
AC$CHROMATOGRAPHY: FLOW_GRADIENT 0 min min 98% A, 1 min 98% A, 2 min 80% A, 16.5 min 2% A, 22 min 2% A, 22.1 min 98% A, 27 min 98% A
AC$CHROMATOGRAPHY: FLOW_RATE 0.3 mL/min
AC$CHROMATOGRAPHY: RETENTION_TIME 11.107 min
AC$CHROMATOGRAPHY: SOLVENT A: Water 0.1% Formic acid, B: Acetonitrile 0.1% Formic acid
MS$FOCUSED_ION: PRECURSOR_M/Z 443.2329
MS$FOCUSED_ION: PRECURSOR_TYPE [M+H]+
MS$DATA_PROCESSING: COMMENT Export with pycsl 0.1.0.dev1 and CSL 24.4
PK$SPLASH: splash10-014u-0009200000-fae083f6e6216e457897
PK$NUM_PEAK: 43
PK$PEAK: m/z int. rel.int.
  279.1507 13.4 26
  283.1033 8.0 15
  284.1093 14.8 28
  285.1166 12.2 23
  286.123 5.6 10
  296.1083 8.9 17
  297.1152 27.9 54
  298.1174 34.0 66
  299.1168 7.4 14
  300.1398 13.1 25
  311.1192 21.4 41
  312.1272 115.1 224
  313.1347 124.3 241
  314.1566 14.4 28
  317.1179 6.0 11
  325.14 16.5 32
  326.1508 61.6 119
  327.1502 82.8 161
  339.1491 13.7 26
  340.1587 13.3 25
  341.12 7.0 13
  341.1654 451.6 878
  342.1164 6.3 12
  342.1731 30.7 59
  344.1286 19.0 36
  355.182 8.9 17
  357.1246 180.9 352
  358.1356 14.9 28
  359.1513 20.3 39
  370.1459 6.1 11
  371.1451 92.2 179
  371.2109 10.6 20
  372.1605 43.1 83
  385.1559 36.5 71
  386.1111 7.1 13
  386.1627 380.5 740
  387.1713 48.4 94
  399.1717 75.5 146
  400.1796 41.3 80
  415.1456 9.2 17
  415.2014 513.3 999
  415.2744 5.6 10
  443.2353 9.6 18
//