ACCESSION: MSBNK-BAFG-CSL25010634464
RECORD_TITLE: Sudan I; LC-ESI-QTOF; MS2; 90 V
DATE: 2025.01.06
AUTHORS: Ole Lessmann; Kevin S. Jewell; Björn Ehlig; Arne Wick
LICENSE: dl-de/by-2-0
COPYRIGHT: Copyright 2025 Federal Institute of Hydrology, Koblenz, Germany
COMMENT: CONFIDENCE Reference Standard (Level 1)
COMMENT: Chromatography method: dx.doi.org/10.1016/j.chroma.2015.11.014
COMMENT: Acquisition method: 10.1002/rcm.8541
CH$NAME: Sudan I
CH$FORMULA: C16H12N2O
CH$EXACT_MASS: 248.095
CH$SMILES: C1=CC=C(C=C1)N=NC2=C(C=CC3=CC=CC=C32)O
CH$IUPAC: InChI=1S/C16H12N2O/c19-15-11-10-12-6-4-5-9-14(12)16(15)18-17-13-7-2-1-3-8-13/h1-11,19H
CH$LINK: CAS 842-07-9
CH$LINK: INCHIKEY MRQIXHXHHPWVIL-UHFFFAOYSA-N
AC$INSTRUMENT: TripleTOF 6600 SCIEX
AC$INSTRUMENT_TYPE: LC-ESI-QTOF
AC$MASS_SPECTROMETRY: MS_TYPE MS2
AC$MASS_SPECTROMETRY: ION_MODE POSITIVE
AC$MASS_SPECTROMETRY: COLLISION_ENERGY 90
AC$MASS_SPECTROMETRY: FRAGMENTATION_MODE CID
AC$MASS_SPECTROMETRY: IONIZATION ESI
AC$CHROMATOGRAPHY: COLUMN_NAME Zorbax Eclipse Plus C18 2.1 mm x 150 mm, 3.5 um, Agilent
AC$CHROMATOGRAPHY: COLUMN_TEMPERATURE 40 °C
AC$CHROMATOGRAPHY: FLOW_GRADIENT 0 min min 98% A, 1 min 98% A, 2 min 80% A, 16.5 min 2% A, 22 min 2% A, 22.1 min 98% A, 27 min 98% A
AC$CHROMATOGRAPHY: FLOW_RATE 0.3 mL/min
AC$CHROMATOGRAPHY: RETENTION_TIME 15.674 min
AC$CHROMATOGRAPHY: SOLVENT A: Water 0.1% Formic acid, B: Acetonitrile 0.1% Formic acid
MS$FOCUSED_ION: PRECURSOR_M/Z 249.1023
MS$FOCUSED_ION: PRECURSOR_TYPE [M+H]+
MS$DATA_PROCESSING: COMMENT Export with pycsl 0.1.0.dev1 and CSL 24.4
PK$SPLASH: splash10-00ou-9000000000-d2b3021bb54e8bbf4f3c
PK$NUM_PEAK: 44
PK$PEAK: m/z int. rel.int.
  37.0076 2.9 25
  38.0152 2.3 20
  39.0234 21.9 193
  40.0307 4.2 37
  41.0266 2.2 19
  42.0329 2.1 18
  50.0154 12.8 113
  51.0233 47.6 420
  52.0184 2.8 24
  54.0342 6.4 56
  63.0229 1.2 10
  65.027 1.2 10
  65.0384 65.3 577
  66.0466 81.0 716
  67.0412 5.0 44
  73.0073 3.3 29
  74.0149 55.6 491
  75.0229 113.0 999
  76.0181 12.5 110
  76.031 2.6 22
  77.0389 37.0 327
  78.0339 13.7 121
  92.0492 46.4 410
  93.0572 73.7 651
  98.0156 2.0 17
  101.0383 6.6 58
  102.0348 6.2 54
  126.0457 1.6 14
  127.0416 3.2 28
  127.0553 1.4 12
  129.0433 2.1 18
  130.0418 1.7 15
  150.0473 4.2 37
  151.0543 2.8 24
  152.0629 1.2 10
  163.0552 1.2 10
  174.0497 1.7 15
  175.0556 1.3 11
  176.062 2.6 22
  177.058 1.3 11
  201.0575 1.9 16
  202.0688 1.5 13
  203.0726 1.1 9
  229.0778 2.2 19
//