ACCESSION: MSBNK-BAFG-CSL2310263667
RECORD_TITLE: 2-Morpholin-4-yl-benzothiazole; LC-ESI-QTOF; MS2; 40 V
DATE: 2023.10.26
AUTHORS: Kevin S. Jewell; Björn Ehlig; Arne Wick
LICENSE: dl-de/by-2-0
COPYRIGHT: Copyright 2023 Federal Institute of Hydrology, Koblenz, Germany
COMMENT: CONFIDENCE Reference Standard (Level 1)
COMMENT: Chromatography method: dx.doi.org/10.1016/j.chroma.2015.11.014
COMMENT: Acquisition method: 10.1002/rcm.8541
CH$NAME: 2-Morpholin-4-yl-benzothiazole
CH$COMPOUND_CLASS: Industrial_process
CH$FORMULA: C11H12N2OS
CH$EXACT_MASS: 220.067
CH$SMILES: c1ccc2c(c1)nc(s2)N3CCOCC3
CH$IUPAC: InChI=1S/C11H12N2OS/c1-2-4-10-9(3-1)12-11(15-10)13-5-7-14-8-6-13/h1-4H,5-8H2
CH$LINK: CAS 4225-26-7
CH$LINK: INCHIKEY VVUVJGRVEYHIHC-UHFFFAOYSA-N
AC$INSTRUMENT: TripleTOF 5600 SCIEX
AC$INSTRUMENT_TYPE: LC-ESI-QTOF
AC$MASS_SPECTROMETRY: MS_TYPE MS2
AC$MASS_SPECTROMETRY: ION_MODE POSITIVE
AC$MASS_SPECTROMETRY: COLLISION_ENERGY 40
AC$MASS_SPECTROMETRY: FRAGMENTATION_MODE CID
AC$MASS_SPECTROMETRY: IONIZATION ESI
AC$CHROMATOGRAPHY: COLUMN_NAME Zorbax Eclipse Plus C18 2.1 mm x 150 mm, 3.5 um, Agilent
AC$CHROMATOGRAPHY: COLUMN_TEMPERATURE 40 °C
AC$CHROMATOGRAPHY: FLOW_GRADIENT 0 min min 98% A, 1 min 98% A, 2 min 80% A, 16.5 min 2% A, 22 min 2% A, 22.1 min 98% A, 27 min 98% A
AC$CHROMATOGRAPHY: FLOW_RATE 0.3 mL/min
AC$CHROMATOGRAPHY: RETENTION_TIME 9.363 min
AC$CHROMATOGRAPHY: SOLVENT A: Water 0.1% Formic acid, B: Acetonitrile 0.1% Formic acid
MS$FOCUSED_ION: PRECURSOR_M/Z 221.0743
MS$FOCUSED_ION: PRECURSOR_TYPE [M+H]+
MS$DATA_PROCESSING: COMMENT Export with Spectra 1.9.12 MsBackendMassbank 1.7.4
MS$DATA_PROCESSING: WHOLE RMassBank 2.3.1
PK$SPLASH: splash10-0kdr-0900000000-f8c6fd1800dfd07a2002
PK$NUM_PEAK: 42
PK$PEAK: m/z int. rel.int.
  45.0405 3.1 16
  57.0752 2.5 12
  65.0428 9.1 47
  67.0581 2.4 12
  74.0091 2.7 13
  77.0417 6.1 31
  79.0562 3.1 16
  80.051 4.8 24
  81.0718 3.3 17
  91.056 6.7 34
  92.0514 6.3 32
  104.0487 2 10
  105.0706 3.9 20
  106.0655 5.1 26
  108.0027 3.5 18
  109.0117 164.7 853
  111.0799 2.3 11
  116.0478 3.9 20
  117.0574 39.7 205
  119.0848 2.9 15
  121.064 2.7 13
  124.0216 24.2 125
  134.006 10.1 52
  135.0134 13.5 69
  136.022 128 663
  144.0689 5.8 30
  148.0219 4.3 22
  149.029 14.9 77
  150.0375 191 990
  151.0321 9.9 51
  160.022 4.7 24
  161.0176 3 15
  162.0365 3.1 16
  163.0326 10.4 53
  175.0318 27.1 140
  176.042 3.2 16
  177.0485 192.7 999
  188.0405 3.1 16
  189.0478 8.4 43
  203.0633 6.8 35
  219.0577 3.2 16
  221.0744 70.4 364
//
