ACCESSION: MSBNK-BAFG-CSL2310303764
RECORD_TITLE: Haloxyfop-2-ethoxyethyl; LC-ESI-QTOF; MS2; 40 V
DATE: 2023.10.30
AUTHORS: Kevin S. Jewell; Björn Ehlig; Arne Wick
LICENSE: dl-de/by-2-0
COPYRIGHT: Copyright 2023 Federal Institute of Hydrology, Koblenz, Germany
COMMENT: CONFIDENCE Reference Standard (Level 1)
COMMENT: Chromatography method: dx.doi.org/10.1016/j.chroma.2015.11.014
COMMENT: Acquisition method: 10.1002/rcm.8541
CH$NAME: Haloxyfop-2-ethoxyethyl
CH$COMPOUND_CLASS: Herbicide
CH$FORMULA: C19H19ClF3NO5
CH$EXACT_MASS: 433.0904
CH$SMILES: CCOCCOC(=O)C(C)Oc1ccc(Oc2ncc(cc2Cl)C(F)(F)F)cc1
CH$IUPAC: InChI=1S/C19H19ClF3NO5/c1-3-26-8-9-27-18(25)12(2)28-14-4-6-15(7-5-14)29-17-16(20)10-13(11-24-17)19(21,22)23/h4-7,10-12H,3,8-9H2,1-2H3
CH$LINK: CAS 87237-48-7
CH$LINK: INCHIKEY MIJLZGZLQLAQCM-UHFFFAOYSA-N
AC$INSTRUMENT: TripleTOF 5600 SCIEX
AC$INSTRUMENT_TYPE: LC-ESI-QTOF
AC$MASS_SPECTROMETRY: MS_TYPE MS2
AC$MASS_SPECTROMETRY: ION_MODE POSITIVE
AC$MASS_SPECTROMETRY: COLLISION_ENERGY 40
AC$MASS_SPECTROMETRY: FRAGMENTATION_MODE CID
AC$MASS_SPECTROMETRY: IONIZATION ESI
AC$CHROMATOGRAPHY: COLUMN_NAME Zorbax Eclipse Plus C18 2.1 mm x 150 mm, 3.5 um, Agilent
AC$CHROMATOGRAPHY: COLUMN_TEMPERATURE 40 °C
AC$CHROMATOGRAPHY: FLOW_GRADIENT 0 min min 98% A, 1 min 98% A, 2 min 80% A, 16.5 min 2% A, 22 min 2% A, 22.1 min 98% A, 27 min 98% A
AC$CHROMATOGRAPHY: FLOW_RATE 0.3 mL/min
AC$CHROMATOGRAPHY: RETENTION_TIME 15.493 min
AC$CHROMATOGRAPHY: SOLVENT A: Water 0.1% Formic acid, B: Acetonitrile 0.1% Formic acid
MS$FOCUSED_ION: PRECURSOR_M/Z 434.0977
MS$FOCUSED_ION: PRECURSOR_TYPE [M+H]+
MS$DATA_PROCESSING: COMMENT Export with Spectra 1.9.12 MsBackendMassbank 1.7.4
MS$DATA_PROCESSING: WHOLE RMassBank 2.3.1
PK$SPLASH: splash10-014r-4189000000-fc84b98bf8461c4ad8d0
PK$NUM_PEAK: 21
PK$PEAK: m/z int. rel.int.
  45.0406 0.6 21
  45.0459 0.5 17
  73.0674 1.4 49
  91.055 11.7 413
  99.0438 0.4 14
  100.0505 1.2 42
  119.0471 1.8 63
  120.0564 0.7 24
  121.0279 0.7 24
  197.988 0.8 28
  209.042 0.4 14
  247.0387 0.8 28
  252.0591 0.4 14
  260.0431 1.8 63
  272.0075 4.6 162
  288.001 0.9 31
  288.0387 17.6 621
  298.0218 1.2 42
  316.0341 28.3 999
  316.1017 0.7 24
  344.0289 1.2 42
//
