ACCESSION: MSBNK-BAFG-CSL23102512327
RECORD_TITLE: (Tert-Butoxycarbonylmethyl)triphenylphosphonium; LC-ESI-QTOF; MS2; 140 V
DATE: 2023.10.25
AUTHORS: Kevin S. Jewell; Björn Ehlig; Arne Wick
LICENSE: dl-de/by-2-0
COPYRIGHT: Copyright 2023 Federal Institute of Hydrology, Koblenz, Germany
COMMENT: CONFIDENCE Reference Standard (Level 1)
COMMENT: Chromatography method: dx.doi.org/10.1016/j.chroma.2015.11.014
COMMENT: Acquisition method: 10.1002/rcm.8541
CH$NAME: (Tert-Butoxycarbonylmethyl)triphenylphosphonium
CH$FORMULA: C24H26O2P
CH$EXACT_MASS: 377.1665
CH$SMILES: CC(C)(C)OC(=O)C[P+](C1=CC=CC=C1)(C2=CC=CC=C2)C3=CC=CC=C3
CH$IUPAC: InChI=1S/C24H26O2P/c1-24(2,3)26-23(25)19-27(20-13-7-4-8-14-20,21-15-9-5-10-16-21)22-17-11-6-12-18-22/h4-18H,19H2,1-3H3/q+1
CH$LINK: CAS 59159-39-6
CH$LINK: INCHIKEY FAAWALIHTWKRML-UHFFFAOYSA-N
AC$INSTRUMENT: TripleTOF 5600 SCIEX
AC$INSTRUMENT_TYPE: LC-ESI-QTOF
AC$MASS_SPECTROMETRY: MS_TYPE MS2
AC$MASS_SPECTROMETRY: ION_MODE POSITIVE
AC$MASS_SPECTROMETRY: COLLISION_ENERGY 140
AC$MASS_SPECTROMETRY: FRAGMENTATION_MODE CID
AC$MASS_SPECTROMETRY: IONIZATION ESI
AC$CHROMATOGRAPHY: COLUMN_NAME Zorbax Eclipse Plus C18 2.1 mm x 150 mm, 3.5 um, Agilent
AC$CHROMATOGRAPHY: COLUMN_TEMPERATURE 40 °C
AC$CHROMATOGRAPHY: FLOW_GRADIENT 0 min min 98% A, 1 min 98% A, 2 min 80% A, 16.5 min 2% A, 22 min 2% A, 22.1 min 98% A, 27 min 98% A
AC$CHROMATOGRAPHY: FLOW_RATE 0.3 mL/min
AC$CHROMATOGRAPHY: RETENTION_TIME 8.834 min
AC$CHROMATOGRAPHY: SOLVENT A: Water 0.1% Formic acid, B: Acetonitrile 0.1% Formic acid
MS$FOCUSED_ION: PRECURSOR_M/Z 377.1665
MS$FOCUSED_ION: PRECURSOR_TYPE [M]+
MS$DATA_PROCESSING: COMMENT Export with Spectra 1.9.12 MsBackendMassbank 1.7.4
MS$DATA_PROCESSING: WHOLE RMassBank 2.3.1
PK$SPLASH: splash10-0zfr-0900000000-e2e69e045cada3279db5
PK$NUM_PEAK: 16
PK$PEAK: m/z int. rel.int.
  80.9876 14.9 106
  89.0366 15.2 108
  107.0034 93.1 663
  115.0531 46.3 329
  126.0451 17.8 126
  133.0194 12 85
  139.0538 41.6 296
  150.046 13.1 93
  151.054 39.6 282
  152.0619 140.2 999
  156.012 7.2 51
  157.0202 71.5 509
  165.0703 8.3 59
  181.0203 39.6 282
  183.0359 37.6 267
  226.0786 7.5 53
//
