ACCESSION: MSBNK-BAFG-CSL2311095908
RECORD_TITLE: Didesmethyl-citalopram; LC-ESI-QTOF; MS2; 10 V
DATE: 2023.11.09
AUTHORS: Kevin S. Jewell; Björn Ehlig; Arne Wick
LICENSE: dl-de/by-2-0
COPYRIGHT: Copyright 2023 Federal Institute of Hydrology, Koblenz, Germany
COMMENT: CONFIDENCE Reference Standard (Level 1)
COMMENT: Chromatography method: dx.doi.org/10.1016/j.chroma.2015.11.014
COMMENT: Acquisition method: 10.1002/rcm.8541
CH$NAME: Didesmethyl-citalopram
CH$COMPOUND_CLASS: Pharmaceutical; Metabolite
CH$FORMULA: C18H17FN2O
CH$EXACT_MASS: 296.1325
CH$SMILES: c1cc(ccc1C2(c3ccc(cc3CO2)C#N)CCCN)F
CH$IUPAC: InChI=1S/C18H17FN2O/c19-16-5-3-15(4-6-16)18(8-1-9-20)17-7-2-13(11-21)10-14(17)12-22-18/h2-7,10H,1,8-9,12,20H2
CH$LINK: CAS 62498-69-5
CH$LINK: INCHIKEY RKUKMUWCRLRPEJ-UHFFFAOYSA-N
AC$INSTRUMENT: TripleTOF 5600 SCIEX
AC$INSTRUMENT_TYPE: LC-ESI-QTOF
AC$MASS_SPECTROMETRY: MS_TYPE MS2
AC$MASS_SPECTROMETRY: ION_MODE POSITIVE
AC$MASS_SPECTROMETRY: COLLISION_ENERGY 10
AC$MASS_SPECTROMETRY: FRAGMENTATION_MODE CID
AC$MASS_SPECTROMETRY: IONIZATION ESI
AC$CHROMATOGRAPHY: COLUMN_NAME Zorbax Eclipse Plus C18 2.1 mm x 150 mm, 3.5 um, Agilent
AC$CHROMATOGRAPHY: COLUMN_TEMPERATURE 40 °C
AC$CHROMATOGRAPHY: FLOW_GRADIENT 0 min min 98% A, 1 min 98% A, 2 min 80% A, 16.5 min 2% A, 22 min 2% A, 22.1 min 98% A, 27 min 98% A
AC$CHROMATOGRAPHY: FLOW_RATE 0.3 mL/min
AC$CHROMATOGRAPHY: RETENTION_TIME 7.575 min
AC$CHROMATOGRAPHY: SOLVENT A: Water 0.1% Formic acid, B: Acetonitrile 0.1% Formic acid
MS$FOCUSED_ION: PRECURSOR_M/Z 297.1398
MS$FOCUSED_ION: PRECURSOR_TYPE [M+H]+
MS$DATA_PROCESSING: COMMENT Export with Spectra 1.9.12 MsBackendMassbank 1.7.4
MS$DATA_PROCESSING: WHOLE RMassBank 2.3.1
PK$SPLASH: splash10-0002-0090000000-a07b8f5bc5fde926a72e
PK$NUM_PEAK: 5
PK$PEAK: m/z int. rel.int.
  109.0445 30.3 23
  262.1021 188 148
  279.1289 46.7 36
  280.1133 104.9 82
  297.1403 1264.2 999
//
