ACCESSION: MSBNK-BAFG-CSL23102512028
RECORD_TITLE: Triphenyl phosphate; LC-ESI-QTOF; MS2; 90 V
DATE: 2023.10.25
AUTHORS: Kevin S. Jewell; Björn Ehlig; Arne Wick
LICENSE: dl-de/by-2-0
COPYRIGHT: Copyright 2023 Federal Institute of Hydrology, Koblenz, Germany
COMMENT: CONFIDENCE Reference Standard (Level 1)
COMMENT: Chromatography method: dx.doi.org/10.1016/j.chroma.2015.11.014
COMMENT: Acquisition method: 10.1002/rcm.8541
CH$NAME: Triphenyl phosphate
CH$COMPOUND_CLASS: Industrial_process
CH$FORMULA: C18H15O4P
CH$EXACT_MASS: 326.0708
CH$SMILES: C1=CC=C(C=C1)OP(=O)(OC2=CC=CC=C2)OC3=CC=CC=C3
CH$IUPAC: InChI=1S/C18H15O4P/c19-23(20-16-10-4-1-5-11-16,21-17-12-6-2-7-13-17)22-18-14-8-3-9-15-18/h1-15H
CH$LINK: CAS 115-86-6
CH$LINK: INCHIKEY XZZNDPSIHUTMOC-UHFFFAOYSA-N
AC$INSTRUMENT: TripleTOF 5600 SCIEX
AC$INSTRUMENT_TYPE: LC-ESI-QTOF
AC$MASS_SPECTROMETRY: MS_TYPE MS2
AC$MASS_SPECTROMETRY: ION_MODE POSITIVE
AC$MASS_SPECTROMETRY: COLLISION_ENERGY 90
AC$MASS_SPECTROMETRY: FRAGMENTATION_MODE CID
AC$MASS_SPECTROMETRY: IONIZATION ESI
AC$CHROMATOGRAPHY: COLUMN_NAME Zorbax Eclipse Plus C18 2.1 mm x 150 mm, 3.5 um, Agilent
AC$CHROMATOGRAPHY: COLUMN_TEMPERATURE 40 °C
AC$CHROMATOGRAPHY: FLOW_GRADIENT 0 min min 98% A, 1 min 98% A, 2 min 80% A, 16.5 min 2% A, 22 min 2% A, 22.1 min 98% A, 27 min 98% A
AC$CHROMATOGRAPHY: FLOW_RATE 0.3 mL/min
AC$CHROMATOGRAPHY: RETENTION_TIME 14.07 min
AC$CHROMATOGRAPHY: SOLVENT A: Water 0.1% Formic acid, B: Acetonitrile 0.1% Formic acid
MS$FOCUSED_ION: PRECURSOR_M/Z 327.0781
MS$FOCUSED_ION: PRECURSOR_TYPE [M+H]+
MS$DATA_PROCESSING: COMMENT Export with Spectra 1.9.12 MsBackendMassbank 1.7.4
MS$DATA_PROCESSING: WHOLE RMassBank 2.3.1
PK$SPLASH: splash10-0ufr-5910000000-9b8eaa9a9900b9e9e7f5
PK$NUM_PEAK: 35
PK$PEAK: m/z int. rel.int.
  50.0151 4.9 126
  51.0233 23.7 613
  65.0378 1 25
  74.0152 0.6 15
  75.0223 1 25
  77.0389 33.6 869
  78.0468 1 25
  80.9741 0.6 15
  92.0265 0.7 18
  99.0226 0.7 18
  101.0382 0.7 18
  102.0474 1.9 49
  114.0448 0.8 20
  115.0538 2.1 54
  125.0384 1.4 36
  126.0459 6.8 175
  127.0543 3.3 85
  133.0198 1 25
  139.0538 10.2 263
  140.0602 0.8 20
  141.0676 0.6 15
  149.0391 0.6 15
  150.047 6.6 170
  151.0549 21.6 559
  152.0627 38.6 999
  157.0181 0.6 15
  168.0563 5.2 134
  176.0543 0.5 12
  186.0276 0.7 18
  200.0608 1.3 33
  201.0675 1 25
  202.0763 1 25
  224.0571 1.4 36
  225.0725 1.9 49
  226.0788 8.3 214
//
