ACCESSION: MSBNK-BAFG-CSL25010613850
RECORD_TITLE: 3,3,4,4,5,5,6,6,7,7,8,8,8-tridecafluorooctane-1-sulfonic acid; LC-ESI-QTOF; MS2; 50 V
DATE: 2025.01.06
AUTHORS: Ole Lessmann; Kevin S. Jewell; Björn Ehlig; Arne Wick
LICENSE: dl-de/by-2-0
COPYRIGHT: Copyright 2025 Federal Institute of Hydrology, Koblenz, Germany
COMMENT: CONFIDENCE Reference Standard (Level 1)
COMMENT: Chromatography method: dx.doi.org/10.1016/j.chroma.2015.11.014
COMMENT: Acquisition method: 10.1002/rcm.8541
CH$NAME: 3,3,4,4,5,5,6,6,7,7,8,8,8-tridecafluorooctane-1-sulfonic acid
CH$COMPOUND_CLASS: Industrial_process; PFAS
CH$FORMULA: C8H5F13O3S
CH$EXACT_MASS: 427.9752
CH$SMILES: C(CS(=O)(=O)O)C(C(C(C(C(C(F)(F)F)(F)F)(F)F)(F)F)(F)F)(F)F
CH$IUPAC: InChI=1S/C8H5F13O3S/c9-3(10,1-2-25(22,23)24)4(11,12)5(13,14)6(15,16)7(17,18)8(19,20)21/h1-2H2,(H,22,23,24)
CH$LINK: CAS 27619-97-2
CH$LINK: INCHIKEY VIONGDJUYAYOPU-UHFFFAOYSA-N
AC$INSTRUMENT: TripleTOF 6600 SCIEX
AC$INSTRUMENT_TYPE: LC-ESI-QTOF
AC$MASS_SPECTROMETRY: MS_TYPE MS2
AC$MASS_SPECTROMETRY: ION_MODE NEGATIVE
AC$MASS_SPECTROMETRY: COLLISION_ENERGY 50
AC$MASS_SPECTROMETRY: FRAGMENTATION_MODE CID
AC$MASS_SPECTROMETRY: IONIZATION ESI
AC$CHROMATOGRAPHY: COLUMN_NAME Zorbax Eclipse Plus C18 2.1 mm x 150 mm, 3.5 um, Agilent
AC$CHROMATOGRAPHY: COLUMN_TEMPERATURE 40 °C
AC$CHROMATOGRAPHY: FLOW_GRADIENT 0 min min 98% A, 1 min 98% A, 2 min 80% A, 16.5 min 2% A, 22 min 2% A, 22.1 min 98% A, 27 min 98% A
AC$CHROMATOGRAPHY: FLOW_RATE 0.3 mL/min
AC$CHROMATOGRAPHY: RETENTION_TIME 13.515 min
AC$CHROMATOGRAPHY: SOLVENT A: Water 0.1% Formic acid, B: Acetonitrile 0.1% Formic acid
MS$FOCUSED_ION: PRECURSOR_M/Z 426.9679
MS$FOCUSED_ION: PRECURSOR_TYPE [M-H]-
MS$DATA_PROCESSING: COMMENT Export with pycsl 0.1.0.dev1 and CSL 24.4
PK$SPLASH: splash10-003r-9020000000-3c86c25dafc35a606270
PK$NUM_PEAK: 13
PK$PEAK: m/z int. rel.int.
  79.9544 72.2 820
  80.9621 87.9 999
  216.9848 7.7 87
  230.9807 1.1 12
  254.9817 8.3 94
  266.9812 2.1 23
  282.9758 6.7 76
  292.9776 10.1 114
  302.9805 1.9 21
  338.9796 1.5 17
  366.944 3.2 36
  386.9486 10.7 121
  406.9546 13.2 150
//