ACCESSION: MSBNK-BAFG-CSL23102727703
RECORD_TITLE: 4-Methoxycinnamaldehyde; LC-ESI-QTOF; MS2; 40 V
DATE: 2023.10.27
AUTHORS: Kevin S. Jewell; Björn Ehlig; Arne Wick
LICENSE: dl-de/by-2-0
COPYRIGHT: Copyright 2023 Federal Institute of Hydrology, Koblenz, Germany
COMMENT: CONFIDENCE Reference Standard (Level 1)
COMMENT: Chromatography method: dx.doi.org/10.1016/j.chroma.2015.11.014
COMMENT: Acquisition method: 10.1002/rcm.8541
CH$NAME: 4-Methoxycinnamaldehyde
CH$FORMULA: C10H10O2
CH$EXACT_MASS: 162.0681
CH$SMILES: COC1=CC=C(C=C1)C=CC=O
CH$IUPAC: InChI=1S/C10H10O2/c1-12-10-6-4-9(5-7-10)3-2-8-11/h2-8H,1H3
CH$LINK: CAS 24680-50-0
CH$LINK: INCHIKEY AXCXHFKZHDEKTP-UHFFFAOYSA-N
AC$INSTRUMENT: TripleTOF 6600 SCIEX
AC$INSTRUMENT_TYPE: LC-ESI-QTOF
AC$MASS_SPECTROMETRY: MS_TYPE MS2
AC$MASS_SPECTROMETRY: ION_MODE POSITIVE
AC$MASS_SPECTROMETRY: COLLISION_ENERGY 40
AC$MASS_SPECTROMETRY: FRAGMENTATION_MODE CID
AC$MASS_SPECTROMETRY: IONIZATION ESI
AC$CHROMATOGRAPHY: COLUMN_NAME Zorbax Eclipse Plus C18 2.1 mm x 150 mm, 3.5 um, Agilent
AC$CHROMATOGRAPHY: COLUMN_TEMPERATURE 40 °C
AC$CHROMATOGRAPHY: FLOW_GRADIENT 0 min min 98% A, 1 min 98% A, 2 min 80% A, 16.5 min 2% A, 22 min 2% A, 22.1 min 98% A, 27 min 98% A
AC$CHROMATOGRAPHY: FLOW_RATE 0.3 mL/min
AC$CHROMATOGRAPHY: RETENTION_TIME 9.471 min
AC$CHROMATOGRAPHY: SOLVENT A: Water 0.1% Formic acid, B: Acetonitrile 0.1% Formic acid
MS$FOCUSED_ION: PRECURSOR_M/Z 163.0754
MS$FOCUSED_ION: PRECURSOR_TYPE [M+H]+
MS$DATA_PROCESSING: COMMENT Export with Spectra 1.9.12 MsBackendMassbank 1.7.4
MS$DATA_PROCESSING: WHOLE RMassBank 2.3.1
PK$SPLASH: splash10-0f6x-9600000000-fb331c6c0088f4d4a5ee
PK$NUM_PEAK: 35
PK$PEAK: m/z int. rel.int.
  51.0238 1.1 30
  55.0183 3.1 85
  65.0396 2.3 63
  76.0325 0.6 16
  77.0393 15.7 433
  78.0455 2.6 71
  79.0559 4.4 121
  80.058 0.5 13
  89.0421 1.4 38
  90.0465 1.7 46
  91.055 36.2 999
  92.0269 0.7 19
  92.0601 6 165
  94.0435 1 27
  95.0496 0.5 13
  102.0479 17.4 480
  103.0548 8.7 240
  104.0611 1.9 52
  105.0383 2.2 60
  105.0714 1 27
  106.0429 0.6 16
  115.0557 2.7 74
  116.0618 0.5 13
  118.0426 0.6 16
  119.0508 4.2 115
  120.0567 3.2 88
  121.065 0.7 19
  130.0426 2.6 71
  131.0504 1.9 52
  132.0567 0.7 19
  133.0674 1 27
  134.0715 0.5 13
  145.0666 1.5 41
  146.0766 0.6 16
  147.0471 1.1 30
//
