ACCESSION: MSBNK-BAFG-CSL2311099633
RECORD_TITLE: Phenacetin; LC-ESI-QTOF; MS2; 40 V
DATE: 2023.11.09
AUTHORS: Kevin S. Jewell; Björn Ehlig; Arne Wick
LICENSE: dl-de/by-2-0
COPYRIGHT: Copyright 2023 Federal Institute of Hydrology, Koblenz, Germany
COMMENT: CONFIDENCE Reference Standard (Level 1)
COMMENT: Chromatography method: dx.doi.org/10.1016/j.chroma.2015.11.014
COMMENT: Acquisition method: 10.1002/rcm.8541
CH$NAME: Phenacetin
CH$COMPOUND_CLASS: Pharmaceutical
CH$FORMULA: C10H13NO2
CH$EXACT_MASS: 179.0946
CH$SMILES: CCOC1=CC=C(C=C1)NC(=O)C
CH$IUPAC: InChI=1S/C10H13NO2/c1-3-13-10-6-4-9(5-7-10)11-8(2)12/h4-7H,3H2,1-2H3,(H,11,12)
CH$LINK: CAS 62-44-2
CH$LINK: INCHIKEY CPJSUEIXXCENMM-UHFFFAOYSA-N
AC$INSTRUMENT: TripleTOF 5600 SCIEX
AC$INSTRUMENT_TYPE: LC-ESI-QTOF
AC$MASS_SPECTROMETRY: MS_TYPE MS2
AC$MASS_SPECTROMETRY: ION_MODE POSITIVE
AC$MASS_SPECTROMETRY: COLLISION_ENERGY 40
AC$MASS_SPECTROMETRY: FRAGMENTATION_MODE CID
AC$MASS_SPECTROMETRY: IONIZATION ESI
AC$CHROMATOGRAPHY: COLUMN_NAME Zorbax Eclipse Plus C18 2.1 mm x 150 mm, 3.5 um, Agilent
AC$CHROMATOGRAPHY: COLUMN_TEMPERATURE 40 °C
AC$CHROMATOGRAPHY: FLOW_GRADIENT 0 min min 98% A, 1 min 98% A, 2 min 80% A, 16.5 min 2% A, 22 min 2% A, 22.1 min 98% A, 27 min 98% A
AC$CHROMATOGRAPHY: FLOW_RATE 0.3 mL/min
AC$CHROMATOGRAPHY: RETENTION_TIME 7.622 min
AC$CHROMATOGRAPHY: SOLVENT A: Water 0.1% Formic acid, B: Acetonitrile 0.1% Formic acid
MS$FOCUSED_ION: PRECURSOR_M/Z 180.1019
MS$FOCUSED_ION: PRECURSOR_TYPE [M+H]+
MS$DATA_PROCESSING: COMMENT Export with Spectra 1.9.12 MsBackendMassbank 1.7.4
MS$DATA_PROCESSING: WHOLE RMassBank 2.3.1
PK$SPLASH: splash10-0296-9600000000-19764d92fd52699a6a0c
PK$NUM_PEAK: 25
PK$PEAK: m/z int. rel.int.
  38.0154 1.2 10
  39.023 8.7 73
  42.0337 1.4 11
  43.0181 24.6 209
  55.0542 1.4 11
  65.0389 89 756
  66.0467 1.6 13
  67.0412 5.5 46
  67.054 1.6 13
  77.0376 2.5 21
  80.0497 7.7 65
  81.0569 2.7 22
  82.065 12.2 103
  92.0493 33.4 283
  93.034 62 527
  93.0565 18 153
  108.0451 2.2 18
  109.0525 16.9 143
  110.0607 117.5 999
  121.0393 1.2 10
  134.0613 2.6 22
  138.092 24.3 206
  152.0714 4.4 37
  162.093 2.6 22
  180.1024 11.1 94
//
