ACCESSION: MSBNK-BAFG-CSL23102512868
RECORD_TITLE: Olmesartan-d6; LC-ESI-QTOF; MS2; 130 V
DATE: 2023.10.25
AUTHORS: Kevin S. Jewell; Björn Ehlig; Arne Wick
LICENSE: dl-de/by-2-0
COPYRIGHT: Copyright 2023 Federal Institute of Hydrology, Koblenz, Germany
COMMENT: CONFIDENCE Reference Standard (Level 1)
COMMENT: Chromatography method: dx.doi.org/10.1016/j.chroma.2015.11.014
COMMENT: Acquisition method: 10.1002/rcm.8541
CH$NAME: Olmesartan-d6
CH$COMPOUND_CLASS: Surrogate_standard
CH$FORMULA: C24H20N6O3 2H6
CH$EXACT_MASS: 452.2443
CH$SMILES: [2H]C([2H])([2H])C(C1=C(N(C(=N1)CCC)CC2=CC=C(C=C2)C3=CC=CC=C3C4=NNN=N4)C(=O)O)(C([2H])([2H])[2H])O
CH$IUPAC: InChI=1S/C24H26N6O3/c1-4-7-19-25-21(24(2,3)33)20(23(31)32)30(19)14-15-10-12-16(13-11-15)17-8-5-6-9-18(17)22-26-28-29-27-22/h5-6,8-13,33H,4,7,14H2,1-3H3,(H,31,32)(H,26,27,28,29)/i2D3,3D3
CH$LINK: CAS 1185144-74-4
CH$LINK: INCHIKEY VTRAEEWXHOVJFV-XERRXZQWSA-N
AC$INSTRUMENT: TripleTOF 5600 SCIEX
AC$INSTRUMENT_TYPE: LC-ESI-QTOF
AC$MASS_SPECTROMETRY: MS_TYPE MS2
AC$MASS_SPECTROMETRY: ION_MODE POSITIVE
AC$MASS_SPECTROMETRY: COLLISION_ENERGY 130
AC$MASS_SPECTROMETRY: FRAGMENTATION_MODE CID
AC$MASS_SPECTROMETRY: IONIZATION ESI
AC$CHROMATOGRAPHY: COLUMN_NAME Zorbax Eclipse Plus C18 2.1 mm x 150 mm, 3.5 um, Agilent
AC$CHROMATOGRAPHY: COLUMN_TEMPERATURE 40 °C
AC$CHROMATOGRAPHY: FLOW_GRADIENT 0 min min 98% A, 1 min 98% A, 2 min 80% A, 16.5 min 2% A, 22 min 2% A, 22.1 min 98% A, 27 min 98% A
AC$CHROMATOGRAPHY: FLOW_RATE 0.3 mL/min
AC$CHROMATOGRAPHY: RETENTION_TIME 7.306 min
AC$CHROMATOGRAPHY: SOLVENT A: Water 0.1% Formic acid, B: Acetonitrile 0.1% Formic acid
MS$FOCUSED_ION: PRECURSOR_M/Z 453.2527
MS$FOCUSED_ION: PRECURSOR_TYPE [M+H]+
MS$DATA_PROCESSING: COMMENT Export with Spectra 1.9.12 MsBackendMassbank 1.7.4
MS$DATA_PROCESSING: WHOLE RMassBank 2.3.1
PK$SPLASH: splash10-0udi-0900000000-d07037b327b103a5268d
PK$NUM_PEAK: 51
PK$PEAK: m/z int. rel.int.
  51.0288 2.5 24
  63.0251 1.1 10
  75.0253 1.4 13
  77.0412 6 59
  85.01 1.1 10
  87.0254 1.4 13
  89.0406 3.3 32
  98.016 1.6 15
  99.0252 1.7 16
  101.0396 2.7 26
  102.0469 3.6 35
  113.039 7.8 77
  114.0314 1.6 15
  114.0456 2.7 26
  115.0549 8.8 87
  125.0379 5.7 56
  126.0473 10.7 106
  127.0548 13.8 137
  128.0607 7.9 78
  137.0397 7.2 71
  138.0461 7.8 77
  139.054 12.7 126
  140.0497 16.9 167
  141.0571 2.8 27
  149.0376 3.3 32
  150.0464 29 287
  151.0544 83.3 827
  152.0618 100.6 999
  153.067 13.5 134
  154.0649 1.6 15
  161.0406 3.3 32
  162.0458 9.1 90
  163.054 55.9 555
  164.0515 41.8 415
  165.0687 17.7 175
  166.0655 2.9 28
  175.0557 1.6 15
  176.0614 38.3 380
  177.0626 27.4 272
  178.0678 31.7 314
  179.0705 7.5 74
  180.0788 3.2 31
  188.0489 14.2 141
  189.0569 12.6 125
  190.0643 69.8 693
  191.0644 9.8 97
  192.068 1.8 17
  203.0632 1.5 14
  204.0651 1.9 18
  205.0757 21.8 216
  206.0823 2.8 27
//
