ACCESSION: MSBNK-BAFG-CSL23102618787
RECORD_TITLE: Picolinafen; LC-ESI-QTOF; MS2; 90 V
DATE: 2023.10.26
AUTHORS: Kevin S. Jewell; Björn Ehlig; Arne Wick
LICENSE: dl-de/by-2-0
COPYRIGHT: Copyright 2023 Federal Institute of Hydrology, Koblenz, Germany
COMMENT: CONFIDENCE Reference Standard (Level 1)
COMMENT: Chromatography method: dx.doi.org/10.1016/j.chroma.2015.11.014
COMMENT: Acquisition method: 10.1002/rcm.8541
CH$NAME: Picolinafen
CH$COMPOUND_CLASS: Herbicide
CH$FORMULA: C19H12F4N2O2
CH$EXACT_MASS: 376.0835
CH$SMILES: C1=CC(=CC(=C1)OC2=CC=CC(=N2)C(=O)NC3=CC=C(C=C3)F)C(F)(F)F
CH$IUPAC: InChI=1S/C19H12F4N2O2/c20-13-7-9-14(10-8-13)24-18(26)16-5-2-6-17(25-16)27-15-4-1-3-12(11-15)19(21,22)23/h1-11H,(H,24,26)
CH$LINK: CAS 137641-05-5
CH$LINK: INCHIKEY CWKFPEBMTGKLKX-UHFFFAOYSA-N
AC$INSTRUMENT: TripleTOF 6600 SCIEX
AC$INSTRUMENT_TYPE: LC-ESI-QTOF
AC$MASS_SPECTROMETRY: MS_TYPE MS2
AC$MASS_SPECTROMETRY: ION_MODE POSITIVE
AC$MASS_SPECTROMETRY: COLLISION_ENERGY 90
AC$MASS_SPECTROMETRY: FRAGMENTATION_MODE CID
AC$MASS_SPECTROMETRY: IONIZATION ESI
AC$CHROMATOGRAPHY: COLUMN_NAME Zorbax Eclipse Plus C18 2.1 mm x 150 mm, 3.5 um, Agilent
AC$CHROMATOGRAPHY: COLUMN_TEMPERATURE 40 °C
AC$CHROMATOGRAPHY: FLOW_GRADIENT 0 min min 98% A, 1 min 98% A, 2 min 80% A, 16.5 min 2% A, 22 min 2% A, 22.1 min 98% A, 27 min 98% A
AC$CHROMATOGRAPHY: FLOW_RATE 0.3 mL/min
AC$CHROMATOGRAPHY: RETENTION_TIME 15.501 min
AC$CHROMATOGRAPHY: SOLVENT A: Water 0.1% Formic acid, B: Acetonitrile 0.1% Formic acid
MS$FOCUSED_ION: PRECURSOR_M/Z 377.0908
MS$FOCUSED_ION: PRECURSOR_TYPE [M+H]+
MS$DATA_PROCESSING: COMMENT Export with Spectra 1.9.12 MsBackendMassbank 1.7.4
MS$DATA_PROCESSING: WHOLE RMassBank 2.3.1
PK$SPLASH: splash10-0002-6900000000-ad6c778e0590f2372d91
PK$NUM_PEAK: 29
PK$PEAK: m/z int. rel.int.
  37.0063 2.6 33
  38.014 1.7 21
  39.0221 14.3 183
  68.9921 2.4 30
  74.0125 8.9 114
  75.0026 4.2 53
  75.0214 21.8 279
  95.0097 0.9 11
  95.0275 38.9 498
  99.002 2.1 26
  113.0349 1.7 21
  114.0439 1.5 19
  119.0077 2.6 33
  123.0324 8.4 107
  125.0177 15.8 202
  133.0428 3.1 39
  140.0477 3.1 39
  141.0551 1 12
  143.0266 3.2 41
  145.0233 77.9 999
  150.0309 1.1 14
  162.0251 0.8 10
  163.0347 2.3 29
  170.0396 1.3 16
  182.0307 1.6 20
  189.0376 1 12
  190.0428 1.7 21
  191.0383 1 12
  238.0447 0.9 11
//
