ACCESSION: MSBNK-BAFG-CSL2310267643
RECORD_TITLE: Mebendazole; LC-ESI-QTOF; MS2; 120 V
DATE: 2023.10.26
AUTHORS: Kevin S. Jewell; Björn Ehlig; Arne Wick
LICENSE: dl-de/by-2-0
COPYRIGHT: Copyright 2023 Federal Institute of Hydrology, Koblenz, Germany
COMMENT: CONFIDENCE Reference Standard (Level 1)
COMMENT: Chromatography method: dx.doi.org/10.1016/j.chroma.2015.11.014
COMMENT: Acquisition method: 10.1002/rcm.8541
CH$NAME: Mebendazole
CH$COMPOUND_CLASS: Pharmaceutical
CH$FORMULA: C16H13N3O3
CH$EXACT_MASS: 295.0957
CH$SMILES: COC(=O)Nc1[nH]c2cc(ccc2n1)C(=O)c3ccccc3
CH$IUPAC: InChI=1S/C16H13N3O3/c1-22-16(21)19-15-17-12-8-7-11(9-13(12)18-15)14(20)10-5-3-2-4-6-10/h2-9H,1H3,(H2,17,18,19,21)
CH$LINK: CAS 31431-39-7
CH$LINK: INCHIKEY OPXLLQIJSORQAM-UHFFFAOYSA-N
AC$INSTRUMENT: TripleTOF 5600 SCIEX
AC$INSTRUMENT_TYPE: LC-ESI-QTOF
AC$MASS_SPECTROMETRY: MS_TYPE MS2
AC$MASS_SPECTROMETRY: ION_MODE POSITIVE
AC$MASS_SPECTROMETRY: COLLISION_ENERGY 120
AC$MASS_SPECTROMETRY: FRAGMENTATION_MODE CID
AC$MASS_SPECTROMETRY: IONIZATION ESI
AC$CHROMATOGRAPHY: COLUMN_NAME Zorbax Eclipse Plus C18 2.1 mm x 150 mm, 3.5 um, Agilent
AC$CHROMATOGRAPHY: COLUMN_TEMPERATURE 40 °C
AC$CHROMATOGRAPHY: FLOW_GRADIENT 0 min min 98% A, 1 min 98% A, 2 min 80% A, 16.5 min 2% A, 22 min 2% A, 22.1 min 98% A, 27 min 98% A
AC$CHROMATOGRAPHY: FLOW_RATE 0.3 mL/min
AC$CHROMATOGRAPHY: RETENTION_TIME 8.672 min
AC$CHROMATOGRAPHY: SOLVENT A: Water 0.1% Formic acid, B: Acetonitrile 0.1% Formic acid
MS$FOCUSED_ION: PRECURSOR_M/Z 296.103
MS$FOCUSED_ION: PRECURSOR_TYPE [M+H]+
MS$DATA_PROCESSING: COMMENT Export with Spectra 1.9.12 MsBackendMassbank 1.7.4
MS$DATA_PROCESSING: WHOLE RMassBank 2.3.1
PK$SPLASH: splash10-004i-9200000000-74c4e6be3736ac4c04b2
PK$NUM_PEAK: 28
PK$PEAK: m/z int. rel.int.
  51.0176 0.4 11
  52.0245 0.8 23
  52.0338 0.7 20
  64.0347 0.9 25
  65.0415 0.6 17
  69.0121 2 57
  74.0186 1 28
  75.0141 3.6 103
  76.0208 13 374
  77.0412 34.7 999
  77.0689 1.3 37
  78.0363 7 201
  78.0536 0.5 14
  89.0402 1.2 34
  90.0354 0.9 25
  103.03 2.2 63
  104.0369 2.5 71
  105.0446 4.4 126
  113.0373 1.3 37
  114.0461 0.6 17
  115.0533 0.7 20
  126.0478 0.8 23
  127.054 0.6 17
  130.0408 0.8 23
  131.0481 0.5 14
  139.0546 2 57
  140.05 0.9 25
  164.05 0.5 14
//
