ACCESSION: MSBNK-BAFG-CSL2310263493
RECORD_TITLE: Diphenhydramine; LC-ESI-QTOF; MS2; 90 V
DATE: 2023.10.26
AUTHORS: Kevin S. Jewell; Björn Ehlig; Arne Wick
LICENSE: dl-de/by-2-0
COPYRIGHT: Copyright 2023 Federal Institute of Hydrology, Koblenz, Germany
COMMENT: CONFIDENCE Reference Standard (Level 1)
COMMENT: Chromatography method: dx.doi.org/10.1016/j.chroma.2015.11.014
COMMENT: Acquisition method: 10.1002/rcm.8541
CH$NAME: Diphenhydramine
CH$COMPOUND_CLASS: Pharmaceutical
CH$FORMULA: C17H21NO
CH$EXACT_MASS: 255.1623
CH$SMILES: CN(C)CCOC(c1ccccc1)c2ccccc2
CH$IUPAC: InChI=1S/C17H21NO/c1-18(2)13-14-19-17(15-9-5-3-6-10-15)16-11-7-4-8-12-16/h3-12,17H,13-14H2,1-2H3
CH$LINK: CAS 58-73-1
CH$LINK: INCHIKEY ZZVUWRFHKOJYTH-UHFFFAOYSA-N
AC$INSTRUMENT: TripleTOF 5600 SCIEX
AC$INSTRUMENT_TYPE: LC-ESI-QTOF
AC$MASS_SPECTROMETRY: MS_TYPE MS2
AC$MASS_SPECTROMETRY: ION_MODE POSITIVE
AC$MASS_SPECTROMETRY: COLLISION_ENERGY 90
AC$MASS_SPECTROMETRY: FRAGMENTATION_MODE CID
AC$MASS_SPECTROMETRY: IONIZATION ESI
AC$CHROMATOGRAPHY: COLUMN_NAME Zorbax Eclipse Plus C18 2.1 mm x 150 mm, 3.5 um, Agilent
AC$CHROMATOGRAPHY: COLUMN_TEMPERATURE 40 °C
AC$CHROMATOGRAPHY: FLOW_GRADIENT 0 min min 98% A, 1 min 98% A, 2 min 80% A, 16.5 min 2% A, 22 min 2% A, 22.1 min 98% A, 27 min 98% A
AC$CHROMATOGRAPHY: FLOW_RATE 0.3 mL/min
AC$CHROMATOGRAPHY: RETENTION_TIME 7.721 min
AC$CHROMATOGRAPHY: SOLVENT A: Water 0.1% Formic acid, B: Acetonitrile 0.1% Formic acid
MS$FOCUSED_ION: PRECURSOR_M/Z 256.1696
MS$FOCUSED_ION: PRECURSOR_TYPE [M+H]+
MS$DATA_PROCESSING: COMMENT Export with Spectra 1.9.12 MsBackendMassbank 1.7.4
MS$DATA_PROCESSING: WHOLE RMassBank 2.3.1
PK$SPLASH: splash10-0gb9-0900000000-634d438d0d0c586310fe
PK$NUM_PEAK: 23
PK$PEAK: m/z int. rel.int.
  65.0434 16.9 35
  74.0183 5.7 12
  76.0343 9.3 19
  77.0418 12.8 26
  78.0491 13.9 29
  87.0249 5 10
  89.0403 29.5 62
  91.0556 8.4 17
  102.0471 39.9 84
  113.0395 5.7 12
  115.0544 158 332
  125.0388 5.5 11
  126.0469 51.6 108
  127.0548 17.4 36
  128.062 63.8 134
  139.0546 73.4 154
  141.0706 12.6 26
  150.0464 46.7 98
  151.0544 127.9 269
  152.0617 210.3 443
  163.0542 96.9 204
  164.0622 143.7 302
  165.0693 474.1 999
//
