ACCESSION: MSBNK-BAFG-CSL23102517607
RECORD_TITLE: Fenarimol; LC-ESI-QTOF; MS2; 150 V
DATE: 2023.10.25
AUTHORS: Kevin S. Jewell; Björn Ehlig; Arne Wick
LICENSE: dl-de/by-2-0
COPYRIGHT: Copyright 2023 Federal Institute of Hydrology, Koblenz, Germany
COMMENT: CONFIDENCE Reference Standard (Level 1)
COMMENT: Chromatography method: dx.doi.org/10.1016/j.chroma.2015.11.014
COMMENT: Acquisition method: 10.1002/rcm.8541
CH$NAME: Fenarimol
CH$COMPOUND_CLASS: Fungicide
CH$FORMULA: C17H12Cl2N2O
CH$EXACT_MASS: 330.0327
CH$SMILES: C1=CC=C(C(=C1)C(C2=CC=C(C=C2)Cl)(C3=CN=CN=C3)O)Cl
CH$IUPAC: InChI=1S/C17H12Cl2N2O/c18-14-7-5-12(6-8-14)17(22,13-9-20-11-21-10-13)15-3-1-2-4-16(15)19/h1-11,22H
CH$LINK: CAS 60168-88-9
CH$LINK: INCHIKEY NHOWDZOIZKMVAI-UHFFFAOYSA-N
AC$INSTRUMENT: TripleTOF 6600 SCIEX
AC$INSTRUMENT_TYPE: LC-ESI-QTOF
AC$MASS_SPECTROMETRY: MS_TYPE MS2
AC$MASS_SPECTROMETRY: ION_MODE POSITIVE
AC$MASS_SPECTROMETRY: COLLISION_ENERGY 150
AC$MASS_SPECTROMETRY: FRAGMENTATION_MODE CID
AC$MASS_SPECTROMETRY: IONIZATION ESI
AC$CHROMATOGRAPHY: COLUMN_NAME Zorbax Eclipse Plus C18 2.1 mm x 150 mm, 3.5 um, Agilent
AC$CHROMATOGRAPHY: COLUMN_TEMPERATURE 40 °C
AC$CHROMATOGRAPHY: FLOW_GRADIENT 0 min min 98% A, 1 min 98% A, 2 min 80% A, 16.5 min 2% A, 22 min 2% A, 22.1 min 98% A, 27 min 98% A
AC$CHROMATOGRAPHY: FLOW_RATE 0.3 mL/min
AC$CHROMATOGRAPHY: RETENTION_TIME 11.9 min
AC$CHROMATOGRAPHY: SOLVENT A: Water 0.1% Formic acid, B: Acetonitrile 0.1% Formic acid
MS$FOCUSED_ION: PRECURSOR_M/Z 331.04
MS$FOCUSED_ION: PRECURSOR_TYPE [M+H]+
MS$DATA_PROCESSING: COMMENT Export with Spectra 1.9.12 MsBackendMassbank 1.7.4
MS$DATA_PROCESSING: WHOLE RMassBank 2.3.1
PK$SPLASH: splash10-00di-9300000000-be74a1f1a6cecffe9885
PK$NUM_PEAK: 35
PK$PEAK: m/z int. rel.int.
  49.0068 1 52
  50.0149 3.8 198
  51.0228 1.8 94
  54.0337 0.7 36
  62.0146 0.8 41
  63.0226 1.5 78
  73.0069 1.6 83
  74.0148 19.1 999
  75.0223 9.4 491
  76.0301 0.7 36
  84.983 1.1 57
  85.0065 0.5 26
  86.015 1.4 73
  87.0227 1.3 67
  89.0372 0.8 41
  98.0136 0.8 41
  99.0222 0.6 31
  110.0145 1.4 73
  110.9983 0.5 26
  111.0215 0.8 41
  113.039 0.8 41
  122.0157 0.5 26
  134.0134 0.9 47
  135.0241 0.6 31
  137.037 0.6 31
  150.0449 1.2 62
  161.0373 1.8 94
  162.0454 0.9 47
  163.0533 0.9 47
  174.046 0.6 31
  175.0526 0.5 26
  185.0388 2.9 151
  186.0457 2.5 130
  187.0537 2.7 141
  201.0555 0.5 26
//
