ACCESSION: MSBNK-BAFG-CSL23103011776
RECORD_TITLE: Estradiol; LC-ESI-QTOF; MS2; 20 V
DATE: 2023.10.30
AUTHORS: Kevin S. Jewell; Björn Ehlig; Arne Wick
LICENSE: dl-de/by-2-0
COPYRIGHT: Copyright 2023 Federal Institute of Hydrology, Koblenz, Germany
COMMENT: CONFIDENCE Reference Standard (Level 1)
COMMENT: Chromatography method: dx.doi.org/10.1016/j.chroma.2015.11.014
COMMENT: Acquisition method: 10.1002/rcm.8541
CH$NAME: Estradiol
CH$COMPOUND_CLASS: Pharmaceutical
CH$FORMULA: C18H24O2
CH$EXACT_MASS: 272.1776
CH$SMILES: CC12CCC3C(C1CCC2O)CCC4=C3C=CC(=C4)O
CH$IUPAC: InChI=1S/C18H24O2/c1-18-9-8-14-13-5-3-12(19)10-11(13)2-4-15(14)16(18)6-7-17(18)20/h3,5,10,14-17,19-20H,2,4,6-9H2,1H3
CH$LINK: CAS 50-28-2
CH$LINK: INCHIKEY VOXZDWNPVJITMN-UHFFFAOYSA-N
AC$INSTRUMENT: TripleTOF 5600 SCIEX
AC$INSTRUMENT_TYPE: LC-ESI-QTOF
AC$MASS_SPECTROMETRY: MS_TYPE MS2
AC$MASS_SPECTROMETRY: ION_MODE POSITIVE
AC$MASS_SPECTROMETRY: COLLISION_ENERGY 20
AC$MASS_SPECTROMETRY: FRAGMENTATION_MODE CID
AC$MASS_SPECTROMETRY: IONIZATION ESI
AC$CHROMATOGRAPHY: COLUMN_NAME Zorbax Eclipse Plus C18 2.1 mm x 150 mm, 3.5 um, Agilent
AC$CHROMATOGRAPHY: COLUMN_TEMPERATURE 40 °C
AC$CHROMATOGRAPHY: FLOW_GRADIENT 0 min min 98% A, 1 min 98% A, 2 min 80% A, 16.5 min 2% A, 22 min 2% A, 22.1 min 98% A, 27 min 98% A
AC$CHROMATOGRAPHY: FLOW_RATE 0.3 mL/min
AC$CHROMATOGRAPHY: RETENTION_TIME 10.403 min
AC$CHROMATOGRAPHY: SOLVENT A: Water 0.1% Formic acid, B: Acetonitrile 0.1% Formic acid
MS$FOCUSED_ION: PRECURSOR_M/Z 273.1849
MS$FOCUSED_ION: PRECURSOR_TYPE [M+H]+
MS$DATA_PROCESSING: COMMENT Export with Spectra 1.9.12 MsBackendMassbank 1.7.4
MS$DATA_PROCESSING: WHOLE RMassBank 2.3.1
PK$SPLASH: splash10-0ab9-0950000000-2ab1b96bff993be21ae6
PK$NUM_PEAK: 31
PK$PEAK: m/z int. rel.int.
  67.054 2 12
  79.0543 2.3 14
  81.0693 6 37
  93.0691 4.3 26
  95.0859 9.6 59
  105.0696 2.1 13
  107.0492 102.7 639
  107.0845 4.1 25
  109.1017 13.6 84
  121.0648 3.4 21
  121.1003 7.2 44
  133.0651 29.8 185
  133.1005 1.8 11
  135.1167 120.7 751
  145.0645 13.6 84
  147.0794 7.8 48
  147.1165 12.8 79
  149.1328 18.3 113
  157.0632 3 18
  159.0805 98.4 612
  161.0957 3.4 21
  161.1322 6.6 41
  173.0963 33.7 209
  179.1429 11.1 69
  185.0953 18.5 115
  187.1121 3 18
  199.1129 12.4 77
  201.1281 6 37
  213.1285 4 24
  255.1745 132.6 825
  273.1855 160.5 999
//
