ACCESSION: MSBNK-BAFG-CSL25010615175
RECORD_TITLE: Dimethenamid-OA; LC-ESI-QTOF; MS2; 90 V
DATE: 2025.01.06
AUTHORS: Ole Lessmann; Kevin S. Jewell; Björn Ehlig; Arne Wick
LICENSE: dl-de/by-2-0
COPYRIGHT: Copyright 2025 Federal Institute of Hydrology, Koblenz, Germany
COMMENT: CONFIDENCE Reference Standard (Level 1)
COMMENT: Chromatography method: dx.doi.org/10.1016/j.chroma.2015.11.014
COMMENT: Acquisition method: 10.1002/rcm.8541
CH$NAME: Dimethenamid-OA
CH$COMPOUND_CLASS: Transformation_product; Herbicide; Transformation_product-Metabolite
CH$FORMULA: C12H17NO4S
CH$EXACT_MASS: 271.0878
CH$SMILES: Cc1csc(c1N(C(C)COC)C(=O)C(=O)O)C
CH$IUPAC: InChI=1S/C12H17NO4S/c1-7-6-18-9(3)10(7)13(8(2)5-17-4)11(14)12(15)16/h6,8H,5H2,1-4H3,(H,15,16)
CH$LINK: CAS 380412-59-9
CH$LINK: INCHIKEY HOYCASTVMCEOTP-UHFFFAOYSA-N
AC$INSTRUMENT: TripleTOF 6600 SCIEX
AC$INSTRUMENT_TYPE: LC-ESI-QTOF
AC$MASS_SPECTROMETRY: MS_TYPE MS2
AC$MASS_SPECTROMETRY: ION_MODE POSITIVE
AC$MASS_SPECTROMETRY: COLLISION_ENERGY 90
AC$MASS_SPECTROMETRY: FRAGMENTATION_MODE CID
AC$MASS_SPECTROMETRY: IONIZATION ESI
AC$CHROMATOGRAPHY: COLUMN_NAME Zorbax Eclipse Plus C18 2.1 mm x 150 mm, 3.5 um, Agilent
AC$CHROMATOGRAPHY: COLUMN_TEMPERATURE 40 °C
AC$CHROMATOGRAPHY: FLOW_GRADIENT 0 min min 98% A, 1 min 98% A, 2 min 80% A, 16.5 min 2% A, 22 min 2% A, 22.1 min 98% A, 27 min 98% A
AC$CHROMATOGRAPHY: FLOW_RATE 0.3 mL/min
AC$CHROMATOGRAPHY: RETENTION_TIME 8.208 min
AC$CHROMATOGRAPHY: SOLVENT A: Water 0.1% Formic acid, B: Acetonitrile 0.1% Formic acid
MS$FOCUSED_ION: PRECURSOR_M/Z 272.0951
MS$FOCUSED_ION: PRECURSOR_TYPE [M+H]+
MS$DATA_PROCESSING: COMMENT Export with pycsl 0.1.0.dev1 and CSL 24.4
PK$SPLASH: splash10-00mo-9100000000-0d88b4d6832428b15c50
PK$NUM_PEAK: 24
PK$PEAK: m/z int. rel.int.
  39.0233 1.0 666
  41.0391 0.6 399
  44.9796 1.2 799
  45.034 0.5 333
  51.0231 0.7 466
  53.0389 0.8 532
  58.9957 1.0 666
  59.991 0.6 399
  65.0388 1.5 999
  66.048 0.5 333
  67.042 0.5 333
  67.0549 0.8 532
  70.9947 0.5 333
  77.0388 1.4 932
  78.0467 0.6 399
  80.0497 0.8 532
  91.0524 0.4 266
  92.0459 0.4 266
  93.0572 0.8 532
  94.065 1.4 932
  97.0103 1.2 799
  104.0512 0.7 466
  111.0263 1.0 666
  126.0352 0.5 333
//