ACCESSION: MSBNK-BAFG-CSL2310307880
RECORD_TITLE: Telmisartan; LC-ESI-QTOF; MS2; 70 V
DATE: 2023.10.30
AUTHORS: Kevin S. Jewell; Björn Ehlig; Arne Wick
LICENSE: dl-de/by-2-0
COPYRIGHT: Copyright 2023 Federal Institute of Hydrology, Koblenz, Germany
COMMENT: CONFIDENCE Reference Standard (Level 1)
COMMENT: Chromatography method: dx.doi.org/10.1016/j.chroma.2015.11.014
COMMENT: Acquisition method: 10.1002/rcm.8541
CH$NAME: Telmisartan
CH$COMPOUND_CLASS: Pharmaceutical
CH$FORMULA: C33H30N4O2
CH$EXACT_MASS: 514.2369
CH$SMILES: CCCc1nc2c(C)cc(cc2n1Cc3ccc(cc3)c4ccccc4C(O)=O)c5nc6ccccc6n5C
CH$IUPAC: InChI=1S/C33H30N4O2/c1-4-9-30-35-31-21(2)18-24(32-34-27-12-7-8-13-28(27)36(32)3)19-29(31)37(30)20-22-14-16-23(17-15-22)25-10-5-6-11-26(25)33(38)39/h5-8,10-19H,4,9,20H2,1-3H3,(H,38,39)
CH$LINK: CAS 144701-48-4
CH$LINK: INCHIKEY RMMXLENWKUUMAY-UHFFFAOYSA-N
AC$INSTRUMENT: TripleTOF 5600 SCIEX
AC$INSTRUMENT_TYPE: LC-ESI-QTOF
AC$MASS_SPECTROMETRY: MS_TYPE MS2
AC$MASS_SPECTROMETRY: ION_MODE POSITIVE
AC$MASS_SPECTROMETRY: COLLISION_ENERGY 70
AC$MASS_SPECTROMETRY: FRAGMENTATION_MODE CID
AC$MASS_SPECTROMETRY: IONIZATION ESI
AC$CHROMATOGRAPHY: COLUMN_NAME Zorbax Eclipse Plus C18 2.1 mm x 150 mm, 3.5 um, Agilent
AC$CHROMATOGRAPHY: COLUMN_TEMPERATURE 40 °C
AC$CHROMATOGRAPHY: FLOW_GRADIENT 0 min min 98% A, 1 min 98% A, 2 min 80% A, 16.5 min 2% A, 22 min 2% A, 22.1 min 98% A, 27 min 98% A
AC$CHROMATOGRAPHY: FLOW_RATE 0.3 mL/min
AC$CHROMATOGRAPHY: RETENTION_TIME 8.861 min
AC$CHROMATOGRAPHY: SOLVENT A: Water 0.1% Formic acid, B: Acetonitrile 0.1% Formic acid
MS$FOCUSED_ION: PRECURSOR_M/Z 515.2442
MS$FOCUSED_ION: PRECURSOR_TYPE [M+H]+
MS$DATA_PROCESSING: COMMENT Export with Spectra 1.9.12 MsBackendMassbank 1.7.4
MS$DATA_PROCESSING: WHOLE RMassBank 2.3.1
PK$SPLASH: splash10-004i-0090000000-b08dabe6dc616adb2a19
PK$NUM_PEAK: 23
PK$PEAK: m/z int. rel.int.
  152.0614 0.7 22
  165.0695 1.2 38
  166.0762 0.4 12
  183.0806 0.6 19
  193.0633 2.6 83
  211.0739 3.3 106
  260.1057 0.9 29
  261.1114 5.8 186
  262.1235 0.5 16
  274.1204 1.3 41
  275.1273 4.4 141
  276.1368 31 999
  287.1249 0.8 25
  288.1343 0.8 25
  289.1443 8 257
  303.1603 3.6 116
  305.1757 1.7 54
  317.176 0.7 22
  455.1856 0.8 25
  467.1854 1.9 61
  471.1802 0.5 16
  485.1934 1 32
  497.234 1.1 35
//
