ACCESSION: MSBNK-BAFG-CSL23103017269
RECORD_TITLE: Fludioxonil; LC-ESI-QTOF; MS2; 40 V
DATE: 2023.10.30
AUTHORS: Kevin S. Jewell; Björn Ehlig; Arne Wick
LICENSE: dl-de/by-2-0
COPYRIGHT: Copyright 2023 Federal Institute of Hydrology, Koblenz, Germany
COMMENT: CONFIDENCE Reference Standard (Level 1)
COMMENT: Chromatography method: dx.doi.org/10.1016/j.chroma.2015.11.014
COMMENT: Acquisition method: 10.1002/rcm.8541
CH$NAME: Fludioxonil
CH$COMPOUND_CLASS: Fungicide
CH$FORMULA: C12H6F2N2O2
CH$EXACT_MASS: 248.0397
CH$SMILES: c1cc(c2c(c1)OC(O2)(F)F)c3c[nH]cc3C#N
CH$IUPAC: InChI=1S/C12H6F2N2O2/c13-12(14)17-10-3-1-2-8(11(10)18-12)9-6-16-5-7(9)4-15/h1-3,5-6,16H
CH$LINK: CAS 131341-86-1
CH$LINK: INCHIKEY MUJOIMFVNIBMKC-UHFFFAOYSA-N
AC$INSTRUMENT: TripleTOF 6600 SCIEX
AC$INSTRUMENT_TYPE: LC-ESI-QTOF
AC$MASS_SPECTROMETRY: MS_TYPE MS2
AC$MASS_SPECTROMETRY: ION_MODE NEGATIVE
AC$MASS_SPECTROMETRY: COLLISION_ENERGY 40
AC$MASS_SPECTROMETRY: FRAGMENTATION_MODE CID
AC$MASS_SPECTROMETRY: IONIZATION ESI
AC$CHROMATOGRAPHY: COLUMN_NAME Zorbax Eclipse Plus C18 2.1 mm x 150 mm, 3.5 um, Agilent
AC$CHROMATOGRAPHY: COLUMN_TEMPERATURE 40 °C
AC$CHROMATOGRAPHY: FLOW_GRADIENT 0 min min 98% A, 1 min 98% A, 2 min 80% A, 16.5 min 2% A, 22 min 2% A, 22.1 min 98% A, 27 min 98% A
AC$CHROMATOGRAPHY: FLOW_RATE 0.3 mL/min
AC$CHROMATOGRAPHY: RETENTION_TIME 11.757 min
AC$CHROMATOGRAPHY: SOLVENT A: Water 0.1% Formic acid, B: Acetonitrile 0.1% Formic acid
MS$FOCUSED_ION: PRECURSOR_M/Z 247.0324
MS$FOCUSED_ION: PRECURSOR_TYPE [M-H]-
MS$DATA_PROCESSING: COMMENT Export with Spectra 1.9.12 MsBackendMassbank 1.7.4
MS$DATA_PROCESSING: WHOLE RMassBank 2.3.1
PK$SPLASH: splash10-003s-0930000000-e1a55f3e4cd6db72d261
PK$NUM_PEAK: 19
PK$PEAK: m/z int. rel.int.
  50.0029 3.7 35
  65.0136 1.4 13
  70.9925 1.8 17
  89.013 4.2 39
  89.038 2.3 21
  124.0186 1.1 10
  126.0347 69.6 659
  127.0294 2.2 20
  141.0449 2.7 25
  151.0292 18.2 172
  152.0366 9.5 90
  153.0444 8 75
  169.0398 27.5 260
  179.0235 9.3 88
  180.0321 90.8 860
  181.0394 15.2 144
  197.034 6.9 65
  199.0294 4.1 38
  247.0306 105.4 999
//
