ACCESSION: MSBNK-BAFG-CSL25010627920
RECORD_TITLE: 2-[(4-hydroxy-9,10-dioxoanthracen-1-yl)amino]-5-methylbenzenesulfonic acid; LC-ESI-QTOF; MS2; 40 V
DATE: 2025.01.06
AUTHORS: Ole Lessmann; Kevin S. Jewell; Björn Ehlig; Arne Wick
LICENSE: dl-de/by-2-0
COPYRIGHT: Copyright 2025 Federal Institute of Hydrology, Koblenz, Germany
COMMENT: CONFIDENCE Reference Standard (Level 1)
COMMENT: Chromatography method: dx.doi.org/10.1016/j.chroma.2015.11.014
COMMENT: Acquisition method: 10.1002/rcm.8541
CH$NAME: 2-[(4-hydroxy-9,10-dioxoanthracen-1-yl)amino]-5-methylbenzenesulfonic acid
CH$FORMULA: C21H15NO6S
CH$EXACT_MASS: 409.062
CH$SMILES: CC1=CC(=C(C=C1)NC2=C3C(=C(C=C2)O)C(=O)C4=CC=CC=C4C3=O)S(=O)(=O)O
CH$IUPAC: InChI=1S/C21H15NO6S/c1-11-6-7-14(17(10-11)29(26,27)28)22-15-8-9-16(23)19-18(15)20(24)12-4-2-3-5-13(12)21(19)25/h2-10,22-23H,1H3,(H,26,27,28)
CH$LINK: CAS 3443-92-3
CH$LINK: INCHIKEY XXQVCGHGQCAKKA-UHFFFAOYSA-N
AC$INSTRUMENT: TripleTOF X500R SCIEX
AC$INSTRUMENT_TYPE: LC-ESI-QTOF
AC$MASS_SPECTROMETRY: MS_TYPE MS2
AC$MASS_SPECTROMETRY: ION_MODE POSITIVE
AC$MASS_SPECTROMETRY: COLLISION_ENERGY 40
AC$MASS_SPECTROMETRY: FRAGMENTATION_MODE CID
AC$MASS_SPECTROMETRY: IONIZATION ESI
AC$CHROMATOGRAPHY: COLUMN_NAME Zorbax Eclipse Plus C18 2.1 mm x 150 mm, 3.5 um, Agilent
AC$CHROMATOGRAPHY: COLUMN_TEMPERATURE 40 °C
AC$CHROMATOGRAPHY: FLOW_GRADIENT 0 min min 98% A, 1 min 98% A, 2 min 80% A, 16.5 min 2% A, 22 min 2% A, 22.1 min 98% A, 27 min 98% A
AC$CHROMATOGRAPHY: FLOW_RATE 0.3 mL/min
AC$CHROMATOGRAPHY: RETENTION_TIME 11.683 min
AC$CHROMATOGRAPHY: SOLVENT A: Water 0.1% Formic acid, B: Acetonitrile 0.1% Formic acid
MS$FOCUSED_ION: PRECURSOR_M/Z 410.0693
MS$FOCUSED_ION: PRECURSOR_TYPE [M+H]+
MS$DATA_PROCESSING: COMMENT Export with pycsl 0.1.0.dev1 and CSL 24.4
PK$SPLASH: splash10-0iml-0019000000-9336ca1f8bde6beeabc8
PK$NUM_PEAK: 32
PK$PEAK: m/z int. rel.int.
  180.0804 1.8 43
  228.0786 0.6 14
  229.0918 0.6 14
  241.0892 0.9 21
  244.1105 1.8 43
  254.0967 1.1 26
  255.0876 0.7 16
  257.0873 0.8 19
  272.1101 1.8 43
  282.0926 7.1 170
  283.0988 1.2 28
  285.0793 5.1 122
  299.0951 0.6 14
  300.1025 21.4 513
  310.0871 0.6 14
  311.093 1.7 40
  312.0664 0.5 12
  312.1023 2.0 48
  313.074 41.6 999
  313.1382 0.5 12
  314.038 0.5 12
  316.0905 0.5 12
  326.0849 0.4 9
  327.0888 2.6 62
  328.0978 30.9 742
  328.1491 0.6 14
  329.1056 6.3 151
  330.112 1.4 33
  342.0773 0.8 19
  343.0851 15.2 365
  344.0925 5.9 141
  344.1317 0.7 16
//