ACCESSION: MSBNK-BAFG-CSL23110914111
RECORD_TITLE: Resorcinol bis(diphenyl phosphate); LC-ESI-QTOF; MS2; 40 V
DATE: 2023.11.09
AUTHORS: Kevin S. Jewell; Björn Ehlig; Arne Wick
LICENSE: dl-de/by-2-0
COPYRIGHT: Copyright 2023 Federal Institute of Hydrology, Koblenz, Germany
COMMENT: CONFIDENCE Reference Standard (Level 1)
COMMENT: Chromatography method: dx.doi.org/10.1016/j.chroma.2015.11.014
COMMENT: Acquisition method: 10.1002/rcm.8541
CH$NAME: Resorcinol bis(diphenyl phosphate)
CH$COMPOUND_CLASS: Industrial_process
CH$FORMULA: C30H24O8P2
CH$EXACT_MASS: 574.0946
CH$SMILES: C1=CC=C(C=C1)OP(=O)(OC2=CC=CC=C2)OC3=CC(=CC=C3)OP(=O)(OC4=CC=CC=C4)OC5=CC=CC=C5
CH$IUPAC: InChI=1S/C30H24O8P2/c31-39(33-25-14-5-1-6-15-25,34-26-16-7-2-8-17-26)37-29-22-13-23-30(24-29)38-40(32,35-27-18-9-3-10-19-27)36-28-20-11-4-12-21-28/h1-24H
CH$LINK: CAS 57583-54-7
CH$LINK: INCHIKEY OWICEWMBIBPFAH-UHFFFAOYSA-N
AC$INSTRUMENT: TripleTOF 6600 SCIEX
AC$INSTRUMENT_TYPE: LC-ESI-QTOF
AC$MASS_SPECTROMETRY: MS_TYPE MS2
AC$MASS_SPECTROMETRY: ION_MODE POSITIVE
AC$MASS_SPECTROMETRY: COLLISION_ENERGY 40
AC$MASS_SPECTROMETRY: FRAGMENTATION_MODE CID
AC$MASS_SPECTROMETRY: IONIZATION ESI
AC$CHROMATOGRAPHY: COLUMN_NAME Zorbax Eclipse Plus C18 2.1 mm x 150 mm, 3.5 um, Agilent
AC$CHROMATOGRAPHY: COLUMN_TEMPERATURE 40 °C
AC$CHROMATOGRAPHY: FLOW_GRADIENT 0 min min 98% A, 1 min 98% A, 2 min 80% A, 16.5 min 2% A, 22 min 2% A, 22.1 min 98% A, 27 min 98% A
AC$CHROMATOGRAPHY: FLOW_RATE 0.3 mL/min
AC$CHROMATOGRAPHY: RETENTION_TIME 15.87 min
AC$CHROMATOGRAPHY: SOLVENT A: Water 0.1% Formic acid, B: Acetonitrile 0.1% Formic acid
MS$FOCUSED_ION: PRECURSOR_M/Z 575.1019
MS$FOCUSED_ION: PRECURSOR_TYPE [M+H]+
MS$DATA_PROCESSING: COMMENT Export with Spectra 1.9.12 MsBackendMassbank 1.7.4
MS$DATA_PROCESSING: WHOLE RMassBank 2.3.1
PK$SPLASH: splash10-004i-0000190000-d76ccef80398b17e7d30
PK$NUM_PEAK: 8
PK$PEAK: m/z int. rel.int.
  325.0646 22.7 12
  343.0757 19.7 10
  387.0217 21.2 11
  405.0318 29.3 15
  419.1079 100.2 54
  481.0647 136.9 74
  499.0735 22.8 12
  575.1083 1845 999
//
