ACCESSION: MSBNK-BAFG-CSL25011734595
RECORD_TITLE: Food Yellow 3 free acid; LC-ESI-QTOF; MS2; 150 V
DATE: 2025.01.17
AUTHORS: Ole Lessmann; Kevin S. Jewell; Björn Ehlig; Arne Wick
LICENSE: dl-de/by-2-0
COPYRIGHT: Copyright 2025 Federal Institute of Hydrology, Koblenz, Germany
COMMENT: CONFIDENCE Reference Standard (Level 1)
COMMENT: Chromatography method: dx.doi.org/10.1016/j.chroma.2015.11.014
CH$NAME: Food Yellow 3 free acid
CH$FORMULA: C16H12N2O7S2
CH$EXACT_MASS: 408.0086
CH$SMILES: C1=CC(=CC=C1N=NC2=C(C=CC3=C2C=CC(=C3)S(=O)(=O)O)O)S(=O)(=O)O
CH$IUPAC: InChI=1S/C16H12N2O7S2/c19-15-8-1-10-9-13(27(23,24)25)6-7-14(10)16(15)18-17-11-2-4-12(5-3-11)26(20,21)22/h1-9,19H,(H,20,21,22)(H,23,24,25)
CH$LINK: CAS 5859-11-0
CH$LINK: INCHIKEY KEYWXKLGZZGHMT-UHFFFAOYSA-N
AC$INSTRUMENT: TripleTOF 6600 SCIEX
AC$INSTRUMENT_TYPE: LC-ESI-QTOF
AC$MASS_SPECTROMETRY: MS_TYPE MS2
AC$MASS_SPECTROMETRY: ION_MODE POSITIVE
AC$MASS_SPECTROMETRY: COLLISION_ENERGY 150
AC$MASS_SPECTROMETRY: FRAGMENTATION_MODE CID
AC$MASS_SPECTROMETRY: IONIZATION ESI
AC$CHROMATOGRAPHY: COLUMN_NAME Zorbax Eclipse Plus C18 2.1 mm x 150 mm, 3.5 um, Agilent
AC$CHROMATOGRAPHY: COLUMN_TEMPERATURE 40 °C
AC$CHROMATOGRAPHY: FLOW_GRADIENT 0 min min 98% A, 1 min 98% A, 2 min 80% A, 16.5 min 2% A, 22 min 2% A, 22.1 min 98% A, 27 min 98% A
AC$CHROMATOGRAPHY: FLOW_RATE 0.3 mL/min
AC$CHROMATOGRAPHY: RETENTION_TIME 5.59 min
AC$CHROMATOGRAPHY: SOLVENT A: Water 0.1% Formic acid, B: Acetonitrile 0.1% Formic acid
MS$FOCUSED_ION: PRECURSOR_M/Z 409.0159
MS$FOCUSED_ION: PRECURSOR_TYPE [M+H]+
MS$DATA_PROCESSING: COMMENT Export with pycsl 0.1.0.dev1 and CSL 25.0
PK$SPLASH: splash10-00di-9000000000-ebe3353a850f277eea87
PK$NUM_PEAK: 46
PK$PEAK: m/z int. rel.int.
  37.007 4.6 58
  38.0152 3.1 39
  39.023 24.8 316
  49.0067 0.8 10
  50.015 18.1 231
  51.0228 9.6 122
  52.0302 0.8 10
  53.0385 18.9 241
  54.0341 0.9 11
  61.0067 6.8 86
  62.0149 14.6 186
  63.0224 23.9 305
  64.018 1.7 21
  64.9691 1.5 19
  65.0386 15.7 200
  73.0064 7.7 98
  74.015 78.2 999
  75.0096 10.6 135
  75.0221 7.8 99
  76.0182 4.6 58
  76.0295 5.5 70
  77.038 1.4 17
  80.0487 26.1 333
  86.0141 2.9 37
  87.0231 4.0 51
  88.0184 1.7 21
  89.0386 3.6 45
  98.0143 20.6 263
  99.01 17.9 228
  100.0179 7.4 94
  100.0298 4.0 51
  101.0261 1.4 17
  102.0463 0.8 10
  114.0354 1.1 14
  127.0435 0.8 10
  149.0393 1.5 19
  150.0465 1.6 20
  163.0538 2.1 26
  164.0485 0.9 11
  174.044 1.9 24
  175.0392 2.2 28
  177.0577 1.1 14
  188.0491 2.0 25
  189.0542 1.2 15
  201.0542 1.8 22
  227.0581 0.8 10
//
