ACCESSION: MSBNK-BAFG-CSL23111018621
RECORD_TITLE: Flutamide; LC-ESI-QTOF; MS2; 100 V
DATE: 2023.11.10
AUTHORS: Kevin S. Jewell; Björn Ehlig; Arne Wick
LICENSE: dl-de/by-2-0
COPYRIGHT: Copyright 2023 Federal Institute of Hydrology, Koblenz, Germany
COMMENT: CONFIDENCE Reference Standard (Level 1)
COMMENT: Chromatography method: dx.doi.org/10.1016/j.chroma.2015.11.014
COMMENT: Acquisition method: 10.1002/rcm.8541
CH$NAME: Flutamide
CH$COMPOUND_CLASS: Pharmaceutical
CH$FORMULA: C11H11F3N2O3
CH$EXACT_MASS: 276.0722
CH$SMILES: CC(C)C(=O)NC1=CC(=C(C=C1)[N+](=O)[O-])C(F)(F)F
CH$IUPAC: InChI=1S/C11H11F3N2O3/c1-6(2)10(17)15-7-3-4-9(16(18)19)8(5-7)11(12,13)14/h3-6H,1-2H3,(H,15,17)
CH$LINK: CAS 13311-84-7
CH$LINK: INCHIKEY MKXKFYHWDHIYRV-UHFFFAOYSA-N
AC$INSTRUMENT: TripleTOF 6600 SCIEX
AC$INSTRUMENT_TYPE: LC-ESI-QTOF
AC$MASS_SPECTROMETRY: MS_TYPE MS2
AC$MASS_SPECTROMETRY: ION_MODE POSITIVE
AC$MASS_SPECTROMETRY: COLLISION_ENERGY 100
AC$MASS_SPECTROMETRY: FRAGMENTATION_MODE CID
AC$MASS_SPECTROMETRY: IONIZATION ESI
AC$CHROMATOGRAPHY: COLUMN_NAME Zorbax Eclipse Plus C18 2.1 mm x 150 mm, 3.5 um, Agilent
AC$CHROMATOGRAPHY: COLUMN_TEMPERATURE 40 °C
AC$CHROMATOGRAPHY: FLOW_GRADIENT 0 min min 98% A, 1 min 98% A, 2 min 80% A, 16.5 min 2% A, 22 min 2% A, 22.1 min 98% A, 27 min 98% A
AC$CHROMATOGRAPHY: FLOW_RATE 0.3 mL/min
AC$CHROMATOGRAPHY: RETENTION_TIME 12.297 min
AC$CHROMATOGRAPHY: SOLVENT A: Water 0.1% Formic acid, B: Acetonitrile 0.1% Formic acid
MS$FOCUSED_ION: PRECURSOR_M/Z 277.0795
MS$FOCUSED_ION: PRECURSOR_TYPE [M+H]+
MS$DATA_PROCESSING: COMMENT Export with Spectra 1.9.12 MsBackendMassbank 1.7.4
MS$DATA_PROCESSING: WHOLE RMassBank 2.3.1
PK$SPLASH: splash10-000f-9100000000-964b1bfbe28bad430fb7
PK$NUM_PEAK: 54
PK$PEAK: m/z int. rel.int.
  37.0057 0.8 109
  37.0126 0.1 13
  38.0019 0.8 109
  38.0148 0.8 109
  39.0101 0.1 13
  39.0226 5.9 807
  40.0075 0.1 13
  41.0382 7.3 999
  43.0535 2.7 369
  51.0029 0.2 27
  52.0047 0.1 13
  52.0183 0.2 27
  53.0126 0.3 41
  53.0385 0.1 13
  57.0128 0.6 82
  60.9849 0.1 13
  64.0307 0.4 54
  65.0351 0.2 27
  65.0414 0.2 27
  68.9921 0.1 13
  73.0051 0.1 13
  74.0131 0.6 82
  75.0035 0.4 54
  75.0213 1.3 177
  77.0403 0.1 13
  83.0271 0.9 123
  84.0369 0.8 109
  88.0102 0.8 109
  89.019 0.1 13
  91.0409 0.3 41
  92.0496 0.2 27
  93.0153 0.2 27
  95.0276 0.6 82
  99.0039 0.2 27
  99.0155 0.1 13
  100.0143 0.3 41
  100.0218 0.2 27
  101.0289 0.1 13
  102.0311 0.3 41
  102.0499 0.2 27
  111.0463 0.5 68
  113.0184 0.4 54
  113.0236 0.2 27
  114.0259 1 136
  115.0557 0.4 54
  120.0208 0.2 27
  125.0192 0.2 27
  126.0405 0.2 27
  132.0183 0.3 41
  133.0471 0.1 13
  141.0246 0.1 13
  141.0646 0.1 13
  142.0468 0.5 68
  160.0377 0.1 13
//
