ACCESSION: MSBNK-BAFG-CSL2310257427
RECORD_TITLE: Ethisterone; LC-ESI-QTOF; MS2; 110 V
DATE: 2023.10.25
AUTHORS: Kevin S. Jewell; Björn Ehlig; Arne Wick
LICENSE: dl-de/by-2-0
COPYRIGHT: Copyright 2023 Federal Institute of Hydrology, Koblenz, Germany
COMMENT: CONFIDENCE Reference Standard (Level 1)
COMMENT: Chromatography method: dx.doi.org/10.1016/j.chroma.2015.11.014
COMMENT: Acquisition method: 10.1002/rcm.8541
CH$NAME: Ethisterone
CH$COMPOUND_CLASS: Pharmaceutical; Metabolite
CH$FORMULA: C21H28O2
CH$EXACT_MASS: 312.2089
CH$SMILES: C[C@]12CCC(=O)C=C1CC[C@@H]3[C@@H]2CC[C@@]4(C)[C@H]3CC[C@@]4(O)C#C
CH$IUPAC: InChI=1S/C21H28O2/c1-4-21(23)12-9-18-16-6-5-14-13-15(22)7-10-19(14,2)17(16)8-11-20(18,21)3/h1,13,16-18,23H,5-12H2,2-3H3/t16-,17+,18+,19+,20+,21+/m1/s1
CH$LINK: CAS 434-03-7
CH$LINK: INCHIKEY CHNXZKVNWQUJIB-CEGNMAFCSA-N
AC$INSTRUMENT: TripleTOF 5600 SCIEX
AC$INSTRUMENT_TYPE: LC-ESI-QTOF
AC$MASS_SPECTROMETRY: MS_TYPE MS2
AC$MASS_SPECTROMETRY: ION_MODE POSITIVE
AC$MASS_SPECTROMETRY: COLLISION_ENERGY 110
AC$MASS_SPECTROMETRY: FRAGMENTATION_MODE CID
AC$MASS_SPECTROMETRY: IONIZATION ESI
AC$CHROMATOGRAPHY: COLUMN_NAME Zorbax Eclipse Plus C18 2.1 mm x 150 mm, 3.5 um, Agilent
AC$CHROMATOGRAPHY: COLUMN_TEMPERATURE 40 °C
AC$CHROMATOGRAPHY: FLOW_GRADIENT 0 min min 98% A, 1 min 98% A, 2 min 80% A, 16.5 min 2% A, 22 min 2% A, 22.1 min 98% A, 27 min 98% A
AC$CHROMATOGRAPHY: FLOW_RATE 0.3 mL/min
AC$CHROMATOGRAPHY: RETENTION_TIME 11.662 min
AC$CHROMATOGRAPHY: SOLVENT A: Water 0.1% Formic acid, B: Acetonitrile 0.1% Formic acid
MS$FOCUSED_ION: PRECURSOR_M/Z 313.2162
MS$FOCUSED_ION: PRECURSOR_TYPE [M+H]+
MS$DATA_PROCESSING: COMMENT Export with Spectra 1.9.12 MsBackendMassbank 1.7.4
MS$DATA_PROCESSING: WHOLE RMassBank 2.3.1
PK$SPLASH: splash10-004i-9400000000-fe64ae058e95148997f4
PK$NUM_PEAK: 42
PK$PEAK: m/z int. rel.int.
  43.0246 1.8 78
  43.0425 0.4 17
  53.0449 1.7 74
  55.0257 1.4 61
  65.043 6.7 293
  66.0483 0.9 39
  67.0577 2.4 105
  69.0736 0.7 30
  77.0419 22.8 999
  77.0694 1.1 48
  78.0505 1.1 48
  79.0572 9.4 411
  81.036 0.8 35
  81.0724 2.6 113
  82.0427 0.6 26
  83.0509 0.6 26
  89.04 1.4 61
  89.0596 0.6 26
  91.0559 9.8 429
  93.0717 0.5 21
  94.0433 0.8 35
  95.0915 0.4 17
  97.0655 5.3 232
  102.0467 1.5 65
  103.0561 1.2 52
  105.0698 0.5 21
  107.05 0.5 21
  109.0643 2.2 96
  115.0542 9.8 429
  117.0688 0.5 21
  126.0481 0.8 35
  127.0547 3 131
  128.0619 6.7 293
  129.0699 0.7 30
  139.0573 0.5 21
  141.0699 1.2 52
  151.0572 0.8 35
  152.0613 2.1 92
  153.0712 0.8 35
  165.0697 1.5 65
  189.0708 0.4 17
  202.0759 0.5 21
//
