ACCESSION: MSBNK-BAFG-CSL23102519296
RECORD_TITLE: Metobromuron; LC-ESI-QTOF; MS2; 80 V
DATE: 2023.10.25
AUTHORS: Kevin S. Jewell; Björn Ehlig; Arne Wick
LICENSE: dl-de/by-2-0
COPYRIGHT: Copyright 2023 Federal Institute of Hydrology, Koblenz, Germany
COMMENT: CONFIDENCE Reference Standard (Level 1)
COMMENT: Chromatography method: dx.doi.org/10.1016/j.chroma.2015.11.014
COMMENT: Acquisition method: 10.1002/rcm.8541
CH$NAME: Metobromuron
CH$COMPOUND_CLASS: Herbicide
CH$FORMULA: C9H11BrN2O2
CH$EXACT_MASS: 258.0004
CH$SMILES: CN(C(=O)NC1=CC=C(C=C1)Br)OC
CH$IUPAC: InChI=1S/C9H11BrN2O2/c1-12(14-2)9(13)11-8-5-3-7(10)4-6-8/h3-6H,1-2H3,(H,11,13)
CH$LINK: CAS 3060-89-7
CH$LINK: INCHIKEY WLFDQEVORAMCIM-UHFFFAOYSA-N
AC$INSTRUMENT: TripleTOF 6600 SCIEX
AC$INSTRUMENT_TYPE: LC-ESI-QTOF
AC$MASS_SPECTROMETRY: MS_TYPE MS2
AC$MASS_SPECTROMETRY: ION_MODE POSITIVE
AC$MASS_SPECTROMETRY: COLLISION_ENERGY 80
AC$MASS_SPECTROMETRY: FRAGMENTATION_MODE CID
AC$MASS_SPECTROMETRY: IONIZATION ESI
AC$CHROMATOGRAPHY: COLUMN_NAME Zorbax Eclipse Plus C18 2.1 mm x 150 mm, 3.5 um, Agilent
AC$CHROMATOGRAPHY: COLUMN_TEMPERATURE 40 °C
AC$CHROMATOGRAPHY: FLOW_GRADIENT 0 min min 98% A, 1 min 98% A, 2 min 80% A, 16.5 min 2% A, 22 min 2% A, 22.1 min 98% A, 27 min 98% A
AC$CHROMATOGRAPHY: FLOW_RATE 0.3 mL/min
AC$CHROMATOGRAPHY: RETENTION_TIME 10.623 min
AC$CHROMATOGRAPHY: SOLVENT A: Water 0.1% Formic acid, B: Acetonitrile 0.1% Formic acid
MS$FOCUSED_ION: PRECURSOR_M/Z 259.0077
MS$FOCUSED_ION: PRECURSOR_TYPE [M+H]+
MS$DATA_PROCESSING: COMMENT Export with Spectra 1.9.12 MsBackendMassbank 1.7.4
MS$DATA_PROCESSING: WHOLE RMassBank 2.3.1
PK$SPLASH: splash10-02tc-9300000000-8c1bf3c06d660e3f9489
PK$NUM_PEAK: 22
PK$PEAK: m/z int. rel.int.
  37.0052 0.7 65
  38.0127 0.5 46
  39.0209 2.8 261
  41.0236 0.6 56
  51.0201 0.6 56
  52.0155 1.5 140
  61.0053 0.8 74
  62.0119 2 186
  63.0202 9.8 914
  64.0281 4.8 448
  65.0234 1 93
  65.0357 9.9 924
  78.0307 0.5 46
  91.0385 10.7 999
  92.0463 4 373
  92.9293 0.9 84
  105.0407 0.5 46
  116.9296 6.2 578
  119.0571 4.7 438
  129.0384 0.5 46
  142.9452 5 466
  170.9641 1.1 102
//
