ACCESSION: MSBNK-BAFG-CSL23102516113
RECORD_TITLE: Clopidogrel carboxylic acid; LC-ESI-QTOF; MS2; 120 V
DATE: 2023.10.25
AUTHORS: Kevin S. Jewell; Björn Ehlig; Arne Wick
LICENSE: dl-de/by-2-0
COPYRIGHT: Copyright 2023 Federal Institute of Hydrology, Koblenz, Germany
COMMENT: CONFIDENCE Reference Standard (Level 1)
COMMENT: Chromatography method: dx.doi.org/10.1016/j.chroma.2015.11.014
COMMENT: Acquisition method: 10.1002/rcm.8541
CH$NAME: Clopidogrel carboxylic acid
CH$COMPOUND_CLASS: Pharmaceutical
CH$FORMULA: C15H14ClNO2S
CH$EXACT_MASS: 307.0434
CH$SMILES: C1CN(CC2=C1SC=C2)C(C3=CC=CC=C3Cl)C(=O)O
CH$IUPAC: InChI=1S/C15H14ClNO2S/c16-12-4-2-1-3-11(12)14(15(18)19)17-7-5-13-10(9-17)6-8-20-13/h1-4,6,8,14H,5,7,9H2,(H,18,19)
CH$LINK: CAS 144457-28-3
CH$LINK: INCHIKEY DCASRSISIKYPDD-UHFFFAOYSA-N
AC$INSTRUMENT: TripleTOF 6600 SCIEX
AC$INSTRUMENT_TYPE: LC-ESI-QTOF
AC$MASS_SPECTROMETRY: MS_TYPE MS2
AC$MASS_SPECTROMETRY: ION_MODE POSITIVE
AC$MASS_SPECTROMETRY: COLLISION_ENERGY 120
AC$MASS_SPECTROMETRY: FRAGMENTATION_MODE CID
AC$MASS_SPECTROMETRY: IONIZATION ESI
AC$CHROMATOGRAPHY: COLUMN_NAME Zorbax Eclipse Plus C18 2.1 mm x 150 mm, 3.5 um, Agilent
AC$CHROMATOGRAPHY: COLUMN_TEMPERATURE 40 °C
AC$CHROMATOGRAPHY: FLOW_GRADIENT 0 min min 98% A, 1 min 98% A, 2 min 80% A, 16.5 min 2% A, 22 min 2% A, 22.1 min 98% A, 27 min 98% A
AC$CHROMATOGRAPHY: FLOW_RATE 0.3 mL/min
AC$CHROMATOGRAPHY: RETENTION_TIME 6.621 min
AC$CHROMATOGRAPHY: SOLVENT A: Water 0.1% Formic acid, B: Acetonitrile 0.1% Formic acid
MS$FOCUSED_ION: PRECURSOR_M/Z 308.0507
MS$FOCUSED_ION: PRECURSOR_TYPE [M+H]+
MS$DATA_PROCESSING: COMMENT Export with Spectra 1.9.12 MsBackendMassbank 1.7.4
MS$DATA_PROCESSING: WHOLE RMassBank 2.3.1
PK$SPLASH: splash10-0udi-9000000000-78d85766505dca6ac0c3
PK$NUM_PEAK: 21
PK$PEAK: m/z int. rel.int.
  39.0236 3.6 23
  44.9795 1.6 10
  49.0079 9.7 62
  50.0159 53.8 346
  51.0239 155.1 999
  52.0311 4.4 28
  61.0076 1.8 11
  62.0159 4.9 31
  63.0236 15.9 102
  64.032 1.8 11
  65.0391 2.9 18
  72.9846 10.7 68
  74.0153 3.1 19
  75.0234 2.9 18
  77.0394 81.8 526
  78.0467 11.1 71
  89.0391 29.3 188
  90.0465 8.8 56
  98.9999 7.7 49
  105.0437 1.6 10
  125.0151 2.8 18
//
