ACCESSION: MSBNK-BAFG-CSL23103127477
RECORD_TITLE: 3,3`-Dimethoxybenzidine; LC-ESI-QTOF; MS2; 120 V
DATE: 2023.10.31
AUTHORS: Kevin S. Jewell; Björn Ehlig; Arne Wick
LICENSE: dl-de/by-2-0
COPYRIGHT: Copyright 2023 Federal Institute of Hydrology, Koblenz, Germany
COMMENT: CONFIDENCE Reference Standard (Level 1)
COMMENT: Chromatography method: dx.doi.org/10.1016/j.chroma.2015.11.014
COMMENT: Acquisition method: 10.1002/rcm.8541
CH$NAME: 3,3`-Dimethoxybenzidine
CH$FORMULA: C14H16N2O2
CH$EXACT_MASS: 244.1212
CH$SMILES: COC1=C(C=CC(=C1)C2=CC(=C(C=C2)N)OC)N
CH$IUPAC: InChI=1S/C14H16N2O2/c1-17-13-7-9(3-5-11(13)15)10-4-6-12(16)14(8-10)18-2/h3-8H,15-16H2,1-2H3
CH$LINK: CAS 119-90-4
CH$LINK: INCHIKEY JRBJSXQPQWSCCF-UHFFFAOYSA-N
AC$INSTRUMENT: TripleTOF 6600 SCIEX
AC$INSTRUMENT_TYPE: LC-ESI-QTOF
AC$MASS_SPECTROMETRY: MS_TYPE MS2
AC$MASS_SPECTROMETRY: ION_MODE POSITIVE
AC$MASS_SPECTROMETRY: COLLISION_ENERGY 120
AC$MASS_SPECTROMETRY: FRAGMENTATION_MODE CID
AC$MASS_SPECTROMETRY: IONIZATION ESI
AC$CHROMATOGRAPHY: COLUMN_NAME Zorbax Eclipse Plus C18 2.1 mm x 150 mm, 3.5 um, Agilent
AC$CHROMATOGRAPHY: COLUMN_TEMPERATURE 40 °C
AC$CHROMATOGRAPHY: FLOW_GRADIENT 0 min min 98% A, 1 min 98% A, 2 min 80% A, 16.5 min 2% A, 22 min 2% A, 22.1 min 98% A, 27 min 98% A
AC$CHROMATOGRAPHY: FLOW_RATE 0.3 mL/min
AC$CHROMATOGRAPHY: RETENTION_TIME 5.188 min
AC$CHROMATOGRAPHY: SOLVENT A: Water 0.1% Formic acid, B: Acetonitrile 0.1% Formic acid
MS$FOCUSED_ION: PRECURSOR_M/Z 245.1285
MS$FOCUSED_ION: PRECURSOR_TYPE [M+H]+
MS$DATA_PROCESSING: COMMENT Export with Spectra 1.9.12 MsBackendMassbank 1.7.4
MS$DATA_PROCESSING: WHOLE RMassBank 2.3.1
PK$SPLASH: splash10-03g0-9200000000-c83d1d5a46df3e0a838c
PK$NUM_PEAK: 34
PK$PEAK: m/z int. rel.int.
  39.0231 1.5 208
  50.0146 1.5 208
  51.0231 2.5 346
  52.0184 0.5 69
  53.0397 0.4 55
  61.0067 0.7 97
  62.0141 2.1 291
  63.0223 5.1 707
  65.0383 1.5 208
  73.0075 0.6 83
  74.0153 2.7 374
  75.0229 2.3 319
  76.0303 0.6 83
  77.0379 4.1 568
  78.0389 1.3 180
  80.0479 0.6 83
  86.0141 0.7 97
  87.0217 1.1 152
  88.0295 0.9 124
  89.0379 7.2 999
  90.0441 1 138
  91.0517 0.6 83
  98.0156 1.1 152
  99.0209 0.6 83
  104.0506 0.7 97
  105.05 0.5 69
  113.0382 2 277
  114.0421 1.3 180
  115.053 3 416
  116.0483 0.4 55
  126.0454 0.6 83
  127.0545 0.4 55
  130.0626 0.5 69
  140.054 0.6 83
//
