ACCESSION: MSBNK-BAFG-CSL2310258629
RECORD_TITLE: Ethyl-N-(3-amino-2-methylphenyl)carbamate; LC-ESI-QTOF; MS2; 100 V
DATE: 2023.10.25
AUTHORS: Kevin S. Jewell; Björn Ehlig; Arne Wick
LICENSE: dl-de/by-2-0
COPYRIGHT: Copyright 2023 Federal Institute of Hydrology, Koblenz, Germany
COMMENT: CONFIDENCE Reference Standard (Level 1)
COMMENT: Chromatography method: dx.doi.org/10.1016/j.chroma.2015.11.014
COMMENT: Acquisition method: 10.1002/rcm.8541
CH$NAME: Ethyl-N-(3-amino-2-methylphenyl)carbamate
CH$COMPOUND_CLASS: Industrial_process
CH$FORMULA: C10H14N2O2
CH$EXACT_MASS: 194.1055
CH$SMILES: CCOC(=O)NC1=CC=CC(=C1C)N
CH$IUPAC: InChI=1S/C10H14N2O2/c1-3-14-10(13)12-9-6-4-5-8(11)7(9)2/h4-6H,3,11H2,1-2H3,(H,12,13)
CH$LINK: CAS 1016755-26-2
CH$LINK: INCHIKEY CUARKGNESAJPQR-UHFFFAOYSA-N
AC$INSTRUMENT: TripleTOF 5600 SCIEX
AC$INSTRUMENT_TYPE: LC-ESI-QTOF
AC$MASS_SPECTROMETRY: MS_TYPE MS2
AC$MASS_SPECTROMETRY: ION_MODE POSITIVE
AC$MASS_SPECTROMETRY: COLLISION_ENERGY 100
AC$MASS_SPECTROMETRY: FRAGMENTATION_MODE CID
AC$MASS_SPECTROMETRY: IONIZATION ESI
AC$CHROMATOGRAPHY: COLUMN_NAME Zorbax Eclipse Plus C18 2.1 mm x 150 mm, 3.5 um, Agilent
AC$CHROMATOGRAPHY: COLUMN_TEMPERATURE 40 °C
AC$CHROMATOGRAPHY: FLOW_GRADIENT 0 min min 98% A, 1 min 98% A, 2 min 80% A, 16.5 min 2% A, 22 min 2% A, 22.1 min 98% A, 27 min 98% A
AC$CHROMATOGRAPHY: FLOW_RATE 0.3 mL/min
AC$CHROMATOGRAPHY: RETENTION_TIME 5.082 min
AC$CHROMATOGRAPHY: SOLVENT A: Water 0.1% Formic acid, B: Acetonitrile 0.1% Formic acid
MS$FOCUSED_ION: PRECURSOR_M/Z 195.1128
MS$FOCUSED_ION: PRECURSOR_TYPE [M+H]+
MS$DATA_PROCESSING: COMMENT Export with Spectra 1.9.12 MsBackendMassbank 1.7.4
MS$DATA_PROCESSING: WHOLE RMassBank 2.3.1
PK$SPLASH: splash10-0059-9000000000-6226b43407e6bba8c6bb
PK$NUM_PEAK: 20
PK$PEAK: m/z int. rel.int.
  42.0445 0.7 50
  52.0274 0.6 43
  54.0478 0.7 50
  64.0383 1 71
  65.046 1.9 136
  66.0409 0.5 35
  67.0482 0.8 57
  76.023 0.5 35
  77.0433 13.9 999
  78.0393 1.8 129
  79.0496 0.7 50
  79.0576 0.7 50
  80.0544 10.6 761
  89.0429 0.6 43
  91.0446 0.5 35
  93.0618 0.5 35
  104.0498 0.6 43
  105.0451 1.1 79
  106.0627 0.9 64
  107.061 0.9 64
//
