ACCESSION: MSBNK-BAFG-CSL2310305801
RECORD_TITLE: Lisofylline; LC-ESI-QTOF; MS2; 40 V
DATE: 2023.10.30
AUTHORS: Kevin S. Jewell; Björn Ehlig; Arne Wick
LICENSE: dl-de/by-2-0
COPYRIGHT: Copyright 2023 Federal Institute of Hydrology, Koblenz, Germany
COMMENT: CONFIDENCE Reference Standard (Level 1)
COMMENT: Chromatography method: dx.doi.org/10.1016/j.chroma.2015.11.014
COMMENT: Acquisition method: 10.1002/rcm.8541
CH$NAME: Lisofylline
CH$COMPOUND_CLASS: Pharmaceutical; Metabolite
CH$FORMULA: C13H20N4O3
CH$EXACT_MASS: 280.1535
CH$SMILES: CC(O)CCCCN1C(=O)N(C)c2ncn(C)c2C1=O
CH$IUPAC: InChI=1S/C13H20N4O3/c1-9(18)6-4-5-7-17-12(19)10-11(14-8-15(10)2)16(3)13(17)20/h8-9,18H,4-7H2,1-3H3
CH$LINK: CAS 6493-06-7
CH$LINK: INCHIKEY NSMXQKNUPPXBRG-UHFFFAOYSA-N
AC$INSTRUMENT: TripleTOF 5600 SCIEX
AC$INSTRUMENT_TYPE: LC-ESI-QTOF
AC$MASS_SPECTROMETRY: MS_TYPE MS2
AC$MASS_SPECTROMETRY: ION_MODE POSITIVE
AC$MASS_SPECTROMETRY: COLLISION_ENERGY 40
AC$MASS_SPECTROMETRY: FRAGMENTATION_MODE CID
AC$MASS_SPECTROMETRY: IONIZATION ESI
AC$CHROMATOGRAPHY: COLUMN_NAME Zorbax Eclipse Plus C18 2.1 mm x 150 mm, 3.5 um, Agilent
AC$CHROMATOGRAPHY: COLUMN_TEMPERATURE 40 °C
AC$CHROMATOGRAPHY: FLOW_GRADIENT 0 min min 98% A, 1 min 98% A, 2 min 80% A, 16.5 min 2% A, 22 min 2% A, 22.1 min 98% A, 27 min 98% A
AC$CHROMATOGRAPHY: FLOW_RATE 0.3 mL/min
AC$CHROMATOGRAPHY: RETENTION_TIME 6.425 min
AC$CHROMATOGRAPHY: SOLVENT A: Water 0.1% Formic acid, B: Acetonitrile 0.1% Formic acid
MS$FOCUSED_ION: PRECURSOR_M/Z 281.1608
MS$FOCUSED_ION: PRECURSOR_TYPE [M+H]+
MS$DATA_PROCESSING: COMMENT Export with Spectra 1.9.12 MsBackendMassbank 1.7.4
MS$DATA_PROCESSING: WHOLE RMassBank 2.3.1
PK$SPLASH: splash10-001u-0900000000-aaa4168fdec7cc69e2c7
PK$NUM_PEAK: 24
PK$PEAK: m/z int. rel.int.
  42.0417 1.4 11
  55.0596 4.6 38
  67.0321 3.2 26
  69.0476 4.3 36
  81.046 5.3 44
  83.0254 1.7 14
  83.0621 4.1 34
  95.0617 1.6 13
  96.0563 3 25
  108.0555 14.8 123
  110.0712 18.8 157
  121.0631 3 25
  122.0703 6.9 57
  124.0493 1.2 10
  132.0548 3.9 32
  135.0671 8.4 70
  136.0505 13.5 113
  137.0818 14.1 118
  138.0666 59.3 496
  149.0833 2.8 23
  163.0616 35.8 299
  165.0773 17.5 146
  181.0727 119.3 999
  193.072 84.8 710
//
