ACCESSION: MSBNK-BAFG-CSL2311094783
RECORD_TITLE: Iopromide; LC-ESI-QTOF; MS2; 80 V
DATE: 2023.11.09
AUTHORS: Kevin S. Jewell; Björn Ehlig; Arne Wick
LICENSE: dl-de/by-2-0
COPYRIGHT: Copyright 2023 Federal Institute of Hydrology, Koblenz, Germany
COMMENT: CONFIDENCE Reference Standard (Level 1)
COMMENT: Chromatography method: dx.doi.org/10.1016/j.chroma.2015.11.014
COMMENT: Acquisition method: 10.1002/rcm.8541
CH$NAME: Iopromide
CH$COMPOUND_CLASS: Pharmaceutical
CH$FORMULA: C18H24I3N3O8
CH$EXACT_MASS: 790.8698
CH$SMILES: COCC(=O)Nc1c(I)c(C(=O)NCC(O)CO)c(I)c(c1I)C(=O)N(C)CC(O)CO
CH$IUPAC: InChI=1S/C18H24I3N3O8/c1-24(4-9(28)6-26)18(31)12-13(19)11(17(30)22-3-8(27)5-25)14(20)16(15(12)21)23-10(29)7-32-2/h8-9,25-28H,3-7H2,1-2H3,(H,22,30)(H,23,29)
CH$LINK: CAS 73334-07-3
CH$LINK: INCHIKEY DGAIEPBNLOQYER-UHFFFAOYSA-N
AC$INSTRUMENT: TripleTOF 5600 SCIEX
AC$INSTRUMENT_TYPE: LC-ESI-QTOF
AC$MASS_SPECTROMETRY: MS_TYPE MS2
AC$MASS_SPECTROMETRY: ION_MODE POSITIVE
AC$MASS_SPECTROMETRY: COLLISION_ENERGY 80
AC$MASS_SPECTROMETRY: FRAGMENTATION_MODE CID
AC$MASS_SPECTROMETRY: IONIZATION ESI
AC$CHROMATOGRAPHY: COLUMN_NAME Zorbax Eclipse Plus C18 2.1 mm x 150 mm, 3.5 um, Agilent
AC$CHROMATOGRAPHY: COLUMN_TEMPERATURE 40 °C
AC$CHROMATOGRAPHY: FLOW_GRADIENT 0 min min 98% A, 1 min 98% A, 2 min 80% A, 16.5 min 2% A, 22 min 2% A, 22.1 min 98% A, 27 min 98% A
AC$CHROMATOGRAPHY: FLOW_RATE 0.3 mL/min
AC$CHROMATOGRAPHY: RETENTION_TIME 4.895 min
AC$CHROMATOGRAPHY: SOLVENT A: Water 0.1% Formic acid, B: Acetonitrile 0.1% Formic acid
MS$FOCUSED_ION: PRECURSOR_M/Z 791.877
MS$FOCUSED_ION: PRECURSOR_TYPE [M+H]+
MS$DATA_PROCESSING: COMMENT Export with Spectra 1.9.12 MsBackendMassbank 1.7.4
MS$DATA_PROCESSING: WHOLE RMassBank 2.3.1
PK$SPLASH: splash10-0002-0093400000-4a1cc1071f2f78e5a4c9
PK$NUM_PEAK: 70
PK$PEAK: m/z int. rel.int.
  117.02 0.8 14
  141.9904 0.8 14
  172.0017 1.4 25
  173.0109 1.1 20
  188.0335 0.8 14
  203.0235 0.8 14
  204.0323 0.8 14
  227.9335 0.7 12
  242.9149 0.8 14
  243.9252 0.8 14
  255.9256 1.9 35
  259.0717 1.7 31
  269.939 0.9 16
  270.9143 0.8 14
  271.9223 1.6 29
  282.919 0.6 11
  283.9218 3 55
  284.9301 1.5 27
  285.9351 1 18
  286.9471 0.6 11
  287.9456 0.7 12
  291.1014 1 18
  297.9023 0.6 11
  297.9627 0.7 12
  298.9056 3.6 66
  298.9264 1.6 29
  298.9693 1.5 27
  299.9158 54.1 999
  301.9324 0.7 12
  311.9161 0.8 14
  311.9409 0.6 11
  312.9457 3.5 64
  313.9308 5.5 101
  314.9353 0.8 14
  325.9337 0.8 14
  326.902 4.4 81
  326.9647 0.7 12
  327.9469 0.6 11
  329.9604 0.6 11
  330.9307 0.6 11
  341.8231 0.5 9
  343.9585 0.9 16
  355.8113 1 18
  357.9226 4.4 81
  369.8248 0.9 16
  372.9694 1.4 25
  382.8306 2.2 40
  385.8206 1.5 27
  386.9847 1.7 31
  398.8283 0.9 16
  400.9967 2.1 38
  404.9939 0.7 12
  409.8231 1.9 35
  410.8298 2.3 42
  413.8132 1.3 24
  413.8507 0.6 11
  413.9696 1.1 20
  422.8274 1 18
  423.7978 16.9 312
  425.8141 4.6 84
  425.8451 1.4 25
  426.8314 1.1 20
  440.8307 1.4 25
  441.843 1.1 20
  485.8347 1 18
  496.8471 0.6 11
  527.8645 1.3 24
  541.8894 0.9 16
  558.889 2.7 49
  572.8973 0.8 14
//
