ACCESSION: MSBNK-BAFG-CSL23103017030
RECORD_TITLE: Metaflumizone; LC-ESI-QTOF; MS2; 40 V
DATE: 2023.10.30
AUTHORS: Kevin S. Jewell; Björn Ehlig; Arne Wick
LICENSE: dl-de/by-2-0
COPYRIGHT: Copyright 2023 Federal Institute of Hydrology, Koblenz, Germany
COMMENT: CONFIDENCE Reference Standard (Level 1)
COMMENT: Chromatography method: dx.doi.org/10.1016/j.chroma.2015.11.014
COMMENT: Acquisition method: 10.1002/rcm.8541
CH$NAME: Metaflumizone
CH$COMPOUND_CLASS: Insecticide; Pharmaceutical
CH$FORMULA: C24H16F6N4O2
CH$EXACT_MASS: 506.1177
CH$SMILES: C1=CC(=CC(=C1)C(F)(F)F)C(=NNC(=O)NC2=CC=C(C=C2)OC(F)(F)F)CC3=CC=C(C=C3)C#N
CH$IUPAC: InChI=1S/C24H16F6N4O2/c25-23(26,27)18-3-1-2-17(13-18)21(12-15-4-6-16(14-31)7-5-15)33-34-22(35)32-19-8-10-20(11-9-19)36-24(28,29)30/h1-11,13H,12H2,(H2,32,34,35)
CH$LINK: CAS 139968-49-3
CH$LINK: INCHIKEY MIFOMMKAVSCNKQ-UHFFFAOYSA-N
AC$INSTRUMENT: TripleTOF 6600 SCIEX
AC$INSTRUMENT_TYPE: LC-ESI-QTOF
AC$MASS_SPECTROMETRY: MS_TYPE MS2
AC$MASS_SPECTROMETRY: ION_MODE POSITIVE
AC$MASS_SPECTROMETRY: COLLISION_ENERGY 40
AC$MASS_SPECTROMETRY: FRAGMENTATION_MODE CID
AC$MASS_SPECTROMETRY: IONIZATION ESI
AC$CHROMATOGRAPHY: COLUMN_NAME Zorbax Eclipse Plus C18 2.1 mm x 150 mm, 3.5 um, Agilent
AC$CHROMATOGRAPHY: COLUMN_TEMPERATURE 40 °C
AC$CHROMATOGRAPHY: FLOW_GRADIENT 0 min min 98% A, 1 min 98% A, 2 min 80% A, 16.5 min 2% A, 22 min 2% A, 22.1 min 98% A, 27 min 98% A
AC$CHROMATOGRAPHY: FLOW_RATE 0.3 mL/min
AC$CHROMATOGRAPHY: RETENTION_TIME 15.496 min
AC$CHROMATOGRAPHY: SOLVENT A: Water 0.1% Formic acid, B: Acetonitrile 0.1% Formic acid
MS$FOCUSED_ION: PRECURSOR_M/Z 507.125
MS$FOCUSED_ION: PRECURSOR_TYPE [M+H]+
MS$DATA_PROCESSING: COMMENT Export with Spectra 1.9.12 MsBackendMassbank 1.7.4
MS$DATA_PROCESSING: WHOLE RMassBank 2.3.1
PK$SPLASH: splash10-00n0-0591000000-9e63cb418806e0bbcd31
PK$NUM_PEAK: 20
PK$PEAK: m/z int. rel.int.
  89.038 3.8 11
  92.0494 5.9 17
  116.0491 95.4 282
  174.0513 4.3 12
  176.03 3.4 10
  177.0381 7.6 22
  178.0471 285.6 844
  204.0257 4.6 13
  218.0837 30.2 89
  221.0523 81.8 241
  240.0613 9.7 28
  247.0657 35.5 105
  260.0673 23.6 69
  267.0721 116.1 343
  273.0684 3.7 10
  287.0785 337.7 999
  288.0862 68.8 203
  304.1034 12.5 36
  330.0844 76.8 227
  507.1238 5.8 17
//
