ACCESSION: MSBNK-BAFG-CSL23103019156
RECORD_TITLE: Pyroxsulam; LC-ESI-QTOF; MS2; 120 V
DATE: 2023.10.30
AUTHORS: Kevin S. Jewell; Björn Ehlig; Arne Wick
LICENSE: dl-de/by-2-0
COPYRIGHT: Copyright 2023 Federal Institute of Hydrology, Koblenz, Germany
COMMENT: CONFIDENCE Reference Standard (Level 1)
COMMENT: Chromatography method: dx.doi.org/10.1016/j.chroma.2015.11.014
COMMENT: Acquisition method: 10.1002/rcm.8541
CH$NAME: Pyroxsulam
CH$COMPOUND_CLASS: Herbicide
CH$FORMULA: C14H13F3N6O5S
CH$EXACT_MASS: 434.062
CH$SMILES: COC1=CC(=NC2=NC(=NN12)NS(=O)(=O)C3=C(C=CN=C3OC)C(F)(F)F)OC
CH$IUPAC: InChI=1S/C14H13F3N6O5S/c1-26-8-6-9(27-2)23-13(19-8)20-12(21-23)22-29(24,25)10-7(14(15,16)17)4-5-18-11(10)28-3/h4-6H,1-3H3,(H,21,22)
CH$LINK: CAS 422556-08-9
CH$LINK: INCHIKEY GLBLPMUBLHYFCW-UHFFFAOYSA-N
AC$INSTRUMENT: TripleTOF 6600 SCIEX
AC$INSTRUMENT_TYPE: LC-ESI-QTOF
AC$MASS_SPECTROMETRY: MS_TYPE MS2
AC$MASS_SPECTROMETRY: ION_MODE NEGATIVE
AC$MASS_SPECTROMETRY: COLLISION_ENERGY 120
AC$MASS_SPECTROMETRY: FRAGMENTATION_MODE CID
AC$MASS_SPECTROMETRY: IONIZATION ESI
AC$CHROMATOGRAPHY: COLUMN_NAME Zorbax Eclipse Plus C18 2.1 mm x 150 mm, 3.5 um, Agilent
AC$CHROMATOGRAPHY: COLUMN_TEMPERATURE 40 °C
AC$CHROMATOGRAPHY: FLOW_GRADIENT 0 min min 98% A, 1 min 98% A, 2 min 80% A, 16.5 min 2% A, 22 min 2% A, 22.1 min 98% A, 27 min 98% A
AC$CHROMATOGRAPHY: FLOW_RATE 0.3 mL/min
AC$CHROMATOGRAPHY: RETENTION_TIME 9.651 min
AC$CHROMATOGRAPHY: SOLVENT A: Water 0.1% Formic acid, B: Acetonitrile 0.1% Formic acid
MS$FOCUSED_ION: PRECURSOR_M/Z 433.0547
MS$FOCUSED_ION: PRECURSOR_TYPE [M-H]-
MS$DATA_PROCESSING: COMMENT Export with Spectra 1.9.12 MsBackendMassbank 1.7.4
MS$DATA_PROCESSING: WHOLE RMassBank 2.3.1
PK$SPLASH: splash10-014i-9100000000-2296cdce1047ef7a2568
PK$NUM_PEAK: 29
PK$PEAK: m/z int. rel.int.
  40.006 1.4 83
  41.0145 0.5 29
  41.9975 0.9 53
  50.0022 0.9 53
  61.007 0.7 41
  64.0052 1.3 77
  65.0139 2.8 167
  65.9981 8.3 496
  66.0077 16.7 999
  68.9936 2.8 167
  74.0038 0.5 29
  76.0193 0.6 35
  86.0032 0.6 35
  88.0173 1.1 65
  89.0072 1.5 89
  90.0093 0.9 53
  93.0094 0.5 29
  106.0097 0.6 35
  107.0116 1 59
  108.0266 0.7 41
  109.024 0.5 29
  111.9993 0.6 35
  114.0108 0.8 47
  116.0213 0.7 41
  159.0087 0.6 35
  162.0161 0.7 41
  172.023 0.5 29
  211.0267 0.4 23
  227.0202 0.6 35
//
