ACCESSION: MSBNK-BAFG-CSL2501066867
RECORD_TITLE: Acridone; LC-ESI-QTOF; MS2; 40 V
DATE: 2025.01.06
AUTHORS: Ole Lessmann; Kevin S. Jewell; Björn Ehlig; Arne Wick
LICENSE: dl-de/by-2-0
COPYRIGHT: Copyright 2025 Federal Institute of Hydrology, Koblenz, Germany
COMMENT: CONFIDENCE Reference Standard (Level 1)
COMMENT: Chromatography method: dx.doi.org/10.1016/j.chroma.2015.11.014
COMMENT: Acquisition method: 10.1002/rcm.8541
CH$NAME: Acridone
CH$COMPOUND_CLASS: Metabolite; Pharmaceutical; Transformation_product; Transformation_product-Metabolite
CH$FORMULA: C13H9NO
CH$EXACT_MASS: 195.0684
CH$SMILES: O=C1c2ccccc2Nc3ccccc13
CH$IUPAC: InChI=1S/C13H9NO/c15-13-9-5-1-3-7-11(9)14-12-8-4-2-6-10(12)13/h1-8H,(H,14,15)
CH$LINK: CAS 578-95-0
CH$LINK: INCHIKEY FZEYVTFCMJSGMP-UHFFFAOYSA-N
AC$INSTRUMENT: TripleTOF 5600 SCIEX
AC$INSTRUMENT_TYPE: LC-ESI-QTOF
AC$MASS_SPECTROMETRY: MS_TYPE MS2
AC$MASS_SPECTROMETRY: ION_MODE POSITIVE
AC$MASS_SPECTROMETRY: COLLISION_ENERGY 40
AC$MASS_SPECTROMETRY: FRAGMENTATION_MODE CID
AC$MASS_SPECTROMETRY: IONIZATION ESI
AC$CHROMATOGRAPHY: COLUMN_NAME Zorbax Eclipse Plus C18 2.1 mm x 150 mm, 3.5 um, Agilent
AC$CHROMATOGRAPHY: COLUMN_TEMPERATURE 40 °C
AC$CHROMATOGRAPHY: FLOW_GRADIENT 0 min min 98% A, 1 min 98% A, 2 min 80% A, 16.5 min 2% A, 22 min 2% A, 22.1 min 98% A, 27 min 98% A
AC$CHROMATOGRAPHY: FLOW_RATE 0.3 mL/min
AC$CHROMATOGRAPHY: RETENTION_TIME 8.5 min
AC$CHROMATOGRAPHY: SOLVENT A: Water 0.1% Formic acid, B: Acetonitrile 0.1% Formic acid
MS$FOCUSED_ION: PRECURSOR_M/Z 196.0757
MS$FOCUSED_ION: PRECURSOR_TYPE [M+H]+
MS$DATA_PROCESSING: COMMENT Export with pycsl 0.1.0.dev1 and CSL 24.4
PK$SPLASH: splash10-014j-0900000000-d7ab6cc463ad2e127313
PK$NUM_PEAK: 16
PK$PEAK: m/z int. rel.int.
  77.0424 4.6 21
  101.039 2.5 11
  114.047 2.3 10
  115.0552 13.8 65
  128.0503 8.0 37
  139.0552 32.5 154
  140.0569 23.6 112
  141.0696 6.3 29
  151.0549 11.2 53
  166.0665 73.3 347
  167.0739 210.5 999
  168.0815 18.6 88
  177.0582 5.0 23
  178.0655 15.3 72
  195.0686 63.3 300
  196.0763 166.4 789
//