ACCESSION: MSBNK-BAFG-CSL25010634267
RECORD_TITLE: 4-(Dimethylamino)azobenzene; LC-ESI-QTOF; MS2; 90 V
DATE: 2025.01.06
AUTHORS: Ole Lessmann; Kevin S. Jewell; Björn Ehlig; Arne Wick
LICENSE: dl-de/by-2-0
COPYRIGHT: Copyright 2025 Federal Institute of Hydrology, Koblenz, Germany
COMMENT: CONFIDENCE Reference Standard (Level 1)
COMMENT: Chromatography method: dx.doi.org/10.1016/j.chroma.2015.11.014
COMMENT: Acquisition method: 10.1002/rcm.8541
CH$NAME: 4-(Dimethylamino)azobenzene
CH$FORMULA: C14H15N3
CH$EXACT_MASS: 225.1266
CH$SMILES: CN(C)C1=CC=C(C=C1)N=NC2=CC=CC=C2
CH$IUPAC: InChI=1S/C14H15N3/c1-17(2)14-10-8-13(9-11-14)16-15-12-6-4-3-5-7-12/h3-11H,1-2H3
CH$LINK: CAS 60-11-7
CH$LINK: INCHIKEY JCYPECIVGRXBMO-UHFFFAOYSA-N
AC$INSTRUMENT: TripleTOF 6600 SCIEX
AC$INSTRUMENT_TYPE: LC-ESI-QTOF
AC$MASS_SPECTROMETRY: MS_TYPE MS2
AC$MASS_SPECTROMETRY: ION_MODE POSITIVE
AC$MASS_SPECTROMETRY: COLLISION_ENERGY 90
AC$MASS_SPECTROMETRY: FRAGMENTATION_MODE CID
AC$MASS_SPECTROMETRY: IONIZATION ESI
AC$CHROMATOGRAPHY: COLUMN_NAME Zorbax Eclipse Plus C18 2.1 mm x 150 mm, 3.5 um, Agilent
AC$CHROMATOGRAPHY: COLUMN_TEMPERATURE 40 °C
AC$CHROMATOGRAPHY: FLOW_GRADIENT 0 min min 98% A, 1 min 98% A, 2 min 80% A, 16.5 min 2% A, 22 min 2% A, 22.1 min 98% A, 27 min 98% A
AC$CHROMATOGRAPHY: FLOW_RATE 0.3 mL/min
AC$CHROMATOGRAPHY: RETENTION_TIME 15.513 min
AC$CHROMATOGRAPHY: SOLVENT A: Water 0.1% Formic acid, B: Acetonitrile 0.1% Formic acid
MS$FOCUSED_ION: PRECURSOR_M/Z 226.1339
MS$FOCUSED_ION: PRECURSOR_TYPE [M+H]+
MS$DATA_PROCESSING: COMMENT Export with pycsl 0.1.0.dev1 and CSL 24.4
PK$SPLASH: splash10-0udi-9000000000-f884a93a193d7c4f42f2
PK$NUM_PEAK: 36
PK$PEAK: m/z int. rel.int.
  37.0065 13.4 24
  38.0142 11.8 21
  39.0223 78.8 144
  42.033 18.7 34
  49.0063 15.9 29
  50.0144 162.5 298
  51.0223 544.7 999
  52.0171 12.3 22
  53.0378 6.4 11
  62.0139 6.8 12
  63.0217 44.0 80
  64.0173 9.3 17
  64.0293 17.8 32
  65.0373 110.5 202
  66.0325 15.3 28
  67.0401 23.6 43
  68.0478 11.9 21
  74.0132 10.5 19
  75.0215 6.5 11
  77.0376 370.1 678
  78.0328 29.1 53
  78.0437 11.9 21
  79.0525 12.6 23
  80.0481 13.7 25
  89.0366 5.8 10
  90.0325 14.7 26
  91.0403 55.9 102
  92.0476 24.0 44
  93.0432 7.4 13
  93.0552 9.3 17
  104.0478 67.8 124
  105.0545 22.4 41
  117.0429 10.3 18
  118.051 34.7 63
  120.0793 12.6 23
  131.0594 7.1 13
//