ACCESSION: MSBNK-BAFG-CSL23111017415
RECORD_TITLE: Fluxapyroxad; LC-ESI-QTOF; MS2; 40 V
DATE: 2023.11.10
AUTHORS: Kevin S. Jewell; Björn Ehlig; Arne Wick
LICENSE: dl-de/by-2-0
COPYRIGHT: Copyright 2023 Federal Institute of Hydrology, Koblenz, Germany
COMMENT: CONFIDENCE Reference Standard (Level 1)
COMMENT: Chromatography method: dx.doi.org/10.1016/j.chroma.2015.11.014
COMMENT: Acquisition method: 10.1002/rcm.8541
CH$NAME: Fluxapyroxad
CH$COMPOUND_CLASS: Fungicide
CH$FORMULA: C18H12F5N3O
CH$EXACT_MASS: 381.0901
CH$SMILES: Cn1cc(c(n1)C(F)F)C(=O)Nc2ccccc2c3cc(c(c(c3)F)F)F
CH$IUPAC: InChI=1S/C18H12F5N3O/c1-26-8-11(16(25-26)17(22)23)18(27)24-14-5-3-2-4-10(14)9-6-12(19)15(21)13(20)7-9/h2-8,17H,1H3,(H,24,27)
CH$LINK: CAS 907204-31-3
CH$LINK: INCHIKEY SXSGXWCSHSVPGB-UHFFFAOYSA-N
AC$INSTRUMENT: TripleTOF 6600 SCIEX
AC$INSTRUMENT_TYPE: LC-ESI-QTOF
AC$MASS_SPECTROMETRY: MS_TYPE MS2
AC$MASS_SPECTROMETRY: ION_MODE POSITIVE
AC$MASS_SPECTROMETRY: COLLISION_ENERGY 40
AC$MASS_SPECTROMETRY: FRAGMENTATION_MODE CID
AC$MASS_SPECTROMETRY: IONIZATION ESI
AC$CHROMATOGRAPHY: COLUMN_NAME Zorbax Eclipse Plus C18 2.1 mm x 150 mm, 3.5 um, Agilent
AC$CHROMATOGRAPHY: COLUMN_TEMPERATURE 40 °C
AC$CHROMATOGRAPHY: FLOW_GRADIENT 0 min min 98% A, 1 min 98% A, 2 min 80% A, 16.5 min 2% A, 22 min 2% A, 22.1 min 98% A, 27 min 98% A
AC$CHROMATOGRAPHY: FLOW_RATE 0.3 mL/min
AC$CHROMATOGRAPHY: RETENTION_TIME 12.239 min
AC$CHROMATOGRAPHY: SOLVENT A: Water 0.1% Formic acid, B: Acetonitrile 0.1% Formic acid
MS$FOCUSED_ION: PRECURSOR_M/Z 382.0973
MS$FOCUSED_ION: PRECURSOR_TYPE [M+H]+
MS$DATA_PROCESSING: COMMENT Export with Spectra 1.9.12 MsBackendMassbank 1.7.4
MS$DATA_PROCESSING: WHOLE RMassBank 2.3.1
PK$SPLASH: splash10-01ox-0059000000-3a4bbc7acb7ec4ea63ac
PK$NUM_PEAK: 26
PK$PEAK: m/z int. rel.int.
  109.0386 8.7 34
  129.0445 2.8 10
  159.0359 31.6 124
  206.0328 6.8 26
  207.0416 8.7 34
  232.0366 24.2 95
  234.0527 88.2 346
  246.0525 7.5 29
  260.0317 11.8 46
  266.0759 2.7 10
  267.0728 8.6 33
  271.0609 60.8 238
  273.0635 11.6 45
  279.0604 8.3 32
  285.0632 4.7 18
  286.0766 3.1 12
  287.0793 3 11
  294.0844 9.6 37
  299.0786 4.3 16
  300.0864 6.4 25
  301.0591 4.6 18
  314.0911 186.9 734
  315.0742 3.1 12
  322.0791 12.3 48
  327.061 3.4 13
  342.0862 254.3 999
//
