ACCESSION: MSBNK-BAFG-CSL25011734659
RECORD_TITLE: Reactive Orange; LC-ESI-QTOF; MS2; 150 V
DATE: 2025.01.17
AUTHORS: Ole Lessmann; Kevin S. Jewell; Björn Ehlig; Arne Wick
LICENSE: dl-de/by-2-0
COPYRIGHT: Copyright 2025 Federal Institute of Hydrology, Koblenz, Germany
COMMENT: CONFIDENCE Reference Standard (Level 1)
COMMENT: Chromatography method: dx.doi.org/10.1016/j.chroma.2015.11.014
CH$NAME: Reactive Orange
CH$FORMULA: C20H19N3O11S3
CH$EXACT_MASS: 573.0182
CH$SMILES: CC(=O)NC1=CC2=C(C(=C(C=C2C=C1)S(=O)(=O)O)N=NC3=CC=C(C=C3)S(=O)(=O)CCOS(=O)(=O)O)O
CH$IUPAC: InChI=1S/C20H19N3O11S3/c1-12(24)21-15-3-2-13-10-18(36(28,29)30)19(20(25)17(13)11-15)23-22-14-4-6-16(7-5-14)35(26,27)9-8-34-37(31,32)33/h2-7,10-11,25H,8-9H2,1H3,(H,21,24)(H,28,29,30)(H,31,32,33)
CH$LINK: CAS 109603-48-7
CH$LINK: INCHIKEY INOIOAWTVPHTCJ-UHFFFAOYSA-N
AC$INSTRUMENT: TripleTOF 6600 SCIEX
AC$INSTRUMENT_TYPE: LC-ESI-QTOF
AC$MASS_SPECTROMETRY: MS_TYPE MS2
AC$MASS_SPECTROMETRY: ION_MODE POSITIVE
AC$MASS_SPECTROMETRY: COLLISION_ENERGY 150
AC$MASS_SPECTROMETRY: FRAGMENTATION_MODE CID
AC$MASS_SPECTROMETRY: IONIZATION ESI
AC$CHROMATOGRAPHY: COLUMN_NAME Zorbax Eclipse Plus C18 2.1 mm x 150 mm, 3.5 um, Agilent
AC$CHROMATOGRAPHY: COLUMN_TEMPERATURE 40 °C
AC$CHROMATOGRAPHY: FLOW_GRADIENT 0 min min 98% A, 1 min 98% A, 2 min 80% A, 16.5 min 2% A, 22 min 2% A, 22.1 min 98% A, 27 min 98% A
AC$CHROMATOGRAPHY: FLOW_RATE 0.3 mL/min
AC$CHROMATOGRAPHY: RETENTION_TIME 5.751 min
AC$CHROMATOGRAPHY: SOLVENT A: Water 0.1% Formic acid, B: Acetonitrile 0.1% Formic acid
MS$FOCUSED_ION: PRECURSOR_M/Z 574.0255
MS$FOCUSED_ION: PRECURSOR_TYPE [M+H]+
MS$DATA_PROCESSING: COMMENT Export with pycsl 0.1.0.dev1 and CSL 25.0
PK$SPLASH: splash10-0hhl-7910000000-a27518e15987e60968fe
PK$NUM_PEAK: 80
PK$PEAK: m/z int. rel.int.
  39.023 2.1 35
  43.0172 3.8 63
  44.9791 2.7 45
  45.9876 1.4 23
  46.9943 1.7 28
  51.022 3.1 52
  53.0382 17.5 293
  61.0072 0.9 15
  62.0132 3.7 62
  63.0224 5.7 95
  64.0305 1.2 20
  64.9685 0.9 15
  65.0381 10.0 167
  66.0441 0.6 10
  68.0117 4.0 67
  75.0219 2.3 38
  76.0171 0.8 13
  76.0296 2.0 33
  77.0379 15.3 256
  78.0338 2.7 45
  80.049 10.0 167
  81.0328 59.5 999
  87.0226 1.9 31
  88.0295 19.5 327
  89.0382 19.0 319
  90.0459 1.4 23
  91.0418 2.7 45
  92.0487 1.9 31
  93.0552 2.3 38
  102.0333 5.5 92
  103.0406 3.3 55
  103.0552 1.1 18
  104.0484 13.3 223
  108.0426 5.4 90
  114.0331 40.5 679
  115.0404 43.0 721
  116.0482 7.9 132
  117.0569 2.6 43
  126.0345 0.8 13
  128.0487 2.4 40
  129.0431 14.3 240
  130.037 0.7 11
  130.0626 1.4 23
  131.0599 2.8 47
  140.0488 1.0 16
  141.0417 4.0 67
  142.0513 36.5 612
  143.0564 0.7 11
  150.0486 1.2 20
  151.0543 7.2 120
  152.0549 3.2 53
  163.0542 0.9 15
  164.0536 1.5 25
  165.0464 0.7 11
  165.064 0.8 13
  169.0414 0.7 11
  170.0482 0.9 15
  176.0549 4.2 70
  177.0562 5.3 88
  178.0633 3.5 58
  179.0583 0.9 15
  179.0697 0.6 10
  187.0474 1.0 16
  188.0468 4.1 68
  189.0543 1.9 31
  190.0643 1.4 23
  192.0689 1.2 20
  200.0569 0.7 11
  203.0594 2.1 35
  204.0642 0.8 13
  204.0769 1.0 16
  205.0748 10.2 171
  215.0599 2.4 40
  216.0667 1.2 20
  217.0734 0.8 13
  218.0823 0.6 10
  230.0704 2.4 40
  231.0799 1.6 26
  232.0823 0.9 15
  232.0954 0.7 11
//
