ACCESSION: MSBNK-BAFG-CSL25010612490
RECORD_TITLE: 3-(Diethylcarbamoyl)benzoic acid; LC-ESI-QTOF; MS2; 90 V
DATE: 2025.01.06
AUTHORS: Ole Lessmann; Kevin S. Jewell; Björn Ehlig; Arne Wick
LICENSE: dl-de/by-2-0
COPYRIGHT: Copyright 2025 Federal Institute of Hydrology, Koblenz, Germany
COMMENT: CONFIDENCE Reference Standard (Level 1)
COMMENT: Chromatography method: dx.doi.org/10.1016/j.chroma.2015.11.014
COMMENT: Acquisition method: 10.1002/rcm.8541
CH$NAME: 3-(Diethylcarbamoyl)benzoic acid
CH$COMPOUND_CLASS: Biocide; Personal_care_product; Transformation_product-Metabolite
CH$FORMULA: C12H15NO3
CH$EXACT_MASS: 221.1052
CH$SMILES: CCN(CC)C(=O)C1=CC(=CC=C1)C(=O)O
CH$IUPAC: InChI=1S/C12H15NO3/c1-3-13(4-2)11(14)9-6-5-7-10(8-9)12(15)16/h5-8H,3-4H2,1-2H3,(H,15,16)
CH$LINK: CAS 72236-23-8
CH$LINK: INCHIKEY PXXLQQDIFVPNMP-UHFFFAOYSA-N
AC$INSTRUMENT: TripleTOF 5600 SCIEX
AC$INSTRUMENT_TYPE: LC-ESI-QTOF
AC$MASS_SPECTROMETRY: MS_TYPE MS2
AC$MASS_SPECTROMETRY: ION_MODE POSITIVE
AC$MASS_SPECTROMETRY: COLLISION_ENERGY 90
AC$MASS_SPECTROMETRY: FRAGMENTATION_MODE CID
AC$MASS_SPECTROMETRY: IONIZATION ESI
AC$CHROMATOGRAPHY: COLUMN_NAME Zorbax Eclipse Plus C18 2.1 mm x 150 mm, 3.5 um, Agilent
AC$CHROMATOGRAPHY: COLUMN_TEMPERATURE 40 °C
AC$CHROMATOGRAPHY: FLOW_GRADIENT 0 min min 98% A, 1 min 98% A, 2 min 80% A, 16.5 min 2% A, 22 min 2% A, 22.1 min 98% A, 27 min 98% A
AC$CHROMATOGRAPHY: FLOW_RATE 0.3 mL/min
AC$CHROMATOGRAPHY: RETENTION_TIME 7.356 min
AC$CHROMATOGRAPHY: SOLVENT A: Water 0.1% Formic acid, B: Acetonitrile 0.1% Formic acid
MS$FOCUSED_ION: PRECURSOR_M/Z 222.1125
MS$FOCUSED_ION: PRECURSOR_TYPE [M+H]+
MS$DATA_PROCESSING: COMMENT Export with pycsl 0.1.0.dev1 and CSL 24.4
PK$SPLASH: splash10-00p0-9000000000-ee1e371e3f0928d38115
PK$NUM_PEAK: 11
PK$PEAK: m/z int. rel.int.
  37.0071 1.0 129
  38.015 0.9 116
  39.023 4.7 609
  44.0128 1.0 129
  50.0149 0.7 90
  51.0232 1.6 207
  65.0383 7.7 999
  73.007 0.4 51
  74.0141 2.9 376
  75.0225 6.6 856
  77.0376 3.2 415
//