ACCESSION: MSBNK-BAFG-CSL2310258930
RECORD_TITLE: Sildenafil; LC-ESI-QTOF; MS2; 100 V
DATE: 2023.10.25
AUTHORS: Kevin S. Jewell; Björn Ehlig; Arne Wick
LICENSE: dl-de/by-2-0
COPYRIGHT: Copyright 2023 Federal Institute of Hydrology, Koblenz, Germany
COMMENT: CONFIDENCE Reference Standard (Level 1)
COMMENT: Chromatography method: dx.doi.org/10.1016/j.chroma.2015.11.014
COMMENT: Acquisition method: 10.1002/rcm.8541
CH$NAME: Sildenafil
CH$COMPOUND_CLASS: Pharmaceutical
CH$FORMULA: C22H30N6O4S
CH$EXACT_MASS: 474.2049
CH$SMILES: CCCC1=NN(C2=C1NC(=NC2=O)C3=C(C=CC(=C3)S(=O)(=O)N4CCN(CC4)C)OCC)C
CH$IUPAC: InChI=1S/C22H30N6O4S/c1-5-7-17-19-20(27(4)25-17)22(29)24-21(23-19)16-14-15(8-9-18(16)32-6-2)33(30,31)28-12-10-26(3)11-13-28/h8-9,14H,5-7,10-13H2,1-4H3,(H,23,24,29)
CH$LINK: CAS 139755-83-2
CH$LINK: INCHIKEY BNRNXUUZRGQAQC-UHFFFAOYSA-N
AC$INSTRUMENT: TripleTOF 5600 SCIEX
AC$INSTRUMENT_TYPE: LC-ESI-QTOF
AC$MASS_SPECTROMETRY: MS_TYPE MS2
AC$MASS_SPECTROMETRY: ION_MODE POSITIVE
AC$MASS_SPECTROMETRY: COLLISION_ENERGY 100
AC$MASS_SPECTROMETRY: FRAGMENTATION_MODE CID
AC$MASS_SPECTROMETRY: IONIZATION ESI
AC$CHROMATOGRAPHY: COLUMN_NAME Zorbax Eclipse Plus C18 2.1 mm x 150 mm, 3.5 um, Agilent
AC$CHROMATOGRAPHY: COLUMN_TEMPERATURE 40 °C
AC$CHROMATOGRAPHY: FLOW_GRADIENT 0 min min 98% A, 1 min 98% A, 2 min 80% A, 16.5 min 2% A, 22 min 2% A, 22.1 min 98% A, 27 min 98% A
AC$CHROMATOGRAPHY: FLOW_RATE 0.3 mL/min
AC$CHROMATOGRAPHY: RETENTION_TIME 7.283 min
AC$CHROMATOGRAPHY: SOLVENT A: Water 0.1% Formic acid, B: Acetonitrile 0.1% Formic acid
MS$FOCUSED_ION: PRECURSOR_M/Z 475.2122
MS$FOCUSED_ION: PRECURSOR_TYPE [M+H]+
MS$DATA_PROCESSING: COMMENT Export with Spectra 1.9.12 MsBackendMassbank 1.7.4
MS$DATA_PROCESSING: WHOLE RMassBank 2.3.1
PK$SPLASH: splash10-0a4i-9850000000-1fbe11bd73e5f15306dd
PK$NUM_PEAK: 102
PK$PEAK: m/z int. rel.int.
  42.0486 2.7 58
  44.064 1 21
  56.0594 4.9 106
  58.0741 45.8 999
  67.0348 0.5 10
  69.0517 1 21
  70.0713 4.4 95
  77.0424 0.8 17
  79.0349 0.6 13
  80.0559 0.6 13
  81.0491 0.8 17
  83.0661 0.6 13
  84.0692 0.6 13
  90.0346 0.9 19
  91.0469 0.7 15
  92.0534 0.6 13
  94.0445 0.6 13
  95.0654 0.5 10
  97.0772 0.7 15
  99.094 1 21
  102.0367 0.9 19
  103.0461 0.7 15
  104.0495 1.2 26
  105.045 0.6 13
  106.0482 0.5 10
  116.0458 1.3 28
  117.0454 1.3 28
  118.0524 0.9 19
  119.0608 0.8 17
  120.0486 0.7 15
  122.0356 0.8 17
  128.052 1.9 41
  129.0462 2 43
  130.0577 0.7 15
  131.0607 1.2 26
  133.043 0.6 13
  136.0505 3.3 71
  141.0456 0.8 17
  142.0548 0.9 19
  143.0604 1.3 28
  144.0523 0.7 15
  145.0403 1.1 23
  153.05 0.7 15
  154.0464 0.5 10
  154.061 0.7 15
  155.0624 3.1 67
  156.0541 2.6 56
  157.0428 0.9 19
  157.0626 1.2 26
  158.0475 1 21
  158.0708 0.8 17
  159.0547 0.9 19
  166.0603 0.6 13
  166.0917 0.5 10
  168.0616 0.8 17
  169.0738 1.8 39
  170.0718 2.9 63
  171.0565 0.5 10
  171.0812 1.4 30
  180.06 0.6 13
  181.0601 0.5 10
  182.0496 0.8 17
  183.06 4.2 91
  184.0463 0.5 10
  184.0564 1.1 23
  184.0856 1 21
  185.0626 0.7 15
  193.0651 0.7 15
  195.0578 0.7 15
  195.0834 0.7 15
  196.0501 0.7 15
  196.0889 0.6 13
  197.0827 3 65
  198.0673 2.2 47
  198.0921 0.8 17
  199.0693 1 21
  199.0934 0.5 10
  200.0722 0.6 13
  208.0516 0.5 10
  209.051 0.7 15
  210.0602 0.6 13
  210.1011 0.6 13
  211.057 4.6 100
  212.0718 1.4 30
  213.0787 1.5 32
  217.11 0.7 15
  223.0667 0.9 19
  224.0687 1.4 30
  225.0782 8 174
  226.0829 1.9 41
  227.0922 2 43
  236.0666 0.5 10
  237.0749 1.1 23
  238.0774 0.5 10
  239.0557 1 21
  239.093 2.7 58
  253.0725 3.9 85
  254.0802 1.2 26
  255.0754 0.6 13
  255.0889 0.6 13
  255.1194 1.6 34
  283.1215 0.7 15
//
