ACCESSION: MSBNK-BAFG-CSL2311107290
RECORD_TITLE: 2-N-methyl-lamotrigine; LC-ESI-QTOF; MS2; 80 V
DATE: 2023.11.10
AUTHORS: Kevin S. Jewell; Björn Ehlig; Arne Wick
LICENSE: dl-de/by-2-0
COPYRIGHT: Copyright 2023 Federal Institute of Hydrology, Koblenz, Germany
COMMENT: CONFIDENCE Reference Standard (Level 1)
COMMENT: Chromatography method: dx.doi.org/10.1016/j.chroma.2015.11.014
COMMENT: Acquisition method: 10.1002/rcm.8541
CH$NAME: 2-N-methyl-lamotrigine
CH$COMPOUND_CLASS: Metabolite; Pharmaceutical
CH$FORMULA: C10H9Cl2N5
CH$EXACT_MASS: 269.0235
CH$SMILES: CN1N=C(C2=CC=CC(Cl)=C2Cl)C(N)=NC1=N
CH$IUPAC: InChI=1S/C10H9Cl2N5/c1-17-10(14)15-9(13)8(16-17)5-3-2-4-6(11)7(5)12/h2-4H,1H3,(H3,13,14,15)
CH$LINK: CAS NA
CH$LINK: INCHIKEY ODYWNHAUROHCSD-UHFFFAOYSA-N
AC$INSTRUMENT: TripleTOF 5600 SCIEX
AC$INSTRUMENT_TYPE: LC-ESI-QTOF
AC$MASS_SPECTROMETRY: MS_TYPE MS2
AC$MASS_SPECTROMETRY: ION_MODE POSITIVE
AC$MASS_SPECTROMETRY: COLLISION_ENERGY 80
AC$MASS_SPECTROMETRY: FRAGMENTATION_MODE CID
AC$MASS_SPECTROMETRY: IONIZATION ESI
AC$CHROMATOGRAPHY: COLUMN_NAME Zorbax Eclipse Plus C18 2.1 mm x 150 mm, 3.5 um, Agilent
AC$CHROMATOGRAPHY: COLUMN_TEMPERATURE 40 °C
AC$CHROMATOGRAPHY: FLOW_GRADIENT 0 min min 98% A, 1 min 98% A, 2 min 80% A, 16.5 min 2% A, 22 min 2% A, 22.1 min 98% A, 27 min 98% A
AC$CHROMATOGRAPHY: FLOW_RATE 0.3 mL/min
AC$CHROMATOGRAPHY: RETENTION_TIME 6.444 min
AC$CHROMATOGRAPHY: SOLVENT A: Water 0.1% Formic acid, B: Acetonitrile 0.1% Formic acid
MS$FOCUSED_ION: PRECURSOR_M/Z 270.0308
MS$FOCUSED_ION: PRECURSOR_TYPE [M+H]+
MS$DATA_PROCESSING: COMMENT Export with Spectra 1.9.12 MsBackendMassbank 1.7.4
MS$DATA_PROCESSING: WHOLE RMassBank 2.3.1
PK$SPLASH: splash10-0ab9-5900000000-db53ef999d6da1a5e815
PK$NUM_PEAK: 52
PK$PEAK: m/z int. rel.int.
  57.0504 41 999
  68.028 0.8 19
  72.0575 1.1 26
  72.9866 3.4 82
  73.0081 1 24
  74.0167 6.2 151
  75.0262 2.2 53
  77.04 1 24
  82.0412 0.4 9
  84.9857 0.6 14
  87.0226 1.4 34
  88.0189 1.1 26
  88.0333 0.7 17
  89.0408 1 24
  90.0336 0.6 14
  96.984 2.4 58
  99.0097 2.4 58
  100.018 15.9 387
  102.0335 0.9 21
  102.0433 0.6 14
  103.053 0.5 12
  104.049 0.7 17
  108.9833 9.4 229
  110.9982 1.5 36
  111.0192 0.5 12
  114.0331 10.8 263
  115.0393 0.8 19
  121.991 0.8 19
  122.9989 22.7 553
  123.9934 5.3 129
  128.0517 0.5 12
  129.0428 0.5 12
  130.0647 0.7 17
  132.9609 2 48
  135.9943 6.2 151
  137.0017 1.4 34
  138.0103 2.4 58
  144.9612 1.8 43
  147.9939 0.5 12
  149.002 1.2 29
  150.0101 2.5 60
  151.0029 0.5 12
  156.9602 1.4 34
  158.964 1.4 34
  164.0007 3 73
  165.0217 1.6 38
  170.9649 1.1 26
  171.9717 2.6 63
  172.9699 0.7 17
  183.9674 0.5 12
  184.9763 1.3 31
  185.9753 1.9 46
//
