ACCESSION: MSBNK-BAFG-CSL25010612523
RECORD_TITLE: 4-Aminoantipyrine; LC-ESI-QTOF; MS2; 40 V
DATE: 2025.01.06
AUTHORS: Ole Lessmann; Kevin S. Jewell; Björn Ehlig; Arne Wick
LICENSE: dl-de/by-2-0
COPYRIGHT: Copyright 2025 Federal Institute of Hydrology, Koblenz, Germany
COMMENT: CONFIDENCE Reference Standard (Level 1)
COMMENT: Chromatography method: dx.doi.org/10.1016/j.chroma.2015.11.014
COMMENT: Acquisition method: 10.1002/rcm.8541
CH$NAME: 4-Aminoantipyrine
CH$COMPOUND_CLASS: Transformation_product; Pharmaceutical; Transformation_product-Metabolite
CH$FORMULA: C11H13N3O
CH$EXACT_MASS: 203.1059
CH$SMILES: CC1=C(C(=O)N(N1C)C2=CC=CC=C2)N
CH$IUPAC: InChI=1S/C11H13N3O/c1-8-10(12)11(15)14(13(8)2)9-6-4-3-5-7-9/h3-7H,12H2,1-2H3
CH$LINK: CAS 83-07-8
CH$LINK: INCHIKEY RLFWWDJHLFCNIJ-UHFFFAOYSA-N
AC$INSTRUMENT: TripleTOF 5600 SCIEX
AC$INSTRUMENT_TYPE: LC-ESI-QTOF
AC$MASS_SPECTROMETRY: MS_TYPE MS2
AC$MASS_SPECTROMETRY: ION_MODE POSITIVE
AC$MASS_SPECTROMETRY: COLLISION_ENERGY 40
AC$MASS_SPECTROMETRY: FRAGMENTATION_MODE CID
AC$MASS_SPECTROMETRY: IONIZATION ESI
AC$CHROMATOGRAPHY: COLUMN_NAME Zorbax Eclipse Plus C18 2.1 mm x 150 mm, 3.5 um, Agilent
AC$CHROMATOGRAPHY: COLUMN_TEMPERATURE 40 °C
AC$CHROMATOGRAPHY: FLOW_GRADIENT 0 min min 98% A, 1 min 98% A, 2 min 80% A, 16.5 min 2% A, 22 min 2% A, 22.1 min 98% A, 27 min 98% A
AC$CHROMATOGRAPHY: FLOW_RATE 0.3 mL/min
AC$CHROMATOGRAPHY: RETENTION_TIME 4.783 min
AC$CHROMATOGRAPHY: SOLVENT A: Water 0.1% Formic acid, B: Acetonitrile 0.1% Formic acid
MS$FOCUSED_ION: PRECURSOR_M/Z 204.1131
MS$FOCUSED_ION: PRECURSOR_TYPE [M+H]+
MS$DATA_PROCESSING: COMMENT Export with pycsl 0.1.0.dev1 and CSL 24.4
PK$SPLASH: splash10-0a4i-9200000000-289a9de9582bf165f714
PK$NUM_PEAK: 29
PK$PEAK: m/z int. rel.int.
  42.0341 3.6 33
  44.0492 2.0 18
  51.023 1.6 14
  56.0499 108.2 999
  58.0653 3.1 28
  68.0499 2.0 18
  77.0388 24.0 221
  83.0605 12.5 115
  85.0764 2.6 24
  91.0546 2.3 21
  93.0577 1.9 17
  94.0653 27.9 257
  101.0367 1.2 11
  104.0494 7.0 64
  115.0541 1.3 12
  117.0566 2.6 24
  118.0657 2.8 25
  128.0495 7.3 67
  130.0652 3.4 31
  132.0453 1.4 12
  132.0807 4.3 39
  145.0769 3.5 32
  146.0603 3.5 32
  158.0622 1.1 10
  159.0921 7.9 72
  160.0861 1.5 13
  187.0866 1.6 14
  189.0911 1.7 15
  204.1162 1.6 14
//