ACCESSION: MSBNK-BAFG-CSL2311093609
RECORD_TITLE: 2-Hydroxyestrone; LC-ESI-QTOF; MS2; 80 V
DATE: 2023.11.09
AUTHORS: Kevin S. Jewell; Björn Ehlig; Arne Wick
LICENSE: dl-de/by-2-0
COPYRIGHT: Copyright 2023 Federal Institute of Hydrology, Koblenz, Germany
COMMENT: CONFIDENCE Reference Standard (Level 1)
COMMENT: Chromatography method: dx.doi.org/10.1016/j.chroma.2015.11.014
COMMENT: Acquisition method: 10.1002/rcm.8541
CH$NAME: 2-Hydroxyestrone
CH$COMPOUND_CLASS: Pharmaceutical; Metabolite
CH$FORMULA: C18H22O3
CH$EXACT_MASS: 286.1569
CH$SMILES: C[C@]12CC[C@H]3[C@@H](CCc4cc(O)c(O)cc34)[C@@H]1CCC2=O
CH$IUPAC: InChI=1S/C18H22O3/c1-18-7-6-11-12(14(18)4-5-17(18)21)3-2-10-8-15(19)16(20)9-13(10)11/h8-9,11-12,14,19-20H,2-7H2,1H3/t11-,12+,14-,18-/m0/s1
CH$LINK: CAS 362-06-1
CH$LINK: INCHIKEY SWINWPBPEKHUOD-JPVZDGGYSA-N
AC$INSTRUMENT: TripleTOF 5600 SCIEX
AC$INSTRUMENT_TYPE: LC-ESI-QTOF
AC$MASS_SPECTROMETRY: MS_TYPE MS2
AC$MASS_SPECTROMETRY: ION_MODE POSITIVE
AC$MASS_SPECTROMETRY: COLLISION_ENERGY 80
AC$MASS_SPECTROMETRY: FRAGMENTATION_MODE CID
AC$MASS_SPECTROMETRY: IONIZATION ESI
AC$CHROMATOGRAPHY: COLUMN_NAME Zorbax Eclipse Plus C18 2.1 mm x 150 mm, 3.5 um, Agilent
AC$CHROMATOGRAPHY: COLUMN_TEMPERATURE 40 °C
AC$CHROMATOGRAPHY: FLOW_GRADIENT 0 min min 98% A, 1 min 98% A, 2 min 80% A, 16.5 min 2% A, 22 min 2% A, 22.1 min 98% A, 27 min 98% A
AC$CHROMATOGRAPHY: FLOW_RATE 0.3 mL/min
AC$CHROMATOGRAPHY: RETENTION_TIME 9.978 min
AC$CHROMATOGRAPHY: SOLVENT A: Water 0.1% Formic acid, B: Acetonitrile 0.1% Formic acid
MS$FOCUSED_ION: PRECURSOR_M/Z 287.1642
MS$FOCUSED_ION: PRECURSOR_TYPE [M+H]+
MS$DATA_PROCESSING: COMMENT Export with Spectra 1.9.12 MsBackendMassbank 1.7.4
MS$DATA_PROCESSING: WHOLE RMassBank 2.3.1
PK$SPLASH: splash10-0fb9-2900000000-afb3b512ea892b8e3ab8
PK$NUM_PEAK: 22
PK$PEAK: m/z int. rel.int.
  75.026 0.5 74
  77.0407 5.5 820
  89.0403 1 149
  91.055 1 149
  101.0401 0.5 74
  102.0463 1 149
  103.0533 4.9 730
  114.043 0.5 74
  115.0527 3.7 551
  123.0429 0.5 74
  126.0446 0.9 134
  127.0531 2.9 432
  128.0605 6.7 999
  129.0675 0.8 119
  131.0485 0.9 134
  139.0525 0.7 104
  141.067 0.7 104
  151.0517 0.6 89
  152.061 2.4 357
  152.0761 0.4 59
  153.0668 0.5 74
  165.0691 1.9 283
//
