ACCESSION: MSBNK-BAFG-CSL23110927360
RECORD_TITLE: 3,5-Dichloroaniline; LC-ESI-QTOF; MS2; 80 V
DATE: 2023.11.09
AUTHORS: Kevin S. Jewell; Björn Ehlig; Arne Wick
LICENSE: dl-de/by-2-0
COPYRIGHT: Copyright 2023 Federal Institute of Hydrology, Koblenz, Germany
COMMENT: CONFIDENCE Reference Standard (Level 1)
COMMENT: Chromatography method: dx.doi.org/10.1016/j.chroma.2015.11.014
COMMENT: Acquisition method: 10.1002/rcm.8541
CH$NAME: 3,5-Dichloroaniline
CH$FORMULA: C6H5Cl2N
CH$EXACT_MASS: 160.9799
CH$SMILES: C1=C(C=C(C=C1Cl)Cl)N
CH$IUPAC: InChI=1S/C6H5Cl2N/c7-4-1-5(8)3-6(9)2-4/h1-3H,9H2
CH$LINK: CAS 626-43-7
CH$LINK: INCHIKEY UQRLKWGPEVNVHT-UHFFFAOYSA-N
AC$INSTRUMENT: TripleTOF X500R SCIEX
AC$INSTRUMENT_TYPE: LC-ESI-QTOF
AC$MASS_SPECTROMETRY: MS_TYPE MS2
AC$MASS_SPECTROMETRY: ION_MODE POSITIVE
AC$MASS_SPECTROMETRY: COLLISION_ENERGY 80
AC$MASS_SPECTROMETRY: FRAGMENTATION_MODE CID
AC$MASS_SPECTROMETRY: IONIZATION ESI
AC$CHROMATOGRAPHY: COLUMN_NAME Zorbax Eclipse Plus C18 2.1 mm x 150 mm, 3.5 um, Agilent
AC$CHROMATOGRAPHY: COLUMN_TEMPERATURE 40 °C
AC$CHROMATOGRAPHY: FLOW_GRADIENT 0 min min 98% A, 1 min 98% A, 2 min 80% A, 16.5 min 2% A, 22 min 2% A, 22.1 min 98% A, 27 min 98% A
AC$CHROMATOGRAPHY: FLOW_RATE 0.3 mL/min
AC$CHROMATOGRAPHY: RETENTION_TIME 11.205 min
AC$CHROMATOGRAPHY: SOLVENT A: Water 0.1% Formic acid, B: Acetonitrile 0.1% Formic acid
MS$FOCUSED_ION: PRECURSOR_M/Z 161.9872
MS$FOCUSED_ION: PRECURSOR_TYPE [M+H]+
MS$DATA_PROCESSING: COMMENT Export with Spectra 1.9.12 MsBackendMassbank 1.7.4
MS$DATA_PROCESSING: WHOLE RMassBank 2.3.1
PK$SPLASH: splash10-00di-9000000000-9fbaf605e9871b5e7f00
PK$NUM_PEAK: 17
PK$PEAK: m/z int. rel.int.
  37.0074 8 47
  38.0152 9.9 58
  39.0229 28.7 170
  50.0152 9.8 58
  52.0182 2.2 13
  60.9839 2.8 16
  62.0154 3.1 18
  63.0227 7.7 45
  65.0384 12.6 74
  72.984 4.9 29
  73.0073 28.6 170
  74.0149 167.9 999
  75.023 25.7 152
  83.9768 8.2 48
  84.9832 2.2 13
  107.9767 3.7 22
  108.9845 2.1 12
//
