ACCESSION: MSBNK-BAFG-CSL23103017324
RECORD_TITLE: 2-Methyl-4`-(methylthio)-2-morpholinopropiophenone; LC-ESI-QTOF; MS2; 90 V
DATE: 2023.10.30
AUTHORS: Kevin S. Jewell; Björn Ehlig; Arne Wick
LICENSE: dl-de/by-2-0
COPYRIGHT: Copyright 2023 Federal Institute of Hydrology, Koblenz, Germany
COMMENT: CONFIDENCE Reference Standard (Level 1)
COMMENT: Chromatography method: dx.doi.org/10.1016/j.chroma.2015.11.014
COMMENT: Acquisition method: 10.1002/rcm.8541
CH$NAME: 2-Methyl-4`-(methylthio)-2-morpholinopropiophenone
CH$COMPOUND_CLASS: Industrial_process
CH$FORMULA: C15H21NO2S
CH$EXACT_MASS: 279.1293
CH$SMILES: CC(C)(C(=O)C1=CC=C(C=C1)SC)N2CCOCC2
CH$IUPAC: InChI=1S/C15H21NO2S/c1-15(2,16-8-10-18-11-9-16)14(17)12-4-6-13(19-3)7-5-12/h4-7H,8-11H2,1-3H3
CH$LINK: CAS 71868-10-5
CH$LINK: INCHIKEY LWRBVKNFOYUCNP-UHFFFAOYSA-N
AC$INSTRUMENT: TripleTOF 6600 SCIEX
AC$INSTRUMENT_TYPE: LC-ESI-QTOF
AC$MASS_SPECTROMETRY: MS_TYPE MS2
AC$MASS_SPECTROMETRY: ION_MODE POSITIVE
AC$MASS_SPECTROMETRY: COLLISION_ENERGY 90
AC$MASS_SPECTROMETRY: FRAGMENTATION_MODE CID
AC$MASS_SPECTROMETRY: IONIZATION ESI
AC$CHROMATOGRAPHY: COLUMN_NAME Zorbax Eclipse Plus C18 2.1 mm x 150 mm, 3.5 um, Agilent
AC$CHROMATOGRAPHY: COLUMN_TEMPERATURE 40 °C
AC$CHROMATOGRAPHY: FLOW_GRADIENT 0 min min 98% A, 1 min 98% A, 2 min 80% A, 16.5 min 2% A, 22 min 2% A, 22.1 min 98% A, 27 min 98% A
AC$CHROMATOGRAPHY: FLOW_RATE 0.3 mL/min
AC$CHROMATOGRAPHY: RETENTION_TIME 7.548 min
AC$CHROMATOGRAPHY: SOLVENT A: Water 0.1% Formic acid, B: Acetonitrile 0.1% Formic acid
MS$FOCUSED_ION: PRECURSOR_M/Z 280.1366
MS$FOCUSED_ION: PRECURSOR_TYPE [M+H]+
MS$DATA_PROCESSING: COMMENT Export with Spectra 1.9.12 MsBackendMassbank 1.7.4
MS$DATA_PROCESSING: WHOLE RMassBank 2.3.1
PK$SPLASH: splash10-014l-8900000000-a37f9ae6510edf68e71d
PK$NUM_PEAK: 34
PK$PEAK: m/z int. rel.int.
  39.0231 4.7 39
  41.0385 2 16
  42.0339 3.8 32
  44.0496 4.4 37
  44.9794 1.8 15
  45.0332 1.2 10
  50.0149 2.1 17
  51.0228 6.1 51
  63.0224 2.7 22
  65.0385 19.8 167
  68.979 1.6 13
  70.0648 2.2 18
  77.0386 32.8 277
  78.0462 16.8 142
  79.0537 1.3 11
  89.0382 6 50
  90.046 1.5 12
  91.0544 118 999
  102.0462 5.6 47
  103.0537 13.2 111
  105.0692 1.4 11
  108.0021 1.2 10
  109.01 3.8 32
  110.0178 1.9 16
  115.0542 96.6 817
  116.061 5.5 46
  117.0695 45.7 386
  121.0101 36.8 311
  122.0182 16.5 139
  127.0538 2.8 23
  131.0482 3.4 28
  134.0177 5.5 46
  135.0256 8.6 72
  137.0412 1.9 16
//
