ACCESSION: MSBNK-BAFG-CSL23102617381
RECORD_TITLE: Flumioxazin; LC-ESI-QTOF; MS2; 130 V
DATE: 2023.10.26
AUTHORS: Kevin S. Jewell; Björn Ehlig; Arne Wick
LICENSE: dl-de/by-2-0
COPYRIGHT: Copyright 2023 Federal Institute of Hydrology, Koblenz, Germany
COMMENT: CONFIDENCE Reference Standard (Level 1)
COMMENT: Chromatography method: dx.doi.org/10.1016/j.chroma.2015.11.014
COMMENT: Acquisition method: 10.1002/rcm.8541
CH$NAME: Flumioxazin
CH$COMPOUND_CLASS: Herbicide
CH$FORMULA: C19H15FN2O4
CH$EXACT_MASS: 354.1016
CH$SMILES: C#CCN1c2cc(c(cc2OCC1=O)F)N3C(=O)C4=C(C3=O)CCCC4
CH$IUPAC: InChI=1S/C19H15FN2O4/c1-2-7-21-15-9-14(13(20)8-16(15)26-10-17(21)23)22-18(24)11-5-3-4-6-12(11)19(22)25/h1,8-9H,3-7,10H2
CH$LINK: CAS 103361-09-7
CH$LINK: INCHIKEY FOUWCSDKDDHKQP-UHFFFAOYSA-N
AC$INSTRUMENT: TripleTOF 6600 SCIEX
AC$INSTRUMENT_TYPE: LC-ESI-QTOF
AC$MASS_SPECTROMETRY: MS_TYPE MS2
AC$MASS_SPECTROMETRY: ION_MODE POSITIVE
AC$MASS_SPECTROMETRY: COLLISION_ENERGY 130
AC$MASS_SPECTROMETRY: FRAGMENTATION_MODE CID
AC$MASS_SPECTROMETRY: IONIZATION ESI
AC$CHROMATOGRAPHY: COLUMN_NAME Zorbax Eclipse Plus C18 2.1 mm x 150 mm, 3.5 um, Agilent
AC$CHROMATOGRAPHY: COLUMN_TEMPERATURE 40 °C
AC$CHROMATOGRAPHY: FLOW_GRADIENT 0 min min 98% A, 1 min 98% A, 2 min 80% A, 16.5 min 2% A, 22 min 2% A, 22.1 min 98% A, 27 min 98% A
AC$CHROMATOGRAPHY: FLOW_RATE 0.3 mL/min
AC$CHROMATOGRAPHY: RETENTION_TIME 11.704 min
AC$CHROMATOGRAPHY: SOLVENT A: Water 0.1% Formic acid, B: Acetonitrile 0.1% Formic acid
MS$FOCUSED_ION: PRECURSOR_M/Z 355.1089
MS$FOCUSED_ION: PRECURSOR_TYPE [M+H]+
MS$DATA_PROCESSING: COMMENT Export with Spectra 1.9.12 MsBackendMassbank 1.7.4
MS$DATA_PROCESSING: WHOLE RMassBank 2.3.1
PK$SPLASH: splash10-0fb9-9200000000-3046625ffd3c5648b497
PK$NUM_PEAK: 37
PK$PEAK: m/z int. rel.int.
  37.007 0.1 124
  38.0162 0.1 124
  39.0222 0 0
  51.0224 0.7 874
  52.0276 0.2 249
  53.0371 0 0
  57.0129 0.2 249
  69.0102 0.2 249
  74.0137 0.8 999
  75.0102 0.1 124
  75.0215 0.5 624
  76.0179 0.6 749
  77.0373 0.7 874
  79.0524 0 0
  82.0079 0.1 124
  82.0189 0.1 124
  83.0283 0.2 249
  87.0128 0.1 124
  88.0152 0 0
  90.0346 0 0
  95.0149 0.1 124
  95.0299 0.1 124
  96.0216 0.1 124
  98.015 0.1 124
  99.0226 0.2 249
  101.0363 0.1 124
  102.0425 0.2 249
  105.0436 0.1 124
  107.0297 0.1 124
  108.0239 0 0
  114.0333 0 0
  123.0228 0.2 249
  128.0465 0.1 124
  139.0529 0.1 124
  140.0494 0.1 124
  144.0374 0.2 249
  146.0419 0.2 249
//
