ACCESSION: MSBNK-BAFG-CSL2311108032
RECORD_TITLE: Dextrorphan; LC-ESI-QTOF; MS2; 80 V
DATE: 2023.11.10
AUTHORS: Kevin S. Jewell; Björn Ehlig; Arne Wick
LICENSE: dl-de/by-2-0
COPYRIGHT: Copyright 2023 Federal Institute of Hydrology, Koblenz, Germany
COMMENT: CONFIDENCE Reference Standard (Level 1)
COMMENT: Chromatography method: dx.doi.org/10.1016/j.chroma.2015.11.014
COMMENT: Acquisition method: 10.1002/rcm.8541
CH$NAME: Dextrorphan
CH$COMPOUND_CLASS: Pharmaceutical; Metabolite
CH$FORMULA: C17H23NO
CH$EXACT_MASS: 257.178
CH$SMILES: CN1CC[C@@]23CCCC[C@@H]2[C@@H]1CC4=C3C=C(C=C4)O
CH$IUPAC: InChI=1S/C17H23NO/c1-18-9-8-17-7-3-2-4-14(17)16(18)10-12-5-6-13(19)11-15(12)17/h5-6,11,14,16,19H,2-4,7-10H2,1H3/t14-,16+,17+/m1/s1
CH$LINK: CAS 125-73-5
CH$LINK: INCHIKEY JAQUASYNZVUNQP-PVAVHDDUSA-N
AC$INSTRUMENT: TripleTOF 5600 SCIEX
AC$INSTRUMENT_TYPE: LC-ESI-QTOF
AC$MASS_SPECTROMETRY: MS_TYPE MS2
AC$MASS_SPECTROMETRY: ION_MODE POSITIVE
AC$MASS_SPECTROMETRY: COLLISION_ENERGY 80
AC$MASS_SPECTROMETRY: FRAGMENTATION_MODE CID
AC$MASS_SPECTROMETRY: IONIZATION ESI
AC$CHROMATOGRAPHY: COLUMN_NAME Zorbax Eclipse Plus C18 2.1 mm x 150 mm, 3.5 um, Agilent
AC$CHROMATOGRAPHY: COLUMN_TEMPERATURE 40 °C
AC$CHROMATOGRAPHY: FLOW_GRADIENT 0 min min 98% A, 1 min 98% A, 2 min 80% A, 16.5 min 2% A, 22 min 2% A, 22.1 min 98% A, 27 min 98% A
AC$CHROMATOGRAPHY: FLOW_RATE 0.3 mL/min
AC$CHROMATOGRAPHY: RETENTION_TIME 5.969 min
AC$CHROMATOGRAPHY: SOLVENT A: Water 0.1% Formic acid, B: Acetonitrile 0.1% Formic acid
MS$FOCUSED_ION: PRECURSOR_M/Z 258.1852
MS$FOCUSED_ION: PRECURSOR_TYPE [M+H]+
MS$DATA_PROCESSING: COMMENT Export with Spectra 1.9.12 MsBackendMassbank 1.7.4
MS$DATA_PROCESSING: WHOLE RMassBank 2.3.1
PK$SPLASH: splash10-004i-1900000000-cdc7b9895e5cd8c75d3e
PK$NUM_PEAK: 33
PK$PEAK: m/z int. rel.int.
  44.0576 6.3 27
  65.0426 4.3 19
  77.0423 57.1 253
  78.0484 2.9 12
  79.057 14.5 64
  89.0404 5.7 25
  91.0561 19.5 86
  101.0392 3.7 16
  102.0476 8.6 38
  103.0554 29.6 131
  105.0707 15.7 69
  107.0493 12.6 55
  115.0552 54.3 241
  116.0623 8.4 37
  117.0702 2.4 10
  118.042 3.5 15
  126.0462 9.5 42
  127.0551 101 448
  128.0631 225 999
  129.0702 34.4 152
  131.0497 38.2 169
  133.0646 4.5 19
  139.0543 8.8 39
  141.0706 10.6 47
  144.0565 10.2 45
  145.0646 2.5 11
  151.0546 2.8 12
  152.0623 13.6 60
  153.07 3.6 15
  155.0579 4.6 20
  157.0656 75.8 336
  165.0699 15 66
  169.0656 2.4 10
//
