ACCESSION: MSBNK-BAFG-CSL23110927404
RECORD_TITLE: Guaifenesin; LC-ESI-QTOF; MS2; 70 V
DATE: 2023.11.09
AUTHORS: Kevin S. Jewell; Björn Ehlig; Arne Wick
LICENSE: dl-de/by-2-0
COPYRIGHT: Copyright 2023 Federal Institute of Hydrology, Koblenz, Germany
COMMENT: CONFIDENCE Reference Standard (Level 1)
COMMENT: Chromatography method: dx.doi.org/10.1016/j.chroma.2015.11.014
COMMENT: Acquisition method: 10.1002/rcm.8541
CH$NAME: Guaifenesin
CH$FORMULA: C10H14O4
CH$EXACT_MASS: 198.0892
CH$SMILES: COC1=CC=CC=C1OCC(CO)O
CH$IUPAC: InChI=1S/C10H14O4/c1-13-9-4-2-3-5-10(9)14-7-8(12)6-11/h2-5,8,11-12H,6-7H2,1H3
CH$LINK: CAS 93-14-1
CH$LINK: INCHIKEY HSRJKNPTNIJEKV-UHFFFAOYSA-N
AC$INSTRUMENT: TripleTOF X500R SCIEX
AC$INSTRUMENT_TYPE: LC-ESI-QTOF
AC$MASS_SPECTROMETRY: MS_TYPE MS2
AC$MASS_SPECTROMETRY: ION_MODE POSITIVE
AC$MASS_SPECTROMETRY: COLLISION_ENERGY 70
AC$MASS_SPECTROMETRY: FRAGMENTATION_MODE CID
AC$MASS_SPECTROMETRY: IONIZATION ESI
AC$CHROMATOGRAPHY: COLUMN_NAME Zorbax Eclipse Plus C18 2.1 mm x 150 mm, 3.5 um, Agilent
AC$CHROMATOGRAPHY: COLUMN_TEMPERATURE 40 °C
AC$CHROMATOGRAPHY: FLOW_GRADIENT 0 min min 98% A, 1 min 98% A, 2 min 80% A, 16.5 min 2% A, 22 min 2% A, 22.1 min 98% A, 27 min 98% A
AC$CHROMATOGRAPHY: FLOW_RATE 0.3 mL/min
AC$CHROMATOGRAPHY: RETENTION_TIME 6.298 min
AC$CHROMATOGRAPHY: SOLVENT A: Water 0.1% Formic acid, B: Acetonitrile 0.1% Formic acid
MS$FOCUSED_ION: PRECURSOR_M/Z 199.0965
MS$FOCUSED_ION: PRECURSOR_TYPE [M+H]+
MS$DATA_PROCESSING: COMMENT Export with Spectra 1.9.12 MsBackendMassbank 1.7.4
MS$DATA_PROCESSING: WHOLE RMassBank 2.3.1
PK$SPLASH: splash10-0hbi-9200000000-746b27da7f55d94565b3
PK$NUM_PEAK: 22
PK$PEAK: m/z int. rel.int.
  31.0175 0.2 99
  37.0082 0.1 49
  38.0143 0.2 99
  39.0235 1.1 549
  41.0382 0.2 99
  43.0172 0.2 99
  45.0335 0.2 99
  51.0223 1.9 949
  52.0309 0.1 49
  57.034 0.1 49
  60.988 0.2 99
  64.0313 0.9 449
  65.0392 0.8 399
  66.0479 0.1 49
  77.039 1.6 799
  82.0422 0.1 49
  91.0561 0.3 149
  92.026 0.3 149
  102.0455 0.1 49
  103.0565 0.1 49
  110.037 0.3 149
  121.0294 2 999
//
