ACCESSION: MSBNK-BAFG-CSL23111016095
RECORD_TITLE: Lumichrome; LC-ESI-QTOF; MS2; 50 V
DATE: 2023.11.10
AUTHORS: Kevin S. Jewell; Björn Ehlig; Arne Wick
LICENSE: dl-de/by-2-0
COPYRIGHT: Copyright 2023 Federal Institute of Hydrology, Koblenz, Germany
COMMENT: CONFIDENCE Reference Standard (Level 1)
COMMENT: Chromatography method: dx.doi.org/10.1016/j.chroma.2015.11.014
COMMENT: Acquisition method: 10.1002/rcm.8541
CH$NAME: Lumichrome
CH$COMPOUND_CLASS: Pharmaceutical
CH$FORMULA: C12H10N4O2
CH$EXACT_MASS: 242.0804
CH$SMILES: CC1=CC2=C(C=C1C)N=C3C(=N2)C(=O)NC(=O)N3
CH$IUPAC: InChI=1S/C12H10N4O2/c1-5-3-7-8(4-6(5)2)14-10-9(13-7)11(17)16-12(18)15-10/h3-4H,1-2H3,(H2,14,15,16,17,18)
CH$LINK: CAS 1086-80-2
CH$LINK: INCHIKEY ZJTJUVIJVLLGSP-UHFFFAOYSA-N
AC$INSTRUMENT: TripleTOF 6600 SCIEX
AC$INSTRUMENT_TYPE: LC-ESI-QTOF
AC$MASS_SPECTROMETRY: MS_TYPE MS2
AC$MASS_SPECTROMETRY: ION_MODE POSITIVE
AC$MASS_SPECTROMETRY: COLLISION_ENERGY 50
AC$MASS_SPECTROMETRY: FRAGMENTATION_MODE CID
AC$MASS_SPECTROMETRY: IONIZATION ESI
AC$CHROMATOGRAPHY: COLUMN_NAME Zorbax Eclipse Plus C18 2.1 mm x 150 mm, 3.5 um, Agilent
AC$CHROMATOGRAPHY: COLUMN_TEMPERATURE 40 °C
AC$CHROMATOGRAPHY: FLOW_GRADIENT 0 min min 98% A, 1 min 98% A, 2 min 80% A, 16.5 min 2% A, 22 min 2% A, 22.1 min 98% A, 27 min 98% A
AC$CHROMATOGRAPHY: FLOW_RATE 0.3 mL/min
AC$CHROMATOGRAPHY: RETENTION_TIME 7.067 min
AC$CHROMATOGRAPHY: SOLVENT A: Water 0.1% Formic acid, B: Acetonitrile 0.1% Formic acid
MS$FOCUSED_ION: PRECURSOR_M/Z 243.0877
MS$FOCUSED_ION: PRECURSOR_TYPE [M+H]+
MS$DATA_PROCESSING: COMMENT Export with Spectra 1.9.12 MsBackendMassbank 1.7.4
MS$DATA_PROCESSING: WHOLE RMassBank 2.3.1
PK$SPLASH: splash10-0v6s-1900000000-5b0614d386c00ef270be
PK$NUM_PEAK: 36
PK$PEAK: m/z int. rel.int.
  51.0235 2.8 33
  65.0387 1.7 20
  75.0231 1 11
  77.0392 42 503
  78.0471 1.1 13
  89.0387 3.8 45
  91.0547 24.9 298
  101.0386 2 23
  102.0335 1.3 15
  102.0471 3.2 38
  103.0549 83.3 999
  104.0498 13.7 164
  105.0457 2.4 28
  116.0497 38.3 459
  117.0586 7.1 85
  118.0656 34 407
  119.0626 1 11
  126.0344 1.1 13
  128.0497 9.5 113
  129.0445 3.1 37
  129.0575 1.1 13
  130.0421 2.5 29
  130.0654 30.6 366
  131.0736 1 11
  142.0533 4.6 55
  143.061 8.4 100
  145.0766 43.5 521
  153.0456 6.4 76
  156.0563 7.8 93
  157.0644 17.8 213
  170.0719 42.3 507
  172.0876 20.4 244
  182.071 1 11
  197.0833 1.8 21
  198.0665 24.5 293
  200.0832 2.7 32
//
