ACCESSION: MSBNK-BAFG-CSL23102616320
RECORD_TITLE: Omeprazole sulfide 5-carboxylic acid; LC-ESI-QTOF; MS2; 10 V
DATE: 2023.10.26
AUTHORS: Kevin S. Jewell; Björn Ehlig; Arne Wick
LICENSE: dl-de/by-2-0
COPYRIGHT: Copyright 2023 Federal Institute of Hydrology, Koblenz, Germany
COMMENT: CONFIDENCE Reference Standard (Level 1)
COMMENT: Chromatography method: dx.doi.org/10.1016/j.chroma.2015.11.014
COMMENT: Acquisition method: 10.1002/rcm.8541
CH$NAME: Omeprazole sulfide 5-carboxylic acid
CH$COMPOUND_CLASS: Metabolite; Pharmaceutical
CH$FORMULA: C17H17N3O4S
CH$EXACT_MASS: 359.094
CH$SMILES: CC1=C(C(=CN=C1CSC2=NC3=C(N2)C=C(C=C3)OC)C(=O)O)OC
CH$IUPAC: InChI=1S/C17H17N3O4S/c1-9-14(18-7-11(16(21)22)15(9)24-3)8-25-17-19-12-5-4-10(23-2)6-13(12)20-17/h4-7H,8H2,1-3H3,(H,19,20)(H,21,22)
CH$LINK: CAS 103877-00-5
CH$LINK: INCHIKEY BNOSHBGSJBEMGC-UHFFFAOYSA-N
AC$INSTRUMENT: TripleTOF 5600 SCIEX
AC$INSTRUMENT_TYPE: LC-ESI-QTOF
AC$MASS_SPECTROMETRY: MS_TYPE MS2
AC$MASS_SPECTROMETRY: ION_MODE NEGATIVE
AC$MASS_SPECTROMETRY: COLLISION_ENERGY 10
AC$MASS_SPECTROMETRY: FRAGMENTATION_MODE CID
AC$MASS_SPECTROMETRY: IONIZATION ESI
AC$CHROMATOGRAPHY: COLUMN_NAME Zorbax Eclipse Plus C18 2.1 mm x 150 mm, 3.5 um, Agilent
AC$CHROMATOGRAPHY: COLUMN_TEMPERATURE 40 °C
AC$CHROMATOGRAPHY: FLOW_GRADIENT 0 min min 98% A, 1 min 98% A, 2 min 80% A, 16.5 min 2% A, 22 min 2% A, 22.1 min 98% A, 27 min 98% A
AC$CHROMATOGRAPHY: FLOW_RATE 0.3 mL/min
AC$CHROMATOGRAPHY: RETENTION_TIME 5.75 min
AC$CHROMATOGRAPHY: SOLVENT A: Water 0.1% Formic acid, B: Acetonitrile 0.1% Formic acid
MS$FOCUSED_ION: PRECURSOR_M/Z 358.0867
MS$FOCUSED_ION: PRECURSOR_TYPE [M-H]-
MS$DATA_PROCESSING: COMMENT Export with Spectra 1.9.12 MsBackendMassbank 1.7.4
MS$DATA_PROCESSING: WHOLE RMassBank 2.3.1
PK$SPLASH: splash10-03di-0109000000-d4171d68a8146c137b04
PK$NUM_PEAK: 2
PK$PEAK: m/z int. rel.int.
  179.0294 9 148
  314.097 60.4 999
//
