ACCESSION: MSBNK-BAFG-CSL2310266204
RECORD_TITLE: Diphenylphosphine oxide; LC-ESI-QTOF; MS2; 50 V
DATE: 2023.10.26
AUTHORS: Kevin S. Jewell; Björn Ehlig; Arne Wick
LICENSE: dl-de/by-2-0
COPYRIGHT: Copyright 2023 Federal Institute of Hydrology, Koblenz, Germany
COMMENT: CONFIDENCE Reference Standard (Level 1)
COMMENT: Chromatography method: dx.doi.org/10.1016/j.chroma.2015.11.014
COMMENT: Acquisition method: 10.1002/rcm.8541
CH$NAME: Diphenylphosphine oxide
CH$COMPOUND_CLASS: Industrial_process
CH$FORMULA: C12H11OP
CH$EXACT_MASS: 202.0548
CH$SMILES: O=P(c1ccccc1)c2ccccc2
CH$IUPAC: InChI=1S/C12H11OP/c13-14(11-7-3-1-4-8-11)12-9-5-2-6-10-12/h1-10,14H
CH$LINK: CAS 4559-70-0
CH$LINK: INCHIKEY ASUOLLHGALPRFK-UHFFFAOYSA-N
AC$INSTRUMENT: TripleTOF 5600 SCIEX
AC$INSTRUMENT_TYPE: LC-ESI-QTOF
AC$MASS_SPECTROMETRY: MS_TYPE MS2
AC$MASS_SPECTROMETRY: ION_MODE POSITIVE
AC$MASS_SPECTROMETRY: COLLISION_ENERGY 50
AC$MASS_SPECTROMETRY: FRAGMENTATION_MODE CID
AC$MASS_SPECTROMETRY: IONIZATION ESI
AC$CHROMATOGRAPHY: COLUMN_NAME Zorbax Eclipse Plus C18 2.1 mm x 150 mm, 3.5 um, Agilent
AC$CHROMATOGRAPHY: COLUMN_TEMPERATURE 40 °C
AC$CHROMATOGRAPHY: FLOW_GRADIENT 0 min min 98% A, 1 min 98% A, 2 min 80% A, 16.5 min 2% A, 22 min 2% A, 22.1 min 98% A, 27 min 98% A
AC$CHROMATOGRAPHY: FLOW_RATE 0.3 mL/min
AC$CHROMATOGRAPHY: RETENTION_TIME 8.031 min
AC$CHROMATOGRAPHY: SOLVENT A: Water 0.1% Formic acid, B: Acetonitrile 0.1% Formic acid
MS$FOCUSED_ION: PRECURSOR_M/Z 203.062
MS$FOCUSED_ION: PRECURSOR_TYPE [M+H]+
MS$DATA_PROCESSING: COMMENT Export with Spectra 1.9.12 MsBackendMassbank 1.7.4
MS$DATA_PROCESSING: WHOLE RMassBank 2.3.1
PK$SPLASH: splash10-004i-9700000000-be32f9734f10b06bfa37
PK$NUM_PEAK: 11
PK$PEAK: m/z int. rel.int.
  47.0053 0.5 53
  51.03 1.1 116
  77.0417 9.4 999
  78.0495 1.6 170
  79.0577 1.5 159
  95.0063 0.7 74
  97.0222 0.5 53
  109.0194 0.5 53
  125.0152 8.1 860
  152.0626 0.9 95
  183.0357 3.5 371
//
