ACCESSION: MSBNK-BAFG-CSL23102512362
RECORD_TITLE: 1-Butyl-2,3-dimethylimidazolium; LC-ESI-QTOF; MS2; 50 V
DATE: 2023.10.25
AUTHORS: Kevin S. Jewell; Björn Ehlig; Arne Wick
LICENSE: dl-de/by-2-0
COPYRIGHT: Copyright 2023 Federal Institute of Hydrology, Koblenz, Germany
COMMENT: CONFIDENCE Reference Standard (Level 1)
COMMENT: Chromatography method: dx.doi.org/10.1016/j.chroma.2015.11.014
COMMENT: Acquisition method: 10.1002/rcm.8541
CH$NAME: 1-Butyl-2,3-dimethylimidazolium
CH$FORMULA: C9H17N2
CH$EXACT_MASS: 153.1386
CH$SMILES: CCCCN1C=C[N+](=C1C)C
CH$IUPAC: InChI=1S/C9H17N2/c1-4-5-6-11-8-7-10(3)9(11)2/h7-8H,4-6H2,1-3H3/q+1
CH$LINK: CAS 108203-89-0
CH$LINK: INCHIKEY XUAXVBUVQVRIIQ-UHFFFAOYSA-N
AC$INSTRUMENT: TripleTOF 5600 SCIEX
AC$INSTRUMENT_TYPE: LC-ESI-QTOF
AC$MASS_SPECTROMETRY: MS_TYPE MS2
AC$MASS_SPECTROMETRY: ION_MODE POSITIVE
AC$MASS_SPECTROMETRY: COLLISION_ENERGY 50
AC$MASS_SPECTROMETRY: FRAGMENTATION_MODE CID
AC$MASS_SPECTROMETRY: IONIZATION ESI
AC$CHROMATOGRAPHY: COLUMN_NAME Zorbax Eclipse Plus C18 2.1 mm x 150 mm, 3.5 um, Agilent
AC$CHROMATOGRAPHY: COLUMN_TEMPERATURE 40 °C
AC$CHROMATOGRAPHY: FLOW_GRADIENT 0 min min 98% A, 1 min 98% A, 2 min 80% A, 16.5 min 2% A, 22 min 2% A, 22.1 min 98% A, 27 min 98% A
AC$CHROMATOGRAPHY: FLOW_RATE 0.3 mL/min
AC$CHROMATOGRAPHY: RETENTION_TIME 4.733 min
AC$CHROMATOGRAPHY: SOLVENT A: Water 0.1% Formic acid, B: Acetonitrile 0.1% Formic acid
MS$FOCUSED_ION: PRECURSOR_M/Z 153.1386
MS$FOCUSED_ION: PRECURSOR_TYPE [M]+
MS$DATA_PROCESSING: COMMENT Export with Spectra 1.9.12 MsBackendMassbank 1.7.4
MS$DATA_PROCESSING: WHOLE RMassBank 2.3.1
PK$SPLASH: splash10-052b-9000000000-9d870491379eceffc816
PK$NUM_PEAK: 10
PK$PEAK: m/z int. rel.int.
  37.0075 0.8 62
  38.0163 0.8 62
  39.0229 5.7 448
  41.0387 4.2 330
  42.0337 1 78
  56.0491 12.7 999
  68.0485 1.1 86
  81.042 0.9 70
  95.0591 1.9 149
  97.0747 12.5 983
//
