ACCESSION: MSBNK-BAFG-CSL25010634262
RECORD_TITLE: 4-(Dimethylamino)azobenzene; LC-ESI-QTOF; MS2; 40 V
DATE: 2025.01.06
AUTHORS: Ole Lessmann; Kevin S. Jewell; Björn Ehlig; Arne Wick
LICENSE: dl-de/by-2-0
COPYRIGHT: Copyright 2025 Federal Institute of Hydrology, Koblenz, Germany
COMMENT: CONFIDENCE Reference Standard (Level 1)
COMMENT: Chromatography method: dx.doi.org/10.1016/j.chroma.2015.11.014
COMMENT: Acquisition method: 10.1002/rcm.8541
CH$NAME: 4-(Dimethylamino)azobenzene
CH$FORMULA: C14H15N3
CH$EXACT_MASS: 225.1266
CH$SMILES: CN(C)C1=CC=C(C=C1)N=NC2=CC=CC=C2
CH$IUPAC: InChI=1S/C14H15N3/c1-17(2)14-10-8-13(9-11-14)16-15-12-6-4-3-5-7-12/h3-11H,1-2H3
CH$LINK: CAS 60-11-7
CH$LINK: INCHIKEY JCYPECIVGRXBMO-UHFFFAOYSA-N
AC$INSTRUMENT: TripleTOF 6600 SCIEX
AC$INSTRUMENT_TYPE: LC-ESI-QTOF
AC$MASS_SPECTROMETRY: MS_TYPE MS2
AC$MASS_SPECTROMETRY: ION_MODE POSITIVE
AC$MASS_SPECTROMETRY: COLLISION_ENERGY 40
AC$MASS_SPECTROMETRY: FRAGMENTATION_MODE CID
AC$MASS_SPECTROMETRY: IONIZATION ESI
AC$CHROMATOGRAPHY: COLUMN_NAME Zorbax Eclipse Plus C18 2.1 mm x 150 mm, 3.5 um, Agilent
AC$CHROMATOGRAPHY: COLUMN_TEMPERATURE 40 °C
AC$CHROMATOGRAPHY: FLOW_GRADIENT 0 min min 98% A, 1 min 98% A, 2 min 80% A, 16.5 min 2% A, 22 min 2% A, 22.1 min 98% A, 27 min 98% A
AC$CHROMATOGRAPHY: FLOW_RATE 0.3 mL/min
AC$CHROMATOGRAPHY: RETENTION_TIME 15.513 min
AC$CHROMATOGRAPHY: SOLVENT A: Water 0.1% Formic acid, B: Acetonitrile 0.1% Formic acid
MS$FOCUSED_ION: PRECURSOR_M/Z 226.1339
MS$FOCUSED_ION: PRECURSOR_TYPE [M+H]+
MS$DATA_PROCESSING: COMMENT Export with pycsl 0.1.0.dev1 and CSL 24.4
PK$SPLASH: splash10-004i-9700000000-83c84739df23e20f9754
PK$NUM_PEAK: 15
PK$PEAK: m/z int. rel.int.
  51.0221 144.3 40
  65.0374 36.0 10
  68.0481 37.6 10
  77.0377 3546.4 999
  79.0529 159.2 44
  92.0482 107.7 30
  93.0438 95.6 26
  95.0475 36.0 10
  105.044 106.3 29
  106.0639 509.1 143
  119.0592 226.8 63
  120.0798 1266.9 356
  121.0872 327.1 92
  133.0751 760.4 214
  134.0816 189.5 53
//