ACCESSION: MSBNK-BAFG-CSL25010634389
RECORD_TITLE: 4,4`-Methylenebis(2-chloroaniline); LC-ESI-QTOF; MS2; 120 V
DATE: 2025.01.06
AUTHORS: Ole Lessmann; Kevin S. Jewell; Björn Ehlig; Arne Wick
LICENSE: dl-de/by-2-0
COPYRIGHT: Copyright 2025 Federal Institute of Hydrology, Koblenz, Germany
COMMENT: CONFIDENCE Reference Standard (Level 1)
COMMENT: Chromatography method: dx.doi.org/10.1016/j.chroma.2015.11.014
COMMENT: Acquisition method: 10.1002/rcm.8541
CH$NAME: 4,4`-Methylenebis(2-chloroaniline)
CH$FORMULA: C13H12Cl2N2
CH$EXACT_MASS: 266.0378
CH$SMILES: C1=CC(=C(C=C1CC2=CC(=C(C=C2)N)Cl)Cl)N
CH$IUPAC: InChI=1S/C13H12Cl2N2/c14-10-6-8(1-3-12(10)16)5-9-2-4-13(17)11(15)7-9/h1-4,6-7H,5,16-17H2
CH$LINK: CAS 101-14-4
CH$LINK: INCHIKEY IBOFVQJTBBUKMU-UHFFFAOYSA-N
AC$INSTRUMENT: TripleTOF 6600 SCIEX
AC$INSTRUMENT_TYPE: LC-ESI-QTOF
AC$MASS_SPECTROMETRY: MS_TYPE MS2
AC$MASS_SPECTROMETRY: ION_MODE POSITIVE
AC$MASS_SPECTROMETRY: COLLISION_ENERGY 120
AC$MASS_SPECTROMETRY: FRAGMENTATION_MODE CID
AC$MASS_SPECTROMETRY: IONIZATION ESI
AC$CHROMATOGRAPHY: COLUMN_NAME Zorbax Eclipse Plus C18 2.1 mm x 150 mm, 3.5 um, Agilent
AC$CHROMATOGRAPHY: COLUMN_TEMPERATURE 40 °C
AC$CHROMATOGRAPHY: FLOW_GRADIENT 0 min min 98% A, 1 min 98% A, 2 min 80% A, 16.5 min 2% A, 22 min 2% A, 22.1 min 98% A, 27 min 98% A
AC$CHROMATOGRAPHY: FLOW_RATE 0.3 mL/min
AC$CHROMATOGRAPHY: RETENTION_TIME 11.747 min
AC$CHROMATOGRAPHY: SOLVENT A: Water 0.1% Formic acid, B: Acetonitrile 0.1% Formic acid
MS$FOCUSED_ION: PRECURSOR_M/Z 267.045
MS$FOCUSED_ION: PRECURSOR_TYPE [M+H]+
MS$DATA_PROCESSING: COMMENT Export with pycsl 0.1.0.dev1 and CSL 24.4
PK$SPLASH: splash10-0ug0-9600000000-9ef6204243dbe6ffc6ec
PK$NUM_PEAK: 56
PK$PEAK: m/z int. rel.int.
  37.0081 0.5 26
  39.0234 1.0 53
  49.007 0.4 21
  50.0157 7.5 402
  51.0236 18.6 999
  52.0184 1.1 59
  52.0311 0.5 26
  61.0075 1.1 59
  62.0153 2.3 123
  63.0233 4.3 230
  65.0386 1.3 69
  73.0083 0.6 32
  74.0156 7.1 381
  75.0225 7.8 418
  76.0304 1.2 64
  77.0386 15.1 811
  78.0407 2.0 107
  85.0068 0.6 32
  86.0147 3.3 177
  87.0232 2.6 139
  88.0303 0.5 26
  89.0382 5.5 295
  98.0153 5.8 311
  99.0225 2.7 145
  100.028 0.9 48
  101.0377 0.8 42
  102.0462 1.3 69
  103.0556 0.5 26
  104.0502 3.6 193
  110.0141 1.6 85
  111.0228 0.6 32
  113.0372 5.2 279
  114.0335 0.5 26
  114.0457 1.1 59
  115.0526 4.7 252
  122.0145 0.9 48
  123.0219 0.4 21
  124.0324 0.6 32
  125.0377 0.9 48
  126.0459 6.2 333
  127.0546 0.8 42
  128.0564 0.6 32
  137.0388 0.6 32
  138.045 0.8 42
  139.0542 12.8 687
  140.0501 2.5 134
  149.0381 1.0 53
  150.0472 8.8 472
  151.0526 4.0 214
  152.0557 0.5 26
  152.065 1.3 69
  164.0502 1.1 59
  166.0675 1.1 59
  167.0742 1.0 53
  175.0396 1.0 53
  177.0569 0.7 37
//