ACCESSION: MSBNK-BAFG-CSL25010627933
RECORD_TITLE: Indigo; LC-ESI-QTOF; MS2; 80 V
DATE: 2025.01.06
AUTHORS: Ole Lessmann; Kevin S. Jewell; Björn Ehlig; Arne Wick
LICENSE: dl-de/by-2-0
COPYRIGHT: Copyright 2025 Federal Institute of Hydrology, Koblenz, Germany
COMMENT: CONFIDENCE Reference Standard (Level 1)
COMMENT: Chromatography method: dx.doi.org/10.1016/j.chroma.2015.11.014
COMMENT: Acquisition method: 10.1002/rcm.8541
CH$NAME: Indigo
CH$FORMULA: C16H10N2O2
CH$EXACT_MASS: 262.0742
CH$SMILES: C1=CC=C2C(=C1)C(=C(N2)C3=NC4=CC=CC=C4C3=O)O
CH$IUPAC: InChI=1S/C16H10N2O2/c19-15-9-5-1-3-7-11(9)17-13(15)14-16(20)10-6-2-4-8-12(10)18-14/h1-8,17,19H
CH$LINK: CAS 482-89-3
CH$LINK: INCHIKEY QQILFGKZUJYXGS-UHFFFAOYSA-N
AC$INSTRUMENT: TripleTOF X500R SCIEX
AC$INSTRUMENT_TYPE: LC-ESI-QTOF
AC$MASS_SPECTROMETRY: MS_TYPE MS2
AC$MASS_SPECTROMETRY: ION_MODE POSITIVE
AC$MASS_SPECTROMETRY: COLLISION_ENERGY 80
AC$MASS_SPECTROMETRY: FRAGMENTATION_MODE CID
AC$MASS_SPECTROMETRY: IONIZATION ESI
AC$CHROMATOGRAPHY: COLUMN_NAME Zorbax Eclipse Plus C18 2.1 mm x 150 mm, 3.5 um, Agilent
AC$CHROMATOGRAPHY: COLUMN_TEMPERATURE 40 °C
AC$CHROMATOGRAPHY: FLOW_GRADIENT 0 min min 98% A, 1 min 98% A, 2 min 80% A, 16.5 min 2% A, 22 min 2% A, 22.1 min 98% A, 27 min 98% A
AC$CHROMATOGRAPHY: FLOW_RATE 0.3 mL/min
AC$CHROMATOGRAPHY: RETENTION_TIME 11.892 min
AC$CHROMATOGRAPHY: SOLVENT A: Water 0.1% Formic acid, B: Acetonitrile 0.1% Formic acid
MS$FOCUSED_ION: PRECURSOR_M/Z 263.0815
MS$FOCUSED_ION: PRECURSOR_TYPE [M+H]+
MS$DATA_PROCESSING: COMMENT Export with pycsl 0.1.0.dev1 and CSL 24.4
PK$SPLASH: splash10-0ufr-5910000000-7a84b9e21f293e4bd246
PK$NUM_PEAK: 42
PK$PEAK: m/z int. rel.int.
  50.0151 1.5 168
  51.0231 8.9 999
  63.0231 1.3 145
  65.0404 0.5 56
  76.0317 1.7 190
  77.0393 8.5 954
  89.0394 5.7 639
  90.0469 1.7 190
  102.0341 1.5 168
  103.0426 0.4 44
  104.0263 1.9 213
  104.0498 1.9 213
  105.0313 0.5 56
  114.034 1.0 112
  115.0513 1.0 112
  116.0506 0.5 56
  117.0591 0.8 89
  127.0554 1.4 157
  132.0444 0.4 44
  139.053 1.3 145
  140.0504 1.0 112
  150.0466 1.3 145
  151.0548 5.8 651
  152.0637 3.8 426
  153.0583 0.8 89
  154.0656 0.7 78
  162.0475 0.5 56
  163.0546 3.3 370
  164.0559 2.5 280
  165.0706 1.3 145
  177.0584 2.9 325
  178.0662 3.8 426
  179.071 0.8 89
  188.0494 2.4 269
  189.0581 1.4 157
  190.0662 2.0 224
  191.0676 0.5 56
  192.0674 0.7 78
  204.0686 0.6 67
  205.0773 7.1 796
  206.0888 0.5 56
  215.061 0.7 78
//