ACCESSION: MSBNK-BAFG-CSL23102511844
RECORD_TITLE: 1-(Ethoxycarbonyl)ethyltriphenylphosphonium; LC-ESI-QTOF; MS2; 150 V
DATE: 2023.10.25
AUTHORS: Kevin S. Jewell; Björn Ehlig; Arne Wick
LICENSE: dl-de/by-2-0
COPYRIGHT: Copyright 2023 Federal Institute of Hydrology, Koblenz, Germany
COMMENT: CONFIDENCE Reference Standard (Level 1)
COMMENT: Chromatography method: dx.doi.org/10.1016/j.chroma.2015.11.014
COMMENT: Acquisition method: 10.1002/rcm.8541
CH$NAME: 1-(Ethoxycarbonyl)ethyltriphenylphosphonium
CH$FORMULA: C23H24O2P
CH$EXACT_MASS: 363.1508
CH$SMILES: CCOC(=O)C(C)[P+](C1=CC=CC=C1)(C2=CC=CC=C2)C3=CC=CC=C3
CH$IUPAC: InChI=1S/C23H24O2P/c1-3-25-23(24)19(2)26(20-13-7-4-8-14-20,21-15-9-5-10-16-21)22-17-11-6-12-18-22/h4-19H,3H2,1-2H3/q+1
CH$LINK: CAS 30018-16-7
CH$LINK: INCHIKEY RCMRLMJSJGLGEU-UHFFFAOYSA-N
AC$INSTRUMENT: TripleTOF 5600 SCIEX
AC$INSTRUMENT_TYPE: LC-ESI-QTOF
AC$MASS_SPECTROMETRY: MS_TYPE MS2
AC$MASS_SPECTROMETRY: ION_MODE POSITIVE
AC$MASS_SPECTROMETRY: COLLISION_ENERGY 150
AC$MASS_SPECTROMETRY: FRAGMENTATION_MODE CID
AC$MASS_SPECTROMETRY: IONIZATION ESI
AC$CHROMATOGRAPHY: COLUMN_NAME Zorbax Eclipse Plus C18 2.1 mm x 150 mm, 3.5 um, Agilent
AC$CHROMATOGRAPHY: COLUMN_TEMPERATURE 40 °C
AC$CHROMATOGRAPHY: FLOW_GRADIENT 0 min min 98% A, 1 min 98% A, 2 min 80% A, 16.5 min 2% A, 22 min 2% A, 22.1 min 98% A, 27 min 98% A
AC$CHROMATOGRAPHY: FLOW_RATE 0.3 mL/min
AC$CHROMATOGRAPHY: RETENTION_TIME 8.086 min
AC$CHROMATOGRAPHY: SOLVENT A: Water 0.1% Formic acid, B: Acetonitrile 0.1% Formic acid
MS$FOCUSED_ION: PRECURSOR_M/Z 363.1508
MS$FOCUSED_ION: PRECURSOR_TYPE [M]+
MS$DATA_PROCESSING: COMMENT Export with Spectra 1.9.12 MsBackendMassbank 1.7.4
MS$DATA_PROCESSING: WHOLE RMassBank 2.3.1
PK$SPLASH: splash10-0pb9-1900000000-4b1029fbb7cb30eaa7ae
PK$NUM_PEAK: 15
PK$PEAK: m/z int. rel.int.
  79.9792 0.5 142
  80.9862 1.1 313
  89.0354 1.1 313
  102.0416 0.5 142
  107.0026 3.5 999
  115.052 1.9 542
  126.0445 1.1 313
  133.0191 0.4 114
  139.0543 1 285
  150.0437 0.7 199
  151.0538 2 570
  152.0604 2.7 770
  156.0118 0.7 199
  157.0204 1.9 542
  181.0176 1.5 428
//
