ACCESSION: MSBNK-BAFG-CSL231026390
RECORD_TITLE: Benzylhexyldimethylammonium; LC-ESI-QTOF; MS2; 100 V
DATE: 2023.10.26
AUTHORS: Kevin S. Jewell; Björn Ehlig; Arne Wick
LICENSE: dl-de/by-2-0
COPYRIGHT: Copyright 2023 Federal Institute of Hydrology, Koblenz, Germany
COMMENT: CONFIDENCE Reference Standard (Level 1)
COMMENT: Chromatography method: dx.doi.org/10.1016/j.chroma.2015.11.014
COMMENT: Acquisition method: 10.1002/rcm.8541
CH$NAME: Benzylhexyldimethylammonium
CH$COMPOUND_CLASS: Antimicrobial; Pharmaceutical
CH$FORMULA: [C15H26N]+
CH$EXACT_MASS: 220.206
CH$SMILES: CCCCCC[N+](C)(Cc1ccccc1)C
CH$IUPAC: InChI=1S/C15H26N/c1-4-5-6-10-13-16(2,3)14-15-11-8-7-9-12-15/h7-9,11-12H,4-6,10,13-14H2,1-3H3/q+1
CH$LINK: CAS 22559-57-5
CH$LINK: INCHIKEY OCRHPUCRAFNCMN-UHFFFAOYSA-N
AC$INSTRUMENT: TripleTOF 5600 SCIEX
AC$INSTRUMENT_TYPE: LC-ESI-QTOF
AC$MASS_SPECTROMETRY: MS_TYPE MS2
AC$MASS_SPECTROMETRY: ION_MODE POSITIVE
AC$MASS_SPECTROMETRY: COLLISION_ENERGY 100
AC$MASS_SPECTROMETRY: FRAGMENTATION_MODE CID
AC$MASS_SPECTROMETRY: IONIZATION ESI
AC$CHROMATOGRAPHY: COLUMN_NAME Zorbax Eclipse Plus C18 2.1 mm x 150 mm, 3.5 um, Agilent
AC$CHROMATOGRAPHY: COLUMN_TEMPERATURE 40 °C
AC$CHROMATOGRAPHY: FLOW_GRADIENT 0 min min 98% A, 1 min 98% A, 2 min 80% A, 16.5 min 2% A, 22 min 2% A, 22.1 min 98% A, 27 min 98% A
AC$CHROMATOGRAPHY: FLOW_RATE 0.3 mL/min
AC$CHROMATOGRAPHY: RETENTION_TIME 7.465 min
AC$CHROMATOGRAPHY: SOLVENT A: Water 0.1% Formic acid, B: Acetonitrile 0.1% Formic acid
MS$FOCUSED_ION: PRECURSOR_M/Z 220.206
MS$FOCUSED_ION: PRECURSOR_TYPE [M]+
MS$DATA_PROCESSING: COMMENT Export with Spectra 1.9.12 MsBackendMassbank 1.7.4
MS$DATA_PROCESSING: WHOLE RMassBank 2.3.1
PK$SPLASH: splash10-014l-9000000000-7a1c62c2d48b12d455e5
PK$NUM_PEAK: 4
PK$PEAK: m/z int. rel.int.
  51.0286 0.9 80
  58.0713 1.6 142
  65.0426 11.2 999
  91.0546 8 713
//
