ACCESSION: MSBNK-BAFG-CSL25010634428
RECORD_TITLE: p-Phenetidine; LC-ESI-QTOF; MS2; 30 V
DATE: 2025.01.06
AUTHORS: Ole Lessmann; Kevin S. Jewell; Björn Ehlig; Arne Wick
LICENSE: dl-de/by-2-0
COPYRIGHT: Copyright 2025 Federal Institute of Hydrology, Koblenz, Germany
COMMENT: CONFIDENCE Reference Standard (Level 1)
COMMENT: Chromatography method: dx.doi.org/10.1016/j.chroma.2015.11.014
COMMENT: Acquisition method: 10.1002/rcm.8541
CH$NAME: p-Phenetidine
CH$FORMULA: C8H11NO
CH$EXACT_MASS: 137.0841
CH$SMILES: CCOC1=CC=C(C=C1)N
CH$IUPAC: InChI=1S/C8H11NO/c1-2-10-8-5-3-7(9)4-6-8/h3-6H,2,9H2,1H3
CH$LINK: CAS 156-43-4
CH$LINK: INCHIKEY IMPPGHMHELILKG-UHFFFAOYSA-N
AC$INSTRUMENT: TripleTOF 6600 SCIEX
AC$INSTRUMENT_TYPE: LC-ESI-QTOF
AC$MASS_SPECTROMETRY: MS_TYPE MS2
AC$MASS_SPECTROMETRY: ION_MODE POSITIVE
AC$MASS_SPECTROMETRY: COLLISION_ENERGY 30
AC$MASS_SPECTROMETRY: FRAGMENTATION_MODE CID
AC$MASS_SPECTROMETRY: IONIZATION ESI
AC$CHROMATOGRAPHY: COLUMN_NAME Zorbax Eclipse Plus C18 2.1 mm x 150 mm, 3.5 um, Agilent
AC$CHROMATOGRAPHY: COLUMN_TEMPERATURE 40 °C
AC$CHROMATOGRAPHY: FLOW_GRADIENT 0 min min 98% A, 1 min 98% A, 2 min 80% A, 16.5 min 2% A, 22 min 2% A, 22.1 min 98% A, 27 min 98% A
AC$CHROMATOGRAPHY: FLOW_RATE 0.3 mL/min
AC$CHROMATOGRAPHY: RETENTION_TIME 4.84 min
AC$CHROMATOGRAPHY: SOLVENT A: Water 0.1% Formic acid, B: Acetonitrile 0.1% Formic acid
MS$FOCUSED_ION: PRECURSOR_M/Z 138.0914
MS$FOCUSED_ION: PRECURSOR_TYPE [M+H]+
MS$DATA_PROCESSING: COMMENT Export with pycsl 0.1.0.dev1 and CSL 24.4
PK$SPLASH: splash10-0296-9400000000-e9cd4bc70439d4832c17
PK$NUM_PEAK: 16
PK$PEAK: m/z int. rel.int.
  39.0239 8.3 43
  65.0395 176.4 914
  67.0427 8.1 41
  77.0398 8.3 43
  80.0506 22.5 116
  81.0586 19.0 98
  82.0659 26.4 136
  91.0556 3.4 17
  92.0501 82.3 426
  93.0348 164.0 849
  93.0569 26.0 134
  108.0449 14.4 74
  109.0531 56.6 293
  110.0611 192.8 999
  121.0399 11.6 60
  138.0916 19.7 102
//