ACCESSION: MSBNK-BAFG-CSL23102515550
RECORD_TITLE: (1-Ethoxyvinyl)triphenylphosphonium; LC-ESI-QTOF; MS2; 120 V
DATE: 2023.10.25
AUTHORS: Kevin S. Jewell; Björn Ehlig; Arne Wick
LICENSE: dl-de/by-2-0
COPYRIGHT: Copyright 2023 Federal Institute of Hydrology, Koblenz, Germany
COMMENT: CONFIDENCE Reference Standard (Level 1)
COMMENT: Chromatography method: dx.doi.org/10.1016/j.chroma.2015.11.014
COMMENT: Acquisition method: 10.1002/rcm.8541
CH$NAME: (1-Ethoxyvinyl)triphenylphosphonium
CH$COMPOUND_CLASS: Industrial_process
CH$FORMULA: C22H22OP
CH$EXACT_MASS: 333.1403
CH$SMILES: CCOC(=C)[P+](C1=CC=CC=C1)(C2=CC=CC=C2)C3=CC=CC=C3
CH$IUPAC: InChI=1S/C22H22OP/c1-3-23-19(2)24(20-13-7-4-8-14-20,21-15-9-5-10-16-21)22-17-11-6-12-18-22/h4-18H,2-3H2,1H3/q+1
CH$LINK: CAS 55552-25-5
CH$LINK: INCHIKEY JIZMJWKMHIWDGU-UHFFFAOYSA-N
AC$INSTRUMENT: TripleTOF 6600 SCIEX
AC$INSTRUMENT_TYPE: LC-ESI-QTOF
AC$MASS_SPECTROMETRY: MS_TYPE MS2
AC$MASS_SPECTROMETRY: ION_MODE POSITIVE
AC$MASS_SPECTROMETRY: COLLISION_ENERGY 120
AC$MASS_SPECTROMETRY: FRAGMENTATION_MODE CID
AC$MASS_SPECTROMETRY: IONIZATION ESI
AC$CHROMATOGRAPHY: COLUMN_NAME Zorbax Eclipse Plus C18 2.1 mm x 150 mm, 3.5 um, Agilent
AC$CHROMATOGRAPHY: COLUMN_TEMPERATURE 40 °C
AC$CHROMATOGRAPHY: FLOW_GRADIENT 0 min min 98% A, 1 min 98% A, 2 min 80% A, 16.5 min 2% A, 22 min 2% A, 22.1 min 98% A, 27 min 98% A
AC$CHROMATOGRAPHY: FLOW_RATE 0.3 mL/min
AC$CHROMATOGRAPHY: RETENTION_TIME 9.296 min
AC$CHROMATOGRAPHY: SOLVENT A: Water 0.1% Formic acid, B: Acetonitrile 0.1% Formic acid
MS$FOCUSED_ION: PRECURSOR_M/Z 333.1403
MS$FOCUSED_ION: PRECURSOR_TYPE [M]+
MS$DATA_PROCESSING: COMMENT Export with Spectra 1.9.12 MsBackendMassbank 1.7.4
MS$DATA_PROCESSING: WHOLE RMassBank 2.3.1
PK$SPLASH: splash10-0zfr-1900000000-8711e3b45a9076b68446
PK$NUM_PEAK: 21
PK$PEAK: m/z int. rel.int.
  56.9886 6.2 71
  63.0227 8.6 99
  65.0379 6.4 73
  79.9798 6.7 77
  80.9872 11.6 133
  89.0368 15.8 182
  102.0446 8.2 94
  107.0031 59.3 684
  113.0374 6.1 70
  115.0529 34.4 396
  126.0452 16.9 194
  131.0027 7.2 83
  133.0193 8.4 96
  139.0534 26.2 302
  150.0462 11 126
  151.0538 35.6 410
  152.0617 86.6 999
  156.0121 6 69
  157.0196 44.5 513
  181.02 30 346
  183.0356 19.2 221
//
