ACCESSION: MSBNK-BAFG-CSL25010631489
RECORD_TITLE: Diethylamino hydroxybenzoyl hexyl benzoate; LC-ESI-QTOF; MS2; 130 V
DATE: 2025.01.06
AUTHORS: Ole Lessmann; Kevin S. Jewell; Björn Ehlig; Arne Wick
LICENSE: dl-de/by-2-0
COPYRIGHT: Copyright 2025 Federal Institute of Hydrology, Koblenz, Germany
COMMENT: CONFIDENCE Reference Standard (Level 1)
COMMENT: Chromatography method: dx.doi.org/10.1016/j.chroma.2015.11.014
COMMENT: Acquisition method: 10.1002/rcm.8541
CH$NAME: Diethylamino hydroxybenzoyl hexyl benzoate
CH$FORMULA: C24H31NO4
CH$EXACT_MASS: 397.2253
CH$SMILES: CCCCCCOC(=O)C1=CC=CC=C1C(=O)C2=C(C=C(C=C2)N(CC)CC)O
CH$IUPAC: InChI=1S/C24H31NO4/c1-4-7-8-11-16-29-24(28)20-13-10-9-12-19(20)23(27)21-15-14-18(17-22(21)26)25(5-2)6-3/h9-10,12-15,17,26H,4-8,11,16H2,1-3H3
CH$LINK: CAS 302776-68-7
CH$LINK: INCHIKEY FDATWRLUYRHCJE-UHFFFAOYSA-N
AC$INSTRUMENT: TripleTOF 6600 SCIEX
AC$INSTRUMENT_TYPE: LC-ESI-QTOF
AC$MASS_SPECTROMETRY: MS_TYPE MS2
AC$MASS_SPECTROMETRY: ION_MODE POSITIVE
AC$MASS_SPECTROMETRY: COLLISION_ENERGY 130
AC$MASS_SPECTROMETRY: FRAGMENTATION_MODE CID
AC$MASS_SPECTROMETRY: IONIZATION ESI
AC$CHROMATOGRAPHY: COLUMN_NAME Zorbax Eclipse Plus C18 2.1 mm x 150 mm, 3.5 um, Agilent
AC$CHROMATOGRAPHY: COLUMN_TEMPERATURE 40 °C
AC$CHROMATOGRAPHY: FLOW_GRADIENT 0 min min 98% A, 1 min 98% A, 2 min 80% A, 16.5 min 2% A, 22 min 2% A, 22.1 min 98% A, 27 min 98% A
AC$CHROMATOGRAPHY: FLOW_RATE 0.3 mL/min
AC$CHROMATOGRAPHY: RETENTION_TIME 17.769 min
AC$CHROMATOGRAPHY: SOLVENT A: Water 0.1% Formic acid, B: Acetonitrile 0.1% Formic acid
MS$FOCUSED_ION: PRECURSOR_M/Z 398.2326
MS$FOCUSED_ION: PRECURSOR_TYPE [M+H]+
MS$DATA_PROCESSING: COMMENT Export with pycsl 0.1.0.dev1 and CSL 24.4
PK$SPLASH: splash10-000i-3900000000-2ade1b68e78dd614e8a3
PK$NUM_PEAK: 59
PK$PEAK: m/z int. rel.int.
  37.0072 12.1 14
  38.0152 10.6 12
  39.0232 114.7 134
  41.0384 27.4 32
  43.0542 9.2 10
  51.0229 33.2 39
  53.0384 23.7 27
  62.0145 8.9 10
  63.0229 43.7 51
  65.0384 177.3 208
  68.0129 11.9 13
  74.0146 12.6 14
  75.0222 26.9 31
  76.0302 20.5 24
  77.0382 151.8 178
  78.0463 10.7 12
  80.0491 84.5 99
  86.0139 8.9 10
  87.0225 26.2 30
  88.0303 15.0 17
  89.0382 121.4 142
  91.0531 16.7 19
  99.0222 16.7 19
  101.0381 25.3 29
  102.0455 46.6 54
  105.0331 8.7 10
  113.038 102.1 120
  114.0452 23.5 27
  115.0535 197.0 231
  123.0214 10.1 11
  125.0373 22.3 26
  126.0452 89.3 104
  127.0534 128.8 151
  128.0608 121.4 142
  137.0379 47.1 55
  138.0454 95.2 111
  139.0539 849.8 999
  140.0534 65.3 76
  141.0698 23.4 27
  149.0367 13.0 15
  150.0455 85.9 100
  151.0528 87.3 102
  152.0606 119.7 140
  153.0581 23.4 27
  154.0637 41.4 48
  155.0543 17.3 20
  163.054 16.6 19
  164.0538 28.6 33
  165.0687 31.9 37
  166.0407 10.4 12
  166.0641 37.5 44
  167.0494 14.3 16
  167.0711 20.1 23
  168.0564 71.6 84
  176.0599 12.9 15
  177.0567 17.7 20
  184.0512 10.8 12
  194.0579 8.7 10
  195.0646 11.2 13
//