ACCESSION: MSBNK-BAFG-CSL25011734560
RECORD_TITLE: Azo Rubin S; LC-ESI-QTOF; MS2; 120 V
DATE: 2025.01.17
AUTHORS: Ole Lessmann; Kevin S. Jewell; Björn Ehlig; Arne Wick
LICENSE: dl-de/by-2-0
COPYRIGHT: Copyright 2025 Federal Institute of Hydrology, Koblenz, Germany
COMMENT: CONFIDENCE Reference Standard (Level 1)
COMMENT: Chromatography method: dx.doi.org/10.1016/j.chroma.2015.11.014
CH$NAME: Azo Rubin S
CH$FORMULA: C20H14N2O7S2
CH$EXACT_MASS: 458.0242
CH$SMILES: C1=CC=C2C(=C1)C(=CC=C2S(=O)(=O)O)N=NC3=C(C4=CC=CC=C4C(=C3)S(=O)(=O)O)O
CH$IUPAC: InChI=1S/C20H14N2O7S2/c23-20-15-8-4-3-7-14(15)19(31(27,28)29)11-17(20)22-21-16-9-10-18(30(24,25)26)13-6-2-1-5-12(13)16/h1-11,23H,(H,24,25,26)(H,27,28,29)
CH$LINK: CAS 13613-55-3
CH$LINK: INCHIKEY TVWOWDDBXAFQDG-UHFFFAOYSA-N
AC$INSTRUMENT: TripleTOF 6600 SCIEX
AC$INSTRUMENT_TYPE: LC-ESI-QTOF
AC$MASS_SPECTROMETRY: MS_TYPE MS2
AC$MASS_SPECTROMETRY: ION_MODE POSITIVE
AC$MASS_SPECTROMETRY: COLLISION_ENERGY 120
AC$MASS_SPECTROMETRY: FRAGMENTATION_MODE CID
AC$MASS_SPECTROMETRY: IONIZATION ESI
AC$CHROMATOGRAPHY: COLUMN_NAME Zorbax Eclipse Plus C18 2.1 mm x 150 mm, 3.5 um, Agilent
AC$CHROMATOGRAPHY: COLUMN_TEMPERATURE 40 °C
AC$CHROMATOGRAPHY: FLOW_GRADIENT 0 min min 98% A, 1 min 98% A, 2 min 80% A, 16.5 min 2% A, 22 min 2% A, 22.1 min 98% A, 27 min 98% A
AC$CHROMATOGRAPHY: FLOW_RATE 0.3 mL/min
AC$CHROMATOGRAPHY: RETENTION_TIME 7.286 min
AC$CHROMATOGRAPHY: SOLVENT A: Water 0.1% Formic acid, B: Acetonitrile 0.1% Formic acid
MS$FOCUSED_ION: PRECURSOR_M/Z 459.0315
MS$FOCUSED_ION: PRECURSOR_TYPE [M+H]+
MS$DATA_PROCESSING: COMMENT Export with pycsl 0.1.0.dev1 and CSL 25.0
PK$SPLASH: splash10-0ge9-5910000000-defef39a49f224789403
PK$NUM_PEAK: 50
PK$PEAK: m/z int. rel.int.
  51.0227 6.1 59
  52.0181 14.5 141
  63.0224 6.9 67
  64.9691 4.2 40
  65.0381 2.6 25
  74.0152 1.5 14
  75.0224 3.8 36
  76.0301 1.6 15
  77.0383 102.7 999
  80.0125 10.2 99
  88.0299 2.1 20
  89.038 41.1 399
  90.0344 1.5 14
  91.0526 1.7 16
  99.0222 1.0 9
  100.0189 2.9 28
  101.0374 3.3 32
  102.0455 11.9 115
  103.0536 89.5 870
  104.0491 8.8 85
  105.0434 2.3 22
  113.038 7.5 72
  114.0457 5.3 51
  115.0537 95.8 931
  116.0492 26.3 255
  126.0363 1.2 11
  126.0478 1.5 14
  127.0547 1.3 12
  128.0479 2.0 19
  129.0459 1.7 16
  130.0646 64.2 624
  140.0484 23.2 225
  142.0633 2.4 23
  143.071 1.5 14
  158.0593 2.4 23
  213.069 1.5 14
  224.0633 2.5 24
  225.0666 1.5 14
  226.0709 1.5 14
  238.0653 2.8 27
  239.0712 1.7 16
  240.0834 2.8 27
  249.0566 2.3 22
  250.0632 1.9 18
  251.0739 6.5 63
  265.0723 4.7 45
  266.0846 4.8 46
  277.0762 2.5 24
  278.0871 2.7 26
  279.0891 2.0 19
//
