ACCESSION: MSBNK-BAFG-CSL23102612872
RECORD_TITLE: Olmesartan-d6; LC-ESI-QTOF; MS2; 110 V
DATE: 2023.10.26
AUTHORS: Kevin S. Jewell; Björn Ehlig; Arne Wick
LICENSE: dl-de/by-2-0
COPYRIGHT: Copyright 2023 Federal Institute of Hydrology, Koblenz, Germany
COMMENT: CONFIDENCE Reference Standard (Level 1)
COMMENT: Chromatography method: dx.doi.org/10.1016/j.chroma.2015.11.014
COMMENT: Acquisition method: 10.1002/rcm.8541
CH$NAME: Olmesartan-d6
CH$COMPOUND_CLASS: Surrogate_standard
CH$FORMULA: C24H20N6O3 2H6
CH$EXACT_MASS: 452.2443
CH$SMILES: [2H]C([2H])([2H])C(C1=C(N(C(=N1)CCC)CC2=CC=C(C=C2)C3=CC=CC=C3C4=NNN=N4)C(=O)O)(C([2H])([2H])[2H])O
CH$IUPAC: InChI=1S/C24H26N6O3/c1-4-7-19-25-21(24(2,3)33)20(23(31)32)30(19)14-15-10-12-16(13-11-15)17-8-5-6-9-18(17)22-26-28-29-27-22/h5-6,8-13,33H,4,7,14H2,1-3H3,(H,31,32)(H,26,27,28,29)/i2D3,3D3
CH$LINK: CAS 1185144-74-4
CH$LINK: INCHIKEY VTRAEEWXHOVJFV-XERRXZQWSA-N
AC$INSTRUMENT: TripleTOF 5600 SCIEX
AC$INSTRUMENT_TYPE: LC-ESI-QTOF
AC$MASS_SPECTROMETRY: MS_TYPE MS2
AC$MASS_SPECTROMETRY: ION_MODE POSITIVE
AC$MASS_SPECTROMETRY: COLLISION_ENERGY 110
AC$MASS_SPECTROMETRY: FRAGMENTATION_MODE CID
AC$MASS_SPECTROMETRY: IONIZATION ESI
AC$CHROMATOGRAPHY: COLUMN_NAME Zorbax Eclipse Plus C18 2.1 mm x 150 mm, 3.5 um, Agilent
AC$CHROMATOGRAPHY: COLUMN_TEMPERATURE 40 °C
AC$CHROMATOGRAPHY: FLOW_GRADIENT 0 min min 98% A, 1 min 98% A, 2 min 80% A, 16.5 min 2% A, 22 min 2% A, 22.1 min 98% A, 27 min 98% A
AC$CHROMATOGRAPHY: FLOW_RATE 0.3 mL/min
AC$CHROMATOGRAPHY: RETENTION_TIME 7.306 min
AC$CHROMATOGRAPHY: SOLVENT A: Water 0.1% Formic acid, B: Acetonitrile 0.1% Formic acid
MS$FOCUSED_ION: PRECURSOR_M/Z 453.2527
MS$FOCUSED_ION: PRECURSOR_TYPE [M+H]+
MS$DATA_PROCESSING: COMMENT Export with Spectra 1.9.12 MsBackendMassbank 1.7.4
MS$DATA_PROCESSING: WHOLE RMassBank 2.3.1
PK$SPLASH: splash10-0w4l-0900000000-4d4d9358f9fe36bda249
PK$NUM_PEAK: 51
PK$PEAK: m/z int. rel.int.
  77.0414 4.4 51
  80.0534 1.1 12
  87.0247 1.2 13
  89.0413 2.3 26
  98.0179 1 11
  99.0254 1 11
  101.041 1.5 17
  102.0415 2.3 26
  113.04 5.2 60
  114.0451 3.3 38
  115.0552 7.2 83
  116.0535 1.3 15
  125.0393 2.6 30
  126.0484 2.9 33
  127.0552 12.4 144
  128.0619 8.6 100
  137.0405 3.2 37
  138.0476 7.2 83
  139.0556 9.7 112
  140.0506 17.7 205
  141.0578 3 34
  149.042 1 11
  150.0478 13.8 160
  151.0552 48.6 565
  152.0623 85.9 999
  153.0689 20.1 233
  154.0681 3.7 43
  161.0399 1.5 17
  162.0483 4.2 48
  163.0551 42.6 495
  164.0542 31.3 364
  165.0679 21.4 248
  166.0656 5 58
  167.0728 2.2 25
  168.0676 1.9 22
  175.0512 1.8 20
  176.062 28.8 334
  177.0657 31 360
  178.0722 44.6 518
  179.0736 15.2 176
  180.0806 8.1 94
  188.0501 10.6 123
  189.0568 11.8 137
  190.0653 78.6 914
  191.0701 15.9 184
  192.0682 9.8 113
  193.075 0.9 10
  203.0597 1.3 15
  204.0631 0.9 10
  205.0763 41.2 479
  206.0838 8.3 96
//
