ACCESSION: MSBNK-BAFG-CSL2310256989
RECORD_TITLE: 3-[(4-Chlorobenzoyl)Amino] propanoic acid; LC-ESI-QTOF; MS2; 120 V
DATE: 2023.10.25
AUTHORS: Kevin S. Jewell; Björn Ehlig; Arne Wick
LICENSE: dl-de/by-2-0
COPYRIGHT: Copyright 2023 Federal Institute of Hydrology, Koblenz, Germany
COMMENT: CONFIDENCE Reference Standard (Level 1)
COMMENT: Chromatography method: dx.doi.org/10.1016/j.chroma.2015.11.014
COMMENT: Acquisition method: 10.1002/rcm.8541
CH$NAME: 3-[(4-Chlorobenzoyl)Amino] propanoic acid
CH$FORMULA: C10H10ClNO3
CH$EXACT_MASS: 227.0349
CH$SMILES: C1=CC(=CC=C1C(=O)NCCC(=O)O)Cl
CH$IUPAC: InChI=1S/C10H10ClNO3/c11-8-3-1-7(2-4-8)10(15)12-6-5-9(13)14/h1-4H,5-6H2,(H,12,15)(H,13,14)
CH$LINK: CAS 440341-75-3
CH$LINK: INCHIKEY ZCGLNFAUVVHTQO-UHFFFAOYSA-N
AC$INSTRUMENT: TripleTOF 5600 SCIEX
AC$INSTRUMENT_TYPE: LC-ESI-QTOF
AC$MASS_SPECTROMETRY: MS_TYPE MS2
AC$MASS_SPECTROMETRY: ION_MODE POSITIVE
AC$MASS_SPECTROMETRY: COLLISION_ENERGY 120
AC$MASS_SPECTROMETRY: FRAGMENTATION_MODE CID
AC$MASS_SPECTROMETRY: IONIZATION ESI
AC$CHROMATOGRAPHY: COLUMN_NAME Zorbax Eclipse Plus C18 2.1 mm x 150 mm, 3.5 um, Agilent
AC$CHROMATOGRAPHY: COLUMN_TEMPERATURE 40 °C
AC$CHROMATOGRAPHY: FLOW_GRADIENT 0 min min 98% A, 1 min 98% A, 2 min 80% A, 16.5 min 2% A, 22 min 2% A, 22.1 min 98% A, 27 min 98% A
AC$CHROMATOGRAPHY: FLOW_RATE 0.3 mL/min
AC$CHROMATOGRAPHY: RETENTION_TIME 7.557 min
AC$CHROMATOGRAPHY: SOLVENT A: Water 0.1% Formic acid, B: Acetonitrile 0.1% Formic acid
MS$FOCUSED_ION: PRECURSOR_M/Z 228.0422
MS$FOCUSED_ION: PRECURSOR_TYPE [M+H]+
MS$DATA_PROCESSING: COMMENT Export with Spectra 1.9.12 MsBackendMassbank 1.7.4
MS$DATA_PROCESSING: WHOLE RMassBank 2.3.1
PK$SPLASH: splash10-00di-9000000000-2c37c81f3c66c39527a8
PK$NUM_PEAK: 6
PK$PEAK: m/z int. rel.int.
  73.0106 0.5 47
  73.02 0.6 57
  74.0179 10.5 999
  75.0235 3.3 313
  75.0411 0.5 47
  84.9854 0.7 66
//
