ACCESSION: MSBNK-BAFG-CSL25010634060
RECORD_TITLE: 4'-O-Demethyl pantoprazole sulfide; LC-ESI-QTOF; MS2; 50 V
DATE: 2025.01.06
AUTHORS: Ole Lessmann; Kevin S. Jewell; Björn Ehlig; Arne Wick
LICENSE: dl-de/by-2-0
COPYRIGHT: Copyright 2025 Federal Institute of Hydrology, Koblenz, Germany
COMMENT: CONFIDENCE Reference Standard (Level 1)
COMMENT: Chromatography method: dx.doi.org/10.1016/j.chroma.2015.11.014
COMMENT: Acquisition method: 10.1002/rcm.8541
CH$NAME: 4'-O-Demethyl pantoprazole sulfide
CH$COMPOUND_CLASS: Pharmaceutical; Transformation_product-Metabolite
CH$FORMULA: C15H13F2N3O3S
CH$EXACT_MASS: 353.0646
CH$SMILES: COC1=C(NC=CC1=O)CSC2=NC3=C(N2)C=C(C=C3)OC(F)F
CH$IUPAC: InChI=1S/C15H13F2N3O3S/c1-22-13-11(18-5-4-12(13)21)7-24-15-19-9-3-2-8(23-14(16)17)6-10(9)20-15/h2-6,14H,7H2,1H3,(H,18,21)(H,19,20)
CH$LINK: CAS 141854-21-9
CH$LINK: INCHIKEY ILLQTAPXYCRJRB-UHFFFAOYSA-N
AC$INSTRUMENT: TripleTOF 6600 SCIEX
AC$INSTRUMENT_TYPE: LC-ESI-QTOF
AC$MASS_SPECTROMETRY: MS_TYPE MS2
AC$MASS_SPECTROMETRY: ION_MODE NEGATIVE
AC$MASS_SPECTROMETRY: COLLISION_ENERGY 50
AC$MASS_SPECTROMETRY: FRAGMENTATION_MODE CID
AC$MASS_SPECTROMETRY: IONIZATION ESI
AC$CHROMATOGRAPHY: COLUMN_NAME Zorbax Eclipse Plus C18 2.1 mm x 150 mm, 3.5 um, Agilent
AC$CHROMATOGRAPHY: COLUMN_TEMPERATURE 40 °C
AC$CHROMATOGRAPHY: FLOW_GRADIENT 0 min min 98% A, 1 min 98% A, 2 min 80% A, 16.5 min 2% A, 22 min 2% A, 22.1 min 98% A, 27 min 98% A
AC$CHROMATOGRAPHY: FLOW_RATE 0.3 mL/min
AC$CHROMATOGRAPHY: RETENTION_TIME 7.57 min
AC$CHROMATOGRAPHY: SOLVENT A: Water 0.1% Formic acid, B: Acetonitrile 0.1% Formic acid
MS$FOCUSED_ION: PRECURSOR_M/Z 352.0573
MS$FOCUSED_ION: PRECURSOR_TYPE [M-H]-
MS$DATA_PROCESSING: COMMENT Export with pycsl 0.1.0.dev1 and CSL 24.4
PK$SPLASH: splash10-0002-0930000000-aa8b9d321045423d9092
PK$NUM_PEAK: 12
PK$PEAK: m/z int. rel.int.
  115.0289 15.6 12
  145.9938 59.3 47
  147.002 1253.9 999
  162.9987 207.4 165
  163.0265 84.5 67
  164.0042 168.9 134
  174.9965 181.2 144
  193.995 58.3 46
  195.0036 204.7 163
  214.0013 191.7 152
  215.0096 644.0 513
  303.0449 13.1 10
//