ACCESSION: MSBNK-BAFG-CSL25010634270
RECORD_TITLE: 4-(Dimethylamino)azobenzene; LC-ESI-QTOF; MS2; 120 V
DATE: 2025.01.06
AUTHORS: Ole Lessmann; Kevin S. Jewell; Björn Ehlig; Arne Wick
LICENSE: dl-de/by-2-0
COPYRIGHT: Copyright 2025 Federal Institute of Hydrology, Koblenz, Germany
COMMENT: CONFIDENCE Reference Standard (Level 1)
COMMENT: Chromatography method: dx.doi.org/10.1016/j.chroma.2015.11.014
COMMENT: Acquisition method: 10.1002/rcm.8541
CH$NAME: 4-(Dimethylamino)azobenzene
CH$FORMULA: C14H15N3
CH$EXACT_MASS: 225.1266
CH$SMILES: CN(C)C1=CC=C(C=C1)N=NC2=CC=CC=C2
CH$IUPAC: InChI=1S/C14H15N3/c1-17(2)14-10-8-13(9-11-14)16-15-12-6-4-3-5-7-12/h3-11H,1-2H3
CH$LINK: CAS 60-11-7
CH$LINK: INCHIKEY JCYPECIVGRXBMO-UHFFFAOYSA-N
AC$INSTRUMENT: TripleTOF 6600 SCIEX
AC$INSTRUMENT_TYPE: LC-ESI-QTOF
AC$MASS_SPECTROMETRY: MS_TYPE MS2
AC$MASS_SPECTROMETRY: ION_MODE POSITIVE
AC$MASS_SPECTROMETRY: COLLISION_ENERGY 120
AC$MASS_SPECTROMETRY: FRAGMENTATION_MODE CID
AC$MASS_SPECTROMETRY: IONIZATION ESI
AC$CHROMATOGRAPHY: COLUMN_NAME Zorbax Eclipse Plus C18 2.1 mm x 150 mm, 3.5 um, Agilent
AC$CHROMATOGRAPHY: COLUMN_TEMPERATURE 40 °C
AC$CHROMATOGRAPHY: FLOW_GRADIENT 0 min min 98% A, 1 min 98% A, 2 min 80% A, 16.5 min 2% A, 22 min 2% A, 22.1 min 98% A, 27 min 98% A
AC$CHROMATOGRAPHY: FLOW_RATE 0.3 mL/min
AC$CHROMATOGRAPHY: RETENTION_TIME 15.513 min
AC$CHROMATOGRAPHY: SOLVENT A: Water 0.1% Formic acid, B: Acetonitrile 0.1% Formic acid
MS$FOCUSED_ION: PRECURSOR_M/Z 226.1339
MS$FOCUSED_ION: PRECURSOR_TYPE [M+H]+
MS$DATA_PROCESSING: COMMENT Export with pycsl 0.1.0.dev1 and CSL 24.4
PK$SPLASH: splash10-0udi-9000000000-8934520cf568a3b4ab56
PK$NUM_PEAK: 27
PK$PEAK: m/z int. rel.int.
  35.9983 3.8 11
  37.0066 29.2 86
  38.0142 22.3 66
  39.0224 75.4 224
  41.0254 4.3 12
  42.0326 11.6 34
  49.0064 33.5 99
  50.0145 271.7 808
  51.0223 335.9 999
  52.0173 13.1 38
  61.006 8.5 25
  62.0137 16.2 48
  63.0217 50.1 149
  64.0172 13.0 38
  64.0295 6.3 18
  65.037 16.7 49
  66.0322 3.8 11
  67.0406 6.4 19
  74.0138 18.4 54
  75.0214 4.9 14
  76.0167 6.3 18
  77.0373 82.3 244
  78.0324 5.3 15
  80.0484 4.8 14
  90.0321 4.0 11
  91.0401 9.1 27
  104.0473 6.8 20
//