ACCESSION: MSBNK-BAFG-CSL2310267831
RECORD_TITLE: Abacavir; LC-ESI-QTOF; MS2; 130 V
DATE: 2023.10.26
AUTHORS: Kevin S. Jewell; Björn Ehlig; Arne Wick
LICENSE: dl-de/by-2-0
COPYRIGHT: Copyright 2023 Federal Institute of Hydrology, Koblenz, Germany
COMMENT: CONFIDENCE Reference Standard (Level 1)
COMMENT: Chromatography method: dx.doi.org/10.1016/j.chroma.2015.11.014
COMMENT: Acquisition method: 10.1002/rcm.8541
CH$NAME: Abacavir
CH$COMPOUND_CLASS: Pharmaceutical
CH$FORMULA: C14H18N6O
CH$EXACT_MASS: 286.1542
CH$SMILES: Nc1nc(NC2CC2)c3ncn([C@@H]4C[C@H](CO)C=C4)c3n1
CH$IUPAC: InChI=1S/C14H18N6O/c15-14-18-12(17-9-2-3-9)11-13(19-14)20(7-16-11)10-4-1-8(5-10)6-21/h1,4,7-10,21H,2-3,5-6H2,(H3,15,17,18,19)/t8-,10+/m1/s1
CH$LINK: CAS 136470-78-5
CH$LINK: INCHIKEY MCGSCOLBFJQGHM-SCZZXKLOSA-N
AC$INSTRUMENT: TripleTOF 5600 SCIEX
AC$INSTRUMENT_TYPE: LC-ESI-QTOF
AC$MASS_SPECTROMETRY: MS_TYPE MS2
AC$MASS_SPECTROMETRY: ION_MODE POSITIVE
AC$MASS_SPECTROMETRY: COLLISION_ENERGY 130
AC$MASS_SPECTROMETRY: FRAGMENTATION_MODE CID
AC$MASS_SPECTROMETRY: IONIZATION ESI
AC$CHROMATOGRAPHY: COLUMN_NAME Zorbax Eclipse Plus C18 2.1 mm x 150 mm, 3.5 um, Agilent
AC$CHROMATOGRAPHY: COLUMN_TEMPERATURE 40 °C
AC$CHROMATOGRAPHY: FLOW_GRADIENT 0 min min 98% A, 1 min 98% A, 2 min 80% A, 16.5 min 2% A, 22 min 2% A, 22.1 min 98% A, 27 min 98% A
AC$CHROMATOGRAPHY: FLOW_RATE 0.3 mL/min
AC$CHROMATOGRAPHY: RETENTION_TIME 5.094 min
AC$CHROMATOGRAPHY: SOLVENT A: Water 0.1% Formic acid, B: Acetonitrile 0.1% Formic acid
MS$FOCUSED_ION: PRECURSOR_M/Z 287.1615
MS$FOCUSED_ION: PRECURSOR_TYPE [M+H]+
MS$DATA_PROCESSING: COMMENT Export with Spectra 1.9.12 MsBackendMassbank 1.7.4
MS$DATA_PROCESSING: WHOLE RMassBank 2.3.1
PK$SPLASH: splash10-004i-9000000000-296ba5bc647b29babf3e
PK$NUM_PEAK: 27
PK$PEAK: m/z int. rel.int.
  38.0128 0.8 12
  40.0267 1.8 29
  52.0241 1.8 29
  53.0204 8 129
  53.0403 1.7 27
  54.0261 3.6 58
  55.0348 5.9 95
  65.0181 10.7 173
  65.0425 4.8 77
  66.0245 4.7 76
  66.0413 0.8 12
  67.0333 1.9 30
  67.0594 13 210
  68.0287 7.4 120
  68.0511 0.9 14
  77.0422 61.6 999
  77.0693 1 16
  78.0415 1.7 27
  79.0315 0.8 12
  79.0574 7.8 126
  80.0272 2 32
  81.0341 0.7 11
  92.0252 2.6 42
  94.0404 1.2 19
  105.046 0.6 9
  108.0429 1.3 21
  109.0516 0.7 11
//
