ACCESSION: MSBNK-BAFG-CSL23102617630
RECORD_TITLE: Caprolactam; LC-ESI-QTOF; MS2; 30 V
DATE: 2023.10.26
AUTHORS: Kevin S. Jewell; Björn Ehlig; Arne Wick
LICENSE: dl-de/by-2-0
COPYRIGHT: Copyright 2023 Federal Institute of Hydrology, Koblenz, Germany
COMMENT: CONFIDENCE Reference Standard (Level 1)
COMMENT: Chromatography method: dx.doi.org/10.1016/j.chroma.2015.11.014
COMMENT: Acquisition method: 10.1002/rcm.8541
CH$NAME: Caprolactam
CH$COMPOUND_CLASS: Food_additive; Industrial_process
CH$FORMULA: C6H11NO
CH$EXACT_MASS: 113.0841
CH$SMILES: C1CCC(=O)NCC1
CH$IUPAC: InChI=1S/C6H11NO/c8-6-4-2-1-3-5-7-6/h1-5H2,(H,7,8)
CH$LINK: CAS 105-60-2
CH$LINK: INCHIKEY JBKVHLHDHHXQEQ-UHFFFAOYSA-N
AC$INSTRUMENT: TripleTOF 6600 SCIEX
AC$INSTRUMENT_TYPE: LC-ESI-QTOF
AC$MASS_SPECTROMETRY: MS_TYPE MS2
AC$MASS_SPECTROMETRY: ION_MODE POSITIVE
AC$MASS_SPECTROMETRY: COLLISION_ENERGY 30
AC$MASS_SPECTROMETRY: FRAGMENTATION_MODE CID
AC$MASS_SPECTROMETRY: IONIZATION ESI
AC$CHROMATOGRAPHY: COLUMN_NAME Zorbax Eclipse Plus C18 2.1 mm x 150 mm, 3.5 um, Agilent
AC$CHROMATOGRAPHY: COLUMN_TEMPERATURE 40 °C
AC$CHROMATOGRAPHY: FLOW_GRADIENT 0 min min 98% A, 1 min 98% A, 2 min 80% A, 16.5 min 2% A, 22 min 2% A, 22.1 min 98% A, 27 min 98% A
AC$CHROMATOGRAPHY: FLOW_RATE 0.3 mL/min
AC$CHROMATOGRAPHY: RETENTION_TIME 5.197 min
AC$CHROMATOGRAPHY: SOLVENT A: Water 0.1% Formic acid, B: Acetonitrile 0.1% Formic acid
MS$FOCUSED_ION: PRECURSOR_M/Z 114.0914
MS$FOCUSED_ION: PRECURSOR_TYPE [M+H]+
MS$DATA_PROCESSING: COMMENT Export with Spectra 1.9.12 MsBackendMassbank 1.7.4
MS$DATA_PROCESSING: WHOLE RMassBank 2.3.1
PK$SPLASH: splash10-0006-9000000000-26cc7708bf0f7afd1b4f
PK$NUM_PEAK: 25
PK$PEAK: m/z int. rel.int.
  30.0345 2.7 27
  37.0075 1.6 16
  38.0161 1.5 15
  39.0237 15.3 156
  41.0395 38.8 397
  42.0346 2.4 24
  43.0183 1.8 18
  43.055 15.8 162
  44.0142 97.4 999
  51.0242 1.1 11
  53.0389 2.6 26
  54.0338 1.7 17
  55.0186 9.7 99
  55.0551 31.1 318
  67.0549 7 71
  68.0505 4.1 42
  69.0708 26.5 271
  72.0811 2.8 28
  77.0392 13.1 134
  79.0549 24.6 252
  80.0498 1.2 12
  86.0977 1.7 17
  96.082 13.4 137
  97.0652 3.8 38
  114.0922 25.2 258
//
