ACCESSION: MSBNK-BAFG-CSL25010617247
RECORD_TITLE: Metazachlor ESA; LC-ESI-QTOF; MS2; 50 V
DATE: 2025.01.06
AUTHORS: Ole Lessmann; Kevin S. Jewell; Björn Ehlig; Arne Wick
LICENSE: dl-de/by-2-0
COPYRIGHT: Copyright 2025 Federal Institute of Hydrology, Koblenz, Germany
COMMENT: CONFIDENCE Reference Standard (Level 1)
COMMENT: Chromatography method: dx.doi.org/10.1016/j.chroma.2015.11.014
COMMENT: Acquisition method: 10.1002/rcm.8541
CH$NAME: Metazachlor ESA
CH$COMPOUND_CLASS: Transformation_product; Herbicide; Metabolite; Transformation_product-Metabolite
CH$FORMULA: C14H17N3O4S
CH$EXACT_MASS: 323.094
CH$SMILES: Cc1cccc(c1N(Cn2cccn2)C(=O)CS(=O)(=O)O)C
CH$IUPAC: InChI=1S/C14H17N3O4S/c1-11-5-3-6-12(2)14(11)17(10-16-8-4-7-15-16)13(18)9-22(19,20)21/h3-8H,9-10H2,1-2H3,(H,19,20,21)
CH$LINK: CAS 172960-62-2
CH$LINK: INCHIKEY IPVCSECPEVHQOV-UHFFFAOYSA-N
AC$INSTRUMENT: TripleTOF 6600 SCIEX
AC$INSTRUMENT_TYPE: LC-ESI-QTOF
AC$MASS_SPECTROMETRY: MS_TYPE MS2
AC$MASS_SPECTROMETRY: ION_MODE NEGATIVE
AC$MASS_SPECTROMETRY: COLLISION_ENERGY 50
AC$MASS_SPECTROMETRY: FRAGMENTATION_MODE CID
AC$MASS_SPECTROMETRY: IONIZATION ESI
AC$CHROMATOGRAPHY: COLUMN_NAME Zorbax Eclipse Plus C18 2.1 mm x 150 mm, 3.5 um, Agilent
AC$CHROMATOGRAPHY: COLUMN_TEMPERATURE 40 °C
AC$CHROMATOGRAPHY: FLOW_GRADIENT 0 min min 98% A, 1 min 98% A, 2 min 80% A, 16.5 min 2% A, 22 min 2% A, 22.1 min 98% A, 27 min 98% A
AC$CHROMATOGRAPHY: FLOW_RATE 0.3 mL/min
AC$CHROMATOGRAPHY: RETENTION_TIME 6.639 min
AC$CHROMATOGRAPHY: SOLVENT A: Water 0.1% Formic acid, B: Acetonitrile 0.1% Formic acid
MS$FOCUSED_ION: PRECURSOR_M/Z 322.0867
MS$FOCUSED_ION: PRECURSOR_TYPE [M-H]-
MS$DATA_PROCESSING: COMMENT Export with pycsl 0.1.0.dev1 and CSL 24.4
PK$SPLASH: splash10-004i-9600000000-07cf12852240e5b562af
PK$NUM_PEAK: 10
PK$PEAK: m/z int. rel.int.
  67.0302 15.6 521
  76.9701 24.0 801
  79.9571 29.9 999
  93.9728 2.4 80
  94.9802 1.5 50
  120.0819 11.3 377
  120.9602 14.0 467
  130.0665 17.4 581
  132.0821 0.7 23
  148.0773 9.3 310
//