ACCESSION: MSBNK-BAFG-CSL2311109869
RECORD_TITLE: Pindolol; LC-ESI-QTOF; MS2; 30 V
DATE: 2023.11.10
AUTHORS: Kevin S. Jewell; Björn Ehlig; Arne Wick
LICENSE: dl-de/by-2-0
COPYRIGHT: Copyright 2023 Federal Institute of Hydrology, Koblenz, Germany
COMMENT: CONFIDENCE Reference Standard (Level 1)
COMMENT: Chromatography method: dx.doi.org/10.1016/j.chroma.2015.11.014
COMMENT: Acquisition method: 10.1002/rcm.8541
CH$NAME: Pindolol
CH$COMPOUND_CLASS: Pharmaceutical
CH$FORMULA: C14H20N2O2
CH$EXACT_MASS: 248.1525
CH$SMILES: CC(C)NCC(COC1=CC=CC2=C1C=CN2)O
CH$IUPAC: InChI=1S/C14H20N2O2/c1-10(2)16-8-11(17)9-18-14-5-3-4-13-12(14)6-7-15-13/h3-7,10-11,15-17H,8-9H2,1-2H3
CH$LINK: CAS 13523-86-9
CH$LINK: INCHIKEY JZQKKSLKJUAGIC-UHFFFAOYSA-N
AC$INSTRUMENT: TripleTOF 5600 SCIEX
AC$INSTRUMENT_TYPE: LC-ESI-QTOF
AC$MASS_SPECTROMETRY: MS_TYPE MS2
AC$MASS_SPECTROMETRY: ION_MODE POSITIVE
AC$MASS_SPECTROMETRY: COLLISION_ENERGY 30
AC$MASS_SPECTROMETRY: FRAGMENTATION_MODE CID
AC$MASS_SPECTROMETRY: IONIZATION ESI
AC$CHROMATOGRAPHY: COLUMN_NAME Zorbax Eclipse Plus C18 2.1 mm x 150 mm, 3.5 um, Agilent
AC$CHROMATOGRAPHY: COLUMN_TEMPERATURE 40 °C
AC$CHROMATOGRAPHY: FLOW_GRADIENT 0 min min 98% A, 1 min 98% A, 2 min 80% A, 16.5 min 2% A, 22 min 2% A, 22.1 min 98% A, 27 min 98% A
AC$CHROMATOGRAPHY: FLOW_RATE 0.3 mL/min
AC$CHROMATOGRAPHY: RETENTION_TIME 5.148 min
AC$CHROMATOGRAPHY: SOLVENT A: Water 0.1% Formic acid, B: Acetonitrile 0.1% Formic acid
MS$FOCUSED_ION: PRECURSOR_M/Z 249.1598
MS$FOCUSED_ION: PRECURSOR_TYPE [M+H]+
MS$DATA_PROCESSING: COMMENT Export with Spectra 1.9.12 MsBackendMassbank 1.7.4
MS$DATA_PROCESSING: WHOLE RMassBank 2.3.1
PK$SPLASH: splash10-01ba-2900000000-5b0139096dc39aa2c465
PK$NUM_PEAK: 26
PK$PEAK: m/z int. rel.int.
  56.0588 35.7 134
  58.0743 17.8 66
  72.0876 52.8 198
  74.0665 69.8 262
  86.1018 3.7 13
  98.1007 37.8 142
  100.1158 7.3 27
  106.0673 2.8 10
  116.0525 5.2 19
  116.11 265.8 999
  117.071 10.5 39
  118.0675 20.8 78
  127.0564 2.9 10
  130.0667 8.5 31
  132.0469 6.5 24
  132.0835 2.8 10
  134.0618 61.4 230
  143.0759 3.5 13
  144.0822 80 300
  145.0666 2.9 10
  146.0618 76 285
  154.0668 2.9 10
  160.0785 8.4 31
  172.0768 119 447
  207.1126 3 11
  249.1596 54.4 204
//
