ACCESSION: MSBNK-BAFG-CSL2310259299
RECORD_TITLE: 2-p-Tolyl-1H-benzoimidazole; LC-ESI-QTOF; MS2; 80 V
DATE: 2023.10.25
AUTHORS: Kevin S. Jewell; Björn Ehlig; Arne Wick
LICENSE: dl-de/by-2-0
COPYRIGHT: Copyright 2023 Federal Institute of Hydrology, Koblenz, Germany
COMMENT: CONFIDENCE Reference Standard (Level 1)
COMMENT: Chromatography method: dx.doi.org/10.1016/j.chroma.2015.11.014
COMMENT: Acquisition method: 10.1002/rcm.8541
CH$NAME: 2-p-Tolyl-1H-benzoimidazole
CH$COMPOUND_CLASS: Pharmaceutical
CH$FORMULA: C14H12N2
CH$EXACT_MASS: 208.1
CH$SMILES: CC1=CC=C(C=C1)C2=NC3=CC=CC=C3N2
CH$IUPAC: InChI=1S/C14H12N2/c1-10-6-8-11(9-7-10)14-15-12-4-2-3-5-13(12)16-14/h2-9H,1H3,(H,15,16)
CH$LINK: CAS 120-03-6
CH$LINK: INCHIKEY YJSWQFYMPODDTQ-UHFFFAOYSA-N
AC$INSTRUMENT: TripleTOF 5600 SCIEX
AC$INSTRUMENT_TYPE: LC-ESI-QTOF
AC$MASS_SPECTROMETRY: MS_TYPE MS2
AC$MASS_SPECTROMETRY: ION_MODE POSITIVE
AC$MASS_SPECTROMETRY: COLLISION_ENERGY 80
AC$MASS_SPECTROMETRY: FRAGMENTATION_MODE CID
AC$MASS_SPECTROMETRY: IONIZATION ESI
AC$CHROMATOGRAPHY: COLUMN_NAME Zorbax Eclipse Plus C18 2.1 mm x 150 mm, 3.5 um, Agilent
AC$CHROMATOGRAPHY: COLUMN_TEMPERATURE 40 °C
AC$CHROMATOGRAPHY: FLOW_GRADIENT 0 min min 98% A, 1 min 98% A, 2 min 80% A, 16.5 min 2% A, 22 min 2% A, 22.1 min 98% A, 27 min 98% A
AC$CHROMATOGRAPHY: FLOW_RATE 0.3 mL/min
AC$CHROMATOGRAPHY: RETENTION_TIME 6.061 min
AC$CHROMATOGRAPHY: SOLVENT A: Water 0.1% Formic acid, B: Acetonitrile 0.1% Formic acid
MS$FOCUSED_ION: PRECURSOR_M/Z 209.1073
MS$FOCUSED_ION: PRECURSOR_TYPE [M+H]+
MS$DATA_PROCESSING: COMMENT Export with Spectra 1.9.12 MsBackendMassbank 1.7.4
MS$DATA_PROCESSING: WHOLE RMassBank 2.3.1
PK$SPLASH: splash10-052o-5920000000-8736b4ada31f6686a49a
PK$NUM_PEAK: 30
PK$PEAK: m/z int. rel.int.
  52.0285 2 152
  75.0273 1.3 99
  77.0434 8.8 671
  89.0415 11.3 861
  90.0472 2.5 190
  91.0558 9 686
  92.052 5.9 449
  102.0392 2.3 175
  104.0511 1.3 99
  113.039 1.8 137
  114.0449 1.5 114
  115.0541 2.8 213
  116.05 1.3 99
  118.0549 1.3 99
  138.0464 2.3 175
  139.0542 10.9 831
  140.0503 7.2 549
  151.0543 3.2 244
  152.0605 3.8 289
  164.0475 5.6 427
  165.0579 3 228
  166.0653 5.1 388
  167.0748 2.3 175
  178.0655 2 152
  179.0719 2.1 160
  191.0631 2.4 183
  192.0661 7.7 587
  193.0779 2.2 167
  205.0758 13.1 999
  206.0831 5.2 396
//
