ACCESSION: MSBNK-BAFG-CSL2311093197
RECORD_TITLE: Dimethomorph; LC-ESI-QTOF; MS2; 40 V
DATE: 2023.11.09
AUTHORS: Kevin S. Jewell; Björn Ehlig; Arne Wick
LICENSE: dl-de/by-2-0
COPYRIGHT: Copyright 2023 Federal Institute of Hydrology, Koblenz, Germany
COMMENT: CONFIDENCE Reference Standard (Level 1)
COMMENT: Chromatography method: dx.doi.org/10.1016/j.chroma.2015.11.014
COMMENT: Acquisition method: 10.1002/rcm.8541
CH$NAME: Dimethomorph
CH$COMPOUND_CLASS: Fungicide
CH$FORMULA: C21H22ClNO4
CH$EXACT_MASS: 387.1237
CH$SMILES: COc1ccc(cc1OC)/C(=C\C(=O)N2CCOCC2)/c3ccc(cc3)Cl
CH$IUPAC: InChI=1S/C21H22ClNO4/c1-25-19-8-5-16(13-20(19)26-2)18(15-3-6-17(22)7-4-15)14-21(24)23-9-11-27-12-10-23/h3-8,13-14H,9-12H2,1-2H3/b18-14-
CH$LINK: CAS 110488-70-5
CH$LINK: INCHIKEY QNBTYORWCCMPQP-JXAWBTAJSA-N
AC$INSTRUMENT: TripleTOF 5600 SCIEX
AC$INSTRUMENT_TYPE: LC-ESI-QTOF
AC$MASS_SPECTROMETRY: MS_TYPE MS2
AC$MASS_SPECTROMETRY: ION_MODE POSITIVE
AC$MASS_SPECTROMETRY: COLLISION_ENERGY 40
AC$MASS_SPECTROMETRY: FRAGMENTATION_MODE CID
AC$MASS_SPECTROMETRY: IONIZATION ESI
AC$CHROMATOGRAPHY: COLUMN_NAME Zorbax Eclipse Plus C18 2.1 mm x 150 mm, 3.5 um, Agilent
AC$CHROMATOGRAPHY: COLUMN_TEMPERATURE 40 °C
AC$CHROMATOGRAPHY: FLOW_GRADIENT 0 min min 98% A, 1 min 98% A, 2 min 80% A, 16.5 min 2% A, 22 min 2% A, 22.1 min 98% A, 27 min 98% A
AC$CHROMATOGRAPHY: FLOW_RATE 0.3 mL/min
AC$CHROMATOGRAPHY: RETENTION_TIME 11.552 min
AC$CHROMATOGRAPHY: SOLVENT A: Water 0.1% Formic acid, B: Acetonitrile 0.1% Formic acid
MS$FOCUSED_ION: PRECURSOR_M/Z 388.131
MS$FOCUSED_ION: PRECURSOR_TYPE [M+H]+
MS$DATA_PROCESSING: COMMENT Export with Spectra 1.9.12 MsBackendMassbank 1.7.4
MS$DATA_PROCESSING: WHOLE RMassBank 2.3.1
PK$SPLASH: splash10-0uxr-0849000000-b34d2f97e74f7cfc2d3a
PK$NUM_PEAK: 17
PK$PEAK: m/z int. rel.int.
  70.032 15.3 26
  114.0544 17.8 30
  125.0149 11.2 19
  137.0593 9.9 16
  138.9942 78 132
  165.0548 428.4 730
  223.0738 8.7 14
  238.0985 20 34
  242.049 34.5 58
  243.0196 12.5 21
  257.0355 9.3 15
  258.0436 58.9 100
  266.0915 9.5 16
  270.0427 13.2 22
  273.067 117.6 200
  286.0377 17.2 29
  301.0619 586 999
//
