ACCESSION: MSBNK-BAFG-CSL25011734588
RECORD_TITLE: Food Yellow 3 free acid; LC-ESI-QTOF; MS2; 80 V
DATE: 2025.01.17
AUTHORS: Ole Lessmann; Kevin S. Jewell; Björn Ehlig; Arne Wick
LICENSE: dl-de/by-2-0
COPYRIGHT: Copyright 2025 Federal Institute of Hydrology, Koblenz, Germany
COMMENT: CONFIDENCE Reference Standard (Level 1)
COMMENT: Chromatography method: dx.doi.org/10.1016/j.chroma.2015.11.014
CH$NAME: Food Yellow 3 free acid
CH$FORMULA: C16H12N2O7S2
CH$EXACT_MASS: 408.0086
CH$SMILES: C1=CC(=CC=C1N=NC2=C(C=CC3=C2C=CC(=C3)S(=O)(=O)O)O)S(=O)(=O)O
CH$IUPAC: InChI=1S/C16H12N2O7S2/c19-15-8-1-10-9-13(27(23,24)25)6-7-14(10)16(15)18-17-11-2-4-12(5-3-11)26(20,21)22/h1-9,19H,(H,20,21,22)(H,23,24,25)
CH$LINK: CAS 5859-11-0
CH$LINK: INCHIKEY KEYWXKLGZZGHMT-UHFFFAOYSA-N
AC$INSTRUMENT: TripleTOF 6600 SCIEX
AC$INSTRUMENT_TYPE: LC-ESI-QTOF
AC$MASS_SPECTROMETRY: MS_TYPE MS2
AC$MASS_SPECTROMETRY: ION_MODE POSITIVE
AC$MASS_SPECTROMETRY: COLLISION_ENERGY 80
AC$MASS_SPECTROMETRY: FRAGMENTATION_MODE CID
AC$MASS_SPECTROMETRY: IONIZATION ESI
AC$CHROMATOGRAPHY: COLUMN_NAME Zorbax Eclipse Plus C18 2.1 mm x 150 mm, 3.5 um, Agilent
AC$CHROMATOGRAPHY: COLUMN_TEMPERATURE 40 °C
AC$CHROMATOGRAPHY: FLOW_GRADIENT 0 min min 98% A, 1 min 98% A, 2 min 80% A, 16.5 min 2% A, 22 min 2% A, 22.1 min 98% A, 27 min 98% A
AC$CHROMATOGRAPHY: FLOW_RATE 0.3 mL/min
AC$CHROMATOGRAPHY: RETENTION_TIME 5.59 min
AC$CHROMATOGRAPHY: SOLVENT A: Water 0.1% Formic acid, B: Acetonitrile 0.1% Formic acid
MS$FOCUSED_ION: PRECURSOR_M/Z 409.0159
MS$FOCUSED_ION: PRECURSOR_TYPE [M+H]+
MS$DATA_PROCESSING: COMMENT Export with pycsl 0.1.0.dev1 and CSL 25.0
PK$SPLASH: splash10-057i-8920000000-d97c772a584e6cc95244
PK$NUM_PEAK: 54
PK$PEAK: m/z int. rel.int.
  39.0231 3.0 14
  51.0233 2.5 12
  53.0383 12.2 59
  62.0153 2.2 10
  63.0223 16.7 81
  64.9689 4.8 23
  65.0385 22.9 111
  74.0147 16.5 80
  75.0223 10.8 52
  76.0297 10.5 51
  77.038 12.2 59
  80.0494 205.3 999
  81.0334 11.5 55
  88.0299 2.6 12
  89.0383 125.7 611
  90.0337 4.2 20
  92.0492 38.3 186
  98.0147 2.1 10
  99.0219 18.5 90
  100.0295 56.3 273
  101.0372 15.9 77
  102.0376 2.3 11
  108.0441 158.3 770
  109.0518 13.5 65
  114.0334 4.0 19
  115.04 8.2 39
  115.0527 2.2 10
  116.0485 22.5 109
  117.0318 2.1 10
  126.0334 39.6 192
  127.0415 196.9 958
  128.0495 11.5 55
  129.0547 8.1 39
  144.044 5.1 24
  154.0387 8.6 41
  156.011 4.4 21
  173.0139 7.9 38
  190.0655 5.3 25
  191.0687 2.7 13
  201.0572 4.2 20
  202.0654 3.4 16
  203.0699 3.6 17
  208.0085 6.7 32
  216.0656 4.6 22
  217.0758 12.6 61
  218.0812 15.7 76
  219.0925 2.1 10
  228.0666 3.5 17
  229.0759 48.2 234
  230.0831 14.5 70
  245.0699 3.1 15
  246.0794 4.8 23
  247.087 2.1 10
  310.0381 2.4 11
//
