ACCESSION: MSBNK-BAFG-CSL25011734713
RECORD_TITLE: Food Yellow 3 free acid; LC-ESI-QTOF; MS2; 30 V
DATE: 2025.01.17
AUTHORS: Ole Lessmann; Kevin S. Jewell; Björn Ehlig; Arne Wick
LICENSE: dl-de/by-2-0
COPYRIGHT: Copyright 2025 Federal Institute of Hydrology, Koblenz, Germany
COMMENT: CONFIDENCE Reference Standard (Level 1)
COMMENT: Chromatography method: dx.doi.org/10.1016/j.chroma.2015.11.014
CH$NAME: Food Yellow 3 free acid
CH$FORMULA: C16H12N2O7S2
CH$EXACT_MASS: 408.0086
CH$SMILES: C1=CC(=CC=C1N=NC2=C(C=CC3=C2C=CC(=C3)S(=O)(=O)O)O)S(=O)(=O)O
CH$IUPAC: InChI=1S/C16H12N2O7S2/c19-15-8-1-10-9-13(27(23,24)25)6-7-14(10)16(15)18-17-11-2-4-12(5-3-11)26(20,21)22/h1-9,19H,(H,20,21,22)(H,23,24,25)
CH$LINK: CAS 5859-11-0
CH$LINK: INCHIKEY KEYWXKLGZZGHMT-UHFFFAOYSA-N
AC$INSTRUMENT: TripleTOF 6600 SCIEX
AC$INSTRUMENT_TYPE: LC-ESI-QTOF
AC$MASS_SPECTROMETRY: MS_TYPE MS2
AC$MASS_SPECTROMETRY: ION_MODE NEGATIVE
AC$MASS_SPECTROMETRY: COLLISION_ENERGY 30
AC$MASS_SPECTROMETRY: FRAGMENTATION_MODE CID
AC$MASS_SPECTROMETRY: IONIZATION ESI
AC$CHROMATOGRAPHY: COLUMN_NAME Zorbax Eclipse Plus C18 2.1 mm x 150 mm, 3.5 um, Agilent
AC$CHROMATOGRAPHY: COLUMN_TEMPERATURE 40 °C
AC$CHROMATOGRAPHY: FLOW_GRADIENT 0 min min 98% A, 1 min 98% A, 2 min 80% A, 16.5 min 2% A, 22 min 2% A, 22.1 min 98% A, 27 min 98% A
AC$CHROMATOGRAPHY: FLOW_RATE 0.3 mL/min
AC$CHROMATOGRAPHY: RETENTION_TIME 5.59 min
AC$CHROMATOGRAPHY: SOLVENT A: Water 0.1% Formic acid, B: Acetonitrile 0.1% Formic acid
MS$FOCUSED_ION: PRECURSOR_M/Z 202.9969
MS$FOCUSED_ION: PRECURSOR_TYPE [M-2H]2-
MS$DATA_PROCESSING: COMMENT Export with pycsl 0.1.0.dev1 and CSL 25.0
PK$SPLASH: splash10-0a4i-0940000000-8db717b5101d83bd8d00
PK$NUM_PEAK: 69
PK$PEAK: m/z int. rel.int.
  63.9619 36.21 6
  79.7102 3.8382 0
  79.9571 908.4846 160
  80.9647 39.6003 6
  88.0177 1.2729 0
  89.0267 24.535 4
  90.0341 61.942 10
  92.0257 3.3921 0
  93.0335 14.8139 2
  101.039 2.5264 0
  106.704 11.4032 2
  107.0371 2242.554 395
  108.0393 4.7428 0
  113.0385 9.3219 1
  113.6789 3.5778 0
  114.0344 624.9147 110
  114.6823 1.5694 0
  115.042 402.1384 70
  116.047 1.7065 0
  117.0209 120.2349 21
  129.0335 13.4438 2
  130.0415 69.6037 12
  131.0376 4.2165 0
  132.9978 1.032 0
  141.5836 4.4506 0
  142.0294 1190.7072 209
  143.0368 173.6396 30
  143.9877 63.0442 11
  144.0444 9.7422 1
  145.0282 4.2685 0
  155.4971 3.5613 0
  155.9881 850.0727 149
  156.9952 17.7013 3
  157.5414 2.9151 0
  158.0364 583.0888 102
  159.0312 51.2521 9
  162.0017 2.1932 0
  169.9902 10.8953 1
  170.0255 1.5961 0
  170.4612 17.1528 3
  170.4827 1.2372 0
  170.999 4731.2764 833
  171.6512 1.0308 0
  172.0011 10.5168 1
  172.0392 96.734 17
  179.9875 38.0006 6
  180.4137 13.3286 2
  180.9835 3179.8464 560
  181.9867 8.4402 1
  187.9827 1.2452 0
  192.9955 24.52 4
  194.0036 73.1311 12
  204.9937 1.1255 0
  205.3423 23.4527 4
  205.9911 5671.6392 999
  206.6973 1.552 0
  206.7814 1.4948 0
  206.8033 1.5948 0
  206.999 2225.9929 392
  208.0004 7.6396 1
  208.8461 2.2711 0
  220.9917 3.3514 0
  221.9975 21.5575 3
  232.0501 1.6647 0
  233.0619 2.023 0
  234.9932 10.7906 1
  236.0016 44.8551 7
  296.0161 2.3717 0
  297.025 2.6588 0
//
