ACCESSION: MSBNK-BAFG-CSL23103016486
RECORD_TITLE: 3-Amino-5-methylisoxazole; LC-ESI-QTOF; MS2; 60 V
DATE: 2023.10.30
AUTHORS: Kevin S. Jewell; Björn Ehlig; Arne Wick
LICENSE: dl-de/by-2-0
COPYRIGHT: Copyright 2023 Federal Institute of Hydrology, Koblenz, Germany
COMMENT: CONFIDENCE Reference Standard (Level 1)
COMMENT: Chromatography method: dx.doi.org/10.1016/j.chroma.2015.11.014
COMMENT: Acquisition method: 10.1002/rcm.8541
CH$NAME: 3-Amino-5-methylisoxazole
CH$FORMULA: C4H6N2O
CH$EXACT_MASS: 98.048
CH$SMILES: CC1=CC(=NO1)N
CH$IUPAC: InChI=1S/C4H6N2O/c1-3-2-4(5)6-7-3/h2H,1H3,(H2,5,6)
CH$LINK: CAS 1072-67-9
CH$LINK: INCHIKEY FKPXGNGUVSHWQQ-UHFFFAOYSA-N
AC$INSTRUMENT: TripleTOF 6600 SCIEX
AC$INSTRUMENT_TYPE: LC-ESI-QTOF
AC$MASS_SPECTROMETRY: MS_TYPE MS2
AC$MASS_SPECTROMETRY: ION_MODE POSITIVE
AC$MASS_SPECTROMETRY: COLLISION_ENERGY 60
AC$MASS_SPECTROMETRY: FRAGMENTATION_MODE CID
AC$MASS_SPECTROMETRY: IONIZATION ESI
AC$CHROMATOGRAPHY: COLUMN_NAME Zorbax Eclipse Plus C18 2.1 mm x 150 mm, 3.5 um, Agilent
AC$CHROMATOGRAPHY: COLUMN_TEMPERATURE 40 °C
AC$CHROMATOGRAPHY: FLOW_GRADIENT 0 min min 98% A, 1 min 98% A, 2 min 80% A, 16.5 min 2% A, 22 min 2% A, 22.1 min 98% A, 27 min 98% A
AC$CHROMATOGRAPHY: FLOW_RATE 0.3 mL/min
AC$CHROMATOGRAPHY: RETENTION_TIME 4.412 min
AC$CHROMATOGRAPHY: SOLVENT A: Water 0.1% Formic acid, B: Acetonitrile 0.1% Formic acid
MS$FOCUSED_ION: PRECURSOR_M/Z 99.0553
MS$FOCUSED_ION: PRECURSOR_TYPE [M+H]+
MS$DATA_PROCESSING: COMMENT Export with Spectra 1.9.12 MsBackendMassbank 1.7.4
MS$DATA_PROCESSING: WHOLE RMassBank 2.3.1
PK$SPLASH: splash10-0006-9000000000-1f0ccc4182de92da431e
PK$NUM_PEAK: 12
PK$PEAK: m/z int. rel.int.
  30.033 1 34
  31.0166 0.4 13
  38.0018 1 34
  39.022 0.5 17
  40.0174 1.8 62
  42.0199 2 69
  42.033 1.9 65
  43.0183 9.2 318
  43.0277 28.9 999
  44.0121 2.9 100
  44.0483 1.7 58
  68.0123 0.7 24
//
