ACCESSION: MSBNK-BAFG-CSL23102516705
RECORD_TITLE: Chloridazon; LC-ESI-QTOF; MS2; 130 V
DATE: 2023.10.25
AUTHORS: Kevin S. Jewell; Björn Ehlig; Arne Wick
LICENSE: dl-de/by-2-0
COPYRIGHT: Copyright 2023 Federal Institute of Hydrology, Koblenz, Germany
COMMENT: CONFIDENCE Reference Standard (Level 1)
COMMENT: Chromatography method: dx.doi.org/10.1016/j.chroma.2015.11.014
COMMENT: Acquisition method: 10.1002/rcm.8541
CH$NAME: Chloridazon
CH$COMPOUND_CLASS: Herbicide
CH$FORMULA: C10H8ClN3O
CH$EXACT_MASS: 221.0356
CH$SMILES: C1=CC=C(C=C1)N2C(=O)C(=C(C=N2)N)Cl
CH$IUPAC: InChI=1S/C10H8ClN3O/c11-9-8(12)6-13-14(10(9)15)7-4-2-1-3-5-7/h1-6H,12H2
CH$LINK: CAS 1698-60-8
CH$LINK: INCHIKEY WYKYKTKDBLFHCY-UHFFFAOYSA-N
AC$INSTRUMENT: TripleTOF 6600 SCIEX
AC$INSTRUMENT_TYPE: LC-ESI-QTOF
AC$MASS_SPECTROMETRY: MS_TYPE MS2
AC$MASS_SPECTROMETRY: ION_MODE POSITIVE
AC$MASS_SPECTROMETRY: COLLISION_ENERGY 130
AC$MASS_SPECTROMETRY: FRAGMENTATION_MODE CID
AC$MASS_SPECTROMETRY: IONIZATION ESI
AC$CHROMATOGRAPHY: COLUMN_NAME Zorbax Eclipse Plus C18 2.1 mm x 150 mm, 3.5 um, Agilent
AC$CHROMATOGRAPHY: COLUMN_TEMPERATURE 40 °C
AC$CHROMATOGRAPHY: FLOW_GRADIENT 0 min min 98% A, 1 min 98% A, 2 min 80% A, 16.5 min 2% A, 22 min 2% A, 22.1 min 98% A, 27 min 98% A
AC$CHROMATOGRAPHY: FLOW_RATE 0.3 mL/min
AC$CHROMATOGRAPHY: RETENTION_TIME 6.924 min
AC$CHROMATOGRAPHY: SOLVENT A: Water 0.1% Formic acid, B: Acetonitrile 0.1% Formic acid
MS$FOCUSED_ION: PRECURSOR_M/Z 222.0429
MS$FOCUSED_ION: PRECURSOR_TYPE [M+H]+
MS$DATA_PROCESSING: COMMENT Export with Spectra 1.9.12 MsBackendMassbank 1.7.4
MS$DATA_PROCESSING: WHOLE RMassBank 2.3.1
PK$SPLASH: splash10-0udi-9000000000-90ceab503ddddbf4335a
PK$NUM_PEAK: 23
PK$PEAK: m/z int. rel.int.
  35.9993 0.5 17
  37.0072 2.4 82
  38.0032 0.7 24
  38.0153 1.8 62
  39.0113 0.6 20
  39.0231 3.2 110
  40.0187 0.4 13
  41.0269 0.4 13
  46.968 1.1 38
  49.0074 7.5 259
  50.0155 28.9 999
  51.0114 0.7 24
  51.0232 15.7 542
  52.0184 4.3 148
  53.0125 0.5 17
  53.0259 0.5 17
  61.007 1.3 44
  62.0148 1.3 44
  63.0231 1.2 41
  65.0381 0.4 13
  66.0214 1.1 38
  73.0076 0.5 17
  74.0154 2 69
//
