ACCESSION: MSBNK-BAFG-CSL2311106406
RECORD_TITLE: Iotalamic acid; LC-ESI-QTOF; MS2; 80 V
DATE: 2023.11.10
AUTHORS: Kevin S. Jewell; Björn Ehlig; Arne Wick
LICENSE: dl-de/by-2-0
COPYRIGHT: Copyright 2023 Federal Institute of Hydrology, Koblenz, Germany
COMMENT: CONFIDENCE Reference Standard (Level 1)
COMMENT: Chromatography method: dx.doi.org/10.1016/j.chroma.2015.11.014
COMMENT: Acquisition method: 10.1002/rcm.8541
CH$NAME: Iotalamic acid
CH$COMPOUND_CLASS: Pharmaceutical
CH$FORMULA: C11H9I3N2O4
CH$EXACT_MASS: 613.7697
CH$SMILES: CNC(c1c(I)c(C(O)=O)c(I)c(NC(C)=O)c1I)=O
CH$IUPAC: InChI=1S/C11H9I3N2O4/c1-3(17)16-9-7(13)4(10(18)15-2)6(12)5(8(9)14)11(19)20/h1-2H3,(H,15,18)(H,16,17)(H,19,20)
CH$LINK: CAS 2276-90-6
CH$LINK: INCHIKEY UXIGWFXRQKWHHA-UHFFFAOYSA-N
AC$INSTRUMENT: TripleTOF 5600 SCIEX
AC$INSTRUMENT_TYPE: LC-ESI-QTOF
AC$MASS_SPECTROMETRY: MS_TYPE MS2
AC$MASS_SPECTROMETRY: ION_MODE POSITIVE
AC$MASS_SPECTROMETRY: COLLISION_ENERGY 80
AC$MASS_SPECTROMETRY: FRAGMENTATION_MODE CID
AC$MASS_SPECTROMETRY: IONIZATION ESI
AC$CHROMATOGRAPHY: COLUMN_NAME Zorbax Eclipse Plus C18 2.1 mm x 150 mm, 3.5 um, Agilent
AC$CHROMATOGRAPHY: COLUMN_TEMPERATURE 40 °C
AC$CHROMATOGRAPHY: FLOW_GRADIENT 0 min min 98% A, 1 min 98% A, 2 min 80% A, 16.5 min 2% A, 22 min 2% A, 22.1 min 98% A, 27 min 98% A
AC$CHROMATOGRAPHY: FLOW_RATE 0.3 mL/min
AC$CHROMATOGRAPHY: RETENTION_TIME 4.565 min
AC$CHROMATOGRAPHY: SOLVENT A: Water 0.1% Formic acid, B: Acetonitrile 0.1% Formic acid
MS$FOCUSED_ION: PRECURSOR_M/Z 614.7769
MS$FOCUSED_ION: PRECURSOR_TYPE [M+H]+
MS$DATA_PROCESSING: COMMENT Export with Spectra 1.9.12 MsBackendMassbank 1.7.4
MS$DATA_PROCESSING: WHOLE RMassBank 2.3.1
PK$SPLASH: splash10-004i-0964000000-b83b554052669344e6ab
PK$NUM_PEAK: 47
PK$PEAK: m/z int. rel.int.
  91.0487 0.4 30
  102.0338 0.6 45
  118.0295 0.4 30
  118.0547 0.6 45
  130.0284 1 75
  131.0356 0.8 60
  132.0442 0.5 37
  133.0514 1.3 97
  135.0306 0.9 67
  146.0237 0.6 45
  146.0462 0.9 67
  147.0308 0.7 52
  148.062 0.7 52
  158.0237 3.4 255
  159.0543 0.7 52
  174.0172 0.9 67
  177.0414 13.3 999
  187.0489 1.2 90
  203.9293 1.1 82
  204.9373 0.7 52
  205.9455 0.8 60
  229.9409 0.4 30
  231.9196 1.3 97
  232.9345 2 150
  233.94 0.5 37
  244.9507 1 75
  245.9427 0.8 60
  256.9309 0.8 60
  257.9412 2.2 165
  259.9174 0.5 37
  261.9331 0.8 60
  272.9254 0.8 60
  272.9489 0.9 67
  273.9345 2.7 202
  284.9246 1.7 127
  285.9347 0.8 60
  300.9457 1.2 90
  301.9303 5.4 405
  302.9382 0.7 52
  318.9537 0.6 45
  329.9221 1.4 105
  355.8449 1.2 90
  359.8386 1.5 112
  381.8239 0.5 37
  383.8328 0.8 60
  387.8283 0.6 45
  415.8256 2 150
//
