ACCESSION: MSBNK-BAFG-CSL2501067347
RECORD_TITLE: N,N-didesmethyl-venlafaxine; LC-ESI-QTOF; MS2; 110 V
DATE: 2025.01.06
AUTHORS: Ole Lessmann; Kevin S. Jewell; Björn Ehlig; Arne Wick
LICENSE: dl-de/by-2-0
COPYRIGHT: Copyright 2025 Federal Institute of Hydrology, Koblenz, Germany
COMMENT: CONFIDENCE Reference Standard (Level 1)
COMMENT: Chromatography method: dx.doi.org/10.1016/j.chroma.2015.11.014
COMMENT: Acquisition method: 10.1002/rcm.8541
CH$NAME: N,N-didesmethyl-venlafaxine
CH$COMPOUND_CLASS: Pharmaceutical; Transformation_product; Transformation_product-Metabolite
CH$FORMULA: C15H23NO2
CH$EXACT_MASS: 249.1729
CH$SMILES: COC1=CC=C(C=C1)C(CN)C2(CCCCC2)O
CH$IUPAC: InChI=1S/C15H23NO2/c1-18-13-7-5-12(6-8-13)14(11-16)15(17)9-3-2-4-10-15/h5-8,14,17H,2-4,9-11,16H2,1H3
CH$LINK: CAS 93413-77-5
CH$LINK: INCHIKEY SUQHIQRIIBKNOR-UHFFFAOYSA-N
AC$INSTRUMENT: TripleTOF 5600 SCIEX
AC$INSTRUMENT_TYPE: LC-ESI-QTOF
AC$MASS_SPECTROMETRY: MS_TYPE MS2
AC$MASS_SPECTROMETRY: ION_MODE POSITIVE
AC$MASS_SPECTROMETRY: COLLISION_ENERGY 110
AC$MASS_SPECTROMETRY: FRAGMENTATION_MODE CID
AC$MASS_SPECTROMETRY: IONIZATION ESI
AC$CHROMATOGRAPHY: COLUMN_NAME Zorbax Eclipse Plus C18 2.1 mm x 150 mm, 3.5 um, Agilent
AC$CHROMATOGRAPHY: COLUMN_TEMPERATURE 40 °C
AC$CHROMATOGRAPHY: FLOW_GRADIENT 0 min min 98% A, 1 min 98% A, 2 min 80% A, 16.5 min 2% A, 22 min 2% A, 22.1 min 98% A, 27 min 98% A
AC$CHROMATOGRAPHY: FLOW_RATE 0.3 mL/min
AC$CHROMATOGRAPHY: RETENTION_TIME 6.316 min
AC$CHROMATOGRAPHY: SOLVENT A: Water 0.1% Formic acid, B: Acetonitrile 0.1% Formic acid
MS$FOCUSED_ION: PRECURSOR_M/Z 250.1802
MS$FOCUSED_ION: PRECURSOR_TYPE [M+H]+
MS$DATA_PROCESSING: COMMENT Export with pycsl 0.1.0.dev1 and CSL 24.4
PK$SPLASH: splash10-004i-9200000000-4f7eb84c86521fc24fcc
PK$NUM_PEAK: 13
PK$PEAK: m/z int. rel.int.
  51.0284 1.7 297
  52.0355 1.0 175
  65.0423 1.6 280
  77.04 5.0 876
  78.0484 5.7 999
  79.0559 0.7 122
  89.0411 1.1 192
  91.0547 1.3 227
  102.0475 0.7 122
  103.0531 0.7 122
  115.0523 2.0 350
  127.053 0.4 70
  128.0589 0.8 140
//