ACCESSION: MSBNK-BAFG-CSL23102514956
RECORD_TITLE: (Ethoxycarbonylmethyl)triphenylphosphonium; LC-ESI-QTOF; MS2; 120 V
DATE: 2023.10.25
AUTHORS: Kevin S. Jewell; Björn Ehlig; Arne Wick
LICENSE: dl-de/by-2-0
COPYRIGHT: Copyright 2023 Federal Institute of Hydrology, Koblenz, Germany
COMMENT: CONFIDENCE Reference Standard (Level 1)
COMMENT: Chromatography method: dx.doi.org/10.1016/j.chroma.2015.11.014
COMMENT: Acquisition method: 10.1002/rcm.8541
CH$NAME: (Ethoxycarbonylmethyl)triphenylphosphonium
CH$FORMULA: C22H22O2P
CH$EXACT_MASS: 349.1352
CH$SMILES: CCOC(=O)C[P+](C1=CC=CC=C1)(C2=CC=CC=C2)C3=CC=CC=C3
CH$IUPAC: InChI=1S/C22H22O2P/c1-2-24-22(23)18-25(19-12-6-3-7-13-19,20-14-8-4-9-15-20)21-16-10-5-11-17-21/h3-17H,2,18H2,1H3/q+1
CH$LINK: CAS 1530-45-6
CH$LINK: INCHIKEY BDBCCQWLFKVQRT-UHFFFAOYSA-N
AC$INSTRUMENT: TripleTOF 6600 SCIEX
AC$INSTRUMENT_TYPE: LC-ESI-QTOF
AC$MASS_SPECTROMETRY: MS_TYPE MS2
AC$MASS_SPECTROMETRY: ION_MODE POSITIVE
AC$MASS_SPECTROMETRY: COLLISION_ENERGY 120
AC$MASS_SPECTROMETRY: FRAGMENTATION_MODE CID
AC$MASS_SPECTROMETRY: IONIZATION ESI
AC$CHROMATOGRAPHY: COLUMN_NAME Zorbax Eclipse Plus C18 2.1 mm x 150 mm, 3.5 um, Agilent
AC$CHROMATOGRAPHY: COLUMN_TEMPERATURE 40 °C
AC$CHROMATOGRAPHY: FLOW_GRADIENT 0 min min 98% A, 1 min 98% A, 2 min 80% A, 16.5 min 2% A, 22 min 2% A, 22.1 min 98% A, 27 min 98% A
AC$CHROMATOGRAPHY: FLOW_RATE 0.3 mL/min
AC$CHROMATOGRAPHY: RETENTION_TIME 8 min
AC$CHROMATOGRAPHY: SOLVENT A: Water 0.1% Formic acid, B: Acetonitrile 0.1% Formic acid
MS$FOCUSED_ION: PRECURSOR_M/Z 349.1352
MS$FOCUSED_ION: PRECURSOR_TYPE [M]+
MS$DATA_PROCESSING: COMMENT Export with Spectra 1.9.12 MsBackendMassbank 1.7.4
MS$DATA_PROCESSING: WHOLE RMassBank 2.3.1
PK$SPLASH: splash10-0zgi-0900000000-105c69031834d62ef575
PK$NUM_PEAK: 15
PK$PEAK: m/z int. rel.int.
  80.9857 36.4 77
  89.0346 38.7 82
  107.0009 256.1 546
  115.0506 139.6 297
  126.0429 40.5 86
  133.0168 39.1 83
  139.0508 112.3 239
  150.043 26.6 56
  151.0511 104.2 222
  152.0594 468.2 999
  157.0172 231.4 493
  165.0671 31.9 68
  181.0173 96 204
  183.0331 190.7 406
  257.0493 24.3 51
//
