ACCESSION: MSBNK-BAFG-CSL25011734562
RECORD_TITLE: Azo Rubin S; LC-ESI-QTOF; MS2; 140 V
DATE: 2025.01.17
AUTHORS: Ole Lessmann; Kevin S. Jewell; Björn Ehlig; Arne Wick
LICENSE: dl-de/by-2-0
COPYRIGHT: Copyright 2025 Federal Institute of Hydrology, Koblenz, Germany
COMMENT: CONFIDENCE Reference Standard (Level 1)
COMMENT: Chromatography method: dx.doi.org/10.1016/j.chroma.2015.11.014
CH$NAME: Azo Rubin S
CH$FORMULA: C20H14N2O7S2
CH$EXACT_MASS: 458.0242
CH$SMILES: C1=CC=C2C(=C1)C(=CC=C2S(=O)(=O)O)N=NC3=C(C4=CC=CC=C4C(=C3)S(=O)(=O)O)O
CH$IUPAC: InChI=1S/C20H14N2O7S2/c23-20-15-8-4-3-7-14(15)19(31(27,28)29)11-17(20)22-21-16-9-10-18(30(24,25)26)13-6-2-1-5-12(13)16/h1-11,23H,(H,24,25,26)(H,27,28,29)
CH$LINK: CAS 13613-55-3
CH$LINK: INCHIKEY TVWOWDDBXAFQDG-UHFFFAOYSA-N
AC$INSTRUMENT: TripleTOF 6600 SCIEX
AC$INSTRUMENT_TYPE: LC-ESI-QTOF
AC$MASS_SPECTROMETRY: MS_TYPE MS2
AC$MASS_SPECTROMETRY: ION_MODE POSITIVE
AC$MASS_SPECTROMETRY: COLLISION_ENERGY 140
AC$MASS_SPECTROMETRY: FRAGMENTATION_MODE CID
AC$MASS_SPECTROMETRY: IONIZATION ESI
AC$CHROMATOGRAPHY: COLUMN_NAME Zorbax Eclipse Plus C18 2.1 mm x 150 mm, 3.5 um, Agilent
AC$CHROMATOGRAPHY: COLUMN_TEMPERATURE 40 °C
AC$CHROMATOGRAPHY: FLOW_GRADIENT 0 min min 98% A, 1 min 98% A, 2 min 80% A, 16.5 min 2% A, 22 min 2% A, 22.1 min 98% A, 27 min 98% A
AC$CHROMATOGRAPHY: FLOW_RATE 0.3 mL/min
AC$CHROMATOGRAPHY: RETENTION_TIME 7.286 min
AC$CHROMATOGRAPHY: SOLVENT A: Water 0.1% Formic acid, B: Acetonitrile 0.1% Formic acid
MS$FOCUSED_ION: PRECURSOR_M/Z 459.0315
MS$FOCUSED_ION: PRECURSOR_TYPE [M+H]+
MS$DATA_PROCESSING: COMMENT Export with pycsl 0.1.0.dev1 and CSL 25.0
PK$SPLASH: splash10-0fvi-9700000000-1ada7856c7e3a6d5cc1e
PK$NUM_PEAK: 41
PK$PEAK: m/z int. rel.int.
  39.0227 3.1 24
  50.0147 2.1 16
  51.0229 17.7 140
  52.0179 17.7 140
  62.0141 2.1 16
  63.0226 13.8 109
  64.9687 5.9 46
  65.0386 5.9 46
  74.0148 2.6 20
  75.0224 5.6 44
  76.0293 2.5 19
  77.0384 125.7 999
  80.013 4.6 36
  87.0235 1.9 15
  88.0309 2.9 23
  89.0382 56.2 446
  90.0338 1.6 12
  91.0542 1.5 11
  99.0229 2.0 15
  100.0173 3.5 27
  101.0377 2.5 19
  102.0461 11.2 89
  103.0536 54.3 431
  104.0489 3.9 30
  105.0445 1.7 13
  113.0376 12.3 97
  114.0451 5.9 46
  115.0538 74.2 589
  116.0502 15.4 122
  130.0642 22.8 181
  140.0487 17.7 140
  213.0686 1.8 14
  223.0522 1.7 13
  224.0625 2.3 18
  238.066 3.2 25
  239.0707 1.5 11
  249.0522 1.6 12
  249.0653 1.6 12
  250.068 1.7 13
  251.0753 2.8 22
  265.0794 1.9 15
//
