ACCESSION: MSBNK-BAFG-CSL23110916397
RECORD_TITLE: Ciprofloxacin; LC-ESI-QTOF; MS2; 50 V
DATE: 2023.11.09
AUTHORS: Kevin S. Jewell; Björn Ehlig; Arne Wick
LICENSE: dl-de/by-2-0
COPYRIGHT: Copyright 2023 Federal Institute of Hydrology, Koblenz, Germany
COMMENT: CONFIDENCE Reference Standard (Level 1)
COMMENT: Chromatography method: dx.doi.org/10.1016/j.chroma.2015.11.014
COMMENT: Acquisition method: 10.1002/rcm.8541
CH$NAME: Ciprofloxacin
CH$COMPOUND_CLASS: Pharmaceutical
CH$FORMULA: C17H18FN3O3
CH$EXACT_MASS: 331.1332
CH$SMILES: C1CC1N2C=C(C(=O)C3=CC(=C(C=C32)N4CCNCC4)F)C(=O)O
CH$IUPAC: InChI=1S/C17H18FN3O3/c18-13-7-11-14(8-15(13)20-5-3-19-4-6-20)21(10-1-2-10)9-12(16(11)22)17(23)24/h7-10,19H,1-6H2,(H,23,24)
CH$LINK: CAS 85721-33-1
CH$LINK: INCHIKEY MYSWGUAQZAJSOK-UHFFFAOYSA-N
AC$INSTRUMENT: TripleTOF 6600 SCIEX
AC$INSTRUMENT_TYPE: LC-ESI-QTOF
AC$MASS_SPECTROMETRY: MS_TYPE MS2
AC$MASS_SPECTROMETRY: ION_MODE POSITIVE
AC$MASS_SPECTROMETRY: COLLISION_ENERGY 50
AC$MASS_SPECTROMETRY: FRAGMENTATION_MODE CID
AC$MASS_SPECTROMETRY: IONIZATION ESI
AC$CHROMATOGRAPHY: COLUMN_NAME Zorbax Eclipse Plus C18 2.1 mm x 150 mm, 3.5 um, Agilent
AC$CHROMATOGRAPHY: COLUMN_TEMPERATURE 40 °C
AC$CHROMATOGRAPHY: FLOW_GRADIENT 0 min min 98% A, 1 min 98% A, 2 min 80% A, 16.5 min 2% A, 22 min 2% A, 22.1 min 98% A, 27 min 98% A
AC$CHROMATOGRAPHY: FLOW_RATE 0.3 mL/min
AC$CHROMATOGRAPHY: RETENTION_TIME 5.497 min
AC$CHROMATOGRAPHY: SOLVENT A: Water 0.1% Formic acid, B: Acetonitrile 0.1% Formic acid
MS$FOCUSED_ION: PRECURSOR_M/Z 332.1405
MS$FOCUSED_ION: PRECURSOR_TYPE [M+H]+
MS$DATA_PROCESSING: COMMENT Export with Spectra 1.9.12 MsBackendMassbank 1.7.4
MS$DATA_PROCESSING: WHOLE RMassBank 2.3.1
PK$SPLASH: splash10-001i-0290000000-6cfd7380fde4a5f9a3f6
PK$NUM_PEAK: 31
PK$PEAK: m/z int. rel.int.
  136.0569 0.9 26
  148.056 0.9 26
  162.0371 0.6 17
  163.0435 0.6 17
  163.0683 0.4 11
  172.0578 0.5 14
  174.0691 1.2 35
  175.0653 0.8 23
  176.0495 0.6 17
  176.0743 1.2 35
  184.0614 0.4 11
  185.0678 0.4 11
  187.0661 0.4 11
  188.0415 0.7 20
  189.0457 2.2 65
  189.0822 0.8 23
  191.0622 1.2 35
  201.0557 0.7 20
  201.0797 1 29
  202.0649 1 29
  203.0628 5.2 155
  204.0708 1.6 47
  205.0783 2.1 62
  215.0622 0.8 23
  218.0519 0.5 14
  225.0956 0.5 14
  231.0576 33.5 999
  231.0916 0.5 14
  245.1092 1.8 53
  294.1251 1.1 32
  314.133 2.1 62
//
