ACCESSION: MSBNK-BAFG-CSL23110918133
RECORD_TITLE: Propamocarb; LC-ESI-QTOF; MS2; 70 V
DATE: 2023.11.09
AUTHORS: Kevin S. Jewell; Björn Ehlig; Arne Wick
LICENSE: dl-de/by-2-0
COPYRIGHT: Copyright 2023 Federal Institute of Hydrology, Koblenz, Germany
COMMENT: CONFIDENCE Reference Standard (Level 1)
COMMENT: Chromatography method: dx.doi.org/10.1016/j.chroma.2015.11.014
COMMENT: Acquisition method: 10.1002/rcm.8541
CH$NAME: Propamocarb
CH$COMPOUND_CLASS: Fungicide
CH$FORMULA: C9H20N2O2
CH$EXACT_MASS: 188.1525
CH$SMILES: CCCOC(=O)NCCCN(C)C
CH$IUPAC: InChI=1S/C9H20N2O2/c1-4-8-13-9(12)10-6-5-7-11(2)3/h4-8H2,1-3H3,(H,10,12)
CH$LINK: CAS 24579-73-5
CH$LINK: INCHIKEY WZZLDXDUQPOXNW-UHFFFAOYSA-N
AC$INSTRUMENT: TripleTOF 6600 SCIEX
AC$INSTRUMENT_TYPE: LC-ESI-QTOF
AC$MASS_SPECTROMETRY: MS_TYPE MS2
AC$MASS_SPECTROMETRY: ION_MODE POSITIVE
AC$MASS_SPECTROMETRY: COLLISION_ENERGY 70
AC$MASS_SPECTROMETRY: FRAGMENTATION_MODE CID
AC$MASS_SPECTROMETRY: IONIZATION ESI
AC$CHROMATOGRAPHY: COLUMN_NAME Zorbax Eclipse Plus C18 2.1 mm x 150 mm, 3.5 um, Agilent
AC$CHROMATOGRAPHY: COLUMN_TEMPERATURE 40 °C
AC$CHROMATOGRAPHY: FLOW_GRADIENT 0 min min 98% A, 1 min 98% A, 2 min 80% A, 16.5 min 2% A, 22 min 2% A, 22.1 min 98% A, 27 min 98% A
AC$CHROMATOGRAPHY: FLOW_RATE 0.3 mL/min
AC$CHROMATOGRAPHY: RETENTION_TIME 4.882 min
AC$CHROMATOGRAPHY: SOLVENT A: Water 0.1% Formic acid, B: Acetonitrile 0.1% Formic acid
MS$FOCUSED_ION: PRECURSOR_M/Z 189.1598
MS$FOCUSED_ION: PRECURSOR_TYPE [M+H]+
MS$DATA_PROCESSING: COMMENT Export with Spectra 1.9.12 MsBackendMassbank 1.7.4
MS$DATA_PROCESSING: WHOLE RMassBank 2.3.1
PK$SPLASH: splash10-000f-9000000000-8180636e12c8a75a510a
PK$NUM_PEAK: 17
PK$PEAK: m/z int. rel.int.
  30.0341 5.4 494
  37.008 2.5 229
  38.0036 0.6 54
  38.0153 1.4 128
  39.0237 9.8 898
  41.039 7.9 724
  42.034 10.9 999
  43.0414 5.7 522
  43.0548 0.6 54
  44.0502 1 91
  44.9972 2.4 219
  46.065 0.9 82
  56.0143 0.7 64
  56.0494 1 91
  58.0654 6.5 595
  74.0227 2.2 201
  102.0545 0.4 36
//
