ACCESSION: MSBNK-BAFG-CSL25010627937
RECORD_TITLE: Sudan III; LC-ESI-QTOF; MS2; 30 V
DATE: 2025.01.06
AUTHORS: Ole Lessmann; Kevin S. Jewell; Björn Ehlig; Arne Wick
LICENSE: dl-de/by-2-0
COPYRIGHT: Copyright 2025 Federal Institute of Hydrology, Koblenz, Germany
COMMENT: CONFIDENCE Reference Standard (Level 1)
COMMENT: Chromatography method: dx.doi.org/10.1016/j.chroma.2015.11.014
COMMENT: Acquisition method: 10.1002/rcm.8541
CH$NAME: Sudan III
CH$FORMULA: C22H16N4O
CH$EXACT_MASS: 352.1324
CH$SMILES: C1=CC=C(C=C1)N=NC2=CC=C(C=C2)N=NC3=C(C=CC4=CC=CC=C43)O
CH$IUPAC: InChI=1S/C22H16N4O/c27-21-15-10-16-6-4-5-9-20(16)22(21)26-25-19-13-11-18(12-14-19)24-23-17-7-2-1-3-8-17/h1-15,27H
CH$LINK: CAS 85-86-9
CH$LINK: INCHIKEY FHNINJWBTRXEBC-UHFFFAOYSA-N
AC$INSTRUMENT: TripleTOF X500R SCIEX
AC$INSTRUMENT_TYPE: LC-ESI-QTOF
AC$MASS_SPECTROMETRY: MS_TYPE MS2
AC$MASS_SPECTROMETRY: ION_MODE POSITIVE
AC$MASS_SPECTROMETRY: COLLISION_ENERGY 30
AC$MASS_SPECTROMETRY: FRAGMENTATION_MODE CID
AC$MASS_SPECTROMETRY: IONIZATION ESI
AC$CHROMATOGRAPHY: COLUMN_NAME Zorbax Eclipse Plus C18 2.1 mm x 150 mm, 3.5 um, Agilent
AC$CHROMATOGRAPHY: COLUMN_TEMPERATURE 40 °C
AC$CHROMATOGRAPHY: FLOW_GRADIENT 0 min min 98% A, 1 min 98% A, 2 min 80% A, 16.5 min 2% A, 22 min 2% A, 22.1 min 98% A, 27 min 98% A
AC$CHROMATOGRAPHY: FLOW_RATE 0.3 mL/min
AC$CHROMATOGRAPHY: RETENTION_TIME 19.216 min
AC$CHROMATOGRAPHY: SOLVENT A: Water 0.1% Formic acid, B: Acetonitrile 0.1% Formic acid
MS$FOCUSED_ION: PRECURSOR_M/Z 353.1397
MS$FOCUSED_ION: PRECURSOR_TYPE [M+H]+
MS$DATA_PROCESSING: COMMENT Export with pycsl 0.1.0.dev1 and CSL 24.4
PK$SPLASH: splash10-0f6t-1903000000-d87fd6f009dc71b738f5
PK$NUM_PEAK: 33
PK$PEAK: m/z int. rel.int.
  59.0318 1.5 24
  60.0327 0.6 9
  73.0477 1.1 18
  77.039 17.7 290
  92.0501 5.4 88
  99.0636 1.6 26
  100.0643 1.0 16
  105.0462 1.5 24
  115.0557 1.8 29
  120.0564 20.7 340
  128.0506 7.7 126
  141.0707 4.4 72
  143.049 5.6 92
  151.0567 0.7 11
  156.0453 31.2 512
  167.0748 2.2 36
  168.0818 3.3 54
  171.0572 3.0 49
  181.0772 0.7 11
  182.083 0.8 13
  196.0883 38.7 635
  197.096 42.0 690
  197.1415 0.7 11
  198.1035 11.9 195
  219.0914 1.5 24
  231.0932 1.4 23
  232.0834 1.2 19
  233.1016 1.1 18
  247.0886 4.3 70
  248.0939 2.8 46
  262.0961 0.7 11
  336.1381 3.7 60
  353.1411 60.8 999
//