ACCESSION: MSBNK-BAFG-CSL2310305573
RECORD_TITLE: Sulpiride; LC-ESI-QTOF; MS2; 120 V
DATE: 2023.10.30
AUTHORS: Kevin S. Jewell; Björn Ehlig; Arne Wick
LICENSE: dl-de/by-2-0
COPYRIGHT: Copyright 2023 Federal Institute of Hydrology, Koblenz, Germany
COMMENT: CONFIDENCE Reference Standard (Level 1)
COMMENT: Chromatography method: dx.doi.org/10.1016/j.chroma.2015.11.014
COMMENT: Acquisition method: 10.1002/rcm.8541
CH$NAME: Sulpiride
CH$COMPOUND_CLASS: Pharmaceutical
CH$FORMULA: C15H23N3O4S
CH$EXACT_MASS: 341.1409
CH$SMILES: CCN1CCCC1CNC(=O)c2cc(ccc2OC)[S](N)(=O)=O
CH$IUPAC: InChI=1S/C15H23N3O4S/c1-3-18-8-4-5-11(18)10-17-15(19)13-9-12(23(16,20)21)6-7-14(13)22-2/h6-7,9,11H,3-5,8,10H2,1-2H3,(H,17,19)(H2,16,20,21)
CH$LINK: CAS 15676-16-1
CH$LINK: INCHIKEY BGRJTUBHPOOWDU-UHFFFAOYSA-N
AC$INSTRUMENT: TripleTOF 5600 SCIEX
AC$INSTRUMENT_TYPE: LC-ESI-QTOF
AC$MASS_SPECTROMETRY: MS_TYPE MS2
AC$MASS_SPECTROMETRY: ION_MODE POSITIVE
AC$MASS_SPECTROMETRY: COLLISION_ENERGY 120
AC$MASS_SPECTROMETRY: FRAGMENTATION_MODE CID
AC$MASS_SPECTROMETRY: IONIZATION ESI
AC$CHROMATOGRAPHY: COLUMN_NAME Zorbax Eclipse Plus C18 2.1 mm x 150 mm, 3.5 um, Agilent
AC$CHROMATOGRAPHY: COLUMN_TEMPERATURE 40 °C
AC$CHROMATOGRAPHY: FLOW_GRADIENT 0 min min 98% A, 1 min 98% A, 2 min 80% A, 16.5 min 2% A, 22 min 2% A, 22.1 min 98% A, 27 min 98% A
AC$CHROMATOGRAPHY: FLOW_RATE 0.3 mL/min
AC$CHROMATOGRAPHY: RETENTION_TIME 4.958 min
AC$CHROMATOGRAPHY: SOLVENT A: Water 0.1% Formic acid, B: Acetonitrile 0.1% Formic acid
MS$FOCUSED_ION: PRECURSOR_M/Z 342.1482
MS$FOCUSED_ION: PRECURSOR_TYPE [M+H]+
MS$DATA_PROCESSING: COMMENT Export with Spectra 1.9.12 MsBackendMassbank 1.7.4
MS$DATA_PROCESSING: WHOLE RMassBank 2.3.1
PK$SPLASH: splash10-00b9-9000000000-97a8c041fd86c3d487b5
PK$NUM_PEAK: 25
PK$PEAK: m/z int. rel.int.
  39.0305 1.7 184
  51.0305 2.9 314
  52.0378 2.1 228
  56.0555 2.3 249
  58.0698 1.5 162
  65.0436 0.8 86
  67.0482 0.7 76
  68.0528 1.1 119
  70.0675 2.2 238
  70.081 0.5 54
  74.0188 4.4 477
  75.0255 9.2 999
  76.0338 3.9 423
  77.0406 1.1 119
  78.0434 2.1 228
  79.02 1.1 119
  79.048 0.8 86
  80.0521 0.8 86
  82.0687 0.9 97
  84.0833 2.8 304
  91.0193 3.8 412
  98.0973 2.4 260
  107.0144 0.9 97
  112.1119 0.9 97
  119.0206 0.5 54
//
