ACCESSION: MSBNK-BAFG-CSL23110913807
RECORD_TITLE: 2,2,6,6-Tetramethylpiperidin-1-oxyl; LC-ESI-QTOF; MS2; 40 V
DATE: 2023.11.09
AUTHORS: Kevin S. Jewell; Björn Ehlig; Arne Wick
LICENSE: dl-de/by-2-0
COPYRIGHT: Copyright 2023 Federal Institute of Hydrology, Koblenz, Germany
COMMENT: CONFIDENCE Reference Standard (Level 1)
COMMENT: Chromatography method: dx.doi.org/10.1016/j.chroma.2015.11.014
COMMENT: Acquisition method: 10.1002/rcm.8541
CH$NAME: 2,2,6,6-Tetramethylpiperidin-1-oxyl
CH$FORMULA: C9H18NO
CH$EXACT_MASS: 156.1388
CH$SMILES: CC1(CCCC(N1[O])(C)C)C
CH$IUPAC: InChI=1S/C9H18NO/c1-8(2)6-5-7-9(3,4)10(8)11/h5-7H2,1-4H3
CH$LINK: CAS 2564-83-2
CH$LINK: INCHIKEY QYTDEUPAUMOIOP-UHFFFAOYSA-N
AC$INSTRUMENT: TripleTOF 5600 SCIEX
AC$INSTRUMENT_TYPE: LC-ESI-QTOF
AC$MASS_SPECTROMETRY: MS_TYPE MS2
AC$MASS_SPECTROMETRY: ION_MODE POSITIVE
AC$MASS_SPECTROMETRY: COLLISION_ENERGY 40
AC$MASS_SPECTROMETRY: FRAGMENTATION_MODE CID
AC$MASS_SPECTROMETRY: IONIZATION ESI
AC$CHROMATOGRAPHY: COLUMN_NAME Zorbax Eclipse Plus C18 2.1 mm x 150 mm, 3.5 um, Agilent
AC$CHROMATOGRAPHY: COLUMN_TEMPERATURE 40 °C
AC$CHROMATOGRAPHY: FLOW_GRADIENT 0 min min 98% A, 1 min 98% A, 2 min 80% A, 16.5 min 2% A, 22 min 2% A, 22.1 min 98% A, 27 min 98% A
AC$CHROMATOGRAPHY: FLOW_RATE 0.3 mL/min
AC$CHROMATOGRAPHY: RETENTION_TIME 10.403 min
AC$CHROMATOGRAPHY: SOLVENT A: Water 0.1% Formic acid, B: Acetonitrile 0.1% Formic acid
MS$FOCUSED_ION: PRECURSOR_M/Z 157.1461
MS$FOCUSED_ION: PRECURSOR_TYPE [M+H]+
MS$DATA_PROCESSING: COMMENT Export with Spectra 1.9.12 MsBackendMassbank 1.7.4
MS$DATA_PROCESSING: WHOLE RMassBank 2.3.1
PK$SPLASH: splash10-067l-9200000000-f88b3134b90a0839bb19
PK$NUM_PEAK: 16
PK$PEAK: m/z int. rel.int.
  39.0232 0.1 99
  41.04 0.4 399
  42.0341 0.1 99
  55.0527 0.1 99
  56.05 0.2 199
  67.052 0.2 199
  69.0694 1 999
  74.0593 0.4 399
  80.0589 0.3 299
  81.0692 0.5 499
  82.0631 0.1 99
  82.071 0.1 99
  86.0594 0.2 199
  109.1016 0.4 399
  110.0942 0.2 199
  142.1259 0.4 399
//
