ACCESSION: MSBNK-BAFG-CSL23103012503
RECORD_TITLE: Tadalafil; LC-ESI-QTOF; MS2; 100 V
DATE: 2023.10.30
AUTHORS: Kevin S. Jewell; Björn Ehlig; Arne Wick
LICENSE: dl-de/by-2-0
COPYRIGHT: Copyright 2023 Federal Institute of Hydrology, Koblenz, Germany
COMMENT: CONFIDENCE Reference Standard (Level 1)
COMMENT: Chromatography method: dx.doi.org/10.1016/j.chroma.2015.11.014
COMMENT: Acquisition method: 10.1002/rcm.8541
CH$NAME: Tadalafil
CH$COMPOUND_CLASS: Pharmaceutical
CH$FORMULA: C22H19N3O4
CH$EXACT_MASS: 389.1376
CH$SMILES: CN1CC(=O)N2C(C1=O)CC3=C(C2C4=CC5=C(C=C4)OCO5)NC6=CC=CC=C36
CH$IUPAC: InChI=1S/C22H19N3O4/c1-24-10-19(26)25-16(22(24)27)9-14-13-4-2-3-5-15(13)23-20(14)21(25)12-6-7-17-18(8-12)29-11-28-17/h2-8,16,21,23H,9-11H2,1H3
CH$LINK: CAS 171596-29-5
CH$LINK: INCHIKEY WOXKDUGGOYFFRN-UHFFFAOYSA-N
AC$INSTRUMENT: TripleTOF 5600 SCIEX
AC$INSTRUMENT_TYPE: LC-ESI-QTOF
AC$MASS_SPECTROMETRY: MS_TYPE MS2
AC$MASS_SPECTROMETRY: ION_MODE POSITIVE
AC$MASS_SPECTROMETRY: COLLISION_ENERGY 100
AC$MASS_SPECTROMETRY: FRAGMENTATION_MODE CID
AC$MASS_SPECTROMETRY: IONIZATION ESI
AC$CHROMATOGRAPHY: COLUMN_NAME Zorbax Eclipse Plus C18 2.1 mm x 150 mm, 3.5 um, Agilent
AC$CHROMATOGRAPHY: COLUMN_TEMPERATURE 40 °C
AC$CHROMATOGRAPHY: FLOW_GRADIENT 0 min min 98% A, 1 min 98% A, 2 min 80% A, 16.5 min 2% A, 22 min 2% A, 22.1 min 98% A, 27 min 98% A
AC$CHROMATOGRAPHY: FLOW_RATE 0.3 mL/min
AC$CHROMATOGRAPHY: RETENTION_TIME 9.801 min
AC$CHROMATOGRAPHY: SOLVENT A: Water 0.1% Formic acid, B: Acetonitrile 0.1% Formic acid
MS$FOCUSED_ION: PRECURSOR_M/Z 390.1448
MS$FOCUSED_ION: PRECURSOR_TYPE [M+H]+
MS$DATA_PROCESSING: COMMENT Export with Spectra 1.9.12 MsBackendMassbank 1.7.4
MS$DATA_PROCESSING: WHOLE RMassBank 2.3.1
PK$SPLASH: splash10-0udi-0890000000-9b1e6f7201099a7b273d
PK$NUM_PEAK: 51
PK$PEAK: m/z int. rel.int.
  51.0227 0.8 18
  77.0385 4.4 102
  79.0534 0.5 11
  89.037 1.2 27
  102.0468 0.5 11
  103.0559 0.7 16
  105.0338 0.9 20
  114.0429 0.6 13
  115.0539 9.8 227
  116.0488 0.6 13
  127.0551 0.7 16
  128.0517 0.5 11
  130.0648 1.3 30
  135.044 1.5 34
  139.0522 0.8 18
  140.0481 0.9 20
  141.0563 0.7 16
  142.0652 1.1 25
  149.0246 0.4 9
  150.0495 1.3 30
  151.0539 4.5 104
  152.0599 1.4 32
  163.0533 1.2 27
  164.0621 1.1 25
  165.0698 1 23
  166.0627 0.8 18
  167.071 1.9 44
  168.072 2.2 51
  169.0737 3.1 72
  175.0545 0.9 20
  176.0624 8.6 199
  177.0625 4.4 102
  178.0666 2.8 65
  180.0821 0.5 11
  187.053 1 23
  188.0618 1 23
  189.0695 2.5 58
  190.0656 3 69
  191.0722 3.9 90
  192.0787 1.3 30
  201.0572 0.5 11
  202.0654 3.8 88
  203.0728 16.2 376
  204.0806 43 999
  205.0842 1.6 37
  214.0669 2.3 53
  215.0746 1.5 34
  216.0779 1.1 25
  217.0886 0.8 18
  232.0798 1.5 34
  233.0819 0.5 11
//
