ACCESSION: MSBNK-BAFG-CSL23110917151
RECORD_TITLE: Cyprodinil; LC-ESI-QTOF; MS2; 130 V
DATE: 2023.11.09
AUTHORS: Kevin S. Jewell; Björn Ehlig; Arne Wick
LICENSE: dl-de/by-2-0
COPYRIGHT: Copyright 2023 Federal Institute of Hydrology, Koblenz, Germany
COMMENT: CONFIDENCE Reference Standard (Level 1)
COMMENT: Chromatography method: dx.doi.org/10.1016/j.chroma.2015.11.014
COMMENT: Acquisition method: 10.1002/rcm.8541
CH$NAME: Cyprodinil
CH$COMPOUND_CLASS: Fungicide
CH$FORMULA: C14H15N3
CH$EXACT_MASS: 225.1266
CH$SMILES: CC1=CC(=NC(=N1)NC2=CC=CC=C2)C3CC3
CH$IUPAC: InChI=1S/C14H15N3/c1-10-9-13(11-7-8-11)17-14(15-10)16-12-5-3-2-4-6-12/h2-6,9,11H,7-8H2,1H3,(H,15,16,17)
CH$LINK: CAS 121552-61-2
CH$LINK: INCHIKEY HAORKNGNJCEJBX-UHFFFAOYSA-N
AC$INSTRUMENT: TripleTOF 6600 SCIEX
AC$INSTRUMENT_TYPE: LC-ESI-QTOF
AC$MASS_SPECTROMETRY: MS_TYPE MS2
AC$MASS_SPECTROMETRY: ION_MODE POSITIVE
AC$MASS_SPECTROMETRY: COLLISION_ENERGY 130
AC$MASS_SPECTROMETRY: FRAGMENTATION_MODE CID
AC$MASS_SPECTROMETRY: IONIZATION ESI
AC$CHROMATOGRAPHY: COLUMN_NAME Zorbax Eclipse Plus C18 2.1 mm x 150 mm, 3.5 um, Agilent
AC$CHROMATOGRAPHY: COLUMN_TEMPERATURE 40 °C
AC$CHROMATOGRAPHY: FLOW_GRADIENT 0 min min 98% A, 1 min 98% A, 2 min 80% A, 16.5 min 2% A, 22 min 2% A, 22.1 min 98% A, 27 min 98% A
AC$CHROMATOGRAPHY: FLOW_RATE 0.3 mL/min
AC$CHROMATOGRAPHY: RETENTION_TIME 10.83 min
AC$CHROMATOGRAPHY: SOLVENT A: Water 0.1% Formic acid, B: Acetonitrile 0.1% Formic acid
MS$FOCUSED_ION: PRECURSOR_M/Z 226.1339
MS$FOCUSED_ION: PRECURSOR_TYPE [M+H]+
MS$DATA_PROCESSING: COMMENT Export with Spectra 1.9.12 MsBackendMassbank 1.7.4
MS$DATA_PROCESSING: WHOLE RMassBank 2.3.1
PK$SPLASH: splash10-0udi-9000000000-a76cf82c269f1fceb46b
PK$NUM_PEAK: 43
PK$PEAK: m/z int. rel.int.
  35.9994 1.2 34
  37.0073 7.2 205
  38.0031 0.5 14
  38.0153 6.5 185
  39.0232 16.8 479
  40.0179 0.8 22
  41.0261 1.3 37
  41.0385 0.9 25
  42.0341 3.9 111
  47.9996 0.5 14
  49.0072 7.7 219
  50.0152 35 999
  51.023 30 856
  52.018 2.6 74
  52.0304 0.6 17
  53.0125 0.6 17
  53.0383 1 28
  54.0333 1.2 34
  61.007 2.9 82
  62.015 4.8 137
  63.0227 6.5 185
  64.0182 1.1 31
  64.0304 0.6 17
  65.0258 0.5 14
  65.0383 3.9 111
  66.0331 0.8 22
  66.0463 0.7 19
  67.0283 1 28
  67.0401 0.6 17
  73.007 0.8 22
  74.0149 4.5 128
  75.0102 0.6 17
  75.0225 1.6 45
  76.018 1.1 31
  77.0385 2.5 71
  78.033 0.6 17
  80.0483 0.8 22
  86.0152 0.6 17
  87.0216 0.6 17
  89.0378 0.8 22
  92.049 1 28
  98.0156 0.7 19
  113.0401 1.2 34
//
