ACCESSION: MSBNK-BAFG-CSL2310268945
RECORD_TITLE: Acetylsulfamethoxazole; LC-ESI-QTOF; MS2; 90 V
DATE: 2023.10.26
AUTHORS: Kevin S. Jewell; Björn Ehlig; Arne Wick
LICENSE: dl-de/by-2-0
COPYRIGHT: Copyright 2023 Federal Institute of Hydrology, Koblenz, Germany
COMMENT: CONFIDENCE Reference Standard (Level 1)
COMMENT: Chromatography method: dx.doi.org/10.1016/j.chroma.2015.11.014
COMMENT: Acquisition method: 10.1002/rcm.8541
CH$NAME: Acetylsulfamethoxazole
CH$COMPOUND_CLASS: Metabolite; Pharmaceutical
CH$FORMULA: C12H13N3O4S
CH$EXACT_MASS: 295.0627
CH$SMILES: CC1=CC(=NO1)NS(=O)(=O)C2=CC=C(C=C2)NC(=O)C
CH$IUPAC: InChI=1S/C12H13N3O4S/c1-8-7-12(14-19-8)15-20(17,18)11-5-3-10(4-6-11)13-9(2)16/h3-7H,1-2H3,(H,13,16)(H,14,15)
CH$LINK: CAS 21312-10-7
CH$LINK: INCHIKEY GXPIUNZCALHVBA-UHFFFAOYSA-N
AC$INSTRUMENT: TripleTOF 5600 SCIEX
AC$INSTRUMENT_TYPE: LC-ESI-QTOF
AC$MASS_SPECTROMETRY: MS_TYPE MS2
AC$MASS_SPECTROMETRY: ION_MODE POSITIVE
AC$MASS_SPECTROMETRY: COLLISION_ENERGY 90
AC$MASS_SPECTROMETRY: FRAGMENTATION_MODE CID
AC$MASS_SPECTROMETRY: IONIZATION ESI
AC$CHROMATOGRAPHY: COLUMN_NAME Zorbax Eclipse Plus C18 2.1 mm x 150 mm, 3.5 um, Agilent
AC$CHROMATOGRAPHY: COLUMN_TEMPERATURE 40 °C
AC$CHROMATOGRAPHY: FLOW_GRADIENT 0 min min 98% A, 1 min 98% A, 2 min 80% A, 16.5 min 2% A, 22 min 2% A, 22.1 min 98% A, 27 min 98% A
AC$CHROMATOGRAPHY: FLOW_RATE 0.3 mL/min
AC$CHROMATOGRAPHY: RETENTION_TIME 7.411 min
AC$CHROMATOGRAPHY: SOLVENT A: Water 0.1% Formic acid, B: Acetonitrile 0.1% Formic acid
MS$FOCUSED_ION: PRECURSOR_M/Z 296.07
MS$FOCUSED_ION: PRECURSOR_TYPE [M+H]+
MS$DATA_PROCESSING: COMMENT Export with Spectra 1.9.12 MsBackendMassbank 1.7.4
MS$DATA_PROCESSING: WHOLE RMassBank 2.3.1
PK$SPLASH: splash10-014i-9100000000-ed69973bab199268d3ae
PK$NUM_PEAK: 19
PK$PEAK: m/z int. rel.int.
  43.0289 1.2 63
  43.0366 0.8 42
  65.0456 18.8 999
  66.0536 0.6 31
  77.0435 4.9 260
  78.0371 1.3 69
  79.0574 0.7 37
  80.0542 8.3 441
  91.0446 0.8 42
  92.0549 2.9 154
  93.0598 2.7 143
  94.0676 0.5 26
  102.0337 0.5 26
  104.0495 0.6 31
  106.0663 0.4 21
  107.0618 0.4 21
  108.0456 2.2 116
  119.0616 0.5 26
  146.0736 0.5 26
//
