ACCESSION: MSBNK-BAFG-CSL2310251285
RECORD_TITLE: 4-Hydroxytrimethoprim; LC-ESI-QTOF; MS2; 100 V
DATE: 2023.10.25
AUTHORS: Kevin S. Jewell; Björn Ehlig; Arne Wick
LICENSE: dl-de/by-2-0
COPYRIGHT: Copyright 2023 Federal Institute of Hydrology, Koblenz, Germany
COMMENT: CONFIDENCE Reference Standard (Level 1)
COMMENT: Chromatography method: dx.doi.org/10.1016/j.chroma.2015.11.014
COMMENT: Acquisition method: 10.1002/rcm.8541
CH$NAME: 4-Hydroxytrimethoprim
CH$COMPOUND_CLASS: Pharmaceutical; Transformation_product
CH$FORMULA: C14H18N4O4
CH$EXACT_MASS: 306.1328
CH$SMILES: COc1cc(cc(c1OC)OC)Cc2c(nc(nc2O)N)N
CH$IUPAC: InChI=1S/C14H18N4O4/c1-20-9-5-7(6-10(21-2)11(9)22-3)4-8-12(15)17-14(16)18-13(8)19/h5-6H,4H2,1-3H3,(H5,15,16,17,18,19)
CH$LINK: CAS 112678-48-5
CH$LINK: INCHIKEY FYJKTYLNKCUCLP-UHFFFAOYSA-N
AC$INSTRUMENT: TripleTOF 5600 SCIEX
AC$INSTRUMENT_TYPE: LC-ESI-QTOF
AC$MASS_SPECTROMETRY: MS_TYPE MS2
AC$MASS_SPECTROMETRY: ION_MODE NEGATIVE
AC$MASS_SPECTROMETRY: COLLISION_ENERGY 100
AC$MASS_SPECTROMETRY: FRAGMENTATION_MODE CID
AC$MASS_SPECTROMETRY: IONIZATION ESI
AC$CHROMATOGRAPHY: COLUMN_NAME Zorbax Eclipse Plus C18 2.1 mm x 150 mm, 3.5 um, Agilent
AC$CHROMATOGRAPHY: COLUMN_TEMPERATURE 40 °C
AC$CHROMATOGRAPHY: FLOW_GRADIENT 0 min min 98% A, 1 min 98% A, 2 min 80% A, 16.5 min 2% A, 22 min 2% A, 22.1 min 98% A, 27 min 98% A
AC$CHROMATOGRAPHY: FLOW_RATE 0.3 mL/min
AC$CHROMATOGRAPHY: RETENTION_TIME 5.43 min
AC$CHROMATOGRAPHY: SOLVENT A: Water 0.1% Formic acid, B: Acetonitrile 0.1% Formic acid
MS$FOCUSED_ION: PRECURSOR_M/Z 305.1255
MS$FOCUSED_ION: PRECURSOR_TYPE [M-H]-
MS$DATA_PROCESSING: COMMENT Export with Spectra 1.9.12 MsBackendMassbank 1.7.4
MS$DATA_PROCESSING: WHOLE RMassBank 2.3.1
PK$SPLASH: splash10-00kf-8900000000-d40615ed6f88f2b3fb49
PK$NUM_PEAK: 39
PK$PEAK: m/z int. rel.int.
  40.0106 0.3 149
  41.0175 2 999
  41.0307 0.1 49
  41.0444 0.1 49
  42.0006 1.3 649
  42.0182 0.2 99
  50.0034 0.2 99
  52.0196 0.2 99
  65.9988 0.2 99
  66.0108 0.7 349
  76.0204 0.3 149
  90.0373 0.1 49
  91.0186 0.1 49
  91.0284 0.4 199
  93.0351 0.1 49
  103.028 0.2 99
  106.0303 0.1 49
  108.0274 0.1 49
  115.0407 0.2 99
  118.0321 1.6 799
  119.0138 0.3 149
  129.024 0.1 49
  131.0215 0.1 49
  131.0352 0.5 249
  131.0499 0.1 49
  132.0572 0.2 99
  133.0415 0.2 99
  134.0234 0.3 149
  143.0248 0.3 149
  146.0214 0.6 299
  148.0153 0.1 49
  158.0217 0.2 99
  160.0199 0.1 49
  160.0378 0.2 99
  170.0377 0.3 149
  171.0191 0.2 99
  174.0205 0.2 99
  188.0194 0.3 149
  215.0255 0.1 49
//
