ACCESSION: MSBNK-BAFG-CSL2310265790
RECORD_TITLE: Baclofen; LC-ESI-QTOF; MS2; 60 V
DATE: 2023.10.26
AUTHORS: Kevin S. Jewell; Björn Ehlig; Arne Wick
LICENSE: dl-de/by-2-0
COPYRIGHT: Copyright 2023 Federal Institute of Hydrology, Koblenz, Germany
COMMENT: CONFIDENCE Reference Standard (Level 1)
COMMENT: Chromatography method: dx.doi.org/10.1016/j.chroma.2015.11.014
COMMENT: Acquisition method: 10.1002/rcm.8541
CH$NAME: Baclofen
CH$COMPOUND_CLASS: Pharmaceutical
CH$FORMULA: C10H12ClNO2
CH$EXACT_MASS: 213.0557
CH$SMILES: NCC(CC(O)=O)c1ccc(Cl)cc1
CH$IUPAC: InChI=1S/C10H12ClNO2/c11-9-3-1-7(2-4-9)8(6-12)5-10(13)14/h1-4,8H,5-6,12H2,(H,13,14)
CH$LINK: CAS 1134-47-0
CH$LINK: INCHIKEY KPYSYYIEGFHWSV-UHFFFAOYSA-N
AC$INSTRUMENT: TripleTOF 5600 SCIEX
AC$INSTRUMENT_TYPE: LC-ESI-QTOF
AC$MASS_SPECTROMETRY: MS_TYPE MS2
AC$MASS_SPECTROMETRY: ION_MODE POSITIVE
AC$MASS_SPECTROMETRY: COLLISION_ENERGY 60
AC$MASS_SPECTROMETRY: FRAGMENTATION_MODE CID
AC$MASS_SPECTROMETRY: IONIZATION ESI
AC$CHROMATOGRAPHY: COLUMN_NAME Zorbax Eclipse Plus C18 2.1 mm x 150 mm, 3.5 um, Agilent
AC$CHROMATOGRAPHY: COLUMN_TEMPERATURE 40 °C
AC$CHROMATOGRAPHY: FLOW_GRADIENT 0 min min 98% A, 1 min 98% A, 2 min 80% A, 16.5 min 2% A, 22 min 2% A, 22.1 min 98% A, 27 min 98% A
AC$CHROMATOGRAPHY: FLOW_RATE 0.3 mL/min
AC$CHROMATOGRAPHY: RETENTION_TIME 5.336 min
AC$CHROMATOGRAPHY: SOLVENT A: Water 0.1% Formic acid, B: Acetonitrile 0.1% Formic acid
MS$FOCUSED_ION: PRECURSOR_M/Z 214.0629
MS$FOCUSED_ION: PRECURSOR_TYPE [M+H]+
MS$DATA_PROCESSING: COMMENT Export with Spectra 1.9.12 MsBackendMassbank 1.7.4
MS$DATA_PROCESSING: WHOLE RMassBank 2.3.1
PK$SPLASH: splash10-014i-2900000000-2dca27323db158a03c74
PK$NUM_PEAK: 20
PK$PEAK: m/z int. rel.int.
  51.0287 5.1 37
  65.0424 5.2 38
  75.0251 2.2 16
  77.0414 22.8 169
  89.0399 16 119
  90.0484 1.6 11
  91.0556 6.5 48
  99.0011 2.3 17
  101.0395 3.8 28
  102.0468 4.6 34
  115.0551 134.3 999
  116.0625 65.6 487
  117.0571 1.7 12
  118.0649 9.5 70
  119.0725 2.5 18
  125.015 11.2 83
  126.0472 2.1 15
  143.0732 1.6 11
  144.0568 3.6 26
  149.0146 2.3 17
//
