ACCESSION: MSBNK-BAFG-CSL2310303304
RECORD_TITLE: Flubendazole; LC-ESI-QTOF; MS2; 80 V
DATE: 2023.10.30
AUTHORS: Kevin S. Jewell; Björn Ehlig; Arne Wick
LICENSE: dl-de/by-2-0
COPYRIGHT: Copyright 2023 Federal Institute of Hydrology, Koblenz, Germany
COMMENT: CONFIDENCE Reference Standard (Level 1)
COMMENT: Chromatography method: dx.doi.org/10.1016/j.chroma.2015.11.014
COMMENT: Acquisition method: 10.1002/rcm.8541
CH$NAME: Flubendazole
CH$COMPOUND_CLASS: Pharmaceutical
CH$FORMULA: C16H12FN3O3
CH$EXACT_MASS: 313.0863
CH$SMILES: COC(=O)Nc1[nH]c2cc(ccc2n1)C(=O)c3ccc(F)cc3
CH$IUPAC: InChI=1S/C16H12FN3O3/c1-23-16(22)20-15-18-12-7-4-10(8-13(12)19-15)14(21)9-2-5-11(17)6-3-9/h2-8H,1H3,(H2,18,19,20,22)
CH$LINK: CAS 31430-15-6
CH$LINK: INCHIKEY CPEUVMUXAHMANV-UHFFFAOYSA-N
AC$INSTRUMENT: TripleTOF 5600 SCIEX
AC$INSTRUMENT_TYPE: LC-ESI-QTOF
AC$MASS_SPECTROMETRY: MS_TYPE MS2
AC$MASS_SPECTROMETRY: ION_MODE POSITIVE
AC$MASS_SPECTROMETRY: COLLISION_ENERGY 80
AC$MASS_SPECTROMETRY: FRAGMENTATION_MODE CID
AC$MASS_SPECTROMETRY: IONIZATION ESI
AC$CHROMATOGRAPHY: COLUMN_NAME Zorbax Eclipse Plus C18 2.1 mm x 150 mm, 3.5 um, Agilent
AC$CHROMATOGRAPHY: COLUMN_TEMPERATURE 40 °C
AC$CHROMATOGRAPHY: FLOW_GRADIENT 0 min min 98% A, 1 min 98% A, 2 min 80% A, 16.5 min 2% A, 22 min 2% A, 22.1 min 98% A, 27 min 98% A
AC$CHROMATOGRAPHY: FLOW_RATE 0.3 mL/min
AC$CHROMATOGRAPHY: RETENTION_TIME 9.113 min
AC$CHROMATOGRAPHY: SOLVENT A: Water 0.1% Formic acid, B: Acetonitrile 0.1% Formic acid
MS$FOCUSED_ION: PRECURSOR_M/Z 314.0935
MS$FOCUSED_ION: PRECURSOR_TYPE [M+H]+
MS$DATA_PROCESSING: COMMENT Export with Spectra 1.9.12 MsBackendMassbank 1.7.4
MS$DATA_PROCESSING: WHOLE RMassBank 2.3.1
PK$SPLASH: splash10-0002-9300000000-bbd304ffdeb8b3407317
PK$NUM_PEAK: 19
PK$PEAK: m/z int. rel.int.
  73.0103 3.4 12
  74.0184 33.8 125
  75.0265 95.9 357
  76.0211 4.7 17
  77.0283 15.9 59
  78.0364 4.2 15
  95.0311 268.2 999
  103.0289 4.1 15
  104.0369 28.4 105
  105.0448 20.7 77
  123.0273 45.9 170
  130.0399 12.8 47
  131.0475 17.2 64
  132.0551 6.4 23
  133.0448 2.8 10
  157.0447 5.7 21
  158.0387 8.3 30
  159.0417 14.1 52
  184.054 5.8 21
//
