ACCESSION: MSBNK-BAFG-CSL2310302350
RECORD_TITLE: Eprosartan; LC-ESI-QTOF; MS2; 60 V
DATE: 2023.10.30
AUTHORS: Kevin S. Jewell; Björn Ehlig; Arne Wick
LICENSE: dl-de/by-2-0
COPYRIGHT: Copyright 2023 Federal Institute of Hydrology, Koblenz, Germany
COMMENT: CONFIDENCE Reference Standard (Level 1)
COMMENT: Chromatography method: dx.doi.org/10.1016/j.chroma.2015.11.014
COMMENT: Acquisition method: 10.1002/rcm.8541
CH$NAME: Eprosartan
CH$COMPOUND_CLASS: Pharmaceutical
CH$FORMULA: C23H24N2O4S
CH$EXACT_MASS: 424.1457
CH$SMILES: CCCCc1ncc(\C=C(/Cc2sccc2)C(O)=O)n1Cc3ccc(cc3)C(O)=O
CH$IUPAC: InChI=1S/C23H24N2O4S/c1-2-3-6-21-24-14-19(12-18(23(28)29)13-20-5-4-11-30-20)25(21)15-16-7-9-17(10-8-16)22(26)27/h4-5,7-12,14H,2-3,6,13,15H2,1H3,(H,26,27)(H,28,29)/b18-12+
CH$LINK: CAS 133040-01-4
CH$LINK: INCHIKEY OROAFUQRIXKEMV-LDADJPATSA-N
AC$INSTRUMENT: TripleTOF 5600 SCIEX
AC$INSTRUMENT_TYPE: LC-ESI-QTOF
AC$MASS_SPECTROMETRY: MS_TYPE MS2
AC$MASS_SPECTROMETRY: ION_MODE NEGATIVE
AC$MASS_SPECTROMETRY: COLLISION_ENERGY 60
AC$MASS_SPECTROMETRY: FRAGMENTATION_MODE CID
AC$MASS_SPECTROMETRY: IONIZATION ESI
AC$CHROMATOGRAPHY: COLUMN_NAME Zorbax Eclipse Plus C18 2.1 mm x 150 mm, 3.5 um, Agilent
AC$CHROMATOGRAPHY: COLUMN_TEMPERATURE 40 °C
AC$CHROMATOGRAPHY: FLOW_GRADIENT 0 min min 98% A, 1 min 98% A, 2 min 80% A, 16.5 min 2% A, 22 min 2% A, 22.1 min 98% A, 27 min 98% A
AC$CHROMATOGRAPHY: FLOW_RATE 0.3 mL/min
AC$CHROMATOGRAPHY: RETENTION_TIME 6.955 min
AC$CHROMATOGRAPHY: SOLVENT A: Water 0.1% Formic acid, B: Acetonitrile 0.1% Formic acid
MS$FOCUSED_ION: PRECURSOR_M/Z 423.1384
MS$FOCUSED_ION: PRECURSOR_TYPE [M-H]-
MS$DATA_PROCESSING: COMMENT Export with Spectra 1.9.12 MsBackendMassbank 1.7.4
MS$DATA_PROCESSING: WHOLE RMassBank 2.3.1
PK$SPLASH: splash10-014j-4590000000-ea83e52bea9960c01412
PK$NUM_PEAK: 25
PK$PEAK: m/z int. rel.int.
  77.0378 0.3 74
  82.9959 1.5 374
  91.0554 0.3 74
  93.0475 0.2 49
  96.0043 0.6 149
  97.0119 1.2 299
  121.0292 0.6 149
  123.0925 0.8 199
  135.0476 0.3 74
  148.021 0.2 49
  160.0172 0.3 74
  165.075 0.6 149
  167.0632 0.3 74
  180.0716 0.5 124
  181.077 0.6 149
  198.0437 0.2 49
  199.0488 0.2 49
  199.0682 0.3 74
  200.0388 0.3 74
  201.0489 1.2 299
  215.0663 4 999
  243.1005 0.3 74
  244.0999 0.4 99
  245.1116 1.9 474
  291.096 0.3 74
//
