ACCESSION: MSBNK-BAFG-CSL25010610820
RECORD_TITLE: 1-(2,6-Dichlorophenyl)-2-indolinone; LC-ESI-QTOF; MS2; 40 V
DATE: 2025.01.06
AUTHORS: Ole Lessmann; Kevin S. Jewell; Björn Ehlig; Arne Wick
LICENSE: dl-de/by-2-0
COPYRIGHT: Copyright 2025 Federal Institute of Hydrology, Koblenz, Germany
COMMENT: CONFIDENCE Reference Standard (Level 1)
COMMENT: Chromatography method: dx.doi.org/10.1016/j.chroma.2015.11.014
COMMENT: Acquisition method: 10.1002/rcm.8541
CH$NAME: 1-(2,6-Dichlorophenyl)-2-indolinone
CH$COMPOUND_CLASS: Pharmaceutical; Transformation_product; Diclofenac-lactam; Transformation_product-Metabolite
CH$FORMULA: C14H9Cl2NO
CH$EXACT_MASS: 277.0061
CH$SMILES: C1C2=CC=CC=C2N(C1=O)C3=C(C=CC=C3Cl)Cl
CH$IUPAC: InChI=1S/C14H9Cl2NO/c15-10-5-3-6-11(16)14(10)17-12-7-2-1-4-9(12)8-13(17)18/h1-7H,8H2
CH$LINK: CAS 15362-40-0
CH$LINK: INCHIKEY JCICIFOYVSPMHG-UHFFFAOYSA-N
AC$INSTRUMENT: TripleTOF 5600 SCIEX
AC$INSTRUMENT_TYPE: LC-ESI-QTOF
AC$MASS_SPECTROMETRY: MS_TYPE MS2
AC$MASS_SPECTROMETRY: ION_MODE POSITIVE
AC$MASS_SPECTROMETRY: COLLISION_ENERGY 40
AC$MASS_SPECTROMETRY: FRAGMENTATION_MODE CID
AC$MASS_SPECTROMETRY: IONIZATION ESI
AC$CHROMATOGRAPHY: COLUMN_NAME Zorbax Eclipse Plus C18 2.1 mm x 150 mm, 3.5 um, Agilent
AC$CHROMATOGRAPHY: COLUMN_TEMPERATURE 40 °C
AC$CHROMATOGRAPHY: FLOW_GRADIENT 0 min min 98% A, 1 min 98% A, 2 min 80% A, 16.5 min 2% A, 22 min 2% A, 22.1 min 98% A, 27 min 98% A
AC$CHROMATOGRAPHY: FLOW_RATE 0.3 mL/min
AC$CHROMATOGRAPHY: RETENTION_TIME 12.191 min
AC$CHROMATOGRAPHY: SOLVENT A: Water 0.1% Formic acid, B: Acetonitrile 0.1% Formic acid
MS$FOCUSED_ION: PRECURSOR_M/Z 278.0134
MS$FOCUSED_ION: PRECURSOR_TYPE [M+H]+
MS$DATA_PROCESSING: COMMENT Export with pycsl 0.1.0.dev1 and CSL 24.4
PK$SPLASH: splash10-03di-0290000000-efe416694a925ba40383
PK$NUM_PEAK: 18
PK$PEAK: m/z int. rel.int.
  77.044 15.9 20
  79.0595 30.5 38
  105.0373 16.6 21
  132.0463 20.9 26
  135.9963 8.6 10
  144.962 10.9 13
  164.0017 9.5 12
  171.9729 134.7 171
  178.0658 13.0 16
  179.0738 27.4 34
  180.0817 93.3 119
  208.0763 165.9 211
  214.0422 782.8 999
  215.0488 58.4 74
  242.0345 8.0 10
  243.0454 23.8 30
  250.0177 18.2 23
  278.014 37.3 47
//