ACCESSION: MSBNK-BAFG-CSL25010634415
RECORD_TITLE: O-tolidine; LC-ESI-QTOF; MS2; 60 V
DATE: 2025.01.06
AUTHORS: Ole Lessmann; Kevin S. Jewell; Björn Ehlig; Arne Wick
LICENSE: dl-de/by-2-0
COPYRIGHT: Copyright 2025 Federal Institute of Hydrology, Koblenz, Germany
COMMENT: CONFIDENCE Reference Standard (Level 1)
COMMENT: Chromatography method: dx.doi.org/10.1016/j.chroma.2015.11.014
COMMENT: Acquisition method: 10.1002/rcm.8541
CH$NAME: O-tolidine
CH$FORMULA: C14H16N2
CH$EXACT_MASS: 212.1313
CH$SMILES: CC1=C(C=CC(=C1)C2=CC(=C(C=C2)N)C)N
CH$IUPAC: InChI=1S/C14H16N2/c1-9-7-11(3-5-13(9)15)12-4-6-14(16)10(2)8-12/h3-8H,15-16H2,1-2H3
CH$LINK: CAS 119-93-7
CH$LINK: INCHIKEY NUIURNJTPRWVAP-UHFFFAOYSA-N
AC$INSTRUMENT: TripleTOF 6600 SCIEX
AC$INSTRUMENT_TYPE: LC-ESI-QTOF
AC$MASS_SPECTROMETRY: MS_TYPE MS2
AC$MASS_SPECTROMETRY: ION_MODE POSITIVE
AC$MASS_SPECTROMETRY: COLLISION_ENERGY 60
AC$MASS_SPECTROMETRY: FRAGMENTATION_MODE CID
AC$MASS_SPECTROMETRY: IONIZATION ESI
AC$CHROMATOGRAPHY: COLUMN_NAME Zorbax Eclipse Plus C18 2.1 mm x 150 mm, 3.5 um, Agilent
AC$CHROMATOGRAPHY: COLUMN_TEMPERATURE 40 °C
AC$CHROMATOGRAPHY: FLOW_GRADIENT 0 min min 98% A, 1 min 98% A, 2 min 80% A, 16.5 min 2% A, 22 min 2% A, 22.1 min 98% A, 27 min 98% A
AC$CHROMATOGRAPHY: FLOW_RATE 0.3 mL/min
AC$CHROMATOGRAPHY: RETENTION_TIME 5.073 min
AC$CHROMATOGRAPHY: SOLVENT A: Water 0.1% Formic acid, B: Acetonitrile 0.1% Formic acid
MS$FOCUSED_ION: PRECURSOR_M/Z 213.1386
MS$FOCUSED_ION: PRECURSOR_TYPE [M+H]+
MS$DATA_PROCESSING: COMMENT Export with pycsl 0.1.0.dev1 and CSL 24.4
PK$SPLASH: splash10-0ue9-0900000000-289a5b2c4f800f294d1f
PK$NUM_PEAK: 39
PK$PEAK: m/z int. rel.int.
  77.0397 1.6 33
  103.0539 0.7 14
  106.0654 2.1 44
  115.0577 2.3 48
  120.0806 0.8 16
  127.0543 2.2 46
  128.0605 1.3 27
  130.0655 1.7 35
  139.0562 1.1 23
  140.0518 1.4 29
  141.073 0.9 18
  151.0539 3.9 82
  152.0634 30.3 637
  153.0703 17.5 368
  154.0696 1.8 37
  155.064 1.1 23
  156.0842 1.3 27
  162.0516 0.5 10
  163.0538 7.6 159
  164.066 0.9 18
  165.0693 6.9 145
  166.0703 0.9 18
  167.0757 0.9 18
  168.08 1.1 23
  169.0884 0.9 18
  170.0974 1.3 27
  176.063 1.3 27
  177.0695 1.2 25
  178.0753 4.7 98
  179.0756 0.9 18
  179.0858 0.6 12
  180.0827 47.5 999
  181.0902 3.1 65
  182.0866 1.6 33
  194.0989 1.0 21
  195.0965 1.5 31
  196.0992 2.4 50
  197.1079 1.3 27
  211.1285 0.5 10
//