ACCESSION: MSBNK-BAFG-CSL25010634139
RECORD_TITLE: 2-isopropyl-5,6-dimethyl-1H-benzimidazole; LC-ESI-QTOF; MS2; 90 V
DATE: 2025.01.06
AUTHORS: Ole Lessmann; Kevin S. Jewell; Björn Ehlig; Arne Wick
LICENSE: dl-de/by-2-0
COPYRIGHT: Copyright 2025 Federal Institute of Hydrology, Koblenz, Germany
COMMENT: CONFIDENCE Reference Standard (Level 1)
COMMENT: Chromatography method: dx.doi.org/10.1016/j.chroma.2015.11.014
COMMENT: Acquisition method: 10.1002/rcm.8541
CH$NAME: 2-isopropyl-5,6-dimethyl-1H-benzimidazole
CH$FORMULA: C12H16N2
CH$EXACT_MASS: 188.1313
CH$SMILES: CC1=CC2=C(C=C1C)N=C(N2)C(C)C
CH$IUPAC: InChI=1S/C12H16N2/c1-7(2)12-13-10-5-8(3)9(4)6-11(10)14-12/h5-7H,1-4H3,(H,13,14)
CH$LINK: CAS 66073-79-8
CH$LINK: INCHIKEY KBNPIBOOPFUXEM-UHFFFAOYSA-N
AC$INSTRUMENT: TripleTOF 6600 SCIEX
AC$INSTRUMENT_TYPE: LC-ESI-QTOF
AC$MASS_SPECTROMETRY: MS_TYPE MS2
AC$MASS_SPECTROMETRY: ION_MODE POSITIVE
AC$MASS_SPECTROMETRY: COLLISION_ENERGY 90
AC$MASS_SPECTROMETRY: FRAGMENTATION_MODE CID
AC$MASS_SPECTROMETRY: IONIZATION ESI
AC$CHROMATOGRAPHY: COLUMN_NAME Zorbax Eclipse Plus C18 2.1 mm x 150 mm, 3.5 um, Agilent
AC$CHROMATOGRAPHY: COLUMN_TEMPERATURE 40 °C
AC$CHROMATOGRAPHY: FLOW_GRADIENT 0 min min 98% A, 1 min 98% A, 2 min 80% A, 16.5 min 2% A, 22 min 2% A, 22.1 min 98% A, 27 min 98% A
AC$CHROMATOGRAPHY: FLOW_RATE 0.3 mL/min
AC$CHROMATOGRAPHY: RETENTION_TIME 6.482 min
AC$CHROMATOGRAPHY: SOLVENT A: Water 0.1% Formic acid, B: Acetonitrile 0.1% Formic acid
MS$FOCUSED_ION: PRECURSOR_M/Z 189.1386
MS$FOCUSED_ION: PRECURSOR_TYPE [M+H]+
MS$DATA_PROCESSING: COMMENT Export with pycsl 0.1.0.dev1 and CSL 24.4
PK$SPLASH: splash10-0fb9-9400000000-56532373d44fb40fd6e3
PK$NUM_PEAK: 42
PK$PEAK: m/z int. rel.int.
  37.0069 5.2 13
  39.0226 30.1 80
  41.0381 7.8 20
  50.0145 31.7 84
  51.0226 149.0 396
  52.0301 6.2 16
  53.0376 5.2 13
  54.0333 4.6 12
  62.014 5.5 14
  63.0219 16.4 43
  65.0377 54.9 146
  74.0134 5.4 14
  75.0214 9.3 24
  76.0289 6.0 15
  77.038 375.3 999
  78.0333 15.1 40
  78.0443 38.7 103
  79.0529 9.1 24
  80.0487 14.3 38
  89.0371 36.8 97
  90.0446 8.0 21
  91.0528 104.6 278
  92.0487 4.8 12
  93.0568 7.7 20
  102.032 14.1 37
  103.0525 21.2 56
  104.048 96.1 255
  105.0448 9.0 23
  106.0634 5.6 14
  115.0411 7.2 19
  116.0484 10.0 26
  117.0556 14.8 39
  118.0631 16.6 44
  129.0468 7.0 18
  130.0629 24.4 64
  131.0587 99.5 264
  132.0652 6.3 16
  142.0507 14.7 39
  145.0734 5.6 14
  155.0585 12.6 33
  156.0678 6.2 16
  157.0744 99.8 265
//