ACCESSION: MSBNK-BAFG-CSL25010634330
RECORD_TITLE: N-Isopropyl-N'-phenyl-p-phenylenediamine; LC-ESI-QTOF; MS2; 80 V
DATE: 2025.01.06
AUTHORS: Ole Lessmann; Kevin S. Jewell; Björn Ehlig; Arne Wick
LICENSE: dl-de/by-2-0
COPYRIGHT: Copyright 2025 Federal Institute of Hydrology, Koblenz, Germany
COMMENT: CONFIDENCE Reference Standard (Level 1)
COMMENT: Chromatography method: dx.doi.org/10.1016/j.chroma.2015.11.014
COMMENT: Acquisition method: 10.1002/rcm.8541
CH$NAME: N-Isopropyl-N'-phenyl-p-phenylenediamine
CH$COMPOUND_CLASS: Industrial_process
CH$FORMULA: C15H18N2
CH$EXACT_MASS: 226.147
CH$SMILES: CC(C)Nc1ccc(cc1)Nc2ccccc2
CH$IUPAC: InChI=1S/C15H18N2/c1-12(2)16-14-8-10-15(11-9-14)17-13-6-4-3-5-7-13/h3-12,16-17H,1-2H3
CH$LINK: CAS 101-72-4
CH$LINK: INCHIKEY OUBMGJOQLXMSNT-UHFFFAOYSA-N
AC$INSTRUMENT: TripleTOF 6600 SCIEX
AC$INSTRUMENT_TYPE: LC-ESI-QTOF
AC$MASS_SPECTROMETRY: MS_TYPE MS2
AC$MASS_SPECTROMETRY: ION_MODE POSITIVE
AC$MASS_SPECTROMETRY: COLLISION_ENERGY 80
AC$MASS_SPECTROMETRY: FRAGMENTATION_MODE CID
AC$MASS_SPECTROMETRY: IONIZATION ESI
AC$CHROMATOGRAPHY: COLUMN_NAME Zorbax Eclipse Plus C18 2.1 mm x 150 mm, 3.5 um, Agilent
AC$CHROMATOGRAPHY: COLUMN_TEMPERATURE 40 °C
AC$CHROMATOGRAPHY: FLOW_GRADIENT 0 min min 98% A, 1 min 98% A, 2 min 80% A, 16.5 min 2% A, 22 min 2% A, 22.1 min 98% A, 27 min 98% A
AC$CHROMATOGRAPHY: FLOW_RATE 0.3 mL/min
AC$CHROMATOGRAPHY: RETENTION_TIME 7.24 min
AC$CHROMATOGRAPHY: SOLVENT A: Water 0.1% Formic acid, B: Acetonitrile 0.1% Formic acid
MS$FOCUSED_ION: PRECURSOR_M/Z 227.1543
MS$FOCUSED_ION: PRECURSOR_TYPE [M+H]+
MS$DATA_PROCESSING: COMMENT Export with pycsl 0.1.0.dev1 and CSL 24.4
PK$SPLASH: splash10-001i-9600000000-cacc96ca7354d486af7f
PK$NUM_PEAK: 40
PK$PEAK: m/z int. rel.int.
  39.0227 7.1 26
  51.0225 8.0 29
  53.0381 46.4 173
  54.033 2.7 10
  63.0223 17.1 63
  65.0373 15.2 56
  66.0454 11.0 41
  77.0375 19.3 72
  78.0327 8.5 31
  79.0398 3.0 11
  80.0487 267.0 999
  89.037 8.9 33
  90.0333 13.2 49
  91.0401 9.9 37
  92.0488 5.7 21
  93.0557 8.3 31
  105.0437 5.8 21
  106.0527 3.5 13
  107.0593 79.2 296
  113.0369 5.1 19
  114.045 3.4 12
  115.0529 13.5 50
  116.0486 3.6 13
  117.0552 5.4 20
  118.0526 4.0 14
  127.0515 9.2 34
  128.0486 4.9 18
  128.0598 12.3 46
  129.0666 4.8 17
  130.0632 5.0 18
  139.0525 33.1 123
  140.0483 27.0 101
  141.0564 2.7 10
  154.0638 17.1 63
  156.0768 3.0 11
  166.0637 21.7 81
  167.0704 19.8 74
  168.0726 8.5 31
  181.0728 17.3 64
  182.0827 6.4 23
//