ACCESSION: MSBNK-BAFG-CSL25010627973
RECORD_TITLE: Alizarin; LC-ESI-QTOF; MS2; 30 V
DATE: 2025.01.06
AUTHORS: Ole Lessmann; Kevin S. Jewell; Björn Ehlig; Arne Wick
LICENSE: dl-de/by-2-0
COPYRIGHT: Copyright 2025 Federal Institute of Hydrology, Koblenz, Germany
COMMENT: CONFIDENCE Reference Standard (Level 1)
COMMENT: Chromatography method: dx.doi.org/10.1016/j.chroma.2015.11.014
COMMENT: Acquisition method: 10.1002/rcm.8541
CH$NAME: Alizarin
CH$FORMULA: C14H8O4
CH$EXACT_MASS: 240.0423
CH$SMILES: C1=CC=C2C(=C1)C(=O)C3=C(C2=O)C(=C(C=C3)O)O
CH$IUPAC: InChI=1S/C14H8O4/c15-10-6-5-9-11(14(10)18)13(17)8-4-2-1-3-7(8)12(9)16/h1-6,15,18H
CH$LINK: CAS 72-48-0
CH$LINK: INCHIKEY RGCKGOZRHPZPFP-UHFFFAOYSA-N
AC$INSTRUMENT: TripleTOF X500R SCIEX
AC$INSTRUMENT_TYPE: LC-ESI-QTOF
AC$MASS_SPECTROMETRY: MS_TYPE MS2
AC$MASS_SPECTROMETRY: ION_MODE POSITIVE
AC$MASS_SPECTROMETRY: COLLISION_ENERGY 30
AC$MASS_SPECTROMETRY: FRAGMENTATION_MODE CID
AC$MASS_SPECTROMETRY: IONIZATION ESI
AC$CHROMATOGRAPHY: COLUMN_NAME Zorbax Eclipse Plus C18 2.1 mm x 150 mm, 3.5 um, Agilent
AC$CHROMATOGRAPHY: COLUMN_TEMPERATURE 40 °C
AC$CHROMATOGRAPHY: FLOW_GRADIENT 0 min min 98% A, 1 min 98% A, 2 min 80% A, 16.5 min 2% A, 22 min 2% A, 22.1 min 98% A, 27 min 98% A
AC$CHROMATOGRAPHY: FLOW_RATE 0.3 mL/min
AC$CHROMATOGRAPHY: RETENTION_TIME 10.763 min
AC$CHROMATOGRAPHY: SOLVENT A: Water 0.1% Formic acid, B: Acetonitrile 0.1% Formic acid
MS$FOCUSED_ION: PRECURSOR_M/Z 241.0496
MS$FOCUSED_ION: PRECURSOR_TYPE [M+H]+
MS$DATA_PROCESSING: COMMENT Export with pycsl 0.1.0.dev1 and CSL 24.4
PK$SPLASH: splash10-052o-0950000000-de2bea333bc664c78546
PK$NUM_PEAK: 17
PK$PEAK: m/z int. rel.int.
  105.0364 0.7 15
  107.0144 0.7 15
  115.0562 0.9 20
  119.0168 0.6 13
  127.0548 0.8 18
  128.0632 4.2 94
  129.0705 9.6 216
  137.0264 0.5 11
  139.0548 7.8 175
  141.0708 0.8 18
  157.0655 26.1 588
  167.0492 9.1 205
  185.0607 25.4 572
  195.0219 0.6 13
  195.0442 10.1 227
  213.0549 17.5 394
  241.0499 44.3 999
//