ACCESSION: MSBNK-BAFG-CSL23102511527
RECORD_TITLE: 2-(1,3-Dioxan-2-yl)ethyltriphenylphosphonium; LC-ESI-QTOF; MS2; 60 V
DATE: 2023.10.25
AUTHORS: Kevin S. Jewell; Björn Ehlig; Arne Wick
LICENSE: dl-de/by-2-0
COPYRIGHT: Copyright 2023 Federal Institute of Hydrology, Koblenz, Germany
COMMENT: CONFIDENCE Reference Standard (Level 1)
COMMENT: Chromatography method: dx.doi.org/10.1016/j.chroma.2015.11.014
COMMENT: Acquisition method: 10.1002/rcm.8541
CH$NAME: 2-(1,3-Dioxan-2-yl)ethyltriphenylphosphonium
CH$FORMULA: C24H26O2P
CH$EXACT_MASS: 377.1665
CH$SMILES: C1COC(OC1)CC[P+](C2=CC=CC=C2)(C3=CC=CC=C3)C4=CC=CC=C4
CH$IUPAC: InChI=1S/C24H26O2P/c1-4-11-21(12-5-1)27(22-13-6-2-7-14-22,23-15-8-3-9-16-23)20-17-24-25-18-10-19-26-24/h1-9,11-16,24H,10,17-20H2/q+1
CH$LINK: CAS 69891-92-5
CH$LINK: INCHIKEY MQHXAEFTZWVNDN-UHFFFAOYSA-N
AC$INSTRUMENT: TripleTOF 5600 SCIEX
AC$INSTRUMENT_TYPE: LC-ESI-QTOF
AC$MASS_SPECTROMETRY: MS_TYPE MS2
AC$MASS_SPECTROMETRY: ION_MODE POSITIVE
AC$MASS_SPECTROMETRY: COLLISION_ENERGY 60
AC$MASS_SPECTROMETRY: FRAGMENTATION_MODE CID
AC$MASS_SPECTROMETRY: IONIZATION ESI
AC$CHROMATOGRAPHY: COLUMN_NAME Zorbax Eclipse Plus C18 2.1 mm x 150 mm, 3.5 um, Agilent
AC$CHROMATOGRAPHY: COLUMN_TEMPERATURE 40 °C
AC$CHROMATOGRAPHY: FLOW_GRADIENT 0 min min 98% A, 1 min 98% A, 2 min 80% A, 16.5 min 2% A, 22 min 2% A, 22.1 min 98% A, 27 min 98% A
AC$CHROMATOGRAPHY: FLOW_RATE 0.3 mL/min
AC$CHROMATOGRAPHY: RETENTION_TIME 7.976 min
AC$CHROMATOGRAPHY: SOLVENT A: Water 0.1% Formic acid, B: Acetonitrile 0.1% Formic acid
MS$FOCUSED_ION: PRECURSOR_M/Z 377.1665
MS$FOCUSED_ION: PRECURSOR_TYPE [M]+
MS$DATA_PROCESSING: COMMENT Export with Spectra 1.9.12 MsBackendMassbank 1.7.4
MS$DATA_PROCESSING: WHOLE RMassBank 2.3.1
PK$SPLASH: splash10-03yi-1795000000-19b89406f9aa8da241c2
PK$NUM_PEAK: 15
PK$PEAK: m/z int. rel.int.
  87.0427 41.6 273
  107.0031 19.4 127
  108.011 53 348
  183.0362 115.2 756
  184.0441 62.1 407
  185.052 36.5 239
  261.0831 86.7 569
  262.0909 120.1 788
  263.0983 29.1 191
  275.0994 51.6 338
  289.1135 21.1 138
  291.1307 31.1 204
  301.1143 27.3 179
  319.1248 152.1 999
  377.1661 41.4 271
//
