ACCESSION: MSBNK-BAFG-CSL25010634238
RECORD_TITLE: 4,4`-Thiodianiline; LC-ESI-QTOF; MS2; 120 V
DATE: 2025.01.06
AUTHORS: Ole Lessmann; Kevin S. Jewell; Björn Ehlig; Arne Wick
LICENSE: dl-de/by-2-0
COPYRIGHT: Copyright 2025 Federal Institute of Hydrology, Koblenz, Germany
COMMENT: CONFIDENCE Reference Standard (Level 1)
COMMENT: Chromatography method: dx.doi.org/10.1016/j.chroma.2015.11.014
COMMENT: Acquisition method: 10.1002/rcm.8541
CH$NAME: 4,4`-Thiodianiline
CH$FORMULA: C12H12N2S
CH$EXACT_MASS: 216.0721
CH$SMILES: C1=CC(=CC=C1N)SC2=CC=C(C=C2)N
CH$IUPAC: InChI=1S/C12H12N2S/c13-9-1-5-11(6-2-9)15-12-7-3-10(14)4-8-12/h1-8H,13-14H2
CH$LINK: CAS 139-65-1
CH$LINK: INCHIKEY ICNFHJVPAJKPHW-UHFFFAOYSA-N
AC$INSTRUMENT: TripleTOF 6600 SCIEX
AC$INSTRUMENT_TYPE: LC-ESI-QTOF
AC$MASS_SPECTROMETRY: MS_TYPE MS2
AC$MASS_SPECTROMETRY: ION_MODE POSITIVE
AC$MASS_SPECTROMETRY: COLLISION_ENERGY 120
AC$MASS_SPECTROMETRY: FRAGMENTATION_MODE CID
AC$MASS_SPECTROMETRY: IONIZATION ESI
AC$CHROMATOGRAPHY: COLUMN_NAME Zorbax Eclipse Plus C18 2.1 mm x 150 mm, 3.5 um, Agilent
AC$CHROMATOGRAPHY: COLUMN_TEMPERATURE 40 °C
AC$CHROMATOGRAPHY: FLOW_GRADIENT 0 min min 98% A, 1 min 98% A, 2 min 80% A, 16.5 min 2% A, 22 min 2% A, 22.1 min 98% A, 27 min 98% A
AC$CHROMATOGRAPHY: FLOW_RATE 0.3 mL/min
AC$CHROMATOGRAPHY: RETENTION_TIME 6.429 min
AC$CHROMATOGRAPHY: SOLVENT A: Water 0.1% Formic acid, B: Acetonitrile 0.1% Formic acid
MS$FOCUSED_ION: PRECURSOR_M/Z 217.0794
MS$FOCUSED_ION: PRECURSOR_TYPE [M+H]+
MS$DATA_PROCESSING: COMMENT Export with pycsl 0.1.0.dev1 and CSL 24.4
PK$SPLASH: splash10-0w29-9000000000-bb80bee8a7cc53b794fd
PK$NUM_PEAK: 23
PK$PEAK: m/z int. rel.int.
  37.0066 1.0 203
  38.0143 0.6 122
  39.0227 1.6 326
  44.9788 0.5 101
  49.0061 0.7 142
  50.0144 4.9 999
  51.0217 1.1 224
  53.0375 2.0 407
  61.0069 0.8 163
  62.0141 1.9 387
  63.0226 2.3 468
  65.037 0.4 81
  68.9785 2.2 448
  74.0131 2.7 550
  75.0216 0.7 142
  76.0293 0.5 101
  80.0489 0.7 142
  86.0142 0.9 183
  87.0217 0.7 142
  89.0371 0.6 122
  98.0124 0.5 101
  123.0106 0.4 81
  127.0511 0.5 101
//