ACCESSION: MSBNK-BAFG-CSL2501064253
RECORD_TITLE: N-desmethyl-diphenhydramine; LC-ESI-QTOF; MS2; 60 V
DATE: 2025.01.06
AUTHORS: Ole Lessmann; Kevin S. Jewell; Björn Ehlig; Arne Wick
LICENSE: dl-de/by-2-0
COPYRIGHT: Copyright 2025 Federal Institute of Hydrology, Koblenz, Germany
COMMENT: CONFIDENCE Reference Standard (Level 1)
COMMENT: Chromatography method: dx.doi.org/10.1016/j.chroma.2015.11.014
COMMENT: Acquisition method: 10.1002/rcm.8541
CH$NAME: N-desmethyl-diphenhydramine
CH$COMPOUND_CLASS: Pharmaceutical; Metabolite; Transformation_product-Metabolite
CH$FORMULA: C16H19NO
CH$EXACT_MASS: 241.1467
CH$SMILES: CNCCOC(c1ccccc1)c2ccccc2
CH$IUPAC: InChI=1S/C16H19NO/c1-17-12-13-18-16(14-8-4-2-5-9-14)15-10-6-3-7-11-15/h2-11,16-17H,12-13H2,1H3
CH$LINK: CAS 17471-10-2
CH$LINK: INCHIKEY AGSLYHYWLYGAOU-UHFFFAOYSA-N
AC$INSTRUMENT: TripleTOF 5600 SCIEX
AC$INSTRUMENT_TYPE: LC-ESI-QTOF
AC$MASS_SPECTROMETRY: MS_TYPE MS2
AC$MASS_SPECTROMETRY: ION_MODE POSITIVE
AC$MASS_SPECTROMETRY: COLLISION_ENERGY 60
AC$MASS_SPECTROMETRY: FRAGMENTATION_MODE CID
AC$MASS_SPECTROMETRY: IONIZATION ESI
AC$CHROMATOGRAPHY: COLUMN_NAME Zorbax Eclipse Plus C18 2.1 mm x 150 mm, 3.5 um, Agilent
AC$CHROMATOGRAPHY: COLUMN_TEMPERATURE 40 °C
AC$CHROMATOGRAPHY: FLOW_GRADIENT 0 min min 98% A, 1 min 98% A, 2 min 80% A, 16.5 min 2% A, 22 min 2% A, 22.1 min 98% A, 27 min 98% A
AC$CHROMATOGRAPHY: FLOW_RATE 0.3 mL/min
AC$CHROMATOGRAPHY: RETENTION_TIME 7.557 min
AC$CHROMATOGRAPHY: SOLVENT A: Water 0.1% Formic acid, B: Acetonitrile 0.1% Formic acid
MS$FOCUSED_ION: PRECURSOR_M/Z 242.1539
MS$FOCUSED_ION: PRECURSOR_TYPE [M+H]+
MS$DATA_PROCESSING: COMMENT Export with pycsl 0.1.0.dev1 and CSL 24.4
PK$SPLASH: splash10-0gb9-0900000000-8018697efa13919e1067
PK$NUM_PEAK: 13
PK$PEAK: m/z int. rel.int.
  115.0545 29.0 69
  127.0539 4.5 10
  128.0617 38.0 90
  139.0545 7.5 17
  141.0703 26.2 62
  150.0456 4.7 11
  151.0545 35.2 84
  152.0618 324.3 774
  163.0535 4.2 10
  164.0616 22.1 52
  165.0695 418.4 999
  166.0776 52.3 124
  167.0851 21.7 51
//