ACCESSION: MSBNK-BAFG-CSL23110914424
RECORD_TITLE: Bisphenol-A bis(diphenyl phosphate); LC-ESI-QTOF; MS2; 140 V
DATE: 2023.11.09
AUTHORS: Kevin S. Jewell; Björn Ehlig; Arne Wick
LICENSE: dl-de/by-2-0
COPYRIGHT: Copyright 2023 Federal Institute of Hydrology, Koblenz, Germany
COMMENT: CONFIDENCE Reference Standard (Level 1)
COMMENT: Chromatography method: dx.doi.org/10.1016/j.chroma.2015.11.014
COMMENT: Acquisition method: 10.1002/rcm.8541
CH$NAME: Bisphenol-A bis(diphenyl phosphate)
CH$COMPOUND_CLASS: Industrial_process
CH$FORMULA: C39H34O8P2
CH$EXACT_MASS: 692.1729
CH$SMILES: CC(C)(C1=CC=C(C=C1)OP(=O)(OC2=CC=CC=C2)OC3=CC=CC=C3)C4=CC=C(C=C4)OP(=O)(OC5=CC=CC=C5)OC6=CC=CC=C6
CH$IUPAC: InChI=1S/C39H34O8P2/c1-39(2,31-23-27-37(28-24-31)46-48(40,42-33-15-7-3-8-16-33)43-34-17-9-4-10-18-34)32-25-29-38(30-26-32)47-49(41,44-35-19-11-5-12-20-35)45-36-21-13-6-14-22-36/h3-30H,1-2H3
CH$LINK: CAS 5945-33-5
CH$LINK: INCHIKEY BQPNUOYXSVUVMY-UHFFFAOYSA-N
AC$INSTRUMENT: TripleTOF 6600 SCIEX
AC$INSTRUMENT_TYPE: LC-ESI-QTOF
AC$MASS_SPECTROMETRY: MS_TYPE MS2
AC$MASS_SPECTROMETRY: ION_MODE POSITIVE
AC$MASS_SPECTROMETRY: COLLISION_ENERGY 140
AC$MASS_SPECTROMETRY: FRAGMENTATION_MODE CID
AC$MASS_SPECTROMETRY: IONIZATION ESI
AC$CHROMATOGRAPHY: COLUMN_NAME Zorbax Eclipse Plus C18 2.1 mm x 150 mm, 3.5 um, Agilent
AC$CHROMATOGRAPHY: COLUMN_TEMPERATURE 40 °C
AC$CHROMATOGRAPHY: FLOW_GRADIENT 0 min min 98% A, 1 min 98% A, 2 min 80% A, 16.5 min 2% A, 22 min 2% A, 22.1 min 98% A, 27 min 98% A
AC$CHROMATOGRAPHY: FLOW_RATE 0.3 mL/min
AC$CHROMATOGRAPHY: RETENTION_TIME 17.714 min
AC$CHROMATOGRAPHY: SOLVENT A: Water 0.1% Formic acid, B: Acetonitrile 0.1% Formic acid
MS$FOCUSED_ION: PRECURSOR_M/Z 693.1802
MS$FOCUSED_ION: PRECURSOR_TYPE [M+H]+
MS$DATA_PROCESSING: COMMENT Export with Spectra 1.9.12 MsBackendMassbank 1.7.4
MS$DATA_PROCESSING: WHOLE RMassBank 2.3.1
PK$SPLASH: splash10-0gdi-2900000000-678044d5181d03e3090d
PK$NUM_PEAK: 37
PK$PEAK: m/z int. rel.int.
  51.0221 1.3 99
  65.0385 1.5 114
  77.0379 6.6 503
  89.0379 1.2 91
  91.0534 5.2 396
  103.0533 0.4 30
  105.0692 0.5 38
  115.0532 11.8 899
  116.0614 1.1 83
  117.0683 0.6 45
  126.0463 0.5 38
  127.0524 0.4 30
  128.0629 0.6 45
  133.0183 0.5 38
  138.9936 0.5 38
  139.0535 2.5 190
  141.0703 0.6 45
  150.0446 0.9 68
  151.0536 2.4 183
  152.0612 13.1 999
  153.0686 1.2 91
  163.0524 0.8 61
  164.06 0.6 45
  165.0686 2.9 221
  168.0559 11.2 854
  176.0602 3.5 266
  177.0702 1.9 144
  178.0768 6.2 472
  181.0623 0.5 38
  187.0303 0.5 38
  189.0697 2.2 167
  191.0858 1 76
  215.0242 1.6 122
  226.0768 1.3 99
  228.0922 0.6 45
  239.0828 0.6 45
  252.0921 1.8 137
//
