ACCESSION: MSBNK-BAFG-CSL2310302314
RECORD_TITLE: Sitagliptin-N-sulfate; LC-ESI-QTOF; MS2; 90 V
DATE: 2023.10.30
AUTHORS: Kevin S. Jewell; Björn Ehlig; Arne Wick
LICENSE: dl-de/by-2-0
COPYRIGHT: Copyright 2023 Federal Institute of Hydrology, Koblenz, Germany
COMMENT: CONFIDENCE Reference Standard (Level 1)
COMMENT: Chromatography method: dx.doi.org/10.1016/j.chroma.2015.11.014
COMMENT: Acquisition method: 10.1002/rcm.8541
CH$NAME: Sitagliptin-N-sulfate
CH$COMPOUND_CLASS: Metabolite; Pharmaceutical
CH$FORMULA: C16H15F6N5O4S
CH$EXACT_MASS: 487.0749
CH$SMILES: C1CN2C(=NN=C2C(F)(F)F)CN1C(=O)CC(CC3=CC(=C(C=C3F)F)F)NS(=O)(=O)O
CH$IUPAC: InChI=1S/C16H15F6N5O4S/c17-10-6-12(19)11(18)4-8(10)3-9(25-32(29,30)31)5-14(28)26-1-2-27-13(7-26)23-24-15(27)16(20,21)22/h4,6,9,25H,1-3,5,7H2,(H,29,30,31)
CH$LINK: CAS 940002-57-3
CH$LINK: INCHIKEY AOWQKFDVSZMKPA-UHFFFAOYSA-N
AC$INSTRUMENT: TripleTOF 5600 SCIEX
AC$INSTRUMENT_TYPE: LC-ESI-QTOF
AC$MASS_SPECTROMETRY: MS_TYPE MS2
AC$MASS_SPECTROMETRY: ION_MODE NEGATIVE
AC$MASS_SPECTROMETRY: COLLISION_ENERGY 90
AC$MASS_SPECTROMETRY: FRAGMENTATION_MODE CID
AC$MASS_SPECTROMETRY: IONIZATION ESI
AC$CHROMATOGRAPHY: COLUMN_NAME Zorbax Eclipse Plus C18 2.1 mm x 150 mm, 3.5 um, Agilent
AC$CHROMATOGRAPHY: COLUMN_TEMPERATURE 40 °C
AC$CHROMATOGRAPHY: FLOW_GRADIENT 0 min min 98% A, 1 min 98% A, 2 min 80% A, 16.5 min 2% A, 22 min 2% A, 22.1 min 98% A, 27 min 98% A
AC$CHROMATOGRAPHY: FLOW_RATE 0.3 mL/min
AC$CHROMATOGRAPHY: RETENTION_TIME 8.049 min
AC$CHROMATOGRAPHY: SOLVENT A: Water 0.1% Formic acid, B: Acetonitrile 0.1% Formic acid
MS$FOCUSED_ION: PRECURSOR_M/Z 486.0676
MS$FOCUSED_ION: PRECURSOR_TYPE [M-H]-
MS$DATA_PROCESSING: COMMENT Export with Spectra 1.9.12 MsBackendMassbank 1.7.4
MS$DATA_PROCESSING: WHOLE RMassBank 2.3.1
PK$SPLASH: splash10-002b-9000000000-e2a8f57650fb4f744c62
PK$NUM_PEAK: 3
PK$PEAK: m/z int. rel.int.
  79.9577 145.6 800
  95.9761 181.7 999
  152.0311 16.6 91
//
