ACCESSION: MSBNK-BAFG-CSL23102614487
RECORD_TITLE: 2-Isopropylphenyl diphenyl phosphate; LC-ESI-QTOF; MS2; 130 V
DATE: 2023.10.26
AUTHORS: Kevin S. Jewell; Björn Ehlig; Arne Wick
LICENSE: dl-de/by-2-0
COPYRIGHT: Copyright 2023 Federal Institute of Hydrology, Koblenz, Germany
COMMENT: CONFIDENCE Reference Standard (Level 1)
COMMENT: Chromatography method: dx.doi.org/10.1016/j.chroma.2015.11.014
COMMENT: Acquisition method: 10.1002/rcm.8541
CH$NAME: 2-Isopropylphenyl diphenyl phosphate
CH$COMPOUND_CLASS: Industrial_process
CH$FORMULA: C21H21O4P
CH$EXACT_MASS: 368.1177
CH$SMILES: CC(C)C1=CC=CC=C1OP(=O)(OC2=CC=CC=C2)OC3=CC=CC=C3
CH$IUPAC: InChI=1S/C21H21O4P/c1-17(2)20-15-9-10-16-21(20)25-26(22,23-18-11-5-3-6-12-18)24-19-13-7-4-8-14-19/h3-17H,1-2H3
CH$LINK: CAS 64532-94-1
CH$LINK: INCHIKEY JJXNVYMIYBNZQX-UHFFFAOYSA-N
AC$INSTRUMENT: TripleTOF 6600 SCIEX
AC$INSTRUMENT_TYPE: LC-ESI-QTOF
AC$MASS_SPECTROMETRY: MS_TYPE MS2
AC$MASS_SPECTROMETRY: ION_MODE POSITIVE
AC$MASS_SPECTROMETRY: COLLISION_ENERGY 130
AC$MASS_SPECTROMETRY: FRAGMENTATION_MODE CID
AC$MASS_SPECTROMETRY: IONIZATION ESI
AC$CHROMATOGRAPHY: COLUMN_NAME Zorbax Eclipse Plus C18 2.1 mm x 150 mm, 3.5 um, Agilent
AC$CHROMATOGRAPHY: COLUMN_TEMPERATURE 40 °C
AC$CHROMATOGRAPHY: FLOW_GRADIENT 0 min min 98% A, 1 min 98% A, 2 min 80% A, 16.5 min 2% A, 22 min 2% A, 22.1 min 98% A, 27 min 98% A
AC$CHROMATOGRAPHY: FLOW_RATE 0.3 mL/min
AC$CHROMATOGRAPHY: RETENTION_TIME 15.788 min
AC$CHROMATOGRAPHY: SOLVENT A: Water 0.1% Formic acid, B: Acetonitrile 0.1% Formic acid
MS$FOCUSED_ION: PRECURSOR_M/Z 369.125
MS$FOCUSED_ION: PRECURSOR_TYPE [M+H]+
MS$DATA_PROCESSING: COMMENT Export with Spectra 1.9.12 MsBackendMassbank 1.7.4
MS$DATA_PROCESSING: WHOLE RMassBank 2.3.1
PK$SPLASH: splash10-0udi-9400000000-4ee5540b545a4b3ccf5a
PK$NUM_PEAK: 18
PK$PEAK: m/z int. rel.int.
  39.0226 1.9 395
  50.0147 2.1 437
  51.0226 4.8 999
  63.0228 0.7 145
  65.0382 2.4 499
  75.0225 0.5 104
  76.0305 0.5 104
  77.0381 1.7 353
  78.0476 0.5 104
  91.0527 1 208
  102.0455 0.6 124
  126.0459 1.1 228
  139.0536 1.3 270
  150.0453 1.6 333
  151.0542 1.5 312
  152.0594 1.2 249
  224.0663 0.4 83
  226.0788 0.7 145
//
