ACCESSION: MSBNK-BAFG-CSL23102616817
RECORD_TITLE: 4-Hydroxydiphenylamine; LC-ESI-QTOF; MS2; 50 V
DATE: 2023.10.26
AUTHORS: Kevin S. Jewell; Björn Ehlig; Arne Wick
LICENSE: dl-de/by-2-0
COPYRIGHT: Copyright 2023 Federal Institute of Hydrology, Koblenz, Germany
COMMENT: CONFIDENCE Reference Standard (Level 1)
COMMENT: Chromatography method: dx.doi.org/10.1016/j.chroma.2015.11.014
COMMENT: Acquisition method: 10.1002/rcm.8541
CH$NAME: 4-Hydroxydiphenylamine
CH$COMPOUND_CLASS: Pesticide
CH$FORMULA: C12H11NO
CH$EXACT_MASS: 185.0841
CH$SMILES: C1=CC=C(C=C1)NC2=CC=C(C=C2)O
CH$IUPAC: InChI=1S/C12H11NO/c14-12-8-6-11(7-9-12)13-10-4-2-1-3-5-10/h1-9,13-14H
CH$LINK: CAS 122-37-2
CH$LINK: INCHIKEY JTTMYKSFKOOQLP-UHFFFAOYSA-N
AC$INSTRUMENT: TripleTOF 6600 SCIEX
AC$INSTRUMENT_TYPE: LC-ESI-QTOF
AC$MASS_SPECTROMETRY: MS_TYPE MS2
AC$MASS_SPECTROMETRY: ION_MODE POSITIVE
AC$MASS_SPECTROMETRY: COLLISION_ENERGY 50
AC$MASS_SPECTROMETRY: FRAGMENTATION_MODE CID
AC$MASS_SPECTROMETRY: IONIZATION ESI
AC$CHROMATOGRAPHY: COLUMN_NAME Zorbax Eclipse Plus C18 2.1 mm x 150 mm, 3.5 um, Agilent
AC$CHROMATOGRAPHY: COLUMN_TEMPERATURE 40 °C
AC$CHROMATOGRAPHY: FLOW_GRADIENT 0 min min 98% A, 1 min 98% A, 2 min 80% A, 16.5 min 2% A, 22 min 2% A, 22.1 min 98% A, 27 min 98% A
AC$CHROMATOGRAPHY: FLOW_RATE 0.3 mL/min
AC$CHROMATOGRAPHY: RETENTION_TIME 10.034 min
AC$CHROMATOGRAPHY: SOLVENT A: Water 0.1% Formic acid, B: Acetonitrile 0.1% Formic acid
MS$FOCUSED_ION: PRECURSOR_M/Z 186.0914
MS$FOCUSED_ION: PRECURSOR_TYPE [M+H]+
MS$DATA_PROCESSING: COMMENT Export with Spectra 1.9.12 MsBackendMassbank 1.7.4
MS$DATA_PROCESSING: WHOLE RMassBank 2.3.1
PK$SPLASH: splash10-0a59-9600000000-1abb319c4b78d73f6edf
PK$NUM_PEAK: 17
PK$PEAK: m/z int. rel.int.
  39.0222 4.5 33
  53.0377 8 59
  54.0329 1.7 12
  65.0378 16.4 121
  66.0455 7.1 52
  68.0118 1.4 10
  80.0488 124 918
  81.0336 18.6 137
  81.0557 13.7 101
  82.0404 5.3 39
  92.048 5 37
  93.0562 21.5 159
  108.043 25.8 191
  109.0514 134.9 999
  115.0527 4.4 32
  139.0519 1.4 10
  167.0724 2.6 19
//
