ACCESSION: MSBNK-BAFG-CSL25010631490
RECORD_TITLE: Diethylamino hydroxybenzoyl hexyl benzoate; LC-ESI-QTOF; MS2; 140 V
DATE: 2025.01.06
AUTHORS: Ole Lessmann; Kevin S. Jewell; Björn Ehlig; Arne Wick
LICENSE: dl-de/by-2-0
COPYRIGHT: Copyright 2025 Federal Institute of Hydrology, Koblenz, Germany
COMMENT: CONFIDENCE Reference Standard (Level 1)
COMMENT: Chromatography method: dx.doi.org/10.1016/j.chroma.2015.11.014
COMMENT: Acquisition method: 10.1002/rcm.8541
CH$NAME: Diethylamino hydroxybenzoyl hexyl benzoate
CH$FORMULA: C24H31NO4
CH$EXACT_MASS: 397.2253
CH$SMILES: CCCCCCOC(=O)C1=CC=CC=C1C(=O)C2=C(C=C(C=C2)N(CC)CC)O
CH$IUPAC: InChI=1S/C24H31NO4/c1-4-7-8-11-16-29-24(28)20-13-10-9-12-19(20)23(27)21-15-14-18(17-22(21)26)25(5-2)6-3/h9-10,12-15,17,26H,4-8,11,16H2,1-3H3
CH$LINK: CAS 302776-68-7
CH$LINK: INCHIKEY FDATWRLUYRHCJE-UHFFFAOYSA-N
AC$INSTRUMENT: TripleTOF 6600 SCIEX
AC$INSTRUMENT_TYPE: LC-ESI-QTOF
AC$MASS_SPECTROMETRY: MS_TYPE MS2
AC$MASS_SPECTROMETRY: ION_MODE POSITIVE
AC$MASS_SPECTROMETRY: COLLISION_ENERGY 140
AC$MASS_SPECTROMETRY: FRAGMENTATION_MODE CID
AC$MASS_SPECTROMETRY: IONIZATION ESI
AC$CHROMATOGRAPHY: COLUMN_NAME Zorbax Eclipse Plus C18 2.1 mm x 150 mm, 3.5 um, Agilent
AC$CHROMATOGRAPHY: COLUMN_TEMPERATURE 40 °C
AC$CHROMATOGRAPHY: FLOW_GRADIENT 0 min min 98% A, 1 min 98% A, 2 min 80% A, 16.5 min 2% A, 22 min 2% A, 22.1 min 98% A, 27 min 98% A
AC$CHROMATOGRAPHY: FLOW_RATE 0.3 mL/min
AC$CHROMATOGRAPHY: RETENTION_TIME 17.769 min
AC$CHROMATOGRAPHY: SOLVENT A: Water 0.1% Formic acid, B: Acetonitrile 0.1% Formic acid
MS$FOCUSED_ION: PRECURSOR_M/Z 398.2326
MS$FOCUSED_ION: PRECURSOR_TYPE [M+H]+
MS$DATA_PROCESSING: COMMENT Export with pycsl 0.1.0.dev1 and CSL 24.4
PK$SPLASH: splash10-000i-4900000000-98a0204bf2650d1d79b6
PK$NUM_PEAK: 58
PK$PEAK: m/z int. rel.int.
  37.0075 14.4 22
  38.0148 13.1 20
  39.0232 124.5 197
  41.0385 23.7 37
  50.0153 12.5 19
  51.0228 39.4 62
  53.0387 24.8 39
  61.0069 8.5 13
  62.0147 15.9 25
  63.0228 60.1 95
  65.0384 118.7 188
  68.0126 9.6 15
  74.0149 21.0 33
  75.0228 37.4 59
  76.0301 22.6 35
  77.0384 140.3 222
  78.0456 10.7 16
  80.0492 61.7 97
  86.0146 15.2 24
  87.0223 41.4 65
  88.0298 21.5 34
  89.0381 131.3 208
  91.0167 7.4 11
  91.0537 13.4 21
  92.0497 6.4 10
  98.0144 13.8 21
  99.023 25.0 39
  101.0383 23.1 36
  102.0455 52.7 83
  113.0382 108.2 171
  114.0455 23.8 37
  115.0538 148.9 236
  119.0113 6.3 10
  123.0224 11.2 17
  125.0376 20.2 32
  126.0455 80.8 128
  127.0533 99.7 158
  128.0608 82.2 130
  137.038 58.4 92
  138.0457 83.0 131
  139.054 629.3 999
  140.0499 39.3 62
  141.068 10.7 16
  149.0389 8.7 13
  150.0455 78.3 124
  151.0537 70.9 112
  152.0612 87.8 139
  153.0571 16.5 26
  154.0653 17.5 27
  155.0567 7.6 12
  163.0531 15.0 23
  164.0553 23.8 37
  165.0698 18.6 29
  166.0641 23.4 37
  167.0721 11.1 17
  168.0562 27.9 44
  176.0604 8.3 13
  177.0567 8.9 14
//