ACCESSION: MSBNK-BAFG-CSL231025535
RECORD_TITLE: Benzyl-(1-ethoxycarbonyl-undecyl)-dimethyl-ammonium; LC-ESI-QTOF; MS2; 130 V
DATE: 2023.10.25
AUTHORS: Kevin S. Jewell; Björn Ehlig; Arne Wick
LICENSE: dl-de/by-2-0
COPYRIGHT: Copyright 2023 Federal Institute of Hydrology, Koblenz, Germany
COMMENT: CONFIDENCE Reference Standard (Level 1)
COMMENT: Chromatography method: dx.doi.org/10.1016/j.chroma.2015.11.014
COMMENT: Acquisition method: 10.1002/rcm.8541
CH$NAME: Benzyl-(1-ethoxycarbonyl-undecyl)-dimethyl-ammonium
CH$FORMULA: C23H40NO2
CH$EXACT_MASS: 362.3054
CH$SMILES: CCCCCCCCCCC(C(=O)OCC)[N+](C)(C)Cc1ccccc1
CH$IUPAC: InChI=1S/C23H40NO2/c1-5-7-8-9-10-11-12-16-19-22(23(25)26-6-2)24(3,4)20-21-17-14-13-15-18-21/h13-15,17-18,22H,5-12,16,19-20H2,1-4H3/q+1
CH$LINK: CAS NA
CH$LINK: INCHIKEY UBHDSOZILBGALL-UHFFFAOYSA-N
AC$INSTRUMENT: TripleTOF 5600 SCIEX
AC$INSTRUMENT_TYPE: LC-ESI-QTOF
AC$MASS_SPECTROMETRY: MS_TYPE MS2
AC$MASS_SPECTROMETRY: ION_MODE POSITIVE
AC$MASS_SPECTROMETRY: COLLISION_ENERGY 130
AC$MASS_SPECTROMETRY: FRAGMENTATION_MODE CID
AC$MASS_SPECTROMETRY: IONIZATION ESI
AC$CHROMATOGRAPHY: COLUMN_NAME Zorbax Eclipse Plus C18 2.1 mm x 150 mm, 3.5 um, Agilent
AC$CHROMATOGRAPHY: COLUMN_TEMPERATURE 40 °C
AC$CHROMATOGRAPHY: FLOW_GRADIENT 0 min min 98% A, 1 min 98% A, 2 min 80% A, 16.5 min 2% A, 22 min 2% A, 22.1 min 98% A, 27 min 98% A
AC$CHROMATOGRAPHY: FLOW_RATE 0.3 mL/min
AC$CHROMATOGRAPHY: RETENTION_TIME 11.716 min
AC$CHROMATOGRAPHY: SOLVENT A: Water 0.1% Formic acid, B: Acetonitrile 0.1% Formic acid
MS$FOCUSED_ION: PRECURSOR_M/Z 362.3054
MS$FOCUSED_ION: PRECURSOR_TYPE [M]+
MS$DATA_PROCESSING: COMMENT Export with Spectra 1.9.12 MsBackendMassbank 1.7.4
MS$DATA_PROCESSING: WHOLE RMassBank 2.3.1
PK$SPLASH: splash10-0006-9000000000-0379320bce954b47b82d
PK$NUM_PEAK: 2
PK$PEAK: m/z int. rel.int.
  65.0439 73.8 495
  91.0564 148.7 999
//
