ACCESSION: MSBNK-BAFG-CSL25010634327
RECORD_TITLE: N-Isopropyl-N'-phenyl-p-phenylenediamine; LC-ESI-QTOF; MS2; 50 V
DATE: 2025.01.06
AUTHORS: Ole Lessmann; Kevin S. Jewell; Björn Ehlig; Arne Wick
LICENSE: dl-de/by-2-0
COPYRIGHT: Copyright 2025 Federal Institute of Hydrology, Koblenz, Germany
COMMENT: CONFIDENCE Reference Standard (Level 1)
COMMENT: Chromatography method: dx.doi.org/10.1016/j.chroma.2015.11.014
COMMENT: Acquisition method: 10.1002/rcm.8541
CH$NAME: N-Isopropyl-N'-phenyl-p-phenylenediamine
CH$COMPOUND_CLASS: Industrial_process
CH$FORMULA: C15H18N2
CH$EXACT_MASS: 226.147
CH$SMILES: CC(C)Nc1ccc(cc1)Nc2ccccc2
CH$IUPAC: InChI=1S/C15H18N2/c1-12(2)16-14-8-10-15(11-9-14)17-13-6-4-3-5-7-13/h3-12,16-17H,1-2H3
CH$LINK: CAS 101-72-4
CH$LINK: INCHIKEY OUBMGJOQLXMSNT-UHFFFAOYSA-N
AC$INSTRUMENT: TripleTOF 6600 SCIEX
AC$INSTRUMENT_TYPE: LC-ESI-QTOF
AC$MASS_SPECTROMETRY: MS_TYPE MS2
AC$MASS_SPECTROMETRY: ION_MODE POSITIVE
AC$MASS_SPECTROMETRY: COLLISION_ENERGY 50
AC$MASS_SPECTROMETRY: FRAGMENTATION_MODE CID
AC$MASS_SPECTROMETRY: IONIZATION ESI
AC$CHROMATOGRAPHY: COLUMN_NAME Zorbax Eclipse Plus C18 2.1 mm x 150 mm, 3.5 um, Agilent
AC$CHROMATOGRAPHY: COLUMN_TEMPERATURE 40 °C
AC$CHROMATOGRAPHY: FLOW_GRADIENT 0 min min 98% A, 1 min 98% A, 2 min 80% A, 16.5 min 2% A, 22 min 2% A, 22.1 min 98% A, 27 min 98% A
AC$CHROMATOGRAPHY: FLOW_RATE 0.3 mL/min
AC$CHROMATOGRAPHY: RETENTION_TIME 7.24 min
AC$CHROMATOGRAPHY: SOLVENT A: Water 0.1% Formic acid, B: Acetonitrile 0.1% Formic acid
MS$FOCUSED_ION: PRECURSOR_M/Z 227.1543
MS$FOCUSED_ION: PRECURSOR_TYPE [M+H]+
MS$DATA_PROCESSING: COMMENT Export with pycsl 0.1.0.dev1 and CSL 24.4
PK$SPLASH: splash10-053r-1900000000-c03955e763c245d50ade
PK$NUM_PEAK: 27
PK$PEAK: m/z int. rel.int.
  65.0373 5.0 10
  66.0453 12.9 26
  77.0374 5.9 12
  79.0407 4.9 10
  80.0485 137.3 281
  81.056 29.7 60
  91.0398 8.2 16
  93.056 43.2 88
  105.0434 6.3 12
  106.0513 14.5 29
  107.0594 487.1 999
  115.0524 5.8 11
  117.0563 5.6 11
  118.0511 50.4 103
  129.0664 8.8 18
  130.0639 19.1 39
  139.0523 10.8 22
  140.0485 7.5 15
  143.0706 12.4 25
  156.0785 37.6 77
  166.0631 116.4 238
  167.071 58.3 119
  168.0762 28.7 58
  169.0767 26.6 54
  182.0818 45.1 92
  183.0901 198.7 407
  184.0984 327.8 672
//