ACCESSION: MSBNK-BAFG-CSL25010634314
RECORD_TITLE: 4,4`-Methylenebis(2-methylaniline); LC-ESI-QTOF; MS2; 80 V
DATE: 2025.01.06
AUTHORS: Ole Lessmann; Kevin S. Jewell; Björn Ehlig; Arne Wick
LICENSE: dl-de/by-2-0
COPYRIGHT: Copyright 2025 Federal Institute of Hydrology, Koblenz, Germany
COMMENT: CONFIDENCE Reference Standard (Level 1)
COMMENT: Chromatography method: dx.doi.org/10.1016/j.chroma.2015.11.014
COMMENT: Acquisition method: 10.1002/rcm.8541
CH$NAME: 4,4`-Methylenebis(2-methylaniline)
CH$FORMULA: C15H18N2
CH$EXACT_MASS: 226.147
CH$SMILES: CC1=C(C=CC(=C1)CC2=CC(=C(C=C2)N)C)N
CH$IUPAC: InChI=1S/C15H18N2/c1-10-7-12(3-5-14(10)16)9-13-4-6-15(17)11(2)8-13/h3-8H,9,16-17H2,1-2H3
CH$LINK: CAS 838-88-0
CH$LINK: INCHIKEY WECDUOXQLAIPQW-UHFFFAOYSA-N
AC$INSTRUMENT: TripleTOF 6600 SCIEX
AC$INSTRUMENT_TYPE: LC-ESI-QTOF
AC$MASS_SPECTROMETRY: MS_TYPE MS2
AC$MASS_SPECTROMETRY: ION_MODE POSITIVE
AC$MASS_SPECTROMETRY: COLLISION_ENERGY 80
AC$MASS_SPECTROMETRY: FRAGMENTATION_MODE CID
AC$MASS_SPECTROMETRY: IONIZATION ESI
AC$CHROMATOGRAPHY: COLUMN_NAME Zorbax Eclipse Plus C18 2.1 mm x 150 mm, 3.5 um, Agilent
AC$CHROMATOGRAPHY: COLUMN_TEMPERATURE 40 °C
AC$CHROMATOGRAPHY: FLOW_GRADIENT 0 min min 98% A, 1 min 98% A, 2 min 80% A, 16.5 min 2% A, 22 min 2% A, 22.1 min 98% A, 27 min 98% A
AC$CHROMATOGRAPHY: FLOW_RATE 0.3 mL/min
AC$CHROMATOGRAPHY: RETENTION_TIME 5.215 min
AC$CHROMATOGRAPHY: SOLVENT A: Water 0.1% Formic acid, B: Acetonitrile 0.1% Formic acid
MS$FOCUSED_ION: PRECURSOR_M/Z 227.1543
MS$FOCUSED_ION: PRECURSOR_TYPE [M+H]+
MS$DATA_PROCESSING: COMMENT Export with pycsl 0.1.0.dev1 and CSL 24.4
PK$SPLASH: splash10-0ui0-5900000000-4614f9f8258d3dd281ab
PK$NUM_PEAK: 53
PK$PEAK: m/z int. rel.int.
  39.0217 0.5 21
  42.0326 0.6 25
  50.0153 0.5 21
  51.022 4.7 201
  53.0368 0.5 21
  61.0074 0.4 17
  63.0216 0.6 25
  65.0367 2.8 120
  66.0459 0.5 21
  77.037 23.3 999
  78.0437 2.0 85
  79.0543 0.5 21
  80.0475 2.3 98
  89.0374 0.9 38
  91.0525 7.7 330
  92.0483 0.5 21
  93.056 2.3 98
  94.0627 0.8 34
  102.0466 1.3 55
  103.0516 2.4 102
  104.0478 5.9 252
  105.0548 1.1 47
  115.0535 1.8 77
  117.0553 0.5 21
  118.0635 3.7 158
  119.072 2.0 85
  120.0791 6.9 295
  126.0429 1.1 47
  127.0535 1.8 77
  128.0615 1.9 81
  129.0508 0.4 17
  139.0515 1.1 47
  140.0594 0.5 21
  150.044 2.2 94
  151.0526 6.1 261
  152.0618 12.4 531
  153.064 1.8 77
  163.0567 1.4 60
  164.0604 0.7 30
  165.0685 6.1 261
  166.0726 1.1 47
  167.0709 0.9 38
  168.078 0.6 25
  175.0564 0.5 21
  176.0597 5.8 248
  177.0676 1.7 72
  178.0655 1.1 47
  179.062 0.8 34
  180.0719 0.5 21
  189.0695 0.7 30
  191.075 1.2 51
  192.0783 1.1 47
  193.0905 0.6 25
//