ACCESSION: MSBNK-BAFG-CSL2311109196
RECORD_TITLE: N,N-bis(ethoxycarbonyl)-4-methyl-1,3-phenylenediamine; LC-ESI-QTOF; MS2; 80 V
DATE: 2023.11.10
AUTHORS: Kevin S. Jewell; Björn Ehlig; Arne Wick
LICENSE: dl-de/by-2-0
COPYRIGHT: Copyright 2023 Federal Institute of Hydrology, Koblenz, Germany
COMMENT: CONFIDENCE Reference Standard (Level 1)
COMMENT: Chromatography method: dx.doi.org/10.1016/j.chroma.2015.11.014
COMMENT: Acquisition method: 10.1002/rcm.8541
CH$NAME: N,N-bis(ethoxycarbonyl)-4-methyl-1,3-phenylenediamine
CH$COMPOUND_CLASS: Pharmaceutical
CH$FORMULA: C13H18N2O4
CH$EXACT_MASS: 266.1267
CH$SMILES: CCOC(=O)NC1=CC(=C(C=C1)C)NC(=O)OCC
CH$IUPAC: InChI=1S/C13H18N2O4/c1-4-18-12(16)14-10-7-6-9(3)11(8-10)15-13(17)19-5-2/h6-8H,4-5H2,1-3H3,(H,14,16)(H,15,17)
CH$LINK: CAS 7450-62-6
CH$LINK: INCHIKEY PHYURWGMBQTCSY-UHFFFAOYSA-N
AC$INSTRUMENT: TripleTOF 5600 SCIEX
AC$INSTRUMENT_TYPE: LC-ESI-QTOF
AC$MASS_SPECTROMETRY: MS_TYPE MS2
AC$MASS_SPECTROMETRY: ION_MODE POSITIVE
AC$MASS_SPECTROMETRY: COLLISION_ENERGY 80
AC$MASS_SPECTROMETRY: FRAGMENTATION_MODE CID
AC$MASS_SPECTROMETRY: IONIZATION ESI
AC$CHROMATOGRAPHY: COLUMN_NAME Zorbax Eclipse Plus C18 2.1 mm x 150 mm, 3.5 um, Agilent
AC$CHROMATOGRAPHY: COLUMN_TEMPERATURE 40 °C
AC$CHROMATOGRAPHY: FLOW_GRADIENT 0 min min 98% A, 1 min 98% A, 2 min 80% A, 16.5 min 2% A, 22 min 2% A, 22.1 min 98% A, 27 min 98% A
AC$CHROMATOGRAPHY: FLOW_RATE 0.3 mL/min
AC$CHROMATOGRAPHY: RETENTION_TIME 10.056 min
AC$CHROMATOGRAPHY: SOLVENT A: Water 0.1% Formic acid, B: Acetonitrile 0.1% Formic acid
MS$FOCUSED_ION: PRECURSOR_M/Z 267.1339
MS$FOCUSED_ION: PRECURSOR_TYPE [M+H]+
MS$DATA_PROCESSING: COMMENT Export with Spectra 1.9.12 MsBackendMassbank 1.7.4
MS$DATA_PROCESSING: WHOLE RMassBank 2.3.1
PK$SPLASH: splash10-004i-9200000000-23e257179549c28038fd
PK$NUM_PEAK: 25
PK$PEAK: m/z int. rel.int.
  65.0459 13.2 78
  66.053 1.9 11
  67.0544 8 47
  77.0444 167.7 999
  78.0387 17.3 103
  79.0587 24.2 144
  80.0543 7.2 42
  89.0425 6.3 37
  91.052 5.3 31
  92.0532 14.4 85
  93.061 7.8 46
  94.0684 19.8 117
  102.0366 3.9 23
  104.0515 15.7 93
  105.0468 13.5 80
  106.0631 23.1 137
  108.0699 2.4 14
  117.0587 1.7 10
  118.066 1.8 10
  119.0622 2.7 16
  120.0471 2.6 15
  121.0772 6.4 38
  132.0454 3.7 22
  134.0485 5.5 32
  147.0565 5.6 33
//
