ACCESSION: MSBNK-BAFG-CSL23102511453
RECORD_TITLE: Malachite green cation; LC-ESI-QTOF; MS2; 140 V
DATE: 2023.10.25
AUTHORS: Kevin S. Jewell; Björn Ehlig; Arne Wick
LICENSE: dl-de/by-2-0
COPYRIGHT: Copyright 2023 Federal Institute of Hydrology, Koblenz, Germany
COMMENT: CONFIDENCE Reference Standard (Level 1)
COMMENT: Chromatography method: dx.doi.org/10.1016/j.chroma.2015.11.014
COMMENT: Acquisition method: 10.1002/rcm.8541
CH$NAME: Malachite green cation
CH$COMPOUND_CLASS: Industrial_process; Pigment
CH$FORMULA: C23H25N2
CH$EXACT_MASS: 329.2012
CH$SMILES: CN(C)C1=CC=C(C=C1)C(=C2C=CC(=[N+](C)C)C=C2)C3=CC=CC=C3
CH$IUPAC: InChI=1S/C23H25N2/c1-24(2)21-14-10-19(11-15-21)23(18-8-6-5-7-9-18)20-12-16-22(17-13-20)25(3)4/h5-17H,1-4H3/q+1
CH$LINK: CAS 10309-95-2
CH$LINK: INCHIKEY VFCNQNZNPKRXIT-UHFFFAOYSA-N
AC$INSTRUMENT: TripleTOF 5600 SCIEX
AC$INSTRUMENT_TYPE: LC-ESI-QTOF
AC$MASS_SPECTROMETRY: MS_TYPE MS2
AC$MASS_SPECTROMETRY: ION_MODE POSITIVE
AC$MASS_SPECTROMETRY: COLLISION_ENERGY 140
AC$MASS_SPECTROMETRY: FRAGMENTATION_MODE CID
AC$MASS_SPECTROMETRY: IONIZATION ESI
AC$CHROMATOGRAPHY: COLUMN_NAME Zorbax Eclipse Plus C18 2.1 mm x 150 mm, 3.5 um, Agilent
AC$CHROMATOGRAPHY: COLUMN_TEMPERATURE 40 °C
AC$CHROMATOGRAPHY: FLOW_GRADIENT 0 min min 98% A, 1 min 98% A, 2 min 80% A, 16.5 min 2% A, 22 min 2% A, 22.1 min 98% A, 27 min 98% A
AC$CHROMATOGRAPHY: FLOW_RATE 0.3 mL/min
AC$CHROMATOGRAPHY: RETENTION_TIME 9.29 min
AC$CHROMATOGRAPHY: SOLVENT A: Water 0.1% Formic acid, B: Acetonitrile 0.1% Formic acid
MS$FOCUSED_ION: PRECURSOR_M/Z 329.2012
MS$FOCUSED_ION: PRECURSOR_TYPE [M]+
MS$DATA_PROCESSING: COMMENT Export with Spectra 1.9.12 MsBackendMassbank 1.7.4
MS$DATA_PROCESSING: WHOLE RMassBank 2.3.1
PK$SPLASH: splash10-01p9-0490000000-42a2744276b47a038dbe
PK$NUM_PEAK: 28
PK$PEAK: m/z int. rel.int.
  115.0517 1.3 188
  139.0518 0.7 101
  150.0401 0.5 72
  151.0557 0.7 101
  152.0646 0.6 86
  162.0485 0.6 86
  163.0531 4 579
  164.0615 1.4 202
  165.0734 1.1 159
  176.0643 0.5 72
  187.0545 0.7 101
  188.0652 0.4 57
  189.0741 1 144
  200.0625 1.4 202
  201.0691 0.5 72
  202.079 0.5 72
  211.0559 0.9 130
  212.0648 0.6 86
  213.0697 1.8 260
  224.0594 2.6 376
  225.0741 1.5 217
  226.0797 1.8 260
  235.0553 0.8 115
  236.0685 1.4 202
  237.0695 6.9 999
  238.077 1.8 260
  239.0847 4.1 593
  251.0719 0.6 86
//
