ACCESSION: MSBNK-BAFG-CSL25010627872
RECORD_TITLE: Iminostilbene; LC-ESI-QTOF; MS2; 130 V
DATE: 2025.01.06
AUTHORS: Ole Lessmann; Kevin S. Jewell; Björn Ehlig; Arne Wick
LICENSE: dl-de/by-2-0
COPYRIGHT: Copyright 2025 Federal Institute of Hydrology, Koblenz, Germany
COMMENT: CONFIDENCE Reference Standard (Level 1)
COMMENT: Chromatography method: dx.doi.org/10.1016/j.chroma.2015.11.014
COMMENT: Acquisition method: 10.1002/rcm.8541
CH$NAME: Iminostilbene
CH$COMPOUND_CLASS: Pharmaceutical
CH$FORMULA: C14H11N
CH$EXACT_MASS: 193.0891
CH$SMILES: C1=CC=C2C(=C1)C=CC3=CC=CC=C3N2
CH$IUPAC: InChI=1S/C14H11N/c1-3-7-13-11(5-1)9-10-12-6-2-4-8-14(12)15-13/h1-10,15H
CH$LINK: CAS 256-96-2
CH$LINK: INCHIKEY LCGTWRLJTMHIQZ-UHFFFAOYSA-N
AC$INSTRUMENT: TripleTOF 6600 SCIEX
AC$INSTRUMENT_TYPE: LC-ESI-QTOF
AC$MASS_SPECTROMETRY: MS_TYPE MS2
AC$MASS_SPECTROMETRY: ION_MODE POSITIVE
AC$MASS_SPECTROMETRY: COLLISION_ENERGY 130
AC$MASS_SPECTROMETRY: FRAGMENTATION_MODE CID
AC$MASS_SPECTROMETRY: IONIZATION ESI
AC$CHROMATOGRAPHY: COLUMN_NAME Zorbax Eclipse Plus C18 2.1 mm x 150 mm, 3.5 um, Agilent
AC$CHROMATOGRAPHY: COLUMN_TEMPERATURE 40 °C
AC$CHROMATOGRAPHY: FLOW_GRADIENT 0 min min 98% A, 1 min 98% A, 2 min 80% A, 16.5 min 2% A, 22 min 2% A, 22.1 min 98% A, 27 min 98% A
AC$CHROMATOGRAPHY: FLOW_RATE 0.3 mL/min
AC$CHROMATOGRAPHY: RETENTION_TIME 13.175 min
AC$CHROMATOGRAPHY: SOLVENT A: Water 0.1% Formic acid, B: Acetonitrile 0.1% Formic acid
MS$FOCUSED_ION: PRECURSOR_M/Z 194.0964
MS$FOCUSED_ION: PRECURSOR_TYPE [M+H]+
MS$DATA_PROCESSING: COMMENT Export with pycsl 0.1.0.dev1 and CSL 24.4
PK$SPLASH: splash10-0iki-9000000000-5f50491fc4efe7e2ff47
PK$NUM_PEAK: 56
PK$PEAK: m/z int. rel.int.
  35.9963 16.3 74
  37.0042 71.7 329
  37.9998 3.6 16
  38.0117 44.3 203
  39.0197 90.3 415
  49.003 48.5 222
  50.011 217.3 999
  51.0185 119.5 549
  52.0133 4.3 19
  52.0259 4.7 21
  59.994 10.1 46
  61.002 112.2 515
  62.0098 180.8 831
  63.0175 170.0 781
  64.012 5.5 25
  64.0248 2.7 12
  65.0324 7.5 34
  73.0007 40.6 186
  74.0085 202.9 932
  75.0042 5.1 23
  75.0159 47.9 220
  76.0113 5.2 23
  76.0235 9.9 45
  77.032 7.5 34
  83.9915 9.4 43
  84.9997 65.0 298
  86.0073 91.1 418
  87.0027 3.7 17
  87.015 45.2 207
  88.01 5.7 26
  88.0225 4.4 20
  89.0304 30.2 138
  96.9983 24.3 111
  98.0063 90.0 413
  99.0019 8.2 37
  99.0137 10.7 49
  108.9973 25.4 116
  110.005 34.1 156
  111.0003 3.0 13
  111.0126 11.7 53
  113.0283 12.1 55
  115.0432 2.2 10
  119.9881 2.9 13
  120.9954 4.5 20
  122.0038 17.7 81
  122.999 3.4 15
  123.0114 2.9 13
  132.9957 3.1 14
  134.0029 5.0 22
  137.0259 7.2 33
  139.0422 2.3 10
  150.033 3.1 14
  161.0243 14.9 68
  162.0315 8.9 40
  163.0394 10.8 49
  188.0338 3.8 17
//