ACCESSION: MSBNK-BAFG-CSL23102617624
RECORD_TITLE: Caprolactam; LC-ESI-QTOF; MS2; 40 V
DATE: 2023.10.26
AUTHORS: Kevin S. Jewell; Björn Ehlig; Arne Wick
LICENSE: dl-de/by-2-0
COPYRIGHT: Copyright 2023 Federal Institute of Hydrology, Koblenz, Germany
COMMENT: CONFIDENCE Reference Standard (Level 1)
COMMENT: Chromatography method: dx.doi.org/10.1016/j.chroma.2015.11.014
COMMENT: Acquisition method: 10.1002/rcm.8541
CH$NAME: Caprolactam
CH$COMPOUND_CLASS: Food_additive; Industrial_process
CH$FORMULA: C6H11NO
CH$EXACT_MASS: 113.0841
CH$SMILES: C1CCC(=O)NCC1
CH$IUPAC: InChI=1S/C6H11NO/c8-6-4-2-1-3-5-7-6/h1-5H2,(H,7,8)
CH$LINK: CAS 105-60-2
CH$LINK: INCHIKEY JBKVHLHDHHXQEQ-UHFFFAOYSA-N
AC$INSTRUMENT: TripleTOF 6600 SCIEX
AC$INSTRUMENT_TYPE: LC-ESI-QTOF
AC$MASS_SPECTROMETRY: MS_TYPE MS2
AC$MASS_SPECTROMETRY: ION_MODE POSITIVE
AC$MASS_SPECTROMETRY: COLLISION_ENERGY 40
AC$MASS_SPECTROMETRY: FRAGMENTATION_MODE CID
AC$MASS_SPECTROMETRY: IONIZATION ESI
AC$CHROMATOGRAPHY: COLUMN_NAME Zorbax Eclipse Plus C18 2.1 mm x 150 mm, 3.5 um, Agilent
AC$CHROMATOGRAPHY: COLUMN_TEMPERATURE 40 °C
AC$CHROMATOGRAPHY: FLOW_GRADIENT 0 min min 98% A, 1 min 98% A, 2 min 80% A, 16.5 min 2% A, 22 min 2% A, 22.1 min 98% A, 27 min 98% A
AC$CHROMATOGRAPHY: FLOW_RATE 0.3 mL/min
AC$CHROMATOGRAPHY: RETENTION_TIME 5.197 min
AC$CHROMATOGRAPHY: SOLVENT A: Water 0.1% Formic acid, B: Acetonitrile 0.1% Formic acid
MS$FOCUSED_ION: PRECURSOR_M/Z 114.0914
MS$FOCUSED_ION: PRECURSOR_TYPE [M+H]+
MS$DATA_PROCESSING: COMMENT Export with Spectra 1.9.12 MsBackendMassbank 1.7.4
MS$DATA_PROCESSING: WHOLE RMassBank 2.3.1
PK$SPLASH: splash10-0006-9000000000-bc93f8a91f478602644c
PK$NUM_PEAK: 21
PK$PEAK: m/z int. rel.int.
  30.0343 2.4 19
  37.0081 3 24
  38.0033 1.5 12
  38.0164 2.7 21
  39.0237 27.3 222
  41.0395 31.3 254
  42.0347 2.1 17
  43.0192 1.7 13
  43.0548 5.6 45
  44.0142 122.7 999
  51.0236 2.1 17
  53.0392 3.8 30
  54.0352 1.5 12
  55.0184 6.6 53
  55.0549 20.6 167
  67.0548 2 16
  68.0503 1.4 11
  69.0704 3.8 30
  77.0392 10.5 85
  79.0549 3.5 28
  80.05 1.9 15
//
