ACCESSION: MSBNK-BAFG-CSL23102618775
RECORD_TITLE: Picolinafen; LC-ESI-QTOF; MS2; 100 V
DATE: 2023.10.26
AUTHORS: Kevin S. Jewell; Björn Ehlig; Arne Wick
LICENSE: dl-de/by-2-0
COPYRIGHT: Copyright 2023 Federal Institute of Hydrology, Koblenz, Germany
COMMENT: CONFIDENCE Reference Standard (Level 1)
COMMENT: Chromatography method: dx.doi.org/10.1016/j.chroma.2015.11.014
COMMENT: Acquisition method: 10.1002/rcm.8541
CH$NAME: Picolinafen
CH$COMPOUND_CLASS: Herbicide
CH$FORMULA: C19H12F4N2O2
CH$EXACT_MASS: 376.0835
CH$SMILES: C1=CC(=CC(=C1)OC2=CC=CC(=N2)C(=O)NC3=CC=C(C=C3)F)C(F)(F)F
CH$IUPAC: InChI=1S/C19H12F4N2O2/c20-13-7-9-14(10-8-13)24-18(26)16-5-2-6-17(25-16)27-15-4-1-3-12(11-15)19(21,22)23/h1-11H,(H,24,26)
CH$LINK: CAS 137641-05-5
CH$LINK: INCHIKEY CWKFPEBMTGKLKX-UHFFFAOYSA-N
AC$INSTRUMENT: TripleTOF 6600 SCIEX
AC$INSTRUMENT_TYPE: LC-ESI-QTOF
AC$MASS_SPECTROMETRY: MS_TYPE MS2
AC$MASS_SPECTROMETRY: ION_MODE POSITIVE
AC$MASS_SPECTROMETRY: COLLISION_ENERGY 100
AC$MASS_SPECTROMETRY: FRAGMENTATION_MODE CID
AC$MASS_SPECTROMETRY: IONIZATION ESI
AC$CHROMATOGRAPHY: COLUMN_NAME Zorbax Eclipse Plus C18 2.1 mm x 150 mm, 3.5 um, Agilent
AC$CHROMATOGRAPHY: COLUMN_TEMPERATURE 40 °C
AC$CHROMATOGRAPHY: FLOW_GRADIENT 0 min min 98% A, 1 min 98% A, 2 min 80% A, 16.5 min 2% A, 22 min 2% A, 22.1 min 98% A, 27 min 98% A
AC$CHROMATOGRAPHY: FLOW_RATE 0.3 mL/min
AC$CHROMATOGRAPHY: RETENTION_TIME 15.501 min
AC$CHROMATOGRAPHY: SOLVENT A: Water 0.1% Formic acid, B: Acetonitrile 0.1% Formic acid
MS$FOCUSED_ION: PRECURSOR_M/Z 377.0908
MS$FOCUSED_ION: PRECURSOR_TYPE [M+H]+
MS$DATA_PROCESSING: COMMENT Export with Spectra 1.9.12 MsBackendMassbank 1.7.4
MS$DATA_PROCESSING: WHOLE RMassBank 2.3.1
PK$SPLASH: splash10-002b-9700000000-a8479de89622aa940e35
PK$NUM_PEAK: 38
PK$PEAK: m/z int. rel.int.
  35.9974 0.6 12
  37.0063 2.5 50
  38.014 2.4 48
  39.0221 14 281
  51.003 1.6 32
  57.012 0.9 18
  68.9926 3.4 68
  73.0066 1.2 24
  74.013 12.8 257
  75.0032 5.5 110
  75.021 32.3 650
  81.0117 1.4 28
  88.0277 0.5 10
  95.0094 1.3 26
  95.0271 43.5 876
  99.0025 2.8 56
  101.0168 0.7 14
  105.0112 0.6 12
  107.0274 0.7 14
  113.0364 2.7 54
  114.0416 1.5 30
  119.0068 3.6 72
  123.0319 8.7 175
  124.0157 0.9 18
  125.0181 20.5 412
  133.0412 3 60
  140.0474 3.5 70
  141.0556 0.8 16
  143.0255 2.4 48
  145.0243 49.6 999
  150.0328 0.7 14
  162.0261 0.5 10
  163.0322 1.4 28
  170.0376 0.8 16
  171.033 0.5 10
  182.0323 1.8 36
  189.0394 1.1 22
  238.0425 1 20
//
