ACCESSION: MSBNK-BAFG-CSL23102610048
RECORD_TITLE: 6`-Hydroxymethyl Simvastatin; LC-ESI-QTOF; MS2; 120 V
DATE: 2023.10.26
AUTHORS: Kevin S. Jewell; Björn Ehlig; Arne Wick
LICENSE: dl-de/by-2-0
COPYRIGHT: Copyright 2023 Federal Institute of Hydrology, Koblenz, Germany
COMMENT: CONFIDENCE Reference Standard (Level 1)
COMMENT: Chromatography method: dx.doi.org/10.1016/j.chroma.2015.11.014
COMMENT: Acquisition method: 10.1002/rcm.8541
CH$NAME: 6`-Hydroxymethyl Simvastatin
CH$COMPOUND_CLASS: Metabolite; Pharmaceutical
CH$FORMULA: C25H38O6
CH$EXACT_MASS: 434.2668
CH$SMILES: CCC(C)(C)C(=O)OC1CC(C=C2C1C(C(C=C2)C)CCC3CC(CC(=O)O3)O)CO
CH$IUPAC: InChI=1S/C25H38O6/c1-5-25(3,4)24(29)31-21-11-16(14-26)10-17-7-6-15(2)20(23(17)21)9-8-19-12-18(27)13-22(28)30-19/h6-7,10,15-16,18-21,23,26-27H,5,8-9,11-14H2,1-4H3
CH$LINK: CAS 128241-03-2
CH$LINK: INCHIKEY ATPFRGQBOVFFQM-UHFFFAOYSA-N
AC$INSTRUMENT: TripleTOF 5600 SCIEX
AC$INSTRUMENT_TYPE: LC-ESI-QTOF
AC$MASS_SPECTROMETRY: MS_TYPE MS2
AC$MASS_SPECTROMETRY: ION_MODE POSITIVE
AC$MASS_SPECTROMETRY: COLLISION_ENERGY 120
AC$MASS_SPECTROMETRY: FRAGMENTATION_MODE CID
AC$MASS_SPECTROMETRY: IONIZATION ESI
AC$CHROMATOGRAPHY: COLUMN_NAME Zorbax Eclipse Plus C18 2.1 mm x 150 mm, 3.5 um, Agilent
AC$CHROMATOGRAPHY: COLUMN_TEMPERATURE 40 °C
AC$CHROMATOGRAPHY: FLOW_GRADIENT 0 min min 98% A, 1 min 98% A, 2 min 80% A, 16.5 min 2% A, 22 min 2% A, 22.1 min 98% A, 27 min 98% A
AC$CHROMATOGRAPHY: FLOW_RATE 0.3 mL/min
AC$CHROMATOGRAPHY: RETENTION_TIME 10.786 min
AC$CHROMATOGRAPHY: SOLVENT A: Water 0.1% Formic acid, B: Acetonitrile 0.1% Formic acid
MS$FOCUSED_ION: PRECURSOR_M/Z 435.2741
MS$FOCUSED_ION: PRECURSOR_TYPE [M+H]+
MS$DATA_PROCESSING: COMMENT Export with Spectra 1.9.12 MsBackendMassbank 1.7.4
MS$DATA_PROCESSING: WHOLE RMassBank 2.3.1
PK$SPLASH: splash10-0fvl-0900000000-a88d3bebcc5ea145be79
PK$NUM_PEAK: 25
PK$PEAK: m/z int. rel.int.
  77.0433 1 142
  79.0583 0.5 71
  91.058 1.2 171
  105.0746 0.5 71
  115.0564 4.4 627
  116.0661 0.5 71
  127.0559 1.5 214
  128.0642 5.3 756
  129.0712 1.1 156
  139.0563 0.4 57
  141.0705 7 999
  142.0796 1.1 156
  151.0561 0.5 71
  152.0622 3.5 499
  153.0711 3.2 456
  154.0792 0.7 99
  155.0885 0.8 114
  164.0636 0.4 57
  165.0709 4.8 685
  166.0855 0.5 71
  167.085 1 142
  178.0788 2.3 328
  179.0883 0.7 99
  191.0861 0.5 71
  202.0824 0.6 85
//
