ACCESSION: MSBNK-BAFG-CSL25010627871
RECORD_TITLE: Iminostilbene; LC-ESI-QTOF; MS2; 120 V
DATE: 2025.01.06
AUTHORS: Ole Lessmann; Kevin S. Jewell; Björn Ehlig; Arne Wick
LICENSE: dl-de/by-2-0
COPYRIGHT: Copyright 2025 Federal Institute of Hydrology, Koblenz, Germany
COMMENT: CONFIDENCE Reference Standard (Level 1)
COMMENT: Chromatography method: dx.doi.org/10.1016/j.chroma.2015.11.014
COMMENT: Acquisition method: 10.1002/rcm.8541
CH$NAME: Iminostilbene
CH$COMPOUND_CLASS: Pharmaceutical
CH$FORMULA: C14H11N
CH$EXACT_MASS: 193.0891
CH$SMILES: C1=CC=C2C(=C1)C=CC3=CC=CC=C3N2
CH$IUPAC: InChI=1S/C14H11N/c1-3-7-13-11(5-1)9-10-12-6-2-4-8-14(12)15-13/h1-10,15H
CH$LINK: CAS 256-96-2
CH$LINK: INCHIKEY LCGTWRLJTMHIQZ-UHFFFAOYSA-N
AC$INSTRUMENT: TripleTOF 6600 SCIEX
AC$INSTRUMENT_TYPE: LC-ESI-QTOF
AC$MASS_SPECTROMETRY: MS_TYPE MS2
AC$MASS_SPECTROMETRY: ION_MODE POSITIVE
AC$MASS_SPECTROMETRY: COLLISION_ENERGY 120
AC$MASS_SPECTROMETRY: FRAGMENTATION_MODE CID
AC$MASS_SPECTROMETRY: IONIZATION ESI
AC$CHROMATOGRAPHY: COLUMN_NAME Zorbax Eclipse Plus C18 2.1 mm x 150 mm, 3.5 um, Agilent
AC$CHROMATOGRAPHY: COLUMN_TEMPERATURE 40 °C
AC$CHROMATOGRAPHY: FLOW_GRADIENT 0 min min 98% A, 1 min 98% A, 2 min 80% A, 16.5 min 2% A, 22 min 2% A, 22.1 min 98% A, 27 min 98% A
AC$CHROMATOGRAPHY: FLOW_RATE 0.3 mL/min
AC$CHROMATOGRAPHY: RETENTION_TIME 13.175 min
AC$CHROMATOGRAPHY: SOLVENT A: Water 0.1% Formic acid, B: Acetonitrile 0.1% Formic acid
MS$FOCUSED_ION: PRECURSOR_M/Z 194.0964
MS$FOCUSED_ION: PRECURSOR_TYPE [M+H]+
MS$DATA_PROCESSING: COMMENT Export with pycsl 0.1.0.dev1 and CSL 24.4
PK$SPLASH: splash10-0ik9-9100000000-ce0c98756563bc1db56b
PK$NUM_PEAK: 63
PK$PEAK: m/z int. rel.int.
  35.9964 11.5 52
  37.0041 55.0 252
  38.0003 2.7 12
  38.0117 37.0 169
  39.0197 102.7 471
  49.0029 30.9 141
  50.0109 196.2 900
  51.0186 136.7 627
  52.0137 5.1 23
  52.0259 7.1 32
  59.9938 7.4 33
  61.0019 82.5 378
  62.0098 155.9 715
  63.0175 217.6 999
  64.0119 6.7 30
  64.0248 4.3 19
  65.0328 14.3 65
  73.0008 27.6 126
  74.0086 194.8 894
  75.0161 71.2 326
  76.0113 6.8 31
  76.0234 16.9 77
  77.0314 14.5 66
  83.9917 5.4 24
  84.9996 46.6 213
  86.0073 85.9 394
  87.015 62.8 288
  88.0103 8.4 38
  88.0222 7.4 33
  89.0305 57.7 264
  96.9981 14.9 68
  98.0064 103.4 474
  99.0016 7.5 34
  99.0135 17.1 78
  100.009 2.6 11
  100.0207 3.3 15
  101.0289 3.4 15
  102.0367 4.2 19
  108.9971 20.5 94
  110.0049 36.5 167
  111.0007 5.0 22
  111.0127 14.4 66
  113.0282 25.4 116
  114.0231 5.2 23
  115.0436 7.2 33
  120.9962 5.2 23
  122.0038 20.2 92
  122.9996 4.0 18
  123.0113 3.5 16
  126.0349 5.1 23
  134.0025 4.5 20
  137.0259 17.7 81
  138.0336 2.6 11
  139.0412 7.5 34
  140.037 4.4 20
  149.0255 2.2 10
  150.0326 11.8 54
  161.0242 23.6 108
  162.0311 21.7 99
  163.0392 27.8 127
  164.0343 7.5 34
  188.0321 13.1 60
  189.041 4.6 21
//