ACCESSION: MSBNK-BAFG-CSL25010627938
RECORD_TITLE: Sudan III; LC-ESI-QTOF; MS2; 40 V
DATE: 2025.01.06
AUTHORS: Ole Lessmann; Kevin S. Jewell; Björn Ehlig; Arne Wick
LICENSE: dl-de/by-2-0
COPYRIGHT: Copyright 2025 Federal Institute of Hydrology, Koblenz, Germany
COMMENT: CONFIDENCE Reference Standard (Level 1)
COMMENT: Chromatography method: dx.doi.org/10.1016/j.chroma.2015.11.014
COMMENT: Acquisition method: 10.1002/rcm.8541
CH$NAME: Sudan III
CH$FORMULA: C22H16N4O
CH$EXACT_MASS: 352.1324
CH$SMILES: C1=CC=C(C=C1)N=NC2=CC=C(C=C2)N=NC3=C(C=CC4=CC=CC=C43)O
CH$IUPAC: InChI=1S/C22H16N4O/c27-21-15-10-16-6-4-5-9-20(16)22(21)26-25-19-13-11-18(12-14-19)24-23-17-7-2-1-3-8-17/h1-15,27H
CH$LINK: CAS 85-86-9
CH$LINK: INCHIKEY FHNINJWBTRXEBC-UHFFFAOYSA-N
AC$INSTRUMENT: TripleTOF X500R SCIEX
AC$INSTRUMENT_TYPE: LC-ESI-QTOF
AC$MASS_SPECTROMETRY: MS_TYPE MS2
AC$MASS_SPECTROMETRY: ION_MODE POSITIVE
AC$MASS_SPECTROMETRY: COLLISION_ENERGY 40
AC$MASS_SPECTROMETRY: FRAGMENTATION_MODE CID
AC$MASS_SPECTROMETRY: IONIZATION ESI
AC$CHROMATOGRAPHY: COLUMN_NAME Zorbax Eclipse Plus C18 2.1 mm x 150 mm, 3.5 um, Agilent
AC$CHROMATOGRAPHY: COLUMN_TEMPERATURE 40 °C
AC$CHROMATOGRAPHY: FLOW_GRADIENT 0 min min 98% A, 1 min 98% A, 2 min 80% A, 16.5 min 2% A, 22 min 2% A, 22.1 min 98% A, 27 min 98% A
AC$CHROMATOGRAPHY: FLOW_RATE 0.3 mL/min
AC$CHROMATOGRAPHY: RETENTION_TIME 19.216 min
AC$CHROMATOGRAPHY: SOLVENT A: Water 0.1% Formic acid, B: Acetonitrile 0.1% Formic acid
MS$FOCUSED_ION: PRECURSOR_M/Z 353.1397
MS$FOCUSED_ION: PRECURSOR_TYPE [M+H]+
MS$DATA_PROCESSING: COMMENT Export with pycsl 0.1.0.dev1 and CSL 24.4
PK$SPLASH: splash10-002e-3900000000-acfe7b62b97cdb193132
PK$NUM_PEAK: 43
PK$PEAK: m/z int. rel.int.
  51.0231 0.9 33
  59.0315 3.2 119
  60.0328 1.3 48
  65.0397 0.6 22
  73.0479 1.4 52
  77.0392 24.8 927
  91.0425 4.3 160
  92.05 12.6 471
  99.0642 1.0 37
  100.0647 0.6 22
  101.0395 1.2 44
  105.0456 1.0 37
  115.0547 5.4 202
  120.0565 6.6 246
  128.0501 21.2 793
  129.0532 0.6 22
  141.0704 9.6 359
  143.05 8.7 325
  143.0759 0.4 14
  151.0542 1.1 41
  155.0629 0.4 14
  156.0453 14.6 546
  156.0679 0.7 26
  167.0743 4.4 164
  168.0807 4.1 153
  169.0779 2.5 93
  171.0546 1.1 41
  181.0757 1.4 52
  182.0853 1.7 63
  196.0878 25.6 957
  197.0953 26.7 999
  198.1027 2.6 97
  205.0876 0.6 22
  218.0845 0.7 26
  219.0942 1.7 63
  220.0999 0.5 18
  230.0816 0.7 26
  231.0918 1.7 63
  232.0885 2.1 78
  233.0715 0.6 22
  247.0871 1.4 52
  262.0953 0.5 18
  353.1397 2.0 74
//