ACCESSION: MSBNK-BAFG-CSL25010634480
RECORD_TITLE: Disperse brown 1; LC-ESI-QTOF; MS2; 90 V
DATE: 2025.01.06
AUTHORS: Ole Lessmann; Kevin S. Jewell; Björn Ehlig; Arne Wick
LICENSE: dl-de/by-2-0
COPYRIGHT: Copyright 2025 Federal Institute of Hydrology, Koblenz, Germany
COMMENT: CONFIDENCE Reference Standard (Level 1)
COMMENT: Chromatography method: dx.doi.org/10.1016/j.chroma.2015.11.014
COMMENT: Acquisition method: 10.1002/rcm.8541
CH$NAME: Disperse brown 1
CH$FORMULA: C16H15Cl3N4O4
CH$EXACT_MASS: 432.0159
CH$SMILES: C1=CC(=C(C=C1N(CCO)CCO)Cl)N=NC2=C(C=C(C=C2Cl)[N+](=O)[O-])Cl
CH$IUPAC: InChI=1S/C16H15Cl3N4O4/c17-12-7-10(22(3-5-24)4-6-25)1-2-15(12)20-21-16-13(18)8-11(23(26)27)9-14(16)19/h1-2,7-9,24-25H,3-6H2
CH$LINK: CAS 23355-64-8
CH$LINK: INCHIKEY HXXLWTPFYWMBSC-UHFFFAOYSA-N
AC$INSTRUMENT: TripleTOF 6600 SCIEX
AC$INSTRUMENT_TYPE: LC-ESI-QTOF
AC$MASS_SPECTROMETRY: MS_TYPE MS2
AC$MASS_SPECTROMETRY: ION_MODE POSITIVE
AC$MASS_SPECTROMETRY: COLLISION_ENERGY 90
AC$MASS_SPECTROMETRY: FRAGMENTATION_MODE CID
AC$MASS_SPECTROMETRY: IONIZATION ESI
AC$CHROMATOGRAPHY: COLUMN_NAME Zorbax Eclipse Plus C18 2.1 mm x 150 mm, 3.5 um, Agilent
AC$CHROMATOGRAPHY: COLUMN_TEMPERATURE 40 °C
AC$CHROMATOGRAPHY: FLOW_GRADIENT 0 min min 98% A, 1 min 98% A, 2 min 80% A, 16.5 min 2% A, 22 min 2% A, 22.1 min 98% A, 27 min 98% A
AC$CHROMATOGRAPHY: FLOW_RATE 0.3 mL/min
AC$CHROMATOGRAPHY: RETENTION_TIME 12.39 min
AC$CHROMATOGRAPHY: SOLVENT A: Water 0.1% Formic acid, B: Acetonitrile 0.1% Formic acid
MS$FOCUSED_ION: PRECURSOR_M/Z 433.0232
MS$FOCUSED_ION: PRECURSOR_TYPE [M+H]+
MS$DATA_PROCESSING: COMMENT Export with pycsl 0.1.0.dev1 and CSL 24.4
PK$SPLASH: splash10-052f-2900000000-18fcbc3f1c5dc046cea3
PK$NUM_PEAK: 48
PK$PEAK: m/z int. rel.int.
  45.0345 0.4 43
  65.0385 0.5 54
  74.0146 1.0 109
  75.0229 0.5 54
  76.018 0.9 98
  77.039 1.1 120
  78.0332 1.0 109
  80.9743 0.5 54
  83.9751 0.4 43
  89.0379 0.5 54
  90.0331 2.4 263
  91.0552 0.9 98
  92.0491 0.7 76
  96.9841 1.1 120
  98.9999 1.0 109
  103.0278 1.2 131
  104.0495 2.3 252
  105.0546 1.3 142
  106.9443 0.5 54
  107.9748 2.2 241
  108.9836 8.4 922
  109.9924 0.6 65
  110.9993 0.9 98
  111.9937 1.0 109
  114.0105 0.9 98
  116.05 0.5 54
  117.0441 0.6 65
  117.0556 3.7 406
  118.0527 1.2 131
  118.0668 2.3 252
  119.0602 0.7 76
  123.9929 3.9 428
  125.0041 0.9 98
  126.0107 1.5 164
  127.0206 0.7 76
  130.063 1.0 109
  131.0649 0.8 87
  138.0069 0.4 43
  139.0154 2.2 241
  140.0271 0.9 98
  142.9469 2.7 296
  143.9521 9.1 999
  145.076 0.5 54
  152.0139 1.0 109
  153.0195 2.3 252
  153.0317 0.8 87
  184.0088 0.6 65
  213.0216 0.8 87
//