ACCESSION: MSBNK-BAFG-CSL25011734707
RECORD_TITLE: Solway Green G; LC-ESI-QTOF; MS2; 40 V
DATE: 2025.01.17
AUTHORS: Ole Lessmann; Kevin S. Jewell; Björn Ehlig; Arne Wick
LICENSE: dl-de/by-2-0
COPYRIGHT: Copyright 2025 Federal Institute of Hydrology, Koblenz, Germany
COMMENT: CONFIDENCE Reference Standard (Level 1)
COMMENT: Chromatography method: dx.doi.org/10.1016/j.chroma.2015.11.014
CH$NAME: Solway Green G
CH$FORMULA: C28H22N2O8S2
CH$EXACT_MASS: 578.0818
CH$SMILES: CC1=CC(=C(C=C1)NC2=C3C(=C(C=C2)NC4=C(C=C(C=C4)C)S(=O)(=O)O)C(=O)C5=CC=CC=C5C3=O)S(=O)(=O)O
CH$IUPAC: InChI=1S/C28H22N2O8S2/c1-15-7-9-19(23(13-15)39(33,34)35)29-21-11-12-22(30-20-10-8-16(2)14-24(20)40(36,37)38)26-25(21)27(31)17-5-3-4-6-18(17)28(26)32/h3-14,29-30H,1-2H3,(H,33,34,35)(H,36,37,38)
CH$LINK: CAS 3443-90-1
CH$LINK: INCHIKEY BGBDMEPBLWJCHI-UHFFFAOYSA-N
AC$INSTRUMENT: TripleTOF 6600 SCIEX
AC$INSTRUMENT_TYPE: LC-ESI-QTOF
AC$MASS_SPECTROMETRY: MS_TYPE MS2
AC$MASS_SPECTROMETRY: ION_MODE NEGATIVE
AC$MASS_SPECTROMETRY: COLLISION_ENERGY 40
AC$MASS_SPECTROMETRY: FRAGMENTATION_MODE CID
AC$MASS_SPECTROMETRY: IONIZATION ESI
AC$CHROMATOGRAPHY: COLUMN_NAME Zorbax Eclipse Plus C18 2.1 mm x 150 mm, 3.5 um, Agilent
AC$CHROMATOGRAPHY: COLUMN_TEMPERATURE 40 °C
AC$CHROMATOGRAPHY: FLOW_GRADIENT 0 min min 98% A, 1 min 98% A, 2 min 80% A, 16.5 min 2% A, 22 min 2% A, 22.1 min 98% A, 27 min 98% A
AC$CHROMATOGRAPHY: FLOW_RATE 0.3 mL/min
AC$CHROMATOGRAPHY: RETENTION_TIME 10.62 min
AC$CHROMATOGRAPHY: SOLVENT A: Water 0.1% Formic acid, B: Acetonitrile 0.1% Formic acid
MS$FOCUSED_ION: PRECURSOR_M/Z 288.0336
MS$FOCUSED_ION: PRECURSOR_TYPE [M-2H]2-
MS$DATA_PROCESSING: COMMENT Export with pycsl 0.1.0.dev1 and CSL 25.0
PK$SPLASH: splash10-004i-9101100000-25467db0257c1c2fc6cf
PK$NUM_PEAK: 35
PK$PEAK: m/z int. rel.int.
  79.7092 1.2652 6
  79.9569 199.825 999
  80.9641 14.7682 73
  121.0529 2.3569 11
  122.0607 1.0391 5
  132.0448 2.7648 13
  170.003 1.8687 9
  184.0068 6.4457 32
  185.0135 8.8624 44
  186.0228 9.8687 49
  282.091 1.2342 6
  297.0815 1.5872 7
  298.0873 5.9706 29
  299.0945 4.0276 20
  310.085 6.9337 34
  323.0802 1.0635 5
  324.0893 3.3977 16
  325.1001 2.5247 12
  326.0802 2.5044 12
  337.0985 1.0928 5
  362.0495 1.1645 5
  385.1338 2.2521 11
  387.148 2.8836 14
  397.1335 2.9317 14
  398.1448 1.2941 6
  401.1293 1.126 5
  403.1394 1.1302 5
  413.1284 3.0758 15
  414.1338 3.3309 16
  415.1423 12.0799 60
  416.1475 1.1426 5
  431.139 1.9471 9
  451.106 1.0077 5
  467.1125 1.8097 9
  495.0988 2.213 11
//
