ACCESSION: MSBNK-BAFG-CSL25011734592
RECORD_TITLE: Food Yellow 3 free acid; LC-ESI-QTOF; MS2; 120 V
DATE: 2025.01.17
AUTHORS: Ole Lessmann; Kevin S. Jewell; Björn Ehlig; Arne Wick
LICENSE: dl-de/by-2-0
COPYRIGHT: Copyright 2025 Federal Institute of Hydrology, Koblenz, Germany
COMMENT: CONFIDENCE Reference Standard (Level 1)
COMMENT: Chromatography method: dx.doi.org/10.1016/j.chroma.2015.11.014
CH$NAME: Food Yellow 3 free acid
CH$FORMULA: C16H12N2O7S2
CH$EXACT_MASS: 408.0086
CH$SMILES: C1=CC(=CC=C1N=NC2=C(C=CC3=C2C=CC(=C3)S(=O)(=O)O)O)S(=O)(=O)O
CH$IUPAC: InChI=1S/C16H12N2O7S2/c19-15-8-1-10-9-13(27(23,24)25)6-7-14(10)16(15)18-17-11-2-4-12(5-3-11)26(20,21)22/h1-9,19H,(H,20,21,22)(H,23,24,25)
CH$LINK: CAS 5859-11-0
CH$LINK: INCHIKEY KEYWXKLGZZGHMT-UHFFFAOYSA-N
AC$INSTRUMENT: TripleTOF 6600 SCIEX
AC$INSTRUMENT_TYPE: LC-ESI-QTOF
AC$MASS_SPECTROMETRY: MS_TYPE MS2
AC$MASS_SPECTROMETRY: ION_MODE POSITIVE
AC$MASS_SPECTROMETRY: COLLISION_ENERGY 120
AC$MASS_SPECTROMETRY: FRAGMENTATION_MODE CID
AC$MASS_SPECTROMETRY: IONIZATION ESI
AC$CHROMATOGRAPHY: COLUMN_NAME Zorbax Eclipse Plus C18 2.1 mm x 150 mm, 3.5 um, Agilent
AC$CHROMATOGRAPHY: COLUMN_TEMPERATURE 40 °C
AC$CHROMATOGRAPHY: FLOW_GRADIENT 0 min min 98% A, 1 min 98% A, 2 min 80% A, 16.5 min 2% A, 22 min 2% A, 22.1 min 98% A, 27 min 98% A
AC$CHROMATOGRAPHY: FLOW_RATE 0.3 mL/min
AC$CHROMATOGRAPHY: RETENTION_TIME 5.59 min
AC$CHROMATOGRAPHY: SOLVENT A: Water 0.1% Formic acid, B: Acetonitrile 0.1% Formic acid
MS$FOCUSED_ION: PRECURSOR_M/Z 409.0159
MS$FOCUSED_ION: PRECURSOR_TYPE [M+H]+
MS$DATA_PROCESSING: COMMENT Export with pycsl 0.1.0.dev1 and CSL 25.0
PK$SPLASH: splash10-0ff0-9200000000-536eed78f378babf2aeb
PK$NUM_PEAK: 64
PK$PEAK: m/z int. rel.int.
  37.0065 1.7 15
  38.016 1.6 14
  39.023 17.8 159
  50.0151 11.1 99
  51.0226 9.2 82
  52.0307 2.4 21
  53.0385 31.0 278
  61.0067 3.8 34
  62.015 9.8 88
  63.0226 35.4 318
  64.0169 1.4 12
  64.9681 5.2 46
  65.0385 40.3 362
  66.0336 1.7 15
  73.0061 3.4 30
  74.0147 84.6 760
  75.0105 4.5 40
  75.0222 15.5 139
  76.018 2.9 26
  76.0299 18.3 164
  77.0383 7.1 63
  80.0495 111.2 999
  81.0324 4.1 36
  86.0146 1.2 10
  87.0222 4.2 37
  88.0185 1.3 11
  88.0299 3.9 35
  89.0381 33.7 302
  90.0333 2.7 24
  92.0485 7.9 70
  98.0153 15.3 137
  99.0099 11.3 101
  99.0212 17.2 154
  100.0291 60.8 546
  101.0253 8.6 77
  102.045 3.3 29
  108.044 10.7 96
  109.0501 1.3 11
  114.0336 4.9 44
  115.0544 1.3 11
  126.041 3.7 33
  127.0415 25.7 230
  128.0465 1.3 11
  139.0535 1.1 9
  149.0377 1.6 14
  150.0441 1.6 14
  151.0507 1.4 12
  163.051 2.1 18
  164.0495 1.7 15
  174.0435 3.1 27
  175.0528 5.1 45
  176.0512 2.9 26
  188.0479 2.2 19
  189.0563 2.2 19
  190.0648 4.6 41
  200.0502 1.2 10
  201.0575 7.9 70
  202.0661 2.1 18
  203.0637 1.6 14
  216.0701 5.3 47
  217.0732 1.4 12
  227.0583 2.6 23
  228.0676 3.2 28
  229.0753 3.4 30
//
