ACCESSION: MSBNK-BAFG-CSL23111015159
RECORD_TITLE: 2-(3-Hydroxyquinolin-2-yl)indene-1,3-dione; LC-ESI-QTOF; MS2; 50 V
DATE: 2023.11.10
AUTHORS: Kevin S. Jewell; Björn Ehlig; Arne Wick
LICENSE: dl-de/by-2-0
COPYRIGHT: Copyright 2023 Federal Institute of Hydrology, Koblenz, Germany
COMMENT: CONFIDENCE Reference Standard (Level 1)
COMMENT: Chromatography method: dx.doi.org/10.1016/j.chroma.2015.11.014
COMMENT: Acquisition method: 10.1002/rcm.8541
CH$NAME: 2-(3-Hydroxyquinolin-2-yl)indene-1,3-dione
CH$COMPOUND_CLASS: Industrial_process; Personal_care_product; Pigment
CH$FORMULA: C18H11NO3
CH$EXACT_MASS: 289.0739
CH$SMILES: C1=CC=C2C(=C1)C=C(C(=N2)C3C(=O)C4=CC=CC=C4C3=O)O
CH$IUPAC: InChI=1S/C18H11NO3/c20-14-9-10-5-1-4-8-13(10)19-16(14)15-17(21)11-6-2-3-7-12(11)18(15)22/h1-9,15,20H
CH$LINK: CAS 7576-65-0
CH$LINK: INCHIKEY FDTLQXNAPKJJAM-UHFFFAOYSA-N
AC$INSTRUMENT: TripleTOF 6600 SCIEX
AC$INSTRUMENT_TYPE: LC-ESI-QTOF
AC$MASS_SPECTROMETRY: MS_TYPE MS2
AC$MASS_SPECTROMETRY: ION_MODE NEGATIVE
AC$MASS_SPECTROMETRY: COLLISION_ENERGY 50
AC$MASS_SPECTROMETRY: FRAGMENTATION_MODE CID
AC$MASS_SPECTROMETRY: IONIZATION ESI
AC$CHROMATOGRAPHY: COLUMN_NAME Zorbax Eclipse Plus C18 2.1 mm x 150 mm, 3.5 um, Agilent
AC$CHROMATOGRAPHY: COLUMN_TEMPERATURE 40 °C
AC$CHROMATOGRAPHY: FLOW_GRADIENT 0 min min 98% A, 1 min 98% A, 2 min 80% A, 16.5 min 2% A, 22 min 2% A, 22.1 min 98% A, 27 min 98% A
AC$CHROMATOGRAPHY: FLOW_RATE 0.3 mL/min
AC$CHROMATOGRAPHY: RETENTION_TIME 14.718 min
AC$CHROMATOGRAPHY: SOLVENT A: Water 0.1% Formic acid, B: Acetonitrile 0.1% Formic acid
MS$FOCUSED_ION: PRECURSOR_M/Z 288.0666
MS$FOCUSED_ION: PRECURSOR_TYPE [M-H]-
MS$DATA_PROCESSING: COMMENT Export with Spectra 1.9.12 MsBackendMassbank 1.7.4
MS$DATA_PROCESSING: WHOLE RMassBank 2.3.1
PK$SPLASH: splash10-0002-0690000000-2090a578813762d617f0
PK$NUM_PEAK: 25
PK$PEAK: m/z int. rel.int.
  41.0044 0.4 24
  41.9976 0.6 36
  77.0386 0.7 42
  101.0385 2.6 159
  102.0331 0.4 24
  116.0506 0.6 36
  117.0332 0.6 36
  140.0509 1.1 67
  145.0287 16.3 999
  168.046 1.1 67
  170.0241 1.2 73
  183.0305 0.7 42
  203.0734 1 61
  204.0809 0.5 30
  214.066 0.8 49
  215.0735 1.5 91
  216.0816 7.1 435
  231.0686 2.1 128
  232.0772 1.4 85
  242.0602 2 122
  244.076 2.1 128
  259.0623 6.5 398
  260.0708 5.1 312
  270.0549 0.8 49
  288.066 2.1 128
//
