ACCESSION: MSBNK-BAFG-CSL23110915651
RECORD_TITLE: 1-Cyclohexyl-3-ethylurea; LC-ESI-QTOF; MS2; 40 V
DATE: 2023.11.09
AUTHORS: Kevin S. Jewell; Björn Ehlig; Arne Wick
LICENSE: dl-de/by-2-0
COPYRIGHT: Copyright 2023 Federal Institute of Hydrology, Koblenz, Germany
COMMENT: CONFIDENCE Reference Standard (Level 1)
COMMENT: Chromatography method: dx.doi.org/10.1016/j.chroma.2015.11.014
COMMENT: Acquisition method: 10.1002/rcm.8541
CH$NAME: 1-Cyclohexyl-3-ethylurea
CH$FORMULA: C9H18N2O
CH$EXACT_MASS: 170.1419
CH$SMILES: CCNC(=O)NC1CCCCC1
CH$IUPAC: InChI=1S/C9H18N2O/c1-2-10-9(12)11-8-6-4-3-5-7-8/h8H,2-7H2,1H3,(H2,10,11,12)
CH$LINK: CAS 36102-06-4
CH$LINK: INCHIKEY BBUVNFZPAAVCSX-UHFFFAOYSA-N
AC$INSTRUMENT: TripleTOF 6600 SCIEX
AC$INSTRUMENT_TYPE: LC-ESI-QTOF
AC$MASS_SPECTROMETRY: MS_TYPE MS2
AC$MASS_SPECTROMETRY: ION_MODE POSITIVE
AC$MASS_SPECTROMETRY: COLLISION_ENERGY 40
AC$MASS_SPECTROMETRY: FRAGMENTATION_MODE CID
AC$MASS_SPECTROMETRY: IONIZATION ESI
AC$CHROMATOGRAPHY: COLUMN_NAME Zorbax Eclipse Plus C18 2.1 mm x 150 mm, 3.5 um, Agilent
AC$CHROMATOGRAPHY: COLUMN_TEMPERATURE 40 °C
AC$CHROMATOGRAPHY: FLOW_GRADIENT 0 min min 98% A, 1 min 98% A, 2 min 80% A, 16.5 min 2% A, 22 min 2% A, 22.1 min 98% A, 27 min 98% A
AC$CHROMATOGRAPHY: FLOW_RATE 0.3 mL/min
AC$CHROMATOGRAPHY: RETENTION_TIME 7.696 min
AC$CHROMATOGRAPHY: SOLVENT A: Water 0.1% Formic acid, B: Acetonitrile 0.1% Formic acid
MS$FOCUSED_ION: PRECURSOR_M/Z 171.1492
MS$FOCUSED_ION: PRECURSOR_TYPE [M+H]+
MS$DATA_PROCESSING: COMMENT Export with Spectra 1.9.12 MsBackendMassbank 1.7.4
MS$DATA_PROCESSING: WHOLE RMassBank 2.3.1
PK$SPLASH: splash10-0a4i-9000000000-7691d571393f99491cfd
PK$NUM_PEAK: 10
PK$PEAK: m/z int. rel.int.
  39.0225 30.5 81
  41.038 33.1 88
  44.0124 35 93
  46.0647 80.8 214
  53.0376 5.2 13
  55.0539 375.6 999
  72.0434 10.8 28
  83.0847 64.7 172
  89.0702 49.3 131
  171.1483 3.8 10
//
