ACCESSION: MSBNK-BAFG-CSL25010634373
RECORD_TITLE: 3,3`-Dichlorobenzidine; LC-ESI-QTOF; MS2; 120 V
DATE: 2025.01.06
AUTHORS: Ole Lessmann; Kevin S. Jewell; Björn Ehlig; Arne Wick
LICENSE: dl-de/by-2-0
COPYRIGHT: Copyright 2025 Federal Institute of Hydrology, Koblenz, Germany
COMMENT: CONFIDENCE Reference Standard (Level 1)
COMMENT: Chromatography method: dx.doi.org/10.1016/j.chroma.2015.11.014
COMMENT: Acquisition method: 10.1002/rcm.8541
CH$NAME: 3,3`-Dichlorobenzidine
CH$FORMULA: C12H10Cl2N2
CH$EXACT_MASS: 252.0221
CH$SMILES: C1=CC(=C(C=C1C2=CC(=C(C=C2)N)Cl)Cl)N
CH$IUPAC: InChI=1S/C12H10Cl2N2/c13-9-5-7(1-3-11(9)15)8-2-4-12(16)10(14)6-8/h1-6H,15-16H2
CH$LINK: CAS 91-94-1
CH$LINK: INCHIKEY HUWXDEQWWKGHRV-UHFFFAOYSA-N
AC$INSTRUMENT: TripleTOF 6600 SCIEX
AC$INSTRUMENT_TYPE: LC-ESI-QTOF
AC$MASS_SPECTROMETRY: MS_TYPE MS2
AC$MASS_SPECTROMETRY: ION_MODE POSITIVE
AC$MASS_SPECTROMETRY: COLLISION_ENERGY 120
AC$MASS_SPECTROMETRY: FRAGMENTATION_MODE CID
AC$MASS_SPECTROMETRY: IONIZATION ESI
AC$CHROMATOGRAPHY: COLUMN_NAME Zorbax Eclipse Plus C18 2.1 mm x 150 mm, 3.5 um, Agilent
AC$CHROMATOGRAPHY: COLUMN_TEMPERATURE 40 °C
AC$CHROMATOGRAPHY: FLOW_GRADIENT 0 min min 98% A, 1 min 98% A, 2 min 80% A, 16.5 min 2% A, 22 min 2% A, 22.1 min 98% A, 27 min 98% A
AC$CHROMATOGRAPHY: FLOW_RATE 0.3 mL/min
AC$CHROMATOGRAPHY: RETENTION_TIME 11.426 min
AC$CHROMATOGRAPHY: SOLVENT A: Water 0.1% Formic acid, B: Acetonitrile 0.1% Formic acid
MS$FOCUSED_ION: PRECURSOR_M/Z 253.0294
MS$FOCUSED_ION: PRECURSOR_TYPE [M+H]+
MS$DATA_PROCESSING: COMMENT Export with pycsl 0.1.0.dev1 and CSL 24.4
PK$SPLASH: splash10-004i-9200000000-c025dc255de737bf4d66
PK$NUM_PEAK: 54
PK$PEAK: m/z int. rel.int.
  37.0081 0.8 42
  38.0158 0.6 31
  39.0228 1.4 74
  50.0155 4.5 239
  51.0231 11.6 616
  52.0188 1.1 58
  60.0003 0.5 26
  61.0071 2.6 138
  62.0155 5.9 313
  63.0233 9.1 483
  65.039 0.6 31
  73.0091 1.4 74
  74.0155 14.8 786
  75.0229 15.3 813
  76.0181 0.8 42
  76.0308 2.6 138
  77.0381 18.8 999
  85.0074 4.8 255
  86.0152 10.0 531
  87.023 6.0 318
  88.0313 1.4 74
  89.0382 4.7 249
  97.0092 0.5 26
  98.0157 6.9 366
  99.0108 0.7 37
  99.0221 1.8 95
  100.0306 0.9 47
  101.0385 3.1 164
  102.0346 0.6 31
  102.0474 2.0 106
  103.0519 0.8 42
  104.0504 0.5 26
  105.0466 0.6 31
  109.0081 1.0 53
  110.0165 2.9 154
  111.0218 1.0 53
  112.0344 0.5 26
  113.037 2.2 116
  114.0334 0.5 26
  122.0186 1.0 53
  125.0395 0.8 42
  126.0471 10.0 531
  127.0542 1.7 90
  128.0487 0.6 31
  129.0447 0.6 31
  137.0385 2.3 122
  138.04 0.9 47
  139.0535 1.0 53
  140.0502 0.6 31
  151.0429 0.5 26
  152.0497 1.3 69
  153.0588 0.9 47
  164.0504 0.6 31
  179.0607 0.4 21
//