ACCESSION: MSBNK-BAFG-CSL2310262221
RECORD_TITLE: 6-Methylthioinosin; LC-ESI-QTOF; MS2; 40 V
DATE: 2023.10.26
AUTHORS: Kevin S. Jewell; Björn Ehlig; Arne Wick
LICENSE: dl-de/by-2-0
COPYRIGHT: Copyright 2023 Federal Institute of Hydrology, Koblenz, Germany
COMMENT: CONFIDENCE Reference Standard (Level 1)
COMMENT: Chromatography method: dx.doi.org/10.1016/j.chroma.2015.11.014
COMMENT: Acquisition method: 10.1002/rcm.8541
CH$NAME: 6-Methylthioinosin
CH$COMPOUND_CLASS: Pharmaceutical
CH$FORMULA: C11H14N4O4S
CH$EXACT_MASS: 298.0736
CH$SMILES: CSc1ncnc2n(cnc12)C3OC(CO)C(O)C3O
CH$IUPAC: InChI=1S/C11H14N4O4S/c1-20-10-6-9(12-3-13-10)15(4-14-6)11-8(18)7(17)5(2-16)19-11/h3-5,7-8,11,16-18H,2H2,1H3
CH$LINK: CAS 342-69-8
CH$LINK: INCHIKEY ZDRFDHHANOYUTE-UHFFFAOYSA-N
AC$INSTRUMENT: TripleTOF 5600 SCIEX
AC$INSTRUMENT_TYPE: LC-ESI-QTOF
AC$MASS_SPECTROMETRY: MS_TYPE MS2
AC$MASS_SPECTROMETRY: ION_MODE NEGATIVE
AC$MASS_SPECTROMETRY: COLLISION_ENERGY 40
AC$MASS_SPECTROMETRY: FRAGMENTATION_MODE CID
AC$MASS_SPECTROMETRY: IONIZATION ESI
AC$CHROMATOGRAPHY: COLUMN_NAME Zorbax Eclipse Plus C18 2.1 mm x 150 mm, 3.5 um, Agilent
AC$CHROMATOGRAPHY: COLUMN_TEMPERATURE 40 °C
AC$CHROMATOGRAPHY: FLOW_GRADIENT 0 min min 98% A, 1 min 98% A, 2 min 80% A, 16.5 min 2% A, 22 min 2% A, 22.1 min 98% A, 27 min 98% A
AC$CHROMATOGRAPHY: FLOW_RATE 0.3 mL/min
AC$CHROMATOGRAPHY: RETENTION_TIME 5.666 min
AC$CHROMATOGRAPHY: SOLVENT A: Water 0.1% Formic acid, B: Acetonitrile 0.1% Formic acid
MS$FOCUSED_ION: PRECURSOR_M/Z 297.0663
MS$FOCUSED_ION: PRECURSOR_TYPE [M-H]-
MS$DATA_PROCESSING: COMMENT Export with Spectra 1.9.12 MsBackendMassbank 1.7.4
MS$DATA_PROCESSING: WHOLE RMassBank 2.3.1
PK$SPLASH: splash10-014i-0900000000-3c81938e072e3e6065d0
PK$NUM_PEAK: 9
PK$PEAK: m/z int. rel.int.
  119.0353 0.2 68
  120.9534 0.2 68
  136.9465 0.7 241
  138.9646 0.4 137
  149.9983 1.1 378
  165.0206 2.9 999
  166.9581 0.2 68
  182.9499 0.9 310
  210.9483 0.2 68
//
