ACCESSION: MSBNK-BAFG-CSL231109861
RECORD_TITLE: (Methoxycarbonylmethyl)triphenylphosphonium; LC-ESI-QTOF; MS2; 150 V
DATE: 2023.11.09
AUTHORS: Kevin S. Jewell; Björn Ehlig; Arne Wick
LICENSE: dl-de/by-2-0
COPYRIGHT: Copyright 2023 Federal Institute of Hydrology, Koblenz, Germany
COMMENT: CONFIDENCE Reference Standard (Level 1)
COMMENT: Chromatography method: dx.doi.org/10.1016/j.chroma.2015.11.014
COMMENT: Acquisition method: 10.1002/rcm.8541
CH$NAME: (Methoxycarbonylmethyl)triphenylphosphonium
CH$COMPOUND_CLASS: Industrial_process
CH$FORMULA: [C21H20O2P]+
CH$EXACT_MASS: 335.1195
CH$SMILES: COC(=O)C[P+](c1ccccc1)(c2ccccc2)c3ccccc3
CH$IUPAC: InChI=1S/C21H20O2P/c1-23-21(22)17-24(18-11-5-2-6-12-18,19-13-7-3-8-14-19)20-15-9-4-10-16-20/h2-16H,17H2,1H3/q+1
CH$LINK: CAS 1779-58-4
CH$LINK: INCHIKEY WAUPCPBLQVSZQD-UHFFFAOYSA-N
AC$INSTRUMENT: TripleTOF 5600 SCIEX
AC$INSTRUMENT_TYPE: LC-ESI-QTOF
AC$MASS_SPECTROMETRY: MS_TYPE MS2
AC$MASS_SPECTROMETRY: ION_MODE POSITIVE
AC$MASS_SPECTROMETRY: COLLISION_ENERGY 150
AC$MASS_SPECTROMETRY: FRAGMENTATION_MODE CID
AC$MASS_SPECTROMETRY: IONIZATION ESI
AC$CHROMATOGRAPHY: COLUMN_NAME Zorbax Eclipse Plus C18 2.1 mm x 150 mm, 3.5 um, Agilent
AC$CHROMATOGRAPHY: COLUMN_TEMPERATURE 40 °C
AC$CHROMATOGRAPHY: FLOW_GRADIENT 0 min min 98% A, 1 min 98% A, 2 min 80% A, 16.5 min 2% A, 22 min 2% A, 22.1 min 98% A, 27 min 98% A
AC$CHROMATOGRAPHY: FLOW_RATE 0.3 mL/min
AC$CHROMATOGRAPHY: RETENTION_TIME 7.721 min
AC$CHROMATOGRAPHY: SOLVENT A: Water 0.1% Formic acid, B: Acetonitrile 0.1% Formic acid
MS$FOCUSED_ION: PRECURSOR_M/Z 335.1195
MS$FOCUSED_ION: PRECURSOR_TYPE [M]+
MS$DATA_PROCESSING: COMMENT Export with Spectra 1.9.12 MsBackendMassbank 1.7.4
MS$DATA_PROCESSING: WHOLE RMassBank 2.3.1
PK$SPLASH: splash10-0zfr-2900000000-57e04347ce1e88c91225
PK$NUM_PEAK: 36
PK$PEAK: m/z int. rel.int.
  56.9956 4.8 98
  65.0426 5.2 106
  74.0181 7.4 151
  76.0326 5.5 112
  77.0412 7.8 160
  78.0483 3.2 65
  79.9829 15.4 315
  80.9906 18.5 379
  87.0238 5.6 114
  89.0392 21.6 443
  98.0151 3.5 71
  102.0474 10.1 207
  103.9819 5.7 116
  107.0047 48.7 999
  113.0384 8 164
  115.0537 19.4 397
  125.0404 3.2 65
  126.0465 24.3 498
  131.0033 8.1 166
  133.0177 3.9 80
  139.0542 16 328
  150.0463 26.5 543
  151.0538 37 758
  152.0616 36.7 752
  155.0049 7 143
  156.0121 7 143
  157.0205 20.3 416
  163.0538 9.6 196
  165.07 2.8 57
  179.0049 5.9 121
  180.0124 9.3 190
  181.0196 27.9 572
  224.0624 6.9 141
  225.0685 2.5 51
  226.075 4.4 90
  255.0339 4.5 92
//
