ACCESSION: MSBNK-BAFG-CSL23111013373
RECORD_TITLE: Inosine 5`-monophosphate; LC-ESI-QTOF; MS2; 100 V
DATE: 2023.11.10
AUTHORS: Kevin S. Jewell; Björn Ehlig; Arne Wick
LICENSE: dl-de/by-2-0
COPYRIGHT: Copyright 2023 Federal Institute of Hydrology, Koblenz, Germany
COMMENT: CONFIDENCE Reference Standard (Level 1)
COMMENT: Chromatography method: dx.doi.org/10.1016/j.chroma.2015.11.014
COMMENT: Acquisition method: 10.1002/rcm.8541
CH$NAME: Inosine 5`-monophosphate
CH$COMPOUND_CLASS: Metabolite
CH$FORMULA: C10H13N4O8P
CH$EXACT_MASS: 348.0471
CH$SMILES: O=P(O)(O)OCC(O1)C(C(O)C1N(C=N2)C3=C2C(NC=N3)=O)O
CH$IUPAC: InChI=1S/C10H13N4O8P/c15-6-4(1-21-23(18,19)20)22-10(7(6)16)14-3-13-5-8(14)11-2-12-9(5)17/h2-4,6-7,10,15-16H,1H2,(H,11,12,17)(H2,18,19,20)
CH$LINK: CAS 131-99-7
CH$LINK: INCHIKEY GRSZFWQUAKGDAV-UHFFFAOYSA-N
AC$INSTRUMENT: TripleTOF 5600 SCIEX
AC$INSTRUMENT_TYPE: LC-ESI-QTOF
AC$MASS_SPECTROMETRY: MS_TYPE MS2
AC$MASS_SPECTROMETRY: ION_MODE POSITIVE
AC$MASS_SPECTROMETRY: COLLISION_ENERGY 100
AC$MASS_SPECTROMETRY: FRAGMENTATION_MODE CID
AC$MASS_SPECTROMETRY: IONIZATION ESI
AC$CHROMATOGRAPHY: COLUMN_NAME Zorbax Eclipse Plus C18 2.1 mm x 150 mm, 3.5 um, Agilent
AC$CHROMATOGRAPHY: COLUMN_TEMPERATURE 40 °C
AC$CHROMATOGRAPHY: FLOW_GRADIENT 0 min min 98% A, 1 min 98% A, 2 min 80% A, 16.5 min 2% A, 22 min 2% A, 22.1 min 98% A, 27 min 98% A
AC$CHROMATOGRAPHY: FLOW_RATE 0.3 mL/min
AC$CHROMATOGRAPHY: RETENTION_TIME 2.062 min
AC$CHROMATOGRAPHY: SOLVENT A: Water 0.1% Formic acid, B: Acetonitrile 0.1% Formic acid
MS$FOCUSED_ION: PRECURSOR_M/Z 349.0544
MS$FOCUSED_ION: PRECURSOR_TYPE [M+H]+
MS$DATA_PROCESSING: COMMENT Export with Spectra 1.9.12 MsBackendMassbank 1.7.4
MS$DATA_PROCESSING: WHOLE RMassBank 2.3.1
PK$SPLASH: splash10-029i-7900000000-37bc89f6ffc6a8de68c6
PK$NUM_PEAK: 19
PK$PEAK: m/z int. rel.int.
  39.0229 1.1 61
  41.039 1.1 61
  55.0295 6.8 381
  65.014 1.4 78
  67.0293 2.4 134
  69.0334 1.2 67
  77.0189 0.4 22
  80.9756 1.1 61
  82.0404 6.2 347
  83.0241 0.6 33
  92.0256 3.5 196
  93.0085 0.5 28
  94.0404 4.6 258
  97.0289 5.5 308
  98.9865 1.1 61
  110.0351 13.5 757
  119.0355 15.2 853
  120.0203 1.4 78
  137.0471 17.8 999
//
