ACCESSION: MSBNK-BAFG-CSL23103019055
RECORD_TITLE: Icaridin acid; LC-ESI-QTOF; MS2; 70 V
DATE: 2023.10.30
AUTHORS: Kevin S. Jewell; Björn Ehlig; Arne Wick
LICENSE: dl-de/by-2-0
COPYRIGHT: Copyright 2023 Federal Institute of Hydrology, Koblenz, Germany
COMMENT: CONFIDENCE Reference Standard (Level 1)
COMMENT: Chromatography method: dx.doi.org/10.1016/j.chroma.2015.11.014
COMMENT: Acquisition method: 10.1002/rcm.8541
CH$NAME: Icaridin acid
CH$FORMULA: C12H21NO4
CH$EXACT_MASS: 243.1471
CH$SMILES: CCC(C)OC(=O)N1CCCCC1CC(O)=O
CH$IUPAC: InChI=1S/C12H21NO4/c1-3-9(2)17-12(16)13-7-5-4-6-10(13)8-11(14)15/h9-10H,3-8H2,1-2H3,(H,14,15)
CH$LINK: CAS NA
CH$LINK: INCHIKEY OMRINPAHALFCIC-UHFFFAOYSA-N
AC$INSTRUMENT: TripleTOF 6600 SCIEX
AC$INSTRUMENT_TYPE: LC-ESI-QTOF
AC$MASS_SPECTROMETRY: MS_TYPE MS2
AC$MASS_SPECTROMETRY: ION_MODE POSITIVE
AC$MASS_SPECTROMETRY: COLLISION_ENERGY 70
AC$MASS_SPECTROMETRY: FRAGMENTATION_MODE CID
AC$MASS_SPECTROMETRY: IONIZATION ESI
AC$CHROMATOGRAPHY: COLUMN_NAME Zorbax Eclipse Plus C18 2.1 mm x 150 mm, 3.5 um, Agilent
AC$CHROMATOGRAPHY: COLUMN_TEMPERATURE 40 °C
AC$CHROMATOGRAPHY: FLOW_GRADIENT 0 min min 98% A, 1 min 98% A, 2 min 80% A, 16.5 min 2% A, 22 min 2% A, 22.1 min 98% A, 27 min 98% A
AC$CHROMATOGRAPHY: FLOW_RATE 0.3 mL/min
AC$CHROMATOGRAPHY: RETENTION_TIME 9.741 min
AC$CHROMATOGRAPHY: SOLVENT A: Water 0.1% Formic acid, B: Acetonitrile 0.1% Formic acid
MS$FOCUSED_ION: PRECURSOR_M/Z 244.1543
MS$FOCUSED_ION: PRECURSOR_TYPE [M+H]+
MS$DATA_PROCESSING: COMMENT Export with Spectra 1.9.12 MsBackendMassbank 1.7.4
MS$DATA_PROCESSING: WHOLE RMassBank 2.3.1
PK$SPLASH: splash10-053r-9000000000-a3a997dc69caeff5bd67
PK$NUM_PEAK: 14
PK$PEAK: m/z int. rel.int.
  30.0319 3.6 14
  39.0208 12.8 51
  41.0364 13.3 53
  42.0316 10 40
  55.0519 21.8 87
  56.0475 133.7 535
  57.0669 2.6 10
  65.0363 3.9 15
  67.0514 17.6 70
  68.0471 3.8 15
  69.0547 6.8 27
  79.0518 3.8 15
  82.0619 6.6 26
  84.0785 249.5 999
//
