ACCESSION: MSBNK-BAFG-CSL23102515502
RECORD_TITLE: Dimethyldioctylammonium; LC-ESI-QTOF; MS2; 60 V
DATE: 2023.10.25
AUTHORS: Kevin S. Jewell; Björn Ehlig; Arne Wick
LICENSE: dl-de/by-2-0
COPYRIGHT: Copyright 2023 Federal Institute of Hydrology, Koblenz, Germany
COMMENT: CONFIDENCE Reference Standard (Level 1)
COMMENT: Chromatography method: dx.doi.org/10.1016/j.chroma.2015.11.014
COMMENT: Acquisition method: 10.1002/rcm.8541
CH$NAME: Dimethyldioctylammonium
CH$COMPOUND_CLASS: Antimicrobial
CH$FORMULA: C18H40N
CH$EXACT_MASS: 270.3155
CH$SMILES: CCCCCCCC[N+](C)(C)CCCCCCCC
CH$IUPAC: InChI=1S/C18H40N/c1-5-7-9-11-13-15-17-19(3,4)18-16-14-12-10-8-6-2/h5-18H2,1-4H3/q+1
CH$LINK: CAS 20256-55-7
CH$LINK: INCHIKEY MELGLHXCBHKVJG-UHFFFAOYSA-N
AC$INSTRUMENT: TripleTOF 6600 SCIEX
AC$INSTRUMENT_TYPE: LC-ESI-QTOF
AC$MASS_SPECTROMETRY: MS_TYPE MS2
AC$MASS_SPECTROMETRY: ION_MODE POSITIVE
AC$MASS_SPECTROMETRY: COLLISION_ENERGY 60
AC$MASS_SPECTROMETRY: FRAGMENTATION_MODE CID
AC$MASS_SPECTROMETRY: IONIZATION ESI
AC$CHROMATOGRAPHY: COLUMN_NAME Zorbax Eclipse Plus C18 2.1 mm x 150 mm, 3.5 um, Agilent
AC$CHROMATOGRAPHY: COLUMN_TEMPERATURE 40 °C
AC$CHROMATOGRAPHY: FLOW_GRADIENT 0 min min 98% A, 1 min 98% A, 2 min 80% A, 16.5 min 2% A, 22 min 2% A, 22.1 min 98% A, 27 min 98% A
AC$CHROMATOGRAPHY: FLOW_RATE 0.3 mL/min
AC$CHROMATOGRAPHY: RETENTION_TIME 11.669 min
AC$CHROMATOGRAPHY: SOLVENT A: Water 0.1% Formic acid, B: Acetonitrile 0.1% Formic acid
MS$FOCUSED_ION: PRECURSOR_M/Z 270.3155
MS$FOCUSED_ION: PRECURSOR_TYPE [M]+
MS$DATA_PROCESSING: COMMENT Export with Spectra 1.9.12 MsBackendMassbank 1.7.4
MS$DATA_PROCESSING: WHOLE RMassBank 2.3.1
PK$SPLASH: splash10-0a4l-9000000000-073d6359c818dcb7f36b
PK$NUM_PEAK: 6
PK$PEAK: m/z int. rel.int.
  39.0235 9.4 176
  41.0391 26.8 503
  43.0543 26.9 505
  46.0652 18.5 347
  57.0697 15.8 296
  58.0648 53.2 999
//
