ACCESSION: MSBNK-BAFG-CSL2310304954
RECORD_TITLE: Isorhamnetin; LC-ESI-QTOF; MS2; 60 V
DATE: 2023.10.30
AUTHORS: Kevin S. Jewell; Björn Ehlig; Arne Wick
LICENSE: dl-de/by-2-0
COPYRIGHT: Copyright 2023 Federal Institute of Hydrology, Koblenz, Germany
COMMENT: CONFIDENCE Reference Standard (Level 1)
COMMENT: Chromatography method: dx.doi.org/10.1016/j.chroma.2015.11.014
COMMENT: Acquisition method: 10.1002/rcm.8541
CH$NAME: Isorhamnetin
CH$COMPOUND_CLASS: Pharmaceutical; Metabolite
CH$FORMULA: C16H12O7
CH$EXACT_MASS: 316.0583
CH$SMILES: COc1cc(ccc1O)C2=C(O)C(=O)c3c(O)cc(O)cc3O2
CH$IUPAC: InChI=1S/C16H12O7/c1-22-11-4-7(2-3-9(11)18)16-15(21)14(20)13-10(19)5-8(17)6-12(13)23-16/h2-6,17-19,21H,1H3
CH$LINK: CAS 480-19-3
CH$LINK: INCHIKEY IZQSVPBOUDKVDZ-UHFFFAOYSA-N
AC$INSTRUMENT: TripleTOF 5600 SCIEX
AC$INSTRUMENT_TYPE: LC-ESI-QTOF
AC$MASS_SPECTROMETRY: MS_TYPE MS2
AC$MASS_SPECTROMETRY: ION_MODE POSITIVE
AC$MASS_SPECTROMETRY: COLLISION_ENERGY 60
AC$MASS_SPECTROMETRY: FRAGMENTATION_MODE CID
AC$MASS_SPECTROMETRY: IONIZATION ESI
AC$CHROMATOGRAPHY: COLUMN_NAME Zorbax Eclipse Plus C18 2.1 mm x 150 mm, 3.5 um, Agilent
AC$CHROMATOGRAPHY: COLUMN_TEMPERATURE 40 °C
AC$CHROMATOGRAPHY: FLOW_GRADIENT 0 min min 98% A, 1 min 98% A, 2 min 80% A, 16.5 min 2% A, 22 min 2% A, 22.1 min 98% A, 27 min 98% A
AC$CHROMATOGRAPHY: FLOW_RATE 0.3 mL/min
AC$CHROMATOGRAPHY: RETENTION_TIME 9.418 min
AC$CHROMATOGRAPHY: SOLVENT A: Water 0.1% Formic acid, B: Acetonitrile 0.1% Formic acid
MS$FOCUSED_ION: PRECURSOR_M/Z 317.0656
MS$FOCUSED_ION: PRECURSOR_TYPE [M+H]+
MS$DATA_PROCESSING: COMMENT Export with Spectra 1.9.12 MsBackendMassbank 1.7.4
MS$DATA_PROCESSING: WHOLE RMassBank 2.3.1
PK$SPLASH: splash10-0uxr-1890000000-0231c6228a35e3c9a609
PK$NUM_PEAK: 40
PK$PEAK: m/z int. rel.int.
  65.0417 0.6 64
  69.0016 0.7 75
  92.0265 2.4 257
  93.0323 0.6 64
  94.0432 0.6 64
  111.0097 0.5 53
  115.0556 1.4 150
  121.0308 0.9 96
  122.0388 0.4 42
  124.0146 0.6 64
  126.0318 0.8 85
  127.0532 1 107
  137.0222 0.9 96
  147.0425 0.9 96
  152.0126 0.6 64
  153.018 9.3 999
  155.0525 1.4 150
  161.0575 0.7 75
  171.0419 0.5 53
  173.0601 0.6 64
  177.0549 0.4 42
  179.0336 0.5 53
  183.0429 0.4 42
  187.0369 0.7 75
  189.0544 0.8 85
  199.0378 0.7 75
  200.0434 0.9 96
  201.0566 0.8 85
  203.0346 2.9 311
  204.0365 0.4 42
  217.0496 6.8 730
  219.0295 1.4 150
  227.0347 0.7 75
  228.038 0.8 85
  229.0483 3.4 365
  231.0249 0.6 64
  245.0426 5.3 569
  256.0333 0.6 64
  257.0431 0.7 75
  285.0408 0.9 96
//
