ACCESSION: MSBNK-BAFG-CSL23102610559
RECORD_TITLE: Hostavin VSU P; LC-ESI-QTOF; MS2; 90 V
DATE: 2023.10.26
AUTHORS: Kevin S. Jewell; Björn Ehlig; Arne Wick
LICENSE: dl-de/by-2-0
COPYRIGHT: Copyright 2023 Federal Institute of Hydrology, Koblenz, Germany
COMMENT: CONFIDENCE Reference Standard (Level 1)
COMMENT: Chromatography method: dx.doi.org/10.1016/j.chroma.2015.11.014
COMMENT: Acquisition method: 10.1002/rcm.8541
CH$NAME: Hostavin VSU P
CH$FORMULA: C18H20N2O3
CH$EXACT_MASS: 312.1474
CH$SMILES: CCC1=CC=CC=C1NC(=O)C(=O)NC2=CC=CC=C2OCC
CH$IUPAC: InChI=1S/C18H20N2O3/c1-3-13-9-5-6-10-14(13)19-17(21)18(22)20-15-11-7-8-12-16(15)23-4-2/h5-12H,3-4H2,1-2H3,(H,19,21)(H,20,22)
CH$LINK: CAS 23949-66-8
CH$LINK: INCHIKEY YIMHRDBSVCPJOV-UHFFFAOYSA-N
AC$INSTRUMENT: TripleTOF 5600 SCIEX
AC$INSTRUMENT_TYPE: LC-ESI-QTOF
AC$MASS_SPECTROMETRY: MS_TYPE MS2
AC$MASS_SPECTROMETRY: ION_MODE POSITIVE
AC$MASS_SPECTROMETRY: COLLISION_ENERGY 90
AC$MASS_SPECTROMETRY: FRAGMENTATION_MODE CID
AC$MASS_SPECTROMETRY: IONIZATION ESI
AC$CHROMATOGRAPHY: COLUMN_NAME Zorbax Eclipse Plus C18 2.1 mm x 150 mm, 3.5 um, Agilent
AC$CHROMATOGRAPHY: COLUMN_TEMPERATURE 40 °C
AC$CHROMATOGRAPHY: FLOW_GRADIENT 0 min min 98% A, 1 min 98% A, 2 min 80% A, 16.5 min 2% A, 22 min 2% A, 22.1 min 98% A, 27 min 98% A
AC$CHROMATOGRAPHY: FLOW_RATE 0.3 mL/min
AC$CHROMATOGRAPHY: RETENTION_TIME 15.402 min
AC$CHROMATOGRAPHY: SOLVENT A: Water 0.1% Formic acid, B: Acetonitrile 0.1% Formic acid
MS$FOCUSED_ION: PRECURSOR_M/Z 313.1547
MS$FOCUSED_ION: PRECURSOR_TYPE [M+H]+
MS$DATA_PROCESSING: COMMENT Export with Spectra 1.9.12 MsBackendMassbank 1.7.4
MS$DATA_PROCESSING: WHOLE RMassBank 2.3.1
PK$SPLASH: splash10-003u-9400000000-bd0862d7b1e4c69613fc
PK$NUM_PEAK: 22
PK$PEAK: m/z int. rel.int.
  39.0229 0.4 65
  51.0238 0.5 81
  65.0383 3.6 589
  66.0462 0.6 98
  77.0387 6.1 999
  79.0539 1.1 180
  80.0491 5.6 917
  90.0337 0.6 98
  91.0535 2 327
  92.0486 1.4 229
  93.0308 0.4 65
  93.0569 1.7 278
  94.0665 0.7 114
  103.0534 2.3 376
  106.0646 0.5 81
  108.0435 0.8 131
  109.052 2.1 343
  118.0645 0.5 81
  119.073 0.6 98
  120.08 0.5 81
  130.0654 2.6 425
  136.0397 1.6 262
//
