ACCESSION: MSBNK-BAFG-CSL25010634387
RECORD_TITLE: 4,4`-Methylenebis(2-chloroaniline); LC-ESI-QTOF; MS2; 100 V
DATE: 2025.01.06
AUTHORS: Ole Lessmann; Kevin S. Jewell; Björn Ehlig; Arne Wick
LICENSE: dl-de/by-2-0
COPYRIGHT: Copyright 2025 Federal Institute of Hydrology, Koblenz, Germany
COMMENT: CONFIDENCE Reference Standard (Level 1)
COMMENT: Chromatography method: dx.doi.org/10.1016/j.chroma.2015.11.014
COMMENT: Acquisition method: 10.1002/rcm.8541
CH$NAME: 4,4`-Methylenebis(2-chloroaniline)
CH$FORMULA: C13H12Cl2N2
CH$EXACT_MASS: 266.0378
CH$SMILES: C1=CC(=C(C=C1CC2=CC(=C(C=C2)N)Cl)Cl)N
CH$IUPAC: InChI=1S/C13H12Cl2N2/c14-10-6-8(1-3-12(10)16)5-9-2-4-13(17)11(15)7-9/h1-4,6-7H,5,16-17H2
CH$LINK: CAS 101-14-4
CH$LINK: INCHIKEY IBOFVQJTBBUKMU-UHFFFAOYSA-N
AC$INSTRUMENT: TripleTOF 6600 SCIEX
AC$INSTRUMENT_TYPE: LC-ESI-QTOF
AC$MASS_SPECTROMETRY: MS_TYPE MS2
AC$MASS_SPECTROMETRY: ION_MODE POSITIVE
AC$MASS_SPECTROMETRY: COLLISION_ENERGY 100
AC$MASS_SPECTROMETRY: FRAGMENTATION_MODE CID
AC$MASS_SPECTROMETRY: IONIZATION ESI
AC$CHROMATOGRAPHY: COLUMN_NAME Zorbax Eclipse Plus C18 2.1 mm x 150 mm, 3.5 um, Agilent
AC$CHROMATOGRAPHY: COLUMN_TEMPERATURE 40 °C
AC$CHROMATOGRAPHY: FLOW_GRADIENT 0 min min 98% A, 1 min 98% A, 2 min 80% A, 16.5 min 2% A, 22 min 2% A, 22.1 min 98% A, 27 min 98% A
AC$CHROMATOGRAPHY: FLOW_RATE 0.3 mL/min
AC$CHROMATOGRAPHY: RETENTION_TIME 11.747 min
AC$CHROMATOGRAPHY: SOLVENT A: Water 0.1% Formic acid, B: Acetonitrile 0.1% Formic acid
MS$FOCUSED_ION: PRECURSOR_M/Z 267.045
MS$FOCUSED_ION: PRECURSOR_TYPE [M+H]+
MS$DATA_PROCESSING: COMMENT Export with pycsl 0.1.0.dev1 and CSL 24.4
PK$SPLASH: splash10-0udi-4900000000-ebf3941690d71ce1dd8d
PK$NUM_PEAK: 82
PK$PEAK: m/z int. rel.int.
  39.0238 0.5 15
  50.0156 5.4 168
  51.0233 22.9 712
  52.0183 1.4 43
  52.03 0.5 15
  61.0085 0.6 18
  62.0155 0.8 24
  63.0243 4.0 124
  65.0382 1.3 40
  72.9848 0.7 21
  74.0154 5.1 158
  75.0225 7.2 224
  76.018 0.5 15
  76.0301 1.9 59
  77.0389 25.8 802
  78.0354 1.6 49
  78.0466 2.7 84
  85.0072 0.4 12
  86.0161 0.6 18
  87.0233 1.6 49
  88.0309 0.8 24
  89.0388 8.8 273
  91.0452 0.6 18
  91.0558 0.5 15
  98.0146 2.0 62
  99.0237 2.8 87
  100.03 0.5 15
  101.0393 2.1 65
  102.0342 0.8 24
  102.0473 3.0 93
  103.0423 0.5 15
  103.0548 1.5 46
  104.0491 13.7 426
  105.0583 1.2 37
  113.0386 4.4 136
  114.0465 1.9 59
  115.0545 17.5 544
  116.0487 0.5 15
  116.0625 0.5 15
  117.0569 0.6 18
  123.0074 0.4 12
  123.0223 0.5 15
  125.0376 3.1 96
  126.0463 9.0 280
  127.0553 3.5 108
  128.0511 0.5 15
  128.0628 1.2 37
  129.044 0.7 21
  130.039 0.4 12
  130.0642 1.2 37
  137.0379 0.6 18
  138.0442 1.0 31
  139.0547 27.3 849
  140.0262 1.0 31
  140.0505 10.6 329
  141.0614 1.2 37
  149.0391 2.0 62
  150.0461 32.1 999
  151.0552 14.7 457
  152.0606 15.2 473
  153.0443 0.4 12
  153.0608 1.0 31
  154.0648 0.9 28
  155.0591 1.2 37
  161.0393 1.1 34
  162.0412 0.5 15
  163.0535 1.4 43
  164.0525 0.9 28
  164.0647 0.4 12
  165.0559 1.1 34
  166.0653 10.5 326
  167.072 6.1 189
  168.0725 0.5 15
  175.0423 0.7 21
  176.0499 1.0 31
  177.0597 3.9 121
  178.0659 0.8 24
  179.0612 1.8 56
  191.064 0.4 12
  192.0713 1.7 52
  193.0819 0.6 18
  204.0596 0.4 12
//