ACCESSION: MSBNK-BAFG-CSL2310303661
RECORD_TITLE: 2-Morpholin-4-yl-benzothiazole; LC-ESI-QTOF; MS2; 150 V
DATE: 2023.10.30
AUTHORS: Kevin S. Jewell; Björn Ehlig; Arne Wick
LICENSE: dl-de/by-2-0
COPYRIGHT: Copyright 2023 Federal Institute of Hydrology, Koblenz, Germany
COMMENT: CONFIDENCE Reference Standard (Level 1)
COMMENT: Chromatography method: dx.doi.org/10.1016/j.chroma.2015.11.014
COMMENT: Acquisition method: 10.1002/rcm.8541
CH$NAME: 2-Morpholin-4-yl-benzothiazole
CH$COMPOUND_CLASS: Industrial_process
CH$FORMULA: C11H12N2OS
CH$EXACT_MASS: 220.067
CH$SMILES: c1ccc2c(c1)nc(s2)N3CCOCC3
CH$IUPAC: InChI=1S/C11H12N2OS/c1-2-4-10-9(3-1)12-11(15-10)13-5-7-14-8-6-13/h1-4H,5-8H2
CH$LINK: CAS 4225-26-7
CH$LINK: INCHIKEY VVUVJGRVEYHIHC-UHFFFAOYSA-N
AC$INSTRUMENT: TripleTOF 5600 SCIEX
AC$INSTRUMENT_TYPE: LC-ESI-QTOF
AC$MASS_SPECTROMETRY: MS_TYPE MS2
AC$MASS_SPECTROMETRY: ION_MODE POSITIVE
AC$MASS_SPECTROMETRY: COLLISION_ENERGY 150
AC$MASS_SPECTROMETRY: FRAGMENTATION_MODE CID
AC$MASS_SPECTROMETRY: IONIZATION ESI
AC$CHROMATOGRAPHY: COLUMN_NAME Zorbax Eclipse Plus C18 2.1 mm x 150 mm, 3.5 um, Agilent
AC$CHROMATOGRAPHY: COLUMN_TEMPERATURE 40 °C
AC$CHROMATOGRAPHY: FLOW_GRADIENT 0 min min 98% A, 1 min 98% A, 2 min 80% A, 16.5 min 2% A, 22 min 2% A, 22.1 min 98% A, 27 min 98% A
AC$CHROMATOGRAPHY: FLOW_RATE 0.3 mL/min
AC$CHROMATOGRAPHY: RETENTION_TIME 9.363 min
AC$CHROMATOGRAPHY: SOLVENT A: Water 0.1% Formic acid, B: Acetonitrile 0.1% Formic acid
MS$FOCUSED_ION: PRECURSOR_M/Z 221.0743
MS$FOCUSED_ION: PRECURSOR_TYPE [M+H]+
MS$DATA_PROCESSING: COMMENT Export with Spectra 1.9.12 MsBackendMassbank 1.7.4
MS$DATA_PROCESSING: WHOLE RMassBank 2.3.1
PK$SPLASH: splash10-014i-9000000000-fdd09f7a215d82b984b5
PK$NUM_PEAK: 19
PK$PEAK: m/z int. rel.int.
  45.0407 0.4 9
  51.0278 3.7 91
  52.0256 0.7 17
  57.9918 0.6 14
  60.0015 1.1 27
  65.0424 1.1 27
  67.9756 6.7 166
  68.9834 40.2 999
  69.9902 0.6 14
  73.0096 0.9 22
  74.0176 2.8 69
  75.0243 0.6 14
  77.0444 0.7 17
  80.981 1.3 32
  81.9889 2.2 54
  89.0409 0.5 12
  91.9738 1.1 27
  92.9803 2.9 72
  94.996 0.6 14
//
