ACCESSION: MSBNK-BAFG-CSL25010634390
RECORD_TITLE: 4,4`-Methylenebis(2-chloroaniline); LC-ESI-QTOF; MS2; 130 V
DATE: 2025.01.06
AUTHORS: Ole Lessmann; Kevin S. Jewell; Björn Ehlig; Arne Wick
LICENSE: dl-de/by-2-0
COPYRIGHT: Copyright 2025 Federal Institute of Hydrology, Koblenz, Germany
COMMENT: CONFIDENCE Reference Standard (Level 1)
COMMENT: Chromatography method: dx.doi.org/10.1016/j.chroma.2015.11.014
COMMENT: Acquisition method: 10.1002/rcm.8541
CH$NAME: 4,4`-Methylenebis(2-chloroaniline)
CH$FORMULA: C13H12Cl2N2
CH$EXACT_MASS: 266.0378
CH$SMILES: C1=CC(=C(C=C1CC2=CC(=C(C=C2)N)Cl)Cl)N
CH$IUPAC: InChI=1S/C13H12Cl2N2/c14-10-6-8(1-3-12(10)16)5-9-2-4-13(17)11(15)7-9/h1-4,6-7H,5,16-17H2
CH$LINK: CAS 101-14-4
CH$LINK: INCHIKEY IBOFVQJTBBUKMU-UHFFFAOYSA-N
AC$INSTRUMENT: TripleTOF 6600 SCIEX
AC$INSTRUMENT_TYPE: LC-ESI-QTOF
AC$MASS_SPECTROMETRY: MS_TYPE MS2
AC$MASS_SPECTROMETRY: ION_MODE POSITIVE
AC$MASS_SPECTROMETRY: COLLISION_ENERGY 130
AC$MASS_SPECTROMETRY: FRAGMENTATION_MODE CID
AC$MASS_SPECTROMETRY: IONIZATION ESI
AC$CHROMATOGRAPHY: COLUMN_NAME Zorbax Eclipse Plus C18 2.1 mm x 150 mm, 3.5 um, Agilent
AC$CHROMATOGRAPHY: COLUMN_TEMPERATURE 40 °C
AC$CHROMATOGRAPHY: FLOW_GRADIENT 0 min min 98% A, 1 min 98% A, 2 min 80% A, 16.5 min 2% A, 22 min 2% A, 22.1 min 98% A, 27 min 98% A
AC$CHROMATOGRAPHY: FLOW_RATE 0.3 mL/min
AC$CHROMATOGRAPHY: RETENTION_TIME 11.747 min
AC$CHROMATOGRAPHY: SOLVENT A: Water 0.1% Formic acid, B: Acetonitrile 0.1% Formic acid
MS$FOCUSED_ION: PRECURSOR_M/Z 267.045
MS$FOCUSED_ION: PRECURSOR_TYPE [M+H]+
MS$DATA_PROCESSING: COMMENT Export with pycsl 0.1.0.dev1 and CSL 24.4
PK$SPLASH: splash10-0udi-9300000000-80e5052cdc9aaa7ac38e
PK$NUM_PEAK: 48
PK$PEAK: m/z int. rel.int.
  37.0072 0.5 27
  39.0241 1.8 98
  49.0079 0.7 38
  50.0156 9.4 515
  51.0237 18.2 999
  52.0183 1.5 82
  61.0075 1.5 82
  62.0148 3.1 170
  63.0227 7.4 406
  65.0384 0.8 43
  72.9836 0.5 27
  73.0084 0.8 43
  74.0154 10.3 565
  75.0234 6.9 378
  76.0311 2.1 115
  77.0385 9.1 499
  78.0341 0.7 38
  78.0456 0.5 27
  85.007 1.4 76
  86.0151 3.2 175
  87.0232 2.9 159
  88.0301 0.7 38
  89.0384 4.7 257
  98.0149 10.4 570
  99.0223 3.4 186
  102.0466 1.1 60
  104.0487 2.4 131
  110.0147 0.9 49
  111.0218 0.6 32
  113.0383 2.9 159
  114.0453 0.7 38
  115.0542 2.2 120
  122.0142 1.1 60
  123.0239 0.4 21
  126.046 3.0 164
  127.054 0.4 21
  137.0401 0.5 27
  138.0479 0.7 38
  139.0544 9.4 515
  140.049 1.9 104
  149.0398 1.2 65
  150.0463 6.4 351
  151.0534 2.7 148
  152.0611 0.7 38
  164.0499 1.1 60
  166.0645 0.8 43
  175.0432 0.6 32
  176.0537 0.5 27
//