ACCESSION: MSBNK-BAFG-CSL231030691
RECORD_TITLE: N-Benzyldimethylstearyl ammonium; LC-ESI-QTOF; MS2; 140 V
DATE: 2023.10.30
AUTHORS: Kevin S. Jewell; Björn Ehlig; Arne Wick
LICENSE: dl-de/by-2-0
COPYRIGHT: Copyright 2023 Federal Institute of Hydrology, Koblenz, Germany
COMMENT: CONFIDENCE Reference Standard (Level 1)
COMMENT: Chromatography method: dx.doi.org/10.1016/j.chroma.2015.11.014
COMMENT: Acquisition method: 10.1002/rcm.8541
CH$NAME: N-Benzyldimethylstearyl ammonium
CH$COMPOUND_CLASS: Industrial_process
CH$FORMULA: [C27H50N]+
CH$EXACT_MASS: 388.3938
CH$SMILES: CCCCCCCCCCCCCCCCCC[N+](C)(C)Cc1ccccc1
CH$IUPAC: InChI=1S/C27H50N/c1-4-5-6-7-8-9-10-11-12-13-14-15-16-17-18-22-25-28(2,3)26-27-23-20-19-21-24-27/h19-21,23-24H,4-18,22,25-26H2,1-3H3/q+1
CH$LINK: CAS 37612-69-4
CH$LINK: INCHIKEY FWLORMQUOWCQPO-UHFFFAOYSA-N
AC$INSTRUMENT: TripleTOF 5600 SCIEX
AC$INSTRUMENT_TYPE: LC-ESI-QTOF
AC$MASS_SPECTROMETRY: MS_TYPE MS2
AC$MASS_SPECTROMETRY: ION_MODE POSITIVE
AC$MASS_SPECTROMETRY: COLLISION_ENERGY 140
AC$MASS_SPECTROMETRY: FRAGMENTATION_MODE CID
AC$MASS_SPECTROMETRY: IONIZATION ESI
AC$CHROMATOGRAPHY: COLUMN_NAME Zorbax Eclipse Plus C18 2.1 mm x 150 mm, 3.5 um, Agilent
AC$CHROMATOGRAPHY: COLUMN_TEMPERATURE 40 °C
AC$CHROMATOGRAPHY: FLOW_GRADIENT 0 min min 98% A, 1 min 98% A, 2 min 80% A, 16.5 min 2% A, 22 min 2% A, 22.1 min 98% A, 27 min 98% A
AC$CHROMATOGRAPHY: FLOW_RATE 0.3 mL/min
AC$CHROMATOGRAPHY: RETENTION_TIME 14.946 min
AC$CHROMATOGRAPHY: SOLVENT A: Water 0.1% Formic acid, B: Acetonitrile 0.1% Formic acid
MS$FOCUSED_ION: PRECURSOR_M/Z 388.3938
MS$FOCUSED_ION: PRECURSOR_TYPE [M]+
MS$DATA_PROCESSING: COMMENT Export with Spectra 1.9.12 MsBackendMassbank 1.7.4
MS$DATA_PROCESSING: WHOLE RMassBank 2.3.1
PK$SPLASH: splash10-00kf-9000000000-98669ad210f391c44389
PK$NUM_PEAK: 3
PK$PEAK: m/z int. rel.int.
  58.0695 17.3 144
  65.0434 89.4 747
  91.0557 119.5 999
//
