ACCESSION: MSBNK-BAFG-CSL23110927766
RECORD_TITLE: 7-Amino-4-methylcoumarin; LC-ESI-QTOF; MS2; 30 V
DATE: 2023.11.09
AUTHORS: Kevin S. Jewell; Björn Ehlig; Arne Wick
LICENSE: dl-de/by-2-0
COPYRIGHT: Copyright 2023 Federal Institute of Hydrology, Koblenz, Germany
COMMENT: CONFIDENCE Reference Standard (Level 1)
COMMENT: Chromatography method: dx.doi.org/10.1016/j.chroma.2015.11.014
COMMENT: Acquisition method: 10.1002/rcm.8541
CH$NAME: 7-Amino-4-methylcoumarin
CH$FORMULA: C10H9NO2
CH$EXACT_MASS: 175.0633
CH$SMILES: CC1=CC(=O)OC2=C1C=CC(=C2)N
CH$IUPAC: InChI=1S/C10H9NO2/c1-6-4-10(12)13-9-5-7(11)2-3-8(6)9/h2-5H,11H2,1H3
CH$LINK: CAS 26093-31-2
CH$LINK: INCHIKEY GLNDAGDHSLMOKX-UHFFFAOYSA-N
AC$INSTRUMENT: TripleTOF X500R SCIEX
AC$INSTRUMENT_TYPE: LC-ESI-QTOF
AC$MASS_SPECTROMETRY: MS_TYPE MS2
AC$MASS_SPECTROMETRY: ION_MODE POSITIVE
AC$MASS_SPECTROMETRY: COLLISION_ENERGY 30
AC$MASS_SPECTROMETRY: FRAGMENTATION_MODE CID
AC$MASS_SPECTROMETRY: IONIZATION ESI
AC$CHROMATOGRAPHY: COLUMN_NAME Zorbax Eclipse Plus C18 2.1 mm x 150 mm, 3.5 um, Agilent
AC$CHROMATOGRAPHY: COLUMN_TEMPERATURE 40 °C
AC$CHROMATOGRAPHY: FLOW_GRADIENT 0 min min 98% A, 1 min 98% A, 2 min 80% A, 16.5 min 2% A, 22 min 2% A, 22.1 min 98% A, 27 min 98% A
AC$CHROMATOGRAPHY: FLOW_RATE 0.3 mL/min
AC$CHROMATOGRAPHY: RETENTION_TIME 7.107 min
AC$CHROMATOGRAPHY: SOLVENT A: Water 0.1% Formic acid, B: Acetonitrile 0.1% Formic acid
MS$FOCUSED_ION: PRECURSOR_M/Z 176.0706
MS$FOCUSED_ION: PRECURSOR_TYPE [M+H]+
MS$DATA_PROCESSING: COMMENT Export with Spectra 1.9.12 MsBackendMassbank 1.7.4
MS$DATA_PROCESSING: WHOLE RMassBank 2.3.1
PK$SPLASH: splash10-0g6r-1900000000-4eba5ec79e7a80f3ba68
PK$NUM_PEAK: 37
PK$PEAK: m/z int. rel.int.
  42.0336 1 13
  67.0182 3 39
  68.0134 6.5 86
  77.0385 5.7 75
  79.0545 1.9 25
  81.0693 0.8 10
  89.0392 1.1 14
  91.0548 5.7 75
  92.0508 1.3 17
  93.0584 4 52
  93.0691 3.4 44
  94.0651 3.2 42
  102.0475 1.3 17
  103.0547 49.2 651
  104.05 3.7 48
  105.0688 10.6 140
  106.0651 3.3 43
  107.0495 0.8 10
  109.0648 4.9 64
  110.0603 2.3 30
  115.0548 20.2 267
  117.0577 25.4 336
  118.0654 6.5 86
  119.0731 3.6 47
  120.0811 75.5 999
  121.0647 0.9 11
  130.0657 11.6 153
  131.0495 5.6 74
  131.0733 7.3 96
  132.0808 5.4 71
  133.0526 13.5 178
  134.0591 2.3 30
  146.0596 1.4 18
  147.0677 1.4 18
  148.0758 8.1 107
  159.0429 2.1 27
  176.0711 49.5 654
//
