ACCESSION: MSBNK-BAFG-CSL25010634331
RECORD_TITLE: N-Isopropyl-N'-phenyl-p-phenylenediamine; LC-ESI-QTOF; MS2; 90 V
DATE: 2025.01.06
AUTHORS: Ole Lessmann; Kevin S. Jewell; Björn Ehlig; Arne Wick
LICENSE: dl-de/by-2-0
COPYRIGHT: Copyright 2025 Federal Institute of Hydrology, Koblenz, Germany
COMMENT: CONFIDENCE Reference Standard (Level 1)
COMMENT: Chromatography method: dx.doi.org/10.1016/j.chroma.2015.11.014
COMMENT: Acquisition method: 10.1002/rcm.8541
CH$NAME: N-Isopropyl-N'-phenyl-p-phenylenediamine
CH$COMPOUND_CLASS: Industrial_process
CH$FORMULA: C15H18N2
CH$EXACT_MASS: 226.147
CH$SMILES: CC(C)Nc1ccc(cc1)Nc2ccccc2
CH$IUPAC: InChI=1S/C15H18N2/c1-12(2)16-14-8-10-15(11-9-14)17-13-6-4-3-5-7-13/h3-12,16-17H,1-2H3
CH$LINK: CAS 101-72-4
CH$LINK: INCHIKEY OUBMGJOQLXMSNT-UHFFFAOYSA-N
AC$INSTRUMENT: TripleTOF 6600 SCIEX
AC$INSTRUMENT_TYPE: LC-ESI-QTOF
AC$MASS_SPECTROMETRY: MS_TYPE MS2
AC$MASS_SPECTROMETRY: ION_MODE POSITIVE
AC$MASS_SPECTROMETRY: COLLISION_ENERGY 90
AC$MASS_SPECTROMETRY: FRAGMENTATION_MODE CID
AC$MASS_SPECTROMETRY: IONIZATION ESI
AC$CHROMATOGRAPHY: COLUMN_NAME Zorbax Eclipse Plus C18 2.1 mm x 150 mm, 3.5 um, Agilent
AC$CHROMATOGRAPHY: COLUMN_TEMPERATURE 40 °C
AC$CHROMATOGRAPHY: FLOW_GRADIENT 0 min min 98% A, 1 min 98% A, 2 min 80% A, 16.5 min 2% A, 22 min 2% A, 22.1 min 98% A, 27 min 98% A
AC$CHROMATOGRAPHY: FLOW_RATE 0.3 mL/min
AC$CHROMATOGRAPHY: RETENTION_TIME 7.24 min
AC$CHROMATOGRAPHY: SOLVENT A: Water 0.1% Formic acid, B: Acetonitrile 0.1% Formic acid
MS$FOCUSED_ION: PRECURSOR_M/Z 227.1543
MS$FOCUSED_ION: PRECURSOR_TYPE [M+H]+
MS$DATA_PROCESSING: COMMENT Export with pycsl 0.1.0.dev1 and CSL 24.4
PK$SPLASH: splash10-001i-9400000000-d1464534de9349716f1b
PK$NUM_PEAK: 49
PK$PEAK: m/z int. rel.int.
  39.0226 9.7 64
  50.0145 2.2 14
  51.0225 10.8 71
  52.0296 2.2 14
  53.0381 48.8 322
  54.0335 2.9 19
  62.014 3.4 22
  63.022 19.4 128
  64.0174 2.0 13
  64.0306 1.5 9
  65.0378 11.6 76
  66.0323 1.5 9
  66.0451 5.2 34
  75.0215 2.1 13
  77.0379 13.9 91
  78.0327 4.9 32
  79.0416 3.2 21
  80.0488 151.2 999
  89.0372 11.4 75
  90.0327 9.7 64
  91.0399 3.0 19
  91.0487 2.0 13
  92.0473 2.7 17
  93.0562 2.8 18
  101.036 1.9 12
  102.0449 2.3 15
  103.0514 1.5 9
  105.043 3.4 22
  106.0513 1.9 12
  107.0589 19.3 127
  113.0363 6.2 40
  114.0431 2.8 18
  115.0521 10.4 68
  116.0496 1.7 11
  117.0569 1.8 11
  127.0523 7.8 51
  128.048 3.0 19
  128.0597 9.3 61
  129.0603 2.1 13
  130.0641 2.6 17
  139.0528 19.3 127
  140.0494 16.9 111
  141.0558 2.1 13
  154.0625 9.6 63
  155.0654 2.0 13
  164.0467 2.6 17
  166.0637 9.0 59
  167.0695 5.6 37
  181.0746 6.8 44
//