ACCESSION: MSBNK-BAFG-CSL25011734703
RECORD_TITLE: Amido Black 10B; LC-ESI-QTOF; MS2; 40 V
DATE: 2025.01.17
AUTHORS: Ole Lessmann; Kevin S. Jewell; Björn Ehlig; Arne Wick
LICENSE: dl-de/by-2-0
COPYRIGHT: Copyright 2025 Federal Institute of Hydrology, Koblenz, Germany
COMMENT: CONFIDENCE Reference Standard (Level 1)
COMMENT: Chromatography method: dx.doi.org/10.1016/j.chroma.2015.11.014
CH$NAME: Amido Black 10B
CH$FORMULA: C22H16N6O9S2
CH$EXACT_MASS: 572.042
CH$SMILES: C1=CC=C(C=C1)N=NC2=C(C3=C(C(=C(C=C3C=C2S(=O)(=O)O)S(=O)(=O)O)N=NC4=CC=C(C=C4)[N+](=O)[O-])N)O
CH$IUPAC: InChI=1S/C22H16N6O9S2/c23-19-18-12(11-17(39(35,36)37)21(22(18)29)27-24-13-4-2-1-3-5-13)10-16(38(32,33)34)20(19)26-25-14-6-8-15(9-7-14)28(30)31/h1-11,29H,23H2,(H,32,33,34)(H,35,36,37)
CH$LINK: CAS 3121-74-2
CH$LINK: INCHIKEY HKJKONMZMPUGHJ-UHFFFAOYSA-N
AC$INSTRUMENT: TripleTOF 6600 SCIEX
AC$INSTRUMENT_TYPE: LC-ESI-QTOF
AC$MASS_SPECTROMETRY: MS_TYPE MS2
AC$MASS_SPECTROMETRY: ION_MODE NEGATIVE
AC$MASS_SPECTROMETRY: COLLISION_ENERGY 40
AC$MASS_SPECTROMETRY: FRAGMENTATION_MODE CID
AC$MASS_SPECTROMETRY: IONIZATION ESI
AC$CHROMATOGRAPHY: COLUMN_NAME Zorbax Eclipse Plus C18 2.1 mm x 150 mm, 3.5 um, Agilent
AC$CHROMATOGRAPHY: COLUMN_TEMPERATURE 40 °C
AC$CHROMATOGRAPHY: FLOW_GRADIENT 0 min min 98% A, 1 min 98% A, 2 min 80% A, 16.5 min 2% A, 22 min 2% A, 22.1 min 98% A, 27 min 98% A
AC$CHROMATOGRAPHY: FLOW_RATE 0.3 mL/min
AC$CHROMATOGRAPHY: RETENTION_TIME 9.552 min
AC$CHROMATOGRAPHY: SOLVENT A: Water 0.1% Formic acid, B: Acetonitrile 0.1% Formic acid
MS$FOCUSED_ION: PRECURSOR_M/Z 285.0137
MS$FOCUSED_ION: PRECURSOR_TYPE [M-2H]2-
MS$DATA_PROCESSING: COMMENT Export with pycsl 0.1.0.dev1 and CSL 25.0
PK$SPLASH: splash10-0059-4950000000-fab0068ae73f974ac456
PK$NUM_PEAK: 151
PK$PEAK: m/z int. rel.int.
  45.9931 23.5864 22
  63.962 11.7083 11
  65.9978 9.7641 9
  79.9569 1038.1111 999
  80.9649 444.0311 427
  92.05 31.6687 30
  107.036 5.6139 5
  108.0207 6.2451 6
  109.9965 74.8366 72
  112.0174 9.9929 9
  114.0212 5.8211 5
  114.0331 5.6438 5
  115.0287 9.3405 8
  122.0233 10.8344 10
  123.9942 68.5647 65
  125.0143 7.1241 6
  126.0335 18.383 17
  127.0301 36.2107 34
  128.0135 15.6157 15
  128.0368 7.1105 6
  129.0205 10.1418 9
  131.0365 7.6665 7
  131.9918 9.8716 9
  132.0212 20.1875 19
  136.0265 21.3836 20
  137.0342 52.1817 50
  138.0192 34.5415 33
  139.0292 216.815 208
  140.0367 118.9524 114
  141.0154 17.6523 16
  141.0442 7.3379 7
  142.0285 67.6868 65
  143.0244 26.9498 25
  144.0082 12.0075 11
  144.0311 8.9432 8
  145.0133 5.2775 5
  146.0227 13.0021 12
  152.0237 11.9391 11
  153.0317 5.5586 5
  154.0198 49.5524 47
  155.0242 67.1576 64
  156.0318 232.9654 224
  157.0171 15.9822 15
  157.0365 9.9786 9
  158.025 9.0216 8
  159.0304 18.3928 17
  162.0291 7.3466 7
  163.9724 50.4388 48
  166.0153 5.1638 4
  167.0241 260.3615 250
  168.0308 193.1708 185
  169.0027 57.9961 55
  170.0129 17.6236 16
  171.0209 64.8538 62
  172.0266 35.3896 34
  174.0173 6.8293 6
  179.0106 12.1573 11
  180.0188 42.5901 40
  181.0261 49.1543 47
  182.011 54.6123 52
  182.0342 20.9992 20
  183.0191 325.0877 312
  184.0262 80.9986 77
  185.0342 7.7162 7
  187.012 6.6623 6
  194.9983 107.1491 103
  195.9895 15.4916 14
  196.0132 80.483 77
  197.0217 17.3038 16
  198.0309 9.5738 9
  199.0144 10.5551 10
  200.0212 7.8241 7
  206.9982 27.8882 26
  208.977 5.5044 5
  209.9848 7.8061 7
  217.0522 11.8141 11
  218.0586 22.0971 21
  219.0573 9.2652 8
  219.9927 55.1082 53
  221.9848 26.4698 25
  222.9922 221.6509 213
  230.0567 28.2731 27
  231.0582 26.3759 25
  232.0613 15.6051 15
  233.047 20.0603 19
  234.0534 19.4678 18
  234.9918 88.3304 85
  235.0607 7.212 6
  235.9881 52.0337 50
  237.0648 5.4768 5
  237.9791 9.2337 8
  238.9868 6.0426 5
  242.0458 16.6526 16
  243.0547 7.5579 7
  244.0583 6.7456 6
  245.0532 7.4482 7
  246.0531 29.2726 28
  246.9805 437.8589 421
  247.048 10.0622 9
  247.9868 60.8506 58
  248.0557 15.7602 15
  249.0615 6.5364 6
  250.0445 7.0721 6
  250.9864 11.6366 11
  251.0492 7.1719 6
  258.0424 23.5665 22
  259.0485 63.9034 61
  259.976 7.2519 6
  260.0562 84.6828 81
  260.9832 54.1996 52
  261.0533 12.1387 11
  262.0534 11.7847 11
  262.9754 8.1734 7
  263.0482 22.3619 21
  263.9834 18.0841 17
  264.0502 10.6 10
  264.9906 7.9499 7
  271.0618 5.1989 5
  272.0674 9.2489 8
  274.0386 8.3552 8
  275.045 37.6249 36
  276.0518 38.8587 37
  277.0541 19.3863 18
  278.0536 6.8045 6
  279.0487 14.7426 14
  281.0546 16.6029 15
  282.0198 6.1328 5
  285.0411 5.7034 5
  286.047 8.5482 8
  287.0572 10.2934 9
  288.0404 14.9294 14
  288.0604 8.0732 7
  289.0453 9.6501 9
  290.0557 8.9485 8
  291.0495 10.0176 9
  292.0485 22.2357 21
  293.0646 5.6509 5
  294.0094 6.8166 6
  299.0207 5.9969 5
  304.0346 6.84 6
  306.0493 43.5899 41
  307.0459 7.0079 6
  310.0157 87.3572 84
  311.019 9.7317 9
  326.0121 5.8511 5
  328.0164 8.5068 8
  334.0569 14.7937 14
  339.0309 9.3708 9
  340.0205 43.9095 42
  345.0167 5.8341 5
  356.0085 10.6369 10
//
