ACCESSION: MSBNK-BAFG-CSL25011734593
RECORD_TITLE: Food Yellow 3 free acid; LC-ESI-QTOF; MS2; 130 V
DATE: 2025.01.17
AUTHORS: Ole Lessmann; Kevin S. Jewell; Björn Ehlig; Arne Wick
LICENSE: dl-de/by-2-0
COPYRIGHT: Copyright 2025 Federal Institute of Hydrology, Koblenz, Germany
COMMENT: CONFIDENCE Reference Standard (Level 1)
COMMENT: Chromatography method: dx.doi.org/10.1016/j.chroma.2015.11.014
CH$NAME: Food Yellow 3 free acid
CH$FORMULA: C16H12N2O7S2
CH$EXACT_MASS: 408.0086
CH$SMILES: C1=CC(=CC=C1N=NC2=C(C=CC3=C2C=CC(=C3)S(=O)(=O)O)O)S(=O)(=O)O
CH$IUPAC: InChI=1S/C16H12N2O7S2/c19-15-8-1-10-9-13(27(23,24)25)6-7-14(10)16(15)18-17-11-2-4-12(5-3-11)26(20,21)22/h1-9,19H,(H,20,21,22)(H,23,24,25)
CH$LINK: CAS 5859-11-0
CH$LINK: INCHIKEY KEYWXKLGZZGHMT-UHFFFAOYSA-N
AC$INSTRUMENT: TripleTOF 6600 SCIEX
AC$INSTRUMENT_TYPE: LC-ESI-QTOF
AC$MASS_SPECTROMETRY: MS_TYPE MS2
AC$MASS_SPECTROMETRY: ION_MODE POSITIVE
AC$MASS_SPECTROMETRY: COLLISION_ENERGY 130
AC$MASS_SPECTROMETRY: FRAGMENTATION_MODE CID
AC$MASS_SPECTROMETRY: IONIZATION ESI
AC$CHROMATOGRAPHY: COLUMN_NAME Zorbax Eclipse Plus C18 2.1 mm x 150 mm, 3.5 um, Agilent
AC$CHROMATOGRAPHY: COLUMN_TEMPERATURE 40 °C
AC$CHROMATOGRAPHY: FLOW_GRADIENT 0 min min 98% A, 1 min 98% A, 2 min 80% A, 16.5 min 2% A, 22 min 2% A, 22.1 min 98% A, 27 min 98% A
AC$CHROMATOGRAPHY: FLOW_RATE 0.3 mL/min
AC$CHROMATOGRAPHY: RETENTION_TIME 5.59 min
AC$CHROMATOGRAPHY: SOLVENT A: Water 0.1% Formic acid, B: Acetonitrile 0.1% Formic acid
MS$FOCUSED_ION: PRECURSOR_M/Z 409.0159
MS$FOCUSED_ION: PRECURSOR_TYPE [M+H]+
MS$DATA_PROCESSING: COMMENT Export with pycsl 0.1.0.dev1 and CSL 25.0
PK$SPLASH: splash10-0fl9-9100000000-a8e62b2023588933c0c7
PK$NUM_PEAK: 62
PK$PEAK: m/z int. rel.int.
  37.0071 3.2 36
  38.0152 2.8 32
  39.0231 25.1 289
  50.0148 14.1 162
  51.0231 10.4 119
  52.0301 1.8 20
  53.0382 30.7 353
  54.034 1.3 14
  61.0072 3.4 39
  62.0145 11.1 127
  63.0226 35.4 407
  64.0184 2.5 28
  64.9688 4.1 47
  65.0382 32.2 371
  66.0334 1.4 16
  73.0071 5.8 66
  74.015 86.7 999
  75.0106 9.0 103
  75.0223 15.3 176
  76.0181 3.8 43
  76.0297 12.6 145
  77.0265 1.1 12
  77.039 3.7 42
  80.0492 72.6 836
  81.034 1.6 18
  86.0158 1.3 14
  87.0216 6.8 78
  88.0183 2.5 28
  88.0309 2.4 27
  89.0386 18.4 212
  90.0328 1.9 21
  92.048 2.2 25
  98.0149 18.9 217
  99.0113 13.3 153
  99.021 11.0 126
  100.0177 11.1 127
  100.0293 29.1 335
  101.0264 6.4 73
  102.049 1.3 14
  108.0437 5.2 59
  114.0322 2.0 23
  126.0469 0.9 10
  127.0421 9.9 114
  128.0504 0.9 10
  149.0371 1.8 20
  150.0457 2.3 26
  151.0497 2.0 23
  163.0556 2.6 29
  164.0503 1.7 19
  174.0468 2.5 28
  175.0428 1.0 11
  175.0527 1.8 20
  176.0487 3.2 36
  188.0481 2.0 23
  189.0578 1.7 19
  190.0626 2.6 29
  200.0482 1.5 17
  201.0585 5.6 64
  202.064 1.6 18
  216.0709 2.8 32
  227.0611 2.2 25
  228.0673 1.5 17
//
