ACCESSION: MSBNK-BAFG-CSL25010634312
RECORD_TITLE: 4,4`-Methylenebis(2-methylaniline); LC-ESI-QTOF; MS2; 60 V
DATE: 2025.01.06
AUTHORS: Ole Lessmann; Kevin S. Jewell; Björn Ehlig; Arne Wick
LICENSE: dl-de/by-2-0
COPYRIGHT: Copyright 2025 Federal Institute of Hydrology, Koblenz, Germany
COMMENT: CONFIDENCE Reference Standard (Level 1)
COMMENT: Chromatography method: dx.doi.org/10.1016/j.chroma.2015.11.014
COMMENT: Acquisition method: 10.1002/rcm.8541
CH$NAME: 4,4`-Methylenebis(2-methylaniline)
CH$FORMULA: C15H18N2
CH$EXACT_MASS: 226.147
CH$SMILES: CC1=C(C=CC(=C1)CC2=CC(=C(C=C2)N)C)N
CH$IUPAC: InChI=1S/C15H18N2/c1-10-7-12(3-5-14(10)16)9-13-4-6-15(17)11(2)8-13/h3-8H,9,16-17H2,1-2H3
CH$LINK: CAS 838-88-0
CH$LINK: INCHIKEY WECDUOXQLAIPQW-UHFFFAOYSA-N
AC$INSTRUMENT: TripleTOF 6600 SCIEX
AC$INSTRUMENT_TYPE: LC-ESI-QTOF
AC$MASS_SPECTROMETRY: MS_TYPE MS2
AC$MASS_SPECTROMETRY: ION_MODE POSITIVE
AC$MASS_SPECTROMETRY: COLLISION_ENERGY 60
AC$MASS_SPECTROMETRY: FRAGMENTATION_MODE CID
AC$MASS_SPECTROMETRY: IONIZATION ESI
AC$CHROMATOGRAPHY: COLUMN_NAME Zorbax Eclipse Plus C18 2.1 mm x 150 mm, 3.5 um, Agilent
AC$CHROMATOGRAPHY: COLUMN_TEMPERATURE 40 °C
AC$CHROMATOGRAPHY: FLOW_GRADIENT 0 min min 98% A, 1 min 98% A, 2 min 80% A, 16.5 min 2% A, 22 min 2% A, 22.1 min 98% A, 27 min 98% A
AC$CHROMATOGRAPHY: FLOW_RATE 0.3 mL/min
AC$CHROMATOGRAPHY: RETENTION_TIME 5.215 min
AC$CHROMATOGRAPHY: SOLVENT A: Water 0.1% Formic acid, B: Acetonitrile 0.1% Formic acid
MS$FOCUSED_ION: PRECURSOR_M/Z 227.1543
MS$FOCUSED_ION: PRECURSOR_TYPE [M+H]+
MS$DATA_PROCESSING: COMMENT Export with pycsl 0.1.0.dev1 and CSL 24.4
PK$SPLASH: splash10-00fr-2900000000-b4e90bd4e3961b6c7670
PK$NUM_PEAK: 45
PK$PEAK: m/z int. rel.int.
  42.0336 0.8 12
  51.0221 1.2 18
  65.0368 0.9 13
  77.037 24.5 376
  79.0525 1.4 21
  80.0465 2.4 36
  91.0522 9.7 149
  92.0486 1.0 15
  93.0567 2.1 32
  93.0686 1.2 18
  94.0641 1.3 19
  102.0448 1.2 18
  103.0526 6.8 104
  104.048 2.4 36
  105.056 1.6 24
  106.0631 0.7 10
  115.0537 1.1 16
  118.0638 3.3 50
  119.0721 3.5 53
  120.0791 65.0 999
  127.0521 1.5 23
  128.0607 2.6 39
  130.0626 0.7 10
  140.0562 0.8 12
  151.0516 3.4 52
  152.0611 11.9 182
  153.0695 6.0 92
  163.0501 1.1 16
  165.0678 3.9 59
  166.0764 1.5 23
  167.0841 1.5 23
  168.0757 1.3 19
  176.0615 3.8 58
  177.0696 4.1 63
  178.0775 9.0 138
  179.0697 1.3 19
  180.0805 10.8 165
  181.083 1.0 15
  189.0689 1.1 16
  191.0838 0.8 12
  192.0803 1.1 16
  193.0878 6.3 96
  194.0937 3.9 59
  195.0946 1.6 24
  196.0984 1.2 18
//