ACCESSION: MSBNK-BAFG-CSL25010612493
RECORD_TITLE: 3-(Diethylcarbamoyl)benzoic acid; LC-ESI-QTOF; MS2; 120 V
DATE: 2025.01.06
AUTHORS: Ole Lessmann; Kevin S. Jewell; Björn Ehlig; Arne Wick
LICENSE: dl-de/by-2-0
COPYRIGHT: Copyright 2025 Federal Institute of Hydrology, Koblenz, Germany
COMMENT: CONFIDENCE Reference Standard (Level 1)
COMMENT: Chromatography method: dx.doi.org/10.1016/j.chroma.2015.11.014
COMMENT: Acquisition method: 10.1002/rcm.8541
CH$NAME: 3-(Diethylcarbamoyl)benzoic acid
CH$COMPOUND_CLASS: Biocide; Personal_care_product; Transformation_product-Metabolite
CH$FORMULA: C12H15NO3
CH$EXACT_MASS: 221.1052
CH$SMILES: CCN(CC)C(=O)C1=CC(=CC=C1)C(=O)O
CH$IUPAC: InChI=1S/C12H15NO3/c1-3-13(4-2)11(14)9-6-5-7-10(8-9)12(15)16/h5-8H,3-4H2,1-2H3,(H,15,16)
CH$LINK: CAS 72236-23-8
CH$LINK: INCHIKEY PXXLQQDIFVPNMP-UHFFFAOYSA-N
AC$INSTRUMENT: TripleTOF 5600 SCIEX
AC$INSTRUMENT_TYPE: LC-ESI-QTOF
AC$MASS_SPECTROMETRY: MS_TYPE MS2
AC$MASS_SPECTROMETRY: ION_MODE POSITIVE
AC$MASS_SPECTROMETRY: COLLISION_ENERGY 120
AC$MASS_SPECTROMETRY: FRAGMENTATION_MODE CID
AC$MASS_SPECTROMETRY: IONIZATION ESI
AC$CHROMATOGRAPHY: COLUMN_NAME Zorbax Eclipse Plus C18 2.1 mm x 150 mm, 3.5 um, Agilent
AC$CHROMATOGRAPHY: COLUMN_TEMPERATURE 40 °C
AC$CHROMATOGRAPHY: FLOW_GRADIENT 0 min min 98% A, 1 min 98% A, 2 min 80% A, 16.5 min 2% A, 22 min 2% A, 22.1 min 98% A, 27 min 98% A
AC$CHROMATOGRAPHY: FLOW_RATE 0.3 mL/min
AC$CHROMATOGRAPHY: RETENTION_TIME 7.356 min
AC$CHROMATOGRAPHY: SOLVENT A: Water 0.1% Formic acid, B: Acetonitrile 0.1% Formic acid
MS$FOCUSED_ION: PRECURSOR_M/Z 222.1125
MS$FOCUSED_ION: PRECURSOR_TYPE [M+H]+
MS$DATA_PROCESSING: COMMENT Export with pycsl 0.1.0.dev1 and CSL 24.4
PK$SPLASH: splash10-0fmr-9000000000-772e1cc314b9c4cc535b
PK$NUM_PEAK: 13
PK$PEAK: m/z int. rel.int.
  37.007 1.1 249
  38.0153 0.8 181
  39.0228 2.4 544
  44.0125 0.8 181
  49.0076 0.4 90
  50.0152 2.2 499
  51.0228 1.9 431
  63.0237 0.6 136
  65.0385 0.5 113
  73.0074 0.6 136
  74.015 4.4 999
  75.0222 2.3 522
  77.038 0.9 204
//