ACCESSION: MSBNK-BAFG-CSL2310267916
RECORD_TITLE: Iomeprol; LC-ESI-QTOF; MS2; 120 V
DATE: 2023.10.26
AUTHORS: Kevin S. Jewell; Björn Ehlig; Arne Wick
LICENSE: dl-de/by-2-0
COPYRIGHT: Copyright 2023 Federal Institute of Hydrology, Koblenz, Germany
COMMENT: CONFIDENCE Reference Standard (Level 1)
COMMENT: Chromatography method: dx.doi.org/10.1016/j.chroma.2015.11.014
COMMENT: Acquisition method: 10.1002/rcm.8541
CH$NAME: Iomeprol
CH$COMPOUND_CLASS: Pharmaceutical
CH$FORMULA: C17H22I3N3O8
CH$EXACT_MASS: 776.8541
CH$SMILES: CN(C(=O)CO)c1c(I)c(C(=O)NCC(O)CO)c(I)c(C(=O)NCC(O)CO)c1I
CH$IUPAC: InChI=1S/C17H22I3N3O8/c1-23(9(29)6-26)15-13(19)10(16(30)21-2-7(27)4-24)12(18)11(14(15)20)17(31)22-3-8(28)5-25/h7-8,24-28H,2-6H2,1H3,(H,21,30)(H,22,31)
CH$LINK: CAS 78649-41-9
CH$LINK: INCHIKEY NJKDOADNQSYQEV-UHFFFAOYSA-N
AC$INSTRUMENT: TripleTOF 5600 SCIEX
AC$INSTRUMENT_TYPE: LC-ESI-QTOF
AC$MASS_SPECTROMETRY: MS_TYPE MS2
AC$MASS_SPECTROMETRY: ION_MODE POSITIVE
AC$MASS_SPECTROMETRY: COLLISION_ENERGY 120
AC$MASS_SPECTROMETRY: FRAGMENTATION_MODE CID
AC$MASS_SPECTROMETRY: IONIZATION ESI
AC$CHROMATOGRAPHY: COLUMN_NAME Zorbax Eclipse Plus C18 2.1 mm x 150 mm, 3.5 um, Agilent
AC$CHROMATOGRAPHY: COLUMN_TEMPERATURE 40 °C
AC$CHROMATOGRAPHY: FLOW_GRADIENT 0 min min 98% A, 1 min 98% A, 2 min 80% A, 16.5 min 2% A, 22 min 2% A, 22.1 min 98% A, 27 min 98% A
AC$CHROMATOGRAPHY: FLOW_RATE 0.3 mL/min
AC$CHROMATOGRAPHY: RETENTION_TIME 4.596 min
AC$CHROMATOGRAPHY: SOLVENT A: Water 0.1% Formic acid, B: Acetonitrile 0.1% Formic acid
MS$FOCUSED_ION: PRECURSOR_M/Z 777.8614
MS$FOCUSED_ION: PRECURSOR_TYPE [M+H]+
MS$DATA_PROCESSING: COMMENT Export with Spectra 1.9.12 MsBackendMassbank 1.7.4
MS$DATA_PROCESSING: WHOLE RMassBank 2.3.1
PK$SPLASH: splash10-000i-0790000000-0f428375851d6498d968
PK$NUM_PEAK: 54
PK$PEAK: m/z int. rel.int.
  90.0352 0.5 16
  91.0434 1.4 46
  92.0509 0.6 19
  103.041 0.9 29
  104.0485 0.7 23
  105.0564 0.5 16
  106.0285 0.4 13
  108.0438 0.5 16
  116.0518 0.5 16
  118.0282 1.8 59
  119.0366 2.2 73
  120.0439 0.9 29
  131.0369 1.4 46
  132.0437 2.1 69
  133.053 0.6 19
  136.0386 0.9 29
  146.0239 2.2 73
  146.0435 0.7 23
  147.0313 0.8 26
  148.0393 1.4 46
  149.0469 0.9 29
  160.0397 1.7 56
  161.0469 9.5 316
  162.0546 1.3 43
  163.0614 0.6 19
  164.032 0.4 13
  174.0168 0.5 16
  175.046 0.9 29
  176.0352 0.5 16
  177.0419 4.5 149
  177.9127 0.5 16
  178.0483 0.4 13
  188.9187 0.9 29
  204.9156 0.4 13
  205.0234 0.5 16
  205.059 0.8 26
  217.9456 1.3 43
  231.0759 0.4 13
  231.9233 0.8 26
  245.9396 1.9 63
  247.0744 0.9 29
  257.9414 5.5 183
  258.9484 0.4 13
  261.0853 0.4 13
  270.9475 0.7 23
  273.9358 2.4 79
  275.9549 0.9 29
  277.0788 0.5 16
  286.9412 0.5 16
  287.9515 30 999
  300.954 0.6 19
  301.9306 0.4 13
  303.9523 0.8 26
  331.9427 0.8 26
//
