ACCESSION: MSBNK-BAFG-CSL2311098710
RECORD_TITLE: Thioridazine; LC-ESI-QTOF; MS2; 60 V
DATE: 2023.11.09
AUTHORS: Kevin S. Jewell; Björn Ehlig; Arne Wick
LICENSE: dl-de/by-2-0
COPYRIGHT: Copyright 2023 Federal Institute of Hydrology, Koblenz, Germany
COMMENT: CONFIDENCE Reference Standard (Level 1)
COMMENT: Chromatography method: dx.doi.org/10.1016/j.chroma.2015.11.014
COMMENT: Acquisition method: 10.1002/rcm.8541
CH$NAME: Thioridazine
CH$COMPOUND_CLASS: Pharmaceutical
CH$FORMULA: C21H26N2S2
CH$EXACT_MASS: 370.1537
CH$SMILES: CN1CCCCC1CCN2C3=CC=CC=C3SC4=C2C=C(C=C4)SC
CH$IUPAC: InChI=1S/C21H26N2S2/c1-22-13-6-5-7-16(22)12-14-23-18-8-3-4-9-20(18)25-21-11-10-17(24-2)15-19(21)23/h3-4,8-11,15-16H,5-7,12-14H2,1-2H3
CH$LINK: CAS 50-52-2
CH$LINK: INCHIKEY KLBQZWRITKRQQV-UHFFFAOYSA-N
AC$INSTRUMENT: TripleTOF 5600 SCIEX
AC$INSTRUMENT_TYPE: LC-ESI-QTOF
AC$MASS_SPECTROMETRY: MS_TYPE MS2
AC$MASS_SPECTROMETRY: ION_MODE POSITIVE
AC$MASS_SPECTROMETRY: COLLISION_ENERGY 60
AC$MASS_SPECTROMETRY: FRAGMENTATION_MODE CID
AC$MASS_SPECTROMETRY: IONIZATION ESI
AC$CHROMATOGRAPHY: COLUMN_NAME Zorbax Eclipse Plus C18 2.1 mm x 150 mm, 3.5 um, Agilent
AC$CHROMATOGRAPHY: COLUMN_TEMPERATURE 40 °C
AC$CHROMATOGRAPHY: FLOW_GRADIENT 0 min min 98% A, 1 min 98% A, 2 min 80% A, 16.5 min 2% A, 22 min 2% A, 22.1 min 98% A, 27 min 98% A
AC$CHROMATOGRAPHY: FLOW_RATE 0.3 mL/min
AC$CHROMATOGRAPHY: RETENTION_TIME 9.472 min
AC$CHROMATOGRAPHY: SOLVENT A: Water 0.1% Formic acid, B: Acetonitrile 0.1% Formic acid
MS$FOCUSED_ION: PRECURSOR_M/Z 371.161
MS$FOCUSED_ION: PRECURSOR_TYPE [M+H]+
MS$DATA_PROCESSING: COMMENT Export with Spectra 1.9.12 MsBackendMassbank 1.7.4
MS$DATA_PROCESSING: WHOLE RMassBank 2.3.1
PK$SPLASH: splash10-0002-9330000000-974be57600b797491a66
PK$NUM_PEAK: 21
PK$PEAK: m/z int. rel.int.
  42.0434 6.8 16
  58.0718 40.5 98
  68.0538 4.3 10
  70.0702 91.3 220
  84.0838 11.6 28
  96.0826 6.4 15
  98.0989 412.8 999
  126.1287 141 341
  167.0726 18.2 44
  179.073 31.7 76
  198.0368 7.2 17
  199.0444 14.1 34
  210.0376 14.6 35
  211.0457 67.2 162
  212.0531 7.3 17
  225.0611 5.7 13
  226.0689 61 147
  230.0082 9.2 22
  242.0095 4.6 11
  243.017 22.6 54
  258.0421 6.8 16
//
