ACCESSION: MSBNK-BAFG-CSL23110910192
RECORD_TITLE: Ethyltriphenylphosphonium; LC-ESI-QTOF; MS2; 120 V
DATE: 2023.11.09
AUTHORS: Kevin S. Jewell; Björn Ehlig; Arne Wick
LICENSE: dl-de/by-2-0
COPYRIGHT: Copyright 2023 Federal Institute of Hydrology, Koblenz, Germany
COMMENT: CONFIDENCE Reference Standard (Level 1)
COMMENT: Chromatography method: dx.doi.org/10.1016/j.chroma.2015.11.014
COMMENT: Acquisition method: 10.1002/rcm.8541
CH$NAME: Ethyltriphenylphosphonium
CH$COMPOUND_CLASS: Industrial_process
CH$FORMULA: [C20H20P]+
CH$EXACT_MASS: 291.1297
CH$SMILES: CC[P+](C1=CC=CC=C1)(C2=CC=CC=C2)C3=CC=CC=C3
CH$IUPAC: InChI=1S/C20H20P/c1-2-21(18-12-6-3-7-13-18,19-14-8-4-9-15-19)20-16-10-5-11-17-20/h3-17H,2H2,1H3/q+1
CH$LINK: CAS 39895-79-9
CH$LINK: INCHIKEY GELSOTNVVKOYAW-UHFFFAOYSA-N
AC$INSTRUMENT: TripleTOF 5600 SCIEX
AC$INSTRUMENT_TYPE: LC-ESI-QTOF
AC$MASS_SPECTROMETRY: MS_TYPE MS2
AC$MASS_SPECTROMETRY: ION_MODE POSITIVE
AC$MASS_SPECTROMETRY: COLLISION_ENERGY 120
AC$MASS_SPECTROMETRY: FRAGMENTATION_MODE CID
AC$MASS_SPECTROMETRY: IONIZATION ESI
AC$CHROMATOGRAPHY: COLUMN_NAME Zorbax Eclipse Plus C18 2.1 mm x 150 mm, 3.5 um, Agilent
AC$CHROMATOGRAPHY: COLUMN_TEMPERATURE 40 °C
AC$CHROMATOGRAPHY: FLOW_GRADIENT 0 min min 98% A, 1 min 98% A, 2 min 80% A, 16.5 min 2% A, 22 min 2% A, 22.1 min 98% A, 27 min 98% A
AC$CHROMATOGRAPHY: FLOW_RATE 0.3 mL/min
AC$CHROMATOGRAPHY: RETENTION_TIME 7.392 min
AC$CHROMATOGRAPHY: SOLVENT A: Water 0.1% Formic acid, B: Acetonitrile 0.1% Formic acid
MS$FOCUSED_ION: PRECURSOR_M/Z 291.1297
MS$FOCUSED_ION: PRECURSOR_TYPE [M]+
MS$DATA_PROCESSING: COMMENT Export with Spectra 1.9.12 MsBackendMassbank 1.7.4
MS$DATA_PROCESSING: WHOLE RMassBank 2.3.1
PK$SPLASH: splash10-0pb9-1900000000-3d58d8bc2100d25fb434
PK$NUM_PEAK: 23
PK$PEAK: m/z int. rel.int.
  56.9883 18.5 89
  63.0222 27.2 131
  65.038 19.1 92
  77.0371 11.4 55
  79.9796 23.7 114
  80.9874 47.5 229
  89.0365 54.3 262
  102.0446 21.2 102
  107.003 207 999
  113.0375 18.3 88
  115.0529 78.4 378
  126.0453 53.1 256
  131.0032 20.1 97
  133.019 17 82
  139.0536 63.7 307
  150.0455 35.8 172
  151.0536 103.8 500
  152.0615 186.4 899
  156.0117 17.3 83
  157.0196 92.4 445
  180.0119 15.1 72
  181.0199 78 376
  183.0356 19.9 96
//
