ACCESSION: MSBNK-BAFG-CSL23103017770
RECORD_TITLE: Desmetryn; LC-ESI-QTOF; MS2; 100 V
DATE: 2023.10.30
AUTHORS: Kevin S. Jewell; Björn Ehlig; Arne Wick
LICENSE: dl-de/by-2-0
COPYRIGHT: Copyright 2023 Federal Institute of Hydrology, Koblenz, Germany
COMMENT: CONFIDENCE Reference Standard (Level 1)
COMMENT: Chromatography method: dx.doi.org/10.1016/j.chroma.2015.11.014
COMMENT: Acquisition method: 10.1002/rcm.8541
CH$NAME: Desmetryn
CH$COMPOUND_CLASS: Herbicide
CH$FORMULA: C8H15N5S
CH$EXACT_MASS: 213.1048
CH$SMILES: CC(C)NC1=NC(=NC(=N1)NC)SC
CH$IUPAC: InChI=1S/C8H15N5S/c1-5(2)10-7-11-6(9-3)12-8(13-7)14-4/h5H,1-4H3,(H2,9,10,11,12,13)
CH$LINK: CAS 1014-69-3
CH$LINK: INCHIKEY HCRWJJJUKUVORR-UHFFFAOYSA-N
AC$INSTRUMENT: TripleTOF 6600 SCIEX
AC$INSTRUMENT_TYPE: LC-ESI-QTOF
AC$MASS_SPECTROMETRY: MS_TYPE MS2
AC$MASS_SPECTROMETRY: ION_MODE POSITIVE
AC$MASS_SPECTROMETRY: COLLISION_ENERGY 100
AC$MASS_SPECTROMETRY: FRAGMENTATION_MODE CID
AC$MASS_SPECTROMETRY: IONIZATION ESI
AC$CHROMATOGRAPHY: COLUMN_NAME Zorbax Eclipse Plus C18 2.1 mm x 150 mm, 3.5 um, Agilent
AC$CHROMATOGRAPHY: COLUMN_TEMPERATURE 40 °C
AC$CHROMATOGRAPHY: FLOW_GRADIENT 0 min min 98% A, 1 min 98% A, 2 min 80% A, 16.5 min 2% A, 22 min 2% A, 22.1 min 98% A, 27 min 98% A
AC$CHROMATOGRAPHY: FLOW_RATE 0.3 mL/min
AC$CHROMATOGRAPHY: RETENTION_TIME 7.281 min
AC$CHROMATOGRAPHY: SOLVENT A: Water 0.1% Formic acid, B: Acetonitrile 0.1% Formic acid
MS$FOCUSED_ION: PRECURSOR_M/Z 214.1121
MS$FOCUSED_ION: PRECURSOR_TYPE [M+H]+
MS$DATA_PROCESSING: COMMENT Export with Spectra 1.9.12 MsBackendMassbank 1.7.4
MS$DATA_PROCESSING: WHOLE RMassBank 2.3.1
PK$SPLASH: splash10-052f-9000000000-f6a0a009e9ac47b54702
PK$NUM_PEAK: 23
PK$PEAK: m/z int. rel.int.
  37.0061 1 41
  38.0135 1 41
  39.022 4.1 169
  41.0121 1.7 70
  41.037 1.4 58
  42.0202 2.5 103
  42.0326 0.9 37
  43.0281 24.1 999
  43.9714 0.4 16
  44.9778 5 207
  45.9726 0.5 20
  46.9935 3.5 145
  53.0122 2.1 87
  55.0277 5.9 244
  57.0434 12.4 514
  57.9725 1.2 49
  58.9807 2.3 95
  59.9885 4 165
  68.0227 11.9 493
  71.9886 0.6 24
  74.0044 1.3 53
  82.0383 3.7 153
  84.9836 2 82
//
