ACCESSION: MSBNK-BAFG-CSL25010634151
RECORD_TITLE: 3,3-Diphenylacrylonitrile; LC-ESI-QTOF; MS2; 50 V
DATE: 2025.01.06
AUTHORS: Ole Lessmann; Kevin S. Jewell; Björn Ehlig; Arne Wick
LICENSE: dl-de/by-2-0
COPYRIGHT: Copyright 2025 Federal Institute of Hydrology, Koblenz, Germany
COMMENT: CONFIDENCE Reference Standard (Level 1)
COMMENT: Chromatography method: dx.doi.org/10.1016/j.chroma.2015.11.014
COMMENT: Acquisition method: 10.1002/rcm.8541
CH$NAME: 3,3-Diphenylacrylonitrile
CH$FORMULA: C15H11N
CH$EXACT_MASS: 205.0891
CH$SMILES: C1=CC=C(C=C1)C(=CC#N)C2=CC=CC=C2
CH$IUPAC: InChI=1S/C15H11N/c16-12-11-15(13-7-3-1-4-8-13)14-9-5-2-6-10-14/h1-11H
CH$LINK: CAS 3531-24-6
CH$LINK: INCHIKEY RDGWQFSLTSPRBG-UHFFFAOYSA-N
AC$INSTRUMENT: TripleTOF 6600 SCIEX
AC$INSTRUMENT_TYPE: LC-ESI-QTOF
AC$MASS_SPECTROMETRY: MS_TYPE MS2
AC$MASS_SPECTROMETRY: ION_MODE POSITIVE
AC$MASS_SPECTROMETRY: COLLISION_ENERGY 50
AC$MASS_SPECTROMETRY: FRAGMENTATION_MODE CID
AC$MASS_SPECTROMETRY: IONIZATION ESI
AC$CHROMATOGRAPHY: COLUMN_NAME Zorbax Eclipse Plus C18 2.1 mm x 150 mm, 3.5 um, Agilent
AC$CHROMATOGRAPHY: COLUMN_TEMPERATURE 40 °C
AC$CHROMATOGRAPHY: FLOW_GRADIENT 0 min min 98% A, 1 min 98% A, 2 min 80% A, 16.5 min 2% A, 22 min 2% A, 22.1 min 98% A, 27 min 98% A
AC$CHROMATOGRAPHY: FLOW_RATE 0.3 mL/min
AC$CHROMATOGRAPHY: RETENTION_TIME 13.746 min
AC$CHROMATOGRAPHY: SOLVENT A: Water 0.1% Formic acid, B: Acetonitrile 0.1% Formic acid
MS$FOCUSED_ION: PRECURSOR_M/Z 206.0964
MS$FOCUSED_ION: PRECURSOR_TYPE [M+H]+
MS$DATA_PROCESSING: COMMENT Export with pycsl 0.1.0.dev1 and CSL 24.4
PK$SPLASH: splash10-004i-5900000000-a9deb9c54e2bbefecbcc
PK$NUM_PEAK: 25
PK$PEAK: m/z int. rel.int.
  51.0219 6.8 88
  74.013 1.8 23
  75.0213 16.7 217
  77.0373 76.6 999
  101.0366 31.1 405
  102.0333 5.6 73
  103.0515 1.6 20
  104.0478 25.9 337
  105.0434 1.1 14
  115.0535 0.8 10
  128.0474 14.2 185
  129.0433 7.1 92
  130.0381 1.0 13
  139.0535 1.4 18
  151.0526 3.1 40
  152.0595 9.3 121
  163.0519 1.5 19
  164.0599 3.1 40
  165.0683 8.0 104
  176.0608 9.5 123
  177.0684 10.9 142
  178.0765 29.8 388
  190.0632 2.4 31
  203.0692 1.6 20
  204.0796 6.3 82
//