ACCESSION: MSBNK-BAFG-CSL25011734602
RECORD_TITLE: N-[2-[(2-Bromo-4,6-dinitrophenyl)azo]-5-(diethylamino)phenyl]acetamide; LC-ESI-QTOF; MS2; 60 V
DATE: 2025.01.17
AUTHORS: Ole Lessmann; Kevin S. Jewell; Björn Ehlig; Arne Wick
LICENSE: dl-de/by-2-0
COPYRIGHT: Copyright 2025 Federal Institute of Hydrology, Koblenz, Germany
COMMENT: CONFIDENCE Reference Standard (Level 1)
COMMENT: Chromatography method: dx.doi.org/10.1016/j.chroma.2015.11.014
CH$NAME: N-[2-[(2-Bromo-4,6-dinitrophenyl)azo]-5-(diethylamino)phenyl]acetamide
CH$FORMULA: C18H19BrN6O5
CH$EXACT_MASS: 478.06
CH$SMILES: CCN(CC)C1=CC(=C(C=C1)N=NC2=C(C=C(C=C2Br)[N+](=O)[O-])[N+](=O)[O-])NC(=O)C
CH$IUPAC: InChI=1S/C18H19BrN6O5/c1-4-23(5-2)12-6-7-15(16(9-12)20-11(3)26)21-22-18-14(19)8-13(24(27)28)10-17(18)25(29)30/h6-10H,4-5H2,1-3H3,(H,20,26)
CH$LINK: CAS 52697-38-8
CH$LINK: INCHIKEY WFFKSTRPZWRBEW-UHFFFAOYSA-N
AC$INSTRUMENT: TripleTOF 6600 SCIEX
AC$INSTRUMENT_TYPE: LC-ESI-QTOF
AC$MASS_SPECTROMETRY: MS_TYPE MS2
AC$MASS_SPECTROMETRY: ION_MODE POSITIVE
AC$MASS_SPECTROMETRY: COLLISION_ENERGY 60
AC$MASS_SPECTROMETRY: FRAGMENTATION_MODE CID
AC$MASS_SPECTROMETRY: IONIZATION ESI
AC$CHROMATOGRAPHY: COLUMN_NAME Zorbax Eclipse Plus C18 2.1 mm x 150 mm, 3.5 um, Agilent
AC$CHROMATOGRAPHY: COLUMN_TEMPERATURE 40 °C
AC$CHROMATOGRAPHY: FLOW_GRADIENT 0 min min 98% A, 1 min 98% A, 2 min 80% A, 16.5 min 2% A, 22 min 2% A, 22.1 min 98% A, 27 min 98% A
AC$CHROMATOGRAPHY: FLOW_RATE 0.3 mL/min
AC$CHROMATOGRAPHY: RETENTION_TIME 16.579 min
AC$CHROMATOGRAPHY: SOLVENT A: Water 0.1% Formic acid, B: Acetonitrile 0.1% Formic acid
MS$FOCUSED_ION: PRECURSOR_M/Z 479.0673
MS$FOCUSED_ION: PRECURSOR_TYPE [M+H]+
MS$DATA_PROCESSING: COMMENT Export with pycsl 0.1.0.dev1 and CSL 25.0
PK$SPLASH: splash10-0006-0900000000-b229085e14d998c41c4e
PK$NUM_PEAK: 38
PK$PEAK: m/z int. rel.int.
  80.048 4.3 19
  93.0564 5.8 26
  107.0585 5.5 25
  108.0433 7.1 32
  108.0793 4.1 18
  109.0738 5.7 26
  120.0549 3.5 16
  121.0745 35.6 163
  133.0628 6.6 30
  134.0703 26.0 119
  135.0914 13.8 63
  136.0746 16.1 73
  147.0778 2.8 12
  148.062 15.6 71
  148.0849 24.9 114
  149.1056 20.3 93
  150.0892 2.7 12
  161.0703 3.1 14
  162.1006 48.8 224
  163.0856 57.5 264
  163.1202 21.3 97
  175.0733 4.3 19
  176.1172 2.7 12
  177.1014 66.9 307
  191.117 217.4 999
  204.1131 4.5 20
  250.1347 2.6 11
  265.1428 6.6 30
  272.9886 4.5 20
  301.0253 2.4 11
  316.0347 2.9 13
  328.0392 3.0 13
  329.0463 5.8 26
  330.0291 3.5 16
  344.063 8.7 39
  345.0443 4.4 20
  375.0334 2.5 11
  390.0591 2.5 11
//
