ACCESSION: MSBNK-BAFG-CSL23111012898
RECORD_TITLE: 1-Hexyl-3-methylimidazolium; LC-ESI-QTOF; MS2; 40 V
DATE: 2023.11.10
AUTHORS: Kevin S. Jewell; Björn Ehlig; Arne Wick
LICENSE: dl-de/by-2-0
COPYRIGHT: Copyright 2023 Federal Institute of Hydrology, Koblenz, Germany
COMMENT: CONFIDENCE Reference Standard (Level 1)
COMMENT: Chromatography method: dx.doi.org/10.1016/j.chroma.2015.11.014
COMMENT: Acquisition method: 10.1002/rcm.8541
CH$NAME: 1-Hexyl-3-methylimidazolium
CH$FORMULA: [C10H19N2]+
CH$EXACT_MASS: 167.1543
CH$SMILES: CCCCCCN1C=C[N+](=C1)C
CH$IUPAC: InChI=1S/C10H19N2/c1-3-4-5-6-7-12-9-8-11(2)10-12/h8-10H,3-7H2,1-2H3/q+1
CH$LINK: CAS 85100-82-9
CH$LINK: INCHIKEY RVEJOWGVUQQIIZ-UHFFFAOYSA-N
AC$INSTRUMENT: TripleTOF 5600 SCIEX
AC$INSTRUMENT_TYPE: LC-ESI-QTOF
AC$MASS_SPECTROMETRY: MS_TYPE MS2
AC$MASS_SPECTROMETRY: ION_MODE POSITIVE
AC$MASS_SPECTROMETRY: COLLISION_ENERGY 40
AC$MASS_SPECTROMETRY: FRAGMENTATION_MODE CID
AC$MASS_SPECTROMETRY: IONIZATION ESI
AC$CHROMATOGRAPHY: COLUMN_NAME Zorbax Eclipse Plus C18 2.1 mm x 150 mm, 3.5 um, Agilent
AC$CHROMATOGRAPHY: COLUMN_TEMPERATURE 40 °C
AC$CHROMATOGRAPHY: FLOW_GRADIENT 0 min min 98% A, 1 min 98% A, 2 min 80% A, 16.5 min 2% A, 22 min 2% A, 22.1 min 98% A, 27 min 98% A
AC$CHROMATOGRAPHY: FLOW_RATE 0.3 mL/min
AC$CHROMATOGRAPHY: RETENTION_TIME 5.732 min
AC$CHROMATOGRAPHY: SOLVENT A: Water 0.1% Formic acid, B: Acetonitrile 0.1% Formic acid
MS$FOCUSED_ION: PRECURSOR_M/Z 167.1543
MS$FOCUSED_ION: PRECURSOR_TYPE [M]+
MS$DATA_PROCESSING: COMMENT Export with Spectra 1.9.12 MsBackendMassbank 1.7.4
MS$DATA_PROCESSING: WHOLE RMassBank 2.3.1
PK$SPLASH: splash10-001i-9000000000-240d406d91d339621196
PK$NUM_PEAK: 5
PK$PEAK: m/z int. rel.int.
  41.0389 3.7 70
  42.0341 3.8 72
  43.0548 4 76
  56.0495 2.9 55
  83.0592 52.3 999
//
