ACCESSION: MSBNK-BAFG-CSL23111013022
RECORD_TITLE: Flavanone; LC-ESI-QTOF; MS2; 110 V
DATE: 2023.11.10
AUTHORS: Kevin S. Jewell; Björn Ehlig; Arne Wick
LICENSE: dl-de/by-2-0
COPYRIGHT: Copyright 2023 Federal Institute of Hydrology, Koblenz, Germany
COMMENT: CONFIDENCE Reference Standard (Level 1)
COMMENT: Chromatography method: dx.doi.org/10.1016/j.chroma.2015.11.014
COMMENT: Acquisition method: 10.1002/rcm.8541
CH$NAME: Flavanone
CH$COMPOUND_CLASS: Personal_care_product
CH$FORMULA: C15H12O2
CH$EXACT_MASS: 224.0837
CH$SMILES: C1C(OC2=CC=CC=C2C1=O)C3=CC=CC=C3
CH$IUPAC: InChI=1S/C15H12O2/c16-13-10-15(11-6-2-1-3-7-11)17-14-9-5-4-8-12(13)14/h1-9,15H,10H2
CH$LINK: CAS 487-26-3
CH$LINK: INCHIKEY ZONYXWQDUYMKFB-UHFFFAOYSA-N
AC$INSTRUMENT: TripleTOF 5600 SCIEX
AC$INSTRUMENT_TYPE: LC-ESI-QTOF
AC$MASS_SPECTROMETRY: MS_TYPE MS2
AC$MASS_SPECTROMETRY: ION_MODE POSITIVE
AC$MASS_SPECTROMETRY: COLLISION_ENERGY 110
AC$MASS_SPECTROMETRY: FRAGMENTATION_MODE CID
AC$MASS_SPECTROMETRY: IONIZATION ESI
AC$CHROMATOGRAPHY: COLUMN_NAME Zorbax Eclipse Plus C18 2.1 mm x 150 mm, 3.5 um, Agilent
AC$CHROMATOGRAPHY: COLUMN_TEMPERATURE 40 °C
AC$CHROMATOGRAPHY: FLOW_GRADIENT 0 min min 98% A, 1 min 98% A, 2 min 80% A, 16.5 min 2% A, 22 min 2% A, 22.1 min 98% A, 27 min 98% A
AC$CHROMATOGRAPHY: FLOW_RATE 0.3 mL/min
AC$CHROMATOGRAPHY: RETENTION_TIME 12.61 min
AC$CHROMATOGRAPHY: SOLVENT A: Water 0.1% Formic acid, B: Acetonitrile 0.1% Formic acid
MS$FOCUSED_ION: PRECURSOR_M/Z 225.091
MS$FOCUSED_ION: PRECURSOR_TYPE [M+H]+
MS$DATA_PROCESSING: COMMENT Export with Spectra 1.9.12 MsBackendMassbank 1.7.4
MS$DATA_PROCESSING: WHOLE RMassBank 2.3.1
PK$SPLASH: splash10-0ufr-9100000000-10bab9ff7ccf6b1b2889
PK$NUM_PEAK: 20
PK$PEAK: m/z int. rel.int.
  37.0073 1.4 137
  38.0152 1 97
  39.0229 3.7 362
  50.0144 1.9 186
  51.0231 10.2 999
  62.0147 0.6 58
  63.0224 1.2 117
  65.0384 2.3 225
  74.0147 2.2 215
  75.0224 1.6 156
  76.0311 0.7 68
  77.0386 6.1 597
  98.0142 0.6 58
  102.0452 0.5 48
  126.0469 0.8 78
  150.0457 2.2 215
  151.0549 1 97
  163.0569 0.5 48
  175.0522 0.5 48
  176.0589 1.2 117
//
