ACCESSION: MSBNK-BAFG-CSL25010634467
RECORD_TITLE: Sudan I; LC-ESI-QTOF; MS2; 120 V
DATE: 2025.01.06
AUTHORS: Ole Lessmann; Kevin S. Jewell; Björn Ehlig; Arne Wick
LICENSE: dl-de/by-2-0
COPYRIGHT: Copyright 2025 Federal Institute of Hydrology, Koblenz, Germany
COMMENT: CONFIDENCE Reference Standard (Level 1)
COMMENT: Chromatography method: dx.doi.org/10.1016/j.chroma.2015.11.014
COMMENT: Acquisition method: 10.1002/rcm.8541
CH$NAME: Sudan I
CH$FORMULA: C16H12N2O
CH$EXACT_MASS: 248.095
CH$SMILES: C1=CC=C(C=C1)N=NC2=C(C=CC3=CC=CC=C32)O
CH$IUPAC: InChI=1S/C16H12N2O/c19-15-11-10-12-6-4-5-9-14(12)16(15)18-17-13-7-2-1-3-8-13/h1-11,19H
CH$LINK: CAS 842-07-9
CH$LINK: INCHIKEY MRQIXHXHHPWVIL-UHFFFAOYSA-N
AC$INSTRUMENT: TripleTOF 6600 SCIEX
AC$INSTRUMENT_TYPE: LC-ESI-QTOF
AC$MASS_SPECTROMETRY: MS_TYPE MS2
AC$MASS_SPECTROMETRY: ION_MODE POSITIVE
AC$MASS_SPECTROMETRY: COLLISION_ENERGY 120
AC$MASS_SPECTROMETRY: FRAGMENTATION_MODE CID
AC$MASS_SPECTROMETRY: IONIZATION ESI
AC$CHROMATOGRAPHY: COLUMN_NAME Zorbax Eclipse Plus C18 2.1 mm x 150 mm, 3.5 um, Agilent
AC$CHROMATOGRAPHY: COLUMN_TEMPERATURE 40 °C
AC$CHROMATOGRAPHY: FLOW_GRADIENT 0 min min 98% A, 1 min 98% A, 2 min 80% A, 16.5 min 2% A, 22 min 2% A, 22.1 min 98% A, 27 min 98% A
AC$CHROMATOGRAPHY: FLOW_RATE 0.3 mL/min
AC$CHROMATOGRAPHY: RETENTION_TIME 15.674 min
AC$CHROMATOGRAPHY: SOLVENT A: Water 0.1% Formic acid, B: Acetonitrile 0.1% Formic acid
MS$FOCUSED_ION: PRECURSOR_M/Z 249.1023
MS$FOCUSED_ION: PRECURSOR_TYPE [M+H]+
MS$DATA_PROCESSING: COMMENT Export with pycsl 0.1.0.dev1 and CSL 24.4
PK$SPLASH: splash10-0g4i-9000000000-42662ff5ab3224f7f24d
PK$NUM_PEAK: 32
PK$PEAK: m/z int. rel.int.
  35.9989 1.1 13
  37.0075 5.8 71
  38.015 6.7 83
  39.0231 31.5 390
  40.0311 1.4 17
  41.0261 1.8 22
  42.0344 1.8 22
  49.0066 2.9 35
  50.0153 25.1 311
  51.023 38.3 474
  52.018 5.2 64
  54.0341 4.1 50
  62.0151 1.0 12
  63.0226 2.1 26
  65.0384 33.7 417
  66.0332 2.8 34
  66.0464 13.9 172
  67.042 0.9 11
  73.0075 7.4 91
  74.0149 80.6 999
  75.0095 4.3 53
  75.0227 36.0 446
  76.0177 6.2 76
  76.0323 1.1 13
  77.0379 5.6 69
  78.0355 3.1 38
  86.0135 1.0 12
  92.0484 7.6 94
  93.0587 3.8 47
  98.0145 3.8 47
  99.0088 1.0 12
  150.0475 1.2 14
//