ACCESSION: MSBNK-BAFG-CSL2310254828
RECORD_TITLE: Nitenpyram; LC-ESI-QTOF; MS2; 100 V
DATE: 2023.10.25
AUTHORS: Kevin S. Jewell; Björn Ehlig; Arne Wick
LICENSE: dl-de/by-2-0
COPYRIGHT: Copyright 2023 Federal Institute of Hydrology, Koblenz, Germany
COMMENT: CONFIDENCE Reference Standard (Level 1)
COMMENT: Chromatography method: dx.doi.org/10.1016/j.chroma.2015.11.014
COMMENT: Acquisition method: 10.1002/rcm.8541
CH$NAME: Nitenpyram
CH$COMPOUND_CLASS: Pharmaceutical; Insecticide
CH$FORMULA: C11H15ClN4O2
CH$EXACT_MASS: 270.0884
CH$SMILES: CCN(Cc1ccc(Cl)nc1)\C(NC)=C\[N+]([O-])=O
CH$IUPAC: InChI=1S/C11H15ClN4O2/c1-3-15(11(13-2)8-16(17)18)7-9-4-5-10(12)14-6-9/h4-6,8,13H,3,7H2,1-2H3/b11-8+
CH$LINK: CAS 150824-47-8
CH$LINK: INCHIKEY CFRPSFYHXJZSBI-DHZHZOJOSA-N
AC$INSTRUMENT: TripleTOF 5600 SCIEX
AC$INSTRUMENT_TYPE: LC-ESI-QTOF
AC$MASS_SPECTROMETRY: MS_TYPE MS2
AC$MASS_SPECTROMETRY: ION_MODE POSITIVE
AC$MASS_SPECTROMETRY: COLLISION_ENERGY 100
AC$MASS_SPECTROMETRY: FRAGMENTATION_MODE CID
AC$MASS_SPECTROMETRY: IONIZATION ESI
AC$CHROMATOGRAPHY: COLUMN_NAME Zorbax Eclipse Plus C18 2.1 mm x 150 mm, 3.5 um, Agilent
AC$CHROMATOGRAPHY: COLUMN_TEMPERATURE 40 °C
AC$CHROMATOGRAPHY: FLOW_GRADIENT 0 min min 98% A, 1 min 98% A, 2 min 80% A, 16.5 min 2% A, 22 min 2% A, 22.1 min 98% A, 27 min 98% A
AC$CHROMATOGRAPHY: FLOW_RATE 0.3 mL/min
AC$CHROMATOGRAPHY: RETENTION_TIME 5.386 min
AC$CHROMATOGRAPHY: SOLVENT A: Water 0.1% Formic acid, B: Acetonitrile 0.1% Formic acid
MS$FOCUSED_ION: PRECURSOR_M/Z 271.0956
MS$FOCUSED_ION: PRECURSOR_TYPE [M+H]+
MS$DATA_PROCESSING: COMMENT Export with Spectra 1.9.12 MsBackendMassbank 1.7.4
MS$DATA_PROCESSING: WHOLE RMassBank 2.3.1
PK$SPLASH: splash10-05fr-9000000000-fc7559c6de439d9fb0f9
PK$NUM_PEAK: 26
PK$PEAK: m/z int. rel.int.
  51.0255 0.4 26
  56.0553 14.2 939
  57.0484 0.5 33
  58.0692 0.4 26
  63.0487 0.6 39
  64.0349 1.4 92
  65.0415 0.5 33
  72.9876 15.1 999
  73.0148 1.3 86
  74.0188 0.6 39
  75.0254 1 66
  76.0226 0.9 59
  77.0442 0.9 59
  78.0358 1 66
  89.0423 0.7 46
  90.0344 3.1 205
  91.0421 1.5 99
  98.9998 3.8 251
  99.0208 0.4 26
  102.0329 0.6 39
  104.0518 0.6 39
  116.0425 0.5 33
  117.0455 0.5 33
  126.0089 0.8 52
  131.0615 0.4 26
  152.0172 0.5 33
//
