ACCESSION: MSBNK-BAFG-CSL23103016673
RECORD_TITLE: 2-(Thiocyanomethylthio)benzothiazole; LC-ESI-QTOF; MS2; 40 V
DATE: 2023.10.30
AUTHORS: Kevin S. Jewell; Björn Ehlig; Arne Wick
LICENSE: dl-de/by-2-0
COPYRIGHT: Copyright 2023 Federal Institute of Hydrology, Koblenz, Germany
COMMENT: CONFIDENCE Reference Standard (Level 1)
COMMENT: Chromatography method: dx.doi.org/10.1016/j.chroma.2015.11.014
COMMENT: Acquisition method: 10.1002/rcm.8541
CH$NAME: 2-(Thiocyanomethylthio)benzothiazole
CH$COMPOUND_CLASS: Antimicrobial; Fungicide
CH$FORMULA: C9H6N2S3
CH$EXACT_MASS: 237.9693
CH$SMILES: C1=CC=C2C(=C1)N=C(S2)SCSC#N
CH$IUPAC: InChI=1S/C9H6N2S3/c10-5-12-6-13-9-11-7-3-1-2-4-8(7)14-9/h1-4H,6H2
CH$LINK: CAS 21564-17-0
CH$LINK: INCHIKEY TUBQDCKAWGHZPF-UHFFFAOYSA-N
AC$INSTRUMENT: TripleTOF 6600 SCIEX
AC$INSTRUMENT_TYPE: LC-ESI-QTOF
AC$MASS_SPECTROMETRY: MS_TYPE MS2
AC$MASS_SPECTROMETRY: ION_MODE POSITIVE
AC$MASS_SPECTROMETRY: COLLISION_ENERGY 40
AC$MASS_SPECTROMETRY: FRAGMENTATION_MODE CID
AC$MASS_SPECTROMETRY: IONIZATION ESI
AC$CHROMATOGRAPHY: COLUMN_NAME Zorbax Eclipse Plus C18 2.1 mm x 150 mm, 3.5 um, Agilent
AC$CHROMATOGRAPHY: COLUMN_TEMPERATURE 40 °C
AC$CHROMATOGRAPHY: FLOW_GRADIENT 0 min min 98% A, 1 min 98% A, 2 min 80% A, 16.5 min 2% A, 22 min 2% A, 22.1 min 98% A, 27 min 98% A
AC$CHROMATOGRAPHY: FLOW_RATE 0.3 mL/min
AC$CHROMATOGRAPHY: RETENTION_TIME 12.417 min
AC$CHROMATOGRAPHY: SOLVENT A: Water 0.1% Formic acid, B: Acetonitrile 0.1% Formic acid
MS$FOCUSED_ION: PRECURSOR_M/Z 238.9766
MS$FOCUSED_ION: PRECURSOR_TYPE [M+H]+
MS$DATA_PROCESSING: COMMENT Export with Spectra 1.9.12 MsBackendMassbank 1.7.4
MS$DATA_PROCESSING: WHOLE RMassBank 2.3.1
PK$SPLASH: splash10-000i-1900000000-120b2b4ba88e55dfe025
PK$NUM_PEAK: 15
PK$PEAK: m/z int. rel.int.
  44.9798 47.7 115
  65.0388 6.9 16
  71.9902 6.4 15
  77.039 35.3 85
  89.0383 6.6 15
  104.0492 6.1 14
  109.0111 71.9 174
  116.05 28.1 68
  121.0104 4.7 11
  122.0185 5.2 12
  123.0141 6.9 16
  136.0224 412.2 999
  166.9862 31.8 77
  167.9939 4.6 11
  179.9944 100.8 244
//
