ACCESSION: MSBNK-BAFG-CSL25011734622
RECORD_TITLE: 3-Alizarinsulfonic acid; LC-ESI-QTOF; MS2; 100 V
DATE: 2025.01.17
AUTHORS: Ole Lessmann; Kevin S. Jewell; Björn Ehlig; Arne Wick
LICENSE: dl-de/by-2-0
COPYRIGHT: Copyright 2025 Federal Institute of Hydrology, Koblenz, Germany
COMMENT: CONFIDENCE Reference Standard (Level 1)
COMMENT: Chromatography method: dx.doi.org/10.1016/j.chroma.2015.11.014
CH$NAME: 3-Alizarinsulfonic acid
CH$FORMULA: C14H8O7S
CH$EXACT_MASS: 319.9991
CH$SMILES: C1=CC=C2C(=C1)C(=O)C3=CC(=C(C(=C3C2=O)O)O)S(=O)(=O)O
CH$IUPAC: InChI=1S/C14H8O7S/c15-11-6-3-1-2-4-7(6)12(16)10-8(11)5-9(22(19,20)21)13(17)14(10)18/h1-5,17-18H,(H,19,20,21)
CH$LINK: CAS 83-61-4
CH$LINK: INCHIKEY JKYKXTRKURYNGW-UHFFFAOYSA-N
AC$INSTRUMENT: TripleTOF 6600 SCIEX
AC$INSTRUMENT_TYPE: LC-ESI-QTOF
AC$MASS_SPECTROMETRY: MS_TYPE MS2
AC$MASS_SPECTROMETRY: ION_MODE POSITIVE
AC$MASS_SPECTROMETRY: COLLISION_ENERGY 100
AC$MASS_SPECTROMETRY: FRAGMENTATION_MODE CID
AC$MASS_SPECTROMETRY: IONIZATION ESI
AC$CHROMATOGRAPHY: COLUMN_NAME Zorbax Eclipse Plus C18 2.1 mm x 150 mm, 3.5 um, Agilent
AC$CHROMATOGRAPHY: COLUMN_TEMPERATURE 40 °C
AC$CHROMATOGRAPHY: FLOW_GRADIENT 0 min min 98% A, 1 min 98% A, 2 min 80% A, 16.5 min 2% A, 22 min 2% A, 22.1 min 98% A, 27 min 98% A
AC$CHROMATOGRAPHY: FLOW_RATE 0.3 mL/min
AC$CHROMATOGRAPHY: RETENTION_TIME 8.229 min
AC$CHROMATOGRAPHY: SOLVENT A: Water 0.1% Formic acid, B: Acetonitrile 0.1% Formic acid
MS$FOCUSED_ION: PRECURSOR_M/Z 321.0064
MS$FOCUSED_ION: PRECURSOR_TYPE [M+H]+
MS$DATA_PROCESSING: COMMENT Export with pycsl 0.1.0.dev1 and CSL 25.0
PK$SPLASH: splash10-004i-9500000000-c1180a6372c55c0aa686
PK$NUM_PEAK: 17
PK$PEAK: m/z int. rel.int.
  51.023 0.7 194
  74.0139 0.1 27
  75.0219 1.2 333
  76.0306 0.1 27
  77.0379 3.6 999
  79.017 0.1 27
  86.0136 0.3 83
  87.02 0.3 83
  89.0372 0.1 27
  100.0292 0.2 55
  101.0376 1.0 277
  105.0345 0.2 55
  126.0445 1.2 333
  127.0505 0.6 166
  127.0592 0.4 111
  129.0437 0.4 111
  137.0351 0.1 27
//
