ACCESSION: MSBNK-BAFG-CSL25010631487
RECORD_TITLE: Diethylamino hydroxybenzoyl hexyl benzoate; LC-ESI-QTOF; MS2; 110 V
DATE: 2025.01.06
AUTHORS: Ole Lessmann; Kevin S. Jewell; Björn Ehlig; Arne Wick
LICENSE: dl-de/by-2-0
COPYRIGHT: Copyright 2025 Federal Institute of Hydrology, Koblenz, Germany
COMMENT: CONFIDENCE Reference Standard (Level 1)
COMMENT: Chromatography method: dx.doi.org/10.1016/j.chroma.2015.11.014
COMMENT: Acquisition method: 10.1002/rcm.8541
CH$NAME: Diethylamino hydroxybenzoyl hexyl benzoate
CH$FORMULA: C24H31NO4
CH$EXACT_MASS: 397.2253
CH$SMILES: CCCCCCOC(=O)C1=CC=CC=C1C(=O)C2=C(C=C(C=C2)N(CC)CC)O
CH$IUPAC: InChI=1S/C24H31NO4/c1-4-7-8-11-16-29-24(28)20-13-10-9-12-19(20)23(27)21-15-14-18(17-22(21)26)25(5-2)6-3/h9-10,12-15,17,26H,4-8,11,16H2,1-3H3
CH$LINK: CAS 302776-68-7
CH$LINK: INCHIKEY FDATWRLUYRHCJE-UHFFFAOYSA-N
AC$INSTRUMENT: TripleTOF 6600 SCIEX
AC$INSTRUMENT_TYPE: LC-ESI-QTOF
AC$MASS_SPECTROMETRY: MS_TYPE MS2
AC$MASS_SPECTROMETRY: ION_MODE POSITIVE
AC$MASS_SPECTROMETRY: COLLISION_ENERGY 110
AC$MASS_SPECTROMETRY: FRAGMENTATION_MODE CID
AC$MASS_SPECTROMETRY: IONIZATION ESI
AC$CHROMATOGRAPHY: COLUMN_NAME Zorbax Eclipse Plus C18 2.1 mm x 150 mm, 3.5 um, Agilent
AC$CHROMATOGRAPHY: COLUMN_TEMPERATURE 40 °C
AC$CHROMATOGRAPHY: FLOW_GRADIENT 0 min min 98% A, 1 min 98% A, 2 min 80% A, 16.5 min 2% A, 22 min 2% A, 22.1 min 98% A, 27 min 98% A
AC$CHROMATOGRAPHY: FLOW_RATE 0.3 mL/min
AC$CHROMATOGRAPHY: RETENTION_TIME 17.769 min
AC$CHROMATOGRAPHY: SOLVENT A: Water 0.1% Formic acid, B: Acetonitrile 0.1% Formic acid
MS$FOCUSED_ION: PRECURSOR_M/Z 398.2326
MS$FOCUSED_ION: PRECURSOR_TYPE [M+H]+
MS$DATA_PROCESSING: COMMENT Export with pycsl 0.1.0.dev1 and CSL 24.4
PK$SPLASH: splash10-00kr-2900000000-fe720e99040cb963e913
PK$NUM_PEAK: 75
PK$PEAK: m/z int. rel.int.
  39.0231 88.1 89
  41.0385 35.1 35
  43.054 18.2 18
  51.0227 13.1 13
  53.0384 16.4 16
  63.0226 15.7 15
  65.0385 292.2 295
  68.0128 12.9 13
  76.0304 10.1 10
  77.0383 138.2 139
  78.0334 10.1 10
  80.0491 132.0 133
  89.038 54.4 55
  91.0172 11.0 11
  91.0535 20.4 20
  92.0497 11.6 11
  93.0329 42.3 42
  94.0411 11.7 11
  101.0379 15.2 15
  102.0457 24.8 25
  105.0333 33.6 33
  108.0444 26.5 26
  113.0378 48.5 49
  114.046 25.3 25
  115.0541 248.7 251
  119.0121 22.1 22
  121.029 34.1 34
  125.0375 16.8 16
  126.0459 47.4 47
  127.0534 156.2 157
  128.0612 169.2 171
  129.0697 16.1 16
  137.0378 11.9 12
  138.0456 66.5 67
  139.0541 988.0 999
  140.0574 112.4 113
  141.0686 79.5 80
  149.0363 16.1 16
  150.0458 59.6 60
  151.0536 142.1 143
  152.0612 222.3 224
  153.0627 48.5 49
  154.0645 117.6 118
  155.0515 32.6 32
  156.0577 11.5 11
  156.0796 12.1 12
  164.056 31.2 31
  165.0682 56.7 57
  166.0415 13.4 13
  166.0641 68.0 68
  167.0507 58.8 59
  167.0696 65.6 66
  168.0566 214.8 217
  169.0639 14.7 14
  176.0607 25.5 25
  177.0572 31.1 31
  178.0662 21.0 21
  180.0533 12.7 12
  180.0788 11.2 11
  181.0638 17.8 17
  182.0588 29.8 30
  183.0447 23.1 23
  183.0637 13.1 13
  184.0511 83.3 84
  191.0723 15.0 15
  194.0368 44.2 44
  194.059 29.5 29
  195.0664 115.3 116
  196.0518 69.1 69
  197.0585 51.9 52
  210.0305 36.1 36
  220.0752 10.3 10
  222.0533 16.2 16
  223.0616 50.7 51
  224.0694 14.8 14
//