ACCESSION: MSBNK-BAFG-CSL2310264455
RECORD_TITLE: N,N`-diphenyl-p-phenylenediamine; LC-ESI-QTOF; MS2; 40 V
DATE: 2023.10.26
AUTHORS: Kevin S. Jewell; Björn Ehlig; Arne Wick
LICENSE: dl-de/by-2-0
COPYRIGHT: Copyright 2023 Federal Institute of Hydrology, Koblenz, Germany
COMMENT: CONFIDENCE Reference Standard (Level 1)
COMMENT: Chromatography method: dx.doi.org/10.1016/j.chroma.2015.11.014
COMMENT: Acquisition method: 10.1002/rcm.8541
CH$NAME: N,N`-diphenyl-p-phenylenediamine
CH$COMPOUND_CLASS: Industrial_process
CH$FORMULA: C18H16N2
CH$EXACT_MASS: 260.1313
CH$SMILES: N(c1ccccc1)c2ccc(Nc3ccccc3)cc2
CH$IUPAC: InChI=1S/C18H16N2/c1-3-7-15(8-4-1)19-17-11-13-18(14-12-17)20-16-9-5-2-6-10-16/h1-14,19-20H
CH$LINK: CAS 74-31-7
CH$LINK: INCHIKEY UTGQNNCQYDRXCH-UHFFFAOYSA-N
AC$INSTRUMENT: TripleTOF 5600 SCIEX
AC$INSTRUMENT_TYPE: LC-ESI-QTOF
AC$MASS_SPECTROMETRY: MS_TYPE MS2
AC$MASS_SPECTROMETRY: ION_MODE POSITIVE
AC$MASS_SPECTROMETRY: COLLISION_ENERGY 40
AC$MASS_SPECTROMETRY: FRAGMENTATION_MODE CID
AC$MASS_SPECTROMETRY: IONIZATION ESI
AC$CHROMATOGRAPHY: COLUMN_NAME Zorbax Eclipse Plus C18 2.1 mm x 150 mm, 3.5 um, Agilent
AC$CHROMATOGRAPHY: COLUMN_TEMPERATURE 40 °C
AC$CHROMATOGRAPHY: FLOW_GRADIENT 0 min min 98% A, 1 min 98% A, 2 min 80% A, 16.5 min 2% A, 22 min 2% A, 22.1 min 98% A, 27 min 98% A
AC$CHROMATOGRAPHY: FLOW_RATE 0.3 mL/min
AC$CHROMATOGRAPHY: RETENTION_TIME 14.544 min
AC$CHROMATOGRAPHY: SOLVENT A: Water 0.1% Formic acid, B: Acetonitrile 0.1% Formic acid
MS$FOCUSED_ION: PRECURSOR_M/Z 261.1386
MS$FOCUSED_ION: PRECURSOR_TYPE [M+H]+
MS$DATA_PROCESSING: COMMENT Export with Spectra 1.9.12 MsBackendMassbank 1.7.4
MS$DATA_PROCESSING: WHOLE RMassBank 2.3.1
PK$SPLASH: splash10-001i-0910000000-75a641dfee29a15dd166
PK$NUM_PEAK: 20
PK$PEAK: m/z int. rel.int.
  80.0514 11.8 26
  81.0593 7.5 16
  93.0591 6.1 13
  107.0606 54.1 119
  118.0526 8.7 19
  128.0593 7.5 16
  129.0681 12.7 28
  130.0683 10.7 23
  143.0722 7.2 15
  156.0791 14 30
  157.085 11.7 25
  166.0639 22.3 49
  167.0715 30.6 67
  168.0778 54.7 120
  169.0869 41.6 91
  182.0803 16.8 37
  183.0913 129.6 285
  184.099 452.8 999
  260.1256 6.6 14
  261.1348 107.7 237
//
