ACCESSION: MSBNK-BAFG-CSL23111012893
RECORD_TITLE: 1-Hexyl-3-methylimidazolium; LC-ESI-QTOF; MS2; 80 V
DATE: 2023.11.10
AUTHORS: Kevin S. Jewell; Björn Ehlig; Arne Wick
LICENSE: dl-de/by-2-0
COPYRIGHT: Copyright 2023 Federal Institute of Hydrology, Koblenz, Germany
COMMENT: CONFIDENCE Reference Standard (Level 1)
COMMENT: Chromatography method: dx.doi.org/10.1016/j.chroma.2015.11.014
COMMENT: Acquisition method: 10.1002/rcm.8541
CH$NAME: 1-Hexyl-3-methylimidazolium
CH$FORMULA: [C10H19N2]+
CH$EXACT_MASS: 167.1543
CH$SMILES: CCCCCCN1C=C[N+](=C1)C
CH$IUPAC: InChI=1S/C10H19N2/c1-3-4-5-6-7-12-9-8-11(2)10-12/h8-10H,3-7H2,1-2H3/q+1
CH$LINK: CAS 85100-82-9
CH$LINK: INCHIKEY RVEJOWGVUQQIIZ-UHFFFAOYSA-N
AC$INSTRUMENT: TripleTOF 5600 SCIEX
AC$INSTRUMENT_TYPE: LC-ESI-QTOF
AC$MASS_SPECTROMETRY: MS_TYPE MS2
AC$MASS_SPECTROMETRY: ION_MODE POSITIVE
AC$MASS_SPECTROMETRY: COLLISION_ENERGY 80
AC$MASS_SPECTROMETRY: FRAGMENTATION_MODE CID
AC$MASS_SPECTROMETRY: IONIZATION ESI
AC$CHROMATOGRAPHY: COLUMN_NAME Zorbax Eclipse Plus C18 2.1 mm x 150 mm, 3.5 um, Agilent
AC$CHROMATOGRAPHY: COLUMN_TEMPERATURE 40 °C
AC$CHROMATOGRAPHY: FLOW_GRADIENT 0 min min 98% A, 1 min 98% A, 2 min 80% A, 16.5 min 2% A, 22 min 2% A, 22.1 min 98% A, 27 min 98% A
AC$CHROMATOGRAPHY: FLOW_RATE 0.3 mL/min
AC$CHROMATOGRAPHY: RETENTION_TIME 5.732 min
AC$CHROMATOGRAPHY: SOLVENT A: Water 0.1% Formic acid, B: Acetonitrile 0.1% Formic acid
MS$FOCUSED_ION: PRECURSOR_M/Z 167.1543
MS$FOCUSED_ION: PRECURSOR_TYPE [M]+
MS$DATA_PROCESSING: COMMENT Export with Spectra 1.9.12 MsBackendMassbank 1.7.4
MS$DATA_PROCESSING: WHOLE RMassBank 2.3.1
PK$SPLASH: splash10-0016-9000000000-c59de819d8a0a636be85
PK$NUM_PEAK: 9
PK$PEAK: m/z int. rel.int.
  39.0229 1.4 932
  41.0389 1.5 999
  42.0339 1.1 732
  54.0344 0.5 333
  67.0289 0.6 399
  68.038 0.5 333
  81.0445 0.5 333
  83.0595 1.1 732
  95.0584 1 666
//
