ACCESSION: MSBNK-BAFG-CSL25010627968
RECORD_TITLE: N-[2-[(2-Bromo-4,6-dinitrophenyl)azo]-5-(diethylamino)phenyl]acetamide; LC-ESI-QTOF; MS2; 70 V
DATE: 2025.01.06
AUTHORS: Ole Lessmann; Kevin S. Jewell; Björn Ehlig; Arne Wick
LICENSE: dl-de/by-2-0
COPYRIGHT: Copyright 2025 Federal Institute of Hydrology, Koblenz, Germany
COMMENT: CONFIDENCE Reference Standard (Level 1)
COMMENT: Chromatography method: dx.doi.org/10.1016/j.chroma.2015.11.014
COMMENT: Acquisition method: 10.1002/rcm.8541
CH$NAME: N-[2-[(2-Bromo-4,6-dinitrophenyl)azo]-5-(diethylamino)phenyl]acetamide
CH$FORMULA: C18H19BrN6O5
CH$EXACT_MASS: 478.06
CH$SMILES: CCN(CC)C1=CC(=C(C=C1)N=NC2=C(C=C(C=C2Br)[N+](=O)[O-])[N+](=O)[O-])NC(=O)C
CH$IUPAC: InChI=1S/C18H19BrN6O5/c1-4-23(5-2)12-6-7-15(16(9-12)20-11(3)26)21-22-18-14(19)8-13(24(27)28)10-17(18)25(29)30/h6-10H,4-5H2,1-3H3,(H,20,26)
CH$LINK: CAS 52697-38-8
CH$LINK: INCHIKEY WFFKSTRPZWRBEW-UHFFFAOYSA-N
AC$INSTRUMENT: TripleTOF X500R SCIEX
AC$INSTRUMENT_TYPE: LC-ESI-QTOF
AC$MASS_SPECTROMETRY: MS_TYPE MS2
AC$MASS_SPECTROMETRY: ION_MODE POSITIVE
AC$MASS_SPECTROMETRY: COLLISION_ENERGY 70
AC$MASS_SPECTROMETRY: FRAGMENTATION_MODE CID
AC$MASS_SPECTROMETRY: IONIZATION ESI
AC$CHROMATOGRAPHY: COLUMN_NAME Zorbax Eclipse Plus C18 2.1 mm x 150 mm, 3.5 um, Agilent
AC$CHROMATOGRAPHY: COLUMN_TEMPERATURE 40 °C
AC$CHROMATOGRAPHY: FLOW_GRADIENT 0 min min 98% A, 1 min 98% A, 2 min 80% A, 16.5 min 2% A, 22 min 2% A, 22.1 min 98% A, 27 min 98% A
AC$CHROMATOGRAPHY: FLOW_RATE 0.3 mL/min
AC$CHROMATOGRAPHY: RETENTION_TIME 16.579 min
AC$CHROMATOGRAPHY: SOLVENT A: Water 0.1% Formic acid, B: Acetonitrile 0.1% Formic acid
MS$FOCUSED_ION: PRECURSOR_M/Z 479.0673
MS$FOCUSED_ION: PRECURSOR_TYPE [M+H]+
MS$DATA_PROCESSING: COMMENT Export with pycsl 0.1.0.dev1 and CSL 24.4
PK$SPLASH: splash10-01vp-0900000000-40a87fd28af308ad39d3
PK$NUM_PEAK: 77
PK$PEAK: m/z int. rel.int.
  43.0176 3.0 37
  80.0495 2.0 25
  92.0496 1.1 13
  93.0578 6.0 75
  94.065 3.4 42
  95.0606 1.4 17
  104.0509 0.9 11
  105.045 2.3 28
  106.0659 3.3 41
  107.0379 1.3 16
  107.0608 8.1 101
  108.0443 7.5 94
  108.0803 4.8 60
  109.0759 4.4 55
  117.0563 2.1 26
  118.0665 1.1 13
  119.0613 4.1 51
  120.0587 8.7 109
  121.0762 43.5 547
  122.0602 2.2 27
  122.0977 1.5 18
  123.0926 1.7 21
  128.9346 2.1 26
  131.0627 2.1 26
  132.0445 1.1 13
  132.0813 1.4 17
  133.0649 10.4 130
  134.0714 23.0 289
  135.0922 9.6 120
  136.0761 9.9 124
  145.077 2.4 30
  146.0729 2.1 26
  147.0567 3.5 44
  147.0788 5.9 74
  148.0637 14.5 182
  148.0876 15.8 198
  149.0715 1.0 12
  149.1078 15.6 196
  150.0928 1.5 18
  161.0711 4.4 55
  161.1008 1.5 18
  162.0798 3.0 37
  162.1025 21.8 274
  163.0866 37.8 475
  163.1232 9.9 124
  167.0665 2.0 25
  175.0769 3.5 44
  176.0893 1.1 13
  176.1194 1.5 18
  177.1026 19.2 241
  179.0616 1.2 15
  191.118 79.4 999
  193.0774 2.6 32
  194.0748 3.5 44
  195.0813 1.1 13
  204.1137 2.0 25
  221.0834 1.5 18
  222.099 1.8 22
  237.1172 1.0 12
  244.9854 0.9 11
  250.1332 2.9 36
  257.9812 1.2 15
  265.1446 5.9 74
  271.993 1.5 18
  272.9904 5.8 72
  284.989 1.9 23
  300.0076 1.9 23
  300.9864 2.6 32
  301.0278 1.3 16
  313.0225 0.9 11
  315.0234 0.9 11
  316.0352 1.5 18
  328.0413 3.1 39
  329.0477 2.3 28
  344.063 3.5 44
  345.0471 0.9 11
  345.9933 0.9 11
//