ACCESSION: MSBNK-BAFG-CSL2311098498
RECORD_TITLE: Sulfapyridine; LC-ESI-QTOF; MS2; 70 V
DATE: 2023.11.09
AUTHORS: Kevin S. Jewell; Björn Ehlig; Arne Wick
LICENSE: dl-de/by-2-0
COPYRIGHT: Copyright 2023 Federal Institute of Hydrology, Koblenz, Germany
COMMENT: CONFIDENCE Reference Standard (Level 1)
COMMENT: Chromatography method: dx.doi.org/10.1016/j.chroma.2015.11.014
COMMENT: Acquisition method: 10.1002/rcm.8541
CH$NAME: Sulfapyridine
CH$COMPOUND_CLASS: Antimicrobial; Pharmaceutical
CH$FORMULA: C11H11N3O2S
CH$EXACT_MASS: 249.0572
CH$SMILES: C1=CC=NC(=C1)NS(=O)(=O)C2=CC=C(C=C2)N
CH$IUPAC: InChI=1S/C11H11N3O2S/c12-9-4-6-10(7-5-9)17(15,16)14-11-3-1-2-8-13-11/h1-8H,12H2,(H,13,14)
CH$LINK: CAS 144-83-2
CH$LINK: INCHIKEY GECHUMIMRBOMGK-UHFFFAOYSA-N
AC$INSTRUMENT: TripleTOF 5600 SCIEX
AC$INSTRUMENT_TYPE: LC-ESI-QTOF
AC$MASS_SPECTROMETRY: MS_TYPE MS2
AC$MASS_SPECTROMETRY: ION_MODE POSITIVE
AC$MASS_SPECTROMETRY: COLLISION_ENERGY 70
AC$MASS_SPECTROMETRY: FRAGMENTATION_MODE CID
AC$MASS_SPECTROMETRY: IONIZATION ESI
AC$CHROMATOGRAPHY: COLUMN_NAME Zorbax Eclipse Plus C18 2.1 mm x 150 mm, 3.5 um, Agilent
AC$CHROMATOGRAPHY: COLUMN_TEMPERATURE 40 °C
AC$CHROMATOGRAPHY: FLOW_GRADIENT 0 min min 98% A, 1 min 98% A, 2 min 80% A, 16.5 min 2% A, 22 min 2% A, 22.1 min 98% A, 27 min 98% A
AC$CHROMATOGRAPHY: FLOW_RATE 0.3 mL/min
AC$CHROMATOGRAPHY: RETENTION_TIME 5.55 min
AC$CHROMATOGRAPHY: SOLVENT A: Water 0.1% Formic acid, B: Acetonitrile 0.1% Formic acid
MS$FOCUSED_ION: PRECURSOR_M/Z 250.0645
MS$FOCUSED_ION: PRECURSOR_TYPE [M+H]+
MS$DATA_PROCESSING: COMMENT Export with Spectra 1.9.12 MsBackendMassbank 1.7.4
MS$DATA_PROCESSING: WHOLE RMassBank 2.3.1
PK$SPLASH: splash10-014i-9100000000-045aa4162877a91a7224
PK$NUM_PEAK: 26
PK$PEAK: m/z int. rel.int.
  41.0387 0.5 12
  51.0324 1.4 34
  53.0466 2.6 63
  65.0452 40.9 999
  66.0401 2.4 58
  66.054 0.7 17
  67.0474 11.3 276
  78.0377 14.1 344
  79.0456 0.5 12
  80.0529 20.2 493
  92.0512 14.3 349
  93.0587 3.1 75
  94.0521 2.8 68
  95.0616 9.8 239
  108.044 10.6 258
  113.0377 0.5 12
  140.048 2.5 61
  141.0455 0.7 17
  155.0594 0.8 19
  156.068 0.7 17
  157.0748 0.6 14
  166.0507 2 48
  167.0577 1.9 46
  168.0689 1.6 39
  182.0671 1.4 34
  183.0765 0.8 19
//
