ACCESSION: MSBNK-BAFG-CSL23111015632
RECORD_TITLE: 1-Cyclohexyl-3-(2-methylphenyl)urea; LC-ESI-QTOF; MS2; 150 V
DATE: 2023.11.10
AUTHORS: Kevin S. Jewell; Björn Ehlig; Arne Wick
LICENSE: dl-de/by-2-0
COPYRIGHT: Copyright 2023 Federal Institute of Hydrology, Koblenz, Germany
COMMENT: CONFIDENCE Reference Standard (Level 1)
COMMENT: Chromatography method: dx.doi.org/10.1016/j.chroma.2015.11.014
COMMENT: Acquisition method: 10.1002/rcm.8541
CH$NAME: 1-Cyclohexyl-3-(2-methylphenyl)urea
CH$FORMULA: C14H20N2O
CH$EXACT_MASS: 232.1576
CH$SMILES: O=C(NC1CCCCC1)Nc2ccccc2C
CH$IUPAC: InChI=1S/C14H20N2O/c1-11-7-5-6-10-13(11)16-14(17)15-12-8-3-2-4-9-12/h5-7,10,12H,2-4,8-9H2,1H3,(H2,15,16,17)
CH$LINK: CAS 108238-76-2
CH$LINK: INCHIKEY JYBQTDHFCBQLHP-UHFFFAOYSA-N
AC$INSTRUMENT: TripleTOF 6600 SCIEX
AC$INSTRUMENT_TYPE: LC-ESI-QTOF
AC$MASS_SPECTROMETRY: MS_TYPE MS2
AC$MASS_SPECTROMETRY: ION_MODE POSITIVE
AC$MASS_SPECTROMETRY: COLLISION_ENERGY 150
AC$MASS_SPECTROMETRY: FRAGMENTATION_MODE CID
AC$MASS_SPECTROMETRY: IONIZATION ESI
AC$CHROMATOGRAPHY: COLUMN_NAME Zorbax Eclipse Plus C18 2.1 mm x 150 mm, 3.5 um, Agilent
AC$CHROMATOGRAPHY: COLUMN_TEMPERATURE 40 °C
AC$CHROMATOGRAPHY: FLOW_GRADIENT 0 min min 98% A, 1 min 98% A, 2 min 80% A, 16.5 min 2% A, 22 min 2% A, 22.1 min 98% A, 27 min 98% A
AC$CHROMATOGRAPHY: FLOW_RATE 0.3 mL/min
AC$CHROMATOGRAPHY: RETENTION_TIME 11.026 min
AC$CHROMATOGRAPHY: SOLVENT A: Water 0.1% Formic acid, B: Acetonitrile 0.1% Formic acid
MS$FOCUSED_ION: PRECURSOR_M/Z 233.1649
MS$FOCUSED_ION: PRECURSOR_TYPE [M+H]+
MS$DATA_PROCESSING: COMMENT Export with Spectra 1.9.12 MsBackendMassbank 1.7.4
MS$DATA_PROCESSING: WHOLE RMassBank 2.3.1
PK$SPLASH: splash10-000i-9000000000-f3d11258b9808e290237
PK$NUM_PEAK: 23
PK$PEAK: m/z int. rel.int.
  35.9989 2.5 57
  37.0069 19.2 438
  38.0034 0.7 16
  38.0144 16.9 386
  39.0226 43.7 999
  41.0252 0.4 9
  41.0374 1 22
  42.0326 0.5 11
  44.012 1.1 25
  49.0062 2.5 57
  50.0143 11.9 272
  51.022 8.3 189
  52.017 2.1 48
  54.0329 0.9 20
  61.0064 2.4 54
  62.0139 3.4 77
  63.0217 2.6 59
  65.0373 5 114
  66.0323 0.7 16
  66.0455 1 22
  74.0139 0.9 20
  77.037 0.9 20
  92.0469 0.5 11
//
