ACCESSION: MSBNK-BAFG-CSL23102516195
RECORD_TITLE: Ethylene Terephthalate Cyclic Trimer; LC-ESI-QTOF; MS2; 100 V
DATE: 2023.10.25
AUTHORS: Kevin S. Jewell; Björn Ehlig; Arne Wick
LICENSE: dl-de/by-2-0
COPYRIGHT: Copyright 2023 Federal Institute of Hydrology, Koblenz, Germany
COMMENT: CONFIDENCE Reference Standard (Level 1)
COMMENT: Chromatography method: dx.doi.org/10.1016/j.chroma.2015.11.014
COMMENT: Acquisition method: 10.1002/rcm.8541
CH$NAME: Ethylene Terephthalate Cyclic Trimer
CH$COMPOUND_CLASS: Industrial_process
CH$FORMULA: C30H24O12
CH$EXACT_MASS: 576.1268
CH$SMILES: C1COC(=O)C2=CC=C(C=C2)C(=O)OCCOC(=O)C3=CC=C(C=C3)C(=O)OCCOC(=O)C4=CC=C(C=C4)C(=O)O1
CH$IUPAC: InChI=1S/C30H24O12/c31-25-19-1-2-20(4-3-19)26(32)38-15-16-40-28(34)22-9-11-24(12-10-22)30(36)42-18-17-41-29(35)23-7-5-21(6-8-23)27(33)39-14-13-37-25/h1-12H,13-18H2
CH$LINK: CAS 7441-32-9
CH$LINK: INCHIKEY IICRGUKQYYOPIG-UHFFFAOYSA-N
AC$INSTRUMENT: TripleTOF 6600 SCIEX
AC$INSTRUMENT_TYPE: LC-ESI-QTOF
AC$MASS_SPECTROMETRY: MS_TYPE MS2
AC$MASS_SPECTROMETRY: ION_MODE POSITIVE
AC$MASS_SPECTROMETRY: COLLISION_ENERGY 100
AC$MASS_SPECTROMETRY: FRAGMENTATION_MODE CID
AC$MASS_SPECTROMETRY: IONIZATION ESI
AC$CHROMATOGRAPHY: COLUMN_NAME Zorbax Eclipse Plus C18 2.1 mm x 150 mm, 3.5 um, Agilent
AC$CHROMATOGRAPHY: COLUMN_TEMPERATURE 40 °C
AC$CHROMATOGRAPHY: FLOW_GRADIENT 0 min min 98% A, 1 min 98% A, 2 min 80% A, 16.5 min 2% A, 22 min 2% A, 22.1 min 98% A, 27 min 98% A
AC$CHROMATOGRAPHY: FLOW_RATE 0.3 mL/min
AC$CHROMATOGRAPHY: RETENTION_TIME 14.542 min
AC$CHROMATOGRAPHY: SOLVENT A: Water 0.1% Formic acid, B: Acetonitrile 0.1% Formic acid
MS$FOCUSED_ION: PRECURSOR_M/Z 577.1341
MS$FOCUSED_ION: PRECURSOR_TYPE [M+H]+
MS$DATA_PROCESSING: COMMENT Export with Spectra 1.9.12 MsBackendMassbank 1.7.4
MS$DATA_PROCESSING: WHOLE RMassBank 2.3.1
PK$SPLASH: splash10-0002-1900000000-4ae959c0248827d1ba58
PK$NUM_PEAK: 16
PK$PEAK: m/z int. rel.int.
  65.0376 8.9 202
  75.022 0.5 11
  77.0378 1.1 25
  93.0332 1.9 43
  103.0177 1.2 27
  103.0531 0.5 11
  104.0241 1 22
  105.0315 0.5 11
  121.0275 9 205
  147.044 1.1 25
  148.0514 0.8 18
  149.0233 43.8 999
  152.0609 0.8 18
  153.0708 0.8 18
  193.0492 8.5 193
  225.0578 0.6 13
//
