ACCESSION: MSBNK-BAFG-CSL2501067526
RECORD_TITLE: Pantoprazole sulfide; LC-ESI-QTOF; MS2; 90 V
DATE: 2025.01.06
AUTHORS: Ole Lessmann; Kevin S. Jewell; Björn Ehlig; Arne Wick
LICENSE: dl-de/by-2-0
COPYRIGHT: Copyright 2025 Federal Institute of Hydrology, Koblenz, Germany
COMMENT: CONFIDENCE Reference Standard (Level 1)
COMMENT: Chromatography method: dx.doi.org/10.1016/j.chroma.2015.11.014
COMMENT: Acquisition method: 10.1002/rcm.8541
CH$NAME: Pantoprazole sulfide
CH$COMPOUND_CLASS: Pharmaceutical; Metabolite; Transformation_product-Metabolite
CH$FORMULA: C16H15F2N3O3S
CH$EXACT_MASS: 367.0802
CH$SMILES: COC1=C(C(=NC=C1)CSC2=NC3=C(N2)C=CC(=C3)OC(F)F)OC
CH$IUPAC: InChI=1S/C16H15F2N3O3S/c1-22-13-5-6-19-12(14(13)23-2)8-25-16-20-10-4-3-9(24-15(17)18)7-11(10)21-16/h3-7,15H,8H2,1-2H3,(H,20,21)
CH$LINK: CAS 102625-64-9
CH$LINK: INCHIKEY UKILEIRWOYBGEJ-UHFFFAOYSA-N
AC$INSTRUMENT: TripleTOF 5600 SCIEX
AC$INSTRUMENT_TYPE: LC-ESI-QTOF
AC$MASS_SPECTROMETRY: MS_TYPE MS2
AC$MASS_SPECTROMETRY: ION_MODE POSITIVE
AC$MASS_SPECTROMETRY: COLLISION_ENERGY 90
AC$MASS_SPECTROMETRY: FRAGMENTATION_MODE CID
AC$MASS_SPECTROMETRY: IONIZATION ESI
AC$CHROMATOGRAPHY: COLUMN_NAME Zorbax Eclipse Plus C18 2.1 mm x 150 mm, 3.5 um, Agilent
AC$CHROMATOGRAPHY: COLUMN_TEMPERATURE 40 °C
AC$CHROMATOGRAPHY: FLOW_GRADIENT 0 min min 98% A, 1 min 98% A, 2 min 80% A, 16.5 min 2% A, 22 min 2% A, 22.1 min 98% A, 27 min 98% A
AC$CHROMATOGRAPHY: FLOW_RATE 0.3 mL/min
AC$CHROMATOGRAPHY: RETENTION_TIME 7.575 min
AC$CHROMATOGRAPHY: SOLVENT A: Water 0.1% Formic acid, B: Acetonitrile 0.1% Formic acid
MS$FOCUSED_ION: PRECURSOR_M/Z 368.0875
MS$FOCUSED_ION: PRECURSOR_TYPE [M+H]+
MS$DATA_PROCESSING: COMMENT Export with pycsl 0.1.0.dev1 and CSL 24.4
PK$SPLASH: splash10-014l-9300000000-f649367e036965722767
PK$NUM_PEAK: 50
PK$PEAK: m/z int. rel.int.
  42.0434 3.8 95
  50.0452 0.5 12
  51.0301 12.5 315
  52.0376 1.9 47
  53.0452 0.4 10
  55.0226 0.6 15
  65.0439 39.6 999
  67.0441 0.7 17
  68.0192 0.5 12
  69.0377 1.2 30
  78.0375 1.4 35
  79.0439 3.1 78
  80.0529 2.1 52
  91.0419 0.6 15
  92.0517 27.9 703
  92.0816 1.0 25
  93.0575 1.0 25
  94.0311 0.9 22
  94.0673 1.3 32
  95.0349 0.4 10
  96.0031 2.4 60
  96.0455 0.6 15
  106.0287 0.5 12
  106.0645 0.9 22
  107.0358 1.8 45
  107.0623 1.2 30
  108.0451 1.3 32
  109.0521 0.6 15
  110.0076 2.0 50
  110.0598 2.2 55
  111.0152 0.4 10
  117.0457 1.3 32
  118.0537 1.7 42
  122.0063 1.1 27
  122.0597 1.0 25
  123.0142 2.1 52
  123.0666 0.9 22
  135.0308 0.5 12
  135.0538 3.8 95
  136.0389 7.5 189
  137.0442 0.6 15
  138.0547 2.2 55
  150.0551 0.9 22
  151.0082 2.9 73
  152.0153 0.4 10
  154.0336 1.1 27
  168.0129 0.9 22
  173.0567 0.7 17
  185.0686 0.5 12
  223.0548 0.6 15
//