ACCESSION: MSBNK-BAFG-CSL23103011732
RECORD_TITLE: Fexofenadinone; LC-ESI-QTOF; MS2; 40 V
DATE: 2023.10.30
AUTHORS: Kevin S. Jewell; Björn Ehlig; Arne Wick
LICENSE: dl-de/by-2-0
COPYRIGHT: Copyright 2023 Federal Institute of Hydrology, Koblenz, Germany
COMMENT: CONFIDENCE Reference Standard (Level 1)
COMMENT: Chromatography method: dx.doi.org/10.1016/j.chroma.2015.11.014
COMMENT: Acquisition method: 10.1002/rcm.8541
CH$NAME: Fexofenadinone
CH$COMPOUND_CLASS: Pharmaceutical
CH$FORMULA: C32H37NO4
CH$EXACT_MASS: 499.2723
CH$SMILES: O=C(C1=CC=C(C(C)(C(O)=O)C)C=C1)CCCN(CCC2)CC2C(C3=CC=CC=C3)(O)C4=CC=CC=C4
CH$IUPAC: InChI=1S/C32H37NO4/c1-31(2,30(35)36)25-19-17-24(18-20-25)29(34)16-10-22-33-21-9-15-28(23-33)32(37,26-11-5-3-6-12-26)27-13-7-4-8-14-27/h3-8,11-14,17-20,28,37H,9-10,15-16,21-23H2,1-2H3,(H,35,36)
CH$LINK: CAS 76811-98-8
CH$LINK: INCHIKEY OQXVWJQUBIBIHZ-UHFFFAOYSA-N
AC$INSTRUMENT: TripleTOF 5600 SCIEX
AC$INSTRUMENT_TYPE: LC-ESI-QTOF
AC$MASS_SPECTROMETRY: MS_TYPE MS2
AC$MASS_SPECTROMETRY: ION_MODE POSITIVE
AC$MASS_SPECTROMETRY: COLLISION_ENERGY 40
AC$MASS_SPECTROMETRY: FRAGMENTATION_MODE CID
AC$MASS_SPECTROMETRY: IONIZATION ESI
AC$CHROMATOGRAPHY: COLUMN_NAME Zorbax Eclipse Plus C18 2.1 mm x 150 mm, 3.5 um, Agilent
AC$CHROMATOGRAPHY: COLUMN_TEMPERATURE 40 °C
AC$CHROMATOGRAPHY: FLOW_GRADIENT 0 min min 98% A, 1 min 98% A, 2 min 80% A, 16.5 min 2% A, 22 min 2% A, 22.1 min 98% A, 27 min 98% A
AC$CHROMATOGRAPHY: FLOW_RATE 0.3 mL/min
AC$CHROMATOGRAPHY: RETENTION_TIME 8.706 min
AC$CHROMATOGRAPHY: SOLVENT A: Water 0.1% Formic acid, B: Acetonitrile 0.1% Formic acid
MS$FOCUSED_ION: PRECURSOR_M/Z 500.2795
MS$FOCUSED_ION: PRECURSOR_TYPE [M+H]+
MS$DATA_PROCESSING: COMMENT Export with Spectra 1.9.12 MsBackendMassbank 1.7.4
MS$DATA_PROCESSING: WHOLE RMassBank 2.3.1
PK$SPLASH: splash10-001i-0390440000-c1461378193a84aaf28e
PK$NUM_PEAK: 9
PK$PEAK: m/z int. rel.int.
  117.0698 3.3 11
  146.0722 5.8 20
  188.12 8.3 29
  191.0711 101.8 357
  233.1187 284.1 999
  250.1608 9.2 32
  464.2596 4.4 15
  482.272 128.9 453
  500.2805 157 552
//
