ACCESSION: MSBNK-BAFG-CSL2311095248
RECORD_TITLE: Amlodipine; LC-ESI-QTOF; MS2; 30 V
DATE: 2023.11.09
AUTHORS: Kevin S. Jewell; Björn Ehlig; Arne Wick
LICENSE: dl-de/by-2-0
COPYRIGHT: Copyright 2023 Federal Institute of Hydrology, Koblenz, Germany
COMMENT: CONFIDENCE Reference Standard (Level 1)
COMMENT: Chromatography method: dx.doi.org/10.1016/j.chroma.2015.11.014
COMMENT: Acquisition method: 10.1002/rcm.8541
CH$NAME: Amlodipine
CH$COMPOUND_CLASS: Pharmaceutical
CH$FORMULA: C20H25ClN2O5
CH$EXACT_MASS: 408.1452
CH$SMILES: CCOC(=O)C1=C(COCCN)NC(=C(C1c2ccccc2Cl)C(=O)OC)C
CH$IUPAC: InChI=1S/C20H25ClN2O5/c1-4-28-20(25)18-15(11-27-10-9-22)23-12(2)16(19(24)26-3)17(18)13-7-5-6-8-14(13)21/h5-8,17,23H,4,9-11,22H2,1-3H3
CH$LINK: CAS 88150-42-9
CH$LINK: INCHIKEY HTIQEAQVCYTUBX-UHFFFAOYSA-N
AC$INSTRUMENT: TripleTOF 5600 SCIEX
AC$INSTRUMENT_TYPE: LC-ESI-QTOF
AC$MASS_SPECTROMETRY: MS_TYPE MS2
AC$MASS_SPECTROMETRY: ION_MODE POSITIVE
AC$MASS_SPECTROMETRY: COLLISION_ENERGY 30
AC$MASS_SPECTROMETRY: FRAGMENTATION_MODE CID
AC$MASS_SPECTROMETRY: IONIZATION ESI
AC$CHROMATOGRAPHY: COLUMN_NAME Zorbax Eclipse Plus C18 2.1 mm x 150 mm, 3.5 um, Agilent
AC$CHROMATOGRAPHY: COLUMN_TEMPERATURE 40 °C
AC$CHROMATOGRAPHY: FLOW_GRADIENT 0 min min 98% A, 1 min 98% A, 2 min 80% A, 16.5 min 2% A, 22 min 2% A, 22.1 min 98% A, 27 min 98% A
AC$CHROMATOGRAPHY: FLOW_RATE 0.3 mL/min
AC$CHROMATOGRAPHY: RETENTION_TIME 8.432 min
AC$CHROMATOGRAPHY: SOLVENT A: Water 0.1% Formic acid, B: Acetonitrile 0.1% Formic acid
MS$FOCUSED_ION: PRECURSOR_M/Z 409.1525
MS$FOCUSED_ION: PRECURSOR_TYPE [M+H]+
MS$DATA_PROCESSING: COMMENT Export with Spectra 1.9.12 MsBackendMassbank 1.7.4
MS$DATA_PROCESSING: WHOLE RMassBank 2.3.1
PK$SPLASH: splash10-000l-0092000000-0d3373b567affb16afd5
PK$NUM_PEAK: 26
PK$PEAK: m/z int. rel.int.
  165.0093 7.5 16
  170.0597 29.4 63
  178.0413 6.4 13
  184.0754 5.5 11
  202.0855 17.4 37
  206.0367 175.1 380
  208.0605 50.6 109
  212.0706 10 21
  213.0776 14.6 31
  220.0524 105.2 228
  238.063 459.8 999
  248.0472 58.9 127
  260.047 11.6 25
  286.0627 10.8 23
  288.0408 15 32
  294.0895 274.2 595
  295.107 42.9 93
  303.0891 29.5 64
  316.0732 6.2 13
  320.0671 18.5 40
  331.0834 6.5 14
  334.0838 63.9 138
  346.0822 6.3 13
  360.0999 30.3 65
  377.1262 118.3 257
  392.1251 8.4 18
//
