ACCESSION: MSBNK-BAFG-CSL23102512250
RECORD_TITLE: Iopromide-d3; LC-ESI-QTOF; MS2; 40 V
DATE: 2023.10.25
AUTHORS: Kevin S. Jewell; Björn Ehlig; Arne Wick
LICENSE: dl-de/by-2-0
COPYRIGHT: Copyright 2023 Federal Institute of Hydrology, Koblenz, Germany
COMMENT: CONFIDENCE Reference Standard (Level 1)
COMMENT: Chromatography method: dx.doi.org/10.1016/j.chroma.2015.11.014
COMMENT: Acquisition method: 10.1002/rcm.8541
CH$NAME: Iopromide-d3
CH$COMPOUND_CLASS: Surrogate_standard
CH$FORMULA: C18H21I3N3O8 2H3
CH$EXACT_MASS: 793.8886
CH$SMILES: [2H]C([2H])([2H])OCC(=O)NC1=C(C(=C(C(=C1I)C(=O)N(C)CC(CO)O)I)C(=O)NCC(CO)O)I
CH$IUPAC: InChI=1S/C18H24I3N3O8/c1-24(4-9(28)6-26)18(31)12-13(19)11(17(30)22-3-8(27)5-25)14(20)16(15(12)21)23-10(29)7-32-2/h8-9,25-28H,3-7H2,1-2H3,(H,22,30)(H,23,29)/i2D3
CH$LINK: CAS 1189947-73-6
CH$LINK: INCHIKEY DGAIEPBNLOQYER-BMSJAHLVSA-N
AC$INSTRUMENT: TripleTOF 6600 SCIEX
AC$INSTRUMENT_TYPE: LC-ESI-QTOF
AC$MASS_SPECTROMETRY: MS_TYPE MS2
AC$MASS_SPECTROMETRY: ION_MODE POSITIVE
AC$MASS_SPECTROMETRY: COLLISION_ENERGY 40
AC$MASS_SPECTROMETRY: FRAGMENTATION_MODE CID
AC$MASS_SPECTROMETRY: IONIZATION ESI
AC$CHROMATOGRAPHY: COLUMN_NAME Zorbax Eclipse Plus C18 2.1 mm x 150 mm, 3.5 um, Agilent
AC$CHROMATOGRAPHY: COLUMN_TEMPERATURE 40 °C
AC$CHROMATOGRAPHY: FLOW_GRADIENT 0 min min 98% A, 1 min 98% A, 2 min 80% A, 16.5 min 2% A, 22 min 2% A, 22.1 min 98% A, 27 min 98% A
AC$CHROMATOGRAPHY: FLOW_RATE 0.3 mL/min
AC$CHROMATOGRAPHY: RETENTION_TIME 4.82 min
AC$CHROMATOGRAPHY: SOLVENT A: Water 0.1% Formic acid, B: Acetonitrile 0.1% Formic acid
MS$FOCUSED_ION: PRECURSOR_M/Z 794.8955
MS$FOCUSED_ION: PRECURSOR_TYPE [M+H]+
MS$DATA_PROCESSING: COMMENT Export with Spectra 1.9.12 MsBackendMassbank 1.7.4
MS$DATA_PROCESSING: WHOLE RMassBank 2.3.1
PK$SPLASH: splash10-004l-0001191800-39f816bf1dca7457f805
PK$NUM_PEAK: 25
PK$PEAK: m/z int. rel.int.
  360.966 1.1576 60
  372.9622 3.7635 196
  386.9915 0.5137 26
  399.9213 1.5667 81
  413.8074 0.6198 32
  413.9664 2.3909 124
  425.8125 0.8981 46
  448.0061 2.3952 124
  488.8464 2.1171 110
  527.8719 5.7934 302
  534.9169 4.8545 253
  541.8726 3.0329 158
  543.9064 1.218 63
  548.9316 2.5493 133
  548.9737 1.0198 53
  561.8948 6.9389 362
  575.915 14.3396 748
  575.9827 1.6578 86
  598.7348 0.639 33
  648.9705 3.3155 172
  689.8102 5.3542 279
  703.8296 6.44 336
  776.8775 9.7753 510
  794.8916 19.1466 999
  795.8765 2.2101 115
//
