ACCESSION: MSBNK-BAFG-CSL2311097838
RECORD_TITLE: Abacavir; LC-ESI-QTOF; MS2; 110 V
DATE: 2023.11.09
AUTHORS: Kevin S. Jewell; Björn Ehlig; Arne Wick
LICENSE: dl-de/by-2-0
COPYRIGHT: Copyright 2023 Federal Institute of Hydrology, Koblenz, Germany
COMMENT: CONFIDENCE Reference Standard (Level 1)
COMMENT: Chromatography method: dx.doi.org/10.1016/j.chroma.2015.11.014
COMMENT: Acquisition method: 10.1002/rcm.8541
CH$NAME: Abacavir
CH$COMPOUND_CLASS: Pharmaceutical
CH$FORMULA: C14H18N6O
CH$EXACT_MASS: 286.1542
CH$SMILES: Nc1nc(NC2CC2)c3ncn([C@@H]4C[C@H](CO)C=C4)c3n1
CH$IUPAC: InChI=1S/C14H18N6O/c15-14-18-12(17-9-2-3-9)11-13(19-14)20(7-16-11)10-4-1-8(5-10)6-21/h1,4,7-10,21H,2-3,5-6H2,(H3,15,17,18,19)/t8-,10+/m1/s1
CH$LINK: CAS 136470-78-5
CH$LINK: INCHIKEY MCGSCOLBFJQGHM-SCZZXKLOSA-N
AC$INSTRUMENT: TripleTOF 5600 SCIEX
AC$INSTRUMENT_TYPE: LC-ESI-QTOF
AC$MASS_SPECTROMETRY: MS_TYPE MS2
AC$MASS_SPECTROMETRY: ION_MODE POSITIVE
AC$MASS_SPECTROMETRY: COLLISION_ENERGY 110
AC$MASS_SPECTROMETRY: FRAGMENTATION_MODE CID
AC$MASS_SPECTROMETRY: IONIZATION ESI
AC$CHROMATOGRAPHY: COLUMN_NAME Zorbax Eclipse Plus C18 2.1 mm x 150 mm, 3.5 um, Agilent
AC$CHROMATOGRAPHY: COLUMN_TEMPERATURE 40 °C
AC$CHROMATOGRAPHY: FLOW_GRADIENT 0 min min 98% A, 1 min 98% A, 2 min 80% A, 16.5 min 2% A, 22 min 2% A, 22.1 min 98% A, 27 min 98% A
AC$CHROMATOGRAPHY: FLOW_RATE 0.3 mL/min
AC$CHROMATOGRAPHY: RETENTION_TIME 5.094 min
AC$CHROMATOGRAPHY: SOLVENT A: Water 0.1% Formic acid, B: Acetonitrile 0.1% Formic acid
MS$FOCUSED_ION: PRECURSOR_M/Z 287.1615
MS$FOCUSED_ION: PRECURSOR_TYPE [M+H]+
MS$DATA_PROCESSING: COMMENT Export with Spectra 1.9.12 MsBackendMassbank 1.7.4
MS$DATA_PROCESSING: WHOLE RMassBank 2.3.1
PK$SPLASH: splash10-004i-9000000000-6809e22dc0efc4f81d7f
PK$NUM_PEAK: 33
PK$PEAK: m/z int. rel.int.
  40.0265 1.3 13
  43.0377 3.4 35
  43.0517 1.2 12
  52.025 1.6 16
  53.0201 7.9 83
  53.0435 1 10
  54.0269 2.7 28
  54.0364 1.5 15
  55.0352 8.8 92
  56.054 1.1 11
  65.0181 11.9 125
  65.0425 4.3 45
  66.0249 4.2 44
  67.0329 2.2 23
  67.0587 19 200
  68.029 7.5 79
  77.0427 94.6 999
  78.0369 1.8 19
  79.0571 19.1 201
  80.0272 6.5 68
  81.0344 1.8 19
  81.0476 1.3 13
  82.0424 2.1 22
  92.0262 6.7 70
  93.0458 1.2 12
  94.0423 2.1 22
  105.0461 1 10
  106.0416 2.1 22
  107.0362 6.2 65
  108.0439 6.6 69
  109.0516 3.1 32
  119.0349 0.9 9
  134.047 2.1 22
//
