ACCESSION: MSBNK-BAFG-CSL23102612592
RECORD_TITLE: Diphenylphosphinamide; LC-ESI-QTOF; MS2; 40 V
DATE: 2023.10.26
AUTHORS: Kevin S. Jewell; Björn Ehlig; Arne Wick
LICENSE: dl-de/by-2-0
COPYRIGHT: Copyright 2023 Federal Institute of Hydrology, Koblenz, Germany
COMMENT: CONFIDENCE Reference Standard (Level 1)
COMMENT: Chromatography method: dx.doi.org/10.1016/j.chroma.2015.11.014
COMMENT: Acquisition method: 10.1002/rcm.8541
CH$NAME: Diphenylphosphinamide
CH$FORMULA: C12H12NOP
CH$EXACT_MASS: 217.0657
CH$SMILES: C1=CC=C(C=C1)P(=O)(C2=CC=CC=C2)N
CH$IUPAC: InChI=1S/C12H12NOP/c13-15(14,11-7-3-1-4-8-11)12-9-5-2-6-10-12/h1-10H,(H2,13,14)
CH$LINK: CAS 5994-87-6
CH$LINK: INCHIKEY RIGIWEGXTTUCIQ-UHFFFAOYSA-N
AC$INSTRUMENT: TripleTOF 5600 SCIEX
AC$INSTRUMENT_TYPE: LC-ESI-QTOF
AC$MASS_SPECTROMETRY: MS_TYPE MS2
AC$MASS_SPECTROMETRY: ION_MODE POSITIVE
AC$MASS_SPECTROMETRY: COLLISION_ENERGY 40
AC$MASS_SPECTROMETRY: FRAGMENTATION_MODE CID
AC$MASS_SPECTROMETRY: IONIZATION ESI
AC$CHROMATOGRAPHY: COLUMN_NAME Zorbax Eclipse Plus C18 2.1 mm x 150 mm, 3.5 um, Agilent
AC$CHROMATOGRAPHY: COLUMN_TEMPERATURE 40 °C
AC$CHROMATOGRAPHY: FLOW_GRADIENT 0 min min 98% A, 1 min 98% A, 2 min 80% A, 16.5 min 2% A, 22 min 2% A, 22.1 min 98% A, 27 min 98% A
AC$CHROMATOGRAPHY: FLOW_RATE 0.3 mL/min
AC$CHROMATOGRAPHY: RETENTION_TIME 7.411 min
AC$CHROMATOGRAPHY: SOLVENT A: Water 0.1% Formic acid, B: Acetonitrile 0.1% Formic acid
MS$FOCUSED_ION: PRECURSOR_M/Z 218.0729
MS$FOCUSED_ION: PRECURSOR_TYPE [M+H]+
MS$DATA_PROCESSING: COMMENT Export with Spectra 1.9.12 MsBackendMassbank 1.7.4
MS$DATA_PROCESSING: WHOLE RMassBank 2.3.1
PK$SPLASH: splash10-0udi-4890000000-50928977bd40b4a37f3d
PK$NUM_PEAK: 17
PK$PEAK: m/z int. rel.int.
  51.0231 5.8 27
  77.0392 92.9 441
  95.0054 16.8 79
  122.9998 11.3 53
  128.0628 13.8 65
  129.0704 12 57
  133.0203 10.4 49
  141.0689 4.8 22
  147.0359 2.3 10
  153.0699 4.8 22
  154.0788 14.8 70
  170.0272 2.3 10
  171.0367 30.8 146
  173.0521 61.6 292
  183.0364 18.6 88
  199.0317 3.1 14
  201.0468 210.2 999
//
