ACCESSION: MSBNK-BAFG-CSL2311096215
RECORD_TITLE: Acridine; LC-ESI-QTOF; MS2; 50 V
DATE: 2023.11.09
AUTHORS: Kevin S. Jewell; Björn Ehlig; Arne Wick
LICENSE: dl-de/by-2-0
COPYRIGHT: Copyright 2023 Federal Institute of Hydrology, Koblenz, Germany
COMMENT: CONFIDENCE Reference Standard (Level 1)
COMMENT: Chromatography method: dx.doi.org/10.1016/j.chroma.2015.11.014
COMMENT: Acquisition method: 10.1002/rcm.8541
CH$NAME: Acridine
CH$COMPOUND_CLASS: Industrial_process
CH$FORMULA: C13H9N
CH$EXACT_MASS: 179.0735
CH$SMILES: c1ccc2nc3ccccc3cc2c1
CH$IUPAC: InChI=1S/C13H9N/c1-3-7-12-10(5-1)9-11-6-2-4-8-13(11)14-12/h1-9H
CH$LINK: CAS 260-94-6
CH$LINK: INCHIKEY DZBUGLKDJFMEHC-UHFFFAOYSA-N
AC$INSTRUMENT: TripleTOF 5600 SCIEX
AC$INSTRUMENT_TYPE: LC-ESI-QTOF
AC$MASS_SPECTROMETRY: MS_TYPE MS2
AC$MASS_SPECTROMETRY: ION_MODE POSITIVE
AC$MASS_SPECTROMETRY: COLLISION_ENERGY 50
AC$MASS_SPECTROMETRY: FRAGMENTATION_MODE CID
AC$MASS_SPECTROMETRY: IONIZATION ESI
AC$CHROMATOGRAPHY: COLUMN_NAME Zorbax Eclipse Plus C18 2.1 mm x 150 mm, 3.5 um, Agilent
AC$CHROMATOGRAPHY: COLUMN_TEMPERATURE 40 °C
AC$CHROMATOGRAPHY: FLOW_GRADIENT 0 min min 98% A, 1 min 98% A, 2 min 80% A, 16.5 min 2% A, 22 min 2% A, 22.1 min 98% A, 27 min 98% A
AC$CHROMATOGRAPHY: FLOW_RATE 0.3 mL/min
AC$CHROMATOGRAPHY: RETENTION_TIME 5.776 min
AC$CHROMATOGRAPHY: SOLVENT A: Water 0.1% Formic acid, B: Acetonitrile 0.1% Formic acid
MS$FOCUSED_ION: PRECURSOR_M/Z 180.0808
MS$FOCUSED_ION: PRECURSOR_TYPE [M+H]+
MS$DATA_PROCESSING: COMMENT Export with Spectra 1.9.12 MsBackendMassbank 1.7.4
MS$DATA_PROCESSING: WHOLE RMassBank 2.3.1
PK$SPLASH: splash10-0fb9-0900000000-2568d860634177ddcae1
PK$NUM_PEAK: 19
PK$PEAK: m/z int. rel.int.
  75.026 8.2 19
  77.0416 36.2 87
  101.0395 29.4 70
  125.0381 7.8 18
  126.0463 13.3 32
  127.0547 70.3 169
  128.0501 73.7 177
  129.046 7.2 17
  140.0501 12.7 30
  141.057 8.2 19
  150.0465 20.5 49
  151.0549 161.8 390
  152.0625 413.7 999
  153.0629 57.6 139
  154.0648 22.1 53
  177.0575 46.7 112
  178.0658 292.6 706
  179.0735 344.9 832
  180.0813 266.3 643
//
