ACCESSION: MSBNK-BAFG-CSL23102618857
RECORD_TITLE: Alachlor; LC-ESI-QTOF; MS2; 70 V
DATE: 2023.10.26
AUTHORS: Kevin S. Jewell; Björn Ehlig; Arne Wick
LICENSE: dl-de/by-2-0
COPYRIGHT: Copyright 2023 Federal Institute of Hydrology, Koblenz, Germany
COMMENT: CONFIDENCE Reference Standard (Level 1)
COMMENT: Chromatography method: dx.doi.org/10.1016/j.chroma.2015.11.014
COMMENT: Acquisition method: 10.1002/rcm.8541
CH$NAME: Alachlor
CH$COMPOUND_CLASS: Herbicide
CH$FORMULA: C14H20ClNO2
CH$EXACT_MASS: 269.1183
CH$SMILES: CCC1=C(C(=CC=C1)CC)N(COC)C(=O)CCl
CH$IUPAC: InChI=1S/C14H20ClNO2/c1-4-11-7-6-8-12(5-2)14(11)16(10-18-3)13(17)9-15/h6-8H,4-5,9-10H2,1-3H3
CH$LINK: CAS 15972-60-8
CH$LINK: INCHIKEY XCSGPAVHZFQHGE-UHFFFAOYSA-N
AC$INSTRUMENT: TripleTOF 6600 SCIEX
AC$INSTRUMENT_TYPE: LC-ESI-QTOF
AC$MASS_SPECTROMETRY: MS_TYPE MS2
AC$MASS_SPECTROMETRY: ION_MODE POSITIVE
AC$MASS_SPECTROMETRY: COLLISION_ENERGY 70
AC$MASS_SPECTROMETRY: FRAGMENTATION_MODE CID
AC$MASS_SPECTROMETRY: IONIZATION ESI
AC$CHROMATOGRAPHY: COLUMN_NAME Zorbax Eclipse Plus C18 2.1 mm x 150 mm, 3.5 um, Agilent
AC$CHROMATOGRAPHY: COLUMN_TEMPERATURE 40 °C
AC$CHROMATOGRAPHY: FLOW_GRADIENT 0 min min 98% A, 1 min 98% A, 2 min 80% A, 16.5 min 2% A, 22 min 2% A, 22.1 min 98% A, 27 min 98% A
AC$CHROMATOGRAPHY: FLOW_RATE 0.3 mL/min
AC$CHROMATOGRAPHY: RETENTION_TIME 13.233 min
AC$CHROMATOGRAPHY: SOLVENT A: Water 0.1% Formic acid, B: Acetonitrile 0.1% Formic acid
MS$FOCUSED_ION: PRECURSOR_M/Z 270.1255
MS$FOCUSED_ION: PRECURSOR_TYPE [M+H]+
MS$DATA_PROCESSING: COMMENT Export with Spectra 1.9.12 MsBackendMassbank 1.7.4
MS$DATA_PROCESSING: WHOLE RMassBank 2.3.1
PK$SPLASH: splash10-0159-3900000000-020be39fa220f5b71dbf
PK$NUM_PEAK: 32
PK$PEAK: m/z int. rel.int.
  31.018 2.5 219
  39.0225 0.5 43
  45.0324 4.3 376
  48.9834 1.8 157
  65.0372 0.5 43
  77.037 1.5 131
  79.0525 0.9 78
  89.0363 0.8 70
  90.0084 0.4 35
  90.0442 0.8 70
  91.0526 3.7 324
  93.055 0.5 43
  103.0528 1.2 105
  105.0672 2.4 210
  106.0626 1.3 113
  115.0519 3.8 333
  116.047 0.5 43
  116.0609 0.5 43
  117.0555 11.4 999
  118.0635 2.9 254
  119.0734 1.6 140
  128.0595 1.4 122
  129.0689 0.6 52
  130.0632 3.3 289
  131.0709 1.2 105
  132.0794 11.2 981
  133.0872 1.6 140
  143.0703 1.3 113
  144.0796 1.2 105
  146.0939 2.8 245
  147.1027 0.9 78
  156.0835 0.7 61
//
