ACCESSION: MSBNK-BAFG-CSL2311106772
RECORD_TITLE: Salbutamol; LC-ESI-QTOF; MS2; 80 V
DATE: 2023.11.10
AUTHORS: Kevin S. Jewell; Björn Ehlig; Arne Wick
LICENSE: dl-de/by-2-0
COPYRIGHT: Copyright 2023 Federal Institute of Hydrology, Koblenz, Germany
COMMENT: CONFIDENCE Reference Standard (Level 1)
COMMENT: Chromatography method: dx.doi.org/10.1016/j.chroma.2015.11.014
COMMENT: Acquisition method: 10.1002/rcm.8541
CH$NAME: Salbutamol
CH$COMPOUND_CLASS: Pharmaceutical
CH$FORMULA: C13H21NO3
CH$EXACT_MASS: 239.1521
CH$SMILES: CC(C)(NCC(c1cc(CO)c(O)cc1)O)C
CH$IUPAC: InChI=1S/C13H21NO3/c1-13(2,3)14-7-12(17)9-4-5-11(16)10(6-9)8-15/h4-6,12,14-17H,7-8H2,1-3H3
CH$LINK: CAS 18559-94-9
CH$LINK: INCHIKEY NDAUXUAQIAJITI-UHFFFAOYSA-N
AC$INSTRUMENT: TripleTOF 5600 SCIEX
AC$INSTRUMENT_TYPE: LC-ESI-QTOF
AC$MASS_SPECTROMETRY: MS_TYPE MS2
AC$MASS_SPECTROMETRY: ION_MODE POSITIVE
AC$MASS_SPECTROMETRY: COLLISION_ENERGY 80
AC$MASS_SPECTROMETRY: FRAGMENTATION_MODE CID
AC$MASS_SPECTROMETRY: IONIZATION ESI
AC$CHROMATOGRAPHY: COLUMN_NAME Zorbax Eclipse Plus C18 2.1 mm x 150 mm, 3.5 um, Agilent
AC$CHROMATOGRAPHY: COLUMN_TEMPERATURE 40 °C
AC$CHROMATOGRAPHY: FLOW_GRADIENT 0 min min 98% A, 1 min 98% A, 2 min 80% A, 16.5 min 2% A, 22 min 2% A, 22.1 min 98% A, 27 min 98% A
AC$CHROMATOGRAPHY: FLOW_RATE 0.3 mL/min
AC$CHROMATOGRAPHY: RETENTION_TIME 4.69 min
AC$CHROMATOGRAPHY: SOLVENT A: Water 0.1% Formic acid, B: Acetonitrile 0.1% Formic acid
MS$FOCUSED_ION: PRECURSOR_M/Z 240.1594
MS$FOCUSED_ION: PRECURSOR_TYPE [M+H]+
MS$DATA_PROCESSING: COMMENT Export with Spectra 1.9.12 MsBackendMassbank 1.7.4
MS$DATA_PROCESSING: WHOLE RMassBank 2.3.1
PK$SPLASH: splash10-004l-9100000000-a36dd77f5b5bfb7beefd
PK$NUM_PEAK: 31
PK$PEAK: m/z int. rel.int.
  51.0284 9.6 182
  53.0434 1 19
  55.0227 1.9 36
  57.0749 4.6 87
  58.0705 0.6 11
  65.0421 12.7 241
  77.0416 52.5 999
  78.0354 0.8 15
  78.0482 4.2 79
  79.0557 4 76
  80.0507 4.7 89
  81.0585 0.6 11
  89.0394 1.7 32
  90.0466 1.7 32
  91.0555 34.4 654
  92.0491 1.4 26
  93.0582 0.7 13
  93.0691 1.1 20
  102.046 0.9 17
  103.055 5.1 97
  104.0489 5.5 104
  105.0344 1 19
  105.0566 1.8 34
  107.0482 3.4 64
  116.0471 0.6 11
  117.0569 3.8 72
  118.0639 3.2 60
  121.065 0.6 11
  130.0645 1.9 36
  133.0514 1.6 30
  146.0582 0.7 13
//
