ACCESSION: MSBNK-BAFG-CSL23110916576
RECORD_TITLE: Dienogest Impurity G; LC-ESI-QTOF; MS2; 150 V
DATE: 2023.11.09
AUTHORS: Kevin S. Jewell; Björn Ehlig; Arne Wick
LICENSE: dl-de/by-2-0
COPYRIGHT: Copyright 2023 Federal Institute of Hydrology, Koblenz, Germany
COMMENT: CONFIDENCE Reference Standard (Level 1)
COMMENT: Chromatography method: dx.doi.org/10.1016/j.chroma.2015.11.014
COMMENT: Acquisition method: 10.1002/rcm.8541
CH$NAME: Dienogest Impurity G
CH$COMPOUND_CLASS: Pharmaceutical
CH$FORMULA: C20H23NO2
CH$EXACT_MASS: 309.1729
CH$SMILES: CC12CC=C3C(C1CCC2(CC#N)O)CCC4=C3C=CC(=C4)O
CH$IUPAC: InChI=1S/C20H23NO2/c1-19-8-6-16-15-5-3-14(22)12-13(15)2-4-17(16)18(19)7-9-20(19,23)10-11-21/h3,5-6,12,17-18,22-23H,2,4,7-10H2,1H3
CH$LINK: CAS 86153-38-0
CH$LINK: INCHIKEY LPEAVAOTAWKUPC-UHFFFAOYSA-N
AC$INSTRUMENT: TripleTOF 6600 SCIEX
AC$INSTRUMENT_TYPE: LC-ESI-QTOF
AC$MASS_SPECTROMETRY: MS_TYPE MS2
AC$MASS_SPECTROMETRY: ION_MODE POSITIVE
AC$MASS_SPECTROMETRY: COLLISION_ENERGY 150
AC$MASS_SPECTROMETRY: FRAGMENTATION_MODE CID
AC$MASS_SPECTROMETRY: IONIZATION ESI
AC$CHROMATOGRAPHY: COLUMN_NAME Zorbax Eclipse Plus C18 2.1 mm x 150 mm, 3.5 um, Agilent
AC$CHROMATOGRAPHY: COLUMN_TEMPERATURE 40 °C
AC$CHROMATOGRAPHY: FLOW_GRADIENT 0 min min 98% A, 1 min 98% A, 2 min 80% A, 16.5 min 2% A, 22 min 2% A, 22.1 min 98% A, 27 min 98% A
AC$CHROMATOGRAPHY: FLOW_RATE 0.3 mL/min
AC$CHROMATOGRAPHY: RETENTION_TIME 9.956 min
AC$CHROMATOGRAPHY: SOLVENT A: Water 0.1% Formic acid, B: Acetonitrile 0.1% Formic acid
MS$FOCUSED_ION: PRECURSOR_M/Z 310.1802
MS$FOCUSED_ION: PRECURSOR_TYPE [M+H]+
MS$DATA_PROCESSING: COMMENT Export with Spectra 1.9.12 MsBackendMassbank 1.7.4
MS$DATA_PROCESSING: WHOLE RMassBank 2.3.1
PK$SPLASH: splash10-0wp0-9300000000-b66134b1e5e1053c8b52
PK$NUM_PEAK: 31
PK$PEAK: m/z int. rel.int.
  37.007 0.8 109
  38.014 0.5 68
  39.022 2.1 287
  49.0067 1.2 164
  50.014 3.4 465
  51.0221 7.3 999
  61.0062 0.8 109
  62.0141 1.7 232
  63.0221 3.8 520
  65.0376 2.5 342
  74.0136 1.3 177
  75.022 0.9 123
  76.0301 0.5 68
  77.0376 5.6 766
  78.0452 0.7 95
  87.021 0.5 68
  89.0378 3.3 451
  91.053 0.6 82
  102.0463 1 136
  103.0527 0.5 68
  113.0372 0.4 54
  115.0537 4.2 574
  126.0455 0.8 109
  127.0526 0.7 95
  128.0614 1 136
  139.0524 0.5 68
  150.0447 0.8 109
  151.0531 0.6 82
  152.0594 0.9 123
  163.0525 0.9 123
  164.0599 0.5 68
//
