ACCESSION: MSBNK-BAFG-CSL25010627863
RECORD_TITLE: Iminostilbene; LC-ESI-QTOF; MS2; 40 V
DATE: 2025.01.06
AUTHORS: Ole Lessmann; Kevin S. Jewell; Björn Ehlig; Arne Wick
LICENSE: dl-de/by-2-0
COPYRIGHT: Copyright 2025 Federal Institute of Hydrology, Koblenz, Germany
COMMENT: CONFIDENCE Reference Standard (Level 1)
COMMENT: Chromatography method: dx.doi.org/10.1016/j.chroma.2015.11.014
COMMENT: Acquisition method: 10.1002/rcm.8541
CH$NAME: Iminostilbene
CH$COMPOUND_CLASS: Pharmaceutical
CH$FORMULA: C14H11N
CH$EXACT_MASS: 193.0891
CH$SMILES: C1=CC=C2C(=C1)C=CC3=CC=CC=C3N2
CH$IUPAC: InChI=1S/C14H11N/c1-3-7-13-11(5-1)9-10-12-6-2-4-8-14(12)15-13/h1-10,15H
CH$LINK: CAS 256-96-2
CH$LINK: INCHIKEY LCGTWRLJTMHIQZ-UHFFFAOYSA-N
AC$INSTRUMENT: TripleTOF 6600 SCIEX
AC$INSTRUMENT_TYPE: LC-ESI-QTOF
AC$MASS_SPECTROMETRY: MS_TYPE MS2
AC$MASS_SPECTROMETRY: ION_MODE POSITIVE
AC$MASS_SPECTROMETRY: COLLISION_ENERGY 40
AC$MASS_SPECTROMETRY: FRAGMENTATION_MODE CID
AC$MASS_SPECTROMETRY: IONIZATION ESI
AC$CHROMATOGRAPHY: COLUMN_NAME Zorbax Eclipse Plus C18 2.1 mm x 150 mm, 3.5 um, Agilent
AC$CHROMATOGRAPHY: COLUMN_TEMPERATURE 40 °C
AC$CHROMATOGRAPHY: FLOW_GRADIENT 0 min min 98% A, 1 min 98% A, 2 min 80% A, 16.5 min 2% A, 22 min 2% A, 22.1 min 98% A, 27 min 98% A
AC$CHROMATOGRAPHY: FLOW_RATE 0.3 mL/min
AC$CHROMATOGRAPHY: RETENTION_TIME 13.175 min
AC$CHROMATOGRAPHY: SOLVENT A: Water 0.1% Formic acid, B: Acetonitrile 0.1% Formic acid
MS$FOCUSED_ION: PRECURSOR_M/Z 194.0964
MS$FOCUSED_ION: PRECURSOR_TYPE [M+H]+
MS$DATA_PROCESSING: COMMENT Export with pycsl 0.1.0.dev1 and CSL 24.4
PK$SPLASH: splash10-0006-0900000000-efb10291346ffa0fdef0
PK$NUM_PEAK: 18
PK$PEAK: m/z int. rel.int.
  89.0305 38.1 11
  91.0457 47.0 14
  116.0387 55.9 17
  117.0465 66.5 20
  151.0404 98.9 30
  152.0482 235.5 72
  153.0433 36.6 11
  165.0551 224.8 69
  166.0581 106.0 32
  167.0595 394.0 121
  176.0461 77.6 23
  177.0529 83.1 25
  178.0507 396.8 122
  179.0571 1669.0 514
  191.0558 128.4 39
  192.0639 956.3 294
  193.0722 3243.4 999
  194.0796 1609.4 495
//