ACCESSION: MSBNK-BAFG-CSL25011734698
RECORD_TITLE: Azo Rubin S; LC-ESI-QTOF; MS2; 40 V
DATE: 2025.01.17
AUTHORS: Ole Lessmann; Kevin S. Jewell; Björn Ehlig; Arne Wick
LICENSE: dl-de/by-2-0
COPYRIGHT: Copyright 2025 Federal Institute of Hydrology, Koblenz, Germany
COMMENT: CONFIDENCE Reference Standard (Level 1)
COMMENT: Chromatography method: dx.doi.org/10.1016/j.chroma.2015.11.014
CH$NAME: Azo Rubin S
CH$FORMULA: C20H14N2O7S2
CH$EXACT_MASS: 458.0242
CH$SMILES: C1=CC=C2C(=C1)C(=CC=C2S(=O)(=O)O)N=NC3=C(C4=CC=CC=C4C(=C3)S(=O)(=O)O)O
CH$IUPAC: InChI=1S/C20H14N2O7S2/c23-20-15-8-4-3-7-14(15)19(31(27,28)29)11-17(20)22-21-16-9-10-18(30(24,25)26)13-6-2-1-5-12(13)16/h1-11,23H,(H,24,25,26)(H,27,28,29)
CH$LINK: CAS 13613-55-3
CH$LINK: INCHIKEY TVWOWDDBXAFQDG-UHFFFAOYSA-N
AC$INSTRUMENT: TripleTOF 6600 SCIEX
AC$INSTRUMENT_TYPE: LC-ESI-QTOF
AC$MASS_SPECTROMETRY: MS_TYPE MS2
AC$MASS_SPECTROMETRY: ION_MODE NEGATIVE
AC$MASS_SPECTROMETRY: COLLISION_ENERGY 40
AC$MASS_SPECTROMETRY: FRAGMENTATION_MODE CID
AC$MASS_SPECTROMETRY: IONIZATION ESI
AC$CHROMATOGRAPHY: COLUMN_NAME Zorbax Eclipse Plus C18 2.1 mm x 150 mm, 3.5 um, Agilent
AC$CHROMATOGRAPHY: COLUMN_TEMPERATURE 40 °C
AC$CHROMATOGRAPHY: FLOW_GRADIENT 0 min min 98% A, 1 min 98% A, 2 min 80% A, 16.5 min 2% A, 22 min 2% A, 22.1 min 98% A, 27 min 98% A
AC$CHROMATOGRAPHY: FLOW_RATE 0.3 mL/min
AC$CHROMATOGRAPHY: RETENTION_TIME 7.286 min
AC$CHROMATOGRAPHY: SOLVENT A: Water 0.1% Formic acid, B: Acetonitrile 0.1% Formic acid
MS$FOCUSED_ION: PRECURSOR_M/Z 228.0053
MS$FOCUSED_ION: PRECURSOR_TYPE [M-2H]2-
MS$DATA_PROCESSING: COMMENT Export with pycsl 0.1.0.dev1 and CSL 25.0
PK$SPLASH: splash10-00di-2920000000-096f644cd321553cfda5
PK$NUM_PEAK: 33
PK$PEAK: m/z int. rel.int.
  50.0036 1.0904 0
  63.9623 74.7242 29
  65.9984 46.6186 18
  79.709 3.0793 1
  79.9575 602.4567 241
  80.9648 5.617 2
  101.0382 2.7564 1
  102.0346 59.4737 23
  114.0338 1.0058 0
  115.042 18.2167 7
  126.0342 5.0642 2
  129.0346 3.0034 1
  140.0502 40.9007 16
  142.0296 8.4175 3
  143.0501 3.6752 1
  145.0287 24.7009 9
  157.0532 46.7666 18
  158.0379 6.195 2
  169.4908 11.6651 4
  170.0252 2490.8496 999
  171.0294 11.9281 4
  172.0393 14.542 5
  194.0043 9.7331 3
  206.0033 47.2347 18
  207.0123 1.4027 0
  220.0054 1.166 0
  220.3185 3.1108 1
  221.015 789.619 316
  222.0171 2.5664 1
  236.0016 7.1833 2
  282.0672 1.9037 0
  283.0761 3.6608 1
  347.0372 5.4955 2
//
