ACCESSION: MSBNK-BAFG-CSL23111016642
RECORD_TITLE: Tylosin; LC-ESI-QTOF; MS2; 140 V
DATE: 2023.11.10
AUTHORS: Kevin S. Jewell; Björn Ehlig; Arne Wick
LICENSE: dl-de/by-2-0
COPYRIGHT: Copyright 2023 Federal Institute of Hydrology, Koblenz, Germany
COMMENT: CONFIDENCE Reference Standard (Level 1)
COMMENT: Chromatography method: dx.doi.org/10.1016/j.chroma.2015.11.014
COMMENT: Acquisition method: 10.1002/rcm.8541
CH$NAME: Tylosin
CH$COMPOUND_CLASS: Pharmaceutical
CH$FORMULA: C46H77NO17
CH$EXACT_MASS: 915.5192
CH$SMILES: CCC1C(C=C(C=CC(=O)C(CC(C(C(C(CC(=O)O1)O)C)OC2C(C(C(C(O2)C)OC3CC(C(C(O3)C)O)(C)O)N(C)C)O)CC=O)C)C)COC4C(C(C(C(O4)C)O)OC)OC
CH$IUPAC: InChI=1S/C46H77NO17/c1-13-33-30(22-58-45-42(57-12)41(56-11)37(52)26(5)60-45)18-23(2)14-15-31(49)24(3)19-29(16-17-48)39(25(4)32(50)20-34(51)62-33)64-44-38(53)36(47(9)10)40(27(6)61-44)63-35-21-46(8,55)43(54)28(7)59-35/h14-15,17-18,24-30,32-33,35-45,50,52-55H,13,16,19-22H2,1-12H3
CH$LINK: CAS 1401-69-0
CH$LINK: INCHIKEY WBPYTXDJUQJLPQ-UHFFFAOYSA-N
AC$INSTRUMENT: TripleTOF 6600 SCIEX
AC$INSTRUMENT_TYPE: LC-ESI-QTOF
AC$MASS_SPECTROMETRY: MS_TYPE MS2
AC$MASS_SPECTROMETRY: ION_MODE POSITIVE
AC$MASS_SPECTROMETRY: COLLISION_ENERGY 140
AC$MASS_SPECTROMETRY: FRAGMENTATION_MODE CID
AC$MASS_SPECTROMETRY: IONIZATION ESI
AC$CHROMATOGRAPHY: COLUMN_NAME Zorbax Eclipse Plus C18 2.1 mm x 150 mm, 3.5 um, Agilent
AC$CHROMATOGRAPHY: COLUMN_TEMPERATURE 40 °C
AC$CHROMATOGRAPHY: FLOW_GRADIENT 0 min min 98% A, 1 min 98% A, 2 min 80% A, 16.5 min 2% A, 22 min 2% A, 22.1 min 98% A, 27 min 98% A
AC$CHROMATOGRAPHY: FLOW_RATE 0.3 mL/min
AC$CHROMATOGRAPHY: RETENTION_TIME 8.178 min
AC$CHROMATOGRAPHY: SOLVENT A: Water 0.1% Formic acid, B: Acetonitrile 0.1% Formic acid
MS$FOCUSED_ION: PRECURSOR_M/Z 916.5264
MS$FOCUSED_ION: PRECURSOR_TYPE [M+H]+
MS$DATA_PROCESSING: COMMENT Export with Spectra 1.9.12 MsBackendMassbank 1.7.4
MS$DATA_PROCESSING: WHOLE RMassBank 2.3.1
PK$SPLASH: splash10-0016-9000000000-5f43f3f7952fef7e9010
PK$NUM_PEAK: 24
PK$PEAK: m/z int. rel.int.
  39.023 0.6 46
  41.0386 2.4 184
  43.0183 13 999
  45.0338 0.6 46
  55.0543 1.9 146
  58.0652 2.3 176
  59.0491 1.1 84
  70.0655 0.8 61
  71.0497 0.5 38
  72.081 0.5 38
  73.0525 5.3 407
  81.0698 1.5 115
  83.0494 10.3 791
  84.0819 1 76
  85.0289 0.7 53
  86.0592 0.9 69
  87.0446 0.9 69
  88.0759 11.1 852
  98.097 1.6 122
  100.0759 1.2 92
  101.0594 0.7 53
  114.0926 1.1 84
  116.0707 0.8 61
  132.1011 0.5 38
//
