ACCESSION: MSBNK-BAFG-CSL2311097917
RECORD_TITLE: Iomeprol; LC-ESI-QTOF; MS2; 80 V
DATE: 2023.11.09
AUTHORS: Kevin S. Jewell; Björn Ehlig; Arne Wick
LICENSE: dl-de/by-2-0
COPYRIGHT: Copyright 2023 Federal Institute of Hydrology, Koblenz, Germany
COMMENT: CONFIDENCE Reference Standard (Level 1)
COMMENT: Chromatography method: dx.doi.org/10.1016/j.chroma.2015.11.014
COMMENT: Acquisition method: 10.1002/rcm.8541
CH$NAME: Iomeprol
CH$COMPOUND_CLASS: Pharmaceutical
CH$FORMULA: C17H22I3N3O8
CH$EXACT_MASS: 776.8541
CH$SMILES: CN(C(=O)CO)c1c(I)c(C(=O)NCC(O)CO)c(I)c(C(=O)NCC(O)CO)c1I
CH$IUPAC: InChI=1S/C17H22I3N3O8/c1-23(9(29)6-26)15-13(19)10(16(30)21-2-7(27)4-24)12(18)11(14(15)20)17(31)22-3-8(28)5-25/h7-8,24-28H,2-6H2,1H3,(H,21,30)(H,22,31)
CH$LINK: CAS 78649-41-9
CH$LINK: INCHIKEY NJKDOADNQSYQEV-UHFFFAOYSA-N
AC$INSTRUMENT: TripleTOF 5600 SCIEX
AC$INSTRUMENT_TYPE: LC-ESI-QTOF
AC$MASS_SPECTROMETRY: MS_TYPE MS2
AC$MASS_SPECTROMETRY: ION_MODE POSITIVE
AC$MASS_SPECTROMETRY: COLLISION_ENERGY 80
AC$MASS_SPECTROMETRY: FRAGMENTATION_MODE CID
AC$MASS_SPECTROMETRY: IONIZATION ESI
AC$CHROMATOGRAPHY: COLUMN_NAME Zorbax Eclipse Plus C18 2.1 mm x 150 mm, 3.5 um, Agilent
AC$CHROMATOGRAPHY: COLUMN_TEMPERATURE 40 °C
AC$CHROMATOGRAPHY: FLOW_GRADIENT 0 min min 98% A, 1 min 98% A, 2 min 80% A, 16.5 min 2% A, 22 min 2% A, 22.1 min 98% A, 27 min 98% A
AC$CHROMATOGRAPHY: FLOW_RATE 0.3 mL/min
AC$CHROMATOGRAPHY: RETENTION_TIME 4.596 min
AC$CHROMATOGRAPHY: SOLVENT A: Water 0.1% Formic acid, B: Acetonitrile 0.1% Formic acid
MS$FOCUSED_ION: PRECURSOR_M/Z 777.8614
MS$FOCUSED_ION: PRECURSOR_TYPE [M+H]+
MS$DATA_PROCESSING: COMMENT Export with Spectra 1.9.12 MsBackendMassbank 1.7.4
MS$DATA_PROCESSING: WHOLE RMassBank 2.3.1
PK$SPLASH: splash10-0udr-0187900000-e367a8ca048933c622b0
PK$NUM_PEAK: 42
PK$PEAK: m/z int. rel.int.
  132.0417 0.7 12
  136.04 0.6 10
  147.03 0.6 10
  160.0377 0.8 14
  161.0449 1.9 34
  162.0537 0.6 10
  164.0334 0.6 10
  175.0273 0.8 14
  176.0308 1.1 19
  177.0393 1.8 32
  204.0276 0.6 10
  206.041 0.7 12
  217.0587 0.8 14
  222.037 1.1 19
  231.0735 0.8 14
  245.9368 0.8 14
  247.0685 0.6 10
  257.9387 1.4 25
  261.0792 0.8 14
  273.9343 6.6 119
  275.9517 1.2 21
  277.0788 2.6 47
  285.9356 0.6 10
  287.9498 33.8 611
  288.9568 0.6 10
  290.9628 1.9 34
  300.9457 0.8 14
  301.9278 4 72
  302.9583 0.8 14
  303.9408 0.7 12
  305.9612 2 36
  313.9318 1.2 21
  314.9586 0.8 14
  330.9515 2.1 38
  331.94 23.7 428
  346.988 2.6 47
  374.9819 3.5 63
  386.9847 2.7 48
  404.9935 55.2 999
  413.8357 0.7 12
  414.8568 1.8 32
  558.8829 1.6 28
//
