ACCESSION: MSBNK-BAFG-CSL2310254032
RECORD_TITLE: Formononetin; LC-ESI-QTOF; MS2; 150 V
DATE: 2023.10.25
AUTHORS: Kevin S. Jewell; Björn Ehlig; Arne Wick
LICENSE: dl-de/by-2-0
COPYRIGHT: Copyright 2023 Federal Institute of Hydrology, Koblenz, Germany
COMMENT: CONFIDENCE Reference Standard (Level 1)
COMMENT: Chromatography method: dx.doi.org/10.1016/j.chroma.2015.11.014
COMMENT: Acquisition method: 10.1002/rcm.8541
CH$NAME: Formononetin
CH$COMPOUND_CLASS: Metabolite; Metabolite; Pharmaceutical
CH$FORMULA: C16H12O4
CH$EXACT_MASS: 268.0736
CH$SMILES: COc1ccc(cc1)C2=COc3cc(O)ccc3C2=O
CH$IUPAC: InChI=1S/C16H12O4/c1-19-12-5-2-10(3-6-12)14-9-20-15-8-11(17)4-7-13(15)16(14)18/h2-9,17H,1H3
CH$LINK: CAS 485-72-3
CH$LINK: INCHIKEY HKQYGTCOTHHOMP-UHFFFAOYSA-N
AC$INSTRUMENT: TripleTOF 5600 SCIEX
AC$INSTRUMENT_TYPE: LC-ESI-QTOF
AC$MASS_SPECTROMETRY: MS_TYPE MS2
AC$MASS_SPECTROMETRY: ION_MODE POSITIVE
AC$MASS_SPECTROMETRY: COLLISION_ENERGY 150
AC$MASS_SPECTROMETRY: FRAGMENTATION_MODE CID
AC$MASS_SPECTROMETRY: IONIZATION ESI
AC$CHROMATOGRAPHY: COLUMN_NAME Zorbax Eclipse Plus C18 2.1 mm x 150 mm, 3.5 um, Agilent
AC$CHROMATOGRAPHY: COLUMN_TEMPERATURE 40 °C
AC$CHROMATOGRAPHY: FLOW_GRADIENT 0 min min 98% A, 1 min 98% A, 2 min 80% A, 16.5 min 2% A, 22 min 2% A, 22.1 min 98% A, 27 min 98% A
AC$CHROMATOGRAPHY: FLOW_RATE 0.3 mL/min
AC$CHROMATOGRAPHY: RETENTION_TIME 10.093 min
AC$CHROMATOGRAPHY: SOLVENT A: Water 0.1% Formic acid, B: Acetonitrile 0.1% Formic acid
MS$FOCUSED_ION: PRECURSOR_M/Z 269.0808
MS$FOCUSED_ION: PRECURSOR_TYPE [M+H]+
MS$DATA_PROCESSING: COMMENT Export with Spectra 1.9.12 MsBackendMassbank 1.7.4
MS$DATA_PROCESSING: WHOLE RMassBank 2.3.1
PK$SPLASH: splash10-0079-9100000000-a1eab8008c4124140a96
PK$NUM_PEAK: 32
PK$PEAK: m/z int. rel.int.
  53.0094 0.8 47
  60.0041 2.1 123
  61.0379 0.4 23
  62.0594 0.7 41
  64.034 1 58
  65.0426 2.3 135
  68.9993 1.2 70
  73.0098 1.8 105
  74.0187 14.3 840
  75.0262 5.2 305
  75.0485 0.5 29
  76.0344 1.3 76
  77.0411 2.1 123
  78.0506 0.7 41
  85.011 1.4 82
  86.0162 3.4 199
  86.035 0.6 35
  87.0245 2.3 135
  88.0331 0.9 52
  89.0405 17 999
  91.0571 0.7 41
  98.0169 3.9 229
  99.0234 1 58
  102.0444 1 58
  110.0161 0.5 29
  113.0391 2.2 129
  115.0533 2 117
  126.0461 0.9 52
  139.0529 2.8 164
  149.0382 0.6 35
  150.0461 1.9 111
  151.0547 0.8 47
//
