ACCESSION: MSBNK-BAFG-CSL23103127423
RECORD_TITLE: 2-Amino-n-isopropylbenzamide; LC-ESI-QTOF; MS2; 80 V
DATE: 2023.10.31
AUTHORS: Kevin S. Jewell; Björn Ehlig; Arne Wick
LICENSE: dl-de/by-2-0
COPYRIGHT: Copyright 2023 Federal Institute of Hydrology, Koblenz, Germany
COMMENT: CONFIDENCE Reference Standard (Level 1)
COMMENT: Chromatography method: dx.doi.org/10.1016/j.chroma.2015.11.014
COMMENT: Acquisition method: 10.1002/rcm.8541
CH$NAME: 2-Amino-n-isopropylbenzamide
CH$FORMULA: C10H14N2O
CH$EXACT_MASS: 178.1106
CH$SMILES: CC(C)NC(=O)C1=CC=CC=C1N
CH$IUPAC: InChI=1S/C10H14N2O/c1-7(2)12-10(13)8-5-3-4-6-9(8)11/h3-7H,11H2,1-2H3,(H,12,13)
CH$LINK: CAS 30391-89-0
CH$LINK: INCHIKEY FWQYJOPJMIEKHZ-UHFFFAOYSA-N
AC$INSTRUMENT: TripleTOF X500R SCIEX
AC$INSTRUMENT_TYPE: LC-ESI-QTOF
AC$MASS_SPECTROMETRY: MS_TYPE MS2
AC$MASS_SPECTROMETRY: ION_MODE POSITIVE
AC$MASS_SPECTROMETRY: COLLISION_ENERGY 80
AC$MASS_SPECTROMETRY: FRAGMENTATION_MODE CID
AC$MASS_SPECTROMETRY: IONIZATION ESI
AC$CHROMATOGRAPHY: COLUMN_NAME Zorbax Eclipse Plus C18 2.1 mm x 150 mm, 3.5 um, Agilent
AC$CHROMATOGRAPHY: COLUMN_TEMPERATURE 40 °C
AC$CHROMATOGRAPHY: FLOW_GRADIENT 0 min min 98% A, 1 min 98% A, 2 min 80% A, 16.5 min 2% A, 22 min 2% A, 22.1 min 98% A, 27 min 98% A
AC$CHROMATOGRAPHY: FLOW_RATE 0.3 mL/min
AC$CHROMATOGRAPHY: RETENTION_TIME 6.85 min
AC$CHROMATOGRAPHY: SOLVENT A: Water 0.1% Formic acid, B: Acetonitrile 0.1% Formic acid
MS$FOCUSED_ION: PRECURSOR_M/Z 179.1179
MS$FOCUSED_ION: PRECURSOR_TYPE [M+H]+
MS$DATA_PROCESSING: COMMENT Export with Spectra 1.9.12 MsBackendMassbank 1.7.4
MS$DATA_PROCESSING: WHOLE RMassBank 2.3.1
PK$SPLASH: splash10-000i-9000000000-b1aec12f733138065892
PK$NUM_PEAK: 10
PK$PEAK: m/z int. rel.int.
  37.0075 4 101
  38.0154 4.2 107
  39.0229 39.2 999
  40.0188 0.7 17
  41.0389 1.2 30
  51.0228 0.5 12
  52.0192 0.8 20
  63.0233 0.7 17
  65.0387 13.2 336
  66.0339 0.8 20
//
