ACCESSION: MSBNK-BAFG-CSL2310305258
RECORD_TITLE: Thiabendazole; LC-ESI-QTOF; MS2; 90 V
DATE: 2023.10.30
AUTHORS: Kevin S. Jewell; Björn Ehlig; Arne Wick
LICENSE: dl-de/by-2-0
COPYRIGHT: Copyright 2023 Federal Institute of Hydrology, Koblenz, Germany
COMMENT: CONFIDENCE Reference Standard (Level 1)
COMMENT: Chromatography method: dx.doi.org/10.1016/j.chroma.2015.11.014
COMMENT: Acquisition method: 10.1002/rcm.8541
CH$NAME: Thiabendazole
CH$COMPOUND_CLASS: Fungicide; Pharmaceutical
CH$FORMULA: C10H7N3S
CH$EXACT_MASS: 201.0361
CH$SMILES: [nH]1c2ccccc2nc1c3cscn3
CH$IUPAC: InChI=1S/C10H7N3S/c1-2-4-8-7(3-1)12-10(13-8)9-5-14-6-11-9/h1-6H,(H,12,13)
CH$LINK: CAS 148-79-8
CH$LINK: INCHIKEY WJCNZQLZVWNLKY-UHFFFAOYSA-N
AC$INSTRUMENT: TripleTOF 5600 SCIEX
AC$INSTRUMENT_TYPE: LC-ESI-QTOF
AC$MASS_SPECTROMETRY: MS_TYPE MS2
AC$MASS_SPECTROMETRY: ION_MODE POSITIVE
AC$MASS_SPECTROMETRY: COLLISION_ENERGY 90
AC$MASS_SPECTROMETRY: FRAGMENTATION_MODE CID
AC$MASS_SPECTROMETRY: IONIZATION ESI
AC$CHROMATOGRAPHY: COLUMN_NAME Zorbax Eclipse Plus C18 2.1 mm x 150 mm, 3.5 um, Agilent
AC$CHROMATOGRAPHY: COLUMN_TEMPERATURE 40 °C
AC$CHROMATOGRAPHY: FLOW_GRADIENT 0 min min 98% A, 1 min 98% A, 2 min 80% A, 16.5 min 2% A, 22 min 2% A, 22.1 min 98% A, 27 min 98% A
AC$CHROMATOGRAPHY: FLOW_RATE 0.3 mL/min
AC$CHROMATOGRAPHY: RETENTION_TIME 5.203 min
AC$CHROMATOGRAPHY: SOLVENT A: Water 0.1% Formic acid, B: Acetonitrile 0.1% Formic acid
MS$FOCUSED_ION: PRECURSOR_M/Z 202.0433
MS$FOCUSED_ION: PRECURSOR_TYPE [M+H]+
MS$DATA_PROCESSING: COMMENT Export with Spectra 1.9.12 MsBackendMassbank 1.7.4
MS$DATA_PROCESSING: WHOLE RMassBank 2.3.1
PK$SPLASH: splash10-014i-9000000000-d135d221e7679def4905
PK$NUM_PEAK: 24
PK$PEAK: m/z int. rel.int.
  51.0307 6 310
  52.0262 0.9 46
  56.9846 1 51
  62.0312 0.5 25
  63.0517 0.9 46
  64.0349 1.2 62
  65.0435 19.3 999
  66.0379 0.4 20
  68.9824 0.7 36
  74.0188 1.3 67
  75.0267 1 51
  76.0211 1.1 56
  76.0376 0.9 46
  77.0415 8.9 460
  78.0372 0.7 36
  89.0413 0.4 20
  90.0352 1.1 56
  91.0435 2.4 124
  92.0524 1.2 62
  102.0362 0.8 41
  103.0437 0.6 31
  104.0506 1.1 56
  114.0333 0.6 31
  115.0437 0.7 36
//
