ACCESSION: MSBNK-BAFG-CSL2311097581
RECORD_TITLE: Metolachlor ESA; LC-ESI-QTOF; MS2; 140 V
DATE: 2023.11.09
AUTHORS: Kevin S. Jewell; Björn Ehlig; Arne Wick
LICENSE: dl-de/by-2-0
COPYRIGHT: Copyright 2023 Federal Institute of Hydrology, Koblenz, Germany
COMMENT: CONFIDENCE Reference Standard (Level 1)
COMMENT: Chromatography method: dx.doi.org/10.1016/j.chroma.2015.11.014
COMMENT: Acquisition method: 10.1002/rcm.8541
CH$NAME: Metolachlor ESA
CH$COMPOUND_CLASS: Herbicide
CH$FORMULA: C15H23NO5S
CH$EXACT_MASS: 329.1297
CH$SMILES: CCC1=CC=CC(=C1N(C(C)COC)C(=O)CS(=O)(=O)O)C
CH$IUPAC: InChI=1S/C15H23NO5S/c1-5-13-8-6-7-11(2)15(13)16(12(3)9-21-4)14(17)10-22(18,19)20/h6-8,12H,5,9-10H2,1-4H3,(H,18,19,20)
CH$LINK: CAS 171118-09-5
CH$LINK: INCHIKEY CIGKZVUEZXGYSV-UHFFFAOYSA-N
AC$INSTRUMENT: TripleTOF 5600 SCIEX
AC$INSTRUMENT_TYPE: LC-ESI-QTOF
AC$MASS_SPECTROMETRY: MS_TYPE MS2
AC$MASS_SPECTROMETRY: ION_MODE POSITIVE
AC$MASS_SPECTROMETRY: COLLISION_ENERGY 140
AC$MASS_SPECTROMETRY: FRAGMENTATION_MODE CID
AC$MASS_SPECTROMETRY: IONIZATION ESI
AC$CHROMATOGRAPHY: COLUMN_NAME Zorbax Eclipse Plus C18 2.1 mm x 150 mm, 3.5 um, Agilent
AC$CHROMATOGRAPHY: COLUMN_TEMPERATURE 40 °C
AC$CHROMATOGRAPHY: FLOW_GRADIENT 0 min min 98% A, 1 min 98% A, 2 min 80% A, 16.5 min 2% A, 22 min 2% A, 22.1 min 98% A, 27 min 98% A
AC$CHROMATOGRAPHY: FLOW_RATE 0.3 mL/min
AC$CHROMATOGRAPHY: RETENTION_TIME 8.247 min
AC$CHROMATOGRAPHY: SOLVENT A: Water 0.1% Formic acid, B: Acetonitrile 0.1% Formic acid
MS$FOCUSED_ION: PRECURSOR_M/Z 330.137
MS$FOCUSED_ION: PRECURSOR_TYPE [M+H]+
MS$DATA_PROCESSING: COMMENT Export with Spectra 1.9.12 MsBackendMassbank 1.7.4
MS$DATA_PROCESSING: WHOLE RMassBank 2.3.1
PK$SPLASH: splash10-017o-6900000000-d3f12ee91a5c50026e19
PK$NUM_PEAK: 26
PK$PEAK: m/z int. rel.int.
  45.0429 0.4 74
  51.0319 1.1 203
  65.0408 1.6 296
  77.0411 5.4 999
  78.0455 0.6 111
  79.0576 0.4 74
  89.0394 2.1 388
  90.0475 0.7 129
  91.056 3.5 647
  102.0488 0.8 148
  103.0533 1.7 314
  103.0656 0.8 148
  104.0508 0.5 92
  106.0645 0.5 92
  115.0533 3.2 592
  116.0514 0.5 92
  117.0573 1.8 333
  118.0621 0.5 92
  127.0555 0.5 92
  128.0547 1.2 222
  129.0576 0.5 92
  130.0655 4.5 832
  141.061 0.4 74
  142.0659 1 185
  143.0727 1.6 296
  144.0786 1.5 277
//
