ACCESSION: MSBNK-BAFG-CSL25010634293
RECORD_TITLE: Disperse orange 3; LC-ESI-QTOF; MS2; 30 V
DATE: 2025.01.06
AUTHORS: Ole Lessmann; Kevin S. Jewell; Björn Ehlig; Arne Wick
LICENSE: dl-de/by-2-0
COPYRIGHT: Copyright 2025 Federal Institute of Hydrology, Koblenz, Germany
COMMENT: CONFIDENCE Reference Standard (Level 1)
COMMENT: Chromatography method: dx.doi.org/10.1016/j.chroma.2015.11.014
COMMENT: Acquisition method: 10.1002/rcm.8541
CH$NAME: Disperse orange 3
CH$FORMULA: C12H10N4O2
CH$EXACT_MASS: 242.0804
CH$SMILES: C1=CC(=CC=C1N)N=NC2=CC=C(C=C2)[N+](=O)[O-]
CH$IUPAC: InChI=1S/C12H10N4O2/c13-9-1-3-10(4-2-9)14-15-11-5-7-12(8-6-11)16(17)18/h1-8H,13H2
CH$LINK: CAS 730-40-5
CH$LINK: INCHIKEY UNBOSJFEZZJZLR-UHFFFAOYSA-N
AC$INSTRUMENT: TripleTOF 6600 SCIEX
AC$INSTRUMENT_TYPE: LC-ESI-QTOF
AC$MASS_SPECTROMETRY: MS_TYPE MS2
AC$MASS_SPECTROMETRY: ION_MODE POSITIVE
AC$MASS_SPECTROMETRY: COLLISION_ENERGY 30
AC$MASS_SPECTROMETRY: FRAGMENTATION_MODE CID
AC$MASS_SPECTROMETRY: IONIZATION ESI
AC$CHROMATOGRAPHY: COLUMN_NAME Zorbax Eclipse Plus C18 2.1 mm x 150 mm, 3.5 um, Agilent
AC$CHROMATOGRAPHY: COLUMN_TEMPERATURE 40 °C
AC$CHROMATOGRAPHY: FLOW_GRADIENT 0 min min 98% A, 1 min 98% A, 2 min 80% A, 16.5 min 2% A, 22 min 2% A, 22.1 min 98% A, 27 min 98% A
AC$CHROMATOGRAPHY: FLOW_RATE 0.3 mL/min
AC$CHROMATOGRAPHY: RETENTION_TIME 12.729 min
AC$CHROMATOGRAPHY: SOLVENT A: Water 0.1% Formic acid, B: Acetonitrile 0.1% Formic acid
MS$FOCUSED_ION: PRECURSOR_M/Z 243.0877
MS$FOCUSED_ION: PRECURSOR_TYPE [M+H]+
MS$DATA_PROCESSING: COMMENT Export with pycsl 0.1.0.dev1 and CSL 24.4
PK$SPLASH: splash10-0fdo-6900000000-f37a3b9f1add4233ef0e
PK$NUM_PEAK: 23
PK$PEAK: m/z int. rel.int.
  39.0218 3.9 11
  51.0212 3.7 11
  63.0215 12.8 38
  64.0296 14.5 43
  66.045 3.5 10
  74.0144 9.0 26
  75.0216 143.2 428
  76.0291 61.4 183
  92.0253 249.7 747
  93.0558 130.2 389
  104.0347 7.1 21
  105.0429 4.1 12
  106.0501 21.4 64
  120.0539 48.3 144
  122.0222 178.5 534
  140.0321 13.8 41
  150.0282 333.6 999
  168.0777 4.3 12
  169.0856 4.2 12
  196.0843 6.3 18
  197.0934 193.2 578
  226.0829 32.3 96
  243.0859 45.8 137
//