ACCESSION: MSBNK-BAFG-CSL2501067156
RECORD_TITLE: N-ethyl-m-toluamide; LC-ESI-QTOF; MS2; 10 V
DATE: 2025.01.06
AUTHORS: Ole Lessmann; Kevin S. Jewell; Björn Ehlig; Arne Wick
LICENSE: dl-de/by-2-0
COPYRIGHT: Copyright 2025 Federal Institute of Hydrology, Koblenz, Germany
COMMENT: CONFIDENCE Reference Standard (Level 1)
COMMENT: Chromatography method: dx.doi.org/10.1016/j.chroma.2015.11.014
COMMENT: Acquisition method: 10.1002/rcm.8541
CH$NAME: N-ethyl-m-toluamide
CH$COMPOUND_CLASS: Pharmaceutical; Biocide; Personal_care_product; Transformation_product-Metabolite
CH$FORMULA: C10H13NO
CH$EXACT_MASS: 163.0997
CH$SMILES: CCNC(=O)c1cccc(C)c1
CH$IUPAC: InChI=1S/C10H13NO/c1-3-11-10(12)9-6-4-5-8(2)7-9/h4-7H,3H2,1-2H3,(H,11,12)
CH$LINK: CAS 26819-07-8
CH$LINK: INCHIKEY FPINATACRXASTP-UHFFFAOYSA-N
AC$INSTRUMENT: TripleTOF 5600 SCIEX
AC$INSTRUMENT_TYPE: LC-ESI-QTOF
AC$MASS_SPECTROMETRY: MS_TYPE MS2
AC$MASS_SPECTROMETRY: ION_MODE POSITIVE
AC$MASS_SPECTROMETRY: COLLISION_ENERGY 10
AC$MASS_SPECTROMETRY: FRAGMENTATION_MODE CID
AC$MASS_SPECTROMETRY: IONIZATION ESI
AC$CHROMATOGRAPHY: COLUMN_NAME Zorbax Eclipse Plus C18 2.1 mm x 150 mm, 3.5 um, Agilent
AC$CHROMATOGRAPHY: COLUMN_TEMPERATURE 40 °C
AC$CHROMATOGRAPHY: FLOW_GRADIENT 0 min min 98% A, 1 min 98% A, 2 min 80% A, 16.5 min 2% A, 22 min 2% A, 22.1 min 98% A, 27 min 98% A
AC$CHROMATOGRAPHY: FLOW_RATE 0.3 mL/min
AC$CHROMATOGRAPHY: RETENTION_TIME 8.341 min
AC$CHROMATOGRAPHY: SOLVENT A: Water 0.1% Formic acid, B: Acetonitrile 0.1% Formic acid
MS$FOCUSED_ION: PRECURSOR_M/Z 164.107
MS$FOCUSED_ION: PRECURSOR_TYPE [M+H]+
MS$DATA_PROCESSING: COMMENT Export with pycsl 0.1.0.dev1 and CSL 24.4
PK$SPLASH: splash10-03di-0900000000-70808bd00251409e297d
PK$NUM_PEAK: 3
PK$PEAK: m/z int. rel.int.
  72.0483 10.0 18
  119.0492 26.0 47
  164.1066 543.2 999
//