ACCESSION: MSBNK-BAFG-CSL23111027327
RECORD_TITLE: Prosulfuron; LC-ESI-QTOF; MS2; 90 V
DATE: 2023.11.10
AUTHORS: Kevin S. Jewell; Björn Ehlig; Arne Wick
LICENSE: dl-de/by-2-0
COPYRIGHT: Copyright 2023 Federal Institute of Hydrology, Koblenz, Germany
COMMENT: CONFIDENCE Reference Standard (Level 1)
COMMENT: Chromatography method: dx.doi.org/10.1016/j.chroma.2015.11.014
COMMENT: Acquisition method: 10.1002/rcm.8541
CH$NAME: Prosulfuron
CH$COMPOUND_CLASS: Herbicide
CH$FORMULA: C15H16F3N5O4S
CH$EXACT_MASS: 419.0875
CH$SMILES: CC1=NC(=NC(=N1)OC)NC(=O)NS(=O)(=O)C2=CC=CC=C2CCC(F)(F)F
CH$IUPAC: InChI=1S/C15H16F3N5O4S/c1-9-19-12(22-14(20-9)27-2)21-13(24)23-28(25,26)11-6-4-3-5-10(11)7-8-15(16,17)18/h3-6H,7-8H2,1-2H3,(H2,19,20,21,22,23,24)
CH$LINK: CAS 94125-34-5
CH$LINK: INCHIKEY LTUNNEGNEKBSEH-UHFFFAOYSA-N
AC$INSTRUMENT: TripleTOF 6600 SCIEX
AC$INSTRUMENT_TYPE: LC-ESI-QTOF
AC$MASS_SPECTROMETRY: MS_TYPE MS2
AC$MASS_SPECTROMETRY: ION_MODE POSITIVE
AC$MASS_SPECTROMETRY: COLLISION_ENERGY 90
AC$MASS_SPECTROMETRY: FRAGMENTATION_MODE CID
AC$MASS_SPECTROMETRY: IONIZATION ESI
AC$CHROMATOGRAPHY: COLUMN_NAME Zorbax Eclipse Plus C18 2.1 mm x 150 mm, 3.5 um, Agilent
AC$CHROMATOGRAPHY: COLUMN_TEMPERATURE 40 °C
AC$CHROMATOGRAPHY: FLOW_GRADIENT 0 min min 98% A, 1 min 98% A, 2 min 80% A, 16.5 min 2% A, 22 min 2% A, 22.1 min 98% A, 27 min 98% A
AC$CHROMATOGRAPHY: FLOW_RATE 0.3 mL/min
AC$CHROMATOGRAPHY: RETENTION_TIME 11.847 min
AC$CHROMATOGRAPHY: SOLVENT A: Water 0.1% Formic acid, B: Acetonitrile 0.1% Formic acid
MS$FOCUSED_ION: PRECURSOR_M/Z 420.0948
MS$FOCUSED_ION: PRECURSOR_TYPE [M+H]+
MS$DATA_PROCESSING: COMMENT Export with Spectra 1.9.12 MsBackendMassbank 1.7.4
MS$DATA_PROCESSING: WHOLE RMassBank 2.3.1
PK$SPLASH: splash10-0a4i-9400000000-f759e323b1157f1b2355
PK$NUM_PEAK: 25
PK$PEAK: m/z int. rel.int.
  30.0319 1 12
  42.0317 21.8 272
  43.0272 28.6 357
  56.0472 15.1 188
  57.0113 2.1 26
  57.0425 34.6 432
  58.0262 21.6 269
  59.0267 1.8 22
  62.0118 0.9 11
  63.0204 3.1 38
  68.0219 13.8 172
  69.0059 18.2 227
  77.0364 1.7 21
  78.0447 1.6 19
  82.0374 0.9 11
  83.0258 44.6 556
  84.0528 1.5 18
  85.0369 5.4 67
  89.0359 4.9 61
  100.0476 8 99
  109.0423 80 999
  127.0326 0.9 11
  133.0424 5.2 64
  141.0743 5.7 71
  167.055 1.2 14
//
