ACCESSION: MSBNK-BAFG-CSL23102527778
RECORD_TITLE: 2-Methylquinoline; LC-ESI-QTOF; MS2; 60 V
DATE: 2023.10.25
AUTHORS: Kevin S. Jewell; Björn Ehlig; Arne Wick
LICENSE: dl-de/by-2-0
COPYRIGHT: Copyright 2023 Federal Institute of Hydrology, Koblenz, Germany
COMMENT: CONFIDENCE Reference Standard (Level 1)
COMMENT: Chromatography method: dx.doi.org/10.1016/j.chroma.2015.11.014
COMMENT: Acquisition method: 10.1002/rcm.8541
CH$NAME: 2-Methylquinoline
CH$FORMULA: C10H9N
CH$EXACT_MASS: 143.0735
CH$SMILES: CC1=NC2=CC=CC=C2C=C1
CH$IUPAC: InChI=1S/C10H9N/c1-8-6-7-9-4-2-3-5-10(9)11-8/h2-7H,1H3
CH$LINK: CAS 91-63-4
CH$LINK: INCHIKEY SMUQFGGVLNAIOZ-UHFFFAOYSA-N
AC$INSTRUMENT: TripleTOF X500R SCIEX
AC$INSTRUMENT_TYPE: LC-ESI-QTOF
AC$MASS_SPECTROMETRY: MS_TYPE MS2
AC$MASS_SPECTROMETRY: ION_MODE POSITIVE
AC$MASS_SPECTROMETRY: COLLISION_ENERGY 60
AC$MASS_SPECTROMETRY: FRAGMENTATION_MODE CID
AC$MASS_SPECTROMETRY: IONIZATION ESI
AC$CHROMATOGRAPHY: COLUMN_NAME Zorbax Eclipse Plus C18 2.1 mm x 150 mm, 3.5 um, Agilent
AC$CHROMATOGRAPHY: COLUMN_TEMPERATURE 40 °C
AC$CHROMATOGRAPHY: FLOW_GRADIENT 0 min min 98% A, 1 min 98% A, 2 min 80% A, 16.5 min 2% A, 22 min 2% A, 22.1 min 98% A, 27 min 98% A
AC$CHROMATOGRAPHY: FLOW_RATE 0.3 mL/min
AC$CHROMATOGRAPHY: RETENTION_TIME 4.69 min
AC$CHROMATOGRAPHY: SOLVENT A: Water 0.1% Formic acid, B: Acetonitrile 0.1% Formic acid
MS$FOCUSED_ION: PRECURSOR_M/Z 144.0808
MS$FOCUSED_ION: PRECURSOR_TYPE [M+H]+
MS$DATA_PROCESSING: COMMENT Export with Spectra 1.9.12 MsBackendMassbank 1.7.4
MS$DATA_PROCESSING: WHOLE RMassBank 2.3.1
PK$SPLASH: splash10-0ufr-9300000000-8c2a9f50b6d399b5e8f9
PK$NUM_PEAK: 28
PK$PEAK: m/z int. rel.int.
  39.0229 1 24
  50.015 7 168
  51.0232 41.5 999
  52.0317 0.6 14
  63.0231 1.3 31
  65.0387 1.4 33
  74.0154 2.4 57
  75.023 5.9 142
  76.0311 3 72
  77.0389 32.3 777
  78.0468 1.4 33
  89.0383 3.3 79
  90.0461 0.6 14
  91.0546 1.7 40
  101.0391 6 144
  102.0471 10.9 262
  103.0548 0.7 16
  115.055 10.7 257
  116.049 0.5 12
  116.0634 0.8 19
  117.0583 1.7 40
  127.0413 0.4 9
  128.0501 6.1 146
  129.0558 0.5 12
  140.051 0.8 19
  141.0571 1.1 26
  142.0641 0.7 16
  143.0739 2.1 50
//
