ACCESSION: MSBNK-BAFG-CSL2310266402
RECORD_TITLE: Iotalamic acid; LC-ESI-QTOF; MS2; 40 V
DATE: 2023.10.26
AUTHORS: Kevin S. Jewell; Björn Ehlig; Arne Wick
LICENSE: dl-de/by-2-0
COPYRIGHT: Copyright 2023 Federal Institute of Hydrology, Koblenz, Germany
COMMENT: CONFIDENCE Reference Standard (Level 1)
COMMENT: Chromatography method: dx.doi.org/10.1016/j.chroma.2015.11.014
COMMENT: Acquisition method: 10.1002/rcm.8541
CH$NAME: Iotalamic acid
CH$COMPOUND_CLASS: Pharmaceutical
CH$FORMULA: C11H9I3N2O4
CH$EXACT_MASS: 613.7697
CH$SMILES: CNC(c1c(I)c(C(O)=O)c(I)c(NC(C)=O)c1I)=O
CH$IUPAC: InChI=1S/C11H9I3N2O4/c1-3(17)16-9-7(13)4(10(18)15-2)6(12)5(8(9)14)11(19)20/h1-2H3,(H,15,18)(H,16,17)(H,19,20)
CH$LINK: CAS 2276-90-6
CH$LINK: INCHIKEY UXIGWFXRQKWHHA-UHFFFAOYSA-N
AC$INSTRUMENT: TripleTOF 5600 SCIEX
AC$INSTRUMENT_TYPE: LC-ESI-QTOF
AC$MASS_SPECTROMETRY: MS_TYPE MS2
AC$MASS_SPECTROMETRY: ION_MODE POSITIVE
AC$MASS_SPECTROMETRY: COLLISION_ENERGY 40
AC$MASS_SPECTROMETRY: FRAGMENTATION_MODE CID
AC$MASS_SPECTROMETRY: IONIZATION ESI
AC$CHROMATOGRAPHY: COLUMN_NAME Zorbax Eclipse Plus C18 2.1 mm x 150 mm, 3.5 um, Agilent
AC$CHROMATOGRAPHY: COLUMN_TEMPERATURE 40 °C
AC$CHROMATOGRAPHY: FLOW_GRADIENT 0 min min 98% A, 1 min 98% A, 2 min 80% A, 16.5 min 2% A, 22 min 2% A, 22.1 min 98% A, 27 min 98% A
AC$CHROMATOGRAPHY: FLOW_RATE 0.3 mL/min
AC$CHROMATOGRAPHY: RETENTION_TIME 4.565 min
AC$CHROMATOGRAPHY: SOLVENT A: Water 0.1% Formic acid, B: Acetonitrile 0.1% Formic acid
MS$FOCUSED_ION: PRECURSOR_M/Z 614.7769
MS$FOCUSED_ION: PRECURSOR_TYPE [M+H]+
MS$DATA_PROCESSING: COMMENT Export with Spectra 1.9.12 MsBackendMassbank 1.7.4
MS$DATA_PROCESSING: WHOLE RMassBank 2.3.1
PK$SPLASH: splash10-03fr-0007900000-87c7d974ee4cd18df699
PK$NUM_PEAK: 28
PK$PEAK: m/z int. rel.int.
  177.0425 6.4 155
  257.9417 0.7 17
  272.9262 0.5 12
  273.9388 0.7 17
  284.9331 0.6 14
  289.9309 1.8 43
  300.9483 3.7 90
  301.932 10 243
  302.9375 1.3 31
  303.9488 0.6 14
  314.9701 1.3 31
  318.9551 2.3 56
  329.932 0.9 21
  360.9689 41 999
  388.8408 1.8 43
  409.8318 0.4 9
  411.8305 1.5 36
  415.8275 0.7 17
  428.8369 15.8 384
  429.8474 2 48
  430.8577 0.6 14
  445.8613 6.1 148
  455.8242 19.9 484
  456.8328 1.2 29
  468.8537 15 365
  486.8653 7.2 175
  487.8624 0.5 12
  583.7374 1.6 38
//
