ACCESSION: MSBNK-BAFG-CSL23111019359
RECORD_TITLE: Ecgonine ethyl ester; LC-ESI-QTOF; MS2; 70 V
DATE: 2023.11.10
AUTHORS: Kevin S. Jewell; Björn Ehlig; Arne Wick
LICENSE: dl-de/by-2-0
COPYRIGHT: Copyright 2023 Federal Institute of Hydrology, Koblenz, Germany
COMMENT: CONFIDENCE Reference Standard (Level 1)
COMMENT: Chromatography method: dx.doi.org/10.1016/j.chroma.2015.11.014
COMMENT: Acquisition method: 10.1002/rcm.8541
CH$NAME: Ecgonine ethyl ester
CH$FORMULA: C11H19NO3
CH$EXACT_MASS: 213.1365
CH$SMILES: CCOC(=O)C1C2CCC(N2C)CC1O
CH$IUPAC: InChI=1S/C11H19NO3/c1-3-15-11(14)10-8-5-4-7(12(8)2)6-9(10)13/h7-10,13H,3-6H2,1-2H3
CH$LINK: CAS 70939-97-8
CH$LINK: INCHIKEY ABDMBNAKYBUEEX-UHFFFAOYSA-N
AC$INSTRUMENT: TripleTOF 6600 SCIEX
AC$INSTRUMENT_TYPE: LC-ESI-QTOF
AC$MASS_SPECTROMETRY: MS_TYPE MS2
AC$MASS_SPECTROMETRY: ION_MODE POSITIVE
AC$MASS_SPECTROMETRY: COLLISION_ENERGY 70
AC$MASS_SPECTROMETRY: FRAGMENTATION_MODE CID
AC$MASS_SPECTROMETRY: IONIZATION ESI
AC$CHROMATOGRAPHY: COLUMN_NAME Zorbax Eclipse Plus C18 2.1 mm x 150 mm, 3.5 um, Agilent
AC$CHROMATOGRAPHY: COLUMN_TEMPERATURE 40 °C
AC$CHROMATOGRAPHY: FLOW_GRADIENT 0 min min 98% A, 1 min 98% A, 2 min 80% A, 16.5 min 2% A, 22 min 2% A, 22.1 min 98% A, 27 min 98% A
AC$CHROMATOGRAPHY: FLOW_RATE 0.3 mL/min
AC$CHROMATOGRAPHY: RETENTION_TIME 2.108 min
AC$CHROMATOGRAPHY: SOLVENT A: Water 0.1% Formic acid, B: Acetonitrile 0.1% Formic acid
MS$FOCUSED_ION: PRECURSOR_M/Z 214.1438
MS$FOCUSED_ION: PRECURSOR_TYPE [M+H]+
MS$DATA_PROCESSING: COMMENT Export with Spectra 1.9.12 MsBackendMassbank 1.7.4
MS$DATA_PROCESSING: WHOLE RMassBank 2.3.1
PK$SPLASH: splash10-00l6-9000000000-f29b8c376e63e6791c00
PK$NUM_PEAK: 38
PK$PEAK: m/z int. rel.int.
  37.0083 0.3 63
  38.0161 0.2 42
  39.024 1.1 233
  41.0398 1.4 297
  42.0346 1.6 340
  43.0184 0.2 42
  51.0235 0.5 106
  53.0405 0.5 106
  54.0353 0.1 21
  55.0182 0.3 63
  55.0549 0.6 127
  56.0505 0.2 42
  57.0583 0.3 63
  58.0293 0.1 21
  58.0651 0.1 21
  65.0397 1.4 297
  67.0426 2.4 510
  67.0547 0.7 148
  68.0499 2.4 510
  69.0332 0.2 42
  70.0666 0.1 21
  71.0139 0.3 63
  77.039 0.8 170
  78.0344 0.1 21
  78.0447 0.2 42
  79.0428 0.3 63
  79.0548 0.3 63
  80.0507 0.7 148
  81.0578 0.3 63
  82.0661 4.7 999
  83.0503 0.1 21
  83.0725 0.6 127
  84.0812 0.3 63
  91.0543 0.9 191
  93.0581 0.2 42
  94.0654 2.4 510
  106.0654 0.2 42
  107.0708 0.1 21
//
