ACCESSION: MSBNK-BAFG-CSL23102618783
RECORD_TITLE: Picolinafen; LC-ESI-QTOF; MS2; 120 V
DATE: 2023.10.26
AUTHORS: Kevin S. Jewell; Björn Ehlig; Arne Wick
LICENSE: dl-de/by-2-0
COPYRIGHT: Copyright 2023 Federal Institute of Hydrology, Koblenz, Germany
COMMENT: CONFIDENCE Reference Standard (Level 1)
COMMENT: Chromatography method: dx.doi.org/10.1016/j.chroma.2015.11.014
COMMENT: Acquisition method: 10.1002/rcm.8541
CH$NAME: Picolinafen
CH$COMPOUND_CLASS: Herbicide
CH$FORMULA: C19H12F4N2O2
CH$EXACT_MASS: 376.0835
CH$SMILES: C1=CC(=CC(=C1)OC2=CC=CC(=N2)C(=O)NC3=CC=C(C=C3)F)C(F)(F)F
CH$IUPAC: InChI=1S/C19H12F4N2O2/c20-13-7-9-14(10-8-13)24-18(26)16-5-2-6-17(25-16)27-15-4-1-3-12(11-15)19(21,22)23/h1-11H,(H,24,26)
CH$LINK: CAS 137641-05-5
CH$LINK: INCHIKEY CWKFPEBMTGKLKX-UHFFFAOYSA-N
AC$INSTRUMENT: TripleTOF 6600 SCIEX
AC$INSTRUMENT_TYPE: LC-ESI-QTOF
AC$MASS_SPECTROMETRY: MS_TYPE MS2
AC$MASS_SPECTROMETRY: ION_MODE POSITIVE
AC$MASS_SPECTROMETRY: COLLISION_ENERGY 120
AC$MASS_SPECTROMETRY: FRAGMENTATION_MODE CID
AC$MASS_SPECTROMETRY: IONIZATION ESI
AC$CHROMATOGRAPHY: COLUMN_NAME Zorbax Eclipse Plus C18 2.1 mm x 150 mm, 3.5 um, Agilent
AC$CHROMATOGRAPHY: COLUMN_TEMPERATURE 40 °C
AC$CHROMATOGRAPHY: FLOW_GRADIENT 0 min min 98% A, 1 min 98% A, 2 min 80% A, 16.5 min 2% A, 22 min 2% A, 22.1 min 98% A, 27 min 98% A
AC$CHROMATOGRAPHY: FLOW_RATE 0.3 mL/min
AC$CHROMATOGRAPHY: RETENTION_TIME 15.501 min
AC$CHROMATOGRAPHY: SOLVENT A: Water 0.1% Formic acid, B: Acetonitrile 0.1% Formic acid
MS$FOCUSED_ION: PRECURSOR_M/Z 377.0908
MS$FOCUSED_ION: PRECURSOR_TYPE [M+H]+
MS$DATA_PROCESSING: COMMENT Export with Spectra 1.9.12 MsBackendMassbank 1.7.4
MS$DATA_PROCESSING: WHOLE RMassBank 2.3.1
PK$SPLASH: splash10-004j-9200000000-8649df647807e9cc8ff3
PK$NUM_PEAK: 39
PK$PEAK: m/z int. rel.int.
  35.9986 0.5 10
  37.0065 2.7 55
  38.0139 2.3 46
  39.0221 12 244
  50.0146 0.6 12
  51.0025 2.6 53
  51.0211 0.5 10
  57.0127 1.9 38
  68.9933 5.6 114
  69.0122 1.6 32
  73.0051 1.9 38
  74.0134 22.7 462
  75.0033 9.7 197
  75.0209 49 999
  81.0112 2.1 42
  83.0284 0.7 14
  92.9922 0.7 14
  95.0094 1 20
  95.0273 24.4 497
  98.0129 0.9 18
  99.0017 4.6 93
  105.0118 0.7 14
  107.0257 0.6 12
  113.0361 2.1 42
  114.0283 0.7 14
  114.0437 0.7 14
  117.0097 0.8 16
  119.0085 2.9 59
  122.0113 1 20
  123.0327 6.4 130
  124.0171 0.8 16
  125.0174 9.2 187
  132.0323 0.7 14
  133.044 1.3 26
  140.0476 1.8 36
  143.0306 1.2 24
  145.0231 11.6 236
  162.0244 0.9 18
  182.032 0.9 18
//
