ACCESSION: MSBNK-BAFG-CSL25011734697
RECORD_TITLE: Azo Rubin S; LC-ESI-QTOF; MS2; 30 V
DATE: 2025.01.17
AUTHORS: Ole Lessmann; Kevin S. Jewell; Björn Ehlig; Arne Wick
LICENSE: dl-de/by-2-0
COPYRIGHT: Copyright 2025 Federal Institute of Hydrology, Koblenz, Germany
COMMENT: CONFIDENCE Reference Standard (Level 1)
COMMENT: Chromatography method: dx.doi.org/10.1016/j.chroma.2015.11.014
CH$NAME: Azo Rubin S
CH$FORMULA: C20H14N2O7S2
CH$EXACT_MASS: 458.0242
CH$SMILES: C1=CC=C2C(=C1)C(=CC=C2S(=O)(=O)O)N=NC3=C(C4=CC=CC=C4C(=C3)S(=O)(=O)O)O
CH$IUPAC: InChI=1S/C20H14N2O7S2/c23-20-15-8-4-3-7-14(15)19(31(27,28)29)11-17(20)22-21-16-9-10-18(30(24,25)26)13-6-2-1-5-12(13)16/h1-11,23H,(H,24,25,26)(H,27,28,29)
CH$LINK: CAS 13613-55-3
CH$LINK: INCHIKEY TVWOWDDBXAFQDG-UHFFFAOYSA-N
AC$INSTRUMENT: TripleTOF 6600 SCIEX
AC$INSTRUMENT_TYPE: LC-ESI-QTOF
AC$MASS_SPECTROMETRY: MS_TYPE MS2
AC$MASS_SPECTROMETRY: ION_MODE NEGATIVE
AC$MASS_SPECTROMETRY: COLLISION_ENERGY 30
AC$MASS_SPECTROMETRY: FRAGMENTATION_MODE CID
AC$MASS_SPECTROMETRY: IONIZATION ESI
AC$CHROMATOGRAPHY: COLUMN_NAME Zorbax Eclipse Plus C18 2.1 mm x 150 mm, 3.5 um, Agilent
AC$CHROMATOGRAPHY: COLUMN_TEMPERATURE 40 °C
AC$CHROMATOGRAPHY: FLOW_GRADIENT 0 min min 98% A, 1 min 98% A, 2 min 80% A, 16.5 min 2% A, 22 min 2% A, 22.1 min 98% A, 27 min 98% A
AC$CHROMATOGRAPHY: FLOW_RATE 0.3 mL/min
AC$CHROMATOGRAPHY: RETENTION_TIME 7.286 min
AC$CHROMATOGRAPHY: SOLVENT A: Water 0.1% Formic acid, B: Acetonitrile 0.1% Formic acid
MS$FOCUSED_ION: PRECURSOR_M/Z 228.0053
MS$FOCUSED_ION: PRECURSOR_TYPE [M-2H]2-
MS$DATA_PROCESSING: COMMENT Export with pycsl 0.1.0.dev1 and CSL 25.0
PK$SPLASH: splash10-00di-1950000000-ea3957a656df06ddc3b1
PK$NUM_PEAK: 39
PK$PEAK: m/z int. rel.int.
  63.9624 97.6667 20
  65.9985 11.7644 2
  79.7098 2.4063 0
  79.9578 587.14 122
  80.9648 4.7184 0
  101.0399 3.6567 0
  102.0353 18.0855 3
  115.0427 22.1864 4
  116.0271 1.4675 0
  126.035 11.3892 2
  129.0341 7.7225 1
  140.0503 70.4801 14
  141.057 1.2871 0
  142.0425 3.3259 0
  143.0497 8.848 1
  145.0291 22.9353 4
  155.039 1.2165 0
  157.0534 148.1898 30
  158.0373 20.4123 4
  169.4907 20.4812 4
  170.0254 4802.2363 999
  171.0296 42.242 8
  171.8082 1.0534 0
  172.0407 38.2312 7
  172.6788 1.5698 0
  194.0032 20.1056 4
  206.0047 137.7473 28
  207.0117 5.02 1
  220.0063 1.6636 0
  220.319 12.1173 2
  221.0155 3065.8296 637
  221.8504 1.1416 0
  222.0005 4.1141 0
  222.017 11.8125 2
  236.0019 31.0816 6
  267.0818 1.6781 0
  282.0696 2.8362 0
  283.0769 18.6512 3
  347.0389 26.0917 5
//
