ACCESSION: MSBNK-BAFG-CSL25010627884
RECORD_TITLE: Cyproconazole; LC-ESI-QTOF; MS2; 90 V
DATE: 2025.01.06
AUTHORS: Ole Lessmann; Kevin S. Jewell; Björn Ehlig; Arne Wick
LICENSE: dl-de/by-2-0
COPYRIGHT: Copyright 2025 Federal Institute of Hydrology, Koblenz, Germany
COMMENT: CONFIDENCE Reference Standard (Level 1)
COMMENT: Chromatography method: dx.doi.org/10.1016/j.chroma.2015.11.014
COMMENT: Acquisition method: 10.1002/rcm.8541
CH$NAME: Cyproconazole
CH$COMPOUND_CLASS: Fungicide
CH$FORMULA: C15H18ClN3O
CH$EXACT_MASS: 291.1138
CH$SMILES: CC(C1CC1)C(CN2C=NC=N2)(C3=CC=C(C=C3)Cl)O
CH$IUPAC: InChI=1S/C15H18ClN3O/c1-11(12-2-3-12)15(20,8-19-10-17-9-18-19)13-4-6-14(16)7-5-13/h4-7,9-12,20H,2-3,8H2,1H3
CH$LINK: CAS 94361-06-5
CH$LINK: INCHIKEY UFNOUKDBUJZYDE-UHFFFAOYSA-N
AC$INSTRUMENT: TripleTOF 6600 SCIEX
AC$INSTRUMENT_TYPE: LC-ESI-QTOF
AC$MASS_SPECTROMETRY: MS_TYPE MS2
AC$MASS_SPECTROMETRY: ION_MODE POSITIVE
AC$MASS_SPECTROMETRY: COLLISION_ENERGY 90
AC$MASS_SPECTROMETRY: FRAGMENTATION_MODE CID
AC$MASS_SPECTROMETRY: IONIZATION ESI
AC$CHROMATOGRAPHY: COLUMN_NAME Zorbax Eclipse Plus C18 2.1 mm x 150 mm, 3.5 um, Agilent
AC$CHROMATOGRAPHY: COLUMN_TEMPERATURE 40 °C
AC$CHROMATOGRAPHY: FLOW_GRADIENT 0 min min 98% A, 1 min 98% A, 2 min 80% A, 16.5 min 2% A, 22 min 2% A, 22.1 min 98% A, 27 min 98% A
AC$CHROMATOGRAPHY: FLOW_RATE 0.3 mL/min
AC$CHROMATOGRAPHY: RETENTION_TIME 11.30515 min
AC$CHROMATOGRAPHY: SOLVENT A: Water 0.1% Formic acid, B: Acetonitrile 0.1% Formic acid
MS$FOCUSED_ION: PRECURSOR_M/Z 292.1211
MS$FOCUSED_ION: PRECURSOR_TYPE [M+H]+
MS$DATA_PROCESSING: COMMENT Export with pycsl 0.1.0.dev1 and CSL 24.4
PK$SPLASH: splash10-00di-9100000000-7311444d91092f90d724
PK$NUM_PEAK: 22
PK$PEAK: m/z int. rel.int.
  39.0194 10.7 38
  41.035 3.4 12
  43.0254 45.5 164
  48.9791 3.6 13
  51.018 3.8 13
  62.0095 9.0 32
  63.0173 50.4 182
  64.0247 3.6 13
  65.0326 7.5 27
  70.034 276.2 999
  72.9771 34.7 125
  74.0081 7.8 28
  74.9925 6.0 21
  75.0159 25.7 92
  77.0313 5.3 19
  89.0307 155.3 561
  90.0382 51.6 186
  98.9906 82.5 298
  110.9891 9.4 33
  115.0435 5.5 19
  125.0036 74.7 270
  128.0501 4.9 17
//