ACCESSION: MSBNK-BAFG-CSL2310254331
RECORD_TITLE: Losartan; LC-ESI-QTOF; MS2; 50 V
DATE: 2023.10.25
AUTHORS: Kevin S. Jewell; Björn Ehlig; Arne Wick
LICENSE: dl-de/by-2-0
COPYRIGHT: Copyright 2023 Federal Institute of Hydrology, Koblenz, Germany
COMMENT: CONFIDENCE Reference Standard (Level 1)
COMMENT: Chromatography method: dx.doi.org/10.1016/j.chroma.2015.11.014
COMMENT: Acquisition method: 10.1002/rcm.8541
CH$NAME: Losartan
CH$COMPOUND_CLASS: Pharmaceutical
CH$FORMULA: C22H23ClN6O
CH$EXACT_MASS: 422.1622
CH$SMILES: CCCCc1nc(c(n1Cc2ccc(cc2)c3ccccc3c4n[nH]nn4)CO)Cl
CH$IUPAC: InChI=1S/C22H23ClN6O/c1-2-3-8-20-24-21(23)19(14-30)29(20)13-15-9-11-16(12-10-15)17-6-4-5-7-18(17)22-25-27-28-26-22/h4-7,9-12,30H,2-3,8,13-14H2,1H3,(H,25,26,27,28)
CH$LINK: CAS 114798-26-4
CH$LINK: INCHIKEY PSIFNNKUMBGKDQ-UHFFFAOYSA-N
AC$INSTRUMENT: TripleTOF 5600 SCIEX
AC$INSTRUMENT_TYPE: LC-ESI-QTOF
AC$MASS_SPECTROMETRY: MS_TYPE MS2
AC$MASS_SPECTROMETRY: ION_MODE POSITIVE
AC$MASS_SPECTROMETRY: COLLISION_ENERGY 50
AC$MASS_SPECTROMETRY: FRAGMENTATION_MODE CID
AC$MASS_SPECTROMETRY: IONIZATION ESI
AC$CHROMATOGRAPHY: COLUMN_NAME Zorbax Eclipse Plus C18 2.1 mm x 150 mm, 3.5 um, Agilent
AC$CHROMATOGRAPHY: COLUMN_TEMPERATURE 40 °C
AC$CHROMATOGRAPHY: FLOW_GRADIENT 0 min min 98% A, 1 min 98% A, 2 min 80% A, 16.5 min 2% A, 22 min 2% A, 22.1 min 98% A, 27 min 98% A
AC$CHROMATOGRAPHY: FLOW_RATE 0.3 mL/min
AC$CHROMATOGRAPHY: RETENTION_TIME 9.819 min
AC$CHROMATOGRAPHY: SOLVENT A: Water 0.1% Formic acid, B: Acetonitrile 0.1% Formic acid
MS$FOCUSED_ION: PRECURSOR_M/Z 423.1695
MS$FOCUSED_ION: PRECURSOR_TYPE [M+H]+
MS$DATA_PROCESSING: COMMENT Export with Spectra 1.9.12 MsBackendMassbank 1.7.4
MS$DATA_PROCESSING: WHOLE RMassBank 2.3.1
PK$SPLASH: splash10-0a4i-0980000000-0fd3ca481b84552ff54d
PK$NUM_PEAK: 34
PK$PEAK: m/z int. rel.int.
  77.0411 4 16
  79.057 2.7 11
  80.0518 3.9 16
  129.0227 4.1 17
  129.0442 3.9 16
  135.0914 2.9 12
  140.0501 4.6 19
  142.0285 15.2 63
  151.0541 8.8 36
  152.0626 14 58
  153.0697 21.8 90
  163.0535 5.1 21
  165.0694 14.2 59
  166.0698 5.1 21
  167.0724 7.4 30
  171.0682 32.2 134
  178.0667 37.6 156
  179.0731 31.6 131
  180.0807 155.5 648
  190.0651 56.5 235
  191.0723 13.4 55
  192.0754 80.5 335
  205.0765 67.3 280
  206.0841 116.7 486
  207.0916 239.7 999
  214.065 6.8 28
  216.0816 3.5 14
  231.0914 3 12
  241.0756 18.6 77
  242.0831 3.2 13
  243.0915 4.5 18
  258.103 8.9 37
  281.094 6 25
  282.1005 2.8 11
//
