ACCESSION: MSBNK-BAFG-CSL25010634188
RECORD_TITLE: 4'-O-Demethyl pantoprazole sulfide; LC-ESI-QTOF; MS2; 100 V
DATE: 2025.01.06
AUTHORS: Ole Lessmann; Kevin S. Jewell; Björn Ehlig; Arne Wick
LICENSE: dl-de/by-2-0
COPYRIGHT: Copyright 2025 Federal Institute of Hydrology, Koblenz, Germany
COMMENT: CONFIDENCE Reference Standard (Level 1)
COMMENT: Chromatography method: dx.doi.org/10.1016/j.chroma.2015.11.014
COMMENT: Acquisition method: 10.1002/rcm.8541
CH$NAME: 4'-O-Demethyl pantoprazole sulfide
CH$COMPOUND_CLASS: Pharmaceutical; Transformation_product-Metabolite
CH$FORMULA: C15H13F2N3O3S
CH$EXACT_MASS: 353.0646
CH$SMILES: COC1=C(NC=CC1=O)CSC2=NC3=C(N2)C=C(C=C3)OC(F)F
CH$IUPAC: InChI=1S/C15H13F2N3O3S/c1-22-13-11(18-5-4-12(13)21)7-24-15-19-9-3-2-8(23-14(16)17)6-10(9)20-15/h2-6,14H,7H2,1H3,(H,18,21)(H,19,20)
CH$LINK: CAS 141854-21-9
CH$LINK: INCHIKEY ILLQTAPXYCRJRB-UHFFFAOYSA-N
AC$INSTRUMENT: TripleTOF 6600 SCIEX
AC$INSTRUMENT_TYPE: LC-ESI-QTOF
AC$MASS_SPECTROMETRY: MS_TYPE MS2
AC$MASS_SPECTROMETRY: ION_MODE POSITIVE
AC$MASS_SPECTROMETRY: COLLISION_ENERGY 100
AC$MASS_SPECTROMETRY: FRAGMENTATION_MODE CID
AC$MASS_SPECTROMETRY: IONIZATION ESI
AC$CHROMATOGRAPHY: COLUMN_NAME Zorbax Eclipse Plus C18 2.1 mm x 150 mm, 3.5 um, Agilent
AC$CHROMATOGRAPHY: COLUMN_TEMPERATURE 40 °C
AC$CHROMATOGRAPHY: FLOW_GRADIENT 0 min min 98% A, 1 min 98% A, 2 min 80% A, 16.5 min 2% A, 22 min 2% A, 22.1 min 98% A, 27 min 98% A
AC$CHROMATOGRAPHY: FLOW_RATE 0.3 mL/min
AC$CHROMATOGRAPHY: RETENTION_TIME 7.57 min
AC$CHROMATOGRAPHY: SOLVENT A: Water 0.1% Formic acid, B: Acetonitrile 0.1% Formic acid
MS$FOCUSED_ION: PRECURSOR_M/Z 354.0719
MS$FOCUSED_ION: PRECURSOR_TYPE [M+H]+
MS$DATA_PROCESSING: COMMENT Export with pycsl 0.1.0.dev1 and CSL 24.4
PK$SPLASH: splash10-0uy0-9200000000-51bdf0e7c30133d77456
PK$NUM_PEAK: 71
PK$PEAK: m/z int. rel.int.
  37.0061 3.5 48
  38.0143 5.0 69
  39.0225 27.9 386
  40.0177 0.9 12
  41.0255 5.1 70
  41.0382 1.4 19
  42.0331 14.9 206
  43.0173 2.9 40
  44.0121 1.7 23
  51.0224 2.8 38
  52.0172 3.1 42
  53.0013 4.9 67
  53.0378 72.1 999
  54.0333 4.8 66
  55.017 5.4 74
  57.9866 0.8 11
  62.0145 1.9 26
  63.0218 21.6 299
  64.0175 3.5 48
  65.0371 7.0 96
  66.0092 15.2 210
  66.0331 7.5 103
  66.0441 2.2 30
  67.0169 23.1 320
  67.0402 22.4 310
  68.0119 7.9 109
  68.0493 1.6 22
  70.0278 6.3 87
  70.9937 2.5 34
  72.0008 1.0 13
  78.0324 3.1 42
  79.0403 2.1 29
  80.0126 2.4 33
  80.0483 29.6 410
  81.0322 5.8 80
  82.0282 0.8 11
  82.0644 1.2 16
  83.0346 4.9 67
  86.0052 2.1 29
  90.0325 7.9 109
  91.0403 2.0 27
  92.0477 9.3 128
  93.0557 3.9 54
  94.0277 14.8 205
  95.0351 10.5 145
  96.0428 11.3 156
  98.0029 2.7 37
  99.0132 4.1 56
  106.0512 2.1 29
  107.0578 4.7 65
  108.0429 9.9 137
  109.0522 1.7 23
  110.0597 3.6 49
  111.0301 2.5 34
  117.0429 6.7 92
  118.0512 7.8 108
  120.0421 2.3 31
  125.9995 21.6 299
  126.052 0.9 12
  127.0069 2.7 37
  134.0464 1.4 19
  135.0538 11.1 153
  136.0376 15.5 214
  137.0155 2.5 34
  138.0523 1.4 19
  140.015 1.2 16
  141.0455 0.7 9
  142.0494 1.3 18
  155.0 0.9 12
  159.0527 1.3 18
  166.0173 1.3 18
//