ACCESSION: MSBNK-BAFG-CSL23102618458
RECORD_TITLE: Bisoprolol; LC-ESI-QTOF; MS2; 150 V
DATE: 2023.10.26
AUTHORS: Kevin S. Jewell; Björn Ehlig; Arne Wick
LICENSE: dl-de/by-2-0
COPYRIGHT: Copyright 2023 Federal Institute of Hydrology, Koblenz, Germany
COMMENT: CONFIDENCE Reference Standard (Level 1)
COMMENT: Chromatography method: dx.doi.org/10.1016/j.chroma.2015.11.014
COMMENT: Acquisition method: 10.1002/rcm.8541
CH$NAME: Bisoprolol
CH$COMPOUND_CLASS: Pharmaceutical
CH$FORMULA: C18H31NO4
CH$EXACT_MASS: 325.2253
CH$SMILES: CC(C)NCC(COC1=CC=C(C=C1)COCCOC(C)C)O
CH$IUPAC: InChI=1S/C18H31NO4/c1-14(2)19-11-17(20)13-23-18-7-5-16(6-8-18)12-21-9-10-22-15(3)4/h5-8,14-15,17,19-20H,9-13H2,1-4H3
CH$LINK: CAS 66722-44-9
CH$LINK: INCHIKEY VHYCDWMUTMEGQY-UHFFFAOYSA-N
AC$INSTRUMENT: TripleTOF 6600 SCIEX
AC$INSTRUMENT_TYPE: LC-ESI-QTOF
AC$MASS_SPECTROMETRY: MS_TYPE MS2
AC$MASS_SPECTROMETRY: ION_MODE POSITIVE
AC$MASS_SPECTROMETRY: COLLISION_ENERGY 150
AC$MASS_SPECTROMETRY: FRAGMENTATION_MODE CID
AC$MASS_SPECTROMETRY: IONIZATION ESI
AC$CHROMATOGRAPHY: COLUMN_NAME Zorbax Eclipse Plus C18 2.1 mm x 150 mm, 3.5 um, Agilent
AC$CHROMATOGRAPHY: COLUMN_TEMPERATURE 40 °C
AC$CHROMATOGRAPHY: FLOW_GRADIENT 0 min min 98% A, 1 min 98% A, 2 min 80% A, 16.5 min 2% A, 22 min 2% A, 22.1 min 98% A, 27 min 98% A
AC$CHROMATOGRAPHY: FLOW_RATE 0.3 mL/min
AC$CHROMATOGRAPHY: RETENTION_TIME 7.01 min
AC$CHROMATOGRAPHY: SOLVENT A: Water 0.1% Formic acid, B: Acetonitrile 0.1% Formic acid
MS$FOCUSED_ION: PRECURSOR_M/Z 326.2326
MS$FOCUSED_ION: PRECURSOR_TYPE [M+H]+
MS$DATA_PROCESSING: COMMENT Export with Spectra 1.9.12 MsBackendMassbank 1.7.4
MS$DATA_PROCESSING: WHOLE RMassBank 2.3.1
PK$SPLASH: splash10-03dr-9000000000-adab053bff54caa17018
PK$NUM_PEAK: 32
PK$PEAK: m/z int. rel.int.
  30.0332 4 160
  35.9991 0.9 36
  37.0065 6.8 272
  38.0025 1.5 60
  38.0145 6.6 264
  39.0227 23.7 950
  41.0379 6.3 252
  42.0099 0.4 16
  42.033 1.2 48
  43.0169 1.1 44
  43.0534 0.6 24
  44.0488 1.3 52
  45.0328 1.8 72
  49.0076 0.4 16
  50.0143 5.9 236
  51.0221 13.5 541
  52.0294 0.6 24
  53.0128 0.6 24
  53.0379 0.5 20
  55.0167 0.6 24
  56.0495 0.7 28
  58.0662 0.4 16
  59.9984 2 80
  61.0063 9.9 397
  62.0147 21 842
  63.0219 24.9 999
  65.037 2.6 104
  74.013 0.8 32
  77.0378 7 280
  89.0371 2.5 100
  91.0531 0.4 16
  115.0543 0.9 36
//
