ACCESSION: MSBNK-BAFG-CSL2310268940
RECORD_TITLE: Sildenafil; LC-ESI-QTOF; MS2; 60 V
DATE: 2023.10.26
AUTHORS: Kevin S. Jewell; Björn Ehlig; Arne Wick
LICENSE: dl-de/by-2-0
COPYRIGHT: Copyright 2023 Federal Institute of Hydrology, Koblenz, Germany
COMMENT: CONFIDENCE Reference Standard (Level 1)
COMMENT: Chromatography method: dx.doi.org/10.1016/j.chroma.2015.11.014
COMMENT: Acquisition method: 10.1002/rcm.8541
CH$NAME: Sildenafil
CH$COMPOUND_CLASS: Pharmaceutical
CH$FORMULA: C22H30N6O4S
CH$EXACT_MASS: 474.2049
CH$SMILES: CCCC1=NN(C2=C1NC(=NC2=O)C3=C(C=CC(=C3)S(=O)(=O)N4CCN(CC4)C)OCC)C
CH$IUPAC: InChI=1S/C22H30N6O4S/c1-5-7-17-19-20(27(4)25-17)22(29)24-21(23-19)16-14-15(8-9-18(16)32-6-2)33(30,31)28-12-10-26(3)11-13-28/h8-9,14H,5-7,10-13H2,1-4H3,(H,23,24,29)
CH$LINK: CAS 139755-83-2
CH$LINK: INCHIKEY BNRNXUUZRGQAQC-UHFFFAOYSA-N
AC$INSTRUMENT: TripleTOF 5600 SCIEX
AC$INSTRUMENT_TYPE: LC-ESI-QTOF
AC$MASS_SPECTROMETRY: MS_TYPE MS2
AC$MASS_SPECTROMETRY: ION_MODE POSITIVE
AC$MASS_SPECTROMETRY: COLLISION_ENERGY 60
AC$MASS_SPECTROMETRY: FRAGMENTATION_MODE CID
AC$MASS_SPECTROMETRY: IONIZATION ESI
AC$CHROMATOGRAPHY: COLUMN_NAME Zorbax Eclipse Plus C18 2.1 mm x 150 mm, 3.5 um, Agilent
AC$CHROMATOGRAPHY: COLUMN_TEMPERATURE 40 °C
AC$CHROMATOGRAPHY: FLOW_GRADIENT 0 min min 98% A, 1 min 98% A, 2 min 80% A, 16.5 min 2% A, 22 min 2% A, 22.1 min 98% A, 27 min 98% A
AC$CHROMATOGRAPHY: FLOW_RATE 0.3 mL/min
AC$CHROMATOGRAPHY: RETENTION_TIME 7.283 min
AC$CHROMATOGRAPHY: SOLVENT A: Water 0.1% Formic acid, B: Acetonitrile 0.1% Formic acid
MS$FOCUSED_ION: PRECURSOR_M/Z 475.2122
MS$FOCUSED_ION: PRECURSOR_TYPE [M+H]+
MS$DATA_PROCESSING: COMMENT Export with Spectra 1.9.12 MsBackendMassbank 1.7.4
MS$DATA_PROCESSING: WHOLE RMassBank 2.3.1
PK$SPLASH: splash10-053r-4090000000-dd65eace9589e910d4fb
PK$NUM_PEAK: 54
PK$PEAK: m/z int. rel.int.
  42.047 1.7 22
  56.0575 3.7 49
  58.0741 53.2 707
  70.0712 7.7 102
  84.0717 1.5 19
  97.0792 1.2 15
  98.0864 0.8 10
  99.0939 14.8 196
  100.102 11.8 156
  101.1087 0.8 10
  136.0512 1.2 15
  166.0948 3.5 46
  186.0649 0.8 10
  211.0981 0.9 11
  212.0645 1.1 14
  212.094 1.3 17
  213.0781 2.3 30
  223.0765 0.9 11
  225.0789 2.8 37
  226.0826 4.5 59
  227.0903 3 39
  228.1082 1.4 18
  238.0918 1.3 17
  239.056 1.3 17
  239.0908 2.3 30
  240.1033 1.4 18
  241.0717 2.1 27
  250.0758 0.9 11
  253.07 3.8 50
  254.0785 16.5 219
  255.0909 2.5 33
  255.1222 14.1 187
  256.0998 2.4 31
  267.086 2.7 35
  267.1228 1 13
  268.098 1.3 17
  269.1055 1.4 18
  269.133 1.5 19
  278.1153 2.7 35
  281.0948 0.8 10
  282.1085 3.9 51
  283.118 75.1 999
  284.1223 7.5 99
  285.1292 2.6 34
  293.1414 1.4 18
  296.13 1.8 23
  297.1318 1.7 22
  299.1131 16.3 216
  301.1256 0.8 10
  311.1489 4.9 65
  312.1582 10.7 142
  313.1729 1.1 14
  331.0891 1.2 15
  377.121 1.2 15
//
