ACCESSION: MSBNK-BAFG-CSL25011734558
RECORD_TITLE: Azo Rubin S; LC-ESI-QTOF; MS2; 100 V
DATE: 2025.01.17
AUTHORS: Ole Lessmann; Kevin S. Jewell; Björn Ehlig; Arne Wick
LICENSE: dl-de/by-2-0
COPYRIGHT: Copyright 2025 Federal Institute of Hydrology, Koblenz, Germany
COMMENT: CONFIDENCE Reference Standard (Level 1)
COMMENT: Chromatography method: dx.doi.org/10.1016/j.chroma.2015.11.014
CH$NAME: Azo Rubin S
CH$FORMULA: C20H14N2O7S2
CH$EXACT_MASS: 458.0242
CH$SMILES: C1=CC=C2C(=C1)C(=CC=C2S(=O)(=O)O)N=NC3=C(C4=CC=CC=C4C(=C3)S(=O)(=O)O)O
CH$IUPAC: InChI=1S/C20H14N2O7S2/c23-20-15-8-4-3-7-14(15)19(31(27,28)29)11-17(20)22-21-16-9-10-18(30(24,25)26)13-6-2-1-5-12(13)16/h1-11,23H,(H,24,25,26)(H,27,28,29)
CH$LINK: CAS 13613-55-3
CH$LINK: INCHIKEY TVWOWDDBXAFQDG-UHFFFAOYSA-N
AC$INSTRUMENT: TripleTOF 6600 SCIEX
AC$INSTRUMENT_TYPE: LC-ESI-QTOF
AC$MASS_SPECTROMETRY: MS_TYPE MS2
AC$MASS_SPECTROMETRY: ION_MODE POSITIVE
AC$MASS_SPECTROMETRY: COLLISION_ENERGY 100
AC$MASS_SPECTROMETRY: FRAGMENTATION_MODE CID
AC$MASS_SPECTROMETRY: IONIZATION ESI
AC$CHROMATOGRAPHY: COLUMN_NAME Zorbax Eclipse Plus C18 2.1 mm x 150 mm, 3.5 um, Agilent
AC$CHROMATOGRAPHY: COLUMN_TEMPERATURE 40 °C
AC$CHROMATOGRAPHY: FLOW_GRADIENT 0 min min 98% A, 1 min 98% A, 2 min 80% A, 16.5 min 2% A, 22 min 2% A, 22.1 min 98% A, 27 min 98% A
AC$CHROMATOGRAPHY: FLOW_RATE 0.3 mL/min
AC$CHROMATOGRAPHY: RETENTION_TIME 7.286 min
AC$CHROMATOGRAPHY: SOLVENT A: Water 0.1% Formic acid, B: Acetonitrile 0.1% Formic acid
MS$FOCUSED_ION: PRECURSOR_M/Z 459.0315
MS$FOCUSED_ION: PRECURSOR_TYPE [M+H]+
MS$DATA_PROCESSING: COMMENT Export with pycsl 0.1.0.dev1 and CSL 25.0
PK$SPLASH: splash10-0fsi-2900000000-61a40469a3809a50bf40
PK$NUM_PEAK: 38
PK$PEAK: m/z int. rel.int.
  51.0227 2.3 13
  52.0182 14.3 81
  63.0225 2.7 15
  64.9682 4.6 26
  75.0229 1.7 9
  77.0383 77.7 444
  80.0126 25.4 145
  89.0381 26.4 151
  100.0175 1.8 10
  101.038 4.0 22
  102.0466 7.3 41
  103.0538 119.0 681
  104.0492 11.4 65
  105.0351 5.0 28
  113.0385 3.4 19
  114.0443 4.9 28
  115.0536 106.4 609
  116.0495 33.0 188
  126.034 4.2 24
  127.0546 2.0 11
  128.0482 3.8 21
  130.0648 174.5 999
  131.0485 4.0 22
  140.0493 28.0 160
  141.0569 1.8 10
  142.0647 12.5 71
  143.0725 7.4 42
  154.0349 1.9 10
  158.0593 19.0 108
  240.0815 5.1 29
  251.0744 9.2 52
  252.0781 2.6 14
  265.0733 3.8 21
  266.0842 12.1 69
  267.0888 4.1 23
  268.1021 1.8 10
  278.0854 4.5 25
  279.0928 7.8 44
//
