ACCESSION: MSBNK-BAFG-CSL25011734568
RECORD_TITLE: Amido Black 10B; LC-ESI-QTOF; MS2; 40 V
DATE: 2025.01.17
AUTHORS: Ole Lessmann; Kevin S. Jewell; Björn Ehlig; Arne Wick
LICENSE: dl-de/by-2-0
COPYRIGHT: Copyright 2025 Federal Institute of Hydrology, Koblenz, Germany
COMMENT: CONFIDENCE Reference Standard (Level 1)
COMMENT: Chromatography method: dx.doi.org/10.1016/j.chroma.2015.11.014
CH$NAME: Amido Black 10B
CH$FORMULA: C22H16N6O9S2
CH$EXACT_MASS: 572.042
CH$SMILES: C1=CC=C(C=C1)N=NC2=C(C3=C(C(=C(C=C3C=C2S(=O)(=O)O)S(=O)(=O)O)N=NC4=CC=C(C=C4)[N+](=O)[O-])N)O
CH$IUPAC: InChI=1S/C22H16N6O9S2/c23-19-18-12(11-17(39(35,36)37)21(22(18)29)27-24-13-4-2-1-3-5-13)10-16(38(32,33)34)20(19)26-25-14-6-8-15(9-7-14)28(30)31/h1-11,29H,23H2,(H,32,33,34)(H,35,36,37)
CH$LINK: CAS 3121-74-2
CH$LINK: INCHIKEY HKJKONMZMPUGHJ-UHFFFAOYSA-N
AC$INSTRUMENT: TripleTOF 6600 SCIEX
AC$INSTRUMENT_TYPE: LC-ESI-QTOF
AC$MASS_SPECTROMETRY: MS_TYPE MS2
AC$MASS_SPECTROMETRY: ION_MODE POSITIVE
AC$MASS_SPECTROMETRY: COLLISION_ENERGY 40
AC$MASS_SPECTROMETRY: FRAGMENTATION_MODE CID
AC$MASS_SPECTROMETRY: IONIZATION ESI
AC$CHROMATOGRAPHY: COLUMN_NAME Zorbax Eclipse Plus C18 2.1 mm x 150 mm, 3.5 um, Agilent
AC$CHROMATOGRAPHY: COLUMN_TEMPERATURE 40 °C
AC$CHROMATOGRAPHY: FLOW_GRADIENT 0 min min 98% A, 1 min 98% A, 2 min 80% A, 16.5 min 2% A, 22 min 2% A, 22.1 min 98% A, 27 min 98% A
AC$CHROMATOGRAPHY: FLOW_RATE 0.3 mL/min
AC$CHROMATOGRAPHY: RETENTION_TIME 9.552 min
AC$CHROMATOGRAPHY: SOLVENT A: Water 0.1% Formic acid, B: Acetonitrile 0.1% Formic acid
MS$FOCUSED_ION: PRECURSOR_M/Z 573.0493
MS$FOCUSED_ION: PRECURSOR_TYPE [M+H]+
MS$DATA_PROCESSING: COMMENT Export with pycsl 0.1.0.dev1 and CSL 25.0
PK$SPLASH: splash10-0007-5019740000-ff6a572dd470020ec3df
PK$NUM_PEAK: 76
PK$PEAK: m/z int. rel.int.
  65.0379 10.9 56
  77.0389 2.0 10
  92.0489 153.9 793
  93.0571 193.7 999
  108.0446 9.6 49
  122.0234 6.5 33
  150.0288 33.3 171
  201.028 10.9 56
  205.0759 2.6 13
  232.0855 7.1 36
  233.076 2.0 10
  259.0699 2.3 11
  260.0809 18.0 92
  261.0891 8.7 44
  271.0561 2.1 10
  272.0699 3.0 15
  276.1013 5.8 29
  277.0023 15.8 81
  287.0566 3.1 15
  289.0674 2.2 11
  292.0951 4.5 23
  301.0586 17.0 87
  306.0751 11.1 57
  316.0463 8.4 43
  317.0543 83.6 431
  318.0631 6.0 30
  334.0587 5.6 28
  334.0913 2.7 13
  335.0656 3.8 19
  335.1035 6.6 34
  336.1082 3.2 16
  340.0364 3.4 17
  341.0476 32.4 167
  346.1067 3.4 17
  347.12 8.0 41
  355.0496 13.0 67
  362.1055 14.0 72
  363.1119 24.6 126
  364.1176 19.7 101
  365.1249 5.6 28
  366.0282 7.4 38
  370.0386 9.9 51
  381.1196 6.8 35
  382.0255 71.6 369
  386.0015 4.5 23
  387.0388 4.4 22
  391.0953 14.9 76
  392.1004 14.3 73
  398.0199 164.8 849
  399.0272 68.9 355
  400.0359 25.8 133
  402.9811 48.0 247
  408.0972 3.5 18
  409.1032 15.6 80
  410.1143 14.5 74
  411.1213 13.9 71
  416.0603 2.8 14
  426.0655 16.3 84
  427.1088 59.3 305
  428.0582 2.5 12
  429.9911 16.7 86
  444.0756 53.6 276
  445.084 44.2 227
  448.0029 53.1 273
  450.9992 22.6 116
  456.0632 22.7 117
  473.065 32.5 167
  474.0732 16.7 86
  479.9914 9.1 46
  490.0683 15.3 78
  491.076 29.1 150
  492.0559 2.7 13
  492.0874 3.2 16
  537.0284 7.6 39
  555.0388 189.4 976
  573.0472 129.2 666
//
