ACCESSION: MSBNK-BAFG-CSL2310267566
RECORD_TITLE: Progesterone; LC-ESI-QTOF; MS2; 40 V
DATE: 2023.10.26
AUTHORS: Kevin S. Jewell; Björn Ehlig; Arne Wick
LICENSE: dl-de/by-2-0
COPYRIGHT: Copyright 2023 Federal Institute of Hydrology, Koblenz, Germany
COMMENT: CONFIDENCE Reference Standard (Level 1)
COMMENT: Chromatography method: dx.doi.org/10.1016/j.chroma.2015.11.014
COMMENT: Acquisition method: 10.1002/rcm.8541
CH$NAME: Progesterone
CH$COMPOUND_CLASS: Pharmaceutical
CH$FORMULA: C21H30O2
CH$EXACT_MASS: 314.2246
CH$SMILES: CC(=O)[C@H]1CC[C@H]2[C@@H]3CCC4=CC(=O)CC[C@]4(C)[C@H]3CC[C@]12C
CH$IUPAC: InChI=1S/C21H30O2/c1-13(22)17-6-7-18-16-5-4-14-12-15(23)8-10-20(14,2)19(16)9-11-21(17,18)3/h12,16-19H,4-11H2,1-3H3/t16-,17+,18-,19-,20-,21+/m0/s1
CH$LINK: CAS 57-83-0
CH$LINK: INCHIKEY RJKFOVLPORLFTN-LEKSSAKUSA-N
AC$INSTRUMENT: TripleTOF 5600 SCIEX
AC$INSTRUMENT_TYPE: LC-ESI-QTOF
AC$MASS_SPECTROMETRY: MS_TYPE MS2
AC$MASS_SPECTROMETRY: ION_MODE POSITIVE
AC$MASS_SPECTROMETRY: COLLISION_ENERGY 40
AC$MASS_SPECTROMETRY: FRAGMENTATION_MODE CID
AC$MASS_SPECTROMETRY: IONIZATION ESI
AC$CHROMATOGRAPHY: COLUMN_NAME Zorbax Eclipse Plus C18 2.1 mm x 150 mm, 3.5 um, Agilent
AC$CHROMATOGRAPHY: COLUMN_TEMPERATURE 40 °C
AC$CHROMATOGRAPHY: FLOW_GRADIENT 0 min min 98% A, 1 min 98% A, 2 min 80% A, 16.5 min 2% A, 22 min 2% A, 22.1 min 98% A, 27 min 98% A
AC$CHROMATOGRAPHY: FLOW_RATE 0.3 mL/min
AC$CHROMATOGRAPHY: RETENTION_TIME 13.796 min
AC$CHROMATOGRAPHY: SOLVENT A: Water 0.1% Formic acid, B: Acetonitrile 0.1% Formic acid
MS$FOCUSED_ION: PRECURSOR_M/Z 315.2319
MS$FOCUSED_ION: PRECURSOR_TYPE [M+H]+
MS$DATA_PROCESSING: COMMENT Export with Spectra 1.9.12 MsBackendMassbank 1.7.4
MS$DATA_PROCESSING: WHOLE RMassBank 2.3.1
PK$SPLASH: splash10-0a4j-7900000000-c457e8cc4b193b5ac98a
PK$NUM_PEAK: 54
PK$PEAK: m/z int. rel.int.
  43.0264 3.9 28
  55.0592 1.4 10
  67.0583 4.2 30
  69.072 3.8 27
  77.0408 6.2 44
  79.0575 20.1 145
  81.0722 16.8 121
  83.051 5.1 36
  85.0665 2.7 19
  91.0569 6.4 46
  93.0708 5.4 39
  95.0864 8.1 58
  97.0665 127.6 924
  105.0697 7.8 56
  107.0854 4.7 34
  109.066 137.9 999
  117.0691 1.8 13
  119.0854 7.3 52
  121.0642 2.2 15
  121.0998 4.3 31
  123.0803 15.2 110
  129.0686 2.1 15
  131.0854 6.5 47
  133.1007 5.1 36
  135.116 1.4 10
  137.0964 2.4 17
  143.0855 2.5 18
  145.1009 6.5 47
  147.1163 4.9 35
  149.0947 1.9 13
  157.0989 4.1 29
  159.1167 5.8 42
  161.1329 2.6 18
  163.1108 2.8 20
  169.1046 1.4 10
  171.115 3.7 26
  173.1303 5 36
  175.1464 2.3 16
  177.1275 3.1 22
  183.1171 2.3 16
  185.1323 2.4 17
  187.1483 2.7 19
  189.1259 2.6 18
  197.1307 1.9 13
  199.1482 2.5 18
  201.1598 1.9 13
  213.1609 2.7 19
  215.1405 1.6 11
  215.1781 2.2 15
  223.1462 1.8 13
  227.178 1.4 10
  237.1646 1.6 11
  239.1799 3.6 26
  241.1579 1.6 11
//
