ACCESSION: MSBNK-BAFG-CSL2310257709
RECORD_TITLE: Benzyldiphenylphosphine oxide; LC-ESI-QTOF; MS2; 90 V
DATE: 2023.10.25
AUTHORS: Kevin S. Jewell; Björn Ehlig; Arne Wick
LICENSE: dl-de/by-2-0
COPYRIGHT: Copyright 2023 Federal Institute of Hydrology, Koblenz, Germany
COMMENT: CONFIDENCE Reference Standard (Level 1)
COMMENT: Chromatography method: dx.doi.org/10.1016/j.chroma.2015.11.014
COMMENT: Acquisition method: 10.1002/rcm.8541
CH$NAME: Benzyldiphenylphosphine oxide
CH$COMPOUND_CLASS: Industrial_process
CH$FORMULA: C19H17OP
CH$EXACT_MASS: 292.1017
CH$SMILES: O=P(c1ccccc1)(c2ccccc2)Cc3ccccc3
CH$IUPAC: InChI=1S/C19H17OP/c20-21(18-12-6-2-7-13-18,19-14-8-3-9-15-19)16-17-10-4-1-5-11-17/h1-15H,16H2
CH$LINK: CAS 2959-74-2
CH$LINK: INCHIKEY NXGAOFONOFYCNG-UHFFFAOYSA-N
AC$INSTRUMENT: TripleTOF 5600 SCIEX
AC$INSTRUMENT_TYPE: LC-ESI-QTOF
AC$MASS_SPECTROMETRY: MS_TYPE MS2
AC$MASS_SPECTROMETRY: ION_MODE POSITIVE
AC$MASS_SPECTROMETRY: COLLISION_ENERGY 90
AC$MASS_SPECTROMETRY: FRAGMENTATION_MODE CID
AC$MASS_SPECTROMETRY: IONIZATION ESI
AC$CHROMATOGRAPHY: COLUMN_NAME Zorbax Eclipse Plus C18 2.1 mm x 150 mm, 3.5 um, Agilent
AC$CHROMATOGRAPHY: COLUMN_TEMPERATURE 40 °C
AC$CHROMATOGRAPHY: FLOW_GRADIENT 0 min min 98% A, 1 min 98% A, 2 min 80% A, 16.5 min 2% A, 22 min 2% A, 22.1 min 98% A, 27 min 98% A
AC$CHROMATOGRAPHY: FLOW_RATE 0.3 mL/min
AC$CHROMATOGRAPHY: RETENTION_TIME 10.822 min
AC$CHROMATOGRAPHY: SOLVENT A: Water 0.1% Formic acid, B: Acetonitrile 0.1% Formic acid
MS$FOCUSED_ION: PRECURSOR_M/Z 293.109
MS$FOCUSED_ION: PRECURSOR_TYPE [M+H]+
MS$DATA_PROCESSING: COMMENT Export with Spectra 1.9.12 MsBackendMassbank 1.7.4
MS$DATA_PROCESSING: WHOLE RMassBank 2.3.1
PK$SPLASH: splash10-00kf-9000000000-29d52df4056371db94dc
PK$NUM_PEAK: 8
PK$PEAK: m/z int. rel.int.
  37.018 2.4 11
  51.0303 6.9 33
  65.0434 165.4 804
  77.041 6.7 32
  91.0557 205.3 999
  152.0614 8 38
  157.0191 3.2 15
  183.0343 5.1 24
//
