ACCESSION: MSBNK-BAFG-CSL23102612479
RECORD_TITLE: 2-Piperidin-3-yl-benzothiazole; LC-ESI-QTOF; MS2; 40 V
DATE: 2023.10.26
AUTHORS: Kevin S. Jewell; Björn Ehlig; Arne Wick
LICENSE: dl-de/by-2-0
COPYRIGHT: Copyright 2023 Federal Institute of Hydrology, Koblenz, Germany
COMMENT: CONFIDENCE Reference Standard (Level 1)
COMMENT: Chromatography method: dx.doi.org/10.1016/j.chroma.2015.11.014
COMMENT: Acquisition method: 10.1002/rcm.8541
CH$NAME: 2-Piperidin-3-yl-benzothiazole
CH$FORMULA: C12H14N2S
CH$EXACT_MASS: 218.0878
CH$SMILES: C1CC(CNC1)C2=NC3=CC=CC=C3S2
CH$IUPAC: InChI=1S/C12H14N2S/c1-2-6-11-10(5-1)14-12(15-11)9-4-3-7-13-8-9/h1-2,5-6,9,13H,3-4,7-8H2
CH$LINK: CAS 750640-97-2
CH$LINK: INCHIKEY PXPKASSSZWCUJE-UHFFFAOYSA-N
AC$INSTRUMENT: TripleTOF 5600 SCIEX
AC$INSTRUMENT_TYPE: LC-ESI-QTOF
AC$MASS_SPECTROMETRY: MS_TYPE MS2
AC$MASS_SPECTROMETRY: ION_MODE POSITIVE
AC$MASS_SPECTROMETRY: COLLISION_ENERGY 40
AC$MASS_SPECTROMETRY: FRAGMENTATION_MODE CID
AC$MASS_SPECTROMETRY: IONIZATION ESI
AC$CHROMATOGRAPHY: COLUMN_NAME Zorbax Eclipse Plus C18 2.1 mm x 150 mm, 3.5 um, Agilent
AC$CHROMATOGRAPHY: COLUMN_TEMPERATURE 40 °C
AC$CHROMATOGRAPHY: FLOW_GRADIENT 0 min min 98% A, 1 min 98% A, 2 min 80% A, 16.5 min 2% A, 22 min 2% A, 22.1 min 98% A, 27 min 98% A
AC$CHROMATOGRAPHY: FLOW_RATE 0.3 mL/min
AC$CHROMATOGRAPHY: RETENTION_TIME 5.623 min
AC$CHROMATOGRAPHY: SOLVENT A: Water 0.1% Formic acid, B: Acetonitrile 0.1% Formic acid
MS$FOCUSED_ION: PRECURSOR_M/Z 219.095
MS$FOCUSED_ION: PRECURSOR_TYPE [M+H]+
MS$DATA_PROCESSING: COMMENT Export with Spectra 1.9.12 MsBackendMassbank 1.7.4
MS$DATA_PROCESSING: WHOLE RMassBank 2.3.1
PK$SPLASH: splash10-0005-0900000000-53e6847b4ed7a4732c8b
PK$NUM_PEAK: 25
PK$PEAK: m/z int. rel.int.
  44.0499 4.9 35
  44.9796 4.3 31
  65.0386 1.8 13
  70.0653 12.4 89
  77.0386 1.5 10
  104.0496 11.4 82
  108.0029 8.9 64
  109.0105 17.5 126
  117.0583 4.3 31
  121.0108 4.9 35
  130.0648 2.2 15
  136.0221 4.8 34
  148.0223 105.7 765
  149.0299 90.7 657
  150.0369 7.4 53
  160.0259 1.5 10
  162.038 37.1 268
  173.0303 2.6 18
  174.0378 6.9 49
  175.0461 12.4 89
  176.0536 22 159
  186.0405 1.7 12
  190.0698 137.9 999
  202.0711 1.8 13
  219.0958 17.9 129
//
