ACCESSION: MSBNK-BAFG-CSL23102614807
RECORD_TITLE: 3-Cyclohexyl-1,1-dibenzylurea; LC-ESI-QTOF; MS2; 90 V
DATE: 2023.10.26
AUTHORS: Kevin S. Jewell; Björn Ehlig; Arne Wick
LICENSE: dl-de/by-2-0
COPYRIGHT: Copyright 2023 Federal Institute of Hydrology, Koblenz, Germany
COMMENT: CONFIDENCE Reference Standard (Level 1)
COMMENT: Chromatography method: dx.doi.org/10.1016/j.chroma.2015.11.014
COMMENT: Acquisition method: 10.1002/rcm.8541
CH$NAME: 3-Cyclohexyl-1,1-dibenzylurea
CH$FORMULA: C21H26N2O
CH$EXACT_MASS: 322.2045
CH$SMILES: O=C(NC1CCCCC1)N(Cc2ccccc2)Cc3ccccc3
CH$IUPAC: InChI=1S/C21H26N2O/c24-21(22-20-14-8-3-9-15-20)23(16-18-10-4-1-5-11-18)17-19-12-6-2-7-13-19/h1-2,4-7,10-13,20H,3,8-9,14-17H2,(H,22,24)
CH$LINK: CAS NA
CH$LINK: INCHIKEY QAVDMLYEKOVQPL-UHFFFAOYSA-N
AC$INSTRUMENT: TripleTOF 6600 SCIEX
AC$INSTRUMENT_TYPE: LC-ESI-QTOF
AC$MASS_SPECTROMETRY: MS_TYPE MS2
AC$MASS_SPECTROMETRY: ION_MODE POSITIVE
AC$MASS_SPECTROMETRY: COLLISION_ENERGY 90
AC$MASS_SPECTROMETRY: FRAGMENTATION_MODE CID
AC$MASS_SPECTROMETRY: IONIZATION ESI
AC$CHROMATOGRAPHY: COLUMN_NAME Zorbax Eclipse Plus C18 2.1 mm x 150 mm, 3.5 um, Agilent
AC$CHROMATOGRAPHY: COLUMN_TEMPERATURE 40 °C
AC$CHROMATOGRAPHY: FLOW_GRADIENT 0 min min 98% A, 1 min 98% A, 2 min 80% A, 16.5 min 2% A, 22 min 2% A, 22.1 min 98% A, 27 min 98% A
AC$CHROMATOGRAPHY: FLOW_RATE 0.3 mL/min
AC$CHROMATOGRAPHY: RETENTION_TIME 14.103 min
AC$CHROMATOGRAPHY: SOLVENT A: Water 0.1% Formic acid, B: Acetonitrile 0.1% Formic acid
MS$FOCUSED_ION: PRECURSOR_M/Z 323.2118
MS$FOCUSED_ION: PRECURSOR_TYPE [M+H]+
MS$DATA_PROCESSING: COMMENT Export with Spectra 1.9.12 MsBackendMassbank 1.7.4
MS$DATA_PROCESSING: WHOLE RMassBank 2.3.1
PK$SPLASH: splash10-00kf-9000000000-f5f8ca473be0de61c6d6
PK$NUM_PEAK: 8
PK$PEAK: m/z int. rel.int.
  39.0229 59.6 63
  41.0384 16 16
  51.0224 9.4 9
  55.0537 27.4 29
  63.0223 23.5 24
  65.0384 554.4 588
  91.054 941.9 999
  165.0691 51 54
//
