ACCESSION: MSBNK-BAFG-CSL23110910311
RECORD_TITLE: Meptazinol; LC-ESI-QTOF; MS2; 150 V
DATE: 2023.11.09
AUTHORS: Kevin S. Jewell; Björn Ehlig; Arne Wick
LICENSE: dl-de/by-2-0
COPYRIGHT: Copyright 2023 Federal Institute of Hydrology, Koblenz, Germany
COMMENT: CONFIDENCE Reference Standard (Level 1)
COMMENT: Chromatography method: dx.doi.org/10.1016/j.chroma.2015.11.014
COMMENT: Acquisition method: 10.1002/rcm.8541
CH$NAME: Meptazinol
CH$COMPOUND_CLASS: Pharmaceutical
CH$FORMULA: C15H23NO
CH$EXACT_MASS: 233.178
CH$SMILES: CCC1(CCCCN(C1)C)C2=CC(=CC=C2)O
CH$IUPAC: InChI=1S/C15H23NO/c1-3-15(9-4-5-10-16(2)12-15)13-7-6-8-14(17)11-13/h6-8,11,17H,3-5,9-10,12H2,1-2H3
CH$LINK: CAS 54340-58-8
CH$LINK: INCHIKEY JLICHNCFTLFZJN-UHFFFAOYSA-N
AC$INSTRUMENT: TripleTOF 5600 SCIEX
AC$INSTRUMENT_TYPE: LC-ESI-QTOF
AC$MASS_SPECTROMETRY: MS_TYPE MS2
AC$MASS_SPECTROMETRY: ION_MODE POSITIVE
AC$MASS_SPECTROMETRY: COLLISION_ENERGY 150
AC$MASS_SPECTROMETRY: FRAGMENTATION_MODE CID
AC$MASS_SPECTROMETRY: IONIZATION ESI
AC$CHROMATOGRAPHY: COLUMN_NAME Zorbax Eclipse Plus C18 2.1 mm x 150 mm, 3.5 um, Agilent
AC$CHROMATOGRAPHY: COLUMN_TEMPERATURE 40 °C
AC$CHROMATOGRAPHY: FLOW_GRADIENT 0 min min 98% A, 1 min 98% A, 2 min 80% A, 16.5 min 2% A, 22 min 2% A, 22.1 min 98% A, 27 min 98% A
AC$CHROMATOGRAPHY: FLOW_RATE 0.3 mL/min
AC$CHROMATOGRAPHY: RETENTION_TIME 5.641 min
AC$CHROMATOGRAPHY: SOLVENT A: Water 0.1% Formic acid, B: Acetonitrile 0.1% Formic acid
MS$FOCUSED_ION: PRECURSOR_M/Z 234.1852
MS$FOCUSED_ION: PRECURSOR_TYPE [M+H]+
MS$DATA_PROCESSING: COMMENT Export with Spectra 1.9.12 MsBackendMassbank 1.7.4
MS$DATA_PROCESSING: WHOLE RMassBank 2.3.1
PK$SPLASH: splash10-0udi-9000000000-a7c247041dc0aad73da8
PK$NUM_PEAK: 22
PK$PEAK: m/z int. rel.int.
  37.0069 1.7 123
  38.0148 1.1 80
  39.0223 3.9 284
  41.0385 0.4 29
  42.0338 1.3 94
  44.049 4.2 306
  49.0075 2.1 153
  50.0147 12.5 911
  51.0228 13.7 999
  53.039 0.5 36
  54.0333 0.6 43
  61.007 1.8 131
  62.0153 2.3 167
  63.0225 3.4 247
  65.0385 0.9 65
  74.0149 3.1 226
  75.0231 0.9 65
  76.0311 0.4 29
  77.0388 2.5 182
  86.0142 0.6 43
  89.0388 0.8 58
  115.0528 0.6 43
//
