ACCESSION: MSBNK-BAFG-CSL2310253920
RECORD_TITLE: Azathioprine; LC-ESI-QTOF; MS2; 20 V
DATE: 2023.10.25
AUTHORS: Kevin S. Jewell; Björn Ehlig; Arne Wick
LICENSE: dl-de/by-2-0
COPYRIGHT: Copyright 2023 Federal Institute of Hydrology, Koblenz, Germany
COMMENT: CONFIDENCE Reference Standard (Level 1)
COMMENT: Chromatography method: dx.doi.org/10.1016/j.chroma.2015.11.014
COMMENT: Acquisition method: 10.1002/rcm.8541
CH$NAME: Azathioprine
CH$COMPOUND_CLASS: Pharmaceutical
CH$FORMULA: C9H7N7O2S
CH$EXACT_MASS: 277.0382
CH$SMILES: Cn1cnc(c1Sc2ncnc3nc[nH]c23)[N+]([O-])=O
CH$IUPAC: InChI=1S/C9H7N7O2S/c1-15-4-14-7(16(17)18)9(15)19-8-5-6(11-2-10-5)12-3-13-8/h2-4H,1H3,(H,10,11,12,13)
CH$LINK: CAS 446-86-6
CH$LINK: INCHIKEY LMEKQMALGUDUQG-UHFFFAOYSA-N
AC$INSTRUMENT: TripleTOF 5600 SCIEX
AC$INSTRUMENT_TYPE: LC-ESI-QTOF
AC$MASS_SPECTROMETRY: MS_TYPE MS2
AC$MASS_SPECTROMETRY: ION_MODE POSITIVE
AC$MASS_SPECTROMETRY: COLLISION_ENERGY 20
AC$MASS_SPECTROMETRY: FRAGMENTATION_MODE CID
AC$MASS_SPECTROMETRY: IONIZATION ESI
AC$CHROMATOGRAPHY: COLUMN_NAME Zorbax Eclipse Plus C18 2.1 mm x 150 mm, 3.5 um, Agilent
AC$CHROMATOGRAPHY: COLUMN_TEMPERATURE 40 °C
AC$CHROMATOGRAPHY: FLOW_GRADIENT 0 min min 98% A, 1 min 98% A, 2 min 80% A, 16.5 min 2% A, 22 min 2% A, 22.1 min 98% A, 27 min 98% A
AC$CHROMATOGRAPHY: FLOW_RATE 0.3 mL/min
AC$CHROMATOGRAPHY: RETENTION_TIME 5.367 min
AC$CHROMATOGRAPHY: SOLVENT A: Water 0.1% Formic acid, B: Acetonitrile 0.1% Formic acid
MS$FOCUSED_ION: PRECURSOR_M/Z 278.0455
MS$FOCUSED_ION: PRECURSOR_TYPE [M+H]+
MS$DATA_PROCESSING: COMMENT Export with Spectra 1.9.12 MsBackendMassbank 1.7.4
MS$DATA_PROCESSING: WHOLE RMassBank 2.3.1
PK$SPLASH: splash10-000x-0970000000-b68d02677057b6a23a5f
PK$NUM_PEAK: 16
PK$PEAK: m/z int. rel.int.
  67.0324 0.6 10
  84.9882 5.8 96
  136.0375 0.8 13
  136.0518 0.6 10
  142.0068 59.9 999
  152.0149 1 16
  164.015 2.2 36
  165.025 2.3 38
  174.0777 1 16
  177.0195 0.7 11
  191.0224 0.9 15
  199.0722 7.1 118
  205.0411 8.2 136
  231.0452 4.7 78
  232.0522 47.7 795
  278.0462 6.6 110
//
