ACCESSION: MSBNK-BAFG-CSL23111016607
RECORD_TITLE: Flufenacet ESA; LC-ESI-QTOF; MS2; 120 V
DATE: 2023.11.10
AUTHORS: Kevin S. Jewell; Björn Ehlig; Arne Wick
LICENSE: dl-de/by-2-0
COPYRIGHT: Copyright 2023 Federal Institute of Hydrology, Koblenz, Germany
COMMENT: CONFIDENCE Reference Standard (Level 1)
COMMENT: Chromatography method: dx.doi.org/10.1016/j.chroma.2015.11.014
COMMENT: Acquisition method: 10.1002/rcm.8541
CH$NAME: Flufenacet ESA
CH$COMPOUND_CLASS: Herbicide; Transformation_product
CH$FORMULA: C11H14FNO4S
CH$EXACT_MASS: 275.0628
CH$SMILES: CC(C)N(C1=CC=C(C=C1)F)C(=O)CS(=O)(=O)O
CH$IUPAC: InChI=1S/C11H14FNO4S/c1-8(2)13(11(14)7-18(15,16)17)10-5-3-9(12)4-6-10/h3-6,8H,7H2,1-2H3,(H,15,16,17)
CH$LINK: CAS 201668-32-8
CH$LINK: INCHIKEY SZCMHDLOUVZYST-UHFFFAOYSA-N
AC$INSTRUMENT: TripleTOF 6600 SCIEX
AC$INSTRUMENT_TYPE: LC-ESI-QTOF
AC$MASS_SPECTROMETRY: MS_TYPE MS2
AC$MASS_SPECTROMETRY: ION_MODE POSITIVE
AC$MASS_SPECTROMETRY: COLLISION_ENERGY 120
AC$MASS_SPECTROMETRY: FRAGMENTATION_MODE CID
AC$MASS_SPECTROMETRY: IONIZATION ESI
AC$CHROMATOGRAPHY: COLUMN_NAME Zorbax Eclipse Plus C18 2.1 mm x 150 mm, 3.5 um, Agilent
AC$CHROMATOGRAPHY: COLUMN_TEMPERATURE 40 °C
AC$CHROMATOGRAPHY: FLOW_GRADIENT 0 min min 98% A, 1 min 98% A, 2 min 80% A, 16.5 min 2% A, 22 min 2% A, 22.1 min 98% A, 27 min 98% A
AC$CHROMATOGRAPHY: FLOW_RATE 0.3 mL/min
AC$CHROMATOGRAPHY: RETENTION_TIME 6.781 min
AC$CHROMATOGRAPHY: SOLVENT A: Water 0.1% Formic acid, B: Acetonitrile 0.1% Formic acid
MS$FOCUSED_ION: PRECURSOR_M/Z 276.07
MS$FOCUSED_ION: PRECURSOR_TYPE [M+H]+
MS$DATA_PROCESSING: COMMENT Export with Spectra 1.9.12 MsBackendMassbank 1.7.4
MS$DATA_PROCESSING: WHOLE RMassBank 2.3.1
PK$SPLASH: splash10-00fr-9000000000-db09b6546387277072f0
PK$NUM_PEAK: 30
PK$PEAK: m/z int. rel.int.
  37.0068 0.6 17
  38.0144 0.6 17
  39.0225 2.2 64
  41.0384 0.7 20
  49.0069 0.9 26
  50.0149 2.8 81
  51.0224 4 116
  57.013 5.6 163
  59.0287 0.7 20
  61.006 0.5 14
  62.0146 0.8 23
  63.0228 1.9 55
  64.03 0.6 17
  65.0381 0.6 17
  68.0041 0.4 11
  69.0129 2.8 81
  70.0209 0.7 20
  73.0072 3 87
  74.0149 34.2 999
  75.0228 25.2 736
  77.038 1.3 37
  81.0137 0.7 20
  83.0289 5 146
  84.0365 1.3 37
  95.0284 2.3 67
  96.0369 1.2 35
  107.0285 0.7 20
  109.0436 0.9 26
  111.0475 0.8 23
  123.0348 0.4 11
//
