ACCESSION: MSBNK-BAFG-CSL25010634342
RECORD_TITLE: Iobitridol; LC-ESI-QTOF; MS2; 40 V
DATE: 2025.01.06
AUTHORS: Ole Lessmann; Kevin S. Jewell; Björn Ehlig; Arne Wick
LICENSE: dl-de/by-2-0
COPYRIGHT: Copyright 2025 Federal Institute of Hydrology, Koblenz, Germany
COMMENT: CONFIDENCE Reference Standard (Level 1)
COMMENT: Chromatography method: dx.doi.org/10.1016/j.chroma.2015.11.014
COMMENT: Acquisition method: 10.1002/rcm.8541
CH$NAME: Iobitridol
CH$COMPOUND_CLASS: Pharmaceutical
CH$FORMULA: C20H28I3N3O9
CH$EXACT_MASS: 834.896
CH$SMILES: CN(CC(O)CO)C(=O)c1c(I)c(NC(=O)C(CO)CO)c(I)c(c1I)C(=O)N(C)CC(O)CO
CH$IUPAC: InChI=1S/C20H28I3N3O9/c1-25(3-10(31)7-29)19(34)12-14(21)13(20(35)26(2)4-11(32)8-30)16(23)17(15(12)22)24-18(33)9(5-27)6-28/h9-11,27-32H,3-8H2,1-2H3,(H,24,33)
CH$LINK: CAS 136949-58-1
CH$LINK: INCHIKEY YLPBXIKWXNRACS-UHFFFAOYSA-N
AC$INSTRUMENT: TripleTOF 6600 SCIEX
AC$INSTRUMENT_TYPE: LC-ESI-QTOF
AC$MASS_SPECTROMETRY: MS_TYPE MS2
AC$MASS_SPECTROMETRY: ION_MODE POSITIVE
AC$MASS_SPECTROMETRY: COLLISION_ENERGY 40
AC$MASS_SPECTROMETRY: FRAGMENTATION_MODE CID
AC$MASS_SPECTROMETRY: IONIZATION ESI
AC$CHROMATOGRAPHY: COLUMN_NAME Zorbax Eclipse Plus C18 2.1 mm x 150 mm, 3.5 um, Agilent
AC$CHROMATOGRAPHY: COLUMN_TEMPERATURE 40 °C
AC$CHROMATOGRAPHY: FLOW_GRADIENT 0 min min 98% A, 1 min 98% A, 2 min 80% A, 16.5 min 2% A, 22 min 2% A, 22.1 min 98% A, 27 min 98% A
AC$CHROMATOGRAPHY: FLOW_RATE 0.3 mL/min
AC$CHROMATOGRAPHY: RETENTION_TIME 4.58 min
AC$CHROMATOGRAPHY: SOLVENT A: Water 0.1% Formic acid, B: Acetonitrile 0.1% Formic acid
MS$FOCUSED_ION: PRECURSOR_M/Z 835.9033
MS$FOCUSED_ION: PRECURSOR_TYPE [M+H]+
MS$DATA_PROCESSING: COMMENT Export with pycsl 0.1.0.dev1 and CSL 24.4
PK$SPLASH: splash10-0udi-0000109110-4ec16ce60bf23effe2de
PK$NUM_PEAK: 26
PK$PEAK: m/z int. rel.int.
  400.9969 0.6 10
  416.9852 1.2 20
  449.0156 1.0 16
  475.0019 6.6 110
  528.8564 0.7 11
  575.923 4.9 82
  575.9518 0.6 10
  584.8763 0.6 10
  584.8952 0.8 13
  602.9128 59.5 999
  625.7695 0.7 11
  628.7902 8.3 139
  628.8496 0.6 10
  689.9695 3.1 52
  690.0099 0.7 11
  712.8151 1.6 26
  712.8388 1.0 16
  715.8385 1.1 18
  715.8738 2.9 48
  730.8051 0.9 15
  730.8405 1.3 21
  733.8638 2.0 33
  733.8938 1.6 26
  817.8889 10.4 174
  817.9319 1.4 23
  835.9049 3.4 57
//