ACCESSION: MSBNK-BAFG-CSL2310303077
RECORD_TITLE: Parathion; LC-ESI-QTOF; MS2; 40 V
DATE: 2023.10.30
AUTHORS: Kevin S. Jewell; Björn Ehlig; Arne Wick
LICENSE: dl-de/by-2-0
COPYRIGHT: Copyright 2023 Federal Institute of Hydrology, Koblenz, Germany
COMMENT: CONFIDENCE Reference Standard (Level 1)
COMMENT: Chromatography method: dx.doi.org/10.1016/j.chroma.2015.11.014
COMMENT: Acquisition method: 10.1002/rcm.8541
CH$NAME: Parathion
CH$COMPOUND_CLASS: Insecticide
CH$FORMULA: C10H14NO5PS
CH$EXACT_MASS: 291.033
CH$SMILES: CCOP(=S)(OCC)Oc1ccc(cc1)[N+](=O)[O-]
CH$IUPAC: InChI=1S/C10H14NO5PS/c1-3-14-17(18,15-4-2)16-10-7-5-9(6-8-10)11(12)13/h5-8H,3-4H2,1-2H3
CH$LINK: CAS 56-38-2
CH$LINK: INCHIKEY LCCNCVORNKJIRZ-UHFFFAOYSA-N
AC$INSTRUMENT: TripleTOF 5600 SCIEX
AC$INSTRUMENT_TYPE: LC-ESI-QTOF
AC$MASS_SPECTROMETRY: MS_TYPE MS2
AC$MASS_SPECTROMETRY: ION_MODE POSITIVE
AC$MASS_SPECTROMETRY: COLLISION_ENERGY 40
AC$MASS_SPECTROMETRY: FRAGMENTATION_MODE CID
AC$MASS_SPECTROMETRY: IONIZATION ESI
AC$CHROMATOGRAPHY: COLUMN_NAME Zorbax Eclipse Plus C18 2.1 mm x 150 mm, 3.5 um, Agilent
AC$CHROMATOGRAPHY: COLUMN_TEMPERATURE 40 °C
AC$CHROMATOGRAPHY: FLOW_GRADIENT 0 min min 98% A, 1 min 98% A, 2 min 80% A, 16.5 min 2% A, 22 min 2% A, 22.1 min 98% A, 27 min 98% A
AC$CHROMATOGRAPHY: FLOW_RATE 0.3 mL/min
AC$CHROMATOGRAPHY: RETENTION_TIME 14.107 min
AC$CHROMATOGRAPHY: SOLVENT A: Water 0.1% Formic acid, B: Acetonitrile 0.1% Formic acid
MS$FOCUSED_ION: PRECURSOR_M/Z 292.0403
MS$FOCUSED_ION: PRECURSOR_TYPE [M+H]+
MS$DATA_PROCESSING: COMMENT Export with Spectra 1.9.12 MsBackendMassbank 1.7.4
MS$DATA_PROCESSING: WHOLE RMassBank 2.3.1
PK$SPLASH: splash10-000l-4950000000-440a9cc5941cb6d6db95
PK$NUM_PEAK: 29
PK$PEAK: m/z int. rel.int.
  65.0396 0.4 22
  66.0503 0.6 33
  75.0276 0.6 33
  93.0339 1.3 73
  93.0574 0.7 39
  94.0421 10 564
  94.0689 0.7 39
  96.9514 5.3 299
  108.0035 0.4 22
  109.0115 0.8 45
  110.0177 6.8 383
  122.9901 0.7 39
  123.0308 7.3 412
  125.0042 0.8 45
  126.0127 0.4 22
  139.0083 0.7 39
  140.0331 4.7 265
  153.9949 0.6 33
  154.9686 0.6 33
  155.9957 2.9 163
  156.0081 2.9 163
  171.9736 2.9 163
  184.9793 0.4 22
  187.969 0.5 28
  189.9816 3.9 220
  201.986 0.7 39
  217.9644 4 225
  218.9717 1.5 84
  235.9749 17.7 999
//
