ACCESSION: MSBNK-BAFG-CSL2310257728
RECORD_TITLE: Abacavir carboxylic acid; LC-ESI-QTOF; MS2; 40 V
DATE: 2023.10.25
AUTHORS: Kevin S. Jewell; Björn Ehlig; Arne Wick
LICENSE: dl-de/by-2-0
COPYRIGHT: Copyright 2023 Federal Institute of Hydrology, Koblenz, Germany
COMMENT: CONFIDENCE Reference Standard (Level 1)
COMMENT: Chromatography method: dx.doi.org/10.1016/j.chroma.2015.11.014
COMMENT: Acquisition method: 10.1002/rcm.8541
CH$NAME: Abacavir carboxylic acid
CH$COMPOUND_CLASS: Pharmaceutical; Metabolite; Transformation_product
CH$FORMULA: C14H16N6O2
CH$EXACT_MASS: 300.1335
CH$SMILES: C1CC1NC2=NC(=NC3=C2N=CN3C4CC(C=C4)C(=O)O)N
CH$IUPAC: InChI=1S/C14H16N6O2/c15-14-18-11(17-8-2-3-8)10-12(19-14)20(6-16-10)9-4-1-7(5-9)13(21)22/h1,4,6-9H,2-3,5H2,(H,21,22)(H3,15,17,18,19)
CH$LINK: CAS 384380-52-3
CH$LINK: INCHIKEY OCSMNHMMTKMVCP-UHFFFAOYSA-N
AC$INSTRUMENT: TripleTOF 5600 SCIEX
AC$INSTRUMENT_TYPE: LC-ESI-QTOF
AC$MASS_SPECTROMETRY: MS_TYPE MS2
AC$MASS_SPECTROMETRY: ION_MODE POSITIVE
AC$MASS_SPECTROMETRY: COLLISION_ENERGY 40
AC$MASS_SPECTROMETRY: FRAGMENTATION_MODE CID
AC$MASS_SPECTROMETRY: IONIZATION ESI
AC$CHROMATOGRAPHY: COLUMN_NAME Zorbax Eclipse Plus C18 2.1 mm x 150 mm, 3.5 um, Agilent
AC$CHROMATOGRAPHY: COLUMN_TEMPERATURE 40 °C
AC$CHROMATOGRAPHY: FLOW_GRADIENT 0 min min 98% A, 1 min 98% A, 2 min 80% A, 16.5 min 2% A, 22 min 2% A, 22.1 min 98% A, 27 min 98% A
AC$CHROMATOGRAPHY: FLOW_RATE 0.3 mL/min
AC$CHROMATOGRAPHY: RETENTION_TIME 5.194 min
AC$CHROMATOGRAPHY: SOLVENT A: Water 0.1% Formic acid, B: Acetonitrile 0.1% Formic acid
MS$FOCUSED_ION: PRECURSOR_M/Z 301.1408
MS$FOCUSED_ION: PRECURSOR_TYPE [M+H]+
MS$DATA_PROCESSING: COMMENT Export with Spectra 1.9.12 MsBackendMassbank 1.7.4
MS$DATA_PROCESSING: WHOLE RMassBank 2.3.1
PK$SPLASH: splash10-0f6x-1900000000-7fda79f4c0be2abf49ab
PK$NUM_PEAK: 27
PK$PEAK: m/z int. rel.int.
  58.0696 9.9 59
  65.0423 9.1 54
  67.0581 22.8 136
  83.0507 9.1 54
  93.0342 6.2 37
  107.0351 6.9 41
  108.0422 6.5 38
  109.0506 19.4 115
  111.0435 7.7 45
  119.034 4.2 25
  120.0543 3.4 20
  122.0705 4.7 28
  132.0548 3.6 21
  133.0422 3.8 22
  134.0459 45.3 270
  136.0614 3.9 23
  147.066 6 35
  148.0614 1.8 10
  149.0824 12.6 75
  150.065 84.5 504
  151.0707 4.1 24
  163.0717 7.6 45
  164.0931 12.1 72
  173.0722 2.1 12
  174.0775 55.8 333
  175.0722 10 59
  191.1044 167.4 999
//
