ACCESSION: MSBNK-BAFG-CSL2310256521
RECORD_TITLE: Carazolol; LC-ESI-QTOF; MS2; 30 V
DATE: 2023.10.25
AUTHORS: Kevin S. Jewell; Björn Ehlig; Arne Wick
LICENSE: dl-de/by-2-0
COPYRIGHT: Copyright 2023 Federal Institute of Hydrology, Koblenz, Germany
COMMENT: CONFIDENCE Reference Standard (Level 1)
COMMENT: Chromatography method: dx.doi.org/10.1016/j.chroma.2015.11.014
COMMENT: Acquisition method: 10.1002/rcm.8541
CH$NAME: Carazolol
CH$COMPOUND_CLASS: Pharmaceutical
CH$FORMULA: C18H22N2O2
CH$EXACT_MASS: 298.1681
CH$SMILES: CC(C)NCC(O)COc1cccc2[nH]c3ccccc3c12
CH$IUPAC: InChI=1S/C18H22N2O2/c1-12(2)19-10-13(21)11-22-17-9-5-8-16-18(17)14-6-3-4-7-15(14)20-16/h3-9,12-13,19-21H,10-11H2,1-2H3
CH$LINK: CAS 57775-29-8
CH$LINK: INCHIKEY BQXQGZPYHWWCEB-UHFFFAOYSA-N
AC$INSTRUMENT: TripleTOF 5600 SCIEX
AC$INSTRUMENT_TYPE: LC-ESI-QTOF
AC$MASS_SPECTROMETRY: MS_TYPE MS2
AC$MASS_SPECTROMETRY: ION_MODE POSITIVE
AC$MASS_SPECTROMETRY: COLLISION_ENERGY 30
AC$MASS_SPECTROMETRY: FRAGMENTATION_MODE CID
AC$MASS_SPECTROMETRY: IONIZATION ESI
AC$CHROMATOGRAPHY: COLUMN_NAME Zorbax Eclipse Plus C18 2.1 mm x 150 mm, 3.5 um, Agilent
AC$CHROMATOGRAPHY: COLUMN_TEMPERATURE 40 °C
AC$CHROMATOGRAPHY: FLOW_GRADIENT 0 min min 98% A, 1 min 98% A, 2 min 80% A, 16.5 min 2% A, 22 min 2% A, 22.1 min 98% A, 27 min 98% A
AC$CHROMATOGRAPHY: FLOW_RATE 0.3 mL/min
AC$CHROMATOGRAPHY: RETENTION_TIME 6.882 min
AC$CHROMATOGRAPHY: SOLVENT A: Water 0.1% Formic acid, B: Acetonitrile 0.1% Formic acid
MS$FOCUSED_ION: PRECURSOR_M/Z 299.1754
MS$FOCUSED_ION: PRECURSOR_TYPE [M+H]+
MS$DATA_PROCESSING: COMMENT Export with Spectra 1.9.12 MsBackendMassbank 1.7.4
MS$DATA_PROCESSING: WHOLE RMassBank 2.3.1
PK$SPLASH: splash10-01ba-2960000000-5ac064d2371c3bd8da4f
PK$NUM_PEAK: 19
PK$PEAK: m/z int. rel.int.
  56.056 36.7 63
  58.071 13.3 23
  72.0851 63.4 110
  74.0643 85.9 149
  98.098 63.1 109
  116.1084 574.6 999
  156.0815 8.9 15
  166.0652 6 10
  167.0753 5.8 10
  168.081 23 39
  180.0814 7.5 13
  184.0767 176.6 307
  194.0972 141.3 245
  196.0769 122.9 213
  204.0808 9.2 15
  210.092 11.4 19
  222.0924 404.2 702
  257.1293 14.7 25
  299.1768 310.1 539
//
