ACCESSION: MSBNK-BAFG-CSL23102616825
RECORD_TITLE: 4-Hydroxydiphenylamine; LC-ESI-QTOF; MS2; 120 V
DATE: 2023.10.26
AUTHORS: Kevin S. Jewell; Björn Ehlig; Arne Wick
LICENSE: dl-de/by-2-0
COPYRIGHT: Copyright 2023 Federal Institute of Hydrology, Koblenz, Germany
COMMENT: CONFIDENCE Reference Standard (Level 1)
COMMENT: Chromatography method: dx.doi.org/10.1016/j.chroma.2015.11.014
COMMENT: Acquisition method: 10.1002/rcm.8541
CH$NAME: 4-Hydroxydiphenylamine
CH$COMPOUND_CLASS: Pesticide
CH$FORMULA: C12H11NO
CH$EXACT_MASS: 185.0841
CH$SMILES: C1=CC=C(C=C1)NC2=CC=C(C=C2)O
CH$IUPAC: InChI=1S/C12H11NO/c14-12-8-6-11(7-9-12)13-10-4-2-1-3-5-10/h1-9,13-14H
CH$LINK: CAS 122-37-2
CH$LINK: INCHIKEY JTTMYKSFKOOQLP-UHFFFAOYSA-N
AC$INSTRUMENT: TripleTOF 6600 SCIEX
AC$INSTRUMENT_TYPE: LC-ESI-QTOF
AC$MASS_SPECTROMETRY: MS_TYPE MS2
AC$MASS_SPECTROMETRY: ION_MODE POSITIVE
AC$MASS_SPECTROMETRY: COLLISION_ENERGY 120
AC$MASS_SPECTROMETRY: FRAGMENTATION_MODE CID
AC$MASS_SPECTROMETRY: IONIZATION ESI
AC$CHROMATOGRAPHY: COLUMN_NAME Zorbax Eclipse Plus C18 2.1 mm x 150 mm, 3.5 um, Agilent
AC$CHROMATOGRAPHY: COLUMN_TEMPERATURE 40 °C
AC$CHROMATOGRAPHY: FLOW_GRADIENT 0 min min 98% A, 1 min 98% A, 2 min 80% A, 16.5 min 2% A, 22 min 2% A, 22.1 min 98% A, 27 min 98% A
AC$CHROMATOGRAPHY: FLOW_RATE 0.3 mL/min
AC$CHROMATOGRAPHY: RETENTION_TIME 10.034 min
AC$CHROMATOGRAPHY: SOLVENT A: Water 0.1% Formic acid, B: Acetonitrile 0.1% Formic acid
MS$FOCUSED_ION: PRECURSOR_M/Z 186.0914
MS$FOCUSED_ION: PRECURSOR_TYPE [M+H]+
MS$DATA_PROCESSING: COMMENT Export with Spectra 1.9.12 MsBackendMassbank 1.7.4
MS$DATA_PROCESSING: WHOLE RMassBank 2.3.1
PK$SPLASH: splash10-0f79-9000000000-7f5664a9982d1c633deb
PK$NUM_PEAK: 22
PK$PEAK: m/z int. rel.int.
  35.9988 1.6 150
  37.0066 6.4 603
  38.0024 1 94
  38.0145 4.9 461
  39.0222 10.6 999
  40.0165 0.9 84
  41.0255 1.1 103
  42.0327 0.7 65
  44.0125 0.5 47
  49.0061 1.6 150
  50.0142 6.9 650
  51.0219 4.8 452
  52.0172 2.1 197
  53.0014 0.7 65
  53.0374 3.6 339
  54.0329 1.6 150
  61.0065 1.3 122
  62.0139 2.7 254
  63.0211 3 282
  65.0381 1.1 103
  74.0143 1.5 141
  80.048 1.5 141
//
