ACCESSION: MSBNK-BAFG-CSL23103016138
RECORD_TITLE: Thiamine Disulfide; LC-ESI-QTOF; MS2; 50 V
DATE: 2023.10.30
AUTHORS: Kevin S. Jewell; Björn Ehlig; Arne Wick
LICENSE: dl-de/by-2-0
COPYRIGHT: Copyright 2023 Federal Institute of Hydrology, Koblenz, Germany
COMMENT: CONFIDENCE Reference Standard (Level 1)
COMMENT: Chromatography method: dx.doi.org/10.1016/j.chroma.2015.11.014
COMMENT: Acquisition method: 10.1002/rcm.8541
CH$NAME: Thiamine Disulfide
CH$COMPOUND_CLASS: Pharmaceutical
CH$FORMULA: C24H34N8O4S2
CH$EXACT_MASS: 562.2144
CH$SMILES: CC1=NC=C(C(=N1)N)CN(C=O)C(=C(CCO)SSC(=C(C)N(CC2=CN=C(N=C2N)C)C=O)CCO)C
CH$IUPAC: InChI=1S/C24H34N8O4S2/c1-15(31(13-35)11-19-9-27-17(3)29-23(19)25)21(5-7-33)37-38-22(6-8-34)16(2)32(14-36)12-20-10-28-18(4)30-24(20)26/h9-10,13-14,33-34H,5-8,11-12H2,1-4H3,(H2,25,27,29)(H2,26,28,30)
CH$LINK: CAS 67-16-3
CH$LINK: INCHIKEY GFEGEDUIIYDMOX-UHFFFAOYSA-N
AC$INSTRUMENT: TripleTOF 6600 SCIEX
AC$INSTRUMENT_TYPE: LC-ESI-QTOF
AC$MASS_SPECTROMETRY: MS_TYPE MS2
AC$MASS_SPECTROMETRY: ION_MODE POSITIVE
AC$MASS_SPECTROMETRY: COLLISION_ENERGY 50
AC$MASS_SPECTROMETRY: FRAGMENTATION_MODE CID
AC$MASS_SPECTROMETRY: IONIZATION ESI
AC$CHROMATOGRAPHY: COLUMN_NAME Zorbax Eclipse Plus C18 2.1 mm x 150 mm, 3.5 um, Agilent
AC$CHROMATOGRAPHY: COLUMN_TEMPERATURE 40 °C
AC$CHROMATOGRAPHY: FLOW_GRADIENT 0 min min 98% A, 1 min 98% A, 2 min 80% A, 16.5 min 2% A, 22 min 2% A, 22.1 min 98% A, 27 min 98% A
AC$CHROMATOGRAPHY: FLOW_RATE 0.3 mL/min
AC$CHROMATOGRAPHY: RETENTION_TIME 4.48 min
AC$CHROMATOGRAPHY: SOLVENT A: Water 0.1% Formic acid, B: Acetonitrile 0.1% Formic acid
MS$FOCUSED_ION: PRECURSOR_M/Z 563.2217
MS$FOCUSED_ION: PRECURSOR_TYPE [M+H]+
MS$DATA_PROCESSING: COMMENT Export with Spectra 1.9.12 MsBackendMassbank 1.7.4
MS$DATA_PROCESSING: WHOLE RMassBank 2.3.1
PK$SPLASH: splash10-00di-0930000000-3e58f9c0ad47962c9dd0
PK$NUM_PEAK: 32
PK$PEAK: m/z int. rel.int.
  69.0433 2.8 11
  81.0438 5.1 20
  82.0516 7 28
  107.0594 5.4 22
  110.0705 142.1 581
  122.0701 41.5 169
  123.0786 244.2 999
  124.0863 229.5 938
  137.0814 17.9 73
  139.0978 10.6 43
  144.0473 16.5 67
  149.0813 6.7 27
  154.0434 3.1 12
  167.0925 6.2 25
  204.1128 12.2 49
  219.0697 4.2 17
  219.1231 3.7 15
  221.1396 40.2 164
  223.1017 8.4 34
  231.1231 4.2 17
  233.0866 19.2 78
  234.0938 3.6 14
  247.1028 6.1 24
  249.134 12.2 49
  251.0966 3.6 14
  253.1125 45 184
  254.1193 2.5 10
  263.0968 40.1 164
  264.1047 11.9 48
  265.1124 11.4 46
  281.1063 23.8 97
  283.1221 9.1 37
//
