ACCESSION: MSBNK-BAFG-CSL2310269454
RECORD_TITLE: Phenylbutazone; LC-ESI-QTOF; MS2; 80 V
DATE: 2023.10.26
AUTHORS: Kevin S. Jewell; Björn Ehlig; Arne Wick
LICENSE: dl-de/by-2-0
COPYRIGHT: Copyright 2023 Federal Institute of Hydrology, Koblenz, Germany
COMMENT: CONFIDENCE Reference Standard (Level 1)
COMMENT: Chromatography method: dx.doi.org/10.1016/j.chroma.2015.11.014
COMMENT: Acquisition method: 10.1002/rcm.8541
CH$NAME: Phenylbutazone
CH$COMPOUND_CLASS: Pharmaceutical
CH$FORMULA: C19H20N2O2
CH$EXACT_MASS: 308.1525
CH$SMILES: CCCCC1C(=O)N(N(C1=O)C2=CC=CC=C2)C3=CC=CC=C3
CH$IUPAC: InChI=1S/C19H20N2O2/c1-2-3-14-17-18(22)20(15-10-6-4-7-11-15)21(19(17)23)16-12-8-5-9-13-16/h4-13,17H,2-3,14H2,1H3
CH$LINK: CAS 50-33-9
CH$LINK: INCHIKEY VYMDGNCVAMGZFE-UHFFFAOYSA-N
AC$INSTRUMENT: TripleTOF 5600 SCIEX
AC$INSTRUMENT_TYPE: LC-ESI-QTOF
AC$MASS_SPECTROMETRY: MS_TYPE MS2
AC$MASS_SPECTROMETRY: ION_MODE POSITIVE
AC$MASS_SPECTROMETRY: COLLISION_ENERGY 80
AC$MASS_SPECTROMETRY: FRAGMENTATION_MODE CID
AC$MASS_SPECTROMETRY: IONIZATION ESI
AC$CHROMATOGRAPHY: COLUMN_NAME Zorbax Eclipse Plus C18 2.1 mm x 150 mm, 3.5 um, Agilent
AC$CHROMATOGRAPHY: COLUMN_TEMPERATURE 40 °C
AC$CHROMATOGRAPHY: FLOW_GRADIENT 0 min min 98% A, 1 min 98% A, 2 min 80% A, 16.5 min 2% A, 22 min 2% A, 22.1 min 98% A, 27 min 98% A
AC$CHROMATOGRAPHY: FLOW_RATE 0.3 mL/min
AC$CHROMATOGRAPHY: RETENTION_TIME 13.103 min
AC$CHROMATOGRAPHY: SOLVENT A: Water 0.1% Formic acid, B: Acetonitrile 0.1% Formic acid
MS$FOCUSED_ION: PRECURSOR_M/Z 309.1598
MS$FOCUSED_ION: PRECURSOR_TYPE [M+H]+
MS$DATA_PROCESSING: COMMENT Export with Spectra 1.9.12 MsBackendMassbank 1.7.4
MS$DATA_PROCESSING: WHOLE RMassBank 2.3.1
PK$SPLASH: splash10-004i-9300000000-6ff40bfc398564b4b4a0
PK$NUM_PEAK: 38
PK$PEAK: m/z int. rel.int.
  55.027 3.8 23
  66.0536 4.3 26
  67.061 1.6 10
  77.0451 159.4 999
  78.0398 2.8 17
  78.051 3.5 21
  79.0596 4.6 28
  89.0443 2.7 16
  90.0498 1.8 11
  91.0575 8.6 53
  92.054 34.4 215
  93.036 2.6 16
  93.0615 13 81
  94.0457 2.8 17
  94.0692 18.8 117
  103.0551 1.8 11
  104.0521 9.8 61
  105.0504 5.6 35
  106.0673 10.2 63
  115.0558 3.4 21
  116.0523 1.6 10
  117.059 5.4 33
  118.0676 11.6 72
  120.0452 3 18
  128.0515 3.8 23
  130.0666 5.7 35
  132.0453 3.1 19
  133.0542 6.7 41
  139.0552 2 12
  140.0523 2.4 15
  144.0817 1.6 10
  146.0614 2.2 13
  166.0657 2.3 14
  167.0731 4.4 27
  168.0828 1.7 10
  181.0763 11.3 70
  182.0841 2.7 16
  206.0851 2 12
//
