ACCESSION: MSBNK-BAFG-CSL2310255433
RECORD_TITLE: 2-(2-Methoxyphenyl)-1H-Benzimidazole; LC-ESI-QTOF; MS2; 140 V
DATE: 2023.10.25
AUTHORS: Kevin S. Jewell; Björn Ehlig; Arne Wick
LICENSE: dl-de/by-2-0
COPYRIGHT: Copyright 2023 Federal Institute of Hydrology, Koblenz, Germany
COMMENT: CONFIDENCE Reference Standard (Level 1)
COMMENT: Chromatography method: dx.doi.org/10.1016/j.chroma.2015.11.014
COMMENT: Acquisition method: 10.1002/rcm.8541
CH$NAME: 2-(2-Methoxyphenyl)-1H-Benzimidazole
CH$COMPOUND_CLASS: Pharmaceutical
CH$FORMULA: C14H12N2O
CH$EXACT_MASS: 224.095
CH$SMILES: COc1ccccc1c2[nH]c3ccccc3n2
CH$IUPAC: InChI=1S/C14H12N2O/c1-17-13-9-5-2-6-10(13)14-15-11-7-3-4-8-12(11)16-14/h2-9H,1H3,(H,15,16)
CH$LINK: CAS 6528-85-4
CH$LINK: INCHIKEY JNFBDHNAZPBWTF-UHFFFAOYSA-N
AC$INSTRUMENT: TripleTOF 5600 SCIEX
AC$INSTRUMENT_TYPE: LC-ESI-QTOF
AC$MASS_SPECTROMETRY: MS_TYPE MS2
AC$MASS_SPECTROMETRY: ION_MODE POSITIVE
AC$MASS_SPECTROMETRY: COLLISION_ENERGY 140
AC$MASS_SPECTROMETRY: FRAGMENTATION_MODE CID
AC$MASS_SPECTROMETRY: IONIZATION ESI
AC$CHROMATOGRAPHY: COLUMN_NAME Zorbax Eclipse Plus C18 2.1 mm x 150 mm, 3.5 um, Agilent
AC$CHROMATOGRAPHY: COLUMN_TEMPERATURE 40 °C
AC$CHROMATOGRAPHY: FLOW_GRADIENT 0 min min 98% A, 1 min 98% A, 2 min 80% A, 16.5 min 2% A, 22 min 2% A, 22.1 min 98% A, 27 min 98% A
AC$CHROMATOGRAPHY: FLOW_RATE 0.3 mL/min
AC$CHROMATOGRAPHY: RETENTION_TIME 6.225 min
AC$CHROMATOGRAPHY: SOLVENT A: Water 0.1% Formic acid, B: Acetonitrile 0.1% Formic acid
MS$FOCUSED_ION: PRECURSOR_M/Z 225.1022
MS$FOCUSED_ION: PRECURSOR_TYPE [M+H]+
MS$DATA_PROCESSING: COMMENT Export with Spectra 1.9.12 MsBackendMassbank 1.7.4
MS$DATA_PROCESSING: WHOLE RMassBank 2.3.1
PK$SPLASH: splash10-00fr-9000000000-ccb5b2541ba31403e1b5
PK$NUM_PEAK: 19
PK$PEAK: m/z int. rel.int.
  52.0236 2.2 209
  60.0047 1 95
  62.0473 1.1 104
  65.0298 0.6 57
  65.043 2.3 218
  73.0098 0.9 85
  74.0177 10.5 999
  75.0131 1.4 133
  75.0248 3.9 371
  76.0212 2.1 199
  76.0317 1.4 133
  77.0412 1.5 142
  86.0169 0.7 66
  87.0242 0.6 57
  98.013 0.5 47
  99.0211 0.6 57
  100.0271 0.7 66
  102.0348 0.6 57
  125.035 0.4 38
//
