ACCESSION: MSBNK-BAFG-CSL23111010272
RECORD_TITLE: Ethyl 2,4-diaminopyrimidine-5-carboxylate; LC-ESI-QTOF; MS2; 130 V
DATE: 2023.11.10
AUTHORS: Kevin S. Jewell; Björn Ehlig; Arne Wick
LICENSE: dl-de/by-2-0
COPYRIGHT: Copyright 2023 Federal Institute of Hydrology, Koblenz, Germany
COMMENT: CONFIDENCE Reference Standard (Level 1)
COMMENT: Chromatography method: dx.doi.org/10.1016/j.chroma.2015.11.014
COMMENT: Acquisition method: 10.1002/rcm.8541
CH$NAME: Ethyl 2,4-diaminopyrimidine-5-carboxylate
CH$COMPOUND_CLASS: Pharmaceutical
CH$FORMULA: C7H10N4O2
CH$EXACT_MASS: 182.0804
CH$SMILES: CCOC(=O)C1=CN=C(N=C1N)N
CH$IUPAC: InChI=1S/C7H10N4O2/c1-2-13-6(12)4-3-10-7(9)11-5(4)8/h3H,2H2,1H3,(H4,8,9,10,11)
CH$LINK: CAS 15400-54-1
CH$LINK: INCHIKEY MANFWSKJPOXKJZ-UHFFFAOYSA-N
AC$INSTRUMENT: TripleTOF 5600 SCIEX
AC$INSTRUMENT_TYPE: LC-ESI-QTOF
AC$MASS_SPECTROMETRY: MS_TYPE MS2
AC$MASS_SPECTROMETRY: ION_MODE POSITIVE
AC$MASS_SPECTROMETRY: COLLISION_ENERGY 130
AC$MASS_SPECTROMETRY: FRAGMENTATION_MODE CID
AC$MASS_SPECTROMETRY: IONIZATION ESI
AC$CHROMATOGRAPHY: COLUMN_NAME Zorbax Eclipse Plus C18 2.1 mm x 150 mm, 3.5 um, Agilent
AC$CHROMATOGRAPHY: COLUMN_TEMPERATURE 40 °C
AC$CHROMATOGRAPHY: FLOW_GRADIENT 0 min min 98% A, 1 min 98% A, 2 min 80% A, 16.5 min 2% A, 22 min 2% A, 22.1 min 98% A, 27 min 98% A
AC$CHROMATOGRAPHY: FLOW_RATE 0.3 mL/min
AC$CHROMATOGRAPHY: RETENTION_TIME 4.607 min
AC$CHROMATOGRAPHY: SOLVENT A: Water 0.1% Formic acid, B: Acetonitrile 0.1% Formic acid
MS$FOCUSED_ION: PRECURSOR_M/Z 183.0877
MS$FOCUSED_ION: PRECURSOR_TYPE [M+H]+
MS$DATA_PROCESSING: COMMENT Export with Spectra 1.9.12 MsBackendMassbank 1.7.4
MS$DATA_PROCESSING: WHOLE RMassBank 2.3.1
PK$SPLASH: splash10-0f6x-9000000000-e73c02582650885d7674
PK$NUM_PEAK: 15
PK$PEAK: m/z int. rel.int.
  39.0233 0.9 99
  40.0305 5.5 610
  41.0255 1.6 177
  41.0385 3.9 432
  42.0423 0.5 55
  42.0493 0.6 66
  43.042 9 999
  44.0306 0.5 55
  51.0218 1.6 177
  52.0288 5.7 632
  53.0099 1.7 188
  53.0189 1.1 122
  65.0221 0.5 55
  67.0344 0.6 66
  68.0305 6.3 699
//
