ACCESSION: MSBNK-BAFG-CSL23103018581
RECORD_TITLE: Tenamfetamine; LC-ESI-QTOF; MS2; 110 V
DATE: 2023.10.30
AUTHORS: Kevin S. Jewell; Björn Ehlig; Arne Wick
LICENSE: dl-de/by-2-0
COPYRIGHT: Copyright 2023 Federal Institute of Hydrology, Koblenz, Germany
COMMENT: CONFIDENCE Reference Standard (Level 1)
COMMENT: Chromatography method: dx.doi.org/10.1016/j.chroma.2015.11.014
COMMENT: Acquisition method: 10.1002/rcm.8541
CH$NAME: Tenamfetamine
CH$COMPOUND_CLASS: Pharmaceutical
CH$FORMULA: C10H13NO2
CH$EXACT_MASS: 179.0946
CH$SMILES: CC(CC1=CC2=C(C=C1)OCO2)N
CH$IUPAC: InChI=1S/C10H13NO2/c1-7(11)4-8-2-3-9-10(5-8)13-6-12-9/h2-3,5,7H,4,6,11H2,1H3
CH$LINK: CAS 4764-17-4
CH$LINK: INCHIKEY NGBBVGZWCFBOGO-UHFFFAOYSA-N
AC$INSTRUMENT: TripleTOF 6600 SCIEX
AC$INSTRUMENT_TYPE: LC-ESI-QTOF
AC$MASS_SPECTROMETRY: MS_TYPE MS2
AC$MASS_SPECTROMETRY: ION_MODE POSITIVE
AC$MASS_SPECTROMETRY: COLLISION_ENERGY 110
AC$MASS_SPECTROMETRY: FRAGMENTATION_MODE CID
AC$MASS_SPECTROMETRY: IONIZATION ESI
AC$CHROMATOGRAPHY: COLUMN_NAME Zorbax Eclipse Plus C18 2.1 mm x 150 mm, 3.5 um, Agilent
AC$CHROMATOGRAPHY: COLUMN_TEMPERATURE 40 °C
AC$CHROMATOGRAPHY: FLOW_GRADIENT 0 min min 98% A, 1 min 98% A, 2 min 80% A, 16.5 min 2% A, 22 min 2% A, 22.1 min 98% A, 27 min 98% A
AC$CHROMATOGRAPHY: FLOW_RATE 0.3 mL/min
AC$CHROMATOGRAPHY: RETENTION_TIME 5.295 min
AC$CHROMATOGRAPHY: SOLVENT A: Water 0.1% Formic acid, B: Acetonitrile 0.1% Formic acid
MS$FOCUSED_ION: PRECURSOR_M/Z 180.1019
MS$FOCUSED_ION: PRECURSOR_TYPE [M+H]+
MS$DATA_PROCESSING: COMMENT Export with Spectra 1.9.12 MsBackendMassbank 1.7.4
MS$DATA_PROCESSING: WHOLE RMassBank 2.3.1
PK$SPLASH: splash10-0udi-9000000000-bf76d1ace60049ee18cf
PK$NUM_PEAK: 19
PK$PEAK: m/z int. rel.int.
  35.9988 0.7 28
  37.0075 6.8 280
  38.0019 0.5 20
  38.0147 3.9 160
  39.0228 6.9 284
  49.0074 4.7 194
  50.0148 24.2 999
  51.0219 19.2 792
  52.0271 0.8 33
  59.9981 0.7 28
  60.9855 0.5 20
  61.0058 2.9 119
  62.0152 5.7 235
  63.0222 5.1 210
  73.0066 0.6 24
  74.0145 3 123
  75.0217 0.4 16
  77.0373 1.3 53
  89.0381 0.9 37
//
