ACCESSION: MSBNK-BAFG-CSL25011734695
RECORD_TITLE: Reactive Orange; LC-ESI-QTOF; MS2; 40 V
DATE: 2025.01.17
AUTHORS: Ole Lessmann; Kevin S. Jewell; Björn Ehlig; Arne Wick
LICENSE: dl-de/by-2-0
COPYRIGHT: Copyright 2025 Federal Institute of Hydrology, Koblenz, Germany
COMMENT: CONFIDENCE Reference Standard (Level 1)
COMMENT: Chromatography method: dx.doi.org/10.1016/j.chroma.2015.11.014
CH$NAME: Reactive Orange
CH$FORMULA: C20H19N3O11S3
CH$EXACT_MASS: 573.0182
CH$SMILES: CC(=O)NC1=CC2=C(C(=C(C=C2C=C1)S(=O)(=O)O)N=NC3=CC=C(C=C3)S(=O)(=O)CCOS(=O)(=O)O)O
CH$IUPAC: InChI=1S/C20H19N3O11S3/c1-12(24)21-15-3-2-13-10-18(36(28,29)30)19(20(25)17(13)11-15)23-22-14-4-6-16(7-5-14)35(26,27)9-8-34-37(31,32)33/h2-7,10-11,25H,8-9H2,1H3,(H,21,24)(H,28,29,30)(H,31,32,33)
CH$LINK: CAS 109603-48-7
CH$LINK: INCHIKEY INOIOAWTVPHTCJ-UHFFFAOYSA-N
AC$INSTRUMENT: TripleTOF 6600 SCIEX
AC$INSTRUMENT_TYPE: LC-ESI-QTOF
AC$MASS_SPECTROMETRY: MS_TYPE MS2
AC$MASS_SPECTROMETRY: ION_MODE NEGATIVE
AC$MASS_SPECTROMETRY: COLLISION_ENERGY 40
AC$MASS_SPECTROMETRY: FRAGMENTATION_MODE CID
AC$MASS_SPECTROMETRY: IONIZATION ESI
AC$CHROMATOGRAPHY: COLUMN_NAME Zorbax Eclipse Plus C18 2.1 mm x 150 mm, 3.5 um, Agilent
AC$CHROMATOGRAPHY: COLUMN_TEMPERATURE 40 °C
AC$CHROMATOGRAPHY: FLOW_GRADIENT 0 min min 98% A, 1 min 98% A, 2 min 80% A, 16.5 min 2% A, 22 min 2% A, 22.1 min 98% A, 27 min 98% A
AC$CHROMATOGRAPHY: FLOW_RATE 0.3 mL/min
AC$CHROMATOGRAPHY: RETENTION_TIME 5.751 min
AC$CHROMATOGRAPHY: SOLVENT A: Water 0.1% Formic acid, B: Acetonitrile 0.1% Formic acid
MS$FOCUSED_ION: PRECURSOR_M/Z 285.5022
MS$FOCUSED_ION: PRECURSOR_TYPE [M-2H]2-
MS$DATA_PROCESSING: COMMENT Export with pycsl 0.1.0.dev1 and CSL 25.0
PK$SPLASH: splash10-000b-7490000000-c423e8b6ade177a66636
PK$NUM_PEAK: 110
PK$PEAK: m/z int. rel.int.
  63.9619 25.7216 11
  76.0318 1.7094 0
  79.7093 1.5472 0
  79.9573 320.3058 137
  80.9643 9.688 4
  90.9855 24.2103 10
  93.0342 3.6097 1
  95.9522 5.4418 2
  96.6581 10.2307 4
  96.9602 2323.7607 999
  97.9591 3.1309 1
  107.0368 1.4588 0
  116.0491 1.2007 0
  117.0347 1.2073 0
  127.0435 2.1297 0
  128.0502 9.1052 3
  129.0538 167.9661 72
  130.0287 2.4883 1
  130.0532 17.2189 7
  131.0374 1.8857 0
  132.045 1.3582 0
  139.9935 4.2818 1
  144.0452 176.133 75
  145.0302 3.9761 1
  145.0509 6.9824 3
  155.0036 1.4182 0
  155.0372 7.5465 3
  156.0453 19.9045 8
  157.0429 6.1165 2
  158.0254 14.5371 6
  158.0606 3.347 1
  167.0157 12.8459 5
  169.0401 3.5644 1
  170.0599 14.1093 6
  171.0405 4.0894 1
  171.0666 12.7878 5
  171.4986 2.1683 0
  172.0414 651.2635 279
  173.0475 135.8449 58
  174.0518 2.352 1
  182.0261 3.7537 1
  183.0135 4.5738 1
  183.0554 2.5678 1
  184.0394 26.3591 11
  185.0378 1.5352 0
  186.0195 12.5271 5
  186.0551 5.0042 2
  187.0645 5.7272 2
  196.0296 1.1979 0
  198.0558 23.6848 10
  199.0635 38.3119 16
  199.405 1.899 0
  200.0351 304.4107 130
  201.0376 8.66 3
  202.0527 4.0167 1
  208.007 17.2574 7
  209.0123 1.6337 0
  209.9989 22.4498 9
  214.049 4.9835 2
  215.0572 19.0852 8
  216.0664 1.0544 0
  220.0732 1.6202 0
  227.046 3.2902 1
  229.0618 1.2131 0
  230.0591 1.3414 0
  231.066 2.0698 0
  232.0758 12.0932 5
  233.0851 10.7457 4
  234.0914 3.1765 1
  235.0032 4.2103 1
  235.2552 2.6257 1
  236.0029 754.9052 324
  236.2607 1.9301 0
  237.01 915.9418 393
  238.0122 21.8862 9
  247.0654 1.0734 0
  247.1004 1.5877 0
  248.0701 5.9574 2
  249.0809 4.1883 1
  249.9832 5.8816 2
  250.0156 4.103 1
  251.0247 11.2672 4
  257.0511 1.0702 0
  259.0707 1.1568 0
  260.0735 1.4658 0
  262.9918 1.3818 0
  263.1622 2.5698 1
  263.9975 644.5214 277
  264.9997 15.4065 6
  266.0144 4.571 1
  273.0785 1.7491 0
  274.0591 1.191 0
  274.0858 2.5227 1
  275.0952 32.0859 13
  276.0697 4.3266 1
  276.1027 3.3425 1
  276.9915 4.0453 1
  278.0132 81.0369 34
  278.1447 1.2502 0
  279.0208 179.4329 77
  280.0254 3.1688 1
  288.0765 1.9525 0
  290.0847 1.9485 0
  291.0897 8.8328 3
  293.026 2.0233 0
  303.1051 1.1596 0
  312.0356 5.7652 2
  313.0407 1.787 0
  323.0582 3.6585 1
  324.0703 1.846 0
//
