ACCESSION: MSBNK-BAFG-CSL23110917994
RECORD_TITLE: Pethoxamid; LC-ESI-QTOF; MS2; 110 V
DATE: 2023.11.09
AUTHORS: Kevin S. Jewell; Björn Ehlig; Arne Wick
LICENSE: dl-de/by-2-0
COPYRIGHT: Copyright 2023 Federal Institute of Hydrology, Koblenz, Germany
COMMENT: CONFIDENCE Reference Standard (Level 1)
COMMENT: Chromatography method: dx.doi.org/10.1016/j.chroma.2015.11.014
COMMENT: Acquisition method: 10.1002/rcm.8541
CH$NAME: Pethoxamid
CH$COMPOUND_CLASS: Herbicide
CH$FORMULA: C16H22ClNO2
CH$EXACT_MASS: 295.1339
CH$SMILES: CCOCCN(C(=O)CCl)C(=C(C)C)C1=CC=CC=C1
CH$IUPAC: InChI=1S/C16H22ClNO2/c1-4-20-11-10-18(15(19)12-17)16(13(2)3)14-8-6-5-7-9-14/h5-9H,4,10-12H2,1-3H3
CH$LINK: CAS 106700-29-2
CH$LINK: INCHIKEY CSWIKHNSBZVWNQ-UHFFFAOYSA-N
AC$INSTRUMENT: TripleTOF 6600 SCIEX
AC$INSTRUMENT_TYPE: LC-ESI-QTOF
AC$MASS_SPECTROMETRY: MS_TYPE MS2
AC$MASS_SPECTROMETRY: ION_MODE POSITIVE
AC$MASS_SPECTROMETRY: COLLISION_ENERGY 110
AC$MASS_SPECTROMETRY: FRAGMENTATION_MODE CID
AC$MASS_SPECTROMETRY: IONIZATION ESI
AC$CHROMATOGRAPHY: COLUMN_NAME Zorbax Eclipse Plus C18 2.1 mm x 150 mm, 3.5 um, Agilent
AC$CHROMATOGRAPHY: COLUMN_TEMPERATURE 40 °C
AC$CHROMATOGRAPHY: FLOW_GRADIENT 0 min min 98% A, 1 min 98% A, 2 min 80% A, 16.5 min 2% A, 22 min 2% A, 22.1 min 98% A, 27 min 98% A
AC$CHROMATOGRAPHY: FLOW_RATE 0.3 mL/min
AC$CHROMATOGRAPHY: RETENTION_TIME 12.961 min
AC$CHROMATOGRAPHY: SOLVENT A: Water 0.1% Formic acid, B: Acetonitrile 0.1% Formic acid
MS$FOCUSED_ION: PRECURSOR_M/Z 296.1412
MS$FOCUSED_ION: PRECURSOR_TYPE [M+H]+
MS$DATA_PROCESSING: COMMENT Export with Spectra 1.9.12 MsBackendMassbank 1.7.4
MS$DATA_PROCESSING: WHOLE RMassBank 2.3.1
PK$SPLASH: splash10-014i-9400000000-ee032b0f26a5fd979b24
PK$NUM_PEAK: 28
PK$PEAK: m/z int. rel.int.
  37.0074 1.4 31
  38.0151 1.5 34
  39.0229 10.9 248
  41.0381 1.6 36
  45.0331 0.6 13
  48.9835 0.5 11
  50.0146 1.1 25
  51.0224 4.7 107
  61.0063 0.8 18
  62.0145 2 45
  63.0224 6 136
  65.0382 33.6 766
  74.0145 1.1 25
  75.0219 1.3 29
  77.0375 7.3 166
  78.0458 0.9 20
  87.0224 0.6 13
  89.0376 9.9 225
  91.0535 27.6 629
  102.0452 2.7 61
  103.0529 0.7 15
  114.045 0.4 9
  115.0533 43.8 999
  116.0603 1.3 29
  126.044 0.7 15
  127.0519 2.2 50
  128.0605 6.2 141
  130.063 0.7 15
//
