ACCESSION: MSBNK-BAFG-CSL25011734591
RECORD_TITLE: Food Yellow 3 free acid; LC-ESI-QTOF; MS2; 110 V
DATE: 2025.01.17
AUTHORS: Ole Lessmann; Kevin S. Jewell; Björn Ehlig; Arne Wick
LICENSE: dl-de/by-2-0
COPYRIGHT: Copyright 2025 Federal Institute of Hydrology, Koblenz, Germany
COMMENT: CONFIDENCE Reference Standard (Level 1)
COMMENT: Chromatography method: dx.doi.org/10.1016/j.chroma.2015.11.014
CH$NAME: Food Yellow 3 free acid
CH$FORMULA: C16H12N2O7S2
CH$EXACT_MASS: 408.0086
CH$SMILES: C1=CC(=CC=C1N=NC2=C(C=CC3=C2C=CC(=C3)S(=O)(=O)O)O)S(=O)(=O)O
CH$IUPAC: InChI=1S/C16H12N2O7S2/c19-15-8-1-10-9-13(27(23,24)25)6-7-14(10)16(15)18-17-11-2-4-12(5-3-11)26(20,21)22/h1-9,19H,(H,20,21,22)(H,23,24,25)
CH$LINK: CAS 5859-11-0
CH$LINK: INCHIKEY KEYWXKLGZZGHMT-UHFFFAOYSA-N
AC$INSTRUMENT: TripleTOF 6600 SCIEX
AC$INSTRUMENT_TYPE: LC-ESI-QTOF
AC$MASS_SPECTROMETRY: MS_TYPE MS2
AC$MASS_SPECTROMETRY: ION_MODE POSITIVE
AC$MASS_SPECTROMETRY: COLLISION_ENERGY 110
AC$MASS_SPECTROMETRY: FRAGMENTATION_MODE CID
AC$MASS_SPECTROMETRY: IONIZATION ESI
AC$CHROMATOGRAPHY: COLUMN_NAME Zorbax Eclipse Plus C18 2.1 mm x 150 mm, 3.5 um, Agilent
AC$CHROMATOGRAPHY: COLUMN_TEMPERATURE 40 °C
AC$CHROMATOGRAPHY: FLOW_GRADIENT 0 min min 98% A, 1 min 98% A, 2 min 80% A, 16.5 min 2% A, 22 min 2% A, 22.1 min 98% A, 27 min 98% A
AC$CHROMATOGRAPHY: FLOW_RATE 0.3 mL/min
AC$CHROMATOGRAPHY: RETENTION_TIME 5.59 min
AC$CHROMATOGRAPHY: SOLVENT A: Water 0.1% Formic acid, B: Acetonitrile 0.1% Formic acid
MS$FOCUSED_ION: PRECURSOR_M/Z 409.0159
MS$FOCUSED_ION: PRECURSOR_TYPE [M+H]+
MS$DATA_PROCESSING: COMMENT Export with pycsl 0.1.0.dev1 and CSL 25.0
PK$SPLASH: splash10-0fh9-9300000000-fdb8b293b1f21a9e2298
PK$NUM_PEAK: 58
PK$PEAK: m/z int. rel.int.
  37.0074 1.4 9
  39.023 12.7 89
  50.0148 8.4 58
  51.0227 8.6 60
  53.0385 29.4 206
  61.0063 3.2 22
  62.0153 8.5 59
  63.0227 35.8 251
  64.0178 1.6 11
  64.9687 4.3 30
  65.0381 42.0 294
  73.0065 2.4 16
  74.0147 73.0 512
  75.0106 5.7 39
  75.0221 17.3 121
  76.0188 2.8 19
  76.0303 21.5 150
  77.0378 6.7 47
  80.0493 142.4 999
  81.0337 5.9 41
  87.0221 4.5 31
  88.0183 2.0 14
  88.0303 3.7 25
  89.0383 51.0 357
  90.0345 2.0 14
  92.0486 15.2 106
  98.0147 11.0 77
  99.0213 27.1 190
  100.0293 78.1 547
  101.0263 8.6 60
  101.0394 2.5 17
  102.0454 2.9 20
  108.0442 21.1 148
  109.053 2.1 14
  114.0323 6.9 48
  115.0403 1.7 11
  116.0494 1.6 11
  126.0341 5.5 38
  127.0411 50.1 351
  128.048 1.6 11
  129.0497 1.5 10
  149.0387 1.5 10
  151.0534 2.3 16
  163.0545 1.8 12
  164.0504 2.5 17
  174.0441 1.6 11
  175.0552 5.3 37
  176.0554 3.7 25
  177.0535 1.5 10
  189.0574 2.1 14
  190.064 6.3 44
  201.0569 10.0 70
  202.0635 4.9 34
  216.0679 6.7 47
  217.0775 4.4 30
  227.0609 3.4 23
  228.0697 4.4 30
  229.0756 9.5 66
//
