ACCESSION: MSBNK-BAFG-CSL23103127369
RECORD_TITLE: Ethyl 4-dimethylaminobenzoate; LC-ESI-QTOF; MS2; 80 V
DATE: 2023.10.31
AUTHORS: Kevin S. Jewell; Björn Ehlig; Arne Wick
LICENSE: dl-de/by-2-0
COPYRIGHT: Copyright 2023 Federal Institute of Hydrology, Koblenz, Germany
COMMENT: CONFIDENCE Reference Standard (Level 1)
COMMENT: Chromatography method: dx.doi.org/10.1016/j.chroma.2015.11.014
COMMENT: Acquisition method: 10.1002/rcm.8541
CH$NAME: Ethyl 4-dimethylaminobenzoate
CH$FORMULA: C11H15NO2
CH$EXACT_MASS: 193.1103
CH$SMILES: O=C(OCC)C1=CC=C(C=C1)N(C)C
CH$IUPAC: InChI=1S/C11H15NO2/c1-4-14-11(13)9-5-7-10(8-6-9)12(2)3/h5-8H,4H2,1-3H3
CH$LINK: CAS 10287-53-3
CH$LINK: INCHIKEY FZUGPQWGEGAKET-UHFFFAOYSA-N
AC$INSTRUMENT: TripleTOF X500R SCIEX
AC$INSTRUMENT_TYPE: LC-ESI-QTOF
AC$MASS_SPECTROMETRY: MS_TYPE MS2
AC$MASS_SPECTROMETRY: ION_MODE POSITIVE
AC$MASS_SPECTROMETRY: COLLISION_ENERGY 80
AC$MASS_SPECTROMETRY: FRAGMENTATION_MODE CID
AC$MASS_SPECTROMETRY: IONIZATION ESI
AC$CHROMATOGRAPHY: COLUMN_NAME Zorbax Eclipse Plus C18 2.1 mm x 150 mm, 3.5 um, Agilent
AC$CHROMATOGRAPHY: COLUMN_TEMPERATURE 40 °C
AC$CHROMATOGRAPHY: FLOW_GRADIENT 0 min min 98% A, 1 min 98% A, 2 min 80% A, 16.5 min 2% A, 22 min 2% A, 22.1 min 98% A, 27 min 98% A
AC$CHROMATOGRAPHY: FLOW_RATE 0.3 mL/min
AC$CHROMATOGRAPHY: RETENTION_TIME 11.941 min
AC$CHROMATOGRAPHY: SOLVENT A: Water 0.1% Formic acid, B: Acetonitrile 0.1% Formic acid
MS$FOCUSED_ION: PRECURSOR_M/Z 194.1176
MS$FOCUSED_ION: PRECURSOR_TYPE [M+H]+
MS$DATA_PROCESSING: COMMENT Export with Spectra 1.9.12 MsBackendMassbank 1.7.4
MS$DATA_PROCESSING: WHOLE RMassBank 2.3.1
PK$SPLASH: splash10-004i-9000000000-6eb50d7dbce0dea4ae9e
PK$NUM_PEAK: 23
PK$PEAK: m/z int. rel.int.
  37.008 1.2 43
  38.0155 1.5 54
  39.0229 15.5 567
  50.0154 1.3 47
  51.0232 13.1 479
  53.0384 0.9 32
  64.0302 1.1 40
  65.0385 16.7 611
  66.0426 0.5 18
  67.0418 0.7 25
  75.0225 2.2 80
  77.0383 27.3 999
  78.0449 4.6 168
  79.0542 4.3 157
  80.0479 0.8 29
  91.0413 1.8 65
  103.0195 0.4 14
  104.0514 2.2 80
  105.0586 0.6 21
  106.0657 2.8 102
  121.0266 0.5 18
  134.06 1 36
  150.0557 1.7 62
//
