ACCESSION: MSBNK-BAFG-CSL23102515655
RECORD_TITLE: N,N-Dibenzylhydroxylamine; LC-ESI-QTOF; MS2; 150 V
DATE: 2023.10.25
AUTHORS: Kevin S. Jewell; Björn Ehlig; Arne Wick
LICENSE: dl-de/by-2-0
COPYRIGHT: Copyright 2023 Federal Institute of Hydrology, Koblenz, Germany
COMMENT: CONFIDENCE Reference Standard (Level 1)
COMMENT: Chromatography method: dx.doi.org/10.1016/j.chroma.2015.11.014
COMMENT: Acquisition method: 10.1002/rcm.8541
CH$NAME: N,N-Dibenzylhydroxylamine
CH$COMPOUND_CLASS: Industrial_process
CH$FORMULA: C14H15NO
CH$EXACT_MASS: 213.1154
CH$SMILES: C1=CC=C(C=C1)CN(CC2=CC=CC=C2)O
CH$IUPAC: InChI=1S/C14H15NO/c16-15(11-13-7-3-1-4-8-13)12-14-9-5-2-6-10-14/h1-10,16H,11-12H2
CH$LINK: CAS 621-07-8
CH$LINK: INCHIKEY GXELTROTKVKZBQ-UHFFFAOYSA-N
AC$INSTRUMENT: TripleTOF 6600 SCIEX
AC$INSTRUMENT_TYPE: LC-ESI-QTOF
AC$MASS_SPECTROMETRY: MS_TYPE MS2
AC$MASS_SPECTROMETRY: ION_MODE POSITIVE
AC$MASS_SPECTROMETRY: COLLISION_ENERGY 150
AC$MASS_SPECTROMETRY: FRAGMENTATION_MODE CID
AC$MASS_SPECTROMETRY: IONIZATION ESI
AC$CHROMATOGRAPHY: COLUMN_NAME Zorbax Eclipse Plus C18 2.1 mm x 150 mm, 3.5 um, Agilent
AC$CHROMATOGRAPHY: COLUMN_TEMPERATURE 40 °C
AC$CHROMATOGRAPHY: FLOW_GRADIENT 0 min min 98% A, 1 min 98% A, 2 min 80% A, 16.5 min 2% A, 22 min 2% A, 22.1 min 98% A, 27 min 98% A
AC$CHROMATOGRAPHY: FLOW_RATE 0.3 mL/min
AC$CHROMATOGRAPHY: RETENTION_TIME 8.957 min
AC$CHROMATOGRAPHY: SOLVENT A: Water 0.1% Formic acid, B: Acetonitrile 0.1% Formic acid
MS$FOCUSED_ION: PRECURSOR_M/Z 214.1227
MS$FOCUSED_ION: PRECURSOR_TYPE [M+H]+
MS$DATA_PROCESSING: COMMENT Export with Spectra 1.9.12 MsBackendMassbank 1.7.4
MS$DATA_PROCESSING: WHOLE RMassBank 2.3.1
PK$SPLASH: splash10-000i-9000000000-78114e7fc9e7d1f2e426
PK$NUM_PEAK: 10
PK$PEAK: m/z int. rel.int.
  35.9991 0.9 187
  37.0072 4.5 936
  38.0148 3.4 707
  39.0228 4.8 999
  49.0066 1.1 228
  50.0146 4.2 874
  51.0228 0.6 124
  61.0064 2 416
  62.0143 2.3 478
  63.0224 0.9 187
//
