ACCESSION: MSBNK-BAFG-CSL25010634141
RECORD_TITLE: 2-isopropyl-5,6-dimethyl-1H-benzimidazole; LC-ESI-QTOF; MS2; 110 V
DATE: 2025.01.06
AUTHORS: Ole Lessmann; Kevin S. Jewell; Björn Ehlig; Arne Wick
LICENSE: dl-de/by-2-0
COPYRIGHT: Copyright 2025 Federal Institute of Hydrology, Koblenz, Germany
COMMENT: CONFIDENCE Reference Standard (Level 1)
COMMENT: Chromatography method: dx.doi.org/10.1016/j.chroma.2015.11.014
COMMENT: Acquisition method: 10.1002/rcm.8541
CH$NAME: 2-isopropyl-5,6-dimethyl-1H-benzimidazole
CH$FORMULA: C12H16N2
CH$EXACT_MASS: 188.1313
CH$SMILES: CC1=CC2=C(C=C1C)N=C(N2)C(C)C
CH$IUPAC: InChI=1S/C12H16N2/c1-7(2)12-13-10-5-8(3)9(4)6-11(10)14-12/h5-7H,1-4H3,(H,13,14)
CH$LINK: CAS 66073-79-8
CH$LINK: INCHIKEY KBNPIBOOPFUXEM-UHFFFAOYSA-N
AC$INSTRUMENT: TripleTOF 6600 SCIEX
AC$INSTRUMENT_TYPE: LC-ESI-QTOF
AC$MASS_SPECTROMETRY: MS_TYPE MS2
AC$MASS_SPECTROMETRY: ION_MODE POSITIVE
AC$MASS_SPECTROMETRY: COLLISION_ENERGY 110
AC$MASS_SPECTROMETRY: FRAGMENTATION_MODE CID
AC$MASS_SPECTROMETRY: IONIZATION ESI
AC$CHROMATOGRAPHY: COLUMN_NAME Zorbax Eclipse Plus C18 2.1 mm x 150 mm, 3.5 um, Agilent
AC$CHROMATOGRAPHY: COLUMN_TEMPERATURE 40 °C
AC$CHROMATOGRAPHY: FLOW_GRADIENT 0 min min 98% A, 1 min 98% A, 2 min 80% A, 16.5 min 2% A, 22 min 2% A, 22.1 min 98% A, 27 min 98% A
AC$CHROMATOGRAPHY: FLOW_RATE 0.3 mL/min
AC$CHROMATOGRAPHY: RETENTION_TIME 6.482 min
AC$CHROMATOGRAPHY: SOLVENT A: Water 0.1% Formic acid, B: Acetonitrile 0.1% Formic acid
MS$FOCUSED_ION: PRECURSOR_M/Z 189.1386
MS$FOCUSED_ION: PRECURSOR_TYPE [M+H]+
MS$DATA_PROCESSING: COMMENT Export with pycsl 0.1.0.dev1 and CSL 24.4
PK$SPLASH: splash10-0udi-9000000000-f85c9219b954581c2675
PK$NUM_PEAK: 41
PK$PEAK: m/z int. rel.int.
  37.0069 10.6 57
  38.0141 8.5 45
  39.0225 39.7 214
  41.038 5.0 27
  49.0067 7.8 42
  50.0147 69.4 374
  51.0226 185.0 999
  52.018 4.5 24
  52.0297 8.0 43
  53.0381 4.0 21
  54.033 2.4 12
  61.006 5.3 28
  62.0142 12.3 66
  63.0218 24.3 131
  64.0175 2.0 10
  65.0376 31.2 168
  74.0142 12.0 64
  75.0219 9.8 52
  76.0173 6.8 36
  76.029 3.5 18
  77.0375 126.2 681
  78.0336 11.0 59
  78.0444 11.9 64
  80.0488 4.0 21
  89.0372 21.9 118
  90.0448 2.4 12
  91.0527 25.3 136
  102.033 2.4 12
  103.0515 2.0 10
  104.0482 24.2 130
  105.0435 2.7 14
  114.0316 2.3 12
  115.0403 2.6 14
  116.0479 2.5 13
  117.0551 4.0 21
  118.0617 2.0 10
  130.0645 2.5 13
  131.0587 12.8 69
  142.048 2.2 11
  155.0563 2.8 15
  157.0749 3.7 19
//