ACCESSION: MSBNK-BAFG-CSL2311109659
RECORD_TITLE: 4-chloro-2-hydroxy-4-methoxybenzophenone; LC-ESI-QTOF; MS2; 120 V
DATE: 2023.11.10
AUTHORS: Kevin S. Jewell; Björn Ehlig; Arne Wick
LICENSE: dl-de/by-2-0
COPYRIGHT: Copyright 2023 Federal Institute of Hydrology, Koblenz, Germany
COMMENT: CONFIDENCE Reference Standard (Level 1)
COMMENT: Chromatography method: dx.doi.org/10.1016/j.chroma.2015.11.014
COMMENT: Acquisition method: 10.1002/rcm.8541
CH$NAME: 4-chloro-2-hydroxy-4-methoxybenzophenone
CH$FORMULA: C14H11ClO3
CH$EXACT_MASS: 262.0397
CH$SMILES: COC1=CC(=C(C=C1)C(=O)C2=CC=C(C=C2)Cl)O
CH$IUPAC: InChI=1S/C14H11ClO3/c1-18-11-6-7-12(13(16)8-11)14(17)9-2-4-10(15)5-3-9/h2-8,16H,1H3
CH$LINK: CAS 85-28-9
CH$LINK: INCHIKEY CBKGNZGFDXQOEV-UHFFFAOYSA-N
AC$INSTRUMENT: TripleTOF 5600 SCIEX
AC$INSTRUMENT_TYPE: LC-ESI-QTOF
AC$MASS_SPECTROMETRY: MS_TYPE MS2
AC$MASS_SPECTROMETRY: ION_MODE POSITIVE
AC$MASS_SPECTROMETRY: COLLISION_ENERGY 120
AC$MASS_SPECTROMETRY: FRAGMENTATION_MODE CID
AC$MASS_SPECTROMETRY: IONIZATION ESI
AC$CHROMATOGRAPHY: COLUMN_NAME Zorbax Eclipse Plus C18 2.1 mm x 150 mm, 3.5 um, Agilent
AC$CHROMATOGRAPHY: COLUMN_TEMPERATURE 40 °C
AC$CHROMATOGRAPHY: FLOW_GRADIENT 0 min min 98% A, 1 min 98% A, 2 min 80% A, 16.5 min 2% A, 22 min 2% A, 22.1 min 98% A, 27 min 98% A
AC$CHROMATOGRAPHY: FLOW_RATE 0.3 mL/min
AC$CHROMATOGRAPHY: RETENTION_TIME 14.544 min
AC$CHROMATOGRAPHY: SOLVENT A: Water 0.1% Formic acid, B: Acetonitrile 0.1% Formic acid
MS$FOCUSED_ION: PRECURSOR_M/Z 263.0469
MS$FOCUSED_ION: PRECURSOR_TYPE [M+H]+
MS$DATA_PROCESSING: COMMENT Export with Spectra 1.9.12 MsBackendMassbank 1.7.4
MS$DATA_PROCESSING: WHOLE RMassBank 2.3.1
PK$SPLASH: splash10-00fr-9000000000-c7d561e89a76703494d5
PK$NUM_PEAK: 24
PK$PEAK: m/z int. rel.int.
  53.0108 0.7 20
  60.9942 0.4 11
  65.0442 0.5 14
  69.003 1.6 47
  73.0139 3.5 104
  74.0215 33.5 999
  75.0292 22.7 676
  76.0355 0.5 14
  76.0426 0.6 17
  79.0242 0.5 14
  80.0298 0.4 11
  84.9894 5.1 152
  86.0186 1.2 35
  87.0258 1.3 38
  89.0435 0.7 20
  98.0179 1.1 32
  110.0227 0.4 11
  111.005 1.7 50
  113.0422 0.7 20
  126.0497 0.4 11
  137.0373 0.5 14
  138.0481 0.5 14
  139.0574 0.5 14
  150.0471 0.7 20
//
