ACCESSION: MSBNK-BAFG-CSL2501061687
RECORD_TITLE: Chlorothiazide; LC-ESI-QTOF; MS2; 90 V
DATE: 2025.01.06
AUTHORS: Ole Lessmann; Kevin S. Jewell; Björn Ehlig; Arne Wick
LICENSE: dl-de/by-2-0
COPYRIGHT: Copyright 2025 Federal Institute of Hydrology, Koblenz, Germany
COMMENT: CONFIDENCE Reference Standard (Level 1)
COMMENT: Chromatography method: dx.doi.org/10.1016/j.chroma.2015.11.014
COMMENT: Acquisition method: 10.1002/rcm.8541
CH$NAME: Chlorothiazide
CH$COMPOUND_CLASS: Pharmaceutical; Transformation_product-Metabolite
CH$FORMULA: C7H6ClN3O4S2
CH$EXACT_MASS: 294.9488
CH$SMILES: N[S](=O)(=O)c1cc2c(NC=N[S]2(=O)=O)cc1Cl
CH$IUPAC: InChI=1S/C7H6ClN3O4S2/c8-4-1-5-7(2-6(4)16(9,12)13)17(14,15)11-3-10-5/h1-3H,(H,10,11)(H2,9,12,13)
CH$LINK: CAS 58-94-6
CH$LINK: INCHIKEY JBMKAUGHUNFTOL-UHFFFAOYSA-N
AC$INSTRUMENT: TripleTOF 5600 SCIEX
AC$INSTRUMENT_TYPE: LC-ESI-QTOF
AC$MASS_SPECTROMETRY: MS_TYPE MS2
AC$MASS_SPECTROMETRY: ION_MODE NEGATIVE
AC$MASS_SPECTROMETRY: COLLISION_ENERGY 90
AC$MASS_SPECTROMETRY: FRAGMENTATION_MODE CID
AC$MASS_SPECTROMETRY: IONIZATION ESI
AC$CHROMATOGRAPHY: COLUMN_NAME Zorbax Eclipse Plus C18 2.1 mm x 150 mm, 3.5 um, Agilent
AC$CHROMATOGRAPHY: COLUMN_TEMPERATURE 40 °C
AC$CHROMATOGRAPHY: FLOW_GRADIENT 0 min min 98% A, 1 min 98% A, 2 min 80% A, 16.5 min 2% A, 22 min 2% A, 22.1 min 98% A, 27 min 98% A
AC$CHROMATOGRAPHY: FLOW_RATE 0.3 mL/min
AC$CHROMATOGRAPHY: RETENTION_TIME 5.43 min
AC$CHROMATOGRAPHY: SOLVENT A: Water 0.1% Formic acid, B: Acetonitrile 0.1% Formic acid
MS$FOCUSED_ION: PRECURSOR_M/Z 293.9415
MS$FOCUSED_ION: PRECURSOR_TYPE [M-H]-
MS$DATA_PROCESSING: COMMENT Export with pycsl 0.1.0.dev1 and CSL 24.4
PK$SPLASH: splash10-00or-3900000000-74ba65011e202499ce8c
PK$NUM_PEAK: 11
PK$PEAK: m/z int. rel.int.
  34.9715 2.4 86
  65.0128 5.9 212
  86.0024 2.2 79
  87.0088 5.0 179
  88.0167 7.0 251
  89.0134 1.6 57
  113.0112 9.3 334
  114.0175 2.8 100
  115.0275 17.8 639
  178.9892 27.8 999
  179.9907 1.7 61
//