ACCESSION: MSBNK-BAFG-CSL23110919335
RECORD_TITLE: Florasulam; LC-ESI-QTOF; MS2; 150 V
DATE: 2023.11.09
AUTHORS: Kevin S. Jewell; Björn Ehlig; Arne Wick
LICENSE: dl-de/by-2-0
COPYRIGHT: Copyright 2023 Federal Institute of Hydrology, Koblenz, Germany
COMMENT: CONFIDENCE Reference Standard (Level 1)
COMMENT: Chromatography method: dx.doi.org/10.1016/j.chroma.2015.11.014
COMMENT: Acquisition method: 10.1002/rcm.8541
CH$NAME: Florasulam
CH$COMPOUND_CLASS: Herbicide
CH$FORMULA: C12H8F3N5O3S
CH$EXACT_MASS: 359.03
CH$SMILES: COC1=NC=C(C2=NC(=NN21)S(=O)(=O)NC3=C(C=CC=C3F)F)F
CH$IUPAC: InChI=1S/C12H8F3N5O3S/c1-23-12-16-5-8(15)10-17-11(18-20(10)12)24(21,22)19-9-6(13)3-2-4-7(9)14/h2-5,19H,1H3
CH$LINK: CAS 145701-23-1
CH$LINK: INCHIKEY QZXATCCPQKOEIH-UHFFFAOYSA-N
AC$INSTRUMENT: TripleTOF 6600 SCIEX
AC$INSTRUMENT_TYPE: LC-ESI-QTOF
AC$MASS_SPECTROMETRY: MS_TYPE MS2
AC$MASS_SPECTROMETRY: ION_MODE POSITIVE
AC$MASS_SPECTROMETRY: COLLISION_ENERGY 150
AC$MASS_SPECTROMETRY: FRAGMENTATION_MODE CID
AC$MASS_SPECTROMETRY: IONIZATION ESI
AC$CHROMATOGRAPHY: COLUMN_NAME Zorbax Eclipse Plus C18 2.1 mm x 150 mm, 3.5 um, Agilent
AC$CHROMATOGRAPHY: COLUMN_TEMPERATURE 40 °C
AC$CHROMATOGRAPHY: FLOW_GRADIENT 0 min min 98% A, 1 min 98% A, 2 min 80% A, 16.5 min 2% A, 22 min 2% A, 22.1 min 98% A, 27 min 98% A
AC$CHROMATOGRAPHY: FLOW_RATE 0.3 mL/min
AC$CHROMATOGRAPHY: RETENTION_TIME 9.723 min
AC$CHROMATOGRAPHY: SOLVENT A: Water 0.1% Formic acid, B: Acetonitrile 0.1% Formic acid
MS$FOCUSED_ION: PRECURSOR_M/Z 360.0373
MS$FOCUSED_ION: PRECURSOR_TYPE [M+H]+
MS$DATA_PROCESSING: COMMENT Export with Spectra 1.9.12 MsBackendMassbank 1.7.4
MS$DATA_PROCESSING: WHOLE RMassBank 2.3.1
PK$SPLASH: splash10-01q9-9000000000-58d443a402f02ce468b7
PK$NUM_PEAK: 38
PK$PEAK: m/z int. rel.int.
  30.9961 3.5 73
  33.0114 0.6 12
  37.0058 1 20
  38.0125 1.2 25
  46.0061 0.9 18
  50.012 1.5 31
  51.0023 3.9 81
  51.0204 2.1 43
  52.0156 3.5 73
  53.011 0.6 12
  56.003 2.8 58
  57.0107 4.3 89
  58.0058 1.1 22
  59.997 3.1 64
  61.0046 14.1 294
  62.0121 15.8 330
  63.0085 1.2 25
  63.0201 19.6 409
  65.0225 0.6 12
  70.0063 5.4 112
  73.9995 0.5 10
  74.0117 0.6 12
  75.0014 8.2 171
  76.0156 2.1 43
  77.0104 1.5 31
  81.0107 47.8 999
  82.0053 1.3 27
  82.018 5.2 108
  83.0136 0.5 10
  84.008 0.6 12
  87.007 0.8 16
  88.0149 3.1 64
  89.0242 0.9 18
  99.0045 0.6 12
  101.0166 4.9 102
  102.0235 0.5 10
  108.0212 0.7 14
  109.0304 0.6 12
//
