ACCESSION: MSBNK-BAFG-CSL25010610287
RECORD_TITLE: 2-Ethyl-6-methylaniline; LC-ESI-QTOF; MS2; 20 V
DATE: 2025.01.06
AUTHORS: Ole Lessmann; Kevin S. Jewell; Björn Ehlig; Arne Wick
LICENSE: dl-de/by-2-0
COPYRIGHT: Copyright 2025 Federal Institute of Hydrology, Koblenz, Germany
COMMENT: CONFIDENCE Reference Standard (Level 1)
COMMENT: Chromatography method: dx.doi.org/10.1016/j.chroma.2015.11.014
COMMENT: Acquisition method: 10.1002/rcm.8541
CH$NAME: 2-Ethyl-6-methylaniline
CH$COMPOUND_CLASS: Industrial_process; Herbicide; Transformation_product-Metabolite
CH$FORMULA: C9H13N
CH$EXACT_MASS: 135.1048
CH$SMILES: CCC1=CC=CC(=C1N)C
CH$IUPAC: InChI=1S/C9H13N/c1-3-8-6-4-5-7(2)9(8)10/h4-6H,3,10H2,1-2H3
CH$LINK: CAS 24549-06-2
CH$LINK: INCHIKEY JJVKJJNCIILLRP-UHFFFAOYSA-N
AC$INSTRUMENT: TripleTOF 5600 SCIEX
AC$INSTRUMENT_TYPE: LC-ESI-QTOF
AC$MASS_SPECTROMETRY: MS_TYPE MS2
AC$MASS_SPECTROMETRY: ION_MODE POSITIVE
AC$MASS_SPECTROMETRY: COLLISION_ENERGY 20
AC$MASS_SPECTROMETRY: FRAGMENTATION_MODE CID
AC$MASS_SPECTROMETRY: IONIZATION ESI
AC$CHROMATOGRAPHY: COLUMN_NAME Zorbax Eclipse Plus C18 2.1 mm x 150 mm, 3.5 um, Agilent
AC$CHROMATOGRAPHY: COLUMN_TEMPERATURE 40 °C
AC$CHROMATOGRAPHY: FLOW_GRADIENT 0 min min 98% A, 1 min 98% A, 2 min 80% A, 16.5 min 2% A, 22 min 2% A, 22.1 min 98% A, 27 min 98% A
AC$CHROMATOGRAPHY: FLOW_RATE 0.3 mL/min
AC$CHROMATOGRAPHY: RETENTION_TIME 7.958 min
AC$CHROMATOGRAPHY: SOLVENT A: Water 0.1% Formic acid, B: Acetonitrile 0.1% Formic acid
MS$FOCUSED_ION: PRECURSOR_M/Z 136.1121
MS$FOCUSED_ION: PRECURSOR_TYPE [M+H]+
MS$DATA_PROCESSING: COMMENT Export with pycsl 0.1.0.dev1 and CSL 24.4
PK$SPLASH: splash10-00kr-1900000000-d93cd25b4c4082523e0a
PK$NUM_PEAK: 17
PK$PEAK: m/z int. rel.int.
  65.0381 2.0 12
  77.0384 4.8 29
  79.0543 2.1 12
  91.0542 45.6 279
  93.0583 3.0 18
  93.0689 3.1 18
  103.0541 7.9 48
  104.0616 5.1 31
  106.0652 2.8 17
  107.0735 11.9 72
  108.0806 35.4 216
  115.0541 4.2 25
  117.0701 26.6 162
  119.0858 58.4 357
  120.0806 10.9 66
  134.0969 13.7 83
  136.1127 163.1 999
//