ACCESSION: MSBNK-BAFG-CSL23102618194
RECORD_TITLE: Fenpropidin; LC-ESI-QTOF; MS2; 110 V
DATE: 2023.10.26
AUTHORS: Kevin S. Jewell; Björn Ehlig; Arne Wick
LICENSE: dl-de/by-2-0
COPYRIGHT: Copyright 2023 Federal Institute of Hydrology, Koblenz, Germany
COMMENT: CONFIDENCE Reference Standard (Level 1)
COMMENT: Chromatography method: dx.doi.org/10.1016/j.chroma.2015.11.014
COMMENT: Acquisition method: 10.1002/rcm.8541
CH$NAME: Fenpropidin
CH$COMPOUND_CLASS: Fungicide
CH$FORMULA: C19H31N
CH$EXACT_MASS: 273.2456
CH$SMILES: CC(CC1=CC=C(C=C1)C(C)(C)C)CN2CCCCC2
CH$IUPAC: InChI=1S/C19H31N/c1-16(15-20-12-6-5-7-13-20)14-17-8-10-18(11-9-17)19(2,3)4/h8-11,16H,5-7,12-15H2,1-4H3
CH$LINK: CAS 67306-00-7
CH$LINK: INCHIKEY MGNFYQILYYYUBS-UHFFFAOYSA-N
AC$INSTRUMENT: TripleTOF 6600 SCIEX
AC$INSTRUMENT_TYPE: LC-ESI-QTOF
AC$MASS_SPECTROMETRY: MS_TYPE MS2
AC$MASS_SPECTROMETRY: ION_MODE POSITIVE
AC$MASS_SPECTROMETRY: COLLISION_ENERGY 110
AC$MASS_SPECTROMETRY: FRAGMENTATION_MODE CID
AC$MASS_SPECTROMETRY: IONIZATION ESI
AC$CHROMATOGRAPHY: COLUMN_NAME Zorbax Eclipse Plus C18 2.1 mm x 150 mm, 3.5 um, Agilent
AC$CHROMATOGRAPHY: COLUMN_TEMPERATURE 40 °C
AC$CHROMATOGRAPHY: FLOW_GRADIENT 0 min min 98% A, 1 min 98% A, 2 min 80% A, 16.5 min 2% A, 22 min 2% A, 22.1 min 98% A, 27 min 98% A
AC$CHROMATOGRAPHY: FLOW_RATE 0.3 mL/min
AC$CHROMATOGRAPHY: RETENTION_TIME 9.471 min
AC$CHROMATOGRAPHY: SOLVENT A: Water 0.1% Formic acid, B: Acetonitrile 0.1% Formic acid
MS$FOCUSED_ION: PRECURSOR_M/Z 274.2529
MS$FOCUSED_ION: PRECURSOR_TYPE [M+H]+
MS$DATA_PROCESSING: COMMENT Export with Spectra 1.9.12 MsBackendMassbank 1.7.4
MS$DATA_PROCESSING: WHOLE RMassBank 2.3.1
PK$SPLASH: splash10-014l-9500000000-3986f47dd77bb717b498
PK$NUM_PEAK: 29
PK$PEAK: m/z int. rel.int.
  37.0075 18.2 46
  38.0152 13.3 34
  39.0233 84 216
  41.0387 17.3 44
  50.0154 9.2 23
  51.023 32.4 83
  56.0497 6.1 15
  61.0064 4.6 11
  62.0154 10.4 26
  63.0229 23.5 60
  65.0387 127 327
  74.0141 4.8 12
  75.0225 5.7 14
  76.0308 5.2 13
  77.0385 88.1 226
  78.0462 30.2 77
  79.054 11.4 29
  84.0808 7.8 20
  89.0382 44.6 114
  91.0545 387.8 999
  102.0464 19.5 50
  103.0544 30.2 77
  104.0624 6.8 17
  105.0696 7.7 19
  115.0542 365.9 942
  116.0616 38.9 100
  117.0697 73.5 189
  127.0548 5.7 14
  128.0617 12.6 32
//
