ACCESSION: MSBNK-BAFG-CSL23111016461
RECORD_TITLE: Noramidopyrine; LC-ESI-QTOF; MS2; 130 V
DATE: 2023.11.10
AUTHORS: Kevin S. Jewell; Björn Ehlig; Arne Wick
LICENSE: dl-de/by-2-0
COPYRIGHT: Copyright 2023 Federal Institute of Hydrology, Koblenz, Germany
COMMENT: CONFIDENCE Reference Standard (Level 1)
COMMENT: Chromatography method: dx.doi.org/10.1016/j.chroma.2015.11.014
COMMENT: Acquisition method: 10.1002/rcm.8541
CH$NAME: Noramidopyrine
CH$COMPOUND_CLASS: Pharmaceutical
CH$FORMULA: C12H15N3O
CH$EXACT_MASS: 217.1215
CH$SMILES: CC1=C(C(=O)N(N1C)C2=CC=CC=C2)NC
CH$IUPAC: InChI=1S/C12H15N3O/c1-9-11(13-2)12(16)15(14(9)3)10-7-5-4-6-8-10/h4-8,13H,1-3H3
CH$LINK: CAS 519-98-2
CH$LINK: INCHIKEY JILCEWWZTBBOFS-UHFFFAOYSA-N
AC$INSTRUMENT: TripleTOF 6600 SCIEX
AC$INSTRUMENT_TYPE: LC-ESI-QTOF
AC$MASS_SPECTROMETRY: MS_TYPE MS2
AC$MASS_SPECTROMETRY: ION_MODE POSITIVE
AC$MASS_SPECTROMETRY: COLLISION_ENERGY 130
AC$MASS_SPECTROMETRY: FRAGMENTATION_MODE CID
AC$MASS_SPECTROMETRY: IONIZATION ESI
AC$CHROMATOGRAPHY: COLUMN_NAME Zorbax Eclipse Plus C18 2.1 mm x 150 mm, 3.5 um, Agilent
AC$CHROMATOGRAPHY: COLUMN_TEMPERATURE 40 °C
AC$CHROMATOGRAPHY: FLOW_GRADIENT 0 min min 98% A, 1 min 98% A, 2 min 80% A, 16.5 min 2% A, 22 min 2% A, 22.1 min 98% A, 27 min 98% A
AC$CHROMATOGRAPHY: FLOW_RATE 0.3 mL/min
AC$CHROMATOGRAPHY: RETENTION_TIME 4.819 min
AC$CHROMATOGRAPHY: SOLVENT A: Water 0.1% Formic acid, B: Acetonitrile 0.1% Formic acid
MS$FOCUSED_ION: PRECURSOR_M/Z 218.1288
MS$FOCUSED_ION: PRECURSOR_TYPE [M+H]+
MS$DATA_PROCESSING: COMMENT Export with Spectra 1.9.12 MsBackendMassbank 1.7.4
MS$DATA_PROCESSING: WHOLE RMassBank 2.3.1
PK$SPLASH: splash10-0udl-9000000000-3ac074f49322fedeb1b5
PK$NUM_PEAK: 23
PK$PEAK: m/z int. rel.int.
  35.9994 0.5 27
  37.0073 1.9 104
  38.0023 0.5 27
  38.0152 1.6 88
  39.023 2.9 160
  40.018 1.5 82
  41.026 6.7 369
  42.0339 9.7 535
  49.0072 3.2 176
  50.0152 18.1 999
  51.023 12.2 673
  52.0174 1 55
  53.0135 1.4 77
  54.0336 0.7 38
  56.0496 7.3 402
  61.0077 0.4 22
  62.0146 0.8 44
  63.0231 1.1 60
  65.0388 0.5 27
  74.0146 1.8 99
  77.0379 0.5 27
  83.0619 0.5 27
  89.038 0.6 33
//
