ACCESSION: MSBNK-BAFG-CSL25010634200
RECORD_TITLE: Edetol; LC-ESI-QTOF; MS2; 60 V
DATE: 2025.01.06
AUTHORS: Ole Lessmann; Kevin S. Jewell; Björn Ehlig; Arne Wick
LICENSE: dl-de/by-2-0
COPYRIGHT: Copyright 2025 Federal Institute of Hydrology, Koblenz, Germany
COMMENT: CONFIDENCE Reference Standard (Level 1)
COMMENT: Chromatography method: dx.doi.org/10.1016/j.chroma.2015.11.014
COMMENT: Acquisition method: 10.1002/rcm.8541
CH$NAME: Edetol
CH$FORMULA: C14H32N2O4
CH$EXACT_MASS: 292.2362
CH$SMILES: CC(CN(CCN(CC(C)O)CC(C)O)CC(C)O)O
CH$IUPAC: InChI=1S/C14H32N2O4/c1-11(17)7-15(8-12(2)18)5-6-16(9-13(3)19)10-14(4)20/h11-14,17-20H,5-10H2,1-4H3
CH$LINK: CAS 102-60-3
CH$LINK: INCHIKEY NSOXQYCFHDMMGV-UHFFFAOYSA-N
AC$INSTRUMENT: TripleTOF 6600 SCIEX
AC$INSTRUMENT_TYPE: LC-ESI-QTOF
AC$MASS_SPECTROMETRY: MS_TYPE MS2
AC$MASS_SPECTROMETRY: ION_MODE POSITIVE
AC$MASS_SPECTROMETRY: COLLISION_ENERGY 60
AC$MASS_SPECTROMETRY: FRAGMENTATION_MODE CID
AC$MASS_SPECTROMETRY: IONIZATION ESI
AC$CHROMATOGRAPHY: COLUMN_NAME Zorbax Eclipse Plus C18 2.1 mm x 150 mm, 3.5 um, Agilent
AC$CHROMATOGRAPHY: COLUMN_TEMPERATURE 40 °C
AC$CHROMATOGRAPHY: FLOW_GRADIENT 0 min min 98% A, 1 min 98% A, 2 min 80% A, 16.5 min 2% A, 22 min 2% A, 22.1 min 98% A, 27 min 98% A
AC$CHROMATOGRAPHY: FLOW_RATE 0.3 mL/min
AC$CHROMATOGRAPHY: RETENTION_TIME 2.645 min
AC$CHROMATOGRAPHY: SOLVENT A: Water 0.1% Formic acid, B: Acetonitrile 0.1% Formic acid
MS$FOCUSED_ION: PRECURSOR_M/Z 293.2435
MS$FOCUSED_ION: PRECURSOR_TYPE [M+H]+
MS$DATA_PROCESSING: COMMENT Export with pycsl 0.1.0.dev1 and CSL 24.4
PK$SPLASH: splash10-053u-9000000000-39b0f34f5d6b6ba2c858
PK$NUM_PEAK: 32
PK$PEAK: m/z int. rel.int.
  31.0172 1.9 97
  39.0224 5.2 267
  41.038 14.3 736
  42.0334 3.9 200
  43.0164 0.4 20
  43.0529 0.5 25
  44.0488 0.8 41
  45.0339 1.1 56
  55.0532 1.3 66
  56.0486 7.1 365
  58.0648 1.7 87
  59.0485 10.3 530
  67.0532 2.0 102
  68.0482 0.8 41
  69.0575 0.5 25
  70.0651 3.8 195
  72.08 1.3 66
  79.0525 0.9 46
  81.0573 0.5 25
  81.0713 0.4 20
  82.0643 2.1 108
  84.0796 19.4 999
  94.0646 0.9 46
  96.0804 0.9 46
  97.0852 0.5 25
  98.059 1.3 66
  98.0939 2.3 118
  100.0753 1.5 77
  102.0904 2.6 133
  112.1091 0.9 46
  142.1218 1.5 77
  160.1306 1.3 66
//