ACCESSION: MSBNK-BAFG-CSL2501063685
RECORD_TITLE: Valsartanic acid; LC-ESI-QTOF; MS2; 100 V
DATE: 2025.01.06
AUTHORS: Ole Lessmann; Kevin S. Jewell; Björn Ehlig; Arne Wick
LICENSE: dl-de/by-2-0
COPYRIGHT: Copyright 2025 Federal Institute of Hydrology, Koblenz, Germany
COMMENT: CONFIDENCE Reference Standard (Level 1)
COMMENT: Chromatography method: dx.doi.org/10.1016/j.chroma.2015.11.014
COMMENT: Acquisition method: 10.1002/rcm.8541
CH$NAME: Valsartanic acid
CH$COMPOUND_CLASS: Pharmaceutical; Transformation_product; Transformation_product-Metabolite
CH$FORMULA: C14H10N4O2
CH$EXACT_MASS: 266.0804
CH$SMILES: O=C(O)C(C=C1)=CC=C1C2=CC=CC=C2C3=NN=NN3
CH$IUPAC: InChI=1S/C14H10N4O2/c19-14(20)10-7-5-9(6-8-10)11-3-1-2-4-12(11)13-15-17-18-16-13/h1-8H,(H,19,20)(H,15,16,17,18)
CH$LINK: CAS 164265-78-5
CH$LINK: INCHIKEY USAWIVMZUYOXCF-UHFFFAOYSA-N
AC$INSTRUMENT: TripleTOF 5600 SCIEX
AC$INSTRUMENT_TYPE: LC-ESI-QTOF
AC$MASS_SPECTROMETRY: MS_TYPE MS2
AC$MASS_SPECTROMETRY: ION_MODE POSITIVE
AC$MASS_SPECTROMETRY: COLLISION_ENERGY 100
AC$MASS_SPECTROMETRY: FRAGMENTATION_MODE CID
AC$MASS_SPECTROMETRY: IONIZATION ESI
AC$CHROMATOGRAPHY: COLUMN_NAME Zorbax Eclipse Plus C18 2.1 mm x 150 mm, 3.5 um, Agilent
AC$CHROMATOGRAPHY: COLUMN_TEMPERATURE 40 °C
AC$CHROMATOGRAPHY: FLOW_GRADIENT 0 min min 98% A, 1 min 98% A, 2 min 80% A, 16.5 min 2% A, 22 min 2% A, 22.1 min 98% A, 27 min 98% A
AC$CHROMATOGRAPHY: FLOW_RATE 0.3 mL/min
AC$CHROMATOGRAPHY: RETENTION_TIME 8.027 min
AC$CHROMATOGRAPHY: SOLVENT A: Water 0.1% Formic acid, B: Acetonitrile 0.1% Formic acid
MS$FOCUSED_ION: PRECURSOR_M/Z 267.0877
MS$FOCUSED_ION: PRECURSOR_TYPE [M+H]+
MS$DATA_PROCESSING: COMMENT Export with pycsl 0.1.0.dev1 and CSL 24.4
PK$SPLASH: splash10-0udi-3900000000-0a2dd7be4b1ae7051384
PK$NUM_PEAK: 35
PK$PEAK: m/z int. rel.int.
  74.0174 8.2 110
  75.0251 10.8 145
  76.0323 4.0 54
  77.0408 15.5 209
  78.0488 1.0 13
  86.0157 1.0 13
  87.0244 1.7 22
  89.0395 0.9 12
  98.015 10.5 141
  99.023 13.5 182
  100.0295 2.8 37
  101.0381 2.7 36
  102.0457 2.4 32
  110.0145 1.4 18
  111.0227 1.7 22
  113.0381 1.4 18
  122.0143 3.8 51
  123.022 3.8 51
  124.0299 3.9 52
  125.0378 9.7 131
  126.0458 5.6 75
  127.043 3.3 44
  137.038 1.0 13
  138.0394 0.8 10
  139.0515 1.3 17
  148.0311 0.7 9
  149.0374 14.0 189
  150.0462 73.9 999
  151.0522 19.1 258
  152.06 6.2 83
  163.0522 0.9 12
  164.0513 2.2 29
  175.0407 6.0 81
  176.0488 5.6 75
  177.0564 7.6 102
//