ACCESSION: MSBNK-BAFG-CSL2310306076
RECORD_TITLE: Carbadox; LC-ESI-QTOF; MS2; 120 V
DATE: 2023.10.30
AUTHORS: Kevin S. Jewell; Björn Ehlig; Arne Wick
LICENSE: dl-de/by-2-0
COPYRIGHT: Copyright 2023 Federal Institute of Hydrology, Koblenz, Germany
COMMENT: CONFIDENCE Reference Standard (Level 1)
COMMENT: Chromatography method: dx.doi.org/10.1016/j.chroma.2015.11.014
COMMENT: Acquisition method: 10.1002/rcm.8541
CH$NAME: Carbadox
CH$COMPOUND_CLASS: Antimicrobial; Pharmaceutical
CH$FORMULA: C11H10N4O4
CH$EXACT_MASS: 262.0702
CH$SMILES: COC(=O)N=NC=C1C=[N+]([O-])c2ccccc2N1O
CH$IUPAC: InChI=1S/C11H10N4O4/c1-19-11(16)13-12-6-8-7-14(17)9-4-2-3-5-10(9)15(8)18/h2-7,18H,1H3
CH$LINK: CAS 6804-07-5
CH$LINK: INCHIKEY BPMVRAQIQQEBLN-UHFFFAOYSA-N
AC$INSTRUMENT: TripleTOF 5600 SCIEX
AC$INSTRUMENT_TYPE: LC-ESI-QTOF
AC$MASS_SPECTROMETRY: MS_TYPE MS2
AC$MASS_SPECTROMETRY: ION_MODE POSITIVE
AC$MASS_SPECTROMETRY: COLLISION_ENERGY 120
AC$MASS_SPECTROMETRY: FRAGMENTATION_MODE CID
AC$MASS_SPECTROMETRY: IONIZATION ESI
AC$CHROMATOGRAPHY: COLUMN_NAME Zorbax Eclipse Plus C18 2.1 mm x 150 mm, 3.5 um, Agilent
AC$CHROMATOGRAPHY: COLUMN_TEMPERATURE 40 °C
AC$CHROMATOGRAPHY: FLOW_GRADIENT 0 min min 98% A, 1 min 98% A, 2 min 80% A, 16.5 min 2% A, 22 min 2% A, 22.1 min 98% A, 27 min 98% A
AC$CHROMATOGRAPHY: FLOW_RATE 0.3 mL/min
AC$CHROMATOGRAPHY: RETENTION_TIME 5.823 min
AC$CHROMATOGRAPHY: SOLVENT A: Water 0.1% Formic acid, B: Acetonitrile 0.1% Formic acid
MS$FOCUSED_ION: PRECURSOR_M/Z 263.0775
MS$FOCUSED_ION: PRECURSOR_TYPE [M+H]+
MS$DATA_PROCESSING: COMMENT Export with Spectra 1.9.12 MsBackendMassbank 1.7.4
MS$DATA_PROCESSING: WHOLE RMassBank 2.3.1
PK$SPLASH: splash10-00b9-9000000000-fa1492668181ff87f612
PK$NUM_PEAK: 20
PK$PEAK: m/z int. rel.int.
  51.0287 9.8 627
  52.0245 1.4 89
  52.0341 0.4 25
  60.0044 0.5 32
  63.07 0.5 32
  64.0338 1.1 70
  65.0288 0.4 25
  73.01 1.4 89
  74.018 15.6 999
  75.0137 2.2 140
  75.0259 10.6 678
  76.0215 5.8 371
  76.0307 3.3 211
  77.0414 1.6 102
  88.0173 0.7 44
  88.0306 0.5 32
  90.0339 0.5 32
  99.013 0.6 38
  102.0335 1.4 89
  103.0429 0.7 44
//
