ACCESSION: MSBNK-BAFG-CSL23111016693
RECORD_TITLE: Flufenacet; LC-ESI-QTOF; MS2; 70 V
DATE: 2023.11.10
AUTHORS: Kevin S. Jewell; Björn Ehlig; Arne Wick
LICENSE: dl-de/by-2-0
COPYRIGHT: Copyright 2023 Federal Institute of Hydrology, Koblenz, Germany
COMMENT: CONFIDENCE Reference Standard (Level 1)
COMMENT: Chromatography method: dx.doi.org/10.1016/j.chroma.2015.11.014
COMMENT: Acquisition method: 10.1002/rcm.8541
CH$NAME: Flufenacet
CH$COMPOUND_CLASS: Herbicide
CH$FORMULA: C14H13F4N3O2S
CH$EXACT_MASS: 363.0665
CH$SMILES: CC(C)N(C1=CC=C(C=C1)F)C(=O)COC2=NN=C(S2)C(F)(F)F
CH$IUPAC: InChI=1S/C14H13F4N3O2S/c1-8(2)21(10-5-3-9(15)4-6-10)11(22)7-23-13-20-19-12(24-13)14(16,17)18/h3-6,8H,7H2,1-2H3
CH$LINK: CAS 142459-58-3
CH$LINK: INCHIKEY IANUJLZYFUDJIH-UHFFFAOYSA-N
AC$INSTRUMENT: TripleTOF 6600 SCIEX
AC$INSTRUMENT_TYPE: LC-ESI-QTOF
AC$MASS_SPECTROMETRY: MS_TYPE MS2
AC$MASS_SPECTROMETRY: ION_MODE POSITIVE
AC$MASS_SPECTROMETRY: COLLISION_ENERGY 70
AC$MASS_SPECTROMETRY: FRAGMENTATION_MODE CID
AC$MASS_SPECTROMETRY: IONIZATION ESI
AC$CHROMATOGRAPHY: COLUMN_NAME Zorbax Eclipse Plus C18 2.1 mm x 150 mm, 3.5 um, Agilent
AC$CHROMATOGRAPHY: COLUMN_TEMPERATURE 40 °C
AC$CHROMATOGRAPHY: FLOW_GRADIENT 0 min min 98% A, 1 min 98% A, 2 min 80% A, 16.5 min 2% A, 22 min 2% A, 22.1 min 98% A, 27 min 98% A
AC$CHROMATOGRAPHY: FLOW_RATE 0.3 mL/min
AC$CHROMATOGRAPHY: RETENTION_TIME 13.345 min
AC$CHROMATOGRAPHY: SOLVENT A: Water 0.1% Formic acid, B: Acetonitrile 0.1% Formic acid
MS$FOCUSED_ION: PRECURSOR_M/Z 364.0738
MS$FOCUSED_ION: PRECURSOR_TYPE [M+H]+
MS$DATA_PROCESSING: COMMENT Export with Spectra 1.9.12 MsBackendMassbank 1.7.4
MS$DATA_PROCESSING: WHOLE RMassBank 2.3.1
PK$SPLASH: splash10-00dj-5900000000-a2ac21d429ef733e1ed4
PK$NUM_PEAK: 25
PK$PEAK: m/z int. rel.int.
  41.0385 8.5 10
  51.0227 12.5 15
  75.0228 25.5 31
  77.0386 171.7 215
  78.0334 9.9 12
  83.029 72.7 91
  95.0293 124.6 156
  96.0362 75.6 94
  97.0451 418.3 523
  104.0494 47.5 59
  107.0288 37.1 46
  109.045 306.5 383
  110.0398 28.6 35
  112.0555 11.1 13
  115.0538 15.4 19
  122.0397 14 17
  123.0264 132.2 165
  124.0561 797.6 999
  134.04 34.7 43
  135.0479 16.6 20
  136.0561 30.9 38
  137.0633 12.5 15
  151.0427 10.3 12
  152.0514 33.1 41
  152.0864 27.9 34
//
