ACCESSION: MSBNK-BAFG-CSL2310256559
RECORD_TITLE: Methacetin; LC-ESI-QTOF; MS2; 130 V
DATE: 2023.10.25
AUTHORS: Kevin S. Jewell; Björn Ehlig; Arne Wick
LICENSE: dl-de/by-2-0
COPYRIGHT: Copyright 2023 Federal Institute of Hydrology, Koblenz, Germany
COMMENT: CONFIDENCE Reference Standard (Level 1)
COMMENT: Chromatography method: dx.doi.org/10.1016/j.chroma.2015.11.014
COMMENT: Acquisition method: 10.1002/rcm.8541
CH$NAME: Methacetin
CH$COMPOUND_CLASS: Pharmaceutical
CH$FORMULA: C9H11NO2
CH$EXACT_MASS: 165.079
CH$SMILES: COc1ccc(NC(C)=O)cc1
CH$IUPAC: InChI=1S/C9H11NO2/c1-7(11)10-8-3-5-9(12-2)6-4-8/h3-6H,1-2H3,(H,10,11)
CH$LINK: CAS 51-66-1
CH$LINK: INCHIKEY XVAIDCNLVLTVFM-UHFFFAOYSA-N
AC$INSTRUMENT: TripleTOF 5600 SCIEX
AC$INSTRUMENT_TYPE: LC-ESI-QTOF
AC$MASS_SPECTROMETRY: MS_TYPE MS2
AC$MASS_SPECTROMETRY: ION_MODE POSITIVE
AC$MASS_SPECTROMETRY: COLLISION_ENERGY 130
AC$MASS_SPECTROMETRY: FRAGMENTATION_MODE CID
AC$MASS_SPECTROMETRY: IONIZATION ESI
AC$CHROMATOGRAPHY: COLUMN_NAME Zorbax Eclipse Plus C18 2.1 mm x 150 mm, 3.5 um, Agilent
AC$CHROMATOGRAPHY: COLUMN_TEMPERATURE 40 °C
AC$CHROMATOGRAPHY: FLOW_GRADIENT 0 min min 98% A, 1 min 98% A, 2 min 80% A, 16.5 min 2% A, 22 min 2% A, 22.1 min 98% A, 27 min 98% A
AC$CHROMATOGRAPHY: FLOW_RATE 0.3 mL/min
AC$CHROMATOGRAPHY: RETENTION_TIME 6.508 min
AC$CHROMATOGRAPHY: SOLVENT A: Water 0.1% Formic acid, B: Acetonitrile 0.1% Formic acid
MS$FOCUSED_ION: PRECURSOR_M/Z 166.0863
MS$FOCUSED_ION: PRECURSOR_TYPE [M+H]+
MS$DATA_PROCESSING: COMMENT Export with Spectra 1.9.12 MsBackendMassbank 1.7.4
MS$DATA_PROCESSING: WHOLE RMassBank 2.3.1
PK$SPLASH: splash10-0f6x-9000000000-819ba4e056dd3521d5ef
PK$NUM_PEAK: 17
PK$PEAK: m/z int. rel.int.
  40.0317 7 47
  41.0371 12 81
  42.0447 17.9 121
  43.0289 146.7 999
  44.023 13.1 89
  52.0259 67 456
  53.0106 11.1 75
  54.0411 21 143
  60.0054 42.9 292
  62.0396 13.9 94
  62.05 6.6 44
  65.0416 14.7 100
  66.0418 5.9 40
  73.0109 9.2 62
  74.0187 21.3 145
  76.0208 5.4 36
  80.0522 11.7 79
//
