ACCESSION: MSBNK-BAFG-CSL25011734559
RECORD_TITLE: Azo Rubin S; LC-ESI-QTOF; MS2; 110 V
DATE: 2025.01.17
AUTHORS: Ole Lessmann; Kevin S. Jewell; Björn Ehlig; Arne Wick
LICENSE: dl-de/by-2-0
COPYRIGHT: Copyright 2025 Federal Institute of Hydrology, Koblenz, Germany
COMMENT: CONFIDENCE Reference Standard (Level 1)
COMMENT: Chromatography method: dx.doi.org/10.1016/j.chroma.2015.11.014
CH$NAME: Azo Rubin S
CH$FORMULA: C20H14N2O7S2
CH$EXACT_MASS: 458.0242
CH$SMILES: C1=CC=C2C(=C1)C(=CC=C2S(=O)(=O)O)N=NC3=C(C4=CC=CC=C4C(=C3)S(=O)(=O)O)O
CH$IUPAC: InChI=1S/C20H14N2O7S2/c23-20-15-8-4-3-7-14(15)19(31(27,28)29)11-17(20)22-21-16-9-10-18(30(24,25)26)13-6-2-1-5-12(13)16/h1-11,23H,(H,24,25,26)(H,27,28,29)
CH$LINK: CAS 13613-55-3
CH$LINK: INCHIKEY TVWOWDDBXAFQDG-UHFFFAOYSA-N
AC$INSTRUMENT: TripleTOF 6600 SCIEX
AC$INSTRUMENT_TYPE: LC-ESI-QTOF
AC$MASS_SPECTROMETRY: MS_TYPE MS2
AC$MASS_SPECTROMETRY: ION_MODE POSITIVE
AC$MASS_SPECTROMETRY: COLLISION_ENERGY 110
AC$MASS_SPECTROMETRY: FRAGMENTATION_MODE CID
AC$MASS_SPECTROMETRY: IONIZATION ESI
AC$CHROMATOGRAPHY: COLUMN_NAME Zorbax Eclipse Plus C18 2.1 mm x 150 mm, 3.5 um, Agilent
AC$CHROMATOGRAPHY: COLUMN_TEMPERATURE 40 °C
AC$CHROMATOGRAPHY: FLOW_GRADIENT 0 min min 98% A, 1 min 98% A, 2 min 80% A, 16.5 min 2% A, 22 min 2% A, 22.1 min 98% A, 27 min 98% A
AC$CHROMATOGRAPHY: FLOW_RATE 0.3 mL/min
AC$CHROMATOGRAPHY: RETENTION_TIME 7.286 min
AC$CHROMATOGRAPHY: SOLVENT A: Water 0.1% Formic acid, B: Acetonitrile 0.1% Formic acid
MS$FOCUSED_ION: PRECURSOR_M/Z 459.0315
MS$FOCUSED_ION: PRECURSOR_TYPE [M+H]+
MS$DATA_PROCESSING: COMMENT Export with pycsl 0.1.0.dev1 and CSL 25.0
PK$SPLASH: splash10-0ge9-3900000000-c65c634a3e1b5d631541
PK$NUM_PEAK: 48
PK$PEAK: m/z int. rel.int.
  51.0227 4.3 41
  52.018 13.8 134
  63.0224 4.3 41
  64.9691 3.3 32
  65.0388 1.9 18
  75.0222 3.1 30
  77.0382 87.5 852
  80.0131 15.2 148
  89.038 34.3 334
  91.0541 1.4 13
  99.0215 2.6 25
  100.0177 3.2 31
  101.0373 3.1 30
  102.0455 9.7 94
  103.054 102.5 999
  104.0488 8.4 81
  105.0322 1.3 12
  105.0427 1.5 14
  113.038 5.4 52
  114.0468 4.8 46
  115.0536 100.4 978
  116.0495 27.6 268
  126.0316 1.6 15
  127.0534 2.1 20
  128.0479 3.9 38
  130.0645 100.4 978
  131.0504 1.8 17
  140.0488 28.1 273
  141.0581 1.7 16
  142.0654 5.2 50
  143.0741 3.8 37
  158.06 6.8 66
  213.0663 1.5 14
  224.0636 1.9 18
  226.0644 2.0 19
  238.067 2.5 24
  239.0699 1.1 10
  240.0796 3.0 29
  249.0537 1.1 10
  250.0643 2.0 19
  251.0731 8.3 80
  252.0845 1.1 10
  265.076 3.8 37
  266.0835 7.2 70
  267.086 1.1 10
  277.079 2.7 26
  278.0856 3.6 35
  279.0932 3.5 34
//
