ACCESSION: MSBNK-BAFG-CSL2311099778
RECORD_TITLE: Diaveridine; LC-ESI-QTOF; MS2; 140 V
DATE: 2023.11.09
AUTHORS: Kevin S. Jewell; Björn Ehlig; Arne Wick
LICENSE: dl-de/by-2-0
COPYRIGHT: Copyright 2023 Federal Institute of Hydrology, Koblenz, Germany
COMMENT: CONFIDENCE Reference Standard (Level 1)
COMMENT: Chromatography method: dx.doi.org/10.1016/j.chroma.2015.11.014
COMMENT: Acquisition method: 10.1002/rcm.8541
CH$NAME: Diaveridine
CH$COMPOUND_CLASS: Pharmaceutical
CH$FORMULA: C13H16N4O2
CH$EXACT_MASS: 260.1273
CH$SMILES: COC1=C(C=C(C=C1)CC2=CN=C(N=C2N)N)OC
CH$IUPAC: InChI=1S/C13H16N4O2/c1-18-10-4-3-8(6-11(10)19-2)5-9-7-16-13(15)17-12(9)14/h3-4,6-7H,5H2,1-2H3,(H4,14,15,16,17)
CH$LINK: CAS 5355-16-8
CH$LINK: INCHIKEY LDBTVAXGKYIFHO-UHFFFAOYSA-N
AC$INSTRUMENT: TripleTOF 5600 SCIEX
AC$INSTRUMENT_TYPE: LC-ESI-QTOF
AC$MASS_SPECTROMETRY: MS_TYPE MS2
AC$MASS_SPECTROMETRY: ION_MODE POSITIVE
AC$MASS_SPECTROMETRY: COLLISION_ENERGY 140
AC$MASS_SPECTROMETRY: FRAGMENTATION_MODE CID
AC$MASS_SPECTROMETRY: IONIZATION ESI
AC$CHROMATOGRAPHY: COLUMN_NAME Zorbax Eclipse Plus C18 2.1 mm x 150 mm, 3.5 um, Agilent
AC$CHROMATOGRAPHY: COLUMN_TEMPERATURE 40 °C
AC$CHROMATOGRAPHY: FLOW_GRADIENT 0 min min 98% A, 1 min 98% A, 2 min 80% A, 16.5 min 2% A, 22 min 2% A, 22.1 min 98% A, 27 min 98% A
AC$CHROMATOGRAPHY: FLOW_RATE 0.3 mL/min
AC$CHROMATOGRAPHY: RETENTION_TIME 4.966 min
AC$CHROMATOGRAPHY: SOLVENT A: Water 0.1% Formic acid, B: Acetonitrile 0.1% Formic acid
MS$FOCUSED_ION: PRECURSOR_M/Z 261.1346
MS$FOCUSED_ION: PRECURSOR_TYPE [M+H]+
MS$DATA_PROCESSING: COMMENT Export with Spectra 1.9.12 MsBackendMassbank 1.7.4
MS$DATA_PROCESSING: WHOLE RMassBank 2.3.1
PK$SPLASH: splash10-0fb9-9000000000-803e8496272be091342e
PK$NUM_PEAK: 32
PK$PEAK: m/z int. rel.int.
  41.0359 0.8 98
  41.0426 0.5 61
  43.0414 4.6 567
  52.028 4.2 518
  53.0231 0.5 61
  54.0429 3.4 419
  55.0518 0.4 49
  64.0356 0.5 61
  65.0436 1.1 135
  67.0393 1 123
  74.0199 3.1 382
  75.0278 3.5 431
  76.0236 1.1 135
  76.0368 0.8 98
  77.044 8.1 999
  78.0373 0.8 98
  81.0512 0.8 98
  86.0223 0.5 61
  87.0247 0.7 86
  88.0228 0.6 74
  88.0355 0.4 49
  89.0418 3.9 481
  90.041 0.4 49
  91.0517 0.6 74
  98.0198 0.6 74
  99.0115 0.4 49
  101.0433 0.5 61
  102.0432 0.7 86
  103.0483 0.6 74
  105.0384 0.7 86
  107.0469 0.4 49
  114.0372 0.5 61
//
