ACCESSION: MSBNK-BAFG-CSL23102512249
RECORD_TITLE: Bezafibrate-d4; LC-ESI-QTOF; MS2; 40 V
DATE: 2023.10.25
AUTHORS: Kevin S. Jewell; Björn Ehlig; Arne Wick
LICENSE: dl-de/by-2-0
COPYRIGHT: Copyright 2023 Federal Institute of Hydrology, Koblenz, Germany
COMMENT: CONFIDENCE Reference Standard (Level 1)
COMMENT: Chromatography method: dx.doi.org/10.1016/j.chroma.2015.11.014
COMMENT: Acquisition method: 10.1002/rcm.8541
CH$NAME: Bezafibrate-d4
CH$COMPOUND_CLASS: Surrogate_standard
CH$FORMULA: C19H16ClNO4 2H4
CH$EXACT_MASS: 365.1332
CH$SMILES: [2H]C1=C(C(=C(C(=C1C(=O)NCCC2=CC=C(C=C2)OC(C)(C)C(=O)O)[2H])[2H])Cl)[2H]
CH$IUPAC: InChI=1S/C19H20ClNO4/c1-19(2,18(23)24)25-16-9-3-13(4-10-16)11-12-21-17(22)14-5-7-15(20)8-6-14/h3-10H,11-12H2,1-2H3,(H,21,22)(H,23,24)/i5D,6D,7D,8D
CH$LINK: CAS 1189452-53-6
CH$LINK: INCHIKEY IIBYAHWJQTYFKB-KDWZCNHSSA-N
AC$INSTRUMENT: TripleTOF 6600 SCIEX
AC$INSTRUMENT_TYPE: LC-ESI-QTOF
AC$MASS_SPECTROMETRY: MS_TYPE MS2
AC$MASS_SPECTROMETRY: ION_MODE POSITIVE
AC$MASS_SPECTROMETRY: COLLISION_ENERGY 40
AC$MASS_SPECTROMETRY: FRAGMENTATION_MODE CID
AC$MASS_SPECTROMETRY: IONIZATION ESI
AC$CHROMATOGRAPHY: COLUMN_NAME Zorbax Eclipse Plus C18 2.1 mm x 150 mm, 3.5 um, Agilent
AC$CHROMATOGRAPHY: COLUMN_TEMPERATURE 40 °C
AC$CHROMATOGRAPHY: FLOW_GRADIENT 0 min min 98% A, 1 min 98% A, 2 min 80% A, 16.5 min 2% A, 22 min 2% A, 22.1 min 98% A, 27 min 98% A
AC$CHROMATOGRAPHY: FLOW_RATE 0.3 mL/min
AC$CHROMATOGRAPHY: RETENTION_TIME 11.05 min
AC$CHROMATOGRAPHY: SOLVENT A: Water 0.1% Formic acid, B: Acetonitrile 0.1% Formic acid
MS$FOCUSED_ION: PRECURSOR_M/Z 366.1393
MS$FOCUSED_ION: PRECURSOR_TYPE [M+H]+
MS$DATA_PROCESSING: COMMENT Export with Spectra 1.9.12 MsBackendMassbank 1.7.4
MS$DATA_PROCESSING: WHOLE RMassBank 2.3.1
PK$SPLASH: splash10-006x-0912000000-6e59d73b8ec18e099f06
PK$NUM_PEAK: 19
PK$PEAK: m/z int. rel.int.
  77.0341 0.1848 9
  91.0539 0.3296 16
  93.0691 0.168 8
  103.0503 0.6129 31
  115.0234 0.6716 34
  119.0871 0.1379 7
  120.0635 0.2308 11
  121.0631 9.2161 470
  142.0108 0.251 12
  143.0181 19.5505 999
  144.0087 0.1516 7
  161.0934 1.921 98
  178.1214 0.2811 14
  207.1008 0.6566 33
  266.0231 0.2748 14
  280.101 4.9626 253
  320.1344 9.091 464
  348.1351 0.317 16
  366.1418 0.3224 16
//
