ACCESSION: MSBNK-BAFG-CSL25011734491
RECORD_TITLE: Disperse Yellow 3; LC-ESI-QTOF; MS2; 40 V
DATE: 2025.01.17
AUTHORS: Ole Lessmann; Kevin S. Jewell; Björn Ehlig; Arne Wick
LICENSE: dl-de/by-2-0
COPYRIGHT: Copyright 2025 Federal Institute of Hydrology, Koblenz, Germany
COMMENT: CONFIDENCE Reference Standard (Level 1)
COMMENT: Chromatography method: dx.doi.org/10.1016/j.chroma.2015.11.014
CH$NAME: Disperse Yellow 3
CH$FORMULA: C15H15N3O2
CH$EXACT_MASS: 269.1164
CH$SMILES: CC1=CC(=C(C=C1)O)N=NC2=CC=C(C=C2)NC(=O)C
CH$IUPAC: InChI=1S/C15H15N3O2/c1-10-3-8-15(20)14(9-10)18-17-13-6-4-12(5-7-13)16-11(2)19/h3-9,20H,1-2H3,(H,16,19)
CH$LINK: CAS 2832-40-8
CH$LINK: INCHIKEY PXOZAFXVEWKXED-UHFFFAOYSA-N
AC$INSTRUMENT: TripleTOF 6600 SCIEX
AC$INSTRUMENT_TYPE: LC-ESI-QTOF
AC$MASS_SPECTROMETRY: MS_TYPE MS2
AC$MASS_SPECTROMETRY: ION_MODE NEGATIVE
AC$MASS_SPECTROMETRY: COLLISION_ENERGY 40
AC$MASS_SPECTROMETRY: FRAGMENTATION_MODE CID
AC$MASS_SPECTROMETRY: IONIZATION ESI
AC$CHROMATOGRAPHY: COLUMN_NAME Zorbax Eclipse Plus C18 2.1 mm x 150 mm, 3.5 um, Agilent
AC$CHROMATOGRAPHY: COLUMN_TEMPERATURE 40 °C
AC$CHROMATOGRAPHY: FLOW_GRADIENT 0 min min 98% A, 1 min 98% A, 2 min 80% A, 16.5 min 2% A, 22 min 2% A, 22.1 min 98% A, 27 min 98% A
AC$CHROMATOGRAPHY: FLOW_RATE 0.3 mL/min
AC$CHROMATOGRAPHY: RETENTION_TIME 12.171 min
AC$CHROMATOGRAPHY: SOLVENT A: Water 0.1% Formic acid, B: Acetonitrile 0.1% Formic acid
MS$FOCUSED_ION: PRECURSOR_M/Z 268.1091
MS$FOCUSED_ION: PRECURSOR_TYPE [M-H]-
MS$DATA_PROCESSING: COMMENT Export with pycsl 0.1.0.dev1 and CSL 25.0
PK$SPLASH: splash10-001l-4900000000-4892cb6e81ceb65c4ece
PK$NUM_PEAK: 16
PK$PEAK: m/z int. rel.int.
  41.003 1.2 26
  41.9983 0.7 15
  91.0428 1.3 28
  92.0499 45.0 999
  104.0389 1.8 39
  105.0451 3.6 79
  106.0417 2.0 44
  118.0293 11.9 264
  121.053 3.2 71
  132.0331 0.5 11
  133.051 27.7 614
  134.0611 39.0 865
  148.0633 2.5 55
  150.0565 0.7 15
  198.092 0.8 17
  253.0813 0.8 17
//
