ACCESSION: MSBNK-BAFG-CSL25011734600
RECORD_TITLE: N-[2-[(2-Bromo-4,6-dinitrophenyl)azo]-5-(diethylamino)phenyl]acetamide; LC-ESI-QTOF; MS2; 40 V
DATE: 2025.01.17
AUTHORS: Ole Lessmann; Kevin S. Jewell; Björn Ehlig; Arne Wick
LICENSE: dl-de/by-2-0
COPYRIGHT: Copyright 2025 Federal Institute of Hydrology, Koblenz, Germany
COMMENT: CONFIDENCE Reference Standard (Level 1)
COMMENT: Chromatography method: dx.doi.org/10.1016/j.chroma.2015.11.014
CH$NAME: N-[2-[(2-Bromo-4,6-dinitrophenyl)azo]-5-(diethylamino)phenyl]acetamide
CH$FORMULA: C18H19BrN6O5
CH$EXACT_MASS: 478.06
CH$SMILES: CCN(CC)C1=CC(=C(C=C1)N=NC2=C(C=C(C=C2Br)[N+](=O)[O-])[N+](=O)[O-])NC(=O)C
CH$IUPAC: InChI=1S/C18H19BrN6O5/c1-4-23(5-2)12-6-7-15(16(9-12)20-11(3)26)21-22-18-14(19)8-13(24(27)28)10-17(18)25(29)30/h6-10H,4-5H2,1-3H3,(H,20,26)
CH$LINK: CAS 52697-38-8
CH$LINK: INCHIKEY WFFKSTRPZWRBEW-UHFFFAOYSA-N
AC$INSTRUMENT: TripleTOF 6600 SCIEX
AC$INSTRUMENT_TYPE: LC-ESI-QTOF
AC$MASS_SPECTROMETRY: MS_TYPE MS2
AC$MASS_SPECTROMETRY: ION_MODE POSITIVE
AC$MASS_SPECTROMETRY: COLLISION_ENERGY 40
AC$MASS_SPECTROMETRY: FRAGMENTATION_MODE CID
AC$MASS_SPECTROMETRY: IONIZATION ESI
AC$CHROMATOGRAPHY: COLUMN_NAME Zorbax Eclipse Plus C18 2.1 mm x 150 mm, 3.5 um, Agilent
AC$CHROMATOGRAPHY: COLUMN_TEMPERATURE 40 °C
AC$CHROMATOGRAPHY: FLOW_GRADIENT 0 min min 98% A, 1 min 98% A, 2 min 80% A, 16.5 min 2% A, 22 min 2% A, 22.1 min 98% A, 27 min 98% A
AC$CHROMATOGRAPHY: FLOW_RATE 0.3 mL/min
AC$CHROMATOGRAPHY: RETENTION_TIME 16.579 min
AC$CHROMATOGRAPHY: SOLVENT A: Water 0.1% Formic acid, B: Acetonitrile 0.1% Formic acid
MS$FOCUSED_ION: PRECURSOR_M/Z 479.0673
MS$FOCUSED_ION: PRECURSOR_TYPE [M+H]+
MS$DATA_PROCESSING: COMMENT Export with pycsl 0.1.0.dev1 and CSL 25.0
PK$SPLASH: splash10-0006-0900200000-e3aa27ac3872c6534cf3
PK$NUM_PEAK: 24
PK$PEAK: m/z int. rel.int.
  121.0746 5.2 11
  134.0692 6.1 13
  135.0899 4.7 10
  148.0847 12.0 26
  149.1024 12.3 27
  162.1013 51.9 115
  163.0861 23.5 52
  163.1207 22.1 49
  177.1022 162.4 362
  178.1078 20.1 44
  191.1175 447.2 999
  204.1114 8.1 18
  205.1079 10.1 22
  206.1403 61.3 136
  345.0456 7.1 15
  375.0453 6.4 14
  376.0373 5.0 11
  390.0546 7.9 17
  391.0542 14.6 32
  409.0246 25.4 56
  420.0497 15.6 34
  437.055 119.1 266
  450.0274 8.1 18
  479.067 19.9 44
//
