ACCESSION: MSBNK-BAFG-CSL25010634334
RECORD_TITLE: N-Isopropyl-N'-phenyl-p-phenylenediamine; LC-ESI-QTOF; MS2; 120 V
DATE: 2025.01.06
AUTHORS: Ole Lessmann; Kevin S. Jewell; Björn Ehlig; Arne Wick
LICENSE: dl-de/by-2-0
COPYRIGHT: Copyright 2025 Federal Institute of Hydrology, Koblenz, Germany
COMMENT: CONFIDENCE Reference Standard (Level 1)
COMMENT: Chromatography method: dx.doi.org/10.1016/j.chroma.2015.11.014
COMMENT: Acquisition method: 10.1002/rcm.8541
CH$NAME: N-Isopropyl-N'-phenyl-p-phenylenediamine
CH$COMPOUND_CLASS: Industrial_process
CH$FORMULA: C15H18N2
CH$EXACT_MASS: 226.147
CH$SMILES: CC(C)Nc1ccc(cc1)Nc2ccccc2
CH$IUPAC: InChI=1S/C15H18N2/c1-12(2)16-14-8-10-15(11-9-14)17-13-6-4-3-5-7-13/h3-12,16-17H,1-2H3
CH$LINK: CAS 101-72-4
CH$LINK: INCHIKEY OUBMGJOQLXMSNT-UHFFFAOYSA-N
AC$INSTRUMENT: TripleTOF 6600 SCIEX
AC$INSTRUMENT_TYPE: LC-ESI-QTOF
AC$MASS_SPECTROMETRY: MS_TYPE MS2
AC$MASS_SPECTROMETRY: ION_MODE POSITIVE
AC$MASS_SPECTROMETRY: COLLISION_ENERGY 120
AC$MASS_SPECTROMETRY: FRAGMENTATION_MODE CID
AC$MASS_SPECTROMETRY: IONIZATION ESI
AC$CHROMATOGRAPHY: COLUMN_NAME Zorbax Eclipse Plus C18 2.1 mm x 150 mm, 3.5 um, Agilent
AC$CHROMATOGRAPHY: COLUMN_TEMPERATURE 40 °C
AC$CHROMATOGRAPHY: FLOW_GRADIENT 0 min min 98% A, 1 min 98% A, 2 min 80% A, 16.5 min 2% A, 22 min 2% A, 22.1 min 98% A, 27 min 98% A
AC$CHROMATOGRAPHY: FLOW_RATE 0.3 mL/min
AC$CHROMATOGRAPHY: RETENTION_TIME 7.24 min
AC$CHROMATOGRAPHY: SOLVENT A: Water 0.1% Formic acid, B: Acetonitrile 0.1% Formic acid
MS$FOCUSED_ION: PRECURSOR_M/Z 227.1543
MS$FOCUSED_ION: PRECURSOR_TYPE [M+H]+
MS$DATA_PROCESSING: COMMENT Export with pycsl 0.1.0.dev1 and CSL 24.4
PK$SPLASH: splash10-0w2i-9100000000-276c1bcf55e6a2952be1
PK$NUM_PEAK: 58
PK$PEAK: m/z int. rel.int.
  35.9997 0.5 23
  37.007 5.8 275
  38.0034 0.7 33
  38.0149 4.4 209
  39.0226 17.3 822
  40.0181 0.4 19
  41.0255 0.5 23
  42.0326 0.6 28
  49.006 0.9 42
  50.0144 8.0 380
  51.0224 14.9 708
  52.0173 2.0 95
  52.0287 1.8 85
  53.0383 21.0 999
  54.0332 3.1 147
  59.9982 0.5 23
  61.0059 3.4 161
  62.0143 6.9 328
  63.0218 16.3 775
  64.0195 1.4 66
  64.0283 0.8 38
  65.0377 3.7 176
  66.0307 0.4 19
  66.0465 0.7 33
  74.0134 2.4 114
  75.0216 3.5 166
  76.0169 0.5 23
  76.0288 0.8 38
  77.0375 6.4 304
  78.0343 1.8 85
  79.0405 0.9 42
  80.0488 17.4 827
  85.0069 0.7 33
  86.0139 1.1 52
  87.0204 2.3 109
  88.017 0.6 28
  88.0291 0.7 33
  89.0365 5.8 275
  90.0366 0.8 38
  91.0419 0.5 23
  92.0483 0.5 23
  98.0141 0.7 33
  99.0207 0.9 42
  101.0375 1.1 52
  102.0452 1.7 80
  103.0524 0.5 23
  113.0364 4.1 195
  114.0415 0.5 23
  115.0519 1.7 80
  126.0446 1.4 66
  127.0543 2.3 109
  128.0467 0.5 23
  137.0368 0.9 42
  138.0414 0.9 42
  139.0528 2.8 133
  140.0497 2.5 118
  164.0519 0.5 23
  166.0601 0.5 23
//