ACCESSION: MSBNK-BAFG-CSL25011734636
RECORD_TITLE: Metachrome Yellow free acid; LC-ESI-QTOF; MS2; 80 V
DATE: 2025.01.17
AUTHORS: Ole Lessmann; Kevin S. Jewell; Björn Ehlig; Arne Wick
LICENSE: dl-de/by-2-0
COPYRIGHT: Copyright 2025 Federal Institute of Hydrology, Koblenz, Germany
COMMENT: CONFIDENCE Reference Standard (Level 1)
COMMENT: Chromatography method: dx.doi.org/10.1016/j.chroma.2015.11.014
CH$NAME: Metachrome Yellow free acid
CH$FORMULA: C13H9N3O5
CH$EXACT_MASS: 287.0542
CH$SMILES: C1=CC(=CC(=C1)[N+](=O)[O-])N=NC2=CC(=C(C=C2)O)C(=O)O
CH$IUPAC: InChI=1S/C13H9N3O5/c17-12-5-4-9(7-11(12)13(18)19)15-14-8-2-1-3-10(6-8)16(20)21/h1-7,17H,(H,18,19)
CH$LINK: CAS 6283-26-7
CH$LINK: INCHIKEY LJOXBIGRIKPBSQ-UHFFFAOYSA-N
AC$INSTRUMENT: TripleTOF 6600 SCIEX
AC$INSTRUMENT_TYPE: LC-ESI-QTOF
AC$MASS_SPECTROMETRY: MS_TYPE MS2
AC$MASS_SPECTROMETRY: ION_MODE POSITIVE
AC$MASS_SPECTROMETRY: COLLISION_ENERGY 80
AC$MASS_SPECTROMETRY: FRAGMENTATION_MODE CID
AC$MASS_SPECTROMETRY: IONIZATION ESI
AC$CHROMATOGRAPHY: COLUMN_NAME Zorbax Eclipse Plus C18 2.1 mm x 150 mm, 3.5 um, Agilent
AC$CHROMATOGRAPHY: COLUMN_TEMPERATURE 40 °C
AC$CHROMATOGRAPHY: FLOW_GRADIENT 0 min min 98% A, 1 min 98% A, 2 min 80% A, 16.5 min 2% A, 22 min 2% A, 22.1 min 98% A, 27 min 98% A
AC$CHROMATOGRAPHY: FLOW_RATE 0.3 mL/min
AC$CHROMATOGRAPHY: RETENTION_TIME 11.919 min
AC$CHROMATOGRAPHY: SOLVENT A: Water 0.1% Formic acid, B: Acetonitrile 0.1% Formic acid
MS$FOCUSED_ION: PRECURSOR_M/Z 288.0615
MS$FOCUSED_ION: PRECURSOR_TYPE [M+H]+
MS$DATA_PROCESSING: COMMENT Export with pycsl 0.1.0.dev1 and CSL 25.0
PK$SPLASH: splash10-03fr-9300000000-ab5de9aff098f15f2fbd
PK$NUM_PEAK: 47
PK$PEAK: m/z int. rel.int.
  37.0071 0.6 13
  38.0148 1.5 34
  39.0223 3.4 77
  50.0138 5.6 127
  51.0215 3.6 81
  52.0168 2.8 63
  53.001 3.0 68
  61.0065 1.8 40
  62.0133 5.3 120
  63.0217 41.9 951
  64.0299 15.2 345
  65.0369 0.6 13
  73.0066 0.8 18
  74.0139 9.9 224
  75.0219 44.0 999
  76.0296 8.8 199
  77.0255 0.6 13
  77.0368 1.9 43
  78.0321 4.6 104
  80.0119 5.1 115
  82.0259 0.5 11
  87.021 0.7 15
  88.0291 2.8 63
  89.0369 3.7 84
  90.0446 1.7 38
  91.0163 3.1 70
  91.0399 0.9 20
  92.0244 1.8 40
  101.036 0.8 18
  102.0332 0.6 13
  102.0462 0.5 11
  106.0277 1.4 31
  113.0377 9.7 220
  114.0308 3.9 88
  114.0442 3.4 77
  115.0393 4.0 90
  116.0494 0.7 15
  127.0423 0.6 13
  128.0483 0.9 20
  129.0421 0.5 11
  139.053 9.2 208
  140.0479 17.3 392
  141.05 2.1 47
  142.0517 1.2 27
  155.0586 1.5 34
  166.0516 5.1 115
  167.0577 1.8 40
//
