ACCESSION: MSBNK-BAFG-CSL25010631486
RECORD_TITLE: Diethylamino hydroxybenzoyl hexyl benzoate; LC-ESI-QTOF; MS2; 100 V
DATE: 2025.01.06
AUTHORS: Ole Lessmann; Kevin S. Jewell; Björn Ehlig; Arne Wick
LICENSE: dl-de/by-2-0
COPYRIGHT: Copyright 2025 Federal Institute of Hydrology, Koblenz, Germany
COMMENT: CONFIDENCE Reference Standard (Level 1)
COMMENT: Chromatography method: dx.doi.org/10.1016/j.chroma.2015.11.014
COMMENT: Acquisition method: 10.1002/rcm.8541
CH$NAME: Diethylamino hydroxybenzoyl hexyl benzoate
CH$FORMULA: C24H31NO4
CH$EXACT_MASS: 397.2253
CH$SMILES: CCCCCCOC(=O)C1=CC=CC=C1C(=O)C2=C(C=C(C=C2)N(CC)CC)O
CH$IUPAC: InChI=1S/C24H31NO4/c1-4-7-8-11-16-29-24(28)20-13-10-9-12-19(20)23(27)21-15-14-18(17-22(21)26)25(5-2)6-3/h9-10,12-15,17,26H,4-8,11,16H2,1-3H3
CH$LINK: CAS 302776-68-7
CH$LINK: INCHIKEY FDATWRLUYRHCJE-UHFFFAOYSA-N
AC$INSTRUMENT: TripleTOF 6600 SCIEX
AC$INSTRUMENT_TYPE: LC-ESI-QTOF
AC$MASS_SPECTROMETRY: MS_TYPE MS2
AC$MASS_SPECTROMETRY: ION_MODE POSITIVE
AC$MASS_SPECTROMETRY: COLLISION_ENERGY 100
AC$MASS_SPECTROMETRY: FRAGMENTATION_MODE CID
AC$MASS_SPECTROMETRY: IONIZATION ESI
AC$CHROMATOGRAPHY: COLUMN_NAME Zorbax Eclipse Plus C18 2.1 mm x 150 mm, 3.5 um, Agilent
AC$CHROMATOGRAPHY: COLUMN_TEMPERATURE 40 °C
AC$CHROMATOGRAPHY: FLOW_GRADIENT 0 min min 98% A, 1 min 98% A, 2 min 80% A, 16.5 min 2% A, 22 min 2% A, 22.1 min 98% A, 27 min 98% A
AC$CHROMATOGRAPHY: FLOW_RATE 0.3 mL/min
AC$CHROMATOGRAPHY: RETENTION_TIME 17.769 min
AC$CHROMATOGRAPHY: SOLVENT A: Water 0.1% Formic acid, B: Acetonitrile 0.1% Formic acid
MS$FOCUSED_ION: PRECURSOR_M/Z 398.2326
MS$FOCUSED_ION: PRECURSOR_TYPE [M+H]+
MS$DATA_PROCESSING: COMMENT Export with pycsl 0.1.0.dev1 and CSL 24.4
PK$SPLASH: splash10-0fri-2900000000-dae96441b2580a99069a
PK$NUM_PEAK: 83
PK$PEAK: m/z int. rel.int.
  39.023 67.8 81
  41.0386 35.4 42
  43.0542 25.4 30
  51.0227 9.5 11
  53.0384 13.3 15
  63.0228 8.6 10
  65.0386 349.0 419
  68.013 12.0 14
  77.0384 122.3 146
  78.0328 10.7 12
  80.0492 135.9 163
  89.0376 33.3 39
  91.0534 21.8 26
  92.0494 13.0 15
  93.0331 86.0 103
  94.0403 11.2 13
  101.0374 10.1 12
  102.045 17.4 20
  105.033 49.7 59
  108.0435 42.5 51
  109.0514 11.3 13
  113.0382 26.4 31
  114.0453 18.0 21
  115.054 214.5 257
  119.0122 24.8 29
  121.0301 87.8 105
  122.0597 15.2 18
  125.0378 11.4 13
  126.0453 29.4 35
  127.0536 130.4 156
  128.0611 153.3 184
  129.0692 17.1 20
  138.0459 42.4 50
  139.0542 831.8 999
  140.0574 107.2 128
  141.069 103.4 124
  149.0229 34.2 41
  150.0457 32.4 38
  151.0537 154.7 185
  152.0608 218.2 262
  153.0662 63.0 75
  154.0647 136.4 163
  155.0514 38.7 46
  156.0555 16.6 19
  156.0802 20.1 24
  164.0628 40.4 48
  165.0686 70.3 84
  166.0407 11.8 14
  166.0642 65.0 78
  167.0509 89.6 107
  167.0697 82.3 98
  168.0565 243.7 292
  169.0633 23.7 28
  176.0612 23.0 27
  177.0573 32.6 39
  178.0639 33.0 39
  179.0632 11.9 14
  180.0538 25.3 30
  180.0787 18.8 22
  181.0637 28.1 33
  182.0591 56.5 67
  183.0439 28.0 33
  183.0663 17.7 21
  184.0517 120.0 144
  191.072 16.7 20
  192.0787 9.6 11
  194.0353 47.4 56
  194.0585 39.2 47
  195.0659 231.8 278
  196.0525 159.9 192
  197.0587 82.9 99
  204.0784 13.5 16
  206.0593 17.0 20
  208.0737 10.8 12
  210.0315 73.7 88
  211.0605 27.2 32
  212.0689 24.1 28
  220.0736 26.6 31
  222.0298 9.1 10
  222.0542 22.9 27
  223.0621 120.8 145
  224.0704 46.9 56
  238.0522 12.2 14
//