ACCESSION: MSBNK-BAFG-CSL25010634253
RECORD_TITLE: 4-Aminoazobenzene; LC-ESI-QTOF; MS2; 110 V
DATE: 2025.01.06
AUTHORS: Ole Lessmann; Kevin S. Jewell; Björn Ehlig; Arne Wick
LICENSE: dl-de/by-2-0
COPYRIGHT: Copyright 2025 Federal Institute of Hydrology, Koblenz, Germany
COMMENT: CONFIDENCE Reference Standard (Level 1)
COMMENT: Chromatography method: dx.doi.org/10.1016/j.chroma.2015.11.014
COMMENT: Acquisition method: 10.1002/rcm.8541
CH$NAME: 4-Aminoazobenzene
CH$FORMULA: C12H11N3
CH$EXACT_MASS: 197.0953
CH$SMILES: C1=CC=C(C=C1)N=NC2=CC=C(C=C2)N
CH$IUPAC: InChI=1S/C12H11N3/c13-10-6-8-12(9-7-10)15-14-11-4-2-1-3-5-11/h1-9H,13H2
CH$LINK: CAS 60-09-3
CH$LINK: INCHIKEY QPQKUYVSJWQSDY-UHFFFAOYSA-N
AC$INSTRUMENT: TripleTOF 6600 SCIEX
AC$INSTRUMENT_TYPE: LC-ESI-QTOF
AC$MASS_SPECTROMETRY: MS_TYPE MS2
AC$MASS_SPECTROMETRY: ION_MODE POSITIVE
AC$MASS_SPECTROMETRY: COLLISION_ENERGY 110
AC$MASS_SPECTROMETRY: FRAGMENTATION_MODE CID
AC$MASS_SPECTROMETRY: IONIZATION ESI
AC$CHROMATOGRAPHY: COLUMN_NAME Zorbax Eclipse Plus C18 2.1 mm x 150 mm, 3.5 um, Agilent
AC$CHROMATOGRAPHY: COLUMN_TEMPERATURE 40 °C
AC$CHROMATOGRAPHY: FLOW_GRADIENT 0 min min 98% A, 1 min 98% A, 2 min 80% A, 16.5 min 2% A, 22 min 2% A, 22.1 min 98% A, 27 min 98% A
AC$CHROMATOGRAPHY: FLOW_RATE 0.3 mL/min
AC$CHROMATOGRAPHY: RETENTION_TIME 12.247 min
AC$CHROMATOGRAPHY: SOLVENT A: Water 0.1% Formic acid, B: Acetonitrile 0.1% Formic acid
MS$FOCUSED_ION: PRECURSOR_M/Z 198.1026
MS$FOCUSED_ION: PRECURSOR_TYPE [M+H]+
MS$DATA_PROCESSING: COMMENT Export with pycsl 0.1.0.dev1 and CSL 24.4
PK$SPLASH: splash10-0udi-9000000000-082649de4c040ebe26f9
PK$NUM_PEAK: 16
PK$PEAK: m/z int. rel.int.
  37.0072 6.6 53
  38.0148 2.5 20
  39.0228 10.2 83
  49.0072 19.5 159
  50.0154 122.3 999
  51.0229 64.1 523
  52.0182 6.3 51
  52.0303 1.6 13
  63.022 1.2 9
  65.0389 2.4 19
  73.0067 3.1 25
  74.0146 21.4 174
  75.0234 3.5 28
  76.0299 1.4 11
  77.0131 1.9 15
  78.0327 1.9 15
//