ACCESSION: MSBNK-BAFG-CSL23110918952
RECORD_TITLE: Fluroxypyr; LC-ESI-QTOF; MS2; 40 V
DATE: 2023.11.09
AUTHORS: Kevin S. Jewell; Björn Ehlig; Arne Wick
LICENSE: dl-de/by-2-0
COPYRIGHT: Copyright 2023 Federal Institute of Hydrology, Koblenz, Germany
COMMENT: CONFIDENCE Reference Standard (Level 1)
COMMENT: Chromatography method: dx.doi.org/10.1016/j.chroma.2015.11.014
COMMENT: Acquisition method: 10.1002/rcm.8541
CH$NAME: Fluroxypyr
CH$COMPOUND_CLASS: Herbicide
CH$FORMULA: C7H5Cl2FN2O3
CH$EXACT_MASS: 253.9661
CH$SMILES: C(C(=O)O)OC1=NC(=C(C(=C1Cl)N)Cl)F
CH$IUPAC: InChI=1S/C7H5Cl2FN2O3/c8-3-5(11)4(9)7(12-6(3)10)15-1-2(13)14/h1H2,(H2,11,12)(H,13,14)
CH$LINK: CAS 69377-81-7
CH$LINK: INCHIKEY MEFQWPUMEMWTJP-UHFFFAOYSA-N
AC$INSTRUMENT: TripleTOF 6600 SCIEX
AC$INSTRUMENT_TYPE: LC-ESI-QTOF
AC$MASS_SPECTROMETRY: MS_TYPE MS2
AC$MASS_SPECTROMETRY: ION_MODE NEGATIVE
AC$MASS_SPECTROMETRY: COLLISION_ENERGY 40
AC$MASS_SPECTROMETRY: FRAGMENTATION_MODE CID
AC$MASS_SPECTROMETRY: IONIZATION ESI
AC$CHROMATOGRAPHY: COLUMN_NAME Zorbax Eclipse Plus C18 2.1 mm x 150 mm, 3.5 um, Agilent
AC$CHROMATOGRAPHY: COLUMN_TEMPERATURE 40 °C
AC$CHROMATOGRAPHY: FLOW_GRADIENT 0 min min 98% A, 1 min 98% A, 2 min 80% A, 16.5 min 2% A, 22 min 2% A, 22.1 min 98% A, 27 min 98% A
AC$CHROMATOGRAPHY: FLOW_RATE 0.3 mL/min
AC$CHROMATOGRAPHY: RETENTION_TIME 8.859 min
AC$CHROMATOGRAPHY: SOLVENT A: Water 0.1% Formic acid, B: Acetonitrile 0.1% Formic acid
MS$FOCUSED_ION: PRECURSOR_M/Z 252.9588
MS$FOCUSED_ION: PRECURSOR_TYPE [M-H]-
MS$DATA_PROCESSING: COMMENT Export with Spectra 1.9.12 MsBackendMassbank 1.7.4
MS$DATA_PROCESSING: WHOLE RMassBank 2.3.1
PK$SPLASH: splash10-001l-2900000000-8dbb94e9d8f81e7885e2
PK$NUM_PEAK: 13
PK$PEAK: m/z int. rel.int.
  34.9684 5.1 366
  41.9972 1 71
  65.9963 1.6 114
  95.0032 2.1 150
  110.9739 0.9 64
  115.9687 0.9 64
  122.9974 0.8 57
  130.9805 2.6 186
  131.9392 6.8 488
  157.9682 3.1 222
  158.9759 3.9 280
  174.9459 3.3 237
  194.9519 13.9 999
//
