ACCESSION: MSBNK-BAFG-CSL23111017807
RECORD_TITLE: Fipronil; LC-ESI-QTOF; MS2; 70 V
DATE: 2023.11.10
AUTHORS: Kevin S. Jewell; Björn Ehlig; Arne Wick
LICENSE: dl-de/by-2-0
COPYRIGHT: Copyright 2023 Federal Institute of Hydrology, Koblenz, Germany
COMMENT: CONFIDENCE Reference Standard (Level 1)
COMMENT: Chromatography method: dx.doi.org/10.1016/j.chroma.2015.11.014
COMMENT: Acquisition method: 10.1002/rcm.8541
CH$NAME: Fipronil
CH$COMPOUND_CLASS: Insecticide
CH$FORMULA: C12H4Cl2F6N4OS
CH$EXACT_MASS: 435.9387
CH$SMILES: C1=C(C=C(C(=C1Cl)N2C(=C(C(=N2)C#N)S(=O)C(F)(F)F)N)Cl)C(F)(F)F
CH$IUPAC: InChI=1S/C12H4Cl2F6N4OS/c13-5-1-4(11(15,16)17)2-6(14)8(5)24-10(22)9(7(3-21)23-24)26(25)12(18,19)20/h1-2H,22H2
CH$LINK: CAS 120068-37-3
CH$LINK: INCHIKEY ZOCSXAVNDGMNBV-UHFFFAOYSA-N
AC$INSTRUMENT: TripleTOF 6600 SCIEX
AC$INSTRUMENT_TYPE: LC-ESI-QTOF
AC$MASS_SPECTROMETRY: MS_TYPE MS2
AC$MASS_SPECTROMETRY: ION_MODE POSITIVE
AC$MASS_SPECTROMETRY: COLLISION_ENERGY 70
AC$MASS_SPECTROMETRY: FRAGMENTATION_MODE CID
AC$MASS_SPECTROMETRY: IONIZATION ESI
AC$CHROMATOGRAPHY: COLUMN_NAME Zorbax Eclipse Plus C18 2.1 mm x 150 mm, 3.5 um, Agilent
AC$CHROMATOGRAPHY: COLUMN_TEMPERATURE 40 °C
AC$CHROMATOGRAPHY: FLOW_GRADIENT 0 min min 98% A, 1 min 98% A, 2 min 80% A, 16.5 min 2% A, 22 min 2% A, 22.1 min 98% A, 27 min 98% A
AC$CHROMATOGRAPHY: FLOW_RATE 0.3 mL/min
AC$CHROMATOGRAPHY: RETENTION_TIME 13.577 min
AC$CHROMATOGRAPHY: SOLVENT A: Water 0.1% Formic acid, B: Acetonitrile 0.1% Formic acid
MS$FOCUSED_ION: PRECURSOR_M/Z 436.946
MS$FOCUSED_ION: PRECURSOR_TYPE [M+H]+
MS$DATA_PROCESSING: COMMENT Export with Spectra 1.9.12 MsBackendMassbank 1.7.4
MS$DATA_PROCESSING: WHOLE RMassBank 2.3.1
PK$SPLASH: splash10-0h51-0190000000-8498f44510278e645d08
PK$NUM_PEAK: 29
PK$PEAK: m/z int. rel.int.
  66.0188 0.5 146
  157.0109 0.4 117
  158.0197 0.8 235
  178.9702 0.6 176
  185.0295 2.2 646
  191.9797 1.5 440
  200.9459 0.8 235
  200.9868 0.5 146
  203.9798 1.5 440
  209.9651 0.6 176
  212.9471 1.2 352
  219.9995 0.5 146
  221.0062 3.4 999
  226.9867 0.9 264
  227.9574 2.9 852
  228.9676 0.7 205
  230.9904 0.6 176
  235.9523 0.6 176
  238.9489 1 293
  239.9573 3.3 969
  246.0038 0.7 205
  246.9836 0.8 235
  249.0024 3 881
  254.9684 2.3 675
  258.0026 1 293
  262.963 2.9 852
  270.0028 0.4 117
  270.922 0.6 176
  277.9605 1 293
//
