ACCESSION: MSBNK-BAFG-CSL2310303303
RECORD_TITLE: Flubendazole; LC-ESI-QTOF; MS2; 70 V
DATE: 2023.10.30
AUTHORS: Kevin S. Jewell; Björn Ehlig; Arne Wick
LICENSE: dl-de/by-2-0
COPYRIGHT: Copyright 2023 Federal Institute of Hydrology, Koblenz, Germany
COMMENT: CONFIDENCE Reference Standard (Level 1)
COMMENT: Chromatography method: dx.doi.org/10.1016/j.chroma.2015.11.014
COMMENT: Acquisition method: 10.1002/rcm.8541
CH$NAME: Flubendazole
CH$COMPOUND_CLASS: Pharmaceutical
CH$FORMULA: C16H12FN3O3
CH$EXACT_MASS: 313.0863
CH$SMILES: COC(=O)Nc1[nH]c2cc(ccc2n1)C(=O)c3ccc(F)cc3
CH$IUPAC: InChI=1S/C16H12FN3O3/c1-23-16(22)20-15-18-12-7-4-10(8-13(12)19-15)14(21)9-2-5-11(17)6-3-9/h2-8H,1H3,(H2,18,19,20,22)
CH$LINK: CAS 31430-15-6
CH$LINK: INCHIKEY CPEUVMUXAHMANV-UHFFFAOYSA-N
AC$INSTRUMENT: TripleTOF 5600 SCIEX
AC$INSTRUMENT_TYPE: LC-ESI-QTOF
AC$MASS_SPECTROMETRY: MS_TYPE MS2
AC$MASS_SPECTROMETRY: ION_MODE POSITIVE
AC$MASS_SPECTROMETRY: COLLISION_ENERGY 70
AC$MASS_SPECTROMETRY: FRAGMENTATION_MODE CID
AC$MASS_SPECTROMETRY: IONIZATION ESI
AC$CHROMATOGRAPHY: COLUMN_NAME Zorbax Eclipse Plus C18 2.1 mm x 150 mm, 3.5 um, Agilent
AC$CHROMATOGRAPHY: COLUMN_TEMPERATURE 40 °C
AC$CHROMATOGRAPHY: FLOW_GRADIENT 0 min min 98% A, 1 min 98% A, 2 min 80% A, 16.5 min 2% A, 22 min 2% A, 22.1 min 98% A, 27 min 98% A
AC$CHROMATOGRAPHY: FLOW_RATE 0.3 mL/min
AC$CHROMATOGRAPHY: RETENTION_TIME 9.113 min
AC$CHROMATOGRAPHY: SOLVENT A: Water 0.1% Formic acid, B: Acetonitrile 0.1% Formic acid
MS$FOCUSED_ION: PRECURSOR_M/Z 314.0935
MS$FOCUSED_ION: PRECURSOR_TYPE [M+H]+
MS$DATA_PROCESSING: COMMENT Export with Spectra 1.9.12 MsBackendMassbank 1.7.4
MS$DATA_PROCESSING: WHOLE RMassBank 2.3.1
PK$SPLASH: splash10-0002-9600000000-78e47eca2bbac8c46103
PK$NUM_PEAK: 18
PK$PEAK: m/z int. rel.int.
  73.0102 2.9 10
  74.0182 22.2 81
  75.0265 60.8 224
  77.029 6.7 24
  95.0311 270.7 999
  103.0308 5.3 19
  104.0377 19.7 72
  105.0446 12.7 46
  123.026 108.2 399
  130.04 14.8 54
  131.0478 20.1 74
  132.0554 9.3 34
  157.046 3.7 13
  158.0384 8.3 30
  159.0428 28.9 106
  160.0496 2.9 10
  184.0554 12 44
  199.0665 4 14
//
