ACCESSION: MSBNK-BAFG-CSL23110910784
RECORD_TITLE: Octrizole; LC-ESI-QTOF; MS2; 100 V
DATE: 2023.11.09
AUTHORS: Kevin S. Jewell; Björn Ehlig; Arne Wick
LICENSE: dl-de/by-2-0
COPYRIGHT: Copyright 2023 Federal Institute of Hydrology, Koblenz, Germany
COMMENT: CONFIDENCE Reference Standard (Level 1)
COMMENT: Chromatography method: dx.doi.org/10.1016/j.chroma.2015.11.014
COMMENT: Acquisition method: 10.1002/rcm.8541
CH$NAME: Octrizole
CH$COMPOUND_CLASS: Industrial_process
CH$FORMULA: C20H25N3O
CH$EXACT_MASS: 323.1998
CH$SMILES: CC(C)(C)CC(C)(C)C1=CC(=C(C=C1)O)N2N=C3C=CC=CC3=N2
CH$IUPAC: InChI=1S/C20H25N3O/c1-19(2,3)13-20(4,5)14-10-11-18(24)17(12-14)23-21-15-8-6-7-9-16(15)22-23/h6-12,24H,13H2,1-5H3
CH$LINK: CAS 3147-75-9
CH$LINK: INCHIKEY IYAZLDLPUNDVAG-UHFFFAOYSA-N
AC$INSTRUMENT: TripleTOF 5600 SCIEX
AC$INSTRUMENT_TYPE: LC-ESI-QTOF
AC$MASS_SPECTROMETRY: MS_TYPE MS2
AC$MASS_SPECTROMETRY: ION_MODE POSITIVE
AC$MASS_SPECTROMETRY: COLLISION_ENERGY 100
AC$MASS_SPECTROMETRY: FRAGMENTATION_MODE CID
AC$MASS_SPECTROMETRY: IONIZATION ESI
AC$CHROMATOGRAPHY: COLUMN_NAME Zorbax Eclipse Plus C18 2.1 mm x 150 mm, 3.5 um, Agilent
AC$CHROMATOGRAPHY: COLUMN_TEMPERATURE 40 °C
AC$CHROMATOGRAPHY: FLOW_GRADIENT 0 min min 98% A, 1 min 98% A, 2 min 80% A, 16.5 min 2% A, 22 min 2% A, 22.1 min 98% A, 27 min 98% A
AC$CHROMATOGRAPHY: FLOW_RATE 0.3 mL/min
AC$CHROMATOGRAPHY: RETENTION_TIME 19.562 min
AC$CHROMATOGRAPHY: SOLVENT A: Water 0.1% Formic acid, B: Acetonitrile 0.1% Formic acid
MS$FOCUSED_ION: PRECURSOR_M/Z 324.207
MS$FOCUSED_ION: PRECURSOR_TYPE [M+H]+
MS$DATA_PROCESSING: COMMENT Export with Spectra 1.9.12 MsBackendMassbank 1.7.4
MS$DATA_PROCESSING: WHOLE RMassBank 2.3.1
PK$SPLASH: splash10-016r-9700000000-3c0ecfc187da8b1a0242
PK$NUM_PEAK: 33
PK$PEAK: m/z int. rel.int.
  63.0287 0.4 36
  65.0457 11.1 999
  77.0434 5.8 522
  78.0536 0.5 45
  79.0593 1.4 125
  80.0528 0.4 36
  89.0407 0.7 62
  91.0587 2.1 189
  92.0519 3 270
  103.0545 1.4 125
  105.0451 0.8 72
  105.0724 2 180
  107.0519 0.6 54
  115.0563 1.7 153
  117.0586 0.5 45
  120.0582 0.6 54
  127.0583 1 90
  128.0524 0.5 45
  128.0644 0.5 45
  133.0662 0.6 54
  139.0531 1.1 99
  140.0532 0.7 62
  151.0527 0.6 54
  152.0636 1.2 108
  153.0721 0.8 72
  154.0651 1.2 108
  164.0605 0.6 54
  165.0716 0.7 62
  166.0613 1.2 108
  167.069 1.5 135
  180.0773 1.2 108
  191.069 0.5 45
  192.0585 0.4 36
//
