ACCESSION: MSBNK-BAFG-CSL2310305825
RECORD_TITLE: Lenalidomide; LC-ESI-QTOF; MS2; 90 V
DATE: 2023.10.30
AUTHORS: Kevin S. Jewell; Björn Ehlig; Arne Wick
LICENSE: dl-de/by-2-0
COPYRIGHT: Copyright 2023 Federal Institute of Hydrology, Koblenz, Germany
COMMENT: CONFIDENCE Reference Standard (Level 1)
COMMENT: Chromatography method: dx.doi.org/10.1016/j.chroma.2015.11.014
COMMENT: Acquisition method: 10.1002/rcm.8541
CH$NAME: Lenalidomide
CH$COMPOUND_CLASS: Pharmaceutical
CH$FORMULA: C13H13N3O3
CH$EXACT_MASS: 259.0957
CH$SMILES: Nc1cccc2C(=O)N(Cc12)C3CCC(=O)NC3=O
CH$IUPAC: InChI=1S/C13H13N3O3/c14-9-3-1-2-7-8(9)6-16(13(7)19)10-4-5-11(17)15-12(10)18/h1-3,10H,4-6,14H2,(H,15,17,18)
CH$LINK: CAS 191732-72-6
CH$LINK: INCHIKEY GOTYRUGSSMKFNF-UHFFFAOYSA-N
AC$INSTRUMENT: TripleTOF 5600 SCIEX
AC$INSTRUMENT_TYPE: LC-ESI-QTOF
AC$MASS_SPECTROMETRY: MS_TYPE MS2
AC$MASS_SPECTROMETRY: ION_MODE POSITIVE
AC$MASS_SPECTROMETRY: COLLISION_ENERGY 90
AC$MASS_SPECTROMETRY: FRAGMENTATION_MODE CID
AC$MASS_SPECTROMETRY: IONIZATION ESI
AC$CHROMATOGRAPHY: COLUMN_NAME Zorbax Eclipse Plus C18 2.1 mm x 150 mm, 3.5 um, Agilent
AC$CHROMATOGRAPHY: COLUMN_TEMPERATURE 40 °C
AC$CHROMATOGRAPHY: FLOW_GRADIENT 0 min min 98% A, 1 min 98% A, 2 min 80% A, 16.5 min 2% A, 22 min 2% A, 22.1 min 98% A, 27 min 98% A
AC$CHROMATOGRAPHY: FLOW_RATE 0.3 mL/min
AC$CHROMATOGRAPHY: RETENTION_TIME 5.24 min
AC$CHROMATOGRAPHY: SOLVENT A: Water 0.1% Formic acid, B: Acetonitrile 0.1% Formic acid
MS$FOCUSED_ION: PRECURSOR_M/Z 260.103
MS$FOCUSED_ION: PRECURSOR_TYPE [M+H]+
MS$DATA_PROCESSING: COMMENT Export with Spectra 1.9.12 MsBackendMassbank 1.7.4
MS$DATA_PROCESSING: WHOLE RMassBank 2.3.1
PK$SPLASH: splash10-004i-9500000000-3ef3f2528b85aa4e765e
PK$NUM_PEAK: 15
PK$PEAK: m/z int. rel.int.
  65.0438 2.1 381
  75.0248 0.7 127
  77.0411 5.5 999
  78.0389 0.6 108
  79.0553 0.6 108
  84.0518 0.5 90
  89.0388 0.9 163
  92.0497 1.5 272
  104.0486 3.5 635
  104.0703 0.5 90
  106.0644 0.9 163
  130.0615 0.6 108
  131.062 0.7 127
  132.0443 0.5 90
  132.069 0.4 72
//
