ACCESSION: MSBNK-BAFG-CSL25011734634
RECORD_TITLE: Metachrome Yellow free acid; LC-ESI-QTOF; MS2; 60 V
DATE: 2025.01.17
AUTHORS: Ole Lessmann; Kevin S. Jewell; Björn Ehlig; Arne Wick
LICENSE: dl-de/by-2-0
COPYRIGHT: Copyright 2025 Federal Institute of Hydrology, Koblenz, Germany
COMMENT: CONFIDENCE Reference Standard (Level 1)
COMMENT: Chromatography method: dx.doi.org/10.1016/j.chroma.2015.11.014
CH$NAME: Metachrome Yellow free acid
CH$FORMULA: C13H9N3O5
CH$EXACT_MASS: 287.0542
CH$SMILES: C1=CC(=CC(=C1)[N+](=O)[O-])N=NC2=CC(=C(C=C2)O)C(=O)O
CH$IUPAC: InChI=1S/C13H9N3O5/c17-12-5-4-9(7-11(12)13(18)19)15-14-8-2-1-3-10(6-8)16(20)21/h1-7,17H,(H,18,19)
CH$LINK: CAS 6283-26-7
CH$LINK: INCHIKEY LJOXBIGRIKPBSQ-UHFFFAOYSA-N
AC$INSTRUMENT: TripleTOF 6600 SCIEX
AC$INSTRUMENT_TYPE: LC-ESI-QTOF
AC$MASS_SPECTROMETRY: MS_TYPE MS2
AC$MASS_SPECTROMETRY: ION_MODE POSITIVE
AC$MASS_SPECTROMETRY: COLLISION_ENERGY 60
AC$MASS_SPECTROMETRY: FRAGMENTATION_MODE CID
AC$MASS_SPECTROMETRY: IONIZATION ESI
AC$CHROMATOGRAPHY: COLUMN_NAME Zorbax Eclipse Plus C18 2.1 mm x 150 mm, 3.5 um, Agilent
AC$CHROMATOGRAPHY: COLUMN_TEMPERATURE 40 °C
AC$CHROMATOGRAPHY: FLOW_GRADIENT 0 min min 98% A, 1 min 98% A, 2 min 80% A, 16.5 min 2% A, 22 min 2% A, 22.1 min 98% A, 27 min 98% A
AC$CHROMATOGRAPHY: FLOW_RATE 0.3 mL/min
AC$CHROMATOGRAPHY: RETENTION_TIME 11.919 min
AC$CHROMATOGRAPHY: SOLVENT A: Water 0.1% Formic acid, B: Acetonitrile 0.1% Formic acid
MS$FOCUSED_ION: PRECURSOR_M/Z 288.0615
MS$FOCUSED_ION: PRECURSOR_TYPE [M+H]+
MS$DATA_PROCESSING: COMMENT Export with pycsl 0.1.0.dev1 and CSL 25.0
PK$SPLASH: splash10-03fu-9700000000-fbd35a4af6432b23f99c
PK$NUM_PEAK: 63
PK$PEAK: m/z int. rel.int.
  39.022 2.3 62
  50.0139 1.1 29
  51.0214 1.5 40
  52.0174 0.6 16
  53.0021 0.9 24
  61.0062 1.5 40
  62.0145 2.7 72
  63.0219 25.8 696
  64.0297 27.7 747
  73.0062 0.6 16
  74.0139 3.1 83
  75.0219 37.0 999
  76.0296 6.4 172
  77.0261 0.7 18
  77.0378 1.8 48
  78.0324 4.7 126
  80.0118 5.2 140
  82.027 1.0 27
  88.0286 0.8 21
  89.0371 1.7 45
  90.0323 0.7 18
  90.0455 1.4 37
  91.0166 11.7 315
  91.0415 1.0 27
  92.0248 13.6 367
  101.038 0.6 16
  102.0446 0.5 13
  103.0407 0.4 10
  105.017 0.5 13
  106.0268 5.4 145
  113.0373 2.6 70
  114.032 1.4 37
  114.0448 7.3 197
  115.0411 2.1 56
  115.0524 0.6 16
  116.0492 0.8 21
  117.0556 2.2 59
  118.0512 0.4 10
  119.0132 2.8 75
  122.0241 0.9 24
  125.0385 0.5 13
  127.0522 0.5 13
  128.0492 3.0 81
  129.0421 0.6 16
  134.023 3.2 86
  138.0449 0.6 16
  139.0515 14.7 396
  140.0479 22.1 596
  141.0556 6.9 186
  142.0507 7.0 189
  142.0712 0.5 13
  150.0288 0.7 18
  152.0459 0.4 10
  154.0517 0.7 18
  155.0562 3.3 89
  166.0495 5.2 140
  167.0579 15.3 413
  168.046 0.4 10
  168.0662 7.8 210
  169.0485 1.0 27
  179.0602 1.6 43
  195.0556 3.6 97
  223.0453 0.4 10
//
