ACCESSION: MSBNK-BAFG-CSL25010627801
RECORD_TITLE: Dinoseb; LC-ESI-QTOF; MS2; 40 V
DATE: 2025.01.06
AUTHORS: Ole Lessmann; Kevin S. Jewell; Björn Ehlig; Arne Wick
LICENSE: dl-de/by-2-0
COPYRIGHT: Copyright 2025 Federal Institute of Hydrology, Koblenz, Germany
COMMENT: CONFIDENCE Reference Standard (Level 1)
COMMENT: Chromatography method: dx.doi.org/10.1016/j.chroma.2015.11.014
COMMENT: Acquisition method: 10.1002/rcm.8541
CH$NAME: Dinoseb
CH$COMPOUND_CLASS: Herbicide
CH$FORMULA: C10H12N2O5
CH$EXACT_MASS: 240.0746
CH$SMILES: CCC(C)c1cc(cc(c1O)[N+](=O)[O-])[N+](=O)[O-]
CH$IUPAC: InChI=1S/C10H12N2O5/c1-3-6(2)8-4-7(11(14)15)5-9(10(8)13)12(16)17/h4-6,13H,3H2,1-2H3
CH$LINK: CAS 88-85-7
CH$LINK: INCHIKEY OWZPCEFYPSAJFR-UHFFFAOYSA-N
AC$INSTRUMENT: TripleTOF 6600 SCIEX
AC$INSTRUMENT_TYPE: LC-ESI-QTOF
AC$MASS_SPECTROMETRY: MS_TYPE MS2
AC$MASS_SPECTROMETRY: ION_MODE NEGATIVE
AC$MASS_SPECTROMETRY: COLLISION_ENERGY 40
AC$MASS_SPECTROMETRY: FRAGMENTATION_MODE CID
AC$MASS_SPECTROMETRY: IONIZATION ESI
AC$CHROMATOGRAPHY: COLUMN_NAME Zorbax Eclipse Plus C18 2.1 mm x 150 mm, 3.5 um, Agilent
AC$CHROMATOGRAPHY: COLUMN_TEMPERATURE 40 °C
AC$CHROMATOGRAPHY: FLOW_GRADIENT 0 min min 98% A, 1 min 98% A, 2 min 80% A, 16.5 min 2% A, 22 min 2% A, 22.1 min 98% A, 27 min 98% A
AC$CHROMATOGRAPHY: FLOW_RATE 0.3 mL/min
AC$CHROMATOGRAPHY: RETENTION_TIME 13.78182 min
AC$CHROMATOGRAPHY: SOLVENT A: Water 0.1% Formic acid, B: Acetonitrile 0.1% Formic acid
MS$FOCUSED_ION: PRECURSOR_M/Z 239.0673
MS$FOCUSED_ION: PRECURSOR_TYPE [M-H]-
MS$DATA_PROCESSING: COMMENT Export with pycsl 0.1.0.dev1 and CSL 24.4
PK$SPLASH: splash10-0006-0900000000-14259f5cbdfeee4ddc20
PK$NUM_PEAK: 38
PK$PEAK: m/z int. rel.int.
  45.9925 21.5 82
  109.0157 3.9 14
  121.0278 5.0 19
  122.0358 10.2 39
  123.0314 3.4 13
  134.0235 88.3 338
  135.0313 56.3 215
  136.0389 14.1 53
  137.0464 4.2 16
  146.0359 4.0 15
  147.0438 5.1 19
  148.0391 4.1 15
  149.0234 3.7 14
  149.0467 3.7 14
  150.0296 2.7 10
  150.0539 4.1 15
  151.0748 21.3 81
  160.039 3.9 14
  162.0176 19.0 72
  162.0661 3.8 14
  163.0263 180.4 690
  164.0339 8.5 32
  164.0455 18.7 71
  176.0336 48.6 186
  177.0411 49.4 189
  178.0494 46.0 176
  179.0205 3.6 13
  179.0698 5.9 22
  180.0286 11.7 44
  190.0501 4.2 16
  192.0648 66.5 254
  193.0242 260.9 999
  194.0441 135.7 519
  207.0393 39.0 149
  208.0595 8.2 31
  209.0185 53.3 204
  222.0636 4.9 18
  239.0648 14.1 53
//