ACCESSION: MSBNK-BAFG-CSL25010634231
RECORD_TITLE: 4,4`-Thiodianiline; LC-ESI-QTOF; MS2; 50 V
DATE: 2025.01.06
AUTHORS: Ole Lessmann; Kevin S. Jewell; Björn Ehlig; Arne Wick
LICENSE: dl-de/by-2-0
COPYRIGHT: Copyright 2025 Federal Institute of Hydrology, Koblenz, Germany
COMMENT: CONFIDENCE Reference Standard (Level 1)
COMMENT: Chromatography method: dx.doi.org/10.1016/j.chroma.2015.11.014
COMMENT: Acquisition method: 10.1002/rcm.8541
CH$NAME: 4,4`-Thiodianiline
CH$FORMULA: C12H12N2S
CH$EXACT_MASS: 216.0721
CH$SMILES: C1=CC(=CC=C1N)SC2=CC=C(C=C2)N
CH$IUPAC: InChI=1S/C12H12N2S/c13-9-1-5-11(6-2-9)15-12-7-3-10(14)4-8-12/h1-8H,13-14H2
CH$LINK: CAS 139-65-1
CH$LINK: INCHIKEY ICNFHJVPAJKPHW-UHFFFAOYSA-N
AC$INSTRUMENT: TripleTOF 6600 SCIEX
AC$INSTRUMENT_TYPE: LC-ESI-QTOF
AC$MASS_SPECTROMETRY: MS_TYPE MS2
AC$MASS_SPECTROMETRY: ION_MODE POSITIVE
AC$MASS_SPECTROMETRY: COLLISION_ENERGY 50
AC$MASS_SPECTROMETRY: FRAGMENTATION_MODE CID
AC$MASS_SPECTROMETRY: IONIZATION ESI
AC$CHROMATOGRAPHY: COLUMN_NAME Zorbax Eclipse Plus C18 2.1 mm x 150 mm, 3.5 um, Agilent
AC$CHROMATOGRAPHY: COLUMN_TEMPERATURE 40 °C
AC$CHROMATOGRAPHY: FLOW_GRADIENT 0 min min 98% A, 1 min 98% A, 2 min 80% A, 16.5 min 2% A, 22 min 2% A, 22.1 min 98% A, 27 min 98% A
AC$CHROMATOGRAPHY: FLOW_RATE 0.3 mL/min
AC$CHROMATOGRAPHY: RETENTION_TIME 6.429 min
AC$CHROMATOGRAPHY: SOLVENT A: Water 0.1% Formic acid, B: Acetonitrile 0.1% Formic acid
MS$FOCUSED_ION: PRECURSOR_M/Z 217.0794
MS$FOCUSED_ION: PRECURSOR_TYPE [M+H]+
MS$DATA_PROCESSING: COMMENT Export with pycsl 0.1.0.dev1 and CSL 24.4
PK$SPLASH: splash10-008i-3900000000-b03ad3adb45b7079670f
PK$NUM_PEAK: 48
PK$PEAK: m/z int. rel.int.
  50.0145 0.6 11
  53.0385 1.7 32
  63.023 0.5 9
  66.0459 1.2 22
  76.029 3.7 70
  80.0485 49.0 927
  81.0515 1.0 18
  89.0377 0.7 13
  92.0483 0.8 15
  93.0561 10.0 189
  97.0091 4.7 88
  113.0372 0.7 13
  115.0527 1.5 28
  123.0131 5.2 98
  124.0201 52.8 999
  125.023 1.0 18
  127.0541 1.4 26
  128.0616 3.0 56
  129.0665 1.5 28
  130.0652 1.1 20
  138.0458 0.8 15
  139.0535 34.1 645
  140.0557 2.5 47
  141.0709 0.6 11
  146.0186 0.6 11
  147.0262 1.6 30
  152.06 2.4 45
  154.0614 1.9 35
  155.0666 1.0 18
  156.0802 3.8 71
  157.0846 2.4 45
  158.0169 0.7 13
  166.0643 4.6 87
  167.071 8.6 162
  168.0791 0.7 13
  171.0238 12.1 228
  172.0332 6.2 117
  182.0197 2.1 39
  182.0838 0.6 11
  183.025 3.3 62
  183.0911 1.6 30
  184.0324 8.7 164
  184.0967 7.5 141
  185.0997 2.5 47
  198.035 7.1 134
  199.0441 12.3 232
  200.0481 1.2 22
  215.0565 1.9 35
//