ACCESSION: MSBNK-BAFG-CSL23102515221
RECORD_TITLE: Dimethachlor; LC-ESI-QTOF; MS2; 80 V
DATE: 2023.10.25
AUTHORS: Kevin S. Jewell; Björn Ehlig; Arne Wick
LICENSE: dl-de/by-2-0
COPYRIGHT: Copyright 2023 Federal Institute of Hydrology, Koblenz, Germany
COMMENT: CONFIDENCE Reference Standard (Level 1)
COMMENT: Chromatography method: dx.doi.org/10.1016/j.chroma.2015.11.014
COMMENT: Acquisition method: 10.1002/rcm.8541
CH$NAME: Dimethachlor
CH$COMPOUND_CLASS: Herbicide
CH$FORMULA: C13H18ClNO2
CH$EXACT_MASS: 255.1026
CH$SMILES: CC1=C(C(=CC=C1)C)N(CCOC)C(=O)CCl
CH$IUPAC: InChI=1S/C13H18ClNO2/c1-10-5-4-6-11(2)13(10)15(7-8-17-3)12(16)9-14/h4-6H,7-9H2,1-3H3
CH$LINK: CAS 50563-36-5
CH$LINK: INCHIKEY SCCDDNKJYDZXMM-UHFFFAOYSA-N
AC$INSTRUMENT: TripleTOF 6600 SCIEX
AC$INSTRUMENT_TYPE: LC-ESI-QTOF
AC$MASS_SPECTROMETRY: MS_TYPE MS2
AC$MASS_SPECTROMETRY: ION_MODE POSITIVE
AC$MASS_SPECTROMETRY: COLLISION_ENERGY 80
AC$MASS_SPECTROMETRY: FRAGMENTATION_MODE CID
AC$MASS_SPECTROMETRY: IONIZATION ESI
AC$CHROMATOGRAPHY: COLUMN_NAME Zorbax Eclipse Plus C18 2.1 mm x 150 mm, 3.5 um, Agilent
AC$CHROMATOGRAPHY: COLUMN_TEMPERATURE 40 °C
AC$CHROMATOGRAPHY: FLOW_GRADIENT 0 min min 98% A, 1 min 98% A, 2 min 80% A, 16.5 min 2% A, 22 min 2% A, 22.1 min 98% A, 27 min 98% A
AC$CHROMATOGRAPHY: FLOW_RATE 0.3 mL/min
AC$CHROMATOGRAPHY: RETENTION_TIME 10.992 min
AC$CHROMATOGRAPHY: SOLVENT A: Water 0.1% Formic acid, B: Acetonitrile 0.1% Formic acid
MS$FOCUSED_ION: PRECURSOR_M/Z 256.1099
MS$FOCUSED_ION: PRECURSOR_TYPE [M+H]+
MS$DATA_PROCESSING: COMMENT Export with Spectra 1.9.12 MsBackendMassbank 1.7.4
MS$DATA_PROCESSING: WHOLE RMassBank 2.3.1
PK$SPLASH: splash10-004i-9400000000-2d4629be73e420553342
PK$NUM_PEAK: 35
PK$PEAK: m/z int. rel.int.
  39.0237 1.2 18
  46.9683 1.2 18
  48.9844 13.4 201
  49.0077 0.7 10
  50.0153 4.1 61
  51.0234 17.7 266
  53.0395 1 15
  63.0218 0.7 10
  65.0386 4.5 67
  66.0473 0.7 10
  77.0391 66.3 999
  78.0457 1.7 25
  79.0544 16.3 245
  89.0386 3.7 55
  90.046 5.7 85
  91.0544 15.3 230
  102.0471 1.1 16
  103.0538 11.5 173
  104.0492 0.7 10
  104.063 1.2 18
  105.044 1.8 27
  105.0706 8.3 125
  106.0648 3.3 49
  107.0728 1.5 22
  115.0544 3 45
  116.0493 1.1 16
  117.0571 24.8 373
  118.0649 6.3 94
  119.0799 0.7 10
  128.061 0.7 10
  130.0649 10 150
  131.0726 3.2 48
  132.0811 5 75
  143.0738 0.7 10
  144.0788 0.7 10
//
