ACCESSION: MSBNK-BAFG-CSL2311094169
RECORD_TITLE: Metamitron; LC-ESI-QTOF; MS2; 40 V
DATE: 2023.11.09
AUTHORS: Kevin S. Jewell; Björn Ehlig; Arne Wick
LICENSE: dl-de/by-2-0
COPYRIGHT: Copyright 2023 Federal Institute of Hydrology, Koblenz, Germany
COMMENT: CONFIDENCE Reference Standard (Level 1)
COMMENT: Chromatography method: dx.doi.org/10.1016/j.chroma.2015.11.014
COMMENT: Acquisition method: 10.1002/rcm.8541
CH$NAME: Metamitron
CH$COMPOUND_CLASS: Herbicide
CH$FORMULA: C10H10N4O
CH$EXACT_MASS: 202.0855
CH$SMILES: CC1=NN=C(c2ccccc2)C(=O)N1N
CH$IUPAC: InChI=1S/C10H10N4O/c1-7-12-13-9(10(15)14(7)11)8-5-3-2-4-6-8/h2-6H,11H2,1H3
CH$LINK: CAS 41394-05-2
CH$LINK: INCHIKEY VHCNQEUWZYOAEV-UHFFFAOYSA-N
AC$INSTRUMENT: TripleTOF 5600 SCIEX
AC$INSTRUMENT_TYPE: LC-ESI-QTOF
AC$MASS_SPECTROMETRY: MS_TYPE MS2
AC$MASS_SPECTROMETRY: ION_MODE POSITIVE
AC$MASS_SPECTROMETRY: COLLISION_ENERGY 40
AC$MASS_SPECTROMETRY: FRAGMENTATION_MODE CID
AC$MASS_SPECTROMETRY: IONIZATION ESI
AC$CHROMATOGRAPHY: COLUMN_NAME Zorbax Eclipse Plus C18 2.1 mm x 150 mm, 3.5 um, Agilent
AC$CHROMATOGRAPHY: COLUMN_TEMPERATURE 40 °C
AC$CHROMATOGRAPHY: FLOW_GRADIENT 0 min min 98% A, 1 min 98% A, 2 min 80% A, 16.5 min 2% A, 22 min 2% A, 22.1 min 98% A, 27 min 98% A
AC$CHROMATOGRAPHY: FLOW_RATE 0.3 mL/min
AC$CHROMATOGRAPHY: RETENTION_TIME 6.783 min
AC$CHROMATOGRAPHY: SOLVENT A: Water 0.1% Formic acid, B: Acetonitrile 0.1% Formic acid
MS$FOCUSED_ION: PRECURSOR_M/Z 203.0927
MS$FOCUSED_ION: PRECURSOR_TYPE [M+H]+
MS$DATA_PROCESSING: COMMENT Export with Spectra 1.9.12 MsBackendMassbank 1.7.4
MS$DATA_PROCESSING: WHOLE RMassBank 2.3.1
PK$SPLASH: splash10-0fb9-6910000000-149016ae671693d38ef9
PK$NUM_PEAK: 34
PK$PEAK: m/z int. rel.int.
  42.0439 28.7 435
  43.0505 1.7 25
  56.0179 1.9 28
  57.0498 4.2 63
  59.0293 1.4 21
  65.0418 1.6 24
  72.0582 1.3 19
  77.0415 41.9 635
  79.0572 7.7 116
  80.052 1.2 18
  83.0254 3.3 50
  89.0398 6.2 93
  91.0452 1.7 25
  92.0504 3.2 48
  93.0617 0.8 12
  103.0521 1.9 28
  104.0494 65.9 999
  105.0396 0.8 12
  105.0573 7.5 113
  106.0639 4.4 66
  107.0579 1 15
  116.0477 0.7 10
  117.0444 2.1 31
  118.052 5.5 83
  119.0608 1.3 19
  130.0641 3.5 53
  134.0699 1.4 21
  145.039 4.5 68
  158.0722 2.5 37
  159.078 3.9 59
  173.0699 1 15
  174.078 11.7 177
  175.0971 39.1 592
  203.0917 21.7 328
//
