ACCESSION: MSBNK-BAFG-CSL23111018762
RECORD_TITLE: Warfarin; LC-ESI-QTOF; MS2; 40 V
DATE: 2023.11.10
AUTHORS: Kevin S. Jewell; Björn Ehlig; Arne Wick
LICENSE: dl-de/by-2-0
COPYRIGHT: Copyright 2023 Federal Institute of Hydrology, Koblenz, Germany
COMMENT: CONFIDENCE Reference Standard (Level 1)
COMMENT: Chromatography method: dx.doi.org/10.1016/j.chroma.2015.11.014
COMMENT: Acquisition method: 10.1002/rcm.8541
CH$NAME: Warfarin
CH$COMPOUND_CLASS: Pesticide
CH$FORMULA: C19H16O4
CH$EXACT_MASS: 308.1049
CH$SMILES: CC(=O)CC(C1=CC=CC=C1)C2=C(C3=CC=CC=C3OC2=O)O
CH$IUPAC: InChI=1S/C19H16O4/c1-12(20)11-15(13-7-3-2-4-8-13)17-18(21)14-9-5-6-10-16(14)23-19(17)22/h2-10,15,21H,11H2,1H3
CH$LINK: CAS 81-81-2
CH$LINK: INCHIKEY PJVWKTKQMONHTI-UHFFFAOYSA-N
AC$INSTRUMENT: TripleTOF 6600 SCIEX
AC$INSTRUMENT_TYPE: LC-ESI-QTOF
AC$MASS_SPECTROMETRY: MS_TYPE MS2
AC$MASS_SPECTROMETRY: ION_MODE POSITIVE
AC$MASS_SPECTROMETRY: COLLISION_ENERGY 40
AC$MASS_SPECTROMETRY: FRAGMENTATION_MODE CID
AC$MASS_SPECTROMETRY: IONIZATION ESI
AC$CHROMATOGRAPHY: COLUMN_NAME Zorbax Eclipse Plus C18 2.1 mm x 150 mm, 3.5 um, Agilent
AC$CHROMATOGRAPHY: COLUMN_TEMPERATURE 40 °C
AC$CHROMATOGRAPHY: FLOW_GRADIENT 0 min min 98% A, 1 min 98% A, 2 min 80% A, 16.5 min 2% A, 22 min 2% A, 22.1 min 98% A, 27 min 98% A
AC$CHROMATOGRAPHY: FLOW_RATE 0.3 mL/min
AC$CHROMATOGRAPHY: RETENTION_TIME 11.631 min
AC$CHROMATOGRAPHY: SOLVENT A: Water 0.1% Formic acid, B: Acetonitrile 0.1% Formic acid
MS$FOCUSED_ION: PRECURSOR_M/Z 309.1122
MS$FOCUSED_ION: PRECURSOR_TYPE [M+H]+
MS$DATA_PROCESSING: COMMENT Export with Spectra 1.9.12 MsBackendMassbank 1.7.4
MS$DATA_PROCESSING: WHOLE RMassBank 2.3.1
PK$SPLASH: splash10-0h90-0930000000-974c6a51ed1f0001dfae
PK$NUM_PEAK: 35
PK$PEAK: m/z int. rel.int.
  43.0178 36.7 119
  65.0388 6 19
  68.9974 3.9 12
  77.0379 19.7 64
  91.0535 12.9 42
  93.0327 8.2 26
  95.0485 4.6 15
  103.0529 11.7 38
  121.0279 117.7 384
  128.0611 5.7 18
  129.0691 23.6 76
  131.0479 30 97
  145.0266 3.3 10
  147.0801 24.6 80
  153.068 5.1 16
  155.0849 74.5 243
  157.0264 12.9 42
  163.0383 297.5 970
  165.07 15.5 50
  167.0852 23.5 76
  171.0794 4 13
  173.0229 185.6 605
  175.0376 3.2 10
  177.0688 5 16
  178.076 18.8 61
  179.0855 8.6 28
  183.0801 99.9 325
  189.0531 7.2 23
  191.0328 8 26
  195.0804 10 32
  205.0635 19.1 62
  223.0749 65.6 214
  233.0585 27.5 89
  249.054 5.6 18
  251.0704 306.2 999
//
