ACCESSION: MSBNK-BAFG-CSL2311096137
RECORD_TITLE: Triphenylphosphine oxide; LC-ESI-QTOF; MS2; 150 V
DATE: 2023.11.09
AUTHORS: Kevin S. Jewell; Björn Ehlig; Arne Wick
LICENSE: dl-de/by-2-0
COPYRIGHT: Copyright 2023 Federal Institute of Hydrology, Koblenz, Germany
COMMENT: CONFIDENCE Reference Standard (Level 1)
COMMENT: Chromatography method: dx.doi.org/10.1016/j.chroma.2015.11.014
COMMENT: Acquisition method: 10.1002/rcm.8541
CH$NAME: Triphenylphosphine oxide
CH$COMPOUND_CLASS: Industrial_process
CH$FORMULA: C18H15OP
CH$EXACT_MASS: 278.0861
CH$SMILES: O=[P](c1ccccc1)(c2ccccc2)c3ccccc3
CH$IUPAC: InChI=1S/C18H15OP/c19-20(16-10-4-1-5-11-16,17-12-6-2-7-13-17)18-14-8-3-9-15-18/h1-15H
CH$LINK: CAS 791-28-6
CH$LINK: INCHIKEY FIQMHBFVRAXMOP-UHFFFAOYSA-N
AC$INSTRUMENT: TripleTOF 5600 SCIEX
AC$INSTRUMENT_TYPE: LC-ESI-QTOF
AC$MASS_SPECTROMETRY: MS_TYPE MS2
AC$MASS_SPECTROMETRY: ION_MODE POSITIVE
AC$MASS_SPECTROMETRY: COLLISION_ENERGY 150
AC$MASS_SPECTROMETRY: FRAGMENTATION_MODE CID
AC$MASS_SPECTROMETRY: IONIZATION ESI
AC$CHROMATOGRAPHY: COLUMN_NAME Zorbax Eclipse Plus C18 2.1 mm x 150 mm, 3.5 um, Agilent
AC$CHROMATOGRAPHY: COLUMN_TEMPERATURE 40 °C
AC$CHROMATOGRAPHY: FLOW_GRADIENT 0 min min 98% A, 1 min 98% A, 2 min 80% A, 16.5 min 2% A, 22 min 2% A, 22.1 min 98% A, 27 min 98% A
AC$CHROMATOGRAPHY: FLOW_RATE 0.3 mL/min
AC$CHROMATOGRAPHY: RETENTION_TIME 10.458 min
AC$CHROMATOGRAPHY: SOLVENT A: Water 0.1% Formic acid, B: Acetonitrile 0.1% Formic acid
MS$FOCUSED_ION: PRECURSOR_M/Z 279.0933
MS$FOCUSED_ION: PRECURSOR_TYPE [M+H]+
MS$DATA_PROCESSING: COMMENT Export with Spectra 1.9.12 MsBackendMassbank 1.7.4
MS$DATA_PROCESSING: WHOLE RMassBank 2.3.1
PK$SPLASH: splash10-0udi-9200000000-6547f6bd8175859f96f7
PK$NUM_PEAK: 33
PK$PEAK: m/z int. rel.int.
  51.0311 30.8 999
  56.9945 0.6 19
  65.0443 0.5 16
  67.9841 3 97
  68.9928 1.4 45
  73.0123 1.1 35
  74.0186 5.3 171
  75.0277 1.3 42
  76.0331 1.6 51
  77.0418 3.8 123
  78.0477 0.5 16
  79.9837 1.9 61
  80.9904 1.8 58
  86.0194 0.9 29
  87.0249 1 32
  89.0422 1.4 45
  91.983 1.2 38
  92.9887 0.4 12
  98.0179 1.1 35
  99.0225 0.5 16
  102.0494 1.3 42
  103.9838 0.7 22
  107.0063 1.8 58
  115.0545 1 32
  125.0395 0.7 22
  126.0455 1.7 55
  139.0579 0.6 19
  150.046 3 97
  151.0543 1.3 42
  152.0648 0.7 22
  155.0005 0.4 12
  157.0161 0.4 12
  178.9987 0.5 16
//
