ACCESSION: MSBNK-BAFG-CSL25010634333
RECORD_TITLE: N-Isopropyl-N'-phenyl-p-phenylenediamine; LC-ESI-QTOF; MS2; 110 V
DATE: 2025.01.06
AUTHORS: Ole Lessmann; Kevin S. Jewell; Björn Ehlig; Arne Wick
LICENSE: dl-de/by-2-0
COPYRIGHT: Copyright 2025 Federal Institute of Hydrology, Koblenz, Germany
COMMENT: CONFIDENCE Reference Standard (Level 1)
COMMENT: Chromatography method: dx.doi.org/10.1016/j.chroma.2015.11.014
COMMENT: Acquisition method: 10.1002/rcm.8541
CH$NAME: N-Isopropyl-N'-phenyl-p-phenylenediamine
CH$COMPOUND_CLASS: Industrial_process
CH$FORMULA: C15H18N2
CH$EXACT_MASS: 226.147
CH$SMILES: CC(C)Nc1ccc(cc1)Nc2ccccc2
CH$IUPAC: InChI=1S/C15H18N2/c1-12(2)16-14-8-10-15(11-9-14)17-13-6-4-3-5-7-13/h3-12,16-17H,1-2H3
CH$LINK: CAS 101-72-4
CH$LINK: INCHIKEY OUBMGJOQLXMSNT-UHFFFAOYSA-N
AC$INSTRUMENT: TripleTOF 6600 SCIEX
AC$INSTRUMENT_TYPE: LC-ESI-QTOF
AC$MASS_SPECTROMETRY: MS_TYPE MS2
AC$MASS_SPECTROMETRY: ION_MODE POSITIVE
AC$MASS_SPECTROMETRY: COLLISION_ENERGY 110
AC$MASS_SPECTROMETRY: FRAGMENTATION_MODE CID
AC$MASS_SPECTROMETRY: IONIZATION ESI
AC$CHROMATOGRAPHY: COLUMN_NAME Zorbax Eclipse Plus C18 2.1 mm x 150 mm, 3.5 um, Agilent
AC$CHROMATOGRAPHY: COLUMN_TEMPERATURE 40 °C
AC$CHROMATOGRAPHY: FLOW_GRADIENT 0 min min 98% A, 1 min 98% A, 2 min 80% A, 16.5 min 2% A, 22 min 2% A, 22.1 min 98% A, 27 min 98% A
AC$CHROMATOGRAPHY: FLOW_RATE 0.3 mL/min
AC$CHROMATOGRAPHY: RETENTION_TIME 7.24 min
AC$CHROMATOGRAPHY: SOLVENT A: Water 0.1% Formic acid, B: Acetonitrile 0.1% Formic acid
MS$FOCUSED_ION: PRECURSOR_M/Z 227.1543
MS$FOCUSED_ION: PRECURSOR_TYPE [M+H]+
MS$DATA_PROCESSING: COMMENT Export with pycsl 0.1.0.dev1 and CSL 24.4
PK$SPLASH: splash10-0uei-9200000000-3f220dbc4f832dec51f6
PK$NUM_PEAK: 69
PK$PEAK: m/z int. rel.int.
  36.0004 0.4 10
  37.0069 3.5 89
  38.0031 0.7 17
  38.0141 2.9 74
  39.0224 16.6 426
  40.018 0.4 10
  41.0258 0.6 15
  42.0335 0.8 20
  49.0066 0.6 15
  50.0144 6.2 159
  51.0223 14.5 372
  52.0177 2.5 64
  52.03 2.0 51
  53.0379 30.6 785
  54.0334 3.5 89
  61.0061 2.6 66
  62.0139 6.5 166
  63.0223 16.7 428
  64.0172 1.3 33
  64.0299 1.1 28
  65.0373 6.0 154
  66.0456 1.7 43
  73.0063 0.7 17
  74.0148 2.5 64
  75.0211 3.2 82
  76.0185 0.5 12
  76.0289 0.8 20
  77.038 8.7 223
  78.0338 2.6 66
  78.0453 0.8 20
  79.0396 1.3 33
  80.0483 38.9 999
  85.0085 0.5 12
  86.0143 1.6 41
  87.0215 1.7 43
  88.0191 0.5 12
  88.0297 1.0 25
  89.0372 9.1 233
  90.0341 1.6 41
  90.046 0.5 12
  91.0406 0.7 17
  92.0488 1.1 28
  98.0151 0.6 15
  101.0361 1.5 38
  102.0452 1.2 30
  103.0397 0.6 15
  103.0534 0.8 20
  105.0427 0.8 20
  107.0601 1.1 28
  113.0377 5.4 138
  114.0336 1.1 28
  115.0536 3.2 82
  116.046 0.6 15
  117.0568 0.4 10
  126.0441 1.6 41
  127.0528 4.0 102
  128.0564 4.5 115
  129.0436 0.4 10
  129.0604 0.5 12
  130.0639 0.4 10
  137.0359 0.9 23
  138.0448 1.0 25
  139.053 6.3 161
  140.0497 4.2 107
  141.0511 0.5 12
  154.0641 1.8 46
  164.0451 0.8 20
  166.0633 1.1 28
  181.078 0.6 15
//