ACCESSION: MSBNK-BAFG-CSL25010634341
RECORD_TITLE: Iobitridol; LC-ESI-QTOF; MS2; 30 V
DATE: 2025.01.06
AUTHORS: Ole Lessmann; Kevin S. Jewell; Björn Ehlig; Arne Wick
LICENSE: dl-de/by-2-0
COPYRIGHT: Copyright 2025 Federal Institute of Hydrology, Koblenz, Germany
COMMENT: CONFIDENCE Reference Standard (Level 1)
COMMENT: Chromatography method: dx.doi.org/10.1016/j.chroma.2015.11.014
COMMENT: Acquisition method: 10.1002/rcm.8541
CH$NAME: Iobitridol
CH$COMPOUND_CLASS: Pharmaceutical
CH$FORMULA: C20H28I3N3O9
CH$EXACT_MASS: 834.896
CH$SMILES: CN(CC(O)CO)C(=O)c1c(I)c(NC(=O)C(CO)CO)c(I)c(c1I)C(=O)N(C)CC(O)CO
CH$IUPAC: InChI=1S/C20H28I3N3O9/c1-25(3-10(31)7-29)19(34)12-14(21)13(20(35)26(2)4-11(32)8-30)16(23)17(15(12)22)24-18(33)9(5-27)6-28/h9-11,27-32H,3-8H2,1-2H3,(H,24,33)
CH$LINK: CAS 136949-58-1
CH$LINK: INCHIKEY YLPBXIKWXNRACS-UHFFFAOYSA-N
AC$INSTRUMENT: TripleTOF 6600 SCIEX
AC$INSTRUMENT_TYPE: LC-ESI-QTOF
AC$MASS_SPECTROMETRY: MS_TYPE MS2
AC$MASS_SPECTROMETRY: ION_MODE POSITIVE
AC$MASS_SPECTROMETRY: COLLISION_ENERGY 30
AC$MASS_SPECTROMETRY: FRAGMENTATION_MODE CID
AC$MASS_SPECTROMETRY: IONIZATION ESI
AC$CHROMATOGRAPHY: COLUMN_NAME Zorbax Eclipse Plus C18 2.1 mm x 150 mm, 3.5 um, Agilent
AC$CHROMATOGRAPHY: COLUMN_TEMPERATURE 40 °C
AC$CHROMATOGRAPHY: FLOW_GRADIENT 0 min min 98% A, 1 min 98% A, 2 min 80% A, 16.5 min 2% A, 22 min 2% A, 22.1 min 98% A, 27 min 98% A
AC$CHROMATOGRAPHY: FLOW_RATE 0.3 mL/min
AC$CHROMATOGRAPHY: RETENTION_TIME 4.58 min
AC$CHROMATOGRAPHY: SOLVENT A: Water 0.1% Formic acid, B: Acetonitrile 0.1% Formic acid
MS$FOCUSED_ION: PRECURSOR_M/Z 835.9033
MS$FOCUSED_ION: PRECURSOR_TYPE [M+H]+
MS$DATA_PROCESSING: COMMENT Export with pycsl 0.1.0.dev1 and CSL 24.4
PK$SPLASH: splash10-000i-0000003290-b36977daf7d091e64ac6
PK$NUM_PEAK: 18
PK$PEAK: m/z int. rel.int.
  474.982 1.6 24
  504.0713 0.7 10
  575.9104 1.2 18
  602.9079 30.3 460
  602.9648 0.8 12
  628.7622 0.7 10
  628.7883 2.2 33
  689.9625 1.2 18
  707.9767 0.7 10
  712.8219 1.1 16
  715.8437 1.1 16
  715.8707 3.1 47
  730.8104 3.3 50
  730.8336 1.8 27
  730.8625 1.0 15
  733.8707 18.6 282
  817.8857 27.8 422
  835.9028 65.7 999
//