ACCESSION: MSBNK-BAFG-CSL2310254952
RECORD_TITLE: Isorhamnetin; LC-ESI-QTOF; MS2; 80 V
DATE: 2023.10.25
AUTHORS: Kevin S. Jewell; Björn Ehlig; Arne Wick
LICENSE: dl-de/by-2-0
COPYRIGHT: Copyright 2023 Federal Institute of Hydrology, Koblenz, Germany
COMMENT: CONFIDENCE Reference Standard (Level 1)
COMMENT: Chromatography method: dx.doi.org/10.1016/j.chroma.2015.11.014
COMMENT: Acquisition method: 10.1002/rcm.8541
CH$NAME: Isorhamnetin
CH$COMPOUND_CLASS: Pharmaceutical; Metabolite
CH$FORMULA: C16H12O7
CH$EXACT_MASS: 316.0583
CH$SMILES: COc1cc(ccc1O)C2=C(O)C(=O)c3c(O)cc(O)cc3O2
CH$IUPAC: InChI=1S/C16H12O7/c1-22-11-4-7(2-3-9(11)18)16-15(21)14(20)13-10(19)5-8(17)6-12(13)23-16/h2-6,17-19,21H,1H3
CH$LINK: CAS 480-19-3
CH$LINK: INCHIKEY IZQSVPBOUDKVDZ-UHFFFAOYSA-N
AC$INSTRUMENT: TripleTOF 5600 SCIEX
AC$INSTRUMENT_TYPE: LC-ESI-QTOF
AC$MASS_SPECTROMETRY: MS_TYPE MS2
AC$MASS_SPECTROMETRY: ION_MODE POSITIVE
AC$MASS_SPECTROMETRY: COLLISION_ENERGY 80
AC$MASS_SPECTROMETRY: FRAGMENTATION_MODE CID
AC$MASS_SPECTROMETRY: IONIZATION ESI
AC$CHROMATOGRAPHY: COLUMN_NAME Zorbax Eclipse Plus C18 2.1 mm x 150 mm, 3.5 um, Agilent
AC$CHROMATOGRAPHY: COLUMN_TEMPERATURE 40 °C
AC$CHROMATOGRAPHY: FLOW_GRADIENT 0 min min 98% A, 1 min 98% A, 2 min 80% A, 16.5 min 2% A, 22 min 2% A, 22.1 min 98% A, 27 min 98% A
AC$CHROMATOGRAPHY: FLOW_RATE 0.3 mL/min
AC$CHROMATOGRAPHY: RETENTION_TIME 9.418 min
AC$CHROMATOGRAPHY: SOLVENT A: Water 0.1% Formic acid, B: Acetonitrile 0.1% Formic acid
MS$FOCUSED_ION: PRECURSOR_M/Z 317.0656
MS$FOCUSED_ION: PRECURSOR_TYPE [M+H]+
MS$DATA_PROCESSING: COMMENT Export with Spectra 1.9.12 MsBackendMassbank 1.7.4
MS$DATA_PROCESSING: WHOLE RMassBank 2.3.1
PK$SPLASH: splash10-0gb9-4920000000-a09d346f657a15d213c0
PK$NUM_PEAK: 24
PK$PEAK: m/z int. rel.int.
  65.0422 0.9 390
  68.9996 1 434
  77.0437 0.9 390
  81.0373 0.7 304
  89.0419 0.4 173
  92.0244 0.8 347
  96.0203 0.7 304
  103.0541 0.4 173
  108.0198 0.8 347
  115.0533 2.3 999
  121.038 0.5 217
  124.0141 0.6 260
  127.054 0.9 390
  131.0488 0.5 217
  137.0233 0.7 304
  147.0407 0.6 260
  153.0176 1.9 825
  155.0464 0.7 304
  163.0383 0.5 217
  171.044 0.6 260
  189.0617 0.5 217
  203.0339 1.2 521
  217.0486 1 434
  245.0459 0.4 173
//
