ACCESSION: MSBNK-BAFG-CSL23102610228
RECORD_TITLE: Sulfasalazine; LC-ESI-QTOF; MS2; 110 V
DATE: 2023.10.26
AUTHORS: Kevin S. Jewell; Björn Ehlig; Arne Wick
LICENSE: dl-de/by-2-0
COPYRIGHT: Copyright 2023 Federal Institute of Hydrology, Koblenz, Germany
COMMENT: CONFIDENCE Reference Standard (Level 1)
COMMENT: Chromatography method: dx.doi.org/10.1016/j.chroma.2015.11.014
COMMENT: Acquisition method: 10.1002/rcm.8541
CH$NAME: Sulfasalazine
CH$COMPOUND_CLASS: Pharmaceutical
CH$FORMULA: C18H14N4O5S
CH$EXACT_MASS: 398.0685
CH$SMILES: C1=CC=NC(=C1)NS(=O)(=O)C2=CC=C(C=C2)NN=C3C=CC(=O)C(=C3)C(=O)O
CH$IUPAC: InChI=1S/C18H14N4O5S/c23-16-9-6-13(11-15(16)18(24)25)21-20-12-4-7-14(8-5-12)28(26,27)22-17-3-1-2-10-19-17/h1-11,20H,(H,19,22)(H,24,25)
CH$LINK: CAS 599-79-1
CH$LINK: INCHIKEY OQANPHBRHBJGNZ-UHFFFAOYSA-N
AC$INSTRUMENT: TripleTOF 5600 SCIEX
AC$INSTRUMENT_TYPE: LC-ESI-QTOF
AC$MASS_SPECTROMETRY: MS_TYPE MS2
AC$MASS_SPECTROMETRY: ION_MODE POSITIVE
AC$MASS_SPECTROMETRY: COLLISION_ENERGY 110
AC$MASS_SPECTROMETRY: FRAGMENTATION_MODE CID
AC$MASS_SPECTROMETRY: IONIZATION ESI
AC$CHROMATOGRAPHY: COLUMN_NAME Zorbax Eclipse Plus C18 2.1 mm x 150 mm, 3.5 um, Agilent
AC$CHROMATOGRAPHY: COLUMN_TEMPERATURE 40 °C
AC$CHROMATOGRAPHY: FLOW_GRADIENT 0 min min 98% A, 1 min 98% A, 2 min 80% A, 16.5 min 2% A, 22 min 2% A, 22.1 min 98% A, 27 min 98% A
AC$CHROMATOGRAPHY: FLOW_RATE 0.3 mL/min
AC$CHROMATOGRAPHY: RETENTION_TIME 9.217 min
AC$CHROMATOGRAPHY: SOLVENT A: Water 0.1% Formic acid, B: Acetonitrile 0.1% Formic acid
MS$FOCUSED_ION: PRECURSOR_M/Z 399.0758
MS$FOCUSED_ION: PRECURSOR_TYPE [M+H]+
MS$DATA_PROCESSING: COMMENT Export with Spectra 1.9.12 MsBackendMassbank 1.7.4
MS$DATA_PROCESSING: WHOLE RMassBank 2.3.1
PK$SPLASH: splash10-014l-9100000000-203ac2f2de28f511268f
PK$NUM_PEAK: 37
PK$PEAK: m/z int. rel.int.
  41.036 0.6 22
  50.0223 0.7 26
  53.0475 1 37
  55.0238 0.4 15
  61.0153 0.5 18
  62.0225 1.9 71
  63.0295 5.5 207
  67.0489 26.5 999
  75.0277 0.8 30
  76.0367 1.7 64
  77.044 2.1 79
  78.0394 1.9 71
  80.0165 0.6 22
  81.0387 4.5 169
  87.0279 0.5 18
  91.0218 10.1 380
  93.0488 0.9 33
  94.0572 5.5 207
  95.0675 0.4 15
  102.037 0.9 33
  107.0167 0.6 22
  113.04 1 37
  114.0377 0.6 22
  119.0163 0.9 33
  126.0464 0.5 18
  127.0513 0.6 22
  129.0475 1 37
  137.0267 0.7 26
  139.054 0.9 33
  140.0546 1 37
  142.0535 0.5 18
  155.0603 0.9 33
  166.0524 0.6 22
  167.062 0.8 30
  168.0668 1.3 49
  169.0748 0.5 18
  180.0616 0.6 22
//
