ACCESSION: MSBNK-BAFG-CSL25010634273
RECORD_TITLE: 4-(Dimethylamino)azobenzene; LC-ESI-QTOF; MS2; 150 V
DATE: 2025.01.06
AUTHORS: Ole Lessmann; Kevin S. Jewell; Björn Ehlig; Arne Wick
LICENSE: dl-de/by-2-0
COPYRIGHT: Copyright 2025 Federal Institute of Hydrology, Koblenz, Germany
COMMENT: CONFIDENCE Reference Standard (Level 1)
COMMENT: Chromatography method: dx.doi.org/10.1016/j.chroma.2015.11.014
COMMENT: Acquisition method: 10.1002/rcm.8541
CH$NAME: 4-(Dimethylamino)azobenzene
CH$FORMULA: C14H15N3
CH$EXACT_MASS: 225.1266
CH$SMILES: CN(C)C1=CC=C(C=C1)N=NC2=CC=CC=C2
CH$IUPAC: InChI=1S/C14H15N3/c1-17(2)14-10-8-13(9-11-14)16-15-12-6-4-3-5-7-12/h3-11H,1-2H3
CH$LINK: CAS 60-11-7
CH$LINK: INCHIKEY JCYPECIVGRXBMO-UHFFFAOYSA-N
AC$INSTRUMENT: TripleTOF 6600 SCIEX
AC$INSTRUMENT_TYPE: LC-ESI-QTOF
AC$MASS_SPECTROMETRY: MS_TYPE MS2
AC$MASS_SPECTROMETRY: ION_MODE POSITIVE
AC$MASS_SPECTROMETRY: COLLISION_ENERGY 150
AC$MASS_SPECTROMETRY: FRAGMENTATION_MODE CID
AC$MASS_SPECTROMETRY: IONIZATION ESI
AC$CHROMATOGRAPHY: COLUMN_NAME Zorbax Eclipse Plus C18 2.1 mm x 150 mm, 3.5 um, Agilent
AC$CHROMATOGRAPHY: COLUMN_TEMPERATURE 40 °C
AC$CHROMATOGRAPHY: FLOW_GRADIENT 0 min min 98% A, 1 min 98% A, 2 min 80% A, 16.5 min 2% A, 22 min 2% A, 22.1 min 98% A, 27 min 98% A
AC$CHROMATOGRAPHY: FLOW_RATE 0.3 mL/min
AC$CHROMATOGRAPHY: RETENTION_TIME 15.513 min
AC$CHROMATOGRAPHY: SOLVENT A: Water 0.1% Formic acid, B: Acetonitrile 0.1% Formic acid
MS$FOCUSED_ION: PRECURSOR_M/Z 226.1339
MS$FOCUSED_ION: PRECURSOR_TYPE [M+H]+
MS$DATA_PROCESSING: COMMENT Export with pycsl 0.1.0.dev1 and CSL 24.4
PK$SPLASH: splash10-0udi-9000000000-9909b995d35979121ce2
PK$NUM_PEAK: 20
PK$PEAK: m/z int. rel.int.
  35.9984 7.1 22
  37.0066 46.1 146
  38.0143 31.3 99
  39.0224 52.3 165
  40.0173 3.7 11
  41.025 3.5 11
  42.0331 5.9 18
  49.0064 60.5 191
  50.0144 315.2 999
  51.0222 160.6 509
  52.0171 13.5 42
  61.006 16.0 50
  62.0136 27.9 88
  63.0215 30.9 97
  64.0175 6.4 20
  73.0056 7.4 23
  74.0133 26.4 83
  75.0095 5.5 17
  76.0169 3.5 11
  77.0374 11.2 35
//