ACCESSION: MSBNK-BAFG-CSL23102514636
RECORD_TITLE: 4-Bromoantipyrine; LC-ESI-QTOF; MS2; 40 V
DATE: 2023.10.25
AUTHORS: Kevin S. Jewell; Björn Ehlig; Arne Wick
LICENSE: dl-de/by-2-0
COPYRIGHT: Copyright 2023 Federal Institute of Hydrology, Koblenz, Germany
COMMENT: CONFIDENCE Reference Standard (Level 1)
COMMENT: Chromatography method: dx.doi.org/10.1016/j.chroma.2015.11.014
COMMENT: Acquisition method: 10.1002/rcm.8541
CH$NAME: 4-Bromoantipyrine
CH$COMPOUND_CLASS: Industrial_process
CH$FORMULA: C11H11BrN2O
CH$EXACT_MASS: 266.0055
CH$SMILES: CC1=C(C(=O)N(N1C)C2=CC=CC=C2)Br
CH$IUPAC: InChI=1S/C11H11BrN2O/c1-8-10(12)11(15)14(13(8)2)9-6-4-3-5-7-9/h3-7H,1-2H3
CH$LINK: CAS 5426-65-3
CH$LINK: INCHIKEY QYWWSDVPNCBSIA-UHFFFAOYSA-N
AC$INSTRUMENT: TripleTOF 6600 SCIEX
AC$INSTRUMENT_TYPE: LC-ESI-QTOF
AC$MASS_SPECTROMETRY: MS_TYPE MS2
AC$MASS_SPECTROMETRY: ION_MODE POSITIVE
AC$MASS_SPECTROMETRY: COLLISION_ENERGY 40
AC$MASS_SPECTROMETRY: FRAGMENTATION_MODE CID
AC$MASS_SPECTROMETRY: IONIZATION ESI
AC$CHROMATOGRAPHY: COLUMN_NAME Zorbax Eclipse Plus C18 2.1 mm x 150 mm, 3.5 um, Agilent
AC$CHROMATOGRAPHY: COLUMN_TEMPERATURE 40 °C
AC$CHROMATOGRAPHY: FLOW_GRADIENT 0 min min 98% A, 1 min 98% A, 2 min 80% A, 16.5 min 2% A, 22 min 2% A, 22.1 min 98% A, 27 min 98% A
AC$CHROMATOGRAPHY: FLOW_RATE 0.3 mL/min
AC$CHROMATOGRAPHY: RETENTION_TIME 7.678 min
AC$CHROMATOGRAPHY: SOLVENT A: Water 0.1% Formic acid, B: Acetonitrile 0.1% Formic acid
MS$FOCUSED_ION: PRECURSOR_M/Z 267.0128
MS$FOCUSED_ION: PRECURSOR_TYPE [M+H]+
MS$DATA_PROCESSING: COMMENT Export with Spectra 1.9.12 MsBackendMassbank 1.7.4
MS$DATA_PROCESSING: WHOLE RMassBank 2.3.1
PK$SPLASH: splash10-052r-4910000000-d1c53f02e29fe3ef41b2
PK$NUM_PEAK: 39
PK$PEAK: m/z int. rel.int.
  42.0326 0.7 14
  54.0328 0.7 14
  56.0483 33.3 670
  65.0367 0.9 18
  68.0479 1 20
  69.0551 0.9 18
  77.037 4.3 86
  91.0527 0.8 16
  92.0484 0.6 12
  93.0546 0.6 12
  95.0577 2.1 42
  103.0382 0.8 16
  104.0469 2.5 50
  115.0513 1.3 26
  117.054 0.6 12
  118.0624 1.9 38
  128.0463 1.2 24
  129.0534 2.6 52
  130.0622 1.1 22
  131.0708 0.6 12
  135.9724 49.6 999
  142.0619 1.1 22
  143.0697 0.7 14
  144.0766 1.9 38
  145.0734 2.9 58
  146.0556 1 20
  147.0882 3.5 70
  156.04 0.8 16
  158.0427 0.6 12
  158.056 0.7 14
  159.0876 2.9 58
  172.06 0.7 14
  173.0668 4 80
  173.975 1.8 36
  175.9657 0.9 18
  187.0823 6.2 124
  188.09 7.9 159
  251.9827 2.6 52
  267.0071 16.5 332
//
