ACCESSION: MSBNK-BAFG-CSL25010634268
RECORD_TITLE: 4-(Dimethylamino)azobenzene; LC-ESI-QTOF; MS2; 100 V
DATE: 2025.01.06
AUTHORS: Ole Lessmann; Kevin S. Jewell; Björn Ehlig; Arne Wick
LICENSE: dl-de/by-2-0
COPYRIGHT: Copyright 2025 Federal Institute of Hydrology, Koblenz, Germany
COMMENT: CONFIDENCE Reference Standard (Level 1)
COMMENT: Chromatography method: dx.doi.org/10.1016/j.chroma.2015.11.014
COMMENT: Acquisition method: 10.1002/rcm.8541
CH$NAME: 4-(Dimethylamino)azobenzene
CH$FORMULA: C14H15N3
CH$EXACT_MASS: 225.1266
CH$SMILES: CN(C)C1=CC=C(C=C1)N=NC2=CC=CC=C2
CH$IUPAC: InChI=1S/C14H15N3/c1-17(2)14-10-8-13(9-11-14)16-15-12-6-4-3-5-7-12/h3-11H,1-2H3
CH$LINK: CAS 60-11-7
CH$LINK: INCHIKEY JCYPECIVGRXBMO-UHFFFAOYSA-N
AC$INSTRUMENT: TripleTOF 6600 SCIEX
AC$INSTRUMENT_TYPE: LC-ESI-QTOF
AC$MASS_SPECTROMETRY: MS_TYPE MS2
AC$MASS_SPECTROMETRY: ION_MODE POSITIVE
AC$MASS_SPECTROMETRY: COLLISION_ENERGY 100
AC$MASS_SPECTROMETRY: FRAGMENTATION_MODE CID
AC$MASS_SPECTROMETRY: IONIZATION ESI
AC$CHROMATOGRAPHY: COLUMN_NAME Zorbax Eclipse Plus C18 2.1 mm x 150 mm, 3.5 um, Agilent
AC$CHROMATOGRAPHY: COLUMN_TEMPERATURE 40 °C
AC$CHROMATOGRAPHY: FLOW_GRADIENT 0 min min 98% A, 1 min 98% A, 2 min 80% A, 16.5 min 2% A, 22 min 2% A, 22.1 min 98% A, 27 min 98% A
AC$CHROMATOGRAPHY: FLOW_RATE 0.3 mL/min
AC$CHROMATOGRAPHY: RETENTION_TIME 15.513 min
AC$CHROMATOGRAPHY: SOLVENT A: Water 0.1% Formic acid, B: Acetonitrile 0.1% Formic acid
MS$FOCUSED_ION: PRECURSOR_M/Z 226.1339
MS$FOCUSED_ION: PRECURSOR_TYPE [M+H]+
MS$DATA_PROCESSING: COMMENT Export with pycsl 0.1.0.dev1 and CSL 24.4
PK$SPLASH: splash10-0udi-9000000000-dda211bc0c4e541d8bb4
PK$NUM_PEAK: 31
PK$PEAK: m/z int. rel.int.
  37.0066 17.1 38
  38.0142 13.3 29
  39.0223 74.5 167
  42.033 16.4 36
  49.0062 18.5 41
  50.0145 186.0 418
  51.0223 443.8 999
  52.0172 12.2 27
  61.0061 5.1 11
  62.0136 10.1 22
  63.0217 50.9 114
  64.0173 10.2 22
  64.029 13.1 29
  65.0374 57.2 128
  66.0325 8.4 18
  67.0401 16.6 37
  68.0485 5.1 11
  74.013 12.7 28
  76.0161 5.3 11
  77.0374 228.3 513
  78.0326 18.2 40
  78.0441 5.8 13
  80.0478 10.5 23
  90.0322 11.2 25
  91.0403 32.8 73
  92.0473 10.3 23
  93.0537 5.3 11
  104.0476 38.0 85
  105.0547 5.6 12
  117.0434 5.2 11
  118.0504 10.6 23
//