ACCESSION: MSBNK-BAFG-CSL2310303946
RECORD_TITLE: Prometon; LC-ESI-QTOF; MS2; 40 V
DATE: 2023.10.30
AUTHORS: Kevin S. Jewell; Björn Ehlig; Arne Wick
LICENSE: dl-de/by-2-0
COPYRIGHT: Copyright 2023 Federal Institute of Hydrology, Koblenz, Germany
COMMENT: CONFIDENCE Reference Standard (Level 1)
COMMENT: Chromatography method: dx.doi.org/10.1016/j.chroma.2015.11.014
COMMENT: Acquisition method: 10.1002/rcm.8541
CH$NAME: Prometon
CH$COMPOUND_CLASS: Herbicide
CH$FORMULA: C10H19N5O
CH$EXACT_MASS: 225.159
CH$SMILES: COc1nc(NC(C)C)nc(NC(C)C)n1
CH$IUPAC: InChI=1S/C10H19N5O/c1-6(2)11-8-13-9(12-7(3)4)15-10(14-8)16-5/h6-7H,1-5H3,(H2,11,12,13,14,15)
CH$LINK: CAS 1610-18-0
CH$LINK: INCHIKEY ISEUFVQQFVOBCY-UHFFFAOYSA-N
AC$INSTRUMENT: TripleTOF 5600 SCIEX
AC$INSTRUMENT_TYPE: LC-ESI-QTOF
AC$MASS_SPECTROMETRY: MS_TYPE MS2
AC$MASS_SPECTROMETRY: ION_MODE POSITIVE
AC$MASS_SPECTROMETRY: COLLISION_ENERGY 40
AC$MASS_SPECTROMETRY: FRAGMENTATION_MODE CID
AC$MASS_SPECTROMETRY: IONIZATION ESI
AC$CHROMATOGRAPHY: COLUMN_NAME Zorbax Eclipse Plus C18 2.1 mm x 150 mm, 3.5 um, Agilent
AC$CHROMATOGRAPHY: COLUMN_TEMPERATURE 40 °C
AC$CHROMATOGRAPHY: FLOW_GRADIENT 0 min min 98% A, 1 min 98% A, 2 min 80% A, 16.5 min 2% A, 22 min 2% A, 22.1 min 98% A, 27 min 98% A
AC$CHROMATOGRAPHY: FLOW_RATE 0.3 mL/min
AC$CHROMATOGRAPHY: RETENTION_TIME 7.392 min
AC$CHROMATOGRAPHY: SOLVENT A: Water 0.1% Formic acid, B: Acetonitrile 0.1% Formic acid
MS$FOCUSED_ION: PRECURSOR_M/Z 226.1662
MS$FOCUSED_ION: PRECURSOR_TYPE [M+H]+
MS$DATA_PROCESSING: COMMENT Export with Spectra 1.9.12 MsBackendMassbank 1.7.4
MS$DATA_PROCESSING: WHOLE RMassBank 2.3.1
PK$SPLASH: splash10-000f-7900000000-bc907d917a02a49a543e
PK$NUM_PEAK: 17
PK$PEAK: m/z int. rel.int.
  43.0384 14.9 39
  57.052 72.9 193
  58.0342 13.7 36
  68.0298 62.3 165
  69.0123 18.5 49
  75.0592 28 74
  82.0427 21.3 56
  83.0267 13.6 36
  85.0527 5.4 14
  86.0386 212.3 562
  99.0681 29.9 79
  100.0528 157.2 416
  110.047 9.7 25
  110.0701 5.9 15
  142.0739 377 999
  184.1199 67 177
  226.1665 5.5 14
//
