ACCESSION: MSBNK-BAFG-CSL25010612378
RECORD_TITLE: Tetraoctylphosphonium; LC-ESI-QTOF; MS2; 140 V
DATE: 2025.01.06
AUTHORS: Ole Lessmann; Kevin S. Jewell; Björn Ehlig; Arne Wick
LICENSE: dl-de/by-2-0
COPYRIGHT: Copyright 2025 Federal Institute of Hydrology, Koblenz, Germany
COMMENT: CONFIDENCE Reference Standard (Level 1)
COMMENT: Chromatography method: dx.doi.org/10.1016/j.chroma.2015.11.014
COMMENT: Acquisition method: 10.1002/rcm.8541
CH$NAME: Tetraoctylphosphonium
CH$COMPOUND_CLASS: Industrial_process
CH$FORMULA: [C32H68P]+
CH$EXACT_MASS: 483.5053
CH$SMILES: CCCCCCCC[P+](CCCCCCCC)(CCCCCCCC)CCCCCCCC
CH$IUPAC: InChI=1S/C32H68P/c1-5-9-13-17-21-25-29-33(30-26-22-18-14-10-6-2,31-27-23-19-15-11-7-3)32-28-24-20-16-12-8-4/h5-32H2,1-4H3/q+1
CH$LINK: CAS 45308-00-7
CH$LINK: INCHIKEY WFIYFFUAOQKJJS-UHFFFAOYSA-N
AC$INSTRUMENT: TripleTOF 5600 SCIEX
AC$INSTRUMENT_TYPE: LC-ESI-QTOF
AC$MASS_SPECTROMETRY: MS_TYPE MS2
AC$MASS_SPECTROMETRY: ION_MODE POSITIVE
AC$MASS_SPECTROMETRY: COLLISION_ENERGY 140
AC$MASS_SPECTROMETRY: FRAGMENTATION_MODE CID
AC$MASS_SPECTROMETRY: IONIZATION ESI
AC$CHROMATOGRAPHY: COLUMN_NAME Zorbax Eclipse Plus C18 2.1 mm x 150 mm, 3.5 um, Agilent
AC$CHROMATOGRAPHY: COLUMN_TEMPERATURE 40 °C
AC$CHROMATOGRAPHY: FLOW_GRADIENT 0 min min 98% A, 1 min 98% A, 2 min 80% A, 16.5 min 2% A, 22 min 2% A, 22.1 min 98% A, 27 min 98% A
AC$CHROMATOGRAPHY: FLOW_RATE 0.3 mL/min
AC$CHROMATOGRAPHY: RETENTION_TIME 16.405 min
AC$CHROMATOGRAPHY: SOLVENT A: Water 0.1% Formic acid, B: Acetonitrile 0.1% Formic acid
MS$FOCUSED_ION: PRECURSOR_M/Z 483.5053
MS$FOCUSED_ION: PRECURSOR_TYPE [M]+
MS$DATA_PROCESSING: COMMENT Export with pycsl 0.1.0.dev1 and CSL 24.4
PK$SPLASH: splash10-08i0-9100000000-7eac9bf54eaee7c65273
PK$NUM_PEAK: 32
PK$PEAK: m/z int. rel.int.
  39.0234 6.3 221
  41.0389 11.9 418
  43.9814 6.8 239
  44.9888 6.5 228
  45.9969 12.5 439
  47.0049 4.8 168
  48.0124 5.3 186
  55.0542 5.8 204
  56.9886 12.4 436
  59.0042 15.9 559
  61.0199 28.4 999
  62.0275 23.0 809
  69.0689 1.7 59
  71.0035 2.4 84
  73.0191 6.6 232
  74.0267 3.1 109
  75.0348 19.1 671
  76.0427 25.3 889
  85.0176 1.7 59
  87.0342 3.1 109
  88.0421 5.4 189
  89.0493 5.7 200
  90.0572 4.6 161
  101.0495 4.9 172
  103.0652 4.4 154
  115.0651 4.9 172
  117.0813 2.8 98
  129.0815 2.2 77
  131.0967 2.4 84
  143.0966 2.4 84
  145.1126 1.6 56
  157.1118 1.5 52
//