ACCESSION: MSBNK-BAFG-CSL2310308250
RECORD_TITLE: 10-Hydroxycarbamazepine; LC-ESI-QTOF; MS2; 40 V
DATE: 2023.10.30
AUTHORS: Kevin S. Jewell; Björn Ehlig; Arne Wick
LICENSE: dl-de/by-2-0
COPYRIGHT: Copyright 2023 Federal Institute of Hydrology, Koblenz, Germany
COMMENT: CONFIDENCE Reference Standard (Level 1)
COMMENT: Chromatography method: dx.doi.org/10.1016/j.chroma.2015.11.014
COMMENT: Acquisition method: 10.1002/rcm.8541
CH$NAME: 10-Hydroxycarbamazepine
CH$COMPOUND_CLASS: Metabolite; Pharmaceutical; Transformation_product
CH$FORMULA: C15H14N2O2
CH$EXACT_MASS: 254.1055
CH$SMILES: NC(N1c2c(CC(c3c1cccc3)O)cccc2)=O
CH$IUPAC: InChI=1S/C15H14N2O2/c16-15(19)17-12-7-3-1-5-10(12)9-14(18)11-6-2-4-8-13(11)17/h1-8,14,18H,9H2,(H2,16,19)
CH$LINK: CAS 29331-92-8
CH$LINK: INCHIKEY BMPDWHIDQYTSHX-UHFFFAOYSA-N
AC$INSTRUMENT: TripleTOF 5600 SCIEX
AC$INSTRUMENT_TYPE: LC-ESI-QTOF
AC$MASS_SPECTROMETRY: MS_TYPE MS2
AC$MASS_SPECTROMETRY: ION_MODE POSITIVE
AC$MASS_SPECTROMETRY: COLLISION_ENERGY 40
AC$MASS_SPECTROMETRY: FRAGMENTATION_MODE CID
AC$MASS_SPECTROMETRY: IONIZATION ESI
AC$CHROMATOGRAPHY: COLUMN_NAME Zorbax Eclipse Plus C18 2.1 mm x 150 mm, 3.5 um, Agilent
AC$CHROMATOGRAPHY: COLUMN_TEMPERATURE 40 °C
AC$CHROMATOGRAPHY: FLOW_GRADIENT 0 min min 98% A, 1 min 98% A, 2 min 80% A, 16.5 min 2% A, 22 min 2% A, 22.1 min 98% A, 27 min 98% A
AC$CHROMATOGRAPHY: FLOW_RATE 0.3 mL/min
AC$CHROMATOGRAPHY: RETENTION_TIME 7.19 min
AC$CHROMATOGRAPHY: SOLVENT A: Water 0.1% Formic acid, B: Acetonitrile 0.1% Formic acid
MS$FOCUSED_ION: PRECURSOR_M/Z 237.1021
MS$FOCUSED_ION: PRECURSOR_TYPE [M-H2O+H]+
MS$DATA_PROCESSING: COMMENT Export with Spectra 1.9.12 MsBackendMassbank 1.7.4
MS$DATA_PROCESSING: WHOLE RMassBank 2.3.1
PK$SPLASH: splash10-0006-0900000000-928cbc0e3023f0ab21ec
PK$NUM_PEAK: 17
PK$PEAK: m/z int. rel.int.
  116.0517 1.1436 13
  151.0547 2.033 23
  152.0616 5.1354 60
  164.0622 1.367 16
  165.0704 14.1631 166
  166.0709 1.9598 23
  167.0741 6.137 72
  176.0615 1.9767 23
  177.0702 2.0124 23
  178.0663 6.5832 77
  179.0732 21.9735 257
  190.0654 5.0558 59
  191.0732 12.2659 143
  192.0809 43.8122 514
  193.0894 37.4481 439
  194.0969 85.1063 999
  237.103 2.8544 33
//
