ACCESSION: MSBNK-BAFG-CSL2310305000
RECORD_TITLE: Oxfendazole; LC-ESI-QTOF; MS2; 80 V
DATE: 2023.10.30
AUTHORS: Kevin S. Jewell; Björn Ehlig; Arne Wick
LICENSE: dl-de/by-2-0
COPYRIGHT: Copyright 2023 Federal Institute of Hydrology, Koblenz, Germany
COMMENT: CONFIDENCE Reference Standard (Level 1)
COMMENT: Chromatography method: dx.doi.org/10.1016/j.chroma.2015.11.014
COMMENT: Acquisition method: 10.1002/rcm.8541
CH$NAME: Oxfendazole
CH$COMPOUND_CLASS: Pharmaceutical
CH$FORMULA: C15H13N3O3S
CH$EXACT_MASS: 315.0678
CH$SMILES: COC(=O)Nc1[nH]c2cc(ccc2n1)[S](=O)c3ccccc3
CH$IUPAC: InChI=1S/C15H13N3O3S/c1-21-15(19)18-14-16-12-8-7-11(9-13(12)17-14)22(20)10-5-3-2-4-6-10/h2-9H,1H3,(H2,16,17,18,19)
CH$LINK: CAS 53716-50-0
CH$LINK: INCHIKEY BEZZFPOZAYTVHN-UHFFFAOYSA-N
AC$INSTRUMENT: TripleTOF 5600 SCIEX
AC$INSTRUMENT_TYPE: LC-ESI-QTOF
AC$MASS_SPECTROMETRY: MS_TYPE MS2
AC$MASS_SPECTROMETRY: ION_MODE POSITIVE
AC$MASS_SPECTROMETRY: COLLISION_ENERGY 80
AC$MASS_SPECTROMETRY: FRAGMENTATION_MODE CID
AC$MASS_SPECTROMETRY: IONIZATION ESI
AC$CHROMATOGRAPHY: COLUMN_NAME Zorbax Eclipse Plus C18 2.1 mm x 150 mm, 3.5 um, Agilent
AC$CHROMATOGRAPHY: COLUMN_TEMPERATURE 40 °C
AC$CHROMATOGRAPHY: FLOW_GRADIENT 0 min min 98% A, 1 min 98% A, 2 min 80% A, 16.5 min 2% A, 22 min 2% A, 22.1 min 98% A, 27 min 98% A
AC$CHROMATOGRAPHY: FLOW_RATE 0.3 mL/min
AC$CHROMATOGRAPHY: RETENTION_TIME 6.579 min
AC$CHROMATOGRAPHY: SOLVENT A: Water 0.1% Formic acid, B: Acetonitrile 0.1% Formic acid
MS$FOCUSED_ION: PRECURSOR_M/Z 316.075
MS$FOCUSED_ION: PRECURSOR_TYPE [M+H]+
MS$DATA_PROCESSING: COMMENT Export with Spectra 1.9.12 MsBackendMassbank 1.7.4
MS$DATA_PROCESSING: WHOLE RMassBank 2.3.1
PK$SPLASH: splash10-0pe9-2900000000-704218301f915dd17eff
PK$NUM_PEAK: 39
PK$PEAK: m/z int. rel.int.
  64.0347 0.9 14
  75.0158 0.6 9
  76.0201 5.3 83
  77.0279 37.5 589
  78.0353 2.4 37
  79.0433 1.1 17
  89.0255 0.7 10
  90.0335 1.1 17
  91.0415 1.9 29
  92.0365 1.7 26
  103.0273 1 15
  103.0408 4.2 65
  104.0371 63.6 999
  104.0798 0.7 10
  105.0438 7.9 124
  116.0362 3 47
  118.0513 2.1 32
  119.0585 1.1 17
  122.0058 1.8 28
  130.0388 4.4 69
  131.0476 48.1 755
  139.0541 0.7 10
  140.0505 1.1 17
  146.0359 0.6 9
  146.0692 0.7 10
  152.048 0.7 10
  153.0548 0.8 12
  159.0428 57.4 901
  171.0262 3.8 59
  183.0169 0.8 12
  190.0064 1.3 20
  196.0195 3.3 51
  197.0305 0.7 10
  210.0245 1.6 25
  211.033 3.8 59
  224.0393 1.8 28
  238.0437 1.7 26
  265.0335 1.7 26
  266.0388 0.9 14
//
