ACCESSION: MSBNK-BAFG-CSL25011734693
RECORD_TITLE: Reactive Orange; LC-ESI-QTOF; MS2; 30 V
DATE: 2025.01.17
AUTHORS: Ole Lessmann; Kevin S. Jewell; Björn Ehlig; Arne Wick
LICENSE: dl-de/by-2-0
COPYRIGHT: Copyright 2025 Federal Institute of Hydrology, Koblenz, Germany
COMMENT: CONFIDENCE Reference Standard (Level 1)
COMMENT: Chromatography method: dx.doi.org/10.1016/j.chroma.2015.11.014
CH$NAME: Reactive Orange
CH$FORMULA: C20H19N3O11S3
CH$EXACT_MASS: 573.0182
CH$SMILES: CC(=O)NC1=CC2=C(C(=C(C=C2C=C1)S(=O)(=O)O)N=NC3=CC=C(C=C3)S(=O)(=O)CCOS(=O)(=O)O)O
CH$IUPAC: InChI=1S/C20H19N3O11S3/c1-12(24)21-15-3-2-13-10-18(36(28,29)30)19(20(25)17(13)11-15)23-22-14-4-6-16(7-5-14)35(26,27)9-8-34-37(31,32)33/h2-7,10-11,25H,8-9H2,1H3,(H,21,24)(H,28,29,30)(H,31,32,33)
CH$LINK: CAS 109603-48-7
CH$LINK: INCHIKEY INOIOAWTVPHTCJ-UHFFFAOYSA-N
AC$INSTRUMENT: TripleTOF 6600 SCIEX
AC$INSTRUMENT_TYPE: LC-ESI-QTOF
AC$MASS_SPECTROMETRY: MS_TYPE MS2
AC$MASS_SPECTROMETRY: ION_MODE NEGATIVE
AC$MASS_SPECTROMETRY: COLLISION_ENERGY 30
AC$MASS_SPECTROMETRY: FRAGMENTATION_MODE CID
AC$MASS_SPECTROMETRY: IONIZATION ESI
AC$CHROMATOGRAPHY: COLUMN_NAME Zorbax Eclipse Plus C18 2.1 mm x 150 mm, 3.5 um, Agilent
AC$CHROMATOGRAPHY: COLUMN_TEMPERATURE 40 °C
AC$CHROMATOGRAPHY: FLOW_GRADIENT 0 min min 98% A, 1 min 98% A, 2 min 80% A, 16.5 min 2% A, 22 min 2% A, 22.1 min 98% A, 27 min 98% A
AC$CHROMATOGRAPHY: FLOW_RATE 0.3 mL/min
AC$CHROMATOGRAPHY: RETENTION_TIME 5.751 min
AC$CHROMATOGRAPHY: SOLVENT A: Water 0.1% Formic acid, B: Acetonitrile 0.1% Formic acid
MS$FOCUSED_ION: PRECURSOR_M/Z 285.5022
MS$FOCUSED_ION: PRECURSOR_TYPE [M-2H]2-
MS$DATA_PROCESSING: COMMENT Export with pycsl 0.1.0.dev1 and CSL 25.0
PK$SPLASH: splash10-004s-3090000000-274a02f02db1b120b0a8
PK$NUM_PEAK: 116
PK$PEAK: m/z int. rel.int.
  63.962 13.2565 5
  79.9569 139.5626 55
  80.9648 5.5482 2
  90.9849 5.8286 2
  93.0342 3.6679 1
  95.9524 1.1406 0
  96.6582 10.0044 3
  96.96 2519.9734 997
  97.9601 3.422 1
  107.0375 1.2112 0
  128.0505 1.714 0
  129.0563 44.6378 17
  130.0537 2.96 1
  139.9929 3.2313 1
  144.045 31.9172 12
  145.051 1.3331 0
  146.0066 1.8285 0
  155.0054 1.0984 0
  156.0446 3.9472 1
  157.0463 1.6694 0
  158.0252 1.3923 0
  158.0618 1.3792 0
  167.0162 24.8411 9
  170.0594 5.8149 2
  171.0344 1.1841 0
  171.0689 3.6849 1
  172.043 129.976 51
  172.062 69.8636 27
  173.0467 43.0444 17
  182.0269 5.2888 2
  183.0107 11.4957 4
  183.0589 1.4121 0
  184.038 4.7361 1
  186.0186 6.0481 2
  186.0548 3.527 1
  187.0638 3.3695 1
  198.0556 41.5397 16
  199.0632 20.4116 8
  200.0352 127.2797 50
  201.0378 5.3173 2
  208.0073 5.1738 2
  209.9984 5.4466 2
  212.0579 2.5133 0
  214.049 3.8837 1
  215.0579 58.4146 23
  227.045 5.6052 2
  232.0794 3.2088 1
  233.0843 4.297 1
  234.0913 2.0092 0
  235.0033 1.572 0
  235.2564 2.9874 1
  236.0033 711.2562 281
  236.2611 3.4674 1
  237.0098 1505.5424 595
  238.0123 32.5467 12
  247.1002 5.1293 2
  248.0713 1.6737 0
  248.1082 1.5865 0
  249.0775 3.6355 1
  249.9795 1.9997 0
  250.0137 1.294 0
  250.0881 1.3808 0
  251.024 20.913 8
  259.0969 1.3173 0
  261.0887 1.1307 0
  262.9921 1.2737 0
  263.162 3.5445 1
  263.9967 1071.3676 423
  264.9975 22.8537 9
  266.0126 2.3994 0
  273.079 8.9054 3
  274.0845 1.5269 0
  275.0948 84.1006 33
  276.067 2.1271 0
  276.1032 16.1364 6
  276.9925 13.2923 5
  278.0121 138.7194 54
  278.1384 6.6534 2
  279.0204 2524.5479 999
  280.0232 64.69 25
  288.0747 1.7941 0
  291.0897 45.8415 18
  292.0969 8.8792 3
  293.0231 10.4276 4
  301.088 1.062 0
  302.1236 1.9459 0
  303.1043 4.5066 1
  312.0311 4.9395 1
  312.0635 1.0266 0
  313.0421 13.6962 5
  322.0475 1.7697 0
  323.0607 18.7618 7
  324.0681 15.9001 6
  338.0486 1.0363 0
  338.0763 1.6622 0
  339.0564 4.7535 1
  340.0651 11.5868 4
  341.0475 1.2612 0
  351.0656 1.5689 0
  354.0432 1.738 0
  355.0501 17.0448 6
  356.0573 2.8183 1
  366.0795 77.5871 30
  367.084 3.9993 1
  379.0678 1.7642 0
  382.0737 31.5245 12
  383.0562 19.3967 7
  384.0662 1.0275 0
  392.0676 1.8595 0
  394.0849 72.5986 28
  395.0882 2.2768 0
  403.0187 2.9491 1
  410.0806 1.4469 0
  420.0262 1.1162 0
  446.0345 14.9064 5
  474.0398 13.0841 5
//
