ACCESSION: MSBNK-BAFG-CSL25010634385
RECORD_TITLE: 4,4`-Methylenebis(2-chloroaniline); LC-ESI-QTOF; MS2; 80 V
DATE: 2025.01.06
AUTHORS: Ole Lessmann; Kevin S. Jewell; Björn Ehlig; Arne Wick
LICENSE: dl-de/by-2-0
COPYRIGHT: Copyright 2025 Federal Institute of Hydrology, Koblenz, Germany
COMMENT: CONFIDENCE Reference Standard (Level 1)
COMMENT: Chromatography method: dx.doi.org/10.1016/j.chroma.2015.11.014
COMMENT: Acquisition method: 10.1002/rcm.8541
CH$NAME: 4,4`-Methylenebis(2-chloroaniline)
CH$FORMULA: C13H12Cl2N2
CH$EXACT_MASS: 266.0378
CH$SMILES: C1=CC(=C(C=C1CC2=CC(=C(C=C2)N)Cl)Cl)N
CH$IUPAC: InChI=1S/C13H12Cl2N2/c14-10-6-8(1-3-12(10)16)5-9-2-4-13(17)11(15)7-9/h1-4,6-7H,5,16-17H2
CH$LINK: CAS 101-14-4
CH$LINK: INCHIKEY IBOFVQJTBBUKMU-UHFFFAOYSA-N
AC$INSTRUMENT: TripleTOF 6600 SCIEX
AC$INSTRUMENT_TYPE: LC-ESI-QTOF
AC$MASS_SPECTROMETRY: MS_TYPE MS2
AC$MASS_SPECTROMETRY: ION_MODE POSITIVE
AC$MASS_SPECTROMETRY: COLLISION_ENERGY 80
AC$MASS_SPECTROMETRY: FRAGMENTATION_MODE CID
AC$MASS_SPECTROMETRY: IONIZATION ESI
AC$CHROMATOGRAPHY: COLUMN_NAME Zorbax Eclipse Plus C18 2.1 mm x 150 mm, 3.5 um, Agilent
AC$CHROMATOGRAPHY: COLUMN_TEMPERATURE 40 °C
AC$CHROMATOGRAPHY: FLOW_GRADIENT 0 min min 98% A, 1 min 98% A, 2 min 80% A, 16.5 min 2% A, 22 min 2% A, 22.1 min 98% A, 27 min 98% A
AC$CHROMATOGRAPHY: FLOW_RATE 0.3 mL/min
AC$CHROMATOGRAPHY: RETENTION_TIME 11.747 min
AC$CHROMATOGRAPHY: SOLVENT A: Water 0.1% Formic acid, B: Acetonitrile 0.1% Formic acid
MS$FOCUSED_ION: PRECURSOR_M/Z 267.045
MS$FOCUSED_ION: PRECURSOR_TYPE [M+H]+
MS$DATA_PROCESSING: COMMENT Export with pycsl 0.1.0.dev1 and CSL 24.4
PK$SPLASH: splash10-0udi-1900000000-33b1b6f441d06bc41c5b
PK$NUM_PEAK: 70
PK$PEAK: m/z int. rel.int.
  50.0153 1.5 27
  51.0232 12.4 230
  63.0225 1.1 20
  65.0385 1.2 22
  74.016 0.7 13
  75.0227 3.3 61
  76.0306 0.6 11
  77.0385 51.4 956
  78.0346 2.8 52
  78.046 3.1 57
  79.0418 0.6 11
  89.0387 2.5 46
  91.0551 1.1 20
  92.0481 0.6 11
  98.0173 0.5 9
  99.0234 1.0 18
  101.0396 2.1 39
  102.045 2.7 50
  103.0561 1.1 20
  104.0499 23.1 429
  105.0575 3.5 65
  113.0141 0.6 11
  113.0397 0.9 16
  114.0445 0.9 16
  115.054 15.5 288
  116.0628 2.0 37
  117.057 0.9 16
  123.001 0.7 13
  125.0391 4.4 81
  126.0462 8.0 148
  127.0178 0.9 16
  127.0543 9.2 171
  128.0605 6.1 113
  129.0462 1.0 18
  130.065 2.6 48
  138.0497 0.7 13
  139.0537 21.0 390
  140.0258 17.5 325
  140.049 8.6 159
  140.0633 3.9 72
  141.0688 6.6 122
  142.0635 1.2 22
  143.0724 3.2 59
  149.0397 1.9 35
  150.0461 26.2 487
  151.0541 53.7 999
  152.0618 45.0 837
  153.0575 7.0 130
  154.0648 5.8 107
  155.0595 2.5 46
  162.0479 1.9 35
  163.0547 1.7 31
  164.0281 1.1 20
  164.0489 0.9 16
  165.0546 1.3 24
  166.066 24.6 457
  167.0728 33.1 615
  168.0807 6.8 126
  169.0692 0.6 11
  176.0496 1.6 29
  177.0573 18.4 342
  178.0646 13.6 253
  179.0598 6.7 124
  180.0809 2.6 48
  181.0765 0.6 11
  192.0664 2.4 44
  193.0774 3.9 72
  194.0865 4.3 79
  195.0921 3.3 61
  197.0133 0.8 14
//