ACCESSION: MSBNK-BAFG-CSL23102518157
RECORD_TITLE: Fluroxypyr; LC-ESI-QTOF; MS2; 150 V
DATE: 2023.10.25
AUTHORS: Kevin S. Jewell; Björn Ehlig; Arne Wick
LICENSE: dl-de/by-2-0
COPYRIGHT: Copyright 2023 Federal Institute of Hydrology, Koblenz, Germany
COMMENT: CONFIDENCE Reference Standard (Level 1)
COMMENT: Chromatography method: dx.doi.org/10.1016/j.chroma.2015.11.014
COMMENT: Acquisition method: 10.1002/rcm.8541
CH$NAME: Fluroxypyr
CH$COMPOUND_CLASS: Herbicide
CH$FORMULA: C7H5Cl2FN2O3
CH$EXACT_MASS: 253.9661
CH$SMILES: C(C(=O)O)OC1=NC(=C(C(=C1Cl)N)Cl)F
CH$IUPAC: InChI=1S/C7H5Cl2FN2O3/c8-3-5(11)4(9)7(12-6(3)10)15-1-2(13)14/h1H2,(H2,11,12)(H,13,14)
CH$LINK: CAS 69377-81-7
CH$LINK: INCHIKEY MEFQWPUMEMWTJP-UHFFFAOYSA-N
AC$INSTRUMENT: TripleTOF 6600 SCIEX
AC$INSTRUMENT_TYPE: LC-ESI-QTOF
AC$MASS_SPECTROMETRY: MS_TYPE MS2
AC$MASS_SPECTROMETRY: ION_MODE POSITIVE
AC$MASS_SPECTROMETRY: COLLISION_ENERGY 150
AC$MASS_SPECTROMETRY: FRAGMENTATION_MODE CID
AC$MASS_SPECTROMETRY: IONIZATION ESI
AC$CHROMATOGRAPHY: COLUMN_NAME Zorbax Eclipse Plus C18 2.1 mm x 150 mm, 3.5 um, Agilent
AC$CHROMATOGRAPHY: COLUMN_TEMPERATURE 40 °C
AC$CHROMATOGRAPHY: FLOW_GRADIENT 0 min min 98% A, 1 min 98% A, 2 min 80% A, 16.5 min 2% A, 22 min 2% A, 22.1 min 98% A, 27 min 98% A
AC$CHROMATOGRAPHY: FLOW_RATE 0.3 mL/min
AC$CHROMATOGRAPHY: RETENTION_TIME 8.859 min
AC$CHROMATOGRAPHY: SOLVENT A: Water 0.1% Formic acid, B: Acetonitrile 0.1% Formic acid
MS$FOCUSED_ION: PRECURSOR_M/Z 254.9734
MS$FOCUSED_ION: PRECURSOR_TYPE [M+H]+
MS$DATA_PROCESSING: COMMENT Export with Spectra 1.9.12 MsBackendMassbank 1.7.4
MS$DATA_PROCESSING: WHOLE RMassBank 2.3.1
PK$SPLASH: splash10-0fe0-9000000000-d359aead7bc0a8eeadd6
PK$NUM_PEAK: 21
PK$PEAK: m/z int. rel.int.
  30.9978 0.9 280
  46.0092 0.4 124
  46.9681 1.4 437
  48.9836 0.4 124
  51.0106 2.4 749
  52.0188 0.8 249
  54.9969 1.2 374
  56.006 1.1 343
  61.9792 0.6 187
  62.0017 0.6 187
  63.0076 0.5 156
  66.9744 2.1 655
  70.0086 2.9 905
  70.9679 1.3 405
  71.9761 0.8 249
  76.0046 0.8 249
  77.0131 1.9 593
  80.999 0.5 156
  85.9789 2.4 749
  89.9668 3.2 999
  90.9728 1 312
//
