ACCESSION: MSBNK-BAFG-CSL2310306311
RECORD_TITLE: Flecainide; LC-ESI-QTOF; MS2; 140 V
DATE: 2023.10.30
AUTHORS: Kevin S. Jewell; Björn Ehlig; Arne Wick
LICENSE: dl-de/by-2-0
COPYRIGHT: Copyright 2023 Federal Institute of Hydrology, Koblenz, Germany
COMMENT: CONFIDENCE Reference Standard (Level 1)
COMMENT: Chromatography method: dx.doi.org/10.1016/j.chroma.2015.11.014
COMMENT: Acquisition method: 10.1002/rcm.8541
CH$NAME: Flecainide
CH$COMPOUND_CLASS: Pharmaceutical
CH$FORMULA: C17H20F6N2O3
CH$EXACT_MASS: 414.1378
CH$SMILES: FC(F)(F)COc1ccc(OCC(F)(F)F)c(c1)C(=O)NCC2CCCCN2
CH$IUPAC: InChI=1S/C17H20F6N2O3/c18-16(19,20)9-27-12-4-5-14(28-10-17(21,22)23)13(7-12)15(26)25-8-11-3-1-2-6-24-11/h4-5,7,11,24H,1-3,6,8-10H2,(H,25,26)
CH$LINK: CAS 54143-55-4
CH$LINK: INCHIKEY DJBNUMBKLMJRSA-UHFFFAOYSA-N
AC$INSTRUMENT: TripleTOF 5600 SCIEX
AC$INSTRUMENT_TYPE: LC-ESI-QTOF
AC$MASS_SPECTROMETRY: MS_TYPE MS2
AC$MASS_SPECTROMETRY: ION_MODE POSITIVE
AC$MASS_SPECTROMETRY: COLLISION_ENERGY 140
AC$MASS_SPECTROMETRY: FRAGMENTATION_MODE CID
AC$MASS_SPECTROMETRY: IONIZATION ESI
AC$CHROMATOGRAPHY: COLUMN_NAME Zorbax Eclipse Plus C18 2.1 mm x 150 mm, 3.5 um, Agilent
AC$CHROMATOGRAPHY: COLUMN_TEMPERATURE 40 °C
AC$CHROMATOGRAPHY: FLOW_GRADIENT 0 min min 98% A, 1 min 98% A, 2 min 80% A, 16.5 min 2% A, 22 min 2% A, 22.1 min 98% A, 27 min 98% A
AC$CHROMATOGRAPHY: FLOW_RATE 0.3 mL/min
AC$CHROMATOGRAPHY: RETENTION_TIME 7.983 min
AC$CHROMATOGRAPHY: SOLVENT A: Water 0.1% Formic acid, B: Acetonitrile 0.1% Formic acid
MS$FOCUSED_ION: PRECURSOR_M/Z 415.1451
MS$FOCUSED_ION: PRECURSOR_TYPE [M+H]+
MS$DATA_PROCESSING: COMMENT Export with Spectra 1.9.12 MsBackendMassbank 1.7.4
MS$DATA_PROCESSING: WHOLE RMassBank 2.3.1
PK$SPLASH: splash10-0ufr-9000000000-3213aa292e584a4ed527
PK$NUM_PEAK: 40
PK$PEAK: m/z int. rel.int.
  44.0634 1.4 28
  51.03 48.8 999
  53.0082 12 245
  53.043 1 20
  55.0589 3.5 71
  56.0543 6 122
  57.0195 2 40
  63.0083 1.1 22
  64.035 2.8 57
  65.0421 2.1 42
  66.0491 0.7 14
  67.0559 0.6 12
  68.0522 1 20
  70.0245 1.9 38
  70.0688 1.4 28
  71.0321 1.3 26
  74.0182 1.4 28
  75.0088 1.2 24
  75.025 3.4 69
  77.0409 9.4 192
  79.0209 40.5 829
  79.0551 4.8 98
  79.0737 0.5 10
  80.0518 1 20
  81.0162 2.2 45
  81.0329 0.7 14
  81.0721 2.7 55
  82.0229 0.9 18
  82.0671 1.1 22
  83.0118 5.9 120
  83.0305 2.9 59
  84.0827 6.1 124
  88.013 3.2 65
  92.0263 0.9 18
  95.0304 1.6 32
  98.0963 1.6 32
  99.024 5.5 112
  101.0193 2.6 53
  107.012 4.5 92
  114.0276 3.2 65
//
