ACCESSION: MSBNK-BAFG-CSL2311108572
RECORD_TITLE: Bupropion; LC-ESI-QTOF; MS2; 90 V
DATE: 2023.11.10
AUTHORS: Kevin S. Jewell; Björn Ehlig; Arne Wick
LICENSE: dl-de/by-2-0
COPYRIGHT: Copyright 2023 Federal Institute of Hydrology, Koblenz, Germany
COMMENT: CONFIDENCE Reference Standard (Level 1)
COMMENT: Chromatography method: dx.doi.org/10.1016/j.chroma.2015.11.014
COMMENT: Acquisition method: 10.1002/rcm.8541
CH$NAME: Bupropion
CH$COMPOUND_CLASS: Pharmaceutical
CH$FORMULA: C13H18ClNO
CH$EXACT_MASS: 239.1077
CH$SMILES: CC(C(=O)C1=CC(=CC=C1)Cl)NC(C)(C)C
CH$IUPAC: InChI=1S/C13H18ClNO/c1-9(15-13(2,3)4)12(16)10-6-5-7-11(14)8-10/h5-9,15H,1-4H3
CH$LINK: CAS 34911-55-2
CH$LINK: INCHIKEY SNPPWIUOZRMYNY-UHFFFAOYSA-N
AC$INSTRUMENT: TripleTOF 5600 SCIEX
AC$INSTRUMENT_TYPE: LC-ESI-QTOF
AC$MASS_SPECTROMETRY: MS_TYPE MS2
AC$MASS_SPECTROMETRY: ION_MODE POSITIVE
AC$MASS_SPECTROMETRY: COLLISION_ENERGY 90
AC$MASS_SPECTROMETRY: FRAGMENTATION_MODE CID
AC$MASS_SPECTROMETRY: IONIZATION ESI
AC$CHROMATOGRAPHY: COLUMN_NAME Zorbax Eclipse Plus C18 2.1 mm x 150 mm, 3.5 um, Agilent
AC$CHROMATOGRAPHY: COLUMN_TEMPERATURE 40 °C
AC$CHROMATOGRAPHY: FLOW_GRADIENT 0 min min 98% A, 1 min 98% A, 2 min 80% A, 16.5 min 2% A, 22 min 2% A, 22.1 min 98% A, 27 min 98% A
AC$CHROMATOGRAPHY: FLOW_RATE 0.3 mL/min
AC$CHROMATOGRAPHY: RETENTION_TIME 6.717 min
AC$CHROMATOGRAPHY: SOLVENT A: Water 0.1% Formic acid, B: Acetonitrile 0.1% Formic acid
MS$FOCUSED_ION: PRECURSOR_M/Z 240.115
MS$FOCUSED_ION: PRECURSOR_TYPE [M+H]+
MS$DATA_PROCESSING: COMMENT Export with Spectra 1.9.12 MsBackendMassbank 1.7.4
MS$DATA_PROCESSING: WHOLE RMassBank 2.3.1
PK$SPLASH: splash10-0059-8900000000-e581c145f17c551dfb82
PK$NUM_PEAK: 18
PK$PEAK: m/z int. rel.int.
  57.0741 6 103
  58.0752 0.6 10
  74.0183 4 68
  75.0253 8.9 153
  76.0312 0.7 12
  77.0415 55.6 956
  77.0796 1.4 24
  78.0482 4.3 73
  84.9852 1.1 18
  89.04 10.9 187
  102.047 3.5 60
  103.0543 22.2 381
  104.0609 0.6 10
  110.9981 4 68
  116.0479 1 17
  128.0474 4.5 77
  130.0645 58.1 999
  131.0461 0.7 12
//
