ACCESSION: MSBNK-BAFG-CSL23103018908
RECORD_TITLE: Clozapine; LC-ESI-QTOF; MS2; 50 V
DATE: 2023.10.30
AUTHORS: Kevin S. Jewell; Björn Ehlig; Arne Wick
LICENSE: dl-de/by-2-0
COPYRIGHT: Copyright 2023 Federal Institute of Hydrology, Koblenz, Germany
COMMENT: CONFIDENCE Reference Standard (Level 1)
COMMENT: Chromatography method: dx.doi.org/10.1016/j.chroma.2015.11.014
COMMENT: Acquisition method: 10.1002/rcm.8541
CH$NAME: Clozapine
CH$COMPOUND_CLASS: Pharmaceutical
CH$FORMULA: C18H19ClN4
CH$EXACT_MASS: 326.1298
CH$SMILES: CN1CCN(CC1)C2=NC3=C(C=CC(=C3)Cl)NC4=CC=CC=C42
CH$IUPAC: InChI=1S/C18H19ClN4/c1-22-8-10-23(11-9-22)18-14-4-2-3-5-15(14)20-16-7-6-13(19)12-17(16)21-18/h2-7,12,20H,8-11H2,1H3
CH$LINK: CAS 5786-21-0
CH$LINK: INCHIKEY QZUDBNBUXVUHMW-UHFFFAOYSA-N
AC$INSTRUMENT: TripleTOF 6600 SCIEX
AC$INSTRUMENT_TYPE: LC-ESI-QTOF
AC$MASS_SPECTROMETRY: MS_TYPE MS2
AC$MASS_SPECTROMETRY: ION_MODE POSITIVE
AC$MASS_SPECTROMETRY: COLLISION_ENERGY 50
AC$MASS_SPECTROMETRY: FRAGMENTATION_MODE CID
AC$MASS_SPECTROMETRY: IONIZATION ESI
AC$CHROMATOGRAPHY: COLUMN_NAME Zorbax Eclipse Plus C18 2.1 mm x 150 mm, 3.5 um, Agilent
AC$CHROMATOGRAPHY: COLUMN_TEMPERATURE 40 °C
AC$CHROMATOGRAPHY: FLOW_GRADIENT 0 min min 98% A, 1 min 98% A, 2 min 80% A, 16.5 min 2% A, 22 min 2% A, 22.1 min 98% A, 27 min 98% A
AC$CHROMATOGRAPHY: FLOW_RATE 0.3 mL/min
AC$CHROMATOGRAPHY: RETENTION_TIME 6.951 min
AC$CHROMATOGRAPHY: SOLVENT A: Water 0.1% Formic acid, B: Acetonitrile 0.1% Formic acid
MS$FOCUSED_ION: PRECURSOR_M/Z 327.1371
MS$FOCUSED_ION: PRECURSOR_TYPE [M+H]+
MS$DATA_PROCESSING: COMMENT Export with Spectra 1.9.12 MsBackendMassbank 1.7.4
MS$DATA_PROCESSING: WHOLE RMassBank 2.3.1
PK$SPLASH: splash10-0006-0980000000-13a870a0c68f20fdc490
PK$NUM_PEAK: 24
PK$PEAK: m/z int. rel.int.
  42.0341 15.8 18
  84.0803 24.2 28
  123.9938 8.8 10
  164.0487 10.9 12
  165.0567 8.9 10
  191.0597 32.7 38
  192.068 858.6 999
  200.0247 14.9 17
  206.0817 11.3 13
  215.035 8.6 10
  218.0844 16.6 19
  220.087 17 19
  226.029 46.9 54
  227.0367 132 153
  228.0443 19.1 22
  229.0522 11.4 13
  234.1022 26.9 31
  235.1108 16.2 18
  240.0432 9.8 11
  253.0508 40.2 46
  254.0533 16.7 19
  255.0567 18.7 21
  270.0793 407 473
  296.0954 53.4 62
//
