ACCESSION: MSBNK-BAFG-CSL25010634384
RECORD_TITLE: 4,4`-Methylenebis(2-chloroaniline); LC-ESI-QTOF; MS2; 70 V
DATE: 2025.01.06
AUTHORS: Ole Lessmann; Kevin S. Jewell; Björn Ehlig; Arne Wick
LICENSE: dl-de/by-2-0
COPYRIGHT: Copyright 2025 Federal Institute of Hydrology, Koblenz, Germany
COMMENT: CONFIDENCE Reference Standard (Level 1)
COMMENT: Chromatography method: dx.doi.org/10.1016/j.chroma.2015.11.014
COMMENT: Acquisition method: 10.1002/rcm.8541
CH$NAME: 4,4`-Methylenebis(2-chloroaniline)
CH$FORMULA: C13H12Cl2N2
CH$EXACT_MASS: 266.0378
CH$SMILES: C1=CC(=C(C=C1CC2=CC(=C(C=C2)N)Cl)Cl)N
CH$IUPAC: InChI=1S/C13H12Cl2N2/c14-10-6-8(1-3-12(10)16)5-9-2-4-13(17)11(15)7-9/h1-4,6-7H,5,16-17H2
CH$LINK: CAS 101-14-4
CH$LINK: INCHIKEY IBOFVQJTBBUKMU-UHFFFAOYSA-N
AC$INSTRUMENT: TripleTOF 6600 SCIEX
AC$INSTRUMENT_TYPE: LC-ESI-QTOF
AC$MASS_SPECTROMETRY: MS_TYPE MS2
AC$MASS_SPECTROMETRY: ION_MODE POSITIVE
AC$MASS_SPECTROMETRY: COLLISION_ENERGY 70
AC$MASS_SPECTROMETRY: FRAGMENTATION_MODE CID
AC$MASS_SPECTROMETRY: IONIZATION ESI
AC$CHROMATOGRAPHY: COLUMN_NAME Zorbax Eclipse Plus C18 2.1 mm x 150 mm, 3.5 um, Agilent
AC$CHROMATOGRAPHY: COLUMN_TEMPERATURE 40 °C
AC$CHROMATOGRAPHY: FLOW_GRADIENT 0 min min 98% A, 1 min 98% A, 2 min 80% A, 16.5 min 2% A, 22 min 2% A, 22.1 min 98% A, 27 min 98% A
AC$CHROMATOGRAPHY: FLOW_RATE 0.3 mL/min
AC$CHROMATOGRAPHY: RETENTION_TIME 11.747 min
AC$CHROMATOGRAPHY: SOLVENT A: Water 0.1% Formic acid, B: Acetonitrile 0.1% Formic acid
MS$FOCUSED_ION: PRECURSOR_M/Z 267.045
MS$FOCUSED_ION: PRECURSOR_TYPE [M+H]+
MS$DATA_PROCESSING: COMMENT Export with pycsl 0.1.0.dev1 and CSL 24.4
PK$SPLASH: splash10-0v00-1900000000-dc5e7c35a5e1e1bec526
PK$NUM_PEAK: 68
PK$PEAK: m/z int. rel.int.
  50.0162 0.7 13
  51.0233 8.3 158
  52.0188 0.8 15
  63.0237 0.7 13
  65.0384 0.9 17
  75.0232 1.2 22
  77.0388 44.0 840
  78.0342 3.5 66
  78.0459 2.7 51
  80.0503 0.8 15
  89.0382 1.1 21
  90.0355 0.6 11
  91.0531 1.4 26
  92.0512 0.6 11
  101.0379 1.1 21
  102.0459 1.1 21
  103.0528 0.6 11
  104.049 31.5 601
  105.0567 4.6 87
  113.0154 2.7 51
  113.0375 0.7 13
  114.0092 0.8 15
  114.0454 1.0 19
  115.0538 21.6 412
  116.0626 1.3 24
  117.059 1.3 24
  123.0011 0.5 9
  125.0382 1.9 36
  126.0445 3.8 72
  127.0183 0.8 15
  127.0538 8.7 166
  128.0475 0.8 15
  128.062 3.9 74
  129.05 1.4 26
  130.0671 3.6 68
  139.0545 11.0 210
  140.0256 33.0 630
  140.0527 8.4 160
  141.0681 8.2 156
  142.0618 0.9 17
  143.0732 2.9 55
  149.039 1.2 22
  150.0465 17.9 341
  151.0541 52.0 993
  152.0619 41.1 785
  153.0613 11.9 227
  154.0655 8.8 168
  155.0593 4.6 87
  162.044 0.8 15
  163.0546 2.1 40
  164.0479 0.7 13
  166.065 23.1 441
  167.0733 52.3 999
  168.0811 16.6 317
  169.0769 1.4 26
  176.0497 1.2 22
  177.0583 14.7 280
  178.0641 25.7 490
  179.0645 9.6 183
  180.0567 0.6 11
  180.0815 12.3 234
  181.0758 0.8 15
  192.0646 1.7 32
  193.0776 5.9 112
  194.0824 8.5 162
  195.092 23.1 441
  197.015 1.0 19
  204.0596 0.8 15
//