ACCESSION: MSBNK-BAFG-CSL23103010079
RECORD_TITLE: 2-Phenylbenzimidazole-5-sulfonic acid; LC-ESI-QTOF; MS2; 60 V
DATE: 2023.10.30
AUTHORS: Kevin S. Jewell; Björn Ehlig; Arne Wick
LICENSE: dl-de/by-2-0
COPYRIGHT: Copyright 2023 Federal Institute of Hydrology, Koblenz, Germany
COMMENT: CONFIDENCE Reference Standard (Level 1)
COMMENT: Chromatography method: dx.doi.org/10.1016/j.chroma.2015.11.014
COMMENT: Acquisition method: 10.1002/rcm.8541
CH$NAME: 2-Phenylbenzimidazole-5-sulfonic acid
CH$COMPOUND_CLASS: Personal_care_product
CH$FORMULA: C13H10N2O3S
CH$EXACT_MASS: 274.0412
CH$SMILES: C1=CC=C(C=C1)C2=NC3=C(N2)C=C(C=C3)S(=O)(=O)O
CH$IUPAC: InChI=1S/C13H10N2O3S/c16-19(17,18)10-6-7-11-12(8-10)15-13(14-11)9-4-2-1-3-5-9/h1-8H,(H,14,15)(H,16,17,18)
CH$LINK: CAS 27503-81-7
CH$LINK: INCHIKEY UVCJGUGAGLDPAA-UHFFFAOYSA-N
AC$INSTRUMENT: TripleTOF 5600 SCIEX
AC$INSTRUMENT_TYPE: LC-ESI-QTOF
AC$MASS_SPECTROMETRY: MS_TYPE MS2
AC$MASS_SPECTROMETRY: ION_MODE POSITIVE
AC$MASS_SPECTROMETRY: COLLISION_ENERGY 60
AC$MASS_SPECTROMETRY: FRAGMENTATION_MODE CID
AC$MASS_SPECTROMETRY: IONIZATION ESI
AC$CHROMATOGRAPHY: COLUMN_NAME Zorbax Eclipse Plus C18 2.1 mm x 150 mm, 3.5 um, Agilent
AC$CHROMATOGRAPHY: COLUMN_TEMPERATURE 40 °C
AC$CHROMATOGRAPHY: FLOW_GRADIENT 0 min min 98% A, 1 min 98% A, 2 min 80% A, 16.5 min 2% A, 22 min 2% A, 22.1 min 98% A, 27 min 98% A
AC$CHROMATOGRAPHY: FLOW_RATE 0.3 mL/min
AC$CHROMATOGRAPHY: RETENTION_TIME 5.039 min
AC$CHROMATOGRAPHY: SOLVENT A: Water 0.1% Formic acid, B: Acetonitrile 0.1% Formic acid
MS$FOCUSED_ION: PRECURSOR_M/Z 275.0485
MS$FOCUSED_ION: PRECURSOR_TYPE [M+H]+
MS$DATA_PROCESSING: COMMENT Export with Spectra 1.9.12 MsBackendMassbank 1.7.4
MS$DATA_PROCESSING: WHOLE RMassBank 2.3.1
PK$SPLASH: splash10-0006-1900000000-c8e24754ca56e0a7e7fa
PK$NUM_PEAK: 31
PK$PEAK: m/z int. rel.int.
  64.0376 3.2 73
  65.0457 2.3 52
  66.0551 1 22
  77.043 1.3 29
  79.048 0.9 20
  80.054 0.8 18
  81.0384 1.4 32
  89.0432 3.3 75
  90.0501 4.3 98
  91.0462 6 137
  92.0512 2.1 48
  104.0514 4.2 96
  108.0432 0.9 20
  115.0569 0.5 11
  117.0576 0.5 11
  127.0568 0.6 13
  139.0545 4.2 96
  140.0566 3.1 70
  141.0582 0.5 11
  154.0665 2.4 54
  164.0477 0.5 11
  165.0603 0.5 11
  166.0655 18.1 413
  167.0733 9.8 224
  168.0748 3.2 73
  181.0773 0.6 13
  182.0822 0.6 13
  192.068 8.2 187
  193.0761 43.7 999
  194.0835 33.4 763
  195.0932 2.2 50
//
