ACCESSION: MSBNK-BAFG-CSL23103018891
RECORD_TITLE: Metoprolol; LC-ESI-QTOF; MS2; 90 V
DATE: 2023.10.30
AUTHORS: Kevin S. Jewell; Björn Ehlig; Arne Wick
LICENSE: dl-de/by-2-0
COPYRIGHT: Copyright 2023 Federal Institute of Hydrology, Koblenz, Germany
COMMENT: CONFIDENCE Reference Standard (Level 1)
COMMENT: Chromatography method: dx.doi.org/10.1016/j.chroma.2015.11.014
COMMENT: Acquisition method: 10.1002/rcm.8541
CH$NAME: Metoprolol
CH$COMPOUND_CLASS: Pharmaceutical
CH$FORMULA: C15H25NO3
CH$EXACT_MASS: 267.1834
CH$SMILES: CC(C)NCC(COC1=CC=C(C=C1)CCOC)O
CH$IUPAC: InChI=1S/C15H25NO3/c1-12(2)16-10-14(17)11-19-15-6-4-13(5-7-15)8-9-18-3/h4-7,12,14,16-17H,8-11H2,1-3H3
CH$LINK: CAS 51384-51-1
CH$LINK: INCHIKEY IUBSYMUCCVWXPE-UHFFFAOYSA-N
AC$INSTRUMENT: TripleTOF 6600 SCIEX
AC$INSTRUMENT_TYPE: LC-ESI-QTOF
AC$MASS_SPECTROMETRY: MS_TYPE MS2
AC$MASS_SPECTROMETRY: ION_MODE POSITIVE
AC$MASS_SPECTROMETRY: COLLISION_ENERGY 90
AC$MASS_SPECTROMETRY: FRAGMENTATION_MODE CID
AC$MASS_SPECTROMETRY: IONIZATION ESI
AC$CHROMATOGRAPHY: COLUMN_NAME Zorbax Eclipse Plus C18 2.1 mm x 150 mm, 3.5 um, Agilent
AC$CHROMATOGRAPHY: COLUMN_TEMPERATURE 40 °C
AC$CHROMATOGRAPHY: FLOW_GRADIENT 0 min min 98% A, 1 min 98% A, 2 min 80% A, 16.5 min 2% A, 22 min 2% A, 22.1 min 98% A, 27 min 98% A
AC$CHROMATOGRAPHY: FLOW_RATE 0.3 mL/min
AC$CHROMATOGRAPHY: RETENTION_TIME 6.14 min
AC$CHROMATOGRAPHY: SOLVENT A: Water 0.1% Formic acid, B: Acetonitrile 0.1% Formic acid
MS$FOCUSED_ION: PRECURSOR_M/Z 268.1907
MS$FOCUSED_ION: PRECURSOR_TYPE [M+H]+
MS$DATA_PROCESSING: COMMENT Export with Spectra 1.9.12 MsBackendMassbank 1.7.4
MS$DATA_PROCESSING: WHOLE RMassBank 2.3.1
PK$SPLASH: splash10-004i-9100000000-0e0488f78f172eed8de7
PK$NUM_PEAK: 27
PK$PEAK: m/z int. rel.int.
  30.0338 11.4 74
  37.0073 3.2 21
  38.0141 2.1 13
  39.0227 20 131
  41.0385 22.2 146
  42.0338 1.6 10
  43.0534 5.6 36
  44.049 2.2 14
  45.033 5.2 34
  50.0151 6.5 42
  51.0225 46.1 303
  56.0493 8 52
  58.064 3.2 21
  63.0225 3.6 23
  65.0377 19.6 128
  75.0209 2.2 14
  77.0378 151.9 999
  78.0459 5.7 37
  79.0537 11.6 76
  89.0376 6.6 43
  91.0529 39.5 259
  94.0413 1.7 11
  102.0451 7.5 49
  103.0536 13.3 87
  105.0433 3.5 23
  115.053 24.1 158
  128.0595 3.4 22
//
