ACCESSION: MSBNK-BAFG-CSL23111014689
RECORD_TITLE: Remdesivir; LC-ESI-QTOF; MS2; 150 V
DATE: 2023.11.10
AUTHORS: Kevin S. Jewell; Björn Ehlig; Arne Wick
LICENSE: dl-de/by-2-0
COPYRIGHT: Copyright 2023 Federal Institute of Hydrology, Koblenz, Germany
COMMENT: CONFIDENCE Reference Standard (Level 1)
COMMENT: Chromatography method: dx.doi.org/10.1016/j.chroma.2015.11.014
COMMENT: Acquisition method: 10.1002/rcm.8541
CH$NAME: Remdesivir
CH$COMPOUND_CLASS: Pharmaceutical
CH$FORMULA: C27H35N6O8P
CH$EXACT_MASS: 602.2254
CH$SMILES: CCC(CC)COC(=O)C(C)NP(=O)(OCC1C(C(C(O1)(C#N)C2=CC=C3N2N=CN=C3N)O)O)OC4=CC=CC=C4
CH$IUPAC: InChI=1S/C27H35N6O8P/c1-4-18(5-2)13-38-26(36)17(3)32-42(37,41-19-9-7-6-8-10-19)39-14-21-23(34)24(35)27(15-28,40-21)22-12-11-20-25(29)30-16-31-33(20)22/h6-12,16-18,21,23-24,34-35H,4-5,13-14H2,1-3H3,(H,32,37)(H2,29,30,31)
CH$LINK: CAS 1809249-37-3
CH$LINK: INCHIKEY RWWYLEGWBNMMLJ-UHFFFAOYSA-N
AC$INSTRUMENT: TripleTOF 6600 SCIEX
AC$INSTRUMENT_TYPE: LC-ESI-QTOF
AC$MASS_SPECTROMETRY: MS_TYPE MS2
AC$MASS_SPECTROMETRY: ION_MODE POSITIVE
AC$MASS_SPECTROMETRY: COLLISION_ENERGY 150
AC$MASS_SPECTROMETRY: FRAGMENTATION_MODE CID
AC$MASS_SPECTROMETRY: IONIZATION ESI
AC$CHROMATOGRAPHY: COLUMN_NAME Zorbax Eclipse Plus C18 2.1 mm x 150 mm, 3.5 um, Agilent
AC$CHROMATOGRAPHY: COLUMN_TEMPERATURE 40 °C
AC$CHROMATOGRAPHY: FLOW_GRADIENT 0 min min 98% A, 1 min 98% A, 2 min 80% A, 16.5 min 2% A, 22 min 2% A, 22.1 min 98% A, 27 min 98% A
AC$CHROMATOGRAPHY: FLOW_RATE 0.3 mL/min
AC$CHROMATOGRAPHY: RETENTION_TIME 9.974 min
AC$CHROMATOGRAPHY: SOLVENT A: Water 0.1% Formic acid, B: Acetonitrile 0.1% Formic acid
MS$FOCUSED_ION: PRECURSOR_M/Z 603.2327
MS$FOCUSED_ION: PRECURSOR_TYPE [M+H]+
MS$DATA_PROCESSING: COMMENT Export with Spectra 1.9.12 MsBackendMassbank 1.7.4
MS$DATA_PROCESSING: WHOLE RMassBank 2.3.1
PK$SPLASH: splash10-004i-9300000000-f9bbfd5edfe487e21fab
PK$NUM_PEAK: 49
PK$PEAK: m/z int. rel.int.
  37.0068 0.8 15
  39.0226 3.8 71
  41.0382 2.9 54
  42.0328 1.8 33
  43.0285 2.5 47
  43.0411 0.9 16
  43.0542 1.5 28
  44.0492 17.1 322
  50.0145 1.3 24
  51.0227 11.3 212
  60.9835 0.6 11
  64.0177 3.4 64
  65.0378 2.9 54
  66.0327 0.8 15
  67.0173 0.5 9
  76.0174 5.2 98
  77.0261 0.9 16
  77.038 53 999
  78.0331 13.5 254
  78.9935 2.8 52
  79.0284 0.7 13
  79.9887 4.8 90
  83.0032 0.6 11
  87.9934 0.9 16
  91.0283 1.3 24
  91.0532 2.1 39
  92.0489 0.8 15
  93.0438 1.6 30
  95.0484 5.1 96
  103.0283 5.9 111
  103.0535 2.3 43
  104.0365 0.6 11
  105.0438 12 226
  106.0038 2.8 52
  109.0187 3.1 58
  117.0566 0.6 11
  118.0643 0.8 15
  119.0232 2 37
  119.0593 0.6 11
  120.0553 1.3 24
  120.0803 0.9 16
  129.046 1 18
  130.039 2.7 50
  135.0659 0.6 11
  137.0141 2.6 49
  138.9932 1.1 20
  145.0512 0.6 11
  147.0646 5.1 96
  165.0081 2 37
//
