ACCESSION: MSBNK-BAFG-CSL25011734656
RECORD_TITLE: Reactive Orange; LC-ESI-QTOF; MS2; 120 V
DATE: 2025.01.17
AUTHORS: Ole Lessmann; Kevin S. Jewell; Björn Ehlig; Arne Wick
LICENSE: dl-de/by-2-0
COPYRIGHT: Copyright 2025 Federal Institute of Hydrology, Koblenz, Germany
COMMENT: CONFIDENCE Reference Standard (Level 1)
COMMENT: Chromatography method: dx.doi.org/10.1016/j.chroma.2015.11.014
CH$NAME: Reactive Orange
CH$FORMULA: C20H19N3O11S3
CH$EXACT_MASS: 573.0182
CH$SMILES: CC(=O)NC1=CC2=C(C(=C(C=C2C=C1)S(=O)(=O)O)N=NC3=CC=C(C=C3)S(=O)(=O)CCOS(=O)(=O)O)O
CH$IUPAC: InChI=1S/C20H19N3O11S3/c1-12(24)21-15-3-2-13-10-18(36(28,29)30)19(20(25)17(13)11-15)23-22-14-4-6-16(7-5-14)35(26,27)9-8-34-37(31,32)33/h2-7,10-11,25H,8-9H2,1H3,(H,21,24)(H,28,29,30)(H,31,32,33)
CH$LINK: CAS 109603-48-7
CH$LINK: INCHIKEY INOIOAWTVPHTCJ-UHFFFAOYSA-N
AC$INSTRUMENT: TripleTOF 6600 SCIEX
AC$INSTRUMENT_TYPE: LC-ESI-QTOF
AC$MASS_SPECTROMETRY: MS_TYPE MS2
AC$MASS_SPECTROMETRY: ION_MODE POSITIVE
AC$MASS_SPECTROMETRY: COLLISION_ENERGY 120
AC$MASS_SPECTROMETRY: FRAGMENTATION_MODE CID
AC$MASS_SPECTROMETRY: IONIZATION ESI
AC$CHROMATOGRAPHY: COLUMN_NAME Zorbax Eclipse Plus C18 2.1 mm x 150 mm, 3.5 um, Agilent
AC$CHROMATOGRAPHY: COLUMN_TEMPERATURE 40 °C
AC$CHROMATOGRAPHY: FLOW_GRADIENT 0 min min 98% A, 1 min 98% A, 2 min 80% A, 16.5 min 2% A, 22 min 2% A, 22.1 min 98% A, 27 min 98% A
AC$CHROMATOGRAPHY: FLOW_RATE 0.3 mL/min
AC$CHROMATOGRAPHY: RETENTION_TIME 5.751 min
AC$CHROMATOGRAPHY: SOLVENT A: Water 0.1% Formic acid, B: Acetonitrile 0.1% Formic acid
MS$FOCUSED_ION: PRECURSOR_M/Z 574.0255
MS$FOCUSED_ION: PRECURSOR_TYPE [M+H]+
MS$DATA_PROCESSING: COMMENT Export with pycsl 0.1.0.dev1 and CSL 25.0
PK$SPLASH: splash10-053u-4910000000-b591c111bec353dbef84
PK$NUM_PEAK: 66
PK$PEAK: m/z int. rel.int.
  43.0175 1.9 20
  44.9787 2.1 23
  46.9943 1.2 13
  53.0377 8.4 92
  61.0077 1.1 12
  62.0143 0.9 9
  63.0215 1.9 20
  64.968 1.1 12
  65.0376 6.4 70
  68.0118 3.3 36
  76.0299 1.3 14
  77.0381 8.2 90
  78.0324 1.3 14
  80.0488 15.3 168
  81.0331 78.3 861
  88.0298 5.6 61
  89.0373 9.4 103
  91.0415 2.7 29
  92.0489 4.6 50
  93.0566 3.1 34
  102.032 2.2 24
  102.0469 1.0 11
  103.0407 4.7 51
  104.0478 14.5 159
  108.0436 32.1 353
  114.033 19.2 211
  115.0405 36.5 401
  116.0489 11.6 127
  117.0564 4.3 47
  128.0492 2.3 25
  129.0433 20.0 220
  130.0532 5.7 62
  131.0583 13.1 144
  141.0414 3.3 36
  142.0516 90.8 999
  143.0599 4.2 46
  151.0531 5.3 58
  163.0393 1.4 15
  164.0609 1.0 11
  170.046 15.1 166
  171.0558 1.4 15
  172.0372 1.1 12
  176.0601 3.3 36
  177.0562 2.5 27
  178.065 3.8 41
  179.066 1.0 11
  180.076 1.2 13
  188.0502 1.2 13
  189.0518 1.1 12
  190.0608 2.5 27
  203.0651 2.3 25
  204.0785 4.4 48
  205.0738 24.0 264
  206.0847 4.5 49
  215.0604 1.9 20
  216.0676 2.8 30
  217.0763 1.9 20
  218.0834 2.2 24
  220.086 1.9 20
  230.07 2.2 24
  231.0796 2.7 29
  232.0858 11.0 121
  233.0722 1.7 18
  233.0953 2.2 24
  243.0767 1.2 13
  244.0818 1.1 12
//
