ACCESSION: MSBNK-BAFG-CSL23103010777
RECORD_TITLE: Octrizole; LC-ESI-QTOF; MS2; 40 V
DATE: 2023.10.30
AUTHORS: Kevin S. Jewell; Björn Ehlig; Arne Wick
LICENSE: dl-de/by-2-0
COPYRIGHT: Copyright 2023 Federal Institute of Hydrology, Koblenz, Germany
COMMENT: CONFIDENCE Reference Standard (Level 1)
COMMENT: Chromatography method: dx.doi.org/10.1016/j.chroma.2015.11.014
COMMENT: Acquisition method: 10.1002/rcm.8541
CH$NAME: Octrizole
CH$COMPOUND_CLASS: Industrial_process
CH$FORMULA: C20H25N3O
CH$EXACT_MASS: 323.1998
CH$SMILES: CC(C)(C)CC(C)(C)C1=CC(=C(C=C1)O)N2N=C3C=CC=CC3=N2
CH$IUPAC: InChI=1S/C20H25N3O/c1-19(2,3)13-20(4,5)14-10-11-18(24)17(12-14)23-21-15-8-6-7-9-16(15)22-23/h6-12,24H,13H2,1-5H3
CH$LINK: CAS 3147-75-9
CH$LINK: INCHIKEY IYAZLDLPUNDVAG-UHFFFAOYSA-N
AC$INSTRUMENT: TripleTOF 5600 SCIEX
AC$INSTRUMENT_TYPE: LC-ESI-QTOF
AC$MASS_SPECTROMETRY: MS_TYPE MS2
AC$MASS_SPECTROMETRY: ION_MODE POSITIVE
AC$MASS_SPECTROMETRY: COLLISION_ENERGY 40
AC$MASS_SPECTROMETRY: FRAGMENTATION_MODE CID
AC$MASS_SPECTROMETRY: IONIZATION ESI
AC$CHROMATOGRAPHY: COLUMN_NAME Zorbax Eclipse Plus C18 2.1 mm x 150 mm, 3.5 um, Agilent
AC$CHROMATOGRAPHY: COLUMN_TEMPERATURE 40 °C
AC$CHROMATOGRAPHY: FLOW_GRADIENT 0 min min 98% A, 1 min 98% A, 2 min 80% A, 16.5 min 2% A, 22 min 2% A, 22.1 min 98% A, 27 min 98% A
AC$CHROMATOGRAPHY: FLOW_RATE 0.3 mL/min
AC$CHROMATOGRAPHY: RETENTION_TIME 19.562 min
AC$CHROMATOGRAPHY: SOLVENT A: Water 0.1% Formic acid, B: Acetonitrile 0.1% Formic acid
MS$FOCUSED_ION: PRECURSOR_M/Z 324.207
MS$FOCUSED_ION: PRECURSOR_TYPE [M+H]+
MS$DATA_PROCESSING: COMMENT Export with Spectra 1.9.12 MsBackendMassbank 1.7.4
MS$DATA_PROCESSING: WHOLE RMassBank 2.3.1
PK$SPLASH: splash10-00di-1279000000-ef6f2023d3dc81308ec2
PK$NUM_PEAK: 30
PK$PEAK: m/z int. rel.int.
  65.0451 1.7 22
  91.0604 0.9 11
  92.0542 10 131
  93.0409 1 13
  105.0723 1.3 17
  107.0565 1 13
  119.0515 1.4 18
  120.058 3.8 49
  133.0672 2.3 30
  134.0745 4.3 56
  135.0825 0.9 11
  156.0823 1 13
  166.0658 1.9 24
  167.0755 1.5 19
  180.0836 0.8 10
  182.0956 0.8 10
  183.0702 2 26
  184.0822 1.1 14
  196.0763 1.2 15
  208.1131 1.3 17
  209.0889 1.3 17
  210.0906 6.5 85
  211.0742 0.8 10
  212.0817 29.1 382
  224.1084 5.2 68
  225.1137 0.8 10
  238.0979 4.4 57
  252.1128 6.2 81
  253.1222 5.8 76
  324.2068 76 999
//
