ACCESSION: MSBNK-BAFG-CSL23102515753
RECORD_TITLE: Quinmerac; LC-ESI-QTOF; MS2; 150 V
DATE: 2023.10.25
AUTHORS: Kevin S. Jewell; Björn Ehlig; Arne Wick
LICENSE: dl-de/by-2-0
COPYRIGHT: Copyright 2023 Federal Institute of Hydrology, Koblenz, Germany
COMMENT: CONFIDENCE Reference Standard (Level 1)
COMMENT: Chromatography method: dx.doi.org/10.1016/j.chroma.2015.11.014
COMMENT: Acquisition method: 10.1002/rcm.8541
CH$NAME: Quinmerac
CH$COMPOUND_CLASS: Herbicide
CH$FORMULA: C11H8ClNO2
CH$EXACT_MASS: 221.0244
CH$SMILES: Cc1cc2ccc(c(c2nc1)C(=O)O)Cl
CH$IUPAC: InChI=1S/C11H8ClNO2/c1-6-4-7-2-3-8(12)9(11(14)15)10(7)13-5-6/h2-5H,1H3,(H,14,15)
CH$LINK: CAS 90717-03-6
CH$LINK: INCHIKEY ALZOLUNSQWINIR-UHFFFAOYSA-N
AC$INSTRUMENT: TripleTOF 6600 SCIEX
AC$INSTRUMENT_TYPE: LC-ESI-QTOF
AC$MASS_SPECTROMETRY: MS_TYPE MS2
AC$MASS_SPECTROMETRY: ION_MODE POSITIVE
AC$MASS_SPECTROMETRY: COLLISION_ENERGY 150
AC$MASS_SPECTROMETRY: FRAGMENTATION_MODE CID
AC$MASS_SPECTROMETRY: IONIZATION ESI
AC$CHROMATOGRAPHY: COLUMN_NAME Zorbax Eclipse Plus C18 2.1 mm x 150 mm, 3.5 um, Agilent
AC$CHROMATOGRAPHY: COLUMN_TEMPERATURE 40 °C
AC$CHROMATOGRAPHY: FLOW_GRADIENT 0 min min 98% A, 1 min 98% A, 2 min 80% A, 16.5 min 2% A, 22 min 2% A, 22.1 min 98% A, 27 min 98% A
AC$CHROMATOGRAPHY: FLOW_RATE 0.3 mL/min
AC$CHROMATOGRAPHY: RETENTION_TIME 7.013 min
AC$CHROMATOGRAPHY: SOLVENT A: Water 0.1% Formic acid, B: Acetonitrile 0.1% Formic acid
MS$FOCUSED_ION: PRECURSOR_M/Z 222.0316
MS$FOCUSED_ION: PRECURSOR_TYPE [M+H]+
MS$DATA_PROCESSING: COMMENT Export with Spectra 1.9.12 MsBackendMassbank 1.7.4
MS$DATA_PROCESSING: WHOLE RMassBank 2.3.1
PK$SPLASH: splash10-03di-9000000000-96ad91862f1505ab301b
PK$NUM_PEAK: 30
PK$PEAK: m/z int. rel.int.
  35.9992 1.2 69
  37.0071 2.9 167
  38.0152 2.1 121
  39.0232 2.1 121
  46.9679 1.6 92
  48.9853 0.5 28
  49.0076 2.3 132
  50.0152 3.7 213
  51.0235 1.5 86
  52.019 0.4 23
  59.9992 3.5 202
  61.007 17.3 999
  62.0148 13.4 773
  63.0227 6.2 358
  64.0185 0.6 34
  72.984 1 57
  73.007 3.2 184
  74.0149 5.7 329
  75.0098 1.2 69
  76.0178 0.8 46
  83.9992 2.5 144
  85.007 7.6 438
  86.0026 1.1 63
  86.0153 6.8 392
  87.0107 1 57
  87.0228 1.9 109
  88.0174 1.2 69
  97.0074 1.3 75
  98.0149 1.8 103
  99.0106 1.5 86
//
