ACCESSION: MSBNK-BAFG-CSL23102510310
RECORD_TITLE: Meptazinol; LC-ESI-QTOF; MS2; 140 V
DATE: 2023.10.25
AUTHORS: Kevin S. Jewell; Björn Ehlig; Arne Wick
LICENSE: dl-de/by-2-0
COPYRIGHT: Copyright 2023 Federal Institute of Hydrology, Koblenz, Germany
COMMENT: CONFIDENCE Reference Standard (Level 1)
COMMENT: Chromatography method: dx.doi.org/10.1016/j.chroma.2015.11.014
COMMENT: Acquisition method: 10.1002/rcm.8541
CH$NAME: Meptazinol
CH$COMPOUND_CLASS: Pharmaceutical
CH$FORMULA: C15H23NO
CH$EXACT_MASS: 233.178
CH$SMILES: CCC1(CCCCN(C1)C)C2=CC(=CC=C2)O
CH$IUPAC: InChI=1S/C15H23NO/c1-3-15(9-4-5-10-16(2)12-15)13-7-6-8-14(17)11-13/h6-8,11,17H,3-5,9-10,12H2,1-2H3
CH$LINK: CAS 54340-58-8
CH$LINK: INCHIKEY JLICHNCFTLFZJN-UHFFFAOYSA-N
AC$INSTRUMENT: TripleTOF 5600 SCIEX
AC$INSTRUMENT_TYPE: LC-ESI-QTOF
AC$MASS_SPECTROMETRY: MS_TYPE MS2
AC$MASS_SPECTROMETRY: ION_MODE POSITIVE
AC$MASS_SPECTROMETRY: COLLISION_ENERGY 140
AC$MASS_SPECTROMETRY: FRAGMENTATION_MODE CID
AC$MASS_SPECTROMETRY: IONIZATION ESI
AC$CHROMATOGRAPHY: COLUMN_NAME Zorbax Eclipse Plus C18 2.1 mm x 150 mm, 3.5 um, Agilent
AC$CHROMATOGRAPHY: COLUMN_TEMPERATURE 40 °C
AC$CHROMATOGRAPHY: FLOW_GRADIENT 0 min min 98% A, 1 min 98% A, 2 min 80% A, 16.5 min 2% A, 22 min 2% A, 22.1 min 98% A, 27 min 98% A
AC$CHROMATOGRAPHY: FLOW_RATE 0.3 mL/min
AC$CHROMATOGRAPHY: RETENTION_TIME 5.641 min
AC$CHROMATOGRAPHY: SOLVENT A: Water 0.1% Formic acid, B: Acetonitrile 0.1% Formic acid
MS$FOCUSED_ION: PRECURSOR_M/Z 234.1852
MS$FOCUSED_ION: PRECURSOR_TYPE [M+H]+
MS$DATA_PROCESSING: COMMENT Export with Spectra 1.9.12 MsBackendMassbank 1.7.4
MS$DATA_PROCESSING: WHOLE RMassBank 2.3.1
PK$SPLASH: splash10-0udi-9000000000-1b7ccd82fc428eb447eb
PK$NUM_PEAK: 27
PK$PEAK: m/z int. rel.int.
  35.9992 0.4 20
  37.0071 1.9 98
  38.015 1.5 78
  39.0229 4.5 234
  41.0386 0.8 41
  42.0338 1.6 83
  44.0494 5.7 296
  49.0072 2.2 114
  50.0151 12 624
  51.023 19.2 999
  53.0391 0.8 41
  54.0337 0.9 46
  55.0187 0.6 31
  61.0064 1.6 83
  62.0147 3.8 197
  63.0228 4 208
  65.0382 1.8 93
  74.0152 2.4 124
  75.0234 1 52
  76.0315 0.5 26
  77.0386 7.1 369
  78.0456 0.4 20
  86.0161 0.4 20
  89.0389 1.4 72
  91.0539 0.5 26
  102.0479 0.5 26
  115.0547 1.2 62
//
