ACCESSION: MSBNK-BAFG-CSL2310261809
RECORD_TITLE: Lapatinib; LC-ESI-QTOF; MS2; 100 V
DATE: 2023.10.26
AUTHORS: Kevin S. Jewell; Björn Ehlig; Arne Wick
LICENSE: dl-de/by-2-0
COPYRIGHT: Copyright 2023 Federal Institute of Hydrology, Koblenz, Germany
COMMENT: CONFIDENCE Reference Standard (Level 1)
COMMENT: Chromatography method: dx.doi.org/10.1016/j.chroma.2015.11.014
COMMENT: Acquisition method: 10.1002/rcm.8541
CH$NAME: Lapatinib
CH$COMPOUND_CLASS: Pharmaceutical
CH$FORMULA: C29H26ClFN4O4S
CH$EXACT_MASS: 580.1347
CH$SMILES: CS(=O)(CCNCC1=CC=C(C2=CC3=C(N=CN=C3NC4=CC(Cl)=C(OCC5=CC(F)=CC=C5)C=C4)C=C2)O1)=O
CH$IUPAC: InChI=1S/C29H26ClFN4O4S/c1-40(36,37)12-11-32-16-23-7-10-27(39-23)20-5-8-26-24(14-20)29(34-18-33-26)35-22-6-9-28(25(30)15-22)38-17-19-3-2-4-21(31)13-19/h2-10,13-15,18,32H,11-12,16-17H2,1H3,(H,33,34,35)
CH$LINK: CAS 231277-92-2
CH$LINK: INCHIKEY BCFGMOOMADDAQU-UHFFFAOYSA-N
AC$INSTRUMENT: TripleTOF 5600 SCIEX
AC$INSTRUMENT_TYPE: LC-ESI-QTOF
AC$MASS_SPECTROMETRY: MS_TYPE MS2
AC$MASS_SPECTROMETRY: ION_MODE NEGATIVE
AC$MASS_SPECTROMETRY: COLLISION_ENERGY 100
AC$MASS_SPECTROMETRY: FRAGMENTATION_MODE CID
AC$MASS_SPECTROMETRY: IONIZATION ESI
AC$CHROMATOGRAPHY: COLUMN_NAME Zorbax Eclipse Plus C18 2.1 mm x 150 mm, 3.5 um, Agilent
AC$CHROMATOGRAPHY: COLUMN_TEMPERATURE 40 °C
AC$CHROMATOGRAPHY: FLOW_GRADIENT 0 min min 98% A, 1 min 98% A, 2 min 80% A, 16.5 min 2% A, 22 min 2% A, 22.1 min 98% A, 27 min 98% A
AC$CHROMATOGRAPHY: FLOW_RATE 0.3 mL/min
AC$CHROMATOGRAPHY: RETENTION_TIME 8.263 min
AC$CHROMATOGRAPHY: SOLVENT A: Water 0.1% Formic acid, B: Acetonitrile 0.1% Formic acid
MS$FOCUSED_ION: PRECURSOR_M/Z 579.1275
MS$FOCUSED_ION: PRECURSOR_TYPE [M-H]-
MS$DATA_PROCESSING: COMMENT Export with Spectra 1.9.12 MsBackendMassbank 1.7.4
MS$DATA_PROCESSING: WHOLE RMassBank 2.3.1
PK$SPLASH: splash10-00di-0095000000-40637b93f89c6a3217dd
PK$NUM_PEAK: 22
PK$PEAK: m/z int. rel.int.
  192.0548 0.2 62
  220.0534 3.2 999
  233.0476 0.3 93
  242.0719 0.5 156
  244.0556 0.3 93
  256.0677 0.2 62
  257.0634 0.6 187
  268.0871 0.2 62
  270.0666 0.2 62
  271.0769 0.3 93
  282.0687 0.4 124
  284.0844 0.3 93
  310.0645 0.3 93
  318.0564 0.5 156
  319.0459 0.4 124
  346.042 1.1 343
  346.0571 0.3 93
  347.046 0.3 93
  348.0424 0.2 62
  360.0615 0.3 93
  361.0555 0.4 124
  362.055 0.3 93
//
