ACCESSION: MSBNK-BAFG-CSL23103015992
RECORD_TITLE: Prallethrin; LC-ESI-QTOF; MS2; 40 V
DATE: 2023.10.30
AUTHORS: Kevin S. Jewell; Björn Ehlig; Arne Wick
LICENSE: dl-de/by-2-0
COPYRIGHT: Copyright 2023 Federal Institute of Hydrology, Koblenz, Germany
COMMENT: CONFIDENCE Reference Standard (Level 1)
COMMENT: Chromatography method: dx.doi.org/10.1016/j.chroma.2015.11.014
COMMENT: Acquisition method: 10.1002/rcm.8541
CH$NAME: Prallethrin
CH$COMPOUND_CLASS: Insecticide
CH$FORMULA: C19H24O3
CH$EXACT_MASS: 300.1725
CH$SMILES: CC1=C(C(=O)CC1OC(=O)C2C(C2(C)C)C=C(C)C)CC#C
CH$IUPAC: InChI=1S/C19H24O3/c1-7-8-13-12(4)16(10-15(13)20)22-18(21)17-14(9-11(2)3)19(17,5)6/h1,9,14,16-17H,8,10H2,2-6H3
CH$LINK: CAS 23031-36-9
CH$LINK: INCHIKEY SMKRKQBMYOFFMU-UHFFFAOYSA-N
AC$INSTRUMENT: TripleTOF 6600 SCIEX
AC$INSTRUMENT_TYPE: LC-ESI-QTOF
AC$MASS_SPECTROMETRY: MS_TYPE MS2
AC$MASS_SPECTROMETRY: ION_MODE POSITIVE
AC$MASS_SPECTROMETRY: COLLISION_ENERGY 40
AC$MASS_SPECTROMETRY: FRAGMENTATION_MODE CID
AC$MASS_SPECTROMETRY: IONIZATION ESI
AC$CHROMATOGRAPHY: COLUMN_NAME Zorbax Eclipse Plus C18 2.1 mm x 150 mm, 3.5 um, Agilent
AC$CHROMATOGRAPHY: COLUMN_TEMPERATURE 40 °C
AC$CHROMATOGRAPHY: FLOW_GRADIENT 0 min min 98% A, 1 min 98% A, 2 min 80% A, 16.5 min 2% A, 22 min 2% A, 22.1 min 98% A, 27 min 98% A
AC$CHROMATOGRAPHY: FLOW_RATE 0.3 mL/min
AC$CHROMATOGRAPHY: RETENTION_TIME 14.861 min
AC$CHROMATOGRAPHY: SOLVENT A: Water 0.1% Formic acid, B: Acetonitrile 0.1% Formic acid
MS$FOCUSED_ION: PRECURSOR_M/Z 301.1798
MS$FOCUSED_ION: PRECURSOR_TYPE [M+H]+
MS$DATA_PROCESSING: COMMENT Export with Spectra 1.9.12 MsBackendMassbank 1.7.4
MS$DATA_PROCESSING: WHOLE RMassBank 2.3.1
PK$SPLASH: splash10-056r-9800000000-48a80092441a0faad512
PK$NUM_PEAK: 45
PK$PEAK: m/z int. rel.int.
  41.0392 2 27
  43.0183 1.2 16
  43.0545 1.6 22
  50.0152 0.7 9
  51.0229 2.7 37
  55.0181 5.9 81
  55.0543 2.8 38
  57.0702 2.1 29
  59.0493 1.5 20
  65.0387 1.5 20
  67.0554 6.6 91
  69.0701 6.1 84
  77.0388 45.3 627
  79.0547 61.2 847
  81.0703 31.8 440
  83.0496 0.8 11
  83.0856 1.7 23
  85.0651 1.8 24
  91.0547 4.9 67
  93.0696 3.1 42
  95.0495 2.8 38
  95.086 6.9 95
  101.0591 0.7 9
  103.0546 38.2 529
  105.045 1.6 22
  105.0703 72.1 999
  107.0493 0.8 11
  107.0855 1.4 19
  109.0649 3.8 52
  109.1029 1.4 19
  113.0606 1.7 23
  115.0548 5.7 78
  118.0415 1.3 18
  119.0865 1 13
  121.0647 2.5 34
  121.1021 4.1 56
  123.1168 24.7 342
  128.0625 0.7 9
  129.07 1.1 15
  131.0858 1.2 16
  133.0644 7.1 98
  133.1011 0.8 11
  143.0849 0.9 12
  151.1141 1.4 19
  156.0935 1 13
//
