ACCESSION: MSBNK-BAFG-CSL23103014943
RECORD_TITLE: Cyclopropyltriphenylphosphonium; LC-ESI-QTOF; MS2; 110 V
DATE: 2023.10.30
AUTHORS: Kevin S. Jewell; Björn Ehlig; Arne Wick
LICENSE: dl-de/by-2-0
COPYRIGHT: Copyright 2023 Federal Institute of Hydrology, Koblenz, Germany
COMMENT: CONFIDENCE Reference Standard (Level 1)
COMMENT: Chromatography method: dx.doi.org/10.1016/j.chroma.2015.11.014
COMMENT: Acquisition method: 10.1002/rcm.8541
CH$NAME: Cyclopropyltriphenylphosphonium
CH$FORMULA: [C21H20P]+
CH$EXACT_MASS: 303.1297
CH$SMILES: C1CC1[P+](C2=CC=CC=C2)(C3=CC=CC=C3)C4=CC=CC=C4
CH$IUPAC: InChI=1S/C21H20P/c1-4-10-18(11-5-1)22(21-16-17-21,19-12-6-2-7-13-19)20-14-8-3-9-15-20/h1-15,21H,16-17H2/q+1
CH$LINK: CAS 14114-05-7
CH$LINK: INCHIKEY UMOWYCSSGJQQHE-UHFFFAOYSA-N
AC$INSTRUMENT: TripleTOF 6600 SCIEX
AC$INSTRUMENT_TYPE: LC-ESI-QTOF
AC$MASS_SPECTROMETRY: MS_TYPE MS2
AC$MASS_SPECTROMETRY: ION_MODE POSITIVE
AC$MASS_SPECTROMETRY: COLLISION_ENERGY 110
AC$MASS_SPECTROMETRY: FRAGMENTATION_MODE CID
AC$MASS_SPECTROMETRY: IONIZATION ESI
AC$CHROMATOGRAPHY: COLUMN_NAME Zorbax Eclipse Plus C18 2.1 mm x 150 mm, 3.5 um, Agilent
AC$CHROMATOGRAPHY: COLUMN_TEMPERATURE 40 °C
AC$CHROMATOGRAPHY: FLOW_GRADIENT 0 min min 98% A, 1 min 98% A, 2 min 80% A, 16.5 min 2% A, 22 min 2% A, 22.1 min 98% A, 27 min 98% A
AC$CHROMATOGRAPHY: FLOW_RATE 0.3 mL/min
AC$CHROMATOGRAPHY: RETENTION_TIME 7.786 min
AC$CHROMATOGRAPHY: SOLVENT A: Water 0.1% Formic acid, B: Acetonitrile 0.1% Formic acid
MS$FOCUSED_ION: PRECURSOR_M/Z 303.1297
MS$FOCUSED_ION: PRECURSOR_TYPE [M]+
MS$DATA_PROCESSING: COMMENT Export with Spectra 1.9.12 MsBackendMassbank 1.7.4
MS$DATA_PROCESSING: WHOLE RMassBank 2.3.1
PK$SPLASH: splash10-0pb9-1900000000-d7d96eef49457fb79df0
PK$NUM_PEAK: 21
PK$PEAK: m/z int. rel.int.
  56.9929 37.1 67
  63.0268 50.8 92
  65.0424 65.5 119
  77.0416 40.2 73
  79.9842 60.8 110
  80.9918 91.5 166
  89.0409 97.8 178
  91.0565 50.4 91
  102.0489 39.2 71
  107.0071 547.8 999
  115.0566 249 454
  126.0487 73.4 133
  131.0064 31.8 57
  133.0223 48.8 88
  139.0566 139 253
  150.0482 48 87
  151.0564 161.8 295
  152.0647 447.2 815
  157.0223 223.6 407
  181.022 140.7 256
  183.0373 94.7 172
//
