ACCESSION: MSBNK-BAFG-CSL23103013011
RECORD_TITLE: Flavanone; LC-ESI-QTOF; MS2; 100 V
DATE: 2023.10.30
AUTHORS: Kevin S. Jewell; Björn Ehlig; Arne Wick
LICENSE: dl-de/by-2-0
COPYRIGHT: Copyright 2023 Federal Institute of Hydrology, Koblenz, Germany
COMMENT: CONFIDENCE Reference Standard (Level 1)
COMMENT: Chromatography method: dx.doi.org/10.1016/j.chroma.2015.11.014
COMMENT: Acquisition method: 10.1002/rcm.8541
CH$NAME: Flavanone
CH$COMPOUND_CLASS: Personal_care_product
CH$FORMULA: C15H12O2
CH$EXACT_MASS: 224.0837
CH$SMILES: C1C(OC2=CC=CC=C2C1=O)C3=CC=CC=C3
CH$IUPAC: InChI=1S/C15H12O2/c16-13-10-15(11-6-2-1-3-7-11)17-14-9-5-4-8-12(13)14/h1-9,15H,10H2
CH$LINK: CAS 487-26-3
CH$LINK: INCHIKEY ZONYXWQDUYMKFB-UHFFFAOYSA-N
AC$INSTRUMENT: TripleTOF 5600 SCIEX
AC$INSTRUMENT_TYPE: LC-ESI-QTOF
AC$MASS_SPECTROMETRY: MS_TYPE MS2
AC$MASS_SPECTROMETRY: ION_MODE POSITIVE
AC$MASS_SPECTROMETRY: COLLISION_ENERGY 100
AC$MASS_SPECTROMETRY: FRAGMENTATION_MODE CID
AC$MASS_SPECTROMETRY: IONIZATION ESI
AC$CHROMATOGRAPHY: COLUMN_NAME Zorbax Eclipse Plus C18 2.1 mm x 150 mm, 3.5 um, Agilent
AC$CHROMATOGRAPHY: COLUMN_TEMPERATURE 40 °C
AC$CHROMATOGRAPHY: FLOW_GRADIENT 0 min min 98% A, 1 min 98% A, 2 min 80% A, 16.5 min 2% A, 22 min 2% A, 22.1 min 98% A, 27 min 98% A
AC$CHROMATOGRAPHY: FLOW_RATE 0.3 mL/min
AC$CHROMATOGRAPHY: RETENTION_TIME 12.61 min
AC$CHROMATOGRAPHY: SOLVENT A: Water 0.1% Formic acid, B: Acetonitrile 0.1% Formic acid
MS$FOCUSED_ION: PRECURSOR_M/Z 225.091
MS$FOCUSED_ION: PRECURSOR_TYPE [M+H]+
MS$DATA_PROCESSING: COMMENT Export with Spectra 1.9.12 MsBackendMassbank 1.7.4
MS$DATA_PROCESSING: WHOLE RMassBank 2.3.1
PK$SPLASH: splash10-0ufr-9200000000-a0ac0050d9a8f40dae50
PK$NUM_PEAK: 22
PK$PEAK: m/z int. rel.int.
  37.0065 0.9 99
  38.0148 1.1 122
  39.0228 3.6 399
  50.015 1.8 199
  51.0229 8.3 921
  53.0024 0.4 44
  62.0128 0.5 55
  63.024 0.8 88
  65.0385 3.1 344
  74.0154 1.7 188
  75.023 1.2 133
  76.0318 0.5 55
  77.0385 9 999
  98.0146 0.5 55
  102.0465 1.2 133
  126.0459 0.9 99
  127.051 0.5 55
  149.0406 0.8 88
  150.0469 3.3 366
  151.0545 2.2 244
  152.0629 1.3 144
  176.0618 0.7 77
//
