ACCESSION: MSBNK-BAFG-CSL2310263191
RECORD_TITLE: Dimethomorph; LC-ESI-QTOF; MS2; 40 V
DATE: 2023.10.26
AUTHORS: Kevin S. Jewell; Björn Ehlig; Arne Wick
LICENSE: dl-de/by-2-0
COPYRIGHT: Copyright 2023 Federal Institute of Hydrology, Koblenz, Germany
COMMENT: CONFIDENCE Reference Standard (Level 1)
COMMENT: Chromatography method: dx.doi.org/10.1016/j.chroma.2015.11.014
COMMENT: Acquisition method: 10.1002/rcm.8541
CH$NAME: Dimethomorph
CH$COMPOUND_CLASS: Fungicide
CH$FORMULA: C21H22ClNO4
CH$EXACT_MASS: 387.1237
CH$SMILES: COc1ccc(cc1OC)/C(=C\C(=O)N2CCOCC2)/c3ccc(cc3)Cl
CH$IUPAC: InChI=1S/C21H22ClNO4/c1-25-19-8-5-16(13-20(19)26-2)18(15-3-6-17(22)7-4-15)14-21(24)23-9-11-27-12-10-23/h3-8,13-14H,9-12H2,1-2H3/b18-14-
CH$LINK: CAS 110488-70-5
CH$LINK: INCHIKEY QNBTYORWCCMPQP-JXAWBTAJSA-N
AC$INSTRUMENT: TripleTOF 5600 SCIEX
AC$INSTRUMENT_TYPE: LC-ESI-QTOF
AC$MASS_SPECTROMETRY: MS_TYPE MS2
AC$MASS_SPECTROMETRY: ION_MODE POSITIVE
AC$MASS_SPECTROMETRY: COLLISION_ENERGY 40
AC$MASS_SPECTROMETRY: FRAGMENTATION_MODE CID
AC$MASS_SPECTROMETRY: IONIZATION ESI
AC$CHROMATOGRAPHY: COLUMN_NAME Zorbax Eclipse Plus C18 2.1 mm x 150 mm, 3.5 um, Agilent
AC$CHROMATOGRAPHY: COLUMN_TEMPERATURE 40 °C
AC$CHROMATOGRAPHY: FLOW_GRADIENT 0 min min 98% A, 1 min 98% A, 2 min 80% A, 16.5 min 2% A, 22 min 2% A, 22.1 min 98% A, 27 min 98% A
AC$CHROMATOGRAPHY: FLOW_RATE 0.3 mL/min
AC$CHROMATOGRAPHY: RETENTION_TIME 11.552 min
AC$CHROMATOGRAPHY: SOLVENT A: Water 0.1% Formic acid, B: Acetonitrile 0.1% Formic acid
MS$FOCUSED_ION: PRECURSOR_M/Z 388.131
MS$FOCUSED_ION: PRECURSOR_TYPE [M+H]+
MS$DATA_PROCESSING: COMMENT Export with Spectra 1.9.12 MsBackendMassbank 1.7.4
MS$DATA_PROCESSING: WHOLE RMassBank 2.3.1
PK$SPLASH: splash10-0uxr-0978000000-c620fc4718aa5e545308
PK$NUM_PEAK: 33
PK$PEAK: m/z int. rel.int.
  70.0315 9.9 44
  77.0409 2.3 10
  110.9995 6.2 27
  114.0542 12 53
  122.0361 4.4 19
  125.0147 10.9 48
  137.0588 12.2 54
  138.9945 47.6 212
  152.062 2.8 12
  165.0547 173.9 774
  167.0847 4.1 18
  178.0758 2.6 11
  195.0795 7.5 33
  199.0302 4.4 19
  212.0371 2.4 10
  215.0249 10.3 45
  223.0755 11.4 50
  227.0256 9.6 42
  228.0328 2.6 11
  229.0399 4.2 18
  235.0765 4.3 19
  238.0985 14.7 65
  241.0409 2.6 11
  242.0485 36.1 160
  243.0204 20.1 89
  257.0344 7.4 32
  258.0434 36.4 162
  266.0915 5.3 23
  270.0434 8 35
  273.0673 51.4 229
  286.0387 7.5 33
  301.0621 224.2 999
  388.1304 51.6 229
//
