ACCESSION: MSBNK-BAFG-CSL231026622
RECORD_TITLE: Ethyl-hexadecyl-dimethylammonium; LC-ESI-QTOF; MS2; 90 V
DATE: 2023.10.26
AUTHORS: Kevin S. Jewell; Björn Ehlig; Arne Wick
LICENSE: dl-de/by-2-0
COPYRIGHT: Copyright 2023 Federal Institute of Hydrology, Koblenz, Germany
COMMENT: CONFIDENCE Reference Standard (Level 1)
COMMENT: Chromatography method: dx.doi.org/10.1016/j.chroma.2015.11.014
COMMENT: Acquisition method: 10.1002/rcm.8541
CH$NAME: Ethyl-hexadecyl-dimethylammonium
CH$COMPOUND_CLASS: Antimicrobial
CH$FORMULA: [C20H44N]+
CH$EXACT_MASS: 298.3468
CH$SMILES: CCCCCCCCCCCCCCCC[N+](C)(C)CC
CH$IUPAC: InChI=1S/C20H44N/c1-5-7-8-9-10-11-12-13-14-15-16-17-18-19-20-21(3,4)6-2/h5-20H2,1-4H3/q+1
CH$LINK: CAS 10328-33-3
CH$LINK: INCHIKEY VCAVAURZPNANDQ-UHFFFAOYSA-N
AC$INSTRUMENT: TripleTOF 5600 SCIEX
AC$INSTRUMENT_TYPE: LC-ESI-QTOF
AC$MASS_SPECTROMETRY: MS_TYPE MS2
AC$MASS_SPECTROMETRY: ION_MODE POSITIVE
AC$MASS_SPECTROMETRY: COLLISION_ENERGY 90
AC$MASS_SPECTROMETRY: FRAGMENTATION_MODE CID
AC$MASS_SPECTROMETRY: IONIZATION ESI
AC$CHROMATOGRAPHY: COLUMN_NAME Zorbax Eclipse Plus C18 2.1 mm x 150 mm, 3.5 um, Agilent
AC$CHROMATOGRAPHY: COLUMN_TEMPERATURE 40 °C
AC$CHROMATOGRAPHY: FLOW_GRADIENT 0 min min 98% A, 1 min 98% A, 2 min 80% A, 16.5 min 2% A, 22 min 2% A, 22.1 min 98% A, 27 min 98% A
AC$CHROMATOGRAPHY: FLOW_RATE 0.3 mL/min
AC$CHROMATOGRAPHY: RETENTION_TIME 13.03 min
AC$CHROMATOGRAPHY: SOLVENT A: Water 0.1% Formic acid, B: Acetonitrile 0.1% Formic acid
MS$FOCUSED_ION: PRECURSOR_M/Z 298.3468
MS$FOCUSED_ION: PRECURSOR_TYPE [M]+
MS$DATA_PROCESSING: COMMENT Export with Spectra 1.9.12 MsBackendMassbank 1.7.4
MS$DATA_PROCESSING: WHOLE RMassBank 2.3.1
PK$SPLASH: splash10-0ab9-9000000000-e61114b7ed9f57826a9e
PK$NUM_PEAK: 4
PK$PEAK: m/z int. rel.int.
  57.0756 1 69
  58.0706 14.4 999
  72.0837 4.6 319
  74.0988 4.7 326
//
