ACCESSION: MSBNK-BAFG-CSL23111010865
RECORD_TITLE: Beclomethasone; LC-ESI-QTOF; MS2; 120 V
DATE: 2023.11.10
AUTHORS: Kevin S. Jewell; Björn Ehlig; Arne Wick
LICENSE: dl-de/by-2-0
COPYRIGHT: Copyright 2023 Federal Institute of Hydrology, Koblenz, Germany
COMMENT: CONFIDENCE Reference Standard (Level 1)
COMMENT: Chromatography method: dx.doi.org/10.1016/j.chroma.2015.11.014
COMMENT: Acquisition method: 10.1002/rcm.8541
CH$NAME: Beclomethasone
CH$COMPOUND_CLASS: Pharmaceutical
CH$FORMULA: C22H29ClO5
CH$EXACT_MASS: 408.1704
CH$SMILES: CC1CC2C3CCC4=CC(=O)C=CC4(C3(C(CC2(C1(C(=O)CO)O)C)O)Cl)C
CH$IUPAC: InChI=1S/C22H29ClO5/c1-12-8-16-15-5-4-13-9-14(25)6-7-19(13,2)21(15,23)17(26)10-20(16,3)22(12,28)18(27)11-24/h6-7,9,12,15-17,24,26,28H,4-5,8,10-11H2,1-3H3
CH$LINK: CAS 4419-39-0
CH$LINK: INCHIKEY NBMKJKDGKREAPL-UHFFFAOYSA-N
AC$INSTRUMENT: TripleTOF 5600 SCIEX
AC$INSTRUMENT_TYPE: LC-ESI-QTOF
AC$MASS_SPECTROMETRY: MS_TYPE MS2
AC$MASS_SPECTROMETRY: ION_MODE POSITIVE
AC$MASS_SPECTROMETRY: COLLISION_ENERGY 120
AC$MASS_SPECTROMETRY: FRAGMENTATION_MODE CID
AC$MASS_SPECTROMETRY: IONIZATION ESI
AC$CHROMATOGRAPHY: COLUMN_NAME Zorbax Eclipse Plus C18 2.1 mm x 150 mm, 3.5 um, Agilent
AC$CHROMATOGRAPHY: COLUMN_TEMPERATURE 40 °C
AC$CHROMATOGRAPHY: FLOW_GRADIENT 0 min min 98% A, 1 min 98% A, 2 min 80% A, 16.5 min 2% A, 22 min 2% A, 22.1 min 98% A, 27 min 98% A
AC$CHROMATOGRAPHY: FLOW_RATE 0.3 mL/min
AC$CHROMATOGRAPHY: RETENTION_TIME 9.326 min
AC$CHROMATOGRAPHY: SOLVENT A: Water 0.1% Formic acid, B: Acetonitrile 0.1% Formic acid
MS$FOCUSED_ION: PRECURSOR_M/Z 409.1776
MS$FOCUSED_ION: PRECURSOR_TYPE [M+H]+
MS$DATA_PROCESSING: COMMENT Export with Spectra 1.9.12 MsBackendMassbank 1.7.4
MS$DATA_PROCESSING: WHOLE RMassBank 2.3.1
PK$SPLASH: splash10-00or-2910000000-9560d46753ce2855d6c0
PK$NUM_PEAK: 37
PK$PEAK: m/z int. rel.int.
  43.0175 0.5 134
  51.0227 0.6 161
  65.0383 1 269
  77.0384 3.3 890
  91.0543 3.7 999
  102.0456 1.1 297
  103.053 0.9 242
  105.07 0.5 134
  115.0538 3.1 837
  117.0694 0.6 161
  121.0638 0.8 216
  127.0533 1.1 297
  128.0621 2.4 647
  129.0693 0.5 134
  131.0504 0.8 216
  139.0552 0.4 108
  141.0701 1 269
  144.0568 0.5 134
  151.0541 1 269
  152.0607 2.3 620
  153.0707 1 269
  164.0627 0.6 161
  165.0695 3 809
  176.0614 0.7 188
  178.0769 1.9 513
  179.0816 0.5 134
  189.0679 2.6 702
  190.0806 0.8 216
  191.0879 0.7 188
  202.0795 1.4 377
  203.0862 0.5 134
  205.0626 0.6 161
  213.0736 0.6 161
  215.0843 1.3 351
  226.0704 0.6 161
  229.1014 0.5 134
  231.0808 0.6 161
//
