ACCESSION: MSBNK-BAFG-CSL23103017161
RECORD_TITLE: 6PPD-quinone; LC-ESI-QTOF; MS2; 40 V
DATE: 2023.10.30
AUTHORS: Kevin S. Jewell; Björn Ehlig; Arne Wick
LICENSE: dl-de/by-2-0
COPYRIGHT: Copyright 2023 Federal Institute of Hydrology, Koblenz, Germany
COMMENT: CONFIDENCE Reference Standard (Level 1)
COMMENT: Chromatography method: dx.doi.org/10.1016/j.chroma.2015.11.014
COMMENT: Acquisition method: 10.1002/rcm.8541
CH$NAME: 6PPD-quinone
CH$COMPOUND_CLASS: Industrial_process
CH$FORMULA: C18H22N2O2
CH$EXACT_MASS: 298.1681
CH$SMILES: CC(C)CC(C)NC1=CC(=O)C(=CC1=O)NC2=CC=CC=C2
CH$IUPAC: InChI=1S/C18H22N2O2/c1-12(2)9-13(3)19-15-10-18(22)16(11-17(15)21)20-14-7-5-4-6-8-14/h4-8,10-13,19-20H,9H2,1-3H3
CH$LINK: CAS NA
CH$LINK: INCHIKEY UBMGKRIXKUIXFQ-UHFFFAOYSA-N
AC$INSTRUMENT: TripleTOF 6600 SCIEX
AC$INSTRUMENT_TYPE: LC-ESI-QTOF
AC$MASS_SPECTROMETRY: MS_TYPE MS2
AC$MASS_SPECTROMETRY: ION_MODE POSITIVE
AC$MASS_SPECTROMETRY: COLLISION_ENERGY 40
AC$MASS_SPECTROMETRY: FRAGMENTATION_MODE CID
AC$MASS_SPECTROMETRY: IONIZATION ESI
AC$CHROMATOGRAPHY: COLUMN_NAME Zorbax Eclipse Plus C18 2.1 mm x 150 mm, 3.5 um, Agilent
AC$CHROMATOGRAPHY: COLUMN_TEMPERATURE 40 °C
AC$CHROMATOGRAPHY: FLOW_GRADIENT 0 min min 98% A, 1 min 98% A, 2 min 80% A, 16.5 min 2% A, 22 min 2% A, 22.1 min 98% A, 27 min 98% A
AC$CHROMATOGRAPHY: FLOW_RATE 0.3 mL/min
AC$CHROMATOGRAPHY: RETENTION_TIME 13.951 min
AC$CHROMATOGRAPHY: SOLVENT A: Water 0.1% Formic acid, B: Acetonitrile 0.1% Formic acid
MS$FOCUSED_ION: PRECURSOR_M/Z 299.1754
MS$FOCUSED_ION: PRECURSOR_TYPE [M+H]+
MS$DATA_PROCESSING: COMMENT Export with Spectra 1.9.12 MsBackendMassbank 1.7.4
MS$DATA_PROCESSING: WHOLE RMassBank 2.3.1
PK$SPLASH: splash10-000f-0690000000-3f939a40b36241da3dc8
PK$NUM_PEAK: 41
PK$PEAK: m/z int. rel.int.
  41.0386 0.5 11
  43.0545 1.3 29
  55.018 0.5 11
  57.0698 0.5 11
  77.0383 1.1 24
  84.0435 1.3 29
  93.0569 0.7 15
  94.0647 1 22
  104.049 2 45
  115.0536 0.8 18
  118.0645 1.2 27
  120.0807 0.7 15
  128.0487 0.8 18
  142.065 1.2 27
  143.0732 1 22
  144.0802 0.8 18
  146.0592 1.8 40
  154.0638 1.2 27
  158.082 0.7 15
  159.0918 1.1 24
  170.0592 3.1 70
  172.0755 2.3 52
  182.0581 0.5 11
  187.0861 31.3 710
  198.0535 0.6 13
  199.0609 0.6 13
  199.0857 0.8 18
  200.0707 4.1 93
  201.0771 1 22
  213.102 0.5 11
  214.0727 1.1 24
  214.0856 0.5 11
  215.0813 6.6 149
  216.088 2.3 52
  226.0731 0.6 13
  227.0808 1.3 29
  241.0974 44 999
  243.1141 1.5 34
  256.1198 4.2 95
  257.1291 0.5 11
  299.1746 5 113
//
