ACCESSION: MSBNK-BAFG-CSL2501066155
RECORD_TITLE: Alpha-hydroxy-metoprolol; LC-ESI-QTOF; MS2; 90 V
DATE: 2025.01.06
AUTHORS: Ole Lessmann; Kevin S. Jewell; Björn Ehlig; Arne Wick
LICENSE: dl-de/by-2-0
COPYRIGHT: Copyright 2025 Federal Institute of Hydrology, Koblenz, Germany
COMMENT: CONFIDENCE Reference Standard (Level 1)
COMMENT: Chromatography method: dx.doi.org/10.1016/j.chroma.2015.11.014
COMMENT: Acquisition method: 10.1002/rcm.8541
CH$NAME: Alpha-hydroxy-metoprolol
CH$COMPOUND_CLASS: Pharmaceutical; Metabolite; Transformation_product-Metabolite
CH$FORMULA: C15H25NO4
CH$EXACT_MASS: 283.1784
CH$SMILES: COCC(O)c1ccc(OCC(O)CNC(C)C)cc1
CH$IUPAC: InChI=1S/C15H25NO4/c1-11(2)16-8-13(17)9-20-14-6-4-12(5-7-14)15(18)10-19-3/h4-7,11,13,15-18H,8-10H2,1-3H3
CH$LINK: CAS 56392-16-6
CH$LINK: INCHIKEY OFRYBPCSEMMZHR-UHFFFAOYSA-N
AC$INSTRUMENT: TripleTOF 5600 SCIEX
AC$INSTRUMENT_TYPE: LC-ESI-QTOF
AC$MASS_SPECTROMETRY: MS_TYPE MS2
AC$MASS_SPECTROMETRY: ION_MODE POSITIVE
AC$MASS_SPECTROMETRY: COLLISION_ENERGY 90
AC$MASS_SPECTROMETRY: FRAGMENTATION_MODE CID
AC$MASS_SPECTROMETRY: IONIZATION ESI
AC$CHROMATOGRAPHY: COLUMN_NAME Zorbax Eclipse Plus C18 2.1 mm x 150 mm, 3.5 um, Agilent
AC$CHROMATOGRAPHY: COLUMN_TEMPERATURE 40 °C
AC$CHROMATOGRAPHY: FLOW_GRADIENT 0 min min 98% A, 1 min 98% A, 2 min 80% A, 16.5 min 2% A, 22 min 2% A, 22.1 min 98% A, 27 min 98% A
AC$CHROMATOGRAPHY: FLOW_RATE 0.3 mL/min
AC$CHROMATOGRAPHY: RETENTION_TIME 5.057 min
AC$CHROMATOGRAPHY: SOLVENT A: Water 0.1% Formic acid, B: Acetonitrile 0.1% Formic acid
MS$FOCUSED_ION: PRECURSOR_M/Z 284.1856
MS$FOCUSED_ION: PRECURSOR_TYPE [M+H]+
MS$DATA_PROCESSING: COMMENT Export with pycsl 0.1.0.dev1 and CSL 24.4
PK$SPLASH: splash10-004i-9200000000-7dfd41f162e2c1c6b24b
PK$NUM_PEAK: 29
PK$PEAK: m/z int. rel.int.
  43.0279 1.0 13
  44.0597 0.8 10
  45.044 3.1 41
  56.0562 11.1 149
  58.0705 3.6 48
  65.0435 21.5 289
  72.0849 1.4 18
  74.0638 2.8 37
  75.0252 1.3 17
  77.0421 74.1 999
  78.0491 15.8 213
  79.0569 8.7 117
  89.0403 11.8 159
  90.0477 5.3 71
  91.0561 42.0 566
  100.1142 0.9 12
  102.0473 2.5 33
  103.0544 8.4 113
  105.0335 10.2 137
  105.0701 2.5 33
  106.0415 4.3 57
  107.0504 3.7 49
  115.0543 6.5 87
  118.0413 2.0 26
  119.0503 1.4 18
  127.0544 2.5 33
  128.0621 5.6 75
  131.0504 1.5 20
  147.0492 1.3 17
//