ACCESSION: MSBNK-BAFG-CSL23102514883
RECORD_TITLE: 2,6-Dimethylquinoline; LC-ESI-QTOF; MS2; 140 V
DATE: 2023.10.25
AUTHORS: Kevin S. Jewell; Björn Ehlig; Arne Wick
LICENSE: dl-de/by-2-0
COPYRIGHT: Copyright 2023 Federal Institute of Hydrology, Koblenz, Germany
COMMENT: CONFIDENCE Reference Standard (Level 1)
COMMENT: Chromatography method: dx.doi.org/10.1016/j.chroma.2015.11.014
COMMENT: Acquisition method: 10.1002/rcm.8541
CH$NAME: 2,6-Dimethylquinoline
CH$FORMULA: C11H11N
CH$EXACT_MASS: 157.0891
CH$SMILES: CC1=CC2=C(C=C1)N=C(C=C2)C
CH$IUPAC: InChI=1S/C11H11N/c1-8-3-6-11-10(7-8)5-4-9(2)12-11/h3-7H,1-2H3
CH$LINK: CAS 877-43-0
CH$LINK: INCHIKEY JJPSZKIOGBRMHK-UHFFFAOYSA-N
AC$INSTRUMENT: TripleTOF 6600 SCIEX
AC$INSTRUMENT_TYPE: LC-ESI-QTOF
AC$MASS_SPECTROMETRY: MS_TYPE MS2
AC$MASS_SPECTROMETRY: ION_MODE POSITIVE
AC$MASS_SPECTROMETRY: COLLISION_ENERGY 140
AC$MASS_SPECTROMETRY: FRAGMENTATION_MODE CID
AC$MASS_SPECTROMETRY: IONIZATION ESI
AC$CHROMATOGRAPHY: COLUMN_NAME Zorbax Eclipse Plus C18 2.1 mm x 150 mm, 3.5 um, Agilent
AC$CHROMATOGRAPHY: COLUMN_TEMPERATURE 40 °C
AC$CHROMATOGRAPHY: FLOW_GRADIENT 0 min min 98% A, 1 min 98% A, 2 min 80% A, 16.5 min 2% A, 22 min 2% A, 22.1 min 98% A, 27 min 98% A
AC$CHROMATOGRAPHY: FLOW_RATE 0.3 mL/min
AC$CHROMATOGRAPHY: RETENTION_TIME 5.162 min
AC$CHROMATOGRAPHY: SOLVENT A: Water 0.1% Formic acid, B: Acetonitrile 0.1% Formic acid
MS$FOCUSED_ION: PRECURSOR_M/Z 158.0964
MS$FOCUSED_ION: PRECURSOR_TYPE [M+H]+
MS$DATA_PROCESSING: COMMENT Export with Spectra 1.9.12 MsBackendMassbank 1.7.4
MS$DATA_PROCESSING: WHOLE RMassBank 2.3.1
PK$SPLASH: splash10-0gw0-9000000000-ff8e6b8b083bb6c0d7bb
PK$NUM_PEAK: 21
PK$PEAK: m/z int. rel.int.
  35.999 3.5 219
  37.0072 14.8 929
  38.0027 0.9 56
  38.0147 5.7 358
  39.0228 5.5 345
  49.0071 9 565
  50.0146 15.9 999
  51.0091 0.6 37
  51.022 2.1 131
  52.0175 0.5 31
  59.999 2.4 150
  61.0068 12.9 810
  62.0144 8 502
  63.0218 1.9 119
  73.0065 3.7 232
  74.0145 7.2 452
  75.0213 0.5 31
  77.0134 0.5 31
  83.9986 0.9 56
  85.0061 1.6 100
  86.0134 1.1 69
//
