ACCESSION: MSBNK-BAFG-CSL23103019014
RECORD_TITLE: Acetochlor; LC-ESI-QTOF; MS2; 80 V
DATE: 2023.10.30
AUTHORS: Kevin S. Jewell; Björn Ehlig; Arne Wick
LICENSE: dl-de/by-2-0
COPYRIGHT: Copyright 2023 Federal Institute of Hydrology, Koblenz, Germany
COMMENT: CONFIDENCE Reference Standard (Level 1)
COMMENT: Chromatography method: dx.doi.org/10.1016/j.chroma.2015.11.014
COMMENT: Acquisition method: 10.1002/rcm.8541
CH$NAME: Acetochlor
CH$COMPOUND_CLASS: Herbicide
CH$FORMULA: C14H20ClNO2
CH$EXACT_MASS: 269.1183
CH$SMILES: CCC1=CC=CC(=C1N(COCC)C(=O)CCl)C
CH$IUPAC: InChI=1S/C14H20ClNO2/c1-4-12-8-6-7-11(3)14(12)16(10-18-5-2)13(17)9-15/h6-8H,4-5,9-10H2,1-3H3
CH$LINK: CAS 34256-82-1
CH$LINK: INCHIKEY VTNQPKFIQCLBDU-UHFFFAOYSA-N
AC$INSTRUMENT: TripleTOF 6600 SCIEX
AC$INSTRUMENT_TYPE: LC-ESI-QTOF
AC$MASS_SPECTROMETRY: MS_TYPE MS2
AC$MASS_SPECTROMETRY: ION_MODE POSITIVE
AC$MASS_SPECTROMETRY: COLLISION_ENERGY 80
AC$MASS_SPECTROMETRY: FRAGMENTATION_MODE CID
AC$MASS_SPECTROMETRY: IONIZATION ESI
AC$CHROMATOGRAPHY: COLUMN_NAME Zorbax Eclipse Plus C18 2.1 mm x 150 mm, 3.5 um, Agilent
AC$CHROMATOGRAPHY: COLUMN_TEMPERATURE 40 °C
AC$CHROMATOGRAPHY: FLOW_GRADIENT 0 min min 98% A, 1 min 98% A, 2 min 80% A, 16.5 min 2% A, 22 min 2% A, 22.1 min 98% A, 27 min 98% A
AC$CHROMATOGRAPHY: FLOW_RATE 0.3 mL/min
AC$CHROMATOGRAPHY: RETENTION_TIME 13.251 min
AC$CHROMATOGRAPHY: SOLVENT A: Water 0.1% Formic acid, B: Acetonitrile 0.1% Formic acid
MS$FOCUSED_ION: PRECURSOR_M/Z 270.1255
MS$FOCUSED_ION: PRECURSOR_TYPE [M+H]+
MS$DATA_PROCESSING: COMMENT Export with Spectra 1.9.12 MsBackendMassbank 1.7.4
MS$DATA_PROCESSING: WHOLE RMassBank 2.3.1
PK$SPLASH: splash10-0159-4900000000-1757d871ab515545f446
PK$NUM_PEAK: 30
PK$PEAK: m/z int. rel.int.
  31.0175 1.6 142
  39.0221 0.6 53
  41.038 0.4 35
  45.0329 1.7 151
  48.9832 1.7 151
  65.0382 1.1 98
  77.0374 3.4 303
  79.0528 0.8 71
  89.0366 0.9 80
  90.0447 1.6 142
  91.0529 4.5 401
  93.0582 0.5 44
  103.0537 1.3 115
  104.0489 0.5 44
  105.0695 2 178
  106.0624 0.9 80
  115.0524 3.5 312
  116.052 0.6 53
  117.0557 11.2 999
  118.0628 2.3 205
  119.076 1 89
  127.0524 0.8 71
  128.0601 1.6 142
  130.0637 2.8 249
  131.0735 0.9 80
  132.0797 6.7 597
  133.0886 0.8 71
  143.0714 0.8 71
  146.0932 1.5 133
  156.0761 0.5 44
//
