ACCESSION: MSBNK-BAFG-CSL25010627295
RECORD_TITLE: Methiocarb; LC-ESI-QTOF; MS2; 90 V
DATE: 2025.01.06
AUTHORS: Ole Lessmann; Kevin S. Jewell; Björn Ehlig; Arne Wick
LICENSE: dl-de/by-2-0
COPYRIGHT: Copyright 2025 Federal Institute of Hydrology, Koblenz, Germany
COMMENT: CONFIDENCE Reference Standard (Level 1)
COMMENT: Chromatography method: dx.doi.org/10.1016/j.chroma.2015.11.014
COMMENT: Acquisition method: 10.1002/rcm.8541
CH$NAME: Methiocarb
CH$COMPOUND_CLASS: Acaricide; Insecticide
CH$FORMULA: C11H15NO2S
CH$EXACT_MASS: 225.0823
CH$SMILES: Cc1cc(cc(c1SC)C)OC(=O)NC
CH$IUPAC: InChI=1S/C11H15NO2S/c1-7-5-9(14-11(13)12-3)6-8(2)10(7)15-4/h5-6H,1-4H3,(H,12,13)
CH$LINK: CAS 2032-65-7
CH$LINK: INCHIKEY YFBPRJGDJKVWAH-UHFFFAOYSA-N
AC$INSTRUMENT: TripleTOF 6600 SCIEX
AC$INSTRUMENT_TYPE: LC-ESI-QTOF
AC$MASS_SPECTROMETRY: MS_TYPE MS2
AC$MASS_SPECTROMETRY: ION_MODE POSITIVE
AC$MASS_SPECTROMETRY: COLLISION_ENERGY 90
AC$MASS_SPECTROMETRY: FRAGMENTATION_MODE CID
AC$MASS_SPECTROMETRY: IONIZATION ESI
AC$CHROMATOGRAPHY: COLUMN_NAME Zorbax Eclipse Plus C18 2.1 mm x 150 mm, 3.5 um, Agilent
AC$CHROMATOGRAPHY: COLUMN_TEMPERATURE 40 °C
AC$CHROMATOGRAPHY: FLOW_GRADIENT 0 min min 98% A, 1 min 98% A, 2 min 80% A, 16.5 min 2% A, 22 min 2% A, 22.1 min 98% A, 27 min 98% A
AC$CHROMATOGRAPHY: FLOW_RATE 0.3 mL/min
AC$CHROMATOGRAPHY: RETENTION_TIME 11.34614 min
AC$CHROMATOGRAPHY: SOLVENT A: Water 0.1% Formic acid, B: Acetonitrile 0.1% Formic acid
MS$FOCUSED_ION: PRECURSOR_M/Z 226.0896
MS$FOCUSED_ION: PRECURSOR_TYPE [M+H]+
MS$DATA_PROCESSING: COMMENT Export with pycsl 0.1.0.dev1 and CSL 24.4
PK$SPLASH: splash10-0fb9-9000000000-bea82c10ebd1e45e657d
PK$NUM_PEAK: 31
PK$PEAK: m/z int. rel.int.
  37.0058 1.9 41
  38.0129 1.3 28
  39.0206 7.6 165
  41.0361 1.6 34
  44.9772 2.5 54
  49.0046 0.9 19
  50.0128 8.1 175
  51.0207 30.8 668
  52.028 1.2 26
  53.0366 2.8 60
  55.0158 1.3 28
  61.0063 0.5 10
  62.0124 0.7 15
  63.0204 1.8 39
  65.0363 9.5 206
  67.0534 0.9 19
  68.9758 0.9 19
  74.0129 0.6 13
  77.0358 46.0 999
  78.0443 4.9 106
  79.0519 3.6 78
  81.032 1.1 23
  89.0364 1.0 21
  91.0514 10.0 217
  103.0514 1.4 30
  105.0411 1.1 23
  107.0463 4.9 106
  121.0095 0.5 10
  121.0623 1.2 26
  134.0147 1.1 23
  135.0232 0.6 13
//