ACCESSION: MSBNK-BAFG-CSL23110916839
RECORD_TITLE: Bis(2,4,4-trimethylpentyl)phosphinic acid; LC-ESI-QTOF; MS2; 150 V
DATE: 2023.11.09
AUTHORS: Kevin S. Jewell; Björn Ehlig; Arne Wick
LICENSE: dl-de/by-2-0
COPYRIGHT: Copyright 2023 Federal Institute of Hydrology, Koblenz, Germany
COMMENT: CONFIDENCE Reference Standard (Level 1)
COMMENT: Chromatography method: dx.doi.org/10.1016/j.chroma.2015.11.014
COMMENT: Acquisition method: 10.1002/rcm.8541
CH$NAME: Bis(2,4,4-trimethylpentyl)phosphinic acid
CH$COMPOUND_CLASS: Industrial_process
CH$FORMULA: C16H35O2P
CH$EXACT_MASS: 290.2375
CH$SMILES: CC(CC(C)(C)C)CP(=O)(CC(C)CC(C)(C)C)O
CH$IUPAC: InChI=1S/C16H35O2P/c1-13(9-15(3,4)5)11-19(17,18)12-14(2)10-16(6,7)8/h13-14H,9-12H2,1-8H3,(H,17,18)
CH$LINK: CAS 83411-71-6
CH$LINK: INCHIKEY QUXFOKCUIZCKGS-UHFFFAOYSA-N
AC$INSTRUMENT: TripleTOF 6600 SCIEX
AC$INSTRUMENT_TYPE: LC-ESI-QTOF
AC$MASS_SPECTROMETRY: MS_TYPE MS2
AC$MASS_SPECTROMETRY: ION_MODE POSITIVE
AC$MASS_SPECTROMETRY: COLLISION_ENERGY 150
AC$MASS_SPECTROMETRY: FRAGMENTATION_MODE CID
AC$MASS_SPECTROMETRY: IONIZATION ESI
AC$CHROMATOGRAPHY: COLUMN_NAME Zorbax Eclipse Plus C18 2.1 mm x 150 mm, 3.5 um, Agilent
AC$CHROMATOGRAPHY: COLUMN_TEMPERATURE 40 °C
AC$CHROMATOGRAPHY: FLOW_GRADIENT 0 min min 98% A, 1 min 98% A, 2 min 80% A, 16.5 min 2% A, 22 min 2% A, 22.1 min 98% A, 27 min 98% A
AC$CHROMATOGRAPHY: FLOW_RATE 0.3 mL/min
AC$CHROMATOGRAPHY: RETENTION_TIME 14.45 min
AC$CHROMATOGRAPHY: SOLVENT A: Water 0.1% Formic acid, B: Acetonitrile 0.1% Formic acid
MS$FOCUSED_ION: PRECURSOR_M/Z 291.2448
MS$FOCUSED_ION: PRECURSOR_TYPE [M+H]+
MS$DATA_PROCESSING: COMMENT Export with Spectra 1.9.12 MsBackendMassbank 1.7.4
MS$DATA_PROCESSING: WHOLE RMassBank 2.3.1
PK$SPLASH: splash10-0002-9000000000-505021aba990d88f57ca
PK$NUM_PEAK: 15
PK$PEAK: m/z int. rel.int.
  30.9726 1 14
  35.9993 0.9 13
  37.0068 4.3 63
  38.0023 1.2 17
  38.0146 4.4 64
  39.0225 16.8 247
  41.0379 2.9 42
  43.9799 1.2 17
  44.9879 1.8 26
  46.9677 67.9 999
  47.9753 3 44
  48.9828 1.5 22
  60.9835 1.6 23
  64.9783 4.5 66
  78.9934 0.9 13
//
