ACCESSION: MSBNK-BAFG-CSL25011734569
RECORD_TITLE: Amido Black 10B; LC-ESI-QTOF; MS2; 50 V
DATE: 2025.01.17
AUTHORS: Ole Lessmann; Kevin S. Jewell; Björn Ehlig; Arne Wick
LICENSE: dl-de/by-2-0
COPYRIGHT: Copyright 2025 Federal Institute of Hydrology, Koblenz, Germany
COMMENT: CONFIDENCE Reference Standard (Level 1)
COMMENT: Chromatography method: dx.doi.org/10.1016/j.chroma.2015.11.014
CH$NAME: Amido Black 10B
CH$FORMULA: C22H16N6O9S2
CH$EXACT_MASS: 572.042
CH$SMILES: C1=CC=C(C=C1)N=NC2=C(C3=C(C(=C(C=C3C=C2S(=O)(=O)O)S(=O)(=O)O)N=NC4=CC=C(C=C4)[N+](=O)[O-])N)O
CH$IUPAC: InChI=1S/C22H16N6O9S2/c23-19-18-12(11-17(39(35,36)37)21(22(18)29)27-24-13-4-2-1-3-5-13)10-16(38(32,33)34)20(19)26-25-14-6-8-15(9-7-14)28(30)31/h1-11,29H,23H2,(H,32,33,34)(H,35,36,37)
CH$LINK: CAS 3121-74-2
CH$LINK: INCHIKEY HKJKONMZMPUGHJ-UHFFFAOYSA-N
AC$INSTRUMENT: TripleTOF 6600 SCIEX
AC$INSTRUMENT_TYPE: LC-ESI-QTOF
AC$MASS_SPECTROMETRY: MS_TYPE MS2
AC$MASS_SPECTROMETRY: ION_MODE POSITIVE
AC$MASS_SPECTROMETRY: COLLISION_ENERGY 50
AC$MASS_SPECTROMETRY: FRAGMENTATION_MODE CID
AC$MASS_SPECTROMETRY: IONIZATION ESI
AC$CHROMATOGRAPHY: COLUMN_NAME Zorbax Eclipse Plus C18 2.1 mm x 150 mm, 3.5 um, Agilent
AC$CHROMATOGRAPHY: COLUMN_TEMPERATURE 40 °C
AC$CHROMATOGRAPHY: FLOW_GRADIENT 0 min min 98% A, 1 min 98% A, 2 min 80% A, 16.5 min 2% A, 22 min 2% A, 22.1 min 98% A, 27 min 98% A
AC$CHROMATOGRAPHY: FLOW_RATE 0.3 mL/min
AC$CHROMATOGRAPHY: RETENTION_TIME 9.552 min
AC$CHROMATOGRAPHY: SOLVENT A: Water 0.1% Formic acid, B: Acetonitrile 0.1% Formic acid
MS$FOCUSED_ION: PRECURSOR_M/Z 573.0493
MS$FOCUSED_ION: PRECURSOR_TYPE [M+H]+
MS$DATA_PROCESSING: COMMENT Export with pycsl 0.1.0.dev1 and CSL 25.0
PK$SPLASH: splash10-0006-7139300000-3ebbf70369f27585c4ff
PK$NUM_PEAK: 86
PK$PEAK: m/z int. rel.int.
  65.038 21.7 102
  66.0457 5.2 24
  77.0379 5.3 25
  80.0489 3.4 16
  92.0489 141.8 671
  93.057 211.0 999
  108.0439 7.3 34
  122.0228 13.8 65
  150.029 35.8 169
  173.0329 10.7 50
  185.0342 8.0 37
  200.0473 2.1 9
  201.0289 25.2 119
  205.0782 3.9 18
  231.078 4.2 19
  232.0845 14.8 70
  244.0692 2.7 12
  249.0869 3.5 16
  251.0146 2.1 9
  259.0706 6.6 31
  260.0813 22.5 106
  261.0867 16.0 75
  262.0845 2.2 10
  270.0546 7.6 35
  271.0598 16.9 80
  272.0708 5.2 24
  273.0785 2.7 12
  275.0386 2.2 10
  275.0922 3.5 16
  276.0985 4.5 21
  277.0043 5.6 26
  287.0569 16.8 79
  288.0628 3.4 16
  289.0688 4.3 20
  292.0955 3.4 16
  300.0506 2.2 10
  301.0603 54.5 258
  306.0726 11.2 53
  308.1064 2.4 11
  313.0441 2.9 13
  316.0478 27.5 130
  317.0548 69.9 330
  318.056 2.2 10
  320.1037 2.4 11
  334.0537 4.3 20
  334.0962 5.8 27
  335.1067 6.8 32
  336.1062 3.5 16
  337.1116 2.3 10
  340.0384 11.5 54
  341.0462 42.7 202
  346.1089 15.5 73
  347.1177 8.7 41
  352.0237 6.9 32
  355.0472 3.2 15
  362.1024 35.5 168
  363.1123 20.4 96
  364.1187 17.4 82
  365.1285 4.1 19
  366.0256 2.7 12
  370.0356 4.2 19
  381.1216 6.6 31
  382.0219 36.3 171
  386.0052 2.7 12
  387.04 4.9 23
  391.0984 3.0 14
  392.1066 5.7 26
  398.02 50.3 238
  399.0291 5.4 25
  402.9796 60.1 284
  408.0966 3.2 15
  409.104 2.7 12
  410.1152 3.9 18
  411.1234 5.1 24
  416.0703 2.2 10
  426.0698 17.9 84
  427.0756 18.3 86
  427.1171 4.7 22
  428.0702 3.2 15
  429.9894 5.1 24
  444.075 27.9 132
  445.0826 2.6 12
  451.0092 3.6 17
  456.0649 4.7 22
  474.0755 2.3 10
  490.0706 2.8 13
//
