ACCESSION: MSBNK-BAFG-CSL25011734603
RECORD_TITLE: N-[2-[(2-Bromo-4,6-dinitrophenyl)azo]-5-(diethylamino)phenyl]acetamide; LC-ESI-QTOF; MS2; 70 V
DATE: 2025.01.17
AUTHORS: Ole Lessmann; Kevin S. Jewell; Björn Ehlig; Arne Wick
LICENSE: dl-de/by-2-0
COPYRIGHT: Copyright 2025 Federal Institute of Hydrology, Koblenz, Germany
COMMENT: CONFIDENCE Reference Standard (Level 1)
COMMENT: Chromatography method: dx.doi.org/10.1016/j.chroma.2015.11.014
CH$NAME: N-[2-[(2-Bromo-4,6-dinitrophenyl)azo]-5-(diethylamino)phenyl]acetamide
CH$FORMULA: C18H19BrN6O5
CH$EXACT_MASS: 478.06
CH$SMILES: CCN(CC)C1=CC(=C(C=C1)N=NC2=C(C=C(C=C2Br)[N+](=O)[O-])[N+](=O)[O-])NC(=O)C
CH$IUPAC: InChI=1S/C18H19BrN6O5/c1-4-23(5-2)12-6-7-15(16(9-12)20-11(3)26)21-22-18-14(19)8-13(24(27)28)10-17(18)25(29)30/h6-10H,4-5H2,1-3H3,(H,20,26)
CH$LINK: CAS 52697-38-8
CH$LINK: INCHIKEY WFFKSTRPZWRBEW-UHFFFAOYSA-N
AC$INSTRUMENT: TripleTOF 6600 SCIEX
AC$INSTRUMENT_TYPE: LC-ESI-QTOF
AC$MASS_SPECTROMETRY: MS_TYPE MS2
AC$MASS_SPECTROMETRY: ION_MODE POSITIVE
AC$MASS_SPECTROMETRY: COLLISION_ENERGY 70
AC$MASS_SPECTROMETRY: FRAGMENTATION_MODE CID
AC$MASS_SPECTROMETRY: IONIZATION ESI
AC$CHROMATOGRAPHY: COLUMN_NAME Zorbax Eclipse Plus C18 2.1 mm x 150 mm, 3.5 um, Agilent
AC$CHROMATOGRAPHY: COLUMN_TEMPERATURE 40 °C
AC$CHROMATOGRAPHY: FLOW_GRADIENT 0 min min 98% A, 1 min 98% A, 2 min 80% A, 16.5 min 2% A, 22 min 2% A, 22.1 min 98% A, 27 min 98% A
AC$CHROMATOGRAPHY: FLOW_RATE 0.3 mL/min
AC$CHROMATOGRAPHY: RETENTION_TIME 16.579 min
AC$CHROMATOGRAPHY: SOLVENT A: Water 0.1% Formic acid, B: Acetonitrile 0.1% Formic acid
MS$FOCUSED_ION: PRECURSOR_M/Z 479.0673
MS$FOCUSED_ION: PRECURSOR_TYPE [M+H]+
MS$DATA_PROCESSING: COMMENT Export with pycsl 0.1.0.dev1 and CSL 25.0
PK$SPLASH: splash10-01oy-0900000000-fd4681bf736185653643
PK$NUM_PEAK: 55
PK$PEAK: m/z int. rel.int.
  43.0171 3.0 20
  80.0481 8.6 59
  93.0563 7.6 52
  94.0633 3.6 24
  106.0641 2.2 15
  107.0344 1.7 11
  107.0601 11.5 79
  108.0423 11.3 77
  108.0777 3.6 24
  109.0743 6.7 46
  119.0584 2.7 18
  120.0555 11.5 79
  121.0747 61.7 425
  122.0587 1.5 10
  123.0902 2.1 14
  131.0593 1.8 12
  132.076 1.7 11
  133.0617 8.6 59
  134.0698 39.3 271
  135.0899 14.2 97
  136.0731 15.8 109
  145.0757 1.8 12
  146.0698 1.8 12
  147.0549 3.4 23
  147.0773 7.1 48
  148.0625 28.3 195
  148.0859 26.2 180
  149.068 2.0 13
  149.1053 25.4 175
  150.0898 2.1 14
  161.0688 5.4 37
  161.0999 1.7 11
  162.076 2.6 17
  162.1019 36.4 251
  163.0854 67.3 464
  163.1206 16.4 113
  175.0707 4.0 27
  177.1013 37.8 260
  191.1168 144.8 999
  193.075 2.4 16
  194.0724 2.7 18
  204.111 3.5 24
  237.1148 1.7 11
  250.1333 3.5 24
  265.143 8.9 61
  271.9936 1.8 12
  272.9893 6.2 42
  284.9861 2.2 15
  300.0148 2.0 13
  300.985 1.5 10
  316.0317 2.5 17
  328.0374 4.9 33
  329.0493 2.8 19
  330.0184 1.7 11
  344.064 4.6 31
//
