ACCESSION: MSBNK-BAFG-CSL2311099020
RECORD_TITLE: 2-(4-Chlorophenyl)benzimidazole; LC-ESI-QTOF; MS2; 110 V
DATE: 2023.11.09
AUTHORS: Kevin S. Jewell; Björn Ehlig; Arne Wick
LICENSE: dl-de/by-2-0
COPYRIGHT: Copyright 2023 Federal Institute of Hydrology, Koblenz, Germany
COMMENT: CONFIDENCE Reference Standard (Level 1)
COMMENT: Chromatography method: dx.doi.org/10.1016/j.chroma.2015.11.014
COMMENT: Acquisition method: 10.1002/rcm.8541
CH$NAME: 2-(4-Chlorophenyl)benzimidazole
CH$COMPOUND_CLASS: Pharmaceutical
CH$FORMULA: C13H9ClN2
CH$EXACT_MASS: 228.0454
CH$SMILES: C1=CC=C2C(=C1)NC(=N2)C3=CC=C(C=C3)Cl
CH$IUPAC: InChI=1S/C13H9ClN2/c14-10-7-5-9(6-8-10)13-15-11-3-1-2-4-12(11)16-13/h1-8H,(H,15,16)
CH$LINK: CAS 1019-85-8
CH$LINK: INCHIKEY PTXUJRTVWRYYTE-UHFFFAOYSA-N
AC$INSTRUMENT: TripleTOF 5600 SCIEX
AC$INSTRUMENT_TYPE: LC-ESI-QTOF
AC$MASS_SPECTROMETRY: MS_TYPE MS2
AC$MASS_SPECTROMETRY: ION_MODE POSITIVE
AC$MASS_SPECTROMETRY: COLLISION_ENERGY 110
AC$MASS_SPECTROMETRY: FRAGMENTATION_MODE CID
AC$MASS_SPECTROMETRY: IONIZATION ESI
AC$CHROMATOGRAPHY: COLUMN_NAME Zorbax Eclipse Plus C18 2.1 mm x 150 mm, 3.5 um, Agilent
AC$CHROMATOGRAPHY: COLUMN_TEMPERATURE 40 °C
AC$CHROMATOGRAPHY: FLOW_GRADIENT 0 min min 98% A, 1 min 98% A, 2 min 80% A, 16.5 min 2% A, 22 min 2% A, 22.1 min 98% A, 27 min 98% A
AC$CHROMATOGRAPHY: FLOW_RATE 0.3 mL/min
AC$CHROMATOGRAPHY: RETENTION_TIME 6.754 min
AC$CHROMATOGRAPHY: SOLVENT A: Water 0.1% Formic acid, B: Acetonitrile 0.1% Formic acid
MS$FOCUSED_ION: PRECURSOR_M/Z 229.0527
MS$FOCUSED_ION: PRECURSOR_TYPE [M+H]+
MS$DATA_PROCESSING: COMMENT Export with Spectra 1.9.12 MsBackendMassbank 1.7.4
MS$DATA_PROCESSING: WHOLE RMassBank 2.3.1
PK$SPLASH: splash10-014i-9300000000-f8ac79b0847c7dfe630b
PK$NUM_PEAK: 35
PK$PEAK: m/z int. rel.int.
  52.0278 3.3 128
  64.0353 3.3 128
  65.046 25.7 999
  72.9912 0.6 23
  73.0134 1.3 50
  74.0203 9.5 369
  75.0285 6 233
  76.024 0.9 34
  77.045 2 77
  86.021 1.1 42
  87.0264 2.3 89
  88.026 1 38
  88.0358 0.6 23
  89.0435 7.6 295
  90.0355 0.4 15
  91.0459 1.7 66
  92.0539 1.1 42
  98.0195 0.6 23
  99.0241 0.5 19
  102.0352 0.4 15
  110.018 0.6 23
  111.0207 0.5 19
  113.0398 3.5 136
  114.0333 0.9 34
  115.0479 0.5 19
  115.0581 0.7 27
  137.0389 2.3 89
  138.0436 1.9 73
  139.0551 3.6 139
  140.0499 2.6 101
  164.0496 4.3 167
  165.0455 0.9 34
  166.0657 1.3 50
  191.0604 0.9 34
  192.0672 0.8 31
//
