ACCESSION: MSBNK-BAFG-CSL23102727704
RECORD_TITLE: 4-Methoxycinnamaldehyde; LC-ESI-QTOF; MS2; 50 V
DATE: 2023.10.27
AUTHORS: Kevin S. Jewell; Björn Ehlig; Arne Wick
LICENSE: dl-de/by-2-0
COPYRIGHT: Copyright 2023 Federal Institute of Hydrology, Koblenz, Germany
COMMENT: CONFIDENCE Reference Standard (Level 1)
COMMENT: Chromatography method: dx.doi.org/10.1016/j.chroma.2015.11.014
COMMENT: Acquisition method: 10.1002/rcm.8541
CH$NAME: 4-Methoxycinnamaldehyde
CH$FORMULA: C10H10O2
CH$EXACT_MASS: 162.0681
CH$SMILES: COC1=CC=C(C=C1)C=CC=O
CH$IUPAC: InChI=1S/C10H10O2/c1-12-10-6-4-9(5-7-10)3-2-8-11/h2-8H,1H3
CH$LINK: CAS 24680-50-0
CH$LINK: INCHIKEY AXCXHFKZHDEKTP-UHFFFAOYSA-N
AC$INSTRUMENT: TripleTOF 6600 SCIEX
AC$INSTRUMENT_TYPE: LC-ESI-QTOF
AC$MASS_SPECTROMETRY: MS_TYPE MS2
AC$MASS_SPECTROMETRY: ION_MODE POSITIVE
AC$MASS_SPECTROMETRY: COLLISION_ENERGY 50
AC$MASS_SPECTROMETRY: FRAGMENTATION_MODE CID
AC$MASS_SPECTROMETRY: IONIZATION ESI
AC$CHROMATOGRAPHY: COLUMN_NAME Zorbax Eclipse Plus C18 2.1 mm x 150 mm, 3.5 um, Agilent
AC$CHROMATOGRAPHY: COLUMN_TEMPERATURE 40 °C
AC$CHROMATOGRAPHY: FLOW_GRADIENT 0 min min 98% A, 1 min 98% A, 2 min 80% A, 16.5 min 2% A, 22 min 2% A, 22.1 min 98% A, 27 min 98% A
AC$CHROMATOGRAPHY: FLOW_RATE 0.3 mL/min
AC$CHROMATOGRAPHY: RETENTION_TIME 9.471 min
AC$CHROMATOGRAPHY: SOLVENT A: Water 0.1% Formic acid, B: Acetonitrile 0.1% Formic acid
MS$FOCUSED_ION: PRECURSOR_M/Z 163.0754
MS$FOCUSED_ION: PRECURSOR_TYPE [M+H]+
MS$DATA_PROCESSING: COMMENT Export with Spectra 1.9.12 MsBackendMassbank 1.7.4
MS$DATA_PROCESSING: WHOLE RMassBank 2.3.1
PK$SPLASH: splash10-0006-9200000000-6381a517e2940d97e262
PK$NUM_PEAK: 26
PK$PEAK: m/z int. rel.int.
  39.0242 0.6 12
  51.0237 2.8 57
  55.0178 1.9 38
  63.0232 1 20
  65.0392 7.6 155
  66.0438 1.1 22
  76.0315 1.3 26
  77.0392 17.3 354
  78.0442 3.4 69
  79.0537 1.2 24
  89.0386 2.3 47
  90.0484 1.1 22
  91.055 48.8 999
  92.0257 0.5 10
  92.0581 8.9 182
  94.041 0.7 14
  95.052 0.6 12
  102.0469 13.4 274
  103.0533 4.7 96
  105.0426 1.2 24
  105.0691 0.5 10
  115.0563 1.2 24
  119.0507 2.3 47
  120.0579 0.6 12
  130.0472 0.5 10
  131.0519 0.7 14
//
