ACCESSION: MSBNK-BAFG-CSL2310304772
RECORD_TITLE: Iopromide; LC-ESI-QTOF; MS2; 70 V
DATE: 2023.10.30
AUTHORS: Kevin S. Jewell; Björn Ehlig; Arne Wick
LICENSE: dl-de/by-2-0
COPYRIGHT: Copyright 2023 Federal Institute of Hydrology, Koblenz, Germany
COMMENT: CONFIDENCE Reference Standard (Level 1)
COMMENT: Chromatography method: dx.doi.org/10.1016/j.chroma.2015.11.014
COMMENT: Acquisition method: 10.1002/rcm.8541
CH$NAME: Iopromide
CH$COMPOUND_CLASS: Pharmaceutical
CH$FORMULA: C18H24I3N3O8
CH$EXACT_MASS: 790.8698
CH$SMILES: COCC(=O)Nc1c(I)c(C(=O)NCC(O)CO)c(I)c(c1I)C(=O)N(C)CC(O)CO
CH$IUPAC: InChI=1S/C18H24I3N3O8/c1-24(4-9(28)6-26)18(31)12-13(19)11(17(30)22-3-8(27)5-25)14(20)16(15(12)21)23-10(29)7-32-2/h8-9,25-28H,3-7H2,1-2H3,(H,22,30)(H,23,29)
CH$LINK: CAS 73334-07-3
CH$LINK: INCHIKEY DGAIEPBNLOQYER-UHFFFAOYSA-N
AC$INSTRUMENT: TripleTOF 5600 SCIEX
AC$INSTRUMENT_TYPE: LC-ESI-QTOF
AC$MASS_SPECTROMETRY: MS_TYPE MS2
AC$MASS_SPECTROMETRY: ION_MODE POSITIVE
AC$MASS_SPECTROMETRY: COLLISION_ENERGY 70
AC$MASS_SPECTROMETRY: FRAGMENTATION_MODE CID
AC$MASS_SPECTROMETRY: IONIZATION ESI
AC$CHROMATOGRAPHY: COLUMN_NAME Zorbax Eclipse Plus C18 2.1 mm x 150 mm, 3.5 um, Agilent
AC$CHROMATOGRAPHY: COLUMN_TEMPERATURE 40 °C
AC$CHROMATOGRAPHY: FLOW_GRADIENT 0 min min 98% A, 1 min 98% A, 2 min 80% A, 16.5 min 2% A, 22 min 2% A, 22.1 min 98% A, 27 min 98% A
AC$CHROMATOGRAPHY: FLOW_RATE 0.3 mL/min
AC$CHROMATOGRAPHY: RETENTION_TIME 4.895 min
AC$CHROMATOGRAPHY: SOLVENT A: Water 0.1% Formic acid, B: Acetonitrile 0.1% Formic acid
MS$FOCUSED_ION: PRECURSOR_M/Z 791.877
MS$FOCUSED_ION: PRECURSOR_TYPE [M+H]+
MS$DATA_PROCESSING: COMMENT Export with Spectra 1.9.12 MsBackendMassbank 1.7.4
MS$DATA_PROCESSING: WHOLE RMassBank 2.3.1
PK$SPLASH: splash10-006t-0097830000-640580723620a1590988
PK$NUM_PEAK: 83
PK$PEAK: m/z int. rel.int.
  172.0013 0.5 11
  173.0058 0.5 11
  203.021 0.7 15
  204.0265 0.5 11
  245.0568 0.7 15
  255.9241 1.1 24
  259.0694 1.8 39
  277.0849 0.6 13
  283.9178 2.9 64
  284.9255 0.9 19
  285.9381 0.5 11
  286.948 0.9 19
  287.955 1.9 41
  291.0948 1.8 39
  297.9384 0.7 15
  298.9058 3.1 68
  298.9306 2.2 48
  298.97 0.8 17
  299.9146 45.2 999
  311.9134 1.6 35
  311.9463 0.5 11
  312.9439 3.1 68
  313.9311 4.5 99
  314.9273 0.6 13
  314.9403 1.7 37
  315.9498 0.6 13
  316.9402 0.8 17
  325.9351 1.2 26
  326.9015 6.2 137
  326.964 0.9 19
  328.9357 0.8 17
  329.9279 0.9 19
  330.9287 1.4 30
  330.9573 0.7 15
  340.9375 0.5 11
  342.9534 1 22
  343.9408 0.6 13
  353.9241 0.5 11
  354.9598 1.8 39
  356.9444 0.6 13
  356.9738 0.5 11
  357.9194 6.9 152
  367.8086 0.5 11
  368.9719 0.6 13
  370.9548 1.1 24
  372.9688 5.2 114
  382.8309 1.4 30
  385.8173 1 22
  386.9815 4.4 97
  399.9541 1.3 28
  400.9974 2.4 53
  404.9897 1.5 33
  409.816 0.7 15
  410.8258 2 44
  413.8116 3.6 79
  413.8433 1.6 35
  413.9721 2.9 64
  414.8534 1 22
  419.0103 1.8 39
  423.7959 17.5 386
  424.8271 1 22
  425.817 8.8 194
  426.8297 1.3 28
  430.9658 1.1 24
  438.8105 0.5 11
  438.8476 0.6 13
  440.8351 2.4 53
  441.8423 2 44
  444.9873 1.5 33
  456.8595 0.7 15
  468.8603 0.5 11
  469.8318 0.7 15
  485.8344 2.7 59
  496.8494 1.1 24
  498.8611 1 22
  510.8491 0.5 11
  510.8695 0.5 11
  527.8685 6.5 143
  540.8768 1 22
  541.8762 1.3 28
  558.8886 9 198
  572.8998 4.4 97
  595.7473 0.5 11
//
