ACCESSION: MSBNK-BAFG-CSL25011734579
RECORD_TITLE: Amido Black 10B; LC-ESI-QTOF; MS2; 150 V
DATE: 2025.01.17
AUTHORS: Ole Lessmann; Kevin S. Jewell; Björn Ehlig; Arne Wick
LICENSE: dl-de/by-2-0
COPYRIGHT: Copyright 2025 Federal Institute of Hydrology, Koblenz, Germany
COMMENT: CONFIDENCE Reference Standard (Level 1)
COMMENT: Chromatography method: dx.doi.org/10.1016/j.chroma.2015.11.014
CH$NAME: Amido Black 10B
CH$FORMULA: C22H16N6O9S2
CH$EXACT_MASS: 572.042
CH$SMILES: C1=CC=C(C=C1)N=NC2=C(C3=C(C(=C(C=C3C=C2S(=O)(=O)O)S(=O)(=O)O)N=NC4=CC=C(C=C4)[N+](=O)[O-])N)O
CH$IUPAC: InChI=1S/C22H16N6O9S2/c23-19-18-12(11-17(39(35,36)37)21(22(18)29)27-24-13-4-2-1-3-5-13)10-16(38(32,33)34)20(19)26-25-14-6-8-15(9-7-14)28(30)31/h1-11,29H,23H2,(H,32,33,34)(H,35,36,37)
CH$LINK: CAS 3121-74-2
CH$LINK: INCHIKEY HKJKONMZMPUGHJ-UHFFFAOYSA-N
AC$INSTRUMENT: TripleTOF 6600 SCIEX
AC$INSTRUMENT_TYPE: LC-ESI-QTOF
AC$MASS_SPECTROMETRY: MS_TYPE MS2
AC$MASS_SPECTROMETRY: ION_MODE POSITIVE
AC$MASS_SPECTROMETRY: COLLISION_ENERGY 150
AC$MASS_SPECTROMETRY: FRAGMENTATION_MODE CID
AC$MASS_SPECTROMETRY: IONIZATION ESI
AC$CHROMATOGRAPHY: COLUMN_NAME Zorbax Eclipse Plus C18 2.1 mm x 150 mm, 3.5 um, Agilent
AC$CHROMATOGRAPHY: COLUMN_TEMPERATURE 40 °C
AC$CHROMATOGRAPHY: FLOW_GRADIENT 0 min min 98% A, 1 min 98% A, 2 min 80% A, 16.5 min 2% A, 22 min 2% A, 22.1 min 98% A, 27 min 98% A
AC$CHROMATOGRAPHY: FLOW_RATE 0.3 mL/min
AC$CHROMATOGRAPHY: RETENTION_TIME 9.552 min
AC$CHROMATOGRAPHY: SOLVENT A: Water 0.1% Formic acid, B: Acetonitrile 0.1% Formic acid
MS$FOCUSED_ION: PRECURSOR_M/Z 573.0493
MS$FOCUSED_ION: PRECURSOR_TYPE [M+H]+
MS$DATA_PROCESSING: COMMENT Export with pycsl 0.1.0.dev1 and CSL 25.0
PK$SPLASH: splash10-014l-9200000000-42792f9ea0cfaefd4988
PK$NUM_PEAK: 83
PK$PEAK: m/z int. rel.int.
  37.0071 1.6 27
  38.0147 1.8 30
  39.0227 15.3 261
  40.031 0.6 10
  50.0149 1.5 25
  51.0228 5.2 88
  61.0074 0.8 13
  62.0156 1.1 18
  63.0226 6.7 114
  64.0167 0.8 13
  65.0384 58.4 999
  66.0459 25.5 436
  67.0418 1.2 20
  74.0148 6.1 104
  75.0225 21.4 366
  76.017 1.4 23
  76.0314 2.6 44
  77.0379 7.9 135
  78.033 3.4 58
  80.0491 1.4 23
  87.0217 1.4 23
  88.0172 3.6 61
  89.0392 0.6 10
  90.0333 4.3 73
  92.0488 15.4 263
  93.0566 42.6 728
  100.0186 1.4 23
  102.0339 5.4 92
  103.0391 0.8 13
  112.0175 1.5 25
  114.033 6.0 102
  115.0405 1.0 17
  117.0434 0.8 13
  125.0126 1.7 29
  127.0278 0.7 11
  129.0447 2.1 35
  138.0324 1.6 27
  139.0408 0.9 15
  140.0468 1.2 20
  149.0379 0.8 13
  150.0323 1.1 18
  150.0439 2.5 42
  151.0475 2.9 49
  152.0538 1.5 25
  153.0421 0.7 11
  153.0546 0.7 11
  162.0325 2.9 49
  163.0278 0.6 10
  163.0471 1.6 27
  164.0494 2.2 37
  165.0439 2.2 37
  175.0414 1.9 32
  176.0471 3.1 53
  177.0494 3.4 58
  178.0505 0.9 15
  179.0607 0.9 15
  187.035 1.3 22
  187.0534 0.6 10
  188.0451 3.0 51
  189.0434 5.3 90
  190.0457 1.0 17
  191.0601 1.2 20
  192.0648 1.5 25
  193.0627 0.6 10
  201.0582 0.7 11
  202.0553 0.6 10
  203.0584 2.0 34
  204.0504 1.1 18
  204.0687 0.7 11
  205.0749 0.9 15
  213.043 0.8 13
  214.0381 0.8 13
  215.0413 0.7 11
  215.0545 1.8 30
  216.0537 1.4 23
  217.0688 1.1 18
  229.0589 0.9 15
  230.0701 3.2 54
  231.0751 1.1 18
  241.0544 0.7 11
  242.0635 1.0 17
  262.0689 0.7 11
  317.0841 0.6 10
//
