ACCESSION: MSBNK-BAFG-CSL25010634189
RECORD_TITLE: 4'-O-Demethyl pantoprazole sulfide; LC-ESI-QTOF; MS2; 110 V
DATE: 2025.01.06
AUTHORS: Ole Lessmann; Kevin S. Jewell; Björn Ehlig; Arne Wick
LICENSE: dl-de/by-2-0
COPYRIGHT: Copyright 2025 Federal Institute of Hydrology, Koblenz, Germany
COMMENT: CONFIDENCE Reference Standard (Level 1)
COMMENT: Chromatography method: dx.doi.org/10.1016/j.chroma.2015.11.014
COMMENT: Acquisition method: 10.1002/rcm.8541
CH$NAME: 4'-O-Demethyl pantoprazole sulfide
CH$COMPOUND_CLASS: Pharmaceutical; Transformation_product-Metabolite
CH$FORMULA: C15H13F2N3O3S
CH$EXACT_MASS: 353.0646
CH$SMILES: COC1=C(NC=CC1=O)CSC2=NC3=C(N2)C=C(C=C3)OC(F)F
CH$IUPAC: InChI=1S/C15H13F2N3O3S/c1-22-13-11(18-5-4-12(13)21)7-24-15-19-9-3-2-8(23-14(16)17)6-10(9)20-15/h2-6,14H,7H2,1H3,(H,18,21)(H,19,20)
CH$LINK: CAS 141854-21-9
CH$LINK: INCHIKEY ILLQTAPXYCRJRB-UHFFFAOYSA-N
AC$INSTRUMENT: TripleTOF 6600 SCIEX
AC$INSTRUMENT_TYPE: LC-ESI-QTOF
AC$MASS_SPECTROMETRY: MS_TYPE MS2
AC$MASS_SPECTROMETRY: ION_MODE POSITIVE
AC$MASS_SPECTROMETRY: COLLISION_ENERGY 110
AC$MASS_SPECTROMETRY: FRAGMENTATION_MODE CID
AC$MASS_SPECTROMETRY: IONIZATION ESI
AC$CHROMATOGRAPHY: COLUMN_NAME Zorbax Eclipse Plus C18 2.1 mm x 150 mm, 3.5 um, Agilent
AC$CHROMATOGRAPHY: COLUMN_TEMPERATURE 40 °C
AC$CHROMATOGRAPHY: FLOW_GRADIENT 0 min min 98% A, 1 min 98% A, 2 min 80% A, 16.5 min 2% A, 22 min 2% A, 22.1 min 98% A, 27 min 98% A
AC$CHROMATOGRAPHY: FLOW_RATE 0.3 mL/min
AC$CHROMATOGRAPHY: RETENTION_TIME 7.57 min
AC$CHROMATOGRAPHY: SOLVENT A: Water 0.1% Formic acid, B: Acetonitrile 0.1% Formic acid
MS$FOCUSED_ION: PRECURSOR_M/Z 354.0719
MS$FOCUSED_ION: PRECURSOR_TYPE [M+H]+
MS$DATA_PROCESSING: COMMENT Export with pycsl 0.1.0.dev1 and CSL 24.4
PK$SPLASH: splash10-0uy0-9100000000-e13190b4b3bbfa3d427d
PK$NUM_PEAK: 74
PK$PEAK: m/z int. rel.int.
  37.007 5.2 106
  38.002 0.5 10
  38.0145 5.8 119
  39.0225 29.5 606
  40.0166 0.5 10
  40.0303 0.5 10
  41.0253 5.5 113
  41.0383 0.9 18
  42.0332 11.0 226
  43.0171 2.0 41
  44.0125 1.3 26
  44.9792 0.6 12
  50.0141 0.6 12
  51.0224 3.9 80
  52.0173 3.7 76
  52.0301 0.8 16
  53.0019 5.3 108
  53.038 48.6 999
  53.9968 0.5 10
  54.0326 3.9 80
  55.0169 4.6 94
  57.9857 0.6 12
  61.0061 0.6 12
  62.0133 2.5 51
  63.0219 16.7 343
  64.0173 3.5 71
  65.0371 6.1 125
  66.009 17.1 351
  66.0329 5.3 108
  66.0455 1.1 22
  67.0164 13.9 285
  67.0404 17.1 351
  68.0116 6.9 141
  68.0497 1.1 22
  69.0323 0.7 14
  70.0276 3.9 80
  70.9933 2.1 43
  72.0016 1.0 20
  78.0322 3.0 61
  79.0401 1.9 39
  80.0111 0.7 14
  80.0485 19.0 390
  81.0317 6.1 125
  82.0275 1.0 20
  83.0362 3.0 61
  86.0043 1.4 28
  90.0326 5.2 106
  91.0402 2.5 51
  92.0488 7.1 145
  93.0435 0.9 18
  93.0555 0.8 16
  94.0277 11.7 240
  95.0364 4.8 98
  96.0436 5.4 111
  98.0054 1.7 34
  99.0122 2.0 41
  105.0423 0.5 10
  106.0511 1.4 28
  107.0608 1.9 39
  108.0426 5.2 106
  109.0504 1.1 22
  110.0568 1.0 20
  111.0301 1.1 22
  117.0431 4.2 86
  118.0509 5.0 102
  120.0437 1.1 22
  125.9995 15.9 326
  127.007 0.6 12
  134.0452 0.8 16
  135.0544 3.6 74
  136.0381 8.0 164
  137.016 1.5 30
  159.0531 0.6 12
  166.019 0.9 18
//