ACCESSION: MSBNK-BAFG-CSL23103018495
RECORD_TITLE: Trazodone; LC-ESI-QTOF; MS2; 100 V
DATE: 2023.10.30
AUTHORS: Kevin S. Jewell; Björn Ehlig; Arne Wick
LICENSE: dl-de/by-2-0
COPYRIGHT: Copyright 2023 Federal Institute of Hydrology, Koblenz, Germany
COMMENT: CONFIDENCE Reference Standard (Level 1)
COMMENT: Chromatography method: dx.doi.org/10.1016/j.chroma.2015.11.014
COMMENT: Acquisition method: 10.1002/rcm.8541
CH$NAME: Trazodone
CH$COMPOUND_CLASS: Pharmaceutical
CH$FORMULA: C19H22ClN5O
CH$EXACT_MASS: 371.1513
CH$SMILES: C1CN(CCN1CCCN2C(=O)N3C=CC=CC3=N2)C4=CC(=CC=C4)Cl
CH$IUPAC: InChI=1S/C19H22ClN5O/c20-16-5-3-6-17(15-16)23-13-11-22(12-14-23)8-4-10-25-19(26)24-9-2-1-7-18(24)21-25/h1-3,5-7,9,15H,4,8,10-14H2
CH$LINK: CAS 19794-93-5
CH$LINK: INCHIKEY PHLBKPHSAVXXEF-UHFFFAOYSA-N
AC$INSTRUMENT: TripleTOF 6600 SCIEX
AC$INSTRUMENT_TYPE: LC-ESI-QTOF
AC$MASS_SPECTROMETRY: MS_TYPE MS2
AC$MASS_SPECTROMETRY: ION_MODE POSITIVE
AC$MASS_SPECTROMETRY: COLLISION_ENERGY 100
AC$MASS_SPECTROMETRY: FRAGMENTATION_MODE CID
AC$MASS_SPECTROMETRY: IONIZATION ESI
AC$CHROMATOGRAPHY: COLUMN_NAME Zorbax Eclipse Plus C18 2.1 mm x 150 mm, 3.5 um, Agilent
AC$CHROMATOGRAPHY: COLUMN_TEMPERATURE 40 °C
AC$CHROMATOGRAPHY: FLOW_GRADIENT 0 min min 98% A, 1 min 98% A, 2 min 80% A, 16.5 min 2% A, 22 min 2% A, 22.1 min 98% A, 27 min 98% A
AC$CHROMATOGRAPHY: FLOW_RATE 0.3 mL/min
AC$CHROMATOGRAPHY: RETENTION_TIME 7.095 min
AC$CHROMATOGRAPHY: SOLVENT A: Water 0.1% Formic acid, B: Acetonitrile 0.1% Formic acid
MS$FOCUSED_ION: PRECURSOR_M/Z 372.1586
MS$FOCUSED_ION: PRECURSOR_TYPE [M+H]+
MS$DATA_PROCESSING: COMMENT Export with Spectra 1.9.12 MsBackendMassbank 1.7.4
MS$DATA_PROCESSING: WHOLE RMassBank 2.3.1
PK$SPLASH: splash10-004i-9200000000-a6197ad7abe692d801da
PK$NUM_PEAK: 33
PK$PEAK: m/z int. rel.int.
  38.0136 5.6 11
  39.0215 17.9 38
  41.0253 9.3 19
  42.0327 6.4 13
  50.0136 10.3 22
  51.0217 68.2 145
  52.0293 4.9 10
  65.0247 24.8 53
  66.0328 19.6 41
  67.0399 8.4 17
  75.021 11.8 25
  77.0366 7.2 15
  78.0324 466.9 999
  79.0397 33.5 71
  80.0475 9.8 20
  91.0527 8.2 17
  92.0352 89.6 191
  93.043 29.9 63
  94.0498 8.1 17
  105.0431 7.3 15
  107.0583 4.8 10
  110.9977 28.9 61
  117.0563 8.9 19
  118.0629 21.3 45
  119.0584 44.2 94
  120.0303 30 64
  120.0525 8.9 19
  121.0736 5.9 12
  130.0635 5.2 11
  131.0599 12.9 27
  138.0085 8.9 19
  139.0066 6.7 14
  148.05 8.3 17
//
