ACCESSION: MSBNK-BAFG-CSL23110912152
RECORD_TITLE: 2-Hydroxy-n-methyl-n-phenylpropanamide; LC-ESI-QTOF; MS2; 20 V
DATE: 2023.11.09
AUTHORS: Kevin S. Jewell; Björn Ehlig; Arne Wick
LICENSE: dl-de/by-2-0
COPYRIGHT: Copyright 2023 Federal Institute of Hydrology, Koblenz, Germany
COMMENT: CONFIDENCE Reference Standard (Level 1)
COMMENT: Chromatography method: dx.doi.org/10.1016/j.chroma.2015.11.014
COMMENT: Acquisition method: 10.1002/rcm.8541
CH$NAME: 2-Hydroxy-n-methyl-n-phenylpropanamide
CH$FORMULA: C10H13NO2
CH$EXACT_MASS: 179.0946
CH$SMILES: CC(C(=O)N(C)C1=CC=CC=C1)O
CH$IUPAC: InChI=1S/C10H13NO2/c1-8(12)10(13)11(2)9-6-4-3-5-7-9/h3-8,12H,1-2H3
CH$LINK: CAS 5455-67-4
CH$LINK: INCHIKEY YOZNZNZSJNNALS-UHFFFAOYSA-N
AC$INSTRUMENT: TripleTOF 5600 SCIEX
AC$INSTRUMENT_TYPE: LC-ESI-QTOF
AC$MASS_SPECTROMETRY: MS_TYPE MS2
AC$MASS_SPECTROMETRY: ION_MODE POSITIVE
AC$MASS_SPECTROMETRY: COLLISION_ENERGY 20
AC$MASS_SPECTROMETRY: FRAGMENTATION_MODE CID
AC$MASS_SPECTROMETRY: IONIZATION ESI
AC$CHROMATOGRAPHY: COLUMN_NAME Zorbax Eclipse Plus C18 2.1 mm x 150 mm, 3.5 um, Agilent
AC$CHROMATOGRAPHY: COLUMN_TEMPERATURE 40 °C
AC$CHROMATOGRAPHY: FLOW_GRADIENT 0 min min 98% A, 1 min 98% A, 2 min 80% A, 16.5 min 2% A, 22 min 2% A, 22.1 min 98% A, 27 min 98% A
AC$CHROMATOGRAPHY: FLOW_RATE 0.3 mL/min
AC$CHROMATOGRAPHY: RETENTION_TIME 6.763 min
AC$CHROMATOGRAPHY: SOLVENT A: Water 0.1% Formic acid, B: Acetonitrile 0.1% Formic acid
MS$FOCUSED_ION: PRECURSOR_M/Z 180.1019
MS$FOCUSED_ION: PRECURSOR_TYPE [M+H]+
MS$DATA_PROCESSING: COMMENT Export with Spectra 1.9.12 MsBackendMassbank 1.7.4
MS$DATA_PROCESSING: WHOLE RMassBank 2.3.1
PK$SPLASH: splash10-08gi-0900000000-fd03884c93e279ba2929
PK$NUM_PEAK: 13
PK$PEAK: m/z int. rel.int.
  56.0491 1.4 10
  93.0564 3.2 23
  103.0542 2.1 15
  105.0695 49.6 364
  106.0645 9.1 66
  108.0806 42.6 313
  118.0667 1.6 11
  119.0719 9.8 72
  120.0819 1.4 10
  132.0801 1.4 10
  134.0962 73.1 537
  162.0913 135.8 999
  180.1016 26.2 192
//
