ACCESSION: MSBNK-BAFG-CSL23111027317
RECORD_TITLE: Nicosulfuron; LC-ESI-QTOF; MS2; 150 V
DATE: 2023.11.10
AUTHORS: Kevin S. Jewell; Björn Ehlig; Arne Wick
LICENSE: dl-de/by-2-0
COPYRIGHT: Copyright 2023 Federal Institute of Hydrology, Koblenz, Germany
COMMENT: CONFIDENCE Reference Standard (Level 1)
COMMENT: Chromatography method: dx.doi.org/10.1016/j.chroma.2015.11.014
COMMENT: Acquisition method: 10.1002/rcm.8541
CH$NAME: Nicosulfuron
CH$COMPOUND_CLASS: Herbicide
CH$FORMULA: C15H18N6O6S
CH$EXACT_MASS: 410.1009
CH$SMILES: CN(C)C(=O)C1=C(N=CC=C1)S(=O)(=O)NC(=O)NC2=NC(=CC(=N2)OC)OC
CH$IUPAC: InChI=1S/C15H18N6O6S/c1-21(2)13(22)9-6-5-7-16-12(9)28(24,25)20-15(23)19-14-17-10(26-3)8-11(18-14)27-4/h5-8H,1-4H3,(H2,17,18,19,20,23)
CH$LINK: CAS 111991-09-4
CH$LINK: INCHIKEY RTCOGUMHFFWOJV-UHFFFAOYSA-N
AC$INSTRUMENT: TripleTOF 6600 SCIEX
AC$INSTRUMENT_TYPE: LC-ESI-QTOF
AC$MASS_SPECTROMETRY: MS_TYPE MS2
AC$MASS_SPECTROMETRY: ION_MODE POSITIVE
AC$MASS_SPECTROMETRY: COLLISION_ENERGY 150
AC$MASS_SPECTROMETRY: FRAGMENTATION_MODE CID
AC$MASS_SPECTROMETRY: IONIZATION ESI
AC$CHROMATOGRAPHY: COLUMN_NAME Zorbax Eclipse Plus C18 2.1 mm x 150 mm, 3.5 um, Agilent
AC$CHROMATOGRAPHY: COLUMN_TEMPERATURE 40 °C
AC$CHROMATOGRAPHY: FLOW_GRADIENT 0 min min 98% A, 1 min 98% A, 2 min 80% A, 16.5 min 2% A, 22 min 2% A, 22.1 min 98% A, 27 min 98% A
AC$CHROMATOGRAPHY: FLOW_RATE 0.3 mL/min
AC$CHROMATOGRAPHY: RETENTION_TIME 8.499 min
AC$CHROMATOGRAPHY: SOLVENT A: Water 0.1% Formic acid, B: Acetonitrile 0.1% Formic acid
MS$FOCUSED_ION: PRECURSOR_M/Z 411.1081
MS$FOCUSED_ION: PRECURSOR_TYPE [M+H]+
MS$DATA_PROCESSING: COMMENT Export with Spectra 1.9.12 MsBackendMassbank 1.7.4
MS$DATA_PROCESSING: WHOLE RMassBank 2.3.1
PK$SPLASH: splash10-0udi-9000000000-e2aa7a3c6c77dfcbe01e
PK$NUM_PEAK: 33
PK$PEAK: m/z int. rel.int.
  37.0046 0.9 23
  38.0004 1.4 36
  39.0211 1.7 43
  40.0162 2.2 56
  41.0003 0.7 18
  41.0236 1.3 33
  42.0313 0.7 18
  43.0273 2.1 54
  49.0053 2 51
  50.0127 13.4 346
  51.0207 38.6 999
  52.0164 1.4 36
  53.0001 0.5 12
  53.0102 0.5 12
  54.0326 0.6 15
  55.0267 0.9 23
  56.0105 2 51
  57.0434 0.8 20
  64.0154 2.3 59
  65.0108 6 155
  65.0341 0.5 12
  66.0198 0.7 18
  67.0029 2 51
  67.0276 0.7 18
  68.0104 3.1 80
  68.9945 2.3 59
  69.0052 6 155
  70.0277 0.5 12
  76.0146 0.4 10
  78.0315 11.5 297
  83.021 5.8 150
  91.0259 0.9 23
  93.0056 4.5 116
//
