ACCESSION: MSBNK-BAFG-CSL23110918944
RECORD_TITLE: m-Hydroxybenzoylecgonine; LC-ESI-QTOF; MS2; 40 V
DATE: 2023.11.09
AUTHORS: Kevin S. Jewell; Björn Ehlig; Arne Wick
LICENSE: dl-de/by-2-0
COPYRIGHT: Copyright 2023 Federal Institute of Hydrology, Koblenz, Germany
COMMENT: CONFIDENCE Reference Standard (Level 1)
COMMENT: Chromatography method: dx.doi.org/10.1016/j.chroma.2015.11.014
COMMENT: Acquisition method: 10.1002/rcm.8541
CH$NAME: m-Hydroxybenzoylecgonine
CH$COMPOUND_CLASS: Metabolite
CH$FORMULA: C16H19NO5
CH$EXACT_MASS: 305.1263
CH$SMILES: CN1C2CCC1C(C(C2)OC(=O)C3=CC(=CC=C3)O)C(=O)O
CH$IUPAC: InChI=1S/C16H19NO5/c1-17-10-5-6-12(17)14(15(19)20)13(8-10)22-16(21)9-3-2-4-11(18)7-9/h2-4,7,10,12-14,18H,5-6,8H2,1H3,(H,19,20)
CH$LINK: CAS 129944-99-6
CH$LINK: INCHIKEY XCJJCRPRQYXLRE-UHFFFAOYSA-N
AC$INSTRUMENT: TripleTOF 6600 SCIEX
AC$INSTRUMENT_TYPE: LC-ESI-QTOF
AC$MASS_SPECTROMETRY: MS_TYPE MS2
AC$MASS_SPECTROMETRY: ION_MODE NEGATIVE
AC$MASS_SPECTROMETRY: COLLISION_ENERGY 40
AC$MASS_SPECTROMETRY: FRAGMENTATION_MODE CID
AC$MASS_SPECTROMETRY: IONIZATION ESI
AC$CHROMATOGRAPHY: COLUMN_NAME Zorbax Eclipse Plus C18 2.1 mm x 150 mm, 3.5 um, Agilent
AC$CHROMATOGRAPHY: COLUMN_TEMPERATURE 40 °C
AC$CHROMATOGRAPHY: FLOW_GRADIENT 0 min min 98% A, 1 min 98% A, 2 min 80% A, 16.5 min 2% A, 22 min 2% A, 22.1 min 98% A, 27 min 98% A
AC$CHROMATOGRAPHY: FLOW_RATE 0.3 mL/min
AC$CHROMATOGRAPHY: RETENTION_TIME 5.39 min
AC$CHROMATOGRAPHY: SOLVENT A: Water 0.1% Formic acid, B: Acetonitrile 0.1% Formic acid
MS$FOCUSED_ION: PRECURSOR_M/Z 304.1192
MS$FOCUSED_ION: PRECURSOR_TYPE [M-H]-
MS$DATA_PROCESSING: COMMENT Export with Spectra 1.9.12 MsBackendMassbank 1.7.4
MS$DATA_PROCESSING: WHOLE RMassBank 2.3.1
PK$SPLASH: splash10-000f-9600000000-d4795bfc4e19d5c1ddd5
PK$NUM_PEAK: 2
PK$PEAK: m/z int. rel.int.
  93.0335 3.37 999
  137.023 2.3509 696
//
