ACCESSION: MSBNK-BAFG-CSL23110916086
RECORD_TITLE: Clonidine; LC-ESI-QTOF; MS2; 40 V
DATE: 2023.11.09
AUTHORS: Kevin S. Jewell; Björn Ehlig; Arne Wick
LICENSE: dl-de/by-2-0
COPYRIGHT: Copyright 2023 Federal Institute of Hydrology, Koblenz, Germany
COMMENT: CONFIDENCE Reference Standard (Level 1)
COMMENT: Chromatography method: dx.doi.org/10.1016/j.chroma.2015.11.014
COMMENT: Acquisition method: 10.1002/rcm.8541
CH$NAME: Clonidine
CH$COMPOUND_CLASS: Pharmaceutical
CH$FORMULA: C9H9Cl2N3
CH$EXACT_MASS: 229.0174
CH$SMILES: C1CN=C(N1)NC2=C(C=CC=C2Cl)Cl
CH$IUPAC: InChI=1S/C9H9Cl2N3/c10-6-2-1-3-7(11)8(6)14-9-12-4-5-13-9/h1-3H,4-5H2,(H2,12,13,14)
CH$LINK: CAS 4205-90-7
CH$LINK: INCHIKEY GJSURZIOUXUGAL-UHFFFAOYSA-N
AC$INSTRUMENT: TripleTOF 6600 SCIEX
AC$INSTRUMENT_TYPE: LC-ESI-QTOF
AC$MASS_SPECTROMETRY: MS_TYPE MS2
AC$MASS_SPECTROMETRY: ION_MODE POSITIVE
AC$MASS_SPECTROMETRY: COLLISION_ENERGY 40
AC$MASS_SPECTROMETRY: FRAGMENTATION_MODE CID
AC$MASS_SPECTROMETRY: IONIZATION ESI
AC$CHROMATOGRAPHY: COLUMN_NAME Zorbax Eclipse Plus C18 2.1 mm x 150 mm, 3.5 um, Agilent
AC$CHROMATOGRAPHY: COLUMN_TEMPERATURE 40 °C
AC$CHROMATOGRAPHY: FLOW_GRADIENT 0 min min 98% A, 1 min 98% A, 2 min 80% A, 16.5 min 2% A, 22 min 2% A, 22.1 min 98% A, 27 min 98% A
AC$CHROMATOGRAPHY: FLOW_RATE 0.3 mL/min
AC$CHROMATOGRAPHY: RETENTION_TIME 5.408 min
AC$CHROMATOGRAPHY: SOLVENT A: Water 0.1% Formic acid, B: Acetonitrile 0.1% Formic acid
MS$FOCUSED_ION: PRECURSOR_M/Z 230.0246
MS$FOCUSED_ION: PRECURSOR_TYPE [M+H]+
MS$DATA_PROCESSING: COMMENT Export with Spectra 1.9.12 MsBackendMassbank 1.7.4
MS$DATA_PROCESSING: WHOLE RMassBank 2.3.1
PK$SPLASH: splash10-001i-3790000000-010f63dea6ef263be5ab
PK$NUM_PEAK: 34
PK$PEAK: m/z int. rel.int.
  42.0335 1.8 25
  44.0491 23.7 334
  59.0598 1.6 22
  69.0441 1.5 21
  98.999 1.1 15
  108.9829 3.5 49
  115.0271 0.9 12
  123.9933 4.3 60
  125.0008 1.2 16
  131.0585 1 14
  132.0673 1.1 15
  132.9592 5 70
  135.9942 1.4 19
  138.0097 0.8 11
  144.9594 3.6 50
  151.017 2.9 40
  152.0128 2.4 33
  153.0202 1.3 18
  158.0684 1.6 22
  158.9744 0.8 11
  159.0773 1.6 22
  159.9705 8.3 117
  160.087 1.8 25
  160.9779 1.3 18
  161.9857 1.2 16
  163.9984 2.2 31
  171.97 5.3 74
  172.9653 3.1 43
  184.9657 2.2 31
  185.9854 3.5 49
  186.9818 5.2 73
  194.0472 3.4 48
  212.9967 13.1 185
  230.0241 70.7 999
//
