ACCESSION: MSBNK-BAFG-CSL23102515009
RECORD_TITLE: (3-Methyl-2-butenyl)(triphenyl)phosphorane; LC-ESI-QTOF; MS2; 110 V
DATE: 2023.10.25
AUTHORS: Kevin S. Jewell; Björn Ehlig; Arne Wick
LICENSE: dl-de/by-2-0
COPYRIGHT: Copyright 2023 Federal Institute of Hydrology, Koblenz, Germany
COMMENT: CONFIDENCE Reference Standard (Level 1)
COMMENT: Chromatography method: dx.doi.org/10.1016/j.chroma.2015.11.014
COMMENT: Acquisition method: 10.1002/rcm.8541
CH$NAME: (3-Methyl-2-butenyl)(triphenyl)phosphorane
CH$COMPOUND_CLASS: Industrial_process
CH$FORMULA: C23H24P
CH$EXACT_MASS: 331.161
CH$SMILES: CC(=CC[P+](C1=CC=CC=C1)(C2=CC=CC=C2)C3=CC=CC=C3)C
CH$IUPAC: InChI=1S/C23H24P/c1-20(2)18-19-24(21-12-6-3-7-13-21,22-14-8-4-9-15-22)23-16-10-5-11-17-23/h3-18H,19H2,1-2H3/q+1
CH$LINK: CAS 52750-95-5
CH$LINK: INCHIKEY COVAQAPAQWRPGO-UHFFFAOYSA-N
AC$INSTRUMENT: TripleTOF 6600 SCIEX
AC$INSTRUMENT_TYPE: LC-ESI-QTOF
AC$MASS_SPECTROMETRY: MS_TYPE MS2
AC$MASS_SPECTROMETRY: ION_MODE POSITIVE
AC$MASS_SPECTROMETRY: COLLISION_ENERGY 110
AC$MASS_SPECTROMETRY: FRAGMENTATION_MODE CID
AC$MASS_SPECTROMETRY: IONIZATION ESI
AC$CHROMATOGRAPHY: COLUMN_NAME Zorbax Eclipse Plus C18 2.1 mm x 150 mm, 3.5 um, Agilent
AC$CHROMATOGRAPHY: COLUMN_TEMPERATURE 40 °C
AC$CHROMATOGRAPHY: FLOW_GRADIENT 0 min min 98% A, 1 min 98% A, 2 min 80% A, 16.5 min 2% A, 22 min 2% A, 22.1 min 98% A, 27 min 98% A
AC$CHROMATOGRAPHY: FLOW_RATE 0.3 mL/min
AC$CHROMATOGRAPHY: RETENTION_TIME 9.017 min
AC$CHROMATOGRAPHY: SOLVENT A: Water 0.1% Formic acid, B: Acetonitrile 0.1% Formic acid
MS$FOCUSED_ION: PRECURSOR_M/Z 331.161
MS$FOCUSED_ION: PRECURSOR_TYPE [M]+
MS$DATA_PROCESSING: COMMENT Export with Spectra 1.9.12 MsBackendMassbank 1.7.4
MS$DATA_PROCESSING: WHOLE RMassBank 2.3.1
PK$SPLASH: splash10-0zfr-0900000000-921433f08bef701cd0bc
PK$NUM_PEAK: 13
PK$PEAK: m/z int. rel.int.
  80.9918 13.9 58
  89.041 25.4 107
  107.0072 122.9 518
  115.0567 80.6 340
  126.0488 24.2 102
  133.0223 20.5 86
  139.0567 67.8 286
  150.0481 16.4 69
  151.0567 59.1 249
  152.0649 236.7 999
  157.0228 123.6 521
  181.0225 60 253
  183.0377 79.5 335
//
