ACCESSION: MSBNK-BAFG-CSL23110914089
RECORD_TITLE: Tris(4-methylphenyl) phosphate; LC-ESI-QTOF; MS2; 40 V
DATE: 2023.11.09
AUTHORS: Kevin S. Jewell; Björn Ehlig; Arne Wick
LICENSE: dl-de/by-2-0
COPYRIGHT: Copyright 2023 Federal Institute of Hydrology, Koblenz, Germany
COMMENT: CONFIDENCE Reference Standard (Level 1)
COMMENT: Chromatography method: dx.doi.org/10.1016/j.chroma.2015.11.014
COMMENT: Acquisition method: 10.1002/rcm.8541
CH$NAME: Tris(4-methylphenyl) phosphate
CH$COMPOUND_CLASS: Industrial_process
CH$FORMULA: C21H21O4P
CH$EXACT_MASS: 368.1177
CH$SMILES: CC1=CC=C(C=C1)OP(=O)(OC2=CC=C(C=C2)C)OC3=CC=C(C=C3)C
CH$IUPAC: InChI=1S/C21H21O4P/c1-16-4-10-19(11-5-16)23-26(22,24-20-12-6-17(2)7-13-20)25-21-14-8-18(3)9-15-21/h4-15H,1-3H3
CH$LINK: CAS 78-32-0
CH$LINK: INCHIKEY BOSMZFBHAYFUBJ-UHFFFAOYSA-N
AC$INSTRUMENT: TripleTOF 6600 SCIEX
AC$INSTRUMENT_TYPE: LC-ESI-QTOF
AC$MASS_SPECTROMETRY: MS_TYPE MS2
AC$MASS_SPECTROMETRY: ION_MODE POSITIVE
AC$MASS_SPECTROMETRY: COLLISION_ENERGY 40
AC$MASS_SPECTROMETRY: FRAGMENTATION_MODE CID
AC$MASS_SPECTROMETRY: IONIZATION ESI
AC$CHROMATOGRAPHY: COLUMN_NAME Zorbax Eclipse Plus C18 2.1 mm x 150 mm, 3.5 um, Agilent
AC$CHROMATOGRAPHY: COLUMN_TEMPERATURE 40 °C
AC$CHROMATOGRAPHY: FLOW_GRADIENT 0 min min 98% A, 1 min 98% A, 2 min 80% A, 16.5 min 2% A, 22 min 2% A, 22.1 min 98% A, 27 min 98% A
AC$CHROMATOGRAPHY: FLOW_RATE 0.3 mL/min
AC$CHROMATOGRAPHY: RETENTION_TIME 15.924 min
AC$CHROMATOGRAPHY: SOLVENT A: Water 0.1% Formic acid, B: Acetonitrile 0.1% Formic acid
MS$FOCUSED_ION: PRECURSOR_M/Z 369.125
MS$FOCUSED_ION: PRECURSOR_TYPE [M+H]+
MS$DATA_PROCESSING: COMMENT Export with Spectra 1.9.12 MsBackendMassbank 1.7.4
MS$DATA_PROCESSING: WHOLE RMassBank 2.3.1
PK$SPLASH: splash10-014i-2957000000-2fe84a7ccf80a5fcce96
PK$NUM_PEAK: 28
PK$PEAK: m/z int. rel.int.
  65.0377 29.4 41
  77.0376 7.2 10
  79.0535 10.1 14
  91.0538 169.6 241
  107.0484 39.4 56
  109.0634 7.8 11
  141.0693 10.3 14
  153.0692 17.3 24
  165.0706 267 380
  166.0783 286.3 408
  178.0776 13.5 19
  179.0859 34.3 48
  180.0934 9.3 13
  181.1015 44.7 63
  189.0316 15.4 21
  195.0804 12.5 17
  196.0892 50.4 71
  199.1125 11.2 15
  215.0632 9.4 13
  241.1026 29 41
  243.0591 228 325
  255.1189 18.1 25
  256.1266 51.8 73
  261.0699 76.9 109
  279.0808 93.1 132
  333.1069 7.8 11
  351.117 7.1 10
  369.1304 700.2 999
//
