ACCESSION: MSBNK-BAFG-CSL23102612799
RECORD_TITLE: Hydroxychloroquine; LC-ESI-QTOF; MS2; 110 V
DATE: 2023.10.26
AUTHORS: Kevin S. Jewell; Björn Ehlig; Arne Wick
LICENSE: dl-de/by-2-0
COPYRIGHT: Copyright 2023 Federal Institute of Hydrology, Koblenz, Germany
COMMENT: CONFIDENCE Reference Standard (Level 1)
COMMENT: Chromatography method: dx.doi.org/10.1016/j.chroma.2015.11.014
COMMENT: Acquisition method: 10.1002/rcm.8541
CH$NAME: Hydroxychloroquine
CH$COMPOUND_CLASS: Pharmaceutical
CH$FORMULA: C18H26ClN3O
CH$EXACT_MASS: 335.1764
CH$SMILES: CCN(CCCC(C)NC1=C2C=CC(=CC2=NC=C1)Cl)CCO
CH$IUPAC: InChI=1S/C18H26ClN3O/c1-3-22(11-12-23)10-4-5-14(2)21-17-8-9-20-18-13-15(19)6-7-16(17)18/h6-9,13-14,23H,3-5,10-12H2,1-2H3,(H,20,21)
CH$LINK: CAS 118-42-3
CH$LINK: INCHIKEY XXSMGPRMXLTPCZ-UHFFFAOYSA-N
AC$INSTRUMENT: TripleTOF 5600 SCIEX
AC$INSTRUMENT_TYPE: LC-ESI-QTOF
AC$MASS_SPECTROMETRY: MS_TYPE MS2
AC$MASS_SPECTROMETRY: ION_MODE POSITIVE
AC$MASS_SPECTROMETRY: COLLISION_ENERGY 110
AC$MASS_SPECTROMETRY: FRAGMENTATION_MODE CID
AC$MASS_SPECTROMETRY: IONIZATION ESI
AC$CHROMATOGRAPHY: COLUMN_NAME Zorbax Eclipse Plus C18 2.1 mm x 150 mm, 3.5 um, Agilent
AC$CHROMATOGRAPHY: COLUMN_TEMPERATURE 40 °C
AC$CHROMATOGRAPHY: FLOW_GRADIENT 0 min min 98% A, 1 min 98% A, 2 min 80% A, 16.5 min 2% A, 22 min 2% A, 22.1 min 98% A, 27 min 98% A
AC$CHROMATOGRAPHY: FLOW_RATE 0.3 mL/min
AC$CHROMATOGRAPHY: RETENTION_TIME 4.747 min
AC$CHROMATOGRAPHY: SOLVENT A: Water 0.1% Formic acid, B: Acetonitrile 0.1% Formic acid
MS$FOCUSED_ION: PRECURSOR_M/Z 336.1837
MS$FOCUSED_ION: PRECURSOR_TYPE [M+H]+
MS$DATA_PROCESSING: COMMENT Export with Spectra 1.9.12 MsBackendMassbank 1.7.4
MS$DATA_PROCESSING: WHOLE RMassBank 2.3.1
PK$SPLASH: splash10-00p0-3900000000-b39e3b507ff10aa13074
PK$NUM_PEAK: 36
PK$PEAK: m/z int. rel.int.
  39.0225 0 0
  41.0385 0.2 199
  44.0528 0 0
  45.0335 0.2 199
  70.0666 0 0
  74.0154 0.1 99
  75.0234 0.6 599
  77.0373 0.1 99
  84.9836 0 0
  89.0392 0.8 799
  90.0501 0.2 199
  98.0179 0.1 99
  99.0193 0.2 199
  100.0176 0.2 199
  101.0389 0.3 299
  102.0332 0 0
  110.9966 0.2 199
  111.0042 0 0
  115.0578 0.1 99
  116.0497 0.3 299
  117.0549 1 999
  118.0512 0.1 99
  127.0402 0.3 299
  128.0489 0.9 899
  129.0561 0.3 299
  136.0104 0.3 299
  138.0128 0.1 99
  143.052 0.1 99
  143.0659 0.3 299
  144.0676 0.3 299
  151.0194 0.1 99
  155.0601 0.1 99
  155.0687 0.1 99
  162.0128 0.1 99
  163.0164 0.3 299
  168.0704 0.4 399
//
