ACCESSION: MSBNK-BAFG-CSL2311107415
RECORD_TITLE: Ethisterone; LC-ESI-QTOF; MS2; 40 V
DATE: 2023.11.10
AUTHORS: Kevin S. Jewell; Björn Ehlig; Arne Wick
LICENSE: dl-de/by-2-0
COPYRIGHT: Copyright 2023 Federal Institute of Hydrology, Koblenz, Germany
COMMENT: CONFIDENCE Reference Standard (Level 1)
COMMENT: Chromatography method: dx.doi.org/10.1016/j.chroma.2015.11.014
COMMENT: Acquisition method: 10.1002/rcm.8541
CH$NAME: Ethisterone
CH$COMPOUND_CLASS: Pharmaceutical; Metabolite
CH$FORMULA: C21H28O2
CH$EXACT_MASS: 312.2089
CH$SMILES: C[C@]12CCC(=O)C=C1CC[C@@H]3[C@@H]2CC[C@@]4(C)[C@H]3CC[C@@]4(O)C#C
CH$IUPAC: InChI=1S/C21H28O2/c1-4-21(23)12-9-18-16-6-5-14-13-15(22)7-10-19(14,2)17(16)8-11-20(18,21)3/h1,13,16-18,23H,5-12H2,2-3H3/t16-,17+,18+,19+,20+,21+/m1/s1
CH$LINK: CAS 434-03-7
CH$LINK: INCHIKEY CHNXZKVNWQUJIB-CEGNMAFCSA-N
AC$INSTRUMENT: TripleTOF 5600 SCIEX
AC$INSTRUMENT_TYPE: LC-ESI-QTOF
AC$MASS_SPECTROMETRY: MS_TYPE MS2
AC$MASS_SPECTROMETRY: ION_MODE POSITIVE
AC$MASS_SPECTROMETRY: COLLISION_ENERGY 40
AC$MASS_SPECTROMETRY: FRAGMENTATION_MODE CID
AC$MASS_SPECTROMETRY: IONIZATION ESI
AC$CHROMATOGRAPHY: COLUMN_NAME Zorbax Eclipse Plus C18 2.1 mm x 150 mm, 3.5 um, Agilent
AC$CHROMATOGRAPHY: COLUMN_TEMPERATURE 40 °C
AC$CHROMATOGRAPHY: FLOW_GRADIENT 0 min min 98% A, 1 min 98% A, 2 min 80% A, 16.5 min 2% A, 22 min 2% A, 22.1 min 98% A, 27 min 98% A
AC$CHROMATOGRAPHY: FLOW_RATE 0.3 mL/min
AC$CHROMATOGRAPHY: RETENTION_TIME 11.662 min
AC$CHROMATOGRAPHY: SOLVENT A: Water 0.1% Formic acid, B: Acetonitrile 0.1% Formic acid
MS$FOCUSED_ION: PRECURSOR_M/Z 313.2162
MS$FOCUSED_ION: PRECURSOR_TYPE [M+H]+
MS$DATA_PROCESSING: COMMENT Export with Spectra 1.9.12 MsBackendMassbank 1.7.4
MS$DATA_PROCESSING: WHOLE RMassBank 2.3.1
PK$SPLASH: splash10-0a4j-6900000000-de22d6c71180476eb532
PK$NUM_PEAK: 62
PK$PEAK: m/z int. rel.int.
  43.0251 1 10
  55.0239 0.9 9
  55.0586 1 10
  67.0581 3.4 35
  69.0732 3.2 33
  77.0413 4.9 51
  79.0578 14.8 156
  81.073 10.4 109
  83.0503 3.9 41
  91.0559 9.9 104
  93.0715 4.5 47
  95.0862 3.1 32
  97.0669 94 993
  105.07 7.4 78
  107.0515 1.2 12
  107.0852 2.8 29
  109.066 94.5 999
  115.0546 1.7 17
  116.0618 1 10
  117.0695 3.5 37
  119.0855 5.8 61
  121.0651 1.6 16
  121.1026 1.8 19
  123.0807 9.4 99
  128.0623 4.1 43
  129.0702 4.8 50
  130.0797 1.3 13
  131.0855 5.3 56
  133.1007 3.1 32
  135.0812 1.1 11
  135.1165 1.1 11
  141.0697 1.6 16
  142.0777 2.4 25
  143.0867 6 63
  145.1014 5.8 61
  147.1176 1.2 12
  149.0949 1.3 13
  155.0864 3.2 33
  156.095 1.9 20
  157.1017 4.1 43
  159.117 2.4 25
  165.0694 1 10
  167.086 1 10
  169.1004 2.3 24
  171.1165 4.6 48
  173.1342 1.1 11
  181.101 1.5 15
  183.1169 2.7 28
  185.1322 3.2 33
  187.1471 1.5 15
  195.1187 1.4 14
  197.1334 1.4 14
  199.146 2.3 24
  207.1186 1.2 12
  209.1323 1.2 12
  211.1486 1.8 19
  213.1612 1.1 11
  221.1324 1.1 11
  225.1625 1.1 11
  227.1798 2.9 30
  237.1617 1.4 14
  245.191 2.6 27
//
