ACCESSION: MSBNK-BAFG-CSL2310263297
RECORD_TITLE: Flubendazole; LC-ESI-QTOF; MS2; 90 V
DATE: 2023.10.26
AUTHORS: Kevin S. Jewell; Björn Ehlig; Arne Wick
LICENSE: dl-de/by-2-0
COPYRIGHT: Copyright 2023 Federal Institute of Hydrology, Koblenz, Germany
COMMENT: CONFIDENCE Reference Standard (Level 1)
COMMENT: Chromatography method: dx.doi.org/10.1016/j.chroma.2015.11.014
COMMENT: Acquisition method: 10.1002/rcm.8541
CH$NAME: Flubendazole
CH$COMPOUND_CLASS: Pharmaceutical
CH$FORMULA: C16H12FN3O3
CH$EXACT_MASS: 313.0863
CH$SMILES: COC(=O)Nc1[nH]c2cc(ccc2n1)C(=O)c3ccc(F)cc3
CH$IUPAC: InChI=1S/C16H12FN3O3/c1-23-16(22)20-15-18-12-7-4-10(8-13(12)19-15)14(21)9-2-5-11(17)6-3-9/h2-8H,1H3,(H2,18,19,20,22)
CH$LINK: CAS 31430-15-6
CH$LINK: INCHIKEY CPEUVMUXAHMANV-UHFFFAOYSA-N
AC$INSTRUMENT: TripleTOF 5600 SCIEX
AC$INSTRUMENT_TYPE: LC-ESI-QTOF
AC$MASS_SPECTROMETRY: MS_TYPE MS2
AC$MASS_SPECTROMETRY: ION_MODE POSITIVE
AC$MASS_SPECTROMETRY: COLLISION_ENERGY 90
AC$MASS_SPECTROMETRY: FRAGMENTATION_MODE CID
AC$MASS_SPECTROMETRY: IONIZATION ESI
AC$CHROMATOGRAPHY: COLUMN_NAME Zorbax Eclipse Plus C18 2.1 mm x 150 mm, 3.5 um, Agilent
AC$CHROMATOGRAPHY: COLUMN_TEMPERATURE 40 °C
AC$CHROMATOGRAPHY: FLOW_GRADIENT 0 min min 98% A, 1 min 98% A, 2 min 80% A, 16.5 min 2% A, 22 min 2% A, 22.1 min 98% A, 27 min 98% A
AC$CHROMATOGRAPHY: FLOW_RATE 0.3 mL/min
AC$CHROMATOGRAPHY: RETENTION_TIME 9.113 min
AC$CHROMATOGRAPHY: SOLVENT A: Water 0.1% Formic acid, B: Acetonitrile 0.1% Formic acid
MS$FOCUSED_ION: PRECURSOR_M/Z 314.0935
MS$FOCUSED_ION: PRECURSOR_TYPE [M+H]+
MS$DATA_PROCESSING: COMMENT Export with Spectra 1.9.12 MsBackendMassbank 1.7.4
MS$DATA_PROCESSING: WHOLE RMassBank 2.3.1
PK$SPLASH: splash10-002b-9200000000-bcaeb37f7bb8e3cfced6
PK$NUM_PEAK: 24
PK$PEAK: m/z int. rel.int.
  69.0161 2.7 16
  73.01 4.3 25
  74.0187 46 275
  75.027 120.5 721
  76.0214 8 47
  77.0289 22.2 132
  78.036 7 41
  95.0314 166.8 999
  103.03 4.9 29
  104.0375 25.9 155
  105.0452 19 113
  123.0304 17.4 104
  125.0394 2 11
  130.0402 7.8 46
  131.0272 2.1 12
  131.0476 9.2 55
  132.0558 2.7 16
  133.0444 3.3 19
  145.0451 2.5 14
  157.0457 6.7 40
  158.0397 5.1 30
  159.0423 6.8 40
  182.04 1.7 10
  184.0559 2.2 13
//
