ACCESSION: MSBNK-BAFG-CSL2310266796
RECORD_TITLE: 6-Acetylcodeine; LC-ESI-QTOF; MS2; 30 V
DATE: 2023.10.26
AUTHORS: Kevin S. Jewell; Björn Ehlig; Arne Wick
LICENSE: dl-de/by-2-0
COPYRIGHT: Copyright 2023 Federal Institute of Hydrology, Koblenz, Germany
COMMENT: CONFIDENCE Reference Standard (Level 1)
COMMENT: Chromatography method: dx.doi.org/10.1016/j.chroma.2015.11.014
COMMENT: Acquisition method: 10.1002/rcm.8541
CH$NAME: 6-Acetylcodeine
CH$COMPOUND_CLASS: Pharmaceutical; Transformation_product
CH$FORMULA: C20H23NO4
CH$EXACT_MASS: 341.1627
CH$SMILES: CC(=O)OC1C=CC2C3CC4=C5C2(C1OC5=C(C=C4)OC)CCN3C
CH$IUPAC: InChI=1S/C20H23NO4/c1-11(22)24-16-7-5-13-14-10-12-4-6-15(23-3)18-17(12)20(13,19(16)25-18)8-9-21(14)2/h4-7,13-14,16,19H,8-10H2,1-3H3
CH$LINK: CAS 6703-27-1
CH$LINK: INCHIKEY MFXFQKMUCYHPFQ-UHFFFAOYSA-N
AC$INSTRUMENT: TripleTOF 5600 SCIEX
AC$INSTRUMENT_TYPE: LC-ESI-QTOF
AC$MASS_SPECTROMETRY: MS_TYPE MS2
AC$MASS_SPECTROMETRY: ION_MODE POSITIVE
AC$MASS_SPECTROMETRY: COLLISION_ENERGY 30
AC$MASS_SPECTROMETRY: FRAGMENTATION_MODE CID
AC$MASS_SPECTROMETRY: IONIZATION ESI
AC$CHROMATOGRAPHY: COLUMN_NAME Zorbax Eclipse Plus C18 2.1 mm x 150 mm, 3.5 um, Agilent
AC$CHROMATOGRAPHY: COLUMN_TEMPERATURE 40 °C
AC$CHROMATOGRAPHY: FLOW_GRADIENT 0 min min 98% A, 1 min 98% A, 2 min 80% A, 16.5 min 2% A, 22 min 2% A, 22.1 min 98% A, 27 min 98% A
AC$CHROMATOGRAPHY: FLOW_RATE 0.3 mL/min
AC$CHROMATOGRAPHY: RETENTION_TIME 6.207 min
AC$CHROMATOGRAPHY: SOLVENT A: Water 0.1% Formic acid, B: Acetonitrile 0.1% Formic acid
MS$FOCUSED_ION: PRECURSOR_M/Z 342.17
MS$FOCUSED_ION: PRECURSOR_TYPE [M+H]+
MS$DATA_PROCESSING: COMMENT Export with Spectra 1.9.12 MsBackendMassbank 1.7.4
MS$DATA_PROCESSING: WHOLE RMassBank 2.3.1
PK$SPLASH: splash10-0006-0059000000-041e700a62e58e982d6b
PK$NUM_PEAK: 23
PK$PEAK: m/z int. rel.int.
  58.0706 27.4 22
  165.0706 15.6 13
  175.0751 18.9 15
  193.0651 27.8 23
  195.0805 15 12
  197.0967 53.4 44
  207.0799 12.5 10
  210.0675 15.4 12
  215.1063 24 20
  219.0801 13.2 11
  221.0964 12.7 10
  223.0753 27.9 23
  225.0916 391.1 326
  237.0908 12 10
  243.1017 27.6 23
  251.1075 32.9 27
  253.122 16.7 13
  266.1183 16.4 13
  267.126 24.5 20
  269.117 13.1 10
  282.1495 150.6 125
  300.1592 26.5 22
  342.17 1198.3 999
//
