ACCESSION: MSBNK-BAFG-CSL25010631482
RECORD_TITLE: Diethylamino hydroxybenzoyl hexyl benzoate; LC-ESI-QTOF; MS2; 60 V
DATE: 2025.01.06
AUTHORS: Ole Lessmann; Kevin S. Jewell; Björn Ehlig; Arne Wick
LICENSE: dl-de/by-2-0
COPYRIGHT: Copyright 2025 Federal Institute of Hydrology, Koblenz, Germany
COMMENT: CONFIDENCE Reference Standard (Level 1)
COMMENT: Chromatography method: dx.doi.org/10.1016/j.chroma.2015.11.014
COMMENT: Acquisition method: 10.1002/rcm.8541
CH$NAME: Diethylamino hydroxybenzoyl hexyl benzoate
CH$FORMULA: C24H31NO4
CH$EXACT_MASS: 397.2253
CH$SMILES: CCCCCCOC(=O)C1=CC=CC=C1C(=O)C2=C(C=C(C=C2)N(CC)CC)O
CH$IUPAC: InChI=1S/C24H31NO4/c1-4-7-8-11-16-29-24(28)20-13-10-9-12-19(20)23(27)21-15-14-18(17-22(21)26)25(5-2)6-3/h9-10,12-15,17,26H,4-8,11,16H2,1-3H3
CH$LINK: CAS 302776-68-7
CH$LINK: INCHIKEY FDATWRLUYRHCJE-UHFFFAOYSA-N
AC$INSTRUMENT: TripleTOF 6600 SCIEX
AC$INSTRUMENT_TYPE: LC-ESI-QTOF
AC$MASS_SPECTROMETRY: MS_TYPE MS2
AC$MASS_SPECTROMETRY: ION_MODE POSITIVE
AC$MASS_SPECTROMETRY: COLLISION_ENERGY 60
AC$MASS_SPECTROMETRY: FRAGMENTATION_MODE CID
AC$MASS_SPECTROMETRY: IONIZATION ESI
AC$CHROMATOGRAPHY: COLUMN_NAME Zorbax Eclipse Plus C18 2.1 mm x 150 mm, 3.5 um, Agilent
AC$CHROMATOGRAPHY: COLUMN_TEMPERATURE 40 °C
AC$CHROMATOGRAPHY: FLOW_GRADIENT 0 min min 98% A, 1 min 98% A, 2 min 80% A, 16.5 min 2% A, 22 min 2% A, 22.1 min 98% A, 27 min 98% A
AC$CHROMATOGRAPHY: FLOW_RATE 0.3 mL/min
AC$CHROMATOGRAPHY: RETENTION_TIME 17.769 min
AC$CHROMATOGRAPHY: SOLVENT A: Water 0.1% Formic acid, B: Acetonitrile 0.1% Formic acid
MS$FOCUSED_ION: PRECURSOR_M/Z 398.2326
MS$FOCUSED_ION: PRECURSOR_TYPE [M+H]+
MS$DATA_PROCESSING: COMMENT Export with pycsl 0.1.0.dev1 and CSL 24.4
PK$SPLASH: splash10-00ke-0590000000-ed068aa19e69dae4cf84
PK$NUM_PEAK: 63
PK$PEAK: m/z int. rel.int.
  41.0385 36.3 11
  43.0544 96.4 31
  65.0384 87.6 28
  93.0331 169.8 56
  105.0327 52.7 17
  121.0289 563.2 186
  122.0588 75.6 24
  133.0275 38.2 12
  136.075 36.6 12
  138.0904 68.5 22
  139.0536 35.2 11
  141.0691 43.7 14
  149.0233 3022.5 999
  152.0606 31.1 10
  153.069 46.1 15
  164.0704 374.1 123
  165.0696 37.7 12
  167.0481 35.2 11
  167.0778 30.6 10
  168.0571 45.7 15
  180.0795 43.1 14
  181.0641 97.7 32
  182.0593 42.5 14
  184.051 71.8 23
  194.0613 41.3 13
  194.0956 43.2 14
  195.0458 33.9 11
  195.0678 80.8 26
  196.0584 304.3 100
  197.0595 213.9 70
  198.0593 130.9 43
  204.0799 38.9 12
  208.0752 228.9 75
  209.0591 35.5 11
  210.0575 79.6 26
  210.089 53.5 17
  211.0633 144.3 47
  212.0699 159.2 52
  220.074 63.6 21
  222.0551 57.7 19
  222.0894 83.2 27
  223.0442 193.9 64
  224.0706 983.5 325
  225.0624 160.3 52
  226.0852 60.8 20
  232.0757 69.8 23
  233.0827 56.2 18
  234.0535 58.1 19
  235.0623 80.5 26
  236.0702 33.1 10
  238.0536 88.7 29
  238.0834 113.5 37
  239.059 56.6 18
  239.0927 102.9 34
  240.101 2161.2 714
  248.0705 39.3 12
  249.078 39.0 12
  250.0852 162.9 53
  251.0599 32.4 10
  252.0654 845.6 279
  266.081 2262.8 747
  267.0872 33.7 11
  268.0968 109.5 36
//