ACCESSION: MSBNK-BAFG-CSL23102727635
RECORD_TITLE: Disperse Yellow 9; LC-ESI-QTOF; MS2; 20 V
DATE: 2023.10.27
AUTHORS: Kevin S. Jewell; Björn Ehlig; Arne Wick
LICENSE: dl-de/by-2-0
COPYRIGHT: Copyright 2023 Federal Institute of Hydrology, Koblenz, Germany
COMMENT: CONFIDENCE Reference Standard (Level 1)
COMMENT: Chromatography method: dx.doi.org/10.1016/j.chroma.2015.11.014
COMMENT: Acquisition method: 10.1002/rcm.8541
CH$NAME: Disperse Yellow 9
CH$FORMULA: C12H10N4O4
CH$EXACT_MASS: 274.0702
CH$SMILES: C1=CC(=CC=C1N)NC2=C(C=C(C=C2)[N+](=O)[O-])[N+](=O)[O-]
CH$IUPAC: InChI=1S/C12H10N4O4/c13-8-1-3-9(4-2-8)14-11-6-5-10(15(17)18)7-12(11)16(19)20/h1-7,14H,13H2
CH$LINK: CAS 6373-73-5
CH$LINK: INCHIKEY JMDHCJDATBJFJS-UHFFFAOYSA-N
AC$INSTRUMENT: TripleTOF X500R SCIEX
AC$INSTRUMENT_TYPE: LC-ESI-QTOF
AC$MASS_SPECTROMETRY: MS_TYPE MS2
AC$MASS_SPECTROMETRY: ION_MODE POSITIVE
AC$MASS_SPECTROMETRY: COLLISION_ENERGY 20
AC$MASS_SPECTROMETRY: FRAGMENTATION_MODE CID
AC$MASS_SPECTROMETRY: IONIZATION ESI
AC$CHROMATOGRAPHY: COLUMN_NAME Zorbax Eclipse Plus C18 2.1 mm x 150 mm, 3.5 um, Agilent
AC$CHROMATOGRAPHY: COLUMN_TEMPERATURE 40 °C
AC$CHROMATOGRAPHY: FLOW_GRADIENT 0 min min 98% A, 1 min 98% A, 2 min 80% A, 16.5 min 2% A, 22 min 2% A, 22.1 min 98% A, 27 min 98% A
AC$CHROMATOGRAPHY: FLOW_RATE 0.3 mL/min
AC$CHROMATOGRAPHY: RETENTION_TIME 9.832 min
AC$CHROMATOGRAPHY: SOLVENT A: Water 0.1% Formic acid, B: Acetonitrile 0.1% Formic acid
MS$FOCUSED_ION: PRECURSOR_M/Z 275.0775
MS$FOCUSED_ION: PRECURSOR_TYPE [M+H]+
MS$DATA_PROCESSING: COMMENT Export with Spectra 1.9.12 MsBackendMassbank 1.7.4
MS$DATA_PROCESSING: WHOLE RMassBank 2.3.1
PK$SPLASH: splash10-002f-0190000000-d12322f6024fea9b4926
PK$NUM_PEAK: 14
PK$PEAK: m/z int. rel.int.
  108.0448 7.1 56
  168.0418 4.6 36
  182.0755 9.4 74
  183.081 1.5 11
  194.072 17.2 136
  195.0804 3.1 24
  211.0748 6.5 51
  228.0769 13.1 104
  229.0835 3.2 25
  240.0648 125.5 999
  241.0728 42.4 337
  257.0701 2.5 19
  258.0753 31.5 250
  275.0782 119.6 952
//
