ACCESSION: MSBNK-BAFG-CSL2310266717
RECORD_TITLE: Cybutryne; LC-ESI-QTOF; MS2; 40 V
DATE: 2023.10.26
AUTHORS: Kevin S. Jewell; Björn Ehlig; Arne Wick
LICENSE: dl-de/by-2-0
COPYRIGHT: Copyright 2023 Federal Institute of Hydrology, Koblenz, Germany
COMMENT: CONFIDENCE Reference Standard (Level 1)
COMMENT: Chromatography method: dx.doi.org/10.1016/j.chroma.2015.11.014
COMMENT: Acquisition method: 10.1002/rcm.8541
CH$NAME: Cybutryne
CH$COMPOUND_CLASS: Antimicrobial; Herbicide
CH$FORMULA: C11H19N5S
CH$EXACT_MASS: 253.1361
CH$SMILES: CSc1nc(NC2CC2)nc(NC(C)(C)C)n1
CH$IUPAC: InChI=1S/C11H19N5S/c1-11(2,3)16-9-13-8(12-7-5-6-7)14-10(15-9)17-4/h7H,5-6H2,1-4H3,(H2,12,13,14,15,16)
CH$LINK: CAS 28159-98-0
CH$LINK: INCHIKEY HDHLIWCXDDZUFH-UHFFFAOYSA-N
AC$INSTRUMENT: TripleTOF 5600 SCIEX
AC$INSTRUMENT_TYPE: LC-ESI-QTOF
AC$MASS_SPECTROMETRY: MS_TYPE MS2
AC$MASS_SPECTROMETRY: ION_MODE POSITIVE
AC$MASS_SPECTROMETRY: COLLISION_ENERGY 40
AC$MASS_SPECTROMETRY: FRAGMENTATION_MODE CID
AC$MASS_SPECTROMETRY: IONIZATION ESI
AC$CHROMATOGRAPHY: COLUMN_NAME Zorbax Eclipse Plus C18 2.1 mm x 150 mm, 3.5 um, Agilent
AC$CHROMATOGRAPHY: COLUMN_TEMPERATURE 40 °C
AC$CHROMATOGRAPHY: FLOW_GRADIENT 0 min min 98% A, 1 min 98% A, 2 min 80% A, 16.5 min 2% A, 22 min 2% A, 22.1 min 98% A, 27 min 98% A
AC$CHROMATOGRAPHY: FLOW_RATE 0.3 mL/min
AC$CHROMATOGRAPHY: RETENTION_TIME 10.202 min
AC$CHROMATOGRAPHY: SOLVENT A: Water 0.1% Formic acid, B: Acetonitrile 0.1% Formic acid
MS$FOCUSED_ION: PRECURSOR_M/Z 254.1434
MS$FOCUSED_ION: PRECURSOR_TYPE [M+H]+
MS$DATA_PROCESSING: COMMENT Export with Spectra 1.9.12 MsBackendMassbank 1.7.4
MS$DATA_PROCESSING: WHOLE RMassBank 2.3.1
PK$SPLASH: splash10-0002-5900000000-b9d6d16393d23286ed93
PK$NUM_PEAK: 24
PK$PEAK: m/z int. rel.int.
  55.0375 0.5 10
  56.0547 4.6 100
  57.0747 0.6 13
  58.0709 1 21
  68.0284 6.6 144
  68.0596 0.5 10
  74.0092 5.5 120
  81.0471 1.1 24
  83.063 12.1 265
  87.0278 1.2 26
  91.0341 11.2 245
  108.0558 9.7 212
  114.0119 0.6 13
  114.0379 0.8 17
  116.0281 3.5 76
  125.0823 3.5 76
  150.0771 2.7 59
  156.0348 1.4 30
  156.059 3.1 68
  158.049 0.5 10
  170.0496 0.9 19
  171.0687 0.8 17
  198.0814 45.5 999
  254.1437 5.6 122
//
