ACCESSION: MSBNK-BAFG-CSL23102611921
RECORD_TITLE: Isopropyltriphenylphosphonium; LC-ESI-QTOF; MS2; 30 V
DATE: 2023.10.26
AUTHORS: Kevin S. Jewell; Björn Ehlig; Arne Wick
LICENSE: dl-de/by-2-0
COPYRIGHT: Copyright 2023 Federal Institute of Hydrology, Koblenz, Germany
COMMENT: CONFIDENCE Reference Standard (Level 1)
COMMENT: Chromatography method: dx.doi.org/10.1016/j.chroma.2015.11.014
COMMENT: Acquisition method: 10.1002/rcm.8541
CH$NAME: Isopropyltriphenylphosphonium
CH$FORMULA: [C21H22P]+
CH$EXACT_MASS: 305.1454
CH$SMILES: CC(C)[P+](C1=CC=CC=C1)(C2=CC=CC=C2)C3=CC=CC=C3
CH$IUPAC: InChI=1S/C21H22P/c1-18(2)22(19-12-6-3-7-13-19,20-14-8-4-9-15-20)21-16-10-5-11-17-21/h3-18H,1-2H3/q+1
CH$LINK: CAS 24470-78-8
CH$LINK: INCHIKEY PXIMQGSMXJFQOF-UHFFFAOYSA-N
AC$INSTRUMENT: TripleTOF 5600 SCIEX
AC$INSTRUMENT_TYPE: LC-ESI-QTOF
AC$MASS_SPECTROMETRY: MS_TYPE MS2
AC$MASS_SPECTROMETRY: ION_MODE POSITIVE
AC$MASS_SPECTROMETRY: COLLISION_ENERGY 30
AC$MASS_SPECTROMETRY: FRAGMENTATION_MODE CID
AC$MASS_SPECTROMETRY: IONIZATION ESI
AC$CHROMATOGRAPHY: COLUMN_NAME Zorbax Eclipse Plus C18 2.1 mm x 150 mm, 3.5 um, Agilent
AC$CHROMATOGRAPHY: COLUMN_TEMPERATURE 40 °C
AC$CHROMATOGRAPHY: FLOW_GRADIENT 0 min min 98% A, 1 min 98% A, 2 min 80% A, 16.5 min 2% A, 22 min 2% A, 22.1 min 98% A, 27 min 98% A
AC$CHROMATOGRAPHY: FLOW_RATE 0.3 mL/min
AC$CHROMATOGRAPHY: RETENTION_TIME 7.721 min
AC$CHROMATOGRAPHY: SOLVENT A: Water 0.1% Formic acid, B: Acetonitrile 0.1% Formic acid
MS$FOCUSED_ION: PRECURSOR_M/Z 305.1454
MS$FOCUSED_ION: PRECURSOR_TYPE [M]+
MS$DATA_PROCESSING: COMMENT Export with Spectra 1.9.12 MsBackendMassbank 1.7.4
MS$DATA_PROCESSING: WHOLE RMassBank 2.3.1
PK$SPLASH: splash10-0bt9-0169000000-992b42276fe50869a818
PK$NUM_PEAK: 5
PK$PEAK: m/z int. rel.int.
  183.0358 88.1 105
  185.0513 91.6 109
  262.0902 75.4 90
  263.0978 479.8 575
  305.1444 832.3 999
//
