ACCESSION: MSBNK-BAFG-CSL25011734648
RECORD_TITLE: Reactive Orange; LC-ESI-QTOF; MS2; 40 V
DATE: 2025.01.17
AUTHORS: Ole Lessmann; Kevin S. Jewell; Björn Ehlig; Arne Wick
LICENSE: dl-de/by-2-0
COPYRIGHT: Copyright 2025 Federal Institute of Hydrology, Koblenz, Germany
COMMENT: CONFIDENCE Reference Standard (Level 1)
COMMENT: Chromatography method: dx.doi.org/10.1016/j.chroma.2015.11.014
CH$NAME: Reactive Orange
CH$FORMULA: C20H19N3O11S3
CH$EXACT_MASS: 573.0182
CH$SMILES: CC(=O)NC1=CC2=C(C(=C(C=C2C=C1)S(=O)(=O)O)N=NC3=CC=C(C=C3)S(=O)(=O)CCOS(=O)(=O)O)O
CH$IUPAC: InChI=1S/C20H19N3O11S3/c1-12(24)21-15-3-2-13-10-18(36(28,29)30)19(20(25)17(13)11-15)23-22-14-4-6-16(7-5-14)35(26,27)9-8-34-37(31,32)33/h2-7,10-11,25H,8-9H2,1H3,(H,21,24)(H,28,29,30)(H,31,32,33)
CH$LINK: CAS 109603-48-7
CH$LINK: INCHIKEY INOIOAWTVPHTCJ-UHFFFAOYSA-N
AC$INSTRUMENT: TripleTOF 6600 SCIEX
AC$INSTRUMENT_TYPE: LC-ESI-QTOF
AC$MASS_SPECTROMETRY: MS_TYPE MS2
AC$MASS_SPECTROMETRY: ION_MODE POSITIVE
AC$MASS_SPECTROMETRY: COLLISION_ENERGY 40
AC$MASS_SPECTROMETRY: FRAGMENTATION_MODE CID
AC$MASS_SPECTROMETRY: IONIZATION ESI
AC$CHROMATOGRAPHY: COLUMN_NAME Zorbax Eclipse Plus C18 2.1 mm x 150 mm, 3.5 um, Agilent
AC$CHROMATOGRAPHY: COLUMN_TEMPERATURE 40 °C
AC$CHROMATOGRAPHY: FLOW_GRADIENT 0 min min 98% A, 1 min 98% A, 2 min 80% A, 16.5 min 2% A, 22 min 2% A, 22.1 min 98% A, 27 min 98% A
AC$CHROMATOGRAPHY: FLOW_RATE 0.3 mL/min
AC$CHROMATOGRAPHY: RETENTION_TIME 5.751 min
AC$CHROMATOGRAPHY: SOLVENT A: Water 0.1% Formic acid, B: Acetonitrile 0.1% Formic acid
MS$FOCUSED_ION: PRECURSOR_M/Z 574.0255
MS$FOCUSED_ION: PRECURSOR_TYPE [M+H]+
MS$DATA_PROCESSING: COMMENT Export with pycsl 0.1.0.dev1 and CSL 25.0
PK$SPLASH: splash10-0r29-0647920000-5cd7cd330c69d1c089c7
PK$NUM_PEAK: 45
PK$PEAK: m/z int. rel.int.
  74.989 9.2 27
  81.0324 8.6 25
  93.0559 3.7 11
  108.0439 307.9 929
  136.0746 24.5 73
  156.0092 9.3 28
  159.054 8.4 25
  170.0462 125.3 378
  171.0531 16.6 50
  200.0365 9.0 27
  211.0483 7.0 21
  212.0582 46.4 139
  213.0653 50.0 150
  214.0478 8.1 24
  233.087 9.6 28
  260.0808 10.5 31
  261.0895 141.1 425
  262.0752 4.6 13
  275.0929 9.8 29
  277.098 5.2 15
  281.0009 12.2 36
  302.0905 90.3 272
  303.1004 265.2 800
  304.1056 8.6 25
  343.0743 10.1 30
  352.0764 6.6 19
  358.0831 12.5 37
  366.0533 24.2 73
  367.0641 30.9 93
  368.0681 19.1 57
  370.0877 24.2 73
  385.0764 18.9 57
  386.0793 66.5 200
  394.0838 27.0 81
  400.0933 29.5 89
  412.0962 171.5 517
  428.0922 15.3 46
  434.0495 4.9 14
  438.0375 7.7 23
  458.0488 20.6 62
  466.0356 91.0 274
  476.0577 331.1 999
  480.052 22.7 68
  508.0477 11.5 34
  556.013 145.5 439
//
