ACCESSION: MSBNK-BAFG-CSL2311097561
RECORD_TITLE: Progesterone; LC-ESI-QTOF; MS2; 20 V
DATE: 2023.11.09
AUTHORS: Kevin S. Jewell; Björn Ehlig; Arne Wick
LICENSE: dl-de/by-2-0
COPYRIGHT: Copyright 2023 Federal Institute of Hydrology, Koblenz, Germany
COMMENT: CONFIDENCE Reference Standard (Level 1)
COMMENT: Chromatography method: dx.doi.org/10.1016/j.chroma.2015.11.014
COMMENT: Acquisition method: 10.1002/rcm.8541
CH$NAME: Progesterone
CH$COMPOUND_CLASS: Pharmaceutical
CH$FORMULA: C21H30O2
CH$EXACT_MASS: 314.2246
CH$SMILES: CC(=O)[C@H]1CC[C@H]2[C@@H]3CCC4=CC(=O)CC[C@]4(C)[C@H]3CC[C@]12C
CH$IUPAC: InChI=1S/C21H30O2/c1-13(22)17-6-7-18-16-5-4-14-12-15(23)8-10-20(14,2)19(16)9-11-21(17,18)3/h12,16-19H,4-11H2,1-3H3/t16-,17+,18-,19-,20-,21+/m0/s1
CH$LINK: CAS 57-83-0
CH$LINK: INCHIKEY RJKFOVLPORLFTN-LEKSSAKUSA-N
AC$INSTRUMENT: TripleTOF 5600 SCIEX
AC$INSTRUMENT_TYPE: LC-ESI-QTOF
AC$MASS_SPECTROMETRY: MS_TYPE MS2
AC$MASS_SPECTROMETRY: ION_MODE POSITIVE
AC$MASS_SPECTROMETRY: COLLISION_ENERGY 20
AC$MASS_SPECTROMETRY: FRAGMENTATION_MODE CID
AC$MASS_SPECTROMETRY: IONIZATION ESI
AC$CHROMATOGRAPHY: COLUMN_NAME Zorbax Eclipse Plus C18 2.1 mm x 150 mm, 3.5 um, Agilent
AC$CHROMATOGRAPHY: COLUMN_TEMPERATURE 40 °C
AC$CHROMATOGRAPHY: FLOW_GRADIENT 0 min min 98% A, 1 min 98% A, 2 min 80% A, 16.5 min 2% A, 22 min 2% A, 22.1 min 98% A, 27 min 98% A
AC$CHROMATOGRAPHY: FLOW_RATE 0.3 mL/min
AC$CHROMATOGRAPHY: RETENTION_TIME 13.796 min
AC$CHROMATOGRAPHY: SOLVENT A: Water 0.1% Formic acid, B: Acetonitrile 0.1% Formic acid
MS$FOCUSED_ION: PRECURSOR_M/Z 315.2319
MS$FOCUSED_ION: PRECURSOR_TYPE [M+H]+
MS$DATA_PROCESSING: COMMENT Export with Spectra 1.9.12 MsBackendMassbank 1.7.4
MS$DATA_PROCESSING: WHOLE RMassBank 2.3.1
PK$SPLASH: splash10-052b-7930000000-1a535172a6a54541c087
PK$NUM_PEAK: 44
PK$PEAK: m/z int. rel.int.
  79.0565 1.5 10
  81.0711 2.6 18
  83.051 4.6 31
  85.0663 5.1 35
  95.0873 2.5 17
  97.0668 144 999
  109.0657 99.4 689
  109.0977 1.8 12
  119.0848 2.2 15
  121.102 3.4 23
  123.0796 10.4 72
  131.0861 1.7 11
  133.1002 2.5 17
  135.1156 2.8 19
  137.0947 2.4 16
  145.1008 3.5 24
  147.1159 5.1 35
  149.1317 1.8 12
  159.115 4.2 29
  161.132 2.2 15
  163.1109 2.9 20
  171.1148 2.7 18
  173.1312 5.6 38
  175.1472 2.7 18
  177.1265 6.5 45
  183.1166 1.9 13
  185.1311 2.2 15
  187.147 3 20
  189.1262 4.5 31
  191.1413 2.9 20
  197.1329 2.5 17
  199.1461 1.5 10
  201.1621 5.7 39
  213.1622 4.1 28
  215.1436 3.1 21
  215.1784 8.5 58
  223.1469 4.1 28
  227.1773 5 34
  229.1562 4.5 31
  233.1882 6.4 44
  237.1631 1.9 13
  239.1784 10.8 74
  241.1569 6.3 43
  245.1877 7.3 50
//
