ACCESSION: MSBNK-BAFG-CSL23110918281
RECORD_TITLE: 4-(4-Chloro-2-methylphenoxy)butanoic acid; LC-ESI-QTOF; MS2; 100 V
DATE: 2023.11.09
AUTHORS: Kevin S. Jewell; Björn Ehlig; Arne Wick
LICENSE: dl-de/by-2-0
COPYRIGHT: Copyright 2023 Federal Institute of Hydrology, Koblenz, Germany
COMMENT: CONFIDENCE Reference Standard (Level 1)
COMMENT: Chromatography method: dx.doi.org/10.1016/j.chroma.2015.11.014
COMMENT: Acquisition method: 10.1002/rcm.8541
CH$NAME: 4-(4-Chloro-2-methylphenoxy)butanoic acid
CH$COMPOUND_CLASS: Herbicide
CH$FORMULA: C11H13ClO3
CH$EXACT_MASS: 228.0553
CH$SMILES: CC1=C(C=CC(=C1)Cl)OCCCC(=O)O
CH$IUPAC: InChI=1S/C11H13ClO3/c1-8-7-9(12)4-5-10(8)15-6-2-3-11(13)14/h4-5,7H,2-3,6H2,1H3,(H,13,14)
CH$LINK: CAS 94-81-5
CH$LINK: INCHIKEY LLWADFLAOKUBDR-UHFFFAOYSA-N
AC$INSTRUMENT: TripleTOF 6600 SCIEX
AC$INSTRUMENT_TYPE: LC-ESI-QTOF
AC$MASS_SPECTROMETRY: MS_TYPE MS2
AC$MASS_SPECTROMETRY: ION_MODE POSITIVE
AC$MASS_SPECTROMETRY: COLLISION_ENERGY 100
AC$MASS_SPECTROMETRY: FRAGMENTATION_MODE CID
AC$MASS_SPECTROMETRY: IONIZATION ESI
AC$CHROMATOGRAPHY: COLUMN_NAME Zorbax Eclipse Plus C18 2.1 mm x 150 mm, 3.5 um, Agilent
AC$CHROMATOGRAPHY: COLUMN_TEMPERATURE 40 °C
AC$CHROMATOGRAPHY: FLOW_GRADIENT 0 min min 98% A, 1 min 98% A, 2 min 80% A, 16.5 min 2% A, 22 min 2% A, 22.1 min 98% A, 27 min 98% A
AC$CHROMATOGRAPHY: FLOW_RATE 0.3 mL/min
AC$CHROMATOGRAPHY: RETENTION_TIME 11.775 min
AC$CHROMATOGRAPHY: SOLVENT A: Water 0.1% Formic acid, B: Acetonitrile 0.1% Formic acid
MS$FOCUSED_ION: PRECURSOR_M/Z 229.0626
MS$FOCUSED_ION: PRECURSOR_TYPE [M+H]+
MS$DATA_PROCESSING: COMMENT Export with Spectra 1.9.12 MsBackendMassbank 1.7.4
MS$DATA_PROCESSING: WHOLE RMassBank 2.3.1
PK$SPLASH: splash10-000i-9000000000-87d87e7ef26188a249b0
PK$NUM_PEAK: 25
PK$PEAK: m/z int. rel.int.
  35.9979 0.1 31
  37.0072 1 312
  38.0015 0.1 31
  38.0143 0.8 249
  39.0223 3.2 999
  41.038 0.4 124
  43.0168 1.4 437
  44.9961 0.9 280
  45.0341 1.6 499
  48.9826 0.2 62
  51.0224 0.7 218
  53.0364 0.1 31
  59.9957 0.1 31
  72.9838 0.6 187
  74.017 0.3 93
  75.0198 0.3 93
  77.0359 0.6 187
  89.0373 0.8 249
  90.0401 0.2 62
  91.0495 0.1 31
  99.0028 0.1 31
  115.0567 0.6 187
  127.0556 0.2 62
  128.061 0.2 62
  128.0671 0.2 62
//
