ACCESSION: MSBNK-BAFG-CSL2310306141
RECORD_TITLE: Triphenylphosphine oxide; LC-ESI-QTOF; MS2; 70 V
DATE: 2023.10.30
AUTHORS: Kevin S. Jewell; Björn Ehlig; Arne Wick
LICENSE: dl-de/by-2-0
COPYRIGHT: Copyright 2023 Federal Institute of Hydrology, Koblenz, Germany
COMMENT: CONFIDENCE Reference Standard (Level 1)
COMMENT: Chromatography method: dx.doi.org/10.1016/j.chroma.2015.11.014
COMMENT: Acquisition method: 10.1002/rcm.8541
CH$NAME: Triphenylphosphine oxide
CH$COMPOUND_CLASS: Industrial_process
CH$FORMULA: C18H15OP
CH$EXACT_MASS: 278.0861
CH$SMILES: O=[P](c1ccccc1)(c2ccccc2)c3ccccc3
CH$IUPAC: InChI=1S/C18H15OP/c19-20(16-10-4-1-5-11-16,17-12-6-2-7-13-17)18-14-8-3-9-15-18/h1-15H
CH$LINK: CAS 791-28-6
CH$LINK: INCHIKEY FIQMHBFVRAXMOP-UHFFFAOYSA-N
AC$INSTRUMENT: TripleTOF 5600 SCIEX
AC$INSTRUMENT_TYPE: LC-ESI-QTOF
AC$MASS_SPECTROMETRY: MS_TYPE MS2
AC$MASS_SPECTROMETRY: ION_MODE POSITIVE
AC$MASS_SPECTROMETRY: COLLISION_ENERGY 70
AC$MASS_SPECTROMETRY: FRAGMENTATION_MODE CID
AC$MASS_SPECTROMETRY: IONIZATION ESI
AC$CHROMATOGRAPHY: COLUMN_NAME Zorbax Eclipse Plus C18 2.1 mm x 150 mm, 3.5 um, Agilent
AC$CHROMATOGRAPHY: COLUMN_TEMPERATURE 40 °C
AC$CHROMATOGRAPHY: FLOW_GRADIENT 0 min min 98% A, 1 min 98% A, 2 min 80% A, 16.5 min 2% A, 22 min 2% A, 22.1 min 98% A, 27 min 98% A
AC$CHROMATOGRAPHY: FLOW_RATE 0.3 mL/min
AC$CHROMATOGRAPHY: RETENTION_TIME 10.458 min
AC$CHROMATOGRAPHY: SOLVENT A: Water 0.1% Formic acid, B: Acetonitrile 0.1% Formic acid
MS$FOCUSED_ION: PRECURSOR_M/Z 279.0933
MS$FOCUSED_ION: PRECURSOR_TYPE [M+H]+
MS$DATA_PROCESSING: COMMENT Export with Spectra 1.9.12 MsBackendMassbank 1.7.4
MS$DATA_PROCESSING: WHOLE RMassBank 2.3.1
PK$SPLASH: splash10-004i-8900000000-c9e4dc84b26bfcb57973
PK$NUM_PEAK: 27
PK$PEAK: m/z int. rel.int.
  51.0305 29.1 215
  68.9928 9.2 68
  77.0419 135 999
  95.0058 25.5 188
  107.0039 6.2 45
  115.0541 7.2 53
  122.9986 3.1 22
  125.0141 1.8 13
  127.0524 3.5 25
  128.0622 26.3 194
  129.0698 8.2 60
  133.0204 14.9 110
  139.0532 3.1 22
  141.0685 4.8 35
  145.0198 2.4 17
  147.0344 2 14
  151.0538 2.3 17
  152.0619 23.5 173
  153.0698 19.1 141
  154.0765 7.2 53
  157.0206 6 44
  170.0285 16.2 119
  171.0356 18.1 133
  173.0527 5.9 43
  181.0238 1.5 11
  183.0352 21.8 161
  201.0472 4.8 35
//
