ACCESSION: MSBNK-BAFG-CSL23111012704
RECORD_TITLE: Tetracycline; LC-ESI-QTOF; MS2; 130 V
DATE: 2023.11.10
AUTHORS: Kevin S. Jewell; Björn Ehlig; Arne Wick
LICENSE: dl-de/by-2-0
COPYRIGHT: Copyright 2023 Federal Institute of Hydrology, Koblenz, Germany
COMMENT: CONFIDENCE Reference Standard (Level 1)
COMMENT: Chromatography method: dx.doi.org/10.1016/j.chroma.2015.11.014
COMMENT: Acquisition method: 10.1002/rcm.8541
CH$NAME: Tetracycline
CH$COMPOUND_CLASS: Pharmaceutical
CH$FORMULA: C22H24N2O8
CH$EXACT_MASS: 444.1533
CH$SMILES: CC1(C2CC3C(C(=O)C(=C(C3(C(=O)C2=C(C4=C1C=CC=C4O)O)O)O)C(=O)N)N(C)C)O
CH$IUPAC: InChI=1S/C22H24N2O8/c1-21(31)8-5-4-6-11(25)12(8)16(26)13-9(21)7-10-15(24(2)3)17(27)14(20(23)30)19(29)22(10,32)18(13)28/h4-6,9-10,15,25-26,29,31-32H,7H2,1-3H3,(H2,23,30)
CH$LINK: CAS 60-54-8
CH$LINK: INCHIKEY NWXMGUDVXFXRIG-UHFFFAOYSA-N
AC$INSTRUMENT: TripleTOF 5600 SCIEX
AC$INSTRUMENT_TYPE: LC-ESI-QTOF
AC$MASS_SPECTROMETRY: MS_TYPE MS2
AC$MASS_SPECTROMETRY: ION_MODE POSITIVE
AC$MASS_SPECTROMETRY: COLLISION_ENERGY 130
AC$MASS_SPECTROMETRY: FRAGMENTATION_MODE CID
AC$MASS_SPECTROMETRY: IONIZATION ESI
AC$CHROMATOGRAPHY: COLUMN_NAME Zorbax Eclipse Plus C18 2.1 mm x 150 mm, 3.5 um, Agilent
AC$CHROMATOGRAPHY: COLUMN_TEMPERATURE 40 °C
AC$CHROMATOGRAPHY: FLOW_GRADIENT 0 min min 98% A, 1 min 98% A, 2 min 80% A, 16.5 min 2% A, 22 min 2% A, 22.1 min 98% A, 27 min 98% A
AC$CHROMATOGRAPHY: FLOW_RATE 0.3 mL/min
AC$CHROMATOGRAPHY: RETENTION_TIME 5.46 min
AC$CHROMATOGRAPHY: SOLVENT A: Water 0.1% Formic acid, B: Acetonitrile 0.1% Formic acid
MS$FOCUSED_ION: PRECURSOR_M/Z 445.1605
MS$FOCUSED_ION: PRECURSOR_TYPE [M+H]+
MS$DATA_PROCESSING: COMMENT Export with Spectra 1.9.12 MsBackendMassbank 1.7.4
MS$DATA_PROCESSING: WHOLE RMassBank 2.3.1
PK$SPLASH: splash10-0udi-0900000000-0ec7e954c973f114a664
PK$NUM_PEAK: 38
PK$PEAK: m/z int. rel.int.
  44.0481 0.1 32
  55.0179 0.1 32
  68.9923 0.1 32
  77.0401 0.3 96
  89.0374 0.2 64
  102.0433 0.1 32
  114.0426 0.3 96
  115.0529 0.5 161
  126.047 0.1 32
  127.0526 0.3 96
  129.0674 0.1 32
  138.0376 0.1 32
  139.0527 2.2 708
  140.0623 0.5 161
  141.0687 0.3 96
  150.0472 1 322
  151.0526 1 322
  152.0606 3.1 999
  153.07 0.3 96
  157.0632 0.1 32
  163.0581 0.7 225
  164.0558 0.1 32
  164.0657 0.3 96
  164.0783 0.1 32
  165.0704 1.1 354
  168.0589 0.6 193
  169.0683 0.1 32
  175.061 0.1 32
  176.0615 0.9 290
  178.078 0.3 96
  179.0407 0.1 32
  180.0605 0.2 64
  181.0576 0.1 32
  181.0709 0.2 64
  187.0569 0.1 32
  188.065 0.1 32
  189.0675 0.2 64
  197.0531 0.2 64
//
