ACCESSION: MSBNK-BAFG-CSL23103018842
RECORD_TITLE: Fluquinconazole; LC-ESI-QTOF; MS2; 140 V
DATE: 2023.10.30
AUTHORS: Kevin S. Jewell; Björn Ehlig; Arne Wick
LICENSE: dl-de/by-2-0
COPYRIGHT: Copyright 2023 Federal Institute of Hydrology, Koblenz, Germany
COMMENT: CONFIDENCE Reference Standard (Level 1)
COMMENT: Chromatography method: dx.doi.org/10.1016/j.chroma.2015.11.014
COMMENT: Acquisition method: 10.1002/rcm.8541
CH$NAME: Fluquinconazole
CH$COMPOUND_CLASS: Fungicide
CH$FORMULA: C16H8Cl2FN5O
CH$EXACT_MASS: 375.009
CH$SMILES: C1=CC2=C(C=C1F)C(=O)N(C(=N2)N3C=NC=N3)C4=C(C=C(C=C4)Cl)Cl
CH$IUPAC: InChI=1S/C16H8Cl2FN5O/c17-9-1-4-14(12(18)5-9)24-15(25)11-6-10(19)2-3-13(11)22-16(24)23-8-20-7-21-23/h1-8H
CH$LINK: CAS 136426-54-5
CH$LINK: INCHIKEY IJJVMEJXYNJXOJ-UHFFFAOYSA-N
AC$INSTRUMENT: TripleTOF 6600 SCIEX
AC$INSTRUMENT_TYPE: LC-ESI-QTOF
AC$MASS_SPECTROMETRY: MS_TYPE MS2
AC$MASS_SPECTROMETRY: ION_MODE POSITIVE
AC$MASS_SPECTROMETRY: COLLISION_ENERGY 140
AC$MASS_SPECTROMETRY: FRAGMENTATION_MODE CID
AC$MASS_SPECTROMETRY: IONIZATION ESI
AC$CHROMATOGRAPHY: COLUMN_NAME Zorbax Eclipse Plus C18 2.1 mm x 150 mm, 3.5 um, Agilent
AC$CHROMATOGRAPHY: COLUMN_TEMPERATURE 40 °C
AC$CHROMATOGRAPHY: FLOW_GRADIENT 0 min min 98% A, 1 min 98% A, 2 min 80% A, 16.5 min 2% A, 22 min 2% A, 22.1 min 98% A, 27 min 98% A
AC$CHROMATOGRAPHY: FLOW_RATE 0.3 mL/min
AC$CHROMATOGRAPHY: RETENTION_TIME 12.549 min
AC$CHROMATOGRAPHY: SOLVENT A: Water 0.1% Formic acid, B: Acetonitrile 0.1% Formic acid
MS$FOCUSED_ION: PRECURSOR_M/Z 376.0163
MS$FOCUSED_ION: PRECURSOR_TYPE [M+H]+
MS$DATA_PROCESSING: COMMENT Export with Spectra 1.9.12 MsBackendMassbank 1.7.4
MS$DATA_PROCESSING: WHOLE RMassBank 2.3.1
PK$SPLASH: splash10-05ai-9100000000-cd7a2ad6691f4ae83b19
PK$NUM_PEAK: 47
PK$PEAK: m/z int. rel.int.
  30.9972 5.1 223
  33.0131 1.9 83
  37.0067 1.8 78
  38.0157 0.4 17
  39.0231 0.4 17
  46.9674 1 43
  48.9831 1.4 61
  50.0142 0.9 39
  57.0129 21.7 950
  58.0078 1.2 52
  59.9992 0.6 26
  61.0072 3.5 153
  62.0014 0.5 21
  62.0142 1.8 78
  63.0217 1 43
  64.0177 5.2 227
  68.0049 0.8 35
  72.983 5.1 223
  73.0056 3.5 153
  73.9769 0.5 21
  74.0143 15.4 674
  75.0082 0.5 21
  75.0216 1.9 83
  76.0157 0.6 26
  81.0122 7.4 324
  82.0079 22.8 999
  82.9428 1.1 48
  83.9739 0.7 30
  84.9807 0.6 26
  87.0091 0.9 39
  88.0165 2.4 105
  94.0199 1.1 48
  96.9835 0.8 35
  97.9768 0.5 21
  99.0088 6.8 297
  100.0165 6 262
  106.0082 0.7 30
  108.0224 5.7 249
  108.9827 2 87
  123.9969 0.5 21
  131.0326 0.5 21
  132.9591 0.5 21
  155.0272 1.3 56
  156.023 0.7 30
  162.0327 0.4 17
  180.0228 1.2 52
  182.0353 0.6 26
//
