ACCESSION: MSBNK-BAFG-CSL23111012642
RECORD_TITLE: Sildenafil; LC-ESI-QTOF; MS2; 120 V
DATE: 2023.11.10
AUTHORS: Kevin S. Jewell; Björn Ehlig; Arne Wick
LICENSE: dl-de/by-2-0
COPYRIGHT: Copyright 2023 Federal Institute of Hydrology, Koblenz, Germany
COMMENT: CONFIDENCE Reference Standard (Level 1)
COMMENT: Chromatography method: dx.doi.org/10.1016/j.chroma.2015.11.014
COMMENT: Acquisition method: 10.1002/rcm.8541
CH$NAME: Sildenafil
CH$COMPOUND_CLASS: Pharmaceutical
CH$FORMULA: C22H30N6O4S
CH$EXACT_MASS: 474.2049
CH$SMILES: CCCC1=NN(C2=C1NC(=NC2=O)C3=C(C=CC(=C3)S(=O)(=O)N4CCN(CC4)C)OCC)C
CH$IUPAC: InChI=1S/C22H30N6O4S/c1-5-7-17-19-20(27(4)25-17)22(29)24-21(23-19)16-14-15(8-9-18(16)32-6-2)33(30,31)28-12-10-26(3)11-13-28/h8-9,14H,5-7,10-13H2,1-4H3,(H,23,24,29)
CH$LINK: CAS 139755-83-2
CH$LINK: INCHIKEY BNRNXUUZRGQAQC-UHFFFAOYSA-N
AC$INSTRUMENT: TripleTOF 5600 SCIEX
AC$INSTRUMENT_TYPE: LC-ESI-QTOF
AC$MASS_SPECTROMETRY: MS_TYPE MS2
AC$MASS_SPECTROMETRY: ION_MODE NEGATIVE
AC$MASS_SPECTROMETRY: COLLISION_ENERGY 120
AC$MASS_SPECTROMETRY: FRAGMENTATION_MODE CID
AC$MASS_SPECTROMETRY: IONIZATION ESI
AC$CHROMATOGRAPHY: COLUMN_NAME Zorbax Eclipse Plus C18 2.1 mm x 150 mm, 3.5 um, Agilent
AC$CHROMATOGRAPHY: COLUMN_TEMPERATURE 40 °C
AC$CHROMATOGRAPHY: FLOW_GRADIENT 0 min min 98% A, 1 min 98% A, 2 min 80% A, 16.5 min 2% A, 22 min 2% A, 22.1 min 98% A, 27 min 98% A
AC$CHROMATOGRAPHY: FLOW_RATE 0.3 mL/min
AC$CHROMATOGRAPHY: RETENTION_TIME 7.283 min
AC$CHROMATOGRAPHY: SOLVENT A: Water 0.1% Formic acid, B: Acetonitrile 0.1% Formic acid
MS$FOCUSED_ION: PRECURSOR_M/Z 473.1976
MS$FOCUSED_ION: PRECURSOR_TYPE [M-H]-
MS$DATA_PROCESSING: COMMENT Export with Spectra 1.9.12 MsBackendMassbank 1.7.4
MS$DATA_PROCESSING: WHOLE RMassBank 2.3.1
PK$SPLASH: splash10-0673-2960000000-ec18522ff88424bba253
PK$NUM_PEAK: 28
PK$PEAK: m/z int. rel.int.
  41.9995 0.4 68
  65.9982 0.4 68
  89.026 0.7 120
  90.0339 2.5 430
  105.032 0.3 51
  115.0303 1.6 275
  117.0213 1.2 206
  118.0299 4.7 809
  132.0339 0.3 51
  143.0251 1.5 258
  144.0111 0.3 51
  153.0431 0.3 51
  154.048 0.3 51
  170.0339 0.3 51
  171.0317 1.5 258
  181.0446 0.9 155
  182.0522 0.4 68
  186.0532 0.5 86
  195.0309 0.4 68
  196.0534 0.5 86
  196.0729 0.3 51
  209.0469 5.8 999
  210.0518 0.3 51
  222.0561 0.5 86
  224.0692 0.3 51
  237.042 2.6 447
  238.0508 1.9 327
  238.0832 0.4 68
//
