ACCESSION: MSBNK-BAFG-CSL2311099651
RECORD_TITLE: 4-chloro-2-hydroxy-4-methoxybenzophenone; LC-ESI-QTOF; MS2; 110 V
DATE: 2023.11.09
AUTHORS: Kevin S. Jewell; Björn Ehlig; Arne Wick
LICENSE: dl-de/by-2-0
COPYRIGHT: Copyright 2023 Federal Institute of Hydrology, Koblenz, Germany
COMMENT: CONFIDENCE Reference Standard (Level 1)
COMMENT: Chromatography method: dx.doi.org/10.1016/j.chroma.2015.11.014
COMMENT: Acquisition method: 10.1002/rcm.8541
CH$NAME: 4-chloro-2-hydroxy-4-methoxybenzophenone
CH$FORMULA: C14H11ClO3
CH$EXACT_MASS: 262.0397
CH$SMILES: COC1=CC(=C(C=C1)C(=O)C2=CC=C(C=C2)Cl)O
CH$IUPAC: InChI=1S/C14H11ClO3/c1-18-11-6-7-12(13(16)8-11)14(17)9-2-4-10(15)5-3-9/h2-8,16H,1H3
CH$LINK: CAS 85-28-9
CH$LINK: INCHIKEY CBKGNZGFDXQOEV-UHFFFAOYSA-N
AC$INSTRUMENT: TripleTOF 5600 SCIEX
AC$INSTRUMENT_TYPE: LC-ESI-QTOF
AC$MASS_SPECTROMETRY: MS_TYPE MS2
AC$MASS_SPECTROMETRY: ION_MODE POSITIVE
AC$MASS_SPECTROMETRY: COLLISION_ENERGY 110
AC$MASS_SPECTROMETRY: FRAGMENTATION_MODE CID
AC$MASS_SPECTROMETRY: IONIZATION ESI
AC$CHROMATOGRAPHY: COLUMN_NAME Zorbax Eclipse Plus C18 2.1 mm x 150 mm, 3.5 um, Agilent
AC$CHROMATOGRAPHY: COLUMN_TEMPERATURE 40 °C
AC$CHROMATOGRAPHY: FLOW_GRADIENT 0 min min 98% A, 1 min 98% A, 2 min 80% A, 16.5 min 2% A, 22 min 2% A, 22.1 min 98% A, 27 min 98% A
AC$CHROMATOGRAPHY: FLOW_RATE 0.3 mL/min
AC$CHROMATOGRAPHY: RETENTION_TIME 14.544 min
AC$CHROMATOGRAPHY: SOLVENT A: Water 0.1% Formic acid, B: Acetonitrile 0.1% Formic acid
MS$FOCUSED_ION: PRECURSOR_M/Z 263.0469
MS$FOCUSED_ION: PRECURSOR_TYPE [M+H]+
MS$DATA_PROCESSING: COMMENT Export with Spectra 1.9.12 MsBackendMassbank 1.7.4
MS$DATA_PROCESSING: WHOLE RMassBank 2.3.1
PK$SPLASH: splash10-00b9-9100000000-76aff4e033189238c115
PK$NUM_PEAK: 19
PK$PEAK: m/z int. rel.int.
  53.0119 0.6 22
  60.9926 0.5 18
  69.0031 1.1 40
  73.0146 2.6 95
  74.0216 26.2 965
  75.0289 27.1 999
  76.0372 1.2 44
  80.0319 0.8 29
  84.9891 4.4 162
  86.0194 0.6 22
  87.0274 1.1 40
  89.0432 1.1 40
  111.0026 3.1 114
  113.041 1.3 47
  126.0504 0.4 14
  137.0412 0.7 25
  138.0463 0.5 18
  139.0565 1.6 58
  150.0478 0.5 18
//
