ACCESSION: MSBNK-BAFG-CSL23102616185
RECORD_TITLE: N-ethyl-4-menthane-3-carboxamide; LC-ESI-QTOF; MS2; 150 V
DATE: 2023.10.26
AUTHORS: Kevin S. Jewell; Björn Ehlig; Arne Wick
LICENSE: dl-de/by-2-0
COPYRIGHT: Copyright 2023 Federal Institute of Hydrology, Koblenz, Germany
COMMENT: CONFIDENCE Reference Standard (Level 1)
COMMENT: Chromatography method: dx.doi.org/10.1016/j.chroma.2015.11.014
COMMENT: Acquisition method: 10.1002/rcm.8541
CH$NAME: N-ethyl-4-menthane-3-carboxamide
CH$COMPOUND_CLASS: Food_additive; Personal_care_product
CH$FORMULA: C13H25NO
CH$EXACT_MASS: 211.1936
CH$SMILES: CCNC(=O)C1CC(CCC1C(C)C)C
CH$IUPAC: InChI=1S/C13H25NO/c1-5-14-13(15)12-8-10(4)6-7-11(12)9(2)3/h9-12H,5-8H2,1-4H3,(H,14,15)
CH$LINK: CAS 39711-79-0
CH$LINK: INCHIKEY VUNOFAIHSALQQH-UHFFFAOYSA-N
AC$INSTRUMENT: TripleTOF 6600 SCIEX
AC$INSTRUMENT_TYPE: LC-ESI-QTOF
AC$MASS_SPECTROMETRY: MS_TYPE MS2
AC$MASS_SPECTROMETRY: ION_MODE POSITIVE
AC$MASS_SPECTROMETRY: COLLISION_ENERGY 150
AC$MASS_SPECTROMETRY: FRAGMENTATION_MODE CID
AC$MASS_SPECTROMETRY: IONIZATION ESI
AC$CHROMATOGRAPHY: COLUMN_NAME Zorbax Eclipse Plus C18 2.1 mm x 150 mm, 3.5 um, Agilent
AC$CHROMATOGRAPHY: COLUMN_TEMPERATURE 40 °C
AC$CHROMATOGRAPHY: FLOW_GRADIENT 0 min min 98% A, 1 min 98% A, 2 min 80% A, 16.5 min 2% A, 22 min 2% A, 22.1 min 98% A, 27 min 98% A
AC$CHROMATOGRAPHY: FLOW_RATE 0.3 mL/min
AC$CHROMATOGRAPHY: RETENTION_TIME 11.775 min
AC$CHROMATOGRAPHY: SOLVENT A: Water 0.1% Formic acid, B: Acetonitrile 0.1% Formic acid
MS$FOCUSED_ION: PRECURSOR_M/Z 212.2009
MS$FOCUSED_ION: PRECURSOR_TYPE [M+H]+
MS$DATA_PROCESSING: COMMENT Export with Spectra 1.9.12 MsBackendMassbank 1.7.4
MS$DATA_PROCESSING: WHOLE RMassBank 2.3.1
PK$SPLASH: splash10-000l-9000000000-1426c188055c59355267
PK$NUM_PEAK: 15
PK$PEAK: m/z int. rel.int.
  35.9988 2.1 104
  37.0067 7 347
  38.0028 3 149
  38.0147 6.6 328
  39.0227 14.4 715
  40.0051 0.6 29
  41.0386 1.1 54
  42.0336 1.3 64
  43.0171 1.2 59
  44.0129 20.1 999
  50.0148 2.3 114
  51.023 1.8 89
  52.0048 0.9 44
  53.0131 0.9 44
  53.0372 1 49
//
