ACCESSION: MSBNK-BAFG-CSL25010634193
RECORD_TITLE: 4'-O-Demethyl pantoprazole sulfide; LC-ESI-QTOF; MS2; 150 V
DATE: 2025.01.06
AUTHORS: Ole Lessmann; Kevin S. Jewell; Björn Ehlig; Arne Wick
LICENSE: dl-de/by-2-0
COPYRIGHT: Copyright 2025 Federal Institute of Hydrology, Koblenz, Germany
COMMENT: CONFIDENCE Reference Standard (Level 1)
COMMENT: Chromatography method: dx.doi.org/10.1016/j.chroma.2015.11.014
COMMENT: Acquisition method: 10.1002/rcm.8541
CH$NAME: 4'-O-Demethyl pantoprazole sulfide
CH$COMPOUND_CLASS: Pharmaceutical; Transformation_product-Metabolite
CH$FORMULA: C15H13F2N3O3S
CH$EXACT_MASS: 353.0646
CH$SMILES: COC1=C(NC=CC1=O)CSC2=NC3=C(N2)C=C(C=C3)OC(F)F
CH$IUPAC: InChI=1S/C15H13F2N3O3S/c1-22-13-11(18-5-4-12(13)21)7-24-15-19-9-3-2-8(23-14(16)17)6-10(9)20-15/h2-6,14H,7H2,1H3,(H,18,21)(H,19,20)
CH$LINK: CAS 141854-21-9
CH$LINK: INCHIKEY ILLQTAPXYCRJRB-UHFFFAOYSA-N
AC$INSTRUMENT: TripleTOF 6600 SCIEX
AC$INSTRUMENT_TYPE: LC-ESI-QTOF
AC$MASS_SPECTROMETRY: MS_TYPE MS2
AC$MASS_SPECTROMETRY: ION_MODE POSITIVE
AC$MASS_SPECTROMETRY: COLLISION_ENERGY 150
AC$MASS_SPECTROMETRY: FRAGMENTATION_MODE CID
AC$MASS_SPECTROMETRY: IONIZATION ESI
AC$CHROMATOGRAPHY: COLUMN_NAME Zorbax Eclipse Plus C18 2.1 mm x 150 mm, 3.5 um, Agilent
AC$CHROMATOGRAPHY: COLUMN_TEMPERATURE 40 °C
AC$CHROMATOGRAPHY: FLOW_GRADIENT 0 min min 98% A, 1 min 98% A, 2 min 80% A, 16.5 min 2% A, 22 min 2% A, 22.1 min 98% A, 27 min 98% A
AC$CHROMATOGRAPHY: FLOW_RATE 0.3 mL/min
AC$CHROMATOGRAPHY: RETENTION_TIME 7.57 min
AC$CHROMATOGRAPHY: SOLVENT A: Water 0.1% Formic acid, B: Acetonitrile 0.1% Formic acid
MS$FOCUSED_ION: PRECURSOR_M/Z 354.0719
MS$FOCUSED_ION: PRECURSOR_TYPE [M+H]+
MS$DATA_PROCESSING: COMMENT Export with pycsl 0.1.0.dev1 and CSL 24.4
PK$SPLASH: splash10-0f79-9000000000-3de08bed22417b066f43
PK$NUM_PEAK: 47
PK$PEAK: m/z int. rel.int.
  35.9987 1.0 45
  37.0066 9.3 422
  38.004 0.5 22
  38.0143 8.2 372
  39.0227 22.0 999
  40.0178 1.5 68
  41.0254 6.3 286
  42.0335 6.9 313
  43.0172 1.5 68
  44.0124 1.1 49
  44.9787 1.1 49
  50.0145 2.3 104
  51.0224 3.3 149
  52.0168 3.7 168
  52.0297 0.6 27
  53.0013 6.1 276
  53.0381 10.9 494
  53.996 1.5 68
  54.0331 1.9 86
  55.0168 1.6 72
  57.9865 0.6 27
  61.0065 0.9 40
  62.0146 2.6 118
  63.0224 7.9 358
  64.0172 3.0 136
  65.0376 2.0 90
  66.0086 10.0 454
  66.0324 2.2 99
  67.0183 1.6 72
  67.0401 2.2 99
  68.0134 2.0 90
  68.9782 0.4 18
  70.0274 1.5 68
  70.9941 2.1 95
  76.0192 0.5 22
  78.0322 0.7 31
  79.0414 0.5 22
  80.0478 2.1 95
  81.0325 0.7 31
  83.0368 0.6 27
  90.0337 0.5 22
  91.0412 0.6 27
  92.0489 0.8 36
  94.0273 1.4 63
  96.0433 0.4 18
  98.0054 0.6 27
  125.9978 1.3 59
//