ACCESSION: MSBNK-BAFG-CSL23103016141
RECORD_TITLE: Thiamine Disulfide; LC-ESI-QTOF; MS2; 40 V
DATE: 2023.10.30
AUTHORS: Kevin S. Jewell; Björn Ehlig; Arne Wick
LICENSE: dl-de/by-2-0
COPYRIGHT: Copyright 2023 Federal Institute of Hydrology, Koblenz, Germany
COMMENT: CONFIDENCE Reference Standard (Level 1)
COMMENT: Chromatography method: dx.doi.org/10.1016/j.chroma.2015.11.014
COMMENT: Acquisition method: 10.1002/rcm.8541
CH$NAME: Thiamine Disulfide
CH$COMPOUND_CLASS: Pharmaceutical
CH$FORMULA: C24H34N8O4S2
CH$EXACT_MASS: 562.2144
CH$SMILES: CC1=NC=C(C(=N1)N)CN(C=O)C(=C(CCO)SSC(=C(C)N(CC2=CN=C(N=C2N)C)C=O)CCO)C
CH$IUPAC: InChI=1S/C24H34N8O4S2/c1-15(31(13-35)11-19-9-27-17(3)29-23(19)25)21(5-7-33)37-38-22(6-8-34)16(2)32(14-36)12-20-10-28-18(4)30-24(20)26/h9-10,13-14,33-34H,5-8,11-12H2,1-4H3,(H2,25,27,29)(H2,26,28,30)
CH$LINK: CAS 67-16-3
CH$LINK: INCHIKEY GFEGEDUIIYDMOX-UHFFFAOYSA-N
AC$INSTRUMENT: TripleTOF 6600 SCIEX
AC$INSTRUMENT_TYPE: LC-ESI-QTOF
AC$MASS_SPECTROMETRY: MS_TYPE MS2
AC$MASS_SPECTROMETRY: ION_MODE POSITIVE
AC$MASS_SPECTROMETRY: COLLISION_ENERGY 40
AC$MASS_SPECTROMETRY: FRAGMENTATION_MODE CID
AC$MASS_SPECTROMETRY: IONIZATION ESI
AC$CHROMATOGRAPHY: COLUMN_NAME Zorbax Eclipse Plus C18 2.1 mm x 150 mm, 3.5 um, Agilent
AC$CHROMATOGRAPHY: COLUMN_TEMPERATURE 40 °C
AC$CHROMATOGRAPHY: FLOW_GRADIENT 0 min min 98% A, 1 min 98% A, 2 min 80% A, 16.5 min 2% A, 22 min 2% A, 22.1 min 98% A, 27 min 98% A
AC$CHROMATOGRAPHY: FLOW_RATE 0.3 mL/min
AC$CHROMATOGRAPHY: RETENTION_TIME 4.48 min
AC$CHROMATOGRAPHY: SOLVENT A: Water 0.1% Formic acid, B: Acetonitrile 0.1% Formic acid
MS$FOCUSED_ION: PRECURSOR_M/Z 563.2217
MS$FOCUSED_ION: PRECURSOR_TYPE [M+H]+
MS$DATA_PROCESSING: COMMENT Export with Spectra 1.9.12 MsBackendMassbank 1.7.4
MS$DATA_PROCESSING: WHOLE RMassBank 2.3.1
PK$SPLASH: splash10-0229-0950030000-88562810e3d1bab4f9c0
PK$NUM_PEAK: 34
PK$PEAK: m/z int. rel.int.
  81.0437 2.3 10
  82.0513 3 13
  110.0704 118.7 543
  115.0203 2.2 10
  122.0706 29.6 135
  123.0786 175.8 804
  124.0863 218.3 999
  137.0817 7.6 34
  139.0967 6.6 30
  144.0472 8 36
  149.0816 7.3 33
  154.0431 3.1 14
  167.0918 8.6 39
  204.1128 7 32
  219.0698 3.3 15
  221.1398 32.3 147
  223.1024 4.6 21
  231.1229 2.7 12
  233.0866 11.2 51
  234.0926 3.3 15
  247.0999 3 13
  249.1345 16.2 74
  251.0964 3.1 14
  253.1127 33.4 152
  254.1194 7.6 34
  263.0964 71.7 328
  264.1044 51.7 236
  265.112 27.2 124
  281.1074 22.2 101
  282.1149 10.1 46
  283.1235 33.5 153
  442.1601 14.8 67
  545.2142 46 210
  563.2253 150.7 689
//
