ACCESSION: MSBNK-BAFG-CSL23111015991
RECORD_TITLE: Prallethrin; LC-ESI-QTOF; MS2; 60 V
DATE: 2023.11.10
AUTHORS: Kevin S. Jewell; Björn Ehlig; Arne Wick
LICENSE: dl-de/by-2-0
COPYRIGHT: Copyright 2023 Federal Institute of Hydrology, Koblenz, Germany
COMMENT: CONFIDENCE Reference Standard (Level 1)
COMMENT: Chromatography method: dx.doi.org/10.1016/j.chroma.2015.11.014
COMMENT: Acquisition method: 10.1002/rcm.8541
CH$NAME: Prallethrin
CH$COMPOUND_CLASS: Insecticide
CH$FORMULA: C19H24O3
CH$EXACT_MASS: 300.1725
CH$SMILES: CC1=C(C(=O)CC1OC(=O)C2C(C2(C)C)C=C(C)C)CC#C
CH$IUPAC: InChI=1S/C19H24O3/c1-7-8-13-12(4)16(10-15(13)20)22-18(21)17-14(9-11(2)3)19(17,5)6/h1,9,14,16-17H,8,10H2,2-6H3
CH$LINK: CAS 23031-36-9
CH$LINK: INCHIKEY SMKRKQBMYOFFMU-UHFFFAOYSA-N
AC$INSTRUMENT: TripleTOF 6600 SCIEX
AC$INSTRUMENT_TYPE: LC-ESI-QTOF
AC$MASS_SPECTROMETRY: MS_TYPE MS2
AC$MASS_SPECTROMETRY: ION_MODE POSITIVE
AC$MASS_SPECTROMETRY: COLLISION_ENERGY 60
AC$MASS_SPECTROMETRY: FRAGMENTATION_MODE CID
AC$MASS_SPECTROMETRY: IONIZATION ESI
AC$CHROMATOGRAPHY: COLUMN_NAME Zorbax Eclipse Plus C18 2.1 mm x 150 mm, 3.5 um, Agilent
AC$CHROMATOGRAPHY: COLUMN_TEMPERATURE 40 °C
AC$CHROMATOGRAPHY: FLOW_GRADIENT 0 min min 98% A, 1 min 98% A, 2 min 80% A, 16.5 min 2% A, 22 min 2% A, 22.1 min 98% A, 27 min 98% A
AC$CHROMATOGRAPHY: FLOW_RATE 0.3 mL/min
AC$CHROMATOGRAPHY: RETENTION_TIME 14.861 min
AC$CHROMATOGRAPHY: SOLVENT A: Water 0.1% Formic acid, B: Acetonitrile 0.1% Formic acid
MS$FOCUSED_ION: PRECURSOR_M/Z 301.1798
MS$FOCUSED_ION: PRECURSOR_TYPE [M+H]+
MS$DATA_PROCESSING: COMMENT Export with Spectra 1.9.12 MsBackendMassbank 1.7.4
MS$DATA_PROCESSING: WHOLE RMassBank 2.3.1
PK$SPLASH: splash10-004i-9200000000-55096e234d9d564010e9
PK$NUM_PEAK: 36
PK$PEAK: m/z int. rel.int.
  39.0237 1.8 25
  41.0394 3.6 51
  43.0184 1.6 23
  43.0548 1.6 23
  49.0074 0.8 11
  50.0152 2.5 36
  51.023 9.3 134
  53.039 1.9 27
  55.018 1.9 27
  55.0547 3.4 49
  59.0485 0.9 12
  65.0392 4.5 64
  67.0548 4.5 64
  69.0703 2.6 37
  77.039 69.2 999
  78.046 0.8 11
  79.0546 39.4 568
  81.0702 11.6 167
  89.0396 1.3 18
  90.0477 1 14
  91.0543 5.5 79
  93.0693 2 28
  95.0484 0.7 10
  95.0862 1.6 23
  102.0463 1 14
  103.0548 22.1 319
  104.0618 0.7 10
  105.0451 2.2 31
  105.0699 9.5 137
  107.0508 0.8 11
  115.0552 3.9 56
  118.0423 0.7 10
  128.0618 1.5 21
  129.0716 0.7 10
  141.0708 1 14
  142.0771 0.7 10
//
