ACCESSION: MSBNK-BAFG-CSL2310259390
RECORD_TITLE: 2-(Morpholinodithio)benzothiazole; LC-ESI-QTOF; MS2; 40 V
DATE: 2023.10.25
AUTHORS: Kevin S. Jewell; Björn Ehlig; Arne Wick
LICENSE: dl-de/by-2-0
COPYRIGHT: Copyright 2023 Federal Institute of Hydrology, Koblenz, Germany
COMMENT: CONFIDENCE Reference Standard (Level 1)
COMMENT: Chromatography method: dx.doi.org/10.1016/j.chroma.2015.11.014
COMMENT: Acquisition method: 10.1002/rcm.8541
CH$NAME: 2-(Morpholinodithio)benzothiazole
CH$COMPOUND_CLASS: Industrial_process
CH$FORMULA: C11H12N2OS3
CH$EXACT_MASS: 284.0112
CH$SMILES: C1COCCN1SSC2=NC3=CC=CC=C3S2
CH$IUPAC: InChI=1S/C11H12N2OS3/c1-2-4-10-9(3-1)12-11(15-10)16-17-13-5-7-14-8-6-13/h1-4H,5-8H2
CH$LINK: CAS 95-32-9
CH$LINK: INCHIKEY QRYFCNPYGUORTK-UHFFFAOYSA-N
AC$INSTRUMENT: TripleTOF 5600 SCIEX
AC$INSTRUMENT_TYPE: LC-ESI-QTOF
AC$MASS_SPECTROMETRY: MS_TYPE MS2
AC$MASS_SPECTROMETRY: ION_MODE POSITIVE
AC$MASS_SPECTROMETRY: COLLISION_ENERGY 40
AC$MASS_SPECTROMETRY: FRAGMENTATION_MODE CID
AC$MASS_SPECTROMETRY: IONIZATION ESI
AC$CHROMATOGRAPHY: COLUMN_NAME Zorbax Eclipse Plus C18 2.1 mm x 150 mm, 3.5 um, Agilent
AC$CHROMATOGRAPHY: COLUMN_TEMPERATURE 40 °C
AC$CHROMATOGRAPHY: FLOW_GRADIENT 0 min min 98% A, 1 min 98% A, 2 min 80% A, 16.5 min 2% A, 22 min 2% A, 22.1 min 98% A, 27 min 98% A
AC$CHROMATOGRAPHY: FLOW_RATE 0.3 mL/min
AC$CHROMATOGRAPHY: RETENTION_TIME 13.833 min
AC$CHROMATOGRAPHY: SOLVENT A: Water 0.1% Formic acid, B: Acetonitrile 0.1% Formic acid
MS$FOCUSED_ION: PRECURSOR_M/Z 285.0185
MS$FOCUSED_ION: PRECURSOR_TYPE [M+H]+
MS$DATA_PROCESSING: COMMENT Export with Spectra 1.9.12 MsBackendMassbank 1.7.4
MS$DATA_PROCESSING: WHOLE RMassBank 2.3.1
PK$SPLASH: splash10-014i-3900000000-4b10b507a3596e362c75
PK$NUM_PEAK: 17
PK$PEAK: m/z int. rel.int.
  56.0574 2.8 64
  59.0032 0.5 11
  59.9988 8.6 199
  84.0479 0.6 13
  86.0644 3.8 88
  88.0255 11.4 264
  89.008 2.2 50
  90.0416 5.4 125
  118.0331 43.1 999
  135.0123 0.5 11
  139.9761 1.1 25
  153.9783 0.5 11
  165.9786 9.4 217
  166.9859 10.8 250
  167.9937 10.2 236
  197.9504 1.3 30
  199.9651 4.9 113
//
