ACCESSION: MSBNK-BAFG-CSL2310308500
RECORD_TITLE: Sulfapyridine; LC-ESI-QTOF; MS2; 60 V
DATE: 2023.10.30
AUTHORS: Kevin S. Jewell; Björn Ehlig; Arne Wick
LICENSE: dl-de/by-2-0
COPYRIGHT: Copyright 2023 Federal Institute of Hydrology, Koblenz, Germany
COMMENT: CONFIDENCE Reference Standard (Level 1)
COMMENT: Chromatography method: dx.doi.org/10.1016/j.chroma.2015.11.014
COMMENT: Acquisition method: 10.1002/rcm.8541
CH$NAME: Sulfapyridine
CH$COMPOUND_CLASS: Antimicrobial; Pharmaceutical
CH$FORMULA: C11H11N3O2S
CH$EXACT_MASS: 249.0572
CH$SMILES: C1=CC=NC(=C1)NS(=O)(=O)C2=CC=C(C=C2)N
CH$IUPAC: InChI=1S/C11H11N3O2S/c12-9-4-6-10(7-5-9)17(15,16)14-11-3-1-2-8-13-11/h1-8H,12H2,(H,13,14)
CH$LINK: CAS 144-83-2
CH$LINK: INCHIKEY GECHUMIMRBOMGK-UHFFFAOYSA-N
AC$INSTRUMENT: TripleTOF 5600 SCIEX
AC$INSTRUMENT_TYPE: LC-ESI-QTOF
AC$MASS_SPECTROMETRY: MS_TYPE MS2
AC$MASS_SPECTROMETRY: ION_MODE POSITIVE
AC$MASS_SPECTROMETRY: COLLISION_ENERGY 60
AC$MASS_SPECTROMETRY: FRAGMENTATION_MODE CID
AC$MASS_SPECTROMETRY: IONIZATION ESI
AC$CHROMATOGRAPHY: COLUMN_NAME Zorbax Eclipse Plus C18 2.1 mm x 150 mm, 3.5 um, Agilent
AC$CHROMATOGRAPHY: COLUMN_TEMPERATURE 40 °C
AC$CHROMATOGRAPHY: FLOW_GRADIENT 0 min min 98% A, 1 min 98% A, 2 min 80% A, 16.5 min 2% A, 22 min 2% A, 22.1 min 98% A, 27 min 98% A
AC$CHROMATOGRAPHY: FLOW_RATE 0.3 mL/min
AC$CHROMATOGRAPHY: RETENTION_TIME 5.55 min
AC$CHROMATOGRAPHY: SOLVENT A: Water 0.1% Formic acid, B: Acetonitrile 0.1% Formic acid
MS$FOCUSED_ION: PRECURSOR_M/Z 250.0645
MS$FOCUSED_ION: PRECURSOR_TYPE [M+H]+
MS$DATA_PROCESSING: COMMENT Export with Spectra 1.9.12 MsBackendMassbank 1.7.4
MS$DATA_PROCESSING: WHOLE RMassBank 2.3.1
PK$SPLASH: splash10-014l-9300000000-c6032f97e1545f84a4a2
PK$NUM_PEAK: 24
PK$PEAK: m/z int. rel.int.
  51.0303 0.5 11
  53.0473 1.5 33
  65.0454 45.3 999
  66.0394 3.3 72
  67.0472 10.1 222
  78.0375 12.9 284
  80.0532 21.3 469
  92.0515 29.3 646
  93.0585 5.4 119
  94.0538 4.3 94
  95.0617 14.2 313
  108.0443 26 573
  113.0339 0.6 13
  140.0477 2.6 57
  141.0557 0.5 11
  155.0572 0.6 13
  156.0676 0.7 15
  157.0721 1.2 26
  166.0497 2 44
  167.0565 7.6 167
  168.0665 3.1 68
  182.0719 1.1 24
  183.0752 3.4 74
  184.0822 1.3 28
//
