ACCESSION: MSBNK-BAFG-CSL2310304412
RECORD_TITLE: Aclonifen; LC-ESI-QTOF; MS2; 140 V
DATE: 2023.10.30
AUTHORS: Kevin S. Jewell; Björn Ehlig; Arne Wick
LICENSE: dl-de/by-2-0
COPYRIGHT: Copyright 2023 Federal Institute of Hydrology, Koblenz, Germany
COMMENT: CONFIDENCE Reference Standard (Level 1)
COMMENT: Chromatography method: dx.doi.org/10.1016/j.chroma.2015.11.014
COMMENT: Acquisition method: 10.1002/rcm.8541
CH$NAME: Aclonifen
CH$COMPOUND_CLASS: Herbicide
CH$FORMULA: C12H9ClN2O3
CH$EXACT_MASS: 264.0302
CH$SMILES: Nc1c(Cl)c(Oc2ccccc2)ccc1[N+]([O-])=O
CH$IUPAC: InChI=1S/C12H9ClN2O3/c13-11-10(18-8-4-2-1-3-5-8)7-6-9(12(11)14)15(16)17/h1-7H,14H2
CH$LINK: CAS 74070-46-5
CH$LINK: INCHIKEY DDBMQDADIHOWIC-UHFFFAOYSA-N
AC$INSTRUMENT: TripleTOF 5600 SCIEX
AC$INSTRUMENT_TYPE: LC-ESI-QTOF
AC$MASS_SPECTROMETRY: MS_TYPE MS2
AC$MASS_SPECTROMETRY: ION_MODE POSITIVE
AC$MASS_SPECTROMETRY: COLLISION_ENERGY 140
AC$MASS_SPECTROMETRY: FRAGMENTATION_MODE CID
AC$MASS_SPECTROMETRY: IONIZATION ESI
AC$CHROMATOGRAPHY: COLUMN_NAME Zorbax Eclipse Plus C18 2.1 mm x 150 mm, 3.5 um, Agilent
AC$CHROMATOGRAPHY: COLUMN_TEMPERATURE 40 °C
AC$CHROMATOGRAPHY: FLOW_GRADIENT 0 min min 98% A, 1 min 98% A, 2 min 80% A, 16.5 min 2% A, 22 min 2% A, 22.1 min 98% A, 27 min 98% A
AC$CHROMATOGRAPHY: FLOW_RATE 0.3 mL/min
AC$CHROMATOGRAPHY: RETENTION_TIME 13.815 min
AC$CHROMATOGRAPHY: SOLVENT A: Water 0.1% Formic acid, B: Acetonitrile 0.1% Formic acid
MS$FOCUSED_ION: PRECURSOR_M/Z 265.0374
MS$FOCUSED_ION: PRECURSOR_TYPE [M+H]+
MS$DATA_PROCESSING: COMMENT Export with Spectra 1.9.12 MsBackendMassbank 1.7.4
MS$DATA_PROCESSING: WHOLE RMassBank 2.3.1
PK$SPLASH: splash10-0udi-9000000000-181ff6113a7456155130
PK$NUM_PEAK: 19
PK$PEAK: m/z int. rel.int.
  51.0162 0.7 61
  51.0287 11.3 999
  52.0276 1.5 132
  60.0034 0.4 35
  61.0202 0.6 53
  73.0102 0.4 35
  74.0177 4.7 415
  75.0127 0.5 44
  75.025 2.2 194
  76.0317 1 88
  77.0404 2.3 203
  85.0105 1 88
  85.9805 1 88
  86.018 1.2 106
  87.0241 0.7 61
  98.0162 1.5 132
  99.0215 0.6 53
  126.0443 0.8 70
  127.0527 0.4 35
//
