ACCESSION: MSBNK-BAFG-CSL23102510572
RECORD_TITLE: Godecke; LC-ESI-QTOF; MS2; 30 V
DATE: 2023.10.25
AUTHORS: Kevin S. Jewell; Björn Ehlig; Arne Wick
LICENSE: dl-de/by-2-0
COPYRIGHT: Copyright 2023 Federal Institute of Hydrology, Koblenz, Germany
COMMENT: CONFIDENCE Reference Standard (Level 1)
COMMENT: Chromatography method: dx.doi.org/10.1016/j.chroma.2015.11.014
COMMENT: Acquisition method: 10.1002/rcm.8541
CH$NAME: Godecke
CH$COMPOUND_CLASS: Transformation_product; Pharmaceutical
CH$FORMULA: C9H14O2
CH$EXACT_MASS: 154.0994
CH$SMILES: C1CCC2(CC1)CC(=O)OC2
CH$IUPAC: InChI=1S/C9H14O2/c10-8-6-9(7-11-8)4-2-1-3-5-9/h1-7H2
CH$LINK: CAS 7236-78-4
CH$LINK: INCHIKEY CKICBBJJCUQLPO-UHFFFAOYSA-N
AC$INSTRUMENT: TripleTOF 5600 SCIEX
AC$INSTRUMENT_TYPE: LC-ESI-QTOF
AC$MASS_SPECTROMETRY: MS_TYPE MS2
AC$MASS_SPECTROMETRY: ION_MODE POSITIVE
AC$MASS_SPECTROMETRY: COLLISION_ENERGY 30
AC$MASS_SPECTROMETRY: FRAGMENTATION_MODE CID
AC$MASS_SPECTROMETRY: IONIZATION ESI
AC$CHROMATOGRAPHY: COLUMN_NAME Zorbax Eclipse Plus C18 2.1 mm x 150 mm, 3.5 um, Agilent
AC$CHROMATOGRAPHY: COLUMN_TEMPERATURE 40 °C
AC$CHROMATOGRAPHY: FLOW_GRADIENT 0 min min 98% A, 1 min 98% A, 2 min 80% A, 16.5 min 2% A, 22 min 2% A, 22.1 min 98% A, 27 min 98% A
AC$CHROMATOGRAPHY: FLOW_RATE 0.3 mL/min
AC$CHROMATOGRAPHY: RETENTION_TIME 9.655 min
AC$CHROMATOGRAPHY: SOLVENT A: Water 0.1% Formic acid, B: Acetonitrile 0.1% Formic acid
MS$FOCUSED_ION: PRECURSOR_M/Z 155.1067
MS$FOCUSED_ION: PRECURSOR_TYPE [M+H]+
MS$DATA_PROCESSING: COMMENT Export with Spectra 1.9.12 MsBackendMassbank 1.7.4
MS$DATA_PROCESSING: WHOLE RMassBank 2.3.1
PK$SPLASH: splash10-0005-9000000000-e9b8c5059015f0795b11
PK$NUM_PEAK: 11
PK$PEAK: m/z int. rel.int.
  55.0539 0.9 59
  65.0383 0.5 32
  67.054 6.1 400
  77.0388 1 65
  79.0547 0.4 26
  81.0699 1 65
  91.0537 3.9 256
  93.0706 3.8 249
  95.0857 15.2 999
  109.1017 1.5 98
  119.0864 1.4 92
//
