ACCESSION: MSBNK-BAFG-CSL2310263005
RECORD_TITLE: Acridine-9-carboxylic acid; LC-ESI-QTOF; MS2; 140 V
DATE: 2023.10.26
AUTHORS: Kevin S. Jewell; Björn Ehlig; Arne Wick
LICENSE: dl-de/by-2-0
COPYRIGHT: Copyright 2023 Federal Institute of Hydrology, Koblenz, Germany
COMMENT: CONFIDENCE Reference Standard (Level 1)
COMMENT: Chromatography method: dx.doi.org/10.1016/j.chroma.2015.11.014
COMMENT: Acquisition method: 10.1002/rcm.8541
CH$NAME: Acridine-9-carboxylic acid
CH$COMPOUND_CLASS: Pharmaceutical; Metabolite; Transformation_product
CH$FORMULA: C14H9NO2
CH$EXACT_MASS: 223.0633
CH$SMILES: OC(=O)c1c2ccccc2nc3ccccc13
CH$IUPAC: InChI=1S/C14H9NO2/c16-14(17)13-9-5-1-3-7-11(9)15-12-8-4-2-6-10(12)13/h1-8H,(H,16,17)
CH$LINK: CAS 5336-90-3
CH$LINK: INCHIKEY IYRYQBAAHMBIFT-UHFFFAOYSA-N
AC$INSTRUMENT: TripleTOF 5600 SCIEX
AC$INSTRUMENT_TYPE: LC-ESI-QTOF
AC$MASS_SPECTROMETRY: MS_TYPE MS2
AC$MASS_SPECTROMETRY: ION_MODE POSITIVE
AC$MASS_SPECTROMETRY: COLLISION_ENERGY 140
AC$MASS_SPECTROMETRY: FRAGMENTATION_MODE CID
AC$MASS_SPECTROMETRY: IONIZATION ESI
AC$CHROMATOGRAPHY: COLUMN_NAME Zorbax Eclipse Plus C18 2.1 mm x 150 mm, 3.5 um, Agilent
AC$CHROMATOGRAPHY: COLUMN_TEMPERATURE 40 °C
AC$CHROMATOGRAPHY: FLOW_GRADIENT 0 min min 98% A, 1 min 98% A, 2 min 80% A, 16.5 min 2% A, 22 min 2% A, 22.1 min 98% A, 27 min 98% A
AC$CHROMATOGRAPHY: FLOW_RATE 0.3 mL/min
AC$CHROMATOGRAPHY: RETENTION_TIME 4.656 min
AC$CHROMATOGRAPHY: SOLVENT A: Water 0.1% Formic acid, B: Acetonitrile 0.1% Formic acid
MS$FOCUSED_ION: PRECURSOR_M/Z 224.0706
MS$FOCUSED_ION: PRECURSOR_TYPE [M+H]+
MS$DATA_PROCESSING: COMMENT Export with Spectra 1.9.12 MsBackendMassbank 1.7.4
MS$DATA_PROCESSING: WHOLE RMassBank 2.3.1
PK$SPLASH: splash10-00ds-9100000000-18edbe50a904a7d0c3ad
PK$NUM_PEAK: 22
PK$PEAK: m/z int. rel.int.
  60.0028 0.5 47
  73.0102 1.8 169
  74.0185 10.6 999
  75.0124 0.4 37
  75.0268 2.3 216
  76.0319 0.7 65
  77.04 0.6 56
  84.003 0.4 37
  85.0093 2.5 235
  86.0164 3.8 358
  87.0259 1.6 150
  89.0397 1.2 113
  97.0078 1.3 122
  98.0158 6.3 593
  99.0109 0.6 56
  99.0235 0.8 75
  100.0257 0.7 65
  109.0065 1.4 131
  110.0168 1.2 113
  113.0388 0.6 56
  122.0143 0.7 65
  150.0475 0.8 75
//
