ACCESSION: MSBNK-BAFG-CSL23111014896
RECORD_TITLE: N,N-Dimethyldecanamide; LC-ESI-QTOF; MS2; 40 V
DATE: 2023.11.10
AUTHORS: Kevin S. Jewell; Björn Ehlig; Arne Wick
LICENSE: dl-de/by-2-0
COPYRIGHT: Copyright 2023 Federal Institute of Hydrology, Koblenz, Germany
COMMENT: CONFIDENCE Reference Standard (Level 1)
COMMENT: Chromatography method: dx.doi.org/10.1016/j.chroma.2015.11.014
COMMENT: Acquisition method: 10.1002/rcm.8541
CH$NAME: N,N-Dimethyldecanamide
CH$COMPOUND_CLASS: Industrial_process
CH$FORMULA: C12H25NO
CH$EXACT_MASS: 199.1936
CH$SMILES: CCCCCCCCCC(=O)N(C)C
CH$IUPAC: InChI=1S/C12H25NO/c1-4-5-6-7-8-9-10-11-12(14)13(2)3/h4-11H2,1-3H3
CH$LINK: CAS 14433-76-2
CH$LINK: INCHIKEY HNXNKTMIVROLTK-UHFFFAOYSA-N
AC$INSTRUMENT: TripleTOF 6600 SCIEX
AC$INSTRUMENT_TYPE: LC-ESI-QTOF
AC$MASS_SPECTROMETRY: MS_TYPE MS2
AC$MASS_SPECTROMETRY: ION_MODE POSITIVE
AC$MASS_SPECTROMETRY: COLLISION_ENERGY 40
AC$MASS_SPECTROMETRY: FRAGMENTATION_MODE CID
AC$MASS_SPECTROMETRY: IONIZATION ESI
AC$CHROMATOGRAPHY: COLUMN_NAME Zorbax Eclipse Plus C18 2.1 mm x 150 mm, 3.5 um, Agilent
AC$CHROMATOGRAPHY: COLUMN_TEMPERATURE 40 °C
AC$CHROMATOGRAPHY: FLOW_GRADIENT 0 min min 98% A, 1 min 98% A, 2 min 80% A, 16.5 min 2% A, 22 min 2% A, 22.1 min 98% A, 27 min 98% A
AC$CHROMATOGRAPHY: FLOW_RATE 0.3 mL/min
AC$CHROMATOGRAPHY: RETENTION_TIME 13.577 min
AC$CHROMATOGRAPHY: SOLVENT A: Water 0.1% Formic acid, B: Acetonitrile 0.1% Formic acid
MS$FOCUSED_ION: PRECURSOR_M/Z 200.2009
MS$FOCUSED_ION: PRECURSOR_TYPE [M+H]+
MS$DATA_PROCESSING: COMMENT Export with Spectra 1.9.12 MsBackendMassbank 1.7.4
MS$DATA_PROCESSING: WHOLE RMassBank 2.3.1
PK$SPLASH: splash10-0udl-9140000000-de87824173059de1662c
PK$NUM_PEAK: 22
PK$PEAK: m/z int. rel.int.
  39.0226 18.2 48
  41.0384 76.2 203
  43.054 114.7 305
  44.0491 28.9 77
  45.0568 10.9 29
  46.0649 168.2 448
  55.0174 4.4 11
  55.0531 7.2 19
  57.0693 79.3 211
  67.0533 4.8 12
  69.0689 6 16
  71.0847 22.5 60
  72.0438 106.2 283
  81.0688 6.1 16
  85.0999 8.9 23
  87.0665 8.6 22
  95.0843 7.9 21
  100.0747 21.4 57
  102.0903 32.7 87
  116.1061 47.4 126
  130.1213 15.2 40
  200.201 374.6 999
//
