ACCESSION: MSBNK-BAFG-CSL23102616581
RECORD_TITLE: Dienogest Impurity G; LC-ESI-QTOF; MS2; 140 V
DATE: 2023.10.26
AUTHORS: Kevin S. Jewell; Björn Ehlig; Arne Wick
LICENSE: dl-de/by-2-0
COPYRIGHT: Copyright 2023 Federal Institute of Hydrology, Koblenz, Germany
COMMENT: CONFIDENCE Reference Standard (Level 1)
COMMENT: Chromatography method: dx.doi.org/10.1016/j.chroma.2015.11.014
COMMENT: Acquisition method: 10.1002/rcm.8541
CH$NAME: Dienogest Impurity G
CH$COMPOUND_CLASS: Pharmaceutical
CH$FORMULA: C20H23NO2
CH$EXACT_MASS: 309.1729
CH$SMILES: CC12CC=C3C(C1CCC2(CC#N)O)CCC4=C3C=CC(=C4)O
CH$IUPAC: InChI=1S/C20H23NO2/c1-19-8-6-16-15-5-3-14(22)12-13(15)2-4-17(16)18(19)7-9-20(19,23)10-11-21/h3,5-6,12,17-18,22-23H,2,4,7-10H2,1H3
CH$LINK: CAS 86153-38-0
CH$LINK: INCHIKEY LPEAVAOTAWKUPC-UHFFFAOYSA-N
AC$INSTRUMENT: TripleTOF 6600 SCIEX
AC$INSTRUMENT_TYPE: LC-ESI-QTOF
AC$MASS_SPECTROMETRY: MS_TYPE MS2
AC$MASS_SPECTROMETRY: ION_MODE POSITIVE
AC$MASS_SPECTROMETRY: COLLISION_ENERGY 140
AC$MASS_SPECTROMETRY: FRAGMENTATION_MODE CID
AC$MASS_SPECTROMETRY: IONIZATION ESI
AC$CHROMATOGRAPHY: COLUMN_NAME Zorbax Eclipse Plus C18 2.1 mm x 150 mm, 3.5 um, Agilent
AC$CHROMATOGRAPHY: COLUMN_TEMPERATURE 40 °C
AC$CHROMATOGRAPHY: FLOW_GRADIENT 0 min min 98% A, 1 min 98% A, 2 min 80% A, 16.5 min 2% A, 22 min 2% A, 22.1 min 98% A, 27 min 98% A
AC$CHROMATOGRAPHY: FLOW_RATE 0.3 mL/min
AC$CHROMATOGRAPHY: RETENTION_TIME 9.956 min
AC$CHROMATOGRAPHY: SOLVENT A: Water 0.1% Formic acid, B: Acetonitrile 0.1% Formic acid
MS$FOCUSED_ION: PRECURSOR_M/Z 310.1802
MS$FOCUSED_ION: PRECURSOR_TYPE [M+H]+
MS$DATA_PROCESSING: COMMENT Export with Spectra 1.9.12 MsBackendMassbank 1.7.4
MS$DATA_PROCESSING: WHOLE RMassBank 2.3.1
PK$SPLASH: splash10-0v00-9400000000-3a8732b584f494e56ccf
PK$NUM_PEAK: 36
PK$PEAK: m/z int. rel.int.
  37.0067 0.6 76
  38.0148 0.5 64
  39.022 2 256
  41.0375 0.6 76
  49.0067 0.8 102
  50.014 3.3 422
  51.0221 6.9 883
  61.006 0.6 76
  62.0138 1.4 179
  63.0216 2.6 333
  65.0372 2.5 320
  74.0137 1.1 140
  75.0219 0.9 115
  76.0298 0.7 89
  77.0374 7.8 999
  78.0448 1 128
  79.0523 0.5 64
  87.022 0.7 89
  89.0374 3.7 473
  91.0529 1.1 140
  102.0454 1.4 179
  103.0527 0.8 102
  115.0529 6.8 870
  126.0444 1.2 153
  127.0512 1.1 140
  128.0598 1.2 153
  139.0527 0.8 102
  150.0441 0.5 64
  151.0523 1 128
  152.0603 1.2 153
  163.051 1 128
  164.0601 0.7 89
  165.0668 1 128
  176.0598 0.5 64
  187.053 0.6 76
  189.0689 0.4 51
//
