ACCESSION: MSBNK-BAFG-CSL2310262521
RECORD_TITLE: Omeprazole 4-desmethylthioether; LC-ESI-QTOF; MS2; 70 V
DATE: 2023.10.26
AUTHORS: Kevin S. Jewell; Björn Ehlig; Arne Wick
LICENSE: dl-de/by-2-0
COPYRIGHT: Copyright 2023 Federal Institute of Hydrology, Koblenz, Germany
COMMENT: CONFIDENCE Reference Standard (Level 1)
COMMENT: Chromatography method: dx.doi.org/10.1016/j.chroma.2015.11.014
COMMENT: Acquisition method: 10.1002/rcm.8541
CH$NAME: Omeprazole 4-desmethylthioether
CH$COMPOUND_CLASS: Metabolite; Pharmaceutical
CH$FORMULA: C16H17N3O2S
CH$EXACT_MASS: 315.1041
CH$SMILES: Cc1cnc(c(c1O)C)CSc2[nH]c3ccc(cc3n2)OC
CH$IUPAC: InChI=1S/C16H17N3O2S/c1-9-7-17-14(10(2)15(9)20)8-22-16-18-12-5-4-11(21-3)6-13(12)19-16/h4-7H,8H2,1-3H3,(H,17,20)(H,18,19)
CH$LINK: CAS 103876-98-8
CH$LINK: INCHIKEY LVUFHVGKGMRSQW-UHFFFAOYSA-N
AC$INSTRUMENT: TripleTOF 5600 SCIEX
AC$INSTRUMENT_TYPE: LC-ESI-QTOF
AC$MASS_SPECTROMETRY: MS_TYPE MS2
AC$MASS_SPECTROMETRY: ION_MODE NEGATIVE
AC$MASS_SPECTROMETRY: COLLISION_ENERGY 70
AC$MASS_SPECTROMETRY: FRAGMENTATION_MODE CID
AC$MASS_SPECTROMETRY: IONIZATION ESI
AC$CHROMATOGRAPHY: COLUMN_NAME Zorbax Eclipse Plus C18 2.1 mm x 150 mm, 3.5 um, Agilent
AC$CHROMATOGRAPHY: COLUMN_TEMPERATURE 40 °C
AC$CHROMATOGRAPHY: FLOW_GRADIENT 0 min min 98% A, 1 min 98% A, 2 min 80% A, 16.5 min 2% A, 22 min 2% A, 22.1 min 98% A, 27 min 98% A
AC$CHROMATOGRAPHY: FLOW_RATE 0.3 mL/min
AC$CHROMATOGRAPHY: RETENTION_TIME 6.17 min
AC$CHROMATOGRAPHY: SOLVENT A: Water 0.1% Formic acid, B: Acetonitrile 0.1% Formic acid
MS$FOCUSED_ION: PRECURSOR_M/Z 314.0969
MS$FOCUSED_ION: PRECURSOR_TYPE [M-H]-
MS$DATA_PROCESSING: COMMENT Export with Spectra 1.9.12 MsBackendMassbank 1.7.4
MS$DATA_PROCESSING: WHOLE RMassBank 2.3.1
PK$SPLASH: splash10-03di-2900000000-3b75efbc36731b926f3a
PK$NUM_PEAK: 4
PK$PEAK: m/z int. rel.int.
  57.9773 28.3 324
  119.0249 13.4 153
  162.9971 20 229
  164.0046 87.1 999
//
