ACCESSION: MSBNK-BAFG-CSL25011734610
RECORD_TITLE: N-[2-[(2-Bromo-4,6-dinitrophenyl)azo]-5-(diethylamino)phenyl]acetamide; LC-ESI-QTOF; MS2; 140 V
DATE: 2025.01.17
AUTHORS: Ole Lessmann; Kevin S. Jewell; Björn Ehlig; Arne Wick
LICENSE: dl-de/by-2-0
COPYRIGHT: Copyright 2025 Federal Institute of Hydrology, Koblenz, Germany
COMMENT: CONFIDENCE Reference Standard (Level 1)
COMMENT: Chromatography method: dx.doi.org/10.1016/j.chroma.2015.11.014
CH$NAME: N-[2-[(2-Bromo-4,6-dinitrophenyl)azo]-5-(diethylamino)phenyl]acetamide
CH$FORMULA: C18H19BrN6O5
CH$EXACT_MASS: 478.06
CH$SMILES: CCN(CC)C1=CC(=C(C=C1)N=NC2=C(C=C(C=C2Br)[N+](=O)[O-])[N+](=O)[O-])NC(=O)C
CH$IUPAC: InChI=1S/C18H19BrN6O5/c1-4-23(5-2)12-6-7-15(16(9-12)20-11(3)26)21-22-18-14(19)8-13(24(27)28)10-17(18)25(29)30/h6-10H,4-5H2,1-3H3,(H,20,26)
CH$LINK: CAS 52697-38-8
CH$LINK: INCHIKEY WFFKSTRPZWRBEW-UHFFFAOYSA-N
AC$INSTRUMENT: TripleTOF 6600 SCIEX
AC$INSTRUMENT_TYPE: LC-ESI-QTOF
AC$MASS_SPECTROMETRY: MS_TYPE MS2
AC$MASS_SPECTROMETRY: ION_MODE POSITIVE
AC$MASS_SPECTROMETRY: COLLISION_ENERGY 140
AC$MASS_SPECTROMETRY: FRAGMENTATION_MODE CID
AC$MASS_SPECTROMETRY: IONIZATION ESI
AC$CHROMATOGRAPHY: COLUMN_NAME Zorbax Eclipse Plus C18 2.1 mm x 150 mm, 3.5 um, Agilent
AC$CHROMATOGRAPHY: COLUMN_TEMPERATURE 40 °C
AC$CHROMATOGRAPHY: FLOW_GRADIENT 0 min min 98% A, 1 min 98% A, 2 min 80% A, 16.5 min 2% A, 22 min 2% A, 22.1 min 98% A, 27 min 98% A
AC$CHROMATOGRAPHY: FLOW_RATE 0.3 mL/min
AC$CHROMATOGRAPHY: RETENTION_TIME 16.579 min
AC$CHROMATOGRAPHY: SOLVENT A: Water 0.1% Formic acid, B: Acetonitrile 0.1% Formic acid
MS$FOCUSED_ION: PRECURSOR_M/Z 479.0673
MS$FOCUSED_ION: PRECURSOR_TYPE [M+H]+
MS$DATA_PROCESSING: COMMENT Export with pycsl 0.1.0.dev1 and CSL 25.0
PK$SPLASH: splash10-0006-9700000000-f1fed659753df7921298
PK$NUM_PEAK: 99
PK$PEAK: m/z int. rel.int.
  39.0224 0.9 41
  42.0333 0.8 36
  43.0172 3.9 178
  50.0145 0.5 22
  51.0218 1.5 68
  52.0172 0.6 27
  52.0303 2.4 109
  53.0365 2.1 96
  54.0326 0.5 22
  62.0153 0.8 36
  63.0223 1.8 82
  64.0274 0.5 22
  65.0376 9.0 412
  66.0322 0.6 27
  66.0455 2.6 119
  67.0418 0.7 32
  68.0496 0.4 18
  74.0127 0.5 22
  75.021 0.5 22
  76.017 0.4 18
  77.0378 8.5 389
  78.0331 4.3 197
  79.0276 2.0 91
  79.0417 2.9 132
  79.054 0.8 36
  80.0488 14.1 646
  81.0548 0.8 36
  82.0629 0.4 18
  87.023 0.5 22
  88.0175 0.5 22
  88.0297 0.5 22
  89.0365 2.4 109
  90.0331 2.9 132
  91.0404 3.8 174
  92.0483 9.5 435
  93.056 21.8 999
  94.0647 3.4 155
  95.0595 0.7 32
  99.0207 0.6 27
  102.0349 0.9 41
  104.0482 2.4 109
  105.0435 5.6 256
  106.053 1.9 87
  106.0652 2.8 128
  107.0374 1.2 54
  107.0585 1.7 77
  107.0673 0.8 36
  109.0767 0.5 22
  113.0386 1.6 73
  114.036 1.1 50
  115.0459 0.9 41
  116.0481 0.7 32
  117.0459 3.0 137
  118.0515 2.9 132
  118.0633 0.5 22
  119.0587 6.8 311
  120.0616 1.1 50
  121.075 2.6 119
  125.0371 0.8 36
  126.0416 0.8 36
  127.0438 1.0 45
  131.0597 1.2 54
  132.0551 1.1 50
  132.0666 0.5 22
  133.0464 0.5 22
  133.063 3.6 164
  134.067 0.9 41
  134.0845 0.5 22
  137.037 1.0 45
  138.0305 0.4 18
  138.0432 1.6 73
  139.0519 7.6 348
  140.0465 4.3 197
  142.0559 0.5 22
  146.0688 3.6 164
  147.0545 1.9 87
  147.0738 0.5 22
  148.062 0.6 27
  150.0377 0.5 22
  151.0437 1.4 64
  152.0506 2.2 100
  153.0414 0.5 22
  164.0485 4.1 187
  165.0556 3.0 137
  166.0592 1.7 77
  167.063 0.8 36
  168.0553 0.7 32
  177.0464 0.5 22
  178.0575 1.0 45
  179.055 0.8 36
  179.064 0.5 22
  180.0515 0.6 27
  191.0595 0.7 32
  192.0613 0.5 22
  193.0636 0.9 41
  194.064 0.6 27
  204.0545 0.6 27
  205.0747 0.5 22
  221.0836 0.9 41
//
