ACCESSION: MSBNK-BAFG-CSL23102617103
RECORD_TITLE: Mandipropamid; LC-ESI-QTOF; MS2; 50 V
DATE: 2023.10.26
AUTHORS: Kevin S. Jewell; Björn Ehlig; Arne Wick
LICENSE: dl-de/by-2-0
COPYRIGHT: Copyright 2023 Federal Institute of Hydrology, Koblenz, Germany
COMMENT: CONFIDENCE Reference Standard (Level 1)
COMMENT: Chromatography method: dx.doi.org/10.1016/j.chroma.2015.11.014
COMMENT: Acquisition method: 10.1002/rcm.8541
CH$NAME: Mandipropamid
CH$COMPOUND_CLASS: Fungicide
CH$FORMULA: C23H22ClNO4
CH$EXACT_MASS: 411.1237
CH$SMILES: COC1=C(C=CC(=C1)CCNC(=O)C(C2=CC=C(C=C2)Cl)OCC#C)OCC#C
CH$IUPAC: InChI=1S/C23H22ClNO4/c1-4-14-28-20-11-6-17(16-21(20)27-3)12-13-25-23(26)22(29-15-5-2)18-7-9-19(24)10-8-18/h1-2,6-11,16,22H,12-15H2,3H3,(H,25,26)
CH$LINK: CAS 374726-62-2
CH$LINK: INCHIKEY KWLVWJPJKJMCSH-UHFFFAOYSA-N
AC$INSTRUMENT: TripleTOF 6600 SCIEX
AC$INSTRUMENT_TYPE: LC-ESI-QTOF
AC$MASS_SPECTROMETRY: MS_TYPE MS2
AC$MASS_SPECTROMETRY: ION_MODE POSITIVE
AC$MASS_SPECTROMETRY: COLLISION_ENERGY 50
AC$MASS_SPECTROMETRY: FRAGMENTATION_MODE CID
AC$MASS_SPECTROMETRY: IONIZATION ESI
AC$CHROMATOGRAPHY: COLUMN_NAME Zorbax Eclipse Plus C18 2.1 mm x 150 mm, 3.5 um, Agilent
AC$CHROMATOGRAPHY: COLUMN_TEMPERATURE 40 °C
AC$CHROMATOGRAPHY: FLOW_GRADIENT 0 min min 98% A, 1 min 98% A, 2 min 80% A, 16.5 min 2% A, 22 min 2% A, 22.1 min 98% A, 27 min 98% A
AC$CHROMATOGRAPHY: FLOW_RATE 0.3 mL/min
AC$CHROMATOGRAPHY: RETENTION_TIME 12.239 min
AC$CHROMATOGRAPHY: SOLVENT A: Water 0.1% Formic acid, B: Acetonitrile 0.1% Formic acid
MS$FOCUSED_ION: PRECURSOR_M/Z 412.131
MS$FOCUSED_ION: PRECURSOR_TYPE [M+H]+
MS$DATA_PROCESSING: COMMENT Export with Spectra 1.9.12 MsBackendMassbank 1.7.4
MS$DATA_PROCESSING: WHOLE RMassBank 2.3.1
PK$SPLASH: splash10-004i-0910000000-5208e0c6fdc3c4166e7a
PK$NUM_PEAK: 83
PK$PEAK: m/z int. rel.int.
  77.0381 1.3 10
  89.0385 3.4 26
  91.0541 8.8 67
  98.9975 2 15
  103.0534 1.6 12
  105.0692 1.5 11
  107.0481 1.6 12
  115.0534 4.9 37
  116.0608 2.6 20
  117.0682 3 23
  118.0648 3.8 29
  119.0482 1.8 13
  119.073 1.4 10
  121.0643 4 30
  125.0149 129.6 999
  127.0527 2.4 18
  128.0612 5 38
  129.0686 4.7 36
  130.0667 1.6 12
  131.0482 5.2 40
  131.0837 1.3 10
  132.0551 1.4 10
  134.059 2 15
  135.0431 4.5 34
  136.0747 2.8 21
  137.0607 2.2 16
  138.9935 2.7 20
  140.0251 4 30
  144.0565 2.4 18
  144.0791 2 15
  145.0651 4 30
  146.0593 3.8 29
  146.0705 3.2 24
  147.0444 3.3 25
  147.0668 2.1 16
  148.0515 7.4 57
  148.0744 2 15
  149.0151 1.3 10
  149.0593 1.9 14
  150.0546 5.9 45
  152.0261 2.3 17
  157.0645 2.1 16
  160.0752 1.8 13
  161.0598 2 15
  162.055 2.5 19
  164.0699 9.5 73
  165.0758 6.6 50
  172.0732 1.3 10
  174.067 2 15
  176.0705 3.7 28
  177.077 2.9 22
  178.0774 2 15
  179.0857 1.8 13
  191.0847 2.5 19
  194.0712 2.4 18
  201.0463 1.4 10
  202.0772 1.6 12
  203.0864 2.8 21
  204.0976 4.3 33
  205.0995 1.5 11
  207.0802 2.4 18
  208.0877 3.4 26
  213.0459 1.5 11
  215.0849 4.6 35
  216.0927 2.2 16
  217.1006 2 15
  221.0955 1.8 13
  225.0909 2.8 21
  228.0321 1.5 11
  229.0425 3.1 23
  232.0866 2 15
  233.0946 1.8 13
  235.0981 1.5 11
  236.1111 1.4 10
  237.09 1.7 13
  241.0414 1.6 12
  243.0559 3.6 27
  256.0634 1.8 13
  257.0342 1.6 12
  270.0676 1.6 12
  271.0498 1.4 10
  288.0776 1.3 10
  300.0788 1.5 11
//
