ACCESSION: MSBNK-BAFG-CSL23102516097
RECORD_TITLE: Lumichrome; LC-ESI-QTOF; MS2; 30 V
DATE: 2023.10.25
AUTHORS: Kevin S. Jewell; Björn Ehlig; Arne Wick
LICENSE: dl-de/by-2-0
COPYRIGHT: Copyright 2023 Federal Institute of Hydrology, Koblenz, Germany
COMMENT: CONFIDENCE Reference Standard (Level 1)
COMMENT: Chromatography method: dx.doi.org/10.1016/j.chroma.2015.11.014
COMMENT: Acquisition method: 10.1002/rcm.8541
CH$NAME: Lumichrome
CH$COMPOUND_CLASS: Pharmaceutical
CH$FORMULA: C12H10N4O2
CH$EXACT_MASS: 242.0804
CH$SMILES: CC1=CC2=C(C=C1C)N=C3C(=N2)C(=O)NC(=O)N3
CH$IUPAC: InChI=1S/C12H10N4O2/c1-5-3-7-8(4-6(5)2)14-10-9(13-7)11(17)16-12(18)15-10/h3-4H,1-2H3,(H2,14,15,16,17,18)
CH$LINK: CAS 1086-80-2
CH$LINK: INCHIKEY ZJTJUVIJVLLGSP-UHFFFAOYSA-N
AC$INSTRUMENT: TripleTOF 6600 SCIEX
AC$INSTRUMENT_TYPE: LC-ESI-QTOF
AC$MASS_SPECTROMETRY: MS_TYPE MS2
AC$MASS_SPECTROMETRY: ION_MODE POSITIVE
AC$MASS_SPECTROMETRY: COLLISION_ENERGY 30
AC$MASS_SPECTROMETRY: FRAGMENTATION_MODE CID
AC$MASS_SPECTROMETRY: IONIZATION ESI
AC$CHROMATOGRAPHY: COLUMN_NAME Zorbax Eclipse Plus C18 2.1 mm x 150 mm, 3.5 um, Agilent
AC$CHROMATOGRAPHY: COLUMN_TEMPERATURE 40 °C
AC$CHROMATOGRAPHY: FLOW_GRADIENT 0 min min 98% A, 1 min 98% A, 2 min 80% A, 16.5 min 2% A, 22 min 2% A, 22.1 min 98% A, 27 min 98% A
AC$CHROMATOGRAPHY: FLOW_RATE 0.3 mL/min
AC$CHROMATOGRAPHY: RETENTION_TIME 7.067 min
AC$CHROMATOGRAPHY: SOLVENT A: Water 0.1% Formic acid, B: Acetonitrile 0.1% Formic acid
MS$FOCUSED_ION: PRECURSOR_M/Z 243.0877
MS$FOCUSED_ION: PRECURSOR_TYPE [M+H]+
MS$DATA_PROCESSING: COMMENT Export with Spectra 1.9.12 MsBackendMassbank 1.7.4
MS$DATA_PROCESSING: WHOLE RMassBank 2.3.1
PK$SPLASH: splash10-006t-0920000000-33f89f152893e60cd7c0
PK$NUM_PEAK: 14
PK$PEAK: m/z int. rel.int.
  103.0549 6.3 16
  118.0659 5.9 15
  130.0659 8.2 21
  145.0763 29.3 77
  157.064 6.3 16
  170.0721 34.2 90
  172.088 327.6 869
  182.0724 5.1 13
  197.0825 6.4 16
  198.0672 376.4 999
  200.0826 40 106
  216.0772 9.1 24
  226.0619 7 18
  243.0887 169.8 450
//
