ACCESSION: MSBNK-BAFG-CSL25010634174
RECORD_TITLE: Laureth-5; LC-ESI-QTOF; MS2; 120 V
DATE: 2025.01.06
AUTHORS: Ole Lessmann; Kevin S. Jewell; Björn Ehlig; Arne Wick
LICENSE: dl-de/by-2-0
COPYRIGHT: Copyright 2025 Federal Institute of Hydrology, Koblenz, Germany
COMMENT: CONFIDENCE Reference Standard (Level 1)
COMMENT: Chromatography method: dx.doi.org/10.1016/j.chroma.2015.11.014
COMMENT: Acquisition method: 10.1002/rcm.8541
CH$NAME: Laureth-5
CH$FORMULA: C22H46O6
CH$EXACT_MASS: 406.3294
CH$SMILES: CCCCCCCCCCCCOCCOCCOCCOCCOCCO
CH$IUPAC: InChI=1S/C22H46O6/c1-2-3-4-5-6-7-8-9-10-11-13-24-15-17-26-19-21-28-22-20-27-18-16-25-14-12-23/h23H,2-22H2,1H3
CH$LINK: CAS 3055-95-6
CH$LINK: INCHIKEY LAPRIVJANDLWOK-UHFFFAOYSA-N
AC$INSTRUMENT: TripleTOF 6600 SCIEX
AC$INSTRUMENT_TYPE: LC-ESI-QTOF
AC$MASS_SPECTROMETRY: MS_TYPE MS2
AC$MASS_SPECTROMETRY: ION_MODE POSITIVE
AC$MASS_SPECTROMETRY: COLLISION_ENERGY 120
AC$MASS_SPECTROMETRY: FRAGMENTATION_MODE CID
AC$MASS_SPECTROMETRY: IONIZATION ESI
AC$CHROMATOGRAPHY: COLUMN_NAME Zorbax Eclipse Plus C18 2.1 mm x 150 mm, 3.5 um, Agilent
AC$CHROMATOGRAPHY: COLUMN_TEMPERATURE 40 °C
AC$CHROMATOGRAPHY: FLOW_GRADIENT 0 min min 98% A, 1 min 98% A, 2 min 80% A, 16.5 min 2% A, 22 min 2% A, 22.1 min 98% A, 27 min 98% A
AC$CHROMATOGRAPHY: FLOW_RATE 0.3 mL/min
AC$CHROMATOGRAPHY: RETENTION_TIME 17.227 min
AC$CHROMATOGRAPHY: SOLVENT A: Water 0.1% Formic acid, B: Acetonitrile 0.1% Formic acid
MS$FOCUSED_ION: PRECURSOR_M/Z 407.3367
MS$FOCUSED_ION: PRECURSOR_TYPE [M+H]+
MS$DATA_PROCESSING: COMMENT Export with pycsl 0.1.0.dev1 and CSL 24.4
PK$SPLASH: splash10-0002-9000000000-2d62edd8085b5dde1140
PK$NUM_PEAK: 9
PK$PEAK: m/z int. rel.int.
  37.0071 2.0 10
  38.0017 2.4 12
  39.0227 19.7 105
  41.0383 51.5 275
  43.0173 14.0 74
  43.0537 25.7 137
  45.0336 186.5 999
  55.0536 3.5 18
  57.0693 6.8 36
//