ACCESSION: MSBNK-BAFG-CSL23102510453
RECORD_TITLE: Daidzein; LC-ESI-QTOF; MS2; 150 V
DATE: 2023.10.25
AUTHORS: Kevin S. Jewell; Björn Ehlig; Arne Wick
LICENSE: dl-de/by-2-0
COPYRIGHT: Copyright 2023 Federal Institute of Hydrology, Koblenz, Germany
COMMENT: CONFIDENCE Reference Standard (Level 1)
COMMENT: Chromatography method: dx.doi.org/10.1016/j.chroma.2015.11.014
COMMENT: Acquisition method: 10.1002/rcm.8541
CH$NAME: Daidzein
CH$COMPOUND_CLASS: Pharmaceutical
CH$FORMULA: C15H10O4
CH$EXACT_MASS: 254.0579
CH$SMILES: Oc1ccc(cc1)C2=COc3cc(O)ccc3C2=O
CH$IUPAC: InChI=1S/C15H10O4/c16-10-3-1-9(2-4-10)13-8-19-14-7-11(17)5-6-12(14)15(13)18/h1-8,16-17H
CH$LINK: CAS 486-66-8
CH$LINK: INCHIKEY ZQSIJRDFPHDXIC-UHFFFAOYSA-N
AC$INSTRUMENT: TripleTOF 5600 SCIEX
AC$INSTRUMENT_TYPE: LC-ESI-QTOF
AC$MASS_SPECTROMETRY: MS_TYPE MS2
AC$MASS_SPECTROMETRY: ION_MODE POSITIVE
AC$MASS_SPECTROMETRY: COLLISION_ENERGY 150
AC$MASS_SPECTROMETRY: FRAGMENTATION_MODE CID
AC$MASS_SPECTROMETRY: IONIZATION ESI
AC$CHROMATOGRAPHY: COLUMN_NAME Zorbax Eclipse Plus C18 2.1 mm x 150 mm, 3.5 um, Agilent
AC$CHROMATOGRAPHY: COLUMN_TEMPERATURE 40 °C
AC$CHROMATOGRAPHY: FLOW_GRADIENT 0 min min 98% A, 1 min 98% A, 2 min 80% A, 16.5 min 2% A, 22 min 2% A, 22.1 min 98% A, 27 min 98% A
AC$CHROMATOGRAPHY: FLOW_RATE 0.3 mL/min
AC$CHROMATOGRAPHY: RETENTION_TIME 7.744 min
AC$CHROMATOGRAPHY: SOLVENT A: Water 0.1% Formic acid, B: Acetonitrile 0.1% Formic acid
MS$FOCUSED_ION: PRECURSOR_M/Z 255.0652
MS$FOCUSED_ION: PRECURSOR_TYPE [M+H]+
MS$DATA_PROCESSING: COMMENT Export with Spectra 1.9.12 MsBackendMassbank 1.7.4
MS$DATA_PROCESSING: WHOLE RMassBank 2.3.1
PK$SPLASH: splash10-0ir9-9000000000-668210072ab2d5f485fd
PK$NUM_PEAK: 25
PK$PEAK: m/z int. rel.int.
  35.9997 0.6 96
  37.0073 2.6 418
  38.0151 1.7 273
  39.0231 5 805
  49.0072 1.3 209
  50.015 5.2 837
  51.023 4.3 692
  53.0022 0.5 80
  59.9997 0.7 112
  61.0076 2.7 435
  62.015 4.5 725
  63.023 4.5 725
  65.0375 1.2 193
  68.9977 0.7 112
  73.0072 1.4 225
  74.0153 6.2 999
  75.0234 1.3 209
  77.0387 1 161
  85.0082 0.9 145
  86.0147 1.1 177
  87.0236 0.7 112
  89.0385 0.9 145
  98.0153 1.8 290
  110.015 0.6 96
  150.0438 0.6 96
//
