ACCESSION: MSBNK-BAFG-CSL2310253423
RECORD_TITLE: Thiamethoxam; LC-ESI-QTOF; MS2; 100 V
DATE: 2023.10.25
AUTHORS: Kevin S. Jewell; Björn Ehlig; Arne Wick
LICENSE: dl-de/by-2-0
COPYRIGHT: Copyright 2023 Federal Institute of Hydrology, Koblenz, Germany
COMMENT: CONFIDENCE Reference Standard (Level 1)
COMMENT: Chromatography method: dx.doi.org/10.1016/j.chroma.2015.11.014
COMMENT: Acquisition method: 10.1002/rcm.8541
CH$NAME: Thiamethoxam
CH$COMPOUND_CLASS: Insecticide
CH$FORMULA: C8H10ClN5O3S
CH$EXACT_MASS: 291.0193
CH$SMILES: CN1COCN(Cc2sc(Cl)nc2)/C1=N/[N+]([O-])=O
CH$IUPAC: InChI=1S/C8H10ClN5O3S/c1-12-4-17-5-13(8(12)11-14(15)16)3-6-2-10-7(9)18-6/h2H,3-5H2,1H3/b11-8+
CH$LINK: CAS 153719-23-4
CH$LINK: INCHIKEY NWWZPOKUUAIXIW-DHZHZOJOSA-N
AC$INSTRUMENT: TripleTOF 5600 SCIEX
AC$INSTRUMENT_TYPE: LC-ESI-QTOF
AC$MASS_SPECTROMETRY: MS_TYPE MS2
AC$MASS_SPECTROMETRY: ION_MODE POSITIVE
AC$MASS_SPECTROMETRY: COLLISION_ENERGY 100
AC$MASS_SPECTROMETRY: FRAGMENTATION_MODE CID
AC$MASS_SPECTROMETRY: IONIZATION ESI
AC$CHROMATOGRAPHY: COLUMN_NAME Zorbax Eclipse Plus C18 2.1 mm x 150 mm, 3.5 um, Agilent
AC$CHROMATOGRAPHY: COLUMN_TEMPERATURE 40 °C
AC$CHROMATOGRAPHY: FLOW_GRADIENT 0 min min 98% A, 1 min 98% A, 2 min 80% A, 16.5 min 2% A, 22 min 2% A, 22.1 min 98% A, 27 min 98% A
AC$CHROMATOGRAPHY: FLOW_RATE 0.3 mL/min
AC$CHROMATOGRAPHY: RETENTION_TIME 6.188 min
AC$CHROMATOGRAPHY: SOLVENT A: Water 0.1% Formic acid, B: Acetonitrile 0.1% Formic acid
MS$FOCUSED_ION: PRECURSOR_M/Z 292.0266
MS$FOCUSED_ION: PRECURSOR_TYPE [M+H]+
MS$DATA_PROCESSING: COMMENT Export with Spectra 1.9.12 MsBackendMassbank 1.7.4
MS$DATA_PROCESSING: WHOLE RMassBank 2.3.1
PK$SPLASH: splash10-00e9-9100000000-5ea76e4ca8954e9af4ce
PK$NUM_PEAK: 13
PK$PEAK: m/z int. rel.int.
  54.0379 0.4 249
  56.9858 0.5 312
  68.9849 0.4 249
  69.9767 0.6 374
  70.9968 1.6 999
  71.9927 0.8 499
  78.9439 0.5 312
  81.0469 0.4 249
  83.9917 1.6 999
  87.9965 0.4 249
  98.0048 0.5 312
  111.0004 0.5 312
  131.9648 0.7 437
//
