ACCESSION: MSBNK-BAFG-CSL25011734556
RECORD_TITLE: Azo Rubin S; LC-ESI-QTOF; MS2; 80 V
DATE: 2025.01.17
AUTHORS: Ole Lessmann; Kevin S. Jewell; Björn Ehlig; Arne Wick
LICENSE: dl-de/by-2-0
COPYRIGHT: Copyright 2025 Federal Institute of Hydrology, Koblenz, Germany
COMMENT: CONFIDENCE Reference Standard (Level 1)
COMMENT: Chromatography method: dx.doi.org/10.1016/j.chroma.2015.11.014
CH$NAME: Azo Rubin S
CH$FORMULA: C20H14N2O7S2
CH$EXACT_MASS: 458.0242
CH$SMILES: C1=CC=C2C(=C1)C(=CC=C2S(=O)(=O)O)N=NC3=C(C4=CC=CC=C4C(=C3)S(=O)(=O)O)O
CH$IUPAC: InChI=1S/C20H14N2O7S2/c23-20-15-8-4-3-7-14(15)19(31(27,28)29)11-17(20)22-21-16-9-10-18(30(24,25)26)13-6-2-1-5-12(13)16/h1-11,23H,(H,24,25,26)(H,27,28,29)
CH$LINK: CAS 13613-55-3
CH$LINK: INCHIKEY TVWOWDDBXAFQDG-UHFFFAOYSA-N
AC$INSTRUMENT: TripleTOF 6600 SCIEX
AC$INSTRUMENT_TYPE: LC-ESI-QTOF
AC$MASS_SPECTROMETRY: MS_TYPE MS2
AC$MASS_SPECTROMETRY: ION_MODE POSITIVE
AC$MASS_SPECTROMETRY: COLLISION_ENERGY 80
AC$MASS_SPECTROMETRY: FRAGMENTATION_MODE CID
AC$MASS_SPECTROMETRY: IONIZATION ESI
AC$CHROMATOGRAPHY: COLUMN_NAME Zorbax Eclipse Plus C18 2.1 mm x 150 mm, 3.5 um, Agilent
AC$CHROMATOGRAPHY: COLUMN_TEMPERATURE 40 °C
AC$CHROMATOGRAPHY: FLOW_GRADIENT 0 min min 98% A, 1 min 98% A, 2 min 80% A, 16.5 min 2% A, 22 min 2% A, 22.1 min 98% A, 27 min 98% A
AC$CHROMATOGRAPHY: FLOW_RATE 0.3 mL/min
AC$CHROMATOGRAPHY: RETENTION_TIME 7.286 min
AC$CHROMATOGRAPHY: SOLVENT A: Water 0.1% Formic acid, B: Acetonitrile 0.1% Formic acid
MS$FOCUSED_ION: PRECURSOR_M/Z 459.0315
MS$FOCUSED_ION: PRECURSOR_TYPE [M+H]+
MS$DATA_PROCESSING: COMMENT Export with pycsl 0.1.0.dev1 and CSL 25.0
PK$SPLASH: splash10-001i-1910000000-e9b020437d721ca76047
PK$NUM_PEAK: 32
PK$PEAK: m/z int. rel.int.
  52.018 5.3 16
  64.9689 3.7 11
  77.0382 26.0 79
  80.0125 44.1 134
  89.0378 18.4 56
  101.0385 3.5 10
  103.0537 85.8 262
  104.0475 5.7 17
  105.0325 11.9 36
  115.0534 68.5 209
  116.0489 20.6 63
  126.0337 6.4 19
  128.0499 5.5 16
  130.0647 326.4 999
  131.0484 12.0 36
  140.0486 17.6 53
  141.0564 3.5 10
  142.0645 51.2 156
  143.0721 18.8 57
  154.0355 6.7 20
  158.0598 155.2 475
  159.0664 5.4 16
  223.029 19.0 58
  240.0798 6.2 18
  251.0739 4.4 13
  252.0835 5.2 15
  266.0846 15.3 46
  267.0917 23.0 70
  268.0989 12.8 39
  278.0829 8.0 24
  279.0907 18.7 57
  280.1006 11.5 35
//
