ACCESSION: MSBNK-BAFG-CSL25010627942
RECORD_TITLE: Sudan III; LC-ESI-QTOF; MS2; 80 V
DATE: 2025.01.06
AUTHORS: Ole Lessmann; Kevin S. Jewell; Björn Ehlig; Arne Wick
LICENSE: dl-de/by-2-0
COPYRIGHT: Copyright 2025 Federal Institute of Hydrology, Koblenz, Germany
COMMENT: CONFIDENCE Reference Standard (Level 1)
COMMENT: Chromatography method: dx.doi.org/10.1016/j.chroma.2015.11.014
COMMENT: Acquisition method: 10.1002/rcm.8541
CH$NAME: Sudan III
CH$FORMULA: C22H16N4O
CH$EXACT_MASS: 352.1324
CH$SMILES: C1=CC=C(C=C1)N=NC2=CC=C(C=C2)N=NC3=C(C=CC4=CC=CC=C43)O
CH$IUPAC: InChI=1S/C22H16N4O/c27-21-15-10-16-6-4-5-9-20(16)22(21)26-25-19-13-11-18(12-14-19)24-23-17-7-2-1-3-8-17/h1-15,27H
CH$LINK: CAS 85-86-9
CH$LINK: INCHIKEY FHNINJWBTRXEBC-UHFFFAOYSA-N
AC$INSTRUMENT: TripleTOF X500R SCIEX
AC$INSTRUMENT_TYPE: LC-ESI-QTOF
AC$MASS_SPECTROMETRY: MS_TYPE MS2
AC$MASS_SPECTROMETRY: ION_MODE POSITIVE
AC$MASS_SPECTROMETRY: COLLISION_ENERGY 80
AC$MASS_SPECTROMETRY: FRAGMENTATION_MODE CID
AC$MASS_SPECTROMETRY: IONIZATION ESI
AC$CHROMATOGRAPHY: COLUMN_NAME Zorbax Eclipse Plus C18 2.1 mm x 150 mm, 3.5 um, Agilent
AC$CHROMATOGRAPHY: COLUMN_TEMPERATURE 40 °C
AC$CHROMATOGRAPHY: FLOW_GRADIENT 0 min min 98% A, 1 min 98% A, 2 min 80% A, 16.5 min 2% A, 22 min 2% A, 22.1 min 98% A, 27 min 98% A
AC$CHROMATOGRAPHY: FLOW_RATE 0.3 mL/min
AC$CHROMATOGRAPHY: RETENTION_TIME 19.216 min
AC$CHROMATOGRAPHY: SOLVENT A: Water 0.1% Formic acid, B: Acetonitrile 0.1% Formic acid
MS$FOCUSED_ION: PRECURSOR_M/Z 353.1397
MS$FOCUSED_ION: PRECURSOR_TYPE [M+H]+
MS$DATA_PROCESSING: COMMENT Export with pycsl 0.1.0.dev1 and CSL 24.4
PK$SPLASH: splash10-0fvi-9800000000-7105c1edd7d31323ca16
PK$NUM_PEAK: 35
PK$PEAK: m/z int. rel.int.
  39.0236 1.2 93
  51.0233 4.6 359
  59.0319 1.8 140
  60.0306 0.8 62
  63.0236 0.8 62
  64.0308 2.1 163
  65.0389 7.0 546
  75.0238 2.3 179
  77.0392 12.8 999
  89.0386 0.9 70
  91.0414 2.4 187
  92.0496 4.3 335
  101.0393 8.0 624
  102.0355 1.7 132
  115.0554 9.3 725
  116.0525 0.9 70
  127.0546 1.0 78
  128.0502 5.2 405
  129.0487 1.1 85
  140.0577 0.5 39
  141.0718 0.6 46
  143.0534 0.7 54
  151.054 0.6 46
  153.0512 1.1 85
  154.0652 0.9 70
  155.0619 0.5 39
  166.0658 0.7 54
  167.0737 1.3 101
  168.0693 0.6 46
  169.0782 2.2 171
  170.0712 0.9 70
  179.06 0.5 39
  196.0866 1.7 132
  205.0796 1.0 78
  218.0836 0.8 62
//