ACCESSION: MSBNK-BAFG-CSL25011734571
RECORD_TITLE: Amido Black 10B; LC-ESI-QTOF; MS2; 70 V
DATE: 2025.01.17
AUTHORS: Ole Lessmann; Kevin S. Jewell; Björn Ehlig; Arne Wick
LICENSE: dl-de/by-2-0
COPYRIGHT: Copyright 2025 Federal Institute of Hydrology, Koblenz, Germany
COMMENT: CONFIDENCE Reference Standard (Level 1)
COMMENT: Chromatography method: dx.doi.org/10.1016/j.chroma.2015.11.014
CH$NAME: Amido Black 10B
CH$FORMULA: C22H16N6O9S2
CH$EXACT_MASS: 572.042
CH$SMILES: C1=CC=C(C=C1)N=NC2=C(C3=C(C(=C(C=C3C=C2S(=O)(=O)O)S(=O)(=O)O)N=NC4=CC=C(C=C4)[N+](=O)[O-])N)O
CH$IUPAC: InChI=1S/C22H16N6O9S2/c23-19-18-12(11-17(39(35,36)37)21(22(18)29)27-24-13-4-2-1-3-5-13)10-16(38(32,33)34)20(19)26-25-14-6-8-15(9-7-14)28(30)31/h1-11,29H,23H2,(H,32,33,34)(H,35,36,37)
CH$LINK: CAS 3121-74-2
CH$LINK: INCHIKEY HKJKONMZMPUGHJ-UHFFFAOYSA-N
AC$INSTRUMENT: TripleTOF 6600 SCIEX
AC$INSTRUMENT_TYPE: LC-ESI-QTOF
AC$MASS_SPECTROMETRY: MS_TYPE MS2
AC$MASS_SPECTROMETRY: ION_MODE POSITIVE
AC$MASS_SPECTROMETRY: COLLISION_ENERGY 70
AC$MASS_SPECTROMETRY: FRAGMENTATION_MODE CID
AC$MASS_SPECTROMETRY: IONIZATION ESI
AC$CHROMATOGRAPHY: COLUMN_NAME Zorbax Eclipse Plus C18 2.1 mm x 150 mm, 3.5 um, Agilent
AC$CHROMATOGRAPHY: COLUMN_TEMPERATURE 40 °C
AC$CHROMATOGRAPHY: FLOW_GRADIENT 0 min min 98% A, 1 min 98% A, 2 min 80% A, 16.5 min 2% A, 22 min 2% A, 22.1 min 98% A, 27 min 98% A
AC$CHROMATOGRAPHY: FLOW_RATE 0.3 mL/min
AC$CHROMATOGRAPHY: RETENTION_TIME 9.552 min
AC$CHROMATOGRAPHY: SOLVENT A: Water 0.1% Formic acid, B: Acetonitrile 0.1% Formic acid
MS$FOCUSED_ION: PRECURSOR_M/Z 573.0493
MS$FOCUSED_ION: PRECURSOR_TYPE [M+H]+
MS$DATA_PROCESSING: COMMENT Export with pycsl 0.1.0.dev1 and CSL 25.0
PK$SPLASH: splash10-0006-9162000000-71779eec0a7d7edcfa1d
PK$NUM_PEAK: 73
PK$PEAK: m/z int. rel.int.
  39.0225 2.3 14
  65.0382 40.2 250
  66.0453 8.3 51
  75.0217 9.4 58
  77.0377 8.6 53
  80.0494 3.3 20
  92.0257 4.2 26
  92.0488 84.3 525
  93.0569 160.4 999
  108.0448 3.1 19
  122.0236 11.4 71
  129.0441 3.4 21
  145.0398 1.9 11
  150.029 10.3 64
  157.0392 5.1 31
  167.0255 2.2 13
  169.0387 2.0 12
  173.0333 28.5 177
  185.0347 1.8 11
  201.0279 3.4 21
  203.0604 2.0 12
  204.0601 4.3 26
  205.0741 7.4 46
  216.0543 5.5 34
  217.062 4.3 26
  220.0834 1.7 10
  230.0695 5.9 36
  231.0742 11.6 72
  232.0871 21.8 135
  233.0689 2.1 13
  233.0896 2.0 12
  238.0074 1.8 11
  242.0568 6.2 38
  243.0665 8.6 53
  244.0616 2.8 17
  245.0591 2.7 16
  248.0839 4.4 27
  249.0918 1.9 11
  258.062 2.6 16
  259.0694 11.5 71
  260.0764 8.8 54
  261.0882 6.8 42
  265.0301 1.9 11
  270.0513 21.3 132
  271.0622 49.1 305
  272.0673 4.5 28
  273.0777 2.0 12
  275.0389 2.4 14
  276.0776 2.2 13
  280.0871 2.5 15
  287.0563 9.5 59
  292.0888 1.6 9
  301.0623 4.9 30
  306.1016 2.2 13
  307.0985 3.4 21
  308.0975 2.6 16
  312.0423 3.3 20
  313.051 1.8 11
  316.0504 5.4 33
  319.1011 5.9 36
  320.1042 3.7 23
  334.1099 4.6 28
  335.096 4.0 24
  340.0343 10.8 67
  341.044 6.9 42
  345.0921 1.7 10
  346.1089 14.0 87
  347.1077 1.7 10
  356.9817 4.9 30
  362.1051 9.8 61
  363.1126 2.7 16
  364.1238 2.2 13
  402.9787 3.5 21
//
