ACCESSION: MSBNK-BAFG-CSL23111017368
RECORD_TITLE: Pirimicarb; LC-ESI-QTOF; MS2; 70 V
DATE: 2023.11.10
AUTHORS: Kevin S. Jewell; Björn Ehlig; Arne Wick
LICENSE: dl-de/by-2-0
COPYRIGHT: Copyright 2023 Federal Institute of Hydrology, Koblenz, Germany
COMMENT: CONFIDENCE Reference Standard (Level 1)
COMMENT: Chromatography method: dx.doi.org/10.1016/j.chroma.2015.11.014
COMMENT: Acquisition method: 10.1002/rcm.8541
CH$NAME: Pirimicarb
CH$COMPOUND_CLASS: Insecticide
CH$FORMULA: C11H18N4O2
CH$EXACT_MASS: 238.143
CH$SMILES: CC1=C(N=C(N=C1OC(=O)N(C)C)N(C)C)C
CH$IUPAC: InChI=1S/C11H18N4O2/c1-7-8(2)12-10(14(3)4)13-9(7)17-11(16)15(5)6/h1-6H3
CH$LINK: CAS 23103-98-2
CH$LINK: INCHIKEY YFGYUFNIOHWBOB-UHFFFAOYSA-N
AC$INSTRUMENT: TripleTOF 6600 SCIEX
AC$INSTRUMENT_TYPE: LC-ESI-QTOF
AC$MASS_SPECTROMETRY: MS_TYPE MS2
AC$MASS_SPECTROMETRY: ION_MODE POSITIVE
AC$MASS_SPECTROMETRY: COLLISION_ENERGY 70
AC$MASS_SPECTROMETRY: FRAGMENTATION_MODE CID
AC$MASS_SPECTROMETRY: IONIZATION ESI
AC$CHROMATOGRAPHY: COLUMN_NAME Zorbax Eclipse Plus C18 2.1 mm x 150 mm, 3.5 um, Agilent
AC$CHROMATOGRAPHY: COLUMN_TEMPERATURE 40 °C
AC$CHROMATOGRAPHY: FLOW_GRADIENT 0 min min 98% A, 1 min 98% A, 2 min 80% A, 16.5 min 2% A, 22 min 2% A, 22.1 min 98% A, 27 min 98% A
AC$CHROMATOGRAPHY: FLOW_RATE 0.3 mL/min
AC$CHROMATOGRAPHY: RETENTION_TIME 6.157 min
AC$CHROMATOGRAPHY: SOLVENT A: Water 0.1% Formic acid, B: Acetonitrile 0.1% Formic acid
MS$FOCUSED_ION: PRECURSOR_M/Z 239.1503
MS$FOCUSED_ION: PRECURSOR_TYPE [M+H]+
MS$DATA_PROCESSING: COMMENT Export with Spectra 1.9.12 MsBackendMassbank 1.7.4
MS$DATA_PROCESSING: WHOLE RMassBank 2.3.1
PK$SPLASH: splash10-00di-9000000000-5181f87ef35db501953f
PK$NUM_PEAK: 20
PK$PEAK: m/z int. rel.int.
  42.0337 4 46
  44.0494 3.7 43
  53.0379 1.3 15
  55.0286 1.2 14
  56.013 11.4 133
  58.065 1.9 22
  68.0492 1.4 16
  69.0445 4.2 49
  69.0565 2.3 26
  70.0517 1.7 19
  71.0599 1.4 16
  72.0444 85.4 999
  83.0234 3.2 37
  85.0757 4 46
  93.0437 2.4 28
  94.0522 1.6 18
  95.0594 1.2 14
  109.0752 3.3 38
  123.0543 1.4 16
  152.0797 0.9 10
//
