ACCESSION: MSBNK-BAFG-CSL23102515246
RECORD_TITLE: N,N-Dimethyltetradecylamine; LC-ESI-QTOF; MS2; 110 V
DATE: 2023.10.25
AUTHORS: Kevin S. Jewell; Björn Ehlig; Arne Wick
LICENSE: dl-de/by-2-0
COPYRIGHT: Copyright 2023 Federal Institute of Hydrology, Koblenz, Germany
COMMENT: CONFIDENCE Reference Standard (Level 1)
COMMENT: Chromatography method: dx.doi.org/10.1016/j.chroma.2015.11.014
COMMENT: Acquisition method: 10.1002/rcm.8541
CH$NAME: N,N-Dimethyltetradecylamine
CH$COMPOUND_CLASS: Personal_care_product
CH$FORMULA: C16H35N
CH$EXACT_MASS: 241.277
CH$SMILES: CCCCCCCCCCCCCCN(C)C
CH$IUPAC: InChI=1S/C16H35N/c1-4-5-6-7-8-9-10-11-12-13-14-15-16-17(2)3/h4-16H2,1-3H3
CH$LINK: CAS 112-75-4
CH$LINK: INCHIKEY SFBHPFQSSDCYSL-UHFFFAOYSA-N
AC$INSTRUMENT: TripleTOF 6600 SCIEX
AC$INSTRUMENT_TYPE: LC-ESI-QTOF
AC$MASS_SPECTROMETRY: MS_TYPE MS2
AC$MASS_SPECTROMETRY: ION_MODE POSITIVE
AC$MASS_SPECTROMETRY: COLLISION_ENERGY 110
AC$MASS_SPECTROMETRY: FRAGMENTATION_MODE CID
AC$MASS_SPECTROMETRY: IONIZATION ESI
AC$CHROMATOGRAPHY: COLUMN_NAME Zorbax Eclipse Plus C18 2.1 mm x 150 mm, 3.5 um, Agilent
AC$CHROMATOGRAPHY: COLUMN_TEMPERATURE 40 °C
AC$CHROMATOGRAPHY: FLOW_GRADIENT 0 min min 98% A, 1 min 98% A, 2 min 80% A, 16.5 min 2% A, 22 min 2% A, 22.1 min 98% A, 27 min 98% A
AC$CHROMATOGRAPHY: FLOW_RATE 0.3 mL/min
AC$CHROMATOGRAPHY: RETENTION_TIME 11.365 min
AC$CHROMATOGRAPHY: SOLVENT A: Water 0.1% Formic acid, B: Acetonitrile 0.1% Formic acid
MS$FOCUSED_ION: PRECURSOR_M/Z 242.2842
MS$FOCUSED_ION: PRECURSOR_TYPE [M+H]+
MS$DATA_PROCESSING: COMMENT Export with Spectra 1.9.12 MsBackendMassbank 1.7.4
MS$DATA_PROCESSING: WHOLE RMassBank 2.3.1
PK$SPLASH: splash10-000i-9000000000-8bfeaa850f43a97b8f23
PK$NUM_PEAK: 11
PK$PEAK: m/z int. rel.int.
  30.0331 1.4 205
  37.0064 1.5 220
  38.0012 0.9 132
  38.0144 1.4 205
  39.0221 6.8 999
  41.0378 2.8 411
  42.0328 0.7 102
  44.0482 1.1 161
  46.0637 1.2 176
  53.0127 0.4 58
  58.0637 0.6 88
//
