ACCESSION: MSBNK-BAFG-CSL2310265219
RECORD_TITLE: 14-Hydroxycodeinone; LC-ESI-QTOF; MS2; 30 V
DATE: 2023.10.26
AUTHORS: Kevin S. Jewell; Björn Ehlig; Arne Wick
LICENSE: dl-de/by-2-0
COPYRIGHT: Copyright 2023 Federal Institute of Hydrology, Koblenz, Germany
COMMENT: CONFIDENCE Reference Standard (Level 1)
COMMENT: Chromatography method: dx.doi.org/10.1016/j.chroma.2015.11.014
COMMENT: Acquisition method: 10.1002/rcm.8541
CH$NAME: 14-Hydroxycodeinone
CH$COMPOUND_CLASS: Pharmaceutical; Transformation_product
CH$FORMULA: C18H19NO4
CH$EXACT_MASS: 313.1314
CH$SMILES: COc1ccc2C[C@H]3N(C)CC[C@@]45C(Oc1c24)C(=O)C=C[C@@]35O
CH$IUPAC: InChI=1S/C18H19NO4/c1-19-8-7-17-14-10-3-4-12(22-2)15(14)23-16(17)11(20)5-6-18(17,21)13(19)9-10/h3-6,13,16,21H,7-9H2,1-2H3/t13-,16?,17+,18-/m1/s1
CH$LINK: CAS 508-54-3
CH$LINK: INCHIKEY YYCRAERBSFHMPL-FSFXSCMFSA-N
AC$INSTRUMENT: TripleTOF 5600 SCIEX
AC$INSTRUMENT_TYPE: LC-ESI-QTOF
AC$MASS_SPECTROMETRY: MS_TYPE MS2
AC$MASS_SPECTROMETRY: ION_MODE POSITIVE
AC$MASS_SPECTROMETRY: COLLISION_ENERGY 30
AC$MASS_SPECTROMETRY: FRAGMENTATION_MODE CID
AC$MASS_SPECTROMETRY: IONIZATION ESI
AC$CHROMATOGRAPHY: COLUMN_NAME Zorbax Eclipse Plus C18 2.1 mm x 150 mm, 3.5 um, Agilent
AC$CHROMATOGRAPHY: COLUMN_TEMPERATURE 40 °C
AC$CHROMATOGRAPHY: FLOW_GRADIENT 0 min min 98% A, 1 min 98% A, 2 min 80% A, 16.5 min 2% A, 22 min 2% A, 22.1 min 98% A, 27 min 98% A
AC$CHROMATOGRAPHY: FLOW_RATE 0.3 mL/min
AC$CHROMATOGRAPHY: RETENTION_TIME 5.367 min
AC$CHROMATOGRAPHY: SOLVENT A: Water 0.1% Formic acid, B: Acetonitrile 0.1% Formic acid
MS$FOCUSED_ION: PRECURSOR_M/Z 314.1387
MS$FOCUSED_ION: PRECURSOR_TYPE [M+H]+
MS$DATA_PROCESSING: COMMENT Export with Spectra 1.9.12 MsBackendMassbank 1.7.4
MS$DATA_PROCESSING: WHOLE RMassBank 2.3.1
PK$SPLASH: splash10-0f6t-0090000000-990e006d7363c00e6710
PK$NUM_PEAK: 25
PK$PEAK: m/z int. rel.int.
  159.069 11.8 18
  195.0447 22.7 34
  223.0993 16 24
  227.0719 30.9 47
  227.1053 15.1 23
  236.1081 7.5 11
  237.0931 7.5 11
  237.1149 7.5 11
  238.0878 15.7 24
  239.0956 86.8 133
  240.0788 6.8 10
  252.1032 7.9 12
  253.1108 28.3 43
  254.1186 452 694
  255.1016 55 84
  264.1031 88 135
  265.087 18.5 28
  265.1092 7.2 11
  266.0817 28.2 43
  268.1338 64.7 99
  278.1169 10.1 15
  280.0975 22.2 34
  281.1054 121.2 186
  296.1291 650.1 999
  314.1397 67.9 104
//
