ACCESSION: MSBNK-BAFG-CSL25010634386
RECORD_TITLE: 4,4`-Methylenebis(2-chloroaniline); LC-ESI-QTOF; MS2; 90 V
DATE: 2025.01.06
AUTHORS: Ole Lessmann; Kevin S. Jewell; Björn Ehlig; Arne Wick
LICENSE: dl-de/by-2-0
COPYRIGHT: Copyright 2025 Federal Institute of Hydrology, Koblenz, Germany
COMMENT: CONFIDENCE Reference Standard (Level 1)
COMMENT: Chromatography method: dx.doi.org/10.1016/j.chroma.2015.11.014
COMMENT: Acquisition method: 10.1002/rcm.8541
CH$NAME: 4,4`-Methylenebis(2-chloroaniline)
CH$FORMULA: C13H12Cl2N2
CH$EXACT_MASS: 266.0378
CH$SMILES: C1=CC(=C(C=C1CC2=CC(=C(C=C2)N)Cl)Cl)N
CH$IUPAC: InChI=1S/C13H12Cl2N2/c14-10-6-8(1-3-12(10)16)5-9-2-4-13(17)11(15)7-9/h1-4,6-7H,5,16-17H2
CH$LINK: CAS 101-14-4
CH$LINK: INCHIKEY IBOFVQJTBBUKMU-UHFFFAOYSA-N
AC$INSTRUMENT: TripleTOF 6600 SCIEX
AC$INSTRUMENT_TYPE: LC-ESI-QTOF
AC$MASS_SPECTROMETRY: MS_TYPE MS2
AC$MASS_SPECTROMETRY: ION_MODE POSITIVE
AC$MASS_SPECTROMETRY: COLLISION_ENERGY 90
AC$MASS_SPECTROMETRY: FRAGMENTATION_MODE CID
AC$MASS_SPECTROMETRY: IONIZATION ESI
AC$CHROMATOGRAPHY: COLUMN_NAME Zorbax Eclipse Plus C18 2.1 mm x 150 mm, 3.5 um, Agilent
AC$CHROMATOGRAPHY: COLUMN_TEMPERATURE 40 °C
AC$CHROMATOGRAPHY: FLOW_GRADIENT 0 min min 98% A, 1 min 98% A, 2 min 80% A, 16.5 min 2% A, 22 min 2% A, 22.1 min 98% A, 27 min 98% A
AC$CHROMATOGRAPHY: FLOW_RATE 0.3 mL/min
AC$CHROMATOGRAPHY: RETENTION_TIME 11.747 min
AC$CHROMATOGRAPHY: SOLVENT A: Water 0.1% Formic acid, B: Acetonitrile 0.1% Formic acid
MS$FOCUSED_ION: PRECURSOR_M/Z 267.045
MS$FOCUSED_ION: PRECURSOR_TYPE [M+H]+
MS$DATA_PROCESSING: COMMENT Export with pycsl 0.1.0.dev1 and CSL 24.4
PK$SPLASH: splash10-0uxr-2900000000-a9647456e069efa86f40
PK$NUM_PEAK: 82
PK$PEAK: m/z int. rel.int.
  39.0239 0.4 11
  50.0148 3.7 105
  51.0234 17.4 498
  52.0174 0.9 25
  62.0156 0.6 17
  63.0234 2.6 74
  65.0376 1.5 42
  72.9838 0.9 25
  74.0149 2.1 60
  75.023 5.8 166
  76.0308 1.3 37
  77.0385 34.5 987
  78.0342 1.4 40
  78.0464 4.5 128
  79.0422 0.5 14
  86.0151 0.6 17
  87.0226 0.8 22
  88.0346 0.5 14
  89.0391 5.2 148
  90.0353 0.4 11
  91.0536 0.6 17
  98.015 1.2 34
  99.0251 2.7 77
  100.0306 0.7 20
  101.0393 2.2 62
  102.0332 0.5 14
  102.0463 3.0 85
  103.0555 1.3 37
  104.0489 19.5 558
  105.0429 0.6 17
  105.058 2.4 68
  113.0137 0.8 22
  113.038 2.1 60
  114.0118 0.7 20
  114.046 1.1 31
  115.0542 25.7 735
  116.056 1.3 37
  117.0579 0.6 17
  125.0372 4.3 123
  126.0458 9.1 260
  127.0531 6.6 188
  128.049 0.5 14
  128.0594 1.7 48
  129.0458 0.6 17
  130.0647 1.6 45
  137.0381 0.5 14
  138.0464 0.6 17
  139.0538 28.3 810
  140.0286 5.0 143
  140.0497 8.6 246
  140.0593 5.6 160
  141.0662 2.3 65
  143.0719 0.5 14
  149.0377 2.4 68
  150.0461 34.9 999
  151.0538 33.3 953
  152.0616 24.5 701
  153.0569 1.5 42
  153.0669 0.8 22
  154.066 2.2 62
  155.0588 2.1 60
  161.0383 1.0 28
  162.0486 0.8 22
  163.0543 1.3 37
  164.048 1.7 48
  165.0603 0.4 11
  166.0642 18.7 535
  167.0722 21.3 609
  168.0802 1.0 28
  175.0402 0.6 17
  176.0502 1.5 42
  177.0569 9.0 257
  178.0646 4.3 123
  179.0614 2.1 60
  179.074 0.6 17
  180.0539 0.5 14
  180.0794 0.5 14
  191.0589 0.6 17
  192.0683 2.7 77
  193.0767 1.7 48
  194.0834 0.8 22
  204.056 0.4 11
//