ACCESSION: MSBNK-BAFG-CSL23111010075
RECORD_TITLE: 4-Amino-6-Chloro-1,3-Benzenedisulfonamide; LC-ESI-QTOF; MS2; 70 V
DATE: 2023.11.10
AUTHORS: Kevin S. Jewell; Björn Ehlig; Arne Wick
LICENSE: dl-de/by-2-0
COPYRIGHT: Copyright 2023 Federal Institute of Hydrology, Koblenz, Germany
COMMENT: CONFIDENCE Reference Standard (Level 1)
COMMENT: Chromatography method: dx.doi.org/10.1016/j.chroma.2015.11.014
COMMENT: Acquisition method: 10.1002/rcm.8541
CH$NAME: 4-Amino-6-Chloro-1,3-Benzenedisulfonamide
CH$COMPOUND_CLASS: Pharmaceutical
CH$FORMULA: C6H8ClN3O4S2
CH$EXACT_MASS: 284.9645
CH$SMILES: C1=C(C(=CC(=C1Cl)S(=O)(=O)N)S(=O)(=O)N)N
CH$IUPAC: InChI=1S/C6H8ClN3O4S2/c7-3-1-4(8)6(16(10,13)14)2-5(3)15(9,11)12/h1-2H,8H2,(H2,9,11,12)(H2,10,13,14)
CH$LINK: CAS 121-30-2
CH$LINK: INCHIKEY IHJCXVZDYSXXFT-UHFFFAOYSA-N
AC$INSTRUMENT: TripleTOF 5600 SCIEX
AC$INSTRUMENT_TYPE: LC-ESI-QTOF
AC$MASS_SPECTROMETRY: MS_TYPE MS2
AC$MASS_SPECTROMETRY: ION_MODE POSITIVE
AC$MASS_SPECTROMETRY: COLLISION_ENERGY 70
AC$MASS_SPECTROMETRY: FRAGMENTATION_MODE CID
AC$MASS_SPECTROMETRY: IONIZATION ESI
AC$CHROMATOGRAPHY: COLUMN_NAME Zorbax Eclipse Plus C18 2.1 mm x 150 mm, 3.5 um, Agilent
AC$CHROMATOGRAPHY: COLUMN_TEMPERATURE 40 °C
AC$CHROMATOGRAPHY: FLOW_GRADIENT 0 min min 98% A, 1 min 98% A, 2 min 80% A, 16.5 min 2% A, 22 min 2% A, 22.1 min 98% A, 27 min 98% A
AC$CHROMATOGRAPHY: FLOW_RATE 0.3 mL/min
AC$CHROMATOGRAPHY: RETENTION_TIME 4.984 min
AC$CHROMATOGRAPHY: SOLVENT A: Water 0.1% Formic acid, B: Acetonitrile 0.1% Formic acid
MS$FOCUSED_ION: PRECURSOR_M/Z 285.9718
MS$FOCUSED_ION: PRECURSOR_TYPE [M+H]+
MS$DATA_PROCESSING: COMMENT Export with Spectra 1.9.12 MsBackendMassbank 1.7.4
MS$DATA_PROCESSING: WHOLE RMassBank 2.3.1
PK$SPLASH: splash10-000i-9800000000-9c3f0969e12e2c52e6d7
PK$NUM_PEAK: 14
PK$PEAK: m/z int. rel.int.
  52.0263 0.1 249
  72.9903 0.1 249
  78.0392 0.1 249
  87.0049 0.1 249
  89.0292 0.4 999
  96.9929 0.1 249
  99.9935 0.1 249
  104.9623 0.1 249
  113.0002 0.2 499
  120.9604 0.1 249
  125.0216 0.1 249
  155.0052 0.1 249
  155.9853 0.1 249
  180.9249 0.2 499
//
