ACCESSION: MSBNK-BAFG-CSL25010634186
RECORD_TITLE: 4'-O-Demethyl pantoprazole sulfide; LC-ESI-QTOF; MS2; 80 V
DATE: 2025.01.06
AUTHORS: Ole Lessmann; Kevin S. Jewell; Björn Ehlig; Arne Wick
LICENSE: dl-de/by-2-0
COPYRIGHT: Copyright 2025 Federal Institute of Hydrology, Koblenz, Germany
COMMENT: CONFIDENCE Reference Standard (Level 1)
COMMENT: Chromatography method: dx.doi.org/10.1016/j.chroma.2015.11.014
COMMENT: Acquisition method: 10.1002/rcm.8541
CH$NAME: 4'-O-Demethyl pantoprazole sulfide
CH$COMPOUND_CLASS: Pharmaceutical; Transformation_product-Metabolite
CH$FORMULA: C15H13F2N3O3S
CH$EXACT_MASS: 353.0646
CH$SMILES: COC1=C(NC=CC1=O)CSC2=NC3=C(N2)C=C(C=C3)OC(F)F
CH$IUPAC: InChI=1S/C15H13F2N3O3S/c1-22-13-11(18-5-4-12(13)21)7-24-15-19-9-3-2-8(23-14(16)17)6-10(9)20-15/h2-6,14H,7H2,1H3,(H,18,21)(H,19,20)
CH$LINK: CAS 141854-21-9
CH$LINK: INCHIKEY ILLQTAPXYCRJRB-UHFFFAOYSA-N
AC$INSTRUMENT: TripleTOF 6600 SCIEX
AC$INSTRUMENT_TYPE: LC-ESI-QTOF
AC$MASS_SPECTROMETRY: MS_TYPE MS2
AC$MASS_SPECTROMETRY: ION_MODE POSITIVE
AC$MASS_SPECTROMETRY: COLLISION_ENERGY 80
AC$MASS_SPECTROMETRY: FRAGMENTATION_MODE CID
AC$MASS_SPECTROMETRY: IONIZATION ESI
AC$CHROMATOGRAPHY: COLUMN_NAME Zorbax Eclipse Plus C18 2.1 mm x 150 mm, 3.5 um, Agilent
AC$CHROMATOGRAPHY: COLUMN_TEMPERATURE 40 °C
AC$CHROMATOGRAPHY: FLOW_GRADIENT 0 min min 98% A, 1 min 98% A, 2 min 80% A, 16.5 min 2% A, 22 min 2% A, 22.1 min 98% A, 27 min 98% A
AC$CHROMATOGRAPHY: FLOW_RATE 0.3 mL/min
AC$CHROMATOGRAPHY: RETENTION_TIME 7.57 min
AC$CHROMATOGRAPHY: SOLVENT A: Water 0.1% Formic acid, B: Acetonitrile 0.1% Formic acid
MS$FOCUSED_ION: PRECURSOR_M/Z 354.0719
MS$FOCUSED_ION: PRECURSOR_TYPE [M+H]+
MS$DATA_PROCESSING: COMMENT Export with pycsl 0.1.0.dev1 and CSL 24.4
PK$SPLASH: splash10-0uyr-9400000000-a116f1138ced57820727
PK$NUM_PEAK: 79
PK$PEAK: m/z int. rel.int.
  37.0069 1.9 25
  38.0144 2.0 26
  39.0222 15.5 208
  41.0259 1.7 22
  41.0377 1.6 21
  42.0335 9.7 130
  43.0175 1.1 14
  44.0118 1.0 13
  51.0222 1.7 22
  52.0167 1.6 21
  53.0011 2.4 32
  53.0378 74.2 999
  54.0328 2.8 37
  55.0166 4.2 56
  61.006 0.7 9
  62.015 0.9 12
  63.022 16.4 220
  64.0171 1.2 16
  65.0376 7.9 106
  66.0089 7.7 103
  66.0324 3.0 40
  66.0453 3.3 44
  67.0171 25.6 344
  67.0403 19.7 265
  68.0119 5.8 78
  68.0487 1.4 18
  69.0313 0.9 12
  70.0279 5.4 72
  70.9931 1.1 14
  78.0327 4.6 61
  79.041 1.4 18
  80.0132 2.5 33
  80.0481 51.0 686
  81.0323 6.1 82
  82.0278 1.4 18
  82.0636 5.9 79
  83.0346 2.0 26
  86.0055 2.1 28
  90.0322 13.3 179
  92.0483 8.1 109
  93.0557 6.5 87
  94.0273 12.3 165
  95.035 18.9 254
  96.043 12.3 165
  98.0573 1.2 16
  99.0125 6.4 86
  106.0523 1.4 18
  107.0583 4.8 64
  108.0429 35.0 471
  109.0512 2.8 37
  110.0586 14.0 188
  111.0299 2.8 37
  117.0429 6.5 87
  118.0512 12.5 168
  120.0423 4.0 53
  124.0382 2.6 35
  125.0443 1.4 18
  125.9991 18.8 253
  126.054 2.3 30
  127.0065 15.1 203
  134.0469 2.7 36
  135.0542 33.0 444
  136.0371 22.2 298
  137.0139 1.5 20
  137.9989 1.1 14
  138.0536 4.3 57
  140.0152 3.9 52
  141.0409 0.9 12
  142.0306 0.8 10
  142.051 1.2 16
  155.0021 6.4 86
  159.0518 2.7 36
  165.0101 1.9 25
  166.0188 1.9 25
  170.0276 1.4 18
  209.0505 1.8 24
  210.069 0.8 10
  211.0712 1.0 13
  228.0797 1.2 16
//