ACCESSION: MSBNK-BAFG-CSL2310259607
RECORD_TITLE: N,N`-bis(2-ethoxyethoxycarbonyl)-4-methyl-1,3-phenylenediamine; LC-ESI-QTOF; MS2; 40 V
DATE: 2023.10.25
AUTHORS: Kevin S. Jewell; Björn Ehlig; Arne Wick
LICENSE: dl-de/by-2-0
COPYRIGHT: Copyright 2023 Federal Institute of Hydrology, Koblenz, Germany
COMMENT: CONFIDENCE Reference Standard (Level 1)
COMMENT: Chromatography method: dx.doi.org/10.1016/j.chroma.2015.11.014
COMMENT: Acquisition method: 10.1002/rcm.8541
CH$NAME: N,N`-bis(2-ethoxyethoxycarbonyl)-4-methyl-1,3-phenylenediamine
CH$FORMULA: C17H26N2O6
CH$EXACT_MASS: 354.1791
CH$SMILES: CCOCCOC(=O)NC1=CC(=C(C=C1)C)NC(=O)OCCOCC
CH$IUPAC: InChI=1S/C17H26N2O6/c1-4-22-8-10-24-16(20)18-14-7-6-13(3)15(12-14)19-17(21)25-11-9-23-5-2/h6-7,12H,4-5,8-11H2,1-3H3,(H,18,20)(H,19,21)
CH$LINK: CAS 54767-76-9
CH$LINK: INCHIKEY XCEPDLGXLQKFCO-UHFFFAOYSA-N
AC$INSTRUMENT: TripleTOF 5600 SCIEX
AC$INSTRUMENT_TYPE: LC-ESI-QTOF
AC$MASS_SPECTROMETRY: MS_TYPE MS2
AC$MASS_SPECTROMETRY: ION_MODE POSITIVE
AC$MASS_SPECTROMETRY: COLLISION_ENERGY 40
AC$MASS_SPECTROMETRY: FRAGMENTATION_MODE CID
AC$MASS_SPECTROMETRY: IONIZATION ESI
AC$CHROMATOGRAPHY: COLUMN_NAME Zorbax Eclipse Plus C18 2.1 mm x 150 mm, 3.5 um, Agilent
AC$CHROMATOGRAPHY: COLUMN_TEMPERATURE 40 °C
AC$CHROMATOGRAPHY: FLOW_GRADIENT 0 min min 98% A, 1 min 98% A, 2 min 80% A, 16.5 min 2% A, 22 min 2% A, 22.1 min 98% A, 27 min 98% A
AC$CHROMATOGRAPHY: FLOW_RATE 0.3 mL/min
AC$CHROMATOGRAPHY: RETENTION_TIME 9.91 min
AC$CHROMATOGRAPHY: SOLVENT A: Water 0.1% Formic acid, B: Acetonitrile 0.1% Formic acid
MS$FOCUSED_ION: PRECURSOR_M/Z 355.1864
MS$FOCUSED_ION: PRECURSOR_TYPE [M+H]+
MS$DATA_PROCESSING: COMMENT Export with Spectra 1.9.12 MsBackendMassbank 1.7.4
MS$DATA_PROCESSING: WHOLE RMassBank 2.3.1
PK$SPLASH: splash10-014j-7791000000-c8ee8d91f414a45c3218
PK$NUM_PEAK: 24
PK$PEAK: m/z int. rel.int.
  45.0478 20.1 231
  73.0713 39.3 452
  77.044 1.3 14
  91.0791 17.6 202
  92.0535 1.4 16
  104.0519 2.1 24
  106.0682 2.2 25
  120.046 3.5 40
  121.076 2 23
  132.0459 6.9 79
  147.0555 25.1 289
  149.0713 3.4 39
  160.0584 1.2 13
  175.0503 22.6 260
  175.0803 1.7 19
  176.072 1.9 21
  191.0803 1.4 16
  193.0643 4.2 48
  193.0969 7.7 88
  219.0763 86.7 999
  237.0868 7.2 82
  263.1035 3.6 41
  265.1171 2.8 32
  309.1441 13.4 154
//
