ACCESSION: MSBNK-BAFG-CSL231025331
RECORD_TITLE: Methyl-tris(4-fluorophenyl)phosphonium; LC-ESI-QTOF; MS2; 90 V
DATE: 2023.10.25
AUTHORS: Kevin S. Jewell; Björn Ehlig; Arne Wick
LICENSE: dl-de/by-2-0
COPYRIGHT: Copyright 2023 Federal Institute of Hydrology, Koblenz, Germany
COMMENT: CONFIDENCE Reference Standard (Level 1)
COMMENT: Chromatography method: dx.doi.org/10.1016/j.chroma.2015.11.014
COMMENT: Acquisition method: 10.1002/rcm.8541
CH$NAME: Methyl-tris(4-fluorophenyl)phosphonium
CH$COMPOUND_CLASS: Industrial_process
CH$FORMULA: C19H15F3P
CH$EXACT_MASS: 331.0858
CH$SMILES: C[P+](c1ccc(F)cc1)(c2ccc(F)cc2)c3ccc(F)cc3
CH$IUPAC: InChI=1S/C19H15F3P/c1-23(17-8-2-14(20)3-9-17,18-10-4-15(21)5-11-18)19-12-6-16(22)7-13-19/h2-13H,1H3/q+1
CH$LINK: CAS 18606-51-4
CH$LINK: INCHIKEY RLZPVXZQPHPWED-UHFFFAOYSA-N
AC$INSTRUMENT: TripleTOF 5600 SCIEX
AC$INSTRUMENT_TYPE: LC-ESI-QTOF
AC$MASS_SPECTROMETRY: MS_TYPE MS2
AC$MASS_SPECTROMETRY: ION_MODE POSITIVE
AC$MASS_SPECTROMETRY: COLLISION_ENERGY 90
AC$MASS_SPECTROMETRY: FRAGMENTATION_MODE CID
AC$MASS_SPECTROMETRY: IONIZATION ESI
AC$CHROMATOGRAPHY: COLUMN_NAME Zorbax Eclipse Plus C18 2.1 mm x 150 mm, 3.5 um, Agilent
AC$CHROMATOGRAPHY: COLUMN_TEMPERATURE 40 °C
AC$CHROMATOGRAPHY: FLOW_GRADIENT 0 min min 98% A, 1 min 98% A, 2 min 80% A, 16.5 min 2% A, 22 min 2% A, 22.1 min 98% A, 27 min 98% A
AC$CHROMATOGRAPHY: FLOW_RATE 0.3 mL/min
AC$CHROMATOGRAPHY: RETENTION_TIME 7.52 min
AC$CHROMATOGRAPHY: SOLVENT A: Water 0.1% Formic acid, B: Acetonitrile 0.1% Formic acid
MS$FOCUSED_ION: PRECURSOR_M/Z 331.0858
MS$FOCUSED_ION: PRECURSOR_TYPE [M]+
MS$DATA_PROCESSING: COMMENT Export with Spectra 1.9.12 MsBackendMassbank 1.7.4
MS$DATA_PROCESSING: WHOLE RMassBank 2.3.1
PK$SPLASH: splash10-0gi0-0950000000-18e7f036f6644c040c9f
PK$NUM_PEAK: 13
PK$PEAK: m/z int. rel.int.
  124.9945 45.9 423
  126.0042 7.3 67
  150.0464 45.8 422
  151.0542 7.2 66
  169.0447 7.5 69
  170.0522 25.9 238
  175.0113 7.7 70
  181.02 11.2 103
  188.0434 18.5 170
  193.0009 7 64
  199.0104 27.5 253
  201.0273 25.5 235
  219.0168 108.4 999
//
