ACCESSION: MSBNK-BAFG-CSL2310306104
RECORD_TITLE: Acebutolol; LC-ESI-QTOF; MS2; 140 V
DATE: 2023.10.30
AUTHORS: Kevin S. Jewell; Björn Ehlig; Arne Wick
LICENSE: dl-de/by-2-0
COPYRIGHT: Copyright 2023 Federal Institute of Hydrology, Koblenz, Germany
COMMENT: CONFIDENCE Reference Standard (Level 1)
COMMENT: Chromatography method: dx.doi.org/10.1016/j.chroma.2015.11.014
COMMENT: Acquisition method: 10.1002/rcm.8541
CH$NAME: Acebutolol
CH$COMPOUND_CLASS: Pharmaceutical
CH$FORMULA: C18H28N2O4
CH$EXACT_MASS: 336.2049
CH$SMILES: CCCC(=O)Nc1ccc(OCC(O)CNC(C)C)c(c1)C(C)=O
CH$IUPAC: InChI=1S/C18H28N2O4/c1-5-6-18(23)20-14-7-8-17(16(9-14)13(4)21)24-11-15(22)10-19-12(2)3/h7-9,12,15,19,22H,5-6,10-11H2,1-4H3,(H,20,23)
CH$LINK: CAS 37517-30-9
CH$LINK: INCHIKEY GOEMGAFJFRBGGG-UHFFFAOYSA-N
AC$INSTRUMENT: TripleTOF 5600 SCIEX
AC$INSTRUMENT_TYPE: LC-ESI-QTOF
AC$MASS_SPECTROMETRY: MS_TYPE MS2
AC$MASS_SPECTROMETRY: ION_MODE POSITIVE
AC$MASS_SPECTROMETRY: COLLISION_ENERGY 140
AC$MASS_SPECTROMETRY: FRAGMENTATION_MODE CID
AC$MASS_SPECTROMETRY: IONIZATION ESI
AC$CHROMATOGRAPHY: COLUMN_NAME Zorbax Eclipse Plus C18 2.1 mm x 150 mm, 3.5 um, Agilent
AC$CHROMATOGRAPHY: COLUMN_TEMPERATURE 40 °C
AC$CHROMATOGRAPHY: FLOW_GRADIENT 0 min min 98% A, 1 min 98% A, 2 min 80% A, 16.5 min 2% A, 22 min 2% A, 22.1 min 98% A, 27 min 98% A
AC$CHROMATOGRAPHY: FLOW_RATE 0.3 mL/min
AC$CHROMATOGRAPHY: RETENTION_TIME 5.965 min
AC$CHROMATOGRAPHY: SOLVENT A: Water 0.1% Formic acid, B: Acetonitrile 0.1% Formic acid
MS$FOCUSED_ION: PRECURSOR_M/Z 337.2122
MS$FOCUSED_ION: PRECURSOR_TYPE [M+H]+
MS$DATA_PROCESSING: COMMENT Export with Spectra 1.9.12 MsBackendMassbank 1.7.4
MS$DATA_PROCESSING: WHOLE RMassBank 2.3.1
PK$SPLASH: splash10-0a6r-9000000000-48f7f64785c75498c6b8
PK$NUM_PEAK: 24
PK$PEAK: m/z int. rel.int.
  42.0434 0.9 94
  43.0243 1.1 115
  43.0492 0.4 42
  44.0585 0.9 94
  51.0289 2.7 283
  56.0552 9.5 999
  58.0705 2.6 273
  65.0432 5 525
  66.05 0.6 63
  67.0475 0.5 52
  72.0848 1.9 199
  74.064 0.7 73
  77.0418 7 736
  79.0568 0.6 63
  80.052 3.1 325
  80.0687 0.5 52
  89.0396 0.8 84
  89.0452 0.8 84
  91.0576 1 105
  92.0496 0.5 52
  93.0588 1.6 168
  103.054 0.5 52
  104.0503 0.9 94
  115.0553 1 105
//
