ACCESSION: MSBNK-BAFG-CSL2310307285
RECORD_TITLE: 2-N-methyl-lamotrigine; LC-ESI-QTOF; MS2; 150 V
DATE: 2023.10.30
AUTHORS: Kevin S. Jewell; Björn Ehlig; Arne Wick
LICENSE: dl-de/by-2-0
COPYRIGHT: Copyright 2023 Federal Institute of Hydrology, Koblenz, Germany
COMMENT: CONFIDENCE Reference Standard (Level 1)
COMMENT: Chromatography method: dx.doi.org/10.1016/j.chroma.2015.11.014
COMMENT: Acquisition method: 10.1002/rcm.8541
CH$NAME: 2-N-methyl-lamotrigine
CH$COMPOUND_CLASS: Metabolite; Pharmaceutical
CH$FORMULA: C10H9Cl2N5
CH$EXACT_MASS: 269.0235
CH$SMILES: CN1N=C(C2=CC=CC(Cl)=C2Cl)C(N)=NC1=N
CH$IUPAC: InChI=1S/C10H9Cl2N5/c1-17-10(14)15-9(13)8(16-17)5-3-2-4-6(11)7(5)12/h2-4H,1H3,(H3,13,14,15)
CH$LINK: CAS NA
CH$LINK: INCHIKEY ODYWNHAUROHCSD-UHFFFAOYSA-N
AC$INSTRUMENT: TripleTOF 5600 SCIEX
AC$INSTRUMENT_TYPE: LC-ESI-QTOF
AC$MASS_SPECTROMETRY: MS_TYPE MS2
AC$MASS_SPECTROMETRY: ION_MODE POSITIVE
AC$MASS_SPECTROMETRY: COLLISION_ENERGY 150
AC$MASS_SPECTROMETRY: FRAGMENTATION_MODE CID
AC$MASS_SPECTROMETRY: IONIZATION ESI
AC$CHROMATOGRAPHY: COLUMN_NAME Zorbax Eclipse Plus C18 2.1 mm x 150 mm, 3.5 um, Agilent
AC$CHROMATOGRAPHY: COLUMN_TEMPERATURE 40 °C
AC$CHROMATOGRAPHY: FLOW_GRADIENT 0 min min 98% A, 1 min 98% A, 2 min 80% A, 16.5 min 2% A, 22 min 2% A, 22.1 min 98% A, 27 min 98% A
AC$CHROMATOGRAPHY: FLOW_RATE 0.3 mL/min
AC$CHROMATOGRAPHY: RETENTION_TIME 6.444 min
AC$CHROMATOGRAPHY: SOLVENT A: Water 0.1% Formic acid, B: Acetonitrile 0.1% Formic acid
MS$FOCUSED_ION: PRECURSOR_M/Z 270.0308
MS$FOCUSED_ION: PRECURSOR_TYPE [M+H]+
MS$DATA_PROCESSING: COMMENT Export with Spectra 1.9.12 MsBackendMassbank 1.7.4
MS$DATA_PROCESSING: WHOLE RMassBank 2.3.1
PK$SPLASH: splash10-00di-9000000000-0813900fa448595a7bfb
PK$NUM_PEAK: 20
PK$PEAK: m/z int. rel.int.
  43.0383 2.9 289
  57.0495 7.4 739
  61.031 0.4 39
  61.984 0.5 49
  72.9863 2.2 219
  73.0089 4.1 409
  74.0177 10 999
  75.0126 1.9 189
  75.0243 2.1 209
  76.0209 0.6 59
  83.9817 0.6 59
  84.002 0.4 39
  85.0081 2.6 259
  86.016 4.4 439
  87.0248 1.7 169
  88.0194 1.1 109
  88.0326 0.5 49
  96.9847 0.6 59
  98.0055 0.7 69
  99.0105 5.2 519
//
