ACCESSION: MSBNK-BAFG-CSL25010627929
RECORD_TITLE: Indigo; LC-ESI-QTOF; MS2; 40 V
DATE: 2025.01.06
AUTHORS: Ole Lessmann; Kevin S. Jewell; Björn Ehlig; Arne Wick
LICENSE: dl-de/by-2-0
COPYRIGHT: Copyright 2025 Federal Institute of Hydrology, Koblenz, Germany
COMMENT: CONFIDENCE Reference Standard (Level 1)
COMMENT: Chromatography method: dx.doi.org/10.1016/j.chroma.2015.11.014
COMMENT: Acquisition method: 10.1002/rcm.8541
CH$NAME: Indigo
CH$FORMULA: C16H10N2O2
CH$EXACT_MASS: 262.0742
CH$SMILES: C1=CC=C2C(=C1)C(=C(N2)C3=NC4=CC=CC=C4C3=O)O
CH$IUPAC: InChI=1S/C16H10N2O2/c19-15-9-5-1-3-7-11(9)17-13(15)14-16(20)10-6-2-4-8-12(10)18-14/h1-8,17,19H
CH$LINK: CAS 482-89-3
CH$LINK: INCHIKEY QQILFGKZUJYXGS-UHFFFAOYSA-N
AC$INSTRUMENT: TripleTOF X500R SCIEX
AC$INSTRUMENT_TYPE: LC-ESI-QTOF
AC$MASS_SPECTROMETRY: MS_TYPE MS2
AC$MASS_SPECTROMETRY: ION_MODE POSITIVE
AC$MASS_SPECTROMETRY: COLLISION_ENERGY 40
AC$MASS_SPECTROMETRY: FRAGMENTATION_MODE CID
AC$MASS_SPECTROMETRY: IONIZATION ESI
AC$CHROMATOGRAPHY: COLUMN_NAME Zorbax Eclipse Plus C18 2.1 mm x 150 mm, 3.5 um, Agilent
AC$CHROMATOGRAPHY: COLUMN_TEMPERATURE 40 °C
AC$CHROMATOGRAPHY: FLOW_GRADIENT 0 min min 98% A, 1 min 98% A, 2 min 80% A, 16.5 min 2% A, 22 min 2% A, 22.1 min 98% A, 27 min 98% A
AC$CHROMATOGRAPHY: FLOW_RATE 0.3 mL/min
AC$CHROMATOGRAPHY: RETENTION_TIME 11.892 min
AC$CHROMATOGRAPHY: SOLVENT A: Water 0.1% Formic acid, B: Acetonitrile 0.1% Formic acid
MS$FOCUSED_ION: PRECURSOR_M/Z 263.0815
MS$FOCUSED_ION: PRECURSOR_TYPE [M+H]+
MS$DATA_PROCESSING: COMMENT Export with pycsl 0.1.0.dev1 and CSL 24.4
PK$SPLASH: splash10-03yr-0390000000-4db8c95bc62b8c9c4c98
PK$NUM_PEAK: 42
PK$PEAK: m/z int. rel.int.
  77.0384 4.8 157
  89.0382 0.8 26
  102.0335 1.0 32
  103.0439 0.5 16
  104.0274 0.8 26
  104.0498 3.3 108
  105.0324 1.6 52
  105.0465 0.4 13
  116.0508 2.3 75
  117.0591 0.7 22
  120.0445 1.0 32
  130.03 1.7 55
  132.0445 17.0 556
  144.0442 0.9 29
  152.0622 1.2 39
  153.0696 1.1 36
  157.041 1.2 39
  158.049 2.0 65
  165.0711 2.3 75
  179.0737 3.1 101
  180.0807 9.4 307
  181.0635 1.3 42
  190.0661 12.3 402
  191.0725 0.9 29
  192.0752 1.5 49
  205.078 4.0 131
  206.0844 23.5 769
  207.0918 4.3 140
  208.0769 8.8 288
  216.0695 3.2 104
  217.0762 10.9 357
  218.0592 1.6 52
  218.0833 4.9 160
  219.0925 19.7 645
  233.0707 1.2 39
  234.0793 21.6 707
  235.0874 30.2 989
  236.0729 1.6 52
  245.0698 1.5 49
  246.0783 1.7 55
  262.0745 24.9 815
  263.0824 30.5 999
//