ACCESSION: MSBNK-BAFG-CSL2311106845
RECORD_TITLE: Ethyl-N-(4-aminophenyl)carbamate; LC-ESI-QTOF; MS2; 40 V
DATE: 2023.11.10
AUTHORS: Kevin S. Jewell; Björn Ehlig; Arne Wick
LICENSE: dl-de/by-2-0
COPYRIGHT: Copyright 2023 Federal Institute of Hydrology, Koblenz, Germany
COMMENT: CONFIDENCE Reference Standard (Level 1)
COMMENT: Chromatography method: dx.doi.org/10.1016/j.chroma.2015.11.014
COMMENT: Acquisition method: 10.1002/rcm.8541
CH$NAME: Ethyl-N-(4-aminophenyl)carbamate
CH$COMPOUND_CLASS: Industrial_process
CH$FORMULA: C9H12N2O2
CH$EXACT_MASS: 180.0899
CH$SMILES: CCOC(=O)Nc1ccc(cc1)N
CH$IUPAC: InChI=1S/C9H12N2O2/c1-2-13-9(12)11-8-5-3-7(10)4-6-8/h3-6H,2,10H2,1H3,(H,11,12)
CH$LINK: CAS 57399-97-0
CH$LINK: INCHIKEY SABZQUOBNXDLDV-UHFFFAOYSA-N
AC$INSTRUMENT: TripleTOF 5600 SCIEX
AC$INSTRUMENT_TYPE: LC-ESI-QTOF
AC$MASS_SPECTROMETRY: MS_TYPE MS2
AC$MASS_SPECTROMETRY: ION_MODE POSITIVE
AC$MASS_SPECTROMETRY: COLLISION_ENERGY 40
AC$MASS_SPECTROMETRY: FRAGMENTATION_MODE CID
AC$MASS_SPECTROMETRY: IONIZATION ESI
AC$CHROMATOGRAPHY: COLUMN_NAME Zorbax Eclipse Plus C18 2.1 mm x 150 mm, 3.5 um, Agilent
AC$CHROMATOGRAPHY: COLUMN_TEMPERATURE 40 °C
AC$CHROMATOGRAPHY: FLOW_GRADIENT 0 min min 98% A, 1 min 98% A, 2 min 80% A, 16.5 min 2% A, 22 min 2% A, 22.1 min 98% A, 27 min 98% A
AC$CHROMATOGRAPHY: FLOW_RATE 0.3 mL/min
AC$CHROMATOGRAPHY: RETENTION_TIME 4.863 min
AC$CHROMATOGRAPHY: SOLVENT A: Water 0.1% Formic acid, B: Acetonitrile 0.1% Formic acid
MS$FOCUSED_ION: PRECURSOR_M/Z 181.0972
MS$FOCUSED_ION: PRECURSOR_TYPE [M+H]+
MS$DATA_PROCESSING: COMMENT Export with Spectra 1.9.12 MsBackendMassbank 1.7.4
MS$DATA_PROCESSING: WHOLE RMassBank 2.3.1
PK$SPLASH: splash10-052f-9800000000-e1f13cb7f1b9c553db63
PK$NUM_PEAK: 18
PK$PEAK: m/z int. rel.int.
  53.0438 2.3 18
  65.0426 32.6 267
  66.0507 2 16
  80.0516 33 270
  81.0596 1.7 13
  82.0666 1.6 13
  90.0346 28.2 231
  92.0511 85.1 698
  93.0586 78.2 641
  106.0526 3.1 25
  107.0608 121.7 999
  108.0457 1.6 13
  108.068 20.9 171
  109.0754 32.6 267
  118.0283 2.6 21
  134.0472 7.7 63
  135.0551 65.5 537
  153.0653 1.5 12
//
