ACCESSION: MSBNK-BAFG-CSL2311109439
RECORD_TITLE: Trifloxystrobin; LC-ESI-QTOF; MS2; 150 V
DATE: 2023.11.10
AUTHORS: Kevin S. Jewell; Björn Ehlig; Arne Wick
LICENSE: dl-de/by-2-0
COPYRIGHT: Copyright 2023 Federal Institute of Hydrology, Koblenz, Germany
COMMENT: CONFIDENCE Reference Standard (Level 1)
COMMENT: Chromatography method: dx.doi.org/10.1016/j.chroma.2015.11.014
COMMENT: Acquisition method: 10.1002/rcm.8541
CH$NAME: Trifloxystrobin
CH$COMPOUND_CLASS: Fungicide
CH$FORMULA: C20H19F3N2O4
CH$EXACT_MASS: 408.1297
CH$SMILES: CC(=NOCC1=CC=CC=C1C(=NOC)C(=O)OC)C2=CC(=CC=C2)C(F)(F)F
CH$IUPAC: InChI=1S/C20H19F3N2O4/c1-13(14-8-6-9-16(11-14)20(21,22)23)24-29-12-15-7-4-5-10-17(15)18(25-28-3)19(26)27-2/h4-11H,12H2,1-3H3
CH$LINK: CAS 141517-21-7
CH$LINK: INCHIKEY ONCZDRURRATYFI-UHFFFAOYSA-N
AC$INSTRUMENT: TripleTOF 5600 SCIEX
AC$INSTRUMENT_TYPE: LC-ESI-QTOF
AC$MASS_SPECTROMETRY: MS_TYPE MS2
AC$MASS_SPECTROMETRY: ION_MODE POSITIVE
AC$MASS_SPECTROMETRY: COLLISION_ENERGY 150
AC$MASS_SPECTROMETRY: FRAGMENTATION_MODE CID
AC$MASS_SPECTROMETRY: IONIZATION ESI
AC$CHROMATOGRAPHY: COLUMN_NAME Zorbax Eclipse Plus C18 2.1 mm x 150 mm, 3.5 um, Agilent
AC$CHROMATOGRAPHY: COLUMN_TEMPERATURE 40 °C
AC$CHROMATOGRAPHY: FLOW_GRADIENT 0 min min 98% A, 1 min 98% A, 2 min 80% A, 16.5 min 2% A, 22 min 2% A, 22.1 min 98% A, 27 min 98% A
AC$CHROMATOGRAPHY: FLOW_RATE 0.3 mL/min
AC$CHROMATOGRAPHY: RETENTION_TIME 15.037 min
AC$CHROMATOGRAPHY: SOLVENT A: Water 0.1% Formic acid, B: Acetonitrile 0.1% Formic acid
MS$FOCUSED_ION: PRECURSOR_M/Z 409.137
MS$FOCUSED_ION: PRECURSOR_TYPE [M+H]+
MS$DATA_PROCESSING: COMMENT Export with Spectra 1.9.12 MsBackendMassbank 1.7.4
MS$DATA_PROCESSING: WHOLE RMassBank 2.3.1
PK$SPLASH: splash10-004r-9100000000-fbf2cce72791386bf84a
PK$NUM_PEAK: 31
PK$PEAK: m/z int. rel.int.
  51.0328 20.3 67
  57.0224 7.7 25
  59.0215 3.8 12
  64.0308 8.2 27
  65.0463 25.7 85
  69.0016 35.2 116
  73.0124 8 26
  74.0212 130.6 432
  75.0276 269 890
  76.0356 4 13
  77.0442 70.8 234
  78.052 5.9 19
  81.0193 7.3 24
  88.027 5.8 19
  89.0428 301.9 999
  90.0496 31.6 104
  91.0577 28.7 94
  95.0325 81.5 269
  99.0066 20.9 69
  102.0489 3.5 11
  103.0565 30.9 102
  105.0152 3.7 12
  114.0341 5.6 18
  116.0516 51.2 169
  117.0598 15 49
  118.0666 13.6 45
  119.0116 9.1 30
  125.0215 26.9 89
  130.0668 28.7 94
  131.0735 3.1 10
  145.0275 17 56
//
