ACCESSION: MSBNK-BAFG-CSL2310302711
RECORD_TITLE: Hydrochlorothiazide; LC-ESI-QTOF; MS2; 70 V
DATE: 2023.10.30
AUTHORS: Kevin S. Jewell; Björn Ehlig; Arne Wick
LICENSE: dl-de/by-2-0
COPYRIGHT: Copyright 2023 Federal Institute of Hydrology, Koblenz, Germany
COMMENT: CONFIDENCE Reference Standard (Level 1)
COMMENT: Chromatography method: dx.doi.org/10.1016/j.chroma.2015.11.014
COMMENT: Acquisition method: 10.1002/rcm.8541
CH$NAME: Hydrochlorothiazide
CH$COMPOUND_CLASS: Pharmaceutical
CH$FORMULA: C7H8ClN3O4S2
CH$EXACT_MASS: 296.9645
CH$SMILES: N[S](=O)(=O)c1cc2c(NCN[S]2(=O)=O)cc1Cl
CH$IUPAC: InChI=1S/C7H8ClN3O4S2/c8-4-1-5-7(2-6(4)16(9,12)13)17(14,15)11-3-10-5/h1-2,10-11H,3H2,(H2,9,12,13)
CH$LINK: CAS 58-93-5
CH$LINK: INCHIKEY JZUFKLXOESDKRF-UHFFFAOYSA-N
AC$INSTRUMENT: TripleTOF 5600 SCIEX
AC$INSTRUMENT_TYPE: LC-ESI-QTOF
AC$MASS_SPECTROMETRY: MS_TYPE MS2
AC$MASS_SPECTROMETRY: ION_MODE NEGATIVE
AC$MASS_SPECTROMETRY: COLLISION_ENERGY 70
AC$MASS_SPECTROMETRY: FRAGMENTATION_MODE CID
AC$MASS_SPECTROMETRY: IONIZATION ESI
AC$CHROMATOGRAPHY: COLUMN_NAME Zorbax Eclipse Plus C18 2.1 mm x 150 mm, 3.5 um, Agilent
AC$CHROMATOGRAPHY: COLUMN_TEMPERATURE 40 °C
AC$CHROMATOGRAPHY: FLOW_GRADIENT 0 min min 98% A, 1 min 98% A, 2 min 80% A, 16.5 min 2% A, 22 min 2% A, 22.1 min 98% A, 27 min 98% A
AC$CHROMATOGRAPHY: FLOW_RATE 0.3 mL/min
AC$CHROMATOGRAPHY: RETENTION_TIME 5.446 min
AC$CHROMATOGRAPHY: SOLVENT A: Water 0.1% Formic acid, B: Acetonitrile 0.1% Formic acid
MS$FOCUSED_ION: PRECURSOR_M/Z 295.9572
MS$FOCUSED_ION: PRECURSOR_TYPE [M-H]-
MS$DATA_PROCESSING: COMMENT Export with Spectra 1.9.12 MsBackendMassbank 1.7.4
MS$DATA_PROCESSING: WHOLE RMassBank 2.3.1
PK$SPLASH: splash10-004i-9300000000-978216c631c078a1e471
PK$NUM_PEAK: 11
PK$PEAK: m/z int. rel.int.
  61.9714 1.5 100
  63.9629 1.8 120
  77.9659 14.9 999
  78.9733 1.1 73
  90.0347 1.3 87
  94.0299 2 134
  104.0355 1.1 73
  115.0296 1.2 80
  121.0441 1.1 73
  123.9956 4 268
  178.9908 1.1 73
//
