ACCESSION: MSBNK-BAFG-CSL25010634236
RECORD_TITLE: 4,4`-Thiodianiline; LC-ESI-QTOF; MS2; 100 V
DATE: 2025.01.06
AUTHORS: Ole Lessmann; Kevin S. Jewell; Björn Ehlig; Arne Wick
LICENSE: dl-de/by-2-0
COPYRIGHT: Copyright 2025 Federal Institute of Hydrology, Koblenz, Germany
COMMENT: CONFIDENCE Reference Standard (Level 1)
COMMENT: Chromatography method: dx.doi.org/10.1016/j.chroma.2015.11.014
COMMENT: Acquisition method: 10.1002/rcm.8541
CH$NAME: 4,4`-Thiodianiline
CH$FORMULA: C12H12N2S
CH$EXACT_MASS: 216.0721
CH$SMILES: C1=CC(=CC=C1N)SC2=CC=C(C=C2)N
CH$IUPAC: InChI=1S/C12H12N2S/c13-9-1-5-11(6-2-9)15-12-7-3-10(14)4-8-12/h1-8H,13-14H2
CH$LINK: CAS 139-65-1
CH$LINK: INCHIKEY ICNFHJVPAJKPHW-UHFFFAOYSA-N
AC$INSTRUMENT: TripleTOF 6600 SCIEX
AC$INSTRUMENT_TYPE: LC-ESI-QTOF
AC$MASS_SPECTROMETRY: MS_TYPE MS2
AC$MASS_SPECTROMETRY: ION_MODE POSITIVE
AC$MASS_SPECTROMETRY: COLLISION_ENERGY 100
AC$MASS_SPECTROMETRY: FRAGMENTATION_MODE CID
AC$MASS_SPECTROMETRY: IONIZATION ESI
AC$CHROMATOGRAPHY: COLUMN_NAME Zorbax Eclipse Plus C18 2.1 mm x 150 mm, 3.5 um, Agilent
AC$CHROMATOGRAPHY: COLUMN_TEMPERATURE 40 °C
AC$CHROMATOGRAPHY: FLOW_GRADIENT 0 min min 98% A, 1 min 98% A, 2 min 80% A, 16.5 min 2% A, 22 min 2% A, 22.1 min 98% A, 27 min 98% A
AC$CHROMATOGRAPHY: FLOW_RATE 0.3 mL/min
AC$CHROMATOGRAPHY: RETENTION_TIME 6.429 min
AC$CHROMATOGRAPHY: SOLVENT A: Water 0.1% Formic acid, B: Acetonitrile 0.1% Formic acid
MS$FOCUSED_ION: PRECURSOR_M/Z 217.0794
MS$FOCUSED_ION: PRECURSOR_TYPE [M+H]+
MS$DATA_PROCESSING: COMMENT Export with pycsl 0.1.0.dev1 and CSL 24.4
PK$SPLASH: splash10-0w2i-9100000000-24913a2d771cc553a5a9
PK$NUM_PEAK: 39
PK$PEAK: m/z int. rel.int.
  39.0222 1.4 268
  44.9781 1.0 192
  50.0147 3.9 749
  51.0221 1.4 268
  53.0379 5.2 999
  54.0325 0.7 134
  61.0058 0.4 76
  62.0144 1.5 288
  63.0223 3.2 614
  65.0383 0.9 172
  68.9786 2.6 499
  74.0138 1.4 268
  75.0217 0.6 115
  76.0309 1.3 249
  77.0373 2.1 403
  78.0326 0.7 134
  79.0416 0.8 153
  80.0485 4.5 864
  81.9859 0.4 76
  86.0131 1.5 288
  87.0229 1.5 288
  88.0303 0.6 115
  89.0379 2.6 499
  90.043 0.5 96
  94.994 0.7 134
  95.9996 0.5 96
  97.0096 0.6 115
  98.0138 0.7 134
  101.0344 0.5 96
  102.0444 0.4 76
  113.0372 0.9 172
  123.0132 1.0 192
  124.0204 0.5 96
  126.045 1.0 192
  127.0519 0.9 172
  137.0355 0.6 115
  138.0417 0.5 96
  139.0541 1.7 326
  171.0304 0.4 76
//