ACCESSION: MSBNK-BAFG-CSL2310265356
RECORD_TITLE: Diuron; LC-ESI-QTOF; MS2; 120 V
DATE: 2023.10.26
AUTHORS: Kevin S. Jewell; Björn Ehlig; Arne Wick
LICENSE: dl-de/by-2-0
COPYRIGHT: Copyright 2023 Federal Institute of Hydrology, Koblenz, Germany
COMMENT: CONFIDENCE Reference Standard (Level 1)
COMMENT: Chromatography method: dx.doi.org/10.1016/j.chroma.2015.11.014
COMMENT: Acquisition method: 10.1002/rcm.8541
CH$NAME: Diuron
CH$COMPOUND_CLASS: Herbicide
CH$FORMULA: C9H10Cl2N2O
CH$EXACT_MASS: 232.017
CH$SMILES: CN(C)C(=O)Nc1ccc(Cl)c(Cl)c1
CH$IUPAC: InChI=1S/C9H10Cl2N2O/c1-13(2)9(14)12-6-3-4-7(10)8(11)5-6/h3-5H,1-2H3,(H,12,14)
CH$LINK: CAS 330-54-1
CH$LINK: INCHIKEY XMTQQYYKAHVGBJ-UHFFFAOYSA-N
AC$INSTRUMENT: TripleTOF 5600 SCIEX
AC$INSTRUMENT_TYPE: LC-ESI-QTOF
AC$MASS_SPECTROMETRY: MS_TYPE MS2
AC$MASS_SPECTROMETRY: ION_MODE POSITIVE
AC$MASS_SPECTROMETRY: COLLISION_ENERGY 120
AC$MASS_SPECTROMETRY: FRAGMENTATION_MODE CID
AC$MASS_SPECTROMETRY: IONIZATION ESI
AC$CHROMATOGRAPHY: COLUMN_NAME Zorbax Eclipse Plus C18 2.1 mm x 150 mm, 3.5 um, Agilent
AC$CHROMATOGRAPHY: COLUMN_TEMPERATURE 40 °C
AC$CHROMATOGRAPHY: FLOW_GRADIENT 0 min min 98% A, 1 min 98% A, 2 min 80% A, 16.5 min 2% A, 22 min 2% A, 22.1 min 98% A, 27 min 98% A
AC$CHROMATOGRAPHY: FLOW_RATE 0.3 mL/min
AC$CHROMATOGRAPHY: RETENTION_TIME 10.497 min
AC$CHROMATOGRAPHY: SOLVENT A: Water 0.1% Formic acid, B: Acetonitrile 0.1% Formic acid
MS$FOCUSED_ION: PRECURSOR_M/Z 233.0243
MS$FOCUSED_ION: PRECURSOR_TYPE [M+H]+
MS$DATA_PROCESSING: COMMENT Export with Spectra 1.9.12 MsBackendMassbank 1.7.4
MS$DATA_PROCESSING: WHOLE RMassBank 2.3.1
PK$SPLASH: splash10-00di-9000000000-dc45d02c75df42049414
PK$NUM_PEAK: 10
PK$PEAK: m/z int. rel.int.
  56.0184 1.6 183
  71.9784 0.5 57
  72.0474 4.8 551
  72.9867 2.3 264
  73.0097 1.8 206
  74.0182 8.7 999
  75.0264 0.8 91
  82.9475 1 114
  83.9771 1 114
  132.964 0.4 45
//
