ACCESSION: MSBNK-BAFG-CSL23102510319
RECORD_TITLE: Meptazinol; LC-ESI-QTOF; MS2; 60 V
DATE: 2023.10.25
AUTHORS: Kevin S. Jewell; Björn Ehlig; Arne Wick
LICENSE: dl-de/by-2-0
COPYRIGHT: Copyright 2023 Federal Institute of Hydrology, Koblenz, Germany
COMMENT: CONFIDENCE Reference Standard (Level 1)
COMMENT: Chromatography method: dx.doi.org/10.1016/j.chroma.2015.11.014
COMMENT: Acquisition method: 10.1002/rcm.8541
CH$NAME: Meptazinol
CH$COMPOUND_CLASS: Pharmaceutical
CH$FORMULA: C15H23NO
CH$EXACT_MASS: 233.178
CH$SMILES: CCC1(CCCCN(C1)C)C2=CC(=CC=C2)O
CH$IUPAC: InChI=1S/C15H23NO/c1-3-15(9-4-5-10-16(2)12-15)13-7-6-8-14(17)11-13/h6-8,11,17H,3-5,9-10,12H2,1-2H3
CH$LINK: CAS 54340-58-8
CH$LINK: INCHIKEY JLICHNCFTLFZJN-UHFFFAOYSA-N
AC$INSTRUMENT: TripleTOF 5600 SCIEX
AC$INSTRUMENT_TYPE: LC-ESI-QTOF
AC$MASS_SPECTROMETRY: MS_TYPE MS2
AC$MASS_SPECTROMETRY: ION_MODE POSITIVE
AC$MASS_SPECTROMETRY: COLLISION_ENERGY 60
AC$MASS_SPECTROMETRY: FRAGMENTATION_MODE CID
AC$MASS_SPECTROMETRY: IONIZATION ESI
AC$CHROMATOGRAPHY: COLUMN_NAME Zorbax Eclipse Plus C18 2.1 mm x 150 mm, 3.5 um, Agilent
AC$CHROMATOGRAPHY: COLUMN_TEMPERATURE 40 °C
AC$CHROMATOGRAPHY: FLOW_GRADIENT 0 min min 98% A, 1 min 98% A, 2 min 80% A, 16.5 min 2% A, 22 min 2% A, 22.1 min 98% A, 27 min 98% A
AC$CHROMATOGRAPHY: FLOW_RATE 0.3 mL/min
AC$CHROMATOGRAPHY: RETENTION_TIME 5.641 min
AC$CHROMATOGRAPHY: SOLVENT A: Water 0.1% Formic acid, B: Acetonitrile 0.1% Formic acid
MS$FOCUSED_ION: PRECURSOR_M/Z 234.1852
MS$FOCUSED_ION: PRECURSOR_TYPE [M+H]+
MS$DATA_PROCESSING: COMMENT Export with Spectra 1.9.12 MsBackendMassbank 1.7.4
MS$DATA_PROCESSING: WHOLE RMassBank 2.3.1
PK$SPLASH: splash10-056r-9800000000-cf0926b9e4d97308f259
PK$NUM_PEAK: 27
PK$PEAK: m/z int. rel.int.
  39.0227 2.9 15
  41.0382 2.8 14
  44.0493 12.3 65
  51.0228 8.2 43
  55.0175 5.5 29
  55.0538 6 31
  65.0381 4.5 23
  67.0538 5.9 31
  70.0648 4.3 22
  77.0387 188.3 999
  79.0543 54.7 290
  91.0542 24.2 128
  93.0698 2.2 11
  103.0542 22.8 120
  105.0696 27.6 146
  107.0493 150.3 797
  115.0544 14 74
  116.0635 2.1 11
  117.0692 5 26
  121.0655 4 21
  127.0544 6.5 34
  128.0622 7.8 41
  131.0489 22.5 119
  132.057 6.8 36
  133.0659 7.9 41
  145.0646 8.8 46
  146.0729 2.6 13
//
