ACCESSION: MSBNK-BAFG-CSL23111011094
RECORD_TITLE: Ethyl tosylcarbamate; LC-ESI-QTOF; MS2; 50 V
DATE: 2023.11.10
AUTHORS: Kevin S. Jewell; Björn Ehlig; Arne Wick
LICENSE: dl-de/by-2-0
COPYRIGHT: Copyright 2023 Federal Institute of Hydrology, Koblenz, Germany
COMMENT: CONFIDENCE Reference Standard (Level 1)
COMMENT: Chromatography method: dx.doi.org/10.1016/j.chroma.2015.11.014
COMMENT: Acquisition method: 10.1002/rcm.8541
CH$NAME: Ethyl tosylcarbamate
CH$COMPOUND_CLASS: Pharmaceutical
CH$FORMULA: C10H13NO4S
CH$EXACT_MASS: 243.0565
CH$SMILES: CCOC(=O)N[S](=O)(=O)c1ccc(C)cc1
CH$IUPAC: InChI=1S/C10H13NO4S/c1-3-15-10(12)11-16(13,14)9-6-4-8(2)5-7-9/h4-7H,3H2,1-2H3,(H,11,12)
CH$LINK: CAS 5577-13-9
CH$LINK: INCHIKEY DFWQXANLGSXMKF-UHFFFAOYSA-N
AC$INSTRUMENT: TripleTOF 5600 SCIEX
AC$INSTRUMENT_TYPE: LC-ESI-QTOF
AC$MASS_SPECTROMETRY: MS_TYPE MS2
AC$MASS_SPECTROMETRY: ION_MODE NEGATIVE
AC$MASS_SPECTROMETRY: COLLISION_ENERGY 50
AC$MASS_SPECTROMETRY: FRAGMENTATION_MODE CID
AC$MASS_SPECTROMETRY: IONIZATION ESI
AC$CHROMATOGRAPHY: COLUMN_NAME Zorbax Eclipse Plus C18 2.1 mm x 150 mm, 3.5 um, Agilent
AC$CHROMATOGRAPHY: COLUMN_TEMPERATURE 40 °C
AC$CHROMATOGRAPHY: FLOW_GRADIENT 0 min min 98% A, 1 min 98% A, 2 min 80% A, 16.5 min 2% A, 22 min 2% A, 22.1 min 98% A, 27 min 98% A
AC$CHROMATOGRAPHY: FLOW_RATE 0.3 mL/min
AC$CHROMATOGRAPHY: RETENTION_TIME 9.545 min
AC$CHROMATOGRAPHY: SOLVENT A: Water 0.1% Formic acid, B: Acetonitrile 0.1% Formic acid
MS$FOCUSED_ION: PRECURSOR_M/Z 242.0493
MS$FOCUSED_ION: PRECURSOR_TYPE [M-H]-
MS$DATA_PROCESSING: COMMENT Export with Spectra 1.9.12 MsBackendMassbank 1.7.4
MS$DATA_PROCESSING: WHOLE RMassBank 2.3.1
PK$SPLASH: splash10-054o-9400000000-62ebb4aba5ce110ca727
PK$NUM_PEAK: 13
PK$PEAK: m/z int. rel.int.
  41.9979 1 999
  43.0176 0.1 99
  44.9974 0.2 199
  61.9696 0.2 199
  63.9651 0.1 99
  77.9618 0.1 99
  77.9655 0.1 99
  78.973 0.3 299
  79.9802 0.4 399
  86.9766 0.3 299
  104.049 0.1 99
  106.0658 0.9 899
  170.0312 0.4 399
//
