ACCESSION: MSBNK-BAFG-CSL2311095757
RECORD_TITLE: Fenbendazole; LC-ESI-QTOF; MS2; 140 V
DATE: 2023.11.09
AUTHORS: Kevin S. Jewell; Björn Ehlig; Arne Wick
LICENSE: dl-de/by-2-0
COPYRIGHT: Copyright 2023 Federal Institute of Hydrology, Koblenz, Germany
COMMENT: CONFIDENCE Reference Standard (Level 1)
COMMENT: Chromatography method: dx.doi.org/10.1016/j.chroma.2015.11.014
COMMENT: Acquisition method: 10.1002/rcm.8541
CH$NAME: Fenbendazole
CH$COMPOUND_CLASS: Pharmaceutical
CH$FORMULA: C15H13N3O2S
CH$EXACT_MASS: 299.0728
CH$SMILES: COC(=O)Nc1[nH]c2cc(Sc3ccccc3)ccc2n1
CH$IUPAC: InChI=1S/C15H13N3O2S/c1-20-15(19)18-14-16-12-8-7-11(9-13(12)17-14)21-10-5-3-2-4-6-10/h2-9H,1H3,(H2,16,17,18,19)
CH$LINK: CAS 43210-67-9
CH$LINK: INCHIKEY HDDSHPAODJUKPD-UHFFFAOYSA-N
AC$INSTRUMENT: TripleTOF 5600 SCIEX
AC$INSTRUMENT_TYPE: LC-ESI-QTOF
AC$MASS_SPECTROMETRY: MS_TYPE MS2
AC$MASS_SPECTROMETRY: ION_MODE POSITIVE
AC$MASS_SPECTROMETRY: COLLISION_ENERGY 140
AC$MASS_SPECTROMETRY: FRAGMENTATION_MODE CID
AC$MASS_SPECTROMETRY: IONIZATION ESI
AC$CHROMATOGRAPHY: COLUMN_NAME Zorbax Eclipse Plus C18 2.1 mm x 150 mm, 3.5 um, Agilent
AC$CHROMATOGRAPHY: COLUMN_TEMPERATURE 40 °C
AC$CHROMATOGRAPHY: FLOW_GRADIENT 0 min min 98% A, 1 min 98% A, 2 min 80% A, 16.5 min 2% A, 22 min 2% A, 22.1 min 98% A, 27 min 98% A
AC$CHROMATOGRAPHY: FLOW_RATE 0.3 mL/min
AC$CHROMATOGRAPHY: RETENTION_TIME 9.947 min
AC$CHROMATOGRAPHY: SOLVENT A: Water 0.1% Formic acid, B: Acetonitrile 0.1% Formic acid
MS$FOCUSED_ION: PRECURSOR_M/Z 300.0801
MS$FOCUSED_ION: PRECURSOR_TYPE [M+H]+
MS$DATA_PROCESSING: COMMENT Export with Spectra 1.9.12 MsBackendMassbank 1.7.4
MS$DATA_PROCESSING: WHOLE RMassBank 2.3.1
PK$SPLASH: splash10-004i-9200000000-04c15194288ad7d16f18
PK$NUM_PEAK: 69
PK$PEAK: m/z int. rel.int.
  51.0175 0.6 15
  51.0285 10.9 285
  52.0294 7.2 188
  53.0212 0.6 15
  53.0314 1.2 31
  60.0026 0.7 18
  65.0291 1.5 39
  65.0419 1.9 49
  66.038 1.2 31
  67.9748 1.2 31
  68.9826 11.4 298
  69.0108 3.6 94
  69.9897 1 26
  74.0185 1.5 39
  75.0139 10 261
  75.0346 0.7 18
  76.021 38.2 999
  77.0287 20.9 546
  78.0363 5.7 149
  79.0457 0.6 15
  80.9827 0.8 20
  81.9885 3.6 94
  82.9849 0.8 20
  83.9921 0.5 13
  86.0166 0.8 20
  87.0251 1.2 31
  88.0262 1.7 44
  89.0406 3.3 86
  90.0363 0.9 23
  91.0434 0.4 10
  92.038 1.7 44
  92.9797 3.7 96
  92.9969 0.4 10
  93.9752 0.5 13
  93.9861 0.5 13
  94.9953 2.6 67
  98.0159 0.6 15
  99.0238 1 26
  101.0397 1.8 47
  102.0468 2.1 54
  103.0295 2.3 60
  104.0362 1.6 41
  105.0446 1.1 28
  108.0053 0.4 10
  109.0003 0.5 13
  110.0096 0.5 13
  113.0394 2.3 60
  114.0332 0.7 18
  114.045 0.9 23
  115.0538 1.9 49
  119.9901 0.6 15
  122.0057 0.4 10
  125.0384 1 26
  126.0453 3.7 96
  127.0532 3 78
  128.0603 0.8 20
  130.0393 0.6 15
  137.0395 1.2 31
  138.0467 0.7 18
  139.0538 2.1 54
  140.0485 1.3 33
  145.0098 0.7 18
  152.0482 0.5 13
  153.0576 0.6 15
  158.0198 0.7 18
  164.0501 0.7 18
  169.0106 1.4 36
  171.0279 0.9 23
  196.0204 0.8 20
//
