ACCESSION: MSBNK-BAFG-CSL2311099384
RECORD_TITLE: 2-(Morpholinodithio)benzothiazole; LC-ESI-QTOF; MS2; 130 V
DATE: 2023.11.09
AUTHORS: Kevin S. Jewell; Björn Ehlig; Arne Wick
LICENSE: dl-de/by-2-0
COPYRIGHT: Copyright 2023 Federal Institute of Hydrology, Koblenz, Germany
COMMENT: CONFIDENCE Reference Standard (Level 1)
COMMENT: Chromatography method: dx.doi.org/10.1016/j.chroma.2015.11.014
COMMENT: Acquisition method: 10.1002/rcm.8541
CH$NAME: 2-(Morpholinodithio)benzothiazole
CH$COMPOUND_CLASS: Industrial_process
CH$FORMULA: C11H12N2OS3
CH$EXACT_MASS: 284.0112
CH$SMILES: C1COCCN1SSC2=NC3=CC=CC=C3S2
CH$IUPAC: InChI=1S/C11H12N2OS3/c1-2-4-10-9(3-1)12-11(15-10)16-17-13-5-7-14-8-6-13/h1-4H,5-8H2
CH$LINK: CAS 95-32-9
CH$LINK: INCHIKEY QRYFCNPYGUORTK-UHFFFAOYSA-N
AC$INSTRUMENT: TripleTOF 5600 SCIEX
AC$INSTRUMENT_TYPE: LC-ESI-QTOF
AC$MASS_SPECTROMETRY: MS_TYPE MS2
AC$MASS_SPECTROMETRY: ION_MODE POSITIVE
AC$MASS_SPECTROMETRY: COLLISION_ENERGY 130
AC$MASS_SPECTROMETRY: FRAGMENTATION_MODE CID
AC$MASS_SPECTROMETRY: IONIZATION ESI
AC$CHROMATOGRAPHY: COLUMN_NAME Zorbax Eclipse Plus C18 2.1 mm x 150 mm, 3.5 um, Agilent
AC$CHROMATOGRAPHY: COLUMN_TEMPERATURE 40 °C
AC$CHROMATOGRAPHY: FLOW_GRADIENT 0 min min 98% A, 1 min 98% A, 2 min 80% A, 16.5 min 2% A, 22 min 2% A, 22.1 min 98% A, 27 min 98% A
AC$CHROMATOGRAPHY: FLOW_RATE 0.3 mL/min
AC$CHROMATOGRAPHY: RETENTION_TIME 13.833 min
AC$CHROMATOGRAPHY: SOLVENT A: Water 0.1% Formic acid, B: Acetonitrile 0.1% Formic acid
MS$FOCUSED_ION: PRECURSOR_M/Z 285.0185
MS$FOCUSED_ION: PRECURSOR_TYPE [M+H]+
MS$DATA_PROCESSING: COMMENT Export with Spectra 1.9.12 MsBackendMassbank 1.7.4
MS$DATA_PROCESSING: WHOLE RMassBank 2.3.1
PK$SPLASH: splash10-0a4i-9000000000-52fffaefa0ef4d4620d3
PK$NUM_PEAK: 6
PK$PEAK: m/z int. rel.int.
  57.9952 0.4 57
  59.0036 1.1 159
  59.9983 6.9 999
  65.0446 0.5 72
  68.9859 1.6 231
  81.995 0.5 72
//
