ACCESSION: MSBNK-BAFG-CSL23102512859
RECORD_TITLE: Olmesartan-d6; LC-ESI-QTOF; MS2; 90 V
DATE: 2023.10.25
AUTHORS: Kevin S. Jewell; Björn Ehlig; Arne Wick
LICENSE: dl-de/by-2-0
COPYRIGHT: Copyright 2023 Federal Institute of Hydrology, Koblenz, Germany
COMMENT: CONFIDENCE Reference Standard (Level 1)
COMMENT: Chromatography method: dx.doi.org/10.1016/j.chroma.2015.11.014
COMMENT: Acquisition method: 10.1002/rcm.8541
CH$NAME: Olmesartan-d6
CH$COMPOUND_CLASS: Surrogate_standard
CH$FORMULA: C24H20N6O3 2H6
CH$EXACT_MASS: 452.2443
CH$SMILES: [2H]C([2H])([2H])C(C1=C(N(C(=N1)CCC)CC2=CC=C(C=C2)C3=CC=CC=C3C4=NNN=N4)C(=O)O)(C([2H])([2H])[2H])O
CH$IUPAC: InChI=1S/C24H26N6O3/c1-4-7-19-25-21(24(2,3)33)20(23(31)32)30(19)14-15-10-12-16(13-11-15)17-8-5-6-9-18(17)22-26-28-29-27-22/h5-6,8-13,33H,4,7,14H2,1-3H3,(H,31,32)(H,26,27,28,29)/i2D3,3D3
CH$LINK: CAS 1185144-74-4
CH$LINK: INCHIKEY VTRAEEWXHOVJFV-XERRXZQWSA-N
AC$INSTRUMENT: TripleTOF 5600 SCIEX
AC$INSTRUMENT_TYPE: LC-ESI-QTOF
AC$MASS_SPECTROMETRY: MS_TYPE MS2
AC$MASS_SPECTROMETRY: ION_MODE POSITIVE
AC$MASS_SPECTROMETRY: COLLISION_ENERGY 90
AC$MASS_SPECTROMETRY: FRAGMENTATION_MODE CID
AC$MASS_SPECTROMETRY: IONIZATION ESI
AC$CHROMATOGRAPHY: COLUMN_NAME Zorbax Eclipse Plus C18 2.1 mm x 150 mm, 3.5 um, Agilent
AC$CHROMATOGRAPHY: COLUMN_TEMPERATURE 40 °C
AC$CHROMATOGRAPHY: FLOW_GRADIENT 0 min min 98% A, 1 min 98% A, 2 min 80% A, 16.5 min 2% A, 22 min 2% A, 22.1 min 98% A, 27 min 98% A
AC$CHROMATOGRAPHY: FLOW_RATE 0.3 mL/min
AC$CHROMATOGRAPHY: RETENTION_TIME 7.306 min
AC$CHROMATOGRAPHY: SOLVENT A: Water 0.1% Formic acid, B: Acetonitrile 0.1% Formic acid
MS$FOCUSED_ION: PRECURSOR_M/Z 453.2527
MS$FOCUSED_ION: PRECURSOR_TYPE [M+H]+
MS$DATA_PROCESSING: COMMENT Export with Spectra 1.9.12 MsBackendMassbank 1.7.4
MS$DATA_PROCESSING: WHOLE RMassBank 2.3.1
PK$SPLASH: splash10-0f6x-0910000000-3c6359bd04b4143b5a76
PK$NUM_PEAK: 46
PK$PEAK: m/z int. rel.int.
  77.0427 5.5 45
  80.0537 1.3 10
  113.0407 2.6 21
  114.0481 1.3 10
  115.0544 5.3 43
  125.0396 1.7 14
  126.0481 2.2 18
  127.0549 8.4 69
  128.0621 4.2 34
  129.0462 1.3 10
  137.0405 1.3 10
  138.048 3.4 28
  139.0545 6 49
  140.0508 16.5 136
  141.0619 2.9 23
  150.047 6.1 50
  151.0551 34.1 281
  152.0627 83.5 689
  153.0698 35.4 292
  154.0699 6.8 56
  155.0614 1.6 13
  162.0455 2.4 19
  163.055 31.3 258
  164.0589 28.2 233
  165.0672 28.4 234
  166.0668 7.2 59
  167.0746 4.1 33
  168.069 2.9 23
  176.0621 15.1 124
  177.0687 25.5 210
  178.0761 77.3 638
  179.0747 27.1 223
  180.0806 30.8 254
  181.0853 5.2 42
  182.1346 3.8 31
  183.1384 5.2 42
  188.05 4.9 40
  189.0591 11.6 95
  190.0654 120.9 999
  191.0725 36.7 303
  192.0698 30.1 248
  193.073 2.8 23
  205.0763 64.4 532
  206.0838 21.8 180
  207.0909 7.4 61
  208.0975 1.3 10
//
