ACCESSION: MSBNK-BAFG-CSL23102618890
RECORD_TITLE: Metoprolol; LC-ESI-QTOF; MS2; 140 V
DATE: 2023.10.26
AUTHORS: Kevin S. Jewell; Björn Ehlig; Arne Wick
LICENSE: dl-de/by-2-0
COPYRIGHT: Copyright 2023 Federal Institute of Hydrology, Koblenz, Germany
COMMENT: CONFIDENCE Reference Standard (Level 1)
COMMENT: Chromatography method: dx.doi.org/10.1016/j.chroma.2015.11.014
COMMENT: Acquisition method: 10.1002/rcm.8541
CH$NAME: Metoprolol
CH$COMPOUND_CLASS: Pharmaceutical
CH$FORMULA: C15H25NO3
CH$EXACT_MASS: 267.1834
CH$SMILES: CC(C)NCC(COC1=CC=C(C=C1)CCOC)O
CH$IUPAC: InChI=1S/C15H25NO3/c1-12(2)16-10-14(17)11-19-15-6-4-13(5-7-15)8-9-18-3/h4-7,12,14,16-17H,8-11H2,1-3H3
CH$LINK: CAS 51384-51-1
CH$LINK: INCHIKEY IUBSYMUCCVWXPE-UHFFFAOYSA-N
AC$INSTRUMENT: TripleTOF 6600 SCIEX
AC$INSTRUMENT_TYPE: LC-ESI-QTOF
AC$MASS_SPECTROMETRY: MS_TYPE MS2
AC$MASS_SPECTROMETRY: ION_MODE POSITIVE
AC$MASS_SPECTROMETRY: COLLISION_ENERGY 140
AC$MASS_SPECTROMETRY: FRAGMENTATION_MODE CID
AC$MASS_SPECTROMETRY: IONIZATION ESI
AC$CHROMATOGRAPHY: COLUMN_NAME Zorbax Eclipse Plus C18 2.1 mm x 150 mm, 3.5 um, Agilent
AC$CHROMATOGRAPHY: COLUMN_TEMPERATURE 40 °C
AC$CHROMATOGRAPHY: FLOW_GRADIENT 0 min min 98% A, 1 min 98% A, 2 min 80% A, 16.5 min 2% A, 22 min 2% A, 22.1 min 98% A, 27 min 98% A
AC$CHROMATOGRAPHY: FLOW_RATE 0.3 mL/min
AC$CHROMATOGRAPHY: RETENTION_TIME 6.14 min
AC$CHROMATOGRAPHY: SOLVENT A: Water 0.1% Formic acid, B: Acetonitrile 0.1% Formic acid
MS$FOCUSED_ION: PRECURSOR_M/Z 268.1907
MS$FOCUSED_ION: PRECURSOR_TYPE [M+H]+
MS$DATA_PROCESSING: COMMENT Export with Spectra 1.9.12 MsBackendMassbank 1.7.4
MS$DATA_PROCESSING: WHOLE RMassBank 2.3.1
PK$SPLASH: splash10-0udr-9000000000-451d204644fa7aea4063
PK$NUM_PEAK: 29
PK$PEAK: m/z int. rel.int.
  30.0334 4 130
  35.9989 0.9 29
  37.0068 6.1 199
  38.0021 1.7 55
  38.015 5.8 189
  39.0227 23.9 780
  41.0382 4.4 143
  42.0337 2.2 71
  43.0182 0.5 16
  44.0499 1.7 55
  45.0327 0.5 16
  49.0062 1.5 48
  50.0149 20.1 656
  51.0225 30.6 999
  52.0301 0.5 16
  53.0124 0.7 22
  61.007 2 65
  62.0144 3.6 117
  63.0226 5.3 173
  65.0376 4.3 140
  73.0074 0.5 16
  74.0143 3.8 124
  75.0229 1.5 48
  76.0299 0.4 13
  77.0378 5.8 189
  89.0376 2.1 68
  91.0522 1.7 55
  102.0477 0.6 19
  115.0513 0.6 19
//
