ACCESSION: MSBNK-BAFG-CSL25010627941
RECORD_TITLE: Sudan III; LC-ESI-QTOF; MS2; 70 V
DATE: 2025.01.06
AUTHORS: Ole Lessmann; Kevin S. Jewell; Björn Ehlig; Arne Wick
LICENSE: dl-de/by-2-0
COPYRIGHT: Copyright 2025 Federal Institute of Hydrology, Koblenz, Germany
COMMENT: CONFIDENCE Reference Standard (Level 1)
COMMENT: Chromatography method: dx.doi.org/10.1016/j.chroma.2015.11.014
COMMENT: Acquisition method: 10.1002/rcm.8541
CH$NAME: Sudan III
CH$FORMULA: C22H16N4O
CH$EXACT_MASS: 352.1324
CH$SMILES: C1=CC=C(C=C1)N=NC2=CC=C(C=C2)N=NC3=C(C=CC4=CC=CC=C43)O
CH$IUPAC: InChI=1S/C22H16N4O/c27-21-15-10-16-6-4-5-9-20(16)22(21)26-25-19-13-11-18(12-14-19)24-23-17-7-2-1-3-8-17/h1-15,27H
CH$LINK: CAS 85-86-9
CH$LINK: INCHIKEY FHNINJWBTRXEBC-UHFFFAOYSA-N
AC$INSTRUMENT: TripleTOF X500R SCIEX
AC$INSTRUMENT_TYPE: LC-ESI-QTOF
AC$MASS_SPECTROMETRY: MS_TYPE MS2
AC$MASS_SPECTROMETRY: ION_MODE POSITIVE
AC$MASS_SPECTROMETRY: COLLISION_ENERGY 70
AC$MASS_SPECTROMETRY: FRAGMENTATION_MODE CID
AC$MASS_SPECTROMETRY: IONIZATION ESI
AC$CHROMATOGRAPHY: COLUMN_NAME Zorbax Eclipse Plus C18 2.1 mm x 150 mm, 3.5 um, Agilent
AC$CHROMATOGRAPHY: COLUMN_TEMPERATURE 40 °C
AC$CHROMATOGRAPHY: FLOW_GRADIENT 0 min min 98% A, 1 min 98% A, 2 min 80% A, 16.5 min 2% A, 22 min 2% A, 22.1 min 98% A, 27 min 98% A
AC$CHROMATOGRAPHY: FLOW_RATE 0.3 mL/min
AC$CHROMATOGRAPHY: RETENTION_TIME 19.216 min
AC$CHROMATOGRAPHY: SOLVENT A: Water 0.1% Formic acid, B: Acetonitrile 0.1% Formic acid
MS$FOCUSED_ION: PRECURSOR_M/Z 353.1397
MS$FOCUSED_ION: PRECURSOR_TYPE [M+H]+
MS$DATA_PROCESSING: COMMENT Export with pycsl 0.1.0.dev1 and CSL 24.4
PK$SPLASH: splash10-0fvi-6900000000-219c18eaddddb9b5ccfd
PK$NUM_PEAK: 37
PK$PEAK: m/z int. rel.int.
  39.0232 0.7 52
  51.0233 4.6 348
  59.0315 1.9 143
  60.0334 0.6 45
  63.024 0.5 37
  64.0309 1.0 75
  65.0388 4.4 333
  75.0243 0.4 30
  77.0391 13.2 999
  89.0402 0.9 68
  91.0424 2.5 189
  92.0497 5.6 423
  93.0583 0.5 37
  101.0388 7.4 560
  102.0348 0.9 68
  115.0551 9.3 703
  127.0538 0.6 45
  128.0496 7.9 597
  129.0437 1.1 83
  140.0497 0.5 37
  141.0702 0.8 60
  143.05 1.9 143
  152.0536 0.9 68
  154.0678 1.0 75
  155.0625 0.8 60
  166.0655 0.6 45
  167.0753 1.5 113
  168.0697 1.4 105
  169.077 2.8 211
  170.0728 0.9 68
  179.0602 0.9 68
  181.0757 1.0 75
  196.0889 4.9 370
  197.0942 0.4 30
  205.0803 0.9 68
  229.0789 1.2 90
  231.0807 0.4 30
//