ACCESSION: MSBNK-BAFG-CSL25010627925
RECORD_TITLE: 2-[(4-hydroxy-9,10-dioxoanthracen-1-yl)amino]-5-methylbenzenesulfonic acid; LC-ESI-QTOF; MS2; 40 V
DATE: 2025.01.06
AUTHORS: Ole Lessmann; Kevin S. Jewell; Björn Ehlig; Arne Wick
LICENSE: dl-de/by-2-0
COPYRIGHT: Copyright 2025 Federal Institute of Hydrology, Koblenz, Germany
COMMENT: CONFIDENCE Reference Standard (Level 1)
COMMENT: Chromatography method: dx.doi.org/10.1016/j.chroma.2015.11.014
COMMENT: Acquisition method: 10.1002/rcm.8541
CH$NAME: 2-[(4-hydroxy-9,10-dioxoanthracen-1-yl)amino]-5-methylbenzenesulfonic acid
CH$FORMULA: C21H15NO6S
CH$EXACT_MASS: 409.062
CH$SMILES: CC1=CC(=C(C=C1)NC2=C3C(=C(C=C2)O)C(=O)C4=CC=CC=C4C3=O)S(=O)(=O)O
CH$IUPAC: InChI=1S/C21H15NO6S/c1-11-6-7-14(17(10-11)29(26,27)28)22-15-8-9-16(23)19-18(15)20(24)12-4-2-3-5-13(12)21(19)25/h2-10,22-23H,1H3,(H,26,27,28)
CH$LINK: CAS 3443-92-3
CH$LINK: INCHIKEY XXQVCGHGQCAKKA-UHFFFAOYSA-N
AC$INSTRUMENT: TripleTOF X500R SCIEX
AC$INSTRUMENT_TYPE: LC-ESI-QTOF
AC$MASS_SPECTROMETRY: MS_TYPE MS2
AC$MASS_SPECTROMETRY: ION_MODE POSITIVE
AC$MASS_SPECTROMETRY: COLLISION_ENERGY 40
AC$MASS_SPECTROMETRY: FRAGMENTATION_MODE CID
AC$MASS_SPECTROMETRY: IONIZATION ESI
AC$CHROMATOGRAPHY: COLUMN_NAME Zorbax Eclipse Plus C18 2.1 mm x 150 mm, 3.5 um, Agilent
AC$CHROMATOGRAPHY: COLUMN_TEMPERATURE 40 °C
AC$CHROMATOGRAPHY: FLOW_GRADIENT 0 min min 98% A, 1 min 98% A, 2 min 80% A, 16.5 min 2% A, 22 min 2% A, 22.1 min 98% A, 27 min 98% A
AC$CHROMATOGRAPHY: FLOW_RATE 0.3 mL/min
AC$CHROMATOGRAPHY: RETENTION_TIME 11.683 min
AC$CHROMATOGRAPHY: SOLVENT A: Water 0.1% Formic acid, B: Acetonitrile 0.1% Formic acid
MS$FOCUSED_ION: PRECURSOR_M/Z 410.0693
MS$FOCUSED_ION: PRECURSOR_TYPE [M+H]+
MS$DATA_PROCESSING: COMMENT Export with pycsl 0.1.0.dev1 and CSL 24.4
PK$SPLASH: splash10-01t9-0019000000-1d9b9de912f4dc614f82
PK$NUM_PEAK: 33
PK$PEAK: m/z int. rel.int.
  180.0813 1.2 40
  228.0809 0.9 30
  229.0859 0.9 30
  241.0903 0.6 20
  244.1134 1.1 37
  252.0748 0.5 16
  254.0982 2.1 70
  255.1008 0.7 23
  257.0867 1.0 33
  272.1079 1.0 33
  282.0912 3.5 118
  283.1034 0.4 13
  285.0786 4.0 134
  299.0946 1.2 40
  300.1023 11.9 401
  310.0818 0.7 23
  311.1007 0.7 23
  312.0663 0.9 30
  312.1005 0.9 30
  313.0749 29.6 999
  313.1436 0.5 16
  326.0793 0.6 20
  327.0885 1.7 57
  328.0591 1.4 47
  328.0984 27.2 917
  328.1434 0.5 16
  328.1571 0.8 27
  329.104 3.8 128
  330.1103 1.1 37
  342.0781 0.7 23
  343.0848 10.3 347
  344.0927 2.4 80
  392.0587 1.2 40
//