ACCESSION: MSBNK-BAFG-CSL2310268515
RECORD_TITLE: Etoricoxib; LC-ESI-QTOF; MS2; 50 V
DATE: 2023.10.26
AUTHORS: Kevin S. Jewell; Björn Ehlig; Arne Wick
LICENSE: dl-de/by-2-0
COPYRIGHT: Copyright 2023 Federal Institute of Hydrology, Koblenz, Germany
COMMENT: CONFIDENCE Reference Standard (Level 1)
COMMENT: Chromatography method: dx.doi.org/10.1016/j.chroma.2015.11.014
COMMENT: Acquisition method: 10.1002/rcm.8541
CH$NAME: Etoricoxib
CH$COMPOUND_CLASS: Pharmaceutical
CH$FORMULA: C18H15ClN2O2S
CH$EXACT_MASS: 358.0543
CH$SMILES: CC1=NC=C(C=C1)C2=NC=C(C=C2C3=CC=C(C=C3)S(=O)(=O)C)Cl
CH$IUPAC: InChI=1S/C18H15ClN2O2S/c1-12-3-4-14(10-20-12)18-17(9-15(19)11-21-18)13-5-7-16(8-6-13)24(2,22)23/h3-11H,1-2H3
CH$LINK: CAS 202409-33-4
CH$LINK: INCHIKEY MNJVRJDLRVPLFE-UHFFFAOYSA-N
AC$INSTRUMENT: TripleTOF 5600 SCIEX
AC$INSTRUMENT_TYPE: LC-ESI-QTOF
AC$MASS_SPECTROMETRY: MS_TYPE MS2
AC$MASS_SPECTROMETRY: ION_MODE POSITIVE
AC$MASS_SPECTROMETRY: COLLISION_ENERGY 50
AC$MASS_SPECTROMETRY: FRAGMENTATION_MODE CID
AC$MASS_SPECTROMETRY: IONIZATION ESI
AC$CHROMATOGRAPHY: COLUMN_NAME Zorbax Eclipse Plus C18 2.1 mm x 150 mm, 3.5 um, Agilent
AC$CHROMATOGRAPHY: COLUMN_TEMPERATURE 40 °C
AC$CHROMATOGRAPHY: FLOW_GRADIENT 0 min min 98% A, 1 min 98% A, 2 min 80% A, 16.5 min 2% A, 22 min 2% A, 22.1 min 98% A, 27 min 98% A
AC$CHROMATOGRAPHY: FLOW_RATE 0.3 mL/min
AC$CHROMATOGRAPHY: RETENTION_TIME 6.991 min
AC$CHROMATOGRAPHY: SOLVENT A: Water 0.1% Formic acid, B: Acetonitrile 0.1% Formic acid
MS$FOCUSED_ION: PRECURSOR_M/Z 359.0616
MS$FOCUSED_ION: PRECURSOR_TYPE [M+H]+
MS$DATA_PROCESSING: COMMENT Export with Spectra 1.9.12 MsBackendMassbank 1.7.4
MS$DATA_PROCESSING: WHOLE RMassBank 2.3.1
PK$SPLASH: splash10-0059-0090000000-a08a5394ac4067d91f0a
PK$NUM_PEAK: 19
PK$PEAK: m/z int. rel.int.
  216.0808 11.6 15
  217.0877 11.9 16
  229.0537 27.9 38
  238.0422 60.6 82
  243.0919 47.9 65
  244.0996 122.7 167
  251.0491 10.3 14
  252.0574 41.9 57
  253.0587 16.9 23
  262.0397 9.7 13
  263.0386 21.3 29
  264.0532 12.3 16
  265.053 22.3 30
  277.0517 8.8 11
  278.061 41.2 56
  279.0679 732.7 999
  280.0755 732.6 998
  295.064 13.6 18
  359.0633 65.6 89
//
