ACCESSION: MSBNK-BAFG-CSL2310305379
RECORD_TITLE: Venlafaxine; LC-ESI-QTOF; MS2; 120 V
DATE: 2023.10.30
AUTHORS: Kevin S. Jewell; Björn Ehlig; Arne Wick
LICENSE: dl-de/by-2-0
COPYRIGHT: Copyright 2023 Federal Institute of Hydrology, Koblenz, Germany
COMMENT: CONFIDENCE Reference Standard (Level 1)
COMMENT: Chromatography method: dx.doi.org/10.1016/j.chroma.2015.11.014
COMMENT: Acquisition method: 10.1002/rcm.8541
CH$NAME: Venlafaxine
CH$COMPOUND_CLASS: Pharmaceutical
CH$FORMULA: C17H27NO2
CH$EXACT_MASS: 277.2042
CH$SMILES: CN(C)CC(c1ccc(cc1)OC)C2(CCCCC2)O
CH$IUPAC: InChI=1S/C17H27NO2/c1-18(2)13-16(17(19)11-5-4-6-12-17)14-7-9-15(20-3)10-8-14/h7-10,16,19H,4-6,11-13H2,1-3H3
CH$LINK: CAS 93413-69-5
CH$LINK: INCHIKEY PNVNVHUZROJLTJ-UHFFFAOYSA-N
AC$INSTRUMENT: TripleTOF 5600 SCIEX
AC$INSTRUMENT_TYPE: LC-ESI-QTOF
AC$MASS_SPECTROMETRY: MS_TYPE MS2
AC$MASS_SPECTROMETRY: ION_MODE POSITIVE
AC$MASS_SPECTROMETRY: COLLISION_ENERGY 120
AC$MASS_SPECTROMETRY: FRAGMENTATION_MODE CID
AC$MASS_SPECTROMETRY: IONIZATION ESI
AC$CHROMATOGRAPHY: COLUMN_NAME Zorbax Eclipse Plus C18 2.1 mm x 150 mm, 3.5 um, Agilent
AC$CHROMATOGRAPHY: COLUMN_TEMPERATURE 40 °C
AC$CHROMATOGRAPHY: FLOW_GRADIENT 0 min min 98% A, 1 min 98% A, 2 min 80% A, 16.5 min 2% A, 22 min 2% A, 22.1 min 98% A, 27 min 98% A
AC$CHROMATOGRAPHY: FLOW_RATE 0.3 mL/min
AC$CHROMATOGRAPHY: RETENTION_TIME 6.626 min
AC$CHROMATOGRAPHY: SOLVENT A: Water 0.1% Formic acid, B: Acetonitrile 0.1% Formic acid
MS$FOCUSED_ION: PRECURSOR_M/Z 278.2115
MS$FOCUSED_ION: PRECURSOR_TYPE [M+H]+
MS$DATA_PROCESSING: COMMENT Export with Spectra 1.9.12 MsBackendMassbank 1.7.4
MS$DATA_PROCESSING: WHOLE RMassBank 2.3.1
PK$SPLASH: splash10-056r-9100000000-9cdc5158b6fcc2b77e35
PK$NUM_PEAK: 17
PK$PEAK: m/z int. rel.int.
  43.0501 1.9 91
  53.043 0.6 28
  58.0707 20.7 999
  65.0428 6.4 308
  76.035 0.7 33
  77.0412 11.8 569
  78.0493 13.8 666
  79.0574 1.2 57
  81.0711 0.4 19
  89.0411 1.9 91
  91.0551 4.7 226
  102.0493 0.9 43
  103.054 1.1 53
  115.0543 3.7 178
  121.0634 0.5 24
  127.0554 0.8 38
  128.062 1.4 67
//
