ACCESSION: MSBNK-BAFG-CSL2501067077
RECORD_TITLE: N-desmethyl-venlafaxine; LC-ESI-QTOF; MS2; 90 V
DATE: 2025.01.06
AUTHORS: Ole Lessmann; Kevin S. Jewell; Björn Ehlig; Arne Wick
LICENSE: dl-de/by-2-0
COPYRIGHT: Copyright 2025 Federal Institute of Hydrology, Koblenz, Germany
COMMENT: CONFIDENCE Reference Standard (Level 1)
COMMENT: Chromatography method: dx.doi.org/10.1016/j.chroma.2015.11.014
COMMENT: Acquisition method: 10.1002/rcm.8541
CH$NAME: N-desmethyl-venlafaxine
CH$COMPOUND_CLASS: Pharmaceutical; Metabolite; Transformation_product-Metabolite
CH$FORMULA: C16H25NO2
CH$EXACT_MASS: 263.1885
CH$SMILES: CNCC(c1ccc(cc1)OC)C2(CCCCC2)O
CH$IUPAC: InChI=1S/C16H25NO2/c1-17-12-15(16(18)10-4-3-5-11-16)13-6-8-14(19-2)9-7-13/h6-9,15,17-18H,3-5,10-12H2,1-2H3
CH$LINK: CAS 149289-30-5
CH$LINK: INCHIKEY MKAFOJAJJMUXLW-UHFFFAOYSA-N
AC$INSTRUMENT: TripleTOF 5600 SCIEX
AC$INSTRUMENT_TYPE: LC-ESI-QTOF
AC$MASS_SPECTROMETRY: MS_TYPE MS2
AC$MASS_SPECTROMETRY: ION_MODE POSITIVE
AC$MASS_SPECTROMETRY: COLLISION_ENERGY 90
AC$MASS_SPECTROMETRY: FRAGMENTATION_MODE CID
AC$MASS_SPECTROMETRY: IONIZATION ESI
AC$CHROMATOGRAPHY: COLUMN_NAME Zorbax Eclipse Plus C18 2.1 mm x 150 mm, 3.5 um, Agilent
AC$CHROMATOGRAPHY: COLUMN_TEMPERATURE 40 °C
AC$CHROMATOGRAPHY: FLOW_GRADIENT 0 min min 98% A, 1 min 98% A, 2 min 80% A, 16.5 min 2% A, 22 min 2% A, 22.1 min 98% A, 27 min 98% A
AC$CHROMATOGRAPHY: FLOW_RATE 0.3 mL/min
AC$CHROMATOGRAPHY: RETENTION_TIME 6.444 min
AC$CHROMATOGRAPHY: SOLVENT A: Water 0.1% Formic acid, B: Acetonitrile 0.1% Formic acid
MS$FOCUSED_ION: PRECURSOR_M/Z 264.1958
MS$FOCUSED_ION: PRECURSOR_TYPE [M+H]+
MS$DATA_PROCESSING: COMMENT Export with pycsl 0.1.0.dev1 and CSL 24.4
PK$SPLASH: splash10-004l-9300000000-dcaf64ddd0d004749272
PK$NUM_PEAK: 32
PK$PEAK: m/z int. rel.int.
  44.0578 22.6 956
  51.0284 3.5 148
  52.036 0.9 38
  53.0443 0.6 25
  63.0422 0.4 16
  65.0423 9.5 402
  76.0329 0.6 25
  77.0412 19.4 821
  78.0484 23.6 999
  79.0551 3.9 165
  81.0717 1.5 63
  89.0393 2.0 84
  90.0488 0.8 33
  91.0553 16.1 681
  102.0449 1.2 50
  103.0542 3.9 165
  104.0606 1.1 46
  105.0703 0.4 16
  106.0433 1.1 46
  106.0635 0.6 25
  107.0491 0.7 29
  115.0536 11.8 499
  116.0619 1.1 46
  117.0707 0.7 29
  121.064 6.2 262
  127.0519 0.9 38
  127.0691 0.4 16
  128.0612 3.0 126
  129.0702 0.8 33
  131.0482 2.2 93
  141.072 0.7 29
  152.0617 0.7 29
//