ACCESSION: MSBNK-BAFG-CSL2311098417
RECORD_TITLE: Sulfisoxazole; LC-ESI-QTOF; MS2; 30 V
DATE: 2023.11.09
AUTHORS: Kevin S. Jewell; Björn Ehlig; Arne Wick
LICENSE: dl-de/by-2-0
COPYRIGHT: Copyright 2023 Federal Institute of Hydrology, Koblenz, Germany
COMMENT: CONFIDENCE Reference Standard (Level 1)
COMMENT: Chromatography method: dx.doi.org/10.1016/j.chroma.2015.11.014
COMMENT: Acquisition method: 10.1002/rcm.8541
CH$NAME: Sulfisoxazole
CH$COMPOUND_CLASS: Antimicrobial; Metabolite; Pharmaceutical
CH$FORMULA: C11H13N3O3S
CH$EXACT_MASS: 267.0678
CH$SMILES: CC1=C(ON=C1C)NS(=O)(=O)C2=CC=C(C=C2)N
CH$IUPAC: InChI=1S/C11H13N3O3S/c1-7-8(2)13-17-11(7)14-18(15,16)10-5-3-9(12)4-6-10/h3-6,14H,12H2,1-2H3
CH$LINK: CAS 127-69-5
CH$LINK: INCHIKEY NHUHCSRWZMLRLA-UHFFFAOYSA-N
AC$INSTRUMENT: TripleTOF 5600 SCIEX
AC$INSTRUMENT_TYPE: LC-ESI-QTOF
AC$MASS_SPECTROMETRY: MS_TYPE MS2
AC$MASS_SPECTROMETRY: ION_MODE POSITIVE
AC$MASS_SPECTROMETRY: COLLISION_ENERGY 30
AC$MASS_SPECTROMETRY: FRAGMENTATION_MODE CID
AC$MASS_SPECTROMETRY: IONIZATION ESI
AC$CHROMATOGRAPHY: COLUMN_NAME Zorbax Eclipse Plus C18 2.1 mm x 150 mm, 3.5 um, Agilent
AC$CHROMATOGRAPHY: COLUMN_TEMPERATURE 40 °C
AC$CHROMATOGRAPHY: FLOW_GRADIENT 0 min min 98% A, 1 min 98% A, 2 min 80% A, 16.5 min 2% A, 22 min 2% A, 22.1 min 98% A, 27 min 98% A
AC$CHROMATOGRAPHY: FLOW_RATE 0.3 mL/min
AC$CHROMATOGRAPHY: RETENTION_TIME 7.557 min
AC$CHROMATOGRAPHY: SOLVENT A: Water 0.1% Formic acid, B: Acetonitrile 0.1% Formic acid
MS$FOCUSED_ION: PRECURSOR_M/Z 268.075
MS$FOCUSED_ION: PRECURSOR_TYPE [M+H]+
MS$DATA_PROCESSING: COMMENT Export with Spectra 1.9.12 MsBackendMassbank 1.7.4
MS$DATA_PROCESSING: WHOLE RMassBank 2.3.1
PK$SPLASH: splash10-0a4l-4900000000-a9082ea92bdee80b2436
PK$NUM_PEAK: 16
PK$PEAK: m/z int. rel.int.
  44.061 1.9 23
  55.0275 1.2 14
  65.0454 7.9 96
  68.0556 2.6 31
  71.0664 5.5 67
  72.0531 0.9 11
  80.0533 2.4 29
  85.0789 0.9 11
  86.0635 1.6 19
  92.0526 81.6 999
  96.0475 6.5 79
  108.046 78.3 958
  113.0721 69.6 852
  140.0155 1.3 15
  156.0117 77.8 952
  173.0143 1 12
//
