ACCESSION: MSBNK-BAFG-CSL23102518449
RECORD_TITLE: Methadone; LC-ESI-QTOF; MS2; 40 V
DATE: 2023.10.25
AUTHORS: Kevin S. Jewell; Björn Ehlig; Arne Wick
LICENSE: dl-de/by-2-0
COPYRIGHT: Copyright 2023 Federal Institute of Hydrology, Koblenz, Germany
COMMENT: CONFIDENCE Reference Standard (Level 1)
COMMENT: Chromatography method: dx.doi.org/10.1016/j.chroma.2015.11.014
COMMENT: Acquisition method: 10.1002/rcm.8541
CH$NAME: Methadone
CH$COMPOUND_CLASS: Pharmaceutical
CH$FORMULA: C21H27NO
CH$EXACT_MASS: 309.2093
CH$SMILES: CCC(=O)C(CC(C)N(C)C)(C1=CC=CC=C1)C2=CC=CC=C2
CH$IUPAC: InChI=1S/C21H27NO/c1-5-20(23)21(16-17(2)22(3)4,18-12-8-6-9-13-18)19-14-10-7-11-15-19/h6-15,17H,5,16H2,1-4H3
CH$LINK: CAS 76-99-3
CH$LINK: INCHIKEY USSIQXCVUWKGNF-UHFFFAOYSA-N
AC$INSTRUMENT: TripleTOF 6600 SCIEX
AC$INSTRUMENT_TYPE: LC-ESI-QTOF
AC$MASS_SPECTROMETRY: MS_TYPE MS2
AC$MASS_SPECTROMETRY: ION_MODE POSITIVE
AC$MASS_SPECTROMETRY: COLLISION_ENERGY 40
AC$MASS_SPECTROMETRY: FRAGMENTATION_MODE CID
AC$MASS_SPECTROMETRY: IONIZATION ESI
AC$CHROMATOGRAPHY: COLUMN_NAME Zorbax Eclipse Plus C18 2.1 mm x 150 mm, 3.5 um, Agilent
AC$CHROMATOGRAPHY: COLUMN_TEMPERATURE 40 °C
AC$CHROMATOGRAPHY: FLOW_GRADIENT 0 min min 98% A, 1 min 98% A, 2 min 80% A, 16.5 min 2% A, 22 min 2% A, 22.1 min 98% A, 27 min 98% A
AC$CHROMATOGRAPHY: FLOW_RATE 0.3 mL/min
AC$CHROMATOGRAPHY: RETENTION_TIME 8.79 min
AC$CHROMATOGRAPHY: SOLVENT A: Water 0.1% Formic acid, B: Acetonitrile 0.1% Formic acid
MS$FOCUSED_ION: PRECURSOR_M/Z 310.2166
MS$FOCUSED_ION: PRECURSOR_TYPE [M+H]+
MS$DATA_PROCESSING: COMMENT Export with Spectra 1.9.12 MsBackendMassbank 1.7.4
MS$DATA_PROCESSING: WHOLE RMassBank 2.3.1
PK$SPLASH: splash10-0a4i-2930000000-f68bc6e39accd1aa3d89
PK$NUM_PEAK: 33
PK$PEAK: m/z int. rel.int.
  57.0332 218.5 76
  77.0381 524.9 182
  91.0536 703.4 245
  105.0338 2865.9 999
  115.0535 68.1 23
  117.0693 470.9 164
  128.0612 38.9 13
  129.0691 151.9 52
  131.084 50.6 17
  141.0686 35.6 12
  143.0845 37.7 13
  145.0641 63.5 22
  159.1151 72.5 25
  165.0686 34.6 12
  167.0847 160.6 55
  169.1001 29 10
  178.0771 47 16
  179.0848 39.3 13
  191.0848 65 22
  194.0719 92.6 32
  195.1158 257.4 89
  202.0771 29.8 10
  203.0854 125.5 43
  204.0933 468.2 163
  205.1006 146.4 51
  217.1008 101.8 35
  218.1092 263.2 91
  219.1168 488.1 170
  223.1116 179.7 62
  232.1246 56.9 19
  236.1192 63.6 22
  247.1476 31.6 11
  265.1592 57.4 20
//
