ACCESSION: MSBNK-BAFG-CSL25010631483
RECORD_TITLE: Diethylamino hydroxybenzoyl hexyl benzoate; LC-ESI-QTOF; MS2; 70 V
DATE: 2025.01.06
AUTHORS: Ole Lessmann; Kevin S. Jewell; Björn Ehlig; Arne Wick
LICENSE: dl-de/by-2-0
COPYRIGHT: Copyright 2025 Federal Institute of Hydrology, Koblenz, Germany
COMMENT: CONFIDENCE Reference Standard (Level 1)
COMMENT: Chromatography method: dx.doi.org/10.1016/j.chroma.2015.11.014
COMMENT: Acquisition method: 10.1002/rcm.8541
CH$NAME: Diethylamino hydroxybenzoyl hexyl benzoate
CH$FORMULA: C24H31NO4
CH$EXACT_MASS: 397.2253
CH$SMILES: CCCCCCOC(=O)C1=CC=CC=C1C(=O)C2=C(C=C(C=C2)N(CC)CC)O
CH$IUPAC: InChI=1S/C24H31NO4/c1-4-7-8-11-16-29-24(28)20-13-10-9-12-19(20)23(27)21-15-14-18(17-22(21)26)25(5-2)6-3/h9-10,12-15,17,26H,4-8,11,16H2,1-3H3
CH$LINK: CAS 302776-68-7
CH$LINK: INCHIKEY FDATWRLUYRHCJE-UHFFFAOYSA-N
AC$INSTRUMENT: TripleTOF 6600 SCIEX
AC$INSTRUMENT_TYPE: LC-ESI-QTOF
AC$MASS_SPECTROMETRY: MS_TYPE MS2
AC$MASS_SPECTROMETRY: ION_MODE POSITIVE
AC$MASS_SPECTROMETRY: COLLISION_ENERGY 70
AC$MASS_SPECTROMETRY: FRAGMENTATION_MODE CID
AC$MASS_SPECTROMETRY: IONIZATION ESI
AC$CHROMATOGRAPHY: COLUMN_NAME Zorbax Eclipse Plus C18 2.1 mm x 150 mm, 3.5 um, Agilent
AC$CHROMATOGRAPHY: COLUMN_TEMPERATURE 40 °C
AC$CHROMATOGRAPHY: FLOW_GRADIENT 0 min min 98% A, 1 min 98% A, 2 min 80% A, 16.5 min 2% A, 22 min 2% A, 22.1 min 98% A, 27 min 98% A
AC$CHROMATOGRAPHY: FLOW_RATE 0.3 mL/min
AC$CHROMATOGRAPHY: RETENTION_TIME 17.769 min
AC$CHROMATOGRAPHY: SOLVENT A: Water 0.1% Formic acid, B: Acetonitrile 0.1% Formic acid
MS$FOCUSED_ION: PRECURSOR_M/Z 398.2326
MS$FOCUSED_ION: PRECURSOR_TYPE [M+H]+
MS$DATA_PROCESSING: COMMENT Export with pycsl 0.1.0.dev1 and CSL 24.4
PK$SPLASH: splash10-00r5-1980000000-7fa0e22c3231df0a8668
PK$NUM_PEAK: 97
PK$PEAK: m/z int. rel.int.
  39.0227 16.9 13
  41.0385 34.9 28
  43.0543 68.1 55
  65.0384 190.7 156
  77.0382 42.6 34
  80.049 42.3 34
  91.0536 17.7 14
  92.0487 24.3 19
  93.0334 253.6 208
  105.0333 78.2 64
  108.0442 60.6 49
  109.0512 24.8 20
  110.0593 14.8 12
  115.0536 52.2 42
  119.0118 13.2 10
  121.0293 608.8 499
  122.0596 60.4 49
  127.0536 16.3 13
  128.0613 32.1 26
  129.0692 29.3 24
  133.0277 34.4 28
  136.0391 13.0 10
  136.0749 38.1 31
  138.0905 23.9 19
  139.0536 133.4 109
  140.0609 27.2 22
  141.0691 92.0 75
  143.0484 18.5 15
  148.0386 15.6 12
  149.0233 1217.5 999
  151.0531 49.1 40
  152.0614 80.9 66
  153.069 78.6 64
  154.0653 42.3 34
  156.0804 14.2 11
  157.064 27.7 22
  164.0702 274.1 224
  165.0687 58.7 48
  166.0652 48.4 39
  167.0485 87.8 72
  167.0712 50.5 41
  168.0567 94.2 77
  168.0777 30.5 25
  169.0638 42.0 34
  170.0336 14.9 12
  171.0426 12.9 10
  177.0678 20.4 16
  178.0656 46.1 37
  180.0538 41.0 33
  180.0792 57.6 47
  181.0639 91.3 74
  182.06 88.5 72
  183.0439 27.6 22
  183.065 35.0 28
  184.0512 126.1 103
  185.0587 14.0 11
  193.0526 12.9 10
  194.0609 64.5 52
  194.0953 39.2 32
  195.0652 248.7 204
  196.0568 457.8 375
  197.0588 248.9 204
  198.0561 63.5 52
  204.08 43.4 35
  206.0596 57.3 47
  207.0675 16.3 13
  208.0752 167.6 137
  209.0593 20.2 16
  210.0565 103.2 84
  210.0896 52.8 43
  211.0626 159.0 130
  212.0698 211.6 173
  220.0753 98.0 80
  221.058 12.9 10
  222.0546 49.5 40
  222.089 40.1 32
  223.0583 280.8 230
  224.0703 674.1 553
  225.0758 131.4 107
  226.0858 14.6 11
  232.0749 30.2 24
  233.0829 27.0 22
  234.0539 61.6 50
  235.0617 48.5 39
  236.0693 24.5 20
  237.0413 25.2 20
  238.0506 112.5 92
  238.0826 103.2 84
  239.0583 27.4 22
  240.1018 747.0 612
  248.0704 31.1 25
  249.0779 13.8 11
  250.0863 32.5 26
  251.0583 48.7 39
  252.0647 268.5 220
  266.0812 1177.6 966
  268.0966 14.8 12
//