ACCESSION: MSBNK-BAFG-CSL2311107914
RECORD_TITLE: Iomeprol; LC-ESI-QTOF; MS2; 60 V
DATE: 2023.11.10
AUTHORS: Kevin S. Jewell; Björn Ehlig; Arne Wick
LICENSE: dl-de/by-2-0
COPYRIGHT: Copyright 2023 Federal Institute of Hydrology, Koblenz, Germany
COMMENT: CONFIDENCE Reference Standard (Level 1)
COMMENT: Chromatography method: dx.doi.org/10.1016/j.chroma.2015.11.014
COMMENT: Acquisition method: 10.1002/rcm.8541
CH$NAME: Iomeprol
CH$COMPOUND_CLASS: Pharmaceutical
CH$FORMULA: C17H22I3N3O8
CH$EXACT_MASS: 776.8541
CH$SMILES: CN(C(=O)CO)c1c(I)c(C(=O)NCC(O)CO)c(I)c(C(=O)NCC(O)CO)c1I
CH$IUPAC: InChI=1S/C17H22I3N3O8/c1-23(9(29)6-26)15-13(19)10(16(30)21-2-7(27)4-24)12(18)11(14(15)20)17(31)22-3-8(28)5-25/h7-8,24-28H,2-6H2,1H3,(H,21,30)(H,22,31)
CH$LINK: CAS 78649-41-9
CH$LINK: INCHIKEY NJKDOADNQSYQEV-UHFFFAOYSA-N
AC$INSTRUMENT: TripleTOF 5600 SCIEX
AC$INSTRUMENT_TYPE: LC-ESI-QTOF
AC$MASS_SPECTROMETRY: MS_TYPE MS2
AC$MASS_SPECTROMETRY: ION_MODE POSITIVE
AC$MASS_SPECTROMETRY: COLLISION_ENERGY 60
AC$MASS_SPECTROMETRY: FRAGMENTATION_MODE CID
AC$MASS_SPECTROMETRY: IONIZATION ESI
AC$CHROMATOGRAPHY: COLUMN_NAME Zorbax Eclipse Plus C18 2.1 mm x 150 mm, 3.5 um, Agilent
AC$CHROMATOGRAPHY: COLUMN_TEMPERATURE 40 °C
AC$CHROMATOGRAPHY: FLOW_GRADIENT 0 min min 98% A, 1 min 98% A, 2 min 80% A, 16.5 min 2% A, 22 min 2% A, 22.1 min 98% A, 27 min 98% A
AC$CHROMATOGRAPHY: FLOW_RATE 0.3 mL/min
AC$CHROMATOGRAPHY: RETENTION_TIME 4.596 min
AC$CHROMATOGRAPHY: SOLVENT A: Water 0.1% Formic acid, B: Acetonitrile 0.1% Formic acid
MS$FOCUSED_ION: PRECURSOR_M/Z 777.8614
MS$FOCUSED_ION: PRECURSOR_TYPE [M+H]+
MS$DATA_PROCESSING: COMMENT Export with Spectra 1.9.12 MsBackendMassbank 1.7.4
MS$DATA_PROCESSING: WHOLE RMassBank 2.3.1
PK$SPLASH: splash10-0udi-0001910000-92773dfa097848c05448
PK$NUM_PEAK: 9
PK$PEAK: m/z int. rel.int.
  287.9503 5.3 37
  331.9402 18.6 130
  346.985 2.8 19
  374.9817 5 35
  386.9817 3.9 27
  404.9937 142.4 999
  414.852 3.8 26
  531.8976 8.7 61
  558.8845 15.7 110
//
