ACCESSION: MSBNK-BAFG-CSL25011734526
RECORD_TITLE: Metachrome Yellow free acid; LC-ESI-QTOF; MS2; 100 V
DATE: 2025.01.17
AUTHORS: Ole Lessmann; Kevin S. Jewell; Björn Ehlig; Arne Wick
LICENSE: dl-de/by-2-0
COPYRIGHT: Copyright 2025 Federal Institute of Hydrology, Koblenz, Germany
COMMENT: CONFIDENCE Reference Standard (Level 1)
COMMENT: Chromatography method: dx.doi.org/10.1016/j.chroma.2015.11.014
CH$NAME: Metachrome Yellow free acid
CH$FORMULA: C13H9N3O5
CH$EXACT_MASS: 287.0542
CH$SMILES: C1=CC(=CC(=C1)[N+](=O)[O-])N=NC2=CC(=C(C=C2)O)C(=O)O
CH$IUPAC: InChI=1S/C13H9N3O5/c17-12-5-4-9(7-11(12)13(18)19)15-14-8-2-1-3-10(6-8)16(20)21/h1-7,17H,(H,18,19)
CH$LINK: CAS 6283-26-7
CH$LINK: INCHIKEY LJOXBIGRIKPBSQ-UHFFFAOYSA-N
AC$INSTRUMENT: TripleTOF 6600 SCIEX
AC$INSTRUMENT_TYPE: LC-ESI-QTOF
AC$MASS_SPECTROMETRY: MS_TYPE MS2
AC$MASS_SPECTROMETRY: ION_MODE NEGATIVE
AC$MASS_SPECTROMETRY: COLLISION_ENERGY 100
AC$MASS_SPECTROMETRY: FRAGMENTATION_MODE CID
AC$MASS_SPECTROMETRY: IONIZATION ESI
AC$CHROMATOGRAPHY: COLUMN_NAME Zorbax Eclipse Plus C18 2.1 mm x 150 mm, 3.5 um, Agilent
AC$CHROMATOGRAPHY: COLUMN_TEMPERATURE 40 °C
AC$CHROMATOGRAPHY: FLOW_GRADIENT 0 min min 98% A, 1 min 98% A, 2 min 80% A, 16.5 min 2% A, 22 min 2% A, 22.1 min 98% A, 27 min 98% A
AC$CHROMATOGRAPHY: FLOW_RATE 0.3 mL/min
AC$CHROMATOGRAPHY: RETENTION_TIME 11.919 min
AC$CHROMATOGRAPHY: SOLVENT A: Water 0.1% Formic acid, B: Acetonitrile 0.1% Formic acid
MS$FOCUSED_ION: PRECURSOR_M/Z 286.0469
MS$FOCUSED_ION: PRECURSOR_TYPE [M-H]-
MS$DATA_PROCESSING: COMMENT Export with pycsl 0.1.0.dev1 and CSL 25.0
PK$SPLASH: splash10-0002-9000000000-4c501c688cf2993bed0f
PK$NUM_PEAK: 3
PK$PEAK: m/z int. rel.int.
  41.0031 2.7 83
  45.9934 32.2 999
  92.0258 2.9 89
//
