ACCESSION: MSBNK-BAFG-CSL2310265569
RECORD_TITLE: Lamotrigine; LC-ESI-QTOF; MS2; 130 V
DATE: 2023.10.26
AUTHORS: Kevin S. Jewell; Björn Ehlig; Arne Wick
LICENSE: dl-de/by-2-0
COPYRIGHT: Copyright 2023 Federal Institute of Hydrology, Koblenz, Germany
COMMENT: CONFIDENCE Reference Standard (Level 1)
COMMENT: Chromatography method: dx.doi.org/10.1016/j.chroma.2015.11.014
COMMENT: Acquisition method: 10.1002/rcm.8541
CH$NAME: Lamotrigine
CH$COMPOUND_CLASS: Pharmaceutical
CH$FORMULA: C9H7Cl2N5
CH$EXACT_MASS: 255.0079
CH$SMILES: Nc1nnc(c(N)n1)c2cccc(Cl)c2Cl
CH$IUPAC: InChI=1S/C9H7Cl2N5/c10-5-3-1-2-4(6(5)11)7-8(12)14-9(13)16-15-7/h1-3H,(H4,12,13,14,16)
CH$LINK: CAS 84057-84-1
CH$LINK: INCHIKEY PYZRQGJRPPTADH-UHFFFAOYSA-N
AC$INSTRUMENT: TripleTOF 5600 SCIEX
AC$INSTRUMENT_TYPE: LC-ESI-QTOF
AC$MASS_SPECTROMETRY: MS_TYPE MS2
AC$MASS_SPECTROMETRY: ION_MODE POSITIVE
AC$MASS_SPECTROMETRY: COLLISION_ENERGY 130
AC$MASS_SPECTROMETRY: FRAGMENTATION_MODE CID
AC$MASS_SPECTROMETRY: IONIZATION ESI
AC$CHROMATOGRAPHY: COLUMN_NAME Zorbax Eclipse Plus C18 2.1 mm x 150 mm, 3.5 um, Agilent
AC$CHROMATOGRAPHY: COLUMN_TEMPERATURE 40 °C
AC$CHROMATOGRAPHY: FLOW_GRADIENT 0 min min 98% A, 1 min 98% A, 2 min 80% A, 16.5 min 2% A, 22 min 2% A, 22.1 min 98% A, 27 min 98% A
AC$CHROMATOGRAPHY: FLOW_RATE 0.3 mL/min
AC$CHROMATOGRAPHY: RETENTION_TIME 6.024 min
AC$CHROMATOGRAPHY: SOLVENT A: Water 0.1% Formic acid, B: Acetonitrile 0.1% Formic acid
MS$FOCUSED_ION: PRECURSOR_M/Z 256.0151
MS$FOCUSED_ION: PRECURSOR_TYPE [M+H]+
MS$DATA_PROCESSING: COMMENT Export with Spectra 1.9.12 MsBackendMassbank 1.7.4
MS$DATA_PROCESSING: WHOLE RMassBank 2.3.1
PK$SPLASH: splash10-00dl-9000000000-2d9b224c40a82077c7b6
PK$NUM_PEAK: 28
PK$PEAK: m/z int. rel.int.
  42.0308 1.5 59
  43.0382 18.4 726
  58.0476 0.6 23
  61.9821 0.4 15
  68.0276 0.6 23
  72.0043 0.6 23
  72.9878 2.6 102
  73.0112 5.1 201
  74.0185 25.3 999
  75.0127 1.2 47
  75.0251 2.7 106
  76.0204 0.6 23
  82.9465 0.4 15
  83.9774 1.1 43
  84.9856 0.9 35
  85.0113 0.7 27
  86.0177 1.8 71
  87.0246 0.9 35
  88.0212 0.5 19
  89.0448 0.4 15
  95.978 0.5 19
  96.9846 0.6 23
  98.0159 0.7 27
  99.0116 7.6 300
  100.0182 2.1 82
  106.9465 0.5 19
  108.9848 0.6 23
  123.0106 0.8 31
//
