ACCESSION: MSBNK-BAFG-CSL25010634213
RECORD_TITLE: 4'-O-Demethyl pantoprazole sulfide; LC-ESI-QTOF; MS2; 30 V
DATE: 2025.01.06
AUTHORS: Ole Lessmann; Kevin S. Jewell; Björn Ehlig; Arne Wick
LICENSE: dl-de/by-2-0
COPYRIGHT: Copyright 2025 Federal Institute of Hydrology, Koblenz, Germany
COMMENT: CONFIDENCE Reference Standard (Level 1)
COMMENT: Chromatography method: dx.doi.org/10.1016/j.chroma.2015.11.014
COMMENT: Acquisition method: 10.1002/rcm.8541
CH$NAME: 4'-O-Demethyl pantoprazole sulfide
CH$COMPOUND_CLASS: Pharmaceutical; Transformation_product-Metabolite
CH$FORMULA: C15H13F2N3O3S
CH$EXACT_MASS: 353.0646
CH$SMILES: COC1=C(NC=CC1=O)CSC2=NC3=C(N2)C=C(C=C3)OC(F)F
CH$IUPAC: InChI=1S/C15H13F2N3O3S/c1-22-13-11(18-5-4-12(13)21)7-24-15-19-9-3-2-8(23-14(16)17)6-10(9)20-15/h2-6,14H,7H2,1H3,(H,18,21)(H,19,20)
CH$LINK: CAS 141854-21-9
CH$LINK: INCHIKEY ILLQTAPXYCRJRB-UHFFFAOYSA-N
AC$INSTRUMENT: TripleTOF 6600 SCIEX
AC$INSTRUMENT_TYPE: LC-ESI-QTOF
AC$MASS_SPECTROMETRY: MS_TYPE MS2
AC$MASS_SPECTROMETRY: ION_MODE POSITIVE
AC$MASS_SPECTROMETRY: COLLISION_ENERGY 30
AC$MASS_SPECTROMETRY: FRAGMENTATION_MODE CID
AC$MASS_SPECTROMETRY: IONIZATION ESI
AC$CHROMATOGRAPHY: COLUMN_NAME Zorbax Eclipse Plus C18 2.1 mm x 150 mm, 3.5 um, Agilent
AC$CHROMATOGRAPHY: COLUMN_TEMPERATURE 40 °C
AC$CHROMATOGRAPHY: FLOW_GRADIENT 0 min min 98% A, 1 min 98% A, 2 min 80% A, 16.5 min 2% A, 22 min 2% A, 22.1 min 98% A, 27 min 98% A
AC$CHROMATOGRAPHY: FLOW_RATE 0.3 mL/min
AC$CHROMATOGRAPHY: RETENTION_TIME 7.57 min
AC$CHROMATOGRAPHY: SOLVENT A: Water 0.1% Formic acid, B: Acetonitrile 0.1% Formic acid
MS$FOCUSED_ION: PRECURSOR_M/Z 354.0719
MS$FOCUSED_ION: PRECURSOR_TYPE [M+H]+
MS$DATA_PROCESSING: COMMENT Export with pycsl 0.1.0.dev1 and CSL 24.4
PK$SPLASH: splash10-0079-0902000000-81515d1c5fca4a54b222
PK$NUM_PEAK: 18
PK$PEAK: m/z int. rel.int.
  80.048 12.0 13
  108.0434 393.9 446
  110.0591 369.1 418
  121.0507 18.1 20
  126.0533 14.7 16
  136.0421 12.2 13
  138.0541 881.6 999
  139.0615 34.9 39
  140.0147 12.6 14
  170.0263 640.2 725
  185.0511 272.3 308
  231.0378 29.7 33
  302.0721 9.1 10
  303.0809 18.6 21
  306.0666 76.4 86
  320.0815 63.7 72
  321.0898 178.5 202
  354.0711 466.0 528
//