ACCESSION: MSBNK-BAFG-CSL23110910711
RECORD_TITLE: 3,5-Dichloro-2-hydroxybenzophenone; LC-ESI-QTOF; MS2; 60 V
DATE: 2023.11.09
AUTHORS: Kevin S. Jewell; Björn Ehlig; Arne Wick
LICENSE: dl-de/by-2-0
COPYRIGHT: Copyright 2023 Federal Institute of Hydrology, Koblenz, Germany
COMMENT: CONFIDENCE Reference Standard (Level 1)
COMMENT: Chromatography method: dx.doi.org/10.1016/j.chroma.2015.11.014
COMMENT: Acquisition method: 10.1002/rcm.8541
CH$NAME: 3,5-Dichloro-2-hydroxybenzophenone
CH$FORMULA: C13H8Cl2O2
CH$EXACT_MASS: 265.9901
CH$SMILES: c1ccc(cc1)C(=O)c2cc(cc(c2O)Cl)Cl
CH$IUPAC: InChI=1S/C13H8Cl2O2/c14-9-6-10(13(17)11(15)7-9)12(16)8-4-2-1-3-5-8/h1-7,17H
CH$LINK: CAS 7396-92-1
CH$LINK: INCHIKEY KQEKLTCGLCEOFY-UHFFFAOYSA-N
AC$INSTRUMENT: TripleTOF 5600 SCIEX
AC$INSTRUMENT_TYPE: LC-ESI-QTOF
AC$MASS_SPECTROMETRY: MS_TYPE MS2
AC$MASS_SPECTROMETRY: ION_MODE NEGATIVE
AC$MASS_SPECTROMETRY: COLLISION_ENERGY 60
AC$MASS_SPECTROMETRY: FRAGMENTATION_MODE CID
AC$MASS_SPECTROMETRY: IONIZATION ESI
AC$CHROMATOGRAPHY: COLUMN_NAME Zorbax Eclipse Plus C18 2.1 mm x 150 mm, 3.5 um, Agilent
AC$CHROMATOGRAPHY: COLUMN_TEMPERATURE 40 °C
AC$CHROMATOGRAPHY: FLOW_GRADIENT 0 min min 98% A, 1 min 98% A, 2 min 80% A, 16.5 min 2% A, 22 min 2% A, 22.1 min 98% A, 27 min 98% A
AC$CHROMATOGRAPHY: FLOW_RATE 0.3 mL/min
AC$CHROMATOGRAPHY: RETENTION_TIME 15.407 min
AC$CHROMATOGRAPHY: SOLVENT A: Water 0.1% Formic acid, B: Acetonitrile 0.1% Formic acid
MS$FOCUSED_ION: PRECURSOR_M/Z 264.9829
MS$FOCUSED_ION: PRECURSOR_TYPE [M-H]-
MS$DATA_PROCESSING: COMMENT Export with Spectra 1.9.12 MsBackendMassbank 1.7.4
MS$DATA_PROCESSING: WHOLE RMassBank 2.3.1
PK$SPLASH: splash10-004i-9300000000-d4bbc14ee31349e41e76
PK$NUM_PEAK: 10
PK$PEAK: m/z int. rel.int.
  61.9896 0.4 121
  77.04 3.3 999
  77.056 0.4 121
  78.0433 0.2 60
  96.9576 0.3 90
  121.0326 0.3 90
  131.9532 0.3 90
  137.0395 0.5 151
  145.0273 0.2 60
  160.9543 0.3 90
//
