ACCESSION: MSBNK-BAFG-CSL23111010334
RECORD_TITLE: Nadolol; LC-ESI-QTOF; MS2; 20 V
DATE: 2023.11.10
AUTHORS: Kevin S. Jewell; Björn Ehlig; Arne Wick
LICENSE: dl-de/by-2-0
COPYRIGHT: Copyright 2023 Federal Institute of Hydrology, Koblenz, Germany
COMMENT: CONFIDENCE Reference Standard (Level 1)
COMMENT: Chromatography method: dx.doi.org/10.1016/j.chroma.2015.11.014
COMMENT: Acquisition method: 10.1002/rcm.8541
CH$NAME: Nadolol
CH$COMPOUND_CLASS: Pharmaceutical
CH$FORMULA: C17H27NO4
CH$EXACT_MASS: 309.194
CH$SMILES: CC(C)(C)NCC(COC1=CC=CC2=C1CC(C(C2)O)O)O
CH$IUPAC: InChI=1S/C17H27NO4/c1-17(2,3)18-9-12(19)10-22-16-6-4-5-11-7-14(20)15(21)8-13(11)16/h4-6,12,14-15,18-21H,7-10H2,1-3H3
CH$LINK: CAS 42200-33-9
CH$LINK: INCHIKEY VWPOSFSPZNDTMJ-UHFFFAOYSA-N
AC$INSTRUMENT: TripleTOF 5600 SCIEX
AC$INSTRUMENT_TYPE: LC-ESI-QTOF
AC$MASS_SPECTROMETRY: MS_TYPE MS2
AC$MASS_SPECTROMETRY: ION_MODE POSITIVE
AC$MASS_SPECTROMETRY: COLLISION_ENERGY 20
AC$MASS_SPECTROMETRY: FRAGMENTATION_MODE CID
AC$MASS_SPECTROMETRY: IONIZATION ESI
AC$CHROMATOGRAPHY: COLUMN_NAME Zorbax Eclipse Plus C18 2.1 mm x 150 mm, 3.5 um, Agilent
AC$CHROMATOGRAPHY: COLUMN_TEMPERATURE 40 °C
AC$CHROMATOGRAPHY: FLOW_GRADIENT 0 min min 98% A, 1 min 98% A, 2 min 80% A, 16.5 min 2% A, 22 min 2% A, 22.1 min 98% A, 27 min 98% A
AC$CHROMATOGRAPHY: FLOW_RATE 0.3 mL/min
AC$CHROMATOGRAPHY: RETENTION_TIME 5.13 min
AC$CHROMATOGRAPHY: SOLVENT A: Water 0.1% Formic acid, B: Acetonitrile 0.1% Formic acid
MS$FOCUSED_ION: PRECURSOR_M/Z 310.2013
MS$FOCUSED_ION: PRECURSOR_TYPE [M+H]+
MS$DATA_PROCESSING: COMMENT Export with Spectra 1.9.12 MsBackendMassbank 1.7.4
MS$DATA_PROCESSING: WHOLE RMassBank 2.3.1
PK$SPLASH: splash10-0f79-0190000000-5c195d40cdfd962ce17b
PK$NUM_PEAK: 16
PK$PEAK: m/z int. rel.int.
  56.0542 2.9 33
  57.0743 1.1 12
  74.0629 7.9 90
  145.0642 2.7 30
  147.0782 1.2 13
  157.0639 1.5 17
  159.0807 1.4 16
  171.08 6.4 73
  173.0943 1.5 17
  175.0746 2.1 24
  183.0786 6.7 76
  189.092 1 11
  201.0903 48.1 549
  218.1162 7 80
  219.1011 4.7 53
  236.1274 87.4 999
//
