ACCESSION: MSBNK-BAFG-CSL231025773
RECORD_TITLE: (1-(4-Methoxybenzoyl)-undecyl)-trimethyl-ammonium; LC-ESI-QTOF; MS2; 130 V
DATE: 2023.10.25
AUTHORS: Kevin S. Jewell; Björn Ehlig; Arne Wick
LICENSE: dl-de/by-2-0
COPYRIGHT: Copyright 2023 Federal Institute of Hydrology, Koblenz, Germany
COMMENT: CONFIDENCE Reference Standard (Level 1)
COMMENT: Chromatography method: dx.doi.org/10.1016/j.chroma.2015.11.014
COMMENT: Acquisition method: 10.1002/rcm.8541
CH$NAME: (1-(4-Methoxybenzoyl)-undecyl)-trimethyl-ammonium
CH$FORMULA: C22H38NO2
CH$EXACT_MASS: 348.2897
CH$SMILES: CCCCCCCCCCC(C(=O)c1ccc(cc1)OC)[N+](C)(C)C
CH$IUPAC: InChI=1S/C22H38NO2/c1-6-7-8-9-10-11-12-13-14-21(23(2,3)4)22(24)19-15-17-20(25-5)18-16-19/h15-18,21H,6-14H2,1-5H3/q+1
CH$LINK: CAS NA
CH$LINK: INCHIKEY JMKAPSBUJQQULC-UHFFFAOYSA-N
AC$INSTRUMENT: TripleTOF 5600 SCIEX
AC$INSTRUMENT_TYPE: LC-ESI-QTOF
AC$MASS_SPECTROMETRY: MS_TYPE MS2
AC$MASS_SPECTROMETRY: ION_MODE POSITIVE
AC$MASS_SPECTROMETRY: COLLISION_ENERGY 130
AC$MASS_SPECTROMETRY: FRAGMENTATION_MODE CID
AC$MASS_SPECTROMETRY: IONIZATION ESI
AC$CHROMATOGRAPHY: COLUMN_NAME Zorbax Eclipse Plus C18 2.1 mm x 150 mm, 3.5 um, Agilent
AC$CHROMATOGRAPHY: COLUMN_TEMPERATURE 40 °C
AC$CHROMATOGRAPHY: FLOW_GRADIENT 0 min min 98% A, 1 min 98% A, 2 min 80% A, 16.5 min 2% A, 22 min 2% A, 22.1 min 98% A, 27 min 98% A
AC$CHROMATOGRAPHY: FLOW_RATE 0.3 mL/min
AC$CHROMATOGRAPHY: RETENTION_TIME 11.279 min
AC$CHROMATOGRAPHY: SOLVENT A: Water 0.1% Formic acid, B: Acetonitrile 0.1% Formic acid
MS$FOCUSED_ION: PRECURSOR_M/Z 348.2897
MS$FOCUSED_ION: PRECURSOR_TYPE [M]+
MS$DATA_PROCESSING: COMMENT Export with Spectra 1.9.12 MsBackendMassbank 1.7.4
MS$DATA_PROCESSING: WHOLE RMassBank 2.3.1
PK$SPLASH: splash10-004l-9000000000-7b2eb8d5eb4f8045b7a6
PK$NUM_PEAK: 7
PK$PEAK: m/z int. rel.int.
  44.0577 8.2 126
  58.0698 11 169
  60.084 4.6 70
  64.0349 29.9 459
  77.0412 65 999
  78.0482 8.8 135
  92.0266 50.7 779
//
