ACCESSION: MSBNK-BAFG-CSL25010634304
RECORD_TITLE: Disperse orange 3; LC-ESI-QTOF; MS2; 140 V
DATE: 2025.01.06
AUTHORS: Ole Lessmann; Kevin S. Jewell; Björn Ehlig; Arne Wick
LICENSE: dl-de/by-2-0
COPYRIGHT: Copyright 2025 Federal Institute of Hydrology, Koblenz, Germany
COMMENT: CONFIDENCE Reference Standard (Level 1)
COMMENT: Chromatography method: dx.doi.org/10.1016/j.chroma.2015.11.014
COMMENT: Acquisition method: 10.1002/rcm.8541
CH$NAME: Disperse orange 3
CH$FORMULA: C12H10N4O2
CH$EXACT_MASS: 242.0804
CH$SMILES: C1=CC(=CC=C1N)N=NC2=CC=C(C=C2)[N+](=O)[O-]
CH$IUPAC: InChI=1S/C12H10N4O2/c13-9-1-3-10(4-2-9)14-15-11-5-7-12(8-6-11)16(17)18/h1-8H,13H2
CH$LINK: CAS 730-40-5
CH$LINK: INCHIKEY UNBOSJFEZZJZLR-UHFFFAOYSA-N
AC$INSTRUMENT: TripleTOF 6600 SCIEX
AC$INSTRUMENT_TYPE: LC-ESI-QTOF
AC$MASS_SPECTROMETRY: MS_TYPE MS2
AC$MASS_SPECTROMETRY: ION_MODE POSITIVE
AC$MASS_SPECTROMETRY: COLLISION_ENERGY 140
AC$MASS_SPECTROMETRY: FRAGMENTATION_MODE CID
AC$MASS_SPECTROMETRY: IONIZATION ESI
AC$CHROMATOGRAPHY: COLUMN_NAME Zorbax Eclipse Plus C18 2.1 mm x 150 mm, 3.5 um, Agilent
AC$CHROMATOGRAPHY: COLUMN_TEMPERATURE 40 °C
AC$CHROMATOGRAPHY: FLOW_GRADIENT 0 min min 98% A, 1 min 98% A, 2 min 80% A, 16.5 min 2% A, 22 min 2% A, 22.1 min 98% A, 27 min 98% A
AC$CHROMATOGRAPHY: FLOW_RATE 0.3 mL/min
AC$CHROMATOGRAPHY: RETENTION_TIME 12.729 min
AC$CHROMATOGRAPHY: SOLVENT A: Water 0.1% Formic acid, B: Acetonitrile 0.1% Formic acid
MS$FOCUSED_ION: PRECURSOR_M/Z 243.0877
MS$FOCUSED_ION: PRECURSOR_TYPE [M+H]+
MS$DATA_PROCESSING: COMMENT Export with pycsl 0.1.0.dev1 and CSL 24.4
PK$SPLASH: splash10-0fk9-9000000000-9413fb28268cfccf1444
PK$NUM_PEAK: 19
PK$PEAK: m/z int. rel.int.
  35.9985 1.5 22
  37.0064 7.9 117
  38.0139 4.5 66
  39.022 8.8 131
  49.0063 24.6 366
  50.0142 67.1 999
  51.0096 0.9 13
  51.0214 6.3 93
  52.0172 5.2 77
  52.0283 1.0 14
  54.0337 0.7 10
  61.0055 3.3 49
  62.0142 5.8 86
  63.0215 4.0 59
  65.037 1.1 16
  73.0055 17.7 263
  74.0136 59.1 879
  75.0212 5.4 80
  78.0337 1.0 14
//