ACCESSION: MSBNK-BAFG-CSL25011734555
RECORD_TITLE: Azo Rubin S; LC-ESI-QTOF; MS2; 70 V
DATE: 2025.01.17
AUTHORS: Ole Lessmann; Kevin S. Jewell; Björn Ehlig; Arne Wick
LICENSE: dl-de/by-2-0
COPYRIGHT: Copyright 2025 Federal Institute of Hydrology, Koblenz, Germany
COMMENT: CONFIDENCE Reference Standard (Level 1)
COMMENT: Chromatography method: dx.doi.org/10.1016/j.chroma.2015.11.014
CH$NAME: Azo Rubin S
CH$FORMULA: C20H14N2O7S2
CH$EXACT_MASS: 458.0242
CH$SMILES: C1=CC=C2C(=C1)C(=CC=C2S(=O)(=O)O)N=NC3=C(C4=CC=CC=C4C(=C3)S(=O)(=O)O)O
CH$IUPAC: InChI=1S/C20H14N2O7S2/c23-20-15-8-4-3-7-14(15)19(31(27,28)29)11-17(20)22-21-16-9-10-18(30(24,25)26)13-6-2-1-5-12(13)16/h1-11,23H,(H,24,25,26)(H,27,28,29)
CH$LINK: CAS 13613-55-3
CH$LINK: INCHIKEY TVWOWDDBXAFQDG-UHFFFAOYSA-N
AC$INSTRUMENT: TripleTOF 6600 SCIEX
AC$INSTRUMENT_TYPE: LC-ESI-QTOF
AC$MASS_SPECTROMETRY: MS_TYPE MS2
AC$MASS_SPECTROMETRY: ION_MODE POSITIVE
AC$MASS_SPECTROMETRY: COLLISION_ENERGY 70
AC$MASS_SPECTROMETRY: FRAGMENTATION_MODE CID
AC$MASS_SPECTROMETRY: IONIZATION ESI
AC$CHROMATOGRAPHY: COLUMN_NAME Zorbax Eclipse Plus C18 2.1 mm x 150 mm, 3.5 um, Agilent
AC$CHROMATOGRAPHY: COLUMN_TEMPERATURE 40 °C
AC$CHROMATOGRAPHY: FLOW_GRADIENT 0 min min 98% A, 1 min 98% A, 2 min 80% A, 16.5 min 2% A, 22 min 2% A, 22.1 min 98% A, 27 min 98% A
AC$CHROMATOGRAPHY: FLOW_RATE 0.3 mL/min
AC$CHROMATOGRAPHY: RETENTION_TIME 7.286 min
AC$CHROMATOGRAPHY: SOLVENT A: Water 0.1% Formic acid, B: Acetonitrile 0.1% Formic acid
MS$FOCUSED_ION: PRECURSOR_M/Z 459.0315
MS$FOCUSED_ION: PRECURSOR_TYPE [M+H]+
MS$DATA_PROCESSING: COMMENT Export with pycsl 0.1.0.dev1 and CSL 25.0
PK$SPLASH: splash10-053r-0920000000-68d367308689cd910d29
PK$NUM_PEAK: 36
PK$PEAK: m/z int. rel.int.
  77.0382 17.1 37
  80.0128 71.1 157
  89.0377 13.6 30
  103.0537 77.2 171
  104.0487 4.6 10
  105.0332 25.6 56
  115.0537 44.3 98
  116.0489 14.5 32
  126.0331 4.8 10
  128.049 16.9 37
  130.0653 449.9 999
  131.0489 24.4 54
  131.0715 6.0 13
  140.0493 10.5 23
  141.0568 4.7 10
  142.0645 83.2 184
  143.0723 33.3 73
  146.0594 11.9 26
  154.0302 15.6 34
  158.0601 435.0 965
  159.0665 16.2 35
  174.0565 6.6 14
  223.0308 129.3 287
  252.0806 8.6 19
  266.0852 10.3 22
  267.0906 41.7 92
  268.1003 27.1 60
  269.1054 5.1 11
  278.085 9.5 21
  279.092 21.8 48
  280.1016 20.3 45
  295.087 8.8 19
  296.0942 11.3 25
  297.1004 8.2 18
  360.0572 9.3 20
  361.0652 4.8 10
//
