ACCESSION: MSBNK-BAFG-CSL25010613881
RECORD_TITLE: 1H,1H,2H,2H-Perfluorohexanesulphonic acid; LC-ESI-QTOF; MS2; 40 V
DATE: 2025.01.06
AUTHORS: Ole Lessmann; Kevin S. Jewell; Björn Ehlig; Arne Wick
LICENSE: dl-de/by-2-0
COPYRIGHT: Copyright 2025 Federal Institute of Hydrology, Koblenz, Germany
COMMENT: CONFIDENCE Reference Standard (Level 1)
COMMENT: Chromatography method: dx.doi.org/10.1016/j.chroma.2015.11.014
COMMENT: Acquisition method: 10.1002/rcm.8541
CH$NAME: 1H,1H,2H,2H-Perfluorohexanesulphonic acid
CH$COMPOUND_CLASS: Industrial_process; PFAS
CH$FORMULA: C6H5F9O3S
CH$EXACT_MASS: 327.9816
CH$SMILES: C(CS(=O)(=O)O)C(C(C(C(F)(F)F)(F)F)(F)F)(F)F
CH$IUPAC: InChI=1S/C6H5F9O3S/c7-3(8,1-2-19(16,17)18)4(9,10)5(11,12)6(13,14)15/h1-2H2,(H,16,17,18)
CH$LINK: CAS 757124-72-4
CH$LINK: INCHIKEY TXGIGTRUEITPSC-UHFFFAOYSA-N
AC$INSTRUMENT: TripleTOF 6600 SCIEX
AC$INSTRUMENT_TYPE: LC-ESI-QTOF
AC$MASS_SPECTROMETRY: MS_TYPE MS2
AC$MASS_SPECTROMETRY: ION_MODE NEGATIVE
AC$MASS_SPECTROMETRY: COLLISION_ENERGY 40
AC$MASS_SPECTROMETRY: FRAGMENTATION_MODE CID
AC$MASS_SPECTROMETRY: IONIZATION ESI
AC$CHROMATOGRAPHY: COLUMN_NAME Zorbax Eclipse Plus C18 2.1 mm x 150 mm, 3.5 um, Agilent
AC$CHROMATOGRAPHY: COLUMN_TEMPERATURE 40 °C
AC$CHROMATOGRAPHY: FLOW_GRADIENT 0 min min 98% A, 1 min 98% A, 2 min 80% A, 16.5 min 2% A, 22 min 2% A, 22.1 min 98% A, 27 min 98% A
AC$CHROMATOGRAPHY: FLOW_RATE 0.3 mL/min
AC$CHROMATOGRAPHY: RETENTION_TIME 10.117 min
AC$CHROMATOGRAPHY: SOLVENT A: Water 0.1% Formic acid, B: Acetonitrile 0.1% Formic acid
MS$FOCUSED_ION: PRECURSOR_M/Z 326.9743
MS$FOCUSED_ION: PRECURSOR_TYPE [M-H]-
MS$DATA_PROCESSING: COMMENT Export with pycsl 0.1.0.dev1 and CSL 24.4
PK$SPLASH: splash10-003r-9011000000-ae04e2d3aab774d771c4
PK$NUM_PEAK: 13
PK$PEAK: m/z int. rel.int.
  79.9549 119.6 833
  80.9627 143.4 999
  82.9582 1.5 10
  116.9931 2.2 15
  154.9897 5.7 39
  182.9854 5.4 37
  192.9875 8.3 57
  202.9914 7.2 50
  238.9911 4.1 28
  266.9514 4.5 31
  286.9585 18.8 130
  306.9652 44.5 310
  326.97 3.2 22
//