ACCESSION: MSBNK-BAFG-CSL23102618378
RECORD_TITLE: Chlorfenvinfos; LC-ESI-QTOF; MS2; 110 V
DATE: 2023.10.26
AUTHORS: Kevin S. Jewell; Björn Ehlig; Arne Wick
LICENSE: dl-de/by-2-0
COPYRIGHT: Copyright 2023 Federal Institute of Hydrology, Koblenz, Germany
COMMENT: CONFIDENCE Reference Standard (Level 1)
COMMENT: Chromatography method: dx.doi.org/10.1016/j.chroma.2015.11.014
COMMENT: Acquisition method: 10.1002/rcm.8541
CH$NAME: Chlorfenvinfos
CH$COMPOUND_CLASS: Insecticide
CH$FORMULA: C12H14Cl3O4P
CH$EXACT_MASS: 357.9695
CH$SMILES: CCOP(=O)(OCC)OC(=CCl)C1=C(C=C(C=C1)Cl)Cl
CH$IUPAC: InChI=1S/C12H14Cl3O4P/c1-3-17-20(16,18-4-2)19-12(8-13)10-6-5-9(14)7-11(10)15/h5-8H,3-4H2,1-2H3
CH$LINK: CAS 470-90-6
CH$LINK: INCHIKEY FSAVDKDHPDSCTO-UHFFFAOYSA-N
AC$INSTRUMENT: TripleTOF 6600 SCIEX
AC$INSTRUMENT_TYPE: LC-ESI-QTOF
AC$MASS_SPECTROMETRY: MS_TYPE MS2
AC$MASS_SPECTROMETRY: ION_MODE POSITIVE
AC$MASS_SPECTROMETRY: COLLISION_ENERGY 110
AC$MASS_SPECTROMETRY: FRAGMENTATION_MODE CID
AC$MASS_SPECTROMETRY: IONIZATION ESI
AC$CHROMATOGRAPHY: COLUMN_NAME Zorbax Eclipse Plus C18 2.1 mm x 150 mm, 3.5 um, Agilent
AC$CHROMATOGRAPHY: COLUMN_TEMPERATURE 40 °C
AC$CHROMATOGRAPHY: FLOW_GRADIENT 0 min min 98% A, 1 min 98% A, 2 min 80% A, 16.5 min 2% A, 22 min 2% A, 22.1 min 98% A, 27 min 98% A
AC$CHROMATOGRAPHY: FLOW_RATE 0.3 mL/min
AC$CHROMATOGRAPHY: RETENTION_TIME 13.629 min
AC$CHROMATOGRAPHY: SOLVENT A: Water 0.1% Formic acid, B: Acetonitrile 0.1% Formic acid
MS$FOCUSED_ION: PRECURSOR_M/Z 358.9768
MS$FOCUSED_ION: PRECURSOR_TYPE [M+H]+
MS$DATA_PROCESSING: COMMENT Export with Spectra 1.9.12 MsBackendMassbank 1.7.4
MS$DATA_PROCESSING: WHOLE RMassBank 2.3.1
PK$SPLASH: splash10-0002-9200000000-af826cb01042d330d22f
PK$NUM_PEAK: 21
PK$PEAK: m/z int. rel.int.
  62.0129 1.5 10
  62.9609 19.7 132
  73.0049 2.9 19
  74.0127 21.9 147
  75.0207 8 53
  80.9714 80.9 543
  83.9737 4.3 28
  84.9818 3.1 20
  97.0049 6.6 44
  98.0131 148.7 999
  98.9849 13.6 91
  99.0065 6.7 45
  99.0204 119.1 800
  100.0287 4.8 32
  107.973 17.5 117
  108.981 19.2 128
  132.9817 7.7 51
  133.9889 13.3 89
  134.9967 29.2 196
  163.0035 8.5 57
  169.9667 31.2 209
//
