ACCESSION: MSBNK-BAFG-CSL25010631481
RECORD_TITLE: Diethylamino hydroxybenzoyl hexyl benzoate; LC-ESI-QTOF; MS2; 50 V
DATE: 2025.01.06
AUTHORS: Ole Lessmann; Kevin S. Jewell; Björn Ehlig; Arne Wick
LICENSE: dl-de/by-2-0
COPYRIGHT: Copyright 2025 Federal Institute of Hydrology, Koblenz, Germany
COMMENT: CONFIDENCE Reference Standard (Level 1)
COMMENT: Chromatography method: dx.doi.org/10.1016/j.chroma.2015.11.014
COMMENT: Acquisition method: 10.1002/rcm.8541
CH$NAME: Diethylamino hydroxybenzoyl hexyl benzoate
CH$FORMULA: C24H31NO4
CH$EXACT_MASS: 397.2253
CH$SMILES: CCCCCCOC(=O)C1=CC=CC=C1C(=O)C2=C(C=C(C=C2)N(CC)CC)O
CH$IUPAC: InChI=1S/C24H31NO4/c1-4-7-8-11-16-29-24(28)20-13-10-9-12-19(20)23(27)21-15-14-18(17-22(21)26)25(5-2)6-3/h9-10,12-15,17,26H,4-8,11,16H2,1-3H3
CH$LINK: CAS 302776-68-7
CH$LINK: INCHIKEY FDATWRLUYRHCJE-UHFFFAOYSA-N
AC$INSTRUMENT: TripleTOF 6600 SCIEX
AC$INSTRUMENT_TYPE: LC-ESI-QTOF
AC$MASS_SPECTROMETRY: MS_TYPE MS2
AC$MASS_SPECTROMETRY: ION_MODE POSITIVE
AC$MASS_SPECTROMETRY: COLLISION_ENERGY 50
AC$MASS_SPECTROMETRY: FRAGMENTATION_MODE CID
AC$MASS_SPECTROMETRY: IONIZATION ESI
AC$CHROMATOGRAPHY: COLUMN_NAME Zorbax Eclipse Plus C18 2.1 mm x 150 mm, 3.5 um, Agilent
AC$CHROMATOGRAPHY: COLUMN_TEMPERATURE 40 °C
AC$CHROMATOGRAPHY: FLOW_GRADIENT 0 min min 98% A, 1 min 98% A, 2 min 80% A, 16.5 min 2% A, 22 min 2% A, 22.1 min 98% A, 27 min 98% A
AC$CHROMATOGRAPHY: FLOW_RATE 0.3 mL/min
AC$CHROMATOGRAPHY: RETENTION_TIME 17.769 min
AC$CHROMATOGRAPHY: SOLVENT A: Water 0.1% Formic acid, B: Acetonitrile 0.1% Formic acid
MS$FOCUSED_ION: PRECURSOR_M/Z 398.2326
MS$FOCUSED_ION: PRECURSOR_TYPE [M+H]+
MS$DATA_PROCESSING: COMMENT Export with pycsl 0.1.0.dev1 and CSL 24.4
PK$SPLASH: splash10-00ke-0590000000-845fccf447beaff84dcc
PK$NUM_PEAK: 37
PK$PEAK: m/z int. rel.int.
  43.0544 66.7 17
  65.038 48.0 12
  93.0332 71.1 18
  121.0285 267.7 68
  122.0592 54.3 13
  138.0908 107.8 27
  149.0232 3904.6 999
  164.0701 271.3 69
  181.0637 45.7 11
  195.0714 42.7 10
  196.0521 130.5 33
  197.0592 111.5 28
  198.0642 104.3 26
  208.0755 146.6 37
  211.0623 84.3 21
  212.0692 70.8 18
  222.0904 78.9 20
  223.0408 73.9 18
  224.0705 676.2 173
  225.0557 105.5 26
  226.086 63.9 16
  232.0753 64.5 16
  233.0832 48.7 12
  235.0622 65.9 16
  238.0509 65.4 16
  238.0844 55.0 14
  239.0927 336.8 86
  240.1004 2736.7 700
  249.0768 42.0 10
  250.0856 373.5 95
  252.0652 954.0 244
  266.0812 2103.4 538
  267.0879 166.2 42
  268.0967 393.1 100
  269.1039 44.7 11
  296.1275 70.9 18
  354.1689 49.6 12
//