ACCESSION: MSBNK-BAFG-CSL23103127548
RECORD_TITLE: Thioxanthen-9-one; LC-ESI-QTOF; MS2; 30 V
DATE: 2023.10.31
AUTHORS: Kevin S. Jewell; Björn Ehlig; Arne Wick
LICENSE: dl-de/by-2-0
COPYRIGHT: Copyright 2023 Federal Institute of Hydrology, Koblenz, Germany
COMMENT: CONFIDENCE Reference Standard (Level 1)
COMMENT: Chromatography method: dx.doi.org/10.1016/j.chroma.2015.11.014
COMMENT: Acquisition method: 10.1002/rcm.8541
CH$NAME: Thioxanthen-9-one
CH$FORMULA: C13H8OS
CH$EXACT_MASS: 212.0296
CH$SMILES: C1=CC=C2C(=C1)C(=O)C3=CC=CC=C3S2
CH$IUPAC: InChI=1S/C13H8OS/c14-13-9-5-1-3-7-11(9)15-12-8-4-2-6-10(12)13/h1-8H
CH$LINK: CAS 492-22-8
CH$LINK: INCHIKEY YRHRIQCWCFGUEQ-UHFFFAOYSA-N
AC$INSTRUMENT: TripleTOF 6600 SCIEX
AC$INSTRUMENT_TYPE: LC-ESI-QTOF
AC$MASS_SPECTROMETRY: MS_TYPE MS2
AC$MASS_SPECTROMETRY: ION_MODE POSITIVE
AC$MASS_SPECTROMETRY: COLLISION_ENERGY 30
AC$MASS_SPECTROMETRY: FRAGMENTATION_MODE CID
AC$MASS_SPECTROMETRY: IONIZATION ESI
AC$CHROMATOGRAPHY: COLUMN_NAME Zorbax Eclipse Plus C18 2.1 mm x 150 mm, 3.5 um, Agilent
AC$CHROMATOGRAPHY: COLUMN_TEMPERATURE 40 °C
AC$CHROMATOGRAPHY: FLOW_GRADIENT 0 min min 98% A, 1 min 98% A, 2 min 80% A, 16.5 min 2% A, 22 min 2% A, 22.1 min 98% A, 27 min 98% A
AC$CHROMATOGRAPHY: FLOW_RATE 0.3 mL/min
AC$CHROMATOGRAPHY: RETENTION_TIME 13.479 min
AC$CHROMATOGRAPHY: SOLVENT A: Water 0.1% Formic acid, B: Acetonitrile 0.1% Formic acid
MS$FOCUSED_ION: PRECURSOR_M/Z 213.0369
MS$FOCUSED_ION: PRECURSOR_TYPE [M+H]+
MS$DATA_PROCESSING: COMMENT Export with Spectra 1.9.12 MsBackendMassbank 1.7.4
MS$DATA_PROCESSING: WHOLE RMassBank 2.3.1
PK$SPLASH: splash10-03di-0390000000-aeb85e2afbe0744c835a
PK$NUM_PEAK: 4
PK$PEAK: m/z int. rel.int.
  152.0624 20.3 13
  184.0352 522.1 346
  185.0428 68.6 45
  213.0392 1506.4 999
//
