ACCESSION: MSBNK-BAFG-CSL23102515559
RECORD_TITLE: Basic yellow 28; LC-ESI-QTOF; MS2; 70 V
DATE: 2023.10.25
AUTHORS: Kevin S. Jewell; Björn Ehlig; Arne Wick
LICENSE: dl-de/by-2-0
COPYRIGHT: Copyright 2023 Federal Institute of Hydrology, Koblenz, Germany
COMMENT: CONFIDENCE Reference Standard (Level 1)
COMMENT: Chromatography method: dx.doi.org/10.1016/j.chroma.2015.11.014
COMMENT: Acquisition method: 10.1002/rcm.8541
CH$NAME: Basic yellow 28
CH$COMPOUND_CLASS: Pigment
CH$FORMULA: C20H24N3O
CH$EXACT_MASS: 322.1914
CH$SMILES: CC1(C2=CC=CC=C2[N+](=C1C=NN(C)C3=CC=C(C=C3)OC)C)C
CH$IUPAC: InChI=1S/C20H24N3O/c1-20(2)17-8-6-7-9-18(17)22(3)19(20)14-21-23(4)15-10-12-16(24-5)13-11-15/h6-14H,1-5H3/q+1
CH$LINK: CAS 54060-92-3
CH$LINK: INCHIKEY VRAOBFWNUBUCRN-UHFFFAOYSA-N
AC$INSTRUMENT: TripleTOF 6600 SCIEX
AC$INSTRUMENT_TYPE: LC-ESI-QTOF
AC$MASS_SPECTROMETRY: MS_TYPE MS2
AC$MASS_SPECTROMETRY: ION_MODE POSITIVE
AC$MASS_SPECTROMETRY: COLLISION_ENERGY 70
AC$MASS_SPECTROMETRY: FRAGMENTATION_MODE CID
AC$MASS_SPECTROMETRY: IONIZATION ESI
AC$CHROMATOGRAPHY: COLUMN_NAME Zorbax Eclipse Plus C18 2.1 mm x 150 mm, 3.5 um, Agilent
AC$CHROMATOGRAPHY: COLUMN_TEMPERATURE 40 °C
AC$CHROMATOGRAPHY: FLOW_GRADIENT 0 min min 98% A, 1 min 98% A, 2 min 80% A, 16.5 min 2% A, 22 min 2% A, 22.1 min 98% A, 27 min 98% A
AC$CHROMATOGRAPHY: FLOW_RATE 0.3 mL/min
AC$CHROMATOGRAPHY: RETENTION_TIME 9.082 min
AC$CHROMATOGRAPHY: SOLVENT A: Water 0.1% Formic acid, B: Acetonitrile 0.1% Formic acid
MS$FOCUSED_ION: PRECURSOR_M/Z 322.1914
MS$FOCUSED_ION: PRECURSOR_TYPE [M]+
MS$DATA_PROCESSING: COMMENT Export with Spectra 1.9.12 MsBackendMassbank 1.7.4
MS$DATA_PROCESSING: WHOLE RMassBank 2.3.1
PK$SPLASH: splash10-0006-4900000000-a27706bfa7925c11161c
PK$NUM_PEAK: 23
PK$PEAK: m/z int. rel.int.
  65.0387 26.4 74
  66.0466 75.5 212
  67.0419 60.1 168
  77.0385 74.7 209
  78.0458 61.1 171
  91.0531 18.3 51
  92.0245 24.9 69
  92.0475 22.8 64
  93.0559 101.2 284
  94.0404 21.7 60
  108.056 86.2 242
  115.0535 21 58
  120.0438 27.2 76
  121.0515 73.5 206
  128.0492 25 70
  130.0646 52.7 148
  136.0752 33.6 94
  143.0724 37.4 105
  144.0808 355.6 999
  145.0885 147.8 415
  156.0679 18.5 51
  158.0963 68.3 191
  169.0759 24.7 69
//
