ACCESSION: MSBNK-BAFG-CSL23102618174
RECORD_TITLE: Flutriafol; LC-ESI-QTOF; MS2; 120 V
DATE: 2023.10.26
AUTHORS: Kevin S. Jewell; Björn Ehlig; Arne Wick
LICENSE: dl-de/by-2-0
COPYRIGHT: Copyright 2023 Federal Institute of Hydrology, Koblenz, Germany
COMMENT: CONFIDENCE Reference Standard (Level 1)
COMMENT: Chromatography method: dx.doi.org/10.1016/j.chroma.2015.11.014
COMMENT: Acquisition method: 10.1002/rcm.8541
CH$NAME: Flutriafol
CH$COMPOUND_CLASS: Fungicide
CH$FORMULA: C16H13F2N3O
CH$EXACT_MASS: 301.1027
CH$SMILES: C1=CC=C(C(=C1)C(CN2C=NC=N2)(C3=CC=C(C=C3)F)O)F
CH$IUPAC: InChI=1S/C16H13F2N3O/c17-13-7-5-12(6-8-13)16(22,9-21-11-19-10-20-21)14-3-1-2-4-15(14)18/h1-8,10-11,22H,9H2
CH$LINK: CAS 76674-21-0
CH$LINK: INCHIKEY JWUCHKBSVLQQCO-UHFFFAOYSA-N
AC$INSTRUMENT: TripleTOF 6600 SCIEX
AC$INSTRUMENT_TYPE: LC-ESI-QTOF
AC$MASS_SPECTROMETRY: MS_TYPE MS2
AC$MASS_SPECTROMETRY: ION_MODE POSITIVE
AC$MASS_SPECTROMETRY: COLLISION_ENERGY 120
AC$MASS_SPECTROMETRY: FRAGMENTATION_MODE CID
AC$MASS_SPECTROMETRY: IONIZATION ESI
AC$CHROMATOGRAPHY: COLUMN_NAME Zorbax Eclipse Plus C18 2.1 mm x 150 mm, 3.5 um, Agilent
AC$CHROMATOGRAPHY: COLUMN_TEMPERATURE 40 °C
AC$CHROMATOGRAPHY: FLOW_GRADIENT 0 min min 98% A, 1 min 98% A, 2 min 80% A, 16.5 min 2% A, 22 min 2% A, 22.1 min 98% A, 27 min 98% A
AC$CHROMATOGRAPHY: FLOW_RATE 0.3 mL/min
AC$CHROMATOGRAPHY: RETENTION_TIME 10.047 min
AC$CHROMATOGRAPHY: SOLVENT A: Water 0.1% Formic acid, B: Acetonitrile 0.1% Formic acid
MS$FOCUSED_ION: PRECURSOR_M/Z 302.11
MS$FOCUSED_ION: PRECURSOR_TYPE [M+H]+
MS$DATA_PROCESSING: COMMENT Export with Spectra 1.9.12 MsBackendMassbank 1.7.4
MS$DATA_PROCESSING: WHOLE RMassBank 2.3.1
PK$SPLASH: splash10-00fr-9000000000-2c8171758ee32e5c6aa5
PK$NUM_PEAK: 29
PK$PEAK: m/z int. rel.int.
  39.0228 5.2 18
  42.0218 6.2 21
  43.0294 65.2 230
  50.0149 6.9 24
  51.0234 5 17
  57.0136 22 77
  61.0067 3.5 12
  62.0154 6.8 24
  63.0227 10.1 35
  68.0057 3.5 12
  69.013 19.3 68
  70.0399 65.7 232
  73.0069 27.5 97
  74.0151 282.7 999
  75.0229 196.1 692
  83.0292 24 84
  89.0383 3.1 10
  95.0288 20.1 71
  98.0141 10.9 38
  99.0223 4.2 14
  109.0448 2.8 9
  122.014 8.8 31
  123.0236 6.1 21
  123.0352 3.2 11
  163.053 6.3 22
  168.037 7.2 25
  174.0462 3.2 11
  181.045 4.1 14
  192.0361 4.8 16
//
