ACCESSION: MSBNK-BAFG-CSL23102618807
RECORD_TITLE: Hexazinone; LC-ESI-QTOF; MS2; 130 V
DATE: 2023.10.26
AUTHORS: Kevin S. Jewell; Björn Ehlig; Arne Wick
LICENSE: dl-de/by-2-0
COPYRIGHT: Copyright 2023 Federal Institute of Hydrology, Koblenz, Germany
COMMENT: CONFIDENCE Reference Standard (Level 1)
COMMENT: Chromatography method: dx.doi.org/10.1016/j.chroma.2015.11.014
COMMENT: Acquisition method: 10.1002/rcm.8541
CH$NAME: Hexazinone
CH$COMPOUND_CLASS: Herbicide
CH$FORMULA: C12H20N4O2
CH$EXACT_MASS: 252.1586
CH$SMILES: CN1C(=NC(=O)N(C1=O)C2CCCCC2)N(C)C
CH$IUPAC: InChI=1S/C12H20N4O2/c1-14(2)10-13-11(17)16(12(18)15(10)3)9-7-5-4-6-8-9/h9H,4-8H2,1-3H3
CH$LINK: CAS 51235-04-2
CH$LINK: INCHIKEY CAWXEEYDBZRFPE-UHFFFAOYSA-N
AC$INSTRUMENT: TripleTOF 6600 SCIEX
AC$INSTRUMENT_TYPE: LC-ESI-QTOF
AC$MASS_SPECTROMETRY: MS_TYPE MS2
AC$MASS_SPECTROMETRY: ION_MODE POSITIVE
AC$MASS_SPECTROMETRY: COLLISION_ENERGY 130
AC$MASS_SPECTROMETRY: FRAGMENTATION_MODE CID
AC$MASS_SPECTROMETRY: IONIZATION ESI
AC$CHROMATOGRAPHY: COLUMN_NAME Zorbax Eclipse Plus C18 2.1 mm x 150 mm, 3.5 um, Agilent
AC$CHROMATOGRAPHY: COLUMN_TEMPERATURE 40 °C
AC$CHROMATOGRAPHY: FLOW_GRADIENT 0 min min 98% A, 1 min 98% A, 2 min 80% A, 16.5 min 2% A, 22 min 2% A, 22.1 min 98% A, 27 min 98% A
AC$CHROMATOGRAPHY: FLOW_RATE 0.3 mL/min
AC$CHROMATOGRAPHY: RETENTION_TIME 8.427 min
AC$CHROMATOGRAPHY: SOLVENT A: Water 0.1% Formic acid, B: Acetonitrile 0.1% Formic acid
MS$FOCUSED_ION: PRECURSOR_M/Z 253.1659
MS$FOCUSED_ION: PRECURSOR_TYPE [M+H]+
MS$DATA_PROCESSING: COMMENT Export with Spectra 1.9.12 MsBackendMassbank 1.7.4
MS$DATA_PROCESSING: WHOLE RMassBank 2.3.1
PK$SPLASH: splash10-0670-9000000000-6f0a0103b5426554fe23
PK$NUM_PEAK: 24
PK$PEAK: m/z int. rel.int.
  35.9997 0.9 23
  37.007 5.9 156
  38.0021 0.7 18
  38.0144 5 132
  39.0227 18.2 483
  41.0129 0.6 15
  41.0257 0.4 10
  41.0385 2 53
  41.9974 0.7 18
  42.0336 13 345
  44.0124 1.4 37
  44.0491 2.1 55
  53.0131 1.3 34
  53.0394 0.5 13
  55.0286 30.2 802
  56.0362 6.4 170
  57.0446 0.6 15
  60.9858 1.7 45
  69.0087 2.3 61
  69.044 37.6 999
  69.991 3.7 98
  70.0512 1.1 29
  71.0603 2.5 66
  83.0229 0.7 18
//
