ACCESSION: MSBNK-BAFG-CSL2310259810
RECORD_TITLE: Sulfamethazine; LC-ESI-QTOF; MS2; 40 V
DATE: 2023.10.25
AUTHORS: Kevin S. Jewell; Björn Ehlig; Arne Wick
LICENSE: dl-de/by-2-0
COPYRIGHT: Copyright 2023 Federal Institute of Hydrology, Koblenz, Germany
COMMENT: CONFIDENCE Reference Standard (Level 1)
COMMENT: Chromatography method: dx.doi.org/10.1016/j.chroma.2015.11.014
COMMENT: Acquisition method: 10.1002/rcm.8541
CH$NAME: Sulfamethazine
CH$COMPOUND_CLASS: Antimicrobial; Pharmaceutical
CH$FORMULA: C12H14N4O2S
CH$EXACT_MASS: 278.0837
CH$SMILES: CC1=CC(=NC(=N1)NS(=O)(=O)C2=CC=C(C=C2)N)C
CH$IUPAC: InChI=1S/C12H14N4O2S/c1-8-7-9(2)15-12(14-8)16-19(17,18)11-5-3-10(13)4-6-11/h3-7H,13H2,1-2H3,(H,14,15,16)
CH$LINK: CAS 57-68-1
CH$LINK: INCHIKEY ASWVTGNCAZCNNR-UHFFFAOYSA-N
AC$INSTRUMENT: TripleTOF 5600 SCIEX
AC$INSTRUMENT_TYPE: LC-ESI-QTOF
AC$MASS_SPECTROMETRY: MS_TYPE MS2
AC$MASS_SPECTROMETRY: ION_MODE POSITIVE
AC$MASS_SPECTROMETRY: COLLISION_ENERGY 40
AC$MASS_SPECTROMETRY: FRAGMENTATION_MODE CID
AC$MASS_SPECTROMETRY: IONIZATION ESI
AC$CHROMATOGRAPHY: COLUMN_NAME Zorbax Eclipse Plus C18 2.1 mm x 150 mm, 3.5 um, Agilent
AC$CHROMATOGRAPHY: COLUMN_TEMPERATURE 40 °C
AC$CHROMATOGRAPHY: FLOW_GRADIENT 0 min min 98% A, 1 min 98% A, 2 min 80% A, 16.5 min 2% A, 22 min 2% A, 22.1 min 98% A, 27 min 98% A
AC$CHROMATOGRAPHY: FLOW_RATE 0.3 mL/min
AC$CHROMATOGRAPHY: RETENTION_TIME 6.115 min
AC$CHROMATOGRAPHY: SOLVENT A: Water 0.1% Formic acid, B: Acetonitrile 0.1% Formic acid
MS$FOCUSED_ION: PRECURSOR_M/Z 279.091
MS$FOCUSED_ION: PRECURSOR_TYPE [M+H]+
MS$DATA_PROCESSING: COMMENT Export with Spectra 1.9.12 MsBackendMassbank 1.7.4
MS$DATA_PROCESSING: WHOLE RMassBank 2.3.1
PK$SPLASH: splash10-0abc-4900000000-110386e923657f8e5e20
PK$NUM_PEAK: 24
PK$PEAK: m/z int. rel.int.
  54.044 1.5 10
  65.0467 31.2 219
  66.0405 2.2 15
  67.0365 2.3 16
  68.057 3.1 21
  80.0556 17.1 120
  81.0518 6.9 48
  82.0714 5.4 37
  92.0549 115.8 813
  93.0631 4.9 34
  94.0702 1.6 11
  95.0658 16.1 113
  96.0723 3.2 22
  107.0644 18.4 129
  108.0484 112 786
  122.0746 13 91
  123.0826 4.1 28
  124.0902 142.2 999
  156.013 41.6 292
  186.0346 73.6 517
  196.0881 3.4 23
  198.0919 1.6 11
  213.1133 22.5 158
  279.0903 21.3 149
//
