ACCESSION: MSBNK-BAFG-CSL231026104
RECORD_TITLE: Benzyl-dimethyl-octylammonium; LC-ESI-QTOF; MS2; 130 V
DATE: 2023.10.26
AUTHORS: Kevin S. Jewell; Björn Ehlig; Arne Wick
LICENSE: dl-de/by-2-0
COPYRIGHT: Copyright 2023 Federal Institute of Hydrology, Koblenz, Germany
COMMENT: CONFIDENCE Reference Standard (Level 1)
COMMENT: Chromatography method: dx.doi.org/10.1016/j.chroma.2015.11.014
COMMENT: Acquisition method: 10.1002/rcm.8541
CH$NAME: Benzyl-dimethyl-octylammonium
CH$COMPOUND_CLASS: Industrial_process
CH$FORMULA: [C17H30N]+
CH$EXACT_MASS: 248.2373
CH$SMILES: CCCCCCCC[N+](C)(C)Cc1ccccc1
CH$IUPAC: InChI=1S/C17H30N/c1-4-5-6-7-8-12-15-18(2,3)16-17-13-10-9-11-14-17/h9-11,13-14H,4-8,12,15-16H2,1-3H3/q+1
CH$LINK: CAS 46917-11-7
CH$LINK: INCHIKEY SHFLYPPECXRCFO-UHFFFAOYSA-N
AC$INSTRUMENT: TripleTOF 5600 SCIEX
AC$INSTRUMENT_TYPE: LC-ESI-QTOF
AC$MASS_SPECTROMETRY: MS_TYPE MS2
AC$MASS_SPECTROMETRY: ION_MODE POSITIVE
AC$MASS_SPECTROMETRY: COLLISION_ENERGY 130
AC$MASS_SPECTROMETRY: FRAGMENTATION_MODE CID
AC$MASS_SPECTROMETRY: IONIZATION ESI
AC$CHROMATOGRAPHY: COLUMN_NAME Zorbax Eclipse Plus C18 2.1 mm x 150 mm, 3.5 um, Agilent
AC$CHROMATOGRAPHY: COLUMN_TEMPERATURE 40 °C
AC$CHROMATOGRAPHY: FLOW_GRADIENT 0 min min 98% A, 1 min 98% A, 2 min 80% A, 16.5 min 2% A, 22 min 2% A, 22.1 min 98% A, 27 min 98% A
AC$CHROMATOGRAPHY: FLOW_RATE 0.3 mL/min
AC$CHROMATOGRAPHY: RETENTION_TIME 9.034 min
AC$CHROMATOGRAPHY: SOLVENT A: Water 0.1% Formic acid, B: Acetonitrile 0.1% Formic acid
MS$FOCUSED_ION: PRECURSOR_M/Z 248.2373
MS$FOCUSED_ION: PRECURSOR_TYPE [M]+
MS$DATA_PROCESSING: COMMENT Export with Spectra 1.9.12 MsBackendMassbank 1.7.4
MS$DATA_PROCESSING: WHOLE RMassBank 2.3.1
PK$SPLASH: splash10-014l-9000000000-226cc09a15d84d4d1609
PK$NUM_PEAK: 4
PK$PEAK: m/z int. rel.int.
  42.0429 3.3 114
  58.0706 6.2 214
  65.0434 28.9 999
  91.0554 11.9 411
//
