ACCESSION: MSBNK-BAFG-CSL2310308037
RECORD_TITLE: Dextrorphan; LC-ESI-QTOF; MS2; 40 V
DATE: 2023.10.30
AUTHORS: Kevin S. Jewell; Björn Ehlig; Arne Wick
LICENSE: dl-de/by-2-0
COPYRIGHT: Copyright 2023 Federal Institute of Hydrology, Koblenz, Germany
COMMENT: CONFIDENCE Reference Standard (Level 1)
COMMENT: Chromatography method: dx.doi.org/10.1016/j.chroma.2015.11.014
COMMENT: Acquisition method: 10.1002/rcm.8541
CH$NAME: Dextrorphan
CH$COMPOUND_CLASS: Pharmaceutical; Metabolite
CH$FORMULA: C17H23NO
CH$EXACT_MASS: 257.178
CH$SMILES: CN1CC[C@@]23CCCC[C@@H]2[C@@H]1CC4=C3C=C(C=C4)O
CH$IUPAC: InChI=1S/C17H23NO/c1-18-9-8-17-7-3-2-4-14(17)16(18)10-12-5-6-13(19)11-15(12)17/h5-6,11,14,16,19H,2-4,7-10H2,1H3/t14-,16+,17+/m1/s1
CH$LINK: CAS 125-73-5
CH$LINK: INCHIKEY JAQUASYNZVUNQP-PVAVHDDUSA-N
AC$INSTRUMENT: TripleTOF 5600 SCIEX
AC$INSTRUMENT_TYPE: LC-ESI-QTOF
AC$MASS_SPECTROMETRY: MS_TYPE MS2
AC$MASS_SPECTROMETRY: ION_MODE POSITIVE
AC$MASS_SPECTROMETRY: COLLISION_ENERGY 40
AC$MASS_SPECTROMETRY: FRAGMENTATION_MODE CID
AC$MASS_SPECTROMETRY: IONIZATION ESI
AC$CHROMATOGRAPHY: COLUMN_NAME Zorbax Eclipse Plus C18 2.1 mm x 150 mm, 3.5 um, Agilent
AC$CHROMATOGRAPHY: COLUMN_TEMPERATURE 40 °C
AC$CHROMATOGRAPHY: FLOW_GRADIENT 0 min min 98% A, 1 min 98% A, 2 min 80% A, 16.5 min 2% A, 22 min 2% A, 22.1 min 98% A, 27 min 98% A
AC$CHROMATOGRAPHY: FLOW_RATE 0.3 mL/min
AC$CHROMATOGRAPHY: RETENTION_TIME 5.969 min
AC$CHROMATOGRAPHY: SOLVENT A: Water 0.1% Formic acid, B: Acetonitrile 0.1% Formic acid
MS$FOCUSED_ION: PRECURSOR_M/Z 258.1852
MS$FOCUSED_ION: PRECURSOR_TYPE [M+H]+
MS$DATA_PROCESSING: COMMENT Export with Spectra 1.9.12 MsBackendMassbank 1.7.4
MS$DATA_PROCESSING: WHOLE RMassBank 2.3.1
PK$SPLASH: splash10-0a4j-0920000000-88482ddc3fed31e114d9
PK$NUM_PEAK: 28
PK$PEAK: m/z int. rel.int.
  44.0586 11.6 27
  69.0746 6.4 15
  81.0732 6.7 15
  95.087 5.5 13
  105.0705 15.7 37
  107.0501 29.5 69
  115.0544 5.9 13
  117.0708 6.1 14
  121.0652 11.1 26
  127.0546 12.5 29
  128.0627 12.2 28
  129.0704 19.8 46
  131.0499 11.3 26
  131.0856 6.2 14
  133.0661 260.5 615
  141.0706 6.5 15
  144.0581 6.5 15
  145.0662 107 252
  147.0806 8 18
  157.0663 422.6 999
  159.0815 84.5 199
  171.1178 22 52
  181.1014 9.8 23
  185.0966 21.2 50
  199.113 346 817
  201.1282 168.7 398
  227.1441 5.8 13
  258.1864 212.6 502
//
