ACCESSION: MSBNK-BAFG-CSL2501065371
RECORD_TITLE: Clenbuterol; LC-ESI-QTOF; MS2; 120 V
DATE: 2025.01.06
AUTHORS: Ole Lessmann; Kevin S. Jewell; Björn Ehlig; Arne Wick
LICENSE: dl-de/by-2-0
COPYRIGHT: Copyright 2025 Federal Institute of Hydrology, Koblenz, Germany
COMMENT: CONFIDENCE Reference Standard (Level 1)
COMMENT: Chromatography method: dx.doi.org/10.1016/j.chroma.2015.11.014
COMMENT: Acquisition method: 10.1002/rcm.8541
CH$NAME: Clenbuterol
CH$COMPOUND_CLASS: Pharmaceutical; Transformation_product-Metabolite
CH$FORMULA: C12H18Cl2N2O
CH$EXACT_MASS: 276.0796
CH$SMILES: CC(C)(C)NCC(c1cc(c(c(c1)Cl)N)Cl)O
CH$IUPAC: InChI=1S/C12H18Cl2N2O/c1-12(2,3)16-6-10(17)7-4-8(13)11(15)9(14)5-7/h4-5,10,16-17H,6,15H2,1-3H3
CH$LINK: CAS 37148-27-9
CH$LINK: INCHIKEY STJMRWALKKWQGH-UHFFFAOYSA-N
AC$INSTRUMENT: TripleTOF 5600 SCIEX
AC$INSTRUMENT_TYPE: LC-ESI-QTOF
AC$MASS_SPECTROMETRY: MS_TYPE MS2
AC$MASS_SPECTROMETRY: ION_MODE POSITIVE
AC$MASS_SPECTROMETRY: COLLISION_ENERGY 120
AC$MASS_SPECTROMETRY: FRAGMENTATION_MODE CID
AC$MASS_SPECTROMETRY: IONIZATION ESI
AC$CHROMATOGRAPHY: COLUMN_NAME Zorbax Eclipse Plus C18 2.1 mm x 150 mm, 3.5 um, Agilent
AC$CHROMATOGRAPHY: COLUMN_TEMPERATURE 40 °C
AC$CHROMATOGRAPHY: FLOW_GRADIENT 0 min min 98% A, 1 min 98% A, 2 min 80% A, 16.5 min 2% A, 22 min 2% A, 22.1 min 98% A, 27 min 98% A
AC$CHROMATOGRAPHY: FLOW_RATE 0.3 mL/min
AC$CHROMATOGRAPHY: RETENTION_TIME 6.115 min
AC$CHROMATOGRAPHY: SOLVENT A: Water 0.1% Formic acid, B: Acetonitrile 0.1% Formic acid
MS$FOCUSED_ION: PRECURSOR_M/Z 277.0869
MS$FOCUSED_ION: PRECURSOR_TYPE [M+H]+
MS$DATA_PROCESSING: COMMENT Export with pycsl 0.1.0.dev1 and CSL 24.4
PK$SPLASH: splash10-0fb9-9500000000-b96050ba8ea6bb5d52e0
PK$NUM_PEAK: 45
PK$PEAK: m/z int. rel.int.
  42.0439 0.5 15
  52.0241 0.5 15
  57.0755 4.5 137
  58.0696 1.9 58
  64.0357 0.5 15
  65.0434 1.3 39
  67.0479 0.9 27
  72.9873 2.5 76
  74.018 3.3 100
  74.0332 0.5 15
  75.0257 4.7 143
  76.0209 1.3 39
  76.0331 0.8 24
  77.0416 32.7 999
  77.0756 0.6 18
  78.0371 4.6 140
  78.0487 4.1 125
  79.045 1.5 45
  79.0543 1.1 33
  80.0523 1.9 58
  86.0161 0.5 15
  87.0243 0.4 12
  88.0327 1.5 45
  89.0405 10.0 305
  90.0353 2.0 61
  90.0486 0.8 24
  91.0427 0.8 24
  92.0546 0.5 15
  96.9853 0.7 21
  99.0001 0.9 27
  102.035 1.5 45
  104.0501 27.3 834
  105.0582 4.1 125
  106.0666 1.6 48
  113.0172 0.8 24
  114.0337 0.8 24
  115.0425 0.4 12
  116.0495 0.8 24
  117.056 1.8 54
  122.9988 0.8 24
  127.0185 0.6 18
  131.0602 5.3 161
  132.0683 1.8 54
  138.0113 0.5 15
  140.0259 1.7 51
//