ACCESSION: MSBNK-BAFG-CSL25010634372
RECORD_TITLE: 3,3`-Dichlorobenzidine; LC-ESI-QTOF; MS2; 110 V
DATE: 2025.01.06
AUTHORS: Ole Lessmann; Kevin S. Jewell; Björn Ehlig; Arne Wick
LICENSE: dl-de/by-2-0
COPYRIGHT: Copyright 2025 Federal Institute of Hydrology, Koblenz, Germany
COMMENT: CONFIDENCE Reference Standard (Level 1)
COMMENT: Chromatography method: dx.doi.org/10.1016/j.chroma.2015.11.014
COMMENT: Acquisition method: 10.1002/rcm.8541
CH$NAME: 3,3`-Dichlorobenzidine
CH$FORMULA: C12H10Cl2N2
CH$EXACT_MASS: 252.0221
CH$SMILES: C1=CC(=C(C=C1C2=CC(=C(C=C2)N)Cl)Cl)N
CH$IUPAC: InChI=1S/C12H10Cl2N2/c13-9-5-7(1-3-11(9)15)8-2-4-12(16)10(14)6-8/h1-6H,15-16H2
CH$LINK: CAS 91-94-1
CH$LINK: INCHIKEY HUWXDEQWWKGHRV-UHFFFAOYSA-N
AC$INSTRUMENT: TripleTOF 6600 SCIEX
AC$INSTRUMENT_TYPE: LC-ESI-QTOF
AC$MASS_SPECTROMETRY: MS_TYPE MS2
AC$MASS_SPECTROMETRY: ION_MODE POSITIVE
AC$MASS_SPECTROMETRY: COLLISION_ENERGY 110
AC$MASS_SPECTROMETRY: FRAGMENTATION_MODE CID
AC$MASS_SPECTROMETRY: IONIZATION ESI
AC$CHROMATOGRAPHY: COLUMN_NAME Zorbax Eclipse Plus C18 2.1 mm x 150 mm, 3.5 um, Agilent
AC$CHROMATOGRAPHY: COLUMN_TEMPERATURE 40 °C
AC$CHROMATOGRAPHY: FLOW_GRADIENT 0 min min 98% A, 1 min 98% A, 2 min 80% A, 16.5 min 2% A, 22 min 2% A, 22.1 min 98% A, 27 min 98% A
AC$CHROMATOGRAPHY: FLOW_RATE 0.3 mL/min
AC$CHROMATOGRAPHY: RETENTION_TIME 11.426 min
AC$CHROMATOGRAPHY: SOLVENT A: Water 0.1% Formic acid, B: Acetonitrile 0.1% Formic acid
MS$FOCUSED_ION: PRECURSOR_M/Z 253.0294
MS$FOCUSED_ION: PRECURSOR_TYPE [M+H]+
MS$DATA_PROCESSING: COMMENT Export with pycsl 0.1.0.dev1 and CSL 24.4
PK$SPLASH: splash10-004i-9500000000-4e480b8aaee02c29a3a3
PK$NUM_PEAK: 65
PK$PEAK: m/z int. rel.int.
  37.0079 0.5 14
  38.0153 0.5 14
  39.0239 1.9 55
  50.0152 2.6 76
  51.0233 11.6 341
  52.0186 1.2 35
  60.0002 0.5 14
  61.0079 1.9 55
  62.0156 5.5 162
  63.0233 11.7 344
  65.0403 1.1 32
  73.0072 1.2 35
  74.0152 14.5 427
  75.0231 19.7 580
  76.03 3.1 91
  77.0385 33.9 999
  78.0357 0.5 14
  78.0463 0.9 26
  85.007 2.6 76
  86.0155 10.3 303
  87.0228 7.9 232
  88.0308 3.0 88
  89.0386 6.0 176
  90.0329 0.6 17
  93.0551 0.4 11
  98.0148 6.3 185
  99.0217 6.1 179
  100.0178 0.5 14
  100.0292 1.0 29
  101.0382 8.3 244
  102.0347 0.5 14
  102.0461 4.6 135
  103.0566 2.2 64
  104.0513 0.7 20
  105.0459 0.4 11
  109.0073 0.7 20
  110.016 1.5 44
  111.0216 2.3 67
  112.022 0.5 14
  113.0383 3.6 106
  114.034 0.6 17
  114.0444 0.6 17
  115.0534 0.8 23
  117.0579 0.5 14
  122.0173 0.8 23
  125.0384 2.1 61
  126.0461 18.9 556
  127.0541 10.4 306
  128.0495 3.1 91
  128.0673 0.4 11
  129.0455 1.5 44
  130.0643 1.0 29
  137.04 9.4 277
  138.0318 0.5 14
  138.0478 1.5 44
  139.0555 2.5 73
  140.0492 1.3 38
  151.0414 0.7 20
  152.0491 3.1 91
  153.0585 2.3 67
  154.0471 0.6 17
  154.0654 2.5 73
  155.0607 1.0 29
  164.0503 1.7 50
  179.0593 1.0 29
//