ACCESSION: MSBNK-BAFG-CSL2310304782
RECORD_TITLE: Iopromide; LC-ESI-QTOF; MS2; 120 V
DATE: 2023.10.30
AUTHORS: Kevin S. Jewell; Björn Ehlig; Arne Wick
LICENSE: dl-de/by-2-0
COPYRIGHT: Copyright 2023 Federal Institute of Hydrology, Koblenz, Germany
COMMENT: CONFIDENCE Reference Standard (Level 1)
COMMENT: Chromatography method: dx.doi.org/10.1016/j.chroma.2015.11.014
COMMENT: Acquisition method: 10.1002/rcm.8541
CH$NAME: Iopromide
CH$COMPOUND_CLASS: Pharmaceutical
CH$FORMULA: C18H24I3N3O8
CH$EXACT_MASS: 790.8698
CH$SMILES: COCC(=O)Nc1c(I)c(C(=O)NCC(O)CO)c(I)c(c1I)C(=O)N(C)CC(O)CO
CH$IUPAC: InChI=1S/C18H24I3N3O8/c1-24(4-9(28)6-26)18(31)12-13(19)11(17(30)22-3-8(27)5-25)14(20)16(15(12)21)23-10(29)7-32-2/h8-9,25-28H,3-7H2,1-2H3,(H,22,30)(H,23,29)
CH$LINK: CAS 73334-07-3
CH$LINK: INCHIKEY DGAIEPBNLOQYER-UHFFFAOYSA-N
AC$INSTRUMENT: TripleTOF 5600 SCIEX
AC$INSTRUMENT_TYPE: LC-ESI-QTOF
AC$MASS_SPECTROMETRY: MS_TYPE MS2
AC$MASS_SPECTROMETRY: ION_MODE POSITIVE
AC$MASS_SPECTROMETRY: COLLISION_ENERGY 120
AC$MASS_SPECTROMETRY: FRAGMENTATION_MODE CID
AC$MASS_SPECTROMETRY: IONIZATION ESI
AC$CHROMATOGRAPHY: COLUMN_NAME Zorbax Eclipse Plus C18 2.1 mm x 150 mm, 3.5 um, Agilent
AC$CHROMATOGRAPHY: COLUMN_TEMPERATURE 40 °C
AC$CHROMATOGRAPHY: FLOW_GRADIENT 0 min min 98% A, 1 min 98% A, 2 min 80% A, 16.5 min 2% A, 22 min 2% A, 22.1 min 98% A, 27 min 98% A
AC$CHROMATOGRAPHY: FLOW_RATE 0.3 mL/min
AC$CHROMATOGRAPHY: RETENTION_TIME 4.895 min
AC$CHROMATOGRAPHY: SOLVENT A: Water 0.1% Formic acid, B: Acetonitrile 0.1% Formic acid
MS$FOCUSED_ION: PRECURSOR_M/Z 791.877
MS$FOCUSED_ION: PRECURSOR_TYPE [M+H]+
MS$DATA_PROCESSING: COMMENT Export with Spectra 1.9.12 MsBackendMassbank 1.7.4
MS$DATA_PROCESSING: WHOLE RMassBank 2.3.1
PK$SPLASH: splash10-006t-0891000000-a3ba68d3c013f927dc42
PK$NUM_PEAK: 55
PK$PEAK: m/z int. rel.int.
  88.019 0.7 68
  89.0258 1.3 127
  100.0186 0.7 68
  101.0255 1.2 117
  101.9998 0.6 58
  102.0345 0.5 48
  103.0391 0.5 48
  113.9959 0.6 58
  116.012 0.9 88
  116.036 0.5 48
  117.0206 5.5 538
  126.9052 0.4 39
  128.0127 0.7 68
  129.0187 0.5 48
  130.0525 0.5 48
  141.9916 2.2 215
  144.0073 0.6 58
  145.0146 1.6 156
  152.9202 0.7 68
  158.0205 0.8 78
  159.0301 0.4 39
  159.0569 0.7 68
  171.0215 0.5 48
  172.0014 1.5 146
  172.0272 0.8 78
  173.0099 1.8 176
  174.0221 0.4 39
  176.9225 0.5 48
  177.9129 0.9 88
  188.0337 0.5 48
  200.9061 0.7 68
  203.93 0.8 78
  212.9042 0.4 39
  215.9307 0.7 68
  226.9243 1.2 117
  227.9275 1.3 127
  228.9193 0.4 39
  240.905 0.4 39
  242.9158 0.8 78
  243.9235 2.2 215
  255.9235 2.7 264
  269.9413 0.6 58
  271.9186 4.2 411
  282.9166 0.9 88
  298.9091 0.6 58
  298.933 0.6 58
  299.9146 10.2 999
  312.953 0.5 48
  313.9332 0.8 78
  327.8124 0.7 68
  339.8103 0.7 68
  354.8409 0.8 78
  381.8239 0.4 39
  423.7893 0.4 39
  423.813 0.6 58
//
