ACCESSION: MSBNK-BAFG-CSL23102512350
RECORD_TITLE: 4-Ethoxybenzyltriphenylphosphonium; LC-ESI-QTOF; MS2; 130 V
DATE: 2023.10.25
AUTHORS: Kevin S. Jewell; Björn Ehlig; Arne Wick
LICENSE: dl-de/by-2-0
COPYRIGHT: Copyright 2023 Federal Institute of Hydrology, Koblenz, Germany
COMMENT: CONFIDENCE Reference Standard (Level 1)
COMMENT: Chromatography method: dx.doi.org/10.1016/j.chroma.2015.11.014
COMMENT: Acquisition method: 10.1002/rcm.8541
CH$NAME: 4-Ethoxybenzyltriphenylphosphonium
CH$FORMULA: C27H26OP
CH$EXACT_MASS: 397.1716
CH$SMILES: CCOC1=CC=C(C=C1)C[P+](C2=CC=CC=C2)(C3=CC=CC=C3)C4=CC=CC=C4
CH$IUPAC: InChI=1S/C27H26OP/c1-2-28-24-20-18-23(19-21-24)22-29(25-12-6-3-7-13-25,26-14-8-4-9-15-26)27-16-10-5-11-17-27/h3-21H,2,22H2,1H3/q+1
CH$LINK: CAS 82105-88-2
CH$LINK: INCHIKEY QCMHSYZNHGLMAU-UHFFFAOYSA-N
AC$INSTRUMENT: TripleTOF 5600 SCIEX
AC$INSTRUMENT_TYPE: LC-ESI-QTOF
AC$MASS_SPECTROMETRY: MS_TYPE MS2
AC$MASS_SPECTROMETRY: ION_MODE POSITIVE
AC$MASS_SPECTROMETRY: COLLISION_ENERGY 130
AC$MASS_SPECTROMETRY: FRAGMENTATION_MODE CID
AC$MASS_SPECTROMETRY: IONIZATION ESI
AC$CHROMATOGRAPHY: COLUMN_NAME Zorbax Eclipse Plus C18 2.1 mm x 150 mm, 3.5 um, Agilent
AC$CHROMATOGRAPHY: COLUMN_TEMPERATURE 40 °C
AC$CHROMATOGRAPHY: FLOW_GRADIENT 0 min min 98% A, 1 min 98% A, 2 min 80% A, 16.5 min 2% A, 22 min 2% A, 22.1 min 98% A, 27 min 98% A
AC$CHROMATOGRAPHY: FLOW_RATE 0.3 mL/min
AC$CHROMATOGRAPHY: RETENTION_TIME 9.454 min
AC$CHROMATOGRAPHY: SOLVENT A: Water 0.1% Formic acid, B: Acetonitrile 0.1% Formic acid
MS$FOCUSED_ION: PRECURSOR_M/Z 397.1716
MS$FOCUSED_ION: PRECURSOR_TYPE [M]+
MS$DATA_PROCESSING: COMMENT Export with Spectra 1.9.12 MsBackendMassbank 1.7.4
MS$DATA_PROCESSING: WHOLE RMassBank 2.3.1
PK$SPLASH: splash10-056r-9400000000-538c242a80555aee0cf1
PK$NUM_PEAK: 4
PK$PEAK: m/z int. rel.int.
  51.0231 50.1 160
  77.0374 311.7 999
  79.0528 31.1 99
  107.0476 178 570
//
