ACCESSION: MSBNK-BAFG-CSL25010627873
RECORD_TITLE: Iminostilbene; LC-ESI-QTOF; MS2; 140 V
DATE: 2025.01.06
AUTHORS: Ole Lessmann; Kevin S. Jewell; Björn Ehlig; Arne Wick
LICENSE: dl-de/by-2-0
COPYRIGHT: Copyright 2025 Federal Institute of Hydrology, Koblenz, Germany
COMMENT: CONFIDENCE Reference Standard (Level 1)
COMMENT: Chromatography method: dx.doi.org/10.1016/j.chroma.2015.11.014
COMMENT: Acquisition method: 10.1002/rcm.8541
CH$NAME: Iminostilbene
CH$COMPOUND_CLASS: Pharmaceutical
CH$FORMULA: C14H11N
CH$EXACT_MASS: 193.0891
CH$SMILES: C1=CC=C2C(=C1)C=CC3=CC=CC=C3N2
CH$IUPAC: InChI=1S/C14H11N/c1-3-7-13-11(5-1)9-10-12-6-2-4-8-14(12)15-13/h1-10,15H
CH$LINK: CAS 256-96-2
CH$LINK: INCHIKEY LCGTWRLJTMHIQZ-UHFFFAOYSA-N
AC$INSTRUMENT: TripleTOF 6600 SCIEX
AC$INSTRUMENT_TYPE: LC-ESI-QTOF
AC$MASS_SPECTROMETRY: MS_TYPE MS2
AC$MASS_SPECTROMETRY: ION_MODE POSITIVE
AC$MASS_SPECTROMETRY: COLLISION_ENERGY 140
AC$MASS_SPECTROMETRY: FRAGMENTATION_MODE CID
AC$MASS_SPECTROMETRY: IONIZATION ESI
AC$CHROMATOGRAPHY: COLUMN_NAME Zorbax Eclipse Plus C18 2.1 mm x 150 mm, 3.5 um, Agilent
AC$CHROMATOGRAPHY: COLUMN_TEMPERATURE 40 °C
AC$CHROMATOGRAPHY: FLOW_GRADIENT 0 min min 98% A, 1 min 98% A, 2 min 80% A, 16.5 min 2% A, 22 min 2% A, 22.1 min 98% A, 27 min 98% A
AC$CHROMATOGRAPHY: FLOW_RATE 0.3 mL/min
AC$CHROMATOGRAPHY: RETENTION_TIME 13.175 min
AC$CHROMATOGRAPHY: SOLVENT A: Water 0.1% Formic acid, B: Acetonitrile 0.1% Formic acid
MS$FOCUSED_ION: PRECURSOR_M/Z 194.0964
MS$FOCUSED_ION: PRECURSOR_TYPE [M+H]+
MS$DATA_PROCESSING: COMMENT Export with pycsl 0.1.0.dev1 and CSL 24.4
PK$SPLASH: splash10-0ik9-9000000000-3faeb4212507aee17274
PK$NUM_PEAK: 50
PK$PEAK: m/z int. rel.int.
  35.9964 21.8 95
  37.0043 87.6 382
  38.0006 3.5 15
  38.0118 52.5 229
  39.0196 72.2 315
  49.0031 61.1 266
  50.0109 228.7 999
  51.0185 89.2 389
  52.0136 5.7 24
  52.0255 3.1 13
  59.9941 16.5 72
  61.002 146.1 638
  62.0098 183.7 802
  63.0174 125.0 546
  64.0122 3.8 16
  65.0332 2.8 12
  73.0006 55.2 241
  74.0086 180.4 788
  75.0042 7.0 30
  75.0157 29.9 130
  76.0108 3.5 15
  76.0238 3.6 15
  77.0316 2.9 12
  83.9915 15.1 65
  84.9995 84.0 366
  86.0072 85.8 374
  87.0024 2.6 11
  87.0149 29.8 130
  88.0099 4.9 21
  89.0301 10.7 46
  96.9983 31.2 136
  98.0062 77.1 336
  99.0012 7.4 32
  99.0138 5.1 22
  107.9896 4.5 19
  108.9974 32.9 143
  110.005 30.0 131
  111.0005 3.3 14
  111.0128 7.0 30
  113.0283 5.0 21
  119.9884 4.1 17
  120.9963 5.9 25
  122.0036 12.9 56
  131.9876 2.4 10
  132.9947 2.7 11
  134.0024 4.4 19
  137.026 3.5 15
  161.0241 6.8 29
  162.0317 3.4 14
  163.0387 3.0 13
//