ACCESSION: MSBNK-BAFG-CSL25011734644
RECORD_TITLE: Metachrome Yellow free acid; LC-ESI-QTOF; MS2; 40 V
DATE: 2025.01.17
AUTHORS: Ole Lessmann; Kevin S. Jewell; Björn Ehlig; Arne Wick
LICENSE: dl-de/by-2-0
COPYRIGHT: Copyright 2025 Federal Institute of Hydrology, Koblenz, Germany
COMMENT: CONFIDENCE Reference Standard (Level 1)
COMMENT: Chromatography method: dx.doi.org/10.1016/j.chroma.2015.11.014
CH$NAME: Metachrome Yellow free acid
CH$FORMULA: C13H9N3O5
CH$EXACT_MASS: 287.0542
CH$SMILES: C1=CC(=CC(=C1)[N+](=O)[O-])N=NC2=CC(=C(C=C2)O)C(=O)O
CH$IUPAC: InChI=1S/C13H9N3O5/c17-12-5-4-9(7-11(12)13(18)19)15-14-8-2-1-3-10(6-8)16(20)21/h1-7,17H,(H,18,19)
CH$LINK: CAS 6283-26-7
CH$LINK: INCHIKEY LJOXBIGRIKPBSQ-UHFFFAOYSA-N
AC$INSTRUMENT: TripleTOF 6600 SCIEX
AC$INSTRUMENT_TYPE: LC-ESI-QTOF
AC$MASS_SPECTROMETRY: MS_TYPE MS2
AC$MASS_SPECTROMETRY: ION_MODE POSITIVE
AC$MASS_SPECTROMETRY: COLLISION_ENERGY 40
AC$MASS_SPECTROMETRY: FRAGMENTATION_MODE CID
AC$MASS_SPECTROMETRY: IONIZATION ESI
AC$CHROMATOGRAPHY: COLUMN_NAME Zorbax Eclipse Plus C18 2.1 mm x 150 mm, 3.5 um, Agilent
AC$CHROMATOGRAPHY: COLUMN_TEMPERATURE 40 °C
AC$CHROMATOGRAPHY: FLOW_GRADIENT 0 min min 98% A, 1 min 98% A, 2 min 80% A, 16.5 min 2% A, 22 min 2% A, 22.1 min 98% A, 27 min 98% A
AC$CHROMATOGRAPHY: FLOW_RATE 0.3 mL/min
AC$CHROMATOGRAPHY: RETENTION_TIME 11.919 min
AC$CHROMATOGRAPHY: SOLVENT A: Water 0.1% Formic acid, B: Acetonitrile 0.1% Formic acid
MS$FOCUSED_ION: PRECURSOR_M/Z 288.0615
MS$FOCUSED_ION: PRECURSOR_TYPE [M+H]+
MS$DATA_PROCESSING: COMMENT Export with pycsl 0.1.0.dev1 and CSL 25.0
PK$SPLASH: splash10-00xu-3970000000-403a26166b1ce2464a7a
PK$NUM_PEAK: 47
PK$PEAK: m/z int. rel.int.
  63.022 9.0 80
  64.03 17.6 158
  75.0218 18.1 162
  76.029 2.7 24
  77.0376 1.1 9
  80.0128 1.2 10
  91.0165 12.1 108
  92.0244 42.2 379
  106.0266 1.6 14
  114.0469 2.5 22
  117.0535 1.4 12
  119.0118 21.5 193
  120.0308 2.7 24
  122.0221 17.7 159
  128.0503 1.2 10
  128.06 1.4 12
  134.0203 9.1 81
  139.0536 13.8 124
  140.0511 15.6 140
  141.0574 6.1 54
  142.0502 6.4 57
  143.0614 1.2 10
  147.0171 3.9 35
  150.0287 25.9 232
  154.0486 1.4 12
  155.0568 5.7 51
  166.0541 1.3 11
  167.0586 16.8 151
  168.0669 43.9 394
  169.0506 1.7 15
  170.0453 3.2 28
  171.0549 1.2 10
  179.059 1.9 17
  182.0426 1.2 10
  183.0518 1.2 10
  184.0599 1.6 14
  186.0517 1.5 13
  195.0551 18.3 164
  196.062 32.0 287
  211.0499 1.2 10
  214.0584 2.8 25
  222.0397 1.6 14
  223.0491 7.8 70
  224.0571 8.3 74
  242.0561 72.2 649
  253.0472 1.3 11
  270.0505 111.1 999
//
