ACCESSION: MSBNK-BAFG-CSL23103016101
RECORD_TITLE: Lumichrome; LC-ESI-QTOF; MS2; 110 V
DATE: 2023.10.30
AUTHORS: Kevin S. Jewell; Björn Ehlig; Arne Wick
LICENSE: dl-de/by-2-0
COPYRIGHT: Copyright 2023 Federal Institute of Hydrology, Koblenz, Germany
COMMENT: CONFIDENCE Reference Standard (Level 1)
COMMENT: Chromatography method: dx.doi.org/10.1016/j.chroma.2015.11.014
COMMENT: Acquisition method: 10.1002/rcm.8541
CH$NAME: Lumichrome
CH$COMPOUND_CLASS: Pharmaceutical
CH$FORMULA: C12H10N4O2
CH$EXACT_MASS: 242.0804
CH$SMILES: CC1=CC2=C(C=C1C)N=C3C(=N2)C(=O)NC(=O)N3
CH$IUPAC: InChI=1S/C12H10N4O2/c1-5-3-7-8(4-6(5)2)14-10-9(13-7)11(17)16-12(18)15-10/h3-4H,1-2H3,(H2,14,15,16,17,18)
CH$LINK: CAS 1086-80-2
CH$LINK: INCHIKEY ZJTJUVIJVLLGSP-UHFFFAOYSA-N
AC$INSTRUMENT: TripleTOF 6600 SCIEX
AC$INSTRUMENT_TYPE: LC-ESI-QTOF
AC$MASS_SPECTROMETRY: MS_TYPE MS2
AC$MASS_SPECTROMETRY: ION_MODE POSITIVE
AC$MASS_SPECTROMETRY: COLLISION_ENERGY 110
AC$MASS_SPECTROMETRY: FRAGMENTATION_MODE CID
AC$MASS_SPECTROMETRY: IONIZATION ESI
AC$CHROMATOGRAPHY: COLUMN_NAME Zorbax Eclipse Plus C18 2.1 mm x 150 mm, 3.5 um, Agilent
AC$CHROMATOGRAPHY: COLUMN_TEMPERATURE 40 °C
AC$CHROMATOGRAPHY: FLOW_GRADIENT 0 min min 98% A, 1 min 98% A, 2 min 80% A, 16.5 min 2% A, 22 min 2% A, 22.1 min 98% A, 27 min 98% A
AC$CHROMATOGRAPHY: FLOW_RATE 0.3 mL/min
AC$CHROMATOGRAPHY: RETENTION_TIME 7.067 min
AC$CHROMATOGRAPHY: SOLVENT A: Water 0.1% Formic acid, B: Acetonitrile 0.1% Formic acid
MS$FOCUSED_ION: PRECURSOR_M/Z 243.0877
MS$FOCUSED_ION: PRECURSOR_TYPE [M+H]+
MS$DATA_PROCESSING: COMMENT Export with Spectra 1.9.12 MsBackendMassbank 1.7.4
MS$DATA_PROCESSING: WHOLE RMassBank 2.3.1
PK$SPLASH: splash10-0udi-9000000000-04cf2d9c5dbb8d55f209
PK$NUM_PEAK: 29
PK$PEAK: m/z int. rel.int.
  37.0078 0.8 22
  38.0153 0.7 19
  39.0236 3.2 90
  44.0135 0.9 25
  49.0079 4.2 118
  50.0158 16.5 464
  51.0236 35.5 999
  52.0186 1.1 30
  61.0075 1.6 45
  62.0158 3.5 98
  63.0234 6.5 182
  64.0194 1.4 39
  65.0389 3.4 95
  73.0078 0.7 19
  74.0158 5.2 146
  75.0116 1.2 33
  75.0233 4.1 115
  76.019 2.7 75
  76.031 1.8 50
  77.0391 12.5 351
  78.0469 0.5 14
  88.0176 0.5 14
  89.0388 4.5 126
  90.047 0.4 11
  91.0549 0.9 25
  102.0335 0.7 19
  102.0471 1.1 30
  105.0448 0.5 14
  114.0341 0.4 11
//
