ACCESSION: MSBNK-BAFG-CSL2310253152
RECORD_TITLE: Ethyldiphenylphosphine oxide; LC-ESI-QTOF; MS2; 110 V
DATE: 2023.10.25
AUTHORS: Kevin S. Jewell; Björn Ehlig; Arne Wick
LICENSE: dl-de/by-2-0
COPYRIGHT: Copyright 2023 Federal Institute of Hydrology, Koblenz, Germany
COMMENT: CONFIDENCE Reference Standard (Level 1)
COMMENT: Chromatography method: dx.doi.org/10.1016/j.chroma.2015.11.014
COMMENT: Acquisition method: 10.1002/rcm.8541
CH$NAME: Ethyldiphenylphosphine oxide
CH$COMPOUND_CLASS: Industrial_process
CH$FORMULA: C14H15OP
CH$EXACT_MASS: 230.0861
CH$SMILES: CC[P](=O)(c1ccccc1)c2ccccc2
CH$IUPAC: InChI=1S/C14H15OP/c1-2-16(15,13-9-5-3-6-10-13)14-11-7-4-8-12-14/h3-12H,2H2,1H3
CH$LINK: CAS 1733-57-9
CH$LINK: INCHIKEY AKTGKEBIBGSCLD-UHFFFAOYSA-N
AC$INSTRUMENT: TripleTOF 5600 SCIEX
AC$INSTRUMENT_TYPE: LC-ESI-QTOF
AC$MASS_SPECTROMETRY: MS_TYPE MS2
AC$MASS_SPECTROMETRY: ION_MODE POSITIVE
AC$MASS_SPECTROMETRY: COLLISION_ENERGY 110
AC$MASS_SPECTROMETRY: FRAGMENTATION_MODE CID
AC$MASS_SPECTROMETRY: IONIZATION ESI
AC$CHROMATOGRAPHY: COLUMN_NAME Zorbax Eclipse Plus C18 2.1 mm x 150 mm, 3.5 um, Agilent
AC$CHROMATOGRAPHY: COLUMN_TEMPERATURE 40 °C
AC$CHROMATOGRAPHY: FLOW_GRADIENT 0 min min 98% A, 1 min 98% A, 2 min 80% A, 16.5 min 2% A, 22 min 2% A, 22.1 min 98% A, 27 min 98% A
AC$CHROMATOGRAPHY: FLOW_RATE 0.3 mL/min
AC$CHROMATOGRAPHY: RETENTION_TIME 8.816 min
AC$CHROMATOGRAPHY: SOLVENT A: Water 0.1% Formic acid, B: Acetonitrile 0.1% Formic acid
MS$FOCUSED_ION: PRECURSOR_M/Z 231.0933
MS$FOCUSED_ION: PRECURSOR_TYPE [M+H]+
MS$DATA_PROCESSING: COMMENT Export with Spectra 1.9.12 MsBackendMassbank 1.7.4
MS$DATA_PROCESSING: WHOLE RMassBank 2.3.1
PK$SPLASH: splash10-0udi-8900000000-40683b5b382ebaa52f1f
PK$NUM_PEAK: 31
PK$PEAK: m/z int. rel.int.
  47.0132 11.3 620
  51.03 18.2 999
  52.036 2.5 137
  56.9933 2.9 159
  65.0435 4.1 225
  74.0176 2.9 159
  75.026 1.3 71
  76.0333 2.8 153
  77.0417 12 658
  78.049 5.6 307
  79.983 2.3 126
  80.9906 2.6 142
  87.0244 1.5 82
  89.0401 4.3 236
  102.0466 3.7 203
  107.0051 6.2 340
  113.0385 1.3 71
  115.0539 3.8 208
  125.0388 1.1 60
  126.0466 9.4 515
  127.0549 1.5 82
  139.0546 3 164
  150.0465 8.3 455
  151.0543 14.9 817
  152.0626 15.8 867
  157.0198 2 109
  163.055 1.3 71
  164.0622 1.1 60
  170.0278 1.7 93
  180.0122 1.4 76
  181.0213 3.9 214
//
