ACCESSION: MSBNK-BAFG-CSL2310251992
RECORD_TITLE: Fenbendazole; LC-ESI-QTOF; MS2; 80 V
DATE: 2023.10.25
AUTHORS: Kevin S. Jewell; Björn Ehlig; Arne Wick
LICENSE: dl-de/by-2-0
COPYRIGHT: Copyright 2023 Federal Institute of Hydrology, Koblenz, Germany
COMMENT: CONFIDENCE Reference Standard (Level 1)
COMMENT: Chromatography method: dx.doi.org/10.1016/j.chroma.2015.11.014
COMMENT: Acquisition method: 10.1002/rcm.8541
CH$NAME: Fenbendazole
CH$COMPOUND_CLASS: Pharmaceutical
CH$FORMULA: C15H13N3O2S
CH$EXACT_MASS: 299.0728
CH$SMILES: COC(=O)Nc1[nH]c2cc(Sc3ccccc3)ccc2n1
CH$IUPAC: InChI=1S/C15H13N3O2S/c1-20-15(19)18-14-16-12-8-7-11(9-13(12)17-14)21-10-5-3-2-4-6-10/h2-9H,1H3,(H2,16,17,18,19)
CH$LINK: CAS 43210-67-9
CH$LINK: INCHIKEY HDDSHPAODJUKPD-UHFFFAOYSA-N
AC$INSTRUMENT: TripleTOF 5600 SCIEX
AC$INSTRUMENT_TYPE: LC-ESI-QTOF
AC$MASS_SPECTROMETRY: MS_TYPE MS2
AC$MASS_SPECTROMETRY: ION_MODE NEGATIVE
AC$MASS_SPECTROMETRY: COLLISION_ENERGY 80
AC$MASS_SPECTROMETRY: FRAGMENTATION_MODE CID
AC$MASS_SPECTROMETRY: IONIZATION ESI
AC$CHROMATOGRAPHY: COLUMN_NAME Zorbax Eclipse Plus C18 2.1 mm x 150 mm, 3.5 um, Agilent
AC$CHROMATOGRAPHY: COLUMN_TEMPERATURE 40 °C
AC$CHROMATOGRAPHY: FLOW_GRADIENT 0 min min 98% A, 1 min 98% A, 2 min 80% A, 16.5 min 2% A, 22 min 2% A, 22.1 min 98% A, 27 min 98% A
AC$CHROMATOGRAPHY: FLOW_RATE 0.3 mL/min
AC$CHROMATOGRAPHY: RETENTION_TIME 9.947 min
AC$CHROMATOGRAPHY: SOLVENT A: Water 0.1% Formic acid, B: Acetonitrile 0.1% Formic acid
MS$FOCUSED_ION: PRECURSOR_M/Z 298.0656
MS$FOCUSED_ION: PRECURSOR_TYPE [M-H]-
MS$DATA_PROCESSING: COMMENT Export with Spectra 1.9.12 MsBackendMassbank 1.7.4
MS$DATA_PROCESSING: WHOLE RMassBank 2.3.1
PK$SPLASH: splash10-0a4i-4900000000-37b0d2b48ecb862f1505
PK$NUM_PEAK: 12
PK$PEAK: m/z int. rel.int.
  57.9762 7.1 788
  65.0139 0.9 99
  81.9744 1.5 166
  106.9805 0.6 66
  108.986 0.7 77
  132.9861 1.2 133
  133.9928 1.5 166
  135.0008 0.7 77
  156.0204 1.1 122
  159.9961 9 999
  161.0028 1.8 199
  188.9953 1.3 144
//
