ACCESSION: MSBNK-BAFG-CSL23103017100
RECORD_TITLE: Mandipropamid; LC-ESI-QTOF; MS2; 40 V
DATE: 2023.10.30
AUTHORS: Kevin S. Jewell; Björn Ehlig; Arne Wick
LICENSE: dl-de/by-2-0
COPYRIGHT: Copyright 2023 Federal Institute of Hydrology, Koblenz, Germany
COMMENT: CONFIDENCE Reference Standard (Level 1)
COMMENT: Chromatography method: dx.doi.org/10.1016/j.chroma.2015.11.014
COMMENT: Acquisition method: 10.1002/rcm.8541
CH$NAME: Mandipropamid
CH$COMPOUND_CLASS: Fungicide
CH$FORMULA: C23H22ClNO4
CH$EXACT_MASS: 411.1237
CH$SMILES: COC1=C(C=CC(=C1)CCNC(=O)C(C2=CC=C(C=C2)Cl)OCC#C)OCC#C
CH$IUPAC: InChI=1S/C23H22ClNO4/c1-4-14-28-20-11-6-17(16-21(20)27-3)12-13-25-23(26)22(29-15-5-2)18-7-9-19(24)10-8-18/h1-2,6-11,16,22H,12-15H2,3H3,(H,25,26)
CH$LINK: CAS 374726-62-2
CH$LINK: INCHIKEY KWLVWJPJKJMCSH-UHFFFAOYSA-N
AC$INSTRUMENT: TripleTOF 6600 SCIEX
AC$INSTRUMENT_TYPE: LC-ESI-QTOF
AC$MASS_SPECTROMETRY: MS_TYPE MS2
AC$MASS_SPECTROMETRY: ION_MODE POSITIVE
AC$MASS_SPECTROMETRY: COLLISION_ENERGY 40
AC$MASS_SPECTROMETRY: FRAGMENTATION_MODE CID
AC$MASS_SPECTROMETRY: IONIZATION ESI
AC$CHROMATOGRAPHY: COLUMN_NAME Zorbax Eclipse Plus C18 2.1 mm x 150 mm, 3.5 um, Agilent
AC$CHROMATOGRAPHY: COLUMN_TEMPERATURE 40 °C
AC$CHROMATOGRAPHY: FLOW_GRADIENT 0 min min 98% A, 1 min 98% A, 2 min 80% A, 16.5 min 2% A, 22 min 2% A, 22.1 min 98% A, 27 min 98% A
AC$CHROMATOGRAPHY: FLOW_RATE 0.3 mL/min
AC$CHROMATOGRAPHY: RETENTION_TIME 12.239 min
AC$CHROMATOGRAPHY: SOLVENT A: Water 0.1% Formic acid, B: Acetonitrile 0.1% Formic acid
MS$FOCUSED_ION: PRECURSOR_M/Z 412.131
MS$FOCUSED_ION: PRECURSOR_TYPE [M+H]+
MS$DATA_PROCESSING: COMMENT Export with Spectra 1.9.12 MsBackendMassbank 1.7.4
MS$DATA_PROCESSING: WHOLE RMassBank 2.3.1
PK$SPLASH: splash10-004i-0930000000-13c007bdbd93cafbf014
PK$NUM_PEAK: 89
PK$PEAK: m/z int. rel.int.
  89.0383 1.5 10
  91.0541 3.7 25
  105.069 1.5 10
  115.0543 2.4 16
  116.0606 2 14
  117.0688 2.6 18
  118.0643 2.2 15
  119.0725 1.6 11
  121.0643 3 21
  125.0148 142.3 999
  128.0608 3.1 21
  129.069 5.2 36
  131.0484 2.5 17
  131.0838 2.3 16
  133.0616 1.8 12
  135.0435 2.2 15
  136.0749 1.6 11
  138.9932 2.2 15
  140.0251 5.1 35
  144.0572 2.6 18
  144.0799 3.1 21
  145.0652 4.1 28
  146.0719 4.5 31
  147.0429 1.4 9
  147.0672 3.2 22
  148.0505 7.2 50
  148.0737 1.6 11
  149.0147 1.6 11
  149.0584 1.7 11
  150.0535 1.5 10
  150.0663 3.1 21
  152.0249 2.2 15
  157.0644 2.2 15
  158.072 1.6 11
  159.0795 1.7 11
  160.0751 1.9 13
  161.0602 2 14
  161.0951 5.6 39
  164.0698 16.4 115
  165.0772 9 63
  172.0747 3 21
  174.0658 2.3 16
  175.0741 2.1 14
  176.0698 3.3 23
  177.077 5.1 35
  178.0805 1.5 10
  187.0741 2.7 18
  188.1064 3 21
  189.0893 6.5 45
  194.0718 1.5 10
  203.0915 5.7 40
  204.1003 17.7 124
  208.0869 2.9 20
  215.0845 2.5 17
  216.0964 6.3 44
  221.0956 2.1 14
  225.0899 3.7 25
  228.0328 1.5 10
  229.0403 2.5 17
  232.0863 2.4 16
  233.0958 3.4 23
  237.09 3.3 23
  239.0619 1.9 13
  241.0427 1.9 13
  242.0495 1.9 13
  243.0568 4.2 29
  244.0876 2.5 17
  245.0965 1.5 10
  251.0603 2.4 16
  256.0624 3 21
  257.0348 2.6 18
  260.06 2.5 17
  261.0909 2.7 18
  264.1085 3.8 26
  267.0589 2.1 14
  270.0664 2.6 18
  271.0506 4 28
  271.084 3.2 22
  272.0589 7.5 52
  279.0566 2.9 20
  280.0629 1.4 9
  283.089 3.9 27
  288.0783 3.5 24
  289.0865 5.2 36
  298.0614 1.6 11
  299.079 3.6 25
  300.0769 2.8 19
  311.0821 2.2 15
  328.1101 9.8 68
//
