ACCESSION: MSBNK-BAFG-CSL2310305543
RECORD_TITLE: Haloxyfop-methyl; LC-ESI-QTOF; MS2; 60 V
DATE: 2023.10.30
AUTHORS: Kevin S. Jewell; Björn Ehlig; Arne Wick
LICENSE: dl-de/by-2-0
COPYRIGHT: Copyright 2023 Federal Institute of Hydrology, Koblenz, Germany
COMMENT: CONFIDENCE Reference Standard (Level 1)
COMMENT: Chromatography method: dx.doi.org/10.1016/j.chroma.2015.11.014
COMMENT: Acquisition method: 10.1002/rcm.8541
CH$NAME: Haloxyfop-methyl
CH$COMPOUND_CLASS: Herbicide
CH$FORMULA: C16H13ClF3NO4
CH$EXACT_MASS: 375.0485
CH$SMILES: COC(=O)C(C)Oc1ccc(Oc2ncc(cc2Cl)C(F)(F)F)cc1
CH$IUPAC: InChI=1S/C16H13ClF3NO4/c1-9(15(22)23-2)24-11-3-5-12(6-4-11)25-14-13(17)7-10(8-21-14)16(18,19)20/h3-9H,1-2H3
CH$LINK: CAS 69806-40-2
CH$LINK: INCHIKEY MFSWTRQUCLNFOM-UHFFFAOYSA-N
AC$INSTRUMENT: TripleTOF 5600 SCIEX
AC$INSTRUMENT_TYPE: LC-ESI-QTOF
AC$MASS_SPECTROMETRY: MS_TYPE MS2
AC$MASS_SPECTROMETRY: ION_MODE POSITIVE
AC$MASS_SPECTROMETRY: COLLISION_ENERGY 60
AC$MASS_SPECTROMETRY: FRAGMENTATION_MODE CID
AC$MASS_SPECTROMETRY: IONIZATION ESI
AC$CHROMATOGRAPHY: COLUMN_NAME Zorbax Eclipse Plus C18 2.1 mm x 150 mm, 3.5 um, Agilent
AC$CHROMATOGRAPHY: COLUMN_TEMPERATURE 40 °C
AC$CHROMATOGRAPHY: FLOW_GRADIENT 0 min min 98% A, 1 min 98% A, 2 min 80% A, 16.5 min 2% A, 22 min 2% A, 22.1 min 98% A, 27 min 98% A
AC$CHROMATOGRAPHY: FLOW_RATE 0.3 mL/min
AC$CHROMATOGRAPHY: RETENTION_TIME 14.891 min
AC$CHROMATOGRAPHY: SOLVENT A: Water 0.1% Formic acid, B: Acetonitrile 0.1% Formic acid
MS$FOCUSED_ION: PRECURSOR_M/Z 376.0558
MS$FOCUSED_ION: PRECURSOR_TYPE [M+H]+
MS$DATA_PROCESSING: COMMENT Export with Spectra 1.9.12 MsBackendMassbank 1.7.4
MS$DATA_PROCESSING: WHOLE RMassBank 2.3.1
PK$SPLASH: splash10-05to-4290000000-753706cebcd2e304a7b3
PK$NUM_PEAK: 36
PK$PEAK: m/z int. rel.int.
  65.0416 3.1 255
  74.0178 0.4 33
  75.0248 1.2 99
  91.0557 12.1 999
  103.0531 0.4 33
  119.0458 0.5 41
  121.029 0.5 41
  140.0503 0.5 41
  158.037 0.4 33
  159.9741 0.4 33
  175.0179 0.8 66
  179.9808 2 165
  187.0505 0.4 33
  188.0353 0.4 33
  189.0378 0.8 66
  190.0477 0.6 49
  197.9919 0.7 57
  203.0126 0.9 74
  208.0364 1.4 115
  209.0419 5.1 421
  216.0237 3.1 255
  216.0585 0.4 33
  218.0421 0.5 41
  219.0075 0.8 66
  224.0091 0.9 74
  226.0413 1 82
  232.0114 1.1 90
  235.0624 0.6 49
  237.0379 2.4 198
  246.0338 0.5 41
  251.9995 1.2 99
  252.0603 0.5 41
  269.0202 0.4 33
  272.0073 11.8 974
  288.0045 4.1 338
  288.035 0.5 41
//
