ACCESSION: MSBNK-BAFG-CSL2501067073
RECORD_TITLE: N-desmethyl-venlafaxine; LC-ESI-QTOF; MS2; 40 V
DATE: 2025.01.06
AUTHORS: Ole Lessmann; Kevin S. Jewell; Björn Ehlig; Arne Wick
LICENSE: dl-de/by-2-0
COPYRIGHT: Copyright 2025 Federal Institute of Hydrology, Koblenz, Germany
COMMENT: CONFIDENCE Reference Standard (Level 1)
COMMENT: Chromatography method: dx.doi.org/10.1016/j.chroma.2015.11.014
COMMENT: Acquisition method: 10.1002/rcm.8541
CH$NAME: N-desmethyl-venlafaxine
CH$COMPOUND_CLASS: Pharmaceutical; Metabolite; Transformation_product-Metabolite
CH$FORMULA: C16H25NO2
CH$EXACT_MASS: 263.1885
CH$SMILES: CNCC(c1ccc(cc1)OC)C2(CCCCC2)O
CH$IUPAC: InChI=1S/C16H25NO2/c1-17-12-15(16(18)10-4-3-5-11-16)13-6-8-14(19-2)9-7-13/h6-9,15,17-18H,3-5,10-12H2,1-2H3
CH$LINK: CAS 149289-30-5
CH$LINK: INCHIKEY MKAFOJAJJMUXLW-UHFFFAOYSA-N
AC$INSTRUMENT: TripleTOF 5600 SCIEX
AC$INSTRUMENT_TYPE: LC-ESI-QTOF
AC$MASS_SPECTROMETRY: MS_TYPE MS2
AC$MASS_SPECTROMETRY: ION_MODE POSITIVE
AC$MASS_SPECTROMETRY: COLLISION_ENERGY 40
AC$MASS_SPECTROMETRY: FRAGMENTATION_MODE CID
AC$MASS_SPECTROMETRY: IONIZATION ESI
AC$CHROMATOGRAPHY: COLUMN_NAME Zorbax Eclipse Plus C18 2.1 mm x 150 mm, 3.5 um, Agilent
AC$CHROMATOGRAPHY: COLUMN_TEMPERATURE 40 °C
AC$CHROMATOGRAPHY: FLOW_GRADIENT 0 min min 98% A, 1 min 98% A, 2 min 80% A, 16.5 min 2% A, 22 min 2% A, 22.1 min 98% A, 27 min 98% A
AC$CHROMATOGRAPHY: FLOW_RATE 0.3 mL/min
AC$CHROMATOGRAPHY: RETENTION_TIME 6.444 min
AC$CHROMATOGRAPHY: SOLVENT A: Water 0.1% Formic acid, B: Acetonitrile 0.1% Formic acid
MS$FOCUSED_ION: PRECURSOR_M/Z 264.1958
MS$FOCUSED_ION: PRECURSOR_TYPE [M+H]+
MS$DATA_PROCESSING: COMMENT Export with pycsl 0.1.0.dev1 and CSL 24.4
PK$SPLASH: splash10-00dl-3900000000-9b5152c21a73e2cc026c
PK$NUM_PEAK: 37
PK$PEAK: m/z int. rel.int.
  44.0584 39.8 544
  69.0734 1.6 21
  77.0415 2.8 38
  78.0486 1.0 13
  79.0561 3.5 47
  81.0716 4.5 61
  91.0555 21.9 299
  93.0702 2.4 32
  105.0704 1.5 20
  107.0483 2.1 28
  107.0862 2.2 30
  115.053 2.7 36
  117.0695 3.0 41
  119.0512 0.7 9
  119.0861 1.9 26
  121.0653 73.0 999
  127.0529 0.8 10
  128.0622 1.2 16
  129.0702 1.6 21
  131.0482 1.5 20
  132.0568 5.1 69
  135.0806 4.1 56
  141.0702 1.5 20
  144.0579 2.7 36
  145.0629 2.0 27
  146.078 0.8 10
  147.0806 32.4 443
  148.0766 1.1 15
  149.0834 3.7 50
  158.0721 6.7 91
  159.0802 9.9 135
  161.0952 1.4 19
  163.1 0.7 9
  164.1078 1.6 21
  173.0964 11.7 160
  183.1158 0.8 10
  215.1446 1.2 16
//