ACCESSION: MSBNK-BAFG-CSL23102616348
RECORD_TITLE: 5-Aminosalicylic acid; LC-ESI-QTOF; MS2; 130 V
DATE: 2023.10.26
AUTHORS: Kevin S. Jewell; Björn Ehlig; Arne Wick
LICENSE: dl-de/by-2-0
COPYRIGHT: Copyright 2023 Federal Institute of Hydrology, Koblenz, Germany
COMMENT: CONFIDENCE Reference Standard (Level 1)
COMMENT: Chromatography method: dx.doi.org/10.1016/j.chroma.2015.11.014
COMMENT: Acquisition method: 10.1002/rcm.8541
CH$NAME: 5-Aminosalicylic acid
CH$COMPOUND_CLASS: Pharmaceutical
CH$FORMULA: C7H7NO3
CH$EXACT_MASS: 153.0426
CH$SMILES: C1=CC(=C(C=C1N)C(=O)O)O
CH$IUPAC: InChI=1S/C7H7NO3/c8-4-1-2-6(9)5(3-4)7(10)11/h1-3,9H,8H2,(H,10,11)
CH$LINK: CAS 89-57-6
CH$LINK: INCHIKEY KBOPZPXVLCULAV-UHFFFAOYSA-N
AC$INSTRUMENT: TripleTOF 6600 SCIEX
AC$INSTRUMENT_TYPE: LC-ESI-QTOF
AC$MASS_SPECTROMETRY: MS_TYPE MS2
AC$MASS_SPECTROMETRY: ION_MODE POSITIVE
AC$MASS_SPECTROMETRY: COLLISION_ENERGY 130
AC$MASS_SPECTROMETRY: FRAGMENTATION_MODE CID
AC$MASS_SPECTROMETRY: IONIZATION ESI
AC$CHROMATOGRAPHY: COLUMN_NAME Zorbax Eclipse Plus C18 2.1 mm x 150 mm, 3.5 um, Agilent
AC$CHROMATOGRAPHY: COLUMN_TEMPERATURE 40 °C
AC$CHROMATOGRAPHY: FLOW_GRADIENT 0 min min 98% A, 1 min 98% A, 2 min 80% A, 16.5 min 2% A, 22 min 2% A, 22.1 min 98% A, 27 min 98% A
AC$CHROMATOGRAPHY: FLOW_RATE 0.3 mL/min
AC$CHROMATOGRAPHY: RETENTION_TIME 2.181 min
AC$CHROMATOGRAPHY: SOLVENT A: Water 0.1% Formic acid, B: Acetonitrile 0.1% Formic acid
MS$FOCUSED_ION: PRECURSOR_M/Z 154.0499
MS$FOCUSED_ION: PRECURSOR_TYPE [M+H]+
MS$DATA_PROCESSING: COMMENT Export with Spectra 1.9.12 MsBackendMassbank 1.7.4
MS$DATA_PROCESSING: WHOLE RMassBank 2.3.1
PK$SPLASH: splash10-01p9-9000000000-b3d1773ec8e906885d30
PK$NUM_PEAK: 18
PK$PEAK: m/z int. rel.int.
  35.9993 5.5 319
  37.0072 14.6 847
  38.0026 2.3 133
  38.0151 5.6 325
  39.0228 2.1 121
  41.0253 0.4 23
  49.0068 4 232
  50.0148 4.8 278
  51.0106 0.8 46
  51.0228 0.9 52
  52.0176 2.2 127
  53.0018 4 232
  59.9988 4.7 272
  61.007 17.2 999
  62.0148 5.3 307
  63.0231 0.6 34
  73.0066 1.8 104
  74.0147 1.3 75
//
