ACCESSION: MSBNK-BAFG-CSL231030297
RECORD_TITLE: (2-Hydroxyethyl)triphenylphosphonium; LC-ESI-QTOF; MS2; 40 V
DATE: 2023.10.30
AUTHORS: Kevin S. Jewell; Björn Ehlig; Arne Wick
LICENSE: dl-de/by-2-0
COPYRIGHT: Copyright 2023 Federal Institute of Hydrology, Koblenz, Germany
COMMENT: CONFIDENCE Reference Standard (Level 1)
COMMENT: Chromatography method: dx.doi.org/10.1016/j.chroma.2015.11.014
COMMENT: Acquisition method: 10.1002/rcm.8541
CH$NAME: (2-Hydroxyethyl)triphenylphosphonium
CH$COMPOUND_CLASS: Industrial_process
CH$FORMULA: [C20H20OP]+
CH$EXACT_MASS: 307.1246
CH$SMILES: OCC[P+](c1ccccc1)(c2ccccc2)c3ccccc3
CH$IUPAC: InChI=1S/C20H20OP/c21-16-17-22(18-10-4-1-5-11-18,19-12-6-2-7-13-19)20-14-8-3-9-15-20/h1-15,21H,16-17H2/q+1
CH$LINK: CAS 23250-03-5
CH$LINK: INCHIKEY VQNQTIUCMJTZGX-UHFFFAOYSA-N
AC$INSTRUMENT: TripleTOF 5600 SCIEX
AC$INSTRUMENT_TYPE: LC-ESI-QTOF
AC$MASS_SPECTROMETRY: MS_TYPE MS2
AC$MASS_SPECTROMETRY: ION_MODE POSITIVE
AC$MASS_SPECTROMETRY: COLLISION_ENERGY 40
AC$MASS_SPECTROMETRY: FRAGMENTATION_MODE CID
AC$MASS_SPECTROMETRY: IONIZATION ESI
AC$CHROMATOGRAPHY: COLUMN_NAME Zorbax Eclipse Plus C18 2.1 mm x 150 mm, 3.5 um, Agilent
AC$CHROMATOGRAPHY: COLUMN_TEMPERATURE 40 °C
AC$CHROMATOGRAPHY: FLOW_GRADIENT 0 min min 98% A, 1 min 98% A, 2 min 80% A, 16.5 min 2% A, 22 min 2% A, 22.1 min 98% A, 27 min 98% A
AC$CHROMATOGRAPHY: FLOW_RATE 0.3 mL/min
AC$CHROMATOGRAPHY: RETENTION_TIME 7.101 min
AC$CHROMATOGRAPHY: SOLVENT A: Water 0.1% Formic acid, B: Acetonitrile 0.1% Formic acid
MS$FOCUSED_ION: PRECURSOR_M/Z 307.1246
MS$FOCUSED_ION: PRECURSOR_TYPE [M]+
MS$DATA_PROCESSING: COMMENT Export with Spectra 1.9.12 MsBackendMassbank 1.7.4
MS$DATA_PROCESSING: WHOLE RMassBank 2.3.1
PK$SPLASH: splash10-000i-0292000000-5762f80522beb16ad2f6
PK$NUM_PEAK: 8
PK$PEAK: m/z int. rel.int.
  108.0125 46.5 77
  183.0357 112.2 188
  185.0508 32.5 54
  261.0834 57.8 96
  262.0905 46.9 78
  275.0987 108.6 182
  289.1134 596.1 999
  307.1249 204.8 343
//
