ACCESSION: MSBNK-BAFG-CSL23110917120
RECORD_TITLE: Chlormethiazole; LC-ESI-QTOF; MS2; 40 V
DATE: 2023.11.09
AUTHORS: Kevin S. Jewell; Björn Ehlig; Arne Wick
LICENSE: dl-de/by-2-0
COPYRIGHT: Copyright 2023 Federal Institute of Hydrology, Koblenz, Germany
COMMENT: CONFIDENCE Reference Standard (Level 1)
COMMENT: Chromatography method: dx.doi.org/10.1016/j.chroma.2015.11.014
COMMENT: Acquisition method: 10.1002/rcm.8541
CH$NAME: Chlormethiazole
CH$COMPOUND_CLASS: Pharmaceutical
CH$FORMULA: C6H8ClNS
CH$EXACT_MASS: 161.0066
CH$SMILES: CC1=C(SC=N1)CCCl
CH$IUPAC: InChI=1S/C6H8ClNS/c1-5-6(2-3-7)9-4-8-5/h4H,2-3H2,1H3
CH$LINK: CAS 533-45-9
CH$LINK: INCHIKEY PCLITLDOTJTVDJ-UHFFFAOYSA-N
AC$INSTRUMENT: TripleTOF 6600 SCIEX
AC$INSTRUMENT_TYPE: LC-ESI-QTOF
AC$MASS_SPECTROMETRY: MS_TYPE MS2
AC$MASS_SPECTROMETRY: ION_MODE POSITIVE
AC$MASS_SPECTROMETRY: COLLISION_ENERGY 40
AC$MASS_SPECTROMETRY: FRAGMENTATION_MODE CID
AC$MASS_SPECTROMETRY: IONIZATION ESI
AC$CHROMATOGRAPHY: COLUMN_NAME Zorbax Eclipse Plus C18 2.1 mm x 150 mm, 3.5 um, Agilent
AC$CHROMATOGRAPHY: COLUMN_TEMPERATURE 40 °C
AC$CHROMATOGRAPHY: FLOW_GRADIENT 0 min min 98% A, 1 min 98% A, 2 min 80% A, 16.5 min 2% A, 22 min 2% A, 22.1 min 98% A, 27 min 98% A
AC$CHROMATOGRAPHY: FLOW_RATE 0.3 mL/min
AC$CHROMATOGRAPHY: RETENTION_TIME 7.946 min
AC$CHROMATOGRAPHY: SOLVENT A: Water 0.1% Formic acid, B: Acetonitrile 0.1% Formic acid
MS$FOCUSED_ION: PRECURSOR_M/Z 162.0139
MS$FOCUSED_ION: PRECURSOR_TYPE [M+H]+
MS$DATA_PROCESSING: COMMENT Export with Spectra 1.9.12 MsBackendMassbank 1.7.4
MS$DATA_PROCESSING: WHOLE RMassBank 2.3.1
PK$SPLASH: splash10-03di-4900000000-82354ab2c75d16d3615b
PK$NUM_PEAK: 24
PK$PEAK: m/z int. rel.int.
  39.0232 1.4 18
  42.034 2.7 35
  44.9792 2 26
  53.0389 1.4 18
  54.0336 1 13
  55.0419 1.6 21
  55.0541 1.7 22
  58.9947 2.5 33
  65.0382 7 92
  69.0567 1.1 14
  70.9945 11.9 157
  72.0025 6.1 80
  78.0332 0.8 10
  80.0494 7.1 93
  84.0032 0.9 11
  85.01 4.6 60
  86.0181 3.4 44
  97.0103 1.5 19
  98.0053 1.8 23
  99.0254 5 66
  112.0211 45.2 597
  113.029 75.6 999
  126.0368 19.7 260
  162.0126 2.4 31
//
