ACCESSION: MSBNK-BAFG-CSL23110917131
RECORD_TITLE: N-Desmethyltramadol; LC-ESI-QTOF; MS2; 90 V
DATE: 2023.11.09
AUTHORS: Kevin S. Jewell; Björn Ehlig; Arne Wick
LICENSE: dl-de/by-2-0
COPYRIGHT: Copyright 2023 Federal Institute of Hydrology, Koblenz, Germany
COMMENT: CONFIDENCE Reference Standard (Level 1)
COMMENT: Chromatography method: dx.doi.org/10.1016/j.chroma.2015.11.014
COMMENT: Acquisition method: 10.1002/rcm.8541
CH$NAME: N-Desmethyltramadol
CH$COMPOUND_CLASS: Transformation_product; Metabolite
CH$FORMULA: C15H23NO2
CH$EXACT_MASS: 249.1729
CH$SMILES: CNCC1CCCCC1(C2=CC(=CC=C2)OC)O
CH$IUPAC: InChI=1S/C15H23NO2/c1-16-11-13-6-3-4-9-15(13,17)12-7-5-8-14(10-12)18-2/h5,7-8,10,13,16-17H,3-4,6,9,11H2,1-2H3
CH$LINK: CAS 73806-55-0
CH$LINK: INCHIKEY VUMQHLSPUAFKKK-UHFFFAOYSA-N
AC$INSTRUMENT: TripleTOF 6600 SCIEX
AC$INSTRUMENT_TYPE: LC-ESI-QTOF
AC$MASS_SPECTROMETRY: MS_TYPE MS2
AC$MASS_SPECTROMETRY: ION_MODE POSITIVE
AC$MASS_SPECTROMETRY: COLLISION_ENERGY 90
AC$MASS_SPECTROMETRY: FRAGMENTATION_MODE CID
AC$MASS_SPECTROMETRY: IONIZATION ESI
AC$CHROMATOGRAPHY: COLUMN_NAME Zorbax Eclipse Plus C18 2.1 mm x 150 mm, 3.5 um, Agilent
AC$CHROMATOGRAPHY: COLUMN_TEMPERATURE 40 °C
AC$CHROMATOGRAPHY: FLOW_GRADIENT 0 min min 98% A, 1 min 98% A, 2 min 80% A, 16.5 min 2% A, 22 min 2% A, 22.1 min 98% A, 27 min 98% A
AC$CHROMATOGRAPHY: FLOW_RATE 0.3 mL/min
AC$CHROMATOGRAPHY: RETENTION_TIME 6.246 min
AC$CHROMATOGRAPHY: SOLVENT A: Water 0.1% Formic acid, B: Acetonitrile 0.1% Formic acid
MS$FOCUSED_ION: PRECURSOR_M/Z 250.1802
MS$FOCUSED_ION: PRECURSOR_TYPE [M+H]+
MS$DATA_PROCESSING: COMMENT Export with Spectra 1.9.12 MsBackendMassbank 1.7.4
MS$DATA_PROCESSING: WHOLE RMassBank 2.3.1
PK$SPLASH: splash10-0006-9000000000-d357c561d5ce57f6a81d
PK$NUM_PEAK: 14
PK$PEAK: m/z int. rel.int.
  39.0228 2.2 12
  42.0339 12.4 68
  43.0415 2.9 15
  44.05 182.1 999
  50.0152 1.9 10
  51.0229 4.9 26
  63.0226 4.2 23
  65.038 3.9 21
  77.0383 6.2 34
  78.0458 4.1 22
  89.0381 2.2 12
  91.0532 3 16
  115.0532 7.9 43
  128.0611 2.9 15
//
