ACCESSION: MSBNK-BAFG-CSL23102616494
RECORD_TITLE: 3-Amino-5-methylisoxazole; LC-ESI-QTOF; MS2; 30 V
DATE: 2023.10.26
AUTHORS: Kevin S. Jewell; Björn Ehlig; Arne Wick
LICENSE: dl-de/by-2-0
COPYRIGHT: Copyright 2023 Federal Institute of Hydrology, Koblenz, Germany
COMMENT: CONFIDENCE Reference Standard (Level 1)
COMMENT: Chromatography method: dx.doi.org/10.1016/j.chroma.2015.11.014
COMMENT: Acquisition method: 10.1002/rcm.8541
CH$NAME: 3-Amino-5-methylisoxazole
CH$FORMULA: C4H6N2O
CH$EXACT_MASS: 98.048
CH$SMILES: CC1=CC(=NO1)N
CH$IUPAC: InChI=1S/C4H6N2O/c1-3-2-4(5)6-7-3/h2H,1H3,(H2,5,6)
CH$LINK: CAS 1072-67-9
CH$LINK: INCHIKEY FKPXGNGUVSHWQQ-UHFFFAOYSA-N
AC$INSTRUMENT: TripleTOF 6600 SCIEX
AC$INSTRUMENT_TYPE: LC-ESI-QTOF
AC$MASS_SPECTROMETRY: MS_TYPE MS2
AC$MASS_SPECTROMETRY: ION_MODE POSITIVE
AC$MASS_SPECTROMETRY: COLLISION_ENERGY 30
AC$MASS_SPECTROMETRY: FRAGMENTATION_MODE CID
AC$MASS_SPECTROMETRY: IONIZATION ESI
AC$CHROMATOGRAPHY: COLUMN_NAME Zorbax Eclipse Plus C18 2.1 mm x 150 mm, 3.5 um, Agilent
AC$CHROMATOGRAPHY: COLUMN_TEMPERATURE 40 °C
AC$CHROMATOGRAPHY: FLOW_GRADIENT 0 min min 98% A, 1 min 98% A, 2 min 80% A, 16.5 min 2% A, 22 min 2% A, 22.1 min 98% A, 27 min 98% A
AC$CHROMATOGRAPHY: FLOW_RATE 0.3 mL/min
AC$CHROMATOGRAPHY: RETENTION_TIME 4.412 min
AC$CHROMATOGRAPHY: SOLVENT A: Water 0.1% Formic acid, B: Acetonitrile 0.1% Formic acid
MS$FOCUSED_ION: PRECURSOR_M/Z 99.0553
MS$FOCUSED_ION: PRECURSOR_TYPE [M+H]+
MS$DATA_PROCESSING: COMMENT Export with Spectra 1.9.12 MsBackendMassbank 1.7.4
MS$DATA_PROCESSING: WHOLE RMassBank 2.3.1
PK$SPLASH: splash10-0006-9000000000-8dcf7a00c299ee06ad02
PK$NUM_PEAK: 16
PK$PEAK: m/z int. rel.int.
  30.0329 8.3 126
  31.0172 1.1 16
  38.0019 0.7 10
  42.033 3.2 48
  43.0251 65.3 999
  44.0124 6.6 100
  44.0488 65.1 995
  45.0327 1.3 19
  54.0328 3.2 48
  55.0173 2 30
  56.048 1 15
  57.0438 0.9 13
  68.0118 0.8 12
  71.0592 1.3 19
  72.0432 2.7 41
  99.0539 5.5 84
//
