ACCESSION: MSBNK-BAFG-CSL23102512500
RECORD_TITLE: Tadalafil; LC-ESI-QTOF; MS2; 80 V
DATE: 2023.10.25
AUTHORS: Kevin S. Jewell; Björn Ehlig; Arne Wick
LICENSE: dl-de/by-2-0
COPYRIGHT: Copyright 2023 Federal Institute of Hydrology, Koblenz, Germany
COMMENT: CONFIDENCE Reference Standard (Level 1)
COMMENT: Chromatography method: dx.doi.org/10.1016/j.chroma.2015.11.014
COMMENT: Acquisition method: 10.1002/rcm.8541
CH$NAME: Tadalafil
CH$COMPOUND_CLASS: Pharmaceutical
CH$FORMULA: C22H19N3O4
CH$EXACT_MASS: 389.1376
CH$SMILES: CN1CC(=O)N2C(C1=O)CC3=C(C2C4=CC5=C(C=C4)OCO5)NC6=CC=CC=C36
CH$IUPAC: InChI=1S/C22H19N3O4/c1-24-10-19(26)25-16(22(24)27)9-14-13-4-2-3-5-15(13)23-20(14)21(25)12-6-7-17-18(8-12)29-11-28-17/h2-8,16,21,23H,9-11H2,1H3
CH$LINK: CAS 171596-29-5
CH$LINK: INCHIKEY WOXKDUGGOYFFRN-UHFFFAOYSA-N
AC$INSTRUMENT: TripleTOF 5600 SCIEX
AC$INSTRUMENT_TYPE: LC-ESI-QTOF
AC$MASS_SPECTROMETRY: MS_TYPE MS2
AC$MASS_SPECTROMETRY: ION_MODE POSITIVE
AC$MASS_SPECTROMETRY: COLLISION_ENERGY 80
AC$MASS_SPECTROMETRY: FRAGMENTATION_MODE CID
AC$MASS_SPECTROMETRY: IONIZATION ESI
AC$CHROMATOGRAPHY: COLUMN_NAME Zorbax Eclipse Plus C18 2.1 mm x 150 mm, 3.5 um, Agilent
AC$CHROMATOGRAPHY: COLUMN_TEMPERATURE 40 °C
AC$CHROMATOGRAPHY: FLOW_GRADIENT 0 min min 98% A, 1 min 98% A, 2 min 80% A, 16.5 min 2% A, 22 min 2% A, 22.1 min 98% A, 27 min 98% A
AC$CHROMATOGRAPHY: FLOW_RATE 0.3 mL/min
AC$CHROMATOGRAPHY: RETENTION_TIME 9.801 min
AC$CHROMATOGRAPHY: SOLVENT A: Water 0.1% Formic acid, B: Acetonitrile 0.1% Formic acid
MS$FOCUSED_ION: PRECURSOR_M/Z 390.1448
MS$FOCUSED_ION: PRECURSOR_TYPE [M+H]+
MS$DATA_PROCESSING: COMMENT Export with Spectra 1.9.12 MsBackendMassbank 1.7.4
MS$DATA_PROCESSING: WHOLE RMassBank 2.3.1
PK$SPLASH: splash10-0udi-0590000000-b7796deb5b8f15b2841d
PK$NUM_PEAK: 39
PK$PEAK: m/z int. rel.int.
  77.0386 4.1 70
  79.0545 1.1 19
  105.0325 0.8 13
  115.0541 6.7 116
  128.0499 1.2 20
  130.0648 2.2 38
  135.0437 4.1 70
  140.0471 0.8 13
  142.064 2 34
  151.0531 0.7 12
  163.0526 0.7 12
  164.0574 0.7 12
  165.0681 1 17
  166.0634 0.6 10
  167.0639 1.5 25
  168.0699 2.7 46
  169.076 13.6 235
  176.0634 2.1 36
  177.0702 1.8 31
  178.0675 0.9 15
  189.0709 2.8 48
  190.0625 1 17
  191.072 5.1 88
  192.0812 2.4 41
  193.0897 1.2 20
  202.0651 0.8 13
  203.0734 6.4 110
  204.081 57.7 999
  205.0878 6.9 119
  206.0932 0.7 12
  206.1058 0.7 12
  214.0637 1.1 19
  215.0744 2.6 45
  216.0816 2.1 36
  217.0865 1.9 32
  232.0742 3.6 62
  233.0844 0.9 15
  261.0793 1 17
  262.079 0.6 10
//
