ACCESSION: MSBNK-BAFG-CSL2310306553
RECORD_TITLE: Clopidogrel; LC-ESI-QTOF; MS2; 80 V
DATE: 2023.10.30
AUTHORS: Kevin S. Jewell; Björn Ehlig; Arne Wick
LICENSE: dl-de/by-2-0
COPYRIGHT: Copyright 2023 Federal Institute of Hydrology, Koblenz, Germany
COMMENT: CONFIDENCE Reference Standard (Level 1)
COMMENT: Chromatography method: dx.doi.org/10.1016/j.chroma.2015.11.014
COMMENT: Acquisition method: 10.1002/rcm.8541
CH$NAME: Clopidogrel
CH$COMPOUND_CLASS: Pharmaceutical
CH$FORMULA: C16H16ClNO2S
CH$EXACT_MASS: 321.059
CH$SMILES: COC(=O)C(c1ccccc1Cl)N2CCc3c(ccs3)C2
CH$IUPAC: InChI=1S/C16H16ClNO2S/c1-20-16(19)15(12-4-2-3-5-13(12)17)18-8-6-14-11(10-18)7-9-21-14/h2-5,7,9,15H,6,8,10H2,1H3
CH$LINK: CAS 90055-48-4
CH$LINK: INCHIKEY GKTWGGQPFAXNFI-UHFFFAOYSA-N
AC$INSTRUMENT: TripleTOF 5600 SCIEX
AC$INSTRUMENT_TYPE: LC-ESI-QTOF
AC$MASS_SPECTROMETRY: MS_TYPE MS2
AC$MASS_SPECTROMETRY: ION_MODE POSITIVE
AC$MASS_SPECTROMETRY: COLLISION_ENERGY 80
AC$MASS_SPECTROMETRY: FRAGMENTATION_MODE CID
AC$MASS_SPECTROMETRY: IONIZATION ESI
AC$CHROMATOGRAPHY: COLUMN_NAME Zorbax Eclipse Plus C18 2.1 mm x 150 mm, 3.5 um, Agilent
AC$CHROMATOGRAPHY: COLUMN_TEMPERATURE 40 °C
AC$CHROMATOGRAPHY: FLOW_GRADIENT 0 min min 98% A, 1 min 98% A, 2 min 80% A, 16.5 min 2% A, 22 min 2% A, 22.1 min 98% A, 27 min 98% A
AC$CHROMATOGRAPHY: FLOW_RATE 0.3 mL/min
AC$CHROMATOGRAPHY: RETENTION_TIME 12.465 min
AC$CHROMATOGRAPHY: SOLVENT A: Water 0.1% Formic acid, B: Acetonitrile 0.1% Formic acid
MS$FOCUSED_ION: PRECURSOR_M/Z 322.0663
MS$FOCUSED_ION: PRECURSOR_TYPE [M+H]+
MS$DATA_PROCESSING: COMMENT Export with Spectra 1.9.12 MsBackendMassbank 1.7.4
MS$DATA_PROCESSING: WHOLE RMassBank 2.3.1
PK$SPLASH: splash10-004i-6900000000-9da3d1c70ddb10e716e8
PK$NUM_PEAK: 22
PK$PEAK: m/z int. rel.int.
  45.0407 7.1 41
  51.0299 10.9 63
  65.0427 24.1 139
  74.0181 2.1 12
  75.0252 6.1 35
  77.042 110.7 642
  89.0402 32.8 190
  90.0471 10.4 60
  91.0562 116.6 676
  92.0621 2.7 15
  99.0003 16.7 96
  105.0337 52.1 302
  110.9991 31.1 180
  112.0068 17.2 99
  117.0562 4 23
  125.0156 172.2 999
  125.0549 2 11
  133.0285 21 121
  138.9947 103 597
  140.002 11.8 68
  148.0511 2.8 16
  155.0258 80.2 465
//
