ACCESSION: MSBNK-BAFG-CSL2501068462
RECORD_TITLE: 3-Desmethyl-trimethoprim; LC-ESI-QTOF; MS2; 40 V
DATE: 2025.01.06
AUTHORS: Ole Lessmann; Kevin S. Jewell; Björn Ehlig; Arne Wick
LICENSE: dl-de/by-2-0
COPYRIGHT: Copyright 2025 Federal Institute of Hydrology, Koblenz, Germany
COMMENT: CONFIDENCE Reference Standard (Level 1)
COMMENT: Chromatography method: dx.doi.org/10.1016/j.chroma.2015.11.014
COMMENT: Acquisition method: 10.1002/rcm.8541
CH$NAME: 3-Desmethyl-trimethoprim
CH$COMPOUND_CLASS: Pharmaceutical; Transformation_product; Transformation_product-Metabolite
CH$FORMULA: C13H16N4O3
CH$EXACT_MASS: 276.1222
CH$SMILES: OC1=CC(CC2=CN=C(N=C2N)N)=CC(OC)=C1OC
CH$IUPAC: InChI=1S/C13H16N4O3/c1-19-10-5-7(4-9(18)11(10)20-2)3-8-6-16-13(15)17-12(8)14/h4-6,18H,3H2,1-2H3,(H4,14,15,16,17)
CH$LINK: CAS 27653-69-6
CH$LINK: INCHIKEY HWBPOLWLLFXEJY-UHFFFAOYSA-N
AC$INSTRUMENT: TripleTOF 5600 SCIEX
AC$INSTRUMENT_TYPE: LC-ESI-QTOF
AC$MASS_SPECTROMETRY: MS_TYPE MS2
AC$MASS_SPECTROMETRY: ION_MODE POSITIVE
AC$MASS_SPECTROMETRY: COLLISION_ENERGY 40
AC$MASS_SPECTROMETRY: FRAGMENTATION_MODE CID
AC$MASS_SPECTROMETRY: IONIZATION ESI
AC$CHROMATOGRAPHY: COLUMN_NAME Zorbax Eclipse Plus C18 2.1 mm x 150 mm, 3.5 um, Agilent
AC$CHROMATOGRAPHY: COLUMN_TEMPERATURE 40 °C
AC$CHROMATOGRAPHY: FLOW_GRADIENT 0 min min 98% A, 1 min 98% A, 2 min 80% A, 16.5 min 2% A, 22 min 2% A, 22.1 min 98% A, 27 min 98% A
AC$CHROMATOGRAPHY: FLOW_RATE 0.3 mL/min
AC$CHROMATOGRAPHY: RETENTION_TIME 5.021 min
AC$CHROMATOGRAPHY: SOLVENT A: Water 0.1% Formic acid, B: Acetonitrile 0.1% Formic acid
MS$FOCUSED_ION: PRECURSOR_M/Z 277.1295
MS$FOCUSED_ION: PRECURSOR_TYPE [M+H]+
MS$DATA_PROCESSING: COMMENT Export with pycsl 0.1.0.dev1 and CSL 24.4
PK$SPLASH: splash10-03di-0290000000-cbf088a8d45f485ad8f0
PK$NUM_PEAK: 30
PK$PEAK: m/z int. rel.int.
  81.0494 16.2 36
  110.0598 9.1 20
  111.0669 5.2 11
  123.0674 115.6 259
  124.0764 6.2 13
  148.0744 8.0 17
  149.0803 4.8 10
  151.0392 5.1 11
  161.0826 5.6 12
  167.0714 5.0 11
  173.081 13.6 30
  187.0978 50.1 112
  188.1052 26.7 59
  203.0915 6.3 14
  215.0933 19.6 43
  216.0998 54.5 122
  219.0872 75.1 168
  227.0897 7.7 17
  229.0711 5.4 12
  231.0879 24.0 53
  232.0941 32.8 73
  233.1026 66.3 148
  243.0859 18.8 42
  244.0931 19.6 43
  245.1022 24.8 55
  247.0819 26.4 59
  259.0812 18.0 40
  261.0976 445.3 999
  262.1049 42.2 94
  277.1308 11.6 26
//