ACCESSION: MSBNK-BAFG-CSL2311096568
RECORD_TITLE: Methacetin; LC-ESI-QTOF; MS2; 70 V
DATE: 2023.11.09
AUTHORS: Kevin S. Jewell; Björn Ehlig; Arne Wick
LICENSE: dl-de/by-2-0
COPYRIGHT: Copyright 2023 Federal Institute of Hydrology, Koblenz, Germany
COMMENT: CONFIDENCE Reference Standard (Level 1)
COMMENT: Chromatography method: dx.doi.org/10.1016/j.chroma.2015.11.014
COMMENT: Acquisition method: 10.1002/rcm.8541
CH$NAME: Methacetin
CH$COMPOUND_CLASS: Pharmaceutical
CH$FORMULA: C9H11NO2
CH$EXACT_MASS: 165.079
CH$SMILES: COc1ccc(NC(C)=O)cc1
CH$IUPAC: InChI=1S/C9H11NO2/c1-7(11)10-8-3-5-9(12-2)6-4-8/h3-6H,1-2H3,(H,10,11)
CH$LINK: CAS 51-66-1
CH$LINK: INCHIKEY XVAIDCNLVLTVFM-UHFFFAOYSA-N
AC$INSTRUMENT: TripleTOF 5600 SCIEX
AC$INSTRUMENT_TYPE: LC-ESI-QTOF
AC$MASS_SPECTROMETRY: MS_TYPE MS2
AC$MASS_SPECTROMETRY: ION_MODE POSITIVE
AC$MASS_SPECTROMETRY: COLLISION_ENERGY 70
AC$MASS_SPECTROMETRY: FRAGMENTATION_MODE CID
AC$MASS_SPECTROMETRY: IONIZATION ESI
AC$CHROMATOGRAPHY: COLUMN_NAME Zorbax Eclipse Plus C18 2.1 mm x 150 mm, 3.5 um, Agilent
AC$CHROMATOGRAPHY: COLUMN_TEMPERATURE 40 °C
AC$CHROMATOGRAPHY: FLOW_GRADIENT 0 min min 98% A, 1 min 98% A, 2 min 80% A, 16.5 min 2% A, 22 min 2% A, 22.1 min 98% A, 27 min 98% A
AC$CHROMATOGRAPHY: FLOW_RATE 0.3 mL/min
AC$CHROMATOGRAPHY: RETENTION_TIME 6.508 min
AC$CHROMATOGRAPHY: SOLVENT A: Water 0.1% Formic acid, B: Acetonitrile 0.1% Formic acid
MS$FOCUSED_ION: PRECURSOR_M/Z 166.0863
MS$FOCUSED_ION: PRECURSOR_TYPE [M+H]+
MS$DATA_PROCESSING: COMMENT Export with Spectra 1.9.12 MsBackendMassbank 1.7.4
MS$DATA_PROCESSING: WHOLE RMassBank 2.3.1
PK$SPLASH: splash10-00l6-9000000000-da5af80ceba797a3ecad
PK$NUM_PEAK: 18
PK$PEAK: m/z int. rel.int.
  41.0394 15.8 17
  42.045 28.8 32
  43.0288 441.7 502
  43.0511 10.5 11
  52.0283 26.8 30
  54.0421 97.1 110
  64.0363 149.9 170
  65.0439 407.4 463
  66.0512 480 546
  67.0464 33.4 38
  77.042 156.3 177
  78.0375 84.4 96
  80.0529 877.7 999
  81.0601 174.8 198
  92.0498 326.8 371
  93.0588 611.4 695
  108.0446 58 66
  109.0526 24.7 28
//
