ACCESSION: MSBNK-BAFG-CSL23110918058
RECORD_TITLE: Proquinazid; LC-ESI-QTOF; MS2; 70 V
DATE: 2023.11.09
AUTHORS: Kevin S. Jewell; Björn Ehlig; Arne Wick
LICENSE: dl-de/by-2-0
COPYRIGHT: Copyright 2023 Federal Institute of Hydrology, Koblenz, Germany
COMMENT: CONFIDENCE Reference Standard (Level 1)
COMMENT: Chromatography method: dx.doi.org/10.1016/j.chroma.2015.11.014
COMMENT: Acquisition method: 10.1002/rcm.8541
CH$NAME: Proquinazid
CH$COMPOUND_CLASS: Fungicide
CH$FORMULA: C14H17IN2O2
CH$EXACT_MASS: 372.0335
CH$SMILES: CCCN1C(=O)C2=C(C=CC(=C2)I)N=C1OCCC
CH$IUPAC: InChI=1S/C14H17IN2O2/c1-3-7-17-13(18)11-9-10(15)5-6-12(11)16-14(17)19-8-4-2/h5-6,9H,3-4,7-8H2,1-2H3
CH$LINK: CAS 189278-12-4
CH$LINK: INCHIKEY FLVBXVXXXMLMOX-UHFFFAOYSA-N
AC$INSTRUMENT: TripleTOF 6600 SCIEX
AC$INSTRUMENT_TYPE: LC-ESI-QTOF
AC$MASS_SPECTROMETRY: MS_TYPE MS2
AC$MASS_SPECTROMETRY: ION_MODE POSITIVE
AC$MASS_SPECTROMETRY: COLLISION_ENERGY 70
AC$MASS_SPECTROMETRY: FRAGMENTATION_MODE CID
AC$MASS_SPECTROMETRY: IONIZATION ESI
AC$CHROMATOGRAPHY: COLUMN_NAME Zorbax Eclipse Plus C18 2.1 mm x 150 mm, 3.5 um, Agilent
AC$CHROMATOGRAPHY: COLUMN_TEMPERATURE 40 °C
AC$CHROMATOGRAPHY: FLOW_GRADIENT 0 min min 98% A, 1 min 98% A, 2 min 80% A, 16.5 min 2% A, 22 min 2% A, 22.1 min 98% A, 27 min 98% A
AC$CHROMATOGRAPHY: FLOW_RATE 0.3 mL/min
AC$CHROMATOGRAPHY: RETENTION_TIME 17.121 min
AC$CHROMATOGRAPHY: SOLVENT A: Water 0.1% Formic acid, B: Acetonitrile 0.1% Formic acid
MS$FOCUSED_ION: PRECURSOR_M/Z 373.0408
MS$FOCUSED_ION: PRECURSOR_TYPE [M+H]+
MS$DATA_PROCESSING: COMMENT Export with Spectra 1.9.12 MsBackendMassbank 1.7.4
MS$DATA_PROCESSING: WHOLE RMassBank 2.3.1
PK$SPLASH: splash10-014i-0390000000-f8df0bbc0692bf5a4b1d
PK$NUM_PEAK: 17
PK$PEAK: m/z int. rel.int.
  41.0425 37.4 11
  62.0187 66.6 19
  88.0214 40.6 12
  89.0295 225.2 67
  91.0449 45 13
  92.0288 66.8 19
  116.0394 116.6 34
  117.0239 523.8 155
  119.0394 176.1 52
  144.0338 101.7 30
  145.0182 833.6 248
  162.0445 260.2 77
  215.9307 3357.2 999
  242.9407 81.7 24
  270.9346 174.6 51
  271.9191 1373.9 408
  288.9453 74.4 22
//
