ACCESSION: MSBNK-BAFG-CSL25010631480
RECORD_TITLE: Diethylamino hydroxybenzoyl hexyl benzoate; LC-ESI-QTOF; MS2; 40 V
DATE: 2025.01.06
AUTHORS: Ole Lessmann; Kevin S. Jewell; Björn Ehlig; Arne Wick
LICENSE: dl-de/by-2-0
COPYRIGHT: Copyright 2025 Federal Institute of Hydrology, Koblenz, Germany
COMMENT: CONFIDENCE Reference Standard (Level 1)
COMMENT: Chromatography method: dx.doi.org/10.1016/j.chroma.2015.11.014
COMMENT: Acquisition method: 10.1002/rcm.8541
CH$NAME: Diethylamino hydroxybenzoyl hexyl benzoate
CH$FORMULA: C24H31NO4
CH$EXACT_MASS: 397.2253
CH$SMILES: CCCCCCOC(=O)C1=CC=CC=C1C(=O)C2=C(C=C(C=C2)N(CC)CC)O
CH$IUPAC: InChI=1S/C24H31NO4/c1-4-7-8-11-16-29-24(28)20-13-10-9-12-19(20)23(27)21-15-14-18(17-22(21)26)25(5-2)6-3/h9-10,12-15,17,26H,4-8,11,16H2,1-3H3
CH$LINK: CAS 302776-68-7
CH$LINK: INCHIKEY FDATWRLUYRHCJE-UHFFFAOYSA-N
AC$INSTRUMENT: TripleTOF 6600 SCIEX
AC$INSTRUMENT_TYPE: LC-ESI-QTOF
AC$MASS_SPECTROMETRY: MS_TYPE MS2
AC$MASS_SPECTROMETRY: ION_MODE POSITIVE
AC$MASS_SPECTROMETRY: COLLISION_ENERGY 40
AC$MASS_SPECTROMETRY: FRAGMENTATION_MODE CID
AC$MASS_SPECTROMETRY: IONIZATION ESI
AC$CHROMATOGRAPHY: COLUMN_NAME Zorbax Eclipse Plus C18 2.1 mm x 150 mm, 3.5 um, Agilent
AC$CHROMATOGRAPHY: COLUMN_TEMPERATURE 40 °C
AC$CHROMATOGRAPHY: FLOW_GRADIENT 0 min min 98% A, 1 min 98% A, 2 min 80% A, 16.5 min 2% A, 22 min 2% A, 22.1 min 98% A, 27 min 98% A
AC$CHROMATOGRAPHY: FLOW_RATE 0.3 mL/min
AC$CHROMATOGRAPHY: RETENTION_TIME 17.769 min
AC$CHROMATOGRAPHY: SOLVENT A: Water 0.1% Formic acid, B: Acetonitrile 0.1% Formic acid
MS$FOCUSED_ION: PRECURSOR_M/Z 398.2326
MS$FOCUSED_ION: PRECURSOR_TYPE [M+H]+
MS$DATA_PROCESSING: COMMENT Export with pycsl 0.1.0.dev1 and CSL 24.4
PK$SPLASH: splash10-00kb-0691000000-d652d4e12b6b00e05474
PK$NUM_PEAK: 20
PK$PEAK: m/z int. rel.int.
  43.0544 73.6 11
  121.0283 86.6 13
  138.0908 200.9 32
  149.0233 6191.4 999
  164.0705 131.1 21
  224.0697 249.7 40
  239.0933 425.6 68
  240.1005 3301.4 532
  250.086 431.7 69
  252.0655 480.5 77
  266.0811 1285.3 207
  267.0887 765.0 123
  268.0969 1515.6 244
  269.1043 199.1 32
  285.0985 122.2 19
  296.128 539.0 86
  314.1377 183.8 29
  354.1686 171.3 27
  369.1924 192.1 30
  398.2323 728.8 117
//