ACCESSION: MSBNK-BAFG-CSL25010634316
RECORD_TITLE: 4,4`-Methylenebis(2-methylaniline); LC-ESI-QTOF; MS2; 100 V
DATE: 2025.01.06
AUTHORS: Ole Lessmann; Kevin S. Jewell; Björn Ehlig; Arne Wick
LICENSE: dl-de/by-2-0
COPYRIGHT: Copyright 2025 Federal Institute of Hydrology, Koblenz, Germany
COMMENT: CONFIDENCE Reference Standard (Level 1)
COMMENT: Chromatography method: dx.doi.org/10.1016/j.chroma.2015.11.014
COMMENT: Acquisition method: 10.1002/rcm.8541
CH$NAME: 4,4`-Methylenebis(2-methylaniline)
CH$FORMULA: C15H18N2
CH$EXACT_MASS: 226.147
CH$SMILES: CC1=C(C=CC(=C1)CC2=CC(=C(C=C2)N)C)N
CH$IUPAC: InChI=1S/C15H18N2/c1-10-7-12(3-5-14(10)16)9-13-4-6-15(17)11(2)8-13/h3-8H,9,16-17H2,1-2H3
CH$LINK: CAS 838-88-0
CH$LINK: INCHIKEY WECDUOXQLAIPQW-UHFFFAOYSA-N
AC$INSTRUMENT: TripleTOF 6600 SCIEX
AC$INSTRUMENT_TYPE: LC-ESI-QTOF
AC$MASS_SPECTROMETRY: MS_TYPE MS2
AC$MASS_SPECTROMETRY: ION_MODE POSITIVE
AC$MASS_SPECTROMETRY: COLLISION_ENERGY 100
AC$MASS_SPECTROMETRY: FRAGMENTATION_MODE CID
AC$MASS_SPECTROMETRY: IONIZATION ESI
AC$CHROMATOGRAPHY: COLUMN_NAME Zorbax Eclipse Plus C18 2.1 mm x 150 mm, 3.5 um, Agilent
AC$CHROMATOGRAPHY: COLUMN_TEMPERATURE 40 °C
AC$CHROMATOGRAPHY: FLOW_GRADIENT 0 min min 98% A, 1 min 98% A, 2 min 80% A, 16.5 min 2% A, 22 min 2% A, 22.1 min 98% A, 27 min 98% A
AC$CHROMATOGRAPHY: FLOW_RATE 0.3 mL/min
AC$CHROMATOGRAPHY: RETENTION_TIME 5.215 min
AC$CHROMATOGRAPHY: SOLVENT A: Water 0.1% Formic acid, B: Acetonitrile 0.1% Formic acid
MS$FOCUSED_ION: PRECURSOR_M/Z 227.1543
MS$FOCUSED_ION: PRECURSOR_TYPE [M+H]+
MS$DATA_PROCESSING: COMMENT Export with pycsl 0.1.0.dev1 and CSL 24.4
PK$SPLASH: splash10-0ufr-9700000000-6e70b408c525b6d8d929
PK$NUM_PEAK: 40
PK$PEAK: m/z int. rel.int.
  39.022 1.5 141
  42.0326 0.5 47
  50.014 1.4 131
  51.0217 6.9 650
  62.0146 0.4 37
  63.0217 0.7 65
  65.0372 2.4 226
  66.0441 0.7 65
  74.0128 0.7 65
  75.022 0.6 56
  76.0299 0.6 56
  77.0369 10.6 999
  78.0316 0.5 47
  78.0436 1.0 94
  80.0486 0.8 75
  89.0378 1.1 103
  91.0526 3.4 320
  92.051 0.5 47
  93.0558 0.7 65
  102.0468 1.2 113
  104.0484 3.0 282
  105.0594 0.5 47
  115.0496 0.5 47
  115.0554 0.5 47
  117.0563 0.8 75
  118.0634 1.1 103
  126.0442 1.6 150
  127.0505 0.8 75
  139.0535 1.7 160
  140.0515 0.8 75
  149.0339 0.4 37
  150.0468 3.1 292
  151.0518 3.2 301
  152.0611 2.8 263
  162.0431 0.7 65
  163.0554 1.9 179
  164.0591 1.1 103
  165.066 1.8 169
  166.0638 0.6 56
  176.0595 0.9 84
//