ACCESSION: MSBNK-BAFG-CSL2501061790
RECORD_TITLE: Hydroxytorasemide; LC-ESI-QTOF; MS2; 100 V
DATE: 2025.01.06
AUTHORS: Ole Lessmann; Kevin S. Jewell; Björn Ehlig; Arne Wick
LICENSE: dl-de/by-2-0
COPYRIGHT: Copyright 2025 Federal Institute of Hydrology, Koblenz, Germany
COMMENT: CONFIDENCE Reference Standard (Level 1)
COMMENT: Chromatography method: dx.doi.org/10.1016/j.chroma.2015.11.014
COMMENT: Acquisition method: 10.1002/rcm.8541
CH$NAME: Hydroxytorasemide
CH$COMPOUND_CLASS: Pharmaceutical; Transformation_product; Transformation_product-Metabolite
CH$FORMULA: C16H20N4O4S
CH$EXACT_MASS: 364.1205
CH$SMILES: CC(C)NC(=O)NS(=O)(=O)c1cnccc1Nc2cccc(c2)CO
CH$IUPAC: InChI=1S/C16H20N4O4S/c1-11(2)18-16(22)20-25(23,24)15-9-17-7-6-14(15)19-13-5-3-4-12(8-13)10-21/h3-9,11,21H,10H2,1-2H3,(H,17,19)(H2,18,20,22)
CH$LINK: CAS 99300-68-2
CH$LINK: INCHIKEY WCYVLAMJCQZUCR-UHFFFAOYSA-N
AC$INSTRUMENT: TripleTOF 5600 SCIEX
AC$INSTRUMENT_TYPE: LC-ESI-QTOF
AC$MASS_SPECTROMETRY: MS_TYPE MS2
AC$MASS_SPECTROMETRY: ION_MODE NEGATIVE
AC$MASS_SPECTROMETRY: COLLISION_ENERGY 100
AC$MASS_SPECTROMETRY: FRAGMENTATION_MODE CID
AC$MASS_SPECTROMETRY: IONIZATION ESI
AC$CHROMATOGRAPHY: COLUMN_NAME Zorbax Eclipse Plus C18 2.1 mm x 150 mm, 3.5 um, Agilent
AC$CHROMATOGRAPHY: COLUMN_TEMPERATURE 40 °C
AC$CHROMATOGRAPHY: FLOW_GRADIENT 0 min min 98% A, 1 min 98% A, 2 min 80% A, 16.5 min 2% A, 22 min 2% A, 22.1 min 98% A, 27 min 98% A
AC$CHROMATOGRAPHY: FLOW_RATE 0.3 mL/min
AC$CHROMATOGRAPHY: RETENTION_TIME 5.824 min
AC$CHROMATOGRAPHY: SOLVENT A: Water 0.1% Formic acid, B: Acetonitrile 0.1% Formic acid
MS$FOCUSED_ION: PRECURSOR_M/Z 363.1132
MS$FOCUSED_ION: PRECURSOR_TYPE [M-H]-
MS$DATA_PROCESSING: COMMENT Export with pycsl 0.1.0.dev1 and CSL 24.4
PK$SPLASH: splash10-002f-9600000000-d5f2648816b1843345f0
PK$NUM_PEAK: 26
PK$PEAK: m/z int. rel.int.
  47.9714 1.3 88
  57.9779 0.8 54
  61.9722 2.3 157
  63.9636 2.2 150
  65.0141 1.0 68
  77.9663 14.6 999
  78.9741 1.6 109
  90.0349 1.2 82
  91.0303 5.7 390
  92.0369 0.8 54
  93.0461 13.3 910
  107.0494 1.2 82
  108.0336 3.0 205
  108.0568 3.6 246
  109.0408 0.7 47
  118.0408 0.9 61
  165.0454 1.3 88
  167.0619 4.0 273
  168.0578 1.4 95
  178.0527 3.4 232
  179.0614 2.8 191
  180.0684 1.2 82
  181.0633 0.9 61
  182.0726 1.5 102
  192.0562 3.2 218
  195.057 0.9 61
//