ACCESSION: MSBNK-BAFG-CSL25010634482
RECORD_TITLE: Disperse brown 1; LC-ESI-QTOF; MS2; 110 V
DATE: 2025.01.06
AUTHORS: Ole Lessmann; Kevin S. Jewell; Björn Ehlig; Arne Wick
LICENSE: dl-de/by-2-0
COPYRIGHT: Copyright 2025 Federal Institute of Hydrology, Koblenz, Germany
COMMENT: CONFIDENCE Reference Standard (Level 1)
COMMENT: Chromatography method: dx.doi.org/10.1016/j.chroma.2015.11.014
COMMENT: Acquisition method: 10.1002/rcm.8541
CH$NAME: Disperse brown 1
CH$FORMULA: C16H15Cl3N4O4
CH$EXACT_MASS: 432.0159
CH$SMILES: C1=CC(=C(C=C1N(CCO)CCO)Cl)N=NC2=C(C=C(C=C2Cl)[N+](=O)[O-])Cl
CH$IUPAC: InChI=1S/C16H15Cl3N4O4/c17-12-7-10(22(3-5-24)4-6-25)1-2-15(12)20-21-16-13(18)8-11(23(26)27)9-14(16)19/h1-2,7-9,24-25H,3-6H2
CH$LINK: CAS 23355-64-8
CH$LINK: INCHIKEY HXXLWTPFYWMBSC-UHFFFAOYSA-N
AC$INSTRUMENT: TripleTOF 6600 SCIEX
AC$INSTRUMENT_TYPE: LC-ESI-QTOF
AC$MASS_SPECTROMETRY: MS_TYPE MS2
AC$MASS_SPECTROMETRY: ION_MODE POSITIVE
AC$MASS_SPECTROMETRY: COLLISION_ENERGY 110
AC$MASS_SPECTROMETRY: FRAGMENTATION_MODE CID
AC$MASS_SPECTROMETRY: IONIZATION ESI
AC$CHROMATOGRAPHY: COLUMN_NAME Zorbax Eclipse Plus C18 2.1 mm x 150 mm, 3.5 um, Agilent
AC$CHROMATOGRAPHY: COLUMN_TEMPERATURE 40 °C
AC$CHROMATOGRAPHY: FLOW_GRADIENT 0 min min 98% A, 1 min 98% A, 2 min 80% A, 16.5 min 2% A, 22 min 2% A, 22.1 min 98% A, 27 min 98% A
AC$CHROMATOGRAPHY: FLOW_RATE 0.3 mL/min
AC$CHROMATOGRAPHY: RETENTION_TIME 12.39 min
AC$CHROMATOGRAPHY: SOLVENT A: Water 0.1% Formic acid, B: Acetonitrile 0.1% Formic acid
MS$FOCUSED_ION: PRECURSOR_M/Z 433.0232
MS$FOCUSED_ION: PRECURSOR_TYPE [M+H]+
MS$DATA_PROCESSING: COMMENT Export with pycsl 0.1.0.dev1 and CSL 24.4
PK$SPLASH: splash10-0ab9-5900000000-29f847d61f8675e0ff40
PK$NUM_PEAK: 47
PK$PEAK: m/z int. rel.int.
  45.0338 0.4 42
  51.0223 0.6 64
  63.0233 0.7 75
  65.0394 0.5 53
  72.9828 1.0 107
  74.0148 3.1 333
  75.0241 1.3 139
  76.0179 1.3 139
  77.0364 1.7 182
  78.0341 0.6 64
  80.9718 0.5 53
  83.9761 1.1 118
  89.0394 1.0 107
  90.0335 1.4 150
  91.0416 0.7 75
  91.0537 0.6 64
  92.0501 0.7 75
  96.984 1.0 107
  98.9998 0.8 85
  103.0268 0.4 42
  104.0474 2.5 268
  105.0466 0.7 75
  107.9749 2.2 236
  108.9831 9.3 999
  110.9976 0.4 42
  111.9965 0.8 85
  114.0083 0.7 75
  116.0523 0.5 53
  117.0533 2.1 225
  117.9364 0.5 53
  118.0538 1.4 150
  119.0591 0.5 53
  123.9963 3.0 322
  125.0033 0.4 42
  126.011 0.6 64
  130.0658 0.5 53
  138.0111 0.4 42
  139.0061 0.4 42
  140.0248 0.6 64
  142.9447 0.6 64
  143.9523 1.4 150
  150.0481 1.0 107
  152.0167 0.6 64
  153.0224 0.5 53
  177.0452 0.5 53
  184.0046 0.4 42
  213.0208 0.6 64
//