ACCESSION: MSBNK-BAFG-CSL23102511903
RECORD_TITLE: (4-Carboxybutyl)triphenylphosphonium; LC-ESI-QTOF; MS2; 140 V
DATE: 2023.10.25
AUTHORS: Kevin S. Jewell; Björn Ehlig; Arne Wick
LICENSE: dl-de/by-2-0
COPYRIGHT: Copyright 2023 Federal Institute of Hydrology, Koblenz, Germany
COMMENT: CONFIDENCE Reference Standard (Level 1)
COMMENT: Chromatography method: dx.doi.org/10.1016/j.chroma.2015.11.014
COMMENT: Acquisition method: 10.1002/rcm.8541
CH$NAME: (4-Carboxybutyl)triphenylphosphonium
CH$FORMULA: C23H24O2P
CH$EXACT_MASS: 363.1508
CH$SMILES: C1=CC=C(C=C1)[P+](CCCCC(=O)O)(C2=CC=CC=C2)C3=CC=CC=C3
CH$IUPAC: InChI=1S/C23H23O2P/c24-23(25)18-10-11-19-26(20-12-4-1-5-13-20,21-14-6-2-7-15-21)22-16-8-3-9-17-22/h1-9,12-17H,10-11,18-19H2/p+1
CH$LINK: CAS 17814-85-6
CH$LINK: INCHIKEY CPVNCBJFUQQXSU-UHFFFAOYSA-O
AC$INSTRUMENT: TripleTOF 5600 SCIEX
AC$INSTRUMENT_TYPE: LC-ESI-QTOF
AC$MASS_SPECTROMETRY: MS_TYPE MS2
AC$MASS_SPECTROMETRY: ION_MODE POSITIVE
AC$MASS_SPECTROMETRY: COLLISION_ENERGY 140
AC$MASS_SPECTROMETRY: FRAGMENTATION_MODE CID
AC$MASS_SPECTROMETRY: IONIZATION ESI
AC$CHROMATOGRAPHY: COLUMN_NAME Zorbax Eclipse Plus C18 2.1 mm x 150 mm, 3.5 um, Agilent
AC$CHROMATOGRAPHY: COLUMN_TEMPERATURE 40 °C
AC$CHROMATOGRAPHY: FLOW_GRADIENT 0 min min 98% A, 1 min 98% A, 2 min 80% A, 16.5 min 2% A, 22 min 2% A, 22.1 min 98% A, 27 min 98% A
AC$CHROMATOGRAPHY: FLOW_RATE 0.3 mL/min
AC$CHROMATOGRAPHY: RETENTION_TIME 7.21 min
AC$CHROMATOGRAPHY: SOLVENT A: Water 0.1% Formic acid, B: Acetonitrile 0.1% Formic acid
MS$FOCUSED_ION: PRECURSOR_M/Z 363.1508
MS$FOCUSED_ION: PRECURSOR_TYPE [M]+
MS$DATA_PROCESSING: COMMENT Export with Spectra 1.9.12 MsBackendMassbank 1.7.4
MS$DATA_PROCESSING: WHOLE RMassBank 2.3.1
PK$SPLASH: splash10-0zfr-0900000000-6a78e8fc4fc79a872f2f
PK$NUM_PEAK: 21
PK$PEAK: m/z int. rel.int.
  63.0217 5.4 58
  79.9791 6.3 67
  80.9871 14.4 155
  89.0365 16.9 181
  102.0446 7.7 82
  107.0027 68.8 740
  113.0363 6.8 73
  115.0523 33.4 359
  126.045 17.6 189
  131.003 7 75
  133.0183 8.1 87
  139.0528 30.1 324
  150.0457 12.3 132
  151.0534 42.1 453
  152.0612 92.8 999
  156.012 7.9 85
  157.0193 51.8 557
  181.0193 34.4 370
  183.0346 18.5 199
  226.0769 10.2 109
  257.0512 6 64
//
