ACCESSION: MSBNK-BAFG-CSL2310263049
RECORD_TITLE: Torasemide; LC-ESI-QTOF; MS2; 70 V
DATE: 2023.10.26
AUTHORS: Kevin S. Jewell; Björn Ehlig; Arne Wick
LICENSE: dl-de/by-2-0
COPYRIGHT: Copyright 2023 Federal Institute of Hydrology, Koblenz, Germany
COMMENT: CONFIDENCE Reference Standard (Level 1)
COMMENT: Chromatography method: dx.doi.org/10.1016/j.chroma.2015.11.014
COMMENT: Acquisition method: 10.1002/rcm.8541
CH$NAME: Torasemide
CH$COMPOUND_CLASS: Pharmaceutical
CH$FORMULA: C16H20N4O3S
CH$EXACT_MASS: 348.1256
CH$SMILES: CC(C)NC(=O)N[S](=O)(=O)c1cnccc1Nc2cccc(C)c2
CH$IUPAC: InChI=1S/C16H20N4O3S/c1-11(2)18-16(21)20-24(22,23)15-10-17-8-7-14(15)19-13-6-4-5-12(3)9-13/h4-11H,1-3H3,(H,17,19)(H2,18,20,21)
CH$LINK: CAS 56211-40-6
CH$LINK: INCHIKEY NGBFQHCMQULJNZ-UHFFFAOYSA-N
AC$INSTRUMENT: TripleTOF 5600 SCIEX
AC$INSTRUMENT_TYPE: LC-ESI-QTOF
AC$MASS_SPECTROMETRY: MS_TYPE MS2
AC$MASS_SPECTROMETRY: ION_MODE POSITIVE
AC$MASS_SPECTROMETRY: COLLISION_ENERGY 70
AC$MASS_SPECTROMETRY: FRAGMENTATION_MODE CID
AC$MASS_SPECTROMETRY: IONIZATION ESI
AC$CHROMATOGRAPHY: COLUMN_NAME Zorbax Eclipse Plus C18 2.1 mm x 150 mm, 3.5 um, Agilent
AC$CHROMATOGRAPHY: COLUMN_TEMPERATURE 40 °C
AC$CHROMATOGRAPHY: FLOW_GRADIENT 0 min min 98% A, 1 min 98% A, 2 min 80% A, 16.5 min 2% A, 22 min 2% A, 22.1 min 98% A, 27 min 98% A
AC$CHROMATOGRAPHY: FLOW_RATE 0.3 mL/min
AC$CHROMATOGRAPHY: RETENTION_TIME 7.633 min
AC$CHROMATOGRAPHY: SOLVENT A: Water 0.1% Formic acid, B: Acetonitrile 0.1% Formic acid
MS$FOCUSED_ION: PRECURSOR_M/Z 349.1329
MS$FOCUSED_ION: PRECURSOR_TYPE [M+H]+
MS$DATA_PROCESSING: COMMENT Export with Spectra 1.9.12 MsBackendMassbank 1.7.4
MS$DATA_PROCESSING: WHOLE RMassBank 2.3.1
PK$SPLASH: splash10-0159-0900000000-17526516df15b0fb960d
PK$NUM_PEAK: 31
PK$PEAK: m/z int. rel.int.
  67.0455 10.2 12
  81.047 11.5 14
  98.0067 9.8 12
  114.0466 39 49
  115.053 9.3 11
  116.049 8.3 10
  117.0573 39.1 49
  125.0168 21 26
  127.0538 21.1 26
  128.0606 61.9 78
  129.0696 29.3 37
  137.0167 15.9 20
  140.0497 65.2 82
  141.0577 98.9 125
  142.0526 17.1 21
  154.0646 30.1 38
  155.0642 17.1 21
  156.0737 22.2 28
  166.0534 8 10
  167.0601 44 55
  168.0685 785.4 999
  169.0765 24 30
  175.0329 10.4 13
  181.0762 277.6 353
  182.0838 180.9 230
  183.0916 274.6 349
  197.0705 12 15
  198.0788 15 19
  199.0866 13.5 17
  201.0481 23.4 29
  229.0426 9.4 11
//
