ACCESSION: MSBNK-BAFG-CSL23111016886
RECORD_TITLE: Difenoconazole; LC-ESI-QTOF; MS2; 100 V
DATE: 2023.11.10
AUTHORS: Kevin S. Jewell; Björn Ehlig; Arne Wick
LICENSE: dl-de/by-2-0
COPYRIGHT: Copyright 2023 Federal Institute of Hydrology, Koblenz, Germany
COMMENT: CONFIDENCE Reference Standard (Level 1)
COMMENT: Chromatography method: dx.doi.org/10.1016/j.chroma.2015.11.014
COMMENT: Acquisition method: 10.1002/rcm.8541
CH$NAME: Difenoconazole
CH$COMPOUND_CLASS: Fungicide
CH$FORMULA: C19H17Cl2N3O3
CH$EXACT_MASS: 405.0647
CH$SMILES: CC1COC(Cn2cncn2)(O1)c3ccc(Oc4ccc(Cl)cc4)cc3Cl
CH$IUPAC: InChI=1S/C19H17Cl2N3O3/c1-13-9-25-19(27-13,10-24-12-22-11-23-24)17-7-6-16(8-18(17)21)26-15-4-2-14(20)3-5-15/h2-8,11-13H,9-10H2,1H3
CH$LINK: CAS 119446-68-3
CH$LINK: INCHIKEY BQYJATMQXGBDHF-UHFFFAOYSA-N
AC$INSTRUMENT: TripleTOF 6600 SCIEX
AC$INSTRUMENT_TYPE: LC-ESI-QTOF
AC$MASS_SPECTROMETRY: MS_TYPE MS2
AC$MASS_SPECTROMETRY: ION_MODE POSITIVE
AC$MASS_SPECTROMETRY: COLLISION_ENERGY 100
AC$MASS_SPECTROMETRY: FRAGMENTATION_MODE CID
AC$MASS_SPECTROMETRY: IONIZATION ESI
AC$CHROMATOGRAPHY: COLUMN_NAME Zorbax Eclipse Plus C18 2.1 mm x 150 mm, 3.5 um, Agilent
AC$CHROMATOGRAPHY: COLUMN_TEMPERATURE 40 °C
AC$CHROMATOGRAPHY: FLOW_GRADIENT 0 min min 98% A, 1 min 98% A, 2 min 80% A, 16.5 min 2% A, 22 min 2% A, 22.1 min 98% A, 27 min 98% A
AC$CHROMATOGRAPHY: FLOW_RATE 0.3 mL/min
AC$CHROMATOGRAPHY: RETENTION_TIME 13.755 min
AC$CHROMATOGRAPHY: SOLVENT A: Water 0.1% Formic acid, B: Acetonitrile 0.1% Formic acid
MS$FOCUSED_ION: PRECURSOR_M/Z 406.072
MS$FOCUSED_ION: PRECURSOR_TYPE [M+H]+
MS$DATA_PROCESSING: COMMENT Export with Spectra 1.9.12 MsBackendMassbank 1.7.4
MS$DATA_PROCESSING: WHOLE RMassBank 2.3.1
PK$SPLASH: splash10-0ufr-5900000000-f6d8fa936d19a85021ca
PK$NUM_PEAK: 46
PK$PEAK: m/z int. rel.int.
  39.0232 1.2 14
  50.0146 2.8 34
  51.0229 3.8 47
  60.983 0.8 9
  63.023 1 12
  72.983 1.4 17
  74.015 20 249
  75.0229 80 999
  76.0301 1.3 16
  77.0382 10.8 134
  78.0454 1.7 21
  84.9832 6.4 79
  89.0384 2.5 31
  98.9994 1.2 14
  102.0452 1.4 17
  110.9992 31.2 389
  113.0135 1 12
  113.0388 1 12
  114.0462 0.8 9
  115.0536 0.9 11
  126.0454 2.3 28
  127.0536 3.2 39
  128.0612 3.1 38
  138.0458 2.5 31
  139.0055 8 99
  139.0534 15.7 196
  141.0096 13 162
  149.0151 3.1 38
  150.0467 3 37
  151.0534 11.5 143
  152.0617 67.6 844
  153.0695 16 199
  154.987 1.1 13
  155.0601 0.9 11
  162.0218 2.5 31
  167.0485 1.8 22
  173.0145 3.8 47
  179.0589 2 24
  180.0564 0.8 9
  181.0638 4.9 61
  182.9758 2.2 27
  187.0298 0.9 11
  188.038 6.7 83
  202.0168 3.8 47
  215.0249 2.4 29
  264.9836 0.9 11
//
