ACCESSION: MSBNK-BAFG-CSL23111010540
RECORD_TITLE: Triadimefon; LC-ESI-QTOF; MS2; 40 V
DATE: 2023.11.10
AUTHORS: Kevin S. Jewell; Björn Ehlig; Arne Wick
LICENSE: dl-de/by-2-0
COPYRIGHT: Copyright 2023 Federal Institute of Hydrology, Koblenz, Germany
COMMENT: CONFIDENCE Reference Standard (Level 1)
COMMENT: Chromatography method: dx.doi.org/10.1016/j.chroma.2015.11.014
COMMENT: Acquisition method: 10.1002/rcm.8541
CH$NAME: Triadimefon
CH$COMPOUND_CLASS: Fungicide; Transformation_product
CH$FORMULA: C14H16ClN3O2
CH$EXACT_MASS: 293.0931
CH$SMILES: CC(C)(C)C(=O)C(N1C=NC=N1)OC2=CC=C(C=C2)Cl
CH$IUPAC: InChI=1S/C14H16ClN3O2/c1-14(2,3)12(19)13(18-9-16-8-17-18)20-11-6-4-10(15)5-7-11/h4-9,13H,1-3H3
CH$LINK: CAS 43121-43-3
CH$LINK: INCHIKEY WURBVZBTWMNKQT-UHFFFAOYSA-N
AC$INSTRUMENT: TripleTOF 5600 SCIEX
AC$INSTRUMENT_TYPE: LC-ESI-QTOF
AC$MASS_SPECTROMETRY: MS_TYPE MS2
AC$MASS_SPECTROMETRY: ION_MODE POSITIVE
AC$MASS_SPECTROMETRY: COLLISION_ENERGY 40
AC$MASS_SPECTROMETRY: FRAGMENTATION_MODE CID
AC$MASS_SPECTROMETRY: IONIZATION ESI
AC$CHROMATOGRAPHY: COLUMN_NAME Zorbax Eclipse Plus C18 2.1 mm x 150 mm, 3.5 um, Agilent
AC$CHROMATOGRAPHY: COLUMN_TEMPERATURE 40 °C
AC$CHROMATOGRAPHY: FLOW_GRADIENT 0 min min 98% A, 1 min 98% A, 2 min 80% A, 16.5 min 2% A, 22 min 2% A, 22.1 min 98% A, 27 min 98% A
AC$CHROMATOGRAPHY: FLOW_RATE 0.3 mL/min
AC$CHROMATOGRAPHY: RETENTION_TIME 12.319 min
AC$CHROMATOGRAPHY: SOLVENT A: Water 0.1% Formic acid, B: Acetonitrile 0.1% Formic acid
MS$FOCUSED_ION: PRECURSOR_M/Z 294.1004
MS$FOCUSED_ION: PRECURSOR_TYPE [M+H]+
MS$DATA_PROCESSING: COMMENT Export with Spectra 1.9.12 MsBackendMassbank 1.7.4
MS$DATA_PROCESSING: WHOLE RMassBank 2.3.1
PK$SPLASH: splash10-0694-9800000000-fd0c5786b7fb96652693
PK$NUM_PEAK: 32
PK$PEAK: m/z int. rel.int.
  39.0231 6.5 73
  41.0388 18.1 205
  55.0545 5.7 64
  57.0701 35.5 403
  65.0379 1.1 12
  67.0541 1.8 20
  69.0702 88 999
  70.0775 12 136
  72.9841 1.7 19
  75.0232 2.5 28
  77.0386 6.6 74
  91.0541 3.1 35
  93.0337 2.6 29
  94.0412 2.3 26
  98.9993 22.8 258
  103.0313 1.1 12
  110.0354 1.3 14
  110.9993 19.6 222
  113.0146 9.3 105
  120.0547 1.2 13
  126.9941 31.3 355
  127.0308 1.3 14
  129.0101 27.9 316
  139.0061 2.5 28
  141.0099 40.9 464
  155.0254 19 215
  161.0949 1.5 17
  175.0756 1.3 14
  190.0968 1.2 13
  197.0736 40.2 456
  225.0687 6.3 71
  294.1012 3 34
//
