ACCESSION: MSBNK-BAFG-CSL23102614420
RECORD_TITLE: Bisphenol-A bis(diphenyl phosphate); LC-ESI-QTOF; MS2; 150 V
DATE: 2023.10.26
AUTHORS: Kevin S. Jewell; Björn Ehlig; Arne Wick
LICENSE: dl-de/by-2-0
COPYRIGHT: Copyright 2023 Federal Institute of Hydrology, Koblenz, Germany
COMMENT: CONFIDENCE Reference Standard (Level 1)
COMMENT: Chromatography method: dx.doi.org/10.1016/j.chroma.2015.11.014
COMMENT: Acquisition method: 10.1002/rcm.8541
CH$NAME: Bisphenol-A bis(diphenyl phosphate)
CH$COMPOUND_CLASS: Industrial_process
CH$FORMULA: C39H34O8P2
CH$EXACT_MASS: 692.1729
CH$SMILES: CC(C)(C1=CC=C(C=C1)OP(=O)(OC2=CC=CC=C2)OC3=CC=CC=C3)C4=CC=C(C=C4)OP(=O)(OC5=CC=CC=C5)OC6=CC=CC=C6
CH$IUPAC: InChI=1S/C39H34O8P2/c1-39(2,31-23-27-37(28-24-31)46-48(40,42-33-15-7-3-8-16-33)43-34-17-9-4-10-18-34)32-25-29-38(30-26-32)47-49(41,44-35-19-11-5-12-20-35)45-36-21-13-6-14-22-36/h3-30H,1-2H3
CH$LINK: CAS 5945-33-5
CH$LINK: INCHIKEY BQPNUOYXSVUVMY-UHFFFAOYSA-N
AC$INSTRUMENT: TripleTOF 6600 SCIEX
AC$INSTRUMENT_TYPE: LC-ESI-QTOF
AC$MASS_SPECTROMETRY: MS_TYPE MS2
AC$MASS_SPECTROMETRY: ION_MODE POSITIVE
AC$MASS_SPECTROMETRY: COLLISION_ENERGY 150
AC$MASS_SPECTROMETRY: FRAGMENTATION_MODE CID
AC$MASS_SPECTROMETRY: IONIZATION ESI
AC$CHROMATOGRAPHY: COLUMN_NAME Zorbax Eclipse Plus C18 2.1 mm x 150 mm, 3.5 um, Agilent
AC$CHROMATOGRAPHY: COLUMN_TEMPERATURE 40 °C
AC$CHROMATOGRAPHY: FLOW_GRADIENT 0 min min 98% A, 1 min 98% A, 2 min 80% A, 16.5 min 2% A, 22 min 2% A, 22.1 min 98% A, 27 min 98% A
AC$CHROMATOGRAPHY: FLOW_RATE 0.3 mL/min
AC$CHROMATOGRAPHY: RETENTION_TIME 17.714 min
AC$CHROMATOGRAPHY: SOLVENT A: Water 0.1% Formic acid, B: Acetonitrile 0.1% Formic acid
MS$FOCUSED_ION: PRECURSOR_M/Z 693.1802
MS$FOCUSED_ION: PRECURSOR_TYPE [M+H]+
MS$DATA_PROCESSING: COMMENT Export with Spectra 1.9.12 MsBackendMassbank 1.7.4
MS$DATA_PROCESSING: WHOLE RMassBank 2.3.1
PK$SPLASH: splash10-0gb9-2900000000-97b52ddbe8cdd893aedb
PK$NUM_PEAK: 38
PK$PEAK: m/z int. rel.int.
  51.0222 1.4 133
  65.038 2 190
  77.0377 4.9 466
  79.0534 0.7 66
  89.0376 0.9 85
  91.0538 3.9 371
  103.0533 0.6 57
  105.0689 0.5 47
  115.0533 10.5 999
  117.0685 0.4 38
  126.0444 0.5 47
  127.0521 0.8 76
  128.0613 0.7 66
  133.0194 0.6 57
  138.9932 0.6 57
  139.0528 2.8 266
  141.0694 1 95
  150.0443 1 95
  151.0527 3.8 361
  152.0609 10.4 989
  153.0691 0.8 76
  163.055 0.5 47
  164.061 0.7 66
  165.0685 2.6 247
  168.0565 8.6 818
  176.0605 2.6 247
  177.0701 1.8 171
  178.0752 2 190
  187.0282 0.5 47
  189.0686 1.3 123
  191.0874 0.4 38
  215.0251 0.9 85
  226.0773 1.5 142
  227.0886 0.4 38
  228.0962 0.5 47
  237.0669 0.4 38
  239.0853 1 95
  252.0921 0.7 66
//
