ACCESSION: MSBNK-BAFG-CSL23111018838
RECORD_TITLE: Fluquinconazole; LC-ESI-QTOF; MS2; 50 V
DATE: 2023.11.10
AUTHORS: Kevin S. Jewell; Björn Ehlig; Arne Wick
LICENSE: dl-de/by-2-0
COPYRIGHT: Copyright 2023 Federal Institute of Hydrology, Koblenz, Germany
COMMENT: CONFIDENCE Reference Standard (Level 1)
COMMENT: Chromatography method: dx.doi.org/10.1016/j.chroma.2015.11.014
COMMENT: Acquisition method: 10.1002/rcm.8541
CH$NAME: Fluquinconazole
CH$COMPOUND_CLASS: Fungicide
CH$FORMULA: C16H8Cl2FN5O
CH$EXACT_MASS: 375.009
CH$SMILES: C1=CC2=C(C=C1F)C(=O)N(C(=N2)N3C=NC=N3)C4=C(C=C(C=C4)Cl)Cl
CH$IUPAC: InChI=1S/C16H8Cl2FN5O/c17-9-1-4-14(12(18)5-9)24-15(25)11-6-10(19)2-3-13(11)22-16(24)23-8-20-7-21-23/h1-8H
CH$LINK: CAS 136426-54-5
CH$LINK: INCHIKEY IJJVMEJXYNJXOJ-UHFFFAOYSA-N
AC$INSTRUMENT: TripleTOF 6600 SCIEX
AC$INSTRUMENT_TYPE: LC-ESI-QTOF
AC$MASS_SPECTROMETRY: MS_TYPE MS2
AC$MASS_SPECTROMETRY: ION_MODE POSITIVE
AC$MASS_SPECTROMETRY: COLLISION_ENERGY 50
AC$MASS_SPECTROMETRY: FRAGMENTATION_MODE CID
AC$MASS_SPECTROMETRY: IONIZATION ESI
AC$CHROMATOGRAPHY: COLUMN_NAME Zorbax Eclipse Plus C18 2.1 mm x 150 mm, 3.5 um, Agilent
AC$CHROMATOGRAPHY: COLUMN_TEMPERATURE 40 °C
AC$CHROMATOGRAPHY: FLOW_GRADIENT 0 min min 98% A, 1 min 98% A, 2 min 80% A, 16.5 min 2% A, 22 min 2% A, 22.1 min 98% A, 27 min 98% A
AC$CHROMATOGRAPHY: FLOW_RATE 0.3 mL/min
AC$CHROMATOGRAPHY: RETENTION_TIME 12.549 min
AC$CHROMATOGRAPHY: SOLVENT A: Water 0.1% Formic acid, B: Acetonitrile 0.1% Formic acid
MS$FOCUSED_ION: PRECURSOR_M/Z 376.0163
MS$FOCUSED_ION: PRECURSOR_TYPE [M+H]+
MS$DATA_PROCESSING: COMMENT Export with Spectra 1.9.12 MsBackendMassbank 1.7.4
MS$DATA_PROCESSING: WHOLE RMassBank 2.3.1
PK$SPLASH: splash10-0ab9-0595000000-d24079383c22afb174c1
PK$NUM_PEAK: 21
PK$PEAK: m/z int. rel.int.
  82.008 4.4 14
  108.0238 176.1 590
  123.994 100.5 337
  132.9601 3.7 12
  135.035 4 13
  157.9556 3.6 12
  163.0295 59.1 198
  170.9628 4.3 14
  208.0431 3.6 12
  209.0484 13.4 44
  237.0437 11.3 37
  243.0123 18.1 60
  244.0195 106.4 357
  251.9788 12 40
  272.0152 289.2 970
  278.9894 91.7 307
  287.0266 16.8 56
  306.9844 297.7 999
  313.0277 10 33
  331.9789 13.8 46
  349.0068 11.1 37
//
