ACCESSION: MSBNK-BAFG-CSL23102612043
RECORD_TITLE: Eprinomectin B1A; LC-ESI-QTOF; MS2; 90 V
DATE: 2023.10.26
AUTHORS: Kevin S. Jewell; Björn Ehlig; Arne Wick
LICENSE: dl-de/by-2-0
COPYRIGHT: Copyright 2023 Federal Institute of Hydrology, Koblenz, Germany
COMMENT: CONFIDENCE Reference Standard (Level 1)
COMMENT: Chromatography method: dx.doi.org/10.1016/j.chroma.2015.11.014
COMMENT: Acquisition method: 10.1002/rcm.8541
CH$NAME: Eprinomectin B1A
CH$FORMULA: C50H75NO14
CH$EXACT_MASS: 913.5188
CH$SMILES: CCC(C)C1C(C=CC2(O1)CC3CC(O2)CC=C(C(C(C=CC=C4COC5C4(C(C=C(C5O)C)C(=O)O3)O)C)OC6CC(C(C(O6)C)OC7CC(C(C(O7)C)NC(=O)C)OC)OC)C)C
CH$IUPAC: InChI=1S/C50H75NO14/c1-12-26(2)45-29(5)18-19-49(65-45)24-36-21-35(64-49)17-16-28(4)44(27(3)14-13-15-34-25-58-47-43(53)30(6)20-37(48(54)61-36)50(34,47)55)62-41-23-39(57-11)46(32(8)60-41)63-40-22-38(56-10)42(31(7)59-40)51-33(9)52/h13-16,18-20,26-27,29,31-32,35-47,53,55H,12,17,21-25H2,1-11H3,(H,51,52)
CH$LINK: CAS 133305-88-1
CH$LINK: INCHIKEY ZKWQQXZUCOBISE-UHFFFAOYSA-N
AC$INSTRUMENT: TripleTOF 5600 SCIEX
AC$INSTRUMENT_TYPE: LC-ESI-QTOF
AC$MASS_SPECTROMETRY: MS_TYPE MS2
AC$MASS_SPECTROMETRY: ION_MODE POSITIVE
AC$MASS_SPECTROMETRY: COLLISION_ENERGY 90
AC$MASS_SPECTROMETRY: FRAGMENTATION_MODE CID
AC$MASS_SPECTROMETRY: IONIZATION ESI
AC$CHROMATOGRAPHY: COLUMN_NAME Zorbax Eclipse Plus C18 2.1 mm x 150 mm, 3.5 um, Agilent
AC$CHROMATOGRAPHY: COLUMN_TEMPERATURE 40 °C
AC$CHROMATOGRAPHY: FLOW_GRADIENT 0 min min 98% A, 1 min 98% A, 2 min 80% A, 16.5 min 2% A, 22 min 2% A, 22.1 min 98% A, 27 min 98% A
AC$CHROMATOGRAPHY: FLOW_RATE 0.3 mL/min
AC$CHROMATOGRAPHY: RETENTION_TIME 16.157 min
AC$CHROMATOGRAPHY: SOLVENT A: Water 0.1% Formic acid, B: Acetonitrile 0.1% Formic acid
MS$FOCUSED_ION: PRECURSOR_M/Z 914.526
MS$FOCUSED_ION: PRECURSOR_TYPE [M+H]+
MS$DATA_PROCESSING: COMMENT Export with Spectra 1.9.12 MsBackendMassbank 1.7.4
MS$DATA_PROCESSING: WHOLE RMassBank 2.3.1
PK$SPLASH: splash10-03dl-0900000000-65046390f9dc732f0d05
PK$NUM_PEAK: 12
PK$PEAK: m/z int. rel.int.
  94.065 1 181
  95.0473 0.7 127
  110.0571 0.4 72
  112.0758 5.5 999
  113.0591 1 181
  142.087 0.5 90
  143.0865 0.4 72
  144.1011 3.8 690
  154.0848 2.4 435
  171.1161 0.9 163
  186.1113 1.2 217
  199.1147 0.7 127
//
