ACCESSION: MSBNK-BAFG-CSL25011734685
RECORD_TITLE: Crystal Violet Cation; LC-ESI-QTOF; MS2; 90 V
DATE: 2025.01.17
AUTHORS: Ole Lessmann; Kevin S. Jewell; Björn Ehlig; Arne Wick
LICENSE: dl-de/by-2-0
COPYRIGHT: Copyright 2025 Federal Institute of Hydrology, Koblenz, Germany
COMMENT: CONFIDENCE Reference Standard (Level 1)
COMMENT: Chromatography method: dx.doi.org/10.1016/j.chroma.2015.11.014
CH$NAME: Crystal Violet Cation
CH$FORMULA: [C25H30N3]+
CH$EXACT_MASS: 372.2434
CH$SMILES: CN(C)C1=CC=C(C=C1)C(=C2C=CC(=[N+](C)C)C=C2)C3=CC=C(C=C3)N(C)C
CH$IUPAC: InChI=1S/C25H30N3/c1-26(2)22-13-7-19(8-14-22)25(20-9-15-23(16-10-20)27(3)4)21-11-17-24(18-12-21)28(5)6/h7-18H,1-6H3/q+1
CH$LINK: CAS 7438-46-2
CH$LINK: INCHIKEY LGLFFNDHMLKUMI-UHFFFAOYSA-N
AC$INSTRUMENT: TripleTOF 6600 SCIEX
AC$INSTRUMENT_TYPE: LC-ESI-QTOF
AC$MASS_SPECTROMETRY: MS_TYPE MS2
AC$MASS_SPECTROMETRY: ION_MODE POSITIVE
AC$MASS_SPECTROMETRY: COLLISION_ENERGY 90
AC$MASS_SPECTROMETRY: FRAGMENTATION_MODE CID
AC$MASS_SPECTROMETRY: IONIZATION ESI
AC$CHROMATOGRAPHY: COLUMN_NAME Zorbax Eclipse Plus C18 2.1 mm x 150 mm, 3.5 um, Agilent
AC$CHROMATOGRAPHY: COLUMN_TEMPERATURE 40 °C
AC$CHROMATOGRAPHY: FLOW_GRADIENT 0 min min 98% A, 1 min 98% A, 2 min 80% A, 16.5 min 2% A, 22 min 2% A, 22.1 min 98% A, 27 min 98% A
AC$CHROMATOGRAPHY: FLOW_RATE 0.3 mL/min
AC$CHROMATOGRAPHY: RETENTION_TIME 11.587 min
AC$CHROMATOGRAPHY: SOLVENT A: Water 0.1% Formic acid, B: Acetonitrile 0.1% Formic acid
MS$FOCUSED_ION: PRECURSOR_M/Z 372.2434
MS$FOCUSED_ION: PRECURSOR_TYPE [M]+
MS$DATA_PROCESSING: COMMENT Export with pycsl 0.1.0.dev1 and CSL 25.0
PK$SPLASH: splash10-00ko-0193000000-e5d36ad42cfa0986a9ac
PK$NUM_PEAK: 36
PK$PEAK: m/z int. rel.int.
  118.0618 18.4 79
  165.0671 71.9 310
  190.0642 13.8 59
  191.0711 36.4 157
  192.0783 83.0 358
  207.1012 22.7 98
  208.1099 49.9 215
  215.0828 32.4 139
  219.0898 57.3 247
  220.0973 24.9 107
  226.0773 19.2 82
  228.093 22.8 98
  235.1212 132.3 571
  239.0836 121.2 523
  240.0906 62.8 271
  241.0982 85.5 369
  242.099 20.6 89
  253.0917 14.6 63
  254.0931 24.9 107
  255.1034 16.1 69
  256.1099 11.8 50
  266.0942 12.5 54
  267.1032 32.8 141
  268.1111 224.1 968
  269.1184 29.7 128
  281.1105 13.6 58
  282.1187 21.4 92
  283.1281 17.6 76
  284.1412 76.4 330
  295.119 64.9 280
  296.1288 49.8 215
  297.1373 49.9 215
  311.1532 147.9 639
  312.1623 25.7 111
  324.1482 100.1 432
  340.1796 231.2 999
//
