ACCESSION: MSBNK-BAFG-CSL23111016830
RECORD_TITLE: Bis(2,4,4-trimethylpentyl)phosphinic acid; LC-ESI-QTOF; MS2; 120 V
DATE: 2023.11.10
AUTHORS: Kevin S. Jewell; Björn Ehlig; Arne Wick
LICENSE: dl-de/by-2-0
COPYRIGHT: Copyright 2023 Federal Institute of Hydrology, Koblenz, Germany
COMMENT: CONFIDENCE Reference Standard (Level 1)
COMMENT: Chromatography method: dx.doi.org/10.1016/j.chroma.2015.11.014
COMMENT: Acquisition method: 10.1002/rcm.8541
CH$NAME: Bis(2,4,4-trimethylpentyl)phosphinic acid
CH$COMPOUND_CLASS: Industrial_process
CH$FORMULA: C16H35O2P
CH$EXACT_MASS: 290.2375
CH$SMILES: CC(CC(C)(C)C)CP(=O)(CC(C)CC(C)(C)C)O
CH$IUPAC: InChI=1S/C16H35O2P/c1-13(9-15(3,4)5)11-19(17,18)12-14(2)10-16(6,7)8/h13-14H,9-12H2,1-8H3,(H,17,18)
CH$LINK: CAS 83411-71-6
CH$LINK: INCHIKEY QUXFOKCUIZCKGS-UHFFFAOYSA-N
AC$INSTRUMENT: TripleTOF 6600 SCIEX
AC$INSTRUMENT_TYPE: LC-ESI-QTOF
AC$MASS_SPECTROMETRY: MS_TYPE MS2
AC$MASS_SPECTROMETRY: ION_MODE POSITIVE
AC$MASS_SPECTROMETRY: COLLISION_ENERGY 120
AC$MASS_SPECTROMETRY: FRAGMENTATION_MODE CID
AC$MASS_SPECTROMETRY: IONIZATION ESI
AC$CHROMATOGRAPHY: COLUMN_NAME Zorbax Eclipse Plus C18 2.1 mm x 150 mm, 3.5 um, Agilent
AC$CHROMATOGRAPHY: COLUMN_TEMPERATURE 40 °C
AC$CHROMATOGRAPHY: FLOW_GRADIENT 0 min min 98% A, 1 min 98% A, 2 min 80% A, 16.5 min 2% A, 22 min 2% A, 22.1 min 98% A, 27 min 98% A
AC$CHROMATOGRAPHY: FLOW_RATE 0.3 mL/min
AC$CHROMATOGRAPHY: RETENTION_TIME 14.45 min
AC$CHROMATOGRAPHY: SOLVENT A: Water 0.1% Formic acid, B: Acetonitrile 0.1% Formic acid
MS$FOCUSED_ION: PRECURSOR_M/Z 291.2448
MS$FOCUSED_ION: PRECURSOR_TYPE [M+H]+
MS$DATA_PROCESSING: COMMENT Export with Spectra 1.9.12 MsBackendMassbank 1.7.4
MS$DATA_PROCESSING: WHOLE RMassBank 2.3.1
PK$SPLASH: splash10-0002-9000000000-76b4cda9eebdbf4f90cb
PK$NUM_PEAK: 17
PK$PEAK: m/z int. rel.int.
  35.9989 0.9 17
  37.0067 3.3 64
  38.0023 1.2 23
  38.0147 2.8 54
  39.0225 16.4 319
  41.0381 7.5 146
  43.9808 1.3 25
  44.9879 2.5 48
  46.9677 51.2 999
  47.9752 2.1 40
  48.9832 1.9 37
  53.0132 0.6 11
  55.0543 0.5 9
  60.9832 2.6 50
  62.9984 1.6 31
  64.9779 11.8 230
  78.9932 6.8 132
//
