ACCESSION: MSBNK-BAFG-CSL2310258112
RECORD_TITLE: Voriconazole-N-oxide; LC-ESI-QTOF; MS2; 80 V
DATE: 2023.10.25
AUTHORS: Kevin S. Jewell; Björn Ehlig; Arne Wick
LICENSE: dl-de/by-2-0
COPYRIGHT: Copyright 2023 Federal Institute of Hydrology, Koblenz, Germany
COMMENT: CONFIDENCE Reference Standard (Level 1)
COMMENT: Chromatography method: dx.doi.org/10.1016/j.chroma.2015.11.014
COMMENT: Acquisition method: 10.1002/rcm.8541
CH$NAME: Voriconazole-N-oxide
CH$COMPOUND_CLASS: Metabolite; Pharmaceutical
CH$FORMULA: C16H14F3N5O2
CH$EXACT_MASS: 365.11
CH$SMILES: CC(C1=NC=[N+](C=C1F)[O-])C(CN2C=NC=N2)(C3=C(C=C(C=C3)F)F)O
CH$IUPAC: InChI=1S/C16H14F3N5O2/c1-10(15-14(19)5-24(26)9-21-15)16(25,6-23-8-20-7-22-23)12-3-2-11(17)4-13(12)18/h2-5,7-10,25H,6H2,1H3
CH$LINK: CAS 618109-05-0
CH$LINK: INCHIKEY KPLFPLUCFPRUHU-UHFFFAOYSA-N
AC$INSTRUMENT: TripleTOF 5600 SCIEX
AC$INSTRUMENT_TYPE: LC-ESI-QTOF
AC$MASS_SPECTROMETRY: MS_TYPE MS2
AC$MASS_SPECTROMETRY: ION_MODE POSITIVE
AC$MASS_SPECTROMETRY: COLLISION_ENERGY 80
AC$MASS_SPECTROMETRY: FRAGMENTATION_MODE CID
AC$MASS_SPECTROMETRY: IONIZATION ESI
AC$CHROMATOGRAPHY: COLUMN_NAME Zorbax Eclipse Plus C18 2.1 mm x 150 mm, 3.5 um, Agilent
AC$CHROMATOGRAPHY: COLUMN_TEMPERATURE 40 °C
AC$CHROMATOGRAPHY: FLOW_GRADIENT 0 min min 98% A, 1 min 98% A, 2 min 80% A, 16.5 min 2% A, 22 min 2% A, 22.1 min 98% A, 27 min 98% A
AC$CHROMATOGRAPHY: FLOW_RATE 0.3 mL/min
AC$CHROMATOGRAPHY: RETENTION_TIME 7.739 min
AC$CHROMATOGRAPHY: SOLVENT A: Water 0.1% Formic acid, B: Acetonitrile 0.1% Formic acid
MS$FOCUSED_ION: PRECURSOR_M/Z 366.1172
MS$FOCUSED_ION: PRECURSOR_TYPE [M+H]+
MS$DATA_PROCESSING: COMMENT Export with Spectra 1.9.12 MsBackendMassbank 1.7.4
MS$DATA_PROCESSING: WHOLE RMassBank 2.3.1
PK$SPLASH: splash10-004i-1900000000-9d0ad6fb4cc3fd3ac730
PK$NUM_PEAK: 20
PK$PEAK: m/z int. rel.int.
  55.0348 2.1 25
  68.0541 1 12
  71.0208 1.9 23
  77.0227 1.2 14
  77.0412 1.5 18
  78.0366 1.2 14
  81.0153 0.8 9
  82.0416 2 24
  95.0606 2.1 25
  97.0317 0.9 10
  98.0274 3.1 37
  98.0376 2.2 26
  99.0354 1.1 13
  101.0202 11.6 141
  105.0436 1 12
  107.029 9.8 119
  125.0512 42.3 515
  126.0582 16.6 202
  127.0356 82 999
  141.0178 0.9 10
//
