ACCESSION: MSBNK-BAFG-CSL23111012579
RECORD_TITLE: Diphenylphosphinamide; LC-ESI-QTOF; MS2; 120 V
DATE: 2023.11.10
AUTHORS: Kevin S. Jewell; Björn Ehlig; Arne Wick
LICENSE: dl-de/by-2-0
COPYRIGHT: Copyright 2023 Federal Institute of Hydrology, Koblenz, Germany
COMMENT: CONFIDENCE Reference Standard (Level 1)
COMMENT: Chromatography method: dx.doi.org/10.1016/j.chroma.2015.11.014
COMMENT: Acquisition method: 10.1002/rcm.8541
CH$NAME: Diphenylphosphinamide
CH$FORMULA: C12H12NOP
CH$EXACT_MASS: 217.0657
CH$SMILES: C1=CC=C(C=C1)P(=O)(C2=CC=CC=C2)N
CH$IUPAC: InChI=1S/C12H12NOP/c13-15(14,11-7-3-1-4-8-11)12-9-5-2-6-10-12/h1-10H,(H2,13,14)
CH$LINK: CAS 5994-87-6
CH$LINK: INCHIKEY RIGIWEGXTTUCIQ-UHFFFAOYSA-N
AC$INSTRUMENT: TripleTOF 5600 SCIEX
AC$INSTRUMENT_TYPE: LC-ESI-QTOF
AC$MASS_SPECTROMETRY: MS_TYPE MS2
AC$MASS_SPECTROMETRY: ION_MODE POSITIVE
AC$MASS_SPECTROMETRY: COLLISION_ENERGY 120
AC$MASS_SPECTROMETRY: FRAGMENTATION_MODE CID
AC$MASS_SPECTROMETRY: IONIZATION ESI
AC$CHROMATOGRAPHY: COLUMN_NAME Zorbax Eclipse Plus C18 2.1 mm x 150 mm, 3.5 um, Agilent
AC$CHROMATOGRAPHY: COLUMN_TEMPERATURE 40 °C
AC$CHROMATOGRAPHY: FLOW_GRADIENT 0 min min 98% A, 1 min 98% A, 2 min 80% A, 16.5 min 2% A, 22 min 2% A, 22.1 min 98% A, 27 min 98% A
AC$CHROMATOGRAPHY: FLOW_RATE 0.3 mL/min
AC$CHROMATOGRAPHY: RETENTION_TIME 7.411 min
AC$CHROMATOGRAPHY: SOLVENT A: Water 0.1% Formic acid, B: Acetonitrile 0.1% Formic acid
MS$FOCUSED_ION: PRECURSOR_M/Z 218.0729
MS$FOCUSED_ION: PRECURSOR_TYPE [M+H]+
MS$DATA_PROCESSING: COMMENT Export with Spectra 1.9.12 MsBackendMassbank 1.7.4
MS$DATA_PROCESSING: WHOLE RMassBank 2.3.1
PK$SPLASH: splash10-0udi-9000000000-dd12803a1b13d18f71ef
PK$NUM_PEAK: 19
PK$PEAK: m/z int. rel.int.
  45.9847 1 52
  46.9686 3 158
  49.0072 1.5 79
  50.0155 18.4 972
  51.0233 18.9 999
  62.0156 0.5 26
  63.0219 0.5 26
  63.9953 0.6 31
  67.9821 0.9 47
  68.9896 0.6 31
  73.0082 0.6 31
  74.0148 2.1 111
  75.0233 0.8 42
  76.0316 0.4 21
  77.039 2.7 142
  102.0488 0.7 37
  107.0048 0.4 21
  126.0446 0.6 31
  150.05 0.5 26
//
