ACCESSION: MSBNK-BAFG-CSL25010611693
RECORD_TITLE: Dehydroaripiprazole; LC-ESI-QTOF; MS2; 150 V
DATE: 2025.01.06
AUTHORS: Ole Lessmann; Kevin S. Jewell; Björn Ehlig; Arne Wick
LICENSE: dl-de/by-2-0
COPYRIGHT: Copyright 2025 Federal Institute of Hydrology, Koblenz, Germany
COMMENT: CONFIDENCE Reference Standard (Level 1)
COMMENT: Chromatography method: dx.doi.org/10.1016/j.chroma.2015.11.014
COMMENT: Acquisition method: 10.1002/rcm.8541
CH$NAME: Dehydroaripiprazole
CH$COMPOUND_CLASS: Metabolite; Pharmaceutical; Transformation_product-Metabolite
CH$FORMULA: C23H25Cl2N3O2
CH$EXACT_MASS: 445.1324
CH$SMILES: C1CN(CCN1CCCCOC2=CC3=C(C=C2)C=CC(=O)N3)C4=C(C(=CC=C4)Cl)Cl
CH$IUPAC: InChI=1S/C23H25Cl2N3O2/c24-19-4-3-5-21(23(19)25)28-13-11-27(12-14-28)10-1-2-15-30-18-8-6-17-7-9-22(29)26-20(17)16-18/h3-9,16H,1-2,10-15H2,(H,26,29)
CH$LINK: CAS 129722-25-4
CH$LINK: INCHIKEY CDONPRYEWWPREK-UHFFFAOYSA-N
AC$INSTRUMENT: TripleTOF 5600 SCIEX
AC$INSTRUMENT_TYPE: LC-ESI-QTOF
AC$MASS_SPECTROMETRY: MS_TYPE MS2
AC$MASS_SPECTROMETRY: ION_MODE POSITIVE
AC$MASS_SPECTROMETRY: COLLISION_ENERGY 150
AC$MASS_SPECTROMETRY: FRAGMENTATION_MODE CID
AC$MASS_SPECTROMETRY: IONIZATION ESI
AC$CHROMATOGRAPHY: COLUMN_NAME Zorbax Eclipse Plus C18 2.1 mm x 150 mm, 3.5 um, Agilent
AC$CHROMATOGRAPHY: COLUMN_TEMPERATURE 40 °C
AC$CHROMATOGRAPHY: FLOW_GRADIENT 0 min min 98% A, 1 min 98% A, 2 min 80% A, 16.5 min 2% A, 22 min 2% A, 22.1 min 98% A, 27 min 98% A
AC$CHROMATOGRAPHY: FLOW_RATE 0.3 mL/min
AC$CHROMATOGRAPHY: RETENTION_TIME 7.84 min
AC$CHROMATOGRAPHY: SOLVENT A: Water 0.1% Formic acid, B: Acetonitrile 0.1% Formic acid
MS$FOCUSED_ION: PRECURSOR_M/Z 446.1397
MS$FOCUSED_ION: PRECURSOR_TYPE [M+H]+
MS$DATA_PROCESSING: COMMENT Export with pycsl 0.1.0.dev1 and CSL 24.4
PK$SPLASH: splash10-05n3-9600000000-6cded65247c6198d7da7
PK$NUM_PEAK: 28
PK$PEAK: m/z int. rel.int.
  39.0226 0.4 43
  42.0336 1.0 108
  55.0544 0.5 54
  56.0485 1.6 173
  62.0152 0.7 76
  63.0223 1.8 195
  65.0384 0.8 86
  72.9824 0.5 54
  74.0152 3.0 325
  75.0226 1.9 206
  77.0389 1.0 108
  84.0808 0.8 86
  89.0384 9.2 999
  90.0459 2.0 217
  91.055 1.2 130
  101.0385 0.5 54
  102.0344 0.6 65
  108.9838 4.1 445
  110.9994 1.1 119
  116.0508 1.2 130
  117.0564 5.0 542
  118.0646 0.6 65
  122.9982 0.5 54
  125.0146 0.4 43
  144.9606 2.7 293
  152.0244 0.8 86
  171.9711 0.9 97
  172.9686 0.8 86
//