ACCESSION: MSBNK-BAFG-CSL23103019356
RECORD_TITLE: Ecgonine ethyl ester; LC-ESI-QTOF; MS2; 40 V
DATE: 2023.10.30
AUTHORS: Kevin S. Jewell; Björn Ehlig; Arne Wick
LICENSE: dl-de/by-2-0
COPYRIGHT: Copyright 2023 Federal Institute of Hydrology, Koblenz, Germany
COMMENT: CONFIDENCE Reference Standard (Level 1)
COMMENT: Chromatography method: dx.doi.org/10.1016/j.chroma.2015.11.014
COMMENT: Acquisition method: 10.1002/rcm.8541
CH$NAME: Ecgonine ethyl ester
CH$FORMULA: C11H19NO3
CH$EXACT_MASS: 213.1365
CH$SMILES: CCOC(=O)C1C2CCC(N2C)CC1O
CH$IUPAC: InChI=1S/C11H19NO3/c1-3-15-11(14)10-8-5-4-7(12(8)2)6-9(10)13/h7-10,13H,3-6H2,1-2H3
CH$LINK: CAS 70939-97-8
CH$LINK: INCHIKEY ABDMBNAKYBUEEX-UHFFFAOYSA-N
AC$INSTRUMENT: TripleTOF 6600 SCIEX
AC$INSTRUMENT_TYPE: LC-ESI-QTOF
AC$MASS_SPECTROMETRY: MS_TYPE MS2
AC$MASS_SPECTROMETRY: ION_MODE POSITIVE
AC$MASS_SPECTROMETRY: COLLISION_ENERGY 40
AC$MASS_SPECTROMETRY: FRAGMENTATION_MODE CID
AC$MASS_SPECTROMETRY: IONIZATION ESI
AC$CHROMATOGRAPHY: COLUMN_NAME Zorbax Eclipse Plus C18 2.1 mm x 150 mm, 3.5 um, Agilent
AC$CHROMATOGRAPHY: COLUMN_TEMPERATURE 40 °C
AC$CHROMATOGRAPHY: FLOW_GRADIENT 0 min min 98% A, 1 min 98% A, 2 min 80% A, 16.5 min 2% A, 22 min 2% A, 22.1 min 98% A, 27 min 98% A
AC$CHROMATOGRAPHY: FLOW_RATE 0.3 mL/min
AC$CHROMATOGRAPHY: RETENTION_TIME 2.108 min
AC$CHROMATOGRAPHY: SOLVENT A: Water 0.1% Formic acid, B: Acetonitrile 0.1% Formic acid
MS$FOCUSED_ION: PRECURSOR_M/Z 214.1438
MS$FOCUSED_ION: PRECURSOR_TYPE [M+H]+
MS$DATA_PROCESSING: COMMENT Export with Spectra 1.9.12 MsBackendMassbank 1.7.4
MS$DATA_PROCESSING: WHOLE RMassBank 2.3.1
PK$SPLASH: splash10-001i-9300000000-49af0d08c1511dc45804
PK$NUM_PEAK: 38
PK$PEAK: m/z int. rel.int.
  39.0236 0.3 10
  41.0394 0.5 18
  42.035 0.7 25
  44.0501 0.8 29
  55.0552 0.5 18
  56.0513 0.4 14
  65.039 0.7 25
  67.0434 0.8 29
  67.0549 2.5 91
  68.0504 1.6 58
  69.0337 0.7 25
  70.0659 0.4 14
  77.0387 0.8 29
  81.0707 0.3 10
  82.0661 27.3 999
  83.0499 1 36
  83.0736 2.8 102
  84.0815 1.1 40
  91.0549 3.2 117
  93.0342 0.3 10
  93.0711 0.9 32
  94.0657 1.8 65
  96.0814 1.6 58
  100.0767 1.7 62
  107.0719 0.4 14
  108.0804 1.6 58
  111.045 1 36
  119.0489 2 73
  122.0958 1.6 58
  124.112 0.8 29
  132.0811 0.3 10
  135.0682 0.4 14
  140.0709 1.1 40
  150.0918 0.9 32
  168.1013 3.2 117
  186.1132 0.3 10
  196.1335 4.2 153
  214.1466 0.5 18
//
