ACCESSION: MSBNK-BAFG-CSL23102510233
RECORD_TITLE: Sulfasalazine; LC-ESI-QTOF; MS2; 100 V
DATE: 2023.10.25
AUTHORS: Kevin S. Jewell; Björn Ehlig; Arne Wick
LICENSE: dl-de/by-2-0
COPYRIGHT: Copyright 2023 Federal Institute of Hydrology, Koblenz, Germany
COMMENT: CONFIDENCE Reference Standard (Level 1)
COMMENT: Chromatography method: dx.doi.org/10.1016/j.chroma.2015.11.014
COMMENT: Acquisition method: 10.1002/rcm.8541
CH$NAME: Sulfasalazine
CH$COMPOUND_CLASS: Pharmaceutical
CH$FORMULA: C18H14N4O5S
CH$EXACT_MASS: 398.0685
CH$SMILES: C1=CC=NC(=C1)NS(=O)(=O)C2=CC=C(C=C2)NN=C3C=CC(=O)C(=C3)C(=O)O
CH$IUPAC: InChI=1S/C18H14N4O5S/c23-16-9-6-13(11-15(16)18(24)25)21-20-12-4-7-14(8-5-12)28(26,27)22-17-3-1-2-10-19-17/h1-11,20H,(H,19,22)(H,24,25)
CH$LINK: CAS 599-79-1
CH$LINK: INCHIKEY OQANPHBRHBJGNZ-UHFFFAOYSA-N
AC$INSTRUMENT: TripleTOF 5600 SCIEX
AC$INSTRUMENT_TYPE: LC-ESI-QTOF
AC$MASS_SPECTROMETRY: MS_TYPE MS2
AC$MASS_SPECTROMETRY: ION_MODE POSITIVE
AC$MASS_SPECTROMETRY: COLLISION_ENERGY 100
AC$MASS_SPECTROMETRY: FRAGMENTATION_MODE CID
AC$MASS_SPECTROMETRY: IONIZATION ESI
AC$CHROMATOGRAPHY: COLUMN_NAME Zorbax Eclipse Plus C18 2.1 mm x 150 mm, 3.5 um, Agilent
AC$CHROMATOGRAPHY: COLUMN_TEMPERATURE 40 °C
AC$CHROMATOGRAPHY: FLOW_GRADIENT 0 min min 98% A, 1 min 98% A, 2 min 80% A, 16.5 min 2% A, 22 min 2% A, 22.1 min 98% A, 27 min 98% A
AC$CHROMATOGRAPHY: FLOW_RATE 0.3 mL/min
AC$CHROMATOGRAPHY: RETENTION_TIME 9.217 min
AC$CHROMATOGRAPHY: SOLVENT A: Water 0.1% Formic acid, B: Acetonitrile 0.1% Formic acid
MS$FOCUSED_ION: PRECURSOR_M/Z 399.0758
MS$FOCUSED_ION: PRECURSOR_TYPE [M+H]+
MS$DATA_PROCESSING: COMMENT Export with Spectra 1.9.12 MsBackendMassbank 1.7.4
MS$DATA_PROCESSING: WHOLE RMassBank 2.3.1
PK$SPLASH: splash10-014l-9200000000-9960ab2008630bfa82bb
PK$NUM_PEAK: 41
PK$PEAK: m/z int. rel.int.
  41.0372 0.5 15
  50.0244 0.6 18
  55.0287 0.6 18
  61.0147 1 30
  62.0224 1.4 42
  63.0305 7.1 215
  67.049 32.9 999
  75.0284 0.7 21
  76.0361 2.6 78
  77.0445 3.2 97
  78.0393 2.2 66
  80.019 1.1 33
  81.0389 6.4 194
  89.0437 1.2 36
  91.022 19.6 595
  93.0489 0.8 24
  94.0564 8.6 261
  101.04 0.4 12
  102.0375 1.2 36
  107.0185 0.5 15
  113.0403 1.2 36
  114.0384 0.4 12
  119.0161 3.5 106
  127.056 0.6 18
  128.0507 0.7 21
  129.0469 1 30
  130.0406 0.5 15
  137.0246 1.6 48
  139.0569 2.2 66
  140.0491 1.3 39
  141.0611 0.6 18
  142.057 0.4 12
  154.0553 0.5 15
  155.0611 0.6 18
  156.0691 0.8 24
  166.0571 0.5 15
  167.0618 0.8 24
  168.0681 2.3 69
  169.0783 0.9 27
  180.0567 0.8 24
  229.0742 0.5 15
//
