ACCESSION: MSBNK-BAFG-CSL2310308711
RECORD_TITLE: Thioridazine; LC-ESI-QTOF; MS2; 70 V
DATE: 2023.10.30
AUTHORS: Kevin S. Jewell; Björn Ehlig; Arne Wick
LICENSE: dl-de/by-2-0
COPYRIGHT: Copyright 2023 Federal Institute of Hydrology, Koblenz, Germany
COMMENT: CONFIDENCE Reference Standard (Level 1)
COMMENT: Chromatography method: dx.doi.org/10.1016/j.chroma.2015.11.014
COMMENT: Acquisition method: 10.1002/rcm.8541
CH$NAME: Thioridazine
CH$COMPOUND_CLASS: Pharmaceutical
CH$FORMULA: C21H26N2S2
CH$EXACT_MASS: 370.1537
CH$SMILES: CN1CCCCC1CCN2C3=CC=CC=C3SC4=C2C=C(C=C4)SC
CH$IUPAC: InChI=1S/C21H26N2S2/c1-22-13-6-5-7-16(22)12-14-23-18-8-3-4-9-20(18)25-21-11-10-17(24-2)15-19(21)23/h3-4,8-11,15-16H,5-7,12-14H2,1-2H3
CH$LINK: CAS 50-52-2
CH$LINK: INCHIKEY KLBQZWRITKRQQV-UHFFFAOYSA-N
AC$INSTRUMENT: TripleTOF 5600 SCIEX
AC$INSTRUMENT_TYPE: LC-ESI-QTOF
AC$MASS_SPECTROMETRY: MS_TYPE MS2
AC$MASS_SPECTROMETRY: ION_MODE POSITIVE
AC$MASS_SPECTROMETRY: COLLISION_ENERGY 70
AC$MASS_SPECTROMETRY: FRAGMENTATION_MODE CID
AC$MASS_SPECTROMETRY: IONIZATION ESI
AC$CHROMATOGRAPHY: COLUMN_NAME Zorbax Eclipse Plus C18 2.1 mm x 150 mm, 3.5 um, Agilent
AC$CHROMATOGRAPHY: COLUMN_TEMPERATURE 40 °C
AC$CHROMATOGRAPHY: FLOW_GRADIENT 0 min min 98% A, 1 min 98% A, 2 min 80% A, 16.5 min 2% A, 22 min 2% A, 22.1 min 98% A, 27 min 98% A
AC$CHROMATOGRAPHY: FLOW_RATE 0.3 mL/min
AC$CHROMATOGRAPHY: RETENTION_TIME 9.472 min
AC$CHROMATOGRAPHY: SOLVENT A: Water 0.1% Formic acid, B: Acetonitrile 0.1% Formic acid
MS$FOCUSED_ION: PRECURSOR_M/Z 371.161
MS$FOCUSED_ION: PRECURSOR_TYPE [M+H]+
MS$DATA_PROCESSING: COMMENT Export with Spectra 1.9.12 MsBackendMassbank 1.7.4
MS$DATA_PROCESSING: WHOLE RMassBank 2.3.1
PK$SPLASH: splash10-0002-9320000000-d4498947a0061a4170b6
PK$NUM_PEAK: 28
PK$PEAK: m/z int. rel.int.
  42.043 11 33
  44.0587 4.8 14
  55.0605 11.4 34
  58.0717 36.5 111
  68.0533 6.8 20
  70.0702 105.7 322
  82.068 3.4 10
  83.0758 4.8 14
  84.083 10.4 31
  96.0817 6.8 20
  98.0987 327.4 999
  126.128 56.8 173
  166.0637 8.4 25
  167.0729 44.2 134
  177.0576 4.5 13
  178.0645 9.9 30
  179.0724 37.9 115
  186.0374 5.7 17
  198.0358 7.4 22
  199.0446 19 57
  209.0291 5.4 16
  210.0367 22.3 68
  211.0446 79.9 243
  212.0516 3.9 11
  226.068 29.9 91
  230.008 6.3 19
  242.0074 6.3 19
  243.0164 9.5 28
//
