ACCESSION: MSBNK-BAFG-CSL2310309519
RECORD_TITLE: Norgestrel; LC-ESI-QTOF; MS2; 20 V
DATE: 2023.10.30
AUTHORS: Kevin S. Jewell; Björn Ehlig; Arne Wick
LICENSE: dl-de/by-2-0
COPYRIGHT: Copyright 2023 Federal Institute of Hydrology, Koblenz, Germany
COMMENT: CONFIDENCE Reference Standard (Level 1)
COMMENT: Chromatography method: dx.doi.org/10.1016/j.chroma.2015.11.014
COMMENT: Acquisition method: 10.1002/rcm.8541
CH$NAME: Norgestrel
CH$COMPOUND_CLASS: Pharmaceutical
CH$FORMULA: C21H28O2
CH$EXACT_MASS: 312.2089
CH$SMILES: CCC12CCC3C(C1CCC2(C#C)O)CCC4=CC(=O)CCC34
CH$IUPAC: InChI=1S/C21H28O2/c1-3-20-11-9-17-16-8-6-15(22)13-14(16)5-7-18(17)19(20)10-12-21(20,23)4-2/h2,13,16-19,23H,3,5-12H2,1H3
CH$LINK: CAS 797-63-7
CH$LINK: INCHIKEY WWYNJERNGUHSAO-UHFFFAOYSA-N
AC$INSTRUMENT: TripleTOF 5600 SCIEX
AC$INSTRUMENT_TYPE: LC-ESI-QTOF
AC$MASS_SPECTROMETRY: MS_TYPE MS2
AC$MASS_SPECTROMETRY: ION_MODE POSITIVE
AC$MASS_SPECTROMETRY: COLLISION_ENERGY 20
AC$MASS_SPECTROMETRY: FRAGMENTATION_MODE CID
AC$MASS_SPECTROMETRY: IONIZATION ESI
AC$CHROMATOGRAPHY: COLUMN_NAME Zorbax Eclipse Plus C18 2.1 mm x 150 mm, 3.5 um, Agilent
AC$CHROMATOGRAPHY: COLUMN_TEMPERATURE 40 °C
AC$CHROMATOGRAPHY: FLOW_GRADIENT 0 min min 98% A, 1 min 98% A, 2 min 80% A, 16.5 min 2% A, 22 min 2% A, 22.1 min 98% A, 27 min 98% A
AC$CHROMATOGRAPHY: FLOW_RATE 0.3 mL/min
AC$CHROMATOGRAPHY: RETENTION_TIME 12.063 min
AC$CHROMATOGRAPHY: SOLVENT A: Water 0.1% Formic acid, B: Acetonitrile 0.1% Formic acid
MS$FOCUSED_ION: PRECURSOR_M/Z 313.2162
MS$FOCUSED_ION: PRECURSOR_TYPE [M+H]+
MS$DATA_PROCESSING: COMMENT Export with Spectra 1.9.12 MsBackendMassbank 1.7.4
MS$DATA_PROCESSING: WHOLE RMassBank 2.3.1
PK$SPLASH: splash10-03di-0239000000-c038b02526be4973c588
PK$NUM_PEAK: 27
PK$PEAK: m/z int. rel.int.
  109.068 19.3 25
  123.083 7.9 10
  131.0875 9.2 12
  133.1032 13.5 17
  135.0814 8.3 10
  145.1029 10.8 14
  149.0979 10.3 13
  157.102 9.4 12
  159.1179 15.3 20
  171.1175 10.7 14
  183.1167 10.3 13
  185.133 20.7 27
  187.1489 13.6 17
  197.1331 7.6 10
  199.1483 12 15
  221.1348 8.3 10
  225.1637 9.1 12
  227.1794 15.6 20
  235.148 10 13
  237.1647 18.7 24
  245.1897 102 134
  249.1637 7.8 10
  267.1754 9.2 12
  277.1961 27.2 35
  295.2056 80.7 106
  312.2241 8.1 10
  313.2147 756.7 999
//
