ACCESSION: MSBNK-BAFG-CSL25010634367
RECORD_TITLE: 3,3`-Dichlorobenzidine; LC-ESI-QTOF; MS2; 60 V
DATE: 2025.01.06
AUTHORS: Ole Lessmann; Kevin S. Jewell; Björn Ehlig; Arne Wick
LICENSE: dl-de/by-2-0
COPYRIGHT: Copyright 2025 Federal Institute of Hydrology, Koblenz, Germany
COMMENT: CONFIDENCE Reference Standard (Level 1)
COMMENT: Chromatography method: dx.doi.org/10.1016/j.chroma.2015.11.014
COMMENT: Acquisition method: 10.1002/rcm.8541
CH$NAME: 3,3`-Dichlorobenzidine
CH$FORMULA: C12H10Cl2N2
CH$EXACT_MASS: 252.0221
CH$SMILES: C1=CC(=C(C=C1C2=CC(=C(C=C2)N)Cl)Cl)N
CH$IUPAC: InChI=1S/C12H10Cl2N2/c13-9-5-7(1-3-11(9)15)8-2-4-12(16)10(14)6-8/h1-6H,15-16H2
CH$LINK: CAS 91-94-1
CH$LINK: INCHIKEY HUWXDEQWWKGHRV-UHFFFAOYSA-N
AC$INSTRUMENT: TripleTOF 6600 SCIEX
AC$INSTRUMENT_TYPE: LC-ESI-QTOF
AC$MASS_SPECTROMETRY: MS_TYPE MS2
AC$MASS_SPECTROMETRY: ION_MODE POSITIVE
AC$MASS_SPECTROMETRY: COLLISION_ENERGY 60
AC$MASS_SPECTROMETRY: FRAGMENTATION_MODE CID
AC$MASS_SPECTROMETRY: IONIZATION ESI
AC$CHROMATOGRAPHY: COLUMN_NAME Zorbax Eclipse Plus C18 2.1 mm x 150 mm, 3.5 um, Agilent
AC$CHROMATOGRAPHY: COLUMN_TEMPERATURE 40 °C
AC$CHROMATOGRAPHY: FLOW_GRADIENT 0 min min 98% A, 1 min 98% A, 2 min 80% A, 16.5 min 2% A, 22 min 2% A, 22.1 min 98% A, 27 min 98% A
AC$CHROMATOGRAPHY: FLOW_RATE 0.3 mL/min
AC$CHROMATOGRAPHY: RETENTION_TIME 11.426 min
AC$CHROMATOGRAPHY: SOLVENT A: Water 0.1% Formic acid, B: Acetonitrile 0.1% Formic acid
MS$FOCUSED_ION: PRECURSOR_M/Z 253.0294
MS$FOCUSED_ION: PRECURSOR_TYPE [M+H]+
MS$DATA_PROCESSING: COMMENT Export with pycsl 0.1.0.dev1 and CSL 24.4
PK$SPLASH: splash10-0ue9-0900000000-72c266c2f6c54ed02446
PK$NUM_PEAK: 36
PK$PEAK: m/z int. rel.int.
  77.0386 12.4 55
  101.0375 5.5 24
  102.0469 3.5 15
  103.0536 6.2 27
  115.0539 3.3 14
  126.0463 7.3 32
  127.019 3.8 16
  127.0541 61.9 275
  128.0599 24.6 109
  129.0551 3.6 16
  130.0643 42.6 189
  131.0734 3.4 15
  137.0392 2.7 12
  138.0454 9.1 40
  139.0538 13.6 60
  140.0507 8.2 36
  151.0202 3.8 16
  152.0476 3.8 16
  153.0571 14.8 65
  154.0648 224.7 999
  155.0662 46.7 207
  156.0784 5.8 25
  164.0262 23.5 104
  164.0497 14.6 64
  165.0572 12.0 53
  166.0643 10.1 44
  173.0151 5.3 23
  179.0605 8.3 36
  180.0678 4.0 17
  181.076 115.0 511
  182.0836 43.7 194
  190.0422 26.7 118
  201.0334 9.1 40
  215.0394 6.3 28
  216.0465 2.5 11
  218.0634 3.9 17
//