ACCESSION: MSBNK-BAFG-CSL25010627931
RECORD_TITLE: Indigo; LC-ESI-QTOF; MS2; 60 V
DATE: 2025.01.06
AUTHORS: Ole Lessmann; Kevin S. Jewell; Björn Ehlig; Arne Wick
LICENSE: dl-de/by-2-0
COPYRIGHT: Copyright 2025 Federal Institute of Hydrology, Koblenz, Germany
COMMENT: CONFIDENCE Reference Standard (Level 1)
COMMENT: Chromatography method: dx.doi.org/10.1016/j.chroma.2015.11.014
COMMENT: Acquisition method: 10.1002/rcm.8541
CH$NAME: Indigo
CH$FORMULA: C16H10N2O2
CH$EXACT_MASS: 262.0742
CH$SMILES: C1=CC=C2C(=C1)C(=C(N2)C3=NC4=CC=CC=C4C3=O)O
CH$IUPAC: InChI=1S/C16H10N2O2/c19-15-9-5-1-3-7-11(9)17-13(15)14-16(20)10-6-2-4-8-12(10)18-14/h1-8,17,19H
CH$LINK: CAS 482-89-3
CH$LINK: INCHIKEY QQILFGKZUJYXGS-UHFFFAOYSA-N
AC$INSTRUMENT: TripleTOF X500R SCIEX
AC$INSTRUMENT_TYPE: LC-ESI-QTOF
AC$MASS_SPECTROMETRY: MS_TYPE MS2
AC$MASS_SPECTROMETRY: ION_MODE POSITIVE
AC$MASS_SPECTROMETRY: COLLISION_ENERGY 60
AC$MASS_SPECTROMETRY: FRAGMENTATION_MODE CID
AC$MASS_SPECTROMETRY: IONIZATION ESI
AC$CHROMATOGRAPHY: COLUMN_NAME Zorbax Eclipse Plus C18 2.1 mm x 150 mm, 3.5 um, Agilent
AC$CHROMATOGRAPHY: COLUMN_TEMPERATURE 40 °C
AC$CHROMATOGRAPHY: FLOW_GRADIENT 0 min min 98% A, 1 min 98% A, 2 min 80% A, 16.5 min 2% A, 22 min 2% A, 22.1 min 98% A, 27 min 98% A
AC$CHROMATOGRAPHY: FLOW_RATE 0.3 mL/min
AC$CHROMATOGRAPHY: RETENTION_TIME 11.892 min
AC$CHROMATOGRAPHY: SOLVENT A: Water 0.1% Formic acid, B: Acetonitrile 0.1% Formic acid
MS$FOCUSED_ION: PRECURSOR_M/Z 263.0815
MS$FOCUSED_ION: PRECURSOR_TYPE [M+H]+
MS$DATA_PROCESSING: COMMENT Export with pycsl 0.1.0.dev1 and CSL 24.4
PK$SPLASH: splash10-0a6r-3950000000-ff29df8c411c4010143d
PK$NUM_PEAK: 51
PK$PEAK: m/z int. rel.int.
  50.0134 0.8 36
  51.0234 3.5 157
  65.0399 0.5 22
  76.0309 1.1 49
  77.0391 14.9 670
  89.039 3.9 175
  90.0463 0.8 36
  102.0351 2.1 94
  103.0414 2.0 90
  104.0269 1.5 67
  104.0496 3.9 175
  105.034 1.8 81
  114.0345 0.6 27
  116.0493 1.2 54
  117.0569 1.9 85
  127.0549 0.7 31
  128.0512 0.6 27
  129.0564 0.5 22
  132.0451 4.8 216
  140.051 0.8 36
  150.0476 0.6 27
  151.0553 2.3 103
  152.0623 5.2 234
  153.0717 1.9 85
  157.0396 0.7 31
  158.0483 1.2 54
  163.0548 2.5 112
  164.0584 2.0 90
  165.0697 3.2 144
  177.0572 0.8 36
  178.0661 3.9 175
  179.073 5.8 261
  180.0821 4.5 202
  181.0673 0.5 22
  188.0508 0.8 36
  189.0566 2.0 90
  190.0657 7.6 342
  191.069 1.2 54
  192.0698 0.9 40
  205.0524 0.5 22
  205.0768 22.2 999
  206.0842 6.8 306
  207.0713 0.5 22
  215.0623 0.7 31
  216.0697 3.6 162
  217.0765 1.0 45
  218.0853 2.8 125
  219.0959 0.5 22
  233.0745 1.7 76
  234.08 2.6 117
  262.0748 0.9 40
//