ACCESSION: MSBNK-BAFG-CSL2310266343
RECORD_TITLE: Oseltamivir; LC-ESI-QTOF; MS2; 80 V
DATE: 2023.10.26
AUTHORS: Kevin S. Jewell; Björn Ehlig; Arne Wick
LICENSE: dl-de/by-2-0
COPYRIGHT: Copyright 2023 Federal Institute of Hydrology, Koblenz, Germany
COMMENT: CONFIDENCE Reference Standard (Level 1)
COMMENT: Chromatography method: dx.doi.org/10.1016/j.chroma.2015.11.014
COMMENT: Acquisition method: 10.1002/rcm.8541
CH$NAME: Oseltamivir
CH$COMPOUND_CLASS: Pharmaceutical
CH$FORMULA: C16H28N2O4
CH$EXACT_MASS: 312.2049
CH$SMILES: CCC(CC)O[C@@H]1C=C(C[C@@H]([C@H]1/N=C(\C)/O)N)C(=O)OCC
CH$IUPAC: InChI=1S/C16H28N2O4/c1-5-12(6-2)22-14-9-11(16(20)21-7-3)8-13(17)15(14)18-10(4)19/h9,12-15H,5-8,17H2,1-4H3,(H,18,19)/t13-,14+,15+/m0/s1
CH$LINK: CAS 196618-13-0
CH$LINK: INCHIKEY VSZGPKBBMSAYNT-RRFJBIMHSA-N
AC$INSTRUMENT: TripleTOF 5600 SCIEX
AC$INSTRUMENT_TYPE: LC-ESI-QTOF
AC$MASS_SPECTROMETRY: MS_TYPE MS2
AC$MASS_SPECTROMETRY: ION_MODE POSITIVE
AC$MASS_SPECTROMETRY: COLLISION_ENERGY 80
AC$MASS_SPECTROMETRY: FRAGMENTATION_MODE CID
AC$MASS_SPECTROMETRY: IONIZATION ESI
AC$CHROMATOGRAPHY: COLUMN_NAME Zorbax Eclipse Plus C18 2.1 mm x 150 mm, 3.5 um, Agilent
AC$CHROMATOGRAPHY: COLUMN_TEMPERATURE 40 °C
AC$CHROMATOGRAPHY: FLOW_GRADIENT 0 min min 98% A, 1 min 98% A, 2 min 80% A, 16.5 min 2% A, 22 min 2% A, 22.1 min 98% A, 27 min 98% A
AC$CHROMATOGRAPHY: FLOW_RATE 0.3 mL/min
AC$CHROMATOGRAPHY: RETENTION_TIME 6.973 min
AC$CHROMATOGRAPHY: SOLVENT A: Water 0.1% Formic acid, B: Acetonitrile 0.1% Formic acid
MS$FOCUSED_ION: PRECURSOR_M/Z 313.2122
MS$FOCUSED_ION: PRECURSOR_TYPE [M+H]+
MS$DATA_PROCESSING: COMMENT Export with Spectra 1.9.12 MsBackendMassbank 1.7.4
MS$DATA_PROCESSING: WHOLE RMassBank 2.3.1
PK$SPLASH: splash10-00kf-9100000000-a8c429063164808a7a84
PK$NUM_PEAK: 30
PK$PEAK: m/z int. rel.int.
  43.0252 3.8 45
  53.0431 1 11
  55.0593 1.3 15
  65.0434 83.8 999
  66.0499 7 83
  67.0577 14.8 176
  68.0535 2.7 32
  77.0416 49.1 585
  78.0368 2.2 26
  80.0516 27.6 329
  81.0598 1.6 19
  82.0674 13.1 156
  83.0511 0.9 10
  92.0511 73.7 878
  93.0579 37.6 448
  94.0284 0.9 10
  94.0662 30.9 368
  106.0657 1.3 15
  108.0439 2.7 32
  108.0661 2.2 26
  109.0526 1.5 17
  109.0758 5.3 63
  110.0592 3.6 42
  111.0346 1.2 14
  119.0597 4.5 53
  120.0443 40.2 479
  133.0756 0.9 10
  137.047 3.5 41
  137.0706 1.9 22
  138.0542 3.6 42
//
