ACCESSION: MSBNK-BAFG-CSL23102513030
RECORD_TITLE: Tryptamine; LC-ESI-QTOF; MS2; 60 V
DATE: 2023.10.25
AUTHORS: Kevin S. Jewell; Björn Ehlig; Arne Wick
LICENSE: dl-de/by-2-0
COPYRIGHT: Copyright 2023 Federal Institute of Hydrology, Koblenz, Germany
COMMENT: CONFIDENCE Reference Standard (Level 1)
COMMENT: Chromatography method: dx.doi.org/10.1016/j.chroma.2015.11.014
COMMENT: Acquisition method: 10.1002/rcm.8541
CH$NAME: Tryptamine
CH$COMPOUND_CLASS: Metabolite
CH$FORMULA: C10H12N2
CH$EXACT_MASS: 160.1
CH$SMILES: C1=CC=C2C(=C1)C(=CN2)CCN
CH$IUPAC: InChI=1S/C10H12N2/c11-6-5-8-7-12-10-4-2-1-3-9(8)10/h1-4,7,12H,5-6,11H2
CH$LINK: CAS 61-54-1
CH$LINK: INCHIKEY APJYDQYYACXCRM-UHFFFAOYSA-N
AC$INSTRUMENT: TripleTOF 5600 SCIEX
AC$INSTRUMENT_TYPE: LC-ESI-QTOF
AC$MASS_SPECTROMETRY: MS_TYPE MS2
AC$MASS_SPECTROMETRY: ION_MODE POSITIVE
AC$MASS_SPECTROMETRY: COLLISION_ENERGY 60
AC$MASS_SPECTROMETRY: FRAGMENTATION_MODE CID
AC$MASS_SPECTROMETRY: IONIZATION ESI
AC$CHROMATOGRAPHY: COLUMN_NAME Zorbax Eclipse Plus C18 2.1 mm x 150 mm, 3.5 um, Agilent
AC$CHROMATOGRAPHY: COLUMN_TEMPERATURE 40 °C
AC$CHROMATOGRAPHY: FLOW_GRADIENT 0 min min 98% A, 1 min 98% A, 2 min 80% A, 16.5 min 2% A, 22 min 2% A, 22.1 min 98% A, 27 min 98% A
AC$CHROMATOGRAPHY: FLOW_RATE 0.3 mL/min
AC$CHROMATOGRAPHY: RETENTION_TIME 4.966 min
AC$CHROMATOGRAPHY: SOLVENT A: Water 0.1% Formic acid, B: Acetonitrile 0.1% Formic acid
MS$FOCUSED_ION: PRECURSOR_M/Z 161.1073
MS$FOCUSED_ION: PRECURSOR_TYPE [M+H]+
MS$DATA_PROCESSING: COMMENT Export with Spectra 1.9.12 MsBackendMassbank 1.7.4
MS$DATA_PROCESSING: WHOLE RMassBank 2.3.1
PK$SPLASH: splash10-014l-9700000000-4c3c61b4d838f3d60fd4
PK$NUM_PEAK: 28
PK$PEAK: m/z int. rel.int.
  39.0224 0.9 41
  50.0159 0.5 23
  51.0234 1.8 83
  62.0148 0.6 27
  63.0231 2 92
  65.0386 5 232
  75.0237 1.7 78
  76.0315 0.5 23
  77.0388 5.9 274
  78.0466 0.6 27
  89.0386 16 743
  90.0464 6.1 283
  91.0538 9.8 455
  101.0373 1.1 51
  102.046 1.2 55
  103.0531 0.5 23
  115.0544 21.5 999
  116.0487 1.3 60
  116.0631 2.1 97
  117.0568 7.5 348
  126.0465 0.6 27
  127.0554 1 46
  128.0539 1.6 74
  130.0632 0.5 23
  140.049 0.5 23
  141.057 0.9 41
  142.064 2.4 111
  143.0724 1.7 78
//
