ACCESSION: MSBNK-BAFG-CSL23102727051
RECORD_TITLE: Tetrahydroharman-3-carboxylic acid; LC-ESI-QTOF; MS2; 30 V
DATE: 2023.10.27
AUTHORS: Kevin S. Jewell; Björn Ehlig; Arne Wick
LICENSE: dl-de/by-2-0
COPYRIGHT: Copyright 2023 Federal Institute of Hydrology, Koblenz, Germany
COMMENT: CONFIDENCE Reference Standard (Level 1)
COMMENT: Chromatography method: dx.doi.org/10.1016/j.chroma.2015.11.014
COMMENT: Acquisition method: 10.1002/rcm.8541
CH$NAME: Tetrahydroharman-3-carboxylic acid
CH$FORMULA: C13H14N2O2
CH$EXACT_MASS: 230.1055
CH$SMILES: CC1C2=C(CC(N1)C(=O)O)C3=CC=CC=C3N2
CH$IUPAC: InChI=1S/C13H14N2O2/c1-7-12-9(6-11(14-7)13(16)17)8-4-2-3-5-10(8)15-12/h2-5,7,11,14-15H,6H2,1H3,(H,16,17)
CH$LINK: CAS 5470-37-1
CH$LINK: INCHIKEY ZUPHXNBLQCSEIA-UHFFFAOYSA-N
AC$INSTRUMENT: TripleTOF 6600 SCIEX
AC$INSTRUMENT_TYPE: LC-ESI-QTOF
AC$MASS_SPECTROMETRY: MS_TYPE MS2
AC$MASS_SPECTROMETRY: ION_MODE POSITIVE
AC$MASS_SPECTROMETRY: COLLISION_ENERGY 30
AC$MASS_SPECTROMETRY: FRAGMENTATION_MODE CID
AC$MASS_SPECTROMETRY: IONIZATION ESI
AC$CHROMATOGRAPHY: COLUMN_NAME Zorbax Eclipse Plus C18 2.1 mm x 150 mm, 3.5 um, Agilent
AC$CHROMATOGRAPHY: COLUMN_TEMPERATURE 40 °C
AC$CHROMATOGRAPHY: FLOW_GRADIENT 0 min min 98% A, 1 min 98% A, 2 min 80% A, 16.5 min 2% A, 22 min 2% A, 22.1 min 98% A, 27 min 98% A
AC$CHROMATOGRAPHY: FLOW_RATE 0.3 mL/min
AC$CHROMATOGRAPHY: RETENTION_TIME 5.62 min
AC$CHROMATOGRAPHY: SOLVENT A: Water 0.1% Formic acid, B: Acetonitrile 0.1% Formic acid
MS$FOCUSED_ION: PRECURSOR_M/Z 231.1128
MS$FOCUSED_ION: PRECURSOR_TYPE [M+H]+
MS$DATA_PROCESSING: COMMENT Export with Spectra 1.9.12 MsBackendMassbank 1.7.4
MS$DATA_PROCESSING: WHOLE RMassBank 2.3.1
PK$SPLASH: splash10-0a4i-0900000000-29f0740df1faf0f62bb8
PK$NUM_PEAK: 20
PK$PEAK: m/z int. rel.int.
  74.0231 25.3 49
  117.0556 5.7 11
  117.0682 5.5 10
  118.0645 23.6 45
  130.0645 79.1 153
  142.0649 5.2 10
  143.0724 123.1 239
  144.0797 36.1 70
  146.0595 65.2 126
  154.0646 54.5 105
  156.0802 27.1 52
  157.0875 33.2 64
  158.096 513.8 999
  167.0715 10.4 20
  168.0802 140 272
  169.0868 8.9 17
  170.0946 8.3 16
  188.0697 21.7 42
  196.0748 10.7 20
  214.0852 10.7 20
//
