ACCESSION: MSBNK-BAFG-CSL2311093227
RECORD_TITLE: Chloroxuron; LC-ESI-QTOF; MS2; 110 V
DATE: 2023.11.09
AUTHORS: Kevin S. Jewell; Björn Ehlig; Arne Wick
LICENSE: dl-de/by-2-0
COPYRIGHT: Copyright 2023 Federal Institute of Hydrology, Koblenz, Germany
COMMENT: CONFIDENCE Reference Standard (Level 1)
COMMENT: Chromatography method: dx.doi.org/10.1016/j.chroma.2015.11.014
COMMENT: Acquisition method: 10.1002/rcm.8541
CH$NAME: Chloroxuron
CH$COMPOUND_CLASS: Herbicide
CH$FORMULA: C15H15ClN2O2
CH$EXACT_MASS: 290.0822
CH$SMILES: CN(C)C(=O)Nc1ccc(Oc2ccc(Cl)cc2)cc1
CH$IUPAC: InChI=1S/C15H15ClN2O2/c1-18(2)15(19)17-12-5-9-14(10-6-12)20-13-7-3-11(16)4-8-13/h3-10H,1-2H3,(H,17,19)
CH$LINK: CAS 1982-47-4
CH$LINK: INCHIKEY IVUXTESCPZUGJC-UHFFFAOYSA-N
AC$INSTRUMENT: TripleTOF 5600 SCIEX
AC$INSTRUMENT_TYPE: LC-ESI-QTOF
AC$MASS_SPECTROMETRY: MS_TYPE MS2
AC$MASS_SPECTROMETRY: ION_MODE POSITIVE
AC$MASS_SPECTROMETRY: COLLISION_ENERGY 110
AC$MASS_SPECTROMETRY: FRAGMENTATION_MODE CID
AC$MASS_SPECTROMETRY: IONIZATION ESI
AC$CHROMATOGRAPHY: COLUMN_NAME Zorbax Eclipse Plus C18 2.1 mm x 150 mm, 3.5 um, Agilent
AC$CHROMATOGRAPHY: COLUMN_TEMPERATURE 40 °C
AC$CHROMATOGRAPHY: FLOW_GRADIENT 0 min min 98% A, 1 min 98% A, 2 min 80% A, 16.5 min 2% A, 22 min 2% A, 22.1 min 98% A, 27 min 98% A
AC$CHROMATOGRAPHY: FLOW_RATE 0.3 mL/min
AC$CHROMATOGRAPHY: RETENTION_TIME 12.103 min
AC$CHROMATOGRAPHY: SOLVENT A: Water 0.1% Formic acid, B: Acetonitrile 0.1% Formic acid
MS$FOCUSED_ION: PRECURSOR_M/Z 291.0895
MS$FOCUSED_ION: PRECURSOR_TYPE [M+H]+
MS$DATA_PROCESSING: COMMENT Export with Spectra 1.9.12 MsBackendMassbank 1.7.4
MS$DATA_PROCESSING: WHOLE RMassBank 2.3.1
PK$SPLASH: splash10-00di-9100000000-e73becfa067150d4f9c9
PK$NUM_PEAK: 26
PK$PEAK: m/z int. rel.int.
  51.0275 1.1 19
  56.0178 8 138
  72.0477 57.6 999
  72.9867 1 17
  73.0091 1.1 19
  74.0185 17.2 298
  75.0261 18.6 322
  75.049 0.6 10
  76.0327 1 17
  77.0413 3.6 62
  78.0505 1.2 20
  80.0521 0.7 12
  84.9865 3.5 60
  87.0239 0.7 12
  88.0324 0.6 10
  89.0405 0.9 15
  99.002 0.8 13
  101.0394 0.7 12
  102.046 1.2 20
  111.0002 1.2 20
  113.038 1.8 31
  114.0463 0.9 15
  126.0463 1.4 24
  127.0535 2.8 48
  128.0616 2.8 48
  139.0548 4.6 79
//
