ACCESSION: MSBNK-BAFG-CSL25010627866
RECORD_TITLE: Iminostilbene; LC-ESI-QTOF; MS2; 70 V
DATE: 2025.01.06
AUTHORS: Ole Lessmann; Kevin S. Jewell; Björn Ehlig; Arne Wick
LICENSE: dl-de/by-2-0
COPYRIGHT: Copyright 2025 Federal Institute of Hydrology, Koblenz, Germany
COMMENT: CONFIDENCE Reference Standard (Level 1)
COMMENT: Chromatography method: dx.doi.org/10.1016/j.chroma.2015.11.014
COMMENT: Acquisition method: 10.1002/rcm.8541
CH$NAME: Iminostilbene
CH$COMPOUND_CLASS: Pharmaceutical
CH$FORMULA: C14H11N
CH$EXACT_MASS: 193.0891
CH$SMILES: C1=CC=C2C(=C1)C=CC3=CC=CC=C3N2
CH$IUPAC: InChI=1S/C14H11N/c1-3-7-13-11(5-1)9-10-12-6-2-4-8-14(12)15-13/h1-10,15H
CH$LINK: CAS 256-96-2
CH$LINK: INCHIKEY LCGTWRLJTMHIQZ-UHFFFAOYSA-N
AC$INSTRUMENT: TripleTOF 6600 SCIEX
AC$INSTRUMENT_TYPE: LC-ESI-QTOF
AC$MASS_SPECTROMETRY: MS_TYPE MS2
AC$MASS_SPECTROMETRY: ION_MODE POSITIVE
AC$MASS_SPECTROMETRY: COLLISION_ENERGY 70
AC$MASS_SPECTROMETRY: FRAGMENTATION_MODE CID
AC$MASS_SPECTROMETRY: IONIZATION ESI
AC$CHROMATOGRAPHY: COLUMN_NAME Zorbax Eclipse Plus C18 2.1 mm x 150 mm, 3.5 um, Agilent
AC$CHROMATOGRAPHY: COLUMN_TEMPERATURE 40 °C
AC$CHROMATOGRAPHY: FLOW_GRADIENT 0 min min 98% A, 1 min 98% A, 2 min 80% A, 16.5 min 2% A, 22 min 2% A, 22.1 min 98% A, 27 min 98% A
AC$CHROMATOGRAPHY: FLOW_RATE 0.3 mL/min
AC$CHROMATOGRAPHY: RETENTION_TIME 13.175 min
AC$CHROMATOGRAPHY: SOLVENT A: Water 0.1% Formic acid, B: Acetonitrile 0.1% Formic acid
MS$FOCUSED_ION: PRECURSOR_M/Z 194.0964
MS$FOCUSED_ION: PRECURSOR_TYPE [M+H]+
MS$DATA_PROCESSING: COMMENT Export with pycsl 0.1.0.dev1 and CSL 24.4
PK$SPLASH: splash10-0f76-1900000000-667d4c7dcbd1c4d34e27
PK$NUM_PEAK: 59
PK$PEAK: m/z int. rel.int.
  39.0195 43.5 63
  50.0105 26.9 38
  51.0184 67.5 97
  62.0094 15.8 22
  63.0172 91.5 132
  64.0244 15.1 21
  65.0327 47.7 69
  74.0081 19.6 28
  75.0158 40.9 59
  76.0238 25.2 36
  77.0315 95.8 138
  78.039 17.7 25
  87.0147 13.9 20
  88.0222 7.3 10
  89.0306 312.0 452
  90.0378 60.4 87
  91.0457 22.4 32
  98.0059 10.3 14
  99.0135 19.9 28
  100.0213 11.1 16
  101.029 37.1 53
  102.0366 59.8 86
  113.0281 45.7 66
  114.0233 8.0 11
  114.0352 13.4 19
  115.0438 135.5 196
  116.0386 22.9 33
  117.0467 18.4 26
  125.0269 50.4 73
  126.0347 113.1 163
  127.0305 18.9 27
  127.0415 34.7 50
  128.038 87.7 127
  129.0333 14.3 20
  129.0443 9.9 14
  137.026 13.1 18
  138.0332 17.9 25
  139.0416 276.1 400
  140.0372 182.7 264
  149.0249 19.7 28
  150.0328 234.1 339
  151.0403 360.7 522
  152.0454 211.5 306
  153.0432 55.6 80
  163.0396 206.2 298
  164.0462 260.6 377
  165.0549 408.4 591
  166.05 184.1 266
  167.0573 81.9 118
  176.0398 47.1 68
  177.0414 180.2 261
  178.0493 165.7 240
  179.0444 13.3 19
  179.055 20.2 29
  189.0401 30.8 44
  190.0482 407.9 590
  191.056 689.5 999
  192.0635 141.6 205
  193.0707 17.9 25
//