ACCESSION: MSBNK-BAFG-CSL25011734638
RECORD_TITLE: Metachrome Yellow free acid; LC-ESI-QTOF; MS2; 100 V
DATE: 2025.01.17
AUTHORS: Ole Lessmann; Kevin S. Jewell; Björn Ehlig; Arne Wick
LICENSE: dl-de/by-2-0
COPYRIGHT: Copyright 2025 Federal Institute of Hydrology, Koblenz, Germany
COMMENT: CONFIDENCE Reference Standard (Level 1)
COMMENT: Chromatography method: dx.doi.org/10.1016/j.chroma.2015.11.014
CH$NAME: Metachrome Yellow free acid
CH$FORMULA: C13H9N3O5
CH$EXACT_MASS: 287.0542
CH$SMILES: C1=CC(=CC(=C1)[N+](=O)[O-])N=NC2=CC(=C(C=C2)O)C(=O)O
CH$IUPAC: InChI=1S/C13H9N3O5/c17-12-5-4-9(7-11(12)13(18)19)15-14-8-2-1-3-10(6-8)16(20)21/h1-7,17H,(H,18,19)
CH$LINK: CAS 6283-26-7
CH$LINK: INCHIKEY LJOXBIGRIKPBSQ-UHFFFAOYSA-N
AC$INSTRUMENT: TripleTOF 6600 SCIEX
AC$INSTRUMENT_TYPE: LC-ESI-QTOF
AC$MASS_SPECTROMETRY: MS_TYPE MS2
AC$MASS_SPECTROMETRY: ION_MODE POSITIVE
AC$MASS_SPECTROMETRY: COLLISION_ENERGY 100
AC$MASS_SPECTROMETRY: FRAGMENTATION_MODE CID
AC$MASS_SPECTROMETRY: IONIZATION ESI
AC$CHROMATOGRAPHY: COLUMN_NAME Zorbax Eclipse Plus C18 2.1 mm x 150 mm, 3.5 um, Agilent
AC$CHROMATOGRAPHY: COLUMN_TEMPERATURE 40 °C
AC$CHROMATOGRAPHY: FLOW_GRADIENT 0 min min 98% A, 1 min 98% A, 2 min 80% A, 16.5 min 2% A, 22 min 2% A, 22.1 min 98% A, 27 min 98% A
AC$CHROMATOGRAPHY: FLOW_RATE 0.3 mL/min
AC$CHROMATOGRAPHY: RETENTION_TIME 11.919 min
AC$CHROMATOGRAPHY: SOLVENT A: Water 0.1% Formic acid, B: Acetonitrile 0.1% Formic acid
MS$FOCUSED_ION: PRECURSOR_M/Z 288.0615
MS$FOCUSED_ION: PRECURSOR_TYPE [M+H]+
MS$DATA_PROCESSING: COMMENT Export with pycsl 0.1.0.dev1 and CSL 25.0
PK$SPLASH: splash10-03fr-9100000000-42c7e961059b2eb3df26
PK$NUM_PEAK: 37
PK$PEAK: m/z int. rel.int.
  37.0071 1.2 36
  38.0143 2.6 79
  39.0222 2.5 76
  49.007 0.8 24
  50.014 9.0 275
  51.0224 4.5 137
  52.0177 4.2 128
  53.0012 2.1 64
  59.9983 0.7 21
  61.0064 3.2 98
  62.0139 8.8 269
  63.0218 32.6 999
  64.0176 0.5 15
  64.0302 3.2 98
  65.0386 0.4 12
  73.0057 1.1 33
  74.0139 14.0 429
  75.0217 23.9 732
  76.0294 3.9 119
  77.0357 0.9 27
  78.0329 2.0 61
  80.011 1.7 52
  86.0135 0.9 27
  87.0211 1.6 49
  88.0289 1.9 58
  89.0368 2.9 88
  90.0317 0.5 15
  91.0421 0.5 15
  98.0147 0.4 12
  113.0362 6.3 193
  114.0316 3.0 91
  137.0395 0.5 15
  139.0503 2.2 67
  140.0492 3.3 101
  142.0448 0.4 12
  165.0456 0.4 12
  166.0515 1.6 49
//
