ACCESSION: MSBNK-BAFG-CSL23110915489
RECORD_TITLE: Fluorescent brightener 363; LC-ESI-QTOF; MS2; 60 V
DATE: 2023.11.09
AUTHORS: Kevin S. Jewell; Björn Ehlig; Arne Wick
LICENSE: dl-de/by-2-0
COPYRIGHT: Copyright 2023 Federal Institute of Hydrology, Koblenz, Germany
COMMENT: CONFIDENCE Reference Standard (Level 1)
COMMENT: Chromatography method: dx.doi.org/10.1016/j.chroma.2015.11.014
COMMENT: Acquisition method: 10.1002/rcm.8541
CH$NAME: Fluorescent brightener 363
CH$COMPOUND_CLASS: Pigment
CH$FORMULA: [C19H19N2O4S]+
CH$EXACT_MASS: 371.106
CH$SMILES: COC1=CC(OC(C2=[N+](C)C(C=C(S(=O)(C)=O)C=C3)=C3N2C)=C4)=C4C=C1
CH$IUPAC: InChI=1S/C19H19N2O4S/c1-20-15-8-7-14(26(4,22)23)11-16(15)21(2)19(20)18-9-12-5-6-13(24-3)10-17(12)25-18/h5-11H,1-4H3/q+1
CH$LINK: CAS 95078-19-6
CH$LINK: INCHIKEY NGWGVNKWZALWFL-UHFFFAOYSA-N
AC$INSTRUMENT: TripleTOF 6600 SCIEX
AC$INSTRUMENT_TYPE: LC-ESI-QTOF
AC$MASS_SPECTROMETRY: MS_TYPE MS2
AC$MASS_SPECTROMETRY: ION_MODE POSITIVE
AC$MASS_SPECTROMETRY: COLLISION_ENERGY 60
AC$MASS_SPECTROMETRY: FRAGMENTATION_MODE CID
AC$MASS_SPECTROMETRY: IONIZATION ESI
AC$CHROMATOGRAPHY: COLUMN_NAME Zorbax Eclipse Plus C18 2.1 mm x 150 mm, 3.5 um, Agilent
AC$CHROMATOGRAPHY: COLUMN_TEMPERATURE 40 °C
AC$CHROMATOGRAPHY: FLOW_GRADIENT 0 min min 98% A, 1 min 98% A, 2 min 80% A, 16.5 min 2% A, 22 min 2% A, 22.1 min 98% A, 27 min 98% A
AC$CHROMATOGRAPHY: FLOW_RATE 0.3 mL/min
AC$CHROMATOGRAPHY: RETENTION_TIME 8.155 min
AC$CHROMATOGRAPHY: SOLVENT A: Water 0.1% Formic acid, B: Acetonitrile 0.1% Formic acid
MS$FOCUSED_ION: PRECURSOR_M/Z 371.106
MS$FOCUSED_ION: PRECURSOR_TYPE [M]+
MS$DATA_PROCESSING: COMMENT Export with Spectra 1.9.12 MsBackendMassbank 1.7.4
MS$DATA_PROCESSING: WHOLE RMassBank 2.3.1
PK$SPLASH: splash10-004l-0090000000-56fa7fed23ace57fcdd7
PK$NUM_PEAK: 9
PK$PEAK: m/z int. rel.int.
  220.0989 18.7 342
  221.1077 5 91
  248.0949 4.7 85
  249.1026 4.2 76
  262.0745 11.9 217
  276.0888 3.2 58
  277.0973 54.6 999
  292.1197 32.9 601
  299.0851 4.4 80
//
