ACCESSION: MSBNK-BAFG-CSL23110911780
RECORD_TITLE: Estradiol; LC-ESI-QTOF; MS2; 80 V
DATE: 2023.11.09
AUTHORS: Kevin S. Jewell; Björn Ehlig; Arne Wick
LICENSE: dl-de/by-2-0
COPYRIGHT: Copyright 2023 Federal Institute of Hydrology, Koblenz, Germany
COMMENT: CONFIDENCE Reference Standard (Level 1)
COMMENT: Chromatography method: dx.doi.org/10.1016/j.chroma.2015.11.014
COMMENT: Acquisition method: 10.1002/rcm.8541
CH$NAME: Estradiol
CH$COMPOUND_CLASS: Pharmaceutical
CH$FORMULA: C18H24O2
CH$EXACT_MASS: 272.1776
CH$SMILES: CC12CCC3C(C1CCC2O)CCC4=C3C=CC(=C4)O
CH$IUPAC: InChI=1S/C18H24O2/c1-18-9-8-14-13-5-3-12(19)10-11(13)2-4-15(14)16(18)6-7-17(18)20/h3,5,10,14-17,19-20H,2,4,6-9H2,1H3
CH$LINK: CAS 50-28-2
CH$LINK: INCHIKEY VOXZDWNPVJITMN-UHFFFAOYSA-N
AC$INSTRUMENT: TripleTOF 5600 SCIEX
AC$INSTRUMENT_TYPE: LC-ESI-QTOF
AC$MASS_SPECTROMETRY: MS_TYPE MS2
AC$MASS_SPECTROMETRY: ION_MODE POSITIVE
AC$MASS_SPECTROMETRY: COLLISION_ENERGY 80
AC$MASS_SPECTROMETRY: FRAGMENTATION_MODE CID
AC$MASS_SPECTROMETRY: IONIZATION ESI
AC$CHROMATOGRAPHY: COLUMN_NAME Zorbax Eclipse Plus C18 2.1 mm x 150 mm, 3.5 um, Agilent
AC$CHROMATOGRAPHY: COLUMN_TEMPERATURE 40 °C
AC$CHROMATOGRAPHY: FLOW_GRADIENT 0 min min 98% A, 1 min 98% A, 2 min 80% A, 16.5 min 2% A, 22 min 2% A, 22.1 min 98% A, 27 min 98% A
AC$CHROMATOGRAPHY: FLOW_RATE 0.3 mL/min
AC$CHROMATOGRAPHY: RETENTION_TIME 10.403 min
AC$CHROMATOGRAPHY: SOLVENT A: Water 0.1% Formic acid, B: Acetonitrile 0.1% Formic acid
MS$FOCUSED_ION: PRECURSOR_M/Z 273.1849
MS$FOCUSED_ION: PRECURSOR_TYPE [M+H]+
MS$DATA_PROCESSING: COMMENT Export with Spectra 1.9.12 MsBackendMassbank 1.7.4
MS$DATA_PROCESSING: WHOLE RMassBank 2.3.1
PK$SPLASH: splash10-004i-9400000000-7c3d9ddb7b3ce4a0f25a
PK$NUM_PEAK: 31
PK$PEAK: m/z int. rel.int.
  39.0227 1.9 16
  41.0381 2.1 17
  50.0148 1.7 14
  51.0225 9.7 82
  53.0391 1.3 11
  55.0172 4.3 36
  55.0542 3.5 29
  65.0384 5.7 48
  67.0542 8.9 75
  77.0387 117.8 999
  78.0451 2.3 19
  79.0542 26.3 223
  81.0331 1.2 10
  81.0699 5.4 45
  89.038 1.5 12
  91.0543 19.9 168
  93.07 3.6 30
  95.0851 2.1 17
  103.0542 5.9 50
  105.0699 6.2 52
  107.0494 64.7 548
  115.0543 14.6 123
  116.0613 3.9 33
  117.0701 1.4 11
  127.0548 3.8 32
  128.0616 5.2 44
  129.0669 1.8 15
  131.0498 3.8 32
  141.0691 1.2 10
  144.0571 2.8 23
  157.0662 1.4 11
//
