ACCESSION: MSBNK-BAFG-CSL25010634320
RECORD_TITLE: 4,4`-Methylenebis(2-methylaniline); LC-ESI-QTOF; MS2; 140 V
DATE: 2025.01.06
AUTHORS: Ole Lessmann; Kevin S. Jewell; Björn Ehlig; Arne Wick
LICENSE: dl-de/by-2-0
COPYRIGHT: Copyright 2025 Federal Institute of Hydrology, Koblenz, Germany
COMMENT: CONFIDENCE Reference Standard (Level 1)
COMMENT: Chromatography method: dx.doi.org/10.1016/j.chroma.2015.11.014
COMMENT: Acquisition method: 10.1002/rcm.8541
CH$NAME: 4,4`-Methylenebis(2-methylaniline)
CH$FORMULA: C15H18N2
CH$EXACT_MASS: 226.147
CH$SMILES: CC1=C(C=CC(=C1)CC2=CC(=C(C=C2)N)C)N
CH$IUPAC: InChI=1S/C15H18N2/c1-10-7-12(3-5-14(10)16)9-13-4-6-15(17)11(2)8-13/h3-8H,9,16-17H2,1-2H3
CH$LINK: CAS 838-88-0
CH$LINK: INCHIKEY WECDUOXQLAIPQW-UHFFFAOYSA-N
AC$INSTRUMENT: TripleTOF 6600 SCIEX
AC$INSTRUMENT_TYPE: LC-ESI-QTOF
AC$MASS_SPECTROMETRY: MS_TYPE MS2
AC$MASS_SPECTROMETRY: ION_MODE POSITIVE
AC$MASS_SPECTROMETRY: COLLISION_ENERGY 140
AC$MASS_SPECTROMETRY: FRAGMENTATION_MODE CID
AC$MASS_SPECTROMETRY: IONIZATION ESI
AC$CHROMATOGRAPHY: COLUMN_NAME Zorbax Eclipse Plus C18 2.1 mm x 150 mm, 3.5 um, Agilent
AC$CHROMATOGRAPHY: COLUMN_TEMPERATURE 40 °C
AC$CHROMATOGRAPHY: FLOW_GRADIENT 0 min min 98% A, 1 min 98% A, 2 min 80% A, 16.5 min 2% A, 22 min 2% A, 22.1 min 98% A, 27 min 98% A
AC$CHROMATOGRAPHY: FLOW_RATE 0.3 mL/min
AC$CHROMATOGRAPHY: RETENTION_TIME 5.215 min
AC$CHROMATOGRAPHY: SOLVENT A: Water 0.1% Formic acid, B: Acetonitrile 0.1% Formic acid
MS$FOCUSED_ION: PRECURSOR_M/Z 227.1543
MS$FOCUSED_ION: PRECURSOR_TYPE [M+H]+
MS$DATA_PROCESSING: COMMENT Export with pycsl 0.1.0.dev1 and CSL 24.4
PK$SPLASH: splash10-0udi-9000000000-d39560bbde3eeed75060
PK$NUM_PEAK: 20
PK$PEAK: m/z int. rel.int.
  37.0067 0.6 103
  39.0221 1.4 241
  49.006 0.5 86
  50.0144 3.5 602
  51.0218 5.8 999
  52.0295 0.4 68
  61.0058 0.6 103
  62.014 1.3 223
  63.0221 1.0 172
  65.0362 0.9 155
  74.0131 1.7 292
  75.0217 0.7 120
  76.0288 0.5 86
  77.0363 1.2 206
  86.0132 0.8 137
  87.02 0.6 103
  89.0369 0.8 137
  98.0154 0.7 120
  150.0461 0.8 137
  163.0547 0.7 120
//