ACCESSION: MSBNK-BAFG-CSL2310251402
RECORD_TITLE: 2,3,4-Trihydroxybenzophenone; LC-ESI-QTOF; MS2; 40 V
DATE: 2023.10.25
AUTHORS: Kevin S. Jewell; Björn Ehlig; Arne Wick
LICENSE: dl-de/by-2-0
COPYRIGHT: Copyright 2023 Federal Institute of Hydrology, Koblenz, Germany
COMMENT: CONFIDENCE Reference Standard (Level 1)
COMMENT: Chromatography method: dx.doi.org/10.1016/j.chroma.2015.11.014
COMMENT: Acquisition method: 10.1002/rcm.8541
CH$NAME: 2,3,4-Trihydroxybenzophenone
CH$COMPOUND_CLASS: Industrial_process
CH$FORMULA: C13H10O4
CH$EXACT_MASS: 230.0579
CH$SMILES: Oc1ccc(c(O)c1O)C(=O)c2ccccc2
CH$IUPAC: InChI=1S/C13H10O4/c14-10-7-6-9(12(16)13(10)17)11(15)8-4-2-1-3-5-8/h1-7,14,16-17H
CH$LINK: CAS 1143-72-2
CH$LINK: INCHIKEY HTQNYBBTZSBWKL-UHFFFAOYSA-N
AC$INSTRUMENT: TripleTOF 5600 SCIEX
AC$INSTRUMENT_TYPE: LC-ESI-QTOF
AC$MASS_SPECTROMETRY: MS_TYPE MS2
AC$MASS_SPECTROMETRY: ION_MODE NEGATIVE
AC$MASS_SPECTROMETRY: COLLISION_ENERGY 40
AC$MASS_SPECTROMETRY: FRAGMENTATION_MODE CID
AC$MASS_SPECTROMETRY: IONIZATION ESI
AC$CHROMATOGRAPHY: COLUMN_NAME Zorbax Eclipse Plus C18 2.1 mm x 150 mm, 3.5 um, Agilent
AC$CHROMATOGRAPHY: COLUMN_TEMPERATURE 40 °C
AC$CHROMATOGRAPHY: FLOW_GRADIENT 0 min min 98% A, 1 min 98% A, 2 min 80% A, 16.5 min 2% A, 22 min 2% A, 22.1 min 98% A, 27 min 98% A
AC$CHROMATOGRAPHY: FLOW_RATE 0.3 mL/min
AC$CHROMATOGRAPHY: RETENTION_TIME 9.396 min
AC$CHROMATOGRAPHY: SOLVENT A: Water 0.1% Formic acid, B: Acetonitrile 0.1% Formic acid
MS$FOCUSED_ION: PRECURSOR_M/Z 229.0506
MS$FOCUSED_ION: PRECURSOR_TYPE [M-H]-
MS$DATA_PROCESSING: COMMENT Export with Spectra 1.9.12 MsBackendMassbank 1.7.4
MS$DATA_PROCESSING: WHOLE RMassBank 2.3.1
PK$SPLASH: splash10-00b9-0950000000-011b2ed9715a8a9e1eaf
PK$NUM_PEAK: 16
PK$PEAK: m/z int. rel.int.
  51.0257 0.4 57
  95.0143 0.9 130
  101.0376 0.8 115
  107.0135 1.5 217
  123.0078 3 434
  124.0152 1.3 188
  129.0722 0.6 86
  141.0688 0.9 130
  143.0529 0.4 57
  145.0677 0.4 57
  151.003 2.1 304
  155.0492 0.5 72
  157.0654 0.5 72
  185.0613 0.4 57
  229.0507 6.9 999
  230.0538 1 144
//
