ACCESSION: MSBNK-BAFG-CSL25010627932
RECORD_TITLE: Indigo; LC-ESI-QTOF; MS2; 70 V
DATE: 2025.01.06
AUTHORS: Ole Lessmann; Kevin S. Jewell; Björn Ehlig; Arne Wick
LICENSE: dl-de/by-2-0
COPYRIGHT: Copyright 2025 Federal Institute of Hydrology, Koblenz, Germany
COMMENT: CONFIDENCE Reference Standard (Level 1)
COMMENT: Chromatography method: dx.doi.org/10.1016/j.chroma.2015.11.014
COMMENT: Acquisition method: 10.1002/rcm.8541
CH$NAME: Indigo
CH$FORMULA: C16H10N2O2
CH$EXACT_MASS: 262.0742
CH$SMILES: C1=CC=C2C(=C1)C(=C(N2)C3=NC4=CC=CC=C4C3=O)O
CH$IUPAC: InChI=1S/C16H10N2O2/c19-15-9-5-1-3-7-11(9)17-13(15)14-16(20)10-6-2-4-8-12(10)18-14/h1-8,17,19H
CH$LINK: CAS 482-89-3
CH$LINK: INCHIKEY QQILFGKZUJYXGS-UHFFFAOYSA-N
AC$INSTRUMENT: TripleTOF X500R SCIEX
AC$INSTRUMENT_TYPE: LC-ESI-QTOF
AC$MASS_SPECTROMETRY: MS_TYPE MS2
AC$MASS_SPECTROMETRY: ION_MODE POSITIVE
AC$MASS_SPECTROMETRY: COLLISION_ENERGY 70
AC$MASS_SPECTROMETRY: FRAGMENTATION_MODE CID
AC$MASS_SPECTROMETRY: IONIZATION ESI
AC$CHROMATOGRAPHY: COLUMN_NAME Zorbax Eclipse Plus C18 2.1 mm x 150 mm, 3.5 um, Agilent
AC$CHROMATOGRAPHY: COLUMN_TEMPERATURE 40 °C
AC$CHROMATOGRAPHY: FLOW_GRADIENT 0 min min 98% A, 1 min 98% A, 2 min 80% A, 16.5 min 2% A, 22 min 2% A, 22.1 min 98% A, 27 min 98% A
AC$CHROMATOGRAPHY: FLOW_RATE 0.3 mL/min
AC$CHROMATOGRAPHY: RETENTION_TIME 11.892 min
AC$CHROMATOGRAPHY: SOLVENT A: Water 0.1% Formic acid, B: Acetonitrile 0.1% Formic acid
MS$FOCUSED_ION: PRECURSOR_M/Z 263.0815
MS$FOCUSED_ION: PRECURSOR_TYPE [M+H]+
MS$DATA_PROCESSING: COMMENT Export with pycsl 0.1.0.dev1 and CSL 24.4
PK$SPLASH: splash10-0zi0-4920000000-9873d2c4954b27ff487f
PK$NUM_PEAK: 52
PK$PEAK: m/z int. rel.int.
  50.0155 0.9 69
  51.0232 7.8 604
  63.0244 0.7 54
  65.0384 0.4 30
  76.0302 1.1 85
  77.0391 11.3 875
  89.0386 4.7 363
  90.0463 1.9 147
  102.0342 2.4 185
  103.042 1.6 123
  104.0263 2.0 154
  104.0498 3.1 240
  105.0324 0.8 61
  114.0332 0.8 61
  115.0546 0.7 54
  116.0503 1.2 92
  117.058 0.8 61
  127.053 0.7 54
  128.0498 1.0 77
  130.0314 0.5 38
  130.048 0.5 38
  131.0421 0.5 38
  132.0439 1.8 139
  139.0554 0.9 69
  140.0495 1.4 108
  150.0469 1.0 77
  151.0538 4.6 356
  152.0631 5.5 425
  153.0602 1.0 77
  154.0671 0.6 46
  158.0507 0.5 38
  162.0455 1.0 77
  163.0538 3.5 271
  164.0537 2.5 193
  165.0708 1.4 108
  177.0581 2.5 193
  178.0651 4.6 356
  179.073 3.1 240
  180.0815 1.5 116
  181.0783 0.7 54
  188.0506 2.0 154
  189.0583 1.2 92
  190.066 5.0 387
  192.0665 0.7 54
  204.0674 0.8 61
  205.0771 12.9 999
  206.0842 1.5 116
  215.0622 1.5 116
  216.0702 1.1 85
  217.0753 0.7 54
  218.0831 0.8 61
  233.0718 1.0 77
//