ACCESSION: MSBNK-BAFG-CSL2310307638
RECORD_TITLE: 1-(o-Tolyl)-biguanide; LC-ESI-QTOF; MS2; 50 V
DATE: 2023.10.30
AUTHORS: Kevin S. Jewell; Björn Ehlig; Arne Wick
LICENSE: dl-de/by-2-0
COPYRIGHT: Copyright 2023 Federal Institute of Hydrology, Koblenz, Germany
COMMENT: CONFIDENCE Reference Standard (Level 1)
COMMENT: Chromatography method: dx.doi.org/10.1016/j.chroma.2015.11.014
COMMENT: Acquisition method: 10.1002/rcm.8541
CH$NAME: 1-(o-Tolyl)-biguanide
CH$COMPOUND_CLASS: Industrial_process
CH$FORMULA: C9H13N5
CH$EXACT_MASS: 191.1171
CH$SMILES: Cc1ccccc1N=C(N)N=C(N)N
CH$IUPAC: InChI=1S/C9H13N5/c1-6-4-2-3-5-7(6)13-9(12)14-8(10)11/h2-5H,1H3,(H6,10,11,12,13,14)
CH$LINK: CAS 93-69-6
CH$LINK: INCHIKEY SQZCAOHYQSOZCE-UHFFFAOYSA-N
AC$INSTRUMENT: TripleTOF 5600 SCIEX
AC$INSTRUMENT_TYPE: LC-ESI-QTOF
AC$MASS_SPECTROMETRY: MS_TYPE MS2
AC$MASS_SPECTROMETRY: ION_MODE POSITIVE
AC$MASS_SPECTROMETRY: COLLISION_ENERGY 50
AC$MASS_SPECTROMETRY: FRAGMENTATION_MODE CID
AC$MASS_SPECTROMETRY: IONIZATION ESI
AC$CHROMATOGRAPHY: COLUMN_NAME Zorbax Eclipse Plus C18 2.1 mm x 150 mm, 3.5 um, Agilent
AC$CHROMATOGRAPHY: COLUMN_TEMPERATURE 40 °C
AC$CHROMATOGRAPHY: FLOW_GRADIENT 0 min min 98% A, 1 min 98% A, 2 min 80% A, 16.5 min 2% A, 22 min 2% A, 22.1 min 98% A, 27 min 98% A
AC$CHROMATOGRAPHY: FLOW_RATE 0.3 mL/min
AC$CHROMATOGRAPHY: RETENTION_TIME 4.675 min
AC$CHROMATOGRAPHY: SOLVENT A: Water 0.1% Formic acid, B: Acetonitrile 0.1% Formic acid
MS$FOCUSED_ION: PRECURSOR_M/Z 192.1244
MS$FOCUSED_ION: PRECURSOR_TYPE [M+H]+
MS$DATA_PROCESSING: COMMENT Export with Spectra 1.9.12 MsBackendMassbank 1.7.4
MS$DATA_PROCESSING: WHOLE RMassBank 2.3.1
PK$SPLASH: splash10-05mo-9600000000-b03181efc35ab1ac45e7
PK$NUM_PEAK: 26
PK$PEAK: m/z int. rel.int.
  43.0388 125.1 300
  51.0287 4.8 11
  60.0613 201.3 483
  65.0433 149.4 358
  68.0282 20.4 49
  77.0414 68.2 163
  78.0364 9.8 23
  79.0571 72.5 174
  85.0521 10.3 24
  89.0403 193 463
  90.0364 13.8 33
  91.0555 415.1 997
  92.0495 4.7 11
  93.0586 128.7 309
  104.0496 28.2 67
  105.0574 5.3 12
  106.0653 415.8 999
  108.0807 40.6 97
  114.0334 9.2 22
  116.0494 338.9 814
  117.057 31.5 75
  118.0521 60.5 145
  131.0599 30.8 74
  132.0679 52.5 126
  133.0758 72.8 174
  141.0443 6.6 15
//
