ACCESSION: MSBNK-BAFG-CSL25010627943
RECORD_TITLE: Sudan III; LC-ESI-QTOF; MS2; 40 V
DATE: 2025.01.06
AUTHORS: Ole Lessmann; Kevin S. Jewell; Björn Ehlig; Arne Wick
LICENSE: dl-de/by-2-0
COPYRIGHT: Copyright 2025 Federal Institute of Hydrology, Koblenz, Germany
COMMENT: CONFIDENCE Reference Standard (Level 1)
COMMENT: Chromatography method: dx.doi.org/10.1016/j.chroma.2015.11.014
COMMENT: Acquisition method: 10.1002/rcm.8541
CH$NAME: Sudan III
CH$FORMULA: C22H16N4O
CH$EXACT_MASS: 352.1324
CH$SMILES: C1=CC=C(C=C1)N=NC2=CC=C(C=C2)N=NC3=C(C=CC4=CC=CC=C43)O
CH$IUPAC: InChI=1S/C22H16N4O/c27-21-15-10-16-6-4-5-9-20(16)22(21)26-25-19-13-11-18(12-14-19)24-23-17-7-2-1-3-8-17/h1-15,27H
CH$LINK: CAS 85-86-9
CH$LINK: INCHIKEY FHNINJWBTRXEBC-UHFFFAOYSA-N
AC$INSTRUMENT: TripleTOF X500R SCIEX
AC$INSTRUMENT_TYPE: LC-ESI-QTOF
AC$MASS_SPECTROMETRY: MS_TYPE MS2
AC$MASS_SPECTROMETRY: ION_MODE POSITIVE
AC$MASS_SPECTROMETRY: COLLISION_ENERGY 40
AC$MASS_SPECTROMETRY: FRAGMENTATION_MODE CID
AC$MASS_SPECTROMETRY: IONIZATION ESI
AC$CHROMATOGRAPHY: COLUMN_NAME Zorbax Eclipse Plus C18 2.1 mm x 150 mm, 3.5 um, Agilent
AC$CHROMATOGRAPHY: COLUMN_TEMPERATURE 40 °C
AC$CHROMATOGRAPHY: FLOW_GRADIENT 0 min min 98% A, 1 min 98% A, 2 min 80% A, 16.5 min 2% A, 22 min 2% A, 22.1 min 98% A, 27 min 98% A
AC$CHROMATOGRAPHY: FLOW_RATE 0.3 mL/min
AC$CHROMATOGRAPHY: RETENTION_TIME 19.216 min
AC$CHROMATOGRAPHY: SOLVENT A: Water 0.1% Formic acid, B: Acetonitrile 0.1% Formic acid
MS$FOCUSED_ION: PRECURSOR_M/Z 353.1397
MS$FOCUSED_ION: PRECURSOR_TYPE [M+H]+
MS$DATA_PROCESSING: COMMENT Export with pycsl 0.1.0.dev1 and CSL 24.4
PK$SPLASH: splash10-002b-2901000000-10537f99422512beaafd
PK$NUM_PEAK: 42
PK$PEAK: m/z int. rel.int.
  51.0222 0.6 26
  59.0315 1.5 67
  60.0332 0.5 22
  77.0393 16.0 716
  91.0422 2.0 89
  92.0494 7.4 331
  100.0679 0.5 22
  101.0388 1.3 58
  105.0446 0.8 35
  115.0544 3.9 174
  118.0636 0.5 22
  120.0562 8.1 362
  128.0501 12.3 551
  141.0702 3.8 170
  143.0504 5.6 250
  151.054 0.5 22
  153.0591 1.1 49
  154.0666 0.4 17
  156.0455 13.7 613
  167.0726 3.2 143
  168.0803 2.5 111
  169.0796 1.6 71
  171.0567 1.3 58
  181.0781 0.7 31
  182.0625 0.4 17
  182.0813 0.4 17
  196.088 22.3 999
  197.0958 19.0 851
  198.1015 2.9 129
  205.0686 0.6 26
  219.0884 0.8 35
  220.0887 0.5 22
  229.0696 0.4 17
  230.0862 0.6 26
  231.0724 1.1 49
  231.0972 1.0 44
  232.0889 1.4 62
  233.0992 0.4 17
  247.0881 1.2 53
  248.0959 0.9 40
  336.1374 1.1 49
  353.1406 18.0 806
//