ACCESSION: MSBNK-BAFG-CSL23102617122
RECORD_TITLE: Chlormethiazole; LC-ESI-QTOF; MS2; 90 V
DATE: 2023.10.26
AUTHORS: Kevin S. Jewell; Björn Ehlig; Arne Wick
LICENSE: dl-de/by-2-0
COPYRIGHT: Copyright 2023 Federal Institute of Hydrology, Koblenz, Germany
COMMENT: CONFIDENCE Reference Standard (Level 1)
COMMENT: Chromatography method: dx.doi.org/10.1016/j.chroma.2015.11.014
COMMENT: Acquisition method: 10.1002/rcm.8541
CH$NAME: Chlormethiazole
CH$COMPOUND_CLASS: Pharmaceutical
CH$FORMULA: C6H8ClNS
CH$EXACT_MASS: 161.0066
CH$SMILES: CC1=C(SC=N1)CCCl
CH$IUPAC: InChI=1S/C6H8ClNS/c1-5-6(2-3-7)9-4-8-5/h4H,2-3H2,1H3
CH$LINK: CAS 533-45-9
CH$LINK: INCHIKEY PCLITLDOTJTVDJ-UHFFFAOYSA-N
AC$INSTRUMENT: TripleTOF 6600 SCIEX
AC$INSTRUMENT_TYPE: LC-ESI-QTOF
AC$MASS_SPECTROMETRY: MS_TYPE MS2
AC$MASS_SPECTROMETRY: ION_MODE POSITIVE
AC$MASS_SPECTROMETRY: COLLISION_ENERGY 90
AC$MASS_SPECTROMETRY: FRAGMENTATION_MODE CID
AC$MASS_SPECTROMETRY: IONIZATION ESI
AC$CHROMATOGRAPHY: COLUMN_NAME Zorbax Eclipse Plus C18 2.1 mm x 150 mm, 3.5 um, Agilent
AC$CHROMATOGRAPHY: COLUMN_TEMPERATURE 40 °C
AC$CHROMATOGRAPHY: FLOW_GRADIENT 0 min min 98% A, 1 min 98% A, 2 min 80% A, 16.5 min 2% A, 22 min 2% A, 22.1 min 98% A, 27 min 98% A
AC$CHROMATOGRAPHY: FLOW_RATE 0.3 mL/min
AC$CHROMATOGRAPHY: RETENTION_TIME 7.946 min
AC$CHROMATOGRAPHY: SOLVENT A: Water 0.1% Formic acid, B: Acetonitrile 0.1% Formic acid
MS$FOCUSED_ION: PRECURSOR_M/Z 162.0139
MS$FOCUSED_ION: PRECURSOR_TYPE [M+H]+
MS$DATA_PROCESSING: COMMENT Export with Spectra 1.9.12 MsBackendMassbank 1.7.4
MS$DATA_PROCESSING: WHOLE RMassBank 2.3.1
PK$SPLASH: splash10-0006-9000000000-b4b00976f407d712303f
PK$NUM_PEAK: 18
PK$PEAK: m/z int. rel.int.
  37.0073 1.3 108
  38.0148 1 83
  39.0229 2.9 241
  41.0259 0.6 49
  41.0383 0.8 66
  42.0336 2.8 233
  43.9721 0.8 66
  44.9794 12 999
  50.0151 1.2 99
  51.0228 1.4 116
  53.0382 1.2 99
  54.0333 0.8 66
  57.9875 0.8 66
  58.9947 1.6 133
  68.9798 1 83
  70.9945 3.4 283
  84.0015 0.4 33
  85.0096 1 83
//
