ACCESSION: MSBNK-BAFG-CSL23102610207
RECORD_TITLE: N-(2-Methoxyphenyl)acetamide; LC-ESI-QTOF; MS2; 30 V
DATE: 2023.10.26
AUTHORS: Kevin S. Jewell; Björn Ehlig; Arne Wick
LICENSE: dl-de/by-2-0
COPYRIGHT: Copyright 2023 Federal Institute of Hydrology, Koblenz, Germany
COMMENT: CONFIDENCE Reference Standard (Level 1)
COMMENT: Chromatography method: dx.doi.org/10.1016/j.chroma.2015.11.014
COMMENT: Acquisition method: 10.1002/rcm.8541
CH$NAME: N-(2-Methoxyphenyl)acetamide
CH$FORMULA: C9H11NO2
CH$EXACT_MASS: 165.079
CH$SMILES: CC(=O)NC1=CC=CC=C1OC
CH$IUPAC: InChI=1S/C9H11NO2/c1-7(11)10-8-5-3-4-6-9(8)12-2/h3-6H,1-2H3,(H,10,11)
CH$LINK: CAS 93-26-5
CH$LINK: INCHIKEY FGOFNVXHDGQVBG-UHFFFAOYSA-N
AC$INSTRUMENT: TripleTOF 5600 SCIEX
AC$INSTRUMENT_TYPE: LC-ESI-QTOF
AC$MASS_SPECTROMETRY: MS_TYPE MS2
AC$MASS_SPECTROMETRY: ION_MODE POSITIVE
AC$MASS_SPECTROMETRY: COLLISION_ENERGY 30
AC$MASS_SPECTROMETRY: FRAGMENTATION_MODE CID
AC$MASS_SPECTROMETRY: IONIZATION ESI
AC$CHROMATOGRAPHY: COLUMN_NAME Zorbax Eclipse Plus C18 2.1 mm x 150 mm, 3.5 um, Agilent
AC$CHROMATOGRAPHY: COLUMN_TEMPERATURE 40 °C
AC$CHROMATOGRAPHY: FLOW_GRADIENT 0 min min 98% A, 1 min 98% A, 2 min 80% A, 16.5 min 2% A, 22 min 2% A, 22.1 min 98% A, 27 min 98% A
AC$CHROMATOGRAPHY: FLOW_RATE 0.3 mL/min
AC$CHROMATOGRAPHY: RETENTION_TIME 7.374 min
AC$CHROMATOGRAPHY: SOLVENT A: Water 0.1% Formic acid, B: Acetonitrile 0.1% Formic acid
MS$FOCUSED_ION: PRECURSOR_M/Z 166.0863
MS$FOCUSED_ION: PRECURSOR_TYPE [M+H]+
MS$DATA_PROCESSING: COMMENT Export with Spectra 1.9.12 MsBackendMassbank 1.7.4
MS$DATA_PROCESSING: WHOLE RMassBank 2.3.1
PK$SPLASH: splash10-0a4i-6900000000-0bd3372e967d53a95106
PK$NUM_PEAK: 8
PK$PEAK: m/z int. rel.int.
  45.0336 10.2 287
  77.0391 5.2 146
  78.0489 0.6 16
  79.0544 6.6 185
  91.0544 1.1 30
  93.0568 0.8 22
  94.0657 1 28
  106.0654 35.5 999
//
