ACCESSION: MSBNK-BAFG-CSL2311098482
RECORD_TITLE: Sotalol; LC-ESI-QTOF; MS2; 50 V
DATE: 2023.11.09
AUTHORS: Kevin S. Jewell; Björn Ehlig; Arne Wick
LICENSE: dl-de/by-2-0
COPYRIGHT: Copyright 2023 Federal Institute of Hydrology, Koblenz, Germany
COMMENT: CONFIDENCE Reference Standard (Level 1)
COMMENT: Chromatography method: dx.doi.org/10.1016/j.chroma.2015.11.014
COMMENT: Acquisition method: 10.1002/rcm.8541
CH$NAME: Sotalol
CH$COMPOUND_CLASS: Pharmaceutical
CH$FORMULA: C12H20N2O3S
CH$EXACT_MASS: 272.1195
CH$SMILES: CC(C)NCC(C1=CC=C(C=C1)NS(=O)(=O)C)O
CH$IUPAC: InChI=1S/C12H20N2O3S/c1-9(2)13-8-12(15)10-4-6-11(7-5-10)14-18(3,16)17/h4-7,9,12-15H,8H2,1-3H3
CH$LINK: CAS 3930-20-9
CH$LINK: INCHIKEY ZBMZVLHSJCTVON-UHFFFAOYSA-N
AC$INSTRUMENT: TripleTOF 5600 SCIEX
AC$INSTRUMENT_TYPE: LC-ESI-QTOF
AC$MASS_SPECTROMETRY: MS_TYPE MS2
AC$MASS_SPECTROMETRY: ION_MODE POSITIVE
AC$MASS_SPECTROMETRY: COLLISION_ENERGY 50
AC$MASS_SPECTROMETRY: FRAGMENTATION_MODE CID
AC$MASS_SPECTROMETRY: IONIZATION ESI
AC$CHROMATOGRAPHY: COLUMN_NAME Zorbax Eclipse Plus C18 2.1 mm x 150 mm, 3.5 um, Agilent
AC$CHROMATOGRAPHY: COLUMN_TEMPERATURE 40 °C
AC$CHROMATOGRAPHY: FLOW_GRADIENT 0 min min 98% A, 1 min 98% A, 2 min 80% A, 16.5 min 2% A, 22 min 2% A, 22.1 min 98% A, 27 min 98% A
AC$CHROMATOGRAPHY: FLOW_RATE 0.3 mL/min
AC$CHROMATOGRAPHY: RETENTION_TIME 4.583 min
AC$CHROMATOGRAPHY: SOLVENT A: Water 0.1% Formic acid, B: Acetonitrile 0.1% Formic acid
MS$FOCUSED_ION: PRECURSOR_M/Z 273.1267
MS$FOCUSED_ION: PRECURSOR_TYPE [M+H]+
MS$DATA_PROCESSING: COMMENT Export with Spectra 1.9.12 MsBackendMassbank 1.7.4
MS$DATA_PROCESSING: WHOLE RMassBank 2.3.1
PK$SPLASH: splash10-053r-0900000000-1cab82340f69e28b5a62
PK$NUM_PEAK: 17
PK$PEAK: m/z int. rel.int.
  77.0438 3.9 46
  79.0585 7.3 87
  80.0536 1.5 17
  80.0656 0.9 10
  89.0425 1.7 20
  91.0581 1.1 13
  93.0611 1.9 22
  106.0668 48.9 584
  107.0744 22.3 266
  116.051 16.6 198
  117.0585 11 131
  118.0661 9.6 114
  119.0603 5.5 65
  132.07 12.6 150
  133.0768 83.6 999
  134.0851 19.6 234
  176.1316 1.7 20
//
