ACCESSION: MSBNK-BAFG-CSL2310268583
RECORD_TITLE: Bupropion; LC-ESI-QTOF; MS2; 130 V
DATE: 2023.10.26
AUTHORS: Kevin S. Jewell; Björn Ehlig; Arne Wick
LICENSE: dl-de/by-2-0
COPYRIGHT: Copyright 2023 Federal Institute of Hydrology, Koblenz, Germany
COMMENT: CONFIDENCE Reference Standard (Level 1)
COMMENT: Chromatography method: dx.doi.org/10.1016/j.chroma.2015.11.014
COMMENT: Acquisition method: 10.1002/rcm.8541
CH$NAME: Bupropion
CH$COMPOUND_CLASS: Pharmaceutical
CH$FORMULA: C13H18ClNO
CH$EXACT_MASS: 239.1077
CH$SMILES: CC(C(=O)C1=CC(=CC=C1)Cl)NC(C)(C)C
CH$IUPAC: InChI=1S/C13H18ClNO/c1-9(15-13(2,3)4)12(16)10-6-5-7-11(14)8-10/h5-9,15H,1-4H3
CH$LINK: CAS 34911-55-2
CH$LINK: INCHIKEY SNPPWIUOZRMYNY-UHFFFAOYSA-N
AC$INSTRUMENT: TripleTOF 5600 SCIEX
AC$INSTRUMENT_TYPE: LC-ESI-QTOF
AC$MASS_SPECTROMETRY: MS_TYPE MS2
AC$MASS_SPECTROMETRY: ION_MODE POSITIVE
AC$MASS_SPECTROMETRY: COLLISION_ENERGY 130
AC$MASS_SPECTROMETRY: FRAGMENTATION_MODE CID
AC$MASS_SPECTROMETRY: IONIZATION ESI
AC$CHROMATOGRAPHY: COLUMN_NAME Zorbax Eclipse Plus C18 2.1 mm x 150 mm, 3.5 um, Agilent
AC$CHROMATOGRAPHY: COLUMN_TEMPERATURE 40 °C
AC$CHROMATOGRAPHY: FLOW_GRADIENT 0 min min 98% A, 1 min 98% A, 2 min 80% A, 16.5 min 2% A, 22 min 2% A, 22.1 min 98% A, 27 min 98% A
AC$CHROMATOGRAPHY: FLOW_RATE 0.3 mL/min
AC$CHROMATOGRAPHY: RETENTION_TIME 6.717 min
AC$CHROMATOGRAPHY: SOLVENT A: Water 0.1% Formic acid, B: Acetonitrile 0.1% Formic acid
MS$FOCUSED_ION: PRECURSOR_M/Z 240.115
MS$FOCUSED_ION: PRECURSOR_TYPE [M+H]+
MS$DATA_PROCESSING: COMMENT Export with Spectra 1.9.12 MsBackendMassbank 1.7.4
MS$DATA_PROCESSING: WHOLE RMassBank 2.3.1
PK$SPLASH: splash10-00b9-9000000000-c447daa226dd6de69b5b
PK$NUM_PEAK: 14
PK$PEAK: m/z int. rel.int.
  42.0415 0.5 43
  57.0745 0.9 78
  58.0704 1.4 121
  73.0111 0.9 78
  74.0176 11.5 999
  74.0519 0.8 69
  75.0245 2.8 243
  76.0391 0.7 60
  77.0406 11.3 981
  78.0464 0.6 52
  84.9847 0.5 43
  89.04 1.1 95
  102.0452 1.2 104
  103.0539 1 86
//
