ACCESSION: MSBNK-BAFG-CSL2310308772
RECORD_TITLE: Codeinone; LC-ESI-QTOF; MS2; 30 V
DATE: 2023.10.30
AUTHORS: Kevin S. Jewell; Björn Ehlig; Arne Wick
LICENSE: dl-de/by-2-0
COPYRIGHT: Copyright 2023 Federal Institute of Hydrology, Koblenz, Germany
COMMENT: CONFIDENCE Reference Standard (Level 1)
COMMENT: Chromatography method: dx.doi.org/10.1016/j.chroma.2015.11.014
COMMENT: Acquisition method: 10.1002/rcm.8541
CH$NAME: Codeinone
CH$COMPOUND_CLASS: Pharmaceutical
CH$FORMULA: C18H19NO3
CH$EXACT_MASS: 297.1365
CH$SMILES: CN1CCC23C4C1CC5=C2C(=C(C=C5)OC)OC3C(=O)C=C4
CH$IUPAC: InChI=1S/C18H19NO3/c1-19-8-7-18-11-4-5-13(20)17(18)22-16-14(21-2)6-3-10(15(16)18)9-12(11)19/h3-6,11-12,17H,7-9H2,1-2H3
CH$LINK: CAS 467-13-0
CH$LINK: INCHIKEY XYYVYLMBEZUESM-UHFFFAOYSA-N
AC$INSTRUMENT: TripleTOF 5600 SCIEX
AC$INSTRUMENT_TYPE: LC-ESI-QTOF
AC$MASS_SPECTROMETRY: MS_TYPE MS2
AC$MASS_SPECTROMETRY: ION_MODE POSITIVE
AC$MASS_SPECTROMETRY: COLLISION_ENERGY 30
AC$MASS_SPECTROMETRY: FRAGMENTATION_MODE CID
AC$MASS_SPECTROMETRY: IONIZATION ESI
AC$CHROMATOGRAPHY: COLUMN_NAME Zorbax Eclipse Plus C18 2.1 mm x 150 mm, 3.5 um, Agilent
AC$CHROMATOGRAPHY: COLUMN_TEMPERATURE 40 °C
AC$CHROMATOGRAPHY: FLOW_GRADIENT 0 min min 98% A, 1 min 98% A, 2 min 80% A, 16.5 min 2% A, 22 min 2% A, 22.1 min 98% A, 27 min 98% A
AC$CHROMATOGRAPHY: FLOW_RATE 0.3 mL/min
AC$CHROMATOGRAPHY: RETENTION_TIME 5.057 min
AC$CHROMATOGRAPHY: SOLVENT A: Water 0.1% Formic acid, B: Acetonitrile 0.1% Formic acid
MS$FOCUSED_ION: PRECURSOR_M/Z 298.1438
MS$FOCUSED_ION: PRECURSOR_TYPE [M+H]+
MS$DATA_PROCESSING: COMMENT Export with Spectra 1.9.12 MsBackendMassbank 1.7.4
MS$DATA_PROCESSING: WHOLE RMassBank 2.3.1
PK$SPLASH: splash10-0002-0190000000-46d0b646d9247b429af1
PK$NUM_PEAK: 23
PK$PEAK: m/z int. rel.int.
  58.0742 19.1 53
  153.0704 6.7 18
  181.0657 30.7 85
  183.0816 4 11
  185.0601 4 11
  195.0821 5.9 16
  198.0671 5.7 15
  199.0759 16.2 45
  207.0792 8.7 24
  209.0595 11.7 32
  210.0683 4.9 13
  211.076 16.5 46
  213.0913 27.9 77
  223.0755 17.2 47
  235.0745 5.7 15
  237.0569 4 11
  237.0905 4.6 12
  239.0703 41.4 115
  241.0856 100.2 279
  252.0767 4.2 11
  267.1012 4.9 13
  283.1179 3.8 10
  298.1433 358.2 999
//
