ACCESSION: MSBNK-BAFG-CSL25010634332
RECORD_TITLE: N-Isopropyl-N'-phenyl-p-phenylenediamine; LC-ESI-QTOF; MS2; 100 V
DATE: 2025.01.06
AUTHORS: Ole Lessmann; Kevin S. Jewell; Björn Ehlig; Arne Wick
LICENSE: dl-de/by-2-0
COPYRIGHT: Copyright 2025 Federal Institute of Hydrology, Koblenz, Germany
COMMENT: CONFIDENCE Reference Standard (Level 1)
COMMENT: Chromatography method: dx.doi.org/10.1016/j.chroma.2015.11.014
COMMENT: Acquisition method: 10.1002/rcm.8541
CH$NAME: N-Isopropyl-N'-phenyl-p-phenylenediamine
CH$COMPOUND_CLASS: Industrial_process
CH$FORMULA: C15H18N2
CH$EXACT_MASS: 226.147
CH$SMILES: CC(C)Nc1ccc(cc1)Nc2ccccc2
CH$IUPAC: InChI=1S/C15H18N2/c1-12(2)16-14-8-10-15(11-9-14)17-13-6-4-3-5-7-13/h3-12,16-17H,1-2H3
CH$LINK: CAS 101-72-4
CH$LINK: INCHIKEY OUBMGJOQLXMSNT-UHFFFAOYSA-N
AC$INSTRUMENT: TripleTOF 6600 SCIEX
AC$INSTRUMENT_TYPE: LC-ESI-QTOF
AC$MASS_SPECTROMETRY: MS_TYPE MS2
AC$MASS_SPECTROMETRY: ION_MODE POSITIVE
AC$MASS_SPECTROMETRY: COLLISION_ENERGY 100
AC$MASS_SPECTROMETRY: FRAGMENTATION_MODE CID
AC$MASS_SPECTROMETRY: IONIZATION ESI
AC$CHROMATOGRAPHY: COLUMN_NAME Zorbax Eclipse Plus C18 2.1 mm x 150 mm, 3.5 um, Agilent
AC$CHROMATOGRAPHY: COLUMN_TEMPERATURE 40 °C
AC$CHROMATOGRAPHY: FLOW_GRADIENT 0 min min 98% A, 1 min 98% A, 2 min 80% A, 16.5 min 2% A, 22 min 2% A, 22.1 min 98% A, 27 min 98% A
AC$CHROMATOGRAPHY: FLOW_RATE 0.3 mL/min
AC$CHROMATOGRAPHY: RETENTION_TIME 7.24 min
AC$CHROMATOGRAPHY: SOLVENT A: Water 0.1% Formic acid, B: Acetonitrile 0.1% Formic acid
MS$FOCUSED_ION: PRECURSOR_M/Z 227.1543
MS$FOCUSED_ION: PRECURSOR_TYPE [M+H]+
MS$DATA_PROCESSING: COMMENT Export with pycsl 0.1.0.dev1 and CSL 24.4
PK$SPLASH: splash10-0f89-9300000000-811c4f524ea888555dc5
PK$NUM_PEAK: 58
PK$PEAK: m/z int. rel.int.
  37.0065 2.7 33
  38.0147 2.1 26
  39.0223 14.3 179
  50.0142 4.4 55
  51.0222 12.8 160
  52.0176 1.4 17
  52.0294 2.1 26
  53.038 43.6 545
  54.0338 4.8 60
  61.006 1.7 21
  62.014 5.9 73
  63.0222 18.7 234
  64.0174 1.8 22
  64.0283 1.1 13
  65.0374 9.6 120
  66.0329 0.9 11
  66.0451 3.4 42
  74.0142 1.8 22
  75.0219 2.1 26
  77.0372 14.1 176
  78.0334 4.6 57
  78.0445 1.0 12
  79.0409 1.6 20
  80.0485 79.8 999
  87.0215 1.6 20
  88.0293 1.1 13
  89.0372 11.7 146
  90.0328 3.5 43
  90.0454 1.3 16
  91.0393 2.1 26
  92.0471 1.8 22
  93.0547 1.4 17
  101.0388 1.7 21
  102.0443 2.1 26
  103.0531 1.0 12
  105.0441 1.5 18
  107.059 5.4 67
  113.0375 7.3 91
  114.0377 2.5 31
  115.0529 6.9 86
  116.0507 1.6 20
  117.0549 0.9 11
  126.0426 1.2 15
  127.0533 6.5 81
  128.0496 3.9 48
  128.0606 3.3 41
  130.0605 1.0 12
  137.038 1.1 13
  138.0413 1.1 13
  139.052 13.8 172
  140.0491 10.0 125
  141.054 1.3 16
  154.0624 4.9 61
  164.0453 2.1 26
  166.0622 3.5 43
  167.0697 1.5 18
  168.072 1.0 12
  181.0724 2.0 25
//