ACCESSION: MSBNK-BAFG-CSL2311098989
RECORD_TITLE: 2,6-Dichlorodiphenylamine; LC-ESI-QTOF; MS2; 70 V
DATE: 2023.11.09
AUTHORS: Kevin S. Jewell; Björn Ehlig; Arne Wick
LICENSE: dl-de/by-2-0
COPYRIGHT: Copyright 2023 Federal Institute of Hydrology, Koblenz, Germany
COMMENT: CONFIDENCE Reference Standard (Level 1)
COMMENT: Chromatography method: dx.doi.org/10.1016/j.chroma.2015.11.014
COMMENT: Acquisition method: 10.1002/rcm.8541
CH$NAME: 2,6-Dichlorodiphenylamine
CH$COMPOUND_CLASS: Pharmaceutical
CH$FORMULA: C12H9Cl2N
CH$EXACT_MASS: 237.0112
CH$SMILES: C1=CC=C(C=C1)NC2=C(C=CC=C2Cl)Cl
CH$IUPAC: InChI=1S/C12H9Cl2N/c13-10-7-4-8-11(14)12(10)15-9-5-2-1-3-6-9/h1-8,15H
CH$LINK: CAS 15307-93-4
CH$LINK: INCHIKEY HDUUZPLYVVQTKN-UHFFFAOYSA-N
AC$INSTRUMENT: TripleTOF 5600 SCIEX
AC$INSTRUMENT_TYPE: LC-ESI-QTOF
AC$MASS_SPECTROMETRY: MS_TYPE MS2
AC$MASS_SPECTROMETRY: ION_MODE POSITIVE
AC$MASS_SPECTROMETRY: COLLISION_ENERGY 70
AC$MASS_SPECTROMETRY: FRAGMENTATION_MODE CID
AC$MASS_SPECTROMETRY: IONIZATION ESI
AC$CHROMATOGRAPHY: COLUMN_NAME Zorbax Eclipse Plus C18 2.1 mm x 150 mm, 3.5 um, Agilent
AC$CHROMATOGRAPHY: COLUMN_TEMPERATURE 40 °C
AC$CHROMATOGRAPHY: FLOW_GRADIENT 0 min min 98% A, 1 min 98% A, 2 min 80% A, 16.5 min 2% A, 22 min 2% A, 22.1 min 98% A, 27 min 98% A
AC$CHROMATOGRAPHY: FLOW_RATE 0.3 mL/min
AC$CHROMATOGRAPHY: RETENTION_TIME 14.125 min
AC$CHROMATOGRAPHY: SOLVENT A: Water 0.1% Formic acid, B: Acetonitrile 0.1% Formic acid
MS$FOCUSED_ION: PRECURSOR_M/Z 238.0185
MS$FOCUSED_ION: PRECURSOR_TYPE [M+H]+
MS$DATA_PROCESSING: COMMENT Export with Spectra 1.9.12 MsBackendMassbank 1.7.4
MS$DATA_PROCESSING: WHOLE RMassBank 2.3.1
PK$SPLASH: splash10-00mo-7900000000-6c8ffa958165e69a6a5e
PK$NUM_PEAK: 25
PK$PEAK: m/z int. rel.int.
  66.0526 3.5 353
  72.9894 3.7 373
  77.0431 3.8 383
  82.9475 1 100
  89.0299 0.4 40
  90.0372 7.1 716
  91.0461 0.5 50
  92.0526 1.5 151
  93.0597 8 807
  96.9856 1 100
  97.9915 0.7 70
  99.0013 3 302
  106.9472 0.9 90
  113.0406 0.6 60
  115.0555 1.1 111
  123.9958 0.5 50
  125.0033 5.1 514
  126.0125 1.6 161
  132.961 3.7 373
  133.9669 0.6 60
  139.0548 4.2 423
  140.0504 2.3 232
  160.9805 5.5 555
  166.0648 4.9 494
  167.0721 9.9 999
//
