ACCESSION: MSBNK-BAFG-CSL2311106570
RECORD_TITLE: Methacetin; LC-ESI-QTOF; MS2; 80 V
DATE: 2023.11.10
AUTHORS: Kevin S. Jewell; Björn Ehlig; Arne Wick
LICENSE: dl-de/by-2-0
COPYRIGHT: Copyright 2023 Federal Institute of Hydrology, Koblenz, Germany
COMMENT: CONFIDENCE Reference Standard (Level 1)
COMMENT: Chromatography method: dx.doi.org/10.1016/j.chroma.2015.11.014
COMMENT: Acquisition method: 10.1002/rcm.8541
CH$NAME: Methacetin
CH$COMPOUND_CLASS: Pharmaceutical
CH$FORMULA: C9H11NO2
CH$EXACT_MASS: 165.079
CH$SMILES: COc1ccc(NC(C)=O)cc1
CH$IUPAC: InChI=1S/C9H11NO2/c1-7(11)10-8-3-5-9(12-2)6-4-8/h3-6H,1-2H3,(H,10,11)
CH$LINK: CAS 51-66-1
CH$LINK: INCHIKEY XVAIDCNLVLTVFM-UHFFFAOYSA-N
AC$INSTRUMENT: TripleTOF 5600 SCIEX
AC$INSTRUMENT_TYPE: LC-ESI-QTOF
AC$MASS_SPECTROMETRY: MS_TYPE MS2
AC$MASS_SPECTROMETRY: ION_MODE POSITIVE
AC$MASS_SPECTROMETRY: COLLISION_ENERGY 80
AC$MASS_SPECTROMETRY: FRAGMENTATION_MODE CID
AC$MASS_SPECTROMETRY: IONIZATION ESI
AC$CHROMATOGRAPHY: COLUMN_NAME Zorbax Eclipse Plus C18 2.1 mm x 150 mm, 3.5 um, Agilent
AC$CHROMATOGRAPHY: COLUMN_TEMPERATURE 40 °C
AC$CHROMATOGRAPHY: FLOW_GRADIENT 0 min min 98% A, 1 min 98% A, 2 min 80% A, 16.5 min 2% A, 22 min 2% A, 22.1 min 98% A, 27 min 98% A
AC$CHROMATOGRAPHY: FLOW_RATE 0.3 mL/min
AC$CHROMATOGRAPHY: RETENTION_TIME 6.508 min
AC$CHROMATOGRAPHY: SOLVENT A: Water 0.1% Formic acid, B: Acetonitrile 0.1% Formic acid
MS$FOCUSED_ION: PRECURSOR_M/Z 166.0863
MS$FOCUSED_ION: PRECURSOR_TYPE [M+H]+
MS$DATA_PROCESSING: COMMENT Export with Spectra 1.9.12 MsBackendMassbank 1.7.4
MS$DATA_PROCESSING: WHOLE RMassBank 2.3.1
PK$SPLASH: splash10-00lu-9000000000-29143eb6ee9d6b2f06af
PK$NUM_PEAK: 17
PK$PEAK: m/z int. rel.int.
  41.0381 21.3 26
  42.0445 31.4 38
  43.029 328 404
  44.0231 10 12
  52.0282 42.5 52
  54.0417 106.3 131
  64.0361 109.1 134
  65.0439 342.6 422
  66.0514 299.4 369
  67.0468 22.6 27
  77.0423 79.1 97
  78.0375 66.7 82
  80.0528 810 999
  81.0598 44.6 55
  92.0508 172.6 212
  93.0591 187.9 231
  108.0453 16.6 20
//
