ACCESSION: MSBNK-BAFG-CSL25010627869
RECORD_TITLE: Iminostilbene; LC-ESI-QTOF; MS2; 100 V
DATE: 2025.01.06
AUTHORS: Ole Lessmann; Kevin S. Jewell; Björn Ehlig; Arne Wick
LICENSE: dl-de/by-2-0
COPYRIGHT: Copyright 2025 Federal Institute of Hydrology, Koblenz, Germany
COMMENT: CONFIDENCE Reference Standard (Level 1)
COMMENT: Chromatography method: dx.doi.org/10.1016/j.chroma.2015.11.014
COMMENT: Acquisition method: 10.1002/rcm.8541
CH$NAME: Iminostilbene
CH$COMPOUND_CLASS: Pharmaceutical
CH$FORMULA: C14H11N
CH$EXACT_MASS: 193.0891
CH$SMILES: C1=CC=C2C(=C1)C=CC3=CC=CC=C3N2
CH$IUPAC: InChI=1S/C14H11N/c1-3-7-13-11(5-1)9-10-12-6-2-4-8-14(12)15-13/h1-10,15H
CH$LINK: CAS 256-96-2
CH$LINK: INCHIKEY LCGTWRLJTMHIQZ-UHFFFAOYSA-N
AC$INSTRUMENT: TripleTOF 6600 SCIEX
AC$INSTRUMENT_TYPE: LC-ESI-QTOF
AC$MASS_SPECTROMETRY: MS_TYPE MS2
AC$MASS_SPECTROMETRY: ION_MODE POSITIVE
AC$MASS_SPECTROMETRY: COLLISION_ENERGY 100
AC$MASS_SPECTROMETRY: FRAGMENTATION_MODE CID
AC$MASS_SPECTROMETRY: IONIZATION ESI
AC$CHROMATOGRAPHY: COLUMN_NAME Zorbax Eclipse Plus C18 2.1 mm x 150 mm, 3.5 um, Agilent
AC$CHROMATOGRAPHY: COLUMN_TEMPERATURE 40 °C
AC$CHROMATOGRAPHY: FLOW_GRADIENT 0 min min 98% A, 1 min 98% A, 2 min 80% A, 16.5 min 2% A, 22 min 2% A, 22.1 min 98% A, 27 min 98% A
AC$CHROMATOGRAPHY: FLOW_RATE 0.3 mL/min
AC$CHROMATOGRAPHY: RETENTION_TIME 13.175 min
AC$CHROMATOGRAPHY: SOLVENT A: Water 0.1% Formic acid, B: Acetonitrile 0.1% Formic acid
MS$FOCUSED_ION: PRECURSOR_M/Z 194.0964
MS$FOCUSED_ION: PRECURSOR_TYPE [M+H]+
MS$DATA_PROCESSING: COMMENT Export with pycsl 0.1.0.dev1 and CSL 24.4
PK$SPLASH: splash10-0ik9-9500000000-92aec1044628a28dae76
PK$NUM_PEAK: 85
PK$PEAK: m/z int. rel.int.
  35.9963 6.1 24
  37.0042 30.4 123
  38.0117 26.9 108
  39.0197 95.3 385
  41.0349 2.9 11
  49.003 19.0 76
  50.011 136.5 552
  51.0186 165.7 670
  52.0136 2.7 10
  52.0259 11.5 46
  61.0018 40.5 163
  62.0096 97.8 395
  63.0175 246.8 999
  64.0125 5.7 23
  64.0243 9.0 36
  65.0328 38.8 157
  73.0007 12.4 50
  74.0085 142.5 576
  75.0162 109.8 444
  76.0116 6.1 24
  76.0239 40.8 165
  77.0317 60.3 244
  78.0392 9.3 37
  84.9993 17.0 68
  86.0073 52.8 213
  87.015 73.4 297
  88.0102 11.2 45
  88.0222 15.3 61
  89.0307 170.3 689
  90.0255 3.3 13
  90.0381 5.1 20
  91.0455 3.9 15
  96.9987 5.2 21
  98.0064 85.2 344
  99.0013 5.7 23
  99.0134 45.1 182
  100.0093 3.8 15
  100.0217 12.3 49
  101.0294 15.8 63
  102.0251 4.0 16
  102.0369 22.9 92
  108.9971 5.5 22
  110.0051 22.1 89
  111.0126 17.5 70
  112.0085 3.0 12
  112.0201 2.7 10
  113.0283 78.7 318
  114.024 13.4 54
  114.0348 6.3 25
  115.0438 48.0 194
  116.0389 3.9 15
  122.004 14.3 57
  123.0116 7.7 31
  124.0196 5.3 21
  125.0275 15.6 63
  126.0353 29.3 118
  127.0304 6.5 26
  127.0422 2.5 10
  128.0373 5.7 23
  129.0327 4.6 18
  137.0261 39.3 159
  138.0212 4.2 17
  138.0334 15.5 62
  139.0418 74.8 302
  140.0369 48.1 194
  149.0253 16.6 67
  150.0327 79.5 321
  151.0282 5.7 23
  151.0402 16.1 65
  152.0363 5.6 22
  152.0482 3.2 12
  161.0239 26.8 108
  162.0318 53.4 216
  163.04 188.2 761
  164.0367 61.4 248
  165.0547 6.8 27
  166.051 2.7 10
  174.029 2.5 10
  175.026 6.3 25
  176.0335 8.7 35
  177.0413 5.6 22
  188.0327 33.8 136
  189.0401 36.6 148
  190.0481 41.4 167
  191.0557 8.4 34
//