ACCESSION: MSBNK-BAFG-CSL25011734637
RECORD_TITLE: Metachrome Yellow free acid; LC-ESI-QTOF; MS2; 90 V
DATE: 2025.01.17
AUTHORS: Ole Lessmann; Kevin S. Jewell; Björn Ehlig; Arne Wick
LICENSE: dl-de/by-2-0
COPYRIGHT: Copyright 2025 Federal Institute of Hydrology, Koblenz, Germany
COMMENT: CONFIDENCE Reference Standard (Level 1)
COMMENT: Chromatography method: dx.doi.org/10.1016/j.chroma.2015.11.014
CH$NAME: Metachrome Yellow free acid
CH$FORMULA: C13H9N3O5
CH$EXACT_MASS: 287.0542
CH$SMILES: C1=CC(=CC(=C1)[N+](=O)[O-])N=NC2=CC(=C(C=C2)O)C(=O)O
CH$IUPAC: InChI=1S/C13H9N3O5/c17-12-5-4-9(7-11(12)13(18)19)15-14-8-2-1-3-10(6-8)16(20)21/h1-7,17H,(H,18,19)
CH$LINK: CAS 6283-26-7
CH$LINK: INCHIKEY LJOXBIGRIKPBSQ-UHFFFAOYSA-N
AC$INSTRUMENT: TripleTOF 6600 SCIEX
AC$INSTRUMENT_TYPE: LC-ESI-QTOF
AC$MASS_SPECTROMETRY: MS_TYPE MS2
AC$MASS_SPECTROMETRY: ION_MODE POSITIVE
AC$MASS_SPECTROMETRY: COLLISION_ENERGY 90
AC$MASS_SPECTROMETRY: FRAGMENTATION_MODE CID
AC$MASS_SPECTROMETRY: IONIZATION ESI
AC$CHROMATOGRAPHY: COLUMN_NAME Zorbax Eclipse Plus C18 2.1 mm x 150 mm, 3.5 um, Agilent
AC$CHROMATOGRAPHY: COLUMN_TEMPERATURE 40 °C
AC$CHROMATOGRAPHY: FLOW_GRADIENT 0 min min 98% A, 1 min 98% A, 2 min 80% A, 16.5 min 2% A, 22 min 2% A, 22.1 min 98% A, 27 min 98% A
AC$CHROMATOGRAPHY: FLOW_RATE 0.3 mL/min
AC$CHROMATOGRAPHY: RETENTION_TIME 11.919 min
AC$CHROMATOGRAPHY: SOLVENT A: Water 0.1% Formic acid, B: Acetonitrile 0.1% Formic acid
MS$FOCUSED_ION: PRECURSOR_M/Z 288.0615
MS$FOCUSED_ION: PRECURSOR_TYPE [M+H]+
MS$DATA_PROCESSING: COMMENT Export with pycsl 0.1.0.dev1 and CSL 25.0
PK$SPLASH: splash10-03fr-9200000000-21a5397b297292964148
PK$NUM_PEAK: 47
PK$PEAK: m/z int. rel.int.
  37.0061 0.7 18
  38.014 1.8 46
  39.0221 2.9 74
  50.0141 7.0 180
  51.0218 4.1 105
  52.017 4.4 113
  53.001 2.5 64
  61.0061 3.3 85
  62.0137 7.9 203
  63.0221 38.7 999
  64.0294 7.5 193
  65.0371 0.4 10
  73.0062 0.8 20
  74.0134 11.3 291
  75.0214 34.1 880
  76.0173 1.1 28
  76.0298 5.1 131
  77.025 0.6 15
  77.0375 1.1 28
  78.0328 3.1 80
  79.0156 0.7 18
  80.0126 4.2 108
  82.0277 0.6 15
  86.0135 0.4 10
  87.0211 1.8 46
  88.0291 3.2 82
  89.0368 5.0 129
  90.0334 0.5 12
  90.045 0.7 18
  91.0158 0.5 12
  91.0383 0.6 15
  92.0239 0.7 18
  101.0376 0.5 12
  102.0336 0.6 15
  113.0366 7.4 191
  114.0323 3.7 95
  114.0449 1.6 41
  115.0395 1.5 38
  115.053 0.7 18
  128.0507 0.6 15
  138.035 1.0 25
  139.0517 4.6 118
  140.0465 7.8 201
  141.0536 1.2 30
  142.0559 0.9 23
  165.0426 0.7 18
  166.0512 2.9 74
//
