ACCESSION: MSBNK-BAFG-CSL23103010419
RECORD_TITLE: Oxibendazole; LC-ESI-QTOF; MS2; 150 V
DATE: 2023.10.30
AUTHORS: Kevin S. Jewell; Björn Ehlig; Arne Wick
LICENSE: dl-de/by-2-0
COPYRIGHT: Copyright 2023 Federal Institute of Hydrology, Koblenz, Germany
COMMENT: CONFIDENCE Reference Standard (Level 1)
COMMENT: Chromatography method: dx.doi.org/10.1016/j.chroma.2015.11.014
COMMENT: Acquisition method: 10.1002/rcm.8541
CH$NAME: Oxibendazole
CH$COMPOUND_CLASS: Pharmaceutical
CH$FORMULA: C12H15N3O3
CH$EXACT_MASS: 249.1113
CH$SMILES: CCCOC1=CC2=C(C=C1)N=C(N2)NC(=O)OC
CH$IUPAC: InChI=1S/C12H15N3O3/c1-3-6-18-8-4-5-9-10(7-8)14-11(13-9)15-12(16)17-2/h4-5,7H,3,6H2,1-2H3,(H2,13,14,15,16)
CH$LINK: CAS 20559-55-1
CH$LINK: INCHIKEY RAOCRURYZCVHMG-UHFFFAOYSA-N
AC$INSTRUMENT: TripleTOF 5600 SCIEX
AC$INSTRUMENT_TYPE: LC-ESI-QTOF
AC$MASS_SPECTROMETRY: MS_TYPE MS2
AC$MASS_SPECTROMETRY: ION_MODE POSITIVE
AC$MASS_SPECTROMETRY: COLLISION_ENERGY 150
AC$MASS_SPECTROMETRY: FRAGMENTATION_MODE CID
AC$MASS_SPECTROMETRY: IONIZATION ESI
AC$CHROMATOGRAPHY: COLUMN_NAME Zorbax Eclipse Plus C18 2.1 mm x 150 mm, 3.5 um, Agilent
AC$CHROMATOGRAPHY: COLUMN_TEMPERATURE 40 °C
AC$CHROMATOGRAPHY: FLOW_GRADIENT 0 min min 98% A, 1 min 98% A, 2 min 80% A, 16.5 min 2% A, 22 min 2% A, 22.1 min 98% A, 27 min 98% A
AC$CHROMATOGRAPHY: FLOW_RATE 0.3 mL/min
AC$CHROMATOGRAPHY: RETENTION_TIME 6.663 min
AC$CHROMATOGRAPHY: SOLVENT A: Water 0.1% Formic acid, B: Acetonitrile 0.1% Formic acid
MS$FOCUSED_ION: PRECURSOR_M/Z 250.1186
MS$FOCUSED_ION: PRECURSOR_TYPE [M+H]+
MS$DATA_PROCESSING: COMMENT Export with Spectra 1.9.12 MsBackendMassbank 1.7.4
MS$DATA_PROCESSING: WHOLE RMassBank 2.3.1
PK$SPLASH: splash10-0udi-9000000000-2a008bba3b776c44b688
PK$NUM_PEAK: 20
PK$PEAK: m/z int. rel.int.
  37.0071 0.7 211
  38.0151 0.5 151
  39.0229 1.5 454
  40.0177 0.9 272
  41.0262 0.5 151
  43.0301 0.5 151
  49.0081 1.1 333
  50.0154 3.3 999
  51.0227 2.6 787
  52.0184 3.3 999
  61.0066 0.6 181
  62.0151 0.8 242
  64.0187 1 302
  65.0255 0.7 211
  66.0336 0.8 242
  68.0127 0.9 272
  69.0089 1.1 333
  75.0107 2.1 635
  76.0176 1.9 575
  78.0335 0.5 151
//
