ACCESSION: MSBNK-BAFG-CSL2310258281
RECORD_TITLE: Sunitinib; LC-ESI-QTOF; MS2; 60 V
DATE: 2023.10.25
AUTHORS: Kevin S. Jewell; Björn Ehlig; Arne Wick
LICENSE: dl-de/by-2-0
COPYRIGHT: Copyright 2023 Federal Institute of Hydrology, Koblenz, Germany
COMMENT: CONFIDENCE Reference Standard (Level 1)
COMMENT: Chromatography method: dx.doi.org/10.1016/j.chroma.2015.11.014
COMMENT: Acquisition method: 10.1002/rcm.8541
CH$NAME: Sunitinib
CH$COMPOUND_CLASS: Pharmaceutical
CH$FORMULA: C22H27FN4O2
CH$EXACT_MASS: 398.2118
CH$SMILES: CCN(CC)CCNC(=O)C1=C(NC(=C1C)C=C2C3=C(C=CC(=C3)F)NC2=O)C
CH$IUPAC: InChI=1S/C22H27FN4O2/c1-5-27(6-2)10-9-24-22(29)20-13(3)19(25-14(20)4)12-17-16-11-15(23)7-8-18(16)26-21(17)28/h7-8,11-12,25H,5-6,9-10H2,1-4H3,(H,24,29)(H,26,28)
CH$LINK: CAS 557795-19-4
CH$LINK: INCHIKEY WINHZLLDWRZWRT-UHFFFAOYSA-N
AC$INSTRUMENT: TripleTOF 5600 SCIEX
AC$INSTRUMENT_TYPE: LC-ESI-QTOF
AC$MASS_SPECTROMETRY: MS_TYPE MS2
AC$MASS_SPECTROMETRY: ION_MODE NEGATIVE
AC$MASS_SPECTROMETRY: COLLISION_ENERGY 60
AC$MASS_SPECTROMETRY: FRAGMENTATION_MODE CID
AC$MASS_SPECTROMETRY: IONIZATION ESI
AC$CHROMATOGRAPHY: COLUMN_NAME Zorbax Eclipse Plus C18 2.1 mm x 150 mm, 3.5 um, Agilent
AC$CHROMATOGRAPHY: COLUMN_TEMPERATURE 40 °C
AC$CHROMATOGRAPHY: FLOW_GRADIENT 0 min min 98% A, 1 min 98% A, 2 min 80% A, 16.5 min 2% A, 22 min 2% A, 22.1 min 98% A, 27 min 98% A
AC$CHROMATOGRAPHY: FLOW_RATE 0.3 mL/min
AC$CHROMATOGRAPHY: RETENTION_TIME 6.516 min
AC$CHROMATOGRAPHY: SOLVENT A: Water 0.1% Formic acid, B: Acetonitrile 0.1% Formic acid
MS$FOCUSED_ION: PRECURSOR_M/Z 397.2045
MS$FOCUSED_ION: PRECURSOR_TYPE [M-H]-
MS$DATA_PROCESSING: COMMENT Export with Spectra 1.9.12 MsBackendMassbank 1.7.4
MS$DATA_PROCESSING: WHOLE RMassBank 2.3.1
PK$SPLASH: splash10-0pbd-0190000000-a8af9715ff830b7c9135
PK$NUM_PEAK: 24
PK$PEAK: m/z int. rel.int.
  42.0024 1.9 210
  94.0665 1.4 155
  134.0422 0.6 66
  149.0278 2.8 310
  150.0348 0.8 88
  162.0357 1 111
  187.0255 0.7 77
  188.0351 1 111
  211.0717 1 111
  212.0746 3.8 421
  227.0976 1.4 155
  236.0753 0.7 77
  237.0845 1.4 155
  238.0527 1.3 144
  239.0638 2.4 266
  240.0695 1.6 177
  253.0789 4.8 532
  254.0876 3.8 421
  255.0936 9 999
  268.1032 0.6 66
  280.0869 0.9 99
  281.0708 0.7 77
  296.0865 5.6 621
  310.1066 1.4 155
//
