ACCESSION: MSBNK-BAFG-CSL25011734576
RECORD_TITLE: Amido Black 10B; LC-ESI-QTOF; MS2; 120 V
DATE: 2025.01.17
AUTHORS: Ole Lessmann; Kevin S. Jewell; Björn Ehlig; Arne Wick
LICENSE: dl-de/by-2-0
COPYRIGHT: Copyright 2025 Federal Institute of Hydrology, Koblenz, Germany
COMMENT: CONFIDENCE Reference Standard (Level 1)
COMMENT: Chromatography method: dx.doi.org/10.1016/j.chroma.2015.11.014
CH$NAME: Amido Black 10B
CH$FORMULA: C22H16N6O9S2
CH$EXACT_MASS: 572.042
CH$SMILES: C1=CC=C(C=C1)N=NC2=C(C3=C(C(=C(C=C3C=C2S(=O)(=O)O)S(=O)(=O)O)N=NC4=CC=C(C=C4)[N+](=O)[O-])N)O
CH$IUPAC: InChI=1S/C22H16N6O9S2/c23-19-18-12(11-17(39(35,36)37)21(22(18)29)27-24-13-4-2-1-3-5-13)10-16(38(32,33)34)20(19)26-25-14-6-8-15(9-7-14)28(30)31/h1-11,29H,23H2,(H,32,33,34)(H,35,36,37)
CH$LINK: CAS 3121-74-2
CH$LINK: INCHIKEY HKJKONMZMPUGHJ-UHFFFAOYSA-N
AC$INSTRUMENT: TripleTOF 6600 SCIEX
AC$INSTRUMENT_TYPE: LC-ESI-QTOF
AC$MASS_SPECTROMETRY: MS_TYPE MS2
AC$MASS_SPECTROMETRY: ION_MODE POSITIVE
AC$MASS_SPECTROMETRY: COLLISION_ENERGY 120
AC$MASS_SPECTROMETRY: FRAGMENTATION_MODE CID
AC$MASS_SPECTROMETRY: IONIZATION ESI
AC$CHROMATOGRAPHY: COLUMN_NAME Zorbax Eclipse Plus C18 2.1 mm x 150 mm, 3.5 um, Agilent
AC$CHROMATOGRAPHY: COLUMN_TEMPERATURE 40 °C
AC$CHROMATOGRAPHY: FLOW_GRADIENT 0 min min 98% A, 1 min 98% A, 2 min 80% A, 16.5 min 2% A, 22 min 2% A, 22.1 min 98% A, 27 min 98% A
AC$CHROMATOGRAPHY: FLOW_RATE 0.3 mL/min
AC$CHROMATOGRAPHY: RETENTION_TIME 9.552 min
AC$CHROMATOGRAPHY: SOLVENT A: Water 0.1% Formic acid, B: Acetonitrile 0.1% Formic acid
MS$FOCUSED_ION: PRECURSOR_M/Z 573.0493
MS$FOCUSED_ION: PRECURSOR_TYPE [M+H]+
MS$DATA_PROCESSING: COMMENT Export with pycsl 0.1.0.dev1 and CSL 25.0
PK$SPLASH: splash10-00kf-9210000000-d5ccb8e7546824ab8dce
PK$NUM_PEAK: 84
PK$PEAK: m/z int. rel.int.
  39.0229 8.7 126
  51.0225 2.3 33
  62.0145 0.7 10
  63.0228 3.7 53
  64.0302 1.2 17
  65.0384 58.9 858
  66.0459 19.3 281
  74.0156 2.5 36
  75.0222 20.4 297
  76.0315 2.1 30
  77.038 10.6 154
  78.0332 2.0 29
  80.0479 3.3 48
  88.0182 1.9 27
  90.0332 4.4 64
  92.0257 1.3 18
  92.049 19.7 287
  93.0567 68.5 999
  100.0184 0.8 11
  102.0337 6.8 99
  103.0431 1.2 17
  112.0172 0.7 10
  114.0321 5.4 78
  115.0399 1.3 18
  117.0436 2.1 30
  125.0127 0.8 11
  127.0326 0.9 13
  129.0428 3.1 45
  130.0305 1.0 14
  138.0422 0.8 11
  139.0257 1.3 18
  140.0458 0.9 13
  145.0379 2.0 29
  150.048 0.8 11
  151.0406 0.9 13
  151.0538 2.1 30
  152.0246 1.1 16
  152.0459 1.1 16
  162.0361 1.5 21
  163.0427 0.7 10
  164.0485 2.2 32
  165.0438 1.6 23
  166.053 1.3 18
  173.0346 1.2 17
  176.0495 2.4 35
  177.0526 4.4 64
  178.05 1.1 16
  179.058 1.6 23
  188.0424 2.9 42
  189.0448 6.9 100
  190.0516 1.6 23
  191.0458 0.8 11
  191.0601 1.8 26
  192.0658 1.7 24
  193.077 1.0 14
  201.0519 0.8 11
  202.0532 1.2 17
  203.0588 3.1 45
  204.0569 3.5 51
  205.0756 4.4 64
  206.0791 1.2 17
  213.0479 0.9 13
  215.0552 3.6 52
  216.0536 2.1 30
  216.063 1.0 14
  217.0646 2.2 32
  218.0687 1.1 16
  229.0617 0.8 11
  230.072 6.9 100
  231.0756 2.5 36
  232.0848 1.1 16
  241.0505 1.3 18
  242.0592 5.0 72
  243.0699 0.7 10
  255.0656 0.8 11
  269.0407 1.0 14
  289.0807 0.8 11
  291.0796 1.2 17
  292.087 1.0 14
  305.0851 1.4 20
  306.0946 1.0 14
  307.088 0.8 11
  317.077 0.8 11
  318.0902 1.2 17
//
