ACCESSION: MSBNK-BAFG-CSL25011734609
RECORD_TITLE: N-[2-[(2-Bromo-4,6-dinitrophenyl)azo]-5-(diethylamino)phenyl]acetamide; LC-ESI-QTOF; MS2; 130 V
DATE: 2025.01.17
AUTHORS: Ole Lessmann; Kevin S. Jewell; Björn Ehlig; Arne Wick
LICENSE: dl-de/by-2-0
COPYRIGHT: Copyright 2025 Federal Institute of Hydrology, Koblenz, Germany
COMMENT: CONFIDENCE Reference Standard (Level 1)
COMMENT: Chromatography method: dx.doi.org/10.1016/j.chroma.2015.11.014
CH$NAME: N-[2-[(2-Bromo-4,6-dinitrophenyl)azo]-5-(diethylamino)phenyl]acetamide
CH$FORMULA: C18H19BrN6O5
CH$EXACT_MASS: 478.06
CH$SMILES: CCN(CC)C1=CC(=C(C=C1)N=NC2=C(C=C(C=C2Br)[N+](=O)[O-])[N+](=O)[O-])NC(=O)C
CH$IUPAC: InChI=1S/C18H19BrN6O5/c1-4-23(5-2)12-6-7-15(16(9-12)20-11(3)26)21-22-18-14(19)8-13(24(27)28)10-17(18)25(29)30/h6-10H,4-5H2,1-3H3,(H,20,26)
CH$LINK: CAS 52697-38-8
CH$LINK: INCHIKEY WFFKSTRPZWRBEW-UHFFFAOYSA-N
AC$INSTRUMENT: TripleTOF 6600 SCIEX
AC$INSTRUMENT_TYPE: LC-ESI-QTOF
AC$MASS_SPECTROMETRY: MS_TYPE MS2
AC$MASS_SPECTROMETRY: ION_MODE POSITIVE
AC$MASS_SPECTROMETRY: COLLISION_ENERGY 130
AC$MASS_SPECTROMETRY: FRAGMENTATION_MODE CID
AC$MASS_SPECTROMETRY: IONIZATION ESI
AC$CHROMATOGRAPHY: COLUMN_NAME Zorbax Eclipse Plus C18 2.1 mm x 150 mm, 3.5 um, Agilent
AC$CHROMATOGRAPHY: COLUMN_TEMPERATURE 40 °C
AC$CHROMATOGRAPHY: FLOW_GRADIENT 0 min min 98% A, 1 min 98% A, 2 min 80% A, 16.5 min 2% A, 22 min 2% A, 22.1 min 98% A, 27 min 98% A
AC$CHROMATOGRAPHY: FLOW_RATE 0.3 mL/min
AC$CHROMATOGRAPHY: RETENTION_TIME 16.579 min
AC$CHROMATOGRAPHY: SOLVENT A: Water 0.1% Formic acid, B: Acetonitrile 0.1% Formic acid
MS$FOCUSED_ION: PRECURSOR_M/Z 479.0673
MS$FOCUSED_ION: PRECURSOR_TYPE [M+H]+
MS$DATA_PROCESSING: COMMENT Export with pycsl 0.1.0.dev1 and CSL 25.0
PK$SPLASH: splash10-000x-8900000000-183e846d8f5b4eda2b7a
PK$NUM_PEAK: 101
PK$PEAK: m/z int. rel.int.
  39.023 1.2 49
  42.0339 0.6 24
  43.0172 4.3 176
  51.0215 1.5 61
  52.0162 0.6 24
  52.0296 2.9 118
  53.0379 1.9 77
  62.0158 0.6 24
  63.0222 1.4 57
  65.0377 7.6 311
  66.0334 1.0 40
  66.0443 2.2 90
  67.0409 1.0 40
  74.0149 0.5 20
  75.0219 0.5 20
  76.0153 0.5 20
  77.0377 8.2 335
  78.032 4.6 188
  79.0292 3.0 122
  79.0399 3.3 135
  79.0534 1.5 61
  80.0477 15.3 626
  81.0549 0.7 28
  89.0382 1.4 57
  90.0329 2.3 94
  91.0394 4.6 188
  92.0483 12.3 503
  93.0558 24.4 999
  94.0418 0.6 24
  94.0636 4.4 180
  95.0593 1.2 49
  101.0366 0.4 16
  102.0329 0.8 32
  104.0481 2.8 114
  105.0438 7.6 311
  106.0511 2.5 102
  106.0625 3.6 147
  107.0359 1.5 61
  107.0587 3.6 147
  108.0427 0.5 20
  108.0777 0.5 20
  109.0756 1.0 40
  113.0366 1.4 57
  114.036 1.0 40
  115.0529 0.8 32
  116.0481 0.8 32
  117.0436 2.0 81
  117.0552 1.5 61
  118.0511 2.7 110
  119.0583 7.8 319
  120.053 1.3 53
  120.0656 2.4 98
  121.0496 0.6 24
  121.0746 4.7 192
  125.0361 0.7 28
  126.0364 0.8 32
  127.0416 1.3 53
  128.0484 0.7 28
  129.0451 1.0 40
  130.0619 0.4 16
  131.0576 1.3 53
  132.0532 0.6 24
  132.0789 0.7 28
  133.0575 7.7 315
  134.056 0.5 20
  134.0706 3.5 143
  137.0361 1.1 45
  138.0421 1.8 73
  139.0518 7.1 290
  140.05 5.0 204
  146.0697 5.8 237
  147.0524 3.4 139
  147.0798 0.5 20
  148.0609 0.8 32
  150.0453 0.8 32
  151.0425 1.3 53
  152.0481 1.4 57
  153.0349 0.4 16
  153.0486 1.0 40
  154.0574 0.6 24
  155.0574 0.5 20
  161.0713 0.9 36
  163.0512 0.9 36
  163.0817 0.5 20
  164.0467 3.4 139
  165.0539 4.3 176
  166.0526 1.3 53
  166.0651 1.5 61
  167.0593 1.2 49
  177.0511 0.9 36
  178.056 1.2 49
  179.0585 1.1 45
  180.0526 1.0 40
  191.0584 0.9 36
  192.0604 1.0 40
  193.0717 1.8 73
  194.0665 1.6 65
  204.0536 0.6 24
  205.0691 0.5 20
  206.0701 1.3 53
  221.0831 2.1 85
//
