ACCESSION: MSBNK-BAFG-CSL2310305087
RECORD_TITLE: 5-Aminofluorescein; LC-ESI-QTOF; MS2; 40 V
DATE: 2023.10.30
AUTHORS: Kevin S. Jewell; Björn Ehlig; Arne Wick
LICENSE: dl-de/by-2-0
COPYRIGHT: Copyright 2023 Federal Institute of Hydrology, Koblenz, Germany
COMMENT: CONFIDENCE Reference Standard (Level 1)
COMMENT: Chromatography method: dx.doi.org/10.1016/j.chroma.2015.11.014
COMMENT: Acquisition method: 10.1002/rcm.8541
CH$NAME: 5-Aminofluorescein
CH$COMPOUND_CLASS: Pharmaceutical
CH$FORMULA: C20H13NO5
CH$EXACT_MASS: 347.0794
CH$SMILES: Nc1ccc2c(c1)C(=O)OC23c4ccc(O)cc4Oc5cc(O)ccc35
CH$IUPAC: InChI=1S/C20H13NO5/c21-10-1-4-14-13(7-10)19(24)26-20(14)15-5-2-11(22)8-17(15)25-18-9-12(23)3-6-16(18)20/h1-9,22-23H,21H2
CH$LINK: CAS 3326-34-9
CH$LINK: INCHIKEY GZAJOEGTZDUSKS-UHFFFAOYSA-N
AC$INSTRUMENT: TripleTOF 5600 SCIEX
AC$INSTRUMENT_TYPE: LC-ESI-QTOF
AC$MASS_SPECTROMETRY: MS_TYPE MS2
AC$MASS_SPECTROMETRY: ION_MODE POSITIVE
AC$MASS_SPECTROMETRY: COLLISION_ENERGY 40
AC$MASS_SPECTROMETRY: FRAGMENTATION_MODE CID
AC$MASS_SPECTROMETRY: IONIZATION ESI
AC$CHROMATOGRAPHY: COLUMN_NAME Zorbax Eclipse Plus C18 2.1 mm x 150 mm, 3.5 um, Agilent
AC$CHROMATOGRAPHY: COLUMN_TEMPERATURE 40 °C
AC$CHROMATOGRAPHY: FLOW_GRADIENT 0 min min 98% A, 1 min 98% A, 2 min 80% A, 16.5 min 2% A, 22 min 2% A, 22.1 min 98% A, 27 min 98% A
AC$CHROMATOGRAPHY: FLOW_RATE 0.3 mL/min
AC$CHROMATOGRAPHY: RETENTION_TIME 8.159 min
AC$CHROMATOGRAPHY: SOLVENT A: Water 0.1% Formic acid, B: Acetonitrile 0.1% Formic acid
MS$FOCUSED_ION: PRECURSOR_M/Z 348.0866
MS$FOCUSED_ION: PRECURSOR_TYPE [M+H]+
MS$DATA_PROCESSING: COMMENT Export with Spectra 1.9.12 MsBackendMassbank 1.7.4
MS$DATA_PROCESSING: WHOLE RMassBank 2.3.1
PK$SPLASH: splash10-0002-0029000000-e744fb4d8b793a3eb924
PK$NUM_PEAK: 18
PK$PEAK: m/z int. rel.int.
  202.0767 2.3 12
  229.0509 6.3 33
  231.0818 1.9 10
  246.0908 6.2 33
  258.0684 2.4 12
  259.0744 3 16
  262.0852 2.7 14
  273.0784 2.7 14
  274.0857 5.9 31
  276.1004 2.8 15
  286.0865 14.8 79
  287.0709 8.8 47
  301.0699 2.1 11
  302.0816 35.3 190
  304.0966 27.3 147
  320.0928 2.8 15
  330.0746 4.1 22
  348.0876 185.5 999
//
