ACCESSION: MSBNK-BAFG-CSL23102612863
RECORD_TITLE: Olmesartan-d6; LC-ESI-QTOF; MS2; 80 V
DATE: 2023.10.26
AUTHORS: Kevin S. Jewell; Björn Ehlig; Arne Wick
LICENSE: dl-de/by-2-0
COPYRIGHT: Copyright 2023 Federal Institute of Hydrology, Koblenz, Germany
COMMENT: CONFIDENCE Reference Standard (Level 1)
COMMENT: Chromatography method: dx.doi.org/10.1016/j.chroma.2015.11.014
COMMENT: Acquisition method: 10.1002/rcm.8541
CH$NAME: Olmesartan-d6
CH$COMPOUND_CLASS: Surrogate_standard
CH$FORMULA: C24H20N6O3 2H6
CH$EXACT_MASS: 452.2443
CH$SMILES: [2H]C([2H])([2H])C(C1=C(N(C(=N1)CCC)CC2=CC=C(C=C2)C3=CC=CC=C3C4=NNN=N4)C(=O)O)(C([2H])([2H])[2H])O
CH$IUPAC: InChI=1S/C24H26N6O3/c1-4-7-19-25-21(24(2,3)33)20(23(31)32)30(19)14-15-10-12-16(13-11-15)17-8-5-6-9-18(17)22-26-28-29-27-22/h5-6,8-13,33H,4,7,14H2,1-3H3,(H,31,32)(H,26,27,28,29)/i2D3,3D3
CH$LINK: CAS 1185144-74-4
CH$LINK: INCHIKEY VTRAEEWXHOVJFV-XERRXZQWSA-N
AC$INSTRUMENT: TripleTOF 5600 SCIEX
AC$INSTRUMENT_TYPE: LC-ESI-QTOF
AC$MASS_SPECTROMETRY: MS_TYPE MS2
AC$MASS_SPECTROMETRY: ION_MODE POSITIVE
AC$MASS_SPECTROMETRY: COLLISION_ENERGY 80
AC$MASS_SPECTROMETRY: FRAGMENTATION_MODE CID
AC$MASS_SPECTROMETRY: IONIZATION ESI
AC$CHROMATOGRAPHY: COLUMN_NAME Zorbax Eclipse Plus C18 2.1 mm x 150 mm, 3.5 um, Agilent
AC$CHROMATOGRAPHY: COLUMN_TEMPERATURE 40 °C
AC$CHROMATOGRAPHY: FLOW_GRADIENT 0 min min 98% A, 1 min 98% A, 2 min 80% A, 16.5 min 2% A, 22 min 2% A, 22.1 min 98% A, 27 min 98% A
AC$CHROMATOGRAPHY: FLOW_RATE 0.3 mL/min
AC$CHROMATOGRAPHY: RETENTION_TIME 7.306 min
AC$CHROMATOGRAPHY: SOLVENT A: Water 0.1% Formic acid, B: Acetonitrile 0.1% Formic acid
MS$FOCUSED_ION: PRECURSOR_M/Z 453.2527
MS$FOCUSED_ION: PRECURSOR_TYPE [M+H]+
MS$DATA_PROCESSING: COMMENT Export with Spectra 1.9.12 MsBackendMassbank 1.7.4
MS$DATA_PROCESSING: WHOLE RMassBank 2.3.1
PK$SPLASH: splash10-002f-0910000000-e73543660241e85250d4
PK$NUM_PEAK: 40
PK$PEAK: m/z int. rel.int.
  77.0425 4.6 26
  115.0546 4.6 26
  126.0462 2.1 12
  127.0551 6.9 39
  128.0616 4 23
  129.043 2.3 13
  138.0452 2.5 14
  139.0535 4.1 23
  140.0499 19.6 113
  150.0457 6.1 35
  151.0539 34.9 201
  152.0614 88.3 510
  153.07 51.8 299
  154.0728 8.4 48
  155.0688 1.8 10
  162.0458 2.4 13
  163.0538 33.6 194
  164.0589 27.5 159
  165.0671 30.3 175
  166.065 8.2 47
  167.0728 7.5 43
  168.0704 4.4 25
  176.061 12.6 72
  177.0671 23.4 135
  178.0757 117.4 679
  179.0736 39.8 230
  180.0805 64.9 375
  181.0851 13.5 78
  182.1326 8.7 50
  183.1396 10.1 58
  188.0486 3.4 19
  189.0566 10.5 60
  190.0644 172.7 999
  191.0716 74.9 433
  192.0692 53.6 310
  193.0748 7.9 45
  205.0753 86.8 502
  206.0829 44.8 259
  207.0906 24.2 139
  208.0971 6.1 35
//
