ACCESSION: MSBNK-BAFG-CSL23102614830
RECORD_TITLE: 2,2,4-Trimethyl-1,2-dihydroquinoline; LC-ESI-QTOF; MS2; 140 V
DATE: 2023.10.26
AUTHORS: Kevin S. Jewell; Björn Ehlig; Arne Wick
LICENSE: dl-de/by-2-0
COPYRIGHT: Copyright 2023 Federal Institute of Hydrology, Koblenz, Germany
COMMENT: CONFIDENCE Reference Standard (Level 1)
COMMENT: Chromatography method: dx.doi.org/10.1016/j.chroma.2015.11.014
COMMENT: Acquisition method: 10.1002/rcm.8541
CH$NAME: 2,2,4-Trimethyl-1,2-dihydroquinoline
CH$COMPOUND_CLASS: Industrial_process
CH$FORMULA: C12H15N
CH$EXACT_MASS: 173.1204
CH$SMILES: CC1=CC(NC2=CC=CC=C12)(C)C
CH$IUPAC: InChI=1S/C12H15N/c1-9-8-12(2,3)13-11-7-5-4-6-10(9)11/h4-8,13H,1-3H3
CH$LINK: CAS 147-47-7
CH$LINK: INCHIKEY ZNRLMGFXSPUZNR-UHFFFAOYSA-N
AC$INSTRUMENT: TripleTOF 6600 SCIEX
AC$INSTRUMENT_TYPE: LC-ESI-QTOF
AC$MASS_SPECTROMETRY: MS_TYPE MS2
AC$MASS_SPECTROMETRY: ION_MODE POSITIVE
AC$MASS_SPECTROMETRY: COLLISION_ENERGY 140
AC$MASS_SPECTROMETRY: FRAGMENTATION_MODE CID
AC$MASS_SPECTROMETRY: IONIZATION ESI
AC$CHROMATOGRAPHY: COLUMN_NAME Zorbax Eclipse Plus C18 2.1 mm x 150 mm, 3.5 um, Agilent
AC$CHROMATOGRAPHY: COLUMN_TEMPERATURE 40 °C
AC$CHROMATOGRAPHY: FLOW_GRADIENT 0 min min 98% A, 1 min 98% A, 2 min 80% A, 16.5 min 2% A, 22 min 2% A, 22.1 min 98% A, 27 min 98% A
AC$CHROMATOGRAPHY: FLOW_RATE 0.3 mL/min
AC$CHROMATOGRAPHY: RETENTION_TIME 12.497 min
AC$CHROMATOGRAPHY: SOLVENT A: Water 0.1% Formic acid, B: Acetonitrile 0.1% Formic acid
MS$FOCUSED_ION: PRECURSOR_M/Z 174.1277
MS$FOCUSED_ION: PRECURSOR_TYPE [M+H]+
MS$DATA_PROCESSING: COMMENT Export with Spectra 1.9.12 MsBackendMassbank 1.7.4
MS$DATA_PROCESSING: WHOLE RMassBank 2.3.1
PK$SPLASH: splash10-0w2i-9000000000-74240bb5bd0d990d05cb
PK$NUM_PEAK: 20
PK$PEAK: m/z int. rel.int.
  35.9988 5.2 89
  37.0069 31 532
  38.0042 1.7 29
  38.0145 17.9 307
  39.0225 20.6 353
  42.033 1.1 18
  49.0066 16.7 286
  50.0145 58.2 999
  51.022 15.1 259
  52.0172 1.2 20
  59.9984 1.9 32
  61.0065 17.8 305
  62.0144 20.7 355
  63.0221 10.7 183
  73.0061 4.5 77
  74.0139 13.5 231
  75.0224 1.3 22
  85.006 2.5 42
  86.0132 1.9 32
  89.0375 1.4 24
//
