ACCESSION: MSBNK-BAFG-CSL2310266635
RECORD_TITLE: Haloxyfop; LC-ESI-QTOF; MS2; 40 V
DATE: 2023.10.26
AUTHORS: Kevin S. Jewell; Björn Ehlig; Arne Wick
LICENSE: dl-de/by-2-0
COPYRIGHT: Copyright 2023 Federal Institute of Hydrology, Koblenz, Germany
COMMENT: CONFIDENCE Reference Standard (Level 1)
COMMENT: Chromatography method: dx.doi.org/10.1016/j.chroma.2015.11.014
COMMENT: Acquisition method: 10.1002/rcm.8541
CH$NAME: Haloxyfop
CH$COMPOUND_CLASS: Herbicide
CH$FORMULA: C15H11ClF3NO4
CH$EXACT_MASS: 361.0329
CH$SMILES: CC(C(=O)O)OC1=CC=C(C=C1)OC2=C(C=C(C=N2)C(F)(F)F)Cl
CH$IUPAC: InChI=1S/C15H11ClF3NO4/c1-8(14(21)22)23-10-2-4-11(5-3-10)24-13-12(16)6-9(7-20-13)15(17,18)19/h2-8H,1H3,(H,21,22)
CH$LINK: CAS 69806-34-4
CH$LINK: INCHIKEY GOCUAJYOYBLQRH-UHFFFAOYSA-N
AC$INSTRUMENT: TripleTOF 5600 SCIEX
AC$INSTRUMENT_TYPE: LC-ESI-QTOF
AC$MASS_SPECTROMETRY: MS_TYPE MS2
AC$MASS_SPECTROMETRY: ION_MODE POSITIVE
AC$MASS_SPECTROMETRY: COLLISION_ENERGY 40
AC$MASS_SPECTROMETRY: FRAGMENTATION_MODE CID
AC$MASS_SPECTROMETRY: IONIZATION ESI
AC$CHROMATOGRAPHY: COLUMN_NAME Zorbax Eclipse Plus C18 2.1 mm x 150 mm, 3.5 um, Agilent
AC$CHROMATOGRAPHY: COLUMN_TEMPERATURE 40 °C
AC$CHROMATOGRAPHY: FLOW_GRADIENT 0 min min 98% A, 1 min 98% A, 2 min 80% A, 16.5 min 2% A, 22 min 2% A, 22.1 min 98% A, 27 min 98% A
AC$CHROMATOGRAPHY: FLOW_RATE 0.3 mL/min
AC$CHROMATOGRAPHY: RETENTION_TIME 12.921 min
AC$CHROMATOGRAPHY: SOLVENT A: Water 0.1% Formic acid, B: Acetonitrile 0.1% Formic acid
MS$FOCUSED_ION: PRECURSOR_M/Z 362.0401
MS$FOCUSED_ION: PRECURSOR_TYPE [M+H]+
MS$DATA_PROCESSING: COMMENT Export with Spectra 1.9.12 MsBackendMassbank 1.7.4
MS$DATA_PROCESSING: WHOLE RMassBank 2.3.1
PK$SPLASH: splash10-007c-2091000000-5705f3bc4dc8f7713725
PK$NUM_PEAK: 26
PK$PEAK: m/z int. rel.int.
  65.0413 1 70
  91.0557 14.1 999
  119.0469 1.8 127
  121.0275 1.1 77
  197.9905 0.7 49
  209.0439 0.9 63
  216.0197 0.5 35
  219.0047 0.6 42
  220.0169 0.5 35
  226.0446 1.6 113
  232.0118 0.9 63
  237.0355 0.5 35
  247.0371 1 70
  248.0293 0.4 28
  252.0626 0.7 49
  254.0389 0.6 42
  260.042 1.4 99
  261.011 1.2 85
  270.027 0.8 56
  272.0076 13.2 935
  288.0007 11.2 793
  288.0385 8.3 588
  289.0106 4.8 340
  290.0207 1.6 113
  298.0252 0.7 49
  316.033 6.9 488
//
