ACCESSION: MSBNK-BAFG-CSL2310308122
RECORD_TITLE: Voriconazole-N-oxide; LC-ESI-QTOF; MS2; 30 V
DATE: 2023.10.30
AUTHORS: Kevin S. Jewell; Björn Ehlig; Arne Wick
LICENSE: dl-de/by-2-0
COPYRIGHT: Copyright 2023 Federal Institute of Hydrology, Koblenz, Germany
COMMENT: CONFIDENCE Reference Standard (Level 1)
COMMENT: Chromatography method: dx.doi.org/10.1016/j.chroma.2015.11.014
COMMENT: Acquisition method: 10.1002/rcm.8541
CH$NAME: Voriconazole-N-oxide
CH$COMPOUND_CLASS: Metabolite; Pharmaceutical
CH$FORMULA: C16H14F3N5O2
CH$EXACT_MASS: 365.11
CH$SMILES: CC(C1=NC=[N+](C=C1F)[O-])C(CN2C=NC=N2)(C3=C(C=C(C=C3)F)F)O
CH$IUPAC: InChI=1S/C16H14F3N5O2/c1-10(15-14(19)5-24(26)9-21-15)16(25,6-23-8-20-7-22-23)12-3-2-11(17)4-13(12)18/h2-5,7-10,25H,6H2,1H3
CH$LINK: CAS 618109-05-0
CH$LINK: INCHIKEY KPLFPLUCFPRUHU-UHFFFAOYSA-N
AC$INSTRUMENT: TripleTOF 5600 SCIEX
AC$INSTRUMENT_TYPE: LC-ESI-QTOF
AC$MASS_SPECTROMETRY: MS_TYPE MS2
AC$MASS_SPECTROMETRY: ION_MODE POSITIVE
AC$MASS_SPECTROMETRY: COLLISION_ENERGY 30
AC$MASS_SPECTROMETRY: FRAGMENTATION_MODE CID
AC$MASS_SPECTROMETRY: IONIZATION ESI
AC$CHROMATOGRAPHY: COLUMN_NAME Zorbax Eclipse Plus C18 2.1 mm x 150 mm, 3.5 um, Agilent
AC$CHROMATOGRAPHY: COLUMN_TEMPERATURE 40 °C
AC$CHROMATOGRAPHY: FLOW_GRADIENT 0 min min 98% A, 1 min 98% A, 2 min 80% A, 16.5 min 2% A, 22 min 2% A, 22.1 min 98% A, 27 min 98% A
AC$CHROMATOGRAPHY: FLOW_RATE 0.3 mL/min
AC$CHROMATOGRAPHY: RETENTION_TIME 7.739 min
AC$CHROMATOGRAPHY: SOLVENT A: Water 0.1% Formic acid, B: Acetonitrile 0.1% Formic acid
MS$FOCUSED_ION: PRECURSOR_M/Z 366.1172
MS$FOCUSED_ION: PRECURSOR_TYPE [M+H]+
MS$DATA_PROCESSING: COMMENT Export with Spectra 1.9.12 MsBackendMassbank 1.7.4
MS$DATA_PROCESSING: WHOLE RMassBank 2.3.1
PK$SPLASH: splash10-00di-1590000000-0237430ab2ba34803ddb
PK$NUM_PEAK: 11
PK$PEAK: m/z int. rel.int.
  82.0425 16.1 81
  95.0608 13 66
  96.0687 3.3 16
  123.0544 6.7 34
  125.0503 27.3 138
  126.0585 59.1 300
  127.0349 10.2 51
  143.0607 21.7 110
  155.0296 6.3 32
  224.0631 196.6 999
  279.0723 5.1 25
//
