ACCESSION: MSBNK-BAFG-CSL2310266060
RECORD_TITLE: Levamisole; LC-ESI-QTOF; MS2; 100 V
DATE: 2023.10.26
AUTHORS: Kevin S. Jewell; Björn Ehlig; Arne Wick
LICENSE: dl-de/by-2-0
COPYRIGHT: Copyright 2023 Federal Institute of Hydrology, Koblenz, Germany
COMMENT: CONFIDENCE Reference Standard (Level 1)
COMMENT: Chromatography method: dx.doi.org/10.1016/j.chroma.2015.11.014
COMMENT: Acquisition method: 10.1002/rcm.8541
CH$NAME: Levamisole
CH$COMPOUND_CLASS: Pharmaceutical
CH$FORMULA: C11H12N2S
CH$EXACT_MASS: 204.0721
CH$SMILES: c1ccc(cc1)[C@H]2CN3CCSC3=N2
CH$IUPAC: InChI=1S/C11H12N2S/c1-2-4-9(5-3-1)10-8-13-6-7-14-11(13)12-10/h1-5,10H,6-8H2/t10-/m1/s1
CH$LINK: CAS 16595-80-5
CH$LINK: INCHIKEY HLFSDGLLUJUHTE-SNVBAGLBSA-N
AC$INSTRUMENT: TripleTOF 5600 SCIEX
AC$INSTRUMENT_TYPE: LC-ESI-QTOF
AC$MASS_SPECTROMETRY: MS_TYPE MS2
AC$MASS_SPECTROMETRY: ION_MODE POSITIVE
AC$MASS_SPECTROMETRY: COLLISION_ENERGY 100
AC$MASS_SPECTROMETRY: FRAGMENTATION_MODE CID
AC$MASS_SPECTROMETRY: IONIZATION ESI
AC$CHROMATOGRAPHY: COLUMN_NAME Zorbax Eclipse Plus C18 2.1 mm x 150 mm, 3.5 um, Agilent
AC$CHROMATOGRAPHY: COLUMN_TEMPERATURE 40 °C
AC$CHROMATOGRAPHY: FLOW_GRADIENT 0 min min 98% A, 1 min 98% A, 2 min 80% A, 16.5 min 2% A, 22 min 2% A, 22.1 min 98% A, 27 min 98% A
AC$CHROMATOGRAPHY: FLOW_RATE 0.3 mL/min
AC$CHROMATOGRAPHY: RETENTION_TIME 5.021 min
AC$CHROMATOGRAPHY: SOLVENT A: Water 0.1% Formic acid, B: Acetonitrile 0.1% Formic acid
MS$FOCUSED_ION: PRECURSOR_M/Z 205.0794
MS$FOCUSED_ION: PRECURSOR_TYPE [M+H]+
MS$DATA_PROCESSING: COMMENT Export with Spectra 1.9.12 MsBackendMassbank 1.7.4
MS$DATA_PROCESSING: WHOLE RMassBank 2.3.1
PK$SPLASH: splash10-0fvi-9000000000-1d42a9b5697daf00bed5
PK$NUM_PEAK: 29
PK$PEAK: m/z int. rel.int.
  42.0442 0.4 11
  51.0298 30.2 845
  52.0369 1.2 33
  57.9924 0.5 13
  59.0009 1.6 44
  59.9955 6 167
  64.0361 0.7 19
  65.043 29.2 817
  71.9938 1.2 33
  73.0102 0.5 13
  74.0181 3.2 89
  75.0252 3.1 86
  76.0335 2.8 78
  77.042 35.7 999
  78.0491 5.3 148
  79.0568 0.4 11
  87.0245 0.4 11
  89.0406 11.9 333
  90.0481 1.7 47
  91.0556 15.1 422
  101.0392 0.8 22
  102.0473 3.3 92
  103.0544 4.8 134
  115.0549 2.3 64
  117.0664 0.5 13
  126.0466 1 27
  127.0538 1.2 33
  128.0621 1.3 36
  130.0648 1.3 36
//
