ACCESSION: MSBNK-BAFG-CSL2310256333
RECORD_TITLE: Oseltamivir; LC-ESI-QTOF; MS2; 50 V
DATE: 2023.10.25
AUTHORS: Kevin S. Jewell; Björn Ehlig; Arne Wick
LICENSE: dl-de/by-2-0
COPYRIGHT: Copyright 2023 Federal Institute of Hydrology, Koblenz, Germany
COMMENT: CONFIDENCE Reference Standard (Level 1)
COMMENT: Chromatography method: dx.doi.org/10.1016/j.chroma.2015.11.014
COMMENT: Acquisition method: 10.1002/rcm.8541
CH$NAME: Oseltamivir
CH$COMPOUND_CLASS: Pharmaceutical
CH$FORMULA: C16H28N2O4
CH$EXACT_MASS: 312.2049
CH$SMILES: CCC(CC)O[C@@H]1C=C(C[C@@H]([C@H]1/N=C(\C)/O)N)C(=O)OCC
CH$IUPAC: InChI=1S/C16H28N2O4/c1-5-12(6-2)22-14-9-11(16(20)21-7-3)8-13(17)15(14)18-10(4)19/h9,12-15H,5-8,17H2,1-4H3,(H,18,19)/t13-,14+,15+/m0/s1
CH$LINK: CAS 196618-13-0
CH$LINK: INCHIKEY VSZGPKBBMSAYNT-RRFJBIMHSA-N
AC$INSTRUMENT: TripleTOF 5600 SCIEX
AC$INSTRUMENT_TYPE: LC-ESI-QTOF
AC$MASS_SPECTROMETRY: MS_TYPE MS2
AC$MASS_SPECTROMETRY: ION_MODE POSITIVE
AC$MASS_SPECTROMETRY: COLLISION_ENERGY 50
AC$MASS_SPECTROMETRY: FRAGMENTATION_MODE CID
AC$MASS_SPECTROMETRY: IONIZATION ESI
AC$CHROMATOGRAPHY: COLUMN_NAME Zorbax Eclipse Plus C18 2.1 mm x 150 mm, 3.5 um, Agilent
AC$CHROMATOGRAPHY: COLUMN_TEMPERATURE 40 °C
AC$CHROMATOGRAPHY: FLOW_GRADIENT 0 min min 98% A, 1 min 98% A, 2 min 80% A, 16.5 min 2% A, 22 min 2% A, 22.1 min 98% A, 27 min 98% A
AC$CHROMATOGRAPHY: FLOW_RATE 0.3 mL/min
AC$CHROMATOGRAPHY: RETENTION_TIME 6.973 min
AC$CHROMATOGRAPHY: SOLVENT A: Water 0.1% Formic acid, B: Acetonitrile 0.1% Formic acid
MS$FOCUSED_ION: PRECURSOR_M/Z 313.2122
MS$FOCUSED_ION: PRECURSOR_TYPE [M+H]+
MS$DATA_PROCESSING: COMMENT Export with Spectra 1.9.12 MsBackendMassbank 1.7.4
MS$DATA_PROCESSING: WHOLE RMassBank 2.3.1
PK$SPLASH: splash10-00dl-6900000000-55b789994d31debd926b
PK$NUM_PEAK: 28
PK$PEAK: m/z int. rel.int.
  65.043 27.8 113
  67.0583 18.5 75
  68.0531 3.6 14
  77.0416 23.5 96
  80.0521 12.2 50
  82.0674 8.6 35
  83.0513 3.5 14
  92.0515 66 270
  93.0362 33.7 138
  93.0569 20.3 83
  94.067 111.5 457
  95.0497 5.4 22
  108.0443 4.1 16
  109.0765 31.3 128
  110.0601 10.3 42
  111.0436 5.1 20
  119.06 10.3 42
  120.0453 243.7 999
  121.0269 2.9 11
  133.0756 3.2 13
  134.0599 4.4 18
  136.0752 4.2 17
  137.0708 41.7 170
  138.0549 54 221
  138.0892 3.9 15
  161.0705 3.1 12
  162.0548 6.2 25
  166.0865 66.5 272
//
