ACCESSION: MSBNK-BAFG-CSL25010634266
RECORD_TITLE: 4-(Dimethylamino)azobenzene; LC-ESI-QTOF; MS2; 80 V
DATE: 2025.01.06
AUTHORS: Ole Lessmann; Kevin S. Jewell; Björn Ehlig; Arne Wick
LICENSE: dl-de/by-2-0
COPYRIGHT: Copyright 2025 Federal Institute of Hydrology, Koblenz, Germany
COMMENT: CONFIDENCE Reference Standard (Level 1)
COMMENT: Chromatography method: dx.doi.org/10.1016/j.chroma.2015.11.014
COMMENT: Acquisition method: 10.1002/rcm.8541
CH$NAME: 4-(Dimethylamino)azobenzene
CH$FORMULA: C14H15N3
CH$EXACT_MASS: 225.1266
CH$SMILES: CN(C)C1=CC=C(C=C1)N=NC2=CC=CC=C2
CH$IUPAC: InChI=1S/C14H15N3/c1-17(2)14-10-8-13(9-11-14)16-15-12-6-4-3-5-7-12/h3-11H,1-2H3
CH$LINK: CAS 60-11-7
CH$LINK: INCHIKEY JCYPECIVGRXBMO-UHFFFAOYSA-N
AC$INSTRUMENT: TripleTOF 6600 SCIEX
AC$INSTRUMENT_TYPE: LC-ESI-QTOF
AC$MASS_SPECTROMETRY: MS_TYPE MS2
AC$MASS_SPECTROMETRY: ION_MODE POSITIVE
AC$MASS_SPECTROMETRY: COLLISION_ENERGY 80
AC$MASS_SPECTROMETRY: FRAGMENTATION_MODE CID
AC$MASS_SPECTROMETRY: IONIZATION ESI
AC$CHROMATOGRAPHY: COLUMN_NAME Zorbax Eclipse Plus C18 2.1 mm x 150 mm, 3.5 um, Agilent
AC$CHROMATOGRAPHY: COLUMN_TEMPERATURE 40 °C
AC$CHROMATOGRAPHY: FLOW_GRADIENT 0 min min 98% A, 1 min 98% A, 2 min 80% A, 16.5 min 2% A, 22 min 2% A, 22.1 min 98% A, 27 min 98% A
AC$CHROMATOGRAPHY: FLOW_RATE 0.3 mL/min
AC$CHROMATOGRAPHY: RETENTION_TIME 15.513 min
AC$CHROMATOGRAPHY: SOLVENT A: Water 0.1% Formic acid, B: Acetonitrile 0.1% Formic acid
MS$FOCUSED_ION: PRECURSOR_M/Z 226.1339
MS$FOCUSED_ION: PRECURSOR_TYPE [M+H]+
MS$DATA_PROCESSING: COMMENT Export with pycsl 0.1.0.dev1 and CSL 24.4
PK$SPLASH: splash10-0ufr-9100000000-291e31f8da477e1be9b4
PK$NUM_PEAK: 37
PK$PEAK: m/z int. rel.int.
  37.0067 10.9 17
  38.0141 8.2 13
  39.0223 69.5 111
  42.0331 24.1 38
  49.0061 12.2 19
  50.0145 129.3 207
  51.0223 616.7 991
  52.017 10.1 16
  53.0373 6.6 10
  63.0215 32.3 51
  64.0288 20.2 32
  65.0375 190.9 306
  66.0327 28.1 45
  67.0402 29.4 47
  68.0483 21.9 35
  74.0136 8.1 13
  77.0376 621.6 999
  78.0329 69.8 112
  79.0524 35.5 57
  80.0479 20.2 32
  89.0368 7.1 11
  90.0322 22.6 36
  91.0419 77.0 123
  92.0478 68.3 109
  93.0439 19.4 31
  93.0545 20.9 33
  103.0518 12.5 20
  104.048 107.3 172
  105.0545 62.8 100
  106.063 20.0 32
  117.045 11.8 18
  118.0517 74.9 120
  119.0586 11.0 17
  120.079 53.4 85
  131.0582 10.8 17
  133.0753 13.6 21
  152.0589 7.1 11
//