ACCESSION: MSBNK-BAFG-CSL25010634157
RECORD_TITLE: 3,3-Diphenylacrylonitrile; LC-ESI-QTOF; MS2; 110 V
DATE: 2025.01.06
AUTHORS: Ole Lessmann; Kevin S. Jewell; Björn Ehlig; Arne Wick
LICENSE: dl-de/by-2-0
COPYRIGHT: Copyright 2025 Federal Institute of Hydrology, Koblenz, Germany
COMMENT: CONFIDENCE Reference Standard (Level 1)
COMMENT: Chromatography method: dx.doi.org/10.1016/j.chroma.2015.11.014
COMMENT: Acquisition method: 10.1002/rcm.8541
CH$NAME: 3,3-Diphenylacrylonitrile
CH$FORMULA: C15H11N
CH$EXACT_MASS: 205.0891
CH$SMILES: C1=CC=C(C=C1)C(=CC#N)C2=CC=CC=C2
CH$IUPAC: InChI=1S/C15H11N/c16-12-11-15(13-7-3-1-4-8-13)14-9-5-2-6-10-14/h1-11H
CH$LINK: CAS 3531-24-6
CH$LINK: INCHIKEY RDGWQFSLTSPRBG-UHFFFAOYSA-N
AC$INSTRUMENT: TripleTOF 6600 SCIEX
AC$INSTRUMENT_TYPE: LC-ESI-QTOF
AC$MASS_SPECTROMETRY: MS_TYPE MS2
AC$MASS_SPECTROMETRY: ION_MODE POSITIVE
AC$MASS_SPECTROMETRY: COLLISION_ENERGY 110
AC$MASS_SPECTROMETRY: FRAGMENTATION_MODE CID
AC$MASS_SPECTROMETRY: IONIZATION ESI
AC$CHROMATOGRAPHY: COLUMN_NAME Zorbax Eclipse Plus C18 2.1 mm x 150 mm, 3.5 um, Agilent
AC$CHROMATOGRAPHY: COLUMN_TEMPERATURE 40 °C
AC$CHROMATOGRAPHY: FLOW_GRADIENT 0 min min 98% A, 1 min 98% A, 2 min 80% A, 16.5 min 2% A, 22 min 2% A, 22.1 min 98% A, 27 min 98% A
AC$CHROMATOGRAPHY: FLOW_RATE 0.3 mL/min
AC$CHROMATOGRAPHY: RETENTION_TIME 13.746 min
AC$CHROMATOGRAPHY: SOLVENT A: Water 0.1% Formic acid, B: Acetonitrile 0.1% Formic acid
MS$FOCUSED_ION: PRECURSOR_M/Z 206.0964
MS$FOCUSED_ION: PRECURSOR_TYPE [M+H]+
MS$DATA_PROCESSING: COMMENT Export with pycsl 0.1.0.dev1 and CSL 24.4
PK$SPLASH: splash10-0uk9-9000000000-85cd59090755aa659342
PK$NUM_PEAK: 21
PK$PEAK: m/z int. rel.int.
  49.0056 1.6 142
  50.0141 9.8 874
  51.0217 11.2 999
  61.0057 0.9 80
  62.0145 0.5 44
  63.0231 1.4 124
  73.0066 1.7 151
  74.013 10.6 945
  75.0078 0.6 53
  75.0212 2.2 196
  76.0288 0.7 62
  77.0362 1.4 124
  86.0122 1.0 89
  87.0204 0.6 53
  98.0127 2.0 178
  99.0224 0.4 35
  122.0126 0.8 71
  125.0424 0.5 44
  150.0461 1.1 98
  174.0418 0.5 44
  175.0464 0.4 35
//