ACCESSION: MSBNK-BAFG-CSL23102516712
RECORD_TITLE: Chloridazon; LC-ESI-QTOF; MS2; 70 V
DATE: 2023.10.25
AUTHORS: Kevin S. Jewell; Björn Ehlig; Arne Wick
LICENSE: dl-de/by-2-0
COPYRIGHT: Copyright 2023 Federal Institute of Hydrology, Koblenz, Germany
COMMENT: CONFIDENCE Reference Standard (Level 1)
COMMENT: Chromatography method: dx.doi.org/10.1016/j.chroma.2015.11.014
COMMENT: Acquisition method: 10.1002/rcm.8541
CH$NAME: Chloridazon
CH$COMPOUND_CLASS: Herbicide
CH$FORMULA: C10H8ClN3O
CH$EXACT_MASS: 221.0356
CH$SMILES: C1=CC=C(C=C1)N2C(=O)C(=C(C=N2)N)Cl
CH$IUPAC: InChI=1S/C10H8ClN3O/c11-9-8(12)6-13-14(10(9)15)7-4-2-1-3-5-7/h1-6H,12H2
CH$LINK: CAS 1698-60-8
CH$LINK: INCHIKEY WYKYKTKDBLFHCY-UHFFFAOYSA-N
AC$INSTRUMENT: TripleTOF 6600 SCIEX
AC$INSTRUMENT_TYPE: LC-ESI-QTOF
AC$MASS_SPECTROMETRY: MS_TYPE MS2
AC$MASS_SPECTROMETRY: ION_MODE POSITIVE
AC$MASS_SPECTROMETRY: COLLISION_ENERGY 70
AC$MASS_SPECTROMETRY: FRAGMENTATION_MODE CID
AC$MASS_SPECTROMETRY: IONIZATION ESI
AC$CHROMATOGRAPHY: COLUMN_NAME Zorbax Eclipse Plus C18 2.1 mm x 150 mm, 3.5 um, Agilent
AC$CHROMATOGRAPHY: COLUMN_TEMPERATURE 40 °C
AC$CHROMATOGRAPHY: FLOW_GRADIENT 0 min min 98% A, 1 min 98% A, 2 min 80% A, 16.5 min 2% A, 22 min 2% A, 22.1 min 98% A, 27 min 98% A
AC$CHROMATOGRAPHY: FLOW_RATE 0.3 mL/min
AC$CHROMATOGRAPHY: RETENTION_TIME 6.924 min
AC$CHROMATOGRAPHY: SOLVENT A: Water 0.1% Formic acid, B: Acetonitrile 0.1% Formic acid
MS$FOCUSED_ION: PRECURSOR_M/Z 222.0429
MS$FOCUSED_ION: PRECURSOR_TYPE [M+H]+
MS$DATA_PROCESSING: COMMENT Export with Spectra 1.9.12 MsBackendMassbank 1.7.4
MS$DATA_PROCESSING: WHOLE RMassBank 2.3.1
PK$SPLASH: splash10-0v00-9000000000-4a19804151d5d5cf7877
PK$NUM_PEAK: 46
PK$PEAK: m/z int. rel.int.
  37.0073 1 23
  38.015 0.7 16
  39.0234 8.7 200
  46.9682 0.8 18
  48.9838 0.9 20
  49.0074 1.7 39
  50.0152 11 253
  51.0233 43.3 999
  52.0183 3.4 78
  53.0266 1.4 32
  54.0343 1.1 25
  55.0291 2.8 64
  62.0155 0.4 9
  63.0233 0.9 20
  63.9949 1.7 39
  65.0386 29.1 671
  66.0215 14.8 341
  66.0456 2.3 53
  68.012 0.6 13
  72.9835 0.8 18
  73.9792 3.6 83
  74.0154 0.6 13
  74.9872 1.3 29
  75.0231 0.6 13
  75.9944 1.3 29
  77.0388 41.6 959
  87.9944 8.3 191
  88.0307 0.7 16
  89.0382 1.1 25
  90.0463 0.5 11
  92.0496 3.3 76
  93.0577 4.7 108
  100.9898 3.1 71
  101.9758 0.5 11
  102.0475 0.9 20
  103.0544 1.2 27
  104.0492 2.1 48
  105.0444 1.1 25
  113.0382 0.7 16
  114.033 1.2 27
  114.0471 0.4 9
  116.998 1.3 29
  122.9998 1.6 36
  130.064 0.6 13
  131.0606 0.4 9
  146.0108 0.9 20
//
