ACCESSION: MSBNK-BAFG-CSL2310263073
RECORD_TITLE: Parathion; LC-ESI-QTOF; MS2; 30 V
DATE: 2023.10.26
AUTHORS: Kevin S. Jewell; Björn Ehlig; Arne Wick
LICENSE: dl-de/by-2-0
COPYRIGHT: Copyright 2023 Federal Institute of Hydrology, Koblenz, Germany
COMMENT: CONFIDENCE Reference Standard (Level 1)
COMMENT: Chromatography method: dx.doi.org/10.1016/j.chroma.2015.11.014
COMMENT: Acquisition method: 10.1002/rcm.8541
CH$NAME: Parathion
CH$COMPOUND_CLASS: Insecticide
CH$FORMULA: C10H14NO5PS
CH$EXACT_MASS: 291.033
CH$SMILES: CCOP(=S)(OCC)Oc1ccc(cc1)[N+](=O)[O-]
CH$IUPAC: InChI=1S/C10H14NO5PS/c1-3-14-17(18,15-4-2)16-10-7-5-9(6-8-10)11(12)13/h5-8H,3-4H2,1-2H3
CH$LINK: CAS 56-38-2
CH$LINK: INCHIKEY LCCNCVORNKJIRZ-UHFFFAOYSA-N
AC$INSTRUMENT: TripleTOF 5600 SCIEX
AC$INSTRUMENT_TYPE: LC-ESI-QTOF
AC$MASS_SPECTROMETRY: MS_TYPE MS2
AC$MASS_SPECTROMETRY: ION_MODE POSITIVE
AC$MASS_SPECTROMETRY: COLLISION_ENERGY 30
AC$MASS_SPECTROMETRY: FRAGMENTATION_MODE CID
AC$MASS_SPECTROMETRY: IONIZATION ESI
AC$CHROMATOGRAPHY: COLUMN_NAME Zorbax Eclipse Plus C18 2.1 mm x 150 mm, 3.5 um, Agilent
AC$CHROMATOGRAPHY: COLUMN_TEMPERATURE 40 °C
AC$CHROMATOGRAPHY: FLOW_GRADIENT 0 min min 98% A, 1 min 98% A, 2 min 80% A, 16.5 min 2% A, 22 min 2% A, 22.1 min 98% A, 27 min 98% A
AC$CHROMATOGRAPHY: FLOW_RATE 0.3 mL/min
AC$CHROMATOGRAPHY: RETENTION_TIME 14.107 min
AC$CHROMATOGRAPHY: SOLVENT A: Water 0.1% Formic acid, B: Acetonitrile 0.1% Formic acid
MS$FOCUSED_ION: PRECURSOR_M/Z 292.0403
MS$FOCUSED_ION: PRECURSOR_TYPE [M+H]+
MS$DATA_PROCESSING: COMMENT Export with Spectra 1.9.12 MsBackendMassbank 1.7.4
MS$DATA_PROCESSING: WHOLE RMassBank 2.3.1
PK$SPLASH: splash10-000i-1790000000-b0ddda88f0b6c1aa08f4
PK$NUM_PEAK: 17
PK$PEAK: m/z int. rel.int.
  93.0607 0.6 18
  94.0422 4.2 129
  96.9513 3.5 107
  109.0255 0.5 15
  110.0183 3.9 119
  123.0312 5 153
  125.0055 0.4 12
  139.0102 0.5 15
  140.0335 7.7 236
  156.0096 6.6 202
  171.9737 1.2 36
  187.9732 0.5 15
  189.984 7.1 218
  201.9874 1 30
  217.9667 6.9 212
  218.9713 2.1 64
  235.9777 32.5 999
//
