ACCESSION: MSBNK-BAFG-CSL2311109313
RECORD_TITLE: Mefenpyr-diethyl; LC-ESI-QTOF; MS2; 50 V
DATE: 2023.11.10
AUTHORS: Kevin S. Jewell; Björn Ehlig; Arne Wick
LICENSE: dl-de/by-2-0
COPYRIGHT: Copyright 2023 Federal Institute of Hydrology, Koblenz, Germany
COMMENT: CONFIDENCE Reference Standard (Level 1)
COMMENT: Chromatography method: dx.doi.org/10.1016/j.chroma.2015.11.014
COMMENT: Acquisition method: 10.1002/rcm.8541
CH$NAME: Mefenpyr-diethyl
CH$COMPOUND_CLASS: Herbicide
CH$FORMULA: C16H18Cl2N2O4
CH$EXACT_MASS: 372.0644
CH$SMILES: CCOC(=O)C1=NN(C(C1)(C)C(=O)OCC)C2=C(C=C(C=C2)Cl)Cl
CH$IUPAC: InChI=1S/C16H18Cl2N2O4/c1-4-23-14(21)12-9-16(3,15(22)24-5-2)20(19-12)13-7-6-10(17)8-11(13)18/h6-8H,4-5,9H2,1-3H3
CH$LINK: CAS 135590-91-9
CH$LINK: INCHIKEY OPGCOAPTHCZZIW-UHFFFAOYSA-N
AC$INSTRUMENT: TripleTOF 5600 SCIEX
AC$INSTRUMENT_TYPE: LC-ESI-QTOF
AC$MASS_SPECTROMETRY: MS_TYPE MS2
AC$MASS_SPECTROMETRY: ION_MODE POSITIVE
AC$MASS_SPECTROMETRY: COLLISION_ENERGY 50
AC$MASS_SPECTROMETRY: FRAGMENTATION_MODE CID
AC$MASS_SPECTROMETRY: IONIZATION ESI
AC$CHROMATOGRAPHY: COLUMN_NAME Zorbax Eclipse Plus C18 2.1 mm x 150 mm, 3.5 um, Agilent
AC$CHROMATOGRAPHY: COLUMN_TEMPERATURE 40 °C
AC$CHROMATOGRAPHY: FLOW_GRADIENT 0 min min 98% A, 1 min 98% A, 2 min 80% A, 16.5 min 2% A, 22 min 2% A, 22.1 min 98% A, 27 min 98% A
AC$CHROMATOGRAPHY: FLOW_RATE 0.3 mL/min
AC$CHROMATOGRAPHY: RETENTION_TIME 14.581 min
AC$CHROMATOGRAPHY: SOLVENT A: Water 0.1% Formic acid, B: Acetonitrile 0.1% Formic acid
MS$FOCUSED_ION: PRECURSOR_M/Z 373.0716
MS$FOCUSED_ION: PRECURSOR_TYPE [M+H]+
MS$DATA_PROCESSING: COMMENT Export with Spectra 1.9.12 MsBackendMassbank 1.7.4
MS$DATA_PROCESSING: WHOLE RMassBank 2.3.1
PK$SPLASH: splash10-0a4r-0920000000-c7b73f16ee90c9c201de
PK$NUM_PEAK: 30
PK$PEAK: m/z int. rel.int.
  99.002 4.9 14
  108.9855 14.3 41
  123.9969 7.1 20
  125.0047 4.9 14
  132.9618 146.1 427
  144.9619 146.6 429
  151.0185 3.8 11
  159.9723 341.3 999
  160.9805 18.5 54
  163.0201 6.2 18
  164.026 6.6 19
  165.0347 8.9 26
  172.9672 106.8 312
  173.9882 8.4 24
  183.9715 4.5 13
  184.9673 7.3 21
  185.9873 215.6 631
  189.0215 17.2 50
  190.0293 32.7 95
  191.0374 3.8 11
  192.0449 7 20
  197.9883 3.9 11
  218.0264 6 17
  224.9965 13.6 39
  226.0053 6.4 18
  227.0135 16 46
  243.0089 4.5 13
  252.9933 146.1 427
  298.9991 70.2 205
  327.0305 17.9 52
//
