ACCESSION: MSBNK-BAFG-CSL25010627870
RECORD_TITLE: Iminostilbene; LC-ESI-QTOF; MS2; 110 V
DATE: 2025.01.06
AUTHORS: Ole Lessmann; Kevin S. Jewell; Björn Ehlig; Arne Wick
LICENSE: dl-de/by-2-0
COPYRIGHT: Copyright 2025 Federal Institute of Hydrology, Koblenz, Germany
COMMENT: CONFIDENCE Reference Standard (Level 1)
COMMENT: Chromatography method: dx.doi.org/10.1016/j.chroma.2015.11.014
COMMENT: Acquisition method: 10.1002/rcm.8541
CH$NAME: Iminostilbene
CH$COMPOUND_CLASS: Pharmaceutical
CH$FORMULA: C14H11N
CH$EXACT_MASS: 193.0891
CH$SMILES: C1=CC=C2C(=C1)C=CC3=CC=CC=C3N2
CH$IUPAC: InChI=1S/C14H11N/c1-3-7-13-11(5-1)9-10-12-6-2-4-8-14(12)15-13/h1-10,15H
CH$LINK: CAS 256-96-2
CH$LINK: INCHIKEY LCGTWRLJTMHIQZ-UHFFFAOYSA-N
AC$INSTRUMENT: TripleTOF 6600 SCIEX
AC$INSTRUMENT_TYPE: LC-ESI-QTOF
AC$MASS_SPECTROMETRY: MS_TYPE MS2
AC$MASS_SPECTROMETRY: ION_MODE POSITIVE
AC$MASS_SPECTROMETRY: COLLISION_ENERGY 110
AC$MASS_SPECTROMETRY: FRAGMENTATION_MODE CID
AC$MASS_SPECTROMETRY: IONIZATION ESI
AC$CHROMATOGRAPHY: COLUMN_NAME Zorbax Eclipse Plus C18 2.1 mm x 150 mm, 3.5 um, Agilent
AC$CHROMATOGRAPHY: COLUMN_TEMPERATURE 40 °C
AC$CHROMATOGRAPHY: FLOW_GRADIENT 0 min min 98% A, 1 min 98% A, 2 min 80% A, 16.5 min 2% A, 22 min 2% A, 22.1 min 98% A, 27 min 98% A
AC$CHROMATOGRAPHY: FLOW_RATE 0.3 mL/min
AC$CHROMATOGRAPHY: RETENTION_TIME 13.175 min
AC$CHROMATOGRAPHY: SOLVENT A: Water 0.1% Formic acid, B: Acetonitrile 0.1% Formic acid
MS$FOCUSED_ION: PRECURSOR_M/Z 194.0964
MS$FOCUSED_ION: PRECURSOR_TYPE [M+H]+
MS$DATA_PROCESSING: COMMENT Export with pycsl 0.1.0.dev1 and CSL 24.4
PK$SPLASH: splash10-0ik9-9200000000-295f80719b3dc9137005
PK$NUM_PEAK: 68
PK$PEAK: m/z int. rel.int.
  35.9963 8.8 34
  37.0042 46.9 182
  38.0118 36.1 140
  39.0198 104.2 405
  49.003 30.2 117
  50.0109 171.5 667
  51.0187 164.3 639
  52.0132 4.0 15
  52.026 11.1 43
  59.9943 3.0 11
  61.0019 61.8 240
  62.0097 133.0 517
  63.0175 256.7 999
  64.0127 8.5 33
  64.0245 6.7 26
  65.0325 26.3 102
  73.0006 15.9 61
  74.0086 182.5 710
  75.016 103.9 404
  76.0117 7.6 29
  76.0236 29.8 115
  77.0313 32.7 127
  78.0392 4.1 15
  84.9994 29.1 113
  86.0072 81.1 315
  87.015 73.7 286
  88.0107 11.7 45
  88.0223 13.7 53
  89.0306 105.8 411
  96.9979 10.9 42
  98.0064 97.0 377
  99.0012 5.5 21
  99.0136 33.6 130
  100.0087 4.1 15
  100.0214 7.6 29
  101.0291 5.4 21
  102.0367 9.1 35
  108.9971 11.9 46
  110.0051 31.2 121
  111.0124 21.4 83
  112.0084 3.9 15
  113.0282 50.1 194
  114.0232 9.3 36
  114.0348 4.1 15
  115.044 18.3 71
  122.004 20.1 78
  122.9991 3.4 13
  123.0109 7.6 29
  124.019 4.2 16
  125.0266 6.4 24
  126.0347 14.1 54
  134.0034 3.4 13
  137.026 32.1 124
  138.022 3.9 15
  138.033 8.6 33
  139.0412 28.2 109
  140.0369 15.1 58
  149.0249 7.1 27
  150.0324 31.4 122
  151.0282 2.9 11
  161.0239 27.3 106
  162.0317 38.7 150
  163.0396 84.0 326
  164.0354 24.6 95
  175.0254 3.1 12
  188.0328 26.3 102
  189.04 16.5 64
  190.0471 8.4 32
//