ACCESSION: MSBNK-BAFG-CSL25011734585
RECORD_TITLE: Food Yellow 3 free acid; LC-ESI-QTOF; MS2; 50 V
DATE: 2025.01.17
AUTHORS: Ole Lessmann; Kevin S. Jewell; Björn Ehlig; Arne Wick
LICENSE: dl-de/by-2-0
COPYRIGHT: Copyright 2025 Federal Institute of Hydrology, Koblenz, Germany
COMMENT: CONFIDENCE Reference Standard (Level 1)
COMMENT: Chromatography method: dx.doi.org/10.1016/j.chroma.2015.11.014
CH$NAME: Food Yellow 3 free acid
CH$FORMULA: C16H12N2O7S2
CH$EXACT_MASS: 408.0086
CH$SMILES: C1=CC(=CC=C1N=NC2=C(C=CC3=C2C=CC(=C3)S(=O)(=O)O)O)S(=O)(=O)O
CH$IUPAC: InChI=1S/C16H12N2O7S2/c19-15-8-1-10-9-13(27(23,24)25)6-7-14(10)16(15)18-17-11-2-4-12(5-3-11)26(20,21)22/h1-9,19H,(H,20,21,22)(H,23,24,25)
CH$LINK: CAS 5859-11-0
CH$LINK: INCHIKEY KEYWXKLGZZGHMT-UHFFFAOYSA-N
AC$INSTRUMENT: TripleTOF 6600 SCIEX
AC$INSTRUMENT_TYPE: LC-ESI-QTOF
AC$MASS_SPECTROMETRY: MS_TYPE MS2
AC$MASS_SPECTROMETRY: ION_MODE POSITIVE
AC$MASS_SPECTROMETRY: COLLISION_ENERGY 50
AC$MASS_SPECTROMETRY: FRAGMENTATION_MODE CID
AC$MASS_SPECTROMETRY: IONIZATION ESI
AC$CHROMATOGRAPHY: COLUMN_NAME Zorbax Eclipse Plus C18 2.1 mm x 150 mm, 3.5 um, Agilent
AC$CHROMATOGRAPHY: COLUMN_TEMPERATURE 40 °C
AC$CHROMATOGRAPHY: FLOW_GRADIENT 0 min min 98% A, 1 min 98% A, 2 min 80% A, 16.5 min 2% A, 22 min 2% A, 22.1 min 98% A, 27 min 98% A
AC$CHROMATOGRAPHY: FLOW_RATE 0.3 mL/min
AC$CHROMATOGRAPHY: RETENTION_TIME 5.59 min
AC$CHROMATOGRAPHY: SOLVENT A: Water 0.1% Formic acid, B: Acetonitrile 0.1% Formic acid
MS$FOCUSED_ION: PRECURSOR_M/Z 409.0159
MS$FOCUSED_ION: PRECURSOR_TYPE [M+H]+
MS$DATA_PROCESSING: COMMENT Export with pycsl 0.1.0.dev1 and CSL 25.0
PK$SPLASH: splash10-0a4i-0952000000-fc8ede6ac782cae5508d
PK$NUM_PEAK: 29
PK$PEAK: m/z int. rel.int.
  80.0493 46.9 87
  89.0381 47.3 87
  92.0488 12.4 23
  108.0444 242.4 449
  109.0516 22.9 42
  116.0491 51.6 95
  126.0334 53.1 98
  127.0413 70.3 130
  128.0494 27.7 51
  144.0447 35.6 66
  154.0298 118.4 219
  156.0103 18.8 34
  156.046 8.9 16
  173.0144 373.9 693
  182.0348 14.3 26
  208.0073 538.4 999
  210.0215 9.0 16
  218.083 11.2 20
  230.0842 14.3 26
  236.0019 40.0 74
  246.0777 6.3 11
  247.0865 13.8 25
  299.048 24.6 45
  310.0425 23.9 44
  311.0487 73.7 136
  327.0429 26.9 49
  328.0516 6.4 11
  391.0057 61.3 113
  392.013 74.3 137
//
