ACCESSION: MSBNK-BAFG-CSL23111015117
RECORD_TITLE: Fluazifop; LC-ESI-QTOF; MS2; 40 V
DATE: 2023.11.10
AUTHORS: Kevin S. Jewell; Björn Ehlig; Arne Wick
LICENSE: dl-de/by-2-0
COPYRIGHT: Copyright 2023 Federal Institute of Hydrology, Koblenz, Germany
COMMENT: CONFIDENCE Reference Standard (Level 1)
COMMENT: Chromatography method: dx.doi.org/10.1016/j.chroma.2015.11.014
COMMENT: Acquisition method: 10.1002/rcm.8541
CH$NAME: Fluazifop
CH$COMPOUND_CLASS: Herbicide; Transformation_product
CH$FORMULA: C15H12F3NO4
CH$EXACT_MASS: 327.0718
CH$SMILES: CC(C(=O)O)Oc1ccc(cc1)Oc2ccc(cn2)C(F)(F)F
CH$IUPAC: InChI=1S/C15H12F3NO4/c1-9(14(20)21)22-11-3-5-12(6-4-11)23-13-7-2-10(8-19-13)15(16,17)18/h2-9H,1H3,(H,20,21)
CH$LINK: CAS 69335-91-7
CH$LINK: INCHIKEY YUVKUEAFAVKILW-UHFFFAOYSA-N
AC$INSTRUMENT: TripleTOF 6600 SCIEX
AC$INSTRUMENT_TYPE: LC-ESI-QTOF
AC$MASS_SPECTROMETRY: MS_TYPE MS2
AC$MASS_SPECTROMETRY: ION_MODE NEGATIVE
AC$MASS_SPECTROMETRY: COLLISION_ENERGY 40
AC$MASS_SPECTROMETRY: FRAGMENTATION_MODE CID
AC$MASS_SPECTROMETRY: IONIZATION ESI
AC$CHROMATOGRAPHY: COLUMN_NAME Zorbax Eclipse Plus C18 2.1 mm x 150 mm, 3.5 um, Agilent
AC$CHROMATOGRAPHY: COLUMN_TEMPERATURE 40 °C
AC$CHROMATOGRAPHY: FLOW_GRADIENT 0 min min 98% A, 1 min 98% A, 2 min 80% A, 16.5 min 2% A, 22 min 2% A, 22.1 min 98% A, 27 min 98% A
AC$CHROMATOGRAPHY: FLOW_RATE 0.3 mL/min
AC$CHROMATOGRAPHY: RETENTION_TIME 11.668 min
AC$CHROMATOGRAPHY: SOLVENT A: Water 0.1% Formic acid, B: Acetonitrile 0.1% Formic acid
MS$FOCUSED_ION: PRECURSOR_M/Z 326.0646
MS$FOCUSED_ION: PRECURSOR_TYPE [M-H]-
MS$DATA_PROCESSING: COMMENT Export with Spectra 1.9.12 MsBackendMassbank 1.7.4
MS$DATA_PROCESSING: WHOLE RMassBank 2.3.1
PK$SPLASH: splash10-0udi-0390000000-c758d04ac346a06ce44e
PK$NUM_PEAK: 28
PK$PEAK: m/z int. rel.int.
  71.0122 3.3 28
  108.0206 26.7 233
  138.0333 1.4 12
  150.0333 2.6 22
  158.0396 2.9 25
  160.0372 2.1 18
  162.016 7.4 64
  163.0357 1.2 10
  164.0314 1.5 13
  166.028 1.6 14
  170.0401 2.4 21
  178.0461 9.9 86
  184.0371 3.4 29
  186.0155 2.5 21
  186.0347 3.4 29
  190.046 5.2 45
  196.0363 1.3 11
  198.0524 12.1 106
  199.0231 8.7 76
  200.0317 2.8 24
  206.041 33.5 293
  210.0527 7.9 69
  212.0318 10.1 88
  225.0382 1.8 15
  226.0471 57.1 500
  234.0359 8.3 72
  253.0339 17.5 153
  254.0419 114 999
//
