ACCESSION: MSBNK-BAFG-CSL23103017729
RECORD_TITLE: Demeton-S-methylsulphon; LC-ESI-QTOF; MS2; 110 V
DATE: 2023.10.30
AUTHORS: Kevin S. Jewell; Björn Ehlig; Arne Wick
LICENSE: dl-de/by-2-0
COPYRIGHT: Copyright 2023 Federal Institute of Hydrology, Koblenz, Germany
COMMENT: CONFIDENCE Reference Standard (Level 1)
COMMENT: Chromatography method: dx.doi.org/10.1016/j.chroma.2015.11.014
COMMENT: Acquisition method: 10.1002/rcm.8541
CH$NAME: Demeton-S-methylsulphon
CH$COMPOUND_CLASS: Insecticide; Metabolite; Pesticide
CH$FORMULA: C6H15O5PS2
CH$EXACT_MASS: 262.0099
CH$SMILES: CCS(=O)(=O)CCSP(=O)(OC)OC
CH$IUPAC: InChI=1S/C6H15O5PS2/c1-4-14(8,9)6-5-13-12(7,10-2)11-3/h4-6H2,1-3H3
CH$LINK: CAS 17040-19-6
CH$LINK: INCHIKEY PZIRJMYRYORVIT-UHFFFAOYSA-N
AC$INSTRUMENT: TripleTOF 6600 SCIEX
AC$INSTRUMENT_TYPE: LC-ESI-QTOF
AC$MASS_SPECTROMETRY: MS_TYPE MS2
AC$MASS_SPECTROMETRY: ION_MODE POSITIVE
AC$MASS_SPECTROMETRY: COLLISION_ENERGY 110
AC$MASS_SPECTROMETRY: FRAGMENTATION_MODE CID
AC$MASS_SPECTROMETRY: IONIZATION ESI
AC$CHROMATOGRAPHY: COLUMN_NAME Zorbax Eclipse Plus C18 2.1 mm x 150 mm, 3.5 um, Agilent
AC$CHROMATOGRAPHY: COLUMN_TEMPERATURE 40 °C
AC$CHROMATOGRAPHY: FLOW_GRADIENT 0 min min 98% A, 1 min 98% A, 2 min 80% A, 16.5 min 2% A, 22 min 2% A, 22.1 min 98% A, 27 min 98% A
AC$CHROMATOGRAPHY: FLOW_RATE 0.3 mL/min
AC$CHROMATOGRAPHY: RETENTION_TIME 5.996 min
AC$CHROMATOGRAPHY: SOLVENT A: Water 0.1% Formic acid, B: Acetonitrile 0.1% Formic acid
MS$FOCUSED_ION: PRECURSOR_M/Z 263.0171
MS$FOCUSED_ION: PRECURSOR_TYPE [M+H]+
MS$DATA_PROCESSING: COMMENT Export with Spectra 1.9.12 MsBackendMassbank 1.7.4
MS$DATA_PROCESSING: WHOLE RMassBank 2.3.1
PK$SPLASH: splash10-0002-9000000000-64ac329adcbfdccfb0a0
PK$NUM_PEAK: 5
PK$PEAK: m/z int. rel.int.
  44.9781 1 293
  46.9674 3.4 999
  58.9932 0.4 117
  64.9686 0.7 205
  78.993 0.6 176
//
