ACCESSION: MSBNK-BAFG-CSL2310301766
RECORD_TITLE: Desmethylranitidine; LC-ESI-QTOF; MS2; 90 V
DATE: 2023.10.30
AUTHORS: Kevin S. Jewell; Björn Ehlig; Arne Wick
LICENSE: dl-de/by-2-0
COPYRIGHT: Copyright 2023 Federal Institute of Hydrology, Koblenz, Germany
COMMENT: CONFIDENCE Reference Standard (Level 1)
COMMENT: Chromatography method: dx.doi.org/10.1016/j.chroma.2015.11.014
COMMENT: Acquisition method: 10.1002/rcm.8541
CH$NAME: Desmethylranitidine
CH$COMPOUND_CLASS: Pharmaceutical; Transformation_product
CH$FORMULA: C12H20N4O3S
CH$EXACT_MASS: 300.1256
CH$SMILES: CNCC1=CC=C(O1)CSCCNC(=C[N+](=O)[O-])NC
CH$IUPAC: InChI=1S/C12H20N4O3S/c1-13-7-10-3-4-11(19-10)9-20-6-5-15-12(14-2)8-16(17)18/h3-4,8,13-15H,5-7,9H2,1-2H3
CH$LINK: CAS 66357-25-3
CH$LINK: INCHIKEY WZLBVRXZNDXPPW-UHFFFAOYSA-N
AC$INSTRUMENT: TripleTOF 5600 SCIEX
AC$INSTRUMENT_TYPE: LC-ESI-QTOF
AC$MASS_SPECTROMETRY: MS_TYPE MS2
AC$MASS_SPECTROMETRY: ION_MODE NEGATIVE
AC$MASS_SPECTROMETRY: COLLISION_ENERGY 90
AC$MASS_SPECTROMETRY: FRAGMENTATION_MODE CID
AC$MASS_SPECTROMETRY: IONIZATION ESI
AC$CHROMATOGRAPHY: COLUMN_NAME Zorbax Eclipse Plus C18 2.1 mm x 150 mm, 3.5 um, Agilent
AC$CHROMATOGRAPHY: COLUMN_TEMPERATURE 40 °C
AC$CHROMATOGRAPHY: FLOW_GRADIENT 0 min min 98% A, 1 min 98% A, 2 min 80% A, 16.5 min 2% A, 22 min 2% A, 22.1 min 98% A, 27 min 98% A
AC$CHROMATOGRAPHY: FLOW_RATE 0.3 mL/min
AC$CHROMATOGRAPHY: RETENTION_TIME 4.769 min
AC$CHROMATOGRAPHY: SOLVENT A: Water 0.1% Formic acid, B: Acetonitrile 0.1% Formic acid
MS$FOCUSED_ION: PRECURSOR_M/Z 299.1183
MS$FOCUSED_ION: PRECURSOR_TYPE [M-H]-
MS$DATA_PROCESSING: COMMENT Export with Spectra 1.9.12 MsBackendMassbank 1.7.4
MS$DATA_PROCESSING: WHOLE RMassBank 2.3.1
PK$SPLASH: splash10-03dj-9100000000-07c24568c7a0955e025a
PK$NUM_PEAK: 16
PK$PEAK: m/z int. rel.int.
  41.9974 0.1 49
  42.0025 0.2 99
  45.9936 2 999
  46.0052 0.2 99
  46.0104 0.1 49
  55.0285 0.4 199
  56.9848 0.3 149
  60.0085 1.7 849
  60.0235 0.3 149
  69.0093 0.3 149
  70.9972 0.2 99
  85.0039 0.3 149
  107.0418 0.2 99
  110.9877 0.5 249
  111.9964 0.3 149
  116.0454 0.3 149
//
