ACCESSION: MSBNK-BAFG-CSL23102510812
RECORD_TITLE: 1-(3,4-Dichlorophenyl)urea; LC-ESI-QTOF; MS2; 80 V
DATE: 2023.10.25
AUTHORS: Kevin S. Jewell; Björn Ehlig; Arne Wick
LICENSE: dl-de/by-2-0
COPYRIGHT: Copyright 2023 Federal Institute of Hydrology, Koblenz, Germany
COMMENT: CONFIDENCE Reference Standard (Level 1)
COMMENT: Chromatography method: dx.doi.org/10.1016/j.chroma.2015.11.014
COMMENT: Acquisition method: 10.1002/rcm.8541
CH$NAME: 1-(3,4-Dichlorophenyl)urea
CH$COMPOUND_CLASS: Herbicide; Transformation_product
CH$FORMULA: C7H6Cl2N2O
CH$EXACT_MASS: 203.9857
CH$SMILES: C1=CC(=C(C=C1NC(=O)N)Cl)Cl
CH$IUPAC: InChI=1S/C7H6Cl2N2O/c8-5-2-1-4(3-6(5)9)11-7(10)12/h1-3H,(H3,10,11,12)
CH$LINK: CAS 2327-02-8
CH$LINK: INCHIKEY CYESCLHCWJKRKM-UHFFFAOYSA-N
AC$INSTRUMENT: TripleTOF 5600 SCIEX
AC$INSTRUMENT_TYPE: LC-ESI-QTOF
AC$MASS_SPECTROMETRY: MS_TYPE MS2
AC$MASS_SPECTROMETRY: ION_MODE POSITIVE
AC$MASS_SPECTROMETRY: COLLISION_ENERGY 80
AC$MASS_SPECTROMETRY: FRAGMENTATION_MODE CID
AC$MASS_SPECTROMETRY: IONIZATION ESI
AC$CHROMATOGRAPHY: COLUMN_NAME Zorbax Eclipse Plus C18 2.1 mm x 150 mm, 3.5 um, Agilent
AC$CHROMATOGRAPHY: COLUMN_TEMPERATURE 40 °C
AC$CHROMATOGRAPHY: FLOW_GRADIENT 0 min min 98% A, 1 min 98% A, 2 min 80% A, 16.5 min 2% A, 22 min 2% A, 22.1 min 98% A, 27 min 98% A
AC$CHROMATOGRAPHY: FLOW_RATE 0.3 mL/min
AC$CHROMATOGRAPHY: RETENTION_TIME 8.797 min
AC$CHROMATOGRAPHY: SOLVENT A: Water 0.1% Formic acid, B: Acetonitrile 0.1% Formic acid
MS$FOCUSED_ION: PRECURSOR_M/Z 204.993
MS$FOCUSED_ION: PRECURSOR_TYPE [M+H]+
MS$DATA_PROCESSING: COMMENT Export with Spectra 1.9.12 MsBackendMassbank 1.7.4
MS$DATA_PROCESSING: WHOLE RMassBank 2.3.1
PK$SPLASH: splash10-01b9-9200000000-3a7a1da8fd7c0ab48210
PK$NUM_PEAK: 18
PK$PEAK: m/z int. rel.int.
  44.0232 0.6 48
  52.0273 0.4 32
  63.0297 2.1 169
  64.0384 1.1 88
  65.0456 12.4 999
  72.9887 1.7 136
  73.0113 0.8 64
  74.0209 4.8 386
  75.0277 0.9 72
  82.9488 0.7 56
  91.0475 1 80
  92.0516 3.8 306
  99.0029 1.1 88
  100.0101 2.4 193
  108.9859 0.8 64
  126.013 0.4 32
  127.0199 4.3 346
  132.9607 0.5 40
//
