ACCESSION: MSBNK-BAFG-CSL23102517880
RECORD_TITLE: Icaridin; LC-ESI-QTOF; MS2; 60 V
DATE: 2023.10.25
AUTHORS: Kevin S. Jewell; Björn Ehlig; Arne Wick
LICENSE: dl-de/by-2-0
COPYRIGHT: Copyright 2023 Federal Institute of Hydrology, Koblenz, Germany
COMMENT: CONFIDENCE Reference Standard (Level 1)
COMMENT: Chromatography method: dx.doi.org/10.1016/j.chroma.2015.11.014
COMMENT: Acquisition method: 10.1002/rcm.8541
CH$NAME: Icaridin
CH$COMPOUND_CLASS: Insecticide
CH$FORMULA: C12H23NO3
CH$EXACT_MASS: 229.1678
CH$SMILES: CCC(C)OC(=O)N1CCCCC1CCO
CH$IUPAC: InChI=1S/C12H23NO3/c1-3-10(2)16-12(15)13-8-5-4-6-11(13)7-9-14/h10-11,14H,3-9H2,1-2H3
CH$LINK: CAS 119515-38-7
CH$LINK: INCHIKEY QLHULAHOXSSASE-UHFFFAOYSA-N
AC$INSTRUMENT: TripleTOF 6600 SCIEX
AC$INSTRUMENT_TYPE: LC-ESI-QTOF
AC$MASS_SPECTROMETRY: MS_TYPE MS2
AC$MASS_SPECTROMETRY: ION_MODE POSITIVE
AC$MASS_SPECTROMETRY: COLLISION_ENERGY 60
AC$MASS_SPECTROMETRY: FRAGMENTATION_MODE CID
AC$MASS_SPECTROMETRY: IONIZATION ESI
AC$CHROMATOGRAPHY: COLUMN_NAME Zorbax Eclipse Plus C18 2.1 mm x 150 mm, 3.5 um, Agilent
AC$CHROMATOGRAPHY: COLUMN_TEMPERATURE 40 °C
AC$CHROMATOGRAPHY: FLOW_GRADIENT 0 min min 98% A, 1 min 98% A, 2 min 80% A, 16.5 min 2% A, 22 min 2% A, 22.1 min 98% A, 27 min 98% A
AC$CHROMATOGRAPHY: FLOW_RATE 0.3 mL/min
AC$CHROMATOGRAPHY: RETENTION_TIME 10.188 min
AC$CHROMATOGRAPHY: SOLVENT A: Water 0.1% Formic acid, B: Acetonitrile 0.1% Formic acid
MS$FOCUSED_ION: PRECURSOR_M/Z 230.1751
MS$FOCUSED_ION: PRECURSOR_TYPE [M+H]+
MS$DATA_PROCESSING: COMMENT Export with Spectra 1.9.12 MsBackendMassbank 1.7.4
MS$DATA_PROCESSING: WHOLE RMassBank 2.3.1
PK$SPLASH: splash10-0aor-9000000000-285cc7cc77fed0dcb5e3
PK$NUM_PEAK: 26
PK$PEAK: m/z int. rel.int.
  30.0327 0.9 68
  39.0217 3.8 287
  41.0376 4.5 340
  43.0533 1 75
  44.0486 1 75
  53.0369 1.2 90
  55.0531 10.7 809
  56.0481 5.5 416
  57.0321 0.6 45
  57.0674 0.5 37
  65.0367 2.3 174
  67.0526 13.2 999
  68.048 0.5 37
  69.0689 0.5 37
  70.0636 2.2 166
  71.0471 1 75
  77.0367 2.5 189
  79.0521 0.9 68
  80.0607 0.5 37
  82.0629 0.6 45
  84.079 6.3 476
  91.0518 1.3 98
  93.0679 1.1 83
  95.0833 1.7 128
  112.1109 0.6 45
  128.0671 0.4 30
//
