ACCESSION: MSBNK-BAFG-CSL25010627960
RECORD_TITLE: 4-[(4-Aminophenyl)(4-iminocyclohexa-2,5-dien-1-ylidene)methyl]-2-methylaniline; LC-ESI-QTOF; MS2; 80 V
DATE: 2025.01.06
AUTHORS: Ole Lessmann; Kevin S. Jewell; Björn Ehlig; Arne Wick
LICENSE: dl-de/by-2-0
COPYRIGHT: Copyright 2025 Federal Institute of Hydrology, Koblenz, Germany
COMMENT: CONFIDENCE Reference Standard (Level 1)
COMMENT: Chromatography method: dx.doi.org/10.1016/j.chroma.2015.11.014
COMMENT: Acquisition method: 10.1002/rcm.8541
CH$NAME: 4-[(4-Aminophenyl)(4-iminocyclohexa-2,5-dien-1-ylidene)methyl]-2-methylaniline
CH$FORMULA: C20H19N3
CH$EXACT_MASS: 301.1579
CH$SMILES: CC1=CC(=C(C2=CC=C(C=C2)N)C3=CC=C(C=C3)N)C=CC1=N
CH$IUPAC: InChI=1S/C20H19N3/c1-13-12-16(6-11-19(13)23)20(14-2-7-17(21)8-3-14)15-4-9-18(22)10-5-15/h2-12,23H,21-22H2,1H3
CH$LINK: CAS 3248-93-9
CH$LINK: INCHIKEY YDCMWLQSPFTWCS-UHFFFAOYSA-N
AC$INSTRUMENT: TripleTOF X500R SCIEX
AC$INSTRUMENT_TYPE: LC-ESI-QTOF
AC$MASS_SPECTROMETRY: MS_TYPE MS2
AC$MASS_SPECTROMETRY: ION_MODE POSITIVE
AC$MASS_SPECTROMETRY: COLLISION_ENERGY 80
AC$MASS_SPECTROMETRY: FRAGMENTATION_MODE CID
AC$MASS_SPECTROMETRY: IONIZATION ESI
AC$CHROMATOGRAPHY: COLUMN_NAME Zorbax Eclipse Plus C18 2.1 mm x 150 mm, 3.5 um, Agilent
AC$CHROMATOGRAPHY: COLUMN_TEMPERATURE 40 °C
AC$CHROMATOGRAPHY: FLOW_GRADIENT 0 min min 98% A, 1 min 98% A, 2 min 80% A, 16.5 min 2% A, 22 min 2% A, 22.1 min 98% A, 27 min 98% A
AC$CHROMATOGRAPHY: FLOW_RATE 0.3 mL/min
AC$CHROMATOGRAPHY: RETENTION_TIME 7.598 min
AC$CHROMATOGRAPHY: SOLVENT A: Water 0.1% Formic acid, B: Acetonitrile 0.1% Formic acid
MS$FOCUSED_ION: PRECURSOR_M/Z 302.1652
MS$FOCUSED_ION: PRECURSOR_TYPE [M+H]+
MS$DATA_PROCESSING: COMMENT Export with pycsl 0.1.0.dev1 and CSL 24.4
PK$SPLASH: splash10-014i-0980000000-6c41663cf6244ef93579
PK$NUM_PEAK: 125
PK$PEAK: m/z int. rel.int.
  42.0346 0.5 18
  77.0393 3.1 113
  79.0541 1.6 58
  89.0385 0.7 25
  91.0545 0.6 22
  93.058 0.9 33
  101.0394 0.7 25
  103.055 0.9 33
  106.0659 2.2 80
  113.0397 1.0 36
  114.0463 0.9 33
  115.0549 10.6 389
  116.0487 0.5 18
  116.0634 1.8 66
  117.058 1.9 69
  118.0645 0.6 22
  125.0383 1.9 69
  126.0467 2.0 73
  127.0551 5.3 194
  128.0621 3.2 117
  130.0654 2.3 84
  139.0549 10.3 378
  140.055 9.6 352
  141.0685 4.4 161
  142.0657 1.3 47
  143.0734 3.5 128
  149.0405 2.0 73
  150.0476 12.1 444
  151.0545 20.5 752
  152.0616 11.0 404
  153.0681 6.8 249
  154.0651 3.2 117
  155.0648 1.2 44
  156.0814 0.7 25
  163.0548 5.9 216
  164.0624 8.7 319
  165.0702 22.4 822
  166.0651 14.9 547
  167.0734 27.2 999
  168.0785 4.9 179
  169.0761 1.2 44
  174.0448 0.5 18
  175.0503 1.6 58
  176.0561 6.1 224
  177.0578 9.0 330
  178.066 8.0 293
  179.0671 3.3 121
  180.0814 23.0 844
  181.0878 5.2 190
  182.0886 1.0 36
  187.0535 1.3 47
  188.0615 1.4 51
  189.0696 8.6 315
  190.0662 9.2 337
  191.0731 9.5 348
  192.0731 9.9 363
  193.0799 13.4 492
  194.0848 3.6 132
  194.1075 0.4 14
  195.0914 4.0 146
  199.0542 0.7 25
  200.0619 3.9 143
  201.0691 4.7 172
  202.0776 9.3 341
  203.0768 3.3 121
  204.0814 5.2 190
  205.0774 1.9 69
  206.0869 1.2 44
  207.093 4.3 157
  208.0997 4.2 154
  209.1085 0.6 22
  213.07 5.8 213
  214.0686 4.8 176
  215.0843 7.9 290
  216.0814 4.1 150
  217.0902 7.5 275
  218.0945 2.2 80
  219.0922 4.4 161
  224.0644 3.1 113
  225.0689 5.8 213
  226.0771 13.7 503
  227.0745 8.2 301
  228.0825 8.5 312
  229.0879 3.2 117
  230.0977 8.4 308
  231.0961 2.2 80
  232.1011 2.1 77
  233.1052 0.6 22
  237.0721 2.9 106
  238.0685 3.6 132
  239.0863 8.6 315
  240.0828 11.0 404
  241.0884 13.6 499
  242.0931 6.7 246
  243.0982 5.6 205
  244.1024 2.9 106
  245.1068 4.6 168
  246.1066 0.4 14
  248.0618 0.7 25
  249.0637 1.0 36
  250.0757 5.4 198
  251.0743 10.0 367
  252.0826 10.4 381
  253.0877 8.9 326
  254.0971 12.0 440
  255.0928 5.7 209
  256.1013 2.8 102
  257.1041 2.8 102
  258.1125 3.0 110
  259.1211 1.5 55
  264.0822 2.0 73
  265.0858 2.1 77
  266.0918 5.7 209
  267.0987 6.5 238
  268.1008 7.7 282
  269.1082 13.8 506
  270.1035 4.4 161
  271.1228 2.6 95
  271.1632 0.4 14
  281.1076 1.6 58
  282.1152 1.6 58
  283.1201 2.4 88
  284.1172 2.1 77
  285.1348 1.1 40
  286.1338 1.8 66
//