ACCESSION: MSBNK-BAFG-CSL2310308052
RECORD_TITLE: Iobitridol; LC-ESI-QTOF; MS2; 40 V
DATE: 2023.10.30
AUTHORS: Kevin S. Jewell; Björn Ehlig; Arne Wick
LICENSE: dl-de/by-2-0
COPYRIGHT: Copyright 2023 Federal Institute of Hydrology, Koblenz, Germany
COMMENT: CONFIDENCE Reference Standard (Level 1)
COMMENT: Chromatography method: dx.doi.org/10.1016/j.chroma.2015.11.014
COMMENT: Acquisition method: 10.1002/rcm.8541
CH$NAME: Iobitridol
CH$COMPOUND_CLASS: Pharmaceutical
CH$FORMULA: C20H28I3N3O9
CH$EXACT_MASS: 834.896
CH$SMILES: CN(CC(O)CO)C(=O)c1c(I)c(NC(=O)C(CO)CO)c(I)c(c1I)C(=O)N(C)CC(O)CO
CH$IUPAC: InChI=1S/C20H28I3N3O9/c1-25(3-10(31)7-29)19(34)12-14(21)13(20(35)26(2)4-11(32)8-30)16(23)17(15(12)22)24-18(33)9(5-27)6-28/h9-11,27-32H,3-8H2,1-2H3,(H,24,33)
CH$LINK: CAS 136949-58-1
CH$LINK: INCHIKEY YLPBXIKWXNRACS-UHFFFAOYSA-N
AC$INSTRUMENT: TripleTOF 5600 SCIEX
AC$INSTRUMENT_TYPE: LC-ESI-QTOF
AC$MASS_SPECTROMETRY: MS_TYPE MS2
AC$MASS_SPECTROMETRY: ION_MODE POSITIVE
AC$MASS_SPECTROMETRY: COLLISION_ENERGY 40
AC$MASS_SPECTROMETRY: FRAGMENTATION_MODE CID
AC$MASS_SPECTROMETRY: IONIZATION ESI
AC$CHROMATOGRAPHY: COLUMN_NAME Zorbax Eclipse Plus C18 2.1 mm x 150 mm, 3.5 um, Agilent
AC$CHROMATOGRAPHY: COLUMN_TEMPERATURE 40 °C
AC$CHROMATOGRAPHY: FLOW_GRADIENT 0 min min 98% A, 1 min 98% A, 2 min 80% A, 16.5 min 2% A, 22 min 2% A, 22.1 min 98% A, 27 min 98% A
AC$CHROMATOGRAPHY: FLOW_RATE 0.3 mL/min
AC$CHROMATOGRAPHY: RETENTION_TIME 4.58 min
AC$CHROMATOGRAPHY: SOLVENT A: Water 0.1% Formic acid, B: Acetonitrile 0.1% Formic acid
MS$FOCUSED_ION: PRECURSOR_M/Z 835.9032
MS$FOCUSED_ION: PRECURSOR_TYPE [M+H]+
MS$DATA_PROCESSING: COMMENT Export with Spectra 1.9.12 MsBackendMassbank 1.7.4
MS$DATA_PROCESSING: WHOLE RMassBank 2.3.1
PK$SPLASH: splash10-0udi-0000119220-781c5046f897910195e7
PK$NUM_PEAK: 26
PK$PEAK: m/z int. rel.int.
  400.9999 1.1 30
  417.0006 0.4 11
  449.0191 0.8 22
  474.9973 6.3 176
  477.0201 0.6 16
  500.8898 0.5 14
  554.8923 0.6 16
  554.9175 0.4 11
  557.9067 0.4 11
  575.9228 4.8 134
  584.8902 0.8 22
  584.9112 0.9 25
  602.9091 35.6 999
  602.9588 0.7 19
  625.7344 1.1 30
  625.7631 0.6 16
  628.7913 6 168
  671.9711 1 28
  689.9707 4.4 123
  712.8221 0.6 16
  715.8447 1.5 42
  715.8676 1.2 33
  730.8281 3.1 86
  733.8648 5.1 143
  817.8905 8.3 232
  835.9013 6.4 179
//
