ACCESSION: MSBNK-BAFG-CSL23110913582
RECORD_TITLE: 5-Hydroxy-Octocrylen; LC-ESI-QTOF; MS2; 10 V
DATE: 2023.11.09
AUTHORS: Kevin S. Jewell; Björn Ehlig; Arne Wick
LICENSE: dl-de/by-2-0
COPYRIGHT: Copyright 2023 Federal Institute of Hydrology, Koblenz, Germany
COMMENT: CONFIDENCE Reference Standard (Level 1)
COMMENT: Chromatography method: dx.doi.org/10.1016/j.chroma.2015.11.014
COMMENT: Acquisition method: 10.1002/rcm.8541
CH$NAME: 5-Hydroxy-Octocrylen
CH$FORMULA: C24H27NO3
CH$EXACT_MASS: 377.1991
CH$SMILES: CC(O)CCC(CC)COC(=O)C(\C#N)=C(\c1ccccc1)c2ccccc2
CH$IUPAC: InChI=1S/C24H27NO3/c1-3-19(15-14-18(2)26)17-28-24(27)22(16-25)23(20-10-6-4-7-11-20)21-12-8-5-9-13-21/h4-13,18-19,26H,3,14-15,17H2,1-2H3
CH$LINK: CAS NA
CH$LINK: INCHIKEY QOJGFAVCVCFMKL-UHFFFAOYSA-N
AC$INSTRUMENT: TripleTOF 5600 SCIEX
AC$INSTRUMENT_TYPE: LC-ESI-QTOF
AC$MASS_SPECTROMETRY: MS_TYPE MS2
AC$MASS_SPECTROMETRY: ION_MODE POSITIVE
AC$MASS_SPECTROMETRY: COLLISION_ENERGY 10
AC$MASS_SPECTROMETRY: FRAGMENTATION_MODE CID
AC$MASS_SPECTROMETRY: IONIZATION ESI
AC$CHROMATOGRAPHY: COLUMN_NAME Zorbax Eclipse Plus C18 2.1 mm x 150 mm, 3.5 um, Agilent
AC$CHROMATOGRAPHY: COLUMN_TEMPERATURE 40 °C
AC$CHROMATOGRAPHY: FLOW_GRADIENT 0 min min 98% A, 1 min 98% A, 2 min 80% A, 16.5 min 2% A, 22 min 2% A, 22.1 min 98% A, 27 min 98% A
AC$CHROMATOGRAPHY: FLOW_RATE 0.3 mL/min
AC$CHROMATOGRAPHY: RETENTION_TIME 13.815 min
AC$CHROMATOGRAPHY: SOLVENT A: Water 0.1% Formic acid, B: Acetonitrile 0.1% Formic acid
MS$FOCUSED_ION: PRECURSOR_M/Z 378.2064
MS$FOCUSED_ION: PRECURSOR_TYPE [M+H]+
MS$DATA_PROCESSING: COMMENT Export with Spectra 1.9.12 MsBackendMassbank 1.7.4
MS$DATA_PROCESSING: WHOLE RMassBank 2.3.1
PK$SPLASH: splash10-001i-0090000000-b488070fa436cbf62994
PK$NUM_PEAK: 3
PK$PEAK: m/z int. rel.int.
  111.1147 0.8 83
  232.0765 9.6 999
  250.085 2.7 280
//
