ACCESSION: MSBNK-BAFG-CSL25010634393
RECORD_TITLE: 4,4`-Methylenebis(2-chloroaniline); LC-ESI-QTOF; MS2; 40 V
DATE: 2025.01.06
AUTHORS: Ole Lessmann; Kevin S. Jewell; Björn Ehlig; Arne Wick
LICENSE: dl-de/by-2-0
COPYRIGHT: Copyright 2025 Federal Institute of Hydrology, Koblenz, Germany
COMMENT: CONFIDENCE Reference Standard (Level 1)
COMMENT: Chromatography method: dx.doi.org/10.1016/j.chroma.2015.11.014
COMMENT: Acquisition method: 10.1002/rcm.8541
CH$NAME: 4,4`-Methylenebis(2-chloroaniline)
CH$FORMULA: C13H12Cl2N2
CH$EXACT_MASS: 266.0378
CH$SMILES: C1=CC(=C(C=C1CC2=CC(=C(C=C2)N)Cl)Cl)N
CH$IUPAC: InChI=1S/C13H12Cl2N2/c14-10-6-8(1-3-12(10)16)5-9-2-4-13(17)11(15)7-9/h1-4,6-7H,5,16-17H2
CH$LINK: CAS 101-14-4
CH$LINK: INCHIKEY IBOFVQJTBBUKMU-UHFFFAOYSA-N
AC$INSTRUMENT: TripleTOF 6600 SCIEX
AC$INSTRUMENT_TYPE: LC-ESI-QTOF
AC$MASS_SPECTROMETRY: MS_TYPE MS2
AC$MASS_SPECTROMETRY: ION_MODE POSITIVE
AC$MASS_SPECTROMETRY: COLLISION_ENERGY 40
AC$MASS_SPECTROMETRY: FRAGMENTATION_MODE CID
AC$MASS_SPECTROMETRY: IONIZATION ESI
AC$CHROMATOGRAPHY: COLUMN_NAME Zorbax Eclipse Plus C18 2.1 mm x 150 mm, 3.5 um, Agilent
AC$CHROMATOGRAPHY: COLUMN_TEMPERATURE 40 °C
AC$CHROMATOGRAPHY: FLOW_GRADIENT 0 min min 98% A, 1 min 98% A, 2 min 80% A, 16.5 min 2% A, 22 min 2% A, 22.1 min 98% A, 27 min 98% A
AC$CHROMATOGRAPHY: FLOW_RATE 0.3 mL/min
AC$CHROMATOGRAPHY: RETENTION_TIME 11.747 min
AC$CHROMATOGRAPHY: SOLVENT A: Water 0.1% Formic acid, B: Acetonitrile 0.1% Formic acid
MS$FOCUSED_ION: PRECURSOR_M/Z 267.045
MS$FOCUSED_ION: PRECURSOR_TYPE [M+H]+
MS$DATA_PROCESSING: COMMENT Export with pycsl 0.1.0.dev1 and CSL 24.4
PK$SPLASH: splash10-00l5-0920000000-bc4c3caf66927b6ca9a1
PK$NUM_PEAK: 32
PK$PEAK: m/z int. rel.int.
  77.0384 12.4 77
  104.0488 62.3 391
  105.056 2.2 13
  115.0535 2.7 16
  140.0259 129.4 813
  141.0694 6.8 42
  143.0746 2.4 15
  151.0548 21.4 134
  152.0602 8.8 55
  153.0204 2.1 13
  153.0591 3.0 18
  154.0648 4.5 28
  164.0272 3.2 20
  166.0628 2.0 12
  167.0729 25.3 158
  168.08 52.1 327
  169.0885 5.4 33
  177.0566 3.6 22
  178.0654 21.5 135
  179.0693 18.5 116
  180.0805 39.8 250
  181.0776 1.8 11
  190.0428 1.9 11
  193.0776 4.8 30
  194.0853 11.9 74
  195.0916 159.0 999
  196.0992 39.0 245
  214.0414 23.4 147
  216.0447 3.6 22
  229.0522 1.7 10
  231.0683 91.8 576
  267.0457 69.5 436
//