ACCESSION: MSBNK-BAFG-CSL2310255002
RECORD_TITLE: Oxfendazole; LC-ESI-QTOF; MS2; 90 V
DATE: 2023.10.25
AUTHORS: Kevin S. Jewell; Björn Ehlig; Arne Wick
LICENSE: dl-de/by-2-0
COPYRIGHT: Copyright 2023 Federal Institute of Hydrology, Koblenz, Germany
COMMENT: CONFIDENCE Reference Standard (Level 1)
COMMENT: Chromatography method: dx.doi.org/10.1016/j.chroma.2015.11.014
COMMENT: Acquisition method: 10.1002/rcm.8541
CH$NAME: Oxfendazole
CH$COMPOUND_CLASS: Pharmaceutical
CH$FORMULA: C15H13N3O3S
CH$EXACT_MASS: 315.0678
CH$SMILES: COC(=O)Nc1[nH]c2cc(ccc2n1)[S](=O)c3ccccc3
CH$IUPAC: InChI=1S/C15H13N3O3S/c1-21-15(19)18-14-16-12-8-7-11(9-13(12)17-14)22(20)10-5-3-2-4-6-10/h2-9H,1H3,(H2,16,17,18,19)
CH$LINK: CAS 53716-50-0
CH$LINK: INCHIKEY BEZZFPOZAYTVHN-UHFFFAOYSA-N
AC$INSTRUMENT: TripleTOF 5600 SCIEX
AC$INSTRUMENT_TYPE: LC-ESI-QTOF
AC$MASS_SPECTROMETRY: MS_TYPE MS2
AC$MASS_SPECTROMETRY: ION_MODE POSITIVE
AC$MASS_SPECTROMETRY: COLLISION_ENERGY 90
AC$MASS_SPECTROMETRY: FRAGMENTATION_MODE CID
AC$MASS_SPECTROMETRY: IONIZATION ESI
AC$CHROMATOGRAPHY: COLUMN_NAME Zorbax Eclipse Plus C18 2.1 mm x 150 mm, 3.5 um, Agilent
AC$CHROMATOGRAPHY: COLUMN_TEMPERATURE 40 °C
AC$CHROMATOGRAPHY: FLOW_GRADIENT 0 min min 98% A, 1 min 98% A, 2 min 80% A, 16.5 min 2% A, 22 min 2% A, 22.1 min 98% A, 27 min 98% A
AC$CHROMATOGRAPHY: FLOW_RATE 0.3 mL/min
AC$CHROMATOGRAPHY: RETENTION_TIME 6.579 min
AC$CHROMATOGRAPHY: SOLVENT A: Water 0.1% Formic acid, B: Acetonitrile 0.1% Formic acid
MS$FOCUSED_ION: PRECURSOR_M/Z 316.075
MS$FOCUSED_ION: PRECURSOR_TYPE [M+H]+
MS$DATA_PROCESSING: COMMENT Export with Spectra 1.9.12 MsBackendMassbank 1.7.4
MS$DATA_PROCESSING: WHOLE RMassBank 2.3.1
PK$SPLASH: splash10-0zi0-4900000000-494134ea26cdb238add8
PK$NUM_PEAK: 42
PK$PEAK: m/z int. rel.int.
  51.0277 0.6 12
  53.0311 0.7 14
  69.0105 0.8 16
  76.0209 7 145
  76.0436 0.5 10
  77.0287 37.4 780
  77.0569 1 20
  77.0746 0.8 16
  78.0363 3.3 68
  79.0427 0.7 14
  89.0283 1 20
  90.0363 0.6 12
  91.0427 2.1 43
  92.0394 1.5 31
  94.9962 0.6 12
  103.0289 1.4 29
  103.0404 3 62
  104.0373 47.9 999
  104.0706 0.6 12
  105.0444 5.4 112
  116.0358 2 41
  118.0538 1.2 25
  119.0481 0.5 10
  119.0599 0.5 10
  122.0049 1.4 29
  127.0553 0.8 16
  130.0393 3.5 72
  131.0479 23.9 498
  139.053 0.7 14
  140.0501 1.7 35
  152.0483 1.3 27
  153.057 0.6 12
  158.0349 1.1 22
  159.0434 21.1 440
  171.0254 2.7 56
  183.0147 0.6 12
  196.0225 2.3 47
  197.0267 0.6 12
  210.0248 0.7 14
  211.0326 1.4 29
  224.0393 1.3 27
  265.033 1.1 22
//
