ACCESSION: MSBNK-BAFG-CSL23111018282
RECORD_TITLE: 4-(4-Chloro-2-methylphenoxy)butanoic acid; LC-ESI-QTOF; MS2; 110 V
DATE: 2023.11.10
AUTHORS: Kevin S. Jewell; Björn Ehlig; Arne Wick
LICENSE: dl-de/by-2-0
COPYRIGHT: Copyright 2023 Federal Institute of Hydrology, Koblenz, Germany
COMMENT: CONFIDENCE Reference Standard (Level 1)
COMMENT: Chromatography method: dx.doi.org/10.1016/j.chroma.2015.11.014
COMMENT: Acquisition method: 10.1002/rcm.8541
CH$NAME: 4-(4-Chloro-2-methylphenoxy)butanoic acid
CH$COMPOUND_CLASS: Herbicide
CH$FORMULA: C11H13ClO3
CH$EXACT_MASS: 228.0553
CH$SMILES: CC1=C(C=CC(=C1)Cl)OCCCC(=O)O
CH$IUPAC: InChI=1S/C11H13ClO3/c1-8-7-9(12)4-5-10(8)15-6-2-3-11(13)14/h4-5,7H,2-3,6H2,1H3,(H,13,14)
CH$LINK: CAS 94-81-5
CH$LINK: INCHIKEY LLWADFLAOKUBDR-UHFFFAOYSA-N
AC$INSTRUMENT: TripleTOF 6600 SCIEX
AC$INSTRUMENT_TYPE: LC-ESI-QTOF
AC$MASS_SPECTROMETRY: MS_TYPE MS2
AC$MASS_SPECTROMETRY: ION_MODE POSITIVE
AC$MASS_SPECTROMETRY: COLLISION_ENERGY 110
AC$MASS_SPECTROMETRY: FRAGMENTATION_MODE CID
AC$MASS_SPECTROMETRY: IONIZATION ESI
AC$CHROMATOGRAPHY: COLUMN_NAME Zorbax Eclipse Plus C18 2.1 mm x 150 mm, 3.5 um, Agilent
AC$CHROMATOGRAPHY: COLUMN_TEMPERATURE 40 °C
AC$CHROMATOGRAPHY: FLOW_GRADIENT 0 min min 98% A, 1 min 98% A, 2 min 80% A, 16.5 min 2% A, 22 min 2% A, 22.1 min 98% A, 27 min 98% A
AC$CHROMATOGRAPHY: FLOW_RATE 0.3 mL/min
AC$CHROMATOGRAPHY: RETENTION_TIME 11.775 min
AC$CHROMATOGRAPHY: SOLVENT A: Water 0.1% Formic acid, B: Acetonitrile 0.1% Formic acid
MS$FOCUSED_ION: PRECURSOR_M/Z 229.0626
MS$FOCUSED_ION: PRECURSOR_TYPE [M+H]+
MS$DATA_PROCESSING: COMMENT Export with Spectra 1.9.12 MsBackendMassbank 1.7.4
MS$DATA_PROCESSING: WHOLE RMassBank 2.3.1
PK$SPLASH: splash10-000l-9000000000-4626248fd776f196cf3c
PK$NUM_PEAK: 23
PK$PEAK: m/z int. rel.int.
  36.0017 0.2 64
  37.0072 0.8 257
  38.0146 0.9 290
  39.0221 3.1 999
  41.037 0.4 128
  42.0083 0.2 64
  43.0171 1.4 451
  44.9963 0.9 290
  45.0333 1.1 354
  46.9695 0.1 32
  48.9839 0.2 64
  51.0235 1.1 354
  53.0119 0.1 32
  53.0375 0.1 32
  59.9984 0.1 32
  65.0332 0.1 32
  65.0423 0.1 32
  72.9824 0.5 161
  74.0134 0.2 64
  77.0375 0.4 128
  78.0435 0.1 32
  89.037 0.5 161
  127.0559 0.2 64
//
