ACCESSION: MSBNK-BAFG-CSL2310256218
RECORD_TITLE: Acridine; LC-ESI-QTOF; MS2; 60 V
DATE: 2023.10.25
AUTHORS: Kevin S. Jewell; Björn Ehlig; Arne Wick
LICENSE: dl-de/by-2-0
COPYRIGHT: Copyright 2023 Federal Institute of Hydrology, Koblenz, Germany
COMMENT: CONFIDENCE Reference Standard (Level 1)
COMMENT: Chromatography method: dx.doi.org/10.1016/j.chroma.2015.11.014
COMMENT: Acquisition method: 10.1002/rcm.8541
CH$NAME: Acridine
CH$COMPOUND_CLASS: Industrial_process
CH$FORMULA: C13H9N
CH$EXACT_MASS: 179.0735
CH$SMILES: c1ccc2nc3ccccc3cc2c1
CH$IUPAC: InChI=1S/C13H9N/c1-3-7-12-10(5-1)9-11-6-2-4-8-13(11)14-12/h1-9H
CH$LINK: CAS 260-94-6
CH$LINK: INCHIKEY DZBUGLKDJFMEHC-UHFFFAOYSA-N
AC$INSTRUMENT: TripleTOF 5600 SCIEX
AC$INSTRUMENT_TYPE: LC-ESI-QTOF
AC$MASS_SPECTROMETRY: MS_TYPE MS2
AC$MASS_SPECTROMETRY: ION_MODE POSITIVE
AC$MASS_SPECTROMETRY: COLLISION_ENERGY 60
AC$MASS_SPECTROMETRY: FRAGMENTATION_MODE CID
AC$MASS_SPECTROMETRY: IONIZATION ESI
AC$CHROMATOGRAPHY: COLUMN_NAME Zorbax Eclipse Plus C18 2.1 mm x 150 mm, 3.5 um, Agilent
AC$CHROMATOGRAPHY: COLUMN_TEMPERATURE 40 °C
AC$CHROMATOGRAPHY: FLOW_GRADIENT 0 min min 98% A, 1 min 98% A, 2 min 80% A, 16.5 min 2% A, 22 min 2% A, 22.1 min 98% A, 27 min 98% A
AC$CHROMATOGRAPHY: FLOW_RATE 0.3 mL/min
AC$CHROMATOGRAPHY: RETENTION_TIME 5.776 min
AC$CHROMATOGRAPHY: SOLVENT A: Water 0.1% Formic acid, B: Acetonitrile 0.1% Formic acid
MS$FOCUSED_ION: PRECURSOR_M/Z 180.0808
MS$FOCUSED_ION: PRECURSOR_TYPE [M+H]+
MS$DATA_PROCESSING: COMMENT Export with Spectra 1.9.12 MsBackendMassbank 1.7.4
MS$DATA_PROCESSING: WHOLE RMassBank 2.3.1
PK$SPLASH: splash10-0ufr-0900000000-6494970cc60f7e454cff
PK$NUM_PEAK: 32
PK$PEAK: m/z int. rel.int.
  74.018 5.6 17
  75.0261 31 94
  76.0337 3.6 10
  77.0423 76.5 232
  78.0489 4.3 13
  89.0405 10.7 32
  99.0242 4.9 14
  101.0398 51.5 156
  102.0468 11.9 36
  113.0388 11.5 34
  114.0457 4.6 13
  115.0545 6.1 18
  125.0387 18 54
  126.047 49.5 150
  127.0547 68.5 208
  128.0504 55.5 168
  129.0516 11.1 33
  139.0554 5.2 15
  140.0495 21.6 65
  141.0572 5.2 15
  149.0383 4.6 13
  150.0472 63.9 194
  151.055 234.2 712
  152.0624 328.3 999
  153.0581 50 152
  154.0644 10.3 31
  164.0492 7.6 23
  176.0499 8.2 24
  177.0578 63.5 193
  178.0658 268.2 816
  179.0737 118.2 359
  180.0809 36 109
//
