ACCESSION: MSBNK-BAFG-CSL2501067203
RECORD_TITLE: Losartan carboxylic acid; LC-ESI-QTOF; MS2; 60 V
DATE: 2025.01.06
AUTHORS: Ole Lessmann; Kevin S. Jewell; Björn Ehlig; Arne Wick
LICENSE: dl-de/by-2-0
COPYRIGHT: Copyright 2025 Federal Institute of Hydrology, Koblenz, Germany
COMMENT: CONFIDENCE Reference Standard (Level 1)
COMMENT: Chromatography method: dx.doi.org/10.1016/j.chroma.2015.11.014
COMMENT: Acquisition method: 10.1002/rcm.8541
CH$NAME: Losartan carboxylic acid
CH$COMPOUND_CLASS: Pharmaceutical; Transformation_product-Metabolite
CH$FORMULA: C22H21ClN6O2
CH$EXACT_MASS: 436.1415
CH$SMILES: CCCCc1nc(Cl)c(n1Cc2ccc(cc2)c3ccccc3c4n[nH]nn4)C(O)=O
CH$IUPAC: InChI=1S/C22H21ClN6O2/c1-2-3-8-18-24-20(23)19(22(30)31)29(18)13-14-9-11-15(12-10-14)16-6-4-5-7-17(16)21-25-27-28-26-21/h4-7,9-12H,2-3,8,13H2,1H3,(H,30,31)(H,25,26,27,28)
CH$LINK: CAS 124750-92-1
CH$LINK: INCHIKEY ZEUXAIYYDDCIRX-UHFFFAOYSA-N
AC$INSTRUMENT: TripleTOF 5600 SCIEX
AC$INSTRUMENT_TYPE: LC-ESI-QTOF
AC$MASS_SPECTROMETRY: MS_TYPE MS2
AC$MASS_SPECTROMETRY: ION_MODE POSITIVE
AC$MASS_SPECTROMETRY: COLLISION_ENERGY 60
AC$MASS_SPECTROMETRY: FRAGMENTATION_MODE CID
AC$MASS_SPECTROMETRY: IONIZATION ESI
AC$CHROMATOGRAPHY: COLUMN_NAME Zorbax Eclipse Plus C18 2.1 mm x 150 mm, 3.5 um, Agilent
AC$CHROMATOGRAPHY: COLUMN_TEMPERATURE 40 °C
AC$CHROMATOGRAPHY: FLOW_GRADIENT 0 min min 98% A, 1 min 98% A, 2 min 80% A, 16.5 min 2% A, 22 min 2% A, 22.1 min 98% A, 27 min 98% A
AC$CHROMATOGRAPHY: FLOW_RATE 0.3 mL/min
AC$CHROMATOGRAPHY: RETENTION_TIME 10.786 min
AC$CHROMATOGRAPHY: SOLVENT A: Water 0.1% Formic acid, B: Acetonitrile 0.1% Formic acid
MS$FOCUSED_ION: PRECURSOR_M/Z 437.1487
MS$FOCUSED_ION: PRECURSOR_TYPE [M+H]+
MS$DATA_PROCESSING: COMMENT Export with pycsl 0.1.0.dev1 and CSL 24.4
PK$SPLASH: splash10-0536-0920000000-a0f479fa3440d3046277
PK$NUM_PEAK: 32
PK$PEAK: m/z int. rel.int.
  77.0407 5.5 35
  80.0507 2.4 15
  115.0527 4.6 29
  127.0529 2.5 16
  129.0442 2.1 13
  140.0482 13.1 84
  141.0691 2.0 12
  151.0533 10.3 66
  152.0613 30.9 200
  153.0691 75.8 491
  154.0646 1.7 11
  157.0518 1.7 11
  163.054 21.3 138
  164.061 6.2 40
  165.0665 9.8 63
  166.0635 6.0 38
  167.0722 8.4 54
  168.0676 3.1 20
  176.0625 1.6 10
  177.0684 4.8 31
  178.0761 88.7 575
  179.0724 24.8 160
  180.0804 142.2 922
  181.0749 2.9 18
  185.047 14.1 91
  189.0564 3.6 23
  190.0649 154.0 999
  191.0721 36.0 233
  192.0676 61.6 399
  205.0756 62.9 408
  206.0831 85.0 551
  207.0907 56.2 364
//