ACCESSION: MSBNK-BAFG-CSL23103012511
RECORD_TITLE: Tadalafil; LC-ESI-QTOF; MS2; 90 V
DATE: 2023.10.30
AUTHORS: Kevin S. Jewell; Björn Ehlig; Arne Wick
LICENSE: dl-de/by-2-0
COPYRIGHT: Copyright 2023 Federal Institute of Hydrology, Koblenz, Germany
COMMENT: CONFIDENCE Reference Standard (Level 1)
COMMENT: Chromatography method: dx.doi.org/10.1016/j.chroma.2015.11.014
COMMENT: Acquisition method: 10.1002/rcm.8541
CH$NAME: Tadalafil
CH$COMPOUND_CLASS: Pharmaceutical
CH$FORMULA: C22H19N3O4
CH$EXACT_MASS: 389.1376
CH$SMILES: CN1CC(=O)N2C(C1=O)CC3=C(C2C4=CC5=C(C=C4)OCO5)NC6=CC=CC=C36
CH$IUPAC: InChI=1S/C22H19N3O4/c1-24-10-19(26)25-16(22(24)27)9-14-13-4-2-3-5-15(13)23-20(14)21(25)12-6-7-17-18(8-12)29-11-28-17/h2-8,16,21,23H,9-11H2,1H3
CH$LINK: CAS 171596-29-5
CH$LINK: INCHIKEY WOXKDUGGOYFFRN-UHFFFAOYSA-N
AC$INSTRUMENT: TripleTOF 5600 SCIEX
AC$INSTRUMENT_TYPE: LC-ESI-QTOF
AC$MASS_SPECTROMETRY: MS_TYPE MS2
AC$MASS_SPECTROMETRY: ION_MODE POSITIVE
AC$MASS_SPECTROMETRY: COLLISION_ENERGY 90
AC$MASS_SPECTROMETRY: FRAGMENTATION_MODE CID
AC$MASS_SPECTROMETRY: IONIZATION ESI
AC$CHROMATOGRAPHY: COLUMN_NAME Zorbax Eclipse Plus C18 2.1 mm x 150 mm, 3.5 um, Agilent
AC$CHROMATOGRAPHY: COLUMN_TEMPERATURE 40 °C
AC$CHROMATOGRAPHY: FLOW_GRADIENT 0 min min 98% A, 1 min 98% A, 2 min 80% A, 16.5 min 2% A, 22 min 2% A, 22.1 min 98% A, 27 min 98% A
AC$CHROMATOGRAPHY: FLOW_RATE 0.3 mL/min
AC$CHROMATOGRAPHY: RETENTION_TIME 9.801 min
AC$CHROMATOGRAPHY: SOLVENT A: Water 0.1% Formic acid, B: Acetonitrile 0.1% Formic acid
MS$FOCUSED_ION: PRECURSOR_M/Z 390.1448
MS$FOCUSED_ION: PRECURSOR_TYPE [M+H]+
MS$DATA_PROCESSING: COMMENT Export with Spectra 1.9.12 MsBackendMassbank 1.7.4
MS$DATA_PROCESSING: WHOLE RMassBank 2.3.1
PK$SPLASH: splash10-0udi-0790000000-e3ca84f8464f7500c99d
PK$NUM_PEAK: 47
PK$PEAK: m/z int. rel.int.
  51.023 0.8 14
  77.0387 4.3 80
  79.0537 0.9 16
  89.0382 0.6 11
  103.0561 0.6 11
  105.033 1 18
  114.0455 0.6 11
  115.0545 8.8 164
  128.0512 1 18
  130.066 1.5 28
  135.0454 2.4 44
  139.0567 0.7 13
  140.0489 1.3 24
  141.057 0.9 16
  142.0651 1.6 29
  151.0553 2.2 41
  154.0656 0.6 11
  163.055 1 18
  164.0595 0.8 14
  165.0695 1.1 20
  166.0623 0.6 11
  167.0709 2.2 41
  168.0685 3.2 59
  169.0754 8.7 162
  170.0614 0.7 13
  175.0513 0.7 13
  176.0618 5.1 95
  177.0712 2.1 39
  178.0704 1.8 33
  180.0788 0.9 16
  187.0529 0.7 13
  188.0621 1 18
  189.0694 3.6 67
  190.0678 1.9 35
  191.0738 4.4 82
  192.0814 1.8 33
  202.0658 2.5 46
  203.0741 12.5 233
  204.0813 53.5 999
  205.0862 3.5 65
  206.0979 0.7 13
  214.0662 2.6 48
  215.0727 1.5 28
  216.0829 2.5 46
  217.0865 1.2 22
  232.0756 2.3 42
  233.089 0.9 16
//
