ACCESSION: MSBNK-BAFG-CSL23110918214
RECORD_TITLE: 4-(2,4-Dichlorophenoxy)butanoic acid; LC-ESI-QTOF; MS2; 140 V
DATE: 2023.11.09
AUTHORS: Kevin S. Jewell; Björn Ehlig; Arne Wick
LICENSE: dl-de/by-2-0
COPYRIGHT: Copyright 2023 Federal Institute of Hydrology, Koblenz, Germany
COMMENT: CONFIDENCE Reference Standard (Level 1)
COMMENT: Chromatography method: dx.doi.org/10.1016/j.chroma.2015.11.014
COMMENT: Acquisition method: 10.1002/rcm.8541
CH$NAME: 4-(2,4-Dichlorophenoxy)butanoic acid
CH$COMPOUND_CLASS: Herbicide
CH$FORMULA: C10H10Cl2O3
CH$EXACT_MASS: 248.0007
CH$SMILES: C1=CC(=C(C=C1Cl)Cl)OCCCC(=O)O
CH$IUPAC: InChI=1S/C10H10Cl2O3/c11-7-3-4-9(8(12)6-7)15-5-1-2-10(13)14/h3-4,6H,1-2,5H2,(H,13,14)
CH$LINK: CAS 94-82-6
CH$LINK: INCHIKEY YIVXMZJTEQBPQO-UHFFFAOYSA-N
AC$INSTRUMENT: TripleTOF 6600 SCIEX
AC$INSTRUMENT_TYPE: LC-ESI-QTOF
AC$MASS_SPECTROMETRY: MS_TYPE MS2
AC$MASS_SPECTROMETRY: ION_MODE POSITIVE
AC$MASS_SPECTROMETRY: COLLISION_ENERGY 140
AC$MASS_SPECTROMETRY: FRAGMENTATION_MODE CID
AC$MASS_SPECTROMETRY: IONIZATION ESI
AC$CHROMATOGRAPHY: COLUMN_NAME Zorbax Eclipse Plus C18 2.1 mm x 150 mm, 3.5 um, Agilent
AC$CHROMATOGRAPHY: COLUMN_TEMPERATURE 40 °C
AC$CHROMATOGRAPHY: FLOW_GRADIENT 0 min min 98% A, 1 min 98% A, 2 min 80% A, 16.5 min 2% A, 22 min 2% A, 22.1 min 98% A, 27 min 98% A
AC$CHROMATOGRAPHY: FLOW_RATE 0.3 mL/min
AC$CHROMATOGRAPHY: RETENTION_TIME 11.685 min
AC$CHROMATOGRAPHY: SOLVENT A: Water 0.1% Formic acid, B: Acetonitrile 0.1% Formic acid
MS$FOCUSED_ION: PRECURSOR_M/Z 249.008
MS$FOCUSED_ION: PRECURSOR_TYPE [M+H]+
MS$DATA_PROCESSING: COMMENT Export with Spectra 1.9.12 MsBackendMassbank 1.7.4
MS$DATA_PROCESSING: WHOLE RMassBank 2.3.1
PK$SPLASH: splash10-00dr-9000000000-82f88843b84e804fb2fd
PK$NUM_PEAK: 23
PK$PEAK: m/z int. rel.int.
  35.9999 0.4 121
  37.0072 0.9 272
  38.0031 0.1 30
  38.0161 0.8 242
  39.0233 1.3 393
  41.0373 0.2 60
  42.0105 0.3 90
  43.0177 0.8 242
  44.9965 0.9 272
  45.0326 0.3 90
  46.9696 0.4 121
  48.9852 0.2 60
  51.0222 0.1 30
  59.9984 0.2 60
  71.9742 0.1 30
  72.9831 0.5 151
  73.0088 1.3 393
  74.0146 3.3 999
  75.0243 0.2 60
  77.0402 0.1 30
  82.9453 0.3 90
  83.9754 0.3 90
  107.9762 0.1 30
//
