ACCESSION: MSBNK-BAFG-CSL25010634301
RECORD_TITLE: Disperse orange 3; LC-ESI-QTOF; MS2; 110 V
DATE: 2025.01.06
AUTHORS: Ole Lessmann; Kevin S. Jewell; Björn Ehlig; Arne Wick
LICENSE: dl-de/by-2-0
COPYRIGHT: Copyright 2025 Federal Institute of Hydrology, Koblenz, Germany
COMMENT: CONFIDENCE Reference Standard (Level 1)
COMMENT: Chromatography method: dx.doi.org/10.1016/j.chroma.2015.11.014
COMMENT: Acquisition method: 10.1002/rcm.8541
CH$NAME: Disperse orange 3
CH$FORMULA: C12H10N4O2
CH$EXACT_MASS: 242.0804
CH$SMILES: C1=CC(=CC=C1N)N=NC2=CC=C(C=C2)[N+](=O)[O-]
CH$IUPAC: InChI=1S/C12H10N4O2/c13-9-1-3-10(4-2-9)14-15-11-5-7-12(8-6-11)16(17)18/h1-8H,13H2
CH$LINK: CAS 730-40-5
CH$LINK: INCHIKEY UNBOSJFEZZJZLR-UHFFFAOYSA-N
AC$INSTRUMENT: TripleTOF 6600 SCIEX
AC$INSTRUMENT_TYPE: LC-ESI-QTOF
AC$MASS_SPECTROMETRY: MS_TYPE MS2
AC$MASS_SPECTROMETRY: ION_MODE POSITIVE
AC$MASS_SPECTROMETRY: COLLISION_ENERGY 110
AC$MASS_SPECTROMETRY: FRAGMENTATION_MODE CID
AC$MASS_SPECTROMETRY: IONIZATION ESI
AC$CHROMATOGRAPHY: COLUMN_NAME Zorbax Eclipse Plus C18 2.1 mm x 150 mm, 3.5 um, Agilent
AC$CHROMATOGRAPHY: COLUMN_TEMPERATURE 40 °C
AC$CHROMATOGRAPHY: FLOW_GRADIENT 0 min min 98% A, 1 min 98% A, 2 min 80% A, 16.5 min 2% A, 22 min 2% A, 22.1 min 98% A, 27 min 98% A
AC$CHROMATOGRAPHY: FLOW_RATE 0.3 mL/min
AC$CHROMATOGRAPHY: RETENTION_TIME 12.729 min
AC$CHROMATOGRAPHY: SOLVENT A: Water 0.1% Formic acid, B: Acetonitrile 0.1% Formic acid
MS$FOCUSED_ION: PRECURSOR_M/Z 243.0877
MS$FOCUSED_ION: PRECURSOR_TYPE [M+H]+
MS$DATA_PROCESSING: COMMENT Export with pycsl 0.1.0.dev1 and CSL 24.4
PK$SPLASH: splash10-0fk9-9000000000-37343a707d8a939af659
PK$NUM_PEAK: 22
PK$PEAK: m/z int. rel.int.
  37.006 4.8 60
  38.0142 3.3 41
  39.0223 7.6 95
  49.0063 15.0 188
  50.0143 79.3 999
  51.0215 7.9 99
  52.0166 2.1 26
  52.0293 3.8 47
  61.0067 2.0 25
  62.0136 6.1 76
  63.0213 9.4 118
  65.0368 5.8 73
  66.0446 2.1 26
  73.0057 11.2 141
  74.0136 76.3 961
  75.0211 20.2 254
  76.0287 5.4 68
  78.0324 4.0 50
  80.0467 1.4 17
  92.048 0.8 10
  93.0555 0.8 10
  105.0416 2.2 27
//