ACCESSION: MSBNK-BAFG-CSL23110913079
RECORD_TITLE: Diphenyl phosphate; LC-ESI-QTOF; MS2; 40 V
DATE: 2023.11.09
AUTHORS: Kevin S. Jewell; Björn Ehlig; Arne Wick
LICENSE: dl-de/by-2-0
COPYRIGHT: Copyright 2023 Federal Institute of Hydrology, Koblenz, Germany
COMMENT: CONFIDENCE Reference Standard (Level 1)
COMMENT: Chromatography method: dx.doi.org/10.1016/j.chroma.2015.11.014
COMMENT: Acquisition method: 10.1002/rcm.8541
CH$NAME: Diphenyl phosphate
CH$COMPOUND_CLASS: Industrial_process
CH$FORMULA: C12H11O4P
CH$EXACT_MASS: 250.0395
CH$SMILES: C1=CC=C(C=C1)OP(=O)(O)OC2=CC=CC=C2
CH$IUPAC: InChI=1S/C12H11O4P/c13-17(14,15-11-7-3-1-4-8-11)16-12-9-5-2-6-10-12/h1-10H,(H,13,14)
CH$LINK: CAS 838-85-7
CH$LINK: INCHIKEY ASMQGLCHMVWBQR-UHFFFAOYSA-N
AC$INSTRUMENT: TripleTOF 5600 SCIEX
AC$INSTRUMENT_TYPE: LC-ESI-QTOF
AC$MASS_SPECTROMETRY: MS_TYPE MS2
AC$MASS_SPECTROMETRY: ION_MODE POSITIVE
AC$MASS_SPECTROMETRY: COLLISION_ENERGY 40
AC$MASS_SPECTROMETRY: FRAGMENTATION_MODE CID
AC$MASS_SPECTROMETRY: IONIZATION ESI
AC$CHROMATOGRAPHY: COLUMN_NAME Zorbax Eclipse Plus C18 2.1 mm x 150 mm, 3.5 um, Agilent
AC$CHROMATOGRAPHY: COLUMN_TEMPERATURE 40 °C
AC$CHROMATOGRAPHY: FLOW_GRADIENT 0 min min 98% A, 1 min 98% A, 2 min 80% A, 16.5 min 2% A, 22 min 2% A, 22.1 min 98% A, 27 min 98% A
AC$CHROMATOGRAPHY: FLOW_RATE 0.3 mL/min
AC$CHROMATOGRAPHY: RETENTION_TIME 8.14 min
AC$CHROMATOGRAPHY: SOLVENT A: Water 0.1% Formic acid, B: Acetonitrile 0.1% Formic acid
MS$FOCUSED_ION: PRECURSOR_M/Z 251.0468
MS$FOCUSED_ION: PRECURSOR_TYPE [M+H]+
MS$DATA_PROCESSING: COMMENT Export with Spectra 1.9.12 MsBackendMassbank 1.7.4
MS$DATA_PROCESSING: WHOLE RMassBank 2.3.1
PK$SPLASH: splash10-0fb9-9840000000-d8c8cf0ffb88b70ea5c7
PK$NUM_PEAK: 13
PK$PEAK: m/z int. rel.int.
  51.0232 1.4 111
  77.0384 12.6 999
  95.0487 1 79
  151.0565 1.2 95
  152.0621 6.7 531
  153.0674 1.7 134
  157.0078 0.6 47
  168.0591 1.3 103
  175.0156 1.9 150
  187.0294 0.5 39
  215.0293 1.9 150
  233.0373 1.2 95
  251.0462 3.7 293
//
