ACCESSION: MSBNK-BAFG-CSL25010634479
RECORD_TITLE: Disperse brown 1; LC-ESI-QTOF; MS2; 80 V
DATE: 2025.01.06
AUTHORS: Ole Lessmann; Kevin S. Jewell; Björn Ehlig; Arne Wick
LICENSE: dl-de/by-2-0
COPYRIGHT: Copyright 2025 Federal Institute of Hydrology, Koblenz, Germany
COMMENT: CONFIDENCE Reference Standard (Level 1)
COMMENT: Chromatography method: dx.doi.org/10.1016/j.chroma.2015.11.014
COMMENT: Acquisition method: 10.1002/rcm.8541
CH$NAME: Disperse brown 1
CH$FORMULA: C16H15Cl3N4O4
CH$EXACT_MASS: 432.0159
CH$SMILES: C1=CC(=C(C=C1N(CCO)CCO)Cl)N=NC2=C(C=C(C=C2Cl)[N+](=O)[O-])Cl
CH$IUPAC: InChI=1S/C16H15Cl3N4O4/c17-12-7-10(22(3-5-24)4-6-25)1-2-15(12)20-21-16-13(18)8-11(23(26)27)9-14(16)19/h1-2,7-9,24-25H,3-6H2
CH$LINK: CAS 23355-64-8
CH$LINK: INCHIKEY HXXLWTPFYWMBSC-UHFFFAOYSA-N
AC$INSTRUMENT: TripleTOF 6600 SCIEX
AC$INSTRUMENT_TYPE: LC-ESI-QTOF
AC$MASS_SPECTROMETRY: MS_TYPE MS2
AC$MASS_SPECTROMETRY: ION_MODE POSITIVE
AC$MASS_SPECTROMETRY: COLLISION_ENERGY 80
AC$MASS_SPECTROMETRY: FRAGMENTATION_MODE CID
AC$MASS_SPECTROMETRY: IONIZATION ESI
AC$CHROMATOGRAPHY: COLUMN_NAME Zorbax Eclipse Plus C18 2.1 mm x 150 mm, 3.5 um, Agilent
AC$CHROMATOGRAPHY: COLUMN_TEMPERATURE 40 °C
AC$CHROMATOGRAPHY: FLOW_GRADIENT 0 min min 98% A, 1 min 98% A, 2 min 80% A, 16.5 min 2% A, 22 min 2% A, 22.1 min 98% A, 27 min 98% A
AC$CHROMATOGRAPHY: FLOW_RATE 0.3 mL/min
AC$CHROMATOGRAPHY: RETENTION_TIME 12.39 min
AC$CHROMATOGRAPHY: SOLVENT A: Water 0.1% Formic acid, B: Acetonitrile 0.1% Formic acid
MS$FOCUSED_ION: PRECURSOR_M/Z 433.0232
MS$FOCUSED_ION: PRECURSOR_TYPE [M+H]+
MS$DATA_PROCESSING: COMMENT Export with pycsl 0.1.0.dev1 and CSL 24.4
PK$SPLASH: splash10-0f6x-1900000000-d54d10caed044ee5948a
PK$NUM_PEAK: 56
PK$PEAK: m/z int. rel.int.
  45.034 1.1 89
  74.0149 0.4 32
  76.0175 0.4 32
  77.0391 1.0 81
  78.0332 0.4 32
  89.039 0.4 32
  90.033 1.5 121
  91.041 0.4 32
  91.0536 0.7 56
  92.0497 0.5 40
  96.9841 0.9 73
  98.9995 1.1 89
  103.0307 1.0 81
  104.049 1.8 146
  105.0453 0.5 40
  105.057 0.9 73
  106.065 0.6 48
  106.9468 0.5 40
  107.9766 1.1 89
  108.9838 3.2 259
  110.9971 0.5 40
  111.9953 0.9 73
  114.0091 1.0 81
  116.0484 0.4 32
  117.0445 1.9 154
  117.0557 2.1 170
  118.052 1.2 97
  118.0639 2.3 186
  119.0606 1.2 97
  123.9941 3.1 251
  125.002 0.8 64
  126.0104 2.1 170
  130.0636 0.8 64
  131.0612 1.0 81
  132.0663 0.5 40
  133.0755 1.0 81
  138.0106 1.1 89
  139.0074 2.1 170
  139.0195 1.4 113
  140.0253 1.3 105
  142.944 2.8 227
  143.0615 1.0 81
  143.9524 12.3 999
  144.0666 0.5 40
  144.9487 0.6 48
  145.0777 0.7 56
  152.0178 1.7 138
  153.0211 9.1 739
  158.0395 0.4 32
  159.95 0.6 48
  171.9594 1.0 81
  183.0457 0.7 56
  213.0236 0.9 73
  247.997 0.6 48
  296.9833 0.4 32
  310.9856 2.0 162
//