ACCESSION: MSBNK-BAFG-CSL25010612514
RECORD_TITLE: 4-Aminoantipyrine; LC-ESI-QTOF; MS2; 30 V
DATE: 2025.01.06
AUTHORS: Ole Lessmann; Kevin S. Jewell; Björn Ehlig; Arne Wick
LICENSE: dl-de/by-2-0
COPYRIGHT: Copyright 2025 Federal Institute of Hydrology, Koblenz, Germany
COMMENT: CONFIDENCE Reference Standard (Level 1)
COMMENT: Chromatography method: dx.doi.org/10.1016/j.chroma.2015.11.014
COMMENT: Acquisition method: 10.1002/rcm.8541
CH$NAME: 4-Aminoantipyrine
CH$COMPOUND_CLASS: Transformation_product; Pharmaceutical; Transformation_product-Metabolite
CH$FORMULA: C11H13N3O
CH$EXACT_MASS: 203.1059
CH$SMILES: CC1=C(C(=O)N(N1C)C2=CC=CC=C2)N
CH$IUPAC: InChI=1S/C11H13N3O/c1-8-10(12)11(15)14(13(8)2)9-6-4-3-5-7-9/h3-7H,12H2,1-2H3
CH$LINK: CAS 83-07-8
CH$LINK: INCHIKEY RLFWWDJHLFCNIJ-UHFFFAOYSA-N
AC$INSTRUMENT: TripleTOF 5600 SCIEX
AC$INSTRUMENT_TYPE: LC-ESI-QTOF
AC$MASS_SPECTROMETRY: MS_TYPE MS2
AC$MASS_SPECTROMETRY: ION_MODE POSITIVE
AC$MASS_SPECTROMETRY: COLLISION_ENERGY 30
AC$MASS_SPECTROMETRY: FRAGMENTATION_MODE CID
AC$MASS_SPECTROMETRY: IONIZATION ESI
AC$CHROMATOGRAPHY: COLUMN_NAME Zorbax Eclipse Plus C18 2.1 mm x 150 mm, 3.5 um, Agilent
AC$CHROMATOGRAPHY: COLUMN_TEMPERATURE 40 °C
AC$CHROMATOGRAPHY: FLOW_GRADIENT 0 min min 98% A, 1 min 98% A, 2 min 80% A, 16.5 min 2% A, 22 min 2% A, 22.1 min 98% A, 27 min 98% A
AC$CHROMATOGRAPHY: FLOW_RATE 0.3 mL/min
AC$CHROMATOGRAPHY: RETENTION_TIME 4.783 min
AC$CHROMATOGRAPHY: SOLVENT A: Water 0.1% Formic acid, B: Acetonitrile 0.1% Formic acid
MS$FOCUSED_ION: PRECURSOR_M/Z 204.1131
MS$FOCUSED_ION: PRECURSOR_TYPE [M+H]+
MS$DATA_PROCESSING: COMMENT Export with pycsl 0.1.0.dev1 and CSL 24.4
PK$SPLASH: splash10-0a4i-9300000000-2be1f8b502702a4f106c
PK$NUM_PEAK: 27
PK$PEAK: m/z int. rel.int.
  42.0338 4.1 20
  44.0497 3.1 15
  56.0498 204.4 999
  58.0652 6.7 32
  68.0498 2.8 13
  77.0387 12.0 58
  83.0605 28.4 138
  85.0761 7.3 35
  94.0653 50.6 247
  104.0493 15.8 77
  111.055 2.8 13
  118.0646 6.7 32
  128.0493 11.8 57
  130.0651 6.0 29
  132.0436 3.0 14
  132.0798 7.7 37
  145.076 6.8 33
  146.0604 13.0 63
  158.0608 3.3 16
  159.0917 26.6 130
  160.0842 2.8 13
  172.0624 2.2 10
  173.0716 2.3 11
  187.0876 4.4 21
  188.0823 2.2 10
  189.0903 6.8 33
  204.1149 2.6 12
//