ACCESSION: MSBNK-BAFG-CSL23110911341
RECORD_TITLE: 2-(3-Pyridyl)-1H-benzimidazole; LC-ESI-QTOF; MS2; 80 V
DATE: 2023.11.09
AUTHORS: Kevin S. Jewell; Björn Ehlig; Arne Wick
LICENSE: dl-de/by-2-0
COPYRIGHT: Copyright 2023 Federal Institute of Hydrology, Koblenz, Germany
COMMENT: CONFIDENCE Reference Standard (Level 1)
COMMENT: Chromatography method: dx.doi.org/10.1016/j.chroma.2015.11.014
COMMENT: Acquisition method: 10.1002/rcm.8541
CH$NAME: 2-(3-Pyridyl)-1H-benzimidazole
CH$COMPOUND_CLASS: Pharmaceutical
CH$FORMULA: C12H9N3
CH$EXACT_MASS: 195.0796
CH$SMILES: C1=CC=C2C(=C1)NC(=N2)C3=CN=CC=C3
CH$IUPAC: InChI=1S/C12H9N3/c1-2-6-11-10(5-1)14-12(15-11)9-4-3-7-13-8-9/h1-8H,(H,14,15)
CH$LINK: CAS 1137-67-3
CH$LINK: INCHIKEY BOUOQESVDURNSB-UHFFFAOYSA-N
AC$INSTRUMENT: TripleTOF 5600 SCIEX
AC$INSTRUMENT_TYPE: LC-ESI-QTOF
AC$MASS_SPECTROMETRY: MS_TYPE MS2
AC$MASS_SPECTROMETRY: ION_MODE NEGATIVE
AC$MASS_SPECTROMETRY: COLLISION_ENERGY 80
AC$MASS_SPECTROMETRY: FRAGMENTATION_MODE CID
AC$MASS_SPECTROMETRY: IONIZATION ESI
AC$CHROMATOGRAPHY: COLUMN_NAME Zorbax Eclipse Plus C18 2.1 mm x 150 mm, 3.5 um, Agilent
AC$CHROMATOGRAPHY: COLUMN_TEMPERATURE 40 °C
AC$CHROMATOGRAPHY: FLOW_GRADIENT 0 min min 98% A, 1 min 98% A, 2 min 80% A, 16.5 min 2% A, 22 min 2% A, 22.1 min 98% A, 27 min 98% A
AC$CHROMATOGRAPHY: FLOW_RATE 0.3 mL/min
AC$CHROMATOGRAPHY: RETENTION_TIME 5.155 min
AC$CHROMATOGRAPHY: SOLVENT A: Water 0.1% Formic acid, B: Acetonitrile 0.1% Formic acid
MS$FOCUSED_ION: PRECURSOR_M/Z 194.0724
MS$FOCUSED_ION: PRECURSOR_TYPE [M-H]-
MS$DATA_PROCESSING: COMMENT Export with Spectra 1.9.12 MsBackendMassbank 1.7.4
MS$DATA_PROCESSING: WHOLE RMassBank 2.3.1
PK$SPLASH: splash10-014l-6900000000-b97c410fa580c59852cc
PK$NUM_PEAK: 18
PK$PEAK: m/z int. rel.int.
  40.0201 0.2 83
  41.0148 0.5 208
  50.0038 1.9 790
  63.0103 0.5 208
  65.0148 0.5 208
  74.0029 0.1 41
  88.0184 0.8 333
  89.0289 0.1 41
  90.0345 0.4 166
  114.0351 0.2 83
  115.0301 2.2 915
  117.0471 0.4 166
  139.0335 0.3 124
  140.0368 0.4 166
  141.0475 2.4 999
  165.0488 1 416
  166.0441 0.5 208
  192.0554 0.1 41
//
