ACCESSION: MSBNK-BAFG-CSL25010634382
RECORD_TITLE: 4,4`-Methylenebis(2-chloroaniline); LC-ESI-QTOF; MS2; 50 V
DATE: 2025.01.06
AUTHORS: Ole Lessmann; Kevin S. Jewell; Björn Ehlig; Arne Wick
LICENSE: dl-de/by-2-0
COPYRIGHT: Copyright 2025 Federal Institute of Hydrology, Koblenz, Germany
COMMENT: CONFIDENCE Reference Standard (Level 1)
COMMENT: Chromatography method: dx.doi.org/10.1016/j.chroma.2015.11.014
COMMENT: Acquisition method: 10.1002/rcm.8541
CH$NAME: 4,4`-Methylenebis(2-chloroaniline)
CH$FORMULA: C13H12Cl2N2
CH$EXACT_MASS: 266.0378
CH$SMILES: C1=CC(=C(C=C1CC2=CC(=C(C=C2)N)Cl)Cl)N
CH$IUPAC: InChI=1S/C13H12Cl2N2/c14-10-6-8(1-3-12(10)16)5-9-2-4-13(17)11(15)7-9/h1-4,6-7H,5,16-17H2
CH$LINK: CAS 101-14-4
CH$LINK: INCHIKEY IBOFVQJTBBUKMU-UHFFFAOYSA-N
AC$INSTRUMENT: TripleTOF 6600 SCIEX
AC$INSTRUMENT_TYPE: LC-ESI-QTOF
AC$MASS_SPECTROMETRY: MS_TYPE MS2
AC$MASS_SPECTROMETRY: ION_MODE POSITIVE
AC$MASS_SPECTROMETRY: COLLISION_ENERGY 50
AC$MASS_SPECTROMETRY: FRAGMENTATION_MODE CID
AC$MASS_SPECTROMETRY: IONIZATION ESI
AC$CHROMATOGRAPHY: COLUMN_NAME Zorbax Eclipse Plus C18 2.1 mm x 150 mm, 3.5 um, Agilent
AC$CHROMATOGRAPHY: COLUMN_TEMPERATURE 40 °C
AC$CHROMATOGRAPHY: FLOW_GRADIENT 0 min min 98% A, 1 min 98% A, 2 min 80% A, 16.5 min 2% A, 22 min 2% A, 22.1 min 98% A, 27 min 98% A
AC$CHROMATOGRAPHY: FLOW_RATE 0.3 mL/min
AC$CHROMATOGRAPHY: RETENTION_TIME 11.747 min
AC$CHROMATOGRAPHY: SOLVENT A: Water 0.1% Formic acid, B: Acetonitrile 0.1% Formic acid
MS$FOCUSED_ION: PRECURSOR_M/Z 267.045
MS$FOCUSED_ION: PRECURSOR_TYPE [M+H]+
MS$DATA_PROCESSING: COMMENT Export with pycsl 0.1.0.dev1 and CSL 24.4
PK$SPLASH: splash10-0fr5-0900000000-252d1a3b5b9c4f6f12f0
PK$NUM_PEAK: 37
PK$PEAK: m/z int. rel.int.
  77.0384 29.8 157
  78.0337 2.7 14
  104.0494 67.9 358
  105.057 4.7 24
  113.0153 3.5 18
  115.0548 7.6 40
  127.0199 3.0 15
  127.0551 2.2 11
  130.0645 2.1 11
  140.026 137.6 727
  141.0702 19.8 104
  143.0731 4.5 23
  150.0457 2.2 11
  151.0534 49.0 259
  152.0619 21.2 112
  153.0578 10.2 53
  154.0656 11.9 62
  155.0659 3.6 19
  164.0257 4.6 24
  166.0657 3.8 20
  167.0726 61.3 324
  168.0799 63.7 336
  169.0881 8.3 43
  177.0571 9.3 49
  178.0651 36.9 195
  179.069 27.6 145
  180.0807 65.2 344
  181.0764 5.7 30
  193.0764 10.4 54
  194.0839 15.9 84
  195.0917 189.0 999
  196.0998 12.2 64
  197.016 2.0 10
  214.0421 14.4 76
  216.0461 3.1 16
  229.0523 4.2 22
  231.0698 2.8 14
//