ACCESSION: MSBNK-BAFG-CSL2311096413
RECORD_TITLE: Iotalamic acid; LC-ESI-QTOF; MS2; 70 V
DATE: 2023.11.09
AUTHORS: Kevin S. Jewell; Björn Ehlig; Arne Wick
LICENSE: dl-de/by-2-0
COPYRIGHT: Copyright 2023 Federal Institute of Hydrology, Koblenz, Germany
COMMENT: CONFIDENCE Reference Standard (Level 1)
COMMENT: Chromatography method: dx.doi.org/10.1016/j.chroma.2015.11.014
COMMENT: Acquisition method: 10.1002/rcm.8541
CH$NAME: Iotalamic acid
CH$COMPOUND_CLASS: Pharmaceutical
CH$FORMULA: C11H9I3N2O4
CH$EXACT_MASS: 613.7697
CH$SMILES: CNC(c1c(I)c(C(O)=O)c(I)c(NC(C)=O)c1I)=O
CH$IUPAC: InChI=1S/C11H9I3N2O4/c1-3(17)16-9-7(13)4(10(18)15-2)6(12)5(8(9)14)11(19)20/h1-2H3,(H,15,18)(H,16,17)(H,19,20)
CH$LINK: CAS 2276-90-6
CH$LINK: INCHIKEY UXIGWFXRQKWHHA-UHFFFAOYSA-N
AC$INSTRUMENT: TripleTOF 5600 SCIEX
AC$INSTRUMENT_TYPE: LC-ESI-QTOF
AC$MASS_SPECTROMETRY: MS_TYPE MS2
AC$MASS_SPECTROMETRY: ION_MODE POSITIVE
AC$MASS_SPECTROMETRY: COLLISION_ENERGY 70
AC$MASS_SPECTROMETRY: FRAGMENTATION_MODE CID
AC$MASS_SPECTROMETRY: IONIZATION ESI
AC$CHROMATOGRAPHY: COLUMN_NAME Zorbax Eclipse Plus C18 2.1 mm x 150 mm, 3.5 um, Agilent
AC$CHROMATOGRAPHY: COLUMN_TEMPERATURE 40 °C
AC$CHROMATOGRAPHY: FLOW_GRADIENT 0 min min 98% A, 1 min 98% A, 2 min 80% A, 16.5 min 2% A, 22 min 2% A, 22.1 min 98% A, 27 min 98% A
AC$CHROMATOGRAPHY: FLOW_RATE 0.3 mL/min
AC$CHROMATOGRAPHY: RETENTION_TIME 4.565 min
AC$CHROMATOGRAPHY: SOLVENT A: Water 0.1% Formic acid, B: Acetonitrile 0.1% Formic acid
MS$FOCUSED_ION: PRECURSOR_M/Z 614.7769
MS$FOCUSED_ION: PRECURSOR_TYPE [M+H]+
MS$DATA_PROCESSING: COMMENT Export with Spectra 1.9.12 MsBackendMassbank 1.7.4
MS$DATA_PROCESSING: WHOLE RMassBank 2.3.1
PK$SPLASH: splash10-0fb9-0955100000-4d81230d93765c16dc5a
PK$NUM_PEAK: 50
PK$PEAK: m/z int. rel.int.
  118.0541 0.4 22
  119.0368 0.5 28
  130.0271 0.5 28
  131.038 0.5 28
  132.0442 0.6 34
  133.0525 1.2 68
  135.0327 0.5 28
  146.0234 0.6 34
  146.0474 1.4 80
  148.0631 0.5 28
  158.0241 3.1 177
  159.0532 0.8 45
  174.0171 0.9 51
  174.0327 0.4 22
  176.0317 0.7 40
  177.0419 17.4 999
  187.0493 0.9 51
  191.0525 0.5 28
  203.9317 0.8 45
  205.945 0.6 34
  231.9266 0.7 40
  232.9339 0.6 34
  245.9376 0.9 51
  256.9376 0.6 34
  257.9398 2.3 132
  259.9198 0.6 34
  261.9338 0.9 51
  272.9311 1 57
  272.9521 1.1 63
  273.9369 3.3 189
  283.918 0.6 34
  284.9288 2.2 126
  285.9437 0.4 22
  289.9303 1.1 63
  300.947 1.9 109
  301.9308 7.9 453
  302.9407 1.6 91
  318.9618 0.9 51
  329.9301 1 57
  355.8472 0.9 51
  359.8384 1.1 63
  360.966 1.1 63
  381.8149 0.5 28
  383.848 1.1 63
  387.8321 0.9 51
  399.8401 0.6 34
  411.8332 0.6 34
  415.8248 2.2 126
  455.8285 1.6 91
  468.8589 0.9 51
//
