ACCESSION: MSBNK-BAFG-CSL2310251528
RECORD_TITLE: Acid Red 1; LC-ESI-QTOF; MS2; 110 V
DATE: 2023.10.25
AUTHORS: Kevin S. Jewell; Björn Ehlig; Arne Wick
LICENSE: dl-de/by-2-0
COPYRIGHT: Copyright 2023 Federal Institute of Hydrology, Koblenz, Germany
COMMENT: CONFIDENCE Reference Standard (Level 1)
COMMENT: Chromatography method: dx.doi.org/10.1016/j.chroma.2015.11.014
COMMENT: Acquisition method: 10.1002/rcm.8541
CH$NAME: Acid Red 1
CH$COMPOUND_CLASS: Industrial_process; Personal_care_product; Pigment; Food_additive
CH$FORMULA: C18H15N3O8S2
CH$EXACT_MASS: 465.0301
CH$SMILES: CC(NC1=C2C(C=C(S(=O)(O)=O)/C(C2=O)=N\NC3=CC=CC=C3)=CC(S(=O)(O)=O)=C1)=O
CH$IUPAC: InChI=1S/C18H15N3O8S2/c1-10(22)19-14-9-13(30(24,25)26)7-11-8-15(31(27,28)29)17(18(23)16(11)14)21-20-12-5-3-2-4-6-12/h2-9,20H,1H3,(H,19,22)(H,24,25,26)(H,27,28,29)/b21-17+
CH$LINK: CAS 3734-67-6
CH$LINK: INCHIKEY UUCLAYPOUDNUHR-HEHNFIMWSA-N
AC$INSTRUMENT: TripleTOF 5600 SCIEX
AC$INSTRUMENT_TYPE: LC-ESI-QTOF
AC$MASS_SPECTROMETRY: MS_TYPE MS2
AC$MASS_SPECTROMETRY: ION_MODE NEGATIVE
AC$MASS_SPECTROMETRY: COLLISION_ENERGY 110
AC$MASS_SPECTROMETRY: FRAGMENTATION_MODE CID
AC$MASS_SPECTROMETRY: IONIZATION ESI
AC$CHROMATOGRAPHY: COLUMN_NAME Zorbax Eclipse Plus C18 2.1 mm x 150 mm, 3.5 um, Agilent
AC$CHROMATOGRAPHY: COLUMN_TEMPERATURE 40 °C
AC$CHROMATOGRAPHY: FLOW_GRADIENT 0 min min 98% A, 1 min 98% A, 2 min 80% A, 16.5 min 2% A, 22 min 2% A, 22.1 min 98% A, 27 min 98% A
AC$CHROMATOGRAPHY: FLOW_RATE 0.3 mL/min
AC$CHROMATOGRAPHY: RETENTION_TIME 7.21 min
AC$CHROMATOGRAPHY: SOLVENT A: Water 0.1% Formic acid, B: Acetonitrile 0.1% Formic acid
MS$FOCUSED_ION: PRECURSOR_M/Z 464.0228
MS$FOCUSED_ION: PRECURSOR_TYPE [M-H]-
MS$DATA_PROCESSING: COMMENT Export with Spectra 1.9.12 MsBackendMassbank 1.7.4
MS$DATA_PROCESSING: WHOLE RMassBank 2.3.1
PK$SPLASH: splash10-004i-4900000000-b4a3c023df1347d6b3d3
PK$NUM_PEAK: 24
PK$PEAK: m/z int. rel.int.
  65.997 0.1 52
  66.0061 0.1 52
  79.9568 1.9 999
  79.9734 0.1 52
  80.9638 0.1 52
  114.0232 0.3 157
  116.012 0.2 105
  116.0538 0.1 52
  118.0307 0.1 52
  128.045 0.2 105
  128.057 0.1 52
  129.0321 0.2 105
  143.0238 1 525
  144.053 0.1 52
  145.0267 0.1 52
  156.0341 0.2 105
  156.0496 0.1 52
  157.0169 0.3 157
  157.0337 0.4 210
  157.0536 0.1 52
  158.0194 0.1 52
  160.0381 0.2 105
  184.0362 0.1 52
  185.0352 0.5 262
//
