ACCESSION: MSBNK-BAFG-CSL25010627964
RECORD_TITLE: N-[2-[(2-Bromo-4,6-dinitrophenyl)azo]-5-(diethylamino)phenyl]acetamide; LC-ESI-QTOF; MS2; 30 V
DATE: 2025.01.06
AUTHORS: Ole Lessmann; Kevin S. Jewell; Björn Ehlig; Arne Wick
LICENSE: dl-de/by-2-0
COPYRIGHT: Copyright 2025 Federal Institute of Hydrology, Koblenz, Germany
COMMENT: CONFIDENCE Reference Standard (Level 1)
COMMENT: Chromatography method: dx.doi.org/10.1016/j.chroma.2015.11.014
COMMENT: Acquisition method: 10.1002/rcm.8541
CH$NAME: N-[2-[(2-Bromo-4,6-dinitrophenyl)azo]-5-(diethylamino)phenyl]acetamide
CH$FORMULA: C18H19BrN6O5
CH$EXACT_MASS: 478.06
CH$SMILES: CCN(CC)C1=CC(=C(C=C1)N=NC2=C(C=C(C=C2Br)[N+](=O)[O-])[N+](=O)[O-])NC(=O)C
CH$IUPAC: InChI=1S/C18H19BrN6O5/c1-4-23(5-2)12-6-7-15(16(9-12)20-11(3)26)21-22-18-14(19)8-13(24(27)28)10-17(18)25(29)30/h6-10H,4-5H2,1-3H3,(H,20,26)
CH$LINK: CAS 52697-38-8
CH$LINK: INCHIKEY WFFKSTRPZWRBEW-UHFFFAOYSA-N
AC$INSTRUMENT: TripleTOF X500R SCIEX
AC$INSTRUMENT_TYPE: LC-ESI-QTOF
AC$MASS_SPECTROMETRY: MS_TYPE MS2
AC$MASS_SPECTROMETRY: ION_MODE POSITIVE
AC$MASS_SPECTROMETRY: COLLISION_ENERGY 30
AC$MASS_SPECTROMETRY: FRAGMENTATION_MODE CID
AC$MASS_SPECTROMETRY: IONIZATION ESI
AC$CHROMATOGRAPHY: COLUMN_NAME Zorbax Eclipse Plus C18 2.1 mm x 150 mm, 3.5 um, Agilent
AC$CHROMATOGRAPHY: COLUMN_TEMPERATURE 40 °C
AC$CHROMATOGRAPHY: FLOW_GRADIENT 0 min min 98% A, 1 min 98% A, 2 min 80% A, 16.5 min 2% A, 22 min 2% A, 22.1 min 98% A, 27 min 98% A
AC$CHROMATOGRAPHY: FLOW_RATE 0.3 mL/min
AC$CHROMATOGRAPHY: RETENTION_TIME 16.579 min
AC$CHROMATOGRAPHY: SOLVENT A: Water 0.1% Formic acid, B: Acetonitrile 0.1% Formic acid
MS$FOCUSED_ION: PRECURSOR_M/Z 479.0673
MS$FOCUSED_ION: PRECURSOR_TYPE [M+H]+
MS$DATA_PROCESSING: COMMENT Export with pycsl 0.1.0.dev1 and CSL 24.4
PK$SPLASH: splash10-0573-0540900000-2d1e96a55e3ff557cbd7
PK$NUM_PEAK: 22
PK$PEAK: m/z int. rel.int.
  121.0768 2.4 12
  149.1078 2.4 12
  162.1033 9.1 45
  163.0874 8.0 40
  163.1247 2.6 13
  177.1031 32.0 161
  178.1104 14.4 72
  191.118 198.1 999
  204.1135 3.4 17
  205.1085 6.9 34
  205.1316 2.3 11
  206.1414 172.7 870
  272.9262 3.4 17
  345.0481 2.0 10
  375.0454 6.9 34
  391.0563 6.7 33
  409.0264 23.3 117
  420.0534 9.4 47
  437.0571 162.7 820
  450.0297 21.3 107
  451.0379 7.6 38
  479.0678 185.3 934
//