ACCESSION: MSBNK-BAFG-CSL2310263362
RECORD_TITLE: 2-(5-Chloro-2-methoxyphenyl)-1H-benzimidazole; LC-ESI-QTOF; MS2; 60 V
DATE: 2023.10.26
AUTHORS: Kevin S. Jewell; Björn Ehlig; Arne Wick
LICENSE: dl-de/by-2-0
COPYRIGHT: Copyright 2023 Federal Institute of Hydrology, Koblenz, Germany
COMMENT: CONFIDENCE Reference Standard (Level 1)
COMMENT: Chromatography method: dx.doi.org/10.1016/j.chroma.2015.11.014
COMMENT: Acquisition method: 10.1002/rcm.8541
CH$NAME: 2-(5-Chloro-2-methoxyphenyl)-1H-benzimidazole
CH$COMPOUND_CLASS: Pharmaceutical
CH$FORMULA: C14H11ClN2O
CH$EXACT_MASS: 258.056
CH$SMILES: COc1ccc(cc1c2[nH]c3ccccc3n2)Cl
CH$IUPAC: InChI=1S/C14H11ClN2O/c1-18-13-7-6-9(15)8-10(13)14-16-11-4-2-3-5-12(11)17-14/h2-8H,1H3,(H,16,17)
CH$LINK: CAS 62871-15-2
CH$LINK: INCHIKEY QDVCOIQHTAYVOM-UHFFFAOYSA-N
AC$INSTRUMENT: TripleTOF 5600 SCIEX
AC$INSTRUMENT_TYPE: LC-ESI-QTOF
AC$MASS_SPECTROMETRY: MS_TYPE MS2
AC$MASS_SPECTROMETRY: ION_MODE POSITIVE
AC$MASS_SPECTROMETRY: COLLISION_ENERGY 60
AC$MASS_SPECTROMETRY: FRAGMENTATION_MODE CID
AC$MASS_SPECTROMETRY: IONIZATION ESI
AC$CHROMATOGRAPHY: COLUMN_NAME Zorbax Eclipse Plus C18 2.1 mm x 150 mm, 3.5 um, Agilent
AC$CHROMATOGRAPHY: COLUMN_TEMPERATURE 40 °C
AC$CHROMATOGRAPHY: FLOW_GRADIENT 0 min min 98% A, 1 min 98% A, 2 min 80% A, 16.5 min 2% A, 22 min 2% A, 22.1 min 98% A, 27 min 98% A
AC$CHROMATOGRAPHY: FLOW_RATE 0.3 mL/min
AC$CHROMATOGRAPHY: RETENTION_TIME 7.374 min
AC$CHROMATOGRAPHY: SOLVENT A: Water 0.1% Formic acid, B: Acetonitrile 0.1% Formic acid
MS$FOCUSED_ION: PRECURSOR_M/Z 259.0633
MS$FOCUSED_ION: PRECURSOR_TYPE [M+H]+
MS$DATA_PROCESSING: COMMENT Export with Spectra 1.9.12 MsBackendMassbank 1.7.4
MS$DATA_PROCESSING: WHOLE RMassBank 2.3.1
PK$SPLASH: splash10-001i-0910000000-3daeb884cf53ebc5eb46
PK$NUM_PEAK: 18
PK$PEAK: m/z int. rel.int.
  65.044 11.8 21
  77.0423 21.8 40
  90.0355 8.4 15
  92.051 6.9 12
  127.0545 28.8 52
  128.0537 17.1 31
  129.0692 7.4 13
  153.0572 8.9 16
  154.0658 65 119
  155.0604 12.9 23
  179.0604 21.6 39
  180.068 39.6 72
  181.077 543.2 999
  203.0367 8.3 15
  209.0714 6.9 12
  215.0373 17.9 32
  216.0451 89.2 164
  244.0389 13.9 25
//
