ACCESSION: MSBNK-BAFG-CSL25010627939
RECORD_TITLE: Sudan III; LC-ESI-QTOF; MS2; 50 V
DATE: 2025.01.06
AUTHORS: Ole Lessmann; Kevin S. Jewell; Björn Ehlig; Arne Wick
LICENSE: dl-de/by-2-0
COPYRIGHT: Copyright 2025 Federal Institute of Hydrology, Koblenz, Germany
COMMENT: CONFIDENCE Reference Standard (Level 1)
COMMENT: Chromatography method: dx.doi.org/10.1016/j.chroma.2015.11.014
COMMENT: Acquisition method: 10.1002/rcm.8541
CH$NAME: Sudan III
CH$FORMULA: C22H16N4O
CH$EXACT_MASS: 352.1324
CH$SMILES: C1=CC=C(C=C1)N=NC2=CC=C(C=C2)N=NC3=C(C=CC4=CC=CC=C43)O
CH$IUPAC: InChI=1S/C22H16N4O/c27-21-15-10-16-6-4-5-9-20(16)22(21)26-25-19-13-11-18(12-14-19)24-23-17-7-2-1-3-8-17/h1-15,27H
CH$LINK: CAS 85-86-9
CH$LINK: INCHIKEY FHNINJWBTRXEBC-UHFFFAOYSA-N
AC$INSTRUMENT: TripleTOF X500R SCIEX
AC$INSTRUMENT_TYPE: LC-ESI-QTOF
AC$MASS_SPECTROMETRY: MS_TYPE MS2
AC$MASS_SPECTROMETRY: ION_MODE POSITIVE
AC$MASS_SPECTROMETRY: COLLISION_ENERGY 50
AC$MASS_SPECTROMETRY: FRAGMENTATION_MODE CID
AC$MASS_SPECTROMETRY: IONIZATION ESI
AC$CHROMATOGRAPHY: COLUMN_NAME Zorbax Eclipse Plus C18 2.1 mm x 150 mm, 3.5 um, Agilent
AC$CHROMATOGRAPHY: COLUMN_TEMPERATURE 40 °C
AC$CHROMATOGRAPHY: FLOW_GRADIENT 0 min min 98% A, 1 min 98% A, 2 min 80% A, 16.5 min 2% A, 22 min 2% A, 22.1 min 98% A, 27 min 98% A
AC$CHROMATOGRAPHY: FLOW_RATE 0.3 mL/min
AC$CHROMATOGRAPHY: RETENTION_TIME 19.216 min
AC$CHROMATOGRAPHY: SOLVENT A: Water 0.1% Formic acid, B: Acetonitrile 0.1% Formic acid
MS$FOCUSED_ION: PRECURSOR_M/Z 353.1397
MS$FOCUSED_ION: PRECURSOR_TYPE [M+H]+
MS$DATA_PROCESSING: COMMENT Export with pycsl 0.1.0.dev1 and CSL 24.4
PK$SPLASH: splash10-004m-4900000000-7e12d8f28ef5fc3715ca
PK$NUM_PEAK: 41
PK$PEAK: m/z int. rel.int.
  51.023 1.0 41
  59.0316 2.4 99
  60.0331 1.2 49
  65.0391 1.4 57
  73.0473 0.6 24
  77.039 22.3 920
  91.0426 5.5 227
  92.0499 13.5 557
  93.0562 0.6 24
  101.0388 2.8 115
  102.035 0.5 20
  105.0466 0.9 37
  115.0542 9.7 400
  118.065 0.5 20
  120.0554 1.3 53
  128.0498 24.2 999
  129.0501 0.8 33
  141.0704 4.2 173
  143.0501 8.2 338
  151.0545 0.5 20
  153.0563 0.9 37
  156.0455 4.8 198
  166.0668 0.5 20
  167.0729 3.0 123
  168.0805 2.2 90
  169.077 3.5 144
  170.0722 1.3 53
  179.0602 1.0 41
  181.0768 1.8 74
  182.0838 0.8 33
  196.0878 20.4 842
  197.0946 8.1 334
  198.1013 0.7 28
  203.0717 0.5 20
  218.0865 0.5 20
  219.0931 1.1 45
  229.0805 0.4 16
  231.0902 1.2 49
  232.088 2.3 94
  247.0891 1.0 41
  353.141 0.5 20
//