ACCESSION: MSBNK-BAFG-CSL23111018597
RECORD_TITLE: Diazepam; LC-ESI-QTOF; MS2; 30 V
DATE: 2023.11.10
AUTHORS: Kevin S. Jewell; Björn Ehlig; Arne Wick
LICENSE: dl-de/by-2-0
COPYRIGHT: Copyright 2023 Federal Institute of Hydrology, Koblenz, Germany
COMMENT: CONFIDENCE Reference Standard (Level 1)
COMMENT: Chromatography method: dx.doi.org/10.1016/j.chroma.2015.11.014
COMMENT: Acquisition method: 10.1002/rcm.8541
CH$NAME: Diazepam
CH$COMPOUND_CLASS: Pharmaceutical
CH$FORMULA: C16H13ClN2O
CH$EXACT_MASS: 284.0716
CH$SMILES: CN1C(=O)CN=C(C2=C1C=CC(=C2)Cl)C3=CC=CC=C3
CH$IUPAC: InChI=1S/C16H13ClN2O/c1-19-14-8-7-12(17)9-13(14)16(18-10-15(19)20)11-5-3-2-4-6-11/h2-9H,10H2,1H3
CH$LINK: CAS 439-14-5
CH$LINK: INCHIKEY AAOVKJBEBIDNHE-UHFFFAOYSA-N
AC$INSTRUMENT: TripleTOF 6600 SCIEX
AC$INSTRUMENT_TYPE: LC-ESI-QTOF
AC$MASS_SPECTROMETRY: MS_TYPE MS2
AC$MASS_SPECTROMETRY: ION_MODE POSITIVE
AC$MASS_SPECTROMETRY: COLLISION_ENERGY 30
AC$MASS_SPECTROMETRY: FRAGMENTATION_MODE CID
AC$MASS_SPECTROMETRY: IONIZATION ESI
AC$CHROMATOGRAPHY: COLUMN_NAME Zorbax Eclipse Plus C18 2.1 mm x 150 mm, 3.5 um, Agilent
AC$CHROMATOGRAPHY: COLUMN_TEMPERATURE 40 °C
AC$CHROMATOGRAPHY: FLOW_GRADIENT 0 min min 98% A, 1 min 98% A, 2 min 80% A, 16.5 min 2% A, 22 min 2% A, 22.1 min 98% A, 27 min 98% A
AC$CHROMATOGRAPHY: FLOW_RATE 0.3 mL/min
AC$CHROMATOGRAPHY: RETENTION_TIME 11.181 min
AC$CHROMATOGRAPHY: SOLVENT A: Water 0.1% Formic acid, B: Acetonitrile 0.1% Formic acid
MS$FOCUSED_ION: PRECURSOR_M/Z 285.0789
MS$FOCUSED_ION: PRECURSOR_TYPE [M+H]+
MS$DATA_PROCESSING: COMMENT Export with Spectra 1.9.12 MsBackendMassbank 1.7.4
MS$DATA_PROCESSING: WHOLE RMassBank 2.3.1
PK$SPLASH: splash10-000i-0290000000-3e40a9c8f93402ce0705
PK$NUM_PEAK: 17
PK$PEAK: m/z int. rel.int.
  91.0534 60.4 13
  105.0326 80.5 17
  154.041 667.6 146
  167.0118 55.1 12
  172.0622 64.5 14
  179.036 68.5 15
  180.0204 69.8 15
  182.0357 177.7 38
  193.0882 495.3 108
  221.1062 71 15
  222.115 617.3 135
  227.0496 52 11
  228.0574 570.1 125
  241.0531 106.3 23
  255.0679 80.8 17
  257.0843 1000.4 219
  285.0796 4553.8 999
//
