ACCESSION: MSBNK-BAFG-CSL23111014928
RECORD_TITLE: N-Cyclohexyl-1,3-benzothiazol-2-amine; LC-ESI-QTOF; MS2; 80 V
DATE: 2023.11.10
AUTHORS: Kevin S. Jewell; Björn Ehlig; Arne Wick
LICENSE: dl-de/by-2-0
COPYRIGHT: Copyright 2023 Federal Institute of Hydrology, Koblenz, Germany
COMMENT: CONFIDENCE Reference Standard (Level 1)
COMMENT: Chromatography method: dx.doi.org/10.1016/j.chroma.2015.11.014
COMMENT: Acquisition method: 10.1002/rcm.8541
CH$NAME: N-Cyclohexyl-1,3-benzothiazol-2-amine
CH$FORMULA: C13H16N2S
CH$EXACT_MASS: 232.1034
CH$SMILES: C1CCC(CC1)NC2=NC3=CC=CC=C3S2
CH$IUPAC: InChI=1S/C13H16N2S/c1-2-6-10(7-3-1)14-13-15-11-8-4-5-9-12(11)16-13/h4-5,8-10H,1-3,6-7H2,(H,14,15)
CH$LINK: CAS 28291-75-0
CH$LINK: INCHIKEY UPWPIFMHSFSVLE-UHFFFAOYSA-N
AC$INSTRUMENT: TripleTOF 6600 SCIEX
AC$INSTRUMENT_TYPE: LC-ESI-QTOF
AC$MASS_SPECTROMETRY: MS_TYPE MS2
AC$MASS_SPECTROMETRY: ION_MODE POSITIVE
AC$MASS_SPECTROMETRY: COLLISION_ENERGY 80
AC$MASS_SPECTROMETRY: FRAGMENTATION_MODE CID
AC$MASS_SPECTROMETRY: IONIZATION ESI
AC$CHROMATOGRAPHY: COLUMN_NAME Zorbax Eclipse Plus C18 2.1 mm x 150 mm, 3.5 um, Agilent
AC$CHROMATOGRAPHY: COLUMN_TEMPERATURE 40 °C
AC$CHROMATOGRAPHY: FLOW_GRADIENT 0 min min 98% A, 1 min 98% A, 2 min 80% A, 16.5 min 2% A, 22 min 2% A, 22.1 min 98% A, 27 min 98% A
AC$CHROMATOGRAPHY: FLOW_RATE 0.3 mL/min
AC$CHROMATOGRAPHY: RETENTION_TIME 9.082 min
AC$CHROMATOGRAPHY: SOLVENT A: Water 0.1% Formic acid, B: Acetonitrile 0.1% Formic acid
MS$FOCUSED_ION: PRECURSOR_M/Z 233.1107
MS$FOCUSED_ION: PRECURSOR_TYPE [M+H]+
MS$DATA_PROCESSING: COMMENT Export with Spectra 1.9.12 MsBackendMassbank 1.7.4
MS$DATA_PROCESSING: WHOLE RMassBank 2.3.1
PK$SPLASH: splash10-066r-9200000000-782b932c5b0786149449
PK$NUM_PEAK: 23
PK$PEAK: m/z int. rel.int.
  37.0067 10.8 33
  38.0143 10.3 31
  39.0227 102.7 317
  41.0382 23.3 72
  51.022 7.4 22
  53.0379 30.6 94
  55.0537 90.3 279
  63.022 9.9 30
  64.0173 3.6 11
  65.0381 323 999
  68.9786 66.4 205
  77.0375 27.9 86
  80.0487 132.6 410
  90.0326 10.2 31
  91.0406 21.3 65
  92.0487 9.1 28
  96.0014 4.3 13
  97.009 9.8 30
  108.0016 17 52
  109.0097 179 553
  118.0513 19.6 60
  124.02 17.5 54
  151.0308 5 15
//
