ACCESSION: MSBNK-BAFG-CSL25010627887
RECORD_TITLE: Cyproconazole; LC-ESI-QTOF; MS2; 120 V
DATE: 2025.01.06
AUTHORS: Ole Lessmann; Kevin S. Jewell; Björn Ehlig; Arne Wick
LICENSE: dl-de/by-2-0
COPYRIGHT: Copyright 2025 Federal Institute of Hydrology, Koblenz, Germany
COMMENT: CONFIDENCE Reference Standard (Level 1)
COMMENT: Chromatography method: dx.doi.org/10.1016/j.chroma.2015.11.014
COMMENT: Acquisition method: 10.1002/rcm.8541
CH$NAME: Cyproconazole
CH$COMPOUND_CLASS: Fungicide
CH$FORMULA: C15H18ClN3O
CH$EXACT_MASS: 291.1138
CH$SMILES: CC(C1CC1)C(CN2C=NC=N2)(C3=CC=C(C=C3)Cl)O
CH$IUPAC: InChI=1S/C15H18ClN3O/c1-11(12-2-3-12)15(20,8-19-10-17-9-18-19)13-4-6-14(16)7-5-13/h4-7,9-12,20H,2-3,8H2,1H3
CH$LINK: CAS 94361-06-5
CH$LINK: INCHIKEY UFNOUKDBUJZYDE-UHFFFAOYSA-N
AC$INSTRUMENT: TripleTOF 6600 SCIEX
AC$INSTRUMENT_TYPE: LC-ESI-QTOF
AC$MASS_SPECTROMETRY: MS_TYPE MS2
AC$MASS_SPECTROMETRY: ION_MODE POSITIVE
AC$MASS_SPECTROMETRY: COLLISION_ENERGY 120
AC$MASS_SPECTROMETRY: FRAGMENTATION_MODE CID
AC$MASS_SPECTROMETRY: IONIZATION ESI
AC$CHROMATOGRAPHY: COLUMN_NAME Zorbax Eclipse Plus C18 2.1 mm x 150 mm, 3.5 um, Agilent
AC$CHROMATOGRAPHY: COLUMN_TEMPERATURE 40 °C
AC$CHROMATOGRAPHY: FLOW_GRADIENT 0 min min 98% A, 1 min 98% A, 2 min 80% A, 16.5 min 2% A, 22 min 2% A, 22.1 min 98% A, 27 min 98% A
AC$CHROMATOGRAPHY: FLOW_RATE 0.3 mL/min
AC$CHROMATOGRAPHY: RETENTION_TIME 11.30515 min
AC$CHROMATOGRAPHY: SOLVENT A: Water 0.1% Formic acid, B: Acetonitrile 0.1% Formic acid
MS$FOCUSED_ION: PRECURSOR_M/Z 292.1211
MS$FOCUSED_ION: PRECURSOR_TYPE [M+H]+
MS$DATA_PROCESSING: COMMENT Export with pycsl 0.1.0.dev1 and CSL 24.4
PK$SPLASH: splash10-022i-9000000000-fbe336f8eadef1c05c6c
PK$NUM_PEAK: 35
PK$PEAK: m/z int. rel.int.
  35.9965 0.7 11
  37.0038 3.9 62
  38.0118 4.3 68
  39.0196 14.3 227
  41.035 1.4 22
  42.0172 2.5 39
  43.0254 42.1 669
  46.964 4.0 63
  48.9794 8.7 138
  49.0026 1.1 17
  50.0105 6.7 106
  51.0182 6.6 104
  59.994 0.9 14
  61.0019 8.8 139
  62.0094 22.3 354
  63.0173 52.2 830
  64.0248 4.7 74
  65.0327 3.4 54
  70.0335 59.2 941
  72.9773 37.0 588
  73.0012 0.8 12
  74.0084 21.9 348
  74.9935 1.6 25
  75.0162 17.1 272
  76.0233 1.0 15
  77.0314 1.9 30
  84.9759 3.5 55
  89.0304 62.8 999
  90.0382 8.2 130
  96.9748 1.3 20
  98.9901 13.2 209
  102.0371 1.0 15
  115.0431 2.1 33
  125.0036 2.1 33
  128.0511 0.8 12
//