ACCESSION: MSBNK-BAFG-CSL23110917123
RECORD_TITLE: Chlormethiazole; LC-ESI-QTOF; MS2; 40 V
DATE: 2023.11.09
AUTHORS: Kevin S. Jewell; Björn Ehlig; Arne Wick
LICENSE: dl-de/by-2-0
COPYRIGHT: Copyright 2023 Federal Institute of Hydrology, Koblenz, Germany
COMMENT: CONFIDENCE Reference Standard (Level 1)
COMMENT: Chromatography method: dx.doi.org/10.1016/j.chroma.2015.11.014
COMMENT: Acquisition method: 10.1002/rcm.8541
CH$NAME: Chlormethiazole
CH$COMPOUND_CLASS: Pharmaceutical
CH$FORMULA: C6H8ClNS
CH$EXACT_MASS: 161.0066
CH$SMILES: CC1=C(SC=N1)CCCl
CH$IUPAC: InChI=1S/C6H8ClNS/c1-5-6(2-3-7)9-4-8-5/h4H,2-3H2,1H3
CH$LINK: CAS 533-45-9
CH$LINK: INCHIKEY PCLITLDOTJTVDJ-UHFFFAOYSA-N
AC$INSTRUMENT: TripleTOF 6600 SCIEX
AC$INSTRUMENT_TYPE: LC-ESI-QTOF
AC$MASS_SPECTROMETRY: MS_TYPE MS2
AC$MASS_SPECTROMETRY: ION_MODE POSITIVE
AC$MASS_SPECTROMETRY: COLLISION_ENERGY 40
AC$MASS_SPECTROMETRY: FRAGMENTATION_MODE CID
AC$MASS_SPECTROMETRY: IONIZATION ESI
AC$CHROMATOGRAPHY: COLUMN_NAME Zorbax Eclipse Plus C18 2.1 mm x 150 mm, 3.5 um, Agilent
AC$CHROMATOGRAPHY: COLUMN_TEMPERATURE 40 °C
AC$CHROMATOGRAPHY: FLOW_GRADIENT 0 min min 98% A, 1 min 98% A, 2 min 80% A, 16.5 min 2% A, 22 min 2% A, 22.1 min 98% A, 27 min 98% A
AC$CHROMATOGRAPHY: FLOW_RATE 0.3 mL/min
AC$CHROMATOGRAPHY: RETENTION_TIME 7.946 min
AC$CHROMATOGRAPHY: SOLVENT A: Water 0.1% Formic acid, B: Acetonitrile 0.1% Formic acid
MS$FOCUSED_ION: PRECURSOR_M/Z 162.0139
MS$FOCUSED_ION: PRECURSOR_TYPE [M+H]+
MS$DATA_PROCESSING: COMMENT Export with Spectra 1.9.12 MsBackendMassbank 1.7.4
MS$DATA_PROCESSING: WHOLE RMassBank 2.3.1
PK$SPLASH: splash10-03di-3900000000-f4722bf54e41b1467d53
PK$NUM_PEAK: 21
PK$PEAK: m/z int. rel.int.
  39.0227 2 25
  42.0337 3.4 43
  44.9794 2.7 34
  53.0388 1.2 15
  55.0416 2 25
  55.0537 1.5 19
  58.9949 2.9 36
  65.0385 6.7 85
  68.049 1.3 16
  70.9945 12.4 157
  72.0029 4.6 58
  80.0489 6.3 80
  85.01 6 76
  86.0176 2.8 35
  97.01 1.3 16
  98.0055 2.1 26
  99.0254 4 50
  112.0211 41.5 527
  113.029 78.6 999
  126.0366 22.1 280
  162.013 8.2 104
//
