ACCESSION: MSBNK-BAFG-CSL25010634441
RECORD_TITLE: p-Phenetidine; LC-ESI-QTOF; MS2; 40 V
DATE: 2025.01.06
AUTHORS: Ole Lessmann; Kevin S. Jewell; Björn Ehlig; Arne Wick
LICENSE: dl-de/by-2-0
COPYRIGHT: Copyright 2025 Federal Institute of Hydrology, Koblenz, Germany
COMMENT: CONFIDENCE Reference Standard (Level 1)
COMMENT: Chromatography method: dx.doi.org/10.1016/j.chroma.2015.11.014
COMMENT: Acquisition method: 10.1002/rcm.8541
CH$NAME: p-Phenetidine
CH$FORMULA: C8H11NO
CH$EXACT_MASS: 137.0841
CH$SMILES: CCOC1=CC=C(C=C1)N
CH$IUPAC: InChI=1S/C8H11NO/c1-2-10-8-5-3-7(9)4-6-8/h3-6H,2,9H2,1H3
CH$LINK: CAS 156-43-4
CH$LINK: INCHIKEY IMPPGHMHELILKG-UHFFFAOYSA-N
AC$INSTRUMENT: TripleTOF 6600 SCIEX
AC$INSTRUMENT_TYPE: LC-ESI-QTOF
AC$MASS_SPECTROMETRY: MS_TYPE MS2
AC$MASS_SPECTROMETRY: ION_MODE POSITIVE
AC$MASS_SPECTROMETRY: COLLISION_ENERGY 40
AC$MASS_SPECTROMETRY: FRAGMENTATION_MODE CID
AC$MASS_SPECTROMETRY: IONIZATION ESI
AC$CHROMATOGRAPHY: COLUMN_NAME Zorbax Eclipse Plus C18 2.1 mm x 150 mm, 3.5 um, Agilent
AC$CHROMATOGRAPHY: COLUMN_TEMPERATURE 40 °C
AC$CHROMATOGRAPHY: FLOW_GRADIENT 0 min min 98% A, 1 min 98% A, 2 min 80% A, 16.5 min 2% A, 22 min 2% A, 22.1 min 98% A, 27 min 98% A
AC$CHROMATOGRAPHY: FLOW_RATE 0.3 mL/min
AC$CHROMATOGRAPHY: RETENTION_TIME 4.84 min
AC$CHROMATOGRAPHY: SOLVENT A: Water 0.1% Formic acid, B: Acetonitrile 0.1% Formic acid
MS$FOCUSED_ION: PRECURSOR_M/Z 138.0914
MS$FOCUSED_ION: PRECURSOR_TYPE [M+H]+
MS$DATA_PROCESSING: COMMENT Export with pycsl 0.1.0.dev1 and CSL 24.4
PK$SPLASH: splash10-015c-9200000000-9c16bc0afe9e17e30c80
PK$NUM_PEAK: 24
PK$PEAK: m/z int. rel.int.
  37.0084 3.2 25
  38.0166 2.1 17
  39.0243 27.1 220
  42.0342 1.4 11
  51.0244 1.6 12
  53.0398 1.6 12
  63.0239 5.0 40
  64.0315 2.1 17
  65.0395 123.0 999
  66.0477 3.1 25
  67.0419 5.6 45
  77.0397 6.3 51
  80.0502 52.3 424
  81.0578 15.1 122
  82.0657 5.6 45
  91.0566 1.4 11
  92.0506 24.6 199
  93.0348 37.1 301
  93.0581 21.7 176
  108.0444 18.7 151
  109.0524 29.6 240
  110.061 32.2 261
  121.0399 2.6 21
  138.0946 2.3 18
//