ACCESSION: MSBNK-BAFG-CSL25010634234
RECORD_TITLE: 4,4`-Thiodianiline; LC-ESI-QTOF; MS2; 80 V
DATE: 2025.01.06
AUTHORS: Ole Lessmann; Kevin S. Jewell; Björn Ehlig; Arne Wick
LICENSE: dl-de/by-2-0
COPYRIGHT: Copyright 2025 Federal Institute of Hydrology, Koblenz, Germany
COMMENT: CONFIDENCE Reference Standard (Level 1)
COMMENT: Chromatography method: dx.doi.org/10.1016/j.chroma.2015.11.014
COMMENT: Acquisition method: 10.1002/rcm.8541
CH$NAME: 4,4`-Thiodianiline
CH$FORMULA: C12H12N2S
CH$EXACT_MASS: 216.0721
CH$SMILES: C1=CC(=CC=C1N)SC2=CC=C(C=C2)N
CH$IUPAC: InChI=1S/C12H12N2S/c13-9-1-5-11(6-2-9)15-12-7-3-10(14)4-8-12/h1-8H,13-14H2
CH$LINK: CAS 139-65-1
CH$LINK: INCHIKEY ICNFHJVPAJKPHW-UHFFFAOYSA-N
AC$INSTRUMENT: TripleTOF 6600 SCIEX
AC$INSTRUMENT_TYPE: LC-ESI-QTOF
AC$MASS_SPECTROMETRY: MS_TYPE MS2
AC$MASS_SPECTROMETRY: ION_MODE POSITIVE
AC$MASS_SPECTROMETRY: COLLISION_ENERGY 80
AC$MASS_SPECTROMETRY: FRAGMENTATION_MODE CID
AC$MASS_SPECTROMETRY: IONIZATION ESI
AC$CHROMATOGRAPHY: COLUMN_NAME Zorbax Eclipse Plus C18 2.1 mm x 150 mm, 3.5 um, Agilent
AC$CHROMATOGRAPHY: COLUMN_TEMPERATURE 40 °C
AC$CHROMATOGRAPHY: FLOW_GRADIENT 0 min min 98% A, 1 min 98% A, 2 min 80% A, 16.5 min 2% A, 22 min 2% A, 22.1 min 98% A, 27 min 98% A
AC$CHROMATOGRAPHY: FLOW_RATE 0.3 mL/min
AC$CHROMATOGRAPHY: RETENTION_TIME 6.429 min
AC$CHROMATOGRAPHY: SOLVENT A: Water 0.1% Formic acid, B: Acetonitrile 0.1% Formic acid
MS$FOCUSED_ION: PRECURSOR_M/Z 217.0794
MS$FOCUSED_ION: PRECURSOR_TYPE [M+H]+
MS$DATA_PROCESSING: COMMENT Export with pycsl 0.1.0.dev1 and CSL 24.4
PK$SPLASH: splash10-001r-9700000000-4576ddf4242a008ab085
PK$NUM_PEAK: 59
PK$PEAK: m/z int. rel.int.
  39.0229 1.1 41
  44.9792 0.7 26
  50.0143 3.9 146
  51.0228 0.8 30
  53.0379 7.9 296
  62.0146 0.6 22
  63.0218 2.2 82
  65.0373 1.4 52
  66.0461 0.9 33
  67.0404 0.5 18
  68.9781 1.5 56
  74.0146 0.7 26
  75.022 0.8 30
  76.0298 2.0 75
  77.0386 3.0 112
  78.0357 1.0 37
  79.0402 0.6 22
  80.0483 26.6 999
  81.0506 0.4 15
  81.9856 0.7 26
  86.0139 0.5 18
  87.022 1.4 52
  88.0308 0.5 18
  89.0375 3.2 120
  91.0398 0.7 26
  92.0471 0.5 18
  92.9774 0.4 15
  93.0573 0.8 30
  96.0013 1.2 45
  97.0093 1.7 63
  101.0397 0.4 15
  102.0455 1.0 37
  113.0367 2.6 97
  114.044 1.3 48
  115.0532 1.8 67
  117.0524 0.4 15
  122.0053 0.5 18
  123.0115 5.7 214
  124.0213 1.7 63
  126.0455 1.7 63
  127.0523 5.5 206
  128.0606 2.7 101
  130.065 0.5 18
  134.0242 0.5 18
  137.0376 1.1 41
  138.0435 1.9 71
  139.0534 12.1 454
  140.0516 1.8 67
  141.0583 0.4 15
  145.0091 0.6 22
  146.0115 0.4 15
  150.0473 0.8 30
  152.0575 1.0 37
  154.064 0.7 26
  155.0692 0.5 18
  166.0617 0.8 30
  167.0707 0.7 26
  171.0251 4.8 180
  172.0292 0.4 15
//