ACCESSION: MSBNK-BAFG-CSL23103127071
RECORD_TITLE: Pantothenic acid; LC-ESI-QTOF; MS2; 70 V
DATE: 2023.10.31
AUTHORS: Kevin S. Jewell; Björn Ehlig; Arne Wick
LICENSE: dl-de/by-2-0
COPYRIGHT: Copyright 2023 Federal Institute of Hydrology, Koblenz, Germany
COMMENT: CONFIDENCE Reference Standard (Level 1)
COMMENT: Chromatography method: dx.doi.org/10.1016/j.chroma.2015.11.014
COMMENT: Acquisition method: 10.1002/rcm.8541
CH$NAME: Pantothenic acid
CH$FORMULA: C9H17NO5
CH$EXACT_MASS: 219.1107
CH$SMILES: CC(C)(CO)C(C(=O)NCCC(=O)O)O
CH$IUPAC: InChI=1S/C9H17NO5/c1-9(2,5-11)7(14)8(15)10-4-3-6(12)13/h7,11,14H,3-5H2,1-2H3,(H,10,15)(H,12,13)
CH$LINK: CAS 79-83-4
CH$LINK: INCHIKEY GHOKWGTUZJEAQD-UHFFFAOYSA-N
AC$INSTRUMENT: TripleTOF 6600 SCIEX
AC$INSTRUMENT_TYPE: LC-ESI-QTOF
AC$MASS_SPECTROMETRY: MS_TYPE MS2
AC$MASS_SPECTROMETRY: ION_MODE POSITIVE
AC$MASS_SPECTROMETRY: COLLISION_ENERGY 70
AC$MASS_SPECTROMETRY: FRAGMENTATION_MODE CID
AC$MASS_SPECTROMETRY: IONIZATION ESI
AC$CHROMATOGRAPHY: COLUMN_NAME Zorbax Eclipse Plus C18 2.1 mm x 150 mm, 3.5 um, Agilent
AC$CHROMATOGRAPHY: COLUMN_TEMPERATURE 40 °C
AC$CHROMATOGRAPHY: FLOW_GRADIENT 0 min min 98% A, 1 min 98% A, 2 min 80% A, 16.5 min 2% A, 22 min 2% A, 22.1 min 98% A, 27 min 98% A
AC$CHROMATOGRAPHY: FLOW_RATE 0.3 mL/min
AC$CHROMATOGRAPHY: RETENTION_TIME 4.792 min
AC$CHROMATOGRAPHY: SOLVENT A: Water 0.1% Formic acid, B: Acetonitrile 0.1% Formic acid
MS$FOCUSED_ION: PRECURSOR_M/Z 220.118
MS$FOCUSED_ION: PRECURSOR_TYPE [M+H]+
MS$DATA_PROCESSING: COMMENT Export with Spectra 1.9.12 MsBackendMassbank 1.7.4
MS$DATA_PROCESSING: WHOLE RMassBank 2.3.1
PK$SPLASH: splash10-0006-9000000000-8040455a99c2b3de8e23
PK$NUM_PEAK: 14
PK$PEAK: m/z int. rel.int.
  30.0344 2.1 283
  37.006 0.6 80
  38.0146 0.6 80
  39.0231 7.4 999
  41.0382 5.9 796
  42.0337 3.3 445
  43.0176 6 809
  45.0335 0.9 121
  55.0169 0.5 67
  56.0129 4.4 594
  65.0391 1.4 188
  67.053 1.4 188
  70.0283 2 269
  80.0485 1.1 148
//
