ACCESSION: MSBNK-BAFG-CSL25010634368
RECORD_TITLE: 3,3`-Dichlorobenzidine; LC-ESI-QTOF; MS2; 70 V
DATE: 2025.01.06
AUTHORS: Ole Lessmann; Kevin S. Jewell; Björn Ehlig; Arne Wick
LICENSE: dl-de/by-2-0
COPYRIGHT: Copyright 2025 Federal Institute of Hydrology, Koblenz, Germany
COMMENT: CONFIDENCE Reference Standard (Level 1)
COMMENT: Chromatography method: dx.doi.org/10.1016/j.chroma.2015.11.014
COMMENT: Acquisition method: 10.1002/rcm.8541
CH$NAME: 3,3`-Dichlorobenzidine
CH$FORMULA: C12H10Cl2N2
CH$EXACT_MASS: 252.0221
CH$SMILES: C1=CC(=C(C=C1C2=CC(=C(C=C2)N)Cl)Cl)N
CH$IUPAC: InChI=1S/C12H10Cl2N2/c13-9-5-7(1-3-11(9)15)8-2-4-12(16)10(14)6-8/h1-6H,15-16H2
CH$LINK: CAS 91-94-1
CH$LINK: INCHIKEY HUWXDEQWWKGHRV-UHFFFAOYSA-N
AC$INSTRUMENT: TripleTOF 6600 SCIEX
AC$INSTRUMENT_TYPE: LC-ESI-QTOF
AC$MASS_SPECTROMETRY: MS_TYPE MS2
AC$MASS_SPECTROMETRY: ION_MODE POSITIVE
AC$MASS_SPECTROMETRY: COLLISION_ENERGY 70
AC$MASS_SPECTROMETRY: FRAGMENTATION_MODE CID
AC$MASS_SPECTROMETRY: IONIZATION ESI
AC$CHROMATOGRAPHY: COLUMN_NAME Zorbax Eclipse Plus C18 2.1 mm x 150 mm, 3.5 um, Agilent
AC$CHROMATOGRAPHY: COLUMN_TEMPERATURE 40 °C
AC$CHROMATOGRAPHY: FLOW_GRADIENT 0 min min 98% A, 1 min 98% A, 2 min 80% A, 16.5 min 2% A, 22 min 2% A, 22.1 min 98% A, 27 min 98% A
AC$CHROMATOGRAPHY: FLOW_RATE 0.3 mL/min
AC$CHROMATOGRAPHY: RETENTION_TIME 11.426 min
AC$CHROMATOGRAPHY: SOLVENT A: Water 0.1% Formic acid, B: Acetonitrile 0.1% Formic acid
MS$FOCUSED_ION: PRECURSOR_M/Z 253.0294
MS$FOCUSED_ION: PRECURSOR_TYPE [M+H]+
MS$DATA_PROCESSING: COMMENT Export with pycsl 0.1.0.dev1 and CSL 24.4
PK$SPLASH: splash10-0ufr-0900000000-a893227101137e41b566
PK$NUM_PEAK: 42
PK$PEAK: m/z int. rel.int.
  63.0233 4.3 25
  75.0233 3.1 18
  77.0386 26.1 152
  89.0379 5.3 30
  101.0388 6.9 40
  102.0462 9.2 53
  103.0535 10.8 62
  104.0498 2.2 12
  113.0386 1.7 9
  115.0548 4.1 23
  117.058 2.2 12
  125.0402 1.9 11
  126.0464 18.0 104
  127.0181 1.8 10
  127.0539 90.8 529
  128.0485 10.5 61
  128.06 25.5 148
  129.0486 6.5 37
  130.0648 42.3 246
  137.0399 5.5 32
  138.0461 11.6 67
  139.0538 21.7 126
  140.0498 11.9 69
  141.0586 2.3 13
  151.0184 2.7 15
  152.0488 7.0 40
  153.0564 22.6 131
  154.0651 171.3 999
  155.0612 39.1 228
  156.0801 3.6 20
  164.0281 12.4 72
  164.0496 22.2 129
  165.0568 6.0 34
  166.0664 3.4 19
  167.0738 2.1 12
  173.0165 5.0 29
  179.0616 10.2 59
  180.0642 3.1 18
  181.0758 51.7 301
  182.0841 8.5 49
  190.0443 5.2 30
  215.0406 3.0 17
//