ACCESSION: MSBNK-BAFG-CSL2311108220
RECORD_TITLE: 2-Hydroxyibuprofen; LC-ESI-QTOF; MS2; 40 V
DATE: 2023.11.10
AUTHORS: Kevin S. Jewell; Björn Ehlig; Arne Wick
LICENSE: dl-de/by-2-0
COPYRIGHT: Copyright 2023 Federal Institute of Hydrology, Koblenz, Germany
COMMENT: CONFIDENCE Reference Standard (Level 1)
COMMENT: Chromatography method: dx.doi.org/10.1016/j.chroma.2015.11.014
COMMENT: Acquisition method: 10.1002/rcm.8541
CH$NAME: 2-Hydroxyibuprofen
CH$COMPOUND_CLASS: Metabolite; Pharmaceutical
CH$FORMULA: C13H18O3
CH$EXACT_MASS: 222.1256
CH$SMILES: CC(C1=CC=C(C=C1)CC(C)(C)O)C(=O)O
CH$IUPAC: InChI=1S/C13H18O3/c1-9(12(14)15)11-6-4-10(5-7-11)8-13(2,3)16/h4-7,9,16H,8H2,1-3H3,(H,14,15)
CH$LINK: CAS 51146-55-5
CH$LINK: INCHIKEY UJHKVYPPCJBOSG-UHFFFAOYSA-N
AC$INSTRUMENT: TripleTOF 5600 SCIEX
AC$INSTRUMENT_TYPE: LC-ESI-QTOF
AC$MASS_SPECTROMETRY: MS_TYPE MS2
AC$MASS_SPECTROMETRY: ION_MODE POSITIVE
AC$MASS_SPECTROMETRY: COLLISION_ENERGY 40
AC$MASS_SPECTROMETRY: FRAGMENTATION_MODE CID
AC$MASS_SPECTROMETRY: IONIZATION ESI
AC$CHROMATOGRAPHY: COLUMN_NAME Zorbax Eclipse Plus C18 2.1 mm x 150 mm, 3.5 um, Agilent
AC$CHROMATOGRAPHY: COLUMN_TEMPERATURE 40 °C
AC$CHROMATOGRAPHY: FLOW_GRADIENT 0 min min 98% A, 1 min 98% A, 2 min 80% A, 16.5 min 2% A, 22 min 2% A, 22.1 min 98% A, 27 min 98% A
AC$CHROMATOGRAPHY: FLOW_RATE 0.3 mL/min
AC$CHROMATOGRAPHY: RETENTION_TIME 8.21 min
AC$CHROMATOGRAPHY: SOLVENT A: Water 0.1% Formic acid, B: Acetonitrile 0.1% Formic acid
MS$FOCUSED_ION: PRECURSOR_M/Z 240.1591
MS$FOCUSED_ION: PRECURSOR_TYPE [M+NH4]+
MS$DATA_PROCESSING: COMMENT Export with Spectra 1.9.12 MsBackendMassbank 1.7.4
MS$DATA_PROCESSING: WHOLE RMassBank 2.3.1
PK$SPLASH: splash10-0aor-1900000000-2ed29a1bf678d7705283
PK$NUM_PEAK: 11
PK$PEAK: m/z int. rel.int.
  77.0422 0.5318 93
  91.0552 2.6237 463
  107.0498 5.6532 999
  115.0547 1.1841 209
  117.071 5.1402 908
  119.086 1.3132 232
  129.0718 0.6355 112
  131.0837 1.0604 187
  159.1163 3.1711 560
  163.0723 4.0913 722
  205.1207 0.8809 155
//
