ACCESSION: MSBNK-BAFG-CSL2501067525
RECORD_TITLE: Pantoprazole sulfide; LC-ESI-QTOF; MS2; 30 V
DATE: 2025.01.06
AUTHORS: Ole Lessmann; Kevin S. Jewell; Björn Ehlig; Arne Wick
LICENSE: dl-de/by-2-0
COPYRIGHT: Copyright 2025 Federal Institute of Hydrology, Koblenz, Germany
COMMENT: CONFIDENCE Reference Standard (Level 1)
COMMENT: Chromatography method: dx.doi.org/10.1016/j.chroma.2015.11.014
COMMENT: Acquisition method: 10.1002/rcm.8541
CH$NAME: Pantoprazole sulfide
CH$COMPOUND_CLASS: Pharmaceutical; Metabolite; Transformation_product-Metabolite
CH$FORMULA: C16H15F2N3O3S
CH$EXACT_MASS: 367.0802
CH$SMILES: COC1=C(C(=NC=C1)CSC2=NC3=C(N2)C=CC(=C3)OC(F)F)OC
CH$IUPAC: InChI=1S/C16H15F2N3O3S/c1-22-13-5-6-19-12(14(13)23-2)8-25-16-20-10-4-3-9(24-15(17)18)7-11(10)21-16/h3-7,15H,8H2,1-2H3,(H,20,21)
CH$LINK: CAS 102625-64-9
CH$LINK: INCHIKEY UKILEIRWOYBGEJ-UHFFFAOYSA-N
AC$INSTRUMENT: TripleTOF 5600 SCIEX
AC$INSTRUMENT_TYPE: LC-ESI-QTOF
AC$MASS_SPECTROMETRY: MS_TYPE MS2
AC$MASS_SPECTROMETRY: ION_MODE POSITIVE
AC$MASS_SPECTROMETRY: COLLISION_ENERGY 30
AC$MASS_SPECTROMETRY: FRAGMENTATION_MODE CID
AC$MASS_SPECTROMETRY: IONIZATION ESI
AC$CHROMATOGRAPHY: COLUMN_NAME Zorbax Eclipse Plus C18 2.1 mm x 150 mm, 3.5 um, Agilent
AC$CHROMATOGRAPHY: COLUMN_TEMPERATURE 40 °C
AC$CHROMATOGRAPHY: FLOW_GRADIENT 0 min min 98% A, 1 min 98% A, 2 min 80% A, 16.5 min 2% A, 22 min 2% A, 22.1 min 98% A, 27 min 98% A
AC$CHROMATOGRAPHY: FLOW_RATE 0.3 mL/min
AC$CHROMATOGRAPHY: RETENTION_TIME 7.575 min
AC$CHROMATOGRAPHY: SOLVENT A: Water 0.1% Formic acid, B: Acetonitrile 0.1% Formic acid
MS$FOCUSED_ION: PRECURSOR_M/Z 368.0875
MS$FOCUSED_ION: PRECURSOR_TYPE [M+H]+
MS$DATA_PROCESSING: COMMENT Export with pycsl 0.1.0.dev1 and CSL 24.4
PK$SPLASH: splash10-0uyi-1904000000-04da0b9dfd3b8a78b7ff
PK$NUM_PEAK: 14
PK$PEAK: m/z int. rel.int.
  65.0419 4.0 20
  92.0511 72.8 381
  94.0649 2.3 12
  122.0602 79.0 414
  137.0462 6.7 35
  138.0544 10.7 56
  152.0708 190.4 999
  154.0313 2.2 11
  184.0427 132.2 693
  185.051 26.0 136
  320.0839 7.5 39
  334.0997 8.0 41
  335.1068 35.5 186
  368.0876 152.2 798
//