ACCESSION: MSBNK-BAFG-CSL25010631492
RECORD_TITLE: Diethylamino hydroxybenzoyl hexyl benzoate; LC-ESI-QTOF; MS2; 40 V
DATE: 2025.01.06
AUTHORS: Ole Lessmann; Kevin S. Jewell; Björn Ehlig; Arne Wick
LICENSE: dl-de/by-2-0
COPYRIGHT: Copyright 2025 Federal Institute of Hydrology, Koblenz, Germany
COMMENT: CONFIDENCE Reference Standard (Level 1)
COMMENT: Chromatography method: dx.doi.org/10.1016/j.chroma.2015.11.014
COMMENT: Acquisition method: 10.1002/rcm.8541
CH$NAME: Diethylamino hydroxybenzoyl hexyl benzoate
CH$FORMULA: C24H31NO4
CH$EXACT_MASS: 397.2253
CH$SMILES: CCCCCCOC(=O)C1=CC=CC=C1C(=O)C2=C(C=C(C=C2)N(CC)CC)O
CH$IUPAC: InChI=1S/C24H31NO4/c1-4-7-8-11-16-29-24(28)20-13-10-9-12-19(20)23(27)21-15-14-18(17-22(21)26)25(5-2)6-3/h9-10,12-15,17,26H,4-8,11,16H2,1-3H3
CH$LINK: CAS 302776-68-7
CH$LINK: INCHIKEY FDATWRLUYRHCJE-UHFFFAOYSA-N
AC$INSTRUMENT: TripleTOF 6600 SCIEX
AC$INSTRUMENT_TYPE: LC-ESI-QTOF
AC$MASS_SPECTROMETRY: MS_TYPE MS2
AC$MASS_SPECTROMETRY: ION_MODE POSITIVE
AC$MASS_SPECTROMETRY: COLLISION_ENERGY 40
AC$MASS_SPECTROMETRY: FRAGMENTATION_MODE CID
AC$MASS_SPECTROMETRY: IONIZATION ESI
AC$CHROMATOGRAPHY: COLUMN_NAME Zorbax Eclipse Plus C18 2.1 mm x 150 mm, 3.5 um, Agilent
AC$CHROMATOGRAPHY: COLUMN_TEMPERATURE 40 °C
AC$CHROMATOGRAPHY: FLOW_GRADIENT 0 min min 98% A, 1 min 98% A, 2 min 80% A, 16.5 min 2% A, 22 min 2% A, 22.1 min 98% A, 27 min 98% A
AC$CHROMATOGRAPHY: FLOW_RATE 0.3 mL/min
AC$CHROMATOGRAPHY: RETENTION_TIME 17.769 min
AC$CHROMATOGRAPHY: SOLVENT A: Water 0.1% Formic acid, B: Acetonitrile 0.1% Formic acid
MS$FOCUSED_ION: PRECURSOR_M/Z 398.2326
MS$FOCUSED_ION: PRECURSOR_TYPE [M+H]+
MS$DATA_PROCESSING: COMMENT Export with pycsl 0.1.0.dev1 and CSL 24.4
PK$SPLASH: splash10-0002-0796000000-391a89a154479eca1478
PK$NUM_PEAK: 21
PK$PEAK: m/z int. rel.int.
  43.0544 47.4 11
  121.0288 92.8 21
  138.0909 115.5 27
  149.0235 4231.1 999
  164.0703 106.1 25
  208.0753 53.9 12
  224.0708 228.7 53
  239.093 225.7 53
  240.1012 1955.4 461
  250.0862 235.8 55
  252.0663 369.1 87
  266.0813 900.9 212
  267.0892 371.8 87
  268.0971 807.6 190
  269.104 104.9 24
  285.0981 62.1 14
  296.1285 403.9 95
  314.1382 159.3 37
  354.1711 81.6 19
  369.1932 253.5 59
  398.2321 3778.0 892
//