ACCESSION: MSBNK-BAFG-CSL25010612489
RECORD_TITLE: 3-(Diethylcarbamoyl)benzoic acid; LC-ESI-QTOF; MS2; 70 V
DATE: 2025.01.06
AUTHORS: Ole Lessmann; Kevin S. Jewell; Björn Ehlig; Arne Wick
LICENSE: dl-de/by-2-0
COPYRIGHT: Copyright 2025 Federal Institute of Hydrology, Koblenz, Germany
COMMENT: CONFIDENCE Reference Standard (Level 1)
COMMENT: Chromatography method: dx.doi.org/10.1016/j.chroma.2015.11.014
COMMENT: Acquisition method: 10.1002/rcm.8541
CH$NAME: 3-(Diethylcarbamoyl)benzoic acid
CH$COMPOUND_CLASS: Biocide; Personal_care_product; Transformation_product-Metabolite
CH$FORMULA: C12H15NO3
CH$EXACT_MASS: 221.1052
CH$SMILES: CCN(CC)C(=O)C1=CC(=CC=C1)C(=O)O
CH$IUPAC: InChI=1S/C12H15NO3/c1-3-13(4-2)11(14)9-6-5-7-10(8-9)12(15)16/h5-8H,3-4H2,1-2H3,(H,15,16)
CH$LINK: CAS 72236-23-8
CH$LINK: INCHIKEY PXXLQQDIFVPNMP-UHFFFAOYSA-N
AC$INSTRUMENT: TripleTOF 5600 SCIEX
AC$INSTRUMENT_TYPE: LC-ESI-QTOF
AC$MASS_SPECTROMETRY: MS_TYPE MS2
AC$MASS_SPECTROMETRY: ION_MODE POSITIVE
AC$MASS_SPECTROMETRY: COLLISION_ENERGY 70
AC$MASS_SPECTROMETRY: FRAGMENTATION_MODE CID
AC$MASS_SPECTROMETRY: IONIZATION ESI
AC$CHROMATOGRAPHY: COLUMN_NAME Zorbax Eclipse Plus C18 2.1 mm x 150 mm, 3.5 um, Agilent
AC$CHROMATOGRAPHY: COLUMN_TEMPERATURE 40 °C
AC$CHROMATOGRAPHY: FLOW_GRADIENT 0 min min 98% A, 1 min 98% A, 2 min 80% A, 16.5 min 2% A, 22 min 2% A, 22.1 min 98% A, 27 min 98% A
AC$CHROMATOGRAPHY: FLOW_RATE 0.3 mL/min
AC$CHROMATOGRAPHY: RETENTION_TIME 7.356 min
AC$CHROMATOGRAPHY: SOLVENT A: Water 0.1% Formic acid, B: Acetonitrile 0.1% Formic acid
MS$FOCUSED_ION: PRECURSOR_M/Z 222.1125
MS$FOCUSED_ION: PRECURSOR_TYPE [M+H]+
MS$DATA_PROCESSING: COMMENT Export with pycsl 0.1.0.dev1 and CSL 24.4
PK$SPLASH: splash10-014i-9000000000-cd9467f0b42014c4c1a2
PK$NUM_PEAK: 14
PK$PEAK: m/z int. rel.int.
  37.0073 0.8 25
  38.0146 0.5 15
  39.0225 5.9 188
  44.013 1.7 54
  51.0222 1.3 41
  65.0381 31.3 999
  74.0149 1.2 38
  75.0227 8.8 280
  77.0374 4.5 143
  79.0541 1.0 31
  93.036 0.8 25
  102.0333 1.0 31
  103.0181 0.8 25
  121.0276 1.8 57
//