ACCESSION: MSBNK-BAFG-CSL23103127648
RECORD_TITLE: Solvent Yellow 124; LC-ESI-QTOF; MS2; 60 V
DATE: 2023.10.31
AUTHORS: Kevin S. Jewell; Björn Ehlig; Arne Wick
LICENSE: dl-de/by-2-0
COPYRIGHT: Copyright 2023 Federal Institute of Hydrology, Koblenz, Germany
COMMENT: CONFIDENCE Reference Standard (Level 1)
COMMENT: Chromatography method: dx.doi.org/10.1016/j.chroma.2015.11.014
COMMENT: Acquisition method: 10.1002/rcm.8541
CH$NAME: Solvent Yellow 124
CH$FORMULA: C22H31N3O2
CH$EXACT_MASS: 369.2416
CH$SMILES: CCN(CCOC(C)OCC(C)C)C1=CC=C(C=C1)N=NC2=CC=CC=C2
CH$IUPAC: InChI=1S/C22H31N3O2/c1-5-25(15-16-26-19(4)27-17-18(2)3)22-13-11-21(12-14-22)24-23-20-9-7-6-8-10-20/h6-14,18-19H,5,15-17H2,1-4H3
CH$LINK: CAS 34432-92-3
CH$LINK: INCHIKEY BATVZJPOLFSGTD-UHFFFAOYSA-N
AC$INSTRUMENT: TripleTOF X500R SCIEX
AC$INSTRUMENT_TYPE: LC-ESI-QTOF
AC$MASS_SPECTROMETRY: MS_TYPE MS2
AC$MASS_SPECTROMETRY: ION_MODE POSITIVE
AC$MASS_SPECTROMETRY: COLLISION_ENERGY 60
AC$MASS_SPECTROMETRY: FRAGMENTATION_MODE CID
AC$MASS_SPECTROMETRY: IONIZATION ESI
AC$CHROMATOGRAPHY: COLUMN_NAME Zorbax Eclipse Plus C18 2.1 mm x 150 mm, 3.5 um, Agilent
AC$CHROMATOGRAPHY: COLUMN_TEMPERATURE 40 °C
AC$CHROMATOGRAPHY: FLOW_GRADIENT 0 min min 98% A, 1 min 98% A, 2 min 80% A, 16.5 min 2% A, 22 min 2% A, 22.1 min 98% A, 27 min 98% A
AC$CHROMATOGRAPHY: FLOW_RATE 0.3 mL/min
AC$CHROMATOGRAPHY: RETENTION_TIME 18.347 min
AC$CHROMATOGRAPHY: SOLVENT A: Water 0.1% Formic acid, B: Acetonitrile 0.1% Formic acid
MS$FOCUSED_ION: PRECURSOR_M/Z 370.2489
MS$FOCUSED_ION: PRECURSOR_TYPE [M+H]+
MS$DATA_PROCESSING: COMMENT Export with Spectra 1.9.12 MsBackendMassbank 1.7.4
MS$DATA_PROCESSING: WHOLE RMassBank 2.3.1
PK$SPLASH: splash10-01u1-4930000000-4f7e46c1bf631624f337
PK$NUM_PEAK: 39
PK$PEAK: m/z int. rel.int.
  41.0387 0.9 25
  45.0338 1.5 43
  51.0234 1.6 46
  57.0703 2.2 63
  77.039 34.6 999
  79.0545 0.4 11
  91.0543 0.9 25
  92.0499 1.5 43
  93.068 0.4 11
  95.0492 1.6 46
  104.049 1.5 43
  105.0458 4.3 124
  106.0656 10.4 300
  117.0573 1.7 49
  118.0647 2.3 66
  119.0606 3.8 109
  120.082 2.7 77
  130.0673 0.7 20
  131.0729 0.8 23
  132.081 8.9 256
  133.0868 2 57
  134.0967 23 664
  136.0766 2.5 72
  145.076 4.8 138
  146.0863 1.4 40
  147.0965 13.7 395
  154.077 0.8 23
  163.0881 0.5 14
  177.1026 0.8 23
  178.1096 1 28
  181.0759 0.7 20
  182.0927 1.4 40
  196.0964 1 28
  210.1031 32.7 944
  224.1171 0.6 17
  239.1421 2.4 69
  252.1519 0.6 17
  270.1609 3.1 89
  270.1908 0.7 20
//
