ACCESSION: MSBNK-BAFG-CSL25010634375
RECORD_TITLE: 3,3`-Dichlorobenzidine; LC-ESI-QTOF; MS2; 140 V
DATE: 2025.01.06
AUTHORS: Ole Lessmann; Kevin S. Jewell; Björn Ehlig; Arne Wick
LICENSE: dl-de/by-2-0
COPYRIGHT: Copyright 2025 Federal Institute of Hydrology, Koblenz, Germany
COMMENT: CONFIDENCE Reference Standard (Level 1)
COMMENT: Chromatography method: dx.doi.org/10.1016/j.chroma.2015.11.014
COMMENT: Acquisition method: 10.1002/rcm.8541
CH$NAME: 3,3`-Dichlorobenzidine
CH$FORMULA: C12H10Cl2N2
CH$EXACT_MASS: 252.0221
CH$SMILES: C1=CC(=C(C=C1C2=CC(=C(C=C2)N)Cl)Cl)N
CH$IUPAC: InChI=1S/C12H10Cl2N2/c13-9-5-7(1-3-11(9)15)8-2-4-12(16)10(14)6-8/h1-6H,15-16H2
CH$LINK: CAS 91-94-1
CH$LINK: INCHIKEY HUWXDEQWWKGHRV-UHFFFAOYSA-N
AC$INSTRUMENT: TripleTOF 6600 SCIEX
AC$INSTRUMENT_TYPE: LC-ESI-QTOF
AC$MASS_SPECTROMETRY: MS_TYPE MS2
AC$MASS_SPECTROMETRY: ION_MODE POSITIVE
AC$MASS_SPECTROMETRY: COLLISION_ENERGY 140
AC$MASS_SPECTROMETRY: FRAGMENTATION_MODE CID
AC$MASS_SPECTROMETRY: IONIZATION ESI
AC$CHROMATOGRAPHY: COLUMN_NAME Zorbax Eclipse Plus C18 2.1 mm x 150 mm, 3.5 um, Agilent
AC$CHROMATOGRAPHY: COLUMN_TEMPERATURE 40 °C
AC$CHROMATOGRAPHY: FLOW_GRADIENT 0 min min 98% A, 1 min 98% A, 2 min 80% A, 16.5 min 2% A, 22 min 2% A, 22.1 min 98% A, 27 min 98% A
AC$CHROMATOGRAPHY: FLOW_RATE 0.3 mL/min
AC$CHROMATOGRAPHY: RETENTION_TIME 11.426 min
AC$CHROMATOGRAPHY: SOLVENT A: Water 0.1% Formic acid, B: Acetonitrile 0.1% Formic acid
MS$FOCUSED_ION: PRECURSOR_M/Z 253.0294
MS$FOCUSED_ION: PRECURSOR_TYPE [M+H]+
MS$DATA_PROCESSING: COMMENT Export with pycsl 0.1.0.dev1 and CSL 24.4
PK$SPLASH: splash10-0ir9-9000000000-89da72eee9948155828f
PK$NUM_PEAK: 43
PK$PEAK: m/z int. rel.int.
  37.0073 1.3 66
  38.0161 0.9 46
  39.0238 2.4 122
  49.0078 0.6 30
  50.0156 7.5 384
  51.0233 12.2 625
  52.018 2.1 107
  59.9997 0.7 35
  61.0076 5.9 302
  62.0152 9.7 496
  63.0238 7.2 368
  64.0183 0.5 25
  65.0377 0.5 25
  72.9838 0.4 20
  73.0073 2.1 107
  74.015 19.5 999
  75.0094 0.5 25
  75.0233 9.6 491
  76.0189 0.8 40
  76.0309 1.5 76
  77.0382 4.5 230
  83.9996 1.2 61
  85.0072 6.3 322
  86.0149 14.8 758
  87.0225 4.4 225
  88.0173 0.8 40
  88.0294 0.5 25
  89.039 1.4 71
  97.0068 1.2 61
  98.0154 8.5 435
  99.0228 2.0 102
  100.0175 0.4 20
  100.0301 0.5 25
  101.0378 0.7 35
  102.0448 0.8 40
  109.0081 2.1 107
  110.0143 3.7 189
  111.0232 0.8 40
  113.0382 0.6 30
  122.0132 0.9 46
  125.0401 0.4 20
  126.0443 1.9 97
  137.0407 0.5 25
//