ACCESSION: MSBNK-BAFG-CSL25011734651
RECORD_TITLE: Reactive Orange; LC-ESI-QTOF; MS2; 70 V
DATE: 2025.01.17
AUTHORS: Ole Lessmann; Kevin S. Jewell; Björn Ehlig; Arne Wick
LICENSE: dl-de/by-2-0
COPYRIGHT: Copyright 2025 Federal Institute of Hydrology, Koblenz, Germany
COMMENT: CONFIDENCE Reference Standard (Level 1)
COMMENT: Chromatography method: dx.doi.org/10.1016/j.chroma.2015.11.014
CH$NAME: Reactive Orange
CH$FORMULA: C20H19N3O11S3
CH$EXACT_MASS: 573.0182
CH$SMILES: CC(=O)NC1=CC2=C(C(=C(C=C2C=C1)S(=O)(=O)O)N=NC3=CC=C(C=C3)S(=O)(=O)CCOS(=O)(=O)O)O
CH$IUPAC: InChI=1S/C20H19N3O11S3/c1-12(24)21-15-3-2-13-10-18(36(28,29)30)19(20(25)17(13)11-15)23-22-14-4-6-16(7-5-14)35(26,27)9-8-34-37(31,32)33/h2-7,10-11,25H,8-9H2,1H3,(H,21,24)(H,28,29,30)(H,31,32,33)
CH$LINK: CAS 109603-48-7
CH$LINK: INCHIKEY INOIOAWTVPHTCJ-UHFFFAOYSA-N
AC$INSTRUMENT: TripleTOF 6600 SCIEX
AC$INSTRUMENT_TYPE: LC-ESI-QTOF
AC$MASS_SPECTROMETRY: MS_TYPE MS2
AC$MASS_SPECTROMETRY: ION_MODE POSITIVE
AC$MASS_SPECTROMETRY: COLLISION_ENERGY 70
AC$MASS_SPECTROMETRY: FRAGMENTATION_MODE CID
AC$MASS_SPECTROMETRY: IONIZATION ESI
AC$CHROMATOGRAPHY: COLUMN_NAME Zorbax Eclipse Plus C18 2.1 mm x 150 mm, 3.5 um, Agilent
AC$CHROMATOGRAPHY: COLUMN_TEMPERATURE 40 °C
AC$CHROMATOGRAPHY: FLOW_GRADIENT 0 min min 98% A, 1 min 98% A, 2 min 80% A, 16.5 min 2% A, 22 min 2% A, 22.1 min 98% A, 27 min 98% A
AC$CHROMATOGRAPHY: FLOW_RATE 0.3 mL/min
AC$CHROMATOGRAPHY: RETENTION_TIME 5.751 min
AC$CHROMATOGRAPHY: SOLVENT A: Water 0.1% Formic acid, B: Acetonitrile 0.1% Formic acid
MS$FOCUSED_ION: PRECURSOR_M/Z 574.0255
MS$FOCUSED_ION: PRECURSOR_TYPE [M+H]+
MS$DATA_PROCESSING: COMMENT Export with pycsl 0.1.0.dev1 and CSL 25.0
PK$SPLASH: splash10-0c0r-1940000000-533d06bd9fd508a7b2b9
PK$NUM_PEAK: 42
PK$PEAK: m/z int. rel.int.
  53.0375 2.6 12
  68.0127 2.7 12
  74.9892 7.9 36
  80.0486 13.4 62
  81.0328 54.7 253
  92.0489 9.3 43
  93.0563 4.4 20
  104.0496 5.5 25
  108.0441 215.8 999
  116.0485 2.4 11
  129.0442 2.8 12
  130.0514 19.3 89
  131.0596 15.6 72
  132.0436 6.6 30
  142.0505 23.6 109
  143.0593 6.4 29
  156.0103 5.8 26
  158.0477 6.7 31
  159.0548 7.4 34
  170.0471 176.2 815
  171.0543 28.0 129
  172.0381 5.2 24
  204.0824 2.9 13
  205.0758 6.7 31
  206.0808 4.5 20
  220.0837 9.4 43
  221.0928 2.7 12
  231.0781 2.4 11
  232.0837 11.3 52
  233.093 87.6 405
  234.0767 7.6 35
  244.0809 3.3 15
  245.0939 5.3 24
  248.0794 9.9 45
  249.0894 12.7 58
  260.0806 33.3 154
  261.09 78.9 365
  262.0761 6.7 31
  302.0891 2.9 13
  303.0994 20.6 95
  325.0488 2.7 12
  358.0858 8.0 37
//
