ACCESSION: MSBNK-BAFG-CSL25011734658
RECORD_TITLE: Reactive Orange; LC-ESI-QTOF; MS2; 140 V
DATE: 2025.01.17
AUTHORS: Ole Lessmann; Kevin S. Jewell; Björn Ehlig; Arne Wick
LICENSE: dl-de/by-2-0
COPYRIGHT: Copyright 2025 Federal Institute of Hydrology, Koblenz, Germany
COMMENT: CONFIDENCE Reference Standard (Level 1)
COMMENT: Chromatography method: dx.doi.org/10.1016/j.chroma.2015.11.014
CH$NAME: Reactive Orange
CH$FORMULA: C20H19N3O11S3
CH$EXACT_MASS: 573.0182
CH$SMILES: CC(=O)NC1=CC2=C(C(=C(C=C2C=C1)S(=O)(=O)O)N=NC3=CC=C(C=C3)S(=O)(=O)CCOS(=O)(=O)O)O
CH$IUPAC: InChI=1S/C20H19N3O11S3/c1-12(24)21-15-3-2-13-10-18(36(28,29)30)19(20(25)17(13)11-15)23-22-14-4-6-16(7-5-14)35(26,27)9-8-34-37(31,32)33/h2-7,10-11,25H,8-9H2,1H3,(H,21,24)(H,28,29,30)(H,31,32,33)
CH$LINK: CAS 109603-48-7
CH$LINK: INCHIKEY INOIOAWTVPHTCJ-UHFFFAOYSA-N
AC$INSTRUMENT: TripleTOF 6600 SCIEX
AC$INSTRUMENT_TYPE: LC-ESI-QTOF
AC$MASS_SPECTROMETRY: MS_TYPE MS2
AC$MASS_SPECTROMETRY: ION_MODE POSITIVE
AC$MASS_SPECTROMETRY: COLLISION_ENERGY 140
AC$MASS_SPECTROMETRY: FRAGMENTATION_MODE CID
AC$MASS_SPECTROMETRY: IONIZATION ESI
AC$CHROMATOGRAPHY: COLUMN_NAME Zorbax Eclipse Plus C18 2.1 mm x 150 mm, 3.5 um, Agilent
AC$CHROMATOGRAPHY: COLUMN_TEMPERATURE 40 °C
AC$CHROMATOGRAPHY: FLOW_GRADIENT 0 min min 98% A, 1 min 98% A, 2 min 80% A, 16.5 min 2% A, 22 min 2% A, 22.1 min 98% A, 27 min 98% A
AC$CHROMATOGRAPHY: FLOW_RATE 0.3 mL/min
AC$CHROMATOGRAPHY: RETENTION_TIME 5.751 min
AC$CHROMATOGRAPHY: SOLVENT A: Water 0.1% Formic acid, B: Acetonitrile 0.1% Formic acid
MS$FOCUSED_ION: PRECURSOR_M/Z 574.0255
MS$FOCUSED_ION: PRECURSOR_TYPE [M+H]+
MS$DATA_PROCESSING: COMMENT Export with pycsl 0.1.0.dev1 and CSL 25.0
PK$SPLASH: splash10-02al-6910000000-dfb0f12469cfe23b580b
PK$NUM_PEAK: 81
PK$PEAK: m/z int. rel.int.
  39.0238 1.7 25
  43.0181 3.3 50
  44.9785 3.2 48
  45.9858 0.9 13
  46.9942 1.2 18
  51.0228 2.2 33
  53.0381 15.5 235
  61.0062 1.3 19
  62.014 3.3 50
  63.0219 4.4 66
  64.0303 1.6 24
  64.9693 0.9 13
  65.0381 9.0 136
  66.0448 0.8 12
  68.0116 3.4 51
  75.0225 2.4 36
  76.0172 0.8 12
  76.0305 2.3 34
  77.0374 14.6 222
  78.0326 2.4 36
  80.0492 14.2 215
  81.0328 65.7 999
  87.0227 1.3 19
  88.0172 1.0 15
  88.0293 14.2 215
  89.0373 17.2 261
  90.0457 1.5 22
  91.04 3.2 48
  92.0478 3.0 45
  93.0564 2.4 36
  102.0341 3.4 51
  102.0447 1.1 16
  103.0411 4.6 69
  103.0543 1.2 18
  104.048 15.4 234
  108.0434 10.3 156
  114.0324 35.7 542
  115.0407 48.6 738
  116.0476 11.0 167
  117.0579 3.4 51
  126.0329 0.7 10
  128.0486 3.9 59
  129.0439 16.8 255
  130.0368 1.1 16
  130.0626 1.7 25
  131.0609 5.8 88
  140.0509 0.9 13
  141.0418 4.4 66
  142.0511 56.4 857
  143.0597 1.7 25
  150.0445 2.5 38
  151.0535 8.5 129
  152.0629 2.8 42
  163.0548 0.9 13
  164.0481 1.0 15
  169.0433 0.8 12
  170.0467 2.2 33
  176.0579 3.7 56
  177.0584 4.2 63
  178.0639 3.8 57
  179.0598 1.6 24
  187.0524 0.8 12
  188.0509 2.6 39
  189.0579 1.9 28
  190.0626 2.3 34
  192.0693 1.1 16
  193.0738 0.7 10
  203.0624 2.8 42
  204.0777 1.7 25
  205.0742 14.6 222
  206.0856 1.5 22
  215.0596 2.8 42
  216.0662 2.6 39
  217.0737 1.1 16
  220.0834 0.7 10
  230.0733 3.5 53
  231.0775 2.9 44
  232.0877 3.1 47
  233.0686 0.8 12
  243.0621 0.7 10
  244.0818 0.7 10
//
