ACCESSION: MSBNK-BAFG-CSL2311097987
RECORD_TITLE: Fenpropimorph; LC-ESI-QTOF; MS2; 80 V
DATE: 2023.11.09
AUTHORS: Kevin S. Jewell; Björn Ehlig; Arne Wick
LICENSE: dl-de/by-2-0
COPYRIGHT: Copyright 2023 Federal Institute of Hydrology, Koblenz, Germany
COMMENT: CONFIDENCE Reference Standard (Level 1)
COMMENT: Chromatography method: dx.doi.org/10.1016/j.chroma.2015.11.014
COMMENT: Acquisition method: 10.1002/rcm.8541
CH$NAME: Fenpropimorph
CH$COMPOUND_CLASS: Pharmaceutical; Fungicide
CH$FORMULA: C20H33NO
CH$EXACT_MASS: 303.2562
CH$SMILES: CC(CN1C[C@H](C)O[C@H](C)C1)Cc2ccc(cc2)C(C)(C)C
CH$IUPAC: InChI=1S/C20H33NO/c1-15(12-21-13-16(2)22-17(3)14-21)11-18-7-9-19(10-8-18)20(4,5)6/h7-10,15-17H,11-14H2,1-6H3/t15?,16-,17+
CH$LINK: CAS 67564-91-4
CH$LINK: INCHIKEY RYAUSSKQMZRMAI-ALOPSCKCSA-N
AC$INSTRUMENT: TripleTOF 5600 SCIEX
AC$INSTRUMENT_TYPE: LC-ESI-QTOF
AC$MASS_SPECTROMETRY: MS_TYPE MS2
AC$MASS_SPECTROMETRY: ION_MODE POSITIVE
AC$MASS_SPECTROMETRY: COLLISION_ENERGY 80
AC$MASS_SPECTROMETRY: FRAGMENTATION_MODE CID
AC$MASS_SPECTROMETRY: IONIZATION ESI
AC$CHROMATOGRAPHY: COLUMN_NAME Zorbax Eclipse Plus C18 2.1 mm x 150 mm, 3.5 um, Agilent
AC$CHROMATOGRAPHY: COLUMN_TEMPERATURE 40 °C
AC$CHROMATOGRAPHY: FLOW_GRADIENT 0 min min 98% A, 1 min 98% A, 2 min 80% A, 16.5 min 2% A, 22 min 2% A, 22.1 min 98% A, 27 min 98% A
AC$CHROMATOGRAPHY: FLOW_RATE 0.3 mL/min
AC$CHROMATOGRAPHY: RETENTION_TIME 9.527 min
AC$CHROMATOGRAPHY: SOLVENT A: Water 0.1% Formic acid, B: Acetonitrile 0.1% Formic acid
MS$FOCUSED_ION: PRECURSOR_M/Z 304.2635
MS$FOCUSED_ION: PRECURSOR_TYPE [M+H]+
MS$DATA_PROCESSING: COMMENT Export with Spectra 1.9.12 MsBackendMassbank 1.7.4
MS$DATA_PROCESSING: WHOLE RMassBank 2.3.1
PK$SPLASH: splash10-014i-3900000000-b4939a43bd0102d9aebf
PK$NUM_PEAK: 17
PK$PEAK: m/z int. rel.int.
  57.0751 14.3 21
  65.0431 22 33
  77.0417 59.4 89
  78.0492 15.4 23
  79.0567 37.4 56
  91.0567 384.4 580
  103.0548 42 63
  104.0626 65.1 98
  105.0705 85.1 128
  107.0852 6.7 10
  115.0551 318.6 481
  116.0619 32.6 49
  117.0703 661.6 999
  119.0856 67.3 101
  129.0696 11.2 16
  131.0854 75.1 113
  132.0934 119.3 180
//
