ACCESSION: MSBNK-BAFG-CSL25011734604
RECORD_TITLE: N-[2-[(2-Bromo-4,6-dinitrophenyl)azo]-5-(diethylamino)phenyl]acetamide; LC-ESI-QTOF; MS2; 80 V
DATE: 2025.01.17
AUTHORS: Ole Lessmann; Kevin S. Jewell; Björn Ehlig; Arne Wick
LICENSE: dl-de/by-2-0
COPYRIGHT: Copyright 2025 Federal Institute of Hydrology, Koblenz, Germany
COMMENT: CONFIDENCE Reference Standard (Level 1)
COMMENT: Chromatography method: dx.doi.org/10.1016/j.chroma.2015.11.014
CH$NAME: N-[2-[(2-Bromo-4,6-dinitrophenyl)azo]-5-(diethylamino)phenyl]acetamide
CH$FORMULA: C18H19BrN6O5
CH$EXACT_MASS: 478.06
CH$SMILES: CCN(CC)C1=CC(=C(C=C1)N=NC2=C(C=C(C=C2Br)[N+](=O)[O-])[N+](=O)[O-])NC(=O)C
CH$IUPAC: InChI=1S/C18H19BrN6O5/c1-4-23(5-2)12-6-7-15(16(9-12)20-11(3)26)21-22-18-14(19)8-13(24(27)28)10-17(18)25(29)30/h6-10H,4-5H2,1-3H3,(H,20,26)
CH$LINK: CAS 52697-38-8
CH$LINK: INCHIKEY WFFKSTRPZWRBEW-UHFFFAOYSA-N
AC$INSTRUMENT: TripleTOF 6600 SCIEX
AC$INSTRUMENT_TYPE: LC-ESI-QTOF
AC$MASS_SPECTROMETRY: MS_TYPE MS2
AC$MASS_SPECTROMETRY: ION_MODE POSITIVE
AC$MASS_SPECTROMETRY: COLLISION_ENERGY 80
AC$MASS_SPECTROMETRY: FRAGMENTATION_MODE CID
AC$MASS_SPECTROMETRY: IONIZATION ESI
AC$CHROMATOGRAPHY: COLUMN_NAME Zorbax Eclipse Plus C18 2.1 mm x 150 mm, 3.5 um, Agilent
AC$CHROMATOGRAPHY: COLUMN_TEMPERATURE 40 °C
AC$CHROMATOGRAPHY: FLOW_GRADIENT 0 min min 98% A, 1 min 98% A, 2 min 80% A, 16.5 min 2% A, 22 min 2% A, 22.1 min 98% A, 27 min 98% A
AC$CHROMATOGRAPHY: FLOW_RATE 0.3 mL/min
AC$CHROMATOGRAPHY: RETENTION_TIME 16.579 min
AC$CHROMATOGRAPHY: SOLVENT A: Water 0.1% Formic acid, B: Acetonitrile 0.1% Formic acid
MS$FOCUSED_ION: PRECURSOR_M/Z 479.0673
MS$FOCUSED_ION: PRECURSOR_TYPE [M+H]+
MS$DATA_PROCESSING: COMMENT Export with pycsl 0.1.0.dev1 and CSL 25.0
PK$SPLASH: splash10-022d-0900000000-16e28e417adbb4467e9e
PK$NUM_PEAK: 94
PK$PEAK: m/z int. rel.int.
  43.0171 3.8 52
  69.0442 1.1 15
  77.0375 0.9 12
  79.0269 0.8 11
  79.0528 1.0 13
  80.0479 12.9 179
  91.0534 1.1 15
  92.0469 2.2 30
  93.0555 13.9 193
  94.063 5.6 77
  95.0591 1.6 22
  104.0476 1.3 18
  105.0425 3.2 44
  106.0534 0.8 11
  106.0635 1.7 23
  107.0359 3.7 51
  107.0589 11.8 163
  108.0433 9.8 136
  108.0789 6.4 88
  109.0746 6.8 94
  117.055 1.9 26
  118.0621 1.6 22
  119.0586 6.0 83
  120.0576 12.6 175
  121.0748 71.9 999
  122.0591 1.6 22
  122.0931 1.2 16
  123.0913 1.7 23
  128.9286 1.0 13
  131.0595 2.6 36
  132.0773 1.7 23
  133.0507 3.9 54
  133.0621 7.9 109
  134.0704 33.1 459
  135.089 10.3 143
  136.0738 9.8 136
  145.0747 2.5 34
  146.0712 4.3 59
  147.0543 5.0 69
  147.0762 5.1 70
  147.0883 2.6 36
  148.0614 23.9 332
  148.0862 14.4 200
  149.07 1.0 13
  149.1049 22.3 309
  160.0551 1.1 15
  161.0672 4.4 61
  161.0956 1.0 13
  162.0767 2.6 36
  162.101 15.1 209
  163.0843 45.2 628
  163.1191 6.8 94
  165.0534 0.9 12
  166.064 2.2 30
  167.0723 1.2 16
  168.0692 1.2 16
  175.0727 2.9 40
  175.0839 1.0 13
  176.0834 0.8 11
  176.1183 0.8 11
  177.1011 14.6 202
  179.0586 1.6 22
  180.0653 0.9 12
  190.0987 0.7 9
  191.1167 49.3 684
  193.072 3.9 54
  194.071 5.2 72
  195.0572 1.1 15
  204.1135 2.1 29
  206.0704 1.8 25
  207.0898 1.6 22
  220.0858 0.8 11
  221.0806 2.9 40
  222.0927 0.9 12
  222.1088 1.0 13
  234.1024 0.8 11
  235.0967 1.4 19
  237.1101 3.0 41
  244.9868 1.0 13
  250.1296 4.1 56
  256.9691 0.8 11
  260.9901 1.0 13
  265.1439 6.2 86
  271.9887 2.5 34
  272.9914 2.8 38
  283.973 1.0 13
  284.9899 1.9 26
  299.9951 0.8 11
  300.0173 1.5 20
  300.9801 3.2 44
  301.0256 0.8 11
  316.0366 0.8 11
  328.0419 2.4 33
  344.0579 2.5 34
//
