ACCESSION: MSBNK-BAFG-CSL23102514820
RECORD_TITLE: 2,2,4-Trimethyl-1,2-dihydroquinoline; LC-ESI-QTOF; MS2; 120 V
DATE: 2023.10.25
AUTHORS: Kevin S. Jewell; Björn Ehlig; Arne Wick
LICENSE: dl-de/by-2-0
COPYRIGHT: Copyright 2023 Federal Institute of Hydrology, Koblenz, Germany
COMMENT: CONFIDENCE Reference Standard (Level 1)
COMMENT: Chromatography method: dx.doi.org/10.1016/j.chroma.2015.11.014
COMMENT: Acquisition method: 10.1002/rcm.8541
CH$NAME: 2,2,4-Trimethyl-1,2-dihydroquinoline
CH$COMPOUND_CLASS: Industrial_process
CH$FORMULA: C12H15N
CH$EXACT_MASS: 173.1204
CH$SMILES: CC1=CC(NC2=CC=CC=C12)(C)C
CH$IUPAC: InChI=1S/C12H15N/c1-9-8-12(2,3)13-11-7-5-4-6-10(9)11/h4-8,13H,1-3H3
CH$LINK: CAS 147-47-7
CH$LINK: INCHIKEY ZNRLMGFXSPUZNR-UHFFFAOYSA-N
AC$INSTRUMENT: TripleTOF 6600 SCIEX
AC$INSTRUMENT_TYPE: LC-ESI-QTOF
AC$MASS_SPECTROMETRY: MS_TYPE MS2
AC$MASS_SPECTROMETRY: ION_MODE POSITIVE
AC$MASS_SPECTROMETRY: COLLISION_ENERGY 120
AC$MASS_SPECTROMETRY: FRAGMENTATION_MODE CID
AC$MASS_SPECTROMETRY: IONIZATION ESI
AC$CHROMATOGRAPHY: COLUMN_NAME Zorbax Eclipse Plus C18 2.1 mm x 150 mm, 3.5 um, Agilent
AC$CHROMATOGRAPHY: COLUMN_TEMPERATURE 40 °C
AC$CHROMATOGRAPHY: FLOW_GRADIENT 0 min min 98% A, 1 min 98% A, 2 min 80% A, 16.5 min 2% A, 22 min 2% A, 22.1 min 98% A, 27 min 98% A
AC$CHROMATOGRAPHY: FLOW_RATE 0.3 mL/min
AC$CHROMATOGRAPHY: RETENTION_TIME 12.497 min
AC$CHROMATOGRAPHY: SOLVENT A: Water 0.1% Formic acid, B: Acetonitrile 0.1% Formic acid
MS$FOCUSED_ION: PRECURSOR_M/Z 174.1277
MS$FOCUSED_ION: PRECURSOR_TYPE [M+H]+
MS$DATA_PROCESSING: COMMENT Export with Spectra 1.9.12 MsBackendMassbank 1.7.4
MS$DATA_PROCESSING: WHOLE RMassBank 2.3.1
PK$SPLASH: splash10-0w2i-9000000000-d8a73de2b8f2ed5e8464
PK$NUM_PEAK: 31
PK$PEAK: m/z int. rel.int.
  35.9991 4.2 62
  37.0069 28.3 422
  38.0031 0.9 13
  38.0145 21.1 315
  39.0226 50.5 754
  41.0374 0.9 13
  42.0333 1 14
  49.0068 9.6 143
  50.0146 66.9 999
  51.0224 49 731
  52.0173 1.4 20
  52.0302 0.8 11
  59.9987 0.8 11
  61.0065 11.9 177
  62.0144 26 388
  63.0221 29.9 446
  64.0294 0.9 13
  65.0376 4.1 61
  73.0058 3.1 46
  74.0142 22.6 337
  75.022 5 74
  76.0169 0.8 11
  76.0286 0.8 11
  77.0373 3 44
  85.0057 1.3 19
  86.0145 3.3 49
  87.0217 1.4 20
  89.0376 6.8 101
  98.0135 0.9 13
  113.0363 0.7 10
  115.0524 1.7 25
//
