ACCESSION: MSBNK-BAFG-CSL25010634232
RECORD_TITLE: 4,4`-Thiodianiline; LC-ESI-QTOF; MS2; 60 V
DATE: 2025.01.06
AUTHORS: Ole Lessmann; Kevin S. Jewell; Björn Ehlig; Arne Wick
LICENSE: dl-de/by-2-0
COPYRIGHT: Copyright 2025 Federal Institute of Hydrology, Koblenz, Germany
COMMENT: CONFIDENCE Reference Standard (Level 1)
COMMENT: Chromatography method: dx.doi.org/10.1016/j.chroma.2015.11.014
COMMENT: Acquisition method: 10.1002/rcm.8541
CH$NAME: 4,4`-Thiodianiline
CH$FORMULA: C12H12N2S
CH$EXACT_MASS: 216.0721
CH$SMILES: C1=CC(=CC=C1N)SC2=CC=C(C=C2)N
CH$IUPAC: InChI=1S/C12H12N2S/c13-9-1-5-11(6-2-9)15-12-7-3-10(14)4-8-12/h1-8H,13-14H2
CH$LINK: CAS 139-65-1
CH$LINK: INCHIKEY ICNFHJVPAJKPHW-UHFFFAOYSA-N
AC$INSTRUMENT: TripleTOF 6600 SCIEX
AC$INSTRUMENT_TYPE: LC-ESI-QTOF
AC$MASS_SPECTROMETRY: MS_TYPE MS2
AC$MASS_SPECTROMETRY: ION_MODE POSITIVE
AC$MASS_SPECTROMETRY: COLLISION_ENERGY 60
AC$MASS_SPECTROMETRY: FRAGMENTATION_MODE CID
AC$MASS_SPECTROMETRY: IONIZATION ESI
AC$CHROMATOGRAPHY: COLUMN_NAME Zorbax Eclipse Plus C18 2.1 mm x 150 mm, 3.5 um, Agilent
AC$CHROMATOGRAPHY: COLUMN_TEMPERATURE 40 °C
AC$CHROMATOGRAPHY: FLOW_GRADIENT 0 min min 98% A, 1 min 98% A, 2 min 80% A, 16.5 min 2% A, 22 min 2% A, 22.1 min 98% A, 27 min 98% A
AC$CHROMATOGRAPHY: FLOW_RATE 0.3 mL/min
AC$CHROMATOGRAPHY: RETENTION_TIME 6.429 min
AC$CHROMATOGRAPHY: SOLVENT A: Water 0.1% Formic acid, B: Acetonitrile 0.1% Formic acid
MS$FOCUSED_ION: PRECURSOR_M/Z 217.0794
MS$FOCUSED_ION: PRECURSOR_TYPE [M+H]+
MS$DATA_PROCESSING: COMMENT Export with pycsl 0.1.0.dev1 and CSL 24.4
PK$SPLASH: splash10-008i-5900000000-0bb3833456db4eeef89d
PK$NUM_PEAK: 54
PK$PEAK: m/z int. rel.int.
  50.0143 1.9 30
  53.0379 4.8 75
  63.0226 1.0 15
  65.0373 0.7 11
  66.0448 2.6 41
  67.0399 0.7 11
  68.977 0.6 9
  76.0292 5.1 80
  80.0488 63.1 999
  81.0543 1.0 15
  89.0376 2.5 39
  91.0406 0.8 12
  92.0466 1.1 17
  93.0566 6.9 109
  97.0097 5.6 88
  103.0532 0.9 14
  113.0382 1.2 18
  114.0443 0.8 12
  115.0516 2.4 37
  117.0542 0.9 14
  123.0121 9.1 144
  124.0197 30.9 489
  125.0239 0.7 11
  127.0526 2.4 37
  128.0604 4.4 69
  129.067 1.2 18
  130.0633 2.0 31
  134.0178 0.9 14
  138.0444 1.7 26
  139.0529 36.0 569
  140.0529 3.6 56
  141.0532 0.9 14
  146.0172 0.7 11
  147.0268 1.1 17
  150.0445 1.0 15
  151.051 0.9 14
  152.0614 5.0 79
  154.0642 3.9 61
  155.0656 1.3 20
  156.0797 2.0 31
  157.0822 1.1 17
  158.0188 0.7 11
  166.0645 4.8 75
  167.0717 5.0 79
  168.075 0.8 12
  171.0243 19.7 311
  172.0295 3.2 50
  182.0187 2.9 45
  183.0251 2.0 31
  183.0893 1.6 25
  184.0335 1.7 26
  184.0964 2.2 34
  198.0344 4.2 66
  199.0459 3.2 50
//