ACCESSION: MSBNK-BAFG-CSL25011734699
RECORD_TITLE: Azo Rubin S; LC-ESI-QTOF; MS2; 40 V
DATE: 2025.01.17
AUTHORS: Ole Lessmann; Kevin S. Jewell; Björn Ehlig; Arne Wick
LICENSE: dl-de/by-2-0
COPYRIGHT: Copyright 2025 Federal Institute of Hydrology, Koblenz, Germany
COMMENT: CONFIDENCE Reference Standard (Level 1)
COMMENT: Chromatography method: dx.doi.org/10.1016/j.chroma.2015.11.014
CH$NAME: Azo Rubin S
CH$FORMULA: C20H14N2O7S2
CH$EXACT_MASS: 458.0242
CH$SMILES: C1=CC=C2C(=C1)C(=CC=C2S(=O)(=O)O)N=NC3=C(C4=CC=CC=C4C(=C3)S(=O)(=O)O)O
CH$IUPAC: InChI=1S/C20H14N2O7S2/c23-20-15-8-4-3-7-14(15)19(31(27,28)29)11-17(20)22-21-16-9-10-18(30(24,25)26)13-6-2-1-5-12(13)16/h1-11,23H,(H,24,25,26)(H,27,28,29)
CH$LINK: CAS 13613-55-3
CH$LINK: INCHIKEY TVWOWDDBXAFQDG-UHFFFAOYSA-N
AC$INSTRUMENT: TripleTOF 6600 SCIEX
AC$INSTRUMENT_TYPE: LC-ESI-QTOF
AC$MASS_SPECTROMETRY: MS_TYPE MS2
AC$MASS_SPECTROMETRY: ION_MODE NEGATIVE
AC$MASS_SPECTROMETRY: COLLISION_ENERGY 40
AC$MASS_SPECTROMETRY: FRAGMENTATION_MODE CID
AC$MASS_SPECTROMETRY: IONIZATION ESI
AC$CHROMATOGRAPHY: COLUMN_NAME Zorbax Eclipse Plus C18 2.1 mm x 150 mm, 3.5 um, Agilent
AC$CHROMATOGRAPHY: COLUMN_TEMPERATURE 40 °C
AC$CHROMATOGRAPHY: FLOW_GRADIENT 0 min min 98% A, 1 min 98% A, 2 min 80% A, 16.5 min 2% A, 22 min 2% A, 22.1 min 98% A, 27 min 98% A
AC$CHROMATOGRAPHY: FLOW_RATE 0.3 mL/min
AC$CHROMATOGRAPHY: RETENTION_TIME 7.286 min
AC$CHROMATOGRAPHY: SOLVENT A: Water 0.1% Formic acid, B: Acetonitrile 0.1% Formic acid
MS$FOCUSED_ION: PRECURSOR_M/Z 228.0053
MS$FOCUSED_ION: PRECURSOR_TYPE [M-2H]2-
MS$DATA_PROCESSING: COMMENT Export with pycsl 0.1.0.dev1 and CSL 25.0
PK$SPLASH: splash10-00di-2910000000-2d262a99b6d8f194f72f
PK$NUM_PEAK: 34
PK$PEAK: m/z int. rel.int.
  50.0037 1.6046 0
  63.9625 99.9711 31
  65.9986 38.0873 12
  79.7092 3.4064 1
  79.9578 784.0437 249
  80.9652 9.0451 2
  88.0319 1.9559 0
  101.0391 5.5715 1
  102.0349 88.8995 28
  114.0351 1.2232 0
  115.0424 21.5247 6
  116.0263 1.5559 0
  126.036 5.2605 1
  129.0342 3.473 1
  130.0442 1.0509 0
  140.0508 52.7579 16
  141.0589 1.5522 0
  142.0306 11.3786 3
  143.0501 6.5823 2
  145.0294 39.193 12
  157.0532 31.4554 10
  158.0368 2.9859 0
  169.4917 12.3021 3
  170.0257 3136.1948 999
  171.0282 13.2269 4
  172.0401 19.2003 6
  194.0043 11.8018 3
  206.0048 52.6385 16
  220.3202 1.8805 0
  221.0155 335.3493 106
  222.0182 1.5279 0
  236.0013 3.0924 0
  282.0684 1.4063 0
  283.0765 2.8495 0
//
