ACCESSION: MSBNK-BAFG-CSL25011734649
RECORD_TITLE: Reactive Orange; LC-ESI-QTOF; MS2; 50 V
DATE: 2025.01.17
AUTHORS: Ole Lessmann; Kevin S. Jewell; Björn Ehlig; Arne Wick
LICENSE: dl-de/by-2-0
COPYRIGHT: Copyright 2025 Federal Institute of Hydrology, Koblenz, Germany
COMMENT: CONFIDENCE Reference Standard (Level 1)
COMMENT: Chromatography method: dx.doi.org/10.1016/j.chroma.2015.11.014
CH$NAME: Reactive Orange
CH$FORMULA: C20H19N3O11S3
CH$EXACT_MASS: 573.0182
CH$SMILES: CC(=O)NC1=CC2=C(C(=C(C=C2C=C1)S(=O)(=O)O)N=NC3=CC=C(C=C3)S(=O)(=O)CCOS(=O)(=O)O)O
CH$IUPAC: InChI=1S/C20H19N3O11S3/c1-12(24)21-15-3-2-13-10-18(36(28,29)30)19(20(25)17(13)11-15)23-22-14-4-6-16(7-5-14)35(26,27)9-8-34-37(31,32)33/h2-7,10-11,25H,8-9H2,1H3,(H,21,24)(H,28,29,30)(H,31,32,33)
CH$LINK: CAS 109603-48-7
CH$LINK: INCHIKEY INOIOAWTVPHTCJ-UHFFFAOYSA-N
AC$INSTRUMENT: TripleTOF 6600 SCIEX
AC$INSTRUMENT_TYPE: LC-ESI-QTOF
AC$MASS_SPECTROMETRY: MS_TYPE MS2
AC$MASS_SPECTROMETRY: ION_MODE POSITIVE
AC$MASS_SPECTROMETRY: COLLISION_ENERGY 50
AC$MASS_SPECTROMETRY: FRAGMENTATION_MODE CID
AC$MASS_SPECTROMETRY: IONIZATION ESI
AC$CHROMATOGRAPHY: COLUMN_NAME Zorbax Eclipse Plus C18 2.1 mm x 150 mm, 3.5 um, Agilent
AC$CHROMATOGRAPHY: COLUMN_TEMPERATURE 40 °C
AC$CHROMATOGRAPHY: FLOW_GRADIENT 0 min min 98% A, 1 min 98% A, 2 min 80% A, 16.5 min 2% A, 22 min 2% A, 22.1 min 98% A, 27 min 98% A
AC$CHROMATOGRAPHY: FLOW_RATE 0.3 mL/min
AC$CHROMATOGRAPHY: RETENTION_TIME 5.751 min
AC$CHROMATOGRAPHY: SOLVENT A: Water 0.1% Formic acid, B: Acetonitrile 0.1% Formic acid
MS$FOCUSED_ION: PRECURSOR_M/Z 574.0255
MS$FOCUSED_ION: PRECURSOR_TYPE [M+H]+
MS$DATA_PROCESSING: COMMENT Export with pycsl 0.1.0.dev1 and CSL 25.0
PK$SPLASH: splash10-0c00-0945000000-e23da2fc8fb929b21f46
PK$NUM_PEAK: 42
PK$PEAK: m/z int. rel.int.
  74.9888 9.9 31
  80.0482 5.0 15
  81.0324 23.0 73
  92.0487 3.3 10
  93.057 4.3 13
  108.0438 313.0 999
  136.0744 9.7 30
  156.0108 13.1 41
  159.053 13.9 44
  170.0468 165.4 527
  171.0544 31.6 100
  211.051 4.0 12
  212.0589 5.9 18
  213.0647 17.9 57
  214.0512 3.9 12
  232.0796 3.6 11
  233.0923 38.3 122
  234.0783 6.3 20
  248.0826 3.5 11
  249.0841 7.4 23
  260.0811 32.7 104
  261.0889 159.3 508
  262.0721 7.3 23
  277.0934 3.6 11
  302.0914 43.6 139
  303.1004 102.3 326
  304.1077 4.5 14
  340.0729 4.9 15
  343.0749 7.1 22
  352.0751 7.2 22
  358.0849 59.3 189
  367.0637 6.3 20
  368.0704 9.2 29
  370.0867 20.3 64
  386.0794 48.4 154
  394.0859 5.2 16
  400.0937 10.4 33
  412.0959 18.1 57
  434.05 4.4 14
  438.0412 5.5 17
  466.0315 8.9 28
  476.0539 10.2 32
//
