ACCESSION: MSBNK-BAFG-CSL2311108934
RECORD_TITLE: Sildenafil; LC-ESI-QTOF; MS2; 90 V
DATE: 2023.11.10
AUTHORS: Kevin S. Jewell; Björn Ehlig; Arne Wick
LICENSE: dl-de/by-2-0
COPYRIGHT: Copyright 2023 Federal Institute of Hydrology, Koblenz, Germany
COMMENT: CONFIDENCE Reference Standard (Level 1)
COMMENT: Chromatography method: dx.doi.org/10.1016/j.chroma.2015.11.014
COMMENT: Acquisition method: 10.1002/rcm.8541
CH$NAME: Sildenafil
CH$COMPOUND_CLASS: Pharmaceutical
CH$FORMULA: C22H30N6O4S
CH$EXACT_MASS: 474.2049
CH$SMILES: CCCC1=NN(C2=C1NC(=NC2=O)C3=C(C=CC(=C3)S(=O)(=O)N4CCN(CC4)C)OCC)C
CH$IUPAC: InChI=1S/C22H30N6O4S/c1-5-7-17-19-20(27(4)25-17)22(29)24-21(23-19)16-14-15(8-9-18(16)32-6-2)33(30,31)28-12-10-26(3)11-13-28/h8-9,14H,5-7,10-13H2,1-4H3,(H,23,24,29)
CH$LINK: CAS 139755-83-2
CH$LINK: INCHIKEY BNRNXUUZRGQAQC-UHFFFAOYSA-N
AC$INSTRUMENT: TripleTOF 5600 SCIEX
AC$INSTRUMENT_TYPE: LC-ESI-QTOF
AC$MASS_SPECTROMETRY: MS_TYPE MS2
AC$MASS_SPECTROMETRY: ION_MODE POSITIVE
AC$MASS_SPECTROMETRY: COLLISION_ENERGY 90
AC$MASS_SPECTROMETRY: FRAGMENTATION_MODE CID
AC$MASS_SPECTROMETRY: IONIZATION ESI
AC$CHROMATOGRAPHY: COLUMN_NAME Zorbax Eclipse Plus C18 2.1 mm x 150 mm, 3.5 um, Agilent
AC$CHROMATOGRAPHY: COLUMN_TEMPERATURE 40 °C
AC$CHROMATOGRAPHY: FLOW_GRADIENT 0 min min 98% A, 1 min 98% A, 2 min 80% A, 16.5 min 2% A, 22 min 2% A, 22.1 min 98% A, 27 min 98% A
AC$CHROMATOGRAPHY: FLOW_RATE 0.3 mL/min
AC$CHROMATOGRAPHY: RETENTION_TIME 7.283 min
AC$CHROMATOGRAPHY: SOLVENT A: Water 0.1% Formic acid, B: Acetonitrile 0.1% Formic acid
MS$FOCUSED_ION: PRECURSOR_M/Z 475.2122
MS$FOCUSED_ION: PRECURSOR_TYPE [M+H]+
MS$DATA_PROCESSING: COMMENT Export with Spectra 1.9.12 MsBackendMassbank 1.7.4
MS$DATA_PROCESSING: WHOLE RMassBank 2.3.1
PK$SPLASH: splash10-0a4i-9880000000-0b790d54331a52f342c8
PK$NUM_PEAK: 118
PK$PEAK: m/z int. rel.int.
  42.0462 3.3 72
  44.0594 0.7 15
  56.0586 5.3 117
  58.0746 45.2 999
  69.0514 1.2 26
  70.0704 5.3 117
  77.0439 0.6 13
  80.0562 0.6 13
  81.0501 0.9 19
  83.066 0.6 13
  84.0728 1.3 28
  94.0348 0.5 11
  95.0626 1 22
  97.0732 0.5 11
  99.0937 1.6 35
  104.0514 0.8 17
  105.042 0.5 11
  109.0726 0.5 11
  116.0531 0.6 13
  117.0462 1 22
  120.0482 1 22
  122.0382 0.7 15
  128.0509 1.1 24
  129.0463 1.6 35
  130.038 0.6 13
  130.0556 0.8 17
  131.0593 1.5 33
  132.039 0.5 11
  133.0592 0.5 11
  136.0526 4.5 99
  140.0539 0.5 11
  141.0453 0.7 15
  142.0495 0.5 11
  142.0615 0.6 13
  143.0527 1.1 24
  144.038 0.5 11
  145.0426 0.8 17
  146.0617 0.5 11
  146.0758 0.5 11
  154.0561 1 22
  155.0603 2.6 57
  156.0537 1.7 37
  157.0436 0.5 11
  157.0614 0.8 17
  158.0484 1 22
  158.0726 1.1 24
  159.0561 0.8 17
  164.0795 0.6 13
  166.0971 2.3 50
  168.0532 0.5 11
  168.0692 0.9 19
  169.0815 0.8 17
  170.0703 2.3 50
  171.0801 2.4 53
  172.0843 0.8 17
  173.0687 0.5 11
  176.0771 0.9 19
  180.0603 0.5 11
  181.0695 0.6 13
  182.0667 1.4 30
  183.0586 2.2 48
  183.0768 0.6 13
  183.098 0.5 11
  184.0545 1.2 26
  184.0883 1 22
  185.079 1.9 41
  186.0647 1.1 24
  187.0487 0.5 11
  194.0719 0.9 19
  195.0735 0.8 17
  196.049 0.6 13
  196.0714 0.5 11
  197.0587 0.7 15
  197.0781 3.4 75
  198.0571 1 22
  198.0709 1.1 24
  198.0928 1.8 39
  199.0697 1.1 24
  199.097 0.5 11
  200.0855 0.8 17
  208.0553 0.6 13
  208.0853 0.6 13
  209.0636 0.5 11
  209.083 0.9 19
  210.058 0.9 19
  210.0969 0.5 11
  211.0584 4.9 108
  211.0935 0.7 15
  212.0727 2 44
  212.0867 0.6 13
  212.1173 0.5 11
  213.0798 2.3 50
  217.1123 0.7 15
  222.07 0.8 17
  224.0651 0.6 13
  225.0779 11 243
  226.0855 3.7 81
  227.0932 2.5 55
  228.106 0.6 13
  237.0765 1 22
  238.0859 0.7 15
  239.0555 2.4 53
  239.0907 2.7 59
  240.0668 1 22
  240.1062 0.9 19
  241.0724 0.6 13
  241.102 0.5 11
  250.089 0.5 11
  253.0752 7.4 163
  254.0809 4.7 103
  255.089 1.1 24
  255.1221 2.8 61
  256.0962 0.9 19
  267.0882 0.9 19
  282.115 0.5 11
  283.1104 0.6 13
  283.124 1.2 26
  284.1311 1.1 24
//
