ACCESSION: MSBNK-BAFG-CSL2311107570
RECORD_TITLE: Progesterone; LC-ESI-QTOF; MS2; 50 V
DATE: 2023.11.10
AUTHORS: Kevin S. Jewell; Björn Ehlig; Arne Wick
LICENSE: dl-de/by-2-0
COPYRIGHT: Copyright 2023 Federal Institute of Hydrology, Koblenz, Germany
COMMENT: CONFIDENCE Reference Standard (Level 1)
COMMENT: Chromatography method: dx.doi.org/10.1016/j.chroma.2015.11.014
COMMENT: Acquisition method: 10.1002/rcm.8541
CH$NAME: Progesterone
CH$COMPOUND_CLASS: Pharmaceutical
CH$FORMULA: C21H30O2
CH$EXACT_MASS: 314.2246
CH$SMILES: CC(=O)[C@H]1CC[C@H]2[C@@H]3CCC4=CC(=O)CC[C@]4(C)[C@H]3CC[C@]12C
CH$IUPAC: InChI=1S/C21H30O2/c1-13(22)17-6-7-18-16-5-4-14-12-15(23)8-10-20(14,2)19(16)9-11-21(17,18)3/h12,16-19H,4-11H2,1-3H3/t16-,17+,18-,19-,20-,21+/m0/s1
CH$LINK: CAS 57-83-0
CH$LINK: INCHIKEY RJKFOVLPORLFTN-LEKSSAKUSA-N
AC$INSTRUMENT: TripleTOF 5600 SCIEX
AC$INSTRUMENT_TYPE: LC-ESI-QTOF
AC$MASS_SPECTROMETRY: MS_TYPE MS2
AC$MASS_SPECTROMETRY: ION_MODE POSITIVE
AC$MASS_SPECTROMETRY: COLLISION_ENERGY 50
AC$MASS_SPECTROMETRY: FRAGMENTATION_MODE CID
AC$MASS_SPECTROMETRY: IONIZATION ESI
AC$CHROMATOGRAPHY: COLUMN_NAME Zorbax Eclipse Plus C18 2.1 mm x 150 mm, 3.5 um, Agilent
AC$CHROMATOGRAPHY: COLUMN_TEMPERATURE 40 °C
AC$CHROMATOGRAPHY: FLOW_GRADIENT 0 min min 98% A, 1 min 98% A, 2 min 80% A, 16.5 min 2% A, 22 min 2% A, 22.1 min 98% A, 27 min 98% A
AC$CHROMATOGRAPHY: FLOW_RATE 0.3 mL/min
AC$CHROMATOGRAPHY: RETENTION_TIME 13.796 min
AC$CHROMATOGRAPHY: SOLVENT A: Water 0.1% Formic acid, B: Acetonitrile 0.1% Formic acid
MS$FOCUSED_ION: PRECURSOR_M/Z 315.2319
MS$FOCUSED_ION: PRECURSOR_TYPE [M+H]+
MS$DATA_PROCESSING: COMMENT Export with Spectra 1.9.12 MsBackendMassbank 1.7.4
MS$DATA_PROCESSING: WHOLE RMassBank 2.3.1
PK$SPLASH: splash10-0a4j-9800000000-54b123977aeab4c4d2c3
PK$NUM_PEAK: 39
PK$PEAK: m/z int. rel.int.
  43.0258 7.8 58
  65.0435 1.9 14
  67.0593 7.2 54
  69.0728 4.9 36
  77.0413 10.7 80
  79.0579 33.3 250
  81.0729 27.5 206
  83.0518 4.8 36
  91.056 13.3 99
  93.0715 8.2 61
  95.0865 9.1 68
  97.0671 112.5 845
  105.0704 13.6 102
  107.0501 1.8 13
  107.0852 4.6 34
  109.0663 132.9 999
  117.0695 3.3 24
  119.0861 9 67
  121.0642 2.8 21
  121.101 2.8 21
  123.0807 15.7 118
  128.0608 1.5 11
  129.0709 3 22
  131.0848 6 45
  133.1002 4.5 33
  142.0775 1.4 10
  143.085 3.9 29
  144.0945 1.4 10
  145.1012 6 45
  147.1172 2.2 16
  149.0954 1.5 11
  155.0876 1.4 10
  157.1008 2.8 21
  159.116 4.2 31
  171.1151 2.7 20
  173.1329 2.4 18
  183.1179 1.6 12
  185.1309 1.4 10
  197.1355 1.3 9
//
