ACCESSION: MSBNK-BAFG-CSL23110927383
RECORD_TITLE: 3-Phenylpyridine; LC-ESI-QTOF; MS2; 40 V
DATE: 2023.11.09
AUTHORS: Kevin S. Jewell; Björn Ehlig; Arne Wick
LICENSE: dl-de/by-2-0
COPYRIGHT: Copyright 2023 Federal Institute of Hydrology, Koblenz, Germany
COMMENT: CONFIDENCE Reference Standard (Level 1)
COMMENT: Chromatography method: dx.doi.org/10.1016/j.chroma.2015.11.014
COMMENT: Acquisition method: 10.1002/rcm.8541
CH$NAME: 3-Phenylpyridine
CH$FORMULA: C11H9N
CH$EXACT_MASS: 155.0735
CH$SMILES: C1=CC=C(C=C1)C2=CN=CC=C2
CH$IUPAC: InChI=1S/C11H9N/c1-2-5-10(6-3-1)11-7-4-8-12-9-11/h1-9H
CH$LINK: CAS 1008-88-4
CH$LINK: INCHIKEY HJKGBRPNSJADMB-UHFFFAOYSA-N
AC$INSTRUMENT: TripleTOF X500R SCIEX
AC$INSTRUMENT_TYPE: LC-ESI-QTOF
AC$MASS_SPECTROMETRY: MS_TYPE MS2
AC$MASS_SPECTROMETRY: ION_MODE POSITIVE
AC$MASS_SPECTROMETRY: COLLISION_ENERGY 40
AC$MASS_SPECTROMETRY: FRAGMENTATION_MODE CID
AC$MASS_SPECTROMETRY: IONIZATION ESI
AC$CHROMATOGRAPHY: COLUMN_NAME Zorbax Eclipse Plus C18 2.1 mm x 150 mm, 3.5 um, Agilent
AC$CHROMATOGRAPHY: COLUMN_TEMPERATURE 40 °C
AC$CHROMATOGRAPHY: FLOW_GRADIENT 0 min min 98% A, 1 min 98% A, 2 min 80% A, 16.5 min 2% A, 22 min 2% A, 22.1 min 98% A, 27 min 98% A
AC$CHROMATOGRAPHY: FLOW_RATE 0.3 mL/min
AC$CHROMATOGRAPHY: RETENTION_TIME 5.684 min
AC$CHROMATOGRAPHY: SOLVENT A: Water 0.1% Formic acid, B: Acetonitrile 0.1% Formic acid
MS$FOCUSED_ION: PRECURSOR_M/Z 156.0808
MS$FOCUSED_ION: PRECURSOR_TYPE [M+H]+
MS$DATA_PROCESSING: COMMENT Export with Spectra 1.9.12 MsBackendMassbank 1.7.4
MS$DATA_PROCESSING: WHOLE RMassBank 2.3.1
PK$SPLASH: splash10-004i-1900000000-6621ca4ebd0c43a1b614
PK$NUM_PEAK: 21
PK$PEAK: m/z int. rel.int.
  51.0231 46.6 106
  53.0383 11.8 27
  77.0387 37.3 85
  78.0338 141.8 324
  79.042 5.3 12
  101.0387 9.3 21
  102.0468 17.3 39
  103.0548 12.2 27
  104.0499 42.6 97
  115.0543 9.8 22
  116.0499 8.6 19
  117.0576 15.9 36
  126.0468 18.7 42
  127.0546 187.8 430
  128.0619 436 999
  129.0701 41.8 95
  130.0658 9.6 21
  141.0581 5.8 13
  154.0658 82.3 188
  155.0704 25.6 58
  156.0808 237.4 543
//
