ACCESSION: MSBNK-BAFG-CSL23103017325
RECORD_TITLE: 2-Methyl-4`-(methylthio)-2-morpholinopropiophenone; LC-ESI-QTOF; MS2; 60 V
DATE: 2023.10.30
AUTHORS: Kevin S. Jewell; Björn Ehlig; Arne Wick
LICENSE: dl-de/by-2-0
COPYRIGHT: Copyright 2023 Federal Institute of Hydrology, Koblenz, Germany
COMMENT: CONFIDENCE Reference Standard (Level 1)
COMMENT: Chromatography method: dx.doi.org/10.1016/j.chroma.2015.11.014
COMMENT: Acquisition method: 10.1002/rcm.8541
CH$NAME: 2-Methyl-4`-(methylthio)-2-morpholinopropiophenone
CH$COMPOUND_CLASS: Industrial_process
CH$FORMULA: C15H21NO2S
CH$EXACT_MASS: 279.1293
CH$SMILES: CC(C)(C(=O)C1=CC=C(C=C1)SC)N2CCOCC2
CH$IUPAC: InChI=1S/C15H21NO2S/c1-15(2,16-8-10-18-11-9-16)14(17)12-4-6-13(19-3)7-5-12/h4-7H,8-11H2,1-3H3
CH$LINK: CAS 71868-10-5
CH$LINK: INCHIKEY LWRBVKNFOYUCNP-UHFFFAOYSA-N
AC$INSTRUMENT: TripleTOF 6600 SCIEX
AC$INSTRUMENT_TYPE: LC-ESI-QTOF
AC$MASS_SPECTROMETRY: MS_TYPE MS2
AC$MASS_SPECTROMETRY: ION_MODE POSITIVE
AC$MASS_SPECTROMETRY: COLLISION_ENERGY 60
AC$MASS_SPECTROMETRY: FRAGMENTATION_MODE CID
AC$MASS_SPECTROMETRY: IONIZATION ESI
AC$CHROMATOGRAPHY: COLUMN_NAME Zorbax Eclipse Plus C18 2.1 mm x 150 mm, 3.5 um, Agilent
AC$CHROMATOGRAPHY: COLUMN_TEMPERATURE 40 °C
AC$CHROMATOGRAPHY: FLOW_GRADIENT 0 min min 98% A, 1 min 98% A, 2 min 80% A, 16.5 min 2% A, 22 min 2% A, 22.1 min 98% A, 27 min 98% A
AC$CHROMATOGRAPHY: FLOW_RATE 0.3 mL/min
AC$CHROMATOGRAPHY: RETENTION_TIME 7.548 min
AC$CHROMATOGRAPHY: SOLVENT A: Water 0.1% Formic acid, B: Acetonitrile 0.1% Formic acid
MS$FOCUSED_ION: PRECURSOR_M/Z 280.1366
MS$FOCUSED_ION: PRECURSOR_TYPE [M+H]+
MS$DATA_PROCESSING: COMMENT Export with Spectra 1.9.12 MsBackendMassbank 1.7.4
MS$DATA_PROCESSING: WHOLE RMassBank 2.3.1
PK$SPLASH: splash10-014i-1900000000-1360583e5fb65546049f
PK$NUM_PEAK: 33
PK$PEAK: m/z int. rel.int.
  42.0341 5.8 29
  44.0497 6.1 31
  44.9794 2.1 10
  45.0337 2.4 12
  65.0381 2.2 11
  70.065 19.1 97
  77.0382 4.6 23
  78.0461 6.4 32
  84.0803 4.4 22
  88.0752 16.9 86
  91.054 51.3 262
  103.0533 10 51
  105.069 3.2 16
  109.0099 11.6 59
  110.0171 2.1 10
  115.054 74.9 383
  116.0611 6.2 31
  117.0698 195 999
  118.0773 24.9 127
  121.0098 7.2 36
  122.0181 33.6 172
  124.0338 4 20
  125.0408 3.3 16
  128.1062 7.5 38
  131.0484 27 138
  134.0174 3.1 15
  135.0256 40.8 209
  137.0416 72.8 372
  145.0635 8.8 45
  146.0714 2.5 12
  149.0409 5.7 29
  150.0489 22.3 114
  165.0723 6.9 35
//
