ACCESSION: MSBNK-BAFG-CSL23110927332
RECORD_TITLE: Prosulfuron; LC-ESI-QTOF; MS2; 140 V
DATE: 2023.11.09
AUTHORS: Kevin S. Jewell; Björn Ehlig; Arne Wick
LICENSE: dl-de/by-2-0
COPYRIGHT: Copyright 2023 Federal Institute of Hydrology, Koblenz, Germany
COMMENT: CONFIDENCE Reference Standard (Level 1)
COMMENT: Chromatography method: dx.doi.org/10.1016/j.chroma.2015.11.014
COMMENT: Acquisition method: 10.1002/rcm.8541
CH$NAME: Prosulfuron
CH$COMPOUND_CLASS: Herbicide
CH$FORMULA: C15H16F3N5O4S
CH$EXACT_MASS: 419.0875
CH$SMILES: CC1=NC(=NC(=N1)OC)NC(=O)NS(=O)(=O)C2=CC=CC=C2CCC(F)(F)F
CH$IUPAC: InChI=1S/C15H16F3N5O4S/c1-9-19-12(22-14(20-9)27-2)21-13(24)23-28(25,26)11-6-4-3-5-10(11)7-8-15(16,17)18/h3-6H,7-8H2,1-2H3,(H2,19,20,21,22,23,24)
CH$LINK: CAS 94125-34-5
CH$LINK: INCHIKEY LTUNNEGNEKBSEH-UHFFFAOYSA-N
AC$INSTRUMENT: TripleTOF 6600 SCIEX
AC$INSTRUMENT_TYPE: LC-ESI-QTOF
AC$MASS_SPECTROMETRY: MS_TYPE MS2
AC$MASS_SPECTROMETRY: ION_MODE POSITIVE
AC$MASS_SPECTROMETRY: COLLISION_ENERGY 140
AC$MASS_SPECTROMETRY: FRAGMENTATION_MODE CID
AC$MASS_SPECTROMETRY: IONIZATION ESI
AC$CHROMATOGRAPHY: COLUMN_NAME Zorbax Eclipse Plus C18 2.1 mm x 150 mm, 3.5 um, Agilent
AC$CHROMATOGRAPHY: COLUMN_TEMPERATURE 40 °C
AC$CHROMATOGRAPHY: FLOW_GRADIENT 0 min min 98% A, 1 min 98% A, 2 min 80% A, 16.5 min 2% A, 22 min 2% A, 22.1 min 98% A, 27 min 98% A
AC$CHROMATOGRAPHY: FLOW_RATE 0.3 mL/min
AC$CHROMATOGRAPHY: RETENTION_TIME 11.847 min
AC$CHROMATOGRAPHY: SOLVENT A: Water 0.1% Formic acid, B: Acetonitrile 0.1% Formic acid
MS$FOCUSED_ION: PRECURSOR_M/Z 420.0948
MS$FOCUSED_ION: PRECURSOR_TYPE [M+H]+
MS$DATA_PROCESSING: COMMENT Export with Spectra 1.9.12 MsBackendMassbank 1.7.4
MS$DATA_PROCESSING: WHOLE RMassBank 2.3.1
PK$SPLASH: splash10-05nf-9000000000-7302df479cf0d831eae4
PK$NUM_PEAK: 30
PK$PEAK: m/z int. rel.int.
  30.0319 1.2 35
  30.9955 0.4 11
  33.0116 0.7 20
  37.005 0.5 14
  39.021 2.3 67
  41.0111 1.6 47
  42.0319 17.9 529
  43.027 23.6 697
  44.0104 1.2 35
  51.0202 0.7 20
  56.0476 5 147
  57.0113 11.9 351
  57.0426 7.7 227
  58.0262 6 177
  59.0268 2.7 79
  61.0044 1.6 47
  62.0121 1.8 53
  63.0199 6.3 186
  67.0266 0.8 23
  68.0217 10.7 316
  69.0057 15.8 466
  77.0356 1.4 41
  78.0448 0.9 26
  81.0115 1.7 50
  83.0261 33.8 999
  89.0356 3 88
  107.0262 0.9 26
  109.0419 10.1 298
  115.0513 0.5 14
  133.0419 1.1 32
//
