ACCESSION: MSBNK-BAFG-CSL2310261344
RECORD_TITLE: 3,4,5-Trimethoxybenzoic acid; LC-ESI-QTOF; MS2; 70 V
DATE: 2023.10.26
AUTHORS: Kevin S. Jewell; Björn Ehlig; Arne Wick
LICENSE: dl-de/by-2-0
COPYRIGHT: Copyright 2023 Federal Institute of Hydrology, Koblenz, Germany
COMMENT: CONFIDENCE Reference Standard (Level 1)
COMMENT: Chromatography method: dx.doi.org/10.1016/j.chroma.2015.11.014
COMMENT: Acquisition method: 10.1002/rcm.8541
CH$NAME: 3,4,5-Trimethoxybenzoic acid
CH$COMPOUND_CLASS: Pharmaceutical; Industrial_process; Metabolite
CH$FORMULA: C10H12O5
CH$EXACT_MASS: 212.0685
CH$SMILES: COc1cc(cc(OC)c1OC)C(O)=O
CH$IUPAC: InChI=1S/C10H12O5/c1-13-7-4-6(10(11)12)5-8(14-2)9(7)15-3/h4-5H,1-3H3,(H,11,12)
CH$LINK: CAS 118-41-2
CH$LINK: INCHIKEY SJSOFNCYXJUNBT-UHFFFAOYSA-N
AC$INSTRUMENT: TripleTOF 5600 SCIEX
AC$INSTRUMENT_TYPE: LC-ESI-QTOF
AC$MASS_SPECTROMETRY: MS_TYPE MS2
AC$MASS_SPECTROMETRY: ION_MODE NEGATIVE
AC$MASS_SPECTROMETRY: COLLISION_ENERGY 70
AC$MASS_SPECTROMETRY: FRAGMENTATION_MODE CID
AC$MASS_SPECTROMETRY: IONIZATION ESI
AC$CHROMATOGRAPHY: COLUMN_NAME Zorbax Eclipse Plus C18 2.1 mm x 150 mm, 3.5 um, Agilent
AC$CHROMATOGRAPHY: COLUMN_TEMPERATURE 40 °C
AC$CHROMATOGRAPHY: FLOW_GRADIENT 0 min min 98% A, 1 min 98% A, 2 min 80% A, 16.5 min 2% A, 22 min 2% A, 22.1 min 98% A, 27 min 98% A
AC$CHROMATOGRAPHY: FLOW_RATE 0.3 mL/min
AC$CHROMATOGRAPHY: RETENTION_TIME 7.633 min
AC$CHROMATOGRAPHY: SOLVENT A: Water 0.1% Formic acid, B: Acetonitrile 0.1% Formic acid
MS$FOCUSED_ION: PRECURSOR_M/Z 211.0612
MS$FOCUSED_ION: PRECURSOR_TYPE [M-H]-
MS$DATA_PROCESSING: COMMENT Export with Spectra 1.9.12 MsBackendMassbank 1.7.4
MS$DATA_PROCESSING: WHOLE RMassBank 2.3.1
PK$SPLASH: splash10-0173-9000000000-69371ac315124be83e87
PK$NUM_PEAK: 13
PK$PEAK: m/z int. rel.int.
  41.0075 0.2 222
  65.002 0.4 444
  65.0117 0.2 222
  66.0101 0.4 444
  78.0091 0.7 776
  81.0335 0.1 111
  89.001 0.9 999
  91.0156 0.1 111
  91.0216 0.1 111
  93.0354 0.2 222
  106.0012 0.1 111
  109.0233 0.1 111
  121.0288 0.1 111
//
