ACCESSION: MSBNK-BAFG-CSL23102513528
RECORD_TITLE: Sulfadimethoxine; LC-ESI-QTOF; MS2; 130 V
DATE: 2023.10.25
AUTHORS: Kevin S. Jewell; Björn Ehlig; Arne Wick
LICENSE: dl-de/by-2-0
COPYRIGHT: Copyright 2023 Federal Institute of Hydrology, Koblenz, Germany
COMMENT: CONFIDENCE Reference Standard (Level 1)
COMMENT: Chromatography method: dx.doi.org/10.1016/j.chroma.2015.11.014
COMMENT: Acquisition method: 10.1002/rcm.8541
CH$NAME: Sulfadimethoxine
CH$COMPOUND_CLASS: Pharmaceutical
CH$FORMULA: C12H14N4O4S
CH$EXACT_MASS: 310.0736
CH$SMILES: COC1=NC(=NC(=C1)NS(=O)(=O)C2=CC=C(C=C2)N)OC
CH$IUPAC: InChI=1S/C12H14N4O4S/c1-19-11-7-10(14-12(15-11)20-2)16-21(17,18)9-5-3-8(13)4-6-9/h3-7H,13H2,1-2H3,(H,14,15,16)
CH$LINK: CAS 122-11-2
CH$LINK: INCHIKEY ZZORFUFYDOWNEF-UHFFFAOYSA-N
AC$INSTRUMENT: TripleTOF 5600 SCIEX
AC$INSTRUMENT_TYPE: LC-ESI-QTOF
AC$MASS_SPECTROMETRY: MS_TYPE MS2
AC$MASS_SPECTROMETRY: ION_MODE POSITIVE
AC$MASS_SPECTROMETRY: COLLISION_ENERGY 130
AC$MASS_SPECTROMETRY: FRAGMENTATION_MODE CID
AC$MASS_SPECTROMETRY: IONIZATION ESI
AC$CHROMATOGRAPHY: COLUMN_NAME Zorbax Eclipse Plus C18 2.1 mm x 150 mm, 3.5 um, Agilent
AC$CHROMATOGRAPHY: COLUMN_TEMPERATURE 40 °C
AC$CHROMATOGRAPHY: FLOW_GRADIENT 0 min min 98% A, 1 min 98% A, 2 min 80% A, 16.5 min 2% A, 22 min 2% A, 22.1 min 98% A, 27 min 98% A
AC$CHROMATOGRAPHY: FLOW_RATE 0.3 mL/min
AC$CHROMATOGRAPHY: RETENTION_TIME 8.09 min
AC$CHROMATOGRAPHY: SOLVENT A: Water 0.1% Formic acid, B: Acetonitrile 0.1% Formic acid
MS$FOCUSED_ION: PRECURSOR_M/Z 311.0809
MS$FOCUSED_ION: PRECURSOR_TYPE [M+H]+
MS$DATA_PROCESSING: COMMENT Export with Spectra 1.9.12 MsBackendMassbank 1.7.4
MS$DATA_PROCESSING: WHOLE RMassBank 2.3.1
PK$SPLASH: splash10-014r-9000000000-1467bb5fb4c1c595839a
PK$NUM_PEAK: 41
PK$PEAK: m/z int. rel.int.
  35.9987 0.4 16
  37.0075 3.3 135
  38.0153 2.7 111
  39.0234 13.3 546
  40.0184 1.9 78
  41.0265 0.5 20
  42.0336 1 41
  43.029 1.1 45
  44.0138 0.7 28
  51.0232 0.6 24
  52.019 1.5 61
  53.0144 0.4 16
  53.0389 6.1 250
  54.0341 1.1 45
  57.0456 0.6 24
  58.0285 0.6 24
  62.0159 0.9 37
  63.0232 2.1 86
  64.0202 0.8 32
  65.0143 0.8 32
  65.0256 0.5 20
  65.039 24.3 999
  66.0214 1.1 45
  66.0337 2.3 94
  66.0466 0.6 24
  67.0057 0.9 37
  67.0296 5.1 209
  68.0136 4.2 172
  69.0087 2.6 106
  69.0461 0.7 28
  69.9932 0.5 20
  74.0152 0.5 20
  77.0131 0.8 32
  77.0365 0.4 16
  80.05 11.7 481
  81.0454 0.6 24
  82.0295 2.3 94
  91.0412 0.5 20
  92.0488 2.4 98
  93.0595 0.5 20
  108.0449 1.3 53
//
