ACCESSION: MSBNK-BAFG-CSL23102727784
RECORD_TITLE: Boc-Asp(OBzl)-OH; LC-ESI-QTOF; MS2; 30 V
DATE: 2023.10.27
AUTHORS: Kevin S. Jewell; Björn Ehlig; Arne Wick
LICENSE: dl-de/by-2-0
COPYRIGHT: Copyright 2023 Federal Institute of Hydrology, Koblenz, Germany
COMMENT: CONFIDENCE Reference Standard (Level 1)
COMMENT: Chromatography method: dx.doi.org/10.1016/j.chroma.2015.11.014
COMMENT: Acquisition method: 10.1002/rcm.8541
CH$NAME: Boc-Asp(OBzl)-OH
CH$FORMULA: C16H21NO6
CH$EXACT_MASS: 323.1369
CH$SMILES: CC(C)(C)OC(=O)NC(CC(=O)OCC1=CC=CC=C1)C(=O)O
CH$IUPAC: InChI=1S/C16H21NO6/c1-16(2,3)23-15(21)17-12(14(19)20)9-13(18)22-10-11-7-5-4-6-8-11/h4-8,12H,9-10H2,1-3H3,(H,17,21)(H,19,20)
CH$LINK: CAS 7536-58-5
CH$LINK: INCHIKEY SOHLZANWVLCPHK-UHFFFAOYSA-N
AC$INSTRUMENT: TripleTOF 6600 SCIEX
AC$INSTRUMENT_TYPE: LC-ESI-QTOF
AC$MASS_SPECTROMETRY: MS_TYPE MS2
AC$MASS_SPECTROMETRY: ION_MODE POSITIVE
AC$MASS_SPECTROMETRY: COLLISION_ENERGY 30
AC$MASS_SPECTROMETRY: FRAGMENTATION_MODE CID
AC$MASS_SPECTROMETRY: IONIZATION ESI
AC$CHROMATOGRAPHY: COLUMN_NAME Zorbax Eclipse Plus C18 2.1 mm x 150 mm, 3.5 um, Agilent
AC$CHROMATOGRAPHY: COLUMN_TEMPERATURE 40 °C
AC$CHROMATOGRAPHY: FLOW_GRADIENT 0 min min 98% A, 1 min 98% A, 2 min 80% A, 16.5 min 2% A, 22 min 2% A, 22.1 min 98% A, 27 min 98% A
AC$CHROMATOGRAPHY: FLOW_RATE 0.3 mL/min
AC$CHROMATOGRAPHY: RETENTION_TIME 10.749 min
AC$CHROMATOGRAPHY: SOLVENT A: Water 0.1% Formic acid, B: Acetonitrile 0.1% Formic acid
MS$FOCUSED_ION: PRECURSOR_M/Z 346.1261
MS$FOCUSED_ION: PRECURSOR_TYPE [M+Na]+
MS$DATA_PROCESSING: COMMENT Export with Spectra 1.9.12 MsBackendMassbank 1.7.4
MS$DATA_PROCESSING: WHOLE RMassBank 2.3.1
PK$SPLASH: splash10-0002-0090000000-554770d27b24bf4d53c7
PK$NUM_PEAK: 4
PK$PEAK: m/z int. rel.int.
  201.0542 0.9 13
  229.0523 0.7 10
  246.0721 65.3 999
  290.0613 7.5 114
//
