ACCESSION: MSBNK-BAFG-CSL2310309172
RECORD_TITLE: Trifloxystrobin acid; LC-ESI-QTOF; MS2; 80 V
DATE: 2023.10.30
AUTHORS: Kevin S. Jewell; Björn Ehlig; Arne Wick
LICENSE: dl-de/by-2-0
COPYRIGHT: Copyright 2023 Federal Institute of Hydrology, Koblenz, Germany
COMMENT: CONFIDENCE Reference Standard (Level 1)
COMMENT: Chromatography method: dx.doi.org/10.1016/j.chroma.2015.11.014
COMMENT: Acquisition method: 10.1002/rcm.8541
CH$NAME: Trifloxystrobin acid
CH$COMPOUND_CLASS: Metabolite; Fungicide; Transformation_product
CH$FORMULA: C19H17F3N2O4
CH$EXACT_MASS: 394.114
CH$SMILES: FC(F)(F)c1cccc(c1)C(\C)=N\OCc2ccccc2C(=N\O)\C(=O)OC
CH$IUPAC: InChI=1S/C19H17F3N2O4/c1-12(13-7-5-8-15(10-13)19(20,21)22)24-28-11-14-6-3-4-9-16(14)17(23-26)18(25)27-2/h3-10,26H,11H2,1-2H3/b23-17-,24-12+
CH$LINK: CAS 252913-85-2
CH$LINK: INCHIKEY VGRRRBZVQNKSFY-PDZARDPFSA-N
AC$INSTRUMENT: TripleTOF 5600 SCIEX
AC$INSTRUMENT_TYPE: LC-ESI-QTOF
AC$MASS_SPECTROMETRY: MS_TYPE MS2
AC$MASS_SPECTROMETRY: ION_MODE POSITIVE
AC$MASS_SPECTROMETRY: COLLISION_ENERGY 80
AC$MASS_SPECTROMETRY: FRAGMENTATION_MODE CID
AC$MASS_SPECTROMETRY: IONIZATION ESI
AC$CHROMATOGRAPHY: COLUMN_NAME Zorbax Eclipse Plus C18 2.1 mm x 150 mm, 3.5 um, Agilent
AC$CHROMATOGRAPHY: COLUMN_TEMPERATURE 40 °C
AC$CHROMATOGRAPHY: FLOW_GRADIENT 0 min min 98% A, 1 min 98% A, 2 min 80% A, 16.5 min 2% A, 22 min 2% A, 22.1 min 98% A, 27 min 98% A
AC$CHROMATOGRAPHY: FLOW_RATE 0.3 mL/min
AC$CHROMATOGRAPHY: RETENTION_TIME 13.286 min
AC$CHROMATOGRAPHY: SOLVENT A: Water 0.1% Formic acid, B: Acetonitrile 0.1% Formic acid
MS$FOCUSED_ION: PRECURSOR_M/Z 395.1213
MS$FOCUSED_ION: PRECURSOR_TYPE [M+H]+
MS$DATA_PROCESSING: COMMENT Export with Spectra 1.9.12 MsBackendMassbank 1.7.4
MS$DATA_PROCESSING: WHOLE RMassBank 2.3.1
PK$SPLASH: splash10-0002-2900000000-b3b95f2ab012707b3f8e
PK$NUM_PEAK: 14
PK$PEAK: m/z int. rel.int.
  74.0204 3.3 13
  75.029 9.2 37
  89.0429 45.8 186
  90.0497 15.7 63
  95.033 43.6 177
  104.0534 2.5 10
  116.0518 59.8 243
  117.0599 26.2 106
  119.0119 2.5 10
  125.0214 22.7 92
  145.0271 245.5 999
  172.0385 3.3 13
  173.0338 5.2 21
  186.0534 13.5 54
//
