ACCESSION: MSBNK-BAFG-CSL25011734574
RECORD_TITLE: Amido Black 10B; LC-ESI-QTOF; MS2; 100 V
DATE: 2025.01.17
AUTHORS: Ole Lessmann; Kevin S. Jewell; Björn Ehlig; Arne Wick
LICENSE: dl-de/by-2-0
COPYRIGHT: Copyright 2025 Federal Institute of Hydrology, Koblenz, Germany
COMMENT: CONFIDENCE Reference Standard (Level 1)
COMMENT: Chromatography method: dx.doi.org/10.1016/j.chroma.2015.11.014
CH$NAME: Amido Black 10B
CH$FORMULA: C22H16N6O9S2
CH$EXACT_MASS: 572.042
CH$SMILES: C1=CC=C(C=C1)N=NC2=C(C3=C(C(=C(C=C3C=C2S(=O)(=O)O)S(=O)(=O)O)N=NC4=CC=C(C=C4)[N+](=O)[O-])N)O
CH$IUPAC: InChI=1S/C22H16N6O9S2/c23-19-18-12(11-17(39(35,36)37)21(22(18)29)27-24-13-4-2-1-3-5-13)10-16(38(32,33)34)20(19)26-25-14-6-8-15(9-7-14)28(30)31/h1-11,29H,23H2,(H,32,33,34)(H,35,36,37)
CH$LINK: CAS 3121-74-2
CH$LINK: INCHIKEY HKJKONMZMPUGHJ-UHFFFAOYSA-N
AC$INSTRUMENT: TripleTOF 6600 SCIEX
AC$INSTRUMENT_TYPE: LC-ESI-QTOF
AC$MASS_SPECTROMETRY: MS_TYPE MS2
AC$MASS_SPECTROMETRY: ION_MODE POSITIVE
AC$MASS_SPECTROMETRY: COLLISION_ENERGY 100
AC$MASS_SPECTROMETRY: FRAGMENTATION_MODE CID
AC$MASS_SPECTROMETRY: IONIZATION ESI
AC$CHROMATOGRAPHY: COLUMN_NAME Zorbax Eclipse Plus C18 2.1 mm x 150 mm, 3.5 um, Agilent
AC$CHROMATOGRAPHY: COLUMN_TEMPERATURE 40 °C
AC$CHROMATOGRAPHY: FLOW_GRADIENT 0 min min 98% A, 1 min 98% A, 2 min 80% A, 16.5 min 2% A, 22 min 2% A, 22.1 min 98% A, 27 min 98% A
AC$CHROMATOGRAPHY: FLOW_RATE 0.3 mL/min
AC$CHROMATOGRAPHY: RETENTION_TIME 9.552 min
AC$CHROMATOGRAPHY: SOLVENT A: Water 0.1% Formic acid, B: Acetonitrile 0.1% Formic acid
MS$FOCUSED_ION: PRECURSOR_M/Z 573.0493
MS$FOCUSED_ION: PRECURSOR_TYPE [M+H]+
MS$DATA_PROCESSING: COMMENT Export with pycsl 0.1.0.dev1 and CSL 25.0
PK$SPLASH: splash10-0006-9230000000-fc504bdc7fbe4decefb3
PK$NUM_PEAK: 64
PK$PEAK: m/z int. rel.int.
  39.0232 5.0 35
  63.0227 1.9 13
  64.0301 1.8 12
  65.0384 72.6 522
  66.046 15.4 110
  74.0162 1.7 12
  75.0224 18.0 129
  77.038 13.5 97
  78.0335 1.7 12
  80.0493 4.1 29
  90.0326 3.4 24
  92.0268 3.9 28
  92.0486 46.0 331
  93.057 138.8 999
  102.034 3.7 26
  114.033 5.0 35
  117.0437 4.6 33
  129.0448 6.2 44
  130.0314 2.0 14
  139.028 2.2 15
  145.0385 7.8 56
  150.0303 2.5 17
  151.0545 1.4 10
  157.0402 2.2 15
  173.0322 9.9 71
  175.0417 1.6 11
  177.0554 4.2 30
  178.058 1.8 12
  179.0615 1.9 13
  188.0392 1.6 11
  189.0435 6.1 43
  190.057 2.2 15
  191.0621 1.5 10
  192.0617 3.4 24
  193.0703 1.9 13
  203.0623 3.5 25
  204.0581 5.8 41
  205.0732 10.1 72
  206.0759 2.3 16
  213.0473 1.8 12
  215.0542 4.6 33
  216.056 10.5 75
  217.064 5.2 37
  218.0716 2.5 17
  220.0846 2.7 19
  230.07 10.5 75
  231.0757 7.5 53
  232.0863 7.1 51
  241.0544 1.4 10
  242.0581 10.4 74
  243.0694 6.7 48
  245.062 1.4 10
  255.0704 2.2 15
  259.0732 2.9 20
  260.0818 1.7 12
  269.0515 1.7 12
  270.0552 5.3 38
  271.0619 5.4 38
  273.0774 1.7 12
  292.0858 1.9 13
  306.0935 1.9 13
  307.0923 2.3 16
  318.0936 1.5 10
  319.0958 1.9 13
//
