ACCESSION: MSBNK-BAFG-CSL23111018696
RECORD_TITLE: Benalaxyl; LC-ESI-QTOF; MS2; 50 V
DATE: 2023.11.10
AUTHORS: Kevin S. Jewell; Björn Ehlig; Arne Wick
LICENSE: dl-de/by-2-0
COPYRIGHT: Copyright 2023 Federal Institute of Hydrology, Koblenz, Germany
COMMENT: CONFIDENCE Reference Standard (Level 1)
COMMENT: Chromatography method: dx.doi.org/10.1016/j.chroma.2015.11.014
COMMENT: Acquisition method: 10.1002/rcm.8541
CH$NAME: Benalaxyl
CH$COMPOUND_CLASS: Fungicide
CH$FORMULA: C20H23NO3
CH$EXACT_MASS: 325.1678
CH$SMILES: CC1=C(C(=CC=C1)C)N(C(C)C(=O)OC)C(=O)CC2=CC=CC=C2
CH$IUPAC: InChI=1S/C20H23NO3/c1-14-9-8-10-15(2)19(14)21(16(3)20(23)24-4)18(22)13-17-11-6-5-7-12-17/h5-12,16H,13H2,1-4H3
CH$LINK: CAS 71626-11-4
CH$LINK: INCHIKEY CJPQIRJHIZUAQP-UHFFFAOYSA-N
AC$INSTRUMENT: TripleTOF 6600 SCIEX
AC$INSTRUMENT_TYPE: LC-ESI-QTOF
AC$MASS_SPECTROMETRY: MS_TYPE MS2
AC$MASS_SPECTROMETRY: ION_MODE POSITIVE
AC$MASS_SPECTROMETRY: COLLISION_ENERGY 50
AC$MASS_SPECTROMETRY: FRAGMENTATION_MODE CID
AC$MASS_SPECTROMETRY: IONIZATION ESI
AC$CHROMATOGRAPHY: COLUMN_NAME Zorbax Eclipse Plus C18 2.1 mm x 150 mm, 3.5 um, Agilent
AC$CHROMATOGRAPHY: COLUMN_TEMPERATURE 40 °C
AC$CHROMATOGRAPHY: FLOW_GRADIENT 0 min min 98% A, 1 min 98% A, 2 min 80% A, 16.5 min 2% A, 22 min 2% A, 22.1 min 98% A, 27 min 98% A
AC$CHROMATOGRAPHY: FLOW_RATE 0.3 mL/min
AC$CHROMATOGRAPHY: RETENTION_TIME 13.881 min
AC$CHROMATOGRAPHY: SOLVENT A: Water 0.1% Formic acid, B: Acetonitrile 0.1% Formic acid
MS$FOCUSED_ION: PRECURSOR_M/Z 326.1751
MS$FOCUSED_ION: PRECURSOR_TYPE [M+H]+
MS$DATA_PROCESSING: COMMENT Export with Spectra 1.9.12 MsBackendMassbank 1.7.4
MS$DATA_PROCESSING: WHOLE RMassBank 2.3.1
PK$SPLASH: splash10-006y-5900000000-8a91e536a5b51b7dabed
PK$NUM_PEAK: 17
PK$PEAK: m/z int. rel.int.
  65.038 33.4 41
  77.0378 10.2 12
  79.0533 14.2 17
  91.0534 796.2 999
  103.0527 9.4 11
  105.0685 50.3 63
  106.0641 97.4 122
  107.0717 14.7 18
  118.0638 20.8 26
  119.0841 10.4 13
  120.0792 44 55
  121.0877 416.6 522
  122.0947 13.8 17
  131.084 14.7 18
  132.0797 11.5 14
  133.0878 51.4 64
  148.1114 696.4 873
//
