ACCESSION: MSBNK-BAFG-CSL23103018192
RECORD_TITLE: Fenpropidin; LC-ESI-QTOF; MS2; 100 V
DATE: 2023.10.30
AUTHORS: Kevin S. Jewell; Björn Ehlig; Arne Wick
LICENSE: dl-de/by-2-0
COPYRIGHT: Copyright 2023 Federal Institute of Hydrology, Koblenz, Germany
COMMENT: CONFIDENCE Reference Standard (Level 1)
COMMENT: Chromatography method: dx.doi.org/10.1016/j.chroma.2015.11.014
COMMENT: Acquisition method: 10.1002/rcm.8541
CH$NAME: Fenpropidin
CH$COMPOUND_CLASS: Fungicide
CH$FORMULA: C19H31N
CH$EXACT_MASS: 273.2456
CH$SMILES: CC(CC1=CC=C(C=C1)C(C)(C)C)CN2CCCCC2
CH$IUPAC: InChI=1S/C19H31N/c1-16(15-20-12-6-5-7-13-20)14-17-8-10-18(11-9-17)19(2,3)4/h8-11,16H,5-7,12-15H2,1-4H3
CH$LINK: CAS 67306-00-7
CH$LINK: INCHIKEY MGNFYQILYYYUBS-UHFFFAOYSA-N
AC$INSTRUMENT: TripleTOF 6600 SCIEX
AC$INSTRUMENT_TYPE: LC-ESI-QTOF
AC$MASS_SPECTROMETRY: MS_TYPE MS2
AC$MASS_SPECTROMETRY: ION_MODE POSITIVE
AC$MASS_SPECTROMETRY: COLLISION_ENERGY 100
AC$MASS_SPECTROMETRY: FRAGMENTATION_MODE CID
AC$MASS_SPECTROMETRY: IONIZATION ESI
AC$CHROMATOGRAPHY: COLUMN_NAME Zorbax Eclipse Plus C18 2.1 mm x 150 mm, 3.5 um, Agilent
AC$CHROMATOGRAPHY: COLUMN_TEMPERATURE 40 °C
AC$CHROMATOGRAPHY: FLOW_GRADIENT 0 min min 98% A, 1 min 98% A, 2 min 80% A, 16.5 min 2% A, 22 min 2% A, 22.1 min 98% A, 27 min 98% A
AC$CHROMATOGRAPHY: FLOW_RATE 0.3 mL/min
AC$CHROMATOGRAPHY: RETENTION_TIME 9.471 min
AC$CHROMATOGRAPHY: SOLVENT A: Water 0.1% Formic acid, B: Acetonitrile 0.1% Formic acid
MS$FOCUSED_ION: PRECURSOR_M/Z 274.2529
MS$FOCUSED_ION: PRECURSOR_TYPE [M+H]+
MS$DATA_PROCESSING: COMMENT Export with Spectra 1.9.12 MsBackendMassbank 1.7.4
MS$DATA_PROCESSING: WHOLE RMassBank 2.3.1
PK$SPLASH: splash10-014l-9700000000-7db2db46782510151a4c
PK$NUM_PEAK: 26
PK$PEAK: m/z int. rel.int.
  37.0075 13.3 24
  38.0149 12.4 22
  39.0231 71.7 132
  41.0387 23.8 44
  50.0149 6.5 12
  51.0229 26.2 48
  56.05 6.8 12
  62.0144 5.7 10
  63.0227 16.1 29
  65.0386 109.9 203
  77.0386 102.9 190
  78.0459 40.7 75
  79.0544 16.5 30
  84.0807 12.5 23
  89.0383 36.6 67
  91.0542 538.8 999
  102.0457 18.6 34
  103.0538 41.6 77
  104.0618 16.4 30
  105.0694 14.9 27
  115.0542 516.4 957
  116.0617 63 116
  117.0697 199.9 370
  128.0613 16.4 30
  129.071 8.2 15
  131.0852 11.7 21
//
