ACCESSION: MSBNK-BAFG-CSL2501067071
RECORD_TITLE: N-desmethyl-venlafaxine; LC-ESI-QTOF; MS2; 50 V
DATE: 2025.01.06
AUTHORS: Ole Lessmann; Kevin S. Jewell; Björn Ehlig; Arne Wick
LICENSE: dl-de/by-2-0
COPYRIGHT: Copyright 2025 Federal Institute of Hydrology, Koblenz, Germany
COMMENT: CONFIDENCE Reference Standard (Level 1)
COMMENT: Chromatography method: dx.doi.org/10.1016/j.chroma.2015.11.014
COMMENT: Acquisition method: 10.1002/rcm.8541
CH$NAME: N-desmethyl-venlafaxine
CH$COMPOUND_CLASS: Pharmaceutical; Metabolite; Transformation_product-Metabolite
CH$FORMULA: C16H25NO2
CH$EXACT_MASS: 263.1885
CH$SMILES: CNCC(c1ccc(cc1)OC)C2(CCCCC2)O
CH$IUPAC: InChI=1S/C16H25NO2/c1-17-12-15(16(18)10-4-3-5-11-16)13-6-8-14(19-2)9-7-13/h6-9,15,17-18H,3-5,10-12H2,1-2H3
CH$LINK: CAS 149289-30-5
CH$LINK: INCHIKEY MKAFOJAJJMUXLW-UHFFFAOYSA-N
AC$INSTRUMENT: TripleTOF 5600 SCIEX
AC$INSTRUMENT_TYPE: LC-ESI-QTOF
AC$MASS_SPECTROMETRY: MS_TYPE MS2
AC$MASS_SPECTROMETRY: ION_MODE POSITIVE
AC$MASS_SPECTROMETRY: COLLISION_ENERGY 50
AC$MASS_SPECTROMETRY: FRAGMENTATION_MODE CID
AC$MASS_SPECTROMETRY: IONIZATION ESI
AC$CHROMATOGRAPHY: COLUMN_NAME Zorbax Eclipse Plus C18 2.1 mm x 150 mm, 3.5 um, Agilent
AC$CHROMATOGRAPHY: COLUMN_TEMPERATURE 40 °C
AC$CHROMATOGRAPHY: FLOW_GRADIENT 0 min min 98% A, 1 min 98% A, 2 min 80% A, 16.5 min 2% A, 22 min 2% A, 22.1 min 98% A, 27 min 98% A
AC$CHROMATOGRAPHY: FLOW_RATE 0.3 mL/min
AC$CHROMATOGRAPHY: RETENTION_TIME 6.444 min
AC$CHROMATOGRAPHY: SOLVENT A: Water 0.1% Formic acid, B: Acetonitrile 0.1% Formic acid
MS$FOCUSED_ION: PRECURSOR_M/Z 264.1958
MS$FOCUSED_ION: PRECURSOR_TYPE [M+H]+
MS$DATA_PROCESSING: COMMENT Export with pycsl 0.1.0.dev1 and CSL 24.4
PK$SPLASH: splash10-006x-5900000000-abc67f9a457cdd70c781
PK$NUM_PEAK: 44
PK$PEAK: m/z int. rel.int.
  44.0589 33.1 571
  65.0424 1.8 31
  67.0571 0.7 12
  69.0726 0.7 12
  77.0395 8.4 144
  78.0481 4.2 72
  79.0552 6.6 113
  81.0712 3.7 63
  91.0546 32.3 557
  93.0706 1.3 22
  103.0532 1.1 18
  104.0608 0.7 12
  105.0688 1.7 29
  106.0408 0.6 10
  107.0484 4.4 75
  115.0527 7.2 124
  116.0608 1.3 22
  117.0687 3.6 62
  119.0482 1.1 18
  119.0851 1.3 22
  121.0642 57.9 999
  127.0542 1.0 17
  128.0622 2.4 41
  129.0678 2.1 36
  130.076 1.0 17
  131.0494 2.5 43
  132.0555 6.0 103
  134.0584 1.2 20
  135.0798 2.2 37
  141.0688 2.4 41
  143.048 0.7 12
  144.056 3.4 58
  145.0647 1.4 24
  146.0742 1.0 17
  147.0792 10.5 181
  148.0748 2.8 48
  149.0826 1.8 31
  153.068 0.6 10
  157.0655 0.8 13
  158.0719 6.0 103
  159.0795 4.7 81
  161.1001 0.8 13
  171.0801 1.0 17
  173.0964 2.7 46
//