ACCESSION: MSBNK-BAFG-CSL250106633
RECORD_TITLE: Benzyl-tributylammonium; LC-ESI-QTOF; MS2; 30 V
DATE: 2025.01.06
AUTHORS: Ole Lessmann; Kevin S. Jewell; Björn Ehlig; Arne Wick
LICENSE: dl-de/by-2-0
COPYRIGHT: Copyright 2025 Federal Institute of Hydrology, Koblenz, Germany
COMMENT: CONFIDENCE Reference Standard (Level 1)
COMMENT: Chromatography method: dx.doi.org/10.1016/j.chroma.2015.11.014
COMMENT: Acquisition method: 10.1002/rcm.8541
CH$NAME: Benzyl-tributylammonium
CH$COMPOUND_CLASS: Industrial_process
CH$FORMULA: [C19H34N]+
CH$EXACT_MASS: 276.2686
CH$SMILES: CCCC[N+](CCCC)(CCCC)Cc1ccccc1
CH$IUPAC: InChI=1S/C19H34N/c1-4-7-15-20(16-8-5-2,17-9-6-3)18-19-13-11-10-12-14-19/h10-14H,4-9,15-18H2,1-3H3/q+1
CH$LINK: CAS 54225-72-8
CH$LINK: INCHIKEY QSRFYFHZPSGRQX-UHFFFAOYSA-N
AC$INSTRUMENT: TripleTOF 5600 SCIEX
AC$INSTRUMENT_TYPE: LC-ESI-QTOF
AC$MASS_SPECTROMETRY: MS_TYPE MS2
AC$MASS_SPECTROMETRY: ION_MODE POSITIVE
AC$MASS_SPECTROMETRY: COLLISION_ENERGY 30
AC$MASS_SPECTROMETRY: FRAGMENTATION_MODE CID
AC$MASS_SPECTROMETRY: IONIZATION ESI
AC$CHROMATOGRAPHY: COLUMN_NAME Zorbax Eclipse Plus C18 2.1 mm x 150 mm, 3.5 um, Agilent
AC$CHROMATOGRAPHY: COLUMN_TEMPERATURE 40 °C
AC$CHROMATOGRAPHY: FLOW_GRADIENT 0 min min 98% A, 1 min 98% A, 2 min 80% A, 16.5 min 2% A, 22 min 2% A, 22.1 min 98% A, 27 min 98% A
AC$CHROMATOGRAPHY: FLOW_RATE 0.3 mL/min
AC$CHROMATOGRAPHY: RETENTION_TIME 9.126 min
AC$CHROMATOGRAPHY: SOLVENT A: Water 0.1% Formic acid, B: Acetonitrile 0.1% Formic acid
MS$FOCUSED_ION: PRECURSOR_M/Z 276.2686
MS$FOCUSED_ION: PRECURSOR_TYPE [M]+
MS$DATA_PROCESSING: COMMENT Export with pycsl 0.1.0.dev1 and CSL 24.4
PK$SPLASH: splash10-000x-1910000000-cf9214021b2192c39428
PK$NUM_PEAK: 5
PK$PEAK: m/z int. rel.int.
  91.0558 158.0 272
  100.1128 75.5 130
  142.1598 579.2 999
  184.2069 369.6 637
  276.2695 121.6 209
//