ACCESSION: MSBNK-BAFG-CSL2310261909
RECORD_TITLE: 3-Hydroxyacetaminophen; LC-ESI-QTOF; MS2; 40 V
DATE: 2023.10.26
AUTHORS: Kevin S. Jewell; Björn Ehlig; Arne Wick
LICENSE: dl-de/by-2-0
COPYRIGHT: Copyright 2023 Federal Institute of Hydrology, Koblenz, Germany
COMMENT: CONFIDENCE Reference Standard (Level 1)
COMMENT: Chromatography method: dx.doi.org/10.1016/j.chroma.2015.11.014
COMMENT: Acquisition method: 10.1002/rcm.8541
CH$NAME: 3-Hydroxyacetaminophen
CH$COMPOUND_CLASS: Pharmaceutical; Transformation_product
CH$FORMULA: C8H9NO3
CH$EXACT_MASS: 167.0582
CH$SMILES: CC(=O)Nc1ccc(O)c(O)c1
CH$IUPAC: InChI=1S/C8H9NO3/c1-5(10)9-6-2-3-7(11)8(12)4-6/h2-4,11-12H,1H3,(H,9,10)
CH$LINK: CAS 37519-14-5
CH$LINK: INCHIKEY IPFBMHOMTSBTSU-UHFFFAOYSA-N
AC$INSTRUMENT: TripleTOF 5600 SCIEX
AC$INSTRUMENT_TYPE: LC-ESI-QTOF
AC$MASS_SPECTROMETRY: MS_TYPE MS2
AC$MASS_SPECTROMETRY: ION_MODE NEGATIVE
AC$MASS_SPECTROMETRY: COLLISION_ENERGY 40
AC$MASS_SPECTROMETRY: FRAGMENTATION_MODE CID
AC$MASS_SPECTROMETRY: IONIZATION ESI
AC$CHROMATOGRAPHY: COLUMN_NAME Zorbax Eclipse Plus C18 2.1 mm x 150 mm, 3.5 um, Agilent
AC$CHROMATOGRAPHY: COLUMN_TEMPERATURE 40 °C
AC$CHROMATOGRAPHY: FLOW_GRADIENT 0 min min 98% A, 1 min 98% A, 2 min 80% A, 16.5 min 2% A, 22 min 2% A, 22.1 min 98% A, 27 min 98% A
AC$CHROMATOGRAPHY: FLOW_RATE 0.3 mL/min
AC$CHROMATOGRAPHY: RETENTION_TIME 4.471 min
AC$CHROMATOGRAPHY: SOLVENT A: Water 0.1% Formic acid, B: Acetonitrile 0.1% Formic acid
MS$FOCUSED_ION: PRECURSOR_M/Z 166.051
MS$FOCUSED_ION: PRECURSOR_TYPE [M-H]-
MS$DATA_PROCESSING: COMMENT Export with Spectra 1.9.12 MsBackendMassbank 1.7.4
MS$DATA_PROCESSING: WHOLE RMassBank 2.3.1
PK$SPLASH: splash10-00di-3900000000-ba08b565797526837d05
PK$NUM_PEAK: 18
PK$PEAK: m/z int. rel.int.
  40.0232 34.5 96
  41.0067 19.6 55
  42.0024 49.2 138
  68.015 19.6 55
  78.0354 56.2 157
  94.0301 183.9 516
  95.0141 28.3 79
  96.0454 27 75
  106.03 58.8 165
  108.0218 81.4 228
  122.0251 356 999
  123.0322 293 822
  123.0465 28 78
  124.0398 147.8 414
  134.0249 98.8 277
  148.0406 26.6 74
  150.0197 37.9 106
  166.0508 63.9 179
//
