ACCESSION: MSBNK-BAFG-CSL23102616750
RECORD_TITLE: Carebastine; LC-ESI-QTOF; MS2; 130 V
DATE: 2023.10.26
AUTHORS: Kevin S. Jewell; Björn Ehlig; Arne Wick
LICENSE: dl-de/by-2-0
COPYRIGHT: Copyright 2023 Federal Institute of Hydrology, Koblenz, Germany
COMMENT: CONFIDENCE Reference Standard (Level 1)
COMMENT: Chromatography method: dx.doi.org/10.1016/j.chroma.2015.11.014
COMMENT: Acquisition method: 10.1002/rcm.8541
CH$NAME: Carebastine
CH$COMPOUND_CLASS: Pharmaceutical
CH$FORMULA: C32H37NO4
CH$EXACT_MASS: 499.2723
CH$SMILES: CC(C)(C1=CC=C(C=C1)C(=O)CCCN2CCC(CC2)OC(C3=CC=CC=C3)C4=CC=CC=C4)C(=O)O
CH$IUPAC: InChI=1S/C32H37NO4/c1-32(2,31(35)36)27-17-15-24(16-18-27)29(34)14-9-21-33-22-19-28(20-23-33)37-30(25-10-5-3-6-11-25)26-12-7-4-8-13-26/h3-8,10-13,15-18,28,30H,9,14,19-23H2,1-2H3,(H,35,36)
CH$LINK: CAS 90729-42-3
CH$LINK: INCHIKEY XGHOVGYJHWQGCC-UHFFFAOYSA-N
AC$INSTRUMENT: TripleTOF 6600 SCIEX
AC$INSTRUMENT_TYPE: LC-ESI-QTOF
AC$MASS_SPECTROMETRY: MS_TYPE MS2
AC$MASS_SPECTROMETRY: ION_MODE POSITIVE
AC$MASS_SPECTROMETRY: COLLISION_ENERGY 130
AC$MASS_SPECTROMETRY: FRAGMENTATION_MODE CID
AC$MASS_SPECTROMETRY: IONIZATION ESI
AC$CHROMATOGRAPHY: COLUMN_NAME Zorbax Eclipse Plus C18 2.1 mm x 150 mm, 3.5 um, Agilent
AC$CHROMATOGRAPHY: COLUMN_TEMPERATURE 40 °C
AC$CHROMATOGRAPHY: FLOW_GRADIENT 0 min min 98% A, 1 min 98% A, 2 min 80% A, 16.5 min 2% A, 22 min 2% A, 22.1 min 98% A, 27 min 98% A
AC$CHROMATOGRAPHY: FLOW_RATE 0.3 mL/min
AC$CHROMATOGRAPHY: RETENTION_TIME 10.045 min
AC$CHROMATOGRAPHY: SOLVENT A: Water 0.1% Formic acid, B: Acetonitrile 0.1% Formic acid
MS$FOCUSED_ION: PRECURSOR_M/Z 500.2796
MS$FOCUSED_ION: PRECURSOR_TYPE [M+H]+
MS$DATA_PROCESSING: COMMENT Export with Spectra 1.9.12 MsBackendMassbank 1.7.4
MS$DATA_PROCESSING: WHOLE RMassBank 2.3.1
PK$SPLASH: splash10-014i-1900000000-6cebf01917b62f45c4c4
PK$NUM_PEAK: 31
PK$PEAK: m/z int. rel.int.
  39.0226 5.8 11
  63.0228 6.2 12
  65.0383 28.3 55
  77.0382 48 93
  78.0457 15.3 29
  79.0539 8.7 17
  89.038 23.6 46
  90.046 30.9 60
  91.054 173.7 339
  102.0458 20.9 40
  103.0539 62.8 122
  107.0483 6.4 12
  115.0542 242.6 474
  116.0615 13 25
  117.0698 131.4 256
  118.0776 91.5 178
  121.0281 5.6 10
  126.046 14.5 28
  127.0536 7.6 14
  128.0616 51.7 101
  131.0493 23.5 45
  139.0538 25.4 49
  141.0699 20.7 40
  146.0717 5.7 11
  150.046 16.7 32
  151.054 59.8 116
  152.0623 305.9 597
  163.0537 27.4 53
  164.062 61.6 120
  165.0703 511.1 999
  166.0784 19.2 37
//
