ACCESSION: MSBNK-BAFG-CSL23103011666
RECORD_TITLE: Amantadine; LC-ESI-QTOF; MS2; 90 V
DATE: 2023.10.30
AUTHORS: Kevin S. Jewell; Björn Ehlig; Arne Wick
LICENSE: dl-de/by-2-0
COPYRIGHT: Copyright 2023 Federal Institute of Hydrology, Koblenz, Germany
COMMENT: CONFIDENCE Reference Standard (Level 1)
COMMENT: Chromatography method: dx.doi.org/10.1016/j.chroma.2015.11.014
COMMENT: Acquisition method: 10.1002/rcm.8541
CH$NAME: Amantadine
CH$COMPOUND_CLASS: Pharmaceutical
CH$FORMULA: C10H17N
CH$EXACT_MASS: 151.1361
CH$SMILES: C1C2CC3CC1CC(C2)(C3)N
CH$IUPAC: InChI=1S/C10H17N/c11-10-4-7-1-8(5-10)3-9(2-7)6-10/h7-9H,1-6,11H2
CH$LINK: CAS 768-94-5
CH$LINK: INCHIKEY DKNWSYNQZKUICI-UHFFFAOYSA-N
AC$INSTRUMENT: TripleTOF 5600 SCIEX
AC$INSTRUMENT_TYPE: LC-ESI-QTOF
AC$MASS_SPECTROMETRY: MS_TYPE MS2
AC$MASS_SPECTROMETRY: ION_MODE POSITIVE
AC$MASS_SPECTROMETRY: COLLISION_ENERGY 90
AC$MASS_SPECTROMETRY: FRAGMENTATION_MODE CID
AC$MASS_SPECTROMETRY: IONIZATION ESI
AC$CHROMATOGRAPHY: COLUMN_NAME Zorbax Eclipse Plus C18 2.1 mm x 150 mm, 3.5 um, Agilent
AC$CHROMATOGRAPHY: COLUMN_TEMPERATURE 40 °C
AC$CHROMATOGRAPHY: FLOW_GRADIENT 0 min min 98% A, 1 min 98% A, 2 min 80% A, 16.5 min 2% A, 22 min 2% A, 22.1 min 98% A, 27 min 98% A
AC$CHROMATOGRAPHY: FLOW_RATE 0.3 mL/min
AC$CHROMATOGRAPHY: RETENTION_TIME 5.148 min
AC$CHROMATOGRAPHY: SOLVENT A: Water 0.1% Formic acid, B: Acetonitrile 0.1% Formic acid
MS$FOCUSED_ION: PRECURSOR_M/Z 152.1434
MS$FOCUSED_ION: PRECURSOR_TYPE [M+H]+
MS$DATA_PROCESSING: COMMENT Export with Spectra 1.9.12 MsBackendMassbank 1.7.4
MS$DATA_PROCESSING: WHOLE RMassBank 2.3.1
PK$SPLASH: splash10-0ufr-9000000000-09044c332ad6d676fdfb
PK$NUM_PEAK: 15
PK$PEAK: m/z int. rel.int.
  37.007 0.6 79
  38.0148 0.5 66
  39.0229 2.1 279
  41.0388 0.8 106
  49.0068 0.5 66
  50.0153 3.5 466
  51.0233 6.3 839
  53.0387 0.4 53
  63.024 0.4 53
  65.0384 2.2 293
  74.015 0.4 53
  77.0385 7.5 999
  78.0484 0.6 79
  79.0542 0.7 93
  91.0542 1.3 173
//
