ACCESSION: MSBNK-BAFG-CSL23111014179
RECORD_TITLE: Tris(1,3-dichloro-2-propyl) phosphate; LC-ESI-QTOF; MS2; 40 V
DATE: 2023.11.10
AUTHORS: Kevin S. Jewell; Björn Ehlig; Arne Wick
LICENSE: dl-de/by-2-0
COPYRIGHT: Copyright 2023 Federal Institute of Hydrology, Koblenz, Germany
COMMENT: CONFIDENCE Reference Standard (Level 1)
COMMENT: Chromatography method: dx.doi.org/10.1016/j.chroma.2015.11.014
COMMENT: Acquisition method: 10.1002/rcm.8541
CH$NAME: Tris(1,3-dichloro-2-propyl) phosphate
CH$COMPOUND_CLASS: Industrial_process
CH$FORMULA: C9H15Cl6O4P
CH$EXACT_MASS: 427.8839
CH$SMILES: C(C(CCl)OP(=O)(OC(CCl)CCl)OC(CCl)CCl)Cl
CH$IUPAC: InChI=1S/C9H15Cl6O4P/c10-1-7(2-11)17-20(16,18-8(3-12)4-13)19-9(5-14)6-15/h7-9H,1-6H2
CH$LINK: CAS 13674-87-8
CH$LINK: INCHIKEY ASLWPAWFJZFCKF-UHFFFAOYSA-N
AC$INSTRUMENT: TripleTOF 5600 SCIEX
AC$INSTRUMENT_TYPE: LC-ESI-QTOF
AC$MASS_SPECTROMETRY: MS_TYPE MS2
AC$MASS_SPECTROMETRY: ION_MODE POSITIVE
AC$MASS_SPECTROMETRY: COLLISION_ENERGY 40
AC$MASS_SPECTROMETRY: FRAGMENTATION_MODE CID
AC$MASS_SPECTROMETRY: IONIZATION ESI
AC$CHROMATOGRAPHY: COLUMN_NAME Zorbax Eclipse Plus C18 2.1 mm x 150 mm, 3.5 um, Agilent
AC$CHROMATOGRAPHY: COLUMN_TEMPERATURE 40 °C
AC$CHROMATOGRAPHY: FLOW_GRADIENT 0 min min 98% A, 1 min 98% A, 2 min 80% A, 16.5 min 2% A, 22 min 2% A, 22.1 min 98% A, 27 min 98% A
AC$CHROMATOGRAPHY: FLOW_RATE 0.3 mL/min
AC$CHROMATOGRAPHY: RETENTION_TIME 13.309 min
AC$CHROMATOGRAPHY: SOLVENT A: Water 0.1% Formic acid, B: Acetonitrile 0.1% Formic acid
MS$FOCUSED_ION: PRECURSOR_M/Z 430.8892
MS$FOCUSED_ION: PRECURSOR_TYPE [M+H]+
MS$DATA_PROCESSING: COMMENT Export with Spectra 1.9.12 MsBackendMassbank 1.7.4
MS$DATA_PROCESSING: WHOLE RMassBank 2.3.1
PK$SPLASH: splash10-0002-9000000000-a5dbf96c0d67b6cbfbda
PK$NUM_PEAK: 17
PK$PEAK: m/z int. rel.int.
  39.0216 0.5172 3
  48.9826 0.5515 3
  62.9616 1.579 9
  74.9983 12.4548 74
  76.9952 3.3051 19
  80.9723 8.2828 49
  98.6863 1.7566 10
  98.9836 167.1217 999
  100.9872 0.9392 5
  110.9748 1.9603 11
  112.9726 0.9442 5
  136.9994 1.4619 8
  172.9764 0.7817 4
  208.9545 10.143 60
  210.951 4.6381 27
  318.9272 1.3759 8
  320.9242 2.1432 12
//
