ACCESSION: MSBNK-BAFG-CSL25010634329
RECORD_TITLE: N-Isopropyl-N'-phenyl-p-phenylenediamine; LC-ESI-QTOF; MS2; 70 V
DATE: 2025.01.06
AUTHORS: Ole Lessmann; Kevin S. Jewell; Björn Ehlig; Arne Wick
LICENSE: dl-de/by-2-0
COPYRIGHT: Copyright 2025 Federal Institute of Hydrology, Koblenz, Germany
COMMENT: CONFIDENCE Reference Standard (Level 1)
COMMENT: Chromatography method: dx.doi.org/10.1016/j.chroma.2015.11.014
COMMENT: Acquisition method: 10.1002/rcm.8541
CH$NAME: N-Isopropyl-N'-phenyl-p-phenylenediamine
CH$COMPOUND_CLASS: Industrial_process
CH$FORMULA: C15H18N2
CH$EXACT_MASS: 226.147
CH$SMILES: CC(C)Nc1ccc(cc1)Nc2ccccc2
CH$IUPAC: InChI=1S/C15H18N2/c1-12(2)16-14-8-10-15(11-9-14)17-13-6-4-3-5-7-13/h3-12,16-17H,1-2H3
CH$LINK: CAS 101-72-4
CH$LINK: INCHIKEY OUBMGJOQLXMSNT-UHFFFAOYSA-N
AC$INSTRUMENT: TripleTOF 6600 SCIEX
AC$INSTRUMENT_TYPE: LC-ESI-QTOF
AC$MASS_SPECTROMETRY: MS_TYPE MS2
AC$MASS_SPECTROMETRY: ION_MODE POSITIVE
AC$MASS_SPECTROMETRY: COLLISION_ENERGY 70
AC$MASS_SPECTROMETRY: FRAGMENTATION_MODE CID
AC$MASS_SPECTROMETRY: IONIZATION ESI
AC$CHROMATOGRAPHY: COLUMN_NAME Zorbax Eclipse Plus C18 2.1 mm x 150 mm, 3.5 um, Agilent
AC$CHROMATOGRAPHY: COLUMN_TEMPERATURE 40 °C
AC$CHROMATOGRAPHY: FLOW_GRADIENT 0 min min 98% A, 1 min 98% A, 2 min 80% A, 16.5 min 2% A, 22 min 2% A, 22.1 min 98% A, 27 min 98% A
AC$CHROMATOGRAPHY: FLOW_RATE 0.3 mL/min
AC$CHROMATOGRAPHY: RETENTION_TIME 7.24 min
AC$CHROMATOGRAPHY: SOLVENT A: Water 0.1% Formic acid, B: Acetonitrile 0.1% Formic acid
MS$FOCUSED_ION: PRECURSOR_M/Z 227.1543
MS$FOCUSED_ION: PRECURSOR_TYPE [M+H]+
MS$DATA_PROCESSING: COMMENT Export with pycsl 0.1.0.dev1 and CSL 24.4
PK$SPLASH: splash10-053r-7900000000-6b4b3a6e9073d8623a51
PK$NUM_PEAK: 40
PK$PEAK: m/z int. rel.int.
  39.0227 4.9 12
  51.0218 4.7 12
  53.038 33.7 87
  63.0216 15.5 40
  65.0379 14.2 37
  66.0453 15.9 41
  77.0375 21.5 56
  78.0328 8.4 21
  79.0411 7.3 19
  80.0489 383.4 999
  81.0566 7.0 18
  89.0368 4.5 11
  90.0321 18.3 47
  91.0401 18.5 48
  92.048 6.5 16
  93.0558 24.2 63
  105.0434 10.7 27
  106.0513 5.4 14
  107.0592 251.8 656
  115.0526 18.5 48
  116.051 4.2 10
  117.055 7.1 18
  118.051 17.1 44
  127.0518 7.3 19
  128.059 17.7 46
  129.0674 10.9 28
  130.0637 15.5 40
  139.0523 37.6 97
  140.0489 31.7 82
  143.0714 5.5 14
  154.0631 10.2 26
  155.068 4.3 11
  156.0791 16.5 42
  166.0634 53.1 138
  167.0708 53.6 139
  168.0701 20.1 52
  181.0732 30.5 79
  182.081 32.8 85
  183.0904 14.2 37
  184.0974 4.5 11
//