ACCESSION: MSBNK-BAFG-CSL2310264809
RECORD_TITLE: Ampicillin; LC-ESI-QTOF; MS2; 110 V
DATE: 2023.10.26
AUTHORS: Kevin S. Jewell; Björn Ehlig; Arne Wick
LICENSE: dl-de/by-2-0
COPYRIGHT: Copyright 2023 Federal Institute of Hydrology, Koblenz, Germany
COMMENT: CONFIDENCE Reference Standard (Level 1)
COMMENT: Chromatography method: dx.doi.org/10.1016/j.chroma.2015.11.014
COMMENT: Acquisition method: 10.1002/rcm.8541
CH$NAME: Ampicillin
CH$COMPOUND_CLASS: Pharmaceutical
CH$FORMULA: C16H19N3O4S
CH$EXACT_MASS: 349.1096
CH$SMILES: CC1(C)S[C@@H]2[C@H](NC(=O)[C@H](N)c3ccccc3)C(=O)N2[C@H]1C(O)=O
CH$IUPAC: InChI=1S/C16H19N3O4S/c1-16(2)11(15(22)23)19-13(21)10(14(19)24-16)18-12(20)9(17)8-6-4-3-5-7-8/h3-7,9-11,14H,17H2,1-2H3,(H,18,20)(H,22,23)/t9-,10-,11+,14-/m1/s1
CH$LINK: CAS 69-53-4
CH$LINK: INCHIKEY AVKUERGKIZMTKX-NJBDSQKTSA-N
AC$INSTRUMENT: TripleTOF 5600 SCIEX
AC$INSTRUMENT_TYPE: LC-ESI-QTOF
AC$MASS_SPECTROMETRY: MS_TYPE MS2
AC$MASS_SPECTROMETRY: ION_MODE POSITIVE
AC$MASS_SPECTROMETRY: COLLISION_ENERGY 110
AC$MASS_SPECTROMETRY: FRAGMENTATION_MODE CID
AC$MASS_SPECTROMETRY: IONIZATION ESI
AC$CHROMATOGRAPHY: COLUMN_NAME Zorbax Eclipse Plus C18 2.1 mm x 150 mm, 3.5 um, Agilent
AC$CHROMATOGRAPHY: COLUMN_TEMPERATURE 40 °C
AC$CHROMATOGRAPHY: FLOW_GRADIENT 0 min min 98% A, 1 min 98% A, 2 min 80% A, 16.5 min 2% A, 22 min 2% A, 22.1 min 98% A, 27 min 98% A
AC$CHROMATOGRAPHY: FLOW_RATE 0.3 mL/min
AC$CHROMATOGRAPHY: RETENTION_TIME 5.367 min
AC$CHROMATOGRAPHY: SOLVENT A: Water 0.1% Formic acid, B: Acetonitrile 0.1% Formic acid
MS$FOCUSED_ION: PRECURSOR_M/Z 350.1169
MS$FOCUSED_ION: PRECURSOR_TYPE [M+H]+
MS$DATA_PROCESSING: COMMENT Export with Spectra 1.9.12 MsBackendMassbank 1.7.4
MS$DATA_PROCESSING: WHOLE RMassBank 2.3.1
PK$SPLASH: splash10-004l-9300000000-2f9c1f829d20547b893f
PK$NUM_PEAK: 28
PK$PEAK: m/z int. rel.int.
  43.0258 0.7 40
  51.0291 0.6 35
  53.0426 0.5 29
  58.9994 1.2 70
  65.0425 5.7 333
  68.016 0.5 29
  70.068 1.2 70
  75.0259 0.6 35
  77.0412 15.1 882
  77.0746 0.5 29
  78.0499 0.4 23
  79.0567 15.6 911
  86.008 2.4 140
  87.0281 1 58
  89.0401 6.3 368
  90.0477 4.2 245
  91.0555 17.1 999
  101.0404 0.5 29
  103.056 1.4 81
  106.0651 12.6 736
  114.0356 1 58
  115.0532 0.8 46
  116.049 0.6 35
  117.058 4.7 274
  118.0634 1.2 70
  121.0104 3.7 216
  128.0489 0.5 29
  130.065 1.5 87
//
