ACCESSION: MSBNK-BAFG-CSL23102617782
RECORD_TITLE: Desmetryn; LC-ESI-QTOF; MS2; 90 V
DATE: 2023.10.26
AUTHORS: Kevin S. Jewell; Björn Ehlig; Arne Wick
LICENSE: dl-de/by-2-0
COPYRIGHT: Copyright 2023 Federal Institute of Hydrology, Koblenz, Germany
COMMENT: CONFIDENCE Reference Standard (Level 1)
COMMENT: Chromatography method: dx.doi.org/10.1016/j.chroma.2015.11.014
COMMENT: Acquisition method: 10.1002/rcm.8541
CH$NAME: Desmetryn
CH$COMPOUND_CLASS: Herbicide
CH$FORMULA: C8H15N5S
CH$EXACT_MASS: 213.1048
CH$SMILES: CC(C)NC1=NC(=NC(=N1)NC)SC
CH$IUPAC: InChI=1S/C8H15N5S/c1-5(2)10-7-11-6(9-3)12-8(13-7)14-4/h5H,1-4H3,(H2,9,10,11,12,13)
CH$LINK: CAS 1014-69-3
CH$LINK: INCHIKEY HCRWJJJUKUVORR-UHFFFAOYSA-N
AC$INSTRUMENT: TripleTOF 6600 SCIEX
AC$INSTRUMENT_TYPE: LC-ESI-QTOF
AC$MASS_SPECTROMETRY: MS_TYPE MS2
AC$MASS_SPECTROMETRY: ION_MODE POSITIVE
AC$MASS_SPECTROMETRY: COLLISION_ENERGY 90
AC$MASS_SPECTROMETRY: FRAGMENTATION_MODE CID
AC$MASS_SPECTROMETRY: IONIZATION ESI
AC$CHROMATOGRAPHY: COLUMN_NAME Zorbax Eclipse Plus C18 2.1 mm x 150 mm, 3.5 um, Agilent
AC$CHROMATOGRAPHY: COLUMN_TEMPERATURE 40 °C
AC$CHROMATOGRAPHY: FLOW_GRADIENT 0 min min 98% A, 1 min 98% A, 2 min 80% A, 16.5 min 2% A, 22 min 2% A, 22.1 min 98% A, 27 min 98% A
AC$CHROMATOGRAPHY: FLOW_RATE 0.3 mL/min
AC$CHROMATOGRAPHY: RETENTION_TIME 7.281 min
AC$CHROMATOGRAPHY: SOLVENT A: Water 0.1% Formic acid, B: Acetonitrile 0.1% Formic acid
MS$FOCUSED_ION: PRECURSOR_M/Z 214.1121
MS$FOCUSED_ION: PRECURSOR_TYPE [M+H]+
MS$DATA_PROCESSING: COMMENT Export with Spectra 1.9.12 MsBackendMassbank 1.7.4
MS$DATA_PROCESSING: WHOLE RMassBank 2.3.1
PK$SPLASH: splash10-0a4l-9000000000-3be9dfe0c0f79ce1cbe3
PK$NUM_PEAK: 22
PK$PEAK: m/z int. rel.int.
  37.0056 0.5 20
  38.0138 0.5 20
  39.0219 3 122
  41.0123 1.6 65
  41.0376 1.9 77
  42.02 1.9 77
  42.0323 1.4 57
  43.0281 24.5 999
  44.9779 5.1 207
  45.9725 0.4 16
  46.9936 4.1 167
  53.0114 2.3 93
  55.0278 8.5 346
  57.0432 22.2 905
  57.9723 1 40
  58.9807 2.3 93
  59.9885 2.9 118
  68.0226 16.7 680
  71.9886 0.7 28
  74.004 3.3 134
  82.038 9.4 383
  84.983 2.3 93
//
