ACCESSION: MSBNK-BAFG-CSL2311106935
RECORD_TITLE: 19-Nortestosterone; LC-ESI-QTOF; MS2; 100 V
DATE: 2023.11.10
AUTHORS: Kevin S. Jewell; Björn Ehlig; Arne Wick
LICENSE: dl-de/by-2-0
COPYRIGHT: Copyright 2023 Federal Institute of Hydrology, Koblenz, Germany
COMMENT: CONFIDENCE Reference Standard (Level 1)
COMMENT: Chromatography method: dx.doi.org/10.1016/j.chroma.2015.11.014
COMMENT: Acquisition method: 10.1002/rcm.8541
CH$NAME: 19-Nortestosterone
CH$COMPOUND_CLASS: Pharmaceutical
CH$FORMULA: C18H26O2
CH$EXACT_MASS: 274.1933
CH$SMILES: C[C@]12CC[C@H]3[C@@H](CCC4=CC(=O)CC[C@H]34)[C@@H]1CC[C@@H]2O
CH$IUPAC: InChI=1S/C18H26O2/c1-18-9-8-14-13-5-3-12(19)10-11(13)2-4-15(14)16(18)6-7-17(18)20/h10,13-17,20H,2-9H2,1H3/t13-,14+,15+,16-,17-,18-/m0/s1
CH$LINK: CAS 434-22-0
CH$LINK: INCHIKEY NPAGDVCDWIYMMC-IZPLOLCNSA-N
AC$INSTRUMENT: TripleTOF 5600 SCIEX
AC$INSTRUMENT_TYPE: LC-ESI-QTOF
AC$MASS_SPECTROMETRY: MS_TYPE MS2
AC$MASS_SPECTROMETRY: ION_MODE POSITIVE
AC$MASS_SPECTROMETRY: COLLISION_ENERGY 100
AC$MASS_SPECTROMETRY: FRAGMENTATION_MODE CID
AC$MASS_SPECTROMETRY: IONIZATION ESI
AC$CHROMATOGRAPHY: COLUMN_NAME Zorbax Eclipse Plus C18 2.1 mm x 150 mm, 3.5 um, Agilent
AC$CHROMATOGRAPHY: COLUMN_TEMPERATURE 40 °C
AC$CHROMATOGRAPHY: FLOW_GRADIENT 0 min min 98% A, 1 min 98% A, 2 min 80% A, 16.5 min 2% A, 22 min 2% A, 22.1 min 98% A, 27 min 98% A
AC$CHROMATOGRAPHY: FLOW_RATE 0.3 mL/min
AC$CHROMATOGRAPHY: RETENTION_TIME 10.421 min
AC$CHROMATOGRAPHY: SOLVENT A: Water 0.1% Formic acid, B: Acetonitrile 0.1% Formic acid
MS$FOCUSED_ION: PRECURSOR_M/Z 275.2006
MS$FOCUSED_ION: PRECURSOR_TYPE [M+H]+
MS$DATA_PROCESSING: COMMENT Export with Spectra 1.9.12 MsBackendMassbank 1.7.4
MS$DATA_PROCESSING: WHOLE RMassBank 2.3.1
PK$SPLASH: splash10-004i-9300000000-c94eecc8bd54a2ef3d1a
PK$NUM_PEAK: 33
PK$PEAK: m/z int. rel.int.
  43.0256 0.6 24
  55.0232 0.6 24
  55.0585 2 81
  65.0434 8.1 331
  66.051 0.8 32
  67.0593 1.5 61
  77.0416 24.4 999
  78.0484 1 40
  79.0573 8 327
  81.0382 0.5 20
  81.071 1.6 65
  83.053 2.2 90
  83.0707 0.6 24
  89.0398 0.9 36
  91.0559 12.3 503
  91.0827 0.8 32
  93.0721 0.4 16
  94.0431 0.7 28
  102.0469 0.8 32
  103.0524 0.9 36
  105.0729 1 40
  109.0654 0.8 32
  115.0539 7.1 290
  116.0612 0.7 28
  117.0689 0.4 16
  127.0534 2.1 85
  128.0614 4.8 196
  129.0713 0.6 24
  131.0542 0.4 16
  141.0705 1 40
  152.061 0.9 36
  153.0723 0.8 32
  165.0662 0.6 24
//
