ACCESSION: MSBNK-BAFG-CSL25010634391
RECORD_TITLE: 4,4`-Methylenebis(2-chloroaniline); LC-ESI-QTOF; MS2; 140 V
DATE: 2025.01.06
AUTHORS: Ole Lessmann; Kevin S. Jewell; Björn Ehlig; Arne Wick
LICENSE: dl-de/by-2-0
COPYRIGHT: Copyright 2025 Federal Institute of Hydrology, Koblenz, Germany
COMMENT: CONFIDENCE Reference Standard (Level 1)
COMMENT: Chromatography method: dx.doi.org/10.1016/j.chroma.2015.11.014
COMMENT: Acquisition method: 10.1002/rcm.8541
CH$NAME: 4,4`-Methylenebis(2-chloroaniline)
CH$FORMULA: C13H12Cl2N2
CH$EXACT_MASS: 266.0378
CH$SMILES: C1=CC(=C(C=C1CC2=CC(=C(C=C2)N)Cl)Cl)N
CH$IUPAC: InChI=1S/C13H12Cl2N2/c14-10-6-8(1-3-12(10)16)5-9-2-4-13(17)11(15)7-9/h1-4,6-7H,5,16-17H2
CH$LINK: CAS 101-14-4
CH$LINK: INCHIKEY IBOFVQJTBBUKMU-UHFFFAOYSA-N
AC$INSTRUMENT: TripleTOF 6600 SCIEX
AC$INSTRUMENT_TYPE: LC-ESI-QTOF
AC$MASS_SPECTROMETRY: MS_TYPE MS2
AC$MASS_SPECTROMETRY: ION_MODE POSITIVE
AC$MASS_SPECTROMETRY: COLLISION_ENERGY 140
AC$MASS_SPECTROMETRY: FRAGMENTATION_MODE CID
AC$MASS_SPECTROMETRY: IONIZATION ESI
AC$CHROMATOGRAPHY: COLUMN_NAME Zorbax Eclipse Plus C18 2.1 mm x 150 mm, 3.5 um, Agilent
AC$CHROMATOGRAPHY: COLUMN_TEMPERATURE 40 °C
AC$CHROMATOGRAPHY: FLOW_GRADIENT 0 min min 98% A, 1 min 98% A, 2 min 80% A, 16.5 min 2% A, 22 min 2% A, 22.1 min 98% A, 27 min 98% A
AC$CHROMATOGRAPHY: FLOW_RATE 0.3 mL/min
AC$CHROMATOGRAPHY: RETENTION_TIME 11.747 min
AC$CHROMATOGRAPHY: SOLVENT A: Water 0.1% Formic acid, B: Acetonitrile 0.1% Formic acid
MS$FOCUSED_ION: PRECURSOR_M/Z 267.045
MS$FOCUSED_ION: PRECURSOR_TYPE [M+H]+
MS$DATA_PROCESSING: COMMENT Export with pycsl 0.1.0.dev1 and CSL 24.4
PK$SPLASH: splash10-0udi-9200000000-74a0cca0fff64b844cf3
PK$NUM_PEAK: 43
PK$PEAK: m/z int. rel.int.
  37.0081 0.8 49
  38.0149 0.5 30
  39.0229 1.1 67
  49.008 0.8 49
  50.0158 10.5 643
  51.0232 16.3 999
  52.0193 1.0 61
  52.0302 0.6 36
  61.0079 1.4 85
  62.0161 3.4 208
  63.0238 4.9 300
  65.0404 0.5 30
  72.9842 0.5 30
  73.0073 0.7 42
  74.0156 9.2 563
  75.0229 3.0 183
  76.0189 0.4 24
  76.0311 0.8 49
  77.0392 4.4 269
  78.0343 0.6 36
  85.0068 1.2 73
  86.0151 1.9 116
  87.0224 2.3 140
  88.0317 0.8 49
  89.0388 2.5 153
  97.007 0.8 49
  98.0157 6.2 379
  99.0239 1.2 73
  102.0463 1.0 61
  104.0483 0.6 36
  110.0158 1.4 85
  113.0377 2.3 140
  114.0428 0.5 30
  115.0551 1.4 85
  122.0165 0.9 55
  126.0447 0.6 36
  137.0365 0.6 36
  139.0542 4.9 300
  140.0509 0.9 55
  149.0404 0.8 49
  150.0472 2.7 165
  151.0517 0.6 36
  164.0491 0.9 55
//