ACCESSION: MSBNK-BAFG-CSL25010613880
RECORD_TITLE: 1H,1H,2H,2H-Perfluorohexanesulphonic acid; LC-ESI-QTOF; MS2; 50 V
DATE: 2025.01.06
AUTHORS: Ole Lessmann; Kevin S. Jewell; Björn Ehlig; Arne Wick
LICENSE: dl-de/by-2-0
COPYRIGHT: Copyright 2025 Federal Institute of Hydrology, Koblenz, Germany
COMMENT: CONFIDENCE Reference Standard (Level 1)
COMMENT: Chromatography method: dx.doi.org/10.1016/j.chroma.2015.11.014
COMMENT: Acquisition method: 10.1002/rcm.8541
CH$NAME: 1H,1H,2H,2H-Perfluorohexanesulphonic acid
CH$COMPOUND_CLASS: Industrial_process; PFAS
CH$FORMULA: C6H5F9O3S
CH$EXACT_MASS: 327.9816
CH$SMILES: C(CS(=O)(=O)O)C(C(C(C(F)(F)F)(F)F)(F)F)(F)F
CH$IUPAC: InChI=1S/C6H5F9O3S/c7-3(8,1-2-19(16,17)18)4(9,10)5(11,12)6(13,14)15/h1-2H2,(H,16,17,18)
CH$LINK: CAS 757124-72-4
CH$LINK: INCHIKEY TXGIGTRUEITPSC-UHFFFAOYSA-N
AC$INSTRUMENT: TripleTOF 6600 SCIEX
AC$INSTRUMENT_TYPE: LC-ESI-QTOF
AC$MASS_SPECTROMETRY: MS_TYPE MS2
AC$MASS_SPECTROMETRY: ION_MODE NEGATIVE
AC$MASS_SPECTROMETRY: COLLISION_ENERGY 50
AC$MASS_SPECTROMETRY: FRAGMENTATION_MODE CID
AC$MASS_SPECTROMETRY: IONIZATION ESI
AC$CHROMATOGRAPHY: COLUMN_NAME Zorbax Eclipse Plus C18 2.1 mm x 150 mm, 3.5 um, Agilent
AC$CHROMATOGRAPHY: COLUMN_TEMPERATURE 40 °C
AC$CHROMATOGRAPHY: FLOW_GRADIENT 0 min min 98% A, 1 min 98% A, 2 min 80% A, 16.5 min 2% A, 22 min 2% A, 22.1 min 98% A, 27 min 98% A
AC$CHROMATOGRAPHY: FLOW_RATE 0.3 mL/min
AC$CHROMATOGRAPHY: RETENTION_TIME 10.117 min
AC$CHROMATOGRAPHY: SOLVENT A: Water 0.1% Formic acid, B: Acetonitrile 0.1% Formic acid
MS$FOCUSED_ION: PRECURSOR_M/Z 326.9743
MS$FOCUSED_ION: PRECURSOR_TYPE [M-H]-
MS$DATA_PROCESSING: COMMENT Export with pycsl 0.1.0.dev1 and CSL 24.4
PK$SPLASH: splash10-003r-9000000000-e77d7f2bb82d72a4b9e9
PK$NUM_PEAK: 10
PK$PEAK: m/z int. rel.int.
  79.9549 129.6 918
  80.9627 140.9 999
  116.9927 2.1 14
  130.9907 1.8 12
  154.9898 6.1 43
  182.9852 4.7 33
  192.9872 6.8 48
  202.9905 2.9 20
  286.9579 4.6 32
  306.9642 3.9 27
//