ACCESSION: MSBNK-BAFG-CSL25010634478
RECORD_TITLE: Disperse brown 1; LC-ESI-QTOF; MS2; 70 V
DATE: 2025.01.06
AUTHORS: Ole Lessmann; Kevin S. Jewell; Björn Ehlig; Arne Wick
LICENSE: dl-de/by-2-0
COPYRIGHT: Copyright 2025 Federal Institute of Hydrology, Koblenz, Germany
COMMENT: CONFIDENCE Reference Standard (Level 1)
COMMENT: Chromatography method: dx.doi.org/10.1016/j.chroma.2015.11.014
COMMENT: Acquisition method: 10.1002/rcm.8541
CH$NAME: Disperse brown 1
CH$FORMULA: C16H15Cl3N4O4
CH$EXACT_MASS: 432.0159
CH$SMILES: C1=CC(=C(C=C1N(CCO)CCO)Cl)N=NC2=C(C=C(C=C2Cl)[N+](=O)[O-])Cl
CH$IUPAC: InChI=1S/C16H15Cl3N4O4/c17-12-7-10(22(3-5-24)4-6-25)1-2-15(12)20-21-16-13(18)8-11(23(26)27)9-14(16)19/h1-2,7-9,24-25H,3-6H2
CH$LINK: CAS 23355-64-8
CH$LINK: INCHIKEY HXXLWTPFYWMBSC-UHFFFAOYSA-N
AC$INSTRUMENT: TripleTOF 6600 SCIEX
AC$INSTRUMENT_TYPE: LC-ESI-QTOF
AC$MASS_SPECTROMETRY: MS_TYPE MS2
AC$MASS_SPECTROMETRY: ION_MODE POSITIVE
AC$MASS_SPECTROMETRY: COLLISION_ENERGY 70
AC$MASS_SPECTROMETRY: FRAGMENTATION_MODE CID
AC$MASS_SPECTROMETRY: IONIZATION ESI
AC$CHROMATOGRAPHY: COLUMN_NAME Zorbax Eclipse Plus C18 2.1 mm x 150 mm, 3.5 um, Agilent
AC$CHROMATOGRAPHY: COLUMN_TEMPERATURE 40 °C
AC$CHROMATOGRAPHY: FLOW_GRADIENT 0 min min 98% A, 1 min 98% A, 2 min 80% A, 16.5 min 2% A, 22 min 2% A, 22.1 min 98% A, 27 min 98% A
AC$CHROMATOGRAPHY: FLOW_RATE 0.3 mL/min
AC$CHROMATOGRAPHY: RETENTION_TIME 12.39 min
AC$CHROMATOGRAPHY: SOLVENT A: Water 0.1% Formic acid, B: Acetonitrile 0.1% Formic acid
MS$FOCUSED_ION: PRECURSOR_M/Z 433.0232
MS$FOCUSED_ION: PRECURSOR_TYPE [M+H]+
MS$DATA_PROCESSING: COMMENT Export with pycsl 0.1.0.dev1 and CSL 24.4
PK$SPLASH: splash10-0w2c-0901000000-86ecf41d0491a3a6d6fa
PK$NUM_PEAK: 69
PK$PEAK: m/z int. rel.int.
  45.0334 1.0 62
  77.038 0.6 37
  78.0343 0.7 43
  90.0333 1.0 62
  91.0546 0.7 43
  92.0497 0.5 31
  96.9833 1.4 87
  98.9837 0.5 31
  99.0003 1.0 62
  103.0303 0.6 37
  104.0495 2.0 125
  105.0459 0.9 56
  105.0586 0.6 37
  106.0645 0.7 43
  106.9443 1.1 69
  108.9842 2.8 175
  109.9779 1.1 69
  110.9996 0.7 43
  111.9936 0.9 56
  114.0123 1.2 75
  116.0504 1.3 81
  117.0417 0.7 43
  117.056 2.6 163
  118.0518 1.5 94
  118.0633 3.7 232
  119.0623 0.9 56
  123.9933 4.2 263
  126.0101 2.6 163
  127.016 0.7 43
  128.0488 0.5 31
  130.0653 0.7 43
  131.0599 2.2 138
  132.0671 0.6 37
  133.0776 0.6 37
  138.0095 1.4 87
  139.006 2.4 150
  139.0157 4.3 270
  140.0271 3.1 194
  141.0323 0.6 37
  142.9451 1.7 106
  143.0605 0.6 37
  143.9517 14.3 898
  144.0663 0.4 25
  145.0763 2.6 163
  149.0687 0.5 31
  152.0179 2.6 163
  153.0206 15.9 999
  153.0341 3.6 226
  158.0377 1.4 87
  159.9508 1.1 69
  163.0862 0.9 56
  166.0396 1.6 100
  167.0399 0.5 31
  168.0327 0.4 25
  171.9572 1.7 106
  175.0879 0.6 37
  179.0397 0.8 50
  185.0462 0.7 43
  189.9477 2.3 144
  197.048 1.9 119
  217.9536 0.6 37
  248.005 0.8 50
  296.9761 1.2 75
  310.9778 11.6 728
  312.9926 0.6 37
  325.0002 0.5 31
  342.9641 0.6 37
  342.9807 0.6 37
  356.9729 1.8 113
//