ACCESSION: MSBNK-BAFG-CSL2310262646
RECORD_TITLE: Albendazole; LC-ESI-QTOF; MS2; 80 V
DATE: 2023.10.26
AUTHORS: Kevin S. Jewell; Björn Ehlig; Arne Wick
LICENSE: dl-de/by-2-0
COPYRIGHT: Copyright 2023 Federal Institute of Hydrology, Koblenz, Germany
COMMENT: CONFIDENCE Reference Standard (Level 1)
COMMENT: Chromatography method: dx.doi.org/10.1016/j.chroma.2015.11.014
COMMENT: Acquisition method: 10.1002/rcm.8541
CH$NAME: Albendazole
CH$COMPOUND_CLASS: Pharmaceutical
CH$FORMULA: C12H15N3O2S
CH$EXACT_MASS: 265.0885
CH$SMILES: CCCSc1ccc2nc(NC(=O)OC)[nH]c2c1
CH$IUPAC: InChI=1S/C12H15N3O2S/c1-3-6-18-8-4-5-9-10(7-8)14-11(13-9)15-12(16)17-2/h4-5,7H,3,6H2,1-2H3,(H2,13,14,15,16)
CH$LINK: CAS 54965-21-8
CH$LINK: INCHIKEY HXHWSAZORRCQMX-UHFFFAOYSA-N
AC$INSTRUMENT: TripleTOF 5600 SCIEX
AC$INSTRUMENT_TYPE: LC-ESI-QTOF
AC$MASS_SPECTROMETRY: MS_TYPE MS2
AC$MASS_SPECTROMETRY: ION_MODE NEGATIVE
AC$MASS_SPECTROMETRY: COLLISION_ENERGY 80
AC$MASS_SPECTROMETRY: FRAGMENTATION_MODE CID
AC$MASS_SPECTROMETRY: IONIZATION ESI
AC$CHROMATOGRAPHY: COLUMN_NAME Zorbax Eclipse Plus C18 2.1 mm x 150 mm, 3.5 um, Agilent
AC$CHROMATOGRAPHY: COLUMN_TEMPERATURE 40 °C
AC$CHROMATOGRAPHY: FLOW_GRADIENT 0 min min 98% A, 1 min 98% A, 2 min 80% A, 16.5 min 2% A, 22 min 2% A, 22.1 min 98% A, 27 min 98% A
AC$CHROMATOGRAPHY: FLOW_RATE 0.3 mL/min
AC$CHROMATOGRAPHY: RETENTION_TIME 8.546 min
AC$CHROMATOGRAPHY: SOLVENT A: Water 0.1% Formic acid, B: Acetonitrile 0.1% Formic acid
MS$FOCUSED_ION: PRECURSOR_M/Z 264.0812
MS$FOCUSED_ION: PRECURSOR_TYPE [M-H]-
MS$DATA_PROCESSING: COMMENT Export with Spectra 1.9.12 MsBackendMassbank 1.7.4
MS$DATA_PROCESSING: WHOLE RMassBank 2.3.1
PK$SPLASH: splash10-0a59-9800000000-a28e5c9dc622ae45d586
PK$NUM_PEAK: 20
PK$PEAK: m/z int. rel.int.
  57.9768 1.7 999
  57.9885 0.2 117
  57.9942 0.1 58
  61.9898 0.2 117
  65.0161 0.5 293
  74.0065 0.3 176
  76.0196 0.2 117
  81.9752 0.9 528
  89.0138 0.3 176
  105.9762 0.3 176
  106.9838 0.2 117
  132.9881 0.4 235
  133.9943 0.7 411
  134.9996 0.2 117
  135.0107 0.1 58
  156.0193 0.3 176
  159.9978 1.4 822
  160.0134 0.1 58
  161.0096 0.3 176
  189.0041 0.2 117
//
