ACCESSION: MSBNK-BAFG-CSL2501068373
RECORD_TITLE: Flecainide meta-O-dealkylated; LC-ESI-QTOF; MS2; 130 V
DATE: 2025.01.06
AUTHORS: Ole Lessmann; Kevin S. Jewell; Björn Ehlig; Arne Wick
LICENSE: dl-de/by-2-0
COPYRIGHT: Copyright 2025 Federal Institute of Hydrology, Koblenz, Germany
COMMENT: CONFIDENCE Reference Standard (Level 1)
COMMENT: Chromatography method: dx.doi.org/10.1016/j.chroma.2015.11.014
COMMENT: Acquisition method: 10.1002/rcm.8541
CH$NAME: Flecainide meta-O-dealkylated
CH$COMPOUND_CLASS: Pharmaceutical; Transformation_product; Transformation_product-Metabolite
CH$FORMULA: C15H19F3N2O3
CH$EXACT_MASS: 332.1348
CH$SMILES: C1CCNC(C1)CNC(=O)C2=C(C=CC(=C2)O)OCC(F)(F)F
CH$IUPAC: InChI=1S/C15H19F3N2O3/c16-15(17,18)9-23-13-5-4-11(21)7-12(13)14(22)20-8-10-3-1-2-6-19-10/h4-5,7,10,19,21H,1-3,6,8-9H2,(H,20,22)
CH$LINK: CAS 83526-33-4
CH$LINK: INCHIKEY FVJPPEWHZCSTAC-UHFFFAOYSA-N
AC$INSTRUMENT: TripleTOF 5600 SCIEX
AC$INSTRUMENT_TYPE: LC-ESI-QTOF
AC$MASS_SPECTROMETRY: MS_TYPE MS2
AC$MASS_SPECTROMETRY: ION_MODE POSITIVE
AC$MASS_SPECTROMETRY: COLLISION_ENERGY 130
AC$MASS_SPECTROMETRY: FRAGMENTATION_MODE CID
AC$MASS_SPECTROMETRY: IONIZATION ESI
AC$CHROMATOGRAPHY: COLUMN_NAME Zorbax Eclipse Plus C18 2.1 mm x 150 mm, 3.5 um, Agilent
AC$CHROMATOGRAPHY: COLUMN_TEMPERATURE 40 °C
AC$CHROMATOGRAPHY: FLOW_GRADIENT 0 min min 98% A, 1 min 98% A, 2 min 80% A, 16.5 min 2% A, 22 min 2% A, 22.1 min 98% A, 27 min 98% A
AC$CHROMATOGRAPHY: FLOW_RATE 0.3 mL/min
AC$CHROMATOGRAPHY: RETENTION_TIME 5.586 min
AC$CHROMATOGRAPHY: SOLVENT A: Water 0.1% Formic acid, B: Acetonitrile 0.1% Formic acid
MS$FOCUSED_ION: PRECURSOR_M/Z 333.1421
MS$FOCUSED_ION: PRECURSOR_TYPE [M+H]+
MS$DATA_PROCESSING: COMMENT Export with pycsl 0.1.0.dev1 and CSL 24.4
PK$SPLASH: splash10-0udi-9000000000-fd697ea075db34341d54
PK$NUM_PEAK: 30
PK$PEAK: m/z int. rel.int.
  42.0455 0.6 26
  44.0615 1.3 57
  51.0325 22.4 999
  54.0192 5.8 258
  56.0565 2.3 102
  57.0202 1.0 44
  65.0438 1.8 80
  67.0514 0.6 26
  68.0564 0.6 26
  69.0052 0.5 22
  70.0713 0.5 22
  71.0336 2.2 98
  73.0122 0.5 22
  74.0181 2.1 93
  75.0273 3.0 133
  77.0416 3.0 133
  79.0223 2.2 98
  79.0595 2.1 93
  80.029 4.6 205
  80.051 0.6 26
  81.0363 0.7 31
  81.0719 0.6 26
  82.0068 1.7 75
  82.0693 0.6 26
  84.0844 2.4 107
  92.0273 0.5 22
  95.0295 1.2 53
  99.0248 5.4 240
  108.0197 2.1 93
  127.0173 0.6 26
//