ACCESSION: MSBNK-BAFG-CSL2501064941
RECORD_TITLE: Chlorothiazide; LC-ESI-QTOF; MS2; 60 V
DATE: 2025.01.06
AUTHORS: Ole Lessmann; Kevin S. Jewell; Björn Ehlig; Arne Wick
LICENSE: dl-de/by-2-0
COPYRIGHT: Copyright 2025 Federal Institute of Hydrology, Koblenz, Germany
COMMENT: CONFIDENCE Reference Standard (Level 1)
COMMENT: Chromatography method: dx.doi.org/10.1016/j.chroma.2015.11.014
COMMENT: Acquisition method: 10.1002/rcm.8541
CH$NAME: Chlorothiazide
CH$COMPOUND_CLASS: Pharmaceutical; Transformation_product-Metabolite
CH$FORMULA: C7H6ClN3O4S2
CH$EXACT_MASS: 294.9488
CH$SMILES: N[S](=O)(=O)c1cc2c(NC=N[S]2(=O)=O)cc1Cl
CH$IUPAC: InChI=1S/C7H6ClN3O4S2/c8-4-1-5-7(2-6(4)16(9,12)13)17(14,15)11-3-10-5/h1-3H,(H,10,11)(H2,9,12,13)
CH$LINK: CAS 58-94-6
CH$LINK: INCHIKEY JBMKAUGHUNFTOL-UHFFFAOYSA-N
AC$INSTRUMENT: TripleTOF 5600 SCIEX
AC$INSTRUMENT_TYPE: LC-ESI-QTOF
AC$MASS_SPECTROMETRY: MS_TYPE MS2
AC$MASS_SPECTROMETRY: ION_MODE POSITIVE
AC$MASS_SPECTROMETRY: COLLISION_ENERGY 60
AC$MASS_SPECTROMETRY: FRAGMENTATION_MODE CID
AC$MASS_SPECTROMETRY: IONIZATION ESI
AC$CHROMATOGRAPHY: COLUMN_NAME Zorbax Eclipse Plus C18 2.1 mm x 150 mm, 3.5 um, Agilent
AC$CHROMATOGRAPHY: COLUMN_TEMPERATURE 40 °C
AC$CHROMATOGRAPHY: FLOW_GRADIENT 0 min min 98% A, 1 min 98% A, 2 min 80% A, 16.5 min 2% A, 22 min 2% A, 22.1 min 98% A, 27 min 98% A
AC$CHROMATOGRAPHY: FLOW_RATE 0.3 mL/min
AC$CHROMATOGRAPHY: RETENTION_TIME 5.43 min
AC$CHROMATOGRAPHY: SOLVENT A: Water 0.1% Formic acid, B: Acetonitrile 0.1% Formic acid
MS$FOCUSED_ION: PRECURSOR_M/Z 295.9561
MS$FOCUSED_ION: PRECURSOR_TYPE [M+H]+
MS$DATA_PROCESSING: COMMENT Export with pycsl 0.1.0.dev1 and CSL 24.4
PK$SPLASH: splash10-05vk-3900000000-b8229f853b23a8b545fd
PK$NUM_PEAK: 23
PK$PEAK: m/z int. rel.int.
  85.9817 0.5 178
  89.0266 1.4 499
  90.0346 0.7 249
  93.046 0.4 142
  96.9858 1.5 535
  97.9804 2.1 749
  99.9946 0.8 285
  104.9568 0.5 178
  106.981 1.9 677
  111.994 0.8 285
  113.9718 0.5 178
  114.0114 0.6 214
  117.0447 2.2 784
  123.9942 2.8 999
  125.0014 1.0 356
  129.0212 1.2 428
  130.0044 0.7 249
  131.9645 0.5 178
  139.9906 1.0 356
  141.9512 0.5 178
  152.0121 0.4 142
  154.9995 1.7 606
  155.9842 1.5 535
//