ACCESSION: MSBNK-BAFG-CSL23110914903
RECORD_TITLE: N,N-Dimethyldecanamide; LC-ESI-QTOF; MS2; 150 V
DATE: 2023.11.09
AUTHORS: Kevin S. Jewell; Björn Ehlig; Arne Wick
LICENSE: dl-de/by-2-0
COPYRIGHT: Copyright 2023 Federal Institute of Hydrology, Koblenz, Germany
COMMENT: CONFIDENCE Reference Standard (Level 1)
COMMENT: Chromatography method: dx.doi.org/10.1016/j.chroma.2015.11.014
COMMENT: Acquisition method: 10.1002/rcm.8541
CH$NAME: N,N-Dimethyldecanamide
CH$COMPOUND_CLASS: Industrial_process
CH$FORMULA: C12H25NO
CH$EXACT_MASS: 199.1936
CH$SMILES: CCCCCCCCCC(=O)N(C)C
CH$IUPAC: InChI=1S/C12H25NO/c1-4-5-6-7-8-9-10-11-12(14)13(2)3/h4-11H2,1-3H3
CH$LINK: CAS 14433-76-2
CH$LINK: INCHIKEY HNXNKTMIVROLTK-UHFFFAOYSA-N
AC$INSTRUMENT: TripleTOF 6600 SCIEX
AC$INSTRUMENT_TYPE: LC-ESI-QTOF
AC$MASS_SPECTROMETRY: MS_TYPE MS2
AC$MASS_SPECTROMETRY: ION_MODE POSITIVE
AC$MASS_SPECTROMETRY: COLLISION_ENERGY 150
AC$MASS_SPECTROMETRY: FRAGMENTATION_MODE CID
AC$MASS_SPECTROMETRY: IONIZATION ESI
AC$CHROMATOGRAPHY: COLUMN_NAME Zorbax Eclipse Plus C18 2.1 mm x 150 mm, 3.5 um, Agilent
AC$CHROMATOGRAPHY: COLUMN_TEMPERATURE 40 °C
AC$CHROMATOGRAPHY: FLOW_GRADIENT 0 min min 98% A, 1 min 98% A, 2 min 80% A, 16.5 min 2% A, 22 min 2% A, 22.1 min 98% A, 27 min 98% A
AC$CHROMATOGRAPHY: FLOW_RATE 0.3 mL/min
AC$CHROMATOGRAPHY: RETENTION_TIME 13.577 min
AC$CHROMATOGRAPHY: SOLVENT A: Water 0.1% Formic acid, B: Acetonitrile 0.1% Formic acid
MS$FOCUSED_ION: PRECURSOR_M/Z 200.2009
MS$FOCUSED_ION: PRECURSOR_TYPE [M+H]+
MS$DATA_PROCESSING: COMMENT Export with Spectra 1.9.12 MsBackendMassbank 1.7.4
MS$DATA_PROCESSING: WHOLE RMassBank 2.3.1
PK$SPLASH: splash10-000l-9000000000-56026a1553e6fc26d62e
PK$NUM_PEAK: 15
PK$PEAK: m/z int. rel.int.
  30.0334 1.2 141
  35.9989 0.8 94
  37.0066 5.4 634
  38.0028 2.2 258
  38.0141 4.9 575
  39.0224 8.4 987
  42.0087 0.4 47
  42.0325 2.2 258
  43.0172 2.9 340
  43.0401 0.4 47
  44.0123 0.6 70
  44.049 8.5 999
  52.0042 0.5 58
  53.0126 0.5 58
  58.0274 0.9 105
//
