ACCESSION: MSBNK-BAFG-CSL23102510566
RECORD_TITLE: Hostavin VSU P; LC-ESI-QTOF; MS2; 80 V
DATE: 2023.10.25
AUTHORS: Kevin S. Jewell; Björn Ehlig; Arne Wick
LICENSE: dl-de/by-2-0
COPYRIGHT: Copyright 2023 Federal Institute of Hydrology, Koblenz, Germany
COMMENT: CONFIDENCE Reference Standard (Level 1)
COMMENT: Chromatography method: dx.doi.org/10.1016/j.chroma.2015.11.014
COMMENT: Acquisition method: 10.1002/rcm.8541
CH$NAME: Hostavin VSU P
CH$FORMULA: C18H20N2O3
CH$EXACT_MASS: 312.1474
CH$SMILES: CCC1=CC=CC=C1NC(=O)C(=O)NC2=CC=CC=C2OCC
CH$IUPAC: InChI=1S/C18H20N2O3/c1-3-13-9-5-6-10-14(13)19-17(21)18(22)20-15-11-7-8-12-16(15)23-4-2/h5-12H,3-4H2,1-2H3,(H,19,21)(H,20,22)
CH$LINK: CAS 23949-66-8
CH$LINK: INCHIKEY YIMHRDBSVCPJOV-UHFFFAOYSA-N
AC$INSTRUMENT: TripleTOF 5600 SCIEX
AC$INSTRUMENT_TYPE: LC-ESI-QTOF
AC$MASS_SPECTROMETRY: MS_TYPE MS2
AC$MASS_SPECTROMETRY: ION_MODE POSITIVE
AC$MASS_SPECTROMETRY: COLLISION_ENERGY 80
AC$MASS_SPECTROMETRY: FRAGMENTATION_MODE CID
AC$MASS_SPECTROMETRY: IONIZATION ESI
AC$CHROMATOGRAPHY: COLUMN_NAME Zorbax Eclipse Plus C18 2.1 mm x 150 mm, 3.5 um, Agilent
AC$CHROMATOGRAPHY: COLUMN_TEMPERATURE 40 °C
AC$CHROMATOGRAPHY: FLOW_GRADIENT 0 min min 98% A, 1 min 98% A, 2 min 80% A, 16.5 min 2% A, 22 min 2% A, 22.1 min 98% A, 27 min 98% A
AC$CHROMATOGRAPHY: FLOW_RATE 0.3 mL/min
AC$CHROMATOGRAPHY: RETENTION_TIME 15.402 min
AC$CHROMATOGRAPHY: SOLVENT A: Water 0.1% Formic acid, B: Acetonitrile 0.1% Formic acid
MS$FOCUSED_ION: PRECURSOR_M/Z 313.1547
MS$FOCUSED_ION: PRECURSOR_TYPE [M+H]+
MS$DATA_PROCESSING: COMMENT Export with Spectra 1.9.12 MsBackendMassbank 1.7.4
MS$DATA_PROCESSING: WHOLE RMassBank 2.3.1
PK$SPLASH: splash10-003r-9700000000-d4550f1d244ae73d53a4
PK$NUM_PEAK: 21
PK$PEAK: m/z int. rel.int.
  65.0381 2.7 508
  77.038 4.7 885
  79.0549 0.9 169
  80.0495 5.3 999
  90.0326 0.5 94
  91.0541 1.6 301
  92.0497 1.6 301
  93.032 0.6 113
  93.0579 1.2 226
  94.0632 1 188
  103.0532 2.5 471
  105.0689 0.5 94
  106.0642 0.5 94
  108.0439 1.2 226
  109.0525 2.3 433
  110.0607 0.6 113
  118.065 0.8 150
  119.073 0.6 113
  120.0807 1.2 226
  130.0656 4.1 772
  136.0388 2.9 546
//
