ACCESSION: MSBNK-BAFG-CSL23102511506
RECORD_TITLE: (Methoxymethyl)triphenylphosphonium; LC-ESI-QTOF; MS2; 90 V
DATE: 2023.10.25
AUTHORS: Kevin S. Jewell; Björn Ehlig; Arne Wick
LICENSE: dl-de/by-2-0
COPYRIGHT: Copyright 2023 Federal Institute of Hydrology, Koblenz, Germany
COMMENT: CONFIDENCE Reference Standard (Level 1)
COMMENT: Chromatography method: dx.doi.org/10.1016/j.chroma.2015.11.014
COMMENT: Acquisition method: 10.1002/rcm.8541
CH$NAME: (Methoxymethyl)triphenylphosphonium
CH$COMPOUND_CLASS: Industrial_process
CH$FORMULA: C20H20OP
CH$EXACT_MASS: 307.1246
CH$SMILES: COC[P+](C1=CC=CC=C1)(C2=CC=CC=C2)C3=CC=CC=C3
CH$IUPAC: InChI=1S/C20H20OP/c1-21-17-22(18-11-5-2-6-12-18,19-13-7-3-8-14-19)20-15-9-4-10-16-20/h2-16H,17H2,1H3/q+1
CH$LINK: CAS 4009-98-7
CH$LINK: INCHIKEY SDMCZCALYDCRBH-UHFFFAOYSA-N
AC$INSTRUMENT: TripleTOF 5600 SCIEX
AC$INSTRUMENT_TYPE: LC-ESI-QTOF
AC$MASS_SPECTROMETRY: MS_TYPE MS2
AC$MASS_SPECTROMETRY: ION_MODE POSITIVE
AC$MASS_SPECTROMETRY: COLLISION_ENERGY 90
AC$MASS_SPECTROMETRY: FRAGMENTATION_MODE CID
AC$MASS_SPECTROMETRY: IONIZATION ESI
AC$CHROMATOGRAPHY: COLUMN_NAME Zorbax Eclipse Plus C18 2.1 mm x 150 mm, 3.5 um, Agilent
AC$CHROMATOGRAPHY: COLUMN_TEMPERATURE 40 °C
AC$CHROMATOGRAPHY: FLOW_GRADIENT 0 min min 98% A, 1 min 98% A, 2 min 80% A, 16.5 min 2% A, 22 min 2% A, 22.1 min 98% A, 27 min 98% A
AC$CHROMATOGRAPHY: FLOW_RATE 0.3 mL/min
AC$CHROMATOGRAPHY: RETENTION_TIME 7.502 min
AC$CHROMATOGRAPHY: SOLVENT A: Water 0.1% Formic acid, B: Acetonitrile 0.1% Formic acid
MS$FOCUSED_ION: PRECURSOR_M/Z 307.1246
MS$FOCUSED_ION: PRECURSOR_TYPE [M]+
MS$DATA_PROCESSING: COMMENT Export with Spectra 1.9.12 MsBackendMassbank 1.7.4
MS$DATA_PROCESSING: WHOLE RMassBank 2.3.1
PK$SPLASH: splash10-0kai-0900000000-b6c11625485111321f1c
PK$NUM_PEAK: 10
PK$PEAK: m/z int. rel.int.
  45.034 23.1 235
  107.0033 39.9 407
  115.0529 23.4 239
  133.0191 7.9 80
  139.0533 17.6 179
  151.0536 9.1 92
  152.0617 87.1 889
  157.0196 41 418
  181.0212 11.1 113
  183.0363 97.8 999
//
