ACCESSION: MSBNK-BAFG-CSL25010634337
RECORD_TITLE: N-Isopropyl-N'-phenyl-p-phenylenediamine; LC-ESI-QTOF; MS2; 150 V
DATE: 2025.01.06
AUTHORS: Ole Lessmann; Kevin S. Jewell; Björn Ehlig; Arne Wick
LICENSE: dl-de/by-2-0
COPYRIGHT: Copyright 2025 Federal Institute of Hydrology, Koblenz, Germany
COMMENT: CONFIDENCE Reference Standard (Level 1)
COMMENT: Chromatography method: dx.doi.org/10.1016/j.chroma.2015.11.014
COMMENT: Acquisition method: 10.1002/rcm.8541
CH$NAME: N-Isopropyl-N'-phenyl-p-phenylenediamine
CH$COMPOUND_CLASS: Industrial_process
CH$FORMULA: C15H18N2
CH$EXACT_MASS: 226.147
CH$SMILES: CC(C)Nc1ccc(cc1)Nc2ccccc2
CH$IUPAC: InChI=1S/C15H18N2/c1-12(2)16-14-8-10-15(11-9-14)17-13-6-4-3-5-7-13/h3-12,16-17H,1-2H3
CH$LINK: CAS 101-72-4
CH$LINK: INCHIKEY OUBMGJOQLXMSNT-UHFFFAOYSA-N
AC$INSTRUMENT: TripleTOF 6600 SCIEX
AC$INSTRUMENT_TYPE: LC-ESI-QTOF
AC$MASS_SPECTROMETRY: MS_TYPE MS2
AC$MASS_SPECTROMETRY: ION_MODE POSITIVE
AC$MASS_SPECTROMETRY: COLLISION_ENERGY 150
AC$MASS_SPECTROMETRY: FRAGMENTATION_MODE CID
AC$MASS_SPECTROMETRY: IONIZATION ESI
AC$CHROMATOGRAPHY: COLUMN_NAME Zorbax Eclipse Plus C18 2.1 mm x 150 mm, 3.5 um, Agilent
AC$CHROMATOGRAPHY: COLUMN_TEMPERATURE 40 °C
AC$CHROMATOGRAPHY: FLOW_GRADIENT 0 min min 98% A, 1 min 98% A, 2 min 80% A, 16.5 min 2% A, 22 min 2% A, 22.1 min 98% A, 27 min 98% A
AC$CHROMATOGRAPHY: FLOW_RATE 0.3 mL/min
AC$CHROMATOGRAPHY: RETENTION_TIME 7.24 min
AC$CHROMATOGRAPHY: SOLVENT A: Water 0.1% Formic acid, B: Acetonitrile 0.1% Formic acid
MS$FOCUSED_ION: PRECURSOR_M/Z 227.1543
MS$FOCUSED_ION: PRECURSOR_TYPE [M+H]+
MS$DATA_PROCESSING: COMMENT Export with pycsl 0.1.0.dev1 and CSL 24.4
PK$SPLASH: splash10-0gw0-9000000000-7ae22f02e1ec13ca797d
PK$NUM_PEAK: 36
PK$PEAK: m/z int. rel.int.
  35.9986 1.4 84
  37.0071 8.4 505
  38.0028 0.8 48
  38.0143 6.4 385
  39.0224 16.6 999
  41.0264 0.6 36
  42.0336 1.1 66
  49.0066 2.6 156
  50.0144 14.1 848
  51.0223 11.3 680
  52.0174 3.1 186
  52.0286 0.7 42
  53.0379 3.6 216
  54.0331 1.3 78
  59.9987 0.6 36
  61.0069 5.1 306
  62.0141 8.4 505
  63.022 8.0 481
  64.0165 0.8 48
  65.0377 0.5 30
  73.0053 0.5 30
  74.0136 5.8 349
  75.0092 0.5 30
  75.0215 2.0 120
  76.0248 0.8 48
  77.0374 1.4 84
  78.034 0.6 36
  80.0488 1.0 60
  85.0057 1.1 66
  86.0135 3.2 192
  87.023 1.3 78
  89.0398 0.7 42
  98.0127 0.9 54
  102.0388 0.5 30
  110.0135 0.5 30
  126.0438 0.4 24
//