ACCESSION: MSBNK-BAFG-CSL2310304407
RECORD_TITLE: Aclonifen; LC-ESI-QTOF; MS2; 40 V
DATE: 2023.10.30
AUTHORS: Kevin S. Jewell; Björn Ehlig; Arne Wick
LICENSE: dl-de/by-2-0
COPYRIGHT: Copyright 2023 Federal Institute of Hydrology, Koblenz, Germany
COMMENT: CONFIDENCE Reference Standard (Level 1)
COMMENT: Chromatography method: dx.doi.org/10.1016/j.chroma.2015.11.014
COMMENT: Acquisition method: 10.1002/rcm.8541
CH$NAME: Aclonifen
CH$COMPOUND_CLASS: Herbicide
CH$FORMULA: C12H9ClN2O3
CH$EXACT_MASS: 264.0302
CH$SMILES: Nc1c(Cl)c(Oc2ccccc2)ccc1[N+]([O-])=O
CH$IUPAC: InChI=1S/C12H9ClN2O3/c13-11-10(18-8-4-2-1-3-5-8)7-6-9(12(11)14)15(16)17/h1-7H,14H2
CH$LINK: CAS 74070-46-5
CH$LINK: INCHIKEY DDBMQDADIHOWIC-UHFFFAOYSA-N
AC$INSTRUMENT: TripleTOF 5600 SCIEX
AC$INSTRUMENT_TYPE: LC-ESI-QTOF
AC$MASS_SPECTROMETRY: MS_TYPE MS2
AC$MASS_SPECTROMETRY: ION_MODE POSITIVE
AC$MASS_SPECTROMETRY: COLLISION_ENERGY 40
AC$MASS_SPECTROMETRY: FRAGMENTATION_MODE CID
AC$MASS_SPECTROMETRY: IONIZATION ESI
AC$CHROMATOGRAPHY: COLUMN_NAME Zorbax Eclipse Plus C18 2.1 mm x 150 mm, 3.5 um, Agilent
AC$CHROMATOGRAPHY: COLUMN_TEMPERATURE 40 °C
AC$CHROMATOGRAPHY: FLOW_GRADIENT 0 min min 98% A, 1 min 98% A, 2 min 80% A, 16.5 min 2% A, 22 min 2% A, 22.1 min 98% A, 27 min 98% A
AC$CHROMATOGRAPHY: FLOW_RATE 0.3 mL/min
AC$CHROMATOGRAPHY: RETENTION_TIME 13.815 min
AC$CHROMATOGRAPHY: SOLVENT A: Water 0.1% Formic acid, B: Acetonitrile 0.1% Formic acid
MS$FOCUSED_ION: PRECURSOR_M/Z 265.0374
MS$FOCUSED_ION: PRECURSOR_TYPE [M+H]+
MS$DATA_PROCESSING: COMMENT Export with Spectra 1.9.12 MsBackendMassbank 1.7.4
MS$DATA_PROCESSING: WHOLE RMassBank 2.3.1
PK$SPLASH: splash10-00lr-1930000000-52f0b05d73fd1f46a9b0
PK$NUM_PEAK: 27
PK$PEAK: m/z int. rel.int.
  65.0416 1.6 15
  77.0416 16.8 158
  80.0158 16.2 153
  127.0548 7.4 69
  128.0614 3.7 34
  138.0335 6.8 64
  139.0422 8.7 82
  140.0489 1.2 11
  153.056 1.2 11
  154.0656 9 85
  155.0492 9.1 86
  155.0728 2 18
  163.0309 3.8 35
  165.0448 14.8 139
  166.052 8.8 83
  167.0358 4.7 44
  174.01 4.8 45
  182.0605 105.7 999
  183.0682 15.3 144
  190.0186 1.1 10
  190.0414 2.4 22
  193.0403 3.9 36
  194.0478 18.4 173
  203.0119 1.5 14
  217.0299 25.3 239
  218.0363 28.9 273
  248.035 27.3 258
//
