ACCESSION: MSBNK-BAFG-CSL23110916378
RECORD_TITLE: Etofibrate; LC-ESI-QTOF; MS2; 100 V
DATE: 2023.11.09
AUTHORS: Kevin S. Jewell; Björn Ehlig; Arne Wick
LICENSE: dl-de/by-2-0
COPYRIGHT: Copyright 2023 Federal Institute of Hydrology, Koblenz, Germany
COMMENT: CONFIDENCE Reference Standard (Level 1)
COMMENT: Chromatography method: dx.doi.org/10.1016/j.chroma.2015.11.014
COMMENT: Acquisition method: 10.1002/rcm.8541
CH$NAME: Etofibrate
CH$COMPOUND_CLASS: Pharmaceutical
CH$FORMULA: C18H18ClNO5
CH$EXACT_MASS: 363.0874
CH$SMILES: CC(C)(C(=O)OCCOC(=O)C1=CN=CC=C1)OC2=CC=C(C=C2)Cl
CH$IUPAC: InChI=1S/C18H18ClNO5/c1-18(2,25-15-7-5-14(19)6-8-15)17(22)24-11-10-23-16(21)13-4-3-9-20-12-13/h3-9,12H,10-11H2,1-2H3
CH$LINK: CAS 31637-97-5
CH$LINK: INCHIKEY XXRVYAFBUDSLJX-UHFFFAOYSA-N
AC$INSTRUMENT: TripleTOF 6600 SCIEX
AC$INSTRUMENT_TYPE: LC-ESI-QTOF
AC$MASS_SPECTROMETRY: MS_TYPE MS2
AC$MASS_SPECTROMETRY: ION_MODE POSITIVE
AC$MASS_SPECTROMETRY: COLLISION_ENERGY 100
AC$MASS_SPECTROMETRY: FRAGMENTATION_MODE CID
AC$MASS_SPECTROMETRY: IONIZATION ESI
AC$CHROMATOGRAPHY: COLUMN_NAME Zorbax Eclipse Plus C18 2.1 mm x 150 mm, 3.5 um, Agilent
AC$CHROMATOGRAPHY: COLUMN_TEMPERATURE 40 °C
AC$CHROMATOGRAPHY: FLOW_GRADIENT 0 min min 98% A, 1 min 98% A, 2 min 80% A, 16.5 min 2% A, 22 min 2% A, 22.1 min 98% A, 27 min 98% A
AC$CHROMATOGRAPHY: FLOW_RATE 0.3 mL/min
AC$CHROMATOGRAPHY: RETENTION_TIME 12.631 min
AC$CHROMATOGRAPHY: SOLVENT A: Water 0.1% Formic acid, B: Acetonitrile 0.1% Formic acid
MS$FOCUSED_ION: PRECURSOR_M/Z 364.0946
MS$FOCUSED_ION: PRECURSOR_TYPE [M+H]+
MS$DATA_PROCESSING: COMMENT Export with Spectra 1.9.12 MsBackendMassbank 1.7.4
MS$DATA_PROCESSING: WHOLE RMassBank 2.3.1
PK$SPLASH: splash10-0059-9100000000-eb6d6760e6f6a50a5f59
PK$NUM_PEAK: 35
PK$PEAK: m/z int. rel.int.
  37.0063 1.8 10
  39.022 16.3 92
  41.0377 25.6 145
  42.0452 3.7 21
  43.0171 2.7 15
  45.0326 4.1 23
  49.0061 2 11
  50.0139 10.3 58
  51.0217 27.3 155
  52.0171 8.6 48
  52.0301 5 28
  53.0376 29.3 166
  55.017 92.7 527
  65.0368 4.5 25
  69.0321 11.7 66
  70.0398 2.6 14
  73.0268 4.2 23
  74.0136 6.3 35
  75.0216 24.9 141
  77.0372 7.9 44
  78.0327 175.4 999
  79.0401 14.1 80
  80.0483 117.3 668
  84.9824 2.7 15
  92.0477 1.8 10
  93.0556 5.5 31
  94.0398 4.5 25
  99.0424 89.5 509
  106.0271 6.1 34
  106.0637 4.4 25
  110.9973 11.6 66
  113.0577 9.8 55
  122.0221 2.3 13
  124.0378 41.9 238
  139.0036 3.3 18
//
