ACCESSION: MSBNK-BAFG-CSL2310309336
RECORD_TITLE: Benzoyleneurea; LC-ESI-QTOF; MS2; 20 V
DATE: 2023.10.30
AUTHORS: Kevin S. Jewell; Björn Ehlig; Arne Wick
LICENSE: dl-de/by-2-0
COPYRIGHT: Copyright 2023 Federal Institute of Hydrology, Koblenz, Germany
COMMENT: CONFIDENCE Reference Standard (Level 1)
COMMENT: Chromatography method: dx.doi.org/10.1016/j.chroma.2015.11.014
COMMENT: Acquisition method: 10.1002/rcm.8541
CH$NAME: Benzoyleneurea
CH$COMPOUND_CLASS: Pharmaceutical
CH$FORMULA: C8H6N2O2
CH$EXACT_MASS: 162.0429
CH$SMILES: C1=CC=C2C(=C1)C(=O)NC(=O)N2
CH$IUPAC: InChI=1S/C8H6N2O2/c11-7-5-3-1-2-4-6(5)9-8(12)10-7/h1-4H,(H2,9,10,11,12)
CH$LINK: CAS 86-96-4
CH$LINK: INCHIKEY SDQJTWBNWQABLE-UHFFFAOYSA-N
AC$INSTRUMENT: TripleTOF 5600 SCIEX
AC$INSTRUMENT_TYPE: LC-ESI-QTOF
AC$MASS_SPECTROMETRY: MS_TYPE MS2
AC$MASS_SPECTROMETRY: ION_MODE POSITIVE
AC$MASS_SPECTROMETRY: COLLISION_ENERGY 20
AC$MASS_SPECTROMETRY: FRAGMENTATION_MODE CID
AC$MASS_SPECTROMETRY: IONIZATION ESI
AC$CHROMATOGRAPHY: COLUMN_NAME Zorbax Eclipse Plus C18 2.1 mm x 150 mm, 3.5 um, Agilent
AC$CHROMATOGRAPHY: COLUMN_TEMPERATURE 40 °C
AC$CHROMATOGRAPHY: FLOW_GRADIENT 0 min min 98% A, 1 min 98% A, 2 min 80% A, 16.5 min 2% A, 22 min 2% A, 22.1 min 98% A, 27 min 98% A
AC$CHROMATOGRAPHY: FLOW_RATE 0.3 mL/min
AC$CHROMATOGRAPHY: RETENTION_TIME 5.386 min
AC$CHROMATOGRAPHY: SOLVENT A: Water 0.1% Formic acid, B: Acetonitrile 0.1% Formic acid
MS$FOCUSED_ION: PRECURSOR_M/Z 163.0502
MS$FOCUSED_ION: PRECURSOR_TYPE [M+H]+
MS$DATA_PROCESSING: COMMENT Export with Spectra 1.9.12 MsBackendMassbank 1.7.4
MS$DATA_PROCESSING: WHOLE RMassBank 2.3.1
PK$SPLASH: splash10-01ot-0900000000-be5915c3ae39e5e3a38d
PK$NUM_PEAK: 8
PK$PEAK: m/z int. rel.int.
  90.0379 3.7 73
  92.0508 0.7 13
  117.0467 0.5 9
  118.0288 0.8 15
  120.0442 1.6 31
  145.0397 5.7 113
  146.0241 50.3 999
  163.0504 41.6 826
//
