ACCESSION: MSBNK-BAFG-CSL2501065817
RECORD_TITLE: Cybutryne-N-descyclopropyl; LC-ESI-QTOF; MS2; 50 V
DATE: 2025.01.06
AUTHORS: Ole Lessmann; Kevin S. Jewell; Björn Ehlig; Arne Wick
LICENSE: dl-de/by-2-0
COPYRIGHT: Copyright 2025 Federal Institute of Hydrology, Koblenz, Germany
COMMENT: CONFIDENCE Reference Standard (Level 1)
COMMENT: Chromatography method: dx.doi.org/10.1016/j.chroma.2015.11.014
COMMENT: Acquisition method: 10.1002/rcm.8541
CH$NAME: Cybutryne-N-descyclopropyl
CH$COMPOUND_CLASS: Fungicide; Metabolite; Transformation_product; Herbicide; Pesticide; Transformation_product-Metabolite
CH$FORMULA: C8H15N5S
CH$EXACT_MASS: 213.1048
CH$SMILES: CC(C)(C)Nc1[nH]c(nc(=N)n1)SC
CH$IUPAC: InChI=1S/C8H15N5S/c1-8(2,3)13-6-10-5(9)11-7(12-6)14-4/h1-4H3,(H3,9,10,11,12,13)
CH$LINK: CAS 30125-65-6
CH$LINK: INCHIKEY MWWBDLRPMWTLRX-UHFFFAOYSA-N
AC$INSTRUMENT: TripleTOF 5600 SCIEX
AC$INSTRUMENT_TYPE: LC-ESI-QTOF
AC$MASS_SPECTROMETRY: MS_TYPE MS2
AC$MASS_SPECTROMETRY: ION_MODE POSITIVE
AC$MASS_SPECTROMETRY: COLLISION_ENERGY 50
AC$MASS_SPECTROMETRY: FRAGMENTATION_MODE CID
AC$MASS_SPECTROMETRY: IONIZATION ESI
AC$CHROMATOGRAPHY: COLUMN_NAME Zorbax Eclipse Plus C18 2.1 mm x 150 mm, 3.5 um, Agilent
AC$CHROMATOGRAPHY: COLUMN_TEMPERATURE 40 °C
AC$CHROMATOGRAPHY: FLOW_GRADIENT 0 min min 98% A, 1 min 98% A, 2 min 80% A, 16.5 min 2% A, 22 min 2% A, 22.1 min 98% A, 27 min 98% A
AC$CHROMATOGRAPHY: FLOW_RATE 0.3 mL/min
AC$CHROMATOGRAPHY: RETENTION_TIME 7.502 min
AC$CHROMATOGRAPHY: SOLVENT A: Water 0.1% Formic acid, B: Acetonitrile 0.1% Formic acid
MS$FOCUSED_ION: PRECURSOR_M/Z 214.1121
MS$FOCUSED_ION: PRECURSOR_TYPE [M+H]+
MS$DATA_PROCESSING: COMMENT Export with pycsl 0.1.0.dev1 and CSL 24.4
PK$SPLASH: splash10-004i-9000000000-30275e747eb579906a1e
PK$NUM_PEAK: 9
PK$PEAK: m/z int. rel.int.
  43.0385 6.7 106
  51.0301 7.0 110
  68.0291 18.3 289
  74.0089 5.8 91
  77.0428 63.1 999
  85.053 4.5 71
  110.0468 2.1 33
  116.0269 2.7 42
  158.0489 2.6 41
//