ACCESSION: MSBNK-BAFG-CSL25011734605
RECORD_TITLE: N-[2-[(2-Bromo-4,6-dinitrophenyl)azo]-5-(diethylamino)phenyl]acetamide; LC-ESI-QTOF; MS2; 90 V
DATE: 2025.01.17
AUTHORS: Ole Lessmann; Kevin S. Jewell; Björn Ehlig; Arne Wick
LICENSE: dl-de/by-2-0
COPYRIGHT: Copyright 2025 Federal Institute of Hydrology, Koblenz, Germany
COMMENT: CONFIDENCE Reference Standard (Level 1)
COMMENT: Chromatography method: dx.doi.org/10.1016/j.chroma.2015.11.014
CH$NAME: N-[2-[(2-Bromo-4,6-dinitrophenyl)azo]-5-(diethylamino)phenyl]acetamide
CH$FORMULA: C18H19BrN6O5
CH$EXACT_MASS: 478.06
CH$SMILES: CCN(CC)C1=CC(=C(C=C1)N=NC2=C(C=C(C=C2Br)[N+](=O)[O-])[N+](=O)[O-])NC(=O)C
CH$IUPAC: InChI=1S/C18H19BrN6O5/c1-4-23(5-2)12-6-7-15(16(9-12)20-11(3)26)21-22-18-14(19)8-13(24(27)28)10-17(18)25(29)30/h6-10H,4-5H2,1-3H3,(H,20,26)
CH$LINK: CAS 52697-38-8
CH$LINK: INCHIKEY WFFKSTRPZWRBEW-UHFFFAOYSA-N
AC$INSTRUMENT: TripleTOF 6600 SCIEX
AC$INSTRUMENT_TYPE: LC-ESI-QTOF
AC$MASS_SPECTROMETRY: MS_TYPE MS2
AC$MASS_SPECTROMETRY: ION_MODE POSITIVE
AC$MASS_SPECTROMETRY: COLLISION_ENERGY 90
AC$MASS_SPECTROMETRY: FRAGMENTATION_MODE CID
AC$MASS_SPECTROMETRY: IONIZATION ESI
AC$CHROMATOGRAPHY: COLUMN_NAME Zorbax Eclipse Plus C18 2.1 mm x 150 mm, 3.5 um, Agilent
AC$CHROMATOGRAPHY: COLUMN_TEMPERATURE 40 °C
AC$CHROMATOGRAPHY: FLOW_GRADIENT 0 min min 98% A, 1 min 98% A, 2 min 80% A, 16.5 min 2% A, 22 min 2% A, 22.1 min 98% A, 27 min 98% A
AC$CHROMATOGRAPHY: FLOW_RATE 0.3 mL/min
AC$CHROMATOGRAPHY: RETENTION_TIME 16.579 min
AC$CHROMATOGRAPHY: SOLVENT A: Water 0.1% Formic acid, B: Acetonitrile 0.1% Formic acid
MS$FOCUSED_ION: PRECURSOR_M/Z 479.0673
MS$FOCUSED_ION: PRECURSOR_TYPE [M+H]+
MS$DATA_PROCESSING: COMMENT Export with pycsl 0.1.0.dev1 and CSL 25.0
PK$SPLASH: splash10-00ed-2900000000-6a97c55b830f72be9759
PK$NUM_PEAK: 105
PK$PEAK: m/z int. rel.int.
  42.0333 0.8 14
  43.0171 2.7 48
  65.0378 1.1 19
  66.0465 0.6 10
  69.0436 0.7 12
  77.0365 3.0 53
  78.0329 1.1 19
  79.0277 1.1 19
  79.0407 1.6 28
  79.0519 0.7 12
  80.0488 15.5 278
  82.063 0.6 10
  91.0518 1.2 21
  92.0483 5.1 91
  93.0431 0.9 16
  93.0562 24.5 440
  94.0638 6.7 120
  95.0581 1.0 17
  104.0492 1.6 28
  105.0433 4.8 86
  106.0628 3.6 64
  107.0354 5.7 102
  107.0594 10.8 194
  108.043 5.5 98
  108.079 3.1 55
  109.0746 3.9 70
  117.0445 1.6 28
  117.0557 1.1 19
  118.0615 2.4 43
  119.0584 7.7 138
  120.0557 5.4 97
  120.0679 3.8 68
  121.0534 0.9 16
  121.0748 55.6 999
  122.0584 1.4 25
  122.0935 0.8 14
  123.0934 1.0 17
  125.0337 0.6 10
  127.0506 0.8 14
  128.9317 0.7 12
  131.0614 2.2 39
  132.0413 0.7 12
  132.0803 0.9 16
  133.0597 12.7 228
  134.0701 23.9 429
  135.0898 5.1 91
  136.0732 3.1 55
  139.0533 2.4 43
  140.0473 1.1 19
  145.0754 1.9 34
  146.0699 5.3 95
  147.0545 8.8 158
  147.0767 5.2 93
  148.0619 19.7 353
  148.086 3.9 70
  148.1006 1.0 17
  149.068 0.7 12
  149.1049 7.6 136
  150.0904 0.7 12
  154.0618 0.6 10
  161.0708 5.3 95
  162.0757 2.6 46
  162.1001 4.5 80
  163.0853 17.1 307
  163.1217 1.2 21
  164.0501 0.9 16
  165.0557 1.6 28
  166.0613 2.7 48
  167.0669 1.8 32
  175.0728 1.7 30
  176.0776 0.6 10
  177.0996 2.2 39
  179.0575 1.7 30
  180.0672 0.7 12
  190.0599 0.6 10
  191.1161 13.7 246
  192.0639 1.1 19
  193.0736 4.5 80
  194.0705 6.2 111
  195.0711 1.0 17
  206.0683 3.1 55
  207.0856 0.9 16
  208.0746 0.7 12
  220.0819 0.8 14
  221.0769 2.4 43
  221.0914 0.9 16
  222.0657 1.2 21
  222.0901 1.0 17
  234.0856 0.6 10
  235.0994 0.8 14
  237.1092 1.4 25
  243.9685 0.7 12
  244.9861 0.6 10
  245.9749 0.8 14
  250.1327 0.6 10
  256.9718 0.8 14
  265.1445 5.0 89
  271.9936 1.4 25
  272.9859 1.7 30
  283.9818 1.1 19
  284.9855 1.5 26
  299.996 1.2 21
  300.9833 1.5 26
  301.019 0.8 14
  328.049 0.8 14
//
