ACCESSION: MSBNK-BAFG-CSL25010634466
RECORD_TITLE: Sudan I; LC-ESI-QTOF; MS2; 110 V
DATE: 2025.01.06
AUTHORS: Ole Lessmann; Kevin S. Jewell; Björn Ehlig; Arne Wick
LICENSE: dl-de/by-2-0
COPYRIGHT: Copyright 2025 Federal Institute of Hydrology, Koblenz, Germany
COMMENT: CONFIDENCE Reference Standard (Level 1)
COMMENT: Chromatography method: dx.doi.org/10.1016/j.chroma.2015.11.014
COMMENT: Acquisition method: 10.1002/rcm.8541
CH$NAME: Sudan I
CH$FORMULA: C16H12N2O
CH$EXACT_MASS: 248.095
CH$SMILES: C1=CC=C(C=C1)N=NC2=C(C=CC3=CC=CC=C32)O
CH$IUPAC: InChI=1S/C16H12N2O/c19-15-11-10-12-6-4-5-9-14(12)16(15)18-17-13-7-2-1-3-8-13/h1-11,19H
CH$LINK: CAS 842-07-9
CH$LINK: INCHIKEY MRQIXHXHHPWVIL-UHFFFAOYSA-N
AC$INSTRUMENT: TripleTOF 6600 SCIEX
AC$INSTRUMENT_TYPE: LC-ESI-QTOF
AC$MASS_SPECTROMETRY: MS_TYPE MS2
AC$MASS_SPECTROMETRY: ION_MODE POSITIVE
AC$MASS_SPECTROMETRY: COLLISION_ENERGY 110
AC$MASS_SPECTROMETRY: FRAGMENTATION_MODE CID
AC$MASS_SPECTROMETRY: IONIZATION ESI
AC$CHROMATOGRAPHY: COLUMN_NAME Zorbax Eclipse Plus C18 2.1 mm x 150 mm, 3.5 um, Agilent
AC$CHROMATOGRAPHY: COLUMN_TEMPERATURE 40 °C
AC$CHROMATOGRAPHY: FLOW_GRADIENT 0 min min 98% A, 1 min 98% A, 2 min 80% A, 16.5 min 2% A, 22 min 2% A, 22.1 min 98% A, 27 min 98% A
AC$CHROMATOGRAPHY: FLOW_RATE 0.3 mL/min
AC$CHROMATOGRAPHY: RETENTION_TIME 15.674 min
AC$CHROMATOGRAPHY: SOLVENT A: Water 0.1% Formic acid, B: Acetonitrile 0.1% Formic acid
MS$FOCUSED_ION: PRECURSOR_M/Z 249.1023
MS$FOCUSED_ION: PRECURSOR_TYPE [M+H]+
MS$DATA_PROCESSING: COMMENT Export with pycsl 0.1.0.dev1 and CSL 24.4
PK$SPLASH: splash10-0g6r-9000000000-5cf13be39fe80a8349d9
PK$NUM_PEAK: 32
PK$PEAK: m/z int. rel.int.
  37.0076 6.5 86
  38.0152 4.9 65
  39.0232 30.5 405
  40.0311 3.4 45
  41.0263 2.0 26
  42.0343 2.8 37
  49.0072 1.4 18
  50.0153 21.7 288
  51.0233 39.9 530
  52.0179 4.6 61
  54.0335 5.6 74
  61.008 1.2 15
  62.0153 1.3 17
  63.0218 2.0 26
  65.0388 43.1 572
  66.0466 26.9 357
  67.0414 2.3 30
  73.0077 8.3 110
  74.0153 75.2 999
  75.0105 1.9 25
  75.0228 54.4 722
  76.0187 8.0 106
  76.0308 1.4 18
  77.0386 9.9 131
  78.0333 6.9 91
  92.0497 17.1 227
  93.0578 10.4 138
  98.0149 2.9 38
  99.0125 1.4 18
  99.0229 0.9 11
  150.0466 2.3 30
  176.0631 0.8 10
//