ACCESSION: MSBNK-BAFG-CSL25010634421
RECORD_TITLE: O-tolidine; LC-ESI-QTOF; MS2; 120 V
DATE: 2025.01.06
AUTHORS: Ole Lessmann; Kevin S. Jewell; Björn Ehlig; Arne Wick
LICENSE: dl-de/by-2-0
COPYRIGHT: Copyright 2025 Federal Institute of Hydrology, Koblenz, Germany
COMMENT: CONFIDENCE Reference Standard (Level 1)
COMMENT: Chromatography method: dx.doi.org/10.1016/j.chroma.2015.11.014
COMMENT: Acquisition method: 10.1002/rcm.8541
CH$NAME: O-tolidine
CH$FORMULA: C14H16N2
CH$EXACT_MASS: 212.1313
CH$SMILES: CC1=C(C=CC(=C1)C2=CC(=C(C=C2)N)C)N
CH$IUPAC: InChI=1S/C14H16N2/c1-9-7-11(3-5-13(9)15)12-4-6-14(16)10(2)8-12/h3-8H,15-16H2,1-2H3
CH$LINK: CAS 119-93-7
CH$LINK: INCHIKEY NUIURNJTPRWVAP-UHFFFAOYSA-N
AC$INSTRUMENT: TripleTOF 6600 SCIEX
AC$INSTRUMENT_TYPE: LC-ESI-QTOF
AC$MASS_SPECTROMETRY: MS_TYPE MS2
AC$MASS_SPECTROMETRY: ION_MODE POSITIVE
AC$MASS_SPECTROMETRY: COLLISION_ENERGY 120
AC$MASS_SPECTROMETRY: FRAGMENTATION_MODE CID
AC$MASS_SPECTROMETRY: IONIZATION ESI
AC$CHROMATOGRAPHY: COLUMN_NAME Zorbax Eclipse Plus C18 2.1 mm x 150 mm, 3.5 um, Agilent
AC$CHROMATOGRAPHY: COLUMN_TEMPERATURE 40 °C
AC$CHROMATOGRAPHY: FLOW_GRADIENT 0 min min 98% A, 1 min 98% A, 2 min 80% A, 16.5 min 2% A, 22 min 2% A, 22.1 min 98% A, 27 min 98% A
AC$CHROMATOGRAPHY: FLOW_RATE 0.3 mL/min
AC$CHROMATOGRAPHY: RETENTION_TIME 5.073 min
AC$CHROMATOGRAPHY: SOLVENT A: Water 0.1% Formic acid, B: Acetonitrile 0.1% Formic acid
MS$FOCUSED_ION: PRECURSOR_M/Z 213.1386
MS$FOCUSED_ION: PRECURSOR_TYPE [M+H]+
MS$DATA_PROCESSING: COMMENT Export with pycsl 0.1.0.dev1 and CSL 24.4
PK$SPLASH: splash10-0w4r-9300000000-aad6b4f25dbeb16c9a42
PK$NUM_PEAK: 20
PK$PEAK: m/z int. rel.int.
  39.0232 0.4 190
  50.0159 0.7 333
  51.0235 1.1 523
  62.0161 0.8 380
  63.0233 1.6 761
  74.0161 1.5 713
  75.0246 1.2 570
  76.0309 0.4 190
  77.0392 1.8 856
  78.0474 0.5 237
  85.008 0.8 380
  86.0163 0.9 428
  87.0244 0.5 237
  89.0398 0.5 237
  98.0162 0.8 380
  102.0496 0.4 190
  126.0468 0.8 380
  150.0484 2.1 999
  151.054 0.7 333
  152.0681 0.6 285
//