ACCESSION: MSBNK-BAFG-CSL2311094309
RECORD_TITLE: 2-(Ethylthio)benzothiazole; LC-ESI-QTOF; MS2; 70 V
DATE: 2023.11.09
AUTHORS: Kevin S. Jewell; Björn Ehlig; Arne Wick
LICENSE: dl-de/by-2-0
COPYRIGHT: Copyright 2023 Federal Institute of Hydrology, Koblenz, Germany
COMMENT: CONFIDENCE Reference Standard (Level 1)
COMMENT: Chromatography method: dx.doi.org/10.1016/j.chroma.2015.11.014
COMMENT: Acquisition method: 10.1002/rcm.8541
CH$NAME: 2-(Ethylthio)benzothiazole
CH$COMPOUND_CLASS: Pharmaceutical
CH$FORMULA: C9H9NS2
CH$EXACT_MASS: 195.0176
CH$SMILES: CCSc1sc2ccccc2n1
CH$IUPAC: InChI=1S/C9H9NS2/c1-2-11-9-10-7-5-3-4-6-8(7)12-9/h3-6H,2H2,1H3
CH$LINK: CAS 2757-92-8
CH$LINK: INCHIKEY HKIQFQKRAQSUJI-UHFFFAOYSA-N
AC$INSTRUMENT: TripleTOF 5600 SCIEX
AC$INSTRUMENT_TYPE: LC-ESI-QTOF
AC$MASS_SPECTROMETRY: MS_TYPE MS2
AC$MASS_SPECTROMETRY: ION_MODE POSITIVE
AC$MASS_SPECTROMETRY: COLLISION_ENERGY 70
AC$MASS_SPECTROMETRY: FRAGMENTATION_MODE CID
AC$MASS_SPECTROMETRY: IONIZATION ESI
AC$CHROMATOGRAPHY: COLUMN_NAME Zorbax Eclipse Plus C18 2.1 mm x 150 mm, 3.5 um, Agilent
AC$CHROMATOGRAPHY: COLUMN_TEMPERATURE 40 °C
AC$CHROMATOGRAPHY: FLOW_GRADIENT 0 min min 98% A, 1 min 98% A, 2 min 80% A, 16.5 min 2% A, 22 min 2% A, 22.1 min 98% A, 27 min 98% A
AC$CHROMATOGRAPHY: FLOW_RATE 0.3 mL/min
AC$CHROMATOGRAPHY: RETENTION_TIME 13.742 min
AC$CHROMATOGRAPHY: SOLVENT A: Water 0.1% Formic acid, B: Acetonitrile 0.1% Formic acid
MS$FOCUSED_ION: PRECURSOR_M/Z 196.0249
MS$FOCUSED_ION: PRECURSOR_TYPE [M+H]+
MS$DATA_PROCESSING: COMMENT Export with Spectra 1.9.12 MsBackendMassbank 1.7.4
MS$DATA_PROCESSING: WHOLE RMassBank 2.3.1
PK$SPLASH: splash10-0690-9400000000-3ea84017dfc135a287a4
PK$NUM_PEAK: 17
PK$PEAK: m/z int. rel.int.
  51.0278 0.6 83
  64.0366 0.6 83
  65.0419 7.2 999
  66.0485 0.7 97
  68.9828 3.5 485
  77.041 6 832
  80.0524 2 277
  81.9896 0.9 124
  90.036 0.6 83
  96.0017 0.7 97
  108.0023 3.8 527
  109.0091 2.8 388
  110.0187 0.6 83
  124.021 0.4 55
  134.0078 0.6 83
  135.0131 2.3 319
  136.021 1.4 194
//
