ACCESSION: MSBNK-BAFG-CSL25010627800
RECORD_TITLE: Dinoseb; LC-ESI-QTOF; MS2; 30 V
DATE: 2025.01.06
AUTHORS: Ole Lessmann; Kevin S. Jewell; Björn Ehlig; Arne Wick
LICENSE: dl-de/by-2-0
COPYRIGHT: Copyright 2025 Federal Institute of Hydrology, Koblenz, Germany
COMMENT: CONFIDENCE Reference Standard (Level 1)
COMMENT: Chromatography method: dx.doi.org/10.1016/j.chroma.2015.11.014
COMMENT: Acquisition method: 10.1002/rcm.8541
CH$NAME: Dinoseb
CH$COMPOUND_CLASS: Herbicide
CH$FORMULA: C10H12N2O5
CH$EXACT_MASS: 240.0746
CH$SMILES: CCC(C)c1cc(cc(c1O)[N+](=O)[O-])[N+](=O)[O-]
CH$IUPAC: InChI=1S/C10H12N2O5/c1-3-6(2)8-4-7(11(14)15)5-9(10(8)13)12(16)17/h4-6,13H,3H2,1-2H3
CH$LINK: CAS 88-85-7
CH$LINK: INCHIKEY OWZPCEFYPSAJFR-UHFFFAOYSA-N
AC$INSTRUMENT: TripleTOF 6600 SCIEX
AC$INSTRUMENT_TYPE: LC-ESI-QTOF
AC$MASS_SPECTROMETRY: MS_TYPE MS2
AC$MASS_SPECTROMETRY: ION_MODE NEGATIVE
AC$MASS_SPECTROMETRY: COLLISION_ENERGY 30
AC$MASS_SPECTROMETRY: FRAGMENTATION_MODE CID
AC$MASS_SPECTROMETRY: IONIZATION ESI
AC$CHROMATOGRAPHY: COLUMN_NAME Zorbax Eclipse Plus C18 2.1 mm x 150 mm, 3.5 um, Agilent
AC$CHROMATOGRAPHY: COLUMN_TEMPERATURE 40 °C
AC$CHROMATOGRAPHY: FLOW_GRADIENT 0 min min 98% A, 1 min 98% A, 2 min 80% A, 16.5 min 2% A, 22 min 2% A, 22.1 min 98% A, 27 min 98% A
AC$CHROMATOGRAPHY: FLOW_RATE 0.3 mL/min
AC$CHROMATOGRAPHY: RETENTION_TIME 13.78182 min
AC$CHROMATOGRAPHY: SOLVENT A: Water 0.1% Formic acid, B: Acetonitrile 0.1% Formic acid
MS$FOCUSED_ION: PRECURSOR_M/Z 239.0673
MS$FOCUSED_ION: PRECURSOR_TYPE [M-H]-
MS$DATA_PROCESSING: COMMENT Export with pycsl 0.1.0.dev1 and CSL 24.4
PK$SPLASH: splash10-0006-0940000000-f6be1f5c1d67e4060962
PK$NUM_PEAK: 28
PK$PEAK: m/z int. rel.int.
  45.9926 14.3 36
  109.0157 5.8 14
  134.0235 15.2 38
  135.031 12.3 31
  136.0388 5.4 13
  137.047 6.0 15
  151.0746 26.0 65
  162.0188 4.6 11
  163.0263 57.8 146
  164.0341 5.4 13
  164.046 11.3 28
  176.0339 40.9 103
  177.0415 27.4 69
  178.0492 31.4 79
  179.0699 25.3 63
  180.0287 20.2 51
  191.0567 15.0 37
  192.0653 120.5 304
  193.0245 395.0 999
  194.0448 352.6 891
  207.0392 64.5 163
  208.0601 14.0 35
  209.0191 46.2 116
  209.0669 16.3 41
  210.0267 25.7 64
  221.0551 17.0 42
  222.0627 55.4 140
  239.0657 309.7 783
//