ACCESSION: MSBNK-BAFG-CSL2501067518
RECORD_TITLE: Pantoprazole sulfide; LC-ESI-QTOF; MS2; 80 V
DATE: 2025.01.06
AUTHORS: Ole Lessmann; Kevin S. Jewell; Björn Ehlig; Arne Wick
LICENSE: dl-de/by-2-0
COPYRIGHT: Copyright 2025 Federal Institute of Hydrology, Koblenz, Germany
COMMENT: CONFIDENCE Reference Standard (Level 1)
COMMENT: Chromatography method: dx.doi.org/10.1016/j.chroma.2015.11.014
COMMENT: Acquisition method: 10.1002/rcm.8541
CH$NAME: Pantoprazole sulfide
CH$COMPOUND_CLASS: Pharmaceutical; Metabolite; Transformation_product-Metabolite
CH$FORMULA: C16H15F2N3O3S
CH$EXACT_MASS: 367.0802
CH$SMILES: COC1=C(C(=NC=C1)CSC2=NC3=C(N2)C=CC(=C3)OC(F)F)OC
CH$IUPAC: InChI=1S/C16H15F2N3O3S/c1-22-13-5-6-19-12(14(13)23-2)8-25-16-20-10-4-3-9(24-15(17)18)7-11(10)21-16/h3-7,15H,8H2,1-2H3,(H,20,21)
CH$LINK: CAS 102625-64-9
CH$LINK: INCHIKEY UKILEIRWOYBGEJ-UHFFFAOYSA-N
AC$INSTRUMENT: TripleTOF 5600 SCIEX
AC$INSTRUMENT_TYPE: LC-ESI-QTOF
AC$MASS_SPECTROMETRY: MS_TYPE MS2
AC$MASS_SPECTROMETRY: ION_MODE POSITIVE
AC$MASS_SPECTROMETRY: COLLISION_ENERGY 80
AC$MASS_SPECTROMETRY: FRAGMENTATION_MODE CID
AC$MASS_SPECTROMETRY: IONIZATION ESI
AC$CHROMATOGRAPHY: COLUMN_NAME Zorbax Eclipse Plus C18 2.1 mm x 150 mm, 3.5 um, Agilent
AC$CHROMATOGRAPHY: COLUMN_TEMPERATURE 40 °C
AC$CHROMATOGRAPHY: FLOW_GRADIENT 0 min min 98% A, 1 min 98% A, 2 min 80% A, 16.5 min 2% A, 22 min 2% A, 22.1 min 98% A, 27 min 98% A
AC$CHROMATOGRAPHY: FLOW_RATE 0.3 mL/min
AC$CHROMATOGRAPHY: RETENTION_TIME 7.575 min
AC$CHROMATOGRAPHY: SOLVENT A: Water 0.1% Formic acid, B: Acetonitrile 0.1% Formic acid
MS$FOCUSED_ION: PRECURSOR_M/Z 368.0875
MS$FOCUSED_ION: PRECURSOR_TYPE [M+H]+
MS$DATA_PROCESSING: COMMENT Export with pycsl 0.1.0.dev1 and CSL 24.4
PK$SPLASH: splash10-014l-9400000000-698b69c8d09fe57ad4fa
PK$NUM_PEAK: 40
PK$PEAK: m/z int. rel.int.
  42.0444 3.1 59
  51.0306 8.5 162
  65.0435 52.1 999
  67.0464 0.7 13
  69.0369 1.3 24
  78.0365 1.1 21
  79.0435 2.9 55
  80.0524 1.5 28
  92.051 49.9 956
  94.0296 0.9 17
  94.0659 1.4 26
  96.0026 1.7 32
  96.0458 0.8 15
  106.0631 0.5 9
  107.0362 1.9 36
  107.0716 0.6 11
  108.0454 1.8 34
  109.0556 0.9 17
  110.007 1.4 26
  110.0597 3.4 65
  111.0116 0.6 11
  117.0436 1.4 26
  118.0512 1.4 26
  122.0062 0.8 15
  122.0595 3.0 57
  123.0121 2.9 55
  123.0349 0.6 11
  135.0359 0.6 11
  135.0544 5.3 101
  136.0386 9.8 187
  137.0464 0.9 17
  138.0542 4.3 82
  140.0163 1.1 21
  150.0552 1.5 28
  151.0071 6.0 115
  152.0707 0.9 17
  154.0318 3.3 63
  168.0098 0.8 15
  185.0538 0.9 17
  223.0539 0.8 15
//