ACCESSION: MSBNK-BAFG-CSL25011734570
RECORD_TITLE: Amido Black 10B; LC-ESI-QTOF; MS2; 60 V
DATE: 2025.01.17
AUTHORS: Ole Lessmann; Kevin S. Jewell; Björn Ehlig; Arne Wick
LICENSE: dl-de/by-2-0
COPYRIGHT: Copyright 2025 Federal Institute of Hydrology, Koblenz, Germany
COMMENT: CONFIDENCE Reference Standard (Level 1)
COMMENT: Chromatography method: dx.doi.org/10.1016/j.chroma.2015.11.014
CH$NAME: Amido Black 10B
CH$FORMULA: C22H16N6O9S2
CH$EXACT_MASS: 572.042
CH$SMILES: C1=CC=C(C=C1)N=NC2=C(C3=C(C(=C(C=C3C=C2S(=O)(=O)O)S(=O)(=O)O)N=NC4=CC=C(C=C4)[N+](=O)[O-])N)O
CH$IUPAC: InChI=1S/C22H16N6O9S2/c23-19-18-12(11-17(39(35,36)37)21(22(18)29)27-24-13-4-2-1-3-5-13)10-16(38(32,33)34)20(19)26-25-14-6-8-15(9-7-14)28(30)31/h1-11,29H,23H2,(H,32,33,34)(H,35,36,37)
CH$LINK: CAS 3121-74-2
CH$LINK: INCHIKEY HKJKONMZMPUGHJ-UHFFFAOYSA-N
AC$INSTRUMENT: TripleTOF 6600 SCIEX
AC$INSTRUMENT_TYPE: LC-ESI-QTOF
AC$MASS_SPECTROMETRY: MS_TYPE MS2
AC$MASS_SPECTROMETRY: ION_MODE POSITIVE
AC$MASS_SPECTROMETRY: COLLISION_ENERGY 60
AC$MASS_SPECTROMETRY: FRAGMENTATION_MODE CID
AC$MASS_SPECTROMETRY: IONIZATION ESI
AC$CHROMATOGRAPHY: COLUMN_NAME Zorbax Eclipse Plus C18 2.1 mm x 150 mm, 3.5 um, Agilent
AC$CHROMATOGRAPHY: COLUMN_TEMPERATURE 40 °C
AC$CHROMATOGRAPHY: FLOW_GRADIENT 0 min min 98% A, 1 min 98% A, 2 min 80% A, 16.5 min 2% A, 22 min 2% A, 22.1 min 98% A, 27 min 98% A
AC$CHROMATOGRAPHY: FLOW_RATE 0.3 mL/min
AC$CHROMATOGRAPHY: RETENTION_TIME 9.552 min
AC$CHROMATOGRAPHY: SOLVENT A: Water 0.1% Formic acid, B: Acetonitrile 0.1% Formic acid
MS$FOCUSED_ION: PRECURSOR_M/Z 573.0493
MS$FOCUSED_ION: PRECURSOR_TYPE [M+H]+
MS$DATA_PROCESSING: COMMENT Export with pycsl 0.1.0.dev1 and CSL 25.0
PK$SPLASH: splash10-0006-9256000000-22b4c9fabb7efd1c8127
PK$NUM_PEAK: 76
PK$PEAK: m/z int. rel.int.
  65.0382 31.6 175
  66.0455 5.5 30
  75.0226 3.0 16
  77.0382 5.9 32
  80.049 3.3 18
  92.0245 2.0 11
  92.0492 108.0 598
  93.0571 180.3 999
  108.0442 3.8 21
  122.0237 15.7 86
  150.0285 23.4 129
  157.0387 3.6 19
  167.0223 1.9 10
  169.0424 2.5 13
  173.0331 22.6 125
  185.0334 3.7 20
  201.0299 13.1 72
  205.0733 4.4 24
  216.0588 3.3 18
  230.0641 2.2 12
  231.0752 8.0 44
  232.0857 20.8 115
  242.059 3.9 21
  243.0676 4.5 24
  244.0658 2.6 14
  249.0908 2.5 13
  251.0111 2.1 11
  259.0695 8.2 45
  260.0779 15.4 85
  261.0894 9.0 49
  270.0544 18.5 102
  271.0613 39.1 216
  272.0692 5.0 27
  273.0792 2.9 16
  275.0419 2.1 11
  275.0908 2.5 13
  276.0957 4.8 26
  287.0564 16.1 89
  288.0686 2.0 11
  300.0528 2.3 12
  301.0594 25.5 141
  306.0678 1.9 10
  306.0982 3.0 16
  307.0999 1.8 9
  308.1069 2.9 16
  312.0388 2.5 13
  313.0436 3.6 19
  316.0453 19.3 106
  317.0554 17.4 96
  319.0956 3.5 19
  320.1046 5.0 27
  334.1006 5.0 27
  334.119 1.9 10
  335.1123 5.3 29
  336.1033 3.6 19
  337.1112 2.5 13
  340.0396 18.4 101
  341.0461 20.9 115
  345.1011 1.8 9
  346.1072 19.7 109
  347.1149 5.2 28
  352.0267 7.0 38
  356.9908 3.0 16
  362.1035 20.9 115
  363.1026 3.5 19
  363.1207 2.9 16
  364.1165 5.4 29
  365.1273 2.2 12
  370.0316 1.8 9
  381.1236 2.0 11
  382.0239 5.1 28
  398.0213 4.1 22
  402.9812 21.4 118
  426.0661 5.1 28
  427.0716 4.5 24
  444.0834 5.2 28
//
