ACCESSION: MSBNK-BAFG-CSL23110916910
RECORD_TITLE: Myclobutanil; LC-ESI-QTOF; MS2; 70 V
DATE: 2023.11.09
AUTHORS: Kevin S. Jewell; Björn Ehlig; Arne Wick
LICENSE: dl-de/by-2-0
COPYRIGHT: Copyright 2023 Federal Institute of Hydrology, Koblenz, Germany
COMMENT: CONFIDENCE Reference Standard (Level 1)
COMMENT: Chromatography method: dx.doi.org/10.1016/j.chroma.2015.11.014
COMMENT: Acquisition method: 10.1002/rcm.8541
CH$NAME: Myclobutanil
CH$COMPOUND_CLASS: Fungicide
CH$FORMULA: C15H17ClN4
CH$EXACT_MASS: 288.1142
CH$SMILES: CCCCC(Cn1cncn1)(C#N)c2ccc(Cl)cc2
CH$IUPAC: InChI=1S/C15H17ClN4/c1-2-3-8-15(9-17,10-20-12-18-11-19-20)13-4-6-14(16)7-5-13/h4-7,11-12H,2-3,8,10H2,1H3
CH$LINK: CAS 88671-89-0
CH$LINK: INCHIKEY HZJKXKUJVSEEFU-UHFFFAOYSA-N
AC$INSTRUMENT: TripleTOF 6600 SCIEX
AC$INSTRUMENT_TYPE: LC-ESI-QTOF
AC$MASS_SPECTROMETRY: MS_TYPE MS2
AC$MASS_SPECTROMETRY: ION_MODE POSITIVE
AC$MASS_SPECTROMETRY: COLLISION_ENERGY 70
AC$MASS_SPECTROMETRY: FRAGMENTATION_MODE CID
AC$MASS_SPECTROMETRY: IONIZATION ESI
AC$CHROMATOGRAPHY: COLUMN_NAME Zorbax Eclipse Plus C18 2.1 mm x 150 mm, 3.5 um, Agilent
AC$CHROMATOGRAPHY: COLUMN_TEMPERATURE 40 °C
AC$CHROMATOGRAPHY: FLOW_GRADIENT 0 min min 98% A, 1 min 98% A, 2 min 80% A, 16.5 min 2% A, 22 min 2% A, 22.1 min 98% A, 27 min 98% A
AC$CHROMATOGRAPHY: FLOW_RATE 0.3 mL/min
AC$CHROMATOGRAPHY: RETENTION_TIME 12.025 min
AC$CHROMATOGRAPHY: SOLVENT A: Water 0.1% Formic acid, B: Acetonitrile 0.1% Formic acid
MS$FOCUSED_ION: PRECURSOR_M/Z 289.1215
MS$FOCUSED_ION: PRECURSOR_TYPE [M+H]+
MS$DATA_PROCESSING: COMMENT Export with Spectra 1.9.12 MsBackendMassbank 1.7.4
MS$DATA_PROCESSING: WHOLE RMassBank 2.3.1
PK$SPLASH: splash10-00g0-9500000000-be1c17061eb2a5a9fac3
PK$NUM_PEAK: 33
PK$PEAK: m/z int. rel.int.
  39.0232 2.3 22
  41.0387 1.4 13
  43.0294 13.2 128
  62.0157 1.7 16
  63.0229 9.3 90
  65.0386 2.3 22
  70.0403 102.7 999
  72.984 5.8 56
  74.9996 1.5 14
  75.0229 4.4 42
  77.0384 3.5 34
  82.0401 2.9 28
  89.039 52.5 510
  90.0465 18.9 183
  98.9997 28.1 273
  101.0385 5.3 51
  102.046 6 58
  103.054 1.6 15
  114.0331 1.2 11
  115.0541 19.4 188
  116.0619 12.2 118
  122.999 4.5 43
  125.0154 79.8 776
  127.0552 1.1 10
  128.0551 5.2 50
  129.0452 3.3 32
  129.0691 1.2 11
  130.0654 3 29
  137.0157 1.7 16
  143.0729 1.3 12
  149.0149 1.7 16
  150.0106 2.4 23
  152.0625 1.6 15
//
