ACCESSION: MSBNK-BAFG-CSL25010634370
RECORD_TITLE: 3,3`-Dichlorobenzidine; LC-ESI-QTOF; MS2; 90 V
DATE: 2025.01.06
AUTHORS: Ole Lessmann; Kevin S. Jewell; Björn Ehlig; Arne Wick
LICENSE: dl-de/by-2-0
COPYRIGHT: Copyright 2025 Federal Institute of Hydrology, Koblenz, Germany
COMMENT: CONFIDENCE Reference Standard (Level 1)
COMMENT: Chromatography method: dx.doi.org/10.1016/j.chroma.2015.11.014
COMMENT: Acquisition method: 10.1002/rcm.8541
CH$NAME: 3,3`-Dichlorobenzidine
CH$FORMULA: C12H10Cl2N2
CH$EXACT_MASS: 252.0221
CH$SMILES: C1=CC(=C(C=C1C2=CC(=C(C=C2)N)Cl)Cl)N
CH$IUPAC: InChI=1S/C12H10Cl2N2/c13-9-5-7(1-3-11(9)15)8-2-4-12(16)10(14)6-8/h1-6H,15-16H2
CH$LINK: CAS 91-94-1
CH$LINK: INCHIKEY HUWXDEQWWKGHRV-UHFFFAOYSA-N
AC$INSTRUMENT: TripleTOF 6600 SCIEX
AC$INSTRUMENT_TYPE: LC-ESI-QTOF
AC$MASS_SPECTROMETRY: MS_TYPE MS2
AC$MASS_SPECTROMETRY: ION_MODE POSITIVE
AC$MASS_SPECTROMETRY: COLLISION_ENERGY 90
AC$MASS_SPECTROMETRY: FRAGMENTATION_MODE CID
AC$MASS_SPECTROMETRY: IONIZATION ESI
AC$CHROMATOGRAPHY: COLUMN_NAME Zorbax Eclipse Plus C18 2.1 mm x 150 mm, 3.5 um, Agilent
AC$CHROMATOGRAPHY: COLUMN_TEMPERATURE 40 °C
AC$CHROMATOGRAPHY: FLOW_GRADIENT 0 min min 98% A, 1 min 98% A, 2 min 80% A, 16.5 min 2% A, 22 min 2% A, 22.1 min 98% A, 27 min 98% A
AC$CHROMATOGRAPHY: FLOW_RATE 0.3 mL/min
AC$CHROMATOGRAPHY: RETENTION_TIME 11.426 min
AC$CHROMATOGRAPHY: SOLVENT A: Water 0.1% Formic acid, B: Acetonitrile 0.1% Formic acid
MS$FOCUSED_ION: PRECURSOR_M/Z 253.0294
MS$FOCUSED_ION: PRECURSOR_TYPE [M+H]+
MS$DATA_PROCESSING: COMMENT Export with pycsl 0.1.0.dev1 and CSL 24.4
PK$SPLASH: splash10-004i-3900000000-0961219da3628c404e61
PK$NUM_PEAK: 67
PK$PEAK: m/z int. rel.int.
  39.0238 0.7 13
  50.0149 1.2 23
  51.0233 6.9 132
  52.0177 1.5 28
  61.0085 0.6 11
  62.0148 2.9 55
  63.0231 8.1 155
  64.031 0.7 13
  65.039 1.6 30
  74.0152 5.0 95
  75.0229 15.5 297
  76.0309 2.0 38
  77.0387 44.7 857
  78.0452 1.4 26
  86.0145 3.3 63
  87.0226 6.2 118
  88.0189 0.9 17
  88.0311 3.3 63
  89.0379 12.5 239
  90.0361 0.6 11
  90.0472 0.6 11
  91.0427 0.8 15
  93.0568 0.6 11
  98.0147 2.2 42
  99.0237 2.2 42
  100.0305 0.5 9
  101.0387 11.9 228
  102.0455 8.7 166
  103.0553 8.9 170
  104.0502 2.0 38
  105.0455 0.7 13
  110.014 0.6 11
  111.0231 0.9 17
  112.0312 1.2 23
  113.0381 9.2 176
  114.0337 1.7 32
  114.0452 1.5 28
  115.0529 2.8 53
  116.0498 0.7 13
  117.0571 0.7 13
  123.0234 0.6 11
  125.0376 4.9 93
  126.0461 29.7 569
  127.0538 52.1 999
  128.0497 11.5 220
  128.0624 3.1 59
  129.0445 4.8 92
  130.0642 9.4 180
  137.039 11.6 222
  138.0466 5.5 105
  139.0544 13.2 253
  140.0497 5.1 97
  141.0447 0.5 9
  141.058 1.1 21
  151.0412 1.1 21
  152.0507 6.9 132
  153.0581 13.9 266
  154.0647 37.2 713
  155.0602 11.0 210
  164.0254 0.7 13
  164.0502 9.5 182
  165.0578 1.3 24
  166.0617 0.7 13
  173.0172 1.3 24
  179.0614 4.9 93
  181.0752 2.9 55
  188.0279 0.6 11
//