ACCESSION: MSBNK-BAFG-CSL25010634475
RECORD_TITLE: Disperse brown 1; LC-ESI-QTOF; MS2; 40 V
DATE: 2025.01.06
AUTHORS: Ole Lessmann; Kevin S. Jewell; Björn Ehlig; Arne Wick
LICENSE: dl-de/by-2-0
COPYRIGHT: Copyright 2025 Federal Institute of Hydrology, Koblenz, Germany
COMMENT: CONFIDENCE Reference Standard (Level 1)
COMMENT: Chromatography method: dx.doi.org/10.1016/j.chroma.2015.11.014
COMMENT: Acquisition method: 10.1002/rcm.8541
CH$NAME: Disperse brown 1
CH$FORMULA: C16H15Cl3N4O4
CH$EXACT_MASS: 432.0159
CH$SMILES: C1=CC(=C(C=C1N(CCO)CCO)Cl)N=NC2=C(C=C(C=C2Cl)[N+](=O)[O-])Cl
CH$IUPAC: InChI=1S/C16H15Cl3N4O4/c17-12-7-10(22(3-5-24)4-6-25)1-2-15(12)20-21-16-13(18)8-11(23(26)27)9-14(16)19/h1-2,7-9,24-25H,3-6H2
CH$LINK: CAS 23355-64-8
CH$LINK: INCHIKEY HXXLWTPFYWMBSC-UHFFFAOYSA-N
AC$INSTRUMENT: TripleTOF 6600 SCIEX
AC$INSTRUMENT_TYPE: LC-ESI-QTOF
AC$MASS_SPECTROMETRY: MS_TYPE MS2
AC$MASS_SPECTROMETRY: ION_MODE POSITIVE
AC$MASS_SPECTROMETRY: COLLISION_ENERGY 40
AC$MASS_SPECTROMETRY: FRAGMENTATION_MODE CID
AC$MASS_SPECTROMETRY: IONIZATION ESI
AC$CHROMATOGRAPHY: COLUMN_NAME Zorbax Eclipse Plus C18 2.1 mm x 150 mm, 3.5 um, Agilent
AC$CHROMATOGRAPHY: COLUMN_TEMPERATURE 40 °C
AC$CHROMATOGRAPHY: FLOW_GRADIENT 0 min min 98% A, 1 min 98% A, 2 min 80% A, 16.5 min 2% A, 22 min 2% A, 22.1 min 98% A, 27 min 98% A
AC$CHROMATOGRAPHY: FLOW_RATE 0.3 mL/min
AC$CHROMATOGRAPHY: RETENTION_TIME 12.39 min
AC$CHROMATOGRAPHY: SOLVENT A: Water 0.1% Formic acid, B: Acetonitrile 0.1% Formic acid
MS$FOCUSED_ION: PRECURSOR_M/Z 433.0232
MS$FOCUSED_ION: PRECURSOR_TYPE [M+H]+
MS$DATA_PROCESSING: COMMENT Export with pycsl 0.1.0.dev1 and CSL 24.4
PK$SPLASH: splash10-0kas-0908600000-a62c6c07f3b21e1fe67e
PK$NUM_PEAK: 48
PK$PEAK: m/z int. rel.int.
  70.0657 1.1 18
  98.9841 0.8 13
  109.9785 0.6 10
  114.0544 7.7 131
  131.0597 1.2 20
  140.0283 0.8 13
  141.0228 0.6 10
  143.9529 1.0 17
  145.0754 1.8 30
  149.0692 1.6 27
  152.0281 0.7 11
  153.0213 16.9 287
  157.0759 0.9 15
  158.0346 0.9 15
  161.0712 1.0 17
  163.087 5.9 100
  166.0396 7.0 119
  167.0378 1.1 18
  170.0381 3.5 59
  175.0873 2.4 40
  179.0397 1.7 28
  183.031 1.9 32
  184.0523 5.8 98
  185.0461 15.0 255
  189.9467 5.2 88
  193.0972 3.2 54
  197.0486 42.7 726
  217.9499 4.5 76
  228.068 9.0 153
  310.9791 1.1 18
  311.9917 0.9 15
  324.9925 3.2 54
  340.9771 0.7 11
  343.0118 1.5 25
  349.0357 1.0 17
  356.0194 1.1 18
  356.9727 47.7 811
  357.9798 5.7 97
  358.9872 8.2 139
  367.0364 5.4 91
  369.0222 2.0 34
  370.9875 9.3 158
  371.9975 2.3 39
  387.0315 33.0 561
  388.9981 3.1 52
  402.0059 35.2 599
  415.0244 4.2 71
  433.0255 58.7 999
//