ACCESSION: MSBNK-BAFG-CSL25010634388
RECORD_TITLE: 4,4`-Methylenebis(2-chloroaniline); LC-ESI-QTOF; MS2; 110 V
DATE: 2025.01.06
AUTHORS: Ole Lessmann; Kevin S. Jewell; Björn Ehlig; Arne Wick
LICENSE: dl-de/by-2-0
COPYRIGHT: Copyright 2025 Federal Institute of Hydrology, Koblenz, Germany
COMMENT: CONFIDENCE Reference Standard (Level 1)
COMMENT: Chromatography method: dx.doi.org/10.1016/j.chroma.2015.11.014
COMMENT: Acquisition method: 10.1002/rcm.8541
CH$NAME: 4,4`-Methylenebis(2-chloroaniline)
CH$FORMULA: C13H12Cl2N2
CH$EXACT_MASS: 266.0378
CH$SMILES: C1=CC(=C(C=C1CC2=CC(=C(C=C2)N)Cl)Cl)N
CH$IUPAC: InChI=1S/C13H12Cl2N2/c14-10-6-8(1-3-12(10)16)5-9-2-4-13(17)11(15)7-9/h1-4,6-7H,5,16-17H2
CH$LINK: CAS 101-14-4
CH$LINK: INCHIKEY IBOFVQJTBBUKMU-UHFFFAOYSA-N
AC$INSTRUMENT: TripleTOF 6600 SCIEX
AC$INSTRUMENT_TYPE: LC-ESI-QTOF
AC$MASS_SPECTROMETRY: MS_TYPE MS2
AC$MASS_SPECTROMETRY: ION_MODE POSITIVE
AC$MASS_SPECTROMETRY: COLLISION_ENERGY 110
AC$MASS_SPECTROMETRY: FRAGMENTATION_MODE CID
AC$MASS_SPECTROMETRY: IONIZATION ESI
AC$CHROMATOGRAPHY: COLUMN_NAME Zorbax Eclipse Plus C18 2.1 mm x 150 mm, 3.5 um, Agilent
AC$CHROMATOGRAPHY: COLUMN_TEMPERATURE 40 °C
AC$CHROMATOGRAPHY: FLOW_GRADIENT 0 min min 98% A, 1 min 98% A, 2 min 80% A, 16.5 min 2% A, 22 min 2% A, 22.1 min 98% A, 27 min 98% A
AC$CHROMATOGRAPHY: FLOW_RATE 0.3 mL/min
AC$CHROMATOGRAPHY: RETENTION_TIME 11.747 min
AC$CHROMATOGRAPHY: SOLVENT A: Water 0.1% Formic acid, B: Acetonitrile 0.1% Formic acid
MS$FOCUSED_ION: PRECURSOR_M/Z 267.045
MS$FOCUSED_ION: PRECURSOR_TYPE [M+H]+
MS$DATA_PROCESSING: COMMENT Export with pycsl 0.1.0.dev1 and CSL 24.4
PK$SPLASH: splash10-0udi-7900000000-e02e17c848e5181c73d8
PK$NUM_PEAK: 64
PK$PEAK: m/z int. rel.int.
  39.0239 1.0 42
  49.0081 0.5 21
  50.0156 7.7 330
  51.0234 20.6 883
  52.0191 1.0 42
  52.0314 0.6 25
  61.0082 0.9 38
  62.0155 2.0 85
  63.0235 3.8 162
  65.0387 1.9 81
  72.9838 0.6 25
  73.0093 0.6 25
  74.0154 6.7 287
  75.0231 7.3 312
  76.0196 0.7 30
  76.0307 2.4 102
  77.0383 20.9 896
  78.0332 1.6 68
  78.0464 2.9 124
  85.007 0.5 21
  86.0139 0.7 30
  87.0239 1.5 64
  88.0318 1.2 51
  89.0397 5.4 231
  90.0341 0.4 17
  98.0155 4.8 205
  99.0235 3.7 158
  100.0311 0.9 38
  101.0391 1.1 47
  102.0457 2.3 98
  104.0492 7.5 321
  110.0153 1.1 47
  111.0226 0.8 34
  113.0384 4.7 201
  114.0439 1.5 64
  115.054 8.9 381
  122.0153 0.8 34
  123.0233 0.5 21
  124.0316 0.6 25
  125.0377 1.9 81
  126.0465 5.2 222
  127.0555 2.2 94
  128.0517 0.5 21
  129.046 0.5 21
  137.0405 0.7 30
  138.0428 0.6 25
  139.0539 23.3 999
  140.0499 6.6 282
  141.064 0.5 21
  149.0382 1.6 68
  150.0461 19.1 818
  151.0535 8.5 364
  152.0617 4.7 201
  153.0591 0.7 30
  161.0388 0.6 25
  162.0502 0.8 34
  163.0551 0.7 30
  164.051 2.3 98
  166.0661 2.8 120
  167.0744 2.2 94
  175.042 0.6 25
  176.0484 1.2 51
  177.0612 0.8 34
  179.0563 0.6 25
//