ACCESSION: MSBNK-BAFG-CSL25011734590
RECORD_TITLE: Food Yellow 3 free acid; LC-ESI-QTOF; MS2; 100 V
DATE: 2025.01.17
AUTHORS: Ole Lessmann; Kevin S. Jewell; Björn Ehlig; Arne Wick
LICENSE: dl-de/by-2-0
COPYRIGHT: Copyright 2025 Federal Institute of Hydrology, Koblenz, Germany
COMMENT: CONFIDENCE Reference Standard (Level 1)
COMMENT: Chromatography method: dx.doi.org/10.1016/j.chroma.2015.11.014
CH$NAME: Food Yellow 3 free acid
CH$FORMULA: C16H12N2O7S2
CH$EXACT_MASS: 408.0086
CH$SMILES: C1=CC(=CC=C1N=NC2=C(C=CC3=C2C=CC(=C3)S(=O)(=O)O)O)S(=O)(=O)O
CH$IUPAC: InChI=1S/C16H12N2O7S2/c19-15-8-1-10-9-13(27(23,24)25)6-7-14(10)16(15)18-17-11-2-4-12(5-3-11)26(20,21)22/h1-9,19H,(H,20,21,22)(H,23,24,25)
CH$LINK: CAS 5859-11-0
CH$LINK: INCHIKEY KEYWXKLGZZGHMT-UHFFFAOYSA-N
AC$INSTRUMENT: TripleTOF 6600 SCIEX
AC$INSTRUMENT_TYPE: LC-ESI-QTOF
AC$MASS_SPECTROMETRY: MS_TYPE MS2
AC$MASS_SPECTROMETRY: ION_MODE POSITIVE
AC$MASS_SPECTROMETRY: COLLISION_ENERGY 100
AC$MASS_SPECTROMETRY: FRAGMENTATION_MODE CID
AC$MASS_SPECTROMETRY: IONIZATION ESI
AC$CHROMATOGRAPHY: COLUMN_NAME Zorbax Eclipse Plus C18 2.1 mm x 150 mm, 3.5 um, Agilent
AC$CHROMATOGRAPHY: COLUMN_TEMPERATURE 40 °C
AC$CHROMATOGRAPHY: FLOW_GRADIENT 0 min min 98% A, 1 min 98% A, 2 min 80% A, 16.5 min 2% A, 22 min 2% A, 22.1 min 98% A, 27 min 98% A
AC$CHROMATOGRAPHY: FLOW_RATE 0.3 mL/min
AC$CHROMATOGRAPHY: RETENTION_TIME 5.59 min
AC$CHROMATOGRAPHY: SOLVENT A: Water 0.1% Formic acid, B: Acetonitrile 0.1% Formic acid
MS$FOCUSED_ION: PRECURSOR_M/Z 409.0159
MS$FOCUSED_ION: PRECURSOR_TYPE [M+H]+
MS$DATA_PROCESSING: COMMENT Export with pycsl 0.1.0.dev1 and CSL 25.0
PK$SPLASH: splash10-0fai-9400000000-12e49d89ac1cdc196ba1
PK$NUM_PEAK: 50
PK$PEAK: m/z int. rel.int.
  39.0231 7.9 48
  50.0146 3.7 22
  51.0226 7.0 42
  53.0385 21.0 128
  61.0078 2.1 12
  62.0151 5.9 36
  63.0226 31.4 192
  64.9692 4.4 26
  65.0382 37.3 228
  73.0066 1.8 11
  74.0147 51.4 314
  75.0089 2.0 12
  75.0222 17.1 104
  76.0301 19.5 119
  77.0384 9.0 55
  80.0493 163.3 999
  81.0327 4.5 27
  87.0224 2.9 17
  88.0301 4.5 27
  89.0383 65.5 400
  90.0345 3.3 20
  92.0494 19.3 118
  98.0144 6.6 40
  99.0219 24.7 151
  100.0294 82.5 504
  101.026 8.5 51
  101.0375 4.7 28
  102.0434 3.3 20
  108.0438 37.9 231
  109.0519 3.6 22
  114.0335 5.7 34
  115.0417 2.7 16
  116.0492 2.6 15
  126.0341 7.6 46
  127.0414 83.0 507
  128.0495 1.7 10
  129.0569 2.3 14
  175.0522 3.4 20
  176.0513 3.2 19
  190.0643 6.8 41
  191.0705 2.1 12
  201.0552 6.9 42
  202.0639 5.2 31
  203.0682 2.0 12
  216.069 6.4 39
  217.075 6.8 41
  218.0857 1.8 11
  227.0612 2.1 12
  228.0662 3.9 23
  229.0747 21.6 132
//
