ACCESSION: MSBNK-BAFG-CSL2310269855
RECORD_TITLE: 2-Phenyl-2-imidazoline; LC-ESI-QTOF; MS2; 100 V
DATE: 2023.10.26
AUTHORS: Kevin S. Jewell; Björn Ehlig; Arne Wick
LICENSE: dl-de/by-2-0
COPYRIGHT: Copyright 2023 Federal Institute of Hydrology, Koblenz, Germany
COMMENT: CONFIDENCE Reference Standard (Level 1)
COMMENT: Chromatography method: dx.doi.org/10.1016/j.chroma.2015.11.014
COMMENT: Acquisition method: 10.1002/rcm.8541
CH$NAME: 2-Phenyl-2-imidazoline
CH$COMPOUND_CLASS: Pharmaceutical; Industrial_process
CH$FORMULA: C9H10N2
CH$EXACT_MASS: 146.0844
CH$SMILES: C1CN=C(N1)C2=CC=CC=C2
CH$IUPAC: InChI=1S/C9H10N2/c1-2-4-8(5-3-1)9-10-6-7-11-9/h1-5H,6-7H2,(H,10,11)
CH$LINK: CAS 936-49-2
CH$LINK: INCHIKEY BKCCAYLNRIRKDJ-UHFFFAOYSA-N
AC$INSTRUMENT: TripleTOF 5600 SCIEX
AC$INSTRUMENT_TYPE: LC-ESI-QTOF
AC$MASS_SPECTROMETRY: MS_TYPE MS2
AC$MASS_SPECTROMETRY: ION_MODE POSITIVE
AC$MASS_SPECTROMETRY: COLLISION_ENERGY 100
AC$MASS_SPECTROMETRY: FRAGMENTATION_MODE CID
AC$MASS_SPECTROMETRY: IONIZATION ESI
AC$CHROMATOGRAPHY: COLUMN_NAME Zorbax Eclipse Plus C18 2.1 mm x 150 mm, 3.5 um, Agilent
AC$CHROMATOGRAPHY: COLUMN_TEMPERATURE 40 °C
AC$CHROMATOGRAPHY: FLOW_GRADIENT 0 min min 98% A, 1 min 98% A, 2 min 80% A, 16.5 min 2% A, 22 min 2% A, 22.1 min 98% A, 27 min 98% A
AC$CHROMATOGRAPHY: FLOW_RATE 0.3 mL/min
AC$CHROMATOGRAPHY: RETENTION_TIME 4.346 min
AC$CHROMATOGRAPHY: SOLVENT A: Water 0.1% Formic acid, B: Acetonitrile 0.1% Formic acid
MS$FOCUSED_ION: PRECURSOR_M/Z 147.0917
MS$FOCUSED_ION: PRECURSOR_TYPE [M+H]+
MS$DATA_PROCESSING: COMMENT Export with Spectra 1.9.12 MsBackendMassbank 1.7.4
MS$DATA_PROCESSING: WHOLE RMassBank 2.3.1
PK$SPLASH: splash10-0udi-9000000000-176ff44f800335935c9b
PK$NUM_PEAK: 8
PK$PEAK: m/z int. rel.int.
  39.0227 0.4 14
  42.0211 0.5 18
  51.0229 27.2 999
  52.0183 0.4 14
  73.0061 0.7 25
  74.0152 3.3 121
  75.0244 0.6 22
  77.0384 2.5 91
//
