ACCESSION: MSBNK-BAFG-CSL23110927776
RECORD_TITLE: 2-Methylquinoline; LC-ESI-QTOF; MS2; 40 V
DATE: 2023.11.09
AUTHORS: Kevin S. Jewell; Björn Ehlig; Arne Wick
LICENSE: dl-de/by-2-0
COPYRIGHT: Copyright 2023 Federal Institute of Hydrology, Koblenz, Germany
COMMENT: CONFIDENCE Reference Standard (Level 1)
COMMENT: Chromatography method: dx.doi.org/10.1016/j.chroma.2015.11.014
COMMENT: Acquisition method: 10.1002/rcm.8541
CH$NAME: 2-Methylquinoline
CH$FORMULA: C10H9N
CH$EXACT_MASS: 143.0735
CH$SMILES: CC1=NC2=CC=CC=C2C=C1
CH$IUPAC: InChI=1S/C10H9N/c1-8-6-7-9-4-2-3-5-10(9)11-8/h2-7H,1H3
CH$LINK: CAS 91-63-4
CH$LINK: INCHIKEY SMUQFGGVLNAIOZ-UHFFFAOYSA-N
AC$INSTRUMENT: TripleTOF X500R SCIEX
AC$INSTRUMENT_TYPE: LC-ESI-QTOF
AC$MASS_SPECTROMETRY: MS_TYPE MS2
AC$MASS_SPECTROMETRY: ION_MODE POSITIVE
AC$MASS_SPECTROMETRY: COLLISION_ENERGY 40
AC$MASS_SPECTROMETRY: FRAGMENTATION_MODE CID
AC$MASS_SPECTROMETRY: IONIZATION ESI
AC$CHROMATOGRAPHY: COLUMN_NAME Zorbax Eclipse Plus C18 2.1 mm x 150 mm, 3.5 um, Agilent
AC$CHROMATOGRAPHY: COLUMN_TEMPERATURE 40 °C
AC$CHROMATOGRAPHY: FLOW_GRADIENT 0 min min 98% A, 1 min 98% A, 2 min 80% A, 16.5 min 2% A, 22 min 2% A, 22.1 min 98% A, 27 min 98% A
AC$CHROMATOGRAPHY: FLOW_RATE 0.3 mL/min
AC$CHROMATOGRAPHY: RETENTION_TIME 4.69 min
AC$CHROMATOGRAPHY: SOLVENT A: Water 0.1% Formic acid, B: Acetonitrile 0.1% Formic acid
MS$FOCUSED_ION: PRECURSOR_M/Z 144.0808
MS$FOCUSED_ION: PRECURSOR_TYPE [M+H]+
MS$DATA_PROCESSING: COMMENT Export with Spectra 1.9.12 MsBackendMassbank 1.7.4
MS$DATA_PROCESSING: WHOLE RMassBank 2.3.1
PK$SPLASH: splash10-004l-2900000000-718d7f9fe398da866e9c
PK$NUM_PEAK: 19
PK$PEAK: m/z int. rel.int.
  51.0233 6.2 84
  75.0243 1.2 16
  77.0391 73.2 999
  89.0397 1.2 16
  91.055 4.9 66
  101.0389 13.9 189
  102.0468 14.4 196
  103.0548 39.5 539
  115.0546 19.9 271
  116.0611 4 54
  117.0639 7.3 99
  126.0461 1.3 17
  127.0545 9.4 128
  128.0498 56.1 765
  129.0577 9.9 135
  140.0521 1.3 17
  142.066 8.8 120
  143.0734 51.9 708
  144.0811 62.1 847
//
