ACCESSION: MSBNK-BAFG-CSL25010634142
RECORD_TITLE: 2-isopropyl-5,6-dimethyl-1H-benzimidazole; LC-ESI-QTOF; MS2; 120 V
DATE: 2025.01.06
AUTHORS: Ole Lessmann; Kevin S. Jewell; Björn Ehlig; Arne Wick
LICENSE: dl-de/by-2-0
COPYRIGHT: Copyright 2025 Federal Institute of Hydrology, Koblenz, Germany
COMMENT: CONFIDENCE Reference Standard (Level 1)
COMMENT: Chromatography method: dx.doi.org/10.1016/j.chroma.2015.11.014
COMMENT: Acquisition method: 10.1002/rcm.8541
CH$NAME: 2-isopropyl-5,6-dimethyl-1H-benzimidazole
CH$FORMULA: C12H16N2
CH$EXACT_MASS: 188.1313
CH$SMILES: CC1=CC2=C(C=C1C)N=C(N2)C(C)C
CH$IUPAC: InChI=1S/C12H16N2/c1-7(2)12-13-10-5-8(3)9(4)6-11(10)14-12/h5-7H,1-4H3,(H,13,14)
CH$LINK: CAS 66073-79-8
CH$LINK: INCHIKEY KBNPIBOOPFUXEM-UHFFFAOYSA-N
AC$INSTRUMENT: TripleTOF 6600 SCIEX
AC$INSTRUMENT_TYPE: LC-ESI-QTOF
AC$MASS_SPECTROMETRY: MS_TYPE MS2
AC$MASS_SPECTROMETRY: ION_MODE POSITIVE
AC$MASS_SPECTROMETRY: COLLISION_ENERGY 120
AC$MASS_SPECTROMETRY: FRAGMENTATION_MODE CID
AC$MASS_SPECTROMETRY: IONIZATION ESI
AC$CHROMATOGRAPHY: COLUMN_NAME Zorbax Eclipse Plus C18 2.1 mm x 150 mm, 3.5 um, Agilent
AC$CHROMATOGRAPHY: COLUMN_TEMPERATURE 40 °C
AC$CHROMATOGRAPHY: FLOW_GRADIENT 0 min min 98% A, 1 min 98% A, 2 min 80% A, 16.5 min 2% A, 22 min 2% A, 22.1 min 98% A, 27 min 98% A
AC$CHROMATOGRAPHY: FLOW_RATE 0.3 mL/min
AC$CHROMATOGRAPHY: RETENTION_TIME 6.482 min
AC$CHROMATOGRAPHY: SOLVENT A: Water 0.1% Formic acid, B: Acetonitrile 0.1% Formic acid
MS$FOCUSED_ION: PRECURSOR_M/Z 189.1386
MS$FOCUSED_ION: PRECURSOR_TYPE [M+H]+
MS$DATA_PROCESSING: COMMENT Export with pycsl 0.1.0.dev1 and CSL 24.4
PK$SPLASH: splash10-0udi-9000000000-74794010f0e49452726a
PK$NUM_PEAK: 33
PK$PEAK: m/z int. rel.int.
  35.9988 2.2 13
  37.0067 13.2 82
  38.0145 11.0 68
  39.0225 42.0 261
  41.0381 3.3 20
  49.0066 9.9 61
  50.0147 90.0 559
  51.0225 160.6 999
  52.0172 5.4 33
  52.0296 5.9 36
  53.0377 2.5 15
  54.0328 2.1 13
  61.0061 8.2 51
  62.0138 14.2 88
  63.0219 24.6 153
  65.0371 18.6 115
  73.0053 2.0 12
  74.0136 14.7 91
  75.0082 2.6 16
  75.0218 7.0 43
  76.017 4.8 29
  76.029 1.7 10
  77.0376 64.2 399
  78.0329 6.9 42
  78.0444 5.3 32
  80.0482 1.7 10
  89.0372 16.0 99
  91.0527 9.1 56
  102.0315 2.2 13
  104.0473 8.4 52
  114.0327 1.6 9
  117.0543 1.8 11
  131.0588 3.0 18
//