ACCESSION: MSBNK-BAFG-CSL23110917861
RECORD_TITLE: Chloridazone-methyl-desphenyl; LC-ESI-QTOF; MS2; 20 V
DATE: 2023.11.09
AUTHORS: Kevin S. Jewell; Björn Ehlig; Arne Wick
LICENSE: dl-de/by-2-0
COPYRIGHT: Copyright 2023 Federal Institute of Hydrology, Koblenz, Germany
COMMENT: CONFIDENCE Reference Standard (Level 1)
COMMENT: Chromatography method: dx.doi.org/10.1016/j.chroma.2015.11.014
COMMENT: Acquisition method: 10.1002/rcm.8541
CH$NAME: Chloridazone-methyl-desphenyl
CH$COMPOUND_CLASS: Herbicide; Transformation_product
CH$FORMULA: C5H6ClN3O
CH$EXACT_MASS: 159.0199
CH$SMILES: CN1C(=O)C(=C(C=N1)N)Cl
CH$IUPAC: InChI=1S/C5H6ClN3O/c1-9-5(10)4(6)3(7)2-8-9/h2H,7H2,1H3
CH$LINK: CAS 17254-80-7
CH$LINK: INCHIKEY XNSGCNYTNLWRKM-UHFFFAOYSA-N
AC$INSTRUMENT: TripleTOF 6600 SCIEX
AC$INSTRUMENT_TYPE: LC-ESI-QTOF
AC$MASS_SPECTROMETRY: MS_TYPE MS2
AC$MASS_SPECTROMETRY: ION_MODE POSITIVE
AC$MASS_SPECTROMETRY: COLLISION_ENERGY 20
AC$MASS_SPECTROMETRY: FRAGMENTATION_MODE CID
AC$MASS_SPECTROMETRY: IONIZATION ESI
AC$CHROMATOGRAPHY: COLUMN_NAME Zorbax Eclipse Plus C18 2.1 mm x 150 mm, 3.5 um, Agilent
AC$CHROMATOGRAPHY: COLUMN_TEMPERATURE 40 °C
AC$CHROMATOGRAPHY: FLOW_GRADIENT 0 min min 98% A, 1 min 98% A, 2 min 80% A, 16.5 min 2% A, 22 min 2% A, 22.1 min 98% A, 27 min 98% A
AC$CHROMATOGRAPHY: FLOW_RATE 0.3 mL/min
AC$CHROMATOGRAPHY: RETENTION_TIME 4.787 min
AC$CHROMATOGRAPHY: SOLVENT A: Water 0.1% Formic acid, B: Acetonitrile 0.1% Formic acid
MS$FOCUSED_ION: PRECURSOR_M/Z 160.0272
MS$FOCUSED_ION: PRECURSOR_TYPE [M+H]+
MS$DATA_PROCESSING: COMMENT Export with Spectra 1.9.12 MsBackendMassbank 1.7.4
MS$DATA_PROCESSING: WHOLE RMassBank 2.3.1
PK$SPLASH: splash10-03di-0900000000-54f0c9b00ecc3a374155
PK$NUM_PEAK: 7
PK$PEAK: m/z int. rel.int.
  87.994 0.5 33
  116.9957 0.7 46
  130.0019 0.2 13
  131.0132 0.2 13
  145.0034 0.3 20
  160.0256 14.9 999
  161.0288 6.3 422
//
