ACCESSION: MSBNK-BAFG-CSL25010634435
RECORD_TITLE: p-Phenetidine; LC-ESI-QTOF; MS2; 100 V
DATE: 2025.01.06
AUTHORS: Ole Lessmann; Kevin S. Jewell; Björn Ehlig; Arne Wick
LICENSE: dl-de/by-2-0
COPYRIGHT: Copyright 2025 Federal Institute of Hydrology, Koblenz, Germany
COMMENT: CONFIDENCE Reference Standard (Level 1)
COMMENT: Chromatography method: dx.doi.org/10.1016/j.chroma.2015.11.014
COMMENT: Acquisition method: 10.1002/rcm.8541
CH$NAME: p-Phenetidine
CH$FORMULA: C8H11NO
CH$EXACT_MASS: 137.0841
CH$SMILES: CCOC1=CC=C(C=C1)N
CH$IUPAC: InChI=1S/C8H11NO/c1-2-10-8-5-3-7(9)4-6-8/h3-6H,2,9H2,1H3
CH$LINK: CAS 156-43-4
CH$LINK: INCHIKEY IMPPGHMHELILKG-UHFFFAOYSA-N
AC$INSTRUMENT: TripleTOF 6600 SCIEX
AC$INSTRUMENT_TYPE: LC-ESI-QTOF
AC$MASS_SPECTROMETRY: MS_TYPE MS2
AC$MASS_SPECTROMETRY: ION_MODE POSITIVE
AC$MASS_SPECTROMETRY: COLLISION_ENERGY 100
AC$MASS_SPECTROMETRY: FRAGMENTATION_MODE CID
AC$MASS_SPECTROMETRY: IONIZATION ESI
AC$CHROMATOGRAPHY: COLUMN_NAME Zorbax Eclipse Plus C18 2.1 mm x 150 mm, 3.5 um, Agilent
AC$CHROMATOGRAPHY: COLUMN_TEMPERATURE 40 °C
AC$CHROMATOGRAPHY: FLOW_GRADIENT 0 min min 98% A, 1 min 98% A, 2 min 80% A, 16.5 min 2% A, 22 min 2% A, 22.1 min 98% A, 27 min 98% A
AC$CHROMATOGRAPHY: FLOW_RATE 0.3 mL/min
AC$CHROMATOGRAPHY: RETENTION_TIME 4.84 min
AC$CHROMATOGRAPHY: SOLVENT A: Water 0.1% Formic acid, B: Acetonitrile 0.1% Formic acid
MS$FOCUSED_ION: PRECURSOR_M/Z 138.0914
MS$FOCUSED_ION: PRECURSOR_TYPE [M+H]+
MS$DATA_PROCESSING: COMMENT Export with pycsl 0.1.0.dev1 and CSL 24.4
PK$SPLASH: splash10-01p9-9000000000-23222c718137dcec0e3a
PK$NUM_PEAK: 18
PK$PEAK: m/z int. rel.int.
  36.0003 2.9 239
  37.0083 12.1 999
  38.0034 0.6 49
  38.0159 10.3 850
  39.0238 7.5 619
  49.0083 2.9 239
  50.0159 6.2 511
  51.024 0.8 66
  52.0191 0.5 41
  53.0026 0.4 33
  53.0404 0.7 57
  59.9999 1.2 99
  61.0078 6.9 569
  62.0159 11.9 982
  63.0234 6.6 544
  73.0083 0.7 57
  74.0153 2.2 181
  80.0514 0.5 41
//