ACCESSION: MSBNK-BAFG-CSL23111027348
RECORD_TITLE: Quinoline; LC-ESI-QTOF; MS2; 50 V
DATE: 2023.11.10
AUTHORS: Kevin S. Jewell; Björn Ehlig; Arne Wick
LICENSE: dl-de/by-2-0
COPYRIGHT: Copyright 2023 Federal Institute of Hydrology, Koblenz, Germany
COMMENT: CONFIDENCE Reference Standard (Level 1)
COMMENT: Chromatography method: dx.doi.org/10.1016/j.chroma.2015.11.014
COMMENT: Acquisition method: 10.1002/rcm.8541
CH$NAME: Quinoline
CH$FORMULA: C9H7N
CH$EXACT_MASS: 129.0578
CH$SMILES: C1=CC=C2C(=C1)C=CC=N2
CH$IUPAC: InChI=1S/C9H7N/c1-2-6-9-8(4-1)5-3-7-10-9/h1-7H
CH$LINK: CAS 91-22-5
CH$LINK: INCHIKEY SMWDFEZZVXVKRB-UHFFFAOYSA-N
AC$INSTRUMENT: TripleTOF X500R SCIEX
AC$INSTRUMENT_TYPE: LC-ESI-QTOF
AC$MASS_SPECTROMETRY: MS_TYPE MS2
AC$MASS_SPECTROMETRY: ION_MODE POSITIVE
AC$MASS_SPECTROMETRY: COLLISION_ENERGY 50
AC$MASS_SPECTROMETRY: FRAGMENTATION_MODE CID
AC$MASS_SPECTROMETRY: IONIZATION ESI
AC$CHROMATOGRAPHY: COLUMN_NAME Zorbax Eclipse Plus C18 2.1 mm x 150 mm, 3.5 um, Agilent
AC$CHROMATOGRAPHY: COLUMN_TEMPERATURE 40 °C
AC$CHROMATOGRAPHY: FLOW_GRADIENT 0 min min 98% A, 1 min 98% A, 2 min 80% A, 16.5 min 2% A, 22 min 2% A, 22.1 min 98% A, 27 min 98% A
AC$CHROMATOGRAPHY: FLOW_RATE 0.3 mL/min
AC$CHROMATOGRAPHY: RETENTION_TIME 4.58 min
AC$CHROMATOGRAPHY: SOLVENT A: Water 0.1% Formic acid, B: Acetonitrile 0.1% Formic acid
MS$FOCUSED_ION: PRECURSOR_M/Z 130.0651
MS$FOCUSED_ION: PRECURSOR_TYPE [M+H]+
MS$DATA_PROCESSING: COMMENT Export with Spectra 1.9.12 MsBackendMassbank 1.7.4
MS$DATA_PROCESSING: WHOLE RMassBank 2.3.1
PK$SPLASH: splash10-0ufr-9700000000-5ffdc78dda9b22143b4e
PK$NUM_PEAK: 19
PK$PEAK: m/z int. rel.int.
  39.023 3.3 12
  49.0071 3 11
  50.0151 60.7 225
  51.0224 226.5 841
  53.0384 3.7 13
  62.0145 4.7 17
  63.023 16 59
  74.0149 6.6 24
  75.023 31 115
  76.0306 9 33
  77.0378 268.9 999
  78.0345 5.8 21
  101.0386 32.4 120
  102.0463 115.2 427
  103.0541 184.1 683
  105.0449 5.7 21
  128.0494 45.5 169
  129.0525 8.2 30
  130.065 149.7 556
//
