ACCESSION: MSBNK-BAFG-CSL231025426
RECORD_TITLE: Benzyldimethyl(tetradecyl-carbamoylmethyl)ammonium; LC-ESI-QTOF; MS2; 20 V
DATE: 2023.10.25
AUTHORS: Kevin S. Jewell; Björn Ehlig; Arne Wick
LICENSE: dl-de/by-2-0
COPYRIGHT: Copyright 2023 Federal Institute of Hydrology, Koblenz, Germany
COMMENT: CONFIDENCE Reference Standard (Level 1)
COMMENT: Chromatography method: dx.doi.org/10.1016/j.chroma.2015.11.014
COMMENT: Acquisition method: 10.1002/rcm.8541
CH$NAME: Benzyldimethyl(tetradecyl-carbamoylmethyl)ammonium
CH$COMPOUND_CLASS: Antimicrobial
CH$FORMULA: C25H45N2O
CH$EXACT_MASS: 389.3526
CH$SMILES: CCCCCCCCCCCCCCNC(C[N+](C)(Cc1ccccc1)C)=O
CH$IUPAC: InChI=1S/C25H44N2O/c1-4-5-6-7-8-9-10-11-12-13-14-18-21-26-25(28)23-27(2,3)22-24-19-16-15-17-20-24/h15-17,19-20H,4-14,18,21-23H2,1-3H3/p+1
CH$LINK: CAS 114801-97-7
CH$LINK: INCHIKEY YULONOFZPCZSJX-UHFFFAOYSA-O
AC$INSTRUMENT: TripleTOF 5600 SCIEX
AC$INSTRUMENT_TYPE: LC-ESI-QTOF
AC$MASS_SPECTROMETRY: MS_TYPE MS2
AC$MASS_SPECTROMETRY: ION_MODE POSITIVE
AC$MASS_SPECTROMETRY: COLLISION_ENERGY 20
AC$MASS_SPECTROMETRY: FRAGMENTATION_MODE CID
AC$MASS_SPECTROMETRY: IONIZATION ESI
AC$CHROMATOGRAPHY: COLUMN_NAME Zorbax Eclipse Plus C18 2.1 mm x 150 mm, 3.5 um, Agilent
AC$CHROMATOGRAPHY: COLUMN_TEMPERATURE 40 °C
AC$CHROMATOGRAPHY: FLOW_GRADIENT 0 min min 98% A, 1 min 98% A, 2 min 80% A, 16.5 min 2% A, 22 min 2% A, 22.1 min 98% A, 27 min 98% A
AC$CHROMATOGRAPHY: FLOW_RATE 0.3 mL/min
AC$CHROMATOGRAPHY: RETENTION_TIME 13.085 min
AC$CHROMATOGRAPHY: SOLVENT A: Water 0.1% Formic acid, B: Acetonitrile 0.1% Formic acid
MS$FOCUSED_ION: PRECURSOR_M/Z 389.3526
MS$FOCUSED_ION: PRECURSOR_TYPE [M]+
MS$DATA_PROCESSING: COMMENT Export with Spectra 1.9.12 MsBackendMassbank 1.7.4
MS$DATA_PROCESSING: WHOLE RMassBank 2.3.1
PK$SPLASH: splash10-000i-0029000000-16140fafc9d1c6e21a11
PK$NUM_PEAK: 2
PK$PEAK: m/z int. rel.int.
  297.2911 294.4 273
  389.3533 1077.3 999
//
