ACCESSION: MSBNK-BAFG-CSL23102612262
RECORD_TITLE: Cyclopropyldiphenylsulfonium; LC-ESI-QTOF; MS2; 120 V
DATE: 2023.10.26
AUTHORS: Kevin S. Jewell; Björn Ehlig; Arne Wick
LICENSE: dl-de/by-2-0
COPYRIGHT: Copyright 2023 Federal Institute of Hydrology, Koblenz, Germany
COMMENT: CONFIDENCE Reference Standard (Level 1)
COMMENT: Chromatography method: dx.doi.org/10.1016/j.chroma.2015.11.014
COMMENT: Acquisition method: 10.1002/rcm.8541
CH$NAME: Cyclopropyldiphenylsulfonium
CH$FORMULA: [C15H15S]+
CH$EXACT_MASS: 227.0889
CH$SMILES: C1CC1[S+](C2=CC=CC=C2)C3=CC=CC=C3
CH$IUPAC: InChI=1S/C15H15S/c1-3-7-13(8-4-1)16(15-11-12-15)14-9-5-2-6-10-14/h1-10,15H,11-12H2/q+1
CH$LINK: CAS 33462-81-6
CH$LINK: INCHIKEY VLBAODADJZKAEV-UHFFFAOYSA-N
AC$INSTRUMENT: TripleTOF 5600 SCIEX
AC$INSTRUMENT_TYPE: LC-ESI-QTOF
AC$MASS_SPECTROMETRY: MS_TYPE MS2
AC$MASS_SPECTROMETRY: ION_MODE POSITIVE
AC$MASS_SPECTROMETRY: COLLISION_ENERGY 120
AC$MASS_SPECTROMETRY: FRAGMENTATION_MODE CID
AC$MASS_SPECTROMETRY: IONIZATION ESI
AC$CHROMATOGRAPHY: COLUMN_NAME Zorbax Eclipse Plus C18 2.1 mm x 150 mm, 3.5 um, Agilent
AC$CHROMATOGRAPHY: COLUMN_TEMPERATURE 40 °C
AC$CHROMATOGRAPHY: FLOW_GRADIENT 0 min min 98% A, 1 min 98% A, 2 min 80% A, 16.5 min 2% A, 22 min 2% A, 22.1 min 98% A, 27 min 98% A
AC$CHROMATOGRAPHY: FLOW_RATE 0.3 mL/min
AC$CHROMATOGRAPHY: RETENTION_TIME 5.55 min
AC$CHROMATOGRAPHY: SOLVENT A: Water 0.1% Formic acid, B: Acetonitrile 0.1% Formic acid
MS$FOCUSED_ION: PRECURSOR_M/Z 227.0889
MS$FOCUSED_ION: PRECURSOR_TYPE [M]+
MS$DATA_PROCESSING: COMMENT Export with Spectra 1.9.12 MsBackendMassbank 1.7.4
MS$DATA_PROCESSING: WHOLE RMassBank 2.3.1
PK$SPLASH: splash10-0udi-9200000000-2e90d681b1c040679e9e
PK$NUM_PEAK: 29
PK$PEAK: m/z int. rel.int.
  37.0078 0.8 58
  39.0235 2.6 189
  49.0072 1.6 116
  50.0148 10.6 772
  51.0232 13.7 999
  61.0071 0.9 65
  62.0144 1.1 80
  63.0222 2.8 204
  65.0378 2 145
  68.9782 3.3 240
  74.0141 2.2 160
  75.0227 1.3 94
  76.029 0.8 58
  77.0374 3 218
  86.0131 1 72
  87.0209 1.5 109
  89.0366 3.1 226
  91.0529 0.7 51
  98.0135 1.3 94
  102.0454 0.7 51
  113.0367 1.3 94
  114.0444 0.8 58
  115.0515 1.9 138
  126.0456 1.4 102
  138.0461 1 72
  139.0522 5.2 379
  150.0482 1.6 116
  151.0548 1.6 116
  152.0616 1.3 94
//
