ACCESSION: MSBNK-BAFG-CSL25010627875
RECORD_TITLE: Iminostilbene; LC-ESI-QTOF; MS2; 40 V
DATE: 2025.01.06
AUTHORS: Ole Lessmann; Kevin S. Jewell; Björn Ehlig; Arne Wick
LICENSE: dl-de/by-2-0
COPYRIGHT: Copyright 2025 Federal Institute of Hydrology, Koblenz, Germany
COMMENT: CONFIDENCE Reference Standard (Level 1)
COMMENT: Chromatography method: dx.doi.org/10.1016/j.chroma.2015.11.014
COMMENT: Acquisition method: 10.1002/rcm.8541
CH$NAME: Iminostilbene
CH$COMPOUND_CLASS: Pharmaceutical
CH$FORMULA: C14H11N
CH$EXACT_MASS: 193.0891
CH$SMILES: C1=CC=C2C(=C1)C=CC3=CC=CC=C3N2
CH$IUPAC: InChI=1S/C14H11N/c1-3-7-13-11(5-1)9-10-12-6-2-4-8-14(12)15-13/h1-10,15H
CH$LINK: CAS 256-96-2
CH$LINK: INCHIKEY LCGTWRLJTMHIQZ-UHFFFAOYSA-N
AC$INSTRUMENT: TripleTOF 6600 SCIEX
AC$INSTRUMENT_TYPE: LC-ESI-QTOF
AC$MASS_SPECTROMETRY: MS_TYPE MS2
AC$MASS_SPECTROMETRY: ION_MODE POSITIVE
AC$MASS_SPECTROMETRY: COLLISION_ENERGY 40
AC$MASS_SPECTROMETRY: FRAGMENTATION_MODE CID
AC$MASS_SPECTROMETRY: IONIZATION ESI
AC$CHROMATOGRAPHY: COLUMN_NAME Zorbax Eclipse Plus C18 2.1 mm x 150 mm, 3.5 um, Agilent
AC$CHROMATOGRAPHY: COLUMN_TEMPERATURE 40 °C
AC$CHROMATOGRAPHY: FLOW_GRADIENT 0 min min 98% A, 1 min 98% A, 2 min 80% A, 16.5 min 2% A, 22 min 2% A, 22.1 min 98% A, 27 min 98% A
AC$CHROMATOGRAPHY: FLOW_RATE 0.3 mL/min
AC$CHROMATOGRAPHY: RETENTION_TIME 13.175 min
AC$CHROMATOGRAPHY: SOLVENT A: Water 0.1% Formic acid, B: Acetonitrile 0.1% Formic acid
MS$FOCUSED_ION: PRECURSOR_M/Z 194.0964
MS$FOCUSED_ION: PRECURSOR_TYPE [M+H]+
MS$DATA_PROCESSING: COMMENT Export with pycsl 0.1.0.dev1 and CSL 24.4
PK$SPLASH: splash10-0006-0900000000-b7b06f870b27e94efad0
PK$NUM_PEAK: 19
PK$PEAK: m/z int. rel.int.
  89.0306 56.8 20
  90.0382 37.4 13
  91.0458 33.5 12
  116.0388 40.1 14
  117.0468 51.8 18
  151.0408 120.7 43
  152.0484 202.1 72
  153.0441 39.2 14
  165.0552 242.2 87
  166.0537 101.2 36
  167.0592 299.9 107
  176.0461 53.9 19
  177.0504 81.7 29
  178.0502 361.4 130
  179.0573 992.0 357
  191.0566 252.7 90
  192.0642 765.5 275
  193.0721 1867.1 671
  194.0818 2775.8 999
//