ACCESSION: MSBNK-BAFG-CSL231025468
RECORD_TITLE: Triphenyl(2-pyridylmethyl)phosphonium; LC-ESI-QTOF; MS2; 20 V
DATE: 2023.10.25
AUTHORS: Kevin S. Jewell; Björn Ehlig; Arne Wick
LICENSE: dl-de/by-2-0
COPYRIGHT: Copyright 2023 Federal Institute of Hydrology, Koblenz, Germany
COMMENT: CONFIDENCE Reference Standard (Level 1)
COMMENT: Chromatography method: dx.doi.org/10.1016/j.chroma.2015.11.014
COMMENT: Acquisition method: 10.1002/rcm.8541
CH$NAME: Triphenyl(2-pyridylmethyl)phosphonium
CH$FORMULA: C24H21NP
CH$EXACT_MASS: 354.1406
CH$SMILES: c1ccc(cc1)[P+](Cc2ccccn2)(c3ccccc3)c4ccccc4
CH$IUPAC: InChI=1S/C24H21NP/c1-4-13-22(14-5-1)26(23-15-6-2-7-16-23,24-17-8-3-9-18-24)20-21-12-10-11-19-25-21/h1-19H,20H2/q+1
CH$LINK: CAS 99662-46-1
CH$LINK: INCHIKEY KAYCSCULGYYNFT-UHFFFAOYSA-N
AC$INSTRUMENT: TripleTOF 5600 SCIEX
AC$INSTRUMENT_TYPE: LC-ESI-QTOF
AC$MASS_SPECTROMETRY: MS_TYPE MS2
AC$MASS_SPECTROMETRY: ION_MODE POSITIVE
AC$MASS_SPECTROMETRY: COLLISION_ENERGY 20
AC$MASS_SPECTROMETRY: FRAGMENTATION_MODE CID
AC$MASS_SPECTROMETRY: IONIZATION ESI
AC$CHROMATOGRAPHY: COLUMN_NAME Zorbax Eclipse Plus C18 2.1 mm x 150 mm, 3.5 um, Agilent
AC$CHROMATOGRAPHY: COLUMN_TEMPERATURE 40 °C
AC$CHROMATOGRAPHY: FLOW_GRADIENT 0 min min 98% A, 1 min 98% A, 2 min 80% A, 16.5 min 2% A, 22 min 2% A, 22.1 min 98% A, 27 min 98% A
AC$CHROMATOGRAPHY: FLOW_RATE 0.3 mL/min
AC$CHROMATOGRAPHY: RETENTION_TIME 8.341 min
AC$CHROMATOGRAPHY: SOLVENT A: Water 0.1% Formic acid, B: Acetonitrile 0.1% Formic acid
MS$FOCUSED_ION: PRECURSOR_M/Z 354.1406
MS$FOCUSED_ION: PRECURSOR_TYPE [M]+
MS$DATA_PROCESSING: COMMENT Export with Spectra 1.9.12 MsBackendMassbank 1.7.4
MS$DATA_PROCESSING: WHOLE RMassBank 2.3.1
PK$SPLASH: splash10-03di-0390000000-7285c3eb92008cf4f5cc
PK$NUM_PEAK: 7
PK$PEAK: m/z int. rel.int.
  108.0127 2.1 93
  168.0798 1.4 62
  183.0362 3.9 173
  184.0437 1.7 75
  185.0542 1.4 62
  261.0823 4.9 218
  262.0911 22.4 999
//
