ACCESSION: MSBNK-BAFG-CSL2311093663
RECORD_TITLE: 2-Morpholin-4-yl-benzothiazole; LC-ESI-QTOF; MS2; 130 V
DATE: 2023.11.09
AUTHORS: Kevin S. Jewell; Björn Ehlig; Arne Wick
LICENSE: dl-de/by-2-0
COPYRIGHT: Copyright 2023 Federal Institute of Hydrology, Koblenz, Germany
COMMENT: CONFIDENCE Reference Standard (Level 1)
COMMENT: Chromatography method: dx.doi.org/10.1016/j.chroma.2015.11.014
COMMENT: Acquisition method: 10.1002/rcm.8541
CH$NAME: 2-Morpholin-4-yl-benzothiazole
CH$COMPOUND_CLASS: Industrial_process
CH$FORMULA: C11H12N2OS
CH$EXACT_MASS: 220.067
CH$SMILES: c1ccc2c(c1)nc(s2)N3CCOCC3
CH$IUPAC: InChI=1S/C11H12N2OS/c1-2-4-10-9(3-1)12-11(15-10)13-5-7-14-8-6-13/h1-4H,5-8H2
CH$LINK: CAS 4225-26-7
CH$LINK: INCHIKEY VVUVJGRVEYHIHC-UHFFFAOYSA-N
AC$INSTRUMENT: TripleTOF 5600 SCIEX
AC$INSTRUMENT_TYPE: LC-ESI-QTOF
AC$MASS_SPECTROMETRY: MS_TYPE MS2
AC$MASS_SPECTROMETRY: ION_MODE POSITIVE
AC$MASS_SPECTROMETRY: COLLISION_ENERGY 130
AC$MASS_SPECTROMETRY: FRAGMENTATION_MODE CID
AC$MASS_SPECTROMETRY: IONIZATION ESI
AC$CHROMATOGRAPHY: COLUMN_NAME Zorbax Eclipse Plus C18 2.1 mm x 150 mm, 3.5 um, Agilent
AC$CHROMATOGRAPHY: COLUMN_TEMPERATURE 40 °C
AC$CHROMATOGRAPHY: FLOW_GRADIENT 0 min min 98% A, 1 min 98% A, 2 min 80% A, 16.5 min 2% A, 22 min 2% A, 22.1 min 98% A, 27 min 98% A
AC$CHROMATOGRAPHY: FLOW_RATE 0.3 mL/min
AC$CHROMATOGRAPHY: RETENTION_TIME 9.363 min
AC$CHROMATOGRAPHY: SOLVENT A: Water 0.1% Formic acid, B: Acetonitrile 0.1% Formic acid
MS$FOCUSED_ION: PRECURSOR_M/Z 221.0743
MS$FOCUSED_ION: PRECURSOR_TYPE [M+H]+
MS$DATA_PROCESSING: COMMENT Export with Spectra 1.9.12 MsBackendMassbank 1.7.4
MS$DATA_PROCESSING: WHOLE RMassBank 2.3.1
PK$SPLASH: splash10-014i-9000000000-0d7dd72125e1a3597912
PK$NUM_PEAK: 25
PK$PEAK: m/z int. rel.int.
  45.0408 0.5 10
  51.0287 4.8 101
  52.0362 0.8 16
  53.0422 0.8 16
  56.9837 0.5 10
  57.9935 1.9 40
  64.0427 0.5 10
  65.0419 5.4 114
  67.9748 4.6 97
  68.9837 47.2 999
  69.0243 0.9 19
  69.9904 1.8 38
  73.0098 0.5 10
  74.0169 2.1 44
  75.0259 0.7 14
  77.0417 1.6 33
  80.9808 1.6 33
  81.9893 5.7 120
  89.0403 1.4 29
  91.9733 0.7 14
  92.9805 5 105
  94.9953 3.1 65
  96.0024 0.5 10
  106.9968 0.8 16
  108.0008 0.9 19
//
