ACCESSION: MSBNK-BAFG-CSL2501066874
RECORD_TITLE: Acridone; LC-ESI-QTOF; MS2; 80 V
DATE: 2025.01.06
AUTHORS: Ole Lessmann; Kevin S. Jewell; Björn Ehlig; Arne Wick
LICENSE: dl-de/by-2-0
COPYRIGHT: Copyright 2025 Federal Institute of Hydrology, Koblenz, Germany
COMMENT: CONFIDENCE Reference Standard (Level 1)
COMMENT: Chromatography method: dx.doi.org/10.1016/j.chroma.2015.11.014
COMMENT: Acquisition method: 10.1002/rcm.8541
CH$NAME: Acridone
CH$COMPOUND_CLASS: Metabolite; Pharmaceutical; Transformation_product; Transformation_product-Metabolite
CH$FORMULA: C13H9NO
CH$EXACT_MASS: 195.0684
CH$SMILES: O=C1c2ccccc2Nc3ccccc13
CH$IUPAC: InChI=1S/C13H9NO/c15-13-9-5-1-3-7-11(9)14-12-8-4-2-6-10(12)13/h1-8H,(H,14,15)
CH$LINK: CAS 578-95-0
CH$LINK: INCHIKEY FZEYVTFCMJSGMP-UHFFFAOYSA-N
AC$INSTRUMENT: TripleTOF 5600 SCIEX
AC$INSTRUMENT_TYPE: LC-ESI-QTOF
AC$MASS_SPECTROMETRY: MS_TYPE MS2
AC$MASS_SPECTROMETRY: ION_MODE POSITIVE
AC$MASS_SPECTROMETRY: COLLISION_ENERGY 80
AC$MASS_SPECTROMETRY: FRAGMENTATION_MODE CID
AC$MASS_SPECTROMETRY: IONIZATION ESI
AC$CHROMATOGRAPHY: COLUMN_NAME Zorbax Eclipse Plus C18 2.1 mm x 150 mm, 3.5 um, Agilent
AC$CHROMATOGRAPHY: COLUMN_TEMPERATURE 40 °C
AC$CHROMATOGRAPHY: FLOW_GRADIENT 0 min min 98% A, 1 min 98% A, 2 min 80% A, 16.5 min 2% A, 22 min 2% A, 22.1 min 98% A, 27 min 98% A
AC$CHROMATOGRAPHY: FLOW_RATE 0.3 mL/min
AC$CHROMATOGRAPHY: RETENTION_TIME 8.5 min
AC$CHROMATOGRAPHY: SOLVENT A: Water 0.1% Formic acid, B: Acetonitrile 0.1% Formic acid
MS$FOCUSED_ION: PRECURSOR_M/Z 196.0757
MS$FOCUSED_ION: PRECURSOR_TYPE [M+H]+
MS$DATA_PROCESSING: COMMENT Export with pycsl 0.1.0.dev1 and CSL 24.4
PK$SPLASH: splash10-000i-1900000000-8d5297523923fea7e80f
PK$NUM_PEAK: 33
PK$PEAK: m/z int. rel.int.
  64.0349 3.2 15
  65.0426 7.8 36
  74.0182 5.4 25
  75.0264 10.9 51
  76.0327 3.0 14
  77.0419 13.0 61
  86.0171 3.4 16
  87.0254 8.8 41
  88.0327 9.7 45
  89.041 44.4 210
  90.0476 3.1 14
  91.0548 5.0 23
  98.0157 2.1 9
  99.0235 2.3 10
  101.0391 5.5 26
  102.0466 3.4 16
  113.0395 49.6 234
  114.0454 13.7 64
  115.0548 39.4 186
  116.0499 10.7 50
  117.0581 2.2 10
  126.0473 5.5 26
  127.0428 2.7 12
  128.0496 4.3 20
  137.0391 3.4 16
  138.0471 8.8 41
  139.0554 210.9 999
  140.0505 118.2 559
  150.0463 2.9 13
  164.05 9.5 45
  165.0574 6.6 31
  166.0659 65.6 310
  167.0734 17.0 80
//