ACCESSION: MSBNK-BAFG-CSL23111012532
RECORD_TITLE: Methyl-N-phenylcarbamate; LC-ESI-QTOF; MS2; 40 V
DATE: 2023.11.10
AUTHORS: Kevin S. Jewell; Björn Ehlig; Arne Wick
LICENSE: dl-de/by-2-0
COPYRIGHT: Copyright 2023 Federal Institute of Hydrology, Koblenz, Germany
COMMENT: CONFIDENCE Reference Standard (Level 1)
COMMENT: Chromatography method: dx.doi.org/10.1016/j.chroma.2015.11.014
COMMENT: Acquisition method: 10.1002/rcm.8541
CH$NAME: Methyl-N-phenylcarbamate
CH$FORMULA: C8H9NO2
CH$EXACT_MASS: 151.0633
CH$SMILES: COC(=O)NC1=CC=CC=C1
CH$IUPAC: InChI=1S/C8H9NO2/c1-11-8(10)9-7-5-3-2-4-6-7/h2-6H,1H3,(H,9,10)
CH$LINK: CAS 2603-10-3
CH$LINK: INCHIKEY IAGUPODHENSJEZ-UHFFFAOYSA-N
AC$INSTRUMENT: TripleTOF 5600 SCIEX
AC$INSTRUMENT_TYPE: LC-ESI-QTOF
AC$MASS_SPECTROMETRY: MS_TYPE MS2
AC$MASS_SPECTROMETRY: ION_MODE POSITIVE
AC$MASS_SPECTROMETRY: COLLISION_ENERGY 40
AC$MASS_SPECTROMETRY: FRAGMENTATION_MODE CID
AC$MASS_SPECTROMETRY: IONIZATION ESI
AC$CHROMATOGRAPHY: COLUMN_NAME Zorbax Eclipse Plus C18 2.1 mm x 150 mm, 3.5 um, Agilent
AC$CHROMATOGRAPHY: COLUMN_TEMPERATURE 40 °C
AC$CHROMATOGRAPHY: FLOW_GRADIENT 0 min min 98% A, 1 min 98% A, 2 min 80% A, 16.5 min 2% A, 22 min 2% A, 22.1 min 98% A, 27 min 98% A
AC$CHROMATOGRAPHY: FLOW_RATE 0.3 mL/min
AC$CHROMATOGRAPHY: RETENTION_TIME 8.469 min
AC$CHROMATOGRAPHY: SOLVENT A: Water 0.1% Formic acid, B: Acetonitrile 0.1% Formic acid
MS$FOCUSED_ION: PRECURSOR_M/Z 152.0706
MS$FOCUSED_ION: PRECURSOR_TYPE [M+H]+
MS$DATA_PROCESSING: COMMENT Export with Spectra 1.9.12 MsBackendMassbank 1.7.4
MS$DATA_PROCESSING: WHOLE RMassBank 2.3.1
PK$SPLASH: splash10-004l-9000000000-ef3ecf64d06da050e078
PK$NUM_PEAK: 12
PK$PEAK: m/z int. rel.int.
  39.0219 0.1 10
  51.0233 1.4 152
  59.0135 0.4 43
  65.0387 2.1 228
  66.0464 0.7 76
  77.0385 9.2 999
  78.0329 0.1 10
  91.055 0.4 43
  92.0494 2.9 314
  93.0568 1.7 184
  106.0632 0.5 54
  120.039 0.1 10
//
