ACCESSION: MSBNK-BAFG-CSL23110911055
RECORD_TITLE: 5-Aminofluorescein; LC-ESI-QTOF; MS2; 90 V
DATE: 2023.11.09
AUTHORS: Kevin S. Jewell; Björn Ehlig; Arne Wick
LICENSE: dl-de/by-2-0
COPYRIGHT: Copyright 2023 Federal Institute of Hydrology, Koblenz, Germany
COMMENT: CONFIDENCE Reference Standard (Level 1)
COMMENT: Chromatography method: dx.doi.org/10.1016/j.chroma.2015.11.014
COMMENT: Acquisition method: 10.1002/rcm.8541
CH$NAME: 5-Aminofluorescein
CH$COMPOUND_CLASS: Pharmaceutical
CH$FORMULA: C20H13NO5
CH$EXACT_MASS: 347.0794
CH$SMILES: Nc1ccc2c(c1)C(=O)OC23c4ccc(O)cc4Oc5cc(O)ccc35
CH$IUPAC: InChI=1S/C20H13NO5/c21-10-1-4-14-13(7-10)19(24)26-20(14)15-5-2-11(22)8-17(15)25-18-9-12(23)3-6-16(18)20/h1-9,22-23H,21H2
CH$LINK: CAS 3326-34-9
CH$LINK: INCHIKEY GZAJOEGTZDUSKS-UHFFFAOYSA-N
AC$INSTRUMENT: TripleTOF 5600 SCIEX
AC$INSTRUMENT_TYPE: LC-ESI-QTOF
AC$MASS_SPECTROMETRY: MS_TYPE MS2
AC$MASS_SPECTROMETRY: ION_MODE NEGATIVE
AC$MASS_SPECTROMETRY: COLLISION_ENERGY 90
AC$MASS_SPECTROMETRY: FRAGMENTATION_MODE CID
AC$MASS_SPECTROMETRY: IONIZATION ESI
AC$CHROMATOGRAPHY: COLUMN_NAME Zorbax Eclipse Plus C18 2.1 mm x 150 mm, 3.5 um, Agilent
AC$CHROMATOGRAPHY: COLUMN_TEMPERATURE 40 °C
AC$CHROMATOGRAPHY: FLOW_GRADIENT 0 min min 98% A, 1 min 98% A, 2 min 80% A, 16.5 min 2% A, 22 min 2% A, 22.1 min 98% A, 27 min 98% A
AC$CHROMATOGRAPHY: FLOW_RATE 0.3 mL/min
AC$CHROMATOGRAPHY: RETENTION_TIME 8.159 min
AC$CHROMATOGRAPHY: SOLVENT A: Water 0.1% Formic acid, B: Acetonitrile 0.1% Formic acid
MS$FOCUSED_ION: PRECURSOR_M/Z 346.0721
MS$FOCUSED_ION: PRECURSOR_TYPE [M-H]-
MS$DATA_PROCESSING: COMMENT Export with Spectra 1.9.12 MsBackendMassbank 1.7.4
MS$DATA_PROCESSING: WHOLE RMassBank 2.3.1
PK$SPLASH: splash10-00dl-0090000000-50909db6a051579da687
PK$NUM_PEAK: 20
PK$PEAK: m/z int. rel.int.
  41.0028 0.5 356
  190.0652 0.2 142
  203.0566 0.1 71
  214.0699 0.2 142
  215.0495 0.1 71
  216.0656 0.5 356
  218.0564 0.3 214
  228.0568 0.3 214
  229.0487 0.3 214
  242.0587 0.5 356
  243.0491 0.1 71
  243.0695 0.2 142
  244.0576 0.2 142
  256.0664 0.4 285
  258.0595 0.1 71
  270.0569 0.5 356
  272.0512 1.4 999
  283.0331 0.1 71
  299.0619 0.4 285
  300.0688 0.5 356
//
