ACCESSION: MSBNK-BAFG-CSL2310255513
RECORD_TITLE: Sertaconazole; LC-ESI-QTOF; MS2; 150 V
DATE: 2023.10.25
AUTHORS: Kevin S. Jewell; Björn Ehlig; Arne Wick
LICENSE: dl-de/by-2-0
COPYRIGHT: Copyright 2023 Federal Institute of Hydrology, Koblenz, Germany
COMMENT: CONFIDENCE Reference Standard (Level 1)
COMMENT: Chromatography method: dx.doi.org/10.1016/j.chroma.2015.11.014
COMMENT: Acquisition method: 10.1002/rcm.8541
CH$NAME: Sertaconazole
CH$COMPOUND_CLASS: Fungicide; Pharmaceutical; Antimicrobial
CH$FORMULA: C20H15Cl3N2OS
CH$EXACT_MASS: 435.9971
CH$SMILES: C1=CC2=C(C(=C1)Cl)SC=C2COC(CN3C=CN=C3)C4=C(C=C(C=C4)Cl)Cl
CH$IUPAC: InChI=1S/C20H15Cl3N2OS/c21-14-4-5-16(18(23)8-14)19(9-25-7-6-24-12-25)26-10-13-11-27-20-15(13)2-1-3-17(20)22/h1-8,11-12,19H,9-10H2
CH$LINK: CAS 99592-32-2
CH$LINK: INCHIKEY JLGKQTAYUIMGRK-UHFFFAOYSA-N
AC$INSTRUMENT: TripleTOF 5600 SCIEX
AC$INSTRUMENT_TYPE: LC-ESI-QTOF
AC$MASS_SPECTROMETRY: MS_TYPE MS2
AC$MASS_SPECTROMETRY: ION_MODE POSITIVE
AC$MASS_SPECTROMETRY: COLLISION_ENERGY 150
AC$MASS_SPECTROMETRY: FRAGMENTATION_MODE CID
AC$MASS_SPECTROMETRY: IONIZATION ESI
AC$CHROMATOGRAPHY: COLUMN_NAME Zorbax Eclipse Plus C18 2.1 mm x 150 mm, 3.5 um, Agilent
AC$CHROMATOGRAPHY: COLUMN_TEMPERATURE 40 °C
AC$CHROMATOGRAPHY: FLOW_GRADIENT 0 min min 98% A, 1 min 98% A, 2 min 80% A, 16.5 min 2% A, 22 min 2% A, 22.1 min 98% A, 27 min 98% A
AC$CHROMATOGRAPHY: FLOW_RATE 0.3 mL/min
AC$CHROMATOGRAPHY: RETENTION_TIME 10.403 min
AC$CHROMATOGRAPHY: SOLVENT A: Water 0.1% Formic acid, B: Acetonitrile 0.1% Formic acid
MS$FOCUSED_ION: PRECURSOR_M/Z 437.0043
MS$FOCUSED_ION: PRECURSOR_TYPE [M+H]+
MS$DATA_PROCESSING: COMMENT Export with Spectra 1.9.12 MsBackendMassbank 1.7.4
MS$DATA_PROCESSING: WHOLE RMassBank 2.3.1
PK$SPLASH: splash10-0udj-5900000000-9bc5b4c55634cb7154fd
PK$NUM_PEAK: 39
PK$PEAK: m/z int. rel.int.
  51.0285 1.5 26
  67.9764 1.1 19
  68.9829 15.3 271
  69.048 1.7 30
  73.0108 1.2 21
  74.0184 8.7 154
  75.0256 24.5 433
  75.0557 0.7 12
  76.0336 9.7 171
  77.0406 1.3 23
  78.9422 2.4 42
  81.0468 4.8 85
  87.0238 1.7 30
  88.031 2.4 42
  89.0392 2 35
  92.9809 5.8 102
  94.9972 1.2 21
  98.0168 1.1 19
  98.9997 0.7 12
  99.0228 1.2 21
  101.0389 14.1 249
  102.0471 56.4 999
  110.9989 3.4 60
  113.039 2.9 51
  114.0461 7.4 131
  118.9948 2.4 42
  120.0027 3.5 61
  123.0002 0.8 14
  129.0453 1.5 26
  136.0078 0.8 14
  137.0167 0.6 10
  145.0108 32 566
  146.0178 4 70
  149.0156 5.7 100
  154.9717 2.2 38
  180.9893 0.9 15
  189.0726 0.9 15
  200.0594 0.8 14
  232.0349 0.9 15
//
