ACCESSION: MSBNK-BAFG-CSL23103011734
RECORD_TITLE: Fexofenadinone; LC-ESI-QTOF; MS2; 90 V
DATE: 2023.10.30
AUTHORS: Kevin S. Jewell; Björn Ehlig; Arne Wick
LICENSE: dl-de/by-2-0
COPYRIGHT: Copyright 2023 Federal Institute of Hydrology, Koblenz, Germany
COMMENT: CONFIDENCE Reference Standard (Level 1)
COMMENT: Chromatography method: dx.doi.org/10.1016/j.chroma.2015.11.014
COMMENT: Acquisition method: 10.1002/rcm.8541
CH$NAME: Fexofenadinone
CH$COMPOUND_CLASS: Pharmaceutical
CH$FORMULA: C32H37NO4
CH$EXACT_MASS: 499.2723
CH$SMILES: O=C(C1=CC=C(C(C)(C(O)=O)C)C=C1)CCCN(CCC2)CC2C(C3=CC=CC=C3)(O)C4=CC=CC=C4
CH$IUPAC: InChI=1S/C32H37NO4/c1-31(2,30(35)36)25-19-17-24(18-20-25)29(34)16-10-22-33-21-9-15-28(23-33)32(37,26-11-5-3-6-12-26)27-13-7-4-8-14-27/h3-8,11-14,17-20,28,37H,9-10,15-16,21-23H2,1-2H3,(H,35,36)
CH$LINK: CAS 76811-98-8
CH$LINK: INCHIKEY OQXVWJQUBIBIHZ-UHFFFAOYSA-N
AC$INSTRUMENT: TripleTOF 5600 SCIEX
AC$INSTRUMENT_TYPE: LC-ESI-QTOF
AC$MASS_SPECTROMETRY: MS_TYPE MS2
AC$MASS_SPECTROMETRY: ION_MODE POSITIVE
AC$MASS_SPECTROMETRY: COLLISION_ENERGY 90
AC$MASS_SPECTROMETRY: FRAGMENTATION_MODE CID
AC$MASS_SPECTROMETRY: IONIZATION ESI
AC$CHROMATOGRAPHY: COLUMN_NAME Zorbax Eclipse Plus C18 2.1 mm x 150 mm, 3.5 um, Agilent
AC$CHROMATOGRAPHY: COLUMN_TEMPERATURE 40 °C
AC$CHROMATOGRAPHY: FLOW_GRADIENT 0 min min 98% A, 1 min 98% A, 2 min 80% A, 16.5 min 2% A, 22 min 2% A, 22.1 min 98% A, 27 min 98% A
AC$CHROMATOGRAPHY: FLOW_RATE 0.3 mL/min
AC$CHROMATOGRAPHY: RETENTION_TIME 8.706 min
AC$CHROMATOGRAPHY: SOLVENT A: Water 0.1% Formic acid, B: Acetonitrile 0.1% Formic acid
MS$FOCUSED_ION: PRECURSOR_M/Z 500.2795
MS$FOCUSED_ION: PRECURSOR_TYPE [M+H]+
MS$DATA_PROCESSING: COMMENT Export with Spectra 1.9.12 MsBackendMassbank 1.7.4
MS$DATA_PROCESSING: WHOLE RMassBank 2.3.1
PK$SPLASH: splash10-014l-0900000000-817628cf080222fa6ac5
PK$NUM_PEAK: 35
PK$PEAK: m/z int. rel.int.
  77.038 2.6 24
  79.0539 2.4 22
  89.0388 1.1 10
  90.0462 2.8 26
  91.0542 28 264
  93.0331 1.1 10
  96.0817 1.1 10
  103.0543 4.6 43
  104.0622 1.2 11
  105.0338 1.7 16
  105.0707 2.2 20
  107.0487 4.7 44
  107.0853 1.6 15
  115.0541 34 321
  116.0627 2.8 26
  117.0701 60.2 568
  118.0779 61.8 583
  119.085 5.2 49
  121.0286 13.8 130
  127.0539 1.3 12
  128.0635 1.6 15
  131.0489 9.1 85
  132.0564 1.1 10
  132.0939 8.2 77
  135.08 3.1 29
  145.0646 4 37
  146.073 56.6 534
  147.0807 3.5 33
  148.0522 2.5 23
  163.0753 3.7 34
  173.0974 8.8 83
  176.0458 2.4 22
  188.1207 3.1 29
  191.071 105.8 999
  233.1167 1.5 14
//
