ACCESSION: MSBNK-BAFG-CSL23102612865
RECORD_TITLE: Olmesartan-d6; LC-ESI-QTOF; MS2; 140 V
DATE: 2023.10.26
AUTHORS: Kevin S. Jewell; Björn Ehlig; Arne Wick
LICENSE: dl-de/by-2-0
COPYRIGHT: Copyright 2023 Federal Institute of Hydrology, Koblenz, Germany
COMMENT: CONFIDENCE Reference Standard (Level 1)
COMMENT: Chromatography method: dx.doi.org/10.1016/j.chroma.2015.11.014
COMMENT: Acquisition method: 10.1002/rcm.8541
CH$NAME: Olmesartan-d6
CH$COMPOUND_CLASS: Surrogate_standard
CH$FORMULA: C24H20N6O3 2H6
CH$EXACT_MASS: 452.2443
CH$SMILES: [2H]C([2H])([2H])C(C1=C(N(C(=N1)CCC)CC2=CC=C(C=C2)C3=CC=CC=C3C4=NNN=N4)C(=O)O)(C([2H])([2H])[2H])O
CH$IUPAC: InChI=1S/C24H26N6O3/c1-4-7-19-25-21(24(2,3)33)20(23(31)32)30(19)14-15-10-12-16(13-11-15)17-8-5-6-9-18(17)22-26-28-29-27-22/h5-6,8-13,33H,4,7,14H2,1-3H3,(H,31,32)(H,26,27,28,29)/i2D3,3D3
CH$LINK: CAS 1185144-74-4
CH$LINK: INCHIKEY VTRAEEWXHOVJFV-XERRXZQWSA-N
AC$INSTRUMENT: TripleTOF 5600 SCIEX
AC$INSTRUMENT_TYPE: LC-ESI-QTOF
AC$MASS_SPECTROMETRY: MS_TYPE MS2
AC$MASS_SPECTROMETRY: ION_MODE POSITIVE
AC$MASS_SPECTROMETRY: COLLISION_ENERGY 140
AC$MASS_SPECTROMETRY: FRAGMENTATION_MODE CID
AC$MASS_SPECTROMETRY: IONIZATION ESI
AC$CHROMATOGRAPHY: COLUMN_NAME Zorbax Eclipse Plus C18 2.1 mm x 150 mm, 3.5 um, Agilent
AC$CHROMATOGRAPHY: COLUMN_TEMPERATURE 40 °C
AC$CHROMATOGRAPHY: FLOW_GRADIENT 0 min min 98% A, 1 min 98% A, 2 min 80% A, 16.5 min 2% A, 22 min 2% A, 22.1 min 98% A, 27 min 98% A
AC$CHROMATOGRAPHY: FLOW_RATE 0.3 mL/min
AC$CHROMATOGRAPHY: RETENTION_TIME 7.306 min
AC$CHROMATOGRAPHY: SOLVENT A: Water 0.1% Formic acid, B: Acetonitrile 0.1% Formic acid
MS$FOCUSED_ION: PRECURSOR_M/Z 453.2527
MS$FOCUSED_ION: PRECURSOR_TYPE [M+H]+
MS$DATA_PROCESSING: COMMENT Export with Spectra 1.9.12 MsBackendMassbank 1.7.4
MS$DATA_PROCESSING: WHOLE RMassBank 2.3.1
PK$SPLASH: splash10-0udi-0900000000-8a6070826906b147b619
PK$NUM_PEAK: 62
PK$PEAK: m/z int. rel.int.
  63.0267 1.4 21
  75.0276 1.3 20
  77.0425 5.7 87
  78.0362 0.8 12
  85.0093 0.8 12
  86.0201 1.4 21
  87.0253 2.8 43
  88.0304 1.5 23
  89.0402 4.6 70
  98.0152 2.5 38
  99.0246 2 30
  100.0293 1.1 16
  101.0404 3.1 47
  102.0482 3.3 50
  110.0161 0.8 12
  111.0255 1.3 20
  113.0396 8 123
  114.0336 1.9 29
  114.0468 3.3 50
  115.0548 8 123
  116.0524 0.9 13
  123.0227 0.9 13
  125.04 5.9 90
  126.0476 10.9 167
  127.055 10 153
  128.0622 6.4 98
  137.0396 7.1 109
  138.0463 6 92
  139.0547 12.3 189
  140.0521 16.8 258
  141.0564 1.1 16
  149.0387 3.3 50
  150.0472 33.7 518
  151.0549 64.9 999
  152.0624 63.9 983
  153.0658 8.2 126
  154.0652 0.9 13
  155.0607 0.8 12
  161.0394 3.9 60
  162.0473 11.2 172
  163.0541 45.5 700
  164.053 32.5 500
  165.069 11.6 178
  166.0676 1.9 29
  174.0522 0.8 12
  175.0523 3.2 49
  176.063 32.6 501
  177.0606 20.6 317
  178.0679 19.1 294
  179.0688 4.4 67
  180.0796 0.9 13
  187.0415 0.8 12
  188.0499 13.1 201
  189.0588 8.1 124
  189.0806 0.7 10
  190.0653 37.3 574
  191.0691 4.2 64
  192.0684 1.6 24
  203.0635 1.2 18
  204.0621 1.8 27
  205.0755 8.6 132
  206.0793 1.1 16
//
