ACCESSION: MSBNK-BAFG-CSL2310254419
RECORD_TITLE: Aclonifen; LC-ESI-QTOF; MS2; 30 V
DATE: 2023.10.25
AUTHORS: Kevin S. Jewell; Björn Ehlig; Arne Wick
LICENSE: dl-de/by-2-0
COPYRIGHT: Copyright 2023 Federal Institute of Hydrology, Koblenz, Germany
COMMENT: CONFIDENCE Reference Standard (Level 1)
COMMENT: Chromatography method: dx.doi.org/10.1016/j.chroma.2015.11.014
COMMENT: Acquisition method: 10.1002/rcm.8541
CH$NAME: Aclonifen
CH$COMPOUND_CLASS: Herbicide
CH$FORMULA: C12H9ClN2O3
CH$EXACT_MASS: 264.0302
CH$SMILES: Nc1c(Cl)c(Oc2ccccc2)ccc1[N+]([O-])=O
CH$IUPAC: InChI=1S/C12H9ClN2O3/c13-11-10(18-8-4-2-1-3-5-8)7-6-9(12(11)14)15(16)17/h1-7H,14H2
CH$LINK: CAS 74070-46-5
CH$LINK: INCHIKEY DDBMQDADIHOWIC-UHFFFAOYSA-N
AC$INSTRUMENT: TripleTOF 5600 SCIEX
AC$INSTRUMENT_TYPE: LC-ESI-QTOF
AC$MASS_SPECTROMETRY: MS_TYPE MS2
AC$MASS_SPECTROMETRY: ION_MODE POSITIVE
AC$MASS_SPECTROMETRY: COLLISION_ENERGY 30
AC$MASS_SPECTROMETRY: FRAGMENTATION_MODE CID
AC$MASS_SPECTROMETRY: IONIZATION ESI
AC$CHROMATOGRAPHY: COLUMN_NAME Zorbax Eclipse Plus C18 2.1 mm x 150 mm, 3.5 um, Agilent
AC$CHROMATOGRAPHY: COLUMN_TEMPERATURE 40 °C
AC$CHROMATOGRAPHY: FLOW_GRADIENT 0 min min 98% A, 1 min 98% A, 2 min 80% A, 16.5 min 2% A, 22 min 2% A, 22.1 min 98% A, 27 min 98% A
AC$CHROMATOGRAPHY: FLOW_RATE 0.3 mL/min
AC$CHROMATOGRAPHY: RETENTION_TIME 13.815 min
AC$CHROMATOGRAPHY: SOLVENT A: Water 0.1% Formic acid, B: Acetonitrile 0.1% Formic acid
MS$FOCUSED_ION: PRECURSOR_M/Z 265.0374
MS$FOCUSED_ION: PRECURSOR_TYPE [M+H]+
MS$DATA_PROCESSING: COMMENT Export with Spectra 1.9.12 MsBackendMassbank 1.7.4
MS$DATA_PROCESSING: WHOLE RMassBank 2.3.1
PK$SPLASH: splash10-0002-0490000000-6308f03def552542bcff
PK$NUM_PEAK: 21
PK$PEAK: m/z int. rel.int.
  77.0405 6.4 28
  80.0147 4.1 17
  154.0633 2.5 10
  155.052 4.9 21
  163.0292 2.7 11
  165.0436 17.7 77
  166.0513 7.2 31
  167.0361 2.6 11
  174.0086 7.3 31
  182.0593 55.4 242
  183.0674 6.9 30
  193.0381 23 100
  194.0466 40.4 176
  201.0187 3.9 17
  202.0042 2.6 11
  217.0275 13.8 60
  218.0352 54.6 239
  229.0132 3.1 13
  247.0249 4.6 20
  248.0339 228.2 999
  265.0366 4.6 20
//
