ACCESSION: MSBNK-BAFG-CSL25010634315
RECORD_TITLE: 4,4`-Methylenebis(2-methylaniline); LC-ESI-QTOF; MS2; 90 V
DATE: 2025.01.06
AUTHORS: Ole Lessmann; Kevin S. Jewell; Björn Ehlig; Arne Wick
LICENSE: dl-de/by-2-0
COPYRIGHT: Copyright 2025 Federal Institute of Hydrology, Koblenz, Germany
COMMENT: CONFIDENCE Reference Standard (Level 1)
COMMENT: Chromatography method: dx.doi.org/10.1016/j.chroma.2015.11.014
COMMENT: Acquisition method: 10.1002/rcm.8541
CH$NAME: 4,4`-Methylenebis(2-methylaniline)
CH$FORMULA: C15H18N2
CH$EXACT_MASS: 226.147
CH$SMILES: CC1=C(C=CC(=C1)CC2=CC(=C(C=C2)N)C)N
CH$IUPAC: InChI=1S/C15H18N2/c1-10-7-12(3-5-14(10)16)9-13-4-6-15(17)11(2)8-13/h3-8H,9,16-17H2,1-2H3
CH$LINK: CAS 838-88-0
CH$LINK: INCHIKEY WECDUOXQLAIPQW-UHFFFAOYSA-N
AC$INSTRUMENT: TripleTOF 6600 SCIEX
AC$INSTRUMENT_TYPE: LC-ESI-QTOF
AC$MASS_SPECTROMETRY: MS_TYPE MS2
AC$MASS_SPECTROMETRY: ION_MODE POSITIVE
AC$MASS_SPECTROMETRY: COLLISION_ENERGY 90
AC$MASS_SPECTROMETRY: FRAGMENTATION_MODE CID
AC$MASS_SPECTROMETRY: IONIZATION ESI
AC$CHROMATOGRAPHY: COLUMN_NAME Zorbax Eclipse Plus C18 2.1 mm x 150 mm, 3.5 um, Agilent
AC$CHROMATOGRAPHY: COLUMN_TEMPERATURE 40 °C
AC$CHROMATOGRAPHY: FLOW_GRADIENT 0 min min 98% A, 1 min 98% A, 2 min 80% A, 16.5 min 2% A, 22 min 2% A, 22.1 min 98% A, 27 min 98% A
AC$CHROMATOGRAPHY: FLOW_RATE 0.3 mL/min
AC$CHROMATOGRAPHY: RETENTION_TIME 5.215 min
AC$CHROMATOGRAPHY: SOLVENT A: Water 0.1% Formic acid, B: Acetonitrile 0.1% Formic acid
MS$FOCUSED_ION: PRECURSOR_M/Z 227.1543
MS$FOCUSED_ION: PRECURSOR_TYPE [M+H]+
MS$DATA_PROCESSING: COMMENT Export with pycsl 0.1.0.dev1 and CSL 24.4
PK$SPLASH: splash10-0ufr-7900000000-e03eb1d52e4bb5a1c2cb
PK$NUM_PEAK: 44
PK$PEAK: m/z int. rel.int.
  39.022 1.4 84
  50.015 0.9 54
  51.0213 6.1 367
  63.0207 0.7 42
  65.0375 2.2 132
  66.0447 0.5 30
  75.0206 0.7 42
  76.0297 0.4 24
  77.037 16.6 999
  78.0324 0.5 30
  78.0454 1.5 90
  79.0492 0.4 24
  80.0468 1.7 102
  89.0384 1.2 72
  91.0526 5.9 355
  92.0522 0.5 30
  93.0566 0.9 54
  102.0455 1.8 108
  103.0515 0.5 30
  104.0473 4.9 294
  105.056 0.5 30
  115.0525 1.8 108
  117.056 1.1 66
  118.0621 2.2 132
  120.0797 1.2 72
  126.0444 1.7 102
  127.0525 1.4 84
  128.0603 1.3 78
  139.0502 1.9 114
  140.0479 0.6 36
  150.044 5.0 300
  151.0535 4.8 288
  152.0611 6.5 391
  153.0674 0.5 30
  163.0517 1.3 78
  164.0612 1.3 78
  165.0682 4.1 246
  166.0718 1.0 60
  175.051 0.6 36
  176.0578 3.1 186
  177.062 0.6 36
  189.0704 0.4 24
  190.0653 0.6 36
  191.0744 0.9 54
//