ACCESSION: MSBNK-BAFG-CSL23103127315
RECORD_TITLE: Nicosulfuron; LC-ESI-QTOF; MS2; 130 V
DATE: 2023.10.31
AUTHORS: Kevin S. Jewell; Björn Ehlig; Arne Wick
LICENSE: dl-de/by-2-0
COPYRIGHT: Copyright 2023 Federal Institute of Hydrology, Koblenz, Germany
COMMENT: CONFIDENCE Reference Standard (Level 1)
COMMENT: Chromatography method: dx.doi.org/10.1016/j.chroma.2015.11.014
COMMENT: Acquisition method: 10.1002/rcm.8541
CH$NAME: Nicosulfuron
CH$COMPOUND_CLASS: Herbicide
CH$FORMULA: C15H18N6O6S
CH$EXACT_MASS: 410.1009
CH$SMILES: CN(C)C(=O)C1=C(N=CC=C1)S(=O)(=O)NC(=O)NC2=NC(=CC(=N2)OC)OC
CH$IUPAC: InChI=1S/C15H18N6O6S/c1-21(2)13(22)9-6-5-7-16-12(9)28(24,25)20-15(23)19-14-17-10(26-3)8-11(18-14)27-4/h5-8H,1-4H3,(H2,17,18,19,20,23)
CH$LINK: CAS 111991-09-4
CH$LINK: INCHIKEY RTCOGUMHFFWOJV-UHFFFAOYSA-N
AC$INSTRUMENT: TripleTOF 6600 SCIEX
AC$INSTRUMENT_TYPE: LC-ESI-QTOF
AC$MASS_SPECTROMETRY: MS_TYPE MS2
AC$MASS_SPECTROMETRY: ION_MODE POSITIVE
AC$MASS_SPECTROMETRY: COLLISION_ENERGY 130
AC$MASS_SPECTROMETRY: FRAGMENTATION_MODE CID
AC$MASS_SPECTROMETRY: IONIZATION ESI
AC$CHROMATOGRAPHY: COLUMN_NAME Zorbax Eclipse Plus C18 2.1 mm x 150 mm, 3.5 um, Agilent
AC$CHROMATOGRAPHY: COLUMN_TEMPERATURE 40 °C
AC$CHROMATOGRAPHY: FLOW_GRADIENT 0 min min 98% A, 1 min 98% A, 2 min 80% A, 16.5 min 2% A, 22 min 2% A, 22.1 min 98% A, 27 min 98% A
AC$CHROMATOGRAPHY: FLOW_RATE 0.3 mL/min
AC$CHROMATOGRAPHY: RETENTION_TIME 8.499 min
AC$CHROMATOGRAPHY: SOLVENT A: Water 0.1% Formic acid, B: Acetonitrile 0.1% Formic acid
MS$FOCUSED_ION: PRECURSOR_M/Z 411.1081
MS$FOCUSED_ION: PRECURSOR_TYPE [M+H]+
MS$DATA_PROCESSING: COMMENT Export with Spectra 1.9.12 MsBackendMassbank 1.7.4
MS$DATA_PROCESSING: WHOLE RMassBank 2.3.1
PK$SPLASH: splash10-0v00-9000000000-843cbcf9b6d02a13cae0
PK$NUM_PEAK: 43
PK$PEAK: m/z int. rel.int.
  37.0051 0.6 16
  38.0004 0.9 24
  38.0128 0.4 10
  39.0205 1.5 40
  40.0162 1.4 38
  40.9997 0.6 16
  41.0244 1.3 35
  42.0306 0.7 19
  43.0267 1.6 43
  44.0467 0.7 19
  49.0056 1.1 30
  50.0132 8.7 237
  51.0209 31.1 848
  52.0159 1.3 35
  52.9996 0.9 24
  53.0117 0.4 10
  54.0321 0.5 13
  55.0265 1.6 43
  56.0106 3.1 84
  57.0427 1.5 40
  64.0154 2.4 65
  65.011 6.5 177
  65.0365 0.7 19
  66.0186 0.8 21
  66.032 0.4 10
  67.0025 1.6 43
  67.026 0.4 10
  68.0108 3.9 106
  68.9963 4.1 111
  69.0058 5.8 158
  70.0273 0.9 24
  71.0577 0.8 21
  76.0158 0.7 19
  78.0316 36.6 999
  80.0487 0.6 16
  82.0258 1 27
  83.0219 17.5 477
  91.0264 1.9 51
  93.0052 10.7 292
  94.0137 0.7 19
  110.0324 0.7 19
  138.027 0.6 16
  140.045 0.4 10
//
