ACCESSION: MSBNK-BAFG-CSL23103010267
RECORD_TITLE: Ethyl 2,4-diaminopyrimidine-5-carboxylate; LC-ESI-QTOF; MS2; 70 V
DATE: 2023.10.30
AUTHORS: Kevin S. Jewell; Björn Ehlig; Arne Wick
LICENSE: dl-de/by-2-0
COPYRIGHT: Copyright 2023 Federal Institute of Hydrology, Koblenz, Germany
COMMENT: CONFIDENCE Reference Standard (Level 1)
COMMENT: Chromatography method: dx.doi.org/10.1016/j.chroma.2015.11.014
COMMENT: Acquisition method: 10.1002/rcm.8541
CH$NAME: Ethyl 2,4-diaminopyrimidine-5-carboxylate
CH$COMPOUND_CLASS: Pharmaceutical
CH$FORMULA: C7H10N4O2
CH$EXACT_MASS: 182.0804
CH$SMILES: CCOC(=O)C1=CN=C(N=C1N)N
CH$IUPAC: InChI=1S/C7H10N4O2/c1-2-13-6(12)4-3-10-7(9)11-5(4)8/h3H,2H2,1H3,(H4,8,9,10,11)
CH$LINK: CAS 15400-54-1
CH$LINK: INCHIKEY MANFWSKJPOXKJZ-UHFFFAOYSA-N
AC$INSTRUMENT: TripleTOF 5600 SCIEX
AC$INSTRUMENT_TYPE: LC-ESI-QTOF
AC$MASS_SPECTROMETRY: MS_TYPE MS2
AC$MASS_SPECTROMETRY: ION_MODE POSITIVE
AC$MASS_SPECTROMETRY: COLLISION_ENERGY 70
AC$MASS_SPECTROMETRY: FRAGMENTATION_MODE CID
AC$MASS_SPECTROMETRY: IONIZATION ESI
AC$CHROMATOGRAPHY: COLUMN_NAME Zorbax Eclipse Plus C18 2.1 mm x 150 mm, 3.5 um, Agilent
AC$CHROMATOGRAPHY: COLUMN_TEMPERATURE 40 °C
AC$CHROMATOGRAPHY: FLOW_GRADIENT 0 min min 98% A, 1 min 98% A, 2 min 80% A, 16.5 min 2% A, 22 min 2% A, 22.1 min 98% A, 27 min 98% A
AC$CHROMATOGRAPHY: FLOW_RATE 0.3 mL/min
AC$CHROMATOGRAPHY: RETENTION_TIME 4.607 min
AC$CHROMATOGRAPHY: SOLVENT A: Water 0.1% Formic acid, B: Acetonitrile 0.1% Formic acid
MS$FOCUSED_ION: PRECURSOR_M/Z 183.0877
MS$FOCUSED_ION: PRECURSOR_TYPE [M+H]+
MS$DATA_PROCESSING: COMMENT Export with Spectra 1.9.12 MsBackendMassbank 1.7.4
MS$DATA_PROCESSING: WHOLE RMassBank 2.3.1
PK$SPLASH: splash10-014i-9000000000-df67ae08d6e5f19437a4
PK$NUM_PEAK: 18
PK$PEAK: m/z int. rel.int.
  38.0162 1.2 11
  40.0334 13.1 120
  41.027 1.4 12
  41.0376 2.6 23
  42.0457 8.6 79
  43.0408 13.8 126
  52.0286 9.1 83
  53.0113 8.6 79
  55.0377 5.5 50
  65.0207 8.1 74
  67.0359 12.1 111
  68.0271 108.6 999
  69.0128 1.3 11
  69.0514 2.4 22
  70.0358 18.4 169
  92.0286 4.2 38
  95.0284 8 73
  120.0234 1.8 16
//
