ACCESSION: MSBNK-BAFG-CSL23110927628
RECORD_TITLE: Disperse Orange 37; LC-ESI-QTOF; MS2; 40 V
DATE: 2023.11.09
AUTHORS: Kevin S. Jewell; Björn Ehlig; Arne Wick
LICENSE: dl-de/by-2-0
COPYRIGHT: Copyright 2023 Federal Institute of Hydrology, Koblenz, Germany
COMMENT: CONFIDENCE Reference Standard (Level 1)
COMMENT: Chromatography method: dx.doi.org/10.1016/j.chroma.2015.11.014
COMMENT: Acquisition method: 10.1002/rcm.8541
CH$NAME: Disperse Orange 37
CH$FORMULA: C17H15Cl2N5O2
CH$EXACT_MASS: 391.0603
CH$SMILES: CCN(CCC#N)C1=CC=C(C=C1)N=NC2=C(C=C(C=C2Cl)[N+](=O)[O-])Cl
CH$IUPAC: InChI=1S/C17H15Cl2N5O2/c1-2-23(9-3-8-20)13-6-4-12(5-7-13)21-22-17-15(18)10-14(24(25)26)11-16(17)19/h4-7,10-11H,2-3,9H2,1H3
CH$LINK: CAS 13301-61-6
CH$LINK: INCHIKEY KHZRTXVUEZJYNE-UHFFFAOYSA-N
AC$INSTRUMENT: TripleTOF X500R SCIEX
AC$INSTRUMENT_TYPE: LC-ESI-QTOF
AC$MASS_SPECTROMETRY: MS_TYPE MS2
AC$MASS_SPECTROMETRY: ION_MODE POSITIVE
AC$MASS_SPECTROMETRY: COLLISION_ENERGY 40
AC$MASS_SPECTROMETRY: FRAGMENTATION_MODE CID
AC$MASS_SPECTROMETRY: IONIZATION ESI
AC$CHROMATOGRAPHY: COLUMN_NAME Zorbax Eclipse Plus C18 2.1 mm x 150 mm, 3.5 um, Agilent
AC$CHROMATOGRAPHY: COLUMN_TEMPERATURE 40 °C
AC$CHROMATOGRAPHY: FLOW_GRADIENT 0 min min 98% A, 1 min 98% A, 2 min 80% A, 16.5 min 2% A, 22 min 2% A, 22.1 min 98% A, 27 min 98% A
AC$CHROMATOGRAPHY: FLOW_RATE 0.3 mL/min
AC$CHROMATOGRAPHY: RETENTION_TIME 15.169 min
AC$CHROMATOGRAPHY: SOLVENT A: Water 0.1% Formic acid, B: Acetonitrile 0.1% Formic acid
MS$FOCUSED_ION: PRECURSOR_M/Z 392.0676
MS$FOCUSED_ION: PRECURSOR_TYPE [M+H]+
MS$DATA_PROCESSING: COMMENT Export with Spectra 1.9.12 MsBackendMassbank 1.7.4
MS$DATA_PROCESSING: WHOLE RMassBank 2.3.1
PK$SPLASH: splash10-0uk9-0409000000-ef55a332ba197c2c0cc5
PK$NUM_PEAK: 28
PK$PEAK: m/z int. rel.int.
  92.049 2.4 18
  104.0497 2.6 19
  105.0574 4.8 36
  106.9454 1.9 14
  118.0652 2.6 19
  119.0605 2.7 20
  120.0813 23.2 178
  133.0891 28.9 222
  134.0967 7 53
  143.9544 3 23
  145.0765 13.6 104
  147.0918 12.3 94
  148.0873 3.2 24
  171.9605 1.3 9
  172.0868 5 38
  173.1085 1.6 12
  187.1118 3.4 26
  189.9467 11.4 87
  217.9524 7.5 57
  277.0174 5.9 45
  305.0488 30.8 236
  317.0804 10.8 82
  323.01 56.4 433
  346.0762 3.6 27
  350.9949 1.9 14
  351.041 130 999
  352.0483 11.5 88
  392.0673 1.3 9
//
