ACCESSION: MSBNK-BAFG-CSL23102616085
RECORD_TITLE: Clonidine; LC-ESI-QTOF; MS2; 110 V
DATE: 2023.10.26
AUTHORS: Kevin S. Jewell; Björn Ehlig; Arne Wick
LICENSE: dl-de/by-2-0
COPYRIGHT: Copyright 2023 Federal Institute of Hydrology, Koblenz, Germany
COMMENT: CONFIDENCE Reference Standard (Level 1)
COMMENT: Chromatography method: dx.doi.org/10.1016/j.chroma.2015.11.014
COMMENT: Acquisition method: 10.1002/rcm.8541
CH$NAME: Clonidine
CH$COMPOUND_CLASS: Pharmaceutical
CH$FORMULA: C9H9Cl2N3
CH$EXACT_MASS: 229.0174
CH$SMILES: C1CN=C(N1)NC2=C(C=CC=C2Cl)Cl
CH$IUPAC: InChI=1S/C9H9Cl2N3/c10-6-2-1-3-7(11)8(6)14-9-12-4-5-13-9/h1-3H,4-5H2,(H2,12,13,14)
CH$LINK: CAS 4205-90-7
CH$LINK: INCHIKEY GJSURZIOUXUGAL-UHFFFAOYSA-N
AC$INSTRUMENT: TripleTOF 6600 SCIEX
AC$INSTRUMENT_TYPE: LC-ESI-QTOF
AC$MASS_SPECTROMETRY: MS_TYPE MS2
AC$MASS_SPECTROMETRY: ION_MODE POSITIVE
AC$MASS_SPECTROMETRY: COLLISION_ENERGY 110
AC$MASS_SPECTROMETRY: FRAGMENTATION_MODE CID
AC$MASS_SPECTROMETRY: IONIZATION ESI
AC$CHROMATOGRAPHY: COLUMN_NAME Zorbax Eclipse Plus C18 2.1 mm x 150 mm, 3.5 um, Agilent
AC$CHROMATOGRAPHY: COLUMN_TEMPERATURE 40 °C
AC$CHROMATOGRAPHY: FLOW_GRADIENT 0 min min 98% A, 1 min 98% A, 2 min 80% A, 16.5 min 2% A, 22 min 2% A, 22.1 min 98% A, 27 min 98% A
AC$CHROMATOGRAPHY: FLOW_RATE 0.3 mL/min
AC$CHROMATOGRAPHY: RETENTION_TIME 5.408 min
AC$CHROMATOGRAPHY: SOLVENT A: Water 0.1% Formic acid, B: Acetonitrile 0.1% Formic acid
MS$FOCUSED_ION: PRECURSOR_M/Z 230.0246
MS$FOCUSED_ION: PRECURSOR_TYPE [M+H]+
MS$DATA_PROCESSING: COMMENT Export with Spectra 1.9.12 MsBackendMassbank 1.7.4
MS$DATA_PROCESSING: WHOLE RMassBank 2.3.1
PK$SPLASH: splash10-0229-9000000000-b240f4983f732aa47c33
PK$NUM_PEAK: 30
PK$PEAK: m/z int. rel.int.
  37.0069 0.7 75
  38.0142 0.6 64
  41.0261 0.6 64
  42.0206 0.7 75
  42.0341 1.1 118
  43.0291 0.8 85
  44.0488 0.4 42
  46.9671 1.5 161
  48.9829 1.6 171
  49.0078 0.5 53
  50.0146 1.8 193
  51.0223 1.4 150
  61.0063 2.2 236
  62.0143 2.4 257
  63.0223 3.1 333
  64.0177 1.8 193
  72.9828 4.5 483
  73.0061 1.9 204
  74.0139 9.3 999
  75.0104 0.6 64
  75.0229 2.8 300
  76.0177 0.4 42
  77.0379 0.9 96
  82.9437 0.8 85
  88.0174 0.5 53
  89.0366 0.6 64
  90.0323 0.5 53
  97.9776 0.9 96
  99.0091 0.8 85
  106.944 0.5 53
//
