ACCESSION: MSBNK-BAFG-CSL2310257122
RECORD_TITLE: 1-Oxo-ibuprofen; LC-ESI-QTOF; MS2; 30 V
DATE: 2023.10.25
AUTHORS: Kevin S. Jewell; Björn Ehlig; Arne Wick
LICENSE: dl-de/by-2-0
COPYRIGHT: Copyright 2023 Federal Institute of Hydrology, Koblenz, Germany
COMMENT: CONFIDENCE Reference Standard (Level 1)
COMMENT: Chromatography method: dx.doi.org/10.1016/j.chroma.2015.11.014
COMMENT: Acquisition method: 10.1002/rcm.8541
CH$NAME: 1-Oxo-ibuprofen
CH$COMPOUND_CLASS: Pharmaceutical; Transformation_product
CH$FORMULA: C13H16O3
CH$EXACT_MASS: 220.1099
CH$SMILES: CC(C)C(=O)C1=CC=C(C=C1)C(C)C(=O)O
CH$IUPAC: InChI=1S/C13H16O3/c1-8(2)12(14)11-6-4-10(5-7-11)9(3)13(15)16/h4-9H,1-3H3,(H,15,16)
CH$LINK: CAS 65813-55-0
CH$LINK: INCHIKEY RCINGEKPKJQCMO-UHFFFAOYSA-N
AC$INSTRUMENT: TripleTOF 5600 SCIEX
AC$INSTRUMENT_TYPE: LC-ESI-QTOF
AC$MASS_SPECTROMETRY: MS_TYPE MS2
AC$MASS_SPECTROMETRY: ION_MODE POSITIVE
AC$MASS_SPECTROMETRY: COLLISION_ENERGY 30
AC$MASS_SPECTROMETRY: FRAGMENTATION_MODE CID
AC$MASS_SPECTROMETRY: IONIZATION ESI
AC$CHROMATOGRAPHY: COLUMN_NAME Zorbax Eclipse Plus C18 2.1 mm x 150 mm, 3.5 um, Agilent
AC$CHROMATOGRAPHY: COLUMN_TEMPERATURE 40 °C
AC$CHROMATOGRAPHY: FLOW_GRADIENT 0 min min 98% A, 1 min 98% A, 2 min 80% A, 16.5 min 2% A, 22 min 2% A, 22.1 min 98% A, 27 min 98% A
AC$CHROMATOGRAPHY: FLOW_RATE 0.3 mL/min
AC$CHROMATOGRAPHY: RETENTION_TIME 10.239 min
AC$CHROMATOGRAPHY: SOLVENT A: Water 0.1% Formic acid, B: Acetonitrile 0.1% Formic acid
MS$FOCUSED_ION: PRECURSOR_M/Z 221.1172
MS$FOCUSED_ION: PRECURSOR_TYPE [M+H]+
MS$DATA_PROCESSING: COMMENT Export with Spectra 1.9.12 MsBackendMassbank 1.7.4
MS$DATA_PROCESSING: WHOLE RMassBank 2.3.1
PK$SPLASH: splash10-001i-2900000000-77aec708abc4426a3f32
PK$NUM_PEAK: 50
PK$PEAK: m/z int. rel.int.
  43.0252 7 71
  55.0593 3.7 37
  57.0762 5.2 53
  67.0585 5.2 53
  69.0737 2.8 28
  71.0509 1.2 12
  77.0399 2.8 28
  79.0572 3.6 36
  81.0727 7 71
  83.0503 2.5 25
  83.0875 5.2 53
  91.0558 8.8 90
  93.0708 3.2 32
  95.0861 2.9 29
  103.0554 1.2 12
  105.0703 27.5 281
  107.0492 1 10
  107.0858 6.8 69
  109.0646 3.7 37
  109.101 14.9 152
  111.0802 11.8 120
  115.0528 1 10
  117.0692 2 20
  119.0851 7.9 80
  121.0641 8.9 91
  121.0995 2.6 26
  123.0799 3.5 35
  123.1161 2.2 22
  129.0705 2.7 27
  131.0856 4.8 49
  132.0929 2.4 24
  133.1013 97.5 999
  134.1087 1.6 16
  135.0796 6.1 62
  135.1168 1.6 16
  137.0615 1.4 14
  137.0958 9.5 97
  138.0695 1.7 17
  142.077 4.5 46
  145.1008 1.1 11
  147.1166 4.1 42
  151.1097 1.6 16
  153.0898 3.3 33
  157.1014 4.1 42
  163.1101 1.3 13
  165.0902 1.4 14
  173.0954 1.2 12
  175.1113 19.2 196
  175.1488 4.6 47
  188.1182 1 10
//
