ACCESSION: MSBNK-BAFG-CSL25011734708
RECORD_TITLE: Solway Green G; LC-ESI-QTOF; MS2; 50 V
DATE: 2025.01.17
AUTHORS: Ole Lessmann; Kevin S. Jewell; Björn Ehlig; Arne Wick
LICENSE: dl-de/by-2-0
COPYRIGHT: Copyright 2025 Federal Institute of Hydrology, Koblenz, Germany
COMMENT: CONFIDENCE Reference Standard (Level 1)
COMMENT: Chromatography method: dx.doi.org/10.1016/j.chroma.2015.11.014
CH$NAME: Solway Green G
CH$FORMULA: C28H22N2O8S2
CH$EXACT_MASS: 578.0818
CH$SMILES: CC1=CC(=C(C=C1)NC2=C3C(=C(C=C2)NC4=C(C=C(C=C4)C)S(=O)(=O)O)C(=O)C5=CC=CC=C5C3=O)S(=O)(=O)O
CH$IUPAC: InChI=1S/C28H22N2O8S2/c1-15-7-9-19(23(13-15)39(33,34)35)29-21-11-12-22(30-20-10-8-16(2)14-24(20)40(36,37)38)26-25(21)27(31)17-5-3-4-6-18(17)28(26)32/h3-14,29-30H,1-2H3,(H,33,34,35)(H,36,37,38)
CH$LINK: CAS 3443-90-1
CH$LINK: INCHIKEY BGBDMEPBLWJCHI-UHFFFAOYSA-N
AC$INSTRUMENT: TripleTOF 6600 SCIEX
AC$INSTRUMENT_TYPE: LC-ESI-QTOF
AC$MASS_SPECTROMETRY: MS_TYPE MS2
AC$MASS_SPECTROMETRY: ION_MODE NEGATIVE
AC$MASS_SPECTROMETRY: COLLISION_ENERGY 50
AC$MASS_SPECTROMETRY: FRAGMENTATION_MODE CID
AC$MASS_SPECTROMETRY: IONIZATION ESI
AC$CHROMATOGRAPHY: COLUMN_NAME Zorbax Eclipse Plus C18 2.1 mm x 150 mm, 3.5 um, Agilent
AC$CHROMATOGRAPHY: COLUMN_TEMPERATURE 40 °C
AC$CHROMATOGRAPHY: FLOW_GRADIENT 0 min min 98% A, 1 min 98% A, 2 min 80% A, 16.5 min 2% A, 22 min 2% A, 22.1 min 98% A, 27 min 98% A
AC$CHROMATOGRAPHY: FLOW_RATE 0.3 mL/min
AC$CHROMATOGRAPHY: RETENTION_TIME 10.62 min
AC$CHROMATOGRAPHY: SOLVENT A: Water 0.1% Formic acid, B: Acetonitrile 0.1% Formic acid
MS$FOCUSED_ION: PRECURSOR_M/Z 288.0336
MS$FOCUSED_ION: PRECURSOR_TYPE [M-2H]2-
MS$DATA_PROCESSING: COMMENT Export with pycsl 0.1.0.dev1 and CSL 25.0
PK$SPLASH: splash10-004i-9000000000-ae962be25ddd4d48ee95
PK$NUM_PEAK: 15
PK$PEAK: m/z int. rel.int.
  79.9569 153.1345 999
  80.9642 11.9325 77
  121.0521 1.1684 7
  122.0602 1.0872 7
  132.044 2.9576 19
  184.0076 6.0734 39
  185.0142 1.9037 12
  186.0215 2.3272 15
  192.0437 1.211 7
  296.087 1.5532 10
  297.0774 2.1038 13
  298.0862 3.5954 23
  310.0903 1.8972 12
  324.0882 1.8726 12
  398.0963 1.4648 9
//
