ACCESSION: MSBNK-BAFG-CSL23111015731
RECORD_TITLE: Prochloraz; LC-ESI-QTOF; MS2; 150 V
DATE: 2023.11.10
AUTHORS: Kevin S. Jewell; Björn Ehlig; Arne Wick
LICENSE: dl-de/by-2-0
COPYRIGHT: Copyright 2023 Federal Institute of Hydrology, Koblenz, Germany
COMMENT: CONFIDENCE Reference Standard (Level 1)
COMMENT: Chromatography method: dx.doi.org/10.1016/j.chroma.2015.11.014
COMMENT: Acquisition method: 10.1002/rcm.8541
CH$NAME: Prochloraz
CH$COMPOUND_CLASS: Fungicide
CH$FORMULA: C15H16Cl3N3O2
CH$EXACT_MASS: 375.0308
CH$SMILES: CCCN(CCOc1c(cc(cc1Cl)Cl)Cl)C(=O)n2ccnc2
CH$IUPAC: InChI=1S/C15H16Cl3N3O2/c1-2-4-20(15(22)21-5-3-19-10-21)6-7-23-14-12(17)8-11(16)9-13(14)18/h3,5,8-10H,2,4,6-7H2,1H3
CH$LINK: CAS 67747-09-5
CH$LINK: INCHIKEY TVLSRXXIMLFWEO-UHFFFAOYSA-N
AC$INSTRUMENT: TripleTOF 6600 SCIEX
AC$INSTRUMENT_TYPE: LC-ESI-QTOF
AC$MASS_SPECTROMETRY: MS_TYPE MS2
AC$MASS_SPECTROMETRY: ION_MODE POSITIVE
AC$MASS_SPECTROMETRY: COLLISION_ENERGY 150
AC$MASS_SPECTROMETRY: FRAGMENTATION_MODE CID
AC$MASS_SPECTROMETRY: IONIZATION ESI
AC$CHROMATOGRAPHY: COLUMN_NAME Zorbax Eclipse Plus C18 2.1 mm x 150 mm, 3.5 um, Agilent
AC$CHROMATOGRAPHY: COLUMN_TEMPERATURE 40 °C
AC$CHROMATOGRAPHY: FLOW_GRADIENT 0 min min 98% A, 1 min 98% A, 2 min 80% A, 16.5 min 2% A, 22 min 2% A, 22.1 min 98% A, 27 min 98% A
AC$CHROMATOGRAPHY: FLOW_RATE 0.3 mL/min
AC$CHROMATOGRAPHY: RETENTION_TIME 11.258 min
AC$CHROMATOGRAPHY: SOLVENT A: Water 0.1% Formic acid, B: Acetonitrile 0.1% Formic acid
MS$FOCUSED_ION: PRECURSOR_M/Z 376.0381
MS$FOCUSED_ION: PRECURSOR_TYPE [M+H]+
MS$DATA_PROCESSING: COMMENT Export with Spectra 1.9.12 MsBackendMassbank 1.7.4
MS$DATA_PROCESSING: WHOLE RMassBank 2.3.1
PK$SPLASH: splash10-05fr-9200000000-8d19f7da5aac68e2a05f
PK$NUM_PEAK: 21
PK$PEAK: m/z int. rel.int.
  37.0073 0.6 99
  38.0152 0.7 116
  39.0226 2.2 366
  41.0389 1.1 183
  42.0338 1.1 183
  46.9682 0.5 83
  61.0078 1 166
  62.0152 2.3 382
  63.0227 2.1 349
  71.9767 2 333
  72.9837 2.5 416
  73.0072 2.6 432
  74.0152 3.6 599
  75.0211 0.5 83
  82.9448 4.1 682
  89.0395 0.9 149
  95.976 0.6 99
  96.9839 1.6 266
  106.9447 2.1 349
  107.9762 6 999
  108.9839 1 166
//
