ACCESSION: MSBNK-BAFG-CSL23103012719
RECORD_TITLE: Methyl-5-oxopyrrolidine-2-carboxylate; LC-ESI-QTOF; MS2; 50 V
DATE: 2023.10.30
AUTHORS: Kevin S. Jewell; Björn Ehlig; Arne Wick
LICENSE: dl-de/by-2-0
COPYRIGHT: Copyright 2023 Federal Institute of Hydrology, Koblenz, Germany
COMMENT: CONFIDENCE Reference Standard (Level 1)
COMMENT: Chromatography method: dx.doi.org/10.1016/j.chroma.2015.11.014
COMMENT: Acquisition method: 10.1002/rcm.8541
CH$NAME: Methyl-5-oxopyrrolidine-2-carboxylate
CH$FORMULA: C6H9NO3
CH$EXACT_MASS: 143.0582
CH$SMILES: COC(=O)C1CCC(=O)N1
CH$IUPAC: InChI=1S/C6H9NO3/c1-10-6(9)4-2-3-5(8)7-4/h4H,2-3H2,1H3,(H,7,8)
CH$LINK: CAS 54571-66-3
CH$LINK: INCHIKEY HQGPKMSGXAUKHT-UHFFFAOYSA-N
AC$INSTRUMENT: TripleTOF 5600 SCIEX
AC$INSTRUMENT_TYPE: LC-ESI-QTOF
AC$MASS_SPECTROMETRY: MS_TYPE MS2
AC$MASS_SPECTROMETRY: ION_MODE POSITIVE
AC$MASS_SPECTROMETRY: COLLISION_ENERGY 50
AC$MASS_SPECTROMETRY: FRAGMENTATION_MODE CID
AC$MASS_SPECTROMETRY: IONIZATION ESI
AC$CHROMATOGRAPHY: COLUMN_NAME Zorbax Eclipse Plus C18 2.1 mm x 150 mm, 3.5 um, Agilent
AC$CHROMATOGRAPHY: COLUMN_TEMPERATURE 40 °C
AC$CHROMATOGRAPHY: FLOW_GRADIENT 0 min min 98% A, 1 min 98% A, 2 min 80% A, 16.5 min 2% A, 22 min 2% A, 22.1 min 98% A, 27 min 98% A
AC$CHROMATOGRAPHY: FLOW_RATE 0.3 mL/min
AC$CHROMATOGRAPHY: RETENTION_TIME 4.583 min
AC$CHROMATOGRAPHY: SOLVENT A: Water 0.1% Formic acid, B: Acetonitrile 0.1% Formic acid
MS$FOCUSED_ION: PRECURSOR_M/Z 144.0655
MS$FOCUSED_ION: PRECURSOR_TYPE [M+H]+
MS$DATA_PROCESSING: COMMENT Export with Spectra 1.9.12 MsBackendMassbank 1.7.4
MS$DATA_PROCESSING: WHOLE RMassBank 2.3.1
PK$SPLASH: splash10-0a59-9000000000-febec4e07757856d72e1
PK$NUM_PEAK: 8
PK$PEAK: m/z int. rel.int.
  39.0236 0.3 166
  41.0386 0.3 166
  55.0175 0.1 55
  56.0491 1.8 999
  60.9863 0.4 222
  66.0336 0.1 55
  84.0437 1.4 776
  85.0533 0.1 55
//
