ACCESSION: MSBNK-BAFG-CSL2311097640
RECORD_TITLE: 1-(o-Tolyl)-biguanide; LC-ESI-QTOF; MS2; 60 V
DATE: 2023.11.09
AUTHORS: Kevin S. Jewell; Björn Ehlig; Arne Wick
LICENSE: dl-de/by-2-0
COPYRIGHT: Copyright 2023 Federal Institute of Hydrology, Koblenz, Germany
COMMENT: CONFIDENCE Reference Standard (Level 1)
COMMENT: Chromatography method: dx.doi.org/10.1016/j.chroma.2015.11.014
COMMENT: Acquisition method: 10.1002/rcm.8541
CH$NAME: 1-(o-Tolyl)-biguanide
CH$COMPOUND_CLASS: Industrial_process
CH$FORMULA: C9H13N5
CH$EXACT_MASS: 191.1171
CH$SMILES: Cc1ccccc1N=C(N)N=C(N)N
CH$IUPAC: InChI=1S/C9H13N5/c1-6-4-2-3-5-7(6)13-9(12)14-8(10)11/h2-5H,1H3,(H6,10,11,12,13,14)
CH$LINK: CAS 93-69-6
CH$LINK: INCHIKEY SQZCAOHYQSOZCE-UHFFFAOYSA-N
AC$INSTRUMENT: TripleTOF 5600 SCIEX
AC$INSTRUMENT_TYPE: LC-ESI-QTOF
AC$MASS_SPECTROMETRY: MS_TYPE MS2
AC$MASS_SPECTROMETRY: ION_MODE POSITIVE
AC$MASS_SPECTROMETRY: COLLISION_ENERGY 60
AC$MASS_SPECTROMETRY: FRAGMENTATION_MODE CID
AC$MASS_SPECTROMETRY: IONIZATION ESI
AC$CHROMATOGRAPHY: COLUMN_NAME Zorbax Eclipse Plus C18 2.1 mm x 150 mm, 3.5 um, Agilent
AC$CHROMATOGRAPHY: COLUMN_TEMPERATURE 40 °C
AC$CHROMATOGRAPHY: FLOW_GRADIENT 0 min min 98% A, 1 min 98% A, 2 min 80% A, 16.5 min 2% A, 22 min 2% A, 22.1 min 98% A, 27 min 98% A
AC$CHROMATOGRAPHY: FLOW_RATE 0.3 mL/min
AC$CHROMATOGRAPHY: RETENTION_TIME 4.675 min
AC$CHROMATOGRAPHY: SOLVENT A: Water 0.1% Formic acid, B: Acetonitrile 0.1% Formic acid
MS$FOCUSED_ION: PRECURSOR_M/Z 192.1244
MS$FOCUSED_ION: PRECURSOR_TYPE [M+H]+
MS$DATA_PROCESSING: COMMENT Export with Spectra 1.9.12 MsBackendMassbank 1.7.4
MS$DATA_PROCESSING: WHOLE RMassBank 2.3.1
PK$SPLASH: splash10-0006-9300000000-8e96ccfda92e4e1f60d0
PK$NUM_PEAK: 28
PK$PEAK: m/z int. rel.int.
  43.0383 169.1 500
  51.0288 14.1 41
  60.0609 150.5 445
  65.0428 176.9 523
  66.0498 7.9 23
  68.0276 26.6 78
  77.041 109.4 323
  78.0355 13.6 40
  79.0564 62.3 184
  80.0506 5 14
  85.052 6.1 18
  89.0399 217.3 643
  90.0352 10.5 31
  90.0459 7.6 22
  91.0549 337.6 999
  92.0501 7.3 21
  93.0581 116.5 344
  104.0492 25.2 74
  105.056 6.2 18
  106.0649 206.1 609
  108.0794 9.7 28
  114.0333 6.2 18
  116.0489 113.1 334
  117.0562 17.5 51
  118.0517 41.7 123
  131.0589 20 59
  132.0668 25.3 74
  133.0748 9.4 27
//
