ACCESSION: MSBNK-BAFG-CSL23111013527
RECORD_TITLE: Sulfadimethoxine; LC-ESI-QTOF; MS2; 120 V
DATE: 2023.11.10
AUTHORS: Kevin S. Jewell; Björn Ehlig; Arne Wick
LICENSE: dl-de/by-2-0
COPYRIGHT: Copyright 2023 Federal Institute of Hydrology, Koblenz, Germany
COMMENT: CONFIDENCE Reference Standard (Level 1)
COMMENT: Chromatography method: dx.doi.org/10.1016/j.chroma.2015.11.014
COMMENT: Acquisition method: 10.1002/rcm.8541
CH$NAME: Sulfadimethoxine
CH$COMPOUND_CLASS: Pharmaceutical
CH$FORMULA: C12H14N4O4S
CH$EXACT_MASS: 310.0736
CH$SMILES: COC1=NC(=NC(=C1)NS(=O)(=O)C2=CC=C(C=C2)N)OC
CH$IUPAC: InChI=1S/C12H14N4O4S/c1-19-11-7-10(14-12(15-11)20-2)16-21(17,18)9-5-3-8(13)4-6-9/h3-7H,13H2,1-2H3,(H,14,15,16)
CH$LINK: CAS 122-11-2
CH$LINK: INCHIKEY ZZORFUFYDOWNEF-UHFFFAOYSA-N
AC$INSTRUMENT: TripleTOF 5600 SCIEX
AC$INSTRUMENT_TYPE: LC-ESI-QTOF
AC$MASS_SPECTROMETRY: MS_TYPE MS2
AC$MASS_SPECTROMETRY: ION_MODE POSITIVE
AC$MASS_SPECTROMETRY: COLLISION_ENERGY 120
AC$MASS_SPECTROMETRY: FRAGMENTATION_MODE CID
AC$MASS_SPECTROMETRY: IONIZATION ESI
AC$CHROMATOGRAPHY: COLUMN_NAME Zorbax Eclipse Plus C18 2.1 mm x 150 mm, 3.5 um, Agilent
AC$CHROMATOGRAPHY: COLUMN_TEMPERATURE 40 °C
AC$CHROMATOGRAPHY: FLOW_GRADIENT 0 min min 98% A, 1 min 98% A, 2 min 80% A, 16.5 min 2% A, 22 min 2% A, 22.1 min 98% A, 27 min 98% A
AC$CHROMATOGRAPHY: FLOW_RATE 0.3 mL/min
AC$CHROMATOGRAPHY: RETENTION_TIME 8.09 min
AC$CHROMATOGRAPHY: SOLVENT A: Water 0.1% Formic acid, B: Acetonitrile 0.1% Formic acid
MS$FOCUSED_ION: PRECURSOR_M/Z 311.0809
MS$FOCUSED_ION: PRECURSOR_TYPE [M+H]+
MS$DATA_PROCESSING: COMMENT Export with Spectra 1.9.12 MsBackendMassbank 1.7.4
MS$DATA_PROCESSING: WHOLE RMassBank 2.3.1
PK$SPLASH: splash10-014i-9000000000-35826001a93905a0bbac
PK$NUM_PEAK: 44
PK$PEAK: m/z int. rel.int.
  36.0005 0.8 23
  37.0075 2.5 73
  38.0153 2.4 70
  39.0233 15.9 468
  40.0186 2.3 67
  41.0271 0.7 20
  42.0343 1.7 50
  43.0298 0.8 23
  44.0134 0.8 23
  50.0158 0.5 14
  51.0228 0.9 26
  52.0181 1 29
  53.0138 0.5 14
  53.0387 6.4 188
  54.0339 1.3 38
  57.0444 1 29
  58.0293 0.9 26
  62.0154 0.7 20
  63.0229 1.9 55
  64.018 0.7 20
  64.0307 0.4 11
  65.0142 0.9 26
  65.0388 33.9 999
  66.0214 1.2 35
  66.0336 2.5 73
  66.0448 0.9 26
  67.0056 0.9 26
  67.0294 8.1 238
  68.0131 5.7 167
  68.0368 0.6 17
  69.0087 3 88
  69.0447 0.5 14
  69.9926 0.6 17
  74.0132 0.6 17
  77.0149 0.6 17
  80.0498 16.4 483
  81.0451 1.5 44
  82.0292 2.6 76
  90.0359 0.9 26
  91.0414 1.6 47
  92.0495 3.6 106
  93.058 0.5 14
  95.0255 0.4 11
  108.0452 1.9 55
//
