ACCESSION: MSBNK-BAFG-CSL23110927615
RECORD_TITLE: Disperse Orange 61; LC-ESI-QTOF; MS2; 40 V
DATE: 2023.11.09
AUTHORS: Kevin S. Jewell; Björn Ehlig; Arne Wick
LICENSE: dl-de/by-2-0
COPYRIGHT: Copyright 2023 Federal Institute of Hydrology, Koblenz, Germany
COMMENT: CONFIDENCE Reference Standard (Level 1)
COMMENT: Chromatography method: dx.doi.org/10.1016/j.chroma.2015.11.014
COMMENT: Acquisition method: 10.1002/rcm.8541
CH$NAME: Disperse Orange 61
CH$FORMULA: C17H15Br2N5O2
CH$EXACT_MASS: 478.9592
CH$SMILES: CCN(CCC#N)C1=CC=C(C=C1)N=NC2=C(C=C(C=C2Br)[N+](=O)[O-])Br
CH$IUPAC: InChI=1S/C17H15Br2N5O2/c1-2-23(9-3-8-20)13-6-4-12(5-7-13)21-22-17-15(18)10-14(24(25)26)11-16(17)19/h4-7,10-11H,2-3,9H2,1H3
CH$LINK: CAS 55281-26-0
CH$LINK: INCHIKEY MWMJPPMTXZJLIK-UHFFFAOYSA-N
AC$INSTRUMENT: TripleTOF X500R SCIEX
AC$INSTRUMENT_TYPE: LC-ESI-QTOF
AC$MASS_SPECTROMETRY: MS_TYPE MS2
AC$MASS_SPECTROMETRY: ION_MODE POSITIVE
AC$MASS_SPECTROMETRY: COLLISION_ENERGY 40
AC$MASS_SPECTROMETRY: FRAGMENTATION_MODE CID
AC$MASS_SPECTROMETRY: IONIZATION ESI
AC$CHROMATOGRAPHY: COLUMN_NAME Zorbax Eclipse Plus C18 2.1 mm x 150 mm, 3.5 um, Agilent
AC$CHROMATOGRAPHY: COLUMN_TEMPERATURE 40 °C
AC$CHROMATOGRAPHY: FLOW_GRADIENT 0 min min 98% A, 1 min 98% A, 2 min 80% A, 16.5 min 2% A, 22 min 2% A, 22.1 min 98% A, 27 min 98% A
AC$CHROMATOGRAPHY: FLOW_RATE 0.3 mL/min
AC$CHROMATOGRAPHY: RETENTION_TIME 15.39 min
AC$CHROMATOGRAPHY: SOLVENT A: Water 0.1% Formic acid, B: Acetonitrile 0.1% Formic acid
MS$FOCUSED_ION: PRECURSOR_M/Z 479.9665
MS$FOCUSED_ION: PRECURSOR_TYPE [M+H]+
MS$DATA_PROCESSING: COMMENT Export with Spectra 1.9.12 MsBackendMassbank 1.7.4
MS$DATA_PROCESSING: WHOLE RMassBank 2.3.1
PK$SPLASH: splash10-000i-0201900000-8fc565dcb137d84d4633
PK$NUM_PEAK: 33
PK$PEAK: m/z int. rel.int.
  105.0568 1.6 23
  118.0667 1.3 19
  119.0622 0.7 10
  120.0811 5.8 85
  133.0888 5.3 77
  134.0959 0.8 11
  145.0762 3.7 54
  147.0918 2.3 33
  148.0861 1.5 22
  153.929 0.8 11
  173.0819 1 14
  173.1078 1.5 22
  187.1103 1.2 17
  231.8541 0.8 11
  257.9969 1 14
  277.8469 5.2 76
  286.0223 1.7 24
  305.8518 2.9 42
  315.0374 0.7 10
  361.03 10.3 151
  364.9263 1.2 17
  392.9459 5.8 85
  401.0472 1.2 17
  410.9084 12 176
  425.9338 2.1 30
  433.9759 1.7 24
  438.8875 1.4 20
  438.9408 68 999
  439.0323 1 14
  439.946 3.3 48
  440.0036 0.7 10
  450.9254 1.1 16
  479.9671 22.7 333
//
