ACCESSION: MSBNK-BAFG-CSL25010610862
RECORD_TITLE: Hydroxy-DEET; LC-ESI-QTOF; MS2; 40 V
DATE: 2025.01.06
AUTHORS: Ole Lessmann; Kevin S. Jewell; Björn Ehlig; Arne Wick
LICENSE: dl-de/by-2-0
COPYRIGHT: Copyright 2025 Federal Institute of Hydrology, Koblenz, Germany
COMMENT: CONFIDENCE Reference Standard (Level 1)
COMMENT: Chromatography method: dx.doi.org/10.1016/j.chroma.2015.11.014
COMMENT: Acquisition method: 10.1002/rcm.8541
CH$NAME: Hydroxy-DEET
CH$COMPOUND_CLASS: Metabolite; Biocide; Personal_care_product; Transformation_product-Metabolite
CH$FORMULA: C12H17NO2
CH$EXACT_MASS: 207.1259
CH$SMILES: CCN(CC)C(=O)C1=CC(=CC=C1)CO
CH$IUPAC: InChI=1S/C12H17NO2/c1-3-13(4-2)12(15)11-7-5-6-10(8-11)9-14/h5-8,14H,3-4,9H2,1-2H3
CH$LINK: CAS 72236-22-7
CH$LINK: INCHIKEY FRZJZRVZZNTMAW-UHFFFAOYSA-N
AC$INSTRUMENT: TripleTOF 5600 SCIEX
AC$INSTRUMENT_TYPE: LC-ESI-QTOF
AC$MASS_SPECTROMETRY: MS_TYPE MS2
AC$MASS_SPECTROMETRY: ION_MODE POSITIVE
AC$MASS_SPECTROMETRY: COLLISION_ENERGY 40
AC$MASS_SPECTROMETRY: FRAGMENTATION_MODE CID
AC$MASS_SPECTROMETRY: IONIZATION ESI
AC$CHROMATOGRAPHY: COLUMN_NAME Zorbax Eclipse Plus C18 2.1 mm x 150 mm, 3.5 um, Agilent
AC$CHROMATOGRAPHY: COLUMN_TEMPERATURE 40 °C
AC$CHROMATOGRAPHY: FLOW_GRADIENT 0 min min 98% A, 1 min 98% A, 2 min 80% A, 16.5 min 2% A, 22 min 2% A, 22.1 min 98% A, 27 min 98% A
AC$CHROMATOGRAPHY: FLOW_RATE 0.3 mL/min
AC$CHROMATOGRAPHY: RETENTION_TIME 6.973 min
AC$CHROMATOGRAPHY: SOLVENT A: Water 0.1% Formic acid, B: Acetonitrile 0.1% Formic acid
MS$FOCUSED_ION: PRECURSOR_M/Z 208.1332
MS$FOCUSED_ION: PRECURSOR_TYPE [M+H]+
MS$DATA_PROCESSING: COMMENT Export with pycsl 0.1.0.dev1 and CSL 24.4
PK$SPLASH: splash10-000i-9600000000-b0f163c75fbb1b45785c
PK$NUM_PEAK: 12
PK$PEAK: m/z int. rel.int.
  44.0257 10.6 23
  63.0308 21.1 46
  72.0506 27.4 60
  77.0447 50.3 111
  79.06 14.4 31
  89.0431 451.8 999
  91.0586 34.4 76
  105.0369 37.6 83
  107.0524 111.0 245
  119.0516 12.6 27
  134.0617 15.3 33
  135.0462 240.0 530
//