ACCESSION: MSBNK-BAFG-CSL23103012237
RECORD_TITLE: Erlotinib; LC-ESI-QTOF; MS2; 60 V
DATE: 2023.10.30
AUTHORS: Kevin S. Jewell; Björn Ehlig; Arne Wick
LICENSE: dl-de/by-2-0
COPYRIGHT: Copyright 2023 Federal Institute of Hydrology, Koblenz, Germany
COMMENT: CONFIDENCE Reference Standard (Level 1)
COMMENT: Chromatography method: dx.doi.org/10.1016/j.chroma.2015.11.014
COMMENT: Acquisition method: 10.1002/rcm.8541
CH$NAME: Erlotinib
CH$COMPOUND_CLASS: Pharmaceutical
CH$FORMULA: C22H23N3O4
CH$EXACT_MASS: 393.1689
CH$SMILES: COCCOC1=C(C=C2C(=C1)C(=NC=N2)NC3=CC=CC(=C3)C#C)OCCOC
CH$IUPAC: InChI=1S/C22H23N3O4/c1-4-16-6-5-7-17(12-16)25-22-18-13-20(28-10-8-26-2)21(29-11-9-27-3)14-19(18)23-15-24-22/h1,5-7,12-15H,8-11H2,2-3H3,(H,23,24,25)
CH$LINK: CAS 183321-74-6
CH$LINK: INCHIKEY AAKJLRGGTJKAMG-UHFFFAOYSA-N
AC$INSTRUMENT: TripleTOF 5600 SCIEX
AC$INSTRUMENT_TYPE: LC-ESI-QTOF
AC$MASS_SPECTROMETRY: MS_TYPE MS2
AC$MASS_SPECTROMETRY: ION_MODE NEGATIVE
AC$MASS_SPECTROMETRY: COLLISION_ENERGY 60
AC$MASS_SPECTROMETRY: FRAGMENTATION_MODE CID
AC$MASS_SPECTROMETRY: IONIZATION ESI
AC$CHROMATOGRAPHY: COLUMN_NAME Zorbax Eclipse Plus C18 2.1 mm x 150 mm, 3.5 um, Agilent
AC$CHROMATOGRAPHY: COLUMN_TEMPERATURE 40 °C
AC$CHROMATOGRAPHY: FLOW_GRADIENT 0 min min 98% A, 1 min 98% A, 2 min 80% A, 16.5 min 2% A, 22 min 2% A, 22.1 min 98% A, 27 min 98% A
AC$CHROMATOGRAPHY: FLOW_RATE 0.3 mL/min
AC$CHROMATOGRAPHY: RETENTION_TIME 7.429 min
AC$CHROMATOGRAPHY: SOLVENT A: Water 0.1% Formic acid, B: Acetonitrile 0.1% Formic acid
MS$FOCUSED_ION: PRECURSOR_M/Z 392.1616
MS$FOCUSED_ION: PRECURSOR_TYPE [M-H]-
MS$DATA_PROCESSING: COMMENT Export with Spectra 1.9.12 MsBackendMassbank 1.7.4
MS$DATA_PROCESSING: WHOLE RMassBank 2.3.1
PK$SPLASH: splash10-006t-0090000000-6ff9a6817e396e6a8ebc
PK$NUM_PEAK: 20
PK$PEAK: m/z int. rel.int.
  134.0243 2.1 84
  191.062 3.5 140
  201.0443 1.4 56
  218.0719 12 483
  219.0566 1.6 64
  220.05 1.7 68
  228.0565 6.8 273
  229.0648 2 80
  244.0494 2.7 108
  245.0589 7.2 290
  246.0662 24.8 999
  257.0597 2.3 92
  258.0678 7.1 286
  259.0739 2.1 84
  260.0825 2.2 88
  273.0532 2.5 100
  274.0601 23.1 930
  276.0767 5.9 237
  288.0759 1.3 52
  302.0913 2.8 112
//
