ACCESSION: MSBNK-BAFG-CSL25010634335
RECORD_TITLE: N-Isopropyl-N'-phenyl-p-phenylenediamine; LC-ESI-QTOF; MS2; 130 V
DATE: 2025.01.06
AUTHORS: Ole Lessmann; Kevin S. Jewell; Björn Ehlig; Arne Wick
LICENSE: dl-de/by-2-0
COPYRIGHT: Copyright 2025 Federal Institute of Hydrology, Koblenz, Germany
COMMENT: CONFIDENCE Reference Standard (Level 1)
COMMENT: Chromatography method: dx.doi.org/10.1016/j.chroma.2015.11.014
COMMENT: Acquisition method: 10.1002/rcm.8541
CH$NAME: N-Isopropyl-N'-phenyl-p-phenylenediamine
CH$COMPOUND_CLASS: Industrial_process
CH$FORMULA: C15H18N2
CH$EXACT_MASS: 226.147
CH$SMILES: CC(C)Nc1ccc(cc1)Nc2ccccc2
CH$IUPAC: InChI=1S/C15H18N2/c1-12(2)16-14-8-10-15(11-9-14)17-13-6-4-3-5-7-13/h3-12,16-17H,1-2H3
CH$LINK: CAS 101-72-4
CH$LINK: INCHIKEY OUBMGJOQLXMSNT-UHFFFAOYSA-N
AC$INSTRUMENT: TripleTOF 6600 SCIEX
AC$INSTRUMENT_TYPE: LC-ESI-QTOF
AC$MASS_SPECTROMETRY: MS_TYPE MS2
AC$MASS_SPECTROMETRY: ION_MODE POSITIVE
AC$MASS_SPECTROMETRY: COLLISION_ENERGY 130
AC$MASS_SPECTROMETRY: FRAGMENTATION_MODE CID
AC$MASS_SPECTROMETRY: IONIZATION ESI
AC$CHROMATOGRAPHY: COLUMN_NAME Zorbax Eclipse Plus C18 2.1 mm x 150 mm, 3.5 um, Agilent
AC$CHROMATOGRAPHY: COLUMN_TEMPERATURE 40 °C
AC$CHROMATOGRAPHY: FLOW_GRADIENT 0 min min 98% A, 1 min 98% A, 2 min 80% A, 16.5 min 2% A, 22 min 2% A, 22.1 min 98% A, 27 min 98% A
AC$CHROMATOGRAPHY: FLOW_RATE 0.3 mL/min
AC$CHROMATOGRAPHY: RETENTION_TIME 7.24 min
AC$CHROMATOGRAPHY: SOLVENT A: Water 0.1% Formic acid, B: Acetonitrile 0.1% Formic acid
MS$FOCUSED_ION: PRECURSOR_M/Z 227.1543
MS$FOCUSED_ION: PRECURSOR_TYPE [M+H]+
MS$DATA_PROCESSING: COMMENT Export with pycsl 0.1.0.dev1 and CSL 24.4
PK$SPLASH: splash10-0w2i-9000000000-30dda5a0c15d4cd0970a
PK$NUM_PEAK: 50
PK$PEAK: m/z int. rel.int.
  35.9988 0.7 38
  37.0068 7.0 382
  38.002 0.4 21
  38.0148 5.1 278
  39.0224 18.3 999
  41.0249 0.7 38
  42.0341 0.7 38
  49.0068 1.1 60
  50.0145 10.2 556
  51.0221 14.9 813
  52.018 2.0 109
  52.0297 1.1 60
  53.038 13.5 736
  54.0326 2.9 158
  59.9993 0.6 32
  61.0063 4.3 234
  62.0141 8.1 442
  63.022 13.0 709
  64.0172 1.3 70
  64.0264 0.5 27
  65.0369 3.1 169
  73.0063 0.4 21
  74.0145 4.9 267
  75.0089 0.5 27
  75.0224 2.8 152
  76.0181 0.5 27
  76.0298 0.6 32
  77.0374 3.7 201
  78.0316 1.3 70
  78.0443 0.5 27
  80.0486 8.1 442
  85.0068 0.9 49
  86.0141 2.1 114
  87.0214 2.2 120
  88.0181 0.6 32
  89.0368 4.0 218
  90.0427 0.7 38
  98.0131 1.4 76
  101.0356 0.6 32
  102.0453 0.8 43
  113.0367 1.4 76
  114.0363 0.5 27
  115.0525 0.7 38
  126.0441 1.0 54
  127.049 0.8 43
  128.0567 0.8 43
  137.0357 0.7 38
  139.0515 1.2 65
  140.0477 1.2 65
  164.0448 0.5 27
//