ACCESSION: MSBNK-BAFG-CSL2310308791
RECORD_TITLE: 2-(2-Hydroxyphenyl)-1H-benzimidazole; LC-ESI-QTOF; MS2; 150 V
DATE: 2023.10.30
AUTHORS: Kevin S. Jewell; Björn Ehlig; Arne Wick
LICENSE: dl-de/by-2-0
COPYRIGHT: Copyright 2023 Federal Institute of Hydrology, Koblenz, Germany
COMMENT: CONFIDENCE Reference Standard (Level 1)
COMMENT: Chromatography method: dx.doi.org/10.1016/j.chroma.2015.11.014
COMMENT: Acquisition method: 10.1002/rcm.8541
CH$NAME: 2-(2-Hydroxyphenyl)-1H-benzimidazole
CH$COMPOUND_CLASS: Industrial_process; Pharmaceutical
CH$FORMULA: C13H10N2O
CH$EXACT_MASS: 210.0793
CH$SMILES: C1=CC=C2C(=C1)NC(=C3C=CC=CC3=O)N2
CH$IUPAC: InChI=1S/C13H10N2O/c16-12-8-4-1-5-9(12)13-14-10-6-2-3-7-11(10)15-13/h1-8,14-15H
CH$LINK: CAS 2963-66-8
CH$LINK: INCHIKEY IOJWAAXMYYMGMG-UHFFFAOYSA-N
AC$INSTRUMENT: TripleTOF 5600 SCIEX
AC$INSTRUMENT_TYPE: LC-ESI-QTOF
AC$MASS_SPECTROMETRY: MS_TYPE MS2
AC$MASS_SPECTROMETRY: ION_MODE POSITIVE
AC$MASS_SPECTROMETRY: COLLISION_ENERGY 150
AC$MASS_SPECTROMETRY: FRAGMENTATION_MODE CID
AC$MASS_SPECTROMETRY: IONIZATION ESI
AC$CHROMATOGRAPHY: COLUMN_NAME Zorbax Eclipse Plus C18 2.1 mm x 150 mm, 3.5 um, Agilent
AC$CHROMATOGRAPHY: COLUMN_TEMPERATURE 40 °C
AC$CHROMATOGRAPHY: FLOW_GRADIENT 0 min min 98% A, 1 min 98% A, 2 min 80% A, 16.5 min 2% A, 22 min 2% A, 22.1 min 98% A, 27 min 98% A
AC$CHROMATOGRAPHY: FLOW_RATE 0.3 mL/min
AC$CHROMATOGRAPHY: RETENTION_TIME 6.225 min
AC$CHROMATOGRAPHY: SOLVENT A: Water 0.1% Formic acid, B: Acetonitrile 0.1% Formic acid
MS$FOCUSED_ION: PRECURSOR_M/Z 211.0866
MS$FOCUSED_ION: PRECURSOR_TYPE [M+H]+
MS$DATA_PROCESSING: COMMENT Export with Spectra 1.9.12 MsBackendMassbank 1.7.4
MS$DATA_PROCESSING: WHOLE RMassBank 2.3.1
PK$SPLASH: splash10-00di-9000000000-b067a8cfa1f9e63ca6a8
PK$NUM_PEAK: 14
PK$PEAK: m/z int. rel.int.
  52.0276 2.9 482
  60.0095 1.2 199
  65.0333 0.4 66
  65.0454 1 166
  73.0123 2.2 366
  74.0205 6 999
  75.0161 1.5 249
  75.0259 1.3 216
  76.0253 1 166
  85.0125 1.5 249
  86.0208 1.2 199
  87.0257 0.4 66
  98.0173 0.7 116
  109.0086 0.5 83
//
