ACCESSION: MSBNK-BAFG-CSL25010634377
RECORD_TITLE: 3,3`-Dichlorobenzidine; LC-ESI-QTOF; MS2; 40 V
DATE: 2025.01.06
AUTHORS: Ole Lessmann; Kevin S. Jewell; Björn Ehlig; Arne Wick
LICENSE: dl-de/by-2-0
COPYRIGHT: Copyright 2025 Federal Institute of Hydrology, Koblenz, Germany
COMMENT: CONFIDENCE Reference Standard (Level 1)
COMMENT: Chromatography method: dx.doi.org/10.1016/j.chroma.2015.11.014
COMMENT: Acquisition method: 10.1002/rcm.8541
CH$NAME: 3,3`-Dichlorobenzidine
CH$FORMULA: C12H10Cl2N2
CH$EXACT_MASS: 252.0221
CH$SMILES: C1=CC(=C(C=C1C2=CC(=C(C=C2)N)Cl)Cl)N
CH$IUPAC: InChI=1S/C12H10Cl2N2/c13-9-5-7(1-3-11(9)15)8-2-4-12(16)10(14)6-8/h1-6H,15-16H2
CH$LINK: CAS 91-94-1
CH$LINK: INCHIKEY HUWXDEQWWKGHRV-UHFFFAOYSA-N
AC$INSTRUMENT: TripleTOF 6600 SCIEX
AC$INSTRUMENT_TYPE: LC-ESI-QTOF
AC$MASS_SPECTROMETRY: MS_TYPE MS2
AC$MASS_SPECTROMETRY: ION_MODE POSITIVE
AC$MASS_SPECTROMETRY: COLLISION_ENERGY 40
AC$MASS_SPECTROMETRY: FRAGMENTATION_MODE CID
AC$MASS_SPECTROMETRY: IONIZATION ESI
AC$CHROMATOGRAPHY: COLUMN_NAME Zorbax Eclipse Plus C18 2.1 mm x 150 mm, 3.5 um, Agilent
AC$CHROMATOGRAPHY: COLUMN_TEMPERATURE 40 °C
AC$CHROMATOGRAPHY: FLOW_GRADIENT 0 min min 98% A, 1 min 98% A, 2 min 80% A, 16.5 min 2% A, 22 min 2% A, 22.1 min 98% A, 27 min 98% A
AC$CHROMATOGRAPHY: FLOW_RATE 0.3 mL/min
AC$CHROMATOGRAPHY: RETENTION_TIME 11.426 min
AC$CHROMATOGRAPHY: SOLVENT A: Water 0.1% Formic acid, B: Acetonitrile 0.1% Formic acid
MS$FOCUSED_ION: PRECURSOR_M/Z 253.0294
MS$FOCUSED_ION: PRECURSOR_TYPE [M+H]+
MS$DATA_PROCESSING: COMMENT Export with pycsl 0.1.0.dev1 and CSL 24.4
PK$SPLASH: splash10-00lr-0930000000-5d83a438ea9adada2f2a
PK$NUM_PEAK: 20
PK$PEAK: m/z int. rel.int.
  127.0179 8.9 29
  127.0545 13.4 44
  128.0636 5.1 16
  130.0646 13.9 46
  131.073 6.0 19
  154.0656 114.2 380
  155.0721 33.2 110
  156.0816 3.7 12
  164.0272 11.2 37
  165.0575 17.7 58
  166.0644 5.7 18
  181.0765 154.7 515
  182.0843 299.9 999
  190.0426 153.6 511
  201.0332 20.1 66
  216.0456 7.9 26
  217.0533 169.6 564
  218.0604 96.0 319
  252.0244 18.2 60
  253.0313 48.5 161
//