ACCESSION: MSBNK-BAFG-CSL25010627912
RECORD_TITLE: 2-[(4-hydroxy-9,10-dioxoanthracen-1-yl)amino]-5-methylbenzenesulfonic acid; LC-ESI-QTOF; MS2; 50 V
DATE: 2025.01.06
AUTHORS: Ole Lessmann; Kevin S. Jewell; Björn Ehlig; Arne Wick
LICENSE: dl-de/by-2-0
COPYRIGHT: Copyright 2025 Federal Institute of Hydrology, Koblenz, Germany
COMMENT: CONFIDENCE Reference Standard (Level 1)
COMMENT: Chromatography method: dx.doi.org/10.1016/j.chroma.2015.11.014
COMMENT: Acquisition method: 10.1002/rcm.8541
CH$NAME: 2-[(4-hydroxy-9,10-dioxoanthracen-1-yl)amino]-5-methylbenzenesulfonic acid
CH$FORMULA: C21H15NO6S
CH$EXACT_MASS: 409.062
CH$SMILES: CC1=CC(=C(C=C1)NC2=C3C(=C(C=C2)O)C(=O)C4=CC=CC=C4C3=O)S(=O)(=O)O
CH$IUPAC: InChI=1S/C21H15NO6S/c1-11-6-7-14(17(10-11)29(26,27)28)22-15-8-9-16(23)19-18(15)20(24)12-4-2-3-5-13(12)21(19)25/h2-10,22-23H,1H3,(H,26,27,28)
CH$LINK: CAS 3443-92-3
CH$LINK: INCHIKEY XXQVCGHGQCAKKA-UHFFFAOYSA-N
AC$INSTRUMENT: TripleTOF X500R SCIEX
AC$INSTRUMENT_TYPE: LC-ESI-QTOF
AC$MASS_SPECTROMETRY: MS_TYPE MS2
AC$MASS_SPECTROMETRY: ION_MODE NEGATIVE
AC$MASS_SPECTROMETRY: COLLISION_ENERGY 50
AC$MASS_SPECTROMETRY: FRAGMENTATION_MODE CID
AC$MASS_SPECTROMETRY: IONIZATION ESI
AC$CHROMATOGRAPHY: COLUMN_NAME Zorbax Eclipse Plus C18 2.1 mm x 150 mm, 3.5 um, Agilent
AC$CHROMATOGRAPHY: COLUMN_TEMPERATURE 40 °C
AC$CHROMATOGRAPHY: FLOW_GRADIENT 0 min min 98% A, 1 min 98% A, 2 min 80% A, 16.5 min 2% A, 22 min 2% A, 22.1 min 98% A, 27 min 98% A
AC$CHROMATOGRAPHY: FLOW_RATE 0.3 mL/min
AC$CHROMATOGRAPHY: RETENTION_TIME 11.683 min
AC$CHROMATOGRAPHY: SOLVENT A: Water 0.1% Formic acid, B: Acetonitrile 0.1% Formic acid
MS$FOCUSED_ION: PRECURSOR_M/Z 408.0547
MS$FOCUSED_ION: PRECURSOR_TYPE [M-H]-
MS$DATA_PROCESSING: COMMENT Export with pycsl 0.1.0.dev1 and CSL 24.4
PK$SPLASH: splash10-03fr-0219000000-e8094a9c71d112886328
PK$NUM_PEAK: 28
PK$PEAK: m/z int. rel.int.
  79.9575 8.6 159
  80.9655 1.2 22
  121.0539 2.9 53
  132.0473 1.8 33
  167.0517 0.9 16
  171.0471 1.2 22
  184.0083 8.0 148
  185.0163 21.7 402
  195.0464 0.6 11
  196.0109 1.0 18
  209.0491 1.6 29
  210.0341 0.7 12
  211.0417 11.5 213
  223.0418 0.6 11
  237.0451 0.9 16
  282.0929 5.7 105
  298.0881 1.2 22
  300.103 12.4 230
  309.0847 4.5 83
  310.0875 53.8 999
  311.0963 2.8 51
  326.0828 3.9 72
  327.0892 13.8 256
  328.0979 36.1 670
  342.0786 1.2 22
  344.0941 1.0 18
  364.0661 1.6 29
  408.0538 3.5 64
//