ACCESSION: MSBNK-BAFG-CSL2310253242
RECORD_TITLE: Nilotinib; LC-ESI-QTOF; MS2; 90 V
DATE: 2023.10.25
AUTHORS: Kevin S. Jewell; Björn Ehlig; Arne Wick
LICENSE: dl-de/by-2-0
COPYRIGHT: Copyright 2023 Federal Institute of Hydrology, Koblenz, Germany
COMMENT: CONFIDENCE Reference Standard (Level 1)
COMMENT: Chromatography method: dx.doi.org/10.1016/j.chroma.2015.11.014
COMMENT: Acquisition method: 10.1002/rcm.8541
CH$NAME: Nilotinib
CH$COMPOUND_CLASS: Pharmaceutical
CH$FORMULA: C28H22F3N7O
CH$EXACT_MASS: 529.1838
CH$SMILES: Cc1cn(cn1)c2cc(NC(=O)c3ccc(C)c(Nc4nccc(n4)c5cccnc5)c3)cc(c2)C(F)(F)F
CH$IUPAC: InChI=1S/C28H22F3N7O/c1-17-5-6-19(10-25(17)37-27-33-9-7-24(36-27)20-4-3-8-32-14-20)26(39)35-22-11-21(28(29,30)31)12-23(13-22)38-15-18(2)34-16-38/h3-16H,1-2H3,(H,35,39)(H,33,36,37)
CH$LINK: CAS 641571-10-0
CH$LINK: INCHIKEY HHZIURLSWUIHRB-UHFFFAOYSA-N
AC$INSTRUMENT: TripleTOF 5600 SCIEX
AC$INSTRUMENT_TYPE: LC-ESI-QTOF
AC$MASS_SPECTROMETRY: MS_TYPE MS2
AC$MASS_SPECTROMETRY: ION_MODE POSITIVE
AC$MASS_SPECTROMETRY: COLLISION_ENERGY 90
AC$MASS_SPECTROMETRY: FRAGMENTATION_MODE CID
AC$MASS_SPECTROMETRY: IONIZATION ESI
AC$CHROMATOGRAPHY: COLUMN_NAME Zorbax Eclipse Plus C18 2.1 mm x 150 mm, 3.5 um, Agilent
AC$CHROMATOGRAPHY: COLUMN_TEMPERATURE 40 °C
AC$CHROMATOGRAPHY: FLOW_GRADIENT 0 min min 98% A, 1 min 98% A, 2 min 80% A, 16.5 min 2% A, 22 min 2% A, 22.1 min 98% A, 27 min 98% A
AC$CHROMATOGRAPHY: FLOW_RATE 0.3 mL/min
AC$CHROMATOGRAPHY: RETENTION_TIME 8.404 min
AC$CHROMATOGRAPHY: SOLVENT A: Water 0.1% Formic acid, B: Acetonitrile 0.1% Formic acid
MS$FOCUSED_ION: PRECURSOR_M/Z 530.1911
MS$FOCUSED_ION: PRECURSOR_TYPE [M+H]+
MS$DATA_PROCESSING: COMMENT Export with Spectra 1.9.12 MsBackendMassbank 1.7.4
MS$DATA_PROCESSING: WHOLE RMassBank 2.3.1
PK$SPLASH: splash10-0a4i-0190000000-5bdce38cb9b62f35abc5
PK$NUM_PEAK: 30
PK$PEAK: m/z int. rel.int.
  104.0478 2.3 26
  116.0499 1.6 18
  129.0453 1 11
  130.0609 0.9 10
  131.06 3.3 37
  142.0507 1.3 14
  153.0369 1 11
  155.0601 1 11
  156.0529 2.6 29
  158.0704 1 11
  171.079 1 11
  194.0673 2.5 28
  214.0724 1.7 19
  218.0738 1.6 18
  219.0786 2.8 32
  220.0871 2.5 28
  231.0789 0.9 10
  232.086 2.3 26
  233.0937 2 22
  234.0998 5 57
  243.0796 1.5 17
  244.0751 3.1 35
  245.0804 12 137
  246.0888 16.1 184
  247.0952 2 22
  257.0821 1.3 14
  258.0882 1.8 20
  259.0971 87.3 999
  260.1041 9.2 105
  261.1125 11.7 133
//
