ACCESSION: MSBNK-BAFG-CSL23103018805
RECORD_TITLE: Hexazinone; LC-ESI-QTOF; MS2; 60 V
DATE: 2023.10.30
AUTHORS: Kevin S. Jewell; Björn Ehlig; Arne Wick
LICENSE: dl-de/by-2-0
COPYRIGHT: Copyright 2023 Federal Institute of Hydrology, Koblenz, Germany
COMMENT: CONFIDENCE Reference Standard (Level 1)
COMMENT: Chromatography method: dx.doi.org/10.1016/j.chroma.2015.11.014
COMMENT: Acquisition method: 10.1002/rcm.8541
CH$NAME: Hexazinone
CH$COMPOUND_CLASS: Herbicide
CH$FORMULA: C12H20N4O2
CH$EXACT_MASS: 252.1586
CH$SMILES: CN1C(=NC(=O)N(C1=O)C2CCCCC2)N(C)C
CH$IUPAC: InChI=1S/C12H20N4O2/c1-14(2)10-13-11(17)16(12(18)15(10)3)9-7-5-4-6-8-9/h9H,4-8H2,1-3H3
CH$LINK: CAS 51235-04-2
CH$LINK: INCHIKEY CAWXEEYDBZRFPE-UHFFFAOYSA-N
AC$INSTRUMENT: TripleTOF 6600 SCIEX
AC$INSTRUMENT_TYPE: LC-ESI-QTOF
AC$MASS_SPECTROMETRY: MS_TYPE MS2
AC$MASS_SPECTROMETRY: ION_MODE POSITIVE
AC$MASS_SPECTROMETRY: COLLISION_ENERGY 60
AC$MASS_SPECTROMETRY: FRAGMENTATION_MODE CID
AC$MASS_SPECTROMETRY: IONIZATION ESI
AC$CHROMATOGRAPHY: COLUMN_NAME Zorbax Eclipse Plus C18 2.1 mm x 150 mm, 3.5 um, Agilent
AC$CHROMATOGRAPHY: COLUMN_TEMPERATURE 40 °C
AC$CHROMATOGRAPHY: FLOW_GRADIENT 0 min min 98% A, 1 min 98% A, 2 min 80% A, 16.5 min 2% A, 22 min 2% A, 22.1 min 98% A, 27 min 98% A
AC$CHROMATOGRAPHY: FLOW_RATE 0.3 mL/min
AC$CHROMATOGRAPHY: RETENTION_TIME 8.427 min
AC$CHROMATOGRAPHY: SOLVENT A: Water 0.1% Formic acid, B: Acetonitrile 0.1% Formic acid
MS$FOCUSED_ION: PRECURSOR_M/Z 253.1659
MS$FOCUSED_ION: PRECURSOR_TYPE [M+H]+
MS$DATA_PROCESSING: COMMENT Export with Spectra 1.9.12 MsBackendMassbank 1.7.4
MS$DATA_PROCESSING: WHOLE RMassBank 2.3.1
PK$SPLASH: splash10-00di-9000000000-f5b5f0e1a601b2076bf7
PK$NUM_PEAK: 21
PK$PEAK: m/z int. rel.int.
  39.0226 6.7 15
  41.038 5.6 12
  42.0335 17.7 40
  44.0491 19.1 43
  46.0648 5.1 11
  55.029 14.7 33
  55.0538 21.8 49
  56.0365 17.5 39
  58.0282 9.2 21
  58.0645 29 66
  69.0082 14.1 32
  69.0438 50.9 116
  69.9918 14.5 33
  70.052 27.8 63
  71.0601 437.1 999
  72.0438 11.7 26
  83.0233 47.5 108
  85.0757 215.1 491
  96.0548 5.6 12
  101.0339 7.2 16
  114.0648 5.1 11
//
