ACCESSION: MSBNK-BAFG-CSL2310256500
RECORD_TITLE: Epirubicin; LC-ESI-QTOF; MS2; 70 V
DATE: 2023.10.25
AUTHORS: Kevin S. Jewell; Björn Ehlig; Arne Wick
LICENSE: dl-de/by-2-0
COPYRIGHT: Copyright 2023 Federal Institute of Hydrology, Koblenz, Germany
COMMENT: CONFIDENCE Reference Standard (Level 1)
COMMENT: Chromatography method: dx.doi.org/10.1016/j.chroma.2015.11.014
COMMENT: Acquisition method: 10.1002/rcm.8541
CH$NAME: Epirubicin
CH$COMPOUND_CLASS: Pharmaceutical
CH$FORMULA: C27H29NO11
CH$EXACT_MASS: 543.1741
CH$SMILES: CC1C(C(CC(O1)OC2CC(CC3=C(C4=C(C(=C23)O)C(=O)C5=C(C4=O)C=CC=C5OC)O)(C(=O)CO)O)N)O
CH$IUPAC: InChI=1S/C27H29NO11/c1-10-22(31)13(28)6-17(38-10)39-15-8-27(36,16(30)9-29)7-12-19(15)26(35)21-20(24(12)33)23(32)11-4-3-5-14(37-2)18(11)25(21)34/h3-5,10,13,15,17,22,29,31,33,35-36H,6-9,28H2,1-2H3
CH$LINK: CAS 56420-45-2
CH$LINK: INCHIKEY AOJJSUZBOXZQNB-UHFFFAOYSA-N
AC$INSTRUMENT: TripleTOF 5600 SCIEX
AC$INSTRUMENT_TYPE: LC-ESI-QTOF
AC$MASS_SPECTROMETRY: MS_TYPE MS2
AC$MASS_SPECTROMETRY: ION_MODE POSITIVE
AC$MASS_SPECTROMETRY: COLLISION_ENERGY 70
AC$MASS_SPECTROMETRY: FRAGMENTATION_MODE CID
AC$MASS_SPECTROMETRY: IONIZATION ESI
AC$CHROMATOGRAPHY: COLUMN_NAME Zorbax Eclipse Plus C18 2.1 mm x 150 mm, 3.5 um, Agilent
AC$CHROMATOGRAPHY: COLUMN_TEMPERATURE 40 °C
AC$CHROMATOGRAPHY: FLOW_GRADIENT 0 min min 98% A, 1 min 98% A, 2 min 80% A, 16.5 min 2% A, 22 min 2% A, 22.1 min 98% A, 27 min 98% A
AC$CHROMATOGRAPHY: FLOW_RATE 0.3 mL/min
AC$CHROMATOGRAPHY: RETENTION_TIME 7.492 min
AC$CHROMATOGRAPHY: SOLVENT A: Water 0.1% Formic acid, B: Acetonitrile 0.1% Formic acid
MS$FOCUSED_ION: PRECURSOR_M/Z 544.1813
MS$FOCUSED_ION: PRECURSOR_TYPE [M+H]+
MS$DATA_PROCESSING: COMMENT Export with Spectra 1.9.12 MsBackendMassbank 1.7.4
MS$DATA_PROCESSING: WHOLE RMassBank 2.3.1
PK$SPLASH: splash10-052b-1139000000-1ff3262b3b687ff99381
PK$NUM_PEAK: 61
PK$PEAK: m/z int. rel.int.
  58.067 0.5 18
  60.0475 0.7 26
  69.0351 0.8 29
  72.0469 2 74
  86.0607 5 186
  95.0489 0.4 14
  107.0475 0.5 18
  112.0768 0.7 26
  113.0612 1.2 44
  121.0634 1.3 48
  130.083 1.1 41
  131.0474 0.4 14
  135.043 1.9 70
  145.0276 0.7 26
  157.0321 0.6 22
  187.0428 0.4 14
  203.0858 0.4 14
  217.0477 0.6 22
  218.0715 0.6 22
  223.0761 0.4 14
  231.0813 1.1 41
  232.0518 0.6 22
  233.0583 0.5 18
  234.0652 0.9 33
  247.0773 1 37
  249.0624 0.5 18
  257.0623 0.4 14
  259.0756 1.3 48
  260.0464 0.7 26
  261.0548 0.6 22
  262.0638 1.1 41
  273.0526 0.7 26
  274.0591 0.5 18
  275.0698 2 74
  277.0823 0.5 18
  278.0595 1.3 48
  287.072 3 111
  289.0489 1.7 63
  290.056 3.5 130
  291.0675 0.8 29
  293.0788 0.5 18
  301.0517 0.5 18
  302.0553 0.7 26
  303.0653 1.9 70
  305.0525 0.7 26
  305.0862 1.5 55
  306.053 15.4 574
  307.0627 0.8 29
  315.0612 1.7 63
  317.0444 0.6 22
  318.0524 1.5 55
  319.0578 0.6 22
  320.0699 0.5 18
  321.0739 7.2 268
  329.0444 2.2 82
  332.0739 0.5 18
  333.0751 1.3 48
  336.0574 0.8 29
  345.0429 0.5 18
  346.0474 26.8 999
  361.0723 1.4 52
//
