ACCESSION: MSBNK-BAFG-CSL23102612727
RECORD_TITLE: Methyl-5-oxopyrrolidine-2-carboxylate; LC-ESI-QTOF; MS2; 60 V
DATE: 2023.10.26
AUTHORS: Kevin S. Jewell; Björn Ehlig; Arne Wick
LICENSE: dl-de/by-2-0
COPYRIGHT: Copyright 2023 Federal Institute of Hydrology, Koblenz, Germany
COMMENT: CONFIDENCE Reference Standard (Level 1)
COMMENT: Chromatography method: dx.doi.org/10.1016/j.chroma.2015.11.014
COMMENT: Acquisition method: 10.1002/rcm.8541
CH$NAME: Methyl-5-oxopyrrolidine-2-carboxylate
CH$FORMULA: C6H9NO3
CH$EXACT_MASS: 143.0582
CH$SMILES: COC(=O)C1CCC(=O)N1
CH$IUPAC: InChI=1S/C6H9NO3/c1-10-6(9)4-2-3-5(8)7-4/h4H,2-3H2,1H3,(H,7,8)
CH$LINK: CAS 54571-66-3
CH$LINK: INCHIKEY HQGPKMSGXAUKHT-UHFFFAOYSA-N
AC$INSTRUMENT: TripleTOF 5600 SCIEX
AC$INSTRUMENT_TYPE: LC-ESI-QTOF
AC$MASS_SPECTROMETRY: MS_TYPE MS2
AC$MASS_SPECTROMETRY: ION_MODE POSITIVE
AC$MASS_SPECTROMETRY: COLLISION_ENERGY 60
AC$MASS_SPECTROMETRY: FRAGMENTATION_MODE CID
AC$MASS_SPECTROMETRY: IONIZATION ESI
AC$CHROMATOGRAPHY: COLUMN_NAME Zorbax Eclipse Plus C18 2.1 mm x 150 mm, 3.5 um, Agilent
AC$CHROMATOGRAPHY: COLUMN_TEMPERATURE 40 °C
AC$CHROMATOGRAPHY: FLOW_GRADIENT 0 min min 98% A, 1 min 98% A, 2 min 80% A, 16.5 min 2% A, 22 min 2% A, 22.1 min 98% A, 27 min 98% A
AC$CHROMATOGRAPHY: FLOW_RATE 0.3 mL/min
AC$CHROMATOGRAPHY: RETENTION_TIME 4.583 min
AC$CHROMATOGRAPHY: SOLVENT A: Water 0.1% Formic acid, B: Acetonitrile 0.1% Formic acid
MS$FOCUSED_ION: PRECURSOR_M/Z 144.0655
MS$FOCUSED_ION: PRECURSOR_TYPE [M+H]+
MS$DATA_PROCESSING: COMMENT Export with Spectra 1.9.12 MsBackendMassbank 1.7.4
MS$DATA_PROCESSING: WHOLE RMassBank 2.3.1
PK$SPLASH: splash10-0a63-9000000000-5d984d28a6e248060a07
PK$NUM_PEAK: 11
PK$PEAK: m/z int. rel.int.
  36.0011 0.1 124
  39.023 0.2 249
  41.0377 0.2 249
  43.9857 0.1 124
  44.013 0.3 374
  44.0502 0 0
  55.0159 0.2 249
  56.0488 0.6 749
  57.055 0 0
  60.9859 0.3 374
  84.045 0.8 999
//
