ACCESSION: MSBNK-BAFG-CSL231025715
RECORD_TITLE: Tetraheptylammonium; LC-ESI-QTOF; MS2; 60 V
DATE: 2023.10.25
AUTHORS: Kevin S. Jewell; Björn Ehlig; Arne Wick
LICENSE: dl-de/by-2-0
COPYRIGHT: Copyright 2023 Federal Institute of Hydrology, Koblenz, Germany
COMMENT: CONFIDENCE Reference Standard (Level 1)
COMMENT: Chromatography method: dx.doi.org/10.1016/j.chroma.2015.11.014
COMMENT: Acquisition method: 10.1002/rcm.8541
CH$NAME: Tetraheptylammonium
CH$COMPOUND_CLASS: Industrial_process
CH$FORMULA: C28H60N
CH$EXACT_MASS: 410.472
CH$SMILES: CCCCCCC[N+](CCCCCCC)(CCCCCCC)CCCCCCC
CH$IUPAC: InChI=1S/C28H60N/c1-5-9-13-17-21-25-29(26-22-18-14-10-6-2,27-23-19-15-11-7-3)28-24-20-16-12-8-4/h5-28H2,1-4H3/q+1
CH$LINK: CAS 35414-25-6
CH$LINK: INCHIKEY YFZDLRVCXDBOPH-UHFFFAOYSA-N
AC$INSTRUMENT: TripleTOF 5600 SCIEX
AC$INSTRUMENT_TYPE: LC-ESI-QTOF
AC$MASS_SPECTROMETRY: MS_TYPE MS2
AC$MASS_SPECTROMETRY: ION_MODE POSITIVE
AC$MASS_SPECTROMETRY: COLLISION_ENERGY 60
AC$MASS_SPECTROMETRY: FRAGMENTATION_MODE CID
AC$MASS_SPECTROMETRY: IONIZATION ESI
AC$CHROMATOGRAPHY: COLUMN_NAME Zorbax Eclipse Plus C18 2.1 mm x 150 mm, 3.5 um, Agilent
AC$CHROMATOGRAPHY: COLUMN_TEMPERATURE 40 °C
AC$CHROMATOGRAPHY: FLOW_GRADIENT 0 min min 98% A, 1 min 98% A, 2 min 80% A, 16.5 min 2% A, 22 min 2% A, 22.1 min 98% A, 27 min 98% A
AC$CHROMATOGRAPHY: FLOW_RATE 0.3 mL/min
AC$CHROMATOGRAPHY: RETENTION_TIME 14.727 min
AC$CHROMATOGRAPHY: SOLVENT A: Water 0.1% Formic acid, B: Acetonitrile 0.1% Formic acid
MS$FOCUSED_ION: PRECURSOR_M/Z 410.472
MS$FOCUSED_ION: PRECURSOR_TYPE [M]+
MS$DATA_PROCESSING: COMMENT Export with Spectra 1.9.12 MsBackendMassbank 1.7.4
MS$DATA_PROCESSING: WHOLE RMassBank 2.3.1
PK$SPLASH: splash10-01ox-4953000000-c4df5d1faf2d0ecb8070
PK$NUM_PEAK: 8
PK$PEAK: m/z int. rel.int.
  57.0741 18.1 133
  58.0702 43 316
  142.1594 135.8 999
  212.2365 12.1 89
  214.2527 22.8 167
  226.2533 50.9 374
  310.3464 20.2 148
  312.363 32.6 239
//
