ACCESSION: MSBNK-BAFG-CSL23102614463
RECORD_TITLE: Bis(2-isopropylphenyl) phenyl phosphate; LC-ESI-QTOF; MS2; 40 V
DATE: 2023.10.26
AUTHORS: Kevin S. Jewell; Björn Ehlig; Arne Wick
LICENSE: dl-de/by-2-0
COPYRIGHT: Copyright 2023 Federal Institute of Hydrology, Koblenz, Germany
COMMENT: CONFIDENCE Reference Standard (Level 1)
COMMENT: Chromatography method: dx.doi.org/10.1016/j.chroma.2015.11.014
COMMENT: Acquisition method: 10.1002/rcm.8541
CH$NAME: Bis(2-isopropylphenyl) phenyl phosphate
CH$FORMULA: C24H27O4P
CH$EXACT_MASS: 410.1647
CH$SMILES: CC(C)C1=CC=CC=C1OP(=O)(OC2=CC=CC=C2)OC3=CC=CC=C3C(C)C
CH$IUPAC: InChI=1S/C24H27O4P/c1-18(2)21-14-8-10-16-23(21)27-29(25,26-20-12-6-5-7-13-20)28-24-17-11-9-15-22(24)19(3)4/h5-19H,1-4H3
CH$LINK: CAS 69500-29-4
CH$LINK: INCHIKEY RMNODSGCFHVNDC-UHFFFAOYSA-N
AC$INSTRUMENT: TripleTOF 6600 SCIEX
AC$INSTRUMENT_TYPE: LC-ESI-QTOF
AC$MASS_SPECTROMETRY: MS_TYPE MS2
AC$MASS_SPECTROMETRY: ION_MODE POSITIVE
AC$MASS_SPECTROMETRY: COLLISION_ENERGY 40
AC$MASS_SPECTROMETRY: FRAGMENTATION_MODE CID
AC$MASS_SPECTROMETRY: IONIZATION ESI
AC$CHROMATOGRAPHY: COLUMN_NAME Zorbax Eclipse Plus C18 2.1 mm x 150 mm, 3.5 um, Agilent
AC$CHROMATOGRAPHY: COLUMN_TEMPERATURE 40 °C
AC$CHROMATOGRAPHY: FLOW_GRADIENT 0 min min 98% A, 1 min 98% A, 2 min 80% A, 16.5 min 2% A, 22 min 2% A, 22.1 min 98% A, 27 min 98% A
AC$CHROMATOGRAPHY: FLOW_RATE 0.3 mL/min
AC$CHROMATOGRAPHY: RETENTION_TIME 17.429 min
AC$CHROMATOGRAPHY: SOLVENT A: Water 0.1% Formic acid, B: Acetonitrile 0.1% Formic acid
MS$FOCUSED_ION: PRECURSOR_M/Z 411.172
MS$FOCUSED_ION: PRECURSOR_TYPE [M+H]+
MS$DATA_PROCESSING: COMMENT Export with Spectra 1.9.12 MsBackendMassbank 1.7.4
MS$DATA_PROCESSING: WHOLE RMassBank 2.3.1
PK$SPLASH: splash10-004i-0019000000-76e9b7498ebc9ad0b9b3
PK$NUM_PEAK: 10
PK$PEAK: m/z int. rel.int.
  91.0542 59.7 23
  152.0623 49.8 19
  153.0699 84 33
  215.0261 123.2 48
  228.0933 33.5 13
  229.1013 25.4 10
  233.0365 88.2 34
  251.0475 100.9 39
  327.0795 2529 999
  369.1263 182.8 72
//
