ACCESSION: MSBNK-BAFG-CSL2310257883
RECORD_TITLE: Telmisartan; LC-ESI-QTOF; MS2; 130 V
DATE: 2023.10.25
AUTHORS: Kevin S. Jewell; Björn Ehlig; Arne Wick
LICENSE: dl-de/by-2-0
COPYRIGHT: Copyright 2023 Federal Institute of Hydrology, Koblenz, Germany
COMMENT: CONFIDENCE Reference Standard (Level 1)
COMMENT: Chromatography method: dx.doi.org/10.1016/j.chroma.2015.11.014
COMMENT: Acquisition method: 10.1002/rcm.8541
CH$NAME: Telmisartan
CH$COMPOUND_CLASS: Pharmaceutical
CH$FORMULA: C33H30N4O2
CH$EXACT_MASS: 514.2369
CH$SMILES: CCCc1nc2c(C)cc(cc2n1Cc3ccc(cc3)c4ccccc4C(O)=O)c5nc6ccccc6n5C
CH$IUPAC: InChI=1S/C33H30N4O2/c1-4-9-30-35-31-21(2)18-24(32-34-27-12-7-8-13-28(27)36(32)3)19-29(31)37(30)20-22-14-16-23(17-15-22)25-10-5-6-11-26(25)33(38)39/h5-8,10-19H,4,9,20H2,1-3H3,(H,38,39)
CH$LINK: CAS 144701-48-4
CH$LINK: INCHIKEY RMMXLENWKUUMAY-UHFFFAOYSA-N
AC$INSTRUMENT: TripleTOF 5600 SCIEX
AC$INSTRUMENT_TYPE: LC-ESI-QTOF
AC$MASS_SPECTROMETRY: MS_TYPE MS2
AC$MASS_SPECTROMETRY: ION_MODE POSITIVE
AC$MASS_SPECTROMETRY: COLLISION_ENERGY 130
AC$MASS_SPECTROMETRY: FRAGMENTATION_MODE CID
AC$MASS_SPECTROMETRY: IONIZATION ESI
AC$CHROMATOGRAPHY: COLUMN_NAME Zorbax Eclipse Plus C18 2.1 mm x 150 mm, 3.5 um, Agilent
AC$CHROMATOGRAPHY: COLUMN_TEMPERATURE 40 °C
AC$CHROMATOGRAPHY: FLOW_GRADIENT 0 min min 98% A, 1 min 98% A, 2 min 80% A, 16.5 min 2% A, 22 min 2% A, 22.1 min 98% A, 27 min 98% A
AC$CHROMATOGRAPHY: FLOW_RATE 0.3 mL/min
AC$CHROMATOGRAPHY: RETENTION_TIME 8.861 min
AC$CHROMATOGRAPHY: SOLVENT A: Water 0.1% Formic acid, B: Acetonitrile 0.1% Formic acid
MS$FOCUSED_ION: PRECURSOR_M/Z 515.2442
MS$FOCUSED_ION: PRECURSOR_TYPE [M+H]+
MS$DATA_PROCESSING: COMMENT Export with Spectra 1.9.12 MsBackendMassbank 1.7.4
MS$DATA_PROCESSING: WHOLE RMassBank 2.3.1
PK$SPLASH: splash10-0aou-1590000000-4455e1845effc3f2b04e
PK$NUM_PEAK: 31
PK$PEAK: m/z int. rel.int.
  65.0423 0.5 237
  77.0404 0.9 428
  92.0505 1.1 523
  115.0543 0.8 380
  116.0524 0.5 237
  139.0527 0.7 333
  152.0652 1 475
  163.053 0.5 237
  164.0601 0.9 428
  165.07 2.1 999
  168.062 0.5 237
  192.0699 0.7 333
  193.0773 1 475
  205.0754 0.9 428
  206.0848 1 475
  207.0887 0.6 285
  218.0741 0.7 333
  219.0815 0.7 333
  220.0862 0.7 333
  231.0821 0.7 333
  232.0858 0.9 428
  233.0892 0.5 237
  234.1002 0.4 190
  245.0828 0.4 190
  246.0957 0.9 428
  247.0972 0.6 285
  259.0989 1.9 903
  260.1042 0.9 428
  261.1152 0.9 428
  273.1129 1.1 523
  275.135 0.4 190
//
