ACCESSION: MSBNK-BAFG-CSL2311093951
RECORD_TITLE: 3,4,5-Trimethoxybenzoic acid; LC-ESI-QTOF; MS2; 30 V
DATE: 2023.11.09
AUTHORS: Kevin S. Jewell; Björn Ehlig; Arne Wick
LICENSE: dl-de/by-2-0
COPYRIGHT: Copyright 2023 Federal Institute of Hydrology, Koblenz, Germany
COMMENT: CONFIDENCE Reference Standard (Level 1)
COMMENT: Chromatography method: dx.doi.org/10.1016/j.chroma.2015.11.014
COMMENT: Acquisition method: 10.1002/rcm.8541
CH$NAME: 3,4,5-Trimethoxybenzoic acid
CH$COMPOUND_CLASS: Pharmaceutical; Industrial_process; Metabolite
CH$FORMULA: C10H12O5
CH$EXACT_MASS: 212.0685
CH$SMILES: COc1cc(cc(OC)c1OC)C(O)=O
CH$IUPAC: InChI=1S/C10H12O5/c1-13-7-4-6(10(11)12)5-8(14-2)9(7)15-3/h4-5H,1-3H3,(H,11,12)
CH$LINK: CAS 118-41-2
CH$LINK: INCHIKEY SJSOFNCYXJUNBT-UHFFFAOYSA-N
AC$INSTRUMENT: TripleTOF 5600 SCIEX
AC$INSTRUMENT_TYPE: LC-ESI-QTOF
AC$MASS_SPECTROMETRY: MS_TYPE MS2
AC$MASS_SPECTROMETRY: ION_MODE POSITIVE
AC$MASS_SPECTROMETRY: COLLISION_ENERGY 30
AC$MASS_SPECTROMETRY: FRAGMENTATION_MODE CID
AC$MASS_SPECTROMETRY: IONIZATION ESI
AC$CHROMATOGRAPHY: COLUMN_NAME Zorbax Eclipse Plus C18 2.1 mm x 150 mm, 3.5 um, Agilent
AC$CHROMATOGRAPHY: COLUMN_TEMPERATURE 40 °C
AC$CHROMATOGRAPHY: FLOW_GRADIENT 0 min min 98% A, 1 min 98% A, 2 min 80% A, 16.5 min 2% A, 22 min 2% A, 22.1 min 98% A, 27 min 98% A
AC$CHROMATOGRAPHY: FLOW_RATE 0.3 mL/min
AC$CHROMATOGRAPHY: RETENTION_TIME 7.633 min
AC$CHROMATOGRAPHY: SOLVENT A: Water 0.1% Formic acid, B: Acetonitrile 0.1% Formic acid
MS$FOCUSED_ION: PRECURSOR_M/Z 213.0757
MS$FOCUSED_ION: PRECURSOR_TYPE [M+H]+
MS$DATA_PROCESSING: COMMENT Export with Spectra 1.9.12 MsBackendMassbank 1.7.4
MS$DATA_PROCESSING: WHOLE RMassBank 2.3.1
PK$SPLASH: splash10-0udr-0900000000-323187ef43308ee3bf67
PK$NUM_PEAK: 26
PK$PEAK: m/z int. rel.int.
  65.0419 4.4 46
  77.0396 1.4 14
  79.0562 1 10
  81.0352 1.1 11
  93.034 7.3 76
  95.0511 2.7 28
  96.0575 1 10
  108.0578 1.2 12
  109.0286 2.2 23
  109.0646 2.9 30
  111.0434 8.4 88
  121.0271 1 10
  122.0366 1.4 14
  123.0441 9.9 103
  124.0517 4.9 51
  125.06 2.8 29
  138.0675 18.4 193
  139.0388 42.3 444
  139.0724 2.2 23
  151.0372 1.6 16
  152.0467 2.9 30
  153.0543 1.5 15
  154.0626 95.1 999
  169.0847 3 31
  195.065 3.8 39
  198.051 1 10
//
