ACCESSION: MSBNK-BAFG-CSL23103016602
RECORD_TITLE: Desethylterbuthylazine; LC-ESI-QTOF; MS2; 100 V
DATE: 2023.10.30
AUTHORS: Kevin S. Jewell; Björn Ehlig; Arne Wick
LICENSE: dl-de/by-2-0
COPYRIGHT: Copyright 2023 Federal Institute of Hydrology, Koblenz, Germany
COMMENT: CONFIDENCE Reference Standard (Level 1)
COMMENT: Chromatography method: dx.doi.org/10.1016/j.chroma.2015.11.014
COMMENT: Acquisition method: 10.1002/rcm.8541
CH$NAME: Desethylterbuthylazine
CH$COMPOUND_CLASS: Herbicide; Transformation_product; Metabolite
CH$FORMULA: C7H12ClN5
CH$EXACT_MASS: 201.0781
CH$SMILES: CC(C)(C)NC1=NC(=NC(=N1)N)Cl
CH$IUPAC: InChI=1S/C7H12ClN5/c1-7(2,3)13-6-11-4(8)10-5(9)12-6/h1-3H3,(H3,9,10,11,12,13)
CH$LINK: CAS 30125-63-4
CH$LINK: INCHIKEY LMKQNTMFZLAJDV-UHFFFAOYSA-N
AC$INSTRUMENT: TripleTOF 6600 SCIEX
AC$INSTRUMENT_TYPE: LC-ESI-QTOF
AC$MASS_SPECTROMETRY: MS_TYPE MS2
AC$MASS_SPECTROMETRY: ION_MODE POSITIVE
AC$MASS_SPECTROMETRY: COLLISION_ENERGY 100
AC$MASS_SPECTROMETRY: FRAGMENTATION_MODE CID
AC$MASS_SPECTROMETRY: IONIZATION ESI
AC$CHROMATOGRAPHY: COLUMN_NAME Zorbax Eclipse Plus C18 2.1 mm x 150 mm, 3.5 um, Agilent
AC$CHROMATOGRAPHY: COLUMN_TEMPERATURE 40 °C
AC$CHROMATOGRAPHY: FLOW_GRADIENT 0 min min 98% A, 1 min 98% A, 2 min 80% A, 16.5 min 2% A, 22 min 2% A, 22.1 min 98% A, 27 min 98% A
AC$CHROMATOGRAPHY: FLOW_RATE 0.3 mL/min
AC$CHROMATOGRAPHY: RETENTION_TIME 9.136 min
AC$CHROMATOGRAPHY: SOLVENT A: Water 0.1% Formic acid, B: Acetonitrile 0.1% Formic acid
MS$FOCUSED_ION: PRECURSOR_M/Z 202.0854
MS$FOCUSED_ION: PRECURSOR_TYPE [M+H]+
MS$DATA_PROCESSING: COMMENT Export with Spectra 1.9.12 MsBackendMassbank 1.7.4
MS$DATA_PROCESSING: WHOLE RMassBank 2.3.1
PK$SPLASH: splash10-03dl-9000000000-0ceea908c7a299b16f3d
PK$NUM_PEAK: 14
PK$PEAK: m/z int. rel.int.
  35.999 3.1 10
  37.0075 11.5 38
  38.0025 3.7 12
  38.0151 9.4 31
  39.0231 42.6 144
  41.0136 15.9 53
  41.0383 7.7 26
  42.0216 17.8 60
  42.0328 3.8 12
  43.0296 250.2 846
  53.0135 9.1 30
  61.9795 295.2 999
  68.0245 87.6 296
  86.9741 3.1 10
//
