ACCESSION: MSBNK-BAFG-CSL25010634486
RECORD_TITLE: Disperse brown 1; LC-ESI-QTOF; MS2; 150 V
DATE: 2025.01.06
AUTHORS: Ole Lessmann; Kevin S. Jewell; Björn Ehlig; Arne Wick
LICENSE: dl-de/by-2-0
COPYRIGHT: Copyright 2025 Federal Institute of Hydrology, Koblenz, Germany
COMMENT: CONFIDENCE Reference Standard (Level 1)
COMMENT: Chromatography method: dx.doi.org/10.1016/j.chroma.2015.11.014
COMMENT: Acquisition method: 10.1002/rcm.8541
CH$NAME: Disperse brown 1
CH$FORMULA: C16H15Cl3N4O4
CH$EXACT_MASS: 432.0159
CH$SMILES: C1=CC(=C(C=C1N(CCO)CCO)Cl)N=NC2=C(C=C(C=C2Cl)[N+](=O)[O-])Cl
CH$IUPAC: InChI=1S/C16H15Cl3N4O4/c17-12-7-10(22(3-5-24)4-6-25)1-2-15(12)20-21-16-13(18)8-11(23(26)27)9-14(16)19/h1-2,7-9,24-25H,3-6H2
CH$LINK: CAS 23355-64-8
CH$LINK: INCHIKEY HXXLWTPFYWMBSC-UHFFFAOYSA-N
AC$INSTRUMENT: TripleTOF 6600 SCIEX
AC$INSTRUMENT_TYPE: LC-ESI-QTOF
AC$MASS_SPECTROMETRY: MS_TYPE MS2
AC$MASS_SPECTROMETRY: ION_MODE POSITIVE
AC$MASS_SPECTROMETRY: COLLISION_ENERGY 150
AC$MASS_SPECTROMETRY: FRAGMENTATION_MODE CID
AC$MASS_SPECTROMETRY: IONIZATION ESI
AC$CHROMATOGRAPHY: COLUMN_NAME Zorbax Eclipse Plus C18 2.1 mm x 150 mm, 3.5 um, Agilent
AC$CHROMATOGRAPHY: COLUMN_TEMPERATURE 40 °C
AC$CHROMATOGRAPHY: FLOW_GRADIENT 0 min min 98% A, 1 min 98% A, 2 min 80% A, 16.5 min 2% A, 22 min 2% A, 22.1 min 98% A, 27 min 98% A
AC$CHROMATOGRAPHY: FLOW_RATE 0.3 mL/min
AC$CHROMATOGRAPHY: RETENTION_TIME 12.39 min
AC$CHROMATOGRAPHY: SOLVENT A: Water 0.1% Formic acid, B: Acetonitrile 0.1% Formic acid
MS$FOCUSED_ION: PRECURSOR_M/Z 433.0232
MS$FOCUSED_ION: PRECURSOR_TYPE [M+H]+
MS$DATA_PROCESSING: COMMENT Export with pycsl 0.1.0.dev1 and CSL 24.4
PK$SPLASH: splash10-05i0-9200000000-0b356c0fc62f2cb81568
PK$NUM_PEAK: 22
PK$PEAK: m/z int. rel.int.
  48.9866 0.4 70
  51.0233 0.5 87
  62.0147 0.4 70
  63.022 1.8 315
  65.0384 0.5 87
  72.9846 1.3 227
  73.0066 0.5 87
  74.0153 5.7 999
  75.023 2.1 368
  76.0181 2.8 490
  77.0385 1.0 175
  78.0343 0.9 157
  83.9762 1.0 175
  89.0384 0.5 87
  90.0337 0.4 70
  96.9834 0.4 70
  104.0508 0.5 87
  107.9769 2.8 490
  108.9831 1.7 297
  123.0238 0.5 87
  150.0466 0.5 87
  164.049 0.5 87
//