ACCESSION: MSBNK-BAFG-CSL23111010964
RECORD_TITLE: 3-Chloro-5-(trifluoromethyl)pyridin-2-ol; LC-ESI-QTOF; MS2; 80 V
DATE: 2023.11.10
AUTHORS: Kevin S. Jewell; Björn Ehlig; Arne Wick
LICENSE: dl-de/by-2-0
COPYRIGHT: Copyright 2023 Federal Institute of Hydrology, Koblenz, Germany
COMMENT: CONFIDENCE Reference Standard (Level 1)
COMMENT: Chromatography method: dx.doi.org/10.1016/j.chroma.2015.11.014
COMMENT: Acquisition method: 10.1002/rcm.8541
CH$NAME: 3-Chloro-5-(trifluoromethyl)pyridin-2-ol
CH$COMPOUND_CLASS: Herbicide
CH$FORMULA: C6H3ClF3NO
CH$EXACT_MASS: 196.9855
CH$SMILES: C1=C(C(=O)NC=C1C(F)(F)F)Cl
CH$IUPAC: InChI=1S/C6H3ClF3NO/c7-4-1-3(6(8,9)10)2-11-5(4)12/h1-2H,(H,11,12)
CH$LINK: CAS 76041-71-9
CH$LINK: INCHIKEY AJPOOWWMZOPUCG-UHFFFAOYSA-N
AC$INSTRUMENT: TripleTOF 5600 SCIEX
AC$INSTRUMENT_TYPE: LC-ESI-QTOF
AC$MASS_SPECTROMETRY: MS_TYPE MS2
AC$MASS_SPECTROMETRY: ION_MODE NEGATIVE
AC$MASS_SPECTROMETRY: COLLISION_ENERGY 80
AC$MASS_SPECTROMETRY: FRAGMENTATION_MODE CID
AC$MASS_SPECTROMETRY: IONIZATION ESI
AC$CHROMATOGRAPHY: COLUMN_NAME Zorbax Eclipse Plus C18 2.1 mm x 150 mm, 3.5 um, Agilent
AC$CHROMATOGRAPHY: COLUMN_TEMPERATURE 40 °C
AC$CHROMATOGRAPHY: FLOW_GRADIENT 0 min min 98% A, 1 min 98% A, 2 min 80% A, 16.5 min 2% A, 22 min 2% A, 22.1 min 98% A, 27 min 98% A
AC$CHROMATOGRAPHY: FLOW_RATE 0.3 mL/min
AC$CHROMATOGRAPHY: RETENTION_TIME 7.86 min
AC$CHROMATOGRAPHY: SOLVENT A: Water 0.1% Formic acid, B: Acetonitrile 0.1% Formic acid
MS$FOCUSED_ION: PRECURSOR_M/Z 195.9782
MS$FOCUSED_ION: PRECURSOR_TYPE [M-H]-
MS$DATA_PROCESSING: COMMENT Export with Spectra 1.9.12 MsBackendMassbank 1.7.4
MS$DATA_PROCESSING: WHOLE RMassBank 2.3.1
PK$SPLASH: splash10-001i-9000000000-c5ae1c2ae482e6fd708c
PK$NUM_PEAK: 2
PK$PEAK: m/z int. rel.int.
  34.969 3.6 999
  62.0039 0.4 111
//
