ACCESSION: MSBNK-BAFG-CSL23103018623
RECORD_TITLE: Flutamide; LC-ESI-QTOF; MS2; 70 V
DATE: 2023.10.30
AUTHORS: Kevin S. Jewell; Björn Ehlig; Arne Wick
LICENSE: dl-de/by-2-0
COPYRIGHT: Copyright 2023 Federal Institute of Hydrology, Koblenz, Germany
COMMENT: CONFIDENCE Reference Standard (Level 1)
COMMENT: Chromatography method: dx.doi.org/10.1016/j.chroma.2015.11.014
COMMENT: Acquisition method: 10.1002/rcm.8541
CH$NAME: Flutamide
CH$COMPOUND_CLASS: Pharmaceutical
CH$FORMULA: C11H11F3N2O3
CH$EXACT_MASS: 276.0722
CH$SMILES: CC(C)C(=O)NC1=CC(=C(C=C1)[N+](=O)[O-])C(F)(F)F
CH$IUPAC: InChI=1S/C11H11F3N2O3/c1-6(2)10(17)15-7-3-4-9(16(18)19)8(5-7)11(12,13)14/h3-6H,1-2H3,(H,15,17)
CH$LINK: CAS 13311-84-7
CH$LINK: INCHIKEY MKXKFYHWDHIYRV-UHFFFAOYSA-N
AC$INSTRUMENT: TripleTOF 6600 SCIEX
AC$INSTRUMENT_TYPE: LC-ESI-QTOF
AC$MASS_SPECTROMETRY: MS_TYPE MS2
AC$MASS_SPECTROMETRY: ION_MODE POSITIVE
AC$MASS_SPECTROMETRY: COLLISION_ENERGY 70
AC$MASS_SPECTROMETRY: FRAGMENTATION_MODE CID
AC$MASS_SPECTROMETRY: IONIZATION ESI
AC$CHROMATOGRAPHY: COLUMN_NAME Zorbax Eclipse Plus C18 2.1 mm x 150 mm, 3.5 um, Agilent
AC$CHROMATOGRAPHY: COLUMN_TEMPERATURE 40 °C
AC$CHROMATOGRAPHY: FLOW_GRADIENT 0 min min 98% A, 1 min 98% A, 2 min 80% A, 16.5 min 2% A, 22 min 2% A, 22.1 min 98% A, 27 min 98% A
AC$CHROMATOGRAPHY: FLOW_RATE 0.3 mL/min
AC$CHROMATOGRAPHY: RETENTION_TIME 12.297 min
AC$CHROMATOGRAPHY: SOLVENT A: Water 0.1% Formic acid, B: Acetonitrile 0.1% Formic acid
MS$FOCUSED_ION: PRECURSOR_M/Z 277.0795
MS$FOCUSED_ION: PRECURSOR_TYPE [M+H]+
MS$DATA_PROCESSING: COMMENT Export with Spectra 1.9.12 MsBackendMassbank 1.7.4
MS$DATA_PROCESSING: WHOLE RMassBank 2.3.1
PK$SPLASH: splash10-0006-9600000000-1125a475c0147ab80510
PK$NUM_PEAK: 42
PK$PEAK: m/z int. rel.int.
  37.0061 0.5 31
  38.0023 0.5 31
  38.0156 0.4 24
  39.0226 4.9 304
  40.0065 0.3 18
  41.0382 16.1 999
  43.054 14.7 912
  53.0131 0.2 12
  65.0385 1 62
  75.0208 0.3 18
  83.0282 0.6 37
  84.0353 1.6 99
  88.0116 0.8 49
  91.0406 0.7 43
  92.0486 0.6 37
  95.0271 0.4 24
  99.0037 0.2 12
  100.0159 0.2 12
  101.019 0.2 12
  101.0444 0.3 18
  102.0458 0.2 12
  111.0472 6.6 409
  113.0186 0.7 43
  114.0256 5.1 316
  115.033 0.4 24
  120.02 0.2 12
  122.039 0.6 37
  125.0201 0.4 24
  132.0131 0.2 12
  133.0236 0.6 37
  133.0374 0.2 12
  134.0334 0.3 18
  140.0282 1.3 80
  141.0243 0.2 12
  141.0375 0.7 43
  142.0447 7 434
  143.0068 0.4 24
  145.0272 0.2 12
  148.0367 0.3 18
  160.0346 2.2 136
  161.0421 1.3 80
  192.0634 0.2 12
//
