ACCESSION: MSBNK-BAFG-CSL23103010083
RECORD_TITLE: 2-Phenylbenzimidazole-5-sulfonic acid; LC-ESI-QTOF; MS2; 90 V
DATE: 2023.10.30
AUTHORS: Kevin S. Jewell; Björn Ehlig; Arne Wick
LICENSE: dl-de/by-2-0
COPYRIGHT: Copyright 2023 Federal Institute of Hydrology, Koblenz, Germany
COMMENT: CONFIDENCE Reference Standard (Level 1)
COMMENT: Chromatography method: dx.doi.org/10.1016/j.chroma.2015.11.014
COMMENT: Acquisition method: 10.1002/rcm.8541
CH$NAME: 2-Phenylbenzimidazole-5-sulfonic acid
CH$COMPOUND_CLASS: Personal_care_product
CH$FORMULA: C13H10N2O3S
CH$EXACT_MASS: 274.0412
CH$SMILES: C1=CC=C(C=C1)C2=NC3=C(N2)C=C(C=C3)S(=O)(=O)O
CH$IUPAC: InChI=1S/C13H10N2O3S/c16-19(17,18)10-6-7-11-12(8-10)15-13(14-11)9-4-2-1-3-5-9/h1-8H,(H,14,15)(H,16,17,18)
CH$LINK: CAS 27503-81-7
CH$LINK: INCHIKEY UVCJGUGAGLDPAA-UHFFFAOYSA-N
AC$INSTRUMENT: TripleTOF 5600 SCIEX
AC$INSTRUMENT_TYPE: LC-ESI-QTOF
AC$MASS_SPECTROMETRY: MS_TYPE MS2
AC$MASS_SPECTROMETRY: ION_MODE POSITIVE
AC$MASS_SPECTROMETRY: COLLISION_ENERGY 90
AC$MASS_SPECTROMETRY: FRAGMENTATION_MODE CID
AC$MASS_SPECTROMETRY: IONIZATION ESI
AC$CHROMATOGRAPHY: COLUMN_NAME Zorbax Eclipse Plus C18 2.1 mm x 150 mm, 3.5 um, Agilent
AC$CHROMATOGRAPHY: COLUMN_TEMPERATURE 40 °C
AC$CHROMATOGRAPHY: FLOW_GRADIENT 0 min min 98% A, 1 min 98% A, 2 min 80% A, 16.5 min 2% A, 22 min 2% A, 22.1 min 98% A, 27 min 98% A
AC$CHROMATOGRAPHY: FLOW_RATE 0.3 mL/min
AC$CHROMATOGRAPHY: RETENTION_TIME 5.039 min
AC$CHROMATOGRAPHY: SOLVENT A: Water 0.1% Formic acid, B: Acetonitrile 0.1% Formic acid
MS$FOCUSED_ION: PRECURSOR_M/Z 275.0485
MS$FOCUSED_ION: PRECURSOR_TYPE [M+H]+
MS$DATA_PROCESSING: COMMENT Export with Spectra 1.9.12 MsBackendMassbank 1.7.4
MS$DATA_PROCESSING: WHOLE RMassBank 2.3.1
PK$SPLASH: splash10-000l-4900000000-d6dc0a7959be7c22c737
PK$NUM_PEAK: 29
PK$PEAK: m/z int. rel.int.
  52.0311 0.4 36
  62.0361 0.4 36
  64.038 3.6 324
  65.0313 0.5 45
  65.045 1.9 171
  77.0438 4.7 423
  81.0393 0.4 36
  89.0433 8.9 801
  90.0494 3 270
  91.0461 1.3 117
  92.0562 0.4 36
  104.0517 3 270
  113.0424 1.3 117
  114.0482 0.4 36
  115.0568 2.3 207
  116.0506 1 90
  127.0564 0.7 62
  138.0456 1.8 162
  139.0556 11.1 999
  140.05 7.6 684
  154.0654 0.5 45
  164.0489 2.6 234
  165.0589 2 180
  166.0649 6 540
  167.0706 1.8 162
  168.0675 0.4 36
  191.0587 2.4 216
  192.0677 6.1 548
  193.0793 2.7 243
//
