ACCESSION: MSBNK-BAFG-CSL2310261787
RECORD_TITLE: Hydroxytorasemide; LC-ESI-QTOF; MS2; 130 V
DATE: 2023.10.26
AUTHORS: Kevin S. Jewell; Björn Ehlig; Arne Wick
LICENSE: dl-de/by-2-0
COPYRIGHT: Copyright 2023 Federal Institute of Hydrology, Koblenz, Germany
COMMENT: CONFIDENCE Reference Standard (Level 1)
COMMENT: Chromatography method: dx.doi.org/10.1016/j.chroma.2015.11.014
COMMENT: Acquisition method: 10.1002/rcm.8541
CH$NAME: Hydroxytorasemide
CH$COMPOUND_CLASS: Pharmaceutical; Transformation_product
CH$FORMULA: C16H20N4O4S
CH$EXACT_MASS: 364.1205
CH$SMILES: CC(C)NC(=O)NS(=O)(=O)c1cnccc1Nc2cccc(c2)CO
CH$IUPAC: InChI=1S/C16H20N4O4S/c1-11(2)18-16(22)20-25(23,24)15-9-17-7-6-14(15)19-13-5-3-4-12(8-13)10-21/h3-9,11,21H,10H2,1-2H3,(H,17,19)(H2,18,20,22)
CH$LINK: CAS 99300-68-2
CH$LINK: INCHIKEY WCYVLAMJCQZUCR-UHFFFAOYSA-N
AC$INSTRUMENT: TripleTOF 5600 SCIEX
AC$INSTRUMENT_TYPE: LC-ESI-QTOF
AC$MASS_SPECTROMETRY: MS_TYPE MS2
AC$MASS_SPECTROMETRY: ION_MODE NEGATIVE
AC$MASS_SPECTROMETRY: COLLISION_ENERGY 130
AC$MASS_SPECTROMETRY: FRAGMENTATION_MODE CID
AC$MASS_SPECTROMETRY: IONIZATION ESI
AC$CHROMATOGRAPHY: COLUMN_NAME Zorbax Eclipse Plus C18 2.1 mm x 150 mm, 3.5 um, Agilent
AC$CHROMATOGRAPHY: COLUMN_TEMPERATURE 40 °C
AC$CHROMATOGRAPHY: FLOW_GRADIENT 0 min min 98% A, 1 min 98% A, 2 min 80% A, 16.5 min 2% A, 22 min 2% A, 22.1 min 98% A, 27 min 98% A
AC$CHROMATOGRAPHY: FLOW_RATE 0.3 mL/min
AC$CHROMATOGRAPHY: RETENTION_TIME 5.824 min
AC$CHROMATOGRAPHY: SOLVENT A: Water 0.1% Formic acid, B: Acetonitrile 0.1% Formic acid
MS$FOCUSED_ION: PRECURSOR_M/Z 363.1132
MS$FOCUSED_ION: PRECURSOR_TYPE [M-H]-
MS$DATA_PROCESSING: COMMENT Export with Spectra 1.9.12 MsBackendMassbank 1.7.4
MS$DATA_PROCESSING: WHOLE RMassBank 2.3.1
PK$SPLASH: splash10-01tc-9200000000-e92e5c8ed42afaf5d403
PK$NUM_PEAK: 18
PK$PEAK: m/z int. rel.int.
  42.0018 0.6 69
  47.9689 1.4 162
  50.0088 0.7 81
  57.9759 0.5 58
  61.9718 2.2 255
  63.9637 4.2 487
  65.016 0.6 69
  77.9656 8.6 999
  78.9739 0.8 92
  91.0307 1.7 197
  93.045 5.5 638
  107.0468 0.7 81
  108.0547 0.8 92
  165.0456 1.3 151
  167.0634 1.5 174
  168.0629 0.5 58
  178.0538 1 116
  179.0609 1.3 151
//
