ACCESSION: MSBNK-BAFG-CSL23102612869
RECORD_TITLE: Olmesartan-d6; LC-ESI-QTOF; MS2; 150 V
DATE: 2023.10.26
AUTHORS: Kevin S. Jewell; Björn Ehlig; Arne Wick
LICENSE: dl-de/by-2-0
COPYRIGHT: Copyright 2023 Federal Institute of Hydrology, Koblenz, Germany
COMMENT: CONFIDENCE Reference Standard (Level 1)
COMMENT: Chromatography method: dx.doi.org/10.1016/j.chroma.2015.11.014
COMMENT: Acquisition method: 10.1002/rcm.8541
CH$NAME: Olmesartan-d6
CH$COMPOUND_CLASS: Surrogate_standard
CH$FORMULA: C24H20N6O3 2H6
CH$EXACT_MASS: 452.2443
CH$SMILES: [2H]C([2H])([2H])C(C1=C(N(C(=N1)CCC)CC2=CC=C(C=C2)C3=CC=CC=C3C4=NNN=N4)C(=O)O)(C([2H])([2H])[2H])O
CH$IUPAC: InChI=1S/C24H26N6O3/c1-4-7-19-25-21(24(2,3)33)20(23(31)32)30(19)14-15-10-12-16(13-11-15)17-8-5-6-9-18(17)22-26-28-29-27-22/h5-6,8-13,33H,4,7,14H2,1-3H3,(H,31,32)(H,26,27,28,29)/i2D3,3D3
CH$LINK: CAS 1185144-74-4
CH$LINK: INCHIKEY VTRAEEWXHOVJFV-XERRXZQWSA-N
AC$INSTRUMENT: TripleTOF 5600 SCIEX
AC$INSTRUMENT_TYPE: LC-ESI-QTOF
AC$MASS_SPECTROMETRY: MS_TYPE MS2
AC$MASS_SPECTROMETRY: ION_MODE POSITIVE
AC$MASS_SPECTROMETRY: COLLISION_ENERGY 150
AC$MASS_SPECTROMETRY: FRAGMENTATION_MODE CID
AC$MASS_SPECTROMETRY: IONIZATION ESI
AC$CHROMATOGRAPHY: COLUMN_NAME Zorbax Eclipse Plus C18 2.1 mm x 150 mm, 3.5 um, Agilent
AC$CHROMATOGRAPHY: COLUMN_TEMPERATURE 40 °C
AC$CHROMATOGRAPHY: FLOW_GRADIENT 0 min min 98% A, 1 min 98% A, 2 min 80% A, 16.5 min 2% A, 22 min 2% A, 22.1 min 98% A, 27 min 98% A
AC$CHROMATOGRAPHY: FLOW_RATE 0.3 mL/min
AC$CHROMATOGRAPHY: RETENTION_TIME 7.306 min
AC$CHROMATOGRAPHY: SOLVENT A: Water 0.1% Formic acid, B: Acetonitrile 0.1% Formic acid
MS$FOCUSED_ION: PRECURSOR_M/Z 453.2527
MS$FOCUSED_ION: PRECURSOR_TYPE [M+H]+
MS$DATA_PROCESSING: COMMENT Export with Spectra 1.9.12 MsBackendMassbank 1.7.4
MS$DATA_PROCESSING: WHOLE RMassBank 2.3.1
PK$SPLASH: splash10-0udi-0900000000-f82df70412f09c0a09a9
PK$NUM_PEAK: 56
PK$PEAK: m/z int. rel.int.
  51.029 3.3 48
  63.0277 2.1 31
  75.0257 2.2 32
  77.0427 6.9 101
  78.05 1.5 22
  85.0104 0.9 13
  86.0179 1.9 28
  87.0251 4.5 66
  88.0328 1.2 17
  89.0415 5.3 78
  98.0164 2.6 38
  99.024 2.5 36
  100.0316 1.2 17
  101.0408 2.5 36
  102.0477 5.9 87
  110.0189 1.5 22
  111.0242 1.2 17
  113.0406 7.9 116
  114.0401 5.1 75
  115.0556 8.9 131
  123.0235 0.9 13
  125.0382 5.2 76
  126.0469 11.8 174
  127.0543 11.2 165
  128.0465 0.7 10
  128.0631 5.2 76
  137.0387 9.1 134
  138.0452 6 88
  139.0546 11.6 171
  140.0498 14.4 212
  141.0564 1.1 16
  149.0389 3.5 51
  150.0465 41.1 607
  151.0546 67.6 999
  152.062 56 827
  153.0659 6 88
  161.0381 5.1 75
  162.0473 10.5 155
  163.0539 44.1 651
  164.0515 31.2 461
  165.0691 10.2 150
  166.0645 2 29
  174.0452 1 14
  175.0519 2.6 38
  176.0612 30.7 453
  177.0597 17.9 264
  178.0653 11.5 169
  179.0625 2.5 36
  187.0426 1 14
  188.0478 14.2 209
  189.0565 6.7 99
  190.0655 24.2 357
  191.0655 2.1 31
  192.0655 0.9 13
  203.0592 0.8 11
  205.0765 4.4 65
//
