ACCESSION: MSBNK-BAFG-CSL2310266919
RECORD_TITLE: Propranolol; LC-ESI-QTOF; MS2; 50 V
DATE: 2023.10.26
AUTHORS: Kevin S. Jewell; Björn Ehlig; Arne Wick
LICENSE: dl-de/by-2-0
COPYRIGHT: Copyright 2023 Federal Institute of Hydrology, Koblenz, Germany
COMMENT: CONFIDENCE Reference Standard (Level 1)
COMMENT: Chromatography method: dx.doi.org/10.1016/j.chroma.2015.11.014
COMMENT: Acquisition method: 10.1002/rcm.8541
CH$NAME: Propranolol
CH$COMPOUND_CLASS: Pharmaceutical
CH$FORMULA: C16H21NO2
CH$EXACT_MASS: 259.1572
CH$SMILES: CC(C)NCC(O)COc1cccc2ccccc12
CH$IUPAC: InChI=1S/C16H21NO2/c1-12(2)17-10-14(18)11-19-16-9-5-7-13-6-3-4-8-15(13)16/h3-9,12,14,17-18H,10-11H2,1-2H3
CH$LINK: CAS 525-66-6
CH$LINK: INCHIKEY AQHHHDLHHXJYJD-UHFFFAOYSA-N
AC$INSTRUMENT: TripleTOF 5600 SCIEX
AC$INSTRUMENT_TYPE: LC-ESI-QTOF
AC$MASS_SPECTROMETRY: MS_TYPE MS2
AC$MASS_SPECTROMETRY: ION_MODE POSITIVE
AC$MASS_SPECTROMETRY: COLLISION_ENERGY 50
AC$MASS_SPECTROMETRY: FRAGMENTATION_MODE CID
AC$MASS_SPECTROMETRY: IONIZATION ESI
AC$CHROMATOGRAPHY: COLUMN_NAME Zorbax Eclipse Plus C18 2.1 mm x 150 mm, 3.5 um, Agilent
AC$CHROMATOGRAPHY: COLUMN_TEMPERATURE 40 °C
AC$CHROMATOGRAPHY: FLOW_GRADIENT 0 min min 98% A, 1 min 98% A, 2 min 80% A, 16.5 min 2% A, 22 min 2% A, 22.1 min 98% A, 27 min 98% A
AC$CHROMATOGRAPHY: FLOW_RATE 0.3 mL/min
AC$CHROMATOGRAPHY: RETENTION_TIME 7.356 min
AC$CHROMATOGRAPHY: SOLVENT A: Water 0.1% Formic acid, B: Acetonitrile 0.1% Formic acid
MS$FOCUSED_ION: PRECURSOR_M/Z 260.1645
MS$FOCUSED_ION: PRECURSOR_TYPE [M+H]+
MS$DATA_PROCESSING: COMMENT Export with Spectra 1.9.12 MsBackendMassbank 1.7.4
MS$DATA_PROCESSING: WHOLE RMassBank 2.3.1
PK$SPLASH: splash10-004i-2900000000-3779fb321bdcad7f8033
PK$NUM_PEAK: 33
PK$PEAK: m/z int. rel.int.
  44.0571 2.3 15
  56.0561 56.5 383
  58.071 34 231
  72.0844 21.7 147
  74.0633 28.8 195
  77.0413 6.9 46
  84.082 5 33
  91.056 2.9 19
  98.0979 4.8 32
  100.1129 13 88
  115.0547 42.3 287
  116.063 2.2 14
  116.1071 8 54
  117.0708 7.8 53
  126.0465 2.6 17
  127.055 91 618
  128.062 147 999
  129.0705 67.6 459
  139.0562 1.6 10
  141.0691 9.6 65
  144.0565 2.7 18
  145.0645 7.7 52
  152.062 6.8 46
  153.0703 52.9 359
  154.0782 20.4 138
  155.0858 46.5 316
  157.0651 17.2 116
  164.0618 2 13
  165.0703 38.3 260
  168.0573 11.5 78
  181.0639 2.4 16
  182.0706 2.3 15
  183.0808 2.2 14
//
