ACCESSION: MSBNK-BAFG-CSL23111017510
RECORD_TITLE: Methylecgonidine; LC-ESI-QTOF; MS2; 80 V
DATE: 2023.11.10
AUTHORS: Kevin S. Jewell; Björn Ehlig; Arne Wick
LICENSE: dl-de/by-2-0
COPYRIGHT: Copyright 2023 Federal Institute of Hydrology, Koblenz, Germany
COMMENT: CONFIDENCE Reference Standard (Level 1)
COMMENT: Chromatography method: dx.doi.org/10.1016/j.chroma.2015.11.014
COMMENT: Acquisition method: 10.1002/rcm.8541
CH$NAME: Methylecgonidine
CH$COMPOUND_CLASS: Metabolite
CH$FORMULA: C10H15NO2
CH$EXACT_MASS: 181.1103
CH$SMILES: CN1C2CCC1C(=CC2)C(=O)OC
CH$IUPAC: InChI=1S/C10H15NO2/c1-11-7-3-5-8(10(12)13-2)9(11)6-4-7/h5,7,9H,3-4,6H2,1-2H3
CH$LINK: CAS 43021-26-7
CH$LINK: INCHIKEY MPSNEAHFGOEKBI-UHFFFAOYSA-N
AC$INSTRUMENT: TripleTOF 6600 SCIEX
AC$INSTRUMENT_TYPE: LC-ESI-QTOF
AC$MASS_SPECTROMETRY: MS_TYPE MS2
AC$MASS_SPECTROMETRY: ION_MODE POSITIVE
AC$MASS_SPECTROMETRY: COLLISION_ENERGY 80
AC$MASS_SPECTROMETRY: FRAGMENTATION_MODE CID
AC$MASS_SPECTROMETRY: IONIZATION ESI
AC$CHROMATOGRAPHY: COLUMN_NAME Zorbax Eclipse Plus C18 2.1 mm x 150 mm, 3.5 um, Agilent
AC$CHROMATOGRAPHY: COLUMN_TEMPERATURE 40 °C
AC$CHROMATOGRAPHY: FLOW_GRADIENT 0 min min 98% A, 1 min 98% A, 2 min 80% A, 16.5 min 2% A, 22 min 2% A, 22.1 min 98% A, 27 min 98% A
AC$CHROMATOGRAPHY: FLOW_RATE 0.3 mL/min
AC$CHROMATOGRAPHY: RETENTION_TIME 4.43 min
AC$CHROMATOGRAPHY: SOLVENT A: Water 0.1% Formic acid, B: Acetonitrile 0.1% Formic acid
MS$FOCUSED_ION: PRECURSOR_M/Z 182.1176
MS$FOCUSED_ION: PRECURSOR_TYPE [M+H]+
MS$DATA_PROCESSING: COMMENT Export with Spectra 1.9.12 MsBackendMassbank 1.7.4
MS$DATA_PROCESSING: WHOLE RMassBank 2.3.1
PK$SPLASH: splash10-000i-9000000000-6a207aad479fbcc1aa3f
PK$NUM_PEAK: 18
PK$PEAK: m/z int. rel.int.
  37.0071 1.2 153
  38.0152 1 128
  39.023 7.8 999
  41.0383 0.8 102
  42.0338 1.3 166
  50.0148 1.1 140
  51.0227 3.1 397
  52.0307 0.5 64
  53.0384 0.8 102
  56.05 0.6 76
  63.0232 1.3 166
  65.0384 3.1 397
  77.0383 1.6 204
  79.0535 0.5 64
  80.0489 0.5 64
  89.0381 2.8 358
  91.0539 0.9 115
  106.0644 0.5 64
//
