ACCESSION: MSBNK-BAFG-CSL25010627874
RECORD_TITLE: Iminostilbene; LC-ESI-QTOF; MS2; 150 V
DATE: 2025.01.06
AUTHORS: Ole Lessmann; Kevin S. Jewell; Björn Ehlig; Arne Wick
LICENSE: dl-de/by-2-0
COPYRIGHT: Copyright 2025 Federal Institute of Hydrology, Koblenz, Germany
COMMENT: CONFIDENCE Reference Standard (Level 1)
COMMENT: Chromatography method: dx.doi.org/10.1016/j.chroma.2015.11.014
COMMENT: Acquisition method: 10.1002/rcm.8541
CH$NAME: Iminostilbene
CH$COMPOUND_CLASS: Pharmaceutical
CH$FORMULA: C14H11N
CH$EXACT_MASS: 193.0891
CH$SMILES: C1=CC=C2C(=C1)C=CC3=CC=CC=C3N2
CH$IUPAC: InChI=1S/C14H11N/c1-3-7-13-11(5-1)9-10-12-6-2-4-8-14(12)15-13/h1-10,15H
CH$LINK: CAS 256-96-2
CH$LINK: INCHIKEY LCGTWRLJTMHIQZ-UHFFFAOYSA-N
AC$INSTRUMENT: TripleTOF 6600 SCIEX
AC$INSTRUMENT_TYPE: LC-ESI-QTOF
AC$MASS_SPECTROMETRY: MS_TYPE MS2
AC$MASS_SPECTROMETRY: ION_MODE POSITIVE
AC$MASS_SPECTROMETRY: COLLISION_ENERGY 150
AC$MASS_SPECTROMETRY: FRAGMENTATION_MODE CID
AC$MASS_SPECTROMETRY: IONIZATION ESI
AC$CHROMATOGRAPHY: COLUMN_NAME Zorbax Eclipse Plus C18 2.1 mm x 150 mm, 3.5 um, Agilent
AC$CHROMATOGRAPHY: COLUMN_TEMPERATURE 40 °C
AC$CHROMATOGRAPHY: FLOW_GRADIENT 0 min min 98% A, 1 min 98% A, 2 min 80% A, 16.5 min 2% A, 22 min 2% A, 22.1 min 98% A, 27 min 98% A
AC$CHROMATOGRAPHY: FLOW_RATE 0.3 mL/min
AC$CHROMATOGRAPHY: RETENTION_TIME 13.175 min
AC$CHROMATOGRAPHY: SOLVENT A: Water 0.1% Formic acid, B: Acetonitrile 0.1% Formic acid
MS$FOCUSED_ION: PRECURSOR_M/Z 194.0964
MS$FOCUSED_ION: PRECURSOR_TYPE [M+H]+
MS$DATA_PROCESSING: COMMENT Export with pycsl 0.1.0.dev1 and CSL 24.4
PK$SPLASH: splash10-0ir0-9000000000-d427c3ee50eea94f0778
PK$NUM_PEAK: 36
PK$PEAK: m/z int. rel.int.
  35.9962 25.1 126
  37.0042 95.8 483
  38.0013 5.4 27
  38.0117 54.3 273
  39.0195 54.2 273
  49.0029 75.0 378
  50.0108 198.0 999
  51.0183 54.6 275
  52.0136 4.1 20
  59.9939 23.6 119
  61.0019 167.4 844
  62.0095 154.7 780
  63.0173 72.5 365
  64.012 3.3 16
  73.0006 59.1 298
  74.0084 143.5 724
  75.0033 5.9 29
  75.0156 13.5 68
  76.0111 2.2 11
  83.9915 20.8 104
  84.9993 79.9 403
  86.0071 60.0 302
  87.0147 12.4 62
  89.0296 4.5 22
  96.9983 27.3 137
  98.006 47.9 241
  99.0011 3.9 19
  107.9891 5.0 25
  108.9969 32.5 163
  110.0049 16.6 83
  111.0119 2.7 13
  119.9881 3.8 19
  120.996 4.7 23
  122.0028 7.2 36
  131.987 3.5 17
  134.0028 2.0 10
//