ACCESSION: MSBNK-BAFG-CSL2311094995
RECORD_TITLE: Moxidectin; LC-ESI-QTOF; MS2; 30 V
DATE: 2023.11.09
AUTHORS: Kevin S. Jewell; Björn Ehlig; Arne Wick
LICENSE: dl-de/by-2-0
COPYRIGHT: Copyright 2023 Federal Institute of Hydrology, Koblenz, Germany
COMMENT: CONFIDENCE Reference Standard (Level 1)
COMMENT: Chromatography method: dx.doi.org/10.1016/j.chroma.2015.11.014
COMMENT: Acquisition method: 10.1002/rcm.8541
CH$NAME: Moxidectin
CH$COMPOUND_CLASS: Pharmaceutical; Insecticide
CH$FORMULA: C37H53NO8
CH$EXACT_MASS: 639.3771
CH$SMILES: CO\N=C\1C[C@]2(C[C@@H]3C[C@@H](C\C=C(/C)C[C@@H](C)/C=C/C=C/4CO[C@@H]5[C@H](O)C(=C[C@@H](C(=O)O3)[C@]45O)C)O2)OC([C@H]1C)C(/C)=C/C(C)C
CH$IUPAC: InChI=1S/C37H53NO8/c1-21(2)14-25(6)33-26(7)31(38-42-8)19-36(46-33)18-29-17-28(45-36)13-12-23(4)15-22(3)10-9-11-27-20-43-34-32(39)24(5)16-30(35(40)44-29)37(27,34)41/h9-12,14,16,21-22,26,28-30,32-34,39,41H,13,15,17-20H2,1-8H3/b10-9+,23-12+,25-14+,27-11+,38-31+/t22-,26-,28+,29-,30-,32+,33?,34+,36-,37+/m0/s1
CH$LINK: CAS 113507-06-5
CH$LINK: INCHIKEY YZBLFMPOMVTDJY-BFPKLJSTSA-N
AC$INSTRUMENT: TripleTOF 5600 SCIEX
AC$INSTRUMENT_TYPE: LC-ESI-QTOF
AC$MASS_SPECTROMETRY: MS_TYPE MS2
AC$MASS_SPECTROMETRY: ION_MODE POSITIVE
AC$MASS_SPECTROMETRY: COLLISION_ENERGY 30
AC$MASS_SPECTROMETRY: FRAGMENTATION_MODE CID
AC$MASS_SPECTROMETRY: IONIZATION ESI
AC$CHROMATOGRAPHY: COLUMN_NAME Zorbax Eclipse Plus C18 2.1 mm x 150 mm, 3.5 um, Agilent
AC$CHROMATOGRAPHY: COLUMN_TEMPERATURE 40 °C
AC$CHROMATOGRAPHY: FLOW_GRADIENT 0 min min 98% A, 1 min 98% A, 2 min 80% A, 16.5 min 2% A, 22 min 2% A, 22.1 min 98% A, 27 min 98% A
AC$CHROMATOGRAPHY: FLOW_RATE 0.3 mL/min
AC$CHROMATOGRAPHY: RETENTION_TIME 18.457 min
AC$CHROMATOGRAPHY: SOLVENT A: Water 0.1% Formic acid, B: Acetonitrile 0.1% Formic acid
MS$FOCUSED_ION: PRECURSOR_M/Z 640.3844
MS$FOCUSED_ION: PRECURSOR_TYPE [M+H]+
MS$DATA_PROCESSING: COMMENT Export with Spectra 1.9.12 MsBackendMassbank 1.7.4
MS$DATA_PROCESSING: WHOLE RMassBank 2.3.1
PK$SPLASH: splash10-0002-0300911000-399780f19946ccb40181
PK$NUM_PEAK: 35
PK$PEAK: m/z int. rel.int.
  123.1158 0.4 74
  127.1099 0.4 74
  145.065 0.9 166
  145.0983 0.4 74
  148.0748 0.4 74
  159.0815 0.4 74
  159.114 0.8 148
  164.1429 0.4 74
  166.1587 0.9 166
  171.0809 0.4 74
  171.1139 0.7 129
  196.1657 0.5 92
  199.1109 3.2 592
  218.1543 1.4 259
  219.1629 0.7 129
  416.2565 3.9 721
  418.2729 2.6 481
  434.2689 2.1 388
  435.2751 0.9 166
  436.2827 1.6 296
  448.2828 3 554
  460.2419 0.9 166
  466.3034 0.4 74
  478.2571 3.2 592
  479.2671 0.8 148
  496.2679 3 554
  497.2805 0.9 166
  498.2833 5.4 999
  510.2923 1 185
  528.298 2.6 481
  528.3501 0.5 92
  560.382 1.4 259
  590.3506 0.5 92
  622.3751 2.3 425
  640.3796 1.6 296
//
