ACCESSION: MSBNK-BAFG-CSL2310304175
RECORD_TITLE: Metamitron; LC-ESI-QTOF; MS2; 60 V
DATE: 2023.10.30
AUTHORS: Kevin S. Jewell; Björn Ehlig; Arne Wick
LICENSE: dl-de/by-2-0
COPYRIGHT: Copyright 2023 Federal Institute of Hydrology, Koblenz, Germany
COMMENT: CONFIDENCE Reference Standard (Level 1)
COMMENT: Chromatography method: dx.doi.org/10.1016/j.chroma.2015.11.014
COMMENT: Acquisition method: 10.1002/rcm.8541
CH$NAME: Metamitron
CH$COMPOUND_CLASS: Herbicide
CH$FORMULA: C10H10N4O
CH$EXACT_MASS: 202.0855
CH$SMILES: CC1=NN=C(c2ccccc2)C(=O)N1N
CH$IUPAC: InChI=1S/C10H10N4O/c1-7-12-13-9(10(15)14(7)11)8-5-3-2-4-6-8/h2-6H,11H2,1H3
CH$LINK: CAS 41394-05-2
CH$LINK: INCHIKEY VHCNQEUWZYOAEV-UHFFFAOYSA-N
AC$INSTRUMENT: TripleTOF 5600 SCIEX
AC$INSTRUMENT_TYPE: LC-ESI-QTOF
AC$MASS_SPECTROMETRY: MS_TYPE MS2
AC$MASS_SPECTROMETRY: ION_MODE POSITIVE
AC$MASS_SPECTROMETRY: COLLISION_ENERGY 60
AC$MASS_SPECTROMETRY: FRAGMENTATION_MODE CID
AC$MASS_SPECTROMETRY: IONIZATION ESI
AC$CHROMATOGRAPHY: COLUMN_NAME Zorbax Eclipse Plus C18 2.1 mm x 150 mm, 3.5 um, Agilent
AC$CHROMATOGRAPHY: COLUMN_TEMPERATURE 40 °C
AC$CHROMATOGRAPHY: FLOW_GRADIENT 0 min min 98% A, 1 min 98% A, 2 min 80% A, 16.5 min 2% A, 22 min 2% A, 22.1 min 98% A, 27 min 98% A
AC$CHROMATOGRAPHY: FLOW_RATE 0.3 mL/min
AC$CHROMATOGRAPHY: RETENTION_TIME 6.783 min
AC$CHROMATOGRAPHY: SOLVENT A: Water 0.1% Formic acid, B: Acetonitrile 0.1% Formic acid
MS$FOCUSED_ION: PRECURSOR_M/Z 203.0927
MS$FOCUSED_ION: PRECURSOR_TYPE [M+H]+
MS$DATA_PROCESSING: COMMENT Export with Spectra 1.9.12 MsBackendMassbank 1.7.4
MS$DATA_PROCESSING: WHOLE RMassBank 2.3.1
PK$SPLASH: splash10-0fbc-9300000000-4b21c76b21aa9b10cbc1
PK$NUM_PEAK: 18
PK$PEAK: m/z int. rel.int.
  42.044 29.3 536
  43.0497 0.9 16
  44.0579 0.7 12
  55.0356 0.6 10
  56.0173 0.6 10
  57.0514 1.4 25
  59.0341 0.6 10
  65.0439 1.4 25
  76.0349 0.6 10
  77.0414 54.6 999
  79.0561 0.7 12
  83.0268 0.7 12
  89.0397 4.2 76
  91.0432 2.7 49
  103.0438 1 18
  104.0497 35 640
  105.0477 0.6 10
  118.0534 1 18
//
