ACCESSION: MSBNK-BAFG-CSL2310266148
RECORD_TITLE: Triphenylphosphine oxide; LC-ESI-QTOF; MS2; 130 V
DATE: 2023.10.26
AUTHORS: Kevin S. Jewell; Björn Ehlig; Arne Wick
LICENSE: dl-de/by-2-0
COPYRIGHT: Copyright 2023 Federal Institute of Hydrology, Koblenz, Germany
COMMENT: CONFIDENCE Reference Standard (Level 1)
COMMENT: Chromatography method: dx.doi.org/10.1016/j.chroma.2015.11.014
COMMENT: Acquisition method: 10.1002/rcm.8541
CH$NAME: Triphenylphosphine oxide
CH$COMPOUND_CLASS: Industrial_process
CH$FORMULA: C18H15OP
CH$EXACT_MASS: 278.0861
CH$SMILES: O=[P](c1ccccc1)(c2ccccc2)c3ccccc3
CH$IUPAC: InChI=1S/C18H15OP/c19-20(16-10-4-1-5-11-16,17-12-6-2-7-13-17)18-14-8-3-9-15-18/h1-15H
CH$LINK: CAS 791-28-6
CH$LINK: INCHIKEY FIQMHBFVRAXMOP-UHFFFAOYSA-N
AC$INSTRUMENT: TripleTOF 5600 SCIEX
AC$INSTRUMENT_TYPE: LC-ESI-QTOF
AC$MASS_SPECTROMETRY: MS_TYPE MS2
AC$MASS_SPECTROMETRY: ION_MODE POSITIVE
AC$MASS_SPECTROMETRY: COLLISION_ENERGY 130
AC$MASS_SPECTROMETRY: FRAGMENTATION_MODE CID
AC$MASS_SPECTROMETRY: IONIZATION ESI
AC$CHROMATOGRAPHY: COLUMN_NAME Zorbax Eclipse Plus C18 2.1 mm x 150 mm, 3.5 um, Agilent
AC$CHROMATOGRAPHY: COLUMN_TEMPERATURE 40 °C
AC$CHROMATOGRAPHY: FLOW_GRADIENT 0 min min 98% A, 1 min 98% A, 2 min 80% A, 16.5 min 2% A, 22 min 2% A, 22.1 min 98% A, 27 min 98% A
AC$CHROMATOGRAPHY: FLOW_RATE 0.3 mL/min
AC$CHROMATOGRAPHY: RETENTION_TIME 10.458 min
AC$CHROMATOGRAPHY: SOLVENT A: Water 0.1% Formic acid, B: Acetonitrile 0.1% Formic acid
MS$FOCUSED_ION: PRECURSOR_M/Z 279.0933
MS$FOCUSED_ION: PRECURSOR_TYPE [M+H]+
MS$DATA_PROCESSING: COMMENT Export with Spectra 1.9.12 MsBackendMassbank 1.7.4
MS$DATA_PROCESSING: WHOLE RMassBank 2.3.1
PK$SPLASH: splash10-0udi-9400000000-5b138f1bdb9d9f75bcd7
PK$NUM_PEAK: 44
PK$PEAK: m/z int. rel.int.
  51.0311 46.8 999
  52.0354 0.5 10
  56.9952 0.7 14
  65.0464 0.9 19
  67.9855 3.3 70
  68.993 4.9 104
  73.014 0.5 10
  74.0191 3.6 76
  75.0274 2.1 44
  76.0344 2 42
  77.0418 10.1 215
  77.074 0.5 10
  78.047 0.8 17
  79.982 1.4 29
  80.9916 2 42
  87.0237 0.9 19
  89.0408 2 42
  91.983 1 21
  92.9889 0.5 10
  98.016 1.1 23
  99.0253 0.5 10
  100.0314 0.5 10
  101.0386 0.6 12
  102.0466 3.1 66
  103.9815 0.7 14
  107.0044 4.2 89
  113.0394 0.7 14
  115.0534 1.9 40
  125.0389 0.9 19
  126.0477 4.5 96
  127.0547 1.3 27
  128.0634 1.6 34
  131.0024 0.7 14
  139.0545 0.7 14
  144.0146 0.8 17
  150.045 5 106
  151.0535 6 128
  152.061 4.3 91
  155.0014 0.7 14
  156.0118 0.7 14
  157.0202 0.6 12
  179.0053 0.6 12
  180.0118 0.7 14
  181.0216 1.2 25
//
