ACCESSION: MSBNK-BAFG-CSL25010634365
RECORD_TITLE: 3,3`-Dichlorobenzidine; LC-ESI-QTOF; MS2; 40 V
DATE: 2025.01.06
AUTHORS: Ole Lessmann; Kevin S. Jewell; Björn Ehlig; Arne Wick
LICENSE: dl-de/by-2-0
COPYRIGHT: Copyright 2025 Federal Institute of Hydrology, Koblenz, Germany
COMMENT: CONFIDENCE Reference Standard (Level 1)
COMMENT: Chromatography method: dx.doi.org/10.1016/j.chroma.2015.11.014
COMMENT: Acquisition method: 10.1002/rcm.8541
CH$NAME: 3,3`-Dichlorobenzidine
CH$FORMULA: C12H10Cl2N2
CH$EXACT_MASS: 252.0221
CH$SMILES: C1=CC(=C(C=C1C2=CC(=C(C=C2)N)Cl)Cl)N
CH$IUPAC: InChI=1S/C12H10Cl2N2/c13-9-5-7(1-3-11(9)15)8-2-4-12(16)10(14)6-8/h1-6H,15-16H2
CH$LINK: CAS 91-94-1
CH$LINK: INCHIKEY HUWXDEQWWKGHRV-UHFFFAOYSA-N
AC$INSTRUMENT: TripleTOF 6600 SCIEX
AC$INSTRUMENT_TYPE: LC-ESI-QTOF
AC$MASS_SPECTROMETRY: MS_TYPE MS2
AC$MASS_SPECTROMETRY: ION_MODE POSITIVE
AC$MASS_SPECTROMETRY: COLLISION_ENERGY 40
AC$MASS_SPECTROMETRY: FRAGMENTATION_MODE CID
AC$MASS_SPECTROMETRY: IONIZATION ESI
AC$CHROMATOGRAPHY: COLUMN_NAME Zorbax Eclipse Plus C18 2.1 mm x 150 mm, 3.5 um, Agilent
AC$CHROMATOGRAPHY: COLUMN_TEMPERATURE 40 °C
AC$CHROMATOGRAPHY: FLOW_GRADIENT 0 min min 98% A, 1 min 98% A, 2 min 80% A, 16.5 min 2% A, 22 min 2% A, 22.1 min 98% A, 27 min 98% A
AC$CHROMATOGRAPHY: FLOW_RATE 0.3 mL/min
AC$CHROMATOGRAPHY: RETENTION_TIME 11.426 min
AC$CHROMATOGRAPHY: SOLVENT A: Water 0.1% Formic acid, B: Acetonitrile 0.1% Formic acid
MS$FOCUSED_ION: PRECURSOR_M/Z 253.0294
MS$FOCUSED_ION: PRECURSOR_TYPE [M+H]+
MS$DATA_PROCESSING: COMMENT Export with pycsl 0.1.0.dev1 and CSL 24.4
PK$SPLASH: splash10-001i-0930000000-e6874972b6709bf11176
PK$NUM_PEAK: 17
PK$PEAK: m/z int. rel.int.
  127.0194 11.6 28
  127.0542 6.0 14
  130.065 8.5 20
  131.0741 8.1 19
  154.0655 100.6 248
  155.0729 30.1 74
  164.0255 9.5 23
  165.0574 15.6 38
  181.0765 176.7 435
  182.0847 404.9 999
  190.0423 199.7 492
  201.0349 25.9 63
  216.0464 14.2 35
  217.0535 155.0 382
  218.061 128.0 315
  252.0225 25.6 63
  253.0283 10.8 26
//