ACCESSION: MSBNK-BAFG-CSL25011734653
RECORD_TITLE: Reactive Orange; LC-ESI-QTOF; MS2; 90 V
DATE: 2025.01.17
AUTHORS: Ole Lessmann; Kevin S. Jewell; Björn Ehlig; Arne Wick
LICENSE: dl-de/by-2-0
COPYRIGHT: Copyright 2025 Federal Institute of Hydrology, Koblenz, Germany
COMMENT: CONFIDENCE Reference Standard (Level 1)
COMMENT: Chromatography method: dx.doi.org/10.1016/j.chroma.2015.11.014
CH$NAME: Reactive Orange
CH$FORMULA: C20H19N3O11S3
CH$EXACT_MASS: 573.0182
CH$SMILES: CC(=O)NC1=CC2=C(C(=C(C=C2C=C1)S(=O)(=O)O)N=NC3=CC=C(C=C3)S(=O)(=O)CCOS(=O)(=O)O)O
CH$IUPAC: InChI=1S/C20H19N3O11S3/c1-12(24)21-15-3-2-13-10-18(36(28,29)30)19(20(25)17(13)11-15)23-22-14-4-6-16(7-5-14)35(26,27)9-8-34-37(31,32)33/h2-7,10-11,25H,8-9H2,1H3,(H,21,24)(H,28,29,30)(H,31,32,33)
CH$LINK: CAS 109603-48-7
CH$LINK: INCHIKEY INOIOAWTVPHTCJ-UHFFFAOYSA-N
AC$INSTRUMENT: TripleTOF 6600 SCIEX
AC$INSTRUMENT_TYPE: LC-ESI-QTOF
AC$MASS_SPECTROMETRY: MS_TYPE MS2
AC$MASS_SPECTROMETRY: ION_MODE POSITIVE
AC$MASS_SPECTROMETRY: COLLISION_ENERGY 90
AC$MASS_SPECTROMETRY: FRAGMENTATION_MODE CID
AC$MASS_SPECTROMETRY: IONIZATION ESI
AC$CHROMATOGRAPHY: COLUMN_NAME Zorbax Eclipse Plus C18 2.1 mm x 150 mm, 3.5 um, Agilent
AC$CHROMATOGRAPHY: COLUMN_TEMPERATURE 40 °C
AC$CHROMATOGRAPHY: FLOW_GRADIENT 0 min min 98% A, 1 min 98% A, 2 min 80% A, 16.5 min 2% A, 22 min 2% A, 22.1 min 98% A, 27 min 98% A
AC$CHROMATOGRAPHY: FLOW_RATE 0.3 mL/min
AC$CHROMATOGRAPHY: RETENTION_TIME 5.751 min
AC$CHROMATOGRAPHY: SOLVENT A: Water 0.1% Formic acid, B: Acetonitrile 0.1% Formic acid
MS$FOCUSED_ION: PRECURSOR_M/Z 574.0255
MS$FOCUSED_ION: PRECURSOR_TYPE [M+H]+
MS$DATA_PROCESSING: COMMENT Export with pycsl 0.1.0.dev1 and CSL 25.0
PK$SPLASH: splash10-05ai-2930000000-e148c98503f6580a8a84
PK$NUM_PEAK: 50
PK$PEAK: m/z int. rel.int.
  46.9945 3.8 20
  53.0385 3.0 16
  65.0378 2.9 15
  68.0123 4.3 23
  74.9898 4.6 25
  77.0389 2.7 14
  80.0484 20.3 111
  81.0329 93.5 512
  91.041 3.1 16
  92.048 14.6 80
  93.0575 5.3 29
  103.0421 3.0 16
  104.0483 13.0 71
  108.0438 182.3 999
  114.033 3.3 18
  115.0411 4.7 25
  116.0479 6.9 37
  117.0556 2.5 13
  129.0446 14.4 78
  130.0513 31.7 173
  131.0594 30.6 167
  132.0436 3.4 18
  142.0518 80.2 439
  143.0589 14.0 76
  158.0473 2.0 10
  159.0533 2.3 12
  170.047 153.8 842
  171.0531 19.3 105
  172.0361 4.7 25
  204.0802 5.7 31
  205.0751 17.1 93
  206.0797 14.7 80
  215.0586 2.1 11
  216.0647 2.6 14
  217.0753 1.9 10
  218.0793 2.2 12
  220.0835 7.3 40
  231.0776 4.2 23
  232.0853 23.8 130
  233.0926 74.6 408
  234.0783 5.9 32
  243.0817 3.2 17
  244.085 3.5 19
  245.0926 5.0 27
  248.0837 3.6 19
  249.0846 3.3 18
  260.0822 13.2 72
  261.0883 27.7 151
  262.0812 3.5 19
  303.0995 2.3 12
//
