ACCESSION: MSBNK-BAFG-CSL2311098366
RECORD_TITLE: Tiapride; LC-ESI-QTOF; MS2; 130 V
DATE: 2023.11.09
AUTHORS: Kevin S. Jewell; Björn Ehlig; Arne Wick
LICENSE: dl-de/by-2-0
COPYRIGHT: Copyright 2023 Federal Institute of Hydrology, Koblenz, Germany
COMMENT: CONFIDENCE Reference Standard (Level 1)
COMMENT: Chromatography method: dx.doi.org/10.1016/j.chroma.2015.11.014
COMMENT: Acquisition method: 10.1002/rcm.8541
CH$NAME: Tiapride
CH$COMPOUND_CLASS: Pharmaceutical
CH$FORMULA: C15H24N2O4S
CH$EXACT_MASS: 328.1457
CH$SMILES: CCN(CC)CCNC(=O)C1=C(C=CC(=C1)S(=O)(=O)C)OC
CH$IUPAC: InChI=1S/C15H24N2O4S/c1-5-17(6-2)10-9-16-15(18)13-11-12(22(4,19)20)7-8-14(13)21-3/h7-8,11H,5-6,9-10H2,1-4H3,(H,16,18)
CH$LINK: CAS 51012-32-9
CH$LINK: INCHIKEY JTVPZMFULRWINT-UHFFFAOYSA-N
AC$INSTRUMENT: TripleTOF 5600 SCIEX
AC$INSTRUMENT_TYPE: LC-ESI-QTOF
AC$MASS_SPECTROMETRY: MS_TYPE MS2
AC$MASS_SPECTROMETRY: ION_MODE POSITIVE
AC$MASS_SPECTROMETRY: COLLISION_ENERGY 130
AC$MASS_SPECTROMETRY: FRAGMENTATION_MODE CID
AC$MASS_SPECTROMETRY: IONIZATION ESI
AC$CHROMATOGRAPHY: COLUMN_NAME Zorbax Eclipse Plus C18 2.1 mm x 150 mm, 3.5 um, Agilent
AC$CHROMATOGRAPHY: COLUMN_TEMPERATURE 40 °C
AC$CHROMATOGRAPHY: FLOW_GRADIENT 0 min min 98% A, 1 min 98% A, 2 min 80% A, 16.5 min 2% A, 22 min 2% A, 22.1 min 98% A, 27 min 98% A
AC$CHROMATOGRAPHY: FLOW_RATE 0.3 mL/min
AC$CHROMATOGRAPHY: RETENTION_TIME 4.856 min
AC$CHROMATOGRAPHY: SOLVENT A: Water 0.1% Formic acid, B: Acetonitrile 0.1% Formic acid
MS$FOCUSED_ION: PRECURSOR_M/Z 329.153
MS$FOCUSED_ION: PRECURSOR_TYPE [M+H]+
MS$DATA_PROCESSING: COMMENT Export with Spectra 1.9.12 MsBackendMassbank 1.7.4
MS$DATA_PROCESSING: WHOLE RMassBank 2.3.1
PK$SPLASH: splash10-004i-9000000000-6400253ee1b84a1d2cb3
PK$NUM_PEAK: 31
PK$PEAK: m/z int. rel.int.
  44.063 1.7 77
  53.0109 1 45
  55.0254 0.4 18
  58.0738 0.8 36
  64.037 0.7 31
  65.0446 2 91
  66.0516 0.7 31
  68.9864 0.7 31
  72.0842 0.4 18
  73.0122 0.8 36
  74.0188 4.4 200
  75.0141 0.6 27
  75.027 3.9 177
  76.0364 21.9 999
  77.044 18.6 848
  78.0512 7.1 323
  79.0222 2.6 118
  79.044 0.5 22
  79.0606 0.4 18
  86.1002 0.4 18
  89.0424 1.6 72
  90.0374 2 91
  91.0209 6.8 310
  91.0564 1.5 68
  92.0285 0.6 27
  103.0417 0.7 31
  104.0505 4.6 209
  105.0351 1.3 59
  107.0132 0.5 22
  117.0618 0.5 22
  119.0137 0.8 36
//
