ACCESSION: MSBNK-BAFG-CSL23103018330
RECORD_TITLE: Fenhexamid; LC-ESI-QTOF; MS2; 40 V
DATE: 2023.10.30
AUTHORS: Kevin S. Jewell; Björn Ehlig; Arne Wick
LICENSE: dl-de/by-2-0
COPYRIGHT: Copyright 2023 Federal Institute of Hydrology, Koblenz, Germany
COMMENT: CONFIDENCE Reference Standard (Level 1)
COMMENT: Chromatography method: dx.doi.org/10.1016/j.chroma.2015.11.014
COMMENT: Acquisition method: 10.1002/rcm.8541
CH$NAME: Fenhexamid
CH$COMPOUND_CLASS: Fungicide
CH$FORMULA: C14H17Cl2NO2
CH$EXACT_MASS: 301.0636
CH$SMILES: CC1(CCCCC1)C(=O)Nc2ccc(c(c2Cl)Cl)O
CH$IUPAC: InChI=1S/C14H17Cl2NO2/c1-14(7-3-2-4-8-14)13(19)17-9-5-6-10(18)12(16)11(9)15/h5-6,18H,2-4,7-8H2,1H3,(H,17,19)
CH$LINK: CAS 126833-17-8
CH$LINK: INCHIKEY VDLGAVXLJYLFDH-UHFFFAOYSA-N
AC$INSTRUMENT: TripleTOF 6600 SCIEX
AC$INSTRUMENT_TYPE: LC-ESI-QTOF
AC$MASS_SPECTROMETRY: MS_TYPE MS2
AC$MASS_SPECTROMETRY: ION_MODE NEGATIVE
AC$MASS_SPECTROMETRY: COLLISION_ENERGY 40
AC$MASS_SPECTROMETRY: FRAGMENTATION_MODE CID
AC$MASS_SPECTROMETRY: IONIZATION ESI
AC$CHROMATOGRAPHY: COLUMN_NAME Zorbax Eclipse Plus C18 2.1 mm x 150 mm, 3.5 um, Agilent
AC$CHROMATOGRAPHY: COLUMN_TEMPERATURE 40 °C
AC$CHROMATOGRAPHY: FLOW_GRADIENT 0 min min 98% A, 1 min 98% A, 2 min 80% A, 16.5 min 2% A, 22 min 2% A, 22.1 min 98% A, 27 min 98% A
AC$CHROMATOGRAPHY: FLOW_RATE 0.3 mL/min
AC$CHROMATOGRAPHY: RETENTION_TIME 12.5 min
AC$CHROMATOGRAPHY: SOLVENT A: Water 0.1% Formic acid, B: Acetonitrile 0.1% Formic acid
MS$FOCUSED_ION: PRECURSOR_M/Z 300.0563
MS$FOCUSED_ION: PRECURSOR_TYPE [M-H]-
MS$DATA_PROCESSING: COMMENT Export with Spectra 1.9.12 MsBackendMassbank 1.7.4
MS$DATA_PROCESSING: WHOLE RMassBank 2.3.1
PK$SPLASH: splash10-03dj-0190000000-956b91395cee36d2fecc
PK$NUM_PEAK: 28
PK$PEAK: m/z int. rel.int.
  34.97 6.1 111
  138.9847 2.3 42
  155.9859 1.3 23
  157.0544 0.7 12
  166.9771 2.3 42
  167.9852 3.2 58
  174.9594 1.6 29
  180.996 2.9 52
  184.0437 0.7 12
  184.0754 0.8 14
  185.0468 1 18
  185.0857 5.4 98
  192.9934 1.8 32
  194.0013 2.1 38
  195.0115 3.4 62
  200.1054 0.9 16
  207.0112 1.3 23
  208.0188 2.1 38
  212.0764 2.3 42
  213.0802 3.8 69
  220.019 5.5 100
  221.0246 12.2 222
  228.1033 1.1 20
  234.0304 0.9 16
  248.0479 15.6 284
  249.0554 36.4 664
  264.0794 54.7 999
  300.0566 0.7 12
//
