ACCESSION: MSBNK-BAFG-CSL25010634392
RECORD_TITLE: 4,4`-Methylenebis(2-chloroaniline); LC-ESI-QTOF; MS2; 150 V
DATE: 2025.01.06
AUTHORS: Ole Lessmann; Kevin S. Jewell; Björn Ehlig; Arne Wick
LICENSE: dl-de/by-2-0
COPYRIGHT: Copyright 2025 Federal Institute of Hydrology, Koblenz, Germany
COMMENT: CONFIDENCE Reference Standard (Level 1)
COMMENT: Chromatography method: dx.doi.org/10.1016/j.chroma.2015.11.014
COMMENT: Acquisition method: 10.1002/rcm.8541
CH$NAME: 4,4`-Methylenebis(2-chloroaniline)
CH$FORMULA: C13H12Cl2N2
CH$EXACT_MASS: 266.0378
CH$SMILES: C1=CC(=C(C=C1CC2=CC(=C(C=C2)N)Cl)Cl)N
CH$IUPAC: InChI=1S/C13H12Cl2N2/c14-10-6-8(1-3-12(10)16)5-9-2-4-13(17)11(15)7-9/h1-4,6-7H,5,16-17H2
CH$LINK: CAS 101-14-4
CH$LINK: INCHIKEY IBOFVQJTBBUKMU-UHFFFAOYSA-N
AC$INSTRUMENT: TripleTOF 6600 SCIEX
AC$INSTRUMENT_TYPE: LC-ESI-QTOF
AC$MASS_SPECTROMETRY: MS_TYPE MS2
AC$MASS_SPECTROMETRY: ION_MODE POSITIVE
AC$MASS_SPECTROMETRY: COLLISION_ENERGY 150
AC$MASS_SPECTROMETRY: FRAGMENTATION_MODE CID
AC$MASS_SPECTROMETRY: IONIZATION ESI
AC$CHROMATOGRAPHY: COLUMN_NAME Zorbax Eclipse Plus C18 2.1 mm x 150 mm, 3.5 um, Agilent
AC$CHROMATOGRAPHY: COLUMN_TEMPERATURE 40 °C
AC$CHROMATOGRAPHY: FLOW_GRADIENT 0 min min 98% A, 1 min 98% A, 2 min 80% A, 16.5 min 2% A, 22 min 2% A, 22.1 min 98% A, 27 min 98% A
AC$CHROMATOGRAPHY: FLOW_RATE 0.3 mL/min
AC$CHROMATOGRAPHY: RETENTION_TIME 11.747 min
AC$CHROMATOGRAPHY: SOLVENT A: Water 0.1% Formic acid, B: Acetonitrile 0.1% Formic acid
MS$FOCUSED_ION: PRECURSOR_M/Z 267.045
MS$FOCUSED_ION: PRECURSOR_TYPE [M+H]+
MS$DATA_PROCESSING: COMMENT Export with pycsl 0.1.0.dev1 and CSL 24.4
PK$SPLASH: splash10-0udi-9100000000-3db5c9a6d7e138eae2e7
PK$NUM_PEAK: 35
PK$PEAK: m/z int. rel.int.
  37.0076 1.1 87
  38.0155 0.7 55
  39.0238 1.9 151
  49.0074 1.9 151
  50.0158 12.4 991
  51.0231 12.5 999
  52.0189 1.3 103
  61.0072 3.2 255
  62.015 3.4 271
  63.023 4.1 327
  65.0388 0.8 63
  72.9826 0.5 39
  73.0074 1.2 95
  74.0153 9.5 759
  75.0224 2.3 183
  76.0319 0.6 47
  77.0382 2.5 199
  85.007 1.3 103
  86.0154 1.9 151
  87.0228 1.4 111
  89.0389 1.7 135
  97.0077 0.7 55
  98.0155 6.5 519
  99.0246 1.0 79
  100.0263 0.5 39
  104.0496 0.5 39
  110.0155 1.0 79
  113.0393 1.3 103
  122.0148 0.8 63
  123.0191 0.5 39
  126.0455 0.4 31
  137.038 0.4 31
  139.0549 1.4 111
  150.0482 1.2 95
  151.0578 0.7 55
//