ACCESSION: MSBNK-BAFG-CSL25011734706
RECORD_TITLE: Solway Green G; LC-ESI-QTOF; MS2; 40 V
DATE: 2025.01.17
AUTHORS: Ole Lessmann; Kevin S. Jewell; Björn Ehlig; Arne Wick
LICENSE: dl-de/by-2-0
COPYRIGHT: Copyright 2025 Federal Institute of Hydrology, Koblenz, Germany
COMMENT: CONFIDENCE Reference Standard (Level 1)
COMMENT: Chromatography method: dx.doi.org/10.1016/j.chroma.2015.11.014
CH$NAME: Solway Green G
CH$FORMULA: C28H22N2O8S2
CH$EXACT_MASS: 578.0818
CH$SMILES: CC1=CC(=C(C=C1)NC2=C3C(=C(C=C2)NC4=C(C=C(C=C4)C)S(=O)(=O)O)C(=O)C5=CC=CC=C5C3=O)S(=O)(=O)O
CH$IUPAC: InChI=1S/C28H22N2O8S2/c1-15-7-9-19(23(13-15)39(33,34)35)29-21-11-12-22(30-20-10-8-16(2)14-24(20)40(36,37)38)26-25(21)27(31)17-5-3-4-6-18(17)28(26)32/h3-14,29-30H,1-2H3,(H,33,34,35)(H,36,37,38)
CH$LINK: CAS 3443-90-1
CH$LINK: INCHIKEY BGBDMEPBLWJCHI-UHFFFAOYSA-N
AC$INSTRUMENT: TripleTOF 6600 SCIEX
AC$INSTRUMENT_TYPE: LC-ESI-QTOF
AC$MASS_SPECTROMETRY: MS_TYPE MS2
AC$MASS_SPECTROMETRY: ION_MODE NEGATIVE
AC$MASS_SPECTROMETRY: COLLISION_ENERGY 40
AC$MASS_SPECTROMETRY: FRAGMENTATION_MODE CID
AC$MASS_SPECTROMETRY: IONIZATION ESI
AC$CHROMATOGRAPHY: COLUMN_NAME Zorbax Eclipse Plus C18 2.1 mm x 150 mm, 3.5 um, Agilent
AC$CHROMATOGRAPHY: COLUMN_TEMPERATURE 40 °C
AC$CHROMATOGRAPHY: FLOW_GRADIENT 0 min min 98% A, 1 min 98% A, 2 min 80% A, 16.5 min 2% A, 22 min 2% A, 22.1 min 98% A, 27 min 98% A
AC$CHROMATOGRAPHY: FLOW_RATE 0.3 mL/min
AC$CHROMATOGRAPHY: RETENTION_TIME 10.62 min
AC$CHROMATOGRAPHY: SOLVENT A: Water 0.1% Formic acid, B: Acetonitrile 0.1% Formic acid
MS$FOCUSED_ION: PRECURSOR_M/Z 288.0336
MS$FOCUSED_ION: PRECURSOR_TYPE [M-2H]2-
MS$DATA_PROCESSING: COMMENT Export with pycsl 0.1.0.dev1 and CSL 25.0
PK$SPLASH: splash10-004i-9000000000-fe23f006b02e5ffef4d8
PK$NUM_PEAK: 24
PK$PEAK: m/z int. rel.int.
  79.9568 138.7421 999
  80.9643 10.9461 78
  121.0521 1.3012 9
  132.0446 1.7187 12
  184.0058 3.9302 28
  185.0132 3.6393 26
  186.0229 4.2542 30
  282.0872 1.2331 8
  288.0315 3.8499 27
  296.0939 1.4916 10
  297.077 2.2671 16
  297.0997 1.0041 7
  298.0876 3.6633 26
  299.0907 2.2772 16
  310.0844 2.776 19
  311.1147 1.0808 7
  324.0897 1.7841 12
  385.1355 1.4408 10
  387.1433 1.2098 8
  397.1308 1.9973 14
  413.1223 2.0158 14
  414.1337 3.0652 22
  415.143 5.0982 36
  467.1024 1.6246 11
//
