ACCESSION: MSBNK-BAFG-CSL23110914466
RECORD_TITLE: Bis(2-isopropylphenyl) phenyl phosphate; LC-ESI-QTOF; MS2; 50 V
DATE: 2023.11.09
AUTHORS: Kevin S. Jewell; Björn Ehlig; Arne Wick
LICENSE: dl-de/by-2-0
COPYRIGHT: Copyright 2023 Federal Institute of Hydrology, Koblenz, Germany
COMMENT: CONFIDENCE Reference Standard (Level 1)
COMMENT: Chromatography method: dx.doi.org/10.1016/j.chroma.2015.11.014
COMMENT: Acquisition method: 10.1002/rcm.8541
CH$NAME: Bis(2-isopropylphenyl) phenyl phosphate
CH$FORMULA: C24H27O4P
CH$EXACT_MASS: 410.1647
CH$SMILES: CC(C)C1=CC=CC=C1OP(=O)(OC2=CC=CC=C2)OC3=CC=CC=C3C(C)C
CH$IUPAC: InChI=1S/C24H27O4P/c1-18(2)21-14-8-10-16-23(21)27-29(25,26-20-12-6-5-7-13-20)28-24-17-11-9-15-22(24)19(3)4/h5-19H,1-4H3
CH$LINK: CAS 69500-29-4
CH$LINK: INCHIKEY RMNODSGCFHVNDC-UHFFFAOYSA-N
AC$INSTRUMENT: TripleTOF 6600 SCIEX
AC$INSTRUMENT_TYPE: LC-ESI-QTOF
AC$MASS_SPECTROMETRY: MS_TYPE MS2
AC$MASS_SPECTROMETRY: ION_MODE POSITIVE
AC$MASS_SPECTROMETRY: COLLISION_ENERGY 50
AC$MASS_SPECTROMETRY: FRAGMENTATION_MODE CID
AC$MASS_SPECTROMETRY: IONIZATION ESI
AC$CHROMATOGRAPHY: COLUMN_NAME Zorbax Eclipse Plus C18 2.1 mm x 150 mm, 3.5 um, Agilent
AC$CHROMATOGRAPHY: COLUMN_TEMPERATURE 40 °C
AC$CHROMATOGRAPHY: FLOW_GRADIENT 0 min min 98% A, 1 min 98% A, 2 min 80% A, 16.5 min 2% A, 22 min 2% A, 22.1 min 98% A, 27 min 98% A
AC$CHROMATOGRAPHY: FLOW_RATE 0.3 mL/min
AC$CHROMATOGRAPHY: RETENTION_TIME 17.429 min
AC$CHROMATOGRAPHY: SOLVENT A: Water 0.1% Formic acid, B: Acetonitrile 0.1% Formic acid
MS$FOCUSED_ION: PRECURSOR_M/Z 411.172
MS$FOCUSED_ION: PRECURSOR_TYPE [M+H]+
MS$DATA_PROCESSING: COMMENT Export with Spectra 1.9.12 MsBackendMassbank 1.7.4
MS$DATA_PROCESSING: WHOLE RMassBank 2.3.1
PK$SPLASH: splash10-0fb9-2497000000-bd184c20849a8ea3a277
PK$NUM_PEAK: 17
PK$PEAK: m/z int. rel.int.
  65.0383 6.8 11
  77.0386 71.4 121
  91.0543 119.3 203
  151.054 13.4 22
  152.0624 147.5 251
  153.0701 166.4 283
  168.0565 28.6 48
  171.0801 14.5 24
  175.0148 10.2 17
  215.0262 282.4 481
  227.0857 9.7 16
  228.0939 70.4 120
  229.1019 40.2 68
  233.0367 116.9 199
  251.0478 185 315
  291.0576 8.4 14
  327.0794 585.6 999
//
