ACCESSION: MSBNK-BAFG-CSL2310253850
RECORD_TITLE: Celiprolol; LC-ESI-QTOF; MS2; 130 V
DATE: 2023.10.25
AUTHORS: Kevin S. Jewell; Björn Ehlig; Arne Wick
LICENSE: dl-de/by-2-0
COPYRIGHT: Copyright 2023 Federal Institute of Hydrology, Koblenz, Germany
COMMENT: CONFIDENCE Reference Standard (Level 1)
COMMENT: Chromatography method: dx.doi.org/10.1016/j.chroma.2015.11.014
COMMENT: Acquisition method: 10.1002/rcm.8541
CH$NAME: Celiprolol
CH$COMPOUND_CLASS: Pharmaceutical
CH$FORMULA: C20H33N3O4
CH$EXACT_MASS: 379.2471
CH$SMILES: CCN(CC)C(=O)NC1=CC(=C(C=C1)OCC(CNC(C)(C)C)O)C(=O)C
CH$IUPAC: InChI=1S/C20H33N3O4/c1-7-23(8-2)19(26)22-15-9-10-18(17(11-15)14(3)24)27-13-16(25)12-21-20(4,5)6/h9-11,16,21,25H,7-8,12-13H2,1-6H3,(H,22,26)
CH$LINK: CAS 56980-93-9
CH$LINK: INCHIKEY JOATXPAWOHTVSZ-UHFFFAOYSA-N
AC$INSTRUMENT: TripleTOF 5600 SCIEX
AC$INSTRUMENT_TYPE: LC-ESI-QTOF
AC$MASS_SPECTROMETRY: MS_TYPE MS2
AC$MASS_SPECTROMETRY: ION_MODE POSITIVE
AC$MASS_SPECTROMETRY: COLLISION_ENERGY 130
AC$MASS_SPECTROMETRY: FRAGMENTATION_MODE CID
AC$MASS_SPECTROMETRY: IONIZATION ESI
AC$CHROMATOGRAPHY: COLUMN_NAME Zorbax Eclipse Plus C18 2.1 mm x 150 mm, 3.5 um, Agilent
AC$CHROMATOGRAPHY: COLUMN_TEMPERATURE 40 °C
AC$CHROMATOGRAPHY: FLOW_GRADIENT 0 min min 98% A, 1 min 98% A, 2 min 80% A, 16.5 min 2% A, 22 min 2% A, 22.1 min 98% A, 27 min 98% A
AC$CHROMATOGRAPHY: FLOW_RATE 0.3 mL/min
AC$CHROMATOGRAPHY: RETENTION_TIME 6.532 min
AC$CHROMATOGRAPHY: SOLVENT A: Water 0.1% Formic acid, B: Acetonitrile 0.1% Formic acid
MS$FOCUSED_ION: PRECURSOR_M/Z 380.2544
MS$FOCUSED_ION: PRECURSOR_TYPE [M+H]+
MS$DATA_PROCESSING: COMMENT Export with Spectra 1.9.12 MsBackendMassbank 1.7.4
MS$DATA_PROCESSING: WHOLE RMassBank 2.3.1
PK$SPLASH: splash10-0a6u-9100000000-de2a2eff73b03687063b
PK$NUM_PEAK: 32
PK$PEAK: m/z int. rel.int.
  43.0259 2.6 142
  44.0215 12.1 664
  44.0596 1.3 71
  52.0264 0.8 43
  56.0554 18.2 999
  57.0754 6.8 373
  58.0701 1.1 60
  65.0417 4.5 247
  72.048 3.1 170
  74.0639 6.5 356
  74.0999 2.5 137
  75.026 0.8 43
  77.0417 17.6 966
  78.0376 2.3 126
  78.0526 0.6 32
  80.0152 2 109
  81.0378 0.6 32
  89.0405 2.6 142
  90.0349 0.6 32
  91.0571 1.2 65
  92.0509 1.2 65
  102.036 0.8 43
  102.0488 0.8 43
  103.0534 1.4 76
  104.0508 2.1 115
  105.0331 0.5 27
  106.0281 1 54
  115.0545 2.5 137
  117.0579 1 54
  128.0473 0.5 27
  130.0655 0.6 32
  132.0454 1 54
//
