ACCESSION: MSBNK-BAFG-CSL25011734654
RECORD_TITLE: Reactive Orange; LC-ESI-QTOF; MS2; 100 V
DATE: 2025.01.17
AUTHORS: Ole Lessmann; Kevin S. Jewell; Björn Ehlig; Arne Wick
LICENSE: dl-de/by-2-0
COPYRIGHT: Copyright 2025 Federal Institute of Hydrology, Koblenz, Germany
COMMENT: CONFIDENCE Reference Standard (Level 1)
COMMENT: Chromatography method: dx.doi.org/10.1016/j.chroma.2015.11.014
CH$NAME: Reactive Orange
CH$FORMULA: C20H19N3O11S3
CH$EXACT_MASS: 573.0182
CH$SMILES: CC(=O)NC1=CC2=C(C(=C(C=C2C=C1)S(=O)(=O)O)N=NC3=CC=C(C=C3)S(=O)(=O)CCOS(=O)(=O)O)O
CH$IUPAC: InChI=1S/C20H19N3O11S3/c1-12(24)21-15-3-2-13-10-18(36(28,29)30)19(20(25)17(13)11-15)23-22-14-4-6-16(7-5-14)35(26,27)9-8-34-37(31,32)33/h2-7,10-11,25H,8-9H2,1H3,(H,21,24)(H,28,29,30)(H,31,32,33)
CH$LINK: CAS 109603-48-7
CH$LINK: INCHIKEY INOIOAWTVPHTCJ-UHFFFAOYSA-N
AC$INSTRUMENT: TripleTOF 6600 SCIEX
AC$INSTRUMENT_TYPE: LC-ESI-QTOF
AC$MASS_SPECTROMETRY: MS_TYPE MS2
AC$MASS_SPECTROMETRY: ION_MODE POSITIVE
AC$MASS_SPECTROMETRY: COLLISION_ENERGY 100
AC$MASS_SPECTROMETRY: FRAGMENTATION_MODE CID
AC$MASS_SPECTROMETRY: IONIZATION ESI
AC$CHROMATOGRAPHY: COLUMN_NAME Zorbax Eclipse Plus C18 2.1 mm x 150 mm, 3.5 um, Agilent
AC$CHROMATOGRAPHY: COLUMN_TEMPERATURE 40 °C
AC$CHROMATOGRAPHY: FLOW_GRADIENT 0 min min 98% A, 1 min 98% A, 2 min 80% A, 16.5 min 2% A, 22 min 2% A, 22.1 min 98% A, 27 min 98% A
AC$CHROMATOGRAPHY: FLOW_RATE 0.3 mL/min
AC$CHROMATOGRAPHY: RETENTION_TIME 5.751 min
AC$CHROMATOGRAPHY: SOLVENT A: Water 0.1% Formic acid, B: Acetonitrile 0.1% Formic acid
MS$FOCUSED_ION: PRECURSOR_M/Z 574.0255
MS$FOCUSED_ION: PRECURSOR_TYPE [M+H]+
MS$DATA_PROCESSING: COMMENT Export with pycsl 0.1.0.dev1 and CSL 25.0
PK$SPLASH: splash10-053r-3930000000-d633557a4663bd8853e0
PK$NUM_PEAK: 59
PK$PEAK: m/z int. rel.int.
  43.0172 1.9 15
  44.9786 1.9 15
  46.9946 3.8 31
  53.0385 4.6 37
  63.0219 1.3 10
  65.0376 4.5 36
  68.0122 4.9 40
  74.989 3.5 28
  77.0371 3.8 31
  80.049 22.8 187
  81.0328 109.4 897
  88.03 1.8 14
  89.0378 1.9 15
  91.04 3.4 27
  92.0487 12.0 98
  93.0564 4.0 32
  103.0396 3.5 28
  104.0479 17.0 139
  108.0436 121.8 999
  114.0325 7.7 63
  115.0402 14.6 119
  116.0479 11.7 95
  117.0557 3.9 31
  129.044 22.3 182
  130.0517 23.2 190
  131.0589 23.3 191
  132.0438 1.4 11
  141.0441 1.4 11
  142.0518 115.6 948
  143.0585 12.8 104
  169.0389 1.4 11
  170.0462 93.7 768
  171.0527 8.9 72
  172.0366 4.0 32
  176.0605 1.6 13
  178.0637 2.0 16
  179.0706 2.0 16
  189.0624 1.3 10
  203.0648 1.5 12
  204.0779 9.5 77
  205.0748 22.5 184
  206.0827 16.8 137
  215.0576 2.8 22
  216.0673 4.0 32
  217.0719 2.6 21
  218.0814 1.6 13
  220.085 4.1 33
  230.0706 1.7 13
  231.0767 5.1 41
  232.0854 27.3 223
  233.0924 40.6 333
  234.0756 3.3 27
  243.0796 1.9 15
  244.0824 4.5 36
  245.0945 2.3 18
  248.0757 2.0 16
  260.0811 6.8 55
  261.0864 10.7 87
  262.0774 1.7 13
//
