ACCESSION: MSBNK-BAFG-CSL25011734594
RECORD_TITLE: Food Yellow 3 free acid; LC-ESI-QTOF; MS2; 140 V
DATE: 2025.01.17
AUTHORS: Ole Lessmann; Kevin S. Jewell; Björn Ehlig; Arne Wick
LICENSE: dl-de/by-2-0
COPYRIGHT: Copyright 2025 Federal Institute of Hydrology, Koblenz, Germany
COMMENT: CONFIDENCE Reference Standard (Level 1)
COMMENT: Chromatography method: dx.doi.org/10.1016/j.chroma.2015.11.014
CH$NAME: Food Yellow 3 free acid
CH$FORMULA: C16H12N2O7S2
CH$EXACT_MASS: 408.0086
CH$SMILES: C1=CC(=CC=C1N=NC2=C(C=CC3=C2C=CC(=C3)S(=O)(=O)O)O)S(=O)(=O)O
CH$IUPAC: InChI=1S/C16H12N2O7S2/c19-15-8-1-10-9-13(27(23,24)25)6-7-14(10)16(15)18-17-11-2-4-12(5-3-11)26(20,21)22/h1-9,19H,(H,20,21,22)(H,23,24,25)
CH$LINK: CAS 5859-11-0
CH$LINK: INCHIKEY KEYWXKLGZZGHMT-UHFFFAOYSA-N
AC$INSTRUMENT: TripleTOF 6600 SCIEX
AC$INSTRUMENT_TYPE: LC-ESI-QTOF
AC$MASS_SPECTROMETRY: MS_TYPE MS2
AC$MASS_SPECTROMETRY: ION_MODE POSITIVE
AC$MASS_SPECTROMETRY: COLLISION_ENERGY 140
AC$MASS_SPECTROMETRY: FRAGMENTATION_MODE CID
AC$MASS_SPECTROMETRY: IONIZATION ESI
AC$CHROMATOGRAPHY: COLUMN_NAME Zorbax Eclipse Plus C18 2.1 mm x 150 mm, 3.5 um, Agilent
AC$CHROMATOGRAPHY: COLUMN_TEMPERATURE 40 °C
AC$CHROMATOGRAPHY: FLOW_GRADIENT 0 min min 98% A, 1 min 98% A, 2 min 80% A, 16.5 min 2% A, 22 min 2% A, 22.1 min 98% A, 27 min 98% A
AC$CHROMATOGRAPHY: FLOW_RATE 0.3 mL/min
AC$CHROMATOGRAPHY: RETENTION_TIME 5.59 min
AC$CHROMATOGRAPHY: SOLVENT A: Water 0.1% Formic acid, B: Acetonitrile 0.1% Formic acid
MS$FOCUSED_ION: PRECURSOR_M/Z 409.0159
MS$FOCUSED_ION: PRECURSOR_TYPE [M+H]+
MS$DATA_PROCESSING: COMMENT Export with pycsl 0.1.0.dev1 and CSL 25.0
PK$SPLASH: splash10-00e9-9100000000-dc9dd3fd81dd830d58a6
PK$NUM_PEAK: 55
PK$PEAK: m/z int. rel.int.
  37.007 2.9 37
  38.0148 3.0 38
  39.0232 21.7 277
  49.0066 0.9 11
  50.0146 15.6 199
  51.0227 8.8 112
  52.0303 1.4 17
  53.0387 23.0 293
  54.0332 0.8 10
  61.007 4.4 56
  62.0145 12.7 162
  63.0223 23.6 301
  64.0181 1.3 16
  64.9694 1.8 22
  65.0382 22.3 284
  66.0333 0.8 10
  73.0073 6.3 80
  74.0149 78.2 999
  75.0105 9.0 114
  75.0206 13.2 168
  76.0184 4.5 57
  76.0301 6.4 81
  77.0382 1.8 22
  80.0488 41.8 533
  81.0324 0.9 11
  86.0147 2.9 37
  87.022 4.9 62
  88.0188 1.5 19
  88.0298 0.9 11
  89.0376 7.1 90
  98.0144 18.5 236
  99.0101 13.9 177
  99.0217 5.2 66
  100.0184 8.1 103
  100.0303 9.5 121
  101.025 2.7 34
  102.0453 1.2 15
  108.044 1.1 14
  114.0319 1.5 19
  126.0461 1.3 16
  127.041 2.0 25
  139.0505 0.9 11
  149.0371 2.2 28
  150.0453 1.4 17
  151.0504 1.0 12
  163.0542 2.5 31
  164.0504 0.9 11
  174.0467 2.1 26
  175.0477 2.7 34
  176.0534 1.3 16
  188.0495 1.9 24
  190.0662 1.5 19
  201.0568 2.4 30
  216.0667 1.4 17
  227.062 1.2 15
//
