ACCESSION: MSBNK-BAFG-CSL23111015374
RECORD_TITLE: Fingolimod; LC-ESI-QTOF; MS2; 30 V
DATE: 2023.11.10
AUTHORS: Kevin S. Jewell; Björn Ehlig; Arne Wick
LICENSE: dl-de/by-2-0
COPYRIGHT: Copyright 2023 Federal Institute of Hydrology, Koblenz, Germany
COMMENT: CONFIDENCE Reference Standard (Level 1)
COMMENT: Chromatography method: dx.doi.org/10.1016/j.chroma.2015.11.014
COMMENT: Acquisition method: 10.1002/rcm.8541
CH$NAME: Fingolimod
CH$COMPOUND_CLASS: Pharmaceutical
CH$FORMULA: C19H33NO2
CH$EXACT_MASS: 307.2511
CH$SMILES: CCCCCCCCC1=CC=C(C=C1)CCC(CO)(CO)N
CH$IUPAC: InChI=1S/C19H33NO2/c1-2-3-4-5-6-7-8-17-9-11-18(12-10-17)13-14-19(20,15-21)16-22/h9-12,21-22H,2-8,13-16,20H2,1H3
CH$LINK: CAS 162359-55-9
CH$LINK: INCHIKEY KKGQTZUTZRNORY-UHFFFAOYSA-N
AC$INSTRUMENT: TripleTOF 6600 SCIEX
AC$INSTRUMENT_TYPE: LC-ESI-QTOF
AC$MASS_SPECTROMETRY: MS_TYPE MS2
AC$MASS_SPECTROMETRY: ION_MODE POSITIVE
AC$MASS_SPECTROMETRY: COLLISION_ENERGY 30
AC$MASS_SPECTROMETRY: FRAGMENTATION_MODE CID
AC$MASS_SPECTROMETRY: IONIZATION ESI
AC$CHROMATOGRAPHY: COLUMN_NAME Zorbax Eclipse Plus C18 2.1 mm x 150 mm, 3.5 um, Agilent
AC$CHROMATOGRAPHY: COLUMN_TEMPERATURE 40 °C
AC$CHROMATOGRAPHY: FLOW_GRADIENT 0 min min 98% A, 1 min 98% A, 2 min 80% A, 16.5 min 2% A, 22 min 2% A, 22.1 min 98% A, 27 min 98% A
AC$CHROMATOGRAPHY: FLOW_RATE 0.3 mL/min
AC$CHROMATOGRAPHY: RETENTION_TIME 10.17 min
AC$CHROMATOGRAPHY: SOLVENT A: Water 0.1% Formic acid, B: Acetonitrile 0.1% Formic acid
MS$FOCUSED_ION: PRECURSOR_M/Z 308.2584
MS$FOCUSED_ION: PRECURSOR_TYPE [M+H]+
MS$DATA_PROCESSING: COMMENT Export with Spectra 1.9.12 MsBackendMassbank 1.7.4
MS$DATA_PROCESSING: WHOLE RMassBank 2.3.1
PK$SPLASH: splash10-0a4i-2950000000-c87003f1705d9736bc2a
PK$NUM_PEAK: 29
PK$PEAK: m/z int. rel.int.
  41.0372 1.9 21
  43.0533 5 57
  55.0532 1.2 13
  57.0687 19.2 222
  69.0688 1.3 15
  71.084 20.3 234
  91.0528 3.4 39
  105.0683 61.9 716
  115.0527 1.1 12
  117.0681 8.3 96
  119.0835 3.4 39
  128.0603 4.1 47
  129.0679 9.1 105
  131.0832 15 173
  133.0998 1 11
  141.0673 1 11
  142.0755 1.8 20
  143.0834 36.9 427
  145.0988 7.1 82
  157.0987 27.3 316
  159.1129 1 11
  161.0937 1.8 20
  171.1161 2.4 27
  203.1773 10.9 126
  229.1925 4.5 52
  243.2092 12.9 149
  255.2087 86.3 999
  273.2182 1.5 17
  308.256 4.1 47
//
