ACCESSION: MSBNK-BAFG-CSL2311095385
RECORD_TITLE: Venlafaxine; LC-ESI-QTOF; MS2; 60 V
DATE: 2023.11.09
AUTHORS: Kevin S. Jewell; Björn Ehlig; Arne Wick
LICENSE: dl-de/by-2-0
COPYRIGHT: Copyright 2023 Federal Institute of Hydrology, Koblenz, Germany
COMMENT: CONFIDENCE Reference Standard (Level 1)
COMMENT: Chromatography method: dx.doi.org/10.1016/j.chroma.2015.11.014
COMMENT: Acquisition method: 10.1002/rcm.8541
CH$NAME: Venlafaxine
CH$COMPOUND_CLASS: Pharmaceutical
CH$FORMULA: C17H27NO2
CH$EXACT_MASS: 277.2042
CH$SMILES: CN(C)CC(c1ccc(cc1)OC)C2(CCCCC2)O
CH$IUPAC: InChI=1S/C17H27NO2/c1-18(2)13-16(17(19)11-5-4-6-12-17)14-7-9-15(20-3)10-8-14/h7-10,16,19H,4-6,11-13H2,1-3H3
CH$LINK: CAS 93413-69-5
CH$LINK: INCHIKEY PNVNVHUZROJLTJ-UHFFFAOYSA-N
AC$INSTRUMENT: TripleTOF 5600 SCIEX
AC$INSTRUMENT_TYPE: LC-ESI-QTOF
AC$MASS_SPECTROMETRY: MS_TYPE MS2
AC$MASS_SPECTROMETRY: ION_MODE POSITIVE
AC$MASS_SPECTROMETRY: COLLISION_ENERGY 60
AC$MASS_SPECTROMETRY: FRAGMENTATION_MODE CID
AC$MASS_SPECTROMETRY: IONIZATION ESI
AC$CHROMATOGRAPHY: COLUMN_NAME Zorbax Eclipse Plus C18 2.1 mm x 150 mm, 3.5 um, Agilent
AC$CHROMATOGRAPHY: COLUMN_TEMPERATURE 40 °C
AC$CHROMATOGRAPHY: FLOW_GRADIENT 0 min min 98% A, 1 min 98% A, 2 min 80% A, 16.5 min 2% A, 22 min 2% A, 22.1 min 98% A, 27 min 98% A
AC$CHROMATOGRAPHY: FLOW_RATE 0.3 mL/min
AC$CHROMATOGRAPHY: RETENTION_TIME 6.626 min
AC$CHROMATOGRAPHY: SOLVENT A: Water 0.1% Formic acid, B: Acetonitrile 0.1% Formic acid
MS$FOCUSED_ION: PRECURSOR_M/Z 278.2115
MS$FOCUSED_ION: PRECURSOR_TYPE [M+H]+
MS$DATA_PROCESSING: COMMENT Export with Spectra 1.9.12 MsBackendMassbank 1.7.4
MS$DATA_PROCESSING: WHOLE RMassBank 2.3.1
PK$SPLASH: splash10-0ab9-9600000000-dab863101bd29f156b7e
PK$NUM_PEAK: 35
PK$PEAK: m/z int. rel.int.
  42.0418 1.2 16
  56.0573 1.1 14
  58.0713 73.3 999
  65.0419 3.4 46
  67.059 0.8 10
  77.0415 12.5 170
  78.0485 6.5 88
  79.0568 5.2 70
  81.0731 3 40
  91.0557 28.3 385
  93.0738 1.2 16
  103.0551 1.3 17
  104.0622 1.4 19
  105.0709 1.8 24
  106.0412 1.5 20
  107.0489 2.5 34
  115.0538 9.3 126
  116.0614 1.9 25
  117.0705 2.1 28
  119.085 1 13
  121.065 47.8 651
  127.0545 1.3 17
  128.0615 3 40
  129.0683 1.8 24
  131.0495 3.5 47
  132.0566 3.2 43
  141.0689 1.8 24
  144.0568 2.1 28
  145.0643 1.2 16
  147.0793 3 40
  148.0748 1 13
  158.072 3.1 42
  159.08 1.5 20
  162.0914 2 27
  173.095 0.9 12
//
