ACCESSION: MSBNK-BAFG-CSL25010627950
RECORD_TITLE: Basic Red 1; LC-ESI-QTOF; MS2; 70 V
DATE: 2025.01.06
AUTHORS: Ole Lessmann; Kevin S. Jewell; Björn Ehlig; Arne Wick
LICENSE: dl-de/by-2-0
COPYRIGHT: Copyright 2025 Federal Institute of Hydrology, Koblenz, Germany
COMMENT: CONFIDENCE Reference Standard (Level 1)
COMMENT: Chromatography method: dx.doi.org/10.1016/j.chroma.2015.11.014
COMMENT: Acquisition method: 10.1002/rcm.8541
CH$NAME: Basic Red 1
CH$FORMULA: C28H30N2O3
CH$EXACT_MASS: 442.2256
CH$SMILES: CCNC1=CC2=C(C=C1C)C(=C3C=C(C(=NCC)C=C3O2)C)C4=CC=CC=C4C(=O)OCC
CH$IUPAC: InChI=1S/C28H30N2O3/c1-6-29-23-15-25-21(13-17(23)4)27(19-11-9-10-12-20(19)28(31)32-8-3)22-14-18(5)24(30-7-2)16-26(22)33-25/h9-16,29H,6-8H2,1-5H3
CH$LINK: CAS 989-38-8
CH$LINK: INCHIKEY IWWWBRIIGAXLCJ-UHFFFAOYSA-N
AC$INSTRUMENT: TripleTOF X500R SCIEX
AC$INSTRUMENT_TYPE: LC-ESI-QTOF
AC$MASS_SPECTROMETRY: MS_TYPE MS2
AC$MASS_SPECTROMETRY: ION_MODE POSITIVE
AC$MASS_SPECTROMETRY: COLLISION_ENERGY 70
AC$MASS_SPECTROMETRY: FRAGMENTATION_MODE CID
AC$MASS_SPECTROMETRY: IONIZATION ESI
AC$CHROMATOGRAPHY: COLUMN_NAME Zorbax Eclipse Plus C18 2.1 mm x 150 mm, 3.5 um, Agilent
AC$CHROMATOGRAPHY: COLUMN_TEMPERATURE 40 °C
AC$CHROMATOGRAPHY: FLOW_GRADIENT 0 min min 98% A, 1 min 98% A, 2 min 80% A, 16.5 min 2% A, 22 min 2% A, 22.1 min 98% A, 27 min 98% A
AC$CHROMATOGRAPHY: FLOW_RATE 0.3 mL/min
AC$CHROMATOGRAPHY: RETENTION_TIME 11.107 min
AC$CHROMATOGRAPHY: SOLVENT A: Water 0.1% Formic acid, B: Acetonitrile 0.1% Formic acid
MS$FOCUSED_ION: PRECURSOR_M/Z 443.2329
MS$FOCUSED_ION: PRECURSOR_TYPE [M+H]+
MS$DATA_PROCESSING: COMMENT Export with pycsl 0.1.0.dev1 and CSL 24.4
PK$SPLASH: splash10-03dl-0029000000-4c0d2062ce1ee9b44ab0
PK$NUM_PEAK: 60
PK$PEAK: m/z int. rel.int.
  254.0969 6.0 16
  255.0837 6.9 18
  267.1041 5.2 13
  268.0911 4.7 12
  268.1126 5.4 14
  269.1019 18.8 50
  270.096 18.0 48
  271.103 14.3 38
  272.11 3.7 9
  279.15 11.4 30
  281.0918 6.8 18
  282.1005 12.0 32
  283.1025 39.6 105
  284.1085 64.4 172
  285.1157 54.5 145
  286.123 12.7 33
  295.104 7.8 20
  296.1081 36.9 98
  297.1138 85.9 229
  298.1189 92.9 248
  299.1178 20.1 53
  300.14 21.2 56
  309.1123 6.1 16
  310.1218 10.7 28
  311.1199 81.1 216
  312.1272 287.1 768
  313.1346 193.3 517
  314.1552 22.8 60
  317.1191 8.7 23
  324.1362 5.5 14
  325.1384 49.3 131
  326.1499 93.9 251
  327.1503 66.2 177
  328.1121 4.3 11
  329.1263 11.4 30
  330.1138 6.5 17
  336.1262 6.8 18
  339.1498 10.4 27
  340.1587 22.8 60
  341.1218 6.6 17
  341.1658 373.4 999
  341.2267 5.2 13
  342.1125 16.8 44
  342.1739 17.4 46
  343.1217 9.3 24
  344.1292 30.1 80
  355.1815 9.8 26
  356.1301 7.1 18
  357.1254 163.5 437
  358.1408 14.0 37
  359.1501 13.8 36
  370.139 8.5 22
  371.1442 67.7 181
  372.1608 39.5 105
  385.1558 25.4 67
  386.1633 112.7 301
  387.1731 18.5 49
  399.1715 61.2 163
  400.1795 10.8 28
  415.2031 89.9 240
//