ACCESSION: MSBNK-BAFG-CSL23110916245
RECORD_TITLE: Glycidyltrimethylaminium; LC-ESI-QTOF; MS2; 140 V
DATE: 2023.11.09
AUTHORS: Kevin S. Jewell; Björn Ehlig; Arne Wick
LICENSE: dl-de/by-2-0
COPYRIGHT: Copyright 2023 Federal Institute of Hydrology, Koblenz, Germany
COMMENT: CONFIDENCE Reference Standard (Level 1)
COMMENT: Chromatography method: dx.doi.org/10.1016/j.chroma.2015.11.014
COMMENT: Acquisition method: 10.1002/rcm.8541
CH$NAME: Glycidyltrimethylaminium
CH$COMPOUND_CLASS: Industrial_process
CH$FORMULA: [C6H14NO]+
CH$EXACT_MASS: 116.107
CH$SMILES: C[N+](C)(C)CC1CO1
CH$IUPAC: InChI=1S/C6H14NO/c1-7(2,3)4-6-5-8-6/h6H,4-5H2,1-3H3/q+1
CH$LINK: CAS 45633-15-6
CH$LINK: INCHIKEY LRQFRDLKOBFOSG-UHFFFAOYSA-N
AC$INSTRUMENT: TripleTOF 6600 SCIEX
AC$INSTRUMENT_TYPE: LC-ESI-QTOF
AC$MASS_SPECTROMETRY: MS_TYPE MS2
AC$MASS_SPECTROMETRY: ION_MODE POSITIVE
AC$MASS_SPECTROMETRY: COLLISION_ENERGY 140
AC$MASS_SPECTROMETRY: FRAGMENTATION_MODE CID
AC$MASS_SPECTROMETRY: IONIZATION ESI
AC$CHROMATOGRAPHY: COLUMN_NAME Zorbax Eclipse Plus C18 2.1 mm x 150 mm, 3.5 um, Agilent
AC$CHROMATOGRAPHY: COLUMN_TEMPERATURE 40 °C
AC$CHROMATOGRAPHY: FLOW_GRADIENT 0 min min 98% A, 1 min 98% A, 2 min 80% A, 16.5 min 2% A, 22 min 2% A, 22.1 min 98% A, 27 min 98% A
AC$CHROMATOGRAPHY: FLOW_RATE 0.3 mL/min
AC$CHROMATOGRAPHY: RETENTION_TIME 1.307 min
AC$CHROMATOGRAPHY: SOLVENT A: Water 0.1% Formic acid, B: Acetonitrile 0.1% Formic acid
MS$FOCUSED_ION: PRECURSOR_M/Z 116.107
MS$FOCUSED_ION: PRECURSOR_TYPE [M]+
MS$DATA_PROCESSING: COMMENT Export with Spectra 1.9.12 MsBackendMassbank 1.7.4
MS$DATA_PROCESSING: WHOLE RMassBank 2.3.1
PK$SPLASH: splash10-0006-9000000000-eb6fa870b3377f443470
PK$NUM_PEAK: 9
PK$PEAK: m/z int. rel.int.
  37.007 1.5 63
  38.0026 8.4 354
  39.0103 1.5 63
  40.0181 7.5 316
  41.0257 10.3 434
  42.0335 23.7 999
  52.0054 1.7 71
  53.0126 1.3 54
  54.0084 1.4 59
//
