ACCESSION: MSBNK-BAFG-CSL2311094373
RECORD_TITLE: Sertraline; LC-ESI-QTOF; MS2; 70 V
DATE: 2023.11.09
AUTHORS: Kevin S. Jewell; Björn Ehlig; Arne Wick
LICENSE: dl-de/by-2-0
COPYRIGHT: Copyright 2023 Federal Institute of Hydrology, Koblenz, Germany
COMMENT: CONFIDENCE Reference Standard (Level 1)
COMMENT: Chromatography method: dx.doi.org/10.1016/j.chroma.2015.11.014
COMMENT: Acquisition method: 10.1002/rcm.8541
CH$NAME: Sertraline
CH$COMPOUND_CLASS: Pharmaceutical
CH$FORMULA: C17H17Cl2N
CH$EXACT_MASS: 305.0738
CH$SMILES: CN[C@H]1CC[C@H](c2c1cccc2)c3ccc(c(c3)Cl)Cl
CH$IUPAC: InChI=1S/C17H17Cl2N/c1-20-17-9-7-12(13-4-2-3-5-14(13)17)11-6-8-15(18)16(19)10-11/h2-6,8,10,12,17,20H,7,9H2,1H3/t12-,17-/m0/s1
CH$LINK: CAS 79617-96-2
CH$LINK: INCHIKEY VGKDLMBJGBXTGI-SJCJKPOMSA-N
AC$INSTRUMENT: TripleTOF 5600 SCIEX
AC$INSTRUMENT_TYPE: LC-ESI-QTOF
AC$MASS_SPECTROMETRY: MS_TYPE MS2
AC$MASS_SPECTROMETRY: ION_MODE POSITIVE
AC$MASS_SPECTROMETRY: COLLISION_ENERGY 70
AC$MASS_SPECTROMETRY: FRAGMENTATION_MODE CID
AC$MASS_SPECTROMETRY: IONIZATION ESI
AC$CHROMATOGRAPHY: COLUMN_NAME Zorbax Eclipse Plus C18 2.1 mm x 150 mm, 3.5 um, Agilent
AC$CHROMATOGRAPHY: COLUMN_TEMPERATURE 40 °C
AC$CHROMATOGRAPHY: FLOW_GRADIENT 0 min min 98% A, 1 min 98% A, 2 min 80% A, 16.5 min 2% A, 22 min 2% A, 22.1 min 98% A, 27 min 98% A
AC$CHROMATOGRAPHY: FLOW_RATE 0.3 mL/min
AC$CHROMATOGRAPHY: RETENTION_TIME 8.925 min
AC$CHROMATOGRAPHY: SOLVENT A: Water 0.1% Formic acid, B: Acetonitrile 0.1% Formic acid
MS$FOCUSED_ION: PRECURSOR_M/Z 306.0811
MS$FOCUSED_ION: PRECURSOR_TYPE [M+H]+
MS$DATA_PROCESSING: COMMENT Export with Spectra 1.9.12 MsBackendMassbank 1.7.4
MS$DATA_PROCESSING: WHOLE RMassBank 2.3.1
PK$SPLASH: splash10-0ab9-1900000000-a665f8730de36f7fe9ce
PK$NUM_PEAK: 23
PK$PEAK: m/z int. rel.int.
  72.9876 12.4 50
  77.041 2.9 11
  88.033 2.8 11
  89.0411 52.8 214
  91.0562 9.8 39
  96.9851 6.4 26
  99.001 28 113
  115.0551 3.8 15
  123.0009 136.8 556
  124.0079 47.2 191
  125.015 4 16
  127.0551 24.8 100
  128.0629 64.1 260
  129.0707 23.9 97
  132.9613 24.2 98
  158.9775 245.6 999
  162.0242 6 24
  189.0699 6.7 27
  190.0789 3.9 15
  202.0782 4 16
  203.086 6.1 24
  204.0949 3.4 13
  225.0475 3.8 15
//
