ACCESSION: MSBNK-BAFG-CSL23102512291
RECORD_TITLE: Tributyltetradecylphosphonium; LC-ESI-QTOF; MS2; 60 V
DATE: 2023.10.25
AUTHORS: Kevin S. Jewell; Björn Ehlig; Arne Wick
LICENSE: dl-de/by-2-0
COPYRIGHT: Copyright 2023 Federal Institute of Hydrology, Koblenz, Germany
COMMENT: CONFIDENCE Reference Standard (Level 1)
COMMENT: Chromatography method: dx.doi.org/10.1016/j.chroma.2015.11.014
COMMENT: Acquisition method: 10.1002/rcm.8541
CH$NAME: Tributyltetradecylphosphonium
CH$FORMULA: C26H56P
CH$EXACT_MASS: 399.4114
CH$SMILES: CCCCCCCCCCCCCC[P+](CCCC)(CCCC)CCCC
CH$IUPAC: InChI=1S/C26H56P/c1-5-9-13-14-15-16-17-18-19-20-21-22-26-27(23-10-6-2,24-11-7-3)25-12-8-4/h5-26H2,1-4H3/q+1
CH$LINK: CAS 91582-83-1
CH$LINK: INCHIKEY YCBRTSYWJMECAH-UHFFFAOYSA-N
AC$INSTRUMENT: TripleTOF 5600 SCIEX
AC$INSTRUMENT_TYPE: LC-ESI-QTOF
AC$MASS_SPECTROMETRY: MS_TYPE MS2
AC$MASS_SPECTROMETRY: ION_MODE POSITIVE
AC$MASS_SPECTROMETRY: COLLISION_ENERGY 60
AC$MASS_SPECTROMETRY: FRAGMENTATION_MODE CID
AC$MASS_SPECTROMETRY: IONIZATION ESI
AC$CHROMATOGRAPHY: COLUMN_NAME Zorbax Eclipse Plus C18 2.1 mm x 150 mm, 3.5 um, Agilent
AC$CHROMATOGRAPHY: COLUMN_TEMPERATURE 40 °C
AC$CHROMATOGRAPHY: FLOW_GRADIENT 0 min min 98% A, 1 min 98% A, 2 min 80% A, 16.5 min 2% A, 22 min 2% A, 22.1 min 98% A, 27 min 98% A
AC$CHROMATOGRAPHY: FLOW_RATE 0.3 mL/min
AC$CHROMATOGRAPHY: RETENTION_TIME 14.891 min
AC$CHROMATOGRAPHY: SOLVENT A: Water 0.1% Formic acid, B: Acetonitrile 0.1% Formic acid
MS$FOCUSED_ION: PRECURSOR_M/Z 399.4114
MS$FOCUSED_ION: PRECURSOR_TYPE [M]+
MS$DATA_PROCESSING: COMMENT Export with Spectra 1.9.12 MsBackendMassbank 1.7.4
MS$DATA_PROCESSING: WHOLE RMassBank 2.3.1
PK$SPLASH: splash10-0002-2149000000-68bf438caebd09813c77
PK$NUM_PEAK: 15
PK$PEAK: m/z int. rel.int.
  76.0433 224.3 231
  90.0582 76.6 79
  131.0982 57.5 59
  173.1464 107.5 111
  187.1619 72.7 75
  215.1939 97.3 100
  229.2088 204.5 211
  257.2403 50.5 52
  271.2565 75.7 78
  285.2719 75.7 78
  299.288 61.8 63
  313.3027 72.6 74
  327.3187 57.1 58
  343.3497 98.1 101
  399.4121 967.1 999
//
