ACCESSION: MSBNK-BAFG-CSL2310303111
RECORD_TITLE: 6-Methylthioguanine; LC-ESI-QTOF; MS2; 90 V
DATE: 2023.10.30
AUTHORS: Kevin S. Jewell; Björn Ehlig; Arne Wick
LICENSE: dl-de/by-2-0
COPYRIGHT: Copyright 2023 Federal Institute of Hydrology, Koblenz, Germany
COMMENT: CONFIDENCE Reference Standard (Level 1)
COMMENT: Chromatography method: dx.doi.org/10.1016/j.chroma.2015.11.014
COMMENT: Acquisition method: 10.1002/rcm.8541
CH$NAME: 6-Methylthioguanine
CH$COMPOUND_CLASS: Metabolite; Pharmaceutical
CH$FORMULA: C6H7N5S
CH$EXACT_MASS: 181.0422
CH$SMILES: CSc1nc(N)nc2nc[nH]c12
CH$IUPAC: InChI=1S/C6H7N5S/c1-12-5-3-4(9-2-8-3)10-6(7)11-5/h2H,1H3,(H3,7,8,9,10,11)
CH$LINK: CAS 1198-47-6
CH$LINK: INCHIKEY YEGKYFQLKYGHAR-UHFFFAOYSA-N
AC$INSTRUMENT: TripleTOF 5600 SCIEX
AC$INSTRUMENT_TYPE: LC-ESI-QTOF
AC$MASS_SPECTROMETRY: MS_TYPE MS2
AC$MASS_SPECTROMETRY: ION_MODE POSITIVE
AC$MASS_SPECTROMETRY: COLLISION_ENERGY 90
AC$MASS_SPECTROMETRY: FRAGMENTATION_MODE CID
AC$MASS_SPECTROMETRY: IONIZATION ESI
AC$CHROMATOGRAPHY: COLUMN_NAME Zorbax Eclipse Plus C18 2.1 mm x 150 mm, 3.5 um, Agilent
AC$CHROMATOGRAPHY: COLUMN_TEMPERATURE 40 °C
AC$CHROMATOGRAPHY: FLOW_GRADIENT 0 min min 98% A, 1 min 98% A, 2 min 80% A, 16.5 min 2% A, 22 min 2% A, 22.1 min 98% A, 27 min 98% A
AC$CHROMATOGRAPHY: FLOW_RATE 0.3 mL/min
AC$CHROMATOGRAPHY: RETENTION_TIME 4.912 min
AC$CHROMATOGRAPHY: SOLVENT A: Water 0.1% Formic acid, B: Acetonitrile 0.1% Formic acid
MS$FOCUSED_ION: PRECURSOR_M/Z 182.0495
MS$FOCUSED_ION: PRECURSOR_TYPE [M+H]+
MS$DATA_PROCESSING: COMMENT Export with Spectra 1.9.12 MsBackendMassbank 1.7.4
MS$DATA_PROCESSING: WHOLE RMassBank 2.3.1
PK$SPLASH: splash10-0gb9-9000000000-96d41a99668adb9b8774
PK$NUM_PEAK: 18
PK$PEAK: m/z int. rel.int.
  38.0107 1.1 129
  53.0184 8.5 999
  54.0252 1.8 211
  54.0351 0.7 82
  55.0355 1.3 152
  55.9751 2.9 340
  56.9834 0.7 82
  57.9806 0.6 70
  65.0165 3.8 446
  66.0245 1.2 141
  68.0271 5.9 693
  69.9765 4.4 517
  70.9851 7.1 834
  80.0263 0.9 105
  81.0351 0.6 70
  81.9755 1 117
  82.9836 4.9 575
  84.9872 0.6 70
//
