ACCESSION: MSBNK-BAFG-CSL23102613593
RECORD_TITLE: 2-Ethyl-5-hydroxyhexyl-2-hydroxybenzoate; LC-ESI-QTOF; MS2; 60 V
DATE: 2023.10.26
AUTHORS: Kevin S. Jewell; Björn Ehlig; Arne Wick
LICENSE: dl-de/by-2-0
COPYRIGHT: Copyright 2023 Federal Institute of Hydrology, Koblenz, Germany
COMMENT: CONFIDENCE Reference Standard (Level 1)
COMMENT: Chromatography method: dx.doi.org/10.1016/j.chroma.2015.11.014
COMMENT: Acquisition method: 10.1002/rcm.8541
CH$NAME: 2-Ethyl-5-hydroxyhexyl-2-hydroxybenzoate
CH$FORMULA: C15H22O4
CH$EXACT_MASS: 266.1518
CH$SMILES: Oc1ccccc1C(=O)OCC(CC)CCC(C)O
CH$IUPAC: InChI=1S/C15H22O4/c1-3-12(9-8-11(2)16)10-19-15(18)13-6-4-5-7-14(13)17/h4-7,11-12,16-17H,3,8-10H2,1-2H3
CH$LINK: CAS NA
CH$LINK: INCHIKEY GBHBFLJCRCERFT-UHFFFAOYSA-N
AC$INSTRUMENT: TripleTOF 5600 SCIEX
AC$INSTRUMENT_TYPE: LC-ESI-QTOF
AC$MASS_SPECTROMETRY: MS_TYPE MS2
AC$MASS_SPECTROMETRY: ION_MODE POSITIVE
AC$MASS_SPECTROMETRY: COLLISION_ENERGY 60
AC$MASS_SPECTROMETRY: FRAGMENTATION_MODE CID
AC$MASS_SPECTROMETRY: IONIZATION ESI
AC$CHROMATOGRAPHY: COLUMN_NAME Zorbax Eclipse Plus C18 2.1 mm x 150 mm, 3.5 um, Agilent
AC$CHROMATOGRAPHY: COLUMN_TEMPERATURE 40 °C
AC$CHROMATOGRAPHY: FLOW_GRADIENT 0 min min 98% A, 1 min 98% A, 2 min 80% A, 16.5 min 2% A, 22 min 2% A, 22.1 min 98% A, 27 min 98% A
AC$CHROMATOGRAPHY: FLOW_RATE 0.3 mL/min
AC$CHROMATOGRAPHY: RETENTION_TIME 12.884 min
AC$CHROMATOGRAPHY: SOLVENT A: Water 0.1% Formic acid, B: Acetonitrile 0.1% Formic acid
MS$FOCUSED_ION: PRECURSOR_M/Z 267.1591
MS$FOCUSED_ION: PRECURSOR_TYPE [M+H]+
MS$DATA_PROCESSING: COMMENT Export with Spectra 1.9.12 MsBackendMassbank 1.7.4
MS$DATA_PROCESSING: WHOLE RMassBank 2.3.1
PK$SPLASH: splash10-00xr-9700000000-48831a3acec6ee88b692
PK$NUM_PEAK: 7
PK$PEAK: m/z int. rel.int.
  39.0233 0.8 71
  41.0388 1.5 133
  55.0546 1.5 133
  65.0388 2.5 222
  69.0699 5.1 454
  93.0335 2.6 231
  121.0277 11.2 999
//
