ACCESSION: MSBNK-BAFG-CSL2310305164
RECORD_TITLE: Climbazole; LC-ESI-QTOF; MS2; 140 V
DATE: 2023.10.30
AUTHORS: Kevin S. Jewell; Björn Ehlig; Arne Wick
LICENSE: dl-de/by-2-0
COPYRIGHT: Copyright 2023 Federal Institute of Hydrology, Koblenz, Germany
COMMENT: CONFIDENCE Reference Standard (Level 1)
COMMENT: Chromatography method: dx.doi.org/10.1016/j.chroma.2015.11.014
COMMENT: Acquisition method: 10.1002/rcm.8541
CH$NAME: Climbazole
CH$COMPOUND_CLASS: Pharmaceutical; Personal_care_product
CH$FORMULA: C15H17ClN2O2
CH$EXACT_MASS: 292.0979
CH$SMILES: CC(C)(C)C(=O)C(Oc1ccc(Cl)cc1)n2ccnc2
CH$IUPAC: InChI=1S/C15H17ClN2O2/c1-15(2,3)13(19)14(18-9-8-17-10-18)20-12-6-4-11(16)5-7-12/h4-10,14H,1-3H3
CH$LINK: CAS 38083-17-9
CH$LINK: INCHIKEY OWEGWHBOCFMBLP-UHFFFAOYSA-N
AC$INSTRUMENT: TripleTOF 5600 SCIEX
AC$INSTRUMENT_TYPE: LC-ESI-QTOF
AC$MASS_SPECTROMETRY: MS_TYPE MS2
AC$MASS_SPECTROMETRY: ION_MODE POSITIVE
AC$MASS_SPECTROMETRY: COLLISION_ENERGY 140
AC$MASS_SPECTROMETRY: FRAGMENTATION_MODE CID
AC$MASS_SPECTROMETRY: IONIZATION ESI
AC$CHROMATOGRAPHY: COLUMN_NAME Zorbax Eclipse Plus C18 2.1 mm x 150 mm, 3.5 um, Agilent
AC$CHROMATOGRAPHY: COLUMN_TEMPERATURE 40 °C
AC$CHROMATOGRAPHY: FLOW_GRADIENT 0 min min 98% A, 1 min 98% A, 2 min 80% A, 16.5 min 2% A, 22 min 2% A, 22.1 min 98% A, 27 min 98% A
AC$CHROMATOGRAPHY: FLOW_RATE 0.3 mL/min
AC$CHROMATOGRAPHY: RETENTION_TIME 8.761 min
AC$CHROMATOGRAPHY: SOLVENT A: Water 0.1% Formic acid, B: Acetonitrile 0.1% Formic acid
MS$FOCUSED_ION: PRECURSOR_M/Z 293.1051
MS$FOCUSED_ION: PRECURSOR_TYPE [M+H]+
MS$DATA_PROCESSING: COMMENT Export with Spectra 1.9.12 MsBackendMassbank 1.7.4
MS$DATA_PROCESSING: WHOLE RMassBank 2.3.1
PK$SPLASH: splash10-00di-9000000000-2b3b89d3c82eba5c17fa
PK$NUM_PEAK: 19
PK$PEAK: m/z int. rel.int.
  55.0584 0.6 14
  57.0744 3.3 82
  60.9879 0.6 14
  65.0437 0.8 19
  67.0321 1.1 27
  68.0392 1.5 37
  69.0472 5.1 126
  72.9863 7.1 176
  73.0097 3.7 91
  74.0181 40.2 999
  74.061 0.5 12
  75.0259 15.2 377
  75.0731 0.6 14
  76.0334 0.5 12
  77.0406 0.8 19
  81.0463 0.5 12
  84.9846 3.5 86
  89.0392 0.7 17
  98.9994 0.4 9
//
