ACCESSION: MSBNK-BAFG-CSL2311109709
RECORD_TITLE: Demeclocycline; LC-ESI-QTOF; MS2; 140 V
DATE: 2023.11.10
AUTHORS: Kevin S. Jewell; Björn Ehlig; Arne Wick
LICENSE: dl-de/by-2-0
COPYRIGHT: Copyright 2023 Federal Institute of Hydrology, Koblenz, Germany
COMMENT: CONFIDENCE Reference Standard (Level 1)
COMMENT: Chromatography method: dx.doi.org/10.1016/j.chroma.2015.11.014
COMMENT: Acquisition method: 10.1002/rcm.8541
CH$NAME: Demeclocycline
CH$COMPOUND_CLASS: Antimicrobial; Pharmaceutical
CH$FORMULA: C21H21ClN2O8
CH$EXACT_MASS: 464.0986
CH$SMILES: CN(C)C1C2CC3C(C4=C(C=CC(=C4C(=C3C(=O)C2(C(=C(C1=O)C(=O)N)O)O)O)O)Cl)O
CH$IUPAC: InChI=1S/C21H21ClN2O8/c1-24(2)14-7-5-6-10(16(27)12-9(25)4-3-8(22)11(12)15(6)26)18(29)21(7,32)19(30)13(17(14)28)20(23)31/h3-4,6-7,14-15,25-27,30,32H,5H2,1-2H3,(H2,23,31)
CH$LINK: CAS 127-33-3
CH$LINK: INCHIKEY GUXHBMASAHGULD-UHFFFAOYSA-N
AC$INSTRUMENT: TripleTOF 5600 SCIEX
AC$INSTRUMENT_TYPE: LC-ESI-QTOF
AC$MASS_SPECTROMETRY: MS_TYPE MS2
AC$MASS_SPECTROMETRY: ION_MODE POSITIVE
AC$MASS_SPECTROMETRY: COLLISION_ENERGY 140
AC$MASS_SPECTROMETRY: FRAGMENTATION_MODE CID
AC$MASS_SPECTROMETRY: IONIZATION ESI
AC$CHROMATOGRAPHY: COLUMN_NAME Zorbax Eclipse Plus C18 2.1 mm x 150 mm, 3.5 um, Agilent
AC$CHROMATOGRAPHY: COLUMN_TEMPERATURE 40 °C
AC$CHROMATOGRAPHY: FLOW_GRADIENT 0 min min 98% A, 1 min 98% A, 2 min 80% A, 16.5 min 2% A, 22 min 2% A, 22.1 min 98% A, 27 min 98% A
AC$CHROMATOGRAPHY: FLOW_RATE 0.3 mL/min
AC$CHROMATOGRAPHY: RETENTION_TIME 5.787 min
AC$CHROMATOGRAPHY: SOLVENT A: Water 0.1% Formic acid, B: Acetonitrile 0.1% Formic acid
MS$FOCUSED_ION: PRECURSOR_M/Z 465.1059
MS$FOCUSED_ION: PRECURSOR_TYPE [M+H]+
MS$DATA_PROCESSING: COMMENT Export with Spectra 1.9.12 MsBackendMassbank 1.7.4
MS$DATA_PROCESSING: WHOLE RMassBank 2.3.1
PK$SPLASH: splash10-0udr-0900000000-37d69a07f8009c3ded76
PK$NUM_PEAK: 22
PK$PEAK: m/z int. rel.int.
  113.0404 0.4 43
  114.0463 0.4 43
  115.0555 2 219
  126.0481 1.3 142
  138.0483 0.7 76
  139.055 9.1 999
  140.0642 1.3 142
  141.0697 1 109
  150.0473 3.3 362
  151.0547 3.8 417
  152.064 7.7 845
  153.0695 0.5 54
  162.0446 0.5 54
  163.0547 3.8 417
  164.0621 0.9 98
  165.0695 1 109
  168.0568 1.1 120
  169.0556 0.4 43
  174.047 0.5 54
  176.0641 0.5 54
  181.0683 0.8 87
  197.0586 0.5 54
//
