ACCESSION: MSBNK-BAFG-CSL23110927503
RECORD_TITLE: Crotamiton; LC-ESI-QTOF; MS2; 60 V
DATE: 2023.11.09
AUTHORS: Kevin S. Jewell; Björn Ehlig; Arne Wick
LICENSE: dl-de/by-2-0
COPYRIGHT: Copyright 2023 Federal Institute of Hydrology, Koblenz, Germany
COMMENT: CONFIDENCE Reference Standard (Level 1)
COMMENT: Chromatography method: dx.doi.org/10.1016/j.chroma.2015.11.014
COMMENT: Acquisition method: 10.1002/rcm.8541
CH$NAME: Crotamiton
CH$FORMULA: C13H17NO
CH$EXACT_MASS: 203.131
CH$SMILES: CCN(C1=CC=CC=C1C)C(=O)C=CC
CH$IUPAC: InChI=1S/C13H17NO/c1-4-8-13(15)14(5-2)12-10-7-6-9-11(12)3/h4,6-10H,5H2,1-3H3
CH$LINK: CAS 483-63-6
CH$LINK: INCHIKEY DNTGGZPQPQTDQF-UHFFFAOYSA-N
AC$INSTRUMENT: TripleTOF 6600 SCIEX
AC$INSTRUMENT_TYPE: LC-ESI-QTOF
AC$MASS_SPECTROMETRY: MS_TYPE MS2
AC$MASS_SPECTROMETRY: ION_MODE POSITIVE
AC$MASS_SPECTROMETRY: COLLISION_ENERGY 60
AC$MASS_SPECTROMETRY: FRAGMENTATION_MODE CID
AC$MASS_SPECTROMETRY: IONIZATION ESI
AC$CHROMATOGRAPHY: COLUMN_NAME Zorbax Eclipse Plus C18 2.1 mm x 150 mm, 3.5 um, Agilent
AC$CHROMATOGRAPHY: COLUMN_TEMPERATURE 40 °C
AC$CHROMATOGRAPHY: FLOW_GRADIENT 0 min min 98% A, 1 min 98% A, 2 min 80% A, 16.5 min 2% A, 22 min 2% A, 22.1 min 98% A, 27 min 98% A
AC$CHROMATOGRAPHY: FLOW_RATE 0.3 mL/min
AC$CHROMATOGRAPHY: RETENTION_TIME 11.073 min
AC$CHROMATOGRAPHY: SOLVENT A: Water 0.1% Formic acid, B: Acetonitrile 0.1% Formic acid
MS$FOCUSED_ION: PRECURSOR_M/Z 204.1383
MS$FOCUSED_ION: PRECURSOR_TYPE [M+H]+
MS$DATA_PROCESSING: COMMENT Export with Spectra 1.9.12 MsBackendMassbank 1.7.4
MS$DATA_PROCESSING: WHOLE RMassBank 2.3.1
PK$SPLASH: splash10-052f-9300000000-2687649db7f73476b07b
PK$NUM_PEAK: 31
PK$PEAK: m/z int. rel.int.
  37.0073 24.5 62
  38.0152 24.4 62
  39.0234 288.8 738
  41.039 281 718
  51.0228 5.6 14
  63.0226 5.1 13
  65.0386 97.8 250
  66.0456 10.4 26
  68.049 25.8 65
  69.0336 149.9 383
  77.0385 89 227
  78.0455 5.6 14
  79.0541 38.5 98
  89.038 12.4 31
  90.0461 5.4 13
  91.0541 166.8 426
  92.0487 5.3 13
  93.0571 144.7 369
  103.0535 6 15
  104.0492 7 17
  106.0652 390.8 999
  107.072 24.2 61
  108.0801 7.2 18
  115.0537 17.7 45
  116.0496 6.7 17
  117.0567 16.9 43
  118.0646 17.6 44
  119.0733 4 10
  120.0796 8.2 20
  128.0495 6.1 15
  130.0642 8.3 21
//
