ACCESSION: MSBNK-BAFG-CSL2310309893
RECORD_TITLE: 2-(3-Pyridyl)-1H-benzimidazole; LC-ESI-QTOF; MS2; 100 V
DATE: 2023.10.30
AUTHORS: Kevin S. Jewell; Björn Ehlig; Arne Wick
LICENSE: dl-de/by-2-0
COPYRIGHT: Copyright 2023 Federal Institute of Hydrology, Koblenz, Germany
COMMENT: CONFIDENCE Reference Standard (Level 1)
COMMENT: Chromatography method: dx.doi.org/10.1016/j.chroma.2015.11.014
COMMENT: Acquisition method: 10.1002/rcm.8541
CH$NAME: 2-(3-Pyridyl)-1H-benzimidazole
CH$COMPOUND_CLASS: Pharmaceutical
CH$FORMULA: C12H9N3
CH$EXACT_MASS: 195.0796
CH$SMILES: C1=CC=C2C(=C1)NC(=N2)C3=CN=CC=C3
CH$IUPAC: InChI=1S/C12H9N3/c1-2-6-11-10(5-1)14-12(15-11)9-4-3-7-13-8-9/h1-8H,(H,14,15)
CH$LINK: CAS 1137-67-3
CH$LINK: INCHIKEY BOUOQESVDURNSB-UHFFFAOYSA-N
AC$INSTRUMENT: TripleTOF 5600 SCIEX
AC$INSTRUMENT_TYPE: LC-ESI-QTOF
AC$MASS_SPECTROMETRY: MS_TYPE MS2
AC$MASS_SPECTROMETRY: ION_MODE POSITIVE
AC$MASS_SPECTROMETRY: COLLISION_ENERGY 100
AC$MASS_SPECTROMETRY: FRAGMENTATION_MODE CID
AC$MASS_SPECTROMETRY: IONIZATION ESI
AC$CHROMATOGRAPHY: COLUMN_NAME Zorbax Eclipse Plus C18 2.1 mm x 150 mm, 3.5 um, Agilent
AC$CHROMATOGRAPHY: COLUMN_TEMPERATURE 40 °C
AC$CHROMATOGRAPHY: FLOW_GRADIENT 0 min min 98% A, 1 min 98% A, 2 min 80% A, 16.5 min 2% A, 22 min 2% A, 22.1 min 98% A, 27 min 98% A
AC$CHROMATOGRAPHY: FLOW_RATE 0.3 mL/min
AC$CHROMATOGRAPHY: RETENTION_TIME 5.155 min
AC$CHROMATOGRAPHY: SOLVENT A: Water 0.1% Formic acid, B: Acetonitrile 0.1% Formic acid
MS$FOCUSED_ION: PRECURSOR_M/Z 196.0869
MS$FOCUSED_ION: PRECURSOR_TYPE [M+H]+
MS$DATA_PROCESSING: COMMENT Export with Spectra 1.9.12 MsBackendMassbank 1.7.4
MS$DATA_PROCESSING: WHOLE RMassBank 2.3.1
PK$SPLASH: splash10-000i-9000000000-d7e12e55e1e4c7d283e6
PK$NUM_PEAK: 21
PK$PEAK: m/z int. rel.int.
  35.9992 5 82
  37.0073 19 312
  38.0028 1 16
  38.0151 14.8 243
  39.023 60.8 999
  51.0101 0.8 13
  51.0229 18.6 305
  52.0178 4.5 73
  52.0309 1.5 24
  64.0305 1.5 24
  65.0387 29.8 489
  74.0151 2.1 34
  75.0241 2 32
  76.0188 1.6 26
  77.0378 0.7 11
  78.0347 1.8 29
  88.0304 0.6 9
  89.0386 1 16
  91.0415 1 16
  113.0377 1.2 19
  140.0474 1 16
//
