ACCESSION: MSBNK-BAFG-CSL23111016614
RECORD_TITLE: Flufenacet ESA; LC-ESI-QTOF; MS2; 90 V
DATE: 2023.11.10
AUTHORS: Kevin S. Jewell; Björn Ehlig; Arne Wick
LICENSE: dl-de/by-2-0
COPYRIGHT: Copyright 2023 Federal Institute of Hydrology, Koblenz, Germany
COMMENT: CONFIDENCE Reference Standard (Level 1)
COMMENT: Chromatography method: dx.doi.org/10.1016/j.chroma.2015.11.014
COMMENT: Acquisition method: 10.1002/rcm.8541
CH$NAME: Flufenacet ESA
CH$COMPOUND_CLASS: Herbicide; Transformation_product
CH$FORMULA: C11H14FNO4S
CH$EXACT_MASS: 275.0628
CH$SMILES: CC(C)N(C1=CC=C(C=C1)F)C(=O)CS(=O)(=O)O
CH$IUPAC: InChI=1S/C11H14FNO4S/c1-8(2)13(11(14)7-18(15,16)17)10-5-3-9(12)4-6-10/h3-6,8H,7H2,1-2H3,(H,15,16,17)
CH$LINK: CAS 201668-32-8
CH$LINK: INCHIKEY SZCMHDLOUVZYST-UHFFFAOYSA-N
AC$INSTRUMENT: TripleTOF 6600 SCIEX
AC$INSTRUMENT_TYPE: LC-ESI-QTOF
AC$MASS_SPECTROMETRY: MS_TYPE MS2
AC$MASS_SPECTROMETRY: ION_MODE POSITIVE
AC$MASS_SPECTROMETRY: COLLISION_ENERGY 90
AC$MASS_SPECTROMETRY: FRAGMENTATION_MODE CID
AC$MASS_SPECTROMETRY: IONIZATION ESI
AC$CHROMATOGRAPHY: COLUMN_NAME Zorbax Eclipse Plus C18 2.1 mm x 150 mm, 3.5 um, Agilent
AC$CHROMATOGRAPHY: COLUMN_TEMPERATURE 40 °C
AC$CHROMATOGRAPHY: FLOW_GRADIENT 0 min min 98% A, 1 min 98% A, 2 min 80% A, 16.5 min 2% A, 22 min 2% A, 22.1 min 98% A, 27 min 98% A
AC$CHROMATOGRAPHY: FLOW_RATE 0.3 mL/min
AC$CHROMATOGRAPHY: RETENTION_TIME 6.781 min
AC$CHROMATOGRAPHY: SOLVENT A: Water 0.1% Formic acid, B: Acetonitrile 0.1% Formic acid
MS$FOCUSED_ION: PRECURSOR_M/Z 276.07
MS$FOCUSED_ION: PRECURSOR_TYPE [M+H]+
MS$DATA_PROCESSING: COMMENT Export with Spectra 1.9.12 MsBackendMassbank 1.7.4
MS$DATA_PROCESSING: WHOLE RMassBank 2.3.1
PK$SPLASH: splash10-004j-9100000000-012a5827e54d3357a3e7
PK$NUM_PEAK: 37
PK$PEAK: m/z int. rel.int.
  31.0169 1 20
  39.0231 2.2 45
  41.038 1.9 39
  50.0147 1.4 28
  51.0225 3.7 76
  57.0131 4.5 93
  59.0121 0.6 12
  59.0284 1.2 24
  63.0226 1.9 39
  64.0295 1 20
  64.9689 0.6 12
  65.0384 4.8 99
  69.0131 1.1 22
  70.0207 0.9 18
  73.007 0.9 18
  74.0147 17.6 364
  75.0228 48.3 999
  77.038 6.6 136
  80.9641 0.8 16
  83.0286 11.6 239
  84.0364 3.3 68
  89.0376 0.8 16
  92.0489 1.7 35
  95.0288 30.2 624
  96.0368 5.2 107
  97.045 2.2 45
  104.0474 0.5 10
  107.0291 1.8 37
  108.0369 0.5 10
  109.0443 6.5 134
  110.0396 0.9 18
  111.0473 4.7 97
  112.055 1 20
  123.035 7.9 163
  124.0567 1 20
  134.039 0.6 12
  135.0475 0.6 12
//
