ACCESSION: MSBNK-BAFG-CSL2310259013
RECORD_TITLE: 2-(4-Chlorophenyl)benzimidazole; LC-ESI-QTOF; MS2; 140 V
DATE: 2023.10.25
AUTHORS: Kevin S. Jewell; Björn Ehlig; Arne Wick
LICENSE: dl-de/by-2-0
COPYRIGHT: Copyright 2023 Federal Institute of Hydrology, Koblenz, Germany
COMMENT: CONFIDENCE Reference Standard (Level 1)
COMMENT: Chromatography method: dx.doi.org/10.1016/j.chroma.2015.11.014
COMMENT: Acquisition method: 10.1002/rcm.8541
CH$NAME: 2-(4-Chlorophenyl)benzimidazole
CH$COMPOUND_CLASS: Pharmaceutical
CH$FORMULA: C13H9ClN2
CH$EXACT_MASS: 228.0454
CH$SMILES: C1=CC=C2C(=C1)NC(=N2)C3=CC=C(C=C3)Cl
CH$IUPAC: InChI=1S/C13H9ClN2/c14-10-7-5-9(6-8-10)13-15-11-3-1-2-4-12(11)16-13/h1-8H,(H,15,16)
CH$LINK: CAS 1019-85-8
CH$LINK: INCHIKEY PTXUJRTVWRYYTE-UHFFFAOYSA-N
AC$INSTRUMENT: TripleTOF 5600 SCIEX
AC$INSTRUMENT_TYPE: LC-ESI-QTOF
AC$MASS_SPECTROMETRY: MS_TYPE MS2
AC$MASS_SPECTROMETRY: ION_MODE POSITIVE
AC$MASS_SPECTROMETRY: COLLISION_ENERGY 140
AC$MASS_SPECTROMETRY: FRAGMENTATION_MODE CID
AC$MASS_SPECTROMETRY: IONIZATION ESI
AC$CHROMATOGRAPHY: COLUMN_NAME Zorbax Eclipse Plus C18 2.1 mm x 150 mm, 3.5 um, Agilent
AC$CHROMATOGRAPHY: COLUMN_TEMPERATURE 40 °C
AC$CHROMATOGRAPHY: FLOW_GRADIENT 0 min min 98% A, 1 min 98% A, 2 min 80% A, 16.5 min 2% A, 22 min 2% A, 22.1 min 98% A, 27 min 98% A
AC$CHROMATOGRAPHY: FLOW_RATE 0.3 mL/min
AC$CHROMATOGRAPHY: RETENTION_TIME 6.754 min
AC$CHROMATOGRAPHY: SOLVENT A: Water 0.1% Formic acid, B: Acetonitrile 0.1% Formic acid
MS$FOCUSED_ION: PRECURSOR_M/Z 229.0527
MS$FOCUSED_ION: PRECURSOR_TYPE [M+H]+
MS$DATA_PROCESSING: COMMENT Export with Spectra 1.9.12 MsBackendMassbank 1.7.4
MS$DATA_PROCESSING: WHOLE RMassBank 2.3.1
PK$SPLASH: splash10-00di-9000000000-33cca580093edb20ef54
PK$NUM_PEAK: 21
PK$PEAK: m/z int. rel.int.
  52.0275 2.6 167
  64.0382 1.2 77
  73.0138 2.7 174
  74.0211 15.5 999
  75.0282 3.4 219
  76.0242 1 64
  77.0443 0.6 38
  84.9882 0.7 45
  85.0099 1.2 77
  86.0196 2.5 161
  87.027 1.6 103
  88.0257 0.9 58
  89.0405 1.7 109
  97.0099 0.5 32
  98.0189 1.1 70
  110.0199 0.6 38
  111.0244 0.8 51
  113.0389 0.7 45
  114.0384 0.6 38
  137.044 0.5 32
  164.0512 0.6 38
//
