ACCESSION: MSBNK-BAFG-CSL2310308162
RECORD_TITLE: Propiconazole; LC-ESI-QTOF; MS2; 110 V
DATE: 2023.10.30
AUTHORS: Kevin S. Jewell; Björn Ehlig; Arne Wick
LICENSE: dl-de/by-2-0
COPYRIGHT: Copyright 2023 Federal Institute of Hydrology, Koblenz, Germany
COMMENT: CONFIDENCE Reference Standard (Level 1)
COMMENT: Chromatography method: dx.doi.org/10.1016/j.chroma.2015.11.014
COMMENT: Acquisition method: 10.1002/rcm.8541
CH$NAME: Propiconazole
CH$COMPOUND_CLASS: Fungicide
CH$FORMULA: C15H17Cl2N3O2
CH$EXACT_MASS: 341.0698
CH$SMILES: CCCC1COC(Cn2cncn2)(O1)c3ccc(Cl)cc3Cl
CH$IUPAC: InChI=1S/C15H17Cl2N3O2/c1-2-3-12-7-21-15(22-12,8-20-10-18-9-19-20)13-5-4-11(16)6-14(13)17/h4-6,9-10,12H,2-3,7-8H2,1H3
CH$LINK: CAS 60207-90-1
CH$LINK: INCHIKEY STJLVHWMYQXCPB-UHFFFAOYSA-N
AC$INSTRUMENT: TripleTOF 5600 SCIEX
AC$INSTRUMENT_TYPE: LC-ESI-QTOF
AC$MASS_SPECTROMETRY: MS_TYPE MS2
AC$MASS_SPECTROMETRY: ION_MODE POSITIVE
AC$MASS_SPECTROMETRY: COLLISION_ENERGY 110
AC$MASS_SPECTROMETRY: FRAGMENTATION_MODE CID
AC$MASS_SPECTROMETRY: IONIZATION ESI
AC$CHROMATOGRAPHY: COLUMN_NAME Zorbax Eclipse Plus C18 2.1 mm x 150 mm, 3.5 um, Agilent
AC$CHROMATOGRAPHY: COLUMN_TEMPERATURE 40 °C
AC$CHROMATOGRAPHY: FLOW_GRADIENT 0 min min 98% A, 1 min 98% A, 2 min 80% A, 16.5 min 2% A, 22 min 2% A, 22.1 min 98% A, 27 min 98% A
AC$CHROMATOGRAPHY: FLOW_RATE 0.3 mL/min
AC$CHROMATOGRAPHY: RETENTION_TIME 13.45 min
AC$CHROMATOGRAPHY: SOLVENT A: Water 0.1% Formic acid, B: Acetonitrile 0.1% Formic acid
MS$FOCUSED_ION: PRECURSOR_M/Z 342.0771
MS$FOCUSED_ION: PRECURSOR_TYPE [M+H]+
MS$DATA_PROCESSING: COMMENT Export with Spectra 1.9.12 MsBackendMassbank 1.7.4
MS$DATA_PROCESSING: WHOLE RMassBank 2.3.1
PK$SPLASH: splash10-00dr-9500000000-d8370fce7b86717feb71
PK$NUM_PEAK: 22
PK$PEAK: m/z int. rel.int.
  48.9909 2 9
  69.0718 4.4 21
  70.0429 6.8 33
  72.9879 74.9 373
  74.0184 44.7 223
  75.0253 5.9 29
  82.9464 6.7 33
  87.0238 4.2 20
  88.0318 14 69
  89.0412 200.2 999
  89.0725 3.4 16
  96.9845 29.1 145
  99 49.6 247
  106.9443 2.3 11
  108.9841 63.2 315
  109.9913 2.7 13
  122.9994 93.2 465
  124.0062 33.7 168
  132.9598 24.6 122
  144.9599 17.7 88
  158.9756 39.1 195
  172.9642 5.1 25
//
