ACCESSION: MSBNK-BAFG-CSL23103017133
RECORD_TITLE: N-Desmethyltramadol; LC-ESI-QTOF; MS2; 110 V
DATE: 2023.10.30
AUTHORS: Kevin S. Jewell; Björn Ehlig; Arne Wick
LICENSE: dl-de/by-2-0
COPYRIGHT: Copyright 2023 Federal Institute of Hydrology, Koblenz, Germany
COMMENT: CONFIDENCE Reference Standard (Level 1)
COMMENT: Chromatography method: dx.doi.org/10.1016/j.chroma.2015.11.014
COMMENT: Acquisition method: 10.1002/rcm.8541
CH$NAME: N-Desmethyltramadol
CH$COMPOUND_CLASS: Transformation_product; Metabolite
CH$FORMULA: C15H23NO2
CH$EXACT_MASS: 249.1729
CH$SMILES: CNCC1CCCCC1(C2=CC(=CC=C2)OC)O
CH$IUPAC: InChI=1S/C15H23NO2/c1-16-11-13-6-3-4-9-15(13,17)12-7-5-8-14(10-12)18-2/h5,7-8,10,13,16-17H,3-4,6,9,11H2,1-2H3
CH$LINK: CAS 73806-55-0
CH$LINK: INCHIKEY VUMQHLSPUAFKKK-UHFFFAOYSA-N
AC$INSTRUMENT: TripleTOF 6600 SCIEX
AC$INSTRUMENT_TYPE: LC-ESI-QTOF
AC$MASS_SPECTROMETRY: MS_TYPE MS2
AC$MASS_SPECTROMETRY: ION_MODE POSITIVE
AC$MASS_SPECTROMETRY: COLLISION_ENERGY 110
AC$MASS_SPECTROMETRY: FRAGMENTATION_MODE CID
AC$MASS_SPECTROMETRY: IONIZATION ESI
AC$CHROMATOGRAPHY: COLUMN_NAME Zorbax Eclipse Plus C18 2.1 mm x 150 mm, 3.5 um, Agilent
AC$CHROMATOGRAPHY: COLUMN_TEMPERATURE 40 °C
AC$CHROMATOGRAPHY: FLOW_GRADIENT 0 min min 98% A, 1 min 98% A, 2 min 80% A, 16.5 min 2% A, 22 min 2% A, 22.1 min 98% A, 27 min 98% A
AC$CHROMATOGRAPHY: FLOW_RATE 0.3 mL/min
AC$CHROMATOGRAPHY: RETENTION_TIME 6.246 min
AC$CHROMATOGRAPHY: SOLVENT A: Water 0.1% Formic acid, B: Acetonitrile 0.1% Formic acid
MS$FOCUSED_ION: PRECURSOR_M/Z 250.1802
MS$FOCUSED_ION: PRECURSOR_TYPE [M+H]+
MS$DATA_PROCESSING: COMMENT Export with Spectra 1.9.12 MsBackendMassbank 1.7.4
MS$DATA_PROCESSING: WHOLE RMassBank 2.3.1
PK$SPLASH: splash10-0006-9000000000-41cc97ce2bdda481174b
PK$NUM_PEAK: 24
PK$PEAK: m/z int. rel.int.
  30.0334 1.1 13
  37.0074 0.9 10
  38.0153 1.4 16
  39.0227 4.6 54
  42.0339 11.6 137
  43.0417 3 35
  44.05 84.4 999
  49.0071 1 11
  50.0151 5.4 63
  51.0229 8.4 99
  52.0307 1.8 21
  61.007 1.4 16
  62.0149 3 35
  63.0227 9.8 115
  64.0308 1.5 17
  65.0384 3.5 41
  77.0383 5.2 61
  78.0461 2.4 28
  89.0384 2.6 30
  91.054 1.5 17
  102.0465 1.2 14
  115.054 4.1 48
  127.0545 1.1 13
  128.0633 1.6 18
//
