ACCESSION: MSBNK-BAFG-CSL2310305927
RECORD_TITLE: Imidacloprid; LC-ESI-QTOF; MS2; 30 V
DATE: 2023.10.30
AUTHORS: Kevin S. Jewell; Björn Ehlig; Arne Wick
LICENSE: dl-de/by-2-0
COPYRIGHT: Copyright 2023 Federal Institute of Hydrology, Koblenz, Germany
COMMENT: CONFIDENCE Reference Standard (Level 1)
COMMENT: Chromatography method: dx.doi.org/10.1016/j.chroma.2015.11.014
COMMENT: Acquisition method: 10.1002/rcm.8541
CH$NAME: Imidacloprid
CH$COMPOUND_CLASS: Insecticide
CH$FORMULA: C9H10ClN5O2
CH$EXACT_MASS: 255.0523
CH$SMILES: [O-][N+](=O)NC1=NCCN1Cc2ccc(Cl)nc2
CH$IUPAC: InChI=1S/C9H10ClN5O2/c10-8-2-1-7(5-12-8)6-14-4-3-11-9(14)13-15(16)17/h1-2,5H,3-4,6H2,(H,11,13)
CH$LINK: CAS 138261-41-3
CH$LINK: INCHIKEY YWTYJOPNNQFBPC-UHFFFAOYSA-N
AC$INSTRUMENT: TripleTOF 5600 SCIEX
AC$INSTRUMENT_TYPE: LC-ESI-QTOF
AC$MASS_SPECTROMETRY: MS_TYPE MS2
AC$MASS_SPECTROMETRY: ION_MODE POSITIVE
AC$MASS_SPECTROMETRY: COLLISION_ENERGY 30
AC$MASS_SPECTROMETRY: FRAGMENTATION_MODE CID
AC$MASS_SPECTROMETRY: IONIZATION ESI
AC$CHROMATOGRAPHY: COLUMN_NAME Zorbax Eclipse Plus C18 2.1 mm x 150 mm, 3.5 um, Agilent
AC$CHROMATOGRAPHY: COLUMN_TEMPERATURE 40 °C
AC$CHROMATOGRAPHY: FLOW_GRADIENT 0 min min 98% A, 1 min 98% A, 2 min 80% A, 16.5 min 2% A, 22 min 2% A, 22.1 min 98% A, 27 min 98% A
AC$CHROMATOGRAPHY: FLOW_RATE 0.3 mL/min
AC$CHROMATOGRAPHY: RETENTION_TIME 7.098 min
AC$CHROMATOGRAPHY: SOLVENT A: Water 0.1% Formic acid, B: Acetonitrile 0.1% Formic acid
MS$FOCUSED_ION: PRECURSOR_M/Z 256.0596
MS$FOCUSED_ION: PRECURSOR_TYPE [M+H]+
MS$DATA_PROCESSING: COMMENT Export with Spectra 1.9.12 MsBackendMassbank 1.7.4
MS$DATA_PROCESSING: WHOLE RMassBank 2.3.1
PK$SPLASH: splash10-056r-0960000000-8fca08409c6c2386aec9
PK$NUM_PEAK: 13
PK$PEAK: m/z int. rel.int.
  84.0563 0.9 70
  84.0668 0.4 31
  128.0249 1.3 101
  146.0699 0.5 39
  147.0672 0.8 62
  159.0805 0.6 46
  173.0802 0.6 46
  174.0919 1.4 109
  175.0983 12.8 999
  181.0247 0.5 39
  209.0592 12.4 967
  210.0622 0.8 62
  212.0609 0.5 39
//
