ACCESSION: MSBNK-BAFG-CSL23102617392
RECORD_TITLE: Flumioxazin; LC-ESI-QTOF; MS2; 30 V
DATE: 2023.10.26
AUTHORS: Kevin S. Jewell; Björn Ehlig; Arne Wick
LICENSE: dl-de/by-2-0
COPYRIGHT: Copyright 2023 Federal Institute of Hydrology, Koblenz, Germany
COMMENT: CONFIDENCE Reference Standard (Level 1)
COMMENT: Chromatography method: dx.doi.org/10.1016/j.chroma.2015.11.014
COMMENT: Acquisition method: 10.1002/rcm.8541
CH$NAME: Flumioxazin
CH$COMPOUND_CLASS: Herbicide
CH$FORMULA: C19H15FN2O4
CH$EXACT_MASS: 354.1016
CH$SMILES: C#CCN1c2cc(c(cc2OCC1=O)F)N3C(=O)C4=C(C3=O)CCCC4
CH$IUPAC: InChI=1S/C19H15FN2O4/c1-2-7-21-15-9-14(13(20)8-16(15)26-10-17(21)23)22-18(24)11-5-3-4-6-12(11)19(22)25/h1,8-9H,3-7,10H2
CH$LINK: CAS 103361-09-7
CH$LINK: INCHIKEY FOUWCSDKDDHKQP-UHFFFAOYSA-N
AC$INSTRUMENT: TripleTOF 6600 SCIEX
AC$INSTRUMENT_TYPE: LC-ESI-QTOF
AC$MASS_SPECTROMETRY: MS_TYPE MS2
AC$MASS_SPECTROMETRY: ION_MODE POSITIVE
AC$MASS_SPECTROMETRY: COLLISION_ENERGY 30
AC$MASS_SPECTROMETRY: FRAGMENTATION_MODE CID
AC$MASS_SPECTROMETRY: IONIZATION ESI
AC$CHROMATOGRAPHY: COLUMN_NAME Zorbax Eclipse Plus C18 2.1 mm x 150 mm, 3.5 um, Agilent
AC$CHROMATOGRAPHY: COLUMN_TEMPERATURE 40 °C
AC$CHROMATOGRAPHY: FLOW_GRADIENT 0 min min 98% A, 1 min 98% A, 2 min 80% A, 16.5 min 2% A, 22 min 2% A, 22.1 min 98% A, 27 min 98% A
AC$CHROMATOGRAPHY: FLOW_RATE 0.3 mL/min
AC$CHROMATOGRAPHY: RETENTION_TIME 11.704 min
AC$CHROMATOGRAPHY: SOLVENT A: Water 0.1% Formic acid, B: Acetonitrile 0.1% Formic acid
MS$FOCUSED_ION: PRECURSOR_M/Z 355.1089
MS$FOCUSED_ION: PRECURSOR_TYPE [M+H]+
MS$DATA_PROCESSING: COMMENT Export with Spectra 1.9.12 MsBackendMassbank 1.7.4
MS$DATA_PROCESSING: WHOLE RMassBank 2.3.1
PK$SPLASH: splash10-0a6r-0159000000-c0db43979a96f52374db
PK$NUM_PEAK: 46
PK$PEAK: m/z int. rel.int.
  75.0239 0.2 14
  81.0679 0.2 14
  107.0467 0.9 67
  134.0606 0.2 14
  148.0535 0.3 22
  149.0393 0.7 52
  176.0495 2.2 164
  177.0577 0.5 37
  190.0519 0.6 44
  191.0661 0.2 14
  202.0672 0.2 14
  204.0449 1.8 134
  219.0585 0.3 22
  232.0366 0.3 22
  232.0796 0.2 14
  239.0493 0.3 22
  240.0746 0.5 37
  243.063 0.2 14
  244.076 0.3 22
  253.0776 0.1 7
  257.0654 0.2 14
  258.0924 0.5 37
  260.0723 0.9 67
  271.0833 0.4 29
  271.1274 0.3 22
  274.0876 0.2 14
  279.078 0.5 37
  281.0723 0.2 14
  281.1094 0.6 44
  285.0765 1.2 89
  285.1058 0.5 37
  286.0861 0.4 29
  287.0838 1.1 82
  297.0978 0.2 14
  298.0875 0.6 44
  299.0827 5.1 380
  299.1165 0.2 14
  300.0581 0.2 14
  300.1038 0.2 14
  301.0959 0.2 14
  307.1067 1.4 104
  313.098 2.5 186
  316.0837 0.6 44
  327.0775 1.5 111
  327.1143 6.7 499
  355.1088 13.4 999
//
