ACCESSION: MSBNK-BAFG-CSL25011734711
RECORD_TITLE: N-[2-[(2-Bromo-4,6-dinitrophenyl)azo]-5-(diethylamino)phenyl]acetamide; LC-ESI-QTOF; MS2; 40 V
DATE: 2025.01.17
AUTHORS: Ole Lessmann; Kevin S. Jewell; Björn Ehlig; Arne Wick
LICENSE: dl-de/by-2-0
COPYRIGHT: Copyright 2025 Federal Institute of Hydrology, Koblenz, Germany
COMMENT: CONFIDENCE Reference Standard (Level 1)
COMMENT: Chromatography method: dx.doi.org/10.1016/j.chroma.2015.11.014
CH$NAME: N-[2-[(2-Bromo-4,6-dinitrophenyl)azo]-5-(diethylamino)phenyl]acetamide
CH$FORMULA: C18H19BrN6O5
CH$EXACT_MASS: 478.06
CH$SMILES: CCN(CC)C1=CC(=C(C=C1)N=NC2=C(C=C(C=C2Br)[N+](=O)[O-])[N+](=O)[O-])NC(=O)C
CH$IUPAC: InChI=1S/C18H19BrN6O5/c1-4-23(5-2)12-6-7-15(16(9-12)20-11(3)26)21-22-18-14(19)8-13(24(27)28)10-17(18)25(29)30/h6-10H,4-5H2,1-3H3,(H,20,26)
CH$LINK: CAS 52697-38-8
CH$LINK: INCHIKEY WFFKSTRPZWRBEW-UHFFFAOYSA-N
AC$INSTRUMENT: TripleTOF 6600 SCIEX
AC$INSTRUMENT_TYPE: LC-ESI-QTOF
AC$MASS_SPECTROMETRY: MS_TYPE MS2
AC$MASS_SPECTROMETRY: ION_MODE NEGATIVE
AC$MASS_SPECTROMETRY: COLLISION_ENERGY 40
AC$MASS_SPECTROMETRY: FRAGMENTATION_MODE CID
AC$MASS_SPECTROMETRY: IONIZATION ESI
AC$CHROMATOGRAPHY: COLUMN_NAME Zorbax Eclipse Plus C18 2.1 mm x 150 mm, 3.5 um, Agilent
AC$CHROMATOGRAPHY: COLUMN_TEMPERATURE 40 °C
AC$CHROMATOGRAPHY: FLOW_GRADIENT 0 min min 98% A, 1 min 98% A, 2 min 80% A, 16.5 min 2% A, 22 min 2% A, 22.1 min 98% A, 27 min 98% A
AC$CHROMATOGRAPHY: FLOW_RATE 0.3 mL/min
AC$CHROMATOGRAPHY: RETENTION_TIME 16.579 min
AC$CHROMATOGRAPHY: SOLVENT A: Water 0.1% Formic acid, B: Acetonitrile 0.1% Formic acid
MS$FOCUSED_ION: PRECURSOR_M/Z 478.0614
MS$FOCUSED_ION: PRECURSOR_TYPE [M]-
MS$DATA_PROCESSING: COMMENT Export with pycsl 0.1.0.dev1 and CSL 25.0
PK$SPLASH: splash10-056r-4263900000-ae5ed1b53cfb90280a3b
PK$NUM_PEAK: 57
PK$PEAK: m/z int. rel.int.
  45.9971 0.3256 10
  78.9182 29.7779 999
  117.0438 0.3675 12
  120.0095 0.4306 14
  132.0691 1.0986 36
  146.9363 0.3105 10
  163.1229 0.3272 10
  175.0845 0.4746 15
  185.9337 0.4192 14
  186.9261 14.5442 487
  199.9328 2.7947 93
  203.0936 0.3361 11
  205.1356 1.5391 51
  214.9219 4.4432 149
  215.9289 6.3142 211
  224.0586 0.3068 10
  224.1274 1.5846 53
  229.9317 11.2678 378
  230.9425 0.9834 32
  238.0623 1.148 38
  242.938 0.582 19
  244.918 6.8906 231
  252.0794 0.8625 28
  254.0547 4.4772 150
  269.0754 0.5837 19
  270.0793 0.3368 11
  281.1169 1.4899 49
  282.0626 0.7474 25
  282.1311 0.3961 13
  296.0634 0.4432 14
  296.1393 0.302 10
  297.0797 0.5226 17
  298.1173 0.8568 28
  309.0637 0.4738 15
  311.1156 0.5435 18
  317.991 0.4205 14
  326.1202 1.1116 37
  326.1848 0.3106 10
  327.0851 0.3047 10
  333.9801 4.1855 140
  339.1018 0.5584 18
  348.9957 0.4458 14
  349.0083 0.413 13
  359.0444 0.3325 11
  360.0214 1.1946 40
  361.9906 1.7975 60
  362.0481 0.4888 16
  368.1424 0.6882 23
  369.088 0.5205 17
  377.0119 0.7904 26
  378.0473 7.9849 267
  404.0002 13.7875 462
  406.0491 26.4738 888
  419.0143 1.0172 34
  434.0023 0.4913 16
  448.0598 13.055 437
  449.017 9.6169 322
//
