ACCESSION: MSBNK-BAFG-CSL25010634432
RECORD_TITLE: p-Phenetidine; LC-ESI-QTOF; MS2; 70 V
DATE: 2025.01.06
AUTHORS: Ole Lessmann; Kevin S. Jewell; Björn Ehlig; Arne Wick
LICENSE: dl-de/by-2-0
COPYRIGHT: Copyright 2025 Federal Institute of Hydrology, Koblenz, Germany
COMMENT: CONFIDENCE Reference Standard (Level 1)
COMMENT: Chromatography method: dx.doi.org/10.1016/j.chroma.2015.11.014
COMMENT: Acquisition method: 10.1002/rcm.8541
CH$NAME: p-Phenetidine
CH$FORMULA: C8H11NO
CH$EXACT_MASS: 137.0841
CH$SMILES: CCOC1=CC=C(C=C1)N
CH$IUPAC: InChI=1S/C8H11NO/c1-2-10-8-5-3-7(9)4-6-8/h3-6H,2,9H2,1H3
CH$LINK: CAS 156-43-4
CH$LINK: INCHIKEY IMPPGHMHELILKG-UHFFFAOYSA-N
AC$INSTRUMENT: TripleTOF 6600 SCIEX
AC$INSTRUMENT_TYPE: LC-ESI-QTOF
AC$MASS_SPECTROMETRY: MS_TYPE MS2
AC$MASS_SPECTROMETRY: ION_MODE POSITIVE
AC$MASS_SPECTROMETRY: COLLISION_ENERGY 70
AC$MASS_SPECTROMETRY: FRAGMENTATION_MODE CID
AC$MASS_SPECTROMETRY: IONIZATION ESI
AC$CHROMATOGRAPHY: COLUMN_NAME Zorbax Eclipse Plus C18 2.1 mm x 150 mm, 3.5 um, Agilent
AC$CHROMATOGRAPHY: COLUMN_TEMPERATURE 40 °C
AC$CHROMATOGRAPHY: FLOW_GRADIENT 0 min min 98% A, 1 min 98% A, 2 min 80% A, 16.5 min 2% A, 22 min 2% A, 22.1 min 98% A, 27 min 98% A
AC$CHROMATOGRAPHY: FLOW_RATE 0.3 mL/min
AC$CHROMATOGRAPHY: RETENTION_TIME 4.84 min
AC$CHROMATOGRAPHY: SOLVENT A: Water 0.1% Formic acid, B: Acetonitrile 0.1% Formic acid
MS$FOCUSED_ION: PRECURSOR_M/Z 138.0914
MS$FOCUSED_ION: PRECURSOR_TYPE [M+H]+
MS$DATA_PROCESSING: COMMENT Export with pycsl 0.1.0.dev1 and CSL 24.4
PK$SPLASH: splash10-000i-9000000000-e2dd8a517282f8bb9f8b
PK$NUM_PEAK: 22
PK$PEAK: m/z int. rel.int.
  36.0008 1.7 48
  37.0091 11.3 325
  38.0043 0.4 11
  38.0164 12.2 351
  39.0242 34.7 999
  50.0159 3.6 103
  51.024 3.2 92
  53.003 0.5 14
  53.0396 7.6 218
  54.035 0.9 25
  59.9984 0.4 11
  61.0084 2.0 57
  62.0161 5.3 152
  63.024 21.9 630
  64.0316 0.6 17
  65.0386 5.7 164
  66.0484 0.9 25
  74.0169 1.6 46
  80.0506 26.0 748
  92.0503 0.5 14
  93.06 0.4 11
  108.0439 0.5 14
//