ACCESSION: MSBNK-BAFG-CSL2311107426
RECORD_TITLE: Ethisterone; LC-ESI-QTOF; MS2; 30 V
DATE: 2023.11.10
AUTHORS: Kevin S. Jewell; Björn Ehlig; Arne Wick
LICENSE: dl-de/by-2-0
COPYRIGHT: Copyright 2023 Federal Institute of Hydrology, Koblenz, Germany
COMMENT: CONFIDENCE Reference Standard (Level 1)
COMMENT: Chromatography method: dx.doi.org/10.1016/j.chroma.2015.11.014
COMMENT: Acquisition method: 10.1002/rcm.8541
CH$NAME: Ethisterone
CH$COMPOUND_CLASS: Pharmaceutical; Metabolite
CH$FORMULA: C21H28O2
CH$EXACT_MASS: 312.2089
CH$SMILES: C[C@]12CCC(=O)C=C1CC[C@@H]3[C@@H]2CC[C@@]4(C)[C@H]3CC[C@@]4(O)C#C
CH$IUPAC: InChI=1S/C21H28O2/c1-4-21(23)12-9-18-16-6-5-14-13-15(22)7-10-19(14,2)17(16)8-11-20(18,21)3/h1,13,16-18,23H,5-12H2,2-3H3/t16-,17+,18+,19+,20+,21+/m1/s1
CH$LINK: CAS 434-03-7
CH$LINK: INCHIKEY CHNXZKVNWQUJIB-CEGNMAFCSA-N
AC$INSTRUMENT: TripleTOF 5600 SCIEX
AC$INSTRUMENT_TYPE: LC-ESI-QTOF
AC$MASS_SPECTROMETRY: MS_TYPE MS2
AC$MASS_SPECTROMETRY: ION_MODE POSITIVE
AC$MASS_SPECTROMETRY: COLLISION_ENERGY 30
AC$MASS_SPECTROMETRY: FRAGMENTATION_MODE CID
AC$MASS_SPECTROMETRY: IONIZATION ESI
AC$CHROMATOGRAPHY: COLUMN_NAME Zorbax Eclipse Plus C18 2.1 mm x 150 mm, 3.5 um, Agilent
AC$CHROMATOGRAPHY: COLUMN_TEMPERATURE 40 °C
AC$CHROMATOGRAPHY: FLOW_GRADIENT 0 min min 98% A, 1 min 98% A, 2 min 80% A, 16.5 min 2% A, 22 min 2% A, 22.1 min 98% A, 27 min 98% A
AC$CHROMATOGRAPHY: FLOW_RATE 0.3 mL/min
AC$CHROMATOGRAPHY: RETENTION_TIME 11.662 min
AC$CHROMATOGRAPHY: SOLVENT A: Water 0.1% Formic acid, B: Acetonitrile 0.1% Formic acid
MS$FOCUSED_ION: PRECURSOR_M/Z 313.2162
MS$FOCUSED_ION: PRECURSOR_TYPE [M+H]+
MS$DATA_PROCESSING: COMMENT Export with Spectra 1.9.12 MsBackendMassbank 1.7.4
MS$DATA_PROCESSING: WHOLE RMassBank 2.3.1
PK$SPLASH: splash10-052b-5910000000-8e760181fc9aeb433b16
PK$NUM_PEAK: 59
PK$PEAK: m/z int. rel.int.
  67.0588 1.6 12
  69.0729 1.4 10
  77.04 1.3 9
  79.056 6.3 48
  81.0716 6.4 49
  83.0514 4.9 37
  91.0557 3.8 29
  93.0705 3.6 27
  95.0864 4.5 34
  97.0668 130.4 999
  105.0691 5.2 39
  107.0843 3.8 29
  109.0657 129.2 989
  117.0697 2.9 22
  119.0848 7.9 60
  121.064 2.6 19
  121.1009 2.4 18
  123.08 12.7 97
  129.0694 2.8 21
  131.0845 5.5 42
  133.1005 5.4 41
  135.0803 1.7 13
  135.1161 1.6 12
  143.0846 6.5 49
  145.1007 9.9 75
  147.1159 3.3 25
  149.0955 1.8 13
  155.0849 2.6 19
  157.1002 8 61
  159.1165 3.9 29
  161.0952 1.3 9
  161.1321 1.6 12
  163.1105 1.6 12
  169.1002 4.7 36
  171.1165 9.7 74
  173.1311 2.8 21
  177.1301 2.1 16
  181.1 2.7 20
  183.1159 4.8 36
  185.1307 7.4 56
  187.1478 3.9 29
  189.1284 1.5 11
  193.1009 1.5 11
  195.1171 2.2 16
  197.1309 3 22
  199.1473 6.3 48
  207.1156 1.9 14
  209.1312 2.4 18
  211.1463 4.2 32
  213.163 2.7 20
  221.1322 2.6 19
  225.1637 2.8 21
  227.1469 1.9 14
  227.1779 6.2 47
  235.1477 3 22
  237.1626 3.5 26
  243.1731 1.4 10
  245.1885 6.6 50
  249.1632 2.2 16
//
