ACCESSION: MSBNK-BAFG-CSL2310309297
RECORD_TITLE: 2-p-Tolyl-1H-benzoimidazole; LC-ESI-QTOF; MS2; 140 V
DATE: 2023.10.30
AUTHORS: Kevin S. Jewell; Björn Ehlig; Arne Wick
LICENSE: dl-de/by-2-0
COPYRIGHT: Copyright 2023 Federal Institute of Hydrology, Koblenz, Germany
COMMENT: CONFIDENCE Reference Standard (Level 1)
COMMENT: Chromatography method: dx.doi.org/10.1016/j.chroma.2015.11.014
COMMENT: Acquisition method: 10.1002/rcm.8541
CH$NAME: 2-p-Tolyl-1H-benzoimidazole
CH$COMPOUND_CLASS: Pharmaceutical
CH$FORMULA: C14H12N2
CH$EXACT_MASS: 208.1
CH$SMILES: CC1=CC=C(C=C1)C2=NC3=CC=CC=C3N2
CH$IUPAC: InChI=1S/C14H12N2/c1-10-6-8-11(9-7-10)14-15-12-4-2-3-5-13(12)16-14/h2-9H,1H3,(H,15,16)
CH$LINK: CAS 120-03-6
CH$LINK: INCHIKEY YJSWQFYMPODDTQ-UHFFFAOYSA-N
AC$INSTRUMENT: TripleTOF 5600 SCIEX
AC$INSTRUMENT_TYPE: LC-ESI-QTOF
AC$MASS_SPECTROMETRY: MS_TYPE MS2
AC$MASS_SPECTROMETRY: ION_MODE POSITIVE
AC$MASS_SPECTROMETRY: COLLISION_ENERGY 140
AC$MASS_SPECTROMETRY: FRAGMENTATION_MODE CID
AC$MASS_SPECTROMETRY: IONIZATION ESI
AC$CHROMATOGRAPHY: COLUMN_NAME Zorbax Eclipse Plus C18 2.1 mm x 150 mm, 3.5 um, Agilent
AC$CHROMATOGRAPHY: COLUMN_TEMPERATURE 40 °C
AC$CHROMATOGRAPHY: FLOW_GRADIENT 0 min min 98% A, 1 min 98% A, 2 min 80% A, 16.5 min 2% A, 22 min 2% A, 22.1 min 98% A, 27 min 98% A
AC$CHROMATOGRAPHY: FLOW_RATE 0.3 mL/min
AC$CHROMATOGRAPHY: RETENTION_TIME 6.061 min
AC$CHROMATOGRAPHY: SOLVENT A: Water 0.1% Formic acid, B: Acetonitrile 0.1% Formic acid
MS$FOCUSED_ION: PRECURSOR_M/Z 209.1073
MS$FOCUSED_ION: PRECURSOR_TYPE [M+H]+
MS$DATA_PROCESSING: COMMENT Export with Spectra 1.9.12 MsBackendMassbank 1.7.4
MS$DATA_PROCESSING: WHOLE RMassBank 2.3.1
PK$SPLASH: splash10-0g4r-9000000000-763e84220af71d554615
PK$NUM_PEAK: 17
PK$PEAK: m/z int. rel.int.
  52.0285 3.9 671
  64.0361 0.9 155
  65.0329 0.5 86
  65.0456 4.5 775
  73.0121 0.6 103
  74.0203 5.8 999
  75.0166 0.9 155
  75.028 1.2 206
  76.0227 1 172
  76.0331 0.5 86
  77.0446 0.8 137
  85.0103 1.1 189
  86.0186 1.8 310
  87.0297 1 172
  89.0413 1.3 223
  98.0191 1.3 223
  113.0407 0.5 86
//
