ACCESSION: MSBNK-BAFG-CSL25011734587
RECORD_TITLE: Food Yellow 3 free acid; LC-ESI-QTOF; MS2; 70 V
DATE: 2025.01.17
AUTHORS: Ole Lessmann; Kevin S. Jewell; Björn Ehlig; Arne Wick
LICENSE: dl-de/by-2-0
COPYRIGHT: Copyright 2025 Federal Institute of Hydrology, Koblenz, Germany
COMMENT: CONFIDENCE Reference Standard (Level 1)
COMMENT: Chromatography method: dx.doi.org/10.1016/j.chroma.2015.11.014
CH$NAME: Food Yellow 3 free acid
CH$FORMULA: C16H12N2O7S2
CH$EXACT_MASS: 408.0086
CH$SMILES: C1=CC(=CC=C1N=NC2=C(C=CC3=C2C=CC(=C3)S(=O)(=O)O)O)S(=O)(=O)O
CH$IUPAC: InChI=1S/C16H12N2O7S2/c19-15-8-1-10-9-13(27(23,24)25)6-7-14(10)16(15)18-17-11-2-4-12(5-3-11)26(20,21)22/h1-9,19H,(H,20,21,22)(H,23,24,25)
CH$LINK: CAS 5859-11-0
CH$LINK: INCHIKEY KEYWXKLGZZGHMT-UHFFFAOYSA-N
AC$INSTRUMENT: TripleTOF 6600 SCIEX
AC$INSTRUMENT_TYPE: LC-ESI-QTOF
AC$MASS_SPECTROMETRY: MS_TYPE MS2
AC$MASS_SPECTROMETRY: ION_MODE POSITIVE
AC$MASS_SPECTROMETRY: COLLISION_ENERGY 70
AC$MASS_SPECTROMETRY: FRAGMENTATION_MODE CID
AC$MASS_SPECTROMETRY: IONIZATION ESI
AC$CHROMATOGRAPHY: COLUMN_NAME Zorbax Eclipse Plus C18 2.1 mm x 150 mm, 3.5 um, Agilent
AC$CHROMATOGRAPHY: COLUMN_TEMPERATURE 40 °C
AC$CHROMATOGRAPHY: FLOW_GRADIENT 0 min min 98% A, 1 min 98% A, 2 min 80% A, 16.5 min 2% A, 22 min 2% A, 22.1 min 98% A, 27 min 98% A
AC$CHROMATOGRAPHY: FLOW_RATE 0.3 mL/min
AC$CHROMATOGRAPHY: RETENTION_TIME 5.59 min
AC$CHROMATOGRAPHY: SOLVENT A: Water 0.1% Formic acid, B: Acetonitrile 0.1% Formic acid
MS$FOCUSED_ION: PRECURSOR_M/Z 409.0159
MS$FOCUSED_ION: PRECURSOR_TYPE [M+H]+
MS$DATA_PROCESSING: COMMENT Export with pycsl 0.1.0.dev1 and CSL 25.0
PK$SPLASH: splash10-0a7i-4920000000-23dde527abc3aa1c4e4e
PK$NUM_PEAK: 46
PK$PEAK: m/z int. rel.int.
  53.0384 4.8 14
  63.0227 8.8 27
  64.9686 4.7 14
  65.038 14.1 43
  74.0143 6.5 19
  75.0226 7.3 22
  76.0307 3.5 10
  77.0379 11.8 36
  80.0493 180.5 554
  81.0332 13.4 41
  89.0385 158.0 485
  90.0325 3.9 11
  92.0489 42.3 130
  99.0224 12.2 37
  100.0291 24.9 76
  101.0379 16.9 51
  108.0444 325.0 999
  109.0521 30.8 94
  115.0414 12.0 36
  116.049 64.2 197
  117.033 6.2 19
  126.0333 79.0 242
  127.0416 248.7 764
  128.0484 29.5 90
  129.0508 7.9 24
  133.0268 6.8 20
  144.0433 25.8 79
  154.0376 32.4 99
  156.0101 14.1 43
  173.0135 67.6 207
  190.0649 4.2 12
  208.0063 87.5 268
  210.0218 6.1 18
  216.0683 4.8 14
  217.0753 14.3 43
  218.0825 26.9 82
  219.091 7.4 22
  229.0758 37.3 114
  230.0844 38.9 119
  231.0888 3.8 11
  246.0768 14.9 45
  247.084 5.9 18
  310.0398 20.0 61
  311.0487 10.6 32
  327.0453 4.8 14
  391.0064 4.3 13
//
