ACCESSION: MSBNK-BAFG-CSL23103010581
RECORD_TITLE: Erlotinib; LC-ESI-QTOF; MS2; 40 V
DATE: 2023.10.30
AUTHORS: Kevin S. Jewell; Björn Ehlig; Arne Wick
LICENSE: dl-de/by-2-0
COPYRIGHT: Copyright 2023 Federal Institute of Hydrology, Koblenz, Germany
COMMENT: CONFIDENCE Reference Standard (Level 1)
COMMENT: Chromatography method: dx.doi.org/10.1016/j.chroma.2015.11.014
COMMENT: Acquisition method: 10.1002/rcm.8541
CH$NAME: Erlotinib
CH$COMPOUND_CLASS: Pharmaceutical
CH$FORMULA: C22H23N3O4
CH$EXACT_MASS: 393.1689
CH$SMILES: COCCOC1=C(C=C2C(=C1)C(=NC=N2)NC3=CC=CC(=C3)C#C)OCCOC
CH$IUPAC: InChI=1S/C22H23N3O4/c1-4-16-6-5-7-17(12-16)25-22-18-13-20(28-10-8-26-2)21(29-11-9-27-3)14-19(18)23-15-24-22/h1,5-7,12-15H,8-11H2,2-3H3,(H,23,24,25)
CH$LINK: CAS 183321-74-6
CH$LINK: INCHIKEY AAKJLRGGTJKAMG-UHFFFAOYSA-N
AC$INSTRUMENT: TripleTOF 5600 SCIEX
AC$INSTRUMENT_TYPE: LC-ESI-QTOF
AC$MASS_SPECTROMETRY: MS_TYPE MS2
AC$MASS_SPECTROMETRY: ION_MODE POSITIVE
AC$MASS_SPECTROMETRY: COLLISION_ENERGY 40
AC$MASS_SPECTROMETRY: FRAGMENTATION_MODE CID
AC$MASS_SPECTROMETRY: IONIZATION ESI
AC$CHROMATOGRAPHY: COLUMN_NAME Zorbax Eclipse Plus C18 2.1 mm x 150 mm, 3.5 um, Agilent
AC$CHROMATOGRAPHY: COLUMN_TEMPERATURE 40 °C
AC$CHROMATOGRAPHY: FLOW_GRADIENT 0 min min 98% A, 1 min 98% A, 2 min 80% A, 16.5 min 2% A, 22 min 2% A, 22.1 min 98% A, 27 min 98% A
AC$CHROMATOGRAPHY: FLOW_RATE 0.3 mL/min
AC$CHROMATOGRAPHY: RETENTION_TIME 7.429 min
AC$CHROMATOGRAPHY: SOLVENT A: Water 0.1% Formic acid, B: Acetonitrile 0.1% Formic acid
MS$FOCUSED_ION: PRECURSOR_M/Z 394.1761
MS$FOCUSED_ION: PRECURSOR_TYPE [M+H]+
MS$DATA_PROCESSING: COMMENT Export with Spectra 1.9.12 MsBackendMassbank 1.7.4
MS$DATA_PROCESSING: WHOLE RMassBank 2.3.1
PK$SPLASH: splash10-004i-0094000000-56535eca26e3072adbef
PK$NUM_PEAK: 30
PK$PEAK: m/z int. rel.int.
  59.0491 5.8 10
  118.0651 7 13
  143.0611 6.2 11
  151.0526 5.4 10
  161.0354 13.8 25
  195.0913 5.9 11
  205.0775 8.2 15
  206.0613 12.7 23
  207.0799 10.2 19
  220.0876 10.8 20
  222.1036 8.5 15
  231.0797 11.4 21
  232.0878 9 16
  235.0766 5.5 10
  237.0675 9.5 17
  238.0729 5.7 10
  248.0826 19.8 37
  250.0985 61.8 115
  251.0829 9.9 18
  259.0741 5.7 10
  260.083 21.6 40
  261.0671 10 18
  276.0782 96.6 180
  277.0855 40.7 76
  278.0931 534.1 999
  290.0927 12.6 23
  292.1087 26.3 49
  304.1087 90.6 169
  336.1348 197.8 369
  394.1765 156.4 292
//
