ACCESSION: MSBNK-BAFG-CSL25010610278
RECORD_TITLE: 2-Ethyl-6-methylaniline; LC-ESI-QTOF; MS2; 80 V
DATE: 2025.01.06
AUTHORS: Ole Lessmann; Kevin S. Jewell; Björn Ehlig; Arne Wick
LICENSE: dl-de/by-2-0
COPYRIGHT: Copyright 2025 Federal Institute of Hydrology, Koblenz, Germany
COMMENT: CONFIDENCE Reference Standard (Level 1)
COMMENT: Chromatography method: dx.doi.org/10.1016/j.chroma.2015.11.014
COMMENT: Acquisition method: 10.1002/rcm.8541
CH$NAME: 2-Ethyl-6-methylaniline
CH$COMPOUND_CLASS: Industrial_process; Herbicide; Transformation_product-Metabolite
CH$FORMULA: C9H13N
CH$EXACT_MASS: 135.1048
CH$SMILES: CCC1=CC=CC(=C1N)C
CH$IUPAC: InChI=1S/C9H13N/c1-3-8-6-4-5-7(2)9(8)10/h4-6H,3,10H2,1-2H3
CH$LINK: CAS 24549-06-2
CH$LINK: INCHIKEY JJVKJJNCIILLRP-UHFFFAOYSA-N
AC$INSTRUMENT: TripleTOF 5600 SCIEX
AC$INSTRUMENT_TYPE: LC-ESI-QTOF
AC$MASS_SPECTROMETRY: MS_TYPE MS2
AC$MASS_SPECTROMETRY: ION_MODE POSITIVE
AC$MASS_SPECTROMETRY: COLLISION_ENERGY 80
AC$MASS_SPECTROMETRY: FRAGMENTATION_MODE CID
AC$MASS_SPECTROMETRY: IONIZATION ESI
AC$CHROMATOGRAPHY: COLUMN_NAME Zorbax Eclipse Plus C18 2.1 mm x 150 mm, 3.5 um, Agilent
AC$CHROMATOGRAPHY: COLUMN_TEMPERATURE 40 °C
AC$CHROMATOGRAPHY: FLOW_GRADIENT 0 min min 98% A, 1 min 98% A, 2 min 80% A, 16.5 min 2% A, 22 min 2% A, 22.1 min 98% A, 27 min 98% A
AC$CHROMATOGRAPHY: FLOW_RATE 0.3 mL/min
AC$CHROMATOGRAPHY: RETENTION_TIME 7.958 min
AC$CHROMATOGRAPHY: SOLVENT A: Water 0.1% Formic acid, B: Acetonitrile 0.1% Formic acid
MS$FOCUSED_ION: PRECURSOR_M/Z 136.1121
MS$FOCUSED_ION: PRECURSOR_TYPE [M+H]+
MS$DATA_PROCESSING: COMMENT Export with pycsl 0.1.0.dev1 and CSL 24.4
PK$SPLASH: splash10-0udi-9000000000-1b5718cd0777ef45f8d5
PK$NUM_PEAK: 19
PK$PEAK: m/z int. rel.int.
  35.9987 0.4 42
  37.0074 1.4 150
  38.0151 0.7 75
  39.0231 4.0 429
  49.0073 1.1 118
  50.0152 5.9 633
  51.0231 9.3 999
  52.0298 0.7 75
  61.0071 1.4 150
  62.0156 2.7 290
  63.023 2.8 300
  65.0383 2.1 225
  73.0088 0.4 42
  74.015 1.6 171
  75.0228 0.6 64
  77.038 3.5 375
  78.0472 0.6 64
  89.0382 0.7 75
  91.0559 0.7 75
//