ACCESSION: MSBNK-BAFG-CSL23102612861
RECORD_TITLE: Olmesartan-d6; LC-ESI-QTOF; MS2; 60 V
DATE: 2023.10.26
AUTHORS: Kevin S. Jewell; Björn Ehlig; Arne Wick
LICENSE: dl-de/by-2-0
COPYRIGHT: Copyright 2023 Federal Institute of Hydrology, Koblenz, Germany
COMMENT: CONFIDENCE Reference Standard (Level 1)
COMMENT: Chromatography method: dx.doi.org/10.1016/j.chroma.2015.11.014
COMMENT: Acquisition method: 10.1002/rcm.8541
CH$NAME: Olmesartan-d6
CH$COMPOUND_CLASS: Surrogate_standard
CH$FORMULA: C24H20N6O3 2H6
CH$EXACT_MASS: 452.2443
CH$SMILES: [2H]C([2H])([2H])C(C1=C(N(C(=N1)CCC)CC2=CC=C(C=C2)C3=CC=CC=C3C4=NNN=N4)C(=O)O)(C([2H])([2H])[2H])O
CH$IUPAC: InChI=1S/C24H26N6O3/c1-4-7-19-25-21(24(2,3)33)20(23(31)32)30(19)14-15-10-12-16(13-11-15)17-8-5-6-9-18(17)22-26-28-29-27-22/h5-6,8-13,33H,4,7,14H2,1-3H3,(H,31,32)(H,26,27,28,29)/i2D3,3D3
CH$LINK: CAS 1185144-74-4
CH$LINK: INCHIKEY VTRAEEWXHOVJFV-XERRXZQWSA-N
AC$INSTRUMENT: TripleTOF 5600 SCIEX
AC$INSTRUMENT_TYPE: LC-ESI-QTOF
AC$MASS_SPECTROMETRY: MS_TYPE MS2
AC$MASS_SPECTROMETRY: ION_MODE POSITIVE
AC$MASS_SPECTROMETRY: COLLISION_ENERGY 60
AC$MASS_SPECTROMETRY: FRAGMENTATION_MODE CID
AC$MASS_SPECTROMETRY: IONIZATION ESI
AC$CHROMATOGRAPHY: COLUMN_NAME Zorbax Eclipse Plus C18 2.1 mm x 150 mm, 3.5 um, Agilent
AC$CHROMATOGRAPHY: COLUMN_TEMPERATURE 40 °C
AC$CHROMATOGRAPHY: FLOW_GRADIENT 0 min min 98% A, 1 min 98% A, 2 min 80% A, 16.5 min 2% A, 22 min 2% A, 22.1 min 98% A, 27 min 98% A
AC$CHROMATOGRAPHY: FLOW_RATE 0.3 mL/min
AC$CHROMATOGRAPHY: RETENTION_TIME 7.306 min
AC$CHROMATOGRAPHY: SOLVENT A: Water 0.1% Formic acid, B: Acetonitrile 0.1% Formic acid
MS$FOCUSED_ION: PRECURSOR_M/Z 453.2527
MS$FOCUSED_ION: PRECURSOR_TYPE [M+H]+
MS$DATA_PROCESSING: COMMENT Export with Spectra 1.9.12 MsBackendMassbank 1.7.4
MS$DATA_PROCESSING: WHOLE RMassBank 2.3.1
PK$SPLASH: splash10-0a4l-0930000000-ea0445f1e8667a521c29
PK$NUM_PEAK: 34
PK$PEAK: m/z int. rel.int.
  77.0428 2.4 11
  115.0554 2.8 13
  127.0552 2.7 13
  129.0465 2.4 11
  140.0494 13.7 67
  150.0468 2 9
  151.0537 13.7 67
  152.0624 34.4 170
  153.0701 65.8 326
  154.0741 9.2 45
  163.054 20.3 100
  164.0608 9.8 48
  165.0694 14.3 70
  166.0681 7.1 35
  167.0723 9.3 46
  168.0724 3.7 18
  176.0612 4.1 20
  177.0667 8.5 42
  178.0766 149.3 740
  179.0773 46.7 231
  180.0806 150.8 748
  181.0866 29.4 145
  182.1338 30.2 149
  183.1394 29.1 144
  189.0573 4.5 22
  190.0649 183.3 909
  191.072 111.8 554
  192.0709 82.5 409
  193.0739 10.4 51
  205.0759 67.9 336
  206.0831 99.9 495
  207.0907 201.4 999
  208.0976 83.9 416
  209.1016 3 14
//
