ACCESSION: MSBNK-BAFG-CSL23111027025
RECORD_TITLE: Hexa(methoxymethyl)melamine; LC-ESI-QTOF; MS2; 90 V
DATE: 2023.11.10
AUTHORS: Kevin S. Jewell; Björn Ehlig; Arne Wick
LICENSE: dl-de/by-2-0
COPYRIGHT: Copyright 2023 Federal Institute of Hydrology, Koblenz, Germany
COMMENT: CONFIDENCE Reference Standard (Level 1)
COMMENT: Chromatography method: dx.doi.org/10.1016/j.chroma.2015.11.014
COMMENT: Acquisition method: 10.1002/rcm.8541
CH$NAME: Hexa(methoxymethyl)melamine
CH$FORMULA: C15H30N6O6
CH$EXACT_MASS: 390.2227
CH$SMILES: COCN(COC)C1=NC(=NC(=N1)N(COC)COC)N(COC)COC
CH$IUPAC: InChI=1S/C15H30N6O6/c1-22-7-19(8-23-2)13-16-14(20(9-24-3)10-25-4)18-15(17-13)21(11-26-5)12-27-6/h7-12H2,1-6H3
CH$LINK: CAS 3089-11-0
CH$LINK: INCHIKEY BNCADMBVWNPPIZ-UHFFFAOYSA-N
AC$INSTRUMENT: TripleTOF 6600 SCIEX
AC$INSTRUMENT_TYPE: LC-ESI-QTOF
AC$MASS_SPECTROMETRY: MS_TYPE MS2
AC$MASS_SPECTROMETRY: ION_MODE POSITIVE
AC$MASS_SPECTROMETRY: COLLISION_ENERGY 90
AC$MASS_SPECTROMETRY: FRAGMENTATION_MODE CID
AC$MASS_SPECTROMETRY: IONIZATION ESI
AC$CHROMATOGRAPHY: COLUMN_NAME Zorbax Eclipse Plus C18 2.1 mm x 150 mm, 3.5 um, Agilent
AC$CHROMATOGRAPHY: COLUMN_TEMPERATURE 40 °C
AC$CHROMATOGRAPHY: FLOW_GRADIENT 0 min min 98% A, 1 min 98% A, 2 min 80% A, 16.5 min 2% A, 22 min 2% A, 22.1 min 98% A, 27 min 98% A
AC$CHROMATOGRAPHY: FLOW_RATE 0.3 mL/min
AC$CHROMATOGRAPHY: RETENTION_TIME 9.543 min
AC$CHROMATOGRAPHY: SOLVENT A: Water 0.1% Formic acid, B: Acetonitrile 0.1% Formic acid
MS$FOCUSED_ION: PRECURSOR_M/Z 391.23
MS$FOCUSED_ION: PRECURSOR_TYPE [M+H]+
MS$DATA_PROCESSING: COMMENT Export with Spectra 1.9.12 MsBackendMassbank 1.7.4
MS$DATA_PROCESSING: WHOLE RMassBank 2.3.1
PK$SPLASH: splash10-014j-9000000000-0590ad407d0223ba9b8b
PK$NUM_PEAK: 16
PK$PEAK: m/z int. rel.int.
  42.0338 19.6 270
  45.0336 70.8 975
  53.0125 1.8 24
  55.0289 7.4 101
  56.0496 1.1 15
  67.0293 1.1 15
  68.0232 1.9 26
  69.0444 72.5 999
  80.0236 25.9 356
  82.0394 2.6 35
  94.0388 3.7 50
  96.0545 3.9 53
  107.0327 1.9 26
  121.0498 0.9 12
  148.0585 1 13
  177.0873 6.2 85
//
