ACCESSION: MSBNK-BAFG-CSL2310303350
RECORD_TITLE: Estrone 3-methyl ether; LC-ESI-QTOF; MS2; 120 V
DATE: 2023.10.30
AUTHORS: Kevin S. Jewell; Björn Ehlig; Arne Wick
LICENSE: dl-de/by-2-0
COPYRIGHT: Copyright 2023 Federal Institute of Hydrology, Koblenz, Germany
COMMENT: CONFIDENCE Reference Standard (Level 1)
COMMENT: Chromatography method: dx.doi.org/10.1016/j.chroma.2015.11.014
COMMENT: Acquisition method: 10.1002/rcm.8541
CH$NAME: Estrone 3-methyl ether
CH$COMPOUND_CLASS: Pharmaceutical
CH$FORMULA: C19H24O2
CH$EXACT_MASS: 284.1776
CH$SMILES: C[C@]12CC[C@@H]3c4ccc(cc4CC[C@H]3[C@@H]1CCC2=O)OC
CH$IUPAC: InChI=1S/C19H24O2/c1-19-10-9-15-14-6-4-13(21-2)11-12(14)3-5-16(15)17(19)7-8-18(19)20/h4,6,11,15-17H,3,5,7-10H2,1-2H3/t15-,16-,17+,19+/m1/s1
CH$LINK: CAS 1624-62-0
CH$LINK: INCHIKEY BCWWDWHFBMPLFQ-VXNCWWDNSA-N
AC$INSTRUMENT: TripleTOF 5600 SCIEX
AC$INSTRUMENT_TYPE: LC-ESI-QTOF
AC$MASS_SPECTROMETRY: MS_TYPE MS2
AC$MASS_SPECTROMETRY: ION_MODE POSITIVE
AC$MASS_SPECTROMETRY: COLLISION_ENERGY 120
AC$MASS_SPECTROMETRY: FRAGMENTATION_MODE CID
AC$MASS_SPECTROMETRY: IONIZATION ESI
AC$CHROMATOGRAPHY: COLUMN_NAME Zorbax Eclipse Plus C18 2.1 mm x 150 mm, 3.5 um, Agilent
AC$CHROMATOGRAPHY: COLUMN_TEMPERATURE 40 °C
AC$CHROMATOGRAPHY: FLOW_GRADIENT 0 min min 98% A, 1 min 98% A, 2 min 80% A, 16.5 min 2% A, 22 min 2% A, 22.1 min 98% A, 27 min 98% A
AC$CHROMATOGRAPHY: FLOW_RATE 0.3 mL/min
AC$CHROMATOGRAPHY: RETENTION_TIME 10.549 min
AC$CHROMATOGRAPHY: SOLVENT A: Water 0.1% Formic acid, B: Acetonitrile 0.1% Formic acid
MS$FOCUSED_ION: PRECURSOR_M/Z 285.1849
MS$FOCUSED_ION: PRECURSOR_TYPE [M+H]+
MS$DATA_PROCESSING: COMMENT Export with Spectra 1.9.12 MsBackendMassbank 1.7.4
MS$DATA_PROCESSING: WHOLE RMassBank 2.3.1
PK$SPLASH: splash10-00or-4900000000-e5abea107f68593cc0da
PK$NUM_PEAK: 28
PK$PEAK: m/z int. rel.int.
  51.0275 1.1 86
  63.0398 0.5 39
  65.0415 2.3 180
  76.0337 0.9 70
  77.041 6.4 503
  77.0626 0.5 39
  78.0488 3.5 275
  89.0403 3.9 306
  91.0569 2.8 220
  102.047 4.4 346
  103.0541 2.2 173
  113.0407 0.5 39
  115.0539 12.7 999
  126.0455 1 78
  127.0539 2.7 212
  128.0618 6.1 479
  129.0653 0.6 47
  131.051 0.5 39
  139.0535 1.4 110
  150.0452 0.6 47
  151.0527 1.9 149
  152.0606 3.6 283
  153.0698 0.6 47
  163.053 1 78
  164.0611 0.8 62
  165.0694 1.6 125
  176.0619 0.8 62
  178.0799 0.5 39
//
