ACCESSION: MSBNK-BAFG-CSL23103018658
RECORD_TITLE: Nitrazepam; LC-ESI-QTOF; MS2; 40 V
DATE: 2023.10.30
AUTHORS: Kevin S. Jewell; Björn Ehlig; Arne Wick
LICENSE: dl-de/by-2-0
COPYRIGHT: Copyright 2023 Federal Institute of Hydrology, Koblenz, Germany
COMMENT: CONFIDENCE Reference Standard (Level 1)
COMMENT: Chromatography method: dx.doi.org/10.1016/j.chroma.2015.11.014
COMMENT: Acquisition method: 10.1002/rcm.8541
CH$NAME: Nitrazepam
CH$COMPOUND_CLASS: Pharmaceutical
CH$FORMULA: C15H11N3O3
CH$EXACT_MASS: 281.08
CH$SMILES: C1C(=O)NC2=C(C=C(C=C2)[N+](=O)[O-])C(=N1)C3=CC=CC=C3
CH$IUPAC: InChI=1S/C15H11N3O3/c19-14-9-16-15(10-4-2-1-3-5-10)12-8-11(18(20)21)6-7-13(12)17-14/h1-8H,9H2,(H,17,19)
CH$LINK: CAS 146-22-5
CH$LINK: INCHIKEY KJONHKAYOJNZEC-UHFFFAOYSA-N
AC$INSTRUMENT: TripleTOF 6600 SCIEX
AC$INSTRUMENT_TYPE: LC-ESI-QTOF
AC$MASS_SPECTROMETRY: MS_TYPE MS2
AC$MASS_SPECTROMETRY: ION_MODE POSITIVE
AC$MASS_SPECTROMETRY: COLLISION_ENERGY 40
AC$MASS_SPECTROMETRY: FRAGMENTATION_MODE CID
AC$MASS_SPECTROMETRY: IONIZATION ESI
AC$CHROMATOGRAPHY: COLUMN_NAME Zorbax Eclipse Plus C18 2.1 mm x 150 mm, 3.5 um, Agilent
AC$CHROMATOGRAPHY: COLUMN_TEMPERATURE 40 °C
AC$CHROMATOGRAPHY: FLOW_GRADIENT 0 min min 98% A, 1 min 98% A, 2 min 80% A, 16.5 min 2% A, 22 min 2% A, 22.1 min 98% A, 27 min 98% A
AC$CHROMATOGRAPHY: FLOW_RATE 0.3 mL/min
AC$CHROMATOGRAPHY: RETENTION_TIME 9.435 min
AC$CHROMATOGRAPHY: SOLVENT A: Water 0.1% Formic acid, B: Acetonitrile 0.1% Formic acid
MS$FOCUSED_ION: PRECURSOR_M/Z 282.0873
MS$FOCUSED_ION: PRECURSOR_TYPE [M+H]+
MS$DATA_PROCESSING: COMMENT Export with Spectra 1.9.12 MsBackendMassbank 1.7.4
MS$DATA_PROCESSING: WHOLE RMassBank 2.3.1
PK$SPLASH: splash10-053i-0690000000-c6836a21cdf4568849b6
PK$NUM_PEAK: 35
PK$PEAK: m/z int. rel.int.
  91.0531 15 28
  103.0401 12.4 23
  104.0486 22.3 42
  105.0563 9.9 19
  129.0442 8.3 15
  130.051 33.1 63
  152.0596 20.7 39
  153.0681 14.2 27
  158.048 6.2 11
  164.0599 9.2 17
  165.0682 11.5 22
  167.0765 11.2 21
  168.0749 11.7 22
  176.0448 9.2 17
  178.0634 6.6 12
  179.0711 27.2 52
  180.0798 398 764
  181.0848 5.7 10
  190.0637 68.7 131
  191.0714 25.6 49
  192.0779 23.3 44
  193.0833 19.5 37
  194.0927 17.9 34
  195.091 9.9 19
  196.0749 10.3 19
  205.0738 7.3 14
  206.0823 50 96
  207.0911 362 695
  208.0984 65.5 125
  217.0746 5.6 10
  223.0839 11.4 21
  235.0856 60.4 115
  236.0941 520.2 999
  251.0788 10 19
  282.0863 66.7 128
//
