ACCESSION: MSBNK-BAFG-CSL2310264390
RECORD_TITLE: 5,6-Dimethyl-1H-benzotriazol; LC-ESI-QTOF; MS2; 90 V
DATE: 2023.10.26
AUTHORS: Kevin S. Jewell; Björn Ehlig; Arne Wick
LICENSE: dl-de/by-2-0
COPYRIGHT: Copyright 2023 Federal Institute of Hydrology, Koblenz, Germany
COMMENT: CONFIDENCE Reference Standard (Level 1)
COMMENT: Chromatography method: dx.doi.org/10.1016/j.chroma.2015.11.014
COMMENT: Acquisition method: 10.1002/rcm.8541
CH$NAME: 5,6-Dimethyl-1H-benzotriazol
CH$COMPOUND_CLASS: Industrial_process; Antimicrobial
CH$FORMULA: C8H9N3
CH$EXACT_MASS: 147.0796
CH$SMILES: Cc1cc2n[nH]nc2cc1C
CH$IUPAC: InChI=1S/C8H9N3/c1-5-3-7-8(4-6(5)2)10-11-9-7/h3-4H,1-2H3,(H,9,10,11)
CH$LINK: CAS 4184-79-6
CH$LINK: INCHIKEY MVPKIPGHRNIOPT-UHFFFAOYSA-N
AC$INSTRUMENT: TripleTOF 5600 SCIEX
AC$INSTRUMENT_TYPE: LC-ESI-QTOF
AC$MASS_SPECTROMETRY: MS_TYPE MS2
AC$MASS_SPECTROMETRY: ION_MODE POSITIVE
AC$MASS_SPECTROMETRY: COLLISION_ENERGY 90
AC$MASS_SPECTROMETRY: FRAGMENTATION_MODE CID
AC$MASS_SPECTROMETRY: IONIZATION ESI
AC$CHROMATOGRAPHY: COLUMN_NAME Zorbax Eclipse Plus C18 2.1 mm x 150 mm, 3.5 um, Agilent
AC$CHROMATOGRAPHY: COLUMN_TEMPERATURE 40 °C
AC$CHROMATOGRAPHY: FLOW_GRADIENT 0 min min 98% A, 1 min 98% A, 2 min 80% A, 16.5 min 2% A, 22 min 2% A, 22.1 min 98% A, 27 min 98% A
AC$CHROMATOGRAPHY: FLOW_RATE 0.3 mL/min
AC$CHROMATOGRAPHY: RETENTION_TIME 8.012 min
AC$CHROMATOGRAPHY: SOLVENT A: Water 0.1% Formic acid, B: Acetonitrile 0.1% Formic acid
MS$FOCUSED_ION: PRECURSOR_M/Z 148.0869
MS$FOCUSED_ION: PRECURSOR_TYPE [M+H]+
MS$DATA_PROCESSING: COMMENT Export with Spectra 1.9.12 MsBackendMassbank 1.7.4
MS$DATA_PROCESSING: WHOLE RMassBank 2.3.1
PK$SPLASH: splash10-0fvi-9000000000-f05f4110f630ebcea4ce
PK$NUM_PEAK: 18
PK$PEAK: m/z int. rel.int.
  42.0417 0.8 131
  52.0237 2.9 474
  52.0342 1.5 245
  53.0432 1.1 180
  54.0388 0.7 114
  60.0021 0.6 98
  65.0426 6.1 999
  73.0091 0.8 131
  74.0176 4.1 671
  75.014 0.5 81
  75.0248 1.4 229
  76.0202 0.7 114
  77.0412 4.5 736
  78.036 3.6 589
  80.0514 0.8 131
  89.0392 1.6 262
  91.0563 1 163
  104.0507 0.6 98
//
