ACCESSION: MSBNK-BAFG-CSL23110915406
RECORD_TITLE: 1-Myristoyl-sn-glycero-3-phosphocholine; LC-ESI-QTOF; MS2; 80 V
DATE: 2023.11.09
AUTHORS: Kevin S. Jewell; Björn Ehlig; Arne Wick
LICENSE: dl-de/by-2-0
COPYRIGHT: Copyright 2023 Federal Institute of Hydrology, Koblenz, Germany
COMMENT: CONFIDENCE Reference Standard (Level 1)
COMMENT: Chromatography method: dx.doi.org/10.1016/j.chroma.2015.11.014
COMMENT: Acquisition method: 10.1002/rcm.8541
CH$NAME: 1-Myristoyl-sn-glycero-3-phosphocholine
CH$COMPOUND_CLASS: Natural_product
CH$FORMULA: C22H46NO7P
CH$EXACT_MASS: 467.3012
CH$SMILES: CCCCCCCCCCCCCC(=O)OCC(COP(=O)([O-])OCC[N+](C)(C)C)O
CH$IUPAC: InChI=1S/C22H46NO7P/c1-5-6-7-8-9-10-11-12-13-14-15-16-22(25)28-19-21(24)20-30-31(26,27)29-18-17-23(2,3)4/h21,24H,5-20H2,1-4H3
CH$LINK: CAS 20559-16-4
CH$LINK: INCHIKEY VXUOFDJKYGDUJI-UHFFFAOYSA-N
AC$INSTRUMENT: TripleTOF 6600 SCIEX
AC$INSTRUMENT_TYPE: LC-ESI-QTOF
AC$MASS_SPECTROMETRY: MS_TYPE MS2
AC$MASS_SPECTROMETRY: ION_MODE POSITIVE
AC$MASS_SPECTROMETRY: COLLISION_ENERGY 80
AC$MASS_SPECTROMETRY: FRAGMENTATION_MODE CID
AC$MASS_SPECTROMETRY: IONIZATION ESI
AC$CHROMATOGRAPHY: COLUMN_NAME Zorbax Eclipse Plus C18 2.1 mm x 150 mm, 3.5 um, Agilent
AC$CHROMATOGRAPHY: COLUMN_TEMPERATURE 40 °C
AC$CHROMATOGRAPHY: FLOW_GRADIENT 0 min min 98% A, 1 min 98% A, 2 min 80% A, 16.5 min 2% A, 22 min 2% A, 22.1 min 98% A, 27 min 98% A
AC$CHROMATOGRAPHY: FLOW_RATE 0.3 mL/min
AC$CHROMATOGRAPHY: RETENTION_TIME 12.658 min
AC$CHROMATOGRAPHY: SOLVENT A: Water 0.1% Formic acid, B: Acetonitrile 0.1% Formic acid
MS$FOCUSED_ION: PRECURSOR_M/Z 468.3085
MS$FOCUSED_ION: PRECURSOR_TYPE [M+H]+
MS$DATA_PROCESSING: COMMENT Export with Spectra 1.9.12 MsBackendMassbank 1.7.4
MS$DATA_PROCESSING: WHOLE RMassBank 2.3.1
PK$SPLASH: splash10-00dr-9400000000-01147bed3935f413a79a
PK$NUM_PEAK: 26
PK$PEAK: m/z int. rel.int.
  41.0393 1.8 30
  43.0551 3.2 54
  44.0502 1.4 23
  45.0341 4.4 74
  45.058 1 16
  55.0549 0.9 15
  56.0498 4.2 71
  57.0352 0.7 11
  57.0702 3.2 54
  58.0661 2.6 44
  59.074 0.8 13
  60.0814 17.8 301
  67.0547 1.6 27
  69.0706 0.8 13
  70.0656 1.1 18
  71.0737 24.5 414
  80.974 3.3 55
  81.071 0.9 15
  86.097 59 999
  95.0857 1.4 23
  98.9842 27.1 458
  104.1073 27.6 467
  106.9897 0.9 15
  124.9998 45.9 777
  166.063 5 84
  184.0725 5 84
//
