ACCESSION: MSBNK-BAFG-CSL2311097059
RECORD_TITLE: 3-O-benzyl estriol; LC-ESI-QTOF; MS2; 40 V
DATE: 2023.11.09
AUTHORS: Kevin S. Jewell; Björn Ehlig; Arne Wick
LICENSE: dl-de/by-2-0
COPYRIGHT: Copyright 2023 Federal Institute of Hydrology, Koblenz, Germany
COMMENT: CONFIDENCE Reference Standard (Level 1)
COMMENT: Chromatography method: dx.doi.org/10.1016/j.chroma.2015.11.014
COMMENT: Acquisition method: 10.1002/rcm.8541
CH$NAME: 3-O-benzyl estriol
CH$COMPOUND_CLASS: Pharmaceutical
CH$FORMULA: C25H30O3
CH$EXACT_MASS: 378.2195
CH$SMILES: CC12CCC3C(C1CC(C2O)O)CCC4=C3C=CC(=C4)OCC5=CC=CC=C5
CH$IUPAC: InChI=1S/C25H30O3/c1-25-12-11-20-19-10-8-18(28-15-16-5-3-2-4-6-16)13-17(19)7-9-21(20)22(25)14-23(26)24(25)27/h2-6,8,10,13,20-24,26-27H,7,9,11-12,14-15H2,1H3
CH$LINK: CAS 18650-87-8
CH$LINK: INCHIKEY GDUPBUZZJUIEDX-UHFFFAOYSA-N
AC$INSTRUMENT: TripleTOF 5600 SCIEX
AC$INSTRUMENT_TYPE: LC-ESI-QTOF
AC$MASS_SPECTROMETRY: MS_TYPE MS2
AC$MASS_SPECTROMETRY: ION_MODE POSITIVE
AC$MASS_SPECTROMETRY: COLLISION_ENERGY 40
AC$MASS_SPECTROMETRY: FRAGMENTATION_MODE CID
AC$MASS_SPECTROMETRY: IONIZATION ESI
AC$CHROMATOGRAPHY: COLUMN_NAME Zorbax Eclipse Plus C18 2.1 mm x 150 mm, 3.5 um, Agilent
AC$CHROMATOGRAPHY: COLUMN_TEMPERATURE 40 °C
AC$CHROMATOGRAPHY: FLOW_GRADIENT 0 min min 98% A, 1 min 98% A, 2 min 80% A, 16.5 min 2% A, 22 min 2% A, 22.1 min 98% A, 27 min 98% A
AC$CHROMATOGRAPHY: FLOW_RATE 0.3 mL/min
AC$CHROMATOGRAPHY: RETENTION_TIME 13.267 min
AC$CHROMATOGRAPHY: SOLVENT A: Water 0.1% Formic acid, B: Acetonitrile 0.1% Formic acid
MS$FOCUSED_ION: PRECURSOR_M/Z 379.2268
MS$FOCUSED_ION: PRECURSOR_TYPE [M+H]+
MS$DATA_PROCESSING: COMMENT Export with Spectra 1.9.12 MsBackendMassbank 1.7.4
MS$DATA_PROCESSING: WHOLE RMassBank 2.3.1
PK$SPLASH: splash10-0006-9110000000-5d934458499ab536a33e
PK$NUM_PEAK: 19
PK$PEAK: m/z int. rel.int.
  65.0423 0.9 23
  91.056 37.8 999
  133.0657 1.1 29
  145.0639 0.4 10
  147.115 0.5 13
  157.0624 0.7 18
  159.0795 0.9 23
  195.0812 0.9 23
  197.095 1.7 44
  209.0977 0.7 18
  211.1106 0.8 21
  213.1253 0.5 13
  225.128 0.6 15
  251.1437 2.1 55
  269.1504 1.4 37
  287.1654 0.8 21
  301.1819 1.3 34
  343.2067 0.5 13
  379.225 0.5 13
//
