ACCESSION: MSBNK-BAFG-CSL2310303364
RECORD_TITLE: 2-(5-Chloro-2-methoxyphenyl)-1H-benzimidazole; LC-ESI-QTOF; MS2; 40 V
DATE: 2023.10.30
AUTHORS: Kevin S. Jewell; Björn Ehlig; Arne Wick
LICENSE: dl-de/by-2-0
COPYRIGHT: Copyright 2023 Federal Institute of Hydrology, Koblenz, Germany
COMMENT: CONFIDENCE Reference Standard (Level 1)
COMMENT: Chromatography method: dx.doi.org/10.1016/j.chroma.2015.11.014
COMMENT: Acquisition method: 10.1002/rcm.8541
CH$NAME: 2-(5-Chloro-2-methoxyphenyl)-1H-benzimidazole
CH$COMPOUND_CLASS: Pharmaceutical
CH$FORMULA: C14H11ClN2O
CH$EXACT_MASS: 258.056
CH$SMILES: COc1ccc(cc1c2[nH]c3ccccc3n2)Cl
CH$IUPAC: InChI=1S/C14H11ClN2O/c1-18-13-7-6-9(15)8-10(13)14-16-11-4-2-3-5-12(11)17-14/h2-8H,1H3,(H,16,17)
CH$LINK: CAS 62871-15-2
CH$LINK: INCHIKEY QDVCOIQHTAYVOM-UHFFFAOYSA-N
AC$INSTRUMENT: TripleTOF 5600 SCIEX
AC$INSTRUMENT_TYPE: LC-ESI-QTOF
AC$MASS_SPECTROMETRY: MS_TYPE MS2
AC$MASS_SPECTROMETRY: ION_MODE POSITIVE
AC$MASS_SPECTROMETRY: COLLISION_ENERGY 40
AC$MASS_SPECTROMETRY: FRAGMENTATION_MODE CID
AC$MASS_SPECTROMETRY: IONIZATION ESI
AC$CHROMATOGRAPHY: COLUMN_NAME Zorbax Eclipse Plus C18 2.1 mm x 150 mm, 3.5 um, Agilent
AC$CHROMATOGRAPHY: COLUMN_TEMPERATURE 40 °C
AC$CHROMATOGRAPHY: FLOW_GRADIENT 0 min min 98% A, 1 min 98% A, 2 min 80% A, 16.5 min 2% A, 22 min 2% A, 22.1 min 98% A, 27 min 98% A
AC$CHROMATOGRAPHY: FLOW_RATE 0.3 mL/min
AC$CHROMATOGRAPHY: RETENTION_TIME 7.374 min
AC$CHROMATOGRAPHY: SOLVENT A: Water 0.1% Formic acid, B: Acetonitrile 0.1% Formic acid
MS$FOCUSED_ION: PRECURSOR_M/Z 259.0633
MS$FOCUSED_ION: PRECURSOR_TYPE [M+H]+
MS$DATA_PROCESSING: COMMENT Export with Spectra 1.9.12 MsBackendMassbank 1.7.4
MS$DATA_PROCESSING: WHOLE RMassBank 2.3.1
PK$SPLASH: splash10-00l6-0290000000-55472057da8bef3a1472
PK$NUM_PEAK: 11
PK$PEAK: m/z int. rel.int.
  127.0544 4.2 14
  154.066 13.6 48
  179.06 4.1 14
  180.0685 10.2 36
  181.0771 149.7 529
  203.0368 8 28
  209.071 14.7 51
  215.0374 10.1 35
  216.0459 171.3 605
  244.0404 282.6 999
  259.0636 86.2 304
//
