ACCESSION: MSBNK-BAFG-CSL2310304906
RECORD_TITLE: Enilconazole; LC-ESI-QTOF; MS2; 40 V
DATE: 2023.10.30
AUTHORS: Kevin S. Jewell; Björn Ehlig; Arne Wick
LICENSE: dl-de/by-2-0
COPYRIGHT: Copyright 2023 Federal Institute of Hydrology, Koblenz, Germany
COMMENT: CONFIDENCE Reference Standard (Level 1)
COMMENT: Chromatography method: dx.doi.org/10.1016/j.chroma.2015.11.014
COMMENT: Acquisition method: 10.1002/rcm.8541
CH$NAME: Enilconazole
CH$COMPOUND_CLASS: Pharmaceutical; Fungicide
CH$FORMULA: C14H14Cl2N2O
CH$EXACT_MASS: 296.0483
CH$SMILES: Clc1ccc(C(Cn2ccnc2)OCC=C)c(Cl)c1
CH$IUPAC: InChI=1S/C14H14Cl2N2O/c1-2-7-19-14(9-18-6-5-17-10-18)12-4-3-11(15)8-13(12)16/h2-6,8,10,14H,1,7,9H2
CH$LINK: CAS 35554-44-0
CH$LINK: INCHIKEY PZBPKYOVPCNPJY-UHFFFAOYSA-N
AC$INSTRUMENT: TripleTOF 5600 SCIEX
AC$INSTRUMENT_TYPE: LC-ESI-QTOF
AC$MASS_SPECTROMETRY: MS_TYPE MS2
AC$MASS_SPECTROMETRY: ION_MODE POSITIVE
AC$MASS_SPECTROMETRY: COLLISION_ENERGY 40
AC$MASS_SPECTROMETRY: FRAGMENTATION_MODE CID
AC$MASS_SPECTROMETRY: IONIZATION ESI
AC$CHROMATOGRAPHY: COLUMN_NAME Zorbax Eclipse Plus C18 2.1 mm x 150 mm, 3.5 um, Agilent
AC$CHROMATOGRAPHY: COLUMN_TEMPERATURE 40 °C
AC$CHROMATOGRAPHY: FLOW_GRADIENT 0 min min 98% A, 1 min 98% A, 2 min 80% A, 16.5 min 2% A, 22 min 2% A, 22.1 min 98% A, 27 min 98% A
AC$CHROMATOGRAPHY: FLOW_RATE 0.3 mL/min
AC$CHROMATOGRAPHY: RETENTION_TIME 8.159 min
AC$CHROMATOGRAPHY: SOLVENT A: Water 0.1% Formic acid, B: Acetonitrile 0.1% Formic acid
MS$FOCUSED_ION: PRECURSOR_M/Z 297.0556
MS$FOCUSED_ION: PRECURSOR_TYPE [M+H]+
MS$DATA_PROCESSING: COMMENT Export with Spectra 1.9.12 MsBackendMassbank 1.7.4
MS$DATA_PROCESSING: WHOLE RMassBank 2.3.1
PK$SPLASH: splash10-0a4i-2900000000-5e0c292d61a2aa26cf85
PK$NUM_PEAK: 28
PK$PEAK: m/z int. rel.int.
  67.044 0.8 14
  69.0485 11.9 216
  69.0685 1.3 23
  80.0505 0.6 10
  81.0475 5.6 102
  82.0558 0.8 14
  82.0728 0.7 12
  102.0464 0.8 14
  109.0759 3.7 67
  115.0534 0.6 10
  122.9997 1.1 20
  129.069 1.1 20
  137.0147 0.9 16
  138.0238 0.9 16
  141.0698 3.9 71
  149.0143 0.8 14
  150.0226 1.5 27
  158.976 54.8 999
  164.038 1.9 34
  172.9919 12.9 235
  175.0297 1.6 29
  176.038 8.5 154
  186.9722 1.4 25
  199.0087 0.6 10
  200.9857 2.3 41
  203.0366 0.8 14
  255.0082 5.2 94
  297.0504 0.6 10
//
