ACCESSION: MSBNK-BAFG-CSL25011734650
RECORD_TITLE: Reactive Orange; LC-ESI-QTOF; MS2; 60 V
DATE: 2025.01.17
AUTHORS: Ole Lessmann; Kevin S. Jewell; Björn Ehlig; Arne Wick
LICENSE: dl-de/by-2-0
COPYRIGHT: Copyright 2025 Federal Institute of Hydrology, Koblenz, Germany
COMMENT: CONFIDENCE Reference Standard (Level 1)
COMMENT: Chromatography method: dx.doi.org/10.1016/j.chroma.2015.11.014
CH$NAME: Reactive Orange
CH$FORMULA: C20H19N3O11S3
CH$EXACT_MASS: 573.0182
CH$SMILES: CC(=O)NC1=CC2=C(C(=C(C=C2C=C1)S(=O)(=O)O)N=NC3=CC=C(C=C3)S(=O)(=O)CCOS(=O)(=O)O)O
CH$IUPAC: InChI=1S/C20H19N3O11S3/c1-12(24)21-15-3-2-13-10-18(36(28,29)30)19(20(25)17(13)11-15)23-22-14-4-6-16(7-5-14)35(26,27)9-8-34-37(31,32)33/h2-7,10-11,25H,8-9H2,1H3,(H,21,24)(H,28,29,30)(H,31,32,33)
CH$LINK: CAS 109603-48-7
CH$LINK: INCHIKEY INOIOAWTVPHTCJ-UHFFFAOYSA-N
AC$INSTRUMENT: TripleTOF 6600 SCIEX
AC$INSTRUMENT_TYPE: LC-ESI-QTOF
AC$MASS_SPECTROMETRY: MS_TYPE MS2
AC$MASS_SPECTROMETRY: ION_MODE POSITIVE
AC$MASS_SPECTROMETRY: COLLISION_ENERGY 60
AC$MASS_SPECTROMETRY: FRAGMENTATION_MODE CID
AC$MASS_SPECTROMETRY: IONIZATION ESI
AC$CHROMATOGRAPHY: COLUMN_NAME Zorbax Eclipse Plus C18 2.1 mm x 150 mm, 3.5 um, Agilent
AC$CHROMATOGRAPHY: COLUMN_TEMPERATURE 40 °C
AC$CHROMATOGRAPHY: FLOW_GRADIENT 0 min min 98% A, 1 min 98% A, 2 min 80% A, 16.5 min 2% A, 22 min 2% A, 22.1 min 98% A, 27 min 98% A
AC$CHROMATOGRAPHY: FLOW_RATE 0.3 mL/min
AC$CHROMATOGRAPHY: RETENTION_TIME 5.751 min
AC$CHROMATOGRAPHY: SOLVENT A: Water 0.1% Formic acid, B: Acetonitrile 0.1% Formic acid
MS$FOCUSED_ION: PRECURSOR_M/Z 574.0255
MS$FOCUSED_ION: PRECURSOR_TYPE [M+H]+
MS$DATA_PROCESSING: COMMENT Export with pycsl 0.1.0.dev1 and CSL 25.0
PK$SPLASH: splash10-0c00-1942000000-cfd5ea4b82fa39ea5221
PK$NUM_PEAK: 39
PK$PEAK: m/z int. rel.int.
  74.9883 10.3 35
  80.0482 7.7 26
  81.0325 39.1 135
  92.0487 5.3 18
  93.0562 4.9 16
  108.0438 289.3 999
  130.0502 6.8 23
  131.0598 7.5 25
  132.0428 6.7 23
  136.0731 4.1 14
  142.0509 8.2 28
  143.0592 3.0 10
  156.0102 9.8 33
  158.0464 4.5 15
  159.0539 13.6 46
  170.0469 185.0 638
  171.0546 36.3 125
  172.0396 2.9 10
  213.0658 4.5 15
  220.0869 6.8 23
  232.0826 5.9 20
  233.0922 69.3 239
  234.0784 8.3 28
  244.0795 4.1 14
  248.0804 9.1 31
  249.0864 12.9 44
  260.0811 43.6 150
  261.0895 131.8 455
  262.0729 5.5 18
  262.0906 4.4 15
  302.0908 18.1 62
  303.0996 60.0 207
  325.0456 5.5 18
  340.0785 4.2 14
  352.0758 4.8 16
  358.0853 43.5 150
  367.07 3.2 11
  370.0827 4.2 14
  386.0813 7.6 26
//
