ACCESSION: MSBNK-BAFG-CSL2311107424
RECORD_TITLE: Ethisterone; LC-ESI-QTOF; MS2; 130 V
DATE: 2023.11.10
AUTHORS: Kevin S. Jewell; Björn Ehlig; Arne Wick
LICENSE: dl-de/by-2-0
COPYRIGHT: Copyright 2023 Federal Institute of Hydrology, Koblenz, Germany
COMMENT: CONFIDENCE Reference Standard (Level 1)
COMMENT: Chromatography method: dx.doi.org/10.1016/j.chroma.2015.11.014
COMMENT: Acquisition method: 10.1002/rcm.8541
CH$NAME: Ethisterone
CH$COMPOUND_CLASS: Pharmaceutical; Metabolite
CH$FORMULA: C21H28O2
CH$EXACT_MASS: 312.2089
CH$SMILES: C[C@]12CCC(=O)C=C1CC[C@@H]3[C@@H]2CC[C@@]4(C)[C@H]3CC[C@@]4(O)C#C
CH$IUPAC: InChI=1S/C21H28O2/c1-4-21(23)12-9-18-16-6-5-14-13-15(22)7-10-19(14,2)17(16)8-11-20(18,21)3/h1,13,16-18,23H,5-12H2,2-3H3/t16-,17+,18+,19+,20+,21+/m1/s1
CH$LINK: CAS 434-03-7
CH$LINK: INCHIKEY CHNXZKVNWQUJIB-CEGNMAFCSA-N
AC$INSTRUMENT: TripleTOF 5600 SCIEX
AC$INSTRUMENT_TYPE: LC-ESI-QTOF
AC$MASS_SPECTROMETRY: MS_TYPE MS2
AC$MASS_SPECTROMETRY: ION_MODE POSITIVE
AC$MASS_SPECTROMETRY: COLLISION_ENERGY 130
AC$MASS_SPECTROMETRY: FRAGMENTATION_MODE CID
AC$MASS_SPECTROMETRY: IONIZATION ESI
AC$CHROMATOGRAPHY: COLUMN_NAME Zorbax Eclipse Plus C18 2.1 mm x 150 mm, 3.5 um, Agilent
AC$CHROMATOGRAPHY: COLUMN_TEMPERATURE 40 °C
AC$CHROMATOGRAPHY: FLOW_GRADIENT 0 min min 98% A, 1 min 98% A, 2 min 80% A, 16.5 min 2% A, 22 min 2% A, 22.1 min 98% A, 27 min 98% A
AC$CHROMATOGRAPHY: FLOW_RATE 0.3 mL/min
AC$CHROMATOGRAPHY: RETENTION_TIME 11.662 min
AC$CHROMATOGRAPHY: SOLVENT A: Water 0.1% Formic acid, B: Acetonitrile 0.1% Formic acid
MS$FOCUSED_ION: PRECURSOR_M/Z 313.2162
MS$FOCUSED_ION: PRECURSOR_TYPE [M+H]+
MS$DATA_PROCESSING: COMMENT Export with Spectra 1.9.12 MsBackendMassbank 1.7.4
MS$DATA_PROCESSING: WHOLE RMassBank 2.3.1
PK$SPLASH: splash10-00or-9400000000-7ff809c12d01f3ba3aad
PK$NUM_PEAK: 38
PK$PEAK: m/z int. rel.int.
  43.0269 1.6 84
  51.0289 5.2 273
  53.0432 1.4 73
  55.0231 2.5 131
  65.0429 7.8 410
  66.0494 0.5 26
  67.0573 0.9 47
  69.0733 0.5 26
  74.02 0.7 36
  77.0419 19 999
  77.0706 0.7 36
  78.0497 1.1 57
  79.0562 4.3 226
  81.0358 0.5 26
  81.0731 0.8 42
  89.0416 1.7 89
  91.0559 4.8 252
  91.075 0.7 36
  97.066 0.8 42
  102.0466 1.7 89
  103.0542 0.6 31
  107.0471 0.7 36
  115.0542 7.6 399
  115.0866 0.4 21
  126.0459 0.6 31
  127.0538 1.8 94
  127.0693 0.4 21
  128.0617 4.2 220
  129.0753 0.5 26
  139.0558 0.5 26
  141.072 0.8 42
  151.0558 1 52
  152.0612 1.1 57
  153.0699 0.8 42
  163.0548 1.1 57
  164.0647 0.6 31
  165.0692 0.9 47
  189.0673 0.6 31
//
