ACCESSION: MSBNK-BAFG-CSL25010634204
RECORD_TITLE: Edetol; LC-ESI-QTOF; MS2; 100 V
DATE: 2025.01.06
AUTHORS: Ole Lessmann; Kevin S. Jewell; Björn Ehlig; Arne Wick
LICENSE: dl-de/by-2-0
COPYRIGHT: Copyright 2025 Federal Institute of Hydrology, Koblenz, Germany
COMMENT: CONFIDENCE Reference Standard (Level 1)
COMMENT: Chromatography method: dx.doi.org/10.1016/j.chroma.2015.11.014
COMMENT: Acquisition method: 10.1002/rcm.8541
CH$NAME: Edetol
CH$FORMULA: C14H32N2O4
CH$EXACT_MASS: 292.2362
CH$SMILES: CC(CN(CCN(CC(C)O)CC(C)O)CC(C)O)O
CH$IUPAC: InChI=1S/C14H32N2O4/c1-11(17)7-15(8-12(2)18)5-6-16(9-13(3)19)10-14(4)20/h11-14,17-20H,5-10H2,1-4H3
CH$LINK: CAS 102-60-3
CH$LINK: INCHIKEY NSOXQYCFHDMMGV-UHFFFAOYSA-N
AC$INSTRUMENT: TripleTOF 6600 SCIEX
AC$INSTRUMENT_TYPE: LC-ESI-QTOF
AC$MASS_SPECTROMETRY: MS_TYPE MS2
AC$MASS_SPECTROMETRY: ION_MODE POSITIVE
AC$MASS_SPECTROMETRY: COLLISION_ENERGY 100
AC$MASS_SPECTROMETRY: FRAGMENTATION_MODE CID
AC$MASS_SPECTROMETRY: IONIZATION ESI
AC$CHROMATOGRAPHY: COLUMN_NAME Zorbax Eclipse Plus C18 2.1 mm x 150 mm, 3.5 um, Agilent
AC$CHROMATOGRAPHY: COLUMN_TEMPERATURE 40 °C
AC$CHROMATOGRAPHY: FLOW_GRADIENT 0 min min 98% A, 1 min 98% A, 2 min 80% A, 16.5 min 2% A, 22 min 2% A, 22.1 min 98% A, 27 min 98% A
AC$CHROMATOGRAPHY: FLOW_RATE 0.3 mL/min
AC$CHROMATOGRAPHY: RETENTION_TIME 2.645 min
AC$CHROMATOGRAPHY: SOLVENT A: Water 0.1% Formic acid, B: Acetonitrile 0.1% Formic acid
MS$FOCUSED_ION: PRECURSOR_M/Z 293.2435
MS$FOCUSED_ION: PRECURSOR_TYPE [M+H]+
MS$DATA_PROCESSING: COMMENT Export with pycsl 0.1.0.dev1 and CSL 24.4
PK$SPLASH: splash10-000f-9000000000-a1a428c2856d95e1e779
PK$NUM_PEAK: 18
PK$PEAK: m/z int. rel.int.
  31.0175 1.9 213
  38.0152 0.6 67
  39.0226 8.9 999
  41.0382 6.9 774
  42.0337 2.2 246
  43.0184 0.7 78
  43.0419 0.4 44
  44.0486 1.1 123
  45.0338 0.9 101
  54.0333 0.7 78
  56.0489 1.9 213
  58.0647 0.4 44
  59.048 0.8 89
  68.0499 0.6 67
  69.0571 0.5 56
  70.0632 0.7 78
  80.0491 0.5 56
  82.063 0.6 67
//