ACCESSION: MSBNK-BAFG-CSL2310269287
RECORD_TITLE: Drometrizole; LC-ESI-QTOF; MS2; 50 V
DATE: 2023.10.26
AUTHORS: Kevin S. Jewell; Björn Ehlig; Arne Wick
LICENSE: dl-de/by-2-0
COPYRIGHT: Copyright 2023 Federal Institute of Hydrology, Koblenz, Germany
COMMENT: CONFIDENCE Reference Standard (Level 1)
COMMENT: Chromatography method: dx.doi.org/10.1016/j.chroma.2015.11.014
COMMENT: Acquisition method: 10.1002/rcm.8541
CH$NAME: Drometrizole
CH$COMPOUND_CLASS: Industrial_process
CH$FORMULA: C13H11N3O
CH$EXACT_MASS: 225.0902
CH$SMILES: CC1=CC(=C(C=C1)O)N2N=C3C=CC=CC3=N2
CH$IUPAC: InChI=1S/C13H11N3O/c1-9-6-7-13(17)12(8-9)16-14-10-4-2-3-5-11(10)15-16/h2-8,17H,1H3
CH$LINK: CAS 2440-22-4
CH$LINK: INCHIKEY MCPKSFINULVDNX-UHFFFAOYSA-N
AC$INSTRUMENT: TripleTOF 5600 SCIEX
AC$INSTRUMENT_TYPE: LC-ESI-QTOF
AC$MASS_SPECTROMETRY: MS_TYPE MS2
AC$MASS_SPECTROMETRY: ION_MODE POSITIVE
AC$MASS_SPECTROMETRY: COLLISION_ENERGY 50
AC$MASS_SPECTROMETRY: FRAGMENTATION_MODE CID
AC$MASS_SPECTROMETRY: IONIZATION ESI
AC$CHROMATOGRAPHY: COLUMN_NAME Zorbax Eclipse Plus C18 2.1 mm x 150 mm, 3.5 um, Agilent
AC$CHROMATOGRAPHY: COLUMN_TEMPERATURE 40 °C
AC$CHROMATOGRAPHY: FLOW_GRADIENT 0 min min 98% A, 1 min 98% A, 2 min 80% A, 16.5 min 2% A, 22 min 2% A, 22.1 min 98% A, 27 min 98% A
AC$CHROMATOGRAPHY: FLOW_RATE 0.3 mL/min
AC$CHROMATOGRAPHY: RETENTION_TIME 15.201 min
AC$CHROMATOGRAPHY: SOLVENT A: Water 0.1% Formic acid, B: Acetonitrile 0.1% Formic acid
MS$FOCUSED_ION: PRECURSOR_M/Z 226.0975
MS$FOCUSED_ION: PRECURSOR_TYPE [M+H]+
MS$DATA_PROCESSING: COMMENT Export with Spectra 1.9.12 MsBackendMassbank 1.7.4
MS$DATA_PROCESSING: WHOLE RMassBank 2.3.1
PK$SPLASH: splash10-004i-8900000000-d7aa204cd6d490412ec4
PK$NUM_PEAK: 33
PK$PEAK: m/z int. rel.int.
  65.0461 11.5 179
  77.0446 63.9 999
  78.0512 1 15
  79.0592 21.7 339
  92.0532 5.9 92
  94.0689 1.2 18
  103.0516 0.7 10
  105.0476 6.8 106
  106.0547 3.4 53
  107.0518 7.9 123
  115.0572 1 15
  120.0577 12.1 189
  127.0556 5 78
  128.0608 6.5 101
  129.0585 1.4 21
  130.0688 1 15
  141.0705 0.8 12
  151.0581 0.9 14
  152.063 2.8 43
  153.066 1.4 21
  154.0663 21.3 333
  155.0734 2.4 37
  156.0665 0.7 10
  164.0486 1.5 23
  167.0722 2.1 32
  168.0824 2.2 34
  178.0635 0.9 14
  179.0674 1.1 17
  180.0791 3.5 54
  181.077 11.3 176
  182.0793 4.6 71
  183.0703 2 31
  196.077 2.5 39
//
