ACCESSION: MSBNK-BAFG-CSL25010616110
RECORD_TITLE: Clopidogrel carboxylic acid; LC-ESI-QTOF; MS2; 150 V
DATE: 2025.01.06
AUTHORS: Ole Lessmann; Kevin S. Jewell; Björn Ehlig; Arne Wick
LICENSE: dl-de/by-2-0
COPYRIGHT: Copyright 2025 Federal Institute of Hydrology, Koblenz, Germany
COMMENT: CONFIDENCE Reference Standard (Level 1)
COMMENT: Chromatography method: dx.doi.org/10.1016/j.chroma.2015.11.014
COMMENT: Acquisition method: 10.1002/rcm.8541
CH$NAME: Clopidogrel carboxylic acid
CH$COMPOUND_CLASS: Pharmaceutical; Transformation_product-Metabolite
CH$FORMULA: C15H14ClNO2S
CH$EXACT_MASS: 307.0434
CH$SMILES: C1CN(CC2=C1SC=C2)C(C3=CC=CC=C3Cl)C(=O)O
CH$IUPAC: InChI=1S/C15H14ClNO2S/c16-12-4-2-1-3-11(12)14(15(18)19)17-7-5-13-10(9-17)6-8-20-13/h1-4,6,8,14H,5,7,9H2,(H,18,19)
CH$LINK: CAS 144457-28-3
CH$LINK: INCHIKEY DCASRSISIKYPDD-UHFFFAOYSA-N
AC$INSTRUMENT: TripleTOF 6600 SCIEX
AC$INSTRUMENT_TYPE: LC-ESI-QTOF
AC$MASS_SPECTROMETRY: MS_TYPE MS2
AC$MASS_SPECTROMETRY: ION_MODE POSITIVE
AC$MASS_SPECTROMETRY: COLLISION_ENERGY 150
AC$MASS_SPECTROMETRY: FRAGMENTATION_MODE CID
AC$MASS_SPECTROMETRY: IONIZATION ESI
AC$CHROMATOGRAPHY: COLUMN_NAME Zorbax Eclipse Plus C18 2.1 mm x 150 mm, 3.5 um, Agilent
AC$CHROMATOGRAPHY: COLUMN_TEMPERATURE 40 °C
AC$CHROMATOGRAPHY: FLOW_GRADIENT 0 min min 98% A, 1 min 98% A, 2 min 80% A, 16.5 min 2% A, 22 min 2% A, 22.1 min 98% A, 27 min 98% A
AC$CHROMATOGRAPHY: FLOW_RATE 0.3 mL/min
AC$CHROMATOGRAPHY: RETENTION_TIME 6.621 min
AC$CHROMATOGRAPHY: SOLVENT A: Water 0.1% Formic acid, B: Acetonitrile 0.1% Formic acid
MS$FOCUSED_ION: PRECURSOR_M/Z 308.0507
MS$FOCUSED_ION: PRECURSOR_TYPE [M+H]+
MS$DATA_PROCESSING: COMMENT Export with pycsl 0.1.0.dev1 and CSL 24.4
PK$SPLASH: splash10-0udi-9000000000-abaab1ed8818dfa2f0e9
PK$NUM_PEAK: 23
PK$PEAK: m/z int. rel.int.
  37.0081 2.0 19
  38.0162 1.6 15
  39.0236 4.5 44
  44.9796 2.4 23
  48.9846 1.5 14
  49.0081 15.2 150
  50.016 73.3 727
  51.0239 100.6 999
  52.0312 3.3 32
  61.0077 4.8 47
  62.0156 9.6 95
  63.0237 14.9 147
  64.0309 1.4 13
  65.0393 1.6 15
  68.981 2.0 19
  72.9846 7.0 69
  74.0156 5.6 55
  75.0235 2.9 28
  77.0394 12.7 126
  78.0468 2.3 22
  89.0391 14.9 147
  90.0467 2.1 20
  99.0001 1.5 14
//