ACCESSION: MSBNK-BAFG-CSL25010634336
RECORD_TITLE: N-Isopropyl-N'-phenyl-p-phenylenediamine; LC-ESI-QTOF; MS2; 140 V
DATE: 2025.01.06
AUTHORS: Ole Lessmann; Kevin S. Jewell; Björn Ehlig; Arne Wick
LICENSE: dl-de/by-2-0
COPYRIGHT: Copyright 2025 Federal Institute of Hydrology, Koblenz, Germany
COMMENT: CONFIDENCE Reference Standard (Level 1)
COMMENT: Chromatography method: dx.doi.org/10.1016/j.chroma.2015.11.014
COMMENT: Acquisition method: 10.1002/rcm.8541
CH$NAME: N-Isopropyl-N'-phenyl-p-phenylenediamine
CH$COMPOUND_CLASS: Industrial_process
CH$FORMULA: C15H18N2
CH$EXACT_MASS: 226.147
CH$SMILES: CC(C)Nc1ccc(cc1)Nc2ccccc2
CH$IUPAC: InChI=1S/C15H18N2/c1-12(2)16-14-8-10-15(11-9-14)17-13-6-4-3-5-7-13/h3-12,16-17H,1-2H3
CH$LINK: CAS 101-72-4
CH$LINK: INCHIKEY OUBMGJOQLXMSNT-UHFFFAOYSA-N
AC$INSTRUMENT: TripleTOF 6600 SCIEX
AC$INSTRUMENT_TYPE: LC-ESI-QTOF
AC$MASS_SPECTROMETRY: MS_TYPE MS2
AC$MASS_SPECTROMETRY: ION_MODE POSITIVE
AC$MASS_SPECTROMETRY: COLLISION_ENERGY 140
AC$MASS_SPECTROMETRY: FRAGMENTATION_MODE CID
AC$MASS_SPECTROMETRY: IONIZATION ESI
AC$CHROMATOGRAPHY: COLUMN_NAME Zorbax Eclipse Plus C18 2.1 mm x 150 mm, 3.5 um, Agilent
AC$CHROMATOGRAPHY: COLUMN_TEMPERATURE 40 °C
AC$CHROMATOGRAPHY: FLOW_GRADIENT 0 min min 98% A, 1 min 98% A, 2 min 80% A, 16.5 min 2% A, 22 min 2% A, 22.1 min 98% A, 27 min 98% A
AC$CHROMATOGRAPHY: FLOW_RATE 0.3 mL/min
AC$CHROMATOGRAPHY: RETENTION_TIME 7.24 min
AC$CHROMATOGRAPHY: SOLVENT A: Water 0.1% Formic acid, B: Acetonitrile 0.1% Formic acid
MS$FOCUSED_ION: PRECURSOR_M/Z 227.1543
MS$FOCUSED_ION: PRECURSOR_TYPE [M+H]+
MS$DATA_PROCESSING: COMMENT Export with pycsl 0.1.0.dev1 and CSL 24.4
PK$SPLASH: splash10-0w2i-9000000000-bc43c6e4d80867df61c3
PK$NUM_PEAK: 39
PK$PEAK: m/z int. rel.int.
  35.9991 1.1 68
  37.0068 7.6 471
  38.0024 0.7 43
  38.0146 5.8 359
  39.0223 16.1 999
  41.0252 0.7 43
  49.0073 1.5 93
  50.0147 11.4 707
  51.0223 13.8 856
  52.0173 2.5 155
  52.0304 0.5 31
  53.0378 6.1 378
  54.0328 1.9 117
  59.9984 0.9 55
  61.0064 4.9 304
  62.0141 9.0 558
  63.0223 10.4 645
  64.019 0.9 55
  65.0385 0.9 55
  66.033 0.4 24
  73.0054 0.7 43
  74.0143 5.4 335
  75.021 2.4 148
  76.0173 0.7 43
  77.0375 2.1 130
  78.0332 0.8 49
  80.048 3.5 217
  85.0069 1.4 86
  86.0131 2.1 130
  87.0216 2.4 148
  89.0365 1.9 117
  98.0127 1.0 62
  99.0216 0.5 31
  101.0414 0.6 37
  102.0468 0.5 31
  110.0155 0.5 31
  113.0358 0.9 55
  126.043 0.6 37
  139.0526 0.7 43
//