ACCESSION: MSBNK-BAFG-CSL23110910496
RECORD_TITLE: Trioctylphosphine oxide; LC-ESI-QTOF; MS2; 140 V
DATE: 2023.11.09
AUTHORS: Kevin S. Jewell; Björn Ehlig; Arne Wick
LICENSE: dl-de/by-2-0
COPYRIGHT: Copyright 2023 Federal Institute of Hydrology, Koblenz, Germany
COMMENT: CONFIDENCE Reference Standard (Level 1)
COMMENT: Chromatography method: dx.doi.org/10.1016/j.chroma.2015.11.014
COMMENT: Acquisition method: 10.1002/rcm.8541
CH$NAME: Trioctylphosphine oxide
CH$COMPOUND_CLASS: Industrial_process
CH$FORMULA: C24H51OP
CH$EXACT_MASS: 386.3678
CH$SMILES: CCCCCCCCP(=O)(CCCCCCCC)CCCCCCCC
CH$IUPAC: InChI=1S/C24H51OP/c1-4-7-10-13-16-19-22-26(25,23-20-17-14-11-8-5-2)24-21-18-15-12-9-6-3/h4-24H2,1-3H3
CH$LINK: CAS 78-50-2
CH$LINK: INCHIKEY ZMBHCYHQLYEYDV-UHFFFAOYSA-N
AC$INSTRUMENT: TripleTOF 5600 SCIEX
AC$INSTRUMENT_TYPE: LC-ESI-QTOF
AC$MASS_SPECTROMETRY: MS_TYPE MS2
AC$MASS_SPECTROMETRY: ION_MODE POSITIVE
AC$MASS_SPECTROMETRY: COLLISION_ENERGY 140
AC$MASS_SPECTROMETRY: FRAGMENTATION_MODE CID
AC$MASS_SPECTROMETRY: IONIZATION ESI
AC$CHROMATOGRAPHY: COLUMN_NAME Zorbax Eclipse Plus C18 2.1 mm x 150 mm, 3.5 um, Agilent
AC$CHROMATOGRAPHY: COLUMN_TEMPERATURE 40 °C
AC$CHROMATOGRAPHY: FLOW_GRADIENT 0 min min 98% A, 1 min 98% A, 2 min 80% A, 16.5 min 2% A, 22 min 2% A, 22.1 min 98% A, 27 min 98% A
AC$CHROMATOGRAPHY: FLOW_RATE 0.3 mL/min
AC$CHROMATOGRAPHY: RETENTION_TIME 22.9 min
AC$CHROMATOGRAPHY: SOLVENT A: Water 0.1% Formic acid, B: Acetonitrile 0.1% Formic acid
MS$FOCUSED_ION: PRECURSOR_M/Z 387.375
MS$FOCUSED_ION: PRECURSOR_TYPE [M+H]+
MS$DATA_PROCESSING: COMMENT Export with Spectra 1.9.12 MsBackendMassbank 1.7.4
MS$DATA_PROCESSING: WHOLE RMassBank 2.3.1
PK$SPLASH: splash10-03di-9000000000-44361f2af5f21db68dfc
PK$NUM_PEAK: 23
PK$PEAK: m/z int. rel.int.
  37.0205 0.9 13
  43.9912 0.7 10
  45.0014 9 138
  50 0.7 10
  56.9963 2.4 37
  59.0122 0.8 12
  61.0286 0.7 10
  63.0073 64.8 999
  64.0142 6.9 106
  65.022 1 15
  71.0106 1 15
  72.0201 1.3 20
  73.0258 1.2 18
  75.0053 4.7 72
  77.0209 19.4 299
  78.0283 7.4 114
  89.0195 0.9 13
  90.0258 0.7 10
  91.0348 2.6 40
  92.0416 1.3 20
  103.034 1 15
  105.0477 0.7 10
  117.0495 1.1 16
//
