ACCESSION: MSBNK-BAFG-CSL25010634313
RECORD_TITLE: 4,4`-Methylenebis(2-methylaniline); LC-ESI-QTOF; MS2; 70 V
DATE: 2025.01.06
AUTHORS: Ole Lessmann; Kevin S. Jewell; Björn Ehlig; Arne Wick
LICENSE: dl-de/by-2-0
COPYRIGHT: Copyright 2025 Federal Institute of Hydrology, Koblenz, Germany
COMMENT: CONFIDENCE Reference Standard (Level 1)
COMMENT: Chromatography method: dx.doi.org/10.1016/j.chroma.2015.11.014
COMMENT: Acquisition method: 10.1002/rcm.8541
CH$NAME: 4,4`-Methylenebis(2-methylaniline)
CH$FORMULA: C15H18N2
CH$EXACT_MASS: 226.147
CH$SMILES: CC1=C(C=CC(=C1)CC2=CC(=C(C=C2)N)C)N
CH$IUPAC: InChI=1S/C15H18N2/c1-10-7-12(3-5-14(10)16)9-13-4-6-15(17)11(2)8-13/h3-8H,9,16-17H2,1-2H3
CH$LINK: CAS 838-88-0
CH$LINK: INCHIKEY WECDUOXQLAIPQW-UHFFFAOYSA-N
AC$INSTRUMENT: TripleTOF 6600 SCIEX
AC$INSTRUMENT_TYPE: LC-ESI-QTOF
AC$MASS_SPECTROMETRY: MS_TYPE MS2
AC$MASS_SPECTROMETRY: ION_MODE POSITIVE
AC$MASS_SPECTROMETRY: COLLISION_ENERGY 70
AC$MASS_SPECTROMETRY: FRAGMENTATION_MODE CID
AC$MASS_SPECTROMETRY: IONIZATION ESI
AC$CHROMATOGRAPHY: COLUMN_NAME Zorbax Eclipse Plus C18 2.1 mm x 150 mm, 3.5 um, Agilent
AC$CHROMATOGRAPHY: COLUMN_TEMPERATURE 40 °C
AC$CHROMATOGRAPHY: FLOW_GRADIENT 0 min min 98% A, 1 min 98% A, 2 min 80% A, 16.5 min 2% A, 22 min 2% A, 22.1 min 98% A, 27 min 98% A
AC$CHROMATOGRAPHY: FLOW_RATE 0.3 mL/min
AC$CHROMATOGRAPHY: RETENTION_TIME 5.215 min
AC$CHROMATOGRAPHY: SOLVENT A: Water 0.1% Formic acid, B: Acetonitrile 0.1% Formic acid
MS$FOCUSED_ION: PRECURSOR_M/Z 227.1543
MS$FOCUSED_ION: PRECURSOR_TYPE [M+H]+
MS$DATA_PROCESSING: COMMENT Export with pycsl 0.1.0.dev1 and CSL 24.4
PK$SPLASH: splash10-0fi0-4900000000-a0554f8bb4fff8b6336e
PK$NUM_PEAK: 56
PK$PEAK: m/z int. rel.int.
  42.0334 0.5 14
  50.0143 0.4 11
  51.0223 2.9 86
  53.0377 0.5 14
  65.0372 2.3 68
  77.0374 33.5 999
  78.0451 1.1 32
  79.0514 1.0 29
  80.0479 2.5 74
  89.0394 1.2 35
  91.0521 12.8 381
  92.0481 0.7 20
  92.0577 0.4 11
  93.0549 3.5 104
  93.0687 1.4 41
  94.0639 0.5 14
  102.0449 0.9 26
  103.0523 4.8 143
  104.0474 4.7 140
  105.0461 0.5 14
  105.056 1.8 53
  106.0645 0.8 23
  115.0539 1.8 53
  117.0545 1.1 32
  118.0613 4.4 131
  119.071 2.4 71
  120.079 29.3 873
  126.0456 0.5 14
  127.0505 1.1 32
  128.0594 3.4 101
  130.0621 0.6 17
  139.0535 0.9 26
  140.0491 0.4 11
  150.0424 0.5 14
  151.0511 5.5 164
  152.0608 20.2 602
  153.0678 3.5 104
  163.0527 1.6 47
  165.0679 6.3 187
  166.0738 1.0 29
  167.0755 1.3 38
  168.0763 0.7 20
  176.0614 5.2 155
  177.0693 2.6 77
  178.0554 0.5 14
  178.076 3.2 95
  179.0684 1.3 38
  180.0802 2.3 68
  181.0793 0.6 17
  189.0682 0.8 23
  191.0701 1.0 29
  192.0796 0.8 23
  193.0858 3.4 101
  194.085 0.4 11
  195.0951 0.7 20
  196.0959 1.6 47
//