ACCESSION: MSBNK-BAFG-CSL23110917063
RECORD_TITLE: Iprovalicarb; LC-ESI-QTOF; MS2; 120 V
DATE: 2023.11.09
AUTHORS: Kevin S. Jewell; Björn Ehlig; Arne Wick
LICENSE: dl-de/by-2-0
COPYRIGHT: Copyright 2023 Federal Institute of Hydrology, Koblenz, Germany
COMMENT: CONFIDENCE Reference Standard (Level 1)
COMMENT: Chromatography method: dx.doi.org/10.1016/j.chroma.2015.11.014
COMMENT: Acquisition method: 10.1002/rcm.8541
CH$NAME: Iprovalicarb
CH$COMPOUND_CLASS: Fungicide
CH$FORMULA: C18H28N2O3
CH$EXACT_MASS: 320.21
CH$SMILES: CC1=CC=C(C=C1)C(C)NC(=O)C(C(C)C)NC(=O)OC(C)C
CH$IUPAC: InChI=1S/C18H28N2O3/c1-11(2)16(20-18(22)23-12(3)4)17(21)19-14(6)15-9-7-13(5)8-10-15/h7-12,14,16H,1-6H3,(H,19,21)(H,20,22)
CH$LINK: CAS 140923-17-7
CH$LINK: INCHIKEY NWUWYYSKZYIQAE-UHFFFAOYSA-N
AC$INSTRUMENT: TripleTOF 6600 SCIEX
AC$INSTRUMENT_TYPE: LC-ESI-QTOF
AC$MASS_SPECTROMETRY: MS_TYPE MS2
AC$MASS_SPECTROMETRY: ION_MODE POSITIVE
AC$MASS_SPECTROMETRY: COLLISION_ENERGY 120
AC$MASS_SPECTROMETRY: FRAGMENTATION_MODE CID
AC$MASS_SPECTROMETRY: IONIZATION ESI
AC$CHROMATOGRAPHY: COLUMN_NAME Zorbax Eclipse Plus C18 2.1 mm x 150 mm, 3.5 um, Agilent
AC$CHROMATOGRAPHY: COLUMN_TEMPERATURE 40 °C
AC$CHROMATOGRAPHY: FLOW_GRADIENT 0 min min 98% A, 1 min 98% A, 2 min 80% A, 16.5 min 2% A, 22 min 2% A, 22.1 min 98% A, 27 min 98% A
AC$CHROMATOGRAPHY: FLOW_RATE 0.3 mL/min
AC$CHROMATOGRAPHY: RETENTION_TIME 11.936 min
AC$CHROMATOGRAPHY: SOLVENT A: Water 0.1% Formic acid, B: Acetonitrile 0.1% Formic acid
MS$FOCUSED_ION: PRECURSOR_M/Z 321.2173
MS$FOCUSED_ION: PRECURSOR_TYPE [M+H]+
MS$DATA_PROCESSING: COMMENT Export with Spectra 1.9.12 MsBackendMassbank 1.7.4
MS$DATA_PROCESSING: WHOLE RMassBank 2.3.1
PK$SPLASH: splash10-0fvi-9100000000-75daa1e5f476af9f08c5
PK$NUM_PEAK: 32
PK$PEAK: m/z int. rel.int.
  35.9995 0.4 10
  37.0075 1.6 43
  38.0157 1.5 40
  39.0233 10.1 272
  41.0386 2 54
  42.0341 0.8 21
  49.0074 1.2 32
  50.0151 7.4 199
  51.023 22.1 596
  52.0305 1.1 29
  53.0384 0.8 21
  55.0544 1 27
  56.0493 1.2 32
  57.0571 1.1 29
  61.0073 0.7 18
  62.0154 1.7 45
  63.023 4.5 121
  65.0387 29 783
  74.0152 0.9 24
  75.0229 1.1 29
  76.0315 0.8 21
  77.0387 37 999
  78.0468 12.1 326
  79.0544 0.4 10
  89.0385 1.1 29
  91.0544 22.5 607
  102.0461 2.5 67
  103.0545 11 297
  104.0619 2.6 70
  105.0441 0.7 18
  115.0545 6.4 172
  117.0694 1 27
//
