ACCESSION: MSBNK-BAFG-CSL25010634477
RECORD_TITLE: Disperse brown 1; LC-ESI-QTOF; MS2; 60 V
DATE: 2025.01.06
AUTHORS: Ole Lessmann; Kevin S. Jewell; Björn Ehlig; Arne Wick
LICENSE: dl-de/by-2-0
COPYRIGHT: Copyright 2025 Federal Institute of Hydrology, Koblenz, Germany
COMMENT: CONFIDENCE Reference Standard (Level 1)
COMMENT: Chromatography method: dx.doi.org/10.1016/j.chroma.2015.11.014
COMMENT: Acquisition method: 10.1002/rcm.8541
CH$NAME: Disperse brown 1
CH$FORMULA: C16H15Cl3N4O4
CH$EXACT_MASS: 432.0159
CH$SMILES: C1=CC(=C(C=C1N(CCO)CCO)Cl)N=NC2=C(C=C(C=C2Cl)[N+](=O)[O-])Cl
CH$IUPAC: InChI=1S/C16H15Cl3N4O4/c17-12-7-10(22(3-5-24)4-6-25)1-2-15(12)20-21-16-13(18)8-11(23(26)27)9-14(16)19/h1-2,7-9,24-25H,3-6H2
CH$LINK: CAS 23355-64-8
CH$LINK: INCHIKEY HXXLWTPFYWMBSC-UHFFFAOYSA-N
AC$INSTRUMENT: TripleTOF 6600 SCIEX
AC$INSTRUMENT_TYPE: LC-ESI-QTOF
AC$MASS_SPECTROMETRY: MS_TYPE MS2
AC$MASS_SPECTROMETRY: ION_MODE POSITIVE
AC$MASS_SPECTROMETRY: COLLISION_ENERGY 60
AC$MASS_SPECTROMETRY: FRAGMENTATION_MODE CID
AC$MASS_SPECTROMETRY: IONIZATION ESI
AC$CHROMATOGRAPHY: COLUMN_NAME Zorbax Eclipse Plus C18 2.1 mm x 150 mm, 3.5 um, Agilent
AC$CHROMATOGRAPHY: COLUMN_TEMPERATURE 40 °C
AC$CHROMATOGRAPHY: FLOW_GRADIENT 0 min min 98% A, 1 min 98% A, 2 min 80% A, 16.5 min 2% A, 22 min 2% A, 22.1 min 98% A, 27 min 98% A
AC$CHROMATOGRAPHY: FLOW_RATE 0.3 mL/min
AC$CHROMATOGRAPHY: RETENTION_TIME 12.39 min
AC$CHROMATOGRAPHY: SOLVENT A: Water 0.1% Formic acid, B: Acetonitrile 0.1% Formic acid
MS$FOCUSED_ION: PRECURSOR_M/Z 433.0232
MS$FOCUSED_ION: PRECURSOR_TYPE [M+H]+
MS$DATA_PROCESSING: COMMENT Export with pycsl 0.1.0.dev1 and CSL 24.4
PK$SPLASH: splash10-114u-0903000000-57d54a63d11007d57741
PK$NUM_PEAK: 74
PK$PEAK: m/z int. rel.int.
  45.0341 0.9 48
  70.0658 0.4 21
  90.0324 0.9 48
  91.0523 0.8 42
  96.9826 0.8 42
  98.9884 1.2 64
  104.0483 1.3 69
  105.0485 0.7 37
  106.9444 1.7 91
  108.9837 0.7 37
  109.9775 1.9 102
  111.9934 0.7 37
  114.0115 0.7 37
  114.0563 0.8 42
  116.0515 0.4 21
  117.0445 0.6 32
  117.0552 1.8 96
  118.0516 1.8 96
  118.0638 2.1 112
  119.0619 1.1 59
  123.9937 2.2 118
  126.0096 4.3 230
  127.0212 0.7 37
  130.064 0.7 37
  131.0612 2.3 123
  132.0683 0.8 42
  133.0754 0.6 32
  135.0663 0.6 32
  138.0103 0.9 48
  139.0066 2.1 112
  139.0187 3.1 166
  140.0267 3.5 187
  141.0195 0.6 32
  142.9439 1.6 85
  143.059 0.5 26
  143.953 10.3 553
  144.0684 0.6 32
  144.945 0.6 32
  145.076 1.8 96
  149.0723 1.4 75
  152.0134 1.8 96
  152.0283 1.3 69
  153.022 18.6 999
  158.0377 1.5 80
  159.9485 2.0 107
  161.07 0.6 32
  163.087 0.8 42
  166.0424 1.8 96
  167.0354 1.5 80
  168.0406 0.7 37
  170.0367 0.8 42
  171.9586 1.7 91
  175.0875 0.9 48
  179.0359 0.9 48
  183.0335 0.7 37
  184.0511 1.7 91
  185.0487 1.5 80
  189.9444 8.5 456
  197.047 8.7 467
  217.9521 3.4 182
  228.0639 0.5 26
  247.9995 0.7 37
  296.9711 0.6 32
  310.9808 16.8 902
  311.9895 1.1 59
  312.9963 0.8 42
  323.0079 0.9 48
  324.9972 1.3 69
  328.9472 0.6 32
  342.9663 1.8 96
  343.0086 0.6 32
  356.9733 15.1 811
  358.9901 0.7 37
  370.9985 0.5 26
//