ACCESSION: MSBNK-BAFG-CSL23102612777
RECORD_TITLE: Itraconazole; LC-ESI-QTOF; MS2; 150 V
DATE: 2023.10.26
AUTHORS: Kevin S. Jewell; Björn Ehlig; Arne Wick
LICENSE: dl-de/by-2-0
COPYRIGHT: Copyright 2023 Federal Institute of Hydrology, Koblenz, Germany
COMMENT: CONFIDENCE Reference Standard (Level 1)
COMMENT: Chromatography method: dx.doi.org/10.1016/j.chroma.2015.11.014
COMMENT: Acquisition method: 10.1002/rcm.8541
CH$NAME: Itraconazole
CH$COMPOUND_CLASS: Pharmaceutical
CH$FORMULA: C35H38Cl2N8O4
CH$EXACT_MASS: 704.2393
CH$SMILES: CCC(C)N1C(=O)N(C=N1)C2=CC=C(C=C2)N3CCN(CC3)C4=CC=C(C=C4)OCC5COC(O5)(CN6C=NC=N6)C7=C(C=C(C=C7)Cl)Cl
CH$IUPAC: InChI=1S/C35H38Cl2N8O4/c1-3-25(2)45-34(46)44(24-40-45)29-7-5-27(6-8-29)41-14-16-42(17-15-41)28-9-11-30(12-10-28)47-19-31-20-48-35(49-31,21-43-23-38-22-39-43)32-13-4-26(36)18-33(32)37/h4-13,18,22-25,31H,3,14-17,19-21H2,1-2H3
CH$LINK: CAS 84625-61-6
CH$LINK: INCHIKEY VHVPQPYKVGDNFY-UHFFFAOYSA-N
AC$INSTRUMENT: TripleTOF 5600 SCIEX
AC$INSTRUMENT_TYPE: LC-ESI-QTOF
AC$MASS_SPECTROMETRY: MS_TYPE MS2
AC$MASS_SPECTROMETRY: ION_MODE POSITIVE
AC$MASS_SPECTROMETRY: COLLISION_ENERGY 150
AC$MASS_SPECTROMETRY: FRAGMENTATION_MODE CID
AC$MASS_SPECTROMETRY: IONIZATION ESI
AC$CHROMATOGRAPHY: COLUMN_NAME Zorbax Eclipse Plus C18 2.1 mm x 150 mm, 3.5 um, Agilent
AC$CHROMATOGRAPHY: COLUMN_TEMPERATURE 40 °C
AC$CHROMATOGRAPHY: FLOW_GRADIENT 0 min min 98% A, 1 min 98% A, 2 min 80% A, 16.5 min 2% A, 22 min 2% A, 22.1 min 98% A, 27 min 98% A
AC$CHROMATOGRAPHY: FLOW_RATE 0.3 mL/min
AC$CHROMATOGRAPHY: RETENTION_TIME 13.565 min
AC$CHROMATOGRAPHY: SOLVENT A: Water 0.1% Formic acid, B: Acetonitrile 0.1% Formic acid
MS$FOCUSED_ION: PRECURSOR_M/Z 705.2466
MS$FOCUSED_ION: PRECURSOR_TYPE [M+H]+
MS$DATA_PROCESSING: COMMENT Export with Spectra 1.9.12 MsBackendMassbank 1.7.4
MS$DATA_PROCESSING: WHOLE RMassBank 2.3.1
PK$SPLASH: splash10-0aou-2900000000-6658a88c8cd18358d10b
PK$NUM_PEAK: 30
PK$PEAK: m/z int. rel.int.
  56.0544 0 0
  77.034 0.1 124
  77.042 0.1 124
  79.0538 0.2 249
  89.0423 0.2 249
  91.0536 0.6 749
  92.0518 0.1 124
  103.0543 0.2 249
  104.0489 0.3 374
  105.0384 0.1 124
  105.0572 0.3 374
  106.0648 0.1 124
  107.0489 0.1 124
  115.05 0.1 124
  117.058 0 0
  117.0697 0.2 249
  118.0653 0.6 749
  119.0716 0.2 249
  120.0527 0.2 249
  120.0809 0.1 124
  123.0022 0.1 124
  124.0116 0 0
  130.058 0.1 124
  131.0639 0.2 249
  132.0702 0.1 124
  133.0407 0.1 124
  144.0832 0.3 374
  158.9778 0.8 999
  160.055 0.1 124
  161.0623 0.1 124
//
