ACCESSION: MSBNK-BAFG-CSL23102612509
RECORD_TITLE: Tadalafil; LC-ESI-QTOF; MS2; 40 V
DATE: 2023.10.26
AUTHORS: Kevin S. Jewell; Björn Ehlig; Arne Wick
LICENSE: dl-de/by-2-0
COPYRIGHT: Copyright 2023 Federal Institute of Hydrology, Koblenz, Germany
COMMENT: CONFIDENCE Reference Standard (Level 1)
COMMENT: Chromatography method: dx.doi.org/10.1016/j.chroma.2015.11.014
COMMENT: Acquisition method: 10.1002/rcm.8541
CH$NAME: Tadalafil
CH$COMPOUND_CLASS: Pharmaceutical
CH$FORMULA: C22H19N3O4
CH$EXACT_MASS: 389.1376
CH$SMILES: CN1CC(=O)N2C(C1=O)CC3=C(C2C4=CC5=C(C=C4)OCO5)NC6=CC=CC=C36
CH$IUPAC: InChI=1S/C22H19N3O4/c1-24-10-19(26)25-16(22(24)27)9-14-13-4-2-3-5-15(13)23-20(14)21(25)12-6-7-17-18(8-12)29-11-28-17/h2-8,16,21,23H,9-11H2,1H3
CH$LINK: CAS 171596-29-5
CH$LINK: INCHIKEY WOXKDUGGOYFFRN-UHFFFAOYSA-N
AC$INSTRUMENT: TripleTOF 5600 SCIEX
AC$INSTRUMENT_TYPE: LC-ESI-QTOF
AC$MASS_SPECTROMETRY: MS_TYPE MS2
AC$MASS_SPECTROMETRY: ION_MODE POSITIVE
AC$MASS_SPECTROMETRY: COLLISION_ENERGY 40
AC$MASS_SPECTROMETRY: FRAGMENTATION_MODE CID
AC$MASS_SPECTROMETRY: IONIZATION ESI
AC$CHROMATOGRAPHY: COLUMN_NAME Zorbax Eclipse Plus C18 2.1 mm x 150 mm, 3.5 um, Agilent
AC$CHROMATOGRAPHY: COLUMN_TEMPERATURE 40 °C
AC$CHROMATOGRAPHY: FLOW_GRADIENT 0 min min 98% A, 1 min 98% A, 2 min 80% A, 16.5 min 2% A, 22 min 2% A, 22.1 min 98% A, 27 min 98% A
AC$CHROMATOGRAPHY: FLOW_RATE 0.3 mL/min
AC$CHROMATOGRAPHY: RETENTION_TIME 9.801 min
AC$CHROMATOGRAPHY: SOLVENT A: Water 0.1% Formic acid, B: Acetonitrile 0.1% Formic acid
MS$FOCUSED_ION: PRECURSOR_M/Z 390.1448
MS$FOCUSED_ION: PRECURSOR_TYPE [M+H]+
MS$DATA_PROCESSING: COMMENT Export with Spectra 1.9.12 MsBackendMassbank 1.7.4
MS$DATA_PROCESSING: WHOLE RMassBank 2.3.1
PK$SPLASH: splash10-02ti-0490000000-3a3316962ec4f9d0089a
PK$NUM_PEAK: 36
PK$PEAK: m/z int. rel.int.
  77.0397 0.6 12
  99.0554 0.9 19
  127.0495 0.9 19
  130.0658 2.9 62
  135.0438 30 645
  142.0641 0.7 15
  167.0657 0.6 12
  169.0765 32.8 706
  170.059 2.1 45
  180.0801 0.6 12
  183.0973 0.8 17
  192.0817 1.3 27
  193.0753 0.6 12
  193.0891 0.6 12
  195.0581 0.5 10
  197.071 13.2 284
  204.0808 8 172
  205.0888 9.5 204
  206.0961 2.6 55
  216.085 1.8 38
  218.0982 0.6 12
  220.0776 1.3 27
  225.0618 0.9 19
  232.0749 9.2 198
  233.083 13.1 282
  234.0899 2.4 51
  240.114 23.7 510
  244.0746 1.8 38
  250.0868 7.9 170
  262.0868 46.4 999
  263.0925 7.4 159
  264.1026 7.9 170
  268.108 22.6 486
  272.0667 1.3 27
  274.0867 16.3 350
  302.082 10.7 230
//
