ACCESSION: MSBNK-BAFG-CSL23110927645
RECORD_TITLE: Solvent Yellow 124; LC-ESI-QTOF; MS2; 30 V
DATE: 2023.11.09
AUTHORS: Kevin S. Jewell; Björn Ehlig; Arne Wick
LICENSE: dl-de/by-2-0
COPYRIGHT: Copyright 2023 Federal Institute of Hydrology, Koblenz, Germany
COMMENT: CONFIDENCE Reference Standard (Level 1)
COMMENT: Chromatography method: dx.doi.org/10.1016/j.chroma.2015.11.014
COMMENT: Acquisition method: 10.1002/rcm.8541
CH$NAME: Solvent Yellow 124
CH$FORMULA: C22H31N3O2
CH$EXACT_MASS: 369.2416
CH$SMILES: CCN(CCOC(C)OCC(C)C)C1=CC=C(C=C1)N=NC2=CC=CC=C2
CH$IUPAC: InChI=1S/C22H31N3O2/c1-5-25(15-16-26-19(4)27-17-18(2)3)22-13-11-21(12-14-22)24-23-20-9-7-6-8-10-20/h6-14,18-19H,5,15-17H2,1-4H3
CH$LINK: CAS 34432-92-3
CH$LINK: INCHIKEY BATVZJPOLFSGTD-UHFFFAOYSA-N
AC$INSTRUMENT: TripleTOF X500R SCIEX
AC$INSTRUMENT_TYPE: LC-ESI-QTOF
AC$MASS_SPECTROMETRY: MS_TYPE MS2
AC$MASS_SPECTROMETRY: ION_MODE POSITIVE
AC$MASS_SPECTROMETRY: COLLISION_ENERGY 30
AC$MASS_SPECTROMETRY: FRAGMENTATION_MODE CID
AC$MASS_SPECTROMETRY: IONIZATION ESI
AC$CHROMATOGRAPHY: COLUMN_NAME Zorbax Eclipse Plus C18 2.1 mm x 150 mm, 3.5 um, Agilent
AC$CHROMATOGRAPHY: COLUMN_TEMPERATURE 40 °C
AC$CHROMATOGRAPHY: FLOW_GRADIENT 0 min min 98% A, 1 min 98% A, 2 min 80% A, 16.5 min 2% A, 22 min 2% A, 22.1 min 98% A, 27 min 98% A
AC$CHROMATOGRAPHY: FLOW_RATE 0.3 mL/min
AC$CHROMATOGRAPHY: RETENTION_TIME 18.347 min
AC$CHROMATOGRAPHY: SOLVENT A: Water 0.1% Formic acid, B: Acetonitrile 0.1% Formic acid
MS$FOCUSED_ION: PRECURSOR_M/Z 370.2489
MS$FOCUSED_ION: PRECURSOR_TYPE [M+H]+
MS$DATA_PROCESSING: COMMENT Export with Spectra 1.9.12 MsBackendMassbank 1.7.4
MS$DATA_PROCESSING: WHOLE RMassBank 2.3.1
PK$SPLASH: splash10-0fk9-0293000000-863378762442aa7524b7
PK$NUM_PEAK: 16
PK$PEAK: m/z int. rel.int.
  57.07 2.6 18
  77.0393 13.3 96
  105.0453 6.5 47
  132.0811 24.7 179
  134.0971 9.4 68
  145.0756 1.4 10
  146.098 2 14
  147.1046 31.3 227
  160.0991 5.3 38
  210.1029 6.8 49
  224.118 1.7 12
  239.1418 9.9 72
  252.15 137.3 999
  270.1602 117.2 852
  296.1763 5.2 37
  370.2489 118.9 865
//
