ACCESSION: MSBNK-BAFG-CSL25010634233
RECORD_TITLE: 4,4`-Thiodianiline; LC-ESI-QTOF; MS2; 70 V
DATE: 2025.01.06
AUTHORS: Ole Lessmann; Kevin S. Jewell; Björn Ehlig; Arne Wick
LICENSE: dl-de/by-2-0
COPYRIGHT: Copyright 2025 Federal Institute of Hydrology, Koblenz, Germany
COMMENT: CONFIDENCE Reference Standard (Level 1)
COMMENT: Chromatography method: dx.doi.org/10.1016/j.chroma.2015.11.014
COMMENT: Acquisition method: 10.1002/rcm.8541
CH$NAME: 4,4`-Thiodianiline
CH$FORMULA: C12H12N2S
CH$EXACT_MASS: 216.0721
CH$SMILES: C1=CC(=CC=C1N)SC2=CC=C(C=C2)N
CH$IUPAC: InChI=1S/C12H12N2S/c13-9-1-5-11(6-2-9)15-12-7-3-10(14)4-8-12/h1-8H,13-14H2
CH$LINK: CAS 139-65-1
CH$LINK: INCHIKEY ICNFHJVPAJKPHW-UHFFFAOYSA-N
AC$INSTRUMENT: TripleTOF 6600 SCIEX
AC$INSTRUMENT_TYPE: LC-ESI-QTOF
AC$MASS_SPECTROMETRY: MS_TYPE MS2
AC$MASS_SPECTROMETRY: ION_MODE POSITIVE
AC$MASS_SPECTROMETRY: COLLISION_ENERGY 70
AC$MASS_SPECTROMETRY: FRAGMENTATION_MODE CID
AC$MASS_SPECTROMETRY: IONIZATION ESI
AC$CHROMATOGRAPHY: COLUMN_NAME Zorbax Eclipse Plus C18 2.1 mm x 150 mm, 3.5 um, Agilent
AC$CHROMATOGRAPHY: COLUMN_TEMPERATURE 40 °C
AC$CHROMATOGRAPHY: FLOW_GRADIENT 0 min min 98% A, 1 min 98% A, 2 min 80% A, 16.5 min 2% A, 22 min 2% A, 22.1 min 98% A, 27 min 98% A
AC$CHROMATOGRAPHY: FLOW_RATE 0.3 mL/min
AC$CHROMATOGRAPHY: RETENTION_TIME 6.429 min
AC$CHROMATOGRAPHY: SOLVENT A: Water 0.1% Formic acid, B: Acetonitrile 0.1% Formic acid
MS$FOCUSED_ION: PRECURSOR_M/Z 217.0794
MS$FOCUSED_ION: PRECURSOR_TYPE [M+H]+
MS$DATA_PROCESSING: COMMENT Export with pycsl 0.1.0.dev1 and CSL 24.4
PK$SPLASH: splash10-0089-8900000000-bd0d07a9fb2ccc0937d6
PK$NUM_PEAK: 56
PK$PEAK: m/z int. rel.int.
  39.0222 0.6 10
  50.0144 3.5 63
  53.038 7.1 129
  63.0223 1.2 21
  65.0363 1.1 20
  66.0447 1.6 29
  67.0411 0.7 12
  68.9782 1.0 18
  75.0227 0.7 12
  76.0294 4.3 78
  77.0388 1.0 18
  78.0337 0.6 10
  79.0409 0.7 12
  80.0489 54.8 999
  81.0521 0.8 14
  87.0228 0.7 12
  89.0359 3.6 65
  90.0417 0.6 10
  91.0403 0.7 12
  92.0477 0.8 14
  93.0557 3.3 60
  96.0007 0.9 16
  97.0094 4.4 80
  102.0452 1.4 25
  103.0528 0.7 12
  113.0372 3.2 58
  114.0466 0.8 14
  115.0528 2.6 47
  117.0551 1.0 18
  123.0108 7.9 144
  124.0201 9.9 180
  126.0447 1.0 18
  127.0526 4.6 83
  128.0597 4.8 87
  129.0619 1.2 21
  130.0658 1.1 20
  134.0129 0.8 14
  137.0359 0.8 14
  138.0459 1.6 29
  139.0526 26.9 490
  140.0477 4.2 76
  145.0062 0.6 10
  150.0447 0.9 16
  151.0531 1.0 18
  152.0615 2.7 49
  154.0636 1.8 32
  155.0623 0.8 14
  156.0782 1.0 18
  157.0778 0.6 10
  166.0638 1.3 23
  167.0704 1.6 29
  171.0239 15.5 282
  172.0334 0.6 10
  182.0153 1.1 20
  182.0826 0.6 10
  198.0367 1.1 20
//