ACCESSION: MSBNK-BAFG-CSL25010610275
RECORD_TITLE: 2-Ethyl-6-methylaniline; LC-ESI-QTOF; MS2; 50 V
DATE: 2025.01.06
AUTHORS: Ole Lessmann; Kevin S. Jewell; Björn Ehlig; Arne Wick
LICENSE: dl-de/by-2-0
COPYRIGHT: Copyright 2025 Federal Institute of Hydrology, Koblenz, Germany
COMMENT: CONFIDENCE Reference Standard (Level 1)
COMMENT: Chromatography method: dx.doi.org/10.1016/j.chroma.2015.11.014
COMMENT: Acquisition method: 10.1002/rcm.8541
CH$NAME: 2-Ethyl-6-methylaniline
CH$COMPOUND_CLASS: Industrial_process; Herbicide; Transformation_product-Metabolite
CH$FORMULA: C9H13N
CH$EXACT_MASS: 135.1048
CH$SMILES: CCC1=CC=CC(=C1N)C
CH$IUPAC: InChI=1S/C9H13N/c1-3-8-6-4-5-7(2)9(8)10/h4-6H,3,10H2,1-2H3
CH$LINK: CAS 24549-06-2
CH$LINK: INCHIKEY JJVKJJNCIILLRP-UHFFFAOYSA-N
AC$INSTRUMENT: TripleTOF 5600 SCIEX
AC$INSTRUMENT_TYPE: LC-ESI-QTOF
AC$MASS_SPECTROMETRY: MS_TYPE MS2
AC$MASS_SPECTROMETRY: ION_MODE POSITIVE
AC$MASS_SPECTROMETRY: COLLISION_ENERGY 50
AC$MASS_SPECTROMETRY: FRAGMENTATION_MODE CID
AC$MASS_SPECTROMETRY: IONIZATION ESI
AC$CHROMATOGRAPHY: COLUMN_NAME Zorbax Eclipse Plus C18 2.1 mm x 150 mm, 3.5 um, Agilent
AC$CHROMATOGRAPHY: COLUMN_TEMPERATURE 40 °C
AC$CHROMATOGRAPHY: FLOW_GRADIENT 0 min min 98% A, 1 min 98% A, 2 min 80% A, 16.5 min 2% A, 22 min 2% A, 22.1 min 98% A, 27 min 98% A
AC$CHROMATOGRAPHY: FLOW_RATE 0.3 mL/min
AC$CHROMATOGRAPHY: RETENTION_TIME 7.958 min
AC$CHROMATOGRAPHY: SOLVENT A: Water 0.1% Formic acid, B: Acetonitrile 0.1% Formic acid
MS$FOCUSED_ION: PRECURSOR_M/Z 136.1121
MS$FOCUSED_ION: PRECURSOR_TYPE [M+H]+
MS$DATA_PROCESSING: COMMENT Export with pycsl 0.1.0.dev1 and CSL 24.4
PK$SPLASH: splash10-00ou-9200000000-ee2ae37bce156cb9c5ce
PK$NUM_PEAK: 26
PK$PEAK: m/z int. rel.int.
  37.008 0.5 15
  38.0156 0.5 15
  39.023 3.7 114
  41.0379 0.7 21
  50.0146 1.7 52
  51.0229 7.8 241
  61.008 0.4 12
  62.0146 0.7 21
  63.0233 2.4 74
  65.0388 23.0 713
  75.0227 0.7 21
  76.0312 0.9 27
  77.0388 32.2 999
  78.0465 10.6 328
  79.054 2.2 68
  89.0389 1.8 55
  91.0545 24.0 744
  93.0568 1.5 46
  102.0466 2.0 62
  103.0552 9.1 282
  104.0633 2.3 71
  106.0648 5.1 158
  115.0545 7.1 220
  116.0627 0.6 18
  117.0697 0.7 21
  118.0673 0.8 24
//