ACCESSION: MSBNK-BAFG-CSL25010634465
RECORD_TITLE: Sudan I; LC-ESI-QTOF; MS2; 100 V
DATE: 2025.01.06
AUTHORS: Ole Lessmann; Kevin S. Jewell; Björn Ehlig; Arne Wick
LICENSE: dl-de/by-2-0
COPYRIGHT: Copyright 2025 Federal Institute of Hydrology, Koblenz, Germany
COMMENT: CONFIDENCE Reference Standard (Level 1)
COMMENT: Chromatography method: dx.doi.org/10.1016/j.chroma.2015.11.014
COMMENT: Acquisition method: 10.1002/rcm.8541
CH$NAME: Sudan I
CH$FORMULA: C16H12N2O
CH$EXACT_MASS: 248.095
CH$SMILES: C1=CC=C(C=C1)N=NC2=C(C=CC3=CC=CC=C32)O
CH$IUPAC: InChI=1S/C16H12N2O/c19-15-11-10-12-6-4-5-9-14(12)16(15)18-17-13-7-2-1-3-8-13/h1-11,19H
CH$LINK: CAS 842-07-9
CH$LINK: INCHIKEY MRQIXHXHHPWVIL-UHFFFAOYSA-N
AC$INSTRUMENT: TripleTOF 6600 SCIEX
AC$INSTRUMENT_TYPE: LC-ESI-QTOF
AC$MASS_SPECTROMETRY: MS_TYPE MS2
AC$MASS_SPECTROMETRY: ION_MODE POSITIVE
AC$MASS_SPECTROMETRY: COLLISION_ENERGY 100
AC$MASS_SPECTROMETRY: FRAGMENTATION_MODE CID
AC$MASS_SPECTROMETRY: IONIZATION ESI
AC$CHROMATOGRAPHY: COLUMN_NAME Zorbax Eclipse Plus C18 2.1 mm x 150 mm, 3.5 um, Agilent
AC$CHROMATOGRAPHY: COLUMN_TEMPERATURE 40 °C
AC$CHROMATOGRAPHY: FLOW_GRADIENT 0 min min 98% A, 1 min 98% A, 2 min 80% A, 16.5 min 2% A, 22 min 2% A, 22.1 min 98% A, 27 min 98% A
AC$CHROMATOGRAPHY: FLOW_RATE 0.3 mL/min
AC$CHROMATOGRAPHY: RETENTION_TIME 15.674 min
AC$CHROMATOGRAPHY: SOLVENT A: Water 0.1% Formic acid, B: Acetonitrile 0.1% Formic acid
MS$FOCUSED_ION: PRECURSOR_M/Z 249.1023
MS$FOCUSED_ION: PRECURSOR_TYPE [M+H]+
MS$DATA_PROCESSING: COMMENT Export with pycsl 0.1.0.dev1 and CSL 24.4
PK$SPLASH: splash10-0gkc-9000000000-26f1d0f033413fba26ef
PK$NUM_PEAK: 42
PK$PEAK: m/z int. rel.int.
  37.008 4.0 49
  38.0152 4.0 49
  39.0232 27.7 341
  40.0306 4.0 49
  41.0261 2.6 32
  42.0343 1.9 23
  49.0072 1.3 16
  50.015 17.4 214
  51.023 45.8 564
  52.0183 5.7 70
  54.0339 6.8 83
  62.0159 0.9 11
  63.0242 1.2 14
  65.0384 60.2 742
  66.0341 1.3 16
  66.0465 42.1 519
  67.0418 2.7 33
  73.0074 4.9 60
  74.0151 69.9 862
  75.0096 0.9 11
  75.0227 81.0 999
  76.0176 9.0 111
  76.0314 2.0 24
  77.0386 20.7 255
  78.033 9.3 114
  92.0493 29.8 367
  93.0577 28.0 345
  98.0156 1.5 18
  99.0103 0.9 11
  99.0226 1.0 12
  101.0379 1.3 16
  102.0334 1.1 13
  126.048 1.7 20
  129.0466 1.0 12
  150.0464 2.4 29
  151.0551 1.4 17
  152.0613 0.8 9
  163.058 1.0 12
  174.0496 1.2 14
  176.0639 1.6 19
  201.057 1.8 22
  202.0672 1.0 12
//