ACCESSION: MSBNK-BAFG-CSL25010634137
RECORD_TITLE: 2-isopropyl-5,6-dimethyl-1H-benzimidazole; LC-ESI-QTOF; MS2; 70 V
DATE: 2025.01.06
AUTHORS: Ole Lessmann; Kevin S. Jewell; Björn Ehlig; Arne Wick
LICENSE: dl-de/by-2-0
COPYRIGHT: Copyright 2025 Federal Institute of Hydrology, Koblenz, Germany
COMMENT: CONFIDENCE Reference Standard (Level 1)
COMMENT: Chromatography method: dx.doi.org/10.1016/j.chroma.2015.11.014
COMMENT: Acquisition method: 10.1002/rcm.8541
CH$NAME: 2-isopropyl-5,6-dimethyl-1H-benzimidazole
CH$FORMULA: C12H16N2
CH$EXACT_MASS: 188.1313
CH$SMILES: CC1=CC2=C(C=C1C)N=C(N2)C(C)C
CH$IUPAC: InChI=1S/C12H16N2/c1-7(2)12-13-10-5-8(3)9(4)6-11(10)14-12/h5-7H,1-4H3,(H,13,14)
CH$LINK: CAS 66073-79-8
CH$LINK: INCHIKEY KBNPIBOOPFUXEM-UHFFFAOYSA-N
AC$INSTRUMENT: TripleTOF 6600 SCIEX
AC$INSTRUMENT_TYPE: LC-ESI-QTOF
AC$MASS_SPECTROMETRY: MS_TYPE MS2
AC$MASS_SPECTROMETRY: ION_MODE POSITIVE
AC$MASS_SPECTROMETRY: COLLISION_ENERGY 70
AC$MASS_SPECTROMETRY: FRAGMENTATION_MODE CID
AC$MASS_SPECTROMETRY: IONIZATION ESI
AC$CHROMATOGRAPHY: COLUMN_NAME Zorbax Eclipse Plus C18 2.1 mm x 150 mm, 3.5 um, Agilent
AC$CHROMATOGRAPHY: COLUMN_TEMPERATURE 40 °C
AC$CHROMATOGRAPHY: FLOW_GRADIENT 0 min min 98% A, 1 min 98% A, 2 min 80% A, 16.5 min 2% A, 22 min 2% A, 22.1 min 98% A, 27 min 98% A
AC$CHROMATOGRAPHY: FLOW_RATE 0.3 mL/min
AC$CHROMATOGRAPHY: RETENTION_TIME 6.482 min
AC$CHROMATOGRAPHY: SOLVENT A: Water 0.1% Formic acid, B: Acetonitrile 0.1% Formic acid
MS$FOCUSED_ION: PRECURSOR_M/Z 189.1386
MS$FOCUSED_ION: PRECURSOR_TYPE [M+H]+
MS$DATA_PROCESSING: COMMENT Export with pycsl 0.1.0.dev1 and CSL 24.4
PK$SPLASH: splash10-0a6r-5900000000-4918546f4816470f4e12
PK$NUM_PEAK: 41
PK$PEAK: m/z int. rel.int.
  39.0224 12.4 17
  41.0384 10.4 14
  51.0225 54.3 75
  65.0376 41.5 57
  77.0381 535.5 745
  78.0327 7.9 10
  78.0449 44.9 62
  79.0532 26.7 37
  80.0484 30.2 42
  89.0373 19.9 27
  90.045 8.4 11
  91.0533 286.1 398
  92.0483 15.7 21
  93.0681 105.6 147
  102.0439 7.6 10
  103.053 61.9 86
  104.0482 138.4 192
  105.0431 10.5 14
  105.0551 32.9 45
  106.0634 12.3 17
  116.0477 14.4 20
  117.0556 30.8 42
  118.063 43.7 60
  119.0719 18.0 25
  120.0799 147.4 205
  129.0429 9.6 13
  130.0631 54.6 76
  131.0595 299.1 416
  132.0667 63.1 87
  142.0514 16.9 23
  143.0584 11.4 15
  144.0681 12.9 17
  145.0745 49.4 68
  147.0903 15.3 21
  155.0588 8.2 11
  156.0674 14.9 20
  157.0751 717.5 999
  158.0827 128.8 179
  171.0899 40.5 56
  172.098 9.4 13
  173.1056 119.8 166
//