ACCESSION: MSBNK-BAFG-CSL23102515652
RECORD_TITLE: 1-Cyclohexyl-3-ethylurea; LC-ESI-QTOF; MS2; 40 V
DATE: 2023.10.25
AUTHORS: Kevin S. Jewell; Björn Ehlig; Arne Wick
LICENSE: dl-de/by-2-0
COPYRIGHT: Copyright 2023 Federal Institute of Hydrology, Koblenz, Germany
COMMENT: CONFIDENCE Reference Standard (Level 1)
COMMENT: Chromatography method: dx.doi.org/10.1016/j.chroma.2015.11.014
COMMENT: Acquisition method: 10.1002/rcm.8541
CH$NAME: 1-Cyclohexyl-3-ethylurea
CH$FORMULA: C9H18N2O
CH$EXACT_MASS: 170.1419
CH$SMILES: CCNC(=O)NC1CCCCC1
CH$IUPAC: InChI=1S/C9H18N2O/c1-2-10-9(12)11-8-6-4-3-5-7-8/h8H,2-7H2,1H3,(H2,10,11,12)
CH$LINK: CAS 36102-06-4
CH$LINK: INCHIKEY BBUVNFZPAAVCSX-UHFFFAOYSA-N
AC$INSTRUMENT: TripleTOF 6600 SCIEX
AC$INSTRUMENT_TYPE: LC-ESI-QTOF
AC$MASS_SPECTROMETRY: MS_TYPE MS2
AC$MASS_SPECTROMETRY: ION_MODE POSITIVE
AC$MASS_SPECTROMETRY: COLLISION_ENERGY 40
AC$MASS_SPECTROMETRY: FRAGMENTATION_MODE CID
AC$MASS_SPECTROMETRY: IONIZATION ESI
AC$CHROMATOGRAPHY: COLUMN_NAME Zorbax Eclipse Plus C18 2.1 mm x 150 mm, 3.5 um, Agilent
AC$CHROMATOGRAPHY: COLUMN_TEMPERATURE 40 °C
AC$CHROMATOGRAPHY: FLOW_GRADIENT 0 min min 98% A, 1 min 98% A, 2 min 80% A, 16.5 min 2% A, 22 min 2% A, 22.1 min 98% A, 27 min 98% A
AC$CHROMATOGRAPHY: FLOW_RATE 0.3 mL/min
AC$CHROMATOGRAPHY: RETENTION_TIME 7.696 min
AC$CHROMATOGRAPHY: SOLVENT A: Water 0.1% Formic acid, B: Acetonitrile 0.1% Formic acid
MS$FOCUSED_ION: PRECURSOR_M/Z 171.1492
MS$FOCUSED_ION: PRECURSOR_TYPE [M+H]+
MS$DATA_PROCESSING: COMMENT Export with Spectra 1.9.12 MsBackendMassbank 1.7.4
MS$DATA_PROCESSING: WHOLE RMassBank 2.3.1
PK$SPLASH: splash10-0a4i-9000000000-02e26f7aeed732bbc6d1
PK$NUM_PEAK: 9
PK$PEAK: m/z int. rel.int.
  39.0223 28.3 74
  41.038 31.6 83
  44.0125 34 89
  46.0645 40.2 105
  53.0375 4.6 12
  55.0539 379.1 999
  72.0434 6.3 16
  83.0844 17.1 45
  89.0694 6.5 17
//
