ACCESSION: MSBNK-BAFG-CSL2310262138
RECORD_TITLE: Bicalutamide; LC-ESI-QTOF; MS2; 130 V
DATE: 2023.10.26
AUTHORS: Kevin S. Jewell; Björn Ehlig; Arne Wick
LICENSE: dl-de/by-2-0
COPYRIGHT: Copyright 2023 Federal Institute of Hydrology, Koblenz, Germany
COMMENT: CONFIDENCE Reference Standard (Level 1)
COMMENT: Chromatography method: dx.doi.org/10.1016/j.chroma.2015.11.014
COMMENT: Acquisition method: 10.1002/rcm.8541
CH$NAME: Bicalutamide
CH$COMPOUND_CLASS: Pharmaceutical
CH$FORMULA: C18H14F4N2O4S
CH$EXACT_MASS: 430.061
CH$SMILES: CC(O)(C[S](=O)(=O)c1ccc(F)cc1)C(=O)Nc2ccc(C#N)c(c2)C(F)(F)F
CH$IUPAC: InChI=1S/C18H14F4N2O4S/c1-17(26,10-29(27,28)14-6-3-12(19)4-7-14)16(25)24-13-5-2-11(9-23)15(8-13)18(20,21)22/h2-8,26H,10H2,1H3,(H,24,25)
CH$LINK: CAS 90357-06-5
CH$LINK: INCHIKEY LKJPYSCBVHEWIU-UHFFFAOYSA-N
AC$INSTRUMENT: TripleTOF 5600 SCIEX
AC$INSTRUMENT_TYPE: LC-ESI-QTOF
AC$MASS_SPECTROMETRY: MS_TYPE MS2
AC$MASS_SPECTROMETRY: ION_MODE NEGATIVE
AC$MASS_SPECTROMETRY: COLLISION_ENERGY 130
AC$MASS_SPECTROMETRY: FRAGMENTATION_MODE CID
AC$MASS_SPECTROMETRY: IONIZATION ESI
AC$CHROMATOGRAPHY: COLUMN_NAME Zorbax Eclipse Plus C18 2.1 mm x 150 mm, 3.5 um, Agilent
AC$CHROMATOGRAPHY: COLUMN_TEMPERATURE 40 °C
AC$CHROMATOGRAPHY: FLOW_GRADIENT 0 min min 98% A, 1 min 98% A, 2 min 80% A, 16.5 min 2% A, 22 min 2% A, 22.1 min 98% A, 27 min 98% A
AC$CHROMATOGRAPHY: FLOW_RATE 0.3 mL/min
AC$CHROMATOGRAPHY: RETENTION_TIME 11.644 min
AC$CHROMATOGRAPHY: SOLVENT A: Water 0.1% Formic acid, B: Acetonitrile 0.1% Formic acid
MS$FOCUSED_ION: PRECURSOR_M/Z 429.0538
MS$FOCUSED_ION: PRECURSOR_TYPE [M-H]-
MS$DATA_PROCESSING: COMMENT Export with Spectra 1.9.12 MsBackendMassbank 1.7.4
MS$DATA_PROCESSING: WHOLE RMassBank 2.3.1
PK$SPLASH: splash10-03xs-9700000000-2fd61bf71c92b5eb5ca1
PK$NUM_PEAK: 19
PK$PEAK: m/z int. rel.int.
  42.0011 12.4 113
  63.9632 109.1 999
  68.9958 6.9 63
  74.0032 13.5 123
  78.9854 22.7 207
  88.0183 6.1 55
  95.0285 7.8 71
  98.0026 41.7 381
  115.0291 39.5 361
  118.0091 25.2 230
  125.0129 8.4 76
  138.0156 11.1 101
  143.0031 10.1 92
  144.0131 6.5 59
  145.019 17.1 156
  158.0201 14.5 132
  163.0096 6.9 63
  164.0177 12.1 110
  185.0319 37.8 346
//
