ACCESSION: MSBNK-BAFG-CSL25010627921
RECORD_TITLE: 2-[(4-hydroxy-9,10-dioxoanthracen-1-yl)amino]-5-methylbenzenesulfonic acid; LC-ESI-QTOF; MS2; 50 V
DATE: 2025.01.06
AUTHORS: Ole Lessmann; Kevin S. Jewell; Björn Ehlig; Arne Wick
LICENSE: dl-de/by-2-0
COPYRIGHT: Copyright 2025 Federal Institute of Hydrology, Koblenz, Germany
COMMENT: CONFIDENCE Reference Standard (Level 1)
COMMENT: Chromatography method: dx.doi.org/10.1016/j.chroma.2015.11.014
COMMENT: Acquisition method: 10.1002/rcm.8541
CH$NAME: 2-[(4-hydroxy-9,10-dioxoanthracen-1-yl)amino]-5-methylbenzenesulfonic acid
CH$FORMULA: C21H15NO6S
CH$EXACT_MASS: 409.062
CH$SMILES: CC1=CC(=C(C=C1)NC2=C3C(=C(C=C2)O)C(=O)C4=CC=CC=C4C3=O)S(=O)(=O)O
CH$IUPAC: InChI=1S/C21H15NO6S/c1-11-6-7-14(17(10-11)29(26,27)28)22-15-8-9-16(23)19-18(15)20(24)12-4-2-3-5-13(12)21(19)25/h2-10,22-23H,1H3,(H,26,27,28)
CH$LINK: CAS 3443-92-3
CH$LINK: INCHIKEY XXQVCGHGQCAKKA-UHFFFAOYSA-N
AC$INSTRUMENT: TripleTOF X500R SCIEX
AC$INSTRUMENT_TYPE: LC-ESI-QTOF
AC$MASS_SPECTROMETRY: MS_TYPE MS2
AC$MASS_SPECTROMETRY: ION_MODE POSITIVE
AC$MASS_SPECTROMETRY: COLLISION_ENERGY 50
AC$MASS_SPECTROMETRY: FRAGMENTATION_MODE CID
AC$MASS_SPECTROMETRY: IONIZATION ESI
AC$CHROMATOGRAPHY: COLUMN_NAME Zorbax Eclipse Plus C18 2.1 mm x 150 mm, 3.5 um, Agilent
AC$CHROMATOGRAPHY: COLUMN_TEMPERATURE 40 °C
AC$CHROMATOGRAPHY: FLOW_GRADIENT 0 min min 98% A, 1 min 98% A, 2 min 80% A, 16.5 min 2% A, 22 min 2% A, 22.1 min 98% A, 27 min 98% A
AC$CHROMATOGRAPHY: FLOW_RATE 0.3 mL/min
AC$CHROMATOGRAPHY: RETENTION_TIME 11.683 min
AC$CHROMATOGRAPHY: SOLVENT A: Water 0.1% Formic acid, B: Acetonitrile 0.1% Formic acid
MS$FOCUSED_ION: PRECURSOR_M/Z 410.0693
MS$FOCUSED_ION: PRECURSOR_TYPE [M+H]+
MS$DATA_PROCESSING: COMMENT Export with pycsl 0.1.0.dev1 and CSL 24.4
PK$SPLASH: splash10-03di-0059000000-25d850f40d0f89102770
PK$NUM_PEAK: 47
PK$PEAK: m/z int. rel.int.
  153.0697 0.8 20
  180.0835 1.9 47
  202.078 0.4 10
  226.0791 0.4 10
  228.0832 1.5 37
  229.0911 2.4 60
  241.0901 1.2 30
  242.0975 0.4 10
  244.1139 3.0 75
  253.0911 1.5 37
  254.0963 4.7 118
  254.1456 0.5 12
  255.0791 0.4 10
  255.1053 0.6 15
  256.0757 1.7 42
  256.1124 0.7 17
  257.0826 3.0 75
  270.0916 0.5 12
  271.0969 0.9 22
  272.1092 1.7 42
  281.0837 1.3 32
  282.0913 6.2 156
  283.1017 1.0 25
  284.0759 0.8 20
  284.1051 0.5 12
  285.053 0.9 22
  285.0773 8.9 224
  298.0884 0.8 20
  299.1 1.1 27
  300.0682 0.4 10
  300.1042 7.9 199
  310.0881 1.0 25
  312.0663 2.5 63
  312.0942 1.3 32
  313.0744 39.6 999
  313.1404 0.6 15
  314.0814 0.5 12
  316.1029 0.9 22
  326.0829 1.7 42
  327.0905 2.3 58
  328.0978 4.9 123
  329.1061 2.7 68
  342.0792 1.4 35
  342.0975 0.5 12
  343.0535 0.8 20
  343.0851 6.0 151
  344.0912 1.1 27
//