ACCESSION: MSBNK-BAFG-CSL25011734623
RECORD_TITLE: 3-Alizarinsulfonic acid; LC-ESI-QTOF; MS2; 110 V
DATE: 2025.01.17
AUTHORS: Ole Lessmann; Kevin S. Jewell; Björn Ehlig; Arne Wick
LICENSE: dl-de/by-2-0
COPYRIGHT: Copyright 2025 Federal Institute of Hydrology, Koblenz, Germany
COMMENT: CONFIDENCE Reference Standard (Level 1)
COMMENT: Chromatography method: dx.doi.org/10.1016/j.chroma.2015.11.014
CH$NAME: 3-Alizarinsulfonic acid
CH$FORMULA: C14H8O7S
CH$EXACT_MASS: 319.9991
CH$SMILES: C1=CC=C2C(=C1)C(=O)C3=CC(=C(C(=C3C2=O)O)O)S(=O)(=O)O
CH$IUPAC: InChI=1S/C14H8O7S/c15-11-6-3-1-2-4-7(6)12(16)10-8(11)5-9(22(19,20)21)13(17)14(10)18/h1-5,17-18H,(H,19,20,21)
CH$LINK: CAS 83-61-4
CH$LINK: INCHIKEY JKYKXTRKURYNGW-UHFFFAOYSA-N
AC$INSTRUMENT: TripleTOF 6600 SCIEX
AC$INSTRUMENT_TYPE: LC-ESI-QTOF
AC$MASS_SPECTROMETRY: MS_TYPE MS2
AC$MASS_SPECTROMETRY: ION_MODE POSITIVE
AC$MASS_SPECTROMETRY: COLLISION_ENERGY 110
AC$MASS_SPECTROMETRY: FRAGMENTATION_MODE CID
AC$MASS_SPECTROMETRY: IONIZATION ESI
AC$CHROMATOGRAPHY: COLUMN_NAME Zorbax Eclipse Plus C18 2.1 mm x 150 mm, 3.5 um, Agilent
AC$CHROMATOGRAPHY: COLUMN_TEMPERATURE 40 °C
AC$CHROMATOGRAPHY: FLOW_GRADIENT 0 min min 98% A, 1 min 98% A, 2 min 80% A, 16.5 min 2% A, 22 min 2% A, 22.1 min 98% A, 27 min 98% A
AC$CHROMATOGRAPHY: FLOW_RATE 0.3 mL/min
AC$CHROMATOGRAPHY: RETENTION_TIME 8.229 min
AC$CHROMATOGRAPHY: SOLVENT A: Water 0.1% Formic acid, B: Acetonitrile 0.1% Formic acid
MS$FOCUSED_ION: PRECURSOR_M/Z 321.0064
MS$FOCUSED_ION: PRECURSOR_TYPE [M+H]+
MS$DATA_PROCESSING: COMMENT Export with pycsl 0.1.0.dev1 and CSL 25.0
PK$SPLASH: splash10-004i-9200000000-488659d429640edd8703
PK$NUM_PEAK: 20
PK$PEAK: m/z int. rel.int.
  39.0267 0.1 23
  45.0333 0.2 47
  51.022 0.9 214
  73.0076 0.1 23
  74.0149 0.7 166
  75.0217 2.5 594
  76.0306 0.1 23
  76.9977 0.1 23
  77.0368 4.2 999
  79.017 0.2 47
  85.0063 0.2 47
  86.0142 0.2 47
  87.0196 0.3 71
  89.0359 0.2 47
  98.0125 0.2 47
  101.0365 0.6 142
  115.0531 0.1 23
  126.0461 1.5 356
  127.0536 0.5 118
  137.037 0.2 47
//
