ACCESSION: MSBNK-BAFG-CSL2311097146
RECORD_TITLE: Chlorpyrifos; LC-ESI-QTOF; MS2; 100 V
DATE: 2023.11.09
AUTHORS: Kevin S. Jewell; Björn Ehlig; Arne Wick
LICENSE: dl-de/by-2-0
COPYRIGHT: Copyright 2023 Federal Institute of Hydrology, Koblenz, Germany
COMMENT: CONFIDENCE Reference Standard (Level 1)
COMMENT: Chromatography method: dx.doi.org/10.1016/j.chroma.2015.11.014
COMMENT: Acquisition method: 10.1002/rcm.8541
CH$NAME: Chlorpyrifos
CH$COMPOUND_CLASS: Insecticide
CH$FORMULA: C9H11Cl3NO3PS
CH$EXACT_MASS: 348.9263
CH$SMILES: CCO[P](=S)(OCC)Oc1nc(Cl)c(Cl)cc1Cl
CH$IUPAC: InChI=1S/C9H11Cl3NO3PS/c1-3-14-17(18,15-4-2)16-9-7(11)5-6(10)8(12)13-9/h5H,3-4H2,1-2H3
CH$LINK: CAS 2921-88-2
CH$LINK: INCHIKEY SBPBAQFWLVIOKP-UHFFFAOYSA-N
AC$INSTRUMENT: TripleTOF 5600 SCIEX
AC$INSTRUMENT_TYPE: LC-ESI-QTOF
AC$MASS_SPECTROMETRY: MS_TYPE MS2
AC$MASS_SPECTROMETRY: ION_MODE POSITIVE
AC$MASS_SPECTROMETRY: COLLISION_ENERGY 100
AC$MASS_SPECTROMETRY: FRAGMENTATION_MODE CID
AC$MASS_SPECTROMETRY: IONIZATION ESI
AC$CHROMATOGRAPHY: COLUMN_NAME Zorbax Eclipse Plus C18 2.1 mm x 150 mm, 3.5 um, Agilent
AC$CHROMATOGRAPHY: COLUMN_TEMPERATURE 40 °C
AC$CHROMATOGRAPHY: FLOW_GRADIENT 0 min min 98% A, 1 min 98% A, 2 min 80% A, 16.5 min 2% A, 22 min 2% A, 22.1 min 98% A, 27 min 98% A
AC$CHROMATOGRAPHY: FLOW_RATE 0.3 mL/min
AC$CHROMATOGRAPHY: RETENTION_TIME 16.34 min
AC$CHROMATOGRAPHY: SOLVENT A: Water 0.1% Formic acid, B: Acetonitrile 0.1% Formic acid
MS$FOCUSED_ION: PRECURSOR_M/Z 349.9336
MS$FOCUSED_ION: PRECURSOR_TYPE [M+H]+
MS$DATA_PROCESSING: COMMENT Export with Spectra 1.9.12 MsBackendMassbank 1.7.4
MS$DATA_PROCESSING: WHOLE RMassBank 2.3.1
PK$SPLASH: splash10-0a4j-7900000000-27d1444cb2aa39310b15
PK$NUM_PEAK: 18
PK$PEAK: m/z int. rel.int.
  61.9849 1.1 26
  64.9817 6.4 154
  64.999 0.5 12
  71.979 1.2 29
  78.9426 12 290
  82.9461 0.8 19
  83.9769 2.1 50
  96.951 32.4 783
  96.9896 0.4 9
  97.9784 0.6 14
  106.9448 41.3 999
  108.9703 8.5 205
  109.9782 1 24
  118.9437 4.1 99
  133.9536 1.1 26
  143.9387 6.3 152
  144.9478 0.4 9
  179.9152 2 48
//
