ACCESSION: MSBNK-BAFG-CSL23110927314
RECORD_TITLE: Nicosulfuron; LC-ESI-QTOF; MS2; 120 V
DATE: 2023.11.09
AUTHORS: Kevin S. Jewell; Björn Ehlig; Arne Wick
LICENSE: dl-de/by-2-0
COPYRIGHT: Copyright 2023 Federal Institute of Hydrology, Koblenz, Germany
COMMENT: CONFIDENCE Reference Standard (Level 1)
COMMENT: Chromatography method: dx.doi.org/10.1016/j.chroma.2015.11.014
COMMENT: Acquisition method: 10.1002/rcm.8541
CH$NAME: Nicosulfuron
CH$COMPOUND_CLASS: Herbicide
CH$FORMULA: C15H18N6O6S
CH$EXACT_MASS: 410.1009
CH$SMILES: CN(C)C(=O)C1=C(N=CC=C1)S(=O)(=O)NC(=O)NC2=NC(=CC(=N2)OC)OC
CH$IUPAC: InChI=1S/C15H18N6O6S/c1-21(2)13(22)9-6-5-7-16-12(9)28(24,25)20-15(23)19-14-17-10(26-3)8-11(18-14)27-4/h5-8H,1-4H3,(H2,17,18,19,20,23)
CH$LINK: CAS 111991-09-4
CH$LINK: INCHIKEY RTCOGUMHFFWOJV-UHFFFAOYSA-N
AC$INSTRUMENT: TripleTOF 6600 SCIEX
AC$INSTRUMENT_TYPE: LC-ESI-QTOF
AC$MASS_SPECTROMETRY: MS_TYPE MS2
AC$MASS_SPECTROMETRY: ION_MODE POSITIVE
AC$MASS_SPECTROMETRY: COLLISION_ENERGY 120
AC$MASS_SPECTROMETRY: FRAGMENTATION_MODE CID
AC$MASS_SPECTROMETRY: IONIZATION ESI
AC$CHROMATOGRAPHY: COLUMN_NAME Zorbax Eclipse Plus C18 2.1 mm x 150 mm, 3.5 um, Agilent
AC$CHROMATOGRAPHY: COLUMN_TEMPERATURE 40 °C
AC$CHROMATOGRAPHY: FLOW_GRADIENT 0 min min 98% A, 1 min 98% A, 2 min 80% A, 16.5 min 2% A, 22 min 2% A, 22.1 min 98% A, 27 min 98% A
AC$CHROMATOGRAPHY: FLOW_RATE 0.3 mL/min
AC$CHROMATOGRAPHY: RETENTION_TIME 8.499 min
AC$CHROMATOGRAPHY: SOLVENT A: Water 0.1% Formic acid, B: Acetonitrile 0.1% Formic acid
MS$FOCUSED_ION: PRECURSOR_M/Z 411.1081
MS$FOCUSED_ION: PRECURSOR_TYPE [M+H]+
MS$DATA_PROCESSING: COMMENT Export with Spectra 1.9.12 MsBackendMassbank 1.7.4
MS$DATA_PROCESSING: WHOLE RMassBank 2.3.1
PK$SPLASH: splash10-0fc0-9000000000-99760d128fb66296cade
PK$NUM_PEAK: 37
PK$PEAK: m/z int. rel.int.
  38.0005 0.7 12
  39.0204 1.4 24
  40.0158 1.3 23
  41.0237 1.6 28
  43.0273 1.8 32
  44.0471 0.8 14
  49.005 0.9 16
  50.0128 7.2 128
  51.0209 39.1 696
  52.016 0.8 14
  53.0001 0.6 10
  54.0323 0.8 14
  55.0266 1.7 30
  56.0107 5.7 101
  57.0428 2 35
  64.0151 2.5 44
  65.0107 9.1 162
  65.0363 1.2 21
  66.0183 0.8 14
  67.0029 2 35
  68.0114 3.5 62
  68.9953 4.7 83
  69.0049 7.8 138
  70.0258 1 17
  78.0314 56.1 999
  79.0368 0.7 12
  81.0414 1 17
  82.026 2.3 40
  83.0215 30.1 536
  91.0268 3 53
  93.0057 16 284
  94.0134 1.3 23
  95.0218 0.6 10
  106.0265 1 17
  110.0325 0.9 16
  138.0289 1.1 19
  139.0489 0.7 12
//
