ACCESSION: MSBNK-BAFG-CSL25011734553
RECORD_TITLE: Azo Rubin S; LC-ESI-QTOF; MS2; 50 V
DATE: 2025.01.17
AUTHORS: Ole Lessmann; Kevin S. Jewell; Björn Ehlig; Arne Wick
LICENSE: dl-de/by-2-0
COPYRIGHT: Copyright 2025 Federal Institute of Hydrology, Koblenz, Germany
COMMENT: CONFIDENCE Reference Standard (Level 1)
COMMENT: Chromatography method: dx.doi.org/10.1016/j.chroma.2015.11.014
CH$NAME: Azo Rubin S
CH$FORMULA: C20H14N2O7S2
CH$EXACT_MASS: 458.0242
CH$SMILES: C1=CC=C2C(=C1)C(=CC=C2S(=O)(=O)O)N=NC3=C(C4=CC=CC=C4C(=C3)S(=O)(=O)O)O
CH$IUPAC: InChI=1S/C20H14N2O7S2/c23-20-15-8-4-3-7-14(15)19(31(27,28)29)11-17(20)22-21-16-9-10-18(30(24,25)26)13-6-2-1-5-12(13)16/h1-11,23H,(H,24,25,26)(H,27,28,29)
CH$LINK: CAS 13613-55-3
CH$LINK: INCHIKEY TVWOWDDBXAFQDG-UHFFFAOYSA-N
AC$INSTRUMENT: TripleTOF 6600 SCIEX
AC$INSTRUMENT_TYPE: LC-ESI-QTOF
AC$MASS_SPECTROMETRY: MS_TYPE MS2
AC$MASS_SPECTROMETRY: ION_MODE POSITIVE
AC$MASS_SPECTROMETRY: COLLISION_ENERGY 50
AC$MASS_SPECTROMETRY: FRAGMENTATION_MODE CID
AC$MASS_SPECTROMETRY: IONIZATION ESI
AC$CHROMATOGRAPHY: COLUMN_NAME Zorbax Eclipse Plus C18 2.1 mm x 150 mm, 3.5 um, Agilent
AC$CHROMATOGRAPHY: COLUMN_TEMPERATURE 40 °C
AC$CHROMATOGRAPHY: FLOW_GRADIENT 0 min min 98% A, 1 min 98% A, 2 min 80% A, 16.5 min 2% A, 22 min 2% A, 22.1 min 98% A, 27 min 98% A
AC$CHROMATOGRAPHY: FLOW_RATE 0.3 mL/min
AC$CHROMATOGRAPHY: RETENTION_TIME 7.286 min
AC$CHROMATOGRAPHY: SOLVENT A: Water 0.1% Formic acid, B: Acetonitrile 0.1% Formic acid
MS$FOCUSED_ION: PRECURSOR_M/Z 459.0315
MS$FOCUSED_ION: PRECURSOR_TYPE [M+H]+
MS$DATA_PROCESSING: COMMENT Export with pycsl 0.1.0.dev1 and CSL 25.0
PK$SPLASH: splash10-00di-0691100000-b8b83ebffb1b160b4cbb
PK$NUM_PEAK: 25
PK$PEAK: m/z int. rel.int.
  80.0125 23.1 29
  103.0529 16.5 21
  105.0327 8.9 11
  128.0488 14.4 18
  130.0648 133.4 172
  142.0648 26.0 33
  143.0721 24.2 31
  154.0288 9.1 11
  158.0603 370.5 478
  159.0684 15.0 19
  172.0392 20.4 26
  174.0551 20.2 26
  223.03 772.9 999
  238.0158 20.4 26
  267.0943 10.6 13
  268.0979 11.0 14
  295.0883 8.0 10
  296.0945 13.1 16
  297.1028 11.2 14
  360.0582 79.9 103
  361.0647 26.3 33
  362.0695 9.6 12
  377.0593 20.6 26
  441.0202 32.0 41
  442.0284 76.7 99
//
