ACCESSION: MSBNK-BAFG-CSL2310305700
RECORD_TITLE: (Methoxymethyl)diphenylphosphine oxide; LC-ESI-QTOF; MS2; 150 V
DATE: 2023.10.30
AUTHORS: Kevin S. Jewell; Björn Ehlig; Arne Wick
LICENSE: dl-de/by-2-0
COPYRIGHT: Copyright 2023 Federal Institute of Hydrology, Koblenz, Germany
COMMENT: CONFIDENCE Reference Standard (Level 1)
COMMENT: Chromatography method: dx.doi.org/10.1016/j.chroma.2015.11.014
COMMENT: Acquisition method: 10.1002/rcm.8541
CH$NAME: (Methoxymethyl)diphenylphosphine oxide
CH$COMPOUND_CLASS: Industrial_process
CH$FORMULA: C14H15O2P
CH$EXACT_MASS: 246.081
CH$SMILES: COC[P](=O)(c1ccccc1)c2ccccc2
CH$IUPAC: InChI=1S/C14H15O2P/c1-16-12-17(15,13-8-4-2-5-9-13)14-10-6-3-7-11-14/h2-11H,12H2,1H3
CH$LINK: CAS 4455-77-0
CH$LINK: INCHIKEY OEPKDBQOTLDTNC-UHFFFAOYSA-N
AC$INSTRUMENT: TripleTOF 5600 SCIEX
AC$INSTRUMENT_TYPE: LC-ESI-QTOF
AC$MASS_SPECTROMETRY: MS_TYPE MS2
AC$MASS_SPECTROMETRY: ION_MODE POSITIVE
AC$MASS_SPECTROMETRY: COLLISION_ENERGY 150
AC$MASS_SPECTROMETRY: FRAGMENTATION_MODE CID
AC$MASS_SPECTROMETRY: IONIZATION ESI
AC$CHROMATOGRAPHY: COLUMN_NAME Zorbax Eclipse Plus C18 2.1 mm x 150 mm, 3.5 um, Agilent
AC$CHROMATOGRAPHY: COLUMN_TEMPERATURE 40 °C
AC$CHROMATOGRAPHY: FLOW_GRADIENT 0 min min 98% A, 1 min 98% A, 2 min 80% A, 16.5 min 2% A, 22 min 2% A, 22.1 min 98% A, 27 min 98% A
AC$CHROMATOGRAPHY: FLOW_RATE 0.3 mL/min
AC$CHROMATOGRAPHY: RETENTION_TIME 8.67 min
AC$CHROMATOGRAPHY: SOLVENT A: Water 0.1% Formic acid, B: Acetonitrile 0.1% Formic acid
MS$FOCUSED_ION: PRECURSOR_M/Z 247.0882
MS$FOCUSED_ION: PRECURSOR_TYPE [M+H]+
MS$DATA_PROCESSING: COMMENT Export with Spectra 1.9.12 MsBackendMassbank 1.7.4
MS$DATA_PROCESSING: WHOLE RMassBank 2.3.1
PK$SPLASH: splash10-0f92-9100000000-44c3780f58c73d4f892e
PK$NUM_PEAK: 21
PK$PEAK: m/z int. rel.int.
  45.0421 4.7 999
  51.0308 2.8 595
  55.9883 0.7 148
  56.996 0.7 148
  65.042 0.4 85
  74.0183 2.3 488
  75.0269 0.4 85
  78.9775 0.8 170
  79.9848 2 425
  80.9926 1.5 318
  85.0113 0.8 170
  86.0184 1.2 255
  89.0416 0.4 85
  91.9828 0.6 127
  98.0151 0.7 148
  102.976 0.6 127
  103.9806 0.8 170
  107.0052 1 212
  127.9825 0.6 127
  150.045 0.5 106
  179.0045 0.5 106
//
