ACCESSION: MSBNK-BAFG-CSL2310254126
RECORD_TITLE: Doxorubicin; LC-ESI-QTOF; MS2; 110 V
DATE: 2023.10.25
AUTHORS: Kevin S. Jewell; Björn Ehlig; Arne Wick
LICENSE: dl-de/by-2-0
COPYRIGHT: Copyright 2023 Federal Institute of Hydrology, Koblenz, Germany
COMMENT: CONFIDENCE Reference Standard (Level 1)
COMMENT: Chromatography method: dx.doi.org/10.1016/j.chroma.2015.11.014
COMMENT: Acquisition method: 10.1002/rcm.8541
CH$NAME: Doxorubicin
CH$COMPOUND_CLASS: Pharmaceutical
CH$FORMULA: C27H29NO11
CH$EXACT_MASS: 543.1741
CH$SMILES: C[C@H]1[C@H]([C@H](C[C@@H](O1)O[C@H]2C[C@@](Cc3c2c(c4c(c3O)C(=O)c5cccc(c5C4=O)OC)O)(C(=O)CO)O)N)O
CH$IUPAC: InChI=1S/C27H29NO11/c1-10-22(31)13(28)6-17(38-10)39-15-8-27(36,16(30)9-29)7-12-19(15)26(35)21-20(24(12)33)23(32)11-4-3-5-14(37-2)18(11)25(21)34/h3-5,10,13,15,17,22,29,31,33,35-36H,6-9,28H2,1-2H3/t10-,13-,15-,17-,22+,27-/m0/s1
CH$LINK: CAS 23214-92-8
CH$LINK: INCHIKEY AOJJSUZBOXZQNB-TZSSRYMLSA-N
AC$INSTRUMENT: TripleTOF 5600 SCIEX
AC$INSTRUMENT_TYPE: LC-ESI-QTOF
AC$MASS_SPECTROMETRY: MS_TYPE MS2
AC$MASS_SPECTROMETRY: ION_MODE POSITIVE
AC$MASS_SPECTROMETRY: COLLISION_ENERGY 110
AC$MASS_SPECTROMETRY: FRAGMENTATION_MODE CID
AC$MASS_SPECTROMETRY: IONIZATION ESI
AC$CHROMATOGRAPHY: COLUMN_NAME Zorbax Eclipse Plus C18 2.1 mm x 150 mm, 3.5 um, Agilent
AC$CHROMATOGRAPHY: COLUMN_TEMPERATURE 40 °C
AC$CHROMATOGRAPHY: FLOW_GRADIENT 0 min min 98% A, 1 min 98% A, 2 min 80% A, 16.5 min 2% A, 22 min 2% A, 22.1 min 98% A, 27 min 98% A
AC$CHROMATOGRAPHY: FLOW_RATE 0.3 mL/min
AC$CHROMATOGRAPHY: RETENTION_TIME 7.064 min
AC$CHROMATOGRAPHY: SOLVENT A: Water 0.1% Formic acid, B: Acetonitrile 0.1% Formic acid
MS$FOCUSED_ION: PRECURSOR_M/Z 544.1813
MS$FOCUSED_ION: PRECURSOR_TYPE [M+H]+
MS$DATA_PROCESSING: COMMENT Export with Spectra 1.9.12 MsBackendMassbank 1.7.4
MS$DATA_PROCESSING: WHOLE RMassBank 2.3.1
PK$SPLASH: splash10-0f79-2490000000-e82a4f042d0cf7722e02
PK$NUM_PEAK: 37
PK$PEAK: m/z int. rel.int.
  44.0572 0.4 181
  58.0673 0.5 227
  72.0478 0.5 227
  77.0402 0.6 272
  86.0628 1.6 726
  89.0406 0.6 272
  105.0356 0.5 227
  113.0597 0.5 227
  130.0849 0.8 363
  165.0697 0.9 408
  176.0624 2.2 999
  177.0721 0.7 317
  178.0795 0.8 363
  187.0556 0.7 317
  189.068 2 908
  202.0766 1.5 681
  204.0555 1.8 817
  205.0652 1.4 635
  216.0539 0.8 363
  217.0613 0.5 227
  218.0734 0.6 272
  221.0579 0.8 363
  230.0702 0.4 181
  232.0523 1 454
  233.0591 1.1 499
  234.0669 0.8 363
  244.0546 0.7 317
  245.0579 0.5 227
  247.0811 0.5 227
  249.0539 1 454
  259.0749 0.5 227
  261.0556 0.7 317
  273.0518 0.6 272
  289.0471 1.3 590
  305.0491 0.5 227
  306.0522 0.9 408
  317.0518 0.4 181
//
