ACCESSION: MSBNK-BAFG-CSL23103010434
RECORD_TITLE: Amethopterin; LC-ESI-QTOF; MS2; 100 V
DATE: 2023.10.30
AUTHORS: Kevin S. Jewell; Björn Ehlig; Arne Wick
LICENSE: dl-de/by-2-0
COPYRIGHT: Copyright 2023 Federal Institute of Hydrology, Koblenz, Germany
COMMENT: CONFIDENCE Reference Standard (Level 1)
COMMENT: Chromatography method: dx.doi.org/10.1016/j.chroma.2015.11.014
COMMENT: Acquisition method: 10.1002/rcm.8541
CH$NAME: Amethopterin
CH$COMPOUND_CLASS: Pharmaceutical
CH$FORMULA: C20H22N8O5
CH$EXACT_MASS: 454.1713
CH$SMILES: CN(Cc1cnc2nc(N)nc(N)c2n1)c3ccc(cc3)C(=O)NC(CCC(O)=O)C(O)=O
CH$IUPAC: InChI=1S/C20H22N8O5/c1-28(9-11-8-23-17-15(24-11)16(21)26-20(22)27-17)12-4-2-10(3-5-12)18(31)25-13(19(32)33)6-7-14(29)30/h2-5,8,13H,6-7,9H2,1H3,(H,25,31)(H,29,30)(H,32,33)(H4,21,22,23,26,27)
CH$LINK: CAS 60388-53-6
CH$LINK: INCHIKEY FBOZXECLQNJBKD-UHFFFAOYSA-N
AC$INSTRUMENT: TripleTOF 5600 SCIEX
AC$INSTRUMENT_TYPE: LC-ESI-QTOF
AC$MASS_SPECTROMETRY: MS_TYPE MS2
AC$MASS_SPECTROMETRY: ION_MODE POSITIVE
AC$MASS_SPECTROMETRY: COLLISION_ENERGY 100
AC$MASS_SPECTROMETRY: FRAGMENTATION_MODE CID
AC$MASS_SPECTROMETRY: IONIZATION ESI
AC$CHROMATOGRAPHY: COLUMN_NAME Zorbax Eclipse Plus C18 2.1 mm x 150 mm, 3.5 um, Agilent
AC$CHROMATOGRAPHY: COLUMN_TEMPERATURE 40 °C
AC$CHROMATOGRAPHY: FLOW_GRADIENT 0 min min 98% A, 1 min 98% A, 2 min 80% A, 16.5 min 2% A, 22 min 2% A, 22.1 min 98% A, 27 min 98% A
AC$CHROMATOGRAPHY: FLOW_RATE 0.3 mL/min
AC$CHROMATOGRAPHY: RETENTION_TIME 5.057 min
AC$CHROMATOGRAPHY: SOLVENT A: Water 0.1% Formic acid, B: Acetonitrile 0.1% Formic acid
MS$FOCUSED_ION: PRECURSOR_M/Z 455.1786
MS$FOCUSED_ION: PRECURSOR_TYPE [M+H]+
MS$DATA_PROCESSING: COMMENT Export with Spectra 1.9.12 MsBackendMassbank 1.7.4
MS$DATA_PROCESSING: WHOLE RMassBank 2.3.1
PK$SPLASH: splash10-0560-2900000000-6c53c60e1ab6536f86e8
PK$NUM_PEAK: 37
PK$PEAK: m/z int. rel.int.
  43.0289 1.5 101
  54.034 0.6 40
  65.0389 0.8 54
  66.0211 0.6 40
  67.0286 0.6 40
  77.0122 0.6 40
  77.0387 3.2 216
  79.0294 2.5 168
  79.054 3.5 236
  80.0242 2.7 182
  80.0364 1 67
  91.0287 0.4 27
  92.0223 0.5 33
  94.0389 1 67
  104.0231 0.4 27
  105.0331 0.5 33
  106.0403 11.7 789
  106.0651 2.7 182
  107.0478 1.7 114
  108.0412 0.5 33
  108.0555 1 67
  118.0411 0.5 33
  121.0509 3.6 242
  131.0356 1.2 80
  132.0429 1.1 74
  133.0509 14.8 999
  134.059 5.3 357
  135.0556 0.5 33
  146.0477 0.7 47
  148.0616 3.7 249
  149.0672 0.6 40
  150.0737 0.9 60
  158.0461 1.1 74
  159.0534 2 134
  160.0647 1 67
  175.0716 7 472
  176.0811 1 67
//
