ACCESSION: MSBNK-BAFG-CSL25011734716
RECORD_TITLE: Food Yellow 3 free acid; LC-ESI-QTOF; MS2; 50 V
DATE: 2025.01.17
AUTHORS: Ole Lessmann; Kevin S. Jewell; Björn Ehlig; Arne Wick
LICENSE: dl-de/by-2-0
COPYRIGHT: Copyright 2025 Federal Institute of Hydrology, Koblenz, Germany
COMMENT: CONFIDENCE Reference Standard (Level 1)
COMMENT: Chromatography method: dx.doi.org/10.1016/j.chroma.2015.11.014
CH$NAME: Food Yellow 3 free acid
CH$FORMULA: C16H12N2O7S2
CH$EXACT_MASS: 408.0086
CH$SMILES: C1=CC(=CC=C1N=NC2=C(C=CC3=C2C=CC(=C3)S(=O)(=O)O)O)S(=O)(=O)O
CH$IUPAC: InChI=1S/C16H12N2O7S2/c19-15-8-1-10-9-13(27(23,24)25)6-7-14(10)16(15)18-17-11-2-4-12(5-3-11)26(20,21)22/h1-9,19H,(H,20,21,22)(H,23,24,25)
CH$LINK: CAS 5859-11-0
CH$LINK: INCHIKEY KEYWXKLGZZGHMT-UHFFFAOYSA-N
AC$INSTRUMENT: TripleTOF 6600 SCIEX
AC$INSTRUMENT_TYPE: LC-ESI-QTOF
AC$MASS_SPECTROMETRY: MS_TYPE MS2
AC$MASS_SPECTROMETRY: ION_MODE NEGATIVE
AC$MASS_SPECTROMETRY: COLLISION_ENERGY 50
AC$MASS_SPECTROMETRY: FRAGMENTATION_MODE CID
AC$MASS_SPECTROMETRY: IONIZATION ESI
AC$CHROMATOGRAPHY: COLUMN_NAME Zorbax Eclipse Plus C18 2.1 mm x 150 mm, 3.5 um, Agilent
AC$CHROMATOGRAPHY: COLUMN_TEMPERATURE 40 °C
AC$CHROMATOGRAPHY: FLOW_GRADIENT 0 min min 98% A, 1 min 98% A, 2 min 80% A, 16.5 min 2% A, 22 min 2% A, 22.1 min 98% A, 27 min 98% A
AC$CHROMATOGRAPHY: FLOW_RATE 0.3 mL/min
AC$CHROMATOGRAPHY: RETENTION_TIME 5.59 min
AC$CHROMATOGRAPHY: SOLVENT A: Water 0.1% Formic acid, B: Acetonitrile 0.1% Formic acid
MS$FOCUSED_ION: PRECURSOR_M/Z 202.9969
MS$FOCUSED_ION: PRECURSOR_TYPE [M-2H]2-
MS$DATA_PROCESSING: COMMENT Export with pycsl 0.1.0.dev1 and CSL 25.0
PK$SPLASH: splash10-004l-8900000000-457ad9d2f814551335a3
PK$NUM_PEAK: 52
PK$PEAK: m/z int. rel.int.
  41.003 2.4355 0
  50.0029 4.5175 1
  63.0109 2.2342 0
  63.0235 5.6679 1
  63.9617 44.3208 14
  64.0186 10.3309 3
  65.0026 1.6677 0
  65.9979 15.0384 5
  74.003 3.1639 1
  79.709 12.3498 4
  79.9571 2960.5688 999
  80.454 1.5795 0
  80.9645 26.9268 9
  81.8985 1.508 0
  87.0234 1.8399 0
  88.0185 20.7016 6
  89.0018 1.7812 0
  89.0264 63.846 21
  90.034 41.1945 13
  92.0261 1.5607 0
  93.0335 4.9454 1
  100.0182 2.1571 0
  105.0207 1.0861 0
  107.0368 223.4009 75
  113.0257 4.5421 1
  113.0385 7.6832 2
  113.6797 3.7283 1
  114.0343 766.5054 258
  115.0179 4.2003 1
  115.0398 6.9469 2
  116.0126 10.4009 3
  116.0489 1.3406 0
  117.0208 93.1314 31
  118.028 2.9075 0
  126.0343 6.2856 2
  129.0335 1.3769 0
  130.0412 10.2066 3
  141.5845 6.8767 2
  142.0294 1876.6217 633
  143.0329 12.0809 4
  143.9878 14.1813 4
  144.0446 9.7127 3
  145.0283 3.1553 1
  155.9877 72.6017 24
  158.0361 17.9116 6
  170.9982 56.8442 19
  172.0398 5.2235 1
  179.987 3.3485 1
  180.4126 1.1002 0
  180.9829 244.7816 82
  205.9906 259.2221 87
  206.9979 4.0928 1
//
