ACCESSION: MSBNK-BAFG-CSL25011734714
RECORD_TITLE: Food Yellow 3 free acid; LC-ESI-QTOF; MS2; 40 V
DATE: 2025.01.17
AUTHORS: Ole Lessmann; Kevin S. Jewell; Björn Ehlig; Arne Wick
LICENSE: dl-de/by-2-0
COPYRIGHT: Copyright 2025 Federal Institute of Hydrology, Koblenz, Germany
COMMENT: CONFIDENCE Reference Standard (Level 1)
COMMENT: Chromatography method: dx.doi.org/10.1016/j.chroma.2015.11.014
CH$NAME: Food Yellow 3 free acid
CH$FORMULA: C16H12N2O7S2
CH$EXACT_MASS: 408.0086
CH$SMILES: C1=CC(=CC=C1N=NC2=C(C=CC3=C2C=CC(=C3)S(=O)(=O)O)O)S(=O)(=O)O
CH$IUPAC: InChI=1S/C16H12N2O7S2/c19-15-8-1-10-9-13(27(23,24)25)6-7-14(10)16(15)18-17-11-2-4-12(5-3-11)26(20,21)22/h1-9,19H,(H,20,21,22)(H,23,24,25)
CH$LINK: CAS 5859-11-0
CH$LINK: INCHIKEY KEYWXKLGZZGHMT-UHFFFAOYSA-N
AC$INSTRUMENT: TripleTOF 6600 SCIEX
AC$INSTRUMENT_TYPE: LC-ESI-QTOF
AC$MASS_SPECTROMETRY: MS_TYPE MS2
AC$MASS_SPECTROMETRY: ION_MODE NEGATIVE
AC$MASS_SPECTROMETRY: COLLISION_ENERGY 40
AC$MASS_SPECTROMETRY: FRAGMENTATION_MODE CID
AC$MASS_SPECTROMETRY: IONIZATION ESI
AC$CHROMATOGRAPHY: COLUMN_NAME Zorbax Eclipse Plus C18 2.1 mm x 150 mm, 3.5 um, Agilent
AC$CHROMATOGRAPHY: COLUMN_TEMPERATURE 40 °C
AC$CHROMATOGRAPHY: FLOW_GRADIENT 0 min min 98% A, 1 min 98% A, 2 min 80% A, 16.5 min 2% A, 22 min 2% A, 22.1 min 98% A, 27 min 98% A
AC$CHROMATOGRAPHY: FLOW_RATE 0.3 mL/min
AC$CHROMATOGRAPHY: RETENTION_TIME 5.59 min
AC$CHROMATOGRAPHY: SOLVENT A: Water 0.1% Formic acid, B: Acetonitrile 0.1% Formic acid
MS$FOCUSED_ION: PRECURSOR_M/Z 202.9969
MS$FOCUSED_ION: PRECURSOR_TYPE [M-2H]2-
MS$DATA_PROCESSING: COMMENT Export with pycsl 0.1.0.dev1 and CSL 25.0
PK$SPLASH: splash10-0a4i-2930000000-6cf3df3ee5fa4ec77054
PK$NUM_PEAK: 59
PK$PEAK: m/z int. rel.int.
  50.0036 2.1932 1
  63.9619 34.6198 17
  64.0189 4.3877 2
  65.9976 4.9288 2
  79.7095 7.1687 3
  79.957 1733.7971 871
  80.9645 26.7304 13
  88.0185 7.3191 3
  89.0264 47.2634 23
  90.0341 42.8888 21
  92.0271 2.4764 1
  93.0334 6.9533 3
  106.7032 4.5807 2
  107.0371 870.1177 437
  108.0401 1.1709 0
  113.0253 1.3222 0
  113.0383 7.5257 3
  113.6795 2.5219 1
  114.0342 631.1228 317
  115.0414 109.3058 54
  116.0127 4.9049 2
  116.0485 2.2744 1
  117.0212 125.9964 63
  118.0286 1.1491 0
  126.0338 2.8918 1
  129.0339 3.9625 1
  130.0412 35.1771 17
  131.0377 2.1316 1
  141.5836 6.0992 3
  142.0292 1685.7686 847
  143.036 44.1691 22
  143.9879 32.6949 16
  144.0448 8.5873 4
  145.0283 2.9195 1
  155.4994 1.2752 0
  155.9879 305.043 153
  156.9958 5.4604 2
  157.5425 1.0052 0
  158.0364 181.4493 91
  159.0307 11.2287 5
  169.9914 2.5129 1
  170.4612 5.238 2
  170.9988 1248.4747 627
  171.9998 1.6587 0
  172.0394 38.3553 19
  179.9869 16.2997 8
  180.4135 4.6798 2
  180.9831 1245.7606 626
  181.9865 2.3993 1
  192.9943 4.3098 2
  194.0036 19.3469 9
  205.3427 7.9406 3
  205.9908 1986.5833 999
  206.9988 483.8897 243
  220.9901 1.323 0
  221.9983 5.7998 2
  234.9938 2.2358 1
  236.0019 8.0631 4
  296.0148 1.0578 0
//
