ACCESSION: MSBNK-BAFG-CSL23102513126
RECORD_TITLE: 2-Benzylimidazole; LC-ESI-QTOF; MS2; 40 V
DATE: 2023.10.25
AUTHORS: Kevin S. Jewell; Björn Ehlig; Arne Wick
LICENSE: dl-de/by-2-0
COPYRIGHT: Copyright 2023 Federal Institute of Hydrology, Koblenz, Germany
COMMENT: CONFIDENCE Reference Standard (Level 1)
COMMENT: Chromatography method: dx.doi.org/10.1016/j.chroma.2015.11.014
COMMENT: Acquisition method: 10.1002/rcm.8541
CH$NAME: 2-Benzylimidazole
CH$COMPOUND_CLASS: Pharmaceutical
CH$FORMULA: C10H12N2
CH$EXACT_MASS: 160.1
CH$SMILES: C1CN=C(N1)CC2=CC=CC=C2
CH$IUPAC: InChI=1S/C10H12N2/c1-2-4-9(5-3-1)8-10-11-6-7-12-10/h1-5H,6-8H2,(H,11,12)
CH$LINK: CAS 59-98-3
CH$LINK: INCHIKEY JIVZKJJQOZQXQB-UHFFFAOYSA-N
AC$INSTRUMENT: TripleTOF 5600 SCIEX
AC$INSTRUMENT_TYPE: LC-ESI-QTOF
AC$MASS_SPECTROMETRY: MS_TYPE MS2
AC$MASS_SPECTROMETRY: ION_MODE POSITIVE
AC$MASS_SPECTROMETRY: COLLISION_ENERGY 40
AC$MASS_SPECTROMETRY: FRAGMENTATION_MODE CID
AC$MASS_SPECTROMETRY: IONIZATION ESI
AC$CHROMATOGRAPHY: COLUMN_NAME Zorbax Eclipse Plus C18 2.1 mm x 150 mm, 3.5 um, Agilent
AC$CHROMATOGRAPHY: COLUMN_TEMPERATURE 40 °C
AC$CHROMATOGRAPHY: FLOW_GRADIENT 0 min min 98% A, 1 min 98% A, 2 min 80% A, 16.5 min 2% A, 22 min 2% A, 22.1 min 98% A, 27 min 98% A
AC$CHROMATOGRAPHY: FLOW_RATE 0.3 mL/min
AC$CHROMATOGRAPHY: RETENTION_TIME 4.619 min
AC$CHROMATOGRAPHY: SOLVENT A: Water 0.1% Formic acid, B: Acetonitrile 0.1% Formic acid
MS$FOCUSED_ION: PRECURSOR_M/Z 161.1073
MS$FOCUSED_ION: PRECURSOR_TYPE [M+H]+
MS$DATA_PROCESSING: COMMENT Export with Spectra 1.9.12 MsBackendMassbank 1.7.4
MS$DATA_PROCESSING: WHOLE RMassBank 2.3.1
PK$SPLASH: splash10-0006-9200000000-723a7afd22a6bd9dce2c
PK$NUM_PEAK: 15
PK$PEAK: m/z int. rel.int.
  44.0496 9.7 74
  65.0389 15.9 122
  77.0386 1.5 11
  84.0683 1.7 13
  91.0545 129.7 999
  103.0543 5.8 44
  105.0703 1.4 10
  106.0652 1.6 12
  115.0556 1.8 13
  116.0507 1.7 13
  117.058 2 15
  130.0661 1.5 11
  132.0828 1.7 13
  160.0996 2.2 16
  161.1081 20.5 157
//
