ACCESSION: MSBNK-BAFG-CSL25010634487
RECORD_TITLE: Disperse brown 1; LC-ESI-QTOF; MS2; 40 V
DATE: 2025.01.06
AUTHORS: Ole Lessmann; Kevin S. Jewell; Björn Ehlig; Arne Wick
LICENSE: dl-de/by-2-0
COPYRIGHT: Copyright 2025 Federal Institute of Hydrology, Koblenz, Germany
COMMENT: CONFIDENCE Reference Standard (Level 1)
COMMENT: Chromatography method: dx.doi.org/10.1016/j.chroma.2015.11.014
COMMENT: Acquisition method: 10.1002/rcm.8541
CH$NAME: Disperse brown 1
CH$FORMULA: C16H15Cl3N4O4
CH$EXACT_MASS: 432.0159
CH$SMILES: C1=CC(=C(C=C1N(CCO)CCO)Cl)N=NC2=C(C=C(C=C2Cl)[N+](=O)[O-])Cl
CH$IUPAC: InChI=1S/C16H15Cl3N4O4/c17-12-7-10(22(3-5-24)4-6-25)1-2-15(12)20-21-16-13(18)8-11(23(26)27)9-14(16)19/h1-2,7-9,24-25H,3-6H2
CH$LINK: CAS 23355-64-8
CH$LINK: INCHIKEY HXXLWTPFYWMBSC-UHFFFAOYSA-N
AC$INSTRUMENT: TripleTOF 6600 SCIEX
AC$INSTRUMENT_TYPE: LC-ESI-QTOF
AC$MASS_SPECTROMETRY: MS_TYPE MS2
AC$MASS_SPECTROMETRY: ION_MODE POSITIVE
AC$MASS_SPECTROMETRY: COLLISION_ENERGY 40
AC$MASS_SPECTROMETRY: FRAGMENTATION_MODE CID
AC$MASS_SPECTROMETRY: IONIZATION ESI
AC$CHROMATOGRAPHY: COLUMN_NAME Zorbax Eclipse Plus C18 2.1 mm x 150 mm, 3.5 um, Agilent
AC$CHROMATOGRAPHY: COLUMN_TEMPERATURE 40 °C
AC$CHROMATOGRAPHY: FLOW_GRADIENT 0 min min 98% A, 1 min 98% A, 2 min 80% A, 16.5 min 2% A, 22 min 2% A, 22.1 min 98% A, 27 min 98% A
AC$CHROMATOGRAPHY: FLOW_RATE 0.3 mL/min
AC$CHROMATOGRAPHY: RETENTION_TIME 12.39 min
AC$CHROMATOGRAPHY: SOLVENT A: Water 0.1% Formic acid, B: Acetonitrile 0.1% Formic acid
MS$FOCUSED_ION: PRECURSOR_M/Z 433.0232
MS$FOCUSED_ION: PRECURSOR_TYPE [M+H]+
MS$DATA_PROCESSING: COMMENT Export with pycsl 0.1.0.dev1 and CSL 24.4
PK$SPLASH: splash10-001i-0606900000-70bad91c8104ffc285e1
PK$NUM_PEAK: 38
PK$PEAK: m/z int. rel.int.
  98.9832 1.0 11
  114.055 3.6 42
  139.0073 2.0 23
  140.0273 0.9 10
  145.0756 1.3 15
  149.0701 1.1 13
  153.0246 14.9 177
  158.0377 1.0 11
  163.0858 4.2 50
  166.0434 3.0 35
  167.0364 0.9 10
  170.0382 1.5 17
  175.0873 1.9 22
  179.0407 1.1 13
  183.0319 2.0 23
  184.0526 3.3 39
  185.0465 7.8 92
  189.9476 3.3 39
  193.0972 1.2 14
  197.0488 22.2 264
  217.9521 3.0 35
  228.0665 7.3 87
  310.9759 2.3 27
  311.9923 0.9 10
  343.0046 1.0 11
  349.0214 1.0 11
  356.9727 31.5 375
  357.9788 2.3 27
  358.9858 1.2 14
  367.0413 2.9 34
  369.0275 1.4 16
  370.9865 4.9 58
  372.0094 0.9 10
  387.0314 17.4 207
  389.0104 1.1 13
  402.0045 14.6 174
  415.0149 4.3 51
  433.0244 83.8 999
//