ACCESSION: MSBNK-BAFG-CSL25011734694
RECORD_TITLE: Reactive Orange; LC-ESI-QTOF; MS2; 40 V
DATE: 2025.01.17
AUTHORS: Ole Lessmann; Kevin S. Jewell; Björn Ehlig; Arne Wick
LICENSE: dl-de/by-2-0
COPYRIGHT: Copyright 2025 Federal Institute of Hydrology, Koblenz, Germany
COMMENT: CONFIDENCE Reference Standard (Level 1)
COMMENT: Chromatography method: dx.doi.org/10.1016/j.chroma.2015.11.014
CH$NAME: Reactive Orange
CH$FORMULA: C20H19N3O11S3
CH$EXACT_MASS: 573.0182
CH$SMILES: CC(=O)NC1=CC2=C(C(=C(C=C2C=C1)S(=O)(=O)O)N=NC3=CC=C(C=C3)S(=O)(=O)CCOS(=O)(=O)O)O
CH$IUPAC: InChI=1S/C20H19N3O11S3/c1-12(24)21-15-3-2-13-10-18(36(28,29)30)19(20(25)17(13)11-15)23-22-14-4-6-16(7-5-14)35(26,27)9-8-34-37(31,32)33/h2-7,10-11,25H,8-9H2,1H3,(H,21,24)(H,28,29,30)(H,31,32,33)
CH$LINK: CAS 109603-48-7
CH$LINK: INCHIKEY INOIOAWTVPHTCJ-UHFFFAOYSA-N
AC$INSTRUMENT: TripleTOF 6600 SCIEX
AC$INSTRUMENT_TYPE: LC-ESI-QTOF
AC$MASS_SPECTROMETRY: MS_TYPE MS2
AC$MASS_SPECTROMETRY: ION_MODE NEGATIVE
AC$MASS_SPECTROMETRY: COLLISION_ENERGY 40
AC$MASS_SPECTROMETRY: FRAGMENTATION_MODE CID
AC$MASS_SPECTROMETRY: IONIZATION ESI
AC$CHROMATOGRAPHY: COLUMN_NAME Zorbax Eclipse Plus C18 2.1 mm x 150 mm, 3.5 um, Agilent
AC$CHROMATOGRAPHY: COLUMN_TEMPERATURE 40 °C
AC$CHROMATOGRAPHY: FLOW_GRADIENT 0 min min 98% A, 1 min 98% A, 2 min 80% A, 16.5 min 2% A, 22 min 2% A, 22.1 min 98% A, 27 min 98% A
AC$CHROMATOGRAPHY: FLOW_RATE 0.3 mL/min
AC$CHROMATOGRAPHY: RETENTION_TIME 5.751 min
AC$CHROMATOGRAPHY: SOLVENT A: Water 0.1% Formic acid, B: Acetonitrile 0.1% Formic acid
MS$FOCUSED_ION: PRECURSOR_M/Z 285.5022
MS$FOCUSED_ION: PRECURSOR_TYPE [M-2H]2-
MS$DATA_PROCESSING: COMMENT Export with pycsl 0.1.0.dev1 and CSL 25.0
PK$SPLASH: splash10-000b-7390000000-2b9e186df0f10d901c09
PK$NUM_PEAK: 106
PK$PEAK: m/z int. rel.int.
  63.9619 19.3712 11
  76.0307 1.4639 0
  79.9569 264.5074 160
  80.9646 6.0743 3
  90.9849 13.2212 8
  93.0339 1.5564 0
  95.9511 2.394 1
  96.6585 6.2561 3
  96.9598 1649.1953 999
  97.9597 1.2386 0
  107.0373 1.2257 0
  116.0506 2.7825 1
  117.0331 1.4844 0
  127.0416 1.7768 1
  128.049 9.2346 5
  129.053 101.5813 61
  130.0297 1.4855 0
  130.054 9.2754 5
  131.0342 1.0188 0
  132.0444 1.4413 0
  139.9928 2.1451 1
  144.045 192.6244 116
  145.0296 4.124 2
  145.0484 3.5791 2
  155.0046 1.309 0
  155.0379 5.5696 3
  156.0439 12.4554 7
  157.0464 5.047 3
  158.0229 11.5865 7
  158.061 1.5645 0
  159.0321 1.0374 0
  167.0154 8.8757 5
  169.042 1.1772 0
  170.0605 9.0816 5
  171.0382 2.0892 1
  171.0674 9.6905 5
  171.4966 1.4771 0
  172.0407 439.9362 266
  173.0468 68.2348 41
  174.054 2.0094 1
  182.026 3.0653 1
  183.0117 3.0859 1
  183.0532 1.7967 1
  184.0388 14.8387 8
  186.0186 8.202 4
  186.0525 2.3599 1
  187.0625 3.5432 2
  198.0549 14.9212 9
  199.0636 21.1286 12
  200.0346 186.0227 112
  201.0395 1.7456 1
  202.0506 2.173 1
  208.0069 9.4476 5
  209.998 12.4129 7
  214.0475 2.9862 1
  215.0578 18.0477 10
  220.0743 1.0402 0
  227.0444 2.5118 1
  231.0713 1.6889 1
  232.0758 5.2126 3
  233.0831 4.5798 2
  234.0914 1.7332 1
  235.0059 2.8502 1
  235.2558 1.463 0
  236.0022 445.9525 270
  236.2629 1.8297 1
  237.009 612.9431 371
  238.0121 7.9003 4
  247.0979 1.2026 0
  248.0713 2.1888 1
  249.0788 1.8067 1
  249.9771 1.6657 1
  250.0154 1.8401 1
  251.0238 6.8313 4
  260.0743 1.6197 0
  263.159 1.4927 0
  263.9963 438.4058 265
  264.9991 5.6991 3
  266.0117 2.2243 1
  273.0778 1.9439 1
  275.0945 25.3979 15
  276.0669 2.0898 1
  276.1001 2.5623 1
  276.9919 4.7707 2
  278.0115 51.9457 31
  278.1313 1.0254 0
  279.02 416.8015 252
  280.0223 7.5921 4
  288.0768 1.2985 0
  290.0831 1.2743 0
  291.0891 12.3414 7
  292.0989 1.196 0
  293.0245 1.9368 1
  303.102 1.2794 0
  312.0324 3.407 2
  313.0394 2.2775 1
  323.0632 2.8751 1
  324.0677 2.6736 1
  340.0616 1.3228 0
  355.0504 1.7457 1
  366.0783 10.5594 6
  382.0711 3.471 2
  383.055 1.3668 0
  394.0848 8.6958 5
  446.0353 1.8366 1
  474.0395 3.336 2
//
