ACCESSION: MSBNK-BAFG-CSL23103017927
RECORD_TITLE: Terfenadine; LC-ESI-QTOF; MS2; 150 V
DATE: 2023.10.30
AUTHORS: Kevin S. Jewell; Björn Ehlig; Arne Wick
LICENSE: dl-de/by-2-0
COPYRIGHT: Copyright 2023 Federal Institute of Hydrology, Koblenz, Germany
COMMENT: CONFIDENCE Reference Standard (Level 1)
COMMENT: Chromatography method: dx.doi.org/10.1016/j.chroma.2015.11.014
COMMENT: Acquisition method: 10.1002/rcm.8541
CH$NAME: Terfenadine
CH$COMPOUND_CLASS: Pharmaceutical
CH$FORMULA: C32H41NO2
CH$EXACT_MASS: 471.3137
CH$SMILES: CC(C)(C)C1=CC=C(C=C1)C(CCCN2CCC(CC2)C(C3=CC=CC=C3)(C4=CC=CC=C4)O)O
CH$IUPAC: InChI=1S/C32H41NO2/c1-31(2,3)26-18-16-25(17-19-26)30(34)15-10-22-33-23-20-29(21-24-33)32(35,27-11-6-4-7-12-27)28-13-8-5-9-14-28/h4-9,11-14,16-19,29-30,34-35H,10,15,20-24H2,1-3H3
CH$LINK: CAS 50679-08-8
CH$LINK: INCHIKEY GUGOEEXESWIERI-UHFFFAOYSA-N
AC$INSTRUMENT: TripleTOF 6600 SCIEX
AC$INSTRUMENT_TYPE: LC-ESI-QTOF
AC$MASS_SPECTROMETRY: MS_TYPE MS2
AC$MASS_SPECTROMETRY: ION_MODE POSITIVE
AC$MASS_SPECTROMETRY: COLLISION_ENERGY 150
AC$MASS_SPECTROMETRY: FRAGMENTATION_MODE CID
AC$MASS_SPECTROMETRY: IONIZATION ESI
AC$CHROMATOGRAPHY: COLUMN_NAME Zorbax Eclipse Plus C18 2.1 mm x 150 mm, 3.5 um, Agilent
AC$CHROMATOGRAPHY: COLUMN_TEMPERATURE 40 °C
AC$CHROMATOGRAPHY: FLOW_GRADIENT 0 min min 98% A, 1 min 98% A, 2 min 80% A, 16.5 min 2% A, 22 min 2% A, 22.1 min 98% A, 27 min 98% A
AC$CHROMATOGRAPHY: FLOW_RATE 0.3 mL/min
AC$CHROMATOGRAPHY: RETENTION_TIME 10.223 min
AC$CHROMATOGRAPHY: SOLVENT A: Water 0.1% Formic acid, B: Acetonitrile 0.1% Formic acid
MS$FOCUSED_ION: PRECURSOR_M/Z 472.321
MS$FOCUSED_ION: PRECURSOR_TYPE [M+H]+
MS$DATA_PROCESSING: COMMENT Export with Spectra 1.9.12 MsBackendMassbank 1.7.4
MS$DATA_PROCESSING: WHOLE RMassBank 2.3.1
PK$SPLASH: splash10-016u-9810000000-cbff94dfeeb64a330c38
PK$NUM_PEAK: 30
PK$PEAK: m/z int. rel.int.
  37.0067 0.5 71
  39.0217 2.8 399
  41.037 1.9 271
  42.0322 0.4 57
  51.0205 0.8 114
  65.0366 3 428
  68.0473 0.5 71
  77.0363 3.9 556
  78.0438 0.6 85
  79.0522 0.5 71
  80.0481 0.5 71
  82.0628 0.5 71
  89.0368 0.7 99
  91.0519 7 999
  102.0442 1.1 156
  103.0528 0.7 99
  105.0674 0.5 71
  115.0513 5.5 784
  116.0597 0.9 128
  117.0672 2 285
  126.0439 0.6 85
  127.0507 1.3 185
  128.0593 5.2 742
  141.0668 0.9 128
  152.0591 1 142
  165.0672 0.9 128
  189.0668 0.7 99
  201.0678 0.6 85
  202.0745 2.2 313
  215.0824 0.5 71
//
