ACCESSION: MSBNK-BAFG-CSL23103127551
RECORD_TITLE: Thioxanthen-9-one; LC-ESI-QTOF; MS2; 60 V
DATE: 2023.10.31
AUTHORS: Kevin S. Jewell; Björn Ehlig; Arne Wick
LICENSE: dl-de/by-2-0
COPYRIGHT: Copyright 2023 Federal Institute of Hydrology, Koblenz, Germany
COMMENT: CONFIDENCE Reference Standard (Level 1)
COMMENT: Chromatography method: dx.doi.org/10.1016/j.chroma.2015.11.014
COMMENT: Acquisition method: 10.1002/rcm.8541
CH$NAME: Thioxanthen-9-one
CH$FORMULA: C13H8OS
CH$EXACT_MASS: 212.0296
CH$SMILES: C1=CC=C2C(=C1)C(=O)C3=CC=CC=C3S2
CH$IUPAC: InChI=1S/C13H8OS/c14-13-9-5-1-3-7-11(9)15-12-8-4-2-6-10(12)13/h1-8H
CH$LINK: CAS 492-22-8
CH$LINK: INCHIKEY YRHRIQCWCFGUEQ-UHFFFAOYSA-N
AC$INSTRUMENT: TripleTOF 6600 SCIEX
AC$INSTRUMENT_TYPE: LC-ESI-QTOF
AC$MASS_SPECTROMETRY: MS_TYPE MS2
AC$MASS_SPECTROMETRY: ION_MODE POSITIVE
AC$MASS_SPECTROMETRY: COLLISION_ENERGY 60
AC$MASS_SPECTROMETRY: FRAGMENTATION_MODE CID
AC$MASS_SPECTROMETRY: IONIZATION ESI
AC$CHROMATOGRAPHY: COLUMN_NAME Zorbax Eclipse Plus C18 2.1 mm x 150 mm, 3.5 um, Agilent
AC$CHROMATOGRAPHY: COLUMN_TEMPERATURE 40 °C
AC$CHROMATOGRAPHY: FLOW_GRADIENT 0 min min 98% A, 1 min 98% A, 2 min 80% A, 16.5 min 2% A, 22 min 2% A, 22.1 min 98% A, 27 min 98% A
AC$CHROMATOGRAPHY: FLOW_RATE 0.3 mL/min
AC$CHROMATOGRAPHY: RETENTION_TIME 13.479 min
AC$CHROMATOGRAPHY: SOLVENT A: Water 0.1% Formic acid, B: Acetonitrile 0.1% Formic acid
MS$FOCUSED_ION: PRECURSOR_M/Z 213.0369
MS$FOCUSED_ION: PRECURSOR_TYPE [M+H]+
MS$DATA_PROCESSING: COMMENT Export with Spectra 1.9.12 MsBackendMassbank 1.7.4
MS$DATA_PROCESSING: WHOLE RMassBank 2.3.1
PK$SPLASH: splash10-0f89-0900000000-8872cd78e9a8fb2c2ab4
PK$NUM_PEAK: 18
PK$PEAK: m/z int. rel.int.
  68.979 12.9 29
  76.0308 4.8 10
  77.0382 8.3 18
  89.0395 7.5 16
  108.0027 10.5 23
  114.0453 7.1 16
  115.0545 65.1 147
  126.0465 9 20
  134.0184 22.6 51
  139.0546 188 425
  140.062 25.5 57
  141.0696 6.1 13
  150.0466 10.7 24
  151.054 50.1 113
  152.0622 299.7 678
  158.0187 26.5 59
  183.0268 107.8 243
  184.0346 441.4 999
//
