ACCESSION: MSBNK-BAFG-CSL2310304771
RECORD_TITLE: Iopromide; LC-ESI-QTOF; MS2; 100 V
DATE: 2023.10.30
AUTHORS: Kevin S. Jewell; Björn Ehlig; Arne Wick
LICENSE: dl-de/by-2-0
COPYRIGHT: Copyright 2023 Federal Institute of Hydrology, Koblenz, Germany
COMMENT: CONFIDENCE Reference Standard (Level 1)
COMMENT: Chromatography method: dx.doi.org/10.1016/j.chroma.2015.11.014
COMMENT: Acquisition method: 10.1002/rcm.8541
CH$NAME: Iopromide
CH$COMPOUND_CLASS: Pharmaceutical
CH$FORMULA: C18H24I3N3O8
CH$EXACT_MASS: 790.8698
CH$SMILES: COCC(=O)Nc1c(I)c(C(=O)NCC(O)CO)c(I)c(c1I)C(=O)N(C)CC(O)CO
CH$IUPAC: InChI=1S/C18H24I3N3O8/c1-24(4-9(28)6-26)18(31)12-13(19)11(17(30)22-3-8(27)5-25)14(20)16(15(12)21)23-10(29)7-32-2/h8-9,25-28H,3-7H2,1-2H3,(H,22,30)(H,23,29)
CH$LINK: CAS 73334-07-3
CH$LINK: INCHIKEY DGAIEPBNLOQYER-UHFFFAOYSA-N
AC$INSTRUMENT: TripleTOF 5600 SCIEX
AC$INSTRUMENT_TYPE: LC-ESI-QTOF
AC$MASS_SPECTROMETRY: MS_TYPE MS2
AC$MASS_SPECTROMETRY: ION_MODE POSITIVE
AC$MASS_SPECTROMETRY: COLLISION_ENERGY 100
AC$MASS_SPECTROMETRY: FRAGMENTATION_MODE CID
AC$MASS_SPECTROMETRY: IONIZATION ESI
AC$CHROMATOGRAPHY: COLUMN_NAME Zorbax Eclipse Plus C18 2.1 mm x 150 mm, 3.5 um, Agilent
AC$CHROMATOGRAPHY: COLUMN_TEMPERATURE 40 °C
AC$CHROMATOGRAPHY: FLOW_GRADIENT 0 min min 98% A, 1 min 98% A, 2 min 80% A, 16.5 min 2% A, 22 min 2% A, 22.1 min 98% A, 27 min 98% A
AC$CHROMATOGRAPHY: FLOW_RATE 0.3 mL/min
AC$CHROMATOGRAPHY: RETENTION_TIME 4.895 min
AC$CHROMATOGRAPHY: SOLVENT A: Water 0.1% Formic acid, B: Acetonitrile 0.1% Formic acid
MS$FOCUSED_ION: PRECURSOR_M/Z 791.877
MS$FOCUSED_ION: PRECURSOR_TYPE [M+H]+
MS$DATA_PROCESSING: COMMENT Export with Spectra 1.9.12 MsBackendMassbank 1.7.4
MS$DATA_PROCESSING: WHOLE RMassBank 2.3.1
PK$SPLASH: splash10-0002-0392100000-168ccd522efdee0450ab
PK$NUM_PEAK: 75
PK$PEAK: m/z int. rel.int.
  45.0393 0.4 12
  88.0203 0.7 21
  101.0302 0.5 15
  101.9976 0.4 12
  104.0549 0.5 15
  116.0116 0.7 21
  116.0396 0.5 15
  117.0207 3.2 98
  128.0131 0.5 15
  141.9925 1.7 52
  144.0078 0.8 24
  145.0154 1.3 39
  154.897 0.4 12
  157.0165 0.6 18
  158.0241 0.9 27
  158.045 0.6 18
  159.0324 0.6 18
  159.0526 0.4 12
  172.0034 1.8 55
  172.0272 1.1 33
  172.061 0.4 12
  173.0111 3.4 104
  185.0437 0.8 24
  188.034 1 30
  200.9037 0.5 15
  203.0229 0.4 12
  215.9309 0.6 18
  226.9251 0.4 12
  227.9308 1.6 49
  228.9256 0.4 12
  242.9168 1 30
  243.9227 1.8 55
  254.9173 0.5 15
  255.9257 4.2 128
  256.9304 0.6 18
  259.0718 0.4 12
  269.9053 0.6 18
  270.9125 1.1 33
  271.9204 5.8 177
  282.912 0.9 27
  283.923 1.8 55
  284.9213 0.4 12
  284.9588 0.6 18
  285.9338 0.5 15
  286.9519 0.4 12
  287.9508 0.9 27
  298.9096 2.5 76
  298.9332 2.1 64
  299.9154 32.6 999
  299.9721 0.4 12
  312.9469 0.8 24
  313.9311 3.7 113
  314.9398 0.5 15
  315.9463 0.5 15
  326.9024 1.6 49
  326.9627 0.4 12
  327.8062 0.4 12
  327.8235 0.5 15
  339.8125 1.5 45
  353.8261 0.6 18
  355.8019 0.8 24
  355.8346 0.8 24
  357.9178 0.7 21
  367.8055 0.6 18
  369.815 0.6 18
  379.8025 0.6 18
  381.8255 1 30
  382.8368 1.3 39
  385.8208 0.6 18
  398.8217 0.5 15
  409.8213 1.2 36
  422.8242 0.9 27
  423.7968 4.3 131
  425.8109 0.7 21
  425.8404 0.6 18
//
