ACCESSION: MSBNK-BAFG-CSL25011734620
RECORD_TITLE: 3-Alizarinsulfonic acid; LC-ESI-QTOF; MS2; 80 V
DATE: 2025.01.17
AUTHORS: Ole Lessmann; Kevin S. Jewell; Björn Ehlig; Arne Wick
LICENSE: dl-de/by-2-0
COPYRIGHT: Copyright 2025 Federal Institute of Hydrology, Koblenz, Germany
COMMENT: CONFIDENCE Reference Standard (Level 1)
COMMENT: Chromatography method: dx.doi.org/10.1016/j.chroma.2015.11.014
CH$NAME: 3-Alizarinsulfonic acid
CH$FORMULA: C14H8O7S
CH$EXACT_MASS: 319.9991
CH$SMILES: C1=CC=C2C(=C1)C(=O)C3=CC(=C(C(=C3C2=O)O)O)S(=O)(=O)O
CH$IUPAC: InChI=1S/C14H8O7S/c15-11-6-3-1-2-4-7(6)12(16)10-8(11)5-9(22(19,20)21)13(17)14(10)18/h1-5,17-18H,(H,19,20,21)
CH$LINK: CAS 83-61-4
CH$LINK: INCHIKEY JKYKXTRKURYNGW-UHFFFAOYSA-N
AC$INSTRUMENT: TripleTOF 6600 SCIEX
AC$INSTRUMENT_TYPE: LC-ESI-QTOF
AC$MASS_SPECTROMETRY: MS_TYPE MS2
AC$MASS_SPECTROMETRY: ION_MODE POSITIVE
AC$MASS_SPECTROMETRY: COLLISION_ENERGY 80
AC$MASS_SPECTROMETRY: FRAGMENTATION_MODE CID
AC$MASS_SPECTROMETRY: IONIZATION ESI
AC$CHROMATOGRAPHY: COLUMN_NAME Zorbax Eclipse Plus C18 2.1 mm x 150 mm, 3.5 um, Agilent
AC$CHROMATOGRAPHY: COLUMN_TEMPERATURE 40 °C
AC$CHROMATOGRAPHY: FLOW_GRADIENT 0 min min 98% A, 1 min 98% A, 2 min 80% A, 16.5 min 2% A, 22 min 2% A, 22.1 min 98% A, 27 min 98% A
AC$CHROMATOGRAPHY: FLOW_RATE 0.3 mL/min
AC$CHROMATOGRAPHY: RETENTION_TIME 8.229 min
AC$CHROMATOGRAPHY: SOLVENT A: Water 0.1% Formic acid, B: Acetonitrile 0.1% Formic acid
MS$FOCUSED_ION: PRECURSOR_M/Z 321.0064
MS$FOCUSED_ION: PRECURSOR_TYPE [M+H]+
MS$DATA_PROCESSING: COMMENT Export with pycsl 0.1.0.dev1 and CSL 25.0
PK$SPLASH: splash10-004i-4900000000-1c625464ef866dfeac20
PK$NUM_PEAK: 18
PK$PEAK: m/z int. rel.int.
  51.0222 0.6 52
  74.0135 0.1 8
  75.0224 0.8 69
  77.0369 8.8 764
  79.0202 0.2 17
  87.0228 0.4 34
  101.0365 1.3 112
  105.0345 0.6 52
  115.0528 0.2 17
  125.036 0.3 26
  126.0453 3.8 330
  127.0513 11.5 999
  129.0416 0.4 34
  137.0329 0.2 17
  139.0519 0.2 17
  155.0489 1.1 95
  155.0642 0.6 52
  183.0465 0.2 17
//
