ACCESSION: MSBNK-BAFG-CSL23111017896
RECORD_TITLE: Clodinafop-Propargyl; LC-ESI-QTOF; MS2; 40 V
DATE: 2023.11.10
AUTHORS: Kevin S. Jewell; Björn Ehlig; Arne Wick
LICENSE: dl-de/by-2-0
COPYRIGHT: Copyright 2023 Federal Institute of Hydrology, Koblenz, Germany
COMMENT: CONFIDENCE Reference Standard (Level 1)
COMMENT: Chromatography method: dx.doi.org/10.1016/j.chroma.2015.11.014
COMMENT: Acquisition method: 10.1002/rcm.8541
CH$NAME: Clodinafop-Propargyl
CH$COMPOUND_CLASS: Herbicide
CH$FORMULA: C17H13ClFNO4
CH$EXACT_MASS: 349.0517
CH$SMILES: CC(C(=O)OCC#C)OC1=CC=C(C=C1)OC2=C(C=C(C=N2)Cl)F
CH$IUPAC: InChI=1S/C17H13ClFNO4/c1-3-8-22-17(21)11(2)23-13-4-6-14(7-5-13)24-16-15(19)9-12(18)10-20-16/h1,4-7,9-11H,8H2,2H3
CH$LINK: CAS 105512-06-9
CH$LINK: INCHIKEY JBDHZKLJNAIJNC-UHFFFAOYSA-N
AC$INSTRUMENT: TripleTOF 6600 SCIEX
AC$INSTRUMENT_TYPE: LC-ESI-QTOF
AC$MASS_SPECTROMETRY: MS_TYPE MS2
AC$MASS_SPECTROMETRY: ION_MODE POSITIVE
AC$MASS_SPECTROMETRY: COLLISION_ENERGY 40
AC$MASS_SPECTROMETRY: FRAGMENTATION_MODE CID
AC$MASS_SPECTROMETRY: IONIZATION ESI
AC$CHROMATOGRAPHY: COLUMN_NAME Zorbax Eclipse Plus C18 2.1 mm x 150 mm, 3.5 um, Agilent
AC$CHROMATOGRAPHY: COLUMN_TEMPERATURE 40 °C
AC$CHROMATOGRAPHY: FLOW_GRADIENT 0 min min 98% A, 1 min 98% A, 2 min 80% A, 16.5 min 2% A, 22 min 2% A, 22.1 min 98% A, 27 min 98% A
AC$CHROMATOGRAPHY: FLOW_RATE 0.3 mL/min
AC$CHROMATOGRAPHY: RETENTION_TIME 13.951 min
AC$CHROMATOGRAPHY: SOLVENT A: Water 0.1% Formic acid, B: Acetonitrile 0.1% Formic acid
MS$FOCUSED_ION: PRECURSOR_M/Z 350.059
MS$FOCUSED_ION: PRECURSOR_TYPE [M+H]+
MS$DATA_PROCESSING: COMMENT Export with Spectra 1.9.12 MsBackendMassbank 1.7.4
MS$DATA_PROCESSING: WHOLE RMassBank 2.3.1
PK$SPLASH: splash10-0076-4290000000-02d5a105e495ac030867
PK$NUM_PEAK: 45
PK$PEAK: m/z int. rel.int.
  65.0369 1.8 37
  77.0364 0.5 10
  91.0525 47.5 999
  92.0603 1.8 37
  94.0384 0.6 12
  103.0532 0.5 10
  119.0464 4.6 96
  120.0546 4.1 86
  121.0264 1.3 27
  121.0627 1.3 27
  128.0594 0.7 14
  129.0664 0.6 12
  129.9831 1.2 25
  131.047 1.4 29
  143.9992 0.6 12
  147.994 1.7 35
  158.0142 0.6 12
  158.0375 0.7 14
  159.0455 2.5 52
  169.0068 0.7 14
  176.0493 3.6 75
  182.0146 0.8 16
  183.0626 0.7 14
  184.0526 0.6 12
  185.0617 1.5 31
  187.0404 1.5 31
  194.0136 0.9 18
  202.0633 1 21
  203.0715 2.7 56
  204.0444 0.6 12
  210.0101 1.2 25
  210.0458 1.1 23
  216.0421 0.5 10
  219.0224 0.6 12
  220.0301 1.5 31
  222.0104 36.2 761
  222.0379 0.6 12
  223.0162 1 21
  230.058 0.8 16
  231.0679 1.5 31
  238.006 11.3 237
  238.0411 18.2 382
  239.0124 6.1 128
  266.0358 8.8 185
  276.0203 2.9 60
//
