ACCESSION: MSBNK-BAFG-CSL25010634483
RECORD_TITLE: Disperse brown 1; LC-ESI-QTOF; MS2; 120 V
DATE: 2025.01.06
AUTHORS: Ole Lessmann; Kevin S. Jewell; Björn Ehlig; Arne Wick
LICENSE: dl-de/by-2-0
COPYRIGHT: Copyright 2025 Federal Institute of Hydrology, Koblenz, Germany
COMMENT: CONFIDENCE Reference Standard (Level 1)
COMMENT: Chromatography method: dx.doi.org/10.1016/j.chroma.2015.11.014
COMMENT: Acquisition method: 10.1002/rcm.8541
CH$NAME: Disperse brown 1
CH$FORMULA: C16H15Cl3N4O4
CH$EXACT_MASS: 432.0159
CH$SMILES: C1=CC(=C(C=C1N(CCO)CCO)Cl)N=NC2=C(C=C(C=C2Cl)[N+](=O)[O-])Cl
CH$IUPAC: InChI=1S/C16H15Cl3N4O4/c17-12-7-10(22(3-5-24)4-6-25)1-2-15(12)20-21-16-13(18)8-11(23(26)27)9-14(16)19/h1-2,7-9,24-25H,3-6H2
CH$LINK: CAS 23355-64-8
CH$LINK: INCHIKEY HXXLWTPFYWMBSC-UHFFFAOYSA-N
AC$INSTRUMENT: TripleTOF 6600 SCIEX
AC$INSTRUMENT_TYPE: LC-ESI-QTOF
AC$MASS_SPECTROMETRY: MS_TYPE MS2
AC$MASS_SPECTROMETRY: ION_MODE POSITIVE
AC$MASS_SPECTROMETRY: COLLISION_ENERGY 120
AC$MASS_SPECTROMETRY: FRAGMENTATION_MODE CID
AC$MASS_SPECTROMETRY: IONIZATION ESI
AC$CHROMATOGRAPHY: COLUMN_NAME Zorbax Eclipse Plus C18 2.1 mm x 150 mm, 3.5 um, Agilent
AC$CHROMATOGRAPHY: COLUMN_TEMPERATURE 40 °C
AC$CHROMATOGRAPHY: FLOW_GRADIENT 0 min min 98% A, 1 min 98% A, 2 min 80% A, 16.5 min 2% A, 22 min 2% A, 22.1 min 98% A, 27 min 98% A
AC$CHROMATOGRAPHY: FLOW_RATE 0.3 mL/min
AC$CHROMATOGRAPHY: RETENTION_TIME 12.39 min
AC$CHROMATOGRAPHY: SOLVENT A: Water 0.1% Formic acid, B: Acetonitrile 0.1% Formic acid
MS$FOCUSED_ION: PRECURSOR_M/Z 433.0232
MS$FOCUSED_ION: PRECURSOR_TYPE [M+H]+
MS$DATA_PROCESSING: COMMENT Export with pycsl 0.1.0.dev1 and CSL 24.4
PK$SPLASH: splash10-0a6r-8900000000-b457221a11817bc2c50d
PK$NUM_PEAK: 44
PK$PEAK: m/z int. rel.int.
  45.0333 0.5 56
  51.0233 0.9 101
  62.0144 0.4 44
  63.0233 1.2 134
  65.0385 0.8 89
  72.9841 1.8 202
  74.0148 3.8 426
  75.0229 1.9 213
  76.0168 2.2 246
  77.0383 1.8 202
  78.0343 0.8 89
  80.9746 0.5 56
  83.9757 1.3 145
  89.0398 1.6 179
  90.033 2.6 291
  90.0459 0.4 44
  91.0411 0.4 44
  91.0511 0.7 78
  92.0506 0.8 89
  96.9842 0.8 89
  99.0001 0.6 67
  102.0382 0.6 67
  103.0316 0.8 89
  104.0497 2.2 246
  105.0486 0.8 89
  107.9769 2.8 314
  108.9836 8.9 999
  111.0004 0.5 56
  117.0527 1.2 134
  117.0629 0.6 67
  117.9355 0.4 44
  118.0564 2.0 224
  123.0214 0.6 67
  123.9926 1.5 168
  126.0097 0.5 56
  130.0645 0.6 67
  138.0099 0.5 56
  139.0223 0.4 44
  142.948 0.6 67
  143.9516 0.4 44
  149.0396 0.5 56
  150.0469 0.7 78
  152.0077 0.5 56
  164.0487 0.4 44
//