ACCESSION: MSBNK-BAFG-CSL25011734612
RECORD_TITLE: N-[2-[(2-Bromo-4,6-dinitrophenyl)azo]-5-(diethylamino)phenyl]acetamide; LC-ESI-QTOF; MS2; 40 V
DATE: 2025.01.17
AUTHORS: Ole Lessmann; Kevin S. Jewell; Björn Ehlig; Arne Wick
LICENSE: dl-de/by-2-0
COPYRIGHT: Copyright 2025 Federal Institute of Hydrology, Koblenz, Germany
COMMENT: CONFIDENCE Reference Standard (Level 1)
COMMENT: Chromatography method: dx.doi.org/10.1016/j.chroma.2015.11.014
CH$NAME: N-[2-[(2-Bromo-4,6-dinitrophenyl)azo]-5-(diethylamino)phenyl]acetamide
CH$FORMULA: C18H19BrN6O5
CH$EXACT_MASS: 478.06
CH$SMILES: CCN(CC)C1=CC(=C(C=C1)N=NC2=C(C=C(C=C2Br)[N+](=O)[O-])[N+](=O)[O-])NC(=O)C
CH$IUPAC: InChI=1S/C18H19BrN6O5/c1-4-23(5-2)12-6-7-15(16(9-12)20-11(3)26)21-22-18-14(19)8-13(24(27)28)10-17(18)25(29)30/h6-10H,4-5H2,1-3H3,(H,20,26)
CH$LINK: CAS 52697-38-8
CH$LINK: INCHIKEY WFFKSTRPZWRBEW-UHFFFAOYSA-N
AC$INSTRUMENT: TripleTOF 6600 SCIEX
AC$INSTRUMENT_TYPE: LC-ESI-QTOF
AC$MASS_SPECTROMETRY: MS_TYPE MS2
AC$MASS_SPECTROMETRY: ION_MODE POSITIVE
AC$MASS_SPECTROMETRY: COLLISION_ENERGY 40
AC$MASS_SPECTROMETRY: FRAGMENTATION_MODE CID
AC$MASS_SPECTROMETRY: IONIZATION ESI
AC$CHROMATOGRAPHY: COLUMN_NAME Zorbax Eclipse Plus C18 2.1 mm x 150 mm, 3.5 um, Agilent
AC$CHROMATOGRAPHY: COLUMN_TEMPERATURE 40 °C
AC$CHROMATOGRAPHY: FLOW_GRADIENT 0 min min 98% A, 1 min 98% A, 2 min 80% A, 16.5 min 2% A, 22 min 2% A, 22.1 min 98% A, 27 min 98% A
AC$CHROMATOGRAPHY: FLOW_RATE 0.3 mL/min
AC$CHROMATOGRAPHY: RETENTION_TIME 16.579 min
AC$CHROMATOGRAPHY: SOLVENT A: Water 0.1% Formic acid, B: Acetonitrile 0.1% Formic acid
MS$FOCUSED_ION: PRECURSOR_M/Z 479.0673
MS$FOCUSED_ION: PRECURSOR_TYPE [M+H]+
MS$DATA_PROCESSING: COMMENT Export with pycsl 0.1.0.dev1 and CSL 25.0
PK$SPLASH: splash10-002f-0920400000-d7f5ae16c389fd4a7dde
PK$NUM_PEAK: 23
PK$PEAK: m/z int. rel.int.
  121.0743 4.1 12
  134.0696 5.7 16
  148.0861 10.0 29
  149.1048 6.7 19
  162.1011 38.2 112
  163.0859 19.8 58
  163.12 15.5 45
  177.1017 99.0 292
  178.1086 14.2 41
  191.1167 338.3 999
  204.1135 6.3 18
  205.1086 8.4 24
  206.1398 108.1 319
  345.0461 6.1 18
  375.037 3.9 11
  376.036 3.7 10
  390.061 4.0 11
  391.0592 8.4 24
  409.0267 19.4 57
  420.056 7.4 21
  437.0551 123.6 364
  450.0282 10.5 31
  479.0659 128.4 379
//
