ACCESSION: MSBNK-BAFG-CSL25010627979
RECORD_TITLE: Alizarin; LC-ESI-QTOF; MS2; 40 V
DATE: 2025.01.06
AUTHORS: Ole Lessmann; Kevin S. Jewell; Björn Ehlig; Arne Wick
LICENSE: dl-de/by-2-0
COPYRIGHT: Copyright 2025 Federal Institute of Hydrology, Koblenz, Germany
COMMENT: CONFIDENCE Reference Standard (Level 1)
COMMENT: Chromatography method: dx.doi.org/10.1016/j.chroma.2015.11.014
COMMENT: Acquisition method: 10.1002/rcm.8541
CH$NAME: Alizarin
CH$FORMULA: C14H8O4
CH$EXACT_MASS: 240.0423
CH$SMILES: C1=CC=C2C(=C1)C(=O)C3=C(C2=O)C(=C(C=C3)O)O
CH$IUPAC: InChI=1S/C14H8O4/c15-10-6-5-9-11(14(10)18)13(17)8-4-2-1-3-7(8)12(9)16/h1-6,15,18H
CH$LINK: CAS 72-48-0
CH$LINK: INCHIKEY RGCKGOZRHPZPFP-UHFFFAOYSA-N
AC$INSTRUMENT: TripleTOF X500R SCIEX
AC$INSTRUMENT_TYPE: LC-ESI-QTOF
AC$MASS_SPECTROMETRY: MS_TYPE MS2
AC$MASS_SPECTROMETRY: ION_MODE POSITIVE
AC$MASS_SPECTROMETRY: COLLISION_ENERGY 40
AC$MASS_SPECTROMETRY: FRAGMENTATION_MODE CID
AC$MASS_SPECTROMETRY: IONIZATION ESI
AC$CHROMATOGRAPHY: COLUMN_NAME Zorbax Eclipse Plus C18 2.1 mm x 150 mm, 3.5 um, Agilent
AC$CHROMATOGRAPHY: COLUMN_TEMPERATURE 40 °C
AC$CHROMATOGRAPHY: FLOW_GRADIENT 0 min min 98% A, 1 min 98% A, 2 min 80% A, 16.5 min 2% A, 22 min 2% A, 22.1 min 98% A, 27 min 98% A
AC$CHROMATOGRAPHY: FLOW_RATE 0.3 mL/min
AC$CHROMATOGRAPHY: RETENTION_TIME 10.763 min
AC$CHROMATOGRAPHY: SOLVENT A: Water 0.1% Formic acid, B: Acetonitrile 0.1% Formic acid
MS$FOCUSED_ION: PRECURSOR_M/Z 241.0496
MS$FOCUSED_ION: PRECURSOR_TYPE [M+H]+
MS$DATA_PROCESSING: COMMENT Export with pycsl 0.1.0.dev1 and CSL 24.4
PK$SPLASH: splash10-0573-0920000000-fc7e5c5ddc988a8faf81
PK$NUM_PEAK: 18
PK$PEAK: m/z int. rel.int.
  77.0377 0.4 23
  105.0328 1.1 65
  107.0132 0.9 53
  113.04 0.5 29
  115.0555 0.9 53
  127.0552 3.6 212
  128.0632 13.9 821
  129.0704 10.8 638
  137.0254 1.0 59
  139.0551 16.8 993
  141.069 0.6 35
  149.0251 0.6 35
  157.0656 16.9 999
  167.0506 6.7 396
  185.0605 9.8 579
  195.0439 3.9 230
  213.056 6.9 407
  241.0504 15.5 916
//