ACCESSION: MSBNK-BAFG-CSL2310253671
RECORD_TITLE: 2-Morpholin-4-yl-benzothiazole; LC-ESI-QTOF; MS2; 100 V
DATE: 2023.10.25
AUTHORS: Kevin S. Jewell; Björn Ehlig; Arne Wick
LICENSE: dl-de/by-2-0
COPYRIGHT: Copyright 2023 Federal Institute of Hydrology, Koblenz, Germany
COMMENT: CONFIDENCE Reference Standard (Level 1)
COMMENT: Chromatography method: dx.doi.org/10.1016/j.chroma.2015.11.014
COMMENT: Acquisition method: 10.1002/rcm.8541
CH$NAME: 2-Morpholin-4-yl-benzothiazole
CH$COMPOUND_CLASS: Industrial_process
CH$FORMULA: C11H12N2OS
CH$EXACT_MASS: 220.067
CH$SMILES: c1ccc2c(c1)nc(s2)N3CCOCC3
CH$IUPAC: InChI=1S/C11H12N2OS/c1-2-4-10-9(3-1)12-11(15-10)13-5-7-14-8-6-13/h1-4H,5-8H2
CH$LINK: CAS 4225-26-7
CH$LINK: INCHIKEY VVUVJGRVEYHIHC-UHFFFAOYSA-N
AC$INSTRUMENT: TripleTOF 5600 SCIEX
AC$INSTRUMENT_TYPE: LC-ESI-QTOF
AC$MASS_SPECTROMETRY: MS_TYPE MS2
AC$MASS_SPECTROMETRY: ION_MODE POSITIVE
AC$MASS_SPECTROMETRY: COLLISION_ENERGY 100
AC$MASS_SPECTROMETRY: FRAGMENTATION_MODE CID
AC$MASS_SPECTROMETRY: IONIZATION ESI
AC$CHROMATOGRAPHY: COLUMN_NAME Zorbax Eclipse Plus C18 2.1 mm x 150 mm, 3.5 um, Agilent
AC$CHROMATOGRAPHY: COLUMN_TEMPERATURE 40 °C
AC$CHROMATOGRAPHY: FLOW_GRADIENT 0 min min 98% A, 1 min 98% A, 2 min 80% A, 16.5 min 2% A, 22 min 2% A, 22.1 min 98% A, 27 min 98% A
AC$CHROMATOGRAPHY: FLOW_RATE 0.3 mL/min
AC$CHROMATOGRAPHY: RETENTION_TIME 9.363 min
AC$CHROMATOGRAPHY: SOLVENT A: Water 0.1% Formic acid, B: Acetonitrile 0.1% Formic acid
MS$FOCUSED_ION: PRECURSOR_M/Z 221.0743
MS$FOCUSED_ION: PRECURSOR_TYPE [M+H]+
MS$DATA_PROCESSING: COMMENT Export with Spectra 1.9.12 MsBackendMassbank 1.7.4
MS$DATA_PROCESSING: WHOLE RMassBank 2.3.1
PK$SPLASH: splash10-014i-9100000000-911f99d70001050e19b4
PK$NUM_PEAK: 45
PK$PEAK: m/z int. rel.int.
  37.0145 1.2 28
  51.029 7.8 186
  52.0348 0.6 14
  53.0428 2.7 64
  57.9926 2 47
  64.0331 1.3 31
  64.0429 0.8 19
  64.0556 0.5 11
  65.0432 24.9 596
  67.9744 2.1 50
  68.9833 41.7 999
  69.0135 0.7 16
  69.0298 0.6 14
  69.9896 5.1 122
  74.0171 0.7 16
  75.0242 0.8 19
  76.0306 0.8 19
  77.041 8 191
  78.0363 0.9 21
  78.05 0.4 9
  80.0517 4.3 103
  80.9804 1.1 26
  81.9895 9.9 237
  89.0394 6.5 155
  90.0396 2.9 69
  91.0421 1.8 43
  91.053 1.6 38
  91.9757 0.5 11
  92.98 4.1 98
  93.976 0.5 11
  94.9955 6.7 160
  96.0034 6.3 150
  97.0108 0.7 16
  104.0491 0.4 9
  105.0475 0.7 16
  106.9968 1.5 35
  108.0023 12 287
  109.0101 5.3 126
  115.054 0.6 14
  117.0551 0.8 19
  121.0078 0.5 11
  122.0045 1.5 35
  128.0604 1 23
  133.0004 0.5 11
  136.0215 0.5 11
//
