ACCESSION: MSBNK-BAFG-CSL23111013028
RECORD_TITLE: Tryptamine; LC-ESI-QTOF; MS2; 40 V
DATE: 2023.11.10
AUTHORS: Kevin S. Jewell; Björn Ehlig; Arne Wick
LICENSE: dl-de/by-2-0
COPYRIGHT: Copyright 2023 Federal Institute of Hydrology, Koblenz, Germany
COMMENT: CONFIDENCE Reference Standard (Level 1)
COMMENT: Chromatography method: dx.doi.org/10.1016/j.chroma.2015.11.014
COMMENT: Acquisition method: 10.1002/rcm.8541
CH$NAME: Tryptamine
CH$COMPOUND_CLASS: Metabolite
CH$FORMULA: C10H12N2
CH$EXACT_MASS: 160.1
CH$SMILES: C1=CC=C2C(=C1)C(=CN2)CCN
CH$IUPAC: InChI=1S/C10H12N2/c11-6-5-8-7-12-10-4-2-1-3-9(8)10/h1-4,7,12H,5-6,11H2
CH$LINK: CAS 61-54-1
CH$LINK: INCHIKEY APJYDQYYACXCRM-UHFFFAOYSA-N
AC$INSTRUMENT: TripleTOF 5600 SCIEX
AC$INSTRUMENT_TYPE: LC-ESI-QTOF
AC$MASS_SPECTROMETRY: MS_TYPE MS2
AC$MASS_SPECTROMETRY: ION_MODE POSITIVE
AC$MASS_SPECTROMETRY: COLLISION_ENERGY 40
AC$MASS_SPECTROMETRY: FRAGMENTATION_MODE CID
AC$MASS_SPECTROMETRY: IONIZATION ESI
AC$CHROMATOGRAPHY: COLUMN_NAME Zorbax Eclipse Plus C18 2.1 mm x 150 mm, 3.5 um, Agilent
AC$CHROMATOGRAPHY: COLUMN_TEMPERATURE 40 °C
AC$CHROMATOGRAPHY: FLOW_GRADIENT 0 min min 98% A, 1 min 98% A, 2 min 80% A, 16.5 min 2% A, 22 min 2% A, 22.1 min 98% A, 27 min 98% A
AC$CHROMATOGRAPHY: FLOW_RATE 0.3 mL/min
AC$CHROMATOGRAPHY: RETENTION_TIME 4.966 min
AC$CHROMATOGRAPHY: SOLVENT A: Water 0.1% Formic acid, B: Acetonitrile 0.1% Formic acid
MS$FOCUSED_ION: PRECURSOR_M/Z 161.1073
MS$FOCUSED_ION: PRECURSOR_TYPE [M+H]+
MS$DATA_PROCESSING: COMMENT Export with Spectra 1.9.12 MsBackendMassbank 1.7.4
MS$DATA_PROCESSING: WHOLE RMassBank 2.3.1
PK$SPLASH: splash10-00kf-1900000000-b38bd27ee04aec52d660
PK$NUM_PEAK: 22
PK$PEAK: m/z int. rel.int.
  51.0223 0.5 15
  65.0388 1.2 37
  77.039 5.5 172
  89.0389 2.9 90
  90.0471 2.1 65
  91.0544 14.5 454
  101.0392 0.7 21
  102.0474 0.9 28
  103.0545 2.2 68
  115.0548 30.4 952
  116.0503 2.1 65
  116.0612 3.2 100
  117.063 30.4 952
  118.0661 1.1 34
  126.0475 1.2 37
  127.054 14.7 460
  128.0501 6.9 216
  129.0564 1.4 43
  130.0703 0.5 15
  142.0651 4.1 128
  143.0737 31.9 999
  144.0812 18.6 582
//
