ACCESSION: MSBNK-BAFG-CSL2310261458
RECORD_TITLE: Emtricitabine carboxylic acid; LC-ESI-QTOF; MS2; 20 V
DATE: 2023.10.26
AUTHORS: Kevin S. Jewell; Björn Ehlig; Arne Wick
LICENSE: dl-de/by-2-0
COPYRIGHT: Copyright 2023 Federal Institute of Hydrology, Koblenz, Germany
COMMENT: CONFIDENCE Reference Standard (Level 1)
COMMENT: Chromatography method: dx.doi.org/10.1016/j.chroma.2015.11.014
COMMENT: Acquisition method: 10.1002/rcm.8541
CH$NAME: Emtricitabine carboxylic acid
CH$COMPOUND_CLASS: Pharmaceutical; Metabolite; Transformation_product
CH$FORMULA: C8H8FN3O4S
CH$EXACT_MASS: 261.022
CH$SMILES: C1C(OC(S1)C(=O)O)N2C=C(C(=NC2=O)N)F
CH$IUPAC: InChI=1S/C8H8FN3O4S/c9-3-1-12(8(15)11-5(3)10)4-2-17-7(16-4)6(13)14/h1,4,7H,2H2,(H,13,14)(H2,10,11,15)
CH$LINK: CAS 1238210-10-0
CH$LINK: INCHIKEY GQHACZWRCOKKIZ-UHFFFAOYSA-N
AC$INSTRUMENT: TripleTOF 5600 SCIEX
AC$INSTRUMENT_TYPE: LC-ESI-QTOF
AC$MASS_SPECTROMETRY: MS_TYPE MS2
AC$MASS_SPECTROMETRY: ION_MODE NEGATIVE
AC$MASS_SPECTROMETRY: COLLISION_ENERGY 20
AC$MASS_SPECTROMETRY: FRAGMENTATION_MODE CID
AC$MASS_SPECTROMETRY: IONIZATION ESI
AC$CHROMATOGRAPHY: COLUMN_NAME Zorbax Eclipse Plus C18 2.1 mm x 150 mm, 3.5 um, Agilent
AC$CHROMATOGRAPHY: COLUMN_TEMPERATURE 40 °C
AC$CHROMATOGRAPHY: FLOW_GRADIENT 0 min min 98% A, 1 min 98% A, 2 min 80% A, 16.5 min 2% A, 22 min 2% A, 22.1 min 98% A, 27 min 98% A
AC$CHROMATOGRAPHY: FLOW_RATE 0.3 mL/min
AC$CHROMATOGRAPHY: RETENTION_TIME 4.486 min
AC$CHROMATOGRAPHY: SOLVENT A: Water 0.1% Formic acid, B: Acetonitrile 0.1% Formic acid
MS$FOCUSED_ION: PRECURSOR_M/Z 260.0147
MS$FOCUSED_ION: PRECURSOR_TYPE [M-H]-
MS$DATA_PROCESSING: COMMENT Export with Spectra 1.9.12 MsBackendMassbank 1.7.4
MS$DATA_PROCESSING: WHOLE RMassBank 2.3.1
PK$SPLASH: splash10-01ti-2910000000-ac4bc58f3de3e7b2512d
PK$NUM_PEAK: 7
PK$PEAK: m/z int. rel.int.
  60.9764 1.2 112
  72.9935 4 373
  123.0054 0.7 65
  128.027 10.7 999
  152.0273 0.8 74
  186.0146 9.5 886
  260.0152 4.7 438
//
