ACCESSION: MSBNK-BAFG-CSL23102518427
RECORD_TITLE: Proadifen; LC-ESI-QTOF; MS2; 90 V
DATE: 2023.10.25
AUTHORS: Kevin S. Jewell; Björn Ehlig; Arne Wick
LICENSE: dl-de/by-2-0
COPYRIGHT: Copyright 2023 Federal Institute of Hydrology, Koblenz, Germany
COMMENT: CONFIDENCE Reference Standard (Level 1)
COMMENT: Chromatography method: dx.doi.org/10.1016/j.chroma.2015.11.014
COMMENT: Acquisition method: 10.1002/rcm.8541
CH$NAME: Proadifen
CH$FORMULA: C23H31NO2
CH$EXACT_MASS: 353.2355
CH$SMILES: CCCC(C1=CC=CC=C1)(C2=CC=CC=C2)C(=O)OCCN(CC)CC
CH$IUPAC: InChI=1S/C23H31NO2/c1-4-17-23(20-13-9-7-10-14-20,21-15-11-8-12-16-21)22(25)26-19-18-24(5-2)6-3/h7-16H,4-6,17-19H2,1-3H3
CH$LINK: CAS 302-33-0
CH$LINK: INCHIKEY SNTQPLDRUZOSDP-UHFFFAOYSA-N
AC$INSTRUMENT: TripleTOF 6600 SCIEX
AC$INSTRUMENT_TYPE: LC-ESI-QTOF
AC$MASS_SPECTROMETRY: MS_TYPE MS2
AC$MASS_SPECTROMETRY: ION_MODE POSITIVE
AC$MASS_SPECTROMETRY: COLLISION_ENERGY 90
AC$MASS_SPECTROMETRY: FRAGMENTATION_MODE CID
AC$MASS_SPECTROMETRY: IONIZATION ESI
AC$CHROMATOGRAPHY: COLUMN_NAME Zorbax Eclipse Plus C18 2.1 mm x 150 mm, 3.5 um, Agilent
AC$CHROMATOGRAPHY: COLUMN_TEMPERATURE 40 °C
AC$CHROMATOGRAPHY: FLOW_GRADIENT 0 min min 98% A, 1 min 98% A, 2 min 80% A, 16.5 min 2% A, 22 min 2% A, 22.1 min 98% A, 27 min 98% A
AC$CHROMATOGRAPHY: FLOW_RATE 0.3 mL/min
AC$CHROMATOGRAPHY: RETENTION_TIME 9.831 min
AC$CHROMATOGRAPHY: SOLVENT A: Water 0.1% Formic acid, B: Acetonitrile 0.1% Formic acid
MS$FOCUSED_ION: PRECURSOR_M/Z 354.2428
MS$FOCUSED_ION: PRECURSOR_TYPE [M+H]+
MS$DATA_PROCESSING: COMMENT Export with Spectra 1.9.12 MsBackendMassbank 1.7.4
MS$DATA_PROCESSING: WHOLE RMassBank 2.3.1
PK$SPLASH: splash10-014l-7900000000-1451772632859da593de
PK$NUM_PEAK: 27
PK$PEAK: m/z int. rel.int.
  39.0217 28.8 37
  41.0375 7.9 10
  44.0485 32 41
  51.0215 22.1 28
  63.0211 10.6 13
  65.0373 219.3 286
  77.0371 264.6 345
  79.0529 78.6 102
  91.0528 764.3 999
  102.0449 8.6 11
  103.0525 72.1 94
  105.0343 31.1 40
  105.0681 87.5 114
  115.0525 77.4 101
  116.0601 11.4 14
  128.0603 64.3 84
  139.0521 14.3 18
  141.0684 34.1 44
  150.0431 8.8 11
  151.0523 55.8 72
  152.061 449.7 587
  163.0526 11.7 15
  164.0604 50.1 65
  165.069 724.9 947
  166.0759 62.3 81
  167.0845 19.1 24
  178.0767 19.4 25
//
