ACCESSION: MSBNK-BAFG-CSL25010627957
RECORD_TITLE: 4-[(4-Aminophenyl)(4-iminocyclohexa-2,5-dien-1-ylidene)methyl]-2-methylaniline; LC-ESI-QTOF; MS2; 50 V
DATE: 2025.01.06
AUTHORS: Ole Lessmann; Kevin S. Jewell; Björn Ehlig; Arne Wick
LICENSE: dl-de/by-2-0
COPYRIGHT: Copyright 2025 Federal Institute of Hydrology, Koblenz, Germany
COMMENT: CONFIDENCE Reference Standard (Level 1)
COMMENT: Chromatography method: dx.doi.org/10.1016/j.chroma.2015.11.014
COMMENT: Acquisition method: 10.1002/rcm.8541
CH$NAME: 4-[(4-Aminophenyl)(4-iminocyclohexa-2,5-dien-1-ylidene)methyl]-2-methylaniline
CH$FORMULA: C20H19N3
CH$EXACT_MASS: 301.1579
CH$SMILES: CC1=CC(=C(C2=CC=C(C=C2)N)C3=CC=C(C=C3)N)C=CC1=N
CH$IUPAC: InChI=1S/C20H19N3/c1-13-12-16(6-11-19(13)23)20(14-2-7-17(21)8-3-14)15-4-9-18(22)10-5-15/h2-12,23H,21-22H2,1H3
CH$LINK: CAS 3248-93-9
CH$LINK: INCHIKEY YDCMWLQSPFTWCS-UHFFFAOYSA-N
AC$INSTRUMENT: TripleTOF X500R SCIEX
AC$INSTRUMENT_TYPE: LC-ESI-QTOF
AC$MASS_SPECTROMETRY: MS_TYPE MS2
AC$MASS_SPECTROMETRY: ION_MODE POSITIVE
AC$MASS_SPECTROMETRY: COLLISION_ENERGY 50
AC$MASS_SPECTROMETRY: FRAGMENTATION_MODE CID
AC$MASS_SPECTROMETRY: IONIZATION ESI
AC$CHROMATOGRAPHY: COLUMN_NAME Zorbax Eclipse Plus C18 2.1 mm x 150 mm, 3.5 um, Agilent
AC$CHROMATOGRAPHY: COLUMN_TEMPERATURE 40 °C
AC$CHROMATOGRAPHY: FLOW_GRADIENT 0 min min 98% A, 1 min 98% A, 2 min 80% A, 16.5 min 2% A, 22 min 2% A, 22.1 min 98% A, 27 min 98% A
AC$CHROMATOGRAPHY: FLOW_RATE 0.3 mL/min
AC$CHROMATOGRAPHY: RETENTION_TIME 7.598 min
AC$CHROMATOGRAPHY: SOLVENT A: Water 0.1% Formic acid, B: Acetonitrile 0.1% Formic acid
MS$FOCUSED_ION: PRECURSOR_M/Z 302.1652
MS$FOCUSED_ION: PRECURSOR_TYPE [M+H]+
MS$DATA_PROCESSING: COMMENT Export with pycsl 0.1.0.dev1 and CSL 24.4
PK$SPLASH: splash10-0a4s-0590000000-58edf638648842afc795
PK$NUM_PEAK: 87
PK$PEAK: m/z int. rel.int.
  106.0659 10.4 99
  115.055 1.9 18
  130.0664 1.1 10
  140.0502 1.3 12
  141.0701 3.2 30
  143.0736 3.3 31
  150.0477 1.3 12
  151.0544 8.7 83
  152.0617 2.6 24
  153.0706 1.6 15
  154.0656 3.2 30
  155.0789 1.2 11
  164.0633 1.5 14
  165.0707 18.5 177
  166.0683 3.8 36
  167.0734 21.8 209
  168.081 18.1 173
  169.083 2.1 20
  176.0619 1.1 10
  177.0583 3.3 31
  178.0658 11.7 112
  179.0704 1.9 18
  180.0801 7.5 71
  181.0891 5.7 54
  182.0969 11.1 106
  190.0656 1.3 12
  191.0737 7.5 71
  192.0816 13.0 124
  193.0877 27.1 260
  194.0853 17.1 164
  195.0923 86.0 825
  201.0712 1.2 11
  202.0775 1.5 14
  206.0868 1.7 16
  207.0936 4.3 41
  208.1004 27.6 264
  209.1079 104.1 999
  215.0877 1.5 14
  216.0855 1.1 10
  217.0906 3.5 33
  218.0975 1.7 16
  219.0921 1.3 12
  221.1087 3.1 29
  226.0803 2.1 20
  227.0805 1.5 14
  228.0836 1.8 17
  229.0902 1.7 16
  230.097 5.1 48
  231.1022 1.6 15
  232.1037 1.2 11
  234.1144 1.3 12
  235.1242 1.4 13
  239.0877 2.3 22
  240.0862 1.7 16
  241.0887 2.4 23
  241.1067 1.2 11
  242.0975 3.4 32
  243.1037 5.7 54
  244.1102 3.1 29
  245.1085 9.9 95
  246.1158 3.5 33
  250.0787 1.3 12
  252.0866 3.7 35
  253.0915 1.8 17
  254.0971 11.4 109
  255.0951 4.2 40
  256.1041 4.5 43
  257.1059 2.7 25
  258.1159 4.5 43
  259.1243 5.0 47
  260.1245 2.0 19
  266.0972 1.4 13
  267.1053 5.2 49
  268.1125 7.7 73
  269.1076 32.0 307
  270.1176 10.7 102
  271.1233 41.4 397
  272.1198 10.4 99
  273.1265 1.6 15
  282.1175 1.1 10
  283.1227 3.8 36
  284.1294 4.2 40
  285.1392 19.6 188
  286.1345 64.1 615
  287.1433 12.3 118
  300.1509 6.8 65
  302.1661 26.3 252
//