ACCESSION: MSBNK-BAFG-CSL23102727062
RECORD_TITLE: Tetrahydroharman-3-carboxylic acid; LC-ESI-QTOF; MS2; 140 V
DATE: 2023.10.27
AUTHORS: Kevin S. Jewell; Björn Ehlig; Arne Wick
LICENSE: dl-de/by-2-0
COPYRIGHT: Copyright 2023 Federal Institute of Hydrology, Koblenz, Germany
COMMENT: CONFIDENCE Reference Standard (Level 1)
COMMENT: Chromatography method: dx.doi.org/10.1016/j.chroma.2015.11.014
COMMENT: Acquisition method: 10.1002/rcm.8541
CH$NAME: Tetrahydroharman-3-carboxylic acid
CH$FORMULA: C13H14N2O2
CH$EXACT_MASS: 230.1055
CH$SMILES: CC1C2=C(CC(N1)C(=O)O)C3=CC=CC=C3N2
CH$IUPAC: InChI=1S/C13H14N2O2/c1-7-12-9(6-11(14-7)13(16)17)8-4-2-3-5-10(8)15-12/h2-5,7,11,14-15H,6H2,1H3,(H,16,17)
CH$LINK: CAS 5470-37-1
CH$LINK: INCHIKEY ZUPHXNBLQCSEIA-UHFFFAOYSA-N
AC$INSTRUMENT: TripleTOF 6600 SCIEX
AC$INSTRUMENT_TYPE: LC-ESI-QTOF
AC$MASS_SPECTROMETRY: MS_TYPE MS2
AC$MASS_SPECTROMETRY: ION_MODE POSITIVE
AC$MASS_SPECTROMETRY: COLLISION_ENERGY 140
AC$MASS_SPECTROMETRY: FRAGMENTATION_MODE CID
AC$MASS_SPECTROMETRY: IONIZATION ESI
AC$CHROMATOGRAPHY: COLUMN_NAME Zorbax Eclipse Plus C18 2.1 mm x 150 mm, 3.5 um, Agilent
AC$CHROMATOGRAPHY: COLUMN_TEMPERATURE 40 °C
AC$CHROMATOGRAPHY: FLOW_GRADIENT 0 min min 98% A, 1 min 98% A, 2 min 80% A, 16.5 min 2% A, 22 min 2% A, 22.1 min 98% A, 27 min 98% A
AC$CHROMATOGRAPHY: FLOW_RATE 0.3 mL/min
AC$CHROMATOGRAPHY: RETENTION_TIME 5.62 min
AC$CHROMATOGRAPHY: SOLVENT A: Water 0.1% Formic acid, B: Acetonitrile 0.1% Formic acid
MS$FOCUSED_ION: PRECURSOR_M/Z 231.1128
MS$FOCUSED_ION: PRECURSOR_TYPE [M+H]+
MS$DATA_PROCESSING: COMMENT Export with Spectra 1.9.12 MsBackendMassbank 1.7.4
MS$DATA_PROCESSING: WHOLE RMassBank 2.3.1
PK$SPLASH: splash10-0ik9-9000000000-a2d699ddd813eda09a7d
PK$NUM_PEAK: 28
PK$PEAK: m/z int. rel.int.
  37.0068 2 140
  38.0151 2.1 147
  39.0227 5.8 408
  49.0065 1.2 84
  50.0152 14.2 999
  51.0227 11.2 787
  59.9969 1 70
  61.0062 5.6 393
  62.014 7.9 555
  63.0222 13.2 928
  65.0376 0.5 35
  73.0053 1.4 98
  74.0142 13.2 928
  75.0221 5.2 365
  76.0173 0.4 28
  76.0304 0.9 63
  77.0376 3.9 274
  85.0056 1.2 84
  86.0139 2.2 154
  87.0213 1.2 84
  88.0283 0.6 42
  89.0368 5.2 365
  98.0134 0.8 56
  102.0456 0.5 35
  113.037 0.9 63
  115.0531 0.7 49
  126.0433 0.4 28
  139.0513 0.5 35
//
