ACCESSION: MSBNK-BAFG-CSL23102617453
RECORD_TITLE: Cocaethylene; LC-ESI-QTOF; MS2; 60 V
DATE: 2023.10.26
AUTHORS: Kevin S. Jewell; Björn Ehlig; Arne Wick
LICENSE: dl-de/by-2-0
COPYRIGHT: Copyright 2023 Federal Institute of Hydrology, Koblenz, Germany
COMMENT: CONFIDENCE Reference Standard (Level 1)
COMMENT: Chromatography method: dx.doi.org/10.1016/j.chroma.2015.11.014
COMMENT: Acquisition method: 10.1002/rcm.8541
CH$NAME: Cocaethylene
CH$COMPOUND_CLASS: Metabolite
CH$FORMULA: C18H23NO4
CH$EXACT_MASS: 317.1627
CH$SMILES: CCOC(=O)C1C2CCC(N2C)CC1OC(=O)C3=CC=CC=C3
CH$IUPAC: InChI=1S/C18H23NO4/c1-3-22-18(21)16-14-10-9-13(19(14)2)11-15(16)23-17(20)12-7-5-4-6-8-12/h4-8,13-16H,3,9-11H2,1-2H3
CH$LINK: CAS 529-38-4
CH$LINK: INCHIKEY NMPOSNRHZIWLLL-UHFFFAOYSA-N
AC$INSTRUMENT: TripleTOF 6600 SCIEX
AC$INSTRUMENT_TYPE: LC-ESI-QTOF
AC$MASS_SPECTROMETRY: MS_TYPE MS2
AC$MASS_SPECTROMETRY: ION_MODE POSITIVE
AC$MASS_SPECTROMETRY: COLLISION_ENERGY 60
AC$MASS_SPECTROMETRY: FRAGMENTATION_MODE CID
AC$MASS_SPECTROMETRY: IONIZATION ESI
AC$CHROMATOGRAPHY: COLUMN_NAME Zorbax Eclipse Plus C18 2.1 mm x 150 mm, 3.5 um, Agilent
AC$CHROMATOGRAPHY: COLUMN_TEMPERATURE 40 °C
AC$CHROMATOGRAPHY: FLOW_GRADIENT 0 min min 98% A, 1 min 98% A, 2 min 80% A, 16.5 min 2% A, 22 min 2% A, 22.1 min 98% A, 27 min 98% A
AC$CHROMATOGRAPHY: FLOW_RATE 0.3 mL/min
AC$CHROMATOGRAPHY: RETENTION_TIME 7.013 min
AC$CHROMATOGRAPHY: SOLVENT A: Water 0.1% Formic acid, B: Acetonitrile 0.1% Formic acid
MS$FOCUSED_ION: PRECURSOR_M/Z 318.17
MS$FOCUSED_ION: PRECURSOR_TYPE [M+H]+
MS$DATA_PROCESSING: COMMENT Export with Spectra 1.9.12 MsBackendMassbank 1.7.4
MS$DATA_PROCESSING: WHOLE RMassBank 2.3.1
PK$SPLASH: splash10-003r-9200000000-334e5b09e46bffb4a09c
PK$NUM_PEAK: 40
PK$PEAK: m/z int. rel.int.
  41.0396 1.2 16
  42.0351 2.3 32
  44.0503 1.6 22
  50.016 0.9 12
  51.0238 2.6 36
  55.0188 0.9 12
  55.0554 2.9 40
  57.0584 1.4 19
  65.0396 6 84
  67.0434 3.7 52
  67.0546 14.6 205
  68.0505 8.5 119
  70.0657 1.8 25
  77.0398 52.3 736
  79.055 2.2 30
  80.0506 2.5 35
  81.0575 0.9 12
  81.0709 1.9 26
  82.0664 70.9 999
  83.0499 4.3 60
  83.0736 7.2 101
  91.0553 29.6 417
  93.0337 2.7 38
  93.0702 1.7 23
  94.0658 8.1 114
  95.0752 0.8 11
  96.0807 2.8 39
  105.0347 27 380
  106.0648 1 14
  107.0731 2.1 29
  108.0813 5.5 77
  111.0444 1.8 25
  117.0572 1.1 15
  119.0494 7 98
  122.0965 5.5 77
  135.0673 2 28
  140.0708 1.4 19
  150.0918 1.9 26
  168.1018 1.9 26
  196.1332 0.9 12
//
