ACCESSION: MSBNK-BAFG-CSL23102518222
RECORD_TITLE: 4-(2,4-Dichlorophenoxy)butanoic acid; LC-ESI-QTOF; MS2; 70 V
DATE: 2023.10.25
AUTHORS: Kevin S. Jewell; Björn Ehlig; Arne Wick
LICENSE: dl-de/by-2-0
COPYRIGHT: Copyright 2023 Federal Institute of Hydrology, Koblenz, Germany
COMMENT: CONFIDENCE Reference Standard (Level 1)
COMMENT: Chromatography method: dx.doi.org/10.1016/j.chroma.2015.11.014
COMMENT: Acquisition method: 10.1002/rcm.8541
CH$NAME: 4-(2,4-Dichlorophenoxy)butanoic acid
CH$COMPOUND_CLASS: Herbicide
CH$FORMULA: C10H10Cl2O3
CH$EXACT_MASS: 248.0007
CH$SMILES: C1=CC(=C(C=C1Cl)Cl)OCCCC(=O)O
CH$IUPAC: InChI=1S/C10H10Cl2O3/c11-7-3-4-9(8(12)6-7)15-5-1-2-10(13)14/h3-4,6H,1-2,5H2,(H,13,14)
CH$LINK: CAS 94-82-6
CH$LINK: INCHIKEY YIVXMZJTEQBPQO-UHFFFAOYSA-N
AC$INSTRUMENT: TripleTOF 6600 SCIEX
AC$INSTRUMENT_TYPE: LC-ESI-QTOF
AC$MASS_SPECTROMETRY: MS_TYPE MS2
AC$MASS_SPECTROMETRY: ION_MODE POSITIVE
AC$MASS_SPECTROMETRY: COLLISION_ENERGY 70
AC$MASS_SPECTROMETRY: FRAGMENTATION_MODE CID
AC$MASS_SPECTROMETRY: IONIZATION ESI
AC$CHROMATOGRAPHY: COLUMN_NAME Zorbax Eclipse Plus C18 2.1 mm x 150 mm, 3.5 um, Agilent
AC$CHROMATOGRAPHY: COLUMN_TEMPERATURE 40 °C
AC$CHROMATOGRAPHY: FLOW_GRADIENT 0 min min 98% A, 1 min 98% A, 2 min 80% A, 16.5 min 2% A, 22 min 2% A, 22.1 min 98% A, 27 min 98% A
AC$CHROMATOGRAPHY: FLOW_RATE 0.3 mL/min
AC$CHROMATOGRAPHY: RETENTION_TIME 11.685 min
AC$CHROMATOGRAPHY: SOLVENT A: Water 0.1% Formic acid, B: Acetonitrile 0.1% Formic acid
MS$FOCUSED_ION: PRECURSOR_M/Z 249.008
MS$FOCUSED_ION: PRECURSOR_TYPE [M+H]+
MS$DATA_PROCESSING: COMMENT Export with Spectra 1.9.12 MsBackendMassbank 1.7.4
MS$DATA_PROCESSING: WHOLE RMassBank 2.3.1
PK$SPLASH: splash10-0077-9100000000-440bc86393c5b5075fc3
PK$NUM_PEAK: 41
PK$PEAK: m/z int. rel.int.
  36 0.1 17
  37.0075 0.6 105
  38.0046 0.1 17
  38.0167 0.5 87
  39.0223 4.4 771
  41.0392 2.4 420
  43.0177 3.9 683
  43.0551 0.1 17
  44.9967 0.5 87
  45.0339 5.7 999
  51.024 0.2 35
  65.0384 0.2 35
  69.0312 0.4 70
  72.9841 1.3 227
  73.0064 0.2 35
  74.0145 2.1 368
  75.0226 1 175
  77.0391 0.7 122
  78.0479 0.1 17
  79.0523 0.2 35
  82.9452 1.1 192
  84.9823 0.2 35
  87.0412 0.1 17
  89.0368 0.3 52
  90.0471 0.2 35
  91.0546 0.2 35
  98.9979 0.3 52
  105.0675 0.1 17
  106.9449 0.1 17
  106.9534 0.2 35
  108.9838 2.4 420
  109.9947 0.1 17
  110.997 0.1 17
  112.0057 0.3 52
  115.0546 0.3 52
  125.012 0.2 35
  128.0028 0.2 35
  132.9597 1.4 245
  139.0091 0.1 17
  144.9609 0.3 52
  149.0179 0.1 17
//
