ACCESSION: MSBNK-BAFG-CSL23102514990
RECORD_TITLE: (5-Methoxy-5-oxopentyl)triphenylphosphonium; LC-ESI-QTOF; MS2; 150 V
DATE: 2023.10.25
AUTHORS: Kevin S. Jewell; Björn Ehlig; Arne Wick
LICENSE: dl-de/by-2-0
COPYRIGHT: Copyright 2023 Federal Institute of Hydrology, Koblenz, Germany
COMMENT: CONFIDENCE Reference Standard (Level 1)
COMMENT: Chromatography method: dx.doi.org/10.1016/j.chroma.2015.11.014
COMMENT: Acquisition method: 10.1002/rcm.8541
CH$NAME: (5-Methoxy-5-oxopentyl)triphenylphosphonium
CH$COMPOUND_CLASS: Industrial_process
CH$FORMULA: C24H26O2P
CH$EXACT_MASS: 377.1665
CH$SMILES: COC(=O)CCCC[P+](C1=CC=CC=C1)(C2=CC=CC=C2)C3=CC=CC=C3
CH$IUPAC: InChI=1S/C24H26O2P/c1-26-24(25)19-11-12-20-27(21-13-5-2-6-14-21,22-15-7-3-8-16-22)23-17-9-4-10-18-23/h2-10,13-18H,11-12,19-20H2,1H3/q+1
CH$LINK: CAS 79837-79-9
CH$LINK: INCHIKEY NESMDKFCXPKLCY-UHFFFAOYSA-N
AC$INSTRUMENT: TripleTOF 6600 SCIEX
AC$INSTRUMENT_TYPE: LC-ESI-QTOF
AC$MASS_SPECTROMETRY: MS_TYPE MS2
AC$MASS_SPECTROMETRY: ION_MODE POSITIVE
AC$MASS_SPECTROMETRY: COLLISION_ENERGY 150
AC$MASS_SPECTROMETRY: FRAGMENTATION_MODE CID
AC$MASS_SPECTROMETRY: IONIZATION ESI
AC$CHROMATOGRAPHY: COLUMN_NAME Zorbax Eclipse Plus C18 2.1 mm x 150 mm, 3.5 um, Agilent
AC$CHROMATOGRAPHY: COLUMN_TEMPERATURE 40 °C
AC$CHROMATOGRAPHY: FLOW_GRADIENT 0 min min 98% A, 1 min 98% A, 2 min 80% A, 16.5 min 2% A, 22 min 2% A, 22.1 min 98% A, 27 min 98% A
AC$CHROMATOGRAPHY: FLOW_RATE 0.3 mL/min
AC$CHROMATOGRAPHY: RETENTION_TIME 8.303 min
AC$CHROMATOGRAPHY: SOLVENT A: Water 0.1% Formic acid, B: Acetonitrile 0.1% Formic acid
MS$FOCUSED_ION: PRECURSOR_M/Z 377.1665
MS$FOCUSED_ION: PRECURSOR_TYPE [M]+
MS$DATA_PROCESSING: COMMENT Export with Spectra 1.9.12 MsBackendMassbank 1.7.4
MS$DATA_PROCESSING: WHOLE RMassBank 2.3.1
PK$SPLASH: splash10-0zfr-1900000000-36cf2e718ef7a8c90987
PK$NUM_PEAK: 22
PK$PEAK: m/z int. rel.int.
  63.0268 67.5 190
  65.0426 32.3 90
  79.9842 69 194
  80.992 94.4 265
  89.0409 101.7 286
  102.0487 42.4 119
  107.0071 299.5 843
  113.0408 40 112
  115.0568 145.2 408
  126.0487 111.3 313
  131.0065 41 115
  133.0223 32.8 92
  139.0568 117.7 331
  150.0485 99.7 280
  151.0566 201.3 566
  152.0647 354.8 999
  156.0149 40.5 114
  157.0225 191.4 538
  181.0223 173.5 488
  183.0373 53.2 149
  226.0784 32.6 91
  257.0505 19 53
//
