ACCESSION: MSBNK-BAFG-CSL23110916812
RECORD_TITLE: 4-Hydroxydiphenylamine; LC-ESI-QTOF; MS2; 80 V
DATE: 2023.11.09
AUTHORS: Kevin S. Jewell; Björn Ehlig; Arne Wick
LICENSE: dl-de/by-2-0
COPYRIGHT: Copyright 2023 Federal Institute of Hydrology, Koblenz, Germany
COMMENT: CONFIDENCE Reference Standard (Level 1)
COMMENT: Chromatography method: dx.doi.org/10.1016/j.chroma.2015.11.014
COMMENT: Acquisition method: 10.1002/rcm.8541
CH$NAME: 4-Hydroxydiphenylamine
CH$COMPOUND_CLASS: Pesticide
CH$FORMULA: C12H11NO
CH$EXACT_MASS: 185.0841
CH$SMILES: C1=CC=C(C=C1)NC2=CC=C(C=C2)O
CH$IUPAC: InChI=1S/C12H11NO/c14-12-8-6-11(7-9-12)13-10-4-2-1-3-5-10/h1-9,13-14H
CH$LINK: CAS 122-37-2
CH$LINK: INCHIKEY JTTMYKSFKOOQLP-UHFFFAOYSA-N
AC$INSTRUMENT: TripleTOF 6600 SCIEX
AC$INSTRUMENT_TYPE: LC-ESI-QTOF
AC$MASS_SPECTROMETRY: MS_TYPE MS2
AC$MASS_SPECTROMETRY: ION_MODE POSITIVE
AC$MASS_SPECTROMETRY: COLLISION_ENERGY 80
AC$MASS_SPECTROMETRY: FRAGMENTATION_MODE CID
AC$MASS_SPECTROMETRY: IONIZATION ESI
AC$CHROMATOGRAPHY: COLUMN_NAME Zorbax Eclipse Plus C18 2.1 mm x 150 mm, 3.5 um, Agilent
AC$CHROMATOGRAPHY: COLUMN_TEMPERATURE 40 °C
AC$CHROMATOGRAPHY: FLOW_GRADIENT 0 min min 98% A, 1 min 98% A, 2 min 80% A, 16.5 min 2% A, 22 min 2% A, 22.1 min 98% A, 27 min 98% A
AC$CHROMATOGRAPHY: FLOW_RATE 0.3 mL/min
AC$CHROMATOGRAPHY: RETENTION_TIME 10.034 min
AC$CHROMATOGRAPHY: SOLVENT A: Water 0.1% Formic acid, B: Acetonitrile 0.1% Formic acid
MS$FOCUSED_ION: PRECURSOR_M/Z 186.0914
MS$FOCUSED_ION: PRECURSOR_TYPE [M+H]+
MS$DATA_PROCESSING: COMMENT Export with Spectra 1.9.12 MsBackendMassbank 1.7.4
MS$DATA_PROCESSING: WHOLE RMassBank 2.3.1
PK$SPLASH: splash10-001i-9000000000-68c87eda80b54eaef49e
PK$NUM_PEAK: 35
PK$PEAK: m/z int. rel.int.
  37.0068 2.6 49
  38.0146 2.3 44
  39.0223 13 249
  40.0296 0.9 17
  41.025 0.7 13
  42.0332 1.7 32
  44.0127 1.5 28
  49.0062 0.6 11
  50.0142 2.4 46
  51.0221 5.3 101
  52.0178 1.7 32
  53.0378 19.6 375
  54.0329 4.5 86
  55.0166 0.9 17
  62.0145 0.9 17
  63.0219 3.7 70
  64.0298 1 19
  65.0259 0.7 13
  65.0377 6.9 132
  66.033 1 19
  66.0454 4.1 78
  77.0371 1 19
  78.0325 1.5 28
  80.0487 52.1 999
  81.0324 3.5 67
  81.0553 0.7 13
  82.0404 0.8 15
  89.0379 0.8 15
  92.0494 1.7 32
  93.0563 2.2 42
  108.0425 3.2 61
  109.0517 2 38
  113.0378 0.5 9
  115.0514 0.6 11
  139.0527 1 19
//
