ACCESSION: MSBNK-BAFG-CSL23110927286
RECORD_TITLE: Spirodiclofen-enol; LC-ESI-QTOF; MS2; 40 V
DATE: 2023.11.09
AUTHORS: Kevin S. Jewell; Björn Ehlig; Arne Wick
LICENSE: dl-de/by-2-0
COPYRIGHT: Copyright 2023 Federal Institute of Hydrology, Koblenz, Germany
COMMENT: CONFIDENCE Reference Standard (Level 1)
COMMENT: Chromatography method: dx.doi.org/10.1016/j.chroma.2015.11.014
COMMENT: Acquisition method: 10.1002/rcm.8541
CH$NAME: Spirodiclofen-enol
CH$FORMULA: C15H14Cl2O3
CH$EXACT_MASS: 312.032
CH$SMILES: C1CCC2(CC1)C(=C(C(=O)O2)C3=C(C=C(C=C3)Cl)Cl)O
CH$IUPAC: InChI=1S/C15H14Cl2O3/c16-9-4-5-10(11(17)8-9)12-13(18)15(20-14(12)19)6-2-1-3-7-15/h4-5,8,18H,1-3,6-7H2
CH$LINK: CAS 148476-22-6
CH$LINK: INCHIKEY KIKARNYYJSEROI-UHFFFAOYSA-N
AC$INSTRUMENT: TripleTOF 6600 SCIEX
AC$INSTRUMENT_TYPE: LC-ESI-QTOF
AC$MASS_SPECTROMETRY: MS_TYPE MS2
AC$MASS_SPECTROMETRY: ION_MODE NEGATIVE
AC$MASS_SPECTROMETRY: COLLISION_ENERGY 40
AC$MASS_SPECTROMETRY: FRAGMENTATION_MODE CID
AC$MASS_SPECTROMETRY: IONIZATION ESI
AC$CHROMATOGRAPHY: COLUMN_NAME Zorbax Eclipse Plus C18 2.1 mm x 150 mm, 3.5 um, Agilent
AC$CHROMATOGRAPHY: COLUMN_TEMPERATURE 40 °C
AC$CHROMATOGRAPHY: FLOW_GRADIENT 0 min min 98% A, 1 min 98% A, 2 min 80% A, 16.5 min 2% A, 22 min 2% A, 22.1 min 98% A, 27 min 98% A
AC$CHROMATOGRAPHY: FLOW_RATE 0.3 mL/min
AC$CHROMATOGRAPHY: RETENTION_TIME 12.261 min
AC$CHROMATOGRAPHY: SOLVENT A: Water 0.1% Formic acid, B: Acetonitrile 0.1% Formic acid
MS$FOCUSED_ION: PRECURSOR_M/Z 311.0247
MS$FOCUSED_ION: PRECURSOR_TYPE [M-H]-
MS$DATA_PROCESSING: COMMENT Export with Spectra 1.9.12 MsBackendMassbank 1.7.4
MS$DATA_PROCESSING: WHOLE RMassBank 2.3.1
PK$SPLASH: splash10-03di-1109000000-f65da199602ddc346eeb
PK$NUM_PEAK: 5
PK$PEAK: m/z int. rel.int.
  34.97 261 112
  168.9619 327.9 141
  184.9565 108.9 47
  249.0242 186.5 80
  311.024 2314.3 999
//
