ACCESSION: MSBNK-BAFG-CSL23102518990
RECORD_TITLE: Fipronil; LC-ESI-QTOF; MS2; 80 V
DATE: 2023.10.25
AUTHORS: Kevin S. Jewell; Björn Ehlig; Arne Wick
LICENSE: dl-de/by-2-0
COPYRIGHT: Copyright 2023 Federal Institute of Hydrology, Koblenz, Germany
COMMENT: CONFIDENCE Reference Standard (Level 1)
COMMENT: Chromatography method: dx.doi.org/10.1016/j.chroma.2015.11.014
COMMENT: Acquisition method: 10.1002/rcm.8541
CH$NAME: Fipronil
CH$COMPOUND_CLASS: Insecticide
CH$FORMULA: C12H4Cl2F6N4OS
CH$EXACT_MASS: 435.9387
CH$SMILES: C1=C(C=C(C(=C1Cl)N2C(=C(C(=N2)C#N)S(=O)C(F)(F)F)N)Cl)C(F)(F)F
CH$IUPAC: InChI=1S/C12H4Cl2F6N4OS/c13-5-1-4(11(15,16)17)2-6(14)8(5)24-10(22)9(7(3-21)23-24)26(25)12(18,19)20/h1-2H,22H2
CH$LINK: CAS 120068-37-3
CH$LINK: INCHIKEY ZOCSXAVNDGMNBV-UHFFFAOYSA-N
AC$INSTRUMENT: TripleTOF 6600 SCIEX
AC$INSTRUMENT_TYPE: LC-ESI-QTOF
AC$MASS_SPECTROMETRY: MS_TYPE MS2
AC$MASS_SPECTROMETRY: ION_MODE NEGATIVE
AC$MASS_SPECTROMETRY: COLLISION_ENERGY 80
AC$MASS_SPECTROMETRY: FRAGMENTATION_MODE CID
AC$MASS_SPECTROMETRY: IONIZATION ESI
AC$CHROMATOGRAPHY: COLUMN_NAME Zorbax Eclipse Plus C18 2.1 mm x 150 mm, 3.5 um, Agilent
AC$CHROMATOGRAPHY: COLUMN_TEMPERATURE 40 °C
AC$CHROMATOGRAPHY: FLOW_GRADIENT 0 min min 98% A, 1 min 98% A, 2 min 80% A, 16.5 min 2% A, 22 min 2% A, 22.1 min 98% A, 27 min 98% A
AC$CHROMATOGRAPHY: FLOW_RATE 0.3 mL/min
AC$CHROMATOGRAPHY: RETENTION_TIME 13.577 min
AC$CHROMATOGRAPHY: SOLVENT A: Water 0.1% Formic acid, B: Acetonitrile 0.1% Formic acid
MS$FOCUSED_ION: PRECURSOR_M/Z 434.9314
MS$FOCUSED_ION: PRECURSOR_TYPE [M-H]-
MS$DATA_PROCESSING: COMMENT Export with Spectra 1.9.12 MsBackendMassbank 1.7.4
MS$DATA_PROCESSING: WHOLE RMassBank 2.3.1
PK$SPLASH: splash10-03ec-1920000000-7d62f38f46203d38f9c3
PK$NUM_PEAK: 40
PK$PEAK: m/z int. rel.int.
  34.9698 5.1 224
  50.0034 1 44
  57.9753 2 88
  76.0068 0.5 22
  77.0145 0.7 30
  86.0026 0.6 26
  88.0009 0.9 39
  98.0038 1.6 70
  112.0017 3.2 140
  113.0147 9 396
  135.9996 1 44
  143.0055 22.7 999
  148.0069 1.2 52
  148.9901 0.4 17
  154.9977 0.5 22
  162.0028 0.6 26
  163.0119 20.8 915
  166.9975 0.5 22
  180.9997 0.7 30
  182.0102 1.9 83
  183.0178 13.3 585
  188.0062 1.7 74
  198.0035 0.7 30
  199.0113 0.9 39
  203.9763 1.8 79
  205.0017 0.4 17
  207.0085 0.5 22
  208.0123 1.5 66
  212.0075 1.7 74
  213.9766 0.4 17
  218.0088 1 44
  223.9825 0.8 35
  227.9771 2 88
  232.0126 1.1 48
  233.9816 1 44
  243.9893 1.4 61
  247.983 0.7 30
  249.9574 1.5 66
  267.9882 4.2 184
  271.983 0.8 35
//
