ACCESSION: MSBNK-BAFG-CSL2501068133
RECORD_TITLE: Clarithromycin; LC-ESI-QTOF; MS2; 110 V
DATE: 2025.01.06
AUTHORS: Ole Lessmann; Kevin S. Jewell; Björn Ehlig; Arne Wick
LICENSE: dl-de/by-2-0
COPYRIGHT: Copyright 2025 Federal Institute of Hydrology, Koblenz, Germany
COMMENT: CONFIDENCE Reference Standard (Level 1)
COMMENT: Chromatography method: dx.doi.org/10.1016/j.chroma.2015.11.014
COMMENT: Acquisition method: 10.1002/rcm.8541
CH$NAME: Clarithromycin
CH$COMPOUND_CLASS: Pharmaceutical; Transformation_product-Metabolite
CH$FORMULA: C38H69NO13
CH$EXACT_MASS: 747.4769
CH$SMILES: CC[C@H]1OC(=O)[C@H](C)[C@@H](O[C@H]2C[C@@](C)(OC)[C@@H](O)[C@H](C)O2)[C@H](C)[C@@H](O[C@@H]3O[C@H](C)C[C@@H]([C@H]3O)N(C)C)[C@@](C)(C[C@@H](C)C(=O)[C@H](C)[C@@H](O)[C@]1(C)O)OC
CH$IUPAC: InChI=1S/C38H69NO13/c1-15-26-38(10,45)31(42)21(4)28(40)19(2)17-37(9,47-14)33(52-35-29(41)25(39(11)12)16-20(3)48-35)22(5)30(23(6)34(44)50-26)51-27-18-36(8,46-13)32(43)24(7)49-27/h19-27,29-33,35,41-43,45H,15-18H2,1-14H3/t19-,20-,21+,22+,23-,24+,25+,26-,27+,29-,30+,31-,32+,33-,35+,36-,37-,38-/m1/s1
CH$LINK: CAS 81103-11-9
CH$LINK: INCHIKEY AGOYDEPGAOXOCK-KCBOHYOISA-N
AC$INSTRUMENT: TripleTOF 5600 SCIEX
AC$INSTRUMENT_TYPE: LC-ESI-QTOF
AC$MASS_SPECTROMETRY: MS_TYPE MS2
AC$MASS_SPECTROMETRY: ION_MODE POSITIVE
AC$MASS_SPECTROMETRY: COLLISION_ENERGY 110
AC$MASS_SPECTROMETRY: FRAGMENTATION_MODE CID
AC$MASS_SPECTROMETRY: IONIZATION ESI
AC$CHROMATOGRAPHY: COLUMN_NAME Zorbax Eclipse Plus C18 2.1 mm x 150 mm, 3.5 um, Agilent
AC$CHROMATOGRAPHY: COLUMN_TEMPERATURE 40 °C
AC$CHROMATOGRAPHY: FLOW_GRADIENT 0 min min 98% A, 1 min 98% A, 2 min 80% A, 16.5 min 2% A, 22 min 2% A, 22.1 min 98% A, 27 min 98% A
AC$CHROMATOGRAPHY: FLOW_RATE 0.3 mL/min
AC$CHROMATOGRAPHY: RETENTION_TIME 8.861 min
AC$CHROMATOGRAPHY: SOLVENT A: Water 0.1% Formic acid, B: Acetonitrile 0.1% Formic acid
MS$FOCUSED_ION: PRECURSOR_M/Z 748.4842
MS$FOCUSED_ION: PRECURSOR_TYPE [M+H]+
MS$DATA_PROCESSING: COMMENT Export with pycsl 0.1.0.dev1 and CSL 24.4
PK$SPLASH: splash10-001i-9100000000-36de83267a000745890f
PK$NUM_PEAK: 26
PK$PEAK: m/z int. rel.int.
  43.0245 0.9 28
  45.04 1.0 31
  55.0583 5.3 168
  57.0642 0.5 15
  59.053 1.9 60
  70.0668 0.7 22
  72.0832 10.5 334
  79.0552 0.5 15
  81.0729 0.7 22
  83.0514 31.4 999
  83.0826 0.8 25
  84.0822 2.0 63
  87.0449 4.2 133
  87.0683 0.6 19
  88.0772 3.1 98
  95.0491 0.4 12
  98.0589 0.9 28
  98.0962 11.5 365
  99.0786 0.5 15
  100.0769 0.5 15
  113.0574 0.5 15
  114.0893 0.4 12
  116.07 5.3 168
  116.1063 3.6 114
  123.0793 0.8 25
  158.1164 3.3 104
//