ACCESSION: MSBNK-BAFG-CSL25011734563
RECORD_TITLE: Azo Rubin S; LC-ESI-QTOF; MS2; 150 V
DATE: 2025.01.17
AUTHORS: Ole Lessmann; Kevin S. Jewell; Björn Ehlig; Arne Wick
LICENSE: dl-de/by-2-0
COPYRIGHT: Copyright 2025 Federal Institute of Hydrology, Koblenz, Germany
COMMENT: CONFIDENCE Reference Standard (Level 1)
COMMENT: Chromatography method: dx.doi.org/10.1016/j.chroma.2015.11.014
CH$NAME: Azo Rubin S
CH$FORMULA: C20H14N2O7S2
CH$EXACT_MASS: 458.0242
CH$SMILES: C1=CC=C2C(=C1)C(=CC=C2S(=O)(=O)O)N=NC3=C(C4=CC=CC=C4C(=C3)S(=O)(=O)O)O
CH$IUPAC: InChI=1S/C20H14N2O7S2/c23-20-15-8-4-3-7-14(15)19(31(27,28)29)11-17(20)22-21-16-9-10-18(30(24,25)26)13-6-2-1-5-12(13)16/h1-11,23H,(H,24,25,26)(H,27,28,29)
CH$LINK: CAS 13613-55-3
CH$LINK: INCHIKEY TVWOWDDBXAFQDG-UHFFFAOYSA-N
AC$INSTRUMENT: TripleTOF 6600 SCIEX
AC$INSTRUMENT_TYPE: LC-ESI-QTOF
AC$MASS_SPECTROMETRY: MS_TYPE MS2
AC$MASS_SPECTROMETRY: ION_MODE POSITIVE
AC$MASS_SPECTROMETRY: COLLISION_ENERGY 150
AC$MASS_SPECTROMETRY: FRAGMENTATION_MODE CID
AC$MASS_SPECTROMETRY: IONIZATION ESI
AC$CHROMATOGRAPHY: COLUMN_NAME Zorbax Eclipse Plus C18 2.1 mm x 150 mm, 3.5 um, Agilent
AC$CHROMATOGRAPHY: COLUMN_TEMPERATURE 40 °C
AC$CHROMATOGRAPHY: FLOW_GRADIENT 0 min min 98% A, 1 min 98% A, 2 min 80% A, 16.5 min 2% A, 22 min 2% A, 22.1 min 98% A, 27 min 98% A
AC$CHROMATOGRAPHY: FLOW_RATE 0.3 mL/min
AC$CHROMATOGRAPHY: RETENTION_TIME 7.286 min
AC$CHROMATOGRAPHY: SOLVENT A: Water 0.1% Formic acid, B: Acetonitrile 0.1% Formic acid
MS$FOCUSED_ION: PRECURSOR_M/Z 459.0315
MS$FOCUSED_ION: PRECURSOR_TYPE [M+H]+
MS$DATA_PROCESSING: COMMENT Export with pycsl 0.1.0.dev1 and CSL 25.0
PK$SPLASH: splash10-0fb9-9500000000-1082a69e01dd78d29cef
PK$NUM_PEAK: 39
PK$PEAK: m/z int. rel.int.
  39.0229 4.3 33
  50.015 2.8 21
  51.0227 26.8 205
  52.018 19.6 150
  62.0151 4.1 31
  63.0223 20.3 155
  64.9689 5.1 39
  65.0382 6.9 52
  74.0147 4.7 36
  75.0226 5.2 39
  76.0301 3.4 26
  77.0381 130.1 999
  80.0129 2.4 18
  87.0211 3.3 25
  88.0301 4.1 31
  89.0381 55.0 422
  90.0327 2.1 16
  91.0553 1.6 12
  99.0224 1.6 12
  100.0181 3.3 25
  101.0377 2.0 15
  102.0457 11.2 86
  103.0534 36.2 277
  104.0484 4.5 34
  105.0427 2.6 19
  113.038 12.9 99
  114.0329 1.8 13
  114.0455 5.9 45
  115.0537 61.4 471
  116.0497 9.3 71
  130.064 10.3 79
  140.0483 10.4 79
  223.05 1.4 10
  224.0633 2.9 22
  225.0579 1.5 11
  238.065 3.3 25
  249.0563 2.7 20
  251.0709 1.9 14
  277.0777 1.4 10
//
