ACCESSION: MSBNK-BAFG-CSL25010612524
RECORD_TITLE: 4-Aminoantipyrine; LC-ESI-QTOF; MS2; 80 V
DATE: 2025.01.06
AUTHORS: Ole Lessmann; Kevin S. Jewell; Björn Ehlig; Arne Wick
LICENSE: dl-de/by-2-0
COPYRIGHT: Copyright 2025 Federal Institute of Hydrology, Koblenz, Germany
COMMENT: CONFIDENCE Reference Standard (Level 1)
COMMENT: Chromatography method: dx.doi.org/10.1016/j.chroma.2015.11.014
COMMENT: Acquisition method: 10.1002/rcm.8541
CH$NAME: 4-Aminoantipyrine
CH$COMPOUND_CLASS: Transformation_product; Pharmaceutical; Transformation_product-Metabolite
CH$FORMULA: C11H13N3O
CH$EXACT_MASS: 203.1059
CH$SMILES: CC1=C(C(=O)N(N1C)C2=CC=CC=C2)N
CH$IUPAC: InChI=1S/C11H13N3O/c1-8-10(12)11(15)14(13(8)2)9-6-4-3-5-7-9/h3-7H,12H2,1-2H3
CH$LINK: CAS 83-07-8
CH$LINK: INCHIKEY RLFWWDJHLFCNIJ-UHFFFAOYSA-N
AC$INSTRUMENT: TripleTOF 5600 SCIEX
AC$INSTRUMENT_TYPE: LC-ESI-QTOF
AC$MASS_SPECTROMETRY: MS_TYPE MS2
AC$MASS_SPECTROMETRY: ION_MODE POSITIVE
AC$MASS_SPECTROMETRY: COLLISION_ENERGY 80
AC$MASS_SPECTROMETRY: FRAGMENTATION_MODE CID
AC$MASS_SPECTROMETRY: IONIZATION ESI
AC$CHROMATOGRAPHY: COLUMN_NAME Zorbax Eclipse Plus C18 2.1 mm x 150 mm, 3.5 um, Agilent
AC$CHROMATOGRAPHY: COLUMN_TEMPERATURE 40 °C
AC$CHROMATOGRAPHY: FLOW_GRADIENT 0 min min 98% A, 1 min 98% A, 2 min 80% A, 16.5 min 2% A, 22 min 2% A, 22.1 min 98% A, 27 min 98% A
AC$CHROMATOGRAPHY: FLOW_RATE 0.3 mL/min
AC$CHROMATOGRAPHY: RETENTION_TIME 4.783 min
AC$CHROMATOGRAPHY: SOLVENT A: Water 0.1% Formic acid, B: Acetonitrile 0.1% Formic acid
MS$FOCUSED_ION: PRECURSOR_M/Z 204.1131
MS$FOCUSED_ION: PRECURSOR_TYPE [M+H]+
MS$DATA_PROCESSING: COMMENT Export with pycsl 0.1.0.dev1 and CSL 24.4
PK$SPLASH: splash10-0a4i-9000000000-a6e96996e5238727788f
PK$NUM_PEAK: 19
PK$PEAK: m/z int. rel.int.
  39.0236 0.7 13
  41.0264 1.9 37
  41.0397 0.6 11
  42.0342 3.7 72
  50.0157 1.6 31
  51.0232 9.9 193
  56.05 51.1 999
  58.0656 0.7 13
  65.0389 2.1 41
  66.0467 1.2 23
  75.0233 0.9 17
  76.0289 0.5 9
  77.0388 18.3 357
  83.0614 1.7 33
  89.0387 1.0 19
  90.0467 0.5 9
  92.0503 0.8 15
  93.0566 1.2 23
  94.0651 1.0 19
//