ACCESSION: MSBNK-BAFG-CSL2311099441
RECORD_TITLE: Trifloxystrobin; LC-ESI-QTOF; MS2; 40 V
DATE: 2023.11.09
AUTHORS: Kevin S. Jewell; Björn Ehlig; Arne Wick
LICENSE: dl-de/by-2-0
COPYRIGHT: Copyright 2023 Federal Institute of Hydrology, Koblenz, Germany
COMMENT: CONFIDENCE Reference Standard (Level 1)
COMMENT: Chromatography method: dx.doi.org/10.1016/j.chroma.2015.11.014
COMMENT: Acquisition method: 10.1002/rcm.8541
CH$NAME: Trifloxystrobin
CH$COMPOUND_CLASS: Fungicide
CH$FORMULA: C20H19F3N2O4
CH$EXACT_MASS: 408.1297
CH$SMILES: CC(=NOCC1=CC=CC=C1C(=NOC)C(=O)OC)C2=CC(=CC=C2)C(F)(F)F
CH$IUPAC: InChI=1S/C20H19F3N2O4/c1-13(14-8-6-9-16(11-14)20(21,22)23)24-29-12-15-7-4-5-10-17(15)18(25-28-3)19(26)27-2/h4-11H,12H2,1-3H3
CH$LINK: CAS 141517-21-7
CH$LINK: INCHIKEY ONCZDRURRATYFI-UHFFFAOYSA-N
AC$INSTRUMENT: TripleTOF 5600 SCIEX
AC$INSTRUMENT_TYPE: LC-ESI-QTOF
AC$MASS_SPECTROMETRY: MS_TYPE MS2
AC$MASS_SPECTROMETRY: ION_MODE POSITIVE
AC$MASS_SPECTROMETRY: COLLISION_ENERGY 40
AC$MASS_SPECTROMETRY: FRAGMENTATION_MODE CID
AC$MASS_SPECTROMETRY: IONIZATION ESI
AC$CHROMATOGRAPHY: COLUMN_NAME Zorbax Eclipse Plus C18 2.1 mm x 150 mm, 3.5 um, Agilent
AC$CHROMATOGRAPHY: COLUMN_TEMPERATURE 40 °C
AC$CHROMATOGRAPHY: FLOW_GRADIENT 0 min min 98% A, 1 min 98% A, 2 min 80% A, 16.5 min 2% A, 22 min 2% A, 22.1 min 98% A, 27 min 98% A
AC$CHROMATOGRAPHY: FLOW_RATE 0.3 mL/min
AC$CHROMATOGRAPHY: RETENTION_TIME 15.037 min
AC$CHROMATOGRAPHY: SOLVENT A: Water 0.1% Formic acid, B: Acetonitrile 0.1% Formic acid
MS$FOCUSED_ION: PRECURSOR_M/Z 409.137
MS$FOCUSED_ION: PRECURSOR_TYPE [M+H]+
MS$DATA_PROCESSING: COMMENT Export with Spectra 1.9.12 MsBackendMassbank 1.7.4
MS$DATA_PROCESSING: WHOLE RMassBank 2.3.1
PK$SPLASH: splash10-00lj-0900000000-b2abc9b153de90a8f5e4
PK$NUM_PEAK: 26
PK$PEAK: m/z int. rel.int.
  59.0218 8.5 10
  89.0424 26.8 33
  91.0577 43 54
  95.0322 8.5 10
  103.0564 8.6 10
  105.0716 40.1 50
  115.0544 8.7 11
  116.0505 504.6 638
  117.0587 71 89
  118.0662 72.6 91
  119.0509 20.8 26
  119.0733 10.7 13
  130.0659 43.1 54
  131.0736 475.1 601
  132.0811 225.9 285
  143.0373 32 40
  145.0263 551.1 697
  146.0613 163.2 206
  147.0685 28.3 35
  148.0766 12.7 16
  162.091 14.8 18
  173.0326 109.5 138
  175.0635 19.1 24
  178.0864 15.4 19
  186.0522 789.2 999
  206.0813 175.8 222
//
