ACCESSION: MSBNK-BAFG-CSL23102511343
RECORD_TITLE: 2-(3-Pyridyl)-1H-benzimidazole; LC-ESI-QTOF; MS2; 60 V
DATE: 2023.10.25
AUTHORS: Kevin S. Jewell; Björn Ehlig; Arne Wick
LICENSE: dl-de/by-2-0
COPYRIGHT: Copyright 2023 Federal Institute of Hydrology, Koblenz, Germany
COMMENT: CONFIDENCE Reference Standard (Level 1)
COMMENT: Chromatography method: dx.doi.org/10.1016/j.chroma.2015.11.014
COMMENT: Acquisition method: 10.1002/rcm.8541
CH$NAME: 2-(3-Pyridyl)-1H-benzimidazole
CH$COMPOUND_CLASS: Pharmaceutical
CH$FORMULA: C12H9N3
CH$EXACT_MASS: 195.0796
CH$SMILES: C1=CC=C2C(=C1)NC(=N2)C3=CN=CC=C3
CH$IUPAC: InChI=1S/C12H9N3/c1-2-6-11-10(5-1)14-12(15-11)9-4-3-7-13-8-9/h1-8H,(H,14,15)
CH$LINK: CAS 1137-67-3
CH$LINK: INCHIKEY BOUOQESVDURNSB-UHFFFAOYSA-N
AC$INSTRUMENT: TripleTOF 5600 SCIEX
AC$INSTRUMENT_TYPE: LC-ESI-QTOF
AC$MASS_SPECTROMETRY: MS_TYPE MS2
AC$MASS_SPECTROMETRY: ION_MODE NEGATIVE
AC$MASS_SPECTROMETRY: COLLISION_ENERGY 60
AC$MASS_SPECTROMETRY: FRAGMENTATION_MODE CID
AC$MASS_SPECTROMETRY: IONIZATION ESI
AC$CHROMATOGRAPHY: COLUMN_NAME Zorbax Eclipse Plus C18 2.1 mm x 150 mm, 3.5 um, Agilent
AC$CHROMATOGRAPHY: COLUMN_TEMPERATURE 40 °C
AC$CHROMATOGRAPHY: FLOW_GRADIENT 0 min min 98% A, 1 min 98% A, 2 min 80% A, 16.5 min 2% A, 22 min 2% A, 22.1 min 98% A, 27 min 98% A
AC$CHROMATOGRAPHY: FLOW_RATE 0.3 mL/min
AC$CHROMATOGRAPHY: RETENTION_TIME 5.155 min
AC$CHROMATOGRAPHY: SOLVENT A: Water 0.1% Formic acid, B: Acetonitrile 0.1% Formic acid
MS$FOCUSED_ION: PRECURSOR_M/Z 194.0724
MS$FOCUSED_ION: PRECURSOR_TYPE [M-H]-
MS$DATA_PROCESSING: COMMENT Export with Spectra 1.9.12 MsBackendMassbank 1.7.4
MS$DATA_PROCESSING: WHOLE RMassBank 2.3.1
PK$SPLASH: splash10-00kf-0900000000-965ff129658a222b233d
PK$NUM_PEAK: 8
PK$PEAK: m/z int. rel.int.
  90.0354 1 48
  115.0312 5.7 279
  117.046 6.5 318
  141.0472 20.4 999
  165.0477 3.9 190
  167.0618 3.6 176
  192.0594 2.2 107
  194.074 6.4 313
//
