ACCESSION: MSBNK-BAFG-CSL23102727131
RECORD_TITLE: Thieno[3,2-b]pyridin-7-ol; LC-ESI-QTOF; MS2; 30 V
DATE: 2023.10.27
AUTHORS: Kevin S. Jewell; Björn Ehlig; Arne Wick
LICENSE: dl-de/by-2-0
COPYRIGHT: Copyright 2023 Federal Institute of Hydrology, Koblenz, Germany
COMMENT: CONFIDENCE Reference Standard (Level 1)
COMMENT: Chromatography method: dx.doi.org/10.1016/j.chroma.2015.11.014
COMMENT: Acquisition method: 10.1002/rcm.8541
CH$NAME: Thieno[3,2-b]pyridin-7-ol
CH$FORMULA: C7H5NOS
CH$EXACT_MASS: 151.0092
CH$SMILES: C1=CNC2=C(C1=O)SC=C2
CH$IUPAC: InChI=1S/C7H5NOS/c9-6-1-3-8-5-2-4-10-7(5)6/h1-4H,(H,8,9)
CH$LINK: CAS 107818-20-2
CH$LINK: INCHIKEY AACVULYSNJAKEQ-UHFFFAOYSA-N
AC$INSTRUMENT: TripleTOF 6600 SCIEX
AC$INSTRUMENT_TYPE: LC-ESI-QTOF
AC$MASS_SPECTROMETRY: MS_TYPE MS2
AC$MASS_SPECTROMETRY: ION_MODE POSITIVE
AC$MASS_SPECTROMETRY: COLLISION_ENERGY 30
AC$MASS_SPECTROMETRY: FRAGMENTATION_MODE CID
AC$MASS_SPECTROMETRY: IONIZATION ESI
AC$CHROMATOGRAPHY: COLUMN_NAME Zorbax Eclipse Plus C18 2.1 mm x 150 mm, 3.5 um, Agilent
AC$CHROMATOGRAPHY: COLUMN_TEMPERATURE 40 °C
AC$CHROMATOGRAPHY: FLOW_GRADIENT 0 min min 98% A, 1 min 98% A, 2 min 80% A, 16.5 min 2% A, 22 min 2% A, 22.1 min 98% A, 27 min 98% A
AC$CHROMATOGRAPHY: FLOW_RATE 0.3 mL/min
AC$CHROMATOGRAPHY: RETENTION_TIME 4.72 min
AC$CHROMATOGRAPHY: SOLVENT A: Water 0.1% Formic acid, B: Acetonitrile 0.1% Formic acid
MS$FOCUSED_ION: PRECURSOR_M/Z 152.0165
MS$FOCUSED_ION: PRECURSOR_TYPE [M+H]+
MS$DATA_PROCESSING: COMMENT Export with Spectra 1.9.12 MsBackendMassbank 1.7.4
MS$DATA_PROCESSING: WHOLE RMassBank 2.3.1
PK$SPLASH: splash10-0udi-1900000000-281585d7c1d2cbe476e9
PK$NUM_PEAK: 8
PK$PEAK: m/z int. rel.int.
  80.0497 146 101
  82.9948 19.5 13
  97.0106 143.8 100
  108.0442 32.8 22
  110.0058 132.4 92
  124.0216 107.3 74
  134.0059 78.4 54
  152.0167 1433.3 999
//
