ACCESSION: MSBNK-BAFG-CSL23111015116
RECORD_TITLE: Fluazifop; LC-ESI-QTOF; MS2; 80 V
DATE: 2023.11.10
AUTHORS: Kevin S. Jewell; Björn Ehlig; Arne Wick
LICENSE: dl-de/by-2-0
COPYRIGHT: Copyright 2023 Federal Institute of Hydrology, Koblenz, Germany
COMMENT: CONFIDENCE Reference Standard (Level 1)
COMMENT: Chromatography method: dx.doi.org/10.1016/j.chroma.2015.11.014
COMMENT: Acquisition method: 10.1002/rcm.8541
CH$NAME: Fluazifop
CH$COMPOUND_CLASS: Herbicide; Transformation_product
CH$FORMULA: C15H12F3NO4
CH$EXACT_MASS: 327.0718
CH$SMILES: CC(C(=O)O)Oc1ccc(cc1)Oc2ccc(cn2)C(F)(F)F
CH$IUPAC: InChI=1S/C15H12F3NO4/c1-9(14(20)21)22-11-3-5-12(6-4-11)23-13-7-2-10(8-19-13)15(16,17)18/h2-9H,1H3,(H,20,21)
CH$LINK: CAS 69335-91-7
CH$LINK: INCHIKEY YUVKUEAFAVKILW-UHFFFAOYSA-N
AC$INSTRUMENT: TripleTOF 6600 SCIEX
AC$INSTRUMENT_TYPE: LC-ESI-QTOF
AC$MASS_SPECTROMETRY: MS_TYPE MS2
AC$MASS_SPECTROMETRY: ION_MODE NEGATIVE
AC$MASS_SPECTROMETRY: COLLISION_ENERGY 80
AC$MASS_SPECTROMETRY: FRAGMENTATION_MODE CID
AC$MASS_SPECTROMETRY: IONIZATION ESI
AC$CHROMATOGRAPHY: COLUMN_NAME Zorbax Eclipse Plus C18 2.1 mm x 150 mm, 3.5 um, Agilent
AC$CHROMATOGRAPHY: COLUMN_TEMPERATURE 40 °C
AC$CHROMATOGRAPHY: FLOW_GRADIENT 0 min min 98% A, 1 min 98% A, 2 min 80% A, 16.5 min 2% A, 22 min 2% A, 22.1 min 98% A, 27 min 98% A
AC$CHROMATOGRAPHY: FLOW_RATE 0.3 mL/min
AC$CHROMATOGRAPHY: RETENTION_TIME 11.668 min
AC$CHROMATOGRAPHY: SOLVENT A: Water 0.1% Formic acid, B: Acetonitrile 0.1% Formic acid
MS$FOCUSED_ION: PRECURSOR_M/Z 326.0646
MS$FOCUSED_ION: PRECURSOR_TYPE [M-H]-
MS$DATA_PROCESSING: COMMENT Export with Spectra 1.9.12 MsBackendMassbank 1.7.4
MS$DATA_PROCESSING: WHOLE RMassBank 2.3.1
PK$SPLASH: splash10-0a4i-1900000000-17fd6052e8d3b245b521
PK$NUM_PEAK: 43
PK$PEAK: m/z int. rel.int.
  41.0023 0.7 36
  50.0022 0.6 31
  64.0176 0.5 26
  66.9977 1.7 88
  68.9938 1.3 67
  74.0017 2.9 150
  76.0177 0.6 31
  87.0216 0.4 20
  88.0181 0.5 26
  94.9918 2.3 119
  97.0067 0.9 46
  98.0014 0.4 20
  101.0381 0.8 41
  106.0095 0.4 20
  108.0201 19.2 999
  111.0095 0.5 26
  111.0236 0.4 20
  112.018 1 52
  114.9988 4.4 228
  117.0141 0.5 26
  122.0042 1.4 72
  123.0242 0.5 26
  124.0201 0.9 46
  126.0335 0.5 26
  131.0159 0.5 26
  132.025 1.8 93
  137.0243 0.8 41
  138.0336 5.9 306
  142.0101 4.9 254
  143.0292 0.5 26
  144.0246 0.8 41
  150.033 0.9 46
  152.0314 0.9 46
  156.0245 0.8 41
  158.0409 3.5 182
  162.016 5.3 275
  164.0306 0.8 41
  166.0297 1.2 62
  172.0197 0.5 26
  178.0474 1.3 67
  186.0346 1.4 72
  206.0425 0.7 36
  253.0343 0.5 26
//
