ACCESSION: MSBNK-BAFG-CSL25011734635
RECORD_TITLE: Metachrome Yellow free acid; LC-ESI-QTOF; MS2; 70 V
DATE: 2025.01.17
AUTHORS: Ole Lessmann; Kevin S. Jewell; Björn Ehlig; Arne Wick
LICENSE: dl-de/by-2-0
COPYRIGHT: Copyright 2025 Federal Institute of Hydrology, Koblenz, Germany
COMMENT: CONFIDENCE Reference Standard (Level 1)
COMMENT: Chromatography method: dx.doi.org/10.1016/j.chroma.2015.11.014
CH$NAME: Metachrome Yellow free acid
CH$FORMULA: C13H9N3O5
CH$EXACT_MASS: 287.0542
CH$SMILES: C1=CC(=CC(=C1)[N+](=O)[O-])N=NC2=CC(=C(C=C2)O)C(=O)O
CH$IUPAC: InChI=1S/C13H9N3O5/c17-12-5-4-9(7-11(12)13(18)19)15-14-8-2-1-3-10(6-8)16(20)21/h1-7,17H,(H,18,19)
CH$LINK: CAS 6283-26-7
CH$LINK: INCHIKEY LJOXBIGRIKPBSQ-UHFFFAOYSA-N
AC$INSTRUMENT: TripleTOF 6600 SCIEX
AC$INSTRUMENT_TYPE: LC-ESI-QTOF
AC$MASS_SPECTROMETRY: MS_TYPE MS2
AC$MASS_SPECTROMETRY: ION_MODE POSITIVE
AC$MASS_SPECTROMETRY: COLLISION_ENERGY 70
AC$MASS_SPECTROMETRY: FRAGMENTATION_MODE CID
AC$MASS_SPECTROMETRY: IONIZATION ESI
AC$CHROMATOGRAPHY: COLUMN_NAME Zorbax Eclipse Plus C18 2.1 mm x 150 mm, 3.5 um, Agilent
AC$CHROMATOGRAPHY: COLUMN_TEMPERATURE 40 °C
AC$CHROMATOGRAPHY: FLOW_GRADIENT 0 min min 98% A, 1 min 98% A, 2 min 80% A, 16.5 min 2% A, 22 min 2% A, 22.1 min 98% A, 27 min 98% A
AC$CHROMATOGRAPHY: FLOW_RATE 0.3 mL/min
AC$CHROMATOGRAPHY: RETENTION_TIME 11.919 min
AC$CHROMATOGRAPHY: SOLVENT A: Water 0.1% Formic acid, B: Acetonitrile 0.1% Formic acid
MS$FOCUSED_ION: PRECURSOR_M/Z 288.0615
MS$FOCUSED_ION: PRECURSOR_TYPE [M+H]+
MS$DATA_PROCESSING: COMMENT Export with pycsl 0.1.0.dev1 and CSL 25.0
PK$SPLASH: splash10-03fr-9400000000-b98d18df966b8edbfc90
PK$NUM_PEAK: 58
PK$PEAK: m/z int. rel.int.
  38.0147 0.8 22
  39.0223 2.8 77
  50.014 2.4 66
  51.0212 1.6 44
  52.0175 1.2 33
  53.0023 1.5 41
  59.9975 0.4 11
  61.0051 1.3 35
  62.0136 4.7 129
  63.0222 32.2 886
  64.0299 20.8 572
  73.0054 0.7 19
  74.0137 4.9 134
  75.0219 36.3 999
  76.0299 8.0 220
  77.0265 0.5 13
  77.0372 2.1 57
  78.033 5.6 154
  79.0191 0.4 11
  80.0118 6.9 189
  82.0279 0.5 13
  87.0241 0.7 19
  88.0292 1.1 30
  89.0377 3.4 93
  90.0312 0.7 19
  90.0441 1.2 33
  91.0172 5.4 148
  91.04 1.0 27
  92.0248 5.1 140
  101.0383 0.6 16
  102.0397 1.3 35
  103.0388 0.4 11
  106.0286 2.9 79
  113.0374 4.9 134
  114.0344 2.8 77
  114.0464 3.6 99
  115.0403 4.4 121
  116.047 1.3 35
  117.0568 1.1 30
  119.0123 1.3 35
  125.0378 0.4 11
  127.0498 0.6 16
  128.0485 1.3 35
  129.0419 0.5 13
  134.0223 1.0 27
  138.0472 0.4 11
  139.0527 11.2 308
  140.0482 17.5 481
  141.042 0.5 13
  141.0547 2.9 79
  142.0519 3.0 82
  150.0288 0.5 13
  152.0508 0.4 11
  155.0578 2.0 55
  166.0512 6.0 165
  167.06 6.8 187
  168.0649 1.2 33
  195.0561 0.9 24
//
