ACCESSION: MSBNK-BAFG-CSL25010627959
RECORD_TITLE: 4-[(4-Aminophenyl)(4-iminocyclohexa-2,5-dien-1-ylidene)methyl]-2-methylaniline; LC-ESI-QTOF; MS2; 70 V
DATE: 2025.01.06
AUTHORS: Ole Lessmann; Kevin S. Jewell; Björn Ehlig; Arne Wick
LICENSE: dl-de/by-2-0
COPYRIGHT: Copyright 2025 Federal Institute of Hydrology, Koblenz, Germany
COMMENT: CONFIDENCE Reference Standard (Level 1)
COMMENT: Chromatography method: dx.doi.org/10.1016/j.chroma.2015.11.014
COMMENT: Acquisition method: 10.1002/rcm.8541
CH$NAME: 4-[(4-Aminophenyl)(4-iminocyclohexa-2,5-dien-1-ylidene)methyl]-2-methylaniline
CH$FORMULA: C20H19N3
CH$EXACT_MASS: 301.1579
CH$SMILES: CC1=CC(=C(C2=CC=C(C=C2)N)C3=CC=C(C=C3)N)C=CC1=N
CH$IUPAC: InChI=1S/C20H19N3/c1-13-12-16(6-11-19(13)23)20(14-2-7-17(21)8-3-14)15-4-9-18(22)10-5-15/h2-12,23H,21-22H2,1H3
CH$LINK: CAS 3248-93-9
CH$LINK: INCHIKEY YDCMWLQSPFTWCS-UHFFFAOYSA-N
AC$INSTRUMENT: TripleTOF X500R SCIEX
AC$INSTRUMENT_TYPE: LC-ESI-QTOF
AC$MASS_SPECTROMETRY: MS_TYPE MS2
AC$MASS_SPECTROMETRY: ION_MODE POSITIVE
AC$MASS_SPECTROMETRY: COLLISION_ENERGY 70
AC$MASS_SPECTROMETRY: FRAGMENTATION_MODE CID
AC$MASS_SPECTROMETRY: IONIZATION ESI
AC$CHROMATOGRAPHY: COLUMN_NAME Zorbax Eclipse Plus C18 2.1 mm x 150 mm, 3.5 um, Agilent
AC$CHROMATOGRAPHY: COLUMN_TEMPERATURE 40 °C
AC$CHROMATOGRAPHY: FLOW_GRADIENT 0 min min 98% A, 1 min 98% A, 2 min 80% A, 16.5 min 2% A, 22 min 2% A, 22.1 min 98% A, 27 min 98% A
AC$CHROMATOGRAPHY: FLOW_RATE 0.3 mL/min
AC$CHROMATOGRAPHY: RETENTION_TIME 7.598 min
AC$CHROMATOGRAPHY: SOLVENT A: Water 0.1% Formic acid, B: Acetonitrile 0.1% Formic acid
MS$FOCUSED_ION: PRECURSOR_M/Z 302.1652
MS$FOCUSED_ION: PRECURSOR_TYPE [M+H]+
MS$DATA_PROCESSING: COMMENT Export with pycsl 0.1.0.dev1 and CSL 24.4
PK$SPLASH: splash10-014i-0890000000-97ef3a30fed36b5a1728
PK$NUM_PEAK: 137
PK$PEAK: m/z int. rel.int.
  42.0347 0.6 17
  77.0389 1.3 37
  79.0554 0.9 26
  89.0379 0.7 20
  91.0544 0.9 26
  93.0582 0.6 17
  101.0362 0.4 11
  103.0544 0.9 26
  106.0649 4.0 116
  113.0396 0.8 23
  114.0473 0.9 26
  115.0547 6.9 200
  116.062 1.6 46
  117.0568 0.9 26
  118.0655 1.0 29
  125.041 0.5 14
  126.0466 0.9 26
  127.055 4.0 116
  128.0623 2.5 72
  130.0661 2.4 69
  139.055 7.8 226
  140.0547 5.2 151
  141.0698 5.4 156
  142.0666 0.7 20
  143.0732 5.2 151
  149.0384 1.7 49
  150.0471 9.9 287
  151.0547 20.5 595
  152.0617 8.7 252
  153.0676 5.7 165
  154.065 4.1 119
  155.0615 0.4 11
  155.077 0.5 14
  156.082 0.9 26
  163.0552 4.9 142
  164.0628 10.1 293
  165.0703 30.8 894
  166.0464 0.7 20
  166.0654 11.6 336
  167.0735 34.4 999
  168.0801 9.8 284
  169.0786 1.2 34
  174.0469 0.6 17
  175.0534 0.8 23
  176.0546 3.8 110
  177.0588 7.6 220
  178.0423 0.4 11
  178.066 14.5 421
  179.0697 4.0 116
  180.0812 20.8 604
  181.0878 6.8 197
  182.0927 1.6 46
  187.0556 0.7 20
  188.0588 0.8 23
  189.07 3.7 107
  190.0652 7.6 220
  191.074 11.3 328
  192.077 14.1 409
  193.0821 21.1 612
  194.0845 9.6 278
  195.0921 14.6 423
  199.0553 0.5 14
  200.0626 2.4 69
  201.0699 3.3 95
  202.0769 6.4 185
  203.0808 2.5 72
  204.0823 3.3 95
  205.0814 1.2 34
  205.1003 0.4 11
  206.0921 1.7 49
  207.0928 4.3 124
  208.1 9.6 278
  209.1073 6.0 174
  213.0714 4.2 121
  214.0714 3.0 87
  215.0852 5.3 153
  216.0821 2.6 75
  217.0897 8.0 232
  218.0938 2.4 69
  219.094 3.0 87
  221.1067 0.7 20
  224.0621 1.6 46
  225.0714 3.5 101
  226.0785 11.3 328
  227.0746 6.3 182
  228.0583 0.5 14
  228.0839 5.6 162
  229.0848 2.7 78
  230.0973 8.3 241
  231.093 2.4 69
  232.0994 2.6 75
  233.1087 1.2 34
  237.0696 2.4 69
  238.0647 1.5 43
  239.0849 7.7 223
  240.081 5.8 168
  241.0887 13.0 377
  242.0944 8.3 241
  243.1017 8.4 243
  244.1061 2.6 75
  245.0788 0.6 17
  245.1083 9.4 272
  246.1133 1.2 34
  247.1194 0.4 11
  249.065 0.8 23
  250.0808 2.9 84
  251.0747 7.8 226
  252.0826 11.3 328
  253.0886 8.9 258
  253.1145 0.5 14
  254.0968 15.7 455
  255.0961 7.0 203
  256.101 4.5 130
  257.1084 3.7 107
  258.1149 5.5 159
  259.12 1.7 49
  260.1167 0.6 17
  264.0812 1.4 40
  265.0874 1.9 55
  266.0946 3.0 87
  267.1015 9.4 272
  268.1026 11.1 322
  269.071 1.1 31
  269.1086 26.5 769
  270.1062 8.8 255
  271.122 11.6 336
  272.1173 1.4 40
  272.139 0.5 14
  281.1079 1.0 29
  282.1157 2.5 72
  283.122 3.3 95
  283.1519 0.5 14
  284.1189 4.3 124
  285.1379 5.2 151
  286.1343 11.1 322
  298.1312 0.7 20
  300.1538 1.1 31
//