ACCESSION: MSBNK-BAFG-CSL25010634277
RECORD_TITLE: Diisopentyl phthalate; LC-ESI-QTOF; MS2; 30 V
DATE: 2025.01.06
AUTHORS: Ole Lessmann; Kevin S. Jewell; Björn Ehlig; Arne Wick
LICENSE: dl-de/by-2-0
COPYRIGHT: Copyright 2025 Federal Institute of Hydrology, Koblenz, Germany
COMMENT: CONFIDENCE Reference Standard (Level 1)
COMMENT: Chromatography method: dx.doi.org/10.1016/j.chroma.2015.11.014
COMMENT: Acquisition method: 10.1002/rcm.8541
CH$NAME: Diisopentyl phthalate
CH$FORMULA: C18H26O4
CH$EXACT_MASS: 306.1831
CH$SMILES: CC(C)CCOC(=O)C1=CC=CC=C1C(=O)OCCC(C)C
CH$IUPAC: InChI=1S/C18H26O4/c1-13(2)9-11-21-17(19)15-7-5-6-8-16(15)18(20)22-12-10-14(3)4/h5-8,13-14H,9-12H2,1-4H3
CH$LINK: CAS 605-50-5
CH$LINK: INCHIKEY JANBFCARANRIKJ-UHFFFAOYSA-N
AC$INSTRUMENT: TripleTOF 6600 SCIEX
AC$INSTRUMENT_TYPE: LC-ESI-QTOF
AC$MASS_SPECTROMETRY: MS_TYPE MS2
AC$MASS_SPECTROMETRY: ION_MODE POSITIVE
AC$MASS_SPECTROMETRY: COLLISION_ENERGY 30
AC$MASS_SPECTROMETRY: FRAGMENTATION_MODE CID
AC$MASS_SPECTROMETRY: IONIZATION ESI
AC$CHROMATOGRAPHY: COLUMN_NAME Zorbax Eclipse Plus C18 2.1 mm x 150 mm, 3.5 um, Agilent
AC$CHROMATOGRAPHY: COLUMN_TEMPERATURE 40 °C
AC$CHROMATOGRAPHY: FLOW_GRADIENT 0 min min 98% A, 1 min 98% A, 2 min 80% A, 16.5 min 2% A, 22 min 2% A, 22.1 min 98% A, 27 min 98% A
AC$CHROMATOGRAPHY: FLOW_RATE 0.3 mL/min
AC$CHROMATOGRAPHY: RETENTION_TIME 17.28 min
AC$CHROMATOGRAPHY: SOLVENT A: Water 0.1% Formic acid, B: Acetonitrile 0.1% Formic acid
MS$FOCUSED_ION: PRECURSOR_M/Z 307.1904
MS$FOCUSED_ION: PRECURSOR_TYPE [M+H]+
MS$DATA_PROCESSING: COMMENT Export with pycsl 0.1.0.dev1 and CSL 24.4
PK$SPLASH: splash10-006t-6900000000-a7ce8fe429af525b00b6
PK$NUM_PEAK: 5
PK$PEAK: m/z int. rel.int.
  41.0375 14.0 24
  43.0536 102.9 177
  71.0846 306.9 530
  121.0271 9.4 16
  149.0222 577.9 999
//