ACCESSION: MSBNK-BAFG-CSL23110918840
RECORD_TITLE: Fluquinconazole; LC-ESI-QTOF; MS2; 70 V
DATE: 2023.11.09
AUTHORS: Kevin S. Jewell; Björn Ehlig; Arne Wick
LICENSE: dl-de/by-2-0
COPYRIGHT: Copyright 2023 Federal Institute of Hydrology, Koblenz, Germany
COMMENT: CONFIDENCE Reference Standard (Level 1)
COMMENT: Chromatography method: dx.doi.org/10.1016/j.chroma.2015.11.014
COMMENT: Acquisition method: 10.1002/rcm.8541
CH$NAME: Fluquinconazole
CH$COMPOUND_CLASS: Fungicide
CH$FORMULA: C16H8Cl2FN5O
CH$EXACT_MASS: 375.009
CH$SMILES: C1=CC2=C(C=C1F)C(=O)N(C(=N2)N3C=NC=N3)C4=C(C=C(C=C4)Cl)Cl
CH$IUPAC: InChI=1S/C16H8Cl2FN5O/c17-9-1-4-14(12(18)5-9)24-15(25)11-6-10(19)2-3-13(11)22-16(24)23-8-20-7-21-23/h1-8H
CH$LINK: CAS 136426-54-5
CH$LINK: INCHIKEY IJJVMEJXYNJXOJ-UHFFFAOYSA-N
AC$INSTRUMENT: TripleTOF 6600 SCIEX
AC$INSTRUMENT_TYPE: LC-ESI-QTOF
AC$MASS_SPECTROMETRY: MS_TYPE MS2
AC$MASS_SPECTROMETRY: ION_MODE POSITIVE
AC$MASS_SPECTROMETRY: COLLISION_ENERGY 70
AC$MASS_SPECTROMETRY: FRAGMENTATION_MODE CID
AC$MASS_SPECTROMETRY: IONIZATION ESI
AC$CHROMATOGRAPHY: COLUMN_NAME Zorbax Eclipse Plus C18 2.1 mm x 150 mm, 3.5 um, Agilent
AC$CHROMATOGRAPHY: COLUMN_TEMPERATURE 40 °C
AC$CHROMATOGRAPHY: FLOW_GRADIENT 0 min min 98% A, 1 min 98% A, 2 min 80% A, 16.5 min 2% A, 22 min 2% A, 22.1 min 98% A, 27 min 98% A
AC$CHROMATOGRAPHY: FLOW_RATE 0.3 mL/min
AC$CHROMATOGRAPHY: RETENTION_TIME 12.549 min
AC$CHROMATOGRAPHY: SOLVENT A: Water 0.1% Formic acid, B: Acetonitrile 0.1% Formic acid
MS$FOCUSED_ION: PRECURSOR_M/Z 376.0163
MS$FOCUSED_ION: PRECURSOR_TYPE [M+H]+
MS$DATA_PROCESSING: COMMENT Export with Spectra 1.9.12 MsBackendMassbank 1.7.4
MS$DATA_PROCESSING: WHOLE RMassBank 2.3.1
PK$SPLASH: splash10-0a4i-0930000000-f00bd35a684c8b939f66
PK$NUM_PEAK: 24
PK$PEAK: m/z int. rel.int.
  57.0134 7 22
  72.9826 5.5 17
  81.0128 10.3 33
  82.008 18.6 60
  96.9831 3.9 12
  108.0238 306.7 999
  108.9822 5.6 18
  123.9942 87 283
  132.9594 3.6 11
  144.9608 4.7 15
  163.0282 6.8 22
  170.9645 9.2 29
  182.0377 8.2 26
  208.0416 6 19
  209.0508 40.5 131
  215.9994 3.3 10
  224.0608 6.9 22
  237.045 11.9 38
  243.01 6.3 20
  244.0189 48.8 158
  251.9772 5.1 16
  272.0152 38.4 125
  278.9892 5.9 19
  306.9822 4.9 15
//
