ACCESSION: MSBNK-BAFG-CSL23102514639
RECORD_TITLE: 4-Bromoantipyrine; LC-ESI-QTOF; MS2; 60 V
DATE: 2023.10.25
AUTHORS: Kevin S. Jewell; Björn Ehlig; Arne Wick
LICENSE: dl-de/by-2-0
COPYRIGHT: Copyright 2023 Federal Institute of Hydrology, Koblenz, Germany
COMMENT: CONFIDENCE Reference Standard (Level 1)
COMMENT: Chromatography method: dx.doi.org/10.1016/j.chroma.2015.11.014
COMMENT: Acquisition method: 10.1002/rcm.8541
CH$NAME: 4-Bromoantipyrine
CH$COMPOUND_CLASS: Industrial_process
CH$FORMULA: C11H11BrN2O
CH$EXACT_MASS: 266.0055
CH$SMILES: CC1=C(C(=O)N(N1C)C2=CC=CC=C2)Br
CH$IUPAC: InChI=1S/C11H11BrN2O/c1-8-10(12)11(15)14(13(8)2)9-6-4-3-5-7-9/h3-7H,1-2H3
CH$LINK: CAS 5426-65-3
CH$LINK: INCHIKEY QYWWSDVPNCBSIA-UHFFFAOYSA-N
AC$INSTRUMENT: TripleTOF 6600 SCIEX
AC$INSTRUMENT_TYPE: LC-ESI-QTOF
AC$MASS_SPECTROMETRY: MS_TYPE MS2
AC$MASS_SPECTROMETRY: ION_MODE POSITIVE
AC$MASS_SPECTROMETRY: COLLISION_ENERGY 60
AC$MASS_SPECTROMETRY: FRAGMENTATION_MODE CID
AC$MASS_SPECTROMETRY: IONIZATION ESI
AC$CHROMATOGRAPHY: COLUMN_NAME Zorbax Eclipse Plus C18 2.1 mm x 150 mm, 3.5 um, Agilent
AC$CHROMATOGRAPHY: COLUMN_TEMPERATURE 40 °C
AC$CHROMATOGRAPHY: FLOW_GRADIENT 0 min min 98% A, 1 min 98% A, 2 min 80% A, 16.5 min 2% A, 22 min 2% A, 22.1 min 98% A, 27 min 98% A
AC$CHROMATOGRAPHY: FLOW_RATE 0.3 mL/min
AC$CHROMATOGRAPHY: RETENTION_TIME 7.678 min
AC$CHROMATOGRAPHY: SOLVENT A: Water 0.1% Formic acid, B: Acetonitrile 0.1% Formic acid
MS$FOCUSED_ION: PRECURSOR_M/Z 267.0128
MS$FOCUSED_ION: PRECURSOR_TYPE [M+H]+
MS$DATA_PROCESSING: COMMENT Export with Spectra 1.9.12 MsBackendMassbank 1.7.4
MS$DATA_PROCESSING: WHOLE RMassBank 2.3.1
PK$SPLASH: splash10-0a4i-9500000000-79b3a9a4ee2c083f4fc4
PK$NUM_PEAK: 33
PK$PEAK: m/z int. rel.int.
  39.0218 0.5 22
  42.0325 1.3 58
  51.0211 1.2 53
  54.0327 1.6 71
  56.0481 22.3 999
  65.0364 1.3 58
  68.0474 0.6 26
  69.0556 0.7 31
  77.0364 7.6 340
  78.0432 0.7 31
  91.0516 1.2 53
  92.0466 0.5 22
  93.0545 0.4 17
  102.0436 1.2 53
  103.0513 0.5 22
  104.0469 1.5 67
  104.9307 1.2 53
  106.0625 0.5 22
  115.0511 2.5 111
  117.053 0.4 17
  118.0616 0.9 40
  128.047 1.9 85
  130.062 1.9 85
  132.0647 0.7 31
  135.9721 7.9 353
  142.062 0.5 22
  143.0617 0.5 22
  144.0769 1.1 49
  145.0732 0.8 35
  146.0565 0.4 17
  147.087 0.5 22
  159.0874 0.9 40
  187.0818 0.5 22
//
