ACCESSION: MSBNK-BAFG-CSL25010627922
RECORD_TITLE: 2-[(4-hydroxy-9,10-dioxoanthracen-1-yl)amino]-5-methylbenzenesulfonic acid; LC-ESI-QTOF; MS2; 60 V
DATE: 2025.01.06
AUTHORS: Ole Lessmann; Kevin S. Jewell; Björn Ehlig; Arne Wick
LICENSE: dl-de/by-2-0
COPYRIGHT: Copyright 2025 Federal Institute of Hydrology, Koblenz, Germany
COMMENT: CONFIDENCE Reference Standard (Level 1)
COMMENT: Chromatography method: dx.doi.org/10.1016/j.chroma.2015.11.014
COMMENT: Acquisition method: 10.1002/rcm.8541
CH$NAME: 2-[(4-hydroxy-9,10-dioxoanthracen-1-yl)amino]-5-methylbenzenesulfonic acid
CH$FORMULA: C21H15NO6S
CH$EXACT_MASS: 409.062
CH$SMILES: CC1=CC(=C(C=C1)NC2=C3C(=C(C=C2)O)C(=O)C4=CC=CC=C4C3=O)S(=O)(=O)O
CH$IUPAC: InChI=1S/C21H15NO6S/c1-11-6-7-14(17(10-11)29(26,27)28)22-15-8-9-16(23)19-18(15)20(24)12-4-2-3-5-13(12)21(19)25/h2-10,22-23H,1H3,(H,26,27,28)
CH$LINK: CAS 3443-92-3
CH$LINK: INCHIKEY XXQVCGHGQCAKKA-UHFFFAOYSA-N
AC$INSTRUMENT: TripleTOF X500R SCIEX
AC$INSTRUMENT_TYPE: LC-ESI-QTOF
AC$MASS_SPECTROMETRY: MS_TYPE MS2
AC$MASS_SPECTROMETRY: ION_MODE POSITIVE
AC$MASS_SPECTROMETRY: COLLISION_ENERGY 60
AC$MASS_SPECTROMETRY: FRAGMENTATION_MODE CID
AC$MASS_SPECTROMETRY: IONIZATION ESI
AC$CHROMATOGRAPHY: COLUMN_NAME Zorbax Eclipse Plus C18 2.1 mm x 150 mm, 3.5 um, Agilent
AC$CHROMATOGRAPHY: COLUMN_TEMPERATURE 40 °C
AC$CHROMATOGRAPHY: FLOW_GRADIENT 0 min min 98% A, 1 min 98% A, 2 min 80% A, 16.5 min 2% A, 22 min 2% A, 22.1 min 98% A, 27 min 98% A
AC$CHROMATOGRAPHY: FLOW_RATE 0.3 mL/min
AC$CHROMATOGRAPHY: RETENTION_TIME 11.683 min
AC$CHROMATOGRAPHY: SOLVENT A: Water 0.1% Formic acid, B: Acetonitrile 0.1% Formic acid
MS$FOCUSED_ION: PRECURSOR_M/Z 410.0693
MS$FOCUSED_ION: PRECURSOR_TYPE [M+H]+
MS$DATA_PROCESSING: COMMENT Export with pycsl 0.1.0.dev1 and CSL 24.4
PK$SPLASH: splash10-03di-0095000000-9f6fdfdec5a462d99985
PK$NUM_PEAK: 49
PK$PEAK: m/z int. rel.int.
  152.0629 0.6 28
  153.07 0.6 28
  180.0828 0.8 38
  201.0768 0.5 23
  202.077 2.2 104
  215.0922 0.5 23
  226.0778 1.1 52
  227.0793 1.3 61
  228.0829 5.5 261
  229.0885 4.8 228
  230.0705 0.6 28
  239.065 1.0 47
  240.0821 0.5 23
  241.0908 3.4 161
  242.0948 0.4 19
  243.1078 0.6 28
  244.1115 3.3 156
  251.0721 0.5 23
  252.0812 0.7 33
  253.0898 1.7 80
  254.0958 5.4 256
  256.0768 3.7 176
  257.0846 4.8 228
  270.0917 0.5 23
  271.1023 0.6 28
  272.1073 0.9 42
  281.0836 0.6 28
  282.0925 3.8 180
  283.1006 0.8 38
  284.0705 2.4 114
  284.1133 0.5 23
  285.0791 8.4 399
  286.0858 1.1 52
  298.0875 1.2 57
  299.0936 0.8 38
  300.103 2.7 128
  310.0859 1.0 47
  312.0351 0.5 23
  312.0664 4.6 218
  312.0963 0.4 19
  313.0741 21.0 999
  314.0855 0.5 23
  326.0845 1.3 61
  327.0886 2.1 99
  328.098 1.4 66
  328.1268 0.4 19
  329.1051 0.6 28
  342.0751 3.3 156
  343.0847 2.0 95
//