ACCESSION: MSBNK-BAFG-CSL23102512873
RECORD_TITLE: Olmesartan-d6; LC-ESI-QTOF; MS2; 30 V
DATE: 2023.10.25
AUTHORS: Kevin S. Jewell; Björn Ehlig; Arne Wick
LICENSE: dl-de/by-2-0
COPYRIGHT: Copyright 2023 Federal Institute of Hydrology, Koblenz, Germany
COMMENT: CONFIDENCE Reference Standard (Level 1)
COMMENT: Chromatography method: dx.doi.org/10.1016/j.chroma.2015.11.014
COMMENT: Acquisition method: 10.1002/rcm.8541
CH$NAME: Olmesartan-d6
CH$COMPOUND_CLASS: Surrogate_standard
CH$FORMULA: C24H20N6O3 2H6
CH$EXACT_MASS: 452.2443
CH$SMILES: [2H]C([2H])([2H])C(C1=C(N(C(=N1)CCC)CC2=CC=C(C=C2)C3=CC=CC=C3C4=NNN=N4)C(=O)O)(C([2H])([2H])[2H])O
CH$IUPAC: InChI=1S/C24H26N6O3/c1-4-7-19-25-21(24(2,3)33)20(23(31)32)30(19)14-15-10-12-16(13-11-15)17-8-5-6-9-18(17)22-26-28-29-27-22/h5-6,8-13,33H,4,7,14H2,1-3H3,(H,31,32)(H,26,27,28,29)/i2D3,3D3
CH$LINK: CAS 1185144-74-4
CH$LINK: INCHIKEY VTRAEEWXHOVJFV-XERRXZQWSA-N
AC$INSTRUMENT: TripleTOF 5600 SCIEX
AC$INSTRUMENT_TYPE: LC-ESI-QTOF
AC$MASS_SPECTROMETRY: MS_TYPE MS2
AC$MASS_SPECTROMETRY: ION_MODE POSITIVE
AC$MASS_SPECTROMETRY: COLLISION_ENERGY 30
AC$MASS_SPECTROMETRY: FRAGMENTATION_MODE CID
AC$MASS_SPECTROMETRY: IONIZATION ESI
AC$CHROMATOGRAPHY: COLUMN_NAME Zorbax Eclipse Plus C18 2.1 mm x 150 mm, 3.5 um, Agilent
AC$CHROMATOGRAPHY: COLUMN_TEMPERATURE 40 °C
AC$CHROMATOGRAPHY: FLOW_GRADIENT 0 min min 98% A, 1 min 98% A, 2 min 80% A, 16.5 min 2% A, 22 min 2% A, 22.1 min 98% A, 27 min 98% A
AC$CHROMATOGRAPHY: FLOW_RATE 0.3 mL/min
AC$CHROMATOGRAPHY: RETENTION_TIME 7.306 min
AC$CHROMATOGRAPHY: SOLVENT A: Water 0.1% Formic acid, B: Acetonitrile 0.1% Formic acid
MS$FOCUSED_ION: PRECURSOR_M/Z 453.2527
MS$FOCUSED_ION: PRECURSOR_TYPE [M+H]+
MS$DATA_PROCESSING: COMMENT Export with Spectra 1.9.12 MsBackendMassbank 1.7.4
MS$DATA_PROCESSING: WHOLE RMassBank 2.3.1
PK$SPLASH: splash10-0a4r-0290100000-06a3bf028ed0ab1a42a9
PK$NUM_PEAK: 23
PK$PEAK: m/z int. rel.int.
  153.069 7.7 19
  178.0776 46.1 116
  179.0849 26.2 66
  180.0832 51.2 129
  181.0884 7.3 18
  182.1333 29.9 75
  183.1399 24.3 61
  190.0654 38.3 97
  191.0728 13.1 33
  192.0723 12.7 32
  201.151 69.4 175
  205.0771 5.1 12
  206.0841 20.4 51
  207.091 394.3 999
  208.0976 269.4 682
  209.1033 16.5 41
  235.0974 180.3 456
  236.1046 48.2 122
  363.2437 19.9 50
  388.2177 13.6 34
  407.2335 13.8 34
  435.2403 187.8 475
  453.2515 6.2 15
//
