ACCESSION: MSBNK-BAFG-CSL2310264879
RECORD_TITLE: Diphenyl(2,4,6-trimethylbenzoyl)phosphine oxide; LC-ESI-QTOF; MS2; 120 V
DATE: 2023.10.26
AUTHORS: Kevin S. Jewell; Björn Ehlig; Arne Wick
LICENSE: dl-de/by-2-0
COPYRIGHT: Copyright 2023 Federal Institute of Hydrology, Koblenz, Germany
COMMENT: CONFIDENCE Reference Standard (Level 1)
COMMENT: Chromatography method: dx.doi.org/10.1016/j.chroma.2015.11.014
COMMENT: Acquisition method: 10.1002/rcm.8541
CH$NAME: Diphenyl(2,4,6-trimethylbenzoyl)phosphine oxide
CH$COMPOUND_CLASS: Industrial_process
CH$FORMULA: C22H21O2P
CH$EXACT_MASS: 348.1279
CH$SMILES: Cc1cc(C)c(c(C)c1)C(=O)[P](=O)(c2ccccc2)c3ccccc3
CH$IUPAC: InChI=1S/C22H21O2P/c1-16-14-17(2)21(18(3)15-16)22(23)25(24,19-10-6-4-7-11-19)20-12-8-5-9-13-20/h4-15H,1-3H3
CH$LINK: CAS 75980-60-8
CH$LINK: INCHIKEY VFHVQBAGLAREND-UHFFFAOYSA-N
AC$INSTRUMENT: TripleTOF 5600 SCIEX
AC$INSTRUMENT_TYPE: LC-ESI-QTOF
AC$MASS_SPECTROMETRY: MS_TYPE MS2
AC$MASS_SPECTROMETRY: ION_MODE POSITIVE
AC$MASS_SPECTROMETRY: COLLISION_ENERGY 120
AC$MASS_SPECTROMETRY: FRAGMENTATION_MODE CID
AC$MASS_SPECTROMETRY: IONIZATION ESI
AC$CHROMATOGRAPHY: COLUMN_NAME Zorbax Eclipse Plus C18 2.1 mm x 150 mm, 3.5 um, Agilent
AC$CHROMATOGRAPHY: COLUMN_TEMPERATURE 40 °C
AC$CHROMATOGRAPHY: FLOW_GRADIENT 0 min min 98% A, 1 min 98% A, 2 min 80% A, 16.5 min 2% A, 22 min 2% A, 22.1 min 98% A, 27 min 98% A
AC$CHROMATOGRAPHY: FLOW_RATE 0.3 mL/min
AC$CHROMATOGRAPHY: RETENTION_TIME 14.088 min
AC$CHROMATOGRAPHY: SOLVENT A: Water 0.1% Formic acid, B: Acetonitrile 0.1% Formic acid
MS$FOCUSED_ION: PRECURSOR_M/Z 349.1352
MS$FOCUSED_ION: PRECURSOR_TYPE [M+H]+
MS$DATA_PROCESSING: COMMENT Export with Spectra 1.9.12 MsBackendMassbank 1.7.4
MS$DATA_PROCESSING: WHOLE RMassBank 2.3.1
PK$SPLASH: splash10-0fvl-9200000000-c2bb3b9fa67c1de9dc15
PK$NUM_PEAK: 16
PK$PEAK: m/z int. rel.int.
  51.0305 11.9 119
  65.0439 48.1 481
  77.0423 80 800
  77.0729 1.3 13
  78.0495 27.2 272
  79.0569 8.2 82
  89.0401 1.6 16
  91.0569 99.8 999
  93.0711 2.3 23
  102.0479 4.2 42
  103.0553 29.5 295
  104.0631 18.3 183
  115.0548 21.8 218
  116.0622 1.7 17
  117.0704 8.9 89
  119.0855 8.6 86
//
