ACCESSION: MSBNK-BAFG-CSL2311109288
RECORD_TITLE: 2-p-Tolyl-1H-benzoimidazole; LC-ESI-QTOF; MS2; 100 V
DATE: 2023.11.10
AUTHORS: Kevin S. Jewell; Björn Ehlig; Arne Wick
LICENSE: dl-de/by-2-0
COPYRIGHT: Copyright 2023 Federal Institute of Hydrology, Koblenz, Germany
COMMENT: CONFIDENCE Reference Standard (Level 1)
COMMENT: Chromatography method: dx.doi.org/10.1016/j.chroma.2015.11.014
COMMENT: Acquisition method: 10.1002/rcm.8541
CH$NAME: 2-p-Tolyl-1H-benzoimidazole
CH$COMPOUND_CLASS: Pharmaceutical
CH$FORMULA: C14H12N2
CH$EXACT_MASS: 208.1
CH$SMILES: CC1=CC=C(C=C1)C2=NC3=CC=CC=C3N2
CH$IUPAC: InChI=1S/C14H12N2/c1-10-6-8-11(9-7-10)14-15-12-4-2-3-5-13(12)16-14/h2-9H,1H3,(H,15,16)
CH$LINK: CAS 120-03-6
CH$LINK: INCHIKEY YJSWQFYMPODDTQ-UHFFFAOYSA-N
AC$INSTRUMENT: TripleTOF 5600 SCIEX
AC$INSTRUMENT_TYPE: LC-ESI-QTOF
AC$MASS_SPECTROMETRY: MS_TYPE MS2
AC$MASS_SPECTROMETRY: ION_MODE POSITIVE
AC$MASS_SPECTROMETRY: COLLISION_ENERGY 100
AC$MASS_SPECTROMETRY: FRAGMENTATION_MODE CID
AC$MASS_SPECTROMETRY: IONIZATION ESI
AC$CHROMATOGRAPHY: COLUMN_NAME Zorbax Eclipse Plus C18 2.1 mm x 150 mm, 3.5 um, Agilent
AC$CHROMATOGRAPHY: COLUMN_TEMPERATURE 40 °C
AC$CHROMATOGRAPHY: FLOW_GRADIENT 0 min min 98% A, 1 min 98% A, 2 min 80% A, 16.5 min 2% A, 22 min 2% A, 22.1 min 98% A, 27 min 98% A
AC$CHROMATOGRAPHY: FLOW_RATE 0.3 mL/min
AC$CHROMATOGRAPHY: RETENTION_TIME 6.061 min
AC$CHROMATOGRAPHY: SOLVENT A: Water 0.1% Formic acid, B: Acetonitrile 0.1% Formic acid
MS$FOCUSED_ION: PRECURSOR_M/Z 209.1073
MS$FOCUSED_ION: PRECURSOR_TYPE [M+H]+
MS$DATA_PROCESSING: COMMENT Export with Spectra 1.9.12 MsBackendMassbank 1.7.4
MS$DATA_PROCESSING: WHOLE RMassBank 2.3.1
PK$SPLASH: splash10-014i-9300000000-627b59d4287dbc915e76
PK$NUM_PEAK: 38
PK$PEAK: m/z int. rel.int.
  52.0325 1.9 35
  64.0347 4.7 86
  65.046 54.2 999
  66.0398 0.6 11
  74.0199 2.5 46
  75.0279 3.3 60
  76.0316 1.3 23
  77.0432 8 147
  86.0186 0.8 14
  87.026 1.5 27
  88.0345 1.1 20
  89.0417 10.1 186
  90.0372 0.6 11
  91.0513 4.4 81
  92.0506 1 18
  102.0385 1.3 23
  103.0542 0.6 11
  113.0412 2.9 53
  114.036 1.7 31
  115.0549 1.4 25
  125.0395 0.6 11
  126.0459 1.1 20
  127.0527 1.1 20
  128.0573 0.6 11
  137.041 1.7 31
  138.0439 1.6 29
  139.0549 4.5 82
  140.0494 3.2 58
  150.0493 1.7 31
  151.0538 2.3 42
  152.062 1.7 31
  164.0498 4.4 81
  165.0517 1.2 22
  177.0609 1.6 29
  178.0641 1.2 22
  179.0628 0.6 11
  192.0713 0.7 12
  205.0776 2.4 44
//
