ACCESSION: MSBNK-BAFG-CSL2310254157
RECORD_TITLE: Ametryn; LC-ESI-QTOF; MS2; 40 V
DATE: 2023.10.25
AUTHORS: Kevin S. Jewell; Björn Ehlig; Arne Wick
LICENSE: dl-de/by-2-0
COPYRIGHT: Copyright 2023 Federal Institute of Hydrology, Koblenz, Germany
COMMENT: CONFIDENCE Reference Standard (Level 1)
COMMENT: Chromatography method: dx.doi.org/10.1016/j.chroma.2015.11.014
COMMENT: Acquisition method: 10.1002/rcm.8541
CH$NAME: Ametryn
CH$COMPOUND_CLASS: Herbicide
CH$FORMULA: C9H17N5S
CH$EXACT_MASS: 227.1205
CH$SMILES: CCNc1nc(NC(C)C)nc(SC)n1
CH$IUPAC: InChI=1S/C9H17N5S/c1-5-10-7-12-8(11-6(2)3)14-9(13-7)15-4/h6H,5H2,1-4H3,(H2,10,11,12,13,14)
CH$LINK: CAS 834-12-8
CH$LINK: INCHIKEY RQVYBGPQFYCBGX-UHFFFAOYSA-N
AC$INSTRUMENT: TripleTOF 5600 SCIEX
AC$INSTRUMENT_TYPE: LC-ESI-QTOF
AC$MASS_SPECTROMETRY: MS_TYPE MS2
AC$MASS_SPECTROMETRY: ION_MODE POSITIVE
AC$MASS_SPECTROMETRY: COLLISION_ENERGY 40
AC$MASS_SPECTROMETRY: FRAGMENTATION_MODE CID
AC$MASS_SPECTROMETRY: IONIZATION ESI
AC$CHROMATOGRAPHY: COLUMN_NAME Zorbax Eclipse Plus C18 2.1 mm x 150 mm, 3.5 um, Agilent
AC$CHROMATOGRAPHY: COLUMN_TEMPERATURE 40 °C
AC$CHROMATOGRAPHY: FLOW_GRADIENT 0 min min 98% A, 1 min 98% A, 2 min 80% A, 16.5 min 2% A, 22 min 2% A, 22.1 min 98% A, 27 min 98% A
AC$CHROMATOGRAPHY: FLOW_RATE 0.3 mL/min
AC$CHROMATOGRAPHY: RETENTION_TIME 8.651 min
AC$CHROMATOGRAPHY: SOLVENT A: Water 0.1% Formic acid, B: Acetonitrile 0.1% Formic acid
MS$FOCUSED_ION: PRECURSOR_M/Z 228.1277
MS$FOCUSED_ION: PRECURSOR_TYPE [M+H]+
MS$DATA_PROCESSING: COMMENT Export with Spectra 1.9.12 MsBackendMassbank 1.7.4
MS$DATA_PROCESSING: WHOLE RMassBank 2.3.1
PK$SPLASH: splash10-01bj-9610000000-79ceed96ef34473b5910
PK$NUM_PEAK: 20
PK$PEAK: m/z int. rel.int.
  43.0384 35.5 217
  68.0295 163.2 999
  71.0644 79.4 486
  74.0096 61.3 375
  85.0527 20.6 126
  85.075 3.2 19
  91.0343 87 532
  96.0574 137.2 839
  102.0375 6 36
  110.0462 16.1 98
  110.0694 2.1 12
  113.0823 15.7 96
  116.0281 98.7 604
  138.0775 50.4 308
  138.1017 5.7 34
  144.0588 43.7 267
  158.0495 45 275
  180.1237 3.2 19
  186.0806 145.4 890
  228.1278 66.6 407
//
