ACCESSION: MSBNK-BAFG-CSL23110918689
RECORD_TITLE: 3,4-Methylenedioxymethamphetamine; LC-ESI-QTOF; MS2; 100 V
DATE: 2023.11.09
AUTHORS: Kevin S. Jewell; Björn Ehlig; Arne Wick
LICENSE: dl-de/by-2-0
COPYRIGHT: Copyright 2023 Federal Institute of Hydrology, Koblenz, Germany
COMMENT: CONFIDENCE Reference Standard (Level 1)
COMMENT: Chromatography method: dx.doi.org/10.1016/j.chroma.2015.11.014
COMMENT: Acquisition method: 10.1002/rcm.8541
CH$NAME: 3,4-Methylenedioxymethamphetamine
CH$COMPOUND_CLASS: Pharmaceutical
CH$FORMULA: C11H15NO2
CH$EXACT_MASS: 193.1103
CH$SMILES: CC(CC1=CC2=C(C=C1)OCO2)NC
CH$IUPAC: InChI=1S/C11H15NO2/c1-8(12-2)5-9-3-4-10-11(6-9)14-7-13-10/h3-4,6,8,12H,5,7H2,1-2H3
CH$LINK: CAS 42542-10-9
CH$LINK: INCHIKEY SHXWCVYOXRDMCX-UHFFFAOYSA-N
AC$INSTRUMENT: TripleTOF 6600 SCIEX
AC$INSTRUMENT_TYPE: LC-ESI-QTOF
AC$MASS_SPECTROMETRY: MS_TYPE MS2
AC$MASS_SPECTROMETRY: ION_MODE POSITIVE
AC$MASS_SPECTROMETRY: COLLISION_ENERGY 100
AC$MASS_SPECTROMETRY: FRAGMENTATION_MODE CID
AC$MASS_SPECTROMETRY: IONIZATION ESI
AC$CHROMATOGRAPHY: COLUMN_NAME Zorbax Eclipse Plus C18 2.1 mm x 150 mm, 3.5 um, Agilent
AC$CHROMATOGRAPHY: COLUMN_TEMPERATURE 40 °C
AC$CHROMATOGRAPHY: FLOW_GRADIENT 0 min min 98% A, 1 min 98% A, 2 min 80% A, 16.5 min 2% A, 22 min 2% A, 22.1 min 98% A, 27 min 98% A
AC$CHROMATOGRAPHY: FLOW_RATE 0.3 mL/min
AC$CHROMATOGRAPHY: RETENTION_TIME 5.421 min
AC$CHROMATOGRAPHY: SOLVENT A: Water 0.1% Formic acid, B: Acetonitrile 0.1% Formic acid
MS$FOCUSED_ION: PRECURSOR_M/Z 194.1176
MS$FOCUSED_ION: PRECURSOR_TYPE [M+H]+
MS$DATA_PROCESSING: COMMENT Export with Spectra 1.9.12 MsBackendMassbank 1.7.4
MS$DATA_PROCESSING: WHOLE RMassBank 2.3.1
PK$SPLASH: splash10-0udi-9000000000-82cae7e977ef786bb3f9
PK$NUM_PEAK: 22
PK$PEAK: m/z int. rel.int.
  35.9989 3.1 18
  37.0069 17.8 105
  38.0032 1.9 11
  38.0144 12.2 72
  39.0226 36.8 218
  42.0329 1.7 10
  44.0487 1.9 11
  49.0067 14.3 84
  50.0147 105.5 625
  51.0225 168.6 999
  53.0388 2.3 13
  59.9993 1.7 10
  61.0061 8.7 51
  62.0144 16.6 98
  63.0222 27.5 162
  65.0381 6.6 39
  73.0063 1.8 10
  74.0139 11 65
  75.0217 3.3 19
  77.0377 43 254
  78.0446 1.7 10
  89.0373 13.1 77
//
