ACCESSION: MSBNK-BAFG-CSL2310266531
RECORD_TITLE: Tributylphosphine oxide; LC-ESI-QTOF; MS2; 30 V
DATE: 2023.10.26
AUTHORS: Kevin S. Jewell; Björn Ehlig; Arne Wick
LICENSE: dl-de/by-2-0
COPYRIGHT: Copyright 2023 Federal Institute of Hydrology, Koblenz, Germany
COMMENT: CONFIDENCE Reference Standard (Level 1)
COMMENT: Chromatography method: dx.doi.org/10.1016/j.chroma.2015.11.014
COMMENT: Acquisition method: 10.1002/rcm.8541
CH$NAME: Tributylphosphine oxide
CH$COMPOUND_CLASS: Industrial_process
CH$FORMULA: C12H27OP
CH$EXACT_MASS: 218.18
CH$SMILES: CCCC[P](=O)(CCCC)CCCC
CH$IUPAC: InChI=1S/C12H27OP/c1-4-7-10-14(13,11-8-5-2)12-9-6-3/h4-12H2,1-3H3
CH$LINK: CAS 814-29-9
CH$LINK: INCHIKEY MNZAKDODWSQONA-UHFFFAOYSA-N
AC$INSTRUMENT: TripleTOF 5600 SCIEX
AC$INSTRUMENT_TYPE: LC-ESI-QTOF
AC$MASS_SPECTROMETRY: MS_TYPE MS2
AC$MASS_SPECTROMETRY: ION_MODE POSITIVE
AC$MASS_SPECTROMETRY: COLLISION_ENERGY 30
AC$MASS_SPECTROMETRY: FRAGMENTATION_MODE CID
AC$MASS_SPECTROMETRY: IONIZATION ESI
AC$CHROMATOGRAPHY: COLUMN_NAME Zorbax Eclipse Plus C18 2.1 mm x 150 mm, 3.5 um, Agilent
AC$CHROMATOGRAPHY: COLUMN_TEMPERATURE 40 °C
AC$CHROMATOGRAPHY: FLOW_GRADIENT 0 min min 98% A, 1 min 98% A, 2 min 80% A, 16.5 min 2% A, 22 min 2% A, 22.1 min 98% A, 27 min 98% A
AC$CHROMATOGRAPHY: FLOW_RATE 0.3 mL/min
AC$CHROMATOGRAPHY: RETENTION_TIME 11.114 min
AC$CHROMATOGRAPHY: SOLVENT A: Water 0.1% Formic acid, B: Acetonitrile 0.1% Formic acid
MS$FOCUSED_ION: PRECURSOR_M/Z 219.1872
MS$FOCUSED_ION: PRECURSOR_TYPE [M+H]+
MS$DATA_PROCESSING: COMMENT Export with Spectra 1.9.12 MsBackendMassbank 1.7.4
MS$DATA_PROCESSING: WHOLE RMassBank 2.3.1
PK$SPLASH: splash10-014i-2390000000-6951f94b66bd1774d5bc
PK$NUM_PEAK: 15
PK$PEAK: m/z int. rel.int.
  63.0039 21.4 19
  78.0261 122.3 110
  89.0522 12 10
  92.0403 126.2 114
  106.0537 14.8 13
  107.0616 22.8 20
  120.0691 27.7 25
  133.0771 18.3 16
  147.0927 28.5 25
  161.1088 44 39
  163.1245 197.1 178
  175.1236 23.1 20
  191.1551 53.1 48
  203.1422 42.1 38
  219.1863 1105.1 999
//
