ACCESSION: MSBNK-BAFG-CSL25011734686
RECORD_TITLE: Crystal Violet Cation; LC-ESI-QTOF; MS2; 100 V
DATE: 2025.01.17
AUTHORS: Ole Lessmann; Kevin S. Jewell; Björn Ehlig; Arne Wick
LICENSE: dl-de/by-2-0
COPYRIGHT: Copyright 2025 Federal Institute of Hydrology, Koblenz, Germany
COMMENT: CONFIDENCE Reference Standard (Level 1)
COMMENT: Chromatography method: dx.doi.org/10.1016/j.chroma.2015.11.014
CH$NAME: Crystal Violet Cation
CH$FORMULA: [C25H30N3]+
CH$EXACT_MASS: 372.2434
CH$SMILES: CN(C)C1=CC=C(C=C1)C(=C2C=CC(=[N+](C)C)C=C2)C3=CC=C(C=C3)N(C)C
CH$IUPAC: InChI=1S/C25H30N3/c1-26(2)22-13-7-19(8-14-22)25(20-9-15-23(16-10-20)27(3)4)21-11-17-24(18-12-21)28(5)6/h7-18H,1-6H3/q+1
CH$LINK: CAS 7438-46-2
CH$LINK: INCHIKEY LGLFFNDHMLKUMI-UHFFFAOYSA-N
AC$INSTRUMENT: TripleTOF 6600 SCIEX
AC$INSTRUMENT_TYPE: LC-ESI-QTOF
AC$MASS_SPECTROMETRY: MS_TYPE MS2
AC$MASS_SPECTROMETRY: ION_MODE POSITIVE
AC$MASS_SPECTROMETRY: COLLISION_ENERGY 100
AC$MASS_SPECTROMETRY: FRAGMENTATION_MODE CID
AC$MASS_SPECTROMETRY: IONIZATION ESI
AC$CHROMATOGRAPHY: COLUMN_NAME Zorbax Eclipse Plus C18 2.1 mm x 150 mm, 3.5 um, Agilent
AC$CHROMATOGRAPHY: COLUMN_TEMPERATURE 40 °C
AC$CHROMATOGRAPHY: FLOW_GRADIENT 0 min min 98% A, 1 min 98% A, 2 min 80% A, 16.5 min 2% A, 22 min 2% A, 22.1 min 98% A, 27 min 98% A
AC$CHROMATOGRAPHY: FLOW_RATE 0.3 mL/min
AC$CHROMATOGRAPHY: RETENTION_TIME 11.587 min
AC$CHROMATOGRAPHY: SOLVENT A: Water 0.1% Formic acid, B: Acetonitrile 0.1% Formic acid
MS$FOCUSED_ION: PRECURSOR_M/Z 372.2434
MS$FOCUSED_ION: PRECURSOR_TYPE [M]+
MS$DATA_PROCESSING: COMMENT Export with pycsl 0.1.0.dev1 and CSL 25.0
PK$SPLASH: splash10-014u-0191000000-9355dc45a4d56a65bfab
PK$NUM_PEAK: 39
PK$PEAK: m/z int. rel.int.
  118.0619 12.9 56
  164.0594 18.9 82
  165.0682 96.0 417
  190.0637 27.4 119
  191.0705 47.1 204
  192.0791 83.1 361
  202.0762 12.8 55
  207.1015 18.1 78
  208.1097 34.5 149
  215.0828 46.4 201
  219.089 61.0 265
  220.0986 16.9 73
  226.0761 33.9 147
  227.0822 17.5 76
  228.0911 31.1 135
  235.1215 61.9 268
  239.0842 205.9 894
  240.0915 92.4 401
  241.0991 97.6 424
  242.0972 20.0 86
  252.0893 16.1 69
  253.0896 19.5 84
  254.0953 33.3 144
  255.1012 22.3 96
  256.1097 11.7 50
  266.0952 21.0 91
  267.1025 61.7 268
  268.1103 229.9 999
  269.1167 22.6 98
  281.1063 14.6 63
  282.1185 20.3 88
  283.1299 14.5 63
  284.1421 43.9 190
  295.1209 77.8 338
  296.1295 43.5 189
  297.1369 29.3 127
  311.1527 92.1 400
  324.1489 65.8 285
  340.1793 43.3 188
//
