ACCESSION: MSBNK-BAFG-CSL2310266084
RECORD_TITLE: Carbadox; LC-ESI-QTOF; MS2; 110 V
DATE: 2023.10.26
AUTHORS: Kevin S. Jewell; Björn Ehlig; Arne Wick
LICENSE: dl-de/by-2-0
COPYRIGHT: Copyright 2023 Federal Institute of Hydrology, Koblenz, Germany
COMMENT: CONFIDENCE Reference Standard (Level 1)
COMMENT: Chromatography method: dx.doi.org/10.1016/j.chroma.2015.11.014
COMMENT: Acquisition method: 10.1002/rcm.8541
CH$NAME: Carbadox
CH$COMPOUND_CLASS: Antimicrobial; Pharmaceutical
CH$FORMULA: C11H10N4O4
CH$EXACT_MASS: 262.0702
CH$SMILES: COC(=O)N=NC=C1C=[N+]([O-])c2ccccc2N1O
CH$IUPAC: InChI=1S/C11H10N4O4/c1-19-11(16)13-12-6-8-7-14(17)9-4-2-3-5-10(9)15(8)18/h2-7,18H,1H3
CH$LINK: CAS 6804-07-5
CH$LINK: INCHIKEY BPMVRAQIQQEBLN-UHFFFAOYSA-N
AC$INSTRUMENT: TripleTOF 5600 SCIEX
AC$INSTRUMENT_TYPE: LC-ESI-QTOF
AC$MASS_SPECTROMETRY: MS_TYPE MS2
AC$MASS_SPECTROMETRY: ION_MODE POSITIVE
AC$MASS_SPECTROMETRY: COLLISION_ENERGY 110
AC$MASS_SPECTROMETRY: FRAGMENTATION_MODE CID
AC$MASS_SPECTROMETRY: IONIZATION ESI
AC$CHROMATOGRAPHY: COLUMN_NAME Zorbax Eclipse Plus C18 2.1 mm x 150 mm, 3.5 um, Agilent
AC$CHROMATOGRAPHY: COLUMN_TEMPERATURE 40 °C
AC$CHROMATOGRAPHY: FLOW_GRADIENT 0 min min 98% A, 1 min 98% A, 2 min 80% A, 16.5 min 2% A, 22 min 2% A, 22.1 min 98% A, 27 min 98% A
AC$CHROMATOGRAPHY: FLOW_RATE 0.3 mL/min
AC$CHROMATOGRAPHY: RETENTION_TIME 5.823 min
AC$CHROMATOGRAPHY: SOLVENT A: Water 0.1% Formic acid, B: Acetonitrile 0.1% Formic acid
MS$FOCUSED_ION: PRECURSOR_M/Z 263.0775
MS$FOCUSED_ION: PRECURSOR_TYPE [M+H]+
MS$DATA_PROCESSING: COMMENT Export with Spectra 1.9.12 MsBackendMassbank 1.7.4
MS$DATA_PROCESSING: WHOLE RMassBank 2.3.1
PK$SPLASH: splash10-004i-9000000000-a06d45e411fcce72f6b7
PK$NUM_PEAK: 22
PK$PEAK: m/z int. rel.int.
  49.0282 0.4 22
  51.0288 13.3 742
  52.0233 2.2 122
  65.0291 0.5 27
  65.0435 0.7 39
  73.0105 1.1 61
  74.0185 14.3 798
  74.0463 0.5 27
  75.026 17.2 959
  76.0276 17.9 999
  76.0563 0.4 22
  77.0402 5 279
  78.0353 0.7 39
  88.0198 1.3 72
  89.0393 0.7 39
  90.0339 1.8 100
  91.0448 0.4 22
  99.0092 0.5 27
  100.0174 0.6 33
  102.0341 4.5 251
  103.0417 1.3 72
  130.0427 0.5 27
//
