ACCESSION: MSBNK-BAFG-CSL231025585
RECORD_TITLE: Dibenzyldimethyl ammonium; LC-ESI-QTOF; MS2; 140 V
DATE: 2023.10.25
AUTHORS: Kevin S. Jewell; Björn Ehlig; Arne Wick
LICENSE: dl-de/by-2-0
COPYRIGHT: Copyright 2023 Federal Institute of Hydrology, Koblenz, Germany
COMMENT: CONFIDENCE Reference Standard (Level 1)
COMMENT: Chromatography method: dx.doi.org/10.1016/j.chroma.2015.11.014
COMMENT: Acquisition method: 10.1002/rcm.8541
CH$NAME: Dibenzyldimethyl ammonium
CH$COMPOUND_CLASS: Industrial_process
CH$FORMULA: C16H20N
CH$EXACT_MASS: 226.159
CH$SMILES: C[N+](C)(Cc1ccccc1)Cc2ccccc2
CH$IUPAC: InChI=1S/C16H20N/c1-17(2,13-15-9-5-3-6-10-15)14-16-11-7-4-8-12-16/h3-12H,13-14H2,1-2H3/q+1
CH$LINK: CAS 14800-26-1
CH$LINK: INCHIKEY LNIYNESXCOYFPW-UHFFFAOYSA-N
AC$INSTRUMENT: TripleTOF 5600 SCIEX
AC$INSTRUMENT_TYPE: LC-ESI-QTOF
AC$MASS_SPECTROMETRY: MS_TYPE MS2
AC$MASS_SPECTROMETRY: ION_MODE POSITIVE
AC$MASS_SPECTROMETRY: COLLISION_ENERGY 140
AC$MASS_SPECTROMETRY: FRAGMENTATION_MODE CID
AC$MASS_SPECTROMETRY: IONIZATION ESI
AC$CHROMATOGRAPHY: COLUMN_NAME Zorbax Eclipse Plus C18 2.1 mm x 150 mm, 3.5 um, Agilent
AC$CHROMATOGRAPHY: COLUMN_TEMPERATURE 40 °C
AC$CHROMATOGRAPHY: FLOW_GRADIENT 0 min min 98% A, 1 min 98% A, 2 min 80% A, 16.5 min 2% A, 22 min 2% A, 22.1 min 98% A, 27 min 98% A
AC$CHROMATOGRAPHY: FLOW_RATE 0.3 mL/min
AC$CHROMATOGRAPHY: RETENTION_TIME 6.134 min
AC$CHROMATOGRAPHY: SOLVENT A: Water 0.1% Formic acid, B: Acetonitrile 0.1% Formic acid
MS$FOCUSED_ION: PRECURSOR_M/Z 226.159
MS$FOCUSED_ION: PRECURSOR_TYPE [M]+
MS$DATA_PROCESSING: COMMENT Export with Spectra 1.9.12 MsBackendMassbank 1.7.4
MS$DATA_PROCESSING: WHOLE RMassBank 2.3.1
PK$SPLASH: splash10-014i-9000000000-983d226d304f839360ac
PK$NUM_PEAK: 3
PK$PEAK: m/z int. rel.int.
  51.027 0.7 194
  65.0431 3.6 999
  91.0562 0.7 194
//
