ACCESSION: MSBNK-BAFG-CSL25010634217
RECORD_TITLE: 4'-O-Demethyl pantoprazole sulfide; LC-ESI-QTOF; MS2; 70 V
DATE: 2025.01.06
AUTHORS: Ole Lessmann; Kevin S. Jewell; Björn Ehlig; Arne Wick
LICENSE: dl-de/by-2-0
COPYRIGHT: Copyright 2025 Federal Institute of Hydrology, Koblenz, Germany
COMMENT: CONFIDENCE Reference Standard (Level 1)
COMMENT: Chromatography method: dx.doi.org/10.1016/j.chroma.2015.11.014
COMMENT: Acquisition method: 10.1002/rcm.8541
CH$NAME: 4'-O-Demethyl pantoprazole sulfide
CH$COMPOUND_CLASS: Pharmaceutical; Transformation_product-Metabolite
CH$FORMULA: C15H13F2N3O3S
CH$EXACT_MASS: 353.0646
CH$SMILES: COC1=C(NC=CC1=O)CSC2=NC3=C(N2)C=C(C=C3)OC(F)F
CH$IUPAC: InChI=1S/C15H13F2N3O3S/c1-22-13-11(18-5-4-12(13)21)7-24-15-19-9-3-2-8(23-14(16)17)6-10(9)20-15/h2-6,14H,7H2,1H3,(H,18,21)(H,19,20)
CH$LINK: CAS 141854-21-9
CH$LINK: INCHIKEY ILLQTAPXYCRJRB-UHFFFAOYSA-N
AC$INSTRUMENT: TripleTOF 6600 SCIEX
AC$INSTRUMENT_TYPE: LC-ESI-QTOF
AC$MASS_SPECTROMETRY: MS_TYPE MS2
AC$MASS_SPECTROMETRY: ION_MODE POSITIVE
AC$MASS_SPECTROMETRY: COLLISION_ENERGY 70
AC$MASS_SPECTROMETRY: FRAGMENTATION_MODE CID
AC$MASS_SPECTROMETRY: IONIZATION ESI
AC$CHROMATOGRAPHY: COLUMN_NAME Zorbax Eclipse Plus C18 2.1 mm x 150 mm, 3.5 um, Agilent
AC$CHROMATOGRAPHY: COLUMN_TEMPERATURE 40 °C
AC$CHROMATOGRAPHY: FLOW_GRADIENT 0 min min 98% A, 1 min 98% A, 2 min 80% A, 16.5 min 2% A, 22 min 2% A, 22.1 min 98% A, 27 min 98% A
AC$CHROMATOGRAPHY: FLOW_RATE 0.3 mL/min
AC$CHROMATOGRAPHY: RETENTION_TIME 7.57 min
AC$CHROMATOGRAPHY: SOLVENT A: Water 0.1% Formic acid, B: Acetonitrile 0.1% Formic acid
MS$FOCUSED_ION: PRECURSOR_M/Z 354.0719
MS$FOCUSED_ION: PRECURSOR_TYPE [M+H]+
MS$DATA_PROCESSING: COMMENT Export with pycsl 0.1.0.dev1 and CSL 24.4
PK$SPLASH: splash10-0pc9-9800000000-c99caeb0414cd3421fca
PK$NUM_PEAK: 68
PK$PEAK: m/z int. rel.int.
  39.0221 8.4 80
  41.0389 1.3 12
  42.0331 9.6 92
  43.0169 1.5 14
  51.0228 1.2 11
  53.0014 1.1 10
  53.0379 85.1 815
  54.0328 2.3 22
  55.0168 3.9 37
  63.0219 13.3 127
  65.0373 8.1 77
  66.0089 5.0 47
  66.0327 2.9 27
  66.0449 1.4 13
  67.017 24.5 234
  67.0398 17.0 162
  68.0119 6.2 59
  68.0481 3.0 28
  70.0275 4.3 41
  78.0323 4.1 39
  80.0108 3.5 33
  80.0483 68.9 660
  81.0318 11.1 106
  82.0264 2.0 19
  82.0634 9.4 90
  83.0356 1.2 11
  90.0326 14.7 140
  92.0482 7.8 74
  93.0558 14.7 140
  94.027 9.0 86
  95.0352 19.1 183
  96.0428 16.8 161
  98.0586 2.6 24
  99.0128 6.6 63
  106.0527 1.1 10
  107.0584 3.4 32
  108.043 104.2 999
  109.0501 5.7 54
  110.0583 37.0 354
  111.0297 2.3 22
  117.0433 10.9 104
  118.0506 15.9 152
  120.0414 7.7 73
  121.0514 1.1 10
  124.0391 5.4 51
  125.0456 2.7 25
  125.9992 12.5 119
  126.0531 6.5 62
  127.0065 19.3 185
  134.0449 2.6 24
  135.0542 43.9 420
  136.0374 32.3 309
  138.0531 10.1 96
  140.0146 11.5 110
  142.0302 3.1 29
  147.0538 1.1 10
  155.0014 15.0 143
  159.0527 1.9 18
  165.0107 3.0 28
  166.0169 5.3 50
  170.0264 7.5 71
  185.0515 6.6 63
  209.0496 3.5 33
  210.0593 1.1 10
  211.0719 2.8 26
  216.0154 2.0 19
  228.0809 1.2 11
  278.0782 1.4 13
//