ACCESSION: MSBNK-BAFG-CSL25010634417
RECORD_TITLE: O-tolidine; LC-ESI-QTOF; MS2; 80 V
DATE: 2025.01.06
AUTHORS: Ole Lessmann; Kevin S. Jewell; Björn Ehlig; Arne Wick
LICENSE: dl-de/by-2-0
COPYRIGHT: Copyright 2025 Federal Institute of Hydrology, Koblenz, Germany
COMMENT: CONFIDENCE Reference Standard (Level 1)
COMMENT: Chromatography method: dx.doi.org/10.1016/j.chroma.2015.11.014
COMMENT: Acquisition method: 10.1002/rcm.8541
CH$NAME: O-tolidine
CH$FORMULA: C14H16N2
CH$EXACT_MASS: 212.1313
CH$SMILES: CC1=C(C=CC(=C1)C2=CC(=C(C=C2)N)C)N
CH$IUPAC: InChI=1S/C14H16N2/c1-9-7-11(3-5-13(9)15)12-4-6-14(16)10(2)8-12/h3-8H,15-16H2,1-2H3
CH$LINK: CAS 119-93-7
CH$LINK: INCHIKEY NUIURNJTPRWVAP-UHFFFAOYSA-N
AC$INSTRUMENT: TripleTOF 6600 SCIEX
AC$INSTRUMENT_TYPE: LC-ESI-QTOF
AC$MASS_SPECTROMETRY: MS_TYPE MS2
AC$MASS_SPECTROMETRY: ION_MODE POSITIVE
AC$MASS_SPECTROMETRY: COLLISION_ENERGY 80
AC$MASS_SPECTROMETRY: FRAGMENTATION_MODE CID
AC$MASS_SPECTROMETRY: IONIZATION ESI
AC$CHROMATOGRAPHY: COLUMN_NAME Zorbax Eclipse Plus C18 2.1 mm x 150 mm, 3.5 um, Agilent
AC$CHROMATOGRAPHY: COLUMN_TEMPERATURE 40 °C
AC$CHROMATOGRAPHY: FLOW_GRADIENT 0 min min 98% A, 1 min 98% A, 2 min 80% A, 16.5 min 2% A, 22 min 2% A, 22.1 min 98% A, 27 min 98% A
AC$CHROMATOGRAPHY: FLOW_RATE 0.3 mL/min
AC$CHROMATOGRAPHY: RETENTION_TIME 5.073 min
AC$CHROMATOGRAPHY: SOLVENT A: Water 0.1% Formic acid, B: Acetonitrile 0.1% Formic acid
MS$FOCUSED_ION: PRECURSOR_M/Z 213.1386
MS$FOCUSED_ION: PRECURSOR_TYPE [M+H]+
MS$DATA_PROCESSING: COMMENT Export with pycsl 0.1.0.dev1 and CSL 24.4
PK$SPLASH: splash10-0udi-0900000000-89d96dda599faf5882af
PK$NUM_PEAK: 39
PK$PEAK: m/z int. rel.int.
  51.0241 0.6 18
  63.0224 1.1 33
  74.0164 0.5 15
  77.0389 4.7 143
  78.0461 0.7 21
  87.024 0.5 15
  89.039 0.7 21
  102.047 0.9 27
  103.0578 0.6 18
  106.0659 0.6 18
  113.0417 0.6 18
  115.055 1.9 57
  125.0383 0.4 12
  126.0482 1.7 51
  127.0544 3.3 100
  128.0638 1.9 57
  129.0467 0.4 12
  130.0674 0.7 21
  139.0575 1.3 39
  140.0518 0.7 21
  150.0491 4.0 121
  151.0556 10.3 313
  152.0631 32.8 999
  153.0677 2.9 88
  154.0642 0.5 15
  155.0664 0.8 24
  162.051 1.0 30
  163.0566 5.7 173
  164.0582 1.5 45
  165.0684 1.7 51
  166.0769 0.4 12
  168.0765 0.6 18
  176.0622 1.5 45
  177.0594 0.8 24
  178.0626 0.9 27
  178.076 0.9 27
  180.0813 2.1 63
  181.0847 0.6 18
  195.0915 0.6 18
//