ACCESSION: MSBNK-BAFG-CSL25010634199
RECORD_TITLE: Edetol; LC-ESI-QTOF; MS2; 50 V
DATE: 2025.01.06
AUTHORS: Ole Lessmann; Kevin S. Jewell; Björn Ehlig; Arne Wick
LICENSE: dl-de/by-2-0
COPYRIGHT: Copyright 2025 Federal Institute of Hydrology, Koblenz, Germany
COMMENT: CONFIDENCE Reference Standard (Level 1)
COMMENT: Chromatography method: dx.doi.org/10.1016/j.chroma.2015.11.014
COMMENT: Acquisition method: 10.1002/rcm.8541
CH$NAME: Edetol
CH$FORMULA: C14H32N2O4
CH$EXACT_MASS: 292.2362
CH$SMILES: CC(CN(CCN(CC(C)O)CC(C)O)CC(C)O)O
CH$IUPAC: InChI=1S/C14H32N2O4/c1-11(17)7-15(8-12(2)18)5-6-16(9-13(3)19)10-14(4)20/h11-14,17-20H,5-10H2,1-4H3
CH$LINK: CAS 102-60-3
CH$LINK: INCHIKEY NSOXQYCFHDMMGV-UHFFFAOYSA-N
AC$INSTRUMENT: TripleTOF 6600 SCIEX
AC$INSTRUMENT_TYPE: LC-ESI-QTOF
AC$MASS_SPECTROMETRY: MS_TYPE MS2
AC$MASS_SPECTROMETRY: ION_MODE POSITIVE
AC$MASS_SPECTROMETRY: COLLISION_ENERGY 50
AC$MASS_SPECTROMETRY: FRAGMENTATION_MODE CID
AC$MASS_SPECTROMETRY: IONIZATION ESI
AC$CHROMATOGRAPHY: COLUMN_NAME Zorbax Eclipse Plus C18 2.1 mm x 150 mm, 3.5 um, Agilent
AC$CHROMATOGRAPHY: COLUMN_TEMPERATURE 40 °C
AC$CHROMATOGRAPHY: FLOW_GRADIENT 0 min min 98% A, 1 min 98% A, 2 min 80% A, 16.5 min 2% A, 22 min 2% A, 22.1 min 98% A, 27 min 98% A
AC$CHROMATOGRAPHY: FLOW_RATE 0.3 mL/min
AC$CHROMATOGRAPHY: RETENTION_TIME 2.645 min
AC$CHROMATOGRAPHY: SOLVENT A: Water 0.1% Formic acid, B: Acetonitrile 0.1% Formic acid
MS$FOCUSED_ION: PRECURSOR_M/Z 293.2435
MS$FOCUSED_ION: PRECURSOR_TYPE [M+H]+
MS$DATA_PROCESSING: COMMENT Export with pycsl 0.1.0.dev1 and CSL 24.4
PK$SPLASH: splash10-001l-9500000000-e642d354f37d52e3cd55
PK$NUM_PEAK: 31
PK$PEAK: m/z int. rel.int.
  31.0178 1.0 14
  39.0224 3.1 43
  41.0383 14.3 202
  42.0334 4.6 64
  43.0537 1.0 14
  44.0491 2.0 28
  45.033 2.2 31
  55.0533 3.2 45
  56.049 8.8 124
  58.0645 2.2 31
  59.0484 20.0 282
  67.0532 5.1 72
  70.0648 4.8 67
  72.0799 4.3 60
  79.0538 1.3 18
  80.0494 0.8 11
  81.0688 1.9 26
  82.0644 5.2 73
  84.0801 70.7 999
  86.0961 2.0 28
  96.0807 2.5 35
  97.0866 1.0 14
  98.0952 10.4 146
  100.0742 7.9 111
  102.0902 22.7 320
  112.1108 5.5 77
  116.104 1.4 19
  124.1099 2.3 32
  127.0971 2.5 35
  142.1209 31.4 443
  160.1324 31.1 439
//