ACCESSION: MSBNK-BAFG-CSL23111011528
RECORD_TITLE: 2-(1,3-Dioxan-2-yl)ethyltriphenylphosphonium; LC-ESI-QTOF; MS2; 150 V
DATE: 2023.11.10
AUTHORS: Kevin S. Jewell; Björn Ehlig; Arne Wick
LICENSE: dl-de/by-2-0
COPYRIGHT: Copyright 2023 Federal Institute of Hydrology, Koblenz, Germany
COMMENT: CONFIDENCE Reference Standard (Level 1)
COMMENT: Chromatography method: dx.doi.org/10.1016/j.chroma.2015.11.014
COMMENT: Acquisition method: 10.1002/rcm.8541
CH$NAME: 2-(1,3-Dioxan-2-yl)ethyltriphenylphosphonium
CH$FORMULA: [C24H26O2P]+
CH$EXACT_MASS: 377.1665
CH$SMILES: C1COC(OC1)CC[P+](C2=CC=CC=C2)(C3=CC=CC=C3)C4=CC=CC=C4
CH$IUPAC: InChI=1S/C24H26O2P/c1-4-11-21(12-5-1)27(22-13-6-2-7-14-22,23-15-8-3-9-16-23)20-17-24-25-18-10-19-26-24/h1-9,11-16,24H,10,17-20H2/q+1
CH$LINK: CAS 69891-92-5
CH$LINK: INCHIKEY MQHXAEFTZWVNDN-UHFFFAOYSA-N
AC$INSTRUMENT: TripleTOF 5600 SCIEX
AC$INSTRUMENT_TYPE: LC-ESI-QTOF
AC$MASS_SPECTROMETRY: MS_TYPE MS2
AC$MASS_SPECTROMETRY: ION_MODE POSITIVE
AC$MASS_SPECTROMETRY: COLLISION_ENERGY 150
AC$MASS_SPECTROMETRY: FRAGMENTATION_MODE CID
AC$MASS_SPECTROMETRY: IONIZATION ESI
AC$CHROMATOGRAPHY: COLUMN_NAME Zorbax Eclipse Plus C18 2.1 mm x 150 mm, 3.5 um, Agilent
AC$CHROMATOGRAPHY: COLUMN_TEMPERATURE 40 °C
AC$CHROMATOGRAPHY: FLOW_GRADIENT 0 min min 98% A, 1 min 98% A, 2 min 80% A, 16.5 min 2% A, 22 min 2% A, 22.1 min 98% A, 27 min 98% A
AC$CHROMATOGRAPHY: FLOW_RATE 0.3 mL/min
AC$CHROMATOGRAPHY: RETENTION_TIME 7.976 min
AC$CHROMATOGRAPHY: SOLVENT A: Water 0.1% Formic acid, B: Acetonitrile 0.1% Formic acid
MS$FOCUSED_ION: PRECURSOR_M/Z 377.1665
MS$FOCUSED_ION: PRECURSOR_TYPE [M]+
MS$DATA_PROCESSING: COMMENT Export with Spectra 1.9.12 MsBackendMassbank 1.7.4
MS$DATA_PROCESSING: WHOLE RMassBank 2.3.1
PK$SPLASH: splash10-0zgi-0900000000-ffd00ee7fe04a944f8c6
PK$NUM_PEAK: 15
PK$PEAK: m/z int. rel.int.
  79.9798 3.1 69
  80.9875 8.8 196
  89.0366 8.3 185
  107.0029 35.2 786
  115.0527 17.1 382
  126.0455 9.4 210
  131.0031 4.2 93
  133.0185 4.6 102
  139.053 14.4 321
  151.0542 20.8 464
  152.061 44.7 999
  156.012 3.6 80
  157.0194 24.8 554
  181.02 15.7 350
  183.0361 9.9 221
//
