ACCESSION: MSBNK-BAFG-CSL23102518440
RECORD_TITLE: Methadone; LC-ESI-QTOF; MS2; 70 V
DATE: 2023.10.25
AUTHORS: Kevin S. Jewell; Björn Ehlig; Arne Wick
LICENSE: dl-de/by-2-0
COPYRIGHT: Copyright 2023 Federal Institute of Hydrology, Koblenz, Germany
COMMENT: CONFIDENCE Reference Standard (Level 1)
COMMENT: Chromatography method: dx.doi.org/10.1016/j.chroma.2015.11.014
COMMENT: Acquisition method: 10.1002/rcm.8541
CH$NAME: Methadone
CH$COMPOUND_CLASS: Pharmaceutical
CH$FORMULA: C21H27NO
CH$EXACT_MASS: 309.2093
CH$SMILES: CCC(=O)C(CC(C)N(C)C)(C1=CC=CC=C1)C2=CC=CC=C2
CH$IUPAC: InChI=1S/C21H27NO/c1-5-20(23)21(16-17(2)22(3)4,18-12-8-6-9-13-18)19-14-10-7-11-15-19/h6-15,17H,5,16H2,1-4H3
CH$LINK: CAS 76-99-3
CH$LINK: INCHIKEY USSIQXCVUWKGNF-UHFFFAOYSA-N
AC$INSTRUMENT: TripleTOF 6600 SCIEX
AC$INSTRUMENT_TYPE: LC-ESI-QTOF
AC$MASS_SPECTROMETRY: MS_TYPE MS2
AC$MASS_SPECTROMETRY: ION_MODE POSITIVE
AC$MASS_SPECTROMETRY: COLLISION_ENERGY 70
AC$MASS_SPECTROMETRY: FRAGMENTATION_MODE CID
AC$MASS_SPECTROMETRY: IONIZATION ESI
AC$CHROMATOGRAPHY: COLUMN_NAME Zorbax Eclipse Plus C18 2.1 mm x 150 mm, 3.5 um, Agilent
AC$CHROMATOGRAPHY: COLUMN_TEMPERATURE 40 °C
AC$CHROMATOGRAPHY: FLOW_GRADIENT 0 min min 98% A, 1 min 98% A, 2 min 80% A, 16.5 min 2% A, 22 min 2% A, 22.1 min 98% A, 27 min 98% A
AC$CHROMATOGRAPHY: FLOW_RATE 0.3 mL/min
AC$CHROMATOGRAPHY: RETENTION_TIME 8.79 min
AC$CHROMATOGRAPHY: SOLVENT A: Water 0.1% Formic acid, B: Acetonitrile 0.1% Formic acid
MS$FOCUSED_ION: PRECURSOR_M/Z 310.2166
MS$FOCUSED_ION: PRECURSOR_TYPE [M+H]+
MS$DATA_PROCESSING: COMMENT Export with Spectra 1.9.12 MsBackendMassbank 1.7.4
MS$DATA_PROCESSING: WHOLE RMassBank 2.3.1
PK$SPLASH: splash10-004i-9730000000-0b01053f20d5a0ac8c07
PK$NUM_PEAK: 32
PK$PEAK: m/z int. rel.int.
  51.0227 84 64
  57.0328 18.4 14
  65.038 67.8 52
  77.0381 1296.8 999
  79.0536 36.7 28
  91.0536 531.6 409
  103.0531 48.7 37
  105.034 308.1 237
  115.0536 259.8 200
  116.0609 17.5 13
  117.0691 69.7 53
  127.0525 45.8 35
  128.0615 116.3 89
  129.0687 36.4 28
  141.0683 33.8 26
  152.0615 96.5 74
  153.0688 13.5 10
  165.0694 313.7 241
  166.0767 32.3 24
  167.0848 27.6 21
  178.0772 78.8 60
  179.0833 14.3 11
  189.0692 45.6 35
  190.077 19.2 14
  191.0843 33.8 26
  194.0717 58.1 44
  202.0773 322 248
  203.085 200.9 154
  204.0931 87.6 67
  215.0848 65.3 50
  216.0936 21.3 16
  217.101 58 44
//
