ACCESSION: MSBNK-BAFG-CSL23111011192
RECORD_TITLE: Heptadecafluoroundecanoic acid; LC-ESI-QTOF; MS2; 130 V
DATE: 2023.11.10
AUTHORS: Kevin S. Jewell; Björn Ehlig; Arne Wick
LICENSE: dl-de/by-2-0
COPYRIGHT: Copyright 2023 Federal Institute of Hydrology, Koblenz, Germany
COMMENT: CONFIDENCE Reference Standard (Level 1)
COMMENT: Chromatography method: dx.doi.org/10.1016/j.chroma.2015.11.014
COMMENT: Acquisition method: 10.1002/rcm.8541
CH$NAME: Heptadecafluoroundecanoic acid
CH$FORMULA: C11H5F17O2
CH$EXACT_MASS: 492.0018
CH$SMILES: C(CC(C(C(C(C(C(C(C(F)(F)F)(F)F)(F)F)(F)F)(F)F)(F)F)(F)F)(F)F)C(=O)O
CH$IUPAC: InChI=1S/C11H5F17O2/c12-4(13,2-1-3(29)30)5(14,15)6(16,17)7(18,19)8(20,21)9(22,23)10(24,25)11(26,27)28/h1-2H2,(H,29,30)
CH$LINK: CAS 34598-33-9
CH$LINK: INCHIKEY JZRCRCFPVAXHHQ-UHFFFAOYSA-N
AC$INSTRUMENT: TripleTOF 5600 SCIEX
AC$INSTRUMENT_TYPE: LC-ESI-QTOF
AC$MASS_SPECTROMETRY: MS_TYPE MS2
AC$MASS_SPECTROMETRY: ION_MODE NEGATIVE
AC$MASS_SPECTROMETRY: COLLISION_ENERGY 130
AC$MASS_SPECTROMETRY: FRAGMENTATION_MODE CID
AC$MASS_SPECTROMETRY: IONIZATION ESI
AC$CHROMATOGRAPHY: COLUMN_NAME Zorbax Eclipse Plus C18 2.1 mm x 150 mm, 3.5 um, Agilent
AC$CHROMATOGRAPHY: COLUMN_TEMPERATURE 40 °C
AC$CHROMATOGRAPHY: FLOW_GRADIENT 0 min min 98% A, 1 min 98% A, 2 min 80% A, 16.5 min 2% A, 22 min 2% A, 22.1 min 98% A, 27 min 98% A
AC$CHROMATOGRAPHY: FLOW_RATE 0.3 mL/min
AC$CHROMATOGRAPHY: RETENTION_TIME 15.293 min
AC$CHROMATOGRAPHY: SOLVENT A: Water 0.1% Formic acid, B: Acetonitrile 0.1% Formic acid
MS$FOCUSED_ION: PRECURSOR_M/Z 490.9945
MS$FOCUSED_ION: PRECURSOR_TYPE [M-H]-
MS$DATA_PROCESSING: COMMENT Export with Spectra 1.9.12 MsBackendMassbank 1.7.4
MS$DATA_PROCESSING: WHOLE RMassBank 2.3.1
PK$SPLASH: splash10-0002-9700000000-4b8fe209f4792b0b14bc
PK$NUM_PEAK: 11
PK$PEAK: m/z int. rel.int.
  39.0051 0.4 307
  47.9999 0.2 153
  62.9884 0.2 153
  69.0015 0.1 76
  78.9965 0.1 76
  92.9959 0.3 230
  97.997 1 768
  116.999 0.2 153
  128.9888 0.1 76
  128.9984 0.3 230
  147.9956 1.3 999
//
