ACCESSION: MSBNK-BAFG-CSL23102616818
RECORD_TITLE: 4-Hydroxydiphenylamine; LC-ESI-QTOF; MS2; 110 V
DATE: 2023.10.26
AUTHORS: Kevin S. Jewell; Björn Ehlig; Arne Wick
LICENSE: dl-de/by-2-0
COPYRIGHT: Copyright 2023 Federal Institute of Hydrology, Koblenz, Germany
COMMENT: CONFIDENCE Reference Standard (Level 1)
COMMENT: Chromatography method: dx.doi.org/10.1016/j.chroma.2015.11.014
COMMENT: Acquisition method: 10.1002/rcm.8541
CH$NAME: 4-Hydroxydiphenylamine
CH$COMPOUND_CLASS: Pesticide
CH$FORMULA: C12H11NO
CH$EXACT_MASS: 185.0841
CH$SMILES: C1=CC=C(C=C1)NC2=CC=C(C=C2)O
CH$IUPAC: InChI=1S/C12H11NO/c14-12-8-6-11(7-9-12)13-10-4-2-1-3-5-10/h1-9,13-14H
CH$LINK: CAS 122-37-2
CH$LINK: INCHIKEY JTTMYKSFKOOQLP-UHFFFAOYSA-N
AC$INSTRUMENT: TripleTOF 6600 SCIEX
AC$INSTRUMENT_TYPE: LC-ESI-QTOF
AC$MASS_SPECTROMETRY: MS_TYPE MS2
AC$MASS_SPECTROMETRY: ION_MODE POSITIVE
AC$MASS_SPECTROMETRY: COLLISION_ENERGY 110
AC$MASS_SPECTROMETRY: FRAGMENTATION_MODE CID
AC$MASS_SPECTROMETRY: IONIZATION ESI
AC$CHROMATOGRAPHY: COLUMN_NAME Zorbax Eclipse Plus C18 2.1 mm x 150 mm, 3.5 um, Agilent
AC$CHROMATOGRAPHY: COLUMN_TEMPERATURE 40 °C
AC$CHROMATOGRAPHY: FLOW_GRADIENT 0 min min 98% A, 1 min 98% A, 2 min 80% A, 16.5 min 2% A, 22 min 2% A, 22.1 min 98% A, 27 min 98% A
AC$CHROMATOGRAPHY: FLOW_RATE 0.3 mL/min
AC$CHROMATOGRAPHY: RETENTION_TIME 10.034 min
AC$CHROMATOGRAPHY: SOLVENT A: Water 0.1% Formic acid, B: Acetonitrile 0.1% Formic acid
MS$FOCUSED_ION: PRECURSOR_M/Z 186.0914
MS$FOCUSED_ION: PRECURSOR_TYPE [M+H]+
MS$DATA_PROCESSING: COMMENT Export with Spectra 1.9.12 MsBackendMassbank 1.7.4
MS$DATA_PROCESSING: WHOLE RMassBank 2.3.1
PK$SPLASH: splash10-0f79-9000000000-f2ca596e17e04d12c83f
PK$NUM_PEAK: 26
PK$PEAK: m/z int. rel.int.
  35.9989 1 86
  37.0067 5.8 499
  38.0028 0.7 60
  38.0143 5.4 465
  39.0222 11.6 999
  40.0172 0.6 51
  41.0253 1.1 94
  42.0336 0.9 77
  44.0123 0.8 68
  49.0063 1.5 129
  50.0143 6.4 551
  51.0224 5.8 499
  52.0175 2.1 180
  53.0017 0.7 60
  53.0378 6.4 551
  54.033 2.5 215
  61.0063 0.7 60
  62.0137 2.8 241
  63.0219 2.7 232
  65.025 0.7 60
  65.0378 1.7 146
  66.0335 0.4 34
  66.0454 0.6 51
  73.0064 0.4 34
  74.0142 0.7 60
  80.0481 4.1 353
//
