ACCESSION: MSBNK-BAFG-CSL2310308215
RECORD_TITLE: Morantel; LC-ESI-QTOF; MS2; 30 V
DATE: 2023.10.30
AUTHORS: Kevin S. Jewell; Björn Ehlig; Arne Wick
LICENSE: dl-de/by-2-0
COPYRIGHT: Copyright 2023 Federal Institute of Hydrology, Koblenz, Germany
COMMENT: CONFIDENCE Reference Standard (Level 1)
COMMENT: Chromatography method: dx.doi.org/10.1016/j.chroma.2015.11.014
COMMENT: Acquisition method: 10.1002/rcm.8541
CH$NAME: Morantel
CH$COMPOUND_CLASS: Pharmaceutical
CH$FORMULA: C12H16N2S
CH$EXACT_MASS: 220.1034
CH$SMILES: CN1CCCN=C1/C=C/c2sccc2C
CH$IUPAC: InChI=1S/C12H16N2S/c1-10-6-9-15-11(10)4-5-12-13-7-3-8-14(12)2/h4-6,9H,3,7-8H2,1-2H3/b5-4+
CH$LINK: CAS 20574-50-9
CH$LINK: INCHIKEY NVEPPWDVLBMNMB-SNAWJCMRSA-N
AC$INSTRUMENT: TripleTOF 5600 SCIEX
AC$INSTRUMENT_TYPE: LC-ESI-QTOF
AC$MASS_SPECTROMETRY: MS_TYPE MS2
AC$MASS_SPECTROMETRY: ION_MODE POSITIVE
AC$MASS_SPECTROMETRY: COLLISION_ENERGY 30
AC$MASS_SPECTROMETRY: FRAGMENTATION_MODE CID
AC$MASS_SPECTROMETRY: IONIZATION ESI
AC$CHROMATOGRAPHY: COLUMN_NAME Zorbax Eclipse Plus C18 2.1 mm x 150 mm, 3.5 um, Agilent
AC$CHROMATOGRAPHY: COLUMN_TEMPERATURE 40 °C
AC$CHROMATOGRAPHY: FLOW_GRADIENT 0 min min 98% A, 1 min 98% A, 2 min 80% A, 16.5 min 2% A, 22 min 2% A, 22.1 min 98% A, 27 min 98% A
AC$CHROMATOGRAPHY: FLOW_RATE 0.3 mL/min
AC$CHROMATOGRAPHY: RETENTION_TIME 6.042 min
AC$CHROMATOGRAPHY: SOLVENT A: Water 0.1% Formic acid, B: Acetonitrile 0.1% Formic acid
MS$FOCUSED_ION: PRECURSOR_M/Z 221.1107
MS$FOCUSED_ION: PRECURSOR_TYPE [M+H]+
MS$DATA_PROCESSING: COMMENT Export with Spectra 1.9.12 MsBackendMassbank 1.7.4
MS$DATA_PROCESSING: WHOLE RMassBank 2.3.1
PK$SPLASH: splash10-00di-0390000000-0b475811962e4be18259
PK$NUM_PEAK: 15
PK$PEAK: m/z int. rel.int.
  72.0843 8.8 14
  109.1022 9.2 15
  111.0264 53.8 87
  111.0851 11.5 18
  123.0264 25.4 41
  137.0947 7.5 12
  149.0286 7.3 11
  150.0374 37.1 60
  164.053 64.3 105
  173.107 10.7 17
  187.1232 7.3 11
  188.1308 25.2 41
  205.0791 8.5 13
  206.0862 7.2 11
  221.111 610.8 999
//
