ACCESSION: MSBNK-BAFG-CSL23102516846
RECORD_TITLE: Brilliant Blue FCF; LC-ESI-QTOF; MS2; 120 V
DATE: 2023.10.25
AUTHORS: Kevin S. Jewell; Björn Ehlig; Arne Wick
LICENSE: dl-de/by-2-0
COPYRIGHT: Copyright 2023 Federal Institute of Hydrology, Koblenz, Germany
COMMENT: CONFIDENCE Reference Standard (Level 1)
COMMENT: Chromatography method: dx.doi.org/10.1016/j.chroma.2015.11.014
COMMENT: Acquisition method: 10.1002/rcm.8541
CH$NAME: Brilliant Blue FCF
CH$COMPOUND_CLASS: Food_additive; Pigment
CH$FORMULA: C37H37N2O9S3
CH$EXACT_MASS: 749.1656
CH$SMILES: CCN(CC1=CC(=CC=C1)S(=O)(=O)O)C2=CC=C(C=C2)C(=C3C=CC(=[N+](CC)CC4=CC(=CC=C4)S(=O)(=O)O)C=C3)C5=CC=CC=C5S(=O)(=O)O
CH$IUPAC: InChI=1S/C37H36N2O9S3/c1-3-38(25-27-9-7-11-33(23-27)49(40,41)42)31-19-15-29(16-20-31)37(35-13-5-6-14-36(35)51(46,47)48)30-17-21-32(22-18-30)39(4-2)26-28-10-8-12-34(24-28)50(43,44)45/h5-24H,3-4,25-26H2,1-2H3,(H2-,40,41,42,43,44,45,46,47,48)/p+1
CH$LINK: CAS 3844-45-9
CH$LINK: INCHIKEY CTRXDTYTAAKVSM-UHFFFAOYSA-O
AC$INSTRUMENT: TripleTOF 6600 SCIEX
AC$INSTRUMENT_TYPE: LC-ESI-QTOF
AC$MASS_SPECTROMETRY: MS_TYPE MS2
AC$MASS_SPECTROMETRY: ION_MODE POSITIVE
AC$MASS_SPECTROMETRY: COLLISION_ENERGY 120
AC$MASS_SPECTROMETRY: FRAGMENTATION_MODE CID
AC$MASS_SPECTROMETRY: IONIZATION ESI
AC$CHROMATOGRAPHY: COLUMN_NAME Zorbax Eclipse Plus C18 2.1 mm x 150 mm, 3.5 um, Agilent
AC$CHROMATOGRAPHY: COLUMN_TEMPERATURE 40 °C
AC$CHROMATOGRAPHY: FLOW_GRADIENT 0 min min 98% A, 1 min 98% A, 2 min 80% A, 16.5 min 2% A, 22 min 2% A, 22.1 min 98% A, 27 min 98% A
AC$CHROMATOGRAPHY: FLOW_RATE 0.3 mL/min
AC$CHROMATOGRAPHY: RETENTION_TIME 7.077 min
AC$CHROMATOGRAPHY: SOLVENT A: Water 0.1% Formic acid, B: Acetonitrile 0.1% Formic acid
MS$FOCUSED_ION: PRECURSOR_M/Z 749.1656
MS$FOCUSED_ION: PRECURSOR_TYPE [M]+
MS$DATA_PROCESSING: COMMENT Export with Spectra 1.9.12 MsBackendMassbank 1.7.4
MS$DATA_PROCESSING: WHOLE RMassBank 2.3.1
PK$SPLASH: splash10-00yi-0591000000-e2ec3de22f86c0943ef5
PK$NUM_PEAK: 25
PK$PEAK: m/z int. rel.int.
  77.037 0.8 266
  92.0477 0.4 133
  120.0428 1.7 566
  151.0529 0.5 166
  152.0606 1 333
  171.0108 1.6 532
  180.0563 1.7 566
  180.0786 0.4 133
  192.0809 1 333
  208.0744 0.8 266
  239.0837 1.1 366
  240.0921 1.1 366
  241.0974 0.5 166
  267.1025 0.9 299
  268.1106 3 999
  269.1195 0.7 233
  272.0374 1.6 532
  281.1067 0.7 233
  282.1281 0.5 166
  284.1447 1.1 366
  295.1213 0.5 166
  296.1309 0.6 199
  297.1373 0.7 233
  311.1567 1.3 432
  327.1463 0.6 199
//
