ACCESSION: MSBNK-BAFG-CSL23102517127
RECORD_TITLE: N-Desmethyltramadol; LC-ESI-QTOF; MS2; 50 V
DATE: 2023.10.25
AUTHORS: Kevin S. Jewell; Björn Ehlig; Arne Wick
LICENSE: dl-de/by-2-0
COPYRIGHT: Copyright 2023 Federal Institute of Hydrology, Koblenz, Germany
COMMENT: CONFIDENCE Reference Standard (Level 1)
COMMENT: Chromatography method: dx.doi.org/10.1016/j.chroma.2015.11.014
COMMENT: Acquisition method: 10.1002/rcm.8541
CH$NAME: N-Desmethyltramadol
CH$COMPOUND_CLASS: Transformation_product; Metabolite
CH$FORMULA: C15H23NO2
CH$EXACT_MASS: 249.1729
CH$SMILES: CNCC1CCCCC1(C2=CC(=CC=C2)OC)O
CH$IUPAC: InChI=1S/C15H23NO2/c1-16-11-13-6-3-4-9-15(13,17)12-7-5-8-14(10-12)18-2/h5,7-8,10,13,16-17H,3-4,6,9,11H2,1-2H3
CH$LINK: CAS 73806-55-0
CH$LINK: INCHIKEY VUMQHLSPUAFKKK-UHFFFAOYSA-N
AC$INSTRUMENT: TripleTOF 6600 SCIEX
AC$INSTRUMENT_TYPE: LC-ESI-QTOF
AC$MASS_SPECTROMETRY: MS_TYPE MS2
AC$MASS_SPECTROMETRY: ION_MODE POSITIVE
AC$MASS_SPECTROMETRY: COLLISION_ENERGY 50
AC$MASS_SPECTROMETRY: FRAGMENTATION_MODE CID
AC$MASS_SPECTROMETRY: IONIZATION ESI
AC$CHROMATOGRAPHY: COLUMN_NAME Zorbax Eclipse Plus C18 2.1 mm x 150 mm, 3.5 um, Agilent
AC$CHROMATOGRAPHY: COLUMN_TEMPERATURE 40 °C
AC$CHROMATOGRAPHY: FLOW_GRADIENT 0 min min 98% A, 1 min 98% A, 2 min 80% A, 16.5 min 2% A, 22 min 2% A, 22.1 min 98% A, 27 min 98% A
AC$CHROMATOGRAPHY: FLOW_RATE 0.3 mL/min
AC$CHROMATOGRAPHY: RETENTION_TIME 6.246 min
AC$CHROMATOGRAPHY: SOLVENT A: Water 0.1% Formic acid, B: Acetonitrile 0.1% Formic acid
MS$FOCUSED_ION: PRECURSOR_M/Z 250.1802
MS$FOCUSED_ION: PRECURSOR_TYPE [M+H]+
MS$DATA_PROCESSING: COMMENT Export with Spectra 1.9.12 MsBackendMassbank 1.7.4
MS$DATA_PROCESSING: WHOLE RMassBank 2.3.1
PK$SPLASH: splash10-0006-9000000000-1a89757466d2052f5a5e
PK$NUM_PEAK: 3
PK$PEAK: m/z int. rel.int.
  42.0338 9.1 15
  44.05 579.1 999
  121.0643 7.9 13
//
