ACCESSION: MSBNK-BAFG-CSL25011734660
RECORD_TITLE: Reactive Orange; LC-ESI-QTOF; MS2; 40 V
DATE: 2025.01.17
AUTHORS: Ole Lessmann; Kevin S. Jewell; Björn Ehlig; Arne Wick
LICENSE: dl-de/by-2-0
COPYRIGHT: Copyright 2025 Federal Institute of Hydrology, Koblenz, Germany
COMMENT: CONFIDENCE Reference Standard (Level 1)
COMMENT: Chromatography method: dx.doi.org/10.1016/j.chroma.2015.11.014
CH$NAME: Reactive Orange
CH$FORMULA: C20H19N3O11S3
CH$EXACT_MASS: 573.0182
CH$SMILES: CC(=O)NC1=CC2=C(C(=C(C=C2C=C1)S(=O)(=O)O)N=NC3=CC=C(C=C3)S(=O)(=O)CCOS(=O)(=O)O)O
CH$IUPAC: InChI=1S/C20H19N3O11S3/c1-12(24)21-15-3-2-13-10-18(36(28,29)30)19(20(25)17(13)11-15)23-22-14-4-6-16(7-5-14)35(26,27)9-8-34-37(31,32)33/h2-7,10-11,25H,8-9H2,1H3,(H,21,24)(H,28,29,30)(H,31,32,33)
CH$LINK: CAS 109603-48-7
CH$LINK: INCHIKEY INOIOAWTVPHTCJ-UHFFFAOYSA-N
AC$INSTRUMENT: TripleTOF 6600 SCIEX
AC$INSTRUMENT_TYPE: LC-ESI-QTOF
AC$MASS_SPECTROMETRY: MS_TYPE MS2
AC$MASS_SPECTROMETRY: ION_MODE POSITIVE
AC$MASS_SPECTROMETRY: COLLISION_ENERGY 40
AC$MASS_SPECTROMETRY: FRAGMENTATION_MODE CID
AC$MASS_SPECTROMETRY: IONIZATION ESI
AC$CHROMATOGRAPHY: COLUMN_NAME Zorbax Eclipse Plus C18 2.1 mm x 150 mm, 3.5 um, Agilent
AC$CHROMATOGRAPHY: COLUMN_TEMPERATURE 40 °C
AC$CHROMATOGRAPHY: FLOW_GRADIENT 0 min min 98% A, 1 min 98% A, 2 min 80% A, 16.5 min 2% A, 22 min 2% A, 22.1 min 98% A, 27 min 98% A
AC$CHROMATOGRAPHY: FLOW_RATE 0.3 mL/min
AC$CHROMATOGRAPHY: RETENTION_TIME 5.751 min
AC$CHROMATOGRAPHY: SOLVENT A: Water 0.1% Formic acid, B: Acetonitrile 0.1% Formic acid
MS$FOCUSED_ION: PRECURSOR_M/Z 574.0255
MS$FOCUSED_ION: PRECURSOR_TYPE [M+H]+
MS$DATA_PROCESSING: COMMENT Export with pycsl 0.1.0.dev1 and CSL 25.0
PK$SPLASH: splash10-0a4i-0535890000-0469b135eb619894cde0
PK$NUM_PEAK: 38
PK$PEAK: m/z int. rel.int.
  74.9897 5.3 10
  81.0331 9.8 19
  108.044 213.5 434
  136.0741 14.4 29
  156.01 6.2 12
  159.0534 7.0 14
  170.0464 100.7 204
  171.0535 15.1 30
  200.0359 5.4 10
  212.0566 21.9 44
  213.0648 25.3 51
  233.0963 9.4 19
  260.0809 12.5 25
  261.0886 95.9 195
  275.0969 5.1 10
  280.9995 6.0 12
  302.0925 47.9 97
  303.0998 156.2 317
  343.0743 5.0 10
  358.0845 21.2 43
  366.0525 10.2 20
  367.0647 22.3 45
  368.0683 10.2 20
  370.0842 17.4 35
  385.0749 12.2 24
  386.0797 38.9 79
  394.0846 14.3 29
  400.0933 13.1 26
  412.0965 109.2 222
  428.0887 7.6 15
  458.0487 14.4 29
  466.0373 46.2 94
  476.0583 281.3 572
  480.055 13.3 27
  494.0653 25.1 51
  508.0485 11.5 23
  556.0156 490.8 999
  574.022 35.8 72
//
