ACCESSION: MSBNK-BAFG-CSL231025658
RECORD_TITLE: Tributylhexadecylphosphonium; LC-ESI-QTOF; MS2; 80 V
DATE: 2023.10.25
AUTHORS: Kevin S. Jewell; Björn Ehlig; Arne Wick
LICENSE: dl-de/by-2-0
COPYRIGHT: Copyright 2023 Federal Institute of Hydrology, Koblenz, Germany
COMMENT: CONFIDENCE Reference Standard (Level 1)
COMMENT: Chromatography method: dx.doi.org/10.1016/j.chroma.2015.11.014
COMMENT: Acquisition method: 10.1002/rcm.8541
CH$NAME: Tributylhexadecylphosphonium
CH$COMPOUND_CLASS: Pharmaceutical
CH$FORMULA: C28H60P
CH$EXACT_MASS: 427.4427
CH$SMILES: CCCCCCCCCCCCCCCC[P+](CCCC)(CCCC)CCCC
CH$IUPAC: InChI=1S/C28H60P/c1-5-9-13-14-15-16-17-18-19-20-21-22-23-24-28-29(25-10-6-2,26-11-7-3)27-12-8-4/h5-28H2,1-4H3/q+1
CH$LINK: CAS 66997-36-2
CH$LINK: INCHIKEY OKBQUWUVZGPEQZ-UHFFFAOYSA-N
AC$INSTRUMENT: TripleTOF 5600 SCIEX
AC$INSTRUMENT_TYPE: LC-ESI-QTOF
AC$MASS_SPECTROMETRY: MS_TYPE MS2
AC$MASS_SPECTROMETRY: ION_MODE POSITIVE
AC$MASS_SPECTROMETRY: COLLISION_ENERGY 80
AC$MASS_SPECTROMETRY: FRAGMENTATION_MODE CID
AC$MASS_SPECTROMETRY: IONIZATION ESI
AC$CHROMATOGRAPHY: COLUMN_NAME Zorbax Eclipse Plus C18 2.1 mm x 150 mm, 3.5 um, Agilent
AC$CHROMATOGRAPHY: COLUMN_TEMPERATURE 40 °C
AC$CHROMATOGRAPHY: FLOW_GRADIENT 0 min min 98% A, 1 min 98% A, 2 min 80% A, 16.5 min 2% A, 22 min 2% A, 22.1 min 98% A, 27 min 98% A
AC$CHROMATOGRAPHY: FLOW_RATE 0.3 mL/min
AC$CHROMATOGRAPHY: RETENTION_TIME 16.04 min
AC$CHROMATOGRAPHY: SOLVENT A: Water 0.1% Formic acid, B: Acetonitrile 0.1% Formic acid
MS$FOCUSED_ION: PRECURSOR_M/Z 427.4427
MS$FOCUSED_ION: PRECURSOR_TYPE [M]+
MS$DATA_PROCESSING: COMMENT Export with Spectra 1.9.12 MsBackendMassbank 1.7.4
MS$DATA_PROCESSING: WHOLE RMassBank 2.3.1
PK$SPLASH: splash10-004i-9771000000-0f9c60c1902e53d91eca
PK$NUM_PEAK: 27
PK$PEAK: m/z int. rel.int.
  61.0238 13.6 161
  62.0321 20.2 239
  75.0384 17 201
  76.0465 84.2 999
  89.0512 9.9 117
  90.0596 25.4 301
  103.0666 8.6 102
  104.0749 6.6 78
  117.0823 11.8 140
  131.0983 27.4 325
  145.1139 16.4 194
  159.1297 8.8 104
  173.1448 36.3 430
  187.1609 20.6 244
  201.1759 10.3 122
  215.1917 25.5 302
  229.2077 57.5 682
  243.2235 10.7 126
  257.2381 10.3 122
  271.2541 9.6 113
  285.2702 14.6 173
  299.2861 11.2 132
  313.3009 9.5 112
  327.3152 7.2 85
  341.3309 6.8 80
  355.3496 4.3 51
  427.4417 5.4 64
//
