ACCESSION: MSBNK-BAFG-CSL25010634418
RECORD_TITLE: O-tolidine; LC-ESI-QTOF; MS2; 90 V
DATE: 2025.01.06
AUTHORS: Ole Lessmann; Kevin S. Jewell; Björn Ehlig; Arne Wick
LICENSE: dl-de/by-2-0
COPYRIGHT: Copyright 2025 Federal Institute of Hydrology, Koblenz, Germany
COMMENT: CONFIDENCE Reference Standard (Level 1)
COMMENT: Chromatography method: dx.doi.org/10.1016/j.chroma.2015.11.014
COMMENT: Acquisition method: 10.1002/rcm.8541
CH$NAME: O-tolidine
CH$FORMULA: C14H16N2
CH$EXACT_MASS: 212.1313
CH$SMILES: CC1=C(C=CC(=C1)C2=CC(=C(C=C2)N)C)N
CH$IUPAC: InChI=1S/C14H16N2/c1-9-7-11(3-5-13(9)15)12-4-6-14(16)10(2)8-12/h3-8H,15-16H2,1-2H3
CH$LINK: CAS 119-93-7
CH$LINK: INCHIKEY NUIURNJTPRWVAP-UHFFFAOYSA-N
AC$INSTRUMENT: TripleTOF 6600 SCIEX
AC$INSTRUMENT_TYPE: LC-ESI-QTOF
AC$MASS_SPECTROMETRY: MS_TYPE MS2
AC$MASS_SPECTROMETRY: ION_MODE POSITIVE
AC$MASS_SPECTROMETRY: COLLISION_ENERGY 90
AC$MASS_SPECTROMETRY: FRAGMENTATION_MODE CID
AC$MASS_SPECTROMETRY: IONIZATION ESI
AC$CHROMATOGRAPHY: COLUMN_NAME Zorbax Eclipse Plus C18 2.1 mm x 150 mm, 3.5 um, Agilent
AC$CHROMATOGRAPHY: COLUMN_TEMPERATURE 40 °C
AC$CHROMATOGRAPHY: FLOW_GRADIENT 0 min min 98% A, 1 min 98% A, 2 min 80% A, 16.5 min 2% A, 22 min 2% A, 22.1 min 98% A, 27 min 98% A
AC$CHROMATOGRAPHY: FLOW_RATE 0.3 mL/min
AC$CHROMATOGRAPHY: RETENTION_TIME 5.073 min
AC$CHROMATOGRAPHY: SOLVENT A: Water 0.1% Formic acid, B: Acetonitrile 0.1% Formic acid
MS$FOCUSED_ION: PRECURSOR_M/Z 213.1386
MS$FOCUSED_ION: PRECURSOR_TYPE [M+H]+
MS$DATA_PROCESSING: COMMENT Export with pycsl 0.1.0.dev1 and CSL 24.4
PK$SPLASH: splash10-0udi-1900000000-8d5f542c21a5b10d8f0d
PK$NUM_PEAK: 36
PK$PEAK: m/z int. rel.int.
  51.0245 0.6 45
  63.0246 0.4 30
  74.0162 0.7 53
  75.0229 0.8 61
  77.0386 4.9 373
  87.0228 0.6 45
  89.0386 1.1 83
  91.057 0.4 30
  99.0253 0.4 30
  102.0477 1.2 91
  106.0657 0.5 38
  113.0384 1.0 76
  115.054 1.3 99
  116.0564 0.5 38
  125.0376 0.4 30
  126.0474 2.8 213
  127.0582 2.0 152
  128.0629 1.1 83
  129.0464 0.5 38
  139.0588 1.6 122
  140.0519 0.5 38
  150.0443 4.5 343
  151.0547 8.1 617
  152.0632 13.1 999
  153.0677 0.8 61
  161.0397 0.5 38
  162.049 1.6 122
  163.0558 2.3 175
  164.0626 0.7 53
  165.0697 0.5 38
  167.0729 0.6 45
  176.0658 1.0 76
  177.0607 0.5 38
  178.0682 0.6 45
  179.0593 0.5 38
  180.0858 0.4 30
//