ACCESSION: MSBNK-BAFG-CSL23111018204
RECORD_TITLE: Fluazifop-P-butyl; LC-ESI-QTOF; MS2; 40 V
DATE: 2023.11.10
AUTHORS: Kevin S. Jewell; Björn Ehlig; Arne Wick
LICENSE: dl-de/by-2-0
COPYRIGHT: Copyright 2023 Federal Institute of Hydrology, Koblenz, Germany
COMMENT: CONFIDENCE Reference Standard (Level 1)
COMMENT: Chromatography method: dx.doi.org/10.1016/j.chroma.2015.11.014
COMMENT: Acquisition method: 10.1002/rcm.8541
CH$NAME: Fluazifop-P-butyl
CH$COMPOUND_CLASS: Herbicide
CH$FORMULA: C19H20F3NO4
CH$EXACT_MASS: 383.1344
CH$SMILES: CCCCOC(=O)C(C)OC1=CC=C(C=C1)OC2=NC=C(C=C2)C(F)(F)F
CH$IUPAC: InChI=1S/C19H20F3NO4/c1-3-4-11-25-18(24)13(2)26-15-6-8-16(9-7-15)27-17-10-5-14(12-23-17)19(20,21)22/h5-10,12-13H,3-4,11H2,1-2H3
CH$LINK: CAS 79241-46-6
CH$LINK: INCHIKEY VAIZTNZGPYBOGF-UHFFFAOYSA-N
AC$INSTRUMENT: TripleTOF 6600 SCIEX
AC$INSTRUMENT_TYPE: LC-ESI-QTOF
AC$MASS_SPECTROMETRY: MS_TYPE MS2
AC$MASS_SPECTROMETRY: ION_MODE POSITIVE
AC$MASS_SPECTROMETRY: COLLISION_ENERGY 40
AC$MASS_SPECTROMETRY: FRAGMENTATION_MODE CID
AC$MASS_SPECTROMETRY: IONIZATION ESI
AC$CHROMATOGRAPHY: COLUMN_NAME Zorbax Eclipse Plus C18 2.1 mm x 150 mm, 3.5 um, Agilent
AC$CHROMATOGRAPHY: COLUMN_TEMPERATURE 40 °C
AC$CHROMATOGRAPHY: FLOW_GRADIENT 0 min min 98% A, 1 min 98% A, 2 min 80% A, 16.5 min 2% A, 22 min 2% A, 22.1 min 98% A, 27 min 98% A
AC$CHROMATOGRAPHY: FLOW_RATE 0.3 mL/min
AC$CHROMATOGRAPHY: RETENTION_TIME 15.933 min
AC$CHROMATOGRAPHY: SOLVENT A: Water 0.1% Formic acid, B: Acetonitrile 0.1% Formic acid
MS$FOCUSED_ION: PRECURSOR_M/Z 384.1417
MS$FOCUSED_ION: PRECURSOR_TYPE [M+H]+
MS$DATA_PROCESSING: COMMENT Export with Spectra 1.9.12 MsBackendMassbank 1.7.4
MS$DATA_PROCESSING: WHOLE RMassBank 2.3.1
PK$SPLASH: splash10-0f89-1090000000-e37dc41ef67c275b0e54
PK$NUM_PEAK: 24
PK$PEAK: m/z int. rel.int.
  41.0385 25.1 13
  57.0697 22.9 12
  65.0381 36.2 19
  91.0536 533.1 287
  93.0326 21.2 11
  119.0481 94 50
  121.0274 23.6 12
  146.02 23.4 12
  147.0279 31.3 16
  164.0304 40.1 21
  198.0516 18.9 10
  213.0769 19.9 10
  218.0402 24.8 13
  226.0816 36.2 19
  227.0538 171.3 92
  236.0658 27.3 14
  238.0466 622.5 335
  254.0679 1118.5 603
  255.0486 222.2 119
  256.057 190.9 103
  264.0628 24.8 13
  282.0728 1851.2 999
  328.0785 295.2 159
  384.1392 18.6 10
//
