ACCESSION: MSBNK-BAFG-CSL2310305550
RECORD_TITLE: Haloxyfop-methyl; LC-ESI-QTOF; MS2; 40 V
DATE: 2023.10.30
AUTHORS: Kevin S. Jewell; Björn Ehlig; Arne Wick
LICENSE: dl-de/by-2-0
COPYRIGHT: Copyright 2023 Federal Institute of Hydrology, Koblenz, Germany
COMMENT: CONFIDENCE Reference Standard (Level 1)
COMMENT: Chromatography method: dx.doi.org/10.1016/j.chroma.2015.11.014
COMMENT: Acquisition method: 10.1002/rcm.8541
CH$NAME: Haloxyfop-methyl
CH$COMPOUND_CLASS: Herbicide
CH$FORMULA: C16H13ClF3NO4
CH$EXACT_MASS: 375.0485
CH$SMILES: COC(=O)C(C)Oc1ccc(Oc2ncc(cc2Cl)C(F)(F)F)cc1
CH$IUPAC: InChI=1S/C16H13ClF3NO4/c1-9(15(22)23-2)24-11-3-5-12(6-4-11)25-14-13(17)7-10(8-21-14)16(18,19)20/h3-9H,1-2H3
CH$LINK: CAS 69806-40-2
CH$LINK: INCHIKEY MFSWTRQUCLNFOM-UHFFFAOYSA-N
AC$INSTRUMENT: TripleTOF 5600 SCIEX
AC$INSTRUMENT_TYPE: LC-ESI-QTOF
AC$MASS_SPECTROMETRY: MS_TYPE MS2
AC$MASS_SPECTROMETRY: ION_MODE POSITIVE
AC$MASS_SPECTROMETRY: COLLISION_ENERGY 40
AC$MASS_SPECTROMETRY: FRAGMENTATION_MODE CID
AC$MASS_SPECTROMETRY: IONIZATION ESI
AC$CHROMATOGRAPHY: COLUMN_NAME Zorbax Eclipse Plus C18 2.1 mm x 150 mm, 3.5 um, Agilent
AC$CHROMATOGRAPHY: COLUMN_TEMPERATURE 40 °C
AC$CHROMATOGRAPHY: FLOW_GRADIENT 0 min min 98% A, 1 min 98% A, 2 min 80% A, 16.5 min 2% A, 22 min 2% A, 22.1 min 98% A, 27 min 98% A
AC$CHROMATOGRAPHY: FLOW_RATE 0.3 mL/min
AC$CHROMATOGRAPHY: RETENTION_TIME 14.891 min
AC$CHROMATOGRAPHY: SOLVENT A: Water 0.1% Formic acid, B: Acetonitrile 0.1% Formic acid
MS$FOCUSED_ION: PRECURSOR_M/Z 376.0558
MS$FOCUSED_ION: PRECURSOR_TYPE [M+H]+
MS$DATA_PROCESSING: COMMENT Export with Spectra 1.9.12 MsBackendMassbank 1.7.4
MS$DATA_PROCESSING: WHOLE RMassBank 2.3.1
PK$SPLASH: splash10-01bc-3196000000-ea7d382d5107aacdb9cf
PK$NUM_PEAK: 29
PK$PEAK: m/z int. rel.int.
  65.0473 0.5 18
  91.0558 13.7 510
  119.0477 1.6 59
  121.0271 0.9 33
  179.9797 0.7 26
  189.037 0.5 18
  197.9913 0.7 26
  208.0347 0.5 18
  209.0421 1.3 48
  216.0247 0.7 26
  226.0478 0.6 22
  232.0104 0.7 26
  235.0579 0.6 22
  237.0408 1.1 41
  247.0438 0.6 22
  248.0171 0.6 22
  252.0042 0.7 26
  252.0614 0.8 29
  260.0455 1.1 41
  261.0116 0.4 14
  270.041 0.8 29
  272.0084 14.7 547
  288.0023 3.8 141
  288.0387 8.2 305
  289.0092 1.4 52
  290.0193 0.9 33
  316.0333 26.8 999
  316.0814 0.4 14
  376.0587 1.2 44
//
