ACCESSION: MSBNK-BAFG-CSL23111027151
RECORD_TITLE: Cocamidopropyl betaine; LC-ESI-QTOF; MS2; 70 V
DATE: 2023.11.10
AUTHORS: Kevin S. Jewell; Björn Ehlig; Arne Wick
LICENSE: dl-de/by-2-0
COPYRIGHT: Copyright 2023 Federal Institute of Hydrology, Koblenz, Germany
COMMENT: CONFIDENCE Reference Standard (Level 1)
COMMENT: Chromatography method: dx.doi.org/10.1016/j.chroma.2015.11.014
COMMENT: Acquisition method: 10.1002/rcm.8541
CH$NAME: Cocamidopropyl betaine
CH$FORMULA: C19H38N2O3
CH$EXACT_MASS: 342.2882
CH$SMILES: CCCCCCCCCCCC(=O)NCCC[N+](C)(C)CC(=O)[O-]
CH$IUPAC: InChI=1S/C19H38N2O3/c1-4-5-6-7-8-9-10-11-12-14-18(22)20-15-13-16-21(2,3)17-19(23)24/h4-17H2,1-3H3,(H-,20,22,23,24)
CH$LINK: CAS 5437-10-5
CH$LINK: INCHIKEY MRUAUOIMASANKQ-UHFFFAOYSA-N
AC$INSTRUMENT: TripleTOF 6600 SCIEX
AC$INSTRUMENT_TYPE: LC-ESI-QTOF
AC$MASS_SPECTROMETRY: MS_TYPE MS2
AC$MASS_SPECTROMETRY: ION_MODE POSITIVE
AC$MASS_SPECTROMETRY: COLLISION_ENERGY 70
AC$MASS_SPECTROMETRY: FRAGMENTATION_MODE CID
AC$MASS_SPECTROMETRY: IONIZATION ESI
AC$CHROMATOGRAPHY: COLUMN_NAME Zorbax Eclipse Plus C18 2.1 mm x 150 mm, 3.5 um, Agilent
AC$CHROMATOGRAPHY: COLUMN_TEMPERATURE 40 °C
AC$CHROMATOGRAPHY: FLOW_GRADIENT 0 min min 98% A, 1 min 98% A, 2 min 80% A, 16.5 min 2% A, 22 min 2% A, 22.1 min 98% A, 27 min 98% A
AC$CHROMATOGRAPHY: FLOW_RATE 0.3 mL/min
AC$CHROMATOGRAPHY: RETENTION_TIME 10.623 min
AC$CHROMATOGRAPHY: SOLVENT A: Water 0.1% Formic acid, B: Acetonitrile 0.1% Formic acid
MS$FOCUSED_ION: PRECURSOR_M/Z 343.2955
MS$FOCUSED_ION: PRECURSOR_TYPE [M+H]+
MS$DATA_PROCESSING: COMMENT Export with Spectra 1.9.12 MsBackendMassbank 1.7.4
MS$DATA_PROCESSING: WHOLE RMassBank 2.3.1
PK$SPLASH: splash10-052f-9000000000-8730dd854b31a0b78c13
PK$NUM_PEAK: 19
PK$PEAK: m/z int. rel.int.
  30.0338 1.3 43
  38.014 0.5 16
  39.0232 5.7 191
  41.039 23.3 781
  43.0548 29.8 999
  55.0542 2.7 90
  57.07 26 871
  58.0651 3.4 113
  65.0374 0.5 16
  67.0537 5.9 197
  69.0691 0.7 23
  71.0852 4.5 150
  79.0541 1.2 40
  81.0689 4.1 137
  83.0849 0.5 16
  85.0987 0.4 13
  93.069 0.6 20
  95.0846 4.1 137
  109.1009 0.8 26
//
