ACCESSION: MSBNK-BAFG-CSL25011734633
RECORD_TITLE: Metachrome Yellow free acid; LC-ESI-QTOF; MS2; 50 V
DATE: 2025.01.17
AUTHORS: Ole Lessmann; Kevin S. Jewell; Björn Ehlig; Arne Wick
LICENSE: dl-de/by-2-0
COPYRIGHT: Copyright 2025 Federal Institute of Hydrology, Koblenz, Germany
COMMENT: CONFIDENCE Reference Standard (Level 1)
COMMENT: Chromatography method: dx.doi.org/10.1016/j.chroma.2015.11.014
CH$NAME: Metachrome Yellow free acid
CH$FORMULA: C13H9N3O5
CH$EXACT_MASS: 287.0542
CH$SMILES: C1=CC(=CC(=C1)[N+](=O)[O-])N=NC2=CC(=C(C=C2)O)C(=O)O
CH$IUPAC: InChI=1S/C13H9N3O5/c17-12-5-4-9(7-11(12)13(18)19)15-14-8-2-1-3-10(6-8)16(20)21/h1-7,17H,(H,18,19)
CH$LINK: CAS 6283-26-7
CH$LINK: INCHIKEY LJOXBIGRIKPBSQ-UHFFFAOYSA-N
AC$INSTRUMENT: TripleTOF 6600 SCIEX
AC$INSTRUMENT_TYPE: LC-ESI-QTOF
AC$MASS_SPECTROMETRY: MS_TYPE MS2
AC$MASS_SPECTROMETRY: ION_MODE POSITIVE
AC$MASS_SPECTROMETRY: COLLISION_ENERGY 50
AC$MASS_SPECTROMETRY: FRAGMENTATION_MODE CID
AC$MASS_SPECTROMETRY: IONIZATION ESI
AC$CHROMATOGRAPHY: COLUMN_NAME Zorbax Eclipse Plus C18 2.1 mm x 150 mm, 3.5 um, Agilent
AC$CHROMATOGRAPHY: COLUMN_TEMPERATURE 40 °C
AC$CHROMATOGRAPHY: FLOW_GRADIENT 0 min min 98% A, 1 min 98% A, 2 min 80% A, 16.5 min 2% A, 22 min 2% A, 22.1 min 98% A, 27 min 98% A
AC$CHROMATOGRAPHY: FLOW_RATE 0.3 mL/min
AC$CHROMATOGRAPHY: RETENTION_TIME 11.919 min
AC$CHROMATOGRAPHY: SOLVENT A: Water 0.1% Formic acid, B: Acetonitrile 0.1% Formic acid
MS$FOCUSED_ION: PRECURSOR_M/Z 288.0615
MS$FOCUSED_ION: PRECURSOR_TYPE [M+H]+
MS$DATA_PROCESSING: COMMENT Export with pycsl 0.1.0.dev1 and CSL 25.0
PK$SPLASH: splash10-02tc-6900000000-40213907c88e6064d77c
PK$NUM_PEAK: 63
PK$PEAK: m/z int. rel.int.
  39.0224 1.4 29
  51.0235 0.8 17
  53.0016 0.6 12
  61.0071 0.5 10
  62.0138 1.4 29
  63.0218 18.8 401
  64.0299 35.3 753
  74.0136 1.6 34
  75.0221 33.3 710
  76.0294 7.1 151
  77.0246 1.0 21
  77.0368 2.1 44
  78.0325 2.6 55
  80.0129 2.1 44
  89.0356 0.6 12
  90.0347 0.7 14
  90.0443 0.5 10
  91.0166 20.0 426
  91.0397 0.9 19
  92.0248 46.8 999
  103.0416 0.8 17
  105.0176 0.5 10
  106.0271 4.6 98
  113.0417 0.5 10
  114.0449 6.8 145
  115.041 1.3 27
  116.0486 0.9 19
  117.0561 2.9 61
  118.0537 0.6 12
  119.0109 20.4 435
  120.0261 1.3 27
  122.0228 8.5 181
  128.0483 2.1 44
  128.0594 2.2 46
  130.0496 0.5 10
  134.023 11.0 234
  137.0318 0.8 17
  139.0534 21.4 456
  140.0494 21.4 456
  141.0548 10.6 226
  142.051 12.1 258
  143.0608 1.1 23
  150.0291 11.7 249
  153.0564 0.6 12
  154.0619 0.7 14
  155.0592 8.6 183
  156.0622 0.7 14
  166.0516 3.4 72
  167.0592 25.8 550
  168.0665 46.1 984
  169.051 2.4 51
  170.0479 3.9 83
  171.0553 1.1 23
  179.0601 2.3 49
  182.0472 0.6 12
  195.0526 17.4 371
  196.0613 8.8 187
  211.047 0.6 12
  222.0429 1.2 25
  223.0493 3.9 83
  224.0566 1.3 27
  242.0531 2.9 61
  270.0491 0.7 14
//
