ACCESSION: MSBNK-BAFG-CSL23111015629
RECORD_TITLE: 1-Cyclohexyl-3-(2-methylphenyl)urea; LC-ESI-QTOF; MS2; 130 V
DATE: 2023.11.10
AUTHORS: Kevin S. Jewell; Björn Ehlig; Arne Wick
LICENSE: dl-de/by-2-0
COPYRIGHT: Copyright 2023 Federal Institute of Hydrology, Koblenz, Germany
COMMENT: CONFIDENCE Reference Standard (Level 1)
COMMENT: Chromatography method: dx.doi.org/10.1016/j.chroma.2015.11.014
COMMENT: Acquisition method: 10.1002/rcm.8541
CH$NAME: 1-Cyclohexyl-3-(2-methylphenyl)urea
CH$FORMULA: C14H20N2O
CH$EXACT_MASS: 232.1576
CH$SMILES: O=C(NC1CCCCC1)Nc2ccccc2C
CH$IUPAC: InChI=1S/C14H20N2O/c1-11-7-5-6-10-13(11)16-14(17)15-12-8-3-2-4-9-12/h5-7,10,12H,2-4,8-9H2,1H3,(H2,15,16,17)
CH$LINK: CAS 108238-76-2
CH$LINK: INCHIKEY JYBQTDHFCBQLHP-UHFFFAOYSA-N
AC$INSTRUMENT: TripleTOF 6600 SCIEX
AC$INSTRUMENT_TYPE: LC-ESI-QTOF
AC$MASS_SPECTROMETRY: MS_TYPE MS2
AC$MASS_SPECTROMETRY: ION_MODE POSITIVE
AC$MASS_SPECTROMETRY: COLLISION_ENERGY 130
AC$MASS_SPECTROMETRY: FRAGMENTATION_MODE CID
AC$MASS_SPECTROMETRY: IONIZATION ESI
AC$CHROMATOGRAPHY: COLUMN_NAME Zorbax Eclipse Plus C18 2.1 mm x 150 mm, 3.5 um, Agilent
AC$CHROMATOGRAPHY: COLUMN_TEMPERATURE 40 °C
AC$CHROMATOGRAPHY: FLOW_GRADIENT 0 min min 98% A, 1 min 98% A, 2 min 80% A, 16.5 min 2% A, 22 min 2% A, 22.1 min 98% A, 27 min 98% A
AC$CHROMATOGRAPHY: FLOW_RATE 0.3 mL/min
AC$CHROMATOGRAPHY: RETENTION_TIME 11.026 min
AC$CHROMATOGRAPHY: SOLVENT A: Water 0.1% Formic acid, B: Acetonitrile 0.1% Formic acid
MS$FOCUSED_ION: PRECURSOR_M/Z 233.1649
MS$FOCUSED_ION: PRECURSOR_TYPE [M+H]+
MS$DATA_PROCESSING: COMMENT Export with Spectra 1.9.12 MsBackendMassbank 1.7.4
MS$DATA_PROCESSING: WHOLE RMassBank 2.3.1
PK$SPLASH: splash10-000i-9000000000-eba22ee6e259c27b3d95
PK$NUM_PEAK: 27
PK$PEAK: m/z int. rel.int.
  35.999 1.9 39
  37.007 12.7 264
  38.0144 12.8 266
  39.0227 47.9 999
  40.0295 0.8 16
  41.025 0.6 12
  41.0377 1.4 29
  42.0327 0.9 18
  44.0124 1 20
  49.0061 1.7 35
  50.0144 9.9 206
  51.022 9.6 200
  52.017 2.5 52
  53.0373 0.9 18
  54.0325 2 41
  61.0065 2.1 43
  62.014 2.9 60
  63.0215 3 62
  65.0375 15.8 329
  66.0332 1.5 31
  66.045 4.1 85
  67.0396 0.9 18
  74.0125 0.6 12
  77.037 1.9 39
  78.0321 0.9 18
  92.0478 2.7 56
  93.0561 1.3 27
//
