ACCESSION: MSBNK-BAFG-CSL25010634481
RECORD_TITLE: Disperse brown 1; LC-ESI-QTOF; MS2; 100 V
DATE: 2025.01.06
AUTHORS: Ole Lessmann; Kevin S. Jewell; Björn Ehlig; Arne Wick
LICENSE: dl-de/by-2-0
COPYRIGHT: Copyright 2025 Federal Institute of Hydrology, Koblenz, Germany
COMMENT: CONFIDENCE Reference Standard (Level 1)
COMMENT: Chromatography method: dx.doi.org/10.1016/j.chroma.2015.11.014
COMMENT: Acquisition method: 10.1002/rcm.8541
CH$NAME: Disperse brown 1
CH$FORMULA: C16H15Cl3N4O4
CH$EXACT_MASS: 432.0159
CH$SMILES: C1=CC(=C(C=C1N(CCO)CCO)Cl)N=NC2=C(C=C(C=C2Cl)[N+](=O)[O-])Cl
CH$IUPAC: InChI=1S/C16H15Cl3N4O4/c17-12-7-10(22(3-5-24)4-6-25)1-2-15(12)20-21-16-13(18)8-11(23(26)27)9-14(16)19/h1-2,7-9,24-25H,3-6H2
CH$LINK: CAS 23355-64-8
CH$LINK: INCHIKEY HXXLWTPFYWMBSC-UHFFFAOYSA-N
AC$INSTRUMENT: TripleTOF 6600 SCIEX
AC$INSTRUMENT_TYPE: LC-ESI-QTOF
AC$MASS_SPECTROMETRY: MS_TYPE MS2
AC$MASS_SPECTROMETRY: ION_MODE POSITIVE
AC$MASS_SPECTROMETRY: COLLISION_ENERGY 100
AC$MASS_SPECTROMETRY: FRAGMENTATION_MODE CID
AC$MASS_SPECTROMETRY: IONIZATION ESI
AC$CHROMATOGRAPHY: COLUMN_NAME Zorbax Eclipse Plus C18 2.1 mm x 150 mm, 3.5 um, Agilent
AC$CHROMATOGRAPHY: COLUMN_TEMPERATURE 40 °C
AC$CHROMATOGRAPHY: FLOW_GRADIENT 0 min min 98% A, 1 min 98% A, 2 min 80% A, 16.5 min 2% A, 22 min 2% A, 22.1 min 98% A, 27 min 98% A
AC$CHROMATOGRAPHY: FLOW_RATE 0.3 mL/min
AC$CHROMATOGRAPHY: RETENTION_TIME 12.39 min
AC$CHROMATOGRAPHY: SOLVENT A: Water 0.1% Formic acid, B: Acetonitrile 0.1% Formic acid
MS$FOCUSED_ION: PRECURSOR_M/Z 433.0232
MS$FOCUSED_ION: PRECURSOR_TYPE [M+H]+
MS$DATA_PROCESSING: COMMENT Export with pycsl 0.1.0.dev1 and CSL 24.4
PK$SPLASH: splash10-0a4l-4900000000-0b70ad3f90296a2e05d4
PK$NUM_PEAK: 46
PK$PEAK: m/z int. rel.int.
  45.0333 0.7 69
  63.0233 0.9 89
  65.038 0.5 49
  72.9842 0.5 49
  74.0147 1.8 178
  75.0088 0.6 59
  75.0229 0.8 79
  76.0186 1.2 118
  77.0373 2.8 276
  78.0345 1.1 108
  83.9758 0.8 79
  89.0389 0.8 79
  90.033 2.9 286
  91.0531 1.2 118
  92.0505 1.3 128
  96.9834 0.9 89
  98.9995 0.7 69
  102.0331 0.8 79
  103.0307 0.5 49
  104.0502 3.6 356
  105.054 0.5 49
  106.0654 0.4 39
  107.9759 1.9 187
  108.9836 10.1 999
  110.9996 0.7 69
  112.0038 0.6 59
  114.0122 0.6 59
  116.0474 0.8 79
  117.0557 2.2 217
  118.0513 0.7 69
  118.064 1.8 178
  119.0598 0.4 39
  123.9949 1.8 178
  125.0034 0.8 79
  126.0118 0.7 69
  130.0651 0.8 79
  131.061 0.8 79
  132.0698 0.5 49
  139.0074 1.3 128
  139.0176 0.6 59
  142.9467 1.6 158
  143.9526 3.5 346
  150.0471 0.9 89
  153.0199 1.2 118
  184.0101 0.6 59
  213.0231 0.6 59
//