ACCESSION: MSBNK-BAFG-CSL23103127316
RECORD_TITLE: Nicosulfuron; LC-ESI-QTOF; MS2; 140 V
DATE: 2023.10.31
AUTHORS: Kevin S. Jewell; Björn Ehlig; Arne Wick
LICENSE: dl-de/by-2-0
COPYRIGHT: Copyright 2023 Federal Institute of Hydrology, Koblenz, Germany
COMMENT: CONFIDENCE Reference Standard (Level 1)
COMMENT: Chromatography method: dx.doi.org/10.1016/j.chroma.2015.11.014
COMMENT: Acquisition method: 10.1002/rcm.8541
CH$NAME: Nicosulfuron
CH$COMPOUND_CLASS: Herbicide
CH$FORMULA: C15H18N6O6S
CH$EXACT_MASS: 410.1009
CH$SMILES: CN(C)C(=O)C1=C(N=CC=C1)S(=O)(=O)NC(=O)NC2=NC(=CC(=N2)OC)OC
CH$IUPAC: InChI=1S/C15H18N6O6S/c1-21(2)13(22)9-6-5-7-16-12(9)28(24,25)20-15(23)19-14-17-10(26-3)8-11(18-14)27-4/h5-8H,1-4H3,(H2,17,18,19,20,23)
CH$LINK: CAS 111991-09-4
CH$LINK: INCHIKEY RTCOGUMHFFWOJV-UHFFFAOYSA-N
AC$INSTRUMENT: TripleTOF 6600 SCIEX
AC$INSTRUMENT_TYPE: LC-ESI-QTOF
AC$MASS_SPECTROMETRY: MS_TYPE MS2
AC$MASS_SPECTROMETRY: ION_MODE POSITIVE
AC$MASS_SPECTROMETRY: COLLISION_ENERGY 140
AC$MASS_SPECTROMETRY: FRAGMENTATION_MODE CID
AC$MASS_SPECTROMETRY: IONIZATION ESI
AC$CHROMATOGRAPHY: COLUMN_NAME Zorbax Eclipse Plus C18 2.1 mm x 150 mm, 3.5 um, Agilent
AC$CHROMATOGRAPHY: COLUMN_TEMPERATURE 40 °C
AC$CHROMATOGRAPHY: FLOW_GRADIENT 0 min min 98% A, 1 min 98% A, 2 min 80% A, 16.5 min 2% A, 22 min 2% A, 22.1 min 98% A, 27 min 98% A
AC$CHROMATOGRAPHY: FLOW_RATE 0.3 mL/min
AC$CHROMATOGRAPHY: RETENTION_TIME 8.499 min
AC$CHROMATOGRAPHY: SOLVENT A: Water 0.1% Formic acid, B: Acetonitrile 0.1% Formic acid
MS$FOCUSED_ION: PRECURSOR_M/Z 411.1081
MS$FOCUSED_ION: PRECURSOR_TYPE [M+H]+
MS$DATA_PROCESSING: COMMENT Export with Spectra 1.9.12 MsBackendMassbank 1.7.4
MS$DATA_PROCESSING: WHOLE RMassBank 2.3.1
PK$SPLASH: splash10-0udi-9000000000-3695979f1f2fbf380cd9
PK$NUM_PEAK: 35
PK$PEAK: m/z int. rel.int.
  37.0057 0.7 18
  38.0005 1.4 36
  38.0133 0.4 10
  39.0204 2.3 60
  40.0155 1.3 33
  40.9995 0.7 18
  41.024 2 52
  43.0273 2.1 54
  49.0047 1.7 44
  50.0127 12.3 321
  51.0206 38.2 999
  52.016 1.3 33
  52.9998 0.7 18
  55.0273 1 26
  56.0107 3.5 91
  57.0423 1 26
  64.0155 2.7 70
  65.0105 7.3 190
  65.0351 0.6 15
  66.0204 0.8 20
  67.0018 1.5 39
  67.0262 0.6 15
  68.0107 2.5 65
  68.9941 2.8 73
  69.0055 8 209
  70.0264 0.8 20
  78.0314 23.8 622
  79.0263 0.5 13
  80.0475 0.6 15
  82.0258 0.6 15
  83.0213 10.5 274
  91.0265 1.5 39
  92.0458 0.5 13
  93.0056 9.1 237
  94.0128 0.5 13
//
