ACCESSION: MSBNK-BAFG-CSL23103015732
RECORD_TITLE: Prochloraz; LC-ESI-QTOF; MS2; 140 V
DATE: 2023.10.30
AUTHORS: Kevin S. Jewell; Björn Ehlig; Arne Wick
LICENSE: dl-de/by-2-0
COPYRIGHT: Copyright 2023 Federal Institute of Hydrology, Koblenz, Germany
COMMENT: CONFIDENCE Reference Standard (Level 1)
COMMENT: Chromatography method: dx.doi.org/10.1016/j.chroma.2015.11.014
COMMENT: Acquisition method: 10.1002/rcm.8541
CH$NAME: Prochloraz
CH$COMPOUND_CLASS: Fungicide
CH$FORMULA: C15H16Cl3N3O2
CH$EXACT_MASS: 375.0308
CH$SMILES: CCCN(CCOc1c(cc(cc1Cl)Cl)Cl)C(=O)n2ccnc2
CH$IUPAC: InChI=1S/C15H16Cl3N3O2/c1-2-4-20(15(22)21-5-3-19-10-21)6-7-23-14-12(17)8-11(16)9-13(14)18/h3,5,8-10H,2,4,6-7H2,1H3
CH$LINK: CAS 67747-09-5
CH$LINK: INCHIKEY TVLSRXXIMLFWEO-UHFFFAOYSA-N
AC$INSTRUMENT: TripleTOF 6600 SCIEX
AC$INSTRUMENT_TYPE: LC-ESI-QTOF
AC$MASS_SPECTROMETRY: MS_TYPE MS2
AC$MASS_SPECTROMETRY: ION_MODE POSITIVE
AC$MASS_SPECTROMETRY: COLLISION_ENERGY 140
AC$MASS_SPECTROMETRY: FRAGMENTATION_MODE CID
AC$MASS_SPECTROMETRY: IONIZATION ESI
AC$CHROMATOGRAPHY: COLUMN_NAME Zorbax Eclipse Plus C18 2.1 mm x 150 mm, 3.5 um, Agilent
AC$CHROMATOGRAPHY: COLUMN_TEMPERATURE 40 °C
AC$CHROMATOGRAPHY: FLOW_GRADIENT 0 min min 98% A, 1 min 98% A, 2 min 80% A, 16.5 min 2% A, 22 min 2% A, 22.1 min 98% A, 27 min 98% A
AC$CHROMATOGRAPHY: FLOW_RATE 0.3 mL/min
AC$CHROMATOGRAPHY: RETENTION_TIME 11.258 min
AC$CHROMATOGRAPHY: SOLVENT A: Water 0.1% Formic acid, B: Acetonitrile 0.1% Formic acid
MS$FOCUSED_ION: PRECURSOR_M/Z 376.0381
MS$FOCUSED_ION: PRECURSOR_TYPE [M+H]+
MS$DATA_PROCESSING: COMMENT Export with Spectra 1.9.12 MsBackendMassbank 1.7.4
MS$DATA_PROCESSING: WHOLE RMassBank 2.3.1
PK$SPLASH: splash10-0ab9-9200000000-e51c5f390fb2004974ea
PK$NUM_PEAK: 23
PK$PEAK: m/z int. rel.int.
  37.0079 0.7 127
  38.0153 0.8 145
  39.0229 2.8 508
  41.0389 2 363
  42.0337 1.1 199
  46.9679 0.7 127
  56.0492 0.6 108
  61.0077 0.6 108
  62.0152 1.5 272
  63.0232 2 363
  70.0654 0.4 72
  71.9754 1.6 290
  72.9838 2.6 472
  73.0074 2 363
  74.0147 3 544
  82.9447 4.1 744
  89.0393 1.3 236
  95.9752 0.5 90
  96.9837 1.8 326
  98.9991 0.4 72
  106.945 3.1 563
  107.9755 5.5 999
  108.9852 1.1 199
//
