ACCESSION: MSBNK-BAFG-CSL2311109420
RECORD_TITLE: Timolol; LC-ESI-QTOF; MS2; 40 V
DATE: 2023.11.10
AUTHORS: Kevin S. Jewell; Björn Ehlig; Arne Wick
LICENSE: dl-de/by-2-0
COPYRIGHT: Copyright 2023 Federal Institute of Hydrology, Koblenz, Germany
COMMENT: CONFIDENCE Reference Standard (Level 1)
COMMENT: Chromatography method: dx.doi.org/10.1016/j.chroma.2015.11.014
COMMENT: Acquisition method: 10.1002/rcm.8541
CH$NAME: Timolol
CH$COMPOUND_CLASS: Pharmaceutical
CH$FORMULA: C13H24N4O3S
CH$EXACT_MASS: 316.1569
CH$SMILES: CC(C)(C)NCC(COC1=NSN=C1N2CCOCC2)O
CH$IUPAC: InChI=1S/C13H24N4O3S/c1-13(2,3)14-8-10(18)9-20-12-11(15-21-16-12)17-4-6-19-7-5-17/h10,14,18H,4-9H2,1-3H3
CH$LINK: CAS 26839-75-8
CH$LINK: INCHIKEY BLJRIMJGRPQVNF-UHFFFAOYSA-N
AC$INSTRUMENT: TripleTOF 5600 SCIEX
AC$INSTRUMENT_TYPE: LC-ESI-QTOF
AC$MASS_SPECTROMETRY: MS_TYPE MS2
AC$MASS_SPECTROMETRY: ION_MODE POSITIVE
AC$MASS_SPECTROMETRY: COLLISION_ENERGY 40
AC$MASS_SPECTROMETRY: FRAGMENTATION_MODE CID
AC$MASS_SPECTROMETRY: IONIZATION ESI
AC$CHROMATOGRAPHY: COLUMN_NAME Zorbax Eclipse Plus C18 2.1 mm x 150 mm, 3.5 um, Agilent
AC$CHROMATOGRAPHY: COLUMN_TEMPERATURE 40 °C
AC$CHROMATOGRAPHY: FLOW_GRADIENT 0 min min 98% A, 1 min 98% A, 2 min 80% A, 16.5 min 2% A, 22 min 2% A, 22.1 min 98% A, 27 min 98% A
AC$CHROMATOGRAPHY: FLOW_RATE 0.3 mL/min
AC$CHROMATOGRAPHY: RETENTION_TIME 5.513 min
AC$CHROMATOGRAPHY: SOLVENT A: Water 0.1% Formic acid, B: Acetonitrile 0.1% Formic acid
MS$FOCUSED_ION: PRECURSOR_M/Z 317.1642
MS$FOCUSED_ION: PRECURSOR_TYPE [M+H]+
MS$DATA_PROCESSING: COMMENT Export with Spectra 1.9.12 MsBackendMassbank 1.7.4
MS$DATA_PROCESSING: WHOLE RMassBank 2.3.1
PK$SPLASH: splash10-01vx-4971000000-7ff06a4f06541ac7449b
PK$NUM_PEAK: 27
PK$PEAK: m/z int. rel.int.
  56.0591 8.2 157
  69.0521 1.3 25
  74.0115 3 57
  74.0658 47.1 906
  86.0641 2.4 46
  99.0038 2.1 40
  101.017 1 19
  104.0177 0.7 13
  113.0718 16.8 323
  118.0293 0.8 15
  126.9957 1.7 32
  127.9919 0.7 13
  130.0082 0.6 11
  130.1236 1.9 36
  144.0234 23.8 458
  145.044 7.1 136
  158.0925 0.8 15
  159.0218 2.2 42
  167.0696 0.5 9
  170.0369 2.1 40
  172.055 3.9 75
  188.0487 51.9 999
  200.0483 2.4 46
  243.0938 5.8 111
  244.0757 51.7 995
  261.102 42.2 812
  317.1644 18.1 348
//
