ACCESSION: MSBNK-BAFG-CSL25011734509
RECORD_TITLE: 3-Alizarinsulfonic acid; LC-ESI-QTOF; MS2; 60 V
DATE: 2025.01.17
AUTHORS: Ole Lessmann; Kevin S. Jewell; Björn Ehlig; Arne Wick
LICENSE: dl-de/by-2-0
COPYRIGHT: Copyright 2025 Federal Institute of Hydrology, Koblenz, Germany
COMMENT: CONFIDENCE Reference Standard (Level 1)
COMMENT: Chromatography method: dx.doi.org/10.1016/j.chroma.2015.11.014
CH$NAME: 3-Alizarinsulfonic acid
CH$FORMULA: C14H8O7S
CH$EXACT_MASS: 319.9991
CH$SMILES: C1=CC=C2C(=C1)C(=O)C3=CC(=C(C(=C3C2=O)O)O)S(=O)(=O)O
CH$IUPAC: InChI=1S/C14H8O7S/c15-11-6-3-1-2-4-7(6)12(16)10-8(11)5-9(22(19,20)21)13(17)14(10)18/h1-5,17-18H,(H,19,20,21)
CH$LINK: CAS 83-61-4
CH$LINK: INCHIKEY JKYKXTRKURYNGW-UHFFFAOYSA-N
AC$INSTRUMENT: TripleTOF 6600 SCIEX
AC$INSTRUMENT_TYPE: LC-ESI-QTOF
AC$MASS_SPECTROMETRY: MS_TYPE MS2
AC$MASS_SPECTROMETRY: ION_MODE NEGATIVE
AC$MASS_SPECTROMETRY: COLLISION_ENERGY 60
AC$MASS_SPECTROMETRY: FRAGMENTATION_MODE CID
AC$MASS_SPECTROMETRY: IONIZATION ESI
AC$CHROMATOGRAPHY: COLUMN_NAME Zorbax Eclipse Plus C18 2.1 mm x 150 mm, 3.5 um, Agilent
AC$CHROMATOGRAPHY: COLUMN_TEMPERATURE 40 °C
AC$CHROMATOGRAPHY: FLOW_GRADIENT 0 min min 98% A, 1 min 98% A, 2 min 80% A, 16.5 min 2% A, 22 min 2% A, 22.1 min 98% A, 27 min 98% A
AC$CHROMATOGRAPHY: FLOW_RATE 0.3 mL/min
AC$CHROMATOGRAPHY: RETENTION_TIME 8.229 min
AC$CHROMATOGRAPHY: SOLVENT A: Water 0.1% Formic acid, B: Acetonitrile 0.1% Formic acid
MS$FOCUSED_ION: PRECURSOR_M/Z 318.9918
MS$FOCUSED_ION: PRECURSOR_TYPE [M-H]-
MS$DATA_PROCESSING: COMMENT Export with pycsl 0.1.0.dev1 and CSL 25.0
PK$SPLASH: splash10-03di-0390000000-ea48878ba466d5e23cb2
PK$NUM_PEAK: 20
PK$PEAK: m/z int. rel.int.
  79.9568 3.2 46
  80.9648 1.6 23
  101.0397 2.8 40
  125.0396 4.5 64
  127.054 4.2 60
  143.0477 0.7 10
  153.0342 3.9 56
  154.0445 1.2 17
  155.0493 9.9 142
  167.0492 15.1 217
  182.0369 1.4 20
  183.0448 5.3 76
  195.0462 1.9 27
  198.0315 0.7 10
  210.0313 69.2 999
  211.0393 35.8 516
  226.0285 1.3 18
  238.0251 5.4 77
  239.0345 33.1 477
  255.0296 0.9 12
//
