ACCESSION: MSBNK-BAFG-CSL23102512867
RECORD_TITLE: Olmesartan-d6; LC-ESI-QTOF; MS2; 120 V
DATE: 2023.10.25
AUTHORS: Kevin S. Jewell; Björn Ehlig; Arne Wick
LICENSE: dl-de/by-2-0
COPYRIGHT: Copyright 2023 Federal Institute of Hydrology, Koblenz, Germany
COMMENT: CONFIDENCE Reference Standard (Level 1)
COMMENT: Chromatography method: dx.doi.org/10.1016/j.chroma.2015.11.014
COMMENT: Acquisition method: 10.1002/rcm.8541
CH$NAME: Olmesartan-d6
CH$COMPOUND_CLASS: Surrogate_standard
CH$FORMULA: C24H20N6O3 2H6
CH$EXACT_MASS: 452.2443
CH$SMILES: [2H]C([2H])([2H])C(C1=C(N(C(=N1)CCC)CC2=CC=C(C=C2)C3=CC=CC=C3C4=NNN=N4)C(=O)O)(C([2H])([2H])[2H])O
CH$IUPAC: InChI=1S/C24H26N6O3/c1-4-7-19-25-21(24(2,3)33)20(23(31)32)30(19)14-15-10-12-16(13-11-15)17-8-5-6-9-18(17)22-26-28-29-27-22/h5-6,8-13,33H,4,7,14H2,1-3H3,(H,31,32)(H,26,27,28,29)/i2D3,3D3
CH$LINK: CAS 1185144-74-4
CH$LINK: INCHIKEY VTRAEEWXHOVJFV-XERRXZQWSA-N
AC$INSTRUMENT: TripleTOF 5600 SCIEX
AC$INSTRUMENT_TYPE: LC-ESI-QTOF
AC$MASS_SPECTROMETRY: MS_TYPE MS2
AC$MASS_SPECTROMETRY: ION_MODE POSITIVE
AC$MASS_SPECTROMETRY: COLLISION_ENERGY 120
AC$MASS_SPECTROMETRY: FRAGMENTATION_MODE CID
AC$MASS_SPECTROMETRY: IONIZATION ESI
AC$CHROMATOGRAPHY: COLUMN_NAME Zorbax Eclipse Plus C18 2.1 mm x 150 mm, 3.5 um, Agilent
AC$CHROMATOGRAPHY: COLUMN_TEMPERATURE 40 °C
AC$CHROMATOGRAPHY: FLOW_GRADIENT 0 min min 98% A, 1 min 98% A, 2 min 80% A, 16.5 min 2% A, 22 min 2% A, 22.1 min 98% A, 27 min 98% A
AC$CHROMATOGRAPHY: FLOW_RATE 0.3 mL/min
AC$CHROMATOGRAPHY: RETENTION_TIME 7.306 min
AC$CHROMATOGRAPHY: SOLVENT A: Water 0.1% Formic acid, B: Acetonitrile 0.1% Formic acid
MS$FOCUSED_ION: PRECURSOR_M/Z 453.2527
MS$FOCUSED_ION: PRECURSOR_TYPE [M+H]+
MS$DATA_PROCESSING: COMMENT Export with Spectra 1.9.12 MsBackendMassbank 1.7.4
MS$DATA_PROCESSING: WHOLE RMassBank 2.3.1
PK$SPLASH: splash10-0w4i-0900000000-26a1b9470f41439e20b7
PK$NUM_PEAK: 48
PK$PEAK: m/z int. rel.int.
  77.0428 5.8 53
  89.0408 3.5 32
  98.0164 1.5 13
  101.0405 2 18
  102.0483 1.7 15
  113.04 6.5 59
  114.0358 2 18
  114.0464 2 18
  115.0553 8.2 75
  125.0411 4.7 42
  126.047 7.8 71
  127.055 15.2 139
  128.0618 8.8 80
  129.0489 1.1 10
  137.0394 4.9 44
  138.0469 6.1 55
  139.0545 13 118
  140.0507 19.1 174
  141.061 2.1 19
  149.0393 1.9 17
  150.0464 21.5 196
  151.0546 66.3 606
  152.0624 109.2 999
  153.0674 15.9 145
  154.068 2.1 19
  155.0617 1.1 10
  161.0362 2.1 19
  162.0473 7.2 65
  163.0545 48.7 445
  164.0538 41 375
  165.0685 23.5 214
  166.0655 5.3 48
  167.0742 1.5 13
  175.0531 2 18
  176.0616 37.1 339
  177.0642 27.8 254
  178.0701 39.6 362
  179.071 11.6 106
  180.0806 3.6 32
  188.0494 13.3 121
  189.0574 13.9 127
  190.0656 81.8 748
  191.069 11.1 101
  192.0663 5.4 49
  203.0611 1.5 13
  204.0686 1.2 10
  205.0759 30.6 279
  206.083 5.1 46
//
