ACCESSION: MSBNK-BAFG-CSL23110919012
RECORD_TITLE: Acetochlor; LC-ESI-QTOF; MS2; 20 V
DATE: 2023.11.09
AUTHORS: Kevin S. Jewell; Björn Ehlig; Arne Wick
LICENSE: dl-de/by-2-0
COPYRIGHT: Copyright 2023 Federal Institute of Hydrology, Koblenz, Germany
COMMENT: CONFIDENCE Reference Standard (Level 1)
COMMENT: Chromatography method: dx.doi.org/10.1016/j.chroma.2015.11.014
COMMENT: Acquisition method: 10.1002/rcm.8541
CH$NAME: Acetochlor
CH$COMPOUND_CLASS: Herbicide
CH$FORMULA: C14H20ClNO2
CH$EXACT_MASS: 269.1183
CH$SMILES: CCC1=CC=CC(=C1N(COCC)C(=O)CCl)C
CH$IUPAC: InChI=1S/C14H20ClNO2/c1-4-12-8-6-7-11(3)14(12)16(10-18-5-2)13(17)9-15/h6-8H,4-5,9-10H2,1-3H3
CH$LINK: CAS 34256-82-1
CH$LINK: INCHIKEY VTNQPKFIQCLBDU-UHFFFAOYSA-N
AC$INSTRUMENT: TripleTOF 6600 SCIEX
AC$INSTRUMENT_TYPE: LC-ESI-QTOF
AC$MASS_SPECTROMETRY: MS_TYPE MS2
AC$MASS_SPECTROMETRY: ION_MODE POSITIVE
AC$MASS_SPECTROMETRY: COLLISION_ENERGY 20
AC$MASS_SPECTROMETRY: FRAGMENTATION_MODE CID
AC$MASS_SPECTROMETRY: IONIZATION ESI
AC$CHROMATOGRAPHY: COLUMN_NAME Zorbax Eclipse Plus C18 2.1 mm x 150 mm, 3.5 um, Agilent
AC$CHROMATOGRAPHY: COLUMN_TEMPERATURE 40 °C
AC$CHROMATOGRAPHY: FLOW_GRADIENT 0 min min 98% A, 1 min 98% A, 2 min 80% A, 16.5 min 2% A, 22 min 2% A, 22.1 min 98% A, 27 min 98% A
AC$CHROMATOGRAPHY: FLOW_RATE 0.3 mL/min
AC$CHROMATOGRAPHY: RETENTION_TIME 13.251 min
AC$CHROMATOGRAPHY: SOLVENT A: Water 0.1% Formic acid, B: Acetonitrile 0.1% Formic acid
MS$FOCUSED_ION: PRECURSOR_M/Z 270.1255
MS$FOCUSED_ION: PRECURSOR_TYPE [M+H]+
MS$DATA_PROCESSING: COMMENT Export with Spectra 1.9.12 MsBackendMassbank 1.7.4
MS$DATA_PROCESSING: WHOLE RMassBank 2.3.1
PK$SPLASH: splash10-0079-0490000000-98efe457820a61856f66
PK$NUM_PEAK: 22
PK$PEAK: m/z int. rel.int.
  45.0326 6.5 47
  59.0483 14.2 103
  90.0084 5 36
  131.0825 2.7 19
  132.08 1.6 11
  133.0865 2.7 19
  145.0982 2.3 16
  146.0937 2.3 16
  147.102 2.1 15
  148.1106 54.6 399
  149.0944 3.2 23
  158.0921 1.8 13
  160.1097 1.4 10
  162.1255 44.5 325
  163.1112 8 58
  206.0702 4.9 35
  208.0855 7.8 57
  210.0663 3.2 23
  220.085 9.4 68
  224.082 109.1 797
  238.0972 136.7 999
  270.1225 9.3 67
//
