ACCESSION: MSBNK-BAFG-CSL25011734655
RECORD_TITLE: Reactive Orange; LC-ESI-QTOF; MS2; 110 V
DATE: 2025.01.17
AUTHORS: Ole Lessmann; Kevin S. Jewell; Björn Ehlig; Arne Wick
LICENSE: dl-de/by-2-0
COPYRIGHT: Copyright 2025 Federal Institute of Hydrology, Koblenz, Germany
COMMENT: CONFIDENCE Reference Standard (Level 1)
COMMENT: Chromatography method: dx.doi.org/10.1016/j.chroma.2015.11.014
CH$NAME: Reactive Orange
CH$FORMULA: C20H19N3O11S3
CH$EXACT_MASS: 573.0182
CH$SMILES: CC(=O)NC1=CC2=C(C(=C(C=C2C=C1)S(=O)(=O)O)N=NC3=CC=C(C=C3)S(=O)(=O)CCOS(=O)(=O)O)O
CH$IUPAC: InChI=1S/C20H19N3O11S3/c1-12(24)21-15-3-2-13-10-18(36(28,29)30)19(20(25)17(13)11-15)23-22-14-4-6-16(7-5-14)35(26,27)9-8-34-37(31,32)33/h2-7,10-11,25H,8-9H2,1H3,(H,21,24)(H,28,29,30)(H,31,32,33)
CH$LINK: CAS 109603-48-7
CH$LINK: INCHIKEY INOIOAWTVPHTCJ-UHFFFAOYSA-N
AC$INSTRUMENT: TripleTOF 6600 SCIEX
AC$INSTRUMENT_TYPE: LC-ESI-QTOF
AC$MASS_SPECTROMETRY: MS_TYPE MS2
AC$MASS_SPECTROMETRY: ION_MODE POSITIVE
AC$MASS_SPECTROMETRY: COLLISION_ENERGY 110
AC$MASS_SPECTROMETRY: FRAGMENTATION_MODE CID
AC$MASS_SPECTROMETRY: IONIZATION ESI
AC$CHROMATOGRAPHY: COLUMN_NAME Zorbax Eclipse Plus C18 2.1 mm x 150 mm, 3.5 um, Agilent
AC$CHROMATOGRAPHY: COLUMN_TEMPERATURE 40 °C
AC$CHROMATOGRAPHY: FLOW_GRADIENT 0 min min 98% A, 1 min 98% A, 2 min 80% A, 16.5 min 2% A, 22 min 2% A, 22.1 min 98% A, 27 min 98% A
AC$CHROMATOGRAPHY: FLOW_RATE 0.3 mL/min
AC$CHROMATOGRAPHY: RETENTION_TIME 5.751 min
AC$CHROMATOGRAPHY: SOLVENT A: Water 0.1% Formic acid, B: Acetonitrile 0.1% Formic acid
MS$FOCUSED_ION: PRECURSOR_M/Z 574.0255
MS$FOCUSED_ION: PRECURSOR_TYPE [M+H]+
MS$DATA_PROCESSING: COMMENT Export with pycsl 0.1.0.dev1 and CSL 25.0
PK$SPLASH: splash10-053u-4920000000-160ceb4760365e33c469
PK$NUM_PEAK: 64
PK$PEAK: m/z int. rel.int.
  43.0178 1.4 14
  44.979 1.5 15
  45.987 1.0 10
  46.9942 2.8 28
  53.0379 6.6 66
  63.0212 1.5 15
  65.0379 5.6 56
  68.0127 4.6 46
  74.9877 1.2 12
  77.0371 6.1 61
  80.0488 18.5 187
  81.0326 83.0 841
  88.0296 3.6 36
  89.0385 4.7 47
  91.0397 2.9 29
  92.049 7.6 77
  93.0558 3.0 30
  102.0306 1.2 12
  103.04 4.7 47
  104.0485 14.4 146
  108.0434 47.2 478
  114.0327 10.6 107
  115.0403 22.3 226
  116.0477 12.0 121
  117.0551 4.2 42
  128.0495 2.0 20
  129.0441 22.3 226
  130.0523 10.1 102
  131.0606 16.7 169
  141.0441 1.2 12
  142.052 98.5 999
  143.0575 8.0 81
  151.0526 3.0 30
  170.0472 37.4 379
  171.0555 2.5 25
  172.0395 1.7 17
  176.0623 1.8 18
  177.057 2.7 27
  178.0653 2.8 28
  179.0731 1.2 12
  180.0794 1.0 10
  188.0494 1.0 10
  189.0559 1.1 11
  190.0614 1.8 18
  193.0776 1.3 13
  203.0683 2.0 20
  204.0792 5.3 53
  205.0745 22.1 224
  206.0827 6.7 67
  215.0608 3.1 31
  216.0661 3.5 35
  217.0748 2.5 25
  218.0793 1.3 13
  220.0864 2.6 26
  221.0677 1.1 11
  230.0709 1.2 12
  231.0774 3.3 33
  232.0859 15.0 152
  233.0729 2.9 29
  233.0933 8.7 88
  243.0804 1.4 14
  244.0869 2.1 21
  260.08 2.7 27
  261.0883 1.4 14
//
