ACCESSION: MSBNK-BAFG-CSL23111018226
RECORD_TITLE: 4-(2,4-Dichlorophenoxy)butanoic acid; LC-ESI-QTOF; MS2; 90 V
DATE: 2023.11.10
AUTHORS: Kevin S. Jewell; Björn Ehlig; Arne Wick
LICENSE: dl-de/by-2-0
COPYRIGHT: Copyright 2023 Federal Institute of Hydrology, Koblenz, Germany
COMMENT: CONFIDENCE Reference Standard (Level 1)
COMMENT: Chromatography method: dx.doi.org/10.1016/j.chroma.2015.11.014
COMMENT: Acquisition method: 10.1002/rcm.8541
CH$NAME: 4-(2,4-Dichlorophenoxy)butanoic acid
CH$COMPOUND_CLASS: Herbicide
CH$FORMULA: C10H10Cl2O3
CH$EXACT_MASS: 248.0007
CH$SMILES: C1=CC(=C(C=C1Cl)Cl)OCCCC(=O)O
CH$IUPAC: InChI=1S/C10H10Cl2O3/c11-7-3-4-9(8(12)6-7)15-5-1-2-10(13)14/h3-4,6H,1-2,5H2,(H,13,14)
CH$LINK: CAS 94-82-6
CH$LINK: INCHIKEY YIVXMZJTEQBPQO-UHFFFAOYSA-N
AC$INSTRUMENT: TripleTOF 6600 SCIEX
AC$INSTRUMENT_TYPE: LC-ESI-QTOF
AC$MASS_SPECTROMETRY: MS_TYPE MS2
AC$MASS_SPECTROMETRY: ION_MODE POSITIVE
AC$MASS_SPECTROMETRY: COLLISION_ENERGY 90
AC$MASS_SPECTROMETRY: FRAGMENTATION_MODE CID
AC$MASS_SPECTROMETRY: IONIZATION ESI
AC$CHROMATOGRAPHY: COLUMN_NAME Zorbax Eclipse Plus C18 2.1 mm x 150 mm, 3.5 um, Agilent
AC$CHROMATOGRAPHY: COLUMN_TEMPERATURE 40 °C
AC$CHROMATOGRAPHY: FLOW_GRADIENT 0 min min 98% A, 1 min 98% A, 2 min 80% A, 16.5 min 2% A, 22 min 2% A, 22.1 min 98% A, 27 min 98% A
AC$CHROMATOGRAPHY: FLOW_RATE 0.3 mL/min
AC$CHROMATOGRAPHY: RETENTION_TIME 11.685 min
AC$CHROMATOGRAPHY: SOLVENT A: Water 0.1% Formic acid, B: Acetonitrile 0.1% Formic acid
MS$FOCUSED_ION: PRECURSOR_M/Z 249.008
MS$FOCUSED_ION: PRECURSOR_TYPE [M+H]+
MS$DATA_PROCESSING: COMMENT Export with Spectra 1.9.12 MsBackendMassbank 1.7.4
MS$DATA_PROCESSING: WHOLE RMassBank 2.3.1
PK$SPLASH: splash10-00dv-9000000000-25323c005c98b7b1b1b2
PK$NUM_PEAK: 31
PK$PEAK: m/z int. rel.int.
  35.9997 0.1 27
  37.0071 0.6 161
  38.0026 0.1 27
  38.0156 0.4 108
  39.0226 3.1 837
  41.0387 1 269
  42.0086 0.2 54
  43.0174 2 539
  44.9963 0.7 188
  45.0343 3.1 837
  46.9672 0.2 54
  51.023 0.2 54
  64.0332 0.1 27
  65.04 0.1 27
  72.9832 1.5 404
  73.0064 0.4 108
  74.0136 3.7 999
  75.0226 0.8 216
  77.0373 0.4 108
  77.0438 0.1 27
  82.9449 0.9 242
  83.9863 0.1 27
  84.986 0.2 54
  89.0404 0.2 54
  96.984 0.3 80
  103.0591 0.1 27
  106.9422 0.1 27
  108.9829 1 269
  109.988 0.1 27
  127.9999 0.2 54
  132.9564 0.3 80
//
