ACCESSION: MSBNK-BAFG-CSL25010634133
RECORD_TITLE: 2-isopropyl-5,6-dimethyl-1H-benzimidazole; LC-ESI-QTOF; MS2; 30 V
DATE: 2025.01.06
AUTHORS: Ole Lessmann; Kevin S. Jewell; Björn Ehlig; Arne Wick
LICENSE: dl-de/by-2-0
COPYRIGHT: Copyright 2025 Federal Institute of Hydrology, Koblenz, Germany
COMMENT: CONFIDENCE Reference Standard (Level 1)
COMMENT: Chromatography method: dx.doi.org/10.1016/j.chroma.2015.11.014
COMMENT: Acquisition method: 10.1002/rcm.8541
CH$NAME: 2-isopropyl-5,6-dimethyl-1H-benzimidazole
CH$FORMULA: C12H16N2
CH$EXACT_MASS: 188.1313
CH$SMILES: CC1=CC2=C(C=C1C)N=C(N2)C(C)C
CH$IUPAC: InChI=1S/C12H16N2/c1-7(2)12-13-10-5-8(3)9(4)6-11(10)14-12/h5-7H,1-4H3,(H,13,14)
CH$LINK: CAS 66073-79-8
CH$LINK: INCHIKEY KBNPIBOOPFUXEM-UHFFFAOYSA-N
AC$INSTRUMENT: TripleTOF 6600 SCIEX
AC$INSTRUMENT_TYPE: LC-ESI-QTOF
AC$MASS_SPECTROMETRY: MS_TYPE MS2
AC$MASS_SPECTROMETRY: ION_MODE POSITIVE
AC$MASS_SPECTROMETRY: COLLISION_ENERGY 30
AC$MASS_SPECTROMETRY: FRAGMENTATION_MODE CID
AC$MASS_SPECTROMETRY: IONIZATION ESI
AC$CHROMATOGRAPHY: COLUMN_NAME Zorbax Eclipse Plus C18 2.1 mm x 150 mm, 3.5 um, Agilent
AC$CHROMATOGRAPHY: COLUMN_TEMPERATURE 40 °C
AC$CHROMATOGRAPHY: FLOW_GRADIENT 0 min min 98% A, 1 min 98% A, 2 min 80% A, 16.5 min 2% A, 22 min 2% A, 22.1 min 98% A, 27 min 98% A
AC$CHROMATOGRAPHY: FLOW_RATE 0.3 mL/min
AC$CHROMATOGRAPHY: RETENTION_TIME 6.482 min
AC$CHROMATOGRAPHY: SOLVENT A: Water 0.1% Formic acid, B: Acetonitrile 0.1% Formic acid
MS$FOCUSED_ION: PRECURSOR_M/Z 189.1386
MS$FOCUSED_ION: PRECURSOR_TYPE [M+H]+
MS$DATA_PROCESSING: COMMENT Export with pycsl 0.1.0.dev1 and CSL 24.4
PK$SPLASH: splash10-00dr-0900000000-d824ea41e132178a8744
PK$NUM_PEAK: 5
PK$PEAK: m/z int. rel.int.
  120.0793 105.4 22
  147.0908 1759.0 373
  173.1062 2333.3 495
  174.1141 2854.4 606
  189.1376 4702.0 999
//