ACCESSION: MSBNK-BAFG-CSL2310306086
RECORD_TITLE: Carbadox; LC-ESI-QTOF; MS2; 70 V
DATE: 2023.10.30
AUTHORS: Kevin S. Jewell; Björn Ehlig; Arne Wick
LICENSE: dl-de/by-2-0
COPYRIGHT: Copyright 2023 Federal Institute of Hydrology, Koblenz, Germany
COMMENT: CONFIDENCE Reference Standard (Level 1)
COMMENT: Chromatography method: dx.doi.org/10.1016/j.chroma.2015.11.014
COMMENT: Acquisition method: 10.1002/rcm.8541
CH$NAME: Carbadox
CH$COMPOUND_CLASS: Antimicrobial; Pharmaceutical
CH$FORMULA: C11H10N4O4
CH$EXACT_MASS: 262.0702
CH$SMILES: COC(=O)N=NC=C1C=[N+]([O-])c2ccccc2N1O
CH$IUPAC: InChI=1S/C11H10N4O4/c1-19-11(16)13-12-6-8-7-14(17)9-4-2-3-5-10(9)15(8)18/h2-7,18H,1H3
CH$LINK: CAS 6804-07-5
CH$LINK: INCHIKEY BPMVRAQIQQEBLN-UHFFFAOYSA-N
AC$INSTRUMENT: TripleTOF 5600 SCIEX
AC$INSTRUMENT_TYPE: LC-ESI-QTOF
AC$MASS_SPECTROMETRY: MS_TYPE MS2
AC$MASS_SPECTROMETRY: ION_MODE POSITIVE
AC$MASS_SPECTROMETRY: COLLISION_ENERGY 70
AC$MASS_SPECTROMETRY: FRAGMENTATION_MODE CID
AC$MASS_SPECTROMETRY: IONIZATION ESI
AC$CHROMATOGRAPHY: COLUMN_NAME Zorbax Eclipse Plus C18 2.1 mm x 150 mm, 3.5 um, Agilent
AC$CHROMATOGRAPHY: COLUMN_TEMPERATURE 40 °C
AC$CHROMATOGRAPHY: FLOW_GRADIENT 0 min min 98% A, 1 min 98% A, 2 min 80% A, 16.5 min 2% A, 22 min 2% A, 22.1 min 98% A, 27 min 98% A
AC$CHROMATOGRAPHY: FLOW_RATE 0.3 mL/min
AC$CHROMATOGRAPHY: RETENTION_TIME 5.823 min
AC$CHROMATOGRAPHY: SOLVENT A: Water 0.1% Formic acid, B: Acetonitrile 0.1% Formic acid
MS$FOCUSED_ION: PRECURSOR_M/Z 263.0775
MS$FOCUSED_ION: PRECURSOR_TYPE [M+H]+
MS$DATA_PROCESSING: COMMENT Export with Spectra 1.9.12 MsBackendMassbank 1.7.4
MS$DATA_PROCESSING: WHOLE RMassBank 2.3.1
PK$SPLASH: splash10-0ufr-8900000000-0cfc9ad11cb3d48b6560
PK$NUM_PEAK: 37
PK$PEAK: m/z int. rel.int.
  52.0234 0.7 17
  63.0578 0.6 15
  64.0343 3 75
  64.0465 0.5 12
  65.0307 1 25
  65.0403 1.9 47
  74.0175 3.1 77
  75.0262 15.9 398
  76.0215 2.5 62
  76.033 14.3 358
  77.0416 18.1 453
  78.0362 2.4 60
  78.0485 1.2 30
  79.0463 0.6 15
  89.0269 3.3 82
  89.0407 2.5 62
  90.0358 16.4 410
  90.0768 0.7 17
  91.0425 4.5 112
  101.0393 1.4 35
  102.0348 39.9 999
  103.0419 18.3 458
  104.0498 1.5 37
  105.0446 0.8 20
  114.0326 1.1 27
  115.0411 1.2 30
  116.0366 8.3 207
  117.0515 0.7 17
  118.0538 0.5 12
  128.0493 1.1 27
  129.044 9.6 240
  130.0403 9.4 235
  130.0782 0.4 10
  142.0519 1.3 32
  143.0456 2.9 72
  145.0402 0.9 22
  155.0466 1.5 37
//
