ACCESSION: MSBNK-BAFG-CSL25010634369
RECORD_TITLE: 3,3`-Dichlorobenzidine; LC-ESI-QTOF; MS2; 80 V
DATE: 2025.01.06
AUTHORS: Ole Lessmann; Kevin S. Jewell; Björn Ehlig; Arne Wick
LICENSE: dl-de/by-2-0
COPYRIGHT: Copyright 2025 Federal Institute of Hydrology, Koblenz, Germany
COMMENT: CONFIDENCE Reference Standard (Level 1)
COMMENT: Chromatography method: dx.doi.org/10.1016/j.chroma.2015.11.014
COMMENT: Acquisition method: 10.1002/rcm.8541
CH$NAME: 3,3`-Dichlorobenzidine
CH$FORMULA: C12H10Cl2N2
CH$EXACT_MASS: 252.0221
CH$SMILES: C1=CC(=C(C=C1C2=CC(=C(C=C2)N)Cl)Cl)N
CH$IUPAC: InChI=1S/C12H10Cl2N2/c13-9-5-7(1-3-11(9)15)8-2-4-12(16)10(14)6-8/h1-6H,15-16H2
CH$LINK: CAS 91-94-1
CH$LINK: INCHIKEY HUWXDEQWWKGHRV-UHFFFAOYSA-N
AC$INSTRUMENT: TripleTOF 6600 SCIEX
AC$INSTRUMENT_TYPE: LC-ESI-QTOF
AC$MASS_SPECTROMETRY: MS_TYPE MS2
AC$MASS_SPECTROMETRY: ION_MODE POSITIVE
AC$MASS_SPECTROMETRY: COLLISION_ENERGY 80
AC$MASS_SPECTROMETRY: FRAGMENTATION_MODE CID
AC$MASS_SPECTROMETRY: IONIZATION ESI
AC$CHROMATOGRAPHY: COLUMN_NAME Zorbax Eclipse Plus C18 2.1 mm x 150 mm, 3.5 um, Agilent
AC$CHROMATOGRAPHY: COLUMN_TEMPERATURE 40 °C
AC$CHROMATOGRAPHY: FLOW_GRADIENT 0 min min 98% A, 1 min 98% A, 2 min 80% A, 16.5 min 2% A, 22 min 2% A, 22.1 min 98% A, 27 min 98% A
AC$CHROMATOGRAPHY: FLOW_RATE 0.3 mL/min
AC$CHROMATOGRAPHY: RETENTION_TIME 11.426 min
AC$CHROMATOGRAPHY: SOLVENT A: Water 0.1% Formic acid, B: Acetonitrile 0.1% Formic acid
MS$FOCUSED_ION: PRECURSOR_M/Z 253.0294
MS$FOCUSED_ION: PRECURSOR_TYPE [M+H]+
MS$DATA_PROCESSING: COMMENT Export with pycsl 0.1.0.dev1 and CSL 24.4
PK$SPLASH: splash10-0fb9-1900000000-9cafbfd2b3634aec998f
PK$NUM_PEAK: 53
PK$PEAK: m/z int. rel.int.
  51.0229 3.9 38
  62.0159 1.1 10
  63.0233 5.8 56
  65.0392 1.3 12
  75.0229 8.9 86
  76.0304 1.6 15
  77.0386 45.4 442
  78.0465 1.5 14
  86.0144 2.8 27
  87.023 1.6 15
  88.0301 2.9 28
  89.0381 6.1 59
  91.0431 1.4 13
  99.0232 1.3 12
  101.038 12.3 119
  102.0462 7.9 76
  103.0536 15.4 150
  104.0506 3.9 38
  105.0439 1.0 9
  113.0383 5.8 56
  114.0342 1.3 12
  114.0451 1.4 13
  115.0551 5.1 49
  116.0496 1.6 15
  117.0561 1.6 15
  125.0376 3.1 30
  126.0461 28.7 279
  127.054 88.4 861
  128.0493 18.0 175
  128.0607 10.7 104
  129.0461 8.5 82
  129.0557 3.6 35
  130.0657 26.9 262
  137.0383 12.9 125
  138.0463 10.0 97
  139.0544 19.5 190
  140.0483 13.4 130
  141.0569 2.0 19
  151.0181 1.8 17
  152.05 9.5 92
  153.0567 20.6 200
  154.0652 102.5 999
  155.0599 24.1 234
  164.0259 4.7 45
  164.0496 18.6 181
  165.0564 3.2 31
  166.0649 1.6 15
  173.0168 4.0 38
  179.059 11.2 109
  180.0622 2.3 22
  181.0765 13.0 126
  182.0829 1.4 13
  188.0281 1.2 11
//