ACCESSION: MSBNK-BAFG-CSL2310302329
RECORD_TITLE: Epirubicin; LC-ESI-QTOF; MS2; 70 V
DATE: 2023.10.30
AUTHORS: Kevin S. Jewell; Björn Ehlig; Arne Wick
LICENSE: dl-de/by-2-0
COPYRIGHT: Copyright 2023 Federal Institute of Hydrology, Koblenz, Germany
COMMENT: CONFIDENCE Reference Standard (Level 1)
COMMENT: Chromatography method: dx.doi.org/10.1016/j.chroma.2015.11.014
COMMENT: Acquisition method: 10.1002/rcm.8541
CH$NAME: Epirubicin
CH$COMPOUND_CLASS: Pharmaceutical
CH$FORMULA: C27H29NO11
CH$EXACT_MASS: 543.1741
CH$SMILES: CC1C(C(CC(O1)OC2CC(CC3=C(C4=C(C(=C23)O)C(=O)C5=C(C4=O)C=CC=C5OC)O)(C(=O)CO)O)N)O
CH$IUPAC: InChI=1S/C27H29NO11/c1-10-22(31)13(28)6-17(38-10)39-15-8-27(36,16(30)9-29)7-12-19(15)26(35)21-20(24(12)33)23(32)11-4-3-5-14(37-2)18(11)25(21)34/h3-5,10,13,15,17,22,29,31,33,35-36H,6-9,28H2,1-2H3
CH$LINK: CAS 56420-45-2
CH$LINK: INCHIKEY AOJJSUZBOXZQNB-UHFFFAOYSA-N
AC$INSTRUMENT: TripleTOF 5600 SCIEX
AC$INSTRUMENT_TYPE: LC-ESI-QTOF
AC$MASS_SPECTROMETRY: MS_TYPE MS2
AC$MASS_SPECTROMETRY: ION_MODE NEGATIVE
AC$MASS_SPECTROMETRY: COLLISION_ENERGY 70
AC$MASS_SPECTROMETRY: FRAGMENTATION_MODE CID
AC$MASS_SPECTROMETRY: IONIZATION ESI
AC$CHROMATOGRAPHY: COLUMN_NAME Zorbax Eclipse Plus C18 2.1 mm x 150 mm, 3.5 um, Agilent
AC$CHROMATOGRAPHY: COLUMN_TEMPERATURE 40 °C
AC$CHROMATOGRAPHY: FLOW_GRADIENT 0 min min 98% A, 1 min 98% A, 2 min 80% A, 16.5 min 2% A, 22 min 2% A, 22.1 min 98% A, 27 min 98% A
AC$CHROMATOGRAPHY: FLOW_RATE 0.3 mL/min
AC$CHROMATOGRAPHY: RETENTION_TIME 7.492 min
AC$CHROMATOGRAPHY: SOLVENT A: Water 0.1% Formic acid, B: Acetonitrile 0.1% Formic acid
MS$FOCUSED_ION: PRECURSOR_M/Z 542.1668
MS$FOCUSED_ION: PRECURSOR_TYPE [M-H]-
MS$DATA_PROCESSING: COMMENT Export with Spectra 1.9.12 MsBackendMassbank 1.7.4
MS$DATA_PROCESSING: WHOLE RMassBank 2.3.1
PK$SPLASH: splash10-006x-0079000000-dd086fd421d650752923
PK$NUM_PEAK: 30
PK$PEAK: m/z int. rel.int.
  248.052 1.1 60
  249.0562 1.1 60
  261.0529 0.9 49
  264.0441 1.6 87
  265.0536 2.1 114
  266.0626 3.8 207
  276.0435 3.7 201
  277.0533 3.9 212
  289.0559 1.5 81
  290.0612 1.1 60
  291.0345 1.4 76
  292.0387 6.5 354
  293.0473 18.3 999
  294.055 8.7 474
  304.0409 5.7 311
  305.0463 7 382
  306.0538 4.2 229
  307.0257 1.9 103
  308.0367 1.5 81
  309.0363 1.1 60
  309.0789 1.7 92
  319.0623 1.4 76
  320.0318 8.8 480
  321.0416 16.5 900
  322.0485 2.5 136
  332.0361 1.1 60
  333.0432 3.7 201
  334.05 3.9 212
  335.0576 3.1 169
  336.0276 2.6 141
//
