ACCESSION: MSBNK-BAFG-CSL23110916057
RECORD_TITLE: Octhilinone; LC-ESI-QTOF; MS2; 130 V
DATE: 2023.11.09
AUTHORS: Kevin S. Jewell; Björn Ehlig; Arne Wick
LICENSE: dl-de/by-2-0
COPYRIGHT: Copyright 2023 Federal Institute of Hydrology, Koblenz, Germany
COMMENT: CONFIDENCE Reference Standard (Level 1)
COMMENT: Chromatography method: dx.doi.org/10.1016/j.chroma.2015.11.014
COMMENT: Acquisition method: 10.1002/rcm.8541
CH$NAME: Octhilinone
CH$COMPOUND_CLASS: Fungicide; Antimicrobial
CH$FORMULA: C11H19NOS
CH$EXACT_MASS: 213.1187
CH$SMILES: CCCCCCCCN1C(=O)C=CS1
CH$IUPAC: InChI=1S/C11H19NOS/c1-2-3-4-5-6-7-9-12-11(13)8-10-14-12/h8,10H,2-7,9H2,1H3
CH$LINK: CAS 26530-20-1
CH$LINK: INCHIKEY JPMIIZHYYWMHDT-UHFFFAOYSA-N
AC$INSTRUMENT: TripleTOF 6600 SCIEX
AC$INSTRUMENT_TYPE: LC-ESI-QTOF
AC$MASS_SPECTROMETRY: MS_TYPE MS2
AC$MASS_SPECTROMETRY: ION_MODE POSITIVE
AC$MASS_SPECTROMETRY: COLLISION_ENERGY 130
AC$MASS_SPECTROMETRY: FRAGMENTATION_MODE CID
AC$MASS_SPECTROMETRY: IONIZATION ESI
AC$CHROMATOGRAPHY: COLUMN_NAME Zorbax Eclipse Plus C18 2.1 mm x 150 mm, 3.5 um, Agilent
AC$CHROMATOGRAPHY: COLUMN_TEMPERATURE 40 °C
AC$CHROMATOGRAPHY: FLOW_GRADIENT 0 min min 98% A, 1 min 98% A, 2 min 80% A, 16.5 min 2% A, 22 min 2% A, 22.1 min 98% A, 27 min 98% A
AC$CHROMATOGRAPHY: FLOW_RATE 0.3 mL/min
AC$CHROMATOGRAPHY: RETENTION_TIME 11.855 min
AC$CHROMATOGRAPHY: SOLVENT A: Water 0.1% Formic acid, B: Acetonitrile 0.1% Formic acid
MS$FOCUSED_ION: PRECURSOR_M/Z 214.126
MS$FOCUSED_ION: PRECURSOR_TYPE [M+H]+
MS$DATA_PROCESSING: COMMENT Export with Spectra 1.9.12 MsBackendMassbank 1.7.4
MS$DATA_PROCESSING: WHOLE RMassBank 2.3.1
PK$SPLASH: splash10-052r-9000000000-b312b56f1aa42c13788a
PK$NUM_PEAK: 21
PK$PEAK: m/z int. rel.int.
  31.9719 1 58
  35.9998 2.3 135
  37.0077 8 470
  38.0029 2.5 146
  38.0157 7.4 434
  39.0233 17 999
  40.0178 0.7 41
  41.0389 2.5 146
  44.0134 3.7 217
  44.9799 4.3 252
  45.9749 2 117
  46.9824 0.9 52
  47.9901 0.8 47
  52.0058 0.7 41
  52.0189 0.4 23
  53.0026 3.1 182
  53.0133 1 58
  55.9712 0.5 29
  56.9796 15.9 934
  57.9872 7 411
  58.9959 1.5 88
//
