ACCESSION: MSBNK-BAFG-CSL25010634184
RECORD_TITLE: 4'-O-Demethyl pantoprazole sulfide; LC-ESI-QTOF; MS2; 60 V
DATE: 2025.01.06
AUTHORS: Ole Lessmann; Kevin S. Jewell; Björn Ehlig; Arne Wick
LICENSE: dl-de/by-2-0
COPYRIGHT: Copyright 2025 Federal Institute of Hydrology, Koblenz, Germany
COMMENT: CONFIDENCE Reference Standard (Level 1)
COMMENT: Chromatography method: dx.doi.org/10.1016/j.chroma.2015.11.014
COMMENT: Acquisition method: 10.1002/rcm.8541
CH$NAME: 4'-O-Demethyl pantoprazole sulfide
CH$COMPOUND_CLASS: Pharmaceutical; Transformation_product-Metabolite
CH$FORMULA: C15H13F2N3O3S
CH$EXACT_MASS: 353.0646
CH$SMILES: COC1=C(NC=CC1=O)CSC2=NC3=C(N2)C=C(C=C3)OC(F)F
CH$IUPAC: InChI=1S/C15H13F2N3O3S/c1-22-13-11(18-5-4-12(13)21)7-24-15-19-9-3-2-8(23-14(16)17)6-10(9)20-15/h2-6,14H,7H2,1H3,(H,18,21)(H,19,20)
CH$LINK: CAS 141854-21-9
CH$LINK: INCHIKEY ILLQTAPXYCRJRB-UHFFFAOYSA-N
AC$INSTRUMENT: TripleTOF 6600 SCIEX
AC$INSTRUMENT_TYPE: LC-ESI-QTOF
AC$MASS_SPECTROMETRY: MS_TYPE MS2
AC$MASS_SPECTROMETRY: ION_MODE POSITIVE
AC$MASS_SPECTROMETRY: COLLISION_ENERGY 60
AC$MASS_SPECTROMETRY: FRAGMENTATION_MODE CID
AC$MASS_SPECTROMETRY: IONIZATION ESI
AC$CHROMATOGRAPHY: COLUMN_NAME Zorbax Eclipse Plus C18 2.1 mm x 150 mm, 3.5 um, Agilent
AC$CHROMATOGRAPHY: COLUMN_TEMPERATURE 40 °C
AC$CHROMATOGRAPHY: FLOW_GRADIENT 0 min min 98% A, 1 min 98% A, 2 min 80% A, 16.5 min 2% A, 22 min 2% A, 22.1 min 98% A, 27 min 98% A
AC$CHROMATOGRAPHY: FLOW_RATE 0.3 mL/min
AC$CHROMATOGRAPHY: RETENTION_TIME 7.57 min
AC$CHROMATOGRAPHY: SOLVENT A: Water 0.1% Formic acid, B: Acetonitrile 0.1% Formic acid
MS$FOCUSED_ION: PRECURSOR_M/Z 354.0719
MS$FOCUSED_ION: PRECURSOR_TYPE [M+H]+
MS$DATA_PROCESSING: COMMENT Export with pycsl 0.1.0.dev1 and CSL 24.4
PK$SPLASH: splash10-0a4i-3900000000-fe9d548a0d8fccfae244
PK$NUM_PEAK: 42
PK$PEAK: m/z int. rel.int.
  39.0223 4.3 12
  42.033 7.5 21
  53.0378 98.6 280
  63.0217 10.0 28
  65.0374 10.8 30
  67.0165 20.1 57
  67.0403 18.3 52
  68.0119 6.9 19
  78.033 3.8 10
  80.0485 91.8 261
  81.0325 15.3 43
  82.0634 20.4 58
  90.0327 21.8 62
  92.0481 9.1 25
  93.0558 19.1 54
  94.028 4.3 12
  95.0357 18.3 52
  96.0426 16.4 46
  108.0434 351.0 999
  109.0512 9.2 26
  110.0585 120.7 343
  117.0435 12.8 36
  118.0513 16.2 46
  120.0427 12.9 36
  121.0507 8.9 25
  124.0377 23.1 65
  125.0451 5.5 15
  125.9992 5.2 14
  126.0532 19.7 56
  127.0066 19.9 56
  135.0536 60.0 170
  136.0377 45.1 128
  138.0535 28.3 80
  140.0148 33.9 96
  142.0306 9.1 25
  155.002 35.2 100
  170.0253 50.5 143
  185.051 46.7 132
  209.0494 5.0 14
  211.0718 4.7 13
  216.0141 7.1 20
  278.0726 16.8 47
//