ACCESSION: MSBNK-BAFG-CSL23102610271
RECORD_TITLE: Ethyl 2,4-diaminopyrimidine-5-carboxylate; LC-ESI-QTOF; MS2; 20 V
DATE: 2023.10.26
AUTHORS: Kevin S. Jewell; Björn Ehlig; Arne Wick
LICENSE: dl-de/by-2-0
COPYRIGHT: Copyright 2023 Federal Institute of Hydrology, Koblenz, Germany
COMMENT: CONFIDENCE Reference Standard (Level 1)
COMMENT: Chromatography method: dx.doi.org/10.1016/j.chroma.2015.11.014
COMMENT: Acquisition method: 10.1002/rcm.8541
CH$NAME: Ethyl 2,4-diaminopyrimidine-5-carboxylate
CH$COMPOUND_CLASS: Pharmaceutical
CH$FORMULA: C7H10N4O2
CH$EXACT_MASS: 182.0804
CH$SMILES: CCOC(=O)C1=CN=C(N=C1N)N
CH$IUPAC: InChI=1S/C7H10N4O2/c1-2-13-6(12)4-3-10-7(9)11-5(4)8/h3H,2H2,1H3,(H4,8,9,10,11)
CH$LINK: CAS 15400-54-1
CH$LINK: INCHIKEY MANFWSKJPOXKJZ-UHFFFAOYSA-N
AC$INSTRUMENT: TripleTOF 5600 SCIEX
AC$INSTRUMENT_TYPE: LC-ESI-QTOF
AC$MASS_SPECTROMETRY: MS_TYPE MS2
AC$MASS_SPECTROMETRY: ION_MODE POSITIVE
AC$MASS_SPECTROMETRY: COLLISION_ENERGY 20
AC$MASS_SPECTROMETRY: FRAGMENTATION_MODE CID
AC$MASS_SPECTROMETRY: IONIZATION ESI
AC$CHROMATOGRAPHY: COLUMN_NAME Zorbax Eclipse Plus C18 2.1 mm x 150 mm, 3.5 um, Agilent
AC$CHROMATOGRAPHY: COLUMN_TEMPERATURE 40 °C
AC$CHROMATOGRAPHY: FLOW_GRADIENT 0 min min 98% A, 1 min 98% A, 2 min 80% A, 16.5 min 2% A, 22 min 2% A, 22.1 min 98% A, 27 min 98% A
AC$CHROMATOGRAPHY: FLOW_RATE 0.3 mL/min
AC$CHROMATOGRAPHY: RETENTION_TIME 4.607 min
AC$CHROMATOGRAPHY: SOLVENT A: Water 0.1% Formic acid, B: Acetonitrile 0.1% Formic acid
MS$FOCUSED_ION: PRECURSOR_M/Z 183.0877
MS$FOCUSED_ION: PRECURSOR_TYPE [M+H]+
MS$DATA_PROCESSING: COMMENT Export with Spectra 1.9.12 MsBackendMassbank 1.7.4
MS$DATA_PROCESSING: WHOLE RMassBank 2.3.1
PK$SPLASH: splash10-0a5i-0900000000-51a4117a3dde007f6f40
PK$NUM_PEAK: 4
PK$PEAK: m/z int. rel.int.
  95.028 40.4 69
  137.0476 291 502
  155.0573 578 999
  183.0882 365.3 631
//
