ACCESSION: MSBNK-BAFG-CSL23102519154
RECORD_TITLE: Pyroxsulam; LC-ESI-QTOF; MS2; 100 V
DATE: 2023.10.25
AUTHORS: Kevin S. Jewell; Björn Ehlig; Arne Wick
LICENSE: dl-de/by-2-0
COPYRIGHT: Copyright 2023 Federal Institute of Hydrology, Koblenz, Germany
COMMENT: CONFIDENCE Reference Standard (Level 1)
COMMENT: Chromatography method: dx.doi.org/10.1016/j.chroma.2015.11.014
COMMENT: Acquisition method: 10.1002/rcm.8541
CH$NAME: Pyroxsulam
CH$COMPOUND_CLASS: Herbicide
CH$FORMULA: C14H13F3N6O5S
CH$EXACT_MASS: 434.062
CH$SMILES: COC1=CC(=NC2=NC(=NN12)NS(=O)(=O)C3=C(C=CN=C3OC)C(F)(F)F)OC
CH$IUPAC: InChI=1S/C14H13F3N6O5S/c1-26-8-6-9(27-2)23-13(19-8)20-12(21-23)22-29(24,25)10-7(14(15,16)17)4-5-18-11(10)28-3/h4-6H,1-3H3,(H,21,22)
CH$LINK: CAS 422556-08-9
CH$LINK: INCHIKEY GLBLPMUBLHYFCW-UHFFFAOYSA-N
AC$INSTRUMENT: TripleTOF 6600 SCIEX
AC$INSTRUMENT_TYPE: LC-ESI-QTOF
AC$MASS_SPECTROMETRY: MS_TYPE MS2
AC$MASS_SPECTROMETRY: ION_MODE NEGATIVE
AC$MASS_SPECTROMETRY: COLLISION_ENERGY 100
AC$MASS_SPECTROMETRY: FRAGMENTATION_MODE CID
AC$MASS_SPECTROMETRY: IONIZATION ESI
AC$CHROMATOGRAPHY: COLUMN_NAME Zorbax Eclipse Plus C18 2.1 mm x 150 mm, 3.5 um, Agilent
AC$CHROMATOGRAPHY: COLUMN_TEMPERATURE 40 °C
AC$CHROMATOGRAPHY: FLOW_GRADIENT 0 min min 98% A, 1 min 98% A, 2 min 80% A, 16.5 min 2% A, 22 min 2% A, 22.1 min 98% A, 27 min 98% A
AC$CHROMATOGRAPHY: FLOW_RATE 0.3 mL/min
AC$CHROMATOGRAPHY: RETENTION_TIME 9.651 min
AC$CHROMATOGRAPHY: SOLVENT A: Water 0.1% Formic acid, B: Acetonitrile 0.1% Formic acid
MS$FOCUSED_ION: PRECURSOR_M/Z 433.0547
MS$FOCUSED_ION: PRECURSOR_TYPE [M-H]-
MS$DATA_PROCESSING: COMMENT Export with Spectra 1.9.12 MsBackendMassbank 1.7.4
MS$DATA_PROCESSING: WHOLE RMassBank 2.3.1
PK$SPLASH: splash10-014i-9510000000-dba8eb1a9ca63ff1cb3a
PK$NUM_PEAK: 47
PK$PEAK: m/z int. rel.int.
  40.0061 0.9 56
  41.9971 0.6 37
  50.0011 0.4 25
  64.0049 1.3 82
  65.0135 2.8 177
  65.997 4.5 284
  66.0079 15.8 999
  68.9944 3.1 196
  76.0208 0.4 25
  79.0154 0.4 25
  86.0023 0.9 56
  88.0172 1.5 94
  89.0026 1.1 69
  89.0128 0.5 31
  90.009 1.1 69
  92.0133 0.5 31
  93.0068 1.5 94
  106.0078 0.7 44
  107.0095 2 126
  108.026 1.9 120
  109.0184 0.6 37
  111.9981 0.7 44
  114.0121 0.5 31
  116.0142 0.9 56
  116.026 0.4 25
  123.0217 0.9 56
  126.007 0.5 31
  128.0377 0.6 37
  135.0101 0.7 44
  136.0126 0.5 31
  136.0286 0.4 25
  146.0224 1.6 101
  147.0184 1.8 113
  148.0275 0.5 31
  149.0025 0.6 37
  157.005 0.5 31
  159.0118 0.5 31
  162.0176 1.2 75
  172.0263 1 63
  173.0188 1.2 75
  187.0039 0.7 44
  211.0184 0.4 25
  211.03 0.8 50
  225.02 0.6 37
  225.0293 0.6 37
  227.0175 1.8 113
  251.0111 0.4 25
//
