ACCESSION: MSBNK-BAFG-CSL231030772
RECORD_TITLE: (1-(4-Methoxybenzoyl)-undecyl)-trimethyl-ammonium; LC-ESI-QTOF; MS2; 50 V
DATE: 2023.10.30
AUTHORS: Kevin S. Jewell; Björn Ehlig; Arne Wick
LICENSE: dl-de/by-2-0
COPYRIGHT: Copyright 2023 Federal Institute of Hydrology, Koblenz, Germany
COMMENT: CONFIDENCE Reference Standard (Level 1)
COMMENT: Chromatography method: dx.doi.org/10.1016/j.chroma.2015.11.014
COMMENT: Acquisition method: 10.1002/rcm.8541
CH$NAME: (1-(4-Methoxybenzoyl)-undecyl)-trimethyl-ammonium
CH$FORMULA: [C22H38NO2]+
CH$EXACT_MASS: 348.2897
CH$SMILES: CCCCCCCCCCC(C(=O)c1ccc(cc1)OC)[N+](C)(C)C
CH$IUPAC: InChI=1S/C22H38NO2/c1-6-7-8-9-10-11-12-13-14-21(23(2,3)4)22(24)19-15-17-20(25-5)18-16-19/h15-18,21H,6-14H2,1-5H3/q+1
CH$LINK: CAS NA
CH$LINK: INCHIKEY JMKAPSBUJQQULC-UHFFFAOYSA-N
AC$INSTRUMENT: TripleTOF 5600 SCIEX
AC$INSTRUMENT_TYPE: LC-ESI-QTOF
AC$MASS_SPECTROMETRY: MS_TYPE MS2
AC$MASS_SPECTROMETRY: ION_MODE POSITIVE
AC$MASS_SPECTROMETRY: COLLISION_ENERGY 50
AC$MASS_SPECTROMETRY: FRAGMENTATION_MODE CID
AC$MASS_SPECTROMETRY: IONIZATION ESI
AC$CHROMATOGRAPHY: COLUMN_NAME Zorbax Eclipse Plus C18 2.1 mm x 150 mm, 3.5 um, Agilent
AC$CHROMATOGRAPHY: COLUMN_TEMPERATURE 40 °C
AC$CHROMATOGRAPHY: FLOW_GRADIENT 0 min min 98% A, 1 min 98% A, 2 min 80% A, 16.5 min 2% A, 22 min 2% A, 22.1 min 98% A, 27 min 98% A
AC$CHROMATOGRAPHY: FLOW_RATE 0.3 mL/min
AC$CHROMATOGRAPHY: RETENTION_TIME 11.279 min
AC$CHROMATOGRAPHY: SOLVENT A: Water 0.1% Formic acid, B: Acetonitrile 0.1% Formic acid
MS$FOCUSED_ION: PRECURSOR_M/Z 348.2897
MS$FOCUSED_ION: PRECURSOR_TYPE [M]+
MS$DATA_PROCESSING: COMMENT Export with Spectra 1.9.12 MsBackendMassbank 1.7.4
MS$DATA_PROCESSING: WHOLE RMassBank 2.3.1
PK$SPLASH: splash10-000i-1900000000-551d4dea489e2aa2ecc7
PK$NUM_PEAK: 4
PK$PEAK: m/z int. rel.int.
  77.0419 87 140
  107.05 81.2 131
  121.0651 61.2 98
  135.045 619.2 999
//
