ACCESSION: MSBNK-BAFG-CSL25011734710
RECORD_TITLE: N-[2-[(2-Bromo-4,6-dinitrophenyl)azo]-5-(diethylamino)phenyl]acetamide; LC-ESI-QTOF; MS2; 40 V
DATE: 2025.01.17
AUTHORS: Ole Lessmann; Kevin S. Jewell; Björn Ehlig; Arne Wick
LICENSE: dl-de/by-2-0
COPYRIGHT: Copyright 2025 Federal Institute of Hydrology, Koblenz, Germany
COMMENT: CONFIDENCE Reference Standard (Level 1)
COMMENT: Chromatography method: dx.doi.org/10.1016/j.chroma.2015.11.014
CH$NAME: N-[2-[(2-Bromo-4,6-dinitrophenyl)azo]-5-(diethylamino)phenyl]acetamide
CH$FORMULA: C18H19BrN6O5
CH$EXACT_MASS: 478.06
CH$SMILES: CCN(CC)C1=CC(=C(C=C1)N=NC2=C(C=C(C=C2Br)[N+](=O)[O-])[N+](=O)[O-])NC(=O)C
CH$IUPAC: InChI=1S/C18H19BrN6O5/c1-4-23(5-2)12-6-7-15(16(9-12)20-11(3)26)21-22-18-14(19)8-13(24(27)28)10-17(18)25(29)30/h6-10H,4-5H2,1-3H3,(H,20,26)
CH$LINK: CAS 52697-38-8
CH$LINK: INCHIKEY WFFKSTRPZWRBEW-UHFFFAOYSA-N
AC$INSTRUMENT: TripleTOF 6600 SCIEX
AC$INSTRUMENT_TYPE: LC-ESI-QTOF
AC$MASS_SPECTROMETRY: MS_TYPE MS2
AC$MASS_SPECTROMETRY: ION_MODE NEGATIVE
AC$MASS_SPECTROMETRY: COLLISION_ENERGY 40
AC$MASS_SPECTROMETRY: FRAGMENTATION_MODE CID
AC$MASS_SPECTROMETRY: IONIZATION ESI
AC$CHROMATOGRAPHY: COLUMN_NAME Zorbax Eclipse Plus C18 2.1 mm x 150 mm, 3.5 um, Agilent
AC$CHROMATOGRAPHY: COLUMN_TEMPERATURE 40 °C
AC$CHROMATOGRAPHY: FLOW_GRADIENT 0 min min 98% A, 1 min 98% A, 2 min 80% A, 16.5 min 2% A, 22 min 2% A, 22.1 min 98% A, 27 min 98% A
AC$CHROMATOGRAPHY: FLOW_RATE 0.3 mL/min
AC$CHROMATOGRAPHY: RETENTION_TIME 16.579 min
AC$CHROMATOGRAPHY: SOLVENT A: Water 0.1% Formic acid, B: Acetonitrile 0.1% Formic acid
MS$FOCUSED_ION: PRECURSOR_M/Z 478.0614
MS$FOCUSED_ION: PRECURSOR_TYPE [M]-
MS$DATA_PROCESSING: COMMENT Export with pycsl 0.1.0.dev1 and CSL 25.0
PK$SPLASH: splash10-004j-3131900000-7821c788d37df8c170cc
PK$NUM_PEAK: 38
PK$PEAK: m/z int. rel.int.
  78.9184 23.7914 793
  117.0444 0.4435 14
  120.0075 0.7566 25
  132.0691 0.4307 14
  173.0719 0.3103 10
  186.927 11.601 386
  199.9331 1.5214 50
  205.1347 0.9771 32
  214.9226 1.8337 61
  215.9287 2.7899 92
  224.1299 0.8932 29
  229.9319 8.0919 269
  230.9381 0.3627 12
  238.0569 0.8425 28
  239.0869 0.3961 13
  244.9162 4.3806 146
  254.0549 2.5698 85
  282.0616 0.455 15
  298.1221 0.5005 16
  311.1211 0.4804 16
  323.1177 0.3028 10
  324.0717 0.6116 20
  326.1247 1.3322 44
  333.9824 2.0575 68
  349.0065 0.5088 16
  355.1095 0.3532 11
  360.0032 0.5473 18
  361.9891 2.0819 69
  369.0936 0.6877 22
  377.0124 1.0889 36
  378.0449 4.176 139
  403.9955 7.1272 237
  406.0481 18.9382 631
  419.021 1.1207 37
  434.0006 0.6434 21
  448.0584 29.9699 999
  449.0184 7.6924 256
  478.0569 5.8133 193
//
