ACCESSION: MSBNK-BAFG-CSL25010627930
RECORD_TITLE: Indigo; LC-ESI-QTOF; MS2; 50 V
DATE: 2025.01.06
AUTHORS: Ole Lessmann; Kevin S. Jewell; Björn Ehlig; Arne Wick
LICENSE: dl-de/by-2-0
COPYRIGHT: Copyright 2025 Federal Institute of Hydrology, Koblenz, Germany
COMMENT: CONFIDENCE Reference Standard (Level 1)
COMMENT: Chromatography method: dx.doi.org/10.1016/j.chroma.2015.11.014
COMMENT: Acquisition method: 10.1002/rcm.8541
CH$NAME: Indigo
CH$FORMULA: C16H10N2O2
CH$EXACT_MASS: 262.0742
CH$SMILES: C1=CC=C2C(=C1)C(=C(N2)C3=NC4=CC=CC=C4C3=O)O
CH$IUPAC: InChI=1S/C16H10N2O2/c19-15-9-5-1-3-7-11(9)17-13(15)14-16(20)10-6-2-4-8-12(10)18-14/h1-8,17,19H
CH$LINK: CAS 482-89-3
CH$LINK: INCHIKEY QQILFGKZUJYXGS-UHFFFAOYSA-N
AC$INSTRUMENT: TripleTOF X500R SCIEX
AC$INSTRUMENT_TYPE: LC-ESI-QTOF
AC$MASS_SPECTROMETRY: MS_TYPE MS2
AC$MASS_SPECTROMETRY: ION_MODE POSITIVE
AC$MASS_SPECTROMETRY: COLLISION_ENERGY 50
AC$MASS_SPECTROMETRY: FRAGMENTATION_MODE CID
AC$MASS_SPECTROMETRY: IONIZATION ESI
AC$CHROMATOGRAPHY: COLUMN_NAME Zorbax Eclipse Plus C18 2.1 mm x 150 mm, 3.5 um, Agilent
AC$CHROMATOGRAPHY: COLUMN_TEMPERATURE 40 °C
AC$CHROMATOGRAPHY: FLOW_GRADIENT 0 min min 98% A, 1 min 98% A, 2 min 80% A, 16.5 min 2% A, 22 min 2% A, 22.1 min 98% A, 27 min 98% A
AC$CHROMATOGRAPHY: FLOW_RATE 0.3 mL/min
AC$CHROMATOGRAPHY: RETENTION_TIME 11.892 min
AC$CHROMATOGRAPHY: SOLVENT A: Water 0.1% Formic acid, B: Acetonitrile 0.1% Formic acid
MS$FOCUSED_ION: PRECURSOR_M/Z 263.0815
MS$FOCUSED_ION: PRECURSOR_TYPE [M+H]+
MS$DATA_PROCESSING: COMMENT Export with pycsl 0.1.0.dev1 and CSL 24.4
PK$SPLASH: splash10-0a7i-1980000000-d36ec66c13f9a72d5535
PK$NUM_PEAK: 49
PK$PEAK: m/z int. rel.int.
  51.0225 1.6 86
  77.0389 8.8 475
  89.0399 2.4 129
  90.046 0.5 27
  102.0347 1.3 70
  103.0409 1.5 81
  104.0257 1.2 64
  104.0496 4.2 226
  105.0341 2.5 135
  116.0493 1.5 81
  117.0572 1.3 70
  120.0445 0.4 21
  129.0443 0.5 27
  130.0316 1.0 54
  131.0356 0.5 27
  132.0448 11.0 594
  140.0522 0.6 32
  151.0545 1.4 75
  152.0618 4.1 221
  153.0683 1.2 64
  157.0407 0.7 37
  158.0483 2.1 113
  163.0543 1.7 91
  164.0639 1.3 70
  165.0707 3.1 167
  178.0666 1.8 97
  179.0732 9.2 496
  180.0818 7.6 410
  181.0626 1.0 54
  189.0628 0.6 32
  190.0661 11.3 610
  191.0725 1.3 70
  192.0696 1.1 59
  205.076 14.8 799
  206.0595 0.8 43
  206.0846 18.5 999
  207.0918 1.2 64
  208.0766 2.6 140
  215.0629 1.2 64
  216.0686 2.4 129
  217.0777 2.9 156
  218.0619 0.6 32
  218.0837 4.2 226
  219.0928 3.7 199
  233.072 2.3 124
  234.0795 9.1 491
  235.0861 3.8 205
  262.075 5.2 280
  263.0835 2.6 140
//