ACCESSION: MSBNK-BAFG-CSL2310269649
RECORD_TITLE: N,N`-bis(2-methoxyethoxycarbonyl)-4-methyl-1,3-phenylenediamine; LC-ESI-QTOF; MS2; 140 V
DATE: 2023.10.26
AUTHORS: Kevin S. Jewell; Björn Ehlig; Arne Wick
LICENSE: dl-de/by-2-0
COPYRIGHT: Copyright 2023 Federal Institute of Hydrology, Koblenz, Germany
COMMENT: CONFIDENCE Reference Standard (Level 1)
COMMENT: Chromatography method: dx.doi.org/10.1016/j.chroma.2015.11.014
COMMENT: Acquisition method: 10.1002/rcm.8541
CH$NAME: N,N`-bis(2-methoxyethoxycarbonyl)-4-methyl-1,3-phenylenediamine
CH$FORMULA: C15H22N2O6
CH$EXACT_MASS: 326.1478
CH$SMILES: CC1=C(C=C(C=C1)NC(=O)OCCOC)NC(=O)OCCOC
CH$IUPAC: InChI=1S/C15H22N2O6/c1-11-4-5-12(16-14(18)22-8-6-20-2)10-13(11)17-15(19)23-9-7-21-3/h4-5,10H,6-9H2,1-3H3,(H,16,18)(H,17,19)
CH$LINK: CAS 145098-57-3
CH$LINK: INCHIKEY KRAWNIRAZIFPLS-UHFFFAOYSA-N
AC$INSTRUMENT: TripleTOF 5600 SCIEX
AC$INSTRUMENT_TYPE: LC-ESI-QTOF
AC$MASS_SPECTROMETRY: MS_TYPE MS2
AC$MASS_SPECTROMETRY: ION_MODE POSITIVE
AC$MASS_SPECTROMETRY: COLLISION_ENERGY 140
AC$MASS_SPECTROMETRY: FRAGMENTATION_MODE CID
AC$MASS_SPECTROMETRY: IONIZATION ESI
AC$CHROMATOGRAPHY: COLUMN_NAME Zorbax Eclipse Plus C18 2.1 mm x 150 mm, 3.5 um, Agilent
AC$CHROMATOGRAPHY: COLUMN_TEMPERATURE 40 °C
AC$CHROMATOGRAPHY: FLOW_GRADIENT 0 min min 98% A, 1 min 98% A, 2 min 80% A, 16.5 min 2% A, 22 min 2% A, 22.1 min 98% A, 27 min 98% A
AC$CHROMATOGRAPHY: FLOW_RATE 0.3 mL/min
AC$CHROMATOGRAPHY: RETENTION_TIME 8.323 min
AC$CHROMATOGRAPHY: SOLVENT A: Water 0.1% Formic acid, B: Acetonitrile 0.1% Formic acid
MS$FOCUSED_ION: PRECURSOR_M/Z 327.1551
MS$FOCUSED_ION: PRECURSOR_TYPE [M+H]+
MS$DATA_PROCESSING: COMMENT Export with Spectra 1.9.12 MsBackendMassbank 1.7.4
MS$DATA_PROCESSING: WHOLE RMassBank 2.3.1
PK$SPLASH: splash10-0a6r-9000000000-9ed5c72595df9d710495
PK$NUM_PEAK: 5
PK$PEAK: m/z int. rel.int.
  45.0481 0.6 199
  59.0579 3 999
  65.0446 0.4 133
  77.0439 1.9 632
  78.0395 0.7 233
//
