ACCESSION: MSBNK-BAFG-CSL23102527738
RECORD_TITLE: Di(2-ethylhexyl)amine; LC-ESI-QTOF; MS2; 70 V
DATE: 2023.10.25
AUTHORS: Kevin S. Jewell; Björn Ehlig; Arne Wick
LICENSE: dl-de/by-2-0
COPYRIGHT: Copyright 2023 Federal Institute of Hydrology, Koblenz, Germany
COMMENT: CONFIDENCE Reference Standard (Level 1)
COMMENT: Chromatography method: dx.doi.org/10.1016/j.chroma.2015.11.014
COMMENT: Acquisition method: 10.1002/rcm.8541
CH$NAME: Di(2-ethylhexyl)amine
CH$FORMULA: C16H35N
CH$EXACT_MASS: 241.277
CH$SMILES: CCCCC(CC)CNCC(CC)CCCC
CH$IUPAC: InChI=1S/C16H35N/c1-5-9-11-15(7-3)13-17-14-16(8-4)12-10-6-2/h15-17H,5-14H2,1-4H3
CH$LINK: CAS 106-20-7
CH$LINK: INCHIKEY SAIKULLUBZKPDA-UHFFFAOYSA-N
AC$INSTRUMENT: TripleTOF 6600 SCIEX
AC$INSTRUMENT_TYPE: LC-ESI-QTOF
AC$MASS_SPECTROMETRY: MS_TYPE MS2
AC$MASS_SPECTROMETRY: ION_MODE POSITIVE
AC$MASS_SPECTROMETRY: COLLISION_ENERGY 70
AC$MASS_SPECTROMETRY: FRAGMENTATION_MODE CID
AC$MASS_SPECTROMETRY: IONIZATION ESI
AC$CHROMATOGRAPHY: COLUMN_NAME Zorbax Eclipse Plus C18 2.1 mm x 150 mm, 3.5 um, Agilent
AC$CHROMATOGRAPHY: COLUMN_TEMPERATURE 40 °C
AC$CHROMATOGRAPHY: FLOW_GRADIENT 0 min min 98% A, 1 min 98% A, 2 min 80% A, 16.5 min 2% A, 22 min 2% A, 22.1 min 98% A, 27 min 98% A
AC$CHROMATOGRAPHY: FLOW_RATE 0.3 mL/min
AC$CHROMATOGRAPHY: RETENTION_TIME 10.947 min
AC$CHROMATOGRAPHY: SOLVENT A: Water 0.1% Formic acid, B: Acetonitrile 0.1% Formic acid
MS$FOCUSED_ION: PRECURSOR_M/Z 242.2842
MS$FOCUSED_ION: PRECURSOR_TYPE [M+H]+
MS$DATA_PROCESSING: COMMENT Export with Spectra 1.9.12 MsBackendMassbank 1.7.4
MS$DATA_PROCESSING: WHOLE RMassBank 2.3.1
PK$SPLASH: splash10-0006-9000000000-d246a7ecf45a801f45c9
PK$NUM_PEAK: 9
PK$PEAK: m/z int. rel.int.
  37.0079 0.3 44
  38.004 0.1 14
  38.0152 0.1 14
  39.0238 2.2 328
  41.0392 6.7 999
  43.055 4.3 641
  53.0119 0.1 14
  55.055 0.2 29
  57.07 0.5 74
//
