ACCESSION: MSBNK-BAFG-CSL25010631485
RECORD_TITLE: Diethylamino hydroxybenzoyl hexyl benzoate; LC-ESI-QTOF; MS2; 90 V
DATE: 2025.01.06
AUTHORS: Ole Lessmann; Kevin S. Jewell; Björn Ehlig; Arne Wick
LICENSE: dl-de/by-2-0
COPYRIGHT: Copyright 2025 Federal Institute of Hydrology, Koblenz, Germany
COMMENT: CONFIDENCE Reference Standard (Level 1)
COMMENT: Chromatography method: dx.doi.org/10.1016/j.chroma.2015.11.014
COMMENT: Acquisition method: 10.1002/rcm.8541
CH$NAME: Diethylamino hydroxybenzoyl hexyl benzoate
CH$FORMULA: C24H31NO4
CH$EXACT_MASS: 397.2253
CH$SMILES: CCCCCCOC(=O)C1=CC=CC=C1C(=O)C2=C(C=C(C=C2)N(CC)CC)O
CH$IUPAC: InChI=1S/C24H31NO4/c1-4-7-8-11-16-29-24(28)20-13-10-9-12-19(20)23(27)21-15-14-18(17-22(21)26)25(5-2)6-3/h9-10,12-15,17,26H,4-8,11,16H2,1-3H3
CH$LINK: CAS 302776-68-7
CH$LINK: INCHIKEY FDATWRLUYRHCJE-UHFFFAOYSA-N
AC$INSTRUMENT: TripleTOF 6600 SCIEX
AC$INSTRUMENT_TYPE: LC-ESI-QTOF
AC$MASS_SPECTROMETRY: MS_TYPE MS2
AC$MASS_SPECTROMETRY: ION_MODE POSITIVE
AC$MASS_SPECTROMETRY: COLLISION_ENERGY 90
AC$MASS_SPECTROMETRY: FRAGMENTATION_MODE CID
AC$MASS_SPECTROMETRY: IONIZATION ESI
AC$CHROMATOGRAPHY: COLUMN_NAME Zorbax Eclipse Plus C18 2.1 mm x 150 mm, 3.5 um, Agilent
AC$CHROMATOGRAPHY: COLUMN_TEMPERATURE 40 °C
AC$CHROMATOGRAPHY: FLOW_GRADIENT 0 min min 98% A, 1 min 98% A, 2 min 80% A, 16.5 min 2% A, 22 min 2% A, 22.1 min 98% A, 27 min 98% A
AC$CHROMATOGRAPHY: FLOW_RATE 0.3 mL/min
AC$CHROMATOGRAPHY: RETENTION_TIME 17.769 min
AC$CHROMATOGRAPHY: SOLVENT A: Water 0.1% Formic acid, B: Acetonitrile 0.1% Formic acid
MS$FOCUSED_ION: PRECURSOR_M/Z 398.2326
MS$FOCUSED_ION: PRECURSOR_TYPE [M+H]+
MS$DATA_PROCESSING: COMMENT Export with pycsl 0.1.0.dev1 and CSL 24.4
PK$SPLASH: splash10-014s-1910000000-f4fec42f33b48230100f
PK$NUM_PEAK: 102
PK$PEAK: m/z int. rel.int.
  39.0231 49.9 71
  41.0389 32.4 46
  43.0543 31.9 45
  53.0389 8.0 11
  65.0385 370.6 528
  68.0125 12.1 17
  77.0383 107.4 153
  78.0332 11.1 15
  80.049 125.2 178
  89.0381 17.3 24
  91.0534 22.4 31
  92.0486 15.0 21
  93.0332 169.9 242
  94.0414 9.4 13
  102.0457 9.6 13
  103.0547 9.8 13
  104.0246 7.4 10
  104.0493 7.2 10
  105.0332 82.4 117
  108.0437 70.4 100
  109.0508 18.3 26
  113.0381 15.2 21
  114.045 10.8 15
  115.0537 198.8 283
  118.064 7.8 11
  119.012 30.1 42
  120.043 7.1 10
  121.0298 200.4 285
  122.0585 25.4 36
  125.0371 7.6 10
  126.046 15.2 21
  127.0534 101.3 144
  128.0611 125.8 179
  129.0682 29.3 41
  133.0281 7.5 10
  136.0394 13.9 19
  136.0745 11.8 16
  138.0448 24.6 35
  139.0541 700.0 999
  140.0583 92.7 132
  141.0692 134.1 191
  143.0489 12.2 17
  149.0228 98.9 141
  150.045 22.2 31
  151.0535 157.1 224
  152.0612 238.8 340
  153.0674 75.1 107
  154.0646 136.5 194
  155.0506 36.2 51
  156.0556 13.7 19
  156.08 29.8 42
  157.0635 10.4 14
  164.068 69.9 99
  165.069 82.6 117
  166.0642 81.8 116
  167.0559 227.1 324
  168.0566 273.6 390
  169.0642 40.7 58
  170.0355 8.7 12
  176.0612 21.6 30
  177.0589 32.6 46
  178.0657 51.3 73
  179.0525 14.4 20
  179.0707 11.8 16
  180.0544 40.8 58
  180.0796 24.6 35
  181.0634 51.8 73
  182.0599 102.3 145
  183.0444 32.3 46
  183.0648 24.0 34
  184.0516 185.8 265
  190.0633 11.1 15
  191.0736 12.8 18
  192.0785 13.7 19
  193.0528 9.5 13
  193.0853 12.4 17
  194.0371 33.0 47
  194.0572 60.0 85
  194.0957 9.7 13
  195.0663 370.6 528
  196.0522 320.5 457
  197.0592 133.1 189
  204.0799 23.7 33
  206.0584 32.3 46
  207.0697 8.9 12
  208.0754 25.6 36
  210.0343 102.6 146
  210.0892 15.8 22
  211.0629 54.4 77
  212.0703 68.1 97
  220.0745 47.6 67
  222.0447 45.4 64
  223.0625 263.4 375
  224.0694 118.4 168
  225.0777 13.2 18
  237.0427 10.5 14
  238.0497 35.2 50
  238.085 11.0 15
  240.1007 22.6 32
  248.0689 7.4 10
  252.0653 10.3 14
  266.0805 68.6 97
//