ACCESSION: MSBNK-BAFG-CSL25010634445
RECORD_TITLE: 2,4-Diaminoanisole; LC-ESI-QTOF; MS2; 40 V
DATE: 2025.01.06
AUTHORS: Ole Lessmann; Kevin S. Jewell; Björn Ehlig; Arne Wick
LICENSE: dl-de/by-2-0
COPYRIGHT: Copyright 2025 Federal Institute of Hydrology, Koblenz, Germany
COMMENT: CONFIDENCE Reference Standard (Level 1)
COMMENT: Chromatography method: dx.doi.org/10.1016/j.chroma.2015.11.014
COMMENT: Acquisition method: 10.1002/rcm.8541
CH$NAME: 2,4-Diaminoanisole
CH$FORMULA: C7H10N2O
CH$EXACT_MASS: 138.0793
CH$SMILES: COC1=C(C=C(C=C1)N)N
CH$IUPAC: InChI=1S/C7H10N2O/c1-10-7-3-2-5(8)4-6(7)9/h2-4H,8-9H2,1H3
CH$LINK: CAS 615-05-4
CH$LINK: INCHIKEY BAHPQISAXRFLCL-UHFFFAOYSA-N
AC$INSTRUMENT: TripleTOF 6600 SCIEX
AC$INSTRUMENT_TYPE: LC-ESI-QTOF
AC$MASS_SPECTROMETRY: MS_TYPE MS2
AC$MASS_SPECTROMETRY: ION_MODE POSITIVE
AC$MASS_SPECTROMETRY: COLLISION_ENERGY 40
AC$MASS_SPECTROMETRY: FRAGMENTATION_MODE CID
AC$MASS_SPECTROMETRY: IONIZATION ESI
AC$CHROMATOGRAPHY: COLUMN_NAME Zorbax Eclipse Plus C18 2.1 mm x 150 mm, 3.5 um, Agilent
AC$CHROMATOGRAPHY: COLUMN_TEMPERATURE 40 °C
AC$CHROMATOGRAPHY: FLOW_GRADIENT 0 min min 98% A, 1 min 98% A, 2 min 80% A, 16.5 min 2% A, 22 min 2% A, 22.1 min 98% A, 27 min 98% A
AC$CHROMATOGRAPHY: FLOW_RATE 0.3 mL/min
AC$CHROMATOGRAPHY: RETENTION_TIME 2.235 min
AC$CHROMATOGRAPHY: SOLVENT A: Water 0.1% Formic acid, B: Acetonitrile 0.1% Formic acid
MS$FOCUSED_ION: PRECURSOR_M/Z 139.0866
MS$FOCUSED_ION: PRECURSOR_TYPE [M+H]+
MS$DATA_PROCESSING: COMMENT Export with pycsl 0.1.0.dev1 and CSL 24.4
PK$SPLASH: splash10-05cs-9300000000-07f06dba3f45140e61e0
PK$NUM_PEAK: 26
PK$PEAK: m/z int. rel.int.
  39.0232 1.3 74
  41.0394 0.5 28
  51.023 1.6 91
  52.0309 9.0 516
  53.0394 0.9 51
  63.0231 1.2 68
  65.0382 5.7 327
  67.0525 0.7 40
  68.051 0.6 34
  77.0383 4.5 258
  78.0338 3.3 189
  79.0413 13.9 798
  80.0494 15.8 907
  81.0573 4.7 269
  90.0329 0.7 40
  91.0423 0.6 34
  92.0497 0.7 40
  93.0564 2.3 132
  95.0603 17.4 999
  96.0444 0.9 51
  96.0681 1.7 97
  107.0386 1.7 97
  107.0602 4.3 246
  108.0672 13.3 763
  123.0554 11.1 637
  124.0621 6.1 350
//