ACCESSION: MSBNK-BAFG-CSL23110916888
RECORD_TITLE: Difenoconazole; LC-ESI-QTOF; MS2; 110 V
DATE: 2023.11.09
AUTHORS: Kevin S. Jewell; Björn Ehlig; Arne Wick
LICENSE: dl-de/by-2-0
COPYRIGHT: Copyright 2023 Federal Institute of Hydrology, Koblenz, Germany
COMMENT: CONFIDENCE Reference Standard (Level 1)
COMMENT: Chromatography method: dx.doi.org/10.1016/j.chroma.2015.11.014
COMMENT: Acquisition method: 10.1002/rcm.8541
CH$NAME: Difenoconazole
CH$COMPOUND_CLASS: Fungicide
CH$FORMULA: C19H17Cl2N3O3
CH$EXACT_MASS: 405.0647
CH$SMILES: CC1COC(Cn2cncn2)(O1)c3ccc(Oc4ccc(Cl)cc4)cc3Cl
CH$IUPAC: InChI=1S/C19H17Cl2N3O3/c1-13-9-25-19(27-13,10-24-12-22-11-23-24)17-7-6-16(8-18(17)21)26-15-4-2-14(20)3-5-15/h2-8,11-13H,9-10H2,1H3
CH$LINK: CAS 119446-68-3
CH$LINK: INCHIKEY BQYJATMQXGBDHF-UHFFFAOYSA-N
AC$INSTRUMENT: TripleTOF 6600 SCIEX
AC$INSTRUMENT_TYPE: LC-ESI-QTOF
AC$MASS_SPECTROMETRY: MS_TYPE MS2
AC$MASS_SPECTROMETRY: ION_MODE POSITIVE
AC$MASS_SPECTROMETRY: COLLISION_ENERGY 110
AC$MASS_SPECTROMETRY: FRAGMENTATION_MODE CID
AC$MASS_SPECTROMETRY: IONIZATION ESI
AC$CHROMATOGRAPHY: COLUMN_NAME Zorbax Eclipse Plus C18 2.1 mm x 150 mm, 3.5 um, Agilent
AC$CHROMATOGRAPHY: COLUMN_TEMPERATURE 40 °C
AC$CHROMATOGRAPHY: FLOW_GRADIENT 0 min min 98% A, 1 min 98% A, 2 min 80% A, 16.5 min 2% A, 22 min 2% A, 22.1 min 98% A, 27 min 98% A
AC$CHROMATOGRAPHY: FLOW_RATE 0.3 mL/min
AC$CHROMATOGRAPHY: RETENTION_TIME 13.755 min
AC$CHROMATOGRAPHY: SOLVENT A: Water 0.1% Formic acid, B: Acetonitrile 0.1% Formic acid
MS$FOCUSED_ION: PRECURSOR_M/Z 406.072
MS$FOCUSED_ION: PRECURSOR_TYPE [M+H]+
MS$DATA_PROCESSING: COMMENT Export with Spectra 1.9.12 MsBackendMassbank 1.7.4
MS$DATA_PROCESSING: WHOLE RMassBank 2.3.1
PK$SPLASH: splash10-0fb9-7900000000-4010688a7c852cc781ba
PK$NUM_PEAK: 44
PK$PEAK: m/z int. rel.int.
  39.0229 1 12
  50.0146 3.3 39
  51.023 5.6 67
  60.9833 0.9 10
  63.0226 1.5 18
  72.9838 1.6 19
  73.0065 1.6 19
  74.015 28.7 344
  75.0231 83.2 999
  76.0304 1.7 20
  77.0384 10.4 124
  78.0459 2.9 34
  84.9835 8.5 102
  89.0378 2.3 27
  98.9994 1.5 18
  102.0454 1.1 13
  110.9991 18.9 226
  113.0148 0.9 10
  113.0377 1.6 19
  114.0471 0.9 10
  115.0541 1.1 13
  126.0457 3.9 46
  127.0537 4.3 51
  128.061 2.4 28
  137.0374 0.9 10
  138.0454 2.8 33
  139.0056 4.6 55
  139.0537 20.5 246
  141.0099 5.8 69
  149.0142 2.8 33
  150.0456 4.7 56
  151.0536 14.5 174
  152.0616 64.7 776
  153.0683 7.5 90
  155.0608 1.1 13
  162.0214 1.5 18
  167.0487 1.1 13
  173.0143 3.5 42
  179.0588 1.3 15
  181.0633 2.7 32
  182.975 1.8 21
  188.0381 2 24
  202.0184 2.1 25
  215.0241 1.4 16
//
