ACCESSION: MSBNK-BAFG-CSL25011734709
RECORD_TITLE: N-[2-[(2-Bromo-4,6-dinitrophenyl)azo]-5-(diethylamino)phenyl]acetamide; LC-ESI-QTOF; MS2; 30 V
DATE: 2025.01.17
AUTHORS: Ole Lessmann; Kevin S. Jewell; Björn Ehlig; Arne Wick
LICENSE: dl-de/by-2-0
COPYRIGHT: Copyright 2025 Federal Institute of Hydrology, Koblenz, Germany
COMMENT: CONFIDENCE Reference Standard (Level 1)
COMMENT: Chromatography method: dx.doi.org/10.1016/j.chroma.2015.11.014
CH$NAME: N-[2-[(2-Bromo-4,6-dinitrophenyl)azo]-5-(diethylamino)phenyl]acetamide
CH$FORMULA: C18H19BrN6O5
CH$EXACT_MASS: 478.06
CH$SMILES: CCN(CC)C1=CC(=C(C=C1)N=NC2=C(C=C(C=C2Br)[N+](=O)[O-])[N+](=O)[O-])NC(=O)C
CH$IUPAC: InChI=1S/C18H19BrN6O5/c1-4-23(5-2)12-6-7-15(16(9-12)20-11(3)26)21-22-18-14(19)8-13(24(27)28)10-17(18)25(29)30/h6-10H,4-5H2,1-3H3,(H,20,26)
CH$LINK: CAS 52697-38-8
CH$LINK: INCHIKEY WFFKSTRPZWRBEW-UHFFFAOYSA-N
AC$INSTRUMENT: TripleTOF 6600 SCIEX
AC$INSTRUMENT_TYPE: LC-ESI-QTOF
AC$MASS_SPECTROMETRY: MS_TYPE MS2
AC$MASS_SPECTROMETRY: ION_MODE NEGATIVE
AC$MASS_SPECTROMETRY: COLLISION_ENERGY 30
AC$MASS_SPECTROMETRY: FRAGMENTATION_MODE CID
AC$MASS_SPECTROMETRY: IONIZATION ESI
AC$CHROMATOGRAPHY: COLUMN_NAME Zorbax Eclipse Plus C18 2.1 mm x 150 mm, 3.5 um, Agilent
AC$CHROMATOGRAPHY: COLUMN_TEMPERATURE 40 °C
AC$CHROMATOGRAPHY: FLOW_GRADIENT 0 min min 98% A, 1 min 98% A, 2 min 80% A, 16.5 min 2% A, 22 min 2% A, 22.1 min 98% A, 27 min 98% A
AC$CHROMATOGRAPHY: FLOW_RATE 0.3 mL/min
AC$CHROMATOGRAPHY: RETENTION_TIME 16.579 min
AC$CHROMATOGRAPHY: SOLVENT A: Water 0.1% Formic acid, B: Acetonitrile 0.1% Formic acid
MS$FOCUSED_ION: PRECURSOR_M/Z 478.0614
MS$FOCUSED_ION: PRECURSOR_TYPE [M]-
MS$DATA_PROCESSING: COMMENT Export with pycsl 0.1.0.dev1 and CSL 25.0
PK$SPLASH: splash10-0002-0000900000-e3e6764674d1825940f5
PK$NUM_PEAK: 49
PK$PEAK: m/z int. rel.int.
  78.9184 17.8286 96
  120.0075 0.3529 1
  132.0665 0.3331 1
  186.9252 2.0133 10
  199.9345 0.8694 4
  205.1335 0.9329 5
  214.9196 3.1281 16
  215.9272 2.433 13
  224.1307 1.0781 5
  229.9311 8.4017 45
  230.9387 1.4282 7
  242.9265 0.8238 4
  244.9165 4.3213 23
  253.0871 0.3517 1
  254.0591 1.6323 8
  269.0777 0.4179 2
  281.0702 0.5107 2
  281.1138 0.6025 3
  282.1288 0.9479 5
  296.0716 0.3478 1
  298.1148 1.201 6
  311.1114 1.2318 6
  321.1287 0.3673 1
  324.0718 0.8567 4
  324.1328 0.3665 1
  326.1131 1.4031 7
  326.1286 0.9583 5
  326.1915 0.4576 2
  327.0851 0.7312 3
  333.9861 0.3079 1
  341.077 0.3111 1
  341.0934 0.3137 1
  349.0035 0.5743 3
  350.1232 0.3283 1
  353.1285 1.1857 6
  355.1174 1.8398 9
  368.1326 2.1022 11
  369.0949 2.6969 14
  375.9877 0.5226 2
  378.0441 12.3479 66
  403.994 2.0245 10
  404.0562 1.4024 7
  406.0497 79.1642 428
  419.0161 2.7284 14
  446.6322 0.4331 2
  446.6511 1.0399 5
  448.0593 184.4012 999
  449.0173 40.367 218
  478.0594 52.2808 283
//
