ACCESSION: MSBNK-BAFG-CSL23102610313
RECORD_TITLE: Meptazinol; LC-ESI-QTOF; MS2; 80 V
DATE: 2023.10.26
AUTHORS: Kevin S. Jewell; Björn Ehlig; Arne Wick
LICENSE: dl-de/by-2-0
COPYRIGHT: Copyright 2023 Federal Institute of Hydrology, Koblenz, Germany
COMMENT: CONFIDENCE Reference Standard (Level 1)
COMMENT: Chromatography method: dx.doi.org/10.1016/j.chroma.2015.11.014
COMMENT: Acquisition method: 10.1002/rcm.8541
CH$NAME: Meptazinol
CH$COMPOUND_CLASS: Pharmaceutical
CH$FORMULA: C15H23NO
CH$EXACT_MASS: 233.178
CH$SMILES: CCC1(CCCCN(C1)C)C2=CC(=CC=C2)O
CH$IUPAC: InChI=1S/C15H23NO/c1-3-15(9-4-5-10-16(2)12-15)13-7-6-8-14(17)11-13/h6-8,11,17H,3-5,9-10,12H2,1-2H3
CH$LINK: CAS 54340-58-8
CH$LINK: INCHIKEY JLICHNCFTLFZJN-UHFFFAOYSA-N
AC$INSTRUMENT: TripleTOF 5600 SCIEX
AC$INSTRUMENT_TYPE: LC-ESI-QTOF
AC$MASS_SPECTROMETRY: MS_TYPE MS2
AC$MASS_SPECTROMETRY: ION_MODE POSITIVE
AC$MASS_SPECTROMETRY: COLLISION_ENERGY 80
AC$MASS_SPECTROMETRY: FRAGMENTATION_MODE CID
AC$MASS_SPECTROMETRY: IONIZATION ESI
AC$CHROMATOGRAPHY: COLUMN_NAME Zorbax Eclipse Plus C18 2.1 mm x 150 mm, 3.5 um, Agilent
AC$CHROMATOGRAPHY: COLUMN_TEMPERATURE 40 °C
AC$CHROMATOGRAPHY: FLOW_GRADIENT 0 min min 98% A, 1 min 98% A, 2 min 80% A, 16.5 min 2% A, 22 min 2% A, 22.1 min 98% A, 27 min 98% A
AC$CHROMATOGRAPHY: FLOW_RATE 0.3 mL/min
AC$CHROMATOGRAPHY: RETENTION_TIME 5.641 min
AC$CHROMATOGRAPHY: SOLVENT A: Water 0.1% Formic acid, B: Acetonitrile 0.1% Formic acid
MS$FOCUSED_ION: PRECURSOR_M/Z 234.1852
MS$FOCUSED_ION: PRECURSOR_TYPE [M+H]+
MS$DATA_PROCESSING: COMMENT Export with Spectra 1.9.12 MsBackendMassbank 1.7.4
MS$DATA_PROCESSING: WHOLE RMassBank 2.3.1
PK$SPLASH: splash10-004i-9200000000-bbaa889dc88b16d8311a
PK$NUM_PEAK: 27
PK$PEAK: m/z int. rel.int.
  39.0225 4.3 28
  41.0385 2.2 14
  44.0493 8.1 52
  50.0148 4.1 26
  51.0228 21.9 142
  53.0382 2.3 15
  55.0176 5.5 35
  55.0533 2.2 14
  63.0224 1.9 12
  65.0383 7.1 46
  67.0534 1.7 11
  70.0655 2.1 13
  77.0386 153 999
  78.0459 3.7 24
  79.0543 17.2 112
  81.0333 2.2 14
  89.0381 2.8 18
  91.0542 11.4 74
  102.0458 2.2 14
  103.0541 14.2 92
  105.0703 3.2 20
  107.0492 24.7 161
  115.0537 13.8 90
  117.0689 2 13
  127.0537 7.4 48
  128.0608 5.1 33
  131.0496 9.9 64
//
