ACCESSION: MSBNK-BAFG-CSL2501065177
RECORD_TITLE: Hydroxytorasemide; LC-ESI-QTOF; MS2; 50 V
DATE: 2025.01.06
AUTHORS: Ole Lessmann; Kevin S. Jewell; Björn Ehlig; Arne Wick
LICENSE: dl-de/by-2-0
COPYRIGHT: Copyright 2025 Federal Institute of Hydrology, Koblenz, Germany
COMMENT: CONFIDENCE Reference Standard (Level 1)
COMMENT: Chromatography method: dx.doi.org/10.1016/j.chroma.2015.11.014
COMMENT: Acquisition method: 10.1002/rcm.8541
CH$NAME: Hydroxytorasemide
CH$COMPOUND_CLASS: Pharmaceutical; Transformation_product; Transformation_product-Metabolite
CH$FORMULA: C16H20N4O4S
CH$EXACT_MASS: 364.1205
CH$SMILES: CC(C)NC(=O)NS(=O)(=O)c1cnccc1Nc2cccc(c2)CO
CH$IUPAC: InChI=1S/C16H20N4O4S/c1-11(2)18-16(22)20-25(23,24)15-9-17-7-6-14(15)19-13-5-3-4-12(8-13)10-21/h3-9,11,21H,10H2,1-2H3,(H,17,19)(H2,18,20,22)
CH$LINK: CAS 99300-68-2
CH$LINK: INCHIKEY WCYVLAMJCQZUCR-UHFFFAOYSA-N
AC$INSTRUMENT: TripleTOF 5600 SCIEX
AC$INSTRUMENT_TYPE: LC-ESI-QTOF
AC$MASS_SPECTROMETRY: MS_TYPE MS2
AC$MASS_SPECTROMETRY: ION_MODE POSITIVE
AC$MASS_SPECTROMETRY: COLLISION_ENERGY 50
AC$MASS_SPECTROMETRY: FRAGMENTATION_MODE CID
AC$MASS_SPECTROMETRY: IONIZATION ESI
AC$CHROMATOGRAPHY: COLUMN_NAME Zorbax Eclipse Plus C18 2.1 mm x 150 mm, 3.5 um, Agilent
AC$CHROMATOGRAPHY: COLUMN_TEMPERATURE 40 °C
AC$CHROMATOGRAPHY: FLOW_GRADIENT 0 min min 98% A, 1 min 98% A, 2 min 80% A, 16.5 min 2% A, 22 min 2% A, 22.1 min 98% A, 27 min 98% A
AC$CHROMATOGRAPHY: FLOW_RATE 0.3 mL/min
AC$CHROMATOGRAPHY: RETENTION_TIME 5.824 min
AC$CHROMATOGRAPHY: SOLVENT A: Water 0.1% Formic acid, B: Acetonitrile 0.1% Formic acid
MS$FOCUSED_ION: PRECURSOR_M/Z 365.1278
MS$FOCUSED_ION: PRECURSOR_TYPE [M+H]+
MS$DATA_PROCESSING: COMMENT Export with pycsl 0.1.0.dev1 and CSL 24.4
PK$SPLASH: splash10-0159-0940000000-d9b8f7b2aa06490a48d3
PK$NUM_PEAK: 35
PK$PEAK: m/z int. rel.int.
  115.0538 28.8 58
  125.0165 41.6 84
  128.0488 8.1 16
  137.0159 9.2 18
  142.0644 17.5 35
  152.0042 22.6 46
  153.0112 8.7 17
  154.0642 14.9 30
  156.0666 7.8 15
  168.0678 84.3 171
  169.075 490.4 999
  181.0753 231.3 471
  182.0836 46.2 94
  184.0624 14.1 28
  185.0715 16.8 34
  187.0315 19.1 38
  188.0398 8.2 16
  189.0475 43.0 87
  197.0707 54.2 110
  198.0789 9.9 20
  199.086 60.0 122
  200.0431 8.6 17
  201.0568 15.6 31
  205.0435 10.6 21
  214.0731 31.3 63
  215.0816 32.7 66
  216.0343 25.6 52
  217.0421 40.6 82
  228.0345 15.5 31
  233.0374 93.3 190
  245.0374 61.3 124
  246.0426 8.8 17
  263.0473 25.0 50
  280.0746 198.0 403
  306.0539 16.4 33
//