ACCESSION: MSBNK-BAFG-CSL25011734577
RECORD_TITLE: Amido Black 10B; LC-ESI-QTOF; MS2; 130 V
DATE: 2025.01.17
AUTHORS: Ole Lessmann; Kevin S. Jewell; Björn Ehlig; Arne Wick
LICENSE: dl-de/by-2-0
COPYRIGHT: Copyright 2025 Federal Institute of Hydrology, Koblenz, Germany
COMMENT: CONFIDENCE Reference Standard (Level 1)
COMMENT: Chromatography method: dx.doi.org/10.1016/j.chroma.2015.11.014
CH$NAME: Amido Black 10B
CH$FORMULA: C22H16N6O9S2
CH$EXACT_MASS: 572.042
CH$SMILES: C1=CC=C(C=C1)N=NC2=C(C3=C(C(=C(C=C3C=C2S(=O)(=O)O)S(=O)(=O)O)N=NC4=CC=C(C=C4)[N+](=O)[O-])N)O
CH$IUPAC: InChI=1S/C22H16N6O9S2/c23-19-18-12(11-17(39(35,36)37)21(22(18)29)27-24-13-4-2-1-3-5-13)10-16(38(32,33)34)20(19)26-25-14-6-8-15(9-7-14)28(30)31/h1-11,29H,23H2,(H,32,33,34)(H,35,36,37)
CH$LINK: CAS 3121-74-2
CH$LINK: INCHIKEY HKJKONMZMPUGHJ-UHFFFAOYSA-N
AC$INSTRUMENT: TripleTOF 6600 SCIEX
AC$INSTRUMENT_TYPE: LC-ESI-QTOF
AC$MASS_SPECTROMETRY: MS_TYPE MS2
AC$MASS_SPECTROMETRY: ION_MODE POSITIVE
AC$MASS_SPECTROMETRY: COLLISION_ENERGY 130
AC$MASS_SPECTROMETRY: FRAGMENTATION_MODE CID
AC$MASS_SPECTROMETRY: IONIZATION ESI
AC$CHROMATOGRAPHY: COLUMN_NAME Zorbax Eclipse Plus C18 2.1 mm x 150 mm, 3.5 um, Agilent
AC$CHROMATOGRAPHY: COLUMN_TEMPERATURE 40 °C
AC$CHROMATOGRAPHY: FLOW_GRADIENT 0 min min 98% A, 1 min 98% A, 2 min 80% A, 16.5 min 2% A, 22 min 2% A, 22.1 min 98% A, 27 min 98% A
AC$CHROMATOGRAPHY: FLOW_RATE 0.3 mL/min
AC$CHROMATOGRAPHY: RETENTION_TIME 9.552 min
AC$CHROMATOGRAPHY: SOLVENT A: Water 0.1% Formic acid, B: Acetonitrile 0.1% Formic acid
MS$FOCUSED_ION: PRECURSOR_M/Z 573.0493
MS$FOCUSED_ION: PRECURSOR_TYPE [M+H]+
MS$DATA_PROCESSING: COMMENT Export with pycsl 0.1.0.dev1 and CSL 25.0
PK$SPLASH: splash10-014l-9210000000-996f2f513433c314b5e9
PK$NUM_PEAK: 85
PK$PEAK: m/z int. rel.int.
  37.0071 1.3 20
  38.015 0.8 12
  39.0229 12.1 190
  50.0142 0.8 12
  51.0223 3.9 61
  61.0068 0.7 10
  62.0155 1.0 15
  63.0222 5.4 84
  64.0177 0.7 10
  64.031 1.3 20
  65.0384 63.6 999
  66.0462 23.1 362
  67.0415 0.9 14
  74.0146 4.5 70
  75.0226 20.6 323
  76.0295 1.9 29
  77.0384 9.2 144
  78.0328 2.4 37
  80.0501 1.8 28
  87.0224 1.1 17
  88.0179 3.1 48
  89.0391 0.8 12
  90.0334 4.2 65
  92.0485 17.1 268
  93.057 61.7 969
  100.0174 0.9 14
  102.0338 6.1 95
  103.0403 1.1 17
  112.0177 0.9 14
  114.0331 4.9 76
  115.0414 1.3 20
  117.043 1.6 25
  125.0121 1.4 21
  127.0365 0.8 12
  129.0411 2.4 37
  130.0339 1.7 26
  138.0336 0.8 12
  139.041 1.2 18
  145.0383 1.2 18
  149.0371 1.0 15
  150.0397 1.8 28
  151.0499 3.0 47
  152.0479 1.0 15
  152.0624 0.8 12
  162.033 1.5 23
  163.0374 1.2 18
  164.0463 1.9 29
  165.0456 1.5 23
  175.0406 1.2 18
  176.0484 3.3 51
  177.043 1.3 20
  177.0547 2.4 37
  178.0514 1.4 21
  179.0626 1.2 18
  187.0275 0.7 10
  188.0471 4.3 67
  189.0429 7.4 116
  190.0592 2.3 36
  191.0522 1.6 25
  191.0686 0.8 12
  192.0679 1.6 25
  200.0549 0.7 10
  201.0466 1.2 18
  202.0451 1.2 18
  203.0592 2.8 43
  204.0601 3.2 50
  205.0765 2.7 42
  206.0697 1.5 23
  214.041 1.8 28
  215.0503 3.8 59
  216.0531 2.3 36
  217.0639 1.6 25
  218.0707 1.1 17
  220.0834 0.7 10
  228.0568 1.1 17
  230.071 4.1 64
  231.0743 1.6 25
  238.0742 0.7 10
  241.0572 1.4 21
  242.058 1.6 25
  255.068 0.7 10
  291.0801 0.7 10
  305.0769 0.7 10
  317.0897 0.7 10
  318.077 0.7 10
//
