ACCESSION: MSBNK-BAFG-CSL2311099395
RECORD_TITLE: Isotianil; LC-ESI-QTOF; MS2; 30 V
DATE: 2023.11.09
AUTHORS: Kevin S. Jewell; Björn Ehlig; Arne Wick
LICENSE: dl-de/by-2-0
COPYRIGHT: Copyright 2023 Federal Institute of Hydrology, Koblenz, Germany
COMMENT: CONFIDENCE Reference Standard (Level 1)
COMMENT: Chromatography method: dx.doi.org/10.1016/j.chroma.2015.11.014
COMMENT: Acquisition method: 10.1002/rcm.8541
CH$NAME: Isotianil
CH$COMPOUND_CLASS: Fungicide
CH$FORMULA: C11H5Cl2N3OS
CH$EXACT_MASS: 296.953
CH$SMILES: C1=CC=C(C(=C1)C#N)NC(=O)C2=C(C(=NS2)Cl)Cl
CH$IUPAC: InChI=1S/C11H5Cl2N3OS/c12-8-9(18-16-10(8)13)11(17)15-7-4-2-1-3-6(7)5-14/h1-4H,(H,15,17)
CH$LINK: CAS 224049-04-1
CH$LINK: INCHIKEY WLPCAERCXQSYLQ-UHFFFAOYSA-N
AC$INSTRUMENT: TripleTOF 5600 SCIEX
AC$INSTRUMENT_TYPE: LC-ESI-QTOF
AC$MASS_SPECTROMETRY: MS_TYPE MS2
AC$MASS_SPECTROMETRY: ION_MODE POSITIVE
AC$MASS_SPECTROMETRY: COLLISION_ENERGY 30
AC$MASS_SPECTROMETRY: FRAGMENTATION_MODE CID
AC$MASS_SPECTROMETRY: IONIZATION ESI
AC$CHROMATOGRAPHY: COLUMN_NAME Zorbax Eclipse Plus C18 2.1 mm x 150 mm, 3.5 um, Agilent
AC$CHROMATOGRAPHY: COLUMN_TEMPERATURE 40 °C
AC$CHROMATOGRAPHY: FLOW_GRADIENT 0 min min 98% A, 1 min 98% A, 2 min 80% A, 16.5 min 2% A, 22 min 2% A, 22.1 min 98% A, 27 min 98% A
AC$CHROMATOGRAPHY: FLOW_RATE 0.3 mL/min
AC$CHROMATOGRAPHY: RETENTION_TIME 12.41 min
AC$CHROMATOGRAPHY: SOLVENT A: Water 0.1% Formic acid, B: Acetonitrile 0.1% Formic acid
MS$FOCUSED_ION: PRECURSOR_M/Z 297.9603
MS$FOCUSED_ION: PRECURSOR_TYPE [M+H]+
MS$DATA_PROCESSING: COMMENT Export with Spectra 1.9.12 MsBackendMassbank 1.7.4
MS$DATA_PROCESSING: WHOLE RMassBank 2.3.1
PK$SPLASH: splash10-0fb9-0970000000-0b29163a11d670af4d7e
PK$NUM_PEAK: 6
PK$PEAK: m/z int. rel.int.
  117.9522 0.6 107
  145.0382 0.5 89
  153.9282 5.6 999
  179.9091 1.7 303
  279.9489 4.4 784
  297.9589 2.2 392
//
