ACCESSION: MSBNK-BAFG-CSL2501069934
RECORD_TITLE: Terbutrynesulfoxide; LC-ESI-QTOF; MS2; 80 V
DATE: 2025.01.06
AUTHORS: Ole Lessmann; Kevin S. Jewell; Björn Ehlig; Arne Wick
LICENSE: dl-de/by-2-0
COPYRIGHT: Copyright 2025 Federal Institute of Hydrology, Koblenz, Germany
COMMENT: CONFIDENCE Reference Standard (Level 1)
COMMENT: Chromatography method: dx.doi.org/10.1016/j.chroma.2015.11.014
COMMENT: Acquisition method: 10.1002/rcm.8541
CH$NAME: Terbutrynesulfoxide
CH$COMPOUND_CLASS: Transformation_product; Herbicide; Pesticide; Transformation_product-Metabolite
CH$FORMULA: C10H19N5OS
CH$EXACT_MASS: 257.131
CH$SMILES: CCNC1=NC(=NC(=N1)S(=O)C)NC(C)(C)C
CH$IUPAC: InChI=1S/C10H19N5OS/c1-6-11-7-12-8(15-10(2,3)4)14-9(13-7)17(5)16/h6H2,1-5H3,(H2,11,12,13,14,15)
CH$LINK: CAS 82985-33-9
CH$LINK: INCHIKEY LMUNBZZRYCNYLJ-UHFFFAOYSA-N
AC$INSTRUMENT: TripleTOF 5600 SCIEX
AC$INSTRUMENT_TYPE: LC-ESI-QTOF
AC$MASS_SPECTROMETRY: MS_TYPE MS2
AC$MASS_SPECTROMETRY: ION_MODE POSITIVE
AC$MASS_SPECTROMETRY: COLLISION_ENERGY 80
AC$MASS_SPECTROMETRY: FRAGMENTATION_MODE CID
AC$MASS_SPECTROMETRY: IONIZATION ESI
AC$CHROMATOGRAPHY: COLUMN_NAME Zorbax Eclipse Plus C18 2.1 mm x 150 mm, 3.5 um, Agilent
AC$CHROMATOGRAPHY: COLUMN_TEMPERATURE 40 °C
AC$CHROMATOGRAPHY: FLOW_GRADIENT 0 min min 98% A, 1 min 98% A, 2 min 80% A, 16.5 min 2% A, 22 min 2% A, 22.1 min 98% A, 27 min 98% A
AC$CHROMATOGRAPHY: FLOW_RATE 0.3 mL/min
AC$CHROMATOGRAPHY: RETENTION_TIME 8.816 min
AC$CHROMATOGRAPHY: SOLVENT A: Water 0.1% Formic acid, B: Acetonitrile 0.1% Formic acid
MS$FOCUSED_ION: PRECURSOR_M/Z 258.1383
MS$FOCUSED_ION: PRECURSOR_TYPE [M+H]+
MS$DATA_PROCESSING: COMMENT Export with pycsl 0.1.0.dev1 and CSL 24.4
PK$SPLASH: splash10-014i-9000000000-3906f06517d67b7c01c1
PK$NUM_PEAK: 30
PK$PEAK: m/z int. rel.int.
  42.0417 0.9 10
  43.0424 23.1 261
  44.061 2.4 27
  53.0233 1.0 11
  55.0394 2.9 32
  56.0463 2.5 28
  57.9825 2.4 27
  58.0756 0.9 10
  59.0556 2.6 29
  59.9974 0.9 10
  67.0366 1.2 13
  68.0319 88.2 999
  69.0154 45.5 515
  69.0378 8.3 94
  69.0513 1.9 21
  70.0464 7.0 79
  71.0552 1.1 12
  71.0671 4.5 50
  71.9969 5.1 57
  84.0606 1.3 14
  84.9906 36.5 413
  86.0397 6.1 69
  94.0433 3.3 37
  96.0598 4.2 47
  97.0528 4.7 53
  111.069 5.4 61
  112.0655 6.7 75
  121.0533 3.0 33
  124.0637 2.1 23
  138.0767 0.9 10
//