ACCESSION: MSBNK-BAFG-CSL25011734589
RECORD_TITLE: Food Yellow 3 free acid; LC-ESI-QTOF; MS2; 90 V
DATE: 2025.01.17
AUTHORS: Ole Lessmann; Kevin S. Jewell; Björn Ehlig; Arne Wick
LICENSE: dl-de/by-2-0
COPYRIGHT: Copyright 2025 Federal Institute of Hydrology, Koblenz, Germany
COMMENT: CONFIDENCE Reference Standard (Level 1)
COMMENT: Chromatography method: dx.doi.org/10.1016/j.chroma.2015.11.014
CH$NAME: Food Yellow 3 free acid
CH$FORMULA: C16H12N2O7S2
CH$EXACT_MASS: 408.0086
CH$SMILES: C1=CC(=CC=C1N=NC2=C(C=CC3=C2C=CC(=C3)S(=O)(=O)O)O)S(=O)(=O)O
CH$IUPAC: InChI=1S/C16H12N2O7S2/c19-15-8-1-10-9-13(27(23,24)25)6-7-14(10)16(15)18-17-11-2-4-12(5-3-11)26(20,21)22/h1-9,19H,(H,20,21,22)(H,23,24,25)
CH$LINK: CAS 5859-11-0
CH$LINK: INCHIKEY KEYWXKLGZZGHMT-UHFFFAOYSA-N
AC$INSTRUMENT: TripleTOF 6600 SCIEX
AC$INSTRUMENT_TYPE: LC-ESI-QTOF
AC$MASS_SPECTROMETRY: MS_TYPE MS2
AC$MASS_SPECTROMETRY: ION_MODE POSITIVE
AC$MASS_SPECTROMETRY: COLLISION_ENERGY 90
AC$MASS_SPECTROMETRY: FRAGMENTATION_MODE CID
AC$MASS_SPECTROMETRY: IONIZATION ESI
AC$CHROMATOGRAPHY: COLUMN_NAME Zorbax Eclipse Plus C18 2.1 mm x 150 mm, 3.5 um, Agilent
AC$CHROMATOGRAPHY: COLUMN_TEMPERATURE 40 °C
AC$CHROMATOGRAPHY: FLOW_GRADIENT 0 min min 98% A, 1 min 98% A, 2 min 80% A, 16.5 min 2% A, 22 min 2% A, 22.1 min 98% A, 27 min 98% A
AC$CHROMATOGRAPHY: FLOW_RATE 0.3 mL/min
AC$CHROMATOGRAPHY: RETENTION_TIME 5.59 min
AC$CHROMATOGRAPHY: SOLVENT A: Water 0.1% Formic acid, B: Acetonitrile 0.1% Formic acid
MS$FOCUSED_ION: PRECURSOR_M/Z 409.0159
MS$FOCUSED_ION: PRECURSOR_TYPE [M+H]+
MS$DATA_PROCESSING: COMMENT Export with pycsl 0.1.0.dev1 and CSL 25.0
PK$SPLASH: splash10-0040-9610000000-62e5f1fed36f52a5b8fc
PK$NUM_PEAK: 49
PK$PEAK: m/z int. rel.int.
  39.0229 4.5 27
  50.0151 2.1 12
  51.023 3.3 20
  53.0386 17.1 105
  62.0145 4.0 24
  63.0223 22.2 136
  64.9687 4.1 25
  65.0384 30.0 184
  74.0147 30.3 186
  75.0224 13.9 85
  76.0302 15.0 92
  77.0379 9.0 55
  80.0492 162.6 999
  81.0336 6.6 40
  87.023 2.0 12
  88.0293 3.2 19
  89.0383 83.7 514
  90.0333 3.8 23
  92.0488 25.4 156
  98.0143 3.8 23
  99.0221 24.2 148
  100.03 71.0 436
  101.0244 3.6 22
  101.037 7.0 43
  102.041 3.3 20
  108.0441 67.7 415
  109.0514 7.1 43
  114.0336 4.5 27
  115.0417 4.5 27
  116.048 5.4 33
  126.0334 17.0 104
  127.0412 122.2 750
  128.0485 3.5 21
  129.0531 3.1 19
  154.0401 2.4 14
  175.0514 2.7 16
  190.0634 5.6 34
  191.0722 2.7 16
  201.0578 4.3 26
  202.0647 4.2 25
  203.065 2.1 12
  216.0669 6.0 36
  217.0744 8.4 51
  218.0833 5.1 31
  228.0681 4.4 27
  229.0756 32.3 198
  230.0865 3.0 18
  245.076 3.1 19
  246.0777 1.7 10
//
