ACCESSION: MSBNK-BAFG-CSL2311093458
RECORD_TITLE: Opipramol; LC-ESI-QTOF; MS2; 40 V
DATE: 2023.11.09
AUTHORS: Kevin S. Jewell; Björn Ehlig; Arne Wick
LICENSE: dl-de/by-2-0
COPYRIGHT: Copyright 2023 Federal Institute of Hydrology, Koblenz, Germany
COMMENT: CONFIDENCE Reference Standard (Level 1)
COMMENT: Chromatography method: dx.doi.org/10.1016/j.chroma.2015.11.014
COMMENT: Acquisition method: 10.1002/rcm.8541
CH$NAME: Opipramol
CH$COMPOUND_CLASS: Pharmaceutical
CH$FORMULA: C23H29N3O
CH$EXACT_MASS: 363.2311
CH$SMILES: OCCN1CCN(CCCN2c3ccccc3C=Cc4ccccc24)CC1
CH$IUPAC: InChI=1S/C23H29N3O/c27-19-18-25-16-14-24(15-17-25)12-5-13-26-22-8-3-1-6-20(22)10-11-21-7-2-4-9-23(21)26/h1-4,6-11,27H,5,12-19H2
CH$LINK: CAS 315-72-0
CH$LINK: INCHIKEY YNZFUWZUGRBMHL-UHFFFAOYSA-N
AC$INSTRUMENT: TripleTOF 5600 SCIEX
AC$INSTRUMENT_TYPE: LC-ESI-QTOF
AC$MASS_SPECTROMETRY: MS_TYPE MS2
AC$MASS_SPECTROMETRY: ION_MODE POSITIVE
AC$MASS_SPECTROMETRY: COLLISION_ENERGY 40
AC$MASS_SPECTROMETRY: FRAGMENTATION_MODE CID
AC$MASS_SPECTROMETRY: IONIZATION ESI
AC$CHROMATOGRAPHY: COLUMN_NAME Zorbax Eclipse Plus C18 2.1 mm x 150 mm, 3.5 um, Agilent
AC$CHROMATOGRAPHY: COLUMN_TEMPERATURE 40 °C
AC$CHROMATOGRAPHY: FLOW_GRADIENT 0 min min 98% A, 1 min 98% A, 2 min 80% A, 16.5 min 2% A, 22 min 2% A, 22.1 min 98% A, 27 min 98% A
AC$CHROMATOGRAPHY: FLOW_RATE 0.3 mL/min
AC$CHROMATOGRAPHY: RETENTION_TIME 7.242 min
AC$CHROMATOGRAPHY: SOLVENT A: Water 0.1% Formic acid, B: Acetonitrile 0.1% Formic acid
MS$FOCUSED_ION: PRECURSOR_M/Z 364.2383
MS$FOCUSED_ION: PRECURSOR_TYPE [M+H]+
MS$DATA_PROCESSING: COMMENT Export with Spectra 1.9.12 MsBackendMassbank 1.7.4
MS$DATA_PROCESSING: WHOLE RMassBank 2.3.1
PK$SPLASH: splash10-00dl-1911000000-74fd4576ea83d2ed1021
PK$NUM_PEAK: 16
PK$PEAK: m/z int. rel.int.
  70.069 24.5 151
  97.0782 2.8 17
  98.0853 29.8 184
  100.0768 38.4 237
  113.1078 4 24
  128.0944 5.7 35
  143.1185 126 780
  171.1497 161.3 999
  178.0784 5.6 34
  179.0844 5 30
  193.0883 5.3 32
  204.0806 4.7 29
  205.0884 3.3 20
  206.097 56.8 351
  234.1282 10.4 64
  364.2385 47.7 295
//
