ACCESSION: MSBNK-BAFG-CSL23102510322
RECORD_TITLE: Nadolol; LC-ESI-QTOF; MS2; 140 V
DATE: 2023.10.25
AUTHORS: Kevin S. Jewell; Björn Ehlig; Arne Wick
LICENSE: dl-de/by-2-0
COPYRIGHT: Copyright 2023 Federal Institute of Hydrology, Koblenz, Germany
COMMENT: CONFIDENCE Reference Standard (Level 1)
COMMENT: Chromatography method: dx.doi.org/10.1016/j.chroma.2015.11.014
COMMENT: Acquisition method: 10.1002/rcm.8541
CH$NAME: Nadolol
CH$COMPOUND_CLASS: Pharmaceutical
CH$FORMULA: C17H27NO4
CH$EXACT_MASS: 309.194
CH$SMILES: CC(C)(C)NCC(COC1=CC=CC2=C1CC(C(C2)O)O)O
CH$IUPAC: InChI=1S/C17H27NO4/c1-17(2,3)18-9-12(19)10-22-16-6-4-5-11-7-14(20)15(21)8-13(11)16/h4-6,12,14-15,18-21H,7-10H2,1-3H3
CH$LINK: CAS 42200-33-9
CH$LINK: INCHIKEY VWPOSFSPZNDTMJ-UHFFFAOYSA-N
AC$INSTRUMENT: TripleTOF 5600 SCIEX
AC$INSTRUMENT_TYPE: LC-ESI-QTOF
AC$MASS_SPECTROMETRY: MS_TYPE MS2
AC$MASS_SPECTROMETRY: ION_MODE POSITIVE
AC$MASS_SPECTROMETRY: COLLISION_ENERGY 140
AC$MASS_SPECTROMETRY: FRAGMENTATION_MODE CID
AC$MASS_SPECTROMETRY: IONIZATION ESI
AC$CHROMATOGRAPHY: COLUMN_NAME Zorbax Eclipse Plus C18 2.1 mm x 150 mm, 3.5 um, Agilent
AC$CHROMATOGRAPHY: COLUMN_TEMPERATURE 40 °C
AC$CHROMATOGRAPHY: FLOW_GRADIENT 0 min min 98% A, 1 min 98% A, 2 min 80% A, 16.5 min 2% A, 22 min 2% A, 22.1 min 98% A, 27 min 98% A
AC$CHROMATOGRAPHY: FLOW_RATE 0.3 mL/min
AC$CHROMATOGRAPHY: RETENTION_TIME 5.13 min
AC$CHROMATOGRAPHY: SOLVENT A: Water 0.1% Formic acid, B: Acetonitrile 0.1% Formic acid
MS$FOCUSED_ION: PRECURSOR_M/Z 310.2013
MS$FOCUSED_ION: PRECURSOR_TYPE [M+H]+
MS$DATA_PROCESSING: COMMENT Export with Spectra 1.9.12 MsBackendMassbank 1.7.4
MS$DATA_PROCESSING: WHOLE RMassBank 2.3.1
PK$SPLASH: splash10-00or-9400000000-3d0ae6ebdffb6771d754
PK$NUM_PEAK: 26
PK$PEAK: m/z int. rel.int.
  50.0189 0.6 83
  51.028 2.4 333
  56.0555 1.1 152
  57.075 1.6 222
  58.0699 0.8 111
  58.0794 0.5 69
  62.0182 0.7 97
  63.0276 2.1 291
  65.0437 3.3 457
  74.017 0.5 69
  75.0266 1 138
  76.0336 0.8 111
  77.0405 7.2 999
  77.077 0.4 55
  78.0486 1.9 263
  89.0393 2.8 388
  91.0552 1.6 222
  102.0474 1.7 235
  103.0557 0.9 124
  115.054 5.6 776
  115.0722 0.5 69
  126.0458 0.8 111
  127.0552 1.3 180
  128.062 1.2 166
  139.0572 0.8 111
  152.0603 0.6 83
//
