ACCESSION: MSBNK-BAFG-CSL2501064249
RECORD_TITLE: N-desmethyl-diphenhydramine; LC-ESI-QTOF; MS2; 90 V
DATE: 2025.01.06
AUTHORS: Ole Lessmann; Kevin S. Jewell; Björn Ehlig; Arne Wick
LICENSE: dl-de/by-2-0
COPYRIGHT: Copyright 2025 Federal Institute of Hydrology, Koblenz, Germany
COMMENT: CONFIDENCE Reference Standard (Level 1)
COMMENT: Chromatography method: dx.doi.org/10.1016/j.chroma.2015.11.014
COMMENT: Acquisition method: 10.1002/rcm.8541
CH$NAME: N-desmethyl-diphenhydramine
CH$COMPOUND_CLASS: Pharmaceutical; Metabolite; Transformation_product-Metabolite
CH$FORMULA: C16H19NO
CH$EXACT_MASS: 241.1467
CH$SMILES: CNCCOC(c1ccccc1)c2ccccc2
CH$IUPAC: InChI=1S/C16H19NO/c1-17-12-13-18-16(14-8-4-2-5-9-14)15-10-6-3-7-11-15/h2-11,16-17H,12-13H2,1H3
CH$LINK: CAS 17471-10-2
CH$LINK: INCHIKEY AGSLYHYWLYGAOU-UHFFFAOYSA-N
AC$INSTRUMENT: TripleTOF 5600 SCIEX
AC$INSTRUMENT_TYPE: LC-ESI-QTOF
AC$MASS_SPECTROMETRY: MS_TYPE MS2
AC$MASS_SPECTROMETRY: ION_MODE POSITIVE
AC$MASS_SPECTROMETRY: COLLISION_ENERGY 90
AC$MASS_SPECTROMETRY: FRAGMENTATION_MODE CID
AC$MASS_SPECTROMETRY: IONIZATION ESI
AC$CHROMATOGRAPHY: COLUMN_NAME Zorbax Eclipse Plus C18 2.1 mm x 150 mm, 3.5 um, Agilent
AC$CHROMATOGRAPHY: COLUMN_TEMPERATURE 40 °C
AC$CHROMATOGRAPHY: FLOW_GRADIENT 0 min min 98% A, 1 min 98% A, 2 min 80% A, 16.5 min 2% A, 22 min 2% A, 22.1 min 98% A, 27 min 98% A
AC$CHROMATOGRAPHY: FLOW_RATE 0.3 mL/min
AC$CHROMATOGRAPHY: RETENTION_TIME 7.557 min
AC$CHROMATOGRAPHY: SOLVENT A: Water 0.1% Formic acid, B: Acetonitrile 0.1% Formic acid
MS$FOCUSED_ION: PRECURSOR_M/Z 242.1539
MS$FOCUSED_ION: PRECURSOR_TYPE [M+H]+
MS$DATA_PROCESSING: COMMENT Export with pycsl 0.1.0.dev1 and CSL 24.4
PK$SPLASH: splash10-0i00-0900000000-bd5b8c91905a2ba1102d
PK$NUM_PEAK: 28
PK$PEAK: m/z int. rel.int.
  65.0438 8.6 53
  74.018 3.6 22
  75.0259 2.6 16
  76.0337 6.4 39
  77.0417 8.6 53
  78.0496 7.3 45
  87.0232 3.4 21
  89.0402 17.7 110
  91.0554 5.1 31
  98.0153 2.0 12
  102.0472 23.1 144
  113.0382 4.1 25
  115.054 72.9 454
  125.0377 3.6 22
  126.0461 26.9 167
  127.0537 9.0 56
  128.0614 24.0 149
  138.0482 1.8 11
  139.0536 37.7 235
  141.068 3.1 19
  149.038 1.8 11
  150.0457 26.1 162
  151.0541 55.0 343
  152.0613 65.5 408
  162.0467 2.5 15
  163.0536 57.2 356
  164.0615 68.3 426
  165.0693 160.1 999
//