ACCESSION: MSBNK-BAFG-CSL2310308964
RECORD_TITLE: N-[4-(1H-benzimidazol-2-yl)phenyl]-N,N-dimethylamine; LC-ESI-QTOF; MS2; 80 V
DATE: 2023.10.30
AUTHORS: Kevin S. Jewell; Björn Ehlig; Arne Wick
LICENSE: dl-de/by-2-0
COPYRIGHT: Copyright 2023 Federal Institute of Hydrology, Koblenz, Germany
COMMENT: CONFIDENCE Reference Standard (Level 1)
COMMENT: Chromatography method: dx.doi.org/10.1016/j.chroma.2015.11.014
COMMENT: Acquisition method: 10.1002/rcm.8541
CH$NAME: N-[4-(1H-benzimidazol-2-yl)phenyl]-N,N-dimethylamine
CH$COMPOUND_CLASS: Pharmaceutical
CH$FORMULA: C15H15N3
CH$EXACT_MASS: 237.1266
CH$SMILES: CN(C)C1=CC=C(C=C1)C2=NC3=CC=CC=C3N2
CH$IUPAC: InChI=1S/C15H15N3/c1-18(2)12-9-7-11(8-10-12)15-16-13-5-3-4-6-14(13)17-15/h3-10H,1-2H3,(H,16,17)
CH$LINK: CAS 2562-71-2
CH$LINK: INCHIKEY ZKBBGUJBGLTNEK-UHFFFAOYSA-N
AC$INSTRUMENT: TripleTOF 5600 SCIEX
AC$INSTRUMENT_TYPE: LC-ESI-QTOF
AC$MASS_SPECTROMETRY: MS_TYPE MS2
AC$MASS_SPECTROMETRY: ION_MODE POSITIVE
AC$MASS_SPECTROMETRY: COLLISION_ENERGY 80
AC$MASS_SPECTROMETRY: FRAGMENTATION_MODE CID
AC$MASS_SPECTROMETRY: IONIZATION ESI
AC$CHROMATOGRAPHY: COLUMN_NAME Zorbax Eclipse Plus C18 2.1 mm x 150 mm, 3.5 um, Agilent
AC$CHROMATOGRAPHY: COLUMN_TEMPERATURE 40 °C
AC$CHROMATOGRAPHY: FLOW_GRADIENT 0 min min 98% A, 1 min 98% A, 2 min 80% A, 16.5 min 2% A, 22 min 2% A, 22.1 min 98% A, 27 min 98% A
AC$CHROMATOGRAPHY: FLOW_RATE 0.3 mL/min
AC$CHROMATOGRAPHY: RETENTION_TIME 6.517 min
AC$CHROMATOGRAPHY: SOLVENT A: Water 0.1% Formic acid, B: Acetonitrile 0.1% Formic acid
MS$FOCUSED_ION: PRECURSOR_M/Z 238.1339
MS$FOCUSED_ION: PRECURSOR_TYPE [M+H]+
MS$DATA_PROCESSING: COMMENT Export with Spectra 1.9.12 MsBackendMassbank 1.7.4
MS$DATA_PROCESSING: WHOLE RMassBank 2.3.1
PK$SPLASH: splash10-0006-1900000000-9ef4753c94c5b017ad52
PK$NUM_PEAK: 36
PK$PEAK: m/z int. rel.int.
  66.0529 2.7 10
  77.0437 14.8 59
  89.042 21.2 84
  90.0492 20.7 82
  91.0451 23.6 94
  92.0526 45.1 179
  102.036 7.8 31
  104.051 10.4 41
  115.0564 3.3 13
  116.05 2.7 10
  118.0551 4.5 17
  127.0554 3.6 14
  128.0496 2.7 10
  129.0457 5.9 23
  130.0518 3.7 14
  139.055 25.7 102
  140.0508 18.7 74
  143.0609 10.5 41
  145.0762 3.9 15
  154.0651 8.3 33
  164.0496 7.6 30
  165.0564 7 27
  166.0651 65.4 260
  167.0725 34.1 135
  168.0715 13.8 55
  179.0603 2.8 11
  181.0783 2.6 10
  191.0591 7.3 29
  192.0677 86 342
  193.076 250.5 999
  194.0838 100.8 401
  195.0912 4.5 17
  205.0732 2.9 11
  206.0749 4.4 17
  220.0873 4.7 18
  222.1009 13.5 53
//
