ACCESSION: MSBNK-BAFG-CSL25011734652
RECORD_TITLE: Reactive Orange; LC-ESI-QTOF; MS2; 80 V
DATE: 2025.01.17
AUTHORS: Ole Lessmann; Kevin S. Jewell; Björn Ehlig; Arne Wick
LICENSE: dl-de/by-2-0
COPYRIGHT: Copyright 2025 Federal Institute of Hydrology, Koblenz, Germany
COMMENT: CONFIDENCE Reference Standard (Level 1)
COMMENT: Chromatography method: dx.doi.org/10.1016/j.chroma.2015.11.014
CH$NAME: Reactive Orange
CH$FORMULA: C20H19N3O11S3
CH$EXACT_MASS: 573.0182
CH$SMILES: CC(=O)NC1=CC2=C(C(=C(C=C2C=C1)S(=O)(=O)O)N=NC3=CC=C(C=C3)S(=O)(=O)CCOS(=O)(=O)O)O
CH$IUPAC: InChI=1S/C20H19N3O11S3/c1-12(24)21-15-3-2-13-10-18(36(28,29)30)19(20(25)17(13)11-15)23-22-14-4-6-16(7-5-14)35(26,27)9-8-34-37(31,32)33/h2-7,10-11,25H,8-9H2,1H3,(H,21,24)(H,28,29,30)(H,31,32,33)
CH$LINK: CAS 109603-48-7
CH$LINK: INCHIKEY INOIOAWTVPHTCJ-UHFFFAOYSA-N
AC$INSTRUMENT: TripleTOF 6600 SCIEX
AC$INSTRUMENT_TYPE: LC-ESI-QTOF
AC$MASS_SPECTROMETRY: MS_TYPE MS2
AC$MASS_SPECTROMETRY: ION_MODE POSITIVE
AC$MASS_SPECTROMETRY: COLLISION_ENERGY 80
AC$MASS_SPECTROMETRY: FRAGMENTATION_MODE CID
AC$MASS_SPECTROMETRY: IONIZATION ESI
AC$CHROMATOGRAPHY: COLUMN_NAME Zorbax Eclipse Plus C18 2.1 mm x 150 mm, 3.5 um, Agilent
AC$CHROMATOGRAPHY: COLUMN_TEMPERATURE 40 °C
AC$CHROMATOGRAPHY: FLOW_GRADIENT 0 min min 98% A, 1 min 98% A, 2 min 80% A, 16.5 min 2% A, 22 min 2% A, 22.1 min 98% A, 27 min 98% A
AC$CHROMATOGRAPHY: FLOW_RATE 0.3 mL/min
AC$CHROMATOGRAPHY: RETENTION_TIME 5.751 min
AC$CHROMATOGRAPHY: SOLVENT A: Water 0.1% Formic acid, B: Acetonitrile 0.1% Formic acid
MS$FOCUSED_ION: PRECURSOR_M/Z 574.0255
MS$FOCUSED_ION: PRECURSOR_TYPE [M+H]+
MS$DATA_PROCESSING: COMMENT Export with pycsl 0.1.0.dev1 and CSL 25.0
PK$SPLASH: splash10-05ai-1940000000-6649cdaddcca08aa6c6b
PK$NUM_PEAK: 44
PK$PEAK: m/z int. rel.int.
  46.995 3.6 17
  53.0378 2.7 13
  65.0374 2.1 10
  68.0126 2.8 13
  74.989 6.1 29
  80.0484 18.1 87
  81.0327 72.0 348
  92.0483 13.6 65
  93.0564 5.4 26
  104.0478 9.5 45
  108.0437 206.6 999
  115.0403 3.2 15
  116.0499 4.5 21
  129.0441 9.8 47
  130.0521 30.9 149
  131.0595 21.9 105
  132.0432 5.1 24
  142.0514 51.6 249
  143.0591 11.8 57
  156.0103 2.2 10
  158.0468 5.6 27
  159.0536 4.0 19
  170.0467 188.6 911
  171.0545 28.0 135
  172.0379 5.6 27
  190.0553 2.1 10
  204.0805 5.2 25
  205.074 14.9 72
  206.0815 9.1 44
  220.085 8.4 40
  231.0804 4.4 21
  232.0855 20.3 98
  233.0927 99.4 480
  234.079 10.1 48
  243.0779 2.4 11
  244.0875 4.1 19
  245.0941 4.6 22
  248.0816 6.7 32
  249.0874 5.3 25
  260.0799 19.1 92
  261.0875 56.9 275
  262.076 5.9 28
  303.0999 5.9 28
  325.0514 3.2 15
//
