ACCESSION: MSBNK-BAFG-CSL23110918882
RECORD_TITLE: Parathion-methyl; LC-ESI-QTOF; MS2; 110 V
DATE: 2023.11.09
AUTHORS: Kevin S. Jewell; Björn Ehlig; Arne Wick
LICENSE: dl-de/by-2-0
COPYRIGHT: Copyright 2023 Federal Institute of Hydrology, Koblenz, Germany
COMMENT: CONFIDENCE Reference Standard (Level 1)
COMMENT: Chromatography method: dx.doi.org/10.1016/j.chroma.2015.11.014
COMMENT: Acquisition method: 10.1002/rcm.8541
CH$NAME: Parathion-methyl
CH$COMPOUND_CLASS: Insecticide
CH$FORMULA: C8H10NO5PS
CH$EXACT_MASS: 263.0017
CH$SMILES: COP(=S)(OC)OC1=CC=C(C=C1)[N+](=O)[O-]
CH$IUPAC: InChI=1S/C8H10NO5PS/c1-12-15(16,13-2)14-8-5-3-7(4-6-8)9(10)11/h3-6H,1-2H3
CH$LINK: CAS 298-00-0
CH$LINK: INCHIKEY RLBIQVVOMOPOHC-UHFFFAOYSA-N
AC$INSTRUMENT: TripleTOF 6600 SCIEX
AC$INSTRUMENT_TYPE: LC-ESI-QTOF
AC$MASS_SPECTROMETRY: MS_TYPE MS2
AC$MASS_SPECTROMETRY: ION_MODE POSITIVE
AC$MASS_SPECTROMETRY: COLLISION_ENERGY 110
AC$MASS_SPECTROMETRY: FRAGMENTATION_MODE CID
AC$MASS_SPECTROMETRY: IONIZATION ESI
AC$CHROMATOGRAPHY: COLUMN_NAME Zorbax Eclipse Plus C18 2.1 mm x 150 mm, 3.5 um, Agilent
AC$CHROMATOGRAPHY: COLUMN_TEMPERATURE 40 °C
AC$CHROMATOGRAPHY: FLOW_GRADIENT 0 min min 98% A, 1 min 98% A, 2 min 80% A, 16.5 min 2% A, 22 min 2% A, 22.1 min 98% A, 27 min 98% A
AC$CHROMATOGRAPHY: FLOW_RATE 0.3 mL/min
AC$CHROMATOGRAPHY: RETENTION_TIME 12.495 min
AC$CHROMATOGRAPHY: SOLVENT A: Water 0.1% Formic acid, B: Acetonitrile 0.1% Formic acid
MS$FOCUSED_ION: PRECURSOR_M/Z 264.009
MS$FOCUSED_ION: PRECURSOR_TYPE [M+H]+
MS$DATA_PROCESSING: COMMENT Export with Spectra 1.9.12 MsBackendMassbank 1.7.4
MS$DATA_PROCESSING: WHOLE RMassBank 2.3.1
PK$SPLASH: splash10-0229-9000000000-8b9ad5bb4a8e3e8aaae7
PK$NUM_PEAK: 14
PK$PEAK: m/z int. rel.int.
  44.9779 3.1 462
  46.9669 2.2 328
  46.9939 1 149
  49.0059 0.6 89
  50.0141 3 447
  62.0128 1.1 164
  62.9437 1.4 208
  63.0212 1.6 238
  68.9779 2 298
  73.0067 0.8 119
  74.0134 6.7 999
  75.0209 1.6 238
  81.9854 0.6 89
  108.0004 0.9 134
//
