ACCESSION: MSBNK-BAFG-CSL2310303599
RECORD_TITLE: 2-Hydroxyestrone; LC-ESI-QTOF; MS2; 30 V
DATE: 2023.10.30
AUTHORS: Kevin S. Jewell; Björn Ehlig; Arne Wick
LICENSE: dl-de/by-2-0
COPYRIGHT: Copyright 2023 Federal Institute of Hydrology, Koblenz, Germany
COMMENT: CONFIDENCE Reference Standard (Level 1)
COMMENT: Chromatography method: dx.doi.org/10.1016/j.chroma.2015.11.014
COMMENT: Acquisition method: 10.1002/rcm.8541
CH$NAME: 2-Hydroxyestrone
CH$COMPOUND_CLASS: Pharmaceutical; Metabolite
CH$FORMULA: C18H22O3
CH$EXACT_MASS: 286.1569
CH$SMILES: C[C@]12CC[C@H]3[C@@H](CCc4cc(O)c(O)cc34)[C@@H]1CCC2=O
CH$IUPAC: InChI=1S/C18H22O3/c1-18-7-6-11-12(14(18)4-5-17(18)21)3-2-10-8-15(19)16(20)9-13(10)11/h8-9,11-12,14,19-20H,2-7H2,1H3/t11-,12+,14-,18-/m0/s1
CH$LINK: CAS 362-06-1
CH$LINK: INCHIKEY SWINWPBPEKHUOD-JPVZDGGYSA-N
AC$INSTRUMENT: TripleTOF 5600 SCIEX
AC$INSTRUMENT_TYPE: LC-ESI-QTOF
AC$MASS_SPECTROMETRY: MS_TYPE MS2
AC$MASS_SPECTROMETRY: ION_MODE POSITIVE
AC$MASS_SPECTROMETRY: COLLISION_ENERGY 30
AC$MASS_SPECTROMETRY: FRAGMENTATION_MODE CID
AC$MASS_SPECTROMETRY: IONIZATION ESI
AC$CHROMATOGRAPHY: COLUMN_NAME Zorbax Eclipse Plus C18 2.1 mm x 150 mm, 3.5 um, Agilent
AC$CHROMATOGRAPHY: COLUMN_TEMPERATURE 40 °C
AC$CHROMATOGRAPHY: FLOW_GRADIENT 0 min min 98% A, 1 min 98% A, 2 min 80% A, 16.5 min 2% A, 22 min 2% A, 22.1 min 98% A, 27 min 98% A
AC$CHROMATOGRAPHY: FLOW_RATE 0.3 mL/min
AC$CHROMATOGRAPHY: RETENTION_TIME 9.978 min
AC$CHROMATOGRAPHY: SOLVENT A: Water 0.1% Formic acid, B: Acetonitrile 0.1% Formic acid
MS$FOCUSED_ION: PRECURSOR_M/Z 287.1642
MS$FOCUSED_ION: PRECURSOR_TYPE [M+H]+
MS$DATA_PROCESSING: COMMENT Export with Spectra 1.9.12 MsBackendMassbank 1.7.4
MS$DATA_PROCESSING: WHOLE RMassBank 2.3.1
PK$SPLASH: splash10-00vj-0950000000-c2da1ab38e0bfb8e4165
PK$NUM_PEAK: 33
PK$PEAK: m/z int. rel.int.
  81.0724 1 75
  93.0702 0.5 37
  103.0526 0.4 30
  107.0845 0.8 60
  113.0579 0.5 37
  123.0424 2.1 158
  129.0697 0.9 68
  131.0479 1.2 90
  149.059 9.9 749
  157.0628 0.8 60
  161.0591 1.6 121
  166.0829 0.5 37
  167.0836 0.6 45
  173.0582 6.7 507
  175.0755 13.2 999
  183.0802 0.5 37
  183.1146 0.4 30
  187.0711 0.7 52
  189.0914 0.6 45
  195.0787 1.1 83
  199.0738 2.1 158
  201.0929 0.6 45
  209.0918 0.5 37
  211.113 1.4 105
  213.0909 6.3 476
  214.0981 1.1 83
  217.1218 1.5 113
  227.1071 2 151
  228.1165 0.4 30
  229.1208 2.1 158
  251.1422 0.7 52
  269.1523 8.9 673
  287.1669 0.7 52
//
