ACCESSION: MSBNK-BAFG-CSL23103015223
RECORD_TITLE: Dimethachlor; LC-ESI-QTOF; MS2; 40 V
DATE: 2023.10.30
AUTHORS: Kevin S. Jewell; Björn Ehlig; Arne Wick
LICENSE: dl-de/by-2-0
COPYRIGHT: Copyright 2023 Federal Institute of Hydrology, Koblenz, Germany
COMMENT: CONFIDENCE Reference Standard (Level 1)
COMMENT: Chromatography method: dx.doi.org/10.1016/j.chroma.2015.11.014
COMMENT: Acquisition method: 10.1002/rcm.8541
CH$NAME: Dimethachlor
CH$COMPOUND_CLASS: Herbicide
CH$FORMULA: C13H18ClNO2
CH$EXACT_MASS: 255.1026
CH$SMILES: CC1=C(C(=CC=C1)C)N(CCOC)C(=O)CCl
CH$IUPAC: InChI=1S/C13H18ClNO2/c1-10-5-4-6-11(2)13(10)15(7-8-17-3)12(16)9-14/h4-6H,7-9H2,1-3H3
CH$LINK: CAS 50563-36-5
CH$LINK: INCHIKEY SCCDDNKJYDZXMM-UHFFFAOYSA-N
AC$INSTRUMENT: TripleTOF 6600 SCIEX
AC$INSTRUMENT_TYPE: LC-ESI-QTOF
AC$MASS_SPECTROMETRY: MS_TYPE MS2
AC$MASS_SPECTROMETRY: ION_MODE POSITIVE
AC$MASS_SPECTROMETRY: COLLISION_ENERGY 40
AC$MASS_SPECTROMETRY: FRAGMENTATION_MODE CID
AC$MASS_SPECTROMETRY: IONIZATION ESI
AC$CHROMATOGRAPHY: COLUMN_NAME Zorbax Eclipse Plus C18 2.1 mm x 150 mm, 3.5 um, Agilent
AC$CHROMATOGRAPHY: COLUMN_TEMPERATURE 40 °C
AC$CHROMATOGRAPHY: FLOW_GRADIENT 0 min min 98% A, 1 min 98% A, 2 min 80% A, 16.5 min 2% A, 22 min 2% A, 22.1 min 98% A, 27 min 98% A
AC$CHROMATOGRAPHY: FLOW_RATE 0.3 mL/min
AC$CHROMATOGRAPHY: RETENTION_TIME 10.992 min
AC$CHROMATOGRAPHY: SOLVENT A: Water 0.1% Formic acid, B: Acetonitrile 0.1% Formic acid
MS$FOCUSED_ION: PRECURSOR_M/Z 256.1099
MS$FOCUSED_ION: PRECURSOR_TYPE [M+H]+
MS$DATA_PROCESSING: COMMENT Export with Spectra 1.9.12 MsBackendMassbank 1.7.4
MS$DATA_PROCESSING: WHOLE RMassBank 2.3.1
PK$SPLASH: splash10-0002-1900000000-ba503af844b9e271bd67
PK$NUM_PEAK: 24
PK$PEAK: m/z int. rel.int.
  48.9843 10.6 46
  76.9788 11.1 48
  77.0387 6 26
  79.0546 12.3 53
  91.0541 7.2 31
  103.0543 8.1 35
  105.0701 42 183
  106.0779 3.7 16
  107.0859 2.9 12
  117.0573 3.1 13
  118.0652 11.9 51
  119.0854 5.4 23
  120.0805 6.1 26
  121.0647 3.8 16
  131.073 6.6 28
  131.0839 5.1 22
  132.0808 40.5 176
  133.0888 24.5 106
  144.081 3.7 16
  146.096 10.5 45
  147.1041 4 17
  148.1123 228.9 999
  174.09 6.1 26
  224.0831 45.6 199
//
