ACCESSION: MSBNK-BAFG-CSL25010634190
RECORD_TITLE: 4'-O-Demethyl pantoprazole sulfide; LC-ESI-QTOF; MS2; 120 V
DATE: 2025.01.06
AUTHORS: Ole Lessmann; Kevin S. Jewell; Björn Ehlig; Arne Wick
LICENSE: dl-de/by-2-0
COPYRIGHT: Copyright 2025 Federal Institute of Hydrology, Koblenz, Germany
COMMENT: CONFIDENCE Reference Standard (Level 1)
COMMENT: Chromatography method: dx.doi.org/10.1016/j.chroma.2015.11.014
COMMENT: Acquisition method: 10.1002/rcm.8541
CH$NAME: 4'-O-Demethyl pantoprazole sulfide
CH$COMPOUND_CLASS: Pharmaceutical; Transformation_product-Metabolite
CH$FORMULA: C15H13F2N3O3S
CH$EXACT_MASS: 353.0646
CH$SMILES: COC1=C(NC=CC1=O)CSC2=NC3=C(N2)C=C(C=C3)OC(F)F
CH$IUPAC: InChI=1S/C15H13F2N3O3S/c1-22-13-11(18-5-4-12(13)21)7-24-15-19-9-3-2-8(23-14(16)17)6-10(9)20-15/h2-6,14H,7H2,1H3,(H,18,21)(H,19,20)
CH$LINK: CAS 141854-21-9
CH$LINK: INCHIKEY ILLQTAPXYCRJRB-UHFFFAOYSA-N
AC$INSTRUMENT: TripleTOF 6600 SCIEX
AC$INSTRUMENT_TYPE: LC-ESI-QTOF
AC$MASS_SPECTROMETRY: MS_TYPE MS2
AC$MASS_SPECTROMETRY: ION_MODE POSITIVE
AC$MASS_SPECTROMETRY: COLLISION_ENERGY 120
AC$MASS_SPECTROMETRY: FRAGMENTATION_MODE CID
AC$MASS_SPECTROMETRY: IONIZATION ESI
AC$CHROMATOGRAPHY: COLUMN_NAME Zorbax Eclipse Plus C18 2.1 mm x 150 mm, 3.5 um, Agilent
AC$CHROMATOGRAPHY: COLUMN_TEMPERATURE 40 °C
AC$CHROMATOGRAPHY: FLOW_GRADIENT 0 min min 98% A, 1 min 98% A, 2 min 80% A, 16.5 min 2% A, 22 min 2% A, 22.1 min 98% A, 27 min 98% A
AC$CHROMATOGRAPHY: FLOW_RATE 0.3 mL/min
AC$CHROMATOGRAPHY: RETENTION_TIME 7.57 min
AC$CHROMATOGRAPHY: SOLVENT A: Water 0.1% Formic acid, B: Acetonitrile 0.1% Formic acid
MS$FOCUSED_ION: PRECURSOR_M/Z 354.0719
MS$FOCUSED_ION: PRECURSOR_TYPE [M+H]+
MS$DATA_PROCESSING: COMMENT Export with pycsl 0.1.0.dev1 and CSL 24.4
PK$SPLASH: splash10-0uy3-9000000000-d7380c74c6343fcd279a
PK$NUM_PEAK: 72
PK$PEAK: m/z int. rel.int.
  35.9993 0.5 13
  37.0068 6.6 181
  38.0145 6.5 178
  39.0224 30.3 833
  40.0183 0.5 13
  40.0305 0.4 11
  41.0251 6.9 189
  41.0375 0.6 16
  42.0333 11.4 313
  43.0173 2.5 68
  44.0122 1.6 44
  44.9783 0.8 22
  50.0147 0.9 24
  51.0224 4.2 115
  52.017 4.0 110
  52.0287 1.2 33
  53.0016 5.5 151
  53.0378 36.3 999
  54.0326 3.1 85
  55.0172 3.4 93
  57.9865 0.7 19
  61.006 0.8 22
  62.0141 2.3 63
  63.0218 14.1 388
  64.0167 4.4 121
  64.0278 0.5 13
  65.0375 5.3 145
  66.0086 14.4 396
  66.0317 4.1 112
  66.0438 0.8 22
  67.0168 9.5 261
  67.0402 11.0 302
  68.0116 5.4 148
  68.0491 0.6 16
  68.9774 0.5 13
  70.0285 2.6 71
  70.9942 3.2 88
  72.001 0.7 19
  76.0174 0.6 16
  78.032 3.3 90
  79.0404 2.2 60
  80.0105 0.8 22
  80.0484 13.0 357
  81.032 4.4 121
  82.0274 1.0 27
  83.0353 2.3 63
  86.0027 1.3 35
  90.0326 2.9 79
  91.0415 2.1 57
  92.0488 4.3 118
  93.0551 0.5 13
  94.0274 7.1 195
  95.0344 3.2 88
  96.0428 2.7 74
  98.0045 1.3 35
  99.0115 0.8 22
  105.0422 0.4 11
  106.0539 0.5 13
  107.0599 0.8 22
  108.0447 1.6 44
  109.051 0.6 16
  110.0595 0.5 13
  111.0304 0.7 19
  117.0431 2.0 55
  118.0493 2.6 71
  120.0425 0.5 13
  125.9998 8.5 233
  134.0439 0.7 19
  135.0507 0.7 19
  136.0379 2.8 77
  137.0208 0.4 11
  159.0525 0.6 16
//