ACCESSION: MSBNK-BAFG-CSL23111016687
RECORD_TITLE: Flufenacet; LC-ESI-QTOF; MS2; 150 V
DATE: 2023.11.10
AUTHORS: Kevin S. Jewell; Björn Ehlig; Arne Wick
LICENSE: dl-de/by-2-0
COPYRIGHT: Copyright 2023 Federal Institute of Hydrology, Koblenz, Germany
COMMENT: CONFIDENCE Reference Standard (Level 1)
COMMENT: Chromatography method: dx.doi.org/10.1016/j.chroma.2015.11.014
COMMENT: Acquisition method: 10.1002/rcm.8541
CH$NAME: Flufenacet
CH$COMPOUND_CLASS: Herbicide
CH$FORMULA: C14H13F4N3O2S
CH$EXACT_MASS: 363.0665
CH$SMILES: CC(C)N(C1=CC=C(C=C1)F)C(=O)COC2=NN=C(S2)C(F)(F)F
CH$IUPAC: InChI=1S/C14H13F4N3O2S/c1-8(2)21(10-5-3-9(15)4-6-10)11(22)7-23-13-20-19-12(24-13)14(16,17)18/h3-6,8H,7H2,1-2H3
CH$LINK: CAS 142459-58-3
CH$LINK: INCHIKEY IANUJLZYFUDJIH-UHFFFAOYSA-N
AC$INSTRUMENT: TripleTOF 6600 SCIEX
AC$INSTRUMENT_TYPE: LC-ESI-QTOF
AC$MASS_SPECTROMETRY: MS_TYPE MS2
AC$MASS_SPECTROMETRY: ION_MODE POSITIVE
AC$MASS_SPECTROMETRY: COLLISION_ENERGY 150
AC$MASS_SPECTROMETRY: FRAGMENTATION_MODE CID
AC$MASS_SPECTROMETRY: IONIZATION ESI
AC$CHROMATOGRAPHY: COLUMN_NAME Zorbax Eclipse Plus C18 2.1 mm x 150 mm, 3.5 um, Agilent
AC$CHROMATOGRAPHY: COLUMN_TEMPERATURE 40 °C
AC$CHROMATOGRAPHY: FLOW_GRADIENT 0 min min 98% A, 1 min 98% A, 2 min 80% A, 16.5 min 2% A, 22 min 2% A, 22.1 min 98% A, 27 min 98% A
AC$CHROMATOGRAPHY: FLOW_RATE 0.3 mL/min
AC$CHROMATOGRAPHY: RETENTION_TIME 13.345 min
AC$CHROMATOGRAPHY: SOLVENT A: Water 0.1% Formic acid, B: Acetonitrile 0.1% Formic acid
MS$FOCUSED_ION: PRECURSOR_M/Z 364.0738
MS$FOCUSED_ION: PRECURSOR_TYPE [M+H]+
MS$DATA_PROCESSING: COMMENT Export with Spectra 1.9.12 MsBackendMassbank 1.7.4
MS$DATA_PROCESSING: WHOLE RMassBank 2.3.1
PK$SPLASH: splash10-0fi0-9000000000-5d5d62d7a81731f9c82c
PK$NUM_PEAK: 33
PK$PEAK: m/z int. rel.int.
  30.9977 2.4 14
  37.0074 3.7 22
  38.0149 2.9 17
  39.023 11 66
  41.0387 2.9 17
  49.0073 11.6 69
  50.0152 56.9 342
  51.023 94.2 567
  52.0181 2.2 13
  57.0136 65.7 395
  59.0288 2.9 17
  61.0073 6.1 36
  62.0149 10.3 62
  63.0229 16.9 101
  69.0132 11.5 69
  70.0214 11.8 71
  73.0074 11.1 66
  74.0154 165.9 999
  75.0231 138.8 835
  76.0181 5.4 32
  77.0386 40.4 243
  78.0335 2.4 14
  81.0134 12.1 72
  83.0293 26.3 158
  89.0379 2.2 13
  95.0292 29.3 176
  96.0367 15.2 91
  97.0444 1.8 10
  107.0292 13.6 81
  108.0369 1.7 10
  109.0445 6 36
  122.0399 3.2 19
  123.0351 5.8 34
//
