ACCESSION: MSBNK-BAFG-CSL23110918618
RECORD_TITLE: Flutamide; LC-ESI-QTOF; MS2; 90 V
DATE: 2023.11.09
AUTHORS: Kevin S. Jewell; Björn Ehlig; Arne Wick
LICENSE: dl-de/by-2-0
COPYRIGHT: Copyright 2023 Federal Institute of Hydrology, Koblenz, Germany
COMMENT: CONFIDENCE Reference Standard (Level 1)
COMMENT: Chromatography method: dx.doi.org/10.1016/j.chroma.2015.11.014
COMMENT: Acquisition method: 10.1002/rcm.8541
CH$NAME: Flutamide
CH$COMPOUND_CLASS: Pharmaceutical
CH$FORMULA: C11H11F3N2O3
CH$EXACT_MASS: 276.0722
CH$SMILES: CC(C)C(=O)NC1=CC(=C(C=C1)[N+](=O)[O-])C(F)(F)F
CH$IUPAC: InChI=1S/C11H11F3N2O3/c1-6(2)10(17)15-7-3-4-9(16(18)19)8(5-7)11(12,13)14/h3-6H,1-2H3,(H,15,17)
CH$LINK: CAS 13311-84-7
CH$LINK: INCHIKEY MKXKFYHWDHIYRV-UHFFFAOYSA-N
AC$INSTRUMENT: TripleTOF 6600 SCIEX
AC$INSTRUMENT_TYPE: LC-ESI-QTOF
AC$MASS_SPECTROMETRY: MS_TYPE MS2
AC$MASS_SPECTROMETRY: ION_MODE POSITIVE
AC$MASS_SPECTROMETRY: COLLISION_ENERGY 90
AC$MASS_SPECTROMETRY: FRAGMENTATION_MODE CID
AC$MASS_SPECTROMETRY: IONIZATION ESI
AC$CHROMATOGRAPHY: COLUMN_NAME Zorbax Eclipse Plus C18 2.1 mm x 150 mm, 3.5 um, Agilent
AC$CHROMATOGRAPHY: COLUMN_TEMPERATURE 40 °C
AC$CHROMATOGRAPHY: FLOW_GRADIENT 0 min min 98% A, 1 min 98% A, 2 min 80% A, 16.5 min 2% A, 22 min 2% A, 22.1 min 98% A, 27 min 98% A
AC$CHROMATOGRAPHY: FLOW_RATE 0.3 mL/min
AC$CHROMATOGRAPHY: RETENTION_TIME 12.297 min
AC$CHROMATOGRAPHY: SOLVENT A: Water 0.1% Formic acid, B: Acetonitrile 0.1% Formic acid
MS$FOCUSED_ION: PRECURSOR_M/Z 277.0795
MS$FOCUSED_ION: PRECURSOR_TYPE [M+H]+
MS$DATA_PROCESSING: COMMENT Export with Spectra 1.9.12 MsBackendMassbank 1.7.4
MS$DATA_PROCESSING: WHOLE RMassBank 2.3.1
PK$SPLASH: splash10-0006-9200000000-77515904b93c7350c782
PK$NUM_PEAK: 53
PK$PEAK: m/z int. rel.int.
  37.0066 0.7 61
  38.0021 0.7 61
  38.0136 1.1 97
  39.0224 5.2 459
  41.0387 11.3 999
  43.0538 5.6 495
  51.0041 0.3 26
  52.0047 0.3 26
  52.0167 0.3 26
  53.0103 0.2 17
  60.9849 0.2 17
  64.0304 0.3 26
  65.0379 1.3 114
  68.994 0.2 17
  74.0158 0.3 26
  75.0012 0.4 35
  75.0224 0.8 70
  76.0201 0.3 26
  77.0352 0.2 17
  83.0293 0.5 44
  84.0361 1.8 159
  85.0315 0.2 17
  88.01 1.2 106
  91.04 0.5 44
  91.0514 0.4 35
  92.0476 0.4 35
  93.0136 0.3 26
  94.0189 0.3 26
  95.0286 1.4 123
  96.0235 0.2 17
  99.0037 0.2 17
  99.0084 0.3 26
  100.0163 0.2 17
  101.0179 0.4 35
  101.0444 0.2 17
  102.0405 0.3 26
  111.0459 1.3 114
  113.0183 0.8 70
  114.0254 2.1 185
  115.0312 0.4 35
  115.0578 0.3 26
  120.0229 0.2 17
  123.0332 0.2 17
  125.0207 0.7 61
  126.0468 0.2 17
  133.0225 0.1 8
  140.0293 0.4 35
  141.0237 0.4 35
  142.0472 1.2 106
  143.0046 0.2 17
  145.0275 0.3 26
  148.0282 0.2 17
  160.0266 0.5 44
//
