ACCESSION: MSBNK-BAFG-CSL25010631488
RECORD_TITLE: Diethylamino hydroxybenzoyl hexyl benzoate; LC-ESI-QTOF; MS2; 120 V
DATE: 2025.01.06
AUTHORS: Ole Lessmann; Kevin S. Jewell; Björn Ehlig; Arne Wick
LICENSE: dl-de/by-2-0
COPYRIGHT: Copyright 2025 Federal Institute of Hydrology, Koblenz, Germany
COMMENT: CONFIDENCE Reference Standard (Level 1)
COMMENT: Chromatography method: dx.doi.org/10.1016/j.chroma.2015.11.014
COMMENT: Acquisition method: 10.1002/rcm.8541
CH$NAME: Diethylamino hydroxybenzoyl hexyl benzoate
CH$FORMULA: C24H31NO4
CH$EXACT_MASS: 397.2253
CH$SMILES: CCCCCCOC(=O)C1=CC=CC=C1C(=O)C2=C(C=C(C=C2)N(CC)CC)O
CH$IUPAC: InChI=1S/C24H31NO4/c1-4-7-8-11-16-29-24(28)20-13-10-9-12-19(20)23(27)21-15-14-18(17-22(21)26)25(5-2)6-3/h9-10,12-15,17,26H,4-8,11,16H2,1-3H3
CH$LINK: CAS 302776-68-7
CH$LINK: INCHIKEY FDATWRLUYRHCJE-UHFFFAOYSA-N
AC$INSTRUMENT: TripleTOF 6600 SCIEX
AC$INSTRUMENT_TYPE: LC-ESI-QTOF
AC$MASS_SPECTROMETRY: MS_TYPE MS2
AC$MASS_SPECTROMETRY: ION_MODE POSITIVE
AC$MASS_SPECTROMETRY: COLLISION_ENERGY 120
AC$MASS_SPECTROMETRY: FRAGMENTATION_MODE CID
AC$MASS_SPECTROMETRY: IONIZATION ESI
AC$CHROMATOGRAPHY: COLUMN_NAME Zorbax Eclipse Plus C18 2.1 mm x 150 mm, 3.5 um, Agilent
AC$CHROMATOGRAPHY: COLUMN_TEMPERATURE 40 °C
AC$CHROMATOGRAPHY: FLOW_GRADIENT 0 min min 98% A, 1 min 98% A, 2 min 80% A, 16.5 min 2% A, 22 min 2% A, 22.1 min 98% A, 27 min 98% A
AC$CHROMATOGRAPHY: FLOW_RATE 0.3 mL/min
AC$CHROMATOGRAPHY: RETENTION_TIME 17.769 min
AC$CHROMATOGRAPHY: SOLVENT A: Water 0.1% Formic acid, B: Acetonitrile 0.1% Formic acid
MS$FOCUSED_ION: PRECURSOR_M/Z 398.2326
MS$FOCUSED_ION: PRECURSOR_TYPE [M+H]+
MS$DATA_PROCESSING: COMMENT Export with pycsl 0.1.0.dev1 and CSL 24.4
PK$SPLASH: splash10-00kr-2900000000-f6b2a5577d37d1c10087
PK$NUM_PEAK: 65
PK$PEAK: m/z int. rel.int.
  39.0232 103.9 102
  41.0385 34.3 33
  43.0542 13.4 13
  51.0227 21.5 21
  53.0383 19.3 19
  63.0226 26.0 25
  65.0386 244.5 241
  68.0128 14.5 14
  75.0224 16.1 15
  76.0305 14.3 14
  77.0382 149.6 147
  78.0336 10.5 10
  80.0491 118.7 117
  87.0223 14.4 14
  89.0379 90.2 89
  91.0527 17.2 16
  93.0335 21.9 21
  101.0377 21.2 20
  102.0461 34.9 34
  105.0334 21.0 20
  108.044 10.6 10
  113.0379 78.9 77
  114.0455 28.7 28
  115.0537 249.7 246
  119.0126 15.0 14
  120.0436 10.5 10
  121.0281 12.7 12
  125.0369 24.1 23
  126.0455 74.3 73
  127.0539 156.5 154
  128.0609 147.6 145
  137.0377 29.4 29
  138.0456 87.9 86
  139.0541 1012.3 999
  140.0546 91.5 90
  141.0691 50.0 49
  149.0379 14.2 14
  150.0452 74.5 73
  151.0536 122.1 120
  152.061 180.2 177
  153.0593 37.7 37
  154.0644 72.8 71
  155.0533 25.8 25
  163.0528 12.5 12
  164.0543 33.0 32
  165.0691 49.0 48
  166.0411 17.9 17
  166.064 49.7 49
  167.0487 29.8 29
  167.0713 49.4 48
  168.0566 138.2 136
  176.0608 21.2 20
  177.0569 25.6 25
  178.0631 13.6 13
  182.0603 12.2 12
  183.0439 10.8 10
  184.0514 33.3 32
  191.0729 13.9 13
  194.0365 23.0 22
  194.0566 24.4 24
  195.0654 46.9 46
  196.0491 17.3 17
  197.0589 26.2 25
  210.0293 13.4 13
  223.0617 11.8 11
//