ACCESSION: MSBNK-BAFG-CSL2311109323
RECORD_TITLE: O-desmethyl-venlafaxine; LC-ESI-QTOF; MS2; 60 V
DATE: 2023.11.10
AUTHORS: Kevin S. Jewell; Björn Ehlig; Arne Wick
LICENSE: dl-de/by-2-0
COPYRIGHT: Copyright 2023 Federal Institute of Hydrology, Koblenz, Germany
COMMENT: CONFIDENCE Reference Standard (Level 1)
COMMENT: Chromatography method: dx.doi.org/10.1016/j.chroma.2015.11.014
COMMENT: Acquisition method: 10.1002/rcm.8541
CH$NAME: O-desmethyl-venlafaxine
CH$COMPOUND_CLASS: Metabolite; Pharmaceutical
CH$FORMULA: C16H25NO2
CH$EXACT_MASS: 263.1885
CH$SMILES: CN(C)CC(C1=CC=C(C=C1)O)C2(CCCCC2)O
CH$IUPAC: InChI=1S/C16H25NO2/c1-17(2)12-15(13-6-8-14(18)9-7-13)16(19)10-4-3-5-11-16/h6-9,15,18-19H,3-5,10-12H2,1-2H3
CH$LINK: CAS 93413-62-8
CH$LINK: INCHIKEY KYYIDSXMWOZKMP-UHFFFAOYSA-N
AC$INSTRUMENT: TripleTOF 5600 SCIEX
AC$INSTRUMENT_TYPE: LC-ESI-QTOF
AC$MASS_SPECTROMETRY: MS_TYPE MS2
AC$MASS_SPECTROMETRY: ION_MODE POSITIVE
AC$MASS_SPECTROMETRY: COLLISION_ENERGY 60
AC$MASS_SPECTROMETRY: FRAGMENTATION_MODE CID
AC$MASS_SPECTROMETRY: IONIZATION ESI
AC$CHROMATOGRAPHY: COLUMN_NAME Zorbax Eclipse Plus C18 2.1 mm x 150 mm, 3.5 um, Agilent
AC$CHROMATOGRAPHY: COLUMN_TEMPERATURE 40 °C
AC$CHROMATOGRAPHY: FLOW_GRADIENT 0 min min 98% A, 1 min 98% A, 2 min 80% A, 16.5 min 2% A, 22 min 2% A, 22.1 min 98% A, 27 min 98% A
AC$CHROMATOGRAPHY: FLOW_RATE 0.3 mL/min
AC$CHROMATOGRAPHY: RETENTION_TIME 5.367 min
AC$CHROMATOGRAPHY: SOLVENT A: Water 0.1% Formic acid, B: Acetonitrile 0.1% Formic acid
MS$FOCUSED_ION: PRECURSOR_M/Z 264.1958
MS$FOCUSED_ION: PRECURSOR_TYPE [M+H]+
MS$DATA_PROCESSING: COMMENT Export with Spectra 1.9.12 MsBackendMassbank 1.7.4
MS$DATA_PROCESSING: WHOLE RMassBank 2.3.1
PK$SPLASH: splash10-0a4i-9600000000-70df067c930aa3e66a74
PK$NUM_PEAK: 23
PK$PEAK: m/z int. rel.int.
  42.0487 4.5 36
  56.0598 1.7 13
  58.0745 122.9 999
  77.0441 36.2 294
  79.0595 21.9 178
  81.0749 8.5 69
  91.0575 7.9 64
  103.0569 6.8 55
  105.0714 18.1 147
  107.0508 84.1 683
  115.0552 9.3 75
  116.064 2.3 18
  117.0718 1.3 10
  121.0683 2.3 18
  127.0561 4.1 33
  131.0487 2.8 22
  131.0883 1.3 10
  133.0658 10.5 85
  141.071 3.2 26
  144.0576 6.8 55
  145.0647 2.6 21
  149.0843 1.3 10
  159.0796 1.3 10
//
