ACCESSION: MSBNK-BAFG-CSL25010634187
RECORD_TITLE: 4'-O-Demethyl pantoprazole sulfide; LC-ESI-QTOF; MS2; 90 V
DATE: 2025.01.06
AUTHORS: Ole Lessmann; Kevin S. Jewell; Björn Ehlig; Arne Wick
LICENSE: dl-de/by-2-0
COPYRIGHT: Copyright 2025 Federal Institute of Hydrology, Koblenz, Germany
COMMENT: CONFIDENCE Reference Standard (Level 1)
COMMENT: Chromatography method: dx.doi.org/10.1016/j.chroma.2015.11.014
COMMENT: Acquisition method: 10.1002/rcm.8541
CH$NAME: 4'-O-Demethyl pantoprazole sulfide
CH$COMPOUND_CLASS: Pharmaceutical; Transformation_product-Metabolite
CH$FORMULA: C15H13F2N3O3S
CH$EXACT_MASS: 353.0646
CH$SMILES: COC1=C(NC=CC1=O)CSC2=NC3=C(N2)C=C(C=C3)OC(F)F
CH$IUPAC: InChI=1S/C15H13F2N3O3S/c1-22-13-11(18-5-4-12(13)21)7-24-15-19-9-3-2-8(23-14(16)17)6-10(9)20-15/h2-6,14H,7H2,1H3,(H,18,21)(H,19,20)
CH$LINK: CAS 141854-21-9
CH$LINK: INCHIKEY ILLQTAPXYCRJRB-UHFFFAOYSA-N
AC$INSTRUMENT: TripleTOF 6600 SCIEX
AC$INSTRUMENT_TYPE: LC-ESI-QTOF
AC$MASS_SPECTROMETRY: MS_TYPE MS2
AC$MASS_SPECTROMETRY: ION_MODE POSITIVE
AC$MASS_SPECTROMETRY: COLLISION_ENERGY 90
AC$MASS_SPECTROMETRY: FRAGMENTATION_MODE CID
AC$MASS_SPECTROMETRY: IONIZATION ESI
AC$CHROMATOGRAPHY: COLUMN_NAME Zorbax Eclipse Plus C18 2.1 mm x 150 mm, 3.5 um, Agilent
AC$CHROMATOGRAPHY: COLUMN_TEMPERATURE 40 °C
AC$CHROMATOGRAPHY: FLOW_GRADIENT 0 min min 98% A, 1 min 98% A, 2 min 80% A, 16.5 min 2% A, 22 min 2% A, 22.1 min 98% A, 27 min 98% A
AC$CHROMATOGRAPHY: FLOW_RATE 0.3 mL/min
AC$CHROMATOGRAPHY: RETENTION_TIME 7.57 min
AC$CHROMATOGRAPHY: SOLVENT A: Water 0.1% Formic acid, B: Acetonitrile 0.1% Formic acid
MS$FOCUSED_ION: PRECURSOR_M/Z 354.0719
MS$FOCUSED_ION: PRECURSOR_TYPE [M+H]+
MS$DATA_PROCESSING: COMMENT Export with pycsl 0.1.0.dev1 and CSL 24.4
PK$SPLASH: splash10-0uyr-9300000000-3e7a3d8535b530eb1352
PK$NUM_PEAK: 72
PK$PEAK: m/z int. rel.int.
  37.0064 2.6 35
  38.014 2.6 35
  39.0221 22.7 312
  41.0251 3.2 44
  41.038 1.6 22
  42.033 13.8 189
  43.0173 2.6 35
  44.0123 1.1 15
  51.0221 2.5 34
  52.0181 1.4 19
  53.0008 4.0 55
  53.0378 72.6 999
  54.033 3.6 49
  55.0178 4.8 66
  62.0153 1.9 26
  63.022 20.5 282
  64.0167 3.6 49
  65.0377 8.4 115
  66.0089 10.6 145
  66.032 5.7 78
  66.0445 2.4 33
  67.017 24.3 334
  67.0399 22.1 304
  68.0116 8.9 122
  68.0484 2.2 30
  70.0277 5.3 72
  70.9932 1.1 15
  72.0017 0.8 11
  78.033 4.5 61
  79.0401 2.3 31
  80.0117 2.7 37
  80.0484 38.3 527
  81.0323 7.9 108
  82.0285 1.2 16
  82.0628 3.8 52
  83.0353 3.6 49
  86.0034 2.5 34
  90.0323 9.4 129
  91.0416 1.8 24
  92.0482 9.3 127
  93.0564 5.9 81
  94.0276 13.7 188
  95.0343 15.5 213
  96.0431 13.0 178
  98.005 1.6 22
  98.0594 1.0 13
  99.0112 5.8 79
  106.0501 2.1 28
  107.0592 4.9 67
  108.0427 19.3 265
  109.0506 2.3 31
  110.059 6.2 85
  111.0303 3.0 41
  117.0432 8.1 111
  118.0513 9.9 136
  120.0425 3.0 41
  125.999 24.6 338
  126.0517 0.8 11
  127.007 7.4 101
  134.045 1.6 22
  135.0529 21.2 291
  136.0375 21.1 290
  137.0143 2.3 31
  138.0004 0.8 11
  138.0522 2.3 31
  140.0168 1.5 20
  142.0497 1.5 20
  147.053 0.7 9
  155.0038 2.0 27
  159.0555 1.8 24
  165.0077 0.8 11
  166.0164 2.7 37
//