ACCESSION: MSBNK-BAFG-CSL2311097299
RECORD_TITLE: 2-N-methyl-lamotrigine; LC-ESI-QTOF; MS2; 40 V
DATE: 2023.11.09
AUTHORS: Kevin S. Jewell; Björn Ehlig; Arne Wick
LICENSE: dl-de/by-2-0
COPYRIGHT: Copyright 2023 Federal Institute of Hydrology, Koblenz, Germany
COMMENT: CONFIDENCE Reference Standard (Level 1)
COMMENT: Chromatography method: dx.doi.org/10.1016/j.chroma.2015.11.014
COMMENT: Acquisition method: 10.1002/rcm.8541
CH$NAME: 2-N-methyl-lamotrigine
CH$COMPOUND_CLASS: Metabolite; Pharmaceutical
CH$FORMULA: C10H9Cl2N5
CH$EXACT_MASS: 269.0235
CH$SMILES: CN1N=C(C2=CC=CC(Cl)=C2Cl)C(N)=NC1=N
CH$IUPAC: InChI=1S/C10H9Cl2N5/c1-17-10(14)15-9(13)8(16-17)5-3-2-4-6(11)7(5)12/h2-4H,1H3,(H3,13,14,15)
CH$LINK: CAS NA
CH$LINK: INCHIKEY ODYWNHAUROHCSD-UHFFFAOYSA-N
AC$INSTRUMENT: TripleTOF 5600 SCIEX
AC$INSTRUMENT_TYPE: LC-ESI-QTOF
AC$MASS_SPECTROMETRY: MS_TYPE MS2
AC$MASS_SPECTROMETRY: ION_MODE POSITIVE
AC$MASS_SPECTROMETRY: COLLISION_ENERGY 40
AC$MASS_SPECTROMETRY: FRAGMENTATION_MODE CID
AC$MASS_SPECTROMETRY: IONIZATION ESI
AC$CHROMATOGRAPHY: COLUMN_NAME Zorbax Eclipse Plus C18 2.1 mm x 150 mm, 3.5 um, Agilent
AC$CHROMATOGRAPHY: COLUMN_TEMPERATURE 40 °C
AC$CHROMATOGRAPHY: FLOW_GRADIENT 0 min min 98% A, 1 min 98% A, 2 min 80% A, 16.5 min 2% A, 22 min 2% A, 22.1 min 98% A, 27 min 98% A
AC$CHROMATOGRAPHY: FLOW_RATE 0.3 mL/min
AC$CHROMATOGRAPHY: RETENTION_TIME 6.444 min
AC$CHROMATOGRAPHY: SOLVENT A: Water 0.1% Formic acid, B: Acetonitrile 0.1% Formic acid
MS$FOCUSED_ION: PRECURSOR_M/Z 270.0308
MS$FOCUSED_ION: PRECURSOR_TYPE [M+H]+
MS$DATA_PROCESSING: COMMENT Export with Spectra 1.9.12 MsBackendMassbank 1.7.4
MS$DATA_PROCESSING: WHOLE RMassBank 2.3.1
PK$SPLASH: splash10-00di-1190000000-d29cb35fa7bcf544c2aa
PK$NUM_PEAK: 13
PK$PEAK: m/z int. rel.int.
  57.0504 137.1 244
  159.9707 8.4 14
  165.0216 8.5 15
  166.0281 8.9 15
  171.9711 33.4 59
  184.9789 41 73
  185.9758 8.2 14
  191.0226 8.1 14
  200.9979 109.7 195
  228.0075 7 12
  234.0532 24.5 43
  243.0193 7.2 12
  270.0309 560 999
//
