ACCESSION: MSBNK-BAFG-CSL23111019184
RECORD_TITLE: Flazasulfuron; LC-ESI-QTOF; MS2; 80 V
DATE: 2023.11.10
AUTHORS: Kevin S. Jewell; Björn Ehlig; Arne Wick
LICENSE: dl-de/by-2-0
COPYRIGHT: Copyright 2023 Federal Institute of Hydrology, Koblenz, Germany
COMMENT: CONFIDENCE Reference Standard (Level 1)
COMMENT: Chromatography method: dx.doi.org/10.1016/j.chroma.2015.11.014
COMMENT: Acquisition method: 10.1002/rcm.8541
CH$NAME: Flazasulfuron
CH$COMPOUND_CLASS: Herbicide
CH$FORMULA: C13H12F3N5O5S
CH$EXACT_MASS: 407.0511
CH$SMILES: COC1=CC(=NC(=N1)NC(=O)NS(=O)(=O)C2=C(C=CC=N2)C(F)(F)F)OC
CH$IUPAC: InChI=1S/C13H12F3N5O5S/c1-25-8-6-9(26-2)19-11(18-8)20-12(22)21-27(23,24)10-7(13(14,15)16)4-3-5-17-10/h3-6H,1-2H3,(H2,18,19,20,21,22)
CH$LINK: CAS 104040-78-0
CH$LINK: INCHIKEY HWATZEJQIXKWQS-UHFFFAOYSA-N
AC$INSTRUMENT: TripleTOF 6600 SCIEX
AC$INSTRUMENT_TYPE: LC-ESI-QTOF
AC$MASS_SPECTROMETRY: MS_TYPE MS2
AC$MASS_SPECTROMETRY: ION_MODE NEGATIVE
AC$MASS_SPECTROMETRY: COLLISION_ENERGY 80
AC$MASS_SPECTROMETRY: FRAGMENTATION_MODE CID
AC$MASS_SPECTROMETRY: IONIZATION ESI
AC$CHROMATOGRAPHY: COLUMN_NAME Zorbax Eclipse Plus C18 2.1 mm x 150 mm, 3.5 um, Agilent
AC$CHROMATOGRAPHY: COLUMN_TEMPERATURE 40 °C
AC$CHROMATOGRAPHY: FLOW_GRADIENT 0 min min 98% A, 1 min 98% A, 2 min 80% A, 16.5 min 2% A, 22 min 2% A, 22.1 min 98% A, 27 min 98% A
AC$CHROMATOGRAPHY: FLOW_RATE 0.3 mL/min
AC$CHROMATOGRAPHY: RETENTION_TIME 11.145 min
AC$CHROMATOGRAPHY: SOLVENT A: Water 0.1% Formic acid, B: Acetonitrile 0.1% Formic acid
MS$FOCUSED_ION: PRECURSOR_M/Z 406.0438
MS$FOCUSED_ION: PRECURSOR_TYPE [M-H]-
MS$DATA_PROCESSING: COMMENT Export with Spectra 1.9.12 MsBackendMassbank 1.7.4
MS$DATA_PROCESSING: WHOLE RMassBank 2.3.1
PK$SPLASH: splash10-066r-9600000000-7ed9d3485b1754924784
PK$NUM_PEAK: 27
PK$PEAK: m/z int. rel.int.
  40.0055 2.4 43
  41.0128 7.4 135
  41.9974 14.9 272
  50.0021 0.9 16
  64.0058 2.8 51
  65.0131 15.7 287
  65.9969 54.6 999
  74.0012 1.9 34
  77.9641 1.5 27
  82.0139 1.3 23
  87.9997 1.3 23
  89.0117 0.6 10
  90.0074 2.4 43
  91.0265 1 18
  94.0089 1 18
  107.0109 35.3 645
  108.0188 2 36
  109.0269 1.4 25
  114.0157 0.7 12
  121.0201 1.8 32
  122.034 22.2 406
  139.0387 7.5 137
  141.0232 0.6 10
  142.0063 1.1 20
  154.0636 2.7 49
  161.0324 0.6 10
  162.0156 0.9 16
//
