ACCESSION: MSBNK-BAFG-CSL23103127338
RECORD_TITLE: 2-Aminobenzothiazole; LC-ESI-QTOF; MS2; 40 V
DATE: 2023.10.31
AUTHORS: Kevin S. Jewell; Björn Ehlig; Arne Wick
LICENSE: dl-de/by-2-0
COPYRIGHT: Copyright 2023 Federal Institute of Hydrology, Koblenz, Germany
COMMENT: CONFIDENCE Reference Standard (Level 1)
COMMENT: Chromatography method: dx.doi.org/10.1016/j.chroma.2015.11.014
COMMENT: Acquisition method: 10.1002/rcm.8541
CH$NAME: 2-Aminobenzothiazole
CH$FORMULA: C7H6N2S
CH$EXACT_MASS: 150.0252
CH$SMILES: C1=CC=C2C(=C1)N=C(S2)N
CH$IUPAC: InChI=1S/C7H6N2S/c8-7-9-5-3-1-2-4-6(5)10-7/h1-4H,(H2,8,9)
CH$LINK: CAS 136-95-8
CH$LINK: INCHIKEY UHGULLIUJBCTEF-UHFFFAOYSA-N
AC$INSTRUMENT: TripleTOF X500R SCIEX
AC$INSTRUMENT_TYPE: LC-ESI-QTOF
AC$MASS_SPECTROMETRY: MS_TYPE MS2
AC$MASS_SPECTROMETRY: ION_MODE POSITIVE
AC$MASS_SPECTROMETRY: COLLISION_ENERGY 40
AC$MASS_SPECTROMETRY: FRAGMENTATION_MODE CID
AC$MASS_SPECTROMETRY: IONIZATION ESI
AC$CHROMATOGRAPHY: COLUMN_NAME Zorbax Eclipse Plus C18 2.1 mm x 150 mm, 3.5 um, Agilent
AC$CHROMATOGRAPHY: COLUMN_TEMPERATURE 40 °C
AC$CHROMATOGRAPHY: FLOW_GRADIENT 0 min min 98% A, 1 min 98% A, 2 min 80% A, 16.5 min 2% A, 22 min 2% A, 22.1 min 98% A, 27 min 98% A
AC$CHROMATOGRAPHY: FLOW_RATE 0.3 mL/min
AC$CHROMATOGRAPHY: RETENTION_TIME 4.985 min
AC$CHROMATOGRAPHY: SOLVENT A: Water 0.1% Formic acid, B: Acetonitrile 0.1% Formic acid
MS$FOCUSED_ION: PRECURSOR_M/Z 151.0325
MS$FOCUSED_ION: PRECURSOR_TYPE [M+H]+
MS$DATA_PROCESSING: COMMENT Export with Spectra 1.9.12 MsBackendMassbank 1.7.4
MS$DATA_PROCESSING: WHOLE RMassBank 2.3.1
PK$SPLASH: splash10-0q29-5900000000-1a7f20789ab694fa17e5
PK$NUM_PEAK: 25
PK$PEAK: m/z int. rel.int.
  39.0228 75 112
  53.0386 16.8 25
  63.023 14.8 22
  65.038 253.6 381
  68.9793 79.4 119
  77.0388 47.9 72
  80.0491 268.8 404
  82.9955 9.1 13
  90.0338 55.2 83
  91.0417 75.6 113
  92.0494 153.5 231
  93.0576 23.4 35
  96.0033 10.5 15
  97.011 65.9 99
  106.9952 15.6 23
  108.0028 85 127
  109.0099 663.4 999
  110.0183 12.6 18
  118.0524 265.2 399
  119.0599 13.1 19
  123.0136 11.1 16
  124.0207 513.3 772
  134.006 32.3 48
  150.0249 22 33
  151.032 394.8 594
//
