ACCESSION: MSBNK-BAFG-CSL2310301925
RECORD_TITLE: 3-Acetamido-5-aminobenzoic acid; LC-ESI-QTOF; MS2; 90 V
DATE: 2023.10.30
AUTHORS: Kevin S. Jewell; Björn Ehlig; Arne Wick
LICENSE: dl-de/by-2-0
COPYRIGHT: Copyright 2023 Federal Institute of Hydrology, Koblenz, Germany
COMMENT: CONFIDENCE Reference Standard (Level 1)
COMMENT: Chromatography method: dx.doi.org/10.1016/j.chroma.2015.11.014
COMMENT: Acquisition method: 10.1002/rcm.8541
CH$NAME: 3-Acetamido-5-aminobenzoic acid
CH$COMPOUND_CLASS: Pharmaceutical
CH$FORMULA: C9H10N2O3
CH$EXACT_MASS: 194.0691
CH$SMILES: CC(=O)Nc1cc(N)cc(c1)C(O)=O
CH$IUPAC: InChI=1S/C9H10N2O3/c1-5(12)11-8-3-6(9(13)14)2-7(10)4-8/h2-4H,10H2,1H3,(H,11,12)(H,13,14)
CH$LINK: CAS 15089-84-6
CH$LINK: INCHIKEY SETVYNZSWPLKAO-UHFFFAOYSA-N
AC$INSTRUMENT: TripleTOF 5600 SCIEX
AC$INSTRUMENT_TYPE: LC-ESI-QTOF
AC$MASS_SPECTROMETRY: MS_TYPE MS2
AC$MASS_SPECTROMETRY: ION_MODE NEGATIVE
AC$MASS_SPECTROMETRY: COLLISION_ENERGY 90
AC$MASS_SPECTROMETRY: FRAGMENTATION_MODE CID
AC$MASS_SPECTROMETRY: IONIZATION ESI
AC$CHROMATOGRAPHY: COLUMN_NAME Zorbax Eclipse Plus C18 2.1 mm x 150 mm, 3.5 um, Agilent
AC$CHROMATOGRAPHY: COLUMN_TEMPERATURE 40 °C
AC$CHROMATOGRAPHY: FLOW_GRADIENT 0 min min 98% A, 1 min 98% A, 2 min 80% A, 16.5 min 2% A, 22 min 2% A, 22.1 min 98% A, 27 min 98% A
AC$CHROMATOGRAPHY: FLOW_RATE 0.3 mL/min
AC$CHROMATOGRAPHY: RETENTION_TIME 4.455 min
AC$CHROMATOGRAPHY: SOLVENT A: Water 0.1% Formic acid, B: Acetonitrile 0.1% Formic acid
MS$FOCUSED_ION: PRECURSOR_M/Z 193.0619
MS$FOCUSED_ION: PRECURSOR_TYPE [M-H]-
MS$DATA_PROCESSING: COMMENT Export with Spectra 1.9.12 MsBackendMassbank 1.7.4
MS$DATA_PROCESSING: WHOLE RMassBank 2.3.1
PK$SPLASH: splash10-0006-9000000000-222e06c3bc49ed2f6601
PK$NUM_PEAK: 4
PK$PEAK: m/z int. rel.int.
  42.0015 2.1 999
  42.0118 0.3 142
  42.02 0.2 95
  58.033 0.5 237
//
