ACCESSION: MSBNK-BAFG-CSL23111027398
RECORD_TITLE: Guaifenesin; LC-ESI-QTOF; MS2; 10 V
DATE: 2023.11.10
AUTHORS: Kevin S. Jewell; Björn Ehlig; Arne Wick
LICENSE: dl-de/by-2-0
COPYRIGHT: Copyright 2023 Federal Institute of Hydrology, Koblenz, Germany
COMMENT: CONFIDENCE Reference Standard (Level 1)
COMMENT: Chromatography method: dx.doi.org/10.1016/j.chroma.2015.11.014
COMMENT: Acquisition method: 10.1002/rcm.8541
CH$NAME: Guaifenesin
CH$FORMULA: C10H14O4
CH$EXACT_MASS: 198.0892
CH$SMILES: COC1=CC=CC=C1OCC(CO)O
CH$IUPAC: InChI=1S/C10H14O4/c1-13-9-4-2-3-5-10(9)14-7-8(12)6-11/h2-5,8,11-12H,6-7H2,1H3
CH$LINK: CAS 93-14-1
CH$LINK: INCHIKEY HSRJKNPTNIJEKV-UHFFFAOYSA-N
AC$INSTRUMENT: TripleTOF X500R SCIEX
AC$INSTRUMENT_TYPE: LC-ESI-QTOF
AC$MASS_SPECTROMETRY: MS_TYPE MS2
AC$MASS_SPECTROMETRY: ION_MODE POSITIVE
AC$MASS_SPECTROMETRY: COLLISION_ENERGY 10
AC$MASS_SPECTROMETRY: FRAGMENTATION_MODE CID
AC$MASS_SPECTROMETRY: IONIZATION ESI
AC$CHROMATOGRAPHY: COLUMN_NAME Zorbax Eclipse Plus C18 2.1 mm x 150 mm, 3.5 um, Agilent
AC$CHROMATOGRAPHY: COLUMN_TEMPERATURE 40 °C
AC$CHROMATOGRAPHY: FLOW_GRADIENT 0 min min 98% A, 1 min 98% A, 2 min 80% A, 16.5 min 2% A, 22 min 2% A, 22.1 min 98% A, 27 min 98% A
AC$CHROMATOGRAPHY: FLOW_RATE 0.3 mL/min
AC$CHROMATOGRAPHY: RETENTION_TIME 6.298 min
AC$CHROMATOGRAPHY: SOLVENT A: Water 0.1% Formic acid, B: Acetonitrile 0.1% Formic acid
MS$FOCUSED_ION: PRECURSOR_M/Z 199.0965
MS$FOCUSED_ION: PRECURSOR_TYPE [M+H]+
MS$DATA_PROCESSING: COMMENT Export with Spectra 1.9.12 MsBackendMassbank 1.7.4
MS$DATA_PROCESSING: WHOLE RMassBank 2.3.1
PK$SPLASH: splash10-0h01-0900000000-877d71abe2a6054000be
PK$NUM_PEAK: 18
PK$PEAK: m/z int. rel.int.
  57.0341 1.1 33
  75.0438 1.2 36
  93.034 0.4 12
  100.0767 1.9 57
  107.0485 0.3 9
  110.036 0.9 27
  116.9763 0.7 21
  121.0267 0.6 18
  121.0661 1.1 33
  122.0353 0.5 15
  123.0441 1.5 45
  125.06 33.1 999
  135.0814 0.9 27
  137.0596 1.8 54
  151.0756 21.9 660
  158.0041 8.2 247
  163.0754 30 905
  199.0966 29.4 887
//
