ACCESSION: MSBNK-BAFG-CSL2501063687
RECORD_TITLE: Valsartanic acid; LC-ESI-QTOF; MS2; 90 V
DATE: 2025.01.06
AUTHORS: Ole Lessmann; Kevin S. Jewell; Björn Ehlig; Arne Wick
LICENSE: dl-de/by-2-0
COPYRIGHT: Copyright 2025 Federal Institute of Hydrology, Koblenz, Germany
COMMENT: CONFIDENCE Reference Standard (Level 1)
COMMENT: Chromatography method: dx.doi.org/10.1016/j.chroma.2015.11.014
COMMENT: Acquisition method: 10.1002/rcm.8541
CH$NAME: Valsartanic acid
CH$COMPOUND_CLASS: Pharmaceutical; Transformation_product; Transformation_product-Metabolite
CH$FORMULA: C14H10N4O2
CH$EXACT_MASS: 266.0804
CH$SMILES: O=C(O)C(C=C1)=CC=C1C2=CC=CC=C2C3=NN=NN3
CH$IUPAC: InChI=1S/C14H10N4O2/c19-14(20)10-7-5-9(6-8-10)11-3-1-2-4-12(11)13-15-17-18-16-13/h1-8H,(H,19,20)(H,15,16,17,18)
CH$LINK: CAS 164265-78-5
CH$LINK: INCHIKEY USAWIVMZUYOXCF-UHFFFAOYSA-N
AC$INSTRUMENT: TripleTOF 5600 SCIEX
AC$INSTRUMENT_TYPE: LC-ESI-QTOF
AC$MASS_SPECTROMETRY: MS_TYPE MS2
AC$MASS_SPECTROMETRY: ION_MODE POSITIVE
AC$MASS_SPECTROMETRY: COLLISION_ENERGY 90
AC$MASS_SPECTROMETRY: FRAGMENTATION_MODE CID
AC$MASS_SPECTROMETRY: IONIZATION ESI
AC$CHROMATOGRAPHY: COLUMN_NAME Zorbax Eclipse Plus C18 2.1 mm x 150 mm, 3.5 um, Agilent
AC$CHROMATOGRAPHY: COLUMN_TEMPERATURE 40 °C
AC$CHROMATOGRAPHY: FLOW_GRADIENT 0 min min 98% A, 1 min 98% A, 2 min 80% A, 16.5 min 2% A, 22 min 2% A, 22.1 min 98% A, 27 min 98% A
AC$CHROMATOGRAPHY: FLOW_RATE 0.3 mL/min
AC$CHROMATOGRAPHY: RETENTION_TIME 8.027 min
AC$CHROMATOGRAPHY: SOLVENT A: Water 0.1% Formic acid, B: Acetonitrile 0.1% Formic acid
MS$FOCUSED_ION: PRECURSOR_M/Z 267.0877
MS$FOCUSED_ION: PRECURSOR_TYPE [M+H]+
MS$DATA_PROCESSING: COMMENT Export with pycsl 0.1.0.dev1 and CSL 24.4
PK$SPLASH: splash10-0udi-1900000000-0047010b6c5620832b5a
PK$NUM_PEAK: 30
PK$PEAK: m/z int. rel.int.
  51.0286 6.5 54
  74.017 3.7 30
  75.0256 8.1 67
  76.0326 1.9 15
  77.0413 19.2 160
  87.0243 1.5 12
  89.0405 1.7 14
  98.0161 5.0 41
  99.0236 9.6 80
  100.0313 1.4 11
  101.0394 3.6 30
  102.047 2.6 21
  113.0391 2.6 21
  122.016 1.3 10
  123.0229 2.0 16
  124.0308 2.4 20
  125.0386 15.4 128
  126.0455 6.1 51
  127.041 1.9 15
  127.0545 4.2 35
  139.0536 2.2 18
  140.051 2.1 17
  149.0387 12.1 101
  150.0471 119.3 999
  151.0538 38.7 324
  152.0619 11.6 97
  164.0521 3.1 25
  175.0418 5.9 49
  176.0509 6.6 55
  177.0575 26.5 221
//