ACCESSION: MSBNK-BAFG-CSL23111016583
RECORD_TITLE: Dienogest Impurity G; LC-ESI-QTOF; MS2; 30 V
DATE: 2023.11.10
AUTHORS: Kevin S. Jewell; Björn Ehlig; Arne Wick
LICENSE: dl-de/by-2-0
COPYRIGHT: Copyright 2023 Federal Institute of Hydrology, Koblenz, Germany
COMMENT: CONFIDENCE Reference Standard (Level 1)
COMMENT: Chromatography method: dx.doi.org/10.1016/j.chroma.2015.11.014
COMMENT: Acquisition method: 10.1002/rcm.8541
CH$NAME: Dienogest Impurity G
CH$COMPOUND_CLASS: Pharmaceutical
CH$FORMULA: C20H23NO2
CH$EXACT_MASS: 309.1729
CH$SMILES: CC12CC=C3C(C1CCC2(CC#N)O)CCC4=C3C=CC(=C4)O
CH$IUPAC: InChI=1S/C20H23NO2/c1-19-8-6-16-15-5-3-14(22)12-13(15)2-4-17(16)18(19)7-9-20(19,23)10-11-21/h3,5-6,12,17-18,22-23H,2,4,7-10H2,1H3
CH$LINK: CAS 86153-38-0
CH$LINK: INCHIKEY LPEAVAOTAWKUPC-UHFFFAOYSA-N
AC$INSTRUMENT: TripleTOF 6600 SCIEX
AC$INSTRUMENT_TYPE: LC-ESI-QTOF
AC$MASS_SPECTROMETRY: MS_TYPE MS2
AC$MASS_SPECTROMETRY: ION_MODE POSITIVE
AC$MASS_SPECTROMETRY: COLLISION_ENERGY 30
AC$MASS_SPECTROMETRY: FRAGMENTATION_MODE CID
AC$MASS_SPECTROMETRY: IONIZATION ESI
AC$CHROMATOGRAPHY: COLUMN_NAME Zorbax Eclipse Plus C18 2.1 mm x 150 mm, 3.5 um, Agilent
AC$CHROMATOGRAPHY: COLUMN_TEMPERATURE 40 °C
AC$CHROMATOGRAPHY: FLOW_GRADIENT 0 min min 98% A, 1 min 98% A, 2 min 80% A, 16.5 min 2% A, 22 min 2% A, 22.1 min 98% A, 27 min 98% A
AC$CHROMATOGRAPHY: FLOW_RATE 0.3 mL/min
AC$CHROMATOGRAPHY: RETENTION_TIME 9.956 min
AC$CHROMATOGRAPHY: SOLVENT A: Water 0.1% Formic acid, B: Acetonitrile 0.1% Formic acid
MS$FOCUSED_ION: PRECURSOR_M/Z 310.1802
MS$FOCUSED_ION: PRECURSOR_TYPE [M+H]+
MS$DATA_PROCESSING: COMMENT Export with Spectra 1.9.12 MsBackendMassbank 1.7.4
MS$DATA_PROCESSING: WHOLE RMassBank 2.3.1
PK$SPLASH: splash10-0a4i-0930000000-8b960e5d8ab0c794d578
PK$NUM_PEAK: 64
PK$PEAK: m/z int. rel.int.
  79.0536 1.5 12
  91.0536 2.4 19
  93.0693 2.1 16
  95.0851 1.3 10
  97.0636 2.4 19
  105.0688 4.4 35
  107.0476 2.1 16
  107.0839 3.1 25
  108.0797 2 16
  109.0639 1.2 9
  119.0843 2.2 17
  120.0795 1.7 13
  121.0643 2 16
  123.0794 4.8 38
  131.0839 3.2 25
  132.0793 6.4 51
  133.0639 50.7 409
  134.0948 1.4 11
  141.0686 1.8 14
  144.0565 1.8 14
  145.0637 3.7 29
  145.1009 1.4 11
  146.0959 7.8 63
  147.0793 6.7 54
  148.1109 1.7 13
  157.064 43.5 351
  159.0798 123.6 999
  160.0752 2.2 17
  160.1119 1.7 13
  161.0952 1.9 15
  161.1186 2.6 21
  171.0796 3.6 29
  173.0952 4 32
  174.0901 1.3 10
  175.0749 2.3 18
  183.0798 1.5 12
  185.0957 1.7 13
  195.0809 3.7 29
  197.0947 2.5 20
  198.1027 2.3 18
  209.0957 4.9 39
  210.1028 1.5 12
  211.111 3.6 29
  212.1152 1.8 14
  223.1107 4.1 33
  225.1284 1.5 12
  227.1413 2.5 20
  233.0954 1.7 13
  236.1111 2.5 20
  237.1241 2.9 23
  241.1208 2.7 21
  246.1048 1.3 10
  247.1117 1.8 14
  249.127 4.3 34
  251.142 18.5 149
  252.1498 6.3 50
  264.1391 3.4 27
  265.1587 6.1 49
  267.1376 2.8 22
  269.153 7.8 63
  275.1421 6.4 51
  292.1698 30.3 244
  293.1538 3.3 26
  310.1817 15.4 124
//
