ACCESSION: MSBNK-BAFG-CSL25010631491
RECORD_TITLE: Diethylamino hydroxybenzoyl hexyl benzoate; LC-ESI-QTOF; MS2; 150 V
DATE: 2025.01.06
AUTHORS: Ole Lessmann; Kevin S. Jewell; Björn Ehlig; Arne Wick
LICENSE: dl-de/by-2-0
COPYRIGHT: Copyright 2025 Federal Institute of Hydrology, Koblenz, Germany
COMMENT: CONFIDENCE Reference Standard (Level 1)
COMMENT: Chromatography method: dx.doi.org/10.1016/j.chroma.2015.11.014
COMMENT: Acquisition method: 10.1002/rcm.8541
CH$NAME: Diethylamino hydroxybenzoyl hexyl benzoate
CH$FORMULA: C24H31NO4
CH$EXACT_MASS: 397.2253
CH$SMILES: CCCCCCOC(=O)C1=CC=CC=C1C(=O)C2=C(C=C(C=C2)N(CC)CC)O
CH$IUPAC: InChI=1S/C24H31NO4/c1-4-7-8-11-16-29-24(28)20-13-10-9-12-19(20)23(27)21-15-14-18(17-22(21)26)25(5-2)6-3/h9-10,12-15,17,26H,4-8,11,16H2,1-3H3
CH$LINK: CAS 302776-68-7
CH$LINK: INCHIKEY FDATWRLUYRHCJE-UHFFFAOYSA-N
AC$INSTRUMENT: TripleTOF 6600 SCIEX
AC$INSTRUMENT_TYPE: LC-ESI-QTOF
AC$MASS_SPECTROMETRY: MS_TYPE MS2
AC$MASS_SPECTROMETRY: ION_MODE POSITIVE
AC$MASS_SPECTROMETRY: COLLISION_ENERGY 150
AC$MASS_SPECTROMETRY: FRAGMENTATION_MODE CID
AC$MASS_SPECTROMETRY: IONIZATION ESI
AC$CHROMATOGRAPHY: COLUMN_NAME Zorbax Eclipse Plus C18 2.1 mm x 150 mm, 3.5 um, Agilent
AC$CHROMATOGRAPHY: COLUMN_TEMPERATURE 40 °C
AC$CHROMATOGRAPHY: FLOW_GRADIENT 0 min min 98% A, 1 min 98% A, 2 min 80% A, 16.5 min 2% A, 22 min 2% A, 22.1 min 98% A, 27 min 98% A
AC$CHROMATOGRAPHY: FLOW_RATE 0.3 mL/min
AC$CHROMATOGRAPHY: RETENTION_TIME 17.769 min
AC$CHROMATOGRAPHY: SOLVENT A: Water 0.1% Formic acid, B: Acetonitrile 0.1% Formic acid
MS$FOCUSED_ION: PRECURSOR_M/Z 398.2326
MS$FOCUSED_ION: PRECURSOR_TYPE [M+H]+
MS$DATA_PROCESSING: COMMENT Export with pycsl 0.1.0.dev1 and CSL 24.4
PK$SPLASH: splash10-000i-7900000000-c262a820f7fe7e374cc3
PK$NUM_PEAK: 53
PK$PEAK: m/z int. rel.int.
  37.0073 16.7 41
  38.0151 12.5 31
  39.0232 121.2 303
  41.0385 18.6 46
  50.0153 18.2 45
  51.0228 46.9 117
  53.0383 20.4 51
  61.0067 9.3 23
  62.0146 23.5 58
  63.0228 73.5 184
  65.0385 77.3 193
  68.0123 7.6 19
  74.0149 30.2 75
  75.0224 40.8 102
  76.0303 24.6 61
  77.0383 115.0 288
  78.0465 9.8 24
  80.0486 31.1 77
  86.0148 26.8 67
  87.0226 51.9 130
  88.0302 20.6 51
  89.0384 126.4 316
  91.0534 7.5 18
  92.0484 4.0 10
  98.0143 21.3 53
  99.022 23.6 59
  101.0377 19.5 48
  102.0455 36.6 91
  113.0381 101.6 254
  114.0455 19.4 48
  115.0537 100.8 252
  123.0224 9.2 23
  125.038 11.6 29
  126.0454 62.5 156
  127.0534 67.0 167
  128.0612 43.5 109
  137.0382 58.8 147
  138.0457 55.3 138
  139.0541 398.6 999
  140.0507 20.6 51
  141.0706 4.0 10
  149.0389 7.7 19
  150.0462 68.2 170
  151.0535 44.9 112
  152.0613 53.1 133
  153.0575 7.0 17
  154.0656 6.5 16
  155.0553 4.8 12
  163.0528 13.4 33
  164.055 13.7 34
  165.0685 8.9 22
  166.0648 11.2 28
  168.0564 10.3 25
//