ACCESSION: MSBNK-BAFG-CSL25011734715
RECORD_TITLE: Food Yellow 3 free acid; LC-ESI-QTOF; MS2; 40 V
DATE: 2025.01.17
AUTHORS: Ole Lessmann; Kevin S. Jewell; Björn Ehlig; Arne Wick
LICENSE: dl-de/by-2-0
COPYRIGHT: Copyright 2025 Federal Institute of Hydrology, Koblenz, Germany
COMMENT: CONFIDENCE Reference Standard (Level 1)
COMMENT: Chromatography method: dx.doi.org/10.1016/j.chroma.2015.11.014
CH$NAME: Food Yellow 3 free acid
CH$FORMULA: C16H12N2O7S2
CH$EXACT_MASS: 408.0086
CH$SMILES: C1=CC(=CC=C1N=NC2=C(C=CC3=C2C=CC(=C3)S(=O)(=O)O)O)S(=O)(=O)O
CH$IUPAC: InChI=1S/C16H12N2O7S2/c19-15-8-1-10-9-13(27(23,24)25)6-7-14(10)16(15)18-17-11-2-4-12(5-3-11)26(20,21)22/h1-9,19H,(H,20,21,22)(H,23,24,25)
CH$LINK: CAS 5859-11-0
CH$LINK: INCHIKEY KEYWXKLGZZGHMT-UHFFFAOYSA-N
AC$INSTRUMENT: TripleTOF 6600 SCIEX
AC$INSTRUMENT_TYPE: LC-ESI-QTOF
AC$MASS_SPECTROMETRY: MS_TYPE MS2
AC$MASS_SPECTROMETRY: ION_MODE NEGATIVE
AC$MASS_SPECTROMETRY: COLLISION_ENERGY 40
AC$MASS_SPECTROMETRY: FRAGMENTATION_MODE CID
AC$MASS_SPECTROMETRY: IONIZATION ESI
AC$CHROMATOGRAPHY: COLUMN_NAME Zorbax Eclipse Plus C18 2.1 mm x 150 mm, 3.5 um, Agilent
AC$CHROMATOGRAPHY: COLUMN_TEMPERATURE 40 °C
AC$CHROMATOGRAPHY: FLOW_GRADIENT 0 min min 98% A, 1 min 98% A, 2 min 80% A, 16.5 min 2% A, 22 min 2% A, 22.1 min 98% A, 27 min 98% A
AC$CHROMATOGRAPHY: FLOW_RATE 0.3 mL/min
AC$CHROMATOGRAPHY: RETENTION_TIME 5.59 min
AC$CHROMATOGRAPHY: SOLVENT A: Water 0.1% Formic acid, B: Acetonitrile 0.1% Formic acid
MS$FOCUSED_ION: PRECURSOR_M/Z 202.9969
MS$FOCUSED_ION: PRECURSOR_TYPE [M-2H]2-
MS$DATA_PROCESSING: COMMENT Export with pycsl 0.1.0.dev1 and CSL 25.0
PK$SPLASH: splash10-0a6u-3920000000-5fd41f62f4b3a36bb27a
PK$NUM_PEAK: 61
PK$PEAK: m/z int. rel.int.
  50.0029 1.3678 0
  63.0103 1.0246 0
  63.0242 1.1367 0
  63.9619 45.2044 15
  64.0187 2.3199 0
  65.9977 7.2928 2
  74.0032 1.0554 0
  79.7096 10.5865 3
  79.9572 2348.3118 830
  80.9646 28.406 10
  88.0188 8.3747 2
  89.0264 72.9315 25
  90.0343 52.2853 18
  91.0438 1.255 0
  92.0263 3.9342 1
  93.0337 9.2192 3
  101.0385 1.1204 0
  106.7034 4.0507 1
  107.0371 941.9143 332
  108.0389 1.7983 0
  113.0387 13.8426 4
  113.6794 4.0268 1
  114.0345 836.9412 295
  115.0178 2.0467 0
  115.0415 70.7022 24
  116.0134 5.9277 2
  116.0499 2.6131 0
  116.6541 1.2387 0
  117.0212 209.1702 73
  118.028 2.6452 0
  126.0333 5.7947 2
  129.0344 5.4853 1
  130.0416 44.6554 15
  131.0356 2.4417 0
  141.5847 11.9561 4
  142.0295 2825.905 999
  143.0354 19.4729 6
  143.9874 43.7961 15
  144.0448 15.4838 5
  144.4955 1.0943 0
  145.0273 5.6497 1
  155.0358 1.109 0
  155.4964 1.5938 0
  155.9879 304.8992 107
  156.9933 3.1097 1
  158.0361 136.1689 48
  159.0331 5.2869 1
  169.9896 1.0268 0
  170.4591 2.6584 0
  170.9988 615.1226 217
  172.0397 33.8987 11
  179.9875 18.4956 6
  180.4136 5.5076 1
  180.9835 1363.4784 482
  181.9856 3.6482 1
  192.994 1.8273 0
  194.0026 10.1515 3
  205.3415 7.6328 2
  205.9913 1866.5074 659
  206.9983 83.3911 29
  236.0019 2.5738 0
//
