ACCESSION: MSBNK-BAFG-CSL2310304421
RECORD_TITLE: Aclonifen; LC-ESI-QTOF; MS2; 80 V
DATE: 2023.10.30
AUTHORS: Kevin S. Jewell; Björn Ehlig; Arne Wick
LICENSE: dl-de/by-2-0
COPYRIGHT: Copyright 2023 Federal Institute of Hydrology, Koblenz, Germany
COMMENT: CONFIDENCE Reference Standard (Level 1)
COMMENT: Chromatography method: dx.doi.org/10.1016/j.chroma.2015.11.014
COMMENT: Acquisition method: 10.1002/rcm.8541
CH$NAME: Aclonifen
CH$COMPOUND_CLASS: Herbicide
CH$FORMULA: C12H9ClN2O3
CH$EXACT_MASS: 264.0302
CH$SMILES: Nc1c(Cl)c(Oc2ccccc2)ccc1[N+]([O-])=O
CH$IUPAC: InChI=1S/C12H9ClN2O3/c13-11-10(18-8-4-2-1-3-5-8)7-6-9(12(11)14)15(16)17/h1-7H,14H2
CH$LINK: CAS 74070-46-5
CH$LINK: INCHIKEY DDBMQDADIHOWIC-UHFFFAOYSA-N
AC$INSTRUMENT: TripleTOF 5600 SCIEX
AC$INSTRUMENT_TYPE: LC-ESI-QTOF
AC$MASS_SPECTROMETRY: MS_TYPE MS2
AC$MASS_SPECTROMETRY: ION_MODE POSITIVE
AC$MASS_SPECTROMETRY: COLLISION_ENERGY 80
AC$MASS_SPECTROMETRY: FRAGMENTATION_MODE CID
AC$MASS_SPECTROMETRY: IONIZATION ESI
AC$CHROMATOGRAPHY: COLUMN_NAME Zorbax Eclipse Plus C18 2.1 mm x 150 mm, 3.5 um, Agilent
AC$CHROMATOGRAPHY: COLUMN_TEMPERATURE 40 °C
AC$CHROMATOGRAPHY: FLOW_GRADIENT 0 min min 98% A, 1 min 98% A, 2 min 80% A, 16.5 min 2% A, 22 min 2% A, 22.1 min 98% A, 27 min 98% A
AC$CHROMATOGRAPHY: FLOW_RATE 0.3 mL/min
AC$CHROMATOGRAPHY: RETENTION_TIME 13.815 min
AC$CHROMATOGRAPHY: SOLVENT A: Water 0.1% Formic acid, B: Acetonitrile 0.1% Formic acid
MS$FOCUSED_ION: PRECURSOR_M/Z 265.0374
MS$FOCUSED_ION: PRECURSOR_TYPE [M+H]+
MS$DATA_PROCESSING: COMMENT Export with Spectra 1.9.12 MsBackendMassbank 1.7.4
MS$DATA_PROCESSING: WHOLE RMassBank 2.3.1
PK$SPLASH: splash10-004i-6900000000-52d462dc8c9673a08b60
PK$NUM_PEAK: 44
PK$PEAK: m/z int. rel.int.
  51.0287 8.2 397
  52.0237 2.8 135
  65.0428 0.7 33
  72.9859 1 48
  74.0188 0.7 33
  75.0258 1.5 72
  76.0205 0.9 43
  76.0338 0.7 33
  77.0411 20.6 999
  78.0354 1.2 58
  78.0463 0.9 43
  80.0148 1.5 72
  86.0158 1 48
  88.0189 0.4 19
  88.0324 1.2 58
  89.0393 0.5 24
  96.9852 0.6 29
  99.0232 0.5 24
  101.0392 3.2 155
  102.0471 2.8 135
  103.0575 0.5 24
  112.018 1.2 58
  112.0295 0.6 29
  113.0395 1.9 92
  114.0449 0.6 29
  115.0537 1 48
  125.0014 0.4 19
  125.042 0.8 38
  126.0464 7.3 354
  127.0537 17.2 834
  128.0484 1.6 77
  128.0612 5.1 247
  129.0523 0.6 29
  137.0378 0.8 38
  138.0341 2.7 130
  139.0415 1.1 53
  140.0483 1.4 67
  152.0493 0.8 38
  153.0566 2.5 121
  154.0645 3.5 169
  155.0487 4.3 208
  165.0422 0.5 24
  182.061 2.2 106
  216.0224 0.8 38
//
