ACCESSION: MSBNK-BAFG-CSL2311094823
RECORD_TITLE: Nitenpyram; LC-ESI-QTOF; MS2; 60 V
DATE: 2023.11.09
AUTHORS: Kevin S. Jewell; Björn Ehlig; Arne Wick
LICENSE: dl-de/by-2-0
COPYRIGHT: Copyright 2023 Federal Institute of Hydrology, Koblenz, Germany
COMMENT: CONFIDENCE Reference Standard (Level 1)
COMMENT: Chromatography method: dx.doi.org/10.1016/j.chroma.2015.11.014
COMMENT: Acquisition method: 10.1002/rcm.8541
CH$NAME: Nitenpyram
CH$COMPOUND_CLASS: Pharmaceutical; Insecticide
CH$FORMULA: C11H15ClN4O2
CH$EXACT_MASS: 270.0884
CH$SMILES: CCN(Cc1ccc(Cl)nc1)\C(NC)=C\[N+]([O-])=O
CH$IUPAC: InChI=1S/C11H15ClN4O2/c1-3-15(11(13-2)8-16(17)18)7-9-4-5-10(12)14-6-9/h4-6,8,13H,3,7H2,1-2H3/b11-8+
CH$LINK: CAS 150824-47-8
CH$LINK: INCHIKEY CFRPSFYHXJZSBI-DHZHZOJOSA-N
AC$INSTRUMENT: TripleTOF 5600 SCIEX
AC$INSTRUMENT_TYPE: LC-ESI-QTOF
AC$MASS_SPECTROMETRY: MS_TYPE MS2
AC$MASS_SPECTROMETRY: ION_MODE POSITIVE
AC$MASS_SPECTROMETRY: COLLISION_ENERGY 60
AC$MASS_SPECTROMETRY: FRAGMENTATION_MODE CID
AC$MASS_SPECTROMETRY: IONIZATION ESI
AC$CHROMATOGRAPHY: COLUMN_NAME Zorbax Eclipse Plus C18 2.1 mm x 150 mm, 3.5 um, Agilent
AC$CHROMATOGRAPHY: COLUMN_TEMPERATURE 40 °C
AC$CHROMATOGRAPHY: FLOW_GRADIENT 0 min min 98% A, 1 min 98% A, 2 min 80% A, 16.5 min 2% A, 22 min 2% A, 22.1 min 98% A, 27 min 98% A
AC$CHROMATOGRAPHY: FLOW_RATE 0.3 mL/min
AC$CHROMATOGRAPHY: RETENTION_TIME 5.386 min
AC$CHROMATOGRAPHY: SOLVENT A: Water 0.1% Formic acid, B: Acetonitrile 0.1% Formic acid
MS$FOCUSED_ION: PRECURSOR_M/Z 271.0956
MS$FOCUSED_ION: PRECURSOR_TYPE [M+H]+
MS$DATA_PROCESSING: COMMENT Export with Spectra 1.9.12 MsBackendMassbank 1.7.4
MS$DATA_PROCESSING: WHOLE RMassBank 2.3.1
PK$SPLASH: splash10-0a4i-9700000000-9d4438e644c7f4326fa0
PK$NUM_PEAK: 60
PK$PEAK: m/z int. rel.int.
  42.0435 1.7 40
  55.0385 0.5 11
  56.0562 41.9 999
  57.0495 0.6 14
  58.0698 1.4 33
  63.0513 0.5 11
  70.0687 0.4 9
  71.0636 0.7 16
  72.9872 3.6 85
  78.038 1.4 33
  78.0569 0.5 11
  83.057 0.4 9
  85.078 0.5 11
  90.0354 8.2 195
  91.0429 1.7 40
  91.0575 0.4 9
  92.0501 0.8 19
  98.0735 0.6 14
  99.0007 7.6 181
  99.0913 1.1 26
  102.0344 1.2 28
  104.0492 0.9 21
  105.0539 0.6 14
  106.0646 0.9 21
  111.9924 0.4 9
  112.0843 0.5 11
  114.0128 0.7 16
  116.0495 1.1 26
  117.056 1.2 28
  118.0502 0.5 11
  118.0669 0.5 11
  119.06 0.9 21
  125.0029 0.5 11
  126.0106 16.9 402
  126.0343 0.5 11
  129.0448 0.7 16
  131.0595 1.2 28
  132.0702 1 23
  133.075 0.7 16
  138.0096 2.7 64
  139.0066 2.2 52
  140.0234 0.5 11
  141.0214 2.6 61
  144.0628 1.1 26
  145.0691 1.7 40
  146.0725 0.8 19
  150.0101 1.6 38
  151.0129 1.8 42
  152.0248 1.7 40
  153.0222 1.2 28
  155.0342 0.6 14
  160.0858 1.8 42
  165.023 1.9 45
  166.0191 0.4 9
  167.0373 0.8 19
  169.0536 1.4 33
  179.0359 2.9 69
  180.0316 0.8 19
  193.0541 0.5 11
  194.047 1.1 26
//
