ACCESSION: MSBNK-BAFG-CSL2311099340
RECORD_TITLE: Benzoyleneurea; LC-ESI-QTOF; MS2; 30 V
DATE: 2023.11.09
AUTHORS: Kevin S. Jewell; Björn Ehlig; Arne Wick
LICENSE: dl-de/by-2-0
COPYRIGHT: Copyright 2023 Federal Institute of Hydrology, Koblenz, Germany
COMMENT: CONFIDENCE Reference Standard (Level 1)
COMMENT: Chromatography method: dx.doi.org/10.1016/j.chroma.2015.11.014
COMMENT: Acquisition method: 10.1002/rcm.8541
CH$NAME: Benzoyleneurea
CH$COMPOUND_CLASS: Pharmaceutical
CH$FORMULA: C8H6N2O2
CH$EXACT_MASS: 162.0429
CH$SMILES: C1=CC=C2C(=C1)C(=O)NC(=O)N2
CH$IUPAC: InChI=1S/C8H6N2O2/c11-7-5-3-1-2-4-6(5)9-8(12)10-7/h1-4H,(H2,9,10,11,12)
CH$LINK: CAS 86-96-4
CH$LINK: INCHIKEY SDQJTWBNWQABLE-UHFFFAOYSA-N
AC$INSTRUMENT: TripleTOF 5600 SCIEX
AC$INSTRUMENT_TYPE: LC-ESI-QTOF
AC$MASS_SPECTROMETRY: MS_TYPE MS2
AC$MASS_SPECTROMETRY: ION_MODE POSITIVE
AC$MASS_SPECTROMETRY: COLLISION_ENERGY 30
AC$MASS_SPECTROMETRY: FRAGMENTATION_MODE CID
AC$MASS_SPECTROMETRY: IONIZATION ESI
AC$CHROMATOGRAPHY: COLUMN_NAME Zorbax Eclipse Plus C18 2.1 mm x 150 mm, 3.5 um, Agilent
AC$CHROMATOGRAPHY: COLUMN_TEMPERATURE 40 °C
AC$CHROMATOGRAPHY: FLOW_GRADIENT 0 min min 98% A, 1 min 98% A, 2 min 80% A, 16.5 min 2% A, 22 min 2% A, 22.1 min 98% A, 27 min 98% A
AC$CHROMATOGRAPHY: FLOW_RATE 0.3 mL/min
AC$CHROMATOGRAPHY: RETENTION_TIME 5.386 min
AC$CHROMATOGRAPHY: SOLVENT A: Water 0.1% Formic acid, B: Acetonitrile 0.1% Formic acid
MS$FOCUSED_ION: PRECURSOR_M/Z 163.0502
MS$FOCUSED_ION: PRECURSOR_TYPE [M+H]+
MS$DATA_PROCESSING: COMMENT Export with Spectra 1.9.12 MsBackendMassbank 1.7.4
MS$DATA_PROCESSING: WHOLE RMassBank 2.3.1
PK$SPLASH: splash10-0002-3900000000-d0fa2b8157f8d08e20c1
PK$NUM_PEAK: 9
PK$PEAK: m/z int. rel.int.
  77.0424 0.6 12
  90.0367 24.3 495
  92.0508 1.1 22
  117.0462 3 61
  118.0303 2.9 59
  120.0452 0.9 18
  145.0393 7.4 150
  146.0235 49 999
  163.0483 4.9 99
//
