ACCESSION: MSBNK-BAFG-CSL23102513013
RECORD_TITLE: Flavanone; LC-ESI-QTOF; MS2; 70 V
DATE: 2023.10.25
AUTHORS: Kevin S. Jewell; Björn Ehlig; Arne Wick
LICENSE: dl-de/by-2-0
COPYRIGHT: Copyright 2023 Federal Institute of Hydrology, Koblenz, Germany
COMMENT: CONFIDENCE Reference Standard (Level 1)
COMMENT: Chromatography method: dx.doi.org/10.1016/j.chroma.2015.11.014
COMMENT: Acquisition method: 10.1002/rcm.8541
CH$NAME: Flavanone
CH$COMPOUND_CLASS: Personal_care_product
CH$FORMULA: C15H12O2
CH$EXACT_MASS: 224.0837
CH$SMILES: C1C(OC2=CC=CC=C2C1=O)C3=CC=CC=C3
CH$IUPAC: InChI=1S/C15H12O2/c16-13-10-15(11-6-2-1-3-7-11)17-14-9-5-4-8-12(13)14/h1-9,15H,10H2
CH$LINK: CAS 487-26-3
CH$LINK: INCHIKEY ZONYXWQDUYMKFB-UHFFFAOYSA-N
AC$INSTRUMENT: TripleTOF 5600 SCIEX
AC$INSTRUMENT_TYPE: LC-ESI-QTOF
AC$MASS_SPECTROMETRY: MS_TYPE MS2
AC$MASS_SPECTROMETRY: ION_MODE POSITIVE
AC$MASS_SPECTROMETRY: COLLISION_ENERGY 70
AC$MASS_SPECTROMETRY: FRAGMENTATION_MODE CID
AC$MASS_SPECTROMETRY: IONIZATION ESI
AC$CHROMATOGRAPHY: COLUMN_NAME Zorbax Eclipse Plus C18 2.1 mm x 150 mm, 3.5 um, Agilent
AC$CHROMATOGRAPHY: COLUMN_TEMPERATURE 40 °C
AC$CHROMATOGRAPHY: FLOW_GRADIENT 0 min min 98% A, 1 min 98% A, 2 min 80% A, 16.5 min 2% A, 22 min 2% A, 22.1 min 98% A, 27 min 98% A
AC$CHROMATOGRAPHY: FLOW_RATE 0.3 mL/min
AC$CHROMATOGRAPHY: RETENTION_TIME 12.61 min
AC$CHROMATOGRAPHY: SOLVENT A: Water 0.1% Formic acid, B: Acetonitrile 0.1% Formic acid
MS$FOCUSED_ION: PRECURSOR_M/Z 225.091
MS$FOCUSED_ION: PRECURSOR_TYPE [M+H]+
MS$DATA_PROCESSING: COMMENT Export with Spectra 1.9.12 MsBackendMassbank 1.7.4
MS$DATA_PROCESSING: WHOLE RMassBank 2.3.1
PK$SPLASH: splash10-0fvi-9500000000-14900dd4c1ed2a054d51
PK$NUM_PEAK: 28
PK$PEAK: m/z int. rel.int.
  37.0078 0.8 30
  38.0154 0.5 19
  39.0231 4.1 156
  50.016 0.8 30
  51.0229 4.1 156
  63.0218 0.4 15
  65.0387 18.4 704
  75.0232 0.7 26
  77.0386 26.1 999
  79.0533 1.1 42
  91.055 1.1 42
  93.0337 2.7 103
  101.0413 0.7 26
  102.0473 1.2 45
  103.0544 6.4 244
  115.053 0.6 22
  121.029 2.2 84
  126.0437 0.5 19
  128.068 0.9 34
  150.0443 0.9 34
  151.0547 3.6 137
  152.0616 6.9 264
  153.0693 0.7 26
  163.0548 0.7 26
  165.0754 0.7 26
  176.0598 7.2 275
  177.0707 2 76
  178.0763 2.8 107
//
