ACCESSION: MSBNK-BAFG-CSL2310261889
RECORD_TITLE: 4,4-Chlorophenoxyphenol; LC-ESI-QTOF; MS2; 20 V
DATE: 2023.10.26
AUTHORS: Kevin S. Jewell; Björn Ehlig; Arne Wick
LICENSE: dl-de/by-2-0
COPYRIGHT: Copyright 2023 Federal Institute of Hydrology, Koblenz, Germany
COMMENT: CONFIDENCE Reference Standard (Level 1)
COMMENT: Chromatography method: dx.doi.org/10.1016/j.chroma.2015.11.014
COMMENT: Acquisition method: 10.1002/rcm.8541
CH$NAME: 4,4-Chlorophenoxyphenol
CH$COMPOUND_CLASS: Herbicide
CH$FORMULA: C12H9ClO2
CH$EXACT_MASS: 220.0291
CH$SMILES: c1cc(ccc1O)Oc2ccc(cc2)Cl
CH$IUPAC: InChI=1S/C12H9ClO2/c13-9-1-5-11(6-2-9)15-12-7-3-10(14)4-8-12/h1-8,14H
CH$LINK: CAS 21567-18-0
CH$LINK: INCHIKEY XQMRZWSYBUCVAX-UHFFFAOYSA-N
AC$INSTRUMENT: TripleTOF 5600 SCIEX
AC$INSTRUMENT_TYPE: LC-ESI-QTOF
AC$MASS_SPECTROMETRY: MS_TYPE MS2
AC$MASS_SPECTROMETRY: ION_MODE NEGATIVE
AC$MASS_SPECTROMETRY: COLLISION_ENERGY 20
AC$MASS_SPECTROMETRY: FRAGMENTATION_MODE CID
AC$MASS_SPECTROMETRY: IONIZATION ESI
AC$CHROMATOGRAPHY: COLUMN_NAME Zorbax Eclipse Plus C18 2.1 mm x 150 mm, 3.5 um, Agilent
AC$CHROMATOGRAPHY: COLUMN_TEMPERATURE 40 °C
AC$CHROMATOGRAPHY: FLOW_GRADIENT 0 min min 98% A, 1 min 98% A, 2 min 80% A, 16.5 min 2% A, 22 min 2% A, 22.1 min 98% A, 27 min 98% A
AC$CHROMATOGRAPHY: FLOW_RATE 0.3 mL/min
AC$CHROMATOGRAPHY: RETENTION_TIME 12.354 min
AC$CHROMATOGRAPHY: SOLVENT A: Water 0.1% Formic acid, B: Acetonitrile 0.1% Formic acid
MS$FOCUSED_ION: PRECURSOR_M/Z 219.0218
MS$FOCUSED_ION: PRECURSOR_TYPE [M-H]-
MS$DATA_PROCESSING: COMMENT Export with Spectra 1.9.12 MsBackendMassbank 1.7.4
MS$DATA_PROCESSING: WHOLE RMassBank 2.3.1
PK$SPLASH: splash10-066r-0890000000-7f17e269e6e699cb06ad
PK$NUM_PEAK: 8
PK$PEAK: m/z int. rel.int.
  108.0217 595.6 712
  108.0358 73.7 88
  163.0318 79.5 95
  191.0268 382.8 457
  218.0142 130.5 156
  219.0215 835.1 999
  219.0414 103.7 124
  220.0237 98.4 117
//
