ACCESSION: MSBNK-BAFG-CSL25010634140
RECORD_TITLE: 2-isopropyl-5,6-dimethyl-1H-benzimidazole; LC-ESI-QTOF; MS2; 100 V
DATE: 2025.01.06
AUTHORS: Ole Lessmann; Kevin S. Jewell; Björn Ehlig; Arne Wick
LICENSE: dl-de/by-2-0
COPYRIGHT: Copyright 2025 Federal Institute of Hydrology, Koblenz, Germany
COMMENT: CONFIDENCE Reference Standard (Level 1)
COMMENT: Chromatography method: dx.doi.org/10.1016/j.chroma.2015.11.014
COMMENT: Acquisition method: 10.1002/rcm.8541
CH$NAME: 2-isopropyl-5,6-dimethyl-1H-benzimidazole
CH$FORMULA: C12H16N2
CH$EXACT_MASS: 188.1313
CH$SMILES: CC1=CC2=C(C=C1C)N=C(N2)C(C)C
CH$IUPAC: InChI=1S/C12H16N2/c1-7(2)12-13-10-5-8(3)9(4)6-11(10)14-12/h5-7H,1-4H3,(H,13,14)
CH$LINK: CAS 66073-79-8
CH$LINK: INCHIKEY KBNPIBOOPFUXEM-UHFFFAOYSA-N
AC$INSTRUMENT: TripleTOF 6600 SCIEX
AC$INSTRUMENT_TYPE: LC-ESI-QTOF
AC$MASS_SPECTROMETRY: MS_TYPE MS2
AC$MASS_SPECTROMETRY: ION_MODE POSITIVE
AC$MASS_SPECTROMETRY: COLLISION_ENERGY 100
AC$MASS_SPECTROMETRY: FRAGMENTATION_MODE CID
AC$MASS_SPECTROMETRY: IONIZATION ESI
AC$CHROMATOGRAPHY: COLUMN_NAME Zorbax Eclipse Plus C18 2.1 mm x 150 mm, 3.5 um, Agilent
AC$CHROMATOGRAPHY: COLUMN_TEMPERATURE 40 °C
AC$CHROMATOGRAPHY: FLOW_GRADIENT 0 min min 98% A, 1 min 98% A, 2 min 80% A, 16.5 min 2% A, 22 min 2% A, 22.1 min 98% A, 27 min 98% A
AC$CHROMATOGRAPHY: FLOW_RATE 0.3 mL/min
AC$CHROMATOGRAPHY: RETENTION_TIME 6.482 min
AC$CHROMATOGRAPHY: SOLVENT A: Water 0.1% Formic acid, B: Acetonitrile 0.1% Formic acid
MS$FOCUSED_ION: PRECURSOR_M/Z 189.1386
MS$FOCUSED_ION: PRECURSOR_TYPE [M+H]+
MS$DATA_PROCESSING: COMMENT Export with pycsl 0.1.0.dev1 and CSL 24.4
PK$SPLASH: splash10-0ufr-9200000000-f403d513d16412350683
PK$NUM_PEAK: 46
PK$PEAK: m/z int. rel.int.
  37.007 7.0 30
  38.0144 6.8 29
  39.0225 38.2 166
  41.0378 6.8 29
  49.0067 4.9 21
  50.0146 50.5 219
  51.0225 181.2 788
  52.0169 3.1 13
  52.0299 7.8 33
  53.0375 5.0 21
  54.0329 3.1 13
  61.0061 3.8 16
  62.0143 7.3 31
  63.0221 21.5 93
  65.0375 44.7 194
  74.0134 7.4 32
  75.0216 11.2 48
  76.0165 5.2 22
  76.0291 4.7 20
  77.0378 229.6 999
  78.0332 15.8 68
  78.045 24.0 104
  79.0532 4.1 17
  80.0476 6.9 30
  89.0372 31.0 134
  90.0452 5.5 23
  91.0528 51.8 225
  92.047 2.6 11
  93.0561 2.5 10
  102.0322 6.6 28
  102.0424 2.8 12
  103.0395 3.2 13
  103.053 6.5 28
  104.0478 55.1 239
  105.0427 6.2 26
  114.0313 3.3 14
  115.0407 4.0 17
  116.0481 5.4 23
  117.0559 9.0 39
  118.0628 5.1 22
  129.0437 2.5 10
  130.0629 8.8 38
  131.0585 41.0 178
  142.0503 5.5 23
  155.058 6.2 26
  157.0747 19.6 85
//