ACCESSION: MSBNK-BAFG-CSL2501064642
RECORD_TITLE: 4-Acetamidoantipyrine; LC-ESI-QTOF; MS2; 70 V
DATE: 2025.01.06
AUTHORS: Ole Lessmann; Kevin S. Jewell; Björn Ehlig; Arne Wick
LICENSE: dl-de/by-2-0
COPYRIGHT: Copyright 2025 Federal Institute of Hydrology, Koblenz, Germany
COMMENT: CONFIDENCE Reference Standard (Level 1)
COMMENT: Chromatography method: dx.doi.org/10.1016/j.chroma.2015.11.014
COMMENT: Acquisition method: 10.1002/rcm.8541
CH$NAME: 4-Acetamidoantipyrine
CH$COMPOUND_CLASS: Pharmaceutical; Metabolite; Transformation_product; Transformation_product-Metabolite
CH$FORMULA: C13H15N3O2
CH$EXACT_MASS: 245.1164
CH$SMILES: CN1N(C(=O)C(=C1C)NC(C)=O)c2ccccc2
CH$IUPAC: InChI=1S/C13H15N3O2/c1-9-12(14-10(2)17)13(18)16(15(9)3)11-7-5-4-6-8-11/h4-8H,1-3H3,(H,14,17)
CH$LINK: CAS 83-15-8
CH$LINK: INCHIKEY OIAGWXKSCXPNNZ-UHFFFAOYSA-N
AC$INSTRUMENT: TripleTOF 5600 SCIEX
AC$INSTRUMENT_TYPE: LC-ESI-QTOF
AC$MASS_SPECTROMETRY: MS_TYPE MS2
AC$MASS_SPECTROMETRY: ION_MODE POSITIVE
AC$MASS_SPECTROMETRY: COLLISION_ENERGY 70
AC$MASS_SPECTROMETRY: FRAGMENTATION_MODE CID
AC$MASS_SPECTROMETRY: IONIZATION ESI
AC$CHROMATOGRAPHY: COLUMN_NAME Zorbax Eclipse Plus C18 2.1 mm x 150 mm, 3.5 um, Agilent
AC$CHROMATOGRAPHY: COLUMN_TEMPERATURE 40 °C
AC$CHROMATOGRAPHY: FLOW_GRADIENT 0 min min 98% A, 1 min 98% A, 2 min 80% A, 16.5 min 2% A, 22 min 2% A, 22.1 min 98% A, 27 min 98% A
AC$CHROMATOGRAPHY: FLOW_RATE 0.3 mL/min
AC$CHROMATOGRAPHY: RETENTION_TIME 5.586 min
AC$CHROMATOGRAPHY: SOLVENT A: Water 0.1% Formic acid, B: Acetonitrile 0.1% Formic acid
MS$FOCUSED_ION: PRECURSOR_M/Z 246.1237
MS$FOCUSED_ION: PRECURSOR_TYPE [M+H]+
MS$DATA_PROCESSING: COMMENT Export with pycsl 0.1.0.dev1 and CSL 24.4
PK$SPLASH: splash10-0560-9000000000-a41772caf33c6628e1ce
PK$NUM_PEAK: 22
PK$PEAK: m/z int. rel.int.
  42.0433 6.6 63
  43.027 11.3 108
  53.0183 1.4 13
  54.0395 1.5 14
  56.0565 64.4 620
  65.0438 2.1 20
  77.0425 87.0 838
  81.0472 6.4 61
  83.0639 103.7 999
  91.0562 2.5 24
  92.0514 1.6 15
  93.0587 1.2 11
  94.067 7.0 67
  101.0411 1.2 11
  104.0505 10.6 102
  115.0543 1.3 12
  116.0485 1.1 10
  117.0578 2.8 26
  119.0597 1.1 10
  128.0506 1.7 16
  130.0651 2.3 22
  143.0605 2.5 24
//