ACCESSION: MSBNK-BAFG-CSL25010634416
RECORD_TITLE: O-tolidine; LC-ESI-QTOF; MS2; 70 V
DATE: 2025.01.06
AUTHORS: Ole Lessmann; Kevin S. Jewell; Björn Ehlig; Arne Wick
LICENSE: dl-de/by-2-0
COPYRIGHT: Copyright 2025 Federal Institute of Hydrology, Koblenz, Germany
COMMENT: CONFIDENCE Reference Standard (Level 1)
COMMENT: Chromatography method: dx.doi.org/10.1016/j.chroma.2015.11.014
COMMENT: Acquisition method: 10.1002/rcm.8541
CH$NAME: O-tolidine
CH$FORMULA: C14H16N2
CH$EXACT_MASS: 212.1313
CH$SMILES: CC1=C(C=CC(=C1)C2=CC(=C(C=C2)N)C)N
CH$IUPAC: InChI=1S/C14H16N2/c1-9-7-11(3-5-13(9)15)12-4-6-14(16)10(2)8-12/h3-8H,15-16H2,1-2H3
CH$LINK: CAS 119-93-7
CH$LINK: INCHIKEY NUIURNJTPRWVAP-UHFFFAOYSA-N
AC$INSTRUMENT: TripleTOF 6600 SCIEX
AC$INSTRUMENT_TYPE: LC-ESI-QTOF
AC$MASS_SPECTROMETRY: MS_TYPE MS2
AC$MASS_SPECTROMETRY: ION_MODE POSITIVE
AC$MASS_SPECTROMETRY: COLLISION_ENERGY 70
AC$MASS_SPECTROMETRY: FRAGMENTATION_MODE CID
AC$MASS_SPECTROMETRY: IONIZATION ESI
AC$CHROMATOGRAPHY: COLUMN_NAME Zorbax Eclipse Plus C18 2.1 mm x 150 mm, 3.5 um, Agilent
AC$CHROMATOGRAPHY: COLUMN_TEMPERATURE 40 °C
AC$CHROMATOGRAPHY: FLOW_GRADIENT 0 min min 98% A, 1 min 98% A, 2 min 80% A, 16.5 min 2% A, 22 min 2% A, 22.1 min 98% A, 27 min 98% A
AC$CHROMATOGRAPHY: FLOW_RATE 0.3 mL/min
AC$CHROMATOGRAPHY: RETENTION_TIME 5.073 min
AC$CHROMATOGRAPHY: SOLVENT A: Water 0.1% Formic acid, B: Acetonitrile 0.1% Formic acid
MS$FOCUSED_ION: PRECURSOR_M/Z 213.1386
MS$FOCUSED_ION: PRECURSOR_TYPE [M+H]+
MS$DATA_PROCESSING: COMMENT Export with pycsl 0.1.0.dev1 and CSL 24.4
PK$SPLASH: splash10-0udi-0900000000-f2298023fd0d25f63866
PK$NUM_PEAK: 41
PK$PEAK: m/z int. rel.int.
  77.0388 2.9 73
  89.0409 0.6 15
  91.0573 0.6 15
  102.0476 0.7 17
  103.0575 0.8 20
  106.0655 1.0 25
  113.0409 0.5 12
  115.056 2.3 58
  116.0543 0.5 12
  120.0842 0.4 10
  126.0473 1.3 33
  127.055 4.0 101
  128.062 3.3 83
  129.069 0.7 17
  130.0663 1.3 33
  139.0561 1.9 48
  140.0498 1.3 33
  141.0727 0.5 12
  150.0472 0.9 22
  151.0578 6.1 155
  152.0633 39.3 999
  153.0714 8.4 213
  154.0673 1.6 40
  155.0604 1.1 27
  162.05 0.5 12
  163.0554 10.4 264
  164.062 1.9 48
  165.071 4.8 122
  166.0672 0.4 10
  168.0752 0.8 20
  169.0856 0.7 17
  176.0622 2.0 50
  177.0684 1.1 27
  178.0683 2.9 73
  179.0623 0.5 12
  179.077 1.4 35
  180.0807 10.9 277
  181.0784 0.6 15
  181.0896 0.7 17
  195.0906 0.5 12
  196.1 0.9 22
//