ACCESSION: MSBNK-BAFG-CSL2310254416
RECORD_TITLE: Aclonifen; LC-ESI-QTOF; MS2; 110 V
DATE: 2023.10.25
AUTHORS: Kevin S. Jewell; Björn Ehlig; Arne Wick
LICENSE: dl-de/by-2-0
COPYRIGHT: Copyright 2023 Federal Institute of Hydrology, Koblenz, Germany
COMMENT: CONFIDENCE Reference Standard (Level 1)
COMMENT: Chromatography method: dx.doi.org/10.1016/j.chroma.2015.11.014
COMMENT: Acquisition method: 10.1002/rcm.8541
CH$NAME: Aclonifen
CH$COMPOUND_CLASS: Herbicide
CH$FORMULA: C12H9ClN2O3
CH$EXACT_MASS: 264.0302
CH$SMILES: Nc1c(Cl)c(Oc2ccccc2)ccc1[N+]([O-])=O
CH$IUPAC: InChI=1S/C12H9ClN2O3/c13-11-10(18-8-4-2-1-3-5-8)7-6-9(12(11)14)15(16)17/h1-7H,14H2
CH$LINK: CAS 74070-46-5
CH$LINK: INCHIKEY DDBMQDADIHOWIC-UHFFFAOYSA-N
AC$INSTRUMENT: TripleTOF 5600 SCIEX
AC$INSTRUMENT_TYPE: LC-ESI-QTOF
AC$MASS_SPECTROMETRY: MS_TYPE MS2
AC$MASS_SPECTROMETRY: ION_MODE POSITIVE
AC$MASS_SPECTROMETRY: COLLISION_ENERGY 110
AC$MASS_SPECTROMETRY: FRAGMENTATION_MODE CID
AC$MASS_SPECTROMETRY: IONIZATION ESI
AC$CHROMATOGRAPHY: COLUMN_NAME Zorbax Eclipse Plus C18 2.1 mm x 150 mm, 3.5 um, Agilent
AC$CHROMATOGRAPHY: COLUMN_TEMPERATURE 40 °C
AC$CHROMATOGRAPHY: FLOW_GRADIENT 0 min min 98% A, 1 min 98% A, 2 min 80% A, 16.5 min 2% A, 22 min 2% A, 22.1 min 98% A, 27 min 98% A
AC$CHROMATOGRAPHY: FLOW_RATE 0.3 mL/min
AC$CHROMATOGRAPHY: RETENTION_TIME 13.815 min
AC$CHROMATOGRAPHY: SOLVENT A: Water 0.1% Formic acid, B: Acetonitrile 0.1% Formic acid
MS$FOCUSED_ION: PRECURSOR_M/Z 265.0374
MS$FOCUSED_ION: PRECURSOR_TYPE [M+H]+
MS$DATA_PROCESSING: COMMENT Export with Spectra 1.9.12 MsBackendMassbank 1.7.4
MS$DATA_PROCESSING: WHOLE RMassBank 2.3.1
PK$SPLASH: splash10-004i-9300000000-65db589128a6783eec67
PK$NUM_PEAK: 32
PK$PEAK: m/z int. rel.int.
  51.0157 0.5 51
  52.0245 2.3 236
  63.0373 0.7 72
  74.019 2.4 247
  75.0113 0.4 41
  75.0265 4 411
  76.0206 0.5 51
  76.0326 1 102
  77.0412 9.7 999
  78.0361 0.4 41
  78.0461 0.6 61
  84.9844 0.7 72
  85.0099 0.8 82
  85.9812 1.1 113
  86.0168 1.1 113
  86.0285 0.5 51
  87.0261 1 102
  88.0192 0.5 51
  88.0298 0.5 51
  89.0399 0.6 61
  96.9828 0.6 61
  98.0148 0.9 92
  99.0233 0.9 92
  101.0384 1.6 164
  102.0485 1.6 164
  113.0409 0.5 51
  125.0362 0.5 51
  126.0452 3.4 350
  127.0546 2.5 257
  128.0614 0.7 72
  137.036 0.5 51
  154.0636 0.5 51
//
