ACCESSION: MSBNK-BAFG-CSL2310308043
RECORD_TITLE: Dextrorphan; LC-ESI-QTOF; MS2; 70 V
DATE: 2023.10.30
AUTHORS: Kevin S. Jewell; Björn Ehlig; Arne Wick
LICENSE: dl-de/by-2-0
COPYRIGHT: Copyright 2023 Federal Institute of Hydrology, Koblenz, Germany
COMMENT: CONFIDENCE Reference Standard (Level 1)
COMMENT: Chromatography method: dx.doi.org/10.1016/j.chroma.2015.11.014
COMMENT: Acquisition method: 10.1002/rcm.8541
CH$NAME: Dextrorphan
CH$COMPOUND_CLASS: Pharmaceutical; Metabolite
CH$FORMULA: C17H23NO
CH$EXACT_MASS: 257.178
CH$SMILES: CN1CC[C@@]23CCCC[C@@H]2[C@@H]1CC4=C3C=C(C=C4)O
CH$IUPAC: InChI=1S/C17H23NO/c1-18-9-8-17-7-3-2-4-14(17)16(18)10-12-5-6-13(19)11-15(12)17/h5-6,11,14,16,19H,2-4,7-10H2,1H3/t14-,16+,17+/m1/s1
CH$LINK: CAS 125-73-5
CH$LINK: INCHIKEY JAQUASYNZVUNQP-PVAVHDDUSA-N
AC$INSTRUMENT: TripleTOF 5600 SCIEX
AC$INSTRUMENT_TYPE: LC-ESI-QTOF
AC$MASS_SPECTROMETRY: MS_TYPE MS2
AC$MASS_SPECTROMETRY: ION_MODE POSITIVE
AC$MASS_SPECTROMETRY: COLLISION_ENERGY 70
AC$MASS_SPECTROMETRY: FRAGMENTATION_MODE CID
AC$MASS_SPECTROMETRY: IONIZATION ESI
AC$CHROMATOGRAPHY: COLUMN_NAME Zorbax Eclipse Plus C18 2.1 mm x 150 mm, 3.5 um, Agilent
AC$CHROMATOGRAPHY: COLUMN_TEMPERATURE 40 °C
AC$CHROMATOGRAPHY: FLOW_GRADIENT 0 min min 98% A, 1 min 98% A, 2 min 80% A, 16.5 min 2% A, 22 min 2% A, 22.1 min 98% A, 27 min 98% A
AC$CHROMATOGRAPHY: FLOW_RATE 0.3 mL/min
AC$CHROMATOGRAPHY: RETENTION_TIME 5.969 min
AC$CHROMATOGRAPHY: SOLVENT A: Water 0.1% Formic acid, B: Acetonitrile 0.1% Formic acid
MS$FOCUSED_ION: PRECURSOR_M/Z 258.1852
MS$FOCUSED_ION: PRECURSOR_TYPE [M+H]+
MS$DATA_PROCESSING: COMMENT Export with Spectra 1.9.12 MsBackendMassbank 1.7.4
MS$DATA_PROCESSING: WHOLE RMassBank 2.3.1
PK$SPLASH: splash10-056r-0900000000-7dd817544d01d0ea4d8c
PK$NUM_PEAK: 35
PK$PEAK: m/z int. rel.int.
  44.0578 6.3 28
  65.0428 2.4 10
  77.0424 38.1 169
  79.0575 16 71
  89.0402 2.7 12
  91.0563 18.5 82
  102.047 4.2 18
  103.0556 23.2 103
  105.0713 34.4 153
  107.0505 17.7 78
  115.0551 47.9 213
  116.0626 9.9 44
  117.0708 7.6 33
  121.0659 3 13
  126.0471 4.5 20
  127.0556 105.2 468
  128.0636 209 931
  129.0712 64.4 286
  131.0502 40 178
  133.0652 18.4 81
  139.0548 6.1 27
  141.0706 13.6 60
  144.0575 19 84
  145.0658 9.5 42
  151.0549 2.2 9
  152.0625 13.6 60
  153.0705 6.4 28
  155.0611 4.9 21
  157.0663 224.2 999
  158.0731 3.1 13
  159.0817 4.1 18
  165.0707 14.8 65
  166.0786 3.7 16
  169.0675 4.3 19
  170.0729 2.6 11
//
