ACCESSION: MSBNK-BAFG-CSL2311098451
RECORD_TITLE: Dacarbazine; LC-ESI-QTOF; MS2; 40 V
DATE: 2023.11.09
AUTHORS: Kevin S. Jewell; Björn Ehlig; Arne Wick
LICENSE: dl-de/by-2-0
COPYRIGHT: Copyright 2023 Federal Institute of Hydrology, Koblenz, Germany
COMMENT: CONFIDENCE Reference Standard (Level 1)
COMMENT: Chromatography method: dx.doi.org/10.1016/j.chroma.2015.11.014
COMMENT: Acquisition method: 10.1002/rcm.8541
CH$NAME: Dacarbazine
CH$COMPOUND_CLASS: Pharmaceutical
CH$FORMULA: C6H10N6O
CH$EXACT_MASS: 182.0916
CH$SMILES: CN(C)NN=C1C(=NC=N1)C(=O)N
CH$IUPAC: InChI=1S/C6H10N6O/c1-12(2)11-10-6-4(5(7)13)8-3-9-6/h3,11H,1-2H3,(H2,7,13)
CH$LINK: CAS 4342-03-4
CH$LINK: INCHIKEY OMJKFYKNWZZKTK-UHFFFAOYSA-N
AC$INSTRUMENT: TripleTOF 5600 SCIEX
AC$INSTRUMENT_TYPE: LC-ESI-QTOF
AC$MASS_SPECTROMETRY: MS_TYPE MS2
AC$MASS_SPECTROMETRY: ION_MODE POSITIVE
AC$MASS_SPECTROMETRY: COLLISION_ENERGY 40
AC$MASS_SPECTROMETRY: FRAGMENTATION_MODE CID
AC$MASS_SPECTROMETRY: IONIZATION ESI
AC$CHROMATOGRAPHY: COLUMN_NAME Zorbax Eclipse Plus C18 2.1 mm x 150 mm, 3.5 um, Agilent
AC$CHROMATOGRAPHY: COLUMN_TEMPERATURE 40 °C
AC$CHROMATOGRAPHY: FLOW_GRADIENT 0 min min 98% A, 1 min 98% A, 2 min 80% A, 16.5 min 2% A, 22 min 2% A, 22.1 min 98% A, 27 min 98% A
AC$CHROMATOGRAPHY: FLOW_RATE 0.3 mL/min
AC$CHROMATOGRAPHY: RETENTION_TIME 4.473 min
AC$CHROMATOGRAPHY: SOLVENT A: Water 0.1% Formic acid, B: Acetonitrile 0.1% Formic acid
MS$FOCUSED_ION: PRECURSOR_M/Z 183.0989
MS$FOCUSED_ION: PRECURSOR_TYPE [M+H]+
MS$DATA_PROCESSING: COMMENT Export with Spectra 1.9.12 MsBackendMassbank 1.7.4
MS$DATA_PROCESSING: WHOLE RMassBank 2.3.1
PK$SPLASH: splash10-014i-9200000000-7a32f21c43ed70169226
PK$NUM_PEAK: 26
PK$PEAK: m/z int. rel.int.
  38.0152 0.6 20
  40.0269 1 33
  42.0431 0.4 13
  53.0198 4.4 148
  53.0443 0.6 20
  55.0343 2.4 80
  65.0187 29.7 999
  67.0139 1.1 37
  67.0331 4.1 137
  67.0541 0.7 23
  68.0173 1.3 43
  68.0417 25.6 861
  69.0473 0.6 20
  79.0342 1 33
  80.0388 4.4 148
  81.0475 0.8 26
  83.0638 1.3 43
  93.0094 2.9 97
  94.0404 0.7 23
  94.0489 0.7 23
  95.0253 4.6 154
  95.0458 1.5 50
  95.061 1.6 53
  96.033 1.4 47
  121.014 2.6 87
  123.0429 18.8 632
//
