ACCESSION: MSBNK-BAFG-CSL25010634317
RECORD_TITLE: 4,4`-Methylenebis(2-methylaniline); LC-ESI-QTOF; MS2; 110 V
DATE: 2025.01.06
AUTHORS: Ole Lessmann; Kevin S. Jewell; Björn Ehlig; Arne Wick
LICENSE: dl-de/by-2-0
COPYRIGHT: Copyright 2025 Federal Institute of Hydrology, Koblenz, Germany
COMMENT: CONFIDENCE Reference Standard (Level 1)
COMMENT: Chromatography method: dx.doi.org/10.1016/j.chroma.2015.11.014
COMMENT: Acquisition method: 10.1002/rcm.8541
CH$NAME: 4,4`-Methylenebis(2-methylaniline)
CH$FORMULA: C15H18N2
CH$EXACT_MASS: 226.147
CH$SMILES: CC1=C(C=CC(=C1)CC2=CC(=C(C=C2)N)C)N
CH$IUPAC: InChI=1S/C15H18N2/c1-10-7-12(3-5-14(10)16)9-13-4-6-15(17)11(2)8-13/h3-8H,9,16-17H2,1-2H3
CH$LINK: CAS 838-88-0
CH$LINK: INCHIKEY WECDUOXQLAIPQW-UHFFFAOYSA-N
AC$INSTRUMENT: TripleTOF 6600 SCIEX
AC$INSTRUMENT_TYPE: LC-ESI-QTOF
AC$MASS_SPECTROMETRY: MS_TYPE MS2
AC$MASS_SPECTROMETRY: ION_MODE POSITIVE
AC$MASS_SPECTROMETRY: COLLISION_ENERGY 110
AC$MASS_SPECTROMETRY: FRAGMENTATION_MODE CID
AC$MASS_SPECTROMETRY: IONIZATION ESI
AC$CHROMATOGRAPHY: COLUMN_NAME Zorbax Eclipse Plus C18 2.1 mm x 150 mm, 3.5 um, Agilent
AC$CHROMATOGRAPHY: COLUMN_TEMPERATURE 40 °C
AC$CHROMATOGRAPHY: FLOW_GRADIENT 0 min min 98% A, 1 min 98% A, 2 min 80% A, 16.5 min 2% A, 22 min 2% A, 22.1 min 98% A, 27 min 98% A
AC$CHROMATOGRAPHY: FLOW_RATE 0.3 mL/min
AC$CHROMATOGRAPHY: RETENTION_TIME 5.215 min
AC$CHROMATOGRAPHY: SOLVENT A: Water 0.1% Formic acid, B: Acetonitrile 0.1% Formic acid
MS$FOCUSED_ION: PRECURSOR_M/Z 227.1543
MS$FOCUSED_ION: PRECURSOR_TYPE [M+H]+
MS$DATA_PROCESSING: COMMENT Export with pycsl 0.1.0.dev1 and CSL 24.4
PK$SPLASH: splash10-0udi-9500000000-d1a044f567e4c6d22f94
PK$NUM_PEAK: 35
PK$PEAK: m/z int. rel.int.
  39.0223 1.8 236
  50.0148 2.3 302
  51.022 7.6 999
  62.0129 0.6 78
  63.022 1.4 184
  65.0373 1.4 184
  74.0135 1.0 131
  75.0208 0.8 105
  76.0296 1.0 131
  77.0372 7.2 946
  78.0443 0.9 118
  80.0487 0.8 105
  86.0136 0.5 65
  87.0206 0.6 78
  89.0382 1.4 184
  91.0518 1.9 249
  93.0569 0.8 105
  98.0148 0.6 78
  102.0454 1.2 157
  104.0475 2.0 262
  113.0374 0.4 52
  115.052 1.3 170
  117.0598 0.6 78
  126.0447 1.2 157
  127.0502 0.4 52
  128.061 0.5 65
  139.0523 1.2 157
  140.0526 0.6 78
  149.0378 0.5 65
  150.0441 3.0 394
  151.0537 1.5 197
  152.0604 1.3 170
  163.0521 1.5 197
  165.0627 0.6 78
  176.0592 0.9 118
//