ACCESSION: MSBNK-BAFG-CSL25011734573
RECORD_TITLE: Amido Black 10B; LC-ESI-QTOF; MS2; 90 V
DATE: 2025.01.17
AUTHORS: Ole Lessmann; Kevin S. Jewell; Björn Ehlig; Arne Wick
LICENSE: dl-de/by-2-0
COPYRIGHT: Copyright 2025 Federal Institute of Hydrology, Koblenz, Germany
COMMENT: CONFIDENCE Reference Standard (Level 1)
COMMENT: Chromatography method: dx.doi.org/10.1016/j.chroma.2015.11.014
CH$NAME: Amido Black 10B
CH$FORMULA: C22H16N6O9S2
CH$EXACT_MASS: 572.042
CH$SMILES: C1=CC=C(C=C1)N=NC2=C(C3=C(C(=C(C=C3C=C2S(=O)(=O)O)S(=O)(=O)O)N=NC4=CC=C(C=C4)[N+](=O)[O-])N)O
CH$IUPAC: InChI=1S/C22H16N6O9S2/c23-19-18-12(11-17(39(35,36)37)21(22(18)29)27-24-13-4-2-1-3-5-13)10-16(38(32,33)34)20(19)26-25-14-6-8-15(9-7-14)28(30)31/h1-11,29H,23H2,(H,32,33,34)(H,35,36,37)
CH$LINK: CAS 3121-74-2
CH$LINK: INCHIKEY HKJKONMZMPUGHJ-UHFFFAOYSA-N
AC$INSTRUMENT: TripleTOF 6600 SCIEX
AC$INSTRUMENT_TYPE: LC-ESI-QTOF
AC$MASS_SPECTROMETRY: MS_TYPE MS2
AC$MASS_SPECTROMETRY: ION_MODE POSITIVE
AC$MASS_SPECTROMETRY: COLLISION_ENERGY 90
AC$MASS_SPECTROMETRY: FRAGMENTATION_MODE CID
AC$MASS_SPECTROMETRY: IONIZATION ESI
AC$CHROMATOGRAPHY: COLUMN_NAME Zorbax Eclipse Plus C18 2.1 mm x 150 mm, 3.5 um, Agilent
AC$CHROMATOGRAPHY: COLUMN_TEMPERATURE 40 °C
AC$CHROMATOGRAPHY: FLOW_GRADIENT 0 min min 98% A, 1 min 98% A, 2 min 80% A, 16.5 min 2% A, 22 min 2% A, 22.1 min 98% A, 27 min 98% A
AC$CHROMATOGRAPHY: FLOW_RATE 0.3 mL/min
AC$CHROMATOGRAPHY: RETENTION_TIME 9.552 min
AC$CHROMATOGRAPHY: SOLVENT A: Water 0.1% Formic acid, B: Acetonitrile 0.1% Formic acid
MS$FOCUSED_ION: PRECURSOR_M/Z 573.0493
MS$FOCUSED_ION: PRECURSOR_TYPE [M+H]+
MS$DATA_PROCESSING: COMMENT Export with pycsl 0.1.0.dev1 and CSL 25.0
PK$SPLASH: splash10-0006-9130000000-660dde05eb60e97ddc8a
PK$NUM_PEAK: 59
PK$PEAK: m/z int. rel.int.
  39.0228 4.3 22
  65.0382 70.0 374
  66.0455 12.7 67
  75.0221 16.4 87
  77.038 12.9 68
  80.0495 4.4 23
  90.0329 1.9 10
  92.0268 6.0 32
  92.0489 75.4 403
  93.057 186.9 999
  102.0324 2.3 12
  114.0334 2.2 11
  117.0447 2.4 12
  122.0237 3.0 16
  129.0441 6.5 34
  130.0298 2.0 10
  139.0288 2.0 10
  145.0381 7.9 42
  150.0285 3.7 19
  157.0388 4.9 26
  173.035 24.3 129
  177.0537 2.1 11
  178.0601 2.4 12
  179.0638 1.9 10
  189.0458 2.4 12
  193.0725 1.9 10
  203.0603 2.8 14
  204.0556 7.2 38
  205.0716 11.2 59
  206.0732 4.0 21
  215.0543 3.6 19
  216.055 13.2 70
  217.0628 6.4 34
  218.0755 2.3 12
  220.0843 2.8 14
  230.0726 10.7 57
  231.0743 11.5 61
  232.0841 13.0 69
  233.0765 3.3 17
  234.0762 1.9 10
  242.059 10.6 56
  243.0661 13.9 74
  244.0515 2.1 11
  245.065 2.2 11
  248.0818 1.9 10
  258.0597 3.3 17
  259.07 7.4 39
  260.0831 3.9 20
  265.0308 2.4 12
  270.0539 13.7 73
  271.0603 17.7 94
  306.0899 3.4 18
  307.0998 3.2 17
  318.0902 2.7 14
  319.095 3.6 19
  340.0383 2.4 12
  345.1032 2.4 12
  346.1062 2.8 14
  362.106 2.1 11
//
