ACCESSION: MSBNK-BAFG-CSL23110918223
RECORD_TITLE: 4-(2,4-Dichlorophenoxy)butanoic acid; LC-ESI-QTOF; MS2; 80 V
DATE: 2023.11.09
AUTHORS: Kevin S. Jewell; Björn Ehlig; Arne Wick
LICENSE: dl-de/by-2-0
COPYRIGHT: Copyright 2023 Federal Institute of Hydrology, Koblenz, Germany
COMMENT: CONFIDENCE Reference Standard (Level 1)
COMMENT: Chromatography method: dx.doi.org/10.1016/j.chroma.2015.11.014
COMMENT: Acquisition method: 10.1002/rcm.8541
CH$NAME: 4-(2,4-Dichlorophenoxy)butanoic acid
CH$COMPOUND_CLASS: Herbicide
CH$FORMULA: C10H10Cl2O3
CH$EXACT_MASS: 248.0007
CH$SMILES: C1=CC(=C(C=C1Cl)Cl)OCCCC(=O)O
CH$IUPAC: InChI=1S/C10H10Cl2O3/c11-7-3-4-9(8(12)6-7)15-5-1-2-10(13)14/h3-4,6H,1-2,5H2,(H,13,14)
CH$LINK: CAS 94-82-6
CH$LINK: INCHIKEY YIVXMZJTEQBPQO-UHFFFAOYSA-N
AC$INSTRUMENT: TripleTOF 6600 SCIEX
AC$INSTRUMENT_TYPE: LC-ESI-QTOF
AC$MASS_SPECTROMETRY: MS_TYPE MS2
AC$MASS_SPECTROMETRY: ION_MODE POSITIVE
AC$MASS_SPECTROMETRY: COLLISION_ENERGY 80
AC$MASS_SPECTROMETRY: FRAGMENTATION_MODE CID
AC$MASS_SPECTROMETRY: IONIZATION ESI
AC$CHROMATOGRAPHY: COLUMN_NAME Zorbax Eclipse Plus C18 2.1 mm x 150 mm, 3.5 um, Agilent
AC$CHROMATOGRAPHY: COLUMN_TEMPERATURE 40 °C
AC$CHROMATOGRAPHY: FLOW_GRADIENT 0 min min 98% A, 1 min 98% A, 2 min 80% A, 16.5 min 2% A, 22 min 2% A, 22.1 min 98% A, 27 min 98% A
AC$CHROMATOGRAPHY: FLOW_RATE 0.3 mL/min
AC$CHROMATOGRAPHY: RETENTION_TIME 11.685 min
AC$CHROMATOGRAPHY: SOLVENT A: Water 0.1% Formic acid, B: Acetonitrile 0.1% Formic acid
MS$FOCUSED_ION: PRECURSOR_M/Z 249.008
MS$FOCUSED_ION: PRECURSOR_TYPE [M+H]+
MS$DATA_PROCESSING: COMMENT Export with Spectra 1.9.12 MsBackendMassbank 1.7.4
MS$DATA_PROCESSING: WHOLE RMassBank 2.3.1
PK$SPLASH: splash10-00dv-9100000000-a0348af4dcddd0995fab
PK$NUM_PEAK: 30
PK$PEAK: m/z int. rel.int.
  36 0.1 22
  37.0076 0.9 204
  38.0151 0.7 158
  39.0234 3.2 726
  41.0391 2 454
  43.0181 3 681
  44.9971 0.7 158
  45.0336 3.2 726
  46.9671 0.1 22
  51.0233 0.1 22
  60.9839 0.1 22
  65.037 0.3 68
  69.0405 0.1 22
  72.984 1.8 408
  73.0053 0.2 45
  74.0148 4.4 999
  75.0232 1.2 272
  77.0396 0.9 204
  79.0535 0.2 45
  82.9449 0.8 181
  84.9782 0.1 22
  89.0418 0.1 22
  90.0479 0.2 45
  96.9842 0.1 22
  98.9987 0.3 68
  108.9826 1.7 385
  109.9939 0.1 22
  112.0059 0.1 22
  125.0153 0.4 90
  132.9586 0.7 158
//
