ACCESSION: MSBNK-BAFG-CSL23103013047
RECORD_TITLE: C-desmethyl-metoprolol; LC-ESI-QTOF; MS2; 60 V
DATE: 2023.10.30
AUTHORS: Kevin S. Jewell; Björn Ehlig; Arne Wick
LICENSE: dl-de/by-2-0
COPYRIGHT: Copyright 2023 Federal Institute of Hydrology, Koblenz, Germany
COMMENT: CONFIDENCE Reference Standard (Level 1)
COMMENT: Chromatography method: dx.doi.org/10.1016/j.chroma.2015.11.014
COMMENT: Acquisition method: 10.1002/rcm.8541
CH$NAME: C-desmethyl-metoprolol
CH$FORMULA: C14H23NO3
CH$EXACT_MASS: 253.1678
CH$SMILES: CCNCC(COC1=CC=C(C=C1)CCOC)O
CH$IUPAC: InChI=1S/C14H23NO3/c1-3-15-10-13(16)11-18-14-6-4-12(5-7-14)8-9-17-2/h4-7,13,15-16H,3,8-11H2,1-2H3
CH$LINK: CAS 109632-08-8
CH$LINK: INCHIKEY HYRRKPFGZHWUPQ-UHFFFAOYSA-N
AC$INSTRUMENT: TripleTOF 5600 SCIEX
AC$INSTRUMENT_TYPE: LC-ESI-QTOF
AC$MASS_SPECTROMETRY: MS_TYPE MS2
AC$MASS_SPECTROMETRY: ION_MODE POSITIVE
AC$MASS_SPECTROMETRY: COLLISION_ENERGY 60
AC$MASS_SPECTROMETRY: FRAGMENTATION_MODE CID
AC$MASS_SPECTROMETRY: IONIZATION ESI
AC$CHROMATOGRAPHY: COLUMN_NAME Zorbax Eclipse Plus C18 2.1 mm x 150 mm, 3.5 um, Agilent
AC$CHROMATOGRAPHY: COLUMN_TEMPERATURE 40 °C
AC$CHROMATOGRAPHY: FLOW_GRADIENT 0 min min 98% A, 1 min 98% A, 2 min 80% A, 16.5 min 2% A, 22 min 2% A, 22.1 min 98% A, 27 min 98% A
AC$CHROMATOGRAPHY: FLOW_RATE 0.3 mL/min
AC$CHROMATOGRAPHY: RETENTION_TIME 5.422 min
AC$CHROMATOGRAPHY: SOLVENT A: Water 0.1% Formic acid, B: Acetonitrile 0.1% Formic acid
MS$FOCUSED_ION: PRECURSOR_M/Z 254.1751
MS$FOCUSED_ION: PRECURSOR_TYPE [M+H]+
MS$DATA_PROCESSING: COMMENT Export with Spectra 1.9.12 MsBackendMassbank 1.7.4
MS$DATA_PROCESSING: WHOLE RMassBank 2.3.1
PK$SPLASH: splash10-004i-9300000000-44cfd47f047acfb62872
PK$NUM_PEAK: 39
PK$PEAK: m/z int. rel.int.
  41.0392 0.5 12
  42.0338 0.9 21
  44.0504 1.4 33
  45.034 1.2 28
  51.023 1.7 41
  55.0175 0.5 12
  56.0496 4 96
  57.071 0.8 19
  58.0656 20.1 485
  65.0381 2 48
  67.0538 1.1 26
  70.0658 1.5 36
  77.039 41.4 999
  78.0475 0.6 14
  79.0543 11 265
  84.0806 5.2 125
  86.0952 1.9 45
  90.0475 0.6 14
  91.0549 13.8 333
  92.0632 0.5 12
  93.0701 0.7 16
  102.0456 2 48
  102.091 2 48
  103.0548 19.5 470
  104.0614 1 24
  105.0339 0.9 21
  105.07 5.9 142
  107.0485 0.9 21
  115.0539 5.9 142
  116.063 2.5 60
  119.0504 1 24
  120.0566 0.6 14
  121.0641 1 24
  127.0556 0.5 12
  128.0608 1.5 36
  129.0717 0.9 21
  131.0497 0.7 16
  133.0646 1.3 31
  144.0589 1 24
//
