ACCESSION: MSBNK-BAFG-CSL23110918590
RECORD_TITLE: Tenamfetamine; LC-ESI-QTOF; MS2; 120 V
DATE: 2023.11.09
AUTHORS: Kevin S. Jewell; Björn Ehlig; Arne Wick
LICENSE: dl-de/by-2-0
COPYRIGHT: Copyright 2023 Federal Institute of Hydrology, Koblenz, Germany
COMMENT: CONFIDENCE Reference Standard (Level 1)
COMMENT: Chromatography method: dx.doi.org/10.1016/j.chroma.2015.11.014
COMMENT: Acquisition method: 10.1002/rcm.8541
CH$NAME: Tenamfetamine
CH$COMPOUND_CLASS: Pharmaceutical
CH$FORMULA: C10H13NO2
CH$EXACT_MASS: 179.0946
CH$SMILES: CC(CC1=CC2=C(C=C1)OCO2)N
CH$IUPAC: InChI=1S/C10H13NO2/c1-7(11)4-8-2-3-9-10(5-8)13-6-12-9/h2-3,5,7H,4,6,11H2,1H3
CH$LINK: CAS 4764-17-4
CH$LINK: INCHIKEY NGBBVGZWCFBOGO-UHFFFAOYSA-N
AC$INSTRUMENT: TripleTOF 6600 SCIEX
AC$INSTRUMENT_TYPE: LC-ESI-QTOF
AC$MASS_SPECTROMETRY: MS_TYPE MS2
AC$MASS_SPECTROMETRY: ION_MODE POSITIVE
AC$MASS_SPECTROMETRY: COLLISION_ENERGY 120
AC$MASS_SPECTROMETRY: FRAGMENTATION_MODE CID
AC$MASS_SPECTROMETRY: IONIZATION ESI
AC$CHROMATOGRAPHY: COLUMN_NAME Zorbax Eclipse Plus C18 2.1 mm x 150 mm, 3.5 um, Agilent
AC$CHROMATOGRAPHY: COLUMN_TEMPERATURE 40 °C
AC$CHROMATOGRAPHY: FLOW_GRADIENT 0 min min 98% A, 1 min 98% A, 2 min 80% A, 16.5 min 2% A, 22 min 2% A, 22.1 min 98% A, 27 min 98% A
AC$CHROMATOGRAPHY: FLOW_RATE 0.3 mL/min
AC$CHROMATOGRAPHY: RETENTION_TIME 5.295 min
AC$CHROMATOGRAPHY: SOLVENT A: Water 0.1% Formic acid, B: Acetonitrile 0.1% Formic acid
MS$FOCUSED_ION: PRECURSOR_M/Z 180.1019
MS$FOCUSED_ION: PRECURSOR_TYPE [M+H]+
MS$DATA_PROCESSING: COMMENT Export with Spectra 1.9.12 MsBackendMassbank 1.7.4
MS$DATA_PROCESSING: WHOLE RMassBank 2.3.1
PK$SPLASH: splash10-0udi-9000000000-b984d06a2c7fdc9cc4df
PK$NUM_PEAK: 19
PK$PEAK: m/z int. rel.int.
  35.9989 1.7 68
  37.0069 6.7 268
  38.0015 0.4 16
  38.0152 4.7 188
  39.0225 5.6 224
  49.0068 5 200
  50.0145 24.9 999
  51.0224 15.1 605
  52.0251 0.5 20
  53.0023 0.5 20
  59.9984 1 40
  61.0063 5.2 208
  62.0145 5.1 204
  63.0218 5 200
  64.0269 0.6 24
  73.0061 0.9 36
  74.0146 2.7 108
  75.0183 0.4 16
  89.0397 0.4 16
//
