ACCESSION: MSBNK-BAFG-CSL2311109899
RECORD_TITLE: 2-(3-Pyridyl)-1H-benzimidazole; LC-ESI-QTOF; MS2; 40 V
DATE: 2023.11.10
AUTHORS: Kevin S. Jewell; Björn Ehlig; Arne Wick
LICENSE: dl-de/by-2-0
COPYRIGHT: Copyright 2023 Federal Institute of Hydrology, Koblenz, Germany
COMMENT: CONFIDENCE Reference Standard (Level 1)
COMMENT: Chromatography method: dx.doi.org/10.1016/j.chroma.2015.11.014
COMMENT: Acquisition method: 10.1002/rcm.8541
CH$NAME: 2-(3-Pyridyl)-1H-benzimidazole
CH$COMPOUND_CLASS: Pharmaceutical
CH$FORMULA: C12H9N3
CH$EXACT_MASS: 195.0796
CH$SMILES: C1=CC=C2C(=C1)NC(=N2)C3=CN=CC=C3
CH$IUPAC: InChI=1S/C12H9N3/c1-2-6-11-10(5-1)14-12(15-11)9-4-3-7-13-8-9/h1-8H,(H,14,15)
CH$LINK: CAS 1137-67-3
CH$LINK: INCHIKEY BOUOQESVDURNSB-UHFFFAOYSA-N
AC$INSTRUMENT: TripleTOF 5600 SCIEX
AC$INSTRUMENT_TYPE: LC-ESI-QTOF
AC$MASS_SPECTROMETRY: MS_TYPE MS2
AC$MASS_SPECTROMETRY: ION_MODE POSITIVE
AC$MASS_SPECTROMETRY: COLLISION_ENERGY 40
AC$MASS_SPECTROMETRY: FRAGMENTATION_MODE CID
AC$MASS_SPECTROMETRY: IONIZATION ESI
AC$CHROMATOGRAPHY: COLUMN_NAME Zorbax Eclipse Plus C18 2.1 mm x 150 mm, 3.5 um, Agilent
AC$CHROMATOGRAPHY: COLUMN_TEMPERATURE 40 °C
AC$CHROMATOGRAPHY: FLOW_GRADIENT 0 min min 98% A, 1 min 98% A, 2 min 80% A, 16.5 min 2% A, 22 min 2% A, 22.1 min 98% A, 27 min 98% A
AC$CHROMATOGRAPHY: FLOW_RATE 0.3 mL/min
AC$CHROMATOGRAPHY: RETENTION_TIME 5.155 min
AC$CHROMATOGRAPHY: SOLVENT A: Water 0.1% Formic acid, B: Acetonitrile 0.1% Formic acid
MS$FOCUSED_ION: PRECURSOR_M/Z 196.0869
MS$FOCUSED_ION: PRECURSOR_TYPE [M+H]+
MS$DATA_PROCESSING: COMMENT Export with Spectra 1.9.12 MsBackendMassbank 1.7.4
MS$DATA_PROCESSING: WHOLE RMassBank 2.3.1
PK$SPLASH: splash10-014m-8900000000-6998ef6ebc8388eeb342
PK$NUM_PEAK: 15
PK$PEAK: m/z int. rel.int.
  39.0227 11.7 60
  51.0226 3.8 19
  65.0386 124.9 640
  78.0335 10.8 55
  92.0493 154.6 793
  105.0437 2.8 14
  115.0537 3 15
  119.0592 3.5 17
  155.06 2.5 12
  156.0687 13.2 67
  168.0676 16.7 85
  169.0757 87.3 447
  194.0694 3.6 18
  195.0781 5.4 27
  196.0864 194.7 999
//
