ACCESSION: MSBNK-BAFG-CSL2311099255
RECORD_TITLE: 2-Phenyl-1H-benzimidazol-4-amine; LC-ESI-QTOF; MS2; 110 V
DATE: 2023.11.09
AUTHORS: Kevin S. Jewell; Björn Ehlig; Arne Wick
LICENSE: dl-de/by-2-0
COPYRIGHT: Copyright 2023 Federal Institute of Hydrology, Koblenz, Germany
COMMENT: CONFIDENCE Reference Standard (Level 1)
COMMENT: Chromatography method: dx.doi.org/10.1016/j.chroma.2015.11.014
COMMENT: Acquisition method: 10.1002/rcm.8541
CH$NAME: 2-Phenyl-1H-benzimidazol-4-amine
CH$COMPOUND_CLASS: Pharmaceutical
CH$FORMULA: C13H11N3
CH$EXACT_MASS: 209.0953
CH$SMILES: C1=CC=C(C=C1)C2=NC3=C(N2)C=CC=C3N
CH$IUPAC: InChI=1S/C13H11N3/c14-10-7-4-8-11-12(10)16-13(15-11)9-5-2-1-3-6-9/h1-8H,14H2,(H,15,16)
CH$LINK: CAS 313494-64-3
CH$LINK: INCHIKEY PVNHYDDCQMHWAL-UHFFFAOYSA-N
AC$INSTRUMENT: TripleTOF 5600 SCIEX
AC$INSTRUMENT_TYPE: LC-ESI-QTOF
AC$MASS_SPECTROMETRY: MS_TYPE MS2
AC$MASS_SPECTROMETRY: ION_MODE POSITIVE
AC$MASS_SPECTROMETRY: COLLISION_ENERGY 110
AC$MASS_SPECTROMETRY: FRAGMENTATION_MODE CID
AC$MASS_SPECTROMETRY: IONIZATION ESI
AC$CHROMATOGRAPHY: COLUMN_NAME Zorbax Eclipse Plus C18 2.1 mm x 150 mm, 3.5 um, Agilent
AC$CHROMATOGRAPHY: COLUMN_TEMPERATURE 40 °C
AC$CHROMATOGRAPHY: FLOW_GRADIENT 0 min min 98% A, 1 min 98% A, 2 min 80% A, 16.5 min 2% A, 22 min 2% A, 22.1 min 98% A, 27 min 98% A
AC$CHROMATOGRAPHY: FLOW_RATE 0.3 mL/min
AC$CHROMATOGRAPHY: RETENTION_TIME 5.276 min
AC$CHROMATOGRAPHY: SOLVENT A: Water 0.1% Formic acid, B: Acetonitrile 0.1% Formic acid
MS$FOCUSED_ION: PRECURSOR_M/Z 210.1026
MS$FOCUSED_ION: PRECURSOR_TYPE [M+H]+
MS$DATA_PROCESSING: COMMENT Export with Spectra 1.9.12 MsBackendMassbank 1.7.4
MS$DATA_PROCESSING: WHOLE RMassBank 2.3.1
PK$SPLASH: splash10-0040-9100000000-fe6de17cde584db88eb3
PK$NUM_PEAK: 19
PK$PEAK: m/z int. rel.int.
  52.0287 1.2 142
  54.0458 2 237
  74.0223 1.3 154
  75.0268 0.5 59
  76.0255 0.7 83
  77.0434 4.9 582
  78.0391 2.2 261
  80.0549 8.4 999
  86.0198 1.5 178
  87.0288 1.1 130
  88.0219 0.7 83
  89.0431 2.2 261
  98.0157 0.5 59
  105.0468 0.8 95
  111.0235 0.5 59
  113.0388 0.6 71
  127.0503 0.7 83
  137.0396 0.7 83
  139.0544 0.5 59
//
