ACCESSION: MSBNK-BAFG-CSL23110917893
RECORD_TITLE: Clodinafop-Propargyl; LC-ESI-QTOF; MS2; 40 V
DATE: 2023.11.09
AUTHORS: Kevin S. Jewell; Björn Ehlig; Arne Wick
LICENSE: dl-de/by-2-0
COPYRIGHT: Copyright 2023 Federal Institute of Hydrology, Koblenz, Germany
COMMENT: CONFIDENCE Reference Standard (Level 1)
COMMENT: Chromatography method: dx.doi.org/10.1016/j.chroma.2015.11.014
COMMENT: Acquisition method: 10.1002/rcm.8541
CH$NAME: Clodinafop-Propargyl
CH$COMPOUND_CLASS: Herbicide
CH$FORMULA: C17H13ClFNO4
CH$EXACT_MASS: 349.0517
CH$SMILES: CC(C(=O)OCC#C)OC1=CC=C(C=C1)OC2=C(C=C(C=N2)Cl)F
CH$IUPAC: InChI=1S/C17H13ClFNO4/c1-3-8-22-17(21)11(2)23-13-4-6-14(7-5-13)24-16-15(19)9-12(18)10-20-16/h1,4-7,9-11H,8H2,2H3
CH$LINK: CAS 105512-06-9
CH$LINK: INCHIKEY JBDHZKLJNAIJNC-UHFFFAOYSA-N
AC$INSTRUMENT: TripleTOF 6600 SCIEX
AC$INSTRUMENT_TYPE: LC-ESI-QTOF
AC$MASS_SPECTROMETRY: MS_TYPE MS2
AC$MASS_SPECTROMETRY: ION_MODE POSITIVE
AC$MASS_SPECTROMETRY: COLLISION_ENERGY 40
AC$MASS_SPECTROMETRY: FRAGMENTATION_MODE CID
AC$MASS_SPECTROMETRY: IONIZATION ESI
AC$CHROMATOGRAPHY: COLUMN_NAME Zorbax Eclipse Plus C18 2.1 mm x 150 mm, 3.5 um, Agilent
AC$CHROMATOGRAPHY: COLUMN_TEMPERATURE 40 °C
AC$CHROMATOGRAPHY: FLOW_GRADIENT 0 min min 98% A, 1 min 98% A, 2 min 80% A, 16.5 min 2% A, 22 min 2% A, 22.1 min 98% A, 27 min 98% A
AC$CHROMATOGRAPHY: FLOW_RATE 0.3 mL/min
AC$CHROMATOGRAPHY: RETENTION_TIME 13.951 min
AC$CHROMATOGRAPHY: SOLVENT A: Water 0.1% Formic acid, B: Acetonitrile 0.1% Formic acid
MS$FOCUSED_ION: PRECURSOR_M/Z 350.059
MS$FOCUSED_ION: PRECURSOR_TYPE [M+H]+
MS$DATA_PROCESSING: COMMENT Export with Spectra 1.9.12 MsBackendMassbank 1.7.4
MS$DATA_PROCESSING: WHOLE RMassBank 2.3.1
PK$SPLASH: splash10-0076-5490000000-27cf4301ad04b2795927
PK$NUM_PEAK: 50
PK$PEAK: m/z int. rel.int.
  65.0369 2.4 63
  75.0216 0.5 13
  77.0367 0.6 15
  91.0528 37.5 999
  92.0243 0.7 18
  92.0606 1.4 37
  93.0665 0.6 15
  102.0439 0.5 13
  103.0525 0.8 21
  119.047 3.1 82
  120.0544 2.2 58
  121.026 0.7 18
  121.0627 0.7 18
  129.9835 1.8 47
  130.9919 0.5 13
  131.0465 1.4 37
  143.9989 0.4 10
  147.0595 0.8 21
  147.9941 1.6 42
  158.038 1.1 29
  159.0461 5.3 141
  167.0027 0.4 10
  169.0064 0.7 18
  174.0073 0.6 15
  176.0492 3.7 98
  182.0154 1.4 37
  183.0635 0.4 10
  185.061 1.1 29
  187.0402 2.6 69
  193.0077 0.6 15
  194.0153 0.8 21
  195.0212 0.6 15
  202.0661 0.7 18
  203.0731 1 26
  210.0092 0.8 21
  210.0458 1.6 42
  211.0176 0.8 21
  213.055 0.5 13
  216.0439 0.5 13
  219.0246 0.6 15
  220.0312 1.6 42
  222.0107 31.8 847
  223.0157 0.5 13
  230.0617 0.7 18
  231.0677 1.3 34
  238.006 10.3 274
  238.0406 9.7 258
  239.0124 3.7 98
  266.0368 7.6 202
  276.0209 2 53
//
