ACCESSION: MSBNK-BAFG-CSL2501064646
RECORD_TITLE: 4-Acetamidoantipyrine; LC-ESI-QTOF; MS2; 110 V
DATE: 2025.01.06
AUTHORS: Ole Lessmann; Kevin S. Jewell; Björn Ehlig; Arne Wick
LICENSE: dl-de/by-2-0
COPYRIGHT: Copyright 2025 Federal Institute of Hydrology, Koblenz, Germany
COMMENT: CONFIDENCE Reference Standard (Level 1)
COMMENT: Chromatography method: dx.doi.org/10.1016/j.chroma.2015.11.014
COMMENT: Acquisition method: 10.1002/rcm.8541
CH$NAME: 4-Acetamidoantipyrine
CH$COMPOUND_CLASS: Pharmaceutical; Metabolite; Transformation_product; Transformation_product-Metabolite
CH$FORMULA: C13H15N3O2
CH$EXACT_MASS: 245.1164
CH$SMILES: CN1N(C(=O)C(=C1C)NC(C)=O)c2ccccc2
CH$IUPAC: InChI=1S/C13H15N3O2/c1-9-12(14-10(2)17)13(18)16(15(9)3)11-7-5-4-6-8-11/h4-8H,1-3H3,(H,14,17)
CH$LINK: CAS 83-15-8
CH$LINK: INCHIKEY OIAGWXKSCXPNNZ-UHFFFAOYSA-N
AC$INSTRUMENT: TripleTOF 5600 SCIEX
AC$INSTRUMENT_TYPE: LC-ESI-QTOF
AC$MASS_SPECTROMETRY: MS_TYPE MS2
AC$MASS_SPECTROMETRY: ION_MODE POSITIVE
AC$MASS_SPECTROMETRY: COLLISION_ENERGY 110
AC$MASS_SPECTROMETRY: FRAGMENTATION_MODE CID
AC$MASS_SPECTROMETRY: IONIZATION ESI
AC$CHROMATOGRAPHY: COLUMN_NAME Zorbax Eclipse Plus C18 2.1 mm x 150 mm, 3.5 um, Agilent
AC$CHROMATOGRAPHY: COLUMN_TEMPERATURE 40 °C
AC$CHROMATOGRAPHY: FLOW_GRADIENT 0 min min 98% A, 1 min 98% A, 2 min 80% A, 16.5 min 2% A, 22 min 2% A, 22.1 min 98% A, 27 min 98% A
AC$CHROMATOGRAPHY: FLOW_RATE 0.3 mL/min
AC$CHROMATOGRAPHY: RETENTION_TIME 5.586 min
AC$CHROMATOGRAPHY: SOLVENT A: Water 0.1% Formic acid, B: Acetonitrile 0.1% Formic acid
MS$FOCUSED_ION: PRECURSOR_M/Z 246.1237
MS$FOCUSED_ION: PRECURSOR_TYPE [M+H]+
MS$DATA_PROCESSING: COMMENT Export with pycsl 0.1.0.dev1 and CSL 24.4
PK$SPLASH: splash10-0a6u-9000000000-f2d1a1f2e97c0f8d274a
PK$NUM_PEAK: 19
PK$PEAK: m/z int. rel.int.
  41.0342 0.9 35
  42.0428 7.4 288
  43.0266 9.6 374
  53.0191 2.0 78
  54.0402 1.2 46
  56.0553 25.6 999
  65.0445 1.6 62
  66.0508 0.8 31
  69.0485 0.7 27
  74.0172 0.5 19
  75.0248 0.9 35
  76.0331 0.4 15
  77.0419 18.4 718
  81.0471 1.6 62
  83.0621 11.7 456
  89.0389 1.0 39
  92.0527 0.5 19
  115.056 0.6 23
  116.0535 0.5 19
//