ACCESSION: MSBNK-BAFG-CSL2311095886
RECORD_TITLE: Tramadol; LC-ESI-QTOF; MS2; 130 V
DATE: 2023.11.09
AUTHORS: Kevin S. Jewell; Björn Ehlig; Arne Wick
LICENSE: dl-de/by-2-0
COPYRIGHT: Copyright 2023 Federal Institute of Hydrology, Koblenz, Germany
COMMENT: CONFIDENCE Reference Standard (Level 1)
COMMENT: Chromatography method: dx.doi.org/10.1016/j.chroma.2015.11.014
COMMENT: Acquisition method: 10.1002/rcm.8541
CH$NAME: Tramadol
CH$COMPOUND_CLASS: Pharmaceutical
CH$FORMULA: C16H25NO2
CH$EXACT_MASS: 263.1885
CH$SMILES: COc1cccc(c1)[C@@]2(O)CCCC[C@@H]2CN(C)C
CH$IUPAC: InChI=1S/C16H25NO2/c1-17(2)12-14-7-4-5-10-16(14,18)13-8-6-9-15(11-13)19-3/h6,8-9,11,14,18H,4-5,7,10,12H2,1-3H3/t14-,16+/m1/s1
CH$LINK: CAS 27203-92-5
CH$LINK: INCHIKEY TVYLLZQTGLZFBW-ZBFHGGJFSA-N
AC$INSTRUMENT: TripleTOF 5600 SCIEX
AC$INSTRUMENT_TYPE: LC-ESI-QTOF
AC$MASS_SPECTROMETRY: MS_TYPE MS2
AC$MASS_SPECTROMETRY: ION_MODE POSITIVE
AC$MASS_SPECTROMETRY: COLLISION_ENERGY 130
AC$MASS_SPECTROMETRY: FRAGMENTATION_MODE CID
AC$MASS_SPECTROMETRY: IONIZATION ESI
AC$CHROMATOGRAPHY: COLUMN_NAME Zorbax Eclipse Plus C18 2.1 mm x 150 mm, 3.5 um, Agilent
AC$CHROMATOGRAPHY: COLUMN_TEMPERATURE 40 °C
AC$CHROMATOGRAPHY: FLOW_GRADIENT 0 min min 98% A, 1 min 98% A, 2 min 80% A, 16.5 min 2% A, 22 min 2% A, 22.1 min 98% A, 27 min 98% A
AC$CHROMATOGRAPHY: FLOW_RATE 0.3 mL/min
AC$CHROMATOGRAPHY: RETENTION_TIME 6.207 min
AC$CHROMATOGRAPHY: SOLVENT A: Water 0.1% Formic acid, B: Acetonitrile 0.1% Formic acid
MS$FOCUSED_ION: PRECURSOR_M/Z 264.1958
MS$FOCUSED_ION: PRECURSOR_TYPE [M+H]+
MS$DATA_PROCESSING: COMMENT Export with Spectra 1.9.12 MsBackendMassbank 1.7.4
MS$DATA_PROCESSING: WHOLE RMassBank 2.3.1
PK$SPLASH: splash10-0a4i-9000000000-b9f94a0af2dc73d6c49b
PK$NUM_PEAK: 13
PK$PEAK: m/z int. rel.int.
  42.0423 25.6 434
  51.0289 3.6 61
  56.0537 2.6 44
  58.0709 58.9 999
  64.0334 0.9 15
  65.0414 2.7 45
  77.0414 4 67
  78.0489 1.6 27
  89.0402 1.4 23
  92.0264 0.7 11
  102.0462 1 16
  115.0543 2.5 42
  128.0615 0.8 13
//
