ACCESSION: MSBNK-BAFG-CSL2311093149
RECORD_TITLE: Ethyldiphenylphosphine oxide; LC-ESI-QTOF; MS2; 130 V
DATE: 2023.11.09
AUTHORS: Kevin S. Jewell; Björn Ehlig; Arne Wick
LICENSE: dl-de/by-2-0
COPYRIGHT: Copyright 2023 Federal Institute of Hydrology, Koblenz, Germany
COMMENT: CONFIDENCE Reference Standard (Level 1)
COMMENT: Chromatography method: dx.doi.org/10.1016/j.chroma.2015.11.014
COMMENT: Acquisition method: 10.1002/rcm.8541
CH$NAME: Ethyldiphenylphosphine oxide
CH$COMPOUND_CLASS: Industrial_process
CH$FORMULA: C14H15OP
CH$EXACT_MASS: 230.0861
CH$SMILES: CC[P](=O)(c1ccccc1)c2ccccc2
CH$IUPAC: InChI=1S/C14H15OP/c1-2-16(15,13-9-5-3-6-10-13)14-11-7-4-8-12-14/h3-12H,2H2,1H3
CH$LINK: CAS 1733-57-9
CH$LINK: INCHIKEY AKTGKEBIBGSCLD-UHFFFAOYSA-N
AC$INSTRUMENT: TripleTOF 5600 SCIEX
AC$INSTRUMENT_TYPE: LC-ESI-QTOF
AC$MASS_SPECTROMETRY: MS_TYPE MS2
AC$MASS_SPECTROMETRY: ION_MODE POSITIVE
AC$MASS_SPECTROMETRY: COLLISION_ENERGY 130
AC$MASS_SPECTROMETRY: FRAGMENTATION_MODE CID
AC$MASS_SPECTROMETRY: IONIZATION ESI
AC$CHROMATOGRAPHY: COLUMN_NAME Zorbax Eclipse Plus C18 2.1 mm x 150 mm, 3.5 um, Agilent
AC$CHROMATOGRAPHY: COLUMN_TEMPERATURE 40 °C
AC$CHROMATOGRAPHY: FLOW_GRADIENT 0 min min 98% A, 1 min 98% A, 2 min 80% A, 16.5 min 2% A, 22 min 2% A, 22.1 min 98% A, 27 min 98% A
AC$CHROMATOGRAPHY: FLOW_RATE 0.3 mL/min
AC$CHROMATOGRAPHY: RETENTION_TIME 8.816 min
AC$CHROMATOGRAPHY: SOLVENT A: Water 0.1% Formic acid, B: Acetonitrile 0.1% Formic acid
MS$FOCUSED_ION: PRECURSOR_M/Z 231.0933
MS$FOCUSED_ION: PRECURSOR_TYPE [M+H]+
MS$DATA_PROCESSING: COMMENT Export with Spectra 1.9.12 MsBackendMassbank 1.7.4
MS$DATA_PROCESSING: WHOLE RMassBank 2.3.1
PK$SPLASH: splash10-0fb9-9500000000-515ba8b41e499ebe2e5e
PK$NUM_PEAK: 35
PK$PEAK: m/z int. rel.int.
  47.0026 1.9 292
  52.0362 2 307
  55.9854 1.2 184
  56.9925 3.1 476
  65.0423 1.9 292
  67.9849 1.4 215
  68.992 1 153
  74.0184 6.3 968
  75.0253 2.3 353
  76.0334 4 614
  77.041 5.9 906
  78.0482 1.9 292
  78.9745 1.5 230
  79.9829 3.9 599
  80.9909 3.3 507
  86.0168 1.7 261
  87.0251 2.4 368
  89.0398 1.9 292
  91.9815 0.8 122
  98.0147 2.5 384
  99.0227 1.2 184
  102.0465 2 307
  103.9799 1.3 199
  107.0035 4 614
  113.039 1 153
  125.0378 1.1 169
  126.0449 4.6 706
  139.0544 0.8 122
  149.0379 1 153
  150.0457 6.5 999
  151.0528 5.2 799
  152.0625 1.9 292
  163.053 1 153
  179.0043 1.3 199
  181.0195 1 153
//
