ACCESSION: MSBNK-BAFG-CSL25011734611
RECORD_TITLE: N-[2-[(2-Bromo-4,6-dinitrophenyl)azo]-5-(diethylamino)phenyl]acetamide; LC-ESI-QTOF; MS2; 150 V
DATE: 2025.01.17
AUTHORS: Ole Lessmann; Kevin S. Jewell; Björn Ehlig; Arne Wick
LICENSE: dl-de/by-2-0
COPYRIGHT: Copyright 2025 Federal Institute of Hydrology, Koblenz, Germany
COMMENT: CONFIDENCE Reference Standard (Level 1)
COMMENT: Chromatography method: dx.doi.org/10.1016/j.chroma.2015.11.014
CH$NAME: N-[2-[(2-Bromo-4,6-dinitrophenyl)azo]-5-(diethylamino)phenyl]acetamide
CH$FORMULA: C18H19BrN6O5
CH$EXACT_MASS: 478.06
CH$SMILES: CCN(CC)C1=CC(=C(C=C1)N=NC2=C(C=C(C=C2Br)[N+](=O)[O-])[N+](=O)[O-])NC(=O)C
CH$IUPAC: InChI=1S/C18H19BrN6O5/c1-4-23(5-2)12-6-7-15(16(9-12)20-11(3)26)21-22-18-14(19)8-13(24(27)28)10-17(18)25(29)30/h6-10H,4-5H2,1-3H3,(H,20,26)
CH$LINK: CAS 52697-38-8
CH$LINK: INCHIKEY WFFKSTRPZWRBEW-UHFFFAOYSA-N
AC$INSTRUMENT: TripleTOF 6600 SCIEX
AC$INSTRUMENT_TYPE: LC-ESI-QTOF
AC$MASS_SPECTROMETRY: MS_TYPE MS2
AC$MASS_SPECTROMETRY: ION_MODE POSITIVE
AC$MASS_SPECTROMETRY: COLLISION_ENERGY 150
AC$MASS_SPECTROMETRY: FRAGMENTATION_MODE CID
AC$MASS_SPECTROMETRY: IONIZATION ESI
AC$CHROMATOGRAPHY: COLUMN_NAME Zorbax Eclipse Plus C18 2.1 mm x 150 mm, 3.5 um, Agilent
AC$CHROMATOGRAPHY: COLUMN_TEMPERATURE 40 °C
AC$CHROMATOGRAPHY: FLOW_GRADIENT 0 min min 98% A, 1 min 98% A, 2 min 80% A, 16.5 min 2% A, 22 min 2% A, 22.1 min 98% A, 27 min 98% A
AC$CHROMATOGRAPHY: FLOW_RATE 0.3 mL/min
AC$CHROMATOGRAPHY: RETENTION_TIME 16.579 min
AC$CHROMATOGRAPHY: SOLVENT A: Water 0.1% Formic acid, B: Acetonitrile 0.1% Formic acid
MS$FOCUSED_ION: PRECURSOR_M/Z 479.0673
MS$FOCUSED_ION: PRECURSOR_TYPE [M+H]+
MS$DATA_PROCESSING: COMMENT Export with pycsl 0.1.0.dev1 and CSL 25.0
PK$SPLASH: splash10-002f-9500000000-98afd5c98b0d96aeeb6e
PK$NUM_PEAK: 82
PK$PEAK: m/z int. rel.int.
  39.0218 1.6 102
  42.0324 0.9 57
  43.0174 3.6 230
  50.014 0.4 25
  51.0214 2.4 153
  52.0172 0.7 44
  52.0295 3.1 198
  53.0379 2.8 179
  54.0339 0.5 32
  62.0142 1.1 70
  63.0224 2.0 128
  64.0299 0.6 38
  65.0374 8.6 550
  66.0333 0.8 51
  66.0455 2.0 128
  67.0397 1.0 64
  74.0144 0.7 44
  75.0224 1.2 76
  76.0182 0.6 38
  77.0375 8.1 518
  78.0324 5.5 352
  79.0282 1.7 108
  79.0397 3.8 243
  79.0526 0.9 57
  80.0481 10.2 653
  87.0201 0.5 32
  88.0294 1.0 64
  89.0376 2.7 172
  90.0321 1.8 115
  90.0465 0.4 25
  91.0405 3.7 236
  91.0531 0.7 44
  92.049 6.3 403
  93.0557 15.6 999
  94.0631 1.4 89
  99.0218 0.4 25
  102.0321 0.6 38
  103.0416 0.6 38
  104.0487 2.1 134
  105.0438 4.6 294
  106.051 0.8 51
  106.0628 3.1 198
  107.0364 0.6 38
  107.061 1.0 64
  113.0362 1.6 102
  114.0329 1.1 70
  115.0489 0.9 57
  116.0471 1.0 64
  117.0437 2.0 128
  118.0502 3.4 217
  119.0594 3.7 236
  120.0569 0.8 51
  121.075 0.8 51
  126.0444 0.9 57
  129.051 0.7 44
  131.0608 1.1 70
  133.0602 2.2 140
  134.0439 0.5 32
  134.0633 0.5 32
  137.0353 0.9 57
  138.0338 0.9 57
  138.045 1.2 76
  139.0526 3.5 224
  140.0472 4.7 300
  141.0549 0.7 44
  146.0707 1.3 83
  147.0516 0.8 51
  150.0387 1.1 70
  151.045 1.8 115
  152.0457 0.6 38
  153.0525 0.5 32
  154.0587 0.6 38
  155.0597 0.5 32
  161.0654 0.4 25
  164.05 3.9 249
  165.0508 2.2 140
  166.0627 0.7 44
  167.0611 0.6 38
  179.0566 0.6 38
  191.056 0.6 38
  193.0614 0.6 38
  206.0772 0.4 25
//
