ACCESSION: MSBNK-BAFG-CSL23111017096
RECORD_TITLE: Mandipropamid; LC-ESI-QTOF; MS2; 80 V
DATE: 2023.11.10
AUTHORS: Kevin S. Jewell; Björn Ehlig; Arne Wick
LICENSE: dl-de/by-2-0
COPYRIGHT: Copyright 2023 Federal Institute of Hydrology, Koblenz, Germany
COMMENT: CONFIDENCE Reference Standard (Level 1)
COMMENT: Chromatography method: dx.doi.org/10.1016/j.chroma.2015.11.014
COMMENT: Acquisition method: 10.1002/rcm.8541
CH$NAME: Mandipropamid
CH$COMPOUND_CLASS: Fungicide
CH$FORMULA: C23H22ClNO4
CH$EXACT_MASS: 411.1237
CH$SMILES: COC1=C(C=CC(=C1)CCNC(=O)C(C2=CC=C(C=C2)Cl)OCC#C)OCC#C
CH$IUPAC: InChI=1S/C23H22ClNO4/c1-4-14-28-20-11-6-17(16-21(20)27-3)12-13-25-23(26)22(29-15-5-2)18-7-9-19(24)10-8-18/h1-2,6-11,16,22H,12-15H2,3H3,(H,25,26)
CH$LINK: CAS 374726-62-2
CH$LINK: INCHIKEY KWLVWJPJKJMCSH-UHFFFAOYSA-N
AC$INSTRUMENT: TripleTOF 6600 SCIEX
AC$INSTRUMENT_TYPE: LC-ESI-QTOF
AC$MASS_SPECTROMETRY: MS_TYPE MS2
AC$MASS_SPECTROMETRY: ION_MODE POSITIVE
AC$MASS_SPECTROMETRY: COLLISION_ENERGY 80
AC$MASS_SPECTROMETRY: FRAGMENTATION_MODE CID
AC$MASS_SPECTROMETRY: IONIZATION ESI
AC$CHROMATOGRAPHY: COLUMN_NAME Zorbax Eclipse Plus C18 2.1 mm x 150 mm, 3.5 um, Agilent
AC$CHROMATOGRAPHY: COLUMN_TEMPERATURE 40 °C
AC$CHROMATOGRAPHY: FLOW_GRADIENT 0 min min 98% A, 1 min 98% A, 2 min 80% A, 16.5 min 2% A, 22 min 2% A, 22.1 min 98% A, 27 min 98% A
AC$CHROMATOGRAPHY: FLOW_RATE 0.3 mL/min
AC$CHROMATOGRAPHY: RETENTION_TIME 12.239 min
AC$CHROMATOGRAPHY: SOLVENT A: Water 0.1% Formic acid, B: Acetonitrile 0.1% Formic acid
MS$FOCUSED_ION: PRECURSOR_M/Z 412.131
MS$FOCUSED_ION: PRECURSOR_TYPE [M+H]+
MS$DATA_PROCESSING: COMMENT Export with Spectra 1.9.12 MsBackendMassbank 1.7.4
MS$DATA_PROCESSING: WHOLE RMassBank 2.3.1
PK$SPLASH: splash10-004i-2900000000-97794cf51f6290ba8f19
PK$NUM_PEAK: 93
PK$PEAK: m/z int. rel.int.
  63.0228 1.7 27
  65.0382 1.7 27
  72.9835 1 16
  77.038 6.4 102
  78.0464 1.3 20
  79.0539 1.9 30
  80.0497 0.7 11
  89.038 13.5 216
  90.0465 4.9 78
  91.0536 12.7 203
  93.0571 0.9 14
  93.0701 1 16
  94.0647 1.7 27
  95.048 1.3 20
  98.9991 6.4 102
  102.0466 1.4 22
  103.0536 5.2 83
  104.0484 1 16
  104.0613 0.8 12
  105.0348 1 16
  105.0682 1.2 19
  106.0643 1.2 19
  107.0482 3.3 53
  110.9986 1.2 19
  115.0532 8.3 133
  116.0618 2.7 43
  117.0561 3.3 53
  117.0681 2.8 44
  118.0651 4.7 75
  119.0473 1.9 30
  121.0637 3.9 62
  122.0587 2.9 46
  123.0434 1 16
  124.0055 0.8 12
  125.0147 62.2 999
  127.0535 2.4 38
  128.0609 6 96
  129.0686 1.5 24
  130.0399 0.9 14
  130.0632 2.7 43
  131.0483 3 48
  133.0279 1.2 19
  133.0524 1.3 20
  134.0592 3 48
  135.043 2.9 46
  135.0662 0.9 14
  136.0747 1 16
  137.0602 0.7 11
  144.0568 1.1 17
  145.0644 1.1 17
  146.0595 2.3 36
  147.0429 4 64
  148.0477 0.8 12
  148.0747 1.1 17
  149.0143 0.6 9
  149.0578 1.3 20
  150.0537 1.2 19
  152.0249 1.9 30
  152.061 1.8 28
  153.0688 1.4 22
  155.0597 1.1 17
  157.0629 1 16
  164.0678 0.8 12
  165.0692 6.7 107
  166.0763 1.5 24
  176.0659 1.4 22
  177.0691 0.6 9
  178.077 5.3 85
  179.0852 2.1 33
  181.0651 1.6 25
  182.072 1.1 17
  189.0693 2.7 43
  190.0761 2.5 40
  191.0855 1.8 28
  194.0713 2.4 38
  199.0314 1.1 17
  201.044 0.7 11
  202.0778 2.1 33
  203.0833 2.6 41
  204.0911 0.8 12
  205.063 0.8 12
  205.0964 0.6 9
  207.0795 1.2 19
  208.0879 0.8 12
  210.0682 0.6 9
  212.0371 0.9 14
  215.0838 2.2 35
  216.0826 0.8 12
  217.0878 0.9 14
  218.0715 0.7 11
  225.046 0.8 12
  233.0854 0.8 12
  234.0891 1.1 17
//
