ACCESSION: MSBNK-BAFG-CSL23102511910
RECORD_TITLE: Isopropyltriphenylphosphonium; LC-ESI-QTOF; MS2; 120 V
DATE: 2023.10.25
AUTHORS: Kevin S. Jewell; Björn Ehlig; Arne Wick
LICENSE: dl-de/by-2-0
COPYRIGHT: Copyright 2023 Federal Institute of Hydrology, Koblenz, Germany
COMMENT: CONFIDENCE Reference Standard (Level 1)
COMMENT: Chromatography method: dx.doi.org/10.1016/j.chroma.2015.11.014
COMMENT: Acquisition method: 10.1002/rcm.8541
CH$NAME: Isopropyltriphenylphosphonium
CH$FORMULA: C21H22P
CH$EXACT_MASS: 305.1454
CH$SMILES: CC(C)[P+](C1=CC=CC=C1)(C2=CC=CC=C2)C3=CC=CC=C3
CH$IUPAC: InChI=1S/C21H22P/c1-18(2)22(19-12-6-3-7-13-19,20-14-8-4-9-15-20)21-16-10-5-11-17-21/h3-18H,1-2H3/q+1
CH$LINK: CAS 24470-78-8
CH$LINK: INCHIKEY PXIMQGSMXJFQOF-UHFFFAOYSA-N
AC$INSTRUMENT: TripleTOF 5600 SCIEX
AC$INSTRUMENT_TYPE: LC-ESI-QTOF
AC$MASS_SPECTROMETRY: MS_TYPE MS2
AC$MASS_SPECTROMETRY: ION_MODE POSITIVE
AC$MASS_SPECTROMETRY: COLLISION_ENERGY 120
AC$MASS_SPECTROMETRY: FRAGMENTATION_MODE CID
AC$MASS_SPECTROMETRY: IONIZATION ESI
AC$CHROMATOGRAPHY: COLUMN_NAME Zorbax Eclipse Plus C18 2.1 mm x 150 mm, 3.5 um, Agilent
AC$CHROMATOGRAPHY: COLUMN_TEMPERATURE 40 °C
AC$CHROMATOGRAPHY: FLOW_GRADIENT 0 min min 98% A, 1 min 98% A, 2 min 80% A, 16.5 min 2% A, 22 min 2% A, 22.1 min 98% A, 27 min 98% A
AC$CHROMATOGRAPHY: FLOW_RATE 0.3 mL/min
AC$CHROMATOGRAPHY: RETENTION_TIME 7.721 min
AC$CHROMATOGRAPHY: SOLVENT A: Water 0.1% Formic acid, B: Acetonitrile 0.1% Formic acid
MS$FOCUSED_ION: PRECURSOR_M/Z 305.1454
MS$FOCUSED_ION: PRECURSOR_TYPE [M]+
MS$DATA_PROCESSING: COMMENT Export with Spectra 1.9.12 MsBackendMassbank 1.7.4
MS$DATA_PROCESSING: WHOLE RMassBank 2.3.1
PK$SPLASH: splash10-0zfr-1900000000-cfb15352a5a7505da8ce
PK$NUM_PEAK: 23
PK$PEAK: m/z int. rel.int.
  56.9886 4.6 51
  63.0224 8.1 91
  65.038 5.1 57
  79.9797 10.3 115
  80.9875 15.8 177
  89.0369 23.1 259
  102.0441 10.8 121
  107.0028 78.9 887
  113.0367 8.1 91
  115.0528 40.6 456
  126.0446 25.5 286
  131.0037 9.1 102
  133.0184 7.8 87
  139.0525 29.7 334
  150.0457 18.8 211
  151.0534 51.3 577
  152.0612 88.8 999
  155.0031 5.1 57
  156.0107 9.5 106
  157.0191 46.2 519
  180.0106 6 67
  181.02 43.1 484
  183.0349 9.8 110
//
