ACCESSION: MSBNK-BAFG-CSL25010627934
RECORD_TITLE: Indigo; LC-ESI-QTOF; MS2; 40 V
DATE: 2025.01.06
AUTHORS: Ole Lessmann; Kevin S. Jewell; Björn Ehlig; Arne Wick
LICENSE: dl-de/by-2-0
COPYRIGHT: Copyright 2025 Federal Institute of Hydrology, Koblenz, Germany
COMMENT: CONFIDENCE Reference Standard (Level 1)
COMMENT: Chromatography method: dx.doi.org/10.1016/j.chroma.2015.11.014
COMMENT: Acquisition method: 10.1002/rcm.8541
CH$NAME: Indigo
CH$FORMULA: C16H10N2O2
CH$EXACT_MASS: 262.0742
CH$SMILES: C1=CC=C2C(=C1)C(=C(N2)C3=NC4=CC=CC=C4C3=O)O
CH$IUPAC: InChI=1S/C16H10N2O2/c19-15-9-5-1-3-7-11(9)17-13(15)14-16(20)10-6-2-4-8-12(10)18-14/h1-8,17,19H
CH$LINK: CAS 482-89-3
CH$LINK: INCHIKEY QQILFGKZUJYXGS-UHFFFAOYSA-N
AC$INSTRUMENT: TripleTOF X500R SCIEX
AC$INSTRUMENT_TYPE: LC-ESI-QTOF
AC$MASS_SPECTROMETRY: MS_TYPE MS2
AC$MASS_SPECTROMETRY: ION_MODE POSITIVE
AC$MASS_SPECTROMETRY: COLLISION_ENERGY 40
AC$MASS_SPECTROMETRY: FRAGMENTATION_MODE CID
AC$MASS_SPECTROMETRY: IONIZATION ESI
AC$CHROMATOGRAPHY: COLUMN_NAME Zorbax Eclipse Plus C18 2.1 mm x 150 mm, 3.5 um, Agilent
AC$CHROMATOGRAPHY: COLUMN_TEMPERATURE 40 °C
AC$CHROMATOGRAPHY: FLOW_GRADIENT 0 min min 98% A, 1 min 98% A, 2 min 80% A, 16.5 min 2% A, 22 min 2% A, 22.1 min 98% A, 27 min 98% A
AC$CHROMATOGRAPHY: FLOW_RATE 0.3 mL/min
AC$CHROMATOGRAPHY: RETENTION_TIME 11.892 min
AC$CHROMATOGRAPHY: SOLVENT A: Water 0.1% Formic acid, B: Acetonitrile 0.1% Formic acid
MS$FOCUSED_ION: PRECURSOR_M/Z 263.0815
MS$FOCUSED_ION: PRECURSOR_TYPE [M+H]+
MS$DATA_PROCESSING: COMMENT Export with pycsl 0.1.0.dev1 and CSL 24.4
PK$SPLASH: splash10-03di-0290000000-5290077bc7c2359e7d45
PK$NUM_PEAK: 40
PK$PEAK: m/z int. rel.int.
  51.0236 0.9 15
  77.0385 4.0 70
  89.0379 1.0 17
  102.0334 0.8 14
  104.0495 2.7 47
  105.0344 1.6 28
  116.0499 1.5 26
  117.0581 0.9 15
  130.0291 0.8 14
  131.0313 0.6 10
  132.0448 10.9 192
  144.0455 0.9 15
  152.063 1.9 33
  157.0429 0.6 10
  158.0457 0.7 12
  164.0572 0.7 12
  165.0698 1.4 24
  178.0649 0.6 10
  179.0746 2.7 47
  180.0814 6.5 114
  181.0673 0.6 10
  190.0659 8.9 156
  191.0733 0.7 12
  205.0766 6.7 118
  206.084 15.8 278
  207.0918 3.0 52
  208.0767 5.8 102
  216.0679 2.2 38
  217.0768 7.7 135
  218.0598 0.6 10
  218.0855 4.3 75
  219.0924 20.4 359
  233.0721 0.8 14
  234.0796 12.0 211
  235.0869 25.3 445
  236.0712 1.2 21
  245.0702 1.2 21
  246.0803 1.0 17
  262.0748 15.8 278
  263.0815 56.7 999
//