ACCESSION: MSBNK-BAFG-CSL25010634162
RECORD_TITLE: 3,3-Diphenylacrylonitrile; LC-ESI-QTOF; MS2; 40 V
DATE: 2025.01.06
AUTHORS: Ole Lessmann; Kevin S. Jewell; Björn Ehlig; Arne Wick
LICENSE: dl-de/by-2-0
COPYRIGHT: Copyright 2025 Federal Institute of Hydrology, Koblenz, Germany
COMMENT: CONFIDENCE Reference Standard (Level 1)
COMMENT: Chromatography method: dx.doi.org/10.1016/j.chroma.2015.11.014
COMMENT: Acquisition method: 10.1002/rcm.8541
CH$NAME: 3,3-Diphenylacrylonitrile
CH$FORMULA: C15H11N
CH$EXACT_MASS: 205.0891
CH$SMILES: C1=CC=C(C=C1)C(=CC#N)C2=CC=CC=C2
CH$IUPAC: InChI=1S/C15H11N/c16-12-11-15(13-7-3-1-4-8-13)14-9-5-2-6-10-14/h1-11H
CH$LINK: CAS 3531-24-6
CH$LINK: INCHIKEY RDGWQFSLTSPRBG-UHFFFAOYSA-N
AC$INSTRUMENT: TripleTOF 6600 SCIEX
AC$INSTRUMENT_TYPE: LC-ESI-QTOF
AC$MASS_SPECTROMETRY: MS_TYPE MS2
AC$MASS_SPECTROMETRY: ION_MODE POSITIVE
AC$MASS_SPECTROMETRY: COLLISION_ENERGY 40
AC$MASS_SPECTROMETRY: FRAGMENTATION_MODE CID
AC$MASS_SPECTROMETRY: IONIZATION ESI
AC$CHROMATOGRAPHY: COLUMN_NAME Zorbax Eclipse Plus C18 2.1 mm x 150 mm, 3.5 um, Agilent
AC$CHROMATOGRAPHY: COLUMN_TEMPERATURE 40 °C
AC$CHROMATOGRAPHY: FLOW_GRADIENT 0 min min 98% A, 1 min 98% A, 2 min 80% A, 16.5 min 2% A, 22 min 2% A, 22.1 min 98% A, 27 min 98% A
AC$CHROMATOGRAPHY: FLOW_RATE 0.3 mL/min
AC$CHROMATOGRAPHY: RETENTION_TIME 13.746 min
AC$CHROMATOGRAPHY: SOLVENT A: Water 0.1% Formic acid, B: Acetonitrile 0.1% Formic acid
MS$FOCUSED_ION: PRECURSOR_M/Z 206.0964
MS$FOCUSED_ION: PRECURSOR_TYPE [M+H]+
MS$DATA_PROCESSING: COMMENT Export with pycsl 0.1.0.dev1 and CSL 24.4
PK$SPLASH: splash10-0fb9-2910000000-a5a3e3ec99f5895a03c5
PK$NUM_PEAK: 27
PK$PEAK: m/z int. rel.int.
  51.022 2.2 33
  75.0219 5.7 87
  77.0375 44.5 681
  101.0365 23.5 360
  102.0338 1.8 27
  103.0522 4.2 64
  104.0482 51.7 792
  105.0432 1.1 16
  128.0482 65.2 999
  129.0433 8.5 130
  130.0404 0.8 12
  151.0523 1.0 15
  152.0612 2.3 35
  164.0627 1.5 22
  165.0672 8.7 133
  166.0765 0.7 10
  176.0601 2.8 42
  177.0677 3.5 53
  178.0759 33.9 519
  179.0865 3.2 49
  189.0709 0.8 12
  190.0637 2.0 30
  191.0694 0.8 12
  203.0749 0.7 10
  204.0797 8.9 136
  205.0888 1.4 21
  206.0953 32.7 501
//