ACCESSION: MSBNK-BAFG-CSL25010634463
RECORD_TITLE: Sudan I; LC-ESI-QTOF; MS2; 80 V
DATE: 2025.01.06
AUTHORS: Ole Lessmann; Kevin S. Jewell; Björn Ehlig; Arne Wick
LICENSE: dl-de/by-2-0
COPYRIGHT: Copyright 2025 Federal Institute of Hydrology, Koblenz, Germany
COMMENT: CONFIDENCE Reference Standard (Level 1)
COMMENT: Chromatography method: dx.doi.org/10.1016/j.chroma.2015.11.014
COMMENT: Acquisition method: 10.1002/rcm.8541
CH$NAME: Sudan I
CH$FORMULA: C16H12N2O
CH$EXACT_MASS: 248.095
CH$SMILES: C1=CC=C(C=C1)N=NC2=C(C=CC3=CC=CC=C32)O
CH$IUPAC: InChI=1S/C16H12N2O/c19-15-11-10-12-6-4-5-9-14(12)16(15)18-17-13-7-2-1-3-8-13/h1-11,19H
CH$LINK: CAS 842-07-9
CH$LINK: INCHIKEY MRQIXHXHHPWVIL-UHFFFAOYSA-N
AC$INSTRUMENT: TripleTOF 6600 SCIEX
AC$INSTRUMENT_TYPE: LC-ESI-QTOF
AC$MASS_SPECTROMETRY: MS_TYPE MS2
AC$MASS_SPECTROMETRY: ION_MODE POSITIVE
AC$MASS_SPECTROMETRY: COLLISION_ENERGY 80
AC$MASS_SPECTROMETRY: FRAGMENTATION_MODE CID
AC$MASS_SPECTROMETRY: IONIZATION ESI
AC$CHROMATOGRAPHY: COLUMN_NAME Zorbax Eclipse Plus C18 2.1 mm x 150 mm, 3.5 um, Agilent
AC$CHROMATOGRAPHY: COLUMN_TEMPERATURE 40 °C
AC$CHROMATOGRAPHY: FLOW_GRADIENT 0 min min 98% A, 1 min 98% A, 2 min 80% A, 16.5 min 2% A, 22 min 2% A, 22.1 min 98% A, 27 min 98% A
AC$CHROMATOGRAPHY: FLOW_RATE 0.3 mL/min
AC$CHROMATOGRAPHY: RETENTION_TIME 15.674 min
AC$CHROMATOGRAPHY: SOLVENT A: Water 0.1% Formic acid, B: Acetonitrile 0.1% Formic acid
MS$FOCUSED_ION: PRECURSOR_M/Z 249.1023
MS$FOCUSED_ION: PRECURSOR_TYPE [M+H]+
MS$DATA_PROCESSING: COMMENT Export with pycsl 0.1.0.dev1 and CSL 24.4
PK$SPLASH: splash10-00mo-9100000000-f71ebb2120da5df027fc
PK$NUM_PEAK: 35
PK$PEAK: m/z int. rel.int.
  37.007 2.0 10
  39.0231 14.3 75
  40.0314 4.4 23
  50.0155 7.6 40
  51.0233 46.7 246
  54.0339 8.2 43
  65.0388 74.0 391
  66.0464 131.5 695
  67.0422 6.8 35
  73.0069 2.5 13
  74.0151 32.6 172
  75.0229 147.8 781
  76.0183 7.4 39
  77.0384 72.2 381
  78.0338 18.8 99
  92.0494 81.8 432
  93.0575 188.9 999
  101.0388 29.5 156
  102.033 16.3 86
  127.0409 5.0 26
  127.0523 7.7 40
  128.0517 2.6 13
  129.0452 12.5 66
  130.0403 6.0 31
  150.0464 2.7 14
  151.0526 6.5 34
  175.0569 2.4 12
  176.0602 7.3 38
  177.0625 4.3 22
  201.059 2.5 13
  202.0682 2.7 14
  203.0753 4.1 21
  204.0799 2.1 11
  229.0761 6.2 32
  231.0924 2.0 10
//