ACCESSION: MSBNK-BAFG-CSL23103016715
RECORD_TITLE: Prosulfocarb; LC-ESI-QTOF; MS2; 150 V
DATE: 2023.10.30
AUTHORS: Kevin S. Jewell; Björn Ehlig; Arne Wick
LICENSE: dl-de/by-2-0
COPYRIGHT: Copyright 2023 Federal Institute of Hydrology, Koblenz, Germany
COMMENT: CONFIDENCE Reference Standard (Level 1)
COMMENT: Chromatography method: dx.doi.org/10.1016/j.chroma.2015.11.014
COMMENT: Acquisition method: 10.1002/rcm.8541
CH$NAME: Prosulfocarb
CH$COMPOUND_CLASS: Herbicide
CH$FORMULA: C14H21NOS
CH$EXACT_MASS: 251.1344
CH$SMILES: CCCN(CCC)C(=O)SCC1=CC=CC=C1
CH$IUPAC: InChI=1S/C14H21NOS/c1-3-10-15(11-4-2)14(16)17-12-13-8-6-5-7-9-13/h5-9H,3-4,10-12H2,1-2H3
CH$LINK: CAS 52888-80-9
CH$LINK: INCHIKEY NQLVQOSNDJXLKG-UHFFFAOYSA-N
AC$INSTRUMENT: TripleTOF 6600 SCIEX
AC$INSTRUMENT_TYPE: LC-ESI-QTOF
AC$MASS_SPECTROMETRY: MS_TYPE MS2
AC$MASS_SPECTROMETRY: ION_MODE POSITIVE
AC$MASS_SPECTROMETRY: COLLISION_ENERGY 150
AC$MASS_SPECTROMETRY: FRAGMENTATION_MODE CID
AC$MASS_SPECTROMETRY: IONIZATION ESI
AC$CHROMATOGRAPHY: COLUMN_NAME Zorbax Eclipse Plus C18 2.1 mm x 150 mm, 3.5 um, Agilent
AC$CHROMATOGRAPHY: COLUMN_TEMPERATURE 40 °C
AC$CHROMATOGRAPHY: FLOW_GRADIENT 0 min min 98% A, 1 min 98% A, 2 min 80% A, 16.5 min 2% A, 22 min 2% A, 22.1 min 98% A, 27 min 98% A
AC$CHROMATOGRAPHY: FLOW_RATE 0.3 mL/min
AC$CHROMATOGRAPHY: RETENTION_TIME 15.467 min
AC$CHROMATOGRAPHY: SOLVENT A: Water 0.1% Formic acid, B: Acetonitrile 0.1% Formic acid
MS$FOCUSED_ION: PRECURSOR_M/Z 252.1417
MS$FOCUSED_ION: PRECURSOR_TYPE [M+H]+
MS$DATA_PROCESSING: COMMENT Export with Spectra 1.9.12 MsBackendMassbank 1.7.4
MS$DATA_PROCESSING: WHOLE RMassBank 2.3.1
PK$SPLASH: splash10-000i-9000000000-ef3b889c6b4fae1162a4
PK$NUM_PEAK: 14
PK$PEAK: m/z int. rel.int.
  35.9993 14 76
  37.0074 88.8 486
  38.0148 77 421
  39.0231 182.5 999
  41.0382 5.4 29
  49.0069 21.7 118
  50.0151 84.5 462
  51.0228 31.4 171
  59.9989 5.3 29
  61.007 38.2 209
  62.015 69.2 378
  63.0227 35.3 193
  65.0383 20.1 110
  74.0148 6.2 33
//
