ACCESSION: MSBNK-BAFG-CSL23110910502
RECORD_TITLE: Trioctylphosphine oxide; LC-ESI-QTOF; MS2; 40 V
DATE: 2023.11.09
AUTHORS: Kevin S. Jewell; Björn Ehlig; Arne Wick
LICENSE: dl-de/by-2-0
COPYRIGHT: Copyright 2023 Federal Institute of Hydrology, Koblenz, Germany
COMMENT: CONFIDENCE Reference Standard (Level 1)
COMMENT: Chromatography method: dx.doi.org/10.1016/j.chroma.2015.11.014
COMMENT: Acquisition method: 10.1002/rcm.8541
CH$NAME: Trioctylphosphine oxide
CH$COMPOUND_CLASS: Industrial_process
CH$FORMULA: C24H51OP
CH$EXACT_MASS: 386.3678
CH$SMILES: CCCCCCCCP(=O)(CCCCCCCC)CCCCCCCC
CH$IUPAC: InChI=1S/C24H51OP/c1-4-7-10-13-16-19-22-26(25,23-20-17-14-11-8-5-2)24-21-18-15-12-9-6-3/h4-24H2,1-3H3
CH$LINK: CAS 78-50-2
CH$LINK: INCHIKEY ZMBHCYHQLYEYDV-UHFFFAOYSA-N
AC$INSTRUMENT: TripleTOF 5600 SCIEX
AC$INSTRUMENT_TYPE: LC-ESI-QTOF
AC$MASS_SPECTROMETRY: MS_TYPE MS2
AC$MASS_SPECTROMETRY: ION_MODE POSITIVE
AC$MASS_SPECTROMETRY: COLLISION_ENERGY 40
AC$MASS_SPECTROMETRY: FRAGMENTATION_MODE CID
AC$MASS_SPECTROMETRY: IONIZATION ESI
AC$CHROMATOGRAPHY: COLUMN_NAME Zorbax Eclipse Plus C18 2.1 mm x 150 mm, 3.5 um, Agilent
AC$CHROMATOGRAPHY: COLUMN_TEMPERATURE 40 °C
AC$CHROMATOGRAPHY: FLOW_GRADIENT 0 min min 98% A, 1 min 98% A, 2 min 80% A, 16.5 min 2% A, 22 min 2% A, 22.1 min 98% A, 27 min 98% A
AC$CHROMATOGRAPHY: FLOW_RATE 0.3 mL/min
AC$CHROMATOGRAPHY: RETENTION_TIME 22.9 min
AC$CHROMATOGRAPHY: SOLVENT A: Water 0.1% Formic acid, B: Acetonitrile 0.1% Formic acid
MS$FOCUSED_ION: PRECURSOR_M/Z 387.375
MS$FOCUSED_ION: PRECURSOR_TYPE [M+H]+
MS$DATA_PROCESSING: COMMENT Export with Spectra 1.9.12 MsBackendMassbank 1.7.4
MS$DATA_PROCESSING: WHOLE RMassBank 2.3.1
PK$SPLASH: splash10-000i-0019000000-265109ee557fd1197529
PK$NUM_PEAK: 22
PK$PEAK: m/z int. rel.int.
  78.0288 32.1 28
  92.0427 28.1 25
  147.0953 12.1 10
  161.1099 12 10
  175.1255 13 11
  189.1412 27.3 24
  203.1564 23.7 21
  217.1709 20.8 18
  231.1872 41 36
  245.203 40.7 36
  259.218 15.6 13
  273.2332 23.8 21
  275.2488 51.6 46
  287.2489 11.3 10
  301.2654 71.4 63
  303.2801 35.8 32
  317.2962 60.9 54
  331.3117 35.1 31
  345.3301 14.1 12
  386.1515 38.7 34
  387.3743 1116.1 999
  388.3808 31.8 28
//
