ACCESSION: MSBNK-BAFG-CSL25010634156
RECORD_TITLE: 3,3-Diphenylacrylonitrile; LC-ESI-QTOF; MS2; 100 V
DATE: 2025.01.06
AUTHORS: Ole Lessmann; Kevin S. Jewell; Björn Ehlig; Arne Wick
LICENSE: dl-de/by-2-0
COPYRIGHT: Copyright 2025 Federal Institute of Hydrology, Koblenz, Germany
COMMENT: CONFIDENCE Reference Standard (Level 1)
COMMENT: Chromatography method: dx.doi.org/10.1016/j.chroma.2015.11.014
COMMENT: Acquisition method: 10.1002/rcm.8541
CH$NAME: 3,3-Diphenylacrylonitrile
CH$FORMULA: C15H11N
CH$EXACT_MASS: 205.0891
CH$SMILES: C1=CC=C(C=C1)C(=CC#N)C2=CC=CC=C2
CH$IUPAC: InChI=1S/C15H11N/c16-12-11-15(13-7-3-1-4-8-13)14-9-5-2-6-10-14/h1-11H
CH$LINK: CAS 3531-24-6
CH$LINK: INCHIKEY RDGWQFSLTSPRBG-UHFFFAOYSA-N
AC$INSTRUMENT: TripleTOF 6600 SCIEX
AC$INSTRUMENT_TYPE: LC-ESI-QTOF
AC$MASS_SPECTROMETRY: MS_TYPE MS2
AC$MASS_SPECTROMETRY: ION_MODE POSITIVE
AC$MASS_SPECTROMETRY: COLLISION_ENERGY 100
AC$MASS_SPECTROMETRY: FRAGMENTATION_MODE CID
AC$MASS_SPECTROMETRY: IONIZATION ESI
AC$CHROMATOGRAPHY: COLUMN_NAME Zorbax Eclipse Plus C18 2.1 mm x 150 mm, 3.5 um, Agilent
AC$CHROMATOGRAPHY: COLUMN_TEMPERATURE 40 °C
AC$CHROMATOGRAPHY: FLOW_GRADIENT 0 min min 98% A, 1 min 98% A, 2 min 80% A, 16.5 min 2% A, 22 min 2% A, 22.1 min 98% A, 27 min 98% A
AC$CHROMATOGRAPHY: FLOW_RATE 0.3 mL/min
AC$CHROMATOGRAPHY: RETENTION_TIME 13.746 min
AC$CHROMATOGRAPHY: SOLVENT A: Water 0.1% Formic acid, B: Acetonitrile 0.1% Formic acid
MS$FOCUSED_ION: PRECURSOR_M/Z 206.0964
MS$FOCUSED_ION: PRECURSOR_TYPE [M+H]+
MS$DATA_PROCESSING: COMMENT Export with pycsl 0.1.0.dev1 and CSL 24.4
PK$SPLASH: splash10-0udi-9100000000-3bd528f6c171582e9141
PK$NUM_PEAK: 14
PK$PEAK: m/z int. rel.int.
  49.0059 0.4 27
  50.0136 6.9 482
  51.0219 14.3 999
  63.0214 0.6 41
  73.0063 0.7 48
  74.0131 8.9 621
  75.0214 3.3 230
  76.0289 0.6 41
  77.0379 2.1 146
  98.0128 1.1 76
  126.046 0.8 55
  150.0457 4.3 300
  174.0443 0.8 55
  176.0614 0.4 27
//