ACCESSION: MSBNK-BAFG-CSL2311095050
RECORD_TITLE: Testosterone; LC-ESI-QTOF; MS2; 110 V
DATE: 2023.11.09
AUTHORS: Kevin S. Jewell; Björn Ehlig; Arne Wick
LICENSE: dl-de/by-2-0
COPYRIGHT: Copyright 2023 Federal Institute of Hydrology, Koblenz, Germany
COMMENT: CONFIDENCE Reference Standard (Level 1)
COMMENT: Chromatography method: dx.doi.org/10.1016/j.chroma.2015.11.014
COMMENT: Acquisition method: 10.1002/rcm.8541
CH$NAME: Testosterone
CH$COMPOUND_CLASS: Pharmaceutical
CH$FORMULA: C19H28O2
CH$EXACT_MASS: 288.2089
CH$SMILES: C[C@]12CC[C@H]3[C@@H](CCC4=CC(=O)CC[C@]34C)[C@@H]1CC[C@@H]2O
CH$IUPAC: InChI=1S/C19H28O2/c1-18-9-7-13(20)11-12(18)3-4-14-15-5-6-17(21)19(15,2)10-8-16(14)18/h11,14-17,21H,3-10H2,1-2H3/t14-,15-,16-,17-,18-,19-/m0/s1
CH$LINK: CAS 58-22-0
CH$LINK: INCHIKEY MUMGGOZAMZWBJJ-DYKIIFRCSA-N
AC$INSTRUMENT: TripleTOF 5600 SCIEX
AC$INSTRUMENT_TYPE: LC-ESI-QTOF
AC$MASS_SPECTROMETRY: MS_TYPE MS2
AC$MASS_SPECTROMETRY: ION_MODE POSITIVE
AC$MASS_SPECTROMETRY: COLLISION_ENERGY 110
AC$MASS_SPECTROMETRY: FRAGMENTATION_MODE CID
AC$MASS_SPECTROMETRY: IONIZATION ESI
AC$CHROMATOGRAPHY: COLUMN_NAME Zorbax Eclipse Plus C18 2.1 mm x 150 mm, 3.5 um, Agilent
AC$CHROMATOGRAPHY: COLUMN_TEMPERATURE 40 °C
AC$CHROMATOGRAPHY: FLOW_GRADIENT 0 min min 98% A, 1 min 98% A, 2 min 80% A, 16.5 min 2% A, 22 min 2% A, 22.1 min 98% A, 27 min 98% A
AC$CHROMATOGRAPHY: FLOW_RATE 0.3 mL/min
AC$CHROMATOGRAPHY: RETENTION_TIME 10.968 min
AC$CHROMATOGRAPHY: SOLVENT A: Water 0.1% Formic acid, B: Acetonitrile 0.1% Formic acid
MS$FOCUSED_ION: PRECURSOR_M/Z 289.2162
MS$FOCUSED_ION: PRECURSOR_TYPE [M+H]+
MS$DATA_PROCESSING: COMMENT Export with Spectra 1.9.12 MsBackendMassbank 1.7.4
MS$DATA_PROCESSING: WHOLE RMassBank 2.3.1
PK$SPLASH: splash10-004i-9100000000-0c8fb4aae522aa69f4ad
PK$NUM_PEAK: 29
PK$PEAK: m/z int. rel.int.
  43.0284 3 130
  43.0537 0.5 21
  55.026 1.6 69
  57.0412 0.4 17
  65.0443 4.8 209
  66.0535 0.7 30
  67.0601 2.5 109
  69.0758 0.6 26
  77.0439 22.9 999
  78.0554 0.9 39
  79.0588 7.5 327
  81.0392 0.6 26
  81.0733 1.6 69
  82.0439 0.4 17
  83.0533 0.5 21
  89.0428 0.6 26
  91.0579 7.6 331
  94.0525 0.4 17
  97.0675 3.5 152
  103.0573 0.9 39
  105.0736 0.9 39
  107.0528 1.1 47
  109.0694 0.9 39
  115.0561 3.9 170
  127.0585 1 43
  128.065 2.5 109
  129.076 0.6 26
  141.0742 0.6 26
  152.0663 0.7 30
//
