ACCESSION: MSBNK-BAFG-CSL23103019365
RECORD_TITLE: Ecgonine ethyl ester; LC-ESI-QTOF; MS2; 130 V
DATE: 2023.10.30
AUTHORS: Kevin S. Jewell; Björn Ehlig; Arne Wick
LICENSE: dl-de/by-2-0
COPYRIGHT: Copyright 2023 Federal Institute of Hydrology, Koblenz, Germany
COMMENT: CONFIDENCE Reference Standard (Level 1)
COMMENT: Chromatography method: dx.doi.org/10.1016/j.chroma.2015.11.014
COMMENT: Acquisition method: 10.1002/rcm.8541
CH$NAME: Ecgonine ethyl ester
CH$FORMULA: C11H19NO3
CH$EXACT_MASS: 213.1365
CH$SMILES: CCOC(=O)C1C2CCC(N2C)CC1O
CH$IUPAC: InChI=1S/C11H19NO3/c1-3-15-11(14)10-8-5-4-7(12(8)2)6-9(10)13/h7-10,13H,3-6H2,1-2H3
CH$LINK: CAS 70939-97-8
CH$LINK: INCHIKEY ABDMBNAKYBUEEX-UHFFFAOYSA-N
AC$INSTRUMENT: TripleTOF 6600 SCIEX
AC$INSTRUMENT_TYPE: LC-ESI-QTOF
AC$MASS_SPECTROMETRY: MS_TYPE MS2
AC$MASS_SPECTROMETRY: ION_MODE POSITIVE
AC$MASS_SPECTROMETRY: COLLISION_ENERGY 130
AC$MASS_SPECTROMETRY: FRAGMENTATION_MODE CID
AC$MASS_SPECTROMETRY: IONIZATION ESI
AC$CHROMATOGRAPHY: COLUMN_NAME Zorbax Eclipse Plus C18 2.1 mm x 150 mm, 3.5 um, Agilent
AC$CHROMATOGRAPHY: COLUMN_TEMPERATURE 40 °C
AC$CHROMATOGRAPHY: FLOW_GRADIENT 0 min min 98% A, 1 min 98% A, 2 min 80% A, 16.5 min 2% A, 22 min 2% A, 22.1 min 98% A, 27 min 98% A
AC$CHROMATOGRAPHY: FLOW_RATE 0.3 mL/min
AC$CHROMATOGRAPHY: RETENTION_TIME 2.108 min
AC$CHROMATOGRAPHY: SOLVENT A: Water 0.1% Formic acid, B: Acetonitrile 0.1% Formic acid
MS$FOCUSED_ION: PRECURSOR_M/Z 214.1438
MS$FOCUSED_ION: PRECURSOR_TYPE [M+H]+
MS$DATA_PROCESSING: COMMENT Export with Spectra 1.9.12 MsBackendMassbank 1.7.4
MS$DATA_PROCESSING: WHOLE RMassBank 2.3.1
PK$SPLASH: splash10-000i-9000000000-001bcb230fe51f3a8e91
PK$NUM_PEAK: 19
PK$PEAK: m/z int. rel.int.
  36.0009 0.1 71
  37.008 0.5 356
  38.003 0.1 71
  38.0165 0.4 285
  39.0237 1.4 999
  41.0258 0.1 71
  41.0396 0.1 71
  42.0349 0.4 285
  51.024 0.3 214
  52.019 0.1 71
  52.0313 0.1 71
  65.0397 0.1 71
  67.0429 0.3 214
  78.0372 0.1 71
  79.0436 0.1 71
  80.051 0.1 71
  82.0658 0.1 71
  91.0565 0.1 71
  94.064 0.2 142
//
