ACCESSION: MSBNK-BAFG-CSL23110912303
RECORD_TITLE: (3-Benzyloxypropyl)triphenylphosphonium; LC-ESI-QTOF; MS2; 130 V
DATE: 2023.11.09
AUTHORS: Kevin S. Jewell; Björn Ehlig; Arne Wick
LICENSE: dl-de/by-2-0
COPYRIGHT: Copyright 2023 Federal Institute of Hydrology, Koblenz, Germany
COMMENT: CONFIDENCE Reference Standard (Level 1)
COMMENT: Chromatography method: dx.doi.org/10.1016/j.chroma.2015.11.014
COMMENT: Acquisition method: 10.1002/rcm.8541
CH$NAME: (3-Benzyloxypropyl)triphenylphosphonium
CH$FORMULA: [C28H28OP]+
CH$EXACT_MASS: 411.1872
CH$SMILES: C1=CC=C(C=C1)COCCC[P+](C2=CC=CC=C2)(C3=CC=CC=C3)C4=CC=CC=C4
CH$IUPAC: InChI=1S/C28H28OP/c1-5-14-25(15-6-1)24-29-22-13-23-30(26-16-7-2-8-17-26,27-18-9-3-10-19-27)28-20-11-4-12-21-28/h1-12,14-21H,13,22-24H2/q+1
CH$LINK: CAS 54314-85-1
CH$LINK: INCHIKEY DHCHUVTYDKANGV-UHFFFAOYSA-N
AC$INSTRUMENT: TripleTOF 5600 SCIEX
AC$INSTRUMENT_TYPE: LC-ESI-QTOF
AC$MASS_SPECTROMETRY: MS_TYPE MS2
AC$MASS_SPECTROMETRY: ION_MODE POSITIVE
AC$MASS_SPECTROMETRY: COLLISION_ENERGY 130
AC$MASS_SPECTROMETRY: FRAGMENTATION_MODE CID
AC$MASS_SPECTROMETRY: IONIZATION ESI
AC$CHROMATOGRAPHY: COLUMN_NAME Zorbax Eclipse Plus C18 2.1 mm x 150 mm, 3.5 um, Agilent
AC$CHROMATOGRAPHY: COLUMN_TEMPERATURE 40 °C
AC$CHROMATOGRAPHY: FLOW_GRADIENT 0 min min 98% A, 1 min 98% A, 2 min 80% A, 16.5 min 2% A, 22 min 2% A, 22.1 min 98% A, 27 min 98% A
AC$CHROMATOGRAPHY: FLOW_RATE 0.3 mL/min
AC$CHROMATOGRAPHY: RETENTION_TIME 9.728 min
AC$CHROMATOGRAPHY: SOLVENT A: Water 0.1% Formic acid, B: Acetonitrile 0.1% Formic acid
MS$FOCUSED_ION: PRECURSOR_M/Z 411.1872
MS$FOCUSED_ION: PRECURSOR_TYPE [M]+
MS$DATA_PROCESSING: COMMENT Export with Spectra 1.9.12 MsBackendMassbank 1.7.4
MS$DATA_PROCESSING: WHOLE RMassBank 2.3.1
PK$SPLASH: splash10-0zgi-0900000000-45180493dfc81b8f86d5
PK$NUM_PEAK: 12
PK$PEAK: m/z int. rel.int.
  65.0381 36.4 177
  91.0527 48.2 235
  107.0031 120.9 590
  115.0531 49.4 241
  133.0193 18.5 90
  139.0538 43.3 211
  151.0537 26.3 128
  152.0616 204.7 999
  157.02 101.5 495
  181.0203 35.1 171
  183.0361 174.9 853
  257.0523 16.3 79
//
