ACCESSION: MSBNK-BAFG-CSL2311109749
RECORD_TITLE: Emtricitabine S-oxide; LC-ESI-QTOF; MS2; 60 V
DATE: 2023.11.10
AUTHORS: Kevin S. Jewell; Björn Ehlig; Arne Wick
LICENSE: dl-de/by-2-0
COPYRIGHT: Copyright 2023 Federal Institute of Hydrology, Koblenz, Germany
COMMENT: CONFIDENCE Reference Standard (Level 1)
COMMENT: Chromatography method: dx.doi.org/10.1016/j.chroma.2015.11.014
COMMENT: Acquisition method: 10.1002/rcm.8541
CH$NAME: Emtricitabine S-oxide
CH$COMPOUND_CLASS: Metabolite
CH$FORMULA: C8H10FN3O4S
CH$EXACT_MASS: 263.0376
CH$SMILES: C1C(OC(S1=O)CO)N2C=C(C(=NC2=O)N)F
CH$IUPAC: InChI=1S/C8H10FN3O4S/c9-4-1-12(8(14)11-7(4)10)5-3-17(15)6(2-13)16-5/h1,5-6,13H,2-3H2,(H2,10,11,14)
CH$LINK: CAS 152128-77-3
CH$LINK: INCHIKEY DMOMZPWPIDCLMB-UHFFFAOYSA-N
AC$INSTRUMENT: TripleTOF 5600 SCIEX
AC$INSTRUMENT_TYPE: LC-ESI-QTOF
AC$MASS_SPECTROMETRY: MS_TYPE MS2
AC$MASS_SPECTROMETRY: ION_MODE POSITIVE
AC$MASS_SPECTROMETRY: COLLISION_ENERGY 60
AC$MASS_SPECTROMETRY: FRAGMENTATION_MODE CID
AC$MASS_SPECTROMETRY: IONIZATION ESI
AC$CHROMATOGRAPHY: COLUMN_NAME Zorbax Eclipse Plus C18 2.1 mm x 150 mm, 3.5 um, Agilent
AC$CHROMATOGRAPHY: COLUMN_TEMPERATURE 40 °C
AC$CHROMATOGRAPHY: FLOW_GRADIENT 0 min min 98% A, 1 min 98% A, 2 min 80% A, 16.5 min 2% A, 22 min 2% A, 22.1 min 98% A, 27 min 98% A
AC$CHROMATOGRAPHY: FLOW_RATE 0.3 mL/min
AC$CHROMATOGRAPHY: RETENTION_TIME 2.868 min
AC$CHROMATOGRAPHY: SOLVENT A: Water 0.1% Formic acid, B: Acetonitrile 0.1% Formic acid
MS$FOCUSED_ION: PRECURSOR_M/Z 264.0449
MS$FOCUSED_ION: PRECURSOR_TYPE [M+H]+
MS$DATA_PROCESSING: COMMENT Export with Spectra 1.9.12 MsBackendMassbank 1.7.4
MS$DATA_PROCESSING: WHOLE RMassBank 2.3.1
PK$SPLASH: splash10-01q9-2900000000-b4d42d06502ca87574df
PK$NUM_PEAK: 6
PK$PEAK: m/z int. rel.int.
  58.0075 0.9 124
  85.0186 1.3 180
  87.0344 1.3 180
  112.0281 1.2 166
  113.0141 4.3 596
  130.0403 7.2 999
//
