ACCESSION: MSBNK-BAFG-CSL23110911148
RECORD_TITLE: Entacapone; LC-ESI-QTOF; MS2; 140 V
DATE: 2023.11.09
AUTHORS: Kevin S. Jewell; Björn Ehlig; Arne Wick
LICENSE: dl-de/by-2-0
COPYRIGHT: Copyright 2023 Federal Institute of Hydrology, Koblenz, Germany
COMMENT: CONFIDENCE Reference Standard (Level 1)
COMMENT: Chromatography method: dx.doi.org/10.1016/j.chroma.2015.11.014
COMMENT: Acquisition method: 10.1002/rcm.8541
CH$NAME: Entacapone
CH$COMPOUND_CLASS: Pharmaceutical
CH$FORMULA: C14H15N3O5
CH$EXACT_MASS: 305.1012
CH$SMILES: CCN(CC)C(=O)C(=CC1=CC(=C(C(=C1)O)O)[N+](=O)[O-])C#N
CH$IUPAC: InChI=1S/C14H15N3O5/c1-3-16(4-2)14(20)10(8-15)5-9-6-11(17(21)22)13(19)12(18)7-9/h5-7,18-19H,3-4H2,1-2H3
CH$LINK: CAS 130929-57-6
CH$LINK: INCHIKEY JRURYQJSLYLRLN-UHFFFAOYSA-N
AC$INSTRUMENT: TripleTOF 5600 SCIEX
AC$INSTRUMENT_TYPE: LC-ESI-QTOF
AC$MASS_SPECTROMETRY: MS_TYPE MS2
AC$MASS_SPECTROMETRY: ION_MODE NEGATIVE
AC$MASS_SPECTROMETRY: COLLISION_ENERGY 140
AC$MASS_SPECTROMETRY: FRAGMENTATION_MODE CID
AC$MASS_SPECTROMETRY: IONIZATION ESI
AC$CHROMATOGRAPHY: COLUMN_NAME Zorbax Eclipse Plus C18 2.1 mm x 150 mm, 3.5 um, Agilent
AC$CHROMATOGRAPHY: COLUMN_TEMPERATURE 40 °C
AC$CHROMATOGRAPHY: FLOW_GRADIENT 0 min min 98% A, 1 min 98% A, 2 min 80% A, 16.5 min 2% A, 22 min 2% A, 22.1 min 98% A, 27 min 98% A
AC$CHROMATOGRAPHY: FLOW_RATE 0.3 mL/min
AC$CHROMATOGRAPHY: RETENTION_TIME 9.381 min
AC$CHROMATOGRAPHY: SOLVENT A: Water 0.1% Formic acid, B: Acetonitrile 0.1% Formic acid
MS$FOCUSED_ION: PRECURSOR_M/Z 304.0939
MS$FOCUSED_ION: PRECURSOR_TYPE [M-H]-
MS$DATA_PROCESSING: COMMENT Export with Spectra 1.9.12 MsBackendMassbank 1.7.4
MS$DATA_PROCESSING: WHOLE RMassBank 2.3.1
PK$SPLASH: splash10-0gb9-9000000000-baca81c2a2084e984a2f
PK$NUM_PEAK: 9
PK$PEAK: m/z int. rel.int.
  38.0035 0.5 124
  41.9979 0.6 149
  45.9928 0.4 99
  50.0032 2.6 649
  65.003 0.4 99
  65.9981 4 999
  74.0031 2.1 524
  88.0194 0.3 74
  114.036 0.3 74
//
