ACCESSION: MSBNK-BAFG-CSL2310259354
RECORD_TITLE: (2-Phenyl-oxazol-4-yl)-methanol; LC-ESI-QTOF; MS2; 100 V
DATE: 2023.10.25
AUTHORS: Kevin S. Jewell; Björn Ehlig; Arne Wick
LICENSE: dl-de/by-2-0
COPYRIGHT: Copyright 2023 Federal Institute of Hydrology, Koblenz, Germany
COMMENT: CONFIDENCE Reference Standard (Level 1)
COMMENT: Chromatography method: dx.doi.org/10.1016/j.chroma.2015.11.014
COMMENT: Acquisition method: 10.1002/rcm.8541
CH$NAME: (2-Phenyl-oxazol-4-yl)-methanol
CH$COMPOUND_CLASS: Industrial_process
CH$FORMULA: C10H9NO2
CH$EXACT_MASS: 175.0633
CH$SMILES: C1=CC=C(C=C1)C2=NC(=CO2)CO
CH$IUPAC: InChI=1S/C10H9NO2/c12-6-9-7-13-10(11-9)8-4-2-1-3-5-8/h1-5,7,12H,6H2
CH$LINK: CAS 59398-98-0
CH$LINK: INCHIKEY FSDBXQYHHCUEIE-UHFFFAOYSA-N
AC$INSTRUMENT: TripleTOF 5600 SCIEX
AC$INSTRUMENT_TYPE: LC-ESI-QTOF
AC$MASS_SPECTROMETRY: MS_TYPE MS2
AC$MASS_SPECTROMETRY: ION_MODE POSITIVE
AC$MASS_SPECTROMETRY: COLLISION_ENERGY 100
AC$MASS_SPECTROMETRY: FRAGMENTATION_MODE CID
AC$MASS_SPECTROMETRY: IONIZATION ESI
AC$CHROMATOGRAPHY: COLUMN_NAME Zorbax Eclipse Plus C18 2.1 mm x 150 mm, 3.5 um, Agilent
AC$CHROMATOGRAPHY: COLUMN_TEMPERATURE 40 °C
AC$CHROMATOGRAPHY: FLOW_GRADIENT 0 min min 98% A, 1 min 98% A, 2 min 80% A, 16.5 min 2% A, 22 min 2% A, 22.1 min 98% A, 27 min 98% A
AC$CHROMATOGRAPHY: FLOW_RATE 0.3 mL/min
AC$CHROMATOGRAPHY: RETENTION_TIME 7.557 min
AC$CHROMATOGRAPHY: SOLVENT A: Water 0.1% Formic acid, B: Acetonitrile 0.1% Formic acid
MS$FOCUSED_ION: PRECURSOR_M/Z 176.0706
MS$FOCUSED_ION: PRECURSOR_TYPE [M+H]+
MS$DATA_PROCESSING: COMMENT Export with Spectra 1.9.12 MsBackendMassbank 1.7.4
MS$DATA_PROCESSING: WHOLE RMassBank 2.3.1
PK$SPLASH: splash10-004i-9000000000-52ef9667a3751cbc02a9
PK$NUM_PEAK: 9
PK$PEAK: m/z int. rel.int.
  49.0333 0.5 47
  60.0085 0.4 37
  73.013 0.5 47
  74.0213 3.6 339
  75.0276 1.5 141
  76.0356 0.5 47
  77.0428 10.6 999
  89.0409 3.6 339
  102.0489 0.5 47
//
