ACCESSION: MSBNK-BAFG-CSL23102615995
RECORD_TITLE: Prallethrin; LC-ESI-QTOF; MS2; 40 V
DATE: 2023.10.26
AUTHORS: Kevin S. Jewell; Björn Ehlig; Arne Wick
LICENSE: dl-de/by-2-0
COPYRIGHT: Copyright 2023 Federal Institute of Hydrology, Koblenz, Germany
COMMENT: CONFIDENCE Reference Standard (Level 1)
COMMENT: Chromatography method: dx.doi.org/10.1016/j.chroma.2015.11.014
COMMENT: Acquisition method: 10.1002/rcm.8541
CH$NAME: Prallethrin
CH$COMPOUND_CLASS: Insecticide
CH$FORMULA: C19H24O3
CH$EXACT_MASS: 300.1725
CH$SMILES: CC1=C(C(=O)CC1OC(=O)C2C(C2(C)C)C=C(C)C)CC#C
CH$IUPAC: InChI=1S/C19H24O3/c1-7-8-13-12(4)16(10-15(13)20)22-18(21)17-14(9-11(2)3)19(17,5)6/h1,9,14,16-17H,8,10H2,2-6H3
CH$LINK: CAS 23031-36-9
CH$LINK: INCHIKEY SMKRKQBMYOFFMU-UHFFFAOYSA-N
AC$INSTRUMENT: TripleTOF 6600 SCIEX
AC$INSTRUMENT_TYPE: LC-ESI-QTOF
AC$MASS_SPECTROMETRY: MS_TYPE MS2
AC$MASS_SPECTROMETRY: ION_MODE POSITIVE
AC$MASS_SPECTROMETRY: COLLISION_ENERGY 40
AC$MASS_SPECTROMETRY: FRAGMENTATION_MODE CID
AC$MASS_SPECTROMETRY: IONIZATION ESI
AC$CHROMATOGRAPHY: COLUMN_NAME Zorbax Eclipse Plus C18 2.1 mm x 150 mm, 3.5 um, Agilent
AC$CHROMATOGRAPHY: COLUMN_TEMPERATURE 40 °C
AC$CHROMATOGRAPHY: FLOW_GRADIENT 0 min min 98% A, 1 min 98% A, 2 min 80% A, 16.5 min 2% A, 22 min 2% A, 22.1 min 98% A, 27 min 98% A
AC$CHROMATOGRAPHY: FLOW_RATE 0.3 mL/min
AC$CHROMATOGRAPHY: RETENTION_TIME 14.861 min
AC$CHROMATOGRAPHY: SOLVENT A: Water 0.1% Formic acid, B: Acetonitrile 0.1% Formic acid
MS$FOCUSED_ION: PRECURSOR_M/Z 301.1798
MS$FOCUSED_ION: PRECURSOR_TYPE [M+H]+
MS$DATA_PROCESSING: COMMENT Export with Spectra 1.9.12 MsBackendMassbank 1.7.4
MS$DATA_PROCESSING: WHOLE RMassBank 2.3.1
PK$SPLASH: splash10-056r-9700000000-2e8012a68c8bd0dd0549
PK$NUM_PEAK: 50
PK$PEAK: m/z int. rel.int.
  41.0391 2.2 39
  43.0182 1.1 19
  43.0552 1.8 32
  50.0152 0.8 14
  51.0239 2.7 48
  53.0391 0.6 10
  55.0185 4.8 86
  55.0548 2.2 39
  57.0704 2.1 37
  59.0497 1.7 30
  65.0393 2 35
  67.0551 5.5 98
  69.0339 0.9 16
  69.0704 5.1 91
  77.0394 46.5 835
  79.055 52.7 946
  81.0705 24.7 443
  83.0502 0.6 10
  83.0865 0.9 16
  85.0654 0.9 16
  91.0546 4.9 88
  93.0712 2.5 44
  95.0508 1.9 34
  95.0858 5.1 91
  103.0552 31.1 558
  105.0463 0.9 16
  105.0707 55.6 999
  107.0868 1.2 21
  109.0657 2.3 41
  109.1011 0.9 16
  113.0595 1 17
  115.0546 5.1 91
  118.0418 1 17
  119.0865 1.4 25
  121.0649 2.1 37
  121.1026 4.2 75
  123.118 21 377
  128.0611 0.7 12
  129.071 1 17
  131.0857 0.7 12
  132.0574 0.6 10
  133.0656 8.1 145
  133.0995 0.6 10
  141.071 0.8 14
  142.08 1 17
  143.0869 0.6 10
  149.0965 0.9 16
  151.113 1.4 25
  156.0943 0.8 14
  157.1023 0.8 14
//
