ACCESSION: MSBNK-BAFG-CSL2310269018
RECORD_TITLE: 2-(4-Chlorophenyl)benzimidazole; LC-ESI-QTOF; MS2; 50 V
DATE: 2023.10.26
AUTHORS: Kevin S. Jewell; Björn Ehlig; Arne Wick
LICENSE: dl-de/by-2-0
COPYRIGHT: Copyright 2023 Federal Institute of Hydrology, Koblenz, Germany
COMMENT: CONFIDENCE Reference Standard (Level 1)
COMMENT: Chromatography method: dx.doi.org/10.1016/j.chroma.2015.11.014
COMMENT: Acquisition method: 10.1002/rcm.8541
CH$NAME: 2-(4-Chlorophenyl)benzimidazole
CH$COMPOUND_CLASS: Pharmaceutical
CH$FORMULA: C13H9ClN2
CH$EXACT_MASS: 228.0454
CH$SMILES: C1=CC=C2C(=C1)NC(=N2)C3=CC=C(C=C3)Cl
CH$IUPAC: InChI=1S/C13H9ClN2/c14-10-7-5-9(6-8-10)13-15-11-3-1-2-4-12(11)16-13/h1-8H,(H,15,16)
CH$LINK: CAS 1019-85-8
CH$LINK: INCHIKEY PTXUJRTVWRYYTE-UHFFFAOYSA-N
AC$INSTRUMENT: TripleTOF 5600 SCIEX
AC$INSTRUMENT_TYPE: LC-ESI-QTOF
AC$MASS_SPECTROMETRY: MS_TYPE MS2
AC$MASS_SPECTROMETRY: ION_MODE POSITIVE
AC$MASS_SPECTROMETRY: COLLISION_ENERGY 50
AC$MASS_SPECTROMETRY: FRAGMENTATION_MODE CID
AC$MASS_SPECTROMETRY: IONIZATION ESI
AC$CHROMATOGRAPHY: COLUMN_NAME Zorbax Eclipse Plus C18 2.1 mm x 150 mm, 3.5 um, Agilent
AC$CHROMATOGRAPHY: COLUMN_TEMPERATURE 40 °C
AC$CHROMATOGRAPHY: FLOW_GRADIENT 0 min min 98% A, 1 min 98% A, 2 min 80% A, 16.5 min 2% A, 22 min 2% A, 22.1 min 98% A, 27 min 98% A
AC$CHROMATOGRAPHY: FLOW_RATE 0.3 mL/min
AC$CHROMATOGRAPHY: RETENTION_TIME 6.754 min
AC$CHROMATOGRAPHY: SOLVENT A: Water 0.1% Formic acid, B: Acetonitrile 0.1% Formic acid
MS$FOCUSED_ION: PRECURSOR_M/Z 229.0527
MS$FOCUSED_ION: PRECURSOR_TYPE [M+H]+
MS$DATA_PROCESSING: COMMENT Export with Spectra 1.9.12 MsBackendMassbank 1.7.4
MS$DATA_PROCESSING: WHOLE RMassBank 2.3.1
PK$SPLASH: splash10-0006-4910000000-7b67e05c83e9fda5e67a
PK$NUM_PEAK: 17
PK$PEAK: m/z int. rel.int.
  64.0367 4.3 16
  89.0421 3.7 14
  90.05 7.9 30
  91.0456 14.5 55
  92.0534 259.8 999
  104.0512 3.6 13
  138.0106 3.7 14
  139.0562 5.1 19
  154.0672 5.6 21
  166.0664 30.7 118
  167.0733 24.5 94
  168.0748 9.1 34
  192.069 18.2 69
  193.0766 181.8 699
  194.0842 243.1 934
  228.0446 4.1 15
  229.0532 97.5 374
//
