ACCESSION: MSBNK-BAFG-CSL2310266053
RECORD_TITLE: Dichlorvos; LC-ESI-QTOF; MS2; 40 V
DATE: 2023.10.26
AUTHORS: Kevin S. Jewell; Björn Ehlig; Arne Wick
LICENSE: dl-de/by-2-0
COPYRIGHT: Copyright 2023 Federal Institute of Hydrology, Koblenz, Germany
COMMENT: CONFIDENCE Reference Standard (Level 1)
COMMENT: Chromatography method: dx.doi.org/10.1016/j.chroma.2015.11.014
COMMENT: Acquisition method: 10.1002/rcm.8541
CH$NAME: Dichlorvos
CH$COMPOUND_CLASS: Insecticide; Transformation_product; Pharmaceutical
CH$FORMULA: C4H7Cl2O4P
CH$EXACT_MASS: 219.9459
CH$SMILES: CO[P](=O)(OC)OC=C(Cl)Cl
CH$IUPAC: InChI=1S/C4H7Cl2O4P/c1-8-11(7,9-2)10-3-4(5)6/h3H,1-2H3
CH$LINK: CAS 62-73-7
CH$LINK: INCHIKEY OEBRKCOSUFCWJD-UHFFFAOYSA-N
AC$INSTRUMENT: TripleTOF 5600 SCIEX
AC$INSTRUMENT_TYPE: LC-ESI-QTOF
AC$MASS_SPECTROMETRY: MS_TYPE MS2
AC$MASS_SPECTROMETRY: ION_MODE POSITIVE
AC$MASS_SPECTROMETRY: COLLISION_ENERGY 40
AC$MASS_SPECTROMETRY: FRAGMENTATION_MODE CID
AC$MASS_SPECTROMETRY: IONIZATION ESI
AC$CHROMATOGRAPHY: COLUMN_NAME Zorbax Eclipse Plus C18 2.1 mm x 150 mm, 3.5 um, Agilent
AC$CHROMATOGRAPHY: COLUMN_TEMPERATURE 40 °C
AC$CHROMATOGRAPHY: FLOW_GRADIENT 0 min min 98% A, 1 min 98% A, 2 min 80% A, 16.5 min 2% A, 22 min 2% A, 22.1 min 98% A, 27 min 98% A
AC$CHROMATOGRAPHY: FLOW_RATE 0.3 mL/min
AC$CHROMATOGRAPHY: RETENTION_TIME 9.126 min
AC$CHROMATOGRAPHY: SOLVENT A: Water 0.1% Formic acid, B: Acetonitrile 0.1% Formic acid
MS$FOCUSED_ION: PRECURSOR_M/Z 220.9532
MS$FOCUSED_ION: PRECURSOR_TYPE [M+H]+
MS$DATA_PROCESSING: COMMENT Export with Spectra 1.9.12 MsBackendMassbank 1.7.4
MS$DATA_PROCESSING: WHOLE RMassBank 2.3.1
PK$SPLASH: splash10-0a6r-8900000000-6715a26bc22e62e88126
PK$NUM_PEAK: 19
PK$PEAK: m/z int. rel.int.
  46.9739 0.5 11
  55.0598 3.2 74
  59.9795 1.3 30
  65.0418 0.7 16
  77.0409 3 69
  78.9964 16.7 386
  79.0566 3.9 90
  91.0555 6.8 157
  92.974 0.6 13
  94.9453 8.7 201
  94.9889 3.9 90
  96.9615 2.3 53
  103.0537 0.8 18
  107.0481 0.5 11
  109.0046 43.2 999
  111.9486 0.7 16
  112.9553 1.3 30
  123.0425 0.5 11
  127.0143 6.5 150
//
