ACCESSION: MSBNK-BAFG-CSL25010634374
RECORD_TITLE: 3,3`-Dichlorobenzidine; LC-ESI-QTOF; MS2; 130 V
DATE: 2025.01.06
AUTHORS: Ole Lessmann; Kevin S. Jewell; Björn Ehlig; Arne Wick
LICENSE: dl-de/by-2-0
COPYRIGHT: Copyright 2025 Federal Institute of Hydrology, Koblenz, Germany
COMMENT: CONFIDENCE Reference Standard (Level 1)
COMMENT: Chromatography method: dx.doi.org/10.1016/j.chroma.2015.11.014
COMMENT: Acquisition method: 10.1002/rcm.8541
CH$NAME: 3,3`-Dichlorobenzidine
CH$FORMULA: C12H10Cl2N2
CH$EXACT_MASS: 252.0221
CH$SMILES: C1=CC(=C(C=C1C2=CC(=C(C=C2)N)Cl)Cl)N
CH$IUPAC: InChI=1S/C12H10Cl2N2/c13-9-5-7(1-3-11(9)15)8-2-4-12(16)10(14)6-8/h1-6H,15-16H2
CH$LINK: CAS 91-94-1
CH$LINK: INCHIKEY HUWXDEQWWKGHRV-UHFFFAOYSA-N
AC$INSTRUMENT: TripleTOF 6600 SCIEX
AC$INSTRUMENT_TYPE: LC-ESI-QTOF
AC$MASS_SPECTROMETRY: MS_TYPE MS2
AC$MASS_SPECTROMETRY: ION_MODE POSITIVE
AC$MASS_SPECTROMETRY: COLLISION_ENERGY 130
AC$MASS_SPECTROMETRY: FRAGMENTATION_MODE CID
AC$MASS_SPECTROMETRY: IONIZATION ESI
AC$CHROMATOGRAPHY: COLUMN_NAME Zorbax Eclipse Plus C18 2.1 mm x 150 mm, 3.5 um, Agilent
AC$CHROMATOGRAPHY: COLUMN_TEMPERATURE 40 °C
AC$CHROMATOGRAPHY: FLOW_GRADIENT 0 min min 98% A, 1 min 98% A, 2 min 80% A, 16.5 min 2% A, 22 min 2% A, 22.1 min 98% A, 27 min 98% A
AC$CHROMATOGRAPHY: FLOW_RATE 0.3 mL/min
AC$CHROMATOGRAPHY: RETENTION_TIME 11.426 min
AC$CHROMATOGRAPHY: SOLVENT A: Water 0.1% Formic acid, B: Acetonitrile 0.1% Formic acid
MS$FOCUSED_ION: PRECURSOR_M/Z 253.0294
MS$FOCUSED_ION: PRECURSOR_TYPE [M+H]+
MS$DATA_PROCESSING: COMMENT Export with pycsl 0.1.0.dev1 and CSL 24.4
PK$SPLASH: splash10-0209-9100000000-b1d32858e5d49b979d0f
PK$NUM_PEAK: 50
PK$PEAK: m/z int. rel.int.
  37.0081 0.9 48
  38.0155 0.6 32
  39.0238 1.8 97
  49.0066 0.5 27
  50.0156 5.5 297
  51.023 11.2 604
  52.0188 0.9 48
  60.0002 1.1 59
  61.0073 5.6 302
  62.0158 8.5 459
  63.0235 8.2 442
  64.018 0.5 27
  65.038 0.7 37
  72.9842 0.6 32
  73.0075 1.7 91
  74.0156 18.5 999
  75.0101 0.6 32
  75.0231 14.7 793
  76.0296 2.3 124
  77.0391 11.9 642
  84.0008 0.7 37
  85.008 6.2 334
  86.0147 11.2 604
  87.0236 6.2 334
  88.0173 0.5 27
  88.0296 1.2 64
  89.0385 2.3 124
  97.0077 1.1 59
  98.0152 8.3 448
  99.0239 1.8 97
  100.018 0.5 27
  101.0408 0.8 43
  102.036 0.5 27
  102.0465 1.2 64
  109.0076 0.9 48
  110.0136 2.2 118
  111.022 1.3 70
  112.0242 0.6 32
  113.0394 1.1 59
  114.0425 0.5 27
  122.016 0.8 43
  123.0216 0.5 27
  125.0373 0.8 43
  126.0466 5.7 307
  127.0538 0.6 32
  137.0388 1.1 59
  138.0431 0.6 32
  139.0556 0.5 27
  140.0546 0.5 27
  152.0538 0.6 32
//