ACCESSION: MSBNK-BAFG-CSL23110918011
RECORD_TITLE: 4-Octylbenzenesulfonic acid; LC-ESI-QTOF; MS2; 80 V
DATE: 2023.11.09
AUTHORS: Kevin S. Jewell; Björn Ehlig; Arne Wick
LICENSE: dl-de/by-2-0
COPYRIGHT: Copyright 2023 Federal Institute of Hydrology, Koblenz, Germany
COMMENT: CONFIDENCE Reference Standard (Level 1)
COMMENT: Chromatography method: dx.doi.org/10.1016/j.chroma.2015.11.014
COMMENT: Acquisition method: 10.1002/rcm.8541
CH$NAME: 4-Octylbenzenesulfonic acid
CH$FORMULA: C14H22O3S
CH$EXACT_MASS: 270.129
CH$SMILES: CCCCCCCCC1=CC=C(C=C1)S(=O)(=O)O
CH$IUPAC: InChI=1S/C14H22O3S/c1-2-3-4-5-6-7-8-13-9-11-14(12-10-13)18(15,16)17/h9-12H,2-8H2,1H3,(H,15,16,17)
CH$LINK: CAS 17012-98-5
CH$LINK: INCHIKEY MSOTUIWEAQEETA-UHFFFAOYSA-N
AC$INSTRUMENT: TripleTOF 6600 SCIEX
AC$INSTRUMENT_TYPE: LC-ESI-QTOF
AC$MASS_SPECTROMETRY: MS_TYPE MS2
AC$MASS_SPECTROMETRY: ION_MODE NEGATIVE
AC$MASS_SPECTROMETRY: COLLISION_ENERGY 80
AC$MASS_SPECTROMETRY: FRAGMENTATION_MODE CID
AC$MASS_SPECTROMETRY: IONIZATION ESI
AC$CHROMATOGRAPHY: COLUMN_NAME Zorbax Eclipse Plus C18 2.1 mm x 150 mm, 3.5 um, Agilent
AC$CHROMATOGRAPHY: COLUMN_TEMPERATURE 40 °C
AC$CHROMATOGRAPHY: FLOW_GRADIENT 0 min min 98% A, 1 min 98% A, 2 min 80% A, 16.5 min 2% A, 22 min 2% A, 22.1 min 98% A, 27 min 98% A
AC$CHROMATOGRAPHY: FLOW_RATE 0.3 mL/min
AC$CHROMATOGRAPHY: RETENTION_TIME 14.385 min
AC$CHROMATOGRAPHY: SOLVENT A: Water 0.1% Formic acid, B: Acetonitrile 0.1% Formic acid
MS$FOCUSED_ION: PRECURSOR_M/Z 269.1217
MS$FOCUSED_ION: PRECURSOR_TYPE [M-H]-
MS$DATA_PROCESSING: COMMENT Export with Spectra 1.9.12 MsBackendMassbank 1.7.4
MS$DATA_PROCESSING: WHOLE RMassBank 2.3.1
PK$SPLASH: splash10-004i-9100000000-4beb428d0992ca6f82af
PK$NUM_PEAK: 8
PK$PEAK: m/z int. rel.int.
  63.9626 13.9 32
  79.9578 429.9 999
  80.9653 6.1 14
  93.0339 4.3 9
  119.0509 48.8 113
  155.9898 8.7 20
  170.0042 14.2 32
  183.013 15.5 36
//
