ACCESSION: MSBNK-BAFG-CSL23102518619
RECORD_TITLE: Flutamide; LC-ESI-QTOF; MS2; 60 V
DATE: 2023.10.25
AUTHORS: Kevin S. Jewell; Björn Ehlig; Arne Wick
LICENSE: dl-de/by-2-0
COPYRIGHT: Copyright 2023 Federal Institute of Hydrology, Koblenz, Germany
COMMENT: CONFIDENCE Reference Standard (Level 1)
COMMENT: Chromatography method: dx.doi.org/10.1016/j.chroma.2015.11.014
COMMENT: Acquisition method: 10.1002/rcm.8541
CH$NAME: Flutamide
CH$COMPOUND_CLASS: Pharmaceutical
CH$FORMULA: C11H11F3N2O3
CH$EXACT_MASS: 276.0722
CH$SMILES: CC(C)C(=O)NC1=CC(=C(C=C1)[N+](=O)[O-])C(F)(F)F
CH$IUPAC: InChI=1S/C11H11F3N2O3/c1-6(2)10(17)15-7-3-4-9(16(18)19)8(5-7)11(12,13)14/h3-6H,1-2H3,(H,15,17)
CH$LINK: CAS 13311-84-7
CH$LINK: INCHIKEY MKXKFYHWDHIYRV-UHFFFAOYSA-N
AC$INSTRUMENT: TripleTOF 6600 SCIEX
AC$INSTRUMENT_TYPE: LC-ESI-QTOF
AC$MASS_SPECTROMETRY: MS_TYPE MS2
AC$MASS_SPECTROMETRY: ION_MODE POSITIVE
AC$MASS_SPECTROMETRY: COLLISION_ENERGY 60
AC$MASS_SPECTROMETRY: FRAGMENTATION_MODE CID
AC$MASS_SPECTROMETRY: IONIZATION ESI
AC$CHROMATOGRAPHY: COLUMN_NAME Zorbax Eclipse Plus C18 2.1 mm x 150 mm, 3.5 um, Agilent
AC$CHROMATOGRAPHY: COLUMN_TEMPERATURE 40 °C
AC$CHROMATOGRAPHY: FLOW_GRADIENT 0 min min 98% A, 1 min 98% A, 2 min 80% A, 16.5 min 2% A, 22 min 2% A, 22.1 min 98% A, 27 min 98% A
AC$CHROMATOGRAPHY: FLOW_RATE 0.3 mL/min
AC$CHROMATOGRAPHY: RETENTION_TIME 12.297 min
AC$CHROMATOGRAPHY: SOLVENT A: Water 0.1% Formic acid, B: Acetonitrile 0.1% Formic acid
MS$FOCUSED_ION: PRECURSOR_M/Z 277.0795
MS$FOCUSED_ION: PRECURSOR_TYPE [M+H]+
MS$DATA_PROCESSING: COMMENT Export with Spectra 1.9.12 MsBackendMassbank 1.7.4
MS$DATA_PROCESSING: WHOLE RMassBank 2.3.1
PK$SPLASH: splash10-0006-9500000000-9f10506395ffd9119ac2
PK$NUM_PEAK: 28
PK$PEAK: m/z int. rel.int.
  37.0064 0.4 16
  38.0138 0.4 16
  39.0223 5.2 212
  41.0378 17.2 701
  43.0542 24.5 999
  64.0316 0.3 12
  65.0379 0.6 24
  66.0317 0.3 12
  80.0498 0.3 12
  83.0275 0.2 8
  84.0359 0.8 32
  88.0105 0.3 12
  91.0418 0.4 16
  91.0547 0.4 16
  95.0276 0.4 16
  111.0469 8.5 346
  114.0268 5.1 207
  115.0361 0.3 12
  122.039 0.4 16
  134.0307 0.3 12
  140.0289 0.9 36
  141.0366 1.4 57
  142.0452 7.2 293
  143.0086 0.2 8
  145.0245 0.8 32
  160.0343 2.8 114
  161.0428 4.3 175
  192.0692 0.3 12
//
