ACCESSION: MSBNK-BAFG-CSL25010634376
RECORD_TITLE: 3,3`-Dichlorobenzidine; LC-ESI-QTOF; MS2; 150 V
DATE: 2025.01.06
AUTHORS: Ole Lessmann; Kevin S. Jewell; Björn Ehlig; Arne Wick
LICENSE: dl-de/by-2-0
COPYRIGHT: Copyright 2025 Federal Institute of Hydrology, Koblenz, Germany
COMMENT: CONFIDENCE Reference Standard (Level 1)
COMMENT: Chromatography method: dx.doi.org/10.1016/j.chroma.2015.11.014
COMMENT: Acquisition method: 10.1002/rcm.8541
CH$NAME: 3,3`-Dichlorobenzidine
CH$FORMULA: C12H10Cl2N2
CH$EXACT_MASS: 252.0221
CH$SMILES: C1=CC(=C(C=C1C2=CC(=C(C=C2)N)Cl)Cl)N
CH$IUPAC: InChI=1S/C12H10Cl2N2/c13-9-5-7(1-3-11(9)15)8-2-4-12(16)10(14)6-8/h1-6H,15-16H2
CH$LINK: CAS 91-94-1
CH$LINK: INCHIKEY HUWXDEQWWKGHRV-UHFFFAOYSA-N
AC$INSTRUMENT: TripleTOF 6600 SCIEX
AC$INSTRUMENT_TYPE: LC-ESI-QTOF
AC$MASS_SPECTROMETRY: MS_TYPE MS2
AC$MASS_SPECTROMETRY: ION_MODE POSITIVE
AC$MASS_SPECTROMETRY: COLLISION_ENERGY 150
AC$MASS_SPECTROMETRY: FRAGMENTATION_MODE CID
AC$MASS_SPECTROMETRY: IONIZATION ESI
AC$CHROMATOGRAPHY: COLUMN_NAME Zorbax Eclipse Plus C18 2.1 mm x 150 mm, 3.5 um, Agilent
AC$CHROMATOGRAPHY: COLUMN_TEMPERATURE 40 °C
AC$CHROMATOGRAPHY: FLOW_GRADIENT 0 min min 98% A, 1 min 98% A, 2 min 80% A, 16.5 min 2% A, 22 min 2% A, 22.1 min 98% A, 27 min 98% A
AC$CHROMATOGRAPHY: FLOW_RATE 0.3 mL/min
AC$CHROMATOGRAPHY: RETENTION_TIME 11.426 min
AC$CHROMATOGRAPHY: SOLVENT A: Water 0.1% Formic acid, B: Acetonitrile 0.1% Formic acid
MS$FOCUSED_ION: PRECURSOR_M/Z 253.0294
MS$FOCUSED_ION: PRECURSOR_TYPE [M+H]+
MS$DATA_PROCESSING: COMMENT Export with pycsl 0.1.0.dev1 and CSL 24.4
PK$SPLASH: splash10-0ir9-9000000000-1ca5daa981fadb50baa0
PK$NUM_PEAK: 32
PK$PEAK: m/z int. rel.int.
  37.0078 1.8 89
  38.0161 1.1 54
  39.0234 1.8 89
  49.0088 0.6 29
  50.0158 6.7 333
  51.0233 8.9 442
  52.0188 0.9 44
  60.0002 0.7 34
  61.0074 8.4 417
  62.0152 9.9 492
  63.0229 7.9 392
  73.0083 3.3 164
  74.0151 20.1 999
  75.0228 5.6 278
  76.0197 0.6 29
  76.0309 0.4 19
  77.0401 1.7 84
  83.9977 1.3 64
  85.0071 10.4 516
  86.015 11.8 586
  87.0241 3.7 183
  88.019 0.7 34
  89.0367 0.5 24
  97.0074 1.7 84
  98.0144 7.0 347
  99.009 0.5 24
  99.022 1.0 49
  109.0083 2.7 134
  110.0144 2.3 114
  122.0147 1.1 54
  126.0487 0.4 19
  137.0401 0.5 24
//