ACCESSION: MSBNK-BAFG-CSL23103018698
RECORD_TITLE: Benalaxyl; LC-ESI-QTOF; MS2; 100 V
DATE: 2023.10.30
AUTHORS: Kevin S. Jewell; Björn Ehlig; Arne Wick
LICENSE: dl-de/by-2-0
COPYRIGHT: Copyright 2023 Federal Institute of Hydrology, Koblenz, Germany
COMMENT: CONFIDENCE Reference Standard (Level 1)
COMMENT: Chromatography method: dx.doi.org/10.1016/j.chroma.2015.11.014
COMMENT: Acquisition method: 10.1002/rcm.8541
CH$NAME: Benalaxyl
CH$COMPOUND_CLASS: Fungicide
CH$FORMULA: C20H23NO3
CH$EXACT_MASS: 325.1678
CH$SMILES: CC1=C(C(=CC=C1)C)N(C(C)C(=O)OC)C(=O)CC2=CC=CC=C2
CH$IUPAC: InChI=1S/C20H23NO3/c1-14-9-8-10-15(2)19(14)21(16(3)20(23)24-4)18(22)13-17-11-6-5-7-12-17/h5-12,16H,13H2,1-4H3
CH$LINK: CAS 71626-11-4
CH$LINK: INCHIKEY CJPQIRJHIZUAQP-UHFFFAOYSA-N
AC$INSTRUMENT: TripleTOF 6600 SCIEX
AC$INSTRUMENT_TYPE: LC-ESI-QTOF
AC$MASS_SPECTROMETRY: MS_TYPE MS2
AC$MASS_SPECTROMETRY: ION_MODE POSITIVE
AC$MASS_SPECTROMETRY: COLLISION_ENERGY 100
AC$MASS_SPECTROMETRY: FRAGMENTATION_MODE CID
AC$MASS_SPECTROMETRY: IONIZATION ESI
AC$CHROMATOGRAPHY: COLUMN_NAME Zorbax Eclipse Plus C18 2.1 mm x 150 mm, 3.5 um, Agilent
AC$CHROMATOGRAPHY: COLUMN_TEMPERATURE 40 °C
AC$CHROMATOGRAPHY: FLOW_GRADIENT 0 min min 98% A, 1 min 98% A, 2 min 80% A, 16.5 min 2% A, 22 min 2% A, 22.1 min 98% A, 27 min 98% A
AC$CHROMATOGRAPHY: FLOW_RATE 0.3 mL/min
AC$CHROMATOGRAPHY: RETENTION_TIME 13.881 min
AC$CHROMATOGRAPHY: SOLVENT A: Water 0.1% Formic acid, B: Acetonitrile 0.1% Formic acid
MS$FOCUSED_ION: PRECURSOR_M/Z 326.1751
MS$FOCUSED_ION: PRECURSOR_TYPE [M+H]+
MS$DATA_PROCESSING: COMMENT Export with Spectra 1.9.12 MsBackendMassbank 1.7.4
MS$DATA_PROCESSING: WHOLE RMassBank 2.3.1
PK$SPLASH: splash10-00mo-9300000000-945c07080ff075455279
PK$NUM_PEAK: 28
PK$PEAK: m/z int. rel.int.
  37.0076 5.4 24
  38.0149 4.3 19
  39.0227 36.7 169
  41.0383 8.9 40
  50.015 3.5 16
  51.0224 17.1 78
  61.007 2.3 10
  62.0155 4 18
  63.0219 12.8 58
  65.0382 148.4 683
  77.038 110.3 508
  78.0449 9.7 44
  79.0539 42.9 197
  80.0492 3.7 17
  89.037 3.5 16
  91.0536 216.9 999
  93.0691 3.4 15
  103.0528 28.1 129
  105.0446 3.1 14
  105.0687 11.2 51
  106.0642 83.9 386
  115.0528 4.3 19
  117.055 10 46
  118.0638 15 69
  120.0797 48 221
  121.0881 2.9 13
  132.0805 9.2 42
  180.0813 3.2 14
//
