ACCESSION: MSBNK-BAFG-CSL25010634130
RECORD_TITLE: 2,6-Dimethylpyridine; LC-ESI-QTOF; MS2; 40 V
DATE: 2025.01.06
AUTHORS: Ole Lessmann; Kevin S. Jewell; Björn Ehlig; Arne Wick
LICENSE: dl-de/by-2-0
COPYRIGHT: Copyright 2025 Federal Institute of Hydrology, Koblenz, Germany
COMMENT: CONFIDENCE Reference Standard (Level 1)
COMMENT: Chromatography method: dx.doi.org/10.1016/j.chroma.2015.11.014
COMMENT: Acquisition method: 10.1002/rcm.8541
CH$NAME: 2,6-Dimethylpyridine
CH$FORMULA: C7H9N
CH$EXACT_MASS: 107.0735
CH$SMILES: CC1=NC(=CC=C1)C
CH$IUPAC: InChI=1S/C7H9N/c1-6-4-3-5-7(2)8-6/h3-5H,1-2H3
CH$LINK: CAS 108-48-5
CH$LINK: INCHIKEY OISVCGZHLKNMSJ-UHFFFAOYSA-N
AC$INSTRUMENT: TripleTOF 6600 SCIEX
AC$INSTRUMENT_TYPE: LC-ESI-QTOF
AC$MASS_SPECTROMETRY: MS_TYPE MS2
AC$MASS_SPECTROMETRY: ION_MODE POSITIVE
AC$MASS_SPECTROMETRY: COLLISION_ENERGY 40
AC$MASS_SPECTROMETRY: FRAGMENTATION_MODE CID
AC$MASS_SPECTROMETRY: IONIZATION ESI
AC$CHROMATOGRAPHY: COLUMN_NAME Zorbax Eclipse Plus C18 2.1 mm x 150 mm, 3.5 um, Agilent
AC$CHROMATOGRAPHY: COLUMN_TEMPERATURE 40 °C
AC$CHROMATOGRAPHY: FLOW_GRADIENT 0 min min 98% A, 1 min 98% A, 2 min 80% A, 16.5 min 2% A, 22 min 2% A, 22.1 min 98% A, 27 min 98% A
AC$CHROMATOGRAPHY: FLOW_RATE 0.3 mL/min
AC$CHROMATOGRAPHY: RETENTION_TIME 2.395 min
AC$CHROMATOGRAPHY: SOLVENT A: Water 0.1% Formic acid, B: Acetonitrile 0.1% Formic acid
MS$FOCUSED_ION: PRECURSOR_M/Z 108.0808
MS$FOCUSED_ION: PRECURSOR_TYPE [M+H]+
MS$DATA_PROCESSING: COMMENT Export with pycsl 0.1.0.dev1 and CSL 24.4
PK$SPLASH: splash10-0aou-9300000000-3ada33befc6deb4c68d0
PK$NUM_PEAK: 22
PK$PEAK: m/z int. rel.int.
  37.0071 1.6 64
  38.0161 0.8 32
  39.0226 13.1 531
  41.038 9.4 381
  42.0343 1.5 60
  50.0156 0.4 16
  51.0219 0.4 16
  53.0379 0.6 24
  65.0377 19.5 791
  66.0455 5.7 231
  67.0414 1.2 48
  67.0532 6.5 263
  77.0374 2.2 89
  78.033 1.2 48
  79.0532 1.2 48
  80.0481 1.4 56
  91.0525 0.5 20
  92.0485 14.4 584
  93.0562 8.8 357
  106.0643 5.0 203
  107.072 10.2 414
  108.0799 24.6 999
//