ACCESSION: MSBNK-BAFG-CSL23110919358
RECORD_TITLE: Ecgonine ethyl ester; LC-ESI-QTOF; MS2; 60 V
DATE: 2023.11.09
AUTHORS: Kevin S. Jewell; Björn Ehlig; Arne Wick
LICENSE: dl-de/by-2-0
COPYRIGHT: Copyright 2023 Federal Institute of Hydrology, Koblenz, Germany
COMMENT: CONFIDENCE Reference Standard (Level 1)
COMMENT: Chromatography method: dx.doi.org/10.1016/j.chroma.2015.11.014
COMMENT: Acquisition method: 10.1002/rcm.8541
CH$NAME: Ecgonine ethyl ester
CH$FORMULA: C11H19NO3
CH$EXACT_MASS: 213.1365
CH$SMILES: CCOC(=O)C1C2CCC(N2C)CC1O
CH$IUPAC: InChI=1S/C11H19NO3/c1-3-15-11(14)10-8-5-4-7(12(8)2)6-9(10)13/h7-10,13H,3-6H2,1-2H3
CH$LINK: CAS 70939-97-8
CH$LINK: INCHIKEY ABDMBNAKYBUEEX-UHFFFAOYSA-N
AC$INSTRUMENT: TripleTOF 6600 SCIEX
AC$INSTRUMENT_TYPE: LC-ESI-QTOF
AC$MASS_SPECTROMETRY: MS_TYPE MS2
AC$MASS_SPECTROMETRY: ION_MODE POSITIVE
AC$MASS_SPECTROMETRY: COLLISION_ENERGY 60
AC$MASS_SPECTROMETRY: FRAGMENTATION_MODE CID
AC$MASS_SPECTROMETRY: IONIZATION ESI
AC$CHROMATOGRAPHY: COLUMN_NAME Zorbax Eclipse Plus C18 2.1 mm x 150 mm, 3.5 um, Agilent
AC$CHROMATOGRAPHY: COLUMN_TEMPERATURE 40 °C
AC$CHROMATOGRAPHY: FLOW_GRADIENT 0 min min 98% A, 1 min 98% A, 2 min 80% A, 16.5 min 2% A, 22 min 2% A, 22.1 min 98% A, 27 min 98% A
AC$CHROMATOGRAPHY: FLOW_RATE 0.3 mL/min
AC$CHROMATOGRAPHY: RETENTION_TIME 2.108 min
AC$CHROMATOGRAPHY: SOLVENT A: Water 0.1% Formic acid, B: Acetonitrile 0.1% Formic acid
MS$FOCUSED_ION: PRECURSOR_M/Z 214.1438
MS$FOCUSED_ION: PRECURSOR_TYPE [M+H]+
MS$DATA_PROCESSING: COMMENT Export with Spectra 1.9.12 MsBackendMassbank 1.7.4
MS$DATA_PROCESSING: WHOLE RMassBank 2.3.1
PK$SPLASH: splash10-00lu-9000000000-125d34aec0168edf7f40
PK$NUM_PEAK: 42
PK$PEAK: m/z int. rel.int.
  37.0076 0.2 20
  39.0242 0.6 61
  41.0262 0.2 20
  41.0395 1.1 112
  42.035 1.3 132
  43.0177 0.2 20
  44.0507 0.3 30
  51.0248 0.2 20
  53.0401 0.2 20
  55.0197 0.3 30
  55.0552 0.8 81
  56.0506 0.6 61
  57.0583 0.4 40
  58.0317 0.2 20
  65.0391 1.8 183
  67.0432 2.8 285
  67.0547 1.2 122
  68.0506 3 305
  69.0348 0.4 40
  70.0665 0.3 30
  71.0136 0.3 30
  77.0395 0.6 61
  78.0335 0.1 10
  79.0551 0.4 40
  80.0495 0.5 50
  81.057 0.4 40
  81.0701 0.2 20
  82.0664 9.8 999
  83.0496 0.4 40
  83.073 0.9 91
  84.0816 0.4 40
  91.0554 2.1 214
  93.0355 0.3 30
  93.058 0.2 20
  94.066 2.6 265
  95.078 0.1 10
  96.0811 0.7 71
  105.048 0.4 40
  106.0668 0.2 20
  108.0824 0.2 20
  122.0967 0.3 30
  140.0713 0.2 20
//
