ACCESSION: MSBNK-BAFG-CSL2311092281
RECORD_TITLE: 2-Hydroxycarbamazepine; LC-ESI-QTOF; MS2; 90 V
DATE: 2023.11.09
AUTHORS: Kevin S. Jewell; Björn Ehlig; Arne Wick
LICENSE: dl-de/by-2-0
COPYRIGHT: Copyright 2023 Federal Institute of Hydrology, Koblenz, Germany
COMMENT: CONFIDENCE Reference Standard (Level 1)
COMMENT: Chromatography method: dx.doi.org/10.1016/j.chroma.2015.11.014
COMMENT: Acquisition method: 10.1002/rcm.8541
CH$NAME: 2-Hydroxycarbamazepine
CH$COMPOUND_CLASS: Pharmaceutical; Metabolite
CH$FORMULA: C15H12N2O2
CH$EXACT_MASS: 252.0899
CH$SMILES: NC(=O)N1c2ccccc2C=Cc3cc(O)ccc13
CH$IUPAC: InChI=1S/C15H12N2O2/c16-15(19)17-13-4-2-1-3-10(13)5-6-11-9-12(18)7-8-14(11)17/h1-9,18H,(H2,16,19)
CH$LINK: CAS 68011-66-5
CH$LINK: INCHIKEY VPZIYMMSJFWLSP-UHFFFAOYSA-N
AC$INSTRUMENT: TripleTOF 5600 SCIEX
AC$INSTRUMENT_TYPE: LC-ESI-QTOF
AC$MASS_SPECTROMETRY: MS_TYPE MS2
AC$MASS_SPECTROMETRY: ION_MODE NEGATIVE
AC$MASS_SPECTROMETRY: COLLISION_ENERGY 90
AC$MASS_SPECTROMETRY: FRAGMENTATION_MODE CID
AC$MASS_SPECTROMETRY: IONIZATION ESI
AC$CHROMATOGRAPHY: COLUMN_NAME Zorbax Eclipse Plus C18 2.1 mm x 150 mm, 3.5 um, Agilent
AC$CHROMATOGRAPHY: COLUMN_TEMPERATURE 40 °C
AC$CHROMATOGRAPHY: FLOW_GRADIENT 0 min min 98% A, 1 min 98% A, 2 min 80% A, 16.5 min 2% A, 22 min 2% A, 22.1 min 98% A, 27 min 98% A
AC$CHROMATOGRAPHY: FLOW_RATE 0.3 mL/min
AC$CHROMATOGRAPHY: RETENTION_TIME 7.476 min
AC$CHROMATOGRAPHY: SOLVENT A: Water 0.1% Formic acid, B: Acetonitrile 0.1% Formic acid
MS$FOCUSED_ION: PRECURSOR_M/Z 251.0826
MS$FOCUSED_ION: PRECURSOR_TYPE [M-H]-
MS$DATA_PROCESSING: COMMENT Export with Spectra 1.9.12 MsBackendMassbank 1.7.4
MS$DATA_PROCESSING: WHOLE RMassBank 2.3.1
PK$SPLASH: splash10-00kf-9800000000-e4f03ace3a99c1abf822
PK$NUM_PEAK: 12
PK$PEAK: m/z int. rel.int.
  41.0076 0.6 856
  42.0019 0.6 856
  42.0148 0.2 285
  50.0083 0.1 142
  66.0002 0.3 428
  90.0347 0.2 285
  115.0536 0.1 142
  116.0533 0.2 285
  140.052 0.4 570
  164.0529 0.3 428
  165.0695 0.2 285
  166.0632 0.7 999
//
