ACCESSION: MSBNK-BAFG-CSL2311093045
RECORD_TITLE: Torasemide; LC-ESI-QTOF; MS2; 40 V
DATE: 2023.11.09
AUTHORS: Kevin S. Jewell; Björn Ehlig; Arne Wick
LICENSE: dl-de/by-2-0
COPYRIGHT: Copyright 2023 Federal Institute of Hydrology, Koblenz, Germany
COMMENT: CONFIDENCE Reference Standard (Level 1)
COMMENT: Chromatography method: dx.doi.org/10.1016/j.chroma.2015.11.014
COMMENT: Acquisition method: 10.1002/rcm.8541
CH$NAME: Torasemide
CH$COMPOUND_CLASS: Pharmaceutical
CH$FORMULA: C16H20N4O3S
CH$EXACT_MASS: 348.1256
CH$SMILES: CC(C)NC(=O)N[S](=O)(=O)c1cnccc1Nc2cccc(C)c2
CH$IUPAC: InChI=1S/C16H20N4O3S/c1-11(2)18-16(21)20-24(22,23)15-10-17-8-7-14(15)19-13-6-4-5-12(3)9-13/h4-11H,1-3H3,(H,17,19)(H2,18,20,21)
CH$LINK: CAS 56211-40-6
CH$LINK: INCHIKEY NGBFQHCMQULJNZ-UHFFFAOYSA-N
AC$INSTRUMENT: TripleTOF 5600 SCIEX
AC$INSTRUMENT_TYPE: LC-ESI-QTOF
AC$MASS_SPECTROMETRY: MS_TYPE MS2
AC$MASS_SPECTROMETRY: ION_MODE POSITIVE
AC$MASS_SPECTROMETRY: COLLISION_ENERGY 40
AC$MASS_SPECTROMETRY: FRAGMENTATION_MODE CID
AC$MASS_SPECTROMETRY: IONIZATION ESI
AC$CHROMATOGRAPHY: COLUMN_NAME Zorbax Eclipse Plus C18 2.1 mm x 150 mm, 3.5 um, Agilent
AC$CHROMATOGRAPHY: COLUMN_TEMPERATURE 40 °C
AC$CHROMATOGRAPHY: FLOW_GRADIENT 0 min min 98% A, 1 min 98% A, 2 min 80% A, 16.5 min 2% A, 22 min 2% A, 22.1 min 98% A, 27 min 98% A
AC$CHROMATOGRAPHY: FLOW_RATE 0.3 mL/min
AC$CHROMATOGRAPHY: RETENTION_TIME 7.633 min
AC$CHROMATOGRAPHY: SOLVENT A: Water 0.1% Formic acid, B: Acetonitrile 0.1% Formic acid
MS$FOCUSED_ION: PRECURSOR_M/Z 349.1329
MS$FOCUSED_ION: PRECURSOR_TYPE [M+H]+
MS$DATA_PROCESSING: COMMENT Export with Spectra 1.9.12 MsBackendMassbank 1.7.4
MS$DATA_PROCESSING: WHOLE RMassBank 2.3.1
PK$SPLASH: splash10-03e9-0790000000-ebbcf6822999d7202a18
PK$NUM_PEAK: 20
PK$PEAK: m/z int. rel.int.
  122.0597 21.7 22
  125.017 124.8 129
  137.0166 15 15
  156.08 11.5 11
  168.0685 238.8 247
  181.076 20.8 21
  182.0838 74.5 77
  183.0913 702.5 729
  185.0702 12 12
  191.0637 48.8 50
  198.0789 72 74
  199.086 72.6 75
  201.048 62.1 64
  214.0726 13.6 14
  219.0584 167.9 174
  229.0426 27.7 28
  230.0506 140.9 146
  247.0535 148.7 154
  264.0796 962.3 999
  290.0595 131.6 136
//
