ACCESSION: MSBNK-BAFG-CSL2310254781
RECORD_TITLE: Iopromide; LC-ESI-QTOF; MS2; 110 V
DATE: 2023.10.25
AUTHORS: Kevin S. Jewell; Björn Ehlig; Arne Wick
LICENSE: dl-de/by-2-0
COPYRIGHT: Copyright 2023 Federal Institute of Hydrology, Koblenz, Germany
COMMENT: CONFIDENCE Reference Standard (Level 1)
COMMENT: Chromatography method: dx.doi.org/10.1016/j.chroma.2015.11.014
COMMENT: Acquisition method: 10.1002/rcm.8541
CH$NAME: Iopromide
CH$COMPOUND_CLASS: Pharmaceutical
CH$FORMULA: C18H24I3N3O8
CH$EXACT_MASS: 790.8698
CH$SMILES: COCC(=O)Nc1c(I)c(C(=O)NCC(O)CO)c(I)c(c1I)C(=O)N(C)CC(O)CO
CH$IUPAC: InChI=1S/C18H24I3N3O8/c1-24(4-9(28)6-26)18(31)12-13(19)11(17(30)22-3-8(27)5-25)14(20)16(15(12)21)23-10(29)7-32-2/h8-9,25-28H,3-7H2,1-2H3,(H,22,30)(H,23,29)
CH$LINK: CAS 73334-07-3
CH$LINK: INCHIKEY DGAIEPBNLOQYER-UHFFFAOYSA-N
AC$INSTRUMENT: TripleTOF 5600 SCIEX
AC$INSTRUMENT_TYPE: LC-ESI-QTOF
AC$MASS_SPECTROMETRY: MS_TYPE MS2
AC$MASS_SPECTROMETRY: ION_MODE POSITIVE
AC$MASS_SPECTROMETRY: COLLISION_ENERGY 110
AC$MASS_SPECTROMETRY: FRAGMENTATION_MODE CID
AC$MASS_SPECTROMETRY: IONIZATION ESI
AC$CHROMATOGRAPHY: COLUMN_NAME Zorbax Eclipse Plus C18 2.1 mm x 150 mm, 3.5 um, Agilent
AC$CHROMATOGRAPHY: COLUMN_TEMPERATURE 40 °C
AC$CHROMATOGRAPHY: FLOW_GRADIENT 0 min min 98% A, 1 min 98% A, 2 min 80% A, 16.5 min 2% A, 22 min 2% A, 22.1 min 98% A, 27 min 98% A
AC$CHROMATOGRAPHY: FLOW_RATE 0.3 mL/min
AC$CHROMATOGRAPHY: RETENTION_TIME 4.895 min
AC$CHROMATOGRAPHY: SOLVENT A: Water 0.1% Formic acid, B: Acetonitrile 0.1% Formic acid
MS$FOCUSED_ION: PRECURSOR_M/Z 791.877
MS$FOCUSED_ION: PRECURSOR_TYPE [M+H]+
MS$DATA_PROCESSING: COMMENT Export with Spectra 1.9.12 MsBackendMassbank 1.7.4
MS$DATA_PROCESSING: WHOLE RMassBank 2.3.1
PK$SPLASH: splash10-0002-0492000000-546decde60718eb65ce6
PK$NUM_PEAK: 64
PK$PEAK: m/z int. rel.int.
  77.0056 0.4 18
  88.0203 0.8 36
  89.0261 0.9 41
  100.017 0.5 22
  101.0263 0.9 41
  101.9961 0.9 41
  103.0408 0.7 31
  104.047 0.5 22
  113.997 0.8 36
  116.0125 1.2 54
  117.0204 4.6 209
  128.0125 0.5 22
  130.0549 0.5 22
  131.0358 0.5 22
  141.991 2.4 109
  144.0067 0.9 41
  145.0156 1.8 82
  152.9157 0.5 22
  154.8989 0.8 36
  157.0155 0.8 36
  158.024 0.6 27
  159.0303 0.7 31
  159.0538 0.4 18
  172.001 2.2 100
  173.0101 2.2 100
  174.0172 0.5 22
  177.9138 1 45
  185.0388 0.4 18
  188.918 0.4 18
  200.9077 1 45
  203.9293 0.6 27
  215.9274 0.6 27
  226.9226 0.5 22
  227.931 1.9 86
  228.9247 0.9 41
  241.947 0.6 27
  242.9152 0.7 31
  243.9248 2.5 114
  255.9254 4.3 196
  256.9343 0.6 27
  269.9048 0.5 22
  270.9086 0.7 31
  271.9192 6.3 287
  282.9106 1.1 50
  283.9198 1.5 68
  284.9258 0.7 31
  298.9057 1.2 54
  298.9268 1 45
  299.9143 21.9 999
  312.9438 0.7 31
  313.9269 1.8 82
  326.9059 0.6 27
  326.9602 0.5 22
  327.8146 0.9 41
  339.8113 1.4 63
  341.8266 0.4 18
  353.8216 0.4 18
  354.8335 0.7 31
  355.8085 1.1 50
  367.8096 0.9 41
  381.821 1.1 50
  382.8284 1.6 72
  398.8295 1.3 59
  423.7965 1.8 82
//
