ACCESSION: MSBNK-BAFG-CSL23102615240
RECORD_TITLE: N,N-Dimethyltetradecylamine; LC-ESI-QTOF; MS2; 100 V
DATE: 2023.10.26
AUTHORS: Kevin S. Jewell; Björn Ehlig; Arne Wick
LICENSE: dl-de/by-2-0
COPYRIGHT: Copyright 2023 Federal Institute of Hydrology, Koblenz, Germany
COMMENT: CONFIDENCE Reference Standard (Level 1)
COMMENT: Chromatography method: dx.doi.org/10.1016/j.chroma.2015.11.014
COMMENT: Acquisition method: 10.1002/rcm.8541
CH$NAME: N,N-Dimethyltetradecylamine
CH$COMPOUND_CLASS: Personal_care_product
CH$FORMULA: C16H35N
CH$EXACT_MASS: 241.277
CH$SMILES: CCCCCCCCCCCCCCN(C)C
CH$IUPAC: InChI=1S/C16H35N/c1-4-5-6-7-8-9-10-11-12-13-14-15-16-17(2)3/h4-16H2,1-3H3
CH$LINK: CAS 112-75-4
CH$LINK: INCHIKEY SFBHPFQSSDCYSL-UHFFFAOYSA-N
AC$INSTRUMENT: TripleTOF 6600 SCIEX
AC$INSTRUMENT_TYPE: LC-ESI-QTOF
AC$MASS_SPECTROMETRY: MS_TYPE MS2
AC$MASS_SPECTROMETRY: ION_MODE POSITIVE
AC$MASS_SPECTROMETRY: COLLISION_ENERGY 100
AC$MASS_SPECTROMETRY: FRAGMENTATION_MODE CID
AC$MASS_SPECTROMETRY: IONIZATION ESI
AC$CHROMATOGRAPHY: COLUMN_NAME Zorbax Eclipse Plus C18 2.1 mm x 150 mm, 3.5 um, Agilent
AC$CHROMATOGRAPHY: COLUMN_TEMPERATURE 40 °C
AC$CHROMATOGRAPHY: FLOW_GRADIENT 0 min min 98% A, 1 min 98% A, 2 min 80% A, 16.5 min 2% A, 22 min 2% A, 22.1 min 98% A, 27 min 98% A
AC$CHROMATOGRAPHY: FLOW_RATE 0.3 mL/min
AC$CHROMATOGRAPHY: RETENTION_TIME 11.365 min
AC$CHROMATOGRAPHY: SOLVENT A: Water 0.1% Formic acid, B: Acetonitrile 0.1% Formic acid
MS$FOCUSED_ION: PRECURSOR_M/Z 242.2842
MS$FOCUSED_ION: PRECURSOR_TYPE [M+H]+
MS$DATA_PROCESSING: COMMENT Export with Spectra 1.9.12 MsBackendMassbank 1.7.4
MS$DATA_PROCESSING: WHOLE RMassBank 2.3.1
PK$SPLASH: splash10-000l-9000000000-745a8d3a21726504a9ef
PK$NUM_PEAK: 11
PK$PEAK: m/z int. rel.int.
  30.0331 1 169
  37.0063 1.2 203
  38.002 0.7 118
  38.0143 1.5 253
  39.0222 5.9 999
  41.0379 4.1 694
  42.0336 0.6 101
  43.0537 0.7 118
  44.0483 1.2 203
  46.0641 2 338
  58.0635 0.8 135
//
