ACCESSION: MSBNK-BAFG-CSL25010627923
RECORD_TITLE: 2-[(4-hydroxy-9,10-dioxoanthracen-1-yl)amino]-5-methylbenzenesulfonic acid; LC-ESI-QTOF; MS2; 70 V
DATE: 2025.01.06
AUTHORS: Ole Lessmann; Kevin S. Jewell; Björn Ehlig; Arne Wick
LICENSE: dl-de/by-2-0
COPYRIGHT: Copyright 2025 Federal Institute of Hydrology, Koblenz, Germany
COMMENT: CONFIDENCE Reference Standard (Level 1)
COMMENT: Chromatography method: dx.doi.org/10.1016/j.chroma.2015.11.014
COMMENT: Acquisition method: 10.1002/rcm.8541
CH$NAME: 2-[(4-hydroxy-9,10-dioxoanthracen-1-yl)amino]-5-methylbenzenesulfonic acid
CH$FORMULA: C21H15NO6S
CH$EXACT_MASS: 409.062
CH$SMILES: CC1=CC(=C(C=C1)NC2=C3C(=C(C=C2)O)C(=O)C4=CC=CC=C4C3=O)S(=O)(=O)O
CH$IUPAC: InChI=1S/C21H15NO6S/c1-11-6-7-14(17(10-11)29(26,27)28)22-15-8-9-16(23)19-18(15)20(24)12-4-2-3-5-13(12)21(19)25/h2-10,22-23H,1H3,(H,26,27,28)
CH$LINK: CAS 3443-92-3
CH$LINK: INCHIKEY XXQVCGHGQCAKKA-UHFFFAOYSA-N
AC$INSTRUMENT: TripleTOF X500R SCIEX
AC$INSTRUMENT_TYPE: LC-ESI-QTOF
AC$MASS_SPECTROMETRY: MS_TYPE MS2
AC$MASS_SPECTROMETRY: ION_MODE POSITIVE
AC$MASS_SPECTROMETRY: COLLISION_ENERGY 70
AC$MASS_SPECTROMETRY: FRAGMENTATION_MODE CID
AC$MASS_SPECTROMETRY: IONIZATION ESI
AC$CHROMATOGRAPHY: COLUMN_NAME Zorbax Eclipse Plus C18 2.1 mm x 150 mm, 3.5 um, Agilent
AC$CHROMATOGRAPHY: COLUMN_TEMPERATURE 40 °C
AC$CHROMATOGRAPHY: FLOW_GRADIENT 0 min min 98% A, 1 min 98% A, 2 min 80% A, 16.5 min 2% A, 22 min 2% A, 22.1 min 98% A, 27 min 98% A
AC$CHROMATOGRAPHY: FLOW_RATE 0.3 mL/min
AC$CHROMATOGRAPHY: RETENTION_TIME 11.683 min
AC$CHROMATOGRAPHY: SOLVENT A: Water 0.1% Formic acid, B: Acetonitrile 0.1% Formic acid
MS$FOCUSED_ION: PRECURSOR_M/Z 410.0693
MS$FOCUSED_ION: PRECURSOR_TYPE [M+H]+
MS$DATA_PROCESSING: COMMENT Export with pycsl 0.1.0.dev1 and CSL 24.4
PK$SPLASH: splash10-0kdi-0092000000-94b49635c8bb76c46dcc
PK$NUM_PEAK: 44
PK$PEAK: m/z int. rel.int.
  152.0618 1.0 92
  153.0728 0.6 55
  180.0821 0.4 37
  201.0701 1.2 111
  202.0784 3.0 277
  203.0731 0.6 55
  215.0865 0.7 64
  216.087 0.5 46
  226.0771 2.0 185
  227.0737 2.4 222
  228.0814 10.8 999
  229.0894 6.2 573
  230.0998 0.6 55
  238.0631 0.7 64
  239.0739 2.3 212
  240.0798 1.5 138
  241.089 1.5 138
  242.0966 1.7 157
  243.1011 1.4 129
  244.1145 1.9 175
  252.083 2.6 240
  253.0879 3.5 323
  254.0982 3.0 277
  255.0854 0.4 37
  255.102 0.4 37
  256.075 5.8 536
  257.0849 4.0 370
  270.0935 0.7 64
  281.0834 1.0 92
  282.0958 1.6 148
  283.098 0.9 83
  284.0713 1.8 166
  285.0801 3.8 351
  286.0898 0.6 55
  298.0872 1.0 92
  300.0712 0.6 55
  312.0682 3.0 277
  312.0978 0.7 64
  313.0767 5.2 481
  314.0785 0.5 46
  326.0828 2.7 249
  327.087 1.0 92
  342.0777 2.5 231
  343.084 0.7 64
//