ACCESSION: MSBNK-BAFG-CSL23103016169
RECORD_TITLE: Dimoxystrobin; LC-ESI-QTOF; MS2; 100 V
DATE: 2023.10.30
AUTHORS: Kevin S. Jewell; Björn Ehlig; Arne Wick
LICENSE: dl-de/by-2-0
COPYRIGHT: Copyright 2023 Federal Institute of Hydrology, Koblenz, Germany
COMMENT: CONFIDENCE Reference Standard (Level 1)
COMMENT: Chromatography method: dx.doi.org/10.1016/j.chroma.2015.11.014
COMMENT: Acquisition method: 10.1002/rcm.8541
CH$NAME: Dimoxystrobin
CH$COMPOUND_CLASS: Fungicide
CH$FORMULA: C19H22N2O3
CH$EXACT_MASS: 326.163
CH$SMILES: CC1=CC(=C(C=C1)C)OCC2=CC=CC=C2C(=NOC)C(=O)NC
CH$IUPAC: InChI=1S/C19H22N2O3/c1-13-9-10-14(2)17(11-13)24-12-15-7-5-6-8-16(15)18(21-23-4)19(22)20-3/h5-11H,12H2,1-4H3,(H,20,22)
CH$LINK: CAS 149961-52-4
CH$LINK: INCHIKEY WXUZAHCNPWONDH-UHFFFAOYSA-N
AC$INSTRUMENT: TripleTOF 6600 SCIEX
AC$INSTRUMENT_TYPE: LC-ESI-QTOF
AC$MASS_SPECTROMETRY: MS_TYPE MS2
AC$MASS_SPECTROMETRY: ION_MODE POSITIVE
AC$MASS_SPECTROMETRY: COLLISION_ENERGY 100
AC$MASS_SPECTROMETRY: FRAGMENTATION_MODE CID
AC$MASS_SPECTROMETRY: IONIZATION ESI
AC$CHROMATOGRAPHY: COLUMN_NAME Zorbax Eclipse Plus C18 2.1 mm x 150 mm, 3.5 um, Agilent
AC$CHROMATOGRAPHY: COLUMN_TEMPERATURE 40 °C
AC$CHROMATOGRAPHY: FLOW_GRADIENT 0 min min 98% A, 1 min 98% A, 2 min 80% A, 16.5 min 2% A, 22 min 2% A, 22.1 min 98% A, 27 min 98% A
AC$CHROMATOGRAPHY: FLOW_RATE 0.3 mL/min
AC$CHROMATOGRAPHY: RETENTION_TIME 13.184 min
AC$CHROMATOGRAPHY: SOLVENT A: Water 0.1% Formic acid, B: Acetonitrile 0.1% Formic acid
MS$FOCUSED_ION: PRECURSOR_M/Z 327.1703
MS$FOCUSED_ION: PRECURSOR_TYPE [M+H]+
MS$DATA_PROCESSING: COMMENT Export with Spectra 1.9.12 MsBackendMassbank 1.7.4
MS$DATA_PROCESSING: WHOLE RMassBank 2.3.1
PK$SPLASH: splash10-01p9-9100000000-bb00606de3c24d02bd14
PK$NUM_PEAK: 26
PK$PEAK: m/z int. rel.int.
  37.0082 3.4 13
  39.0239 17.8 73
  51.0242 4.2 17
  58.0298 87.3 359
  61.0079 7 28
  62.0158 17.9 73
  63.024 125 514
  64.0192 15.3 62
  65.0395 13.3 54
  66.0342 2.6 10
  77.0395 10.1 41
  88.0187 4.2 17
  89.0395 242.8 999
  90.0358 22.2 91
  90.0459 15.4 63
  91.0549 4.8 19
  116.0501 26.1 107
  117.0578 5.2 21
  128.0504 2.8 11
  151.0547 3.8 15
  152.0623 8.2 33
  165.0715 7.7 31
  176.0638 4.5 18
  177.0698 2.5 10
  178.0786 4.8 19
  189.0706 2.4 9
//
