ACCESSION: MSBNK-BAFG-CSL23110918687
RECORD_TITLE: 3,4-Methylenedioxymethamphetamine; LC-ESI-QTOF; MS2; 120 V
DATE: 2023.11.09
AUTHORS: Kevin S. Jewell; Björn Ehlig; Arne Wick
LICENSE: dl-de/by-2-0
COPYRIGHT: Copyright 2023 Federal Institute of Hydrology, Koblenz, Germany
COMMENT: CONFIDENCE Reference Standard (Level 1)
COMMENT: Chromatography method: dx.doi.org/10.1016/j.chroma.2015.11.014
COMMENT: Acquisition method: 10.1002/rcm.8541
CH$NAME: 3,4-Methylenedioxymethamphetamine
CH$COMPOUND_CLASS: Pharmaceutical
CH$FORMULA: C11H15NO2
CH$EXACT_MASS: 193.1103
CH$SMILES: CC(CC1=CC2=C(C=C1)OCO2)NC
CH$IUPAC: InChI=1S/C11H15NO2/c1-8(12-2)5-9-3-4-10-11(6-9)14-7-13-10/h3-4,6,8,12H,5,7H2,1-2H3
CH$LINK: CAS 42542-10-9
CH$LINK: INCHIKEY SHXWCVYOXRDMCX-UHFFFAOYSA-N
AC$INSTRUMENT: TripleTOF 6600 SCIEX
AC$INSTRUMENT_TYPE: LC-ESI-QTOF
AC$MASS_SPECTROMETRY: MS_TYPE MS2
AC$MASS_SPECTROMETRY: ION_MODE POSITIVE
AC$MASS_SPECTROMETRY: COLLISION_ENERGY 120
AC$MASS_SPECTROMETRY: FRAGMENTATION_MODE CID
AC$MASS_SPECTROMETRY: IONIZATION ESI
AC$CHROMATOGRAPHY: COLUMN_NAME Zorbax Eclipse Plus C18 2.1 mm x 150 mm, 3.5 um, Agilent
AC$CHROMATOGRAPHY: COLUMN_TEMPERATURE 40 °C
AC$CHROMATOGRAPHY: FLOW_GRADIENT 0 min min 98% A, 1 min 98% A, 2 min 80% A, 16.5 min 2% A, 22 min 2% A, 22.1 min 98% A, 27 min 98% A
AC$CHROMATOGRAPHY: FLOW_RATE 0.3 mL/min
AC$CHROMATOGRAPHY: RETENTION_TIME 5.421 min
AC$CHROMATOGRAPHY: SOLVENT A: Water 0.1% Formic acid, B: Acetonitrile 0.1% Formic acid
MS$FOCUSED_ION: PRECURSOR_M/Z 194.1176
MS$FOCUSED_ION: PRECURSOR_TYPE [M+H]+
MS$DATA_PROCESSING: COMMENT Export with Spectra 1.9.12 MsBackendMassbank 1.7.4
MS$DATA_PROCESSING: WHOLE RMassBank 2.3.1
PK$SPLASH: splash10-0udi-9000000000-e9268365b53a1a608406
PK$NUM_PEAK: 20
PK$PEAK: m/z int. rel.int.
  35.9989 5 39
  37.0072 26.4 207
  38.0029 2 15
  38.0148 17.1 134
  39.0227 32.4 254
  42.033 1.7 13
  44.0488 1.6 12
  49.0067 20.8 163
  50.0147 127.1 999
  51.0225 97.6 767
  59.9986 3.5 27
  61.0066 15.1 118
  62.0142 25 196
  63.022 22.2 174
  65.0374 1.4 11
  73.0065 3.1 24
  74.014 13.4 105
  75.0215 2 15
  77.0376 8 62
  89.0364 3.5 27
//
