ACCESSION: MSBNK-BAFG-CSL25010634224
RECORD_TITLE: 4'-O-Demethyl pantoprazole sulfide; LC-ESI-QTOF; MS2; 140 V
DATE: 2025.01.06
AUTHORS: Ole Lessmann; Kevin S. Jewell; Björn Ehlig; Arne Wick
LICENSE: dl-de/by-2-0
COPYRIGHT: Copyright 2025 Federal Institute of Hydrology, Koblenz, Germany
COMMENT: CONFIDENCE Reference Standard (Level 1)
COMMENT: Chromatography method: dx.doi.org/10.1016/j.chroma.2015.11.014
COMMENT: Acquisition method: 10.1002/rcm.8541
CH$NAME: 4'-O-Demethyl pantoprazole sulfide
CH$COMPOUND_CLASS: Pharmaceutical; Transformation_product-Metabolite
CH$FORMULA: C15H13F2N3O3S
CH$EXACT_MASS: 353.0646
CH$SMILES: COC1=C(NC=CC1=O)CSC2=NC3=C(N2)C=C(C=C3)OC(F)F
CH$IUPAC: InChI=1S/C15H13F2N3O3S/c1-22-13-11(18-5-4-12(13)21)7-24-15-19-9-3-2-8(23-14(16)17)6-10(9)20-15/h2-6,14H,7H2,1H3,(H,18,21)(H,19,20)
CH$LINK: CAS 141854-21-9
CH$LINK: INCHIKEY ILLQTAPXYCRJRB-UHFFFAOYSA-N
AC$INSTRUMENT: TripleTOF 6600 SCIEX
AC$INSTRUMENT_TYPE: LC-ESI-QTOF
AC$MASS_SPECTROMETRY: MS_TYPE MS2
AC$MASS_SPECTROMETRY: ION_MODE POSITIVE
AC$MASS_SPECTROMETRY: COLLISION_ENERGY 140
AC$MASS_SPECTROMETRY: FRAGMENTATION_MODE CID
AC$MASS_SPECTROMETRY: IONIZATION ESI
AC$CHROMATOGRAPHY: COLUMN_NAME Zorbax Eclipse Plus C18 2.1 mm x 150 mm, 3.5 um, Agilent
AC$CHROMATOGRAPHY: COLUMN_TEMPERATURE 40 °C
AC$CHROMATOGRAPHY: FLOW_GRADIENT 0 min min 98% A, 1 min 98% A, 2 min 80% A, 16.5 min 2% A, 22 min 2% A, 22.1 min 98% A, 27 min 98% A
AC$CHROMATOGRAPHY: FLOW_RATE 0.3 mL/min
AC$CHROMATOGRAPHY: RETENTION_TIME 7.57 min
AC$CHROMATOGRAPHY: SOLVENT A: Water 0.1% Formic acid, B: Acetonitrile 0.1% Formic acid
MS$FOCUSED_ION: PRECURSOR_M/Z 354.0719
MS$FOCUSED_ION: PRECURSOR_TYPE [M+H]+
MS$DATA_PROCESSING: COMMENT Export with pycsl 0.1.0.dev1 and CSL 24.4
PK$SPLASH: splash10-0f79-9000000000-5fe3c8e30e538516c0ea
PK$NUM_PEAK: 50
PK$PEAK: m/z int. rel.int.
  35.9985 0.8 37
  37.0064 8.0 375
  38.0024 0.5 23
  38.0143 7.6 356
  39.0221 21.3 999
  40.0168 1.2 56
  41.0251 5.7 267
  41.036 0.6 28
  42.0332 8.4 393
  43.0174 1.3 60
  44.0132 1.1 51
  44.9799 1.0 46
  50.0144 2.4 112
  51.0222 3.8 178
  52.0175 3.6 168
  52.0296 1.2 56
  53.0016 6.1 286
  53.0378 17.2 806
  53.9958 0.7 32
  54.033 2.0 93
  55.0169 2.4 112
  61.0059 0.9 42
  62.0138 2.5 117
  63.0216 8.2 384
  64.0167 4.1 192
  65.0374 2.5 117
  66.0091 11.8 553
  66.0329 2.6 121
  67.0175 2.5 117
  67.04 3.7 173
  68.0128 3.3 154
  68.9792 0.6 28
  70.0278 1.3 60
  70.9935 1.8 84
  76.0165 0.4 18
  78.0327 1.2 56
  79.0411 1.0 46
  80.0481 4.6 215
  81.0338 1.9 89
  82.0274 0.7 32
  83.0358 0.7 32
  86.0067 0.9 42
  90.0313 0.8 37
  91.041 0.7 32
  92.0485 1.2 56
  94.0272 2.2 103
  96.0431 0.8 37
  98.0039 0.6 28
  108.0425 0.4 18
  125.9981 1.2 56
//