ACCESSION: MSBNK-BAFG-CSL23102727422
RECORD_TITLE: 2-Amino-n-isopropylbenzamide; LC-ESI-QTOF; MS2; 70 V
DATE: 2023.10.27
AUTHORS: Kevin S. Jewell; Björn Ehlig; Arne Wick
LICENSE: dl-de/by-2-0
COPYRIGHT: Copyright 2023 Federal Institute of Hydrology, Koblenz, Germany
COMMENT: CONFIDENCE Reference Standard (Level 1)
COMMENT: Chromatography method: dx.doi.org/10.1016/j.chroma.2015.11.014
COMMENT: Acquisition method: 10.1002/rcm.8541
CH$NAME: 2-Amino-n-isopropylbenzamide
CH$FORMULA: C10H14N2O
CH$EXACT_MASS: 178.1106
CH$SMILES: CC(C)NC(=O)C1=CC=CC=C1N
CH$IUPAC: InChI=1S/C10H14N2O/c1-7(2)12-10(13)8-5-3-4-6-9(8)11/h3-7H,11H2,1-2H3,(H,12,13)
CH$LINK: CAS 30391-89-0
CH$LINK: INCHIKEY FWQYJOPJMIEKHZ-UHFFFAOYSA-N
AC$INSTRUMENT: TripleTOF X500R SCIEX
AC$INSTRUMENT_TYPE: LC-ESI-QTOF
AC$MASS_SPECTROMETRY: MS_TYPE MS2
AC$MASS_SPECTROMETRY: ION_MODE POSITIVE
AC$MASS_SPECTROMETRY: COLLISION_ENERGY 70
AC$MASS_SPECTROMETRY: FRAGMENTATION_MODE CID
AC$MASS_SPECTROMETRY: IONIZATION ESI
AC$CHROMATOGRAPHY: COLUMN_NAME Zorbax Eclipse Plus C18 2.1 mm x 150 mm, 3.5 um, Agilent
AC$CHROMATOGRAPHY: COLUMN_TEMPERATURE 40 °C
AC$CHROMATOGRAPHY: FLOW_GRADIENT 0 min min 98% A, 1 min 98% A, 2 min 80% A, 16.5 min 2% A, 22 min 2% A, 22.1 min 98% A, 27 min 98% A
AC$CHROMATOGRAPHY: FLOW_RATE 0.3 mL/min
AC$CHROMATOGRAPHY: RETENTION_TIME 6.85 min
AC$CHROMATOGRAPHY: SOLVENT A: Water 0.1% Formic acid, B: Acetonitrile 0.1% Formic acid
MS$FOCUSED_ION: PRECURSOR_M/Z 179.1179
MS$FOCUSED_ION: PRECURSOR_TYPE [M+H]+
MS$DATA_PROCESSING: COMMENT Export with Spectra 1.9.12 MsBackendMassbank 1.7.4
MS$DATA_PROCESSING: WHOLE RMassBank 2.3.1
PK$SPLASH: splash10-00kr-9000000000-2ac3baea8ec3bbc8c13a
PK$NUM_PEAK: 11
PK$PEAK: m/z int. rel.int.
  37.007 4.3 105
  38.0147 3.2 78
  39.0229 40.8 999
  40.0186 0.5 12
  41.0387 0.9 22
  51.0224 0.7 17
  52.0186 0.6 14
  63.0236 0.7 17
  65.0386 33.5 820
  66.0336 2 48
  92.0496 2.3 56
//
