ACCESSION: MSBNK-BAFG-CSL2310259865
RECORD_TITLE: 2-Phenyl-2-imidazoline; LC-ESI-QTOF; MS2; 70 V
DATE: 2023.10.25
AUTHORS: Kevin S. Jewell; Björn Ehlig; Arne Wick
LICENSE: dl-de/by-2-0
COPYRIGHT: Copyright 2023 Federal Institute of Hydrology, Koblenz, Germany
COMMENT: CONFIDENCE Reference Standard (Level 1)
COMMENT: Chromatography method: dx.doi.org/10.1016/j.chroma.2015.11.014
COMMENT: Acquisition method: 10.1002/rcm.8541
CH$NAME: 2-Phenyl-2-imidazoline
CH$COMPOUND_CLASS: Pharmaceutical; Industrial_process
CH$FORMULA: C9H10N2
CH$EXACT_MASS: 146.0844
CH$SMILES: C1CN=C(N1)C2=CC=CC=C2
CH$IUPAC: InChI=1S/C9H10N2/c1-2-4-8(5-3-1)9-10-6-7-11-9/h1-5H,6-7H2,(H,10,11)
CH$LINK: CAS 936-49-2
CH$LINK: INCHIKEY BKCCAYLNRIRKDJ-UHFFFAOYSA-N
AC$INSTRUMENT: TripleTOF 5600 SCIEX
AC$INSTRUMENT_TYPE: LC-ESI-QTOF
AC$MASS_SPECTROMETRY: MS_TYPE MS2
AC$MASS_SPECTROMETRY: ION_MODE POSITIVE
AC$MASS_SPECTROMETRY: COLLISION_ENERGY 70
AC$MASS_SPECTROMETRY: FRAGMENTATION_MODE CID
AC$MASS_SPECTROMETRY: IONIZATION ESI
AC$CHROMATOGRAPHY: COLUMN_NAME Zorbax Eclipse Plus C18 2.1 mm x 150 mm, 3.5 um, Agilent
AC$CHROMATOGRAPHY: COLUMN_TEMPERATURE 40 °C
AC$CHROMATOGRAPHY: FLOW_GRADIENT 0 min min 98% A, 1 min 98% A, 2 min 80% A, 16.5 min 2% A, 22 min 2% A, 22.1 min 98% A, 27 min 98% A
AC$CHROMATOGRAPHY: FLOW_RATE 0.3 mL/min
AC$CHROMATOGRAPHY: RETENTION_TIME 4.346 min
AC$CHROMATOGRAPHY: SOLVENT A: Water 0.1% Formic acid, B: Acetonitrile 0.1% Formic acid
MS$FOCUSED_ION: PRECURSOR_M/Z 147.0917
MS$FOCUSED_ION: PRECURSOR_TYPE [M+H]+
MS$DATA_PROCESSING: COMMENT Export with Spectra 1.9.12 MsBackendMassbank 1.7.4
MS$DATA_PROCESSING: WHOLE RMassBank 2.3.1
PK$SPLASH: splash10-0fb9-9000000000-232d4aa44fa19a9728d6
PK$NUM_PEAK: 6
PK$PEAK: m/z int. rel.int.
  51.0227 70.9 982
  65.0383 1.1 15
  74.0131 1 13
  75.023 0.8 11
  77.0383 72.1 999
  104.0491 4 55
//
