ACCESSION: MSBNK-BAFG-CSL25010627951
RECORD_TITLE: Basic Red 1; LC-ESI-QTOF; MS2; 80 V
DATE: 2025.01.06
AUTHORS: Ole Lessmann; Kevin S. Jewell; Björn Ehlig; Arne Wick
LICENSE: dl-de/by-2-0
COPYRIGHT: Copyright 2025 Federal Institute of Hydrology, Koblenz, Germany
COMMENT: CONFIDENCE Reference Standard (Level 1)
COMMENT: Chromatography method: dx.doi.org/10.1016/j.chroma.2015.11.014
COMMENT: Acquisition method: 10.1002/rcm.8541
CH$NAME: Basic Red 1
CH$FORMULA: C28H30N2O3
CH$EXACT_MASS: 442.2256
CH$SMILES: CCNC1=CC2=C(C=C1C)C(=C3C=C(C(=NCC)C=C3O2)C)C4=CC=CC=C4C(=O)OCC
CH$IUPAC: InChI=1S/C28H30N2O3/c1-6-29-23-15-25-21(13-17(23)4)27(19-11-9-10-12-20(19)28(31)32-8-3)22-14-18(5)24(30-7-2)16-26(22)33-25/h9-16,29H,6-8H2,1-5H3
CH$LINK: CAS 989-38-8
CH$LINK: INCHIKEY IWWWBRIIGAXLCJ-UHFFFAOYSA-N
AC$INSTRUMENT: TripleTOF X500R SCIEX
AC$INSTRUMENT_TYPE: LC-ESI-QTOF
AC$MASS_SPECTROMETRY: MS_TYPE MS2
AC$MASS_SPECTROMETRY: ION_MODE POSITIVE
AC$MASS_SPECTROMETRY: COLLISION_ENERGY 80
AC$MASS_SPECTROMETRY: FRAGMENTATION_MODE CID
AC$MASS_SPECTROMETRY: IONIZATION ESI
AC$CHROMATOGRAPHY: COLUMN_NAME Zorbax Eclipse Plus C18 2.1 mm x 150 mm, 3.5 um, Agilent
AC$CHROMATOGRAPHY: COLUMN_TEMPERATURE 40 °C
AC$CHROMATOGRAPHY: FLOW_GRADIENT 0 min min 98% A, 1 min 98% A, 2 min 80% A, 16.5 min 2% A, 22 min 2% A, 22.1 min 98% A, 27 min 98% A
AC$CHROMATOGRAPHY: FLOW_RATE 0.3 mL/min
AC$CHROMATOGRAPHY: RETENTION_TIME 11.107 min
AC$CHROMATOGRAPHY: SOLVENT A: Water 0.1% Formic acid, B: Acetonitrile 0.1% Formic acid
MS$FOCUSED_ION: PRECURSOR_M/Z 443.2329
MS$FOCUSED_ION: PRECURSOR_TYPE [M+H]+
MS$DATA_PROCESSING: COMMENT Export with pycsl 0.1.0.dev1 and CSL 24.4
PK$SPLASH: splash10-03dj-0079000000-ca778931961f2d41f521
PK$NUM_PEAK: 63
PK$PEAK: m/z int. rel.int.
  254.0987 17.5 67
  255.0861 15.9 61
  256.0899 8.3 31
  256.1114 5.0 19
  267.0816 3.0 11
  267.1054 8.1 31
  268.1008 23.7 91
  269.1007 42.4 162
  270.0944 49.3 189
  271.1016 31.7 121
  272.11 8.9 34
  279.1479 4.8 18
  281.0902 16.8 64
  282.1009 28.1 108
  283.1045 71.7 275
  284.1079 150.8 579
  285.1162 84.1 323
  286.1228 17.2 66
  295.1008 14.0 53
  296.1073 66.4 255
  297.1129 126.0 484
  298.1197 109.2 419
  299.1147 21.5 82
  300.1383 15.6 59
  309.1131 11.1 42
  310.1195 22.1 84
  311.1197 136.9 526
  312.1271 259.9 999
  313.0895 2.8 10
  313.135 124.9 480
  314.1552 16.0 61
  317.1178 4.9 18
  323.0875 2.9 11
  323.1176 3.6 13
  324.1305 5.6 21
  325.1359 51.2 196
  326.1501 52.0 199
  327.1503 20.4 78
  328.1139 5.7 21
  329.127 11.2 43
  330.1134 6.9 26
  336.1263 4.6 17
  339.1512 7.4 28
  340.1595 13.1 50
  341.1661 115.0 442
  342.113 7.7 29
  342.1729 4.8 18
  343.1201 6.5 24
  344.1303 18.2 69
  355.1202 3.5 13
  355.1823 2.9 11
  356.1295 6.5 24
  357.1257 51.8 199
  358.1434 7.8 29
  359.1503 3.2 12
  370.137 4.7 18
  371.1426 19.3 74
  372.1609 14.5 55
  385.1586 10.3 39
  386.1635 15.0 57
  387.174 3.1 11
  399.1718 23.1 88
  415.2048 13.1 50
//