ACCESSION: MSBNK-BAFG-CSL2310255786
RECORD_TITLE: Baclofen; LC-ESI-QTOF; MS2; 40 V
DATE: 2023.10.25
AUTHORS: Kevin S. Jewell; Björn Ehlig; Arne Wick
LICENSE: dl-de/by-2-0
COPYRIGHT: Copyright 2023 Federal Institute of Hydrology, Koblenz, Germany
COMMENT: CONFIDENCE Reference Standard (Level 1)
COMMENT: Chromatography method: dx.doi.org/10.1016/j.chroma.2015.11.014
COMMENT: Acquisition method: 10.1002/rcm.8541
CH$NAME: Baclofen
CH$COMPOUND_CLASS: Pharmaceutical
CH$FORMULA: C10H12ClNO2
CH$EXACT_MASS: 213.0557
CH$SMILES: NCC(CC(O)=O)c1ccc(Cl)cc1
CH$IUPAC: InChI=1S/C10H12ClNO2/c11-9-3-1-7(2-4-9)8(6-12)5-10(13)14/h1-4,8H,5-6,12H2,(H,13,14)
CH$LINK: CAS 1134-47-0
CH$LINK: INCHIKEY KPYSYYIEGFHWSV-UHFFFAOYSA-N
AC$INSTRUMENT: TripleTOF 5600 SCIEX
AC$INSTRUMENT_TYPE: LC-ESI-QTOF
AC$MASS_SPECTROMETRY: MS_TYPE MS2
AC$MASS_SPECTROMETRY: ION_MODE POSITIVE
AC$MASS_SPECTROMETRY: COLLISION_ENERGY 40
AC$MASS_SPECTROMETRY: FRAGMENTATION_MODE CID
AC$MASS_SPECTROMETRY: IONIZATION ESI
AC$CHROMATOGRAPHY: COLUMN_NAME Zorbax Eclipse Plus C18 2.1 mm x 150 mm, 3.5 um, Agilent
AC$CHROMATOGRAPHY: COLUMN_TEMPERATURE 40 °C
AC$CHROMATOGRAPHY: FLOW_GRADIENT 0 min min 98% A, 1 min 98% A, 2 min 80% A, 16.5 min 2% A, 22 min 2% A, 22.1 min 98% A, 27 min 98% A
AC$CHROMATOGRAPHY: FLOW_RATE 0.3 mL/min
AC$CHROMATOGRAPHY: RETENTION_TIME 5.336 min
AC$CHROMATOGRAPHY: SOLVENT A: Water 0.1% Formic acid, B: Acetonitrile 0.1% Formic acid
MS$FOCUSED_ION: PRECURSOR_M/Z 214.0629
MS$FOCUSED_ION: PRECURSOR_TYPE [M+H]+
MS$DATA_PROCESSING: COMMENT Export with Spectra 1.9.12 MsBackendMassbank 1.7.4
MS$DATA_PROCESSING: WHOLE RMassBank 2.3.1
PK$SPLASH: splash10-014i-1900000000-8dce4e38b1b8d2a31dd3
PK$NUM_PEAK: 28
PK$PEAK: m/z int. rel.int.
  51.0284 1.5 23
  75.0285 0.6 9
  77.0413 30.9 486
  89.0391 2.9 45
  91.0544 3.1 48
  101.0386 1.2 18
  102.047 2.2 34
  115.0547 62.5 984
  116.062 63.4 999
  117.0575 0.7 11
  118.0646 3.6 56
  119.0506 1.1 17
  119.0726 4.8 75
  125.0146 8.6 135
  126.0457 0.7 11
  137.0135 2.6 40
  140.9992 2.9 45
  143.0496 1.2 18
  143.072 4 63
  144.0562 21 330
  149.0142 1.9 29
  151.0303 44.4 699
  154.041 2.8 44
  155.0249 2.4 37
  178.0403 2.8 44
  179.0231 6.2 97
  196.0508 1.4 22
  197.0374 1.1 17
//
