ACCESSION: MSBNK-BAFG-CSL25010634484
RECORD_TITLE: Disperse brown 1; LC-ESI-QTOF; MS2; 130 V
DATE: 2025.01.06
AUTHORS: Ole Lessmann; Kevin S. Jewell; Björn Ehlig; Arne Wick
LICENSE: dl-de/by-2-0
COPYRIGHT: Copyright 2025 Federal Institute of Hydrology, Koblenz, Germany
COMMENT: CONFIDENCE Reference Standard (Level 1)
COMMENT: Chromatography method: dx.doi.org/10.1016/j.chroma.2015.11.014
COMMENT: Acquisition method: 10.1002/rcm.8541
CH$NAME: Disperse brown 1
CH$FORMULA: C16H15Cl3N4O4
CH$EXACT_MASS: 432.0159
CH$SMILES: C1=CC(=C(C=C1N(CCO)CCO)Cl)N=NC2=C(C=C(C=C2Cl)[N+](=O)[O-])Cl
CH$IUPAC: InChI=1S/C16H15Cl3N4O4/c17-12-7-10(22(3-5-24)4-6-25)1-2-15(12)20-21-16-13(18)8-11(23(26)27)9-14(16)19/h1-2,7-9,24-25H,3-6H2
CH$LINK: CAS 23355-64-8
CH$LINK: INCHIKEY HXXLWTPFYWMBSC-UHFFFAOYSA-N
AC$INSTRUMENT: TripleTOF 6600 SCIEX
AC$INSTRUMENT_TYPE: LC-ESI-QTOF
AC$MASS_SPECTROMETRY: MS_TYPE MS2
AC$MASS_SPECTROMETRY: ION_MODE POSITIVE
AC$MASS_SPECTROMETRY: COLLISION_ENERGY 130
AC$MASS_SPECTROMETRY: FRAGMENTATION_MODE CID
AC$MASS_SPECTROMETRY: IONIZATION ESI
AC$CHROMATOGRAPHY: COLUMN_NAME Zorbax Eclipse Plus C18 2.1 mm x 150 mm, 3.5 um, Agilent
AC$CHROMATOGRAPHY: COLUMN_TEMPERATURE 40 °C
AC$CHROMATOGRAPHY: FLOW_GRADIENT 0 min min 98% A, 1 min 98% A, 2 min 80% A, 16.5 min 2% A, 22 min 2% A, 22.1 min 98% A, 27 min 98% A
AC$CHROMATOGRAPHY: FLOW_RATE 0.3 mL/min
AC$CHROMATOGRAPHY: RETENTION_TIME 12.39 min
AC$CHROMATOGRAPHY: SOLVENT A: Water 0.1% Formic acid, B: Acetonitrile 0.1% Formic acid
MS$FOCUSED_ION: PRECURSOR_M/Z 433.0232
MS$FOCUSED_ION: PRECURSOR_TYPE [M+H]+
MS$DATA_PROCESSING: COMMENT Export with pycsl 0.1.0.dev1 and CSL 24.4
PK$SPLASH: splash10-0adi-9700000000-7d832f449917df11f1b8
PK$NUM_PEAK: 36
PK$PEAK: m/z int. rel.int.
  45.0335 0.5 83
  48.9837 0.5 83
  51.0227 0.6 99
  63.0229 1.8 299
  65.0404 0.7 116
  72.984 1.9 316
  74.0149 5.2 865
  75.011 0.7 116
  75.0238 1.7 283
  76.0182 1.4 233
  77.0375 2.7 449
  78.033 0.9 149
  83.9758 1.2 199
  89.0393 1.1 183
  90.0327 1.7 283
  90.046 0.4 66
  92.0521 0.5 83
  96.9845 1.1 183
  98.9994 0.6 99
  104.0485 2.4 399
  107.9756 2.6 432
  108.9826 6.0 999
  110.9997 0.7 116
  111.994 0.6 99
  114.0104 0.5 83
  117.0556 1.0 166
  118.0533 0.4 66
  123.0224 0.6 99
  123.9956 0.8 133
  125.0003 0.5 83
  138.0119 0.6 99
  142.9449 0.7 116
  150.0455 0.4 66
  163.0539 0.9 149
  164.0499 0.9 149
  177.0409 0.5 83
//