ACCESSION: MSBNK-BAFG-CSL25010627940
RECORD_TITLE: Sudan III; LC-ESI-QTOF; MS2; 60 V
DATE: 2025.01.06
AUTHORS: Ole Lessmann; Kevin S. Jewell; Björn Ehlig; Arne Wick
LICENSE: dl-de/by-2-0
COPYRIGHT: Copyright 2025 Federal Institute of Hydrology, Koblenz, Germany
COMMENT: CONFIDENCE Reference Standard (Level 1)
COMMENT: Chromatography method: dx.doi.org/10.1016/j.chroma.2015.11.014
COMMENT: Acquisition method: 10.1002/rcm.8541
CH$NAME: Sudan III
CH$FORMULA: C22H16N4O
CH$EXACT_MASS: 352.1324
CH$SMILES: C1=CC=C(C=C1)N=NC2=CC=C(C=C2)N=NC3=C(C=CC4=CC=CC=C43)O
CH$IUPAC: InChI=1S/C22H16N4O/c27-21-15-10-16-6-4-5-9-20(16)22(21)26-25-19-13-11-18(12-14-19)24-23-17-7-2-1-3-8-17/h1-15,27H
CH$LINK: CAS 85-86-9
CH$LINK: INCHIKEY FHNINJWBTRXEBC-UHFFFAOYSA-N
AC$INSTRUMENT: TripleTOF X500R SCIEX
AC$INSTRUMENT_TYPE: LC-ESI-QTOF
AC$MASS_SPECTROMETRY: MS_TYPE MS2
AC$MASS_SPECTROMETRY: ION_MODE POSITIVE
AC$MASS_SPECTROMETRY: COLLISION_ENERGY 60
AC$MASS_SPECTROMETRY: FRAGMENTATION_MODE CID
AC$MASS_SPECTROMETRY: IONIZATION ESI
AC$CHROMATOGRAPHY: COLUMN_NAME Zorbax Eclipse Plus C18 2.1 mm x 150 mm, 3.5 um, Agilent
AC$CHROMATOGRAPHY: COLUMN_TEMPERATURE 40 °C
AC$CHROMATOGRAPHY: FLOW_GRADIENT 0 min min 98% A, 1 min 98% A, 2 min 80% A, 16.5 min 2% A, 22 min 2% A, 22.1 min 98% A, 27 min 98% A
AC$CHROMATOGRAPHY: FLOW_RATE 0.3 mL/min
AC$CHROMATOGRAPHY: RETENTION_TIME 19.216 min
AC$CHROMATOGRAPHY: SOLVENT A: Water 0.1% Formic acid, B: Acetonitrile 0.1% Formic acid
MS$FOCUSED_ION: PRECURSOR_M/Z 353.1397
MS$FOCUSED_ION: PRECURSOR_TYPE [M+H]+
MS$DATA_PROCESSING: COMMENT Export with pycsl 0.1.0.dev1 and CSL 24.4
PK$SPLASH: splash10-00ou-5900000000-6957eacaeeb4c27b9c40
PK$NUM_PEAK: 40
PK$PEAK: m/z int. rel.int.
  51.023 2.2 115
  59.0319 2.1 109
  60.0311 1.1 57
  63.0232 0.5 26
  64.0319 0.6 31
  65.0393 3.4 177
  77.039 19.1 999
  91.0422 4.4 230
  92.0499 10.8 564
  93.0575 0.6 31
  101.0394 5.9 308
  102.0328 0.7 36
  115.0549 9.9 517
  116.0541 0.6 31
  127.0522 0.6 31
  128.0502 16.8 878
  129.0529 1.1 57
  141.0721 1.5 78
  143.0492 4.6 240
  152.0615 0.7 36
  153.0531 0.6 31
  154.0653 0.7 36
  156.0454 0.8 41
  156.0663 0.8 41
  166.0674 0.4 20
  167.0739 2.2 115
  168.0679 0.7 36
  169.0768 4.7 245
  170.0743 0.5 26
  179.0602 1.0 52
  181.0767 1.0 52
  196.0878 12.1 632
  197.0963 1.0 52
  203.0719 0.8 41
  205.076 0.6 31
  205.0911 0.4 20
  229.0763 0.5 26
  230.0789 0.6 31
  231.0887 1.4 73
  232.088 1.7 88
//