ACCESSION: MSBNK-BAFG-CSL23103012498
RECORD_TITLE: Tadalafil; LC-ESI-QTOF; MS2; 60 V
DATE: 2023.10.30
AUTHORS: Kevin S. Jewell; Björn Ehlig; Arne Wick
LICENSE: dl-de/by-2-0
COPYRIGHT: Copyright 2023 Federal Institute of Hydrology, Koblenz, Germany
COMMENT: CONFIDENCE Reference Standard (Level 1)
COMMENT: Chromatography method: dx.doi.org/10.1016/j.chroma.2015.11.014
COMMENT: Acquisition method: 10.1002/rcm.8541
CH$NAME: Tadalafil
CH$COMPOUND_CLASS: Pharmaceutical
CH$FORMULA: C22H19N3O4
CH$EXACT_MASS: 389.1376
CH$SMILES: CN1CC(=O)N2C(C1=O)CC3=C(C2C4=CC5=C(C=C4)OCO5)NC6=CC=CC=C36
CH$IUPAC: InChI=1S/C22H19N3O4/c1-24-10-19(26)25-16(22(24)27)9-14-13-4-2-3-5-15(13)23-20(14)21(25)12-6-7-17-18(8-12)29-11-28-17/h2-8,16,21,23H,9-11H2,1H3
CH$LINK: CAS 171596-29-5
CH$LINK: INCHIKEY WOXKDUGGOYFFRN-UHFFFAOYSA-N
AC$INSTRUMENT: TripleTOF 5600 SCIEX
AC$INSTRUMENT_TYPE: LC-ESI-QTOF
AC$MASS_SPECTROMETRY: MS_TYPE MS2
AC$MASS_SPECTROMETRY: ION_MODE POSITIVE
AC$MASS_SPECTROMETRY: COLLISION_ENERGY 60
AC$MASS_SPECTROMETRY: FRAGMENTATION_MODE CID
AC$MASS_SPECTROMETRY: IONIZATION ESI
AC$CHROMATOGRAPHY: COLUMN_NAME Zorbax Eclipse Plus C18 2.1 mm x 150 mm, 3.5 um, Agilent
AC$CHROMATOGRAPHY: COLUMN_TEMPERATURE 40 °C
AC$CHROMATOGRAPHY: FLOW_GRADIENT 0 min min 98% A, 1 min 98% A, 2 min 80% A, 16.5 min 2% A, 22 min 2% A, 22.1 min 98% A, 27 min 98% A
AC$CHROMATOGRAPHY: FLOW_RATE 0.3 mL/min
AC$CHROMATOGRAPHY: RETENTION_TIME 9.801 min
AC$CHROMATOGRAPHY: SOLVENT A: Water 0.1% Formic acid, B: Acetonitrile 0.1% Formic acid
MS$FOCUSED_ION: PRECURSOR_M/Z 390.1448
MS$FOCUSED_ION: PRECURSOR_TYPE [M+H]+
MS$DATA_PROCESSING: COMMENT Export with Spectra 1.9.12 MsBackendMassbank 1.7.4
MS$DATA_PROCESSING: WHOLE RMassBank 2.3.1
PK$SPLASH: splash10-0uxr-0590000000-1b4ec2cfa2706710e290
PK$NUM_PEAK: 50
PK$PEAK: m/z int. rel.int.
  77.0384 2.2 55
  79.0541 1 25
  99.0549 0.7 17
  105.0327 0.9 22
  115.054 2.4 61
  128.0483 0.4 10
  130.0659 2.7 68
  135.0441 15.3 388
  142.0654 2.8 71
  154.0666 0.9 22
  165.0701 0.9 22
  167.0639 1.6 40
  168.0655 1.2 30
  169.076 31.5 800
  170.061 2 50
  180.0814 0.8 20
  183.0941 0.6 15
  189.072 2 50
  190.0658 0.5 12
  191.0735 3 76
  192.0811 3.1 78
  193.0914 1.5 38
  197.0709 3.3 83
  202.0773 0.8 20
  203.0707 0.8 20
  204.081 39.3 999
  205.0882 12.2 310
  206.0971 5 127
  214.0711 0.5 12
  215.0653 0.4 10
  215.077 0.9 22
  216.0807 6.1 155
  217.0906 2.1 53
  218.0948 1.2 30
  219.0767 0.7 17
  220.0775 0.8 20
  220.0869 0.5 12
  232.077 9.7 246
  233.0825 2.8 71
  234.0924 1.7 43
  240.1102 0.5 12
  240.1197 0.5 12
  244.0763 2.3 58
  246.0962 1 25
  250.0845 0.6 15
  261.0791 1 25
  262.0856 19.2 488
  263.0951 0.8 20
  264.1041 0.9 22
  274.0822 5.9 149
//
