ACCESSION: MSBNK-BAFG-CSL2310304186
RECORD_TITLE: Flumequin; LC-ESI-QTOF; MS2; 60 V
DATE: 2023.10.30
AUTHORS: Kevin S. Jewell; Björn Ehlig; Arne Wick
LICENSE: dl-de/by-2-0
COPYRIGHT: Copyright 2023 Federal Institute of Hydrology, Koblenz, Germany
COMMENT: CONFIDENCE Reference Standard (Level 1)
COMMENT: Chromatography method: dx.doi.org/10.1016/j.chroma.2015.11.014
COMMENT: Acquisition method: 10.1002/rcm.8541
CH$NAME: Flumequin
CH$COMPOUND_CLASS: Pharmaceutical; Antimicrobial
CH$FORMULA: C14H12FNO3
CH$EXACT_MASS: 261.0801
CH$SMILES: CC1CCc2cc(F)cc3C(=O)C(=CN1c23)C(O)=O
CH$IUPAC: InChI=1S/C14H12FNO3/c1-7-2-3-8-4-9(15)5-10-12(8)16(7)6-11(13(10)17)14(18)19/h4-7H,2-3H2,1H3,(H,18,19)
CH$LINK: CAS 42835-25-6
CH$LINK: INCHIKEY DPSPPJIUMHPXMA-UHFFFAOYSA-N
AC$INSTRUMENT: TripleTOF 5600 SCIEX
AC$INSTRUMENT_TYPE: LC-ESI-QTOF
AC$MASS_SPECTROMETRY: MS_TYPE MS2
AC$MASS_SPECTROMETRY: ION_MODE POSITIVE
AC$MASS_SPECTROMETRY: COLLISION_ENERGY 60
AC$MASS_SPECTROMETRY: FRAGMENTATION_MODE CID
AC$MASS_SPECTROMETRY: IONIZATION ESI
AC$CHROMATOGRAPHY: COLUMN_NAME Zorbax Eclipse Plus C18 2.1 mm x 150 mm, 3.5 um, Agilent
AC$CHROMATOGRAPHY: COLUMN_TEMPERATURE 40 °C
AC$CHROMATOGRAPHY: FLOW_GRADIENT 0 min min 98% A, 1 min 98% A, 2 min 80% A, 16.5 min 2% A, 22 min 2% A, 22.1 min 98% A, 27 min 98% A
AC$CHROMATOGRAPHY: FLOW_RATE 0.3 mL/min
AC$CHROMATOGRAPHY: RETENTION_TIME 9.545 min
AC$CHROMATOGRAPHY: SOLVENT A: Water 0.1% Formic acid, B: Acetonitrile 0.1% Formic acid
MS$FOCUSED_ION: PRECURSOR_M/Z 262.0874
MS$FOCUSED_ION: PRECURSOR_TYPE [M+H]+
MS$DATA_PROCESSING: COMMENT Export with Spectra 1.9.12 MsBackendMassbank 1.7.4
MS$DATA_PROCESSING: WHOLE RMassBank 2.3.1
PK$SPLASH: splash10-0ufs-1920000000-010cd5a9f2603c670584
PK$NUM_PEAK: 28
PK$PEAK: m/z int. rel.int.
  53.0085 2.1 36
  74.0191 0.7 12
  75.0258 3.1 53
  75.0398 0.7 12
  95.0297 2.2 38
  98.0149 1 17
  99.0228 14.1 243
  100.0181 7.4 127
  119.0281 8.7 150
  120.0312 4 69
  126.0339 51.9 897
  133.0434 1.3 22
  144.0437 0.6 10
  145.0313 0.7 12
  146.0398 34.2 591
  147.0327 2.1 36
  147.0466 6.1 105
  148.0547 1.1 19
  154.0399 21.8 376
  158.0392 2.1 36
  159.0469 1.1 19
  161.0635 0.7 12
  172.0554 2.8 48
  174.0346 40.1 693
  200.0503 1.4 24
  200.088 0.6 10
  202.0293 57.8 999
  244.0774 0.9 15
//
