ACCESSION: MSBNK-BAFG-CSL23102527138
RECORD_TITLE: Thieno[3,2-b]pyridin-7-ol; LC-ESI-QTOF; MS2; 100 V
DATE: 2023.10.25
AUTHORS: Kevin S. Jewell; Björn Ehlig; Arne Wick
LICENSE: dl-de/by-2-0
COPYRIGHT: Copyright 2023 Federal Institute of Hydrology, Koblenz, Germany
COMMENT: CONFIDENCE Reference Standard (Level 1)
COMMENT: Chromatography method: dx.doi.org/10.1016/j.chroma.2015.11.014
COMMENT: Acquisition method: 10.1002/rcm.8541
CH$NAME: Thieno[3,2-b]pyridin-7-ol
CH$FORMULA: C7H5NOS
CH$EXACT_MASS: 151.0092
CH$SMILES: C1=CNC2=C(C1=O)SC=C2
CH$IUPAC: InChI=1S/C7H5NOS/c9-6-1-3-8-5-2-4-10-7(5)6/h1-4H,(H,8,9)
CH$LINK: CAS 107818-20-2
CH$LINK: INCHIKEY AACVULYSNJAKEQ-UHFFFAOYSA-N
AC$INSTRUMENT: TripleTOF 6600 SCIEX
AC$INSTRUMENT_TYPE: LC-ESI-QTOF
AC$MASS_SPECTROMETRY: MS_TYPE MS2
AC$MASS_SPECTROMETRY: ION_MODE POSITIVE
AC$MASS_SPECTROMETRY: COLLISION_ENERGY 100
AC$MASS_SPECTROMETRY: FRAGMENTATION_MODE CID
AC$MASS_SPECTROMETRY: IONIZATION ESI
AC$CHROMATOGRAPHY: COLUMN_NAME Zorbax Eclipse Plus C18 2.1 mm x 150 mm, 3.5 um, Agilent
AC$CHROMATOGRAPHY: COLUMN_TEMPERATURE 40 °C
AC$CHROMATOGRAPHY: FLOW_GRADIENT 0 min min 98% A, 1 min 98% A, 2 min 80% A, 16.5 min 2% A, 22 min 2% A, 22.1 min 98% A, 27 min 98% A
AC$CHROMATOGRAPHY: FLOW_RATE 0.3 mL/min
AC$CHROMATOGRAPHY: RETENTION_TIME 4.72 min
AC$CHROMATOGRAPHY: SOLVENT A: Water 0.1% Formic acid, B: Acetonitrile 0.1% Formic acid
MS$FOCUSED_ION: PRECURSOR_M/Z 152.0165
MS$FOCUSED_ION: PRECURSOR_TYPE [M+H]+
MS$DATA_PROCESSING: COMMENT Export with Spectra 1.9.12 MsBackendMassbank 1.7.4
MS$DATA_PROCESSING: WHOLE RMassBank 2.3.1
PK$SPLASH: splash10-000i-9000000000-9e063217a39f1356e502
PK$NUM_PEAK: 32
PK$PEAK: m/z int. rel.int.
  31.9716 0.9 36
  35.9994 3.6 145
  37.0079 20.8 841
  38.0054 1.9 76
  38.0156 14.3 578
  39.0234 17.8 719
  40.0184 3.1 125
  41.0258 1 40
  43.9715 2.4 97
  44.9797 24.7 999
  45.9739 0.8 32
  49.0069 2.6 105
  50.0155 5.7 230
  51.0105 0.4 16
  51.0234 1.8 72
  52.0185 2.1 84
  53.0026 5.3 214
  53.0393 0.9 36
  56.9792 3.7 149
  57.986 1.7 68
  59.9985 0.7 28
  61.0074 5.8 234
  62.015 6.1 246
  63.0226 3.3 133
  67.9717 1.8 72
  68.0133 0.4 16
  68.9794 10.1 408
  70.9973 0.4 16
  75.0098 3.1 125
  76.0173 1.2 48
  80.9786 1.2 48
  81.9859 0.5 20
//
