ACCESSION: MSBNK-BAFG-CSL23102518057
RECORD_TITLE: Proquinazid; LC-ESI-QTOF; MS2; 130 V
DATE: 2023.10.25
AUTHORS: Kevin S. Jewell; Björn Ehlig; Arne Wick
LICENSE: dl-de/by-2-0
COPYRIGHT: Copyright 2023 Federal Institute of Hydrology, Koblenz, Germany
COMMENT: CONFIDENCE Reference Standard (Level 1)
COMMENT: Chromatography method: dx.doi.org/10.1016/j.chroma.2015.11.014
COMMENT: Acquisition method: 10.1002/rcm.8541
CH$NAME: Proquinazid
CH$COMPOUND_CLASS: Fungicide
CH$FORMULA: C14H17IN2O2
CH$EXACT_MASS: 372.0335
CH$SMILES: CCCN1C(=O)C2=C(C=CC(=C2)I)N=C1OCCC
CH$IUPAC: InChI=1S/C14H17IN2O2/c1-3-7-17-13(18)11-9-10(15)5-6-12(11)16-14(17)19-8-4-2/h5-6,9H,3-4,7-8H2,1-2H3
CH$LINK: CAS 189278-12-4
CH$LINK: INCHIKEY FLVBXVXXXMLMOX-UHFFFAOYSA-N
AC$INSTRUMENT: TripleTOF 6600 SCIEX
AC$INSTRUMENT_TYPE: LC-ESI-QTOF
AC$MASS_SPECTROMETRY: MS_TYPE MS2
AC$MASS_SPECTROMETRY: ION_MODE POSITIVE
AC$MASS_SPECTROMETRY: COLLISION_ENERGY 130
AC$MASS_SPECTROMETRY: FRAGMENTATION_MODE CID
AC$MASS_SPECTROMETRY: IONIZATION ESI
AC$CHROMATOGRAPHY: COLUMN_NAME Zorbax Eclipse Plus C18 2.1 mm x 150 mm, 3.5 um, Agilent
AC$CHROMATOGRAPHY: COLUMN_TEMPERATURE 40 °C
AC$CHROMATOGRAPHY: FLOW_GRADIENT 0 min min 98% A, 1 min 98% A, 2 min 80% A, 16.5 min 2% A, 22 min 2% A, 22.1 min 98% A, 27 min 98% A
AC$CHROMATOGRAPHY: FLOW_RATE 0.3 mL/min
AC$CHROMATOGRAPHY: RETENTION_TIME 17.121 min
AC$CHROMATOGRAPHY: SOLVENT A: Water 0.1% Formic acid, B: Acetonitrile 0.1% Formic acid
MS$FOCUSED_ION: PRECURSOR_M/Z 373.0408
MS$FOCUSED_ION: PRECURSOR_TYPE [M+H]+
MS$DATA_PROCESSING: COMMENT Export with Spectra 1.9.12 MsBackendMassbank 1.7.4
MS$DATA_PROCESSING: WHOLE RMassBank 2.3.1
PK$SPLASH: splash10-03di-9000000000-25e14e29fa4fb13e0544
PK$NUM_PEAK: 33
PK$PEAK: m/z int. rel.int.
  36.0035 4 10
  37.0111 17.5 44
  38.019 29 73
  39.0268 27.4 69
  41.0422 13.8 34
  50.0193 4.3 10
  52.0217 9.2 23
  60.0028 34.9 88
  61.0108 155.9 393
  62.0189 395.8 999
  63.0153 24.6 62
  63.0245 54.9 138
  64.0234 6.4 16
  64.0339 18.1 45
  65.0292 17.5 44
  66.0138 18.3 46
  74.019 4.8 12
  75.0136 12.7 32
  76.0212 4 10
  86.0063 5.1 12
  87.0133 18.8 47
  88.0215 129.1 325
  89.0293 127.6 322
  90.0366 10.1 25
  91.0448 10.4 26
  92.0286 14 35
  116.0391 13.8 34
  117.0238 38.6 97
  140.9205 17.1 43
  145.017 5.4 13
  164.9205 30.4 76
  188.919 8.7 21
  215.9296 55.6 140
//
