ACCESSION: MSBNK-BAFG-CSL23110918503
RECORD_TITLE: Phencyclidine; LC-ESI-QTOF; MS2; 120 V
DATE: 2023.11.09
AUTHORS: Kevin S. Jewell; Björn Ehlig; Arne Wick
LICENSE: dl-de/by-2-0
COPYRIGHT: Copyright 2023 Federal Institute of Hydrology, Koblenz, Germany
COMMENT: CONFIDENCE Reference Standard (Level 1)
COMMENT: Chromatography method: dx.doi.org/10.1016/j.chroma.2015.11.014
COMMENT: Acquisition method: 10.1002/rcm.8541
CH$NAME: Phencyclidine
CH$COMPOUND_CLASS: Pharmaceutical
CH$FORMULA: C17H25N
CH$EXACT_MASS: 243.1987
CH$SMILES: C1CCC(CC1)(C2=CC=CC=C2)N3CCCCC3
CH$IUPAC: InChI=1S/C17H25N/c1-4-10-16(11-5-1)17(12-6-2-7-13-17)18-14-8-3-9-15-18/h1,4-5,10-11H,2-3,6-9,12-15H2
CH$LINK: CAS 77-10-1
CH$LINK: INCHIKEY JTJMJGYZQZDUJJ-UHFFFAOYSA-N
AC$INSTRUMENT: TripleTOF 6600 SCIEX
AC$INSTRUMENT_TYPE: LC-ESI-QTOF
AC$MASS_SPECTROMETRY: MS_TYPE MS2
AC$MASS_SPECTROMETRY: ION_MODE POSITIVE
AC$MASS_SPECTROMETRY: COLLISION_ENERGY 120
AC$MASS_SPECTROMETRY: FRAGMENTATION_MODE CID
AC$MASS_SPECTROMETRY: IONIZATION ESI
AC$CHROMATOGRAPHY: COLUMN_NAME Zorbax Eclipse Plus C18 2.1 mm x 150 mm, 3.5 um, Agilent
AC$CHROMATOGRAPHY: COLUMN_TEMPERATURE 40 °C
AC$CHROMATOGRAPHY: FLOW_GRADIENT 0 min min 98% A, 1 min 98% A, 2 min 80% A, 16.5 min 2% A, 22 min 2% A, 22.1 min 98% A, 27 min 98% A
AC$CHROMATOGRAPHY: FLOW_RATE 0.3 mL/min
AC$CHROMATOGRAPHY: RETENTION_TIME 7.311 min
AC$CHROMATOGRAPHY: SOLVENT A: Water 0.1% Formic acid, B: Acetonitrile 0.1% Formic acid
MS$FOCUSED_ION: PRECURSOR_M/Z 244.206
MS$FOCUSED_ION: PRECURSOR_TYPE [M+H]+
MS$DATA_PROCESSING: COMMENT Export with Spectra 1.9.12 MsBackendMassbank 1.7.4
MS$DATA_PROCESSING: WHOLE RMassBank 2.3.1
PK$SPLASH: splash10-000i-9000000000-e2f32b76b24102aa20fe
PK$NUM_PEAK: 19
PK$PEAK: m/z int. rel.int.
  30.0329 4 16
  35.9985 10.4 42
  37.0064 55.7 225
  38.0143 48.3 195
  39.0222 246.9 999
  41.0375 23.9 96
  49.005 4.5 18
  50.0139 31.6 127
  51.022 42.7 172
  59.9979 3.6 14
  61.0057 16.8 67
  62.014 33 133
  63.0217 48.3 195
  65.0375 130.2 526
  74.0131 4.4 17
  77.0371 9.1 36
  89.0372 10.4 42
  91.0525 34.1 137
  115.0523 11.5 46
//
