ACCESSION: MSBNK-BAFG-CSL2310259096
RECORD_TITLE: Norfloxacin; LC-ESI-QTOF; MS2; 150 V
DATE: 2023.10.25
AUTHORS: Kevin S. Jewell; Björn Ehlig; Arne Wick
LICENSE: dl-de/by-2-0
COPYRIGHT: Copyright 2023 Federal Institute of Hydrology, Koblenz, Germany
COMMENT: CONFIDENCE Reference Standard (Level 1)
COMMENT: Chromatography method: dx.doi.org/10.1016/j.chroma.2015.11.014
COMMENT: Acquisition method: 10.1002/rcm.8541
CH$NAME: Norfloxacin
CH$COMPOUND_CLASS: Antimicrobial; Pharmaceutical
CH$FORMULA: C16H18FN3O3
CH$EXACT_MASS: 319.1332
CH$SMILES: CCN1C=C(C(=O)C2=CC(=C(C=C21)N3CCNCC3)F)C(=O)O
CH$IUPAC: InChI=1S/C16H18FN3O3/c1-2-19-9-11(16(22)23)15(21)10-7-12(17)14(8-13(10)19)20-5-3-18-4-6-20/h7-9,18H,2-6H2,1H3,(H,22,23)
CH$LINK: CAS 70458-96-7
CH$LINK: INCHIKEY OGJPXUAPXNRGGI-UHFFFAOYSA-N
AC$INSTRUMENT: TripleTOF 5600 SCIEX
AC$INSTRUMENT_TYPE: LC-ESI-QTOF
AC$MASS_SPECTROMETRY: MS_TYPE MS2
AC$MASS_SPECTROMETRY: ION_MODE POSITIVE
AC$MASS_SPECTROMETRY: COLLISION_ENERGY 150
AC$MASS_SPECTROMETRY: FRAGMENTATION_MODE CID
AC$MASS_SPECTROMETRY: IONIZATION ESI
AC$CHROMATOGRAPHY: COLUMN_NAME Zorbax Eclipse Plus C18 2.1 mm x 150 mm, 3.5 um, Agilent
AC$CHROMATOGRAPHY: COLUMN_TEMPERATURE 40 °C
AC$CHROMATOGRAPHY: FLOW_GRADIENT 0 min min 98% A, 1 min 98% A, 2 min 80% A, 16.5 min 2% A, 22 min 2% A, 22.1 min 98% A, 27 min 98% A
AC$CHROMATOGRAPHY: FLOW_RATE 0.3 mL/min
AC$CHROMATOGRAPHY: RETENTION_TIME 5.167 min
AC$CHROMATOGRAPHY: SOLVENT A: Water 0.1% Formic acid, B: Acetonitrile 0.1% Formic acid
MS$FOCUSED_ION: PRECURSOR_M/Z 320.1405
MS$FOCUSED_ION: PRECURSOR_TYPE [M+H]+
MS$DATA_PROCESSING: COMMENT Export with Spectra 1.9.12 MsBackendMassbank 1.7.4
MS$DATA_PROCESSING: WHOLE RMassBank 2.3.1
PK$SPLASH: splash10-0aea-9500000000-1ed090bae1e8c09c4b25
PK$NUM_PEAK: 22
PK$PEAK: m/z int. rel.int.
  57.0219 0.6 315
  74.0209 1.8 946
  75.0285 1.9 999
  76.0227 0.5 262
  81.0185 1.3 683
  82.0124 0.6 315
  83.0305 0.5 262
  85.0124 0.7 368
  86.0163 0.6 315
  87.0143 0.7 368
  87.0273 0.5 262
  94.0245 0.5 262
  98.0201 0.8 420
  99.0227 1 525
  100.0208 0.9 473
  101.0393 0.5 262
  105.0153 1.5 788
  106.0207 0.9 473
  107.0299 1.2 630
  113.0264 0.6 315
  132.0262 1.3 683
  133.0441 0.5 262
//
