ACCESSION: MSBNK-BAFG-CSL23103016867
RECORD_TITLE: Metaflumizone; LC-ESI-QTOF; MS2; 130 V
DATE: 2023.10.30
AUTHORS: Kevin S. Jewell; Björn Ehlig; Arne Wick
LICENSE: dl-de/by-2-0
COPYRIGHT: Copyright 2023 Federal Institute of Hydrology, Koblenz, Germany
COMMENT: CONFIDENCE Reference Standard (Level 1)
COMMENT: Chromatography method: dx.doi.org/10.1016/j.chroma.2015.11.014
COMMENT: Acquisition method: 10.1002/rcm.8541
CH$NAME: Metaflumizone
CH$COMPOUND_CLASS: Insecticide; Pharmaceutical
CH$FORMULA: C24H16F6N4O2
CH$EXACT_MASS: 506.1177
CH$SMILES: C1=CC(=CC(=C1)C(F)(F)F)C(=NNC(=O)NC2=CC=C(C=C2)OC(F)(F)F)CC3=CC=C(C=C3)C#N
CH$IUPAC: InChI=1S/C24H16F6N4O2/c25-23(26,27)18-3-1-2-17(13-18)21(12-15-4-6-16(14-31)7-5-15)33-34-22(35)32-19-8-10-20(11-9-19)36-24(28,29)30/h1-11,13H,12H2,(H2,32,34,35)
CH$LINK: CAS 139968-49-3
CH$LINK: INCHIKEY MIFOMMKAVSCNKQ-UHFFFAOYSA-N
AC$INSTRUMENT: TripleTOF 6600 SCIEX
AC$INSTRUMENT_TYPE: LC-ESI-QTOF
AC$MASS_SPECTROMETRY: MS_TYPE MS2
AC$MASS_SPECTROMETRY: ION_MODE NEGATIVE
AC$MASS_SPECTROMETRY: COLLISION_ENERGY 130
AC$MASS_SPECTROMETRY: FRAGMENTATION_MODE CID
AC$MASS_SPECTROMETRY: IONIZATION ESI
AC$CHROMATOGRAPHY: COLUMN_NAME Zorbax Eclipse Plus C18 2.1 mm x 150 mm, 3.5 um, Agilent
AC$CHROMATOGRAPHY: COLUMN_TEMPERATURE 40 °C
AC$CHROMATOGRAPHY: FLOW_GRADIENT 0 min min 98% A, 1 min 98% A, 2 min 80% A, 16.5 min 2% A, 22 min 2% A, 22.1 min 98% A, 27 min 98% A
AC$CHROMATOGRAPHY: FLOW_RATE 0.3 mL/min
AC$CHROMATOGRAPHY: RETENTION_TIME 15.496 min
AC$CHROMATOGRAPHY: SOLVENT A: Water 0.1% Formic acid, B: Acetonitrile 0.1% Formic acid
MS$FOCUSED_ION: PRECURSOR_M/Z 505.1105
MS$FOCUSED_ION: PRECURSOR_TYPE [M-H]-
MS$DATA_PROCESSING: COMMENT Export with Spectra 1.9.12 MsBackendMassbank 1.7.4
MS$DATA_PROCESSING: WHOLE RMassBank 2.3.1
PK$SPLASH: splash10-014l-2930000000-682b6c54037fae56b819
PK$NUM_PEAK: 24
PK$PEAK: m/z int. rel.int.
  41.9973 0.8 117
  64.0177 0.9 132
  73.0061 0.4 58
  84.989 1.1 161
  88.0194 0.6 88
  90.0341 0.9 132
  97.0066 1.5 220
  102.0329 0.8 117
  114.033 0.7 102
  115.0294 4.8 705
  116.0491 0.7 102
  117.045 4.4 646
  127.0294 0.9 132
  139.0302 0.6 88
  141.0452 6.8 999
  165.0459 1.4 205
  198.0342 1 146
  212.0514 0.5 73
  213.0533 0.5 73
  215.0591 1.3 190
  225.0449 2.1 308
  244.0471 0.5 73
  245.0509 1.4 205
  285.0634 1.3 190
//
