ACCESSION: MSBNK-BAFG-CSL2311097235
RECORD_TITLE: 4-Desmethyl-trimethoprim; LC-ESI-QTOF; MS2; 120 V
DATE: 2023.11.09
AUTHORS: Kevin S. Jewell; Björn Ehlig; Arne Wick
LICENSE: dl-de/by-2-0
COPYRIGHT: Copyright 2023 Federal Institute of Hydrology, Koblenz, Germany
COMMENT: CONFIDENCE Reference Standard (Level 1)
COMMENT: Chromatography method: dx.doi.org/10.1016/j.chroma.2015.11.014
COMMENT: Acquisition method: 10.1002/rcm.8541
CH$NAME: 4-Desmethyl-trimethoprim
CH$COMPOUND_CLASS: Pharmaceutical
CH$FORMULA: C13H16N4O3
CH$EXACT_MASS: 276.1222
CH$SMILES: COC1=CC(=CC(=C1O)OC)CC2=CN=C(N=C2N)N
CH$IUPAC: InChI=1S/C13H16N4O3/c1-19-9-4-7(5-10(20-2)11(9)18)3-8-6-16-13(15)17-12(8)14/h4-6,18H,3H2,1-2H3,(H4,14,15,16,17)
CH$LINK: CAS 21253-58-7
CH$LINK: INCHIKEY HPOCGNHBIFZCAN-UHFFFAOYSA-N
AC$INSTRUMENT: TripleTOF 5600 SCIEX
AC$INSTRUMENT_TYPE: LC-ESI-QTOF
AC$MASS_SPECTROMETRY: MS_TYPE MS2
AC$MASS_SPECTROMETRY: ION_MODE POSITIVE
AC$MASS_SPECTROMETRY: COLLISION_ENERGY 120
AC$MASS_SPECTROMETRY: FRAGMENTATION_MODE CID
AC$MASS_SPECTROMETRY: IONIZATION ESI
AC$CHROMATOGRAPHY: COLUMN_NAME Zorbax Eclipse Plus C18 2.1 mm x 150 mm, 3.5 um, Agilent
AC$CHROMATOGRAPHY: COLUMN_TEMPERATURE 40 °C
AC$CHROMATOGRAPHY: FLOW_GRADIENT 0 min min 98% A, 1 min 98% A, 2 min 80% A, 16.5 min 2% A, 22 min 2% A, 22.1 min 98% A, 27 min 98% A
AC$CHROMATOGRAPHY: FLOW_RATE 0.3 mL/min
AC$CHROMATOGRAPHY: RETENTION_TIME 4.783 min
AC$CHROMATOGRAPHY: SOLVENT A: Water 0.1% Formic acid, B: Acetonitrile 0.1% Formic acid
MS$FOCUSED_ION: PRECURSOR_M/Z 277.1295
MS$FOCUSED_ION: PRECURSOR_TYPE [M+H]+
MS$DATA_PROCESSING: COMMENT Export with Spectra 1.9.12 MsBackendMassbank 1.7.4
MS$DATA_PROCESSING: WHOLE RMassBank 2.3.1
PK$SPLASH: splash10-0fb9-9200000000-cf55bc02aa127e9a9247
PK$NUM_PEAK: 31
PK$PEAK: m/z int. rel.int.
  52.0232 2.4 461
  53.0131 0.6 115
  54.0381 1.9 365
  54.0498 0.4 76
  61.023 0.4 76
  64.0339 0.5 96
  65.0429 1.3 249
  74.0167 0.5 96
  75.0257 2.5 480
  76.0224 1.1 211
  76.0356 0.5 96
  77.0412 5.2 999
  78.0369 1.2 230
  79.0444 0.7 134
  79.0565 0.5 96
  80.05 0.6 115
  81.0462 0.9 172
  89.0392 1.6 307
  92.0509 0.9 172
  93.0437 0.5 96
  94.0523 0.4 76
  102.0351 0.8 153
  103.0288 0.8 153
  104.0364 0.5 96
  104.0506 1 192
  105.0433 0.8 153
  114.0339 0.7 134
  116.0511 0.5 96
  117.0538 0.6 115
  120.0574 1.1 211
  142.055 0.4 76
//
