ACCESSION: MSBNK-BAFG-CSL25010627958
RECORD_TITLE: 4-[(4-Aminophenyl)(4-iminocyclohexa-2,5-dien-1-ylidene)methyl]-2-methylaniline; LC-ESI-QTOF; MS2; 60 V
DATE: 2025.01.06
AUTHORS: Ole Lessmann; Kevin S. Jewell; Björn Ehlig; Arne Wick
LICENSE: dl-de/by-2-0
COPYRIGHT: Copyright 2025 Federal Institute of Hydrology, Koblenz, Germany
COMMENT: CONFIDENCE Reference Standard (Level 1)
COMMENT: Chromatography method: dx.doi.org/10.1016/j.chroma.2015.11.014
COMMENT: Acquisition method: 10.1002/rcm.8541
CH$NAME: 4-[(4-Aminophenyl)(4-iminocyclohexa-2,5-dien-1-ylidene)methyl]-2-methylaniline
CH$FORMULA: C20H19N3
CH$EXACT_MASS: 301.1579
CH$SMILES: CC1=CC(=C(C2=CC=C(C=C2)N)C3=CC=C(C=C3)N)C=CC1=N
CH$IUPAC: InChI=1S/C20H19N3/c1-13-12-16(6-11-19(13)23)20(14-2-7-17(21)8-3-14)15-4-9-18(22)10-5-15/h2-12,23H,21-22H2,1H3
CH$LINK: CAS 3248-93-9
CH$LINK: INCHIKEY YDCMWLQSPFTWCS-UHFFFAOYSA-N
AC$INSTRUMENT: TripleTOF X500R SCIEX
AC$INSTRUMENT_TYPE: LC-ESI-QTOF
AC$MASS_SPECTROMETRY: MS_TYPE MS2
AC$MASS_SPECTROMETRY: ION_MODE POSITIVE
AC$MASS_SPECTROMETRY: COLLISION_ENERGY 60
AC$MASS_SPECTROMETRY: FRAGMENTATION_MODE CID
AC$MASS_SPECTROMETRY: IONIZATION ESI
AC$CHROMATOGRAPHY: COLUMN_NAME Zorbax Eclipse Plus C18 2.1 mm x 150 mm, 3.5 um, Agilent
AC$CHROMATOGRAPHY: COLUMN_TEMPERATURE 40 °C
AC$CHROMATOGRAPHY: FLOW_GRADIENT 0 min min 98% A, 1 min 98% A, 2 min 80% A, 16.5 min 2% A, 22 min 2% A, 22.1 min 98% A, 27 min 98% A
AC$CHROMATOGRAPHY: FLOW_RATE 0.3 mL/min
AC$CHROMATOGRAPHY: RETENTION_TIME 7.598 min
AC$CHROMATOGRAPHY: SOLVENT A: Water 0.1% Formic acid, B: Acetonitrile 0.1% Formic acid
MS$FOCUSED_ION: PRECURSOR_M/Z 302.1652
MS$FOCUSED_ION: PRECURSOR_TYPE [M+H]+
MS$DATA_PROCESSING: COMMENT Export with pycsl 0.1.0.dev1 and CSL 24.4
PK$SPLASH: splash10-066r-0790000000-00ff1144620b761289dc
PK$NUM_PEAK: 125
PK$PEAK: m/z int. rel.int.
  77.0384 0.9 26
  79.0541 0.4 11
  91.0545 0.5 14
  93.0579 0.5 14
  103.0544 0.6 17
  106.0646 5.6 163
  113.0403 0.5 14
  115.0549 3.4 99
  116.0635 0.4 11
  117.0593 1.3 37
  118.0652 1.2 34
  125.0394 0.5 14
  126.0461 0.9 26
  127.0548 2.2 64
  128.0593 1.6 46
  130.0667 2.0 58
  139.0552 3.3 96
  140.0549 2.5 72
  141.0707 4.7 136
  142.066 1.2 34
  143.0732 4.6 133
  150.0466 3.3 96
  151.0548 18.2 530
  152.0625 5.4 157
  153.0658 3.4 99
  154.0662 3.3 96
  155.0617 1.2 34
  156.0805 0.9 26
  163.0544 1.4 40
  164.0623 3.7 107
  165.0704 27.1 789
  166.0669 8.0 233
  167.0739 31.7 923
  168.0812 15.1 439
  169.0791 1.9 55
  175.0532 0.6 17
  176.0569 2.1 61
  177.0576 5.1 148
  178.0654 12.7 369
  179.0688 4.5 131
  180.0819 15.5 451
  181.088 7.8 227
  182.0949 4.2 122
  189.0712 0.6 17
  190.0669 4.6 133
  191.0734 11.0 320
  192.0805 16.2 471
  193.085 29.2 850
  194.0846 15.6 454
  195.0926 34.3 999
  200.0651 0.9 26
  201.0705 1.8 52
  202.0774 2.9 84
  203.082 1.8 52
  204.0823 2.5 72
  205.0828 1.2 34
  206.0875 1.7 49
  207.093 5.5 160
  208.1004 24.0 699
  209.1078 30.4 885
  213.0712 2.2 64
  214.0755 0.9 26
  215.0873 3.8 110
  216.0819 2.0 58
  216.0975 0.5 14
  217.0892 5.6 163
  218.0973 2.9 84
  219.093 2.0 58
  221.1086 1.3 37
  225.0696 1.0 29
  226.0775 5.8 168
  227.0834 3.2 93
  228.0841 2.8 81
  229.0805 1.6 46
  229.1032 0.4 11
  230.0976 7.8 227
  231.0987 2.5 72
  232.0999 1.7 49
  233.107 1.5 43
  234.1173 0.6 17
  235.1287 1.0 29
  237.068 0.6 17
  238.0701 0.8 23
  239.0854 3.6 104
  240.0845 3.0 87
  241.0899 9.1 265
  242.095 6.1 177
  243.1049 7.3 212
  244.1104 3.7 107
  245.1079 11.2 326
  246.1092 1.4 40
  247.1186 0.7 20
  248.0711 0.6 17
  250.0768 1.7 49
  251.0775 3.1 90
  252.0846 6.3 183
  253.0891 5.7 166
  254.0972 14.8 431
  255.0948 6.8 198
  256.1044 4.7 136
  257.109 2.4 69
  258.1163 4.9 142
  259.1238 4.4 128
  260.1246 0.9 26
  265.0864 1.2 34
  266.097 3.0 87
  267.1045 7.6 221
  268.1056 7.6 221
  268.1371 1.1 32
  269.1084 30.8 897
  270.1111 9.0 262
  271.1232 24.3 707
  272.12 4.5 131
  273.1252 0.4 11
  281.1097 0.4 11
  282.1145 3.1 90
  283.124 4.5 131
  284.1233 4.9 142
  284.1582 0.7 20
  285.1388 10.8 314
  286.1347 31.1 905
  287.1387 1.9 55
  298.1382 0.4 11
  300.1498 3.2 93
  302.1678 1.7 49
//