ACCESSION: MSBNK-BAFG-CSL25010627883
RECORD_TITLE: Cyproconazole; LC-ESI-QTOF; MS2; 80 V
DATE: 2025.01.06
AUTHORS: Ole Lessmann; Kevin S. Jewell; Björn Ehlig; Arne Wick
LICENSE: dl-de/by-2-0
COPYRIGHT: Copyright 2025 Federal Institute of Hydrology, Koblenz, Germany
COMMENT: CONFIDENCE Reference Standard (Level 1)
COMMENT: Chromatography method: dx.doi.org/10.1016/j.chroma.2015.11.014
COMMENT: Acquisition method: 10.1002/rcm.8541
CH$NAME: Cyproconazole
CH$COMPOUND_CLASS: Fungicide
CH$FORMULA: C15H18ClN3O
CH$EXACT_MASS: 291.1138
CH$SMILES: CC(C1CC1)C(CN2C=NC=N2)(C3=CC=C(C=C3)Cl)O
CH$IUPAC: InChI=1S/C15H18ClN3O/c1-11(12-2-3-12)15(20,8-19-10-17-9-18-19)13-4-6-14(16)7-5-13/h4-7,9-12,20H,2-3,8H2,1H3
CH$LINK: CAS 94361-06-5
CH$LINK: INCHIKEY UFNOUKDBUJZYDE-UHFFFAOYSA-N
AC$INSTRUMENT: TripleTOF 6600 SCIEX
AC$INSTRUMENT_TYPE: LC-ESI-QTOF
AC$MASS_SPECTROMETRY: MS_TYPE MS2
AC$MASS_SPECTROMETRY: ION_MODE POSITIVE
AC$MASS_SPECTROMETRY: COLLISION_ENERGY 80
AC$MASS_SPECTROMETRY: FRAGMENTATION_MODE CID
AC$MASS_SPECTROMETRY: IONIZATION ESI
AC$CHROMATOGRAPHY: COLUMN_NAME Zorbax Eclipse Plus C18 2.1 mm x 150 mm, 3.5 um, Agilent
AC$CHROMATOGRAPHY: COLUMN_TEMPERATURE 40 °C
AC$CHROMATOGRAPHY: FLOW_GRADIENT 0 min min 98% A, 1 min 98% A, 2 min 80% A, 16.5 min 2% A, 22 min 2% A, 22.1 min 98% A, 27 min 98% A
AC$CHROMATOGRAPHY: FLOW_RATE 0.3 mL/min
AC$CHROMATOGRAPHY: RETENTION_TIME 11.30515 min
AC$CHROMATOGRAPHY: SOLVENT A: Water 0.1% Formic acid, B: Acetonitrile 0.1% Formic acid
MS$FOCUSED_ION: PRECURSOR_M/Z 292.1211
MS$FOCUSED_ION: PRECURSOR_TYPE [M+H]+
MS$DATA_PROCESSING: COMMENT Export with pycsl 0.1.0.dev1 and CSL 24.4
PK$SPLASH: splash10-00di-9100000000-f8481058191e313dd56c
PK$NUM_PEAK: 20
PK$PEAK: m/z int. rel.int.
  39.0194 8.5 23
  41.0348 3.7 10
  43.0253 43.9 120
  62.0091 6.6 18
  63.017 36.9 101
  65.0323 7.6 20
  70.0339 362.7 999
  72.977 24.0 66
  74.0082 4.1 11
  74.9926 5.7 15
  75.016 21.5 59
  77.0317 4.0 11
  89.0306 168.0 462
  90.0382 64.6 177
  98.9905 89.6 246
  110.9893 16.6 45
  115.0431 4.9 13
  125.0038 145.5 400
  128.0503 4.1 11
  138.9929 4.0 11
//