ACCESSION: MSBNK-BAFG-CSL25011734584
RECORD_TITLE: Food Yellow 3 free acid; LC-ESI-QTOF; MS2; 40 V
DATE: 2025.01.17
AUTHORS: Ole Lessmann; Kevin S. Jewell; Björn Ehlig; Arne Wick
LICENSE: dl-de/by-2-0
COPYRIGHT: Copyright 2025 Federal Institute of Hydrology, Koblenz, Germany
COMMENT: CONFIDENCE Reference Standard (Level 1)
COMMENT: Chromatography method: dx.doi.org/10.1016/j.chroma.2015.11.014
CH$NAME: Food Yellow 3 free acid
CH$FORMULA: C16H12N2O7S2
CH$EXACT_MASS: 408.0086
CH$SMILES: C1=CC(=CC=C1N=NC2=C(C=CC3=C2C=CC(=C3)S(=O)(=O)O)O)S(=O)(=O)O
CH$IUPAC: InChI=1S/C16H12N2O7S2/c19-15-8-1-10-9-13(27(23,24)25)6-7-14(10)16(15)18-17-11-2-4-12(5-3-11)26(20,21)22/h1-9,19H,(H,20,21,22)(H,23,24,25)
CH$LINK: CAS 5859-11-0
CH$LINK: INCHIKEY KEYWXKLGZZGHMT-UHFFFAOYSA-N
AC$INSTRUMENT: TripleTOF 6600 SCIEX
AC$INSTRUMENT_TYPE: LC-ESI-QTOF
AC$MASS_SPECTROMETRY: MS_TYPE MS2
AC$MASS_SPECTROMETRY: ION_MODE POSITIVE
AC$MASS_SPECTROMETRY: COLLISION_ENERGY 40
AC$MASS_SPECTROMETRY: FRAGMENTATION_MODE CID
AC$MASS_SPECTROMETRY: IONIZATION ESI
AC$CHROMATOGRAPHY: COLUMN_NAME Zorbax Eclipse Plus C18 2.1 mm x 150 mm, 3.5 um, Agilent
AC$CHROMATOGRAPHY: COLUMN_TEMPERATURE 40 °C
AC$CHROMATOGRAPHY: FLOW_GRADIENT 0 min min 98% A, 1 min 98% A, 2 min 80% A, 16.5 min 2% A, 22 min 2% A, 22.1 min 98% A, 27 min 98% A
AC$CHROMATOGRAPHY: FLOW_RATE 0.3 mL/min
AC$CHROMATOGRAPHY: RETENTION_TIME 5.59 min
AC$CHROMATOGRAPHY: SOLVENT A: Water 0.1% Formic acid, B: Acetonitrile 0.1% Formic acid
MS$FOCUSED_ION: PRECURSOR_M/Z 409.0159
MS$FOCUSED_ION: PRECURSOR_TYPE [M+H]+
MS$DATA_PROCESSING: COMMENT Export with pycsl 0.1.0.dev1 and CSL 25.0
PK$SPLASH: splash10-05g3-0974000000-59628610b92c51bb8de5
PK$NUM_PEAK: 26
PK$PEAK: m/z int. rel.int.
  80.0494 18.8 19
  89.0381 10.7 11
  92.0495 10.1 10
  108.0443 151.6 159
  109.051 13.5 14
  116.0485 14.2 14
  126.0333 20.2 21
  127.0408 18.9 19
  128.0492 9.7 10
  144.0434 12.7 13
  154.0289 215.1 226
  156.0113 11.4 11
  156.044 19.6 20
  173.0147 949.6 999
  182.0346 90.8 95
  208.0073 675.4 710
  217.9897 13.3 13
  236.0018 502.4 528
  238.0154 25.1 26
  299.0503 24.0 25
  310.0398 13.3 13
  311.0474 45.1 47
  327.0407 38.1 40
  328.0519 50.2 52
  391.0077 57.0 59
  392.014 500.8 526
//
