ACCESSION: MSBNK-BAFG-CSL2311108935
RECORD_TITLE: Sildenafil; LC-ESI-QTOF; MS2; 150 V
DATE: 2023.11.10
AUTHORS: Kevin S. Jewell; Björn Ehlig; Arne Wick
LICENSE: dl-de/by-2-0
COPYRIGHT: Copyright 2023 Federal Institute of Hydrology, Koblenz, Germany
COMMENT: CONFIDENCE Reference Standard (Level 1)
COMMENT: Chromatography method: dx.doi.org/10.1016/j.chroma.2015.11.014
COMMENT: Acquisition method: 10.1002/rcm.8541
CH$NAME: Sildenafil
CH$COMPOUND_CLASS: Pharmaceutical
CH$FORMULA: C22H30N6O4S
CH$EXACT_MASS: 474.2049
CH$SMILES: CCCC1=NN(C2=C1NC(=NC2=O)C3=C(C=CC(=C3)S(=O)(=O)N4CCN(CC4)C)OCC)C
CH$IUPAC: InChI=1S/C22H30N6O4S/c1-5-7-17-19-20(27(4)25-17)22(29)24-21(23-19)16-14-15(8-9-18(16)32-6-2)33(30,31)28-12-10-26(3)11-13-28/h8-9,14H,5-7,10-13H2,1-4H3,(H,23,24,29)
CH$LINK: CAS 139755-83-2
CH$LINK: INCHIKEY BNRNXUUZRGQAQC-UHFFFAOYSA-N
AC$INSTRUMENT: TripleTOF 5600 SCIEX
AC$INSTRUMENT_TYPE: LC-ESI-QTOF
AC$MASS_SPECTROMETRY: MS_TYPE MS2
AC$MASS_SPECTROMETRY: ION_MODE POSITIVE
AC$MASS_SPECTROMETRY: COLLISION_ENERGY 150
AC$MASS_SPECTROMETRY: FRAGMENTATION_MODE CID
AC$MASS_SPECTROMETRY: IONIZATION ESI
AC$CHROMATOGRAPHY: COLUMN_NAME Zorbax Eclipse Plus C18 2.1 mm x 150 mm, 3.5 um, Agilent
AC$CHROMATOGRAPHY: COLUMN_TEMPERATURE 40 °C
AC$CHROMATOGRAPHY: FLOW_GRADIENT 0 min min 98% A, 1 min 98% A, 2 min 80% A, 16.5 min 2% A, 22 min 2% A, 22.1 min 98% A, 27 min 98% A
AC$CHROMATOGRAPHY: FLOW_RATE 0.3 mL/min
AC$CHROMATOGRAPHY: RETENTION_TIME 7.283 min
AC$CHROMATOGRAPHY: SOLVENT A: Water 0.1% Formic acid, B: Acetonitrile 0.1% Formic acid
MS$FOCUSED_ION: PRECURSOR_M/Z 475.2122
MS$FOCUSED_ION: PRECURSOR_TYPE [M+H]+
MS$DATA_PROCESSING: COMMENT Export with Spectra 1.9.12 MsBackendMassbank 1.7.4
MS$DATA_PROCESSING: WHOLE RMassBank 2.3.1
PK$SPLASH: splash10-0a4i-9500000000-0b1e7c1c163260126c32
PK$NUM_PEAK: 48
PK$PEAK: m/z int. rel.int.
  42.0481 3.7 228
  43.0533 1.1 67
  44.0617 0.7 43
  51.0324 0.5 30
  53.0204 0.5 30
  53.0275 0.6 37
  56.058 2.4 148
  58.0739 16.2 999
  65.0456 0.5 30
  67.0396 0.6 37
  70.0717 0.6 37
  75.0259 1.6 98
  76.0365 0.8 49
  77.0437 1.9 117
  78.0381 1.2 74
  80.0551 0.4 24
  81.0488 0.6 37
  89.0443 0.9 55
  90.0389 1.5 92
  91.0476 0.6 37
  95.063 0.6 37
  101.0386 0.6 37
  102.0363 1.6 98
  103.0401 1.4 86
  104.0513 0.7 43
  105.0459 1 61
  114.0343 0.6 37
  115.0442 0.8 49
  116.049 1.1 67
  117.0433 0.8 49
  127.0371 0.7 43
  128.0488 1.8 111
  129.0465 2.1 129
  130.0409 0.8 49
  131.0615 0.4 24
  136.0482 0.4 24
  140.0538 0.7 43
  141.0475 0.7 43
  142.0541 1.3 80
  143.0558 0.7 43
  152.0501 0.4 24
  153.0439 0.7 43
  155.0612 0.9 55
  156.0582 0.9 55
  167.0596 0.6 37
  168.0595 0.8 49
  170.0715 1 61
  195.068 0.5 30
//
