ACCESSION: MSBNK-BAFG-CSL2310256911
RECORD_TITLE: 2-(Methylthio)benzothiazole; LC-ESI-QTOF; MS2; 50 V
DATE: 2023.10.25
AUTHORS: Kevin S. Jewell; Björn Ehlig; Arne Wick
LICENSE: dl-de/by-2-0
COPYRIGHT: Copyright 2023 Federal Institute of Hydrology, Koblenz, Germany
COMMENT: CONFIDENCE Reference Standard (Level 1)
COMMENT: Chromatography method: dx.doi.org/10.1016/j.chroma.2015.11.014
COMMENT: Acquisition method: 10.1002/rcm.8541
CH$NAME: 2-(Methylthio)benzothiazole
CH$COMPOUND_CLASS: Industrial_process; Fungicide
CH$FORMULA: C8H7NS2
CH$EXACT_MASS: 181.002
CH$SMILES: CSc1sc2ccccc2n1
CH$IUPAC: InChI=1S/C8H7NS2/c1-10-8-9-6-4-2-3-5-7(6)11-8/h2-5H,1H3
CH$LINK: CAS 615-22-5
CH$LINK: INCHIKEY UTBVIMLZIRIFFR-UHFFFAOYSA-N
AC$INSTRUMENT: TripleTOF 5600 SCIEX
AC$INSTRUMENT_TYPE: LC-ESI-QTOF
AC$MASS_SPECTROMETRY: MS_TYPE MS2
AC$MASS_SPECTROMETRY: ION_MODE POSITIVE
AC$MASS_SPECTROMETRY: COLLISION_ENERGY 50
AC$MASS_SPECTROMETRY: FRAGMENTATION_MODE CID
AC$MASS_SPECTROMETRY: IONIZATION ESI
AC$CHROMATOGRAPHY: COLUMN_NAME Zorbax Eclipse Plus C18 2.1 mm x 150 mm, 3.5 um, Agilent
AC$CHROMATOGRAPHY: COLUMN_TEMPERATURE 40 °C
AC$CHROMATOGRAPHY: FLOW_GRADIENT 0 min min 98% A, 1 min 98% A, 2 min 80% A, 16.5 min 2% A, 22 min 2% A, 22.1 min 98% A, 27 min 98% A
AC$CHROMATOGRAPHY: FLOW_RATE 0.3 mL/min
AC$CHROMATOGRAPHY: RETENTION_TIME 12.209 min
AC$CHROMATOGRAPHY: SOLVENT A: Water 0.1% Formic acid, B: Acetonitrile 0.1% Formic acid
MS$FOCUSED_ION: PRECURSOR_M/Z 182.0093
MS$FOCUSED_ION: PRECURSOR_TYPE [M+H]+
MS$DATA_PROCESSING: COMMENT Export with Spectra 1.9.12 MsBackendMassbank 1.7.4
MS$DATA_PROCESSING: WHOLE RMassBank 2.3.1
PK$SPLASH: splash10-06di-3900000000-eb9ffce5406310355853
PK$NUM_PEAK: 19
PK$PEAK: m/z int. rel.int.
  63.9475 1.2 90
  64.0353 0.8 60
  65.0427 3.4 255
  68.9829 0.7 52
  76.0327 0.8 60
  77.0429 0.7 52
  81.9908 0.5 37
  91.0418 3.6 270
  94.9972 0.7 52
  96.0028 3.7 277
  103.0421 1.6 120
  108.0031 2.1 157
  109.0103 10 751
  122.0061 0.7 52
  123.0133 8.5 638
  135.0129 4.2 315
  139.9755 1.8 135
  165.979 1 75
  166.9855 13.3 999
//
