ACCESSION: MSBNK-BAFG-CSL23103014457
RECORD_TITLE: Isopropyl diphenyl phosphate; LC-ESI-QTOF; MS2; 70 V
DATE: 2023.10.30
AUTHORS: Kevin S. Jewell; Björn Ehlig; Arne Wick
LICENSE: dl-de/by-2-0
COPYRIGHT: Copyright 2023 Federal Institute of Hydrology, Koblenz, Germany
COMMENT: CONFIDENCE Reference Standard (Level 1)
COMMENT: Chromatography method: dx.doi.org/10.1016/j.chroma.2015.11.014
COMMENT: Acquisition method: 10.1002/rcm.8541
CH$NAME: Isopropyl diphenyl phosphate
CH$FORMULA: C15H17O4P
CH$EXACT_MASS: 292.0864
CH$SMILES: CC(C)OP(=O)(OC1=CC=CC=C1)OC2=CC=CC=C2
CH$IUPAC: InChI=1S/C15H17O4P/c1-13(2)17-20(16,18-14-9-5-3-6-10-14)19-15-11-7-4-8-12-15/h3-13H,1-2H3
CH$LINK: CAS 60763-39-5
CH$LINK: INCHIKEY YDICVVYPXSZSFA-UHFFFAOYSA-N
AC$INSTRUMENT: TripleTOF 6600 SCIEX
AC$INSTRUMENT_TYPE: LC-ESI-QTOF
AC$MASS_SPECTROMETRY: MS_TYPE MS2
AC$MASS_SPECTROMETRY: ION_MODE POSITIVE
AC$MASS_SPECTROMETRY: COLLISION_ENERGY 70
AC$MASS_SPECTROMETRY: FRAGMENTATION_MODE CID
AC$MASS_SPECTROMETRY: IONIZATION ESI
AC$CHROMATOGRAPHY: COLUMN_NAME Zorbax Eclipse Plus C18 2.1 mm x 150 mm, 3.5 um, Agilent
AC$CHROMATOGRAPHY: COLUMN_TEMPERATURE 40 °C
AC$CHROMATOGRAPHY: FLOW_GRADIENT 0 min min 98% A, 1 min 98% A, 2 min 80% A, 16.5 min 2% A, 22 min 2% A, 22.1 min 98% A, 27 min 98% A
AC$CHROMATOGRAPHY: FLOW_RATE 0.3 mL/min
AC$CHROMATOGRAPHY: RETENTION_TIME 12.828 min
AC$CHROMATOGRAPHY: SOLVENT A: Water 0.1% Formic acid, B: Acetonitrile 0.1% Formic acid
MS$FOCUSED_ION: PRECURSOR_M/Z 293.0937
MS$FOCUSED_ION: PRECURSOR_TYPE [M+H]+
MS$DATA_PROCESSING: COMMENT Export with Spectra 1.9.12 MsBackendMassbank 1.7.4
MS$DATA_PROCESSING: WHOLE RMassBank 2.3.1
PK$SPLASH: splash10-0ufr-9300000000-aec07e84386ad487a48e
PK$NUM_PEAK: 14
PK$PEAK: m/z int. rel.int.
  49.0071 0.9 27
  50.0151 3.7 114
  51.0229 19.7 609
  77.0385 32.3 999
  95.0481 0.6 18
  105.043 0.7 21
  126.0466 0.5 15
  127.0542 0.6 18
  139.0526 0.5 15
  150.046 0.9 27
  151.0534 2.4 74
  152.0614 12.9 398
  153.0652 0.4 12
  168.0558 1.7 52
//
