ACCESSION: MSBNK-BAFG-CSL25010627868
RECORD_TITLE: Iminostilbene; LC-ESI-QTOF; MS2; 90 V
DATE: 2025.01.06
AUTHORS: Ole Lessmann; Kevin S. Jewell; Björn Ehlig; Arne Wick
LICENSE: dl-de/by-2-0
COPYRIGHT: Copyright 2025 Federal Institute of Hydrology, Koblenz, Germany
COMMENT: CONFIDENCE Reference Standard (Level 1)
COMMENT: Chromatography method: dx.doi.org/10.1016/j.chroma.2015.11.014
COMMENT: Acquisition method: 10.1002/rcm.8541
CH$NAME: Iminostilbene
CH$COMPOUND_CLASS: Pharmaceutical
CH$FORMULA: C14H11N
CH$EXACT_MASS: 193.0891
CH$SMILES: C1=CC=C2C(=C1)C=CC3=CC=CC=C3N2
CH$IUPAC: InChI=1S/C14H11N/c1-3-7-13-11(5-1)9-10-12-6-2-4-8-14(12)15-13/h1-10,15H
CH$LINK: CAS 256-96-2
CH$LINK: INCHIKEY LCGTWRLJTMHIQZ-UHFFFAOYSA-N
AC$INSTRUMENT: TripleTOF 6600 SCIEX
AC$INSTRUMENT_TYPE: LC-ESI-QTOF
AC$MASS_SPECTROMETRY: MS_TYPE MS2
AC$MASS_SPECTROMETRY: ION_MODE POSITIVE
AC$MASS_SPECTROMETRY: COLLISION_ENERGY 90
AC$MASS_SPECTROMETRY: FRAGMENTATION_MODE CID
AC$MASS_SPECTROMETRY: IONIZATION ESI
AC$CHROMATOGRAPHY: COLUMN_NAME Zorbax Eclipse Plus C18 2.1 mm x 150 mm, 3.5 um, Agilent
AC$CHROMATOGRAPHY: COLUMN_TEMPERATURE 40 °C
AC$CHROMATOGRAPHY: FLOW_GRADIENT 0 min min 98% A, 1 min 98% A, 2 min 80% A, 16.5 min 2% A, 22 min 2% A, 22.1 min 98% A, 27 min 98% A
AC$CHROMATOGRAPHY: FLOW_RATE 0.3 mL/min
AC$CHROMATOGRAPHY: RETENTION_TIME 13.175 min
AC$CHROMATOGRAPHY: SOLVENT A: Water 0.1% Formic acid, B: Acetonitrile 0.1% Formic acid
MS$FOCUSED_ION: PRECURSOR_M/Z 194.0964
MS$FOCUSED_ION: PRECURSOR_TYPE [M+H]+
MS$DATA_PROCESSING: COMMENT Export with pycsl 0.1.0.dev1 and CSL 24.4
PK$SPLASH: splash10-03dr-7900000000-6cbdefd9b0c3fc79652f
PK$NUM_PEAK: 80
PK$PEAK: m/z int. rel.int.
  35.9964 4.6 16
  37.004 21.5 77
  38.0118 18.3 66
  39.0196 72.9 263
  41.0348 2.8 10
  49.0026 9.8 35
  50.0107 86.8 313
  51.0185 133.7 482
  52.026 9.6 34
  61.0015 20.7 74
  62.0094 61.4 221
  63.0174 193.2 697
  64.0121 3.9 14
  64.0247 12.6 45
  65.0328 42.8 154
  73.0005 3.9 14
  74.0085 88.8 320
  75.016 100.4 362
  76.0118 4.1 14
  76.0236 53.0 191
  77.0315 87.1 314
  78.0389 15.3 55
  84.9994 7.3 26
  86.0071 32.1 115
  87.0149 52.1 188
  88.0099 7.9 28
  88.0221 15.1 54
  89.0306 214.4 774
  90.0262 4.9 17
  90.0373 11.9 42
  91.0457 8.4 30
  98.0059 54.0 194
  99.0015 3.5 12
  99.0137 48.5 175
  100.0089 4.1 14
  100.021 18.8 67
  101.0293 24.0 86
  102.0368 38.8 140
  103.0318 2.9 10
  110.0048 11.1 40
  111.0127 11.7 42
  113.0282 87.3 315
  114.023 16.3 58
  114.0342 8.8 31
  115.0437 83.7 302
  116.0387 8.5 30
  122.0036 8.6 31
  123.0116 6.9 24
  124.0185 9.9 35
  125.0275 34.4 124
  126.0346 53.5 193
  127.0308 10.5 37
  127.0422 6.3 22
  128.0375 16.1 58
  129.0326 8.2 29
  137.0261 36.9 133
  138.0335 26.5 95
  139.0416 138.4 499
  140.037 88.4 319
  149.0248 21.6 77
  150.0326 147.5 532
  151.04 58.8 212
  152.0358 14.6 52
  152.0476 12.6 45
  153.0433 4.7 16
  161.0236 11.1 40
  162.0314 47.2 170
  163.0396 276.7 999
  164.0408 119.2 430
  165.0548 41.1 148
  166.0501 14.2 51
  174.0306 4.9 17
  175.0268 7.1 25
  176.0333 14.8 53
  177.0411 25.1 90
  178.0493 7.2 25
  188.032 36.2 130
  189.0401 56.9 205
  190.0482 132.9 479
  191.0554 42.4 153
//