ACCESSION: MSBNK-BAFG-CSL25010634468
RECORD_TITLE: Sudan I; LC-ESI-QTOF; MS2; 130 V
DATE: 2025.01.06
AUTHORS: Ole Lessmann; Kevin S. Jewell; Björn Ehlig; Arne Wick
LICENSE: dl-de/by-2-0
COPYRIGHT: Copyright 2025 Federal Institute of Hydrology, Koblenz, Germany
COMMENT: CONFIDENCE Reference Standard (Level 1)
COMMENT: Chromatography method: dx.doi.org/10.1016/j.chroma.2015.11.014
COMMENT: Acquisition method: 10.1002/rcm.8541
CH$NAME: Sudan I
CH$FORMULA: C16H12N2O
CH$EXACT_MASS: 248.095
CH$SMILES: C1=CC=C(C=C1)N=NC2=C(C=CC3=CC=CC=C32)O
CH$IUPAC: InChI=1S/C16H12N2O/c19-15-11-10-12-6-4-5-9-14(12)16(15)18-17-13-7-2-1-3-8-13/h1-11,19H
CH$LINK: CAS 842-07-9
CH$LINK: INCHIKEY MRQIXHXHHPWVIL-UHFFFAOYSA-N
AC$INSTRUMENT: TripleTOF 6600 SCIEX
AC$INSTRUMENT_TYPE: LC-ESI-QTOF
AC$MASS_SPECTROMETRY: MS_TYPE MS2
AC$MASS_SPECTROMETRY: ION_MODE POSITIVE
AC$MASS_SPECTROMETRY: COLLISION_ENERGY 130
AC$MASS_SPECTROMETRY: FRAGMENTATION_MODE CID
AC$MASS_SPECTROMETRY: IONIZATION ESI
AC$CHROMATOGRAPHY: COLUMN_NAME Zorbax Eclipse Plus C18 2.1 mm x 150 mm, 3.5 um, Agilent
AC$CHROMATOGRAPHY: COLUMN_TEMPERATURE 40 °C
AC$CHROMATOGRAPHY: FLOW_GRADIENT 0 min min 98% A, 1 min 98% A, 2 min 80% A, 16.5 min 2% A, 22 min 2% A, 22.1 min 98% A, 27 min 98% A
AC$CHROMATOGRAPHY: FLOW_RATE 0.3 mL/min
AC$CHROMATOGRAPHY: RETENTION_TIME 15.674 min
AC$CHROMATOGRAPHY: SOLVENT A: Water 0.1% Formic acid, B: Acetonitrile 0.1% Formic acid
MS$FOCUSED_ION: PRECURSOR_M/Z 249.1023
MS$FOCUSED_ION: PRECURSOR_TYPE [M+H]+
MS$DATA_PROCESSING: COMMENT Export with pycsl 0.1.0.dev1 and CSL 24.4
PK$SPLASH: splash10-0fki-9000000000-896fa0540568e9e8540e
PK$NUM_PEAK: 32
PK$PEAK: m/z int. rel.int.
  35.9989 1.1 13
  37.0073 9.3 117
  38.0153 8.3 105
  39.0233 31.0 392
  40.0308 1.7 21
  41.0261 2.6 32
  42.0342 1.6 20
  49.0074 5.5 69
  50.0154 28.0 354
  51.023 30.4 384
  52.0178 5.8 73
  54.0337 2.7 34
  61.0082 1.5 18
  62.0152 1.7 21
  63.023 2.6 32
  65.0255 1.2 15
  65.0379 23.0 291
  66.0334 2.2 27
  66.0464 6.9 87
  73.0076 12.7 160
  74.0153 78.9 999
  75.0112 4.0 50
  75.0224 19.9 251
  76.0177 3.6 45
  77.0376 1.9 24
  78.0337 1.0 12
  86.0145 0.9 11
  92.0493 4.7 59
  93.0563 0.8 10
  98.0163 4.1 51
  99.0119 0.9 11
  99.0226 0.9 11
//