ACCESSION: MSBNK-BAFG-CSL2310309331
RECORD_TITLE: O-desmethyl-venlafaxine; LC-ESI-QTOF; MS2; 30 V
DATE: 2023.10.30
AUTHORS: Kevin S. Jewell; Björn Ehlig; Arne Wick
LICENSE: dl-de/by-2-0
COPYRIGHT: Copyright 2023 Federal Institute of Hydrology, Koblenz, Germany
COMMENT: CONFIDENCE Reference Standard (Level 1)
COMMENT: Chromatography method: dx.doi.org/10.1016/j.chroma.2015.11.014
COMMENT: Acquisition method: 10.1002/rcm.8541
CH$NAME: O-desmethyl-venlafaxine
CH$COMPOUND_CLASS: Metabolite; Pharmaceutical
CH$FORMULA: C16H25NO2
CH$EXACT_MASS: 263.1885
CH$SMILES: CN(C)CC(C1=CC=C(C=C1)O)C2(CCCCC2)O
CH$IUPAC: InChI=1S/C16H25NO2/c1-17(2)12-15(13-6-8-14(18)9-7-13)16(19)10-4-3-5-11-16/h6-9,15,18-19H,3-5,10-12H2,1-2H3
CH$LINK: CAS 93413-62-8
CH$LINK: INCHIKEY KYYIDSXMWOZKMP-UHFFFAOYSA-N
AC$INSTRUMENT: TripleTOF 5600 SCIEX
AC$INSTRUMENT_TYPE: LC-ESI-QTOF
AC$MASS_SPECTROMETRY: MS_TYPE MS2
AC$MASS_SPECTROMETRY: ION_MODE POSITIVE
AC$MASS_SPECTROMETRY: COLLISION_ENERGY 30
AC$MASS_SPECTROMETRY: FRAGMENTATION_MODE CID
AC$MASS_SPECTROMETRY: IONIZATION ESI
AC$CHROMATOGRAPHY: COLUMN_NAME Zorbax Eclipse Plus C18 2.1 mm x 150 mm, 3.5 um, Agilent
AC$CHROMATOGRAPHY: COLUMN_TEMPERATURE 40 °C
AC$CHROMATOGRAPHY: FLOW_GRADIENT 0 min min 98% A, 1 min 98% A, 2 min 80% A, 16.5 min 2% A, 22 min 2% A, 22.1 min 98% A, 27 min 98% A
AC$CHROMATOGRAPHY: FLOW_RATE 0.3 mL/min
AC$CHROMATOGRAPHY: RETENTION_TIME 5.367 min
AC$CHROMATOGRAPHY: SOLVENT A: Water 0.1% Formic acid, B: Acetonitrile 0.1% Formic acid
MS$FOCUSED_ION: PRECURSOR_M/Z 264.1958
MS$FOCUSED_ION: PRECURSOR_TYPE [M+H]+
MS$DATA_PROCESSING: COMMENT Export with Spectra 1.9.12 MsBackendMassbank 1.7.4
MS$DATA_PROCESSING: WHOLE RMassBank 2.3.1
PK$SPLASH: splash10-0a4i-8920000000-ab600db723aca7347b1b
PK$NUM_PEAK: 22
PK$PEAK: m/z int. rel.int.
  42.0449 1.5 11
  58.0747 132.7 999
  69.0763 1.7 12
  77.0443 2.1 15
  79.0595 2.9 21
  81.0734 4.9 36
  105.071 2.3 17
  107.051 56.7 426
  119.0525 1.9 14
  121.0648 5.3 39
  131.0513 1.7 12
  133.0658 46.2 347
  144.061 1.4 10
  145.0658 13.3 100
  149.0863 1.6 12
  159.0809 20.4 153
  163.0998 2.9 21
  164.1078 3.6 27
  173.0979 2 15
  201.1273 20.6 155
  246.1862 16.7 125
  264.1929 2.9 21
//
