ACCESSION: MSBNK-BAFG-CSL2311095661
RECORD_TITLE: Diatrizoate; LC-ESI-QTOF; MS2; 100 V
DATE: 2023.11.09
AUTHORS: Kevin S. Jewell; Björn Ehlig; Arne Wick
LICENSE: dl-de/by-2-0
COPYRIGHT: Copyright 2023 Federal Institute of Hydrology, Koblenz, Germany
COMMENT: CONFIDENCE Reference Standard (Level 1)
COMMENT: Chromatography method: dx.doi.org/10.1016/j.chroma.2015.11.014
COMMENT: Acquisition method: 10.1002/rcm.8541
CH$NAME: Diatrizoate
CH$COMPOUND_CLASS: Pharmaceutical
CH$FORMULA: C11H9I3N2O4
CH$EXACT_MASS: 613.7697
CH$SMILES: C/C(=N\c1c(c(c(c(c1I)C(=O)O)I)/N=C(/O)\C)I)/O
CH$IUPAC: InChI=1S/C11H9I3N2O4/c1-3(17)15-9-6(12)5(11(19)20)7(13)10(8(9)14)16-4(2)18/h1-2H3,(H,15,17)(H,16,18)(H,19,20)
CH$LINK: CAS 117-96-4
CH$LINK: INCHIKEY YVPYQUNUQOZFHG-UHFFFAOYSA-N
AC$INSTRUMENT: TripleTOF 5600 SCIEX
AC$INSTRUMENT_TYPE: LC-ESI-QTOF
AC$MASS_SPECTROMETRY: MS_TYPE MS2
AC$MASS_SPECTROMETRY: ION_MODE POSITIVE
AC$MASS_SPECTROMETRY: COLLISION_ENERGY 100
AC$MASS_SPECTROMETRY: FRAGMENTATION_MODE CID
AC$MASS_SPECTROMETRY: IONIZATION ESI
AC$CHROMATOGRAPHY: COLUMN_NAME Zorbax Eclipse Plus C18 2.1 mm x 150 mm, 3.5 um, Agilent
AC$CHROMATOGRAPHY: COLUMN_TEMPERATURE 40 °C
AC$CHROMATOGRAPHY: FLOW_GRADIENT 0 min min 98% A, 1 min 98% A, 2 min 80% A, 16.5 min 2% A, 22 min 2% A, 22.1 min 98% A, 27 min 98% A
AC$CHROMATOGRAPHY: FLOW_RATE 0.3 mL/min
AC$CHROMATOGRAPHY: RETENTION_TIME 4.549 min
AC$CHROMATOGRAPHY: SOLVENT A: Water 0.1% Formic acid, B: Acetonitrile 0.1% Formic acid
MS$FOCUSED_ION: PRECURSOR_M/Z 614.7769
MS$FOCUSED_ION: PRECURSOR_TYPE [M+H]+
MS$DATA_PROCESSING: COMMENT Export with Spectra 1.9.12 MsBackendMassbank 1.7.4
MS$DATA_PROCESSING: WHOLE RMassBank 2.3.1
PK$SPLASH: splash10-0002-0920000000-0b5bac540ce9468b69b0
PK$NUM_PEAK: 41
PK$PEAK: m/z int. rel.int.
  77.0295 0.7 46
  78.0352 0.7 46
  79.0447 0.9 59
  91.0427 1.1 72
  92.0509 1.1 72
  104.0466 0.5 33
  106.0289 1 66
  107.0344 1.1 72
  118.0246 0.5 33
  118.0523 2.7 178
  119.0345 0.6 39
  119.0591 0.6 39
  120.0432 2.6 172
  120.064 1 66
  132.04 0.5 33
  134.0218 0.5 33
  145.0389 1.3 86
  146.0213 1 66
  146.0463 3.9 258
  147.0263 0.5 33
  147.0539 0.6 39
  148.0392 15.1 999
  159.0555 2.3 152
  160.0402 0.6 39
  161.0696 0.7 46
  164.0314 0.5 33
  165.0405 1.5 99
  174.0434 1.8 119
  175.0563 0.5 33
  187.0503 3.5 231
  188.035 0.5 33
  188.0562 0.5 33
  189.0685 1.9 125
  192.0521 5.2 344
  203.9313 1.5 99
  205.061 2 132
  215.0437 1.2 79
  219.0388 2 132
  231.924 0.7 46
  233.0552 8.3 549
  272.9498 0.6 39
//
