ACCESSION: MSBNK-BAFG-CSL25011734704
RECORD_TITLE: Amido Black 10B; LC-ESI-QTOF; MS2; 50 V
DATE: 2025.01.17
AUTHORS: Ole Lessmann; Kevin S. Jewell; Björn Ehlig; Arne Wick
LICENSE: dl-de/by-2-0
COPYRIGHT: Copyright 2025 Federal Institute of Hydrology, Koblenz, Germany
COMMENT: CONFIDENCE Reference Standard (Level 1)
COMMENT: Chromatography method: dx.doi.org/10.1016/j.chroma.2015.11.014
CH$NAME: Amido Black 10B
CH$FORMULA: C22H16N6O9S2
CH$EXACT_MASS: 572.042
CH$SMILES: C1=CC=C(C=C1)N=NC2=C(C3=C(C(=C(C=C3C=C2S(=O)(=O)O)S(=O)(=O)O)N=NC4=CC=C(C=C4)[N+](=O)[O-])N)O
CH$IUPAC: InChI=1S/C22H16N6O9S2/c23-19-18-12(11-17(39(35,36)37)21(22(18)29)27-24-13-4-2-1-3-5-13)10-16(38(32,33)34)20(19)26-25-14-6-8-15(9-7-14)28(30)31/h1-11,29H,23H2,(H,32,33,34)(H,35,36,37)
CH$LINK: CAS 3121-74-2
CH$LINK: INCHIKEY HKJKONMZMPUGHJ-UHFFFAOYSA-N
AC$INSTRUMENT: TripleTOF 6600 SCIEX
AC$INSTRUMENT_TYPE: LC-ESI-QTOF
AC$MASS_SPECTROMETRY: MS_TYPE MS2
AC$MASS_SPECTROMETRY: ION_MODE NEGATIVE
AC$MASS_SPECTROMETRY: COLLISION_ENERGY 50
AC$MASS_SPECTROMETRY: FRAGMENTATION_MODE CID
AC$MASS_SPECTROMETRY: IONIZATION ESI
AC$CHROMATOGRAPHY: COLUMN_NAME Zorbax Eclipse Plus C18 2.1 mm x 150 mm, 3.5 um, Agilent
AC$CHROMATOGRAPHY: COLUMN_TEMPERATURE 40 °C
AC$CHROMATOGRAPHY: FLOW_GRADIENT 0 min min 98% A, 1 min 98% A, 2 min 80% A, 16.5 min 2% A, 22 min 2% A, 22.1 min 98% A, 27 min 98% A
AC$CHROMATOGRAPHY: FLOW_RATE 0.3 mL/min
AC$CHROMATOGRAPHY: RETENTION_TIME 9.552 min
AC$CHROMATOGRAPHY: SOLVENT A: Water 0.1% Formic acid, B: Acetonitrile 0.1% Formic acid
MS$FOCUSED_ION: PRECURSOR_M/Z 285.0137
MS$FOCUSED_ION: PRECURSOR_TYPE [M-2H]2-
MS$DATA_PROCESSING: COMMENT Export with pycsl 0.1.0.dev1 and CSL 25.0
PK$SPLASH: splash10-004i-5910000000-b5942ab3cde299b7a955
PK$NUM_PEAK: 99
PK$PEAK: m/z int. rel.int.
  45.993 23.3083 24
  50.0031 8.4612 8
  63.9614 11.7083 12
  64.0184 5.0166 5
  65.9979 20.2934 21
  74.0023 8.5146 9
  79.9568 941.1497 999
  80.9646 291.1615 309
  88.0181 11.0402 11
  89.0136 6.3618 6
  89.9978 6.3036 6
  92.05 19.3003 20
  100.0183 5.0554 5
  107.0359 6.1541 6
  108.0205 6.5391 6
  109.9967 11.7044 12
  112.0179 27.3468 29
  113.013 9.2269 9
  113.025 5.4405 5
  114.0216 12.4914 13
  114.0325 16.0387 17
  115.0288 14.8449 15
  116.0128 6.5204 6
  125.0127 13.5199 14
  126.0331 24.1925 25
  127.0294 27.6488 29
  128.0125 15.4695 16
  128.0362 8.316 8
  129.0208 12.3733 13
  131.0357 12.7924 13
  132.0206 34.6602 36
  136.0267 7.0146 7
  137.034 27.0595 28
  138.0201 19.1921 20
  139.0291 332.6805 353
  140.0365 144.2941 153
  141.0122 21.7953 23
  141.0442 7.5254 7
  142.0285 49.7982 52
  143.0244 38.7234 41
  144.0082 13.6845 14
  144.0312 15.5581 16
  145.0047 7.8789 8
  146.0231 15.4533 16
  152.0233 9.4069 9
  153.0305 8.252 8
  154.0161 43.7279 46
  155.0244 42.8344 45
  156.0315 153.0207 162
  157.0163 15.298 16
  158.0228 12.6152 13
  159.0294 13.0554 13
  167.0235 185.0246 196
  167.9887 21.6129 22
  168.0297 110.6959 117
  169.0029 35.4486 37
  169.0248 21.6393 22
  171.021 46.7892 49
  172.026 20.167 21
  179.01 17.202 18
  180.0189 21.9043 23
  181.0264 36.5048 38
  182.0096 30.3958 32
  182.0325 11.8154 12
  183.0184 159.5705 169
  184.0254 20.5757 21
  194.9979 78.1377 82
  195.9834 9.37 9
  196.0128 24.939 26
  197.0214 8.646 9
  203.0609 5.3339 5
  206.9972 10.9121 11
  217.0503 11.9474 12
  218.0587 20.8906 22
  219.0549 8.216 8
  219.9926 6.3597 6
  221.9847 29.0391 30
  222.9918 32.746 34
  230.053 28.3006 30
  231.0564 17.9792 19
  232.0588 5.6839 6
  233.0471 12.7345 13
  234.0536 12.6492 13
  234.9935 14.4349 15
  235.0553 5.4514 5
  235.9886 9.6145 10
  242.047 8.5512 9
  246.0511 24.0253 25
  246.9792 52.9835 56
  247.0511 7.8614 8
  248.0549 7.0471 7
  258.0419 15.4148 16
  259.0493 40.1181 42
  260.0543 17.9988 19
  260.984 9.2616 9
  274.0359 5.7142 6
  275.0455 6.4894 6
  276.0487 7.9683 8
  310.0148 12.3556 13
//
