ACCESSION: MSBNK-BAFG-CSL25010627915
RECORD_TITLE: 2-[(4-hydroxy-9,10-dioxoanthracen-1-yl)amino]-5-methylbenzenesulfonic acid; LC-ESI-QTOF; MS2; 80 V
DATE: 2025.01.06
AUTHORS: Ole Lessmann; Kevin S. Jewell; Björn Ehlig; Arne Wick
LICENSE: dl-de/by-2-0
COPYRIGHT: Copyright 2025 Federal Institute of Hydrology, Koblenz, Germany
COMMENT: CONFIDENCE Reference Standard (Level 1)
COMMENT: Chromatography method: dx.doi.org/10.1016/j.chroma.2015.11.014
COMMENT: Acquisition method: 10.1002/rcm.8541
CH$NAME: 2-[(4-hydroxy-9,10-dioxoanthracen-1-yl)amino]-5-methylbenzenesulfonic acid
CH$FORMULA: C21H15NO6S
CH$EXACT_MASS: 409.062
CH$SMILES: CC1=CC(=C(C=C1)NC2=C3C(=C(C=C2)O)C(=O)C4=CC=CC=C4C3=O)S(=O)(=O)O
CH$IUPAC: InChI=1S/C21H15NO6S/c1-11-6-7-14(17(10-11)29(26,27)28)22-15-8-9-16(23)19-18(15)20(24)12-4-2-3-5-13(12)21(19)25/h2-10,22-23H,1H3,(H,26,27,28)
CH$LINK: CAS 3443-92-3
CH$LINK: INCHIKEY XXQVCGHGQCAKKA-UHFFFAOYSA-N
AC$INSTRUMENT: TripleTOF X500R SCIEX
AC$INSTRUMENT_TYPE: LC-ESI-QTOF
AC$MASS_SPECTROMETRY: MS_TYPE MS2
AC$MASS_SPECTROMETRY: ION_MODE NEGATIVE
AC$MASS_SPECTROMETRY: COLLISION_ENERGY 80
AC$MASS_SPECTROMETRY: FRAGMENTATION_MODE CID
AC$MASS_SPECTROMETRY: IONIZATION ESI
AC$CHROMATOGRAPHY: COLUMN_NAME Zorbax Eclipse Plus C18 2.1 mm x 150 mm, 3.5 um, Agilent
AC$CHROMATOGRAPHY: COLUMN_TEMPERATURE 40 °C
AC$CHROMATOGRAPHY: FLOW_GRADIENT 0 min min 98% A, 1 min 98% A, 2 min 80% A, 16.5 min 2% A, 22 min 2% A, 22.1 min 98% A, 27 min 98% A
AC$CHROMATOGRAPHY: FLOW_RATE 0.3 mL/min
AC$CHROMATOGRAPHY: RETENTION_TIME 11.683 min
AC$CHROMATOGRAPHY: SOLVENT A: Water 0.1% Formic acid, B: Acetonitrile 0.1% Formic acid
MS$FOCUSED_ION: PRECURSOR_M/Z 408.0547
MS$FOCUSED_ION: PRECURSOR_TYPE [M-H]-
MS$DATA_PROCESSING: COMMENT Export with pycsl 0.1.0.dev1 and CSL 24.4
PK$SPLASH: splash10-004i-9562000000-322bf033fc0363dba158
PK$NUM_PEAK: 23
PK$PEAK: m/z int. rel.int.
  79.9573 14.4 999
  80.9659 1.1 76
  101.04 0.8 55
  120.0471 0.7 48
  121.0538 0.6 41
  132.0456 1.6 111
  167.0513 1.1 76
  184.01 3.4 235
  195.0454 0.7 48
  209.0527 1.2 83
  210.0318 2.9 201
  211.0411 1.6 111
  279.0669 0.4 27
  281.0929 0.8 55
  282.0925 1.2 83
  283.0675 0.7 48
  296.0709 0.5 34
  297.0772 0.8 55
  298.0894 0.4 27
  308.0755 1.3 90
  309.0815 1.0 69
  310.0835 0.9 62
  326.0893 0.6 41
//