ACCESSION: MSBNK-BAFG-CSL2310308379
RECORD_TITLE: Flecainide meta-O-dealkylated; LC-ESI-QTOF; MS2; 10 V
DATE: 2023.10.30
AUTHORS: Kevin S. Jewell; Björn Ehlig; Arne Wick
LICENSE: dl-de/by-2-0
COPYRIGHT: Copyright 2023 Federal Institute of Hydrology, Koblenz, Germany
COMMENT: CONFIDENCE Reference Standard (Level 1)
COMMENT: Chromatography method: dx.doi.org/10.1016/j.chroma.2015.11.014
COMMENT: Acquisition method: 10.1002/rcm.8541
CH$NAME: Flecainide meta-O-dealkylated
CH$COMPOUND_CLASS: Pharmaceutical; Transformation_product
CH$FORMULA: C15H19F3N2O3
CH$EXACT_MASS: 332.1348
CH$SMILES: C1CCNC(C1)CNC(=O)C2=C(C=CC(=C2)O)OCC(F)(F)F
CH$IUPAC: InChI=1S/C15H19F3N2O3/c16-15(17,18)9-23-13-5-4-11(21)7-12(13)14(22)20-8-10-3-1-2-6-19-10/h4-5,7,10,19,21H,1-3,6,8-9H2,(H,20,22)
CH$LINK: CAS 83526-33-4
CH$LINK: INCHIKEY FVJPPEWHZCSTAC-UHFFFAOYSA-N
AC$INSTRUMENT: TripleTOF 5600 SCIEX
AC$INSTRUMENT_TYPE: LC-ESI-QTOF
AC$MASS_SPECTROMETRY: MS_TYPE MS2
AC$MASS_SPECTROMETRY: ION_MODE POSITIVE
AC$MASS_SPECTROMETRY: COLLISION_ENERGY 10
AC$MASS_SPECTROMETRY: FRAGMENTATION_MODE CID
AC$MASS_SPECTROMETRY: IONIZATION ESI
AC$CHROMATOGRAPHY: COLUMN_NAME Zorbax Eclipse Plus C18 2.1 mm x 150 mm, 3.5 um, Agilent
AC$CHROMATOGRAPHY: COLUMN_TEMPERATURE 40 °C
AC$CHROMATOGRAPHY: FLOW_GRADIENT 0 min min 98% A, 1 min 98% A, 2 min 80% A, 16.5 min 2% A, 22 min 2% A, 22.1 min 98% A, 27 min 98% A
AC$CHROMATOGRAPHY: FLOW_RATE 0.3 mL/min
AC$CHROMATOGRAPHY: RETENTION_TIME 5.586 min
AC$CHROMATOGRAPHY: SOLVENT A: Water 0.1% Formic acid, B: Acetonitrile 0.1% Formic acid
MS$FOCUSED_ION: PRECURSOR_M/Z 333.1421
MS$FOCUSED_ION: PRECURSOR_TYPE [M+H]+
MS$DATA_PROCESSING: COMMENT Export with Spectra 1.9.12 MsBackendMassbank 1.7.4
MS$DATA_PROCESSING: WHOLE RMassBank 2.3.1
PK$SPLASH: splash10-001i-0009000000-59387c27e15c23049fe7
PK$NUM_PEAK: 3
PK$PEAK: m/z int. rel.int.
  316.109 61 58
  332.0863 30.7 29
  333.1349 1044.1 999
//
