ACCESSION: MSBNK-BAFG-CSL2311096552
RECORD_TITLE: Clopidogrel; LC-ESI-QTOF; MS2; 90 V
DATE: 2023.11.09
AUTHORS: Kevin S. Jewell; Björn Ehlig; Arne Wick
LICENSE: dl-de/by-2-0
COPYRIGHT: Copyright 2023 Federal Institute of Hydrology, Koblenz, Germany
COMMENT: CONFIDENCE Reference Standard (Level 1)
COMMENT: Chromatography method: dx.doi.org/10.1016/j.chroma.2015.11.014
COMMENT: Acquisition method: 10.1002/rcm.8541
CH$NAME: Clopidogrel
CH$COMPOUND_CLASS: Pharmaceutical
CH$FORMULA: C16H16ClNO2S
CH$EXACT_MASS: 321.059
CH$SMILES: COC(=O)C(c1ccccc1Cl)N2CCc3c(ccs3)C2
CH$IUPAC: InChI=1S/C16H16ClNO2S/c1-20-16(19)15(12-4-2-3-5-13(12)17)18-8-6-14-11(10-18)7-9-21-14/h2-5,7,9,15H,6,8,10H2,1H3
CH$LINK: CAS 90055-48-4
CH$LINK: INCHIKEY GKTWGGQPFAXNFI-UHFFFAOYSA-N
AC$INSTRUMENT: TripleTOF 5600 SCIEX
AC$INSTRUMENT_TYPE: LC-ESI-QTOF
AC$MASS_SPECTROMETRY: MS_TYPE MS2
AC$MASS_SPECTROMETRY: ION_MODE POSITIVE
AC$MASS_SPECTROMETRY: COLLISION_ENERGY 90
AC$MASS_SPECTROMETRY: FRAGMENTATION_MODE CID
AC$MASS_SPECTROMETRY: IONIZATION ESI
AC$CHROMATOGRAPHY: COLUMN_NAME Zorbax Eclipse Plus C18 2.1 mm x 150 mm, 3.5 um, Agilent
AC$CHROMATOGRAPHY: COLUMN_TEMPERATURE 40 °C
AC$CHROMATOGRAPHY: FLOW_GRADIENT 0 min min 98% A, 1 min 98% A, 2 min 80% A, 16.5 min 2% A, 22 min 2% A, 22.1 min 98% A, 27 min 98% A
AC$CHROMATOGRAPHY: FLOW_RATE 0.3 mL/min
AC$CHROMATOGRAPHY: RETENTION_TIME 12.465 min
AC$CHROMATOGRAPHY: SOLVENT A: Water 0.1% Formic acid, B: Acetonitrile 0.1% Formic acid
MS$FOCUSED_ION: PRECURSOR_M/Z 322.0663
MS$FOCUSED_ION: PRECURSOR_TYPE [M+H]+
MS$DATA_PROCESSING: COMMENT Export with Spectra 1.9.12 MsBackendMassbank 1.7.4
MS$DATA_PROCESSING: WHOLE RMassBank 2.3.1
PK$SPLASH: splash10-004r-8900000000-e2a42b14e0555bb14d8b
PK$NUM_PEAK: 23
PK$PEAK: m/z int. rel.int.
  45.0417 6 58
  51.0299 18.5 181
  65.0432 26.7 262
  72.987 2.6 25
  74.0181 3.6 35
  75.0259 8.8 86
  76.0335 1.3 12
  77.0424 91.5 899
  89.0408 36.7 360
  90.048 13.1 128
  91.0567 73.5 722
  92.0637 2.4 23
  99.0004 19.8 194
  105.0344 29.9 293
  111.0006 50.3 494
  112.0078 16.1 158
  117.0572 3.6 35
  125.0163 101.6 999
  125.0511 1.2 11
  133.0289 14.8 145
  138.9956 95.8 941
  140.0022 3.2 31
  155.0264 22.7 223
//
