ACCESSION: MSBNK-BAFG-CSL231026497
RECORD_TITLE: Tetrapentylammonium; LC-ESI-QTOF; MS2; 70 V
DATE: 2023.10.26
AUTHORS: Kevin S. Jewell; Björn Ehlig; Arne Wick
LICENSE: dl-de/by-2-0
COPYRIGHT: Copyright 2023 Federal Institute of Hydrology, Koblenz, Germany
COMMENT: CONFIDENCE Reference Standard (Level 1)
COMMENT: Chromatography method: dx.doi.org/10.1016/j.chroma.2015.11.014
COMMENT: Acquisition method: 10.1002/rcm.8541
CH$NAME: Tetrapentylammonium
CH$COMPOUND_CLASS: Industrial_process
CH$FORMULA: [C20H44N]+
CH$EXACT_MASS: 298.3468
CH$SMILES: CCCCC[N+](CCCCC)(CCCCC)CCCCC
CH$IUPAC: InChI=1S/C20H44N/c1-5-9-13-17-21(18-14-10-6-2,19-15-11-7-3)20-16-12-8-4/h5-20H2,1-4H3/q+1
CH$LINK: CAS 15959-61-2
CH$LINK: INCHIKEY GJSGYPDDPQRWPK-UHFFFAOYSA-N
AC$INSTRUMENT: TripleTOF 5600 SCIEX
AC$INSTRUMENT_TYPE: LC-ESI-QTOF
AC$MASS_SPECTROMETRY: MS_TYPE MS2
AC$MASS_SPECTROMETRY: ION_MODE POSITIVE
AC$MASS_SPECTROMETRY: COLLISION_ENERGY 70
AC$MASS_SPECTROMETRY: FRAGMENTATION_MODE CID
AC$MASS_SPECTROMETRY: IONIZATION ESI
AC$CHROMATOGRAPHY: COLUMN_NAME Zorbax Eclipse Plus C18 2.1 mm x 150 mm, 3.5 um, Agilent
AC$CHROMATOGRAPHY: COLUMN_TEMPERATURE 40 °C
AC$CHROMATOGRAPHY: FLOW_GRADIENT 0 min min 98% A, 1 min 98% A, 2 min 80% A, 16.5 min 2% A, 22 min 2% A, 22.1 min 98% A, 27 min 98% A
AC$CHROMATOGRAPHY: FLOW_RATE 0.3 mL/min
AC$CHROMATOGRAPHY: RETENTION_TIME 11.279 min
AC$CHROMATOGRAPHY: SOLVENT A: Water 0.1% Formic acid, B: Acetonitrile 0.1% Formic acid
MS$FOCUSED_ION: PRECURSOR_M/Z 298.3468
MS$FOCUSED_ION: PRECURSOR_TYPE [M]+
MS$DATA_PROCESSING: COMMENT Export with Spectra 1.9.12 MsBackendMassbank 1.7.4
MS$DATA_PROCESSING: WHOLE RMassBank 2.3.1
PK$SPLASH: splash10-0a4i-9200000000-d40d448337ff5e858556
PK$NUM_PEAK: 2
PK$PEAK: m/z int. rel.int.
  58.0705 62.1 999
  114.1277 14.6 234
//
