ACCESSION: MSBNK-BAFG-CSL23102618790
RECORD_TITLE: Kresoxim-methyl; LC-ESI-QTOF; MS2; 20 V
DATE: 2023.10.26
AUTHORS: Kevin S. Jewell; Björn Ehlig; Arne Wick
LICENSE: dl-de/by-2-0
COPYRIGHT: Copyright 2023 Federal Institute of Hydrology, Koblenz, Germany
COMMENT: CONFIDENCE Reference Standard (Level 1)
COMMENT: Chromatography method: dx.doi.org/10.1016/j.chroma.2015.11.014
COMMENT: Acquisition method: 10.1002/rcm.8541
CH$NAME: Kresoxim-methyl
CH$COMPOUND_CLASS: Fungicide
CH$FORMULA: C18H19NO4
CH$EXACT_MASS: 313.1314
CH$SMILES: CC1=CC=CC=C1OCC2=CC=CC=C2C(=NOC)C(=O)OC
CH$IUPAC: InChI=1S/C18H19NO4/c1-13-8-4-7-11-16(13)23-12-14-9-5-6-10-15(14)17(19-22-3)18(20)21-2/h4-11H,12H2,1-3H3
CH$LINK: CAS 143390-89-0
CH$LINK: INCHIKEY ZOTBXTZVPHCKPN-UHFFFAOYSA-N
AC$INSTRUMENT: TripleTOF 6600 SCIEX
AC$INSTRUMENT_TYPE: LC-ESI-QTOF
AC$MASS_SPECTROMETRY: MS_TYPE MS2
AC$MASS_SPECTROMETRY: ION_MODE POSITIVE
AC$MASS_SPECTROMETRY: COLLISION_ENERGY 20
AC$MASS_SPECTROMETRY: FRAGMENTATION_MODE CID
AC$MASS_SPECTROMETRY: IONIZATION ESI
AC$CHROMATOGRAPHY: COLUMN_NAME Zorbax Eclipse Plus C18 2.1 mm x 150 mm, 3.5 um, Agilent
AC$CHROMATOGRAPHY: COLUMN_TEMPERATURE 40 °C
AC$CHROMATOGRAPHY: FLOW_GRADIENT 0 min min 98% A, 1 min 98% A, 2 min 80% A, 16.5 min 2% A, 22 min 2% A, 22.1 min 98% A, 27 min 98% A
AC$CHROMATOGRAPHY: FLOW_RATE 0.3 mL/min
AC$CHROMATOGRAPHY: RETENTION_TIME 13.809 min
AC$CHROMATOGRAPHY: SOLVENT A: Water 0.1% Formic acid, B: Acetonitrile 0.1% Formic acid
MS$FOCUSED_ION: PRECURSOR_M/Z 314.1387
MS$FOCUSED_ION: PRECURSOR_TYPE [M+H]+
MS$DATA_PROCESSING: COMMENT Export with Spectra 1.9.12 MsBackendMassbank 1.7.4
MS$DATA_PROCESSING: WHOLE RMassBank 2.3.1
PK$SPLASH: splash10-00dr-0190000000-cc3d40b63803affec9ac
PK$NUM_PEAK: 30
PK$PEAK: m/z int. rel.int.
  116.0478 25.1 116
  121.0638 3.3 15
  131.0711 12.6 58
  132.0808 10.9 50
  135.0429 2.7 12
  146.0581 11.7 54
  162.089 4.1 19
  179.0847 5.2 24
  180.082 2.9 13
  181.098 2.9 13
  193.0983 6.9 32
  194.0735 2.6 12
  194.0938 12.6 58
  195.1034 9.2 42
  206.0802 7.2 33
  207.079 8.9 41
  207.1015 4.3 19
  208.0866 18.1 84
  209.0966 4.8 22
  210.1268 9.6 44
  222.0905 215.2 999
  223.0986 86 399
  224.1061 3.6 16
  235.0744 108.5 503
  236.0805 2.2 10
  238.1213 61 283
  250.0857 25.3 117
  254.118 34.2 158
  267.1019 42.2 195
  282.1133 37.7 175
//
