ACCESSION: MSBNK-BAFG-CSL231109280
RECORD_TITLE: Bephenium; LC-ESI-QTOF; MS2; 130 V
DATE: 2023.11.09
AUTHORS: Kevin S. Jewell; Björn Ehlig; Arne Wick
LICENSE: dl-de/by-2-0
COPYRIGHT: Copyright 2023 Federal Institute of Hydrology, Koblenz, Germany
COMMENT: CONFIDENCE Reference Standard (Level 1)
COMMENT: Chromatography method: dx.doi.org/10.1016/j.chroma.2015.11.014
COMMENT: Acquisition method: 10.1002/rcm.8541
CH$NAME: Bephenium
CH$COMPOUND_CLASS: Pharmaceutical
CH$FORMULA: [C17H22NO]+
CH$EXACT_MASS: 256.1696
CH$SMILES: C[N+](C)(CCOc1ccccc1)Cc2ccccc2
CH$IUPAC: InChI=1S/C17H22NO/c1-18(2,15-16-9-5-3-6-10-16)13-14-19-17-11-7-4-8-12-17/h3-12H,13-15H2,1-2H3/q+1
CH$LINK: CAS 7181-73-9
CH$LINK: INCHIKEY AVWWVJUMXRXPNF-UHFFFAOYSA-N
AC$INSTRUMENT: TripleTOF 5600 SCIEX
AC$INSTRUMENT_TYPE: LC-ESI-QTOF
AC$MASS_SPECTROMETRY: MS_TYPE MS2
AC$MASS_SPECTROMETRY: ION_MODE POSITIVE
AC$MASS_SPECTROMETRY: COLLISION_ENERGY 130
AC$MASS_SPECTROMETRY: FRAGMENTATION_MODE CID
AC$MASS_SPECTROMETRY: IONIZATION ESI
AC$CHROMATOGRAPHY: COLUMN_NAME Zorbax Eclipse Plus C18 2.1 mm x 150 mm, 3.5 um, Agilent
AC$CHROMATOGRAPHY: COLUMN_TEMPERATURE 40 °C
AC$CHROMATOGRAPHY: FLOW_GRADIENT 0 min min 98% A, 1 min 98% A, 2 min 80% A, 16.5 min 2% A, 22 min 2% A, 22.1 min 98% A, 27 min 98% A
AC$CHROMATOGRAPHY: FLOW_RATE 0.3 mL/min
AC$CHROMATOGRAPHY: RETENTION_TIME 7.137 min
AC$CHROMATOGRAPHY: SOLVENT A: Water 0.1% Formic acid, B: Acetonitrile 0.1% Formic acid
MS$FOCUSED_ION: PRECURSOR_M/Z 256.1696
MS$FOCUSED_ION: PRECURSOR_TYPE [M]+
MS$DATA_PROCESSING: COMMENT Export with Spectra 1.9.12 MsBackendMassbank 1.7.4
MS$DATA_PROCESSING: WHOLE RMassBank 2.3.1
PK$SPLASH: splash10-014i-9000000000-b3238a47312bf9eb76df
PK$NUM_PEAK: 4
PK$PEAK: m/z int. rel.int.
  51.0279 5.1 155
  58.0699 3.5 106
  65.0419 32.8 999
  91.0538 13.6 414
//
