ACCESSION: MSBNK-BAFG-CSL2311108114
RECORD_TITLE: Voriconazole-N-oxide; LC-ESI-QTOF; MS2; 110 V
DATE: 2023.11.10
AUTHORS: Kevin S. Jewell; Björn Ehlig; Arne Wick
LICENSE: dl-de/by-2-0
COPYRIGHT: Copyright 2023 Federal Institute of Hydrology, Koblenz, Germany
COMMENT: CONFIDENCE Reference Standard (Level 1)
COMMENT: Chromatography method: dx.doi.org/10.1016/j.chroma.2015.11.014
COMMENT: Acquisition method: 10.1002/rcm.8541
CH$NAME: Voriconazole-N-oxide
CH$COMPOUND_CLASS: Metabolite; Pharmaceutical
CH$FORMULA: C16H14F3N5O2
CH$EXACT_MASS: 365.11
CH$SMILES: CC(C1=NC=[N+](C=C1F)[O-])C(CN2C=NC=N2)(C3=C(C=C(C=C3)F)F)O
CH$IUPAC: InChI=1S/C16H14F3N5O2/c1-10(15-14(19)5-24(26)9-21-15)16(25,6-23-8-20-7-22-23)12-3-2-11(17)4-13(12)18/h2-5,7-10,25H,6H2,1H3
CH$LINK: CAS 618109-05-0
CH$LINK: INCHIKEY KPLFPLUCFPRUHU-UHFFFAOYSA-N
AC$INSTRUMENT: TripleTOF 5600 SCIEX
AC$INSTRUMENT_TYPE: LC-ESI-QTOF
AC$MASS_SPECTROMETRY: MS_TYPE MS2
AC$MASS_SPECTROMETRY: ION_MODE POSITIVE
AC$MASS_SPECTROMETRY: COLLISION_ENERGY 110
AC$MASS_SPECTROMETRY: FRAGMENTATION_MODE CID
AC$MASS_SPECTROMETRY: IONIZATION ESI
AC$CHROMATOGRAPHY: COLUMN_NAME Zorbax Eclipse Plus C18 2.1 mm x 150 mm, 3.5 um, Agilent
AC$CHROMATOGRAPHY: COLUMN_TEMPERATURE 40 °C
AC$CHROMATOGRAPHY: FLOW_GRADIENT 0 min min 98% A, 1 min 98% A, 2 min 80% A, 16.5 min 2% A, 22 min 2% A, 22.1 min 98% A, 27 min 98% A
AC$CHROMATOGRAPHY: FLOW_RATE 0.3 mL/min
AC$CHROMATOGRAPHY: RETENTION_TIME 7.739 min
AC$CHROMATOGRAPHY: SOLVENT A: Water 0.1% Formic acid, B: Acetonitrile 0.1% Formic acid
MS$FOCUSED_ION: PRECURSOR_M/Z 366.1172
MS$FOCUSED_ION: PRECURSOR_TYPE [M+H]+
MS$DATA_PROCESSING: COMMENT Export with Spectra 1.9.12 MsBackendMassbank 1.7.4
MS$DATA_PROCESSING: WHOLE RMassBank 2.3.1
PK$SPLASH: splash10-004i-3900000000-dd8d3cabf75b2c8f14f6
PK$NUM_PEAK: 33
PK$PEAK: m/z int. rel.int.
  51.0086 0.6 27
  51.0292 0.8 36
  52.0235 0.8 36
  55.0333 0.7 31
  57.0162 2 91
  70.0427 0.8 36
  71.0198 1.4 63
  71.0303 0.7 31
  72.0263 0.6 27
  75.0068 2 91
  77.0224 2.5 114
  77.0399 3.3 150
  78.0373 1.1 50
  81.0159 2.9 132
  82.0423 0.8 36
  83.0298 0.8 36
  95.0607 0.4 18
  96.0245 0.4 18
  97.0186 0.9 41
  97.0348 0.7 31
  98.0284 1.1 50
  98.0396 1.3 59
  99.0341 0.9 41
  101.0199 18.5 843
  105.045 1.2 54
  107.0287 11.9 542
  107.0621 0.5 22
  113.0215 0.7 31
  125.0233 0.4 18
  125.0504 21.9 999
  126.0582 1.4 63
  127.0348 20.7 944
  141.0157 0.8 36
//
