ACCESSION: MSBNK-BAFG-CSL2310252238
RECORD_TITLE: Atrazine-desisopropyl-2-hydroxy; LC-ESI-QTOF; MS2; 140 V
DATE: 2023.10.25
AUTHORS: Kevin S. Jewell; Björn Ehlig; Arne Wick
LICENSE: dl-de/by-2-0
COPYRIGHT: Copyright 2023 Federal Institute of Hydrology, Koblenz, Germany
COMMENT: CONFIDENCE Reference Standard (Level 1)
COMMENT: Chromatography method: dx.doi.org/10.1016/j.chroma.2015.11.014
COMMENT: Acquisition method: 10.1002/rcm.8541
CH$NAME: Atrazine-desisopropyl-2-hydroxy
CH$COMPOUND_CLASS: Herbicide; Transformation_product
CH$FORMULA: C5H9N5O
CH$EXACT_MASS: 155.0807
CH$SMILES: CCNC1=NC(=O)N=C(N)N1
CH$IUPAC: InChI=1S/C5H9N5O/c1-2-7-4-8-3(6)9-5(11)10-4/h2H2,1H3,(H4,6,7,8,9,10,11)
CH$LINK: CAS 7313-54-4
CH$LINK: INCHIKEY XRVCXZWINJOORX-UHFFFAOYSA-N
AC$INSTRUMENT: TripleTOF 5600 SCIEX
AC$INSTRUMENT_TYPE: LC-ESI-QTOF
AC$MASS_SPECTROMETRY: MS_TYPE MS2
AC$MASS_SPECTROMETRY: ION_MODE NEGATIVE
AC$MASS_SPECTROMETRY: COLLISION_ENERGY 140
AC$MASS_SPECTROMETRY: FRAGMENTATION_MODE CID
AC$MASS_SPECTROMETRY: IONIZATION ESI
AC$CHROMATOGRAPHY: COLUMN_NAME Zorbax Eclipse Plus C18 2.1 mm x 150 mm, 3.5 um, Agilent
AC$CHROMATOGRAPHY: COLUMN_TEMPERATURE 40 °C
AC$CHROMATOGRAPHY: FLOW_GRADIENT 0 min min 98% A, 1 min 98% A, 2 min 80% A, 16.5 min 2% A, 22 min 2% A, 22.1 min 98% A, 27 min 98% A
AC$CHROMATOGRAPHY: FLOW_RATE 0.3 mL/min
AC$CHROMATOGRAPHY: RETENTION_TIME 2.315 min
AC$CHROMATOGRAPHY: SOLVENT A: Water 0.1% Formic acid, B: Acetonitrile 0.1% Formic acid
MS$FOCUSED_ION: PRECURSOR_M/Z 154.0734
MS$FOCUSED_ION: PRECURSOR_TYPE [M-H]-
MS$DATA_PROCESSING: COMMENT Export with Spectra 1.9.12 MsBackendMassbank 1.7.4
MS$DATA_PROCESSING: WHOLE RMassBank 2.3.1
PK$SPLASH: splash10-0006-9000000000-cbb05e162dbbb03fe27d
PK$NUM_PEAK: 8
PK$PEAK: m/z int. rel.int.
  40.0099 0.1 199
  40.0186 0.1 199
  41.0184 0.5 999
  41.028 0.1 199
  42.0019 0.2 399
  42.0091 0.1 199
  42.0176 0.1 199
  66.0099 0.3 599
//
