ACCESSION: MSBNK-BAFG-CSL23110910872
RECORD_TITLE: Beclomethasone; LC-ESI-QTOF; MS2; 20 V
DATE: 2023.11.09
AUTHORS: Kevin S. Jewell; Björn Ehlig; Arne Wick
LICENSE: dl-de/by-2-0
COPYRIGHT: Copyright 2023 Federal Institute of Hydrology, Koblenz, Germany
COMMENT: CONFIDENCE Reference Standard (Level 1)
COMMENT: Chromatography method: dx.doi.org/10.1016/j.chroma.2015.11.014
COMMENT: Acquisition method: 10.1002/rcm.8541
CH$NAME: Beclomethasone
CH$COMPOUND_CLASS: Pharmaceutical
CH$FORMULA: C22H29ClO5
CH$EXACT_MASS: 408.1704
CH$SMILES: CC1CC2C3CCC4=CC(=O)C=CC4(C3(C(CC2(C1(C(=O)CO)O)C)O)Cl)C
CH$IUPAC: InChI=1S/C22H29ClO5/c1-12-8-16-15-5-4-13-9-14(25)6-7-19(13,2)21(15,23)17(26)10-20(16,3)22(12,28)18(27)11-24/h6-7,9,12,15-17,24,26,28H,4-5,8,10-11H2,1-3H3
CH$LINK: CAS 4419-39-0
CH$LINK: INCHIKEY NBMKJKDGKREAPL-UHFFFAOYSA-N
AC$INSTRUMENT: TripleTOF 5600 SCIEX
AC$INSTRUMENT_TYPE: LC-ESI-QTOF
AC$MASS_SPECTROMETRY: MS_TYPE MS2
AC$MASS_SPECTROMETRY: ION_MODE POSITIVE
AC$MASS_SPECTROMETRY: COLLISION_ENERGY 20
AC$MASS_SPECTROMETRY: FRAGMENTATION_MODE CID
AC$MASS_SPECTROMETRY: IONIZATION ESI
AC$CHROMATOGRAPHY: COLUMN_NAME Zorbax Eclipse Plus C18 2.1 mm x 150 mm, 3.5 um, Agilent
AC$CHROMATOGRAPHY: COLUMN_TEMPERATURE 40 °C
AC$CHROMATOGRAPHY: FLOW_GRADIENT 0 min min 98% A, 1 min 98% A, 2 min 80% A, 16.5 min 2% A, 22 min 2% A, 22.1 min 98% A, 27 min 98% A
AC$CHROMATOGRAPHY: FLOW_RATE 0.3 mL/min
AC$CHROMATOGRAPHY: RETENTION_TIME 9.326 min
AC$CHROMATOGRAPHY: SOLVENT A: Water 0.1% Formic acid, B: Acetonitrile 0.1% Formic acid
MS$FOCUSED_ION: PRECURSOR_M/Z 409.1776
MS$FOCUSED_ION: PRECURSOR_TYPE [M+H]+
MS$DATA_PROCESSING: COMMENT Export with Spectra 1.9.12 MsBackendMassbank 1.7.4
MS$DATA_PROCESSING: WHOLE RMassBank 2.3.1
PK$SPLASH: splash10-0006-0029000000-2cafede1e4b3d52dee59
PK$NUM_PEAK: 31
PK$PEAK: m/z int. rel.int.
  101.0597 1.1 13
  121.0637 0.8 10
  135.079 0.8 10
  147.0815 2.2 27
  169.087 0.9 11
  171.0807 1 12
  185.0963 0.9 11
  215.1081 0.9 11
  235.113 1 12
  237.1271 2 25
  239.1466 2.1 26
  249.1268 0.8 10
  263.1408 2.4 30
  275.1467 1.4 17
  277.161 3.6 45
  278.1666 1.2 15
  279.1732 7.4 94
  291.1749 4.2 53
  295.1722 1.8 22
  297.1843 1.5 19
  301.1589 2.2 27
  307.1707 2.1 26
  309.1872 2.1 26
  319.1686 8 101
  337.1818 9.1 115
  355.1551 1.3 16
  355.1867 9.7 123
  373.1611 2 25
  373.2011 6 76
  391.168 78.6 999
  409.1763 6.3 80
//
