ACCESSION: MSBNK-BAFG-CSL25011734578
RECORD_TITLE: Amido Black 10B; LC-ESI-QTOF; MS2; 140 V
DATE: 2025.01.17
AUTHORS: Ole Lessmann; Kevin S. Jewell; Björn Ehlig; Arne Wick
LICENSE: dl-de/by-2-0
COPYRIGHT: Copyright 2025 Federal Institute of Hydrology, Koblenz, Germany
COMMENT: CONFIDENCE Reference Standard (Level 1)
COMMENT: Chromatography method: dx.doi.org/10.1016/j.chroma.2015.11.014
CH$NAME: Amido Black 10B
CH$FORMULA: C22H16N6O9S2
CH$EXACT_MASS: 572.042
CH$SMILES: C1=CC=C(C=C1)N=NC2=C(C3=C(C(=C(C=C3C=C2S(=O)(=O)O)S(=O)(=O)O)N=NC4=CC=C(C=C4)[N+](=O)[O-])N)O
CH$IUPAC: InChI=1S/C22H16N6O9S2/c23-19-18-12(11-17(39(35,36)37)21(22(18)29)27-24-13-4-2-1-3-5-13)10-16(38(32,33)34)20(19)26-25-14-6-8-15(9-7-14)28(30)31/h1-11,29H,23H2,(H,32,33,34)(H,35,36,37)
CH$LINK: CAS 3121-74-2
CH$LINK: INCHIKEY HKJKONMZMPUGHJ-UHFFFAOYSA-N
AC$INSTRUMENT: TripleTOF 6600 SCIEX
AC$INSTRUMENT_TYPE: LC-ESI-QTOF
AC$MASS_SPECTROMETRY: MS_TYPE MS2
AC$MASS_SPECTROMETRY: ION_MODE POSITIVE
AC$MASS_SPECTROMETRY: COLLISION_ENERGY 140
AC$MASS_SPECTROMETRY: FRAGMENTATION_MODE CID
AC$MASS_SPECTROMETRY: IONIZATION ESI
AC$CHROMATOGRAPHY: COLUMN_NAME Zorbax Eclipse Plus C18 2.1 mm x 150 mm, 3.5 um, Agilent
AC$CHROMATOGRAPHY: COLUMN_TEMPERATURE 40 °C
AC$CHROMATOGRAPHY: FLOW_GRADIENT 0 min min 98% A, 1 min 98% A, 2 min 80% A, 16.5 min 2% A, 22 min 2% A, 22.1 min 98% A, 27 min 98% A
AC$CHROMATOGRAPHY: FLOW_RATE 0.3 mL/min
AC$CHROMATOGRAPHY: RETENTION_TIME 9.552 min
AC$CHROMATOGRAPHY: SOLVENT A: Water 0.1% Formic acid, B: Acetonitrile 0.1% Formic acid
MS$FOCUSED_ION: PRECURSOR_M/Z 573.0493
MS$FOCUSED_ION: PRECURSOR_TYPE [M+H]+
MS$DATA_PROCESSING: COMMENT Export with pycsl 0.1.0.dev1 and CSL 25.0
PK$SPLASH: splash10-014l-9210000000-b3444550271fe67dd00a
PK$NUM_PEAK: 88
PK$PEAK: m/z int. rel.int.
  37.0066 0.7 12
  38.0149 1.0 18
  39.0227 13.2 244
  40.029 0.6 11
  50.0143 1.1 20
  51.0225 4.4 81
  61.0082 0.9 16
  62.0153 1.0 18
  63.0227 6.5 120
  64.0186 0.7 12
  65.0384 53.9 999
  66.0459 21.8 404
  67.0417 1.0 18
  74.0146 4.7 87
  75.0223 18.9 350
  76.0189 1.2 22
  76.0307 3.1 57
  77.0384 9.7 179
  78.0333 2.5 46
  80.0479 1.9 35
  87.0231 1.2 22
  88.0173 1.6 29
  89.0373 1.2 22
  90.0323 4.2 77
  92.0494 16.4 303
  93.0565 48.0 889
  100.0174 1.3 24
  102.0334 5.3 98
  103.0398 1.2 22
  112.0169 1.1 20
  114.0332 5.2 96
  117.047 0.6 11
  125.0136 0.8 14
  125.0382 0.6 11
  129.0449 2.2 40
  138.0346 1.0 18
  139.0317 0.8 14
  139.0507 0.5 9
  140.047 1.0 18
  145.0394 0.7 12
  149.0358 0.7 12
  150.0436 1.4 25
  151.0537 1.7 31
  152.0213 0.6 11
  152.0476 1.4 25
  153.0576 0.6 11
  162.0365 1.5 27
  163.031 0.9 16
  163.046 1.2 22
  164.0339 0.9 16
  164.0493 1.9 35
  165.046 1.2 22
  166.0511 0.6 11
  167.0625 0.6 11
  175.0443 1.3 24
  176.05 3.3 61
  177.0536 3.3 61
  178.0619 0.7 12
  187.0372 1.2 22
  188.0447 3.8 70
  189.0434 3.6 66
  190.0401 0.9 16
  190.065 0.7 12
  191.061 1.7 31
  193.0776 0.7 12
  201.0443 1.2 22
  201.0561 0.7 12
  202.0516 1.2 22
  203.0576 2.2 40
  204.0605 1.3 24
  205.0755 1.7 31
  213.0439 0.8 14
  214.0475 1.9 35
  215.0498 2.2 40
  216.0505 1.1 20
  218.0694 0.6 11
  228.0572 0.6 11
  230.0695 3.8 70
  231.0775 0.6 11
  232.0818 0.7 12
  238.058 0.8 14
  242.0603 0.7 12
  243.0793 0.7 12
  255.0647 0.6 11
  276.0638 0.6 11
  280.0871 0.7 12
  305.0711 0.6 11
  316.0809 0.8 14
//
