ACCESSION: MSBNK-BAFG-CSL2310264829
RECORD_TITLE: Nitenpyram; LC-ESI-QTOF; MS2; 50 V
DATE: 2023.10.26
AUTHORS: Kevin S. Jewell; Björn Ehlig; Arne Wick
LICENSE: dl-de/by-2-0
COPYRIGHT: Copyright 2023 Federal Institute of Hydrology, Koblenz, Germany
COMMENT: CONFIDENCE Reference Standard (Level 1)
COMMENT: Chromatography method: dx.doi.org/10.1016/j.chroma.2015.11.014
COMMENT: Acquisition method: 10.1002/rcm.8541
CH$NAME: Nitenpyram
CH$COMPOUND_CLASS: Pharmaceutical; Insecticide
CH$FORMULA: C11H15ClN4O2
CH$EXACT_MASS: 270.0884
CH$SMILES: CCN(Cc1ccc(Cl)nc1)\C(NC)=C\[N+]([O-])=O
CH$IUPAC: InChI=1S/C11H15ClN4O2/c1-3-15(11(13-2)8-16(17)18)7-9-4-5-10(12)14-6-9/h4-6,8,13H,3,7H2,1-2H3/b11-8+
CH$LINK: CAS 150824-47-8
CH$LINK: INCHIKEY CFRPSFYHXJZSBI-DHZHZOJOSA-N
AC$INSTRUMENT: TripleTOF 5600 SCIEX
AC$INSTRUMENT_TYPE: LC-ESI-QTOF
AC$MASS_SPECTROMETRY: MS_TYPE MS2
AC$MASS_SPECTROMETRY: ION_MODE POSITIVE
AC$MASS_SPECTROMETRY: COLLISION_ENERGY 50
AC$MASS_SPECTROMETRY: FRAGMENTATION_MODE CID
AC$MASS_SPECTROMETRY: IONIZATION ESI
AC$CHROMATOGRAPHY: COLUMN_NAME Zorbax Eclipse Plus C18 2.1 mm x 150 mm, 3.5 um, Agilent
AC$CHROMATOGRAPHY: COLUMN_TEMPERATURE 40 °C
AC$CHROMATOGRAPHY: FLOW_GRADIENT 0 min min 98% A, 1 min 98% A, 2 min 80% A, 16.5 min 2% A, 22 min 2% A, 22.1 min 98% A, 27 min 98% A
AC$CHROMATOGRAPHY: FLOW_RATE 0.3 mL/min
AC$CHROMATOGRAPHY: RETENTION_TIME 5.386 min
AC$CHROMATOGRAPHY: SOLVENT A: Water 0.1% Formic acid, B: Acetonitrile 0.1% Formic acid
MS$FOCUSED_ION: PRECURSOR_M/Z 271.0956
MS$FOCUSED_ION: PRECURSOR_TYPE [M+H]+
MS$DATA_PROCESSING: COMMENT Export with Spectra 1.9.12 MsBackendMassbank 1.7.4
MS$DATA_PROCESSING: WHOLE RMassBank 2.3.1
PK$SPLASH: splash10-0a6r-7900000000-67c9529c6f2b5eb726ad
PK$NUM_PEAK: 65
PK$PEAK: m/z int. rel.int.
  42.0474 0.8 16
  55.0361 0.5 10
  56.0562 47.9 999
  57.063 0.5 10
  58.0704 2.4 50
  58.0833 0.5 10
  70.0663 0.5 10
  71.0648 1.1 22
  72.9883 1.6 33
  78.0371 0.7 14
  85.0423 0.7 14
  85.077 0.5 10
  90.0352 7 145
  91.0454 1.8 37
  98.0721 1.3 27
  98.9991 4.1 85
  99.0921 1.8 37
  102.0365 0.9 18
  104.0517 0.8 16
  105.0547 0.7 14
  106.0645 1 20
  111.9941 0.5 10
  114.0109 0.6 12
  116.0495 0.6 12
  117.0575 1.3 27
  119.061 0.6 12
  125.0045 0.7 14
  126.0107 25.4 529
  127.0176 0.8 16
  128.0265 1.2 25
  131.0596 1 20
  132.0677 1 20
  133.0765 1.9 39
  138.0097 2.1 43
  139.0055 2.3 47
  140.0225 0.9 18
  141.0211 3.4 70
  145.0763 1.4 29
  146.0814 1.1 22
  150.0106 1.1 22
  151.0151 1.1 22
  152.0264 2.4 50
  153.0208 1.9 39
  154.0386 0.6 12
  155.0351 1.4 29
  159.0928 0.9 18
  160.086 3.4 70
  161.0971 0.6 12
  165.0217 2.9 60
  166.0161 0.9 18
  167.0352 2.3 47
  169.052 7.2 150
  179.0373 6.4 133
  179.0628 0.5 10
  180.0369 1.7 35
  181.0516 0.9 18
  188.1185 0.8 16
  193.0532 2.1 43
  194.0364 1.8 37
  195.0674 2 41
  196.0629 1 20
  207.0431 1.4 29
  208.0518 0.7 14
  209.0589 0.8 16
  224.0952 3.2 66
//
