ACCESSION: MSBNK-BAFG-CSL23102510553
RECORD_TITLE: Hostavin VSU P; LC-ESI-QTOF; MS2; 40 V
DATE: 2023.10.25
AUTHORS: Kevin S. Jewell; Björn Ehlig; Arne Wick
LICENSE: dl-de/by-2-0
COPYRIGHT: Copyright 2023 Federal Institute of Hydrology, Koblenz, Germany
COMMENT: CONFIDENCE Reference Standard (Level 1)
COMMENT: Chromatography method: dx.doi.org/10.1016/j.chroma.2015.11.014
COMMENT: Acquisition method: 10.1002/rcm.8541
CH$NAME: Hostavin VSU P
CH$FORMULA: C18H20N2O3
CH$EXACT_MASS: 312.1474
CH$SMILES: CCC1=CC=CC=C1NC(=O)C(=O)NC2=CC=CC=C2OCC
CH$IUPAC: InChI=1S/C18H20N2O3/c1-3-13-9-5-6-10-14(13)19-17(21)18(22)20-15-11-7-8-12-16(15)23-4-2/h5-12H,3-4H2,1-2H3,(H,19,21)(H,20,22)
CH$LINK: CAS 23949-66-8
CH$LINK: INCHIKEY YIMHRDBSVCPJOV-UHFFFAOYSA-N
AC$INSTRUMENT: TripleTOF 5600 SCIEX
AC$INSTRUMENT_TYPE: LC-ESI-QTOF
AC$MASS_SPECTROMETRY: MS_TYPE MS2
AC$MASS_SPECTROMETRY: ION_MODE POSITIVE
AC$MASS_SPECTROMETRY: COLLISION_ENERGY 40
AC$MASS_SPECTROMETRY: FRAGMENTATION_MODE CID
AC$MASS_SPECTROMETRY: IONIZATION ESI
AC$CHROMATOGRAPHY: COLUMN_NAME Zorbax Eclipse Plus C18 2.1 mm x 150 mm, 3.5 um, Agilent
AC$CHROMATOGRAPHY: COLUMN_TEMPERATURE 40 °C
AC$CHROMATOGRAPHY: FLOW_GRADIENT 0 min min 98% A, 1 min 98% A, 2 min 80% A, 16.5 min 2% A, 22 min 2% A, 22.1 min 98% A, 27 min 98% A
AC$CHROMATOGRAPHY: FLOW_RATE 0.3 mL/min
AC$CHROMATOGRAPHY: RETENTION_TIME 15.402 min
AC$CHROMATOGRAPHY: SOLVENT A: Water 0.1% Formic acid, B: Acetonitrile 0.1% Formic acid
MS$FOCUSED_ION: PRECURSOR_M/Z 313.1547
MS$FOCUSED_ION: PRECURSOR_TYPE [M+H]+
MS$DATA_PROCESSING: COMMENT Export with Spectra 1.9.12 MsBackendMassbank 1.7.4
MS$DATA_PROCESSING: WHOLE RMassBank 2.3.1
PK$SPLASH: splash10-000i-0900000000-085ae9b052dd23228230
PK$NUM_PEAK: 25
PK$PEAK: m/z int. rel.int.
  65.0398 0.6 23
  77.0394 0.6 23
  80.0488 1 39
  91.0537 0.9 35
  92.0493 1.3 51
  93.0333 1.3 51
  93.0575 0.5 19
  94.0643 1.6 63
  103.0541 1 39
  105.0706 0.8 31
  106.0648 0.9 35
  108.0443 1.9 75
  109.0512 3.7 146
  110.0598 7.6 300
  118.063 1.1 43
  120.0441 2.5 98
  120.0799 6.5 256
  121.0641 0.5 19
  122.0961 4.4 173
  130.0646 9.6 379
  132.0784 1 39
  136.0392 25.3 999
  138.0909 4.5 177
  148.0751 3.2 126
  149.0205 0.5 19
//
