ACCESSION: MSBNK-BAFG-CSL2311093082
RECORD_TITLE: Hydroxyatenolol; LC-ESI-QTOF; MS2; 60 V
DATE: 2023.11.09
AUTHORS: Kevin S. Jewell; Björn Ehlig; Arne Wick
LICENSE: dl-de/by-2-0
COPYRIGHT: Copyright 2023 Federal Institute of Hydrology, Koblenz, Germany
COMMENT: CONFIDENCE Reference Standard (Level 1)
COMMENT: Chromatography method: dx.doi.org/10.1016/j.chroma.2015.11.014
COMMENT: Acquisition method: 10.1002/rcm.8541
CH$NAME: Hydroxyatenolol
CH$COMPOUND_CLASS: Pharmaceutical
CH$FORMULA: C14H22N2O4
CH$EXACT_MASS: 282.158
CH$SMILES: CC(C)NCC(COc1ccc(cc1)C(C(=O)N)O)O
CH$IUPAC: InChI=1S/C14H22N2O4/c1-9(2)16-7-11(17)8-20-12-5-3-10(4-6-12)13(18)14(15)19/h3-6,9,11,13,16-18H,7-8H2,1-2H3,(H2,15,19)
CH$LINK: CAS 68373-10-4
CH$LINK: INCHIKEY GSZUNNBDULASMA-UHFFFAOYSA-N
AC$INSTRUMENT: TripleTOF 5600 SCIEX
AC$INSTRUMENT_TYPE: LC-ESI-QTOF
AC$MASS_SPECTROMETRY: MS_TYPE MS2
AC$MASS_SPECTROMETRY: ION_MODE POSITIVE
AC$MASS_SPECTROMETRY: COLLISION_ENERGY 60
AC$MASS_SPECTROMETRY: FRAGMENTATION_MODE CID
AC$MASS_SPECTROMETRY: IONIZATION ESI
AC$CHROMATOGRAPHY: COLUMN_NAME Zorbax Eclipse Plus C18 2.1 mm x 150 mm, 3.5 um, Agilent
AC$CHROMATOGRAPHY: COLUMN_TEMPERATURE 40 °C
AC$CHROMATOGRAPHY: FLOW_GRADIENT 0 min min 98% A, 1 min 98% A, 2 min 80% A, 16.5 min 2% A, 22 min 2% A, 22.1 min 98% A, 27 min 98% A
AC$CHROMATOGRAPHY: FLOW_RATE 0.3 mL/min
AC$CHROMATOGRAPHY: RETENTION_TIME 3.214 min
AC$CHROMATOGRAPHY: SOLVENT A: Water 0.1% Formic acid, B: Acetonitrile 0.1% Formic acid
MS$FOCUSED_ION: PRECURSOR_M/Z 283.1652
MS$FOCUSED_ION: PRECURSOR_TYPE [M+H]+
MS$DATA_PROCESSING: COMMENT Export with Spectra 1.9.12 MsBackendMassbank 1.7.4
MS$DATA_PROCESSING: WHOLE RMassBank 2.3.1
PK$SPLASH: splash10-05fr-9300000000-a014c51cf8ef83e2af62
PK$NUM_PEAK: 13
PK$PEAK: m/z int. rel.int.
  56.0553 3.8 825
  74.0625 4.6 999
  77.0425 1.6 347
  77.0563 0.4 86
  79.0567 0.9 195
  95.0506 1.5 325
  104.0498 0.5 108
  105.0707 0.5 108
  106.0633 0.5 108
  116.1072 0.6 130
  122.0593 1.8 390
  132.0436 0.5 108
  133.0534 0.5 108
//
