ACCESSION: MSBNK-BAFG-CSL2310307900
RECORD_TITLE: 5-Chlorobenzotriazole; LC-ESI-QTOF; MS2; 50 V
DATE: 2023.10.30
AUTHORS: Kevin S. Jewell; Björn Ehlig; Arne Wick
LICENSE: dl-de/by-2-0
COPYRIGHT: Copyright 2023 Federal Institute of Hydrology, Koblenz, Germany
COMMENT: CONFIDENCE Reference Standard (Level 1)
COMMENT: Chromatography method: dx.doi.org/10.1016/j.chroma.2015.11.014
COMMENT: Acquisition method: 10.1002/rcm.8541
CH$NAME: 5-Chlorobenzotriazole
CH$COMPOUND_CLASS: Industrial_process
CH$FORMULA: C6H4ClN3
CH$EXACT_MASS: 153.0094
CH$SMILES: Clc1ccc2n[nH]nc2c1
CH$IUPAC: InChI=1S/C6H4ClN3/c7-4-1-2-5-6(3-4)9-10-8-5/h1-3H,(H,8,9,10)
CH$LINK: CAS 94-97-3
CH$LINK: INCHIKEY PZBQVZFITSVHAW-UHFFFAOYSA-N
AC$INSTRUMENT: TripleTOF 5600 SCIEX
AC$INSTRUMENT_TYPE: LC-ESI-QTOF
AC$MASS_SPECTROMETRY: MS_TYPE MS2
AC$MASS_SPECTROMETRY: ION_MODE POSITIVE
AC$MASS_SPECTROMETRY: COLLISION_ENERGY 50
AC$MASS_SPECTROMETRY: FRAGMENTATION_MODE CID
AC$MASS_SPECTROMETRY: IONIZATION ESI
AC$CHROMATOGRAPHY: COLUMN_NAME Zorbax Eclipse Plus C18 2.1 mm x 150 mm, 3.5 um, Agilent
AC$CHROMATOGRAPHY: COLUMN_TEMPERATURE 40 °C
AC$CHROMATOGRAPHY: FLOW_GRADIENT 0 min min 98% A, 1 min 98% A, 2 min 80% A, 16.5 min 2% A, 22 min 2% A, 22.1 min 98% A, 27 min 98% A
AC$CHROMATOGRAPHY: FLOW_RATE 0.3 mL/min
AC$CHROMATOGRAPHY: RETENTION_TIME 7.635 min
AC$CHROMATOGRAPHY: SOLVENT A: Water 0.1% Formic acid, B: Acetonitrile 0.1% Formic acid
MS$FOCUSED_ION: PRECURSOR_M/Z 154.0167
MS$FOCUSED_ION: PRECURSOR_TYPE [M+H]+
MS$DATA_PROCESSING: COMMENT Export with Spectra 1.9.12 MsBackendMassbank 1.7.4
MS$DATA_PROCESSING: WHOLE RMassBank 2.3.1
PK$SPLASH: splash10-006w-9000000000-ac023156b24750ad2646
PK$NUM_PEAK: 18
PK$PEAK: m/z int. rel.int.
  41.0362 9.6 17
  52.025 31.9 57
  60.0047 7.3 13
  61.9838 17.9 32
  65.0302 32.2 57
  66.0375 7.5 13
  72.9878 458.2 824
  75.0128 14.4 25
  76.0207 41.7 75
  89.0272 7 12
  90.0358 229.5 413
  91.0433 278 500
  97.9921 11.7 21
  99.0004 555.1 999
  119.0481 106.6 191
  125.0024 31.2 56
  126.0096 9.3 16
  154.0161 11.9 21
//
