ACCESSION: MSBNK-BAFG-CSL25010634166
RECORD_TITLE: Laureth-5; LC-ESI-QTOF; MS2; 40 V
DATE: 2025.01.06
AUTHORS: Ole Lessmann; Kevin S. Jewell; Björn Ehlig; Arne Wick
LICENSE: dl-de/by-2-0
COPYRIGHT: Copyright 2025 Federal Institute of Hydrology, Koblenz, Germany
COMMENT: CONFIDENCE Reference Standard (Level 1)
COMMENT: Chromatography method: dx.doi.org/10.1016/j.chroma.2015.11.014
COMMENT: Acquisition method: 10.1002/rcm.8541
CH$NAME: Laureth-5
CH$FORMULA: C22H46O6
CH$EXACT_MASS: 406.3294
CH$SMILES: CCCCCCCCCCCCOCCOCCOCCOCCOCCO
CH$IUPAC: InChI=1S/C22H46O6/c1-2-3-4-5-6-7-8-9-10-11-13-24-15-17-26-19-21-28-22-20-27-18-16-25-14-12-23/h23H,2-22H2,1H3
CH$LINK: CAS 3055-95-6
CH$LINK: INCHIKEY LAPRIVJANDLWOK-UHFFFAOYSA-N
AC$INSTRUMENT: TripleTOF 6600 SCIEX
AC$INSTRUMENT_TYPE: LC-ESI-QTOF
AC$MASS_SPECTROMETRY: MS_TYPE MS2
AC$MASS_SPECTROMETRY: ION_MODE POSITIVE
AC$MASS_SPECTROMETRY: COLLISION_ENERGY 40
AC$MASS_SPECTROMETRY: FRAGMENTATION_MODE CID
AC$MASS_SPECTROMETRY: IONIZATION ESI
AC$CHROMATOGRAPHY: COLUMN_NAME Zorbax Eclipse Plus C18 2.1 mm x 150 mm, 3.5 um, Agilent
AC$CHROMATOGRAPHY: COLUMN_TEMPERATURE 40 °C
AC$CHROMATOGRAPHY: FLOW_GRADIENT 0 min min 98% A, 1 min 98% A, 2 min 80% A, 16.5 min 2% A, 22 min 2% A, 22.1 min 98% A, 27 min 98% A
AC$CHROMATOGRAPHY: FLOW_RATE 0.3 mL/min
AC$CHROMATOGRAPHY: RETENTION_TIME 17.227 min
AC$CHROMATOGRAPHY: SOLVENT A: Water 0.1% Formic acid, B: Acetonitrile 0.1% Formic acid
MS$FOCUSED_ION: PRECURSOR_M/Z 407.3367
MS$FOCUSED_ION: PRECURSOR_TYPE [M+H]+
MS$DATA_PROCESSING: COMMENT Export with pycsl 0.1.0.dev1 and CSL 24.4
PK$SPLASH: splash10-000j-9000000000-435194aca2c20470b4b3
PK$NUM_PEAK: 15
PK$PEAK: m/z int. rel.int.
  41.0382 14.0 24
  43.054 45.0 77
  45.0336 414.8 717
  55.0536 6.5 11
  57.0697 167.5 289
  69.0692 18.1 31
  71.0851 179.9 311
  73.064 24.3 42
  83.0849 8.8 15
  85.1005 112.6 194
  87.0427 11.3 19
  89.0594 577.2 999
  97.1004 10.3 17
  99.1157 10.2 17
  133.0851 68.5 118
//