ACCESSION: MSBNK-BAFG-CSL23102619284
RECORD_TITLE: Sulcotrione; LC-ESI-QTOF; MS2; 120 V
DATE: 2023.10.26
AUTHORS: Kevin S. Jewell; Björn Ehlig; Arne Wick
LICENSE: dl-de/by-2-0
COPYRIGHT: Copyright 2023 Federal Institute of Hydrology, Koblenz, Germany
COMMENT: CONFIDENCE Reference Standard (Level 1)
COMMENT: Chromatography method: dx.doi.org/10.1016/j.chroma.2015.11.014
COMMENT: Acquisition method: 10.1002/rcm.8541
CH$NAME: Sulcotrione
CH$COMPOUND_CLASS: Herbicide
CH$FORMULA: C14H13ClO5S
CH$EXACT_MASS: 328.0172
CH$SMILES: CS(=O)(=O)C1=CC(=C(C=C1)C(=O)C2C(=O)CCCC2=O)Cl
CH$IUPAC: InChI=1S/C14H13ClO5S/c1-21(19,20)8-5-6-9(10(15)7-8)14(18)13-11(16)3-2-4-12(13)17/h5-7,13H,2-4H2,1H3
CH$LINK: CAS 99105-77-8
CH$LINK: INCHIKEY PQTBTIFWAXVEPB-UHFFFAOYSA-N
AC$INSTRUMENT: TripleTOF 6600 SCIEX
AC$INSTRUMENT_TYPE: LC-ESI-QTOF
AC$MASS_SPECTROMETRY: MS_TYPE MS2
AC$MASS_SPECTROMETRY: ION_MODE POSITIVE
AC$MASS_SPECTROMETRY: COLLISION_ENERGY 120
AC$MASS_SPECTROMETRY: FRAGMENTATION_MODE CID
AC$MASS_SPECTROMETRY: IONIZATION ESI
AC$CHROMATOGRAPHY: COLUMN_NAME Zorbax Eclipse Plus C18 2.1 mm x 150 mm, 3.5 um, Agilent
AC$CHROMATOGRAPHY: COLUMN_TEMPERATURE 40 °C
AC$CHROMATOGRAPHY: FLOW_GRADIENT 0 min min 98% A, 1 min 98% A, 2 min 80% A, 16.5 min 2% A, 22 min 2% A, 22.1 min 98% A, 27 min 98% A
AC$CHROMATOGRAPHY: FLOW_RATE 0.3 mL/min
AC$CHROMATOGRAPHY: RETENTION_TIME 9.651 min
AC$CHROMATOGRAPHY: SOLVENT A: Water 0.1% Formic acid, B: Acetonitrile 0.1% Formic acid
MS$FOCUSED_ION: PRECURSOR_M/Z 329.0245
MS$FOCUSED_ION: PRECURSOR_TYPE [M+H]+
MS$DATA_PROCESSING: COMMENT Export with Spectra 1.9.12 MsBackendMassbank 1.7.4
MS$DATA_PROCESSING: WHOLE RMassBank 2.3.1
PK$SPLASH: splash10-014i-9000000000-d120a234ce9c41d06872
PK$NUM_PEAK: 30
PK$PEAK: m/z int. rel.int.
  38.0163 0.7 18
  39.0237 0.7 18
  41.003 9.5 255
  50.0155 0.6 16
  51.0229 0.8 21
  53.0019 0.5 13
  55.018 1.4 37
  61.0082 0.6 16
  62.0152 0.8 21
  63.0231 1.3 35
  65.0389 0.4 10
  68.9979 37.1 999
  72.9843 1.8 48
  73.0081 0.7 18
  74.0156 2.2 59
  75.0229 1.9 51
  77.0028 2.1 56
  77.0407 0.7 18
  83.9772 0.9 24
  86.016 1.2 32
  87.0234 2.4 64
  89.0388 1 26
  96.9839 0.5 13
  98.016 2.7 72
  99.0219 1.6 43
  102.0474 0.5 13
  107.977 2 53
  115.0557 0.9 24
  127.0151 0.4 10
  139.0575 1 26
//
