ACCESSION: MSBNK-BAFG-CSL23102527313
RECORD_TITLE: Nicosulfuron; LC-ESI-QTOF; MS2; 110 V
DATE: 2023.10.25
AUTHORS: Kevin S. Jewell; Björn Ehlig; Arne Wick
LICENSE: dl-de/by-2-0
COPYRIGHT: Copyright 2023 Federal Institute of Hydrology, Koblenz, Germany
COMMENT: CONFIDENCE Reference Standard (Level 1)
COMMENT: Chromatography method: dx.doi.org/10.1016/j.chroma.2015.11.014
COMMENT: Acquisition method: 10.1002/rcm.8541
CH$NAME: Nicosulfuron
CH$COMPOUND_CLASS: Herbicide
CH$FORMULA: C15H18N6O6S
CH$EXACT_MASS: 410.1009
CH$SMILES: CN(C)C(=O)C1=C(N=CC=C1)S(=O)(=O)NC(=O)NC2=NC(=CC(=N2)OC)OC
CH$IUPAC: InChI=1S/C15H18N6O6S/c1-21(2)13(22)9-6-5-7-16-12(9)28(24,25)20-15(23)19-14-17-10(26-3)8-11(18-14)27-4/h5-8H,1-4H3,(H2,17,18,19,20,23)
CH$LINK: CAS 111991-09-4
CH$LINK: INCHIKEY RTCOGUMHFFWOJV-UHFFFAOYSA-N
AC$INSTRUMENT: TripleTOF 6600 SCIEX
AC$INSTRUMENT_TYPE: LC-ESI-QTOF
AC$MASS_SPECTROMETRY: MS_TYPE MS2
AC$MASS_SPECTROMETRY: ION_MODE POSITIVE
AC$MASS_SPECTROMETRY: COLLISION_ENERGY 110
AC$MASS_SPECTROMETRY: FRAGMENTATION_MODE CID
AC$MASS_SPECTROMETRY: IONIZATION ESI
AC$CHROMATOGRAPHY: COLUMN_NAME Zorbax Eclipse Plus C18 2.1 mm x 150 mm, 3.5 um, Agilent
AC$CHROMATOGRAPHY: COLUMN_TEMPERATURE 40 °C
AC$CHROMATOGRAPHY: FLOW_GRADIENT 0 min min 98% A, 1 min 98% A, 2 min 80% A, 16.5 min 2% A, 22 min 2% A, 22.1 min 98% A, 27 min 98% A
AC$CHROMATOGRAPHY: FLOW_RATE 0.3 mL/min
AC$CHROMATOGRAPHY: RETENTION_TIME 8.499 min
AC$CHROMATOGRAPHY: SOLVENT A: Water 0.1% Formic acid, B: Acetonitrile 0.1% Formic acid
MS$FOCUSED_ION: PRECURSOR_M/Z 411.1081
MS$FOCUSED_ION: PRECURSOR_TYPE [M+H]+
MS$DATA_PROCESSING: COMMENT Export with Spectra 1.9.12 MsBackendMassbank 1.7.4
MS$DATA_PROCESSING: WHOLE RMassBank 2.3.1
PK$SPLASH: splash10-0059-9000000000-874da58564e3cdd8bbbb
PK$NUM_PEAK: 37
PK$PEAK: m/z int. rel.int.
  39.0206 1.1 15
  40.0166 1.2 16
  41.0235 0.9 12
  42.0316 0.8 11
  43.027 1.6 22
  44.0476 1.1 15
  50.013 5 69
  51.0207 32.1 443
  52.0158 0.8 11
  54.0312 0.8 11
  55.0266 1.8 24
  56.0104 4.1 56
  57.042 2.3 31
  64.016 2.5 34
  65.0109 7.6 105
  65.0359 1.1 15
  66.0191 1.2 16
  67.002 2.1 29
  68.0103 3.8 52
  68.9946 5.4 74
  69.0055 6.5 89
  70.0268 1.1 15
  71.0588 1.4 19
  78.0313 72.3 999
  81.0402 1.2 16
  82.0261 2.9 40
  83.0215 40.8 563
  91.0267 3.7 51
  93.0061 23.5 324
  94.0135 1.6 22
  95.0217 0.8 11
  100.0376 1 13
  106.0254 2.9 40
  110.0319 1.1 15
  138.0268 1.2 16
  139.0483 2.2 30
  166.0225 0.8 11
//
