ACCESSION: MSBNK-BAFG-CSL25010634153
RECORD_TITLE: 3,3-Diphenylacrylonitrile; LC-ESI-QTOF; MS2; 70 V
DATE: 2025.01.06
AUTHORS: Ole Lessmann; Kevin S. Jewell; Björn Ehlig; Arne Wick
LICENSE: dl-de/by-2-0
COPYRIGHT: Copyright 2025 Federal Institute of Hydrology, Koblenz, Germany
COMMENT: CONFIDENCE Reference Standard (Level 1)
COMMENT: Chromatography method: dx.doi.org/10.1016/j.chroma.2015.11.014
COMMENT: Acquisition method: 10.1002/rcm.8541
CH$NAME: 3,3-Diphenylacrylonitrile
CH$FORMULA: C15H11N
CH$EXACT_MASS: 205.0891
CH$SMILES: C1=CC=C(C=C1)C(=CC#N)C2=CC=CC=C2
CH$IUPAC: InChI=1S/C15H11N/c16-12-11-15(13-7-3-1-4-8-13)14-9-5-2-6-10-14/h1-11H
CH$LINK: CAS 3531-24-6
CH$LINK: INCHIKEY RDGWQFSLTSPRBG-UHFFFAOYSA-N
AC$INSTRUMENT: TripleTOF 6600 SCIEX
AC$INSTRUMENT_TYPE: LC-ESI-QTOF
AC$MASS_SPECTROMETRY: MS_TYPE MS2
AC$MASS_SPECTROMETRY: ION_MODE POSITIVE
AC$MASS_SPECTROMETRY: COLLISION_ENERGY 70
AC$MASS_SPECTROMETRY: FRAGMENTATION_MODE CID
AC$MASS_SPECTROMETRY: IONIZATION ESI
AC$CHROMATOGRAPHY: COLUMN_NAME Zorbax Eclipse Plus C18 2.1 mm x 150 mm, 3.5 um, Agilent
AC$CHROMATOGRAPHY: COLUMN_TEMPERATURE 40 °C
AC$CHROMATOGRAPHY: FLOW_GRADIENT 0 min min 98% A, 1 min 98% A, 2 min 80% A, 16.5 min 2% A, 22 min 2% A, 22.1 min 98% A, 27 min 98% A
AC$CHROMATOGRAPHY: FLOW_RATE 0.3 mL/min
AC$CHROMATOGRAPHY: RETENTION_TIME 13.746 min
AC$CHROMATOGRAPHY: SOLVENT A: Water 0.1% Formic acid, B: Acetonitrile 0.1% Formic acid
MS$FOCUSED_ION: PRECURSOR_M/Z 206.0964
MS$FOCUSED_ION: PRECURSOR_TYPE [M+H]+
MS$DATA_PROCESSING: COMMENT Export with pycsl 0.1.0.dev1 and CSL 24.4
PK$SPLASH: splash10-0fb9-9500000000-72c8f2f9503f7aeb37be
PK$NUM_PEAK: 39
PK$PEAK: m/z int. rel.int.
  50.0138 2.7 80
  51.0218 19.9 589
  74.014 4.8 142
  75.0213 13.7 406
  76.0174 0.7 20
  77.0371 33.7 999
  89.0359 0.7 20
  99.0111 0.4 11
  101.0368 2.1 62
  102.0327 0.9 26
  102.0453 0.6 17
  103.0567 0.4 11
  104.0481 1.1 32
  105.0446 0.6 17
  115.0541 1.3 38
  125.0388 0.4 11
  126.0452 1.1 32
  127.0412 0.6 17
  127.0532 0.5 14
  128.0602 1.0 29
  129.0432 0.8 23
  139.0524 1.4 41
  140.05 0.4 11
  150.044 1.7 50
  151.0533 7.6 225
  152.0607 5.9 174
  163.0519 2.8 83
  164.0522 0.5 14
  164.0641 0.5 14
  165.0692 0.7 20
  174.0425 0.6 17
  175.0537 0.8 23
  176.0606 11.2 332
  177.0678 2.3 68
  178.0768 1.1 32
  187.051 0.6 17
  190.0582 0.6 17
  203.073 1.0 29
  204.0777 0.7 20
//