ACCESSION: MSBNK-BAFG-CSL23111027711
RECORD_TITLE: 4-Methoxycinnamaldehyde; LC-ESI-QTOF; MS2; 120 V
DATE: 2023.11.10
AUTHORS: Kevin S. Jewell; Björn Ehlig; Arne Wick
LICENSE: dl-de/by-2-0
COPYRIGHT: Copyright 2023 Federal Institute of Hydrology, Koblenz, Germany
COMMENT: CONFIDENCE Reference Standard (Level 1)
COMMENT: Chromatography method: dx.doi.org/10.1016/j.chroma.2015.11.014
COMMENT: Acquisition method: 10.1002/rcm.8541
CH$NAME: 4-Methoxycinnamaldehyde
CH$FORMULA: C10H10O2
CH$EXACT_MASS: 162.0681
CH$SMILES: COC1=CC=C(C=C1)C=CC=O
CH$IUPAC: InChI=1S/C10H10O2/c1-12-10-6-4-9(5-7-10)3-2-8-11/h2-8H,1H3
CH$LINK: CAS 24680-50-0
CH$LINK: INCHIKEY AXCXHFKZHDEKTP-UHFFFAOYSA-N
AC$INSTRUMENT: TripleTOF 6600 SCIEX
AC$INSTRUMENT_TYPE: LC-ESI-QTOF
AC$MASS_SPECTROMETRY: MS_TYPE MS2
AC$MASS_SPECTROMETRY: ION_MODE POSITIVE
AC$MASS_SPECTROMETRY: COLLISION_ENERGY 120
AC$MASS_SPECTROMETRY: FRAGMENTATION_MODE CID
AC$MASS_SPECTROMETRY: IONIZATION ESI
AC$CHROMATOGRAPHY: COLUMN_NAME Zorbax Eclipse Plus C18 2.1 mm x 150 mm, 3.5 um, Agilent
AC$CHROMATOGRAPHY: COLUMN_TEMPERATURE 40 °C
AC$CHROMATOGRAPHY: FLOW_GRADIENT 0 min min 98% A, 1 min 98% A, 2 min 80% A, 16.5 min 2% A, 22 min 2% A, 22.1 min 98% A, 27 min 98% A
AC$CHROMATOGRAPHY: FLOW_RATE 0.3 mL/min
AC$CHROMATOGRAPHY: RETENTION_TIME 9.471 min
AC$CHROMATOGRAPHY: SOLVENT A: Water 0.1% Formic acid, B: Acetonitrile 0.1% Formic acid
MS$FOCUSED_ION: PRECURSOR_M/Z 163.0754
MS$FOCUSED_ION: PRECURSOR_TYPE [M+H]+
MS$DATA_PROCESSING: COMMENT Export with Spectra 1.9.12 MsBackendMassbank 1.7.4
MS$DATA_PROCESSING: WHOLE RMassBank 2.3.1
PK$SPLASH: splash10-0gw0-9000000000-1cf848ad4a87d26c55d5
PK$NUM_PEAK: 11
PK$PEAK: m/z int. rel.int.
  36.0002 0.5 99
  37.0076 2.2 439
  38.0151 1.5 299
  39.0233 3.3 659
  49.0067 1.4 279
  50.0154 5 999
  51.022 1.7 339
  61.008 1.6 319
  62.0161 2.1 419
  63.0221 0.9 179
  74.0155 0.7 139
//
