ACCESSION: MSBNK-BAFG-CSL25011734671
RECORD_TITLE: Brilliant Green Cation; LC-ESI-QTOF; MS2; 110 V
DATE: 2025.01.17
AUTHORS: Ole Lessmann; Kevin S. Jewell; Björn Ehlig; Arne Wick
LICENSE: dl-de/by-2-0
COPYRIGHT: Copyright 2025 Federal Institute of Hydrology, Koblenz, Germany
COMMENT: CONFIDENCE Reference Standard (Level 1)
COMMENT: Chromatography method: dx.doi.org/10.1016/j.chroma.2015.11.014
CH$NAME: Brilliant Green Cation
CH$FORMULA: [C27H33N2]+
CH$EXACT_MASS: 385.2638
CH$SMILES: CCN(CC)C1=CC=C(C=C1)C(=C2C=CC(=[N+](CC)CC)C=C2)C3=CC=CC=C3
CH$IUPAC: InChI=1S/C27H33N2/c1-5-28(6-2)25-18-14-23(15-19-25)27(22-12-10-9-11-13-22)24-16-20-26(21-17-24)29(7-3)8-4/h9-21H,5-8H2,1-4H3/q+1
CH$LINK: CAS 18198-35-1
CH$LINK: INCHIKEY HXCILVUBKWANLN-UHFFFAOYSA-N
AC$INSTRUMENT: TripleTOF 6600 SCIEX
AC$INSTRUMENT_TYPE: LC-ESI-QTOF
AC$MASS_SPECTROMETRY: MS_TYPE MS2
AC$MASS_SPECTROMETRY: ION_MODE POSITIVE
AC$MASS_SPECTROMETRY: COLLISION_ENERGY 110
AC$MASS_SPECTROMETRY: FRAGMENTATION_MODE CID
AC$MASS_SPECTROMETRY: IONIZATION ESI
AC$CHROMATOGRAPHY: COLUMN_NAME Zorbax Eclipse Plus C18 2.1 mm x 150 mm, 3.5 um, Agilent
AC$CHROMATOGRAPHY: COLUMN_TEMPERATURE 40 °C
AC$CHROMATOGRAPHY: FLOW_GRADIENT 0 min min 98% A, 1 min 98% A, 2 min 80% A, 16.5 min 2% A, 22 min 2% A, 22.1 min 98% A, 27 min 98% A
AC$CHROMATOGRAPHY: FLOW_RATE 0.3 mL/min
AC$CHROMATOGRAPHY: RETENTION_TIME 12.461 min
AC$CHROMATOGRAPHY: SOLVENT A: Water 0.1% Formic acid, B: Acetonitrile 0.1% Formic acid
MS$FOCUSED_ION: PRECURSOR_M/Z 385.2638
MS$FOCUSED_ION: PRECURSOR_TYPE [M]+
MS$DATA_PROCESSING: COMMENT Export with pycsl 0.1.0.dev1 and CSL 25.0
PK$SPLASH: splash10-00ku-0390000000-a4c37489111482043961
PK$NUM_PEAK: 19
PK$PEAK: m/z int. rel.int.
  152.0601 40.8 74
  163.0527 29.3 53
  164.0603 83.0 150
  165.0688 213.9 388
  178.0756 28.5 51
  190.0637 69.4 125
  191.0716 44.7 81
  192.0783 57.1 103
  215.084 85.9 155
  226.076 103.2 187
  228.091 34.4 62
  239.0849 550.4 999
  240.0908 145.1 263
  241.0998 224.1 406
  252.0922 31.4 56
  253.0968 40.2 72
  254.0983 38.1 69
  267.1037 42.2 76
  268.1117 61.2 111
//
