ACCESSION: MSBNK-BAFG-CSL25010627865
RECORD_TITLE: Iminostilbene; LC-ESI-QTOF; MS2; 60 V
DATE: 2025.01.06
AUTHORS: Ole Lessmann; Kevin S. Jewell; Björn Ehlig; Arne Wick
LICENSE: dl-de/by-2-0
COPYRIGHT: Copyright 2025 Federal Institute of Hydrology, Koblenz, Germany
COMMENT: CONFIDENCE Reference Standard (Level 1)
COMMENT: Chromatography method: dx.doi.org/10.1016/j.chroma.2015.11.014
COMMENT: Acquisition method: 10.1002/rcm.8541
CH$NAME: Iminostilbene
CH$COMPOUND_CLASS: Pharmaceutical
CH$FORMULA: C14H11N
CH$EXACT_MASS: 193.0891
CH$SMILES: C1=CC=C2C(=C1)C=CC3=CC=CC=C3N2
CH$IUPAC: InChI=1S/C14H11N/c1-3-7-13-11(5-1)9-10-12-6-2-4-8-14(12)15-13/h1-10,15H
CH$LINK: CAS 256-96-2
CH$LINK: INCHIKEY LCGTWRLJTMHIQZ-UHFFFAOYSA-N
AC$INSTRUMENT: TripleTOF 6600 SCIEX
AC$INSTRUMENT_TYPE: LC-ESI-QTOF
AC$MASS_SPECTROMETRY: MS_TYPE MS2
AC$MASS_SPECTROMETRY: ION_MODE POSITIVE
AC$MASS_SPECTROMETRY: COLLISION_ENERGY 60
AC$MASS_SPECTROMETRY: FRAGMENTATION_MODE CID
AC$MASS_SPECTROMETRY: IONIZATION ESI
AC$CHROMATOGRAPHY: COLUMN_NAME Zorbax Eclipse Plus C18 2.1 mm x 150 mm, 3.5 um, Agilent
AC$CHROMATOGRAPHY: COLUMN_TEMPERATURE 40 °C
AC$CHROMATOGRAPHY: FLOW_GRADIENT 0 min min 98% A, 1 min 98% A, 2 min 80% A, 16.5 min 2% A, 22 min 2% A, 22.1 min 98% A, 27 min 98% A
AC$CHROMATOGRAPHY: FLOW_RATE 0.3 mL/min
AC$CHROMATOGRAPHY: RETENTION_TIME 13.175 min
AC$CHROMATOGRAPHY: SOLVENT A: Water 0.1% Formic acid, B: Acetonitrile 0.1% Formic acid
MS$FOCUSED_ION: PRECURSOR_M/Z 194.0964
MS$FOCUSED_ION: PRECURSOR_TYPE [M+H]+
MS$DATA_PROCESSING: COMMENT Export with pycsl 0.1.0.dev1 and CSL 24.4
PK$SPLASH: splash10-00kf-0900000000-b4417f217773363f2ada
PK$NUM_PEAK: 40
PK$PEAK: m/z int. rel.int.
  39.0196 21.9 16
  51.0184 32.3 25
  63.0172 34.7 26
  65.0328 53.1 41
  77.0314 58.9 45
  89.0306 280.5 217
  90.038 109.5 84
  91.0457 38.5 29
  101.0291 22.2 17
  102.0368 34.3 26
  113.028 16.1 12
  115.0435 97.1 75
  116.0388 26.5 20
  117.0463 55.4 42
  125.0266 23.0 17
  126.0345 73.6 56
  127.0304 13.4 10
  127.0417 29.2 22
  128.0402 92.0 71
  129.0447 20.1 15
  139.0415 166.0 128
  140.0375 132.9 102
  150.0325 114.0 88
  151.0407 519.7 402
  152.0473 435.7 337
  153.0435 132.6 102
  163.039 48.3 37
  164.0465 167.5 129
  165.055 784.2 607
  166.0506 295.7 228
  167.0581 323.7 250
  176.0454 71.0 54
  177.0414 206.5 159
  178.0496 637.3 493
  179.056 227.6 176
  190.0482 225.0 174
  191.0561 1290.4 999
  192.0638 903.6 699
  193.0713 231.6 179
  194.0793 15.4 11
//