ACCESSION: MSBNK-BAFG-CSL23103017105
RECORD_TITLE: Mandipropamid; LC-ESI-QTOF; MS2; 60 V
DATE: 2023.10.30
AUTHORS: Kevin S. Jewell; Björn Ehlig; Arne Wick
LICENSE: dl-de/by-2-0
COPYRIGHT: Copyright 2023 Federal Institute of Hydrology, Koblenz, Germany
COMMENT: CONFIDENCE Reference Standard (Level 1)
COMMENT: Chromatography method: dx.doi.org/10.1016/j.chroma.2015.11.014
COMMENT: Acquisition method: 10.1002/rcm.8541
CH$NAME: Mandipropamid
CH$COMPOUND_CLASS: Fungicide
CH$FORMULA: C23H22ClNO4
CH$EXACT_MASS: 411.1237
CH$SMILES: COC1=C(C=CC(=C1)CCNC(=O)C(C2=CC=C(C=C2)Cl)OCC#C)OCC#C
CH$IUPAC: InChI=1S/C23H22ClNO4/c1-4-14-28-20-11-6-17(16-21(20)27-3)12-13-25-23(26)22(29-15-5-2)18-7-9-19(24)10-8-18/h1-2,6-11,16,22H,12-15H2,3H3,(H,25,26)
CH$LINK: CAS 374726-62-2
CH$LINK: INCHIKEY KWLVWJPJKJMCSH-UHFFFAOYSA-N
AC$INSTRUMENT: TripleTOF 6600 SCIEX
AC$INSTRUMENT_TYPE: LC-ESI-QTOF
AC$MASS_SPECTROMETRY: MS_TYPE MS2
AC$MASS_SPECTROMETRY: ION_MODE POSITIVE
AC$MASS_SPECTROMETRY: COLLISION_ENERGY 60
AC$MASS_SPECTROMETRY: FRAGMENTATION_MODE CID
AC$MASS_SPECTROMETRY: IONIZATION ESI
AC$CHROMATOGRAPHY: COLUMN_NAME Zorbax Eclipse Plus C18 2.1 mm x 150 mm, 3.5 um, Agilent
AC$CHROMATOGRAPHY: COLUMN_TEMPERATURE 40 °C
AC$CHROMATOGRAPHY: FLOW_GRADIENT 0 min min 98% A, 1 min 98% A, 2 min 80% A, 16.5 min 2% A, 22 min 2% A, 22.1 min 98% A, 27 min 98% A
AC$CHROMATOGRAPHY: FLOW_RATE 0.3 mL/min
AC$CHROMATOGRAPHY: RETENTION_TIME 12.239 min
AC$CHROMATOGRAPHY: SOLVENT A: Water 0.1% Formic acid, B: Acetonitrile 0.1% Formic acid
MS$FOCUSED_ION: PRECURSOR_M/Z 412.131
MS$FOCUSED_ION: PRECURSOR_TYPE [M+H]+
MS$DATA_PROCESSING: COMMENT Export with Spectra 1.9.12 MsBackendMassbank 1.7.4
MS$DATA_PROCESSING: WHOLE RMassBank 2.3.1
PK$SPLASH: splash10-004i-0910000000-de000bd5dc31c7876ace
PK$NUM_PEAK: 75
PK$PEAK: m/z int. rel.int.
  77.0376 2.4 19
  89.0381 6 47
  90.046 1.5 11
  91.0535 10.1 80
  94.0646 1.4 11
  98.9987 2.5 19
  103.0528 3.6 28
  105.0684 2.1 16
  107.0477 1.9 15
  115.0537 5.8 46
  116.0611 3 23
  117.0687 3.2 25
  118.0643 6.4 51
  119.0483 2.6 20
  119.0724 1.3 10
  121.0635 5.4 43
  122.0593 2.9 23
  125.0149 125.3 999
  127.0545 2.7 21
  128.0612 7 55
  129.0694 3.3 26
  130.0651 2 15
  131.0488 6.2 49
  132.0546 1.6 12
  134.0591 2.1 16
  135.0431 4.2 33
  136.0745 2.8 22
  137.0591 1.6 12
  138.994 1.8 14
  140.0255 2.1 16
  144.0552 1.7 13
  145.0638 3.1 24
  146.06 6.1 48
  147.0437 4.8 38
  147.0666 1.4 11
  148.0515 6.2 49
  148.0749 2.1 16
  149.0596 2.4 19
  150.0545 5.5 43
  151.075 1.4 11
  152.0255 3 23
  160.0747 1.4 11
  161.0577 1.7 13
  162.0548 1.9 15
  164.0697 4.9 39
  165.0717 4.2 33
  166.077 1.5 11
  176.0696 2.6 20
  177.075 2.2 17
  178.0779 3.5 27
  179.0847 2.9 23
  189.0703 1.5 11
  190.076 1.3 10
  191.0851 2.6 20
  193.1004 1.3 10
  194.0719 3.7 29
  199.0308 1.3 10
  202.0764 2 15
  203.0851 3.3 26
  204.0953 1.8 14
  205.1005 1.7 13
  207.0795 2 15
  208.0885 2.3 18
  212.0377 1.3 10
  213.0468 1.3 10
  215.0856 2.9 23
  217.0977 1.5 11
  225.0502 1.4 11
  225.0899 1.8 14
  229.0426 2.2 17
  231.0809 1.5 11
  235.0982 1.3 10
  241.0402 1.3 10
  243.0571 1.3 10
  271.0511 1.6 12
//
