ACCESSION: MSBNK-BAFG-CSL2501065185
RECORD_TITLE: Hydroxytorasemide; LC-ESI-QTOF; MS2; 40 V
DATE: 2025.01.06
AUTHORS: Ole Lessmann; Kevin S. Jewell; Björn Ehlig; Arne Wick
LICENSE: dl-de/by-2-0
COPYRIGHT: Copyright 2025 Federal Institute of Hydrology, Koblenz, Germany
COMMENT: CONFIDENCE Reference Standard (Level 1)
COMMENT: Chromatography method: dx.doi.org/10.1016/j.chroma.2015.11.014
COMMENT: Acquisition method: 10.1002/rcm.8541
CH$NAME: Hydroxytorasemide
CH$COMPOUND_CLASS: Pharmaceutical; Transformation_product; Transformation_product-Metabolite
CH$FORMULA: C16H20N4O4S
CH$EXACT_MASS: 364.1205
CH$SMILES: CC(C)NC(=O)NS(=O)(=O)c1cnccc1Nc2cccc(c2)CO
CH$IUPAC: InChI=1S/C16H20N4O4S/c1-11(2)18-16(22)20-25(23,24)15-9-17-7-6-14(15)19-13-5-3-4-12(8-13)10-21/h3-9,11,21H,10H2,1-2H3,(H,17,19)(H2,18,20,22)
CH$LINK: CAS 99300-68-2
CH$LINK: INCHIKEY WCYVLAMJCQZUCR-UHFFFAOYSA-N
AC$INSTRUMENT: TripleTOF 5600 SCIEX
AC$INSTRUMENT_TYPE: LC-ESI-QTOF
AC$MASS_SPECTROMETRY: MS_TYPE MS2
AC$MASS_SPECTROMETRY: ION_MODE POSITIVE
AC$MASS_SPECTROMETRY: COLLISION_ENERGY 40
AC$MASS_SPECTROMETRY: FRAGMENTATION_MODE CID
AC$MASS_SPECTROMETRY: IONIZATION ESI
AC$CHROMATOGRAPHY: COLUMN_NAME Zorbax Eclipse Plus C18 2.1 mm x 150 mm, 3.5 um, Agilent
AC$CHROMATOGRAPHY: COLUMN_TEMPERATURE 40 °C
AC$CHROMATOGRAPHY: FLOW_GRADIENT 0 min min 98% A, 1 min 98% A, 2 min 80% A, 16.5 min 2% A, 22 min 2% A, 22.1 min 98% A, 27 min 98% A
AC$CHROMATOGRAPHY: FLOW_RATE 0.3 mL/min
AC$CHROMATOGRAPHY: RETENTION_TIME 5.824 min
AC$CHROMATOGRAPHY: SOLVENT A: Water 0.1% Formic acid, B: Acetonitrile 0.1% Formic acid
MS$FOCUSED_ION: PRECURSOR_M/Z 365.1278
MS$FOCUSED_ION: PRECURSOR_TYPE [M+H]+
MS$DATA_PROCESSING: COMMENT Export with pycsl 0.1.0.dev1 and CSL 24.4
PK$SPLASH: splash10-001i-0791000000-669f801643fa49cb8f8e
PK$NUM_PEAK: 36
PK$PEAK: m/z int. rel.int.
  115.0538 11.5 40
  125.0163 20.7 72
  137.0153 4.9 17
  138.0547 3.0 10
  142.0649 7.5 26
  152.0028 12.5 43
  153.0097 4.4 15
  154.0636 6.1 21
  156.0677 4.0 13
  168.0676 31.5 109
  169.0756 133.1 464
  181.0757 85.2 297
  182.0828 22.4 78
  184.0624 4.1 14
  185.0717 7.0 24
  187.0317 8.6 30
  188.0389 3.1 10
  189.0474 19.4 67
  197.0705 30.2 105
  199.0857 28.4 99
  200.0464 3.3 11
  201.0487 8.0 27
  205.042 3.8 13
  214.0741 17.4 60
  215.0811 16.1 56
  216.0355 14.7 51
  217.0417 27.1 94
  228.0336 6.9 24
  233.0379 53.2 185
  245.037 60.7 211
  246.0448 3.8 13
  262.061 4.6 16
  263.0481 16.6 57
  279.1919 6.6 23
  280.0743 286.3 999
  306.0538 85.2 297
//