ACCESSION: MSBNK-BAFG-CSL23102727692
RECORD_TITLE: Cyclohexyldiethanolamine; LC-ESI-QTOF; MS2; 90 V
DATE: 2023.10.27
AUTHORS: Kevin S. Jewell; Björn Ehlig; Arne Wick
LICENSE: dl-de/by-2-0
COPYRIGHT: Copyright 2023 Federal Institute of Hydrology, Koblenz, Germany
COMMENT: CONFIDENCE Reference Standard (Level 1)
COMMENT: Chromatography method: dx.doi.org/10.1016/j.chroma.2015.11.014
COMMENT: Acquisition method: 10.1002/rcm.8541
CH$NAME: Cyclohexyldiethanolamine
CH$FORMULA: C10H21NO2
CH$EXACT_MASS: 187.1572
CH$SMILES: C1CCC(CC1)N(CCO)CCO
CH$IUPAC: InChI=1S/C10H21NO2/c12-8-6-11(7-9-13)10-4-2-1-3-5-10/h10,12-13H,1-9H2
CH$LINK: CAS 4500-29-2
CH$LINK: INCHIKEY HHPDFYDITNAMAM-UHFFFAOYSA-N
AC$INSTRUMENT: TripleTOF 6600 SCIEX
AC$INSTRUMENT_TYPE: LC-ESI-QTOF
AC$MASS_SPECTROMETRY: MS_TYPE MS2
AC$MASS_SPECTROMETRY: ION_MODE POSITIVE
AC$MASS_SPECTROMETRY: COLLISION_ENERGY 90
AC$MASS_SPECTROMETRY: FRAGMENTATION_MODE CID
AC$MASS_SPECTROMETRY: IONIZATION ESI
AC$CHROMATOGRAPHY: COLUMN_NAME Zorbax Eclipse Plus C18 2.1 mm x 150 mm, 3.5 um, Agilent
AC$CHROMATOGRAPHY: COLUMN_TEMPERATURE 40 °C
AC$CHROMATOGRAPHY: FLOW_GRADIENT 0 min min 98% A, 1 min 98% A, 2 min 80% A, 16.5 min 2% A, 22 min 2% A, 22.1 min 98% A, 27 min 98% A
AC$CHROMATOGRAPHY: FLOW_RATE 0.3 mL/min
AC$CHROMATOGRAPHY: RETENTION_TIME 4.323 min
AC$CHROMATOGRAPHY: SOLVENT A: Water 0.1% Formic acid, B: Acetonitrile 0.1% Formic acid
MS$FOCUSED_ION: PRECURSOR_M/Z 188.1645
MS$FOCUSED_ION: PRECURSOR_TYPE [M+H]+
MS$DATA_PROCESSING: COMMENT Export with Spectra 1.9.12 MsBackendMassbank 1.7.4
MS$DATA_PROCESSING: WHOLE RMassBank 2.3.1
PK$SPLASH: splash10-000i-9000000000-b350f3dbdfc5d7f56f16
PK$NUM_PEAK: 11
PK$PEAK: m/z int. rel.int.
  37.0071 2.9 197
  38.0019 0.7 47
  38.015 2.6 176
  39.0226 14.7 999
  41.0384 3.3 224
  42.0333 0.7 47
  43.0185 0.6 40
  44.0489 1.1 74
  45.0341 0.8 54
  53.0386 0.6 40
  55.0531 1.2 81
//
