ACCESSION: MSBNK-BAFG-CSL23110913392
RECORD_TITLE: 5`-Deoxy-5`-(methylthio)adenosine; LC-ESI-QTOF; MS2; 70 V
DATE: 2023.11.09
AUTHORS: Kevin S. Jewell; Björn Ehlig; Arne Wick
LICENSE: dl-de/by-2-0
COPYRIGHT: Copyright 2023 Federal Institute of Hydrology, Koblenz, Germany
COMMENT: CONFIDENCE Reference Standard (Level 1)
COMMENT: Chromatography method: dx.doi.org/10.1016/j.chroma.2015.11.014
COMMENT: Acquisition method: 10.1002/rcm.8541
CH$NAME: 5`-Deoxy-5`-(methylthio)adenosine
CH$COMPOUND_CLASS: Metabolite
CH$FORMULA: C11H15N5O3S
CH$EXACT_MASS: 297.0896
CH$SMILES: NC1=NC=NC2=C1N=CN2C3C(O)C(O)C(CSC)O3
CH$IUPAC: InChI=1S/C11H15N5O3S/c1-20-2-5-7(17)8(18)11(19-5)16-4-15-6-9(12)13-3-14-10(6)16/h3-5,7-8,11,17-18H,2H2,1H3,(H2,12,13,14)
CH$LINK: CAS 2457-80-9
CH$LINK: INCHIKEY WUUGFSXJNOTRMR-UHFFFAOYSA-N
AC$INSTRUMENT: TripleTOF 5600 SCIEX
AC$INSTRUMENT_TYPE: LC-ESI-QTOF
AC$MASS_SPECTROMETRY: MS_TYPE MS2
AC$MASS_SPECTROMETRY: ION_MODE POSITIVE
AC$MASS_SPECTROMETRY: COLLISION_ENERGY 70
AC$MASS_SPECTROMETRY: FRAGMENTATION_MODE CID
AC$MASS_SPECTROMETRY: IONIZATION ESI
AC$CHROMATOGRAPHY: COLUMN_NAME Zorbax Eclipse Plus C18 2.1 mm x 150 mm, 3.5 um, Agilent
AC$CHROMATOGRAPHY: COLUMN_TEMPERATURE 40 °C
AC$CHROMATOGRAPHY: FLOW_GRADIENT 0 min min 98% A, 1 min 98% A, 2 min 80% A, 16.5 min 2% A, 22 min 2% A, 22.1 min 98% A, 27 min 98% A
AC$CHROMATOGRAPHY: FLOW_RATE 0.3 mL/min
AC$CHROMATOGRAPHY: RETENTION_TIME 4.785 min
AC$CHROMATOGRAPHY: SOLVENT A: Water 0.1% Formic acid, B: Acetonitrile 0.1% Formic acid
MS$FOCUSED_ION: PRECURSOR_M/Z 298.0969
MS$FOCUSED_ION: PRECURSOR_TYPE [M+H]+
MS$DATA_PROCESSING: COMMENT Export with Spectra 1.9.12 MsBackendMassbank 1.7.4
MS$DATA_PROCESSING: WHOLE RMassBank 2.3.1
PK$SPLASH: splash10-00ku-5900000000-f4e545f90aad713ade56
PK$NUM_PEAK: 17
PK$PEAK: m/z int. rel.int.
  41.0387 12.5 14
  46.9951 19.6 23
  55.029 10.8 12
  61.0108 263.9 313
  65.0137 45.2 53
  67.0294 78.4 93
  69.0338 15 17
  71.0124 9.4 11
  75.0265 125.3 148
  77.0133 10.6 12
  82.0401 18.2 21
  92.0246 221.6 263
  94.04 229.3 272
  97.0286 20.2 23
  109.0512 56.5 67
  119.0354 801.9 951
  136.0616 841.6 999
//
