ACCESSION: MSBNK-BAFG-CSL25011734561
RECORD_TITLE: Azo Rubin S; LC-ESI-QTOF; MS2; 130 V
DATE: 2025.01.17
AUTHORS: Ole Lessmann; Kevin S. Jewell; Björn Ehlig; Arne Wick
LICENSE: dl-de/by-2-0
COPYRIGHT: Copyright 2025 Federal Institute of Hydrology, Koblenz, Germany
COMMENT: CONFIDENCE Reference Standard (Level 1)
COMMENT: Chromatography method: dx.doi.org/10.1016/j.chroma.2015.11.014
CH$NAME: Azo Rubin S
CH$FORMULA: C20H14N2O7S2
CH$EXACT_MASS: 458.0242
CH$SMILES: C1=CC=C2C(=C1)C(=CC=C2S(=O)(=O)O)N=NC3=C(C4=CC=CC=C4C(=C3)S(=O)(=O)O)O
CH$IUPAC: InChI=1S/C20H14N2O7S2/c23-20-15-8-4-3-7-14(15)19(31(27,28)29)11-17(20)22-21-16-9-10-18(30(24,25)26)13-6-2-1-5-12(13)16/h1-11,23H,(H,24,25,26)(H,27,28,29)
CH$LINK: CAS 13613-55-3
CH$LINK: INCHIKEY TVWOWDDBXAFQDG-UHFFFAOYSA-N
AC$INSTRUMENT: TripleTOF 6600 SCIEX
AC$INSTRUMENT_TYPE: LC-ESI-QTOF
AC$MASS_SPECTROMETRY: MS_TYPE MS2
AC$MASS_SPECTROMETRY: ION_MODE POSITIVE
AC$MASS_SPECTROMETRY: COLLISION_ENERGY 130
AC$MASS_SPECTROMETRY: FRAGMENTATION_MODE CID
AC$MASS_SPECTROMETRY: IONIZATION ESI
AC$CHROMATOGRAPHY: COLUMN_NAME Zorbax Eclipse Plus C18 2.1 mm x 150 mm, 3.5 um, Agilent
AC$CHROMATOGRAPHY: COLUMN_TEMPERATURE 40 °C
AC$CHROMATOGRAPHY: FLOW_GRADIENT 0 min min 98% A, 1 min 98% A, 2 min 80% A, 16.5 min 2% A, 22 min 2% A, 22.1 min 98% A, 27 min 98% A
AC$CHROMATOGRAPHY: FLOW_RATE 0.3 mL/min
AC$CHROMATOGRAPHY: RETENTION_TIME 7.286 min
AC$CHROMATOGRAPHY: SOLVENT A: Water 0.1% Formic acid, B: Acetonitrile 0.1% Formic acid
MS$FOCUSED_ION: PRECURSOR_M/Z 459.0315
MS$FOCUSED_ION: PRECURSOR_TYPE [M+H]+
MS$DATA_PROCESSING: COMMENT Export with pycsl 0.1.0.dev1 and CSL 25.0
PK$SPLASH: splash10-0fvi-7900000000-74834a1d63f83582d69f
PK$NUM_PEAK: 45
PK$PEAK: m/z int. rel.int.
  39.0234 1.7 12
  51.0228 11.0 83
  52.0178 19.0 144
  62.0143 1.9 14
  63.0224 10.7 81
  64.9684 6.8 51
  65.0378 5.2 39
  75.0225 5.1 38
  77.0386 131.1 999
  80.0129 7.8 59
  87.0232 1.5 11
  88.0303 2.8 21
  89.038 52.6 400
  91.0534 2.5 19
  99.0214 1.8 13
  100.018 2.7 20
  101.0371 3.9 29
  102.0456 12.6 96
  103.0539 80.3 611
  104.0497 8.1 61
  105.0432 2.4 18
  113.0374 11.6 88
  114.0455 5.7 43
  115.0538 98.2 748
  116.0481 21.7 165
  126.0456 3.3 25
  127.0548 1.8 13
  128.0512 1.8 13
  130.0642 43.9 334
  140.0495 25.4 193
  142.0636 1.5 11
  213.0701 1.9 14
  223.0538 1.4 10
  224.0615 3.4 25
  225.059 1.4 10
  238.0669 3.9 29
  240.0818 2.1 16
  249.0619 3.1 23
  250.0641 1.5 11
  251.0719 5.5 41
  252.0713 1.5 11
  265.0781 2.1 16
  266.0828 2.3 17
  277.0767 3.4 25
  278.0843 2.0 15
//
