ACCESSION: MSBNK-BAFG-CSL25010634242
RECORD_TITLE: 4,4`-Thiodianiline; LC-ESI-QTOF; MS2; 40 V
DATE: 2025.01.06
AUTHORS: Ole Lessmann; Kevin S. Jewell; Björn Ehlig; Arne Wick
LICENSE: dl-de/by-2-0
COPYRIGHT: Copyright 2025 Federal Institute of Hydrology, Koblenz, Germany
COMMENT: CONFIDENCE Reference Standard (Level 1)
COMMENT: Chromatography method: dx.doi.org/10.1016/j.chroma.2015.11.014
COMMENT: Acquisition method: 10.1002/rcm.8541
CH$NAME: 4,4`-Thiodianiline
CH$FORMULA: C12H12N2S
CH$EXACT_MASS: 216.0721
CH$SMILES: C1=CC(=CC=C1N)SC2=CC=C(C=C2)N
CH$IUPAC: InChI=1S/C12H12N2S/c13-9-1-5-11(6-2-9)15-12-7-3-10(14)4-8-12/h1-8H,13-14H2
CH$LINK: CAS 139-65-1
CH$LINK: INCHIKEY ICNFHJVPAJKPHW-UHFFFAOYSA-N
AC$INSTRUMENT: TripleTOF 6600 SCIEX
AC$INSTRUMENT_TYPE: LC-ESI-QTOF
AC$MASS_SPECTROMETRY: MS_TYPE MS2
AC$MASS_SPECTROMETRY: ION_MODE POSITIVE
AC$MASS_SPECTROMETRY: COLLISION_ENERGY 40
AC$MASS_SPECTROMETRY: FRAGMENTATION_MODE CID
AC$MASS_SPECTROMETRY: IONIZATION ESI
AC$CHROMATOGRAPHY: COLUMN_NAME Zorbax Eclipse Plus C18 2.1 mm x 150 mm, 3.5 um, Agilent
AC$CHROMATOGRAPHY: COLUMN_TEMPERATURE 40 °C
AC$CHROMATOGRAPHY: FLOW_GRADIENT 0 min min 98% A, 1 min 98% A, 2 min 80% A, 16.5 min 2% A, 22 min 2% A, 22.1 min 98% A, 27 min 98% A
AC$CHROMATOGRAPHY: FLOW_RATE 0.3 mL/min
AC$CHROMATOGRAPHY: RETENTION_TIME 6.429 min
AC$CHROMATOGRAPHY: SOLVENT A: Water 0.1% Formic acid, B: Acetonitrile 0.1% Formic acid
MS$FOCUSED_ION: PRECURSOR_M/Z 217.0794
MS$FOCUSED_ION: PRECURSOR_TYPE [M+H]+
MS$DATA_PROCESSING: COMMENT Export with pycsl 0.1.0.dev1 and CSL 24.4
PK$SPLASH: splash10-00e9-1910000000-c14cd67f955bcaaa5ac8
PK$NUM_PEAK: 33
PK$PEAK: m/z int. rel.int.
  66.045 1.1 12
  76.0306 1.4 16
  80.0485 27.8 319
  93.0564 8.7 100
  97.0101 2.1 24
  115.0524 1.3 14
  123.0122 1.9 21
  124.0203 86.9 999
  125.0249 1.1 12
  128.0602 1.4 16
  129.0664 0.9 10
  139.0533 19.7 226
  152.0597 1.4 16
  155.0669 0.9 10
  156.0787 3.1 35
  157.0816 1.4 16
  166.0616 3.3 37
  167.0714 13.9 159
  171.0246 5.8 66
  172.0331 4.1 47
  173.0372 1.0 11
  183.0249 13.5 155
  183.0893 1.6 18
  184.032 14.1 162
  184.0967 7.4 85
  185.1012 9.5 109
  198.0327 3.1 35
  199.0435 37.2 427
  200.0518 13.2 151
  211.0311 1.0 11
  215.0616 2.4 27
  216.0689 8.9 102
  217.0787 9.2 105
//