ACCESSION: MSBNK-BAFG-CSL25010610854
RECORD_TITLE: Hydroxy-DEET; LC-ESI-QTOF; MS2; 130 V
DATE: 2025.01.06
AUTHORS: Ole Lessmann; Kevin S. Jewell; Björn Ehlig; Arne Wick
LICENSE: dl-de/by-2-0
COPYRIGHT: Copyright 2025 Federal Institute of Hydrology, Koblenz, Germany
COMMENT: CONFIDENCE Reference Standard (Level 1)
COMMENT: Chromatography method: dx.doi.org/10.1016/j.chroma.2015.11.014
COMMENT: Acquisition method: 10.1002/rcm.8541
CH$NAME: Hydroxy-DEET
CH$COMPOUND_CLASS: Metabolite; Biocide; Personal_care_product; Transformation_product-Metabolite
CH$FORMULA: C12H17NO2
CH$EXACT_MASS: 207.1259
CH$SMILES: CCN(CC)C(=O)C1=CC(=CC=C1)CO
CH$IUPAC: InChI=1S/C12H17NO2/c1-3-13(4-2)12(15)11-7-5-6-10(8-11)9-14/h5-8,14H,3-4,9H2,1-2H3
CH$LINK: CAS 72236-22-7
CH$LINK: INCHIKEY FRZJZRVZZNTMAW-UHFFFAOYSA-N
AC$INSTRUMENT: TripleTOF 5600 SCIEX
AC$INSTRUMENT_TYPE: LC-ESI-QTOF
AC$MASS_SPECTROMETRY: MS_TYPE MS2
AC$MASS_SPECTROMETRY: ION_MODE POSITIVE
AC$MASS_SPECTROMETRY: COLLISION_ENERGY 130
AC$MASS_SPECTROMETRY: FRAGMENTATION_MODE CID
AC$MASS_SPECTROMETRY: IONIZATION ESI
AC$CHROMATOGRAPHY: COLUMN_NAME Zorbax Eclipse Plus C18 2.1 mm x 150 mm, 3.5 um, Agilent
AC$CHROMATOGRAPHY: COLUMN_TEMPERATURE 40 °C
AC$CHROMATOGRAPHY: FLOW_GRADIENT 0 min min 98% A, 1 min 98% A, 2 min 80% A, 16.5 min 2% A, 22 min 2% A, 22.1 min 98% A, 27 min 98% A
AC$CHROMATOGRAPHY: FLOW_RATE 0.3 mL/min
AC$CHROMATOGRAPHY: RETENTION_TIME 6.973 min
AC$CHROMATOGRAPHY: SOLVENT A: Water 0.1% Formic acid, B: Acetonitrile 0.1% Formic acid
MS$FOCUSED_ION: PRECURSOR_M/Z 208.1332
MS$FOCUSED_ION: PRECURSOR_TYPE [M+H]+
MS$DATA_PROCESSING: COMMENT Export with pycsl 0.1.0.dev1 and CSL 24.4
PK$SPLASH: splash10-03di-9000000000-f733d01c5eb2fa83643a
PK$NUM_PEAK: 14
PK$PEAK: m/z int. rel.int.
  44.026 3.6 134
  49.0173 2.6 97
  50.026 12.5 467
  60.0074 2.2 82
  61.0154 14.8 553
  62.0226 26.7 999
  63.0302 20.3 759
  73.0165 0.5 18
  74.0218 2.5 93
  75.0282 1.0 37
  77.0449 2.3 86
  85.0123 0.6 22
  86.023 0.5 18
  89.0431 2.0 74
//