ACCESSION: MSBNK-BAFG-CSL231030649
RECORD_TITLE: Dimethyl-ditetradecylammonium; LC-ESI-QTOF; MS2; 140 V
DATE: 2023.10.30
AUTHORS: Kevin S. Jewell; Björn Ehlig; Arne Wick
LICENSE: dl-de/by-2-0
COPYRIGHT: Copyright 2023 Federal Institute of Hydrology, Koblenz, Germany
COMMENT: CONFIDENCE Reference Standard (Level 1)
COMMENT: Chromatography method: dx.doi.org/10.1016/j.chroma.2015.11.014
COMMENT: Acquisition method: 10.1002/rcm.8541
CH$NAME: Dimethyl-ditetradecylammonium
CH$COMPOUND_CLASS: Pharmaceutical
CH$FORMULA: [C30H64N]+
CH$EXACT_MASS: 438.5033
CH$SMILES: CCCCCCCCCCCCCC[N+](C)(C)CCCCCCCCCCCCCC
CH$IUPAC: InChI=1S/C30H64N/c1-5-7-9-11-13-15-17-19-21-23-25-27-29-31(3,4)30-28-26-24-22-20-18-16-14-12-10-8-6-2/h5-30H2,1-4H3/q+1
CH$LINK: CAS 20256-58-0
CH$LINK: INCHIKEY CJBMLKNLJXFFGD-UHFFFAOYSA-N
AC$INSTRUMENT: TripleTOF 5600 SCIEX
AC$INSTRUMENT_TYPE: LC-ESI-QTOF
AC$MASS_SPECTROMETRY: MS_TYPE MS2
AC$MASS_SPECTROMETRY: ION_MODE POSITIVE
AC$MASS_SPECTROMETRY: COLLISION_ENERGY 140
AC$MASS_SPECTROMETRY: FRAGMENTATION_MODE CID
AC$MASS_SPECTROMETRY: IONIZATION ESI
AC$CHROMATOGRAPHY: COLUMN_NAME Zorbax Eclipse Plus C18 2.1 mm x 150 mm, 3.5 um, Agilent
AC$CHROMATOGRAPHY: COLUMN_TEMPERATURE 40 °C
AC$CHROMATOGRAPHY: FLOW_GRADIENT 0 min min 98% A, 1 min 98% A, 2 min 80% A, 16.5 min 2% A, 22 min 2% A, 22.1 min 98% A, 27 min 98% A
AC$CHROMATOGRAPHY: FLOW_RATE 0.3 mL/min
AC$CHROMATOGRAPHY: RETENTION_TIME 16.898 min
AC$CHROMATOGRAPHY: SOLVENT A: Water 0.1% Formic acid, B: Acetonitrile 0.1% Formic acid
MS$FOCUSED_ION: PRECURSOR_M/Z 438.5033
MS$FOCUSED_ION: PRECURSOR_TYPE [M]+
MS$DATA_PROCESSING: COMMENT Export with Spectra 1.9.12 MsBackendMassbank 1.7.4
MS$DATA_PROCESSING: WHOLE RMassBank 2.3.1
PK$SPLASH: splash10-0a4i-9000000000-1e20c303725df5c0ee1e
PK$NUM_PEAK: 4
PK$PEAK: m/z int. rel.int.
  42.0425 2.1 129
  44.058 0.9 55
  57.0738 1.2 74
  58.0709 16.2 999
//
