ACCESSION: MSBNK-BAFG-CSL23103019298
RECORD_TITLE: Metobromuron; LC-ESI-QTOF; MS2; 100 V
DATE: 2023.10.30
AUTHORS: Kevin S. Jewell; Björn Ehlig; Arne Wick
LICENSE: dl-de/by-2-0
COPYRIGHT: Copyright 2023 Federal Institute of Hydrology, Koblenz, Germany
COMMENT: CONFIDENCE Reference Standard (Level 1)
COMMENT: Chromatography method: dx.doi.org/10.1016/j.chroma.2015.11.014
COMMENT: Acquisition method: 10.1002/rcm.8541
CH$NAME: Metobromuron
CH$COMPOUND_CLASS: Herbicide
CH$FORMULA: C9H11BrN2O2
CH$EXACT_MASS: 258.0004
CH$SMILES: CN(C(=O)NC1=CC=C(C=C1)Br)OC
CH$IUPAC: InChI=1S/C9H11BrN2O2/c1-12(14-2)9(13)11-8-5-3-7(10)4-6-8/h3-6H,1-2H3,(H,11,13)
CH$LINK: CAS 3060-89-7
CH$LINK: INCHIKEY WLFDQEVORAMCIM-UHFFFAOYSA-N
AC$INSTRUMENT: TripleTOF 6600 SCIEX
AC$INSTRUMENT_TYPE: LC-ESI-QTOF
AC$MASS_SPECTROMETRY: MS_TYPE MS2
AC$MASS_SPECTROMETRY: ION_MODE POSITIVE
AC$MASS_SPECTROMETRY: COLLISION_ENERGY 100
AC$MASS_SPECTROMETRY: FRAGMENTATION_MODE CID
AC$MASS_SPECTROMETRY: IONIZATION ESI
AC$CHROMATOGRAPHY: COLUMN_NAME Zorbax Eclipse Plus C18 2.1 mm x 150 mm, 3.5 um, Agilent
AC$CHROMATOGRAPHY: COLUMN_TEMPERATURE 40 °C
AC$CHROMATOGRAPHY: FLOW_GRADIENT 0 min min 98% A, 1 min 98% A, 2 min 80% A, 16.5 min 2% A, 22 min 2% A, 22.1 min 98% A, 27 min 98% A
AC$CHROMATOGRAPHY: FLOW_RATE 0.3 mL/min
AC$CHROMATOGRAPHY: RETENTION_TIME 10.623 min
AC$CHROMATOGRAPHY: SOLVENT A: Water 0.1% Formic acid, B: Acetonitrile 0.1% Formic acid
MS$FOCUSED_ION: PRECURSOR_M/Z 259.0077
MS$FOCUSED_ION: PRECURSOR_TYPE [M+H]+
MS$DATA_PROCESSING: COMMENT Export with Spectra 1.9.12 MsBackendMassbank 1.7.4
MS$DATA_PROCESSING: WHOLE RMassBank 2.3.1
PK$SPLASH: splash10-03xr-9100000000-54c9aa585b1a2ed56e52
PK$NUM_PEAK: 21
PK$PEAK: m/z int. rel.int.
  37.005 1.2 161
  38.0127 1.8 242
  39.0206 3.6 485
  50.0123 0.5 67
  51.0205 0.6 80
  52.0155 1.5 202
  61.0041 1.5 202
  62.0126 1.9 256
  63.0199 7.4 999
  64.0284 1.9 256
  65.0226 0.9 121
  65.0359 3.7 499
  74.0122 0.4 54
  76.0156 0.5 67
  77.0347 0.4 54
  91.0387 1.9 256
  92.0466 1 134
  92.929 1 134
  116.9296 3 404
  119.0578 0.5 67
  142.9446 0.6 80
//
