ACCESSION: MSBNK-BAFG-CSL25010634476
RECORD_TITLE: Disperse brown 1; LC-ESI-QTOF; MS2; 50 V
DATE: 2025.01.06
AUTHORS: Ole Lessmann; Kevin S. Jewell; Björn Ehlig; Arne Wick
LICENSE: dl-de/by-2-0
COPYRIGHT: Copyright 2025 Federal Institute of Hydrology, Koblenz, Germany
COMMENT: CONFIDENCE Reference Standard (Level 1)
COMMENT: Chromatography method: dx.doi.org/10.1016/j.chroma.2015.11.014
COMMENT: Acquisition method: 10.1002/rcm.8541
CH$NAME: Disperse brown 1
CH$FORMULA: C16H15Cl3N4O4
CH$EXACT_MASS: 432.0159
CH$SMILES: C1=CC(=C(C=C1N(CCO)CCO)Cl)N=NC2=C(C=C(C=C2Cl)[N+](=O)[O-])Cl
CH$IUPAC: InChI=1S/C16H15Cl3N4O4/c17-12-7-10(22(3-5-24)4-6-25)1-2-15(12)20-21-16-13(18)8-11(23(26)27)9-14(16)19/h1-2,7-9,24-25H,3-6H2
CH$LINK: CAS 23355-64-8
CH$LINK: INCHIKEY HXXLWTPFYWMBSC-UHFFFAOYSA-N
AC$INSTRUMENT: TripleTOF 6600 SCIEX
AC$INSTRUMENT_TYPE: LC-ESI-QTOF
AC$MASS_SPECTROMETRY: MS_TYPE MS2
AC$MASS_SPECTROMETRY: ION_MODE POSITIVE
AC$MASS_SPECTROMETRY: COLLISION_ENERGY 50
AC$MASS_SPECTROMETRY: FRAGMENTATION_MODE CID
AC$MASS_SPECTROMETRY: IONIZATION ESI
AC$CHROMATOGRAPHY: COLUMN_NAME Zorbax Eclipse Plus C18 2.1 mm x 150 mm, 3.5 um, Agilent
AC$CHROMATOGRAPHY: COLUMN_TEMPERATURE 40 °C
AC$CHROMATOGRAPHY: FLOW_GRADIENT 0 min min 98% A, 1 min 98% A, 2 min 80% A, 16.5 min 2% A, 22 min 2% A, 22.1 min 98% A, 27 min 98% A
AC$CHROMATOGRAPHY: FLOW_RATE 0.3 mL/min
AC$CHROMATOGRAPHY: RETENTION_TIME 12.39 min
AC$CHROMATOGRAPHY: SOLVENT A: Water 0.1% Formic acid, B: Acetonitrile 0.1% Formic acid
MS$FOCUSED_ION: PRECURSOR_M/Z 433.0232
MS$FOCUSED_ION: PRECURSOR_TYPE [M+H]+
MS$DATA_PROCESSING: COMMENT Export with pycsl 0.1.0.dev1 and CSL 24.4
PK$SPLASH: splash10-0a4j-0906000000-cc8d835417b2cfd79561
PK$NUM_PEAK: 67
PK$PEAK: m/z int. rel.int.
  70.0652 1.0 19
  98.9838 1.0 19
  106.9456 0.7 13
  109.9805 0.6 11
  114.0552 3.4 65
  117.0564 0.8 15
  118.0659 0.7 13
  119.0593 1.3 24
  123.9943 0.7 13
  126.0101 1.0 19
  128.026 0.7 13
  130.0623 0.5 9
  131.0608 1.7 32
  133.0805 0.7 13
  135.0663 0.7 13
  139.0075 2.1 40
  139.0186 1.1 21
  140.027 1.4 26
  141.0218 1.0 19
  143.9531 4.8 92
  144.0778 0.5 9
  145.0742 2.7 51
  149.072 1.8 34
  152.0134 0.8 15
  152.026 1.5 28
  153.0219 25.6 491
  157.0767 0.6 11
  158.0375 2.3 44
  159.947 0.7 13
  163.0872 3.6 69
  166.0428 3.6 69
  167.0361 2.8 53
  170.0362 2.1 40
  171.9583 1.2 23
  175.0875 1.6 30
  179.0389 1.7 32
  183.0326 1.7 32
  184.0512 3.7 71
  185.0487 6.0 115
  189.9456 6.9 132
  193.0972 1.4 26
  197.0502 28.9 555
  217.9529 4.6 88
  228.0669 1.7 32
  310.9787 7.7 147
  311.986 0.9 17
  312.9946 1.4 26
  323.0149 2.2 42
  324.995 3.1 59
  328.9522 0.6 11
  340.9706 0.7 13
  342.97 2.1 40
  343.0129 0.9 17
  349.028 1.0 19
  356.0054 0.9 17
  356.0247 1.3 24
  356.9729 52.0 999
  357.9785 2.2 42
  358.9902 3.1 59
  367.0361 1.6 30
  367.0532 1.2 23
  370.9854 3.1 59
  387.0324 9.5 182
  389.0124 0.7 13
  402.0061 2.4 46
  402.032 0.5 9
  433.0285 1.5 28
//