ACCESSION: MSBNK-BAFG-CSL25011734712
RECORD_TITLE: N-[2-[(2-Bromo-4,6-dinitrophenyl)azo]-5-(diethylamino)phenyl]acetamide; LC-ESI-QTOF; MS2; 50 V
DATE: 2025.01.17
AUTHORS: Ole Lessmann; Kevin S. Jewell; Björn Ehlig; Arne Wick
LICENSE: dl-de/by-2-0
COPYRIGHT: Copyright 2025 Federal Institute of Hydrology, Koblenz, Germany
COMMENT: CONFIDENCE Reference Standard (Level 1)
COMMENT: Chromatography method: dx.doi.org/10.1016/j.chroma.2015.11.014
CH$NAME: N-[2-[(2-Bromo-4,6-dinitrophenyl)azo]-5-(diethylamino)phenyl]acetamide
CH$FORMULA: [C18H19BrN6O5]-
CH$EXACT_MASS: 478.06
CH$SMILES: CCN(CC)C1=CC(=C(C=C1)N=NC2=C(C=C(C=C2Br)[N+](=O)[O-])[N+](=O)[O-])NC(=O)C
CH$IUPAC: InChI=1S/C18H19BrN6O5/c1-4-23(5-2)12-6-7-15(16(9-12)20-11(3)26)21-22-18-14(19)8-13(24(27)28)10-17(18)25(29)30/h6-10H,4-5H2,1-3H3,(H,20,26)
CH$LINK: CAS 52697-38-8
CH$LINK: INCHIKEY WFFKSTRPZWRBEW-UHFFFAOYSA-N
AC$INSTRUMENT: TripleTOF 6600 SCIEX
AC$INSTRUMENT_TYPE: LC-ESI-QTOF
AC$MASS_SPECTROMETRY: MS_TYPE MS2
AC$MASS_SPECTROMETRY: ION_MODE NEGATIVE
AC$MASS_SPECTROMETRY: COLLISION_ENERGY 50
AC$MASS_SPECTROMETRY: FRAGMENTATION_MODE CID
AC$MASS_SPECTROMETRY: IONIZATION ESI
AC$CHROMATOGRAPHY: COLUMN_NAME Zorbax Eclipse Plus C18 2.1 mm x 150 mm, 3.5 um, Agilent
AC$CHROMATOGRAPHY: COLUMN_TEMPERATURE 40 °C
AC$CHROMATOGRAPHY: FLOW_GRADIENT 0 min min 98% A, 1 min 98% A, 2 min 80% A, 16.5 min 2% A, 22 min 2% A, 22.1 min 98% A, 27 min 98% A
AC$CHROMATOGRAPHY: FLOW_RATE 0.3 mL/min
AC$CHROMATOGRAPHY: RETENTION_TIME 16.579 min
AC$CHROMATOGRAPHY: SOLVENT A: Water 0.1% Formic acid, B: Acetonitrile 0.1% Formic acid
MS$FOCUSED_ION: PRECURSOR_M/Z 478.0614
MS$FOCUSED_ION: PRECURSOR_TYPE [M]-
MS$DATA_PROCESSING: COMMENT Export with pycsl 0.1.0.dev1 and CSL 25.0
PK$SPLASH: splash10-004i-9652200000-3155bb7e667013e13dab
PK$NUM_PEAK: 36
PK$PEAK: m/z int. rel.int.
  78.9185 35.343 999
  117.0447 0.4959 14
  120.0083 1.4209 40
  132.0699 0.6687 18
  159.0713 0.3824 10
  161.0729 0.3438 9
  175.087 0.535 15
  186.9269 19.3807 547
  199.9346 2.7253 77
  205.136 0.4132 11
  210.0641 0.3204 9
  214.9223 1.0043 28
  215.9279 2.4475 69
  224.1197 0.765 21
  229.9322 6.1219 173
  238.0618 1.4252 40
  244.9196 4.3499 122
  251.0618 0.4271 12
  251.1249 0.4316 12
  252.0653 0.4279 12
  254.0539 2.9054 82
  281.0616 0.7343 20
  281.111 0.7414 20
  282.0616 1.0338 29
  315.9793 0.9632 27
  324.0706 0.8301 23
  325.1788 0.3164 8
  326.1351 0.3701 10
  333.9801 3.1619 89
  354.0648 0.4464 12
  360.0106 0.6393 18
  361.9898 3.9355 111
  378.049 0.7943 22
  403.9995 7.5547 213
  406.0492 0.8939 25
  419.0131 0.3592 10
//
