ACCESSION: MSBNK-BAFG-CSL23110926999
RECORD_TITLE: 3,5-Dichloro-4-hydroxybenzenesulfonic acid-candidate; LC-ESI-QTOF; MS2; 40 V
DATE: 2023.11.09
AUTHORS: Kevin S. Jewell; Björn Ehlig; Arne Wick
LICENSE: dl-de/by-2-0
COPYRIGHT: Copyright 2023 Federal Institute of Hydrology, Koblenz, Germany
COMMENT: CONFIDENCE Reference Standard (Level 1)
COMMENT: Chromatography method: dx.doi.org/10.1016/j.chroma.2015.11.014
COMMENT: Acquisition method: 10.1002/rcm.8541
CH$NAME: 3,5-Dichloro-4-hydroxybenzenesulfonic acid-candidate
CH$FORMULA: C6H4Cl2O4S
CH$EXACT_MASS: 241.9207
CH$SMILES: C1=C(C=C(C(=C1Cl)O)Cl)S(=O)(=O)O
CH$IUPAC: InChI=1S/C6H4Cl2O4S/c7-4-1-3(13(10,11)12)2-5(8)6(4)9/h1-2,9H,(H,10,11,12)
CH$LINK: CAS 25319-98-6
CH$LINK: INCHIKEY PGDCAFRJYQICAY-UHFFFAOYSA-N
AC$INSTRUMENT: TripleTOF 6600 SCIEX
AC$INSTRUMENT_TYPE: LC-ESI-QTOF
AC$MASS_SPECTROMETRY: MS_TYPE MS2
AC$MASS_SPECTROMETRY: ION_MODE NEGATIVE
AC$MASS_SPECTROMETRY: COLLISION_ENERGY 40
AC$MASS_SPECTROMETRY: FRAGMENTATION_MODE CID
AC$MASS_SPECTROMETRY: IONIZATION ESI
AC$CHROMATOGRAPHY: COLUMN_NAME Zorbax Eclipse Plus C18 2.1 mm x 150 mm, 3.5 um, Agilent
AC$CHROMATOGRAPHY: COLUMN_TEMPERATURE 40 °C
AC$CHROMATOGRAPHY: FLOW_GRADIENT 0 min min 98% A, 1 min 98% A, 2 min 80% A, 16.5 min 2% A, 22 min 2% A, 22.1 min 98% A, 27 min 98% A
AC$CHROMATOGRAPHY: FLOW_RATE 0.3 mL/min
AC$CHROMATOGRAPHY: RETENTION_TIME 6.65 min
AC$CHROMATOGRAPHY: SOLVENT A: Water 0.1% Formic acid, B: Acetonitrile 0.1% Formic acid
MS$FOCUSED_ION: PRECURSOR_M/Z 240.9116
MS$FOCUSED_ION: PRECURSOR_TYPE [M-H]-
MS$DATA_PROCESSING: COMMENT Export with Spectra 1.9.12 MsBackendMassbank 1.7.4
MS$DATA_PROCESSING: WHOLE RMassBank 2.3.1
PK$SPLASH: splash10-03di-0900000000-22d31b3a6de78df42c57
PK$NUM_PEAK: 6
PK$PEAK: m/z int. rel.int.
  124.9774 0.3406 9
  132.9028 2.5933 71
  145.0286 0.4194 11
  148.8994 1.0589 29
  150.9121 2.1821 60
  160.9538 36.2593 999
//
