ACCESSION: MSBNK-BAFG-CSL2311108969
RECORD_TITLE: N-[4-(1H-benzimidazol-2-yl)phenyl]-N,N-dimethylamine; LC-ESI-QTOF; MS2; 50 V
DATE: 2023.11.10
AUTHORS: Kevin S. Jewell; Björn Ehlig; Arne Wick
LICENSE: dl-de/by-2-0
COPYRIGHT: Copyright 2023 Federal Institute of Hydrology, Koblenz, Germany
COMMENT: CONFIDENCE Reference Standard (Level 1)
COMMENT: Chromatography method: dx.doi.org/10.1016/j.chroma.2015.11.014
COMMENT: Acquisition method: 10.1002/rcm.8541
CH$NAME: N-[4-(1H-benzimidazol-2-yl)phenyl]-N,N-dimethylamine
CH$COMPOUND_CLASS: Pharmaceutical
CH$FORMULA: C15H15N3
CH$EXACT_MASS: 237.1266
CH$SMILES: CN(C)C1=CC=C(C=C1)C2=NC3=CC=CC=C3N2
CH$IUPAC: InChI=1S/C15H15N3/c1-18(2)12-9-7-11(8-10-12)15-16-13-5-3-4-6-14(13)17-15/h3-10H,1-2H3,(H,16,17)
CH$LINK: CAS 2562-71-2
CH$LINK: INCHIKEY ZKBBGUJBGLTNEK-UHFFFAOYSA-N
AC$INSTRUMENT: TripleTOF 5600 SCIEX
AC$INSTRUMENT_TYPE: LC-ESI-QTOF
AC$MASS_SPECTROMETRY: MS_TYPE MS2
AC$MASS_SPECTROMETRY: ION_MODE POSITIVE
AC$MASS_SPECTROMETRY: COLLISION_ENERGY 50
AC$MASS_SPECTROMETRY: FRAGMENTATION_MODE CID
AC$MASS_SPECTROMETRY: IONIZATION ESI
AC$CHROMATOGRAPHY: COLUMN_NAME Zorbax Eclipse Plus C18 2.1 mm x 150 mm, 3.5 um, Agilent
AC$CHROMATOGRAPHY: COLUMN_TEMPERATURE 40 °C
AC$CHROMATOGRAPHY: FLOW_GRADIENT 0 min min 98% A, 1 min 98% A, 2 min 80% A, 16.5 min 2% A, 22 min 2% A, 22.1 min 98% A, 27 min 98% A
AC$CHROMATOGRAPHY: FLOW_RATE 0.3 mL/min
AC$CHROMATOGRAPHY: RETENTION_TIME 6.517 min
AC$CHROMATOGRAPHY: SOLVENT A: Water 0.1% Formic acid, B: Acetonitrile 0.1% Formic acid
MS$FOCUSED_ION: PRECURSOR_M/Z 238.1339
MS$FOCUSED_ION: PRECURSOR_TYPE [M+H]+
MS$DATA_PROCESSING: COMMENT Export with Spectra 1.9.12 MsBackendMassbank 1.7.4
MS$DATA_PROCESSING: WHOLE RMassBank 2.3.1
PK$SPLASH: splash10-00dl-1690000000-4d79542564d531c4ff2b
PK$NUM_PEAK: 14
PK$PEAK: m/z int. rel.int.
  65.0462 33.5 41
  92.0531 69.9 86
  145.0767 42.8 52
  146.0846 10.5 12
  167.0725 8.6 10
  192.0683 10.1 12
  193.0761 129.5 159
  194.0837 350.9 432
  195.0919 65.4 80
  206.0839 13.9 17
  221.0938 16.8 20
  222.102 810.2 999
  223.1075 17.5 21
  238.1328 33.8 41
//
