ACCESSION: MSBNK-BAFG-CSL23103015358
RECORD_TITLE: 1-Palmitoyl-2-glutaryl-sn-glycero-3-phosphocholine; LC-ESI-QTOF; MS2; 80 V
DATE: 2023.10.30
AUTHORS: Kevin S. Jewell; Björn Ehlig; Arne Wick
LICENSE: dl-de/by-2-0
COPYRIGHT: Copyright 2023 Federal Institute of Hydrology, Koblenz, Germany
COMMENT: CONFIDENCE Reference Standard (Level 1)
COMMENT: Chromatography method: dx.doi.org/10.1016/j.chroma.2015.11.014
COMMENT: Acquisition method: 10.1002/rcm.8541
CH$NAME: 1-Palmitoyl-2-glutaryl-sn-glycero-3-phosphocholine
CH$FORMULA: C29H56NO10P
CH$EXACT_MASS: 609.3642
CH$SMILES: CCCCCCCCCCCCCCCC(=O)OCC(COP(=O)([O-])OCC[N+](C)(C)C)OC(=O)CCCC(=O)O
CH$IUPAC: InChI=1S/C29H56NO10P/c1-5-6-7-8-9-10-11-12-13-14-15-16-17-20-28(33)37-24-26(40-29(34)21-18-19-27(31)32)25-39-41(35,36)38-23-22-30(2,3)4/h26H,5-25H2,1-4H3,(H-,31,32,35,36)
CH$LINK: CAS 89947-79-5
CH$LINK: INCHIKEY CDZVJFRXJAUXPP-UHFFFAOYSA-N
AC$INSTRUMENT: TripleTOF 6600 SCIEX
AC$INSTRUMENT_TYPE: LC-ESI-QTOF
AC$MASS_SPECTROMETRY: MS_TYPE MS2
AC$MASS_SPECTROMETRY: ION_MODE POSITIVE
AC$MASS_SPECTROMETRY: COLLISION_ENERGY 80
AC$MASS_SPECTROMETRY: FRAGMENTATION_MODE CID
AC$MASS_SPECTROMETRY: IONIZATION ESI
AC$CHROMATOGRAPHY: COLUMN_NAME Zorbax Eclipse Plus C18 2.1 mm x 150 mm, 3.5 um, Agilent
AC$CHROMATOGRAPHY: COLUMN_TEMPERATURE 40 °C
AC$CHROMATOGRAPHY: FLOW_GRADIENT 0 min min 98% A, 1 min 98% A, 2 min 80% A, 16.5 min 2% A, 22 min 2% A, 22.1 min 98% A, 27 min 98% A
AC$CHROMATOGRAPHY: FLOW_RATE 0.3 mL/min
AC$CHROMATOGRAPHY: RETENTION_TIME 15.246 min
AC$CHROMATOGRAPHY: SOLVENT A: Water 0.1% Formic acid, B: Acetonitrile 0.1% Formic acid
MS$FOCUSED_ION: PRECURSOR_M/Z 610.3715
MS$FOCUSED_ION: PRECURSOR_TYPE [M+H]+
MS$DATA_PROCESSING: COMMENT Export with Spectra 1.9.12 MsBackendMassbank 1.7.4
MS$DATA_PROCESSING: WHOLE RMassBank 2.3.1
PK$SPLASH: splash10-004r-8900000000-a4f4c541d2a48c9c1afa
PK$NUM_PEAK: 12
PK$PEAK: m/z int. rel.int.
  45.0342 2.7 27
  56.0497 2.9 29
  60.0812 14 143
  71.0734 15.2 155
  80.9736 3.3 33
  86.0969 90.4 924
  87.0437 1.7 17
  98.9843 23.8 243
  104.1069 7.6 77
  125 97.7 999
  166.0625 11.2 114
  184.0731 48.5 495
//
