ACCESSION: MSBNK-BAFG-CSL2501067517
RECORD_TITLE: Pantoprazole sulfide; LC-ESI-QTOF; MS2; 70 V
DATE: 2025.01.06
AUTHORS: Ole Lessmann; Kevin S. Jewell; Björn Ehlig; Arne Wick
LICENSE: dl-de/by-2-0
COPYRIGHT: Copyright 2025 Federal Institute of Hydrology, Koblenz, Germany
COMMENT: CONFIDENCE Reference Standard (Level 1)
COMMENT: Chromatography method: dx.doi.org/10.1016/j.chroma.2015.11.014
COMMENT: Acquisition method: 10.1002/rcm.8541
CH$NAME: Pantoprazole sulfide
CH$COMPOUND_CLASS: Pharmaceutical; Metabolite; Transformation_product-Metabolite
CH$FORMULA: C16H15F2N3O3S
CH$EXACT_MASS: 367.0802
CH$SMILES: COC1=C(C(=NC=C1)CSC2=NC3=C(N2)C=CC(=C3)OC(F)F)OC
CH$IUPAC: InChI=1S/C16H15F2N3O3S/c1-22-13-5-6-19-12(14(13)23-2)8-25-16-20-10-4-3-9(24-15(17)18)7-11(10)21-16/h3-7,15H,8H2,1-2H3,(H,20,21)
CH$LINK: CAS 102625-64-9
CH$LINK: INCHIKEY UKILEIRWOYBGEJ-UHFFFAOYSA-N
AC$INSTRUMENT: TripleTOF 5600 SCIEX
AC$INSTRUMENT_TYPE: LC-ESI-QTOF
AC$MASS_SPECTROMETRY: MS_TYPE MS2
AC$MASS_SPECTROMETRY: ION_MODE POSITIVE
AC$MASS_SPECTROMETRY: COLLISION_ENERGY 70
AC$MASS_SPECTROMETRY: FRAGMENTATION_MODE CID
AC$MASS_SPECTROMETRY: IONIZATION ESI
AC$CHROMATOGRAPHY: COLUMN_NAME Zorbax Eclipse Plus C18 2.1 mm x 150 mm, 3.5 um, Agilent
AC$CHROMATOGRAPHY: COLUMN_TEMPERATURE 40 °C
AC$CHROMATOGRAPHY: FLOW_GRADIENT 0 min min 98% A, 1 min 98% A, 2 min 80% A, 16.5 min 2% A, 22 min 2% A, 22.1 min 98% A, 27 min 98% A
AC$CHROMATOGRAPHY: FLOW_RATE 0.3 mL/min
AC$CHROMATOGRAPHY: RETENTION_TIME 7.575 min
AC$CHROMATOGRAPHY: SOLVENT A: Water 0.1% Formic acid, B: Acetonitrile 0.1% Formic acid
MS$FOCUSED_ION: PRECURSOR_M/Z 368.0875
MS$FOCUSED_ION: PRECURSOR_TYPE [M+H]+
MS$DATA_PROCESSING: COMMENT Export with pycsl 0.1.0.dev1 and CSL 24.4
PK$SPLASH: splash10-00kf-9400000000-be906e6fd2049932a1be
PK$NUM_PEAK: 37
PK$PEAK: m/z int. rel.int.
  42.0423 1.6 19
  51.029 5.0 60
  65.0441 55.5 668
  69.037 1.6 19
  78.036 1.5 18
  79.0451 1.8 21
  80.0515 1.4 16
  92.0518 83.0 999
  92.0833 1.0 12
  93.0577 0.8 9
  94.0298 1.2 14
  94.067 1.4 16
  96.0045 1.2 14
  107.0365 2.4 28
  107.0673 1.0 12
  108.0442 1.8 21
  110.0604 4.4 52
  117.0454 1.5 18
  118.0532 1.7 20
  122.0089 1.1 13
  122.0604 5.5 66
  123.0133 2.4 28
  135.0325 1.2 14
  135.0553 6.1 73
  136.0393 10.1 121
  137.0473 2.0 24
  138.0549 8.7 104
  150.0543 2.5 30
  151.0083 9.3 111
  152.0155 0.9 10
  152.0716 2.1 25
  154.0316 6.1 73
  168.0108 1.2 14
  169.0189 0.9 10
  184.0418 4.2 50
  185.053 2.7 32
  223.0555 1.9 22
//