ACCESSION: MSBNK-BAFG-CSL25010634235
RECORD_TITLE: 4,4`-Thiodianiline; LC-ESI-QTOF; MS2; 90 V
DATE: 2025.01.06
AUTHORS: Ole Lessmann; Kevin S. Jewell; Björn Ehlig; Arne Wick
LICENSE: dl-de/by-2-0
COPYRIGHT: Copyright 2025 Federal Institute of Hydrology, Koblenz, Germany
COMMENT: CONFIDENCE Reference Standard (Level 1)
COMMENT: Chromatography method: dx.doi.org/10.1016/j.chroma.2015.11.014
COMMENT: Acquisition method: 10.1002/rcm.8541
CH$NAME: 4,4`-Thiodianiline
CH$FORMULA: C12H12N2S
CH$EXACT_MASS: 216.0721
CH$SMILES: C1=CC(=CC=C1N)SC2=CC=C(C=C2)N
CH$IUPAC: InChI=1S/C12H12N2S/c13-9-1-5-11(6-2-9)15-12-7-3-10(14)4-8-12/h1-8H,13-14H2
CH$LINK: CAS 139-65-1
CH$LINK: INCHIKEY ICNFHJVPAJKPHW-UHFFFAOYSA-N
AC$INSTRUMENT: TripleTOF 6600 SCIEX
AC$INSTRUMENT_TYPE: LC-ESI-QTOF
AC$MASS_SPECTROMETRY: MS_TYPE MS2
AC$MASS_SPECTROMETRY: ION_MODE POSITIVE
AC$MASS_SPECTROMETRY: COLLISION_ENERGY 90
AC$MASS_SPECTROMETRY: FRAGMENTATION_MODE CID
AC$MASS_SPECTROMETRY: IONIZATION ESI
AC$CHROMATOGRAPHY: COLUMN_NAME Zorbax Eclipse Plus C18 2.1 mm x 150 mm, 3.5 um, Agilent
AC$CHROMATOGRAPHY: COLUMN_TEMPERATURE 40 °C
AC$CHROMATOGRAPHY: FLOW_GRADIENT 0 min min 98% A, 1 min 98% A, 2 min 80% A, 16.5 min 2% A, 22 min 2% A, 22.1 min 98% A, 27 min 98% A
AC$CHROMATOGRAPHY: FLOW_RATE 0.3 mL/min
AC$CHROMATOGRAPHY: RETENTION_TIME 6.429 min
AC$CHROMATOGRAPHY: SOLVENT A: Water 0.1% Formic acid, B: Acetonitrile 0.1% Formic acid
MS$FOCUSED_ION: PRECURSOR_M/Z 217.0794
MS$FOCUSED_ION: PRECURSOR_TYPE [M+H]+
MS$DATA_PROCESSING: COMMENT Export with pycsl 0.1.0.dev1 and CSL 24.4
PK$SPLASH: splash10-0f8i-9300000000-1405d6c61fe64433044d
PK$NUM_PEAK: 50
PK$PEAK: m/z int. rel.int.
  39.0223 1.6 111
  44.9788 1.0 69
  50.0147 3.8 263
  51.0219 0.9 62
  53.0381 6.4 444
  54.0348 0.5 34
  62.0152 0.6 41
  63.0217 2.6 180
  65.0374 1.1 76
  66.0456 0.6 41
  67.0379 0.5 34
  68.9773 3.3 228
  74.014 0.7 48
  75.0224 1.4 97
  76.0298 1.1 76
  77.0377 2.9 201
  78.034 0.6 41
  79.0407 0.7 48
  80.0484 14.4 999
  81.9864 0.5 34
  85.0057 0.5 34
  86.0146 0.7 48
  87.022 1.0 69
  88.0293 0.7 48
  89.0375 2.8 194
  90.0412 0.7 48
  91.0399 0.5 34
  92.0498 0.4 27
  92.9772 0.6 41
  96.0001 0.8 55
  97.0083 0.8 55
  98.0147 0.5 34
  101.0369 0.4 27
  102.0448 0.8 55
  113.0365 2.0 138
  115.0544 1.1 76
  122.0053 0.4 27
  123.013 2.3 159
  124.0204 0.6 41
  125.0351 0.6 41
  126.0451 1.2 83
  127.0508 2.0 138
  128.0596 0.9 62
  129.0508 0.7 48
  137.0361 1.1 76
  138.0454 0.6 41
  139.0516 4.9 339
  140.0487 1.0 69
  151.0541 0.7 48
  171.0247 1.3 90
//