ACCESSION: MSBNK-BAFG-CSL23103016422
RECORD_TITLE: Nafcillin; LC-ESI-QTOF; MS2; 120 V
DATE: 2023.10.30
AUTHORS: Kevin S. Jewell; Björn Ehlig; Arne Wick
LICENSE: dl-de/by-2-0
COPYRIGHT: Copyright 2023 Federal Institute of Hydrology, Koblenz, Germany
COMMENT: CONFIDENCE Reference Standard (Level 1)
COMMENT: Chromatography method: dx.doi.org/10.1016/j.chroma.2015.11.014
COMMENT: Acquisition method: 10.1002/rcm.8541
CH$NAME: Nafcillin
CH$COMPOUND_CLASS: Pharmaceutical
CH$FORMULA: C21H22N2O5S
CH$EXACT_MASS: 414.1249
CH$SMILES: CCOC1=C(C2=CC=CC=C2C=C1)C(=O)NC3C4N(C3=O)C(C(S4)(C)C)C(=O)O
CH$IUPAC: InChI=1S/C21H22N2O5S/c1-4-28-13-10-9-11-7-5-6-8-12(11)14(13)17(24)22-15-18(25)23-16(20(26)27)21(2,3)29-19(15)23/h5-10,15-16,19H,4H2,1-3H3,(H,22,24)(H,26,27)
CH$LINK: CAS 147-52-4
CH$LINK: INCHIKEY GPXLMGHLHQJAGZ-UHFFFAOYSA-N
AC$INSTRUMENT: TripleTOF 6600 SCIEX
AC$INSTRUMENT_TYPE: LC-ESI-QTOF
AC$MASS_SPECTROMETRY: MS_TYPE MS2
AC$MASS_SPECTROMETRY: ION_MODE POSITIVE
AC$MASS_SPECTROMETRY: COLLISION_ENERGY 120
AC$MASS_SPECTROMETRY: FRAGMENTATION_MODE CID
AC$MASS_SPECTROMETRY: IONIZATION ESI
AC$CHROMATOGRAPHY: COLUMN_NAME Zorbax Eclipse Plus C18 2.1 mm x 150 mm, 3.5 um, Agilent
AC$CHROMATOGRAPHY: COLUMN_TEMPERATURE 40 °C
AC$CHROMATOGRAPHY: FLOW_GRADIENT 0 min min 98% A, 1 min 98% A, 2 min 80% A, 16.5 min 2% A, 22 min 2% A, 22.1 min 98% A, 27 min 98% A
AC$CHROMATOGRAPHY: FLOW_RATE 0.3 mL/min
AC$CHROMATOGRAPHY: RETENTION_TIME 10.616 min
AC$CHROMATOGRAPHY: SOLVENT A: Water 0.1% Formic acid, B: Acetonitrile 0.1% Formic acid
MS$FOCUSED_ION: PRECURSOR_M/Z 415.1322
MS$FOCUSED_ION: PRECURSOR_TYPE [M+H]+
MS$DATA_PROCESSING: COMMENT Export with Spectra 1.9.12 MsBackendMassbank 1.7.4
MS$DATA_PROCESSING: WHOLE RMassBank 2.3.1
PK$SPLASH: splash10-014i-3900000000-d9405b0d026c00238c64
PK$NUM_PEAK: 24
PK$PEAK: m/z int. rel.int.
  39.0228 2.8 13
  62.0145 3.3 15
  63.0224 14.8 70
  65.0382 19.6 93
  75.023 3.7 17
  77.038 6.2 29
  87.0224 2.6 12
  88.0304 2.3 11
  89.0381 71.2 340
  113.0372 3.2 15
  114.0455 10.9 52
  115.0536 208.7 999
  126.0452 6.8 32
  127.0529 16.2 77
  128.0604 5.3 25
  139.0526 2.5 11
  140.0481 3.3 15
  143.0477 5.4 25
  151.053 2.3 11
  152.0596 8.5 40
  153.0578 2.2 10
  154.0646 3.6 17
  155.0598 3.5 16
  182.0595 2.6 12
//
