ACCESSION: MSBNK-BAFG-CSL25010627967
RECORD_TITLE: N-[2-[(2-Bromo-4,6-dinitrophenyl)azo]-5-(diethylamino)phenyl]acetamide; LC-ESI-QTOF; MS2; 60 V
DATE: 2025.01.06
AUTHORS: Ole Lessmann; Kevin S. Jewell; Björn Ehlig; Arne Wick
LICENSE: dl-de/by-2-0
COPYRIGHT: Copyright 2025 Federal Institute of Hydrology, Koblenz, Germany
COMMENT: CONFIDENCE Reference Standard (Level 1)
COMMENT: Chromatography method: dx.doi.org/10.1016/j.chroma.2015.11.014
COMMENT: Acquisition method: 10.1002/rcm.8541
CH$NAME: N-[2-[(2-Bromo-4,6-dinitrophenyl)azo]-5-(diethylamino)phenyl]acetamide
CH$FORMULA: C18H19BrN6O5
CH$EXACT_MASS: 478.06
CH$SMILES: CCN(CC)C1=CC(=C(C=C1)N=NC2=C(C=C(C=C2Br)[N+](=O)[O-])[N+](=O)[O-])NC(=O)C
CH$IUPAC: InChI=1S/C18H19BrN6O5/c1-4-23(5-2)12-6-7-15(16(9-12)20-11(3)26)21-22-18-14(19)8-13(24(27)28)10-17(18)25(29)30/h6-10H,4-5H2,1-3H3,(H,20,26)
CH$LINK: CAS 52697-38-8
CH$LINK: INCHIKEY WFFKSTRPZWRBEW-UHFFFAOYSA-N
AC$INSTRUMENT: TripleTOF X500R SCIEX
AC$INSTRUMENT_TYPE: LC-ESI-QTOF
AC$MASS_SPECTROMETRY: MS_TYPE MS2
AC$MASS_SPECTROMETRY: ION_MODE POSITIVE
AC$MASS_SPECTROMETRY: COLLISION_ENERGY 60
AC$MASS_SPECTROMETRY: FRAGMENTATION_MODE CID
AC$MASS_SPECTROMETRY: IONIZATION ESI
AC$CHROMATOGRAPHY: COLUMN_NAME Zorbax Eclipse Plus C18 2.1 mm x 150 mm, 3.5 um, Agilent
AC$CHROMATOGRAPHY: COLUMN_TEMPERATURE 40 °C
AC$CHROMATOGRAPHY: FLOW_GRADIENT 0 min min 98% A, 1 min 98% A, 2 min 80% A, 16.5 min 2% A, 22 min 2% A, 22.1 min 98% A, 27 min 98% A
AC$CHROMATOGRAPHY: FLOW_RATE 0.3 mL/min
AC$CHROMATOGRAPHY: RETENTION_TIME 16.579 min
AC$CHROMATOGRAPHY: SOLVENT A: Water 0.1% Formic acid, B: Acetonitrile 0.1% Formic acid
MS$FOCUSED_ION: PRECURSOR_M/Z 479.0673
MS$FOCUSED_ION: PRECURSOR_TYPE [M+H]+
MS$DATA_PROCESSING: COMMENT Export with pycsl 0.1.0.dev1 and CSL 24.4
PK$SPLASH: splash10-01ox-0900000000-e0a1c862a0fee8928387
PK$NUM_PEAK: 57
PK$PEAK: m/z int. rel.int.
  43.0183 2.2 15
  93.0574 3.6 24
  94.0641 1.7 11
  106.0651 1.7 11
  107.0604 5.7 39
  108.0451 5.0 34
  108.0822 2.4 16
  109.0759 4.7 32
  119.0613 3.1 21
  120.0582 5.6 38
  121.0768 29.6 204
  123.0922 1.6 11
  132.0805 1.6 11
  133.0658 6.1 42
  134.0723 24.7 170
  135.0924 9.1 62
  136.076 10.5 72
  145.0773 1.7 11
  147.0559 2.3 15
  147.081 4.3 29
  148.0633 8.4 58
  148.0877 19.1 132
  149.0712 1.5 10
  149.1079 15.8 109
  150.0933 1.9 13
  161.0723 2.2 15
  161.1072 2.6 17
  162.1029 35.4 244
  163.0861 43.5 300
  163.123 14.4 99
  175.0744 3.1 21
  176.1185 3.2 22
  177.1027 38.3 264
  191.1181 144.5 999
  194.0752 1.6 11
  204.1143 4.7 32
  205.1337 1.7 11
  222.1111 1.5 10
  237.1374 1.5 10
  250.1334 2.3 15
  265.1452 4.5 31
  271.9928 2.1 14
  272.9919 3.6 24
  273.9837 1.8 12
  284.9915 2.1 14
  300.0114 2.3 15
  300.9927 1.8 12
  301.029 1.8 12
  316.033 2.6 17
  328.0476 2.7 18
  329.0494 4.3 29
  344.065 5.6 38
  345.0472 3.8 26
  346.0161 1.8 12
  375.0366 2.9 20
  376.0416 1.5 10
  390.0596 1.9 13
//