ACCESSION: MSBNK-BAFG-CSL25010634383
RECORD_TITLE: 4,4`-Methylenebis(2-chloroaniline); LC-ESI-QTOF; MS2; 60 V
DATE: 2025.01.06
AUTHORS: Ole Lessmann; Kevin S. Jewell; Björn Ehlig; Arne Wick
LICENSE: dl-de/by-2-0
COPYRIGHT: Copyright 2025 Federal Institute of Hydrology, Koblenz, Germany
COMMENT: CONFIDENCE Reference Standard (Level 1)
COMMENT: Chromatography method: dx.doi.org/10.1016/j.chroma.2015.11.014
COMMENT: Acquisition method: 10.1002/rcm.8541
CH$NAME: 4,4`-Methylenebis(2-chloroaniline)
CH$FORMULA: C13H12Cl2N2
CH$EXACT_MASS: 266.0378
CH$SMILES: C1=CC(=C(C=C1CC2=CC(=C(C=C2)N)Cl)Cl)N
CH$IUPAC: InChI=1S/C13H12Cl2N2/c14-10-6-8(1-3-12(10)16)5-9-2-4-13(17)11(15)7-9/h1-4,6-7H,5,16-17H2
CH$LINK: CAS 101-14-4
CH$LINK: INCHIKEY IBOFVQJTBBUKMU-UHFFFAOYSA-N
AC$INSTRUMENT: TripleTOF 6600 SCIEX
AC$INSTRUMENT_TYPE: LC-ESI-QTOF
AC$MASS_SPECTROMETRY: MS_TYPE MS2
AC$MASS_SPECTROMETRY: ION_MODE POSITIVE
AC$MASS_SPECTROMETRY: COLLISION_ENERGY 60
AC$MASS_SPECTROMETRY: FRAGMENTATION_MODE CID
AC$MASS_SPECTROMETRY: IONIZATION ESI
AC$CHROMATOGRAPHY: COLUMN_NAME Zorbax Eclipse Plus C18 2.1 mm x 150 mm, 3.5 um, Agilent
AC$CHROMATOGRAPHY: COLUMN_TEMPERATURE 40 °C
AC$CHROMATOGRAPHY: FLOW_GRADIENT 0 min min 98% A, 1 min 98% A, 2 min 80% A, 16.5 min 2% A, 22 min 2% A, 22.1 min 98% A, 27 min 98% A
AC$CHROMATOGRAPHY: FLOW_RATE 0.3 mL/min
AC$CHROMATOGRAPHY: RETENTION_TIME 11.747 min
AC$CHROMATOGRAPHY: SOLVENT A: Water 0.1% Formic acid, B: Acetonitrile 0.1% Formic acid
MS$FOCUSED_ION: PRECURSOR_M/Z 267.045
MS$FOCUSED_ION: PRECURSOR_TYPE [M+H]+
MS$DATA_PROCESSING: COMMENT Export with pycsl 0.1.0.dev1 and CSL 24.4
PK$SPLASH: splash10-0v04-0900000000-e54bcfe66a1e6c3bcae8
PK$NUM_PEAK: 47
PK$PEAK: m/z int. rel.int.
  51.0234 5.4 70
  75.0223 0.9 11
  77.0386 41.2 534
  78.0335 3.3 42
  78.0464 1.8 23
  80.0501 0.9 11
  90.0344 0.8 10
  104.0493 37.0 480
  105.0579 5.1 66
  113.0144 3.2 41
  115.0538 12.7 164
  117.0566 1.3 16
  122.9981 0.8 10
  126.0451 1.7 22
  127.0179 1.6 20
  127.0541 4.2 54
  128.0633 3.1 40
  130.0626 3.6 46
  139.0547 5.2 67
  140.0257 77.0 999
  141.0692 11.5 149
  143.0725 4.1 53
  150.0441 9.2 119
  151.0538 54.1 701
  152.0623 34.3 445
  153.0641 14.4 186
  154.0641 11.4 147
  155.0626 3.5 45
  163.0546 1.0 12
  164.0247 2.2 28
  166.065 11.2 145
  167.0723 53.1 688
  168.0809 30.3 393
  169.0835 2.0 25
  177.0566 13.8 179
  178.0655 40.5 525
  179.0645 15.9 206
  180.0806 33.0 428
  181.0754 3.3 42
  192.0462 0.8 10
  192.0683 1.5 19
  193.0758 7.9 102
  194.0847 11.8 153
  195.0917 69.2 897
  197.0154 1.5 19
  214.0436 2.4 31
  229.0545 1.4 18
//