ACCESSION: MSBNK-BAFG-CSL23103013541
RECORD_TITLE: Rhein; LC-ESI-QTOF; MS2; 110 V
DATE: 2023.10.30
AUTHORS: Kevin S. Jewell; Björn Ehlig; Arne Wick
LICENSE: dl-de/by-2-0
COPYRIGHT: Copyright 2023 Federal Institute of Hydrology, Koblenz, Germany
COMMENT: CONFIDENCE Reference Standard (Level 1)
COMMENT: Chromatography method: dx.doi.org/10.1016/j.chroma.2015.11.014
COMMENT: Acquisition method: 10.1002/rcm.8541
CH$NAME: Rhein
CH$COMPOUND_CLASS: Metabolite
CH$FORMULA: C15H8O6
CH$EXACT_MASS: 284.0321
CH$SMILES: C1=CC2=C(C(=C1)O)C(=O)C3=C(C=C(C=C3C2=O)C(=O)O)O
CH$IUPAC: InChI=1S/C15H8O6/c16-9-3-1-2-7-11(9)14(19)12-8(13(7)18)4-6(15(20)21)5-10(12)17/h1-5,16-17H,(H,20,21)
CH$LINK: CAS 478-43-3
CH$LINK: INCHIKEY FCDLCPWAQCPTKC-UHFFFAOYSA-N
AC$INSTRUMENT: TripleTOF 5600 SCIEX
AC$INSTRUMENT_TYPE: LC-ESI-QTOF
AC$MASS_SPECTROMETRY: MS_TYPE MS2
AC$MASS_SPECTROMETRY: ION_MODE POSITIVE
AC$MASS_SPECTROMETRY: COLLISION_ENERGY 110
AC$MASS_SPECTROMETRY: FRAGMENTATION_MODE CID
AC$MASS_SPECTROMETRY: IONIZATION ESI
AC$CHROMATOGRAPHY: COLUMN_NAME Zorbax Eclipse Plus C18 2.1 mm x 150 mm, 3.5 um, Agilent
AC$CHROMATOGRAPHY: COLUMN_TEMPERATURE 40 °C
AC$CHROMATOGRAPHY: FLOW_GRADIENT 0 min min 98% A, 1 min 98% A, 2 min 80% A, 16.5 min 2% A, 22 min 2% A, 22.1 min 98% A, 27 min 98% A
AC$CHROMATOGRAPHY: FLOW_RATE 0.3 mL/min
AC$CHROMATOGRAPHY: RETENTION_TIME 10.796 min
AC$CHROMATOGRAPHY: SOLVENT A: Water 0.1% Formic acid, B: Acetonitrile 0.1% Formic acid
MS$FOCUSED_ION: PRECURSOR_M/Z 285.0394
MS$FOCUSED_ION: PRECURSOR_TYPE [M+H]+
MS$DATA_PROCESSING: COMMENT Export with Spectra 1.9.12 MsBackendMassbank 1.7.4
MS$DATA_PROCESSING: WHOLE RMassBank 2.3.1
PK$SPLASH: splash10-004i-9300000000-f2790255a11b3a69f8c6
PK$NUM_PEAK: 24
PK$PEAK: m/z int. rel.int.
  39.0225 0.7 291
  50.0149 0.6 249
  51.0225 1.9 790
  62.0142 0.8 333
  63.0221 1.6 666
  65.0373 1.3 541
  74.0135 1.1 457
  75.0235 1.7 707
  76.0295 0.4 166
  77.0385 2.4 999
  85.0073 0.4 166
  86.0144 0.8 333
  87.0209 1.1 457
  89.038 0.6 249
  98.0144 0.6 249
  101.0381 0.4 166
  102.0462 0.8 333
  111.0238 0.5 208
  113.038 0.6 249
  126.0462 1.5 624
  127.0551 0.9 374
  128.0606 0.6 249
  137.0381 0.4 166
  139.0518 0.9 374
//
