ACCESSION: MSBNK-BAFG-CSL25010634138
RECORD_TITLE: 2-isopropyl-5,6-dimethyl-1H-benzimidazole; LC-ESI-QTOF; MS2; 80 V
DATE: 2025.01.06
AUTHORS: Ole Lessmann; Kevin S. Jewell; Björn Ehlig; Arne Wick
LICENSE: dl-de/by-2-0
COPYRIGHT: Copyright 2025 Federal Institute of Hydrology, Koblenz, Germany
COMMENT: CONFIDENCE Reference Standard (Level 1)
COMMENT: Chromatography method: dx.doi.org/10.1016/j.chroma.2015.11.014
COMMENT: Acquisition method: 10.1002/rcm.8541
CH$NAME: 2-isopropyl-5,6-dimethyl-1H-benzimidazole
CH$FORMULA: C12H16N2
CH$EXACT_MASS: 188.1313
CH$SMILES: CC1=CC2=C(C=C1C)N=C(N2)C(C)C
CH$IUPAC: InChI=1S/C12H16N2/c1-7(2)12-13-10-5-8(3)9(4)6-11(10)14-12/h5-7H,1-4H3,(H,13,14)
CH$LINK: CAS 66073-79-8
CH$LINK: INCHIKEY KBNPIBOOPFUXEM-UHFFFAOYSA-N
AC$INSTRUMENT: TripleTOF 6600 SCIEX
AC$INSTRUMENT_TYPE: LC-ESI-QTOF
AC$MASS_SPECTROMETRY: MS_TYPE MS2
AC$MASS_SPECTROMETRY: ION_MODE POSITIVE
AC$MASS_SPECTROMETRY: COLLISION_ENERGY 80
AC$MASS_SPECTROMETRY: FRAGMENTATION_MODE CID
AC$MASS_SPECTROMETRY: IONIZATION ESI
AC$CHROMATOGRAPHY: COLUMN_NAME Zorbax Eclipse Plus C18 2.1 mm x 150 mm, 3.5 um, Agilent
AC$CHROMATOGRAPHY: COLUMN_TEMPERATURE 40 °C
AC$CHROMATOGRAPHY: FLOW_GRADIENT 0 min min 98% A, 1 min 98% A, 2 min 80% A, 16.5 min 2% A, 22 min 2% A, 22.1 min 98% A, 27 min 98% A
AC$CHROMATOGRAPHY: FLOW_RATE 0.3 mL/min
AC$CHROMATOGRAPHY: RETENTION_TIME 6.482 min
AC$CHROMATOGRAPHY: SOLVENT A: Water 0.1% Formic acid, B: Acetonitrile 0.1% Formic acid
MS$FOCUSED_ION: PRECURSOR_M/Z 189.1386
MS$FOCUSED_ION: PRECURSOR_TYPE [M+H]+
MS$DATA_PROCESSING: COMMENT Export with pycsl 0.1.0.dev1 and CSL 24.4
PK$SPLASH: splash10-056r-9800000000-cdecc1a8e03f9efb56aa
PK$NUM_PEAK: 45
PK$PEAK: m/z int. rel.int.
  39.0225 20.6 39
  41.0379 8.9 17
  50.0144 18.0 34
  51.0225 108.2 208
  53.0376 8.0 15
  63.0219 11.3 21
  65.0377 56.1 107
  75.0221 6.9 13
  77.0381 519.0 999
  78.0333 13.0 25
  78.045 53.6 103
  79.0529 17.9 34
  80.0481 19.6 37
  89.0373 36.5 70
  90.045 11.5 22
  91.0531 196.2 377
  92.048 7.8 15
  93.0565 9.7 18
  93.0673 25.6 49
  102.0315 10.7 20
  102.0446 7.6 14
  103.0524 38.1 73
  104.0484 146.3 281
  105.0439 10.3 19
  105.0541 13.7 26
  106.0635 9.7 18
  116.0481 16.4 31
  117.0561 26.4 50
  118.0624 33.9 65
  119.0699 6.5 12
  120.0798 26.6 51
  129.043 11.0 21
  130.0634 49.4 95
  131.0592 199.2 383
  132.0664 27.0 51
  142.0504 21.2 40
  143.0597 7.8 15
  144.0671 5.7 10
  145.074 18.4 35
  155.0595 13.5 25
  156.0654 11.7 22
  157.0748 345.8 665
  158.0823 21.7 41
  171.0912 16.4 31
  173.106 11.3 21
//