ACCESSION: MSBNK-BAFG-CSL25010627867
RECORD_TITLE: Iminostilbene; LC-ESI-QTOF; MS2; 80 V
DATE: 2025.01.06
AUTHORS: Ole Lessmann; Kevin S. Jewell; Björn Ehlig; Arne Wick
LICENSE: dl-de/by-2-0
COPYRIGHT: Copyright 2025 Federal Institute of Hydrology, Koblenz, Germany
COMMENT: CONFIDENCE Reference Standard (Level 1)
COMMENT: Chromatography method: dx.doi.org/10.1016/j.chroma.2015.11.014
COMMENT: Acquisition method: 10.1002/rcm.8541
CH$NAME: Iminostilbene
CH$COMPOUND_CLASS: Pharmaceutical
CH$FORMULA: C14H11N
CH$EXACT_MASS: 193.0891
CH$SMILES: C1=CC=C2C(=C1)C=CC3=CC=CC=C3N2
CH$IUPAC: InChI=1S/C14H11N/c1-3-7-13-11(5-1)9-10-12-6-2-4-8-14(12)15-13/h1-10,15H
CH$LINK: CAS 256-96-2
CH$LINK: INCHIKEY LCGTWRLJTMHIQZ-UHFFFAOYSA-N
AC$INSTRUMENT: TripleTOF 6600 SCIEX
AC$INSTRUMENT_TYPE: LC-ESI-QTOF
AC$MASS_SPECTROMETRY: MS_TYPE MS2
AC$MASS_SPECTROMETRY: ION_MODE POSITIVE
AC$MASS_SPECTROMETRY: COLLISION_ENERGY 80
AC$MASS_SPECTROMETRY: FRAGMENTATION_MODE CID
AC$MASS_SPECTROMETRY: IONIZATION ESI
AC$CHROMATOGRAPHY: COLUMN_NAME Zorbax Eclipse Plus C18 2.1 mm x 150 mm, 3.5 um, Agilent
AC$CHROMATOGRAPHY: COLUMN_TEMPERATURE 40 °C
AC$CHROMATOGRAPHY: FLOW_GRADIENT 0 min min 98% A, 1 min 98% A, 2 min 80% A, 16.5 min 2% A, 22 min 2% A, 22.1 min 98% A, 27 min 98% A
AC$CHROMATOGRAPHY: FLOW_RATE 0.3 mL/min
AC$CHROMATOGRAPHY: RETENTION_TIME 13.175 min
AC$CHROMATOGRAPHY: SOLVENT A: Water 0.1% Formic acid, B: Acetonitrile 0.1% Formic acid
MS$FOCUSED_ION: PRECURSOR_M/Z 194.0964
MS$FOCUSED_ION: PRECURSOR_TYPE [M+H]+
MS$DATA_PROCESSING: COMMENT Export with pycsl 0.1.0.dev1 and CSL 24.4
PK$SPLASH: splash10-0ikl-3900000000-756827da1d4912b510b0
PK$NUM_PEAK: 75
PK$PEAK: m/z int. rel.int.
  37.0039 15.8 47
  38.0118 13.2 39
  39.0195 62.7 189
  41.0344 3.4 10
  49.0023 5.4 16
  50.0105 58.7 177
  51.0185 119.0 359
  52.026 7.1 21
  61.0018 10.3 31
  62.0094 35.4 107
  63.0174 155.8 471
  64.0246 15.2 45
  65.0327 47.4 143
  74.0084 57.4 173
  75.016 76.6 231
  76.0237 48.3 146
  77.0316 113.2 342
  78.0393 20.2 61
  86.0071 15.9 48
  87.015 35.6 107
  88.0103 5.7 17
  88.0219 11.0 33
  89.0306 287.6 869
  90.0376 26.4 79
  91.0454 14.6 44
  98.0058 28.7 86
  99.0136 37.1 112
  100.0211 19.2 58
  101.0292 40.3 121
  102.025 5.3 16
  102.0368 58.9 178
  103.0318 5.4 16
  110.0048 4.8 14
  111.0125 6.9 20
  113.0282 80.7 244
  114.0231 12.8 38
  114.0347 13.9 42
  115.0437 135.6 410
  116.0383 18.1 54
  117.0468 9.0 27
  123.011 6.1 18
  124.0194 6.3 19
  125.027 51.9 156
  126.0346 102.1 308
  127.0309 19.5 58
  127.0418 18.8 56
  128.038 45.2 136
  129.033 12.5 37
  129.0448 3.7 11
  137.0257 25.4 76
  138.0334 22.6 68
  139.0417 245.5 742
  140.0371 157.2 475
  149.0251 28.6 86
  150.0329 239.2 723
  151.0402 169.9 513
  152.0431 91.4 276
  153.0429 16.4 49
  162.0314 24.6 74
  163.0398 330.4 999
  164.0454 210.9 637
  165.0547 151.5 458
  166.0501 67.2 203
  167.0577 16.4 49
  174.0303 5.6 16
  175.0268 10.6 32
  176.0343 31.9 96
  177.0414 89.8 271
  178.0487 42.5 128
  179.045 8.3 25
  188.0323 24.7 74
  189.0405 58.6 177
  190.0482 317.1 958
  191.0557 208.9 631
  192.0636 20.0 60
//