ACCESSION: MSBNK-BAFG-CSL2310266323
RECORD_TITLE: 2-Hydroxy-N-phenylpropanamide; LC-ESI-QTOF; MS2; 40 V
DATE: 2023.10.26
AUTHORS: Kevin S. Jewell; Björn Ehlig; Arne Wick
LICENSE: dl-de/by-2-0
COPYRIGHT: Copyright 2023 Federal Institute of Hydrology, Koblenz, Germany
COMMENT: CONFIDENCE Reference Standard (Level 1)
COMMENT: Chromatography method: dx.doi.org/10.1016/j.chroma.2015.11.014
COMMENT: Acquisition method: 10.1002/rcm.8541
CH$NAME: 2-Hydroxy-N-phenylpropanamide
CH$COMPOUND_CLASS: Pharmaceutical
CH$FORMULA: C9H11NO2
CH$EXACT_MASS: 165.079
CH$SMILES: CC(C(=O)NC1=CC=CC=C1)O
CH$IUPAC: InChI=1S/C9H11NO2/c1-7(11)9(12)10-8-5-3-2-4-6-8/h2-7,11H,1H3,(H,10,12)
CH$LINK: CAS 6252-10-4
CH$LINK: INCHIKEY NXHFPNVCAZMTSG-UHFFFAOYSA-N
AC$INSTRUMENT: TripleTOF 5600 SCIEX
AC$INSTRUMENT_TYPE: LC-ESI-QTOF
AC$MASS_SPECTROMETRY: MS_TYPE MS2
AC$MASS_SPECTROMETRY: ION_MODE POSITIVE
AC$MASS_SPECTROMETRY: COLLISION_ENERGY 40
AC$MASS_SPECTROMETRY: FRAGMENTATION_MODE CID
AC$MASS_SPECTROMETRY: IONIZATION ESI
AC$CHROMATOGRAPHY: COLUMN_NAME Zorbax Eclipse Plus C18 2.1 mm x 150 mm, 3.5 um, Agilent
AC$CHROMATOGRAPHY: COLUMN_TEMPERATURE 40 °C
AC$CHROMATOGRAPHY: FLOW_GRADIENT 0 min min 98% A, 1 min 98% A, 2 min 80% A, 16.5 min 2% A, 22 min 2% A, 22.1 min 98% A, 27 min 98% A
AC$CHROMATOGRAPHY: FLOW_RATE 0.3 mL/min
AC$CHROMATOGRAPHY: RETENTION_TIME 6.608 min
AC$CHROMATOGRAPHY: SOLVENT A: Water 0.1% Formic acid, B: Acetonitrile 0.1% Formic acid
MS$FOCUSED_ION: PRECURSOR_M/Z 166.0863
MS$FOCUSED_ION: PRECURSOR_TYPE [M+H]+
MS$DATA_PROCESSING: COMMENT Export with Spectra 1.9.12 MsBackendMassbank 1.7.4
MS$DATA_PROCESSING: WHOLE RMassBank 2.3.1
PK$SPLASH: splash10-00b9-9600000000-6b5d9624182438be41a0
PK$NUM_PEAK: 18
PK$PEAK: m/z int. rel.int.
  65.0444 1 76
  77.0426 13 999
  77.0752 0.5 38
  78.05 0.6 46
  79.0562 0.5 38
  91.0583 1.2 92
  92.0527 1.2 92
  93.0609 1.3 99
  93.0731 0.7 53
  94.0666 3.5 268
  94.0801 0.6 46
  103.0562 3.6 276
  104.0518 0.5 38
  105.0717 0.8 61
  106.0671 0.5 38
  118.0649 1.5 115
  119.072 0.7 53
  120.0816 10.6 814
//
