ACCESSION: MSBNK-JEOL_Ltd-JEL00003
RECORD_TITLE: Triolein; MALDI-TOFTOF; MS2; CE: 20kV; [M+Na]+
DATE: 2016.01.19 (Created 2012.06.18)
AUTHORS: JEOL Ltd.
LICENSE: CC BY-NC-SA
COPYRIGHT: Copyright (c) 2012 JEOL Ltd.
CH$NAME: Triolein
CH$NAME: TAG(18:1,18:1,18:1)
CH$COMPOUND_CLASS: Natural Product
CH$FORMULA: C57H104O6
CH$EXACT_MASS: 884.78329
CH$SMILES: CCCCCCCC/C=C\CCCCCCCC(=O)OCC(OC(=O)CCCCCCC/C=C\CCCCCCCC)COC(=O)CCCCCCC/C=C\CCCCCCCC
CH$IUPAC: InChI=1S/C57H104O6/c1-4-7-10-13-16-19-22-25-28-31-34-37-40-43-46-49-55(58)61-52-54(63-57(60)51-48-45-42-39-36-33-30-27-24-21-18-15-12-9-6-3)53-62-56(59)50-47-44-41-38-35-32-29-26-23-20-17-14-11-8-5-2/h25-30,54H,4-24,31-53H2,1-3H3/b28-25-,29-26-,30-27-
CH$LINK: INCHIKEY PHYFQTYBJUILEZ-IUPFWZBJSA-N
CH$LINK: COMPTOX DTXSID3026988
CH$LINK: PUBCHEM CID:5497163
AC$INSTRUMENT: JMS-S3000
AC$INSTRUMENT_TYPE: MALDI-TOFTOF
AC$MASS_SPECTROMETRY: MS_TYPE MS2
AC$MASS_SPECTROMETRY: ION_MODE POSITIVE
MS$FOCUSED_ION: PRECURSOR_M/Z 907.77251
PK$SPLASH: splash10-00di-9000002100-20d9845ba8cc221e5ddd
PK$NUM_PEAK: 81
PK$PEAK: m/z int. rel.int.
  22.99811 8066106 999
  23.54202 42635 5
  27.15750 111346 14
  29.08779 113099 14
  39.10374 93740 12
  41.07307 303113 38
  43.05546 258001 32
  53.02073 47192 6
  54.05042 62634 8
  55.06268 486816 60
  57.08528 176041 22
  67.05920 156437 19
  69.08078 336400 42
  71.07480 42349 5
  79.07044 95576 12
  81.07080 120536 15
  83.10742 216339 27
  95.09537 120379 15
  97.13205 109140 14
  109.17682 41521 5
  111.16130 33606 4
  121.13215 45075 6
  181.18221 39728 5
  331.35194 136156 17
  345.37746 124396 15
  347.33288 53358 7
  393.38146 54453 7
  403.34330 79779 10
  415.38446 32945 4
  417.35076 246737 31
  431.35770 52739 7
  445.35272 53042 7
  449.42515 35468 4
  457.28136 32330 4
  459.34533 47419 6
  473.33428 131997 16
  475.28596 131151 16
  489.28533 95651 12
  503.40241 55519 7
  517.38514 58606 7
  529.45215 30584 4
  531.46155 119761 15
  545.48316 75858 9
  559.54462 31903 4
  573.60416 47604 6
  585.58214 77776 10
  586.61935 31860 4
  599.61049 92291 11
  601.62059 55971 7
  603.68202 409093 51
  613.61897 55952 7
  625.64104 691328 86
  627.66903 47258 6
  641.62566 79376 10
  643.70437 46244 6
  647.22944 34589 4
  655.60755 60138 7
  669.63047 41000 5
  683.73629 32566 4
  684.59658 74881 9
  695.63616 40428 5
  697.62972 826168 102
  709.46453 41951 5
  711.64366 188576 23
  712.80983 32578 4
  725.67347 98901 12
  739.68120 168870 21
  753.72117 466972 58
  767.75045 67183 8
  779.72701 51571 6
  781.67912 54512 7
  793.59096 67149 8
  807.45295 176860 22
  808.53585 201385 25
  821.40524 247999 31
  822.49541 35356 4
  835.42009 89775 11
  849.42403 72322 9
  863.43111 95234 12
  877.47625 65680 8
  891.77608 71642 9
//
