ACCESSION: MSBNK-JEOL_Ltd-JEL00017
RECORD_TITLE: Yessotoxin; MALDI-TOFTOF; MS2; CE: 20kV; [M-2Na-SO3+H]-
DATE: 2016.01.19 (Created 2012.06.18)
AUTHORS: JEOL Ltd.
LICENSE: CC BY-NC-SA
COPYRIGHT: Copyright (c) 2012 JEOL Ltd.
CH$NAME: Yessotoxin
CH$COMPOUND_CLASS: Natural Product
CH$FORMULA: C55H82O21S2
CH$EXACT_MASS: 1142.479
CH$SMILES: C[C@@H]1CC[C@]2([C@@H](C[C@H]3[C@](O2)(CC[C@H]4[C@H](O3)C[C@H]5[C@H](O4)C[C@H]6[C@H](O5)C[C@H]7[C@H](O6)C[C@@H]([C@@](O7)(C)CCOS(=O)(=O)O)OS(=O)(=O)O)C)O[C@@H]8[C@@H]1O[C@@H]9[C@@H](C8)O[C@H]1C[C@@H]2[C@H](CC(=C)[C@H](O2)[C@@](C)(/C=C/C(=C)CC=C)O)O[C@@]1([C@@H]9O)C)C
CH$IUPAC: InChI=1S/C55H82O21S2/c1-10-11-28(2)12-15-51(5,57)50-30(4)20-39-38(71-50)26-46-55(9,74-39)49(56)48-42(70-46)24-41-47(72-48)29(3)13-16-53(7)44(69-41)27-43-54(8,76-53)17-14-31-32(68-43)21-34-33(65-31)22-35-36(66-34)23-40-37(67-35)25-45(75-78(61,62)63)52(6,73-40)18-19-64-77(58,59)60/h10,12,15,29,31-50,56-57H,1-2,4,11,13-14,16-27H2,3,5-9H3,(H,58,59,60)(H,61,62,63)/b15-12+/t29-,31+,32-,33-,34+,35+,36-,37-,38-,39+,40+,41+,42-,43+,44-,45+,46+,47-,48-,49-,50+,51-,52-,53+,54-,55+/m1/s1
CH$LINK: INCHIKEY HCYDZFJGUKMTQB-ROYDEHQTSA-N
AC$INSTRUMENT: JMS-S3000
AC$INSTRUMENT_TYPE: MALDI-TOFTOF
AC$MASS_SPECTROMETRY: MS_TYPE MS2
AC$MASS_SPECTROMETRY: ION_MODE NEGATIVE
MS$FOCUSED_ION: PRECURSOR_TYPE [M-2H+Na]-
MS$FOCUSED_ION: PRECURSOR_M/Z 1163.45367
PK$SPLASH: splash10-0592-7233522794-368432439cc9d551368d
PK$NUM_PEAK: 80
PK$PEAK: m/z int. rel.int.
  16.92418 102456 12
  42.98808 62776 8
  63.98977 71988 9
  79.96484 2900442 348
  80.9819 176657 21
  95.98944 1795100 215
  96.99796 3313510 397
  110.02779 85918 10
  122.9802 161941 19
  151.06562 64369 8
  167.02517 239083 29
  181.0746 1681235 202
  193.10805 71250 9
  207.03443 60278 7
  223.12458 136655 16
  224.08716 102047 12
  235.06392 92703 11
  237.13614 1293991 155
  265.20343 76393 9
  279.09373 275069 33
  293.11689 1863297 223
  320.18479 95349 11
  323.15113 99976 12
  335.0931 401841 48
  336.01745 108498 13
  349.13678 1916582 230
  351.21438 118731 14
  363.06299 103196 12
  379.1493 78091 9
  391.09516 579495 70
  405.08611 793227 95
  406.98701 129597 16
  418.09798 120136 14
  419.13309 150674 18
  421.20636 65563 8
  431.1454 103416 12
  433.12773 116269 14
  435.16231 593703 71
  447.34708 124993 15
  459.25746 103590 12
  461.23888 117542 14
  475.13985 1450829 174
  489.1919 2021874 243
  503.20349 394725 47
  519.21826 210334 25
  531.19882 835441 100
  547.21153 84356 10
  559.26772 1521797 183
  573.35629 155508 19
  585.30391 70036 8
  587.30513 133754 16
  601.248 239829 29
  615.29593 86787 10
  629.26519 307193 37
  631.25816 178075 21
  643.32672 299323 36
  657.322 449447 54
  671.43035 448045 54
  673.50625 113191 14
  685.33783 305837 37
  687.44279 312598 37
  699.29409 638873 77
  711.56348 292372 35
  713.50105 4693963 563
  729.33974 150760 18
  743.55229 371630 45
  785.40959 498511 60
  795.43943 68333 8
  797.32063 139592 17
  799.40895 2526083 303
  813.34943 162833 20
  825.34843 185236 22
  829.45165 170652 20
  839.51848 280168 34
  841.40703 328336 39
  853.54559 668815 80
  855.52427 8329055 999
  895.39925 203498 24
  924.61259 4851446 582
  967.43489 236149 28
//
