ACCESSION: MSBNK-Nihon_Univ-NU000280
RECORD_TITLE: 3beta,7beta-Dihydroxy-5alpha-cholan-24-oic acid; LC-ESI-TOF; MS; -150 V
DATE: 2016.01.19 (Created 2013.02.20)
AUTHORS: Takashi Iida, Department of Chemistry, College of Humanities and Sciences, Nihon University
LICENSE: CC BY-NC-SA
COPYRIGHT: Copyright (C) Takashi Iida, Department of Chemistry, College of Humanities and Sciences, Nihon University
COMMENT: [Analytical] Sample of 1 micorL methanol solution was flow injected.
CH$NAME: 3beta,7beta-Dihydroxy-5alpha-cholan-24-oic acid
CH$COMPOUND_CLASS: Natural Product; BILE ACID
CH$FORMULA: C24H40O4
CH$EXACT_MASS: 392.29266
CH$SMILES: C(C3(C)4)([H])(CC(O)CC4)CC(C(C3([H])2)(C(C1(C)CC2)([H])CCC1([H])C(C)CCC(O)=O)[H])O
CH$IUPAC: InChI=1S/C24H40O4/c1-14(4-7-21(27)28)17-5-6-18-22-19(9-11-24(17,18)3)23(2)10-8-16(25)12-15(23)13-20(22)26/h14-20,22,25-26H,4-13H2,1-3H3,(H,27,28)/t14-,15-,16+,17-,18+,19+,20+,22+,23+,24-/m1/s1
CH$LINK: LIPIDBANK BBA0039
CH$LINK: INCHIKEY RUDATBOHQWOJDD-IMRDPUKRSA-N
AC$INSTRUMENT: JMS-T100LP, JEOL Ltd.
AC$INSTRUMENT_TYPE: LC-ESI-TOF
AC$MASS_SPECTROMETRY: MS_TYPE MS
AC$MASS_SPECTROMETRY: ION_MODE NEGATIVE
AC$MASS_SPECTROMETRY: DESOLVATION_TEMPERATURE 250 C
AC$MASS_SPECTROMETRY: IONIZATION ESI
AC$MASS_SPECTROMETRY: ION_GUIDE_PEAK_VOLTAGE 1500 V
AC$MASS_SPECTROMETRY: LENS_VOLTAGE -10 V
AC$MASS_SPECTROMETRY: NEEDLE_VOLTAGE -2000 V
AC$MASS_SPECTROMETRY: NEBULIZING_GAS N2
AC$MASS_SPECTROMETRY: ORIFICE_VOLTAGE -150 V
AC$MASS_SPECTROMETRY: ORIFICE_TEMPERATURE 80 C
AC$MASS_SPECTROMETRY: SCANNING 1 sec/scan (m/z=100-1000)
MS$FOCUSED_ION: PRECURSOR_M/Z 391.28
MS$FOCUSED_ION: PRECURSOR_TYPE [M-H]-
PK$SPLASH: splash10-0006-2109100010-7981ff6e876b33d9eae0
PK$NUM_PEAK: 19
PK$PEAK: m/z int. rel.int.
  62.11 7475 147
  69.14 2966 58
  80.05 4002 79
  97.03 3833 75
  113.04 7996 157
  183.02 3161 62
  248.96 3514 69
  353.21 3151 62
  359.26 2995 59
  373.28 4573 90
  391.28 50886 999
  392.29 14523 285
  393.29 2706 53
  407.28 4086 80
  417.30 2844 56
  423.32 4341 85
  485.28 3944 77
  805.56 9029 177
  806.56 4935 97
//
