ACCESSION: MSBNK-Nihon_Univ-NU000322
RECORD_TITLE: 3alpha,7alpha,12alpha-Trihydroxy-5alpha-cholan-24-oic acid; LC-ESI-TOF; MS; -60 V
DATE: 2016.01.19 (Created 2013.02.27)
AUTHORS: Takashi Iida, Department of Chemistry, College of Humanities and Sciences, Nihon University
LICENSE: CC BY-NC-SA
COPYRIGHT: Copyright (C) Takashi Iida, Department of Chemistry, College of Humanities and Sciences, Nihon University
COMMENT: [Analytical] Sample of 1 micorL methanol solution was flow injected.
CH$NAME: 3alpha,7alpha,12alpha-Trihydroxy-5alpha-cholan-24-oic acid
CH$NAME: Allocholic acid
CH$COMPOUND_CLASS: Natural Product; BILE ACID
CH$FORMULA: C24H40O5
CH$EXACT_MASS: 408.28757
CH$SMILES: C(C3(C)4)([H])(CC(O)CC4)CC(C(C3([H])2)(C(C1(C)C(O)C2)([H])CCC1([H])C(C)CCC(O)=O)[H])O
CH$IUPAC: InChI=1S/C24H40O5/c1-13(4-7-21(28)29)16-5-6-17-22-18(12-20(27)24(16,17)3)23(2)9-8-15(25)10-14(23)11-19(22)26/h13-20,22,25-27H,4-12H2,1-3H3,(H,28,29)/t13-,14-,15-,16-,17+,18+,19-,20+,22+,23+,24-/m1/s1
CH$LINK: CAS 2464-18-8
CH$LINK: KEGG C17737
CH$LINK: LIPIDBANK BBA0092
CH$LINK: INCHIKEY BHQCQFFYRZLCQQ-PGHAKIONSA-N
AC$INSTRUMENT: JMS-T100LP, JEOL Ltd.
AC$INSTRUMENT_TYPE: LC-ESI-TOF
AC$MASS_SPECTROMETRY: MS_TYPE MS
AC$MASS_SPECTROMETRY: ION_MODE NEGATIVE
AC$MASS_SPECTROMETRY: DESOLVATION_TEMPERATURE 250 C
AC$MASS_SPECTROMETRY: IONIZATION ESI
AC$MASS_SPECTROMETRY: ION_GUIDE_PEAK_VOLTAGE 1500 V
AC$MASS_SPECTROMETRY: LENS_VOLTAGE -10 V
AC$MASS_SPECTROMETRY: NEEDLE_VOLTAGE -2000 V
AC$MASS_SPECTROMETRY: NEBULIZING_GAS N2
AC$MASS_SPECTROMETRY: ORIFICE_VOLTAGE -60 V
AC$MASS_SPECTROMETRY: ORIFICE_TEMPERATURE 80 C
AC$MASS_SPECTROMETRY: SCANNING 1 sec/scan (m/z=100-1000)
MS$FOCUSED_ION: PRECURSOR_M/Z 407.28
MS$FOCUSED_ION: PRECURSOR_TYPE [M-H]-
PK$SPLASH: splash10-0aor-2000900050-f8c2464754704c6d5d24
PK$NUM_PEAK: 28
PK$PEAK: m/z int. rel.int.
  58.69 3541 8
  61.68 26664 60
  68.72 153637 346
  112.85 35942 81
  154.91 3155 7
  212.06 3517 8
  233.15 3190 7
  250.14 4257 10
  255.23 6638 15
  283.27 4771 11
  391.29 8150 18
  405.27 4928 11
  407.28 444191 999
  407.66 1708 4
  408.28 127672 287
  409.29 21850 49
  421.29 3589 8
  439.30 3568 8
  443.26 6289 14
  521.27 4167 9
  799.58 8064 18
  800.59 4470 10
  813.57 4640 10
  815.57 214816 483
  816.58 116248 261
  817.58 35935 81
  818.59 9080 20
  829.59 3489 8
//
