ACCESSION: MSBNK-Nihon_Univ-NU000297
RECORD_TITLE: 3beta,12beta-Dihydroxy-5alpha-cholan-24-oic acid; LC-ESI-TOF; MS; -60 V
DATE: 2016.01.19 (Created 2013.02.22)
AUTHORS: Takashi Iida, Department of Chemistry, College of Humanities and Sciences, Nihon University
LICENSE: CC BY-NC-SA
COPYRIGHT: Copyright (C) Takashi Iida, Department of Chemistry, College of Humanities and Sciences, Nihon University
COMMENT: [Analytical] Sample of 1 micorL methanol solution was flow injected.
CH$NAME: 3beta,12beta-Dihydroxy-5alpha-cholan-24-oic acid
CH$COMPOUND_CLASS: Natural Product; BILE ACID
CH$FORMULA: C24H40O4
CH$EXACT_MASS: 392.29266
CH$SMILES: C(C1(C)4)([H])(C(C)CCC(O)=O)CCC1(C(C3([H])CC4O)([H])CCC(C3(C)2)([H])CC(O)CC2)[H]
CH$IUPAC: InChI=1S/C24H40O4/c1-14(4-9-22(27)28)18-7-8-19-17-6-5-15-12-16(25)10-11-23(15,2)20(17)13-21(26)24(18,19)3/h14-21,25-26H,4-13H2,1-3H3,(H,27,28)/t14-,15+,16+,17+,18-,19+,20+,21-,23+,24-/m1/s1
CH$LINK: LIPIDBANK BBA0047
CH$LINK: INCHIKEY KXGVEGMKQFWNSR-QVJCARKASA-N
AC$INSTRUMENT: JMS-T100LP, JEOL Ltd.
AC$INSTRUMENT_TYPE: LC-ESI-TOF
AC$MASS_SPECTROMETRY: MS_TYPE MS
AC$MASS_SPECTROMETRY: ION_MODE NEGATIVE
AC$MASS_SPECTROMETRY: DESOLVATION_TEMPERATURE 250 C
AC$MASS_SPECTROMETRY: IONIZATION ESI
AC$MASS_SPECTROMETRY: ION_GUIDE_PEAK_VOLTAGE 1500 V
AC$MASS_SPECTROMETRY: LENS_VOLTAGE -10 V
AC$MASS_SPECTROMETRY: NEEDLE_VOLTAGE -2000 V
AC$MASS_SPECTROMETRY: NEBULIZING_GAS N2
AC$MASS_SPECTROMETRY: ORIFICE_VOLTAGE -60 V
AC$MASS_SPECTROMETRY: ORIFICE_TEMPERATURE 80 C
AC$MASS_SPECTROMETRY: SCANNING 1 sec/scan (m/z=100-1000)
MS$FOCUSED_ION: PRECURSOR_M/Z 391.28
MS$FOCUSED_ION: PRECURSOR_TYPE [M-H]-
PK$SPLASH: splash10-014l-9104000000-71db200127092fd711c7
PK$NUM_PEAK: 33
PK$PEAK: m/z int. rel.int.
  51.17 3800 8
  59.14 85435 180
  60.14 1990 4
  61.11 5779 12
  62.11 44146 93
  69.10 474270 999
  69.26 1924 4
  70.10 7054 15
  73.11 5498 12
  85.07 31102 66
  89.10 4362 9
  113.04 73671 155
  119.04 2727 6
  155.00 20396 43
  157.14 2529 5
  167.01 2910 6
  187.01 4339 9
  212.08 9850 21
  227.20 2351 5
  248.96 7646 16
  255.23 11059 23
  283.26 9218 19
  298.94 4085 9
  391.28 240420 506
  392.29 67952 143
  393.29 12532 26
  413.27 3016 6
  473.29 6183 13
  527.27 3411 7
  783.58 23591 50
  784.58 12641 27
  785.59 4072 9
  805.56 4846 10
//
