ACCESSION: MSBNK-Nihon_Univ-NU000113
RECORD_TITLE: 7alpha-Hydroxy-5beta-cholan-24-oic acid; LC-ESI-TOF; MS; -90 V
DATE: 2016.01.19 (Created 2013.01.28)
AUTHORS: Takashi Iida, Department of Chemistry, College of Humanities and Sciences, Nihon University
LICENSE: CC BY-NC-SA
COPYRIGHT: Copyright (C) Takashi Iida, Department of Chemistry, College of Humanities and Sciences, Nihon University
COMMENT: [Analytical] Sample of 1 micorL methanol solution was flow injected.
CH$NAME: 7alpha-Hydroxy-5beta-cholan-24-oic acid
CH$COMPOUND_CLASS: Natural Product; BILE ACID
CH$FORMULA: C24H40O3
CH$EXACT_MASS: 376.29775
CH$SMILES: C(C1(C)4)([H])(C(C)CCC(=O)O[H])CCC1(C(C3([H])CC4)([H])C(O)CC(C3(C)2)([H])CCCC2)[H]
CH$IUPAC: InChI=1S/C24H40O3/c1-15(7-10-21(26)27)17-8-9-18-22-19(11-13-24(17,18)3)23(2)12-5-4-6-16(23)14-20(22)25/h15-20,22,25H,4-14H2,1-3H3,(H,26,27)/t15-,16+,17-,18+,19+,20-,22+,23+,24-/m1/s1
CH$LINK: LIPIDBANK BBA0011
CH$LINK: INCHIKEY JVMCMMXFADJQKU-MMSVWBHPSA-N
AC$INSTRUMENT: JMS-T100LP, JEOL Ltd.
AC$INSTRUMENT_TYPE: LC-ESI-TOF
AC$MASS_SPECTROMETRY: MS_TYPE MS
AC$MASS_SPECTROMETRY: ION_MODE NEGATIVE
AC$MASS_SPECTROMETRY: DESOLVATION_TEMPERATURE 250 C
AC$MASS_SPECTROMETRY: IONIZATION ESI
AC$MASS_SPECTROMETRY: ION_GUIDE_PEAK_VOLTAGE 1500 V
AC$MASS_SPECTROMETRY: LENS_VOLTAGE -10 V
AC$MASS_SPECTROMETRY: NEEDLE_VOLTAGE -2000 V
AC$MASS_SPECTROMETRY: NEBULIZING_GAS N2
AC$MASS_SPECTROMETRY: ORIFICE_VOLTAGE -90 V
AC$MASS_SPECTROMETRY: ORIFICE_TEMPERATURE 80 C
AC$MASS_SPECTROMETRY: SCANNING 1 sec/scan (m/z=100-1000)
MS$FOCUSED_ION: PRECURSOR_M/Z 375.29
MS$FOCUSED_ION: PRECURSOR_TYPE [M-H]-
PK$SPLASH: splash10-004i-5119200000-9a2a96d44d586f2ad1c2
PK$NUM_PEAK: 29
PK$PEAK: m/z int. rel.int.
  59.00 35031 346
  60.97 11882 117
  61.97 4078 40
  68.98 58577 578
  72.99 3164 31
  96.95 3873 38
  112.97 17372 171
  154.97 10885 107
  187.00 2391 24
  212.07 3855 38
  248.96 14176 140
  255.23 7379 73
  283.27 2998 30
  298.94 11409 113
  375.29 101215 999
  376.29 27858 275
  377.30 5108 50
  384.93 4129 41
  389.27 2639 26
  391.29 29917 295
  392.29 8959 88
  393.30 6343 63
  407.32 19816 196
  408.32 6111 60
  423.31 7182 71
  457.29 11391 112
  458.30 3762 37
  473.29 4432 44
  520.91 4609 45
//
