ACCESSION: MSBNK-Nihon_Univ-NU000342
RECORD_TITLE: 3beta,7alpha,12alpha-Trihydroxy-5alpha-cholan-24-oic acid; LC-ESI-TOF; MS; -60 V
DATE: 2016.01.19 (Created 2013.02.27)
AUTHORS: Takashi Iida, Department of Chemistry, College of Humanities and Sciences, Nihon University
LICENSE: CC BY-NC-SA
COPYRIGHT: Copyright (C) Takashi Iida, Department of Chemistry, College of Humanities and Sciences, Nihon University
COMMENT: [Analytical] Sample of 1 micorL methanol solution was flow injected.
CH$NAME: 3beta,7alpha,12alpha-Trihydroxy-5alpha-cholan-24-oic acid
CH$COMPOUND_CLASS: Natural Product; BILE ACID
CH$FORMULA: C24H40O5
CH$EXACT_MASS: 408.28757
CH$SMILES: C(C3(C)4)([H])(CC(O)CC4)CC(C(C3([H])2)(C(C1(C)C(O)C2)([H])CCC1([H])C(C)CCC(O)=O)[H])O
CH$IUPAC: InChI=1S/C24H40O5/c1-13(4-7-21(28)29)16-5-6-17-22-18(12-20(27)24(16,17)3)23(2)9-8-15(25)10-14(23)11-19(22)26/h13-20,22,25-27H,4-12H2,1-3H3,(H,28,29)/t13-,14-,15+,16-,17+,18+,19-,20+,22+,23+,24-/m1/s1
CH$LINK: LIPIDBANK BBA0094
CH$LINK: INCHIKEY BHQCQFFYRZLCQQ-OJGXVJBCSA-N
AC$INSTRUMENT: JMS-T100LP, JEOL Ltd.
AC$INSTRUMENT_TYPE: LC-ESI-TOF
AC$MASS_SPECTROMETRY: MS_TYPE MS
AC$MASS_SPECTROMETRY: ION_MODE NEGATIVE
AC$MASS_SPECTROMETRY: DESOLVATION_TEMPERATURE 250 C
AC$MASS_SPECTROMETRY: IONIZATION ESI
AC$MASS_SPECTROMETRY: ION_GUIDE_PEAK_VOLTAGE 1500 V
AC$MASS_SPECTROMETRY: LENS_VOLTAGE -10 V
AC$MASS_SPECTROMETRY: NEEDLE_VOLTAGE -2000 V
AC$MASS_SPECTROMETRY: NEBULIZING_GAS N2
AC$MASS_SPECTROMETRY: ORIFICE_VOLTAGE -60 V
AC$MASS_SPECTROMETRY: ORIFICE_TEMPERATURE 80 C
AC$MASS_SPECTROMETRY: SCANNING 1 sec/scan (m/z=100-1000)
MS$FOCUSED_ION: PRECURSOR_M/Z 407.28
MS$FOCUSED_ION: PRECURSOR_TYPE [M-H]-
PK$SPLASH: splash10-066r-9110800010-f45bbfa40736b2603801
PK$NUM_PEAK: 39
PK$PEAK: m/z int. rel.int.
  50.67 2687 7
  58.69 10624 29
  61.68 31225 85
  68.72 368446 999
  68.88 1306 4
  69.72 5046 14
  72.74 3007 8
  84.81 4570 12
  92.84 8220 22
  112.85 50275 136
  120.92 2774 8
  130.89 2681 7
  138.95 3997 11
  150.99 8966 24
  154.91 8372 23
  205.14 2576 7
  212.06 35815 97
  213.06 4769 13
  230.98 2930 8
  248.96 3024 8
  255.23 9220 25
  280.99 2902 8
  283.27 6547 18
  330.98 3014 8
  380.98 2870 8
  391.28 12222 33
  392.29 3685 10
  407.28 291450 790
  408.28 82834 225
  409.28 13811 37
  429.26 4051 11
  461.29 11182 30
  462.29 3428 9
  799.58 3181 9
  815.57 40514 110
  816.57 21748 59
  817.59 6929 19
  837.56 8943 24
  838.56 4792 13
//
