ACCESSION: MSBNK-Nihon_Univ-NU000344
RECORD_TITLE: 3beta,7alpha,12alpha-Trihydroxy-5alpha-cholan-24-oic acid; LC-ESI-TOF; MS; -120 V
DATE: 2016.01.19 (Created 2013.02.27)
AUTHORS: Takashi Iida, Department of Chemistry, College of Humanities and Sciences, Nihon University
LICENSE: CC BY-NC-SA
COPYRIGHT: Copyright (C) Takashi Iida, Department of Chemistry, College of Humanities and Sciences, Nihon University
COMMENT: [Analytical] Sample of 1 micorL methanol solution was flow injected.
CH$NAME: 3beta,7alpha,12alpha-Trihydroxy-5alpha-cholan-24-oic acid
CH$COMPOUND_CLASS: Natural Product; BILE ACID
CH$FORMULA: C24H40O5
CH$EXACT_MASS: 408.28757
CH$SMILES: C(C3(C)4)([H])(CC(O)CC4)CC(C(C3([H])2)(C(C1(C)C(O)C2)([H])CCC1([H])C(C)CCC(O)=O)[H])O
CH$IUPAC: InChI=1S/C24H40O5/c1-13(4-7-21(28)29)16-5-6-17-22-18(12-20(27)24(16,17)3)23(2)9-8-15(25)10-14(23)11-19(22)26/h13-20,22,25-27H,4-12H2,1-3H3,(H,28,29)/t13-,14-,15+,16-,17+,18+,19-,20+,22+,23+,24-/m1/s1
CH$LINK: LIPIDBANK BBA0094
CH$LINK: INCHIKEY BHQCQFFYRZLCQQ-OJGXVJBCSA-N
AC$INSTRUMENT: JMS-T100LP, JEOL Ltd.
AC$INSTRUMENT_TYPE: LC-ESI-TOF
AC$MASS_SPECTROMETRY: MS_TYPE MS
AC$MASS_SPECTROMETRY: ION_MODE NEGATIVE
AC$MASS_SPECTROMETRY: DESOLVATION_TEMPERATURE 250 C
AC$MASS_SPECTROMETRY: IONIZATION ESI
AC$MASS_SPECTROMETRY: ION_GUIDE_PEAK_VOLTAGE 1500 V
AC$MASS_SPECTROMETRY: LENS_VOLTAGE -10 V
AC$MASS_SPECTROMETRY: NEEDLE_VOLTAGE -2000 V
AC$MASS_SPECTROMETRY: NEBULIZING_GAS N2
AC$MASS_SPECTROMETRY: ORIFICE_VOLTAGE -120 V
AC$MASS_SPECTROMETRY: ORIFICE_TEMPERATURE 80 C
AC$MASS_SPECTROMETRY: SCANNING 1 sec/scan (m/z=100-1000)
MS$FOCUSED_ION: PRECURSOR_M/Z 407.28
MS$FOCUSED_ION: PRECURSOR_TYPE [M-H]-
PK$SPLASH: splash10-0a4i-0002900000-d6f0c126fef208d42498
PK$NUM_PEAK: 34
PK$PEAK: m/z int. rel.int.
  61.68 11294 32
  63.66 4161 12
  68.76 18725 52
  79.72 2568 7
  96.78 2744 8
  112.85 2888 8
  233.15 4269 12
  248.96 3808 11
  327.26 2950 8
  341.25 4747 13
  343.27 9422 26
  345.28 5007 14
  359.26 10911 31
  360.27 2840 8
  361.28 24350 68
  362.28 6898 19
  363.29 8120 23
  389.27 3974 11
  391.29 12849 36
  392.29 3706 10
  393.30 9413 26
  395.32 17552 49
  396.32 5040 14
  405.27 3927 11
  407.28 357174 999
  408.28 101312 283
  409.29 17035 48
  427.25 6287 18
  429.26 5488 15
  461.29 7953 22
  815.58 3464 10
  837.56 20448 57
  838.56 10912 31
  839.57 3670 10
//
