ACCESSION: MSBNK-Nihon_Univ-NU000219
RECORD_TITLE: 3beta,7beta,12alpha-Trihydroxy-5beta-cholan-24-oic acid; LC-ESI-TOF; MS; -120 V
DATE: 2016.01.19 (Created 2013.01.28)
AUTHORS: Takashi Iida, Department of Chemistry, College of Humanities and Sciences, Nihon University
LICENSE: CC BY-NC-SA
COPYRIGHT: Copyright (C) Takashi Iida, Department of Chemistry, College of Humanities and Sciences, Nihon University
COMMENT: [Analytical] Sample of 1 micorL methanol solution was flow injected.
CH$NAME: 3beta,7beta,12alpha-Trihydroxy-5beta-cholan-24-oic acid
CH$COMPOUND_CLASS: Natural Product; BILE ACID
CH$FORMULA: C24H40O5
CH$EXACT_MASS: 408.28757
CH$SMILES: C(C3(C)4)([H])(CC(O)CC4)CC(C(C3([H])2)(C(C1(C)C(O)C2)([H])CCC1([H])C(C)CCC(=O)O[H])[H])O
CH$IUPAC: InChI=1S/C24H40O5/c1-13(4-7-21(28)29)16-5-6-17-22-18(12-20(27)24(16,17)3)23(2)9-8-15(25)10-14(23)11-19(22)26/h13-20,22,25-27H,4-12H2,1-3H3,(H,28,29)/t13-,14+,15+,16-,17+,18+,19+,20+,22+,23+,24-/m1/s1
CH$LINK: LIPIDBANK BBA0090
CH$LINK: INCHIKEY BHQCQFFYRZLCQQ-NSYKHXCCSA-N
AC$INSTRUMENT: JMS-T100LP, JEOL Ltd.
AC$INSTRUMENT_TYPE: LC-ESI-TOF
AC$MASS_SPECTROMETRY: MS_TYPE MS
AC$MASS_SPECTROMETRY: ION_MODE NEGATIVE
AC$MASS_SPECTROMETRY: DESOLVATION_TEMPERATURE 250 C
AC$MASS_SPECTROMETRY: IONIZATION ESI
AC$MASS_SPECTROMETRY: ION_GUIDE_PEAK_VOLTAGE 1500 V
AC$MASS_SPECTROMETRY: LENS_VOLTAGE -10 V
AC$MASS_SPECTROMETRY: NEEDLE_VOLTAGE -2000 V
AC$MASS_SPECTROMETRY: NEBULIZING_GAS N2
AC$MASS_SPECTROMETRY: ORIFICE_VOLTAGE -120 V
AC$MASS_SPECTROMETRY: ORIFICE_TEMPERATURE 80 C
AC$MASS_SPECTROMETRY: SCANNING 1 sec/scan (m/z=100-1000)
MS$FOCUSED_ION: PRECURSOR_M/Z 407.28
MS$FOCUSED_ION: PRECURSOR_TYPE [M-H]-
PK$SPLASH: splash10-0bt9-9200500000-959853b05b76761f948b
PK$NUM_PEAK: 35
PK$PEAK: m/z int. rel.int.
  56.88 3707 32
  58.90 24431 211
  59.92 3044 26
  60.96 91843 793
  62.96 3413 29
  68.10 2587 22
  75.12 5227 45
  76.14 23368 202
  77.16 2389 21
  78.16 9400 81
  79.17 44911 388
  81.19 2246 19
  92.28 6769 58
  94.30 5316 46
  95.34 6494 56
  96.36 31237 270
  108.51 24437 211
  110.52 12021 104
  112.53 4181 36
  122.63 2368 20
  132.55 2204 19
  134.56 2633 23
  140.75 4007 35
  168.82 11607 100
  170.82 3950 34
  200.93 3542 31
  343.28 5928 51
  361.29 6424 55
  363.31 3203 28
  395.33 4538 39
  407.29 115762 999
  408.29 32786 283
  409.29 5492 47
  429.27 6308 54
  465.24 6503 56
//
