ACCESSION: MSBNK-Nihon_Univ-NU000152
RECORD_TITLE: 3alpha,12alpha-Dihydroxy-5beta-cholan-24-oic acid; LC-ESI-TOF; MS; -60 V
DATE: 2016.01.19 (Created 2013.01.28)
AUTHORS: Takashi Iida, Department of Chemistry, College of Humanities and Sciences, Nihon University
LICENSE: CC BY-NC-SA
COPYRIGHT: Copyright (C) Takashi Iida, Department of Chemistry, College of Humanities and Sciences, Nihon University
COMMENT: [Analytical] Sample of 1 micorL methanol solution was flow injected.
CH$NAME: 3alpha,12alpha-Dihydroxy-5beta-cholan-24-oic acid
CH$NAME: Deoxycholic acid
CH$COMPOUND_CLASS: Natural Product; BILE ACID
CH$FORMULA: C24H40O4
CH$EXACT_MASS: 392.29266
CH$SMILES: [C@@](C1(C)4)([H])([C@H](C)CCC(O)=O)CC[C@]1([C@]([C@]3([H])C[C@@H]4O)([H])CC[C@]([C@]3(C)2)([H])C[C@H](O)CC2)[H]
CH$IUPAC: InChI=1S/C24H40O4/c1-14(4-9-22(27)28)18-7-8-19-17-6-5-15-12-16(25)10-11-23(15,2)20(17)13-21(26)24(18,19)3/h14-21,25-26H,4-13H2,1-3H3,(H,27,28)/t14-,15-,16-,17+,18-,19+,20+,21+,23+,24-/m1/s1
CH$LINK: CAS 83-44-3
CH$LINK: KEGG C04483
CH$LINK: LIPIDBANK BBA0040
CH$LINK: INCHIKEY KXGVEGMKQFWNSR-LLQZFEROSA-N
CH$LINK: COMPTOX DTXSID0042662
AC$INSTRUMENT: JMS-T100LP, JEOL Ltd.
AC$INSTRUMENT_TYPE: LC-ESI-TOF
AC$MASS_SPECTROMETRY: MS_TYPE MS
AC$MASS_SPECTROMETRY: ION_MODE NEGATIVE
AC$MASS_SPECTROMETRY: DESOLVATION_TEMPERATURE 250 C
AC$MASS_SPECTROMETRY: IONIZATION ESI
AC$MASS_SPECTROMETRY: ION_GUIDE_PEAK_VOLTAGE 1500 V
AC$MASS_SPECTROMETRY: LENS_VOLTAGE -10 V
AC$MASS_SPECTROMETRY: NEEDLE_VOLTAGE -2000 V
AC$MASS_SPECTROMETRY: NEBULIZING_GAS N2
AC$MASS_SPECTROMETRY: ORIFICE_VOLTAGE -60 V
AC$MASS_SPECTROMETRY: ORIFICE_TEMPERATURE 80 C
AC$MASS_SPECTROMETRY: SCANNING 1 sec/scan (m/z=100-1000)
MS$FOCUSED_ION: PRECURSOR_M/Z 391.28
MS$FOCUSED_ION: PRECURSOR_TYPE [M-H]-
PK$SPLASH: splash10-0a4i-9002000000-4cab6b46eda02838a990
PK$NUM_PEAK: 31
PK$PEAK: m/z int. rel.int.
  58.99 619804 999
  59.05 38001 61
  59.20 3159 5
  59.45 4627 7
  59.52 3962 6
  59.99 17729 29
  60.99 4392 7
  61.96 4740 8
  68.97 88335 142
  89.00 5812 9
  96.94 4408 7
  112.97 24663 40
  154.97 3808 6
  212.07 24826 40
  213.08 3593 6
  217.00 2159 3
  227.20 6067 10
  241.21 4742 8
  253.22 7271 12
  255.23 20879 34
  256.24 3967 6
  281.25 5480 9
  283.26 7975 13
  391.28 173546 280
  392.29 49677 80
  393.29 8139 13
  427.27 4064 7
  473.29 7555 12
  783.58 18878 30
  784.58 10469 17
  785.59 3675 6
//
