ACCESSION: MSBNK-Nihon_Univ-NU000323
RECORD_TITLE: 3alpha,7alpha,12alpha-Trihydroxy-5alpha-cholan-24-oic acid; LC-ESI-TOF; MS; -90 V
DATE: 2016.01.19 (Created 2013.02.27)
AUTHORS: Takashi Iida, Department of Chemistry, College of Humanities and Sciences, Nihon University
LICENSE: CC BY-NC-SA
COPYRIGHT: Copyright (C) Takashi Iida, Department of Chemistry, College of Humanities and Sciences, Nihon University
COMMENT: [Analytical] Sample of 1 micorL methanol solution was flow injected.
CH$NAME: 3alpha,7alpha,12alpha-Trihydroxy-5alpha-cholan-24-oic acid
CH$NAME: Allocholic acid
CH$COMPOUND_CLASS: Natural Product; BILE ACID
CH$FORMULA: C24H40O5
CH$EXACT_MASS: 408.28757
CH$SMILES: C(C3(C)4)([H])(CC(O)CC4)CC(C(C3([H])2)(C(C1(C)C(O)C2)([H])CCC1([H])C(C)CCC(O)=O)[H])O
CH$IUPAC: InChI=1S/C24H40O5/c1-13(4-7-21(28)29)16-5-6-17-22-18(12-20(27)24(16,17)3)23(2)9-8-15(25)10-14(23)11-19(22)26/h13-20,22,25-27H,4-12H2,1-3H3,(H,28,29)/t13-,14-,15-,16-,17+,18+,19-,20+,22+,23+,24-/m1/s1
CH$LINK: CAS 2464-18-8
CH$LINK: KEGG C17737
CH$LINK: LIPIDBANK BBA0092
CH$LINK: INCHIKEY BHQCQFFYRZLCQQ-PGHAKIONSA-N
AC$INSTRUMENT: JMS-T100LP, JEOL Ltd.
AC$INSTRUMENT_TYPE: LC-ESI-TOF
AC$MASS_SPECTROMETRY: MS_TYPE MS
AC$MASS_SPECTROMETRY: ION_MODE NEGATIVE
AC$MASS_SPECTROMETRY: DESOLVATION_TEMPERATURE 250 C
AC$MASS_SPECTROMETRY: IONIZATION ESI
AC$MASS_SPECTROMETRY: ION_GUIDE_PEAK_VOLTAGE 1500 V
AC$MASS_SPECTROMETRY: LENS_VOLTAGE -10 V
AC$MASS_SPECTROMETRY: NEEDLE_VOLTAGE -2000 V
AC$MASS_SPECTROMETRY: NEBULIZING_GAS N2
AC$MASS_SPECTROMETRY: ORIFICE_VOLTAGE -90 V
AC$MASS_SPECTROMETRY: ORIFICE_TEMPERATURE 80 C
AC$MASS_SPECTROMETRY: SCANNING 1 sec/scan (m/z=100-1000)
MS$FOCUSED_ION: PRECURSOR_M/Z 407.28
MS$FOCUSED_ION: PRECURSOR_TYPE [M-H]-
PK$SPLASH: splash10-0a4i-0000900020-73512f10df4040925ddc
PK$NUM_PEAK: 26
PK$PEAK: m/z int. rel.int.
  61.68 22476 32
  68.72 24004 34
  112.85 3830 5
  233.15 3284 5
  250.14 4088 6
  255.23 4804 7
  283.27 4354 6
  391.28 11340 16
  392.29 3436 5
  395.31 4300 6
  405.26 9033 13
  407.28 706910 999
  407.80 2524 4
  408.28 228637 323
  409.28 41559 59
  410.29 3411 5
  421.29 6343 9
  439.30 6074 9
  443.25 2932 4
  477.32 3101 4
  799.57 3436 5
  815.57 153330 217
  816.57 79991 113
  817.58 25521 36
  818.59 6667 9
  837.56 5363 8
//
