ACCESSION: MSBNK-Nihon_Univ-NU000128
RECORD_TITLE: 12beta-Hydroxy-5beta-cholan-24-oic acid; LC-ESI-TOF; MS; -90 V
DATE: 2016.01.19 (Created 2013.01.28)
AUTHORS: Takashi Iida, Department of Chemistry, College of Humanities and Sciences, Nihon University
LICENSE: CC BY-NC-SA
COPYRIGHT: Copyright (C) Takashi Iida, Department of Chemistry, College of Humanities and Sciences, Nihon University
COMMENT: [Analytical] Sample of 1 micorL methanol solution was flow injected.
CH$NAME: 12beta-Hydroxy-5beta-cholan-24-oic acid
CH$COMPOUND_CLASS: Natural Product; BILE ACID
CH$FORMULA: C24H40O3
CH$EXACT_MASS: 376.29775
CH$SMILES: C(C1(C)4)([H])(C(C)CCC(=O)O[H])CCC1(C(C3([H])CC4O)([H])CCC(C3(C)2)([H])CCCC2)[H]
CH$IUPAC: InChI=1S/C24H40O3/c1-15(7-12-22(26)27)18-10-11-19-17-9-8-16-6-4-5-13-23(16,2)20(17)14-21(25)24(18,19)3/h15-21,25H,4-14H2,1-3H3,(H,26,27)/t15-,16+,17+,18-,19+,20+,21-,23+,24-/m1/s1
CH$LINK: LIPIDBANK BBA0016
CH$LINK: INCHIKEY OBUOWZOYJNAMCZ-ORVKXXEISA-N
AC$INSTRUMENT: JMS-T100LP, JEOL Ltd.
AC$INSTRUMENT_TYPE: LC-ESI-TOF
AC$MASS_SPECTROMETRY: MS_TYPE MS
AC$MASS_SPECTROMETRY: ION_MODE NEGATIVE
AC$MASS_SPECTROMETRY: DESOLVATION_TEMPERATURE 250 C
AC$MASS_SPECTROMETRY: IONIZATION ESI
AC$MASS_SPECTROMETRY: ION_GUIDE_PEAK_VOLTAGE 1500 V
AC$MASS_SPECTROMETRY: LENS_VOLTAGE -10 V
AC$MASS_SPECTROMETRY: NEEDLE_VOLTAGE -2000 V
AC$MASS_SPECTROMETRY: NEBULIZING_GAS N2
AC$MASS_SPECTROMETRY: ORIFICE_VOLTAGE -90 V
AC$MASS_SPECTROMETRY: ORIFICE_TEMPERATURE 80 C
AC$MASS_SPECTROMETRY: SCANNING 1 sec/scan (m/z=100-1000)
MS$FOCUSED_ION: PRECURSOR_M/Z 375.29
MS$FOCUSED_ION: PRECURSOR_TYPE [M-H]-
PK$SPLASH: splash10-004i-2019000000-778c8c46791df0691838
PK$NUM_PEAK: 16
PK$PEAK: m/z int. rel.int.
  59.00 17083 138
  60.97 2973 24
  68.98 21052 170
  79.94 2063 17
  96.95 2119 17
  112.97 5077 41
  154.97 2276 18
  212.07 2975 24
  248.96 2505 20
  255.23 2768 22
  298.94 19186 155
  375.29 123774 999
  376.29 34212 276
  377.30 5439 44
  391.29 2836 23
  457.29 5653 46
//
