ACCESSION: MSBNK-Nihon_Univ-NU000140
RECORD_TITLE: 3alpha,7beta-Dihydroxy-5beta-cholan-24-oic acid; LC-ESI-TOF; MS; -150 V
DATE: 2016.01.19 (Created 2013.01.28)
AUTHORS: Takashi Iida, Department of Chemistry, College of Humanities and Sciences, Nihon University
LICENSE: CC BY-NC-SA
COPYRIGHT: Copyright (C) Takashi Iida, Department of Chemistry, College of Humanities and Sciences, Nihon University
COMMENT: [Analytical] Sample of 1 micorL methanol solution was flow injected.
CH$NAME: 3alpha,7beta-Dihydroxy-5beta-cholan-24-oic acid
CH$NAME: Ursodeoxycholic acid
CH$COMPOUND_CLASS: Natural Product; BILE ACID
CH$FORMULA: C24H40O4
CH$EXACT_MASS: 392.29266
CH$SMILES: C(C1(C)4)([H])(CC(O)CC4)CC(C(C2([H])3)(C1([H])CCC2(C)C(C(C)CCC(O)=O)CC3)[H])O
CH$IUPAC: InChI=1S/C24H40O4/c1-14(4-7-21(27)28)17-5-6-18-22-19(9-11-24(17,18)3)23(2)10-8-16(25)12-15(23)13-20(22)26/h14-20,22,25-26H,4-13H2,1-3H3,(H,27,28)/t14-,15+,16-,17-,18+,19+,20+,22+,23+,24-/m1/s1
CH$LINK: CAS 128-13-2
CH$LINK: KEGG C07880
CH$LINK: LIPIDBANK BBA0033
CH$LINK: INCHIKEY RUDATBOHQWOJDD-UZVSRGJWSA-N
CH$LINK: COMPTOX DTXSID6023731
AC$INSTRUMENT: JMS-T100LP, JEOL Ltd.
AC$INSTRUMENT_TYPE: LC-ESI-TOF
AC$MASS_SPECTROMETRY: MS_TYPE MS
AC$MASS_SPECTROMETRY: ION_MODE NEGATIVE
AC$MASS_SPECTROMETRY: DESOLVATION_TEMPERATURE 250 C
AC$MASS_SPECTROMETRY: IONIZATION ESI
AC$MASS_SPECTROMETRY: ION_GUIDE_PEAK_VOLTAGE 1500 V
AC$MASS_SPECTROMETRY: LENS_VOLTAGE -10 V
AC$MASS_SPECTROMETRY: NEEDLE_VOLTAGE -2000 V
AC$MASS_SPECTROMETRY: NEBULIZING_GAS N2
AC$MASS_SPECTROMETRY: ORIFICE_VOLTAGE -150 V
AC$MASS_SPECTROMETRY: ORIFICE_TEMPERATURE 80 C
AC$MASS_SPECTROMETRY: SCANNING 1 sec/scan (m/z=100-1000)
MS$FOCUSED_ION: PRECURSOR_M/Z 391.29
MS$FOCUSED_ION: PRECURSOR_TYPE [M-H]-
PK$SPLASH: splash10-0006-1029100010-480c93deb33afa04c9aa
PK$NUM_PEAK: 17
PK$PEAK: m/z int. rel.int.
  65.97 3416 53
  79.90 8079 125
  98.91 2391 37
  106.03 2273 35
  112.95 4497 70
  226.97 3899 61
  248.96 16696 259
  298.94 3491 54
  384.94 3294 51
  391.29 64312 999
  392.29 18768 292
  393.29 3348 52
  409.30 3679 57
  423.31 6750 105
  541.28 3159 49
  805.57 8545 133
  806.57 4746 74
//
