ACCESSION: MSBNK-Nihon_Univ-NU000269
RECORD_TITLE: 3alpha,7beta-Dihydroxy-5alpha-cholan-24-oic acid; LC-ESI-TOF; MS; -120 V
DATE: 2016.01.19 (Created 2013.02.20)
AUTHORS: Takashi Iida, Department of Chemistry, College of Humanities and Sciences, Nihon University
LICENSE: CC BY-NC-SA
COPYRIGHT: Copyright (C) Takashi Iida, Department of Chemistry, College of Humanities and Sciences, Nihon University
COMMENT: [Analytical] Sample of 1 micorL methanol solution was flow injected.
CH$NAME: 3alpha,7beta-Dihydroxy-5alpha-cholan-24-oic acid
CH$NAME: Alloursodeoxycholic acid
CH$COMPOUND_CLASS: Natural Product; BILE ACID
CH$FORMULA: C24H40O4
CH$EXACT_MASS: 392.29266
CH$SMILES: C(C3(C)4)([H])(CC(O)CC4)CC(C(C3([H])2)(C(C1(C)CC2)([H])CCC1([H])C(C)CCC(O)=O)[H])O
CH$IUPAC: InChI=1S/C24H40O4/c1-14(4-7-21(27)28)17-5-6-18-22-19(9-11-24(17,18)3)23(2)10-8-16(25)12-15(23)13-20(22)26/h14-20,22,25-26H,4-13H2,1-3H3,(H,27,28)/t14-,15-,16-,17-,18+,19+,20+,22+,23+,24-/m1/s1
CH$LINK: LIPIDBANK BBA0037
CH$LINK: INCHIKEY RUDATBOHQWOJDD-SHOXBNBYSA-N
AC$INSTRUMENT: JMS-T100LP, JEOL Ltd.
AC$INSTRUMENT_TYPE: LC-ESI-TOF
AC$MASS_SPECTROMETRY: MS_TYPE MS
AC$MASS_SPECTROMETRY: ION_MODE NEGATIVE
AC$MASS_SPECTROMETRY: DESOLVATION_TEMPERATURE 250 C
AC$MASS_SPECTROMETRY: IONIZATION ESI
AC$MASS_SPECTROMETRY: ION_GUIDE_PEAK_VOLTAGE 1500 V
AC$MASS_SPECTROMETRY: LENS_VOLTAGE -10 V
AC$MASS_SPECTROMETRY: NEEDLE_VOLTAGE -2000 V
AC$MASS_SPECTROMETRY: NEBULIZING_GAS N2
AC$MASS_SPECTROMETRY: ORIFICE_VOLTAGE -120 V
AC$MASS_SPECTROMETRY: ORIFICE_TEMPERATURE 80 C
AC$MASS_SPECTROMETRY: SCANNING 1 sec/scan (m/z=100-1000)
MS$FOCUSED_ION: PRECURSOR_M/Z 391.28
MS$FOCUSED_ION: PRECURSOR_TYPE [M-H]-
PK$SPLASH: splash10-0006-0009000000-d0d77ae73359454df3de
PK$NUM_PEAK: 21
PK$PEAK: m/z int. rel.int.
  62.11 18085 25
  80.05 3740 5
  97.03 3194 4
  113.04 2683 4
  183.02 2480 3
  389.27 7650 10
  391.29 732727 999
  391.80 3357 5
  392.29 248533 339
  393.29 50270 69
  394.29 4205 6
  423.31 52142 71
  424.31 16138 22
  425.32 2920 4
  485.29 3968 5
  783.57 19757 27
  784.58 10434 14
  785.59 3390 5
  805.56 31863 43
  806.56 16999 23
  807.57 5598 8
//
