ACCESSION: MSBNK-Nihon_Univ-NU000314
RECORD_TITLE: 7beta,12alpha-Dihydroxy-5alpha-cholan-24-oic acid; LC-ESI-TOF; MS; -120 V
DATE: 2016.01.19 (Created 2013.02.22)
AUTHORS: Takashi Iida, Department of Chemistry, College of Humanities and Sciences, Nihon University
LICENSE: CC BY-NC-SA
COPYRIGHT: Copyright (C) Takashi Iida, Department of Chemistry, College of Humanities and Sciences, Nihon University
COMMENT: [Analytical] Sample of 1 micorL methanol solution was flow injected.
CH$NAME: 7beta,12alpha-Dihydroxy-5alpha-cholan-24-oic acid
CH$COMPOUND_CLASS: Natural Product; BILE ACID
CH$FORMULA: C24H40O4
CH$EXACT_MASS: 392.29266
CH$SMILES: C(C1(C)4)([H])(C(C)CCC(O)=O)CCC1(C(C3([H])CC4O)([H])C(O)CC(C3(C)2)([H])CCCC2)[H]
CH$IUPAC: InChI=1S/C24H40O4/c1-14(7-10-21(27)28)16-8-9-17-22-18(13-20(26)24(16,17)3)23(2)11-5-4-6-15(23)12-19(22)25/h14-20,22,25-26H,4-13H2,1-3H3,(H,27,28)/t14-,15-,16-,17+,18+,19+,20+,22+,23+,24-/m1/s1
CH$LINK: LIPIDBANK BBA0055
CH$LINK: INCHIKEY ZHCAAZIHTDCFJX-NGPAMCMXSA-N
AC$INSTRUMENT: JMS-T100LP, JEOL Ltd.
AC$INSTRUMENT_TYPE: LC-ESI-TOF
AC$MASS_SPECTROMETRY: MS_TYPE MS
AC$MASS_SPECTROMETRY: ION_MODE NEGATIVE
AC$MASS_SPECTROMETRY: DESOLVATION_TEMPERATURE 250 C
AC$MASS_SPECTROMETRY: IONIZATION ESI
AC$MASS_SPECTROMETRY: ION_GUIDE_PEAK_VOLTAGE 1500 V
AC$MASS_SPECTROMETRY: LENS_VOLTAGE -10 V
AC$MASS_SPECTROMETRY: NEEDLE_VOLTAGE -2000 V
AC$MASS_SPECTROMETRY: NEBULIZING_GAS N2
AC$MASS_SPECTROMETRY: ORIFICE_VOLTAGE -120 V
AC$MASS_SPECTROMETRY: ORIFICE_TEMPERATURE 80 C
AC$MASS_SPECTROMETRY: SCANNING 1 sec/scan (m/z=100-1000)
MS$FOCUSED_ION: PRECURSOR_M/Z 391.28
MS$FOCUSED_ION: PRECURSOR_TYPE [M-H]-
PK$SPLASH: splash10-0006-0009000000-96474a620742dec4c329
PK$NUM_PEAK: 37
PK$PEAK: m/z int. rel.int.
  61.68 10996 17
  68.72 7071 11
  96.78 2790 4
  112.85 2983 5
  139.02 4972 8
  205.14 3223 5
  248.96 5120 8
  311.24 5808 9
  325.25 4734 7
  327.27 17485 27
  328.27 5095 8
  329.29 5900 9
  343.26 21402 33
  344.27 5469 8
  345.28 50891 78
  346.28 13941 21
  347.30 17726 27
  348.30 4718 7
  353.25 2967 5
  355.27 5008 8
  373.28 5381 8
  377.30 6370 10
  379.32 18310 28
  380.33 5283 8
  389.27 4696 7
  391.29 655727 999
  391.80 2750 4
  392.29 203794 310
  393.29 38910 59
  394.30 3374 5
  413.27 3985 6
  783.58 25281 39
  784.58 13750 21
  785.59 4401 7
  805.56 22039 34
  806.57 11835 18
  807.57 4045 6
//
