ACCESSION: MSBNK-Nihon_Univ-NU000229
RECORD_TITLE: 3beta,7beta,12beta-Trihydroxy-5beta-cholan-24-oic acid; LC-ESI-TOF; MS; -120 V
DATE: 2016.01.19 (Created 2013.01.28)
AUTHORS: Takashi Iida, Department of Chemistry, College of Humanities and Sciences, Nihon University
LICENSE: CC BY-NC-SA
COPYRIGHT: Copyright (C) Takashi Iida, Department of Chemistry, College of Humanities and Sciences, Nihon University
COMMENT: [Analytical] Sample of 1 micorL methanol solution was flow injected.
CH$NAME: 3beta,7beta,12beta-Trihydroxy-5beta-cholan-24-oic acid
CH$COMPOUND_CLASS: Natural Product; BILE ACID
CH$FORMULA: C24H40O5
CH$EXACT_MASS: 408.28757
CH$SMILES: C(C3(C)4)([H])(CC(O)CC4)CC(C(C3([H])2)(C(C1(C)C(O)C2)([H])CCC1([H])C(C)CCC(=O)O[H])[H])O
CH$IUPAC: InChI=1S/C24H40O5/c1-13(4-7-21(28)29)16-5-6-17-22-18(12-20(27)24(16,17)3)23(2)9-8-15(25)10-14(23)11-19(22)26/h13-20,22,25-27H,4-12H2,1-3H3,(H,28,29)/t13-,14+,15+,16-,17+,18+,19+,20-,22+,23+,24-/m1/s1
CH$LINK: LIPIDBANK BBA0091
CH$LINK: INCHIKEY BHQCQFFYRZLCQQ-SHFFZNEJSA-N
AC$INSTRUMENT: JMS-T100LP, JEOL Ltd.
AC$INSTRUMENT_TYPE: LC-ESI-TOF
AC$MASS_SPECTROMETRY: MS_TYPE MS
AC$MASS_SPECTROMETRY: ION_MODE NEGATIVE
AC$MASS_SPECTROMETRY: DESOLVATION_TEMPERATURE 250 C
AC$MASS_SPECTROMETRY: IONIZATION ESI
AC$MASS_SPECTROMETRY: ION_GUIDE_PEAK_VOLTAGE 1500 V
AC$MASS_SPECTROMETRY: LENS_VOLTAGE -10 V
AC$MASS_SPECTROMETRY: NEEDLE_VOLTAGE -2000 V
AC$MASS_SPECTROMETRY: NEBULIZING_GAS N2
AC$MASS_SPECTROMETRY: ORIFICE_VOLTAGE -120 V
AC$MASS_SPECTROMETRY: ORIFICE_TEMPERATURE 80 C
AC$MASS_SPECTROMETRY: SCANNING 1 sec/scan (m/z=100-1000)
MS$FOCUSED_ION: PRECURSOR_M/Z 407.28
MS$FOCUSED_ION: PRECURSOR_TYPE [M-H]-
PK$SPLASH: splash10-08i0-9200100000-5bdf8dfefec1bf20b4a7
PK$NUM_PEAK: 28
PK$PEAK: m/z int. rel.int.
  56.88 4496 52
  58.91 18446 213
  59.93 3224 37
  60.96 86454 999
  62.96 3084 36
  68.06 2438 28
  75.12 3745 43
  76.14 18708 216
  78.16 8540 99
  79.17 43596 504
  88.34 2695 31
  92.28 6340 73
  94.30 5283 61
  95.34 6262 72
  96.36 31587 365
  108.51 20081 232
  110.52 10358 120
  112.53 7793 90
  119.54 2222 26
  140.75 3416 39
  146.74 3804 44
  150.75 1802 21
  168.82 9753 113
  170.82 3355 39
  200.93 3754 43
  343.28 4281 49
  407.29 22044 255
  408.29 6604 76
//
