ACCESSION: MSBNK-Nihon_Univ-NU000182
RECORD_TITLE: 7beta,12alpha-Dihydroxy-5beta-cholan-24-oic acid; LC-ESI-TOF; MS; -60 V
DATE: 2016.01.19 (Created 2013.01.28)
AUTHORS: Takashi Iida, Department of Chemistry, College of Humanities and Sciences, Nihon University
LICENSE: CC BY-NC-SA
COPYRIGHT: Copyright (C) Humanities and Sciences, Nihon University
COMMENT: [Analytical] Sample of 1 micorL methanol solution was flow injected.
CH$NAME: 7beta,12alpha-Dihydroxy-5beta-cholan-24-oic acid
CH$COMPOUND_CLASS: Natural Product; BILE ACID
CH$FORMULA: C24H40O4
CH$EXACT_MASS: 392.29266
CH$SMILES: C(C1(C)4)([H])(C(C)CCC(=O)O[H])CCC1(C(C3([H])CC4O)([H])C(O)CC(C3(C)2)([H])CCCC2)[H]
CH$IUPAC: InChI=1S/C24H40O4/c1-14(7-10-21(27)28)16-8-9-17-22-18(13-20(26)24(16,17)3)23(2)11-5-4-6-15(23)12-19(22)25/h14-20,22,25-26H,4-13H2,1-3H3,(H,27,28)/t14-,15+,16-,17+,18+,19+,20+,22+,23+,24-/m1/s1
CH$LINK: LIPIDBANK BBA0051
CH$LINK: INCHIKEY ZHCAAZIHTDCFJX-BJMHMCHXSA-N
AC$INSTRUMENT: JMS-T100LP, JEOL Ltd.
AC$INSTRUMENT_TYPE: LC-ESI-TOF
AC$MASS_SPECTROMETRY: MS_TYPE MS
AC$MASS_SPECTROMETRY: ION_MODE NEGATIVE
AC$MASS_SPECTROMETRY: DESOLVATION_TEMPERATURE 250 C
AC$MASS_SPECTROMETRY: IONIZATION ESI
AC$MASS_SPECTROMETRY: ION_GUIDE_PEAK_VOLTAGE 1500 V
AC$MASS_SPECTROMETRY: LENS_VOLTAGE -10 V
AC$MASS_SPECTROMETRY: NEEDLE_VOLTAGE -2000 V
AC$MASS_SPECTROMETRY: NEBULIZING_GAS N2
AC$MASS_SPECTROMETRY: ORIFICE_VOLTAGE -60 V
AC$MASS_SPECTROMETRY: ORIFICE_TEMPERATURE 80 C
AC$MASS_SPECTROMETRY: SCANNING 1 sec/scan (m/z=100-1000)
MS$FOCUSED_ION: PRECURSOR_M/Z 391.28
MS$FOCUSED_ION: PRECURSOR_TYPE [M-H]-
PK$SPLASH: splash10-0a4i-9013000000-5f718bcefbba5e21f847
PK$NUM_PEAK: 34
PK$PEAK: m/z int. rel.int.
  58.95 659554 999
  59.01 40977 62
  59.17 3892 6
  59.41 5597 8
  59.48 2155 3
  59.50 2515 4
  59.95 19745 30
  60.95 5723 9
  61.92 2768 4
  68.94 101305 153
  86.95 2771 4
  88.97 3152 5
  96.91 4668 7
  112.95 26848 41
  154.95 8160 12
  212.06 22870 35
  213.07 3091 5
  217.00 2959 4
  248.96 4457 7
  255.23 7434 11
  283.26 4450 7
  298.94 91179 138
  299.95 5733 9
  300.94 5066 8
  391.29 234355 355
  392.29 64178 97
  392.57 2448 4
  393.30 10996 17
  473.29 12047 18
  474.29 3404 5
  783.58 26103 40
  784.58 14606 22
  785.60 4623 7
  805.57 3914 6
//
