ACCESSION: MSBNK-Nihon_Univ-NU000157
RECORD_TITLE: 3alpha,12beta-Dihydroxy-5beta-cholan-24-oic acid; LC-ESI-TOF; MS; -60 V
DATE: 2016.01.19 (Created 2013.01.28)
AUTHORS: Takashi Iida, Department of Chemistry, College of Humanities and Sciences, Nihon University
LICENSE: CC BY-NC-SA
COPYRIGHT: Copyright (C) Takashi Iida, Department of Chemistry, College of Humanities and Sciences, Nihon University
COMMENT: [Analytical] Sample of 1 micorL methanol solution was flow injected.
CH$NAME: 3alpha,12beta-Dihydroxy-5beta-cholan-24-oic acid
CH$NAME: Lagodeoxycholic acid
CH$NAME: Isodeoxycholic acid
CH$COMPOUND_CLASS: Natural Product; BILE ACID
CH$FORMULA: C24H40O4
CH$EXACT_MASS: 392.29266
CH$SMILES: C(C1(C)4)([H])(C(C)CCC(=O)O[H])CCC1(C(C3([H])CC4O)([H])CCC(C3(C)2)([H])CC(O)CC2)[H]
CH$IUPAC: InChI=1S/C24H40O4/c1-14(4-9-22(27)28)18-7-8-19-17-6-5-15-12-16(25)10-11-23(15,2)20(17)13-21(26)24(18,19)3/h14-21,25-26H,4-13H2,1-3H3,(H,27,28)/t14-,15-,16-,17+,18-,19+,20+,21-,23+,24-/m1/s1
CH$LINK: LIPIDBANK BBA0041
CH$LINK: INCHIKEY KXGVEGMKQFWNSR-MFSKYVBHSA-N
AC$INSTRUMENT: JMS-T100LP, JEOL Ltd.
AC$INSTRUMENT_TYPE: LC-ESI-TOF
AC$MASS_SPECTROMETRY: MS_TYPE MS
AC$MASS_SPECTROMETRY: ION_MODE NEGATIVE
AC$MASS_SPECTROMETRY: DESOLVATION_TEMPERATURE 250 C
AC$MASS_SPECTROMETRY: IONIZATION ESI
AC$MASS_SPECTROMETRY: ION_GUIDE_PEAK_VOLTAGE 1500 V
AC$MASS_SPECTROMETRY: LENS_VOLTAGE -10 V
AC$MASS_SPECTROMETRY: NEEDLE_VOLTAGE -2000 V
AC$MASS_SPECTROMETRY: NEBULIZING_GAS N2
AC$MASS_SPECTROMETRY: ORIFICE_VOLTAGE -60 V
AC$MASS_SPECTROMETRY: ORIFICE_TEMPERATURE 80 C
AC$MASS_SPECTROMETRY: SCANNING 1 sec/scan (m/z=100-1000)
MS$FOCUSED_ION: PRECURSOR_M/Z 391.28
MS$FOCUSED_ION: PRECURSOR_TYPE [M-H]-
PK$SPLASH: splash10-00kf-8339000000-e4ccf627bc8c8aca48b5
PK$NUM_PEAK: 19
PK$PEAK: m/z int. rel.int.
  60.92 1594 12
  68.94 137781 999
  72.95 2304 17
  86.95 2468 18
  100.96 2886 21
  112.95 31488 228
  154.95 14816 107
  166.98 2960 21
  248.96 10269 74
  255.23 5920 43
  283.27 2833 21
  298.94 37232 270
  389.27 4063 29
  391.29 114241 828
  392.29 32535 236
  393.30 4925 36
  473.29 8853 64
  783.59 6906 50
  784.59 3840 28
//
