ACCESSION: MSBNK-Nihon_Univ-NU000283
RECORD_TITLE: 3alpha,12alpha-Dihydroxy-5alpha-cholan-24-oic acid; LC-ESI-TOF; MS; -90 V
DATE: 2016.01.19 (Created 2013.02.22)
AUTHORS: Takashi Iida, Department of Chemistry, College of Humanities and Sciences, Nihon University
LICENSE: CC BY-NC-SA
COPYRIGHT: Copyright (C) Takashi Iida, Department of Chemistry, College of Humanities and Sciences, Nihon University
COMMENT: [Analytical] Sample of 1 micorL methanol solution was flow injected.
CH$NAME: 3alpha,12alpha-Dihydroxy-5alpha-cholan-24-oic acid
CH$NAME: Allodeoxycholic acid
CH$NAME: Beta-Lagodeoxycholic acid
CH$COMPOUND_CLASS: Natural Product; BILE ACID
CH$FORMULA: C24H40O4
CH$EXACT_MASS: 392.29266
CH$SMILES: C(C1(C)4)([H])(C(C)CCC(O)=O)CCC1(C(C3([H])CC4O)([H])CCC(C3(C)2)([H])CC(O)CC2)[H]
CH$IUPAC: InChI=1S/C24H40O4/c1-14(4-9-22(27)28)18-7-8-19-17-6-5-15-12-16(25)10-11-23(15,2)20(17)13-21(26)24(18,19)3/h14-21,25-26H,4-13H2,1-3H3,(H,27,28)/t14-,15+,16-,17+,18-,19+,20+,21+,23+,24-/m1/s1
CH$LINK: KEGG C17687
CH$LINK: LIPIDBANK BBA0044
CH$LINK: INCHIKEY KXGVEGMKQFWNSR-WFTUMUMQSA-N
AC$INSTRUMENT: JMS-T100LP, JEOL Ltd.
AC$INSTRUMENT_TYPE: LC-ESI-TOF
AC$MASS_SPECTROMETRY: MS_TYPE MS
AC$MASS_SPECTROMETRY: ION_MODE NEGATIVE
AC$MASS_SPECTROMETRY: DESOLVATION_TEMPERATURE 250 C
AC$MASS_SPECTROMETRY: IONIZATION ESI
AC$MASS_SPECTROMETRY: ION_GUIDE_PEAK_VOLTAGE 1500 V
AC$MASS_SPECTROMETRY: LENS_VOLTAGE -10 V
AC$MASS_SPECTROMETRY: NEEDLE_VOLTAGE -2000 V
AC$MASS_SPECTROMETRY: NEBULIZING_GAS N2
AC$MASS_SPECTROMETRY: ORIFICE_VOLTAGE -90 V
AC$MASS_SPECTROMETRY: ORIFICE_TEMPERATURE 80 C
AC$MASS_SPECTROMETRY: SCANNING 1 sec/scan (m/z=100-1000)
MS$FOCUSED_ION: PRECURSOR_M/Z 391.28
MS$FOCUSED_ION: PRECURSOR_TYPE [M-H]-
PK$SPLASH: splash10-0005-6097000000-3eb16c20c03dd90b537f
PK$NUM_PEAK: 28
PK$PEAK: m/z int. rel.int.
  59.14 2240 9
  62.11 18651 77
  69.10 8267 34
  79.05 14403 60
  80.05 39279 163
  83.05 3988 17
  85.07 2402 10
  86.09 11237 47
  87.08 48610 201
  93.00 9909 41
  94.99 6634 27
  97.03 8209 34
  99.02 21999 91
  255.23 2966 12
  280.95 3104 13
  298.94 241252 999
  299.95 16575 69
  300.94 14075 58
  389.27 35823 148
  390.27 10438 43
  391.28 108695 450
  392.29 31002 128
  393.29 5580 23
  447.23 3616 15
  449.24 11599 48
  450.25 3508 15
  451.24 4352 18
  473.29 3326 14
//
