ACCESSION: MSBNK-Nihon_Univ-NU000337
RECORD_TITLE: 3alpha,7beta,12beta-Trihydroxy-5alpha-cholan-24-oic acid; LC-ESI-TOF; MS; -60 V
DATE: 2016.01.19 (Created 2013.02.27)
AUTHORS: Takashi Iida, Department of Chemistry, College of Humanities and Sciences, Nihon University
LICENSE: CC BY-NC-SA
COPYRIGHT: Copyright (C) Takashi Iida, Department of Chemistry, College of Humanities and Sciences, Nihon University
COMMENT: [Analytical] Sample of 1 micorL methanol solution was flow injected.
CH$NAME: 3alpha,7beta,12beta-Trihydroxy-5alpha-cholan-24-oic acid
CH$COMPOUND_CLASS: Natural Product; BILE ACID
CH$FORMULA: C24H40O5
CH$EXACT_MASS: 408.28757
CH$SMILES: C(C3(C)4)([H])(CC(O)CC4)CC(C(C3([H])2)(C(C1(C)C(O)C2)([H])CCC1([H])C(C)CCC(O)=O)[H])O
CH$IUPAC: InChI=1S/C24H40O5/c1-13(4-7-21(28)29)16-5-6-17-22-18(12-20(27)24(16,17)3)23(2)9-8-15(25)10-14(23)11-19(22)26/h13-20,22,25-27H,4-12H2,1-3H3,(H,28,29)/t13-,14-,15-,16-,17+,18+,19+,20-,22+,23+,24-/m1/s1
CH$LINK: LIPIDBANK BBA0097
CH$LINK: INCHIKEY BHQCQFFYRZLCQQ-JWQTVRMOSA-N
AC$INSTRUMENT: JMS-T100LP, JEOL Ltd.
AC$INSTRUMENT_TYPE: LC-ESI-TOF
AC$MASS_SPECTROMETRY: MS_TYPE MS
AC$MASS_SPECTROMETRY: ION_MODE NEGATIVE
AC$MASS_SPECTROMETRY: DESOLVATION_TEMPERATURE 250 C
AC$MASS_SPECTROMETRY: IONIZATION ESI
AC$MASS_SPECTROMETRY: ION_GUIDE_PEAK_VOLTAGE 1500 V
AC$MASS_SPECTROMETRY: LENS_VOLTAGE -10 V
AC$MASS_SPECTROMETRY: NEEDLE_VOLTAGE -2000 V
AC$MASS_SPECTROMETRY: NEBULIZING_GAS N2
AC$MASS_SPECTROMETRY: ORIFICE_VOLTAGE -60 V
AC$MASS_SPECTROMETRY: ORIFICE_TEMPERATURE 80 C
AC$MASS_SPECTROMETRY: SCANNING 1 sec/scan (m/z=100-1000)
MS$FOCUSED_ION: PRECURSOR_M/Z 407.28
MS$FOCUSED_ION: PRECURSOR_TYPE [M-H]-
PK$SPLASH: splash10-0aor-4000900030-a7a477f94a95525a6f75
PK$NUM_PEAK: 30
PK$PEAK: m/z int. rel.int.
  58.69 6029 15
  61.68 38390 93
  68.72 232191 564
  69.72 3218 8
  92.84 4019 10
  112.85 36417 88
  150.99 3222 8
  154.91 2986 7
  212.06 20241 49
  213.06 2684 7
  250.14 3731 9
  255.23 12229 30
  283.27 8318 20
  391.29 6962 17
  405.27 3223 8
  407.28 411596 999
  407.66 1442 3
  408.28 117785 286
  409.29 19514 47
  429.26 6722 16
  443.25 2967 7
  461.29 3779 9
  793.47 3115 8
  799.58 3726 9
  815.57 101637 247
  816.58 53141 129
  817.58 17542 43
  818.59 4494 11
  837.56 10238 25
  838.56 5637 14
//
