ACCESSION: MSBNK-Nihon_Univ-NU000278
RECORD_TITLE: 3beta,7beta-Dihydroxy-5alpha-cholan-24-oic acid; LC-ESI-TOF; MS; -90 V
DATE: 2016.01.19 (Created 2013.02.20)
AUTHORS: Takashi Iida, Department of Chemistry, College of Humanities and Sciences, Nihon University
LICENSE: CC BY-NC-SA
COPYRIGHT: Copyright (C) Takashi Iida, Department of Chemistry, College of Humanities and Sciences, Nihon University
COMMENT: [Analytical] Sample of 1 micorL methanol solution was flow injected.
CH$NAME: 3beta,7beta-Dihydroxy-5alpha-cholan-24-oic acid
CH$COMPOUND_CLASS: Natural Product; BILE ACID
CH$FORMULA: C24H40O4
CH$EXACT_MASS: 392.29266
CH$SMILES: C(C3(C)4)([H])(CC(O)CC4)CC(C(C3([H])2)(C(C1(C)CC2)([H])CCC1([H])C(C)CCC(O)=O)[H])O
CH$IUPAC: InChI=1S/C24H40O4/c1-14(4-7-21(27)28)17-5-6-18-22-19(9-11-24(17,18)3)23(2)10-8-16(25)12-15(23)13-20(22)26/h14-20,22,25-26H,4-13H2,1-3H3,(H,27,28)/t14-,15-,16+,17-,18+,19+,20+,22+,23+,24-/m1/s1
CH$LINK: LIPIDBANK BBA0039
CH$LINK: INCHIKEY RUDATBOHQWOJDD-IMRDPUKRSA-N
AC$INSTRUMENT: JMS-T100LP, JEOL Ltd.
AC$INSTRUMENT_TYPE: LC-ESI-TOF
AC$MASS_SPECTROMETRY: MS_TYPE MS
AC$MASS_SPECTROMETRY: ION_MODE NEGATIVE
AC$MASS_SPECTROMETRY: DESOLVATION_TEMPERATURE 250 C
AC$MASS_SPECTROMETRY: IONIZATION ESI
AC$MASS_SPECTROMETRY: ION_GUIDE_PEAK_VOLTAGE 1500 V
AC$MASS_SPECTROMETRY: LENS_VOLTAGE -10 V
AC$MASS_SPECTROMETRY: NEEDLE_VOLTAGE -2000 V
AC$MASS_SPECTROMETRY: NEBULIZING_GAS N2
AC$MASS_SPECTROMETRY: ORIFICE_VOLTAGE -90 V
AC$MASS_SPECTROMETRY: ORIFICE_TEMPERATURE 80 C
AC$MASS_SPECTROMETRY: SCANNING 1 sec/scan (m/z=100-1000)
MS$FOCUSED_ION: PRECURSOR_M/Z 391.28
MS$FOCUSED_ION: PRECURSOR_TYPE [M-H]-
PK$SPLASH: splash10-0006-2009200000-38dd03d17165541f022b
PK$NUM_PEAK: 34
PK$PEAK: m/z int. rel.int.
  59.14 4357 14
  62.11 65149 207
  69.10 22614 72
  80.05 2386 8
  85.07 4620 15
  97.03 3276 10
  113.04 5080 16
  212.08 2582 8
  250.15 2762 9
  255.23 10302 33
  283.26 5476 17
  373.28 4210 13
  389.27 5493 17
  391.29 313919 999
  392.29 88942 283
  393.29 16509 53
  405.29 3481 11
  407.28 34243 109
  408.29 9934 32
  423.31 25121 80
  424.32 7667 24
  437.33 4560 15
  445.30 4144 13
  449.29 6083 19
  451.34 8635 27
  452.35 2369 8
  463.31 17090 54
  464.32 5578 18
  473.29 5287 17
  485.29 3150 10
  783.58 7107 23
  784.58 3734 12
  805.56 8494 27
  806.56 4760 15
//
