ACCESSION: MSBNK-Nihon_Univ-NU000329
RECORD_TITLE: 3alpha,7beta,12alpha-Trihydroxy-5alpha-cholan-24-oic acid; LC-ESI-TOF; MS; -120 V
DATE: 2016.01.19 (Created 2013.02.27)
AUTHORS: Takashi Iida, Department of Chemistry, College of Humanities and Sciences, Nihon University
LICENSE: CC BY-NC-SA
COPYRIGHT: Copyright (C) Takashi Iida, Department of Chemistry, College of Humanities and Sciences, Nihon University
COMMENT: [Analytical] Sample of 1 micorL methanol solution was flow injected.
CH$NAME: 3alpha,7beta,12alpha-Trihydroxy-5alpha-cholan-24-oic acid
CH$NAME: Alloursocholic acid
CH$COMPOUND_CLASS: Natural Product; BILE ACID
CH$FORMULA: C24H40O5
CH$EXACT_MASS: 408.28757
CH$SMILES: C(C3(C)4)([H])(CC(O)CC4)CC(C(C3([H])2)(C(C1(C)C(O)C2)([H])CCC1([H])C(C)CCC(O)=O)[H])O
CH$IUPAC: InChI=1S/C24H40O5/c1-13(4-7-21(28)29)16-5-6-17-22-18(12-20(27)24(16,17)3)23(2)9-8-15(25)10-14(23)11-19(22)26/h13-20,22,25-27H,4-12H2,1-3H3,(H,28,29)/t13-,14-,15-,16-,17+,18+,19+,20+,22+,23+,24-/m1/s1
CH$LINK: LIPIDBANK BBA0096
CH$LINK: INCHIKEY BHQCQFFYRZLCQQ-PWNRUWOFSA-N
AC$INSTRUMENT: JMS-T100LP, JEOL Ltd.
AC$INSTRUMENT_TYPE: LC-ESI-TOF
AC$MASS_SPECTROMETRY: MS_TYPE MS
AC$MASS_SPECTROMETRY: ION_MODE NEGATIVE
AC$MASS_SPECTROMETRY: DESOLVATION_TEMPERATURE 250 C
AC$MASS_SPECTROMETRY: IONIZATION ESI
AC$MASS_SPECTROMETRY: ION_GUIDE_PEAK_VOLTAGE 1500 V
AC$MASS_SPECTROMETRY: LENS_VOLTAGE -10 V
AC$MASS_SPECTROMETRY: NEEDLE_VOLTAGE -2000 V
AC$MASS_SPECTROMETRY: NEBULIZING_GAS N2
AC$MASS_SPECTROMETRY: ORIFICE_VOLTAGE -120 V
AC$MASS_SPECTROMETRY: ORIFICE_TEMPERATURE 80 C
AC$MASS_SPECTROMETRY: SCANNING 1 sec/scan (m/z=100-1000)
MS$FOCUSED_ION: PRECURSOR_M/Z 407.28
MS$FOCUSED_ION: PRECURSOR_TYPE [M-H]-
PK$SPLASH: splash10-0a4i-0001900000-2fe302960abe542a65cf
PK$NUM_PEAK: 35
PK$PEAK: m/z int. rel.int.
  61.68 8621 18
  63.66 2542 5
  68.76 8377 18
  96.78 2028 4
  112.85 4334 9
  248.96 4663 10
  325.26 7753 17
  327.27 4790 10
  341.25 3453 7
  343.27 17172 37
  344.27 4430 9
  345.28 8610 18
  353.25 3871 8
  359.29 6717 14
  361.28 5307 11
  371.26 3782 8
  375.29 4668 10
  377.31 13709 29
  378.31 3829 8
  389.27 3657 8
  391.28 4917 10
  405.26 6910 15
  407.28 468627 999
  408.28 131334 280
  409.28 22220 47
  410.29 1581 3
  427.25 3847 8
  429.26 5721 12
  437.29 2820 6
  461.29 4454 9
  815.57 14709 31
  816.57 8023 17
  837.56 25204 54
  838.56 13546 29
  839.57 4511 10
//
