ACCESSION: MSBNK-Nihon_Univ-NU000282
RECORD_TITLE: 3alpha,12alpha-Dihydroxy-5alpha-cholan-24-oic acid; LC-ESI-TOF; MS; -60 V
DATE: 2016.01.19 (Created 2013.02.22)
AUTHORS: Takashi Iida, Department of Chemistry, College of Humanities and Sciences, Nihon University
LICENSE: CC BY-NC-SA
COPYRIGHT: Copyright (C) Takashi Iida, Department of Chemistry, College of Humanities and Sciences, Nihon University
COMMENT: [Analytical] Sample of 1 micorL methanol solution was flow injected.
CH$NAME: 3alpha,12alpha-Dihydroxy-5alpha-cholan-24-oic acid
CH$NAME: Allodeoxycholic acid
CH$NAME: Beta-Lagodeoxycholic acid
CH$COMPOUND_CLASS: Natural Product; BILE ACID
CH$FORMULA: C24H40O4
CH$EXACT_MASS: 392.29266
CH$SMILES: C(C1(C)4)([H])(C(C)CCC(O)=O)CCC1(C(C3([H])CC4O)([H])CCC(C3(C)2)([H])CC(O)CC2)[H]
CH$IUPAC: InChI=1S/C24H40O4/c1-14(4-9-22(27)28)18-7-8-19-17-6-5-15-12-16(25)10-11-23(15,2)20(17)13-21(26)24(18,19)3/h14-21,25-26H,4-13H2,1-3H3,(H,27,28)/t14-,15+,16-,17+,18-,19+,20+,21+,23+,24-/m1/s1
CH$LINK: KEGG C17687
CH$LINK: LIPIDBANK BBA0044
CH$LINK: INCHIKEY KXGVEGMKQFWNSR-WFTUMUMQSA-N
AC$INSTRUMENT: JMS-T100LP, JEOL Ltd.
AC$INSTRUMENT_TYPE: LC-ESI-TOF
AC$MASS_SPECTROMETRY: MS_TYPE MS
AC$MASS_SPECTROMETRY: ION_MODE NEGATIVE
AC$MASS_SPECTROMETRY: DESOLVATION_TEMPERATURE 250 C
AC$MASS_SPECTROMETRY: IONIZATION ESI
AC$MASS_SPECTROMETRY: ION_GUIDE_PEAK_VOLTAGE 1500 V
AC$MASS_SPECTROMETRY: LENS_VOLTAGE -10 V
AC$MASS_SPECTROMETRY: NEEDLE_VOLTAGE -2000 V
AC$MASS_SPECTROMETRY: NEBULIZING_GAS N2
AC$MASS_SPECTROMETRY: ORIFICE_VOLTAGE -60 V
AC$MASS_SPECTROMETRY: ORIFICE_TEMPERATURE 80 C
AC$MASS_SPECTROMETRY: SCANNING 1 sec/scan (m/z=100-1000)
MS$FOCUSED_ION: PRECURSOR_M/Z 391.28
MS$FOCUSED_ION: PRECURSOR_TYPE [M-H]-
PK$SPLASH: splash10-0002-9084000000-da4e0a54447670613b32
PK$NUM_PEAK: 32
PK$PEAK: m/z int. rel.int.
  59.14 81885 261
  62.11 22833 73
  69.10 77939 248
  79.05 7374 23
  85.07 13268 42
  86.09 23615 75
  87.08 101339 323
  93.00 13846 44
  94.99 9651 31
  97.03 5995 19
  113.04 10599 34
  125.04 6525 21
  153.06 3917 12
  212.08 5105 16
  255.23 5425 17
  280.95 4980 16
  298.94 313650 999
  299.95 21778 69
  300.94 18510 59
  389.27 31748 101
  390.27 9265 30
  391.28 94952 302
  392.29 27015 86
  393.29 4916 16
  427.26 4687 15
  447.23 2650 8
  449.24 8581 27
  451.24 2955 9
  473.29 3667 12
  620.88 2728 9
  781.56 3060 10
  783.58 5021 16
//
