ACCESSION: MSBNK-Nihon_Univ-NU000331
RECORD_TITLE: 3alpha,7alpha,12beta-Trihydroxy-5alpha-cholan-24-oic acid; LC-ESI-TOF; MS; -30 V
DATE: 2016.01.19 (Created 2013.02.27)
AUTHORS: Takashi Iida, Department of Chemistry, College of Humanities and Sciences, Nihon University
LICENSE: CC BY-NC-SA
COPYRIGHT: Copyright (C) Takashi Iida, Department of Chemistry, College of Humanities and Sciences, Nihon University
COMMENT: [Analytical] Sample of 1 micorL methanol solution was flow injected.
CH$NAME: 3alpha,7alpha,12beta-Trihydroxy-5alpha-cholan-24-oic acid
CH$COMPOUND_CLASS: Natural Product; BILE ACID
CH$FORMULA: C24H40O5
CH$EXACT_MASS: 408.28757
CH$SMILES: C(C3(C)4)([H])(CC(O)CC4)CC(C(C3([H])2)(C(C1(C)C(O)C2)([H])CCC1([H])C(C)CCC(O)=O)[H])O
CH$IUPAC: InChI=1S/C24H40O5/c1-13(4-7-21(28)29)16-5-6-17-22-18(12-20(27)24(16,17)3)23(2)9-8-15(25)10-14(23)11-19(22)26/h13-20,22,25-27H,4-12H2,1-3H3,(H,28,29)/t13-,14-,15-,16-,17+,18+,19-,20-,22+,23+,24-/m1/s1
CH$LINK: LIPIDBANK BBA0093
CH$LINK: INCHIKEY BHQCQFFYRZLCQQ-OFYMMLAUSA-N
AC$INSTRUMENT: JMS-T100LP, JEOL Ltd.
AC$INSTRUMENT_TYPE: LC-ESI-TOF
AC$MASS_SPECTROMETRY: MS_TYPE MS
AC$MASS_SPECTROMETRY: ION_MODE NEGATIVE
AC$MASS_SPECTROMETRY: DESOLVATION_TEMPERATURE 250 C
AC$MASS_SPECTROMETRY: IONIZATION ESI
AC$MASS_SPECTROMETRY: ION_GUIDE_PEAK_VOLTAGE 1500 V
AC$MASS_SPECTROMETRY: LENS_VOLTAGE -10 V
AC$MASS_SPECTROMETRY: NEEDLE_VOLTAGE -2000 V
AC$MASS_SPECTROMETRY: NEBULIZING_GAS N2
AC$MASS_SPECTROMETRY: ORIFICE_VOLTAGE -30 V
AC$MASS_SPECTROMETRY: ORIFICE_TEMPERATURE 80 C
AC$MASS_SPECTROMETRY: SCANNING 1 sec/scan (m/z=100-1000)
MS$FOCUSED_ION: PRECURSOR_M/Z 407.28
MS$FOCUSED_ION: PRECURSOR_TYPE [M-H]-
PK$SPLASH: splash10-0229-9420200000-b3bec060da089f4bf9eb
PK$NUM_PEAK: 40
PK$PEAK: m/z int. rel.int.
  58.69 33406 88
  61.68 19227 51
  68.72 35521 93
  72.75 2640 7
  74.75 379733 999
  74.92 1655 4
  75.76 11863 31
  76.77 2920 8
  84.81 18520 49
  88.82 5123 13
  92.84 21651 57
  112.85 139392 367
  113.85 3056 8
  128.91 10164 27
  133.99 3230 8
  134.99 13029 34
  136.94 3124 8
  138.95 14729 39
  144.91 3147 8
  150.99 36935 97
  172.96 4880 13
  194.96 3332 9
  199.15 3884 10
  205.14 6031 16
  212.06 86593 228
  213.06 11724 31
  214.06 4736 12
  219.16 4528 12
  227.00 5029 13
  244.98 3192 8
  255.23 2538 7
  265.15 2635 7
  281.02 2780 7
  407.28 99832 263
  408.28 28318 74
  409.28 4628 12
  505.28 2691 7
  521.27 3139 8
  815.57 15914 42
  816.57 8213 22
//
