ACCESSION: MSBNK-Nihon_Univ-NU000284
RECORD_TITLE: 3alpha,12alpha-Dihydroxy-5alpha-cholan-24-oic acid; LC-ESI-TOF; MS; -120 V
DATE: 2016.01.19 (Created 2013.02.22)
AUTHORS: Takashi Iida, Department of Chemistry, College of Humanities and Sciences, Nihon University
LICENSE: CC BY-NC-SA
COPYRIGHT: Copyright (C) Takashi Iida, Department of Chemistry, College of Humanities and Sciences, Nihon University
COMMENT: [Analytical] Sample of 1 micorL methanol solution was flow injected.
CH$NAME: 3alpha,12alpha-Dihydroxy-5alpha-cholan-24-oic acid
CH$NAME: Allodeoxycholic acid
CH$NAME: Beta-Lagodeoxycholic acid
CH$COMPOUND_CLASS: Natural Product; BILE ACID
CH$FORMULA: C24H40O4
CH$EXACT_MASS: 392.29266
CH$SMILES: C(C1(C)4)([H])(C(C)CCC(O)=O)CCC1(C(C3([H])CC4O)([H])CCC(C3(C)2)([H])CC(O)CC2)[H]
CH$IUPAC: InChI=1S/C24H40O4/c1-14(4-9-22(27)28)18-7-8-19-17-6-5-15-12-16(25)10-11-23(15,2)20(17)13-21(26)24(18,19)3/h14-21,25-26H,4-13H2,1-3H3,(H,27,28)/t14-,15+,16-,17+,18-,19+,20+,21+,23+,24-/m1/s1
CH$LINK: KEGG C17687
CH$LINK: LIPIDBANK BBA0044
CH$LINK: INCHIKEY KXGVEGMKQFWNSR-WFTUMUMQSA-N
AC$INSTRUMENT: JMS-T100LP, JEOL Ltd.
AC$INSTRUMENT_TYPE: LC-ESI-TOF
AC$MASS_SPECTROMETRY: MS_TYPE MS
AC$MASS_SPECTROMETRY: ION_MODE NEGATIVE
AC$MASS_SPECTROMETRY: DESOLVATION_TEMPERATURE 250 C
AC$MASS_SPECTROMETRY: IONIZATION ESI
AC$MASS_SPECTROMETRY: ION_GUIDE_PEAK_VOLTAGE 1500 V
AC$MASS_SPECTROMETRY: LENS_VOLTAGE -10 V
AC$MASS_SPECTROMETRY: NEEDLE_VOLTAGE -2000 V
AC$MASS_SPECTROMETRY: NEBULIZING_GAS N2
AC$MASS_SPECTROMETRY: ORIFICE_VOLTAGE -120 V
AC$MASS_SPECTROMETRY: ORIFICE_TEMPERATURE 80 C
AC$MASS_SPECTROMETRY: SCANNING 1 sec/scan (m/z=100-1000)
MS$FOCUSED_ION: PRECURSOR_M/Z 391.28
MS$FOCUSED_ION: PRECURSOR_TYPE [M-H]-
PK$SPLASH: splash10-000y-9028000000-08c27abbca130fe81b2b
PK$NUM_PEAK: 28
PK$PEAK: m/z int. rel.int.
  62.11 7270 98
  79.05 13939 188
  80.05 74199 999
  82.04 3905 53
  83.05 2824 38
  86.09 2120 29
  87.08 9358 126
  93.00 9361 126
  94.99 6161 83
  97.03 4524 61
  99.02 29368 395
  113.04 2848 38
  298.94 46159 621
  299.95 3017 41
  300.94 2602 35
  327.26 3705 50
  343.26 5911 80
  345.28 9967 134
  346.28 2612 35
  347.29 4656 63
  379.32 2466 33
  389.27 21346 287
  390.27 6216 84
  391.28 68313 920
  392.29 19799 267
  393.29 3378 45
  449.24 7780 105
  451.24 2849 38
//
