ACCESSION: MSBNK-Nihon_Univ-NU000349
RECORD_TITLE: 3beta,7beta,12alpha-Trihydroxy-5alpha-cholan-24-oic acid; LC-ESI-TOF; MS; -120 V
DATE: 2016.01.19 (Created 2013.02.27)
AUTHORS: Takashi Iida, Department of Chemistry, College of Humanities and Sciences, Nihon University
LICENSE: CC BY-NC-SA
COPYRIGHT: Copyright (C) Takashi Iida, Department of Chemistry, College of Humanities and Sciences, Nihon University
COMMENT: [Analytical] Sample of 1 micorL methanol solution was flow injected.
CH$NAME: 3beta,7beta,12alpha-Trihydroxy-5alpha-cholan-24-oic acid
CH$COMPOUND_CLASS: Natural Product; BILE ACID
CH$FORMULA: C24H40O5
CH$EXACT_MASS: 408.28757
CH$SMILES: C(C3(C)4)([H])(CC(O)CC4)CC(C(C3([H])2)(C(C1(C)C(O)C2)([H])CCC1([H])C(C)CCC(O)=O)[H])O
CH$IUPAC: InChI=1S/C24H40O5/c1-13(4-7-21(28)29)16-5-6-17-22-18(12-20(27)24(16,17)3)23(2)9-8-15(25)10-14(23)11-19(22)26/h13-20,22,25-27H,4-12H2,1-3H3,(H,28,29)/t13-,14-,15+,16-,17+,18+,19+,20+,22+,23+,24-/m1/s1
CH$LINK: LIPIDBANK BBA0098
CH$LINK: INCHIKEY BHQCQFFYRZLCQQ-UEXPSFCYSA-N
AC$INSTRUMENT: JMS-T100LP, JEOL Ltd.
AC$INSTRUMENT_TYPE: LC-ESI-TOF
AC$MASS_SPECTROMETRY: MS_TYPE MS
AC$MASS_SPECTROMETRY: ION_MODE NEGATIVE
AC$MASS_SPECTROMETRY: DESOLVATION_TEMPERATURE 250 C
AC$MASS_SPECTROMETRY: IONIZATION ESI
AC$MASS_SPECTROMETRY: ION_GUIDE_PEAK_VOLTAGE 1500 V
AC$MASS_SPECTROMETRY: LENS_VOLTAGE -10 V
AC$MASS_SPECTROMETRY: NEEDLE_VOLTAGE -2000 V
AC$MASS_SPECTROMETRY: NEBULIZING_GAS N2
AC$MASS_SPECTROMETRY: ORIFICE_VOLTAGE -120 V
AC$MASS_SPECTROMETRY: ORIFICE_TEMPERATURE 80 C
AC$MASS_SPECTROMETRY: SCANNING 1 sec/scan (m/z=100-1000)
MS$FOCUSED_ION: PRECURSOR_M/Z 407.28
MS$FOCUSED_ION: PRECURSOR_TYPE [M-H]-
PK$SPLASH: splash10-0a4i-1003900000-e58e240fa35a7bc10719
PK$NUM_PEAK: 31
PK$PEAK: m/z int. rel.int.
  61.68 13974 98
  63.66 4405 31
  68.72 2373 17
  68.76 5813 41
  79.72 2467 17
  96.78 2366 17
  248.96 3287 23
  250.14 2569 18
  283.27 2902 20
  341.25 2958 21
  343.27 7244 51
  345.28 4062 29
  359.26 8569 60
  361.27 14749 104
  362.28 4329 30
  363.29 5089 36
  389.27 2734 19
  391.28 17751 125
  392.29 5473 38
  393.30 3530 25
  395.32 7672 54
  405.27 2958 21
  407.28 142209 999
  408.28 40633 285
  409.28 7283 51
  427.25 5370 38
  429.26 7873 55
  461.29 4266 30
  485.28 6552 46
  837.56 7553 53
  838.56 4101 29
//
