ACCESSION: MSBNK-Nihon_Univ-NU000350
RECORD_TITLE: 3beta,7beta,12alpha-Trihydroxy-5alpha-cholan-24-oic acid; LC-ESI-TOF; MS; -150 V
DATE: 2016.01.19 (Created 2013.02.27)
AUTHORS: Takashi Iida, Department of Chemistry, College of Humanities and Sciences, Nihon University
LICENSE: CC BY-NC-SA
COPYRIGHT: Copyright (C) Takashi Iida, Department of Chemistry, College of Humanities and Sciences, Nihon University
COMMENT: [Analytical] Sample of 1 micorL methanol solution was flow injected.
CH$NAME: 3beta,7beta,12alpha-Trihydroxy-5alpha-cholan-24-oic acid
CH$COMPOUND_CLASS: Natural Product; BILE ACID
CH$FORMULA: C24H40O5
CH$EXACT_MASS: 408.28757
CH$SMILES: C(C3(C)4)([H])(CC(O)CC4)CC(C(C3([H])2)(C(C1(C)C(O)C2)([H])CCC1([H])C(C)CCC(O)=O)[H])O
CH$IUPAC: InChI=1S/C24H40O5/c1-13(4-7-21(28)29)16-5-6-17-22-18(12-20(27)24(16,17)3)23(2)9-8-15(25)10-14(23)11-19(22)26/h13-20,22,25-27H,4-12H2,1-3H3,(H,28,29)/t13-,14-,15+,16-,17+,18+,19+,20+,22+,23+,24-/m1/s1
CH$LINK: LIPIDBANK BBA0098
CH$LINK: INCHIKEY BHQCQFFYRZLCQQ-UEXPSFCYSA-N
AC$INSTRUMENT: JMS-T100LP, JEOL Ltd.
AC$INSTRUMENT_TYPE: LC-ESI-TOF
AC$MASS_SPECTROMETRY: MS_TYPE MS
AC$MASS_SPECTROMETRY: ION_MODE NEGATIVE
AC$MASS_SPECTROMETRY: DESOLVATION_TEMPERATURE 250 C
AC$MASS_SPECTROMETRY: IONIZATION ESI
AC$MASS_SPECTROMETRY: ION_GUIDE_PEAK_VOLTAGE 1500 V
AC$MASS_SPECTROMETRY: LENS_VOLTAGE -10 V
AC$MASS_SPECTROMETRY: NEEDLE_VOLTAGE -2000 V
AC$MASS_SPECTROMETRY: NEBULIZING_GAS N2
AC$MASS_SPECTROMETRY: ORIFICE_VOLTAGE -150 V
AC$MASS_SPECTROMETRY: ORIFICE_TEMPERATURE 80 C
AC$MASS_SPECTROMETRY: SCANNING 1 sec/scan (m/z=100-1000)
MS$FOCUSED_ION: PRECURSOR_M/Z 407.28
MS$FOCUSED_ION: PRECURSOR_TYPE [M-H]-
PK$SPLASH: splash10-0a4i-3014900010-43c6eaf44527b0ca70df
PK$NUM_PEAK: 21
PK$PEAK: m/z int. rel.int.
  61.68 2916 101
  63.66 2168 75
  68.76 14092 487
  79.72 2135 74
  139.02 2599 90
  205.14 3275 113
  248.96 4383 152
  327.25 3113 108
  341.25 3556 123
  343.27 6159 213
  359.26 6917 239
  361.27 8385 290
  391.28 3392 117
  407.28 28895 999
  408.28 8546 295
  425.23 3738 129
  427.24 6838 236
  429.26 3615 125
  485.28 6040 209
  837.56 6618 229
  838.56 3533 122
//
