ACCESSION: MSBNK-Nihon_Univ-NU000253
RECORD_TITLE: 12alpha-Hydroxy-5alpha-cholan-24-oic acid; LC-ESI-TOF; MS; -90 V
DATE: 2016.01.19 (Created 2013.02.20)
AUTHORS: Takashi Iida, Department of Chemistry, College of Humanities and Sciences, Nihon University
LICENSE: CC BY-NC-SA
COPYRIGHT: Copyright (C) Takashi Iida, Department of Chemistry, College of Humanities and Sciences, Nihon University
COMMENT: [Analytical] Sample of 1 micorL methanol solution was flow injected.
CH$NAME: 12alpha-Hydroxy-5alpha-cholan-24-oic acid
CH$COMPOUND_CLASS: Natural Product; BILE ACID
CH$FORMULA: C24H40O3
CH$EXACT_MASS: 376.29775
CH$SMILES: C(C1(C)4)([H])(C(C)CCC(O)=O)CCC1(C(C3([H])CC4O)([H])CCC(C3(C)2)([H])CCCC2)[H]
CH$IUPAC: InChI=1S/C24H40O3/c1-15(7-12-22(26)27)18-10-11-19-17-9-8-16-6-4-5-13-23(16,2)20(17)14-21(25)24(18,19)3/h15-21,25H,4-14H2,1-3H3,(H,26,27)/t15-,16-,17+,18-,19+,20+,21+,23+,24-/m1/s1
CH$LINK: LIPIDBANK BBA0017
CH$LINK: INCHIKEY OBUOWZOYJNAMCZ-SFDBLMKMSA-N
AC$INSTRUMENT: JMS-T100LP, JEOL Ltd.
AC$INSTRUMENT_TYPE: LC-ESI-TOF
AC$MASS_SPECTROMETRY: MS_TYPE MS
AC$MASS_SPECTROMETRY: ION_MODE NEGATIVE
AC$MASS_SPECTROMETRY: DESOLVATION_TEMPERATURE 250 C
AC$MASS_SPECTROMETRY: IONIZATION ESI
AC$MASS_SPECTROMETRY: ION_GUIDE_PEAK_VOLTAGE 1500 V
AC$MASS_SPECTROMETRY: LENS_VOLTAGE -10 V
AC$MASS_SPECTROMETRY: NEEDLE_VOLTAGE -2000 V
AC$MASS_SPECTROMETRY: NEBULIZING_GAS N2
AC$MASS_SPECTROMETRY: ORIFICE_VOLTAGE -90 V
AC$MASS_SPECTROMETRY: ORIFICE_TEMPERATURE 80 C
AC$MASS_SPECTROMETRY: SCANNING 1 sec/scan (m/z=100-1000)
MS$FOCUSED_ION: PRECURSOR_M/Z 375.29
MS$FOCUSED_ION: PRECURSOR_TYPE [M-H]-
PK$SPLASH: splash10-004i-4019000000-55953571e3ef3cd6f47c
PK$NUM_PEAK: 25
PK$PEAK: m/z int. rel.int.
  59.07 9033 37
  61.04 5306 22
  62.05 59460 244
  69.05 88837 365
  85.03 7386 30
  96.99 2767 11
  113.01 8537 35
  141.02 2223 9
  212.08 4674 19
  227.20 3057 13
  250.14 3401 14
  255.23 18391 75
  256.24 3372 14
  265.15 3127 13
  283.26 24029 99
  284.27 5090 21
  375.29 243382 999
  376.29 67793 278
  377.30 11263 46
  397.27 4127 17
  429.31 3046 13
  457.30 4252 17
  485.29 3852 16
  751.60 2907 12
  773.58 4381 18
//
