ACCESSION: MSBNK-Nihon_Univ-NU000148
RECORD_TITLE: 3beta,7beta-Dihydroxy-5beta-cholan-24-oic acid; LC-ESI-TOF; MS; -90 V
DATE: 2016.01.19 (Created 2013.02.14)
AUTHORS: Takashi Iida, Department of Chemistry, College of Humanities and Sciences, Nihon University
LICENSE: CC BY-NC-SA
COPYRIGHT: Copyright (C) Takashi Iida, Department of Chemistry, College of Humanities and Sciences, Nihon University
COMMENT: [Analytical] Sample of 1 micorL methanol solution was flow injected.
CH$NAME: 3beta,7beta-Dihydroxy-5beta-cholan-24-oic acid
CH$NAME: Isoursodeoxycholic acid
CH$COMPOUND_CLASS: Natural Product; BILE ACID
CH$FORMULA: C24H40O4
CH$EXACT_MASS: 392.29266
CH$SMILES: C(C3(C)4)([H])(CC(O)CC4)CC(C(C3([H])2)(C(C1(C)CC2)([H])CCC1([H])C(C)CCC(O)=O)[H])O
CH$IUPAC: InChI=1S/C24H40O4/c1-14(4-7-21(27)28)17-5-6-18-22-19(9-11-24(17,18)3)23(2)10-8-16(25)12-15(23)13-20(22)26/h14-20,22,25-26H,4-13H2,1-3H3,(H,27,28)/t14-,15+,16+,17-,18+,19+,20+,22+,23+,24-/m1/s1
CH$LINK: CAS 78919-26-3
CH$LINK: KEGG C17662
CH$LINK: LIPIDBANK BBA0035
CH$LINK: INCHIKEY RUDATBOHQWOJDD-DNMBCGTGSA-N
AC$INSTRUMENT: JMS-T100LP, JEOL Ltd.
AC$INSTRUMENT_TYPE: LC-ESI-TOF
AC$MASS_SPECTROMETRY: MS_TYPE MS
AC$MASS_SPECTROMETRY: ION_MODE NEGATIVE
AC$MASS_SPECTROMETRY: DESOLVATION_TEMPERATURE 250 C
AC$MASS_SPECTROMETRY: IONIZATION ESI
AC$MASS_SPECTROMETRY: ION_GUIDE_PEAK_VOLTAGE 1500 V
AC$MASS_SPECTROMETRY: LENS_VOLTAGE -10 V
AC$MASS_SPECTROMETRY: NEEDLE_VOLTAGE -2000 V
AC$MASS_SPECTROMETRY: NEBULIZING_GAS N2
AC$MASS_SPECTROMETRY: ORIFICE_VOLTAGE -90 V
AC$MASS_SPECTROMETRY: ORIFICE_TEMPERATURE 80 C
AC$MASS_SPECTROMETRY: SCANNING 1 sec/scan (m/z=100-1000)
MS$FOCUSED_ION: PRECURSOR_M/Z 391.29
MS$FOCUSED_ION: PRECURSOR_TYPE [M-H]-
PK$SPLASH: splash10-0006-2029100000-3386712e02ee3ea099e1
PK$NUM_PEAK: 28
PK$PEAK: m/z int. rel.int.
  58.95 30206 146
  60.92 2964 14
  61.92 3315 16
  64.91 2582 13
  68.94 24230 117
  79.90 5009 24
  96.91 5009 24
  98.91 2515 12
  112.95 5460 26
  140.97 2486 12
  212.06 6344 31
  226.97 2286 11
  248.96 4922 24
  255.23 5897 29
  283.26 3843 19
  298.94 42863 208
  299.94 2965 14
  391.28 206267 999
  392.29 58159 282
  393.29 9009 44
  409.30 3235 16
  423.31 11569 56
  424.32 3531 17
  473.29 9674 47
  474.29 2718 13
  783.58 6023 29
  784.58 3408 17
  805.56 4359 21
//
