ACCESSION: MSBNK-Nihon_Univ-NU000167
RECORD_TITLE: 3beta,12beta-Dihydroxy-5beta-cholan-24-oic acid; LC-ESI-TOF; MS; -60 V
DATE: 2016.01.19 (Created 2013.01.28)
AUTHORS: Takashi Iida, Department of Chemistry, College of Humanities and Sciences, Nihon University
LICENSE: CC BY-NC-SA
COPYRIGHT: Copyright (C) Takashi Iida, Department of Chemistry, College of Humanities and Sciences, Nihon University
COMMENT: [Analytical] Sample of 1 micorL methanol solution was flow injected.
CH$NAME: 3beta,12beta-Dihydroxy-5beta-cholan-24-oic acid
CH$COMPOUND_CLASS: Natural Product; BILE ACID
CH$FORMULA: C24H40O4
CH$EXACT_MASS: 392.29266
CH$SMILES: C(C1(C)4)([H])(C(C)CCC(=O)O[H])CCC1(C(C3([H])CC4O)([H])CCC(C3(C)2)([H])CC(O)CC2)[H]
CH$IUPAC: InChI=1S/C24H40O4/c1-14(4-9-22(27)28)18-7-8-19-17-6-5-15-12-16(25)10-11-23(15,2)20(17)13-21(26)24(18,19)3/h14-21,25-26H,4-13H2,1-3H3,(H,27,28)/t14-,15-,16+,17+,18-,19+,20+,21-,23+,24-/m1/s1
CH$LINK: LIPIDBANK BBA0043
CH$LINK: INCHIKEY KXGVEGMKQFWNSR-BYGCHKRWSA-N
AC$INSTRUMENT: JMS-T100LP, JEOL Ltd.
AC$INSTRUMENT_TYPE: LC-ESI-TOF
AC$MASS_SPECTROMETRY: MS_TYPE MS
AC$MASS_SPECTROMETRY: ION_MODE NEGATIVE
AC$MASS_SPECTROMETRY: DESOLVATION_TEMPERATURE 250 C
AC$MASS_SPECTROMETRY: IONIZATION ESI
AC$MASS_SPECTROMETRY: ION_GUIDE_PEAK_VOLTAGE 1500 V
AC$MASS_SPECTROMETRY: LENS_VOLTAGE -10 V
AC$MASS_SPECTROMETRY: NEEDLE_VOLTAGE -2000 V
AC$MASS_SPECTROMETRY: NEBULIZING_GAS N2
AC$MASS_SPECTROMETRY: ORIFICE_VOLTAGE -60 V
AC$MASS_SPECTROMETRY: ORIFICE_TEMPERATURE 80 C
AC$MASS_SPECTROMETRY: SCANNING 1 sec/scan (m/z=100-1000)
MS$FOCUSED_ION: PRECURSOR_M/Z 391.28
MS$FOCUSED_ION: PRECURSOR_TYPE [M-H]-
PK$SPLASH: splash10-0a4i-9041000000-56d0af84253656de89aa
PK$NUM_PEAK: 33
PK$PEAK: m/z int. rel.int.
  58.95 665150 999
  59.01 41947 63
  59.17 4055 6
  59.41 5618 8
  59.48 4583 7
  59.95 19807 30
  60.95 5599 8
  61.93 5453 8
  68.94 131679 198
  86.95 5726 9
  96.91 8255 12
  100.96 2670 4
  112.95 26644 40
  140.99 4183 6
  154.95 8095 12
  212.06 22132 33
  213.07 3152 5
  217.00 4176 6
  248.96 5652 8
  255.23 12045 18
  280.95 4566 7
  283.26 10576 16
  298.94 328568 493
  299.26 1349 2
  299.95 22982 35
  300.94 19953 30
  373.27 6634 10
  391.28 83539 125
  392.29 24812 37
  393.29 3678 6
  434.92 6372 10
  473.29 8106 12
  828.15 3471 5
//
