ACCESSION: MSBNK-Nihon_Univ-NU000339
RECORD_TITLE: 3alpha,7beta,12beta-Trihydroxy-5alpha-cholan-24-oic acid; LC-ESI-TOF; MS; -120 V
DATE: 2016.01.19 (Created 2013.02.27)
AUTHORS: Takashi Iida, Department of Chemistry, College of Humanities and Sciences, Nihon University
LICENSE: CC BY-NC-SA
COPYRIGHT: Copyright (C) Takashi Iida, Department of Chemistry, College of Humanities and Sciences, Nihon University
COMMENT: [Analytical] Sample of 1 micorL methanol solution was flow injected.
CH$NAME: 3alpha,7beta,12beta-Trihydroxy-5alpha-cholan-24-oic acid
CH$COMPOUND_CLASS: Natural Product; BILE ACID
CH$FORMULA: C24H40O5
CH$EXACT_MASS: 408.28757
CH$SMILES: C(C3(C)4)([H])(CC(O)CC4)CC(C(C3([H])2)(C(C1(C)C(O)C2)([H])CCC1([H])C(C)CCC(O)=O)[H])O
CH$IUPAC: InChI=1S/C24H40O5/c1-13(4-7-21(28)29)16-5-6-17-22-18(12-20(27)24(16,17)3)23(2)9-8-15(25)10-14(23)11-19(22)26/h13-20,22,25-27H,4-12H2,1-3H3,(H,28,29)/t13-,14-,15-,16-,17+,18+,19+,20-,22+,23+,24-/m1/s1
CH$LINK: LIPIDBANK BBA0097
CH$LINK: INCHIKEY BHQCQFFYRZLCQQ-JWQTVRMOSA-N
AC$INSTRUMENT: JMS-T100LP, JEOL Ltd.
AC$INSTRUMENT_TYPE: LC-ESI-TOF
AC$MASS_SPECTROMETRY: MS_TYPE MS
AC$MASS_SPECTROMETRY: ION_MODE NEGATIVE
AC$MASS_SPECTROMETRY: DESOLVATION_TEMPERATURE 250 C
AC$MASS_SPECTROMETRY: IONIZATION ESI
AC$MASS_SPECTROMETRY: ION_GUIDE_PEAK_VOLTAGE 1500 V
AC$MASS_SPECTROMETRY: LENS_VOLTAGE -10 V
AC$MASS_SPECTROMETRY: NEEDLE_VOLTAGE -2000 V
AC$MASS_SPECTROMETRY: NEBULIZING_GAS N2
AC$MASS_SPECTROMETRY: ORIFICE_VOLTAGE -120 V
AC$MASS_SPECTROMETRY: ORIFICE_TEMPERATURE 80 C
AC$MASS_SPECTROMETRY: SCANNING 1 sec/scan (m/z=100-1000)
MS$FOCUSED_ION: PRECURSOR_M/Z 407.28
MS$FOCUSED_ION: PRECURSOR_TYPE [M-H]-
PK$SPLASH: splash10-0a4i-0001900010-05f69061d615741e1af2
PK$NUM_PEAK: 39
PK$PEAK: m/z int. rel.int.
  61.68 14158 27
  63.66 3316 6
  68.76 14247 27
  96.78 3011 6
  112.85 3002 6
  139.02 5302 10
  205.14 2942 6
  247.17 2455 5
  287.24 2466 5
  291.23 3861 7
  341.25 5121 10
  343.27 23322 44
  344.27 6281 12
  345.28 3244 6
  359.26 17717 34
  360.27 4809 9
  361.28 42707 81
  362.28 12432 24
  363.29 5624 11
  371.26 2640 5
  389.27 8471 16
  391.29 11394 22
  392.29 3329 6
  393.30 9306 18
  395.32 4775 9
  405.27 5662 11
  407.28 528123 999
  408.28 150914 285
  409.29 25077 47
  410.29 2585 5
  427.25 4447 8
  429.26 6532 12
  443.26 2655 5
  815.58 20205 38
  816.58 11037 21
  817.59 3647 7
  837.56 27435 52
  838.56 14683 28
  839.57 5052 10
//
