ACCESSION: MSBNK-Nihon_Univ-NU000356
RECORD_TITLE: 3beta,7beta,12beta-Trihydroxy-5alpha-cholan-24-oic acid; LC-ESI-TOF; MS; -30 V
DATE: 2016.01.19 (Created 2013.02.27)
AUTHORS: Takashi Iida, Department of Chemistry, College of Humanities and Sciences, Nihon University
LICENSE: CC BY-NC-SA
COPYRIGHT: Copyright (C) Takashi Iida, Department of Chemistry, College of Humanities and Sciences, Nihon University
COMMENT: [Analytical] Sample of 1 micorL methanol solution was flow injected.
CH$NAME: 3beta,7beta,12beta-Trihydroxy-5alpha-cholan-24-oic acid
CH$COMPOUND_CLASS: Natural Product; BILE ACID
CH$FORMULA: C24H40O5
CH$EXACT_MASS: 408.28757
CH$SMILES: C(C3(C)4)([H])(CC(O)CC4)CC(C(C3([H])2)(C(C1(C)C(O)C2)([H])CCC1([H])C(C)CCC(O)=O)[H])O
CH$IUPAC: InChI=1S/C24H40O5/c1-13(4-7-21(28)29)16-5-6-17-22-18(12-20(27)24(16,17)3)23(2)9-8-15(25)10-14(23)11-19(22)26/h13-20,22,25-27H,4-12H2,1-3H3,(H,28,29)/t13-,14-,15+,16-,17+,18+,19+,20-,22+,23+,24-/m1/s1
CH$LINK: LIPIDBANK BBA0099
CH$LINK: INCHIKEY BHQCQFFYRZLCQQ-ODBXGGFUSA-N
AC$INSTRUMENT: JMS-T100LP, JEOL Ltd.
AC$INSTRUMENT_TYPE: LC-ESI-TOF
AC$MASS_SPECTROMETRY: MS_TYPE MS
AC$MASS_SPECTROMETRY: ION_MODE NEGATIVE
AC$MASS_SPECTROMETRY: DESOLVATION_TEMPERATURE 250 C
AC$MASS_SPECTROMETRY: IONIZATION ESI
AC$MASS_SPECTROMETRY: ION_GUIDE_PEAK_VOLTAGE 1500 V
AC$MASS_SPECTROMETRY: LENS_VOLTAGE -10 V
AC$MASS_SPECTROMETRY: NEEDLE_VOLTAGE -2000 V
AC$MASS_SPECTROMETRY: NEBULIZING_GAS N2
AC$MASS_SPECTROMETRY: ORIFICE_VOLTAGE -30 V
AC$MASS_SPECTROMETRY: ORIFICE_TEMPERATURE 80 C
AC$MASS_SPECTROMETRY: SCANNING 1 sec/scan (m/z=100-1000)
MS$FOCUSED_ION: PRECURSOR_M/Z 407.28
MS$FOCUSED_ION: PRECURSOR_TYPE [M-H]-
PK$SPLASH: splash10-08fr-6910800010-970a61e4b0ef0229c9ca
PK$NUM_PEAK: 36
PK$PEAK: m/z int. rel.int.
  58.69 26836 65
  61.68 59081 143
  68.72 100478 243
  74.75 122325 295
  75.76 3134 8
  112.85 413633 999
  113.05 1449 3
  113.85 8380 20
  157.06 3662 9
  212.06 9239 22
  226.97 16136 39
  248.96 13559 33
  255.23 9696 23
  283.27 6001 14
  391.28 4724 11
  405.26 3621 9
  407.28 251329 607
  408.28 71412 172
  409.28 11954 29
  417.19 4026 10
  421.15 6957 17
  443.25 10050 24
  444.26 2838 7
  445.25 4719 11
  470.28 2969 7
  499.16 15541 38
  500.16 4478 11
  521.27 15642 38
  522.28 4698 11
  527.19 3854 9
  793.46 9809 24
  794.47 5079 12
  815.57 52108 126
  816.57 28107 68
  817.58 8848 21
  837.56 3206 8
//
