ACCESSION: MSBNK-Nihon_Univ-NU000173
RECORD_TITLE: 7alpha,12alpha-Dihydroxy-5beta-cholan-24-oic acid; LC-ESI-TOF; MS; -90 V
DATE: 2016.01.19 (Created 2013.01.28)
AUTHORS: Takashi Iida, Department of Chemistry, College of Humanities and Sciences, Nihon University
LICENSE: CC BY-NC-SA
COPYRIGHT: Copyright (C) Humanities and Sciences, Nihon University
COMMENT: [Analytical] Sample of 1 micorL methanol solution was flow injected.
CH$NAME: 7alpha,12alpha-Dihydroxy-5beta-cholan-24-oic acid
CH$COMPOUND_CLASS: Natural Product; BILE ACID
CH$FORMULA: C24H40O4
CH$EXACT_MASS: 392.29266
CH$SMILES: C(C1(C)4)([H])(C(C)CCC(O)=O)CCC1(C(C3([H])CC4O)([H])C(O)CC(C3(C)2)([H])CCCC2)[H]
CH$IUPAC: InChI=1S/C24H40O4/c1-14(7-10-21(27)28)16-8-9-17-22-18(13-20(26)24(16,17)3)23(2)11-5-4-6-15(23)12-19(22)25/h14-20,22,25-26H,4-13H2,1-3H3,(H,27,28)/t14-,15+,16-,17+,18+,19-,20+,22+,23+,24-/m1/s1
CH$LINK: CAS 566-17-6
CH$LINK: KEGG C17661
CH$LINK: LIPIDBANK BBA0049
CH$LINK: INCHIKEY ZHCAAZIHTDCFJX-QLEQUTGBSA-N
AC$INSTRUMENT: JMS-T100LP, JEOL Ltd.
AC$INSTRUMENT_TYPE: LC-ESI-TOF
AC$MASS_SPECTROMETRY: MS_TYPE MS
AC$MASS_SPECTROMETRY: ION_MODE NEGATIVE
AC$MASS_SPECTROMETRY: DESOLVATION_TEMPERATURE 250 C
AC$MASS_SPECTROMETRY: IONIZATION ESI
AC$MASS_SPECTROMETRY: ION_GUIDE_PEAK_VOLTAGE 1500 V
AC$MASS_SPECTROMETRY: LENS_VOLTAGE -10 V
AC$MASS_SPECTROMETRY: NEEDLE_VOLTAGE -2000 V
AC$MASS_SPECTROMETRY: NEBULIZING_GAS N2
AC$MASS_SPECTROMETRY: ORIFICE_VOLTAGE -90 V
AC$MASS_SPECTROMETRY: ORIFICE_TEMPERATURE 80 C
AC$MASS_SPECTROMETRY: SCANNING 1 sec/scan (m/z=100-1000)
MS$FOCUSED_ION: PRECURSOR_M/Z 391.28
MS$FOCUSED_ION: PRECURSOR_TYPE [M-H]-
PK$SPLASH: splash10-0006-1019000000-fff3a8889775bfe78c9c
PK$NUM_PEAK: 20
PK$PEAK: m/z int. rel.int.
  58.99 21095 105
  61.96 2611 13
  63.94 2773 14
  64.94 3204 16
  68.97 6987 35
  79.93 5191 26
  86.98 2116 11
  96.94 4752 24
  98.94 2601 13
  140.99 3101 15
  212.07 5395 27
  255.23 4546 23
  298.94 29148 145
  391.28 200251 999
  392.29 55778 278
  393.29 8696 43
  427.29 8276 41
  473.29 5521 28
  783.59 3285 16
  805.57 3177 16
//
