ACCESSION: MSBNK-Athens_Univ-AU251002
RECORD_TITLE: Bifonazol; LC-ESI-QTOF; MS2; CE: 20 eV; R=35000; [M+H]+
DATE: 2019.04.08
AUTHORS: Nikiforos Alygizakis, Katerina Galani, Nikolaos Thomaidis, University of Athens
LICENSE: CC BY
COPYRIGHT: Copyright (C) 2019 Department of Chemistry, University of Athens
COMMENT: CONFIDENCE standard compound
COMMENT: INTERNAL_ID 2510
CH$NAME: Bifonazol
CH$NAME: Bifonazole
CH$NAME: 1-[phenyl-(4-phenylphenyl)methyl]imidazole
CH$COMPOUND_CLASS: N/A; Environmental Standard
CH$FORMULA: C22H18N2
CH$EXACT_MASS: 310.1469986
CH$SMILES: C1=CN(C=N1)C(C1=CC=CC=C1)C1=CC=C(C=C1)C1=CC=CC=C1
CH$IUPAC: InChI=1S/C22H18N2/c1-3-7-18(8-4-1)19-11-13-21(14-12-19)22(24-16-15-23-17-24)20-9-5-2-6-10-20/h1-17,22H
CH$LINK: CAS 60628-96-8
CH$LINK: CHEBI CHEBI:78692
CH$LINK: KEGG D01775
CH$LINK: PUBCHEM CID:2378
CH$LINK: INCHIKEY OCAPBUJLXMYKEJ-UHFFFAOYSA-N
CH$LINK: CHEMSPIDER 2287
CH$LINK: COMPTOX DTXSID9045631
AC$INSTRUMENT: Bruker maXis Impact
AC$INSTRUMENT_TYPE: LC-ESI-QTOF
AC$MASS_SPECTROMETRY: MS_TYPE MS2
AC$MASS_SPECTROMETRY: ION_MODE POSITIVE
AC$MASS_SPECTROMETRY: IONIZATION ESI
AC$MASS_SPECTROMETRY: FRAGMENTATION_MODE CID
AC$MASS_SPECTROMETRY: COLLISION_ENERGY 20 eV
AC$MASS_SPECTROMETRY: RESOLUTION 35000
AC$CHROMATOGRAPHY: COLUMN_NAME Acclaim RSLC C18 2.2um, 2.1x100mm, Thermo
AC$CHROMATOGRAPHY: FLOW_GRADIENT 99/1 at 0-1 min, 61/39 at 3 min, 0.1/99.9 at 14-16 min, 99/1 at 16.1-20 min
AC$CHROMATOGRAPHY: FLOW_RATE 200 uL/min at 0-3 min, 400 uL/min at 14 min, 480 uL/min at 16-19 min, 200 uL/min at 19.1-20 min
AC$CHROMATOGRAPHY: RETENTION_TIME 10.597 min
AC$CHROMATOGRAPHY: SOLVENT A 90:10 water:methanol with 0.01% formic acid and 5mM ammonium formate
AC$CHROMATOGRAPHY: SOLVENT B methanol with 0.01% formic acid and 5mM ammonium formate
MS$FOCUSED_ION: BASE_PEAK 311.1537
MS$FOCUSED_ION: PRECURSOR_M/Z 311.1543
MS$FOCUSED_ION: PRECURSOR_TYPE [M+H]+
MS$DATA_PROCESSING: RECALIBRATE identity on assigned fragments and MS1
MS$DATA_PROCESSING: WHOLE RMassBank 2.10.1
PK$SPLASH: splash10-0006-0090000000-ab281a1f489d2fb34aaf
PK$ANNOTATION: m/z tentative_formula formula_count mass error(ppm)
  165.0683 C13H9+ 1 165.0699 -9.26
  228.0924 C18H12+ 1 228.0934 -4.16
  243.1171 C19H15+ 1 243.1168 0.94
  244.1197 C19H16+ 1 244.1247 -20.37
  245.1229 C17[13]C2H15+ 1 245.1241 -4.67
PK$NUM_PEAK: 5
PK$PEAK: m/z int. rel.int.
  165.0683 31664 12
  228.0924 28616 11
  243.1171 2500492 999
  244.1197 994832 397
  245.1229 63544 25
//
