ACCESSION: MSBNK-Athens_Univ-AU105507
RECORD_TITLE: Tiamulin; LC-ESI-QTOF; MS2; HILIC; CE: 10 eV; R=35000; [M+H]+
DATE: 2016.02.25
AUTHORS: Nikiforos Alygizakis, Nikolaos Thomaidis, University of Athens
LICENSE: CC BY
COPYRIGHT: Copyright (C) 2016 Department of Chemistry, University of Athens
COMMENT: CONFIDENCE standard compound
COMMENT: INTERNAL_ID 1055
CH$NAME: Tiamulin
CH$COMPOUND_CLASS: N/A; Environmental Standard
CH$FORMULA: C28H47NO4S
CH$EXACT_MASS: 493.3225800
CH$SMILES: CCN(CC)CCSCC(=O)O[C@@H]1C[C@@]([C@H]([C@@H]([C@@]23CC[C@H]([C@@]1([C@@H]2C(=O)CC3)C)C)C)O)(C)C=C
CH$IUPAC: InChI=1S/C28H47NO4S/c1-8-26(6)17-22(33-23(31)18-34-16-15-29(9-2)10-3)27(7)19(4)11-13-28(20(5)25(26)32)14-12-21(30)24(27)28/h8,19-20,22,24-25,32H,1,9-18H2,2-7H3/t19-,20+,22-,24+,25+,26-,27+,28+/m1/s1
CH$LINK: CAS 55297-95-5
CH$LINK: CHEBI CHEBI:44137
CH$LINK: KEGG D06127
CH$LINK: PUBCHEM CID:656958
CH$LINK: INCHIKEY UURAUHCOJAIIRQ-QGLSALSOSA-N
CH$LINK: CHEMSPIDER 571196
CH$LINK: COMPTOX DTXSID2046701
AC$INSTRUMENT: Bruker maXis Impact
AC$INSTRUMENT_TYPE: LC-ESI-QTOF
AC$MASS_SPECTROMETRY: MS_TYPE MS2
AC$MASS_SPECTROMETRY: ION_MODE POSITIVE
AC$MASS_SPECTROMETRY: IONIZATION ESI
AC$MASS_SPECTROMETRY: FRAGMENTATION_MODE CID
AC$MASS_SPECTROMETRY: COLLISION_ENERGY 10 eV
AC$MASS_SPECTROMETRY: RESOLUTION 35000
AC$CHROMATOGRAPHY: COLUMN_NAME ACQUITY UPLC BEH Amide 1.7 um 2.1x100mm, Waters
AC$CHROMATOGRAPHY: FLOW_GRADIENT 0/100 at 0-2 min, 95/5 at 12 min, 95/5 at 17 min, 0/100 at 17.1, 0/100 at 25 min
AC$CHROMATOGRAPHY: FLOW_RATE 200 uL/min
AC$CHROMATOGRAPHY: RETENTION_TIME 6.129 min
AC$CHROMATOGRAPHY: SOLVENT A Water with 0.01% formic acid and 1mM ammonium formate
AC$CHROMATOGRAPHY: SOLVENT B Acetonitrile:Water 95:5 with 0.01% formic acid and 1mM ammonium formate
MS$FOCUSED_ION: BASE_PEAK 494.327
MS$FOCUSED_ION: PRECURSOR_M/Z 494.3299
MS$FOCUSED_ION: PRECURSOR_TYPE [M+H]+
MS$DATA_PROCESSING: RECALIBRATE identity on assigned fragments and MS1
MS$DATA_PROCESSING: WHOLE RMassBank 1.99.10
PK$SPLASH: splash10-0006-0000900000-bc1cc55b6002d7d9293e
PK$ANNOTATION: m/z tentative_formula formula_count mass error(ppm)
  192.1044 C8H18NO2S+ 2 192.1053 -4.78
  193.1072 C7[13]CH18NO2S+ 1 193.1092 -10.15
  494.323 C28H48NO4S+ 1 494.3299 -13.79
  494.3409 C28H48NO4S+ 1 494.3299 22.37
PK$NUM_PEAK: 4
PK$PEAK: m/z int. rel.int.
  192.1044 454464 180
  193.1072 31096 12
  494.323 2510220 997
  494.3409 2512752 999
//
