ACCESSION: MSBNK-Athens_Univ-AU274603
RECORD_TITLE: Ondansetron; LC-ESI-QTOF; MS2; CE: 30 eV; R=35000; [M+H]+
DATE: 2019.05.30
AUTHORS: Nikiforos Alygizakis, Katerina Galani, Nikolaos Thomaidis, University of Athens
LICENSE: CC BY
COPYRIGHT: Copyright (C) 2019 Department of Chemistry, University of Athens
COMMENT: CONFIDENCE standard compound
COMMENT: INTERNAL_ID 2746
CH$NAME: Ondansetron
CH$NAME: 9-methyl-3-[(2-methylimidazol-1-yl)methyl]-2,3-dihydro-1H-carbazol-4-one
CH$COMPOUND_CLASS: N/A; Environmental Standard
CH$FORMULA: C18H19N3O
CH$EXACT_MASS: 293.1528122
CH$SMILES: CN1C2=C(C3=CC=CC=C13)C(=O)C(CN1C=CN=C1C)CC2
CH$IUPAC: InChI=1S/C18H19N3O/c1-12-19-9-10-21(12)11-13-7-8-16-17(18(13)22)14-5-3-4-6-15(14)20(16)2/h3-6,9-10,13H,7-8,11H2,1-2H3
CH$LINK: CAS 99614-02-5
CH$LINK: CHEBI CHEBI:7773
CH$LINK: KEGG C07325
CH$LINK: PUBCHEM CID:4595
CH$LINK: INCHIKEY FELGMEQIXOGIFQ-UHFFFAOYSA-N
CH$LINK: CHEMSPIDER 4434
CH$LINK: COMPTOX DTXSID8023393
AC$INSTRUMENT: Bruker maXis Impact
AC$INSTRUMENT_TYPE: LC-ESI-QTOF
AC$MASS_SPECTROMETRY: MS_TYPE MS2
AC$MASS_SPECTROMETRY: ION_MODE POSITIVE
AC$MASS_SPECTROMETRY: IONIZATION ESI
AC$MASS_SPECTROMETRY: FRAGMENTATION_MODE CID
AC$MASS_SPECTROMETRY: COLLISION_ENERGY 30 eV
AC$MASS_SPECTROMETRY: RESOLUTION 35000
AC$CHROMATOGRAPHY: COLUMN_NAME Acclaim RSLC C18 2.2um, 2.1x100mm, Thermo
AC$CHROMATOGRAPHY: FLOW_GRADIENT 99/1 at 0-1 min, 61/39 at 3 min, 0.1/99.9 at 14-16 min, 99/1 at 16.1-20 min
AC$CHROMATOGRAPHY: FLOW_RATE 200 uL/min at 0-3 min, 400 uL/min at 14 min, 480 uL/min at 16-19 min, 200 uL/min at 19.1-20 min
AC$CHROMATOGRAPHY: RETENTION_TIME 4.923 min
AC$CHROMATOGRAPHY: SOLVENT A 90:10 water:methanol with 0.01% formic acid and 5mM ammonium formate
AC$CHROMATOGRAPHY: SOLVENT B methanol with 0.01% formic acid and 5mM ammonium formate
MS$FOCUSED_ION: BASE_PEAK 294.1602
MS$FOCUSED_ION: PRECURSOR_M/Z 294.1601
MS$FOCUSED_ION: PRECURSOR_TYPE [M+H]+
MS$DATA_PROCESSING: RECALIBRATE identity on assigned fragments and MS1
MS$DATA_PROCESSING: WHOLE RMassBank 2.10.1
PK$SPLASH: splash10-00e9-0910000000-c1a8af069e927fde28cc
PK$ANNOTATION: m/z tentative_formula formula_count mass error(ppm)
  143.0717 C10H9N+ 1 143.073 -9.06
  167.0712 C12H9N+ 1 167.073 -10.3
  168.079 C12H10N+ 1 168.0808 -10.56
  169.0871 C12H11N+ 1 169.0886 -8.69
  170.0954 C12H12N+ 1 170.0964 -6.12
  171.0665 C11H9NO+ 1 171.0679 -7.89
  171.0986 C11[13]CH12N+ 1 171.1003 -10.14
  182.095 C13H12N+ 1 182.0964 -7.91
  183.0997 C12[13]CH12N+ 1 183.1003 -3.24
  184.111 C13H14N+ 1 184.1121 -5.68
  185.1143 C12[13]CH14N+ 1 185.116 -9.32
  212.1061 C14H14NO+ 1 212.107 -4.29
  213.1091 C13[13]CH14NO+ 1 213.1109 -8.2
  294.1592 C18H20N3O+ 1 294.1601 -3.05
  295.1625 C17[13]CH20N3O+ 1 295.164 -4.92
PK$NUM_PEAK: 15
PK$PEAK: m/z int. rel.int.
  143.0717 15196 7
  167.0712 25300 12
  168.079 29028 13
  169.0871 66028 31
  170.0954 2074992 999
  171.0665 30280 14
  171.0986 262128 126
  182.095 78664 37
  183.0997 12596 6
  184.111 1484412 714
  185.1143 190432 91
  212.1061 407908 196
  213.1091 58000 27
  294.1592 220032 105
  295.1625 48668 23
//
