ACCESSION: MSBNK-Athens_Univ-AU302104
RECORD_TITLE: Cyromazine; LC-ESI-QTOF; MS2; CE: 40 eV; R=35000; [M+H]+
DATE: 2016.02.22
AUTHORS: Nikiforos Alygizakis, Reza Aalizadeh, Nikolaos Thomaidis, University of Athens
LICENSE: CC BY
COPYRIGHT: Copyright (C) 2016 Department of Chemistry, University of Athens
COMMENT: CONFIDENCE standard compound
COMMENT: INTERNAL_ID 3021
CH$NAME: Cyromazine
CH$NAME: 2-N-cyclopropyl-1,3,5-triazine-2,4,6-triamine
CH$COMPOUND_CLASS: N/A; Environmental Standard
CH$FORMULA: C6H10N6
CH$EXACT_MASS: 166.0966943
CH$SMILES: C1CC1Nc2nc(nc(n2)N)N
CH$IUPAC: InChI=1S/C6H10N6/c7-4-10-5(8)12-6(11-4)9-3-1-2-3/h3H,1-2H2,(H5,7,8,9,10,11,12)
CH$LINK: CAS 66215-27-8
CH$LINK: CHEBI CHEBI:30260
CH$LINK: KEGG C14147
CH$LINK: PUBCHEM CID:47866
CH$LINK: INCHIKEY LVQDKIWDGQRHTE-UHFFFAOYSA-N
CH$LINK: CHEMSPIDER 43550
CH$LINK: COMPTOX DTXSID6023999
AC$INSTRUMENT: Bruker maXis Impact
AC$INSTRUMENT_TYPE: LC-ESI-QTOF
AC$MASS_SPECTROMETRY: MS_TYPE MS2
AC$MASS_SPECTROMETRY: ION_MODE POSITIVE
AC$MASS_SPECTROMETRY: IONIZATION ESI
AC$MASS_SPECTROMETRY: FRAGMENTATION_MODE CID
AC$MASS_SPECTROMETRY: COLLISION_ENERGY 40 eV
AC$MASS_SPECTROMETRY: RESOLUTION 35000
AC$CHROMATOGRAPHY: COLUMN_NAME Acclaim RSLC C18 2.2um, 2.1x100mm, Thermo
AC$CHROMATOGRAPHY: FLOW_GRADIENT 99/1 at 0-1 min, 61/39 at 3 min, 0.1/99.9 at 14-16 min, 99/1 at 16.1-20 min
AC$CHROMATOGRAPHY: FLOW_RATE 200 uL/min at 0-3 min, 400 uL/min at 14 min, 480 uL/min at 16-19 min, 200 uL/min at 19.1-20 min
AC$CHROMATOGRAPHY: RETENTION_TIME 2.830 min
AC$CHROMATOGRAPHY: SOLVENT A 90:10 water:methanol with 0.01% formic acid and 5mM ammonium formate
AC$CHROMATOGRAPHY: SOLVENT B methanol with 0.01% formic acid and 5mM ammonium formate
MS$FOCUSED_ION: BASE_PEAK 167.1048
MS$FOCUSED_ION: PRECURSOR_M/Z 167.104
MS$FOCUSED_ION: PRECURSOR_TYPE [M+H]+
MS$DATA_PROCESSING: RECALIBRATE identity on assigned fragments and MS1
MS$DATA_PROCESSING: WHOLE RMassBank 1.99.10
PK$SPLASH: splash10-0ufr-0900000000-469f7c2021bae1b980cd
PK$ANNOTATION: m/z tentative_formula formula_count mass error(ppm)
  125.0827 C5H9N4+ 1 125.0822 4.24
  126.0658 C3H6N6+ 1 126.0648 7.18
  127.0724 C3H7N6+ 1 127.0727 -2.44
  134.0449 C5H4N5+ 1 134.0461 -9
  139.074 C4H7N6+ 1 139.0727 9.2
  151.0727 C5H7N6+ 1 151.0727 -0.06
  152.0775 C5H8N6+ 1 152.0805 -19.93
  167.1045 C6H11N6+ 1 167.104 3.11
PK$NUM_PEAK: 8
PK$PEAK: m/z int. rel.int.
  125.0827 1660 562
  126.0658 412 139
  127.0724 980 332
  134.0449 420 142
  139.074 864 292
  151.0727 2948 999
  152.0775 384 130
  167.1045 520 176
//
