ACCESSION: MSBNK-Athens_Univ-AU231357
RECORD_TITLE: Bentazone; LC-ESI-QTOF; MS2; CE: 10 eV; R=35000; [M-H]-
DATE: 2019.03.28
AUTHORS: Nikiforos Alygizakis, Katerina Galani, Nikolaos Thomaidis, University of Athens
LICENSE: CC BY
COPYRIGHT: Copyright (C) 2019 Department of Chemistry, University of Athens
COMMENT: CONFIDENCE standard compound
COMMENT: INTERNAL_ID 2313
CH$NAME: Bentazone
CH$NAME: Bentazon
CH$NAME: 2,2-dioxo-3-propan-2-yl-1H-2$l^{6},1,3-benzothiadiazin-4-one
CH$COMPOUND_CLASS: N/A; Environmental Standard
CH$FORMULA: C10H12N2O3S
CH$EXACT_MASS: 240.0568632
CH$SMILES: CC(C)N1C(=O)C2=CC=CC=C2NS1(=O)=O
CH$IUPAC: InChI=1S/C10H12N2O3S/c1-7(2)12-10(13)8-5-3-4-6-9(8)11-16(12,14)15/h3-7,11H,1-2H3
CH$LINK: CAS 605-43-6
CH$LINK: CHEBI CHEBI:3018
CH$LINK: KEGG C10965
CH$LINK: PUBCHEM CID:2328
CH$LINK: INCHIKEY ZOMSMJKLGFBRBS-UHFFFAOYSA-N
CH$LINK: CHEMSPIDER 2238
CH$LINK: COMPTOX DTXSID0023901
AC$INSTRUMENT: Bruker maXis Impact
AC$INSTRUMENT_TYPE: LC-ESI-QTOF
AC$MASS_SPECTROMETRY: MS_TYPE MS2
AC$MASS_SPECTROMETRY: ION_MODE NEGATIVE
AC$MASS_SPECTROMETRY: IONIZATION ESI
AC$MASS_SPECTROMETRY: FRAGMENTATION_MODE CID
AC$MASS_SPECTROMETRY: COLLISION_ENERGY 10 eV
AC$MASS_SPECTROMETRY: RESOLUTION 35000
AC$CHROMATOGRAPHY: COLUMN_NAME Acclaim RSLC C18 2.2um, 2.1x100mm, Thermo
AC$CHROMATOGRAPHY: FLOW_GRADIENT 99/1 at 0-1 min, 61/39 at 3 min, 0.1/99.9 at 14-16 min, 99/1 at 16.1-20 min
AC$CHROMATOGRAPHY: FLOW_RATE 200 uL/min at 0-3 min, 400 uL/min at 14 min, 480 uL/min at 16-19 min, 200 uL/min at 19.1-20 min
AC$CHROMATOGRAPHY: RETENTION_TIME 4.466 min
AC$CHROMATOGRAPHY: SOLVENT A 90:10 water:methanol with 5mM ammonium acetate
AC$CHROMATOGRAPHY: SOLVENT B methanol with 5mM ammonium acetate
MS$FOCUSED_ION: BASE_PEAK 239.0492
MS$FOCUSED_ION: PRECURSOR_M/Z 239.0496
MS$FOCUSED_ION: PRECURSOR_TYPE [M-H]-
MS$DATA_PROCESSING: RECALIBRATE identity on assigned fragments and MS1
MS$DATA_PROCESSING: WHOLE RMassBank 2.10.0
PK$SPLASH: splash10-000i-0090000000-759db61a662f6008962d
PK$ANNOTATION: m/z tentative_formula formula_count mass error(ppm)
  132.0323 C7H4N2O- 1 132.0329 -4.56
  133.0401 C7H5N2O- 1 133.0407 -4.93
  175.0868 C10H11N2O- 1 175.0877 -4.83
  197.0016 C7H5N2O3S- 2 197.0026 -5.03
  239.0498 C10H11N2O3S- 1 239.0496 0.93
  240.0518 C9[13]CH11N2O3S- 1 240.0524 -2.57
  241.046 C10H11N2O3[34]S- 1 241.0448 5.01
PK$NUM_PEAK: 7
PK$PEAK: m/z int. rel.int.
  132.0323 3692 21
  133.0401 1684 9
  175.0868 8496 48
  197.0016 7488 42
  239.0498 175020 999
  240.0518 23148 132
  241.046 7060 40
//
