ACCESSION: MSBNK-Athens_Univ-AU230258
RECORD_TITLE: 2,4-Dinitrophenol; LC-ESI-QTOF; MS2; CE: 20 eV; R=35000; [M-H]-
DATE: 2019.03.28
AUTHORS: Nikiforos Alygizakis, Katerina Galani, Nikolaos Thomaidis, University of Athens
LICENSE: CC BY
COPYRIGHT: Copyright (C) 2019 Department of Chemistry, University of Athens
COMMENT: CONFIDENCE standard compound
COMMENT: INTERNAL_ID 2302
CH$NAME: 2,4-Dinitrophenol
CH$COMPOUND_CLASS: N/A; Environmental Standard
CH$FORMULA: C6H4N2O5
CH$EXACT_MASS: 184.0120212
CH$SMILES: OC1=C(C=C(C=C1)[N+]([O-])=O)[N+]([O-])=O
CH$IUPAC: InChI=1S/C6H4N2O5/c9-6-2-1-4(7(10)11)3-5(6)8(12)13/h1-3,9H
CH$LINK: CAS 51-28-5
CH$LINK: CHEBI CHEBI:42017
CH$LINK: KEGG C02496
CH$LINK: PUBCHEM CID:1493
CH$LINK: INCHIKEY UFBJCMHMOXMLKC-UHFFFAOYSA-N
CH$LINK: CHEMSPIDER 1448
CH$LINK: COMPTOX DTXSID0020523
AC$INSTRUMENT: Bruker maXis Impact
AC$INSTRUMENT_TYPE: LC-ESI-QTOF
AC$MASS_SPECTROMETRY: MS_TYPE MS2
AC$MASS_SPECTROMETRY: ION_MODE NEGATIVE
AC$MASS_SPECTROMETRY: IONIZATION ESI
AC$MASS_SPECTROMETRY: FRAGMENTATION_MODE CID
AC$MASS_SPECTROMETRY: COLLISION_ENERGY 20 eV
AC$MASS_SPECTROMETRY: RESOLUTION 35000
AC$CHROMATOGRAPHY: COLUMN_NAME Acclaim RSLC C18 2.2um, 2.1x100mm, Thermo
AC$CHROMATOGRAPHY: FLOW_GRADIENT 99/1 at 0-1 min, 61/39 at 3 min, 0.1/99.9 at 14-16 min, 99/1 at 16.1-20 min
AC$CHROMATOGRAPHY: FLOW_RATE 200 uL/min at 0-3 min, 400 uL/min at 14 min, 480 uL/min at 16-19 min, 200 uL/min at 19.1-20 min
AC$CHROMATOGRAPHY: RETENTION_TIME 4.418 min
AC$CHROMATOGRAPHY: SOLVENT A 90:10 water:methanol with 5mM ammonium acetate
AC$CHROMATOGRAPHY: SOLVENT B methanol with 5mM ammonium acetate
MS$FOCUSED_ION: BASE_PEAK 183.0062
MS$FOCUSED_ION: PRECURSOR_M/Z 183.0047
MS$FOCUSED_ION: PRECURSOR_TYPE [M-H]-
MS$DATA_PROCESSING: RECALIBRATE identity on assigned fragments and MS1
MS$DATA_PROCESSING: WHOLE RMassBank 2.10.0
PK$SPLASH: splash10-001i-0900000000-375c8b23676295f4a72e
PK$ANNOTATION: m/z tentative_formula formula_count mass error(ppm)
  109.0161 C5H3NO2- 1 109.0169 -7.61
  123.0096 C6H3O3- 1 123.0088 6.61
  124.0128 C5[13]CH3O3- 1 124.0116 9.64
  137.0121 C6H3NO3- 1 137.0118 1.61
  153.0084 C6H3NO4- 1 153.0068 10.6
  183.0064 C6H3N2O5- 1 183.0047 9.12
  184.0094 C5[13]CH3N2O5- 1 184.0076 10.16
PK$NUM_PEAK: 7
PK$PEAK: m/z int. rel.int.
  109.0161 328 30
  123.0096 4280 394
  124.0128 308 28
  137.0121 2408 221
  153.0084 5132 472
  183.0064 10840 999
  184.0094 964 88
//
