ACCESSION: MSBNK-Athens_Univ-AU210230
RECORD_TITLE: Fluvastatin; LC-ESI-QTOF; MS2; CE: 10 eV; R=35000; [M+Na]+
DATE: 2016.02.28
AUTHORS: Nikiforos Alygizakis, Nikolaos Thomaidis, University of Athens
LICENSE: CC BY
COPYRIGHT: Copyright (C) 2016 Department of Chemistry, University of Athens
COMMENT: CONFIDENCE standard compound
COMMENT: INTERNAL_ID 2102
CH$NAME: Fluvastatin
CH$NAME: (E,3R,5S)-7-[3-(4-fluorophenyl)-1-propan-2-ylindol-2-yl]-3,5-dihydroxyhept-6-enoic acid
CH$COMPOUND_CLASS: N/A; Environmental Standard
CH$FORMULA: C24H26FNO4
CH$EXACT_MASS: 411.1845865
CH$SMILES: CC(C)n1c2ccccc2c(c1/C=C/[C@H](C[C@H](CC(=O)O)O)O)c3ccc(cc3)F
CH$IUPAC: InChI=1S/C24H26FNO4/c1-15(2)26-21-6-4-3-5-20(21)24(16-7-9-17(25)10-8-16)22(26)12-11-18(27)13-19(28)14-23(29)30/h3-12,15,18-19,27-28H,13-14H2,1-2H3,(H,29,30)/b12-11+/t18-,19-/m1/s1
CH$LINK: CAS 93957-54-1
CH$LINK: CHEBI CHEBI:38565
CH$LINK: PUBCHEM CID:446155
CH$LINK: INCHIKEY FJLGEFLZQAZZCD-MCBHFWOFSA-N
CH$LINK: CHEMSPIDER 393587
CH$LINK: COMPTOX DTXSID2020636
AC$INSTRUMENT: Bruker maXis Impact
AC$INSTRUMENT_TYPE: LC-ESI-QTOF
AC$MASS_SPECTROMETRY: MS_TYPE MS2
AC$MASS_SPECTROMETRY: ION_MODE POSITIVE
AC$MASS_SPECTROMETRY: IONIZATION ESI
AC$MASS_SPECTROMETRY: FRAGMENTATION_MODE CID
AC$MASS_SPECTROMETRY: COLLISION_ENERGY 10 eV
AC$MASS_SPECTROMETRY: RESOLUTION 35000
AC$CHROMATOGRAPHY: COLUMN_NAME Acclaim RSLC C18 2.2um, 2.1x100mm, Thermo
AC$CHROMATOGRAPHY: FLOW_GRADIENT 99/1 at 0-1 min, 61/39 at 3 min, 0.1/99.9 at 14-16 min, 99/1 at 16.1-20 min
AC$CHROMATOGRAPHY: FLOW_RATE 200 uL/min at 0-3 min, 400 uL/min at 14 min, 480 uL/min at 16-19 min, 200 uL/min at 19.1-20 min
AC$CHROMATOGRAPHY: RETENTION_TIME 10.873 min
AC$CHROMATOGRAPHY: SOLVENT A 90:10 water:methanol with 0.01% formic acid and 5mM ammonium formate
AC$CHROMATOGRAPHY: SOLVENT B methanol with 0.01% formic acid and 5mM ammonium formate
MS$FOCUSED_ION: BASE_PEAK 150.113
MS$FOCUSED_ION: PRECURSOR_M/Z 434.1738
MS$FOCUSED_ION: PRECURSOR_TYPE [M+Na]+
MS$DATA_PROCESSING: RECALIBRATE identity on assigned fragments and MS1
MS$DATA_PROCESSING: WHOLE RMassBank 1.99.10
PK$SPLASH: splash10-001i-0002900000-74e65f153c3619c515aa
PK$ANNOTATION: m/z tentative_formula formula_count mass error(ppm)
  354.1643 C23H22FNNa+ 6 354.1628 4.21
  416.1699 C24H24FNNaO3+ 1 416.1632 16.03
  434.1777 C24H26FNNaO4+ 1 434.1738 9.04
PK$NUM_PEAK: 3
PK$PEAK: m/z int. rel.int.
  354.1643 776 388
  416.1699 588 294
  434.1777 1996 999
//
