ACCESSION: MSBNK-Athens_Univ-AU233403
RECORD_TITLE: Flufenoxuron; LC-ESI-QTOF; MS2; CE: 30 eV; R=35000; [M+H]+
DATE: 2019.05.30
AUTHORS: Nikiforos Alygizakis, Katerina Galani, Nikolaos Thomaidis, University of Athens
LICENSE: CC BY
COPYRIGHT: Copyright (C) 2019 Department of Chemistry, University of Athens
COMMENT: CONFIDENCE standard compound
COMMENT: INTERNAL_ID 2334
CH$NAME: Flufenoxuron
CH$NAME: N-[[4-[2-chloro-4-(trifluoromethyl)phenoxy]-2-fluorophenyl]carbamoyl]-2,6-difluorobenzamide
CH$COMPOUND_CLASS: N/A; Environmental Standard
CH$FORMULA: C21H11ClF6N2O3
CH$EXACT_MASS: 488.0362392
CH$SMILES: FC1=CC(OC2=CC=C(C=C2Cl)C(F)(F)F)=CC=C1NC(=O)NC(=O)C1=C(F)C=CC=C1F
CH$IUPAC: InChI=1S/C21H11ClF6N2O3/c22-12-8-10(21(26,27)28)4-7-17(12)33-11-5-6-16(15(25)9-11)29-20(32)30-19(31)18-13(23)2-1-3-14(18)24/h1-9H,(H2,29,30,31,32)
CH$LINK: CAS 101463-69-8
CH$LINK: CHEBI CHEBI:39382
CH$LINK: KEGG C18430
CH$LINK: PUBCHEM CID:91766
CH$LINK: INCHIKEY RYLHNOVXKPXDIP-UHFFFAOYSA-N
CH$LINK: CHEMSPIDER 82863
CH$LINK: COMPTOX DTXSID1041978
AC$INSTRUMENT: Bruker maXis Impact
AC$INSTRUMENT_TYPE: LC-ESI-QTOF
AC$MASS_SPECTROMETRY: MS_TYPE MS2
AC$MASS_SPECTROMETRY: ION_MODE POSITIVE
AC$MASS_SPECTROMETRY: IONIZATION ESI
AC$MASS_SPECTROMETRY: FRAGMENTATION_MODE CID
AC$MASS_SPECTROMETRY: COLLISION_ENERGY 30 eV
AC$MASS_SPECTROMETRY: RESOLUTION 35000
AC$CHROMATOGRAPHY: COLUMN_NAME Acclaim RSLC C18 2.2um, 2.1x100mm, Thermo
AC$CHROMATOGRAPHY: FLOW_GRADIENT 99/1 at 0-1 min, 61/39 at 3 min, 0.1/99.9 at 14-16 min, 99/1 at 16.1-20 min
AC$CHROMATOGRAPHY: FLOW_RATE 200 uL/min at 0-3 min, 400 uL/min at 14 min, 480 uL/min at 16-19 min, 200 uL/min at 19.1-20 min
AC$CHROMATOGRAPHY: RETENTION_TIME 12.824 min
AC$CHROMATOGRAPHY: SOLVENT A 90:10 water:methanol with 0.01% formic acid and 5mM ammonium formate
AC$CHROMATOGRAPHY: SOLVENT B methanol with 0.01% formic acid and 5mM ammonium formate
MS$FOCUSED_ION: BASE_PEAK 322.1436
MS$FOCUSED_ION: PRECURSOR_M/Z 489.0435
MS$FOCUSED_ION: PRECURSOR_TYPE [M+H]+
MS$DATA_PROCESSING: RECALIBRATE identity on assigned fragments and MS1
MS$DATA_PROCESSING: WHOLE RMassBank 2.10.1
PK$SPLASH: splash10-0a4i-0900000000-27a0bde7502a6aa2137b
PK$ANNOTATION: m/z tentative_formula formula_count mass error(ppm)
  133.0847 C4H12F3O+ 2 133.0835 9.44
  140.0304 C7H4F2N+ 7 140.0306 -1.65
  141.0136 C10H2F+ 11 141.0135 0.41
  142.0163 C9[13]CH2F+ 1 142.0174 -7.47
  158.0399 C10H5FN+ 13 158.0401 -1.15
  159.0437 C9[13]CH5FN+ 1 159.044 -1.83
  165.0903 C8H12F3+ 1 165.0886 10.73
  306.0304 C13H9ClF4NO+ 26 306.0303 0.32
  308.0259 C13H8ClF5N+ 25 308.026 -0.4
PK$NUM_PEAK: 9
PK$PEAK: m/z int. rel.int.
  133.0847 428 14
  140.0304 316 10
  141.0136 8404 288
  142.0163 932 31
  158.0399 29144 999
  159.0437 2260 77
  165.0903 312 10
  306.0304 780 26
  308.0259 344 11
//
