ACCESSION: MSBNK-Athens_Univ-AU230757
RECORD_TITLE: Secobarbital; LC-ESI-QTOF; MS2; CE: 10 eV; R=35000; [M-H]-
DATE: 2019.03.28
AUTHORS: Nikiforos Alygizakis, Katerina Galani, Nikolaos Thomaidis, University of Athens
LICENSE: CC BY
COPYRIGHT: Copyright (C) 2019 Department of Chemistry, University of Athens
COMMENT: CONFIDENCE standard compound
COMMENT: INTERNAL_ID 2307
CH$NAME: Secobarbital
CH$NAME: 5-pentan-2-yl-5-prop-2-enyl-1,3-diazinane-2,4,6-trione
CH$COMPOUND_CLASS: N/A; Environmental Standard
CH$FORMULA: C12H18N2O3
CH$EXACT_MASS: 238.1317424
CH$SMILES: CCCC(C)C1(CC=C)C(=O)NC(=O)NC1=O
CH$IUPAC: InChI=1S/C12H18N2O3/c1-4-6-8(3)12(7-5-2)9(15)13-11(17)14-10(12)16/h5,8H,2,4,6-7H2,1,3H3,(H2,13,14,15,16,17)
CH$LINK: CAS 76-73-3
CH$LINK: CHEBI CHEBI:9073
CH$LINK: KEGG D00430
CH$LINK: PUBCHEM CID:5193
CH$LINK: INCHIKEY KQPKPCNLIDLUMF-UHFFFAOYSA-N
CH$LINK: CHEMSPIDER 5005
CH$LINK: COMPTOX DTXSID6044145
AC$INSTRUMENT: Bruker maXis Impact
AC$INSTRUMENT_TYPE: LC-ESI-QTOF
AC$MASS_SPECTROMETRY: MS_TYPE MS2
AC$MASS_SPECTROMETRY: ION_MODE NEGATIVE
AC$MASS_SPECTROMETRY: IONIZATION ESI
AC$MASS_SPECTROMETRY: FRAGMENTATION_MODE CID
AC$MASS_SPECTROMETRY: COLLISION_ENERGY 10 eV
AC$MASS_SPECTROMETRY: RESOLUTION 35000
AC$CHROMATOGRAPHY: COLUMN_NAME Acclaim RSLC C18 2.2um, 2.1x100mm, Thermo
AC$CHROMATOGRAPHY: FLOW_GRADIENT 99/1 at 0-1 min, 61/39 at 3 min, 0.1/99.9 at 14-16 min, 99/1 at 16.1-20 min
AC$CHROMATOGRAPHY: FLOW_RATE 200 uL/min at 0-3 min, 400 uL/min at 14 min, 480 uL/min at 16-19 min, 200 uL/min at 19.1-20 min
AC$CHROMATOGRAPHY: RETENTION_TIME 8.184 min
AC$CHROMATOGRAPHY: SOLVENT A 90:10 water:methanol with 5mM ammonium acetate
AC$CHROMATOGRAPHY: SOLVENT B methanol with 5mM ammonium acetate
MS$FOCUSED_ION: BASE_PEAK 237.1237
MS$FOCUSED_ION: PRECURSOR_M/Z 237.1245
MS$FOCUSED_ION: PRECURSOR_TYPE [M-H]-
MS$DATA_PROCESSING: RECALIBRATE identity on assigned fragments and MS1
MS$DATA_PROCESSING: WHOLE RMassBank 2.10.0
PK$SPLASH: splash10-000i-0290000000-d86de671e312eea0a25a
PK$ANNOTATION: m/z tentative_formula formula_count mass error(ppm)
  194.1206 C11H16NO2- 1 194.1187 10.06
  237.1235 C12H17N2O3- 1 237.1245 -3.88
PK$NUM_PEAK: 2
PK$PEAK: m/z int. rel.int.
  194.1206 544 231
  237.1235 2348 999
//
