ACCESSION: MSBNK-Athens_Univ-AU244302
RECORD_TITLE: 2-Amino-9H-pyrido[2,3-b]indole (AalphaC); LC-ESI-QTOF; MS2; CE: 20 eV; R=35000; [M+H]+
DATE: 2019.04.05
AUTHORS: Nikiforos Alygizakis, Katerina Galani, Nikolaos Thomaidis, University of Athens
LICENSE: CC BY
COPYRIGHT: Copyright (C) 2019 Department of Chemistry, University of Athens
COMMENT: CONFIDENCE standard compound
COMMENT: INTERNAL_ID 2443
CH$NAME: 2-Amino-9H-pyrido[2,3-b]indole (AalphaC)
CH$NAME: 2-Amino-9H-pyrido[2,3-b]indole
CH$NAME: 9H-pyrido[2,3-b]indol-2-amine
CH$COMPOUND_CLASS: N/A; Environmental Standard
CH$FORMULA: C11H9N3
CH$EXACT_MASS: 183.0796473
CH$SMILES: NC1=NC2=C(C=C1)C1=CC=CC=C1N2
CH$IUPAC: InChI=1S/C11H9N3/c12-10-6-5-8-7-3-1-2-4-9(7)13-11(8)14-10/h1-6H,(H3,12,13,14)
CH$LINK: CAS 26148-68-5
CH$LINK: CHEBI CHEBI:82284
CH$LINK: PUBCHEM CID:62805
CH$LINK: INCHIKEY FJTNLJLPLJDTRM-UHFFFAOYSA-N
CH$LINK: CHEMSPIDER 56541
CH$LINK: COMPTOX DTXSID7020001
AC$INSTRUMENT: Bruker maXis Impact
AC$INSTRUMENT_TYPE: LC-ESI-QTOF
AC$MASS_SPECTROMETRY: MS_TYPE MS2
AC$MASS_SPECTROMETRY: ION_MODE POSITIVE
AC$MASS_SPECTROMETRY: IONIZATION ESI
AC$MASS_SPECTROMETRY: FRAGMENTATION_MODE CID
AC$MASS_SPECTROMETRY: COLLISION_ENERGY 20 eV
AC$MASS_SPECTROMETRY: RESOLUTION 35000
AC$CHROMATOGRAPHY: COLUMN_NAME Acclaim RSLC C18 2.2um, 2.1x100mm, Thermo
AC$CHROMATOGRAPHY: FLOW_GRADIENT 99/1 at 0-1 min, 61/39 at 3 min, 0.1/99.9 at 14-16 min, 99/1 at 16.1-20 min
AC$CHROMATOGRAPHY: FLOW_RATE 200 uL/min at 0-3 min, 400 uL/min at 14 min, 480 uL/min at 16-19 min, 200 uL/min at 19.1-20 min
AC$CHROMATOGRAPHY: RETENTION_TIME 7.061 min
AC$CHROMATOGRAPHY: SOLVENT A 90:10 water:methanol with 0.01% formic acid and 5mM ammonium formate
AC$CHROMATOGRAPHY: SOLVENT B methanol with 0.01% formic acid and 5mM ammonium formate
MS$FOCUSED_ION: BASE_PEAK 184.0859
MS$FOCUSED_ION: PRECURSOR_M/Z 184.0869
MS$FOCUSED_ION: PRECURSOR_TYPE [M+H]+
MS$DATA_PROCESSING: RECALIBRATE identity on assigned fragments and MS1
MS$DATA_PROCESSING: WHOLE RMassBank 2.10.1
PK$SPLASH: splash10-001i-0900000000-c03e92da7c9f44f25a05
PK$ANNOTATION: m/z tentative_formula formula_count mass error(ppm)
  140.0482 C10H6N+ 1 140.0495 -8.76
  157.0742 C10H9N2+ 1 157.076 -11.3
  167.0591 C11H7N2+ 1 167.0604 -7.85
  168.0623 C10[13]CH7N2+ 1 168.0643 -11.9
  183.0773 C11H9N3+ 1 183.0791 -9.58
  184.0858 C11H10N3+ 1 184.0869 -6.09
  185.0888 C10[13]CH10N3+ 1 185.0908 -10.84
PK$NUM_PEAK: 7
PK$PEAK: m/z int. rel.int.
  140.0482 66816 38
  157.0742 14148 8
  167.0591 202712 115
  168.0623 21068 12
  183.0773 9300 5
  184.0858 1748868 999
  185.0888 79644 45
//
