ACCESSION: MSBNK-Athens_Univ-AU231402
RECORD_TITLE: Chlorotoluron; LC-ESI-QTOF; MS2; CE: 20 eV; R=35000; [M+H]+
DATE: 2019.05.29
AUTHORS: Nikiforos Alygizakis, Katerina Galani, Nikolaos Thomaidis, University of Athens
LICENSE: CC BY
COPYRIGHT: Copyright (C) 2019 Department of Chemistry, University of Athens
COMMENT: CONFIDENCE standard compound
COMMENT: INTERNAL_ID 2314
CH$NAME: Chlorotoluron
CH$NAME: 3-(3-chloro-4-methylphenyl)-1,1-dimethylurea
CH$COMPOUND_CLASS: N/A; Environmental Standard
CH$FORMULA: C10H13ClN2O
CH$EXACT_MASS: 212.0716407
CH$SMILES: CN(C)C(=O)NC1=CC(Cl)=C(C)C=C1
CH$IUPAC: InChI=1S/C10H13ClN2O/c1-7-4-5-8(6-9(7)11)12-10(14)13(2)3/h4-6H,1-3H3,(H,12,14)
CH$LINK: CAS 15545-48-9
CH$LINK: CHEBI CHEBI:81981
CH$LINK: KEGG C18817
CH$LINK: PUBCHEM CID:27375
CH$LINK: INCHIKEY JXCGFZXSOMJFOA-UHFFFAOYSA-N
CH$LINK: CHEMSPIDER 25472
CH$LINK: COMPTOX DTXSID8052853
AC$INSTRUMENT: Bruker maXis Impact
AC$INSTRUMENT_TYPE: LC-ESI-QTOF
AC$MASS_SPECTROMETRY: MS_TYPE MS2
AC$MASS_SPECTROMETRY: ION_MODE POSITIVE
AC$MASS_SPECTROMETRY: IONIZATION ESI
AC$MASS_SPECTROMETRY: FRAGMENTATION_MODE CID
AC$MASS_SPECTROMETRY: COLLISION_ENERGY 20 eV
AC$MASS_SPECTROMETRY: RESOLUTION 35000
AC$CHROMATOGRAPHY: COLUMN_NAME Acclaim RSLC C18 2.2um, 2.1x100mm, Thermo
AC$CHROMATOGRAPHY: FLOW_GRADIENT 99/1 at 0-1 min, 61/39 at 3 min, 0.1/99.9 at 14-16 min, 99/1 at 16.1-20 min
AC$CHROMATOGRAPHY: FLOW_RATE 200 uL/min at 0-3 min, 400 uL/min at 14 min, 480 uL/min at 16-19 min, 200 uL/min at 19.1-20 min
AC$CHROMATOGRAPHY: RETENTION_TIME 8.002 min
AC$CHROMATOGRAPHY: SOLVENT A 90:10 water:methanol with 0.01% formic acid and 5mM ammonium formate
AC$CHROMATOGRAPHY: SOLVENT B methanol with 0.01% formic acid and 5mM ammonium formate
MS$FOCUSED_ION: BASE_PEAK 213.079
MS$FOCUSED_ION: PRECURSOR_M/Z 213.0789
MS$FOCUSED_ION: PRECURSOR_TYPE [M+H]+
MS$DATA_PROCESSING: RECALIBRATE identity on assigned fragments and MS1
MS$DATA_PROCESSING: WHOLE RMassBank 2.10.1
PK$SPLASH: splash10-03xr-0490000000-b2a306d218d35c52caf2
PK$ANNOTATION: m/z tentative_formula formula_count mass error(ppm)
  125.0155 C7H6Cl+ 2 125.0153 1.71
  133.0515 C8H7NO+ 2 133.0522 -5.07
  140.0251 C7H7ClN+ 2 140.0262 -7.6
  141.0284 C6[13]CH7ClN+ 1 141.0301 -11.89
  142.022 C7H7[37]ClN+ 1 142.0238 -12.23
  143.0254 C7H8ClO+ 2 143.0258 -3.17
  153.0218 C7H6ClN2+ 2 153.0214 2.77
  168.0199 C8H7ClNO+ 1 168.0211 -7.12
  169.0238 C7[13]CH7ClNO+ 1 169.025 -7.19
  170.017 C8H7[37]ClNO+ 1 170.0187 -9.97
  213.0783 C10H14ClN2O+ 1 213.0789 -2.77
  214.0812 C9[13]CH14ClN2O+ 1 214.0828 -7.45
  215.0749 C10H14[37]ClN2O+ 1 215.0765 -7.73
PK$NUM_PEAK: 13
PK$PEAK: m/z int. rel.int.
  125.0155 1544 9
  133.0515 1812 10
  140.0251 48252 284
  141.0284 3436 20
  142.022 11892 70
  143.0254 908 5
  153.0218 944 5
  168.0199 45820 270
  169.0238 3992 23
  170.017 12856 75
  213.0783 169324 999
  214.0812 21244 125
  215.0749 50076 295
//
