ACCESSION: MSBNK-Athens_Univ-AU288404
RECORD_TITLE: Harmine; LC-ESI-QTOF; MS2; CE: 40 eV; R=35000; [M+H]+
DATE: 2019.05.31
AUTHORS: Nikiforos Alygizakis, Katerina Galani, Nikolaos Thomaidis, University of Athens
LICENSE: CC BY
COPYRIGHT: Copyright (C) 2019 Department of Chemistry, University of Athens
COMMENT: CONFIDENCE standard compound
COMMENT: INTERNAL_ID 2884
CH$NAME: Harmine
CH$NAME: 7-methoxy-1-methyl-9H-pyrido[3,4-b]indole
CH$COMPOUND_CLASS: N/A; Environmental Standard
CH$FORMULA: C13H12N2O
CH$EXACT_MASS: 212.0949630
CH$SMILES: COC1=CC2=C(C=C1)C1=C(N2)C(C)=NC=C1
CH$IUPAC: InChI=1S/C13H12N2O/c1-8-13-11(5-6-14-8)10-4-3-9(16-2)7-12(10)15-13/h3-7,15H,1-2H3
CH$LINK: CAS 343-27-1
CH$LINK: CHEBI CHEBI:28121
CH$LINK: KEGG C06538
CH$LINK: PUBCHEM CID:5280953
CH$LINK: INCHIKEY BXNJHAXVSOCGBA-UHFFFAOYSA-N
CH$LINK: CHEMSPIDER 4444445
CH$LINK: COMPTOX DTXSID30196066
AC$INSTRUMENT: Bruker maXis Impact
AC$INSTRUMENT_TYPE: LC-ESI-QTOF
AC$MASS_SPECTROMETRY: MS_TYPE MS2
AC$MASS_SPECTROMETRY: ION_MODE POSITIVE
AC$MASS_SPECTROMETRY: IONIZATION ESI
AC$MASS_SPECTROMETRY: FRAGMENTATION_MODE CID
AC$MASS_SPECTROMETRY: COLLISION_ENERGY 40 eV
AC$MASS_SPECTROMETRY: RESOLUTION 35000
AC$CHROMATOGRAPHY: COLUMN_NAME Acclaim RSLC C18 2.2um, 2.1x100mm, Thermo
AC$CHROMATOGRAPHY: FLOW_GRADIENT 99/1 at 0-1 min, 61/39 at 3 min, 0.1/99.9 at 14-16 min, 99/1 at 16.1-20 min
AC$CHROMATOGRAPHY: FLOW_RATE 200 uL/min at 0-3 min, 400 uL/min at 14 min, 480 uL/min at 16-19 min, 200 uL/min at 19.1-20 min
AC$CHROMATOGRAPHY: RETENTION_TIME 5.226 min
AC$CHROMATOGRAPHY: SOLVENT A 90:10 water:methanol with 0.01% formic acid and 5mM ammonium formate
AC$CHROMATOGRAPHY: SOLVENT B methanol with 0.01% formic acid and 5mM ammonium formate
MS$FOCUSED_ION: BASE_PEAK 213.1017
MS$FOCUSED_ION: PRECURSOR_M/Z 213.1022
MS$FOCUSED_ION: PRECURSOR_TYPE [M+H]+
MS$DATA_PROCESSING: RECALIBRATE identity on assigned fragments and MS1
MS$DATA_PROCESSING: WHOLE RMassBank 2.10.1
PK$SPLASH: splash10-00di-0900000000-3437cf50c39e0cf294ac
PK$ANNOTATION: m/z tentative_formula formula_count mass error(ppm)
  142.064 C10H8N+ 1 142.0651 -8.14
  143.0709 C10H9N+ 1 143.073 -14.63
  144.0667 C9H8N2+ 1 144.0682 -10.07
  144.0794 C10H10N+ 1 144.0808 -9.48
  155.0591 C10H7N2+ 1 155.0604 -8.41
  168.0664 C11H8N2+ 1 168.0682 -10.45
  169.0749 C11H9N2+ 1 169.076 -6.61
  170.0827 C11H10N2+ 1 170.0838 -6.48
  171.0859 C10[13]CH10N2+ 1 171.0878 -10.77
  198.0779 C12H10N2O+ 1 198.0788 -4.41
  199.0809 C11[13]CH10N2O+ 1 199.0827 -8.78
  213.101 C13H13N2O+ 1 213.1022 -5.72
PK$NUM_PEAK: 12
PK$PEAK: m/z int. rel.int.
  142.064 15212 7
  143.0709 13608 6
  144.0667 33428 16
  144.0794 81724 40
  155.0591 77420 38
  168.0664 15336 7
  169.0749 793676 390
  170.0827 2030248 999
  171.0859 233204 114
  198.0779 345688 170
  199.0809 41404 20
  213.101 27552 13
//
