ACCESSION: MSBNK-Athens_Univ-AU311151
RECORD_TITLE: Acephate; LC-ESI-QTOF; MS2; CE: 10 eV; R=35000; [M-H]-
DATE: 2016.02.25
AUTHORS: Nikiforos Alygizakis, Reza Aalizadeh, Nikolaos Thomaidis, University of Athens
LICENSE: CC BY
COPYRIGHT: Copyright (C) 2016 Department of Chemistry, University of Athens
COMMENT: CONFIDENCE standard compound
COMMENT: INTERNAL_ID 3111
CH$NAME: Acephate
CH$NAME: N-[methoxy(methylsulfanyl)phosphoryl]acetamide
CH$COMPOUND_CLASS: N/A; Environmental Standard
CH$FORMULA: C4H10NO3PS
CH$EXACT_MASS: 183.0119008
CH$SMILES: CC(=O)NP(=O)(OC)SC
CH$IUPAC: InChI=1S/C4H10NO3PS/c1-4(6)5-9(7,8-2)10-3/h1-3H3,(H,5,6,7)
CH$LINK: CAS 30560-19-1
CH$LINK: CHEBI CHEBI:34520
CH$LINK: KEGG C14426
CH$LINK: PUBCHEM CID:1982
CH$LINK: INCHIKEY YASYVMFAVPKPKE-UHFFFAOYSA-N
CH$LINK: CHEMSPIDER 1905
CH$LINK: COMPTOX DTXSID8023846
AC$INSTRUMENT: Bruker maXis Impact
AC$INSTRUMENT_TYPE: LC-ESI-QTOF
AC$MASS_SPECTROMETRY: MS_TYPE MS2
AC$MASS_SPECTROMETRY: ION_MODE NEGATIVE
AC$MASS_SPECTROMETRY: IONIZATION ESI
AC$MASS_SPECTROMETRY: FRAGMENTATION_MODE CID
AC$MASS_SPECTROMETRY: COLLISION_ENERGY 10 eV
AC$MASS_SPECTROMETRY: RESOLUTION 35000
AC$CHROMATOGRAPHY: COLUMN_NAME Acclaim RSLC C18 2.2um, 2.1x100mm, Thermo
AC$CHROMATOGRAPHY: FLOW_GRADIENT 99/1 at 0-1 min, 61/39 at 3 min, 0.1/99.9 at 14-16 min, 99/1 at 16.1-20 min
AC$CHROMATOGRAPHY: FLOW_RATE 200 uL/min at 0-3 min, 400 uL/min at 14 min, 480 uL/min at 16-19 min, 200 uL/min at 19.1-20 min
AC$CHROMATOGRAPHY: RETENTION_TIME 2.927 min
AC$CHROMATOGRAPHY: SOLVENT A 90:10 water:methanol with 5mM ammonium acetate
AC$CHROMATOGRAPHY: SOLVENT B methanol with 5mM ammonium acetate
MS$FOCUSED_ION: BASE_PEAK 182.0022
MS$FOCUSED_ION: PRECURSOR_M/Z 182.0046
MS$FOCUSED_ION: PRECURSOR_TYPE [M-H]-
MS$DATA_PROCESSING: RECALIBRATE identity on assigned fragments and MS1
MS$DATA_PROCESSING: WHOLE RMassBank 1.99.10
PK$SPLASH: splash10-001l-0900000000-1eae652f6550bcc1c3f9
PK$ANNOTATION: m/z tentative_formula formula_count mass error(ppm)
  140.9759 C2H6O3PS- 1 140.9781 -15.24
  182.0027 C4H9NO3PS- 1 182.0046 -10.83
PK$NUM_PEAK: 2
PK$PEAK: m/z int. rel.int.
  140.9759 484 660
  182.0027 732 999
//
