ACCESSION: MSBNK-Athens_Univ-AU260102
RECORD_TITLE: Azinphos methyl; LC-ESI-QTOF; MS2; CE: 20 eV; R=35000; [M+H]+
DATE: 2019.05.30
AUTHORS: Nikiforos Alygizakis, Katerina Galani, Nikolaos Thomaidis, University of Athens
LICENSE: CC BY
COPYRIGHT: Copyright (C) 2019 Department of Chemistry, University of Athens
COMMENT: CONFIDENCE standard compound
COMMENT: INTERNAL_ID 2601
CH$NAME: Azinphos methyl
CH$NAME: Azinphos-methyl
CH$NAME: 3-(dimethoxyphosphinothioylsulfanylmethyl)-1,2,3-benzotriazin-4-one
CH$COMPOUND_CLASS: N/A; Environmental Standard
CH$FORMULA: C10H12N3O3PS2
CH$EXACT_MASS: 317.0057699
CH$SMILES: COP(=S)(OC)SCN1N=NC2=CC=CC=C2C1=O
CH$IUPAC: InChI=1S/C10H12N3O3PS2/c1-15-17(18,16-2)19-7-13-10(14)8-5-3-4-6-9(8)11-12-13/h3-6H,7H2,1-2H3
CH$LINK: CAS 86-50-0
CH$LINK: CHEBI CHEBI:2953
CH$LINK: KEGG C11018
CH$LINK: PUBCHEM CID:2268
CH$LINK: INCHIKEY CJJOSEISRRTUQB-UHFFFAOYSA-N
CH$LINK: CHEMSPIDER 2181
CH$LINK: COMPTOX DTXSID3020122
AC$INSTRUMENT: Bruker maXis Impact
AC$INSTRUMENT_TYPE: LC-ESI-QTOF
AC$MASS_SPECTROMETRY: MS_TYPE MS2
AC$MASS_SPECTROMETRY: ION_MODE POSITIVE
AC$MASS_SPECTROMETRY: IONIZATION ESI
AC$MASS_SPECTROMETRY: FRAGMENTATION_MODE CID
AC$MASS_SPECTROMETRY: COLLISION_ENERGY 20 eV
AC$MASS_SPECTROMETRY: RESOLUTION 35000
AC$CHROMATOGRAPHY: COLUMN_NAME Acclaim RSLC C18 2.2um, 2.1x100mm, Thermo
AC$CHROMATOGRAPHY: FLOW_GRADIENT 99/1 at 0-1 min, 61/39 at 3 min, 0.1/99.9 at 14-16 min, 99/1 at 16.1-20 min
AC$CHROMATOGRAPHY: FLOW_RATE 200 uL/min at 0-3 min, 400 uL/min at 14 min, 480 uL/min at 16-19 min, 200 uL/min at 19.1-20 min
AC$CHROMATOGRAPHY: RETENTION_TIME 8.911 min
AC$CHROMATOGRAPHY: SOLVENT A 90:10 water:methanol with 0.01% formic acid and 5mM ammonium formate
AC$CHROMATOGRAPHY: SOLVENT B methanol with 0.01% formic acid and 5mM ammonium formate
MS$FOCUSED_ION: BASE_PEAK 318.013
MS$FOCUSED_ION: PRECURSOR_M/Z 318.013
MS$FOCUSED_ION: PRECURSOR_TYPE [M+H]+
MS$DATA_PROCESSING: RECALIBRATE identity on assigned fragments and MS1
MS$DATA_PROCESSING: WHOLE RMassBank 2.10.1
PK$SPLASH: splash10-001i-0900000000-81e35de5467a689f8cee
PK$ANNOTATION: m/z tentative_formula formula_count mass error(ppm)
  124.981 H4N3OPS+ 5 124.9807 2.55
  132.0437 C8H6NO+ 4 132.0444 -5.49
  133.0467 C7[13]CH6NO+ 1 133.0483 -12.34
  142.9914 H6N3O2PS+ 7 142.9913 0.72
  150.0538 C8H8NO2+ 3 150.055 -7.53
  151.0573 C7[13]CH8NO2+ 1 151.0589 -10.16
  160.0494 C8H6N3O+ 4 160.0505 -7.37
  167.0149 C6H5N3OS+ 7 167.0148 0.74
  170.9682 C5H3N2OS2+ 5 170.9681 0.37
  182.9923 C6H5N3S2+ 8 182.9919 2.07
  260.9797 C9H10O3PS2+ 3 260.9803 -2.32
PK$NUM_PEAK: 11
PK$PEAK: m/z int. rel.int.
  124.981 36648 89
  132.0437 410692 999
  133.0467 31340 76
  142.9914 22952 55
  150.0538 19852 48
  151.0573 2192 5
  160.0494 24748 60
  167.0149 11916 28
  170.9682 4832 11
  182.9923 2900 7
  260.9797 4696 11
//
