ACCESSION: MSBNK-Athens_Univ-AU235006
RECORD_TITLE: Flutamide; LC-ESI-QTOF; MS2; CE: Ramp 20.8-31.2 eV; R=35000; [M+H]+
DATE: 2019.05.30
AUTHORS: Nikiforos Alygizakis, Katerina Galani, Nikolaos Thomaidis, University of Athens
LICENSE: CC BY
COPYRIGHT: Copyright (C) 2019 Department of Chemistry, University of Athens
COMMENT: CONFIDENCE standard compound
COMMENT: INTERNAL_ID 2350
CH$NAME: Flutamide
CH$NAME: 2-methyl-N-[4-nitro-3-(trifluoromethyl)phenyl]propanamide
CH$COMPOUND_CLASS: N/A; Environmental Standard
CH$FORMULA: C11H11F3N2O3
CH$EXACT_MASS: 276.0721769
CH$SMILES: CC(C)C(=O)NC1=CC(=C(C=C1)[N+]([O-])=O)C(F)(F)F
CH$IUPAC: InChI=1S/C11H11F3N2O3/c1-6(2)10(17)15-7-3-4-9(16(18)19)8(5-7)11(12,13)14/h3-6H,1-2H3,(H,15,17)
CH$LINK: CAS 37209-54-4
CH$LINK: CHEBI CHEBI:5132
CH$LINK: KEGG C07653
CH$LINK: PUBCHEM CID:3397
CH$LINK: INCHIKEY MKXKFYHWDHIYRV-UHFFFAOYSA-N
CH$LINK: CHEMSPIDER 3280
CH$LINK: COMPTOX DTXSID7032004
AC$INSTRUMENT: Bruker maXis Impact
AC$INSTRUMENT_TYPE: LC-ESI-QTOF
AC$MASS_SPECTROMETRY: MS_TYPE MS2
AC$MASS_SPECTROMETRY: ION_MODE POSITIVE
AC$MASS_SPECTROMETRY: IONIZATION ESI
AC$MASS_SPECTROMETRY: FRAGMENTATION_MODE CID
AC$MASS_SPECTROMETRY: COLLISION_ENERGY Ramp 20.8-31.2 eV
AC$MASS_SPECTROMETRY: RESOLUTION 35000
AC$CHROMATOGRAPHY: COLUMN_NAME Acclaim RSLC C18 2.2um, 2.1x100mm, Thermo
AC$CHROMATOGRAPHY: FLOW_GRADIENT 99/1 at 0-1 min, 61/39 at 3 min, 0.1/99.9 at 14-16 min, 99/1 at 16.1-20 min
AC$CHROMATOGRAPHY: FLOW_RATE 200 uL/min at 0-3 min, 400 uL/min at 14 min, 480 uL/min at 16-19 min, 200 uL/min at 19.1-20 min
AC$CHROMATOGRAPHY: RETENTION_TIME 11.151 min
AC$CHROMATOGRAPHY: SOLVENT A 90:10 water:methanol with 0.01% formic acid and 5mM ammonium formate
AC$CHROMATOGRAPHY: SOLVENT B methanol with 0.01% formic acid and 5mM ammonium formate
MS$FOCUSED_ION: BASE_PEAK 277.0783
MS$FOCUSED_ION: PRECURSOR_M/Z 277.0795
MS$FOCUSED_ION: PRECURSOR_TYPE [M+H]+
MS$DATA_PROCESSING: RECALIBRATE identity on assigned fragments and MS1
MS$DATA_PROCESSING: WHOLE RMassBank 2.10.1
PK$SPLASH: splash10-014i-0930000000-125ecbf936cc2cc656c3
PK$ANNOTATION: m/z tentative_formula formula_count mass error(ppm)
  125.0155 C2H3F2N2O2+ 3 125.0157 -2.07
  164.0612 C10H9FO+ 4 164.0632 -12.01
  165.0696 C10H10FO+ 5 165.071 -8.81
  166.0726 C9[13]CH10FO+ 1 166.0749 -14.23
  199.0306 C11H4FN2O+ 4 199.0302 2.05
  200.0339 C10[13]CH4FN2O+ 1 200.0341 -0.93
  201.0277 C8H4F3N2O+ 4 201.027 3.32
  215.085 C9H12FN2O3+ 1 215.0826 10.92
  226.0772 C10H11FN2O3+ 1 226.0748 10.57
  227.0845 C10H12FN2O3+ 2 227.0826 8.1
  239.085 C11H12FN2O3+ 1 239.0826 9.66
  249.0466 C9H8F3N2O3+ 1 249.0482 -6.4
  262.0539 C10H9F3N2O3+ 1 262.056 -7.92
  277.0784 C11H12F3N2O3+ 1 277.0795 -3.68
PK$NUM_PEAK: 14
PK$PEAK: m/z int. rel.int.
  125.0155 24504 19
  164.0612 6664 5
  165.0696 1236892 999
  166.0726 150388 121
  199.0306 208820 168
  200.0339 25532 20
  201.0277 49208 39
  215.085 18596 15
  226.0772 16464 13
  227.0845 6720 5
  239.085 35420 28
  249.0466 13520 10
  262.0539 14624 11
  277.0784 370572 299
//
