ACCESSION: MSBNK-Athens_Univ-AU250203
RECORD_TITLE: Octyl-methoxycinnamate; LC-ESI-QTOF; MS2; CE: 30 eV; R=35000; [M+H]+
DATE: 2019.04.08
AUTHORS: Nikiforos Alygizakis, Katerina Galani, Nikolaos Thomaidis, University of Athens
LICENSE: CC BY
COPYRIGHT: Copyright (C) 2019 Department of Chemistry, University of Athens
COMMENT: CONFIDENCE standard compound
COMMENT: INTERNAL_ID 2502
CH$NAME: Octyl-methoxycinnamate
CH$NAME: Octinoxate
CH$NAME: 2-ethylhexyl (E)-3-(4-methoxyphenyl)prop-2-enoate
CH$COMPOUND_CLASS: N/A; Environmental Standard
CH$FORMULA: C18H26O3
CH$EXACT_MASS: 290.1881947
CH$SMILES: CCCCC(CC)COC(=O)\C=C\C1=CC=C(OC)C=C1
CH$IUPAC: InChI=1S/C18H26O3/c1-4-6-7-15(5-2)14-21-18(19)13-10-16-8-11-17(20-3)12-9-16/h8-13,15H,4-7,14H2,1-3H3/b13-10+
CH$LINK: CAS 5466-77-3
CH$LINK: CHEBI CHEBI:88667
CH$LINK: KEGG D05225
CH$LINK: PUBCHEM CID:5355130
CH$LINK: INCHIKEY YBGZDTIWKVFICR-JLHYYAGUSA-N
CH$LINK: CHEMSPIDER 4511170
CH$LINK: COMPTOX DTXSID9047205
AC$INSTRUMENT: Bruker maXis Impact
AC$INSTRUMENT_TYPE: LC-ESI-QTOF
AC$MASS_SPECTROMETRY: MS_TYPE MS2
AC$MASS_SPECTROMETRY: ION_MODE POSITIVE
AC$MASS_SPECTROMETRY: IONIZATION ESI
AC$MASS_SPECTROMETRY: FRAGMENTATION_MODE CID
AC$MASS_SPECTROMETRY: COLLISION_ENERGY 30 eV
AC$MASS_SPECTROMETRY: RESOLUTION 35000
AC$CHROMATOGRAPHY: COLUMN_NAME Acclaim RSLC C18 2.2um, 2.1x100mm, Thermo
AC$CHROMATOGRAPHY: FLOW_GRADIENT 99/1 at 0-1 min, 61/39 at 3 min, 0.1/99.9 at 14-16 min, 99/1 at 16.1-20 min
AC$CHROMATOGRAPHY: FLOW_RATE 200 uL/min at 0-3 min, 400 uL/min at 14 min, 480 uL/min at 16-19 min, 200 uL/min at 19.1-20 min
AC$CHROMATOGRAPHY: RETENTION_TIME 13.847 min
AC$CHROMATOGRAPHY: SOLVENT A 90:10 water:methanol with 0.01% formic acid and 5mM ammonium formate
AC$CHROMATOGRAPHY: SOLVENT B methanol with 0.01% formic acid and 5mM ammonium formate
MS$FOCUSED_ION: BASE_PEAK 179.0693
MS$FOCUSED_ION: PRECURSOR_M/Z 291.1955
MS$FOCUSED_ION: PRECURSOR_TYPE [M+H]+
MS$DATA_PROCESSING: RECALIBRATE identity on assigned fragments and MS1
MS$DATA_PROCESSING: WHOLE RMassBank 2.10.1
PK$SPLASH: splash10-03di-0900000000-575819b41feda827781c
PK$ANNOTATION: m/z tentative_formula formula_count mass error(ppm)
  118.0402 C8H6O+ 1 118.0413 -9.63
  133.0635 C9H9O+ 1 133.0648 -9.6
  134.067 C8[13]CH9O+ 1 134.0687 -12.97
  137.0589 C8H9O2+ 1 137.0597 -6.22
  161.0584 C10H9O2+ 1 161.0597 -8.27
  162.0614 C9[13]CH9O2+ 1 162.0636 -13.53
  163.0648 C8[13]C2H9O2+ 1 163.067 -13.44
  179.0687 C10H11O3+ 1 179.0703 -8.83
  180.0724 C9[13]CH11O3+ 1 180.0742 -9.74
PK$NUM_PEAK: 9
PK$PEAK: m/z int. rel.int.
  118.0402 4120 14
  133.0635 58800 207
  134.067 6464 22
  137.0589 1852 6
  161.0584 283332 999
  162.0614 31720 111
  163.0648 2324 8
  179.0687 23072 81
  180.0724 2896 10
//
