ACCESSION: MSBNK-Athens_Univ-AU287701
RECORD_TITLE: 2-(4-Morpholinyl)benzothiazole; LC-ESI-QTOF; MS2; CE: 10 eV; R=35000; [M+H]+
DATE: 2019.05.31
AUTHORS: Nikiforos Alygizakis, Katerina Galani, Nikolaos Thomaidis, University of Athens
LICENSE: CC BY
COPYRIGHT: Copyright (C) 2019 Department of Chemistry, University of Athens
COMMENT: CONFIDENCE standard compound
COMMENT: INTERNAL_ID 2877
CH$NAME: 2-(4-Morpholinyl)benzothiazole
CH$NAME: 4-(1,3-benzothiazol-2-yl)morpholine
CH$COMPOUND_CLASS: N/A; Environmental Standard
CH$FORMULA: C11H12N2OS
CH$EXACT_MASS: 220.0670340
CH$SMILES: C1CN(CCO1)C1=NC2=CC=CC=C2S1
CH$IUPAC: InChI=1S/C11H12N2OS/c1-2-4-10-9(3-1)12-11(15-10)13-5-7-14-8-6-13/h1-4H,5-8H2
CH$LINK: CAS 4225-26-7
CH$LINK: PUBCHEM CID:77901
CH$LINK: INCHIKEY VVUVJGRVEYHIHC-UHFFFAOYSA-N
CH$LINK: CHEMSPIDER 70292
CH$LINK: COMPTOX DTXSID90891505
AC$INSTRUMENT: Bruker maXis Impact
AC$INSTRUMENT_TYPE: LC-ESI-QTOF
AC$MASS_SPECTROMETRY: MS_TYPE MS2
AC$MASS_SPECTROMETRY: ION_MODE POSITIVE
AC$MASS_SPECTROMETRY: IONIZATION ESI
AC$MASS_SPECTROMETRY: FRAGMENTATION_MODE CID
AC$MASS_SPECTROMETRY: COLLISION_ENERGY 10 eV
AC$MASS_SPECTROMETRY: RESOLUTION 35000
AC$CHROMATOGRAPHY: COLUMN_NAME Acclaim RSLC C18 2.2um, 2.1x100mm, Thermo
AC$CHROMATOGRAPHY: FLOW_GRADIENT 99/1 at 0-1 min, 61/39 at 3 min, 0.1/99.9 at 14-16 min, 99/1 at 16.1-20 min
AC$CHROMATOGRAPHY: FLOW_RATE 200 uL/min at 0-3 min, 400 uL/min at 14 min, 480 uL/min at 16-19 min, 200 uL/min at 19.1-20 min
AC$CHROMATOGRAPHY: RETENTION_TIME 8.498 min
AC$CHROMATOGRAPHY: SOLVENT A 90:10 water:methanol with 0.01% formic acid and 5mM ammonium formate
AC$CHROMATOGRAPHY: SOLVENT B methanol with 0.01% formic acid and 5mM ammonium formate
MS$FOCUSED_ION: BASE_PEAK 221.0734
MS$FOCUSED_ION: PRECURSOR_M/Z 221.0743
MS$FOCUSED_ION: PRECURSOR_TYPE [M+H]+
MS$DATA_PROCESSING: RECALIBRATE identity on assigned fragments and MS1
MS$DATA_PROCESSING: WHOLE RMassBank 2.10.1
PK$SPLASH: splash10-00di-0090000000-860a5e2055314a32756a
PK$ANNOTATION: m/z tentative_formula formula_count mass error(ppm)
  177.0523 C9H9N2S+ 1 177.0481 23.8
  221.0743 C11H13N2OS+ 1 221.0743 -0.08
  222.0766 C10[13]CH13N2OS+ 1 222.0782 -7.42
  223.0698 C11H13N2O[34]S+ 1 223.0707 -3.76
PK$NUM_PEAK: 4
PK$PEAK: m/z int. rel.int.
  177.0523 43084 18
  221.0743 2353096 999
  222.0766 319084 135
  223.0698 100220 42
//
