ACCESSION: MSBNK-Athens_Univ-AU507704
RECORD_TITLE: Trimethylolpropane trimethacrylate; GC-APCI-QTOF; MS2; CE: 40 eV; R=35000; [M+H]+
DATE: 2021.04.20
AUTHORS: Chrysoula Kanakaki, Nikiforos Alygizakis, Nikolaos Thomaidis, University of Athens
LICENSE: CC BY
COPYRIGHT: Copyright (C) 2021 Department of Chemistry, University of Athens
COMMENT: CONFIDENCE standard compound
COMMENT: INTERNAL_ID 5077
CH$NAME: Trimethylolpropane trimethacrylate
CH$COMPOUND_CLASS: N/A; Food Contact Material
CH$FORMULA: C18H26O6
CH$EXACT_MASS: 338.1729
CH$SMILES: CCC(COC(=O)C(=C)C)(COC(=O)C(=C)C)COC(=O)C(=C)C
CH$IUPAC: InChI=1S/C18H26O6/c1-8-18(9-22-15(19)12(2)3,10-23-16(20)13(4)5)11-24-17(21)14(6)7/h2,4,6,8-11H2,1,3,5,7H3
CH$LINK: CAS 3290-92-4
CH$LINK: CHEBI CHEBI:35029
CH$LINK: KEGG C14538
CH$LINK: PUBCHEM CID:18689
CH$LINK: INCHIKEY OKKRPWIIYQTPQF-UHFFFAOYSA-N
CH$LINK: CHEMSPIDER 17649
AC$INSTRUMENT: Bruker 450 GC coupled to maXis Impact
AC$INSTRUMENT_TYPE: GC-APCI-QTOF
AC$MASS_SPECTROMETRY: MS_TYPE MS2
AC$MASS_SPECTROMETRY: ION_MODE POSITIVE
AC$MASS_SPECTROMETRY: IONIZATION APCI
AC$MASS_SPECTROMETRY: FRAGMENTATION_MODE CID
AC$MASS_SPECTROMETRY: COLLISION_ENERGY 40 eV
AC$MASS_SPECTROMETRY: RESOLUTION 35000
AC$CHROMATOGRAPHY: COLUMN_NAME Rxi-5Sil MS column, 30m, 0.25mm i.d., 0.25µm film thickness, Restek
AC$CHROMATOGRAPHY: COLUMN_TEMPERATURE_GRADIENT 55oC at 0 min, 55oC at 3 min, 180oC at 11.33 min with 15oC/min, 280oC at 26.72 min with 6.5oC/min, 280oC at 31.72 min, 300oC at 33.72 min with 10oC/min, 300oC at 39 min
AC$CHROMATOGRAPHY: FLOW_RATE 1.5 mL/min
AC$CHROMATOGRAPHY: RETENTION_TIME 23.650 min
AC$CHROMATOGRAPHY: SOLVENT A Helium
MS$FOCUSED_ION: BASE_PEAK 283.2635
MS$FOCUSED_ION: PRECURSOR_M/Z 339.1802
MS$FOCUSED_ION: PRECURSOR_TYPE [M+H]+
MS$DATA_PROCESSING: RECALIBRATE identity on assigned fragments and MS1
MS$DATA_PROCESSING: WHOLE RMassBank 2.16.0
PK$SPLASH: splash10-056r-3900000000-deb78a85a73ffb9d6bae
PK$ANNOTATION: m/z tentative_formula formula_count mass error(ppm)
  55.0542 C4H7+ 1 55.0542 -1.15
  119.0831 C9H11+ 1 119.0855 -20.26
  129.0535 C6H9O3+ 1 129.0546 -8.57
  129.0687 C10H9+ 1 129.0699 -9.2
  133.1013 C10H13+ 1 133.1012 0.89
PK$NUM_PEAK: 5
PK$PEAK: m/z int. rel.int.
  55.0542 176 999
  119.0831 120 681
  129.0535 144 817
  129.0687 104 590
  133.1013 112 635
//
