ACCESSION: MSBNK-Athens_Univ-AU240858
RECORD_TITLE: Lauric isopropanolamide; LC-ESI-QTOF; MS2; CE: 20 eV; R=35000; [M-H]-
DATE: 2019.03.29
AUTHORS: Nikiforos Alygizakis, Katerina Galani, Nikolaos Thomaidis, University of Athens
LICENSE: CC BY
COPYRIGHT: Copyright (C) 2019 Department of Chemistry, University of Athens
COMMENT: CONFIDENCE standard compound
COMMENT: INTERNAL_ID 2408
CH$NAME: Lauric isopropanolamide
CH$NAME: Dodecanamide, N-(2-hydroxypropyl)-
CH$NAME: N-(2-hydroxypropyl)dodecanamide
CH$COMPOUND_CLASS: N/A; Environmental Standard
CH$FORMULA: C15H31NO2
CH$EXACT_MASS: 257.2354792
CH$SMILES: CCCCCCCCCCCC(=O)NCC(C)O
CH$IUPAC: InChI=1S/C15H31NO2/c1-3-4-5-6-7-8-9-10-11-12-15(18)16-13-14(2)17/h14,17H,3-13H2,1-2H3,(H,16,18)
CH$LINK: CAS 142-54-1
CH$LINK: PUBCHEM CID:9903249
CH$LINK: INCHIKEY MMBILEWCGWTAOV-UHFFFAOYSA-N
CH$LINK: CHEMSPIDER 8078903
CH$LINK: COMPTOX DTXSID00861815
AC$INSTRUMENT: Bruker maXis Impact
AC$INSTRUMENT_TYPE: LC-ESI-QTOF
AC$MASS_SPECTROMETRY: MS_TYPE MS2
AC$MASS_SPECTROMETRY: ION_MODE NEGATIVE
AC$MASS_SPECTROMETRY: IONIZATION ESI
AC$MASS_SPECTROMETRY: FRAGMENTATION_MODE CID
AC$MASS_SPECTROMETRY: COLLISION_ENERGY 20 eV
AC$MASS_SPECTROMETRY: RESOLUTION 35000
AC$CHROMATOGRAPHY: COLUMN_NAME Acclaim RSLC C18 2.2um, 2.1x100mm, Thermo
AC$CHROMATOGRAPHY: FLOW_GRADIENT 99/1 at 0-1 min, 61/39 at 3 min, 0.1/99.9 at 14-16 min, 99/1 at 16.1-20 min
AC$CHROMATOGRAPHY: FLOW_RATE 200 uL/min at 0-3 min, 400 uL/min at 14 min, 480 uL/min at 16-19 min, 200 uL/min at 19.1-20 min
AC$CHROMATOGRAPHY: RETENTION_TIME 12.062 min
AC$CHROMATOGRAPHY: SOLVENT A 90:10 water:methanol with 5mM ammonium acetate
AC$CHROMATOGRAPHY: SOLVENT B methanol with 5mM ammonium acetate
MS$FOCUSED_ION: BASE_PEAK 256.2265
MS$FOCUSED_ION: PRECURSOR_M/Z 256.2282
MS$FOCUSED_ION: PRECURSOR_TYPE [M-H]-
MS$DATA_PROCESSING: RECALIBRATE identity on assigned fragments and MS1
MS$DATA_PROCESSING: WHOLE RMassBank 2.10.0
PK$SPLASH: splash10-114u-0090000000-88e1acf98869b8ed6079
PK$ANNOTATION: m/z tentative_formula formula_count mass error(ppm)
  198.1836 C12H24NO- 1 198.1863 -13.7
  212.2 C13H26NO- 1 212.202 -9.28
  238.2158 C15H28NO- 1 238.2176 -7.55
  239.2212 C15H29NO- 1 239.2255 -17.9
  240.196 C14H26NO2- 1 240.1969 -3.86
  241.2007 C14H27NO2- 1 241.2047 -16.78
  254.2111 C15H28NO2- 1 254.2126 -5.61
  255.2154 C15H29NO2- 1 255.2204 -19.63
  256.2287 C15H30NO2- 1 256.2282 1.91
PK$NUM_PEAK: 9
PK$PEAK: m/z int. rel.int.
  198.1836 592 402
  212.2 1036 705
  238.2158 716 487
  239.2212 436 296
  240.196 900 612
  241.2007 336 228
  254.2111 1468 999
  255.2154 420 285
  256.2287 580 394
//
