ACCESSION: MSBNK-Athens_Univ-AU508007
RECORD_TITLE: 4-Methoxyphenol; GC-APCI-QTOF; MS2; CE: 20 eV; R=35000; [M]+
DATE: 2021.04.20
AUTHORS: Chrysoula Kanakaki, Nikiforos Alygizakis, Nikolaos Thomaidis, University of Athens
LICENSE: CC BY
COPYRIGHT: Copyright (C) 2021 Department of Chemistry, University of Athens
COMMENT: CONFIDENCE standard compound
COMMENT: INTERNAL_ID 5080
CH$NAME: 4-Methoxyphenol
CH$COMPOUND_CLASS: N/A; Food Contact Material
CH$FORMULA: C7H8O2
CH$EXACT_MASS: 124.0524
CH$SMILES: COC1=CC=C(C=C1)O
CH$IUPAC: InChI=1S/C7H8O2/c1-9-7-4-2-6(8)3-5-7/h2-5,8H,1H3
CH$LINK: CAS 150-76-5
CH$LINK: CHEBI CHEBI:69441
CH$LINK: KEGG D04926
CH$LINK: PUBCHEM CID:9015
CH$LINK: INCHIKEY NWVVVBRKAWDGAB-UHFFFAOYSA-N
CH$LINK: CHEMSPIDER 8665
AC$INSTRUMENT: Bruker 450 GC coupled to maXis Impact
AC$INSTRUMENT_TYPE: GC-APCI-QTOF
AC$MASS_SPECTROMETRY: MS_TYPE MS2
AC$MASS_SPECTROMETRY: ION_MODE POSITIVE
AC$MASS_SPECTROMETRY: IONIZATION APCI
AC$MASS_SPECTROMETRY: FRAGMENTATION_MODE CID
AC$MASS_SPECTROMETRY: COLLISION_ENERGY 20 eV
AC$MASS_SPECTROMETRY: RESOLUTION 35000
AC$CHROMATOGRAPHY: COLUMN_NAME Rxi-5Sil MS column, 30m, 0.25mm i.d., 0.25µm film thickness, Restek
AC$CHROMATOGRAPHY: COLUMN_TEMPERATURE_GRADIENT 55oC at 0 min, 55oC at 3 min, 180oC at 11.33 min with 15oC/min, 280oC at 26.72 min with 6.5oC/min, 280oC at 31.72 min, 300oC at 33.72 min with 10oC/min, 300oC at 39 min
AC$CHROMATOGRAPHY: FLOW_RATE 1.5 mL/min
AC$CHROMATOGRAPHY: RETENTION_TIME 9.890 min
AC$CHROMATOGRAPHY: SOLVENT A Helium
MS$FOCUSED_ION: BASE_PEAK 124.0508
MS$FOCUSED_ION: PRECURSOR_M/Z 124.0519
MS$FOCUSED_ION: PRECURSOR_TYPE [M]+
MS$DATA_PROCESSING: RECALIBRATE identity on assigned fragments and MS1
MS$DATA_PROCESSING: WHOLE RMassBank 2.16.0
PK$SPLASH: splash10-0ab9-1900000000-474d0d76a6068e8a071a
PK$ANNOTATION: m/z tentative_formula formula_count mass error(ppm)
  81.0325 C5H5O+ 1 81.0335 -12.19
  109.0283 C6H5O2+ 1 109.0284 -1.32
  110.0361 C6H6O2+ 1 110.0362 -1.1
  124.0523 C7H8O2+ 1 124.0519 3.23
PK$NUM_PEAK: 4
PK$PEAK: m/z int. rel.int.
  81.0325 300 374
  109.0283 800 999
  110.0361 172 214
  124.0523 520 649
//
