ACCESSION: MSBNK-Athens_Univ-AU503204
RECORD_TITLE: 1,6-Bis(acryloyloxy)hexane; GC-APCI-QTOF; MS2; CE: 40 eV; R=35000; [M+H]+
DATE: 2021.04.19
AUTHORS: Chrysoula Kanakaki, Nikiforos Alygizakis, Nikolaos Thomaidis, University of Athens
LICENSE: CC BY
COPYRIGHT: Copyright (C) 2021 Department of Chemistry, University of Athens
COMMENT: CONFIDENCE standard compound
COMMENT: INTERNAL_ID 5032
CH$NAME: 1,6-Bis(acryloyloxy)hexane
CH$COMPOUND_CLASS: N/A; Food Contact Material
CH$FORMULA: C12H18O4
CH$EXACT_MASS: 226.1205
CH$SMILES: C=CC(=O)OCCCCCCOC(=O)C=C
CH$IUPAC: InChI=1S/C12H18O4/c1-3-11(13)15-9-7-5-6-8-10-16-12(14)4-2/h3-4H,1-2,5-10H2
CH$LINK: CAS 13048-33-4
CH$LINK: PUBCHEM CID:25644
CH$LINK: INCHIKEY FIHBHSQYSYVZQE-UHFFFAOYSA-N
CH$LINK: CHEMSPIDER 23890
AC$INSTRUMENT: Bruker 450 GC coupled to maXis Impact
AC$INSTRUMENT_TYPE: GC-APCI-QTOF
AC$MASS_SPECTROMETRY: MS_TYPE MS2
AC$MASS_SPECTROMETRY: ION_MODE POSITIVE
AC$MASS_SPECTROMETRY: IONIZATION APCI
AC$MASS_SPECTROMETRY: FRAGMENTATION_MODE CID
AC$MASS_SPECTROMETRY: COLLISION_ENERGY 40 eV
AC$MASS_SPECTROMETRY: RESOLUTION 35000
AC$CHROMATOGRAPHY: COLUMN_NAME Rxi-5Sil MS column, 30m, 0.25mm i.d., 0.25µm film thickness, Restek
AC$CHROMATOGRAPHY: COLUMN_TEMPERATURE_GRADIENT 55oC at 0 min, 55oC at 3 min, 180oC at 11.33 min with 15oC/min, 280oC at 26.72 min with 6.5oC/min, 280oC at 31.72 min, 300oC at 33.72 min with 10oC/min, 300oC at 39 min
AC$CHROMATOGRAPHY: FLOW_RATE 1.5 mL/min
AC$CHROMATOGRAPHY: RETENTION_TIME 13.110 min
AC$CHROMATOGRAPHY: SOLVENT A Helium
MS$FOCUSED_ION: BASE_PEAK 227.1268
MS$FOCUSED_ION: PRECURSOR_M/Z 227.1278
MS$FOCUSED_ION: PRECURSOR_TYPE [M+H]+
MS$DATA_PROCESSING: RECALIBRATE identity on assigned fragments and MS1
MS$DATA_PROCESSING: WHOLE RMassBank 2.16.0
PK$SPLASH: splash10-0a4i-9000000000-95c9470e105f3f0a7b40
PK$ANNOTATION: m/z tentative_formula formula_count mass error(ppm)
  55.019 C3H3O+ 1 55.0178 21.05
  55.0552 C4H7+ 1 55.0542 18.14
  73.029 C3H5O2+ 1 73.0284 7.79
PK$NUM_PEAK: 3
PK$PEAK: m/z int. rel.int.
  55.019 1072 293
  55.0552 3648 999
  73.029 196 53
//
