ACCESSION: MSBNK-Athens_Univ-AU283502
RECORD_TITLE: Dexamethasone-21-acetate; LC-ESI-QTOF; MS2; CE: 20 eV; R=35000; [M+H]+
DATE: 2019.05.31
AUTHORS: Nikiforos Alygizakis, Katerina Galani, Nikolaos Thomaidis, University of Athens
LICENSE: CC BY
COPYRIGHT: Copyright (C) 2019 Department of Chemistry, University of Athens
COMMENT: CONFIDENCE standard compound
COMMENT: INTERNAL_ID 2835
CH$NAME: Dexamethasone-21-acetate
CH$NAME: Dexamethasone acetate
CH$NAME: [2-[(8S,9R,10S,11S,13S,14S,16R,17R)-9-fluoro-11,17-dihydroxy-10,13,16-trimethyl-3-oxo-6,7,8,11,12,14,15,16-octahydrocyclopenta[a]phenanthren-17-yl]-2-oxoethyl] acetate
CH$COMPOUND_CLASS: N/A; Environmental Standard
CH$FORMULA: C24H31FO6
CH$EXACT_MASS: 434.2104669
CH$SMILES: C[C@@H]1C[C@H]2[C@@H]3CCC4=CC(=O)C=C[C@]4(C)[C@@]3(F)[C@@H](O)C[C@]2(C)[C@@]1(O)C(=O)COC(C)=O
CH$IUPAC: InChI=1S/C24H31FO6/c1-13-9-18-17-6-5-15-10-16(27)7-8-21(15,3)23(17,25)19(28)11-22(18,4)24(13,30)20(29)12-31-14(2)26/h7-8,10,13,17-19,28,30H,5-6,9,11-12H2,1-4H3/t13-,17+,18+,19+,21+,22+,23+,24+/m1/s1
CH$LINK: CAS 1177-87-3
CH$LINK: CHEBI CHEBI:4463
CH$LINK: KEGG C08174
CH$LINK: PUBCHEM CID:236702
CH$LINK: INCHIKEY AKUJBENLRBOFTD-RPRRAYFGSA-N
CH$LINK: CHEMSPIDER 206624
CH$LINK: COMPTOX DTXSID8022901
AC$INSTRUMENT: Bruker maXis Impact
AC$INSTRUMENT_TYPE: LC-ESI-QTOF
AC$MASS_SPECTROMETRY: MS_TYPE MS2
AC$MASS_SPECTROMETRY: ION_MODE POSITIVE
AC$MASS_SPECTROMETRY: IONIZATION ESI
AC$MASS_SPECTROMETRY: FRAGMENTATION_MODE CID
AC$MASS_SPECTROMETRY: COLLISION_ENERGY 20 eV
AC$MASS_SPECTROMETRY: RESOLUTION 35000
AC$CHROMATOGRAPHY: COLUMN_NAME Acclaim RSLC C18 2.2um, 2.1x100mm, Thermo
AC$CHROMATOGRAPHY: FLOW_GRADIENT 99/1 at 0-1 min, 61/39 at 3 min, 0.1/99.9 at 14-16 min, 99/1 at 16.1-20 min
AC$CHROMATOGRAPHY: FLOW_RATE 200 uL/min at 0-3 min, 400 uL/min at 14 min, 480 uL/min at 16-19 min, 200 uL/min at 19.1-20 min
AC$CHROMATOGRAPHY: RETENTION_TIME 8.690 min
AC$CHROMATOGRAPHY: SOLVENT A 90:10 water:methanol with 0.01% formic acid and 5mM ammonium formate
AC$CHROMATOGRAPHY: SOLVENT B methanol with 0.01% formic acid and 5mM ammonium formate
MS$FOCUSED_ION: BASE_PEAK 435.2174
MS$FOCUSED_ION: PRECURSOR_M/Z 435.2177
MS$FOCUSED_ION: PRECURSOR_TYPE [M+H]+
MS$DATA_PROCESSING: RECALIBRATE identity on assigned fragments and MS1
MS$DATA_PROCESSING: WHOLE RMassBank 2.10.1
PK$SPLASH: splash10-01p2-0289100000-9c23bcf7e9587f92b659
PK$ANNOTATION: m/z tentative_formula formula_count mass error(ppm)
  121.0639 C8H9O+ 2 121.0648 -7.17
  123.0795 C8H11O+ 2 123.0804 -7.75
  125.0587 C7H9O2+ 2 125.0597 -8.03
  131.0836 C10H11+ 2 131.0855 -14.74
  133.0637 C9H9O+ 2 133.0648 -8.49
  135.0794 C9H11O+ 2 135.0804 -7.99
  137.0582 C8H9O2+ 2 137.0597 -11.05
  139.0743 C8H11O2+ 2 139.0754 -7.57
  141.0537 C7H9O3+ 2 141.0546 -6.85
  143.084 C11H11+ 2 143.0855 -10.57
  145.0637 C10H9O+ 2 145.0648 -7.85
  147.0795 C10H11O+ 2 147.0804 -6.46
  148.0835 C9[13]CH11O+ 1 148.0843 -5.51
  151.0385 C8H7O3+ 2 151.039 -3.4
  151.0741 C9H11O2+ 2 151.0754 -8.52
  152.0769 C8[13]CH11O2+ 1 152.0793 -15.38
  153.0534 C8H9O3+ 2 153.0546 -8.21
  153.0897 C9H13O2+ 2 153.091 -8.54
  155.0688 C8H11O3+ 2 155.0703 -9.65
  159.0647 C7H11O4+ 2 159.0652 -2.92
  159.0796 C11H11O+ 2 159.0804 -5.24
  160.0827 C10[13]CH11O+ 1 160.0843 -10.55
  161.0588 C10H9O2+ 2 161.0597 -5.92
  161.0951 C11H13O+ 2 161.0961 -5.87
  162.0977 C10[13]CH13O+ 1 162.1 -14.04
  163.0739 C10H11O2+ 2 163.0754 -9.01
  169.0628 C12H9O+ 2 169.0648 -11.82
  169.0835 C9H13O3+ 2 169.0859 -14.6
  171.0793 C12H11O+ 2 171.0804 -6.92
  172.0828 C11[13]CH11O+ 1 172.0843 -8.76
  173.0946 C12H13O+ 2 173.0961 -8.63
  174.0986 C11[13]CH13O+ 1 174.1 -7.92
  175.0755 C11H11O2+ 2 175.0754 1.09
  175.1101 C12H15O+ 2 175.1117 -9.15
  177.0899 C11H13O2+ 2 177.091 -5.98
  179.0693 C10H11O3+ 2 179.0703 -5.6
  181.0855 C10H13O3+ 2 181.0859 -2.37
  183.0788 C13H11O+ 2 183.0804 -8.71
  185.0595 C12H9O2+ 2 185.0597 -1
  185.0949 C13H13O+ 2 185.0961 -6.22
  186.0981 C12[13]CH13O+ 1 186.1 -10.35
  187.0742 C12H11O2+ 2 187.0754 -6.27
  187.1111 C13H15O+ 2 187.1117 -3.44
  188.0775 C11[13]CH11O2+ 1 188.0793 -9.37
  189.0889 C12H13O2+ 2 189.091 -10.94
  195.0801 C14H11O+ 2 195.0804 -1.99
  197.0956 C14H13O+ 2 197.0961 -2.75
  197.1316 C15H17+ 2 197.1325 -4.42
  198.0984 C13[13]CH13O+ 1 198.1 -8.06
  199.1105 C14H15O+ 2 199.1117 -6.01
  200.115 C13[13]CH15O+ 1 200.1156 -3.41
  201.0903 C13H13O2+ 2 201.091 -3.5
  203.1046 C13H15O2+ 2 203.1067 -10.03
  207.114 C16H15+ 2 207.1168 -13.73
  209.0949 C15H13O+ 2 209.0961 -5.75
  210.1014 C14[13]CH13O+ 1 210.1 6.8
  211.1105 C15H15O+ 2 211.1117 -6.04
  212.1151 C14[13]CH15O+ 1 212.1156 -2.37
  213.0895 C14H13O2+ 2 213.091 -7.21
  213.1268 C15H17O+ 2 213.1274 -2.78
  214.1301 C14[13]CH17O+ 1 214.1313 -5.65
  215.1054 C14H15O2+ 2 215.1067 -6.06
  215.1424 C15H19O+ 2 215.143 -2.93
  216.146 C14[13]CH19O+ 1 216.1469 -4.35
  219.1153 C17H15+ 2 219.1168 -7.09
  221.095 C16H13O+ 2 221.0961 -4.91
  221.1309 C17H17+ 2 221.1325 -7.06
  223.1112 C16H15O+ 2 223.1117 -2.58
  224.1162 C15[13]CH15O+ 1 224.1156 2.39
  225.1267 C16H17O+ 2 225.1274 -3.25
  226.1299 C15[13]CH17O+ 1 226.1313 -6.25
  227.106 C15H15O2+ 2 227.1067 -2.78
  227.1418 C16H19O+ 2 227.143 -5.26
  229.1206 C15H17O2+ 2 229.1223 -7.48
  231.1009 C14H15O3+ 2 231.1016 -3.05
  233.0948 C17H13O+ 2 233.0961 -5.47
  235.1112 C14H16FO2+ 2 235.1129 -7.15
  235.1473 C18H19+ 2 235.1481 -3.5
  236.1166 C13[13]CH16FO2+ 1 236.1168 -0.95
  237.0905 C16H13O2+ 2 237.091 -2.17
  237.1272 C17H17O+ 2 237.1274 -0.81
  238.1293 C16[13]CH17O+ 1 238.1313 -8.4
  239.1071 C16H15O2+ 2 239.1067 1.76
  239.1423 C17H19O+ 2 239.143 -3.26
  240.1476 C16[13]CH19O+ 1 240.1469 2.87
  241.1217 C16H17O2+ 2 241.1223 -2.67
  241.1587 C17H21O+ 3 241.1587 0.22
  242.1265 C15[13]CH17O2+ 1 242.1262 1.31
  243.1024 C12H16FO4+ 2 243.1027 -1.14
  243.1368 C16H19O2+ 2 243.138 -4.92
  244.1411 C15[13]CH19O2+ 1 244.1419 -3.29
  245.1325 C19H17+ 3 245.1325 -0.11
  247.111 C18H15O+ 2 247.1117 -2.93
  247.1475 C19H19+ 2 247.1481 -2.4
  249.1269 C18H17O+ 2 249.1274 -2
  250.1314 C17[13]CH17O+ 1 250.1313 0.52
  251.106 C17H15O2+ 2 251.1067 -2.6
  251.1426 C18H19O+ 2 251.143 -1.88
  252.1463 C17[13]CH19O+ 1 252.1469 -2.75
  253.1218 C17H17O2+ 2 253.1223 -1.85
  253.1583 C18H21O+ 3 253.1587 -1.57
  254.1256 C16[13]CH17O2+ 1 254.1262 -2.53
  254.1618 C17[13]CH21O+ 1 254.1626 -3.16
  255.138 C14H20FO3+ 2 255.1391 -4.38
  255.1723 C18H23O+ 2 255.1743 -8
  256.1438 C13[13]CH20FO3+ 1 256.143 3.19
  257.1177 C16H17O3+ 2 257.1172 1.87
  257.1308 C20H17+ 2 257.1325 -6.6
  257.1518 C17H21O2+ 2 257.1536 -6.85
  259.111 C19H15O+ 2 259.1117 -2.88
  260.1174 C19H16O+ 2 260.1196 -8.18
  261.1267 C19H17O+ 2 261.1274 -2.82
  262.1314 C19H18O+ 2 262.1352 -14.73
  263.1424 C19H19O+ 3 263.143 -2.27
  264.146 C18[13]CH19O+ 1 264.1469 -3.39
  265.1213 C18H17O2+ 2 265.1223 -3.91
  265.1583 C19H21O+ 3 265.1587 -1.43
  266.1621 C18[13]CH21O+ 1 266.1626 -1.69
  267.1375 C18H19O2+ 2 267.138 -1.82
  268.1423 C17[13]CH19O2+ 1 268.1419 1.71
  269.1169 C17H17O3+ 2 269.1172 -1.17
  269.1518 C18H21O2+ 2 269.1536 -6.64
  270.1559 C17[13]CH21O2+ 1 270.1575 -6.09
  271.1318 C17H19O3+ 2 271.1329 -3.89
  273.127 C20H17O+ 3 273.1274 -1.53
  274.1311 C19[13]CH17O+ 1 274.1313 -0.67
  275.1426 C20H19O+ 3 275.143 -1.67
  276.1454 C19[13]CH19O+ 1 276.1469 -5.65
  277.1221 C19H17O2+ 2 277.1223 -0.78
  277.1576 C20H21O+ 2 277.1587 -4.09
  278.128 C19H18O2+ 2 278.1301 -7.58
  279.1378 C19H19O2+ 2 279.138 -0.58
  280.1425 C18[13]CH19O2+ 1 280.1419 2.16
  281.1533 C19H21O2+ 2 281.1536 -1.16
  282.157 C18[13]CH21O2+ 1 282.1575 -1.69
  283.1334 C18H19O3+ 2 283.1329 1.7
  283.1682 C19H23O2+ 2 283.1693 -3.84
  284.1502 C22H20+ 2 284.156 -20.09
  284.1713 C18[13]CH23O2+ 1 284.1732 -6.4
  285.1268 C21H17O+ 3 285.1274 -1.97
  291.1374 C20H19O2+ 2 291.138 -1.88
  292.1419 C19[13]CH19O2+ 1 292.1419 0.11
  293.1535 C20H21O2+ 2 293.1536 -0.44
  294.1561 C19[13]CH21O2+ 1 294.1575 -4.67
  295.1327 C16H20FO4+ 2 295.134 -4.37
  296.1378 C15[13]CH20FO4+ 1 296.1379 -0.38
  297.1481 C19H21O3+ 2 297.1485 -1.41
  298.1519 C18[13]CH21O3+ 1 298.1524 -1.8
  299.1455 C19H20FO2+ 3 299.1442 4.42
  299.1618 C19H23O3+ 2 299.1642 -7.98
  301.1587 C22H21O+ 3 301.1587 -0.11
  301.18 C19H25O3+ 2 301.1798 0.45
  303.1378 C21H19O2+ 2 303.138 -0.47
  304.1414 C20[13]CH19O2+ 1 304.1419 -1.56
  309.1479 C20H21O3+ 2 309.1485 -1.93
  310.1511 C19[13]CH21O3+ 1 310.1524 -4.19
  311.1642 C20H23O3+ 2 311.1642 0.02
  312.1671 C19[13]CH23O3+ 1 312.1681 -3.11
  313.1622 C23H21O+ 3 313.1587 11.25
  314.1632 C22[13]CH21O+ 1 314.1626 1.89
  315.1551 C19H23O4+ 3 315.1591 -12.8
  315.1642 C16H24FO5+ 2 315.1602 12.45
  321.1483 C21H21O3+ 2 321.1485 -0.62
  322.1509 C20[13]CH21O3+ 1 322.1524 -4.66
  323.1502 C19[13]C2H21O3+ 1 323.1558 -17.29
  325.1421 C20H21O4+ 3 325.1434 -3.96
  327.1588 C20H23O4+ 3 327.1591 -1
  328.1612 C19[13]CH23O4+ 1 328.163 -5.48
  329.1741 C20H25O4+ 3 329.1747 -1.98
  330.177 C19[13]CH25O4+ 1 330.1786 -4.82
  331.1735 C20H24FO3+ 2 331.1704 9.34
  337.1432 C21H21O4+ 2 337.1434 -0.73
  339.1591 C21H23O4+ 2 339.1591 -0.06
  340.162 C20[13]CH23O4+ 1 340.163 -2.84
  341.1578 C21H22FO3+ 2 341.1547 8.95
  342.1582 C20[13]CH22FO3+ 1 342.1587 -1.41
  343.1532 C20H23O5+ 3 343.154 -2.37
  344.1572 C19[13]CH23O5+ 1 344.1579 -2.11
  351.1958 C23H27O3+ 2 351.1955 0.85
  355.152 C21H23O5+ 2 355.154 -5.71
  357.1697 C21H25O5+ 2 357.1697 0.05
  358.1725 C20[13]CH25O5+ 1 358.1736 -2.98
  359.1686 C24H23O3+ 2 359.1642 12.28
  360.1686 C23[13]CH23O3+ 1 360.1681 1.51
  361.1799 C24H25O3+ 2 361.1798 0.13
  369.2102 C20H30FO5+ 2 369.2072 8.11
  379.1899 C24H27O4+ 2 379.1904 -1.38
  380.1942 C23[13]CH27O4+ 1 380.1943 -0.32
  397.2012 C24H29O5+ 2 397.201 0.74
  398.2044 C23[13]CH29O5+ 1 398.2049 -1.09
  399.2062 C22[13]C2H29O5+ 1 399.2082 -4.99
  415.2117 C24H31O6+ 1 415.2115 0.4
  416.2146 C23[13]CH31O6+ 1 416.2154 -2.05
  417.2156 C22[13]C2H31O6+ 1 417.2188 -7.5
  435.2174 C24H32FO6+ 1 435.2177 -0.88
  436.2217 C23[13]CH32FO6+ 1 436.2216 0.16
PK$NUM_PEAK: 196
PK$PEAK: m/z int. rel.int.
  121.0639 4160 24
  123.0795 1548 9
  125.0587 2056 12
  131.0836 992 5
  133.0637 3624 21
  135.0794 5716 34
  137.0582 3004 17
  139.0743 2604 15
  141.0537 1828 10
  143.084 1000 5
  145.0637 1624 9
  147.0795 29004 173
  148.0835 2396 14
  151.0385 1452 8
  151.0741 10536 62
  152.0769 976 5
  153.0534 3360 20
  153.0897 2280 13
  155.0688 4976 29
  159.0647 1820 10
  159.0796 8984 53
  160.0827 1280 7
  161.0588 3348 20
  161.0951 13808 82
  162.0977 1628 9
  163.0739 3024 18
  169.0628 1828 10
  169.0835 1464 8
  171.0793 11476 68
  172.0828 1772 10
  173.0946 10724 64
  174.0986 1600 9
  175.0755 1236 7
  175.1101 896 5
  177.0899 960 5
  179.0693 4604 27
  181.0855 1416 8
  183.0788 1224 7
  185.0595 1260 7
  185.0949 10424 62
  186.0981 1692 10
  187.0742 16284 97
  187.1111 2592 15
  188.0775 2600 15
  189.0889 1452 8
  195.0801 936 5
  197.0956 6428 38
  197.1316 3528 21
  198.0984 1164 6
  199.1105 7508 44
  200.115 1036 6
  201.0903 1728 10
  203.1046 2132 12
  207.114 1348 8
  209.0949 4244 25
  210.1014 1028 6
  211.1105 9560 57
  212.1151 2016 12
  213.0895 2920 17
  213.1268 57152 341
  214.1301 8508 50
  215.1054 2120 12
  215.1424 6648 39
  216.146 988 5
  219.1153 868 5
  221.095 1908 11
  221.1309 2140 12
  223.1112 22756 136
  224.1162 6144 36
  225.1267 46016 275
  226.1299 7276 43
  227.106 2272 13
  227.1418 5176 30
  229.1206 992 5
  231.1009 1216 7
  233.0948 1068 6
  235.1112 9248 55
  235.1473 1852 11
  236.1166 1900 11
  237.0905 1436 8
  237.1272 16436 98
  238.1293 3968 23
  239.1071 2248 13
  239.1423 14536 86
  240.1476 3004 17
  241.1217 14388 86
  241.1587 1216 7
  242.1265 2876 17
  243.1024 884 5
  243.1368 7092 42
  244.1411 1196 7
  245.1325 1628 9
  247.111 2064 12
  247.1475 1532 9
  249.1269 7296 43
  250.1314 2196 13
  251.106 3212 19
  251.1426 12164 72
  252.1463 3456 20
  253.1218 17404 104
  253.1583 25140 150
  254.1256 2688 16
  254.1618 5240 31
  255.138 4432 26
  255.1723 1028 6
  256.1438 872 5
  257.1177 1116 6
  257.1308 1244 7
  257.1518 1208 7
  259.111 2172 12
  260.1174 1464 8
  261.1267 11616 69
  262.1314 4476 26
  263.1424 34512 206
  264.146 6788 40
  265.1213 3272 19
  265.1583 15652 93
  266.1621 2716 16
  267.1375 5776 34
  268.1423 1480 8
  269.1169 3016 18
  269.1518 5540 33
  270.1559 856 5
  271.1318 932 5
  273.127 2468 14
  274.1311 840 5
  275.1426 28356 169
  276.1454 5852 34
  277.1221 4656 27
  277.1576 2028 12
  278.128 2696 16
  279.1378 28744 171
  280.1425 7976 47
  281.1533 33208 198
  282.157 6724 40
  283.1334 2544 15
  283.1682 15116 90
  284.1502 912 5
  284.1713 3328 19
  285.1268 2120 12
  291.1374 9928 59
  292.1419 2104 12
  293.1535 60956 364
  294.1561 14080 84
  295.1327 6668 39
  296.1378 1976 11
  297.1481 18636 111
  298.1519 3940 23
  299.1455 1568 9
  299.1618 3160 18
  301.1587 2008 12
  301.18 1344 8
  303.1378 21416 128
  304.1414 5232 31
  309.1479 10812 64
  310.1511 3004 17
  311.1642 78584 469
  312.1671 17296 103
  313.1622 3492 20
  314.1632 948 5
  315.1551 1208 7
  315.1642 1008 6
  321.1483 85364 510
  322.1509 16964 101
  323.1502 2908 17
  325.1421 1228 7
  327.1588 5176 30
  328.1612 1344 8
  329.1741 12880 76
  330.177 3324 19
  331.1735 1592 9
  337.1432 980 5
  339.1591 165428 988
  340.162 34728 207
  341.1578 7884 47
  342.1582 1548 9
  343.1532 4848 28
  344.1572 984 5
  351.1958 1256 7
  355.152 1760 10
  357.1697 76796 459
  358.1725 18868 112
  359.1686 4736 28
  360.1686 1240 7
  361.1799 1424 8
  369.2102 1116 6
  379.1899 3344 19
  380.1942 952 5
  397.2012 167120 999
  398.2044 45072 269
  399.2062 6296 37
  415.2117 73100 436
  416.2146 20212 120
  417.2156 4020 24
  435.2174 8196 48
  436.2217 2116 12
//
