ACCESSION: MSBNK-Athens_Univ-AU239201
RECORD_TITLE: Estriol; LC-ESI-QTOF; MS2; CE: 10 eV; R=35000; [M+H]+
DATE: 2019.05.31
AUTHORS: Nikiforos Alygizakis, Katerina Galani, Nikolaos Thomaidis, University of Athens
LICENSE: CC BY
COPYRIGHT: Copyright (C) 2019 Department of Chemistry, University of Athens
COMMENT: CONFIDENCE standard compound
COMMENT: INTERNAL_ID 2392
CH$NAME: Estriol
CH$NAME: (8R,9S,13S,14S,16R,17R)-13-methyl-6,7,8,9,11,12,14,15,16,17-decahydrocyclopenta[a]phenanthrene-3,16,17-triol
CH$COMPOUND_CLASS: N/A; Environmental Standard
CH$FORMULA: C18H24O3
CH$EXACT_MASS: 288.1725446
CH$SMILES: C[C@]12CC[C@H]3[C@@H](CCC4=C3C=CC(O)=C4)[C@@H]1C[C@@H](O)[C@@H]2O
CH$IUPAC: InChI=1S/C18H24O3/c1-18-7-6-13-12-5-3-11(19)8-10(12)2-4-14(13)15(18)9-16(20)17(18)21/h3,5,8,13-17,19-21H,2,4,6-7,9H2,1H3/t13-,14-,15+,16-,17+,18+/m1/s1
CH$LINK: CAS 50-27-1
CH$LINK: CHEBI CHEBI:27974
CH$LINK: KEGG D00185
CH$LINK: LIPIDMAPS LMST02010003
CH$LINK: PUBCHEM CID:5756
CH$LINK: INCHIKEY PROQIPRRNZUXQM-ZXXIGWHRSA-N
CH$LINK: CHEMSPIDER 5553
CH$LINK: COMPTOX DTXSID9022366
AC$INSTRUMENT: Bruker maXis Impact
AC$INSTRUMENT_TYPE: LC-ESI-QTOF
AC$MASS_SPECTROMETRY: MS_TYPE MS2
AC$MASS_SPECTROMETRY: ION_MODE POSITIVE
AC$MASS_SPECTROMETRY: IONIZATION ESI
AC$MASS_SPECTROMETRY: FRAGMENTATION_MODE CID
AC$MASS_SPECTROMETRY: COLLISION_ENERGY 10 eV
AC$MASS_SPECTROMETRY: RESOLUTION 35000
AC$CHROMATOGRAPHY: COLUMN_NAME Acclaim RSLC C18 2.2um, 2.1x100mm, Thermo
AC$CHROMATOGRAPHY: FLOW_GRADIENT 99/1 at 0-1 min, 61/39 at 3 min, 0.1/99.9 at 14-16 min, 99/1 at 16.1-20 min
AC$CHROMATOGRAPHY: FLOW_RATE 200 uL/min at 0-3 min, 400 uL/min at 14 min, 480 uL/min at 16-19 min, 200 uL/min at 19.1-20 min
AC$CHROMATOGRAPHY: RETENTION_TIME 6.750 min
AC$CHROMATOGRAPHY: SOLVENT A 90:10 water:methanol with 0.01% formic acid and 5mM ammonium formate
AC$CHROMATOGRAPHY: SOLVENT B methanol with 0.01% formic acid and 5mM ammonium formate
MS$FOCUSED_ION: BASE_PEAK 306.2058
MS$FOCUSED_ION: PRECURSOR_M/Z 289.1798
MS$FOCUSED_ION: PRECURSOR_TYPE [M+H]+
MS$DATA_PROCESSING: RECALIBRATE identity on assigned fragments and MS1
MS$DATA_PROCESSING: WHOLE RMassBank 2.10.1
PK$SPLASH: splash10-000i-0090000000-3aa436f48e23664bd455
PK$ANNOTATION: m/z tentative_formula formula_count mass error(ppm)
  288.1715 C18H24O3+ 1 288.172 -1.61
  289.1776 C18H25O3+ 1 289.1798 -7.64
PK$NUM_PEAK: 2
PK$PEAK: m/z int. rel.int.
  288.1715 404 317
  289.1776 1272 999
//
