ACCESSION: MSBNK-Athens_Univ-AU228302
RECORD_TITLE: Cotinine; LC-ESI-QTOF; MS2; CE: 20 eV; R=35000; [M+H]+
DATE: 2018.12.19
AUTHORS: Nikiforos Alygizakis, Katerina Galani, Nikolaos Thomaidis, University of Athens
LICENSE: CC BY
COPYRIGHT: Copyright (C) 2018 Department of Chemistry, University of Athens
COMMENT: CONFIDENCE standard compound
COMMENT: INTERNAL_ID 2283
CH$NAME: Cotinine
CH$NAME: (5S)-1-methyl-5-pyridin-3-ylpyrrolidin-2-one
CH$COMPOUND_CLASS: N/A; Environmental Standard
CH$FORMULA: C10H12N2O
CH$EXACT_MASS: 176.0949630
CH$SMILES: CN1[C@@H](CCC1=O)c2cccnc2
CH$IUPAC: InChI=1S/C10H12N2O/c1-12-9(4-5-10(12)13)8-3-2-6-11-7-8/h2-3,6-7,9H,4-5H2,1H3/t9-/m0/s1
CH$LINK: CAS 486-56-6
CH$LINK: CHEBI CHEBI:68641
CH$LINK: PUBCHEM CID:854019
CH$LINK: INCHIKEY UIKROCXWUNQSPJ-VIFPVBQESA-N
CH$LINK: CHEMSPIDER 746405
CH$LINK: COMPTOX DTXSID1047576
AC$INSTRUMENT: Bruker maXis Impact
AC$INSTRUMENT_TYPE: LC-ESI-QTOF
AC$MASS_SPECTROMETRY: MS_TYPE MS2
AC$MASS_SPECTROMETRY: ION_MODE POSITIVE
AC$MASS_SPECTROMETRY: IONIZATION ESI
AC$MASS_SPECTROMETRY: FRAGMENTATION_MODE CID
AC$MASS_SPECTROMETRY: COLLISION_ENERGY 20 eV
AC$MASS_SPECTROMETRY: RESOLUTION 35000
AC$CHROMATOGRAPHY: COLUMN_NAME Acclaim RSLC C18 2.2um, 2.1x100mm, Thermo
AC$CHROMATOGRAPHY: FLOW_GRADIENT 99/1 at 0-1 min, 61/39 at 3 min, 0.1/99.9 at 14-16 min, 99/1 at 16.1-20 min
AC$CHROMATOGRAPHY: FLOW_RATE 200 uL/min at 0-3 min, 400 uL/min at 14 min, 480 uL/min at 16-19 min, 200 uL/min at 19.1-20 min
AC$CHROMATOGRAPHY: RETENTION_TIME 3.648 min
AC$CHROMATOGRAPHY: SOLVENT A 90:10 water:methanol with 0.01% formic acid and 5mM ammonium formate
AC$CHROMATOGRAPHY: SOLVENT B methanol with 0.01% formic acid and 5mM ammonium formate
MS$FOCUSED_ION: BASE_PEAK 177.1016
MS$FOCUSED_ION: PRECURSOR_M/Z 177.1022
MS$FOCUSED_ION: PRECURSOR_TYPE [M+H]+
MS$DATA_PROCESSING: RECALIBRATE identity on assigned fragments and MS1
MS$DATA_PROCESSING: WHOLE RMassBank 2.10.0
PK$SPLASH: splash10-004i-0900000000-8196687a3d565b252913
PK$ANNOTATION: m/z tentative_formula formula_count mass error(ppm)
  118.064 C8H8N+ 1 118.0651 -9.55
  120.0797 C8H10N+ 1 120.0808 -8.88
  146.0588 C9H8NO+ 1 146.06 -8.48
  149.0698 C8H9N2O+ 1 149.0709 -7.31
  159.0904 C10H11N2+ 1 159.0917 -8.21
  177.1013 C10H13N2O+ 1 177.1022 -5.25
  178.1045 C9[13]CH13N2O+ 1 178.1061 -9.36
PK$NUM_PEAK: 7
PK$PEAK: m/z int. rel.int.
  118.064 18668 11
  120.0797 11308 6
  146.0588 70184 42
  149.0698 15564 9
  159.0904 9068 5
  177.1013 1663948 999
  178.1045 128828 77
//
