ACCESSION: MSBNK-Athens_Univ-AU115202
RECORD_TITLE: Meloxicam; LC-ESI-QTOF; MS2; CE: 20 eV; R=35000; [M+H]+
DATE: 2015.09.23
AUTHORS: Nikiforos Alygizakis, Anna Bletsou, Nikolaos Thomaidis, University of Athens
LICENSE: CC BY-SA
COPYRIGHT: Copyright (C) 2015 Department of Chemistry, University of Athens
COMMENT: CONFIDENCE standard compound
COMMENT: INTERNAL_ID 1152
CH$NAME: Meloxicam
CH$NAME: 4-hydroxy-2-methyl-N-(5-methyl-1,3-thiazol-2-yl)-1,1-dioxo-1$l^{6},2-benzothiazine-3-carboxamide
CH$COMPOUND_CLASS: N/A; Environmental Standard
CH$FORMULA: C14H13N3O4S2
CH$EXACT_MASS: 351.0347479
CH$SMILES: Cc1cnc(s1)/N=C(/C2=C(c3ccccc3S(=O)(=O)N2C)O)\O
CH$IUPAC: InChI=1S/C14H13N3O4S2/c1-8-7-15-14(22-8)16-13(19)11-12(18)9-5-3-4-6-10(9)23(20,21)17(11)2/h3-7,18H,1-2H3,(H,15,16,19)
CH$LINK: CAS 133687-22-6
CH$LINK: KEGG C08169
CH$LINK: PUBCHEM CID:54677470
CH$LINK: INCHIKEY ZRVUJXDFFKFLMG-UHFFFAOYSA-N
CH$LINK: CHEMSPIDER 10442740
CH$LINK: COMPTOX DTXSID1020803
AC$INSTRUMENT: Bruker maXis Impact
AC$INSTRUMENT_TYPE: LC-ESI-QTOF
AC$MASS_SPECTROMETRY: MS_TYPE MS2
AC$MASS_SPECTROMETRY: ION_MODE POSITIVE
AC$MASS_SPECTROMETRY: IONIZATION ESI
AC$MASS_SPECTROMETRY: FRAGMENTATION_MODE CID
AC$MASS_SPECTROMETRY: COLLISION_ENERGY 20 eV
AC$MASS_SPECTROMETRY: RESOLUTION 35000
AC$CHROMATOGRAPHY: COLUMN_NAME Acclaim RSLC C18 2.2um, 2.1x100mm, Thermo
AC$CHROMATOGRAPHY: FLOW_GRADIENT 99/1 at 0-1 min, 61/39 at 3 min, 0.1/99.9 at 14-16 min, 99/1 at 16.1-20 min
AC$CHROMATOGRAPHY: FLOW_RATE 200 uL/min at 0-3 min, 400 uL/min at 14 min, 480 uL/min at 16-19 min, 200 uL/min at 19.1-20 min
AC$CHROMATOGRAPHY: RETENTION_TIME 7.3 min
AC$CHROMATOGRAPHY: SOLVENT A water with 0.01% formic acid and 5mM ammonium formate
AC$CHROMATOGRAPHY: SOLVENT B 90:10 water:methanol with 0.01% formic acid and 5mM ammonium formate
MS$FOCUSED_ION: BASE_PEAK 352.0309
MS$FOCUSED_ION: PRECURSOR_M/Z 352.042
MS$FOCUSED_ION: PRECURSOR_TYPE [M+H]+
MS$DATA_PROCESSING: RECALIBRATE identity on assigned fragments and MS1
MS$DATA_PROCESSING: REANALYZE Peaks with additional N2/O included
MS$DATA_PROCESSING: WHOLE RMassBank 2.0.2
PK$SPLASH: splash10-00kf-0901000000-0d362af6b48e1604f3c0
PK$ANNOTATION: m/z tentative_formula formula_count mass error(ppm)
  115.028 C7H3N2+ 5 115.0291 -9.42
  116.0298 C5H8OS+ 6 116.029 6.75
  141.0059 C5H3NO4+ 6 141.0057 1.66
  142.0079 C6H6O2S+ 8 142.0083 -2.54
  184.0477 C7H8N2O4+ 8 184.0479 -0.74
  194.02 C7H4N3O4+ 9 194.0196 1.72
  352.0386 C14H14N3O4S2+ 1 352.042 -9.66
PK$NUM_PEAK: 7
PK$PEAK: m/z int. rel.int.
  115.028 6528 732
  116.0298 520 58
  141.0059 8900 999
  142.0079 668 74
  184.0477 1164 130
  194.02 488 54
  352.0386 3072 344
//
