ACCESSION: MSBNK-Athens_Univ-AU236706
RECORD_TITLE: Ethylparaben; LC-ESI-QTOF; MS2; CE: Ramp 16.8-25.2 eV; R=35000; [M+H]+
DATE: 2019.05.30
AUTHORS: Nikiforos Alygizakis, Katerina Galani, Nikolaos Thomaidis, University of Athens
LICENSE: CC BY
COPYRIGHT: Copyright (C) 2019 Department of Chemistry, University of Athens
COMMENT: CONFIDENCE standard compound
COMMENT: INTERNAL_ID 2367
CH$NAME: Ethylparaben
CH$NAME: ethyl 4-hydroxybenzoate
CH$COMPOUND_CLASS: N/A; Environmental Standard
CH$FORMULA: C9H10O3
CH$EXACT_MASS: 166.0629942
CH$SMILES: CCOC(=O)C1=CC=C(O)C=C1
CH$IUPAC: InChI=1S/C9H10O3/c1-2-12-9(11)7-3-5-8(10)6-4-7/h3-6,10H,2H2,1H3
CH$LINK: CAS 121-58-4
CH$LINK: CHEBI CHEBI:31575
CH$LINK: KEGG D01647
CH$LINK: PUBCHEM CID:8434
CH$LINK: INCHIKEY NUVBSKCKDOMJSU-UHFFFAOYSA-N
CH$LINK: CHEMSPIDER 13846749
CH$LINK: COMPTOX DTXSID9022528
AC$INSTRUMENT: Bruker maXis Impact
AC$INSTRUMENT_TYPE: LC-ESI-QTOF
AC$MASS_SPECTROMETRY: MS_TYPE MS2
AC$MASS_SPECTROMETRY: ION_MODE POSITIVE
AC$MASS_SPECTROMETRY: IONIZATION ESI
AC$MASS_SPECTROMETRY: FRAGMENTATION_MODE CID
AC$MASS_SPECTROMETRY: COLLISION_ENERGY Ramp 16.8-25.2 eV
AC$MASS_SPECTROMETRY: RESOLUTION 35000
AC$CHROMATOGRAPHY: COLUMN_NAME Acclaim RSLC C18 2.2um, 2.1x100mm, Thermo
AC$CHROMATOGRAPHY: FLOW_GRADIENT 99/1 at 0-1 min, 61/39 at 3 min, 0.1/99.9 at 14-16 min, 99/1 at 16.1-20 min
AC$CHROMATOGRAPHY: FLOW_RATE 200 uL/min at 0-3 min, 400 uL/min at 14 min, 480 uL/min at 16-19 min, 200 uL/min at 19.1-20 min
AC$CHROMATOGRAPHY: RETENTION_TIME 7.125 min
AC$CHROMATOGRAPHY: SOLVENT A 90:10 water:methanol with 0.01% formic acid and 5mM ammonium formate
AC$CHROMATOGRAPHY: SOLVENT B methanol with 0.01% formic acid and 5mM ammonium formate
MS$FOCUSED_ION: BASE_PEAK 102.1286
MS$FOCUSED_ION: PRECURSOR_M/Z 167.0703
MS$FOCUSED_ION: PRECURSOR_TYPE [M+H]+
MS$DATA_PROCESSING: RECALIBRATE identity on assigned fragments and MS1
MS$DATA_PROCESSING: WHOLE RMassBank 2.10.1
PK$SPLASH: splash10-0079-0900000000-d5c5422f42eed6998999
PK$ANNOTATION: m/z tentative_formula formula_count mass error(ppm)
  53.0391 C4H5+ 1 53.0386 9.17
  59.0485 C3H7O+ 1 59.0491 -10.34
  95.0501 C6H7O+ 1 95.0491 9.99
  121.0278 C7H5O2+ 1 121.0284 -5.01
  122.0298 C6[13]CH5O2+ 1 122.0323 -20.6
  139.0381 C7H7O3+ 1 139.039 -6.44
  140.0412 C6[13]CH7O3+ 1 140.0429 -12
PK$NUM_PEAK: 7
PK$PEAK: m/z int. rel.int.
  53.0391 388 24
  59.0485 348 21
  95.0501 1508 94
  121.0278 11948 752
  122.0298 756 47
  139.0381 15872 999
  140.0412 1204 75
//
