ACCESSION: MSBNK-Athens_Univ-AU510456
RECORD_TITLE: 3-Perfluoroheptyl propanoic acid (7:3) (FHpPA); LC-ESI-QTOF; MS2; CE: 24.4-36.6 eV; R=35000; [M-H]-
DATE: 2023.04.25
AUTHORS: Konstantina Diamanti, Georgios Gkotsis, Nikiforos Alygizakis, Nikolaos Thomaidis
LICENSE: CC BY
COPYRIGHT: Copyright (C) 2023 Department of Chemistry, University of Athens
COMMENT: CONFIDENCE standard compound
COMMENT: INTERNAL_ID 5104
CH$NAME: 3-Perfluoroheptyl propanoic acid (7:3) (FHpPA)
CH$COMPOUND_CLASS: N/A; Environmental Standard
CH$FORMULA: C10H5F15O2
CH$EXACT_MASS: 442.0050
CH$SMILES: C(CC(C(C(C(C(C(C(F)(F)F)(F)F)(F)F)(F)F)(F)F)(F)F)(F)F)C(=O)O
CH$IUPAC: InChI=1S/C10H5F15O2/c11-4(12,2-1-3(26)27)5(13,14)6(15,16)7(17,18)8(19,20)9(21,22)10(23,24)25/h1-2H2,(H,26,27)
CH$LINK: CAS 812-70-4
CH$LINK: PUBCHEM CID:2783376
CH$LINK: INCHIKEY HLBRGVKRZQSQHB-UHFFFAOYSA-N
CH$LINK: CHEMSPIDER 2063518
AC$INSTRUMENT: Bruker maXis Impact
AC$INSTRUMENT_TYPE: LC-ESI-QTOF
AC$MASS_SPECTROMETRY: MS_TYPE MS2
AC$MASS_SPECTROMETRY: MODE NEGATIVE
AC$MASS_SPECTROMETRY: IONIZATION ESI
AC$MASS_SPECTROMETRY: FRAGMENTATION_MODE CID
AC$MASS_SPECTROMETRY: COLLISION_ENERGY 24.4-36.6 eV
AC$MASS_SPECTROMETRY: RESOLUTION 35000
AC$MASS_SPECTROMETRY: MASS_RANGE_M/Z 50-1000
AC$CHROMATOGRAPHY: COLUMN_NAME Acclaim RSLC C18 2.2um, 2.1x100mm, Thermo
AC$CHROMATOGRAPHY: FLOW_GRADIENT 99/1 at 0-1 min, 61/39 at 3 min, 0.1/99.9 at 14-16 min, 99/1 at 16.1-20 min
AC$CHROMATOGRAPHY: FLOW_RATE 200 uL/min at 0-3 min, 400 uL/min at 14 min, 480 uL/min at 16-19 min, 200 uL/min at 19.1-20 min
AC$CHROMATOGRAPHY: RETENTION_TIME 10.632 min
MS$FOCUSED_ION: BASE_PEAK 59.0128
MS$FOCUSED_ION: PRECURSOR_M/Z 440.9977
MS$FOCUSED_ION: PRECURSOR_TYPE [M-H]-
MS$DATA_PROCESSING: RECALIBRATE identity on assigned fragments and MS1
MS$DATA_PROCESSING: WHOLE RMassBank 3.9.0
PK$SPLASH: splash10-014i-0019000000-8756163e1c656ade958f
PK$ANNOTATION: m/z tentative_formula formula_count mass error(ppm)
  266.9855 F14H- 5 266.986 -2.06
  316.9833 C9F11- 3 316.983 0.9
  317.9872 C9HF11- 3 317.9908 -11.38
  336.9856 C9HF12- 3 336.9892 -10.86
  336.9974 C3H3F14O2- 3 336.9915 17.58
PK$NUM_PEAK: 5
PK$PEAK: m/z int. rel.int.
  266.9855 1016 146
  316.9833 6936 999
  317.9872 336 48
  336.9856 476 68
  336.9974 476 68
//
