ACCESSION: MSBNK-Athens_Univ-AU240862
RECORD_TITLE: Lauric isopropanolamide; LC-ESI-QTOF; MS2; CE: Ramp 22.2-33.4 eV; R=35000; [M-H]-
DATE: 2019.03.29
AUTHORS: Nikiforos Alygizakis, Katerina Galani, Nikolaos Thomaidis, University of Athens
LICENSE: CC BY
COPYRIGHT: Copyright (C) 2019 Department of Chemistry, University of Athens
COMMENT: CONFIDENCE standard compound
COMMENT: INTERNAL_ID 2408
CH$NAME: Lauric isopropanolamide
CH$NAME: Dodecanamide, N-(2-hydroxypropyl)-
CH$NAME: N-(2-hydroxypropyl)dodecanamide
CH$COMPOUND_CLASS: N/A; Environmental Standard
CH$FORMULA: C15H31NO2
CH$EXACT_MASS: 257.2354792
CH$SMILES: CCCCCCCCCCCC(=O)NCC(C)O
CH$IUPAC: InChI=1S/C15H31NO2/c1-3-4-5-6-7-8-9-10-11-12-15(18)16-13-14(2)17/h14,17H,3-13H2,1-2H3,(H,16,18)
CH$LINK: CAS 142-54-1
CH$LINK: PUBCHEM CID:9903249
CH$LINK: INCHIKEY MMBILEWCGWTAOV-UHFFFAOYSA-N
CH$LINK: CHEMSPIDER 8078903
CH$LINK: COMPTOX DTXSID00861815
AC$INSTRUMENT: Bruker maXis Impact
AC$INSTRUMENT_TYPE: LC-ESI-QTOF
AC$MASS_SPECTROMETRY: MS_TYPE MS2
AC$MASS_SPECTROMETRY: ION_MODE NEGATIVE
AC$MASS_SPECTROMETRY: IONIZATION ESI
AC$MASS_SPECTROMETRY: FRAGMENTATION_MODE CID
AC$MASS_SPECTROMETRY: COLLISION_ENERGY Ramp 22.2-33.4 eV
AC$MASS_SPECTROMETRY: RESOLUTION 35000
AC$CHROMATOGRAPHY: COLUMN_NAME Acclaim RSLC C18 2.2um, 2.1x100mm, Thermo
AC$CHROMATOGRAPHY: FLOW_GRADIENT 99/1 at 0-1 min, 61/39 at 3 min, 0.1/99.9 at 14-16 min, 99/1 at 16.1-20 min
AC$CHROMATOGRAPHY: FLOW_RATE 200 uL/min at 0-3 min, 400 uL/min at 14 min, 480 uL/min at 16-19 min, 200 uL/min at 19.1-20 min
AC$CHROMATOGRAPHY: RETENTION_TIME 12.039 min
AC$CHROMATOGRAPHY: SOLVENT A 90:10 water:methanol with 5mM ammonium acetate
AC$CHROMATOGRAPHY: SOLVENT B methanol with 5mM ammonium acetate
MS$FOCUSED_ION: BASE_PEAK 59.0134
MS$FOCUSED_ION: PRECURSOR_M/Z 256.2282
MS$FOCUSED_ION: PRECURSOR_TYPE [M-H]-
MS$DATA_PROCESSING: RECALIBRATE identity on assigned fragments and MS1
MS$DATA_PROCESSING: WHOLE RMassBank 2.10.0
PK$SPLASH: splash10-0gw4-0290000000-b51d965cd221573339e0
PK$ANNOTATION: m/z tentative_formula formula_count mass error(ppm)
  198.1857 C12H24NO- 1 198.1863 -3.27
  212.2004 C13H26NO- 1 212.202 -7.54
  238.2224 C15H28NO- 1 238.2176 19.79
  240.1928 C14H26NO2- 1 240.1969 -16.99
  254.2083 C15H28NO2- 1 254.2126 -16.79
PK$NUM_PEAK: 5
PK$PEAK: m/z int. rel.int.
  198.1857 352 806
  212.2004 388 889
  238.2224 436 999
  240.1928 324 742
  254.2083 304 696
//
