ACCESSION: MSBNK-Athens_Univ-AU509754
RECORD_TITLE: 2H-Perfluoro-2-octenoic acid (6:2) (FHUEA); LC-ESI-QTOF; MS2; CE: 40 eV; R=35000; [M-H]-
DATE: 2023.04.25
AUTHORS: Konstantina Diamanti, Georgios Gkotsis, Nikiforos Alygizakis, Nikolaos Thomaidis
LICENSE: CC BY
COPYRIGHT: Copyright (C) 2023 Department of Chemistry, University of Athens
COMMENT: CONFIDENCE standard compound
COMMENT: INTERNAL_ID 5097
CH$NAME: 2H-Perfluoro-2-octenoic acid (6:2) (FHUEA)
CH$NAME: 2H-Perfluoro-2-octenoic acid
CH$NAME: (Z)-3,4,4,5,5,6,6,7,7,8,8,8-dodecafluorooct-2-enoic acid
CH$COMPOUND_CLASS: N/A; Environmental Standard
CH$FORMULA: C8H2F12O2
CH$EXACT_MASS: 357.9863
CH$SMILES: C(=C(/C(C(C(C(C(F)(F)F)(F)F)(F)F)(F)F)(F)F)\F)\C(=O)O
CH$IUPAC: InChI=1S/C8H2F12O2/c9-2(1-3(21)22)4(10,11)5(12,13)6(14,15)7(16,17)8(18,19)20/h1H,(H,21,22)/b2-1-
CH$LINK: CAS 70887-88-6
CH$LINK: CHEBI 83494
CH$LINK: PUBCHEM CID:86290106
CH$LINK: INCHIKEY BKOBFLVYTXYFQZ-UPHRSURJSA-N
CH$LINK: CHEMSPIDER 95762037
AC$INSTRUMENT: Bruker maXis Impact
AC$INSTRUMENT_TYPE: LC-ESI-QTOF
AC$MASS_SPECTROMETRY: MS_TYPE MS2
AC$MASS_SPECTROMETRY: MODE NEGATIVE
AC$MASS_SPECTROMETRY: IONIZATION ESI
AC$MASS_SPECTROMETRY: FRAGMENTATION_MODE CID
AC$MASS_SPECTROMETRY: COLLISION_ENERGY 40 eV
AC$MASS_SPECTROMETRY: RESOLUTION 35000
AC$MASS_SPECTROMETRY: MASS_RANGE_M/Z 50-1000
AC$CHROMATOGRAPHY: COLUMN_NAME Acclaim RSLC C18 2.2um, 2.1x100mm, Thermo
AC$CHROMATOGRAPHY: FLOW_GRADIENT 99/1 at 0-1 min, 61/39 at 3 min, 0.1/99.9 at 14-16 min, 99/1 at 16.1-20 min
AC$CHROMATOGRAPHY: FLOW_RATE 200 uL/min at 0-3 min, 400 uL/min at 14 min, 480 uL/min at 16-19 min, 200 uL/min at 19.1-20 min
AC$CHROMATOGRAPHY: RETENTION_TIME 8.982 min
MS$FOCUSED_ION: BASE_PEAK 292.9854
MS$FOCUSED_ION: PRECURSOR_M/Z 356.979
MS$FOCUSED_ION: PRECURSOR_TYPE [M-H]-
MS$DATA_PROCESSING: RECALIBRATE identity on assigned fragments and MS1
MS$DATA_PROCESSING: WHOLE RMassBank 3.9.0
PK$SPLASH: splash10-0006-0090000000-699099de5d5f27e00c2b
PK$ANNOTATION: m/z tentative_formula formula_count mass error(ppm)
  142.9928 C4F5- 3 142.9926 1.97
  242.9871 C3HF10O- 3 242.9873 -0.85
  243.9916 C6HF9- 1 243.994 -9.68
  292.9845 C4HF12O- 2 292.9841 1.14
  293.9875 C7HF11- 1 293.9908 -11.2
PK$NUM_PEAK: 5
PK$PEAK: m/z int. rel.int.
  142.9928 324 90
  242.9871 956 266
  243.9916 324 90
  292.9845 3584 999
  293.9875 2428 676
//
