ACCESSION: MSBNK-Athens_Univ-AU158030
RECORD_TITLE: Morphine; LC-ESI-QTOF; MS2; CE: 10 eV; R=35000; [M+Na]+
DATE: 2016.02.28
AUTHORS: Nikiforos Alygizakis, Nikolaos Thomaidis, University of Athens
LICENSE: CC BY
COPYRIGHT: Copyright (C) 2016 Department of Chemistry, University of Athens
COMMENT: CONFIDENCE standard compound
COMMENT: INTERNAL_ID 1580
CH$NAME: Morphine
CH$NAME: (4R,4aR,7S,7aR,12bS)-3-methyl-2,4,4a,7,7a,13-hexahydro-1H-4,12-methanobenzofuro[3,2-e]isoquinoline-7,9-diol
CH$COMPOUND_CLASS: N/A; Environmental Standard
CH$FORMULA: C17H19NO3
CH$EXACT_MASS: 285.1364935
CH$SMILES: CN1CC[C@]23[C@@H]4[C@H]1CC5=C2C(=C(C=C5)O)O[C@H]3[C@H](C=C4)O
CH$IUPAC: InChI=1S/C17H19NO3/c1-18-7-6-17-10-3-5-13(20)16(17)21-15-12(19)4-2-9(14(15)17)8-11(10)18/h2-5,10-11,13,16,19-20H,6-8H2,1H3/t10-,11+,13-,16-,17-/m0/s1
CH$LINK: CAS 57-27-2
CH$LINK: CHEBI CHEBI:17303
CH$LINK: CHEMSPIDER 4450907
CH$LINK: COMPTOX DTXSID9023336
CH$LINK: INCHIKEY BQJCRHHNABKAKU-KBQPJGBKSA-N
CH$LINK: KEGG C01516
CH$LINK: PUBCHEM CID:5288826
AC$INSTRUMENT: Bruker maXis Impact
AC$INSTRUMENT_TYPE: LC-ESI-QTOF
AC$MASS_SPECTROMETRY: MS_TYPE MS2
AC$MASS_SPECTROMETRY: ION_MODE POSITIVE
AC$MASS_SPECTROMETRY: IONIZATION ESI
AC$MASS_SPECTROMETRY: FRAGMENTATION_MODE CID
AC$MASS_SPECTROMETRY: COLLISION_ENERGY 10 eV
AC$MASS_SPECTROMETRY: RESOLUTION 35000
AC$CHROMATOGRAPHY: COLUMN_NAME Acclaim RSLC C18 2.2um, 2.1x100mm, Thermo
AC$CHROMATOGRAPHY: FLOW_GRADIENT 99/1 at 0-1 min, 61/39 at 3 min, 0.1/99.9 at 14-16 min, 99/1 at 16.1-20 min
AC$CHROMATOGRAPHY: FLOW_RATE 200 uL/min at 0-3 min, 400 uL/min at 14 min, 480 uL/min at 16-19 min, 200 uL/min at 19.1-20 min
AC$CHROMATOGRAPHY: RETENTION_TIME 2.737 min
AC$CHROMATOGRAPHY: SOLVENT A 90:10 water:methanol with 0.01% formic acid and 5mM ammonium formate
AC$CHROMATOGRAPHY: SOLVENT B methanol with 0.01% formic acid and 5mM ammonium formate
MS$FOCUSED_ION: BASE_PEAK 286.1454
MS$FOCUSED_ION: PRECURSOR_M/Z 308.1257
MS$FOCUSED_ION: PRECURSOR_TYPE [M+Na]+
MS$DATA_PROCESSING: RECALIBRATE identity on assigned fragments and MS1
MS$DATA_PROCESSING: WHOLE RMassBank 1.99.10
PK$SPLASH: splash10-0a4i-0009000000-6a905953a5d3359f3589
PK$ANNOTATION: m/z tentative_formula formula_count mass error(ppm)
  308.127 C17H19NNaO3+ 1 308.1257 4.07
  309.1296 C16[13]CH19NNaO3+ 1 309.1296 0.02
PK$NUM_PEAK: 2
PK$PEAK: m/z int. rel.int.
  308.127 3664 999
  309.1296 912 248
//
