ACCESSION: MSBNK-Athens_Univ-AU509454
RECORD_TITLE: 2-Perfluorohexyl ethanoic acid (6:2) (FHEA); LC-ESI-QTOF; MS2; CE: 40 eV; R=35000; [M-H]-
DATE: 2023.04.25
AUTHORS: Konstantina Diamanti, Georgios Gkotsis, Nikiforos Alygizakis, Nikolaos Thomaidis
LICENSE: CC BY
COPYRIGHT: Copyright (C) 2023 Department of Chemistry, University of Athens
COMMENT: CONFIDENCE standard compound
COMMENT: INTERNAL_ID 5094
CH$NAME: 2-Perfluorohexyl ethanoic acid (6:2) (FHEA)
CH$NAME: 3,3,4,4,5,5,6,6,7,7,8,8,8-tridecafluorooctanoic acid
CH$COMPOUND_CLASS: N/A; Environmental Standard
CH$FORMULA: C8H3F13O2
CH$EXACT_MASS: 377.9925
CH$SMILES: C(C(=O)O)C(C(C(C(C(C(F)(F)F)(F)F)(F)F)(F)F)(F)F)(F)F
CH$IUPAC: InChI=1S/C8H3F13O2/c9-3(10,1-2(22)23)4(11,12)5(13,14)6(15,16)7(17,18)8(19,20)21/h1H2,(H,22,23)
CH$LINK: CAS 53826-12-3
CH$LINK: CHEBI 177061
CH$LINK: PUBCHEM CID:11783764
CH$LINK: INCHIKEY LRWIIEJPCFNNCZ-UHFFFAOYSA-N
CH$LINK: CHEMSPIDER 9958444
AC$INSTRUMENT: Bruker maXis Impact
AC$INSTRUMENT_TYPE: LC-ESI-QTOF
AC$MASS_SPECTROMETRY: MS_TYPE MS2
AC$MASS_SPECTROMETRY: MODE NEGATIVE
AC$MASS_SPECTROMETRY: IONIZATION ESI
AC$MASS_SPECTROMETRY: FRAGMENTATION_MODE CID
AC$MASS_SPECTROMETRY: COLLISION_ENERGY 40 eV
AC$MASS_SPECTROMETRY: RESOLUTION 35000
AC$MASS_SPECTROMETRY: MASS_RANGE_M/Z 50-1000
AC$CHROMATOGRAPHY: COLUMN_NAME Acclaim RSLC C18 2.2um, 2.1x100mm, Thermo
AC$CHROMATOGRAPHY: FLOW_GRADIENT 99/1 at 0-1 min, 61/39 at 3 min, 0.1/99.9 at 14-16 min, 99/1 at 16.1-20 min
AC$CHROMATOGRAPHY: FLOW_RATE 200 uL/min at 0-3 min, 400 uL/min at 14 min, 480 uL/min at 16-19 min, 200 uL/min at 19.1-20 min
AC$CHROMATOGRAPHY: RETENTION_TIME 9.058 min
MS$FOCUSED_ION: BASE_PEAK 292.9837
MS$FOCUSED_ION: PRECURSOR_M/Z 376.9853
MS$FOCUSED_ION: PRECURSOR_TYPE [M-H]-
MS$DATA_PROCESSING: RECALIBRATE identity on assigned fragments and MS1
MS$DATA_PROCESSING: WHOLE RMassBank 3.9.0
PK$SPLASH: splash10-0006-0090000000-0ccf937063c78c5f2246
PK$ANNOTATION: m/z tentative_formula formula_count mass error(ppm)
  292.9836 C4HF12O- 3 292.9841 -1.92
  293.9894 C7HF11- 2 293.9908 -4.69
PK$NUM_PEAK: 2
PK$PEAK: m/z int. rel.int.
  292.9836 856 999
  293.9894 544 634
//
