ACCESSION: MSBNK-Athens_Univ-AU251405
RECORD_TITLE: Pipamperone; LC-ESI-QTOF; MS2; CE: 50 eV; R=35000; [M+H]+
DATE: 2019.04.08
AUTHORS: Nikiforos Alygizakis, Katerina Galani, Nikolaos Thomaidis, University of Athens
LICENSE: CC BY
COPYRIGHT: Copyright (C) 2019 Department of Chemistry, University of Athens
COMMENT: CONFIDENCE standard compound
COMMENT: INTERNAL_ID 2514
CH$NAME: Pipamperone
CH$NAME: 1-[4-(4-fluorophenyl)-4-oxobutyl]-4-piperidin-1-ylpiperidine-4-carboxamide
CH$COMPOUND_CLASS: N/A; Environmental Standard
CH$FORMULA: C21H30FN3O2
CH$EXACT_MASS: 375.2322054
CH$SMILES: NC(=O)C1(CCN(CCCC(=O)C2=CC=C(F)C=C2)CC1)N1CCCCC1
CH$IUPAC: InChI=1S/C21H30FN3O2/c22-18-8-6-17(7-9-18)19(26)5-4-12-24-15-10-21(11-16-24,20(23)27)25-13-2-1-3-14-25/h6-9H,1-5,10-16H2,(H2,23,27)
CH$LINK: CAS 2448-68-2
CH$LINK: CHEBI CHEBI:78549
CH$LINK: KEGG D02622
CH$LINK: PUBCHEM CID:4830
CH$LINK: INCHIKEY AXKPFOAXAHJUAG-UHFFFAOYSA-N
CH$LINK: CHEMSPIDER 4664
CH$LINK: COMPTOX DTXSID8048369
AC$INSTRUMENT: Bruker maXis Impact
AC$INSTRUMENT_TYPE: LC-ESI-QTOF
AC$MASS_SPECTROMETRY: MS_TYPE MS2
AC$MASS_SPECTROMETRY: ION_MODE POSITIVE
AC$MASS_SPECTROMETRY: IONIZATION ESI
AC$MASS_SPECTROMETRY: FRAGMENTATION_MODE CID
AC$MASS_SPECTROMETRY: COLLISION_ENERGY 50 eV
AC$MASS_SPECTROMETRY: RESOLUTION 35000
AC$CHROMATOGRAPHY: COLUMN_NAME Acclaim RSLC C18 2.2um, 2.1x100mm, Thermo
AC$CHROMATOGRAPHY: FLOW_GRADIENT 99/1 at 0-1 min, 61/39 at 3 min, 0.1/99.9 at 14-16 min, 99/1 at 16.1-20 min
AC$CHROMATOGRAPHY: FLOW_RATE 200 uL/min at 0-3 min, 400 uL/min at 14 min, 480 uL/min at 16-19 min, 200 uL/min at 19.1-20 min
AC$CHROMATOGRAPHY: RETENTION_TIME 5.762 min
AC$CHROMATOGRAPHY: SOLVENT A 90:10 water:methanol with 0.01% formic acid and 5mM ammonium formate
AC$CHROMATOGRAPHY: SOLVENT B methanol with 0.01% formic acid and 5mM ammonium formate
MS$FOCUSED_ION: BASE_PEAK 376.2392
MS$FOCUSED_ION: PRECURSOR_M/Z 376.2395
MS$FOCUSED_ION: PRECURSOR_TYPE [M+H]+
MS$DATA_PROCESSING: RECALIBRATE identity on assigned fragments and MS1
MS$DATA_PROCESSING: WHOLE RMassBank 2.10.1
PK$SPLASH: splash10-00xr-0900000000-a54be432c6f07f85560c
PK$ANNOTATION: m/z tentative_formula formula_count mass error(ppm)
  123.0235 C5H2FN3+ 3 123.0227 5.94
  124.0263 C4[13]CH2FN3+ 1 124.0266 -2.67
  138.1266 C9H16N+ 3 138.1277 -8.14
  165.0698 C13H9+ 4 165.0699 -0.64
  166.0731 C12[13]CH9+ 1 166.0738 -4
  167.0757 C11[13]C2H9+ 1 167.0771 -8.51
  194.0966 C14H12N+ 3 194.0964 0.82
PK$NUM_PEAK: 7
PK$PEAK: m/z int. rel.int.
  123.0235 356904 999
  124.0263 19564 54
  138.1266 12936 36
  165.0698 346812 970
  166.0731 30856 86
  167.0757 2380 6
  194.0966 5044 14
//
