ACCESSION: MSBNK-Athens_Univ-AU205902
RECORD_TITLE: Metolachlor-Morpholinone; LC-ESI-QTOF; MS2; CE: 20 eV; R=35000; [M+H]+
DATE: 2015.12.04
AUTHORS: Nikiforos Alygizakis, Nikolaos Thomaidis, University of Athens
LICENSE: CC BY-SA
COPYRIGHT: Copyright (C) 2015 Department of Chemistry, University of Athens
COMMENT: CONFIDENCE standard compound
COMMENT: INTERNAL_ID 2059
CH$NAME: Metolachlor-Morpholinone
CH$NAME: 4-(2-ethyl-6-methylphenyl)-5-methylmorpholin-3-one
CH$COMPOUND_CLASS: N/A; Environmental Standard
CH$FORMULA: C14H19NO2
CH$EXACT_MASS: 233.1415788
CH$SMILES: CCC1=CC=CC(C)=C1N1C(C)COCC1=O
CH$IUPAC: InChI=1S/C14H19NO2/c1-4-12-7-5-6-10(2)14(12)15-11(3)8-17-9-13(15)16/h5-7,11H,4,8-9H2,1-3H3
CH$LINK: CAS 120375-14-6
CH$LINK: CHEBI CHEBI:83509
CH$LINK: PUBCHEM CID:179957
CH$LINK: INCHIKEY DVBDYPDVNRJKNJ-UHFFFAOYSA-N
CH$LINK: CHEMSPIDER 156619
CH$LINK: COMPTOX DTXSID30891443
AC$INSTRUMENT: Bruker maXis Impact
AC$INSTRUMENT_TYPE: LC-ESI-QTOF
AC$MASS_SPECTROMETRY: MS_TYPE MS2
AC$MASS_SPECTROMETRY: ION_MODE POSITIVE
AC$MASS_SPECTROMETRY: IONIZATION ESI
AC$MASS_SPECTROMETRY: FRAGMENTATION_MODE CID
AC$MASS_SPECTROMETRY: COLLISION_ENERGY 20 eV
AC$MASS_SPECTROMETRY: RESOLUTION 35000
AC$CHROMATOGRAPHY: COLUMN_NAME Acclaim RSLC C18 2.2um, 2.1x100mm, Thermo
AC$CHROMATOGRAPHY: FLOW_GRADIENT 99/1 at 0-1 min, 61/39 at 3 min, 0.1/99.9 at 14-16 min, 99/1 at 16.1-20 min
AC$CHROMATOGRAPHY: FLOW_RATE 200 uL/min at 0-3 min, 400 uL/min at 14 min, 480 uL/min at 16-19 min, 200 uL/min at 19.1-20 min
AC$CHROMATOGRAPHY: RETENTION_TIME 7.6 min
AC$CHROMATOGRAPHY: SOLVENT A 90:10 water:methanol with 0.01% formic acid and 5mM ammonium formate
AC$CHROMATOGRAPHY: SOLVENT B methanol with 0.01% formic acid and 5mM ammonium formate
MS$FOCUSED_ION: BASE_PEAK 234.1486
MS$FOCUSED_ION: PRECURSOR_M/Z 234.1489
MS$FOCUSED_ION: PRECURSOR_TYPE [M+H]+
MS$DATA_PROCESSING: RECALIBRATE identity on assigned fragments and MS1
MS$DATA_PROCESSING: REANALYZE Peaks with additional N2/O included
MS$DATA_PROCESSING: WHOLE RMassBank 2.0.3
PK$SPLASH: splash10-001i-0090000000-de7722114d75b31abf78
PK$ANNOTATION: m/z tentative_formula formula_count mass error(ppm)
  206.1172 C12H16NO2+ 1 206.1176 -1.62
  234.149 C14H20NO2+ 1 234.1489 0.7
  235.1521 C13[13]CH20NO2+ 1 235.1521 0
  236.1547 C12[13]C2H20NO2+ 1 236.1548 -0.42
PK$NUM_PEAK: 4
PK$PEAK: m/z int. rel.int.
  206.1172 103276 49
  234.149 2080804 999
  235.1521 289140 139
  236.1547 22128 11
//
