ACCESSION: MSBNK-Athens_Univ-AU212934
RECORD_TITLE: Cilastatin; LC-ESI-QTOF; MS2; CE: 50 eV; R=35000; [M+Na]+
DATE: 2016.02.28
AUTHORS: Nikiforos Alygizakis, Nikolaos Thomaidis, University of Athens
LICENSE: CC BY
COPYRIGHT: Copyright (C) 2016 Department of Chemistry, University of Athens
COMMENT: CONFIDENCE standard compound
COMMENT: INTERNAL_ID 2129
CH$NAME: Cilastatin
CH$NAME: (Z)-7-[(2R)-2-amino-2-carboxyethyl]sulfanyl-2-[[(1S)-2,2-dimethylcyclopropanecarbonyl]amino]hept-2-enoic acid
CH$COMPOUND_CLASS: N/A; Environmental Standard
CH$FORMULA: C16H26N2O5S
CH$EXACT_MASS: 358.1562429
CH$SMILES: CC1(C[C@@H]1/C(=N/C(=C\CCCCSC[C@@H](C(=O)O)N)/C(=O)O)/O)C
CH$IUPAC: InChI=1S/C16H26N2O5S/c1-16(2)8-10(16)13(19)18-12(15(22)23)6-4-3-5-7-24-9-11(17)14(20)21/h6,10-11H,3-5,7-9,17H2,1-2H3,(H,18,19)(H,20,21)(H,22,23)/b12-6-/t10-,11+/m1/s1
CH$LINK: CAS 82009-34-5
CH$LINK: CHEBI CHEBI:3697
CH$LINK: KEGG C01675
CH$LINK: PUBCHEM CID:6435415
CH$LINK: INCHIKEY DHSUYTOATWAVLW-WFVMDLQDSA-N
CH$LINK: CHEMSPIDER 4940183
CH$LINK: COMPTOX DTXSID8048238
AC$INSTRUMENT: Bruker maXis Impact
AC$INSTRUMENT_TYPE: LC-ESI-QTOF
AC$MASS_SPECTROMETRY: MS_TYPE MS2
AC$MASS_SPECTROMETRY: ION_MODE POSITIVE
AC$MASS_SPECTROMETRY: IONIZATION ESI
AC$MASS_SPECTROMETRY: FRAGMENTATION_MODE CID
AC$MASS_SPECTROMETRY: COLLISION_ENERGY 50 eV
AC$MASS_SPECTROMETRY: RESOLUTION 35000
AC$CHROMATOGRAPHY: COLUMN_NAME Acclaim RSLC C18 2.2um, 2.1x100mm, Thermo
AC$CHROMATOGRAPHY: FLOW_GRADIENT 99/1 at 0-1 min, 61/39 at 3 min, 0.1/99.9 at 14-16 min, 99/1 at 16.1-20 min
AC$CHROMATOGRAPHY: FLOW_RATE 200 uL/min at 0-3 min, 400 uL/min at 14 min, 480 uL/min at 16-19 min, 200 uL/min at 19.1-20 min
AC$CHROMATOGRAPHY: RETENTION_TIME 14.748 min
AC$CHROMATOGRAPHY: SOLVENT A 90:10 water:methanol with 0.01% formic acid and 5mM ammonium formate
AC$CHROMATOGRAPHY: SOLVENT B methanol with 0.01% formic acid and 5mM ammonium formate
MS$FOCUSED_ION: BASE_PEAK 391.2865
MS$FOCUSED_ION: PRECURSOR_M/Z 381.1455
MS$FOCUSED_ION: PRECURSOR_TYPE [M+Na]+
MS$DATA_PROCESSING: RECALIBRATE identity on assigned fragments and MS1
MS$DATA_PROCESSING: WHOLE RMassBank 1.99.10
PK$SPLASH: splash10-0ue9-0190000000-bd9529af7106c2e8eda9
PK$ANNOTATION: m/z tentative_formula formula_count mass error(ppm)
  177.0703 C14H9+ 8 177.0699 2.51
  203.0754 C12H13NS+ 10 203.0763 -4.31
  204.0819 C10H15NNaS+ 11 204.0817 0.58
  205.0773 C9H14N2NaS+ 9 205.077 1.39
  232.0769 C11H15NNaOS+ 8 232.0767 1.11
PK$NUM_PEAK: 5
PK$PEAK: m/z int. rel.int.
  177.0703 336 518
  203.0754 376 579
  204.0819 584 900
  205.0773 316 487
  232.0769 648 999
//
