ACCESSION: MSBNK-Athens_Univ-AU234159
RECORD_TITLE: Bezafibrate; LC-ESI-QTOF; MS2; CE: 30 eV; R=35000; [M-H]-
DATE: 2019.03.28
AUTHORS: Nikiforos Alygizakis, Katerina Galani, Nikolaos Thomaidis, University of Athens
LICENSE: CC BY
COPYRIGHT: Copyright (C) 2019 Department of Chemistry, University of Athens
COMMENT: CONFIDENCE standard compound
COMMENT: INTERNAL_ID 2341
CH$NAME: Bezafibrate
CH$NAME: 2-[4-[2-[(4-chlorobenzoyl)amino]ethyl]phenoxy]-2-methylpropanoic acid
CH$COMPOUND_CLASS: N/A; Environmental Standard
CH$FORMULA: C19H20ClNO4
CH$EXACT_MASS: 361.1080858
CH$SMILES: CC(C)(OC1=CC=C(CCNC(=O)C2=CC=C(Cl)C=C2)C=C1)C(O)=O
CH$IUPAC: InChI=1S/C19H20ClNO4/c1-19(2,18(23)24)25-16-9-3-13(4-10-16)11-12-21-17(22)14-5-7-15(20)8-6-14/h3-10H,11-12H2,1-2H3,(H,21,22)(H,23,24)
CH$LINK: CAS 41859-67-0
CH$LINK: CHEBI CHEBI:47612
CH$LINK: KEGG D01366
CH$LINK: PUBCHEM CID:39042
CH$LINK: INCHIKEY IIBYAHWJQTYFKB-UHFFFAOYSA-N
CH$LINK: CHEMSPIDER 35728
CH$LINK: COMPTOX DTXSID3029869
AC$INSTRUMENT: Bruker maXis Impact
AC$INSTRUMENT_TYPE: LC-ESI-QTOF
AC$MASS_SPECTROMETRY: MS_TYPE MS2
AC$MASS_SPECTROMETRY: ION_MODE NEGATIVE
AC$MASS_SPECTROMETRY: IONIZATION ESI
AC$MASS_SPECTROMETRY: FRAGMENTATION_MODE CID
AC$MASS_SPECTROMETRY: COLLISION_ENERGY 30 eV
AC$MASS_SPECTROMETRY: RESOLUTION 35000
AC$CHROMATOGRAPHY: COLUMN_NAME Acclaim RSLC C18 2.2um, 2.1x100mm, Thermo
AC$CHROMATOGRAPHY: FLOW_GRADIENT 99/1 at 0-1 min, 61/39 at 3 min, 0.1/99.9 at 14-16 min, 99/1 at 16.1-20 min
AC$CHROMATOGRAPHY: FLOW_RATE 200 uL/min at 0-3 min, 400 uL/min at 14 min, 480 uL/min at 16-19 min, 200 uL/min at 19.1-20 min
AC$CHROMATOGRAPHY: RETENTION_TIME 7.592 min
AC$CHROMATOGRAPHY: SOLVENT A 90:10 water:methanol with 5mM ammonium acetate
AC$CHROMATOGRAPHY: SOLVENT B methanol with 5mM ammonium acetate
MS$FOCUSED_ION: BASE_PEAK 360.0995
MS$FOCUSED_ION: PRECURSOR_M/Z 360.1008
MS$FOCUSED_ION: PRECURSOR_TYPE [M-H]-
MS$DATA_PROCESSING: RECALIBRATE identity on assigned fragments and MS1
MS$DATA_PROCESSING: WHOLE RMassBank 2.10.0
PK$SPLASH: splash10-0fk9-0690000000-e86382cc7c363906aabf
PK$ANNOTATION: m/z tentative_formula formula_count mass error(ppm)
  154.0081 C7H5ClNO- 2 154.0065 10.59
  155.0113 C4H8ClO4- 3 155.0117 -2.41
  156.0068 C7H5[37]ClNO- 1 156.003 24.2
  274.0643 C15H13ClNO2- 2 274.064 1.01
  275.0687 C14[13]CH13ClNO2- 1 275.0668 6.6
  276.0622 C15H13[37]ClNO2- 1 276.0605 6.18
PK$NUM_PEAK: 6
PK$PEAK: m/z int. rel.int.
  154.0081 2072 761
  155.0113 396 145
  156.0068 440 161
  274.0643 2720 999
  275.0687 616 226
  276.0622 688 252
//
