ACCESSION: MSBNK-Athens_Univ-AU406656
RECORD_TITLE: lauryl sulfate; LC-ESI-QTOF; MS2; CE: RAMP 10-30 eV; R=35000; [M-H]-
DATE: 2015.12.28
AUTHORS: Nikiforos Alygizakis, Nikolaos Thomaidis, University of Athens
LICENSE: CC BY-SA
COPYRIGHT: Copyright (C) 2015 Department of Chemistry, University of Athens
PUBLICATION: Alygizakis, N. A.; Gago-Ferrero, P.; Hollender, J.; Thomaidis, N. S. Untargeted Time-Pattern Analysis of LC-HRMS Data to Detect Spills and Compounds with High Fluctuation in Influent Wastewater. Journal of Hazardous Materials 2019, 361, 19–29. DOI:10.1016/j.jhazmat.2018.08.073
COMMENT: CONFIDENCE standard compound
COMMENT: INTERNAL_ID 4066
CH$NAME: Lauryl sulfate
CH$NAME: dodecyl hydrogen sulfate
CH$NAME: (Dodecyloxy)sulfonic acid
CH$NAME: Dodecyl sulfate
CH$COMPOUND_CLASS: N/A; Environmental Standard
CH$FORMULA: C12H26O4S
CH$EXACT_MASS: 266.1551803
CH$SMILES: CCCCCCCCCCCCOS(=O)(=O)O
CH$IUPAC: InChI=1S/C12H26O4S/c1-2-3-4-5-6-7-8-9-10-11-12-16-17(13,14)15/h2-12H2,1H3,(H,13,14,15)
CH$LINK: CAS 151-41-7
CH$LINK: CHEBI CHEBI:45599
CH$LINK: CHEMSPIDER 8448
CH$LINK: COMPTOX DTXSID0042088
CH$LINK: INCHIKEY MOTZDAYCYVMXPC-UHFFFAOYSA-N
CH$LINK: PUBCHEM CID:8778
AC$INSTRUMENT: Bruker maXis Impact
AC$INSTRUMENT_TYPE: LC-ESI-QTOF
AC$MASS_SPECTROMETRY: MS_TYPE MS2
AC$MASS_SPECTROMETRY: ION_MODE NEGATIVE
AC$MASS_SPECTROMETRY: IONIZATION ESI
AC$MASS_SPECTROMETRY: FRAGMENTATION_MODE CID
AC$MASS_SPECTROMETRY: COLLISION_ENERGY RAMP 10-30 eV
AC$MASS_SPECTROMETRY: RESOLUTION 35000
AC$CHROMATOGRAPHY: COLUMN_NAME Acclaim RSLC C18 2.2um, 2.1x100mm, Thermo
AC$CHROMATOGRAPHY: FLOW_GRADIENT 99/1 at 0-1 min, 61/39 at 3 min, 0.1/99.9 at 14-16 min, 99/1 at 16.1-20 min
AC$CHROMATOGRAPHY: FLOW_RATE 200 uL/min at 0-3 min, 400 uL/min at 14 min, 480 uL/min at 16-19 min, 200 uL/min at 19.1-20 min
AC$CHROMATOGRAPHY: RETENTION_TIME 11.2 min
AC$CHROMATOGRAPHY: SOLVENT A 90:10 water:methanol with 5mM ammonium acetate
AC$CHROMATOGRAPHY: SOLVENT B methanol with 5mM ammonium acetate
MS$FOCUSED_ION: BASE_PEAK 265.1482
MS$FOCUSED_ION: PRECURSOR_M/Z 265.1479
MS$FOCUSED_ION: PRECURSOR_TYPE [M-H]-
MS$DATA_PROCESSING: RECALIBRATE identity on assigned fragments and MS1
MS$DATA_PROCESSING: REANALYZE Peaks with additional N2/O included
MS$DATA_PROCESSING: WHOLE RMassBank 2.0.3
PK$SPLASH: splash10-0002-9010000000-3a02b86200a1303cde64
PK$ANNOTATION: m/z tentative_formula formula_count mass error(ppm)
  79.9575 O3S- 1 79.9574 1.67
  95.9524 O4S- 1 95.9523 1.63
  96.9602 HO4S- 1 96.9601 0.94
  265.1474 C12H25O4S- 1 265.1479 -1.75
PK$NUM_PEAK: 4
PK$PEAK: m/z int. rel.int.
  79.9575 5992 32
  95.9524 1316 7
  96.9602 185192 999
  265.1474 31540 170
//
