ACCESSION: MSBNK-Athens_Univ-AU235003
RECORD_TITLE: Flutamide; LC-ESI-QTOF; MS2; CE: 30 eV; R=35000; [M+H]+
DATE: 2019.05.30
AUTHORS: Nikiforos Alygizakis, Katerina Galani, Nikolaos Thomaidis, University of Athens
LICENSE: CC BY
COPYRIGHT: Copyright (C) 2019 Department of Chemistry, University of Athens
COMMENT: CONFIDENCE standard compound
COMMENT: INTERNAL_ID 2350
CH$NAME: Flutamide
CH$NAME: 2-methyl-N-[4-nitro-3-(trifluoromethyl)phenyl]propanamide
CH$COMPOUND_CLASS: N/A; Environmental Standard
CH$FORMULA: C11H11F3N2O3
CH$EXACT_MASS: 276.0721769
CH$SMILES: CC(C)C(=O)NC1=CC(=C(C=C1)[N+]([O-])=O)C(F)(F)F
CH$IUPAC: InChI=1S/C11H11F3N2O3/c1-6(2)10(17)15-7-3-4-9(16(18)19)8(5-7)11(12,13)14/h3-6H,1-2H3,(H,15,17)
CH$LINK: CAS 37209-54-4
CH$LINK: CHEBI CHEBI:5132
CH$LINK: KEGG C07653
CH$LINK: PUBCHEM CID:3397
CH$LINK: INCHIKEY MKXKFYHWDHIYRV-UHFFFAOYSA-N
CH$LINK: CHEMSPIDER 3280
CH$LINK: COMPTOX DTXSID7032004
AC$INSTRUMENT: Bruker maXis Impact
AC$INSTRUMENT_TYPE: LC-ESI-QTOF
AC$MASS_SPECTROMETRY: MS_TYPE MS2
AC$MASS_SPECTROMETRY: ION_MODE POSITIVE
AC$MASS_SPECTROMETRY: IONIZATION ESI
AC$MASS_SPECTROMETRY: FRAGMENTATION_MODE CID
AC$MASS_SPECTROMETRY: COLLISION_ENERGY 30 eV
AC$MASS_SPECTROMETRY: RESOLUTION 35000
AC$CHROMATOGRAPHY: COLUMN_NAME Acclaim RSLC C18 2.2um, 2.1x100mm, Thermo
AC$CHROMATOGRAPHY: FLOW_GRADIENT 99/1 at 0-1 min, 61/39 at 3 min, 0.1/99.9 at 14-16 min, 99/1 at 16.1-20 min
AC$CHROMATOGRAPHY: FLOW_RATE 200 uL/min at 0-3 min, 400 uL/min at 14 min, 480 uL/min at 16-19 min, 200 uL/min at 19.1-20 min
AC$CHROMATOGRAPHY: RETENTION_TIME 11.178 min
AC$CHROMATOGRAPHY: SOLVENT A 90:10 water:methanol with 0.01% formic acid and 5mM ammonium formate
AC$CHROMATOGRAPHY: SOLVENT B methanol with 0.01% formic acid and 5mM ammonium formate
MS$FOCUSED_ION: BASE_PEAK 277.0782
MS$FOCUSED_ION: PRECURSOR_M/Z 277.0795
MS$FOCUSED_ION: PRECURSOR_TYPE [M+H]+
MS$DATA_PROCESSING: RECALIBRATE identity on assigned fragments and MS1
MS$DATA_PROCESSING: WHOLE RMassBank 2.10.1
PK$SPLASH: splash10-014i-0910000000-1a2156b25466b91e269e
PK$ANNOTATION: m/z tentative_formula formula_count mass error(ppm)
  125.0143 C5H2FN2O+ 3 125.0146 -2.39
  164.0606 C5H9FN2O3+ 4 164.0592 8.45
  165.069 C10H10FO+ 4 165.071 -12
  166.0722 C9[13]CH10FO+ 1 166.0749 -16.53
  167.0755 C8[13]C2H10FO+ 1 167.0783 -16.5
  199.0301 C11H4FN2O+ 4 199.0302 -0.56
  200.0332 C10[13]CH4FN2O+ 1 200.0341 -4.63
  201.0272 C8H4F3N2O+ 4 201.027 0.71
  215.0844 C9H12FN2O3+ 2 215.0826 8.14
  226.077 C10H11FN2O3+ 1 226.0748 9.84
  227.0833 C10H12FN2O3+ 2 227.0826 2.81
  239.085 C11H12FN2O3+ 1 239.0826 9.82
  249.0458 C9H8F3N2O3+ 1 249.0482 -9.32
  262.0537 C10H9F3N2O3+ 1 262.056 -8.8
  277.0771 C11H12F3N2O3+ 1 277.0795 -8.38
PK$NUM_PEAK: 15
PK$PEAK: m/z int. rel.int.
  125.0143 29920 11
  164.0606 23296 9
  165.069 2502252 999
  166.0722 322140 128
  167.0755 13040 5
  199.0301 434980 173
  200.0332 57388 22
  201.0272 108020 43
  215.0844 39968 15
  226.077 41432 16
  227.0833 17392 6
  239.085 84752 33
  249.0458 18724 7
  262.0537 26948 10
  277.0771 38372 15
//
