ACCESSION: MSBNK-Athens_Univ-AU244303
RECORD_TITLE: 2-Amino-9H-pyrido[2,3-b]indole (AalphaC); LC-ESI-QTOF; MS2; CE: 30 eV; R=35000; [M+H]+
DATE: 2019.04.05
AUTHORS: Nikiforos Alygizakis, Katerina Galani, Nikolaos Thomaidis, University of Athens
LICENSE: CC BY
COPYRIGHT: Copyright (C) 2019 Department of Chemistry, University of Athens
COMMENT: CONFIDENCE standard compound
COMMENT: INTERNAL_ID 2443
CH$NAME: 2-Amino-9H-pyrido[2,3-b]indole (AalphaC)
CH$NAME: 2-Amino-9H-pyrido[2,3-b]indole
CH$NAME: 9H-pyrido[2,3-b]indol-2-amine
CH$COMPOUND_CLASS: N/A; Environmental Standard
CH$FORMULA: C11H9N3
CH$EXACT_MASS: 183.0796473
CH$SMILES: NC1=NC2=C(C=C1)C1=CC=CC=C1N2
CH$IUPAC: InChI=1S/C11H9N3/c12-10-6-5-8-7-3-1-2-4-9(7)13-11(8)14-10/h1-6H,(H3,12,13,14)
CH$LINK: CAS 26148-68-5
CH$LINK: CHEBI CHEBI:82284
CH$LINK: PUBCHEM CID:62805
CH$LINK: INCHIKEY FJTNLJLPLJDTRM-UHFFFAOYSA-N
CH$LINK: CHEMSPIDER 56541
CH$LINK: COMPTOX DTXSID7020001
AC$INSTRUMENT: Bruker maXis Impact
AC$INSTRUMENT_TYPE: LC-ESI-QTOF
AC$MASS_SPECTROMETRY: MS_TYPE MS2
AC$MASS_SPECTROMETRY: ION_MODE POSITIVE
AC$MASS_SPECTROMETRY: IONIZATION ESI
AC$MASS_SPECTROMETRY: FRAGMENTATION_MODE CID
AC$MASS_SPECTROMETRY: COLLISION_ENERGY 30 eV
AC$MASS_SPECTROMETRY: RESOLUTION 35000
AC$CHROMATOGRAPHY: COLUMN_NAME Acclaim RSLC C18 2.2um, 2.1x100mm, Thermo
AC$CHROMATOGRAPHY: FLOW_GRADIENT 99/1 at 0-1 min, 61/39 at 3 min, 0.1/99.9 at 14-16 min, 99/1 at 16.1-20 min
AC$CHROMATOGRAPHY: FLOW_RATE 200 uL/min at 0-3 min, 400 uL/min at 14 min, 480 uL/min at 16-19 min, 200 uL/min at 19.1-20 min
AC$CHROMATOGRAPHY: RETENTION_TIME 7.076 min
AC$CHROMATOGRAPHY: SOLVENT A 90:10 water:methanol with 0.01% formic acid and 5mM ammonium formate
AC$CHROMATOGRAPHY: SOLVENT B methanol with 0.01% formic acid and 5mM ammonium formate
MS$FOCUSED_ION: BASE_PEAK 184.086
MS$FOCUSED_ION: PRECURSOR_M/Z 184.0869
MS$FOCUSED_ION: PRECURSOR_TYPE [M+H]+
MS$DATA_PROCESSING: RECALIBRATE identity on assigned fragments and MS1
MS$DATA_PROCESSING: WHOLE RMassBank 2.10.1
PK$SPLASH: splash10-014l-0900000000-27f6450790ed85c55c52
PK$ANNOTATION: m/z tentative_formula formula_count mass error(ppm)
  130.0641 C9H8N+ 1 130.0651 -8.03
  140.0486 C10H6N+ 1 140.0495 -6.06
  141.0516 C9[13]CH6N+ 1 141.0534 -12.51
  157.0747 C10H9N2+ 1 157.076 -8.13
  166.0515 C11H6N2+ 1 166.0525 -6.53
  167.0593 C11H7N2+ 1 167.0604 -6.27
  168.0624 C10[13]CH7N2+ 1 168.0643 -10.94
  183.0781 C11H9N3+ 1 183.0791 -5.65
  184.086 C11H10N3+ 1 184.0869 -5.09
PK$NUM_PEAK: 9
PK$PEAK: m/z int. rel.int.
  130.0641 6792 10
  140.0486 501864 742
  141.0516 42512 62
  157.0747 18172 26
  166.0515 19272 28
  167.0593 675176 999
  168.0624 52364 77
  183.0781 17828 26
  184.086 196052 290
//
