ACCESSION: MSBNK-Athens_Univ-AU505605
RECORD_TITLE: Butyl stearate; GC-APCI-QTOF; MS2; CE: 50 eV; R=35000; [M+H]+
DATE: 2021.04.20
AUTHORS: Chrysoula Kanakaki, Nikiforos Alygizakis, Nikolaos Thomaidis, University of Athens
LICENSE: CC BY
COPYRIGHT: Copyright (C) 2021 Department of Chemistry, University of Athens
COMMENT: CONFIDENCE standard compound
COMMENT: INTERNAL_ID 5056
CH$NAME: Butyl stearate
CH$COMPOUND_CLASS: N/A; Food Contact Material
CH$FORMULA: C22H44O2
CH$EXACT_MASS: 340.3341
CH$SMILES: CCCCCCCCCCCCCCCCCC(=O)OCCCC
CH$IUPAC: InChI=1S/C22H44O2/c1-3-5-7-8-9-10-11-12-13-14-15-16-17-18-19-20-22(23)24-21-6-4-2/h3-21H2,1-2H3
CH$LINK: CAS 123-95-5
CH$LINK: CHEBI CHEBI:85983
CH$LINK: PUBCHEM CID:31278
CH$LINK: INCHIKEY ULBTUVJTXULMLP-UHFFFAOYSA-N
CH$LINK: CHEMSPIDER 29018
AC$INSTRUMENT: Bruker 450 GC coupled to maXis Impact
AC$INSTRUMENT_TYPE: GC-APCI-QTOF
AC$MASS_SPECTROMETRY: MS_TYPE MS2
AC$MASS_SPECTROMETRY: ION_MODE POSITIVE
AC$MASS_SPECTROMETRY: IONIZATION APCI
AC$MASS_SPECTROMETRY: FRAGMENTATION_MODE CID
AC$MASS_SPECTROMETRY: COLLISION_ENERGY 50 eV
AC$MASS_SPECTROMETRY: RESOLUTION 35000
AC$CHROMATOGRAPHY: COLUMN_NAME Rxi-5Sil MS column, 30m, 0.25mm i.d., 0.25µm film thickness, Restek
AC$CHROMATOGRAPHY: COLUMN_TEMPERATURE_GRADIENT 55oC at 0 min, 55oC at 3 min, 180oC at 11.33 min with 15oC/min, 280oC at 26.72 min with 6.5oC/min, 280oC at 31.72 min, 300oC at 33.72 min with 10oC/min, 300oC at 39 min
AC$CHROMATOGRAPHY: FLOW_RATE 1.5 mL/min
AC$CHROMATOGRAPHY: RETENTION_TIME 22.568 min
AC$CHROMATOGRAPHY: SOLVENT A Helium
MS$FOCUSED_ION: BASE_PEAK 285.2781
MS$FOCUSED_ION: PRECURSOR_M/Z 341.3414
MS$FOCUSED_ION: PRECURSOR_TYPE [M+H]+
MS$DATA_PROCESSING: RECALIBRATE identity on assigned fragments and MS1
MS$DATA_PROCESSING: WHOLE RMassBank 2.16.0
PK$SPLASH: splash10-0a4i-9000000000-0f1c7923c29dabbca550
PK$ANNOTATION: m/z tentative_formula formula_count mass error(ppm)
  55.0555 C4H7+ 1 55.0542 23.26
  57.07 C4H9+ 1 57.0699 1.65
PK$NUM_PEAK: 2
PK$PEAK: m/z int. rel.int.
  55.0555 160 999
  57.07 152 949
//
