ACCESSION: MSBNK-Athens_Univ-AU255905
RECORD_TITLE: Dimethachlor CGA369873; LC-ESI-QTOF; MS2; CE: 50 eV; R=35000; [M+H]+
DATE: 2019.05.29
AUTHORS: Nikiforos Alygizakis, Katerina Galani, Nikolaos Thomaidis, University of Athens
LICENSE: CC BY
COPYRIGHT: Copyright (C) 2019 Department of Chemistry, University of Athens
COMMENT: CONFIDENCE standard compound
COMMENT: INTERNAL_ID 2559
CH$NAME: Dimethachlor CGA369873
CH$COMPOUND_CLASS: N/A; Environmental Standard
CH$FORMULA: C10H13NO4S
CH$EXACT_MASS: 243.0565289
CH$SMILES: CC1=CC=CC(C)=C1NC(=O)CS(O)(=O)=O
CH$IUPAC: InChI=1S/C10H13NO4S/c1-7-4-3-5-8(2)10(7)11-9(12)6-16(13,14)15/h3-5H,6H2,1-2H3,(H,11,12)(H,13,14,15)
CH$LINK: INCHIKEY ZNKNVJGSYJFDHT-UHFFFAOYSA-N
CH$LINK: PUBCHEM CID:139292176
AC$INSTRUMENT: Bruker maXis Impact
AC$INSTRUMENT_TYPE: LC-ESI-QTOF
AC$MASS_SPECTROMETRY: MS_TYPE MS2
AC$MASS_SPECTROMETRY: ION_MODE POSITIVE
AC$MASS_SPECTROMETRY: IONIZATION ESI
AC$MASS_SPECTROMETRY: FRAGMENTATION_MODE CID
AC$MASS_SPECTROMETRY: COLLISION_ENERGY 50 eV
AC$MASS_SPECTROMETRY: RESOLUTION 35000
AC$CHROMATOGRAPHY: COLUMN_NAME Acclaim RSLC C18 2.2um, 2.1x100mm, Thermo
AC$CHROMATOGRAPHY: FLOW_GRADIENT 99/1 at 0-1 min, 61/39 at 3 min, 0.1/99.9 at 14-16 min, 99/1 at 16.1-20 min
AC$CHROMATOGRAPHY: FLOW_RATE 200 uL/min at 0-3 min, 400 uL/min at 14 min, 480 uL/min at 16-19 min, 200 uL/min at 19.1-20 min
AC$CHROMATOGRAPHY: RETENTION_TIME 4.456 min
AC$CHROMATOGRAPHY: SOLVENT A 90:10 water:methanol with 0.01% formic acid and 5mM ammonium formate
AC$CHROMATOGRAPHY: SOLVENT B methanol with 0.01% formic acid and 5mM ammonium formate
MS$FOCUSED_ION: BASE_PEAK 244.0633
MS$FOCUSED_ION: PRECURSOR_M/Z 244.0638
MS$FOCUSED_ION: PRECURSOR_TYPE [M+H]+
MS$DATA_PROCESSING: RECALIBRATE identity on assigned fragments and MS1
MS$DATA_PROCESSING: WHOLE RMassBank 2.10.1
PK$SPLASH: splash10-00xu-0900000000-cf2f5154c2d4a3049547
PK$ANNOTATION: m/z tentative_formula formula_count mass error(ppm)
  118.0656 C2H14O3S+ 3 118.0658 -1.62
  120.0805 C8H10N+ 2 120.0808 -2.32
  144.079 C7H12O3+ 2 144.0781 6.61
PK$NUM_PEAK: 3
PK$PEAK: m/z int. rel.int.
  118.0656 572 721
  120.0805 792 999
  144.079 420 529
//
