ACCESSION: MSBNK-Athens_Univ-AU236502
RECORD_TITLE: Torasemide; LC-ESI-QTOF; MS2; CE: 20 eV; R=35000; [M+H]+
DATE: 2019.05.30
AUTHORS: Nikiforos Alygizakis, Katerina Galani, Nikolaos Thomaidis, University of Athens
LICENSE: CC BY
COPYRIGHT: Copyright (C) 2019 Department of Chemistry, University of Athens
COMMENT: CONFIDENCE standard compound
COMMENT: INTERNAL_ID 2365
CH$NAME: Torasemide
CH$NAME: Torsemide
CH$NAME: 1-[4-(3-methylanilino)pyridin-3-yl]sulfonyl-3-propan-2-ylurea
CH$COMPOUND_CLASS: N/A; Environmental Standard
CH$FORMULA: C16H20N4O3S
CH$EXACT_MASS: 348.1256115
CH$SMILES: CC(C)NC(=O)NS(=O)(=O)C1=CN=CC=C1NC1=CC=CC(C)=C1
CH$IUPAC: InChI=1S/C16H20N4O3S/c1-11(2)18-16(21)20-24(22,23)15-10-17-8-7-14(15)19-13-6-4-5-12(3)9-13/h4-11H,1-3H3,(H,17,19)(H2,18,20,21)
CH$LINK: CAS 56211-40-6
CH$LINK: CHEBI CHEBI:9637
CH$LINK: KEGG D00382
CH$LINK: PUBCHEM CID:41781
CH$LINK: INCHIKEY NGBFQHCMQULJNZ-UHFFFAOYSA-N
CH$LINK: CHEMSPIDER 38123
CH$LINK: COMPTOX DTXSID2023690
AC$INSTRUMENT: Bruker maXis Impact
AC$INSTRUMENT_TYPE: LC-ESI-QTOF
AC$MASS_SPECTROMETRY: MS_TYPE MS2
AC$MASS_SPECTROMETRY: ION_MODE POSITIVE
AC$MASS_SPECTROMETRY: IONIZATION ESI
AC$MASS_SPECTROMETRY: FRAGMENTATION_MODE CID
AC$MASS_SPECTROMETRY: COLLISION_ENERGY 20 eV
AC$MASS_SPECTROMETRY: RESOLUTION 35000
AC$CHROMATOGRAPHY: COLUMN_NAME Acclaim RSLC C18 2.2um, 2.1x100mm, Thermo
AC$CHROMATOGRAPHY: FLOW_GRADIENT 99/1 at 0-1 min, 61/39 at 3 min, 0.1/99.9 at 14-16 min, 99/1 at 16.1-20 min
AC$CHROMATOGRAPHY: FLOW_RATE 200 uL/min at 0-3 min, 400 uL/min at 14 min, 480 uL/min at 16-19 min, 200 uL/min at 19.1-20 min
AC$CHROMATOGRAPHY: RETENTION_TIME 6.680 min
AC$CHROMATOGRAPHY: SOLVENT A 90:10 water:methanol with 0.01% formic acid and 5mM ammonium formate
AC$CHROMATOGRAPHY: SOLVENT B methanol with 0.01% formic acid and 5mM ammonium formate
MS$FOCUSED_ION: BASE_PEAK 430.2589
MS$FOCUSED_ION: PRECURSOR_M/Z 349.1329
MS$FOCUSED_ION: PRECURSOR_TYPE [M+H]+
MS$DATA_PROCESSING: RECALIBRATE identity on assigned fragments and MS1
MS$DATA_PROCESSING: WHOLE RMassBank 2.10.1
PK$SPLASH: splash10-03di-0090000000-44354a1049031a841be0
PK$ANNOTATION: m/z tentative_formula formula_count mass error(ppm)
  183.0902 C4H15N4O2S+ 5 183.091 -4.24
  264.08 C12H14N3O2S+ 3 264.0801 -0.46
  265.0826 C11[13]CH14N3O2S+ 1 265.084 -5.33
  266.0766 C12H14N3O2[34]S+ 1 266.0765 0.63
  290.0592 C13H12N3O3S+ 3 290.0594 -0.58
  291.0619 C12[13]CH12N3O3S+ 1 291.0633 -4.62
  292.0566 C13H12N3O3[34]S+ 1 292.0557 2.96
  349.1336 C16H21N4O3S+ 1 349.1329 2.15
PK$NUM_PEAK: 8
PK$PEAK: m/z int. rel.int.
  183.0902 2464 5
  264.08 413564 999
  265.0826 51892 125
  266.0766 15740 38
  290.0592 62336 150
  291.0619 9208 22
  292.0566 3092 7
  349.1336 2804 6
//
