ACCESSION: MSBNK-Athens_Univ-AU502002
RECORD_TITLE: 4,4`-Difluorobenzophenonen; GC-APCI-QTOF; MS2; CE: 20 eV; R=35000; [M+H]+
DATE: 2021.04.19
AUTHORS: Chrysoula Kanakaki, Nikiforos Alygizakis, Nikolaos Thomaidis, University of Athens
LICENSE: CC BY
COPYRIGHT: Copyright (C) 2021 Department of Chemistry, University of Athens
COMMENT: CONFIDENCE standard compound
COMMENT: INTERNAL_ID 5020
CH$NAME: 4,4`-Difluorobenzophenonen
CH$COMPOUND_CLASS: N/A; Food Contact Material
CH$FORMULA: C13H8F2O
CH$EXACT_MASS: 218.0543
CH$SMILES: C1=CC(=CC=C1C(=O)C2=CC=C(C=C2)F)F
CH$IUPAC: InChI=1S/C13H8F2O/c14-11-5-1-9(2-6-11)13(16)10-3-7-12(15)8-4-10/h1-8H
CH$LINK: CAS 345-92-6
CH$LINK: PUBCHEM CID:9582
CH$LINK: INCHIKEY LSQARZALBDFYQZ-UHFFFAOYSA-N
CH$LINK: CHEMSPIDER 9206
AC$INSTRUMENT: Bruker 450 GC coupled to maXis Impact
AC$INSTRUMENT_TYPE: GC-APCI-QTOF
AC$MASS_SPECTROMETRY: MS_TYPE MS2
AC$MASS_SPECTROMETRY: ION_MODE POSITIVE
AC$MASS_SPECTROMETRY: IONIZATION APCI
AC$MASS_SPECTROMETRY: FRAGMENTATION_MODE CID
AC$MASS_SPECTROMETRY: COLLISION_ENERGY 20 eV
AC$MASS_SPECTROMETRY: RESOLUTION 35000
AC$CHROMATOGRAPHY: COLUMN_NAME Rxi-5Sil MS column, 30m, 0.25mm i.d., 0.25µm film thickness, Restek
AC$CHROMATOGRAPHY: COLUMN_TEMPERATURE_GRADIENT 55oC at 0 min, 55oC at 3 min, 180oC at 11.33 min with 15oC/min, 280oC at 26.72 min with 6.5oC/min, 280oC at 31.72 min, 300oC at 33.72 min with 10oC/min, 300oC at 39 min
AC$CHROMATOGRAPHY: FLOW_RATE 1.5 mL/min
AC$CHROMATOGRAPHY: RETENTION_TIME 13.381 min
AC$CHROMATOGRAPHY: SOLVENT A Helium
MS$FOCUSED_ION: BASE_PEAK 218.0532
MS$FOCUSED_ION: PRECURSOR_M/Z 219.0616
MS$FOCUSED_ION: PRECURSOR_TYPE [M+H]+
MS$DATA_PROCESSING: RECALIBRATE identity on assigned fragments and MS1
MS$DATA_PROCESSING: WHOLE RMassBank 2.16.0
PK$SPLASH: splash10-00di-0910000000-b5803e783fb9065b7e3a
PK$ANNOTATION: m/z tentative_formula formula_count mass error(ppm)
  123.0234 C10H3+ 2 123.0229 3.68
  170.0525 C12H7F+ 2 170.0526 -0.57
  189.0553 C12H7F2+ 1 189.051 22.83
  198.0496 C13H7FO+ 1 198.0475 10.32
  199.0576 C13H8FO+ 1 199.0554 11.33
  201.0521 C13H7F2+ 1 201.051 5.21
  217.0464 C13H7F2O+ 1 217.0459 2.3
  218.0514 C13H8F2O+ 1 218.0538 -10.87
  219.0626 C13H9F2O+ 1 219.0616 4.36
PK$NUM_PEAK: 9
PK$PEAK: m/z int. rel.int.
  123.0234 27000 999
  170.0525 144 5
  189.0553 156 5
  198.0496 244 9
  199.0576 192 7
  201.0521 172 6
  217.0464 3648 134
  218.0514 512 18
  219.0626 1812 67
//
