ACCESSION: MSBNK-Athens_Univ-AU501504
RECORD_TITLE: 2,2`-Methylenebis(6-tert-butyl-p-cresol); GC-APCI-QTOF; MS2; CE: 40 eV; R=35000; [M+H]+
DATE: 2021.04.19
AUTHORS: Chrysoula Kanakaki, Nikiforos Alygizakis, Nikolaos Thomaidis, University of Athens
LICENSE: CC BY
COPYRIGHT: Copyright (C) 2021 Department of Chemistry, University of Athens
COMMENT: CONFIDENCE standard compound
COMMENT: INTERNAL_ID 5015
CH$NAME: 2,2`-Methylenebis(6-tert-butyl-p-cresol)
CH$COMPOUND_CLASS: N/A; Food Contact Material
CH$FORMULA: C23H32O2
CH$EXACT_MASS: 340.2402
CH$SMILES: CC1=CC(=C(C(=C1)C(C)(C)C)O)CC2=C(C(=CC(=C2)C)C(C)(C)C)O
CH$IUPAC: InChI=1S/C23H32O2/c1-14-9-16(20(24)18(11-14)22(3,4)5)13-17-10-15(2)12-19(21(17)25)23(6,7)8/h9-12,24-25H,13H2,1-8H3
CH$LINK: CAS 119-47-1
CH$LINK: PUBCHEM CID:8398
CH$LINK: INCHIKEY KGRVJHAUYBGFFP-UHFFFAOYSA-N
CH$LINK: CHEMSPIDER 8092
AC$INSTRUMENT: Bruker 450 GC coupled to maXis Impact
AC$INSTRUMENT_TYPE: GC-APCI-QTOF
AC$MASS_SPECTROMETRY: MS_TYPE MS2
AC$MASS_SPECTROMETRY: ION_MODE POSITIVE
AC$MASS_SPECTROMETRY: IONIZATION APCI
AC$MASS_SPECTROMETRY: FRAGMENTATION_MODE CID
AC$MASS_SPECTROMETRY: COLLISION_ENERGY 40 eV
AC$MASS_SPECTROMETRY: RESOLUTION 35000
AC$CHROMATOGRAPHY: COLUMN_NAME Rxi-5Sil MS column, 30m, 0.25mm i.d., 0.25µm film thickness, Restek
AC$CHROMATOGRAPHY: COLUMN_TEMPERATURE_GRADIENT 55oC at 0 min, 55oC at 3 min, 180oC at 11.33 min with 15oC/min, 280oC at 26.72 min with 6.5oC/min, 280oC at 31.72 min, 300oC at 33.72 min with 10oC/min, 300oC at 39 min
AC$CHROMATOGRAPHY: FLOW_RATE 1.5 mL/min
AC$CHROMATOGRAPHY: RETENTION_TIME 24.027 min
AC$CHROMATOGRAPHY: SOLVENT A Helium
MS$FOCUSED_ION: BASE_PEAK 283.2618
MS$FOCUSED_ION: PRECURSOR_M/Z 341.2475
MS$FOCUSED_ION: PRECURSOR_TYPE [M+H]+
MS$DATA_PROCESSING: RECALIBRATE identity on assigned fragments and MS1
MS$DATA_PROCESSING: WHOLE RMassBank 2.16.0
PK$SPLASH: splash10-0aw9-8900000000-467718431d7c5145e943
PK$ANNOTATION: m/z tentative_formula formula_count mass error(ppm)
  55.0536 C4H7+ 1 55.0542 -11.65
  57.0346 C3H5O+ 1 57.0335 19.46
  69.0707 C5H9+ 1 69.0699 12.5
  121.1007 C9H13+ 1 121.1012 -3.78
  131.0858 C10H11+ 1 131.0855 1.74
  135.117 C10H15+ 1 135.1168 1.57
PK$NUM_PEAK: 6
PK$PEAK: m/z int. rel.int.
  55.0536 116 783
  57.0346 108 729
  69.0707 124 837
  121.1007 148 999
  131.0858 132 891
  135.117 104 702
//
