ACCESSION: MSBNK-Athens_Univ-AU368803
RECORD_TITLE: Thifensulfuron-methyl; LC-ESI-QTOF; MS2; CE: 30 eV; R=35000; [M+H]+
DATE: 2015.12.09
AUTHORS: Nikiforos Alygizakis, Nikolaos Thomaidis, University of Athens
LICENSE: CC BY-SA
COPYRIGHT: Copyright (C) 2015 Department of Chemistry, University of Athens
COMMENT: CONFIDENCE standard compound
COMMENT: INTERNAL_ID 3688
CH$NAME: Thifensulfuron-methyl
CH$NAME: methyl 3-[(4-methoxy-6-methyl-1,3,5-triazin-2-yl)carbamoylsulfamoyl]thiophene-2-carboxylate
CH$COMPOUND_CLASS: N/A; Environmental Standard
CH$FORMULA: C12H13N5O6S2
CH$EXACT_MASS: 387.0307251
CH$SMILES: COC(=O)C1=C(C=CS1)S(=O)(=O)NC(=O)NC1=NC(C)=NC(OC)=N1
CH$IUPAC: InChI=1S/C12H13N5O6S2/c1-6-13-10(16-12(14-6)23-3)15-11(19)17-25(20,21)7-4-5-24-8(7)9(18)22-2/h4-5H,1-3H3,(H2,13,14,15,16,17,19)
CH$LINK: CAS 79277-27-3
CH$LINK: CHEBI CHEBI:83453
CH$LINK: KEGG C10957
CH$LINK: PUBCHEM CID:73674
CH$LINK: INCHIKEY AHTPATJNIAFOLR-UHFFFAOYSA-N
CH$LINK: CHEMSPIDER 66325
CH$LINK: COMPTOX DTXSID1024124
AC$INSTRUMENT: Bruker maXis Impact
AC$INSTRUMENT_TYPE: LC-ESI-QTOF
AC$MASS_SPECTROMETRY: MS_TYPE MS2
AC$MASS_SPECTROMETRY: ION_MODE POSITIVE
AC$MASS_SPECTROMETRY: IONIZATION ESI
AC$MASS_SPECTROMETRY: FRAGMENTATION_MODE CID
AC$MASS_SPECTROMETRY: COLLISION_ENERGY 30 eV
AC$MASS_SPECTROMETRY: RESOLUTION 35000
AC$CHROMATOGRAPHY: COLUMN_NAME Acclaim RSLC C18 2.2um, 2.1x100mm, Thermo
AC$CHROMATOGRAPHY: FLOW_GRADIENT 99/1 at 0-1 min, 61/39 at 3 min, 0.1/99.9 at 14-16 min, 99/1 at 16.1-20 min
AC$CHROMATOGRAPHY: FLOW_RATE 200 uL/min at 0-3 min, 400 uL/min at 14 min, 480 uL/min at 16-19 min, 200 uL/min at 19.1-20 min
AC$CHROMATOGRAPHY: RETENTION_TIME 6.3 min
AC$CHROMATOGRAPHY: SOLVENT A 90:10 water:methanol with 0.01% formic acid and 5mM ammonium formate
AC$CHROMATOGRAPHY: SOLVENT B methanol with 0.01% formic acid and 5mM ammonium formate
MS$FOCUSED_ION: BASE_PEAK 388.0377
MS$FOCUSED_ION: PRECURSOR_M/Z 388.038
MS$FOCUSED_ION: PRECURSOR_TYPE [M+H]+
MS$DATA_PROCESSING: RECALIBRATE identity on assigned fragments and MS1
MS$DATA_PROCESSING: REANALYZE Peaks with additional N2/O included
MS$DATA_PROCESSING: WHOLE RMassBank 2.0.3
PK$SPLASH: splash10-014i-0920000000-9862abca3a0cbf849d1b
PK$ANNOTATION: m/z tentative_formula formula_count mass error(ppm)
  125.9761 C3N3OS+ 2 125.9757 3.42
  140.9993 C4H3N3OS+ 6 140.9991 1.42
  141.076 C5H9N4O+ 1 141.0771 -7.8
  149.0212 C6H3N3O2+ 6 149.022 -5.17
  167.0552 C5H11O6+ 7 167.055 1.31
  168.0579 C4[13]CH11O6+ 1 168.0585 -3.57
  169.0602 C3[13]C2H11O6+ 1 169.0585 10.06
  174.9514 C5H3O3S2+ 4 174.9518 -2.35
  189.962 C3H2N4O2S2+ 6 189.9614 3.41
  204.9611 C4H3N3O3S2+ 6 204.961 0.43
  205.964 C3[13]CH3N3O3S2+ 1 205.9626 6.8
  206.957 C4H3N3O3S[34]S+ 1 206.9574 -1.64
  215.9429 C6H2NO4S2+ 4 215.942 4.43
  222.9717 C4H5N3O4S2+ 8 222.9716 0.47
PK$NUM_PEAK: 14
PK$PEAK: m/z int. rel.int.
  125.9761 1188 9
  140.9993 1020 8
  141.076 19992 164
  149.0212 896 7
  167.0552 121460 999
  168.0579 7924 65
  169.0602 804 6
  174.9514 1616 13
  189.962 1668 13
  204.9611 33128 272
  205.964 3204 26
  206.957 3432 28
  215.9429 1244 10
  222.9717 4872 40
//
