ACCESSION: MSBNK-Athens_Univ-AU238901
RECORD_TITLE: Allopurinol; LC-ESI-QTOF; MS2; CE: 10 eV; R=35000; [M+H]+
DATE: 2019.05.31
AUTHORS: Nikiforos Alygizakis, Katerina Galani, Nikolaos Thomaidis, University of Athens
LICENSE: CC BY
COPYRIGHT: Copyright (C) 2019 Department of Chemistry, University of Athens
COMMENT: CONFIDENCE standard compound
COMMENT: INTERNAL_ID 2389
CH$NAME: Allopurinol
CH$NAME: CID 2094
CH$NAME: 1,2-dihydropyrazolo[3,4-d]pyrimidin-4-one
CH$COMPOUND_CLASS: N/A; Environmental Standard
CH$FORMULA: C5H4N4O
CH$EXACT_MASS: 136.0385107
CH$SMILES: OC1=NC=NC2=C1C=NN2
CH$IUPAC: InChI=1S/C5H4N4O/c10-5-3-1-8-9-4(3)6-2-7-5/h1-2H,(H2,6,7,8,9,10)
CH$LINK: CAS 315-30-0
CH$LINK: CHEBI CHEBI:40279
CH$LINK: INCHIKEY OFCNXPDARWKPPY-UHFFFAOYSA-N
CH$LINK: CHEMSPIDER 2010
CH$LINK: COMPTOX DTXSID4022573
CH$LINK: PUBCHEM CID:135401907
AC$INSTRUMENT: Bruker maXis Impact
AC$INSTRUMENT_TYPE: LC-ESI-QTOF
AC$MASS_SPECTROMETRY: MS_TYPE MS2
AC$MASS_SPECTROMETRY: ION_MODE POSITIVE
AC$MASS_SPECTROMETRY: IONIZATION ESI
AC$MASS_SPECTROMETRY: FRAGMENTATION_MODE CID
AC$MASS_SPECTROMETRY: COLLISION_ENERGY 10 eV
AC$MASS_SPECTROMETRY: RESOLUTION 35000
AC$CHROMATOGRAPHY: COLUMN_NAME Acclaim RSLC C18 2.2um, 2.1x100mm, Thermo
AC$CHROMATOGRAPHY: FLOW_GRADIENT 99/1 at 0-1 min, 61/39 at 3 min, 0.1/99.9 at 14-16 min, 99/1 at 16.1-20 min
AC$CHROMATOGRAPHY: FLOW_RATE 200 uL/min at 0-3 min, 400 uL/min at 14 min, 480 uL/min at 16-19 min, 200 uL/min at 19.1-20 min
AC$CHROMATOGRAPHY: RETENTION_TIME 2.397 min
AC$CHROMATOGRAPHY: SOLVENT A 90:10 water:methanol with 0.01% formic acid and 5mM ammonium formate
AC$CHROMATOGRAPHY: SOLVENT B methanol with 0.01% formic acid and 5mM ammonium formate
MS$FOCUSED_ION: BASE_PEAK 137.0447
MS$FOCUSED_ION: PRECURSOR_M/Z 137.0458
MS$FOCUSED_ION: PRECURSOR_TYPE [M+H]+
MS$DATA_PROCESSING: RECALIBRATE identity on assigned fragments and MS1
MS$DATA_PROCESSING: WHOLE RMassBank 2.10.1
PK$SPLASH: splash10-000i-0900000000-66ba0347568bb111e629
PK$ANNOTATION: m/z tentative_formula formula_count mass error(ppm)
  137.044 C5H5N4O+ 1 137.0458 -12.72
  138.048 C4[13]CH5N4O+ 1 138.0497 -12.33
PK$NUM_PEAK: 2
PK$PEAK: m/z int. rel.int.
  137.044 12460 999
  138.048 992 79
//
