ACCESSION: MSBNK-Athens_Univ-AU506604
RECORD_TITLE: 1-Phenyl-2-butanone; GC-APCI-QTOF; MS2; CE: 40 eV; R=35000; [M+H]+
DATE: 2021.04.20
AUTHORS: Chrysoula Kanakaki, Nikiforos Alygizakis, Nikolaos Thomaidis, University of Athens
LICENSE: CC BY
COPYRIGHT: Copyright (C) 2021 Department of Chemistry, University of Athens
COMMENT: CONFIDENCE standard compound
COMMENT: INTERNAL_ID 5066
CH$NAME: 1-Phenyl-2-butanone
CH$COMPOUND_CLASS: N/A; Food Contact Material
CH$FORMULA: C10H12O
CH$EXACT_MASS: 148.0888
CH$SMILES: CCC(=O)CC1=CC=CC=C1
CH$IUPAC: InChI=1S/C10H12O/c1-2-10(11)8-9-6-4-3-5-7-9/h3-7H,2,8H2,1H3
CH$LINK: CAS 1007-32-5
CH$LINK: PUBCHEM CID:13879
CH$LINK: INCHIKEY GKDLTXYXODKDEA-UHFFFAOYSA-N
CH$LINK: CHEMSPIDER 13279
AC$INSTRUMENT: Bruker 450 GC coupled to maXis Impact
AC$INSTRUMENT_TYPE: GC-APCI-QTOF
AC$MASS_SPECTROMETRY: MS_TYPE MS2
AC$MASS_SPECTROMETRY: ION_MODE POSITIVE
AC$MASS_SPECTROMETRY: IONIZATION APCI
AC$MASS_SPECTROMETRY: FRAGMENTATION_MODE CID
AC$MASS_SPECTROMETRY: COLLISION_ENERGY 40 eV
AC$MASS_SPECTROMETRY: RESOLUTION 35000
AC$CHROMATOGRAPHY: COLUMN_NAME Rxi-5Sil MS column, 30m, 0.25mm i.d., 0.25µm film thickness, Restek
AC$CHROMATOGRAPHY: COLUMN_TEMPERATURE_GRADIENT 55oC at 0 min, 55oC at 3 min, 180oC at 11.33 min with 15oC/min, 280oC at 26.72 min with 6.5oC/min, 280oC at 31.72 min, 300oC at 33.72 min with 10oC/min, 300oC at 39 min
AC$CHROMATOGRAPHY: FLOW_RATE 1.5 mL/min
AC$CHROMATOGRAPHY: RETENTION_TIME 9.826 min
AC$CHROMATOGRAPHY: SOLVENT A Helium
MS$FOCUSED_ION: BASE_PEAK 149.0978
MS$FOCUSED_ION: PRECURSOR_M/Z 149.0961
MS$FOCUSED_ION: PRECURSOR_TYPE [M+H]+
MS$DATA_PROCESSING: RECALIBRATE identity on assigned fragments and MS1
MS$DATA_PROCESSING: WHOLE RMassBank 2.16.0
PK$SPLASH: splash10-05ox-9300000000-0b10e32eec7a201bd3e1
PK$ANNOTATION: m/z tentative_formula formula_count mass error(ppm)
  57.0336 C3H5O+ 1 57.0335 2.06
  79.0533 C6H7+ 1 79.0542 -11.26
  91.0537 C7H7+ 1 91.0542 -5.8
  115.0549 C9H7+ 1 115.0542 5.91
PK$NUM_PEAK: 4
PK$PEAK: m/z int. rel.int.
  57.0336 128 639
  79.0533 124 619
  91.0537 200 999
  115.0549 196 979
//
