ACCESSION: MSBNK-Athens_Univ-AU108454
RECORD_TITLE: Ethopabate; LC-ESI-QTOF; MS2; CE: 40 eV; R=35000; [M-H]-
DATE: 2016.02.29
AUTHORS: Nikiforos Alygizakis, Nikolaos Thomaidis, University of Athens
LICENSE: CC BY
COPYRIGHT: Copyright (C) 2016 Department of Chemistry, University of Athens
COMMENT: CONFIDENCE standard compound
COMMENT: INTERNAL_ID 1084
CH$NAME: Ethopabate
CH$NAME: methyl 4-acetamido-2-ethoxybenzoate
CH$COMPOUND_CLASS: N/A; Environmental Standard
CH$FORMULA: C12H15NO4
CH$EXACT_MASS: 237.1001080
CH$SMILES: CCOc1cc(ccc1C(=O)OC)NC(=O)C
CH$IUPAC: InChI=1S/C12H15NO4/c1-4-17-11-7-9(13-8(2)14)5-6-10(11)12(15)16-3/h5-7H,4H2,1-3H3,(H,13,14)
CH$LINK: CAS 59-06-3
CH$LINK: KEGG D08916
CH$LINK: PUBCHEM CID:6034
CH$LINK: INCHIKEY GOVWOKSKFSBNGD-UHFFFAOYSA-N
CH$LINK: CHEMSPIDER 5812
CH$LINK: COMPTOX DTXSID6046264
AC$INSTRUMENT: Bruker maXis Impact
AC$INSTRUMENT_TYPE: LC-ESI-QTOF
AC$MASS_SPECTROMETRY: MS_TYPE MS2
AC$MASS_SPECTROMETRY: ION_MODE NEGATIVE
AC$MASS_SPECTROMETRY: IONIZATION ESI
AC$MASS_SPECTROMETRY: FRAGMENTATION_MODE CID
AC$MASS_SPECTROMETRY: COLLISION_ENERGY 40 eV
AC$MASS_SPECTROMETRY: RESOLUTION 35000
AC$CHROMATOGRAPHY: COLUMN_NAME Acclaim RSLC C18 2.2um, 2.1x100mm, Thermo
AC$CHROMATOGRAPHY: FLOW_GRADIENT 99/1 at 0-1 min, 61/39 at 3 min, 0.1/99.9 at 14-16 min, 99/1 at 16.1-20 min
AC$CHROMATOGRAPHY: FLOW_RATE 200 uL/min at 0-3 min, 400 uL/min at 14 min, 480 uL/min at 16-19 min, 200 uL/min at 19.1-20 min
AC$CHROMATOGRAPHY: RETENTION_TIME 6.327 min
AC$CHROMATOGRAPHY: SOLVENT A 90:10 water:methanol with 5mM ammonium acetate
AC$CHROMATOGRAPHY: SOLVENT B methanol with 5mM ammonium acetate
MS$FOCUSED_ION: BASE_PEAK 236.0922
MS$FOCUSED_ION: PRECURSOR_M/Z 236.0928
MS$FOCUSED_ION: PRECURSOR_TYPE [M-H]-
MS$DATA_PROCESSING: RECALIBRATE identity on assigned fragments and MS1
MS$DATA_PROCESSING: WHOLE RMassBank 1.99.10
PK$SPLASH: splash10-001i-0900000000-df44e2ea354da30cb726
PK$ANNOTATION: m/z tentative_formula formula_count mass error(ppm)
  120.0441 C4H8O4- 2 120.0428 11.02
  132.0083 C7H2NO2- 1 132.0091 -5.82
  133.0156 C7H3NO2- 1 133.0169 -10.02
  134.0241 C7H4NO2- 1 134.0248 -5.21
  135.0317 C7H5NO2- 1 135.0326 -6.7
  160.0026 C8H2NO3- 1 160.004 -8.68
  162.0184 C8H4NO3- 1 162.0197 -7.53
  192.0291 C9H6NO4- 1 192.0302 -6.09
PK$NUM_PEAK: 8
PK$PEAK: m/z int. rel.int.
  120.0441 328 114
  132.0083 2624 916
  133.0156 552 192
  134.0241 2616 913
  135.0317 376 131
  160.0026 704 245
  162.0184 1308 456
  192.0291 2860 999
//
