ACCESSION: MSBNK-Athens_Univ-AU241801
RECORD_TITLE: 3,4-Dichlorophenylurea; LC-ESI-QTOF; MS2; CE: 10 eV; R=35000; [M+H]+
DATE: 2019.05.31
AUTHORS: Nikiforos Alygizakis, Katerina Galani, Nikolaos Thomaidis, University of Athens
LICENSE: CC BY
COPYRIGHT: Copyright (C) 2019 Department of Chemistry, University of Athens
COMMENT: CONFIDENCE standard compound
COMMENT: INTERNAL_ID 2418
CH$NAME: 3,4-Dichlorophenylurea
CH$NAME: 1-(3,4-Dichlorophenyl)urea
CH$NAME: (3,4-dichlorophenyl)urea
CH$COMPOUND_CLASS: N/A; Environmental Standard
CH$FORMULA: C7H6Cl2N2O
CH$EXACT_MASS: 203.9857182
CH$SMILES: NC(=O)NC1=CC(Cl)=C(Cl)C=C1
CH$IUPAC: InChI=1S/C7H6Cl2N2O/c8-5-2-1-4(3-6(5)9)11-7(10)12/h1-3H,(H3,10,11,12)
CH$LINK: CAS 2327-02-8
CH$LINK: CHEBI CHEBI:83464
CH$LINK: PUBCHEM CID:16854
CH$LINK: INCHIKEY CYESCLHCWJKRKM-UHFFFAOYSA-N
CH$LINK: CHEMSPIDER 15972
CH$LINK: COMPTOX DTXSID2041468
AC$INSTRUMENT: Bruker maXis Impact
AC$INSTRUMENT_TYPE: LC-ESI-QTOF
AC$MASS_SPECTROMETRY: MS_TYPE MS2
AC$MASS_SPECTROMETRY: ION_MODE POSITIVE
AC$MASS_SPECTROMETRY: IONIZATION ESI
AC$MASS_SPECTROMETRY: FRAGMENTATION_MODE CID
AC$MASS_SPECTROMETRY: COLLISION_ENERGY 10 eV
AC$MASS_SPECTROMETRY: RESOLUTION 35000
AC$CHROMATOGRAPHY: COLUMN_NAME Acclaim RSLC C18 2.2um, 2.1x100mm, Thermo
AC$CHROMATOGRAPHY: FLOW_GRADIENT 99/1 at 0-1 min, 61/39 at 3 min, 0.1/99.9 at 14-16 min, 99/1 at 16.1-20 min
AC$CHROMATOGRAPHY: FLOW_RATE 200 uL/min at 0-3 min, 400 uL/min at 14 min, 480 uL/min at 16-19 min, 200 uL/min at 19.1-20 min
AC$CHROMATOGRAPHY: RETENTION_TIME 7.946 min
AC$CHROMATOGRAPHY: SOLVENT A 90:10 water:methanol with 0.01% formic acid and 5mM ammonium formate
AC$CHROMATOGRAPHY: SOLVENT B methanol with 0.01% formic acid and 5mM ammonium formate
MS$FOCUSED_ION: BASE_PEAK 204.9918
MS$FOCUSED_ION: PRECURSOR_M/Z 204.993
MS$FOCUSED_ION: PRECURSOR_TYPE [M+H]+
MS$DATA_PROCESSING: RECALIBRATE identity on assigned fragments and MS1
MS$DATA_PROCESSING: WHOLE RMassBank 2.10.1
PK$SPLASH: splash10-0zfr-0290000000-b2aab7b3c0d472a10946
PK$ANNOTATION: m/z tentative_formula formula_count mass error(ppm)
  127.017 C6H6ClN+ 1 127.0183 -10.75
  129.0139 C6H6[37]ClN+ 1 129.0159 -15.61
  159.971 C6H4Cl2N+ 1 159.9715 -3.29
  161.9655 C6H4Cl[37]ClN+ 1 161.9691 -22.55
  161.9858 C6H6Cl2N+ 1 161.9872 -8.42
  162.9878 C5[13]CH6Cl2N+ 1 162.9911 -20.24
  163.9831 C6H6Cl[37]ClN+ 1 163.9848 -10.01
  187.9654 C7H4Cl2NO+ 1 187.9664 -5.47
  189.9616 C7H4Cl[37]ClNO+ 1 189.964 -12.95
  204.9919 C7H7Cl2N2O+ 1 204.993 -5.39
  205.9944 C6[13]CH7Cl2N2O+ 1 205.9969 -11.97
  206.9884 C7H7Cl[37]ClN2O+ 1 206.9906 -10.65
PK$NUM_PEAK: 12
PK$PEAK: m/z int. rel.int.
  127.017 2116 48
  129.0139 428 9
  159.971 644 14
  161.9655 376 8
  161.9858 6448 146
  162.9878 640 14
  163.9831 3636 82
  187.9654 908 20
  189.9616 536 12
  204.9919 43848 999
  205.9944 3428 78
  206.9884 23476 534
//
