ACCESSION: MSBNK-Athens_Univ-AU160801
RECORD_TITLE: Diazepam; LC-ESI-QTOF; MS2; CE: 10 eV; R=35000; [M+H]+
DATE: 2019.05.30
AUTHORS: Nikiforos Alygizakis, Katerina Galani, Nikolaos Thomaidis, University of Athens
LICENSE: CC BY
COPYRIGHT: Copyright (C) 2019 Department of Chemistry, University of Athens
COMMENT: CONFIDENCE standard compound
COMMENT: INTERNAL_ID 1608
CH$NAME: Diazepam
CH$NAME: 7-chloro-1-methyl-5-phenyl-3H-1,4-benzodiazepin-2-one
CH$COMPOUND_CLASS: N/A; Environmental Standard
CH$FORMULA: C16H13ClN2O
CH$EXACT_MASS: 284.0716407
CH$SMILES: CN1C2=C(C=C(Cl)C=C2)C(=NCC1=O)C1=CC=CC=C1
CH$IUPAC: InChI=1S/C16H13ClN2O/c1-19-14-8-7-12(17)9-13(14)16(18-10-15(19)20)11-5-3-2-4-6-11/h2-9H,10H2,1H3
CH$LINK: CAS 439-14-5
CH$LINK: CHEBI CHEBI:49575
CH$LINK: KEGG C06948
CH$LINK: PUBCHEM CID:3016
CH$LINK: INCHIKEY AAOVKJBEBIDNHE-UHFFFAOYSA-N
CH$LINK: CHEMSPIDER 2908
CH$LINK: COMPTOX DTXSID4020406
AC$INSTRUMENT: Bruker maXis Impact
AC$INSTRUMENT_TYPE: LC-ESI-QTOF
AC$MASS_SPECTROMETRY: MS_TYPE MS2
AC$MASS_SPECTROMETRY: ION_MODE POSITIVE
AC$MASS_SPECTROMETRY: IONIZATION ESI
AC$MASS_SPECTROMETRY: FRAGMENTATION_MODE CID
AC$MASS_SPECTROMETRY: COLLISION_ENERGY 10 eV
AC$MASS_SPECTROMETRY: RESOLUTION 35000
AC$CHROMATOGRAPHY: COLUMN_NAME Acclaim RSLC C18 2.2um, 2.1x100mm, Thermo
AC$CHROMATOGRAPHY: FLOW_GRADIENT 99/1 at 0-1 min, 61/39 at 3 min, 0.1/99.9 at 14-16 min, 99/1 at 16.1-20 min
AC$CHROMATOGRAPHY: FLOW_RATE 200 uL/min at 0-3 min, 400 uL/min at 14 min, 480 uL/min at 16-19 min, 200 uL/min at 19.1-20 min
AC$CHROMATOGRAPHY: RETENTION_TIME 9.498 min
AC$CHROMATOGRAPHY: SOLVENT A 90:10 water:methanol with 0.01% formic acid and 5mM ammonium formate
AC$CHROMATOGRAPHY: SOLVENT B methanol with 0.01% formic acid and 5mM ammonium formate
MS$FOCUSED_ION: BASE_PEAK 285.0793
MS$FOCUSED_ION: PRECURSOR_M/Z 285.0789
MS$FOCUSED_ION: PRECURSOR_TYPE [M+H]+
MS$DATA_PROCESSING: RECALIBRATE identity on assigned fragments and MS1
MS$DATA_PROCESSING: WHOLE RMassBank 2.10.1
PK$SPLASH: splash10-000i-0090000000-930ab710e10ac5ecb8b3
PK$ANNOTATION: m/z tentative_formula formula_count mass error(ppm)
  285.0794 C16H14ClN2O+ 1 285.0789 1.71
  287.0762 C16H14[37]ClN2O+ 1 287.0765 -1.08
PK$NUM_PEAK: 2
PK$PEAK: m/z int. rel.int.
  285.0794 2479088 999
  287.0762 1330056 535
//
