ACCESSION: MSBNK-Athens_Univ-AU218130
RECORD_TITLE: Dronedarone; LC-ESI-QTOF; MS2; CE: 10 eV; R=35000; [M+Na]+
DATE: 2016.02.28
AUTHORS: Nikiforos Alygizakis, Nikolaos Thomaidis, University of Athens
LICENSE: CC BY
COPYRIGHT: Copyright (C) 2016 Department of Chemistry, University of Athens
COMMENT: CONFIDENCE standard compound
COMMENT: INTERNAL_ID 2181
CH$NAME: Dronedarone
CH$NAME: N-[2-butyl-3-[4-[3-(dibutylamino)propoxy]benzoyl]-1-benzofuran-5-yl]methanesulfonamide
CH$COMPOUND_CLASS: N/A; Environmental Standard
CH$FORMULA: C31H44N2O5S
CH$EXACT_MASS: 556.2970935
CH$SMILES: CCCCc1c(c2cc(ccc2o1)NS(=O)(=O)C)C(=O)c3ccc(cc3)OCCCN(CCCC)CCCC
CH$IUPAC: InChI=1S/C31H44N2O5S/c1-5-8-12-29-30(27-23-25(32-39(4,35)36)15-18-28(27)38-29)31(34)24-13-16-26(17-14-24)37-22-11-21-33(19-9-6-2)20-10-7-3/h13-18,23,32H,5-12,19-22H2,1-4H3
CH$LINK: CAS 141626-36-0
CH$LINK: CHEBI CHEBI:50659
CH$LINK: KEGG D02537
CH$LINK: PUBCHEM CID:208898
CH$LINK: INCHIKEY ZQTNQVWKHCQYLQ-UHFFFAOYSA-N
CH$LINK: CHEMSPIDER 180996
CH$LINK: COMPTOX DTXSID3048653
AC$INSTRUMENT: Bruker maXis Impact
AC$INSTRUMENT_TYPE: LC-ESI-QTOF
AC$MASS_SPECTROMETRY: MS_TYPE MS2
AC$MASS_SPECTROMETRY: ION_MODE POSITIVE
AC$MASS_SPECTROMETRY: IONIZATION ESI
AC$MASS_SPECTROMETRY: FRAGMENTATION_MODE CID
AC$MASS_SPECTROMETRY: COLLISION_ENERGY 10 eV
AC$MASS_SPECTROMETRY: RESOLUTION 35000
AC$CHROMATOGRAPHY: COLUMN_NAME Acclaim RSLC C18 2.2um, 2.1x100mm, Thermo
AC$CHROMATOGRAPHY: FLOW_GRADIENT 99/1 at 0-1 min, 61/39 at 3 min, 0.1/99.9 at 14-16 min, 99/1 at 16.1-20 min
AC$CHROMATOGRAPHY: FLOW_RATE 200 uL/min at 0-3 min, 400 uL/min at 14 min, 480 uL/min at 16-19 min, 200 uL/min at 19.1-20 min
AC$CHROMATOGRAPHY: RETENTION_TIME 5.706 min
AC$CHROMATOGRAPHY: SOLVENT A 90:10 water:methanol with 0.01% formic acid and 5mM ammonium formate
AC$CHROMATOGRAPHY: SOLVENT B methanol with 0.01% formic acid and 5mM ammonium formate
MS$FOCUSED_ION: BASE_PEAK 309.0651
MS$FOCUSED_ION: PRECURSOR_M/Z 579.2863
MS$FOCUSED_ION: PRECURSOR_TYPE [M+Na]+
MS$DATA_PROCESSING: RECALIBRATE identity on assigned fragments and MS1
MS$DATA_PROCESSING: WHOLE RMassBank 1.99.10
PK$SPLASH: splash10-0a4i-0009000000-3907f22342214f24d3ef
PK$ANNOTATION: m/z tentative_formula formula_count mass error(ppm)
  309.066 C20H9N2O2+ 14 309.0659 0.61
  310.0683 C19[13]CH9N2O2+ 1 310.0698 -4.66
PK$NUM_PEAK: 2
PK$PEAK: m/z int. rel.int.
  309.066 19264 999
  310.0683 3692 191
//
