ACCESSION: MSBNK-Athens_Univ-AU269801
RECORD_TITLE: Mycophenolic acid; LC-ESI-QTOF; MS2; CE: 10 eV; R=35000; [M+H]+
DATE: 2019.05.30
AUTHORS: Nikiforos Alygizakis, Katerina Galani, Nikolaos Thomaidis, University of Athens
LICENSE: CC BY
COPYRIGHT: Copyright (C) 2019 Department of Chemistry, University of Athens
COMMENT: CONFIDENCE standard compound
COMMENT: INTERNAL_ID 2698
CH$NAME: Mycophenolic acid
CH$NAME: (E)-6-(4-hydroxy-6-methoxy-7-methyl-3-oxo-1H-2-benzofuran-5-yl)-4-methylhex-4-enoic acid
CH$COMPOUND_CLASS: N/A; Environmental Standard
CH$FORMULA: C17H20O6
CH$EXACT_MASS: 320.1259884
CH$SMILES: COC1=C(C)C2=C(C(=O)OC2)C(O)=C1C\C=C(/C)CCC(O)=O
CH$IUPAC: InChI=1S/C17H20O6/c1-9(5-7-13(18)19)4-6-11-15(20)14-12(8-23-17(14)21)10(2)16(11)22-3/h4,20H,5-8H2,1-3H3,(H,18,19)/b9-4+
CH$LINK: CAS 483-60-3
CH$LINK: CHEBI CHEBI:92545
CH$LINK: KEGG C20380
CH$LINK: PUBCHEM CID:446541
CH$LINK: INCHIKEY HPNSFSBZBAHARI-RUDMXATFSA-N
CH$LINK: CHEMSPIDER 393865
CH$LINK: COMPTOX DTXSID4041070
AC$INSTRUMENT: Bruker maXis Impact
AC$INSTRUMENT_TYPE: LC-ESI-QTOF
AC$MASS_SPECTROMETRY: MS_TYPE MS2
AC$MASS_SPECTROMETRY: ION_MODE POSITIVE
AC$MASS_SPECTROMETRY: IONIZATION ESI
AC$MASS_SPECTROMETRY: FRAGMENTATION_MODE CID
AC$MASS_SPECTROMETRY: COLLISION_ENERGY 10 eV
AC$MASS_SPECTROMETRY: RESOLUTION 35000
AC$CHROMATOGRAPHY: COLUMN_NAME Acclaim RSLC C18 2.2um, 2.1x100mm, Thermo
AC$CHROMATOGRAPHY: FLOW_GRADIENT 99/1 at 0-1 min, 61/39 at 3 min, 0.1/99.9 at 14-16 min, 99/1 at 16.1-20 min
AC$CHROMATOGRAPHY: FLOW_RATE 200 uL/min at 0-3 min, 400 uL/min at 14 min, 480 uL/min at 16-19 min, 200 uL/min at 19.1-20 min
AC$CHROMATOGRAPHY: RETENTION_TIME 8.795 min
AC$CHROMATOGRAPHY: SOLVENT A 90:10 water:methanol with 0.01% formic acid and 5mM ammonium formate
AC$CHROMATOGRAPHY: SOLVENT B methanol with 0.01% formic acid and 5mM ammonium formate
MS$FOCUSED_ION: BASE_PEAK 306.081
MS$FOCUSED_ION: PRECURSOR_M/Z 321.1333
MS$FOCUSED_ION: PRECURSOR_TYPE [M+H]+
MS$DATA_PROCESSING: RECALIBRATE identity on assigned fragments and MS1
MS$DATA_PROCESSING: WHOLE RMassBank 2.10.1
PK$SPLASH: splash10-00di-0029000000-84baa1ef17e354eca714
PK$ANNOTATION: m/z tentative_formula formula_count mass error(ppm)
  195.0651 C10H11O4+ 1 195.0652 -0.57
  207.0646 C11H11O4+ 1 207.0652 -2.88
  208.0672 C10[13]CH11O4+ 1 208.0691 -9.23
  275.1273 C16H19O4+ 1 275.1278 -1.59
  276.1318 C15[13]CH19O4+ 1 276.1317 0.48
  285.1117 C17H17O4+ 1 285.1121 -1.48
  303.1223 C17H19O5+ 1 303.1227 -1.48
  304.125 C16[13]CH19O5+ 1 304.1266 -5.12
  321.1332 C17H21O6+ 1 321.1333 -0.19
  322.1359 C16[13]CH21O6+ 1 322.1372 -3.88
PK$NUM_PEAK: 10
PK$PEAK: m/z int. rel.int.
  195.0651 704 16
  207.0646 10784 251
  208.0672 1444 33
  275.1273 7232 168
  276.1318 1272 29
  285.1117 824 19
  303.1223 15648 365
  304.125 3300 77
  321.1332 42792 999
  322.1359 9324 217
//
