ACCESSION: MSBNK-Athens_Univ-AU207301
RECORD_TITLE: Propachlor-OXA; LC-ESI-QTOF; MS2; CE: 10 eV; R=35000; [M+H]+
DATE: 2015.12.05
AUTHORS: Nikiforos Alygizakis, Nikolaos Thomaidis, University of Athens
LICENSE: CC BY-SA
COPYRIGHT: Copyright (C) 2015 Department of Chemistry, University of Athens
COMMENT: CONFIDENCE standard compound
COMMENT: INTERNAL_ID 2073
CH$NAME: Propachlor-OXA
CH$NAME: Propachlor OA
CH$NAME: 2-oxo-2-(N-propan-2-ylanilino)acetic acid
CH$COMPOUND_CLASS: N/A; Environmental Standard
CH$FORMULA: C11H13NO3
CH$EXACT_MASS: 207.0895433
CH$SMILES: CC(C)N(C(=O)C(O)=O)C1=CC=CC=C1
CH$IUPAC: InChI=1S/C11H13NO3/c1-8(2)12(10(13)11(14)15)9-6-4-3-5-7-9/h3-8H,1-2H3,(H,14,15)
CH$LINK: CAS 70628-36-3
CH$LINK: CHEBI CHEBI:83520
CH$LINK: PUBCHEM CID:155385
CH$LINK: INCHIKEY HYHJOUPYTUBFIX-UHFFFAOYSA-N
CH$LINK: CHEMSPIDER 136883
CH$LINK: COMPTOX DTXSID8037592
AC$INSTRUMENT: Bruker maXis Impact
AC$INSTRUMENT_TYPE: LC-ESI-QTOF
AC$MASS_SPECTROMETRY: MS_TYPE MS2
AC$MASS_SPECTROMETRY: ION_MODE POSITIVE
AC$MASS_SPECTROMETRY: IONIZATION ESI
AC$MASS_SPECTROMETRY: FRAGMENTATION_MODE CID
AC$MASS_SPECTROMETRY: COLLISION_ENERGY 10 eV
AC$MASS_SPECTROMETRY: RESOLUTION 35000
AC$CHROMATOGRAPHY: COLUMN_NAME Acclaim RSLC C18 2.2um, 2.1x100mm, Thermo
AC$CHROMATOGRAPHY: FLOW_GRADIENT 99/1 at 0-1 min, 61/39 at 3 min, 0.1/99.9 at 14-16 min, 99/1 at 16.1-20 min
AC$CHROMATOGRAPHY: FLOW_RATE 200 uL/min at 0-3 min, 400 uL/min at 14 min, 480 uL/min at 16-19 min, 200 uL/min at 19.1-20 min
AC$CHROMATOGRAPHY: RETENTION_TIME 4.9 min
AC$CHROMATOGRAPHY: SOLVENT A 90:10 water:methanol with 0.01% formic acid and 5mM ammonium formate
AC$CHROMATOGRAPHY: SOLVENT B methanol with 0.01% formic acid and 5mM ammonium formate
MS$FOCUSED_ION: BASE_PEAK 188.1428
MS$FOCUSED_ION: PRECURSOR_M/Z 208.0968
MS$FOCUSED_ION: PRECURSOR_TYPE [M+H]+
MS$DATA_PROCESSING: RECALIBRATE identity on assigned fragments and MS1
MS$DATA_PROCESSING: REANALYZE Peaks with additional N2/O included
MS$DATA_PROCESSING: WHOLE RMassBank 2.0.3
PK$SPLASH: splash10-0300-0910000000-a0d22d9ce8d71245f217
PK$ANNOTATION: m/z tentative_formula formula_count mass error(ppm)
  120.0438 C7H6NO+ 1 120.0444 -4.85
  121.0469 C6[13]CH6NO+ 1 121.0474 -4.13
  147.065 C9H9NO+ 1 147.0679 -19.52
  162.09 C10H12NO+ 1 162.0913 -8.45
  163.0937 C9[13]CH12NO+ 1 163.0945 -4.91
  166.0488 C8H8NO3+ 1 166.0499 -6.42
  189.0545 C11H9O3+ 1 189.0546 -0.79
  208.0965 C11H14NO3+ 1 208.0968 -1.68
PK$NUM_PEAK: 8
PK$PEAK: m/z int. rel.int.
  120.0438 6428 624
  121.0469 940 91
  147.065 340 33
  162.09 6552 636
  163.0937 924 89
  166.0488 10280 999
  189.0545 396 38
  208.0965 4924 478
//
