ACCESSION: MSBNK-Athens_Univ-AU301603
RECORD_TITLE: Atrazine-Desethyl; LC-ESI-QTOF; MS2; CE: 30 eV; R=35000; [M+H]+
DATE: 2015.12.08
AUTHORS: Nikiforos Alygizakis, Nikolaos Thomaidis, University of Athens
LICENSE: CC BY-SA
COPYRIGHT: Copyright (C) 2015 Department of Chemistry, University of Athens
COMMENT: CONFIDENCE standard compound
COMMENT: INTERNAL_ID 3016
CH$NAME: Atrazine-Desethyl
CH$NAME: Deethylatrazine
CH$NAME: 6-chloro-2-N-propan-2-yl-1,3,5-triazine-2,4-diamine
CH$COMPOUND_CLASS: N/A; Environmental Standard
CH$FORMULA: C6H10ClN5
CH$EXACT_MASS: 187.0624730
CH$SMILES: CC(C)NC1=NC(N)=NC(Cl)=N1
CH$IUPAC: InChI=1S/C6H10ClN5/c1-3(2)9-6-11-4(7)10-5(8)12-6/h3H,1-2H3,(H3,8,9,10,11,12)
CH$LINK: CAS 6190-65-4
CH$LINK: CHEBI CHEBI:28212
CH$LINK: KEGG C06559
CH$LINK: PUBCHEM CID:22563
CH$LINK: INCHIKEY DFWFIQKMSFGDCQ-UHFFFAOYSA-N
CH$LINK: CHEMSPIDER 21157
CH$LINK: COMPTOX DTXSID5037494
AC$INSTRUMENT: Bruker maXis Impact
AC$INSTRUMENT_TYPE: LC-ESI-QTOF
AC$MASS_SPECTROMETRY: MS_TYPE MS2
AC$MASS_SPECTROMETRY: ION_MODE POSITIVE
AC$MASS_SPECTROMETRY: IONIZATION ESI
AC$MASS_SPECTROMETRY: FRAGMENTATION_MODE CID
AC$MASS_SPECTROMETRY: COLLISION_ENERGY 30 eV
AC$MASS_SPECTROMETRY: RESOLUTION 35000
AC$CHROMATOGRAPHY: COLUMN_NAME Acclaim RSLC C18 2.2um, 2.1x100mm, Thermo
AC$CHROMATOGRAPHY: FLOW_GRADIENT 99/1 at 0-1 min, 61/39 at 3 min, 0.1/99.9 at 14-16 min, 99/1 at 16.1-20 min
AC$CHROMATOGRAPHY: FLOW_RATE 200 uL/min at 0-3 min, 400 uL/min at 14 min, 480 uL/min at 16-19 min, 200 uL/min at 19.1-20 min
AC$CHROMATOGRAPHY: RETENTION_TIME 5.5 min
AC$CHROMATOGRAPHY: SOLVENT A 90:10 water:methanol with 0.01% formic acid and 5mM ammonium formate
AC$CHROMATOGRAPHY: SOLVENT B methanol with 0.01% formic acid and 5mM ammonium formate
MS$FOCUSED_ION: BASE_PEAK 188.069
MS$FOCUSED_ION: PRECURSOR_M/Z 188.0697
MS$FOCUSED_ION: PRECURSOR_TYPE [M+H]+
MS$DATA_PROCESSING: RECALIBRATE identity on assigned fragments and MS1
MS$DATA_PROCESSING: REANALYZE Peaks with additional N2/O included
MS$DATA_PROCESSING: WHOLE RMassBank 2.0.3
PK$SPLASH: splash10-0002-0900000000-2e878924f07af412fe05
PK$ANNOTATION: m/z tentative_formula formula_count mass error(ppm)
  146.0219 C3H5ClN5+ 1 146.0228 -6.08
  147.0237 C2[13]CH5ClN5+ 1 147.0239 -1.36
  148.0187 C3H5[37]ClN5+ 1 148.0199 -8.11
  149.0219 C2[13]CH5[37]ClN5+ 1 149.021 6.04
  188.0691 C6H11ClN5+ 1 188.0697 -3.32
  189.0715 C5[13]CH11ClN5+ 1 189.0718 -1.59
  190.0659 C6H11[37]ClN5+ 1 190.0669 -5.26
PK$NUM_PEAK: 7
PK$PEAK: m/z int. rel.int.
  146.0219 40564 999
  147.0237 1820 45
  148.0187 10604 261
  149.0219 300 7
  188.0691 1588 39
  189.0715 184 5
  190.0659 648 16
//
