ACCESSION: MSBNK-Athens_Univ-AU262101
RECORD_TITLE: Metobromuron; LC-ESI-QTOF; MS2; CE: 10 eV; R=35000; [M+H]+
DATE: 2019.05.30
AUTHORS: Nikiforos Alygizakis, Katerina Galani, Nikolaos Thomaidis, University of Athens
LICENSE: CC BY
COPYRIGHT: Copyright (C) 2019 Department of Chemistry, University of Athens
COMMENT: CONFIDENCE standard compound
COMMENT: INTERNAL_ID 2621
CH$NAME: Metobromuron
CH$NAME: 3-(4-bromophenyl)-1-methoxy-1-methylurea
CH$COMPOUND_CLASS: N/A; Environmental Standard
CH$FORMULA: C9H11BrN2O2
CH$EXACT_MASS: 258.0003897
CH$SMILES: CON(C)C(=O)NC1=CC=C(Br)C=C1
CH$IUPAC: InChI=1S/C9H11BrN2O2/c1-12(14-2)9(13)11-8-5-3-7(10)4-6-8/h3-6H,1-2H3,(H,11,13)
CH$LINK: CAS 3060-89-7
CH$LINK: CHEBI CHEBI:81964
CH$LINK: KEGG C18793
CH$LINK: PUBCHEM CID:18290
CH$LINK: INCHIKEY WLFDQEVORAMCIM-UHFFFAOYSA-N
CH$LINK: CHEMSPIDER 17276
CH$LINK: COMPTOX DTXSID6042157
AC$INSTRUMENT: Bruker maXis Impact
AC$INSTRUMENT_TYPE: LC-ESI-QTOF
AC$MASS_SPECTROMETRY: MS_TYPE MS2
AC$MASS_SPECTROMETRY: ION_MODE POSITIVE
AC$MASS_SPECTROMETRY: IONIZATION ESI
AC$MASS_SPECTROMETRY: FRAGMENTATION_MODE CID
AC$MASS_SPECTROMETRY: COLLISION_ENERGY 10 eV
AC$MASS_SPECTROMETRY: RESOLUTION 35000
AC$CHROMATOGRAPHY: COLUMN_NAME Acclaim RSLC C18 2.2um, 2.1x100mm, Thermo
AC$CHROMATOGRAPHY: FLOW_GRADIENT 99/1 at 0-1 min, 61/39 at 3 min, 0.1/99.9 at 14-16 min, 99/1 at 16.1-20 min
AC$CHROMATOGRAPHY: FLOW_RATE 200 uL/min at 0-3 min, 400 uL/min at 14 min, 480 uL/min at 16-19 min, 200 uL/min at 19.1-20 min
AC$CHROMATOGRAPHY: RETENTION_TIME 8.142 min
AC$CHROMATOGRAPHY: SOLVENT A 90:10 water:methanol with 0.01% formic acid and 5mM ammonium formate
AC$CHROMATOGRAPHY: SOLVENT B methanol with 0.01% formic acid and 5mM ammonium formate
MS$FOCUSED_ION: BASE_PEAK 214.1123
MS$FOCUSED_ION: PRECURSOR_M/Z 259.0077
MS$FOCUSED_ION: PRECURSOR_TYPE [M+H]+
MS$DATA_PROCESSING: RECALIBRATE identity on assigned fragments and MS1
MS$DATA_PROCESSING: WHOLE RMassBank 2.10.1
PK$SPLASH: splash10-0bt9-0190000000-caa70d604561c29764d2
PK$ANNOTATION: m/z tentative_formula formula_count mass error(ppm)
  148.062 C8H8N2O+ 1 148.0631 -7.63
  149.0649 C7[13]CH8N2O+ 1 149.067 -14.38
  169.9587 C6H5BrN+ 1 169.96 -7.44
  170.9644 C5[13]CH5BrN+ 1 170.9639 2.82
  171.9569 C6H5[81]BrN+ 1 171.9585 -9.47
  172.9627 C6H6BrO+ 1 172.9597 17.51
  227.9883 C8H9BrN2O+ 1 227.9893 -4.18
  229.9861 C8H9[81]BrN2O+ 1 229.9878 -7.43
  259.0072 C9H12BrN2O2+ 1 259.0077 -1.61
  260.0103 C8[13]CH12BrN2O2+ 1 260.0116 -4.94
  261.0054 C9H12[81]BrN2O2+ 1 261.0062 -3.12
PK$NUM_PEAK: 11
PK$PEAK: m/z int. rel.int.
  148.062 303604 179
  149.0649 17896 10
  169.9587 164256 96
  170.9644 16532 9
  171.9569 131680 77
  172.9627 12164 7
  227.9883 22684 13
  229.9861 21940 12
  259.0072 1693864 999
  260.0103 101932 60
  261.0054 1265700 746
//
