ACCESSION: MSBNK-Athens_Univ-AU252103
RECORD_TITLE: 4-Hydroxy-1-(2-hydroxyethyl)-2,2,6,6-tetramethylpiperidine; LC-ESI-QTOF; MS2; CE: 30 eV; R=35000; [M+H]+
DATE: 2019.04.08
AUTHORS: Nikiforos Alygizakis, Katerina Galani, Nikolaos Thomaidis, University of Athens
LICENSE: CC BY
COPYRIGHT: Copyright (C) 2019 Department of Chemistry, University of Athens
COMMENT: CONFIDENCE standard compound
COMMENT: INTERNAL_ID 2521
CH$NAME: 4-Hydroxy-1-(2-hydroxyethyl)-2,2,6,6-tetramethylpiperidine
CH$NAME: 1-Piperidineethanol, 4-hydroxy-2,2,6,6-tetramethyl-
CH$NAME: 1-(2-hydroxyethyl)-2,2,6,6-tetramethylpiperidin-4-ol
CH$COMPOUND_CLASS: N/A; Environmental Standard
CH$FORMULA: C11H23NO2
CH$EXACT_MASS: 201.1728790
CH$SMILES: CC1(C)CC(O)CC(C)(C)N1CCO
CH$IUPAC: InChI=1S/C11H23NO2/c1-10(2)7-9(14)8-11(3,4)12(10)5-6-13/h9,13-14H,5-8H2,1-4H3
CH$LINK: CAS 52722-86-8
CH$LINK: PUBCHEM CID:104301
CH$LINK: INCHIKEY STEYNUVPFMIUOY-UHFFFAOYSA-N
CH$LINK: CHEMSPIDER 94161
CH$LINK: COMPTOX DTXSID4068795
AC$INSTRUMENT: Bruker maXis Impact
AC$INSTRUMENT_TYPE: LC-ESI-QTOF
AC$MASS_SPECTROMETRY: MS_TYPE MS2
AC$MASS_SPECTROMETRY: ION_MODE POSITIVE
AC$MASS_SPECTROMETRY: IONIZATION ESI
AC$MASS_SPECTROMETRY: FRAGMENTATION_MODE CID
AC$MASS_SPECTROMETRY: COLLISION_ENERGY 30 eV
AC$MASS_SPECTROMETRY: RESOLUTION 35000
AC$CHROMATOGRAPHY: COLUMN_NAME Acclaim RSLC C18 2.2um, 2.1x100mm, Thermo
AC$CHROMATOGRAPHY: FLOW_GRADIENT 99/1 at 0-1 min, 61/39 at 3 min, 0.1/99.9 at 14-16 min, 99/1 at 16.1-20 min
AC$CHROMATOGRAPHY: FLOW_RATE 200 uL/min at 0-3 min, 400 uL/min at 14 min, 480 uL/min at 16-19 min, 200 uL/min at 19.1-20 min
AC$CHROMATOGRAPHY: RETENTION_TIME 1.333 min
AC$CHROMATOGRAPHY: SOLVENT A 90:10 water:methanol with 0.01% formic acid and 5mM ammonium formate
AC$CHROMATOGRAPHY: SOLVENT B methanol with 0.01% formic acid and 5mM ammonium formate
MS$FOCUSED_ION: BASE_PEAK 202.1795
MS$FOCUSED_ION: PRECURSOR_M/Z 202.1802
MS$FOCUSED_ION: PRECURSOR_TYPE [M+H]+
MS$DATA_PROCESSING: RECALIBRATE identity on assigned fragments and MS1
MS$DATA_PROCESSING: WHOLE RMassBank 2.10.1
PK$SPLASH: splash10-0udi-0790000000-3837ad6fda4b7fbd5092
PK$ANNOTATION: m/z tentative_formula formula_count mass error(ppm)
  121.1007 C9H13+ 1 121.1012 -3.62
  123.1155 C9H15+ 1 123.1168 -10.38
  124.1194 C8[13]CH15+ 1 124.1207 -10.4
  128.1057 C7H14NO+ 1 128.107 -10.18
  141.1138 C8H15NO+ 1 141.1148 -6.9
  142.1209 C8H16NO+ 1 142.1226 -12.11
  146.1162 C7H16NO2+ 1 146.1176 -9.6
  184.1689 C11H22NO+ 1 184.1696 -3.8
  202.179 C11H24NO2+ 1 202.1802 -5.92
  203.1826 C10[13]CH24NO2+ 1 203.1841 -7.12
PK$NUM_PEAK: 10
PK$PEAK: m/z int. rel.int.
  121.1007 316 23
  123.1155 6092 447
  124.1194 484 35
  128.1057 2408 176
  141.1138 844 62
  142.1209 444 32
  146.1162 1904 139
  184.1689 1300 95
  202.179 13596 999
  203.1826 2032 149
//
