ACCESSION: MSBNK-Athens_Univ-AU372601
RECORD_TITLE: Atrazine-Desisopropyl; LC-ESI-QTOF; MS2; CE: 10 eV; R=35000; [M+H]+
DATE: 2015.12.08
AUTHORS: Nikiforos Alygizakis, Nikolaos Thomaidis, University of Athens
LICENSE: CC BY-SA
COPYRIGHT: Copyright (C) 2015 Department of Chemistry, University of Athens
COMMENT: CONFIDENCE standard compound
COMMENT: INTERNAL_ID 3726
CH$NAME: Atrazine-Desisopropyl
CH$NAME: Deisopropylatrazine
CH$NAME: 6-chloro-2-N-ethyl-1,3,5-triazine-2,4-diamine
CH$COMPOUND_CLASS: N/A; Environmental Standard
CH$FORMULA: C5H8ClN5
CH$EXACT_MASS: 173.0468229
CH$SMILES: CC/N=c\1/[nH]c(=N)nc([nH]1)Cl
CH$IUPAC: InChI=1S/C5H8ClN5/c1-2-8-5-10-3(6)9-4(7)11-5/h2H2,1H3,(H3,7,8,9,10,11)
CH$LINK: CAS 1007-28-9
CH$LINK: CHEBI CHEBI:27399
CH$LINK: KEGG C06556
CH$LINK: PUBCHEM CID:13878
CH$LINK: INCHIKEY IVENSCMCQBJAKW-UHFFFAOYSA-N
CH$LINK: CHEMSPIDER 13278
CH$LINK: COMPTOX DTXSID0037495
AC$INSTRUMENT: Bruker maXis Impact
AC$INSTRUMENT_TYPE: LC-ESI-QTOF
AC$MASS_SPECTROMETRY: MS_TYPE MS2
AC$MASS_SPECTROMETRY: ION_MODE POSITIVE
AC$MASS_SPECTROMETRY: IONIZATION ESI
AC$MASS_SPECTROMETRY: FRAGMENTATION_MODE CID
AC$MASS_SPECTROMETRY: COLLISION_ENERGY 10 eV
AC$MASS_SPECTROMETRY: RESOLUTION 35000
AC$CHROMATOGRAPHY: COLUMN_NAME Acclaim RSLC C18 2.2um, 2.1x100mm, Thermo
AC$CHROMATOGRAPHY: FLOW_GRADIENT 99/1 at 0-1 min, 61/39 at 3 min, 0.1/99.9 at 14-16 min, 99/1 at 16.1-20 min
AC$CHROMATOGRAPHY: FLOW_RATE 200 uL/min at 0-3 min, 400 uL/min at 14 min, 480 uL/min at 16-19 min, 200 uL/min at 19.1-20 min
AC$CHROMATOGRAPHY: RETENTION_TIME 4.6 min
AC$CHROMATOGRAPHY: SOLVENT A 90:10 water:methanol with 0.01% formic acid and 5mM ammonium formate
AC$CHROMATOGRAPHY: SOLVENT B methanol with 0.01% formic acid and 5mM ammonium formate
MS$FOCUSED_ION: BASE_PEAK 174.0532
MS$FOCUSED_ION: PRECURSOR_M/Z 174.0541
MS$FOCUSED_ION: PRECURSOR_TYPE [M+H]+
MS$DATA_PROCESSING: RECALIBRATE identity on assigned fragments and MS1
MS$DATA_PROCESSING: REANALYZE Peaks with additional N2/O included
MS$DATA_PROCESSING: WHOLE RMassBank 2.0.3
PK$SPLASH: splash10-00di-0900000000-7799c73a53b53473bd99
PK$ANNOTATION: m/z tentative_formula formula_count mass error(ppm)
  132.0314 C4H7ClN3+ 1 132.0323 -7
  133.0338 C3[13]CH7ClN3+ 1 133.0344 -4.51
  134.0279 C4H7[37]ClN3+ 1 134.0294 -11.19
  146.0219 C3H5ClN5+ 1 146.0228 -6.27
  147.026 C2[13]CH5ClN5+ 1 147.0239 14.28
  148.0181 C3H5[37]ClN5+ 1 148.0199 -12.16
  174.0534 C5H9ClN5+ 1 174.0541 -3.96
  175.0559 C4[13]CH9ClN5+ 1 175.0559 0
  176.0503 C5H9[37]ClN5+ 1 176.0512 -5.11
  177.0535 C4[13]H9[37]ClN5+ 1 177.053 2.82
PK$NUM_PEAK: 10
PK$PEAK: m/z int. rel.int.
  132.0314 5768 13
  133.0338 296 1
  134.0279 1332 3
  146.0219 2920 7
  147.026 448 1
  148.0181 1188 3
  174.0534 433192 999
  175.0559 17928 41
  176.0503 96680 223
  177.0535 3300 8
//
