ACCESSION: MSBNK-Athens_Univ-AU247102
RECORD_TITLE: Hexa(methoxymethyl)melamine; LC-ESI-QTOF; MS2; CE: 20 eV; R=35000; [M+H]+
DATE: 2019.04.05
AUTHORS: Nikiforos Alygizakis, Katerina Galani, Nikolaos Thomaidis, University of Athens
LICENSE: CC BY
COPYRIGHT: Copyright (C) 2019 Department of Chemistry, University of Athens
COMMENT: CONFIDENCE standard compound
COMMENT: INTERNAL_ID 2471
CH$NAME: Hexa(methoxymethyl)melamine
CH$NAME: 2-N,2-N,4-N,4-N,6-N,6-N-hexakis(methoxymethyl)-1,3,5-triazine-2,4,6-triamine
CH$COMPOUND_CLASS: N/A; Environmental Standard
CH$FORMULA: C15H30N6O6
CH$EXACT_MASS: 390.2226827
CH$SMILES: COCN(COC)C1=NC(=NC(=N1)N(COC)COC)N(COC)COC
CH$IUPAC: InChI=1S/C15H30N6O6/c1-22-7-19(8-23-2)13-16-14(20(9-24-3)10-25-4)18-15(17-13)21(11-26-5)12-27-6/h7-12H2,1-6H3
CH$LINK: CAS 3089-11-0
CH$LINK: PUBCHEM CID:62479
CH$LINK: INCHIKEY BNCADMBVWNPPIZ-UHFFFAOYSA-N
CH$LINK: CHEMSPIDER 56259
CH$LINK: COMPTOX DTXSID9027520
AC$INSTRUMENT: Bruker maXis Impact
AC$INSTRUMENT_TYPE: LC-ESI-QTOF
AC$MASS_SPECTROMETRY: MS_TYPE MS2
AC$MASS_SPECTROMETRY: ION_MODE POSITIVE
AC$MASS_SPECTROMETRY: IONIZATION ESI
AC$MASS_SPECTROMETRY: FRAGMENTATION_MODE CID
AC$MASS_SPECTROMETRY: COLLISION_ENERGY 20 eV
AC$MASS_SPECTROMETRY: RESOLUTION 35000
AC$CHROMATOGRAPHY: COLUMN_NAME Acclaim RSLC C18 2.2um, 2.1x100mm, Thermo
AC$CHROMATOGRAPHY: FLOW_GRADIENT 99/1 at 0-1 min, 61/39 at 3 min, 0.1/99.9 at 14-16 min, 99/1 at 16.1-20 min
AC$CHROMATOGRAPHY: FLOW_RATE 200 uL/min at 0-3 min, 400 uL/min at 14 min, 480 uL/min at 16-19 min, 200 uL/min at 19.1-20 min
AC$CHROMATOGRAPHY: RETENTION_TIME 7.642 min
AC$CHROMATOGRAPHY: SOLVENT A 90:10 water:methanol with 0.01% formic acid and 5mM ammonium formate
AC$CHROMATOGRAPHY: SOLVENT B methanol with 0.01% formic acid and 5mM ammonium formate
MS$FOCUSED_ION: BASE_PEAK 391.2292
MS$FOCUSED_ION: PRECURSOR_M/Z 391.23
MS$FOCUSED_ION: PRECURSOR_TYPE [M+H]+
MS$DATA_PROCESSING: RECALIBRATE identity on assigned fragments and MS1
MS$DATA_PROCESSING: WHOLE RMassBank 2.10.1
PK$SPLASH: splash10-0a59-0190000000-5c4437c16f3da7db06d9
PK$ANNOTATION: m/z tentative_formula formula_count mass error(ppm)
  177.0875 C6H13N2O4+ 5 177.087 3.18
  178.0902 C5[13]CH13N2O4+ 1 178.0909 -3.77
  207.0982 C7H15N2O5+ 5 207.0975 3.34
  208.1008 C6[13]CH15N2O5+ 1 208.1015 -3.34
  253.1403 C10H17N6O2+ 6 253.1408 -1.78
  283.1509 C15H23O5+ 4 283.154 -10.84
  284.1529 C14[13]CH23O5+ 1 284.1579 -17.75
  285.1544 C13[13]C2H23O5+ 1 285.1613 -24.14
  301.161 C11H21N6O4+ 3 301.1619 -2.86
  329.1921 C13H25N6O4+ 2 329.1932 -3.14
  359.2031 C14H27N6O5+ 1 359.2037 -1.71
  377.2136 C14H29N6O6+ 1 377.2143 -1.83
PK$NUM_PEAK: 12
PK$PEAK: m/z int. rel.int.
  177.0875 104768 189
  178.0902 10004 18
  207.0982 551364 999
  208.1008 44364 80
  253.1403 14148 25
  283.1509 352036 637
  284.1529 47572 86
  285.1544 5040 9
  301.161 14376 26
  329.1921 9176 16
  359.2031 8512 15
  377.2136 3056 5
//
