ACCESSION: MSBNK-Athens_Univ-AU233106
RECORD_TITLE: Propanil; LC-ESI-QTOF; MS2; CE: Ramp 18.6-28.0 eV; R=35000; [M+H]+
DATE: 2019.05.30
AUTHORS: Nikiforos Alygizakis, Katerina Galani, Nikolaos Thomaidis, University of Athens
LICENSE: CC BY
COPYRIGHT: Copyright (C) 2019 Department of Chemistry, University of Athens
COMMENT: CONFIDENCE standard compound
COMMENT: INTERNAL_ID 2331
CH$NAME: Propanil
CH$NAME: N-(3,4-dichlorophenyl)propanamide
CH$COMPOUND_CLASS: N/A; Environmental Standard
CH$FORMULA: C9H9Cl2NO
CH$EXACT_MASS: 217.0061193
CH$SMILES: CCC(=O)NC1=CC(Cl)=C(Cl)C=C1
CH$IUPAC: InChI=1S/C9H9Cl2NO/c1-2-9(13)12-6-3-4-7(10)8(11)5-6/h3-5H,2H2,1H3,(H,12,13)
CH$LINK: CAS 709-98-8
CH$LINK: CHEBI CHEBI:34936
CH$LINK: KEGG C14229
CH$LINK: PUBCHEM CID:4933
CH$LINK: INCHIKEY LFULEKSKNZEWOE-UHFFFAOYSA-N
CH$LINK: CHEMSPIDER 4764
CH$LINK: COMPTOX DTXSID8022111
AC$INSTRUMENT: Bruker maXis Impact
AC$INSTRUMENT_TYPE: LC-ESI-QTOF
AC$MASS_SPECTROMETRY: MS_TYPE MS2
AC$MASS_SPECTROMETRY: ION_MODE POSITIVE
AC$MASS_SPECTROMETRY: IONIZATION ESI
AC$MASS_SPECTROMETRY: FRAGMENTATION_MODE CID
AC$MASS_SPECTROMETRY: COLLISION_ENERGY Ramp 18.6-28.0 eV
AC$MASS_SPECTROMETRY: RESOLUTION 35000
AC$CHROMATOGRAPHY: COLUMN_NAME Acclaim RSLC C18 2.2um, 2.1x100mm, Thermo
AC$CHROMATOGRAPHY: FLOW_GRADIENT 99/1 at 0-1 min, 61/39 at 3 min, 0.1/99.9 at 14-16 min, 99/1 at 16.1-20 min
AC$CHROMATOGRAPHY: FLOW_RATE 200 uL/min at 0-3 min, 400 uL/min at 14 min, 480 uL/min at 16-19 min, 200 uL/min at 19.1-20 min
AC$CHROMATOGRAPHY: RETENTION_TIME 9.428 min
AC$CHROMATOGRAPHY: SOLVENT A 90:10 water:methanol with 0.01% formic acid and 5mM ammonium formate
AC$CHROMATOGRAPHY: SOLVENT B methanol with 0.01% formic acid and 5mM ammonium formate
MS$FOCUSED_ION: BASE_PEAK 218.0131
MS$FOCUSED_ION: PRECURSOR_M/Z 218.0134
MS$FOCUSED_ION: PRECURSOR_TYPE [M+H]+
MS$DATA_PROCESSING: RECALIBRATE identity on assigned fragments and MS1
MS$DATA_PROCESSING: WHOLE RMassBank 2.10.1
PK$SPLASH: splash10-03di-0920000000-064c8948a6e946619d2c
PK$ANNOTATION: m/z tentative_formula formula_count mass error(ppm)
  57.0328 C3H5O+ 2 57.0335 -12.2
  127.0177 C6H6ClN+ 2 127.0183 -4.69
  128.0214 C5[13]CH6ClN+ 1 128.0222 -6.65
  129.0145 C6H6[37]ClN+ 1 129.0159 -11.09
  130.0178 C6H7ClO+ 2 130.018 -1.47
  161.9862 C6H6Cl2N+ 2 161.9872 -5.95
  162.9896 C5[13]CH6Cl2N+ 1 162.9911 -9.07
  163.9834 C6H6Cl[37]ClN+ 1 163.9848 -8.44
  164.9861 C6H7Cl2O+ 1 164.9868 -4.75
  218.0129 C9H10Cl2NO+ 1 218.0134 -2.25
  219.0152 C8[13]CH10Cl2NO+ 1 219.0173 -9.74
  220.0099 C9H10Cl[37]ClNO+ 1 220.011 -5.01
PK$NUM_PEAK: 12
PK$PEAK: m/z int. rel.int.
  57.0328 13568 98
  127.0177 84244 609
  128.0214 6096 44
  129.0145 23064 167
  130.0178 972 7
  161.9862 137968 999
  162.9896 9064 65
  163.9834 87852 636
  164.9861 2648 19
  218.0129 57928 419
  219.0152 3180 23
  220.0099 23684 171
//
