ACCESSION: MSBNK-Athens_Univ-AU509154
RECORD_TITLE: Bis(1H,1H,2H,2H-perfluorooctyl)phosphate (6:2diPAP); LC-ESI-QTOF; MS2; CE: 40 eV; R=35000; [M-H]-
DATE: 2023.04.25
AUTHORS: Konstantina Diamanti, Georgios Gkotsis, Nikiforos Alygizakis, Nikolaos Thomaidis
LICENSE: CC BY
COPYRIGHT: Copyright (C) 2023 Department of Chemistry, University of Athens
COMMENT: CONFIDENCE standard compound
COMMENT: INTERNAL_ID 5091
CH$NAME: Bis(1H,1H,2H,2H-perfluorooctyl)phosphate (6:2diPAP)
CH$NAME: Bis(3,3,4,4,5,5,6,6,7,7,8,8,8-tridecafluoro-1-octanol) hydrogen phosphate
CH$NAME: bis(3,3,4,4,5,5,6,6,7,7,8,8,8-tridecafluorooctyl) hydrogen phosphate
CH$COMPOUND_CLASS: N/A; Environmental Standard
CH$FORMULA: C16H9F26O4P
CH$EXACT_MASS: 789.9823
CH$SMILES: C(COP(=O)(O)OCCC(C(C(C(C(C(F)(F)F)(F)F)(F)F)(F)F)(F)F)(F)F)C(C(C(C(C(C(F)(F)F)(F)F)(F)F)(F)F)(F)F)(F)F
CH$IUPAC: InChI=1S/C16H9F26O4P/c17-5(18,7(21,22)9(25,26)11(29,30)13(33,34)15(37,38)39)1-3-45-47(43,44)46-4-2-6(19,20)8(23,24)10(27,28)12(31,32)14(35,36)16(40,41)42/h1-4H2,(H,43,44)
CH$LINK: CAS 57677-95-9
CH$LINK: CHEBI 83539
CH$LINK: PUBCHEM CID:14550408
CH$LINK: INCHIKEY ZDYYWMSLMLTXDM-UHFFFAOYSA-N
CH$LINK: CHEMSPIDER 31045606
AC$INSTRUMENT: Bruker maXis Impact
AC$INSTRUMENT_TYPE: LC-ESI-QTOF
AC$MASS_SPECTROMETRY: MS_TYPE MS2
AC$MASS_SPECTROMETRY: MODE NEGATIVE
AC$MASS_SPECTROMETRY: IONIZATION ESI
AC$MASS_SPECTROMETRY: FRAGMENTATION_MODE CID
AC$MASS_SPECTROMETRY: COLLISION_ENERGY 40 eV
AC$MASS_SPECTROMETRY: RESOLUTION 35000
AC$MASS_SPECTROMETRY: MASS_RANGE_M/Z 50-1000
AC$CHROMATOGRAPHY: COLUMN_NAME Acclaim RSLC C18 2.2um, 2.1x100mm, Thermo
AC$CHROMATOGRAPHY: FLOW_GRADIENT 99/1 at 0-1 min, 61/39 at 3 min, 0.1/99.9 at 14-16 min, 99/1 at 16.1-20 min
AC$CHROMATOGRAPHY: FLOW_RATE 200 uL/min at 0-3 min, 400 uL/min at 14 min, 480 uL/min at 16-19 min, 200 uL/min at 19.1-20 min
AC$CHROMATOGRAPHY: RETENTION_TIME 12.720 min
MS$FOCUSED_ION: BASE_PEAK 788.9684
MS$FOCUSED_ION: PRECURSOR_M/Z 788.9751
MS$FOCUSED_ION: PRECURSOR_TYPE [M-H]-
MS$DATA_PROCESSING: RECALIBRATE identity on assigned fragments and MS1
MS$DATA_PROCESSING: WHOLE RMassBank 3.9.0
PK$SPLASH: splash10-00dl-0000900000-337e421248cbf8e68b64
PK$ANNOTATION: m/z tentative_formula formula_count mass error(ppm)
  422.9697 C12F13O2- 21 422.9696 0.26
  442.9757 C4H2F19O2- 23 442.9757 -0.06
PK$NUM_PEAK: 2
PK$PEAK: m/z int. rel.int.
  422.9697 428 999
  442.9757 308 718
//
