ACCESSION: MSBNK-Athens_Univ-AU252702
RECORD_TITLE: Octyl-3,5-di-tert-butyl-4-hydroxyhydrocinnamate; LC-ESI-QTOF; MS2; CE: 20 eV; R=35000; [M+H]+
DATE: 2019.04.08
AUTHORS: Nikiforos Alygizakis, Katerina Galani, Nikolaos Thomaidis, University of Athens
LICENSE: CC BY
COPYRIGHT: Copyright (C) 2019 Department of Chemistry, University of Athens
COMMENT: CONFIDENCE standard compound
COMMENT: INTERNAL_ID 2527
CH$NAME: Octyl-3,5-di-tert-butyl-4-hydroxyhydrocinnamate
CH$NAME: Octyl-3,5-di-tert-butyl-4-hydroxy-hydrocinnamate
CH$NAME: octyl 3-(3,5-ditert-butyl-4-hydroxyphenyl)propanoate
CH$COMPOUND_CLASS: N/A; Environmental Standard
CH$FORMULA: C25H42O3
CH$EXACT_MASS: 390.3133952
CH$SMILES: CCCCCCCCOC(=O)CCC1=CC(=C(O)C(=C1)C(C)(C)C)C(C)(C)C
CH$IUPAC: InChI=1S/C25H42O3/c1-8-9-10-11-12-13-16-28-22(26)15-14-19-17-20(24(2,3)4)23(27)21(18-19)25(5,6)7/h17-18,27H,8-16H2,1-7H3
CH$LINK: CAS 13417-12-4
CH$LINK: PUBCHEM CID:9908458
CH$LINK: INCHIKEY CFXCGWWYIDZIMU-UHFFFAOYSA-N
CH$LINK: CHEMSPIDER 8084110
CH$LINK: COMPTOX DTXSID60273995
AC$INSTRUMENT: Bruker maXis Impact
AC$INSTRUMENT_TYPE: LC-ESI-QTOF
AC$MASS_SPECTROMETRY: MS_TYPE MS2
AC$MASS_SPECTROMETRY: ION_MODE POSITIVE
AC$MASS_SPECTROMETRY: IONIZATION ESI
AC$MASS_SPECTROMETRY: FRAGMENTATION_MODE CID
AC$MASS_SPECTROMETRY: COLLISION_ENERGY 20 eV
AC$MASS_SPECTROMETRY: RESOLUTION 35000
AC$CHROMATOGRAPHY: COLUMN_NAME Acclaim RSLC C18 2.2um, 2.1x100mm, Thermo
AC$CHROMATOGRAPHY: FLOW_GRADIENT 99/1 at 0-1 min, 61/39 at 3 min, 0.1/99.9 at 14-16 min, 99/1 at 16.1-20 min
AC$CHROMATOGRAPHY: FLOW_RATE 200 uL/min at 0-3 min, 400 uL/min at 14 min, 480 uL/min at 16-19 min, 200 uL/min at 19.1-20 min
AC$CHROMATOGRAPHY: RETENTION_TIME 14.661 min
AC$CHROMATOGRAPHY: SOLVENT A 90:10 water:methanol with 0.01% formic acid and 5mM ammonium formate
AC$CHROMATOGRAPHY: SOLVENT B methanol with 0.01% formic acid and 5mM ammonium formate
MS$FOCUSED_ION: BASE_PEAK 408.3469
MS$FOCUSED_ION: PRECURSOR_M/Z 391.3207
MS$FOCUSED_ION: PRECURSOR_TYPE [M+H]+
MS$DATA_PROCESSING: RECALIBRATE identity on assigned fragments and MS1
MS$DATA_PROCESSING: WHOLE RMassBank 2.10.1
PK$SPLASH: splash10-00kb-0900000000-159cc5c4b435da59c462
PK$ANNOTATION: m/z tentative_formula formula_count mass error(ppm)
  133.0837 C6H13O3+ 1 133.0859 -16.82
  149.0221 C8H5O3+ 1 149.0233 -8.45
  149.0584 C9H9O2+ 1 149.0597 -9.04
  150.0619 C8[13]CH9O2+ 1 150.0636 -11.62
  167.0689 C9H11O3+ 1 167.0703 -7.97
  168.0714 C8[13]CH11O3+ 1 168.0742 -16.28
  195.121 C15H15+ 1 195.1168 21.59
  313.2711 C19H37O3+ 1 313.2737 -8.52
PK$NUM_PEAK: 8
PK$PEAK: m/z int. rel.int.
  133.0837 356 47
  149.0221 7388 992
  149.0584 6712 901
  150.0619 636 85
  167.0689 7440 999
  168.0714 1104 148
  195.121 1052 141
  313.2711 320 42
//
