ACCESSION: MSBNK-Athens_Univ-AU151301
RECORD_TITLE: Citalopram; LC-ESI-QTOF; MS2; CE: 10 eV; R=35000; [M+H]+
DATE: 2015.12.07
AUTHORS: Nikiforos Alygizakis, Nikolaos Thomaidis, University of Athens
LICENSE: CC BY-SA
COPYRIGHT: Copyright (C) 2015 Department of Chemistry, University of Athens
COMMENT: CONFIDENCE standard compound
COMMENT: INTERNAL_ID 1513
CH$NAME: Citalopram
CH$NAME: 1-[3-(dimethylamino)propyl]-1-(4-fluorophenyl)-3H-2-benzofuran-5-carbonitrile
CH$COMPOUND_CLASS: N/A; Environmental Standard
CH$FORMULA: C20H21FN2O
CH$EXACT_MASS: 324.1637915
CH$SMILES: CN(C)CCCC1(OCC2=C1C=CC(=C2)C#N)C1=CC=C(F)C=C1
CH$IUPAC: InChI=1S/C20H21FN2O/c1-23(2)11-3-10-20(17-5-7-18(21)8-6-17)19-9-4-15(13-22)12-16(19)14-24-20/h4-9,12H,3,10-11,14H2,1-2H3
CH$LINK: CAS 59729-33-8
CH$LINK: CHEBI CHEBI:3723
CH$LINK: KEGG D07704
CH$LINK: PUBCHEM CID:2771
CH$LINK: INCHIKEY WSEQXVZVJXJVFP-UHFFFAOYSA-N
CH$LINK: CHEMSPIDER 2669
CH$LINK: COMPTOX DTXSID8022826
AC$INSTRUMENT: Bruker maXis Impact
AC$INSTRUMENT_TYPE: LC-ESI-QTOF
AC$MASS_SPECTROMETRY: MS_TYPE MS2
AC$MASS_SPECTROMETRY: ION_MODE POSITIVE
AC$MASS_SPECTROMETRY: IONIZATION ESI
AC$MASS_SPECTROMETRY: FRAGMENTATION_MODE CID
AC$MASS_SPECTROMETRY: COLLISION_ENERGY 10 eV
AC$MASS_SPECTROMETRY: RESOLUTION 35000
AC$CHROMATOGRAPHY: COLUMN_NAME Acclaim RSLC C18 2.2um, 2.1x100mm, Thermo
AC$CHROMATOGRAPHY: FLOW_GRADIENT 99/1 at 0-1 min, 61/39 at 3 min, 0.1/99.9 at 14-16 min, 99/1 at 16.1-20 min
AC$CHROMATOGRAPHY: FLOW_RATE 200 uL/min at 0-3 min, 400 uL/min at 14 min, 480 uL/min at 16-19 min, 200 uL/min at 19.1-20 min
AC$CHROMATOGRAPHY: RETENTION_TIME 6.6 min
AC$CHROMATOGRAPHY: SOLVENT A 90:10 water:methanol with 0.01% formic acid and 5mM ammonium formate
AC$CHROMATOGRAPHY: SOLVENT B methanol with 0.01% formic acid and 5mM ammonium formate
MS$FOCUSED_ION: BASE_PEAK 278.2115
MS$FOCUSED_ION: PRECURSOR_M/Z 325.1711
MS$FOCUSED_ION: PRECURSOR_TYPE [M+H]+
MS$DATA_PROCESSING: RECALIBRATE identity on assigned fragments and MS1
MS$DATA_PROCESSING: REANALYZE Peaks with additional N2/O included
MS$DATA_PROCESSING: WHOLE RMassBank 2.0.3
PK$SPLASH: splash10-004i-0009000000-589e7ae88aee7da0e0bd
PK$ANNOTATION: m/z tentative_formula formula_count mass error(ppm)
  262.1026 C18H13FN+ 1 262.1027 -0.31
  280.1126 C18H15FNO+ 1 280.1132 -2.23
  325.1715 C20H22FN2O+ 1 325.1711 1.18
  326.1748 C18H22N4O2+ 1 326.1737 3.21
  327.1772 C19H22FN3O+ 1 327.1741 9.25
PK$NUM_PEAK: 5
PK$PEAK: m/z int. rel.int.
  262.1026 1476 6
  280.1126 1104 5
  325.1715 219968 999
  326.1748 38520 174
  327.1772 4376 19
//
