ACCESSION: MSBNK-Athens_Univ-AU593454
RECORD_TITLE: 9Cl-PF3ONS (9-chlorohexadecafluoro-3-oxanonane-1-sulfonate) (major component of F-53B); LC-ESI-QTOF; MS2; CE: 50 eV; R=35000; [M-H]-
DATE: 2020.04.11
AUTHORS: Georgios Gkotsis, Maria-Christina Nika, Reza Aalizadeh, Nikolaos Thomaidis
LICENSE: CC BY
COPYRIGHT: Copyright (C) 2020 Department of Chemistry, University of Athens
COMMENT: CONFIDENCE standard compound
COMMENT: INTERNAL_ID 5934
CH$NAME: 9Cl-PF3ONS (9-chlorohexadecafluoro-3-oxanonane-1-sulfonate) (major component of F-53B)
CH$NAME: 2-(6-chloro-1,1,2,2,3,3,4,4,5,5,6,6-dodecafluorohexoxy)-1,1,2,2-tetrafluoroethanesulfonic acid
CH$COMPOUND_CLASS: N/A; Environmental Standard
CH$FORMULA: C8HClF16O4S
CH$EXACT_MASS: 531.9029
CH$SMILES: OS(=O)(=O)C(F)(F)C(F)(F)OC(F)(F)C(F)(F)C(F)(F)C(F)(F)C(F)(F)C(F)(F)Cl
CH$IUPAC: InChI=1S/C8HClF16O4S/c9-5(18,19)3(14,15)1(10,11)2(12,13)4(16,17)6(20,21)29-7(22,23)8(24,25)30(26,27)28/h(H,26,27,28)
CH$LINK: CAS 73606-19-6
CH$LINK: CHEMSPIDER 11467040
CH$LINK: INCHIKEY GGOUUEMCWBTDMT-UHFFFAOYSA-N
CH$LINK: PUBCHEM CID:22568738
AC$INSTRUMENT: Bruker maXis Impact
AC$INSTRUMENT_TYPE: LC-ESI-QTOF
AC$MASS_SPECTROMETRY: MS_TYPE MS2
AC$MASS_SPECTROMETRY: ION_MODE NEGATIVE
AC$MASS_SPECTROMETRY: IONIZATION ESI
AC$MASS_SPECTROMETRY: FRAGMENTATION_MODE CID
AC$MASS_SPECTROMETRY: COLLISION_ENERGY 50 eV
AC$MASS_SPECTROMETRY: RESOLUTION 35000
AC$CHROMATOGRAPHY: COLUMN_NAME Acclaim RSLC C18 2.2um, 2.1x100mm, Thermo
AC$CHROMATOGRAPHY: FLOW_GRADIENT 99/1 at 0-1 min, 61/39 at 3 min, 0.1/99.9 at 14-16 min, 99/1 at 16.1-20 min
AC$CHROMATOGRAPHY: FLOW_RATE 200 uL/min at 0-3 min, 400 uL/min at 14 min, 480 uL/min at 16-19 min, 200 uL/min at 19.1-20 min
AC$CHROMATOGRAPHY: RETENTION_TIME 10.772 min
AC$CHROMATOGRAPHY: SOLVENT A 90:10 water:methanol with 5mM ammonium acetate
AC$CHROMATOGRAPHY: SOLVENT B methanol with 5mM ammonium acetate
MS$FOCUSED_ION: BASE_PEAK 530.8959
MS$FOCUSED_ION: PRECURSOR_M/Z 530.8956
MS$FOCUSED_ION: PRECURSOR_TYPE [M-H]-
MS$DATA_PROCESSING: RECALIBRATE identity on assigned fragments and MS1
MS$DATA_PROCESSING: WHOLE RMassBank 2.8.0
PK$SPLASH: splash10-0udi-0009000000-d3540df2dd19976073f7
PK$NUM_PEAK: 2
PK$PEAK: m/z int. rel.int.
  350.9448 1372 999
  352.9409 316 230
//
