ACCESSION: MSBNK-Athens_Univ-AU503102
RECORD_TITLE: N,N-dibutylformamide; GC-APCI-QTOF; MS2; CE: 20 eV; R=35000; [M+H]+
DATE: 2021.04.19
AUTHORS: Chrysoula Kanakaki, Nikiforos Alygizakis, Nikolaos Thomaidis, University of Athens
LICENSE: CC BY
COPYRIGHT: Copyright (C) 2021 Department of Chemistry, University of Athens
COMMENT: CONFIDENCE standard compound
COMMENT: INTERNAL_ID 5031
CH$NAME: N,N-dibutylformamide
CH$COMPOUND_CLASS: N/A; Food Contact Material
CH$FORMULA: C9H19NO
CH$EXACT_MASS: 157.1467
CH$SMILES: CCCCN(CCCC)C=O
CH$IUPAC: InChI=1S/C9H19NO/c1-3-5-7-10(9-11)8-6-4-2/h9H,3-8H2,1-2H3
CH$LINK: CAS 761-65-9
CH$LINK: PUBCHEM CID:12975
CH$LINK: INCHIKEY NZMAJUHVSZBJHL-UHFFFAOYSA-N
CH$LINK: CHEMSPIDER 12435
AC$INSTRUMENT: Bruker 450 GC coupled to maXis Impact
AC$INSTRUMENT_TYPE: GC-APCI-QTOF
AC$MASS_SPECTROMETRY: MS_TYPE MS2
AC$MASS_SPECTROMETRY: ION_MODE POSITIVE
AC$MASS_SPECTROMETRY: IONIZATION APCI
AC$MASS_SPECTROMETRY: FRAGMENTATION_MODE CID
AC$MASS_SPECTROMETRY: COLLISION_ENERGY 20 eV
AC$MASS_SPECTROMETRY: RESOLUTION 35000
AC$CHROMATOGRAPHY: COLUMN_NAME Rxi-5Sil MS column, 30m, 0.25mm i.d., 0.25µm film thickness, Restek
AC$CHROMATOGRAPHY: COLUMN_TEMPERATURE_GRADIENT 55oC at 0 min, 55oC at 3 min, 180oC at 11.33 min with 15oC/min, 280oC at 26.72 min with 6.5oC/min, 280oC at 31.72 min, 300oC at 33.72 min with 10oC/min, 300oC at 39 min
AC$CHROMATOGRAPHY: FLOW_RATE 1.5 mL/min
AC$CHROMATOGRAPHY: RETENTION_TIME 10.563 min
AC$CHROMATOGRAPHY: SOLVENT A Helium
MS$FOCUSED_ION: BASE_PEAK 158.1564
MS$FOCUSED_ION: PRECURSOR_M/Z 158.1539
MS$FOCUSED_ION: PRECURSOR_TYPE [M+H]+
MS$DATA_PROCESSING: RECALIBRATE identity on assigned fragments and MS1
MS$DATA_PROCESSING: WHOLE RMassBank 2.16.0
PK$SPLASH: splash10-0a4i-1900000000-5732cc786c11acbbc322
PK$ANNOTATION: m/z tentative_formula formula_count mass error(ppm)
  55.0551 C4H7+ 1 55.0542 16.08
  57.0708 C4H9+ 1 57.0699 16.33
  102.0914 C5H12NO+ 1 102.0913 0.81
  128.1426 C8H18N+ 1 128.1434 -6.45
  158.1569 C9H20NO+ 1 158.1539 18.96
PK$NUM_PEAK: 5
PK$PEAK: m/z int. rel.int.
  55.0551 128 37
  57.0708 468 135
  102.0914 420 121
  128.1426 152 44
  158.1569 3448 999
//
