ACCESSION: MSBNK-Athens_Univ-AU371403
RECORD_TITLE: Trifloxystrobin; LC-ESI-QTOF; MS2; CE: 30 eV; R=35000; [M+H]+
DATE: 2015.12.09
AUTHORS: Nikiforos Alygizakis, Nikolaos Thomaidis, University of Athens
LICENSE: CC BY-SA
COPYRIGHT: Copyright (C) 2015 Department of Chemistry, University of Athens
COMMENT: CONFIDENCE standard compound
COMMENT: INTERNAL_ID 3714
CH$NAME: Trifloxystrobin
CH$NAME: methyl (2Z)-2-methoxyimino-2-[2-[[(E)-1-[3-(trifluoromethyl)phenyl]ethylideneamino]oxymethyl]phenyl]acetate
CH$COMPOUND_CLASS: N/A; Environmental Standard
CH$FORMULA: C20H19F3N2O4
CH$EXACT_MASS: 408.1296917
CH$SMILES: CO\N=C(/C(=O)OC)C1=C(CO\N=C(/C)C2=CC(=CC=C2)C(F)(F)F)C=CC=C1
CH$IUPAC: InChI=1S/C20H19F3N2O4/c1-13(14-8-6-9-16(11-14)20(21,22)23)24-29-12-15-7-4-5-10-17(15)18(25-28-3)19(26)27-2/h4-11H,12H2,1-3H3/b24-13+,25-18-
CH$LINK: CAS 141517-21-7
CH$LINK: PUBCHEM CID:9578570
CH$LINK: INCHIKEY ONCZDRURRATYFI-QTCHDTBASA-N
CH$LINK: CHEMSPIDER 7852932
AC$INSTRUMENT: Bruker maXis Impact
AC$INSTRUMENT_TYPE: LC-ESI-QTOF
AC$MASS_SPECTROMETRY: MS_TYPE MS2
AC$MASS_SPECTROMETRY: ION_MODE POSITIVE
AC$MASS_SPECTROMETRY: IONIZATION ESI
AC$MASS_SPECTROMETRY: FRAGMENTATION_MODE CID
AC$MASS_SPECTROMETRY: COLLISION_ENERGY 30 eV
AC$MASS_SPECTROMETRY: RESOLUTION 35000
AC$CHROMATOGRAPHY: COLUMN_NAME Acclaim RSLC C18 2.2um, 2.1x100mm, Thermo
AC$CHROMATOGRAPHY: FLOW_GRADIENT 99/1 at 0-1 min, 61/39 at 3 min, 0.1/99.9 at 14-16 min, 99/1 at 16.1-20 min
AC$CHROMATOGRAPHY: FLOW_RATE 200 uL/min at 0-3 min, 400 uL/min at 14 min, 480 uL/min at 16-19 min, 200 uL/min at 19.1-20 min
AC$CHROMATOGRAPHY: RETENTION_TIME 11.6 min
AC$CHROMATOGRAPHY: SOLVENT A 90:10 water:methanol with 0.01% formic acid and 5mM ammonium formate
AC$CHROMATOGRAPHY: SOLVENT B methanol with 0.01% formic acid and 5mM ammonium formate
MS$FOCUSED_ION: BASE_PEAK 409.1376
MS$FOCUSED_ION: PRECURSOR_M/Z 409.137
MS$FOCUSED_ION: PRECURSOR_TYPE [M+H]+
MS$DATA_PROCESSING: RECALIBRATE identity on assigned fragments and MS1
MS$DATA_PROCESSING: REANALYZE Peaks with additional N2/O included
MS$DATA_PROCESSING: WHOLE RMassBank 2.0.3
PK$SPLASH: splash10-000i-0900000000-fc21aa7d3c0bddcef66b
PK$ANNOTATION: m/z tentative_formula formula_count mass error(ppm)
  117.0557 C2H10FO4+ 3 117.0558 -0.54
  118.0644 C8H8N+ 4 118.0651 -5.74
  130.0643 C3H11FO4+ 4 130.0636 5.3
  132.0797 C3H13FO4+ 4 132.0792 3.12
  145.0252 C7H4F3+ 4 145.026 -5.23
  146.0282 C6[13]CH4F3+ 1 146.0299 -11.48
  147.0658 C6H11O4+ 4 147.0652 3.98
  148.0747 C9H10NO+ 4 148.0757 -6.91
  162.0909 C10H12NO+ 4 162.0913 -2.89
  163.0356 C10H5F2+ 4 163.0354 1.48
  186.0522 C9H7F3N+ 5 186.0525 -1.63
  206.081 C11H12NO3+ 6 206.0812 -1.03
  207.0849 C10[13]CH12NO3+ 1 207.0851 -0.8
PK$NUM_PEAK: 13
PK$PEAK: m/z int. rel.int.
  117.0557 5880 9
  118.0644 9340 15
  130.0643 9024 14
  132.0797 40924 66
  145.0252 56808 91
  146.0282 4552 7
  147.0658 5136 8
  148.0747 3276 5
  162.0909 7800 12
  163.0356 3136 5
  186.0522 619100 999
  206.081 41964 67
  207.0849 4064 6
//
