ACCESSION: MSBNK-Athens_Univ-AU500301
RECORD_TITLE: Vinyltriethoxysilane; GC-APCI-QTOF; MS2; CE: 10 eV; R=35000; [M+H]+
DATE: 2021.04.19
AUTHORS: Chrysoula Kanakaki, Nikiforos Alygizakis, Nikolaos Thomaidis, University of Athens
LICENSE: CC BY
COPYRIGHT: Copyright (C) 2021 Department of Chemistry, University of Athens
COMMENT: CONFIDENCE standard compound
COMMENT: INTERNAL_ID 5003
CH$NAME: Vinyltriethoxysilane
CH$COMPOUND_CLASS: N/A; Food Contact Material
CH$FORMULA: C8H18O3Si
CH$EXACT_MASS: 190.1025
CH$SMILES: CCO[Si](C=C)(OCC)OCC
CH$IUPAC: InChI=1S/C8H18O3Si/c1-5-9-12(8-4,10-6-2)11-7-3/h8H,4-7H2,1-3H3
CH$LINK: CAS 78-08-0
CH$LINK: PUBCHEM CID:6516
CH$LINK: INCHIKEY FWDBOZPQNFPOLF-UHFFFAOYSA-N
CH$LINK: CHEMSPIDER 6269
AC$INSTRUMENT: Bruker 450 GC coupled to maXis Impact
AC$INSTRUMENT_TYPE: GC-APCI-QTOF
AC$MASS_SPECTROMETRY: MS_TYPE MS2
AC$MASS_SPECTROMETRY: ION_MODE POSITIVE
AC$MASS_SPECTROMETRY: IONIZATION APCI
AC$MASS_SPECTROMETRY: FRAGMENTATION_MODE CID
AC$MASS_SPECTROMETRY: COLLISION_ENERGY 10 eV
AC$MASS_SPECTROMETRY: RESOLUTION 35000
AC$CHROMATOGRAPHY: COLUMN_NAME Rxi-5Sil MS column, 30m, 0.25mm i.d., 0.25µm film thickness, Restek
AC$CHROMATOGRAPHY: COLUMN_TEMPERATURE_GRADIENT 55oC at 0 min, 55oC at 3 min, 180oC at 11.33 min with 15oC/min, 280oC at 26.72 min with 6.5oC/min, 280oC at 31.72 min, 300oC at 33.72 min with 10oC/min, 300oC at 39 min
AC$CHROMATOGRAPHY: FLOW_RATE 1.5 mL/min
AC$CHROMATOGRAPHY: RETENTION_TIME 6.814 min
AC$CHROMATOGRAPHY: SOLVENT A Helium
MS$FOCUSED_ION: BASE_PEAK 163.081
MS$FOCUSED_ION: PRECURSOR_M/Z 191.1098
MS$FOCUSED_ION: PRECURSOR_TYPE [M+H]+
MS$DATA_PROCESSING: RECALIBRATE identity on assigned fragments and MS1
MS$DATA_PROCESSING: WHOLE RMassBank 2.16.0
PK$SPLASH: splash10-03di-0900000000-b54dc85a39ffbdb0d5c2
PK$ANNOTATION: m/z tentative_formula formula_count mass error(ppm)
  96.9933 C4HO3+ 1 96.992 12.86
  107.0151 C2H7O3Si+ 2 107.0159 -7.11
  135.0478 C4H11O3Si+ 1 135.0472 4.26
  136.0491 C8H8O2+ 1 136.0519 -20.31
  145.0695 C6H13O2Si+ 1 145.0679 10.65
  163.0809 C6H15O3Si+ 1 163.0785 14.96
  164.0842 C6H16O3Si+ 1 164.0863 -12.91
  191.1127 C8H19O3Si+ 1 191.1098 15.29
PK$NUM_PEAK: 8
PK$PEAK: m/z int. rel.int.
  96.9933 104 10
  107.0151 116 11
  135.0478 2548 246
  136.0491 212 20
  145.0695 556 53
  163.0809 10332 999
  164.0842 848 81
  191.1127 212 20
//
