ACCESSION: MSBNK-Athens_Univ-AU503701
RECORD_TITLE: Glycidyl methacrylate; GC-APCI-QTOF; MS2; CE: 10 eV; R=35000; [M+H]+
DATE: 2021.04.19
AUTHORS: Chrysoula Kanakaki, Nikiforos Alygizakis, Nikolaos Thomaidis, University of Athens
LICENSE: CC BY
COPYRIGHT: Copyright (C) 2021 Department of Chemistry, University of Athens
COMMENT: CONFIDENCE standard compound
COMMENT: INTERNAL_ID 5037
CH$NAME: Glycidyl methacrylate
CH$COMPOUND_CLASS: N/A; Food Contact Material
CH$FORMULA: C7H10O3
CH$EXACT_MASS: 142.0630
CH$SMILES: CC(=C)C(=O)OCC1CO1
CH$IUPAC: InChI=1S/C7H10O3/c1-5(2)7(8)10-4-6-3-9-6/h6H,1,3-4H2,2H3
CH$LINK: CAS 106-91-2
CH$LINK: PUBCHEM CID:7837
CH$LINK: INCHIKEY VOZRXNHHFUQHIL-UHFFFAOYSA-N
CH$LINK: CHEMSPIDER 7549
AC$INSTRUMENT: Bruker 450 GC coupled to maXis Impact
AC$INSTRUMENT_TYPE: GC-APCI-QTOF
AC$MASS_SPECTROMETRY: MS_TYPE MS2
AC$MASS_SPECTROMETRY: ION_MODE POSITIVE
AC$MASS_SPECTROMETRY: IONIZATION APCI
AC$MASS_SPECTROMETRY: FRAGMENTATION_MODE CID
AC$MASS_SPECTROMETRY: COLLISION_ENERGY 10 eV
AC$MASS_SPECTROMETRY: RESOLUTION 35000
AC$CHROMATOGRAPHY: COLUMN_NAME Rxi-5Sil MS column, 30m, 0.25mm i.d., 0.25µm film thickness, Restek
AC$CHROMATOGRAPHY: COLUMN_TEMPERATURE_GRADIENT 55oC at 0 min, 55oC at 3 min, 180oC at 11.33 min with 15oC/min, 280oC at 26.72 min with 6.5oC/min, 280oC at 31.72 min, 300oC at 33.72 min with 10oC/min, 300oC at 39 min
AC$CHROMATOGRAPHY: FLOW_RATE 1.5 mL/min
AC$CHROMATOGRAPHY: RETENTION_TIME 8.128 min
AC$CHROMATOGRAPHY: SOLVENT A Helium
MS$FOCUSED_ION: BASE_PEAK 172.0628
MS$FOCUSED_ION: PRECURSOR_M/Z 143.0703
MS$FOCUSED_ION: PRECURSOR_TYPE [M+H]+
MS$DATA_PROCESSING: RECALIBRATE identity on assigned fragments and MS1
MS$DATA_PROCESSING: WHOLE RMassBank 2.16.0
PK$SPLASH: splash10-0006-1900000000-022c495a34dcf92ea124
PK$ANNOTATION: m/z tentative_formula formula_count mass error(ppm)
  57.0345 C3H5O+ 1 57.0335 18.35
  69.0334 C4H5O+ 1 69.0335 -1.17
  141.0563 C7H9O3+ 1 141.0546 11.96
  143.072 C7H11O3+ 1 143.0703 12.34
PK$NUM_PEAK: 4
PK$PEAK: m/z int. rel.int.
  57.0345 308 46
  69.0334 488 74
  141.0563 164 24
  143.072 6580 999
//
