ACCESSION: MSBNK-Athens_Univ-AU405606
RECORD_TITLE: Benzothiazole; LC-ESI-QTOF; MS2; CE: RAMP 15.7-23.5 eV; R=35000; [M+H]+
DATE: 2016.02.29
AUTHORS: Nikiforos Alygizakis, Nikolaos Thomaidis, University of Athens
LICENSE: CC BY
COPYRIGHT: Copyright (C) 2016 Department of Chemistry, University of Athens
COMMENT: CONFIDENCE standard compound
COMMENT: INTERNAL_ID 4056
CH$NAME: Benzothiazole
CH$NAME: 1,3-benzothiazole
CH$COMPOUND_CLASS: N/A; Environmental Standard
CH$FORMULA: C7H5NS
CH$EXACT_MASS: 135.0142702
CH$SMILES: c1ccc2c(c1)ncs2
CH$IUPAC: InChI=1S/C7H5NS/c1-2-4-7-6(3-1)8-5-9-7/h1-5H
CH$LINK: CAS 95-16-9
CH$LINK: CHEBI CHEBI:45993
CH$LINK: PUBCHEM CID:7222
CH$LINK: INCHIKEY IOJUPLGTWVMSFF-UHFFFAOYSA-N
CH$LINK: CHEMSPIDER 6952
CH$LINK: COMPTOX DTXSID7024586
AC$INSTRUMENT: Bruker maXis Impact
AC$INSTRUMENT_TYPE: LC-ESI-QTOF
AC$MASS_SPECTROMETRY: MS_TYPE MS2
AC$MASS_SPECTROMETRY: ION_MODE POSITIVE
AC$MASS_SPECTROMETRY: IONIZATION ESI
AC$MASS_SPECTROMETRY: FRAGMENTATION_MODE CID
AC$MASS_SPECTROMETRY: COLLISION_ENERGY RAMP 15.7-23.5 eV
AC$MASS_SPECTROMETRY: RESOLUTION 35000
AC$CHROMATOGRAPHY: COLUMN_NAME Acclaim RSLC C18 2.2um, 2.1x100mm, Thermo
AC$CHROMATOGRAPHY: FLOW_GRADIENT 99/1 at 0-1 min, 61/39 at 3 min, 0.1/99.9 at 14-16 min, 99/1 at 16.1-20 min
AC$CHROMATOGRAPHY: FLOW_RATE 200 uL/min at 0-3 min, 400 uL/min at 14 min, 480 uL/min at 16-19 min, 200 uL/min at 19.1-20 min
AC$CHROMATOGRAPHY: RETENTION_TIME 6.972 min
AC$CHROMATOGRAPHY: SOLVENT A 90:10 water:methanol with 0.01% formic acid and 5mM ammonium formate
AC$CHROMATOGRAPHY: SOLVENT B methanol with 0.01% formic acid and 5mM ammonium formate
MS$FOCUSED_ION: BASE_PEAK 392.1927
MS$FOCUSED_ION: PRECURSOR_M/Z 136.0215
MS$FOCUSED_ION: PRECURSOR_TYPE [M+H]+
MS$DATA_PROCESSING: RECALIBRATE identity on assigned fragments and MS1
MS$DATA_PROCESSING: WHOLE RMassBank 1.99.10
PK$SPLASH: splash10-000i-0900000000-2d90876b51324689d2a1
PK$ANNOTATION: m/z tentative_formula formula_count mass error(ppm)
  109.0082 C6H5S+ 1 109.0106 -22.76
  136.0208 C7H6NS+ 1 136.0215 -5.59
  137.0239 C6[13]CH6NS+ 1 137.0254 -11.67
  138.015 C7H6N[34]S+ 1 138.0179 -20.72
PK$NUM_PEAK: 4
PK$PEAK: m/z int. rel.int.
  109.0082 380 27
  136.0208 13796 999
  137.0239 1120 81
  138.015 492 35
//
