ACCESSION: MSBNK-Athens_Univ-AU507609
RECORD_TITLE: 2,4-Dihydroxybenzophenone; GC-APCI-QTOF; MS2; CE: 40 eV; R=35000; [M]+
DATE: 2021.04.20
AUTHORS: Chrysoula Kanakaki, Nikiforos Alygizakis, Nikolaos Thomaidis, University of Athens
LICENSE: CC BY
COPYRIGHT: Copyright (C) 2021 Department of Chemistry, University of Athens
COMMENT: CONFIDENCE standard compound
COMMENT: INTERNAL_ID 5076
CH$NAME: 2,4-Dihydroxybenzophenone
CH$COMPOUND_CLASS: N/A; Food Contact Material
CH$FORMULA: C13H10O3
CH$EXACT_MASS: 214.0630
CH$SMILES: C1=CC=C(C=C1)C(=O)C2=C(C=C(C=C2)O)O
CH$IUPAC: InChI=1S/C13H10O3/c14-10-6-7-11(12(15)8-10)13(16)9-4-2-1-3-5-9/h1-8,14-15H
CH$LINK: CAS 131-56-6
CH$LINK: CHEBI CHEBI:34240
CH$LINK: KEGG C14215
CH$LINK: PUBCHEM CID:8572
CH$LINK: INCHIKEY ZXDDPOHVAMWLBH-UHFFFAOYSA-N
CH$LINK: CHEMSPIDER 8254
AC$INSTRUMENT: Bruker 450 GC coupled to maXis Impact
AC$INSTRUMENT_TYPE: GC-APCI-QTOF
AC$MASS_SPECTROMETRY: MS_TYPE MS2
AC$MASS_SPECTROMETRY: ION_MODE POSITIVE
AC$MASS_SPECTROMETRY: IONIZATION APCI
AC$MASS_SPECTROMETRY: FRAGMENTATION_MODE CID
AC$MASS_SPECTROMETRY: COLLISION_ENERGY 40 eV
AC$MASS_SPECTROMETRY: RESOLUTION 35000
AC$CHROMATOGRAPHY: COLUMN_NAME Rxi-5Sil MS column, 30m, 0.25mm i.d., 0.25µm film thickness, Restek
AC$CHROMATOGRAPHY: COLUMN_TEMPERATURE_GRADIENT 55oC at 0 min, 55oC at 3 min, 180oC at 11.33 min with 15oC/min, 280oC at 26.72 min with 6.5oC/min, 280oC at 31.72 min, 300oC at 33.72 min with 10oC/min, 300oC at 39 min
AC$CHROMATOGRAPHY: FLOW_RATE 1.5 mL/min
AC$CHROMATOGRAPHY: RETENTION_TIME 19.946 min
AC$CHROMATOGRAPHY: SOLVENT A Helium
MS$FOCUSED_ION: BASE_PEAK 309.2785
MS$FOCUSED_ION: PRECURSOR_M/Z 214.0624
MS$FOCUSED_ION: PRECURSOR_TYPE [M]+
MS$DATA_PROCESSING: RECALIBRATE identity on assigned fragments and MS1
MS$DATA_PROCESSING: WHOLE RMassBank 2.16.0
PK$SPLASH: splash10-000i-0920000000-9eee054b4d94b086716e
PK$ANNOTATION: m/z tentative_formula formula_count mass error(ppm)
  128.0626 C10H8+ 1 128.0621 4.04
  129.0697 C10H9+ 1 129.0699 -1.05
  137.0242 C7H5O3+ 1 137.0233 6.57
  138.0313 C7H6O3+ 1 138.0311 1.18
  139.0543 C11H7+ 1 139.0542 0.26
  157.0657 C11H9O+ 1 157.0648 5.84
  185.0617 C12H9O2+ 1 185.0597 10.86
  213.0571 C13H9O3+ 1 213.0546 11.57
  214.0599 C13H10O3+ 1 214.0624 -11.9
PK$NUM_PEAK: 9
PK$PEAK: m/z int. rel.int.
  128.0626 548 409
  129.0697 356 266
  137.0242 1336 999
  138.0313 144 107
  139.0543 412 308
  157.0657 216 161
  185.0617 380 284
  213.0571 952 711
  214.0599 140 104
//
