ACCESSION: MSBNK-Athens_Univ-AU302302
RECORD_TITLE: Amitraz; LC-ESI-QTOF; MS2; CE: 20 eV; R=35000; [M+H]+
DATE: 2015.12.08
AUTHORS: Nikiforos Alygizakis, Nikolaos Thomaidis, University of Athens
LICENSE: CC BY-SA
COPYRIGHT: Copyright (C) 2015 Department of Chemistry, University of Athens
COMMENT: CONFIDENCE standard compound
COMMENT: INTERNAL_ID 3023
CH$NAME: Amitraz
CH$NAME: N`-(2,4-dimethylphenyl)-N-[(2,4-dimethylphenyl)iminomethyl]-N-methylmethanimidamide
CH$COMPOUND_CLASS: N/A; Environmental Standard
CH$FORMULA: C19H23N3
CH$EXACT_MASS: 293.1891977
CH$SMILES: CN(C=NC1=C(C)C=C(C)C=C1)C=NC1=C(C)C=C(C)C=C1
CH$IUPAC: InChI=1S/C19H23N3/c1-14-6-8-18(16(3)10-14)20-12-22(5)13-21-19-9-7-15(2)11-17(19)4/h6-13H,1-5H3
CH$LINK: CAS 33089-61-1
CH$LINK: CHEBI CHEBI:2665
CH$LINK: PUBCHEM CID:36324
CH$LINK: INCHIKEY QXAITBQSYVNQDR-UHFFFAOYSA-N
CH$LINK: CHEMSPIDER 21229841
AC$INSTRUMENT: Bruker maXis Impact
AC$INSTRUMENT_TYPE: LC-ESI-QTOF
AC$MASS_SPECTROMETRY: MS_TYPE MS2
AC$MASS_SPECTROMETRY: ION_MODE POSITIVE
AC$MASS_SPECTROMETRY: IONIZATION ESI
AC$MASS_SPECTROMETRY: FRAGMENTATION_MODE CID
AC$MASS_SPECTROMETRY: COLLISION_ENERGY 20 eV
AC$MASS_SPECTROMETRY: RESOLUTION 35000
AC$CHROMATOGRAPHY: COLUMN_NAME Acclaim RSLC C18 2.2um, 2.1x100mm, Thermo
AC$CHROMATOGRAPHY: FLOW_GRADIENT 99/1 at 0-1 min, 61/39 at 3 min, 0.1/99.9 at 14-16 min, 99/1 at 16.1-20 min
AC$CHROMATOGRAPHY: FLOW_RATE 200 uL/min at 0-3 min, 400 uL/min at 14 min, 480 uL/min at 16-19 min, 200 uL/min at 19.1-20 min
AC$CHROMATOGRAPHY: RETENTION_TIME 13.5 min
AC$CHROMATOGRAPHY: SOLVENT A 90:10 water:methanol with 0.01% formic acid and 5mM ammonium formate
AC$CHROMATOGRAPHY: SOLVENT B methanol with 0.01% formic acid and 5mM ammonium formate
MS$FOCUSED_ION: BASE_PEAK 150.1114
MS$FOCUSED_ION: PRECURSOR_M/Z 294.1965
MS$FOCUSED_ION: PRECURSOR_TYPE [M+H]+
MS$DATA_PROCESSING: RECALIBRATE identity on assigned fragments and MS1
MS$DATA_PROCESSING: REANALYZE Peaks with additional N2/O included
MS$DATA_PROCESSING: WHOLE RMassBank 2.0.3
PK$SPLASH: splash10-03di-0900000000-0cca7a7404877dc33407
PK$ANNOTATION: m/z tentative_formula formula_count mass error(ppm)
  122.0953 C8H12N+ 1 122.0964 -9.34
  132.0797 C9H10N+ 1 132.0808 -8.2
  157.0483 C8H5N4+ 1 157.0509 -16.34
  163.1222 C10H15N2+ 1 163.123 -4.57
  221.1163 C16H15N+ 1 221.1199 -16.23
  253.1704 C17H21N2+ 1 253.1699 2
PK$NUM_PEAK: 6
PK$PEAK: m/z int. rel.int.
  122.0953 1080 41
  132.0797 444 17
  157.0483 600 23
  163.1222 25972 999
  221.1163 576 22
  253.1704 1436 55
//
