ACCESSION: MSBNK-Athens_Univ-AU242057
RECORD_TITLE: Fipronil sulfide; LC-ESI-QTOF; MS2; CE: 10 eV; R=35000; [M-H]-
DATE: 2019.03.29
AUTHORS: Nikiforos Alygizakis, Katerina Galani, Nikolaos Thomaidis, University of Athens
LICENSE: CC BY
COPYRIGHT: Copyright (C) 2019 Department of Chemistry, University of Athens
COMMENT: CONFIDENCE standard compound
COMMENT: INTERNAL_ID 2420
CH$NAME: Fipronil sulfide
CH$NAME: 5-amino-1-[2,6-dichloro-4-(trifluoromethyl)phenyl]-4-(trifluoromethylsulfanyl)pyrazole-3-carbonitrile
CH$COMPOUND_CLASS: N/A; Environmental Standard
CH$FORMULA: C12H4Cl2F6N4S
CH$EXACT_MASS: 419.9437918
CH$SMILES: NC1=C(SC(F)(F)F)C(=NN1C1=C(Cl)C=C(C=C1Cl)C(F)(F)F)C#N
CH$IUPAC: InChI=1S/C12H4Cl2F6N4S/c13-5-1-4(11(15,16)17)2-6(14)8(5)24-10(22)9(7(3-21)23-24)25-12(18,19)20/h1-2H,22H2
CH$LINK: CAS 120067-83-6
CH$LINK: CHEBI CHEBI:83488
CH$LINK: PUBCHEM CID:9953940
CH$LINK: INCHIKEY FQXWEKADCSXYOC-UHFFFAOYSA-N
CH$LINK: CHEMSPIDER 8129550
CH$LINK: COMPTOX DTXSID50869644
AC$INSTRUMENT: Bruker maXis Impact
AC$INSTRUMENT_TYPE: LC-ESI-QTOF
AC$MASS_SPECTROMETRY: MS_TYPE MS2
AC$MASS_SPECTROMETRY: ION_MODE NEGATIVE
AC$MASS_SPECTROMETRY: IONIZATION ESI
AC$MASS_SPECTROMETRY: FRAGMENTATION_MODE CID
AC$MASS_SPECTROMETRY: COLLISION_ENERGY 10 eV
AC$MASS_SPECTROMETRY: RESOLUTION 35000
AC$CHROMATOGRAPHY: COLUMN_NAME Acclaim RSLC C18 2.2um, 2.1x100mm, Thermo
AC$CHROMATOGRAPHY: FLOW_GRADIENT 99/1 at 0-1 min, 61/39 at 3 min, 0.1/99.9 at 14-16 min, 99/1 at 16.1-20 min
AC$CHROMATOGRAPHY: FLOW_RATE 200 uL/min at 0-3 min, 400 uL/min at 14 min, 480 uL/min at 16-19 min, 200 uL/min at 19.1-20 min
AC$CHROMATOGRAPHY: RETENTION_TIME 10.625 min
AC$CHROMATOGRAPHY: SOLVENT A 90:10 water:methanol with 5mM ammonium acetate
AC$CHROMATOGRAPHY: SOLVENT B methanol with 5mM ammonium acetate
MS$FOCUSED_ION: BASE_PEAK 418.9363
MS$FOCUSED_ION: PRECURSOR_M/Z 418.9365
MS$FOCUSED_ION: PRECURSOR_TYPE [M-H]-
MS$DATA_PROCESSING: RECALIBRATE identity on assigned fragments and MS1
MS$DATA_PROCESSING: WHOLE RMassBank 2.10.0
PK$SPLASH: splash10-001i-0009000000-421b114f630b53d85fef
PK$ANNOTATION: m/z tentative_formula formula_count mass error(ppm)
  261.9584 C9H2ClF3N2S- 10 261.9585 -0.12
  313.964 C11H2ClF3N4S- 4 313.9646 -1.93
  315.9615 C11H2[37]ClF3N4S- 1 315.9611 1.04
  382.9605 C12H2ClF6N4S- 1 382.9598 1.67
  383.9622 C11[13]CH2ClF6N4S- 1 383.9626 -1.1
  384.957 C12H2[37]ClF6N4S- 1 384.9563 1.78
  385.958 C12H2Cl2F6N4- 1 385.9566 3.69
  418.9365 C12H3Cl2F6N4S- 1 418.9365 -0.04
  419.9377 C11[13]CH3Cl2F6N4S- 1 419.9393 -3.76
  420.9336 C12H3Cl[37]ClF6N4S- 1 420.933 1.43
PK$NUM_PEAK: 10
PK$PEAK: m/z int. rel.int.
  261.9584 3888 5
  313.964 43560 63
  315.9615 8564 12
  382.9605 686272 999
  383.9622 56424 82
  384.957 144060 209
  385.958 7976 11
  418.9365 54608 79
  419.9377 5904 8
  420.9336 31724 46
//
