ACCESSION: MSBNK-Athens_Univ-AU240057
RECORD_TITLE: Triamcinolone; LC-ESI-QTOF; MS2; CE: 10 eV; R=35000; [M-H]-
DATE: 2019.03.29
AUTHORS: Nikiforos Alygizakis, Katerina Galani, Nikolaos Thomaidis, University of Athens
LICENSE: CC BY
COPYRIGHT: Copyright (C) 2019 Department of Chemistry, University of Athens
COMMENT: CONFIDENCE standard compound
COMMENT: INTERNAL_ID 2400
CH$NAME: Triamcinolone
CH$NAME: (8S,9R,10S,11S,13S,14S,16R,17S)-9-fluoro-11,16,17-trihydroxy-17-(2-hydroxyacetyl)-10,13-dimethyl-6,7,8,11,12,14,15,16-octahydrocyclopenta[a]phenanthren-3-one
CH$COMPOUND_CLASS: N/A; Environmental Standard
CH$FORMULA: C21H27FO6
CH$EXACT_MASS: 394.1791668
CH$SMILES: C[C@]12C[C@H](O)[C@@]3(F)[C@@H](CCC4=CC(=O)C=C[C@]34C)[C@@H]1C[C@@H](O)[C@]2(O)C(=O)CO
CH$IUPAC: InChI=1S/C21H27FO6/c1-18-6-5-12(24)7-11(18)3-4-13-14-8-15(25)21(28,17(27)10-23)19(14,2)9-16(26)20(13,18)22/h5-7,13-16,23,25-26,28H,3-4,8-10H2,1-2H3/t13-,14-,15+,16-,18-,19-,20-,21-/m0/s1
CH$LINK: CAS 124-94-7
CH$LINK: CHEBI CHEBI:9667
CH$LINK: KEGG D00385
CH$LINK: PUBCHEM CID:31307
CH$LINK: INCHIKEY GFNANZIMVAIWHM-OBYCQNJPSA-N
CH$LINK: CHEMSPIDER 29046
CH$LINK: COMPTOX DTXSID1040742
AC$INSTRUMENT: Bruker maXis Impact
AC$INSTRUMENT_TYPE: LC-ESI-QTOF
AC$MASS_SPECTROMETRY: MS_TYPE MS2
AC$MASS_SPECTROMETRY: ION_MODE NEGATIVE
AC$MASS_SPECTROMETRY: IONIZATION ESI
AC$MASS_SPECTROMETRY: FRAGMENTATION_MODE CID
AC$MASS_SPECTROMETRY: COLLISION_ENERGY 10 eV
AC$MASS_SPECTROMETRY: RESOLUTION 35000
AC$CHROMATOGRAPHY: COLUMN_NAME Acclaim RSLC C18 2.2um, 2.1x100mm, Thermo
AC$CHROMATOGRAPHY: FLOW_GRADIENT 99/1 at 0-1 min, 61/39 at 3 min, 0.1/99.9 at 14-16 min, 99/1 at 16.1-20 min
AC$CHROMATOGRAPHY: FLOW_RATE 200 uL/min at 0-3 min, 400 uL/min at 14 min, 480 uL/min at 16-19 min, 200 uL/min at 19.1-20 min
AC$CHROMATOGRAPHY: RETENTION_TIME 6.344 min
AC$CHROMATOGRAPHY: SOLVENT A 90:10 water:methanol with 5mM ammonium acetate
AC$CHROMATOGRAPHY: SOLVENT B methanol with 5mM ammonium acetate
MS$FOCUSED_ION: BASE_PEAK 393.1707
MS$FOCUSED_ION: PRECURSOR_M/Z 393.1719
MS$FOCUSED_ION: PRECURSOR_TYPE [M-H]-
MS$DATA_PROCESSING: RECALIBRATE identity on assigned fragments and MS1
MS$DATA_PROCESSING: WHOLE RMassBank 2.10.0
PK$SPLASH: splash10-0002-0009000000-fcea6e4b1941984b2135
PK$ANNOTATION: m/z tentative_formula formula_count mass error(ppm)
  325.1434 C17H22FO5- 2 325.1457 -6.9
  325.153 C17H22FO5- 2 325.1457 22.51
  345.1479 C20H22FO4- 1 345.1508 -8.18
  346.1574 C19[13]CH22FO4- 1 346.1536 11.05
  363.1581 C20H24FO5- 1 363.1613 -9.01
PK$NUM_PEAK: 5
PK$PEAK: m/z int. rel.int.
  325.1434 380 249
  325.153 312 205
  345.1479 1520 999
  346.1574 444 291
  363.1581 472 310
//
