ACCESSION: MSBNK-Athens_Univ-AU112802
RECORD_TITLE: Simvastatin; LC-ESI-QTOF; MS2; CE: 20 eV; R=35000; [M+H]+
DATE: 2015.09.22
AUTHORS: Nikiforos Alygizakis, Anna Bletsou, Nikolaos Thomaidis, University of Athens
LICENSE: CC BY-SA
COPYRIGHT: Copyright (C) 2015 Department of Chemistry, University of Athens
COMMENT: CONFIDENCE standard compound
COMMENT: INTERNAL_ID 1128
CH$NAME: Simvastatin
CH$NAME: [(1S,3R,7S,8S,8aR)-8-[2-[(2R,4R)-4-hydroxy-6-oxooxan-2-yl]ethyl]-3,7-dimethyl-1,2,3,7,8,8a-hexahydronaphthalen-1-yl] 2,2-dimethylbutanoate
CH$COMPOUND_CLASS: N/A; Environmental Standard
CH$FORMULA: C25H38O5
CH$EXACT_MASS: 418.2719243
CH$SMILES: CCC(C)(C)C(=O)O[C@H]1C[C@H](C=C2[C@H]1[C@H]([C@H](C=C2)C)CC[C@@H]3C[C@H](CC(=O)O3)O)C
CH$IUPAC: InChI=1S/C25H38O5/c1-6-25(4,5)24(28)30-21-12-15(2)11-17-8-7-16(3)20(23(17)21)10-9-19-13-18(26)14-22(27)29-19/h7-8,11,15-16,18-21,23,26H,6,9-10,12-14H2,1-5H3/t15-,16-,18+,19+,20-,21-,23-/m0/s1
CH$LINK: CAS 79902-63-9
CH$LINK: CHEBI CHEBI:9150
CH$LINK: KEGG D00434
CH$LINK: PUBCHEM CID:54454
CH$LINK: INCHIKEY RYMZZMVNJRMUDD-HGQWONQESA-N
CH$LINK: CHEMSPIDER 49179
CH$LINK: COMPTOX DTXSID0023581
AC$INSTRUMENT: Bruker maXis Impact
AC$INSTRUMENT_TYPE: LC-ESI-QTOF
AC$MASS_SPECTROMETRY: MS_TYPE MS2
AC$MASS_SPECTROMETRY: ION_MODE POSITIVE
AC$MASS_SPECTROMETRY: IONIZATION ESI
AC$MASS_SPECTROMETRY: FRAGMENTATION_MODE CID
AC$MASS_SPECTROMETRY: COLLISION_ENERGY 20 eV
AC$MASS_SPECTROMETRY: RESOLUTION 35000
AC$CHROMATOGRAPHY: COLUMN_NAME Acclaim RSLC C18 2.2um, 2.1x100mm, Thermo
AC$CHROMATOGRAPHY: FLOW_GRADIENT 99/1 at 0-1 min, 61/39 at 3 min, 0.1/99.9 at 14-16 min, 99/1 at 16.1-20 min
AC$CHROMATOGRAPHY: FLOW_RATE 200 uL/min at 0-3 min, 400 uL/min at 14 min, 480 uL/min at 16-19 min, 200 uL/min at 19.1-20 min
AC$CHROMATOGRAPHY: RETENTION_TIME 12.5 min
AC$CHROMATOGRAPHY: SOLVENT A water with 0.01% formic acid and 5mM ammonium formate
AC$CHROMATOGRAPHY: SOLVENT B 90:10 water:methanol with 0.01% formic acid and 5mM ammonium formate
MS$FOCUSED_ION: BASE_PEAK 436.2954
MS$FOCUSED_ION: PRECURSOR_M/Z 419.2792
MS$FOCUSED_ION: PRECURSOR_TYPE [M+H]+
MS$DATA_PROCESSING: RECALIBRATE identity on assigned fragments and MS1
MS$DATA_PROCESSING: REANALYZE Peaks with additional N2/O included
MS$DATA_PROCESSING: WHOLE RMassBank 2.0.2
PK$SPLASH: splash10-006w-0790000000-4f23e0376d85845e0964
PK$ANNOTATION: m/z tentative_formula formula_count mass error(ppm)
  173.1297 C13H17+ 1 173.1325 -16.17
  185.0775 C9H13O4+ 1 185.0808 -17.83
  199.1445 C15H19+ 1 199.1481 -18.08
  201.1611 C15H21+ 1 201.1638 -13.42
  217.0274 C15H5O2+ 1 217.0284 -4.74
  225.1598 C17H21+ 1 225.1638 -17.77
  243.1707 C17H23O+ 2 243.1743 -14.8
  249.1593 C19H21+ 1 249.1638 -18.09
  267.1692 C19H23O+ 2 267.1743 -19.25
  286.1827 C15H26O5+ 2 286.1775 18.21
PK$NUM_PEAK: 10
PK$PEAK: m/z int. rel.int.
  173.1297 916 775
  185.0775 444 375
  199.1445 1180 999
  201.1611 316 267
  217.0274 300 253
  225.1598 560 474
  243.1707 856 724
  249.1593 392 331
  267.1692 448 379
  286.1827 312 264
//
