ACCESSION: MSBNK-Athens_Univ-AU284401
RECORD_TITLE: Didecyldimethylammonium; LC-ESI-QTOF; MS2; CE: 10 eV; R=35000; [M+H]+
DATE: 2019.05.31
AUTHORS: Nikiforos Alygizakis, Katerina Galani, Nikolaos Thomaidis, University of Athens
LICENSE: CC BY
COPYRIGHT: Copyright (C) 2019 Department of Chemistry, University of Athens
COMMENT: CONFIDENCE standard compound
COMMENT: INTERNAL_ID 2844
CH$NAME: Didecyldimethylammonium
CH$NAME: didecyl(dimethyl)azanium
CH$COMPOUND_CLASS: N/A; Environmental Standard
CH$FORMULA: [C22H48N]+
CH$EXACT_MASS: 326.3786755
CH$SMILES: CCCCCCCCCC[N+](C)(C)CCCCCCCCCC
CH$IUPAC: InChI=1S/C22H48N/c1-5-7-9-11-13-15-17-19-21-23(3,4)22-20-18-16-14-12-10-8-6-2/h5-22H2,1-4H3/q+1
CH$LINK: CAS 7173-51-5
CH$LINK: PUBCHEM CID:16958
CH$LINK: INCHIKEY JGFDZZLUDWMUQH-UHFFFAOYSA-N
CH$LINK: CHEMSPIDER 16067
CH$LINK: COMPTOX DTXSID0048004
AC$INSTRUMENT: Bruker maXis Impact
AC$INSTRUMENT_TYPE: LC-ESI-QTOF
AC$MASS_SPECTROMETRY: MS_TYPE MS2
AC$MASS_SPECTROMETRY: ION_MODE POSITIVE
AC$MASS_SPECTROMETRY: IONIZATION ESI
AC$MASS_SPECTROMETRY: FRAGMENTATION_MODE CID
AC$MASS_SPECTROMETRY: COLLISION_ENERGY 10 eV
AC$MASS_SPECTROMETRY: RESOLUTION 35000
AC$CHROMATOGRAPHY: COLUMN_NAME Acclaim RSLC C18 2.2um, 2.1x100mm, Thermo
AC$CHROMATOGRAPHY: FLOW_GRADIENT 99/1 at 0-1 min, 61/39 at 3 min, 0.1/99.9 at 14-16 min, 99/1 at 16.1-20 min
AC$CHROMATOGRAPHY: FLOW_RATE 200 uL/min at 0-3 min, 400 uL/min at 14 min, 480 uL/min at 16-19 min, 200 uL/min at 19.1-20 min
AC$CHROMATOGRAPHY: RETENTION_TIME 11.100 min
AC$CHROMATOGRAPHY: SOLVENT A 90:10 water:methanol with 0.01% formic acid and 5mM ammonium formate
AC$CHROMATOGRAPHY: SOLVENT B methanol with 0.01% formic acid and 5mM ammonium formate
MS$FOCUSED_ION: BASE_PEAK 230.2473
MS$FOCUSED_ION: PRECURSOR_M/Z 327.386
MS$FOCUSED_ION: PRECURSOR_TYPE [M+H]+
MS$DATA_PROCESSING: RECALIBRATE identity on assigned fragments and MS1
MS$DATA_PROCESSING: WHOLE RMassBank 2.10.1
PK$SPLASH: splash10-0079-0190000000-c4f874b0864c9b8e9ba4
PK$ANNOTATION: m/z tentative_formula formula_count mass error(ppm)
  165.0536 C12H7N+ 1 165.0573 -22.5
  221.1168 C16H15N+ 1 221.1199 -14.08
  235.1313 C17H17N+ 1 235.1356 -18.15
  291.1926 C21H25N+ 1 291.1982 -19.09
PK$NUM_PEAK: 4
PK$PEAK: m/z int. rel.int.
  165.0536 772 447
  221.1168 1300 753
  235.1313 1724 999
  291.1926 748 433
//
