ACCESSION: MSBNK-Athens_Univ-AU166403
RECORD_TITLE: Norbuprenorphine; LC-ESI-QTOF; MS2; CE: 30 eV; R=35000; [M+H]+
DATE: 2016.02.22
AUTHORS: Nikiforos Alygizakis, Reza Aalizadeh, Nikolaos Thomaidis, University of Athens
LICENSE: CC BY
COPYRIGHT: Copyright (C) 2016 Department of Chemistry, University of Athens
COMMENT: CONFIDENCE standard compound
COMMENT: INTERNAL_ID 1664
CH$NAME: Norbuprenorphine
CH$COMPOUND_CLASS: N/A; Environmental Standard
CH$FORMULA: C25H35NO4
CH$EXACT_MASS: 413.2566086
CH$SMILES: C[C@]([C@H]1C[C@@]23CC[C@@]1([C@H]4[C@@]25CCN[C@@H]3Cc6c5c(c(cc6)O)O4)OC)(C(C)(C)C)O
CH$IUPAC: InChI=1S/C25H35NO4/c1-21(2,3)22(4,28)16-13-23-8-9-25(16,29-5)20-24(23)10-11-26-17(23)12-14-6-7-15(27)19(30-20)18(14)24/h6-7,16-17,20,26-28H,8-13H2,1-5H3/t16-,17-,20-,22+,23-,24+,25-/m1/s1
CH$LINK: CAS 78715-23-8
CH$LINK: PUBCHEM CID:114976
CH$LINK: INCHIKEY YOYLLRBMGQRFTN-IOMBULRVSA-N
CH$LINK: CHEMSPIDER 102911
CH$LINK: COMPTOX DTXSID60891436
AC$INSTRUMENT: Bruker maXis Impact
AC$INSTRUMENT_TYPE: LC-ESI-QTOF
AC$MASS_SPECTROMETRY: MS_TYPE MS2
AC$MASS_SPECTROMETRY: ION_MODE POSITIVE
AC$MASS_SPECTROMETRY: IONIZATION ESI
AC$MASS_SPECTROMETRY: FRAGMENTATION_MODE CID
AC$MASS_SPECTROMETRY: COLLISION_ENERGY 30 eV
AC$MASS_SPECTROMETRY: RESOLUTION 35000
AC$CHROMATOGRAPHY: COLUMN_NAME Acclaim RSLC C18 2.2um, 2.1x100mm, Thermo
AC$CHROMATOGRAPHY: FLOW_GRADIENT 99/1 at 0-1 min, 61/39 at 3 min, 0.1/99.9 at 14-16 min, 99/1 at 16.1-20 min
AC$CHROMATOGRAPHY: FLOW_RATE 200 uL/min at 0-3 min, 400 uL/min at 14 min, 480 uL/min at 16-19 min, 200 uL/min at 19.1-20 min
AC$CHROMATOGRAPHY: RETENTION_TIME 6.308 min
AC$CHROMATOGRAPHY: SOLVENT A 90:10 water:methanol with 0.01% formic acid and 5mM ammonium formate
AC$CHROMATOGRAPHY: SOLVENT B methanol with 0.01% formic acid and 5mM ammonium formate
MS$FOCUSED_ION: BASE_PEAK 150.1128
MS$FOCUSED_ION: PRECURSOR_M/Z 414.2639
MS$FOCUSED_ION: PRECURSOR_TYPE [M+H]+
MS$DATA_PROCESSING: RECALIBRATE identity on assigned fragments and MS1
MS$DATA_PROCESSING: WHOLE RMassBank 1.99.10
PK$SPLASH: splash10-03di-0000900000-18c86464a0d8a8e11bf8
PK$ANNOTATION: m/z tentative_formula formula_count mass error(ppm)
  211.0752 C14H11O2+ 1 211.0754 -0.86
  271.1331 C17H19O3+ 2 271.1329 0.9
  326.177 C20H24NO3+ 1 326.1751 6.04
  340.1895 C21H26NO3+ 2 340.1907 -3.67
  364.2251 C24H30NO2+ 1 364.2271 -5.41
  396.2511 C25H34NO3+ 1 396.2533 -5.48
  414.2662 C25H36NO4+ 1 414.2639 5.48
  415.2692 C24[13]CH36NO4+ 1 415.2678 3.39
  416.274 C23[13]C2H36NO4+ 1 416.2711 6.76
PK$NUM_PEAK: 9
PK$PEAK: m/z int. rel.int.
  211.0752 316 12
  271.1331 324 13
  326.177 336 13
  340.1895 680 27
  364.2251 512 20
  396.2511 372 15
  414.2662 24484 999
  415.2692 7996 326
  416.274 1168 47
//
