ACCESSION: MSBNK-Athens_Univ-AU151605
RECORD_TITLE: Primidone; LC-ESI-QTOF; MS2; CE: 50 eV; R=35000; [M+H]+
DATE: 2019.05.30
AUTHORS: Nikiforos Alygizakis, Katerina Galani, Nikolaos Thomaidis, University of Athens
LICENSE: CC BY
COPYRIGHT: Copyright (C) 2019 Department of Chemistry, University of Athens
COMMENT: CONFIDENCE standard compound
COMMENT: INTERNAL_ID 1516
CH$NAME: Primidone
CH$NAME: 5-ethyl-5-phenyl-1,3-diazinane-4,6-dione
CH$COMPOUND_CLASS: N/A; Environmental Standard
CH$FORMULA: C12H14N2O2
CH$EXACT_MASS: 218.1055277
CH$SMILES: CCC1(C(=O)NCNC1=O)C1=CC=CC=C1
CH$IUPAC: InChI=1S/C12H14N2O2/c1-2-12(9-6-4-3-5-7-9)10(15)13-8-14-11(12)16/h3-7H,2,8H2,1H3,(H,13,15)(H,14,16)
CH$LINK: CAS 125-33-7
CH$LINK: CHEBI CHEBI:8412
CH$LINK: KEGG C07371
CH$LINK: PUBCHEM CID:4909
CH$LINK: INCHIKEY DQMZLTXERSFNPB-UHFFFAOYSA-N
CH$LINK: CHEMSPIDER 4740
CH$LINK: COMPTOX DTXSID7023510
AC$INSTRUMENT: Bruker maXis Impact
AC$INSTRUMENT_TYPE: LC-ESI-QTOF
AC$MASS_SPECTROMETRY: MS_TYPE MS2
AC$MASS_SPECTROMETRY: ION_MODE POSITIVE
AC$MASS_SPECTROMETRY: IONIZATION ESI
AC$MASS_SPECTROMETRY: FRAGMENTATION_MODE CID
AC$MASS_SPECTROMETRY: COLLISION_ENERGY 50 eV
AC$MASS_SPECTROMETRY: RESOLUTION 35000
AC$CHROMATOGRAPHY: COLUMN_NAME Acclaim RSLC C18 2.2um, 2.1x100mm, Thermo
AC$CHROMATOGRAPHY: FLOW_GRADIENT 99/1 at 0-1 min, 61/39 at 3 min, 0.1/99.9 at 14-16 min, 99/1 at 16.1-20 min
AC$CHROMATOGRAPHY: FLOW_RATE 200 uL/min at 0-3 min, 400 uL/min at 14 min, 480 uL/min at 16-19 min, 200 uL/min at 19.1-20 min
AC$CHROMATOGRAPHY: RETENTION_TIME 5.285 min
AC$CHROMATOGRAPHY: SOLVENT A 90:10 water:methanol with 0.01% formic acid and 5mM ammonium formate
AC$CHROMATOGRAPHY: SOLVENT B methanol with 0.01% formic acid and 5mM ammonium formate
MS$FOCUSED_ION: BASE_PEAK 256.0147
MS$FOCUSED_ION: PRECURSOR_M/Z 219.1128
MS$FOCUSED_ION: PRECURSOR_TYPE [M+H]+
MS$DATA_PROCESSING: RECALIBRATE identity on assigned fragments and MS1
MS$DATA_PROCESSING: WHOLE RMassBank 2.10.1
PK$SPLASH: splash10-014j-0900000000-61a0e851bf775415c896
PK$ANNOTATION: m/z tentative_formula formula_count mass error(ppm)
  115.0551 C9H7+ 1 115.0542 7.48
  146.0567 C9H8NO+ 1 146.06 -22.96
PK$NUM_PEAK: 2
PK$PEAK: m/z int. rel.int.
  115.0551 404 999
  146.0567 312 771
//
