ACCESSION: MSBNK-Athens_Univ-AU241206
RECORD_TITLE: Diuron; LC-ESI-QTOF; MS2; CE: Ramp 20-30 eV; R=35000; [M+H]+
DATE: 2019.05.31
AUTHORS: Nikiforos Alygizakis, Katerina Galani, Nikolaos Thomaidis, University of Athens
LICENSE: CC BY
COPYRIGHT: Copyright (C) 2019 Department of Chemistry, University of Athens
COMMENT: CONFIDENCE standard compound
COMMENT: INTERNAL_ID 2412
CH$NAME: Diuron
CH$NAME: 3-(3,4-dichlorophenyl)-1,1-dimethylurea
CH$COMPOUND_CLASS: N/A; Environmental Standard
CH$FORMULA: C9H10Cl2N2O
CH$EXACT_MASS: 232.0170183
CH$SMILES: CN(C)C(=O)NC1=CC=C(Cl)C(Cl)=C1
CH$IUPAC: InChI=1S/C9H10Cl2N2O/c1-13(2)9(14)12-6-3-4-7(10)8(11)5-6/h3-5H,1-2H3,(H,12,14)
CH$LINK: CAS 330-54-1
CH$LINK: CHEBI CHEBI:116509
CH$LINK: KEGG C18428
CH$LINK: PUBCHEM CID:3120
CH$LINK: INCHIKEY XMTQQYYKAHVGBJ-UHFFFAOYSA-N
CH$LINK: CHEMSPIDER 3008
CH$LINK: COMPTOX DTXSID0020446
AC$INSTRUMENT: Bruker maXis Impact
AC$INSTRUMENT_TYPE: LC-ESI-QTOF
AC$MASS_SPECTROMETRY: MS_TYPE MS2
AC$MASS_SPECTROMETRY: ION_MODE POSITIVE
AC$MASS_SPECTROMETRY: IONIZATION ESI
AC$MASS_SPECTROMETRY: FRAGMENTATION_MODE CID
AC$MASS_SPECTROMETRY: COLLISION_ENERGY Ramp 20-30 eV
AC$MASS_SPECTROMETRY: RESOLUTION 35000
AC$CHROMATOGRAPHY: COLUMN_NAME Acclaim RSLC C18 2.2um, 2.1x100mm, Thermo
AC$CHROMATOGRAPHY: FLOW_GRADIENT 99/1 at 0-1 min, 61/39 at 3 min, 0.1/99.9 at 14-16 min, 99/1 at 16.1-20 min
AC$CHROMATOGRAPHY: FLOW_RATE 200 uL/min at 0-3 min, 400 uL/min at 14 min, 480 uL/min at 16-19 min, 200 uL/min at 19.1-20 min
AC$CHROMATOGRAPHY: RETENTION_TIME 8.594 min
AC$CHROMATOGRAPHY: SOLVENT A 90:10 water:methanol with 0.01% formic acid and 5mM ammonium formate
AC$CHROMATOGRAPHY: SOLVENT B methanol with 0.01% formic acid and 5mM ammonium formate
MS$FOCUSED_ION: BASE_PEAK 233.0241
MS$FOCUSED_ION: PRECURSOR_M/Z 233.0243
MS$FOCUSED_ION: PRECURSOR_TYPE [M+H]+
MS$DATA_PROCESSING: RECALIBRATE identity on assigned fragments and MS1
MS$DATA_PROCESSING: WHOLE RMassBank 2.10.1
PK$SPLASH: splash10-00di-9020000000-c5a72ebd365b01f5a950
PK$ANNOTATION: m/z tentative_formula formula_count mass error(ppm)
  46.0649 C2H8N+ 1 46.0651 -3.95
  72.044 C3H6NO+ 2 72.0444 -5.08
  73.0472 C2[13]CH6NO+ 1 73.0483 -14.68
  159.9716 C6H4Cl2N+ 2 159.9715 0.66
  161.9683 C6H4Cl[37]ClN+ 1 161.9691 -5.22
  187.9665 C7H4Cl2NO+ 1 187.9664 0.3
  189.9632 C7H4Cl[37]ClNO+ 1 189.964 -4.68
  233.0257 C9H11Cl2N2O+ 1 233.0243 6.03
  234.0281 C8[13]CH11Cl2N2O+ 1 234.0282 -0.25
  235.0229 C9H11Cl[37]ClN2O+ 1 235.0219 4.4
PK$NUM_PEAK: 10
PK$PEAK: m/z int. rel.int.
  46.0649 31816 59
  72.044 538476 999
  73.0472 15580 28
  159.9716 22664 42
  161.9683 13548 25
  187.9665 8224 15
  189.9632 4560 8
  233.0257 84724 157
  234.0281 7956 14
  235.0229 45260 83
//
