ACCESSION: MSBNK-Athens_Univ-AU502801
RECORD_TITLE: n-Octyl acrylate; GC-APCI-QTOF; MS2; CE: 10 eV; R=35000; [M+H]+
DATE: 2021.04.19
AUTHORS: Chrysoula Kanakaki, Nikiforos Alygizakis, Nikolaos Thomaidis, University of Athens
LICENSE: CC BY
COPYRIGHT: Copyright (C) 2021 Department of Chemistry, University of Athens
COMMENT: CONFIDENCE standard compound
COMMENT: INTERNAL_ID 5028
CH$NAME: n-Octyl acrylate
CH$COMPOUND_CLASS: N/A; Food Contact Material
CH$FORMULA: C11H20O2
CH$EXACT_MASS: 184.1463
CH$SMILES: CCCCCCCCOC(=O)C=C
CH$IUPAC: InChI=1S/C11H20O2/c1-3-5-6-7-8-9-10-13-11(12)4-2/h4H,2-3,5-10H2,1H3
CH$LINK: CAS 2499-59-4
CH$LINK: PUBCHEM CID:17258
CH$LINK: INCHIKEY ANISOHQJBAQUQP-UHFFFAOYSA-N
CH$LINK: CHEMSPIDER 16337
AC$INSTRUMENT: Bruker 450 GC coupled to maXis Impact
AC$INSTRUMENT_TYPE: GC-APCI-QTOF
AC$MASS_SPECTROMETRY: MS_TYPE MS2
AC$MASS_SPECTROMETRY: ION_MODE POSITIVE
AC$MASS_SPECTROMETRY: IONIZATION APCI
AC$MASS_SPECTROMETRY: FRAGMENTATION_MODE CID
AC$MASS_SPECTROMETRY: COLLISION_ENERGY 10 eV
AC$MASS_SPECTROMETRY: RESOLUTION 35000
AC$CHROMATOGRAPHY: COLUMN_NAME Rxi-5Sil MS column, 30m, 0.25mm i.d., 0.25µm film thickness, Restek
AC$CHROMATOGRAPHY: COLUMN_TEMPERATURE_GRADIENT 55oC at 0 min, 55oC at 3 min, 180oC at 11.33 min with 15oC/min, 280oC at 26.72 min with 6.5oC/min, 280oC at 31.72 min, 300oC at 33.72 min with 10oC/min, 300oC at 39 min
AC$CHROMATOGRAPHY: FLOW_RATE 1.5 mL/min
AC$CHROMATOGRAPHY: RETENTION_TIME 10.335 min
AC$CHROMATOGRAPHY: SOLVENT A Helium
MS$FOCUSED_ION: BASE_PEAK 123.0438
MS$FOCUSED_ION: PRECURSOR_M/Z 185.1536
MS$FOCUSED_ION: PRECURSOR_TYPE [M+H]+
MS$DATA_PROCESSING: RECALIBRATE identity on assigned fragments and MS1
MS$DATA_PROCESSING: WHOLE RMassBank 2.16.0
PK$SPLASH: splash10-000i-0900000000-40c21a5089aeeaf94f34
PK$ANNOTATION: m/z tentative_formula formula_count mass error(ppm)
  121.1004 C9H13+ 1 121.1012 -6.59
  137.0964 C9H13O+ 1 137.0961 1.92
  139.1143 C9H15O+ 1 139.1117 18.61
  140.1184 C9H16O+ 1 140.1196 -8.27
PK$NUM_PEAK: 4
PK$PEAK: m/z int. rel.int.
  121.1004 132 160
  137.0964 164 199
  139.1143 820 999
  140.1184 132 160
//
