ACCESSION: MSBNK-Athens_Univ-AU255201
RECORD_TITLE: Quinmerac; LC-ESI-QTOF; MS2; CE: 10 eV; R=35000; [M+H]+
DATE: 2019.05.29
AUTHORS: Nikiforos Alygizakis, Katerina Galani, Nikolaos Thomaidis, University of Athens
LICENSE: CC BY
COPYRIGHT: Copyright (C) 2019 Department of Chemistry, University of Athens
COMMENT: CONFIDENCE standard compound
COMMENT: INTERNAL_ID 2552
CH$NAME: Quinmerac
CH$NAME: 7-chloro-3-methylquinoline-8-carboxylic acid
CH$COMPOUND_CLASS: N/A; Environmental Standard
CH$FORMULA: C11H8ClNO2
CH$EXACT_MASS: 221.0243562
CH$SMILES: CC1=CC2=C(N=C1)C(C(O)=O)=C(Cl)C=C2
CH$IUPAC: InChI=1S/C11H8ClNO2/c1-6-4-7-2-3-8(12)9(11(14)15)10(7)13-5-6/h2-5H,1H3,(H,14,15)
CH$LINK: CAS 90717-03-6
CH$LINK: CHEBI CHEBI:84199
CH$LINK: KEGG C18891
CH$LINK: PUBCHEM CID:91749
CH$LINK: INCHIKEY ALZOLUNSQWINIR-UHFFFAOYSA-N
CH$LINK: CHEMSPIDER 82847
CH$LINK: COMPTOX DTXSID1042364
AC$INSTRUMENT: Bruker maXis Impact
AC$INSTRUMENT_TYPE: LC-ESI-QTOF
AC$MASS_SPECTROMETRY: MS_TYPE MS2
AC$MASS_SPECTROMETRY: ION_MODE POSITIVE
AC$MASS_SPECTROMETRY: IONIZATION ESI
AC$MASS_SPECTROMETRY: FRAGMENTATION_MODE CID
AC$MASS_SPECTROMETRY: COLLISION_ENERGY 10 eV
AC$MASS_SPECTROMETRY: RESOLUTION 35000
AC$CHROMATOGRAPHY: COLUMN_NAME Acclaim RSLC C18 2.2um, 2.1x100mm, Thermo
AC$CHROMATOGRAPHY: FLOW_GRADIENT 99/1 at 0-1 min, 61/39 at 3 min, 0.1/99.9 at 14-16 min, 99/1 at 16.1-20 min
AC$CHROMATOGRAPHY: FLOW_RATE 200 uL/min at 0-3 min, 400 uL/min at 14 min, 480 uL/min at 16-19 min, 200 uL/min at 19.1-20 min
AC$CHROMATOGRAPHY: RETENTION_TIME 4.875 min
AC$CHROMATOGRAPHY: SOLVENT A 90:10 water:methanol with 0.01% formic acid and 5mM ammonium formate
AC$CHROMATOGRAPHY: SOLVENT B methanol with 0.01% formic acid and 5mM ammonium formate
MS$FOCUSED_ION: BASE_PEAK 222.0311
MS$FOCUSED_ION: PRECURSOR_M/Z 222.0316
MS$FOCUSED_ION: PRECURSOR_TYPE [M+H]+
MS$DATA_PROCESSING: RECALIBRATE identity on assigned fragments and MS1
MS$DATA_PROCESSING: WHOLE RMassBank 2.10.1
PK$SPLASH: splash10-0fk9-0090000000-7a9002089d00164cf1ea
PK$ANNOTATION: m/z tentative_formula formula_count mass error(ppm)
  204.0204 C11H7ClNO+ 1 204.0211 -3.44
  205.0233 C10[13]CH7ClNO+ 1 205.025 -8.22
  206.0173 C11H7[37]ClNO+ 1 206.0187 -6.73
  207.0206 C11H8ClO2+ 1 207.0207 -0.72
  222.0312 C11H9ClNO2+ 1 222.0316 -2.08
  223.0342 C10[13]CH9ClNO2+ 1 223.0355 -5.99
  224.0282 C11H9[37]ClNO2+ 1 224.0292 -4.8
PK$NUM_PEAK: 7
PK$PEAK: m/z int. rel.int.
  204.0204 465908 999
  205.0233 49912 107
  206.0173 105732 226
  207.0206 7680 16
  222.0312 402996 864
  223.0342 43292 92
  224.0282 127172 272
//
