ACCESSION: MSBNK-Athens_Univ-AU262901
RECORD_TITLE: Daminozide; LC-ESI-QTOF; MS2; CE: 10 eV; R=35000; [M+H]+
DATE: 2019.05.30
AUTHORS: Nikiforos Alygizakis, Katerina Galani, Nikolaos Thomaidis, University of Athens
LICENSE: CC BY
COPYRIGHT: Copyright (C) 2019 Department of Chemistry, University of Athens
COMMENT: CONFIDENCE standard compound
COMMENT: INTERNAL_ID 2629
CH$NAME: Daminozide
CH$NAME: 4-(2,2-dimethylhydrazinyl)-4-oxobutanoic acid
CH$COMPOUND_CLASS: N/A; Environmental Standard
CH$FORMULA: C6H12N2O3
CH$EXACT_MASS: 160.0847922
CH$SMILES: CN(C)NC(=O)CCC(O)=O
CH$IUPAC: InChI=1S/C6H12N2O3/c1-8(2)7-5(9)3-4-6(10)11/h3-4H2,1-2H3,(H,7,9)(H,10,11)
CH$LINK: CAS 1596-84-5
CH$LINK: CHEBI CHEBI:4312
CH$LINK: KEGG C10996
CH$LINK: PUBCHEM CID:15331
CH$LINK: INCHIKEY NOQGZXFMHARMLW-UHFFFAOYSA-N
CH$LINK: CHEMSPIDER 14593
CH$LINK: COMPTOX DTXSID9020370
AC$INSTRUMENT: Bruker maXis Impact
AC$INSTRUMENT_TYPE: LC-ESI-QTOF
AC$MASS_SPECTROMETRY: MS_TYPE MS2
AC$MASS_SPECTROMETRY: ION_MODE POSITIVE
AC$MASS_SPECTROMETRY: IONIZATION ESI
AC$MASS_SPECTROMETRY: FRAGMENTATION_MODE CID
AC$MASS_SPECTROMETRY: COLLISION_ENERGY 10 eV
AC$MASS_SPECTROMETRY: RESOLUTION 35000
AC$CHROMATOGRAPHY: COLUMN_NAME Acclaim RSLC C18 2.2um, 2.1x100mm, Thermo
AC$CHROMATOGRAPHY: FLOW_GRADIENT 99/1 at 0-1 min, 61/39 at 3 min, 0.1/99.9 at 14-16 min, 99/1 at 16.1-20 min
AC$CHROMATOGRAPHY: FLOW_RATE 200 uL/min at 0-3 min, 400 uL/min at 14 min, 480 uL/min at 16-19 min, 200 uL/min at 19.1-20 min
AC$CHROMATOGRAPHY: RETENTION_TIME 2.179 min
AC$CHROMATOGRAPHY: SOLVENT A 90:10 water:methanol with 0.01% formic acid and 5mM ammonium formate
AC$CHROMATOGRAPHY: SOLVENT B methanol with 0.01% formic acid and 5mM ammonium formate
MS$FOCUSED_ION: BASE_PEAK 161.0911
MS$FOCUSED_ION: PRECURSOR_M/Z 161.0921
MS$FOCUSED_ION: PRECURSOR_TYPE [M+H]+
MS$DATA_PROCESSING: RECALIBRATE identity on assigned fragments and MS1
MS$DATA_PROCESSING: WHOLE RMassBank 2.10.1
PK$SPLASH: splash10-0006-0900000000-d4c8585ef82a77274880
PK$ANNOTATION: m/z tentative_formula formula_count mass error(ppm)
  143.0802 C6H11N2O2+ 1 143.0815 -8.79
  144.0832 C5[13]CH11N2O2+ 1 144.0854 -15.51
  161.091 C6H13N2O3+ 1 161.0921 -6.68
  162.0942 C5[13]CH13N2O3+ 1 162.096 -11.09
PK$NUM_PEAK: 4
PK$PEAK: m/z int. rel.int.
  143.0802 132620 999
  144.0832 7104 53
  161.091 57320 431
  162.0942 3300 24
//
