ACCESSION: MSBNK-Athens_Univ-AU260201
RECORD_TITLE: Hexazinone; LC-ESI-QTOF; MS2; CE: 10 eV; R=35000; [M+H]+
DATE: 2019.05.30
AUTHORS: Nikiforos Alygizakis, Katerina Galani, Nikolaos Thomaidis, University of Athens
LICENSE: CC BY
COPYRIGHT: Copyright (C) 2019 Department of Chemistry, University of Athens
COMMENT: CONFIDENCE standard compound
COMMENT: INTERNAL_ID 2602
CH$NAME: Hexazinone
CH$NAME: 3-cyclohexyl-6-(dimethylamino)-1-methyl-1,3,5-triazine-2,4-dione
CH$COMPOUND_CLASS: N/A; Environmental Standard
CH$FORMULA: C12H20N4O2
CH$EXACT_MASS: 252.1586259
CH$SMILES: CN(C)C1=NC(=O)N(C2CCCCC2)C(=O)N1C
CH$IUPAC: InChI=1S/C12H20N4O2/c1-14(2)10-13-11(17)16(12(18)15(10)3)9-7-5-4-6-8-9/h9H,4-8H2,1-3H3
CH$LINK: CAS 51235-04-2
CH$LINK: CHEBI CHEBI:5705
CH$LINK: KEGG C10926
CH$LINK: PUBCHEM CID:39965
CH$LINK: INCHIKEY CAWXEEYDBZRFPE-UHFFFAOYSA-N
CH$LINK: CHEMSPIDER 36542
CH$LINK: COMPTOX DTXSID4024145
AC$INSTRUMENT: Bruker maXis Impact
AC$INSTRUMENT_TYPE: LC-ESI-QTOF
AC$MASS_SPECTROMETRY: MS_TYPE MS2
AC$MASS_SPECTROMETRY: ION_MODE POSITIVE
AC$MASS_SPECTROMETRY: IONIZATION ESI
AC$MASS_SPECTROMETRY: FRAGMENTATION_MODE CID
AC$MASS_SPECTROMETRY: COLLISION_ENERGY 10 eV
AC$MASS_SPECTROMETRY: RESOLUTION 35000
AC$CHROMATOGRAPHY: COLUMN_NAME Acclaim RSLC C18 2.2um, 2.1x100mm, Thermo
AC$CHROMATOGRAPHY: FLOW_GRADIENT 99/1 at 0-1 min, 61/39 at 3 min, 0.1/99.9 at 14-16 min, 99/1 at 16.1-20 min
AC$CHROMATOGRAPHY: FLOW_RATE 200 uL/min at 0-3 min, 400 uL/min at 14 min, 480 uL/min at 16-19 min, 200 uL/min at 19.1-20 min
AC$CHROMATOGRAPHY: RETENTION_TIME 7.088 min
AC$CHROMATOGRAPHY: SOLVENT A 90:10 water:methanol with 0.01% formic acid and 5mM ammonium formate
AC$CHROMATOGRAPHY: SOLVENT B methanol with 0.01% formic acid and 5mM ammonium formate
MS$FOCUSED_ION: BASE_PEAK 253.1664
MS$FOCUSED_ION: PRECURSOR_M/Z 253.1659
MS$FOCUSED_ION: PRECURSOR_TYPE [M+H]+
MS$DATA_PROCESSING: RECALIBRATE identity on assigned fragments and MS1
MS$DATA_PROCESSING: WHOLE RMassBank 2.10.1
PK$SPLASH: splash10-0uk9-0690000000-92293a024d62d9237194
PK$ANNOTATION: m/z tentative_formula formula_count mass error(ppm)
  171.0867 C6H11N4O2+ 1 171.0877 -5.76
  172.0894 C5[13]CH11N4O2+ 1 172.0916 -12.56
  253.1665 C12H21N4O2+ 1 253.1659 2.37
  254.1686 C11[13]CH21N4O2+ 1 254.1698 -4.88
PK$NUM_PEAK: 4
PK$PEAK: m/z int. rel.int.
  171.0867 2076500 824
  172.0894 91052 36
  253.1665 2514740 999
  254.1686 531976 211
//
