ACCESSION: MSBNK-Athens_Univ-AU260301
RECORD_TITLE: Carbetamide; LC-ESI-QTOF; MS2; CE: 10 eV; R=35000; [M+H]+
DATE: 2019.05.30
AUTHORS: Nikiforos Alygizakis, Katerina Galani, Nikolaos Thomaidis, University of Athens
LICENSE: CC BY
COPYRIGHT: Copyright (C) 2019 Department of Chemistry, University of Athens
COMMENT: CONFIDENCE standard compound
COMMENT: INTERNAL_ID 2603
CH$NAME: Carbetamide
CH$NAME: [(2R)-1-(ethylamino)-1-oxopropan-2-yl] N-phenylcarbamate
CH$COMPOUND_CLASS: N/A; Environmental Standard
CH$FORMULA: C12H16N2O3
CH$EXACT_MASS: 236.1160924
CH$SMILES: CCNC(=O)[C@@H](C)OC(=O)NC1=CC=CC=C1
CH$IUPAC: InChI=1S/C12H16N2O3/c1-3-13-11(15)9(2)17-12(16)14-10-7-5-4-6-8-10/h4-9H,3H2,1-2H3,(H,13,15)(H,14,16)/t9-/m1/s1
CH$LINK: CAS 16118-49-3
CH$LINK: PUBCHEM CID:152031
CH$LINK: INCHIKEY AMRQXHFXNZFDCH-SECBINFHSA-N
CH$LINK: CHEMSPIDER 133997
AC$INSTRUMENT: Bruker maXis Impact
AC$INSTRUMENT_TYPE: LC-ESI-QTOF
AC$MASS_SPECTROMETRY: MS_TYPE MS2
AC$MASS_SPECTROMETRY: ION_MODE POSITIVE
AC$MASS_SPECTROMETRY: IONIZATION ESI
AC$MASS_SPECTROMETRY: FRAGMENTATION_MODE CID
AC$MASS_SPECTROMETRY: COLLISION_ENERGY 10 eV
AC$MASS_SPECTROMETRY: RESOLUTION 35000
AC$CHROMATOGRAPHY: COLUMN_NAME Acclaim RSLC C18 2.2um, 2.1x100mm, Thermo
AC$CHROMATOGRAPHY: FLOW_GRADIENT 99/1 at 0-1 min, 61/39 at 3 min, 0.1/99.9 at 14-16 min, 99/1 at 16.1-20 min
AC$CHROMATOGRAPHY: FLOW_RATE 200 uL/min at 0-3 min, 400 uL/min at 14 min, 480 uL/min at 16-19 min, 200 uL/min at 19.1-20 min
AC$CHROMATOGRAPHY: RETENTION_TIME 6.536 min
AC$CHROMATOGRAPHY: SOLVENT A 90:10 water:methanol with 0.01% formic acid and 5mM ammonium formate
AC$CHROMATOGRAPHY: SOLVENT B methanol with 0.01% formic acid and 5mM ammonium formate
MS$FOCUSED_ION: BASE_PEAK 237.1232
MS$FOCUSED_ION: PRECURSOR_M/Z 237.1234
MS$FOCUSED_ION: PRECURSOR_TYPE [M+H]+
MS$DATA_PROCESSING: RECALIBRATE identity on assigned fragments and MS1
MS$DATA_PROCESSING: WHOLE RMassBank 2.10.1
PK$SPLASH: splash10-0006-0910000000-91339199f752376756ab
PK$ANNOTATION: m/z tentative_formula formula_count mass error(ppm)
  118.0856 C5H12NO2+ 1 118.0863 -5.93
  119.0887 C4[13]CH12NO2+ 1 119.0902 -12.33
  120.0436 C7H6NO+ 1 120.0444 -6.24
  121.0467 C6[13]CH6NO+ 1 121.0483 -13.38
  138.0535 C7H8NO2+ 1 138.055 -10.43
  144.0642 C6H10NO3+ 1 144.0655 -8.9
  164.0694 C9H10NO2+ 1 164.0706 -7.24
  192.0647 C10H10NO3+ 1 192.0655 -4.09
  193.0679 C9[13]CH10NO3+ 1 193.0694 -7.76
  194.0695 C8[13]C2H10NO3+ 1 194.0728 -16.97
  237.1231 C12H17N2O3+ 1 237.1234 -1.31
  238.126 C11[13]CH17N2O3+ 1 238.1273 -5.25
PK$NUM_PEAK: 12
PK$PEAK: m/z int. rel.int.
  118.0856 180020 99
  119.0887 12996 7
  120.0436 150544 82
  121.0467 12660 6
  138.0535 9564 5
  144.0642 48028 26
  164.0694 41848 23
  192.0647 1813348 999
  193.0679 116156 63
  194.0695 12432 6
  237.1231 243360 134
  238.126 27512 15
//
