ACCESSION: MSBNK-Athens_Univ-AU509553
RECORD_TITLE: 2-Perfluorodecyl ethanoic acid (10:2) (FDEA); LC-ESI-QTOF; MS2; CE: 30 eV; R=35000; [M-H]-
DATE: 2023.04.25
AUTHORS: Konstantina Diamanti, Georgios Gkotsis, Nikiforos Alygizakis, Nikolaos Thomaidis
LICENSE: CC BY
COPYRIGHT: Copyright (C) 2023 Department of Chemistry, University of Athens
COMMENT: CONFIDENCE standard compound
COMMENT: INTERNAL_ID 5095
CH$NAME: 2-Perfluorodecyl ethanoic acid (10:2) (FDEA)
CH$NAME: 2-Perfluorodecyl ethanoic acid
CH$NAME: 3,3,4,4,5,5,6,6,7,7,8,8,9,9,10,10,11,11,12,12,12-henicosafluorododecanoic acid
CH$COMPOUND_CLASS: N/A; Environmental Standard
CH$FORMULA: C12H3F21O2
CH$EXACT_MASS: 577.9798
CH$SMILES: C(C(=O)O)C(C(C(C(C(C(C(C(C(C(F)(F)F)(F)F)(F)F)(F)F)(F)F)(F)F)(F)F)(F)F)(F)F)(F)F
CH$IUPAC: InChI=1S/C12H3F21O2/c13-3(14,1-2(34)35)4(15,16)5(17,18)6(19,20)7(21,22)8(23,24)9(25,26)10(27,28)11(29,30)12(31,32)33/h1H2,(H,34,35)
CH$LINK: CAS 53826-13-4
CH$LINK: PUBCHEM CID:11028244
CH$LINK: INCHIKEY IKHNVATUHWDNGI-UHFFFAOYSA-N
CH$LINK: CHEMSPIDER 9203424
AC$INSTRUMENT: Bruker maXis Impact
AC$INSTRUMENT_TYPE: LC-ESI-QTOF
AC$MASS_SPECTROMETRY: MS_TYPE MS2
AC$MASS_SPECTROMETRY: MODE NEGATIVE
AC$MASS_SPECTROMETRY: IONIZATION ESI
AC$MASS_SPECTROMETRY: FRAGMENTATION_MODE CID
AC$MASS_SPECTROMETRY: COLLISION_ENERGY 30 eV
AC$MASS_SPECTROMETRY: RESOLUTION 35000
AC$MASS_SPECTROMETRY: MASS_RANGE_M/Z 50-1000
AC$CHROMATOGRAPHY: COLUMN_NAME Acclaim RSLC C18 2.2um, 2.1x100mm, Thermo
AC$CHROMATOGRAPHY: FLOW_GRADIENT 99/1 at 0-1 min, 61/39 at 3 min, 0.1/99.9 at 14-16 min, 99/1 at 16.1-20 min
AC$CHROMATOGRAPHY: FLOW_RATE 200 uL/min at 0-3 min, 400 uL/min at 14 min, 480 uL/min at 16-19 min, 200 uL/min at 19.1-20 min
AC$CHROMATOGRAPHY: RETENTION_TIME 11.865 min
MS$FOCUSED_ION: BASE_PEAK 493.9727
MS$FOCUSED_ION: PRECURSOR_M/Z 576.9725
MS$FOCUSED_ION: PRECURSOR_TYPE [M-H]-
MS$DATA_PROCESSING: RECALIBRATE identity on assigned fragments and MS1
MS$DATA_PROCESSING: WHOLE RMassBank 3.9.0
PK$SPLASH: splash10-0006-0000900000-f4d1501ad378d3302718
PK$ANNOTATION: m/z tentative_formula formula_count mass error(ppm)
  492.9658 C11F19- 3 492.9702 -8.91
  492.9798 C5H2F21O2- 3 492.9725 14.86
  493.9679 C11HF19- 3 493.978 -20.43
  493.9842 C8H2F20O- 2 493.9792 10.2
PK$NUM_PEAK: 4
PK$PEAK: m/z int. rel.int.
  492.9658 860 980
  492.9798 876 999
  493.9679 600 684
  493.9842 596 679
//
