ACCESSION: MSBNK-Athens_Univ-AU367602
RECORD_TITLE: Terbutylazine; LC-ESI-QTOF; MS2; CE: 20 eV; R=35000; [M+H]+
DATE: 2015.12.09
AUTHORS: Nikiforos Alygizakis, Nikolaos Thomaidis, University of Athens
LICENSE: CC BY-SA
COPYRIGHT: Copyright (C) 2015 Department of Chemistry, University of Athens
COMMENT: CONFIDENCE standard compound
COMMENT: INTERNAL_ID 3676
CH$NAME: Terbutylazine
CH$NAME: Terbuthylazine
CH$NAME: 2-N-tert-butyl-6-chloro-4-N-ethyl-1,3,5-triazine-2,4-diamine
CH$COMPOUND_CLASS: N/A; Environmental Standard
CH$FORMULA: C9H16ClN5
CH$EXACT_MASS: 229.1094232
CH$SMILES: CCNC1=NC(NC(C)(C)C)=NC(Cl)=N1
CH$IUPAC: InChI=1S/C9H16ClN5/c1-5-11-7-12-6(10)13-8(14-7)15-9(2,3)4/h5H2,1-4H3,(H2,11,12,13,14,15)
CH$LINK: CAS 5915-41-3
CH$LINK: CHEBI CHEBI:30263
CH$LINK: KEGG C18810
CH$LINK: PUBCHEM CID:22206
CH$LINK: INCHIKEY FZXISNSWEXTPMF-UHFFFAOYSA-N
CH$LINK: CHEMSPIDER 20848
CH$LINK: COMPTOX DTXSID4027608
AC$INSTRUMENT: Bruker maXis Impact
AC$INSTRUMENT_TYPE: LC-ESI-QTOF
AC$MASS_SPECTROMETRY: MS_TYPE MS2
AC$MASS_SPECTROMETRY: ION_MODE POSITIVE
AC$MASS_SPECTROMETRY: IONIZATION ESI
AC$MASS_SPECTROMETRY: FRAGMENTATION_MODE CID
AC$MASS_SPECTROMETRY: COLLISION_ENERGY 20 eV
AC$MASS_SPECTROMETRY: RESOLUTION 35000
AC$CHROMATOGRAPHY: COLUMN_NAME Acclaim RSLC C18 2.2um, 2.1x100mm, Thermo
AC$CHROMATOGRAPHY: FLOW_GRADIENT 99/1 at 0-1 min, 61/39 at 3 min, 0.1/99.9 at 14-16 min, 99/1 at 16.1-20 min
AC$CHROMATOGRAPHY: FLOW_RATE 200 uL/min at 0-3 min, 400 uL/min at 14 min, 480 uL/min at 16-19 min, 200 uL/min at 19.1-20 min
AC$CHROMATOGRAPHY: RETENTION_TIME 9.3 min
AC$CHROMATOGRAPHY: SOLVENT A 90:10 water:methanol with 0.01% formic acid and 5mM ammonium formate
AC$CHROMATOGRAPHY: SOLVENT B methanol with 0.01% formic acid and 5mM ammonium formate
MS$FOCUSED_ION: BASE_PEAK 404.2067
MS$FOCUSED_ION: PRECURSOR_M/Z 230.1167
MS$FOCUSED_ION: PRECURSOR_TYPE [M+H]+
MS$DATA_PROCESSING: RECALIBRATE identity on assigned fragments and MS1
MS$DATA_PROCESSING: REANALYZE Peaks with additional N2/O included
MS$DATA_PROCESSING: WHOLE RMassBank 2.0.3
PK$SPLASH: splash10-00di-0900000000-8e6d0376e66db03d2977
PK$ANNOTATION: m/z tentative_formula formula_count mass error(ppm)
  132.0315 C4H7ClN3+ 2 132.0323 -6.12
  133.0352 C3[13]CH7ClN3+ 1 133.0344 6.01
  134.028 C4H7[37]ClN3+ 1 134.0294 -10.45
  138.0768 C5H8N5+ 2 138.0774 -4.52
  146.0217 C3H5ClN5+ 1 146.0228 -7.42
  147.0263 C2[13]CH5ClN5+ 1 147.0239 16.32
  148.0187 C3H5[37]ClN5+ 1 148.0199 -8.11
  174.0531 C5H9ClN5+ 1 174.0541 -5.76
  175.0551 C4[13]CH9ClN5+ 1 175.0559 -4.57
  176.0499 C5H9[37]ClN5+ 1 176.0512 -7.38
  177.0526 C4[13]CH9[37]ClN5+ 1 177.053 -2.26
  230.1162 C9H17ClN5+ 1 230.1167 -2.16
  231.1193 C8[13]CH17ClN5+ 1 231.1191 0.87
  232.1135 C9H17[37]ClN5+ 1 232.1139 -1.72
PK$NUM_PEAK: 14
PK$PEAK: m/z int. rel.int.
  132.0315 8204 22
  133.0352 556 1
  134.028 2480 7
  138.0768 3816 10
  146.0217 8600 23
  147.0263 432 1
  148.0187 2532 7
  174.0531 372124 999
  175.0551 21992 59
  176.0499 100196 269
  177.0526 3896 10
  230.1162 28892 77
  231.1193 2756 7
  232.1135 10244 27
//
