ACCESSION: MSBNK-Athens_Univ-AU590119
RECORD_TITLE: 4.4-DDE; GC-APCI-QTOF; MS2; CE: 30 eV; R=35000; [M]+
DATE: 2019.11.21
AUTHORS: Dimitrios E. Damalas, Stefanos Kokolakis, Reza Aalizadeh, Nikolaos Thomaidis, University of Athens
LICENSE: CC BY
COPYRIGHT: Copyright (C) 2019 Department of Chemistry, University of Athens
COMMENT: CONFIDENCE Reference Standard (Level 1)
COMMENT: INTERNAL_ID 5901
CH$NAME: 4.4-DDE
CH$NAME: p,p`-DDE
CH$NAME: 1-chloro-4-[2,2-dichloro-1-(4-chlorophenyl)ethenyl]benzene
CH$COMPOUND_CLASS: N/A; Environmental Standard
CH$FORMULA: C14H8Cl4
CH$EXACT_MASS: 315.938
CH$SMILES: ClC(Cl)=C(C1=CC=C(Cl)C=C1)C1=CC=C(Cl)C=C1
CH$IUPAC: InChI=1S/C14H8Cl4/c15-11-5-1-9(2-6-11)13(14(17)18)10-3-7-12(16)8-4-10/h1-8H
CH$LINK: CAS 72-55-9
CH$LINK: CHEBI CHEBI:16598
CH$LINK: KEGG C04596
CH$LINK: PUBCHEM CID:3035
CH$LINK: INCHIKEY UCNVFOCBFJOQAL-UHFFFAOYSA-N
CH$LINK: CHEMSPIDER 2927
AC$INSTRUMENT: Bruker 450 GC coupled to maXis Impact
AC$INSTRUMENT_TYPE: GC-APCI-QTOF
AC$MASS_SPECTROMETRY: MS_TYPE MS2
AC$MASS_SPECTROMETRY: ION_MODE POSITIVE
AC$MASS_SPECTROMETRY: IONIZATION APCI
AC$MASS_SPECTROMETRY: FRAGMENTATION_MODE CID
AC$MASS_SPECTROMETRY: COLLISION_ENERGY 30 eV
AC$MASS_SPECTROMETRY: RESOLUTION 35000
AC$MASS_SPECTROMETRY: SOURCE_TEMPERATURE 250 C
AC$CHROMATOGRAPHY: CARRIER_GAS Helium
AC$CHROMATOGRAPHY: COLUMN_NAME Rxi-5Sil MS column, 30m, 0.25mm i.d., 0.25µm film thickness (Restek)
AC$CHROMATOGRAPHY: COLUMN_TEMPERATURE_GRADIENT 55 C at 0 min, 55 C at 3 min, 180 C at 11.33 min with 15 C/min, 280 C at 26.72 min with 6.5 C/min, 280 C at 31.72 min, 300 C at 33.72 min with 10 C/min, 300 C at 39 min
AC$CHROMATOGRAPHY: FLOW_RATE 1.5 mL/min
AC$CHROMATOGRAPHY: RETENTION_TIME 20.131 min
AC$CHROMATOGRAPHY: TRANSFERLINE_TEMPERATURE 290 C
AC$CHROMATOGRAPHY: INJECTION_TEMPERATURE 280 C
MS$FOCUSED_ION: BASE_PEAK 315.9379
MS$FOCUSED_ION: PRECURSOR_M/Z 315.9375
MS$FOCUSED_ION: PRECURSOR_TYPE [M]+
MS$DATA_PROCESSING: RECALIBRATE identity on assigned fragments and MS1
MS$DATA_PROCESSING: WHOLE RMassBank 2.8.0
PK$SPLASH: splash10-0002-0090000000-7685d6ce98df0066c25c
PK$ANNOTATION: m/z tentative_formula formula_count mass error(ppm)
  245.9981 C14H8Cl2+ 1 245.9998 -6.62
  280.9647 C14H8Cl3+ 1 280.9686 -14
PK$NUM_PEAK: 2
PK$PEAK: m/z int. rel.int.
  245.9981 2468 999
  280.9647 328 132
//
