ACCESSION: MSBNK-Athens_Univ-AU509354
RECORD_TITLE: 2-Perfluorooctyl ethanoic acid (8:2) (FOEA); LC-ESI-QTOF; MS2; CE: 40 eV; R=35000; [M-H]-
DATE: 2023.04.25
AUTHORS: Konstantina Diamanti, Georgios Gkotsis, Nikiforos Alygizakis, Nikolaos Thomaidis
LICENSE: CC BY
COPYRIGHT: Copyright (C) 2023 Department of Chemistry, University of Athens
COMMENT: CONFIDENCE standard compound
COMMENT: INTERNAL_ID 5093
CH$NAME: 2-Perfluorooctyl ethanoic acid (8:2) (FOEA)
CH$NAME: Decanoic acid, 3,3,4,4,5,5,6,6,7,7,8,8,9,9,10,10,10-heptadecafluoro-
CH$NAME: 3,3,4,4,5,5,6,6,7,7,8,8,9,9,10,10,10-heptadecafluorodecanoic acid
CH$COMPOUND_CLASS: N/A; Environmental Standard
CH$FORMULA: C10H3F17O2
CH$EXACT_MASS: 477.9862
CH$SMILES: C(C(=O)O)C(C(C(C(C(C(C(C(F)(F)F)(F)F)(F)F)(F)F)(F)F)(F)F)(F)F)(F)F
CH$IUPAC: InChI=1S/C10H3F17O2/c11-3(12,1-2(28)29)4(13,14)5(15,16)6(17,18)7(19,20)8(21,22)9(23,24)10(25,26)27/h1H2,(H,28,29)
CH$LINK: CAS 27854-31-5
CH$LINK: PUBCHEM CID:10994425
CH$LINK: INCHIKEY XTBXSCIWOVSSGB-UHFFFAOYSA-N
CH$LINK: CHEMSPIDER 9169620
AC$INSTRUMENT: Bruker maXis Impact
AC$INSTRUMENT_TYPE: LC-ESI-QTOF
AC$MASS_SPECTROMETRY: MS_TYPE MS2
AC$MASS_SPECTROMETRY: MODE NEGATIVE
AC$MASS_SPECTROMETRY: IONIZATION ESI
AC$MASS_SPECTROMETRY: FRAGMENTATION_MODE CID
AC$MASS_SPECTROMETRY: COLLISION_ENERGY 40 eV
AC$MASS_SPECTROMETRY: RESOLUTION 35000
AC$MASS_SPECTROMETRY: MASS_RANGE_M/Z 50-1000
AC$CHROMATOGRAPHY: COLUMN_NAME Acclaim RSLC C18 2.2um, 2.1x100mm, Thermo
AC$CHROMATOGRAPHY: FLOW_GRADIENT 99/1 at 0-1 min, 61/39 at 3 min, 0.1/99.9 at 14-16 min, 99/1 at 16.1-20 min
AC$CHROMATOGRAPHY: FLOW_RATE 200 uL/min at 0-3 min, 400 uL/min at 14 min, 480 uL/min at 16-19 min, 200 uL/min at 19.1-20 min
AC$CHROMATOGRAPHY: RETENTION_TIME 10.666 min
MS$FOCUSED_ION: BASE_PEAK 393.9801
MS$FOCUSED_ION: PRECURSOR_M/Z 476.9789
MS$FOCUSED_ION: PRECURSOR_TYPE [M-H]-
MS$DATA_PROCESSING: RECALIBRATE identity on assigned fragments and MS1
MS$DATA_PROCESSING: WHOLE RMassBank 3.9.0
PK$SPLASH: splash10-0006-0009000000-99bf76c595f454faa4d6
PK$ANNOTATION: m/z tentative_formula formula_count mass error(ppm)
  392.9795 C3H2F17O2- 3 392.9789 1.63
  393.9741 C8F14O2- 1 393.968 15.41
PK$NUM_PEAK: 2
PK$PEAK: m/z int. rel.int.
  392.9795 704 999
  393.9741 376 533
//
