ACCESSION: MSBNK-Athens_Univ-AU235057
RECORD_TITLE: Flutamide; LC-ESI-QTOF; MS2; CE: 10 eV; R=35000; [M-H]-
DATE: 2019.03.29
AUTHORS: Nikiforos Alygizakis, Katerina Galani, Nikolaos Thomaidis, University of Athens
LICENSE: CC BY
COPYRIGHT: Copyright (C) 2019 Department of Chemistry, University of Athens
COMMENT: CONFIDENCE standard compound
COMMENT: INTERNAL_ID 2350
CH$NAME: Flutamide
CH$NAME: 2-methyl-N-[4-nitro-3-(trifluoromethyl)phenyl]propanamide
CH$COMPOUND_CLASS: N/A; Environmental Standard
CH$FORMULA: C11H11F3N2O3
CH$EXACT_MASS: 276.0721769
CH$SMILES: CC(C)C(=O)NC1=CC(=C(C=C1)[N+]([O-])=O)C(F)(F)F
CH$IUPAC: InChI=1S/C11H11F3N2O3/c1-6(2)10(17)15-7-3-4-9(16(18)19)8(5-7)11(12,13)14/h3-6H,1-2H3,(H,15,17)
CH$LINK: CAS 37209-54-4
CH$LINK: CHEBI CHEBI:5132
CH$LINK: KEGG C07653
CH$LINK: PUBCHEM CID:3397
CH$LINK: INCHIKEY MKXKFYHWDHIYRV-UHFFFAOYSA-N
CH$LINK: CHEMSPIDER 3280
CH$LINK: COMPTOX DTXSID7032004
AC$INSTRUMENT: Bruker maXis Impact
AC$INSTRUMENT_TYPE: LC-ESI-QTOF
AC$MASS_SPECTROMETRY: MS_TYPE MS2
AC$MASS_SPECTROMETRY: ION_MODE NEGATIVE
AC$MASS_SPECTROMETRY: IONIZATION ESI
AC$MASS_SPECTROMETRY: FRAGMENTATION_MODE CID
AC$MASS_SPECTROMETRY: COLLISION_ENERGY 10 eV
AC$MASS_SPECTROMETRY: RESOLUTION 35000
AC$CHROMATOGRAPHY: COLUMN_NAME Acclaim RSLC C18 2.2um, 2.1x100mm, Thermo
AC$CHROMATOGRAPHY: FLOW_GRADIENT 99/1 at 0-1 min, 61/39 at 3 min, 0.1/99.9 at 14-16 min, 99/1 at 16.1-20 min
AC$CHROMATOGRAPHY: FLOW_RATE 200 uL/min at 0-3 min, 400 uL/min at 14 min, 480 uL/min at 16-19 min, 200 uL/min at 19.1-20 min
AC$CHROMATOGRAPHY: RETENTION_TIME 9.445 min
AC$CHROMATOGRAPHY: SOLVENT A 90:10 water:methanol with 5mM ammonium acetate
AC$CHROMATOGRAPHY: SOLVENT B methanol with 5mM ammonium acetate
MS$FOCUSED_ION: BASE_PEAK 275.0657
MS$FOCUSED_ION: PRECURSOR_M/Z 275.0649
MS$FOCUSED_ION: PRECURSOR_TYPE [M-H]-
MS$DATA_PROCESSING: RECALIBRATE identity on assigned fragments and MS1
MS$DATA_PROCESSING: WHOLE RMassBank 2.10.0
PK$SPLASH: splash10-004i-0090000000-5106e27c44c7e449a7ef
PK$ANNOTATION: m/z tentative_formula formula_count mass error(ppm)
  202.0116 C8H3F3NO2- 3 202.0121 -2.53
  205.0219 C10H3F2N2O- 3 205.0219 -0.14
  275.0658 C11H10F3N2O3- 1 275.0649 3.1
  276.0684 C10[13]CH10F3N2O3- 1 276.0677 2.4
  277.0686 C9[13]C2H10F3N2O3- 1 277.0711 -8.81
PK$NUM_PEAK: 5
PK$PEAK: m/z int. rel.int.
  202.0116 15920 11
  205.0219 12552 9
  275.0658 1354368 999
  276.0684 129628 95
  277.0686 11168 8
//
