ACCESSION: MSBNK-Athens_Univ-AU509253
RECORD_TITLE: Bis(1H,1H,2H,2H-perfluorodecyl)phosphate (8:2diPAP); LC-ESI-QTOF; MS2; CE: 30 eV; R=35000; [M-H]-
DATE: 2023.04.25
AUTHORS: Konstantina Diamanti, Georgios Gkotsis, Nikiforos Alygizakis, Nikolaos Thomaidis
LICENSE: CC BY
COPYRIGHT: Copyright (C) 2023 Department of Chemistry, University of Athens
COMMENT: CONFIDENCE standard compound
COMMENT: INTERNAL_ID 5092
CH$NAME: Bis(1H,1H,2H,2H-perfluorodecyl)phosphate (8:2diPAP)
CH$NAME: bis(3,3,4,4,5,5,6,6,7,7,8,8,9,9,10,10,10-heptadecafluorodecyl) hydrogen phosphate
CH$COMPOUND_CLASS: N/A; Environmental Standard
CH$FORMULA: C20H9F34O4P
CH$EXACT_MASS: 989.9696
CH$SMILES: C(COP(=O)(O)OCCC(C(C(C(C(C(C(C(F)(F)F)(F)F)(F)F)(F)F)(F)F)(F)F)(F)F)(F)F)C(C(C(C(C(C(C(C(F)(F)F)(F)F)(F)F)(F)F)(F)F)(F)F)(F)F)(F)F
CH$IUPAC: InChI=1S/C20H9F34O4P/c21-5(22,7(25,26)9(29,30)11(33,34)13(37,38)15(41,42)17(45,46)19(49,50)51)1-3-57-59(55,56)58-4-2-6(23,24)8(27,28)10(31,32)12(35,36)14(39,40)16(43,44)18(47,48)20(52,53)54/h1-4H2,(H,55,56)
CH$LINK: CAS 678-41-1
CH$LINK: CHEBI 83540
CH$LINK: PUBCHEM CID:3022253
CH$LINK: INCHIKEY AFWOYEYXUDHGHF-UHFFFAOYSA-N
CH$LINK: CHEMSPIDER 2288808
AC$INSTRUMENT: Bruker maXis Impact
AC$INSTRUMENT_TYPE: LC-ESI-QTOF
AC$MASS_SPECTROMETRY: MS_TYPE MS2
AC$MASS_SPECTROMETRY: MODE NEGATIVE
AC$MASS_SPECTROMETRY: IONIZATION ESI
AC$MASS_SPECTROMETRY: FRAGMENTATION_MODE CID
AC$MASS_SPECTROMETRY: COLLISION_ENERGY 30 eV
AC$MASS_SPECTROMETRY: RESOLUTION 35000
AC$MASS_SPECTROMETRY: MASS_RANGE_M/Z 50-1000
AC$CHROMATOGRAPHY: COLUMN_NAME Acclaim RSLC C18 2.2um, 2.1x100mm, Thermo
AC$CHROMATOGRAPHY: FLOW_GRADIENT 99/1 at 0-1 min, 61/39 at 3 min, 0.1/99.9 at 14-16 min, 99/1 at 16.1-20 min
AC$CHROMATOGRAPHY: FLOW_RATE 200 uL/min at 0-3 min, 400 uL/min at 14 min, 480 uL/min at 16-19 min, 200 uL/min at 19.1-20 min
AC$CHROMATOGRAPHY: RETENTION_TIME 13.696 min
MS$FOCUSED_ION: BASE_PEAK 988.9495
MS$FOCUSED_ION: PRECURSOR_M/Z 988.9623
MS$FOCUSED_ION: PRECURSOR_TYPE [M-H]-
MS$DATA_PROCESSING: RECALIBRATE identity on assigned fragments and MS1
MS$DATA_PROCESSING: WHOLE RMassBank 3.9.0
PK$SPLASH: splash10-000f-0000090005-d737dab8b4638d361ace
PK$ANNOTATION: m/z tentative_formula formula_count mass error(ppm)
  542.9645 C5H5F21O3P- 30 542.9646 -0.24
  988.9425 C20H8F34O4P- 1 988.9623 -20.05
  988.966 C20H8F34O4P- 1 988.9623 3.75
PK$NUM_PEAK: 3
PK$PEAK: m/z int. rel.int.
  542.9645 1956 999
  988.9425 616 314
  988.966 476 243
//
