ACCESSION: MSBNK-Athens_Univ-AU508656
RECORD_TITLE: Bis(tridecafluorohexyl)phosphinic acid (6:6PFPi); LC-ESI-QTOF; MS2; CE: 29.8-44.7 eV; R=35000; [M-H]-
DATE: 2023.04.25
AUTHORS: Konstantina Diamanti, Georgios Gkotsis, Nikiforos Alygizakis, Nikolaos Thomaidis
LICENSE: CC BY
COPYRIGHT: Copyright (C) 2023 Department of Chemistry, University of Athens
COMMENT: CONFIDENCE standard compound
COMMENT: INTERNAL_ID 5086
CH$NAME: Bis(tridecafluorohexyl)phosphinic acid (6:6PFPi)
CH$COMPOUND_CLASS: N/A; Environmental Standard
CH$FORMULA: C12HF26O2P
CH$EXACT_MASS: 701.9299
CH$SMILES: C(C(C(C(F)(F)P(=O)(C(C(C(C(C(C(F)(F)F)(F)F)(F)F)(F)F)(F)F)(F)F)O)(F)F)(F)F)(C(C(F)(F)F)(F)F)(F)F
CH$IUPAC: InChI=1S/C12HF26O2P/c13-1(14,5(21,22)9(29,30)31)3(17,18)7(25,26)11(35,36)41(39,40)12(37,38)8(27,28)4(19,20)2(15,16)6(23,24)10(32,33)34/h(H,39,40)
CH$LINK: CAS 40143-77-9
CH$LINK: PUBCHEM CID:71363384
CH$LINK: INCHIKEY NKHVPWOARFMIPG-UHFFFAOYSA-N
CH$LINK: CHEMSPIDER 57425007
AC$INSTRUMENT: Bruker maXis Impact
AC$INSTRUMENT_TYPE: LC-ESI-QTOF
AC$MASS_SPECTROMETRY: MS_TYPE MS2
AC$MASS_SPECTROMETRY: MODE NEGATIVE
AC$MASS_SPECTROMETRY: IONIZATION ESI
AC$MASS_SPECTROMETRY: FRAGMENTATION_MODE CID
AC$MASS_SPECTROMETRY: COLLISION_ENERGY 29.8-44.7 eV
AC$MASS_SPECTROMETRY: RESOLUTION 35000
AC$MASS_SPECTROMETRY: MASS_RANGE_M/Z 50-1000
AC$CHROMATOGRAPHY: COLUMN_NAME Acclaim RSLC C18 2.2um, 2.1x100mm, Thermo
AC$CHROMATOGRAPHY: FLOW_GRADIENT 99/1 at 0-1 min, 61/39 at 3 min, 0.1/99.9 at 14-16 min, 99/1 at 16.1-20 min
AC$CHROMATOGRAPHY: FLOW_RATE 200 uL/min at 0-3 min, 400 uL/min at 14 min, 480 uL/min at 16-19 min, 200 uL/min at 19.1-20 min
AC$CHROMATOGRAPHY: RETENTION_TIME 12.147 min
MS$FOCUSED_ION: BASE_PEAK 700.925
MS$FOCUSED_ION: PRECURSOR_M/Z 700.9226
MS$FOCUSED_ION: PRECURSOR_TYPE [M-H]-
MS$DATA_PROCESSING: RECALIBRATE identity on assigned fragments and MS1
MS$DATA_PROCESSING: WHOLE RMassBank 3.9.0
PK$SPLASH: splash10-0udi-0000000900-f5173e4247e92fbd74e4
PK$ANNOTATION: m/z tentative_formula formula_count mass error(ppm)
  62.9631 O2P- 1 62.9641 -17.21
  400.9419 C6F14O2P- 2 400.9418 0.31
  700.926 C12F26O2P- 1 700.9226 4.86
PK$NUM_PEAK: 3
PK$PEAK: m/z int. rel.int.
  62.9631 1500 8
  400.9419 16120 91
  700.926 175832 999
//
