ACCESSION: MSBNK-Athens_Univ-AU253706
RECORD_TITLE: Desethylatrazine; LC-ESI-QTOF; MS2; CE: Ramp 17.6-26.4 eV; R=35000; [M+H]+
DATE: 2019.05.29
AUTHORS: Nikiforos Alygizakis, Katerina Galani, Nikolaos Thomaidis, University of Athens
LICENSE: CC BY
COPYRIGHT: Copyright (C) 2019 Department of Chemistry, University of Athens
COMMENT: CONFIDENCE standard compound
COMMENT: INTERNAL_ID 2537
CH$NAME: Desethylatrazine
CH$NAME: Deethylatrazine
CH$NAME: 6-chloro-2-N-propan-2-yl-1,3,5-triazine-2,4-diamine
CH$COMPOUND_CLASS: N/A; Environmental Standard
CH$FORMULA: C6H10ClN5
CH$EXACT_MASS: 187.0624730
CH$SMILES: CC(C)NC1=NC(N)=NC(Cl)=N1
CH$IUPAC: InChI=1S/C6H10ClN5/c1-3(2)9-6-11-4(7)10-5(8)12-6/h3H,1-2H3,(H3,8,9,10,11,12)
CH$LINK: CAS 6190-65-4
CH$LINK: CHEBI CHEBI:28212
CH$LINK: KEGG C06559
CH$LINK: PUBCHEM CID:22563
CH$LINK: INCHIKEY DFWFIQKMSFGDCQ-UHFFFAOYSA-N
CH$LINK: CHEMSPIDER 21157
CH$LINK: COMPTOX DTXSID5037494
AC$INSTRUMENT: Bruker maXis Impact
AC$INSTRUMENT_TYPE: LC-ESI-QTOF
AC$MASS_SPECTROMETRY: MS_TYPE MS2
AC$MASS_SPECTROMETRY: ION_MODE POSITIVE
AC$MASS_SPECTROMETRY: IONIZATION ESI
AC$MASS_SPECTROMETRY: FRAGMENTATION_MODE CID
AC$MASS_SPECTROMETRY: COLLISION_ENERGY Ramp 17.6-26.4 eV
AC$MASS_SPECTROMETRY: RESOLUTION 35000
AC$CHROMATOGRAPHY: COLUMN_NAME Acclaim RSLC C18 2.2um, 2.1x100mm, Thermo
AC$CHROMATOGRAPHY: FLOW_GRADIENT 99/1 at 0-1 min, 61/39 at 3 min, 0.1/99.9 at 14-16 min, 99/1 at 16.1-20 min
AC$CHROMATOGRAPHY: FLOW_RATE 200 uL/min at 0-3 min, 400 uL/min at 14 min, 480 uL/min at 16-19 min, 200 uL/min at 19.1-20 min
AC$CHROMATOGRAPHY: RETENTION_TIME 5.671 min
AC$CHROMATOGRAPHY: SOLVENT A 90:10 water:methanol with 0.01% formic acid and 5mM ammonium formate
AC$CHROMATOGRAPHY: SOLVENT B methanol with 0.01% formic acid and 5mM ammonium formate
MS$FOCUSED_ION: BASE_PEAK 212.1509
MS$FOCUSED_ION: PRECURSOR_M/Z 188.0697
MS$FOCUSED_ION: PRECURSOR_TYPE [M+H]+
MS$DATA_PROCESSING: RECALIBRATE identity on assigned fragments and MS1
MS$DATA_PROCESSING: WHOLE RMassBank 2.10.1
PK$SPLASH: splash10-000b-0900000000-59af3fd2af214965b0af
PK$ANNOTATION: m/z tentative_formula formula_count mass error(ppm)
  68.0238 C2H2N3+ 1 68.0243 -7.03
  79.0056 CH4ClN2+ 1 79.0058 -1.43
  81.0028 CH4[37]ClN2+ 1 81.0034 -6.27
  104.0019 C2H3ClN3+ 1 104.001 9.09
  105.999 C2H3[37]ClN3+ 1 105.9986 3.45
  110.047 C3H4N5+ 2 110.0461 7.91
  146.0229 C3H5ClN5+ 1 146.0228 0.91
  147.0244 C2[13]CH5ClN5+ 1 147.0267 -15.62
  148.0199 C3H5[37]ClN5+ 1 148.0204 -3.59
  188.07 C6H11ClN5+ 1 188.0697 1.29
  189.0721 C5[13]CH11ClN5+ 1 189.0737 -8.15
  190.0669 C6H11[37]ClN5+ 1 190.0673 -2.48
PK$NUM_PEAK: 12
PK$PEAK: m/z int. rel.int.
  68.0238 13080 66
  79.0056 16224 82
  81.0028 3436 17
  104.0019 7584 38
  105.999 1472 7
  110.047 4796 24
  146.0229 196700 999
  147.0244 7772 39
  148.0199 48296 245
  188.07 132728 674
  189.0721 6608 33
  190.0669 38720 196
//
