ACCESSION: MSBNK-Athens_Univ-AU236657
RECORD_TITLE: Chlorophene; LC-ESI-QTOF; MS2; CE: 10 eV; R=35000; [M-H]-
DATE: 2019.03.29
AUTHORS: Nikiforos Alygizakis, Katerina Galani, Nikolaos Thomaidis, University of Athens
LICENSE: CC BY
COPYRIGHT: Copyright (C) 2019 Department of Chemistry, University of Athens
COMMENT: CONFIDENCE standard compound
COMMENT: INTERNAL_ID 2366
CH$NAME: Chlorophene
CH$NAME: 2-benzyl-4-chlorophenol
CH$COMPOUND_CLASS: N/A; Environmental Standard
CH$FORMULA: C13H11ClO
CH$EXACT_MASS: 218.0498427
CH$SMILES: OC1=CC=C(Cl)C=C1CC1=CC=CC=C1
CH$IUPAC: InChI=1S/C13H11ClO/c14-12-6-7-13(15)11(9-12)8-10-4-2-1-3-5-10/h1-7,9,15H,8H2
CH$LINK: CAS 120-32-1
CH$LINK: KEGG D03564
CH$LINK: PUBCHEM CID:8425
CH$LINK: INCHIKEY NCKMMSIFQUPKCK-UHFFFAOYSA-N
CH$LINK: CHEMSPIDER 8118
CH$LINK: COMPTOX DTXSID5020154
AC$INSTRUMENT: Bruker maXis Impact
AC$INSTRUMENT_TYPE: LC-ESI-QTOF
AC$MASS_SPECTROMETRY: MS_TYPE MS2
AC$MASS_SPECTROMETRY: ION_MODE NEGATIVE
AC$MASS_SPECTROMETRY: IONIZATION ESI
AC$MASS_SPECTROMETRY: FRAGMENTATION_MODE CID
AC$MASS_SPECTROMETRY: COLLISION_ENERGY 10 eV
AC$MASS_SPECTROMETRY: RESOLUTION 35000
AC$CHROMATOGRAPHY: COLUMN_NAME Acclaim RSLC C18 2.2um, 2.1x100mm, Thermo
AC$CHROMATOGRAPHY: FLOW_GRADIENT 99/1 at 0-1 min, 61/39 at 3 min, 0.1/99.9 at 14-16 min, 99/1 at 16.1-20 min
AC$CHROMATOGRAPHY: FLOW_RATE 200 uL/min at 0-3 min, 400 uL/min at 14 min, 480 uL/min at 16-19 min, 200 uL/min at 19.1-20 min
AC$CHROMATOGRAPHY: RETENTION_TIME 10.911 min
AC$CHROMATOGRAPHY: SOLVENT A 90:10 water:methanol with 5mM ammonium acetate
AC$CHROMATOGRAPHY: SOLVENT B methanol with 5mM ammonium acetate
MS$FOCUSED_ION: BASE_PEAK 217.042
MS$FOCUSED_ION: PRECURSOR_M/Z 217.0426
MS$FOCUSED_ION: PRECURSOR_TYPE [M-H]-
MS$DATA_PROCESSING: RECALIBRATE identity on assigned fragments and MS1
MS$DATA_PROCESSING: WHOLE RMassBank 2.10.0
PK$SPLASH: splash10-014i-0090000000-9ac90bc056d2e34e0793
PK$ANNOTATION: m/z tentative_formula formula_count mass error(ppm)
  181.0654 C13H9O- 1 181.0659 -2.74
  217.0421 C13H10ClO- 1 217.0426 -2.28
  218.0452 C12[13]CH10ClO- 1 218.0454 -0.83
  219.039 C13H10[37]ClO- 1 219.0391 -0.18
PK$NUM_PEAK: 4
PK$PEAK: m/z int. rel.int.
  181.0654 476 5
  217.0421 86688 999
  218.0452 16612 191
  219.039 22892 263
//
