ACCESSION: MSBNK-Athens_Univ-AU504303
RECORD_TITLE: (+/-)-Camphor; GC-APCI-QTOF; MS2; CE: 30 eV; R=35000; [M+H]+
DATE: 2021.04.20
AUTHORS: Chrysoula Kanakaki, Nikiforos Alygizakis, Nikolaos Thomaidis, University of Athens
LICENSE: CC BY
COPYRIGHT: Copyright (C) 2021 Department of Chemistry, University of Athens
COMMENT: CONFIDENCE standard compound
COMMENT: INTERNAL_ID 5043
CH$NAME: (+/-)-Camphor
CH$COMPOUND_CLASS: N/A; Food Contact Material
CH$FORMULA: C10H16O
CH$EXACT_MASS: 152.1201
CH$SMILES: CC1(C2CCC1(C(=O)C2)C)C
CH$IUPAC: InChI=1S/C10H16O/c1-9(2)7-4-5-10(9,3)8(11)6-7/h7H,4-6H2,1-3H3
CH$LINK: CAS 76-22-2
CH$LINK: CHEBI CHEBI:36773
CH$LINK: KEGG D00098
CH$LINK: LIPIDMAPS LMPR0102120001
CH$LINK: PUBCHEM CID:2537
CH$LINK: INCHIKEY DSSYKIVIOFKYAU-UHFFFAOYSA-N
CH$LINK: CHEMSPIDER 2441
AC$INSTRUMENT: Bruker 450 GC coupled to maXis Impact
AC$INSTRUMENT_TYPE: GC-APCI-QTOF
AC$MASS_SPECTROMETRY: MS_TYPE MS2
AC$MASS_SPECTROMETRY: ION_MODE POSITIVE
AC$MASS_SPECTROMETRY: IONIZATION APCI
AC$MASS_SPECTROMETRY: FRAGMENTATION_MODE CID
AC$MASS_SPECTROMETRY: COLLISION_ENERGY 30 eV
AC$MASS_SPECTROMETRY: RESOLUTION 35000
AC$CHROMATOGRAPHY: COLUMN_NAME Rxi-5Sil MS column, 30m, 0.25mm i.d., 0.25µm film thickness, Restek
AC$CHROMATOGRAPHY: COLUMN_TEMPERATURE_GRADIENT 55oC at 0 min, 55oC at 3 min, 180oC at 11.33 min with 15oC/min, 280oC at 26.72 min with 6.5oC/min, 280oC at 31.72 min, 300oC at 33.72 min with 10oC/min, 300oC at 39 min
AC$CHROMATOGRAPHY: FLOW_RATE 1.5 mL/min
AC$CHROMATOGRAPHY: RETENTION_TIME 9.039 min
AC$CHROMATOGRAPHY: SOLVENT A Helium
MS$FOCUSED_ION: BASE_PEAK 153.1288
MS$FOCUSED_ION: PRECURSOR_M/Z 153.1274
MS$FOCUSED_ION: PRECURSOR_TYPE [M+H]+
MS$DATA_PROCESSING: RECALIBRATE identity on assigned fragments and MS1
MS$DATA_PROCESSING: WHOLE RMassBank 2.16.0
PK$SPLASH: splash10-014r-9700000000-eb33f25312c27c2434c4
PK$ANNOTATION: m/z tentative_formula formula_count mass error(ppm)
  57.0702 C4H9+ 1 57.0699 5.86
  69.0697 C5H9+ 1 69.0699 -2.14
  97.0636 C6H9O+ 1 97.0648 -12.51
  119.0839 C9H11+ 1 119.0855 -13.73
  135.1177 C10H15+ 1 135.1168 6.1
  137.0956 C9H13O+ 1 137.0961 -3.8
PK$NUM_PEAK: 6
PK$PEAK: m/z int. rel.int.
  57.0702 112 482
  69.0697 232 999
  97.0636 124 533
  119.0839 144 620
  135.1177 124 533
  137.0956 136 585
//
