ACCESSION: MSBNK-Athens_Univ-AU108202
RECORD_TITLE: Arprinocid; LC-ESI-QTOF; MS2; CE: 20 eV; R=35000; [M+H]+
DATE: 2015.09.22
AUTHORS: Nikiforos Alygizakis, Anna Bletsou, Nikolaos Thomaidis, University of Athens
LICENSE: CC BY-SA
COPYRIGHT: Copyright (C) 2015 Department of Chemistry, University of Athens
COMMENT: CONFIDENCE standard compound
COMMENT: INTERNAL_ID 1082
CH$NAME: Arprinocid
CH$NAME: 9-[(2-chloro-6-fluorophenyl)methyl]purin-6-amine
CH$COMPOUND_CLASS: N/A; Environmental Standard
CH$FORMULA: C12H9ClFN5
CH$EXACT_MASS: 277.0530512
CH$SMILES: c1cc(c(c(c1)Cl)Cn2cnc3c2ncnc3N)F
CH$IUPAC: InChI=1S/C12H9ClFN5/c13-8-2-1-3-9(14)7(8)4-19-6-18-10-11(15)16-5-17-12(10)19/h1-3,5-6H,4H2,(H2,15,16,17)
CH$LINK: CAS 55779-18-5
CH$LINK: KEGG D02987
CH$LINK: PUBCHEM CID:41574
CH$LINK: INCHIKEY NAPNOSFRRMHNBJ-UHFFFAOYSA-N
CH$LINK: CHEMSPIDER 37936
CH$LINK: COMPTOX DTXSID3057773
AC$INSTRUMENT: Bruker maXis Impact
AC$INSTRUMENT_TYPE: LC-ESI-QTOF
AC$MASS_SPECTROMETRY: MS_TYPE MS2
AC$MASS_SPECTROMETRY: ION_MODE POSITIVE
AC$MASS_SPECTROMETRY: IONIZATION ESI
AC$MASS_SPECTROMETRY: FRAGMENTATION_MODE CID
AC$MASS_SPECTROMETRY: COLLISION_ENERGY 20 eV
AC$MASS_SPECTROMETRY: RESOLUTION 35000
AC$CHROMATOGRAPHY: COLUMN_NAME Acclaim RSLC C18 2.2um, 2.1x100mm, Thermo
AC$CHROMATOGRAPHY: FLOW_GRADIENT 99/1 at 0-1 min, 61/39 at 3 min, 0.1/99.9 at 14-16 min, 99/1 at 16.1-20 min
AC$CHROMATOGRAPHY: FLOW_RATE 200 uL/min at 0-3 min, 400 uL/min at 14 min, 480 uL/min at 16-19 min, 200 uL/min at 19.1-20 min
AC$CHROMATOGRAPHY: RETENTION_TIME 6.6 min
AC$CHROMATOGRAPHY: SOLVENT A water with 0.01% formic acid and 5mM ammonium formate
AC$CHROMATOGRAPHY: SOLVENT B 90:10 water:methanol with 0.01% formic acid and 5mM ammonium formate
MS$FOCUSED_ION: BASE_PEAK 278.0602
MS$FOCUSED_ION: PRECURSOR_M/Z 278.0603
MS$FOCUSED_ION: PRECURSOR_TYPE [M+H]+
MS$DATA_PROCESSING: RECALIBRATE identity on assigned fragments and MS1
MS$DATA_PROCESSING: REANALYZE Peaks with additional N2/O included
MS$DATA_PROCESSING: WHOLE RMassBank 2.0.2
PK$SPLASH: splash10-004i-0390000000-79904d99480fff5fc896
PK$ANNOTATION: m/z tentative_formula formula_count mass error(ppm)
  143.0053 C7H5ClF+ 2 143.0058 -3.8
  144.0085 C7[13]CFN2+ 1 144.0079 3.97
  145.0022 C7H5[37]ClF+ 1 145.0034 -8.78
  278.0609 C12H10ClFN5+ 1 278.0603 2.15
  279.0633 C11[13]CH10ClFN5+ 1 279.0642 -3.46
  280.0579 C12H10[37]ClFN5+ 1 280.0579 -0.19
  281.0602 C10H9ClFN7+ 1 281.0587 5.4
PK$NUM_PEAK: 7
PK$PEAK: m/z int. rel.int.
  143.0053 36116 362
  144.0085 2308 23
  145.0022 9472 95
  278.0609 99592 999
  279.0633 9904 99
  280.0579 21548 216
  281.0602 1192 11
//
