ACCESSION: MSBNK-Athens_Univ-AU505308
RECORD_TITLE: Dioctyl Adipate; GC-APCI-QTOF; MS2; CE: 30 eV; R=35000; [M]+
DATE: 2021.04.20
AUTHORS: Chrysoula Kanakaki, Nikiforos Alygizakis, Nikolaos Thomaidis, University of Athens
LICENSE: CC BY
COPYRIGHT: Copyright (C) 2021 Department of Chemistry, University of Athens
COMMENT: CONFIDENCE standard compound
COMMENT: INTERNAL_ID 5053
CH$NAME: Dioctyl Adipate
CH$COMPOUND_CLASS: N/A; Food Contact Material
CH$FORMULA: C22H42O4
CH$EXACT_MASS: 370.3083
CH$SMILES: CCCCC(CC)COC(=O)CCCCC(=O)OCC(CC)CCCC
CH$IUPAC: InChI=1S/C22H42O4/c1-5-9-13-19(7-3)17-25-21(23)15-11-12-16-22(24)26-18-20(8-4)14-10-6-2/h19-20H,5-18H2,1-4H3
CH$LINK: CAS 103-23-1
CH$LINK: CHEBI CHEBI:34675
CH$LINK: KEGG C14240
CH$LINK: PUBCHEM CID:7641
CH$LINK: INCHIKEY SAOKZLXYCUGLFA-UHFFFAOYSA-N
CH$LINK: CHEMSPIDER 7358
AC$INSTRUMENT: Bruker 450 GC coupled to maXis Impact
AC$INSTRUMENT_TYPE: GC-APCI-QTOF
AC$MASS_SPECTROMETRY: MS_TYPE MS2
AC$MASS_SPECTROMETRY: ION_MODE POSITIVE
AC$MASS_SPECTROMETRY: IONIZATION APCI
AC$MASS_SPECTROMETRY: FRAGMENTATION_MODE CID
AC$MASS_SPECTROMETRY: COLLISION_ENERGY 30 eV
AC$MASS_SPECTROMETRY: RESOLUTION 35000
AC$CHROMATOGRAPHY: COLUMN_NAME Rxi-5Sil MS column, 30m, 0.25mm i.d., 0.25µm film thickness, Restek
AC$CHROMATOGRAPHY: COLUMN_TEMPERATURE_GRADIENT 55oC at 0 min, 55oC at 3 min, 180oC at 11.33 min with 15oC/min, 280oC at 26.72 min with 6.5oC/min, 280oC at 31.72 min, 300oC at 33.72 min with 10oC/min, 300oC at 39 min
AC$CHROMATOGRAPHY: FLOW_RATE 1.5 mL/min
AC$CHROMATOGRAPHY: RETENTION_TIME 22.578 min
AC$CHROMATOGRAPHY: SOLVENT A Helium
MS$FOCUSED_ION: BASE_PEAK 283.263
MS$FOCUSED_ION: PRECURSOR_M/Z 370.3078
MS$FOCUSED_ION: PRECURSOR_TYPE [M]+
MS$DATA_PROCESSING: RECALIBRATE identity on assigned fragments and MS1
MS$DATA_PROCESSING: WHOLE RMassBank 2.16.0
PK$SPLASH: splash10-000j-0900000000-b76ba36150f53c64818a
PK$ANNOTATION: m/z tentative_formula formula_count mass error(ppm)
  123.116 C9H15+ 1 123.1168 -6.97
  129.054 C6H9O3+ 1 129.0546 -4.61
  133.1021 C10H13+ 1 133.1012 7.21
  135.118 C10H15+ 1 135.1168 8.43
  137.1312 C10H17+ 1 137.1325 -9.2
  147.1187 C11H15+ 1 147.1168 13
  149.1351 C11H17+ 1 149.1325 17.92
  159.1203 C12H15+ 1 159.1168 22.05
  161.136 C12H17+ 1 161.1325 22.12
  185.1153 C10H17O3+ 1 185.1172 -10.25
PK$NUM_PEAK: 10
PK$PEAK: m/z int. rel.int.
  123.116 104 447
  129.054 232 999
  133.1021 132 568
  135.118 192 826
  137.1312 188 809
  147.1187 232 999
  149.1351 164 706
  159.1203 112 482
  161.136 156 671
  185.1153 132 568
//
