ACCESSION: MSBNK-Athens_Univ-AU160230
RECORD_TITLE: Oxycodone; LC-ESI-QTOF; MS2; CE: 10 eV; R=35000; [M+Na]+
DATE: 2016.02.28
AUTHORS: Nikiforos Alygizakis, Nikolaos Thomaidis, University of Athens
LICENSE: CC BY
COPYRIGHT: Copyright (C) 2016 Department of Chemistry, University of Athens
COMMENT: CONFIDENCE standard compound
COMMENT: INTERNAL_ID 1602
CH$NAME: Oxycodone
CH$NAME: (4R,4aS,7aR,12bS)-4a-hydroxy-9-methoxy-3-methyl-2,4,5,6,7a,13-hexahydro-1H-4,12-methanobenzofuro[3,2-e]isoquinoline-7-one
CH$COMPOUND_CLASS: N/A; Environmental Standard
CH$FORMULA: C18H21NO4
CH$EXACT_MASS: 315.1470582
CH$SMILES: CN1CC[C@]23c4c5ccc(c4O[C@H]2C(=O)CC[C@]3([C@H]1C5)O)OC
CH$IUPAC: InChI=1S/C18H21NO4/c1-19-8-7-17-14-10-3-4-12(22-2)15(14)23-16(17)11(20)5-6-18(17,21)13(19)9-10/h3-4,13,16,21H,5-9H2,1-2H3/t13-,16+,17+,18-/m1/s1
CH$LINK: CAS 76-42-6
CH$LINK: CHEBI CHEBI:7852
CH$LINK: KEGG D05312
CH$LINK: PUBCHEM CID:5284603
CH$LINK: INCHIKEY BRUQQQPBMZOVGD-XFKAJCMBSA-N
CH$LINK: CHEMSPIDER 4447649
CH$LINK: COMPTOX DTXSID5023407
AC$INSTRUMENT: Bruker maXis Impact
AC$INSTRUMENT_TYPE: LC-ESI-QTOF
AC$MASS_SPECTROMETRY: MS_TYPE MS2
AC$MASS_SPECTROMETRY: ION_MODE POSITIVE
AC$MASS_SPECTROMETRY: IONIZATION ESI
AC$MASS_SPECTROMETRY: FRAGMENTATION_MODE CID
AC$MASS_SPECTROMETRY: COLLISION_ENERGY 10 eV
AC$MASS_SPECTROMETRY: RESOLUTION 35000
AC$CHROMATOGRAPHY: COLUMN_NAME Acclaim RSLC C18 2.2um, 2.1x100mm, Thermo
AC$CHROMATOGRAPHY: FLOW_GRADIENT 99/1 at 0-1 min, 61/39 at 3 min, 0.1/99.9 at 14-16 min, 99/1 at 16.1-20 min
AC$CHROMATOGRAPHY: FLOW_RATE 200 uL/min at 0-3 min, 400 uL/min at 14 min, 480 uL/min at 16-19 min, 200 uL/min at 19.1-20 min
AC$CHROMATOGRAPHY: RETENTION_TIME 3.740 min
AC$CHROMATOGRAPHY: SOLVENT A 90:10 water:methanol with 0.01% formic acid and 5mM ammonium formate
AC$CHROMATOGRAPHY: SOLVENT B methanol with 0.01% formic acid and 5mM ammonium formate
MS$FOCUSED_ION: BASE_PEAK 316.1562
MS$FOCUSED_ION: PRECURSOR_M/Z 338.1363
MS$FOCUSED_ION: PRECURSOR_TYPE [M+Na]+
MS$DATA_PROCESSING: RECALIBRATE identity on assigned fragments and MS1
MS$DATA_PROCESSING: WHOLE RMassBank 1.99.10
PK$SPLASH: splash10-000i-0009000000-ad988be4a02e7fd4bf25
PK$ANNOTATION: m/z tentative_formula formula_count mass error(ppm)
  338.1385 C18H21NNaO4+ 1 338.1363 6.66
  339.1418 C17[13]CH21NNaO4+ 1 339.1402 4.63
  340.1452 C16[13]C2H21NNaO4+ 1 340.1435 5.02
PK$NUM_PEAK: 3
PK$PEAK: m/z int. rel.int.
  338.1385 49512 999
  339.1418 8804 177
  340.1452 1260 25
//
