ACCESSION: MSBNK-Athens_Univ-AU236758
RECORD_TITLE: Ethylparaben; LC-ESI-QTOF; MS2; CE: 20 eV; R=35000; [M-H]-
DATE: 2019.03.29
AUTHORS: Nikiforos Alygizakis, Katerina Galani, Nikolaos Thomaidis, University of Athens
LICENSE: CC BY
COPYRIGHT: Copyright (C) 2019 Department of Chemistry, University of Athens
COMMENT: CONFIDENCE standard compound
COMMENT: INTERNAL_ID 2367
CH$NAME: Ethylparaben
CH$NAME: ethyl 4-hydroxybenzoate
CH$COMPOUND_CLASS: N/A; Environmental Standard
CH$FORMULA: C9H10O3
CH$EXACT_MASS: 166.0629942
CH$SMILES: CCOC(=O)C1=CC=C(O)C=C1
CH$IUPAC: InChI=1S/C9H10O3/c1-2-12-9(11)7-3-5-8(10)6-4-7/h3-6,10H,2H2,1H3
CH$LINK: CAS 121-58-4
CH$LINK: CHEBI CHEBI:31575
CH$LINK: KEGG D01647
CH$LINK: PUBCHEM CID:8434
CH$LINK: INCHIKEY NUVBSKCKDOMJSU-UHFFFAOYSA-N
CH$LINK: CHEMSPIDER 13846749
CH$LINK: COMPTOX DTXSID9022528
AC$INSTRUMENT: Bruker maXis Impact
AC$INSTRUMENT_TYPE: LC-ESI-QTOF
AC$MASS_SPECTROMETRY: MS_TYPE MS2
AC$MASS_SPECTROMETRY: ION_MODE NEGATIVE
AC$MASS_SPECTROMETRY: IONIZATION ESI
AC$MASS_SPECTROMETRY: FRAGMENTATION_MODE CID
AC$MASS_SPECTROMETRY: COLLISION_ENERGY 20 eV
AC$MASS_SPECTROMETRY: RESOLUTION 35000
AC$CHROMATOGRAPHY: COLUMN_NAME Acclaim RSLC C18 2.2um, 2.1x100mm, Thermo
AC$CHROMATOGRAPHY: FLOW_GRADIENT 99/1 at 0-1 min, 61/39 at 3 min, 0.1/99.9 at 14-16 min, 99/1 at 16.1-20 min
AC$CHROMATOGRAPHY: FLOW_RATE 200 uL/min at 0-3 min, 400 uL/min at 14 min, 480 uL/min at 16-19 min, 200 uL/min at 19.1-20 min
AC$CHROMATOGRAPHY: RETENTION_TIME 7.102 min
AC$CHROMATOGRAPHY: SOLVENT A 90:10 water:methanol with 5mM ammonium acetate
AC$CHROMATOGRAPHY: SOLVENT B methanol with 5mM ammonium acetate
MS$FOCUSED_ION: BASE_PEAK 165.0552
MS$FOCUSED_ION: PRECURSOR_M/Z 165.0557
MS$FOCUSED_ION: PRECURSOR_TYPE [M-H]-
MS$DATA_PROCESSING: RECALIBRATE identity on assigned fragments and MS1
MS$DATA_PROCESSING: WHOLE RMassBank 2.10.0
PK$SPLASH: splash10-000i-0900000000-5489673e4259d112def7
PK$ANNOTATION: m/z tentative_formula formula_count mass error(ppm)
  136.0158 C7H4O3- 1 136.0166 -6.1
  137.0235 C7H5O3- 1 137.0244 -7
  138.0291 C6[13]CH5O3- 1 138.0272 13.52
  165.0545 C9H9O3- 1 165.0557 -7.45
PK$NUM_PEAK: 4
PK$PEAK: m/z int. rel.int.
  136.0158 2580 596
  137.0235 4324 999
  138.0291 472 109
  165.0545 1840 425
//
