ACCESSION: MSBNK-Athens_Univ-AU213752
RECORD_TITLE: Candesartan; LC-ESI-QTOF; MS2; CE: 20 eV; R=35000; [M-H]-
DATE: 2016.02.27
AUTHORS: Nikiforos Alygizakis, Nikolaos Thomaidis, University of Athens
LICENSE: CC BY
COPYRIGHT: Copyright (C) 2016 Department of Chemistry, University of Athens
COMMENT: CONFIDENCE standard compound
COMMENT: INTERNAL_ID 2137
CH$NAME: Candesartan
CH$NAME: 2-ethoxy-3-[[4-[2-(2H-tetrazol-5-yl)phenyl]phenyl]methyl]benzimidazole-4-carboxylic acid
CH$COMPOUND_CLASS: N/A; Environmental Standard
CH$FORMULA: C24H20N6O3
CH$EXACT_MASS: 440.1596885
CH$SMILES: CCOC1=NC2=CC=CC(C(O)=O)=C2N1CC1=CC=C(C=C1)C1=CC=CC=C1C1=NNN=N1
CH$IUPAC: InChI=1S/C24H20N6O3/c1-2-33-24-25-20-9-5-8-19(23(31)32)21(20)30(24)14-15-10-12-16(13-11-15)17-6-3-4-7-18(17)22-26-28-29-27-22/h3-13H,2,14H2,1H3,(H,31,32)(H,26,27,28,29)
CH$LINK: CAS 139481-59-7
CH$LINK: CHEBI CHEBI:3347
CH$LINK: PUBCHEM CID:2541
CH$LINK: INCHIKEY HTQMVQVXFRQIKW-UHFFFAOYSA-N
CH$LINK: CHEMSPIDER 2445
CH$LINK: COMPTOX DTXSID0022725
AC$INSTRUMENT: Bruker maXis Impact
AC$INSTRUMENT_TYPE: LC-ESI-QTOF
AC$MASS_SPECTROMETRY: MS_TYPE MS2
AC$MASS_SPECTROMETRY: ION_MODE NEGATIVE
AC$MASS_SPECTROMETRY: IONIZATION ESI
AC$MASS_SPECTROMETRY: FRAGMENTATION_MODE CID
AC$MASS_SPECTROMETRY: COLLISION_ENERGY 20 eV
AC$MASS_SPECTROMETRY: RESOLUTION 35000
AC$CHROMATOGRAPHY: COLUMN_NAME Acclaim RSLC C18 2.2um, 2.1x100mm, Thermo
AC$CHROMATOGRAPHY: FLOW_GRADIENT 99/1 at 0-1 min, 61/39 at 3 min, 0.1/99.9 at 14-16 min, 99/1 at 16.1-20 min
AC$CHROMATOGRAPHY: FLOW_RATE 200 uL/min at 0-3 min, 400 uL/min at 14 min, 480 uL/min at 16-19 min, 200 uL/min at 19.1-20 min
AC$CHROMATOGRAPHY: RETENTION_TIME 4.684 min
AC$CHROMATOGRAPHY: SOLVENT A 90:10 water:methanol with 5mM ammonium acetate
AC$CHROMATOGRAPHY: SOLVENT B methanol with 5mM ammonium acetate
MS$FOCUSED_ION: BASE_PEAK 439.1501
MS$FOCUSED_ION: PRECURSOR_M/Z 439.1524
MS$FOCUSED_ION: PRECURSOR_TYPE [M-H]-
MS$DATA_PROCESSING: RECALIBRATE identity on assigned fragments and MS1
MS$DATA_PROCESSING: WHOLE RMassBank 1.99.10
PK$SPLASH: splash10-0a4r-0319500000-3993447974e9c0f96e19
PK$ANNOTATION: m/z tentative_formula formula_count mass error(ppm)
  132.0315 C5H2N5- 3 132.0316 -0.86
  133.0394 C5H3N5- 3 133.0394 0.28
  205.0617 C10H9N2O3- 4 205.0619 -1.04
  309.1011 C19H11N5- 3 309.102 -2.78
  310.1079 C18[13]CH11N5- 1 310.1048 9.93
  354.1044 C22H14N2O3- 3 354.101 9.51
  439.149 C24H19N6O3- 1 439.1524 -7.71
PK$NUM_PEAK: 7
PK$PEAK: m/z int. rel.int.
  132.0315 328 267
  133.0394 432 352
  205.0617 304 248
  309.1011 1224 999
  310.1079 420 342
  354.1044 364 297
  439.149 1188 969
//
