ACCESSION: MSBNK-Athens_Univ-AU271101
RECORD_TITLE: Ropinirole; LC-ESI-QTOF; MS2; CE: 10 eV; R=35000; [M+H]+
DATE: 2019.05.30
AUTHORS: Nikiforos Alygizakis, Katerina Galani, Nikolaos Thomaidis, University of Athens
LICENSE: CC BY
COPYRIGHT: Copyright (C) 2019 Department of Chemistry, University of Athens
COMMENT: CONFIDENCE standard compound
COMMENT: INTERNAL_ID 2711
CH$NAME: Ropinirole
CH$NAME: 4-[2-(dipropylamino)ethyl]-1,3-dihydroindol-2-one
CH$COMPOUND_CLASS: N/A; Environmental Standard
CH$FORMULA: C16H24N2O
CH$EXACT_MASS: 260.1888634
CH$SMILES: CCCN(CCC)CCC1=C2CC(=O)NC2=CC=C1
CH$IUPAC: InChI=1S/C16H24N2O/c1-3-9-18(10-4-2)11-8-13-6-5-7-15-14(13)12-16(19)17-15/h5-7H,3-4,8-12H2,1-2H3,(H,17,19)
CH$LINK: CAS 91374-21-9
CH$LINK: CHEBI CHEBI:8888
CH$LINK: KEGG D08489
CH$LINK: PUBCHEM CID:5095
CH$LINK: INCHIKEY UHSKFQJFRQCDBE-UHFFFAOYSA-N
CH$LINK: CHEMSPIDER 4916
CH$LINK: COMPTOX DTXSID8045195
AC$INSTRUMENT: Bruker maXis Impact
AC$INSTRUMENT_TYPE: LC-ESI-QTOF
AC$MASS_SPECTROMETRY: MS_TYPE MS2
AC$MASS_SPECTROMETRY: ION_MODE POSITIVE
AC$MASS_SPECTROMETRY: IONIZATION ESI
AC$MASS_SPECTROMETRY: FRAGMENTATION_MODE CID
AC$MASS_SPECTROMETRY: COLLISION_ENERGY 10 eV
AC$MASS_SPECTROMETRY: RESOLUTION 35000
AC$CHROMATOGRAPHY: COLUMN_NAME Acclaim RSLC C18 2.2um, 2.1x100mm, Thermo
AC$CHROMATOGRAPHY: FLOW_GRADIENT 99/1 at 0-1 min, 61/39 at 3 min, 0.1/99.9 at 14-16 min, 99/1 at 16.1-20 min
AC$CHROMATOGRAPHY: FLOW_RATE 200 uL/min at 0-3 min, 400 uL/min at 14 min, 480 uL/min at 16-19 min, 200 uL/min at 19.1-20 min
AC$CHROMATOGRAPHY: RETENTION_TIME 3.928 min
AC$CHROMATOGRAPHY: SOLVENT A 90:10 water:methanol with 0.01% formic acid and 5mM ammonium formate
AC$CHROMATOGRAPHY: SOLVENT B methanol with 0.01% formic acid and 5mM ammonium formate
MS$FOCUSED_ION: BASE_PEAK 261.1968
MS$FOCUSED_ION: PRECURSOR_M/Z 261.1961
MS$FOCUSED_ION: PRECURSOR_TYPE [M+H]+
MS$DATA_PROCESSING: RECALIBRATE identity on assigned fragments and MS1
MS$DATA_PROCESSING: WHOLE RMassBank 2.10.1
PK$SPLASH: splash10-03di-0090000000-9c6347d67d8668b766ba
PK$ANNOTATION: m/z tentative_formula formula_count mass error(ppm)
  114.1276 C7H16N+ 1 114.1277 -1.13
  160.0744 C10H10NO+ 1 160.0757 -8.08
  261.1972 C16H25N2O+ 1 261.1961 4.25
PK$NUM_PEAK: 3
PK$PEAK: m/z int. rel.int.
  114.1276 22012 8
  160.0744 13544 5
  261.1972 2516988 999
//
