ACCESSION: MSBNK-Athens_Univ-AU302709
RECORD_TITLE: Omethoate; LC-ESI-QTOF; MS2; HILIC; CE: 30 eV; R=35000; [M+H]+
DATE: 2016.02.26
AUTHORS: Nikiforos Alygizakis, Nikolaos Thomaidis, University of Athens
LICENSE: CC BY
COPYRIGHT: Copyright (C) 2016 Department of Chemistry, University of Athens
COMMENT: CONFIDENCE standard compound
COMMENT: INTERNAL_ID 3027
CH$NAME: Omethoate
CH$NAME: 2-dimethoxyphosphorylsulfanyl-N-methylacetamide
CH$COMPOUND_CLASS: N/A; Environmental Standard
CH$FORMULA: C5H12NO4PS
CH$EXACT_MASS: 213.0224655
CH$SMILES: CNC(=O)CSP(=O)(OC)OC
CH$IUPAC: InChI=1S/C5H12NO4PS/c1-6-5(7)4-12-11(8,9-2)10-3/h4H2,1-3H3,(H,6,7)
CH$LINK: CAS 1113-02-6
CH$LINK: CHEBI CHEBI:38730
CH$LINK: PUBCHEM CID:14210
CH$LINK: INCHIKEY PZXOQEXFMJCDPG-UHFFFAOYSA-N
CH$LINK: CHEMSPIDER 13574
CH$LINK: COMPTOX DTXSID4037580
AC$INSTRUMENT: Bruker maXis Impact
AC$INSTRUMENT_TYPE: LC-ESI-QTOF
AC$MASS_SPECTROMETRY: MS_TYPE MS2
AC$MASS_SPECTROMETRY: ION_MODE POSITIVE
AC$MASS_SPECTROMETRY: IONIZATION ESI
AC$MASS_SPECTROMETRY: FRAGMENTATION_MODE CID
AC$MASS_SPECTROMETRY: COLLISION_ENERGY 30 eV
AC$MASS_SPECTROMETRY: RESOLUTION 35000
AC$CHROMATOGRAPHY: COLUMN_NAME ACQUITY UPLC BEH Amide 1.7 um 2.1x100mm, Waters
AC$CHROMATOGRAPHY: FLOW_GRADIENT 0/100 at 0-2 min, 95/5 at 12 min, 95/5 at 17 min, 0/100 at 17.1, 0/100 at 25 min
AC$CHROMATOGRAPHY: FLOW_RATE 200 uL/min
AC$CHROMATOGRAPHY: RETENTION_TIME 2.117 min
AC$CHROMATOGRAPHY: SOLVENT A Water with 0.01% formic acid and 1mM ammonium formate
AC$CHROMATOGRAPHY: SOLVENT B Acetonitrile:Water 95:5 with 0.01% formic acid and 1mM ammonium formate
MS$FOCUSED_ION: BASE_PEAK 195.1216
MS$FOCUSED_ION: PRECURSOR_M/Z 214.0297
MS$FOCUSED_ION: PRECURSOR_TYPE [M+H]+
MS$DATA_PROCESSING: RECALIBRATE identity on assigned fragments and MS1
MS$DATA_PROCESSING: WHOLE RMassBank 1.99.10
PK$SPLASH: splash10-00dl-0900000000-15b9f689c7b7e7128b89
PK$ANNOTATION: m/z tentative_formula formula_count mass error(ppm)
  124.981 C2H6O2PS+ 2 124.9821 -8.74
  126.9773 C5H4PS+ 1 126.9766 5.38
  142.991 C2H8O3PS+ 2 142.9926 -11.52
  154.9906 C3H8O3PS+ 1 154.9926 -13.31
PK$NUM_PEAK: 4
PK$PEAK: m/z int. rel.int.
  124.981 4188 999
  126.9773 320 76
  142.991 2428 579
  154.9906 960 228
//
