ACCESSION: MSBNK-Athens_Univ-AU508856
RECORD_TITLE: Bis(perfluorooctyl)phosphinate (8:8PFPi); LC-ESI-QTOF; MS2; CE: 33.9-50.9 eV; R=35000; [M-H]-
DATE: 2023.04.25
AUTHORS: Konstantina Diamanti, Georgios Gkotsis, Nikiforos Alygizakis, Nikolaos Thomaidis
LICENSE: CC BY
COPYRIGHT: Copyright (C) 2023 Department of Chemistry, University of Athens
COMMENT: CONFIDENCE standard compound
COMMENT: INTERNAL_ID 5088
CH$NAME: Bis(perfluorooctyl)phosphinate (8:8PFPi)
CH$COMPOUND_CLASS: N/A; Environmental Standard
CH$FORMULA: C16HF34O2P
CH$EXACT_MASS: 901.9171
CH$SMILES: C(C(C(C(C(F)(F)P(=O)(C(C(C(C(C(C(C(C(F)(F)F)(F)F)(F)F)(F)F)(F)F)(F)F)(F)F)(F)F)O)(F)F)(F)F)(F)F)(C(C(C(F)(F)F)(F)F)(F)F)(F)F
CH$IUPAC: InChI=1S/C16HF34O2P/c17-1(18,5(25,26)9(33,34)13(41,42)43)3(21,22)7(29,30)11(37,38)15(47,48)53(51,52)16(49,50)12(39,40)8(31,32)4(23,24)2(19,20)6(27,28)10(35,36)14(44,45)46/h(H,51,52)
CH$LINK: CAS 40143-79-1
CH$LINK: PUBCHEM CID:13528039
CH$LINK: INCHIKEY BELPOXSOCHBAEX-UHFFFAOYSA-N
CH$LINK: CHEMSPIDER 57425008
AC$INSTRUMENT: Bruker maXis Impact
AC$INSTRUMENT_TYPE: LC-ESI-QTOF
AC$MASS_SPECTROMETRY: MS_TYPE MS2
AC$MASS_SPECTROMETRY: MODE NEGATIVE
AC$MASS_SPECTROMETRY: IONIZATION ESI
AC$MASS_SPECTROMETRY: FRAGMENTATION_MODE CID
AC$MASS_SPECTROMETRY: COLLISION_ENERGY 33.9-50.9 eV
AC$MASS_SPECTROMETRY: RESOLUTION 35000
AC$MASS_SPECTROMETRY: MASS_RANGE_M/Z 50-1000
AC$CHROMATOGRAPHY: COLUMN_NAME Acclaim RSLC C18 2.2um, 2.1x100mm, Thermo
AC$CHROMATOGRAPHY: FLOW_GRADIENT 99/1 at 0-1 min, 61/39 at 3 min, 0.1/99.9 at 14-16 min, 99/1 at 16.1-20 min
AC$CHROMATOGRAPHY: FLOW_RATE 200 uL/min at 0-3 min, 400 uL/min at 14 min, 480 uL/min at 16-19 min, 200 uL/min at 19.1-20 min
AC$CHROMATOGRAPHY: RETENTION_TIME 13.319 min
MS$FOCUSED_ION: BASE_PEAK 900.8966
MS$FOCUSED_ION: PRECURSOR_M/Z 900.9098
MS$FOCUSED_ION: PRECURSOR_TYPE [M-H]-
MS$DATA_PROCESSING: RECALIBRATE identity on assigned fragments and MS1
MS$DATA_PROCESSING: WHOLE RMassBank 3.9.0
PK$SPLASH: splash10-0udi-0000000009-e12b0ce0b5ddec48d5f9
PK$ANNOTATION: m/z tentative_formula formula_count mass error(ppm)
  62.9627 O2P- 1 62.9641 -22.85
  500.9337 C3F22OP- 2 500.9341 -0.86
  900.8956 C16F34O2P- 1 900.9098 -15.78
PK$NUM_PEAK: 3
PK$PEAK: m/z int. rel.int.
  62.9627 824 11
  500.9337 2260 30
  900.8956 73008 999
//
