ACCESSION: MSBNK-Athens_Univ-AU227806
RECORD_TITLE: Tiapride; LC-ESI-QTOF; MS2; CE: Ramp 22.2-33.3 eV; R=35000; [M+H]+
DATE: 2018.12.19
AUTHORS: Nikiforos Alygizakis, Katerina Galani, Nikolaos Thomaidis, University of Athens
LICENSE: CC BY
COPYRIGHT: Copyright (C) 2018 Department of Chemistry, University of Athens
COMMENT: CONFIDENCE standard compound
COMMENT: INTERNAL_ID 2278
CH$NAME: Tiapride
CH$NAME: N-[2-(diethylamino)ethyl]-2-methoxy-5-methylsulfonylbenzamide
CH$COMPOUND_CLASS: N/A; Environmental Standard
CH$FORMULA: C15H24N2O4S
CH$EXACT_MASS: 328.1456782
CH$SMILES: CCN(CC)CCNC(=O)c1cc(ccc1OC)S(=O)(=O)C
CH$IUPAC: InChI=1S/C15H24N2O4S/c1-5-17(6-2)10-9-16-15(18)13-11-12(22(4,19)20)7-8-14(13)21-3/h7-8,11H,5-6,9-10H2,1-4H3,(H,16,18)
CH$LINK: CAS 51012-32-9
CH$LINK: CHEBI CHEBI:94666
CH$LINK: KEGG D08590
CH$LINK: PUBCHEM CID:5467
CH$LINK: INCHIKEY JTVPZMFULRWINT-UHFFFAOYSA-N
CH$LINK: CHEMSPIDER 5268
CH$LINK: COMPTOX DTXSID0023664
AC$INSTRUMENT: Bruker maXis Impact
AC$INSTRUMENT_TYPE: LC-ESI-QTOF
AC$MASS_SPECTROMETRY: MS_TYPE MS2
AC$MASS_SPECTROMETRY: ION_MODE POSITIVE
AC$MASS_SPECTROMETRY: IONIZATION ESI
AC$MASS_SPECTROMETRY: FRAGMENTATION_MODE CID
AC$MASS_SPECTROMETRY: COLLISION_ENERGY Ramp 20-30 eV
AC$MASS_SPECTROMETRY: RESOLUTION 35000
AC$CHROMATOGRAPHY: COLUMN_NAME Acclaim RSLC C18 2.2um, 2.1x100mm, Thermo
AC$CHROMATOGRAPHY: FLOW_GRADIENT 99/1 at 0-1 min, 61/39 at 3 min, 0.1/99.9 at 14-16 min, 99/1 at 16.1-20 min
AC$CHROMATOGRAPHY: FLOW_RATE 200 uL/min at 0-3 min, 400 uL/min at 14 min, 480 uL/min at 16-19 min, 200 uL/min at 19.1-20 min
AC$CHROMATOGRAPHY: RETENTION_TIME 3.188 min
AC$CHROMATOGRAPHY: SOLVENT A 90:10 water:methanol with 0.01% formic acid and 5mM ammonium formate
AC$CHROMATOGRAPHY: SOLVENT B methanol with 0.01% formic acid and 5mM ammonium formate
MS$FOCUSED_ION: BASE_PEAK 329.1527
MS$FOCUSED_ION: PRECURSOR_M/Z 329.153
MS$FOCUSED_ION: PRECURSOR_TYPE [M+H]+
MS$DATA_PROCESSING: RECALIBRATE identity on assigned fragments and MS1
MS$DATA_PROCESSING: WHOLE RMassBank 2.10.0
PK$SPLASH: splash10-0a4i-0090000000-ffe8b18f686db8c1c9f0
PK$ANNOTATION: m/z tentative_formula formula_count mass error(ppm)
  133.0511 C8H7NO+ 3 133.0522 -8.66
  177.077 C10H11NO2+ 2 177.0784 -8.04
  212.0369 C15H4N2+ 4 212.0369 -0.2
  213.021 C9H9O4S+ 4 213.0216 -2.81
  214.0244 C8[13]CH9O4S+ 1 214.0255 -5.04
  215.0173 C9H9O4[34]S+ 1 215.018 -3.21
  230.0472 C15H6N2O+ 4 230.0475 -1.04
  241.0393 C10H11NO4S+ 3 241.0403 -4.44
  256.0641 C11H14NO4S+ 3 256.0638 1.01
  257.0665 C10[13]CH14NO4S+ 1 257.0677 -4.72
  258.0607 C11H14NO4[34]S+ 1 258.0601 2.28
  329.1529 C15H25N2O4S+ 1 329.153 -0.26
PK$NUM_PEAK: 12
PK$PEAK: m/z int. rel.int.
  133.0511 14076 5
  177.077 45172 18
  212.0369 189560 76
  213.021 428320 172
  214.0244 36228 14
  215.0173 12812 5
  230.0472 30964 12
  241.0393 27848 11
  256.0641 2487152 999
  257.0665 382248 153
  258.0607 95704 38
  329.1529 23724 9
//
