ACCESSION: MSBNK-Athens_Univ-AU256006
RECORD_TITLE: Metazachlor BH479-12; LC-ESI-QTOF; MS2; CE: Ramp 21.7-32.5 eV; R=35000; [M+H]+
DATE: 2019.05.29
AUTHORS: Nikiforos Alygizakis, Katerina Galani, Nikolaos Thomaidis, University of Athens
LICENSE: CC BY
COPYRIGHT: Copyright (C) 2019 Department of Chemistry, University of Athens
COMMENT: CONFIDENCE standard compound
COMMENT: INTERNAL_ID 2560
CH$NAME: Metazachlor BH479-12
CH$COMPOUND_CLASS: N/A; Environmental Standard
CH$FORMULA: C14H13N3O5
CH$EXACT_MASS: 303.0855205
CH$SMILES: CC1=C(N(CN2C=CC=N2)C(=O)C(O)=O)C(=CC=C1)C(O)=O
CH$IUPAC: InChI=1S/C14H13N3O5/c1-9-4-2-5-10(13(19)20)11(9)17(12(18)14(21)22)8-16-7-3-6-15-16/h2-7H,8H2,1H3,(H,19,20)(H,21,22)
CH$LINK: CHEMSPIDER 71047188
CH$LINK: INCHIKEY DFJUHFNLKWOTIZ-UHFFFAOYSA-N
CH$LINK: PUBCHEM CID:139291822
AC$INSTRUMENT: Bruker maXis Impact
AC$INSTRUMENT_TYPE: LC-ESI-QTOF
AC$MASS_SPECTROMETRY: MS_TYPE MS2
AC$MASS_SPECTROMETRY: ION_MODE POSITIVE
AC$MASS_SPECTROMETRY: IONIZATION ESI
AC$MASS_SPECTROMETRY: FRAGMENTATION_MODE CID
AC$MASS_SPECTROMETRY: COLLISION_ENERGY Ramp 21.7-32.5 eV
AC$MASS_SPECTROMETRY: RESOLUTION 35000
AC$CHROMATOGRAPHY: COLUMN_NAME Acclaim RSLC C18 2.2um, 2.1x100mm, Thermo
AC$CHROMATOGRAPHY: FLOW_GRADIENT 99/1 at 0-1 min, 61/39 at 3 min, 0.1/99.9 at 14-16 min, 99/1 at 16.1-20 min
AC$CHROMATOGRAPHY: FLOW_RATE 200 uL/min at 0-3 min, 400 uL/min at 14 min, 480 uL/min at 16-19 min, 200 uL/min at 19.1-20 min
AC$CHROMATOGRAPHY: RETENTION_TIME 4.342 min
AC$CHROMATOGRAPHY: SOLVENT A 90:10 water:methanol with 0.01% formic acid and 5mM ammonium formate
AC$CHROMATOGRAPHY: SOLVENT B methanol with 0.01% formic acid and 5mM ammonium formate
MS$FOCUSED_ION: BASE_PEAK 61.0393
MS$FOCUSED_ION: PRECURSOR_M/Z 304.0928
MS$FOCUSED_ION: PRECURSOR_TYPE [M+H]+
MS$DATA_PROCESSING: RECALIBRATE identity on assigned fragments and MS1
MS$DATA_PROCESSING: WHOLE RMassBank 2.10.1
PK$SPLASH: splash10-08fr-1940000000-1aad2c2540b871fa3d76
PK$ANNOTATION: m/z tentative_formula formula_count mass error(ppm)
  69.0443 C3H5N2+ 1 69.0447 -5.53
  134.0604 C8H8NO+ 2 134.06 2.41
  144.0462 C9H6NO+ 1 144.0444 12.46
  146.0608 C9H8NO+ 2 146.06 5.43
  160.0394 C9H6NO2+ 2 160.0393 0.68
  161.043 C8[13]CH6NO2+ 1 161.0432 -1.54
  162.0546 C9H8NO2+ 3 162.055 -1.99
  164.0702 C9H10NO2+ 3 164.0706 -2.17
  206.0453 C10H8NO4+ 2 206.0448 2.27
  207.0464 C9[13]CH8NO4+ 1 207.0487 -10.93
PK$NUM_PEAK: 10
PK$PEAK: m/z int. rel.int.
  69.0443 1472 390
  134.0604 484 128
  144.0462 352 93
  146.0608 2088 554
  160.0394 3024 802
  161.043 500 132
  162.0546 2188 580
  164.0702 532 141
  206.0453 3764 999
  207.0464 396 105
//
