ACCESSION: MSBNK-Athens_Univ-AU273302
RECORD_TITLE: Amiodarone; LC-ESI-QTOF; MS2; CE: 20 eV; R=35000; [M+H]+
DATE: 2019.05.30
AUTHORS: Nikiforos Alygizakis, Katerina Galani, Nikolaos Thomaidis, University of Athens
LICENSE: CC BY
COPYRIGHT: Copyright (C) 2019 Department of Chemistry, University of Athens
COMMENT: CONFIDENCE standard compound
COMMENT: INTERNAL_ID 2733
CH$NAME: Amiodarone
CH$NAME: (2-butyl-1-benzofuran-3-yl)-[4-[2-(diethylamino)ethoxy]-3,5-diiodophenyl]methanone
CH$COMPOUND_CLASS: N/A; Environmental Standard
CH$FORMULA: C25H29I2NO3
CH$EXACT_MASS: 645.0236898
CH$SMILES: CCCCC1=C(C(=O)C2=CC(I)=C(OCCN(CC)CC)C(I)=C2)C2=CC=CC=C2O1
CH$IUPAC: InChI=1S/C25H29I2NO3/c1-4-7-11-22-23(18-10-8-9-12-21(18)31-22)24(29)17-15-19(26)25(20(27)16-17)30-14-13-28(5-2)6-3/h8-10,12,15-16H,4-7,11,13-14H2,1-3H3
CH$LINK: CAS 1951-25-3
CH$LINK: CHEBI CHEBI:2663
CH$LINK: KEGG C06823
CH$LINK: PUBCHEM CID:2157
CH$LINK: INCHIKEY IYIKLHRQXLHMJQ-UHFFFAOYSA-N
CH$LINK: CHEMSPIDER 2072
CH$LINK: COMPTOX DTXSID7022592
AC$INSTRUMENT: Bruker maXis Impact
AC$INSTRUMENT_TYPE: LC-ESI-QTOF
AC$MASS_SPECTROMETRY: MS_TYPE MS2
AC$MASS_SPECTROMETRY: ION_MODE POSITIVE
AC$MASS_SPECTROMETRY: IONIZATION ESI
AC$MASS_SPECTROMETRY: FRAGMENTATION_MODE CID
AC$MASS_SPECTROMETRY: COLLISION_ENERGY 20 eV
AC$MASS_SPECTROMETRY: RESOLUTION 35000
AC$CHROMATOGRAPHY: COLUMN_NAME Acclaim RSLC C18 2.2um, 2.1x100mm, Thermo
AC$CHROMATOGRAPHY: FLOW_GRADIENT 99/1 at 0-1 min, 61/39 at 3 min, 0.1/99.9 at 14-16 min, 99/1 at 16.1-20 min
AC$CHROMATOGRAPHY: FLOW_RATE 200 uL/min at 0-3 min, 400 uL/min at 14 min, 480 uL/min at 16-19 min, 200 uL/min at 19.1-20 min
AC$CHROMATOGRAPHY: RETENTION_TIME 11.846 min
AC$CHROMATOGRAPHY: SOLVENT A 90:10 water:methanol with 0.01% formic acid and 5mM ammonium formate
AC$CHROMATOGRAPHY: SOLVENT B methanol with 0.01% formic acid and 5mM ammonium formate
MS$FOCUSED_ION: BASE_PEAK 646.0293
MS$FOCUSED_ION: PRECURSOR_M/Z 646.031
MS$FOCUSED_ION: PRECURSOR_TYPE [M+H]+
MS$DATA_PROCESSING: RECALIBRATE identity on assigned fragments and MS1
MS$DATA_PROCESSING: WHOLE RMassBank 2.10.1
PK$SPLASH: splash10-0002-0000009000-7304d2b67fba343a8883
PK$ANNOTATION: m/z tentative_formula formula_count mass error(ppm)
  646.0309 C25H30I2NO3+ 1 646.031 -0.14
  647.0336 C24[13]CH30I2NO3+ 1 647.0349 -1.96
  648.036 C23[13]C2H30I2NO3+ 1 648.0382 -3.36
PK$NUM_PEAK: 3
PK$PEAK: m/z int. rel.int.
  646.0309 554244 999
  647.0336 163380 294
  648.036 21472 38
//
