ACCESSION: MSBNK-Athens_Univ-AU501603
RECORD_TITLE: Dimethyl terephthalate; GC-APCI-QTOF; MS2; CE: 30 eV; R=35000; [M+H]+
DATE: 2021.04.19
AUTHORS: Chrysoula Kanakaki, Nikiforos Alygizakis, Nikolaos Thomaidis, University of Athens
LICENSE: CC BY
COPYRIGHT: Copyright (C) 2021 Department of Chemistry, University of Athens
COMMENT: CONFIDENCE standard compound
COMMENT: INTERNAL_ID 5016
CH$NAME: Dimethyl terephthalate
CH$COMPOUND_CLASS: N/A; Food Contact Material
CH$FORMULA: C10H10O4
CH$EXACT_MASS: 194.0579
CH$SMILES: COC(=O)C1=CC=C(C=C1)C(=O)OC
CH$IUPAC: InChI=1S/C10H10O4/c1-13-9(11)7-3-5-8(6-4-7)10(12)14-2/h3-6H,1-2H3
CH$LINK: CAS 120-61-6
CH$LINK: PUBCHEM CID:8441
CH$LINK: INCHIKEY WOZVHXUHUFLZGK-UHFFFAOYSA-N
CH$LINK: CHEMSPIDER 13863300
AC$INSTRUMENT: Bruker 450 GC coupled to maXis Impact
AC$INSTRUMENT_TYPE: GC-APCI-QTOF
AC$MASS_SPECTROMETRY: MS_TYPE MS2
AC$MASS_SPECTROMETRY: ION_MODE POSITIVE
AC$MASS_SPECTROMETRY: IONIZATION APCI
AC$MASS_SPECTROMETRY: FRAGMENTATION_MODE CID
AC$MASS_SPECTROMETRY: COLLISION_ENERGY 30 eV
AC$MASS_SPECTROMETRY: RESOLUTION 35000
AC$CHROMATOGRAPHY: COLUMN_NAME Rxi-5Sil MS column, 30m, 0.25mm i.d., 0.25µm film thickness, Restek
AC$CHROMATOGRAPHY: COLUMN_TEMPERATURE_GRADIENT 55oC at 0 min, 55oC at 3 min, 180oC at 11.33 min with 15oC/min, 280oC at 26.72 min with 6.5oC/min, 280oC at 31.72 min, 300oC at 33.72 min with 10oC/min, 300oC at 39 min
AC$CHROMATOGRAPHY: FLOW_RATE 1.5 mL/min
AC$CHROMATOGRAPHY: RETENTION_TIME 4.300 min
AC$CHROMATOGRAPHY: SOLVENT A Helium
MS$FOCUSED_ION: BASE_PEAK 195.0882
MS$FOCUSED_ION: PRECURSOR_M/Z 195.0652
MS$FOCUSED_ION: PRECURSOR_TYPE [M+H]+
MS$DATA_PROCESSING: RECALIBRATE identity on assigned fragments and MS1
MS$DATA_PROCESSING: WHOLE RMassBank 2.16.0
PK$SPLASH: splash10-0ue9-0900000000-8de01a9b727886fab050
PK$ANNOTATION: m/z tentative_formula formula_count mass error(ppm)
  133.0524 C5H9O4+ 1 133.0495 21.23
  151.0402 C8H7O3+ 1 151.039 8.47
PK$NUM_PEAK: 2
PK$PEAK: m/z int. rel.int.
  133.0524 104 702
  151.0402 148 999
//
