ACCESSION: MSBNK-Athens_Univ-AU244901
RECORD_TITLE: Galaxolide; LC-ESI-QTOF; MS2; CE: 10 eV; R=35000; [M+H]+
DATE: 2019.04.05
AUTHORS: Nikiforos Alygizakis, Katerina Galani, Nikolaos Thomaidis, University of Athens
LICENSE: CC BY
COPYRIGHT: Copyright (C) 2019 Department of Chemistry, University of Athens
COMMENT: CONFIDENCE standard compound
COMMENT: INTERNAL_ID 2449
CH$NAME: Galaxolide
CH$NAME: Cyclopenta[g]-2-benzopyran, 1,3,4,6,7,8-hexahydro-4,6,6,7,8,8-hexamethyl-
CH$NAME: 4,6,6,7,8,8-hexamethyl-1,3,4,7-tetrahydrocyclopenta[g]isochromene
CH$COMPOUND_CLASS: N/A; Environmental Standard
CH$FORMULA: C18H26O
CH$EXACT_MASS: 258.1983655
CH$SMILES: CC1C(C)(C)C2=CC3=C(C=C2C1(C)C)C(C)COC3
CH$IUPAC: InChI=1S/C18H26O/c1-11-9-19-10-13-7-15-16(8-14(11)13)18(5,6)12(2)17(15,3)4/h7-8,11-12H,9-10H2,1-6H3
CH$LINK: CAS 1222-05-5
CH$LINK: CHEBI CHEBI:83784
CH$LINK: PUBCHEM CID:91497
CH$LINK: INCHIKEY ONKNPOPIGWHAQC-UHFFFAOYSA-N
CH$LINK: CHEMSPIDER 82618
CH$LINK: COMPTOX DTXSID8027373
AC$INSTRUMENT: Bruker maXis Impact
AC$INSTRUMENT_TYPE: LC-ESI-QTOF
AC$MASS_SPECTROMETRY: MS_TYPE MS2
AC$MASS_SPECTROMETRY: ION_MODE POSITIVE
AC$MASS_SPECTROMETRY: IONIZATION ESI
AC$MASS_SPECTROMETRY: FRAGMENTATION_MODE CID
AC$MASS_SPECTROMETRY: COLLISION_ENERGY 10 eV
AC$MASS_SPECTROMETRY: RESOLUTION 35000
AC$CHROMATOGRAPHY: COLUMN_NAME Acclaim RSLC C18 2.2um, 2.1x100mm, Thermo
AC$CHROMATOGRAPHY: FLOW_GRADIENT 99/1 at 0-1 min, 61/39 at 3 min, 0.1/99.9 at 14-16 min, 99/1 at 16.1-20 min
AC$CHROMATOGRAPHY: FLOW_RATE 200 uL/min at 0-3 min, 400 uL/min at 14 min, 480 uL/min at 16-19 min, 200 uL/min at 19.1-20 min
AC$CHROMATOGRAPHY: RETENTION_TIME 13.473 min
AC$CHROMATOGRAPHY: SOLVENT A 90:10 water:methanol with 0.01% formic acid and 5mM ammonium formate
AC$CHROMATOGRAPHY: SOLVENT B methanol with 0.01% formic acid and 5mM ammonium formate
MS$FOCUSED_ION: BASE_PEAK 259.2051
MS$FOCUSED_ION: PRECURSOR_M/Z 259.2056
MS$FOCUSED_ION: PRECURSOR_TYPE [M+H]+
MS$DATA_PROCESSING: RECALIBRATE identity on assigned fragments and MS1
MS$DATA_PROCESSING: WHOLE RMassBank 2.10.1
PK$SPLASH: splash10-0a4i-0190000000-6284e29a866ba565c87c
PK$ANNOTATION: m/z tentative_formula formula_count mass error(ppm)
  133.1 C10H13+ 1 133.1012 -8.73
  161.0949 C11H13O+ 1 161.0961 -7.34
  175.1107 C12H15O+ 1 175.1117 -5.77
  176.1137 C11[13]CH15O+ 1 176.1156 -11.27
  257.1893 C18H25O+ 1 257.19 -2.86
  258.1922 C17[13]CH25O+ 1 258.1939 -6.59
  259.2056 C18H27O+ 1 259.2056 -0.16
  260.2088 C17[13]CH27O+ 1 260.2095 -2.74
  261.2117 C16[13]C2H27O+ 1 261.2129 -4.7
PK$NUM_PEAK: 9
PK$PEAK: m/z int. rel.int.
  133.1 1476 7
  161.0949 1204 6
  175.1107 27644 139
  176.1137 4032 20
  257.1893 7704 38
  258.1922 2008 10
  259.2056 197432 999
  260.2088 36344 183
  261.2117 4184 21
//
