ACCESSION: MSBNK-Athens_Univ-AU276201
RECORD_TITLE: 4-Aminobenzamide; LC-ESI-QTOF; MS2; CE: 10 eV; R=35000; [M+H]+
DATE: 2019.05.31
AUTHORS: Nikiforos Alygizakis, Katerina Galani, Nikolaos Thomaidis, University of Athens
LICENSE: CC BY
COPYRIGHT: Copyright (C) 2019 Department of Chemistry, University of Athens
COMMENT: CONFIDENCE standard compound
COMMENT: INTERNAL_ID 2762
CH$NAME: 4-Aminobenzamide
CH$COMPOUND_CLASS: N/A; Environmental Standard
CH$FORMULA: C7H8N2O
CH$EXACT_MASS: 136.0636629
CH$SMILES: NC(=O)C1=CC=C(N)C=C1
CH$IUPAC: InChI=1S/C7H8N2O/c8-6-3-1-5(2-4-6)7(9)10/h1-4H,8H2,(H2,9,10)
CH$LINK: CAS 2835-68-9
CH$LINK: PUBCHEM CID:76079
CH$LINK: INCHIKEY QIKYZXDTTPVVAC-UHFFFAOYSA-N
CH$LINK: CHEMSPIDER 68568
CH$LINK: COMPTOX DTXSID7038814
AC$INSTRUMENT: Bruker maXis Impact
AC$INSTRUMENT_TYPE: LC-ESI-QTOF
AC$MASS_SPECTROMETRY: MS_TYPE MS2
AC$MASS_SPECTROMETRY: ION_MODE POSITIVE
AC$MASS_SPECTROMETRY: IONIZATION ESI
AC$MASS_SPECTROMETRY: FRAGMENTATION_MODE CID
AC$MASS_SPECTROMETRY: COLLISION_ENERGY 10 eV
AC$MASS_SPECTROMETRY: RESOLUTION 35000
AC$CHROMATOGRAPHY: COLUMN_NAME Acclaim RSLC C18 2.2um, 2.1x100mm, Thermo
AC$CHROMATOGRAPHY: FLOW_GRADIENT 99/1 at 0-1 min, 61/39 at 3 min, 0.1/99.9 at 14-16 min, 99/1 at 16.1-20 min
AC$CHROMATOGRAPHY: FLOW_RATE 200 uL/min at 0-3 min, 400 uL/min at 14 min, 480 uL/min at 16-19 min, 200 uL/min at 19.1-20 min
AC$CHROMATOGRAPHY: RETENTION_TIME 2.372 min
AC$CHROMATOGRAPHY: SOLVENT A 90:10 water:methanol with 0.01% formic acid and 5mM ammonium formate
AC$CHROMATOGRAPHY: SOLVENT B methanol with 0.01% formic acid and 5mM ammonium formate
MS$FOCUSED_ION: BASE_PEAK 137.0699
MS$FOCUSED_ION: PRECURSOR_M/Z 137.0709
MS$FOCUSED_ION: PRECURSOR_TYPE [M+H]+
MS$DATA_PROCESSING: RECALIBRATE identity on assigned fragments and MS1
MS$DATA_PROCESSING: WHOLE RMassBank 2.10.1
PK$SPLASH: splash10-0079-0900000000-17d09d0331ad8001d0a8
PK$ANNOTATION: m/z tentative_formula formula_count mass error(ppm)
  120.0436 C7H6NO+ 1 120.0444 -6.61
  121.0466 C6[13]CH6NO+ 1 121.0483 -13.74
  122.0483 C6H6N2O+ 1 122.0475 7.14
  137.0697 C7H9N2O+ 1 137.0709 -9.33
  138.0729 C6[13]CH9N2O+ 1 138.0748 -14.41
PK$NUM_PEAK: 5
PK$PEAK: m/z int. rel.int.
  120.0436 118604 921
  121.0466 11176 86
  122.0483 704 5
  137.0697 128580 999
  138.0729 11284 87
//
