ACCESSION: MSBNK-Athens_Univ-AU581352
RECORD_TITLE: Bisphenol A bis(3-chloro-2-hydroxypropyl) ether; LC-ESI-QTOF; MS2; CE: 40 eV; R=35000; [M+NH4]+
DATE: 2019.11.23
AUTHORS: Varvara Nikolopoulou, Anthi Panara, Maria Christina Nika, Nikolaos S. Thomaidis, University of Athens
LICENSE: CC BY
COPYRIGHT: Copyright (C) 2019 Department of Chemistry, University of Athens
COMMENT: CONFIDENCE Reference Standard (Level 1)
COMMENT: INTERNAL_ID 5813
CH$NAME: Bisphenol A bis(3-chloro-2-hydroxypropyl) ether
CH$NAME: 1-chloro-3-[4-[2-[4-(3-chloro-2-hydroxypropoxy)phenyl]propan-2-yl]phenoxy]propan-2-ol
CH$COMPOUND_CLASS: N/A; Environmental Standard
CH$FORMULA: C21H26Cl2O4
CH$EXACT_MASS: 412.1208
CH$SMILES: CC(C)(C1=CC=C(C=C1)OCC(CCl)O)C2=CC=C(C=C2)OCC(CCl)O
CH$IUPAC: InChI=1S/C21H26Cl2O4/c1-21(2,15-3-7-19(8-4-15)26-13-17(24)11-22)16-5-9-20(10-6-16)27-14-18(25)12-23/h3-10,17-18,24-25H,11-14H2,1-2H3
CH$LINK: CAS 4809-35-2
CH$LINK: PUBCHEM CID:3479589
CH$LINK: INCHIKEY PTCFDJRJOGPUFE-UHFFFAOYSA-N
CH$LINK: CHEMSPIDER 2720615
AC$INSTRUMENT: Bruker maXis Impact
AC$INSTRUMENT_TYPE: LC-ESI-QTOF
AC$MASS_SPECTROMETRY: MS_TYPE MS2
AC$MASS_SPECTROMETRY: ION_MODE POSITIVE
AC$MASS_SPECTROMETRY: IONIZATION ESI
AC$MASS_SPECTROMETRY: FRAGMENTATION_MODE CID
AC$MASS_SPECTROMETRY: COLLISION_ENERGY 40 eV
AC$MASS_SPECTROMETRY: RESOLUTION 35000
AC$CHROMATOGRAPHY: COLUMN_NAME Acclaim RSLC C18 2.2um, 2.1x100mm, Thermo
AC$CHROMATOGRAPHY: FLOW_GRADIENT 99/1 at 0-1 min, 61/39 at 3 min, 0.1/99.9 at 14-16 min, 99/1 at 16.1-20 min
AC$CHROMATOGRAPHY: FLOW_RATE 200 uL/min at 0-3 min, 400 uL/min at 14 min, 480 uL/min at 16-19 min, 200 uL/min at 19.1-20 min
AC$CHROMATOGRAPHY: RETENTION_TIME 11.366 min
AC$CHROMATOGRAPHY: SOLVENT A 90:10 water:methanol with 0.01% formic acid and 5mM ammonium formate
AC$CHROMATOGRAPHY: SOLVENT B methanol with 0.01% formic acid and 5mM ammonium formate
MS$FOCUSED_ION: BASE_PEAK 430.1546
MS$FOCUSED_ION: PRECURSOR_M/Z 430.1557
MS$FOCUSED_ION: PRECURSOR_TYPE [M+NH4]+
MS$DATA_PROCESSING: RECALIBRATE identity on assigned fragments and MS1
MS$DATA_PROCESSING: WHOLE RMassBank 2.13.0
PK$SPLASH: splash10-002r-0970000000-7092276e68200b022482
PK$ANNOTATION: m/z tentative_formula formula_count mass error(ppm)
  135.0791 Cl2H19NO2+ 4 135.0787 2.92
  136.0832 C3H17ClO3+ 2 136.0861 -21.32
  227.0828 C12H16ClO2+ 4 227.0833 -2.38
  228.0886 C6H22Cl2O4+ 4 228.089 -1.67
  229.0802 C15H14Cl+ 4 229.0779 10.28
PK$NUM_PEAK: 5
PK$PEAK: m/z int. rel.int.
  135.0791 10672 999
  136.0832 968 90
  227.0828 6828 639
  228.0886 812 76
  229.0802 1992 186
//
