ACCESSION: MSBNK-Athens_Univ-AU257403
RECORD_TITLE: Epoxiconazole; LC-ESI-QTOF; MS2; CE: 30 eV; R=35000; [M+H]+
DATE: 2019.05.29
AUTHORS: Nikiforos Alygizakis, Katerina Galani, Nikolaos Thomaidis, University of Athens
LICENSE: CC BY
COPYRIGHT: Copyright (C) 2019 Department of Chemistry, University of Athens
COMMENT: CONFIDENCE standard compound
COMMENT: INTERNAL_ID 2574
CH$NAME: Epoxiconazole
CH$NAME: 1-[[3-(2-chlorophenyl)-2-(4-fluorophenyl)oxiran-2-yl]methyl]-1,2,4-triazole
CH$COMPOUND_CLASS: N/A; Environmental Standard
CH$FORMULA: C17H13ClFN3O
CH$EXACT_MASS: 329.0731179
CH$SMILES: FC1=CC=C(C=C1)C1(CN2C=NC=N2)OC1C1=C(Cl)C=CC=C1
CH$IUPAC: InChI=1S/C17H13ClFN3O/c18-15-4-2-1-3-14(15)16-17(23-16,9-22-11-20-10-21-22)12-5-7-13(19)8-6-12/h1-8,10-11,16H,9H2
CH$LINK: CAS 135319-73-2
CH$LINK: CHEBI CHEBI:83758
CH$LINK: PUBCHEM CID:3317081
CH$LINK: INCHIKEY ZMYFCFLJBGAQRS-UHFFFAOYSA-N
CH$LINK: CHEMSPIDER 2564795
CH$LINK: COMPTOX DTXSID1040372
AC$INSTRUMENT: Bruker maXis Impact
AC$INSTRUMENT_TYPE: LC-ESI-QTOF
AC$MASS_SPECTROMETRY: MS_TYPE MS2
AC$MASS_SPECTROMETRY: ION_MODE POSITIVE
AC$MASS_SPECTROMETRY: IONIZATION ESI
AC$MASS_SPECTROMETRY: FRAGMENTATION_MODE CID
AC$MASS_SPECTROMETRY: COLLISION_ENERGY 30 eV
AC$MASS_SPECTROMETRY: RESOLUTION 35000
AC$CHROMATOGRAPHY: COLUMN_NAME Acclaim RSLC C18 2.2um, 2.1x100mm, Thermo
AC$CHROMATOGRAPHY: FLOW_GRADIENT 99/1 at 0-1 min, 61/39 at 3 min, 0.1/99.9 at 14-16 min, 99/1 at 16.1-20 min
AC$CHROMATOGRAPHY: FLOW_RATE 200 uL/min at 0-3 min, 400 uL/min at 14 min, 480 uL/min at 16-19 min, 200 uL/min at 19.1-20 min
AC$CHROMATOGRAPHY: RETENTION_TIME 10.333 min
AC$CHROMATOGRAPHY: SOLVENT A 90:10 water:methanol with 0.01% formic acid and 5mM ammonium formate
AC$CHROMATOGRAPHY: SOLVENT B methanol with 0.01% formic acid and 5mM ammonium formate
MS$FOCUSED_ION: BASE_PEAK 330.0804
MS$FOCUSED_ION: PRECURSOR_M/Z 330.0804
MS$FOCUSED_ION: PRECURSOR_TYPE [M+H]+
MS$DATA_PROCESSING: RECALIBRATE identity on assigned fragments and MS1
MS$DATA_PROCESSING: WHOLE RMassBank 2.10.1
PK$SPLASH: splash10-00di-0900000000-f2a4ec6f5c7ec7649682
PK$ANNOTATION: m/z tentative_formula formula_count mass error(ppm)
  121.0441 C8H6F+ 3 121.0448 -6.24
  122.0472 C7[13]CH6F+ 1 122.0487 -12.15
  123.0231 C5H2FN3+ 4 123.0227 3.3
  124.0266 C4[13]CH2FN3+ 1 124.0266 -0.36
  138.9935 C5H2ClN3+ 3 138.9932 2.03
  140.9903 C5H2[37]ClN3+ 1 140.9908 -3.23
  141.0091 C5H4ClN3+ 4 141.0088 1.93
  142.0125 C4[13]CH4ClN3+ 1 142.0127 -1.75
  143.006 C5H4[37]ClN3+ 1 143.0064 -3.07
  149.0587 C7H7N3O+ 2 149.0584 2.34
  165.0536 C12H7N+ 1 165.0573 -22.12
  198.082 C6H14ClFN3O+ 4 198.0804 8.14
  231.0362 C14H9ClF+ 3 231.0371 -3.83
PK$NUM_PEAK: 13
PK$PEAK: m/z int. rel.int.
  121.0441 409968 999
  122.0472 37796 92
  123.0231 108540 264
  124.0266 9012 21
  138.9935 10280 25
  140.9903 2852 6
  141.0091 46044 112
  142.0125 3828 9
  143.006 12052 29
  149.0587 2088 5
  165.0536 2940 7
  198.082 3412 8
  231.0362 2896 7
//
