ACCESSION: MSBNK-Athens_Univ-AU259903
RECORD_TITLE: Isoxaben; LC-ESI-QTOF; MS2; CE: 30 eV; R=35000; [M+H]+
DATE: 2019.05.29
AUTHORS: Nikiforos Alygizakis, Katerina Galani, Nikolaos Thomaidis, University of Athens
LICENSE: CC BY
COPYRIGHT: Copyright (C) 2019 Department of Chemistry, University of Athens
COMMENT: CONFIDENCE standard compound
COMMENT: INTERNAL_ID 2599
CH$NAME: Isoxaben
CH$NAME: 2,6-dimethoxy-N-[3-(3-methylpentan-3-yl)-1,2-oxazol-5-yl]benzamide
CH$COMPOUND_CLASS: N/A; Environmental Standard
CH$FORMULA: C18H24N2O4
CH$EXACT_MASS: 332.1736072
CH$SMILES: CCC(C)(CC)C1=NOC(NC(=O)C2=C(OC)C=CC=C2OC)=C1
CH$IUPAC: InChI=1S/C18H24N2O4/c1-6-18(3,7-2)14-11-15(24-20-14)19-17(21)16-12(22-4)9-8-10-13(16)23-5/h8-11H,6-7H2,1-5H3,(H,19,21)
CH$LINK: CAS 87387-81-3
CH$LINK: CHEBI CHEBI:63956
CH$LINK: KEGG C18504
CH$LINK: PUBCHEM CID:73672
CH$LINK: INCHIKEY PMHURSZHKKJGBM-UHFFFAOYSA-N
CH$LINK: CHEMSPIDER 66323
CH$LINK: COMPTOX DTXSID8024159
AC$INSTRUMENT: Bruker maXis Impact
AC$INSTRUMENT_TYPE: LC-ESI-QTOF
AC$MASS_SPECTROMETRY: MS_TYPE MS2
AC$MASS_SPECTROMETRY: ION_MODE POSITIVE
AC$MASS_SPECTROMETRY: IONIZATION ESI
AC$MASS_SPECTROMETRY: FRAGMENTATION_MODE CID
AC$MASS_SPECTROMETRY: COLLISION_ENERGY 30 eV
AC$MASS_SPECTROMETRY: RESOLUTION 35000
AC$CHROMATOGRAPHY: COLUMN_NAME Acclaim RSLC C18 2.2um, 2.1x100mm, Thermo
AC$CHROMATOGRAPHY: FLOW_GRADIENT 99/1 at 0-1 min, 61/39 at 3 min, 0.1/99.9 at 14-16 min, 99/1 at 16.1-20 min
AC$CHROMATOGRAPHY: FLOW_RATE 200 uL/min at 0-3 min, 400 uL/min at 14 min, 480 uL/min at 16-19 min, 200 uL/min at 19.1-20 min
AC$CHROMATOGRAPHY: RETENTION_TIME 9.480 min
AC$CHROMATOGRAPHY: SOLVENT A 90:10 water:methanol with 0.01% formic acid and 5mM ammonium formate
AC$CHROMATOGRAPHY: SOLVENT B methanol with 0.01% formic acid and 5mM ammonium formate
MS$FOCUSED_ION: BASE_PEAK 333.1814
MS$FOCUSED_ION: PRECURSOR_M/Z 333.1809
MS$FOCUSED_ION: PRECURSOR_TYPE [M+H]+
MS$DATA_PROCESSING: RECALIBRATE identity on assigned fragments and MS1
MS$DATA_PROCESSING: WHOLE RMassBank 2.10.1
PK$SPLASH: splash10-014i-0900000000-87b9da48eb483883f0b4
PK$ANNOTATION: m/z tentative_formula formula_count mass error(ppm)
  122.0354 C7H6O2+ 1 122.0362 -6.46
  150.03 C8H6O3+ 1 150.0311 -7.88
  151.0333 C7[13]CH6O3+ 1 151.035 -11.53
  165.0543 C9H9O3+ 2 165.0546 -1.92
  166.057 C8[13]CH9O3+ 1 166.0585 -9.14
  167.0586 C8H9NO3+ 2 167.0577 5.21
  168.0403 C8H8O4+ 2 168.0417 -8.57
PK$NUM_PEAK: 7
PK$PEAK: m/z int. rel.int.
  122.0354 34164 13
  150.03 198060 79
  151.0333 15284 6
  165.0543 2499412 999
  166.057 334448 133
  167.0586 29228 11
  168.0403 27128 10
//
