ACCESSION: MSBNK-Athens_Univ-AU240757
RECORD_TITLE: Lauryl sulfate; LC-ESI-QTOF; MS2; CE: 10 eV; R=35000; [M-H]-
DATE: 2019.03.29
AUTHORS: Nikiforos Alygizakis, Katerina Galani, Nikolaos Thomaidis, University of Athens
LICENSE: CC BY
COPYRIGHT: Copyright (C) 2019 Department of Chemistry, University of Athens
COMMENT: CONFIDENCE standard compound
COMMENT: INTERNAL_ID 2407
CH$NAME: Lauryl sulfate
CH$NAME: dodecyl hydrogen sulfate
CH$NAME: (Dodecyloxy)sulfonic acid
CH$NAME: Dodecyl sulfate
CH$COMPOUND_CLASS: N/A; Environmental Standard
CH$FORMULA: C12H26O4S
CH$EXACT_MASS: 266.1551803
CH$SMILES: CCCCCCCCCCCCOS(=O)(=O)O
CH$IUPAC: InChI=1S/C12H26O4S/c1-2-3-4-5-6-7-8-9-10-11-12-16-17(13,14)15/h2-12H2,1H3,(H,13,14,15)
CH$LINK: CAS 151-41-7
CH$LINK: CHEBI CHEBI:45599
CH$LINK: CHEMSPIDER 8448
CH$LINK: COMPTOX DTXSID0042088
CH$LINK: INCHIKEY MOTZDAYCYVMXPC-UHFFFAOYSA-N
CH$LINK: PUBCHEM CID:8778
AC$INSTRUMENT: Bruker maXis Impact
AC$INSTRUMENT_TYPE: LC-ESI-QTOF
AC$MASS_SPECTROMETRY: MS_TYPE MS2
AC$MASS_SPECTROMETRY: ION_MODE NEGATIVE
AC$MASS_SPECTROMETRY: IONIZATION ESI
AC$MASS_SPECTROMETRY: FRAGMENTATION_MODE CID
AC$MASS_SPECTROMETRY: COLLISION_ENERGY 10 eV
AC$MASS_SPECTROMETRY: RESOLUTION 35000
AC$CHROMATOGRAPHY: COLUMN_NAME Acclaim RSLC C18 2.2um, 2.1x100mm, Thermo
AC$CHROMATOGRAPHY: FLOW_GRADIENT 99/1 at 0-1 min, 61/39 at 3 min, 0.1/99.9 at 14-16 min, 99/1 at 16.1-20 min
AC$CHROMATOGRAPHY: FLOW_RATE 200 uL/min at 0-3 min, 400 uL/min at 14 min, 480 uL/min at 16-19 min, 200 uL/min at 19.1-20 min
AC$CHROMATOGRAPHY: RETENTION_TIME 11.585 min
AC$CHROMATOGRAPHY: SOLVENT A 90:10 water:methanol with 5mM ammonium acetate
AC$CHROMATOGRAPHY: SOLVENT B methanol with 5mM ammonium acetate
MS$FOCUSED_ION: BASE_PEAK 265.1475
MS$FOCUSED_ION: PRECURSOR_M/Z 265.1479
MS$FOCUSED_ION: PRECURSOR_TYPE [M-H]-
MS$DATA_PROCESSING: RECALIBRATE identity on assigned fragments and MS1
MS$DATA_PROCESSING: WHOLE RMassBank 2.10.0
PK$SPLASH: splash10-014i-0090000000-64411a6d2ca1a28172dd
PK$ANNOTATION: m/z tentative_formula formula_count mass error(ppm)
  265.1473 C12H25O4S- 1 265.1479 -2.31
  266.1497 C11[13]CH25O4S- 1 266.1507 -3.62
  267.1464 C12H25O4[34]S- 1 267.1432 12.16
PK$NUM_PEAK: 3
PK$PEAK: m/z int. rel.int.
  265.1473 48724 999
  266.1497 8096 165
  267.1464 2412 49
//
