ACCESSION: MSBNK-Athens_Univ-AU256801
RECORD_TITLE: Cyproconazole; LC-ESI-QTOF; MS2; CE: 10 eV; R=35000; [M+H]+
DATE: 2019.05.29
AUTHORS: Nikiforos Alygizakis, Katerina Galani, Nikolaos Thomaidis, University of Athens
LICENSE: CC BY
COPYRIGHT: Copyright (C) 2019 Department of Chemistry, University of Athens
COMMENT: CONFIDENCE standard compound
COMMENT: INTERNAL_ID 2568
CH$NAME: Cyproconazole
CH$NAME: 2-(4-chlorophenyl)-3-cyclopropyl-1-(1,2,4-triazol-1-yl)butan-2-ol
CH$COMPOUND_CLASS: N/A; Environmental Standard
CH$FORMULA: C15H18ClN3O
CH$EXACT_MASS: 291.1138399
CH$SMILES: CC(C1CC1)C(O)(CN1C=NC=N1)C1=CC=C(Cl)C=C1
CH$IUPAC: InChI=1S/C15H18ClN3O/c1-11(12-2-3-12)15(20,8-19-10-17-9-18-19)13-4-6-14(16)7-5-13/h4-7,9-12,20H,2-3,8H2,1H3
CH$LINK: CAS 94361-06-5
CH$LINK: CHEBI CHEBI:83748
CH$LINK: KEGG C18456
CH$LINK: PUBCHEM CID:86132
CH$LINK: INCHIKEY UFNOUKDBUJZYDE-UHFFFAOYSA-N
CH$LINK: CHEMSPIDER 77706
CH$LINK: COMPTOX DTXSID0032601
AC$INSTRUMENT: Bruker maXis Impact
AC$INSTRUMENT_TYPE: LC-ESI-QTOF
AC$MASS_SPECTROMETRY: MS_TYPE MS2
AC$MASS_SPECTROMETRY: ION_MODE POSITIVE
AC$MASS_SPECTROMETRY: IONIZATION ESI
AC$MASS_SPECTROMETRY: FRAGMENTATION_MODE CID
AC$MASS_SPECTROMETRY: COLLISION_ENERGY 10 eV
AC$MASS_SPECTROMETRY: RESOLUTION 35000
AC$CHROMATOGRAPHY: COLUMN_NAME Acclaim RSLC C18 2.2um, 2.1x100mm, Thermo
AC$CHROMATOGRAPHY: FLOW_GRADIENT 99/1 at 0-1 min, 61/39 at 3 min, 0.1/99.9 at 14-16 min, 99/1 at 16.1-20 min
AC$CHROMATOGRAPHY: FLOW_RATE 200 uL/min at 0-3 min, 400 uL/min at 14 min, 480 uL/min at 16-19 min, 200 uL/min at 19.1-20 min
AC$CHROMATOGRAPHY: RETENTION_TIME 9.742 min
AC$CHROMATOGRAPHY: SOLVENT A 90:10 water:methanol with 0.01% formic acid and 5mM ammonium formate
AC$CHROMATOGRAPHY: SOLVENT B methanol with 0.01% formic acid and 5mM ammonium formate
MS$FOCUSED_ION: BASE_PEAK 292.1207
MS$FOCUSED_ION: PRECURSOR_M/Z 292.1211
MS$FOCUSED_ION: PRECURSOR_TYPE [M+H]+
MS$DATA_PROCESSING: RECALIBRATE identity on assigned fragments and MS1
MS$DATA_PROCESSING: WHOLE RMassBank 2.10.1
PK$SPLASH: splash10-0006-0090000000-1e19ec8224f5df15d3ae
PK$ANNOTATION: m/z tentative_formula formula_count mass error(ppm)
  125.0137 C8HN2+ 2 125.0134 2.32
  291.1178 C15H18ClN3O+ 1 291.1133 15.56
  292.1209 C15H19ClN3O+ 1 292.1211 -0.69
  293.1236 C14[13]CH19ClN3O+ 1 293.125 -4.87
  294.1176 C15H19[37]ClN3O+ 1 294.1187 -3.8
PK$NUM_PEAK: 5
PK$PEAK: m/z int. rel.int.
  125.0137 1648 6
  291.1178 82960 303
  292.1209 272660 999
  293.1236 47432 173
  294.1176 71892 263
//
