ACCESSION: MSBNK-Athens_Univ-AU508756
RECORD_TITLE: Perfluorohexylperfluorooctylphosphinate (6:8PFPi); LC-ESI-QTOF; MS2; CE: 31.9-47.8 eV; R=35000; [M-H]-
DATE: 2023.04.25
AUTHORS: Konstantina Diamanti, Georgios Gkotsis, Nikiforos Alygizakis, Nikolaos Thomaidis
LICENSE: CC BY
COPYRIGHT: Copyright (C) 2023 Department of Chemistry, University of Athens
COMMENT: CONFIDENCE standard compound
COMMENT: INTERNAL_ID 5087
CH$NAME: Perfluorohexylperfluorooctylphosphinate (6:8PFPi)
CH$COMPOUND_CLASS: N/A; Environmental Standard
CH$FORMULA: C14HF30O2P
CH$EXACT_MASS: 801.9235
CH$SMILES: C(C(C(C(C(F)(F)P(=O)(C(C(C(C(C(C(F)(F)F)(F)F)(F)F)(F)F)(F)F)(F)F)O)(F)F)(F)F)(F)F)(C(C(C(F)(F)F)(F)F)(F)F)(F)F
CH$IUPAC: InChI=1S/C14HF30O2P/c15-1(16,3(19,20)7(27,28)11(35,36)37)2(17,18)5(23,24)9(31,32)13(41,42)47(45,46)14(43,44)10(33,34)6(25,26)4(21,22)8(29,30)12(38,39)40/h(H,45,46)
CH$LINK: CAS 610800-34-5 
CH$LINK: INCHIKEY CQORQFOHIKVJET-UHFFFAOYSA-N
CH$LINK: CHEMSPIDER 57425009
AC$INSTRUMENT: Bruker maXis Impact
AC$INSTRUMENT_TYPE: LC-ESI-QTOF
AC$MASS_SPECTROMETRY: MS_TYPE MS2
AC$MASS_SPECTROMETRY: MODE NEGATIVE
AC$MASS_SPECTROMETRY: IONIZATION ESI
AC$MASS_SPECTROMETRY: FRAGMENTATION_MODE CID
AC$MASS_SPECTROMETRY: COLLISION_ENERGY 31.9-47.8 eV
AC$MASS_SPECTROMETRY: RESOLUTION 35000
AC$MASS_SPECTROMETRY: MASS_RANGE_M/Z 50-1000
AC$CHROMATOGRAPHY: COLUMN_NAME Acclaim RSLC C18 2.2um, 2.1x100mm, Thermo
AC$CHROMATOGRAPHY: FLOW_GRADIENT 99/1 at 0-1 min, 61/39 at 3 min, 0.1/99.9 at 14-16 min, 99/1 at 16.1-20 min
AC$CHROMATOGRAPHY: FLOW_RATE 200 uL/min at 0-3 min, 400 uL/min at 14 min, 480 uL/min at 16-19 min, 200 uL/min at 19.1-20 min
AC$CHROMATOGRAPHY: RETENTION_TIME 12.808 min
MS$FOCUSED_ION: BASE_PEAK 800.913
MS$FOCUSED_ION: PRECURSOR_M/Z 800.9162
MS$FOCUSED_ION: PRECURSOR_TYPE [M-H]-
MS$DATA_PROCESSING: RECALIBRATE identity on assigned fragments and MS1
MS$DATA_PROCESSING: WHOLE RMassBank 3.9.0
PK$SPLASH: splash10-0udi-0000000090-d410a4b4119bb40fdd55
PK$ANNOTATION: m/z tentative_formula formula_count mass error(ppm)
  62.9632 O2P- 1 62.9641 -14.76
  400.9406 CF18OP- 2 400.9405 0.27
  500.9306 C3F22OP- 2 500.9341 -6.92
  800.9122 C14F30O2P- 1 800.9162 -5.04
PK$NUM_PEAK: 4
PK$PEAK: m/z int. rel.int.
  62.9632 996 7
  400.9406 1940 14
  500.9306 1876 13
  800.9122 138224 999
//
