ACCESSION: MSBNK-Athens_Univ-AU163107
RECORD_TITLE: Flurazepam; LC-ESI-QTOF; MS2; HILIC; CE: 10 eV; R=35000; [M+H]+
DATE: 2016.02.26
AUTHORS: Nikiforos Alygizakis, Nikolaos Thomaidis, University of Athens
LICENSE: CC BY
COPYRIGHT: Copyright (C) 2016 Department of Chemistry, University of Athens
COMMENT: CONFIDENCE standard compound
COMMENT: INTERNAL_ID 1631
CH$NAME: Flurazepam
CH$NAME: 7-chloro-1-[2-(diethylamino)ethyl]-5-(2-fluorophenyl)-3H-1,4-benzodiazepin-2-one
CH$COMPOUND_CLASS: N/A; Environmental Standard
CH$FORMULA: C21H23ClFN3O
CH$EXACT_MASS: 387.1513683
CH$SMILES: CCN(CC)CCN1c2ccc(cc2C(=NCC1=O)c3ccccc3F)Cl
CH$IUPAC: InChI=1S/C21H23ClFN3O/c1-3-25(4-2)11-12-26-19-10-9-15(22)13-17(19)21(24-14-20(26)27)16-7-5-6-8-18(16)23/h5-10,13H,3-4,11-12,14H2,1-2H3
CH$LINK: CAS 17617-23-1
CH$LINK: KEGG D00329
CH$LINK: PUBCHEM CID:3393
CH$LINK: INCHIKEY SAADBVWGJQAEFS-UHFFFAOYSA-N
CH$LINK: CHEMSPIDER 3276
CH$LINK: COMPTOX DTXSID1023071
AC$INSTRUMENT: Bruker maXis Impact
AC$INSTRUMENT_TYPE: LC-ESI-QTOF
AC$MASS_SPECTROMETRY: MS_TYPE MS2
AC$MASS_SPECTROMETRY: ION_MODE POSITIVE
AC$MASS_SPECTROMETRY: IONIZATION ESI
AC$MASS_SPECTROMETRY: FRAGMENTATION_MODE CID
AC$MASS_SPECTROMETRY: COLLISION_ENERGY 10 eV
AC$MASS_SPECTROMETRY: RESOLUTION 35000
AC$CHROMATOGRAPHY: COLUMN_NAME ACQUITY UPLC BEH Amide 1.7 um 2.1x100mm, Waters
AC$CHROMATOGRAPHY: FLOW_GRADIENT 0/100 at 0-2 min, 95/5 at 12 min, 95/5 at 17 min, 0/100 at 17.1, 0/100 at 25 min
AC$CHROMATOGRAPHY: FLOW_RATE 200 uL/min
AC$CHROMATOGRAPHY: RETENTION_TIME 5.843 min
AC$CHROMATOGRAPHY: SOLVENT A Water with 0.01% formic acid and 1mM ammonium formate
AC$CHROMATOGRAPHY: SOLVENT B Acetonitrile:Water 95:5 with 0.01% formic acid and 1mM ammonium formate
MS$FOCUSED_ION: BASE_PEAK 388.1602
MS$FOCUSED_ION: PRECURSOR_M/Z 388.1586
MS$FOCUSED_ION: PRECURSOR_TYPE [M+H]+
MS$DATA_PROCESSING: RECALIBRATE identity on assigned fragments and MS1
MS$DATA_PROCESSING: WHOLE RMassBank 1.99.10
PK$SPLASH: splash10-000i-0009000000-5945a4f0ce3357b3e503
PK$ANNOTATION: m/z tentative_formula formula_count mass error(ppm)
  315.0696 C17H13ClFN2O+ 2 315.0695 0.24
  317.0835 C20H14ClN2+ 2 317.084 -1.72
  388.1608 C21H24ClFN3O+ 1 388.1586 5.49
PK$NUM_PEAK: 3
PK$PEAK: m/z int. rel.int.
  315.0696 101720 40
  317.0835 32656 12
  388.1608 2513560 999
//
