ACCESSION: MSBNK-Athens_Univ-AU235201
RECORD_TITLE: Fluconazole; LC-ESI-QTOF; MS2; CE: 10 eV; R=35000; [M+H]+
DATE: 2019.05.30
AUTHORS: Nikiforos Alygizakis, Katerina Galani, Nikolaos Thomaidis, University of Athens
LICENSE: CC BY
COPYRIGHT: Copyright (C) 2019 Department of Chemistry, University of Athens
COMMENT: CONFIDENCE standard compound
COMMENT: INTERNAL_ID 2352
CH$NAME: Fluconazole
CH$NAME: 2-(2,4-difluorophenyl)-1,3-bis(1,2,4-triazol-1-yl)propan-2-ol
CH$COMPOUND_CLASS: N/A; Environmental Standard
CH$FORMULA: C13H12F2N6O
CH$EXACT_MASS: 306.1040654
CH$SMILES: OC(CN1C=NC=N1)(CN1C=NC=N1)C1=C(F)C=C(F)C=C1
CH$IUPAC: InChI=1S/C13H12F2N6O/c14-10-1-2-11(12(15)3-10)13(22,4-20-8-16-6-18-20)5-21-9-17-7-19-21/h1-3,6-9,22H,4-5H2
CH$LINK: CAS 86386-73-4
CH$LINK: CHEBI CHEBI:46081
CH$LINK: KEGG D00322
CH$LINK: PUBCHEM CID:3365
CH$LINK: INCHIKEY RFHAOTPXVQNOHP-UHFFFAOYSA-N
CH$LINK: CHEMSPIDER 3248
CH$LINK: COMPTOX DTXSID3020627
AC$INSTRUMENT: Bruker maXis Impact
AC$INSTRUMENT_TYPE: LC-ESI-QTOF
AC$MASS_SPECTROMETRY: MS_TYPE MS2
AC$MASS_SPECTROMETRY: ION_MODE POSITIVE
AC$MASS_SPECTROMETRY: IONIZATION ESI
AC$MASS_SPECTROMETRY: FRAGMENTATION_MODE CID
AC$MASS_SPECTROMETRY: COLLISION_ENERGY 10 eV
AC$MASS_SPECTROMETRY: RESOLUTION 35000
AC$CHROMATOGRAPHY: COLUMN_NAME Acclaim RSLC C18 2.2um, 2.1x100mm, Thermo
AC$CHROMATOGRAPHY: FLOW_GRADIENT 99/1 at 0-1 min, 61/39 at 3 min, 0.1/99.9 at 14-16 min, 99/1 at 16.1-20 min
AC$CHROMATOGRAPHY: FLOW_RATE 200 uL/min at 0-3 min, 400 uL/min at 14 min, 480 uL/min at 16-19 min, 200 uL/min at 19.1-20 min
AC$CHROMATOGRAPHY: RETENTION_TIME 5.133 min
AC$CHROMATOGRAPHY: SOLVENT A 90:10 water:methanol with 0.01% formic acid and 5mM ammonium formate
AC$CHROMATOGRAPHY: SOLVENT B methanol with 0.01% formic acid and 5mM ammonium formate
MS$FOCUSED_ION: BASE_PEAK 266.1657
MS$FOCUSED_ION: PRECURSOR_M/Z 307.1113
MS$FOCUSED_ION: PRECURSOR_TYPE [M+H]+
MS$DATA_PROCESSING: RECALIBRATE identity on assigned fragments and MS1
MS$DATA_PROCESSING: WHOLE RMassBank 2.10.1
PK$SPLASH: splash10-0a4i-0019000000-840c1fc6449941022e45
PK$ANNOTATION: m/z tentative_formula formula_count mass error(ppm)
  220.0671 C11H8F2N3+ 4 220.0681 -4.54
  221.0707 C10[13]CH8F2N3+ 1 221.072 -5.79
  238.0782 C9H8F2N6+ 3 238.0773 3.7
  239.0812 C8[13]CH8F2N6+ 1 239.0812 0.1
  289.0995 C13H11F2N6+ 1 289.1008 -4.5
  307.1114 C13H13F2N6O+ 1 307.1113 0.24
  308.1138 C12[13]CH13F2N6O+ 1 308.1152 -4.69
  309.1157 C11[13]C2H13F2N6O+ 1 309.1186 -9.26
PK$NUM_PEAK: 8
PK$PEAK: m/z int. rel.int.
  220.0671 37832 63
  221.0707 5316 8
  238.0782 64104 108
  239.0812 7496 12
  289.0995 11052 18
  307.1114 591748 999
  308.1138 82208 138
  309.1157 5992 10
//
