ACCESSION: MSBNK-Athens_Univ-AU223602
RECORD_TITLE: 4-Hydroxy-Benzotriazol; LC-ESI-QTOF; MS2; CE: 20 eV; R=35000; [M+H]+
DATE: 2015.12.05
AUTHORS: Nikiforos Alygizakis, Nikolaos Thomaidis, University of Athens
LICENSE: CC BY-SA
COPYRIGHT: Copyright (C) 2015 Department of Chemistry, University of Athens
COMMENT: CONFIDENCE standard compound
COMMENT: INTERNAL_ID 2236
CH$NAME: 4-Hydroxybenzotriazole
CH$NAME: 1,2-dihydrobenzotriazol-4-one
CH$NAME: 2H-benzotriazol-4-ol
CH$NAME: 4-Hydroxy-1H-benzotriazole
CH$COMPOUND_CLASS: N/A; Environmental Standard
CH$FORMULA: C6H5N3O
CH$EXACT_MASS: 135.04326178
CH$SMILES: C1=CC2=NNN=C2C(=C1)O
CH$IUPAC: InChI=1S/C6H5N3O/c10-5-3-1-2-4-6(5)8-9-7-4/h1-3,10H,(H,7,8,9)
CH$LINK: CAS 26725-51-9
CH$LINK: CHEMSPIDER 10607767
CH$LINK: COMPTOX DTXSID90374722
CH$LINK: INCHIKEY JMTMSDXUXJISAY-UHFFFAOYSA-N
CH$LINK: PUBCHEM CID:135399369
AC$INSTRUMENT: Bruker maXis Impact
AC$INSTRUMENT_TYPE: LC-ESI-QTOF
AC$MASS_SPECTROMETRY: MS_TYPE MS2
AC$MASS_SPECTROMETRY: ION_MODE POSITIVE
AC$MASS_SPECTROMETRY: IONIZATION ESI
AC$MASS_SPECTROMETRY: FRAGMENTATION_MODE CID
AC$MASS_SPECTROMETRY: COLLISION_ENERGY 20 eV
AC$MASS_SPECTROMETRY: RESOLUTION 35000
AC$CHROMATOGRAPHY: COLUMN_NAME Acclaim RSLC C18 2.2um, 2.1x100mm, Thermo
AC$CHROMATOGRAPHY: FLOW_GRADIENT 99/1 at 0-1 min, 61/39 at 3 min, 0.1/99.9 at 14-16 min, 99/1 at 16.1-20 min
AC$CHROMATOGRAPHY: FLOW_RATE 200 uL/min at 0-3 min, 400 uL/min at 14 min, 480 uL/min at 16-19 min, 200 uL/min at 19.1-20 min
AC$CHROMATOGRAPHY: RETENTION_TIME 3.9 min
AC$CHROMATOGRAPHY: SOLVENT A 90:10 water:methanol with 0.01% formic acid and 5mM ammonium formate
AC$CHROMATOGRAPHY: SOLVENT B methanol with 0.01% formic acid and 5mM ammonium formate
MS$FOCUSED_ION: BASE_PEAK 136.0497
MS$FOCUSED_ION: PRECURSOR_M/Z 136.0505
MS$FOCUSED_ION: PRECURSOR_TYPE [M+H]+
MS$DATA_PROCESSING: RECALIBRATE identity on assigned fragments and MS1
MS$DATA_PROCESSING: REANALYZE Peaks with additional N2/O included
MS$DATA_PROCESSING: WHOLE RMassBank 2.0.3
PK$SPLASH: splash10-000i-0900000000-67bb0c20d422416ca099
PK$ANNOTATION: m/z tentative_formula formula_count mass error(ppm)
  121.0408 C6H5N2O+ 1 121.0396 9.95
  136.0497 C6H6N3O+ 1 136.0505 -6.38
  137.0526 C5[13]CH6N3O+ 1 137.053 -2.92
PK$NUM_PEAK: 3
PK$PEAK: m/z int. rel.int.
  121.0408 488 40
  136.0497 11976 999
  137.0526 1212 101
//
