ACCESSION: MSBNK-Athens_Univ-AU270102
RECORD_TITLE: N-Formyl-4-aminoantipyrine; LC-ESI-QTOF; MS2; CE: 20 eV; R=35000; [M+H]+
DATE: 2019.05.30
AUTHORS: Nikiforos Alygizakis, Katerina Galani, Nikolaos Thomaidis, University of Athens
LICENSE: CC BY
COPYRIGHT: Copyright (C) 2019 Department of Chemistry, University of Athens
COMMENT: CONFIDENCE standard compound
COMMENT: INTERNAL_ID 2701
CH$NAME: N-Formyl-4-aminoantipyrine
CH$NAME: 4-Formylaminoantipyrine
CH$NAME: N-(1,5-dimethyl-3-oxo-2-phenylpyrazol-4-yl)formamide
CH$COMPOUND_CLASS: N/A; Environmental Standard
CH$FORMULA: C12H13N3O2
CH$EXACT_MASS: 231.1007767
CH$SMILES: CN1N(C(=O)C(NC=O)=C1C)C1=CC=CC=C1
CH$IUPAC: InChI=1S/C12H13N3O2/c1-9-11(13-8-16)12(17)15(14(9)2)10-6-4-3-5-7-10/h3-8H,1-2H3,(H,13,16)
CH$LINK: CAS 1672-58-8
CH$LINK: CHEBI CHEBI:83526
CH$LINK: PUBCHEM CID:72666
CH$LINK: INCHIKEY WSJBSKRPKADYRQ-UHFFFAOYSA-N
CH$LINK: CHEMSPIDER 65525
CH$LINK: COMPTOX DTXSID10168241
AC$INSTRUMENT: Bruker maXis Impact
AC$INSTRUMENT_TYPE: LC-ESI-QTOF
AC$MASS_SPECTROMETRY: MS_TYPE MS2
AC$MASS_SPECTROMETRY: ION_MODE POSITIVE
AC$MASS_SPECTROMETRY: IONIZATION ESI
AC$MASS_SPECTROMETRY: FRAGMENTATION_MODE CID
AC$MASS_SPECTROMETRY: COLLISION_ENERGY 20 eV
AC$MASS_SPECTROMETRY: RESOLUTION 35000
AC$CHROMATOGRAPHY: COLUMN_NAME Acclaim RSLC C18 2.2um, 2.1x100mm, Thermo
AC$CHROMATOGRAPHY: FLOW_GRADIENT 99/1 at 0-1 min, 61/39 at 3 min, 0.1/99.9 at 14-16 min, 99/1 at 16.1-20 min
AC$CHROMATOGRAPHY: FLOW_RATE 200 uL/min at 0-3 min, 400 uL/min at 14 min, 480 uL/min at 16-19 min, 200 uL/min at 19.1-20 min
AC$CHROMATOGRAPHY: RETENTION_TIME 4.012 min
AC$CHROMATOGRAPHY: SOLVENT A 90:10 water:methanol with 0.01% formic acid and 5mM ammonium formate
AC$CHROMATOGRAPHY: SOLVENT B methanol with 0.01% formic acid and 5mM ammonium formate
MS$FOCUSED_ION: BASE_PEAK 232.1081
MS$FOCUSED_ION: PRECURSOR_M/Z 232.1081
MS$FOCUSED_ION: PRECURSOR_TYPE [M+H]+
MS$DATA_PROCESSING: RECALIBRATE identity on assigned fragments and MS1
MS$DATA_PROCESSING: WHOLE RMassBank 2.10.1
PK$SPLASH: splash10-0ik9-0290000000-b0c22427ffa3198142eb
PK$ANNOTATION: m/z tentative_formula formula_count mass error(ppm)
  118.0643 C8H8N+ 1 118.0651 -6.67
  130.0642 C9H8N+ 2 130.0651 -7.4
  132.0435 C8H6NO+ 1 132.0444 -6.79
  145.0751 C9H9N2+ 1 145.076 -6.51
  146.0587 C9H8NO+ 1 146.06 -8.89
  147.0581 C8H7N2O+ 1 147.0553 18.82
  158.0587 C10H8NO+ 1 158.06 -8.38
  159.0906 C10H11N2+ 1 159.0917 -6.89
  160.0939 C9[13]CH11N2+ 1 160.0956 -10.42
  171.0905 C11H11N2+ 1 171.0917 -6.82
  172.086 C10H10N3+ 2 172.0869 -5.46
  173.0696 C10H9N2O+ 1 173.0709 -7.46
  174.0736 C9[13]CH9N2O+ 1 174.0748 -7.18
  176.1171 C10H14N3+ 1 176.1182 -6.11
  185.0694 C11H9N2O+ 1 185.0709 -8.49
  186.1012 C11H12N3+ 1 186.1026 -7.4
  187.0856 C11H11N2O+ 1 187.0866 -5.44
  188.0889 C10[13]CH11N2O+ 1 188.0905 -8.53
  189.0883 C10H11N3O+ 2 189.0897 -7.06
  190.092 C9[13]CH11N3O+ 1 190.0936 -8.05
  199.0726 C11H9N3O+ 1 199.074 -7.23
  204.1124 C11H14N3O+ 1 204.1131 -3.82
  205.1152 C10[13]CH14N3O+ 1 205.117 -9.06
  206.1185 C9[13]C2H14N3O+ 1 206.1204 -9.39
  214.0968 C12H12N3O+ 1 214.0975 -3.29
  215.0998 C11[13]CH12N3O+ 1 215.1014 -7.47
  216.1024 C10[13]C2H12N3O+ 1 216.1047 -10.76
  232.1075 C12H14N3O2+ 1 232.1081 -2.56
  233.1101 C11[13]CH14N3O2+ 1 233.112 -8.07
PK$NUM_PEAK: 29
PK$PEAK: m/z int. rel.int.
  118.0643 3256 5
  130.0642 5152 8
  132.0435 3760 6
  145.0751 19820 32
  146.0587 33236 54
  147.0581 3804 6
  158.0587 9296 15
  159.0906 98492 160
  160.0939 10988 17
  171.0905 3816 6
  172.086 5792 9
  173.0696 30344 49
  174.0736 3572 5
  176.1171 4228 6
  185.0694 4756 7
  186.1012 6240 10
  187.0856 100860 164
  188.0889 11744 19
  189.0883 25064 40
  190.092 3580 5
  199.0726 9496 15
  204.1124 387716 632
  205.1152 38440 62
  206.1185 3208 5
  214.0968 612772 999
  215.0998 69160 112
  216.1024 5176 8
  232.1075 235208 383
  233.1101 31196 50
//
