ACCESSION: MSBNK-Athens_Univ-AU270602
RECORD_TITLE: Miconazole; LC-ESI-QTOF; MS2; CE: 20 eV; R=35000; [M+H]+
DATE: 2019.05.30
AUTHORS: Nikiforos Alygizakis, Katerina Galani, Nikolaos Thomaidis, University of Athens
LICENSE: CC BY
COPYRIGHT: Copyright (C) 2019 Department of Chemistry, University of Athens
COMMENT: CONFIDENCE standard compound
COMMENT: INTERNAL_ID 2706
CH$NAME: Miconazole
CH$NAME: 1-[2-(2,4-dichlorophenyl)-2-[(2,4-dichlorophenyl)methoxy]ethyl]imidazole
CH$COMPOUND_CLASS: N/A; Environmental Standard
CH$FORMULA: C18H14Cl4N2O
CH$EXACT_MASS: 413.9860238
CH$SMILES: ClC1=CC(Cl)=C(COC(CN2C=CN=C2)C2=C(Cl)C=C(Cl)C=C2)C=C1
CH$IUPAC: InChI=1S/C18H14Cl4N2O/c19-13-2-1-12(16(21)7-13)10-25-18(9-24-6-5-23-11-24)15-4-3-14(20)8-17(15)22/h1-8,11,18H,9-10H2
CH$LINK: CAS 75319-47-0
CH$LINK: CHEBI CHEBI:82892
CH$LINK: KEGG D00416
CH$LINK: PUBCHEM CID:4189
CH$LINK: INCHIKEY BYBLEWFAAKGYCD-UHFFFAOYSA-N
CH$LINK: CHEMSPIDER 4044
CH$LINK: COMPTOX DTXSID6023319
AC$INSTRUMENT: Bruker maXis Impact
AC$INSTRUMENT_TYPE: LC-ESI-QTOF
AC$MASS_SPECTROMETRY: MS_TYPE MS2
AC$MASS_SPECTROMETRY: ION_MODE POSITIVE
AC$MASS_SPECTROMETRY: IONIZATION ESI
AC$MASS_SPECTROMETRY: FRAGMENTATION_MODE CID
AC$MASS_SPECTROMETRY: COLLISION_ENERGY 20 eV
AC$MASS_SPECTROMETRY: RESOLUTION 35000
AC$CHROMATOGRAPHY: COLUMN_NAME Acclaim RSLC C18 2.2um, 2.1x100mm, Thermo
AC$CHROMATOGRAPHY: FLOW_GRADIENT 99/1 at 0-1 min, 61/39 at 3 min, 0.1/99.9 at 14-16 min, 99/1 at 16.1-20 min
AC$CHROMATOGRAPHY: FLOW_RATE 200 uL/min at 0-3 min, 400 uL/min at 14 min, 480 uL/min at 16-19 min, 200 uL/min at 19.1-20 min
AC$CHROMATOGRAPHY: RETENTION_TIME 10.485 min
AC$CHROMATOGRAPHY: SOLVENT A 90:10 water:methanol with 0.01% formic acid and 5mM ammonium formate
AC$CHROMATOGRAPHY: SOLVENT B methanol with 0.01% formic acid and 5mM ammonium formate
MS$FOCUSED_ION: BASE_PEAK 432.2378
MS$FOCUSED_ION: PRECURSOR_M/Z 414.9933
MS$FOCUSED_ION: PRECURSOR_TYPE [M+H]+
MS$DATA_PROCESSING: RECALIBRATE identity on assigned fragments and MS1
MS$DATA_PROCESSING: WHOLE RMassBank 2.10.1
PK$SPLASH: splash10-014r-0900000000-88ad1ad97a03f81cb62b
PK$ANNOTATION: m/z tentative_formula formula_count mass error(ppm)
  119.0852 C9H11+ 1 119.0855 -2.53
  120.089 C8[13]CH11+ 1 120.0894 -3.27
  135.0794 C9H11O+ 2 135.0804 -7.73
PK$NUM_PEAK: 3
PK$PEAK: m/z int. rel.int.
  119.0852 2996 999
  120.089 452 150
  135.0794 1620 540
//
