ACCESSION: MSBNK-Athens_Univ-AU253203
RECORD_TITLE: Nicosulfuron; LC-ESI-QTOF; MS2; CE: 30 eV; R=35000; [M+H]+
DATE: 2019.05.29
AUTHORS: Nikiforos Alygizakis, Katerina Galani, Nikolaos Thomaidis, University of Athens
LICENSE: CC BY
COPYRIGHT: Copyright (C) 2019 Department of Chemistry, University of Athens
COMMENT: CONFIDENCE standard compound
COMMENT: INTERNAL_ID 2532
CH$NAME: Nicosulfuron
CH$NAME: 2-[(4,6-dimethoxypyrimidin-2-yl)carbamoylsulfamoyl]-N,N-dimethylpyridine-3-carboxamide
CH$COMPOUND_CLASS: N/A; Environmental Standard
CH$FORMULA: C15H18N6O6S
CH$EXACT_MASS: 410.1008533
CH$SMILES: COC1=CC(OC)=NC(NC(=O)NS(=O)(=O)C2=NC=CC=C2C(=O)N(C)C)=N1
CH$IUPAC: InChI=1S/C15H18N6O6S/c1-21(2)13(22)9-6-5-7-16-12(9)28(24,25)20-15(23)19-14-17-10(26-3)8-11(18-14)27-4/h5-8H,1-4H3,(H2,17,18,19,20,23)
CH$LINK: CAS 112750-03-5
CH$LINK: CHEBI CHEBI:7554
CH$LINK: KEGG C10949
CH$LINK: PUBCHEM CID:73281
CH$LINK: INCHIKEY RTCOGUMHFFWOJV-UHFFFAOYSA-N
CH$LINK: CHEMSPIDER 66024
CH$LINK: COMPTOX DTXSID6034764
AC$INSTRUMENT: Bruker maXis Impact
AC$INSTRUMENT_TYPE: LC-ESI-QTOF
AC$MASS_SPECTROMETRY: MS_TYPE MS2
AC$MASS_SPECTROMETRY: ION_MODE POSITIVE
AC$MASS_SPECTROMETRY: IONIZATION ESI
AC$MASS_SPECTROMETRY: FRAGMENTATION_MODE CID
AC$MASS_SPECTROMETRY: COLLISION_ENERGY 30 eV
AC$MASS_SPECTROMETRY: RESOLUTION 35000
AC$CHROMATOGRAPHY: COLUMN_NAME Acclaim RSLC C18 2.2um, 2.1x100mm, Thermo
AC$CHROMATOGRAPHY: FLOW_GRADIENT 99/1 at 0-1 min, 61/39 at 3 min, 0.1/99.9 at 14-16 min, 99/1 at 16.1-20 min
AC$CHROMATOGRAPHY: FLOW_RATE 200 uL/min at 0-3 min, 400 uL/min at 14 min, 480 uL/min at 16-19 min, 200 uL/min at 19.1-20 min
AC$CHROMATOGRAPHY: RETENTION_TIME 6.710 min
AC$CHROMATOGRAPHY: SOLVENT A 90:10 water:methanol with 0.01% formic acid and 5mM ammonium formate
AC$CHROMATOGRAPHY: SOLVENT B methanol with 0.01% formic acid and 5mM ammonium formate
MS$FOCUSED_ION: BASE_PEAK 411.108
MS$FOCUSED_ION: PRECURSOR_M/Z 411.1081
MS$FOCUSED_ION: PRECURSOR_TYPE [M+H]+
MS$DATA_PROCESSING: RECALIBRATE identity on assigned fragments and MS1
MS$DATA_PROCESSING: WHOLE RMassBank 2.10.1
PK$SPLASH: splash10-001i-0920000000-d78dacb7bb96f0e1d382
PK$ANNOTATION: m/z tentative_formula formula_count mass error(ppm)
  139.0489 C4H5N5O+ 6 139.0489 -0.01
  156.0752 C4H8N6O+ 8 156.0754 -1.3
  157.0593 C4H7N5O2+ 7 157.0594 -0.92
  157.0782 C3[13]CH8N6O+ 1 157.0793 -7.01
  182.0551 C7H8N3O3+ 10 182.056 -5.01
  183.0579 C6[13]CH8N3O3+ 1 183.0599 -10.81
  184.0594 C7H8N3O2[18]O+ 1 184.0608 -7.92
  213.0321 C8H9N2O3S+ 11 213.0328 -3.46
  214.0356 C7[13]CH9N2O3S+ 1 214.0367 -5.57
  215.029 C8H9N2O3[34]S+ 1 215.0292 -0.63
  256.0378 C15H4N4O+ 11 256.038 -0.62
  259.0812 C4H15N6O5S+ 12 259.0819 -2.58
PK$NUM_PEAK: 12
PK$PEAK: m/z int. rel.int.
  139.0489 7192 22
  156.0752 26972 84
  157.0593 10172 32
  157.0782 1676 5
  182.0551 317024 999
  183.0579 29508 92
  184.0594 2900 9
  213.0321 96224 303
  214.0356 9388 29
  215.029 3768 11
  256.0378 2544 8
  259.0812 5408 17
//
