ACCESSION: MSBNK-Athens_Univ-AU502210
RECORD_TITLE: Dodecyl acrylate; GC-APCI-QTOF; MS2; CE: 50 eV; R=35000; [M]+
DATE: 2021.04.20
AUTHORS: Chrysoula Kanakaki, Nikiforos Alygizakis, Nikolaos Thomaidis, University of Athens
LICENSE: CC BY
COPYRIGHT: Copyright (C) 2021 Department of Chemistry, University of Athens
COMMENT: CONFIDENCE standard compound
COMMENT: INTERNAL_ID 5022
CH$NAME: Dodecyl acrylate
CH$COMPOUND_CLASS: N/A; Food Contact Material
CH$FORMULA: C15H28O2
CH$EXACT_MASS: 240.2089
CH$SMILES: CCCCCCCCCCCCOC(=O)C=C
CH$IUPAC: InChI=1S/C15H28O2/c1-3-5-6-7-8-9-10-11-12-13-14-17-15(16)4-2/h4H,2-3,5-14H2,1H3
CH$LINK: CAS 2156-97-0
CH$LINK: PUBCHEM CID:75084
CH$LINK: INCHIKEY PBOSTUDLECTMNL-UHFFFAOYSA-N
CH$LINK: CHEMSPIDER 67636
AC$INSTRUMENT: Bruker 450 GC coupled to maXis Impact
AC$INSTRUMENT_TYPE: GC-APCI-QTOF
AC$MASS_SPECTROMETRY: MS_TYPE MS2
AC$MASS_SPECTROMETRY: ION_MODE POSITIVE
AC$MASS_SPECTROMETRY: IONIZATION APCI
AC$MASS_SPECTROMETRY: FRAGMENTATION_MODE CID
AC$MASS_SPECTROMETRY: COLLISION_ENERGY 50 eV
AC$MASS_SPECTROMETRY: RESOLUTION 35000
AC$CHROMATOGRAPHY: COLUMN_NAME Rxi-5Sil MS column, 30m, 0.25mm i.d., 0.25µm film thickness, Restek
AC$CHROMATOGRAPHY: COLUMN_TEMPERATURE_GRADIENT 55oC at 0 min, 55oC at 3 min, 180oC at 11.33 min with 15oC/min, 280oC at 26.72 min with 6.5oC/min, 280oC at 31.72 min, 300oC at 33.72 min with 10oC/min, 300oC at 39 min
AC$CHROMATOGRAPHY: FLOW_RATE 1.5 mL/min
AC$CHROMATOGRAPHY: RETENTION_TIME 14.197 min
AC$CHROMATOGRAPHY: SOLVENT A Helium
MS$FOCUSED_ION: BASE_PEAK 270.2054
MS$FOCUSED_ION: PRECURSOR_M/Z 240.2084
MS$FOCUSED_ION: PRECURSOR_TYPE [M]+
MS$DATA_PROCESSING: RECALIBRATE identity on assigned fragments and MS1
MS$DATA_PROCESSING: WHOLE RMassBank 2.16.0
PK$SPLASH: splash10-0a4i-9000000000-e099642a49044ebbc014
PK$ANNOTATION: m/z tentative_formula formula_count mass error(ppm)
  55.0545 C4H7+ 1 55.0542 4.53
  57.0704 C4H9+ 1 57.0699 8.41
  79.0553 C6H7+ 1 79.0542 12.99
PK$NUM_PEAK: 3
PK$PEAK: m/z int. rel.int.
  55.0545 272 999
  57.0704 252 925
  79.0553 136 499
//
