ACCESSION: MSBNK-Athens_Univ-AU510656
RECORD_TITLE: 3-Perfluoropentyl propanoic acid (5:3) (FPePA); LC-ESI-QTOF; MS2; CE: 22.4-36.6 eV; R=35000; [M-H]-
DATE: 2023.04.25
AUTHORS: Konstantina Diamanti, Georgios Gkotsis, Nikiforos Alygizakis, Nikolaos Thomaidis
LICENSE: CC BY
COPYRIGHT: Copyright (C) 2023 Department of Chemistry, University of Athens
COMMENT: CONFIDENCE standard compound
COMMENT: INTERNAL_ID 5106
CH$NAME: 3-Perfluoropentyl propanoic acid (5:3) (FPePA)
CH$COMPOUND_CLASS: N/A; Environmental Standard
CH$FORMULA: C8H5F11O2
CH$EXACT_MASS: 342.0114
CH$SMILES: C(CC(C(C(C(C(F)(F)F)(F)F)(F)F)(F)F)(F)F)C(=O)O
CH$IUPAC: InChI=1S/C8H5F11O2/c9-4(10,2-1-3(20)21)5(11,12)6(13,14)7(15,16)8(17,18)19/h1-2H2,(H,20,21)
CH$LINK: CAS 914637-49-3
CH$LINK: PUBCHEM CID:14632790
CH$LINK: INCHIKEY ABFCFCPCGMHSRX-UHFFFAOYSA-N
CH$LINK: CHEMSPIDER 15880339
AC$INSTRUMENT: Bruker maXis Impact
AC$INSTRUMENT_TYPE: LC-ESI-QTOF
AC$MASS_SPECTROMETRY: MS_TYPE MS2
AC$MASS_SPECTROMETRY: MODE NEGATIVE
AC$MASS_SPECTROMETRY: IONIZATION ESI
AC$MASS_SPECTROMETRY: FRAGMENTATION_MODE CID
AC$MASS_SPECTROMETRY: COLLISION_ENERGY 22.4-36.6 eV
AC$MASS_SPECTROMETRY: RESOLUTION 35000
AC$MASS_SPECTROMETRY: MASS_RANGE_M/Z 50-1000
AC$CHROMATOGRAPHY: COLUMN_NAME Acclaim RSLC C18 2.2um, 2.1x100mm, Thermo
AC$CHROMATOGRAPHY: FLOW_GRADIENT 99/1 at 0-1 min, 61/39 at 3 min, 0.1/99.9 at 14-16 min, 99/1 at 16.1-20 min
AC$CHROMATOGRAPHY: FLOW_RATE 200 uL/min at 0-3 min, 400 uL/min at 14 min, 480 uL/min at 16-19 min, 200 uL/min at 19.1-20 min
AC$CHROMATOGRAPHY: RETENTION_TIME 8.980 min
MS$FOCUSED_ION: BASE_PEAK 59.0128
MS$FOCUSED_ION: PRECURSOR_M/Z 341.0041
MS$FOCUSED_ION: PRECURSOR_TYPE [M-H]-
MS$DATA_PROCESSING: RECALIBRATE identity on assigned fragments and MS1
MS$DATA_PROCESSING: WHOLE RMassBank 3.9.0
PK$SPLASH: splash10-014i-0090000000-f2027796fe6a4128debe
PK$ANNOTATION: m/z tentative_formula formula_count mass error(ppm)
  62.9882 CFO2- 1 62.9888 -8.52
  216.9893 C7F7- 3 216.9894 -0.55
  236.9946 C7HF8- 3 236.9956 -4.14
  280.985 C8HF8O2- 2 280.9854 -1.48
PK$NUM_PEAK: 4
PK$PEAK: m/z int. rel.int.
  62.9882 1012 52
  216.9893 19356 999
  236.9946 3280 169
  280.985 716 36
//
