ACCESSION: MSBNK-Athens_Univ-AU507608
RECORD_TITLE: 2,4-Dihydroxybenzophenone; GC-APCI-QTOF; MS2; CE: 30 eV; R=35000; [M]+
DATE: 2021.04.20
AUTHORS: Chrysoula Kanakaki, Nikiforos Alygizakis, Nikolaos Thomaidis, University of Athens
LICENSE: CC BY
COPYRIGHT: Copyright (C) 2021 Department of Chemistry, University of Athens
COMMENT: CONFIDENCE standard compound
COMMENT: INTERNAL_ID 5076
CH$NAME: 2,4-Dihydroxybenzophenone
CH$COMPOUND_CLASS: N/A; Food Contact Material
CH$FORMULA: C13H10O3
CH$EXACT_MASS: 214.0630
CH$SMILES: C1=CC=C(C=C1)C(=O)C2=C(C=C(C=C2)O)O
CH$IUPAC: InChI=1S/C13H10O3/c14-10-6-7-11(12(15)8-10)13(16)9-4-2-1-3-5-9/h1-8,14-15H
CH$LINK: CAS 131-56-6
CH$LINK: CHEBI CHEBI:34240
CH$LINK: KEGG C14215
CH$LINK: PUBCHEM CID:8572
CH$LINK: INCHIKEY ZXDDPOHVAMWLBH-UHFFFAOYSA-N
CH$LINK: CHEMSPIDER 8254
AC$INSTRUMENT: Bruker 450 GC coupled to maXis Impact
AC$INSTRUMENT_TYPE: GC-APCI-QTOF
AC$MASS_SPECTROMETRY: MS_TYPE MS2
AC$MASS_SPECTROMETRY: ION_MODE POSITIVE
AC$MASS_SPECTROMETRY: IONIZATION APCI
AC$MASS_SPECTROMETRY: FRAGMENTATION_MODE CID
AC$MASS_SPECTROMETRY: COLLISION_ENERGY 30 eV
AC$MASS_SPECTROMETRY: RESOLUTION 35000
AC$CHROMATOGRAPHY: COLUMN_NAME Rxi-5Sil MS column, 30m, 0.25mm i.d., 0.25µm film thickness, Restek
AC$CHROMATOGRAPHY: COLUMN_TEMPERATURE_GRADIENT 55oC at 0 min, 55oC at 3 min, 180oC at 11.33 min with 15oC/min, 280oC at 26.72 min with 6.5oC/min, 280oC at 31.72 min, 300oC at 33.72 min with 10oC/min, 300oC at 39 min
AC$CHROMATOGRAPHY: FLOW_RATE 1.5 mL/min
AC$CHROMATOGRAPHY: RETENTION_TIME 19.930 min
AC$CHROMATOGRAPHY: SOLVENT A Helium
MS$FOCUSED_ION: BASE_PEAK 309.2782
MS$FOCUSED_ION: PRECURSOR_M/Z 214.0624
MS$FOCUSED_ION: PRECURSOR_TYPE [M]+
MS$DATA_PROCESSING: RECALIBRATE identity on assigned fragments and MS1
MS$DATA_PROCESSING: WHOLE RMassBank 2.16.0
PK$SPLASH: splash10-03dr-0690000000-1caa5fe72932f5264e66
PK$ANNOTATION: m/z tentative_formula formula_count mass error(ppm)
  129.0678 C10H9+ 1 129.0699 -15.92
  137.023 C7H5O3+ 1 137.0233 -2.53
  138.0281 C7H6O3+ 1 138.0311 -22.05
  139.0544 C11H7+ 1 139.0542 1.42
  168.0582 C12H8O+ 1 168.057 7.3
  185.0603 C12H9O2+ 1 185.0597 3.32
  186.0667 C12H10O2+ 1 186.0675 -4.28
  213.0554 C13H9O3+ 1 213.0546 3.72
  214.059 C13H10O3+ 1 214.0624 -15.97
PK$NUM_PEAK: 9
PK$PEAK: m/z int. rel.int.
  129.0678 100 24
  137.023 2156 529
  138.0281 240 58
  139.0544 124 30
  168.0582 196 48
  185.0603 440 108
  186.0667 112 27
  213.0554 4064 999
  214.059 488 119
//
