ACCESSION: MSBNK-Athens_Univ-AU247406
RECORD_TITLE: Triethylphosphate; LC-ESI-QTOF; MS2; CE: Ramp 17.4-26.1 eV; R=35000; [M+H]+
DATE: 2019.04.08
AUTHORS: Nikiforos Alygizakis, Katerina Galani, Nikolaos Thomaidis, University of Athens
LICENSE: CC BY
COPYRIGHT: Copyright (C) 2019 Department of Chemistry, University of Athens
COMMENT: CONFIDENCE standard compound
COMMENT: INTERNAL_ID 2474
CH$NAME: Triethylphosphate
CH$NAME: triethyl phosphate
CH$COMPOUND_CLASS: N/A; Environmental Standard
CH$FORMULA: C6H15O4P
CH$EXACT_MASS: 182.0707956
CH$SMILES: CCOP(=O)(OCC)OCC
CH$IUPAC: InChI=1S/C6H15O4P/c1-4-8-11(7,9-5-2)10-6-3/h4-6H2,1-3H3
CH$LINK: CAS 78-40-0
CH$LINK: CHEBI CHEBI:45927
CH$LINK: PUBCHEM CID:6535
CH$LINK: INCHIKEY DQWPFSLDHJDLRL-UHFFFAOYSA-N
CH$LINK: CHEMSPIDER 6287
CH$LINK: COMPTOX DTXSID8026228
AC$INSTRUMENT: Bruker maXis Impact
AC$INSTRUMENT_TYPE: LC-ESI-QTOF
AC$MASS_SPECTROMETRY: MS_TYPE MS2
AC$MASS_SPECTROMETRY: ION_MODE POSITIVE
AC$MASS_SPECTROMETRY: IONIZATION ESI
AC$MASS_SPECTROMETRY: FRAGMENTATION_MODE CID
AC$MASS_SPECTROMETRY: COLLISION_ENERGY Ramp 17.4-26.1 eV
AC$MASS_SPECTROMETRY: RESOLUTION 35000
AC$CHROMATOGRAPHY: COLUMN_NAME Acclaim RSLC C18 2.2um, 2.1x100mm, Thermo
AC$CHROMATOGRAPHY: FLOW_GRADIENT 99/1 at 0-1 min, 61/39 at 3 min, 0.1/99.9 at 14-16 min, 99/1 at 16.1-20 min
AC$CHROMATOGRAPHY: FLOW_RATE 200 uL/min at 0-3 min, 400 uL/min at 14 min, 480 uL/min at 16-19 min, 200 uL/min at 19.1-20 min
AC$CHROMATOGRAPHY: RETENTION_TIME 6.120 min
AC$CHROMATOGRAPHY: SOLVENT A 90:10 water:methanol with 0.01% formic acid and 5mM ammonium formate
AC$CHROMATOGRAPHY: SOLVENT B methanol with 0.01% formic acid and 5mM ammonium formate
MS$FOCUSED_ION: BASE_PEAK 183.0769
MS$FOCUSED_ION: PRECURSOR_M/Z 183.0781
MS$FOCUSED_ION: PRECURSOR_TYPE [M+H]+
MS$DATA_PROCESSING: RECALIBRATE identity on assigned fragments and MS1
MS$DATA_PROCESSING: WHOLE RMassBank 2.10.1
PK$SPLASH: splash10-056s-5900000000-86c6af6ef5153788a10d
PK$ANNOTATION: m/z tentative_formula formula_count mass error(ppm)
  98.9837 H4O4P+ 1 98.9842 -4.87
  127.0154 C2H8O4P+ 1 127.0155 -0.57
  155.0454 C4H12O4P+ 1 155.0468 -8.67
PK$NUM_PEAK: 3
PK$PEAK: m/z int. rel.int.
  98.9837 568 992
  127.0154 572 999
  155.0454 360 628
//
