ACCESSION: MSBNK-Athens_Univ-AU227905
RECORD_TITLE: Moclobemide; LC-ESI-QTOF; MS2; CE: 50 eV; R=35000; [M+H]+
DATE: 2018.12.19
AUTHORS: Nikiforos Alygizakis, Katerina Galani, Nikolaos Thomaidis, University of Athens
LICENSE: CC BY
COPYRIGHT: Copyright (C) 2018 Department of Chemistry, University of Athens
COMMENT: CONFIDENCE standard compound
COMMENT: INTERNAL_ID 2279
CH$NAME: Moclobemide
CH$NAME: 4-chloro-N-(2-morpholin-4-ylethyl)benzamide
CH$COMPOUND_CLASS: N/A; Environmental Standard
CH$FORMULA: C13H17ClN2O2
CH$EXACT_MASS: 268.0978555
CH$SMILES: c1cc(ccc1C(=O)NCCN2CCOCC2)Cl
CH$IUPAC: InChI=1S/C13H17ClN2O2/c14-12-3-1-11(2-4-12)13(17)15-5-6-16-7-9-18-10-8-16/h1-4H,5-10H2,(H,15,17)
CH$LINK: CAS 71320-77-9
CH$LINK: CHEBI CHEBI:83531
CH$LINK: KEGG D02561
CH$LINK: PUBCHEM CID:4235
CH$LINK: INCHIKEY YHXISWVBGDMDLQ-UHFFFAOYSA-N
CH$LINK: CHEMSPIDER 4087
CH$LINK: COMPTOX DTXSID9040554
AC$INSTRUMENT: Bruker maXis Impact
AC$INSTRUMENT_TYPE: LC-ESI-QTOF
AC$MASS_SPECTROMETRY: MS_TYPE MS2
AC$MASS_SPECTROMETRY: ION_MODE POSITIVE
AC$MASS_SPECTROMETRY: IONIZATION ESI
AC$MASS_SPECTROMETRY: FRAGMENTATION_MODE CID
AC$MASS_SPECTROMETRY: COLLISION_ENERGY 50 eV
AC$MASS_SPECTROMETRY: RESOLUTION 35000
AC$CHROMATOGRAPHY: COLUMN_NAME Acclaim RSLC C18 2.2um, 2.1x100mm, Thermo
AC$CHROMATOGRAPHY: FLOW_GRADIENT 99/1 at 0-1 min, 61/39 at 3 min, 0.1/99.9 at 14-16 min, 99/1 at 16.1-20 min
AC$CHROMATOGRAPHY: FLOW_RATE 200 uL/min at 0-3 min, 400 uL/min at 14 min, 480 uL/min at 16-19 min, 200 uL/min at 19.1-20 min
AC$CHROMATOGRAPHY: RETENTION_TIME 4.712 min
AC$CHROMATOGRAPHY: SOLVENT A 90:10 water:methanol with 0.01% formic acid and 5mM ammonium formate
AC$CHROMATOGRAPHY: SOLVENT B methanol with 0.01% formic acid and 5mM ammonium formate
MS$FOCUSED_ION: BASE_PEAK 189.1019
MS$FOCUSED_ION: PRECURSOR_M/Z 269.1051
MS$FOCUSED_ION: PRECURSOR_TYPE [M+H]+
MS$DATA_PROCESSING: RECALIBRATE identity on assigned fragments and MS1
MS$DATA_PROCESSING: WHOLE RMassBank 2.10.0
PK$SPLASH: splash10-000i-0900000000-3d029a9e6e04d510afce
PK$ANNOTATION: m/z tentative_formula formula_count mass error(ppm)
  110.9991 C6H4Cl+ 1 110.9996 -4.39
  112.9964 C6H4[37]Cl+ 1 112.9972 -7.38
  129.0089 C7HN2O+ 2 129.0083 3.98
  138.9935 C7H4ClO+ 1 138.9945 -7.44
  139.9969 C6[13]CH4ClO+ 1 139.9984 -10.97
  140.9905 C7H4[37]ClO+ 1 140.9921 -11.41
  141.9939 C5H3ClN2O+ 2 141.9928 7.19
  182.0355 C9H9ClNO+ 2 182.0367 -6.43
  183.0387 C8[13]CH9ClNO+ 1 183.0406 -10.58
  184.0323 C9H9[37]ClNO+ 1 184.0343 -10.69
PK$NUM_PEAK: 10
PK$PEAK: m/z int. rel.int.
  110.9991 19588 34
  112.9964 10268 18
  129.0089 4912 8
  138.9935 563856 999
  139.9969 32272 57
  140.9905 148980 263
  141.9939 4892 8
  182.0355 41996 74
  183.0387 4248 7
  184.0323 12648 22
//
