ACCESSION: MSBNK-Athens_Univ-AU268902
RECORD_TITLE: Clotrimazole; LC-ESI-QTOF; MS2; CE: 20 eV; R=35000; [M+H]+
DATE: 2019.05.30
AUTHORS: Nikiforos Alygizakis, Katerina Galani, Nikolaos Thomaidis, University of Athens
LICENSE: CC BY
COPYRIGHT: Copyright (C) 2019 Department of Chemistry, University of Athens
COMMENT: CONFIDENCE standard compound
COMMENT: INTERNAL_ID 2689
CH$NAME: Clotrimazole
CH$NAME: 1-[(2-chlorophenyl)-diphenylmethyl]imidazole
CH$COMPOUND_CLASS: N/A; Environmental Standard
CH$FORMULA: C22H17ClN2
CH$EXACT_MASS: 344.1080262
CH$SMILES: ClC1=CC=CC=C1C(N1C=CN=C1)(C1=CC=CC=C1)C1=CC=CC=C1
CH$IUPAC: InChI=1S/C22H17ClN2/c23-21-14-8-7-13-20(21)22(25-16-15-24-17-25,18-9-3-1-4-10-18)19-11-5-2-6-12-19/h1-17H
CH$LINK: CAS 23593-75-1
CH$LINK: CHEBI CHEBI:3764
CH$LINK: KEGG D00282
CH$LINK: PUBCHEM CID:2812
CH$LINK: INCHIKEY VNFPBHJOKIVQEB-UHFFFAOYSA-N
CH$LINK: CHEMSPIDER 2710
CH$LINK: COMPTOX DTXSID7029871
AC$INSTRUMENT: Bruker maXis Impact
AC$INSTRUMENT_TYPE: LC-ESI-QTOF
AC$MASS_SPECTROMETRY: MS_TYPE MS2
AC$MASS_SPECTROMETRY: ION_MODE POSITIVE
AC$MASS_SPECTROMETRY: IONIZATION ESI
AC$MASS_SPECTROMETRY: FRAGMENTATION_MODE CID
AC$MASS_SPECTROMETRY: COLLISION_ENERGY 20 eV
AC$MASS_SPECTROMETRY: RESOLUTION 35000
AC$CHROMATOGRAPHY: COLUMN_NAME Acclaim RSLC C18 2.2um, 2.1x100mm, Thermo
AC$CHROMATOGRAPHY: FLOW_GRADIENT 99/1 at 0-1 min, 61/39 at 3 min, 0.1/99.9 at 14-16 min, 99/1 at 16.1-20 min
AC$CHROMATOGRAPHY: FLOW_RATE 200 uL/min at 0-3 min, 400 uL/min at 14 min, 480 uL/min at 16-19 min, 200 uL/min at 19.1-20 min
AC$CHROMATOGRAPHY: RETENTION_TIME 11.187 min
AC$CHROMATOGRAPHY: SOLVENT A 90:10 water:methanol with 0.01% formic acid and 5mM ammonium formate
AC$CHROMATOGRAPHY: SOLVENT B methanol with 0.01% formic acid and 5mM ammonium formate
MS$FOCUSED_ION: BASE_PEAK 277.0782
MS$FOCUSED_ION: PRECURSOR_M/Z 345.1153
MS$FOCUSED_ION: PRECURSOR_TYPE [M+H]+
MS$DATA_PROCESSING: RECALIBRATE identity on assigned fragments and MS1
MS$DATA_PROCESSING: WHOLE RMassBank 2.10.1
PK$SPLASH: splash10-004i-0090000000-5fdb3dd280b703c1bcda
PK$ANNOTATION: m/z tentative_formula formula_count mass error(ppm)
  165.0688 C13H9+ 1 165.0699 -6.68
  166.0721 C12[13]CH9+ 1 166.0738 -10.16
  241.1007 C19H13+ 1 241.1012 -2.07
  242.1082 C19H14+ 1 242.109 -3.32
  277.0778 C19H14Cl+ 2 277.0779 -0.33
  278.0813 C18[13]CH14Cl+ 1 278.0818 -1.8
  279.075 C19H14[37]Cl+ 1 279.0755 -1.46
  280.0776 C17H13ClN2+ 1 280.0762 5.13
  327.0781 C22H14ClN+ 1 327.0809 -8.66
PK$NUM_PEAK: 9
PK$PEAK: m/z int. rel.int.
  165.0688 53080 41
  166.0721 6508 5
  241.1007 10444 8
  242.1082 13688 10
  277.0778 1275404 999
  278.0813 215856 169
  279.075 343216 268
  280.0776 40616 31
  327.0781 7260 5
//
