ACCESSION: MSBNK-Athens_Univ-AU284702
RECORD_TITLE: Trimethyloctylammonium; LC-ESI-QTOF; MS2; CE: 20 eV; R=35000; [M+H]+
DATE: 2019.05.31
AUTHORS: Nikiforos Alygizakis, Katerina Galani, Nikolaos Thomaidis, University of Athens
LICENSE: CC BY
COPYRIGHT: Copyright (C) 2019 Department of Chemistry, University of Athens
COMMENT: CONFIDENCE standard compound
COMMENT: INTERNAL_ID 2847
CH$NAME: Trimethyloctylammonium
CH$NAME: Octyltrimethylammonium
CH$NAME: trimethyl(octyl)azanium
CH$COMPOUND_CLASS: N/A; Environmental Standard
CH$FORMULA: [C11H26N]+
CH$EXACT_MASS: 172.2065248
CH$SMILES: CCCCCCCC[N+](C)(C)C
CH$IUPAC: InChI=1S/C11H26N/c1-5-6-7-8-9-10-11-12(2,3)4/h5-11H2,1-4H3/q+1
CH$LINK: CAS 15461-38-8
CH$LINK: CHEBI CHEBI:55321
CH$LINK: PUBCHEM CID:24950
CH$LINK: INCHIKEY HTKPDYSCAPSXIR-UHFFFAOYSA-N
CH$LINK: CHEMSPIDER 23324
CH$LINK: COMPTOX DTXSID10165674
AC$INSTRUMENT: Bruker maXis Impact
AC$INSTRUMENT_TYPE: LC-ESI-QTOF
AC$MASS_SPECTROMETRY: MS_TYPE MS2
AC$MASS_SPECTROMETRY: ION_MODE POSITIVE
AC$MASS_SPECTROMETRY: IONIZATION ESI
AC$MASS_SPECTROMETRY: FRAGMENTATION_MODE CID
AC$MASS_SPECTROMETRY: COLLISION_ENERGY 20 eV
AC$MASS_SPECTROMETRY: RESOLUTION 35000
AC$CHROMATOGRAPHY: COLUMN_NAME Acclaim RSLC C18 2.2um, 2.1x100mm, Thermo
AC$CHROMATOGRAPHY: FLOW_GRADIENT 99/1 at 0-1 min, 61/39 at 3 min, 0.1/99.9 at 14-16 min, 99/1 at 16.1-20 min
AC$CHROMATOGRAPHY: FLOW_RATE 200 uL/min at 0-3 min, 400 uL/min at 14 min, 480 uL/min at 16-19 min, 200 uL/min at 19.1-20 min
AC$CHROMATOGRAPHY: RETENTION_TIME 6.074 min
AC$CHROMATOGRAPHY: SOLVENT A 90:10 water:methanol with 0.01% formic acid and 5mM ammonium formate
AC$CHROMATOGRAPHY: SOLVENT B methanol with 0.01% formic acid and 5mM ammonium formate
MS$FOCUSED_ION: BASE_PEAK 172.2048
MS$FOCUSED_ION: PRECURSOR_M/Z 173.2138
MS$FOCUSED_ION: PRECURSOR_TYPE [M+H]+
MS$DATA_PROCESSING: RECALIBRATE identity on assigned fragments and MS1
MS$DATA_PROCESSING: WHOLE RMassBank 2.10.1
PK$SPLASH: splash10-00di-0900000000-7ba6a2cdd6fb7b3e1fae
PK$ANNOTATION: m/z tentative_formula formula_count mass error(ppm)
  172.2052 C11H26N+ 1 172.206 -4.58
  173.2081 C10[13]CH26N+ 1 173.2099 -10.4
  174.2106 C9[13]C2H26N+ 1 174.2132 -15.16
PK$NUM_PEAK: 3
PK$PEAK: m/z int. rel.int.
  172.2052 266560 999
  173.2081 38944 145
  174.2106 2048 7
//
