ACCESSION: MSBNK-Athens_Univ-AU264203
RECORD_TITLE: Metazachlor OA; LC-ESI-QTOF; MS2; CE: 30 eV; R=35000; [M+H]+
DATE: 2019.05.30
AUTHORS: Nikiforos Alygizakis, Katerina Galani, Nikolaos Thomaidis, University of Athens
LICENSE: CC BY
COPYRIGHT: Copyright (C) 2019 Department of Chemistry, University of Athens
COMMENT: CONFIDENCE standard compound
COMMENT: INTERNAL_ID 2642
CH$NAME: Metazachlor OA
CH$NAME: [(2,6-Dimethylphenyl)(1H-pyrazol-1-ylmethyl)amino](oxo)acetic acid
CH$NAME: 2-[2,6-dimethyl-N-(pyrazol-1-ylmethyl)anilino]-2-oxoacetic acid
CH$COMPOUND_CLASS: N/A; Environmental Standard
CH$FORMULA: C14H15N3O3
CH$EXACT_MASS: 273.1113413
CH$SMILES: CC1=CC=CC(C)=C1N(CN1C=CC=N1)C(=O)C(O)=O
CH$IUPAC: InChI=1S/C14H15N3O3/c1-10-5-3-6-11(2)12(10)17(13(18)14(19)20)9-16-8-4-7-15-16/h3-8H,9H2,1-2H3,(H,19,20)
CH$LINK: CHEBI CHEBI:83483
CH$LINK: PUBCHEM CID:86290103
CH$LINK: INCHIKEY PHMHHVKFXZNTKU-UHFFFAOYSA-N
CH$LINK: CHEMSPIDER 24721983
CH$LINK: COMPTOX DTXSID00891455
AC$INSTRUMENT: Bruker maXis Impact
AC$INSTRUMENT_TYPE: LC-ESI-QTOF
AC$MASS_SPECTROMETRY: MS_TYPE MS2
AC$MASS_SPECTROMETRY: ION_MODE POSITIVE
AC$MASS_SPECTROMETRY: IONIZATION ESI
AC$MASS_SPECTROMETRY: FRAGMENTATION_MODE CID
AC$MASS_SPECTROMETRY: COLLISION_ENERGY 30 eV
AC$MASS_SPECTROMETRY: RESOLUTION 35000
AC$CHROMATOGRAPHY: COLUMN_NAME Acclaim RSLC C18 2.2um, 2.1x100mm, Thermo
AC$CHROMATOGRAPHY: FLOW_GRADIENT 99/1 at 0-1 min, 61/39 at 3 min, 0.1/99.9 at 14-16 min, 99/1 at 16.1-20 min
AC$CHROMATOGRAPHY: FLOW_RATE 200 uL/min at 0-3 min, 400 uL/min at 14 min, 480 uL/min at 16-19 min, 200 uL/min at 19.1-20 min
AC$CHROMATOGRAPHY: RETENTION_TIME 5.093 min
AC$CHROMATOGRAPHY: SOLVENT A 90:10 water:methanol with 0.01% formic acid and 5mM ammonium formate
AC$CHROMATOGRAPHY: SOLVENT B methanol with 0.01% formic acid and 5mM ammonium formate
MS$FOCUSED_ION: BASE_PEAK 274.1175
MS$FOCUSED_ION: PRECURSOR_M/Z 274.1186
MS$FOCUSED_ION: PRECURSOR_TYPE [M+H]+
MS$DATA_PROCESSING: RECALIBRATE identity on assigned fragments and MS1
MS$DATA_PROCESSING: WHOLE RMassBank 2.10.1
PK$SPLASH: splash10-001i-0900000000-91085beb66e7ca96d87e
PK$ANNOTATION: m/z tentative_formula formula_count mass error(ppm)
  118.0637 C5H10O3+ 3 118.0624 10.23
  119.0715 C5H11O3+ 3 119.0703 10.66
  132.0797 C9H10N+ 3 132.0808 -8.48
  134.0948 C9H12N+ 3 134.0964 -12.08
  135.0984 C8[13]CH12N+ 1 135.1003 -14.62
  160.0728 C5H10N3O3+ 2 160.0717 7.02
  178.0876 C10H12NO2+ 1 178.0863 7.67
  206.0798 C11H12NO3+ 2 206.0812 -6.42
  207.0821 C10[13]CH12NO3+ 1 207.0851 -14.51
PK$NUM_PEAK: 9
PK$PEAK: m/z int. rel.int.
  118.0637 764 25
  119.0715 1844 61
  132.0797 1124 37
  134.0948 29824 999
  135.0984 3996 133
  160.0728 324 10
  178.0876 308 10
  206.0798 3604 120
  207.0821 328 10
//
