ACCESSION: MSBNK-Athens_Univ-AU261603
RECORD_TITLE: Parathion-methyl; LC-ESI-QTOF; MS2; CE: 30 eV; R=35000; [M+H]+
DATE: 2019.05.30
AUTHORS: Nikiforos Alygizakis, Katerina Galani, Nikolaos Thomaidis, University of Athens
LICENSE: CC BY
COPYRIGHT: Copyright (C) 2019 Department of Chemistry, University of Athens
COMMENT: CONFIDENCE standard compound
COMMENT: INTERNAL_ID 2616
CH$NAME: Parathion-methyl
CH$NAME: Methyl parathion
CH$NAME: dimethoxy-(4-nitrophenoxy)-sulfanylidene-lambda5-phosphane
CH$COMPOUND_CLASS: N/A; Environmental Standard
CH$FORMULA: C8H10NO5PS
CH$EXACT_MASS: 263.0017300
CH$SMILES: COP(=S)(OC)OC1=CC=C(C=C1)[N+]([O-])=O
CH$IUPAC: InChI=1S/C8H10NO5PS/c1-12-15(16,13-2)14-8-5-3-7(4-6-8)9(10)11/h3-6H,1-2H3
CH$LINK: CAS 298-00-0
CH$LINK: CHEBI CHEBI:38746
CH$LINK: KEGG C14228
CH$LINK: PUBCHEM CID:4130
CH$LINK: INCHIKEY RLBIQVVOMOPOHC-UHFFFAOYSA-N
CH$LINK: CHEMSPIDER 3987
CH$LINK: COMPTOX DTXSID1020855
AC$INSTRUMENT: Bruker maXis Impact
AC$INSTRUMENT_TYPE: LC-ESI-QTOF
AC$MASS_SPECTROMETRY: MS_TYPE MS2
AC$MASS_SPECTROMETRY: ION_MODE POSITIVE
AC$MASS_SPECTROMETRY: IONIZATION ESI
AC$MASS_SPECTROMETRY: FRAGMENTATION_MODE CID
AC$MASS_SPECTROMETRY: COLLISION_ENERGY 30 eV
AC$MASS_SPECTROMETRY: RESOLUTION 35000
AC$CHROMATOGRAPHY: COLUMN_NAME Acclaim RSLC C18 2.2um, 2.1x100mm, Thermo
AC$CHROMATOGRAPHY: FLOW_GRADIENT 99/1 at 0-1 min, 61/39 at 3 min, 0.1/99.9 at 14-16 min, 99/1 at 16.1-20 min
AC$CHROMATOGRAPHY: FLOW_RATE 200 uL/min at 0-3 min, 400 uL/min at 14 min, 480 uL/min at 16-19 min, 200 uL/min at 19.1-20 min
AC$CHROMATOGRAPHY: RETENTION_TIME 9.311 min
AC$CHROMATOGRAPHY: SOLVENT A 90:10 water:methanol with 0.01% formic acid and 5mM ammonium formate
AC$CHROMATOGRAPHY: SOLVENT B methanol with 0.01% formic acid and 5mM ammonium formate
MS$FOCUSED_ION: BASE_PEAK 228.1271
MS$FOCUSED_ION: PRECURSOR_M/Z 264.009
MS$FOCUSED_ION: PRECURSOR_TYPE [M+H]+
MS$DATA_PROCESSING: RECALIBRATE identity on assigned fragments and MS1
MS$DATA_PROCESSING: WHOLE RMassBank 2.10.1
PK$SPLASH: splash10-0fkj-0930000000-9240fd88bcf3636c58b1
PK$ANNOTATION: m/z tentative_formula formula_count mass error(ppm)
  124.9815 C2H6O2PS+ 2 124.9821 -4.47
  142.9917 C8H2NP+ 4 142.9919 -1.95
  153.961 C5NO3S+ 2 153.9593 10.91
  154.9702 C6H4OPS+ 2 154.9715 -8.21
  185.9541 C6H3O3PS+ 2 185.9535 3.45
  185.9884 C7H7O2PS+ 2 185.9899 -7.98
  199.956 C6H3NO3PS+ 1 199.9566 -2.95
  214.9777 C7H6NO3PS+ 1 214.9801 -11.12
  231.9829 C7H7NO4PS+ 1 231.9828 0.57
  249.9928 C7H9NO5PS+ 1 249.9934 -2.32
PK$NUM_PEAK: 10
PK$PEAK: m/z int. rel.int.
  124.9815 2144 999
  142.9917 1052 490
  153.961 580 270
  154.9702 908 423
  185.9541 648 301
  185.9884 676 314
  199.956 420 195
  214.9777 372 173
  231.9829 304 141
  249.9928 1512 704
//
