ACCESSION: MSBNK-Athens_Univ-AU260701
RECORD_TITLE: Ethion; LC-ESI-QTOF; MS2; CE: 10 eV; R=35000; [M+H]+
DATE: 2019.05.30
AUTHORS: Nikiforos Alygizakis, Katerina Galani, Nikolaos Thomaidis, University of Athens
LICENSE: CC BY
COPYRIGHT: Copyright (C) 2019 Department of Chemistry, University of Athens
COMMENT: CONFIDENCE standard compound
COMMENT: INTERNAL_ID 2607
CH$NAME: Ethion
CH$NAME: diethoxyphosphinothioylsulfanylmethylsulfanyl-diethoxy-sulfanylidene-lambda5-phosphane
CH$COMPOUND_CLASS: N/A; Environmental Standard
CH$FORMULA: C9H22O4P2S4
CH$EXACT_MASS: 383.9876164
CH$SMILES: CCOP(=S)(OCC)SCSP(=S)(OCC)OCC
CH$IUPAC: InChI=1S/C9H22O4P2S4/c1-5-10-14(16,11-6-2)18-9-19-15(17,12-7-3)13-8-4/h5-9H2,1-4H3
CH$LINK: CAS 563-12-2
CH$LINK: CHEBI CHEBI:38663
CH$LINK: KEGG C18725
CH$LINK: PUBCHEM CID:3286
CH$LINK: INCHIKEY RIZMRRKBZQXFOY-UHFFFAOYSA-N
CH$LINK: CHEMSPIDER 3171
CH$LINK: COMPTOX DTXSID2024086
AC$INSTRUMENT: Bruker maXis Impact
AC$INSTRUMENT_TYPE: LC-ESI-QTOF
AC$MASS_SPECTROMETRY: MS_TYPE MS2
AC$MASS_SPECTROMETRY: ION_MODE POSITIVE
AC$MASS_SPECTROMETRY: IONIZATION ESI
AC$MASS_SPECTROMETRY: FRAGMENTATION_MODE CID
AC$MASS_SPECTROMETRY: COLLISION_ENERGY 10 eV
AC$MASS_SPECTROMETRY: RESOLUTION 35000
AC$CHROMATOGRAPHY: COLUMN_NAME Acclaim RSLC C18 2.2um, 2.1x100mm, Thermo
AC$CHROMATOGRAPHY: FLOW_GRADIENT 99/1 at 0-1 min, 61/39 at 3 min, 0.1/99.9 at 14-16 min, 99/1 at 16.1-20 min
AC$CHROMATOGRAPHY: FLOW_RATE 200 uL/min at 0-3 min, 400 uL/min at 14 min, 480 uL/min at 16-19 min, 200 uL/min at 19.1-20 min
AC$CHROMATOGRAPHY: RETENTION_TIME 12.508 min
AC$CHROMATOGRAPHY: SOLVENT A 90:10 water:methanol with 0.01% formic acid and 5mM ammonium formate
AC$CHROMATOGRAPHY: SOLVENT B methanol with 0.01% formic acid and 5mM ammonium formate
MS$FOCUSED_ION: BASE_PEAK 384.9955
MS$FOCUSED_ION: PRECURSOR_M/Z 384.9949
MS$FOCUSED_ION: PRECURSOR_TYPE [M+H]+
MS$DATA_PROCESSING: RECALIBRATE identity on assigned fragments and MS1
MS$DATA_PROCESSING: WHOLE RMassBank 2.10.1
PK$SPLASH: splash10-0002-0910000000-9d3e63dd1351554a9809
PK$ANNOTATION: m/z tentative_formula formula_count mass error(ppm)
  142.9374 CH4O2PS2+ 2 142.9385 -7.87
  153.0121 C4H10O2PS+ 3 153.0134 -8.05
  154.9735 C3H8OPS2+ 2 154.9749 -8.64
  170.9687 C3H8O2PS2+ 3 170.9698 -6.22
  171.0232 C4H12O3PS+ 4 171.0239 -4.15
  171.9713 C2[13]CH8O2PS2+ 1 171.9737 -14
  172.9652 C3H8O2PS[34]S+ 1 172.9661 -5.45
  199.0004 C8H8O2PS+ 4 198.9977 13.67
  200.0029 C7[13]CH8O2PS+ 1 200.0016 6.3
  200.9959 C8H8O2P[34]S+ 1 200.9941 9.2
  215.0316 C6H16O2PS2+ 5 215.0324 -3.71
  230.9725 C5H12O2PS3+ 5 230.9732 -2.96
  339.007 C8H21O4P2S3+ 1 339.0072 -0.38
  384.9943 C9H23O4P2S4+ 1 384.9949 -1.49
  385.9967 C8[13]CH23O4P2S4+ 1 385.9988 -5.41
  386.9915 C9H23O4P2S3[34]S+ 1 386.9912 0.7
PK$NUM_PEAK: 16
PK$PEAK: m/z int. rel.int.
  142.9374 39952 40
  153.0121 26444 26
  154.9735 8076 8
  170.9687 115620 117
  171.0232 13752 13
  171.9713 5284 5
  172.9652 8440 8
  199.0004 981680 999
  200.0029 40724 41
  200.9959 51988 52
  215.0316 32248 32
  230.9725 34704 35
  339.007 20860 21
  384.9943 46148 46
  385.9967 6160 6
  386.9915 9336 9
//
