ACCESSION: MSBNK-Athens_Univ-AU105709
RECORD_TITLE: Tylosin; LC-ESI-QTOF; MS2; HILIC; CE: 30 eV; R=35000; [M+H]+
DATE: 2016.02.25
AUTHORS: Nikiforos Alygizakis, Nikolaos Thomaidis, University of Athens
LICENSE: CC BY
COPYRIGHT: Copyright (C) 2016 Department of Chemistry, University of Athens
COMMENT: CONFIDENCE standard compound
COMMENT: INTERNAL_ID 1057
CH$NAME: Tylosin
CH$NAME: 2-[(4R,5S,6S,7R,9R,11E,13E,15R,16R)-6-[(2R,3R,4R,5S,6R)-5-[(2S,4R,5S,6S)-4,5-dihydroxy-4,6-dimethyloxan-2-yl]oxy-4-(dimethylamino)-3-hydroxy-6-methyloxan-2-yl]oxy-16-ethyl-4-hydroxy-15-[[(2R,3R,4R,5R,6R)-5-hydroxy-3,4-dimethoxy-6-methyloxan-2-yl]oxymethyl]-5,9,13-trimethyl-2,10-dioxo-1-oxacyclohexadeca-11,13-dien-7-yl]acetaldehyde
CH$COMPOUND_CLASS: N/A; Environmental Standard
CH$FORMULA: C46H77NO17
CH$EXACT_MASS: 915.5191500
CH$SMILES: CC[C@@H]1[C@H](/C=C(/C=C/C(=O)[C@@H](C[C@@H]([C@@H]([C@H]([C@@H](CC(=O)O1)O)C)O[C@H]2[C@@H]([C@H]([C@@H]([C@H](O2)C)O[C@H]3C[C@@]([C@H]([C@@H](O3)C)O)(C)O)N(C)C)O)CC=O)C)\C)CO[C@H]4[C@@H]([C@@H]([C@@H]([C@H](O4)C)O)OC)OC
CH$IUPAC: InChI=1S/C46H77NO17/c1-13-33-30(22-58-45-42(57-12)41(56-11)37(52)26(5)60-45)18-23(2)14-15-31(49)24(3)19-29(16-17-48)39(25(4)32(50)20-34(51)62-33)64-44-38(53)36(47(9)10)40(27(6)61-44)63-35-21-46(8,55)43(54)28(7)59-35/h14-15,17-18,24-30,32-33,35-45,50,52-55H,13,16,19-22H2,1-12H3/b15-14+,23-18+/t24-,25+,26-,27-,28+,29+,30-,32-,33-,35+,36-,37-,38-,39-,40-,41-,42-,43+,44+,45-,46-/m1/s1
CH$LINK: CAS 1401-69-0
CH$LINK: CHEBI CHEBI:17658
CH$LINK: PUBCHEM CID:5280440
CH$LINK: INCHIKEY WBPYTXDJUQJLPQ-VMXQISHHSA-N
CH$LINK: CHEMSPIDER 4444097
AC$INSTRUMENT: Bruker maXis Impact
AC$INSTRUMENT_TYPE: LC-ESI-QTOF
AC$MASS_SPECTROMETRY: MS_TYPE MS2
AC$MASS_SPECTROMETRY: ION_MODE POSITIVE
AC$MASS_SPECTROMETRY: IONIZATION ESI
AC$MASS_SPECTROMETRY: FRAGMENTATION_MODE CID
AC$MASS_SPECTROMETRY: COLLISION_ENERGY 30 eV
AC$MASS_SPECTROMETRY: RESOLUTION 35000
AC$CHROMATOGRAPHY: COLUMN_NAME ACQUITY UPLC BEH Amide 1.7 um 2.1x100mm, Waters
AC$CHROMATOGRAPHY: FLOW_GRADIENT 0/100 at 0-2 min, 95/5 at 12 min, 95/5 at 17 min, 0/100 at 17.1, 0/100 at 25 min
AC$CHROMATOGRAPHY: FLOW_RATE 200 uL/min
AC$CHROMATOGRAPHY: RETENTION_TIME 6.281 min
AC$CHROMATOGRAPHY: SOLVENT A Water with 0.01% formic acid and 1mM ammonium formate
AC$CHROMATOGRAPHY: SOLVENT B Acetonitrile:Water 95:5 with 0.01% formic acid and 1mM ammonium formate
MS$FOCUSED_ION: BASE_PEAK 916.5279
MS$FOCUSED_ION: PRECURSOR_M/Z 916.5264
MS$FOCUSED_ION: PRECURSOR_TYPE [M+H]+
MS$DATA_PROCESSING: RECALIBRATE identity on assigned fragments and MS1
MS$DATA_PROCESSING: WHOLE RMassBank 1.99.10
PK$SPLASH: splash10-014i-0000000009-156f175fb5b342868cb6
PK$ANNOTATION: m/z tentative_formula formula_count mass error(ppm)
  127.0747 C7H11O2+ 1 127.0754 -4.97
  145.0854 C7H13O3+ 2 145.0859 -3.92
  174.1121 C8H16NO3+ 2 174.1125 -2.35
  175.1151 C7[13]CH16NO3+ 1 175.1164 -7.36
  318.1912 C15H28NO6+ 6 318.1911 0.38
  407.2431 C23H35O6+ 8 407.2428 0.65
  772.4496 C39H66NO14+ 8 772.4478 2.38
  773.452 C36H69O17+ 8 773.4529 -1.2
  774.4573 C35[13]CH69O17+ 1 774.4568 0.59
  916.5311 C46H78NO17+ 1 916.5264 5.08
  917.534 C45[13]CH78NO17+ 1 917.5303 3.96
  918.5355 C44[13]C2H78NO17+ 1 918.5337 1.99
PK$NUM_PEAK: 12
PK$PEAK: m/z int. rel.int.
  127.0747 6332 6
  145.0854 12236 13
  174.1121 112820 121
  175.1151 8000 8
  318.1912 25700 27
  407.2431 6588 7
  772.4496 93456 100
  773.452 35788 38
  774.4573 9436 10
  916.5311 928544 999
  917.534 501080 539
  918.5355 126676 136
//
