ACCESSION: MSBNK-Athens_Univ-AU279506
RECORD_TITLE: 5-Hydroxyindole-3-acetic acid; LC-ESI-QTOF; MS2; CE: Ramp 17.7-26.6 eV; R=35000; [M+H]+
DATE: 2019.05.31
AUTHORS: Nikiforos Alygizakis, Katerina Galani, Nikolaos Thomaidis, University of Athens
LICENSE: CC BY
COPYRIGHT: Copyright (C) 2019 Department of Chemistry, University of Athens
COMMENT: CONFIDENCE standard compound
COMMENT: INTERNAL_ID 2795
CH$NAME: 5-Hydroxyindole-3-acetic acid
CH$NAME: 2-(5-hydroxy-1H-indol-3-yl)acetic acid
CH$COMPOUND_CLASS: N/A; Environmental Standard
CH$FORMULA: C10H9NO3
CH$EXACT_MASS: 191.05824315
CH$SMILES: OC(=O)CC1=CNC2=C1C=C(O)C=C2
CH$IUPAC: InChI=1S/C10H9NO3/c12-7-1-2-9-8(4-7)6(5-11-9)3-10(13)14/h1-2,4-5,11-12H,3H2,(H,13,14)
CH$LINK: CAS 54-16-0
CH$LINK: CHEBI CHEBI:27823
CH$LINK: KEGG C05635
CH$LINK: PUBCHEM CID:1826
CH$LINK: INCHIKEY DUUGKQCEGZLZNO-UHFFFAOYSA-N
CH$LINK: CHEMSPIDER 1760
CH$LINK: COMPTOX DTXSID50861582
AC$INSTRUMENT: Bruker maXis Impact
AC$INSTRUMENT_TYPE: LC-ESI-QTOF
AC$MASS_SPECTROMETRY: MS_TYPE MS2
AC$MASS_SPECTROMETRY: ION_MODE POSITIVE
AC$MASS_SPECTROMETRY: IONIZATION ESI
AC$MASS_SPECTROMETRY: FRAGMENTATION_MODE CID
AC$MASS_SPECTROMETRY: COLLISION_ENERGY Ramp 17.7-26.6 eV
AC$MASS_SPECTROMETRY: RESOLUTION 35000
AC$CHROMATOGRAPHY: COLUMN_NAME Acclaim RSLC C18 2.2um, 2.1x100mm, Thermo
AC$CHROMATOGRAPHY: FLOW_GRADIENT 99/1 at 0-1 min, 61/39 at 3 min, 0.1/99.9 at 14-16 min, 99/1 at 16.1-20 min
AC$CHROMATOGRAPHY: FLOW_RATE 200 uL/min at 0-3 min, 400 uL/min at 14 min, 480 uL/min at 16-19 min, 200 uL/min at 19.1-20 min
AC$CHROMATOGRAPHY: RETENTION_TIME 3.878 min
AC$CHROMATOGRAPHY: SOLVENT A 90:10 water:methanol with 0.01% formic acid and 5mM ammonium formate
AC$CHROMATOGRAPHY: SOLVENT B methanol with 0.01% formic acid and 5mM ammonium formate
MS$FOCUSED_ION: BASE_PEAK 61.0392
MS$FOCUSED_ION: PRECURSOR_M/Z 192.0655
MS$FOCUSED_ION: PRECURSOR_TYPE [M+H]+
MS$DATA_PROCESSING: RECALIBRATE identity on assigned fragments and MS1
MS$DATA_PROCESSING: WHOLE RMassBank 2.10.1
PK$SPLASH: splash10-0002-0900000000-c9ae90ca556512f411ef
PK$ANNOTATION: m/z tentative_formula formula_count mass error(ppm)
  118.0634 C5H10O3+ 2 118.0624 7.99
  119.0474 C8H7O+ 1 119.0491 -14.46
  132.0436 C8H6NO+ 1 132.0444 -6.02
  146.0592 C9H8NO+ 1 146.06 -5.87
  147.0618 C8[13]CH8NO+ 1 147.0639 -14.44
  192.0631 C10H10NO3+ 1 192.0655 -12.38
PK$NUM_PEAK: 6
PK$PEAK: m/z int. rel.int.
  118.0634 540 26
  119.0474 440 21
  132.0436 356 17
  146.0592 20264 999
  147.0618 1588 78
  192.0631 440 21
//
