ACCESSION: MSBNK-Athens_Univ-AU373801
RECORD_TITLE: Desmedipham; LC-ESI-QTOF; MS2; CE: 10 eV; R=35000; [M+H]+
DATE: 2015.12.08
AUTHORS: Nikiforos Alygizakis, Nikolaos Thomaidis, University of Athens
LICENSE: CC BY-SA
COPYRIGHT: Copyright (C) 2015 Department of Chemistry, University of Athens
COMMENT: CONFIDENCE standard compound
COMMENT: INTERNAL_ID 3738
CH$NAME: Desmedipham
CH$NAME: [3-(ethoxycarbonylamino)phenyl] N-phenylcarbamate
CH$COMPOUND_CLASS: N/A; Environmental Standard
CH$FORMULA: C16H16N2O4
CH$EXACT_MASS: 300.1110070
CH$SMILES: CCOC(=O)NC1=CC=CC(OC(=O)NC2=CC=CC=C2)=C1
CH$IUPAC: InChI=1S/C16H16N2O4/c1-2-21-15(19)18-13-9-6-10-14(11-13)22-16(20)17-12-7-4-3-5-8-12/h3-11H,2H2,1H3,(H,17,20)(H,18,19)
CH$LINK: CAS 13684-56-5
CH$LINK: CHEBI CHEBI:81733
CH$LINK: KEGG C18417
CH$LINK: PUBCHEM CID:24743
CH$LINK: INCHIKEY WZJZMXBKUWKXTQ-UHFFFAOYSA-N
CH$LINK: CHEMSPIDER 23133
CH$LINK: COMPTOX DTXSID0034518
AC$INSTRUMENT: Bruker maXis Impact
AC$INSTRUMENT_TYPE: LC-ESI-QTOF
AC$MASS_SPECTROMETRY: MS_TYPE MS2
AC$MASS_SPECTROMETRY: ION_MODE POSITIVE
AC$MASS_SPECTROMETRY: IONIZATION ESI
AC$MASS_SPECTROMETRY: FRAGMENTATION_MODE CID
AC$MASS_SPECTROMETRY: COLLISION_ENERGY 10 eV
AC$MASS_SPECTROMETRY: RESOLUTION 35000
AC$CHROMATOGRAPHY: COLUMN_NAME Acclaim RSLC C18 2.2um, 2.1x100mm, Thermo
AC$CHROMATOGRAPHY: FLOW_GRADIENT 99/1 at 0-1 min, 61/39 at 3 min, 0.1/99.9 at 14-16 min, 99/1 at 16.1-20 min
AC$CHROMATOGRAPHY: FLOW_RATE 200 uL/min at 0-3 min, 400 uL/min at 14 min, 480 uL/min at 16-19 min, 200 uL/min at 19.1-20 min
AC$CHROMATOGRAPHY: RETENTION_TIME 8.5 min
AC$CHROMATOGRAPHY: SOLVENT A 90:10 water:methanol with 0.01% formic acid and 5mM ammonium formate
AC$CHROMATOGRAPHY: SOLVENT B methanol with 0.01% formic acid and 5mM ammonium formate
MS$FOCUSED_ION: BASE_PEAK 318.1448
MS$FOCUSED_ION: PRECURSOR_M/Z 301.1183
MS$FOCUSED_ION: PRECURSOR_TYPE [M+H]+
MS$DATA_PROCESSING: RECALIBRATE identity on assigned fragments and MS1
MS$DATA_PROCESSING: REANALYZE Peaks with additional N2/O included
MS$DATA_PROCESSING: WHOLE RMassBank 2.0.3
PK$SPLASH: splash10-001i-0900000000-a39a00008cd51cd29ac0
PK$ANNOTATION: m/z tentative_formula formula_count mass error(ppm)
  136.0383 C7H6NO2+ 1 136.0393 -7.21
  137.0421 C6[13]CH6NO2+ 1 137.0424 -2.19
  154.0484 C7H8NO3+ 1 154.0499 -9.73
  155.0526 C6[13]CH8NO3+ 1 155.053 -2.58
  164.0677 C9H10NO2+ 1 164.0706 -17.54
  182.0802 C9H12NO3+ 2 182.0812 -5.35
  183.083 C8[13]CH12NO3+ 1 183.0844 -7.65
  184.0852 C7[13]C2H12NO3+ 1 184.0863 -5.98
  261.0042 C15H3NO4+ 1 261.0057 -5.55
  301.1184 C16H17N2O4+ 1 301.1183 0.3
PK$NUM_PEAK: 10
PK$PEAK: m/z int. rel.int.
  136.0383 8904 149
  137.0421 832 13
  154.0484 5788 96
  155.0526 568 9
  164.0677 396 6
  182.0802 59648 999
  183.083 6888 115
  184.0852 840 14
  261.0042 316 5
  301.1184 1312 21
//
