ACCESSION: MSBNK-Athens_Univ-AU400103
RECORD_TITLE: Diuron-desmonomethyl; LC-ESI-QTOF; MS2; CE: 30 eV; R=35000; [M+H]+
DATE: 2015.12.09
AUTHORS: Nikiforos Alygizakis, Nikolaos Thomaidis, University of Athens
LICENSE: CC BY-SA
COPYRIGHT: Copyright (C) 2015 Department of Chemistry, University of Athens
COMMENT: CONFIDENCE standard compound
COMMENT: INTERNAL_ID 4001
CH$NAME: Diuron-desmonomethyl
CH$NAME: Monomethyldiuron
CH$NAME: 1-(3,4-dichlorophenyl)-3-methylurea
CH$COMPOUND_CLASS: N/A; Environmental Standard
CH$FORMULA: C8H8Cl2N2O
CH$EXACT_MASS: 218.0013682
CH$SMILES: CNC(=O)NC1=CC(Cl)=C(Cl)C=C1
CH$IUPAC: InChI=1S/C8H8Cl2N2O/c1-11-8(13)12-5-2-3-6(9)7(10)4-5/h2-4H,1H3,(H2,11,12,13)
CH$LINK: CAS 3567-62-2
CH$LINK: CHEBI CHEBI:83466
CH$LINK: PUBCHEM CID:19113
CH$LINK: INCHIKEY IDQHRQQSSQDLTR-UHFFFAOYSA-N
CH$LINK: CHEMSPIDER 18040
CH$LINK: COMPTOX DTXSID3042180
AC$INSTRUMENT: Bruker maXis Impact
AC$INSTRUMENT_TYPE: LC-ESI-QTOF
AC$MASS_SPECTROMETRY: MS_TYPE MS2
AC$MASS_SPECTROMETRY: ION_MODE POSITIVE
AC$MASS_SPECTROMETRY: IONIZATION ESI
AC$MASS_SPECTROMETRY: FRAGMENTATION_MODE CID
AC$MASS_SPECTROMETRY: COLLISION_ENERGY 30 eV
AC$MASS_SPECTROMETRY: RESOLUTION 35000
AC$CHROMATOGRAPHY: COLUMN_NAME Acclaim RSLC C18 2.2um, 2.1x100mm, Thermo
AC$CHROMATOGRAPHY: FLOW_GRADIENT 99/1 at 0-1 min, 61/39 at 3 min, 0.1/99.9 at 14-16 min, 99/1 at 16.1-20 min
AC$CHROMATOGRAPHY: FLOW_RATE 200 uL/min at 0-3 min, 400 uL/min at 14 min, 480 uL/min at 16-19 min, 200 uL/min at 19.1-20 min
AC$CHROMATOGRAPHY: RETENTION_TIME 8.4 min
AC$CHROMATOGRAPHY: SOLVENT A 90:10 water:methanol with 0.01% formic acid and 5mM ammonium formate
AC$CHROMATOGRAPHY: SOLVENT B methanol with 0.01% formic acid and 5mM ammonium formate
MS$FOCUSED_ION: BASE_PEAK 219.0082
MS$FOCUSED_ION: PRECURSOR_M/Z 219.0086
MS$FOCUSED_ION: PRECURSOR_TYPE [M+H]+
MS$DATA_PROCESSING: RECALIBRATE identity on assigned fragments and MS1
MS$DATA_PROCESSING: REANALYZE Peaks with additional N2/O included
MS$DATA_PROCESSING: WHOLE RMassBank 2.0.3
PK$SPLASH: splash10-004i-0900000000-5fdd99e31c4dc473c96e
PK$ANNOTATION: m/z tentative_formula formula_count mass error(ppm)
  127.0174 C6H6ClN+ 1 127.0183 -7.26
  128.0205 C5[13]CH6ClN+ 1 128.0214 -7.03
  129.0144 C6H6[37]ClN+ 1 129.0154 -7.75
  132.9598 C5H3Cl2+ 1 132.9606 -6.2
  145.9598 C6H3Cl2+ 1 144.9606 -6
  152.9966 C4H7Cl2N2+ 1 152.9981 -9.9
  159.9704 C6H4Cl2N+ 1 159.9715 -7.19
  161.9862 C6H6Cl2N+ 1 161.9872 -5.93
  162.9893 C5[13]CH6Cl2N+ 1 162.9902 -5.52
  163.9832 C6H6[37]Cl[35]ClN+ 1 163.9843 -6.71
  164.9863 C5[13]CH6[37]Cl[35]ClN+ 1 164.9873 -6.06
  187.9652 C7H4Cl2NO+ 1 187.9664 -6.5
PK$NUM_PEAK: 12
PK$PEAK: m/z int. rel.int.
  127.0174 653652 999
  128.0205 40864 62
  129.0144 145588 223
  132.9598 4076 6
  144.9598 704 1
  152.9966 656 1
  159.9704 19604 30
  161.9862 86144 132
  162.9893 6176 9
  163.9832 52840 81
  164.9863 2316 4
  187.9652 1744 3
//
