ACCESSION: MSBNK-Athens_Univ-AU202401
RECORD_TITLE: Atenolol-desisopropyl; LC-ESI-QTOF; MS2; CE: 10 eV; R=35000; [M+H]+
DATE: 2015.12.05
AUTHORS: Nikiforos Alygizakis, Nikolaos Thomaidis, University of Athens
LICENSE: CC BY-SA
COPYRIGHT: Copyright (C) 2015 Department of Chemistry, University of Athens
COMMENT: CONFIDENCE standard compound
COMMENT: INTERNAL_ID 2024
CH$NAME: Atenolol-desisopropyl
CH$NAME: 4-(3-AMINO-2-HYDROXYPROPOXY)PHENYLACETAMIDE
CH$NAME: 2-[4-(3-amino-2-hydroxypropoxy)phenyl]acetamide
CH$COMPOUND_CLASS: N/A; Environmental Standard
CH$FORMULA: C11H16N2O3
CH$EXACT_MASS: 224.1160924
CH$SMILES: NCC(O)COC1=CC=C(CC(N)=O)C=C1
CH$IUPAC: InChI=1S/C11H16N2O3/c12-6-9(14)7-16-10-3-1-8(2-4-10)5-11(13)15/h1-4,9,14H,5-7,12H2,(H2,13,15)
CH$LINK: CAS 81346-71-6
CH$LINK: CHEBI CHEBI:83530
CH$LINK: PUBCHEM CID:14211540
CH$LINK: INCHIKEY UWMXVJVTKRSOPW-UHFFFAOYSA-N
CH$LINK: CHEMSPIDER 21896503
CH$LINK: COMPTOX DTXSID10557479
AC$INSTRUMENT: Bruker maXis Impact
AC$INSTRUMENT_TYPE: LC-ESI-QTOF
AC$MASS_SPECTROMETRY: MS_TYPE MS2
AC$MASS_SPECTROMETRY: ION_MODE POSITIVE
AC$MASS_SPECTROMETRY: IONIZATION ESI
AC$MASS_SPECTROMETRY: FRAGMENTATION_MODE CID
AC$MASS_SPECTROMETRY: COLLISION_ENERGY 10 eV
AC$MASS_SPECTROMETRY: RESOLUTION 35000
AC$CHROMATOGRAPHY: COLUMN_NAME Acclaim RSLC C18 2.2um, 2.1x100mm, Thermo
AC$CHROMATOGRAPHY: FLOW_GRADIENT 99/1 at 0-1 min, 61/39 at 3 min, 0.1/99.9 at 14-16 min, 99/1 at 16.1-20 min
AC$CHROMATOGRAPHY: FLOW_RATE 200 uL/min at 0-3 min, 400 uL/min at 14 min, 480 uL/min at 16-19 min, 200 uL/min at 19.1-20 min
AC$CHROMATOGRAPHY: RETENTION_TIME 2.0 min
AC$CHROMATOGRAPHY: SOLVENT A 90:10 water:methanol with 0.01% formic acid and 5mM ammonium formate
AC$CHROMATOGRAPHY: SOLVENT B methanol with 0.01% formic acid and 5mM ammonium formate
MS$FOCUSED_ION: BASE_PEAK 150.1114
MS$FOCUSED_ION: PRECURSOR_M/Z 225.1234
MS$FOCUSED_ION: PRECURSOR_TYPE [M+H]+
MS$DATA_PROCESSING: RECALIBRATE identity on assigned fragments and MS1
MS$DATA_PROCESSING: REANALYZE Peaks with additional N2/O included
MS$DATA_PROCESSING: WHOLE RMassBank 2.0.3
PK$SPLASH: splash10-004i-0190000000-79a8934403aa1aea2a36
PK$ANNOTATION: m/z tentative_formula formula_count mass error(ppm)
  145.064 C10H9O+ 1 145.0648 -5.69
  162.0891 C10H12NO+ 1 162.0913 -13.64
  178.0855 C10H12NO2+ 1 178.0863 -4.42
  180.1005 C10H14NO2+ 1 180.1019 -7.53
  181.1039 C9[13]CH14NO2+ 1 181.1051 -6.63
  190.0854 C11H12NO2+ 1 190.0863 -4.49
  191.0891 C10[13]CH12NO2+ 1 191.0894 -1.57
  208.0955 C11H14NO3+ 1 208.0968 -6.33
  225.1228 C11H17N2O3+ 1 225.1234 -2.72
  226.1263 C10[13]CH17N2O3+ 1 226.1264 -0.44
PK$NUM_PEAK: 10
PK$PEAK: m/z int. rel.int.
  145.064 444 6
  162.0891 640 10
  178.0855 996 15
  180.1005 2412 37
  181.1039 328 5
  190.0854 3600 56
  191.0891 552 8
  208.0955 3476 54
  225.1228 63772 999
  226.1263 6256 98
//
