ACCESSION: MSBNK-Athens_Univ-AU245003
RECORD_TITLE: Phantolide; LC-ESI-QTOF; MS2; CE: 30 eV; R=35000; [M+H]+
DATE: 2019.04.05
AUTHORS: Nikiforos Alygizakis, Katerina Galani, Nikolaos Thomaidis, University of Athens
LICENSE: CC BY
COPYRIGHT: Copyright (C) 2019 Department of Chemistry, University of Athens
COMMENT: CONFIDENCE standard compound
COMMENT: INTERNAL_ID 2450
CH$NAME: Phantolide
CH$NAME: Ethanone, 1-(2,3-dihydro-1,1,2,3,3,6-hexamethyl-1H-inden-5-yl)-
CH$NAME: 1-(1,1,2,3,3,6-hexamethyl-2H-inden-5-yl)ethanone
CH$COMPOUND_CLASS: N/A; Environmental Standard
CH$FORMULA: C17H24O
CH$EXACT_MASS: 244.1827154
CH$SMILES: CC1C(C)(C)C2=C(C=C(C(C)=O)C(C)=C2)C1(C)C
CH$IUPAC: InChI=1S/C17H24O/c1-10-8-14-15(9-13(10)11(2)18)17(6,7)12(3)16(14,4)5/h8-9,12H,1-7H3
CH$LINK: CAS 64058-43-1
CH$LINK: PUBCHEM CID:47167
CH$LINK: INCHIKEY VDBHOHJWUDKDRW-UHFFFAOYSA-N
CH$LINK: CHEMSPIDER 42929
CH$LINK: COMPTOX DTXSID9051743
AC$INSTRUMENT: Bruker maXis Impact
AC$INSTRUMENT_TYPE: LC-ESI-QTOF
AC$MASS_SPECTROMETRY: MS_TYPE MS2
AC$MASS_SPECTROMETRY: ION_MODE POSITIVE
AC$MASS_SPECTROMETRY: IONIZATION ESI
AC$MASS_SPECTROMETRY: FRAGMENTATION_MODE CID
AC$MASS_SPECTROMETRY: COLLISION_ENERGY 30 eV
AC$MASS_SPECTROMETRY: RESOLUTION 35000
AC$CHROMATOGRAPHY: COLUMN_NAME Acclaim RSLC C18 2.2um, 2.1x100mm, Thermo
AC$CHROMATOGRAPHY: FLOW_GRADIENT 99/1 at 0-1 min, 61/39 at 3 min, 0.1/99.9 at 14-16 min, 99/1 at 16.1-20 min
AC$CHROMATOGRAPHY: FLOW_RATE 200 uL/min at 0-3 min, 400 uL/min at 14 min, 480 uL/min at 16-19 min, 200 uL/min at 19.1-20 min
AC$CHROMATOGRAPHY: RETENTION_TIME 13.091 min
AC$CHROMATOGRAPHY: SOLVENT A 90:10 water:methanol with 0.01% formic acid and 5mM ammonium formate
AC$CHROMATOGRAPHY: SOLVENT B methanol with 0.01% formic acid and 5mM ammonium formate
MS$FOCUSED_ION: BASE_PEAK 403.1263
MS$FOCUSED_ION: PRECURSOR_M/Z 245.19
MS$FOCUSED_ION: PRECURSOR_TYPE [M+H]+
MS$DATA_PROCESSING: RECALIBRATE identity on assigned fragments and MS1
MS$DATA_PROCESSING: WHOLE RMassBank 2.10.1
PK$SPLASH: splash10-004i-0900000000-c34af0759d403e277222
PK$ANNOTATION: m/z tentative_formula formula_count mass error(ppm)
  119.0844 C9H11+ 1 119.0855 -9.36
  131.0827 C10H11+ 1 131.0855 -21.59
  133.1005 C10H13+ 1 133.1012 -5.33
  147.0792 C10H11O+ 1 147.0804 -8.14
  175.1103 C12H15O+ 1 175.1117 -8.28
  176.1135 C11[13]CH15O+ 1 176.1156 -12.24
  189.1255 C13H17O+ 1 189.1274 -10.13
PK$NUM_PEAK: 7
PK$PEAK: m/z int. rel.int.
  119.0844 448 72
  131.0827 400 64
  133.1005 944 152
  147.0792 996 161
  175.1103 6168 999
  176.1135 972 157
  189.1255 720 116
//
