ACCESSION: MSBNK-Athens_Univ-AU405707
RECORD_TITLE: 2-Aminobenzothiazole; LC-ESI-QTOF; MS2; HILIC; CE: 10 eV; R=35000; [M+H]+
DATE: 2016.02.26
AUTHORS: Nikiforos Alygizakis, Nikolaos Thomaidis, University of Athens
LICENSE: CC BY
COPYRIGHT: Copyright (C) 2016 Department of Chemistry, University of Athens
COMMENT: CONFIDENCE standard compound
COMMENT: INTERNAL_ID 4057
CH$NAME: 2-Aminobenzothiazole
CH$NAME: 1,3-benzothiazol-2-amine
CH$COMPOUND_CLASS: N/A; Environmental Standard
CH$FORMULA: C7H6N2S
CH$EXACT_MASS: 150.0251692
CH$SMILES: c1ccc2c(c1)nc(s2)N
CH$IUPAC: InChI=1S/C7H6N2S/c8-7-9-5-3-1-2-4-6(5)10-7/h1-4H,(H2,8,9)
CH$LINK: CAS 136-95-8
CH$LINK: PUBCHEM CID:8706
CH$LINK: INCHIKEY UHGULLIUJBCTEF-UHFFFAOYSA-N
CH$LINK: CHEMSPIDER 8382
CH$LINK: COMPTOX DTXSID1024467
AC$INSTRUMENT: Bruker maXis Impact
AC$INSTRUMENT_TYPE: LC-ESI-QTOF
AC$MASS_SPECTROMETRY: MS_TYPE MS2
AC$MASS_SPECTROMETRY: ION_MODE POSITIVE
AC$MASS_SPECTROMETRY: IONIZATION ESI
AC$MASS_SPECTROMETRY: FRAGMENTATION_MODE CID
AC$MASS_SPECTROMETRY: COLLISION_ENERGY 10 eV
AC$MASS_SPECTROMETRY: RESOLUTION 35000
AC$CHROMATOGRAPHY: COLUMN_NAME ACQUITY UPLC BEH Amide 1.7 um 2.1x100mm, Waters
AC$CHROMATOGRAPHY: FLOW_GRADIENT 0/100 at 0-2 min, 95/5 at 12 min, 95/5 at 17 min, 0/100 at 17.1, 0/100 at 25 min
AC$CHROMATOGRAPHY: FLOW_RATE 200 uL/min
AC$CHROMATOGRAPHY: RETENTION_TIME 1.666 min
AC$CHROMATOGRAPHY: SOLVENT A Water with 0.01% formic acid and 1mM ammonium formate
AC$CHROMATOGRAPHY: SOLVENT B Acetonitrile:Water 95:5 with 0.01% formic acid and 1mM ammonium formate
MS$FOCUSED_ION: BASE_PEAK 151.0341
MS$FOCUSED_ION: PRECURSOR_M/Z 151.0324
MS$FOCUSED_ION: PRECURSOR_TYPE [M+H]+
MS$DATA_PROCESSING: RECALIBRATE identity on assigned fragments and MS1
MS$DATA_PROCESSING: WHOLE RMassBank 1.99.10
PK$SPLASH: splash10-0udi-0900000000-d607b84bfdc87451fd83
PK$ANNOTATION: m/z tentative_formula formula_count mass error(ppm)
  124.0222 C6H6NS+ 1 124.0215 4.94
  151.0343 C7H7N2S+ 1 151.0324 12.37
  153.0291 C7H7N2[34]S+ 1 153.0288 1.94
PK$NUM_PEAK: 3
PK$PEAK: m/z int. rel.int.
  124.0222 27240 10
  151.0343 2515320 999
  153.0291 181680 72
//
