ACCESSION: MSBNK-Athens_Univ-AU596434
RECORD_TITLE: Aflatoxin G1; LC-ESI-QTOF; MS2; CE: 30 eV; R=35000; [M+Na]+
DATE: 2020.04.11
AUTHORS: Varvara Nikolopoulou, Anthi Panara, Reza Aalizadeh, Nikolaos Thomaidis
LICENSE: CC BY
COPYRIGHT: Copyright (C) 2020 Department of Chemistry, University of Athens
COMMENT: CONFIDENCE standard compound
COMMENT: INTERNAL_ID 5964
CH$NAME: Aflatoxin G1
CH$NAME: 11-methoxy-6,8,16,20-tetraoxapentacyclo[10.8.0.02,9.03,7.013,18]icosa-1,4,9,11,13(18)-pentaene-17,19-dione
CH$COMPOUND_CLASS: Natural Product; Fungal metabolite
CH$FORMULA: C17H12O7
CH$EXACT_MASS: 328.0583
CH$SMILES: COC1=C2C3=C(C(=O)OCC3)C(=O)OC2=C4C5C=COC5OC4=C1
CH$IUPAC: InChI=1S/C17H12O7/c1-20-9-6-10-12(8-3-5-22-17(8)23-10)14-11(9)7-2-4-21-15(18)13(7)16(19)24-14/h3,5-6,8,17H,2,4H2,1H3
CH$LINK: CAS 1165-39-5
CH$LINK: CHEMSPIDER 13775
CH$LINK: INCHIKEY XWIYFDMXXLINPU-UHFFFAOYSA-N
CH$LINK: PUBCHEM CID:14421
AC$INSTRUMENT: Bruker maXis Impact
AC$INSTRUMENT_TYPE: LC-ESI-QTOF
AC$MASS_SPECTROMETRY: MS_TYPE MS2
AC$MASS_SPECTROMETRY: ION_MODE POSITIVE
AC$MASS_SPECTROMETRY: IONIZATION ESI
AC$MASS_SPECTROMETRY: FRAGMENTATION_MODE CID
AC$MASS_SPECTROMETRY: COLLISION_ENERGY 30 eV
AC$MASS_SPECTROMETRY: RESOLUTION 35000
AC$CHROMATOGRAPHY: COLUMN_NAME Acclaim RSLC C18 2.2um, 2.1x100mm, Thermo
AC$CHROMATOGRAPHY: FLOW_GRADIENT 99/1 at 0-1 min, 61/39 at 3 min, 0.1/99.9 at 14-16 min, 99/1 at 16.1-20 min
AC$CHROMATOGRAPHY: FLOW_RATE 200 uL/min at 0-3 min, 400 uL/min at 14 min, 480 uL/min at 16-19 min, 200 uL/min at 19.1-20 min
AC$CHROMATOGRAPHY: RETENTION_TIME 6.081 min
AC$CHROMATOGRAPHY: SOLVENT A 90:10 water:methanol with 0.01% formic acid and 5mM ammonium formate
AC$CHROMATOGRAPHY: SOLVENT B methanol with 0.01% formic acid and 5mM ammonium formate
MS$FOCUSED_ION: BASE_PEAK 351.0469
MS$FOCUSED_ION: PRECURSOR_M/Z 351.0475
MS$FOCUSED_ION: PRECURSOR_TYPE [M+Na]+
MS$DATA_PROCESSING: RECALIBRATE identity on assigned fragments and MS1
MS$DATA_PROCESSING: WHOLE RMassBank 2.8.0
PK$SPLASH: splash10-0udi-0009000000-2bc1c99ac16133345a85
PK$ANNOTATION: m/z tentative_formula formula_count mass error(ppm)
  122.0677 C6H11NaO+ 1 122.0702 -20.71
  307.0209 C15H8NaO6+ 2 307.0213 -1.2
  322.0426 C16H11NaO6+ 1 322.0448 -6.73
  323.053 C16H12NaO6+ 1 323.0526 1.23
  336.0226 C16H9NaO7+ 1 336.024 -4.35
  351.0468 C17H12NaO7+ 1 351.0475 -2.1
PK$NUM_PEAK: 6
PK$PEAK: m/z int. rel.int.
  122.0677 416 71
  307.0209 804 137
  322.0426 668 114
  323.053 368 62
  336.0226 404 68
  351.0468 5852 999
//
