ACCESSION: MSBNK-Athens_Univ-AU234005
RECORD_TITLE: Metolachlor CGA 368208; LC-ESI-QTOF; MS2; CE: 50 eV; R=35000; [M+H]+
DATE: 2019.05.30
AUTHORS: Nikiforos Alygizakis, Katerina Galani, Nikolaos Thomaidis, University of Athens
LICENSE: CC BY
COPYRIGHT: Copyright (C) 2019 Department of Chemistry, University of Athens
COMMENT: CONFIDENCE standard compound
COMMENT: INTERNAL_ID 2340
CH$NAME: Metolachlor CGA 368208
CH$NAME: 2-(2-ethyl-6-methylanilino)-2-oxoethanesulfonic acid
CH$COMPOUND_CLASS: N/A; Environmental Standard
CH$FORMULA: C11H15NO4S
CH$EXACT_MASS: 257.0721790
CH$SMILES: CCC1=CC=CC(C)=C1NC(=O)CS(O)(=O)=O
CH$IUPAC: InChI=1S/C11H15NO4S/c1-3-9-6-4-5-8(2)11(9)12-10(13)7-17(14,15)16/h4-6H,3,7H2,1-2H3,(H,12,13)(H,14,15,16)
CH$LINK: PUBCHEM CID:71312480
CH$LINK: INCHIKEY QPVPJECIHVSBLZ-UHFFFAOYSA-N
CH$LINK: CHEMSPIDER 28274751
AC$INSTRUMENT: Bruker maXis Impact
AC$INSTRUMENT_TYPE: LC-ESI-QTOF
AC$MASS_SPECTROMETRY: MS_TYPE MS2
AC$MASS_SPECTROMETRY: ION_MODE POSITIVE
AC$MASS_SPECTROMETRY: IONIZATION ESI
AC$MASS_SPECTROMETRY: FRAGMENTATION_MODE CID
AC$MASS_SPECTROMETRY: COLLISION_ENERGY 50 eV
AC$MASS_SPECTROMETRY: RESOLUTION 35000
AC$CHROMATOGRAPHY: COLUMN_NAME Acclaim RSLC C18 2.2um, 2.1x100mm, Thermo
AC$CHROMATOGRAPHY: FLOW_GRADIENT 99/1 at 0-1 min, 61/39 at 3 min, 0.1/99.9 at 14-16 min, 99/1 at 16.1-20 min
AC$CHROMATOGRAPHY: FLOW_RATE 200 uL/min at 0-3 min, 400 uL/min at 14 min, 480 uL/min at 16-19 min, 200 uL/min at 19.1-20 min
AC$CHROMATOGRAPHY: RETENTION_TIME 5.219 min
AC$CHROMATOGRAPHY: SOLVENT A 90:10 water:methanol with 0.01% formic acid and 5mM ammonium formate
AC$CHROMATOGRAPHY: SOLVENT B methanol with 0.01% formic acid and 5mM ammonium formate
MS$FOCUSED_ION: BASE_PEAK 258.0785
MS$FOCUSED_ION: PRECURSOR_M/Z 258.0795
MS$FOCUSED_ION: PRECURSOR_TYPE [M+H]+
MS$DATA_PROCESSING: RECALIBRATE identity on assigned fragments and MS1
MS$DATA_PROCESSING: WHOLE RMassBank 2.10.1
PK$SPLASH: splash10-01bc-0900000000-0e44b0ec8941cbcf5635
PK$ANNOTATION: m/z tentative_formula formula_count mass error(ppm)
  118.0644 C8H8N+ 3 118.0651 -5.95
  119.0734 C2H15O3S+ 3 119.0736 -2.17
  120.0787 C5H12O3+ 3 120.0781 5.26
  134.0961 C9H12N+ 2 134.0964 -2.48
  143.0703 C7H11O3+ 3 143.0703 0.23
  144.0798 C10H10N+ 3 144.0808 -7.04
PK$NUM_PEAK: 6
PK$PEAK: m/z int. rel.int.
  118.0644 592 584
  119.0734 488 481
  120.0787 1012 999
  134.0961 372 367
  143.0703 444 438
  144.0798 356 351
//
