ACCESSION: MSBNK-Athens_Univ-AU276703
RECORD_TITLE: Acetaminophen; LC-ESI-QTOF; MS2; CE: 30 eV; R=35000; [M+H]+
DATE: 2019.05.31
AUTHORS: Nikiforos Alygizakis, Katerina Galani, Nikolaos Thomaidis, University of Athens
LICENSE: CC BY
COPYRIGHT: Copyright (C) 2019 Department of Chemistry, University of Athens
COMMENT: CONFIDENCE standard compound
COMMENT: INTERNAL_ID 2767
CH$NAME: Acetaminophen
CH$NAME: N-(4-hydroxyphenyl)acetamide
CH$COMPOUND_CLASS: N/A; Environmental Standard
CH$FORMULA: C8H9NO2
CH$EXACT_MASS: 151.0633285
CH$SMILES: CC(=O)NC1=CC=C(O)C=C1
CH$IUPAC: InChI=1S/C8H9NO2/c1-6(10)9-7-2-4-8(11)5-3-7/h2-5,11H,1H3,(H,9,10)
CH$LINK: CAS 103-90-2
CH$LINK: CHEBI CHEBI:46195
CH$LINK: KEGG D00217
CH$LINK: PUBCHEM CID:1983
CH$LINK: INCHIKEY RZVAJINKPMORJF-UHFFFAOYSA-N
CH$LINK: CHEMSPIDER 1906
CH$LINK: COMPTOX DTXSID2020006
AC$INSTRUMENT: Bruker maXis Impact
AC$INSTRUMENT_TYPE: LC-ESI-QTOF
AC$MASS_SPECTROMETRY: MS_TYPE MS2
AC$MASS_SPECTROMETRY: ION_MODE POSITIVE
AC$MASS_SPECTROMETRY: IONIZATION ESI
AC$MASS_SPECTROMETRY: FRAGMENTATION_MODE CID
AC$MASS_SPECTROMETRY: COLLISION_ENERGY 30 eV
AC$MASS_SPECTROMETRY: RESOLUTION 35000
AC$CHROMATOGRAPHY: COLUMN_NAME Acclaim RSLC C18 2.2um, 2.1x100mm, Thermo
AC$CHROMATOGRAPHY: FLOW_GRADIENT 99/1 at 0-1 min, 61/39 at 3 min, 0.1/99.9 at 14-16 min, 99/1 at 16.1-20 min
AC$CHROMATOGRAPHY: FLOW_RATE 200 uL/min at 0-3 min, 400 uL/min at 14 min, 480 uL/min at 16-19 min, 200 uL/min at 19.1-20 min
AC$CHROMATOGRAPHY: RETENTION_TIME 3.426 min
AC$CHROMATOGRAPHY: SOLVENT A 90:10 water:methanol with 0.01% formic acid and 5mM ammonium formate
AC$CHROMATOGRAPHY: SOLVENT B methanol with 0.01% formic acid and 5mM ammonium formate
MS$FOCUSED_ION: BASE_PEAK 152.0693
MS$FOCUSED_ION: PRECURSOR_M/Z 152.0706
MS$FOCUSED_ION: PRECURSOR_TYPE [M+H]+
MS$DATA_PROCESSING: RECALIBRATE identity on assigned fragments and MS1
MS$DATA_PROCESSING: WHOLE RMassBank 2.10.1
PK$SPLASH: splash10-0w30-0900000000-9ced8da0c1ba3c99da94
PK$ANNOTATION: m/z tentative_formula formula_count mass error(ppm)
  110.0598 C6H8NO+ 1 110.06 -1.86
  134.0593 C8H8NO+ 1 134.06 -5.82
  152.0697 C8H10NO2+ 1 152.0706 -5.85
PK$NUM_PEAK: 3
PK$PEAK: m/z int. rel.int.
  110.0598 656 734
  134.0593 672 752
  152.0697 892 999
//
