ACCESSION: MSBNK-Athens_Univ-AU242801
RECORD_TITLE: Aniline Yellow; LC-ESI-QTOF; MS2; CE: 10 eV; R=35000; [M+H]+
DATE: 2019.04.05
AUTHORS: Nikiforos Alygizakis, Katerina Galani, Nikolaos Thomaidis, University of Athens
LICENSE: CC BY
COPYRIGHT: Copyright (C) 2019 Department of Chemistry, University of Athens
COMMENT: CONFIDENCE standard compound
COMMENT: INTERNAL_ID 2428
CH$NAME: Aniline Yellow
CH$COMPOUND_CLASS: N/A; Environmental Standard
CH$FORMULA: C12H11N3
CH$EXACT_MASS: 197.0952974
CH$SMILES: NC1=CC=C(C=C1)\N=N\C1=CC=CC=C1
CH$IUPAC: InChI=1S/C12H11N3/c13-10-6-8-12(9-7-10)15-14-11-4-2-1-3-5-11/h1-9H,13H2/b15-14+
CH$LINK: CAS 60-09-3
CH$LINK: CHEBI CHEBI:233869
CH$LINK: INCHIKEY QPQKUYVSJWQSDY-CCEZHUSRSA-N
CH$LINK: CHEMSPIDER 5828
CH$LINK: COMPTOX DTXSID6024460
AC$INSTRUMENT: Bruker maXis Impact
AC$INSTRUMENT_TYPE: LC-ESI-QTOF
AC$MASS_SPECTROMETRY: MS_TYPE MS2
AC$MASS_SPECTROMETRY: ION_MODE POSITIVE
AC$MASS_SPECTROMETRY: IONIZATION ESI
AC$MASS_SPECTROMETRY: FRAGMENTATION_MODE CID
AC$MASS_SPECTROMETRY: COLLISION_ENERGY 10 eV
AC$MASS_SPECTROMETRY: RESOLUTION 35000
AC$CHROMATOGRAPHY: COLUMN_NAME Acclaim RSLC C18 2.2um, 2.1x100mm, Thermo
AC$CHROMATOGRAPHY: FLOW_GRADIENT 99/1 at 0-1 min, 61/39 at 3 min, 0.1/99.9 at 14-16 min, 99/1 at 16.1-20 min
AC$CHROMATOGRAPHY: FLOW_RATE 200 uL/min at 0-3 min, 400 uL/min at 14 min, 480 uL/min at 16-19 min, 200 uL/min at 19.1-20 min
AC$CHROMATOGRAPHY: RETENTION_TIME 9.244 min
AC$CHROMATOGRAPHY: SOLVENT A 90:10 water:methanol with 0.01% formic acid and 5mM ammonium formate
AC$CHROMATOGRAPHY: SOLVENT B methanol with 0.01% formic acid and 5mM ammonium formate
MS$FOCUSED_ION: BASE_PEAK 198.1019
MS$FOCUSED_ION: PRECURSOR_M/Z 198.1026
MS$FOCUSED_ION: PRECURSOR_TYPE [M+H]+
MS$DATA_PROCESSING: RECALIBRATE identity on assigned fragments and MS1
MS$DATA_PROCESSING: WHOLE RMassBank 2.10.0
PK$SPLASH: splash10-0002-0900000000-a706042dbbcd7c1266cd
PK$ANNOTATION: m/z tentative_formula formula_count mass error(ppm)
  198.102 C12H12N3+ 1 198.1026 -3.02
  199.1049 C11[13]CH12N3+ 1 199.1065 -7.75
  200.1072 C10[13]C2H12N3+ 1 200.1098 -13.14
PK$NUM_PEAK: 3
PK$PEAK: m/z int. rel.int.
  198.102 1055288 999
  199.1049 137320 129
  200.1072 8548 8
//
