ACCESSION: MSBNK-Athens_Univ-AU346452
RECORD_TITLE: Fipronil; LC-ESI-QTOF; MS2; CE: 20 eV; R=35000; [M-H]-
DATE: 2016.02.28
AUTHORS: Nikiforos Alygizakis, Nikolaos Thomaidis, University of Athens
LICENSE: CC BY
COPYRIGHT: Copyright (C) 2016 Department of Chemistry, University of Athens
COMMENT: CONFIDENCE standard compound
COMMENT: INTERNAL_ID 3464
CH$NAME: Fipronil
CH$NAME: 5-amino-1-[2,6-dichloro-4-(trifluoromethyl)phenyl]-4-(trifluoromethylsulfinyl)pyrazole-3-carbonitrile
CH$COMPOUND_CLASS: N/A; Environmental Standard
CH$FORMULA: C12H4Cl2F6N4OS
CH$EXACT_MASS: 435.9387064
CH$SMILES: c1c(cc(c(c1Cl)n2c(c(c(n2)C#N)S(=O)C(F)(F)F)N)Cl)C(F)(F)F
CH$IUPAC: InChI=1S/C12H4Cl2F6N4OS/c13-5-1-4(11(15,16)17)2-6(14)8(5)24-10(22)9(7(3-21)23-24)26(25)12(18,19)20/h1-2H,22H2
CH$LINK: CAS 120068-37-3
CH$LINK: CHEBI CHEBI:83394
CH$LINK: KEGG C11099
CH$LINK: PUBCHEM CID:3352
CH$LINK: INCHIKEY ZOCSXAVNDGMNBV-UHFFFAOYSA-N
CH$LINK: CHEMSPIDER 3235
CH$LINK: COMPTOX DTXSID4034609
AC$INSTRUMENT: Bruker maXis Impact
AC$INSTRUMENT_TYPE: LC-ESI-QTOF
AC$MASS_SPECTROMETRY: MS_TYPE MS2
AC$MASS_SPECTROMETRY: ION_MODE NEGATIVE
AC$MASS_SPECTROMETRY: IONIZATION ESI
AC$MASS_SPECTROMETRY: FRAGMENTATION_MODE CID
AC$MASS_SPECTROMETRY: COLLISION_ENERGY 20 eV
AC$MASS_SPECTROMETRY: RESOLUTION 35000
AC$CHROMATOGRAPHY: COLUMN_NAME Acclaim RSLC C18 2.2um, 2.1x100mm, Thermo
AC$CHROMATOGRAPHY: FLOW_GRADIENT 99/1 at 0-1 min, 61/39 at 3 min, 0.1/99.9 at 14-16 min, 99/1 at 16.1-20 min
AC$CHROMATOGRAPHY: FLOW_RATE 200 uL/min at 0-3 min, 400 uL/min at 14 min, 480 uL/min at 16-19 min, 200 uL/min at 19.1-20 min
AC$CHROMATOGRAPHY: RETENTION_TIME 10.419 min
AC$CHROMATOGRAPHY: SOLVENT A 90:10 water:methanol with 5mM ammonium acetate
AC$CHROMATOGRAPHY: SOLVENT B methanol with 5mM ammonium acetate
MS$FOCUSED_ION: BASE_PEAK 434.9321
MS$FOCUSED_ION: PRECURSOR_M/Z 434.9314
MS$FOCUSED_ION: PRECURSOR_TYPE [M-H]-
MS$DATA_PROCESSING: RECALIBRATE identity on assigned fragments and MS1
MS$DATA_PROCESSING: WHOLE RMassBank 1.99.10
PK$SPLASH: splash10-004i-0009000000-6fcca9a8920f4069a07b
PK$ANNOTATION: m/z tentative_formula formula_count mass error(ppm)
  249.9573 C10H3Cl2F3- 17 249.9569 1.59
  277.9537 C9H2ClF3N2OS- 17 277.9534 1.13
  317.9691 C12F6N2S- 8 317.9692 -0.18
  329.9604 C11H2ClF3N4OS- 5 329.9595 2.51
  331.9578 C11H2[37]ClF3N4OS- 1 331.956 5.27
  365.9363 C11H3Cl2F3N4OS- 4 365.9362 0.18
  398.9503 C12H2ClF6N4OS- 1 398.9548 -11.2
PK$NUM_PEAK: 7
PK$PEAK: m/z int. rel.int.
  249.9573 596 79
  277.9537 500 66
  317.9691 876 116
  329.9604 7508 999
  331.9578 1680 223
  365.9363 1096 145
  398.9503 328 43
//
