ACCESSION: MSBNK-Athens_Univ-AU264904
RECORD_TITLE: Metazachlor BH 479-9; LC-ESI-QTOF; MS2; CE: 40 eV; R=35000; [M+H]+
DATE: 2019.05.30
AUTHORS: Nikiforos Alygizakis, Katerina Galani, Nikolaos Thomaidis, University of Athens
LICENSE: CC BY
COPYRIGHT: Copyright (C) 2019 Department of Chemistry, University of Athens
COMMENT: CONFIDENCE standard compound
COMMENT: INTERNAL_ID 2649
CH$NAME: Metazachlor BH 479-9
CH$COMPOUND_CLASS: N/A; Environmental Standard
CH$FORMULA: C16H19N3O4S
CH$EXACT_MASS: 349.1096271
CH$SMILES: CC1=CC=CC(C)=C1N(CN1C=CC=N1)C(=O)CS(=O)CC(O)=O
CH$IUPAC: InChI=1S/C16H19N3O4S/c1-12-5-3-6-13(2)16(12)19(11-18-8-4-7-17-18)14(20)9-24(23)10-15(21)22/h3-8H,9-11H2,1-2H3,(H,21,22)
CH$LINK: CHEMSPIDER 71047190
CH$LINK: INCHIKEY DYCHUHSHQIYFAI-UHFFFAOYSA-N
CH$LINK: PUBCHEM CID:139291839
AC$INSTRUMENT: Bruker maXis Impact
AC$INSTRUMENT_TYPE: LC-ESI-QTOF
AC$MASS_SPECTROMETRY: MS_TYPE MS2
AC$MASS_SPECTROMETRY: ION_MODE POSITIVE
AC$MASS_SPECTROMETRY: IONIZATION ESI
AC$MASS_SPECTROMETRY: FRAGMENTATION_MODE CID
AC$MASS_SPECTROMETRY: COLLISION_ENERGY 40 eV
AC$MASS_SPECTROMETRY: RESOLUTION 35000
AC$CHROMATOGRAPHY: COLUMN_NAME Acclaim RSLC C18 2.2um, 2.1x100mm, Thermo
AC$CHROMATOGRAPHY: FLOW_GRADIENT 99/1 at 0-1 min, 61/39 at 3 min, 0.1/99.9 at 14-16 min, 99/1 at 16.1-20 min
AC$CHROMATOGRAPHY: FLOW_RATE 200 uL/min at 0-3 min, 400 uL/min at 14 min, 480 uL/min at 16-19 min, 200 uL/min at 19.1-20 min
AC$CHROMATOGRAPHY: RETENTION_TIME 4.944 min
AC$CHROMATOGRAPHY: SOLVENT A 90:10 water:methanol with 0.01% formic acid and 5mM ammonium formate
AC$CHROMATOGRAPHY: SOLVENT B methanol with 0.01% formic acid and 5mM ammonium formate
MS$FOCUSED_ION: BASE_PEAK 350.1163
MS$FOCUSED_ION: PRECURSOR_M/Z 350.1169
MS$FOCUSED_ION: PRECURSOR_TYPE [M+H]+
MS$DATA_PROCESSING: RECALIBRATE identity on assigned fragments and MS1
MS$DATA_PROCESSING: WHOLE RMassBank 2.10.1
PK$SPLASH: splash10-001i-0900000000-a72adf226b3db0218d72
PK$ANNOTATION: m/z tentative_formula formula_count mass error(ppm)
  130.9782 C2HN3O2S+ 2 130.9784 -1.34
  132.079 C6H12O3+ 5 132.0781 7.03
  133.0869 C6H13O3+ 5 133.0859 7.2
  134.0953 C6H14O3+ 5 134.0937 11.26
  135.0982 C5[13]CH14O3+ 1 135.0976 4.36
  136.101 C6H14O2[18]O+ 1 136.0985 17.84
  148.989 C2H3N3O3S+ 3 148.989 0.25
  156.0799 C3H14N3O2S+ 5 156.0801 -1.72
  160.0752 C2H14N3O3S+ 6 160.075 0.8
  175.0968 C8H15O4+ 5 175.0965 2.08
PK$NUM_PEAK: 10
PK$PEAK: m/z int. rel.int.
  130.9782 2228 14
  132.079 3228 21
  133.0869 2068 13
  134.0953 150316 999
  135.0982 16188 107
  136.101 776 5
  148.989 3340 22
  156.0799 756 5
  160.0752 1108 7
  175.0968 3272 21
//
