ACCESSION: MSBNK-Athens_Univ-AU250502
RECORD_TITLE: Promethazin; LC-ESI-QTOF; MS2; CE: 20 eV; R=35000; [M+H]+
DATE: 2019.04.08
AUTHORS: Nikiforos Alygizakis, Katerina Galani, Nikolaos Thomaidis, University of Athens
LICENSE: CC BY
COPYRIGHT: Copyright (C) 2019 Department of Chemistry, University of Athens
COMMENT: CONFIDENCE standard compound
COMMENT: INTERNAL_ID 2505
CH$NAME: Promethazin
CH$NAME: Promethazine
CH$NAME: N,N-dimethyl-1-phenothiazin-10-ylpropan-2-amine
CH$COMPOUND_CLASS: N/A; Environmental Standard
CH$FORMULA: C17H20N2S
CH$EXACT_MASS: 284.1347196
CH$SMILES: CC(CN1C2=CC=CC=C2SC2=CC=CC=C12)N(C)C
CH$IUPAC: InChI=1S/C17H20N2S/c1-13(18(2)3)12-19-14-8-4-6-10-16(14)20-17-11-7-5-9-15(17)19/h4-11,13H,12H2,1-3H3
CH$LINK: CAS 60-87-7
CH$LINK: CHEBI CHEBI:8461
CH$LINK: KEGG C07404
CH$LINK: PUBCHEM CID:4927
CH$LINK: INCHIKEY PWWVAXIEGOYWEE-UHFFFAOYSA-N
CH$LINK: CHEMSPIDER 4758
CH$LINK: COMPTOX DTXSID7023518
AC$INSTRUMENT: Bruker maXis Impact
AC$INSTRUMENT_TYPE: LC-ESI-QTOF
AC$MASS_SPECTROMETRY: MS_TYPE MS2
AC$MASS_SPECTROMETRY: ION_MODE POSITIVE
AC$MASS_SPECTROMETRY: IONIZATION ESI
AC$MASS_SPECTROMETRY: FRAGMENTATION_MODE CID
AC$MASS_SPECTROMETRY: COLLISION_ENERGY 20 eV
AC$MASS_SPECTROMETRY: RESOLUTION 35000
AC$CHROMATOGRAPHY: COLUMN_NAME Acclaim RSLC C18 2.2um, 2.1x100mm, Thermo
AC$CHROMATOGRAPHY: FLOW_GRADIENT 99/1 at 0-1 min, 61/39 at 3 min, 0.1/99.9 at 14-16 min, 99/1 at 16.1-20 min
AC$CHROMATOGRAPHY: FLOW_RATE 200 uL/min at 0-3 min, 400 uL/min at 14 min, 480 uL/min at 16-19 min, 200 uL/min at 19.1-20 min
AC$CHROMATOGRAPHY: RETENTION_TIME 7.335 min
AC$CHROMATOGRAPHY: SOLVENT A 90:10 water:methanol with 0.01% formic acid and 5mM ammonium formate
AC$CHROMATOGRAPHY: SOLVENT B methanol with 0.01% formic acid and 5mM ammonium formate
MS$FOCUSED_ION: BASE_PEAK 285.1417
MS$FOCUSED_ION: PRECURSOR_M/Z 285.142
MS$FOCUSED_ION: PRECURSOR_TYPE [M+H]+
MS$DATA_PROCESSING: RECALIBRATE identity on assigned fragments and MS1
MS$DATA_PROCESSING: WHOLE RMassBank 2.10.1
PK$SPLASH: splash10-0002-0950000000-9bac80c18b89b77d72fb
PK$ANNOTATION: m/z tentative_formula formula_count mass error(ppm)
  162.0356 C9H8NS+ 2 162.0372 -10.09
  198.0361 C12H8NS+ 2 198.0372 -5.35
  199.0391 C11[13]CH8NS+ 1 199.0411 -9.81
  200.0325 C12H8N[34]S+ 1 200.0335 -5.32
  207.102 C15H13N+ 1 207.1043 -10.76
  225.0596 C14H11NS+ 2 225.0607 -4.8
  240.0831 C15H14NS+ 1 240.0841 -4.22
  241.0866 C14[13]CH14NS+ 1 241.0881 -5.98
  242.0798 C15H14N[34]S+ 1 242.0805 -2.68
  285.1416 C17H21N2S+ 1 285.142 -1.33
  286.1451 C16[13]CH21N2S+ 1 286.1459 -2.88
  287.1407 C17H21N2[34]S+ 1 287.1383 8.05
PK$NUM_PEAK: 12
PK$PEAK: m/z int. rel.int.
  162.0356 1904 8
  198.0361 213516 999
  199.0391 34700 162
  200.0325 8840 41
  207.102 1192 5
  225.0596 1884 8
  240.0831 75828 354
  241.0866 17012 79
  242.0798 4208 19
  285.1416 32156 150
  286.1451 6796 31
  287.1407 1644 7
//
