ACCESSION: MSBNK-Athens_Univ-AU218153
RECORD_TITLE: Dronedarone; LC-ESI-QTOF; MS2; CE: 30 eV; R=35000; [M-H]-
DATE: 2016.02.25
AUTHORS: Nikiforos Alygizakis, Reza Aalizadeh, Nikolaos Thomaidis, University of Athens
LICENSE: CC BY
COPYRIGHT: Copyright (C) 2016 Department of Chemistry, University of Athens
COMMENT: CONFIDENCE standard compound
COMMENT: INTERNAL_ID 2181
CH$NAME: Dronedarone
CH$NAME: N-[2-butyl-3-[4-[3-(dibutylamino)propoxy]benzoyl]-1-benzofuran-5-yl]methanesulfonamide
CH$COMPOUND_CLASS: N/A; Environmental Standard
CH$FORMULA: C31H44N2O5S
CH$EXACT_MASS: 556.2970935
CH$SMILES: CCCCc1c(c2cc(ccc2o1)NS(=O)(=O)C)C(=O)c3ccc(cc3)OCCCN(CCCC)CCCC
CH$IUPAC: InChI=1S/C31H44N2O5S/c1-5-8-12-29-30(27-23-25(32-39(4,35)36)15-18-28(27)38-29)31(34)24-13-16-26(17-14-24)37-22-11-21-33(19-9-6-2)20-10-7-3/h13-18,23,32H,5-12,19-22H2,1-4H3
CH$LINK: CAS 141626-36-0
CH$LINK: CHEBI CHEBI:50659
CH$LINK: KEGG D02537
CH$LINK: PUBCHEM CID:208898
CH$LINK: INCHIKEY ZQTNQVWKHCQYLQ-UHFFFAOYSA-N
CH$LINK: CHEMSPIDER 180996
CH$LINK: COMPTOX DTXSID3048653
AC$INSTRUMENT: Bruker maXis Impact
AC$INSTRUMENT_TYPE: LC-ESI-QTOF
AC$MASS_SPECTROMETRY: MS_TYPE MS2
AC$MASS_SPECTROMETRY: ION_MODE NEGATIVE
AC$MASS_SPECTROMETRY: IONIZATION ESI
AC$MASS_SPECTROMETRY: FRAGMENTATION_MODE CID
AC$MASS_SPECTROMETRY: COLLISION_ENERGY 30 eV
AC$MASS_SPECTROMETRY: RESOLUTION 35000
AC$CHROMATOGRAPHY: COLUMN_NAME Acclaim RSLC C18 2.2um, 2.1x100mm, Thermo
AC$CHROMATOGRAPHY: FLOW_GRADIENT 99/1 at 0-1 min, 61/39 at 3 min, 0.1/99.9 at 14-16 min, 99/1 at 16.1-20 min
AC$CHROMATOGRAPHY: FLOW_RATE 200 uL/min at 0-3 min, 400 uL/min at 14 min, 480 uL/min at 16-19 min, 200 uL/min at 19.1-20 min
AC$CHROMATOGRAPHY: RETENTION_TIME 12.720 min
AC$CHROMATOGRAPHY: SOLVENT A 90:10 water:methanol with 5mM ammonium acetate
AC$CHROMATOGRAPHY: SOLVENT B methanol with 5mM ammonium acetate
MS$FOCUSED_ION: BASE_PEAK 227.1996
MS$FOCUSED_ION: PRECURSOR_M/Z 555.2898
MS$FOCUSED_ION: PRECURSOR_TYPE [M-H]-
MS$DATA_PROCESSING: RECALIBRATE identity on assigned fragments and MS1
MS$DATA_PROCESSING: WHOLE RMassBank 1.99.10
PK$SPLASH: splash10-0a4i-0000090000-77777b7e67d24302cc61
PK$ANNOTATION: m/z tentative_formula formula_count mass error(ppm)
  555.2825 C31H43N2O5S- 1 555.2898 -13.17
  556.2852 C30[13]CH43N2O5S- 1 556.2926 -13.31
PK$NUM_PEAK: 2
PK$PEAK: m/z int. rel.int.
  555.2825 2276 999
  556.2852 932 409
//
