ACCESSION: MSBNK-Athens_Univ-AU214201
RECORD_TITLE: Amisulpride; LC-ESI-QTOF; MS2; CE: 10 eV; R=35000; [M+H]+
DATE: 2015.12.04
AUTHORS: Nikiforos Alygizakis, Nikolaos Thomaidis, University of Athens
LICENSE: CC BY-SA
COPYRIGHT: Copyright (C) 2015 Department of Chemistry, University of Athens
COMMENT: CONFIDENCE standard compound
COMMENT: INTERNAL_ID 2142
CH$NAME: Amisulpride
CH$NAME: 4-amino-N-[(1-ethylpyrrolidin-2-yl)methyl]-5-ethylsulfonyl-2-methoxybenzamide
CH$COMPOUND_CLASS: N/A; Environmental Standard
CH$FORMULA: C17H27N3O4S
CH$EXACT_MASS: 369.1722273
CH$SMILES: CCN1CCCC1CNC(=O)C1=C(OC)C=C(N)C(=C1)S(=O)(=O)CC
CH$IUPAC: InChI=1S/C17H27N3O4S/c1-4-20-8-6-7-12(20)11-19-17(21)13-9-16(25(22,23)5-2)14(18)10-15(13)24-3/h9-10,12H,4-8,11,18H2,1-3H3,(H,19,21)
CH$LINK: CAS 71675-85-9
CH$LINK: CHEBI CHEBI:64045
CH$LINK: KEGG D07310
CH$LINK: PUBCHEM CID:2159
CH$LINK: INCHIKEY NTJOBXMMWNYJFB-UHFFFAOYSA-N
CH$LINK: CHEMSPIDER 2074
CH$LINK: COMPTOX DTXSID5042613
AC$INSTRUMENT: Bruker maXis Impact
AC$INSTRUMENT_TYPE: LC-ESI-QTOF
AC$MASS_SPECTROMETRY: MS_TYPE MS2
AC$MASS_SPECTROMETRY: ION_MODE POSITIVE
AC$MASS_SPECTROMETRY: IONIZATION ESI
AC$MASS_SPECTROMETRY: FRAGMENTATION_MODE CID
AC$MASS_SPECTROMETRY: COLLISION_ENERGY 10 eV
AC$MASS_SPECTROMETRY: RESOLUTION 35000
AC$CHROMATOGRAPHY: COLUMN_NAME Acclaim RSLC C18 2.2um, 2.1x100mm, Thermo
AC$CHROMATOGRAPHY: FLOW_GRADIENT 99/1 at 0-1 min, 61/39 at 3 min, 0.1/99.9 at 14-16 min, 99/1 at 16.1-20 min
AC$CHROMATOGRAPHY: FLOW_RATE 200 uL/min at 0-3 min, 400 uL/min at 14 min, 480 uL/min at 16-19 min, 200 uL/min at 19.1-20 min
AC$CHROMATOGRAPHY: RETENTION_TIME 3.9 min
AC$CHROMATOGRAPHY: SOLVENT A 90:10 water:methanol with 0.01% formic acid and 5mM ammonium formate
AC$CHROMATOGRAPHY: SOLVENT B methanol with 0.01% formic acid and 5mM ammonium formate
MS$FOCUSED_ION: BASE_PEAK 370.1803
MS$FOCUSED_ION: PRECURSOR_M/Z 370.1795
MS$FOCUSED_ION: PRECURSOR_TYPE [M+H]+
MS$DATA_PROCESSING: RECALIBRATE identity on assigned fragments and MS1
MS$DATA_PROCESSING: REANALYZE Peaks with additional N2/O included
MS$DATA_PROCESSING: WHOLE RMassBank 2.0.3
PK$SPLASH: splash10-00di-0019000000-7dec57b5001ab24504cc
PK$ANNOTATION: m/z tentative_formula formula_count mass error(ppm)
  242.0482 C10H12NO4S+ 4 242.0482 0.3
  370.181 C17H28N3O4S+ 1 370.1795 3.98
  371.1827 C16[13]CH28N3O4S+ 1 371.1824 0.81
  372.1784 C15[13]C2H28N3O4S+ 1 372.179 -1.61
PK$NUM_PEAK: 4
PK$PEAK: m/z int. rel.int.
  242.0482 486040 198
  370.181 2442076 999
  371.1827 431420 176
  372.1784 85872 35
//
