ACCESSION: MSBNK-Athens_Univ-AU237201
RECORD_TITLE: Propylparaben; LC-ESI-QTOF; MS2; CE: 10 eV; R=35000; [M+H]+
DATE: 2019.05.30
AUTHORS: Nikiforos Alygizakis, Katerina Galani, Nikolaos Thomaidis, University of Athens
LICENSE: CC BY
COPYRIGHT: Copyright (C) 2019 Department of Chemistry, University of Athens
COMMENT: CONFIDENCE standard compound
COMMENT: INTERNAL_ID 2372
CH$NAME: Propylparaben
CH$NAME: propyl 4-hydroxybenzoate
CH$COMPOUND_CLASS: N/A; Environmental Standard
CH$FORMULA: C10H12O3
CH$EXACT_MASS: 180.0786442
CH$SMILES: CCCOC(=O)C1=CC=C(O)C=C1
CH$IUPAC: InChI=1S/C10H12O3/c1-2-7-13-10(12)8-3-5-9(11)6-4-8/h3-6,11H,2,7H2,1H3
CH$LINK: CAS 94-13-3
CH$LINK: CHEBI CHEBI:32063
CH$LINK: KEGG D01422
CH$LINK: PUBCHEM CID:7175
CH$LINK: INCHIKEY QELSKZZBTMNZEB-UHFFFAOYSA-N
CH$LINK: CHEMSPIDER 6907
CH$LINK: COMPTOX DTXSID4022527
AC$INSTRUMENT: Bruker maXis Impact
AC$INSTRUMENT_TYPE: LC-ESI-QTOF
AC$MASS_SPECTROMETRY: MS_TYPE MS2
AC$MASS_SPECTROMETRY: ION_MODE POSITIVE
AC$MASS_SPECTROMETRY: IONIZATION ESI
AC$MASS_SPECTROMETRY: FRAGMENTATION_MODE CID
AC$MASS_SPECTROMETRY: COLLISION_ENERGY 10 eV
AC$MASS_SPECTROMETRY: RESOLUTION 35000
AC$CHROMATOGRAPHY: COLUMN_NAME Acclaim RSLC C18 2.2um, 2.1x100mm, Thermo
AC$CHROMATOGRAPHY: FLOW_GRADIENT 99/1 at 0-1 min, 61/39 at 3 min, 0.1/99.9 at 14-16 min, 99/1 at 16.1-20 min
AC$CHROMATOGRAPHY: FLOW_RATE 200 uL/min at 0-3 min, 400 uL/min at 14 min, 480 uL/min at 16-19 min, 200 uL/min at 19.1-20 min
AC$CHROMATOGRAPHY: RETENTION_TIME 8.357 min
AC$CHROMATOGRAPHY: SOLVENT A 90:10 water:methanol with 0.01% formic acid and 5mM ammonium formate
AC$CHROMATOGRAPHY: SOLVENT B methanol with 0.01% formic acid and 5mM ammonium formate
MS$FOCUSED_ION: BASE_PEAK 181.0843
MS$FOCUSED_ION: PRECURSOR_M/Z 181.0859
MS$FOCUSED_ION: PRECURSOR_TYPE [M+H]+
MS$DATA_PROCESSING: RECALIBRATE identity on assigned fragments and MS1
MS$DATA_PROCESSING: WHOLE RMassBank 2.10.1
PK$SPLASH: splash10-000i-0900000000-c2e531f56db73c6d33e8
PK$ANNOTATION: m/z tentative_formula formula_count mass error(ppm)
  121.027 C7H5O2+ 1 121.0284 -11.94
  139.0376 C7H7O3+ 1 139.039 -10.01
  140.0415 C6[13]CH7O3+ 1 140.0429 -9.96
PK$NUM_PEAK: 3
PK$PEAK: m/z int. rel.int.
  121.027 1580 66
  139.0376 23844 999
  140.0415 2316 97
//
