ACCESSION: MSBNK-Athens_Univ-AU591618
RECORD_TITLE: Fluorene; GC-APCI-QTOF; MS2; CE: 20 eV; R=35000; [M]+
DATE: 2019.11.21
AUTHORS: Dimitrios E. Damalas, Stefanos Kokolakis, Reza Aalizadeh, Nikolaos Thomaidis, University of Athens
LICENSE: CC BY
COPYRIGHT: Copyright (C) 2019 Department of Chemistry, University of Athens
COMMENT: CONFIDENCE Reference Standard (Level 1)
COMMENT: INTERNAL_ID 5916
CH$NAME: Fluorene
CH$NAME: 9H-fluorene
CH$COMPOUND_CLASS: N/A; Environmental Standard
CH$FORMULA: C13H10
CH$EXACT_MASS: 166.0783
CH$SMILES: C1C2=C(C=CC=C2)C2=C1C=CC=C2
CH$IUPAC: InChI=1S/C13H10/c1-3-7-12-10(5-1)9-11-6-2-4-8-13(11)12/h1-8H,9H2
CH$LINK: CAS 86-73-7
CH$LINK: CHEBI CHEBI:28266
CH$LINK: KEGG C07715
CH$LINK: PUBCHEM CID:6853
CH$LINK: INCHIKEY NIHNNTQXNPWCJQ-UHFFFAOYSA-N
CH$LINK: CHEMSPIDER 6592
AC$INSTRUMENT: Bruker 450 GC coupled to maXis Impact
AC$INSTRUMENT_TYPE: GC-APCI-QTOF
AC$MASS_SPECTROMETRY: MS_TYPE MS2
AC$MASS_SPECTROMETRY: ION_MODE POSITIVE
AC$MASS_SPECTROMETRY: IONIZATION APCI
AC$MASS_SPECTROMETRY: FRAGMENTATION_MODE CID
AC$MASS_SPECTROMETRY: COLLISION_ENERGY 20 eV
AC$MASS_SPECTROMETRY: RESOLUTION 35000
AC$MASS_SPECTROMETRY: SOURCE_TEMPERATURE 250 C
AC$CHROMATOGRAPHY: CARRIER_GAS Helium
AC$CHROMATOGRAPHY: COLUMN_NAME Rxi-5Sil MS column, 30m, 0.25mm i.d., 0.25µm film thickness (Restek)
AC$CHROMATOGRAPHY: COLUMN_TEMPERATURE_GRADIENT 55 C at 0 min, 55 C at 3 min, 180 C at 11.33 min with 15 C/min, 280 C at 26.72 min with 6.5 C/min, 280 C at 31.72 min, 300 C at 33.72 min with 10 C/min, 300 C at 39 min
AC$CHROMATOGRAPHY: FLOW_RATE 1.5 mL/min
AC$CHROMATOGRAPHY: RETENTION_TIME 13.233 min
AC$CHROMATOGRAPHY: TRANSFERLINE_TEMPERATURE 290 C
AC$CHROMATOGRAPHY: INJECTION_TEMPERATURE 280 C
MS$FOCUSED_ION: BASE_PEAK 166.0737
MS$FOCUSED_ION: PRECURSOR_M/Z 166.0777
MS$FOCUSED_ION: PRECURSOR_TYPE [M]+
MS$DATA_PROCESSING: RECALIBRATE identity on assigned fragments and MS1
MS$DATA_PROCESSING: WHOLE RMassBank 2.8.0
PK$SPLASH: splash10-014i-0900000000-c6798d8186646bd45b2e
PK$ANNOTATION: m/z tentative_formula formula_count mass error(ppm)
  141.0679 C11H9+ 1 141.0699 -14.04
  165.066 C13H9+ 1 165.0699 -23.47
PK$NUM_PEAK: 2
PK$PEAK: m/z int. rel.int.
  141.0679 576 5
  165.066 114796 999
//
