ACCESSION: MSBNK-Athens_Univ-AU209454
RECORD_TITLE: Irbesartan; LC-ESI-QTOF; MS2; CE: 40 eV; R=35000; [M-H]-
DATE: 2016.02.25
AUTHORS: Nikiforos Alygizakis, Reza Aalizadeh, Nikolaos Thomaidis, University of Athens
LICENSE: CC BY
COPYRIGHT: Copyright (C) 2016 Department of Chemistry, University of Athens
COMMENT: CONFIDENCE standard compound
COMMENT: INTERNAL_ID 2094
CH$NAME: Irbesartan
CH$NAME: 2-butyl-3-[[4-[2-(2H-tetrazol-5-yl)phenyl]phenyl]methyl]-1,3-diazaspiro[4.4]non-1-en-4-one
CH$COMPOUND_CLASS: N/A; Environmental Standard
CH$FORMULA: C25H28N6O
CH$EXACT_MASS: 428.2324595
CH$SMILES: CCCCC1=NC2(CCCC2)C(=O)N1CC1=CC=C(C=C1)C1=CC=CC=C1C1=NNN=N1
CH$IUPAC: InChI=1S/C25H28N6O/c1-2-3-10-22-26-25(15-6-7-16-25)24(32)31(22)17-18-11-13-19(14-12-18)20-8-4-5-9-21(20)23-27-29-30-28-23/h4-5,8-9,11-14H,2-3,6-7,10,15-17H2,1H3,(H,27,28,29,30)
CH$LINK: CAS 138402-11-6
CH$LINK: CHEBI CHEBI:5959
CH$LINK: KEGG D00523
CH$LINK: PUBCHEM CID:3749
CH$LINK: INCHIKEY YOSHYTLCDANDAN-UHFFFAOYSA-N
CH$LINK: CHEMSPIDER 3618
CH$LINK: COMPTOX DTXSID0023169
AC$INSTRUMENT: Bruker maXis Impact
AC$INSTRUMENT_TYPE: LC-ESI-QTOF
AC$MASS_SPECTROMETRY: MS_TYPE MS2
AC$MASS_SPECTROMETRY: ION_MODE NEGATIVE
AC$MASS_SPECTROMETRY: IONIZATION ESI
AC$MASS_SPECTROMETRY: FRAGMENTATION_MODE CID
AC$MASS_SPECTROMETRY: COLLISION_ENERGY 40 eV
AC$MASS_SPECTROMETRY: RESOLUTION 35000
AC$CHROMATOGRAPHY: COLUMN_NAME Acclaim RSLC C18 2.2um, 2.1x100mm, Thermo
AC$CHROMATOGRAPHY: FLOW_GRADIENT 99/1 at 0-1 min, 61/39 at 3 min, 0.1/99.9 at 14-16 min, 99/1 at 16.1-20 min
AC$CHROMATOGRAPHY: FLOW_RATE 200 uL/min at 0-3 min, 400 uL/min at 14 min, 480 uL/min at 16-19 min, 200 uL/min at 19.1-20 min
AC$CHROMATOGRAPHY: RETENTION_TIME 8.528 min
AC$CHROMATOGRAPHY: SOLVENT A 90:10 water:methanol with 5mM ammonium acetate
AC$CHROMATOGRAPHY: SOLVENT B methanol with 5mM ammonium acetate
MS$FOCUSED_ION: BASE_PEAK 427.221
MS$FOCUSED_ION: PRECURSOR_M/Z 427.2252
MS$FOCUSED_ION: PRECURSOR_TYPE [M-H]-
MS$DATA_PROCESSING: RECALIBRATE identity on assigned fragments and MS1
MS$DATA_PROCESSING: WHOLE RMassBank 1.99.10
PK$SPLASH: splash10-0006-0900000000-97919ed4377a869dc8cc
PK$ANNOTATION: m/z tentative_formula formula_count mass error(ppm)
  193.1325 C9H15N5- 2 193.1333 -4.11
  194.1371 C8[13]CH15N5- 1 194.1361 5.35
PK$NUM_PEAK: 2
PK$PEAK: m/z int. rel.int.
  193.1325 7176 999
  194.1371 588 81
//
