ACCESSION: MSBNK-Athens_Univ-AU508008
RECORD_TITLE: 4-Methoxyphenol; GC-APCI-QTOF; MS2; CE: 30 eV; R=35000; [M]+
DATE: 2021.04.20
AUTHORS: Chrysoula Kanakaki, Nikiforos Alygizakis, Nikolaos Thomaidis, University of Athens
LICENSE: CC BY
COPYRIGHT: Copyright (C) 2021 Department of Chemistry, University of Athens
COMMENT: CONFIDENCE standard compound
COMMENT: INTERNAL_ID 5080
CH$NAME: 4-Methoxyphenol
CH$COMPOUND_CLASS: N/A; Food Contact Material
CH$FORMULA: C7H8O2
CH$EXACT_MASS: 124.0524
CH$SMILES: COC1=CC=C(C=C1)O
CH$IUPAC: InChI=1S/C7H8O2/c1-9-7-4-2-6(8)3-5-7/h2-5,8H,1H3
CH$LINK: CAS 150-76-5
CH$LINK: CHEBI CHEBI:69441
CH$LINK: KEGG D04926
CH$LINK: PUBCHEM CID:9015
CH$LINK: INCHIKEY NWVVVBRKAWDGAB-UHFFFAOYSA-N
CH$LINK: CHEMSPIDER 8665
AC$INSTRUMENT: Bruker 450 GC coupled to maXis Impact
AC$INSTRUMENT_TYPE: GC-APCI-QTOF
AC$MASS_SPECTROMETRY: MS_TYPE MS2
AC$MASS_SPECTROMETRY: ION_MODE POSITIVE
AC$MASS_SPECTROMETRY: IONIZATION APCI
AC$MASS_SPECTROMETRY: FRAGMENTATION_MODE CID
AC$MASS_SPECTROMETRY: COLLISION_ENERGY 30 eV
AC$MASS_SPECTROMETRY: RESOLUTION 35000
AC$CHROMATOGRAPHY: COLUMN_NAME Rxi-5Sil MS column, 30m, 0.25mm i.d., 0.25µm film thickness, Restek
AC$CHROMATOGRAPHY: COLUMN_TEMPERATURE_GRADIENT 55oC at 0 min, 55oC at 3 min, 180oC at 11.33 min with 15oC/min, 280oC at 26.72 min with 6.5oC/min, 280oC at 31.72 min, 300oC at 33.72 min with 10oC/min, 300oC at 39 min
AC$CHROMATOGRAPHY: FLOW_RATE 1.5 mL/min
AC$CHROMATOGRAPHY: RETENTION_TIME 9.886 min
AC$CHROMATOGRAPHY: SOLVENT A Helium
MS$FOCUSED_ION: BASE_PEAK 124.0518
MS$FOCUSED_ION: PRECURSOR_M/Z 124.0519
MS$FOCUSED_ION: PRECURSOR_TYPE [M]+
MS$DATA_PROCESSING: RECALIBRATE identity on assigned fragments and MS1
MS$DATA_PROCESSING: WHOLE RMassBank 2.16.0
PK$SPLASH: splash10-0ue9-9100000000-8f31c59c66f3c22c1118
PK$ANNOTATION: m/z tentative_formula formula_count mass error(ppm)
  53.0386 C4H5+ 1 53.0386 0.89
  81.0326 C5H5O+ 1 81.0335 -11.42
  110.0355 C6H6O2+ 1 110.0362 -6.48
PK$NUM_PEAK: 3
PK$PEAK: m/z int. rel.int.
  53.0386 280 999
  81.0326 244 870
  110.0355 112 399
//
