ACCESSION: MSBNK-Athens_Univ-AU224207
RECORD_TITLE: Exemestane; LC-ESI-QTOF; MS2; HILIC; CE: 10 eV; R=35000; [M+H]+
DATE: 2016.02.26
AUTHORS: Nikiforos Alygizakis, Nikolaos Thomaidis, University of Athens
LICENSE: CC BY
COPYRIGHT: Copyright (C) 2016 Department of Chemistry, University of Athens
COMMENT: CONFIDENCE standard compound
COMMENT: INTERNAL_ID 2242
CH$NAME: Exemestane
CH$NAME: (8R,9S,10R,13S,14S)-10,13-dimethyl-6-methylidene-7,8,9,11,12,14,15,16-octahydrocyclopenta[a]phenanthrene-3,17-dione
CH$COMPOUND_CLASS: N/A; Environmental Standard
CH$FORMULA: C20H24O2
CH$EXACT_MASS: 296.1776300
CH$SMILES: C[C@]12CC[C@H]3[C@H]([C@@H]1CCC2=O)CC(=C)C4=CC(=O)C=C[C@]34C
CH$IUPAC: InChI=1S/C20H24O2/c1-12-10-14-15-4-5-18(22)20(15,3)9-7-16(14)19(2)8-6-13(21)11-17(12)19/h6,8,11,14-16H,1,4-5,7,9-10H2,2-3H3/t14-,15-,16-,19+,20-/m0/s1
CH$LINK: CAS 107868-30-4
CH$LINK: CHEBI CHEBI:4953
CH$LINK: PUBCHEM CID:60198
CH$LINK: INCHIKEY BFYIZQONLCFLEV-DAELLWKTSA-N
CH$LINK: CHEMSPIDER 54278
CH$LINK: COMPTOX DTXSID5023037
AC$INSTRUMENT: Bruker maXis Impact
AC$INSTRUMENT_TYPE: LC-ESI-QTOF
AC$MASS_SPECTROMETRY: MS_TYPE MS2
AC$MASS_SPECTROMETRY: ION_MODE POSITIVE
AC$MASS_SPECTROMETRY: IONIZATION ESI
AC$MASS_SPECTROMETRY: FRAGMENTATION_MODE CID
AC$MASS_SPECTROMETRY: COLLISION_ENERGY 10 eV
AC$MASS_SPECTROMETRY: RESOLUTION 35000
AC$CHROMATOGRAPHY: COLUMN_NAME ACQUITY UPLC BEH Amide 1.7 um 2.1x100mm, Waters
AC$CHROMATOGRAPHY: FLOW_GRADIENT 0/100 at 0-2 min, 95/5 at 12 min, 95/5 at 17 min, 0/100 at 17.1, 0/100 at 25 min
AC$CHROMATOGRAPHY: FLOW_RATE 200 uL/min
AC$CHROMATOGRAPHY: RETENTION_TIME 1.466 min
AC$CHROMATOGRAPHY: SOLVENT A Water with 0.01% formic acid and 1mM ammonium formate
AC$CHROMATOGRAPHY: SOLVENT B Acetonitrile:Water 95:5 with 0.01% formic acid and 1mM ammonium formate
MS$FOCUSED_ION: BASE_PEAK 134.0722
MS$FOCUSED_ION: PRECURSOR_M/Z 297.1849
MS$FOCUSED_ION: PRECURSOR_TYPE [M+H]+
MS$DATA_PROCESSING: RECALIBRATE identity on assigned fragments and MS1
MS$DATA_PROCESSING: WHOLE RMassBank 1.99.10
PK$SPLASH: splash10-0002-0090000000-45e7aaecdfc92ecadf62
PK$ANNOTATION: m/z tentative_formula formula_count mass error(ppm)
  133.102 C10H13+ 1 133.1012 6.46
  149.0974 C10H13O+ 1 149.0961 8.84
  279.1778 C20H23O+ 1 279.1743 12.54
  280.1805 C20H24O+ 1 280.1822 -5.98
  297.187 C20H25O2+ 1 297.1849 6.9
  298.1904 C19[13]CH25O2+ 1 298.1888 5.47
PK$NUM_PEAK: 6
PK$PEAK: m/z int. rel.int.
  133.102 316 23
  149.0974 1380 102
  279.1778 1904 141
  280.1805 424 31
  297.187 13484 999
  298.1904 3972 294
//
