ACCESSION: MSBNK-Athens_Univ-AU271901
RECORD_TITLE: Clofibrate; LC-ESI-QTOF; MS2; CE: 10 eV; R=35000; [M+H]+
DATE: 2019.05.30
AUTHORS: Nikiforos Alygizakis, Katerina Galani, Nikolaos Thomaidis, University of Athens
LICENSE: CC BY
COPYRIGHT: Copyright (C) 2019 Department of Chemistry, University of Athens
COMMENT: CONFIDENCE standard compound
COMMENT: INTERNAL_ID 2719
CH$NAME: Clofibrate
CH$NAME: ethyl 2-(4-chlorophenoxy)-2-methylpropanoate
CH$COMPOUND_CLASS: N/A; Environmental Standard
CH$FORMULA: C12H15ClO3
CH$EXACT_MASS: 242.0709720
CH$SMILES: CCOC(=O)C(C)(C)OC1=CC=C(Cl)C=C1
CH$IUPAC: InChI=1S/C12H15ClO3/c1-4-15-11(14)12(2,3)16-10-7-5-9(13)6-8-10/h5-8H,4H2,1-3H3
CH$LINK: CAS 637-07-0
CH$LINK: CHEBI CHEBI:3750
CH$LINK: KEGG D00279
CH$LINK: PUBCHEM CID:2796
CH$LINK: INCHIKEY KNHUKKLJHYUCFP-UHFFFAOYSA-N
CH$LINK: CHEMSPIDER 2694
CH$LINK: COMPTOX DTXSID3020336
AC$INSTRUMENT: Bruker maXis Impact
AC$INSTRUMENT_TYPE: LC-ESI-QTOF
AC$MASS_SPECTROMETRY: MS_TYPE MS2
AC$MASS_SPECTROMETRY: ION_MODE POSITIVE
AC$MASS_SPECTROMETRY: IONIZATION ESI
AC$MASS_SPECTROMETRY: FRAGMENTATION_MODE CID
AC$MASS_SPECTROMETRY: COLLISION_ENERGY 10 eV
AC$MASS_SPECTROMETRY: RESOLUTION 35000
AC$CHROMATOGRAPHY: COLUMN_NAME Acclaim RSLC C18 2.2um, 2.1x100mm, Thermo
AC$CHROMATOGRAPHY: FLOW_GRADIENT 99/1 at 0-1 min, 61/39 at 3 min, 0.1/99.9 at 14-16 min, 99/1 at 16.1-20 min
AC$CHROMATOGRAPHY: FLOW_RATE 200 uL/min at 0-3 min, 400 uL/min at 14 min, 480 uL/min at 16-19 min, 200 uL/min at 19.1-20 min
AC$CHROMATOGRAPHY: RETENTION_TIME 11.002 min
AC$CHROMATOGRAPHY: SOLVENT A 90:10 water:methanol with 0.01% formic acid and 5mM ammonium formate
AC$CHROMATOGRAPHY: SOLVENT B methanol with 0.01% formic acid and 5mM ammonium formate
MS$FOCUSED_ION: BASE_PEAK 223.063
MS$FOCUSED_ION: PRECURSOR_M/Z 243.0782
MS$FOCUSED_ION: PRECURSOR_TYPE [M+H]+
MS$DATA_PROCESSING: RECALIBRATE identity on assigned fragments and MS1
MS$DATA_PROCESSING: WHOLE RMassBank 2.10.1
PK$SPLASH: splash10-014v-0930000000-829386905d164431d8d2
PK$ANNOTATION: m/z tentative_formula formula_count mass error(ppm)
  169.0409 C9H10ClO+ 1 169.0415 -3.57
  186.0484 C9H11ClO2+ 1 186.0442 22.76
  197.0355 C10H10ClO2+ 1 197.0364 -4.42
  243.0786 C12H16ClO3+ 1 243.0782 1.37
PK$NUM_PEAK: 4
PK$PEAK: m/z int. rel.int.
  169.0409 1056 999
  186.0484 588 556
  197.0355 688 650
  243.0786 892 843
//
