ACCESSION: MSBNK-Athens_Univ-AU229104
RECORD_TITLE: Michler`s ketone; LC-ESI-QTOF; MS2; CE: 40 eV; R=35000; [M+H]+
DATE: 2019.04.05
AUTHORS: Nikiforos Alygizakis, Katerina Galani, Nikolaos Thomaidis, University of Athens
LICENSE: CC BY
COPYRIGHT: Copyright (C) 2019 Department of Chemistry, University of Athens
COMMENT: CONFIDENCE standard compound
COMMENT: INTERNAL_ID 2291
CH$NAME: Michler`s ketone
CH$NAME: bis[4-(dimethylamino)phenyl]methanone
CH$COMPOUND_CLASS: N/A; Environmental Standard
CH$FORMULA: C17H20N2O
CH$EXACT_MASS: 268.1575633
CH$SMILES: CN(C)C1=CC=C(C=C1)C(=O)C1=CC=C(C=C1)N(C)C
CH$IUPAC: InChI=1S/C17H20N2O/c1-18(2)15-9-5-13(6-10-15)17(20)14-7-11-16(12-8-14)19(3)4/h5-12H,1-4H3
CH$LINK: CAS 96-98-0
CH$LINK: CHEBI CHEBI:82347
CH$LINK: KEGG C19266
CH$LINK: PUBCHEM CID:7031
CH$LINK: INCHIKEY VVBLNCFGVYUYGU-UHFFFAOYSA-N
CH$LINK: CHEMSPIDER 6764
CH$LINK: COMPTOX DTXSID2020894
AC$INSTRUMENT: Bruker maXis Impact
AC$INSTRUMENT_TYPE: LC-ESI-QTOF
AC$MASS_SPECTROMETRY: MS_TYPE MS2
AC$MASS_SPECTROMETRY: ION_MODE POSITIVE
AC$MASS_SPECTROMETRY: IONIZATION ESI
AC$MASS_SPECTROMETRY: FRAGMENTATION_MODE CID
AC$MASS_SPECTROMETRY: COLLISION_ENERGY 40 eV
AC$MASS_SPECTROMETRY: RESOLUTION 35000
AC$CHROMATOGRAPHY: COLUMN_NAME Acclaim RSLC C18 2.2um, 2.1x100mm, Thermo
AC$CHROMATOGRAPHY: FLOW_GRADIENT 99/1 at 0-1 min, 61/39 at 3 min, 0.1/99.9 at 14-16 min, 99/1 at 16.1-20 min
AC$CHROMATOGRAPHY: FLOW_RATE 200 uL/min at 0-3 min, 400 uL/min at 14 min, 480 uL/min at 16-19 min, 200 uL/min at 19.1-20 min
AC$CHROMATOGRAPHY: RETENTION_TIME 10.554 min
AC$CHROMATOGRAPHY: SOLVENT A 90:10 water:methanol with 0.01% formic acid and 5mM ammonium formate
AC$CHROMATOGRAPHY: SOLVENT B methanol with 0.01% formic acid and 5mM ammonium formate
MS$FOCUSED_ION: BASE_PEAK 269.1655
MS$FOCUSED_ION: PRECURSOR_M/Z 269.1648
MS$FOCUSED_ION: PRECURSOR_TYPE [M+H]+
MS$DATA_PROCESSING: RECALIBRATE identity on assigned fragments and MS1
MS$DATA_PROCESSING: WHOLE RMassBank 2.10.1
PK$SPLASH: splash10-0002-0900000000-2c46d463b2f9cd4f46d7
PK$ANNOTATION: m/z tentative_formula formula_count mass error(ppm)
  118.0645 C8H8N+ 1 118.0651 -5.62
  119.0717 C8H9N+ 1 119.073 -10.86
  120.0801 C8H10N+ 1 120.0808 -5.33
  121.0831 C7[13]CH10N+ 1 121.0847 -13.08
  148.0749 C9H10NO+ 1 148.0757 -5.64
  149.0779 C8[13]CH10NO+ 1 149.0796 -11.09
  225.0423 C16H5N2+ 1 225.0447 -10.69
PK$NUM_PEAK: 7
PK$PEAK: m/z int. rel.int.
  118.0645 28652 12
  119.0717 15716 6
  120.0801 128604 57
  121.0831 15116 6
  148.0749 2248040 999
  149.0779 162036 72
  225.0423 18328 8
//
