ACCESSION: MSBNK-Athens_Univ-AU261601
RECORD_TITLE: Parathion-methyl; LC-ESI-QTOF; MS2; CE: 10 eV; R=35000; [M+H]+
DATE: 2019.05.30
AUTHORS: Nikiforos Alygizakis, Katerina Galani, Nikolaos Thomaidis, University of Athens
LICENSE: CC BY
COPYRIGHT: Copyright (C) 2019 Department of Chemistry, University of Athens
COMMENT: CONFIDENCE standard compound
COMMENT: INTERNAL_ID 2616
CH$NAME: Parathion-methyl
CH$NAME: Methyl parathion
CH$NAME: dimethoxy-(4-nitrophenoxy)-sulfanylidene-lambda5-phosphane
CH$COMPOUND_CLASS: N/A; Environmental Standard
CH$FORMULA: C8H10NO5PS
CH$EXACT_MASS: 263.0017300
CH$SMILES: COP(=S)(OC)OC1=CC=C(C=C1)[N+]([O-])=O
CH$IUPAC: InChI=1S/C8H10NO5PS/c1-12-15(16,13-2)14-8-5-3-7(4-6-8)9(10)11/h3-6H,1-2H3
CH$LINK: CAS 298-00-0
CH$LINK: CHEBI CHEBI:38746
CH$LINK: KEGG C14228
CH$LINK: PUBCHEM CID:4130
CH$LINK: INCHIKEY RLBIQVVOMOPOHC-UHFFFAOYSA-N
CH$LINK: CHEMSPIDER 3987
CH$LINK: COMPTOX DTXSID1020855
AC$INSTRUMENT: Bruker maXis Impact
AC$INSTRUMENT_TYPE: LC-ESI-QTOF
AC$MASS_SPECTROMETRY: MS_TYPE MS2
AC$MASS_SPECTROMETRY: ION_MODE POSITIVE
AC$MASS_SPECTROMETRY: IONIZATION ESI
AC$MASS_SPECTROMETRY: FRAGMENTATION_MODE CID
AC$MASS_SPECTROMETRY: COLLISION_ENERGY 10 eV
AC$MASS_SPECTROMETRY: RESOLUTION 35000
AC$CHROMATOGRAPHY: COLUMN_NAME Acclaim RSLC C18 2.2um, 2.1x100mm, Thermo
AC$CHROMATOGRAPHY: FLOW_GRADIENT 99/1 at 0-1 min, 61/39 at 3 min, 0.1/99.9 at 14-16 min, 99/1 at 16.1-20 min
AC$CHROMATOGRAPHY: FLOW_RATE 200 uL/min at 0-3 min, 400 uL/min at 14 min, 480 uL/min at 16-19 min, 200 uL/min at 19.1-20 min
AC$CHROMATOGRAPHY: RETENTION_TIME 9.296 min
AC$CHROMATOGRAPHY: SOLVENT A 90:10 water:methanol with 0.01% formic acid and 5mM ammonium formate
AC$CHROMATOGRAPHY: SOLVENT B methanol with 0.01% formic acid and 5mM ammonium formate
MS$FOCUSED_ION: BASE_PEAK 228.1275
MS$FOCUSED_ION: PRECURSOR_M/Z 264.009
MS$FOCUSED_ION: PRECURSOR_TYPE [M+H]+
MS$DATA_PROCESSING: RECALIBRATE identity on assigned fragments and MS1
MS$DATA_PROCESSING: WHOLE RMassBank 2.10.1
PK$SPLASH: splash10-03di-0090000000-15e8dcb1e86714c83dac
PK$ANNOTATION: m/z tentative_formula formula_count mass error(ppm)
  124.9814 C2H6O2PS+ 2 124.9821 -5.33
  142.9924 C2H8O3PS+ 4 142.9926 -1.52
  231.9838 C7H7NO4PS+ 1 231.9828 4.19
  249.9938 C7H9NO5PS+ 1 249.9934 1.62
  264.0079 C8H11NO5PS+ 1 264.009 -4.35
  265.0116 C7[13]CH11NO5PS+ 1 265.0129 -4.8
  266.0082 C8H11NO5P[34]S+ 1 266.0054 10.56
PK$NUM_PEAK: 7
PK$PEAK: m/z int. rel.int.
  124.9814 512 24
  142.9924 396 19
  231.9838 448 21
  249.9938 2240 108
  264.0079 20680 999
  265.0116 2608 125
  266.0082 972 46
//
