ACCESSION: MSBNK-Athens_Univ-AU237562
RECORD_TITLE: Dichlorophen; LC-ESI-QTOF; MS2; CE: Ramp 22.7-34.0 eV; R=35000; [M-H]-
DATE: 2019.03.29
AUTHORS: Nikiforos Alygizakis, Katerina Galani, Nikolaos Thomaidis, University of Athens
LICENSE: CC BY
COPYRIGHT: Copyright (C) 2019 Department of Chemistry, University of Athens
COMMENT: CONFIDENCE standard compound
COMMENT: INTERNAL_ID 2375
CH$NAME: Dichlorophen
CH$NAME: 4-chloro-2-[(5-chloro-2-hydroxyphenyl)methyl]phenol
CH$COMPOUND_CLASS: N/A; Environmental Standard
CH$FORMULA: C13H10Cl2O2
CH$EXACT_MASS: 268.0057849
CH$SMILES: OC1=CC=C(Cl)C=C1CC1=C(O)C=CC(Cl)=C1
CH$IUPAC: InChI=1S/C13H10Cl2O2/c14-10-1-3-12(16)8(6-10)5-9-7-11(15)2-4-13(9)17/h1-4,6-7,16-17H,5H2
CH$LINK: CAS 97-23-4
CH$LINK: CHEBI CHEBI:34689
CH$LINK: KEGG C14292
CH$LINK: PUBCHEM CID:3037
CH$LINK: INCHIKEY MDNWOSOZYLHTCG-UHFFFAOYSA-N
CH$LINK: CHEMSPIDER 2929
CH$LINK: COMPTOX DTXSID6021824
AC$INSTRUMENT: Bruker maXis Impact
AC$INSTRUMENT_TYPE: LC-ESI-QTOF
AC$MASS_SPECTROMETRY: MS_TYPE MS2
AC$MASS_SPECTROMETRY: ION_MODE NEGATIVE
AC$MASS_SPECTROMETRY: IONIZATION ESI
AC$MASS_SPECTROMETRY: FRAGMENTATION_MODE CID
AC$MASS_SPECTROMETRY: COLLISION_ENERGY Ramp 22.7-34.0 eV
AC$MASS_SPECTROMETRY: RESOLUTION 35000
AC$CHROMATOGRAPHY: COLUMN_NAME Acclaim RSLC C18 2.2um, 2.1x100mm, Thermo
AC$CHROMATOGRAPHY: FLOW_GRADIENT 99/1 at 0-1 min, 61/39 at 3 min, 0.1/99.9 at 14-16 min, 99/1 at 16.1-20 min
AC$CHROMATOGRAPHY: FLOW_RATE 200 uL/min at 0-3 min, 400 uL/min at 14 min, 480 uL/min at 16-19 min, 200 uL/min at 19.1-20 min
AC$CHROMATOGRAPHY: RETENTION_TIME 10.459 min
AC$CHROMATOGRAPHY: SOLVENT A 90:10 water:methanol with 5mM ammonium acetate
AC$CHROMATOGRAPHY: SOLVENT B methanol with 5mM ammonium acetate
MS$FOCUSED_ION: BASE_PEAK 59.0132
MS$FOCUSED_ION: PRECURSOR_M/Z 266.9985
MS$FOCUSED_ION: PRECURSOR_TYPE [M-H]-
MS$DATA_PROCESSING: RECALIBRATE identity on assigned fragments and MS1
MS$DATA_PROCESSING: WHOLE RMassBank 2.10.0
PK$SPLASH: splash10-004i-0900000000-ab0c297d453f150568c8
PK$ANNOTATION: m/z tentative_formula formula_count mass error(ppm)
  126.9963 C6H4ClO- 1 126.9956 5.02
  127.9996 C5[13]CH4ClO- 1 127.9984 9.05
  128.9926 C6H4[37]ClO- 1 128.9921 3.98
  266.9966 C13H9Cl2O2- 1 266.9985 -7.22
  268.9951 C13H9Cl[37]ClO2- 1 268.995 0.4
PK$NUM_PEAK: 5
PK$PEAK: m/z int. rel.int.
  126.9963 65772 999
  127.9996 4304 65
  128.9926 9656 146
  266.9966 1644 24
  268.9951 740 11
//
