ACCESSION: MSBNK-Athens_Univ-AU276601
RECORD_TITLE: Caffeine; LC-ESI-QTOF; MS2; CE: 10 eV; R=35000; [M+H]+
DATE: 2019.05.31
AUTHORS: Nikiforos Alygizakis, Katerina Galani, Nikolaos Thomaidis, University of Athens
LICENSE: CC BY
COPYRIGHT: Copyright (C) 2019 Department of Chemistry, University of Athens
COMMENT: CONFIDENCE standard compound
COMMENT: INTERNAL_ID 2766
CH$NAME: Caffeine
CH$NAME: 1,3,7-trimethylpurine-2,6-dione
CH$COMPOUND_CLASS: N/A; Environmental Standard
CH$FORMULA: C8H10N4O2
CH$EXACT_MASS: 194.0803756
CH$SMILES: CN1C=NC2=C1C(=O)N(C)C(=O)N2C
CH$IUPAC: InChI=1S/C8H10N4O2/c1-10-4-9-6-5(10)7(13)12(3)8(14)11(6)2/h4H,1-3H3
CH$LINK: CAS 58-08-2
CH$LINK: CHEBI CHEBI:27732
CH$LINK: KEGG D00528
CH$LINK: PUBCHEM CID:2519
CH$LINK: INCHIKEY RYYVLZVUVIJVGH-UHFFFAOYSA-N
CH$LINK: CHEMSPIDER 2424
CH$LINK: COMPTOX DTXSID0020232
AC$INSTRUMENT: Bruker maXis Impact
AC$INSTRUMENT_TYPE: LC-ESI-QTOF
AC$MASS_SPECTROMETRY: MS_TYPE MS2
AC$MASS_SPECTROMETRY: ION_MODE POSITIVE
AC$MASS_SPECTROMETRY: IONIZATION ESI
AC$MASS_SPECTROMETRY: FRAGMENTATION_MODE CID
AC$MASS_SPECTROMETRY: COLLISION_ENERGY 10 eV
AC$MASS_SPECTROMETRY: RESOLUTION 35000
AC$CHROMATOGRAPHY: COLUMN_NAME Acclaim RSLC C18 2.2um, 2.1x100mm, Thermo
AC$CHROMATOGRAPHY: FLOW_GRADIENT 99/1 at 0-1 min, 61/39 at 3 min, 0.1/99.9 at 14-16 min, 99/1 at 16.1-20 min
AC$CHROMATOGRAPHY: FLOW_RATE 200 uL/min at 0-3 min, 400 uL/min at 14 min, 480 uL/min at 16-19 min, 200 uL/min at 19.1-20 min
AC$CHROMATOGRAPHY: RETENTION_TIME 3.075 min
AC$CHROMATOGRAPHY: SOLVENT A 90:10 water:methanol with 0.01% formic acid and 5mM ammonium formate
AC$CHROMATOGRAPHY: SOLVENT B methanol with 0.01% formic acid and 5mM ammonium formate
MS$FOCUSED_ION: BASE_PEAK 315.1479
MS$FOCUSED_ION: PRECURSOR_M/Z 195.0877
MS$FOCUSED_ION: PRECURSOR_TYPE [M+H]+
MS$DATA_PROCESSING: RECALIBRATE identity on assigned fragments and MS1
MS$DATA_PROCESSING: WHOLE RMassBank 2.10.1
PK$SPLASH: splash10-001i-0900000000-2cfcf838cd73f71c7116
PK$ANNOTATION: m/z tentative_formula formula_count mass error(ppm)
  133.0844 C4H11N3O2+ 1 133.0846 -1.64
  151.0947 C7H11N4+ 1 151.0978 -20.81
PK$NUM_PEAK: 2
PK$PEAK: m/z int. rel.int.
  133.0844 2636 999
  151.0947 684 259
//
