ACCESSION: MSBNK-Athens_Univ-AU246506
RECORD_TITLE: 2-Isopropylthioxanthone; LC-ESI-QTOF; MS2; CE: Ramp 20.0-30.0 eV; R=35000; [M+H]+
DATE: 2019.04.08
AUTHORS: Nikiforos Alygizakis, Katerina Galani, Nikolaos Thomaidis, University of Athens
LICENSE: CC BY
COPYRIGHT: Copyright (C) 2019 Department of Chemistry, University of Athens
COMMENT: CONFIDENCE standard compound
COMMENT: INTERNAL_ID 2465
CH$NAME: 2-Isopropylthioxanthone
CH$NAME: 2-propan-2-ylthioxanthen-9-one
CH$COMPOUND_CLASS: N/A; Environmental Standard
CH$FORMULA: C16H14OS
CH$EXACT_MASS: 254.0765361
CH$SMILES: CC(C)C1=CC=C2SC3=C(C=CC=C3)C(=O)C2=C1
CH$IUPAC: InChI=1S/C16H14OS/c1-10(2)11-7-8-15-13(9-11)16(17)12-5-3-4-6-14(12)18-15/h3-10H,1-2H3
CH$LINK: CAS 5495-84-1
CH$LINK: PUBCHEM CID:79633
CH$LINK: INCHIKEY KTALPKYXQZGAEG-UHFFFAOYSA-N
CH$LINK: CHEMSPIDER 71936
CH$LINK: COMPTOX DTXSID1044691
AC$INSTRUMENT: Bruker maXis Impact
AC$INSTRUMENT_TYPE: LC-ESI-QTOF
AC$MASS_SPECTROMETRY: MS_TYPE MS2
AC$MASS_SPECTROMETRY: ION_MODE POSITIVE
AC$MASS_SPECTROMETRY: IONIZATION ESI
AC$MASS_SPECTROMETRY: FRAGMENTATION_MODE CID
AC$MASS_SPECTROMETRY: COLLISION_ENERGY Ramp 20.0-30.0 eV
AC$MASS_SPECTROMETRY: RESOLUTION 35000
AC$CHROMATOGRAPHY: COLUMN_NAME Acclaim RSLC C18 2.2um, 2.1x100mm, Thermo
AC$CHROMATOGRAPHY: FLOW_GRADIENT 99/1 at 0-1 min, 61/39 at 3 min, 0.1/99.9 at 14-16 min, 99/1 at 16.1-20 min
AC$CHROMATOGRAPHY: FLOW_RATE 200 uL/min at 0-3 min, 400 uL/min at 14 min, 480 uL/min at 16-19 min, 200 uL/min at 19.1-20 min
AC$CHROMATOGRAPHY: RETENTION_TIME 12.944 min
AC$CHROMATOGRAPHY: SOLVENT A 90:10 water:methanol with 0.01% formic acid and 5mM ammonium formate
AC$CHROMATOGRAPHY: SOLVENT B methanol with 0.01% formic acid and 5mM ammonium formate
MS$FOCUSED_ION: BASE_PEAK 255.0838
MS$FOCUSED_ION: PRECURSOR_M/Z 255.0838
MS$FOCUSED_ION: PRECURSOR_TYPE [M+H]+
MS$DATA_PROCESSING: RECALIBRATE identity on assigned fragments and MS1
MS$DATA_PROCESSING: WHOLE RMassBank 2.10.1
PK$SPLASH: splash10-08fr-0090000000-8fffaae79bc56bae7ac4
PK$ANNOTATION: m/z tentative_formula formula_count mass error(ppm)
  184.0326 C12H8S+ 2 184.0341 -8.04
  185.0404 C12H9S+ 2 185.0419 -8.24
  213.0364 C13H9OS+ 2 213.0369 -2.27
  214.0393 C12[13]CH9OS+ 1 214.0408 -6.85
  215.0326 C13H9O[34]S+ 1 215.0332 -2.97
  239.0527 C15H11OS+ 1 239.0525 0.89
  240.0586 C15H12OS+ 1 240.0603 -7.08
  255.0831 C16H15OS+ 1 255.0838 -2.67
  256.0865 C15[13]CH15OS+ 1 256.0877 -4.92
  257.0804 C16H15O[34]S+ 1 257.0802 1.02
PK$NUM_PEAK: 10
PK$PEAK: m/z int. rel.int.
  184.0326 6508 23
  185.0404 2472 9
  213.0364 271404 999
  214.0393 54080 199
  215.0326 12296 45
  239.0527 2148 7
  240.0586 2052 7
  255.0831 166312 612
  256.0865 34964 128
  257.0804 7056 25
//
