ACCESSION: MSBNK-Athens_Univ-AU502202
RECORD_TITLE: Dodecyl acrylate; GC-APCI-QTOF; MS2; CE: 20 eV; R=35000; [M+H]+
DATE: 2021.04.19
AUTHORS: Chrysoula Kanakaki, Nikiforos Alygizakis, Nikolaos Thomaidis, University of Athens
LICENSE: CC BY
COPYRIGHT: Copyright (C) 2021 Department of Chemistry, University of Athens
COMMENT: CONFIDENCE standard compound
COMMENT: INTERNAL_ID 5022
CH$NAME: Dodecyl acrylate
CH$COMPOUND_CLASS: N/A; Food Contact Material
CH$FORMULA: C15H28O2
CH$EXACT_MASS: 240.2089
CH$SMILES: CCCCCCCCCCCCOC(=O)C=C
CH$IUPAC: InChI=1S/C15H28O2/c1-3-5-6-7-8-9-10-11-12-13-14-17-15(16)4-2/h4H,2-3,5-14H2,1H3
CH$LINK: CAS 2156-97-0
CH$LINK: PUBCHEM CID:75084
CH$LINK: INCHIKEY PBOSTUDLECTMNL-UHFFFAOYSA-N
CH$LINK: CHEMSPIDER 67636
AC$INSTRUMENT: Bruker 450 GC coupled to maXis Impact
AC$INSTRUMENT_TYPE: GC-APCI-QTOF
AC$MASS_SPECTROMETRY: MS_TYPE MS2
AC$MASS_SPECTROMETRY: ION_MODE POSITIVE
AC$MASS_SPECTROMETRY: IONIZATION APCI
AC$MASS_SPECTROMETRY: FRAGMENTATION_MODE CID
AC$MASS_SPECTROMETRY: COLLISION_ENERGY 20 eV
AC$MASS_SPECTROMETRY: RESOLUTION 35000
AC$CHROMATOGRAPHY: COLUMN_NAME Rxi-5Sil MS column, 30m, 0.25mm i.d., 0.25µm film thickness, Restek
AC$CHROMATOGRAPHY: COLUMN_TEMPERATURE_GRADIENT 55oC at 0 min, 55oC at 3 min, 180oC at 11.33 min with 15oC/min, 280oC at 26.72 min with 6.5oC/min, 280oC at 31.72 min, 300oC at 33.72 min with 10oC/min, 300oC at 39 min
AC$CHROMATOGRAPHY: FLOW_RATE 1.5 mL/min
AC$CHROMATOGRAPHY: RETENTION_TIME 13.815 min
AC$CHROMATOGRAPHY: SOLVENT A Helium
MS$FOCUSED_ION: BASE_PEAK 283.2624
MS$FOCUSED_ION: PRECURSOR_M/Z 241.2162
MS$FOCUSED_ION: PRECURSOR_TYPE [M+H]+
MS$DATA_PROCESSING: RECALIBRATE identity on assigned fragments and MS1
MS$DATA_PROCESSING: WHOLE RMassBank 2.16.0
PK$SPLASH: splash10-014r-0960000000-97e01a02edb9e94f5042
PK$ANNOTATION: m/z tentative_formula formula_count mass error(ppm)
  121.1 C9H13+ 1 121.1012 -10.11
  135.1188 C10H15+ 1 135.1168 14.66
  139.1148 C9H15O+ 1 139.1117 22.27
  195.174 C13H23O+ 1 195.1743 -1.84
  215.2015 C13H27O2+ 1 215.2006 4.32
PK$NUM_PEAK: 5
PK$PEAK: m/z int. rel.int.
  121.1 128 404
  135.1188 100 316
  139.1148 100 316
  195.174 108 341
  215.2015 316 999
//
