ACCESSION: MSBNK-Athens_Univ-AU500607
RECORD_TITLE: Ethyl benzoate; GC-APCI-QTOF; MS2; CE: 20 eV; R=35000; [M]+
DATE: 2021.04.20
AUTHORS: Chrysoula Kanakaki, Nikiforos Alygizakis, Nikolaos Thomaidis, University of Athens
LICENSE: CC BY
COPYRIGHT: Copyright (C) 2021 Department of Chemistry, University of Athens
COMMENT: CONFIDENCE standard compound
COMMENT: INTERNAL_ID 5006
CH$NAME: Ethyl benzoate
CH$COMPOUND_CLASS: N/A; Food Contact Material
CH$FORMULA: C9H10O2
CH$EXACT_MASS: 150.0681
CH$SMILES: CCOC(=O)C1=CC=CC=C1
CH$IUPAC: InChI=1S/C9H10O2/c1-2-11-9(10)8-6-4-3-5-7-8/h3-7H,2H2,1H3
CH$LINK: CAS 93-89-0
CH$LINK: PUBCHEM CID:7165
CH$LINK: INCHIKEY MTZQAGJQAFMTAQ-UHFFFAOYSA-N
CH$LINK: CHEMSPIDER 6897
AC$INSTRUMENT: Bruker 450 GC coupled to maXis Impact
AC$INSTRUMENT_TYPE: GC-APCI-QTOF
AC$MASS_SPECTROMETRY: MS_TYPE MS2
AC$MASS_SPECTROMETRY: ION_MODE POSITIVE
AC$MASS_SPECTROMETRY: IONIZATION APCI
AC$MASS_SPECTROMETRY: FRAGMENTATION_MODE CID
AC$MASS_SPECTROMETRY: COLLISION_ENERGY 20 eV
AC$MASS_SPECTROMETRY: RESOLUTION 35000
AC$CHROMATOGRAPHY: COLUMN_NAME Rxi-5Sil MS column, 30m, 0.25mm i.d., 0.25µm film thickness, Restek
AC$CHROMATOGRAPHY: COLUMN_TEMPERATURE_GRADIENT 55oC at 0 min, 55oC at 3 min, 180oC at 11.33 min with 15oC/min, 280oC at 26.72 min with 6.5oC/min, 280oC at 31.72 min, 300oC at 33.72 min with 10oC/min, 300oC at 39 min
AC$CHROMATOGRAPHY: FLOW_RATE 1.5 mL/min
AC$CHROMATOGRAPHY: RETENTION_TIME 9.302 min
AC$CHROMATOGRAPHY: SOLVENT A Helium
MS$FOCUSED_ION: BASE_PEAK 151.0772
MS$FOCUSED_ION: PRECURSOR_M/Z 150.0675
MS$FOCUSED_ION: PRECURSOR_TYPE [M]+
MS$DATA_PROCESSING: RECALIBRATE identity on assigned fragments and MS1
MS$DATA_PROCESSING: WHOLE RMassBank 2.16.0
PK$SPLASH: splash10-00e9-0900000000-12bc876d343f35e9bafd
PK$ANNOTATION: m/z tentative_formula formula_count mass error(ppm)
  79.0524 C6H7+ 1 79.0542 -23.23
  105.0316 C7H5O+ 1 105.0335 -18.08
  122.039 C7H6O2+ 1 122.0362 22.69
  123.0435 C7H7O2+ 1 123.0441 -4.31
  131.0504 C9H7O+ 1 131.0491 9.54
  149.0618 C9H9O2+ 1 149.0597 13.73
PK$NUM_PEAK: 6
PK$PEAK: m/z int. rel.int.
  79.0524 156 198
  105.0316 104 132
  122.039 168 214
  123.0435 784 999
  131.0504 764 973
  149.0618 276 351
//
