ACCESSION: MSBNK-Athens_Univ-AU257806
RECORD_TITLE: Tebuconazole; LC-ESI-QTOF; MS2; CE: Ramp 21.8-32.6 eV; R=35000; [M+H]+
DATE: 2019.05.31
AUTHORS: Nikiforos Alygizakis, Katerina Galani, Nikolaos Thomaidis, University of Athens
LICENSE: CC BY
COPYRIGHT: Copyright (C) 2019 Department of Chemistry, University of Athens
COMMENT: CONFIDENCE standard compound
COMMENT: INTERNAL_ID 2578
CH$NAME: Tebuconazole
CH$NAME: 1-(4-chlorophenyl)-4,4-dimethyl-3-(1,2,4-triazol-1-ylmethyl)pentan-3-ol
CH$COMPOUND_CLASS: N/A; Environmental Standard
CH$FORMULA: C16H22ClN3O
CH$EXACT_MASS: 307.1451400
CH$SMILES: CC(C)(C)C(O)(CCC1=CC=C(Cl)C=C1)CN1C=NC=N1
CH$IUPAC: InChI=1S/C16H22ClN3O/c1-15(2,3)16(21,10-20-12-18-11-19-20)9-8-13-4-6-14(17)7-5-13/h4-7,11-12,21H,8-10H2,1-3H3
CH$LINK: CAS 84808-29-7
CH$LINK: CHEBI CHEBI:83779
CH$LINK: KEGG C18489
CH$LINK: PUBCHEM CID:86102
CH$LINK: INCHIKEY PXMNMQRDXWABCY-UHFFFAOYSA-N
CH$LINK: CHEMSPIDER 77680
CH$LINK: COMPTOX DTXSID9032113
AC$INSTRUMENT: Bruker maXis Impact
AC$INSTRUMENT_TYPE: LC-ESI-QTOF
AC$MASS_SPECTROMETRY: MS_TYPE MS2
AC$MASS_SPECTROMETRY: ION_MODE POSITIVE
AC$MASS_SPECTROMETRY: IONIZATION ESI
AC$MASS_SPECTROMETRY: FRAGMENTATION_MODE CID
AC$MASS_SPECTROMETRY: COLLISION_ENERGY Ramp 21.8-32.6 eV
AC$MASS_SPECTROMETRY: RESOLUTION 35000
AC$CHROMATOGRAPHY: COLUMN_NAME Acclaim RSLC C18 2.2um, 2.1x100mm, Thermo
AC$CHROMATOGRAPHY: FLOW_GRADIENT 99/1 at 0-1 min, 61/39 at 3 min, 0.1/99.9 at 14-16 min, 99/1 at 16.1-20 min
AC$CHROMATOGRAPHY: FLOW_RATE 200 uL/min at 0-3 min, 400 uL/min at 14 min, 480 uL/min at 16-19 min, 200 uL/min at 19.1-20 min
AC$CHROMATOGRAPHY: RETENTION_TIME 10.887 min
AC$CHROMATOGRAPHY: SOLVENT A 90:10 water:methanol with 0.01% formic acid and 5mM ammonium formate
AC$CHROMATOGRAPHY: SOLVENT B methanol with 0.01% formic acid and 5mM ammonium formate
MS$FOCUSED_ION: BASE_PEAK 308.1522
MS$FOCUSED_ION: PRECURSOR_M/Z 308.1524
MS$FOCUSED_ION: PRECURSOR_TYPE [M+H]+
MS$DATA_PROCESSING: RECALIBRATE identity on assigned fragments and MS1
MS$DATA_PROCESSING: WHOLE RMassBank 2.10.1
PK$SPLASH: splash10-00di-9103000000-ae5de4e7a26c72103c99
PK$ANNOTATION: m/z tentative_formula formula_count mass error(ppm)
  57.0694 C4H9+ 1 57.0699 -7.74
  59.0486 C3H7O+ 3 59.0491 -9.29
  70.0398 C2H4N3+ 2 70.04 -2
  71.0424 C[13]CH4N3+ 1 71.0439 -20.21
  83.085 C6H11+ 1 83.0855 -6.46
  125.0145 C7H6Cl+ 2 125.0153 -5.77
  127.0116 C7H6[37]Cl+ 1 127.0129 -9.66
  139.0298 C9H3N2+ 2 139.0291 5.37
  151.0299 C9H8Cl+ 2 151.0309 -6.4
  153.0269 C9H8[37]Cl+ 1 153.0285 -10.29
  165.0457 C10H10Cl+ 2 165.0466 -5.01
  308.1523 C16H23ClN3O+ 1 308.1524 -0.45
  309.1556 C15[13]CH23ClN3O+ 1 309.1563 -2.22
  310.1499 C16H23[37]ClN3O+ 1 310.15 -0.48
PK$NUM_PEAK: 14
PK$PEAK: m/z int. rel.int.
  57.0694 14212 14
  59.0486 11936 11
  70.0398 1006528 999
  71.0424 25176 24
  83.085 6832 6
  125.0145 52200 51
  127.0116 12912 12
  139.0298 7368 7
  151.0299 41160 40
  153.0269 9440 9
  165.0457 11148 11
  308.1523 223456 221
  309.1556 58808 58
  310.1499 76296 75
//
