ACCESSION: MSBNK-Athens_Univ-AU271104
RECORD_TITLE: Ropinirole; LC-ESI-QTOF; MS2; CE: 40 eV; R=35000; [M+H]+
DATE: 2019.05.30
AUTHORS: Nikiforos Alygizakis, Katerina Galani, Nikolaos Thomaidis, University of Athens
LICENSE: CC BY
COPYRIGHT: Copyright (C) 2019 Department of Chemistry, University of Athens
COMMENT: CONFIDENCE standard compound
COMMENT: INTERNAL_ID 2711
CH$NAME: Ropinirole
CH$NAME: 4-[2-(dipropylamino)ethyl]-1,3-dihydroindol-2-one
CH$COMPOUND_CLASS: N/A; Environmental Standard
CH$FORMULA: C16H24N2O
CH$EXACT_MASS: 260.1888634
CH$SMILES: CCCN(CCC)CCC1=C2CC(=O)NC2=CC=C1
CH$IUPAC: InChI=1S/C16H24N2O/c1-3-9-18(10-4-2)11-8-13-6-5-7-15-14(13)12-16(19)17-15/h5-7H,3-4,8-12H2,1-2H3,(H,17,19)
CH$LINK: CAS 91374-21-9
CH$LINK: CHEBI CHEBI:8888
CH$LINK: KEGG D08489
CH$LINK: PUBCHEM CID:5095
CH$LINK: INCHIKEY UHSKFQJFRQCDBE-UHFFFAOYSA-N
CH$LINK: CHEMSPIDER 4916
CH$LINK: COMPTOX DTXSID8045195
AC$INSTRUMENT: Bruker maXis Impact
AC$INSTRUMENT_TYPE: LC-ESI-QTOF
AC$MASS_SPECTROMETRY: MS_TYPE MS2
AC$MASS_SPECTROMETRY: ION_MODE POSITIVE
AC$MASS_SPECTROMETRY: IONIZATION ESI
AC$MASS_SPECTROMETRY: FRAGMENTATION_MODE CID
AC$MASS_SPECTROMETRY: COLLISION_ENERGY 40 eV
AC$MASS_SPECTROMETRY: RESOLUTION 35000
AC$CHROMATOGRAPHY: COLUMN_NAME Acclaim RSLC C18 2.2um, 2.1x100mm, Thermo
AC$CHROMATOGRAPHY: FLOW_GRADIENT 99/1 at 0-1 min, 61/39 at 3 min, 0.1/99.9 at 14-16 min, 99/1 at 16.1-20 min
AC$CHROMATOGRAPHY: FLOW_RATE 200 uL/min at 0-3 min, 400 uL/min at 14 min, 480 uL/min at 16-19 min, 200 uL/min at 19.1-20 min
AC$CHROMATOGRAPHY: RETENTION_TIME 3.985 min
AC$CHROMATOGRAPHY: SOLVENT A 90:10 water:methanol with 0.01% formic acid and 5mM ammonium formate
AC$CHROMATOGRAPHY: SOLVENT B methanol with 0.01% formic acid and 5mM ammonium formate
MS$FOCUSED_ION: BASE_PEAK 261.1968
MS$FOCUSED_ION: PRECURSOR_M/Z 261.1961
MS$FOCUSED_ION: PRECURSOR_TYPE [M+H]+
MS$DATA_PROCESSING: RECALIBRATE identity on assigned fragments and MS1
MS$DATA_PROCESSING: WHOLE RMassBank 2.10.1
PK$SPLASH: splash10-001i-0900000000-84f466b6cd7b3a275bcd
PK$ANNOTATION: m/z tentative_formula formula_count mass error(ppm)
  114.127 C7H16N+ 1 114.1277 -6.18
  115.0535 C9H7+ 1 115.0542 -6.2
  117.0566 C8H7N+ 1 117.0573 -6.23
  118.0599 C7[13]CH7N+ 1 118.0612 -10.96
  130.064 C9H8N+ 1 130.0651 -8.52
  131.0714 C9H9N+ 1 131.073 -11.77
  132.0798 C9H10N+ 1 132.0808 -7.37
  133.083 C8[13]CH10N+ 1 133.0847 -12.38
  142.0637 C10H8N+ 1 142.0651 -10.23
  160.0745 C10H10NO+ 1 160.0757 -7.44
  161.0776 C9[13]CH10NO+ 1 161.0796 -12.35
PK$NUM_PEAK: 11
PK$PEAK: m/z int. rel.int.
  114.127 25924 22
  115.0535 43408 37
  117.0566 100020 86
  118.0599 10268 8
  130.064 38748 33
  131.0714 33808 29
  132.0798 1154540 999
  133.083 83516 72
  142.0637 9220 7
  160.0745 377304 326
  161.0776 32236 27
//
