ACCESSION: MSBNK-Athens_Univ-AU206203
RECORD_TITLE: Metazachlor-OXA; LC-ESI-QTOF; MS2; CE: 30 eV; R=35000; [M+H]+
DATE: 2015.12.05
AUTHORS: Nikiforos Alygizakis, Nikolaos Thomaidis, University of Athens
LICENSE: CC BY-SA
COPYRIGHT: Copyright (C) 2015 Department of Chemistry, University of Athens
COMMENT: CONFIDENCE standard compound
COMMENT: INTERNAL_ID 2062
CH$NAME: Metazachlor-OXA
CH$NAME: 2-[2,6-dimethyl-N-(pyrazol-1-ylmethyl)anilino]-2-oxoacetic acid
CH$COMPOUND_CLASS: N/A; Environmental Standard
CH$FORMULA: C14H15N3O3
CH$EXACT_MASS: 273.1113413
CH$SMILES: Cc1cccc(C)c1N(Cn1cccn1)C(=O)C(O)=O
CH$IUPAC: InChI=1S/C14H15N3O3/c1-10-5-3-6-11(2)12(10)17(13(18)14(19)20)9-16-8-4-7-15-16/h3-8H,9H2,1-2H3,(H,19,20)
CH$LINK: CAS 1231244-60-2
CH$LINK: CHEBI CHEBI:83483
CH$LINK: PUBCHEM CID:86290103
CH$LINK: INCHIKEY PHMHHVKFXZNTKU-UHFFFAOYSA-N
CH$LINK: CHEMSPIDER 24721983
CH$LINK: COMPTOX DTXSID00891455
AC$INSTRUMENT: Bruker maXis Impact
AC$INSTRUMENT_TYPE: LC-ESI-QTOF
AC$MASS_SPECTROMETRY: MS_TYPE MS2
AC$MASS_SPECTROMETRY: ION_MODE POSITIVE
AC$MASS_SPECTROMETRY: IONIZATION ESI
AC$MASS_SPECTROMETRY: FRAGMENTATION_MODE CID
AC$MASS_SPECTROMETRY: COLLISION_ENERGY 30 eV
AC$MASS_SPECTROMETRY: RESOLUTION 35000
AC$CHROMATOGRAPHY: COLUMN_NAME Acclaim RSLC C18 2.2um, 2.1x100mm, Thermo
AC$CHROMATOGRAPHY: FLOW_GRADIENT 99/1 at 0-1 min, 61/39 at 3 min, 0.1/99.9 at 14-16 min, 99/1 at 16.1-20 min
AC$CHROMATOGRAPHY: FLOW_RATE 200 uL/min at 0-3 min, 400 uL/min at 14 min, 480 uL/min at 16-19 min, 200 uL/min at 19.1-20 min
AC$CHROMATOGRAPHY: RETENTION_TIME 4.8 min
AC$CHROMATOGRAPHY: SOLVENT A 90:10 water:methanol with 0.01% formic acid and 5mM ammonium formate
AC$CHROMATOGRAPHY: SOLVENT B methanol with 0.01% formic acid and 5mM ammonium formate
MS$FOCUSED_ION: BASE_PEAK 150.1114
MS$FOCUSED_ION: PRECURSOR_M/Z 274.1186
MS$FOCUSED_ION: PRECURSOR_TYPE [M+H]+
MS$DATA_PROCESSING: RECALIBRATE identity on assigned fragments and MS1
MS$DATA_PROCESSING: REANALYZE Peaks with additional N2/O included
MS$DATA_PROCESSING: WHOLE RMassBank 2.0.3
PK$SPLASH: splash10-001i-0900000000-cffe50c0f754081cf958
PK$ANNOTATION: m/z tentative_formula formula_count mass error(ppm)
  118.0642 C8H8N+ 2 118.0651 -8.05
  119.0721 C8H9N+ 2 119.073 -7.07
  132.0799 C9H10N+ 2 132.0808 -6.85
  134.0955 C9H12N+ 2 134.0964 -6.65
  135.0994 C8[13]CH12N+ 1 135.1003 -7.01
  160.076 C10H10NO+ 1 160.0757 1.9
  206.0799 C11H12NO3+ 2 206.0812 -5.98
  207.0838 C10[13]CH12NO3+ 1 207.0844 -2.9
  224.0921 C14H12N2O+ 1 224.0944 -10.41
PK$NUM_PEAK: 9
PK$PEAK: m/z int. rel.int.
  118.0642 700 26
  119.0721 1408 53
  132.0799 604 22
  134.0955 26496 999
  135.0994 3284 123
  160.076 336 12
  206.0799 2804 105
  207.0838 408 15
  224.0921 412 15
//
