ACCESSION: MSBNK-Athens_Univ-AU501401
RECORD_TITLE: Methyl salicylate; GC-APCI-QTOF; MS2; CE: 10 eV; R=35000; [M+H]+
DATE: 2021.04.19
AUTHORS: Chrysoula Kanakaki, Nikiforos Alygizakis, Nikolaos Thomaidis, University of Athens
LICENSE: CC BY
COPYRIGHT: Copyright (C) 2021 Department of Chemistry, University of Athens
COMMENT: CONFIDENCE standard compound
COMMENT: INTERNAL_ID 5014
CH$NAME: Methyl salicylate
CH$COMPOUND_CLASS: N/A; Food Contact Material
CH$FORMULA: C8H8O3
CH$EXACT_MASS: 152.0473
CH$SMILES: COC(=O)C1=CC=CC=C1O
CH$IUPAC: InChI=1S/C8H8O3/c1-11-8(10)6-4-2-3-5-7(6)9/h2-5,9H,1H3
CH$LINK: CAS 119-36-8
CH$LINK: CHEBI CHEBI:31832
CH$LINK: KEGG C12305
CH$LINK: PUBCHEM CID:4133
CH$LINK: INCHIKEY OSWPMRLSEDHDFF-UHFFFAOYSA-N
CH$LINK: CHEMSPIDER 13848808
AC$INSTRUMENT: Bruker 450 GC coupled to maXis Impact
AC$INSTRUMENT_TYPE: GC-APCI-QTOF
AC$MASS_SPECTROMETRY: MS_TYPE MS2
AC$MASS_SPECTROMETRY: ION_MODE POSITIVE
AC$MASS_SPECTROMETRY: IONIZATION APCI
AC$MASS_SPECTROMETRY: FRAGMENTATION_MODE CID
AC$MASS_SPECTROMETRY: COLLISION_ENERGY 10 eV
AC$MASS_SPECTROMETRY: RESOLUTION 35000
AC$CHROMATOGRAPHY: COLUMN_NAME Rxi-5Sil MS column, 30m, 0.25mm i.d., 0.25µm film thickness, Restek
AC$CHROMATOGRAPHY: COLUMN_TEMPERATURE_GRADIENT 55oC at 0 min, 55oC at 3 min, 180oC at 11.33 min with 15oC/min, 280oC at 26.72 min with 6.5oC/min, 280oC at 31.72 min, 300oC at 33.72 min with 10oC/min, 300oC at 39 min
AC$CHROMATOGRAPHY: FLOW_RATE 1.5 mL/min
AC$CHROMATOGRAPHY: RETENTION_TIME 9.588 min
AC$CHROMATOGRAPHY: SOLVENT A Helium
MS$FOCUSED_ION: BASE_PEAK 153.0564
MS$FOCUSED_ION: PRECURSOR_M/Z 153.0546
MS$FOCUSED_ION: PRECURSOR_TYPE [M+H]+
MS$DATA_PROCESSING: RECALIBRATE identity on assigned fragments and MS1
MS$DATA_PROCESSING: WHOLE RMassBank 2.16.0
PK$SPLASH: splash10-00di-0900000000-ee3edd3909669ad65e37
PK$ANNOTATION: m/z tentative_formula formula_count mass error(ppm)
  92.0251 C6H4O+ 1 92.0257 -5.66
  95.0491 C6H7O+ 1 95.0491 -0.65
  109.064 C7H9O+ 1 109.0648 -6.83
  120.0196 C7H4O2+ 1 120.0206 -8.26
  121.0272 C7H5O2+ 1 121.0284 -10.25
  138.0315 C7H6O3+ 1 138.0311 2.83
  139.0356 C7H7O3+ 1 139.039 -24.36
  152.0493 C8H8O3+ 1 152.0468 16.78
  153.0566 C8H9O3+ 1 153.0546 13.09
PK$NUM_PEAK: 9
PK$PEAK: m/z int. rel.int.
  92.0251 9044 60
  95.0491 1112 7
  109.064 1328 8
  120.0196 90360 609
  121.0272 148204 999
  138.0315 67800 457
  139.0356 7584 51
  152.0493 12128 81
  153.0566 63796 430
//
