ACCESSION: MSBNK-Athens_Univ-AU101103
RECORD_TITLE: Sulfadiazine; LC-ESI-QTOF; MS2; CE: 30 eV; R=35000; [M+H]+
DATE: 2015.09.22
AUTHORS: Nikiforos Alygizakis, Anna Bletsou, Nikolaos Thomaidis, University of Athens
LICENSE: CC BY-SA
COPYRIGHT: Copyright (C) 2015 Department of Chemistry, University of Athens
COMMENT: CONFIDENCE standard compound
COMMENT: INTERNAL_ID 1011
CH$NAME: Sulfadiazine
CH$NAME: 4-amino-n-pyrimidin-2-ylbenzenesulfonamide
CH$COMPOUND_CLASS: N/A; Environmental Standard
CH$FORMULA: C10H10N4O2S
CH$EXACT_MASS: 250.0524466
CH$SMILES: c1cnc(nc1)NS(=O)(=O)c2ccc(cc2)N
CH$IUPAC: InChI=1S/C10H10N4O2S/c11-8-2-4-9(5-3-8)17(15,16)14-10-12-6-1-7-13-10/h1-7H,11H2,(H,12,13,14)
CH$LINK: CAS 141582-64-1
CH$LINK: CHEBI CHEBI:9328
CH$LINK: KEGG C07658
CH$LINK: PUBCHEM CID:5215
CH$LINK: INCHIKEY SEEPANYCNGTZFQ-UHFFFAOYSA-N
CH$LINK: CHEMSPIDER 5026
CH$LINK: COMPTOX DTXSID7044130
AC$INSTRUMENT: Bruker maXis Impact
AC$INSTRUMENT_TYPE: LC-ESI-QTOF
AC$MASS_SPECTROMETRY: MS_TYPE MS2
AC$MASS_SPECTROMETRY: ION_MODE POSITIVE
AC$MASS_SPECTROMETRY: IONIZATION ESI
AC$MASS_SPECTROMETRY: FRAGMENTATION_MODE CID
AC$MASS_SPECTROMETRY: COLLISION_ENERGY 30 eV
AC$MASS_SPECTROMETRY: RESOLUTION 35000
AC$CHROMATOGRAPHY: COLUMN_NAME Acclaim RSLC C18 2.2um, 2.1x100mm, Thermo
AC$CHROMATOGRAPHY: FLOW_GRADIENT 99/1 at 0-1 min, 61/39 at 3 min, 0.1/99.9 at 14-16 min, 99/1 at 16.1-20 min
AC$CHROMATOGRAPHY: FLOW_RATE 200 uL/min at 0-3 min, 400 uL/min at 14 min, 480 uL/min at 16-19 min, 200 uL/min at 19.1-20 min
AC$CHROMATOGRAPHY: RETENTION_TIME 3.3 min
AC$CHROMATOGRAPHY: SOLVENT A water with 0.01% formic acid and 5mM ammonium formate
AC$CHROMATOGRAPHY: SOLVENT B 90:10 water:methanol with 0.01% formic acid and 5mM ammonium formate
MS$FOCUSED_ION: BASE_PEAK 251.06
MS$FOCUSED_ION: PRECURSOR_M/Z 251.0597
MS$FOCUSED_ION: PRECURSOR_TYPE [M+H]+
MS$DATA_PROCESSING: RECALIBRATE identity on assigned fragments and MS1
MS$DATA_PROCESSING: REANALYZE Peaks with additional N2/O included
MS$DATA_PROCESSING: WHOLE RMassBank 2.0.2
PK$SPLASH: splash10-0a4i-0900000000-260a572b5c7f3c070c26
PK$ANNOTATION: m/z tentative_formula formula_count mass error(ppm)
  156.011 C6H6NO2S+ 4 156.0114 -2.46
  157.0136 C7HN4O+ 5 157.0145 -5.84
  158.0032 C4H4N3O2S+ 3 158.0019 8.31
  176.013 C10N4+ 3 176.0117 7.24
  185.0823 C10H9N4+ 1 185.0822 0.5
PK$NUM_PEAK: 5
PK$PEAK: m/z int. rel.int.
  156.011 4480 999
  157.0136 304 67
  158.0032 568 126
  176.013 772 172
  185.0823 980 218
//
