ACCESSION: MSBNK-Athens_Univ-AU252803
RECORD_TITLE: Propoxycarbazone; LC-ESI-QTOF; MS2; CE: 30 eV; R=35000; [M+H]+
DATE: 2019.05.29
AUTHORS: Nikiforos Alygizakis, Katerina Galani, Nikolaos Thomaidis, University of Athens
LICENSE: CC BY
COPYRIGHT: Copyright (C) 2019 Department of Chemistry, University of Athens
COMMENT: CONFIDENCE standard compound
COMMENT: INTERNAL_ID 2528
CH$NAME: Propoxycarbazone
CH$NAME: methyl 2-[(4-methyl-5-oxo-3-propoxy-1,2,4-triazole-1-carbonyl)sulfamoyl]benzoate
CH$COMPOUND_CLASS: N/A; Environmental Standard
CH$FORMULA: C15H18N4O7S
CH$EXACT_MASS: 398.0896199
CH$SMILES: CCCOC1=NN(C(=O)NS(=O)(=O)C2=CC=CC=C2C(=O)OC)C(=O)N1C
CH$IUPAC: InChI=1S/C15H18N4O7S/c1-4-9-26-14-16-19(15(22)18(14)2)13(21)17-27(23,24)11-8-6-5-7-10(11)12(20)25-3/h5-8H,4,9H2,1-3H3,(H,17,21)
CH$LINK: CAS 145026-81-9
CH$LINK: PUBCHEM CID:177355
CH$LINK: INCHIKEY JTHMVYBOQLDDIY-UHFFFAOYSA-N
CH$LINK: CHEMSPIDER 154427
CH$LINK: COMPTOX DTXSID8037704
AC$INSTRUMENT: Bruker maXis Impact
AC$INSTRUMENT_TYPE: LC-ESI-QTOF
AC$MASS_SPECTROMETRY: MS_TYPE MS2
AC$MASS_SPECTROMETRY: ION_MODE POSITIVE
AC$MASS_SPECTROMETRY: IONIZATION ESI
AC$MASS_SPECTROMETRY: FRAGMENTATION_MODE CID
AC$MASS_SPECTROMETRY: COLLISION_ENERGY 30 eV
AC$MASS_SPECTROMETRY: RESOLUTION 35000
AC$CHROMATOGRAPHY: COLUMN_NAME Acclaim RSLC C18 2.2um, 2.1x100mm, Thermo
AC$CHROMATOGRAPHY: FLOW_GRADIENT 99/1 at 0-1 min, 61/39 at 3 min, 0.1/99.9 at 14-16 min, 99/1 at 16.1-20 min
AC$CHROMATOGRAPHY: FLOW_RATE 200 uL/min at 0-3 min, 400 uL/min at 14 min, 480 uL/min at 16-19 min, 200 uL/min at 19.1-20 min
AC$CHROMATOGRAPHY: RETENTION_TIME 5.756 min
AC$CHROMATOGRAPHY: SOLVENT A 90:10 water:methanol with 0.01% formic acid and 5mM ammonium formate
AC$CHROMATOGRAPHY: SOLVENT B methanol with 0.01% formic acid and 5mM ammonium formate
MS$FOCUSED_ION: BASE_PEAK 212.1502
MS$FOCUSED_ION: PRECURSOR_M/Z 399.0969
MS$FOCUSED_ION: PRECURSOR_TYPE [M+H]+
MS$DATA_PROCESSING: RECALIBRATE identity on assigned fragments and MS1
MS$DATA_PROCESSING: WHOLE RMassBank 2.10.1
PK$SPLASH: splash10-05mk-0930000000-452d97bf632aac4c98a0
PK$ANNOTATION: m/z tentative_formula formula_count mass error(ppm)
  116.0446 C3H6N3O2+ 3 116.0455 -7.03
  133.0857 C6H13O3+ 4 133.0859 -1.59
  135.0434 H11N2O4S+ 4 135.0434 0.05
  158.091 C3H14N2O5+ 5 158.0897 7.87
  168.9948 C7H5O3S+ 6 168.9954 -3.4
  199.0056 C11H3O4+ 9 199.0026 15.02
  200.0078 C10[13]CH3O4+ 1 200.0065 6.36
  209.9836 C11NO4+ 7 209.9822 6.84
  210.9878 C10[13]CNO4+ 1 210.9861 7.98
  224.9992 C11H3N3OS+ 7 224.9991 0.27
PK$NUM_PEAK: 10
PK$PEAK: m/z int. rel.int.
  116.0446 1496 391
  133.0857 416 108
  135.0434 1420 371
  158.091 1120 293
  168.9948 488 127
  199.0056 3816 999
  200.0078 524 137
  209.9836 2192 573
  210.9878 504 131
  224.9992 348 91
//
