ACCESSION: MSBNK-Athens_Univ-AU253501
RECORD_TITLE: Pethoxamid; LC-ESI-QTOF; MS2; CE: 10 eV; R=35000; [M+H]+
DATE: 2019.05.29
AUTHORS: Nikiforos Alygizakis, Katerina Galani, Nikolaos Thomaidis, University of Athens
LICENSE: CC BY
COPYRIGHT: Copyright (C) 2019 Department of Chemistry, University of Athens
COMMENT: CONFIDENCE standard compound
COMMENT: INTERNAL_ID 2535
CH$NAME: Pethoxamid
CH$NAME: 2-chloro-N-(2-ethoxyethyl)-N-(2-methyl-1-phenylprop-1-enyl)acetamide
CH$COMPOUND_CLASS: N/A; Environmental Standard
CH$FORMULA: C16H22ClNO2
CH$EXACT_MASS: 295.1339066
CH$SMILES: CCOCCN(C(=O)CCl)C(=C(C)C)C1=CC=CC=C1
CH$IUPAC: InChI=1S/C16H22ClNO2/c1-4-20-11-10-18(15(19)12-17)16(13(2)3)14-8-6-5-7-9-14/h5-9H,4,10-12H2,1-3H3
CH$LINK: CAS 106700-29-2
CH$LINK: CHEBI CHEBI:83523
CH$LINK: PUBCHEM CID:6450826
CH$LINK: INCHIKEY CSWIKHNSBZVWNQ-UHFFFAOYSA-N
CH$LINK: CHEMSPIDER 4953376
CH$LINK: COMPTOX DTXSID4057928
AC$INSTRUMENT: Bruker maXis Impact
AC$INSTRUMENT_TYPE: LC-ESI-QTOF
AC$MASS_SPECTROMETRY: MS_TYPE MS2
AC$MASS_SPECTROMETRY: ION_MODE POSITIVE
AC$MASS_SPECTROMETRY: IONIZATION ESI
AC$MASS_SPECTROMETRY: FRAGMENTATION_MODE CID
AC$MASS_SPECTROMETRY: COLLISION_ENERGY 10 eV
AC$MASS_SPECTROMETRY: RESOLUTION 35000
AC$CHROMATOGRAPHY: COLUMN_NAME Acclaim RSLC C18 2.2um, 2.1x100mm, Thermo
AC$CHROMATOGRAPHY: FLOW_GRADIENT 99/1 at 0-1 min, 61/39 at 3 min, 0.1/99.9 at 14-16 min, 99/1 at 16.1-20 min
AC$CHROMATOGRAPHY: FLOW_RATE 200 uL/min at 0-3 min, 400 uL/min at 14 min, 480 uL/min at 16-19 min, 200 uL/min at 19.1-20 min
AC$CHROMATOGRAPHY: RETENTION_TIME 10.194 min
AC$CHROMATOGRAPHY: SOLVENT A 90:10 water:methanol with 0.01% formic acid and 5mM ammonium formate
AC$CHROMATOGRAPHY: SOLVENT B methanol with 0.01% formic acid and 5mM ammonium formate
MS$FOCUSED_ION: BASE_PEAK 296.1421
MS$FOCUSED_ION: PRECURSOR_M/Z 296.1412
MS$FOCUSED_ION: PRECURSOR_TYPE [M+H]+
MS$DATA_PROCESSING: RECALIBRATE identity on assigned fragments and MS1
MS$DATA_PROCESSING: WHOLE RMassBank 2.10.1
PK$SPLASH: splash10-0f6t-0090000000-38ac5ae7b5edd4237604
PK$ANNOTATION: m/z tentative_formula formula_count mass error(ppm)
  131.085 C10H11+ 2 131.0855 -4.27
  132.0883 C9[13]CH11+ 1 132.0894 -8.63
  148.0516 C9H8O2+ 2 148.0519 -1.99
  220.1689 C14H22NO+ 1 220.1696 -3.09
  250.0996 C14H17ClNO+ 1 250.0993 1.03
  251.1029 C13[13]CH17ClNO+ 1 251.1032 -1.3
  252.0969 C14H17[37]ClNO+ 1 252.0969 -0.13
  253.0998 C14H18ClO2+ 1 253.099 3.22
  296.1418 C16H23ClNO2+ 1 296.1412 2.23
  297.1451 C15[13]CH23ClNO2+ 1 297.1451 -0.02
  298.1392 C16H23[37]ClNO2+ 1 298.1388 1.46
PK$NUM_PEAK: 11
PK$PEAK: m/z int. rel.int.
  131.085 137260 78
  132.0883 13600 7
  148.0516 23964 13
  220.1689 17212 9
  250.0996 1752304 999
  251.1029 183176 104
  252.0969 341808 194
  253.0998 21136 12
  296.1418 1708876 974
  297.1451 249908 142
  298.1392 422752 241
//
