ACCESSION: MSBNK-Athens_Univ-AU506601
RECORD_TITLE: 1-Phenyl-2-butanone; GC-APCI-QTOF; MS2; CE: 10 eV; R=35000; [M+H]+
DATE: 2021.04.20
AUTHORS: Chrysoula Kanakaki, Nikiforos Alygizakis, Nikolaos Thomaidis, University of Athens
LICENSE: CC BY
COPYRIGHT: Copyright (C) 2021 Department of Chemistry, University of Athens
COMMENT: CONFIDENCE standard compound
COMMENT: INTERNAL_ID 5066
CH$NAME: 1-Phenyl-2-butanone
CH$COMPOUND_CLASS: N/A; Food Contact Material
CH$FORMULA: C10H12O
CH$EXACT_MASS: 148.0888
CH$SMILES: CCC(=O)CC1=CC=CC=C1
CH$IUPAC: InChI=1S/C10H12O/c1-2-10(11)8-9-6-4-3-5-7-9/h3-7H,2,8H2,1H3
CH$LINK: CAS 1007-32-5
CH$LINK: PUBCHEM CID:13879
CH$LINK: INCHIKEY GKDLTXYXODKDEA-UHFFFAOYSA-N
CH$LINK: CHEMSPIDER 13279
AC$INSTRUMENT: Bruker 450 GC coupled to maXis Impact
AC$INSTRUMENT_TYPE: GC-APCI-QTOF
AC$MASS_SPECTROMETRY: MS_TYPE MS2
AC$MASS_SPECTROMETRY: ION_MODE POSITIVE
AC$MASS_SPECTROMETRY: IONIZATION APCI
AC$MASS_SPECTROMETRY: FRAGMENTATION_MODE CID
AC$MASS_SPECTROMETRY: COLLISION_ENERGY 10 eV
AC$MASS_SPECTROMETRY: RESOLUTION 35000
AC$CHROMATOGRAPHY: COLUMN_NAME Rxi-5Sil MS column, 30m, 0.25mm i.d., 0.25µm film thickness, Restek
AC$CHROMATOGRAPHY: COLUMN_TEMPERATURE_GRADIENT 55oC at 0 min, 55oC at 3 min, 180oC at 11.33 min with 15oC/min, 280oC at 26.72 min with 6.5oC/min, 280oC at 31.72 min, 300oC at 33.72 min with 10oC/min, 300oC at 39 min
AC$CHROMATOGRAPHY: FLOW_RATE 1.5 mL/min
AC$CHROMATOGRAPHY: RETENTION_TIME 9.834 min
AC$CHROMATOGRAPHY: SOLVENT A Helium
MS$FOCUSED_ION: BASE_PEAK 149.097
MS$FOCUSED_ION: PRECURSOR_M/Z 149.0961
MS$FOCUSED_ION: PRECURSOR_TYPE [M+H]+
MS$DATA_PROCESSING: RECALIBRATE identity on assigned fragments and MS1
MS$DATA_PROCESSING: WHOLE RMassBank 2.16.0
PK$SPLASH: splash10-0002-0900000000-7ca2411f3dbb998544b7
PK$ANNOTATION: m/z tentative_formula formula_count mass error(ppm)
  57.0344 C3H5O+ 1 57.0335 15.28
  71.0501 C4H7O+ 1 71.0491 13.81
  91.0541 C7H7+ 1 91.0542 -1.57
  105.07 C8H9+ 1 105.0699 1.55
  107.0497 C7H7O+ 1 107.0491 5.06
  119.0849 C9H11+ 1 119.0855 -4.95
  129.0698 C10H9+ 1 129.0699 -0.64
  131.0857 C10H11+ 1 131.0855 1.37
  147.0831 C10H11O+ 1 147.0804 17.92
  148.086 C10H12O+ 1 148.0883 -15.37
  149.0973 C10H13O+ 1 149.0961 8.05
PK$NUM_PEAK: 11
PK$PEAK: m/z int. rel.int.
  57.0344 720 35
  71.0501 208 10
  91.0541 904 44
  105.07 156 7
  107.0497 588 29
  119.0849 212 10
  129.0698 148 7
  131.0857 6120 302
  147.0831 268 13
  148.086 136 6
  149.0973 20212 999
//
