ACCESSION: MSBNK-Athens_Univ-AU285801
RECORD_TITLE: Imazalil; LC-ESI-QTOF; MS2; CE: 10 eV; R=35000; [M+H]+
DATE: 2019.05.31
AUTHORS: Nikiforos Alygizakis, Katerina Galani, Nikolaos Thomaidis, University of Athens
LICENSE: CC BY
COPYRIGHT: Copyright (C) 2019 Department of Chemistry, University of Athens
COMMENT: CONFIDENCE standard compound
COMMENT: INTERNAL_ID 2858
CH$NAME: Imazalil
CH$NAME: Enilconazole
CH$NAME: 1-[2-(2,4-dichlorophenyl)-2-prop-2-enoxyethyl]imidazole
CH$COMPOUND_CLASS: N/A; Environmental Standard
CH$FORMULA: C14H14Cl2N2O
CH$EXACT_MASS: 296.0483184
CH$SMILES: ClC1=CC=C(C(CN2C=CN=C2)OCC=C)C(Cl)=C1
CH$IUPAC: InChI=1S/C14H14Cl2N2O/c1-2-7-19-14(9-18-6-5-17-10-18)12-4-3-11(15)8-13(12)16/h2-6,8,10,14H,1,7,9H2
CH$LINK: CAS 35554-44-0
CH$LINK: CHEBI CHEBI:83829
CH$LINK: KEGG C18739
CH$LINK: PUBCHEM CID:37175
CH$LINK: INCHIKEY PZBPKYOVPCNPJY-UHFFFAOYSA-N
CH$LINK: CHEMSPIDER 34116
CH$LINK: COMPTOX DTXSID8024151
AC$INSTRUMENT: Bruker maXis Impact
AC$INSTRUMENT_TYPE: LC-ESI-QTOF
AC$MASS_SPECTROMETRY: MS_TYPE MS2
AC$MASS_SPECTROMETRY: ION_MODE POSITIVE
AC$MASS_SPECTROMETRY: IONIZATION ESI
AC$MASS_SPECTROMETRY: FRAGMENTATION_MODE CID
AC$MASS_SPECTROMETRY: COLLISION_ENERGY 10 eV
AC$MASS_SPECTROMETRY: RESOLUTION 35000
AC$CHROMATOGRAPHY: COLUMN_NAME Acclaim RSLC C18 2.2um, 2.1x100mm, Thermo
AC$CHROMATOGRAPHY: FLOW_GRADIENT 99/1 at 0-1 min, 61/39 at 3 min, 0.1/99.9 at 14-16 min, 99/1 at 16.1-20 min
AC$CHROMATOGRAPHY: FLOW_RATE 200 uL/min at 0-3 min, 400 uL/min at 14 min, 480 uL/min at 16-19 min, 200 uL/min at 19.1-20 min
AC$CHROMATOGRAPHY: RETENTION_TIME 8.649 min
AC$CHROMATOGRAPHY: SOLVENT A 90:10 water:methanol with 0.01% formic acid and 5mM ammonium formate
AC$CHROMATOGRAPHY: SOLVENT B methanol with 0.01% formic acid and 5mM ammonium formate
MS$FOCUSED_ION: BASE_PEAK 297.0551
MS$FOCUSED_ION: PRECURSOR_M/Z 297.0556
MS$FOCUSED_ION: PRECURSOR_TYPE [M+H]+
MS$DATA_PROCESSING: RECALIBRATE identity on assigned fragments and MS1
MS$DATA_PROCESSING: WHOLE RMassBank 2.10.1
PK$SPLASH: splash10-0002-0090000000-227e7fc5f486d8207d07
PK$ANNOTATION: m/z tentative_formula formula_count mass error(ppm)
  255.0079 C11H9Cl2N2O+ 1 255.0086 -2.84
  297.0561 C14H15Cl2N2O+ 1 297.0556 1.58
  298.0588 C13[13]CH15Cl2N2O+ 1 298.0595 -2.26
  299.0529 C14H15Cl[37]ClN2O+ 1 299.0532 -1.01
PK$NUM_PEAK: 4
PK$PEAK: m/z int. rel.int.
  255.0079 10952 5
  297.0561 2088376 999
  298.0588 323944 154
  299.0529 1254536 600
//
