ACCESSION: MSBNK-Athens_Univ-AU279706
RECORD_TITLE: 17-beta-Estradiol; LC-ESI-QTOF; MS2; CE: Ramp 20.6-31.0 eV; R=35000; [M+H]+
DATE: 2019.05.31
AUTHORS: Nikiforos Alygizakis, Katerina Galani, Nikolaos Thomaidis, University of Athens
LICENSE: CC BY
COPYRIGHT: Copyright (C) 2019 Department of Chemistry, University of Athens
COMMENT: CONFIDENCE standard compound
COMMENT: INTERNAL_ID 2797
CH$NAME: 17-beta-Estradiol
CH$NAME: Estradiol
CH$NAME: (8R,9S,13S,14S,17S)-13-methyl-6,7,8,9,11,12,14,15,16,17-decahydrocyclopenta[a]phenanthrene-3,17-diol
CH$COMPOUND_CLASS: N/A; Environmental Standard
CH$FORMULA: C18H24O2
CH$EXACT_MASS: 272.1776300
CH$SMILES: C[C@]12CC[C@H]3[C@@H](CCC4=CC(O)=CC=C34)[C@@H]1CC[C@@H]2O
CH$IUPAC: InChI=1S/C18H24O2/c1-18-9-8-14-13-5-3-12(19)10-11(13)2-4-15(14)16(18)6-7-17(18)20/h3,5,10,14-17,19-20H,2,4,6-9H2,1H3/t14-,15-,16+,17+,18+/m1/s1
CH$LINK: CAS 50-28-2
CH$LINK: CHEBI CHEBI:16469
CH$LINK: KEGG D00105
CH$LINK: LIPIDMAPS LMST02010001
CH$LINK: PUBCHEM CID:5757
CH$LINK: INCHIKEY VOXZDWNPVJITMN-ZBRFXRBCSA-N
CH$LINK: CHEMSPIDER 5554
CH$LINK: COMPTOX DTXSID0020573
AC$INSTRUMENT: Bruker maXis Impact
AC$INSTRUMENT_TYPE: LC-ESI-QTOF
AC$MASS_SPECTROMETRY: MS_TYPE MS2
AC$MASS_SPECTROMETRY: ION_MODE POSITIVE
AC$MASS_SPECTROMETRY: IONIZATION ESI
AC$MASS_SPECTROMETRY: FRAGMENTATION_MODE CID
AC$MASS_SPECTROMETRY: COLLISION_ENERGY Ramp 20.6-31.0 eV
AC$MASS_SPECTROMETRY: RESOLUTION 35000
AC$CHROMATOGRAPHY: COLUMN_NAME Acclaim RSLC C18 2.2um, 2.1x100mm, Thermo
AC$CHROMATOGRAPHY: FLOW_GRADIENT 99/1 at 0-1 min, 61/39 at 3 min, 0.1/99.9 at 14-16 min, 99/1 at 16.1-20 min
AC$CHROMATOGRAPHY: FLOW_RATE 200 uL/min at 0-3 min, 400 uL/min at 14 min, 480 uL/min at 16-19 min, 200 uL/min at 19.1-20 min
AC$CHROMATOGRAPHY: RETENTION_TIME 11.306 min
AC$CHROMATOGRAPHY: SOLVENT A 90:10 water:methanol with 0.01% formic acid and 5mM ammonium formate
AC$CHROMATOGRAPHY: SOLVENT B methanol with 0.01% formic acid and 5mM ammonium formate
MS$FOCUSED_ION: BASE_PEAK 315.2317
MS$FOCUSED_ION: PRECURSOR_M/Z 273.1849
MS$FOCUSED_ION: PRECURSOR_TYPE [M+H]+
MS$DATA_PROCESSING: RECALIBRATE identity on assigned fragments and MS1
MS$DATA_PROCESSING: WHOLE RMassBank 2.10.1
PK$SPLASH: splash10-004j-0590000000-f47fd5c77d2d59dc46cb
PK$ANNOTATION: m/z tentative_formula formula_count mass error(ppm)
  135.1162 C10H15+ 1 135.1168 -4.81
  145.0989 C11H13+ 1 145.1012 -15.4
  147.116 C11H15+ 1 147.1168 -5.34
  159.1166 C12H15+ 1 159.1168 -1.53
  161.1318 C12H17+ 1 161.1325 -4.16
  199.1464 C15H19+ 1 199.1481 -8.79
  224.0632 C18H8+ 1 224.0621 5
  226.0428 C17H6O+ 1 226.0413 6.75
PK$NUM_PEAK: 8
PK$PEAK: m/z int. rel.int.
  135.1162 312 106
  145.0989 600 205
  147.116 660 225
  159.1166 404 138
  161.1318 364 124
  199.1464 436 149
  224.0632 1412 483
  226.0428 2920 999
//
