ACCESSION: MSBNK-Athens_Univ-AU275004
RECORD_TITLE: Anastrozole; LC-ESI-QTOF; MS2; CE: 40 eV; R=35000; [M+H]+
DATE: 2019.05.30
AUTHORS: Nikiforos Alygizakis, Katerina Galani, Nikolaos Thomaidis, University of Athens
LICENSE: CC BY
COPYRIGHT: Copyright (C) 2019 Department of Chemistry, University of Athens
COMMENT: CONFIDENCE standard compound
COMMENT: INTERNAL_ID 2750
CH$NAME: Anastrozole
CH$NAME: 2-[3-(2-cyanopropan-2-yl)-5-(1,2,4-triazol-1-ylmethyl)phenyl]-2-methylpropanenitrile
CH$COMPOUND_CLASS: N/A; Environmental Standard
CH$FORMULA: C17H19N5
CH$EXACT_MASS: 293.1640456
CH$SMILES: CC(C)(C#N)C1=CC(=CC(CN2C=NC=N2)=C1)C(C)(C)C#N
CH$IUPAC: InChI=1S/C17H19N5/c1-16(2,9-18)14-5-13(8-22-12-20-11-21-22)6-15(7-14)17(3,4)10-19/h5-7,11-12H,8H2,1-4H3
CH$LINK: CAS 120511-73-1
CH$LINK: CHEBI CHEBI:2704
CH$LINK: KEGG C08159
CH$LINK: PUBCHEM CID:2187
CH$LINK: INCHIKEY YBBLVLTVTVSKRW-UHFFFAOYSA-N
CH$LINK: CHEMSPIDER 2102
CH$LINK: COMPTOX DTXSID9022607
AC$INSTRUMENT: Bruker maXis Impact
AC$INSTRUMENT_TYPE: LC-ESI-QTOF
AC$MASS_SPECTROMETRY: MS_TYPE MS2
AC$MASS_SPECTROMETRY: ION_MODE POSITIVE
AC$MASS_SPECTROMETRY: IONIZATION ESI
AC$MASS_SPECTROMETRY: FRAGMENTATION_MODE CID
AC$MASS_SPECTROMETRY: COLLISION_ENERGY 40 eV
AC$MASS_SPECTROMETRY: RESOLUTION 35000
AC$CHROMATOGRAPHY: COLUMN_NAME Acclaim RSLC C18 2.2um, 2.1x100mm, Thermo
AC$CHROMATOGRAPHY: FLOW_GRADIENT 99/1 at 0-1 min, 61/39 at 3 min, 0.1/99.9 at 14-16 min, 99/1 at 16.1-20 min
AC$CHROMATOGRAPHY: FLOW_RATE 200 uL/min at 0-3 min, 400 uL/min at 14 min, 480 uL/min at 16-19 min, 200 uL/min at 19.1-20 min
AC$CHROMATOGRAPHY: RETENTION_TIME 4.915 min
AC$CHROMATOGRAPHY: SOLVENT A 90:10 water:methanol with 0.01% formic acid and 5mM ammonium formate
AC$CHROMATOGRAPHY: SOLVENT B methanol with 0.01% formic acid and 5mM ammonium formate
MS$FOCUSED_ION: BASE_PEAK 294.1601
MS$FOCUSED_ION: PRECURSOR_M/Z 294.1713
MS$FOCUSED_ION: PRECURSOR_TYPE [M+H]+
MS$DATA_PROCESSING: RECALIBRATE identity on assigned fragments and MS1
MS$DATA_PROCESSING: WHOLE RMassBank 2.10.1
PK$SPLASH: splash10-00e9-0900000000-043f11c9eaa4a5da3398
PK$ANNOTATION: m/z tentative_formula formula_count mass error(ppm)
  115.0536 C9H7+ 1 115.0542 -5.69
  128.0487 C9H6N+ 1 128.0495 -6.44
  128.0611 C10H8+ 1 128.0621 -7.46
  129.0686 C10H9+ 1 129.0699 -10.08
  142.0637 C10H8N+ 1 142.0651 -9.86
  143.0718 C10H9N+ 1 143.073 -7.77
  144.0783 C10H10N+ 1 144.0808 -17.36
  154.064 C11H8N+ 1 154.0651 -7.03
  155.0715 C11H9N+ 1 155.073 -9.63
  156.0787 C11H10N+ 1 156.0808 -13.59
  167.0719 C12H9N+ 1 167.073 -6.15
  168.0795 C12H10N+ 1 168.0808 -7.7
  169.0874 C12H11N+ 1 169.0886 -7.25
  170.0954 C12H12N+ 1 170.0964 -6.04
  171.0668 C9H7N4+ 1 171.0665 1.43
  171.0988 C11[13]CH12N+ 1 171.1003 -9.15
  172.07 C8[13]CH7N4+ 1 172.0704 -2.37
  182.0954 C13H12N+ 1 182.0964 -5.76
  183.1003 C12[13]CH12N+ 1 183.1003 -0.04
  184.1112 C13H14N+ 1 184.1121 -4.96
  185.1145 C12[13]CH14N+ 1 185.116 -7.84
  212.1061 C12H12N4+ 1 212.1056 2.06
PK$NUM_PEAK: 22
PK$PEAK: m/z int. rel.int.
  115.0536 10344 5
  128.0487 10368 5
  128.0611 28552 14
  129.0686 18804 9
  142.0637 25640 12
  143.0718 133728 66
  144.0783 25780 12
  154.064 40780 20
  155.0715 44904 22
  156.0787 15500 7
  167.0719 136900 68
  168.0795 178800 88
  169.0874 282564 140
  170.0954 2011196 999
  171.0668 146792 72
  171.0988 226160 112
  172.07 18216 9
  182.0954 208552 103
  183.1003 40724 20
  184.1112 1167044 579
  185.1145 163088 81
  212.1061 28140 13
//
