ACCESSION: MSBNK-Athens_Univ-AU272006
RECORD_TITLE: Clonidine; LC-ESI-QTOF; MS2; CE: Ramp 19.1-28.6 eV; R=35000; [M+H]+
DATE: 2019.05.30
AUTHORS: Nikiforos Alygizakis, Katerina Galani, Nikolaos Thomaidis, University of Athens
LICENSE: CC BY
COPYRIGHT: Copyright (C) 2019 Department of Chemistry, University of Athens
COMMENT: CONFIDENCE standard compound
COMMENT: INTERNAL_ID 2720
CH$NAME: Clonidine
CH$NAME: N-(2,6-dichlorophenyl)-4,5-dihydro-1H-imidazol-2-amine
CH$COMPOUND_CLASS: N/A; Environmental Standard
CH$FORMULA: C9H9Cl2N3
CH$EXACT_MASS: 229.0173526
CH$SMILES: ClC1=CC=CC(Cl)=C1NC1=NCCN1
CH$IUPAC: InChI=1S/C9H9Cl2N3/c10-6-2-1-3-7(11)8(6)14-9-12-4-5-13-9/h1-3H,4-5H2,(H2,12,13,14)
CH$LINK: CAS 4205-90-7
CH$LINK: CHEBI CHEBI:3757
CH$LINK: KEGG D00281
CH$LINK: PUBCHEM CID:2803
CH$LINK: INCHIKEY GJSURZIOUXUGAL-UHFFFAOYSA-N
CH$LINK: CHEMSPIDER 2701
CH$LINK: COMPTOX DTXSID6022846
AC$INSTRUMENT: Bruker maXis Impact
AC$INSTRUMENT_TYPE: LC-ESI-QTOF
AC$MASS_SPECTROMETRY: MS_TYPE MS2
AC$MASS_SPECTROMETRY: ION_MODE POSITIVE
AC$MASS_SPECTROMETRY: IONIZATION ESI
AC$MASS_SPECTROMETRY: FRAGMENTATION_MODE CID
AC$MASS_SPECTROMETRY: COLLISION_ENERGY Ramp 19.1-28.6 eV
AC$MASS_SPECTROMETRY: RESOLUTION 35000
AC$CHROMATOGRAPHY: COLUMN_NAME Acclaim RSLC C18 2.2um, 2.1x100mm, Thermo
AC$CHROMATOGRAPHY: FLOW_GRADIENT 99/1 at 0-1 min, 61/39 at 3 min, 0.1/99.9 at 14-16 min, 99/1 at 16.1-20 min
AC$CHROMATOGRAPHY: FLOW_RATE 200 uL/min at 0-3 min, 400 uL/min at 14 min, 480 uL/min at 16-19 min, 200 uL/min at 19.1-20 min
AC$CHROMATOGRAPHY: RETENTION_TIME 3.687 min
AC$CHROMATOGRAPHY: SOLVENT A 90:10 water:methanol with 0.01% formic acid and 5mM ammonium formate
AC$CHROMATOGRAPHY: SOLVENT B methanol with 0.01% formic acid and 5mM ammonium formate
MS$FOCUSED_ION: BASE_PEAK 230.025
MS$FOCUSED_ION: PRECURSOR_M/Z 230.0246
MS$FOCUSED_ION: PRECURSOR_TYPE [M+H]+
MS$DATA_PROCESSING: RECALIBRATE identity on assigned fragments and MS1
MS$DATA_PROCESSING: WHOLE RMassBank 2.10.1
PK$SPLASH: splash10-001i-0090000000-d12e3a4042c605b784a1
PK$ANNOTATION: m/z tentative_formula formula_count mass error(ppm)
  59.06 C2H7N2+ 1 59.0604 -5.68
  69.0444 C3H5N2+ 1 69.0447 -5.38
  171.9709 C7H4Cl2N+ 1 171.9715 -3.56
  186.982 C7H5Cl2N2+ 1 186.9824 -2.48
  188.9792 C7H5Cl[37]ClN2+ 1 188.98 -4.5
  194.0472 C9H9ClN3+ 1 194.048 -3.94
  212.9977 C9H7Cl2N2+ 1 212.9981 -1.88
  214.9949 C9H7Cl[37]ClN2+ 1 214.9957 -3.56
  230.0249 C9H10Cl2N3+ 1 230.0246 1.33
  231.0275 C8[13]CH10Cl2N3+ 1 231.0285 -4.57
  232.0218 C9H10Cl[37]ClN3+ 1 232.0222 -1.78
PK$NUM_PEAK: 11
PK$PEAK: m/z int. rel.int.
  59.06 17500 14
  69.0444 20420 17
  171.9709 8116 6
  186.982 17836 15
  188.9792 8904 7
  194.0472 10668 9
  212.9977 56580 47
  214.9949 30356 25
  230.0249 1181744 999
  231.0275 153912 130
  232.0218 955184 807
//
