ACCESSION: MSBNK-Athens_Univ-AU405102
RECORD_TITLE: 5-Methyl-1H-benzotriazole; LC-ESI-QTOF; MS2; CE: 20 eV; R=35000; [M+H]+
DATE: 2016.02.22
AUTHORS: Nikiforos Alygizakis, Reza Aalizadeh, Nikolaos Thomaidis, University of Athens
LICENSE: CC BY
COPYRIGHT: Copyright (C) 2016 Department of Chemistry, University of Athens
COMMENT: CONFIDENCE standard compound
COMMENT: INTERNAL_ID 4051
CH$NAME: 5-Methyl-1H-benzotriazole
CH$COMPOUND_CLASS: N/A; Environmental Standard
CH$FORMULA: C7H7N3
CH$EXACT_MASS: 133.0639972
CH$SMILES: c12c(cc(C)cc2)nn[nH]1
CH$IUPAC: InChI=1S/C7H7N3/c1-5-2-3-6-7(4-5)9-10-8-6/h2-4H,1H3,(H,8,9,10)
CH$LINK: CAS 136-85-6
CH$LINK: CHEBI CHEBI:83455
CH$LINK: PUBCHEM CID:8705
CH$LINK: INCHIKEY LRUDIIUSNGCQKF-UHFFFAOYSA-N
CH$LINK: CHEMSPIDER 8381
CH$LINK: COMPTOX DTXSID1038743
AC$INSTRUMENT: Bruker maXis Impact
AC$INSTRUMENT_TYPE: LC-ESI-QTOF
AC$MASS_SPECTROMETRY: MS_TYPE MS2
AC$MASS_SPECTROMETRY: ION_MODE POSITIVE
AC$MASS_SPECTROMETRY: IONIZATION ESI
AC$MASS_SPECTROMETRY: FRAGMENTATION_MODE CID
AC$MASS_SPECTROMETRY: COLLISION_ENERGY 20 eV
AC$MASS_SPECTROMETRY: RESOLUTION 35000
AC$CHROMATOGRAPHY: COLUMN_NAME Acclaim RSLC C18 2.2um, 2.1x100mm, Thermo
AC$CHROMATOGRAPHY: FLOW_GRADIENT 99/1 at 0-1 min, 61/39 at 3 min, 0.1/99.9 at 14-16 min, 99/1 at 16.1-20 min
AC$CHROMATOGRAPHY: FLOW_RATE 200 uL/min at 0-3 min, 400 uL/min at 14 min, 480 uL/min at 16-19 min, 200 uL/min at 19.1-20 min
AC$CHROMATOGRAPHY: RETENTION_TIME 5.706 min
AC$CHROMATOGRAPHY: SOLVENT A 90:10 water:methanol with 0.01% formic acid and 5mM ammonium formate
AC$CHROMATOGRAPHY: SOLVENT B methanol with 0.01% formic acid and 5mM ammonium formate
MS$FOCUSED_ION: BASE_PEAK 134.0715
MS$FOCUSED_ION: PRECURSOR_M/Z 134.0713
MS$FOCUSED_ION: PRECURSOR_TYPE [M+H]+
MS$DATA_PROCESSING: RECALIBRATE identity on assigned fragments and MS1
MS$DATA_PROCESSING: WHOLE RMassBank 1.99.10
PK$SPLASH: splash10-001i-0900000000-3644bda9cc30720d6c93
PK$ANNOTATION: m/z tentative_formula formula_count mass error(ppm)
  134.0713 C7H8N3+ 1 134.0713 0.07
  135.0742 C6[13]CH8N3+ 1 135.0752 -7.3
PK$NUM_PEAK: 2
PK$PEAK: m/z int. rel.int.
  134.0713 143968 999
  135.0742 8600 59
//
