ACCESSION: MSBNK-Athens_Univ-AU502401
RECORD_TITLE: Propyl benzoate; GC-APCI-QTOF; MS2; CE: 10 eV; R=35000; [M+H]+
DATE: 2021.04.19
AUTHORS: Chrysoula Kanakaki, Nikiforos Alygizakis, Nikolaos Thomaidis, University of Athens
LICENSE: CC BY
COPYRIGHT: Copyright (C) 2021 Department of Chemistry, University of Athens
COMMENT: CONFIDENCE standard compound
COMMENT: INTERNAL_ID 5024
CH$NAME: Propyl benzoate
CH$COMPOUND_CLASS: N/A; Food Contact Material
CH$FORMULA: C10H12O2
CH$EXACT_MASS: 164.0837
CH$SMILES: CCCOC(=O)C1=CC=CC=C1
CH$IUPAC: InChI=1S/C10H12O2/c1-2-8-12-10(11)9-6-4-3-5-7-9/h3-7H,2,8H2,1H3
CH$LINK: CAS 2315-68-6
CH$LINK: PUBCHEM CID:16846
CH$LINK: INCHIKEY UDEWPOVQBGFNGE-UHFFFAOYSA-N
CH$LINK: CHEMSPIDER 15965
AC$INSTRUMENT: Bruker 450 GC coupled to maXis Impact
AC$INSTRUMENT_TYPE: GC-APCI-QTOF
AC$MASS_SPECTROMETRY: MS_TYPE MS2
AC$MASS_SPECTROMETRY: ION_MODE POSITIVE
AC$MASS_SPECTROMETRY: IONIZATION APCI
AC$MASS_SPECTROMETRY: FRAGMENTATION_MODE CID
AC$MASS_SPECTROMETRY: COLLISION_ENERGY 10 eV
AC$MASS_SPECTROMETRY: RESOLUTION 35000
AC$CHROMATOGRAPHY: COLUMN_NAME Rxi-5Sil MS column, 30m, 0.25mm i.d., 0.25µm film thickness, Restek
AC$CHROMATOGRAPHY: COLUMN_TEMPERATURE_GRADIENT 55oC at 0 min, 55oC at 3 min, 180oC at 11.33 min with 15oC/min, 280oC at 26.72 min with 6.5oC/min, 280oC at 31.72 min, 300oC at 33.72 min with 10oC/min, 300oC at 39 min
AC$CHROMATOGRAPHY: FLOW_RATE 1.5 mL/min
AC$CHROMATOGRAPHY: RETENTION_TIME 10.282 min
AC$CHROMATOGRAPHY: SOLVENT A Helium
MS$FOCUSED_ION: BASE_PEAK 123.0431
MS$FOCUSED_ION: PRECURSOR_M/Z 165.091
MS$FOCUSED_ION: PRECURSOR_TYPE [M+H]+
MS$DATA_PROCESSING: RECALIBRATE identity on assigned fragments and MS1
MS$DATA_PROCESSING: WHOLE RMassBank 2.16.0
PK$SPLASH: splash10-00di-0900000000-6f4c4292db8ea8e258a3
PK$ANNOTATION: m/z tentative_formula formula_count mass error(ppm)
  79.0543 C6H7+ 1 79.0542 1.42
  122.0357 C7H6O2+ 1 122.0362 -4.12
  123.0432 C7H7O2+ 1 123.0441 -7.09
  135.0452 C8H7O2+ 1 135.0441 8.46
  145.0677 C10H9O+ 1 145.0648 20.01
  163.0777 C10H11O2+ 1 163.0754 14.38
  164.0799 C10H12O2+ 1 164.0832 -19.79
  165.0939 C10H13O2+ 1 165.091 17.76
PK$NUM_PEAK: 8
PK$PEAK: m/z int. rel.int.
  79.0543 1140 14
  122.0357 844 10
  123.0432 80724 999
  135.0452 524 6
  145.0677 836 10
  163.0777 1400 17
  164.0799 492 6
  165.0939 696 8
//
