ACCESSION: MSBNK-Athens_Univ-AU281305
RECORD_TITLE: Medroxyprogesteroneacetate; LC-ESI-QTOF; MS2; CE: 50 eV; R=35000; [M+H]+
DATE: 2019.05.31
AUTHORS: Nikiforos Alygizakis, Katerina Galani, Nikolaos Thomaidis, University of Athens
LICENSE: CC BY
COPYRIGHT: Copyright (C) 2019 Department of Chemistry, University of Athens
COMMENT: CONFIDENCE standard compound
COMMENT: INTERNAL_ID 2813
CH$NAME: Medroxyprogesteroneacetate
CH$NAME: Medroxyprogesterone acetate
CH$NAME: [(6S,8R,9S,10R,13S,14S,17R)-17-acetyl-6,10,13-trimethyl-3-oxo-2,6,7,8,9,11,12,14,15,16-decahydro-1H-cyclopenta[a]phenanthren-17-yl] acetate
CH$COMPOUND_CLASS: N/A; Environmental Standard
CH$FORMULA: C24H34O4
CH$EXACT_MASS: 386.2457096
CH$SMILES: C[C@H]1C[C@H]2[C@@H]3CC[C@](OC(C)=O)(C(C)=O)[C@@]3(C)CC[C@@H]2[C@@]2(C)CCC(=O)C=C12
CH$IUPAC: InChI=1S/C24H34O4/c1-14-12-18-19(22(4)9-6-17(27)13-21(14)22)7-10-23(5)20(18)8-11-24(23,15(2)25)28-16(3)26/h13-14,18-20H,6-12H2,1-5H3/t14-,18+,19-,20-,22+,23-,24-/m0/s1
CH$LINK: CAS 71-58-9
CH$LINK: CHEBI CHEBI:6716
CH$LINK: KEGG C08150
CH$LINK: PUBCHEM CID:6279
CH$LINK: INCHIKEY PSGAAPLEWMOORI-PEINSRQWSA-N
CH$LINK: CHEMSPIDER 6043
CH$LINK: COMPTOX DTXSID0025527
AC$INSTRUMENT: Bruker maXis Impact
AC$INSTRUMENT_TYPE: LC-ESI-QTOF
AC$MASS_SPECTROMETRY: MS_TYPE MS2
AC$MASS_SPECTROMETRY: ION_MODE POSITIVE
AC$MASS_SPECTROMETRY: IONIZATION ESI
AC$MASS_SPECTROMETRY: FRAGMENTATION_MODE CID
AC$MASS_SPECTROMETRY: COLLISION_ENERGY 50 eV
AC$MASS_SPECTROMETRY: RESOLUTION 35000
AC$CHROMATOGRAPHY: COLUMN_NAME Acclaim RSLC C18 2.2um, 2.1x100mm, Thermo
AC$CHROMATOGRAPHY: FLOW_GRADIENT 99/1 at 0-1 min, 61/39 at 3 min, 0.1/99.9 at 14-16 min, 99/1 at 16.1-20 min
AC$CHROMATOGRAPHY: FLOW_RATE 200 uL/min at 0-3 min, 400 uL/min at 14 min, 480 uL/min at 16-19 min, 200 uL/min at 19.1-20 min
AC$CHROMATOGRAPHY: RETENTION_TIME 10.943 min
AC$CHROMATOGRAPHY: SOLVENT A 90:10 water:methanol with 0.01% formic acid and 5mM ammonium formate
AC$CHROMATOGRAPHY: SOLVENT B methanol with 0.01% formic acid and 5mM ammonium formate
MS$FOCUSED_ION: BASE_PEAK 387.2533
MS$FOCUSED_ION: PRECURSOR_M/Z 387.253
MS$FOCUSED_ION: PRECURSOR_TYPE [M+H]+
MS$DATA_PROCESSING: RECALIBRATE identity on assigned fragments and MS1
MS$DATA_PROCESSING: WHOLE RMassBank 2.10.1
PK$SPLASH: splash10-022a-0940000000-dc2a71b801537ec55ce2
PK$ANNOTATION: m/z tentative_formula formula_count mass error(ppm)
  115.0536 C9H7+ 1 115.0542 -5.33
  116.0601 C9H8+ 1 116.0621 -17.01
  117.069 C9H9+ 1 117.0699 -7.8
  118.0734 C8[13]CH9+ 1 118.0738 -3.6
  119.0848 C9H11+ 1 119.0855 -6.18
  120.0882 C8[13]CH11+ 1 120.0894 -10.44
  121.0641 C8H9O+ 1 121.0648 -5.95
  121.1003 C9H13+ 1 121.1012 -7.44
  123.0797 C8H11O+ 1 123.0804 -5.99
  124.0829 C7[13]CH11O+ 1 124.0843 -11.86
  127.0548 C10H7+ 1 127.0542 4.14
  128.0611 C10H8+ 1 128.0621 -7.19
  129.0688 C10H9+ 1 129.0699 -8.6
  130.076 C10H10+ 1 130.0777 -13.1
  131.0846 C10H11+ 1 131.0855 -7.34
  132.0892 C9[13]CH11+ 1 132.0894 -1.92
  133.0634 C9H9O+ 1 133.0648 -10.18
  133.1002 C10H13+ 1 133.1012 -7.1
  134.1041 C9[13]CH13+ 1 134.1051 -7.61
  135.0792 C9H11O+ 1 135.0804 -9.32
  135.1157 C10H15+ 1 135.1168 -8.41
  136.0834 C8[13]CH11O+ 1 136.0843 -7.12
  137.0953 C9H13O+ 1 137.0961 -5.78
  138.0983 C8[13]CH13O+ 1 138.1 -12.19
  141.0685 C11H9+ 1 141.0699 -9.85
  142.0764 C11H10+ 1 142.0777 -8.93
  143.0843 C11H11+ 1 143.0855 -8.76
  144.0909 C11H12+ 1 144.0934 -17.29
  145.0638 C10H9O+ 1 145.0648 -6.92
  145.1003 C11H13+ 1 145.1012 -6.19
  146.0704 C10H10O+ 1 146.0726 -15.36
  146.1036 C10[13]CH13+ 1 146.1051 -9.9
  147.0793 C10H11O+ 1 147.0804 -7.98
  147.1158 C11H15+ 1 147.1168 -6.87
  148.0847 C9[13]CH11O+ 1 148.0843 2.32
  148.1192 C10[13]CH15+ 1 148.1207 -10.01
  149.0946 C10H13O+ 1 149.0961 -9.82
  149.1316 C11H17+ 1 149.1325 -5.9
  151.1108 C10H15O+ 1 151.1117 -6.08
  152.0612 C12H8+ 1 152.0621 -5.37
  153.0684 C12H9+ 1 153.0699 -9.51
  154.0764 C12H10+ 1 154.0777 -8.64
  155.0843 C12H11+ 1 155.0855 -7.96
  156.0916 C12H12+ 1 156.0934 -11.09
  157.0998 C12H13+ 1 157.1012 -8.98
  158.0711 C11H10O+ 1 158.0726 -9.75
  158.1059 C11[13]CH13+ 1 158.1051 5.12
  159.0792 C11H11O+ 1 159.0804 -7.71
  159.1155 C12H15+ 1 159.1168 -8.54
  160.0863 C11H12O+ 1 160.0883 -12.27
  160.1212 C12H16+ 1 160.1247 -21.65
  161.0946 C11H13O+ 1 161.0961 -9.06
  161.1313 C12H17+ 1 161.1325 -7.35
  162.1006 C11H14O+ 1 162.1039 -20.19
  162.1347 C11[13]CH17+ 1 162.1364 -10.38
  163.1108 C11H15O+ 1 163.1117 -5.83
  163.1472 C12H19+ 1 163.1481 -5.8
  164.1126 C10[13]CH15O+ 1 164.1156 -18.55
  165.069 C13H9+ 1 165.0699 -5.42
  166.0755 C13H10+ 1 166.0777 -13.38
  167.0841 C13H11+ 1 167.0855 -8.72
  168.0912 C13H12+ 1 168.0934 -12.51
  169.0999 C13H13+ 1 169.1012 -7.44
  170.1057 C13H14+ 1 170.109 -19.41
  171.0788 C12H11O+ 1 171.0804 -9.34
  171.1154 C13H15+ 1 171.1168 -8.33
  172.0866 C12H12O+ 1 172.0883 -9.48
  172.1203 C12[13]CH15+ 1 172.1207 -2.46
  173.0949 C12H13O+ 1 173.0961 -6.99
  173.1313 C13H17+ 1 173.1325 -6.83
  174.1002 C12H14O+ 1 174.1039 -21.36
  174.1368 C13H18+ 1 174.1403 -20.35
  175.1107 C12H15O+ 1 175.1117 -6.12
  175.1472 C13H19+ 1 175.1481 -5.26
  176.1136 C11[13]CH15O+ 1 176.1156 -11.84
  176.1505 C12[13]CH19+ 1 176.152 -8.87
  177.1269 C12H17O+ 1 177.1274 -3.01
  178.0769 C14H10+ 1 178.0777 -4.77
  179.0842 C14H11+ 1 179.0855 -7.14
  180.0914 C14H12+ 1 180.0934 -10.99
  181.1 C14H13+ 1 181.1012 -6.23
  182.1068 C14H14+ 1 182.109 -12.15
  183.1157 C14H15+ 1 183.1168 -6
  184.1208 C13[13]CH15+ 1 184.1207 0.22
  185.0946 C13H13O+ 1 185.0961 -8.08
  185.1312 C14H17+ 1 185.1325 -6.89
  186.1009 C13H14O+ 1 186.1039 -16.18
  186.1352 C13[13]CH17+ 1 186.1364 -6.32
  187.1107 C13H15O+ 1 187.1117 -5.67
  187.1469 C14H19+ 1 187.1481 -6.4
  188.1519 C13[13]CH19+ 1 188.152 -0.76
  189.1264 C13H17O+ 1 189.1274 -5
  189.1622 C14H21+ 1 189.1638 -8.41
  190.1328 C12[13]CH17O+ 1 190.1313 8.12
  191.1419 C13H19O+ 1 191.143 -6.23
  192.0923 C15H12+ 1 192.0934 -5.56
  193.1 C15H13+ 1 193.1012 -5.86
  194.108 C15H14+ 1 194.109 -5.32
  195.1153 C15H15+ 1 195.1168 -8.07
  196.1219 C15H16+ 1 196.1247 -13.99
  197.1316 C15H17+ 1 197.1325 -4.56
  198.1024 C14H14O+ 1 198.1039 -7.44
  198.1373 C15H18+ 1 198.1403 -15.05
  199.1103 C14H15O+ 1 199.1117 -7.25
  199.1466 C15H19+ 1 199.1481 -7.45
  200.1169 C14H16O+ 1 200.1196 -13.31
  200.1513 C14[13]CH19+ 1 200.152 -3.6
  201.1263 C14H17O+ 1 201.1274 -5.21
  201.1619 C15H21+ 1 201.1638 -9.56
  202.1665 C14[13]CH21+ 1 202.1677 -5.79
  203.1421 C14H19O+ 1 203.143 -4.72
  205.0999 C16H13+ 1 205.1012 -6.28
  205.1579 C14H21O+ 1 205.1587 -3.66
  206.1073 C16H14+ 1 206.109 -8.28
  207.1161 C16H15+ 1 207.1168 -3.63
  208.1231 C16H16+ 1 208.1247 -7.69
  209.1317 C16H17+ 1 209.1325 -3.94
  210.1364 C15[13]CH17+ 1 210.1364 0
  211.1112 C15H15O+ 1 211.1117 -2.5
  211.1472 C16H19+ 1 211.1481 -4.42
  212.1163 C15H16O+ 1 212.1196 -15.4
  212.1516 C15[13]CH19+ 1 212.152 -2.15
  213.1264 C15H17O+ 1 213.1274 -4.74
  213.1625 C16H21+ 1 213.1638 -5.96
  214.1345 C15H18O+ 1 214.1352 -3.42
  215.1395 C14[13]CH18O+ 1 215.1391 1.77
  215.179 C16H23+ 1 215.1794 -1.83
  216.1475 C15H20O+ 1 216.1509 -15.42
  217.1588 C15H21O+ 1 217.1587 0.61
  219.1166 C17H15+ 1 219.1168 -1.09
  220.1227 C17H16+ 1 220.1247 -8.78
  221.1311 C17H17+ 1 221.1325 -6.44
  222.139 C17H18+ 1 222.1403 -6.03
  223.1473 C17H19+ 1 223.1481 -3.74
  224.1547 C17H20+ 1 224.156 -5.77
  225.1259 C16H17O+ 1 225.1274 -6.67
  225.1614 C17H21+ 1 225.1638 -10.45
  226.1349 C16H18O+ 1 226.1352 -1.36
  226.1671 C16[13]CH21+ 1 226.1677 -2.73
  227.1422 C16H19O+ 1 227.143 -3.51
  227.1789 C17H23+ 1 227.1794 -2.11
  228.1482 C16H20O+ 1 228.1509 -11.86
  228.1819 C16[13]CH23+ 1 228.1833 -6.38
  229.1575 C16H21O+ 1 229.1587 -5.13
  232.1222 C18H16+ 1 232.1247 -10.52
  233.1316 C18H17+ 1 233.1325 -3.62
  233.1525 C15H21O2+ 1 233.1536 -4.83
  234.1392 C18H18+ 1 234.1403 -4.58
  235.1463 C18H19+ 1 235.1481 -7.98
  236.1537 C18H20+ 1 236.156 -9.44
  237.1252 C17H17O+ 1 237.1274 -9.05
  237.1631 C18H21+ 1 237.1638 -2.83
  238.133 C17H18O+ 1 238.1352 -9.36
  238.1693 C18H22+ 1 238.1716 -9.54
  239.1426 C17H19O+ 1 239.143 -1.84
  239.1784 C18H23+ 1 239.1794 -4.23
  240.1485 C17H20O+ 1 240.1509 -9.84
  240.1823 C17[13]CH23+ 1 240.1833 -4.3
  241.157 C17H21O+ 1 241.1587 -7.04
  241.1926 C18H25+ 1 241.1951 -10.28
  242.1615 C17H22O+ 1 242.1665 -20.58
  243.1735 C17H23O+ 1 243.1743 -3.37
  247.1471 C19H19+ 1 247.1481 -3.96
  248.154 C19H20+ 1 248.156 -7.76
  249.1631 C19H21+ 1 249.1638 -2.69
  250.1678 C19H22+ 1 250.1716 -15.14
  251.1432 C18H19O+ 1 251.143 0.62
  251.1786 C19H23+ 1 251.1794 -3.47
  252.1489 C18H20O+ 1 252.1509 -8
  252.1836 C18[13]CH23+ 1 252.1833 1.07
  253.1579 C18H21O+ 1 253.1587 -3.16
  253.1897 C19H25+ 1 253.1951 -21.15
  254.1656 C18H22O+ 1 254.1665 -3.73
  255.1728 C18H23O+ 1 255.1743 -5.96
  259.147 C20H19+ 1 259.1481 -4.36
  261.1605 C20H21+ 1 261.1638 -12.44
  263.1793 C20H23+ 1 263.1794 -0.35
  264.1859 C20H24+ 1 264.1873 -5.02
  265.157 C19H21O+ 1 265.1587 -6.47
  265.194 C20H25+ 1 265.1951 -4.13
  266.1653 C19H22O+ 1 266.1665 -4.45
  266.2015 C20H26+ 1 266.2029 -5.37
  267.174 C19H23O+ 1 267.1743 -1.21
  267.2091 C20H27+ 1 267.2107 -5.94
  268.1772 C18[13]CH23O+ 1 268.1782 -3.72
  268.2133 C19[13]CH27+ 1 268.2146 -4.86
  269.189 C19H25O+ 1 269.19 -3.54
  270.1945 C18[13]CH25O+ 1 270.1939 2.32
  277.1597 C20H21O+ 1 277.1587 3.62
  279.1745 C20H23O+ 1 279.1743 0.67
  281.1896 C20H25O+ 1 281.19 -1.41
  282.1968 C20H26O+ 1 282.1978 -3.6
  283.2021 C20H27O+ 1 283.2056 -12.41
  284.2109 C20H28O+ 1 284.2135 -8.86
  285.2205 C20H29O+ 1 285.2213 -2.77
  295.1706 C20H23O2+ 1 295.1693 4.6
PK$NUM_PEAK: 196
PK$PEAK: m/z int. rel.int.
  115.0536 6524 39
  116.0601 1496 9
  117.069 8352 50
  118.0734 1284 7
  119.0848 26452 161
  120.0882 2344 14
  121.0641 4804 29
  121.1003 6408 39
  123.0797 163784 999
  124.0829 14224 86
  127.0548 920 5
  128.0611 10708 65
  129.0688 16744 102
  130.076 7264 44
  131.0846 35712 217
  132.0892 5416 33
  133.0634 3112 18
  133.1002 34396 209
  134.1041 4880 29
  135.0792 7804 47
  135.1157 4932 30
  136.0834 984 6
  137.0953 38868 237
  138.0983 4032 24
  141.0685 9924 60
  142.0764 14528 88
  143.0843 27640 168
  144.0909 8776 53
  145.0638 3156 19
  145.1003 56140 342
  146.0704 1700 10
  146.1036 9024 55
  147.0793 5676 34
  147.1158 48848 297
  148.0847 940 5
  148.1192 6388 38
  149.0946 3848 23
  149.1316 2940 17
  151.1108 1864 11
  152.0612 1316 8
  153.0684 4132 25
  154.0764 4612 28
  155.0843 16828 102
  156.0916 13944 85
  157.0998 33528 204
  158.0711 1488 9
  158.1059 6880 41
  159.0792 5976 36
  159.1155 31644 193
  160.0863 4028 24
  160.1212 7876 48
  161.0946 11492 70
  161.1313 26792 163
  162.1006 2796 17
  162.1347 4148 25
  163.1108 4376 26
  163.1472 1952 11
  164.1126 832 5
  165.069 3512 21
  166.0755 2312 14
  167.0841 10256 62
  168.0912 6808 41
  169.0999 30636 186
  170.1057 9404 57
  171.0788 3852 23
  171.1154 31772 193
  172.0866 4668 28
  172.1203 6180 37
  173.0949 9900 60
  173.1313 30328 184
  174.1002 2936 17
  174.1368 7504 45
  175.1107 19768 120
  175.1472 33916 206
  176.1136 3760 22
  176.1505 5520 33
  177.1269 5420 33
  178.0769 1908 11
  179.0842 10052 61
  180.0914 5616 34
  181.1 12336 75
  182.1068 7848 47
  183.1157 39684 242
  184.1208 9836 59
  185.0946 3452 21
  185.1312 19956 121
  186.1009 1580 9
  186.1352 4452 27
  187.1107 14008 85
  187.1469 7988 48
  188.1519 1572 9
  189.1264 7180 43
  189.1622 1532 9
  190.1328 1244 7
  191.1419 3664 22
  192.0923 2524 15
  193.1 9668 58
  194.108 14288 87
  195.1153 19636 119
  196.1219 10664 65
  197.1316 28404 173
  198.1024 1152 7
  198.1373 11972 73
  199.1103 5188 31
  199.1466 19600 119
  200.1169 2968 18
  200.1513 4380 26
  201.1263 2512 15
  201.1619 3988 24
  202.1665 928 5
  203.1421 1816 11
  205.0999 1900 11
  205.1579 1084 6
  206.1073 3156 19
  207.1161 8232 50
  208.1231 8928 54
  209.1317 91576 558
  210.1364 26532 161
  211.1112 5264 32
  211.1472 37432 228
  212.1163 2072 12
  212.1516 8192 49
  213.1264 7056 43
  213.1625 5728 34
  214.1345 74572 454
  215.1395 18248 111
  215.179 992 6
  216.1475 2304 14
  217.1588 1136 6
  219.1166 3876 23
  220.1227 3248 19
  221.1311 7036 42
  222.139 5112 31
  223.1473 27808 169
  224.1547 42548 259
  225.1259 3644 22
  225.1614 25280 154
  226.1349 2180 13
  226.1671 5884 35
  227.1422 1840 11
  227.1789 9944 60
  228.1482 1108 6
  228.1819 2172 13
  229.1575 1024 6
  232.1222 948 5
  233.1316 2636 16
  233.1525 908 5
  234.1392 5944 36
  235.1463 6232 38
  236.1537 3084 18
  237.1252 2036 12
  237.1631 7528 45
  238.133 1804 11
  238.1693 4280 26
  239.1426 5024 30
  239.1784 3756 22
  240.1485 2348 14
  240.1823 1024 6
  241.157 2452 14
  241.1926 1368 8
  242.1615 976 5
  243.1735 1472 8
  247.1471 1080 6
  248.154 1412 8
  249.1631 13116 80
  250.1678 5632 34
  251.1432 6188 37
  251.1786 16216 98
  252.1489 2992 18
  252.1836 4452 27
  253.1579 4192 25
  253.1897 1212 7
  254.1656 1500 9
  255.1728 960 5
  259.147 988 6
  261.1605 820 5
  263.1793 1544 9
  264.1859 1196 7
  265.157 2764 16
  265.194 4992 30
  266.1653 1740 10
  266.2015 8780 53
  267.174 50232 306
  267.2091 8032 48
  268.1772 13504 82
  268.2133 1368 8
  269.189 8600 52
  270.1945 2020 12
  277.1597 1112 6
  279.1745 1012 6
  281.1896 3236 19
  282.1968 7688 46
  283.2021 3644 22
  284.2109 2512 15
  285.2205 2276 13
  295.1706 1088 6
//
