ACCESSION: MSBNK-Athens_Univ-AU596802
RECORD_TITLE: Fumonisin B1; LC-ESI-QTOF; MS2; CE: 30 eV; R=35000; [M+H]+
DATE: 2020.04.11
AUTHORS: Varvara Nikolopoulou, Anthi Panara, Reza Aalizadeh, Nikolaos Thomaidis
LICENSE: CC BY
COPYRIGHT: Copyright (C) 2020 Department of Chemistry, University of Athens
COMMENT: CONFIDENCE standard compound
COMMENT: INTERNAL_ID 5968
CH$NAME: Fumonisin B1
CH$NAME: 2-[2-[19-amino-6-(3,4-dicarboxybutanoyloxy)-11,16,18-trihydroxy-5,9-dimethylicosan-7-yl]oxy-2-oxoethyl]butanedioic acid
CH$COMPOUND_CLASS: Natural Product; Fungal metabolite
CH$FORMULA: C34H59NO15
CH$EXACT_MASS: 721.3885
CH$SMILES: CCCCC(C)C(C(CC(C)CC(CCCCC(CC(C(C)N)O)O)O)OC(=O)CC(CC(=O)O)C(=O)O)OC(=O)CC(CC(=O)O)C(=O)O
CH$IUPAC: InChI=1S/C34H59NO15/c1-5-6-9-20(3)32(50-31(44)17-23(34(47)48)15-29(41)42)27(49-30(43)16-22(33(45)46)14-28(39)40)13-19(2)12-24(36)10-7-8-11-25(37)18-26(38)21(4)35/h19-27,32,36-38H,5-18,35H2,1-4H3,(H,39,40)(H,41,42)(H,45,46)(H,47,48)
CH$LINK: CAS 116355-83-0
CH$LINK: CHEMSPIDER 3313
CH$LINK: INCHIKEY UVBUBMSSQKOIBE-UHFFFAOYSA-N
CH$LINK: PUBCHEM CID:3431
AC$INSTRUMENT: Bruker maXis Impact
AC$INSTRUMENT_TYPE: LC-ESI-QTOF
AC$MASS_SPECTROMETRY: MS_TYPE MS2
AC$MASS_SPECTROMETRY: ION_MODE POSITIVE
AC$MASS_SPECTROMETRY: IONIZATION ESI
AC$MASS_SPECTROMETRY: FRAGMENTATION_MODE CID
AC$MASS_SPECTROMETRY: COLLISION_ENERGY 30 eV
AC$MASS_SPECTROMETRY: RESOLUTION 35000
AC$CHROMATOGRAPHY: COLUMN_NAME Acclaim RSLC C18 2.2um, 2.1x100mm, Thermo
AC$CHROMATOGRAPHY: FLOW_GRADIENT 99/1 at 0-1 min, 61/39 at 3 min, 0.1/99.9 at 14-16 min, 99/1 at 16.1-20 min
AC$CHROMATOGRAPHY: FLOW_RATE 200 uL/min at 0-3 min, 400 uL/min at 14 min, 480 uL/min at 16-19 min, 200 uL/min at 19.1-20 min
AC$CHROMATOGRAPHY: RETENTION_TIME 8.690 min
AC$CHROMATOGRAPHY: SOLVENT A 90:10 water:methanol with 0.01% formic acid and 5mM ammonium formate
AC$CHROMATOGRAPHY: SOLVENT B methanol with 0.01% formic acid and 5mM ammonium formate
MS$FOCUSED_ION: BASE_PEAK 722.3962
MS$FOCUSED_ION: PRECURSOR_M/Z 722.3957
MS$FOCUSED_ION: PRECURSOR_TYPE [M+H]+
MS$DATA_PROCESSING: RECALIBRATE identity on assigned fragments and MS1
MS$DATA_PROCESSING: WHOLE RMassBank 2.8.0
PK$SPLASH: splash10-00di-0001000900-e4cb03af16b1f25db7ba
PK$ANNOTATION: m/z tentative_formula formula_count mass error(ppm)
  334.3085 C19H42O4+ 6 334.3078 2.32
  352.3209 C22H42NO2+ 5 352.321 -0.39
  370.3335 C12H50O11+ 4 370.3348 -3.39
  546.3638 C28H52NO9+ 5 546.3637 0.27
  686.3728 C34H56NO13+ 1 686.3746 -2.68
  704.3819 C34H58NO14+ 1 704.3852 -4.69
  705.3923 C34H59NO14+ 1 705.393 -0.99
  722.3949 C34H60NO15+ 1 722.3957 -1.14
PK$NUM_PEAK: 8
PK$PEAK: m/z int. rel.int.
  334.3085 396 28
  352.3209 948 67
  370.3335 752 53
  546.3638 608 43
  686.3728 372 26
  704.3819 1228 87
  705.3923 540 38
  722.3949 14000 999
//
