ACCESSION: MSBNK-Athens_Univ-AU300902
RECORD_TITLE: Dimethoate; LC-ESI-QTOF; MS2; CE: 20 eV; R=35000; [M+H]+
DATE: 2016.02.22
AUTHORS: Nikiforos Alygizakis, Reza Aalizadeh, Nikolaos Thomaidis, University of Athens
LICENSE: CC BY
COPYRIGHT: Copyright (C) 2016 Department of Chemistry, University of Athens
COMMENT: CONFIDENCE standard compound
COMMENT: INTERNAL_ID 3009
CH$NAME: Dimethoate
CH$NAME: 2-dimethoxyphosphinothioylsulfanyl-N-methylacetamide
CH$COMPOUND_CLASS: N/A; Environmental Standard
CH$FORMULA: C5H12NO3PS2
CH$EXACT_MASS: 228.9996219
CH$SMILES: P(SCC(NC)=O)(OC)(OC)=S
CH$IUPAC: InChI=1S/C5H12NO3PS2/c1-6-5(7)4-12-10(11,8-2)9-3/h4H2,1-3H3,(H,6,7)
CH$LINK: CAS 60-51-5
CH$LINK: CHEBI CHEBI:34714
CH$LINK: KEGG C14326
CH$LINK: PUBCHEM CID:3082
CH$LINK: INCHIKEY MCWXGJITAZMZEV-UHFFFAOYSA-N
CH$LINK: CHEMSPIDER 2973
CH$LINK: COMPTOX DTXSID7020479
AC$INSTRUMENT: Bruker maXis Impact
AC$INSTRUMENT_TYPE: LC-ESI-QTOF
AC$MASS_SPECTROMETRY: MS_TYPE MS2
AC$MASS_SPECTROMETRY: ION_MODE POSITIVE
AC$MASS_SPECTROMETRY: IONIZATION ESI
AC$MASS_SPECTROMETRY: FRAGMENTATION_MODE CID
AC$MASS_SPECTROMETRY: COLLISION_ENERGY 20 eV
AC$MASS_SPECTROMETRY: RESOLUTION 35000
AC$CHROMATOGRAPHY: COLUMN_NAME Acclaim RSLC C18 2.2um, 2.1x100mm, Thermo
AC$CHROMATOGRAPHY: FLOW_GRADIENT 99/1 at 0-1 min, 61/39 at 3 min, 0.1/99.9 at 14-16 min, 99/1 at 16.1-20 min
AC$CHROMATOGRAPHY: FLOW_RATE 200 uL/min at 0-3 min, 400 uL/min at 14 min, 480 uL/min at 16-19 min, 200 uL/min at 19.1-20 min
AC$CHROMATOGRAPHY: RETENTION_TIME 5.154 min
AC$CHROMATOGRAPHY: SOLVENT A 90:10 water:methanol with 0.01% formic acid and 5mM ammonium formate
AC$CHROMATOGRAPHY: SOLVENT B methanol with 0.01% formic acid and 5mM ammonium formate
MS$FOCUSED_ION: BASE_PEAK 230.0083
MS$FOCUSED_ION: PRECURSOR_M/Z 230.0069
MS$FOCUSED_ION: PRECURSOR_TYPE [M+H]+
MS$DATA_PROCESSING: RECALIBRATE identity on assigned fragments and MS1
MS$DATA_PROCESSING: WHOLE RMassBank 1.99.10
PK$SPLASH: splash10-00di-0900000000-4b7d9b9a7ff55227a662
PK$ANNOTATION: m/z tentative_formula formula_count mass error(ppm)
  119.9938 C3H6NS2+ 2 119.9936 1.23
  123.9981 C2H7NOPS+ 2 123.998 0.03
  124.9823 C2H6O2PS+ 1 124.9821 1.69
  125.9849 C[13]CH6O2PS+ 1 125.986 -8.74
  126.9781 C2H6O2P[34]S+ 1 126.9784 -2.45
  142.9929 C2H8O3PS+ 2 142.9926 1.74
  143.9955 C[13]CH8O3PS+ 1 143.9965 -7.2
  144.9886 C2H8O3P[34]S+ 1 144.989 -2.68
  155.9702 C2H7NOPS2+ 2 155.9701 0.76
  156.9545 C2H6O2PS2+ 2 156.9541 2.03
  158.9504 C2H6O2PS[34]S+ 1 158.9505 -0.64
  170.9703 C3H8O2PS2+ 1 170.9698 2.76
  171.9723 C2[13]CH8O2PS2+ 1 171.9737 -8.11
  172.9662 C3H8O2PS[34]S+ 1 172.9661 0.14
  197.9814 C4H9NO2PS2+ 1 197.9807 3.76
  198.9655 C4H8O3PS2+ 1 198.9647 3.85
  199.9679 C3[13]CH8O3PS2+ 1 199.9686 -3.69
  200.9613 C4H8O3PS[34]S+ 1 200.961 1.26
PK$NUM_PEAK: 18
PK$PEAK: m/z int. rel.int.
  119.9938 6896 8
  123.9981 13780 16
  124.9823 821160 999
  125.9849 13920 16
  126.9781 21268 25
  142.9929 256968 312
  143.9955 7508 9
  144.9886 12792 15
  155.9702 14676 17
  156.9545 109396 133
  158.9504 9552 11
  170.9703 471360 573
  171.9723 15276 18
  172.9662 32792 39
  197.9814 22944 27
  198.9655 147428 179
  199.9679 8104 9
  200.9613 11360 13
//
