ACCESSION: MSBNK-Athens_Univ-AU507001
RECORD_TITLE: Triethylphosphite; GC-APCI-QTOF; MS2; CE: 10 eV; R=35000; [M+H]+
DATE: 2021.04.20
AUTHORS: Chrysoula Kanakaki, Nikiforos Alygizakis, Nikolaos Thomaidis, University of Athens
LICENSE: CC BY
COPYRIGHT: Copyright (C) 2021 Department of Chemistry, University of Athens
COMMENT: CONFIDENCE standard compound
COMMENT: INTERNAL_ID 5070
CH$NAME: Triethylphosphite
CH$COMPOUND_CLASS: N/A; Food Contact Material
CH$FORMULA: C6H15O3P
CH$EXACT_MASS: 166.0759
CH$SMILES: CCOP(OCC)OCC
CH$IUPAC: InChI=1S/C6H15O3P/c1-4-7-10(8-5-2)9-6-3/h4-6H2,1-3H3
CH$LINK: CAS 122-52-1
CH$LINK: PUBCHEM CID:31215
CH$LINK: INCHIKEY BDZBKCUKTQZUTL-UHFFFAOYSA-N
CH$LINK: CHEMSPIDER 28956
AC$INSTRUMENT: Bruker 450 GC coupled to maXis Impact
AC$INSTRUMENT_TYPE: GC-APCI-QTOF
AC$MASS_SPECTROMETRY: MS_TYPE MS2
AC$MASS_SPECTROMETRY: ION_MODE POSITIVE
AC$MASS_SPECTROMETRY: IONIZATION APCI
AC$MASS_SPECTROMETRY: FRAGMENTATION_MODE CID
AC$MASS_SPECTROMETRY: COLLISION_ENERGY 10 eV
AC$MASS_SPECTROMETRY: RESOLUTION 35000
AC$CHROMATOGRAPHY: COLUMN_NAME Rxi-5Sil MS column, 30m, 0.25mm i.d., 0.25µm film thickness, Restek
AC$CHROMATOGRAPHY: COLUMN_TEMPERATURE_GRADIENT 55oC at 0 min, 55oC at 3 min, 180oC at 11.33 min with 15oC/min, 280oC at 26.72 min with 6.5oC/min, 280oC at 31.72 min, 300oC at 33.72 min with 10oC/min, 300oC at 39 min
AC$CHROMATOGRAPHY: FLOW_RATE 1.5 mL/min
AC$CHROMATOGRAPHY: RETENTION_TIME 13.926 min
AC$CHROMATOGRAPHY: SOLVENT A Helium
MS$FOCUSED_ION: BASE_PEAK 167.0866
MS$FOCUSED_ION: PRECURSOR_M/Z 167.0832
MS$FOCUSED_ION: PRECURSOR_TYPE [M+H]+
MS$DATA_PROCESSING: RECALIBRATE identity on assigned fragments and MS1
MS$DATA_PROCESSING: WHOLE RMassBank 2.16.0
PK$SPLASH: splash10-014i-0900000000-ac1ee18218dab8e2eb26
PK$ANNOTATION: m/z tentative_formula formula_count mass error(ppm)
  166.0779 C6H15O3P+ 1 166.0753 15.22
  167.0867 C6H16O3P+ 1 167.0832 21.2
PK$NUM_PEAK: 2
PK$PEAK: m/z int. rel.int.
  166.0779 428 31
  167.0867 13700 999
//
