ACCESSION: MSBNK-Athens_Univ-AU249906
RECORD_TITLE: Phenylethylmalonamide; LC-ESI-QTOF; MS2; CE: Ramp 18.3-27.4 eV; R=35000; [M+H]+
DATE: 2019.04.08
AUTHORS: Nikiforos Alygizakis, Katerina Galani, Nikolaos Thomaidis, University of Athens
LICENSE: CC BY
COPYRIGHT: Copyright (C) 2019 Department of Chemistry, University of Athens
COMMENT: CONFIDENCE standard compound
COMMENT: INTERNAL_ID 2499
CH$NAME: Phenylethylmalonamide
CH$NAME: 2-Ethyl-2-phenylmalonamide
CH$NAME: 2-ethyl-2-phenylpropanediamide
CH$COMPOUND_CLASS: N/A; Environmental Standard
CH$FORMULA: C11H14N2O2
CH$EXACT_MASS: 206.1055277
CH$SMILES: CCC(C(N)=O)(C(N)=O)C1=CC=CC=C1
CH$IUPAC: InChI=1S/C11H14N2O2/c1-2-11(9(12)14,10(13)15)8-6-4-3-5-7-8/h3-7H,2H2,1H3,(H2,12,14)(H2,13,15)
CH$LINK: CAS 7206-76-0
CH$LINK: CHEBI CHEBI:8097
CH$LINK: KEGG C07499
CH$LINK: PUBCHEM CID:23611
CH$LINK: INCHIKEY JFZHPFOXAAIUMB-UHFFFAOYSA-N
CH$LINK: CHEMSPIDER 22078
CH$LINK: COMPTOX DTXSID3025885
AC$INSTRUMENT: Bruker maXis Impact
AC$INSTRUMENT_TYPE: LC-ESI-QTOF
AC$MASS_SPECTROMETRY: MS_TYPE MS2
AC$MASS_SPECTROMETRY: ION_MODE POSITIVE
AC$MASS_SPECTROMETRY: IONIZATION ESI
AC$MASS_SPECTROMETRY: FRAGMENTATION_MODE CID
AC$MASS_SPECTROMETRY: COLLISION_ENERGY Ramp 18.3-27.4 eV
AC$MASS_SPECTROMETRY: RESOLUTION 35000
AC$CHROMATOGRAPHY: COLUMN_NAME Acclaim RSLC C18 2.2um, 2.1x100mm, Thermo
AC$CHROMATOGRAPHY: FLOW_GRADIENT 99/1 at 0-1 min, 61/39 at 3 min, 0.1/99.9 at 14-16 min, 99/1 at 16.1-20 min
AC$CHROMATOGRAPHY: FLOW_RATE 200 uL/min at 0-3 min, 400 uL/min at 14 min, 480 uL/min at 16-19 min, 200 uL/min at 19.1-20 min
AC$CHROMATOGRAPHY: RETENTION_TIME 4.234 min
AC$CHROMATOGRAPHY: SOLVENT A 90:10 water:methanol with 0.01% formic acid and 5mM ammonium formate
AC$CHROMATOGRAPHY: SOLVENT B methanol with 0.01% formic acid and 5mM ammonium formate
MS$FOCUSED_ION: BASE_PEAK 207.1123
MS$FOCUSED_ION: PRECURSOR_M/Z 207.1128
MS$FOCUSED_ION: PRECURSOR_TYPE [M+H]+
MS$DATA_PROCESSING: RECALIBRATE identity on assigned fragments and MS1
MS$DATA_PROCESSING: WHOLE RMassBank 2.10.1
PK$SPLASH: splash10-03di-0900000000-8e65c580530078adb20e
PK$ANNOTATION: m/z tentative_formula formula_count mass error(ppm)
  91.053 C7H7+ 1 91.0542 -12.99
  117.069 C9H9+ 1 117.0699 -7.88
  119.0853 C9H11+ 1 119.0855 -2
  134.0954 C9H12N+ 1 134.0964 -7.32
  145.0632 C10H9O+ 1 145.0648 -11.14
  162.0901 C10H12NO+ 1 162.0913 -7.78
  163.094 C9[13]CH12NO+ 1 163.0952 -7.35
PK$NUM_PEAK: 7
PK$PEAK: m/z int. rel.int.
  91.053 440 86
  117.069 588 115
  119.0853 860 169
  134.0954 616 121
  145.0632 480 94
  162.0901 5076 999
  163.094 584 114
//
