ACCESSION: MSBNK-Athens_Univ-AU593953
RECORD_TITLE: N-methylperfluorooctane sulfonamidoacetic acid (N-MeFOSAA); LC-ESI-QTOF; MS2; CE: 40 eV; R=35000; [M-H]-
DATE: 2020.04.11
AUTHORS: Georgios Gkotsis, Maria-Christina Nika, Reza Aalizadeh, Nikolaos Thomaidis
LICENSE: CC BY
COPYRIGHT: Copyright (C) 2020 Department of Chemistry, University of Athens
COMMENT: CONFIDENCE standard compound
COMMENT: INTERNAL_ID 5939
CH$NAME: N-methylperfluorooctane sulfonamidoacetic acid (N-MeFOSAA)
CH$NAME: N-Methylperfluorooctane sulfonamidoacetic acid
CH$NAME: 2-[1,1,2,2,3,3,4,4,5,5,6,6,7,7,8,8,8-heptadecafluorooctylsulfonyl(methyl)amino]acetic acid
CH$COMPOUND_CLASS: N/A; Environmental Standard
CH$FORMULA: C11H6F17NO4S
CH$EXACT_MASS: 570.9746
CH$SMILES: CN(CC(=O)O)S(=O)(=O)C(C(C(C(C(C(C(C(F)(F)F)(F)F)(F)F)(F)F)(F)F)(F)F)(F)F)(F)F
CH$IUPAC: InChI=1S/C11H6F17NO4S/c1-29(2-3(30)31)34(32,33)11(27,28)9(22,23)7(18,19)5(14,15)4(12,13)6(16,17)8(20,21)10(24,25)26/h2H2,1H3,(H,30,31)
CH$LINK: CAS 2355-31-9
CH$LINK: CHEBI CHEBI:83506
CH$LINK: CHEMSPIDER 11316301
CH$LINK: INCHIKEY QNDHIRFIMVNHBN-UHFFFAOYSA-N
CH$LINK: PUBCHEM CID:22286931
AC$INSTRUMENT: Bruker maXis Impact
AC$INSTRUMENT_TYPE: LC-ESI-QTOF
AC$MASS_SPECTROMETRY: MS_TYPE MS2
AC$MASS_SPECTROMETRY: ION_MODE NEGATIVE
AC$MASS_SPECTROMETRY: IONIZATION ESI
AC$MASS_SPECTROMETRY: FRAGMENTATION_MODE CID
AC$MASS_SPECTROMETRY: COLLISION_ENERGY 40 eV
AC$MASS_SPECTROMETRY: RESOLUTION 35000
AC$CHROMATOGRAPHY: COLUMN_NAME Acclaim RSLC C18 2.2um, 2.1x100mm, Thermo
AC$CHROMATOGRAPHY: FLOW_GRADIENT 99/1 at 0-1 min, 61/39 at 3 min, 0.1/99.9 at 14-16 min, 99/1 at 16.1-20 min
AC$CHROMATOGRAPHY: FLOW_RATE 200 uL/min at 0-3 min, 400 uL/min at 14 min, 480 uL/min at 16-19 min, 200 uL/min at 19.1-20 min
AC$CHROMATOGRAPHY: RETENTION_TIME 11.380 min
AC$CHROMATOGRAPHY: SOLVENT A 90:10 water:methanol with 5mM ammonium acetate
AC$CHROMATOGRAPHY: SOLVENT B methanol with 5mM ammonium acetate
MS$FOCUSED_ION: BASE_PEAK 569.9653
MS$FOCUSED_ION: PRECURSOR_M/Z 569.9673
MS$FOCUSED_ION: PRECURSOR_TYPE [M-H]-
MS$DATA_PROCESSING: RECALIBRATE identity on assigned fragments and MS1
MS$DATA_PROCESSING: WHOLE RMassBank 2.8.0
PK$SPLASH: splash10-014i-0960000000-08bc7b43d035ffcc3edd
PK$NUM_PEAK: 2
PK$PEAK: m/z int. rel.int.
  168.9885 552 999
  218.9851 384 694
//
