ACCESSION: MSBNK-Athens_Univ-AU501302
RECORD_TITLE: Bis(2-ethylhexyl) phthalate; GC-APCI-QTOF; MS2; CE: 20 eV; R=35000; [M+H]+
DATE: 2021.04.19
AUTHORS: Chrysoula Kanakaki, Nikiforos Alygizakis, Nikolaos Thomaidis, University of Athens
LICENSE: CC BY
COPYRIGHT: Copyright (C) 2021 Department of Chemistry, University of Athens
COMMENT: CONFIDENCE standard compound
COMMENT: INTERNAL_ID 5013
CH$NAME: Bis(2-ethylhexyl) phthalate
CH$COMPOUND_CLASS: N/A; Food Contact Material
CH$FORMULA: C24H38O4
CH$EXACT_MASS: 390.2770
CH$SMILES: CCCCC(CC)COC(=O)C1=CC=CC=C1C(=O)OCC(CC)CCCC
CH$IUPAC: InChI=1S/C24H38O4/c1-5-9-13-19(7-3)17-27-23(25)21-15-11-12-16-22(21)24(26)28-18-20(8-4)14-10-6-2/h11-12,15-16,19-20H,5-10,13-14,17-18H2,1-4H3
CH$LINK: CAS 117-81-7
CH$LINK: CHEBI CHEBI:17747
CH$LINK: KEGG C03690
CH$LINK: PUBCHEM CID:8343
CH$LINK: INCHIKEY BJQHLKABXJIVAM-UHFFFAOYSA-N
CH$LINK: CHEMSPIDER 21106505
AC$INSTRUMENT: Bruker 450 GC coupled to maXis Impact
AC$INSTRUMENT_TYPE: GC-APCI-QTOF
AC$MASS_SPECTROMETRY: MS_TYPE MS2
AC$MASS_SPECTROMETRY: ION_MODE POSITIVE
AC$MASS_SPECTROMETRY: IONIZATION APCI
AC$MASS_SPECTROMETRY: FRAGMENTATION_MODE CID
AC$MASS_SPECTROMETRY: COLLISION_ENERGY 20 eV
AC$MASS_SPECTROMETRY: RESOLUTION 35000
AC$CHROMATOGRAPHY: COLUMN_NAME Rxi-5Sil MS column, 30m, 0.25mm i.d., 0.25µm film thickness, Restek
AC$CHROMATOGRAPHY: COLUMN_TEMPERATURE_GRADIENT 55oC at 0 min, 55oC at 3 min, 180oC at 11.33 min with 15oC/min, 280oC at 26.72 min with 6.5oC/min, 280oC at 31.72 min, 300oC at 33.72 min with 10oC/min, 300oC at 39 min
AC$CHROMATOGRAPHY: FLOW_RATE 1.5 mL/min
AC$CHROMATOGRAPHY: RETENTION_TIME 24.638 min
AC$CHROMATOGRAPHY: SOLVENT A Helium
MS$FOCUSED_ION: BASE_PEAK 149.0251
MS$FOCUSED_ION: PRECURSOR_M/Z 391.2843
MS$FOCUSED_ION: PRECURSOR_TYPE [M+H]+
MS$DATA_PROCESSING: RECALIBRATE identity on assigned fragments and MS1
MS$DATA_PROCESSING: WHOLE RMassBank 2.16.0
PK$SPLASH: splash10-0002-0900000000-e808a1610aa2705cc8ae
PK$ANNOTATION: m/z tentative_formula formula_count mass error(ppm)
  71.086 C5H11+ 1 71.0855 6.64
  121.0262 C7H5O2+ 1 121.0284 -17.95
  149.0251 C8H5O3+ 1 149.0233 12.08
  150.0291 C8H6O3+ 1 150.0311 -13.9
  167.0365 C8H7O4+ 1 167.0339 15.4
  168.039 C8H8O4+ 1 168.0417 -15.88
PK$NUM_PEAK: 6
PK$PEAK: m/z int. rel.int.
  71.086 136 6
  121.0262 136 6
  149.0251 20880 999
  150.0291 1580 75
  167.0365 3768 180
  168.039 388 18
//
