ACCESSION: MSBNK-Athens_Univ-AU510556
RECORD_TITLE: 3-Perfluoropropyl propanoic acid (3:3) (FPrPA); LC-ESI-QTOF; MS2; CE: 19.5-29.2 eV; R=35000; [M-H]-
DATE: 2023.04.25
AUTHORS: Konstantina Diamanti, Georgios Gkotsis, Nikiforos Alygizakis, Nikolaos Thomaidis
LICENSE: CC BY
COPYRIGHT: Copyright (C) 2023 Department of Chemistry, University of Athens
COMMENT: CONFIDENCE standard compound
COMMENT: INTERNAL_ID 5105
CH$NAME: 3-Perfluoropropyl propanoic acid (3:3) (FPrPA)
CH$COMPOUND_CLASS: N/A; Environmental Standard
CH$FORMULA: C6H5F7O2
CH$EXACT_MASS: 242.0178
CH$SMILES: C(CC(C(C(F)(F)F)(F)F)(F)F)C(=O)O
CH$IUPAC: InChI=1S/C6H5F7O2/c7-4(8,2-1-3(14)15)5(9,10)6(11,12)13/h1-2H2,(H,14,15)
CH$LINK: CAS 356-02-5
CH$LINK: PUBCHEM CID:2774909
CH$LINK: INCHIKEY ISFKSWMQWIRDNC-UHFFFAOYSA-N
CH$LINK: CHEMSPIDER 2055285
AC$INSTRUMENT: Bruker maXis Impact
AC$INSTRUMENT_TYPE: LC-ESI-QTOF
AC$MASS_SPECTROMETRY: MS_TYPE MS2
AC$MASS_SPECTROMETRY: MODE NEGATIVE
AC$MASS_SPECTROMETRY: IONIZATION ESI
AC$MASS_SPECTROMETRY: FRAGMENTATION_MODE CID
AC$MASS_SPECTROMETRY: COLLISION_ENERGY 19.5-29.2 eV
AC$MASS_SPECTROMETRY: RESOLUTION 35000
AC$MASS_SPECTROMETRY: MASS_RANGE_M/Z 50-1000
AC$CHROMATOGRAPHY: COLUMN_NAME Acclaim RSLC C18 2.2um, 2.1x100mm, Thermo
AC$CHROMATOGRAPHY: FLOW_GRADIENT 99/1 at 0-1 min, 61/39 at 3 min, 0.1/99.9 at 14-16 min, 99/1 at 16.1-20 min
AC$CHROMATOGRAPHY: FLOW_RATE 200 uL/min at 0-3 min, 400 uL/min at 14 min, 480 uL/min at 16-19 min, 200 uL/min at 19.1-20 min
AC$CHROMATOGRAPHY: RETENTION_TIME 6.439 min
MS$FOCUSED_ION: BASE_PEAK 59.0129
MS$FOCUSED_ION: PRECURSOR_M/Z 241.0105
MS$FOCUSED_ION: PRECURSOR_TYPE [M-H]-
MS$DATA_PROCESSING: RECALIBRATE identity on assigned fragments and MS1
MS$DATA_PROCESSING: WHOLE RMassBank 3.9.0
PK$SPLASH: splash10-014i-2900000000-5cd5e3673c74492df48d
PK$ANNOTATION: m/z tentative_formula formula_count mass error(ppm)
  62.9873 CFO2- 1 62.9888 -24.13
  116.996 C5F3- 2 116.9958 2.27
  137.0013 C5HF4- 2 137.002 -5.06
PK$NUM_PEAK: 3
PK$PEAK: m/z int. rel.int.
  62.9873 796 348
  116.996 2280 999
  137.0013 732 320
//
