ACCESSION: MSBNK-Athens_Univ-AU214305
RECORD_TITLE: Amisulpride N-Oxide; LC-ESI-QTOF; MS2; CE: 50 eV; R=35000; [M+H]+
DATE: 2015.12.05
AUTHORS: Nikiforos Alygizakis, Nikolaos Thomaidis, University of Athens
LICENSE: CC BY-SA
COPYRIGHT: Copyright (C) 2015 Department of Chemistry, University of Athens
COMMENT: CONFIDENCE standard compound
COMMENT: INTERNAL_ID 2143
CH$NAME: Amisulpride N-Oxide
CH$NAME: 4-amino-N-[(1-ethyl-1-oxidopyrrolidin-1-ium-2-yl)methyl]-5-ethylsulfonyl-2-methoxybenzamide
CH$COMPOUND_CLASS: N/A; Environmental Standard
CH$FORMULA: C17H27N3O5S
CH$EXACT_MASS: 385.1671420
CH$SMILES: CC[N+]1([O-])CCCC1CNC(=O)C1=CC(=C(N)C=C1OC)S(=O)(=O)CC
CH$IUPAC: InChI=1S/C17H27N3O5S/c1-4-20(22)8-6-7-12(20)11-19-17(21)13-9-16(26(23,24)5-2)14(18)10-15(13)25-3/h9-10,12H,4-8,11,18H2,1-3H3,(H,19,21)
CH$LINK: CAS 71676-01-2
CH$LINK: PUBCHEM CID:71313372
CH$LINK: INCHIKEY LLIKIPAUZJTRGB-UHFFFAOYSA-N
CH$LINK: CHEMSPIDER 29787171
CH$LINK: COMPTOX DTXSID60747025
AC$INSTRUMENT: Bruker maXis Impact
AC$INSTRUMENT_TYPE: LC-ESI-QTOF
AC$MASS_SPECTROMETRY: MS_TYPE MS2
AC$MASS_SPECTROMETRY: ION_MODE POSITIVE
AC$MASS_SPECTROMETRY: IONIZATION ESI
AC$MASS_SPECTROMETRY: FRAGMENTATION_MODE CID
AC$MASS_SPECTROMETRY: COLLISION_ENERGY 50 eV
AC$MASS_SPECTROMETRY: RESOLUTION 35000
AC$CHROMATOGRAPHY: COLUMN_NAME Acclaim RSLC C18 2.2um, 2.1x100mm, Thermo
AC$CHROMATOGRAPHY: FLOW_GRADIENT 99/1 at 0-1 min, 61/39 at 3 min, 0.1/99.9 at 14-16 min, 99/1 at 16.1-20 min
AC$CHROMATOGRAPHY: FLOW_RATE 200 uL/min at 0-3 min, 400 uL/min at 14 min, 480 uL/min at 16-19 min, 200 uL/min at 19.1-20 min
AC$CHROMATOGRAPHY: RETENTION_TIME 4.2 min
AC$CHROMATOGRAPHY: SOLVENT A 90:10 water:methanol with 0.01% formic acid and 5mM ammonium formate
AC$CHROMATOGRAPHY: SOLVENT B methanol with 0.01% formic acid and 5mM ammonium formate
MS$FOCUSED_ION: BASE_PEAK 386.1741
MS$FOCUSED_ION: PRECURSOR_M/Z 386.1744
MS$FOCUSED_ION: PRECURSOR_TYPE [M+H]+
MS$DATA_PROCESSING: RECALIBRATE identity on assigned fragments and MS1
MS$DATA_PROCESSING: REANALYZE Peaks with additional N2/O included
MS$DATA_PROCESSING: WHOLE RMassBank 2.0.3
PK$SPLASH: splash10-0007-0790000000-04e05afdec9cc09b2486
PK$ANNOTATION: m/z tentative_formula formula_count mass error(ppm)
  132.007 C7H2NO2+ 3 132.008 -7.88
  140.015 C3H8O4S+ 4 140.0138 8.96
  149.046 H11N3O4S+ 5 149.0465 -3.02
  168.0102 C7H6NO2S+ 1 168.114 -7.3
  177.9945 C8H4NO2S+ 1 177.9957 -7.1
  196.0054 C8H6NO3S+ 1 196.0063 -4.6
  197.0084 C7[13]CH6NO3S+ 1 197.0091 -3.55
  198.0016 C8H6NO3[34]S+ 1 198.0038 -11.11
  214.0161 C14H2N2O+ 4 214.0162 -0.24
  215.019 C13[13]CH2N2O+ 1 215.0192 -0.93
  216.0223 C12[13]C2H2N2O+ 1 216.022 1.39
  242.0476 C16H6N2O+ 4 242.0475 0.76
  243.0502 C9[13]CH12NO4S+ 1 243.0511 -3.7
  244.0447 C10H12NO4[34]S+ 1 244.0463 -6.56
PK$NUM_PEAK: 14
PK$PEAK: m/z int. rel.int.
  132.007 10748 7
  140.015 16592 11
  149.046 172948 113
  168.0102 81340 53
  177.9945 32200 21
  196.0054 1298740 851
  197.0084 91860 60
  198.0016 32688 21
  214.0161 259540 170
  215.019 18940 12
  216.0223 7436 5
  242.0476 1524184 999
  243.0502 127608 84
  244.0447 31352 21
//
