ACCESSION: MSBNK-Athens_Univ-AU251006
RECORD_TITLE: Bifonazol; LC-ESI-QTOF; MS2; CE: Ramp 21.8-32.7 eV; R=35000; [M+H]+
DATE: 2019.04.08
AUTHORS: Nikiforos Alygizakis, Katerina Galani, Nikolaos Thomaidis, University of Athens
LICENSE: CC BY
COPYRIGHT: Copyright (C) 2019 Department of Chemistry, University of Athens
COMMENT: CONFIDENCE standard compound
COMMENT: INTERNAL_ID 2510
CH$NAME: Bifonazol
CH$NAME: Bifonazole
CH$NAME: 1-[phenyl-(4-phenylphenyl)methyl]imidazole
CH$COMPOUND_CLASS: N/A; Environmental Standard
CH$FORMULA: C22H18N2
CH$EXACT_MASS: 310.1469986
CH$SMILES: C1=CN(C=N1)C(C1=CC=CC=C1)C1=CC=C(C=C1)C1=CC=CC=C1
CH$IUPAC: InChI=1S/C22H18N2/c1-3-7-18(8-4-1)19-11-13-21(14-12-19)22(24-16-15-23-17-24)20-9-5-2-6-10-20/h1-17,22H
CH$LINK: CAS 60628-96-8
CH$LINK: CHEBI CHEBI:78692
CH$LINK: KEGG D01775
CH$LINK: PUBCHEM CID:2378
CH$LINK: INCHIKEY OCAPBUJLXMYKEJ-UHFFFAOYSA-N
CH$LINK: CHEMSPIDER 2287
CH$LINK: COMPTOX DTXSID9045631
AC$INSTRUMENT: Bruker maXis Impact
AC$INSTRUMENT_TYPE: LC-ESI-QTOF
AC$MASS_SPECTROMETRY: MS_TYPE MS2
AC$MASS_SPECTROMETRY: ION_MODE POSITIVE
AC$MASS_SPECTROMETRY: IONIZATION ESI
AC$MASS_SPECTROMETRY: FRAGMENTATION_MODE CID
AC$MASS_SPECTROMETRY: COLLISION_ENERGY Ramp 21.8-32.7 eV
AC$MASS_SPECTROMETRY: RESOLUTION 35000
AC$CHROMATOGRAPHY: COLUMN_NAME Acclaim RSLC C18 2.2um, 2.1x100mm, Thermo
AC$CHROMATOGRAPHY: FLOW_GRADIENT 99/1 at 0-1 min, 61/39 at 3 min, 0.1/99.9 at 14-16 min, 99/1 at 16.1-20 min
AC$CHROMATOGRAPHY: FLOW_RATE 200 uL/min at 0-3 min, 400 uL/min at 14 min, 480 uL/min at 16-19 min, 200 uL/min at 19.1-20 min
AC$CHROMATOGRAPHY: RETENTION_TIME 10.585 min
AC$CHROMATOGRAPHY: SOLVENT A 90:10 water:methanol with 0.01% formic acid and 5mM ammonium formate
AC$CHROMATOGRAPHY: SOLVENT B methanol with 0.01% formic acid and 5mM ammonium formate
MS$FOCUSED_ION: BASE_PEAK 311.1547
MS$FOCUSED_ION: PRECURSOR_M/Z 311.1543
MS$FOCUSED_ION: PRECURSOR_TYPE [M+H]+
MS$DATA_PROCESSING: RECALIBRATE identity on assigned fragments and MS1
MS$DATA_PROCESSING: WHOLE RMassBank 2.10.1
PK$SPLASH: splash10-0006-0190000000-fbc544dd47a9f400a3b1
PK$ANNOTATION: m/z tentative_formula formula_count mass error(ppm)
  91.0542 C7H7+ 1 91.0542 0.12
  92.0575 C6[13]CH7+ 1 92.0581 -7.27
  115.0545 C9H7+ 1 115.0542 2.36
  116.0576 C8[13]CH7+ 1 116.0581 -4.54
  141.0687 C11H9+ 1 141.0699 -8.13
  165.0692 C13H9+ 1 165.0699 -4.33
  166.073 C12[13]CH9+ 1 166.0738 -4.86
  202.0768 C16H10+ 1 202.0777 -4.54
  215.085 C17H11+ 1 215.0855 -2.28
  216.089 C16[13]CH11+ 1 216.0894 -1.93
  227.0848 C18H11+ 1 227.0855 -3.4
  228.0932 C18H12+ 1 228.0934 -0.74
  229.0965 C17[13]CH12+ 1 229.0973 -3.27
  241.101 C19H13+ 1 241.1012 -0.6
  242.1067 C19H14+ 1 242.109 -9.53
  243.1173 C19H15+ 1 243.1168 1.78
  244.1201 C19H16+ 1 244.1247 -18.5
  245.1239 C18[13]CH16+ 1 245.1286 -19.07
PK$NUM_PEAK: 18
PK$PEAK: m/z int. rel.int.
  91.0542 115796 92
  92.0575 9060 7
  115.0545 77544 61
  116.0576 8124 6
  141.0687 14988 11
  165.0692 156916 125
  166.073 21416 17
  202.0768 13632 10
  215.085 49176 39
  216.089 10280 8
  227.0848 8064 6
  228.0932 181548 144
  229.0965 29220 23
  241.101 63396 50
  242.1067 29468 23
  243.1173 1253360 999
  244.1201 547660 436
  245.1239 35912 28
//
