ACCESSION: MSBNK-Athens_Univ-AU244402
RECORD_TITLE: Benzyl-2-naphthylether; LC-ESI-QTOF; MS2; CE: 20 eV; R=35000; [M+H]+
DATE: 2019.04.05
AUTHORS: Nikiforos Alygizakis, Katerina Galani, Nikolaos Thomaidis, University of Athens
LICENSE: CC BY
COPYRIGHT: Copyright (C) 2019 Department of Chemistry, University of Athens
COMMENT: CONFIDENCE standard compound
COMMENT: INTERNAL_ID 2444
CH$NAME: Benzyl-2-naphthylether
CH$NAME: Benzyl 2-naphthyl ether
CH$NAME: 2-phenylmethoxynaphthalene
CH$COMPOUND_CLASS: N/A; Environmental Standard
CH$FORMULA: C17H14O
CH$EXACT_MASS: 234.1044651
CH$SMILES: C(OC1=CC=C2C=CC=CC2=C1)C1=CC=CC=C1
CH$IUPAC: InChI=1S/C17H14O/c1-2-6-14(7-3-1)13-18-17-11-10-15-8-4-5-9-16(15)12-17/h1-12H,13H2
CH$LINK: CAS 613-62-7
CH$LINK: PUBCHEM CID:123080
CH$LINK: INCHIKEY WLTCCDHHWYAMCG-UHFFFAOYSA-N
CH$LINK: CHEMSPIDER 109701
CH$LINK: COMPTOX DTXSID80210201
AC$INSTRUMENT: Bruker maXis Impact
AC$INSTRUMENT_TYPE: LC-ESI-QTOF
AC$MASS_SPECTROMETRY: MS_TYPE MS2
AC$MASS_SPECTROMETRY: ION_MODE POSITIVE
AC$MASS_SPECTROMETRY: IONIZATION ESI
AC$MASS_SPECTROMETRY: FRAGMENTATION_MODE CID
AC$MASS_SPECTROMETRY: COLLISION_ENERGY 20 eV
AC$MASS_SPECTROMETRY: RESOLUTION 35000
AC$CHROMATOGRAPHY: COLUMN_NAME Acclaim RSLC C18 2.2um, 2.1x100mm, Thermo
AC$CHROMATOGRAPHY: FLOW_GRADIENT 99/1 at 0-1 min, 61/39 at 3 min, 0.1/99.9 at 14-16 min, 99/1 at 16.1-20 min
AC$CHROMATOGRAPHY: FLOW_RATE 200 uL/min at 0-3 min, 400 uL/min at 14 min, 480 uL/min at 16-19 min, 200 uL/min at 19.1-20 min
AC$CHROMATOGRAPHY: RETENTION_TIME 12.730 min
AC$CHROMATOGRAPHY: SOLVENT A 90:10 water:methanol with 0.01% formic acid and 5mM ammonium formate
AC$CHROMATOGRAPHY: SOLVENT B methanol with 0.01% formic acid and 5mM ammonium formate
MS$FOCUSED_ION: BASE_PEAK 255.1738
MS$FOCUSED_ION: PRECURSOR_M/Z 235.1117
MS$FOCUSED_ION: PRECURSOR_TYPE [M+H]+
MS$DATA_PROCESSING: RECALIBRATE identity on assigned fragments and MS1
MS$DATA_PROCESSING: WHOLE RMassBank 2.10.1
PK$SPLASH: splash10-014i-0490000000-769af79b8b14e0af40fb
PK$ANNOTATION: m/z tentative_formula formula_count mass error(ppm)
  129.0679 C10H9+ 1 129.0699 -15.02
  217.1028 C17H13+ 1 217.1012 7.55
PK$NUM_PEAK: 2
PK$PEAK: m/z int. rel.int.
  129.0679 364 491
  217.1028 740 999
//
