ACCESSION: MSBNK-Athens_Univ-AU219207
RECORD_TITLE: Ritonavir; LC-ESI-QTOF; MS2; HILIC; CE: 10 eV; R=35000; [M+H]+
DATE: 2016.02.26
AUTHORS: Nikiforos Alygizakis, Nikolaos Thomaidis, University of Athens
LICENSE: CC BY
COPYRIGHT: Copyright (C) 2016 Department of Chemistry, University of Athens
COMMENT: CONFIDENCE standard compound
COMMENT: INTERNAL_ID 2192
CH$NAME: Ritonavir
CH$NAME: 1,3-thiazol-5-ylmethyl N-[(2S,3S,5S)-3-hydroxy-5-[[(2S)-3-methyl-2-[[methyl-[(2-propan-2-yl-1,3-thiazol-4-yl)methyl]carbamoyl]amino]butanoyl]amino]-1,6-diphenylhexan-2-yl]carbamate
CH$COMPOUND_CLASS: N/A; Environmental Standard
CH$FORMULA: C37H48N6O5S2
CH$EXACT_MASS: 720.3127606
CH$SMILES: CC(C)c1nc(cs1)CN(C)/C(=N\[C@@H](C(C)C)/C(=N\[C@@H](Cc2ccccc2)C[C@@H]([C@H](Cc3ccccc3)/N=C(\O)/OCc4cncs4)O)/O)/O
CH$IUPAC: InChI=1S/C37H48N6O5S2/c1-24(2)33(42-36(46)43(5)20-29-22-49-35(40-29)25(3)4)34(45)39-28(16-26-12-8-6-9-13-26)18-32(44)31(17-27-14-10-7-11-15-27)41-37(47)48-21-30-19-38-23-50-30/h6-15,19,22-25,28,31-33,44H,16-18,20-21H2,1-5H3,(H,39,45)(H,41,47)(H,42,46)/t28-,31-,32-,33-/m0/s1
CH$LINK: CAS 155213-67-5
CH$LINK: CHEBI CHEBI:45409
CH$LINK: PUBCHEM CID:392622
CH$LINK: INCHIKEY NCDNCNXCDXHOMX-XGKFQTDJSA-N
CH$LINK: CHEMSPIDER 347980
CH$LINK: COMPTOX DTXSID1048627
AC$INSTRUMENT: Bruker maXis Impact
AC$INSTRUMENT_TYPE: LC-ESI-QTOF
AC$MASS_SPECTROMETRY: MS_TYPE MS2
AC$MASS_SPECTROMETRY: ION_MODE POSITIVE
AC$MASS_SPECTROMETRY: IONIZATION ESI
AC$MASS_SPECTROMETRY: FRAGMENTATION_MODE CID
AC$MASS_SPECTROMETRY: COLLISION_ENERGY 10 eV
AC$MASS_SPECTROMETRY: RESOLUTION 35000
AC$CHROMATOGRAPHY: COLUMN_NAME ACQUITY UPLC BEH Amide 1.7 um 2.1x100mm, Waters
AC$CHROMATOGRAPHY: FLOW_GRADIENT 0/100 at 0-2 min, 95/5 at 12 min, 95/5 at 17 min, 0/100 at 17.1, 0/100 at 25 min
AC$CHROMATOGRAPHY: FLOW_RATE 200 uL/min
AC$CHROMATOGRAPHY: RETENTION_TIME 1.616 min
AC$CHROMATOGRAPHY: SOLVENT A Water with 0.01% formic acid and 1mM ammonium formate
AC$CHROMATOGRAPHY: SOLVENT B Acetonitrile:Water 95:5 with 0.01% formic acid and 1mM ammonium formate
MS$FOCUSED_ION: BASE_PEAK 151.0335
MS$FOCUSED_ION: PRECURSOR_M/Z 721.32
MS$FOCUSED_ION: PRECURSOR_TYPE [M+H]+
MS$DATA_PROCESSING: RECALIBRATE identity on assigned fragments and MS1
MS$DATA_PROCESSING: WHOLE RMassBank 1.99.10
PK$SPLASH: splash10-00di-0010000900-452a2165cb00b246b72f
PK$ANNOTATION: m/z tentative_formula formula_count mass error(ppm)
  171.0958 C2H21NO3S2+ 9 171.0957 0.63
  268.1498 C8H24N6S2+ 20 268.1498 -0.2
  296.1449 C9H24N6OS2+ 22 296.1448 0.41
  297.148 C7[13]CH28N2O5S2+ 1 297.1473 2.45
  426.188 C20H32N3O3S2+ 28 426.188 0.17
  427.1908 C19[13]CH32N3O3S2+ 1 427.1919 -2.45
  721.3272 C37H49N6O5S2+ 1 721.32 9.99
  722.3302 C36[13]CH49N6O5S2+ 1 722.3239 8.66
  723.3282 C37H49N6O5S[34]S+ 1 723.3164 16.35
PK$NUM_PEAK: 9
PK$PEAK: m/z int. rel.int.
  171.0958 7732 12
  268.1498 10640 17
  296.1449 107228 178
  297.148 13208 22
  426.188 30404 50
  427.1908 7212 12
  721.3272 599524 999
  722.3302 248084 413
  723.3282 81752 136
//
