ACCESSION: MSBNK-Athens_Univ-AU258401
RECORD_TITLE: Picoxystrobin; LC-ESI-QTOF; MS2; CE: 10 eV; R=35000; [M+H]+
DATE: 2019.05.29
AUTHORS: Nikiforos Alygizakis, Katerina Galani, Nikolaos Thomaidis, University of Athens
LICENSE: CC BY
COPYRIGHT: Copyright (C) 2019 Department of Chemistry, University of Athens
COMMENT: CONFIDENCE standard compound
COMMENT: INTERNAL_ID 2584
CH$NAME: Picoxystrobin
CH$NAME: methyl (E)-3-methoxy-2-[2-[[6-(trifluoromethyl)pyridin-2-yl]oxymethyl]phenyl]prop-2-enoate
CH$COMPOUND_CLASS: N/A; Environmental Standard
CH$FORMULA: C18H16F3NO4
CH$EXACT_MASS: 367.1031427
CH$SMILES: CO\C=C(\C(=O)OC)C1=CC=CC=C1COC1=CC=CC(=N1)C(F)(F)F
CH$IUPAC: InChI=1S/C18H16F3NO4/c1-24-11-14(17(23)25-2)13-7-4-3-6-12(13)10-26-16-9-5-8-15(22-16)18(19,20)21/h3-9,11H,10H2,1-2H3/b14-11+
CH$LINK: CAS 117428-22-5
CH$LINK: CHEBI CHEBI:83197
CH$LINK: PUBCHEM CID:11285653
CH$LINK: INCHIKEY IBSNKSODLGJUMQ-SDNWHVSQSA-N
CH$LINK: CHEMSPIDER 9460644
CH$LINK: COMPTOX DTXSID9047542
AC$INSTRUMENT: Bruker maXis Impact
AC$INSTRUMENT_TYPE: LC-ESI-QTOF
AC$MASS_SPECTROMETRY: MS_TYPE MS2
AC$MASS_SPECTROMETRY: ION_MODE POSITIVE
AC$MASS_SPECTROMETRY: IONIZATION ESI
AC$MASS_SPECTROMETRY: FRAGMENTATION_MODE CID
AC$MASS_SPECTROMETRY: COLLISION_ENERGY 10 eV
AC$MASS_SPECTROMETRY: RESOLUTION 35000
AC$CHROMATOGRAPHY: COLUMN_NAME Acclaim RSLC C18 2.2um, 2.1x100mm, Thermo
AC$CHROMATOGRAPHY: FLOW_GRADIENT 99/1 at 0-1 min, 61/39 at 3 min, 0.1/99.9 at 14-16 min, 99/1 at 16.1-20 min
AC$CHROMATOGRAPHY: FLOW_RATE 200 uL/min at 0-3 min, 400 uL/min at 14 min, 480 uL/min at 16-19 min, 200 uL/min at 19.1-20 min
AC$CHROMATOGRAPHY: RETENTION_TIME 10.545 min
AC$CHROMATOGRAPHY: SOLVENT A 90:10 water:methanol with 0.01% formic acid and 5mM ammonium formate
AC$CHROMATOGRAPHY: SOLVENT B methanol with 0.01% formic acid and 5mM ammonium formate
MS$FOCUSED_ION: BASE_PEAK 317.1653
MS$FOCUSED_ION: PRECURSOR_M/Z 368.1104
MS$FOCUSED_ION: PRECURSOR_TYPE [M+H]+
MS$DATA_PROCESSING: RECALIBRATE identity on assigned fragments and MS1
MS$DATA_PROCESSING: WHOLE RMassBank 2.10.1
PK$SPLASH: splash10-0a4i-0290000000-6fed160d50477ce4ef61
PK$ANNOTATION: m/z tentative_formula formula_count mass error(ppm)
  145.0638 C10H9O+ 3 145.0648 -6.72
  146.067 C9[13]CH9O+ 1 146.0687 -11.56
  173.0586 C11H9O2+ 4 173.0597 -6.22
  177.0899 C11H13O2+ 4 177.091 -6.25
  205.0861 C13H11F2+ 7 205.0823 18.33
  206.0887 C12[13]CH11F2+ 1 206.0862 12.03
  207.0905 C11[13]C2H11F2+ 1 207.0896 4.33
  368.1103 C18H17F3NO4+ 1 368.1104 -0.35
PK$NUM_PEAK: 8
PK$PEAK: m/z int. rel.int.
  145.0638 648100 258
  146.067 62208 24
  173.0586 48096 19
  177.0899 19816 7
  205.0861 2504132 999
  206.0887 500148 199
  207.0905 33732 13
  368.1103 47016 18
//
