ACCESSION: MSBNK-Athens_Univ-AU229001
RECORD_TITLE: Desacetyldiltiazem; LC-ESI-QTOF; MS2; CE: 10 eV; R=35000; [M+H]+
DATE: 2018.12.19
AUTHORS: Nikiforos Alygizakis, Katerina Galani, Nikolaos Thomaidis, University of Athens
LICENSE: CC BY
COPYRIGHT: Copyright (C) 2018 Department of Chemistry, University of Athens
COMMENT: CONFIDENCE standard compound
COMMENT: INTERNAL_ID 2290
CH$NAME: Desacetyldiltiazem
CH$NAME: (2S,3S)-5-[2-(dimethylamino)ethyl]-3-hydroxy-2-(4-methoxyphenyl)-2,3-dihydro-1,5-benzothiazepin-4-one
CH$COMPOUND_CLASS: N/A; Environmental Standard
CH$FORMULA: C20H24N2O3S
CH$EXACT_MASS: 372.1507636
CH$SMILES: CN(C)CCN1c2ccccc2S[C@H]([C@H](C1=O)O)c3ccc(cc3)OC
CH$IUPAC: InChI=1S/C20H24N2O3S/c1-21(2)12-13-22-16-6-4-5-7-17(16)26-19(18(23)20(22)24)14-8-10-15(25-3)11-9-14/h4-11,18-19,23H,12-13H2,1-3H3/t18-,19+/m1/s1
CH$LINK: CAS 4592-94-3
CH$LINK: PUBCHEM CID:91638
CH$LINK: INCHIKEY NZHUXMZTSSZXSB-MOPGFXCFSA-N
CH$LINK: CHEMSPIDER 82743
CH$LINK: COMPTOX DTXSID00881093
AC$INSTRUMENT: Bruker maXis Impact
AC$INSTRUMENT_TYPE: LC-ESI-QTOF
AC$MASS_SPECTROMETRY: MS_TYPE MS2
AC$MASS_SPECTROMETRY: ION_MODE POSITIVE
AC$MASS_SPECTROMETRY: IONIZATION ESI
AC$MASS_SPECTROMETRY: FRAGMENTATION_MODE CID
AC$MASS_SPECTROMETRY: COLLISION_ENERGY 10 eV
AC$MASS_SPECTROMETRY: RESOLUTION 35000
AC$CHROMATOGRAPHY: COLUMN_NAME Acclaim RSLC C18 2.2um, 2.1x100mm, Thermo
AC$CHROMATOGRAPHY: FLOW_GRADIENT 99/1 at 0-1 min, 61/39 at 3 min, 0.1/99.9 at 14-16 min, 99/1 at 16.1-20 min
AC$CHROMATOGRAPHY: FLOW_RATE 200 uL/min at 0-3 min, 400 uL/min at 14 min, 480 uL/min at 16-19 min, 200 uL/min at 19.1-20 min
AC$CHROMATOGRAPHY: RETENTION_TIME 6.266 min
AC$CHROMATOGRAPHY: SOLVENT A 90:10 water:methanol with 0.01% formic acid and 5mM ammonium formate
AC$CHROMATOGRAPHY: SOLVENT B methanol with 0.01% formic acid and 5mM ammonium formate
MS$FOCUSED_ION: BASE_PEAK 373.1584
MS$FOCUSED_ION: PRECURSOR_M/Z 373.158
MS$FOCUSED_ION: PRECURSOR_TYPE [M+H]+
MS$DATA_PROCESSING: RECALIBRATE identity on assigned fragments and MS1
MS$DATA_PROCESSING: WHOLE RMassBank 2.10.0
PK$SPLASH: splash10-00di-0009000000-52d1235b5cd15cd44250
PK$ANNOTATION: m/z tentative_formula formula_count mass error(ppm)
  178.0309 C9H8NOS+ 2 178.0321 -6.65
  223.089 C11H15N2OS+ 2 223.09 -4.34
  328.0995 C18H18NO3S+ 1 328.1002 -2.11
  372.1579 C20H24N2O3S+ 1 372.1502 20.61
  373.1587 C20H25N2O3S+ 1 373.158 1.68
  374.1608 C19[13]CH25N2O3S+ 1 374.1619 -2.94
  375.1579 C20H25N2O3[34]S+ 1 375.1544 9.38
PK$NUM_PEAK: 7
PK$PEAK: m/z int. rel.int.
  178.0309 93892 38
  223.089 13788 5
  328.0995 38068 15
  372.1579 65284 26
  373.1587 2433672 999
  374.1608 767688 315
  375.1579 151008 61
//
