ACCESSION: MSBNK-Athens_Univ-AU211503
RECORD_TITLE: Norfenfluramine; LC-ESI-QTOF; MS2; CE: 30 eV; R=35000; [M+H]+
DATE: 2015.12.05
AUTHORS: Nikiforos Alygizakis, Nikolaos Thomaidis, University of Athens
LICENSE: CC BY-SA
COPYRIGHT: Copyright (C) 2015 Department of Chemistry, University of Athens
COMMENT: CONFIDENCE standard compound
COMMENT: INTERNAL_ID 2115
CH$NAME: Norfenfluramine
CH$NAME: 1-[3-(trifluoromethyl)phenyl]propan-2-amine
CH$COMPOUND_CLASS: N/A; Environmental Standard
CH$FORMULA: C10H12F3N
CH$EXACT_MASS: 203.0921840
CH$SMILES: CC(N)CC1=CC(=CC=C1)C(F)(F)F
CH$IUPAC: InChI=1S/C10H12F3N/c1-7(14)5-8-3-2-4-9(6-8)10(11,12)13/h2-4,6-7H,5,14H2,1H3
CH$LINK: CAS 1886-26-6
CH$LINK: PUBCHEM CID:15897
CH$LINK: INCHIKEY MLBHFBKZUPLWBD-UHFFFAOYSA-N
CH$LINK: CHEMSPIDER 15108
CH$LINK: COMPTOX DTXSID60904717
AC$INSTRUMENT: Bruker maXis Impact
AC$INSTRUMENT_TYPE: LC-ESI-QTOF
AC$MASS_SPECTROMETRY: MS_TYPE MS2
AC$MASS_SPECTROMETRY: ION_MODE POSITIVE
AC$MASS_SPECTROMETRY: IONIZATION ESI
AC$MASS_SPECTROMETRY: FRAGMENTATION_MODE CID
AC$MASS_SPECTROMETRY: COLLISION_ENERGY 30 eV
AC$MASS_SPECTROMETRY: RESOLUTION 35000
AC$CHROMATOGRAPHY: COLUMN_NAME Acclaim RSLC C18 2.2um, 2.1x100mm, Thermo
AC$CHROMATOGRAPHY: FLOW_GRADIENT 99/1 at 0-1 min, 61/39 at 3 min, 0.1/99.9 at 14-16 min, 99/1 at 16.1-20 min
AC$CHROMATOGRAPHY: FLOW_RATE 200 uL/min at 0-3 min, 400 uL/min at 14 min, 480 uL/min at 16-19 min, 200 uL/min at 19.1-20 min
AC$CHROMATOGRAPHY: RETENTION_TIME 5.9 min
AC$CHROMATOGRAPHY: SOLVENT A 90:10 water:methanol with 0.01% formic acid and 5mM ammonium formate
AC$CHROMATOGRAPHY: SOLVENT B methanol with 0.01% formic acid and 5mM ammonium formate
MS$FOCUSED_ION: BASE_PEAK 204.0991
MS$FOCUSED_ION: PRECURSOR_M/Z 204.0995
MS$FOCUSED_ION: PRECURSOR_TYPE [M+H]+
MS$DATA_PROCESSING: RECALIBRATE identity on assigned fragments and MS1
MS$DATA_PROCESSING: REANALYZE Peaks with additional N2/O included
MS$DATA_PROCESSING: WHOLE RMassBank 2.0.3
PK$SPLASH: splash10-0a4i-0900000000-4015bb3fadb8926460b9
PK$ANNOTATION: m/z tentative_formula formula_count mass error(ppm)
  109.0448 C7H6F+ 2 109.0448 -0.1
  119.0281 C8H4F+ 1 119.0292 -8.6
  139.0347 C8H5F2+ 1 139.0354 -4.7
  147.0348 C8H4FN2+ 2 147.0353 -3.32
  159.0409 C8H6F3+ 1 159.0416 -4.72
  160.0441 C7[13]CH6F3+ 1 160.045 -5.62
PK$NUM_PEAK: 6
PK$PEAK: m/z int. rel.int.
  109.0448 2068 5
  119.0281 1400 3
  139.0347 7164 17
  147.0348 2596 6
  159.0409 416296 999
  160.0441 30632 73
//
