ACCESSION: MSBNK-Athens_Univ-AU362202
RECORD_TITLE: Propachlor; LC-ESI-QTOF; MS2; CE: 20 eV; R=35000; [M+H]+
DATE: 2015.12.09
AUTHORS: Nikiforos Alygizakis, Nikolaos Thomaidis, University of Athens
LICENSE: CC BY-SA
COPYRIGHT: Copyright (C) 2015 Department of Chemistry, University of Athens
COMMENT: CONFIDENCE standard compound
COMMENT: INTERNAL_ID 3622
CH$NAME: Propachlor
CH$NAME: 2-chloro-N-phenyl-N-propan-2-ylacetamide
CH$COMPOUND_CLASS: N/A; Environmental Standard
CH$FORMULA: C11H14ClNO
CH$EXACT_MASS: 211.0763917
CH$SMILES: CC(C)N(C(=O)CCl)C1=CC=CC=C1
CH$IUPAC: InChI=1S/C11H14ClNO/c1-9(2)13(11(14)8-12)10-6-4-3-5-7-10/h3-7,9H,8H2,1-2H3
CH$LINK: CAS 1918-16-7
CH$LINK: CHEBI CHEBI:19503
CH$LINK: KEGG C18759
CH$LINK: PUBCHEM CID:4931
CH$LINK: INCHIKEY MFOUDYKPLGXPGO-UHFFFAOYSA-N
CH$LINK: CHEMSPIDER 4762
CH$LINK: COMPTOX DTXSID4024274
AC$INSTRUMENT: Bruker maXis Impact
AC$INSTRUMENT_TYPE: LC-ESI-QTOF
AC$MASS_SPECTROMETRY: MS_TYPE MS2
AC$MASS_SPECTROMETRY: ION_MODE POSITIVE
AC$MASS_SPECTROMETRY: IONIZATION ESI
AC$MASS_SPECTROMETRY: FRAGMENTATION_MODE CID
AC$MASS_SPECTROMETRY: COLLISION_ENERGY 20 eV
AC$MASS_SPECTROMETRY: RESOLUTION 35000
AC$CHROMATOGRAPHY: COLUMN_NAME Acclaim RSLC C18 2.2um, 2.1x100mm, Thermo
AC$CHROMATOGRAPHY: FLOW_GRADIENT 99/1 at 0-1 min, 61/39 at 3 min, 0.1/99.9 at 14-16 min, 99/1 at 16.1-20 min
AC$CHROMATOGRAPHY: FLOW_RATE 200 uL/min at 0-3 min, 400 uL/min at 14 min, 480 uL/min at 16-19 min, 200 uL/min at 19.1-20 min
AC$CHROMATOGRAPHY: RETENTION_TIME 8.2 min
AC$CHROMATOGRAPHY: SOLVENT A 90:10 water:methanol with 0.01% formic acid and 5mM ammonium formate
AC$CHROMATOGRAPHY: SOLVENT B methanol with 0.01% formic acid and 5mM ammonium formate
MS$FOCUSED_ION: BASE_PEAK 212.0832
MS$FOCUSED_ION: PRECURSOR_M/Z 212.0837
MS$FOCUSED_ION: PRECURSOR_TYPE [M+H]+
MS$DATA_PROCESSING: RECALIBRATE identity on assigned fragments and MS1
MS$DATA_PROCESSING: REANALYZE Peaks with additional N2/O included
MS$DATA_PROCESSING: WHOLE RMassBank 2.0.3
PK$SPLASH: splash10-00di-0900000000-d54ae16db193c20a85e4
PK$ANNOTATION: m/z tentative_formula formula_count mass error(ppm)
  134.0589 C8H8NO+ 1 134.06 -8.41
  152.0249 C8H7ClN+ 1 152.0262 -8.1
  153.0283 C7[13]CH7ClN+ 1 153.0293 -6.53
  154.0222 C8H7[37]ClN+ 1 154.0233 -7.14
  170.0355 C8H9ClNO+ 1 170.0367 -7.06
  171.039 C7[13]CH9ClNO+ 1 171.0399 -5.26
  172.033 C8H9[37]ClNO+ 1 172.0339 -5.26
  173.0358 C7[13]CH9[37]ClNO+ 1 173.037 -6.93
  212.0833 C11H15ClNO+ 1 212.0837 -1.75
  213.0867 C10[13]CH15ClNO+ 1 213.0869 -0.94
  214.0802 C11H15[37]ClNO+ 1 214.081 -3.74
PK$NUM_PEAK: 11
PK$PEAK: m/z int. rel.int.
  134.0589 6528 22
  152.0249 21728 73
  153.0283 2192 7
  154.0222 5788 20
  170.0355 295840 999
  171.039 29968 101
  172.033 91876 310
  173.0358 6380 21
  212.0833 14084 47
  213.0867 2056 7
  214.0802 4612 15
//
