ACCESSION: MSBNK-Athens_Univ-AU117201
RECORD_TITLE: Levamisole; LC-ESI-QTOF; MS2; CE: 10 eV; R=35000; [M+H]+
DATE: 2015.09.23
AUTHORS: Nikiforos Alygizakis, Anna Bletsou, Nikolaos Thomaidis, University of Athens
LICENSE: CC BY-SA
COPYRIGHT: Copyright (C) 2015 Department of Chemistry, University of Athens
COMMENT: CONFIDENCE standard compound
COMMENT: INTERNAL_ID 1172
CH$NAME: Levamisole
CH$NAME: (6S)-6-phenyl-2,3,5,6-tetrahydroimidazo[2,1-b][1,3]thiazole
CH$COMPOUND_CLASS: N/A; Environmental Standard
CH$FORMULA: C11H12N2S
CH$EXACT_MASS: 204.0721194
CH$SMILES: c1ccc(cc1)[C@H]2CN3CCSC3=N2
CH$IUPAC: InChI=1S/C11H12N2S/c1-2-4-9(5-3-1)10-8-13-6-7-14-11(13)12-10/h1-5,10H,6-8H2/t10-/m1/s1
CH$LINK: CAS 16595-80-5
CH$LINK: KEGG C07070
CH$LINK: PUBCHEM CID:26879
CH$LINK: INCHIKEY HLFSDGLLUJUHTE-SNVBAGLBSA-N
CH$LINK: CHEMSPIDER 25037
CH$LINK: COMPTOX DTXSID4023206
AC$INSTRUMENT: Bruker maXis Impact
AC$INSTRUMENT_TYPE: LC-ESI-QTOF
AC$MASS_SPECTROMETRY: MS_TYPE MS2
AC$MASS_SPECTROMETRY: ION_MODE POSITIVE
AC$MASS_SPECTROMETRY: IONIZATION ESI
AC$MASS_SPECTROMETRY: FRAGMENTATION_MODE CID
AC$MASS_SPECTROMETRY: COLLISION_ENERGY 10 eV
AC$MASS_SPECTROMETRY: RESOLUTION 35000
AC$CHROMATOGRAPHY: COLUMN_NAME Acclaim RSLC C18 2.2um, 2.1x100mm, Thermo
AC$CHROMATOGRAPHY: FLOW_GRADIENT 99/1 at 0-1 min, 61/39 at 3 min, 0.1/99.9 at 14-16 min, 99/1 at 16.1-20 min
AC$CHROMATOGRAPHY: FLOW_RATE 200 uL/min at 0-3 min, 400 uL/min at 14 min, 480 uL/min at 16-19 min, 200 uL/min at 19.1-20 min
AC$CHROMATOGRAPHY: RETENTION_TIME 3.8 min
AC$CHROMATOGRAPHY: SOLVENT A water with 0.01% formic acid and 5mM ammonium formate
AC$CHROMATOGRAPHY: SOLVENT B 90:10 water:methanol with 0.01% formic acid and 5mM ammonium formate
MS$FOCUSED_ION: BASE_PEAK 205.0723
MS$FOCUSED_ION: PRECURSOR_M/Z 205.0794
MS$FOCUSED_ION: PRECURSOR_TYPE [M+H]+
MS$DATA_PROCESSING: RECALIBRATE identity on assigned fragments and MS1
MS$DATA_PROCESSING: REANALYZE Peaks with additional N2/O included
MS$DATA_PROCESSING: WHOLE RMassBank 2.0.2
PK$SPLASH: splash10-0a4i-0090000000-3287b9f97484db3f8259
PK$ANNOTATION: m/z tentative_formula formula_count mass error(ppm)
  178.0663 C10H12NS+ 2 178.0685 -12.35
  205.0766 C11H13N2S+ 1 205.0794 -13.65
  206.0804 C10[13]CH13N2S+ 1 206.0833 -14.07
  207.0722 C11H13N2[34]S+ 1 207.0757 -16.90
PK$NUM_PEAK: 4
PK$PEAK: m/z int. rel.int.
  178.0663 2064 5
  205.0766 357132 999
  206.0804 42600 119
  207.0722 10600 29
//
