ACCESSION: MSBNK-Athens_Univ-AU302102
RECORD_TITLE: Cyromazine; LC-ESI-QTOF; MS2; CE: 20 eV; R=35000; [M+H]+
DATE: 2016.02.22
AUTHORS: Nikiforos Alygizakis, Reza Aalizadeh, Nikolaos Thomaidis, University of Athens
LICENSE: CC BY
COPYRIGHT: Copyright (C) 2016 Department of Chemistry, University of Athens
COMMENT: CONFIDENCE standard compound
COMMENT: INTERNAL_ID 3021
CH$NAME: Cyromazine
CH$NAME: 2-N-cyclopropyl-1,3,5-triazine-2,4,6-triamine
CH$COMPOUND_CLASS: N/A; Environmental Standard
CH$FORMULA: C6H10N6
CH$EXACT_MASS: 166.0966943
CH$SMILES: C1CC1Nc2nc(nc(n2)N)N
CH$IUPAC: InChI=1S/C6H10N6/c7-4-10-5(8)12-6(11-4)9-3-1-2-3/h3H,1-2H2,(H5,7,8,9,10,11,12)
CH$LINK: CAS 66215-27-8
CH$LINK: CHEBI CHEBI:30260
CH$LINK: KEGG C14147
CH$LINK: PUBCHEM CID:47866
CH$LINK: INCHIKEY LVQDKIWDGQRHTE-UHFFFAOYSA-N
CH$LINK: CHEMSPIDER 43550
CH$LINK: COMPTOX DTXSID6023999
AC$INSTRUMENT: Bruker maXis Impact
AC$INSTRUMENT_TYPE: LC-ESI-QTOF
AC$MASS_SPECTROMETRY: MS_TYPE MS2
AC$MASS_SPECTROMETRY: ION_MODE POSITIVE
AC$MASS_SPECTROMETRY: IONIZATION ESI
AC$MASS_SPECTROMETRY: FRAGMENTATION_MODE CID
AC$MASS_SPECTROMETRY: COLLISION_ENERGY 20 eV
AC$MASS_SPECTROMETRY: RESOLUTION 35000
AC$CHROMATOGRAPHY: COLUMN_NAME Acclaim RSLC C18 2.2um, 2.1x100mm, Thermo
AC$CHROMATOGRAPHY: FLOW_GRADIENT 99/1 at 0-1 min, 61/39 at 3 min, 0.1/99.9 at 14-16 min, 99/1 at 16.1-20 min
AC$CHROMATOGRAPHY: FLOW_RATE 200 uL/min at 0-3 min, 400 uL/min at 14 min, 480 uL/min at 16-19 min, 200 uL/min at 19.1-20 min
AC$CHROMATOGRAPHY: RETENTION_TIME 2.854 min
AC$CHROMATOGRAPHY: SOLVENT A 90:10 water:methanol with 0.01% formic acid and 5mM ammonium formate
AC$CHROMATOGRAPHY: SOLVENT B methanol with 0.01% formic acid and 5mM ammonium formate
MS$FOCUSED_ION: BASE_PEAK 167.1048
MS$FOCUSED_ION: PRECURSOR_M/Z 167.104
MS$FOCUSED_ION: PRECURSOR_TYPE [M+H]+
MS$DATA_PROCESSING: RECALIBRATE identity on assigned fragments and MS1
MS$DATA_PROCESSING: WHOLE RMassBank 1.99.10
PK$SPLASH: splash10-014i-0900000000-050d94bd370514ff970b
PK$ANNOTATION: m/z tentative_formula formula_count mass error(ppm)
  125.0825 C5H9N4+ 1 125.0822 2.46
  126.0846 C4[13]CH9N4+ 1 126.0861 -11.61
  127.0726 C3H7N6+ 1 127.0727 -0.71
  139.0727 C4H7N6+ 1 139.0727 0.48
  140.0928 C5H10N5+ 1 140.0931 -1.64
  150.0776 C6H8N5+ 1 150.0774 1.51
  167.1045 C6H11N6+ 1 167.104 3.24
  168.1068 C5[13]CH11N6+ 1 168.1079 -6.36
PK$NUM_PEAK: 8
PK$PEAK: m/z int. rel.int.
  125.0825 132044 135
  126.0846 5540 5
  127.0726 7720 7
  139.0727 31628 32
  140.0928 7496 7
  150.0776 10664 10
  167.1045 976004 999
  168.1068 46268 47
//
