ACCESSION: MSBNK-Athens_Univ-AU510367
RECORD_TITLE: 1-Perfluoroheptyl ethanol (7:2 secondary) (7:2sFTOH); LC-ESI-QTOF; MS2; CE: 50 eV; R=35000; [M+HCOOH-H]-
DATE: 2023.04.25
AUTHORS: Konstantina Diamanti, Georgios Gkotsis, Nikiforos Alygizakis, Nikolaos Thomaidis
LICENSE: CC BY
COPYRIGHT: Copyright (C) 2023 Department of Chemistry, University of Athens
COMMENT: CONFIDENCE standard compound
COMMENT: INTERNAL_ID 5103
CH$NAME: 1-Perfluoroheptyl ethanol (7:2 secondary) (7:2sFTOH)
CH$NAME: 3,3,4,4,5,5,6,6,7,7,8,8,9,9,9-pentadecafluorononan-2-ol
CH$COMPOUND_CLASS: N/A; Environmental Standard
CH$FORMULA: C9H5F15O
CH$EXACT_MASS: 414.0101
CH$SMILES: CC(C(C(C(C(C(C(C(F)(F)F)(F)F)(F)F)(F)F)(F)F)(F)F)(F)F)O
CH$IUPAC: InChI=1S/C9H5F15O/c1-2(25)3(10,11)4(12,13)5(14,15)6(16,17)7(18,19)8(20,21)9(22,23)24/h2,25H,1H3
CH$LINK: CAS 24015-83-6
CH$LINK: PUBCHEM CID:13081654
CH$LINK: INCHIKEY LWKNIRKCYPKSGM-UHFFFAOYSA-N
CH$LINK: CHEMSPIDER 14189403
AC$INSTRUMENT: Bruker maXis Impact
AC$INSTRUMENT_TYPE: LC-ESI-QTOF
AC$MASS_SPECTROMETRY: MS_TYPE MS2
AC$MASS_SPECTROMETRY: MODE NEGATIVE
AC$MASS_SPECTROMETRY: IONIZATION ESI
AC$MASS_SPECTROMETRY: FRAGMENTATION_MODE CID
AC$MASS_SPECTROMETRY: COLLISION_ENERGY 50 eV
AC$MASS_SPECTROMETRY: RESOLUTION 35000
AC$MASS_SPECTROMETRY: MASS_RANGE_M/Z 50-1000
AC$CHROMATOGRAPHY: COLUMN_NAME Acclaim RSLC C18 2.2um, 2.1x100mm, Thermo
AC$CHROMATOGRAPHY: FLOW_GRADIENT 99/1 at 0-1 min, 61/39 at 3 min, 0.1/99.9 at 14-16 min, 99/1 at 16.1-20 min
AC$CHROMATOGRAPHY: FLOW_RATE 200 uL/min at 0-3 min, 400 uL/min at 14 min, 480 uL/min at 16-19 min, 200 uL/min at 19.1-20 min
AC$CHROMATOGRAPHY: RETENTION_TIME 10.591 min
MS$FOCUSED_ION: BASE_PEAK 393.9794
MS$FOCUSED_ION: PRECURSOR_M/Z 459.0083
MS$FOCUSED_ION: PRECURSOR_TYPE [M+HCOOH-H]-
MS$DATA_PROCESSING: RECALIBRATE identity on assigned fragments and MS1
MS$DATA_PROCESSING: WHOLE RMassBank 3.9.0
PK$SPLASH: splash10-0006-0109000000-451b8df67db25c2ee22d
PK$ANNOTATION: m/z tentative_formula formula_count mass error(ppm)
  168.9922 C5HF4O2- 6 168.9918 2.48
  342.9795 C8F13- 5 342.9798 -0.77
  343.9833 C8HF13- 5 343.9876 -12.6
  392.9761 C9F15- 2 392.9766 -1.21
  393.9817 C9HF15- 2 393.9844 -6.98
PK$NUM_PEAK: 5
PK$PEAK: m/z int. rel.int.
  168.9922 320 318
  342.9795 428 425
  343.9833 380 378
  392.9761 652 648
  393.9817 1004 999
//
