ACCESSION: MSBNK-Athens_Univ-AU166808
RECORD_TITLE: Pregabalin; LC-ESI-QTOF; MS2; HILIC; CE: 20 eV; R=35000; [M+H]+
DATE: 2016.02.26
AUTHORS: Nikiforos Alygizakis, Nikolaos Thomaidis, University of Athens
LICENSE: CC BY
COPYRIGHT: Copyright (C) 2016 Department of Chemistry, University of Athens
COMMENT: CONFIDENCE standard compound
COMMENT: INTERNAL_ID 1668
CH$NAME: Pregabalin
CH$NAME: (3S)-3-(aminomethyl)-5-methylhexanoic acid
CH$COMPOUND_CLASS: N/A; Environmental Standard
CH$FORMULA: C8H17NO2
CH$EXACT_MASS: 159.1259288
CH$SMILES: CC(C)C[C@H](CN)CC(O)=O
CH$IUPAC: InChI=1S/C8H17NO2/c1-6(2)3-7(5-9)4-8(10)11/h6-7H,3-5,9H2,1-2H3,(H,10,11)/t7-/m0/s1
CH$LINK: CAS 148553-50-8
CH$LINK: CHEBI CHEBI:64356
CH$LINK: KEGG D02716
CH$LINK: PUBCHEM CID:5486971
CH$LINK: INCHIKEY AYXYPKUFHZROOJ-ZETCQYMHSA-N
CH$LINK: CHEMSPIDER 4589156
CH$LINK: COMPTOX DTXSID1045950
AC$INSTRUMENT: Bruker maXis Impact
AC$INSTRUMENT_TYPE: LC-ESI-QTOF
AC$MASS_SPECTROMETRY: MS_TYPE MS2
AC$MASS_SPECTROMETRY: ION_MODE POSITIVE
AC$MASS_SPECTROMETRY: IONIZATION ESI
AC$MASS_SPECTROMETRY: FRAGMENTATION_MODE CID
AC$MASS_SPECTROMETRY: COLLISION_ENERGY 20 eV
AC$MASS_SPECTROMETRY: RESOLUTION 35000
AC$CHROMATOGRAPHY: COLUMN_NAME ACQUITY UPLC BEH Amide 1.7 um 2.1x100mm, Waters
AC$CHROMATOGRAPHY: FLOW_GRADIENT 0/100 at 0-2 min, 95/5 at 12 min, 95/5 at 17 min, 0/100 at 17.1, 0/100 at 25 min
AC$CHROMATOGRAPHY: FLOW_RATE 200 uL/min
AC$CHROMATOGRAPHY: RETENTION_TIME 6.482 min
AC$CHROMATOGRAPHY: SOLVENT A Water with 0.01% formic acid and 1mM ammonium formate
AC$CHROMATOGRAPHY: SOLVENT B Acetonitrile:Water 95:5 with 0.01% formic acid and 1mM ammonium formate
MS$FOCUSED_ION: BASE_PEAK 160.1327
MS$FOCUSED_ION: PRECURSOR_M/Z 160.1332
MS$FOCUSED_ION: PRECURSOR_TYPE [M+H]+
MS$DATA_PROCESSING: RECALIBRATE identity on assigned fragments and MS1
MS$DATA_PROCESSING: WHOLE RMassBank 1.99.10
PK$SPLASH: splash10-006x-0900000000-6f3a0c65e89834fee700
PK$ANNOTATION: m/z tentative_formula formula_count mass error(ppm)
  117.0572 C8H7N+ 1 117.0573 -1.27
  120.081 C8H10N+ 1 120.0808 1.72
  124.1117 C8H14N+ 1 124.1121 -3.11
  125.0954 C8H13O+ 1 125.0961 -5.41
  125.1153 C7[13]CH14N+ 1 125.116 -5.73
  142.1219 C8H16NO+ 1 142.1226 -5.07
  143.1056 C8H15O2+ 1 143.1067 -7.33
  143.1248 C7[13]CH16NO+ 1 143.1265 -11.95
  160.1316 C8H18NO2+ 1 160.1332 -9.75
PK$NUM_PEAK: 9
PK$PEAK: m/z int. rel.int.
  117.0572 3424 201
  120.081 1296 76
  124.1117 10092 594
  125.0954 3204 188
  125.1153 948 55
  142.1219 16952 999
  143.1056 1076 63
  143.1248 1484 87
  160.1316 832 49
//
