ACCESSION: MSBNK-Athens_Univ-AU338804
RECORD_TITLE: Diflubenzuron; LC-ESI-QTOF; MS2; CE: 40 eV; R=35000; [M+H]+
DATE: 2015.12.09
AUTHORS: Nikiforos Alygizakis, Nikolaos Thomaidis, University of Athens
LICENSE: CC BY-SA
COPYRIGHT: Copyright (C) 2015 Department of Chemistry, University of Athens
COMMENT: CONFIDENCE standard compound
COMMENT: INTERNAL_ID 3388
CH$NAME: Diflubenzuron
CH$NAME: N-[(4-chlorophenyl)carbamoyl]-2,6-difluorobenzamide
CH$COMPOUND_CLASS: N/A; Environmental Standard
CH$FORMULA: C14H9ClF2N2O2
CH$EXACT_MASS: 310.0320616
CH$SMILES: FC1=CC=CC(F)=C1C(=O)NC(=O)NC1=CC=C(Cl)C=C1
CH$IUPAC: InChI=1S/C14H9ClF2N2O2/c15-8-4-6-9(7-5-8)18-14(21)19-13(20)12-10(16)2-1-3-11(12)17/h1-7H,(H2,18,19,20,21)
CH$LINK: CAS 35367-38-5
CH$LINK: CHEBI CHEBI:34703
CH$LINK: KEGG D07829
CH$LINK: PUBCHEM CID:37123
CH$LINK: INCHIKEY QQQYTWIFVNKMRW-UHFFFAOYSA-N
CH$LINK: CHEMSPIDER 34065
CH$LINK: COMPTOX DTXSID1024049
AC$INSTRUMENT: Bruker maXis Impact
AC$INSTRUMENT_TYPE: LC-ESI-QTOF
AC$MASS_SPECTROMETRY: MS_TYPE MS2
AC$MASS_SPECTROMETRY: ION_MODE POSITIVE
AC$MASS_SPECTROMETRY: IONIZATION ESI
AC$MASS_SPECTROMETRY: FRAGMENTATION_MODE CID
AC$MASS_SPECTROMETRY: COLLISION_ENERGY 40 eV
AC$MASS_SPECTROMETRY: RESOLUTION 35000
AC$CHROMATOGRAPHY: COLUMN_NAME Acclaim RSLC C18 2.2um, 2.1x100mm, Thermo
AC$CHROMATOGRAPHY: FLOW_GRADIENT 99/1 at 0-1 min, 61/39 at 3 min, 0.1/99.9 at 14-16 min, 99/1 at 16.1-20 min
AC$CHROMATOGRAPHY: FLOW_RATE 200 uL/min at 0-3 min, 400 uL/min at 14 min, 480 uL/min at 16-19 min, 200 uL/min at 19.1-20 min
AC$CHROMATOGRAPHY: RETENTION_TIME 10.5 min
AC$CHROMATOGRAPHY: SOLVENT A 90:10 water:methanol with 0.01% formic acid and 5mM ammonium formate
AC$CHROMATOGRAPHY: SOLVENT B methanol with 0.01% formic acid and 5mM ammonium formate
MS$FOCUSED_ION: BASE_PEAK 150.1116
MS$FOCUSED_ION: PRECURSOR_M/Z 311.0393
MS$FOCUSED_ION: PRECURSOR_TYPE [M+H]+
MS$DATA_PROCESSING: RECALIBRATE identity on assigned fragments and MS1
MS$DATA_PROCESSING: REANALYZE Peaks with additional N2/O included
MS$DATA_PROCESSING: WHOLE RMassBank 2.0.3
PK$SPLASH: splash10-0006-0900000000-4bf354a6174bfbe77b0f
PK$ANNOTATION: m/z tentative_formula formula_count mass error(ppm)
  140.0307 C7H4F2N+ 2 140.0306 0.57
  141.0143 C7H3F2O+ 4 141.0146 -2.58
  158.04 C10H5FN+ 5 158.0401 -0.51
PK$NUM_PEAK: 3
PK$PEAK: m/z int. rel.int.
  140.0307 360 73
  141.0143 4900 999
  158.04 2252 459
//
