ACCESSION: MSBNK-Athens_Univ-AU271602
RECORD_TITLE: 4-Hydroxytamoxifen; LC-ESI-QTOF; MS2; CE: 20 eV; R=35000; [M+H]+
DATE: 2019.05.30
AUTHORS: Nikiforos Alygizakis, Katerina Galani, Nikolaos Thomaidis, University of Athens
LICENSE: CC BY
COPYRIGHT: Copyright (C) 2019 Department of Chemistry, University of Athens
COMMENT: CONFIDENCE standard compound
COMMENT: INTERNAL_ID 2716
CH$NAME: 4-Hydroxytamoxifen
CH$NAME: (Z)-4-(1-[4-(Dimethylaminoethoxy)phenyl]-2-phenyl-1-butenyl)phenol
CH$NAME: 4-[1-[4-[2-(dimethylamino)ethoxy]phenyl]-2-phenylbut-1-enyl]phenol
CH$COMPOUND_CLASS: N/A; Environmental Standard
CH$FORMULA: C26H29NO2
CH$EXACT_MASS: 387.2198292
CH$SMILES: CCC(=C(C1=CC=C(O)C=C1)C1=CC=C(OCCN(C)C)C=C1)C1=CC=CC=C1
CH$IUPAC: InChI=1S/C26H29NO2/c1-4-25(20-8-6-5-7-9-20)26(21-10-14-23(28)15-11-21)22-12-16-24(17-13-22)29-19-18-27(2)3/h5-17,28H,4,18-19H2,1-3H3
CH$LINK: CAS 68392-35-8
CH$LINK: PUBCHEM CID:63062
CH$LINK: INCHIKEY TXUZVZSFRXZGTL-UHFFFAOYSA-N
CH$LINK: CHEMSPIDER 56752
CH$LINK: COMPTOX DTXSID3037094
AC$INSTRUMENT: Bruker maXis Impact
AC$INSTRUMENT_TYPE: LC-ESI-QTOF
AC$MASS_SPECTROMETRY: MS_TYPE MS2
AC$MASS_SPECTROMETRY: ION_MODE POSITIVE
AC$MASS_SPECTROMETRY: IONIZATION ESI
AC$MASS_SPECTROMETRY: FRAGMENTATION_MODE CID
AC$MASS_SPECTROMETRY: COLLISION_ENERGY 20 eV
AC$MASS_SPECTROMETRY: RESOLUTION 35000
AC$CHROMATOGRAPHY: COLUMN_NAME Acclaim RSLC C18 2.2um, 2.1x100mm, Thermo
AC$CHROMATOGRAPHY: FLOW_GRADIENT 99/1 at 0-1 min, 61/39 at 3 min, 0.1/99.9 at 14-16 min, 99/1 at 16.1-20 min
AC$CHROMATOGRAPHY: FLOW_RATE 200 uL/min at 0-3 min, 400 uL/min at 14 min, 480 uL/min at 16-19 min, 200 uL/min at 19.1-20 min
AC$CHROMATOGRAPHY: RETENTION_TIME 9.080 min
AC$CHROMATOGRAPHY: SOLVENT A 90:10 water:methanol with 0.01% formic acid and 5mM ammonium formate
AC$CHROMATOGRAPHY: SOLVENT B methanol with 0.01% formic acid and 5mM ammonium formate
MS$FOCUSED_ION: BASE_PEAK 388.2272
MS$FOCUSED_ION: PRECURSOR_M/Z 388.2271
MS$FOCUSED_ION: PRECURSOR_TYPE [M+H]+
MS$DATA_PROCESSING: RECALIBRATE identity on assigned fragments and MS1
MS$DATA_PROCESSING: WHOLE RMassBank 2.10.1
PK$SPLASH: splash10-000i-0009000000-92102185c4df6bbff2d4
PK$ANNOTATION: m/z tentative_formula formula_count mass error(ppm)
  166.1216 C10H16NO+ 1 166.1226 -6.35
  223.1108 C16H15O+ 1 223.1117 -4.29
  343.1691 C24H23O2+ 1 343.1693 -0.55
  388.2281 C26H30NO2+ 1 388.2271 2.68
  389.2306 C25[13]CH30NO2+ 1 389.231 -0.95
  390.2334 C24[13]C2H30NO2+ 1 390.2344 -2.5
PK$NUM_PEAK: 6
PK$PEAK: m/z int. rel.int.
  166.1216 21988 8
  223.1108 38172 15
  343.1691 15072 6
  388.2281 2462652 999
  389.2306 968112 392
  390.2334 82324 33
//
