ACCESSION: MSBNK-Athens_Univ-AU273403
RECORD_TITLE: Azelastine; LC-ESI-QTOF; MS2; CE: 30 eV; R=35000; [M+H]+
DATE: 2019.05.30
AUTHORS: Nikiforos Alygizakis, Katerina Galani, Nikolaos Thomaidis, University of Athens
LICENSE: CC BY
COPYRIGHT: Copyright (C) 2019 Department of Chemistry, University of Athens
COMMENT: CONFIDENCE standard compound
COMMENT: INTERNAL_ID 2734
CH$NAME: Azelastine
CH$NAME: 4-[(4-chlorophenyl)methyl]-2-(1-methylazepan-4-yl)phthalazin-1-one
CH$COMPOUND_CLASS: N/A; Environmental Standard
CH$FORMULA: C22H24ClN3O
CH$EXACT_MASS: 381.1607901
CH$SMILES: CN1CCCC(CC1)N1N=C(CC2=CC=C(Cl)C=C2)C2=CC=CC=C2C1=O
CH$IUPAC: InChI=1S/C22H24ClN3O/c1-25-13-4-5-18(12-14-25)26-22(27)20-7-3-2-6-19(20)21(24-26)15-16-8-10-17(23)11-9-16/h2-3,6-11,18H,4-5,12-15H2,1H3
CH$LINK: CAS 58581-89-8
CH$LINK: CHEBI CHEBI:2950
CH$LINK: KEGG C07768
CH$LINK: PUBCHEM CID:2267
CH$LINK: INCHIKEY MBUVEWMHONZEQD-UHFFFAOYSA-N
CH$LINK: CHEMSPIDER 2180
CH$LINK: COMPTOX DTXSID6022638
AC$INSTRUMENT: Bruker maXis Impact
AC$INSTRUMENT_TYPE: LC-ESI-QTOF
AC$MASS_SPECTROMETRY: MS_TYPE MS2
AC$MASS_SPECTROMETRY: ION_MODE POSITIVE
AC$MASS_SPECTROMETRY: IONIZATION ESI
AC$MASS_SPECTROMETRY: FRAGMENTATION_MODE CID
AC$MASS_SPECTROMETRY: COLLISION_ENERGY 30 eV
AC$MASS_SPECTROMETRY: RESOLUTION 35000
AC$CHROMATOGRAPHY: COLUMN_NAME Acclaim RSLC C18 2.2um, 2.1x100mm, Thermo
AC$CHROMATOGRAPHY: FLOW_GRADIENT 99/1 at 0-1 min, 61/39 at 3 min, 0.1/99.9 at 14-16 min, 99/1 at 16.1-20 min
AC$CHROMATOGRAPHY: FLOW_RATE 200 uL/min at 0-3 min, 400 uL/min at 14 min, 480 uL/min at 16-19 min, 200 uL/min at 19.1-20 min
AC$CHROMATOGRAPHY: RETENTION_TIME 7.482 min
AC$CHROMATOGRAPHY: SOLVENT A 90:10 water:methanol with 0.01% formic acid and 5mM ammonium formate
AC$CHROMATOGRAPHY: SOLVENT B methanol with 0.01% formic acid and 5mM ammonium formate
MS$FOCUSED_ION: BASE_PEAK 382.1681
MS$FOCUSED_ION: PRECURSOR_M/Z 382.1681
MS$FOCUSED_ION: PRECURSOR_TYPE [M+H]+
MS$DATA_PROCESSING: RECALIBRATE identity on assigned fragments and MS1
MS$DATA_PROCESSING: WHOLE RMassBank 2.10.1
PK$SPLASH: splash10-001i-0129000000-cce8dbd5ebb46c57259d
PK$ANNOTATION: m/z tentative_formula formula_count mass error(ppm)
  112.1117 C7H14N+ 1 112.1121 -3.59
  113.1151 C6[13]CH14N+ 1 113.116 -7.63
  152.0216 C9H2N3+ 1 152.0243 -17.66
  159.0538 C9H7N2O+ 3 159.0553 -9.4
  266.0905 C18H15Cl+ 3 266.0857 17.94
  267.0942 C17[13]CH15Cl+ 1 267.0896 17.26
  271.0626 C15H12ClN2O+ 1 271.0633 -2.48
  272.0661 C14[13]CH12ClN2O+ 1 272.0672 -3.86
  273.0598 C15H12[37]ClN2O+ 1 273.0609 -3.81
  274.0616 C21H8N+ 1 274.0651 -13.04
  283.0616 C16H12ClN2O+ 1 283.0633 -6
  309.0791 C18H14ClN2O+ 1 309.0789 0.44
  310.0823 C17[13]CH14ClN2O+ 1 310.0828 -1.73
  311.0766 C18H14[37]ClN2O+ 1 311.0765 0.41
  351.1255 C21H20ClN2O+ 1 351.1259 -0.96
  352.1282 C20[13]CH20ClN2O+ 1 352.1298 -4.47
  353.1237 C21H20[37]ClN2O+ 1 353.1235 0.59
  382.1683 C22H25ClN3O+ 1 382.1681 0.54
  383.171 C21[13]CH25ClN3O+ 1 383.172 -2.53
  384.1659 C22H25[37]ClN3O+ 1 384.1657 0.6
PK$NUM_PEAK: 20
PK$PEAK: m/z int. rel.int.
  112.1117 86056 332
  113.1151 8876 34
  152.0216 2352 9
  159.0538 4496 17
  266.0905 18288 70
  267.0942 2140 8
  271.0626 61920 239
  272.0661 10908 42
  273.0598 19964 77
  274.0616 2180 8
  283.0616 3432 13
  309.0791 7204 27
  310.0823 1872 7
  311.0766 2076 8
  351.1255 41552 160
  352.1282 10060 38
  353.1237 11668 45
  382.1683 258532 999
  383.171 57444 221
  384.1659 74316 287
//
