ACCESSION: MSBNK-Athens_Univ-AU231160
RECORD_TITLE: Dimethyl-5-sulfoisophthalate; LC-ESI-QTOF; MS2; CE: 40 eV; R=35000; [M-H]-
DATE: 2019.03.28
AUTHORS: Nikiforos Alygizakis, Katerina Galani, Nikolaos Thomaidis, University of Athens
LICENSE: CC BY
COPYRIGHT: Copyright (C) 2019 Department of Chemistry, University of Athens
COMMENT: CONFIDENCE standard compound
COMMENT: INTERNAL_ID 2311
CH$NAME: Dimethyl-5-sulfoisophthalate
CH$NAME: 1,3-Benzenedicarboxylic acid, 5-sulfo-, 1,3-dimethyl ester
CH$NAME: 3,5-bis(methoxycarbonyl)benzenesulfonic acid
CH$COMPOUND_CLASS: N/A; Environmental Standard
CH$FORMULA: C10H10O7S
CH$EXACT_MASS: 274.0147237
CH$SMILES: COC(=O)C1=CC(=CC(=C1)C(=O)OC)S(O)(=O)=O
CH$IUPAC: InChI=1S/C10H10O7S/c1-16-9(11)6-3-7(10(12)17-2)5-8(4-6)18(13,14)15/h3-5H,1-2H3,(H,13,14,15)
CH$LINK: CAS 138-25-0
CH$LINK: PUBCHEM CID:67310
CH$LINK: INCHIKEY HTXMGVTWXZBZNC-UHFFFAOYSA-N
CH$LINK: CHEMSPIDER 60642
CH$LINK: COMPTOX DTXSID9027071
AC$INSTRUMENT: Bruker maXis Impact
AC$INSTRUMENT_TYPE: LC-ESI-QTOF
AC$MASS_SPECTROMETRY: MS_TYPE MS2
AC$MASS_SPECTROMETRY: ION_MODE NEGATIVE
AC$MASS_SPECTROMETRY: IONIZATION ESI
AC$MASS_SPECTROMETRY: FRAGMENTATION_MODE CID
AC$MASS_SPECTROMETRY: COLLISION_ENERGY 40 eV
AC$MASS_SPECTROMETRY: RESOLUTION 35000
AC$CHROMATOGRAPHY: COLUMN_NAME Acclaim RSLC C18 2.2um, 2.1x100mm, Thermo
AC$CHROMATOGRAPHY: FLOW_GRADIENT 99/1 at 0-1 min, 61/39 at 3 min, 0.1/99.9 at 14-16 min, 99/1 at 16.1-20 min
AC$CHROMATOGRAPHY: FLOW_RATE 200 uL/min at 0-3 min, 400 uL/min at 14 min, 480 uL/min at 16-19 min, 200 uL/min at 19.1-20 min
AC$CHROMATOGRAPHY: RETENTION_TIME 4.546 min
AC$CHROMATOGRAPHY: SOLVENT A 90:10 water:methanol with 5mM ammonium acetate
AC$CHROMATOGRAPHY: SOLVENT B methanol with 5mM ammonium acetate
MS$FOCUSED_ION: BASE_PEAK 273.007
MS$FOCUSED_ION: PRECURSOR_M/Z 273.0074
MS$FOCUSED_ION: PRECURSOR_TYPE [M-H]-
MS$DATA_PROCESSING: RECALIBRATE identity on assigned fragments and MS1
MS$DATA_PROCESSING: WHOLE RMassBank 2.10.0
PK$SPLASH: splash10-0f79-0940000000-07177afe599f8845cf99
PK$ANNOTATION: m/z tentative_formula formula_count mass error(ppm)
  135.009 C7H3O3- 2 135.0088 1.74
  150.0323 C8H6O3- 1 150.0322 0.29
  209.0476 C10H9O5- 1 209.0455 9.61
  213.9951 C8H6O5S- 1 213.9941 4.54
  245.9895 C8H6O7S- 1 245.984 22.57
PK$NUM_PEAK: 5
PK$PEAK: m/z int. rel.int.
  135.009 1572 999
  150.0323 992 630
  209.0476 348 221
  213.9951 588 373
  245.9895 404 256
//
