ACCESSION: MSBNK-Athens_Univ-AU212951
RECORD_TITLE: Cilastatin; LC-ESI-QTOF; MS2; CE: 10 eV; R=35000; [M-H]-
DATE: 2016.02.25
AUTHORS: Nikiforos Alygizakis, Reza Aalizadeh, Nikolaos Thomaidis, University of Athens
LICENSE: CC BY
COPYRIGHT: Copyright (C) 2016 Department of Chemistry, University of Athens
COMMENT: CONFIDENCE standard compound
COMMENT: INTERNAL_ID 2129
CH$NAME: Cilastatin
CH$NAME: (Z)-7-[(2R)-2-amino-2-carboxyethyl]sulfanyl-2-[[(1S)-2,2-dimethylcyclopropanecarbonyl]amino]hept-2-enoic acid
CH$COMPOUND_CLASS: N/A; Environmental Standard
CH$FORMULA: C16H26N2O5S
CH$EXACT_MASS: 358.1562429
CH$SMILES: CC1(C[C@@H]1/C(=N/C(=C\CCCCSC[C@@H](C(=O)O)N)/C(=O)O)/O)C
CH$IUPAC: InChI=1S/C16H26N2O5S/c1-16(2)8-10(16)13(19)18-12(15(22)23)6-4-3-5-7-24-9-11(17)14(20)21/h6,10-11H,3-5,7-9,17H2,1-2H3,(H,18,19)(H,20,21)(H,22,23)/b12-6-/t10-,11+/m1/s1
CH$LINK: CAS 82009-34-5
CH$LINK: CHEBI CHEBI:3697
CH$LINK: KEGG C01675
CH$LINK: PUBCHEM CID:6435415
CH$LINK: INCHIKEY DHSUYTOATWAVLW-WFVMDLQDSA-N
CH$LINK: CHEMSPIDER 4940183
CH$LINK: COMPTOX DTXSID8048238
AC$INSTRUMENT: Bruker maXis Impact
AC$INSTRUMENT_TYPE: LC-ESI-QTOF
AC$MASS_SPECTROMETRY: MS_TYPE MS2
AC$MASS_SPECTROMETRY: ION_MODE NEGATIVE
AC$MASS_SPECTROMETRY: IONIZATION ESI
AC$MASS_SPECTROMETRY: FRAGMENTATION_MODE CID
AC$MASS_SPECTROMETRY: COLLISION_ENERGY 10 eV
AC$MASS_SPECTROMETRY: RESOLUTION 35000
AC$CHROMATOGRAPHY: COLUMN_NAME Acclaim RSLC C18 2.2um, 2.1x100mm, Thermo
AC$CHROMATOGRAPHY: FLOW_GRADIENT 99/1 at 0-1 min, 61/39 at 3 min, 0.1/99.9 at 14-16 min, 99/1 at 16.1-20 min
AC$CHROMATOGRAPHY: FLOW_RATE 200 uL/min at 0-3 min, 400 uL/min at 14 min, 480 uL/min at 16-19 min, 200 uL/min at 19.1-20 min
AC$CHROMATOGRAPHY: RETENTION_TIME 4.153 min
AC$CHROMATOGRAPHY: SOLVENT A 90:10 water:methanol with 5mM ammonium acetate
AC$CHROMATOGRAPHY: SOLVENT B methanol with 5mM ammonium acetate
MS$FOCUSED_ION: BASE_PEAK 357.1437
MS$FOCUSED_ION: PRECURSOR_M/Z 357.149
MS$FOCUSED_ION: PRECURSOR_TYPE [M-H]-
MS$DATA_PROCESSING: RECALIBRATE identity on assigned fragments and MS1
MS$DATA_PROCESSING: WHOLE RMassBank 1.99.10
PK$SPLASH: splash10-0a4i-0009000000-ef2198c6225f95e6b765
PK$ANNOTATION: m/z tentative_formula formula_count mass error(ppm)
  357.1449 C16H25N2O5S- 1 357.149 -11.44
  358.1458 C15[13]CH25N2O5S- 1 358.1518 -16.76
PK$NUM_PEAK: 2
PK$PEAK: m/z int. rel.int.
  357.1449 1324 999
  358.1458 312 235
//
