ACCESSION: MSBNK-Athens_Univ-AU287906
RECORD_TITLE: N-Cyclohexyl-2-benzothiazol-amine; LC-ESI-QTOF; MS2; CE: Ramp 20-30 eV; R=35000; [M+H]+
DATE: 2019.05.31
AUTHORS: Nikiforos Alygizakis, Katerina Galani, Nikolaos Thomaidis, University of Athens
LICENSE: CC BY
COPYRIGHT: Copyright (C) 2019 Department of Chemistry, University of Athens
COMMENT: CONFIDENCE standard compound
COMMENT: INTERNAL_ID 2879
CH$NAME: N-Cyclohexyl-2-benzothiazol-amine
CH$NAME: N-cyclohexyl-1,3-benzothiazol-2-amine
CH$COMPOUND_CLASS: N/A; Environmental Standard
CH$FORMULA: C13H16N2S
CH$EXACT_MASS: 232.1034195
CH$SMILES: C1CCC(CC1)NC1=NC2=CC=CC=C2S1
CH$IUPAC: InChI=1S/C13H16N2S/c1-2-6-10(7-3-1)14-13-15-11-8-4-5-9-12(11)16-13/h4-5,8-10H,1-3,6-7H2,(H,14,15)
CH$LINK: CAS 28291-75-0
CH$LINK: PUBCHEM CID:591790
CH$LINK: INCHIKEY UPWPIFMHSFSVLE-UHFFFAOYSA-N
CH$LINK: CHEMSPIDER 514454
CH$LINK: COMPTOX DTXSID50891506
AC$INSTRUMENT: Bruker maXis Impact
AC$INSTRUMENT_TYPE: LC-ESI-QTOF
AC$MASS_SPECTROMETRY: MS_TYPE MS2
AC$MASS_SPECTROMETRY: ION_MODE POSITIVE
AC$MASS_SPECTROMETRY: IONIZATION ESI
AC$MASS_SPECTROMETRY: FRAGMENTATION_MODE CID
AC$MASS_SPECTROMETRY: COLLISION_ENERGY Ramp 20-30 eV
AC$MASS_SPECTROMETRY: RESOLUTION 35000
AC$CHROMATOGRAPHY: COLUMN_NAME Acclaim RSLC C18 2.2um, 2.1x100mm, Thermo
AC$CHROMATOGRAPHY: FLOW_GRADIENT 99/1 at 0-1 min, 61/39 at 3 min, 0.1/99.9 at 14-16 min, 99/1 at 16.1-20 min
AC$CHROMATOGRAPHY: FLOW_RATE 200 uL/min at 0-3 min, 400 uL/min at 14 min, 480 uL/min at 16-19 min, 200 uL/min at 19.1-20 min
AC$CHROMATOGRAPHY: RETENTION_TIME 10.854 min
AC$CHROMATOGRAPHY: SOLVENT A 90:10 water:methanol with 0.01% formic acid and 5mM ammonium formate
AC$CHROMATOGRAPHY: SOLVENT B methanol with 0.01% formic acid and 5mM ammonium formate
MS$FOCUSED_ION: BASE_PEAK 233.1107
MS$FOCUSED_ION: PRECURSOR_M/Z 233.1107
MS$FOCUSED_ION: PRECURSOR_TYPE [M+H]+
MS$DATA_PROCESSING: RECALIBRATE identity on assigned fragments and MS1
MS$DATA_PROCESSING: WHOLE RMassBank 2.10.1
PK$SPLASH: splash10-0ue9-1940000000-5aa2a57280cc6583e17f
PK$ANNOTATION: m/z tentative_formula formula_count mass error(ppm)
  55.0537 C4H7+ 1 55.0542 -10.4
  83.0851 C6H11+ 1 83.0855 -5.05
  84.0883 C5[13]CH11+ 1 84.0894 -13.97
  92.0492 C6H6N+ 1 92.0495 -2.7
  109.0108 C6H5S+ 1 109.0106 1.55
  124.021 C6H6NS+ 2 124.0215 -4.42
  151.0326 C7H7N2S+ 2 151.0324 0.87
  152.0345 C6[13]CH7N2S+ 1 152.0363 -11.95
  153.0276 C7H7N2[34]S+ 1 153.0288 -7.64
  233.1108 C13H17N2S+ 1 233.1107 0.61
  234.1135 C12[13]CH17N2S+ 1 234.1146 -4.59
  235.1075 C13H17N2[34]S+ 1 235.107 1.9
PK$NUM_PEAK: 12
PK$PEAK: m/z int. rel.int.
  55.0537 112828 74
  83.0851 218472 144
  84.0883 13124 8
  92.0492 7892 5
  109.0108 9012 5
  124.021 41152 27
  151.0326 1515152 999
  152.0345 150212 99
  153.0276 73836 48
  233.1108 785276 517
  234.1135 134904 88
  235.1075 38072 25
//
