ACCESSION: MSBNK-Athens_Univ-AU287002
RECORD_TITLE: 2-Isopropyl-6-methyl-pyrimidin-4-ol; LC-ESI-QTOF; MS2; CE: 20 eV; R=35000; [M+H]+
DATE: 2019.05.31
AUTHORS: Nikiforos Alygizakis, Katerina Galani, Nikolaos Thomaidis, University of Athens
LICENSE: CC BY
COPYRIGHT: Copyright (C) 2019 Department of Chemistry, University of Athens
COMMENT: CONFIDENCE standard compound
COMMENT: INTERNAL_ID 2870
CH$NAME: 2-Isopropyl-6-methyl-pyrimidin-4-ol
CH$NAME: CID 17777
CH$NAME: 6-methyl-2-propan-2-yl-1H-pyrimidin-4-one
CH$COMPOUND_CLASS: N/A; Environmental Standard
CH$FORMULA: C8H12N2O
CH$EXACT_MASS: 152.0949630
CH$SMILES: CC(C)C1=NC(C)=CC(=O)N1
CH$IUPAC: InChI=1S/C8H12N2O/c1-5(2)8-9-6(3)4-7(11)10-8/h4-5H,1-3H3,(H,9,10,11)
CH$LINK: CAS 2814-20-2
CH$LINK: CHEBI CHEBI:38629
CH$LINK: INCHIKEY AJPIUNPJBFBUKK-UHFFFAOYSA-N
CH$LINK: CHEMSPIDER 16799
CH$LINK: COMPTOX DTXSID1027502
CH$LINK: PUBCHEM CID:135444498
AC$INSTRUMENT: Bruker maXis Impact
AC$INSTRUMENT_TYPE: LC-ESI-QTOF
AC$MASS_SPECTROMETRY: MS_TYPE MS2
AC$MASS_SPECTROMETRY: ION_MODE POSITIVE
AC$MASS_SPECTROMETRY: IONIZATION ESI
AC$MASS_SPECTROMETRY: FRAGMENTATION_MODE CID
AC$MASS_SPECTROMETRY: COLLISION_ENERGY 20 eV
AC$MASS_SPECTROMETRY: RESOLUTION 35000
AC$CHROMATOGRAPHY: COLUMN_NAME Acclaim RSLC C18 2.2um, 2.1x100mm, Thermo
AC$CHROMATOGRAPHY: FLOW_GRADIENT 99/1 at 0-1 min, 61/39 at 3 min, 0.1/99.9 at 14-16 min, 99/1 at 16.1-20 min
AC$CHROMATOGRAPHY: FLOW_RATE 200 uL/min at 0-3 min, 400 uL/min at 14 min, 480 uL/min at 16-19 min, 200 uL/min at 19.1-20 min
AC$CHROMATOGRAPHY: RETENTION_TIME 4.483 min
AC$CHROMATOGRAPHY: SOLVENT A 90:10 water:methanol with 0.01% formic acid and 5mM ammonium formate
AC$CHROMATOGRAPHY: SOLVENT B methanol with 0.01% formic acid and 5mM ammonium formate
MS$FOCUSED_ION: BASE_PEAK 153.1018
MS$FOCUSED_ION: PRECURSOR_M/Z 153.1022
MS$FOCUSED_ION: PRECURSOR_TYPE [M+H]+
MS$DATA_PROCESSING: RECALIBRATE identity on assigned fragments and MS1
MS$DATA_PROCESSING: WHOLE RMassBank 2.10.1
PK$SPLASH: splash10-0udi-0900000000-8eabed85d800469d22ea
PK$ANNOTATION: m/z tentative_formula formula_count mass error(ppm)
  135.0905 C8H11N2+ 1 135.0917 -8.43
  136.0741 C8H10NO+ 1 136.0757 -11.51
  137.0703 C7H9N2O+ 1 137.0709 -4.33
  138.0775 C7H10N2O+ 1 138.0788 -8.86
  153.1014 C8H13N2O+ 1 153.1022 -5.39
  154.1045 C7[13]CH13N2O+ 1 154.1061 -10.92
  155.1064 C6[13]C2H13N2O+ 1 155.1095 -19.92
PK$NUM_PEAK: 7
PK$PEAK: m/z int. rel.int.
  135.0905 12796 19
  136.0741 3944 5
  137.0703 18140 27
  138.0775 17876 26
  153.1014 667524 999
  154.1045 51684 77
  155.1064 3340 4
//
