ACCESSION: MSBNK-Athens_Univ-AU266301
RECORD_TITLE: Pindolol; LC-ESI-QTOF; MS2; CE: 10 eV; R=35000; [M+H]+
DATE: 2019.05.30
AUTHORS: Nikiforos Alygizakis, Katerina Galani, Nikolaos Thomaidis, University of Athens
LICENSE: CC BY
COPYRIGHT: Copyright (C) 2019 Department of Chemistry, University of Athens
COMMENT: CONFIDENCE standard compound
COMMENT: INTERNAL_ID 2663
CH$NAME: Pindolol
CH$NAME: 1-(1H-indol-4-yloxy)-3-(propan-2-ylamino)propan-2-ol
CH$COMPOUND_CLASS: N/A; Environmental Standard
CH$FORMULA: C14H20N2O2
CH$EXACT_MASS: 248.1524779
CH$SMILES: CC(C)NCC(O)COC1=CC=CC2=C1C=CN2
CH$IUPAC: InChI=1S/C14H20N2O2/c1-10(2)16-8-11(17)9-18-14-5-3-4-13-12(14)6-7-15-13/h3-7,10-11,15-17H,8-9H2,1-2H3
CH$LINK: CAS 13523-86-9
CH$LINK: CHEBI CHEBI:8214
CH$LINK: KEGG C07445
CH$LINK: PUBCHEM CID:4828
CH$LINK: INCHIKEY JZQKKSLKJUAGIC-UHFFFAOYSA-N
CH$LINK: CHEMSPIDER 4662
CH$LINK: COMPTOX DTXSID8023476
AC$INSTRUMENT: Bruker maXis Impact
AC$INSTRUMENT_TYPE: LC-ESI-QTOF
AC$MASS_SPECTROMETRY: MS_TYPE MS2
AC$MASS_SPECTROMETRY: ION_MODE POSITIVE
AC$MASS_SPECTROMETRY: IONIZATION ESI
AC$MASS_SPECTROMETRY: FRAGMENTATION_MODE CID
AC$MASS_SPECTROMETRY: COLLISION_ENERGY 10 eV
AC$MASS_SPECTROMETRY: RESOLUTION 35000
AC$CHROMATOGRAPHY: COLUMN_NAME Acclaim RSLC C18 2.2um, 2.1x100mm, Thermo
AC$CHROMATOGRAPHY: FLOW_GRADIENT 99/1 at 0-1 min, 61/39 at 3 min, 0.1/99.9 at 14-16 min, 99/1 at 16.1-20 min
AC$CHROMATOGRAPHY: FLOW_RATE 200 uL/min at 0-3 min, 400 uL/min at 14 min, 480 uL/min at 16-19 min, 200 uL/min at 19.1-20 min
AC$CHROMATOGRAPHY: RETENTION_TIME 3.776 min
AC$CHROMATOGRAPHY: SOLVENT A 90:10 water:methanol with 0.01% formic acid and 5mM ammonium formate
AC$CHROMATOGRAPHY: SOLVENT B methanol with 0.01% formic acid and 5mM ammonium formate
MS$FOCUSED_ION: BASE_PEAK 249.1594
MS$FOCUSED_ION: PRECURSOR_M/Z 249.1598
MS$FOCUSED_ION: PRECURSOR_TYPE [M+H]+
MS$DATA_PROCESSING: RECALIBRATE identity on assigned fragments and MS1
MS$DATA_PROCESSING: WHOLE RMassBank 2.10.1
PK$SPLASH: splash10-0002-0090000000-f87f97ca1fe46a8039bc
PK$ANNOTATION: m/z tentative_formula formula_count mass error(ppm)
  116.1063 C6H14NO+ 1 116.107 -5.6
  146.0589 C9H8NO+ 1 146.06 -8.01
  172.0743 C11H10NO+ 1 172.0757 -8.24
  249.161 C14H21N2O2+ 1 249.1598 5.13
PK$NUM_PEAK: 4
PK$PEAK: m/z int. rel.int.
  116.1063 29632 11
  146.0589 15952 6
  172.0743 42840 17
  249.161 2512684 999
//
