ACCESSION: MSBNK-Athens_Univ-AU264204
RECORD_TITLE: Metazachlor OA; LC-ESI-QTOF; MS2; CE: 40 eV; R=35000; [M+H]+
DATE: 2019.05.30
AUTHORS: Nikiforos Alygizakis, Katerina Galani, Nikolaos Thomaidis, University of Athens
LICENSE: CC BY
COPYRIGHT: Copyright (C) 2019 Department of Chemistry, University of Athens
COMMENT: CONFIDENCE standard compound
COMMENT: INTERNAL_ID 2642
CH$NAME: Metazachlor OA
CH$NAME: [(2,6-Dimethylphenyl)(1H-pyrazol-1-ylmethyl)amino](oxo)acetic acid
CH$NAME: 2-[2,6-dimethyl-N-(pyrazol-1-ylmethyl)anilino]-2-oxoacetic acid
CH$COMPOUND_CLASS: N/A; Environmental Standard
CH$FORMULA: C14H15N3O3
CH$EXACT_MASS: 273.1113413
CH$SMILES: CC1=CC=CC(C)=C1N(CN1C=CC=N1)C(=O)C(O)=O
CH$IUPAC: InChI=1S/C14H15N3O3/c1-10-5-3-6-11(2)12(10)17(13(18)14(19)20)9-16-8-4-7-15-16/h3-8H,9H2,1-2H3,(H,19,20)
CH$LINK: CHEBI CHEBI:83483
CH$LINK: PUBCHEM CID:86290103
CH$LINK: INCHIKEY PHMHHVKFXZNTKU-UHFFFAOYSA-N
CH$LINK: CHEMSPIDER 24721983
CH$LINK: COMPTOX DTXSID00891455
AC$INSTRUMENT: Bruker maXis Impact
AC$INSTRUMENT_TYPE: LC-ESI-QTOF
AC$MASS_SPECTROMETRY: MS_TYPE MS2
AC$MASS_SPECTROMETRY: ION_MODE POSITIVE
AC$MASS_SPECTROMETRY: IONIZATION ESI
AC$MASS_SPECTROMETRY: FRAGMENTATION_MODE CID
AC$MASS_SPECTROMETRY: COLLISION_ENERGY 40 eV
AC$MASS_SPECTROMETRY: RESOLUTION 35000
AC$CHROMATOGRAPHY: COLUMN_NAME Acclaim RSLC C18 2.2um, 2.1x100mm, Thermo
AC$CHROMATOGRAPHY: FLOW_GRADIENT 99/1 at 0-1 min, 61/39 at 3 min, 0.1/99.9 at 14-16 min, 99/1 at 16.1-20 min
AC$CHROMATOGRAPHY: FLOW_RATE 200 uL/min at 0-3 min, 400 uL/min at 14 min, 480 uL/min at 16-19 min, 200 uL/min at 19.1-20 min
AC$CHROMATOGRAPHY: RETENTION_TIME 5.145 min
AC$CHROMATOGRAPHY: SOLVENT A 90:10 water:methanol with 0.01% formic acid and 5mM ammonium formate
AC$CHROMATOGRAPHY: SOLVENT B methanol with 0.01% formic acid and 5mM ammonium formate
MS$FOCUSED_ION: BASE_PEAK 274.1175
MS$FOCUSED_ION: PRECURSOR_M/Z 274.1186
MS$FOCUSED_ION: PRECURSOR_TYPE [M+H]+
MS$DATA_PROCESSING: RECALIBRATE identity on assigned fragments and MS1
MS$DATA_PROCESSING: WHOLE RMassBank 2.10.1
PK$SPLASH: splash10-001i-0900000000-34436ed2bebd535d1d09
PK$ANNOTATION: m/z tentative_formula formula_count mass error(ppm)
  117.0559 C5H9O3+ 3 117.0546 11.12
  118.0641 C8H8N+ 2 118.0651 -9.05
  119.0731 C8H9N+ 2 119.073 1.57
  120.074 C3H10N3O2+ 1 120.0768 -22.82
  132.0796 C9H10N+ 3 132.0808 -8.82
  133.0837 C4H11N3O2+ 2 133.0846 -6.79
  134.095 C6H14O3+ 3 134.0937 9.12
  135.0983 C5[13]CH14O3+ 1 135.0976 4.56
PK$NUM_PEAK: 8
PK$PEAK: m/z int. rel.int.
  117.0559 624 41
  118.0641 1060 71
  119.0731 1240 83
  120.074 416 27
  132.0796 1240 83
  133.0837 340 22
  134.095 14892 999
  135.0983 1536 103
//
