ACCESSION: MSBNK-Athens_Univ-AU595352
RECORD_TITLE: Perfluorotridecanoic acid (PFTrDA); LC-ESI-QTOF; MS2; CE: 30 eV; R=35000; [M-H]-
DATE: 2020.04.11
AUTHORS: Georgios Gkotsis, Maria-Christina Nika, Reza Aalizadeh, Nikolaos Thomaidis
LICENSE: CC BY
COPYRIGHT: Copyright (C) 2020 Department of Chemistry, University of Athens
COMMENT: CONFIDENCE standard compound
COMMENT: INTERNAL_ID 5953
CH$NAME: Perfluorotridecanoic acid (PFTrDA)
CH$NAME: Perfluorotridecanoic acid
CH$NAME: 2,2,3,3,4,4,5,5,6,6,7,7,8,8,9,9,10,10,11,11,12,12,13,13,13-pentacosafluorotridecanoic acid
CH$COMPOUND_CLASS: N/A; Environmental Standard
CH$FORMULA: C13HF25O2
CH$EXACT_MASS: 663.9577
CH$SMILES: C(=O)(C(C(C(C(C(C(C(C(C(C(C(C(F)(F)F)(F)F)(F)F)(F)F)(F)F)(F)F)(F)F)(F)F)(F)F)(F)F)(F)F)(F)F)O
CH$IUPAC: InChI=1S/C13HF25O2/c14-2(15,1(39)40)3(16,17)4(18,19)5(20,21)6(22,23)7(24,25)8(26,27)9(28,29)10(30,31)11(32,33)12(34,35)13(36,37)38/h(H,39,40)
CH$LINK: CAS 72629-94-8
CH$LINK: CHEMSPIDER 2285907
CH$LINK: INCHIKEY LVDGGZAZAYHXEY-UHFFFAOYSA-N
CH$LINK: PUBCHEM CID:3018355
AC$INSTRUMENT: Bruker maXis Impact
AC$INSTRUMENT_TYPE: LC-ESI-QTOF
AC$MASS_SPECTROMETRY: MS_TYPE MS2
AC$MASS_SPECTROMETRY: ION_MODE NEGATIVE
AC$MASS_SPECTROMETRY: IONIZATION ESI
AC$MASS_SPECTROMETRY: FRAGMENTATION_MODE CID
AC$MASS_SPECTROMETRY: COLLISION_ENERGY 30 eV
AC$MASS_SPECTROMETRY: RESOLUTION 35000
AC$CHROMATOGRAPHY: COLUMN_NAME Acclaim RSLC C18 2.2um, 2.1x100mm, Thermo
AC$CHROMATOGRAPHY: FLOW_GRADIENT 99/1 at 0-1 min, 61/39 at 3 min, 0.1/99.9 at 14-16 min, 99/1 at 16.1-20 min
AC$CHROMATOGRAPHY: FLOW_RATE 200 uL/min at 0-3 min, 400 uL/min at 14 min, 480 uL/min at 16-19 min, 200 uL/min at 19.1-20 min
AC$CHROMATOGRAPHY: RETENTION_TIME 12.502 min
AC$CHROMATOGRAPHY: SOLVENT A 90:10 water:methanol with 5mM ammonium acetate
AC$CHROMATOGRAPHY: SOLVENT B methanol with 5mM ammonium acetate
MS$FOCUSED_ION: BASE_PEAK 662.9505
MS$FOCUSED_ION: PRECURSOR_M/Z 662.9505
MS$FOCUSED_ION: PRECURSOR_TYPE [M-H]-
MS$DATA_PROCESSING: RECALIBRATE identity on assigned fragments and MS1
MS$DATA_PROCESSING: WHOLE RMassBank 2.8.0
PK$SPLASH: splash10-014i-0984000000-9b18d941d81a37a43fa7
PK$NUM_PEAK: 7
PK$PEAK: m/z int. rel.int.
  168.9895 5088 999
  218.9865 2844 558
  268.9826 2204 432
  318.979 1412 277
  368.9749 896 175
  418.976 416 81
  618.9592 528 103
//
