ACCESSION: MSBNK-Athens_Univ-AU256902
RECORD_TITLE: Cyprodinil; LC-ESI-QTOF; MS2; CE: 20 eV; R=35000; [M+H]+
DATE: 2019.05.29
AUTHORS: Nikiforos Alygizakis, Katerina Galani, Nikolaos Thomaidis, University of Athens
LICENSE: CC BY
COPYRIGHT: Copyright (C) 2019 Department of Chemistry, University of Athens
COMMENT: CONFIDENCE standard compound
COMMENT: INTERNAL_ID 2569
CH$NAME: Cyprodinil
CH$NAME: 4-cyclopropyl-6-methyl-N-phenylpyrimidin-2-amine
CH$COMPOUND_CLASS: N/A; Environmental Standard
CH$FORMULA: C14H15N3
CH$EXACT_MASS: 225.1265975
CH$SMILES: CC1=NC(NC2=CC=CC=C2)=NC(=C1)C1CC1
CH$IUPAC: InChI=1S/C14H15N3/c1-10-9-13(11-7-8-11)17-14(15-10)16-12-5-3-2-4-6-12/h2-6,9,11H,7-8H2,1H3,(H,15,16,17)
CH$LINK: CAS 121552-61-2
CH$LINK: CHEBI CHEBI:4045
CH$LINK: KEGG C10914
CH$LINK: PUBCHEM CID:86367
CH$LINK: INCHIKEY HAORKNGNJCEJBX-UHFFFAOYSA-N
CH$LINK: CHEMSPIDER 77885
CH$LINK: COMPTOX DTXSID1032359
AC$INSTRUMENT: Bruker maXis Impact
AC$INSTRUMENT_TYPE: LC-ESI-QTOF
AC$MASS_SPECTROMETRY: MS_TYPE MS2
AC$MASS_SPECTROMETRY: ION_MODE POSITIVE
AC$MASS_SPECTROMETRY: IONIZATION ESI
AC$MASS_SPECTROMETRY: FRAGMENTATION_MODE CID
AC$MASS_SPECTROMETRY: COLLISION_ENERGY 20 eV
AC$MASS_SPECTROMETRY: RESOLUTION 35000
AC$CHROMATOGRAPHY: COLUMN_NAME Acclaim RSLC C18 2.2um, 2.1x100mm, Thermo
AC$CHROMATOGRAPHY: FLOW_GRADIENT 99/1 at 0-1 min, 61/39 at 3 min, 0.1/99.9 at 14-16 min, 99/1 at 16.1-20 min
AC$CHROMATOGRAPHY: FLOW_RATE 200 uL/min at 0-3 min, 400 uL/min at 14 min, 480 uL/min at 16-19 min, 200 uL/min at 19.1-20 min
AC$CHROMATOGRAPHY: RETENTION_TIME 11.119 min
AC$CHROMATOGRAPHY: SOLVENT A 90:10 water:methanol with 0.01% formic acid and 5mM ammonium formate
AC$CHROMATOGRAPHY: SOLVENT B methanol with 0.01% formic acid and 5mM ammonium formate
MS$FOCUSED_ION: BASE_PEAK 226.1341
MS$FOCUSED_ION: PRECURSOR_M/Z 226.1339
MS$FOCUSED_ION: PRECURSOR_TYPE [M+H]+
MS$DATA_PROCESSING: RECALIBRATE identity on assigned fragments and MS1
MS$DATA_PROCESSING: WHOLE RMassBank 2.10.1
PK$SPLASH: splash10-004i-0090000000-38f7aa9773419074d462
PK$ANNOTATION: m/z tentative_formula formula_count mass error(ppm)
  133.0748 C8H9N2+ 1 133.076 -9.43
  144.0795 C10H10N+ 1 144.0808 -8.57
  184.0856 C11H10N3+ 1 184.0869 -7.31
  185.106 C12H13N2+ 1 185.1073 -6.91
  209.106 C14H13N2+ 1 209.1073 -6.49
  210.1019 C13H12N3+ 1 210.1026 -3.3
  211.1085 C13H13N3+ 1 211.1104 -9.08
  226.1341 C14H16N3+ 1 226.1339 0.82
PK$NUM_PEAK: 8
PK$PEAK: m/z int. rel.int.
  133.0748 26872 10
  144.0795 21220 8
  184.0856 13328 5
  185.106 25296 10
  209.106 27944 11
  210.1019 26160 10
  211.1085 13664 5
  226.1341 2514300 999
//
