ACCESSION: MSBNK-Athens_Univ-AU108701
RECORD_TITLE: Decoquinate; LC-ESI-QTOF; MS2; CE: 10 eV; R=35000; [M+H]+
DATE: 2015.09.22
AUTHORS: Nikiforos Alygizakis, Anna Bletsou, Nikolaos Thomaidis, University of Athens
LICENSE: CC BY-SA
COPYRIGHT: Copyright (C) 2015 Department of Chemistry, University of Athens
COMMENT: CONFIDENCE standard compound
COMMENT: INTERNAL_ID 1087
CH$NAME: Decoquinate
CH$NAME: ethyl 6-decoxy-7-ethoxy-4-oxo-1H-quinoline-3-carboxylate
CH$COMPOUND_CLASS: N/A; Environmental Standard
CH$FORMULA: C24H35NO5
CH$EXACT_MASS: 417.2515232
CH$SMILES: CCCCCCCCCCOc1cc2c(cc1OCC)ncc(c2O)C(=O)OCC
CH$IUPAC: InChI=1S/C24H35NO5/c1-4-7-8-9-10-11-12-13-14-30-21-15-18-20(16-22(21)28-5-2)25-17-19(23(18)26)24(27)29-6-3/h15-17H,4-14H2,1-3H3,(H,25,26)
CH$LINK: CAS 18507-89-6
CH$LINK: KEGG D03667
CH$LINK: PUBCHEM CID:29112
CH$LINK: INCHIKEY JHAYEQICABJSTP-UHFFFAOYSA-N
CH$LINK: CHEMSPIDER 27081
CH$LINK: COMPTOX DTXSID5046851
AC$INSTRUMENT: Bruker maXis Impact
AC$INSTRUMENT_TYPE: LC-ESI-QTOF
AC$MASS_SPECTROMETRY: MS_TYPE MS2
AC$MASS_SPECTROMETRY: ION_MODE POSITIVE
AC$MASS_SPECTROMETRY: IONIZATION ESI
AC$MASS_SPECTROMETRY: FRAGMENTATION_MODE CID
AC$MASS_SPECTROMETRY: COLLISION_ENERGY 10 eV
AC$MASS_SPECTROMETRY: RESOLUTION 35000
AC$CHROMATOGRAPHY: COLUMN_NAME Acclaim RSLC C18 2.2um, 2.1x100mm, Thermo
AC$CHROMATOGRAPHY: FLOW_GRADIENT 99/1 at 0-1 min, 61/39 at 3 min, 0.1/99.9 at 14-16 min, 99/1 at 16.1-20 min
AC$CHROMATOGRAPHY: FLOW_RATE 200 uL/min at 0-3 min, 400 uL/min at 14 min, 480 uL/min at 16-19 min, 200 uL/min at 19.1-20 min
AC$CHROMATOGRAPHY: RETENTION_TIME 13.4 min
AC$CHROMATOGRAPHY: SOLVENT A water with 0.01% formic acid and 5mM ammonium formate
AC$CHROMATOGRAPHY: SOLVENT B 90:10 water:methanol with 0.01% formic acid and 5mM ammonium formate
MS$FOCUSED_ION: BASE_PEAK 418.2579
MS$FOCUSED_ION: PRECURSOR_M/Z 418.2588
MS$FOCUSED_ION: PRECURSOR_TYPE [M+H]+
MS$DATA_PROCESSING: RECALIBRATE identity on assigned fragments and MS1
MS$DATA_PROCESSING: REANALYZE Peaks with additional N2/O included
MS$DATA_PROCESSING: WHOLE RMassBank 2.0.2
PK$SPLASH: splash10-014i-0000900000-e690de8d862bdf40b493
PK$ANNOTATION: m/z tentative_formula formula_count mass error(ppm)
  242.1738 C13H24NO3+ 2 242.1751 -5.19
  390.2314 C22H32NO5+ 2 390.2275 9.95
  418.2593 C24H36NO5+ 1 418.2588 1.25
  419.2634 C23[13]CH36NO5+ 1 419.2627 1.66
  420.2673 C22[13]C2H36NO5+ 1 420.2661 2.96
PK$NUM_PEAK: 5
PK$PEAK: m/z int. rel.int.
  242.1738 492 5
  390.2314 520 5
  418.2593 90120 999
  419.2634 18864 209
  420.2673 2356 26
//
