ACCESSION: MSBNK-Athens_Univ-AU236806
RECORD_TITLE: Butylparaben; LC-ESI-QTOF; MS2; CE: Ramp 17.8-26.7 eV; R=35000; [M+H]+
DATE: 2019.05.30
AUTHORS: Nikiforos Alygizakis, Katerina Galani, Nikolaos Thomaidis, University of Athens
LICENSE: CC BY
COPYRIGHT: Copyright (C) 2019 Department of Chemistry, University of Athens
COMMENT: CONFIDENCE standard compound
COMMENT: INTERNAL_ID 2368
CH$NAME: Butylparaben
CH$NAME: butyl 4-hydroxybenzoate
CH$COMPOUND_CLASS: N/A; Environmental Standard
CH$FORMULA: C11H14O3
CH$EXACT_MASS: 194.0942943
CH$SMILES: CCCCOC(=O)C1=CC=C(O)C=C1
CH$IUPAC: InChI=1S/C11H14O3/c1-2-3-8-14-11(13)9-4-6-10(12)7-5-9/h4-7,12H,2-3,8H2,1H3
CH$LINK: CAS 94-26-8
CH$LINK: CHEBI CHEBI:88542
CH$LINK: KEGG D01420
CH$LINK: PUBCHEM CID:7184
CH$LINK: INCHIKEY QFOHBWFCKVYLES-UHFFFAOYSA-N
CH$LINK: CHEMSPIDER 6916
CH$LINK: COMPTOX DTXSID3020209
AC$INSTRUMENT: Bruker maXis Impact
AC$INSTRUMENT_TYPE: LC-ESI-QTOF
AC$MASS_SPECTROMETRY: MS_TYPE MS2
AC$MASS_SPECTROMETRY: ION_MODE POSITIVE
AC$MASS_SPECTROMETRY: IONIZATION ESI
AC$MASS_SPECTROMETRY: FRAGMENTATION_MODE CID
AC$MASS_SPECTROMETRY: COLLISION_ENERGY Ramp 17.8-26.7 eV
AC$MASS_SPECTROMETRY: RESOLUTION 35000
AC$CHROMATOGRAPHY: COLUMN_NAME Acclaim RSLC C18 2.2um, 2.1x100mm, Thermo
AC$CHROMATOGRAPHY: FLOW_GRADIENT 99/1 at 0-1 min, 61/39 at 3 min, 0.1/99.9 at 14-16 min, 99/1 at 16.1-20 min
AC$CHROMATOGRAPHY: FLOW_RATE 200 uL/min at 0-3 min, 400 uL/min at 14 min, 480 uL/min at 16-19 min, 200 uL/min at 19.1-20 min
AC$CHROMATOGRAPHY: RETENTION_TIME 9.469 min
AC$CHROMATOGRAPHY: SOLVENT A 90:10 water:methanol with 0.01% formic acid and 5mM ammonium formate
AC$CHROMATOGRAPHY: SOLVENT B methanol with 0.01% formic acid and 5mM ammonium formate
MS$FOCUSED_ION: BASE_PEAK 102.1289
MS$FOCUSED_ION: PRECURSOR_M/Z 195.1016
MS$FOCUSED_ION: PRECURSOR_TYPE [M+H]+
MS$DATA_PROCESSING: RECALIBRATE identity on assigned fragments and MS1
MS$DATA_PROCESSING: WHOLE RMassBank 2.10.1
PK$SPLASH: splash10-000i-0900000000-abff68ac6cc4f0c2b49c
PK$ANNOTATION: m/z tentative_formula formula_count mass error(ppm)
  57.0695 C4H9+ 1 57.0699 -7.4
  95.0492 C6H7O+ 1 95.0491 0.23
  121.0278 C7H5O2+ 1 121.0284 -4.97
  139.0378 C7H7O3+ 1 139.039 -8.35
  140.0411 C6[13]CH7O3+ 1 140.0429 -12.98
PK$NUM_PEAK: 5
PK$PEAK: m/z int. rel.int.
  57.0695 1068 70
  95.0492 900 59
  121.0278 5168 342
  139.0378 15060 999
  140.0411 840 55
//
