ACCESSION: MSBNK-Athens_Univ-AU232601
RECORD_TITLE: Boscalid; LC-ESI-QTOF; MS2; CE: 10 eV; R=35000; [M+H]+
DATE: 2019.05.29
AUTHORS: Nikiforos Alygizakis, Katerina Galani, Nikolaos Thomaidis, University of Athens
LICENSE: CC BY
COPYRIGHT: Copyright (C) 2019 Department of Chemistry, University of Athens
COMMENT: CONFIDENCE standard compound
COMMENT: INTERNAL_ID 2326
CH$NAME: Boscalid
CH$NAME: 2-chloro-N-[2-(4-chlorophenyl)phenyl]pyridine-3-carboxamide
CH$COMPOUND_CLASS: N/A; Environmental Standard
CH$FORMULA: C18H12Cl2N2O
CH$EXACT_MASS: 342.0326684
CH$SMILES: ClC1=CC=C(C=C1)C1=CC=CC=C1NC(=O)C1=CC=CN=C1Cl
CH$IUPAC: InChI=1S/C18H12Cl2N2O/c19-13-9-7-12(8-10-13)14-4-1-2-6-16(14)22-18(23)15-5-3-11-21-17(15)20/h1-11H,(H,22,23)
CH$LINK: CAS 54494-12-1
CH$LINK: CHEBI CHEBI:81822
CH$LINK: KEGG C18547
CH$LINK: PUBCHEM CID:213013
CH$LINK: INCHIKEY WYEMLYFITZORAB-UHFFFAOYSA-N
CH$LINK: CHEMSPIDER 184713
CH$LINK: COMPTOX DTXSID6034392
AC$INSTRUMENT: Bruker maXis Impact
AC$INSTRUMENT_TYPE: LC-ESI-QTOF
AC$MASS_SPECTROMETRY: MS_TYPE MS2
AC$MASS_SPECTROMETRY: ION_MODE POSITIVE
AC$MASS_SPECTROMETRY: IONIZATION ESI
AC$MASS_SPECTROMETRY: FRAGMENTATION_MODE CID
AC$MASS_SPECTROMETRY: COLLISION_ENERGY 10 eV
AC$MASS_SPECTROMETRY: RESOLUTION 35000
AC$CHROMATOGRAPHY: COLUMN_NAME Acclaim RSLC C18 2.2um, 2.1x100mm, Thermo
AC$CHROMATOGRAPHY: FLOW_GRADIENT 99/1 at 0-1 min, 61/39 at 3 min, 0.1/99.9 at 14-16 min, 99/1 at 16.1-20 min
AC$CHROMATOGRAPHY: FLOW_RATE 200 uL/min at 0-3 min, 400 uL/min at 14 min, 480 uL/min at 16-19 min, 200 uL/min at 19.1-20 min
AC$CHROMATOGRAPHY: RETENTION_TIME 9.441 min
AC$CHROMATOGRAPHY: SOLVENT A 90:10 water:methanol with 0.01% formic acid and 5mM ammonium formate
AC$CHROMATOGRAPHY: SOLVENT B methanol with 0.01% formic acid and 5mM ammonium formate
MS$FOCUSED_ION: BASE_PEAK 333.1809
MS$FOCUSED_ION: PRECURSOR_M/Z 343.0399
MS$FOCUSED_ION: PRECURSOR_TYPE [M+H]+
MS$DATA_PROCESSING: RECALIBRATE identity on assigned fragments and MS1
MS$DATA_PROCESSING: WHOLE RMassBank 2.10.1
PK$SPLASH: splash10-0006-0009000000-591e6e2226a81639a618
PK$ANNOTATION: m/z tentative_formula formula_count mass error(ppm)
  139.9887 C6H3ClNO+ 2 139.9898 -7.33
  141.9855 C6H3[37]ClNO+ 1 141.9874 -13.27
  250.9983 C14H4ClN2O+ 2 251.0007 -9.58
  307.0627 C18H12ClN2O+ 1 307.0633 -1.8
  308.0663 C17[13]CH12ClN2O+ 1 308.0672 -2.82
  309.0589 C18H12[37]ClN2O+ 1 309.0609 -6.27
  327.0073 C17H9Cl2N2O+ 1 327.0086 -4.11
  329.0041 C17H9Cl[37]ClN2O+ 1 329.0062 -6.42
  343.04 C18H13Cl2N2O+ 1 343.0399 0.1
  344.0432 C17[13]CH13Cl2N2O+ 1 344.0438 -1.86
  345.0367 C18H13Cl[37]ClN2O+ 1 345.0375 -2.38
PK$NUM_PEAK: 11
PK$PEAK: m/z int. rel.int.
  139.9887 15264 35
  141.9855 2696 6
  250.9983 4156 9
  307.0627 18380 42
  308.0663 3108 7
  309.0589 4388 10
  327.0073 12304 28
  329.0041 6824 15
  343.04 429684 999
  344.0432 66920 155
  345.0367 217680 506
//
