ACCESSION: MSBNK-Athens_Univ-AU371404
RECORD_TITLE: Trifloxystrobin; LC-ESI-QTOF; MS2; CE: 40 eV; R=35000; [M+H]+
DATE: 2015.12.09
AUTHORS: Nikiforos Alygizakis, Nikolaos Thomaidis, University of Athens
LICENSE: CC BY-SA
COPYRIGHT: Copyright (C) 2015 Department of Chemistry, University of Athens
COMMENT: CONFIDENCE standard compound
COMMENT: INTERNAL_ID 3714
CH$NAME: Trifloxystrobin
CH$NAME: methyl (2Z)-2-methoxyimino-2-[2-[[(E)-1-[3-(trifluoromethyl)phenyl]ethylideneamino]oxymethyl]phenyl]acetate
CH$COMPOUND_CLASS: N/A; Environmental Standard
CH$FORMULA: C20H19F3N2O4
CH$EXACT_MASS: 408.1296917
CH$SMILES: CO\N=C(/C(=O)OC)C1=C(CO\N=C(/C)C2=CC(=CC=C2)C(F)(F)F)C=CC=C1
CH$IUPAC: InChI=1S/C20H19F3N2O4/c1-13(14-8-6-9-16(11-14)20(21,22)23)24-29-12-15-7-4-5-10-17(15)18(25-28-3)19(26)27-2/h4-11H,12H2,1-3H3/b24-13+,25-18-
CH$LINK: CAS 141517-21-7
CH$LINK: PUBCHEM CID:9578570
CH$LINK: INCHIKEY ONCZDRURRATYFI-QTCHDTBASA-N
CH$LINK: CHEMSPIDER 7852932
AC$INSTRUMENT: Bruker maXis Impact
AC$INSTRUMENT_TYPE: LC-ESI-QTOF
AC$MASS_SPECTROMETRY: MS_TYPE MS2
AC$MASS_SPECTROMETRY: ION_MODE POSITIVE
AC$MASS_SPECTROMETRY: IONIZATION ESI
AC$MASS_SPECTROMETRY: FRAGMENTATION_MODE CID
AC$MASS_SPECTROMETRY: COLLISION_ENERGY 40 eV
AC$MASS_SPECTROMETRY: RESOLUTION 35000
AC$CHROMATOGRAPHY: COLUMN_NAME Acclaim RSLC C18 2.2um, 2.1x100mm, Thermo
AC$CHROMATOGRAPHY: FLOW_GRADIENT 99/1 at 0-1 min, 61/39 at 3 min, 0.1/99.9 at 14-16 min, 99/1 at 16.1-20 min
AC$CHROMATOGRAPHY: FLOW_RATE 200 uL/min at 0-3 min, 400 uL/min at 14 min, 480 uL/min at 16-19 min, 200 uL/min at 19.1-20 min
AC$CHROMATOGRAPHY: RETENTION_TIME 11.6 min
AC$CHROMATOGRAPHY: SOLVENT A 90:10 water:methanol with 0.01% formic acid and 5mM ammonium formate
AC$CHROMATOGRAPHY: SOLVENT B methanol with 0.01% formic acid and 5mM ammonium formate
MS$FOCUSED_ION: BASE_PEAK 409.1376
MS$FOCUSED_ION: PRECURSOR_M/Z 409.137
MS$FOCUSED_ION: PRECURSOR_TYPE [M+H]+
MS$DATA_PROCESSING: RECALIBRATE identity on assigned fragments and MS1
MS$DATA_PROCESSING: REANALYZE Peaks with additional N2/O included
MS$DATA_PROCESSING: WHOLE RMassBank 2.0.3
PK$SPLASH: splash10-000i-0900000000-f6bbbf2e55df318024fe
PK$ANNOTATION: m/z tentative_formula formula_count mass error(ppm)
  117.0561 C2H10FO4+ 4 117.0558 2.52
  125.0194 C7H3F2+ 2 125.0197 -2.68
  130.0643 C3H11FO4+ 4 130.0636 5.34
  132.0433 C8H6NO+ 3 132.0444 -7.94
  132.0794 C3H13FO4+ 4 132.0792 0.96
  145.0253 C7H4F3+ 4 145.026 -4.77
  146.0283 C6[13]CH4F3+ 1 146.0299 -10.49
  147.0655 C6H11O4+ 3 147.0652 2.14
  148.0747 C9H10NO+ 4 148.0757 -6.61
  161.0461 C9H7NO2+ 4 161.0471 -6.58
  162.0906 C10H12NO+ 4 162.0913 -4.77
  163.0357 C10H5F2+ 4 163.0354 2.16
  173.0313 C7H4F3N2+ 4 173.0321 -4.64
  174.0344 C6[13]CH4F3N2+ 1 174.036 -9.36
  186.052 C9H7F3N+ 5 186.0525 -2.63
PK$NUM_PEAK: 15
PK$PEAK: m/z int. rel.int.
  117.0561 8900 20
  125.0194 2684 6
  130.0643 15856 36
  132.0433 4520 10
  132.0794 28876 66
  145.0253 154272 355
  146.0283 12472 28
  147.0655 5152 11
  148.0747 2508 5
  161.0461 3216 7
  162.0906 2672 6
  163.0357 5944 13
  173.0313 47204 108
  174.0344 3668 8
  186.052 433444 999
//
