ACCESSION: MSBNK-Athens_Univ-AU269102
RECORD_TITLE: Gemfibrozil; LC-ESI-QTOF; MS2; CE: 20 eV; R=35000; [M+H]+
DATE: 2019.05.30
AUTHORS: Nikiforos Alygizakis, Katerina Galani, Nikolaos Thomaidis, University of Athens
LICENSE: CC BY
COPYRIGHT: Copyright (C) 2019 Department of Chemistry, University of Athens
COMMENT: CONFIDENCE standard compound
COMMENT: INTERNAL_ID 2691
CH$NAME: Gemfibrozil
CH$NAME: 5-(2,5-dimethylphenoxy)-2,2-dimethylpentanoic acid
CH$COMPOUND_CLASS: N/A; Environmental Standard
CH$FORMULA: C15H22O3
CH$EXACT_MASS: 250.1568946
CH$SMILES: CC1=CC(OCCCC(C)(C)C(O)=O)=C(C)C=C1
CH$IUPAC: InChI=1S/C15H22O3/c1-11-6-7-12(2)13(10-11)18-9-5-8-15(3,4)14(16)17/h6-7,10H,5,8-9H2,1-4H3,(H,16,17)
CH$LINK: CAS 25812-30-0
CH$LINK: CHEBI CHEBI:5296
CH$LINK: KEGG C07020
CH$LINK: PUBCHEM CID:3463
CH$LINK: INCHIKEY HEMJJKBWTPKOJG-UHFFFAOYSA-N
CH$LINK: CHEMSPIDER 3345
CH$LINK: COMPTOX DTXSID0020652
AC$INSTRUMENT: Bruker maXis Impact
AC$INSTRUMENT_TYPE: LC-ESI-QTOF
AC$MASS_SPECTROMETRY: MS_TYPE MS2
AC$MASS_SPECTROMETRY: ION_MODE POSITIVE
AC$MASS_SPECTROMETRY: IONIZATION ESI
AC$MASS_SPECTROMETRY: FRAGMENTATION_MODE CID
AC$MASS_SPECTROMETRY: COLLISION_ENERGY 20 eV
AC$MASS_SPECTROMETRY: RESOLUTION 35000
AC$CHROMATOGRAPHY: COLUMN_NAME Acclaim RSLC C18 2.2um, 2.1x100mm, Thermo
AC$CHROMATOGRAPHY: FLOW_GRADIENT 99/1 at 0-1 min, 61/39 at 3 min, 0.1/99.9 at 14-16 min, 99/1 at 16.1-20 min
AC$CHROMATOGRAPHY: FLOW_RATE 200 uL/min at 0-3 min, 400 uL/min at 14 min, 480 uL/min at 16-19 min, 200 uL/min at 19.1-20 min
AC$CHROMATOGRAPHY: RETENTION_TIME 11.940 min
AC$CHROMATOGRAPHY: SOLVENT A 90:10 water:methanol with 0.01% formic acid and 5mM ammonium formate
AC$CHROMATOGRAPHY: SOLVENT B methanol with 0.01% formic acid and 5mM ammonium formate
MS$FOCUSED_ION: BASE_PEAK 251.1638
MS$FOCUSED_ION: PRECURSOR_M/Z 251.1642
MS$FOCUSED_ION: PRECURSOR_TYPE [M+H]+
MS$DATA_PROCESSING: RECALIBRATE identity on assigned fragments and MS1
MS$DATA_PROCESSING: WHOLE RMassBank 2.10.1
PK$SPLASH: splash10-004i-0900000000-897c7f10683b4932ba16
PK$ANNOTATION: m/z tentative_formula formula_count mass error(ppm)
  123.0801 C8H11O+ 1 123.0804 -2.83
  129.09 C7H13O2+ 1 129.091 -8.08
  130.0924 C6[13]CH13O2+ 1 130.0949 -19
  135.0791 C9H11O+ 1 135.0804 -9.64
  137.0955 C9H13O+ 1 137.0961 -4.32
  161.0947 C11H13O+ 1 161.0961 -8.76
  189.1644 C14H21+ 1 189.1638 3.47
  191.178 C14H23+ 1 191.1794 -7.21
  233.1494 C15H21O2+ 1 233.1536 -18.07
PK$NUM_PEAK: 9
PK$PEAK: m/z int. rel.int.
  123.0801 2524 266
  129.09 9456 999
  130.0924 988 104
  135.0791 372 39
  137.0955 376 39
  161.0947 944 99
  189.1644 304 32
  191.178 304 32
  233.1494 320 33
//
