ACCESSION: MSBNK-Athens_Univ-AU223002
RECORD_TITLE: 4-Piperidinecarboxamide; LC-ESI-QTOF; MS2; CE: 20 eV; R=35000; [M+H]+
DATE: 2016.02.22
AUTHORS: Nikiforos Alygizakis, Reza Aalizadeh, Nikolaos Thomaidis, University of Athens
LICENSE: CC BY
COPYRIGHT: Copyright (C) 2016 Department of Chemistry, University of Athens
COMMENT: CONFIDENCE standard compound
COMMENT: INTERNAL_ID 2230
CH$NAME: 4-Piperidinecarboxamide
CH$NAME: Isonipecotamide
CH$NAME: piperidine-4-carboxamide
CH$COMPOUND_CLASS: N/A; Environmental Standard
CH$FORMULA: C6H12N2O
CH$EXACT_MASS: 128.0949630
CH$SMILES: C1CNCCC1C(=O)N
CH$IUPAC: InChI=1S/C6H12N2O/c7-6(9)5-1-3-8-4-2-5/h5,8H,1-4H2,(H2,7,9)
CH$LINK: CAS 39546-32-2
CH$LINK: PUBCHEM CID:3772
CH$LINK: INCHIKEY DPBWFNDFMCCGGJ-UHFFFAOYSA-N
CH$LINK: CHEMSPIDER 3640
CH$LINK: COMPTOX DTXSID7068182
AC$INSTRUMENT: Bruker maXis Impact
AC$INSTRUMENT_TYPE: LC-ESI-QTOF
AC$MASS_SPECTROMETRY: MS_TYPE MS2
AC$MASS_SPECTROMETRY: ION_MODE POSITIVE
AC$MASS_SPECTROMETRY: IONIZATION ESI
AC$MASS_SPECTROMETRY: FRAGMENTATION_MODE CID
AC$MASS_SPECTROMETRY: COLLISION_ENERGY 20 eV
AC$MASS_SPECTROMETRY: RESOLUTION 35000
AC$CHROMATOGRAPHY: COLUMN_NAME Acclaim RSLC C18 2.2um, 2.1x100mm, Thermo
AC$CHROMATOGRAPHY: FLOW_GRADIENT 99/1 at 0-1 min, 61/39 at 3 min, 0.1/99.9 at 14-16 min, 99/1 at 16.1-20 min
AC$CHROMATOGRAPHY: FLOW_RATE 200 uL/min at 0-3 min, 400 uL/min at 14 min, 480 uL/min at 16-19 min, 200 uL/min at 19.1-20 min
AC$CHROMATOGRAPHY: RETENTION_TIME 1.407 min
AC$CHROMATOGRAPHY: SOLVENT A 90:10 water:methanol with 0.01% formic acid and 5mM ammonium formate
AC$CHROMATOGRAPHY: SOLVENT B methanol with 0.01% formic acid and 5mM ammonium formate
MS$FOCUSED_ION: BASE_PEAK 129.1026
MS$FOCUSED_ION: PRECURSOR_M/Z 129.1022
MS$FOCUSED_ION: PRECURSOR_TYPE [M+H]+
MS$DATA_PROCESSING: RECALIBRATE identity on assigned fragments and MS1
MS$DATA_PROCESSING: WHOLE RMassBank 1.99.10
PK$SPLASH: splash10-01t9-0900000000-92834b132ec38096d3f6
PK$ANNOTATION: m/z tentative_formula formula_count mass error(ppm)
  112.0756 C6H10NO+ 1 112.0757 -0.47
  129.1024 C6H13N2O+ 1 129.1022 1.32
PK$NUM_PEAK: 2
PK$PEAK: m/z int. rel.int.
  112.0756 3484 666
  129.1024 5224 999
//
