ACCESSION: MSBNK-Athens_Univ-AU220208
RECORD_TITLE: Praziquantel; LC-ESI-QTOF; MS2; HILIC; CE: 10 eV; R=35000; [M+H]+
DATE: 2016.02.26
AUTHORS: Nikiforos Alygizakis, Nikolaos Thomaidis, University of Athens
LICENSE: CC BY
COPYRIGHT: Copyright (C) 2016 Department of Chemistry, University of Athens
COMMENT: CONFIDENCE standard compound
COMMENT: INTERNAL_ID 2202
CH$NAME: Praziquantel
CH$NAME: 2-(cyclohexanecarbonyl)-3,6,7,11b-tetrahydro-1H-pyrazino[2,1-a]isoquinolin-4-one
CH$COMPOUND_CLASS: N/A; Environmental Standard
CH$FORMULA: C19H24N2O2
CH$EXACT_MASS: 312.1837780
CH$SMILES: c1ccc2c(c1)CCN3C2CN(CC3=O)C(=O)C4CCCCC4
CH$IUPAC: InChI=1S/C19H24N2O2/c22-18-13-20(19(23)15-7-2-1-3-8-15)12-17-16-9-5-4-6-14(16)10-11-21(17)18/h4-6,9,15,17H,1-3,7-8,10-13H2
CH$LINK: CAS 55268-74-1
CH$LINK: PUBCHEM CID:4891
CH$LINK: INCHIKEY FSVJFNAIGNNGKK-UHFFFAOYSA-N
CH$LINK: CHEMSPIDER 4722
CH$LINK: COMPTOX DTXSID9021182
AC$INSTRUMENT: Bruker maXis Impact
AC$INSTRUMENT_TYPE: LC-ESI-QTOF
AC$MASS_SPECTROMETRY: MS_TYPE MS2
AC$MASS_SPECTROMETRY: ION_MODE POSITIVE
AC$MASS_SPECTROMETRY: IONIZATION ESI
AC$MASS_SPECTROMETRY: FRAGMENTATION_MODE CID
AC$MASS_SPECTROMETRY: COLLISION_ENERGY 10 eV
AC$MASS_SPECTROMETRY: RESOLUTION 35000
AC$CHROMATOGRAPHY: COLUMN_NAME ACQUITY UPLC BEH Amide 1.7 um 2.1x100mm, Waters
AC$CHROMATOGRAPHY: FLOW_GRADIENT 0/100 at 0-2 min, 95/5 at 12 min, 95/5 at 17 min, 0/100 at 17.1, 0/100 at 25 min
AC$CHROMATOGRAPHY: FLOW_RATE 200 uL/min
AC$CHROMATOGRAPHY: RETENTION_TIME 1.515 min
AC$CHROMATOGRAPHY: SOLVENT A Water with 0.01% formic acid and 1mM ammonium formate
AC$CHROMATOGRAPHY: SOLVENT B Acetonitrile:Water 95:5 with 0.01% formic acid and 1mM ammonium formate
MS$FOCUSED_ION: BASE_PEAK 313.1935
MS$FOCUSED_ION: PRECURSOR_M/Z 313.1911
MS$FOCUSED_ION: PRECURSOR_TYPE [M+H]+
MS$DATA_PROCESSING: RECALIBRATE identity on assigned fragments and MS1
MS$DATA_PROCESSING: WHOLE RMassBank 1.99.10
PK$SPLASH: splash10-03di-0019000000-97b308652a460c175045
PK$ANNOTATION: m/z tentative_formula formula_count mass error(ppm)
  203.1189 C12H15N2O+ 1 203.1179 4.77
  204.1218 C11[13]CH15N2O+ 1 204.1218 0.11
  313.1934 C19H25N2O2+ 1 313.1911 7.56
  314.1967 C18[13]CH25N2O2+ 1 314.195 5.59
  315.1986 C17[13]C2H25N2O2+ 1 315.1983 0.82
PK$NUM_PEAK: 5
PK$PEAK: m/z int. rel.int.
  203.1189 134016 139
  204.1218 14628 15
  313.1934 962812 999
  314.1967 150944 156
  315.1986 14028 14
//
