ACCESSION: MSBNK-Athens_Univ-AU509652
RECORD_TITLE: 2H-Perfluoro-2-dodecenoic acid (10:2) (FDUEA); LC-ESI-QTOF; MS2; CE: 20 eV; R=35000; [M-H]-
DATE: 2023.04.25
AUTHORS: Konstantina Diamanti, Georgios Gkotsis, Nikiforos Alygizakis, Nikolaos Thomaidis
LICENSE: CC BY
COPYRIGHT: Copyright (C) 2023 Department of Chemistry, University of Athens
COMMENT: CONFIDENCE standard compound
COMMENT: INTERNAL_ID 5096
CH$NAME: 2H-Perfluoro-2-dodecenoic acid (10:2) (FDUEA)
CH$NAME: 2H-Perfluoro-2-dodecenoic acid
CH$NAME: 3,4,4,5,5,6,6,7,7,8,8,9,9,10,10,11,11,12,12,12-icosafluorododec-2-enoic acid
CH$COMPOUND_CLASS: N/A; Environmental Standard
CH$FORMULA: C12H2F20O2
CH$EXACT_MASS: 557.9735
CH$SMILES: C(=C(C(C(C(C(C(C(C(C(C(F)(F)F)(F)F)(F)F)(F)F)(F)F)(F)F)(F)F)(F)F)(F)F)F)C(=O)O
CH$IUPAC: InChI=1S/C12H2F20O2/c13-2(1-3(33)34)4(14,15)5(16,17)6(18,19)7(20,21)8(22,23)9(24,25)10(26,27)11(28,29)12(30,31)32/h1H,(H,33,34)
CH$LINK: CAS 70887-94-4
CH$LINK: PUBCHEM CID:138396354
CH$LINK: INCHIKEY OGNPKTMXAFCAFU-UHFFFAOYSA-N
CH$LINK: CHEMSPIDER 58196058
AC$INSTRUMENT: Bruker maXis Impact
AC$INSTRUMENT_TYPE: LC-ESI-QTOF
AC$MASS_SPECTROMETRY: MS_TYPE MS2
AC$MASS_SPECTROMETRY: MODE NEGATIVE
AC$MASS_SPECTROMETRY: IONIZATION ESI
AC$MASS_SPECTROMETRY: FRAGMENTATION_MODE CID
AC$MASS_SPECTROMETRY: COLLISION_ENERGY 20 eV
AC$MASS_SPECTROMETRY: RESOLUTION 35000
AC$MASS_SPECTROMETRY: MASS_RANGE_M/Z 50-1000
AC$CHROMATOGRAPHY: COLUMN_NAME Acclaim RSLC C18 2.2um, 2.1x100mm, Thermo
AC$CHROMATOGRAPHY: FLOW_GRADIENT 99/1 at 0-1 min, 61/39 at 3 min, 0.1/99.9 at 14-16 min, 99/1 at 16.1-20 min
AC$CHROMATOGRAPHY: FLOW_RATE 200 uL/min at 0-3 min, 400 uL/min at 14 min, 480 uL/min at 16-19 min, 200 uL/min at 19.1-20 min
AC$CHROMATOGRAPHY: RETENTION_TIME 11.829 min
MS$FOCUSED_ION: BASE_PEAK 493.9734
MS$FOCUSED_ION: PRECURSOR_M/Z 556.9663
MS$FOCUSED_ION: PRECURSOR_TYPE [M-H]-
MS$DATA_PROCESSING: RECALIBRATE identity on assigned fragments and MS1
MS$DATA_PROCESSING: WHOLE RMassBank 3.9.0
PK$SPLASH: splash10-0006-0000900000-381d72d86cfee1efd79e
PK$ANNOTATION: m/z tentative_formula formula_count mass error(ppm)
  492.9686 C11F19- 2 492.9702 -3.17
  493.9723 C11HF19- 2 493.978 -11.51
  494.9774 C10HF18O2- 1 494.9695 15.98
PK$NUM_PEAK: 3
PK$PEAK: m/z int. rel.int.
  492.9686 5956 999
  493.9723 3496 586
  494.9774 300 50
//
