ACCESSION: MSBNK-Athens_Univ-AU258302
RECORD_TITLE: Metconazole; LC-ESI-QTOF; MS2; CE: 20 eV; R=35000; [M+H]+
DATE: 2019.05.29
AUTHORS: Nikiforos Alygizakis, Katerina Galani, Nikolaos Thomaidis, University of Athens
LICENSE: CC BY
COPYRIGHT: Copyright (C) 2019 Department of Chemistry, University of Athens
COMMENT: CONFIDENCE standard compound
COMMENT: INTERNAL_ID 2583
CH$NAME: Metconazole
CH$NAME: 5-[(4-chlorophenyl)methyl]-2,2-dimethyl-1-(1,2,4-triazol-1-ylmethyl)cyclopentan-1-ol
CH$COMPOUND_CLASS: N/A; Environmental Standard
CH$FORMULA: C17H22ClN3O
CH$EXACT_MASS: 319.1451400
CH$SMILES: CC1(C)CCC(CC2=CC=C(Cl)C=C2)C1(O)CN1C=NC=N1
CH$IUPAC: InChI=1S/C17H22ClN3O/c1-16(2)8-7-14(9-13-3-5-15(18)6-4-13)17(16,22)10-21-12-19-11-20-21/h3-6,11-12,14,22H,7-10H2,1-2H3
CH$LINK: CAS 125116-23-6
CH$LINK: CHEBI CHEBI:81773
CH$LINK: KEGG C18476
CH$LINK: PUBCHEM CID:86210
CH$LINK: INCHIKEY XWPZUHJBOLQNMN-UHFFFAOYSA-N
CH$LINK: CHEMSPIDER 77764
CH$LINK: COMPTOX DTXSID4034497
AC$INSTRUMENT: Bruker maXis Impact
AC$INSTRUMENT_TYPE: LC-ESI-QTOF
AC$MASS_SPECTROMETRY: MS_TYPE MS2
AC$MASS_SPECTROMETRY: ION_MODE POSITIVE
AC$MASS_SPECTROMETRY: IONIZATION ESI
AC$MASS_SPECTROMETRY: FRAGMENTATION_MODE CID
AC$MASS_SPECTROMETRY: COLLISION_ENERGY 20 eV
AC$MASS_SPECTROMETRY: RESOLUTION 35000
AC$CHROMATOGRAPHY: COLUMN_NAME Acclaim RSLC C18 2.2um, 2.1x100mm, Thermo
AC$CHROMATOGRAPHY: FLOW_GRADIENT 99/1 at 0-1 min, 61/39 at 3 min, 0.1/99.9 at 14-16 min, 99/1 at 16.1-20 min
AC$CHROMATOGRAPHY: FLOW_RATE 200 uL/min at 0-3 min, 400 uL/min at 14 min, 480 uL/min at 16-19 min, 200 uL/min at 19.1-20 min
AC$CHROMATOGRAPHY: RETENTION_TIME 11.270 min
AC$CHROMATOGRAPHY: SOLVENT A 90:10 water:methanol with 0.01% formic acid and 5mM ammonium formate
AC$CHROMATOGRAPHY: SOLVENT B methanol with 0.01% formic acid and 5mM ammonium formate
MS$FOCUSED_ION: BASE_PEAK 388.1061
MS$FOCUSED_ION: PRECURSOR_M/Z 320.1524
MS$FOCUSED_ION: PRECURSOR_TYPE [M+H]+
MS$DATA_PROCESSING: RECALIBRATE identity on assigned fragments and MS1
MS$DATA_PROCESSING: WHOLE RMassBank 2.10.1
PK$SPLASH: splash10-00di-0009000000-a5e4f113d42aba63b5d1
PK$ANNOTATION: m/z tentative_formula formula_count mass error(ppm)
  125.0145 C7H6Cl+ 2 125.0153 -6.08
  127.0116 C7H6[37]Cl+ 1 127.0129 -10.02
  177.0455 C11H10Cl+ 2 177.0466 -5.75
  179.0442 C11H10[37]Cl+ 1 179.0442 0.04
  233.1088 C15H18Cl+ 2 233.1092 -1.5
  235.1064 C15H18[37]Cl+ 1 235.1068 -1.49
  320.1527 C17H23ClN3O+ 1 320.1524 0.84
  321.1557 C16[13]CH23ClN3O+ 1 321.1563 -1.96
  322.1499 C17H23[37]ClN3O+ 1 322.15 -0.48
PK$NUM_PEAK: 9
PK$PEAK: m/z int. rel.int.
  125.0145 6280 25
  127.0116 1224 5
  177.0455 3300 13
  179.0442 1232 5
  233.1088 4776 19
  235.1064 1560 6
  320.1527 241376 999
  321.1557 44888 185
  322.1499 69400 287
//
