ACCESSION: MSBNK-Athens_Univ-AU406751
RECORD_TITLE: 3-Nitrobenzenesulfonic acid; LC-ESI-QTOF; MS2; CE: 10 eV; R=35000; [M-H]-
DATE: 2015.12.28
AUTHORS: Nikiforos Alygizakis, Nikolaos Thomaidis, University of Athens
LICENSE: CC BY-SA
COPYRIGHT: Copyright (C) 2015 Department of Chemistry, University of Athens
PUBLICATION: Alygizakis, N. A.; Gago-Ferrero, P.; Hollender, J.; Thomaidis, N. S. Untargeted Time-Pattern Analysis of LC-HRMS Data to Detect Spills and Compounds with High Fluctuation in Influent Wastewater. Journal of Hazardous Materials 2019, 361, 19–29. DOI:10.1016/j.jhazmat.2018.08.073
COMMENT: CONFIDENCE standard compound
COMMENT: INTERNAL_ID 4067
CH$NAME: 3-Nitrobenzenesulfonic acid
CH$COMPOUND_CLASS: N/A; Environmental Standard
CH$FORMULA: C6H5NO5S
CH$EXACT_MASS: 202.9888433
CH$SMILES: c1cc(cc(c1)S(=O)(=O)O)[N+](=O)[O-]
CH$IUPAC: InChI=1S/C6H5NO5S/c8-7(9)5-2-1-3-6(4-5)13(10,11)12/h1-4H,(H,10,11,12)
CH$LINK: CAS 98-47-5
CH$LINK: PUBCHEM CID:7387
CH$LINK: INCHIKEY ONMOULMPIIOVTQ-UHFFFAOYSA-N
CH$LINK: CHEMSPIDER 7109
CH$LINK: COMPTOX DTXSID3048079
AC$INSTRUMENT: Bruker maXis Impact
AC$INSTRUMENT_TYPE: LC-ESI-QTOF
AC$MASS_SPECTROMETRY: MS_TYPE MS2
AC$MASS_SPECTROMETRY: ION_MODE NEGATIVE
AC$MASS_SPECTROMETRY: IONIZATION ESI
AC$MASS_SPECTROMETRY: FRAGMENTATION_MODE CID
AC$MASS_SPECTROMETRY: COLLISION_ENERGY 10 eV
AC$MASS_SPECTROMETRY: RESOLUTION 35000
AC$CHROMATOGRAPHY: COLUMN_NAME Acclaim RSLC C18 2.2um, 2.1x100mm, Thermo
AC$CHROMATOGRAPHY: FLOW_GRADIENT 99/1 at 0-1 min, 61/39 at 3 min, 0.1/99.9 at 14-16 min, 99/1 at 16.1-20 min
AC$CHROMATOGRAPHY: FLOW_RATE 200 uL/min at 0-3 min, 400 uL/min at 14 min, 480 uL/min at 16-19 min, 200 uL/min at 19.1-20 min
AC$CHROMATOGRAPHY: RETENTION_TIME 2.99 min
AC$CHROMATOGRAPHY: SOLVENT A 90:10 water:methanol with 5mM ammonium acetate
AC$CHROMATOGRAPHY: SOLVENT B methanol with 5mM ammonium acetate
MS$FOCUSED_ION: BASE_PEAK 201.9802
MS$FOCUSED_ION: PRECURSOR_M/Z 201.9816
MS$FOCUSED_ION: PRECURSOR_TYPE [M-H]-
MS$DATA_PROCESSING: RECALIBRATE identity on assigned fragments and MS1
MS$DATA_PROCESSING: REANALYZE Peaks with additional N2/O included
MS$DATA_PROCESSING: WHOLE RMassBank 2.0.3
PK$SPLASH: splash10-0udi-0090000000-5cbcfb3659396b3e2640
PK$ANNOTATION: m/z tentative_formula formula_count mass error(ppm)
  138.0171 C6H4NO3- 1 138.0197 -18.67
  171.9831 C6H4O4S- 1 171.9836 -2.59
  201.98 C6H4NO5S- 1 201.9816 -7.88
  202.9816 C5H3N2O5S- 1 202.9768 23.35
PK$NUM_PEAK: 4
PK$PEAK: m/z int. rel.int.
  138.0171 308 26
  171.9831 336 29
  201.98 11440 999
  202.9816 1120 97
//
