ACCESSION: MSBNK-Athens_Univ-AU302730
RECORD_TITLE: Omethoate; LC-ESI-QTOF; MS2; CE: 10 eV; R=35000; [M+Na]+
DATE: 2016.02.28
AUTHORS: Nikiforos Alygizakis, Nikolaos Thomaidis, University of Athens
LICENSE: CC BY
COPYRIGHT: Copyright (C) 2016 Department of Chemistry, University of Athens
COMMENT: CONFIDENCE standard compound
COMMENT: INTERNAL_ID 3027
CH$NAME: Omethoate
CH$NAME: 2-dimethoxyphosphorylsulfanyl-N-methylacetamide
CH$COMPOUND_CLASS: N/A; Environmental Standard
CH$FORMULA: C5H12NO4PS
CH$EXACT_MASS: 213.0224655
CH$SMILES: CNC(=O)CSP(=O)(OC)OC
CH$IUPAC: InChI=1S/C5H12NO4PS/c1-6-5(7)4-12-11(8,9-2)10-3/h4H2,1-3H3,(H,6,7)
CH$LINK: CAS 1113-02-6
CH$LINK: CHEBI CHEBI:38730
CH$LINK: KEGG C18662
CH$LINK: PUBCHEM CID:14210
CH$LINK: INCHIKEY PZXOQEXFMJCDPG-UHFFFAOYSA-N
CH$LINK: CHEMSPIDER 13574
CH$LINK: COMPTOX DTXSID4037580
AC$INSTRUMENT: Bruker maXis Impact
AC$INSTRUMENT_TYPE: LC-ESI-QTOF
AC$MASS_SPECTROMETRY: MS_TYPE MS2
AC$MASS_SPECTROMETRY: ION_MODE POSITIVE
AC$MASS_SPECTROMETRY: IONIZATION ESI
AC$MASS_SPECTROMETRY: FRAGMENTATION_MODE CID
AC$MASS_SPECTROMETRY: COLLISION_ENERGY 10 eV
AC$MASS_SPECTROMETRY: RESOLUTION 35000
AC$CHROMATOGRAPHY: COLUMN_NAME Acclaim RSLC C18 2.2um, 2.1x100mm, Thermo
AC$CHROMATOGRAPHY: FLOW_GRADIENT 99/1 at 0-1 min, 61/39 at 3 min, 0.1/99.9 at 14-16 min, 99/1 at 16.1-20 min
AC$CHROMATOGRAPHY: FLOW_RATE 200 uL/min at 0-3 min, 400 uL/min at 14 min, 480 uL/min at 16-19 min, 200 uL/min at 19.1-20 min
AC$CHROMATOGRAPHY: RETENTION_TIME 3.222 min
AC$CHROMATOGRAPHY: SOLVENT A 90:10 water:methanol with 0.01% formic acid and 5mM ammonium formate
AC$CHROMATOGRAPHY: SOLVENT B methanol with 0.01% formic acid and 5mM ammonium formate
MS$FOCUSED_ION: BASE_PEAK 214.0313
MS$FOCUSED_ION: PRECURSOR_M/Z 236.0117
MS$FOCUSED_ION: PRECURSOR_TYPE [M+Na]+
MS$DATA_PROCESSING: RECALIBRATE identity on assigned fragments and MS1
MS$DATA_PROCESSING: WHOLE RMassBank 1.99.10
PK$SPLASH: splash10-000i-0090000000-e0463f79119c3061e86b
PK$ANNOTATION: m/z tentative_formula formula_count mass error(ppm)
  236.0122 C5H12NNaO4PS+ 1 236.0117 2.34
  237.0153 C4[13]CH12NNaO4PS+ 1 237.0156 -1.3
  238.0096 C5H12NNaO4P[34]S+ 1 238.008 6.6
PK$NUM_PEAK: 3
PK$PEAK: m/z int. rel.int.
  236.0122 13684 999
  237.0153 868 63
  238.0096 876 63
//
