ACCESSION: MSBNK-Athens_Univ-AU337401
RECORD_TITLE: 2,6-Dichlorobenzamide; LC-ESI-QTOF; MS2; CE: 10 eV; R=35000; [M+H]+
DATE: 2015.12.09
AUTHORS: Nikiforos Alygizakis, Nikolaos Thomaidis, University of Athens
LICENSE: CC BY-SA
COPYRIGHT: Copyright (C) 2015 Department of Chemistry, University of Athens
COMMENT: CONFIDENCE standard compound
COMMENT: INTERNAL_ID 3374
CH$NAME: 2,6-Dichlorobenzamide
CH$NAME: 2,6-dichlorobenzamide
CH$COMPOUND_CLASS: N/A; Environmental Standard
CH$FORMULA: C7H5Cl2NO
CH$EXACT_MASS: 188.9748191
CH$SMILES: NC(=O)C1=C(Cl)C=CC=C1Cl
CH$IUPAC: InChI=1S/C7H5Cl2NO/c8-4-2-1-3-5(9)6(4)7(10)11/h1-3H,(H2,10,11)
CH$LINK: CAS 2008-58-4
CH$LINK: CHEBI CHEBI:28435
CH$LINK: KEGG C10934
CH$LINK: PUBCHEM CID:16183
CH$LINK: INCHIKEY JHSPCUHPSIUQRB-UHFFFAOYSA-N
CH$LINK: CHEMSPIDER 15359
CH$LINK: COMPTOX DTXSID7022170
AC$INSTRUMENT: Bruker maXis Impact
AC$INSTRUMENT_TYPE: LC-ESI-QTOF
AC$MASS_SPECTROMETRY: MS_TYPE MS2
AC$MASS_SPECTROMETRY: ION_MODE POSITIVE
AC$MASS_SPECTROMETRY: IONIZATION ESI
AC$MASS_SPECTROMETRY: FRAGMENTATION_MODE CID
AC$MASS_SPECTROMETRY: COLLISION_ENERGY 10 eV
AC$MASS_SPECTROMETRY: RESOLUTION 35000
AC$CHROMATOGRAPHY: COLUMN_NAME Acclaim RSLC C18 2.2um, 2.1x100mm, Thermo
AC$CHROMATOGRAPHY: FLOW_GRADIENT 99/1 at 0-1 min, 61/39 at 3 min, 0.1/99.9 at 14-16 min, 99/1 at 16.1-20 min
AC$CHROMATOGRAPHY: FLOW_RATE 200 uL/min at 0-3 min, 400 uL/min at 14 min, 480 uL/min at 16-19 min, 200 uL/min at 19.1-20 min
AC$CHROMATOGRAPHY: RETENTION_TIME 4.4 min
AC$CHROMATOGRAPHY: SOLVENT A 90:10 water:methanol with 0.01% formic acid and 5mM ammonium formate
AC$CHROMATOGRAPHY: SOLVENT B methanol with 0.01% formic acid and 5mM ammonium formate
MS$FOCUSED_ION: BASE_PEAK 189.9814
MS$FOCUSED_ION: PRECURSOR_M/Z 189.9821
MS$FOCUSED_ION: PRECURSOR_TYPE [M+H]+
MS$DATA_PROCESSING: RECALIBRATE identity on assigned fragments and MS1
MS$DATA_PROCESSING: REANALYZE Peaks with additional N2/O included
MS$DATA_PROCESSING: WHOLE RMassBank 2.0.3
PK$SPLASH: splash10-000l-0900000000-657da73af102bf3caf7c
PK$ANNOTATION: m/z tentative_formula formula_count mass error(ppm)
  171.9699 C7H4Cl2N+ 1 171.9715 -9.51
  172.9541 C7H3Cl2O+ 1 172.9555 -8.28
  173.9575 C6[13]CH3Cl2O+ 1 173.9589 -8.05
  174.9516 C7H3[37]Cl[35]ClO+ 1 174.9527 -6.29
  189.9814 C7H6Cl2NO+ 1 189.9821 -3.68
  190.9846 C6[13]CH6Cl2NO+ 1 190.9852 -3.14
  191.9783 C7H6[37]Cl[35]ClNO+ 1 191.9792 -4.69
  192.9813 C6[13]CH6[37]Cl[35]ClNO+ 1 192.9823 -5.18
PK$NUM_PEAK: 8
PK$PEAK: m/z int. rel.int.
  171.9699 700 5
  172.9541 17668 136
  173.9575 1616 13
  174.9516 9772 76
  189.9814 129008 999
  190.9846 8160 63
  191.9783 64532 499
  192.9813 3492 27
//
