ACCESSION: MSBNK-Athens_Univ-AU244806
RECORD_TITLE: Cashmeran; LC-ESI-QTOF; MS2; CE: Ramp 18.3-27.4 eV; R=35000; [M+H]+
DATE: 2019.04.08
AUTHORS: Nikiforos Alygizakis, Katerina Galani, Nikolaos Thomaidis, University of Athens
LICENSE: CC BY
COPYRIGHT: Copyright (C) 2019 Department of Chemistry, University of Athens
COMMENT: CONFIDENCE standard compound
COMMENT: INTERNAL_ID 2448
CH$NAME: Cashmeran
CH$NAME: 4H-Inden-4-one, 1,2,3,5,6,7-hexahydro-1,1,2,3,3-pentamethyl-
CH$NAME: 1,1,2,3,3-pentamethyl-2,5,6,7-tetrahydroinden-4-one
CH$COMPOUND_CLASS: N/A; Environmental Standard
CH$FORMULA: C14H22O
CH$EXACT_MASS: 206.1670653
CH$SMILES: CC1C(C)(C)C2=C(C(=O)CCC2)C1(C)C
CH$IUPAC: InChI=1S/C14H22O/c1-9-13(2,3)10-7-6-8-11(15)12(10)14(9,4)5/h9H,6-8H2,1-5H3
CH$LINK: CAS 3475-65-8
CH$LINK: PUBCHEM CID:92292
CH$LINK: INCHIKEY MIZGSAALSYARKU-UHFFFAOYSA-N
CH$LINK: CHEMSPIDER 83324
CH$LINK: COMPTOX DTXSID8047399
AC$INSTRUMENT: Bruker maXis Impact
AC$INSTRUMENT_TYPE: LC-ESI-QTOF
AC$MASS_SPECTROMETRY: MS_TYPE MS2
AC$MASS_SPECTROMETRY: ION_MODE POSITIVE
AC$MASS_SPECTROMETRY: IONIZATION ESI
AC$MASS_SPECTROMETRY: FRAGMENTATION_MODE CID
AC$MASS_SPECTROMETRY: COLLISION_ENERGY Ramp 18.3-27.4 eV
AC$MASS_SPECTROMETRY: RESOLUTION 35000
AC$CHROMATOGRAPHY: COLUMN_NAME Acclaim RSLC C18 2.2um, 2.1x100mm, Thermo
AC$CHROMATOGRAPHY: FLOW_GRADIENT 99/1 at 0-1 min, 61/39 at 3 min, 0.1/99.9 at 14-16 min, 99/1 at 16.1-20 min
AC$CHROMATOGRAPHY: FLOW_RATE 200 uL/min at 0-3 min, 400 uL/min at 14 min, 480 uL/min at 16-19 min, 200 uL/min at 19.1-20 min
AC$CHROMATOGRAPHY: RETENTION_TIME 10.783 min
AC$CHROMATOGRAPHY: SOLVENT A 90:10 water:methanol with 0.01% formic acid and 5mM ammonium formate
AC$CHROMATOGRAPHY: SOLVENT B methanol with 0.01% formic acid and 5mM ammonium formate
MS$FOCUSED_ION: BASE_PEAK 102.1283
MS$FOCUSED_ION: PRECURSOR_M/Z 207.1743
MS$FOCUSED_ION: PRECURSOR_TYPE [M+H]+
MS$DATA_PROCESSING: RECALIBRATE identity on assigned fragments and MS1
MS$DATA_PROCESSING: WHOLE RMassBank 2.10.1
PK$SPLASH: splash10-000b-0900000000-ef18fe8ec9133d6f14aa
PK$ANNOTATION: m/z tentative_formula formula_count mass error(ppm)
  137.1299 C10H17+ 1 137.1325 -18.57
  149.1343 C11H17+ 1 149.1325 12.11
PK$NUM_PEAK: 2
PK$PEAK: m/z int. rel.int.
  137.1299 328 952
  149.1343 344 999
//
