ACCESSION: MSBNK-Athens_Univ-AU256601
RECORD_TITLE: Prochloraz; LC-ESI-QTOF; MS2; CE: 10 eV; R=35000; [M+H]+
DATE: 2019.05.29
AUTHORS: Nikiforos Alygizakis, Katerina Galani, Nikolaos Thomaidis, University of Athens
LICENSE: CC BY
COPYRIGHT: Copyright (C) 2019 Department of Chemistry, University of Athens
COMMENT: CONFIDENCE standard compound
COMMENT: INTERNAL_ID 2566
CH$NAME: Prochloraz
CH$NAME: N-propyl-N-[2-(2,4,6-trichlorophenoxy)ethyl]imidazole-1-carboxamide
CH$COMPOUND_CLASS: N/A; Environmental Standard
CH$FORMULA: C15H16Cl3N3O2
CH$EXACT_MASS: 375.0308098
CH$SMILES: CCCN(CCOC1=C(Cl)C=C(Cl)C=C1Cl)C(=O)N1C=CN=C1
CH$IUPAC: InChI=1S/C15H16Cl3N3O2/c1-2-4-20(15(22)21-5-3-19-10-21)6-7-23-14-12(17)8-11(16)9-13(14)18/h3,5,8-10H,2,4,6-7H2,1H3
CH$LINK: CAS 7789-20-0
CH$LINK: CHEBI CHEBI:8434
CH$LINK: KEGG C11182
CH$LINK: PUBCHEM CID:73665
CH$LINK: INCHIKEY TVLSRXXIMLFWEO-UHFFFAOYSA-N
CH$LINK: CHEMSPIDER 66316
CH$LINK: COMPTOX DTXSID4024270
AC$INSTRUMENT: Bruker maXis Impact
AC$INSTRUMENT_TYPE: LC-ESI-QTOF
AC$MASS_SPECTROMETRY: MS_TYPE MS2
AC$MASS_SPECTROMETRY: ION_MODE POSITIVE
AC$MASS_SPECTROMETRY: IONIZATION ESI
AC$MASS_SPECTROMETRY: FRAGMENTATION_MODE CID
AC$MASS_SPECTROMETRY: COLLISION_ENERGY 10 eV
AC$MASS_SPECTROMETRY: RESOLUTION 35000
AC$CHROMATOGRAPHY: COLUMN_NAME Acclaim RSLC C18 2.2um, 2.1x100mm, Thermo
AC$CHROMATOGRAPHY: FLOW_GRADIENT 99/1 at 0-1 min, 61/39 at 3 min, 0.1/99.9 at 14-16 min, 99/1 at 16.1-20 min
AC$CHROMATOGRAPHY: FLOW_RATE 200 uL/min at 0-3 min, 400 uL/min at 14 min, 480 uL/min at 16-19 min, 200 uL/min at 19.1-20 min
AC$CHROMATOGRAPHY: RETENTION_TIME 11.298 min
AC$CHROMATOGRAPHY: SOLVENT A 90:10 water:methanol with 0.01% formic acid and 5mM ammonium formate
AC$CHROMATOGRAPHY: SOLVENT B methanol with 0.01% formic acid and 5mM ammonium formate
MS$FOCUSED_ION: BASE_PEAK 388.1055
MS$FOCUSED_ION: PRECURSOR_M/Z 376.0381
MS$FOCUSED_ION: PRECURSOR_TYPE [M+H]+
MS$DATA_PROCESSING: RECALIBRATE identity on assigned fragments and MS1
MS$DATA_PROCESSING: WHOLE RMassBank 2.10.1
PK$SPLASH: splash10-0a4i-0009000000-34bbb00162e013a6b445
PK$ANNOTATION: m/z tentative_formula formula_count mass error(ppm)
  265.953 C10H2Cl2N3O2+ 3 265.9519 4.38
  267.9498 C10H2Cl[37]ClN3O2+ 1 267.9495 1.36
  308.0004 C12H13Cl3NO2+ 2 308.0006 -0.67
  309.0036 C11[13]CH13Cl3NO2+ 1 309.0045 -2.89
  309.9976 C12H13Cl2[37]ClNO2+ 1 309.9982 -2.15
  311.0005 C10H12Cl3N3O2+ 2 310.999 4.79
  311.9944 C14H11Cl3N2+ 2 311.9982 -12.29
  376.038 C15H17Cl3N3O2+ 1 376.0381 -0.34
  377.0405 C14[13]CH17Cl3N3O2+ 1 377.042 -3.9
  378.035 C15H17Cl2[37]ClN3O2+ 1 378.0357 -1.71
PK$NUM_PEAK: 10
PK$PEAK: m/z int. rel.int.
  265.953 25620 19
  267.9498 20672 15
  308.0004 1343188 999
  309.0036 147156 109
  309.9976 1105688 822
  311.0005 65528 48
  311.9944 17808 13
  376.038 189440 140
  377.0405 29184 21
  378.035 150448 111
//
