ACCESSION: MSBNK-Athens_Univ-AU278001
RECORD_TITLE: Acyclovir; LC-ESI-QTOF; MS2; CE: 10 eV; R=35000; [M+H]+
DATE: 2019.05.31
AUTHORS: Nikiforos Alygizakis, Katerina Galani, Nikolaos Thomaidis, University of Athens
LICENSE: CC BY
COPYRIGHT: Copyright (C) 2019 Department of Chemistry, University of Athens
COMMENT: CONFIDENCE standard compound
COMMENT: INTERNAL_ID 2780
CH$NAME: Acyclovir
CH$NAME: CID 2022
CH$NAME: 2-amino-9-(2-hydroxyethoxymethyl)-3H-purin-6-one
CH$COMPOUND_CLASS: N/A; Environmental Standard
CH$FORMULA: C8H11N5O3
CH$EXACT_MASS: 225.0861892
CH$SMILES: NC1=NC2=C(N=CN2COCCO)C(=O)N1
CH$IUPAC: InChI=1S/C8H11N5O3/c9-8-11-6-5(7(15)12-8)10-3-13(6)4-16-2-1-14/h3,14H,1-2,4H2,(H3,9,11,12,15)
CH$LINK: CAS 59277-89-3
CH$LINK: CHEBI CHEBI:2453
CH$LINK: KEGG D00222
CH$LINK: INCHIKEY MKUXAQIIEYXACX-UHFFFAOYSA-N
CH$LINK: CHEMSPIDER 1945
CH$LINK: COMPTOX DTXSID1022556
CH$LINK: PUBCHEM CID:135398513
AC$INSTRUMENT: Bruker maXis Impact
AC$INSTRUMENT_TYPE: LC-ESI-QTOF
AC$MASS_SPECTROMETRY: MS_TYPE MS2
AC$MASS_SPECTROMETRY: ION_MODE POSITIVE
AC$MASS_SPECTROMETRY: IONIZATION ESI
AC$MASS_SPECTROMETRY: FRAGMENTATION_MODE CID
AC$MASS_SPECTROMETRY: COLLISION_ENERGY 10 eV
AC$MASS_SPECTROMETRY: RESOLUTION 35000
AC$CHROMATOGRAPHY: COLUMN_NAME Acclaim RSLC C18 2.2um, 2.1x100mm, Thermo
AC$CHROMATOGRAPHY: FLOW_GRADIENT 99/1 at 0-1 min, 61/39 at 3 min, 0.1/99.9 at 14-16 min, 99/1 at 16.1-20 min
AC$CHROMATOGRAPHY: FLOW_RATE 200 uL/min at 0-3 min, 400 uL/min at 14 min, 480 uL/min at 16-19 min, 200 uL/min at 19.1-20 min
AC$CHROMATOGRAPHY: RETENTION_TIME 4.731 min
AC$CHROMATOGRAPHY: SOLVENT A 90:10 water:methanol with 0.01% formic acid and 5mM ammonium formate
AC$CHROMATOGRAPHY: SOLVENT B methanol with 0.01% formic acid and 5mM ammonium formate
MS$FOCUSED_ION: BASE_PEAK 204.1127
MS$FOCUSED_ION: PRECURSOR_M/Z 226.0935
MS$FOCUSED_ION: PRECURSOR_TYPE [M+H]+
MS$DATA_PROCESSING: RECALIBRATE identity on assigned fragments and MS1
MS$DATA_PROCESSING: WHOLE RMassBank 2.10.1
PK$SPLASH: splash10-004i-0090000000-350b8cde3f85dfe7b68c
PK$ANNOTATION: m/z tentative_formula formula_count mass error(ppm)
  226.0935 C8H12N5O3+ 1 226.0935 0.09
  227.0974 C7[13]CH12N5O3+ 1 227.0974 0.32
PK$NUM_PEAK: 2
PK$PEAK: m/z int. rel.int.
  226.0935 11764 999
  227.0974 1228 104
//
