ACCESSION: MSBNK-Athens_Univ-AU237006
RECORD_TITLE: Bisphenol S; LC-ESI-QTOF; MS2; CE: Ramp 19.8-29.8 eV; R=35000; [M+H]+
DATE: 2019.05.30
AUTHORS: Nikiforos Alygizakis, Katerina Galani, Nikolaos Thomaidis, University of Athens
LICENSE: CC BY
COPYRIGHT: Copyright (C) 2019 Department of Chemistry, University of Athens
COMMENT: CONFIDENCE standard compound
COMMENT: INTERNAL_ID 2370
CH$NAME: Bisphenol S
CH$NAME: 4,4`-Sulfonyldiphenol
CH$NAME: 4-(4-hydroxyphenyl)sulfonylphenol
CH$COMPOUND_CLASS: N/A; Environmental Standard
CH$FORMULA: C12H10O4S
CH$EXACT_MASS: 250.0299798
CH$SMILES: OC1=CC=C(C=C1)S(=O)(=O)C1=CC=C(O)C=C1
CH$IUPAC: InChI=1S/C12H10O4S/c13-9-1-5-11(6-2-9)17(15,16)12-7-3-10(14)4-8-12/h1-8,13-14H
CH$LINK: CAS 80-09-1
CH$LINK: CHEBI CHEBI:34372
CH$LINK: KEGG C14216
CH$LINK: PUBCHEM CID:6626
CH$LINK: INCHIKEY VPWNQTHUCYMVMZ-UHFFFAOYSA-N
CH$LINK: CHEMSPIDER 6374
CH$LINK: COMPTOX DTXSID3022409
AC$INSTRUMENT: Bruker maXis Impact
AC$INSTRUMENT_TYPE: LC-ESI-QTOF
AC$MASS_SPECTROMETRY: MS_TYPE MS2
AC$MASS_SPECTROMETRY: ION_MODE POSITIVE
AC$MASS_SPECTROMETRY: IONIZATION ESI
AC$MASS_SPECTROMETRY: FRAGMENTATION_MODE CID
AC$MASS_SPECTROMETRY: COLLISION_ENERGY Ramp 19.8-29.8 eV
AC$MASS_SPECTROMETRY: RESOLUTION 35000
AC$CHROMATOGRAPHY: COLUMN_NAME Acclaim RSLC C18 2.2um, 2.1x100mm, Thermo
AC$CHROMATOGRAPHY: FLOW_GRADIENT 99/1 at 0-1 min, 61/39 at 3 min, 0.1/99.9 at 14-16 min, 99/1 at 16.1-20 min
AC$CHROMATOGRAPHY: FLOW_RATE 200 uL/min at 0-3 min, 400 uL/min at 14 min, 480 uL/min at 16-19 min, 200 uL/min at 19.1-20 min
AC$CHROMATOGRAPHY: RETENTION_TIME 5.342 min
AC$CHROMATOGRAPHY: SOLVENT A 90:10 water:methanol with 0.01% formic acid and 5mM ammonium formate
AC$CHROMATOGRAPHY: SOLVENT B methanol with 0.01% formic acid and 5mM ammonium formate
MS$FOCUSED_ION: BASE_PEAK 288.9927
MS$FOCUSED_ION: PRECURSOR_M/Z 251.0373
MS$FOCUSED_ION: PRECURSOR_TYPE [M+H]+
MS$DATA_PROCESSING: RECALIBRATE identity on assigned fragments and MS1
MS$DATA_PROCESSING: WHOLE RMassBank 2.10.1
PK$SPLASH: splash10-0a4i-0930000000-26acce7e5ee7f3e38442
PK$ANNOTATION: m/z tentative_formula formula_count mass error(ppm)
  156.994 C6H5O3S+ 2 156.9954 -8.89
  157.9966 C5[13]CH5O3S+ 1 157.9993 -16.83
  158.9913 C6H5O3[34]S+ 1 158.9917 -2.55
  251.0362 C12H11O4S+ 1 251.0373 -4.23
  252.0373 C11[13]CH11O4S+ 1 252.0412 -15.32
PK$NUM_PEAK: 5
PK$PEAK: m/z int. rel.int.
  156.994 6220 999
  157.9966 376 60
  158.9913 360 57
  251.0362 1996 320
  252.0373 404 64
//
