ACCESSION: MSBNK-Athens_Univ-AU265005
RECORD_TITLE: Metazachlor BH 479-11; LC-ESI-QTOF; MS2; CE: 50 eV; R=35000; [M+H]+
DATE: 2019.05.30
AUTHORS: Nikiforos Alygizakis, Katerina Galani, Nikolaos Thomaidis, University of Athens
LICENSE: CC BY
COPYRIGHT: Copyright (C) 2019 Department of Chemistry, University of Athens
COMMENT: CONFIDENCE standard compound
COMMENT: INTERNAL_ID 2650
CH$NAME: Metazachlor BH 479-11
CH$NAME: Metazachlor metabolite M11
CH$NAME: N-(2,6-dimethylphenyl)-2-methylsulfinyl-N-(pyrazol-1-ylmethyl)acetamide
CH$COMPOUND_CLASS: N/A; Environmental Standard
CH$FORMULA: C15H19N3O2S
CH$EXACT_MASS: 305.1197978
CH$SMILES: CC1=CC=CC(C)=C1N(CN1C=CC=N1)C(=O)CS(C)=O
CH$IUPAC: InChI=1S/C15H19N3O2S/c1-12-6-4-7-13(2)15(12)18(14(19)10-21(3)20)11-17-9-5-8-16-17/h4-9H,10-11H2,1-3H3
CH$LINK: PUBCHEM CID:51071993
CH$LINK: INCHIKEY GFGYMDAFJMPNCC-UHFFFAOYSA-N
CH$LINK: CHEMSPIDER 26470876
AC$INSTRUMENT: Bruker maXis Impact
AC$INSTRUMENT_TYPE: LC-ESI-QTOF
AC$MASS_SPECTROMETRY: MS_TYPE MS2
AC$MASS_SPECTROMETRY: ION_MODE POSITIVE
AC$MASS_SPECTROMETRY: IONIZATION ESI
AC$MASS_SPECTROMETRY: FRAGMENTATION_MODE CID
AC$MASS_SPECTROMETRY: COLLISION_ENERGY 50 eV
AC$MASS_SPECTROMETRY: RESOLUTION 35000
AC$CHROMATOGRAPHY: COLUMN_NAME Acclaim RSLC C18 2.2um, 2.1x100mm, Thermo
AC$CHROMATOGRAPHY: FLOW_GRADIENT 99/1 at 0-1 min, 61/39 at 3 min, 0.1/99.9 at 14-16 min, 99/1 at 16.1-20 min
AC$CHROMATOGRAPHY: FLOW_RATE 200 uL/min at 0-3 min, 400 uL/min at 14 min, 480 uL/min at 16-19 min, 200 uL/min at 19.1-20 min
AC$CHROMATOGRAPHY: RETENTION_TIME 5.570 min
AC$CHROMATOGRAPHY: SOLVENT A 90:10 water:methanol with 0.01% formic acid and 5mM ammonium formate
AC$CHROMATOGRAPHY: SOLVENT B methanol with 0.01% formic acid and 5mM ammonium formate
MS$FOCUSED_ION: BASE_PEAK 306.127
MS$FOCUSED_ION: PRECURSOR_M/Z 306.1271
MS$FOCUSED_ION: PRECURSOR_TYPE [M+H]+
MS$DATA_PROCESSING: RECALIBRATE identity on assigned fragments and MS1
MS$DATA_PROCESSING: WHOLE RMassBank 2.10.1
PK$SPLASH: splash10-001i-0900000000-85c13222c0b63be7731a
PK$ANNOTATION: m/z tentative_formula formula_count mass error(ppm)
  117.0565 H11N3O2S+ 2 117.0566 -1.14
  118.0638 H12N3O2S+ 3 118.0645 -5.88
  119.0718 H13N3O2S+ 3 119.0723 -3.94
  132.0795 CH14N3O2S+ 3 132.0801 -4.39
  133.0857 C4H11N3O2+ 3 133.0846 8.08
  134.0953 C9H12N+ 3 134.0964 -8.54
  135.0984 C8[13]CH12N+ 1 135.1003 -14.09
  156.0793 C3H14N3O2S+ 3 156.0801 -5.36
  160.074 C10H10NO+ 1 160.0757 -10.85
  175.0971 C11H13NO+ 1 175.0992 -11.8
PK$NUM_PEAK: 10
PK$PEAK: m/z int. rel.int.
  117.0565 11564 13
  118.0638 7500 8
  119.0718 6008 6
  132.0795 67524 76
  133.0857 12376 13
  134.0953 884908 999
  135.0984 87408 98
  156.0793 17012 19
  160.074 9724 10
  175.0971 5664 6
//
