ACCESSION: MSBNK-Athens_Univ-AU218904
RECORD_TITLE: Repaglinide; LC-ESI-QTOF; MS2; CE: 40 eV; R=35000; [M+H]+
DATE: 2016.02.22
AUTHORS: Nikiforos Alygizakis, Reza Aalizadeh, Nikolaos Thomaidis, University of Athens
LICENSE: CC BY
COPYRIGHT: Copyright (C) 2016 Department of Chemistry, University of Athens
COMMENT: CONFIDENCE standard compound
COMMENT: INTERNAL_ID 2189
CH$NAME: Repaglinide
CH$NAME: 2-ethoxy-4-[2-[[(1S)-3-methyl-1-(2-piperidin-1-ylphenyl)butyl]amino]-2-oxoethyl]benzoic acid
CH$COMPOUND_CLASS: N/A; Environmental Standard
CH$FORMULA: C27H36N2O4
CH$EXACT_MASS: 452.2675076
CH$SMILES: CCOc1cc(ccc1C(=O)O)CC(=O)N[C@@H](CC(C)C)c2ccccc2N3CCCCC3
CH$IUPAC: InChI=1S/C27H36N2O4/c1-4-33-25-17-20(12-13-22(25)27(31)32)18-26(30)28-23(16-19(2)3)21-10-6-7-11-24(21)29-14-8-5-9-15-29/h6-7,10-13,17,19,23H,4-5,8-9,14-16,18H2,1-3H3,(H,28,30)(H,31,32)/t23-/m0/s1
CH$LINK: CAS 135062-02-1
CH$LINK: CHEBI CHEBI:8805
CH$LINK: KEGG D00594
CH$LINK: PUBCHEM CID:65981
CH$LINK: INCHIKEY FAEKWTJYAYMJKF-QHCPKHFHSA-N
CH$LINK: CHEMSPIDER 59377
CH$LINK: COMPTOX DTXSID3023552
AC$INSTRUMENT: Bruker maXis Impact
AC$INSTRUMENT_TYPE: LC-ESI-QTOF
AC$MASS_SPECTROMETRY: MS_TYPE MS2
AC$MASS_SPECTROMETRY: ION_MODE POSITIVE
AC$MASS_SPECTROMETRY: IONIZATION ESI
AC$MASS_SPECTROMETRY: FRAGMENTATION_MODE CID
AC$MASS_SPECTROMETRY: COLLISION_ENERGY 40 eV
AC$MASS_SPECTROMETRY: RESOLUTION 35000
AC$CHROMATOGRAPHY: COLUMN_NAME Acclaim RSLC C18 2.2um, 2.1x100mm, Thermo
AC$CHROMATOGRAPHY: FLOW_GRADIENT 99/1 at 0-1 min, 61/39 at 3 min, 0.1/99.9 at 14-16 min, 99/1 at 16.1-20 min
AC$CHROMATOGRAPHY: FLOW_RATE 200 uL/min at 0-3 min, 400 uL/min at 14 min, 480 uL/min at 16-19 min, 200 uL/min at 19.1-20 min
AC$CHROMATOGRAPHY: RETENTION_TIME 12.104 min
AC$CHROMATOGRAPHY: SOLVENT A 90:10 water:methanol with 0.01% formic acid and 5mM ammonium formate
AC$CHROMATOGRAPHY: SOLVENT B methanol with 0.01% formic acid and 5mM ammonium formate
MS$FOCUSED_ION: BASE_PEAK 453.2789
MS$FOCUSED_ION: PRECURSOR_M/Z 453.2748
MS$FOCUSED_ION: PRECURSOR_TYPE [M+H]+
MS$DATA_PROCESSING: RECALIBRATE identity on assigned fragments and MS1
MS$DATA_PROCESSING: WHOLE RMassBank 1.99.10
PK$SPLASH: splash10-001i-0290000000-bdb018b622ca04e9d8b1
PK$ANNOTATION: m/z tentative_formula formula_count mass error(ppm)
  146.0971 C10H12N+ 2 146.0964 4.52
  162.1287 C11H16N+ 2 162.1277 5.87
  163.132 C10[13]CH16N+ 1 163.1316 2.41
  172.1131 C12H14N+ 2 172.1121 5.99
  174.1289 C12H16N+ 2 174.1277 6.65
  175.1319 C11[13]CH16N+ 1 175.1316 1.62
  179.0714 C10H11O3+ 2 179.0703 6.31
  202.16 C14H20N+ 2 202.159 4.67
  230.193 C16H24N+ 2 230.1903 11.61
  231.1956 C13H27O3+ 2 231.1955 0.67
  232.1987 C12[13]CH27O3+ 1 232.1994 -3.01
PK$NUM_PEAK: 11
PK$PEAK: m/z int. rel.int.
  146.0971 45352 18
  162.1287 321604 128
  163.132 33608 13
  172.1131 19952 7
  174.1289 258856 103
  175.1319 29588 11
  179.0714 26408 10
  202.16 14940 5
  230.193 2508164 999
  231.1956 606340 241
  232.1987 34368 13
//
