ACCESSION: MSBNK-Athens_Univ-AU503601
RECORD_TITLE: 2,4-Di-tert-butyl-phenol; GC-APCI-QTOF; MS2; CE: 10 eV; R=35000; [M+H]+
DATE: 2021.04.19
AUTHORS: Chrysoula Kanakaki, Nikiforos Alygizakis, Nikolaos Thomaidis, University of Athens
LICENSE: CC BY
COPYRIGHT: Copyright (C) 2021 Department of Chemistry, University of Athens
COMMENT: CONFIDENCE standard compound
COMMENT: INTERNAL_ID 5036
CH$NAME: 2,4-Di-tert-butyl-phenol
CH$COMPOUND_CLASS: N/A; Food Contact Material
CH$FORMULA: C14H22O
CH$EXACT_MASS: 206.1671
CH$SMILES: CC(C)(C)C1=CC(=C(C=C1)O)C(C)(C)C
CH$IUPAC: InChI=1S/C14H22O/c1-13(2,3)10-7-8-12(15)11(9-10)14(4,5)6/h7-9,15H,1-6H3
CH$LINK: CAS 96-76-4
CH$LINK: PUBCHEM CID:7311
CH$LINK: INCHIKEY ICKWICRCANNIBI-UHFFFAOYSA-N
CH$LINK: CHEMSPIDER 7037
AC$INSTRUMENT: Bruker 450 GC coupled to maXis Impact
AC$INSTRUMENT_TYPE: GC-APCI-QTOF
AC$MASS_SPECTROMETRY: MS_TYPE MS2
AC$MASS_SPECTROMETRY: ION_MODE POSITIVE
AC$MASS_SPECTROMETRY: IONIZATION APCI
AC$MASS_SPECTROMETRY: FRAGMENTATION_MODE CID
AC$MASS_SPECTROMETRY: COLLISION_ENERGY 10 eV
AC$MASS_SPECTROMETRY: RESOLUTION 35000
AC$CHROMATOGRAPHY: COLUMN_NAME Rxi-5Sil MS column, 30m, 0.25mm i.d., 0.25µm film thickness, Restek
AC$CHROMATOGRAPHY: COLUMN_TEMPERATURE_GRADIENT 55oC at 0 min, 55oC at 3 min, 180oC at 11.33 min with 15oC/min, 280oC at 26.72 min with 6.5oC/min, 280oC at 31.72 min, 300oC at 33.72 min with 10oC/min, 300oC at 39 min
AC$CHROMATOGRAPHY: FLOW_RATE 1.5 mL/min
AC$CHROMATOGRAPHY: RETENTION_TIME 15.221 min
AC$CHROMATOGRAPHY: SOLVENT A Helium
MS$FOCUSED_ION: BASE_PEAK 200.202
MS$FOCUSED_ION: PRECURSOR_M/Z 207.1743
MS$FOCUSED_ION: PRECURSOR_TYPE [M+H]+
MS$DATA_PROCESSING: RECALIBRATE identity on assigned fragments and MS1
MS$DATA_PROCESSING: WHOLE RMassBank 2.16.0
PK$SPLASH: splash10-0a4i-0290000000-18233b6e2c6c5401db53
PK$ANNOTATION: m/z tentative_formula formula_count mass error(ppm)
  147.1193 C11H15+ 1 147.1168 16.48
  207.1765 C14H23O+ 1 207.1743 10.27
PK$NUM_PEAK: 2
PK$PEAK: m/z int. rel.int.
  147.1193 100 320
  207.1765 312 999
//
