ACCESSION: MSBNK-Athens_Univ-AU246202
RECORD_TITLE: 4-Amino-N,N-dimethylbenzenesulfonamide; LC-ESI-QTOF; MS2; CE: 20 eV; R=35000; [M+H]+
DATE: 2019.04.05
AUTHORS: Nikiforos Alygizakis, Katerina Galani, Nikolaos Thomaidis, University of Athens
LICENSE: CC BY
COPYRIGHT: Copyright (C) 2019 Department of Chemistry, University of Athens
COMMENT: CONFIDENCE standard compound
COMMENT: INTERNAL_ID 2462
CH$NAME: 4-Amino-N,N-dimethylbenzenesulfonamide
CH$NAME: 4-amino-N,N-dimethylbenzenesulfonamide
CH$COMPOUND_CLASS: N/A; Environmental Standard
CH$FORMULA: C8H12N2O2S
CH$EXACT_MASS: 200.0619486
CH$SMILES: CN(C)S(=O)(=O)C1=CC=C(N)C=C1
CH$IUPAC: InChI=1S/C8H12N2O2S/c1-10(2)13(11,12)8-5-3-7(9)4-6-8/h3-6H,9H2,1-2H3
CH$LINK: CAS 1709-59-7
CH$LINK: PUBCHEM CID:74369
CH$LINK: INCHIKEY BABGMPQXLCJMSK-UHFFFAOYSA-N
CH$LINK: CHEMSPIDER 66962
CH$LINK: COMPTOX DTXSID5061902
AC$INSTRUMENT: Bruker maXis Impact
AC$INSTRUMENT_TYPE: LC-ESI-QTOF
AC$MASS_SPECTROMETRY: MS_TYPE MS2
AC$MASS_SPECTROMETRY: ION_MODE POSITIVE
AC$MASS_SPECTROMETRY: IONIZATION ESI
AC$MASS_SPECTROMETRY: FRAGMENTATION_MODE CID
AC$MASS_SPECTROMETRY: COLLISION_ENERGY 20 eV
AC$MASS_SPECTROMETRY: RESOLUTION 35000
AC$CHROMATOGRAPHY: COLUMN_NAME Acclaim RSLC C18 2.2um, 2.1x100mm, Thermo
AC$CHROMATOGRAPHY: FLOW_GRADIENT 99/1 at 0-1 min, 61/39 at 3 min, 0.1/99.9 at 14-16 min, 99/1 at 16.1-20 min
AC$CHROMATOGRAPHY: FLOW_RATE 200 uL/min at 0-3 min, 400 uL/min at 14 min, 480 uL/min at 16-19 min, 200 uL/min at 19.1-20 min
AC$CHROMATOGRAPHY: RETENTION_TIME 4.383 min
AC$CHROMATOGRAPHY: SOLVENT A 90:10 water:methanol with 0.01% formic acid and 5mM ammonium formate
AC$CHROMATOGRAPHY: SOLVENT B methanol with 0.01% formic acid and 5mM ammonium formate
MS$FOCUSED_ION: BASE_PEAK 201.0688
MS$FOCUSED_ION: PRECURSOR_M/Z 201.0692
MS$FOCUSED_ION: PRECURSOR_TYPE [M+H]+
MS$DATA_PROCESSING: RECALIBRATE identity on assigned fragments and MS1
MS$DATA_PROCESSING: WHOLE RMassBank 2.10.1
PK$SPLASH: splash10-0a4i-0900000000-dc3496e0fab4d94d9610
PK$ANNOTATION: m/z tentative_formula formula_count mass error(ppm)
  108.045 C6H6NO+ 1 108.0444 5.66
  156.0107 C6H6NO2S+ 1 156.0114 -4.36
  157.0136 C5[13]CH6NO2S+ 1 157.0153 -10.65
  158.0071 C6H6NO2[34]S+ 1 158.0077 -4.1
  201.0674 C8H13N2O2S+ 1 201.0692 -8.97
PK$NUM_PEAK: 5
PK$PEAK: m/z int. rel.int.
  108.045 1364 10
  156.0107 125572 999
  157.0136 9764 77
  158.0071 4832 38
  201.0674 720 5
//
