ACCESSION: MSBNK-Athens_Univ-AU234760
RECORD_TITLE: 2-Hydroxycarbamazepine; LC-ESI-QTOF; MS2; CE: 40 eV; R=35000; [M-H]-
DATE: 2019.03.28
AUTHORS: Nikiforos Alygizakis, Katerina Galani, Nikolaos Thomaidis, University of Athens
LICENSE: CC BY
COPYRIGHT: Copyright (C) 2019 Department of Chemistry, University of Athens
COMMENT: CONFIDENCE standard compound
COMMENT: INTERNAL_ID 2347
CH$NAME: 2-Hydroxycarbamazepine
CH$NAME: 3-hydroxybenzo[b][1]benzazepine-11-carboxamide
CH$COMPOUND_CLASS: N/A; Environmental Standard
CH$FORMULA: C15H12N2O2
CH$EXACT_MASS: 252.0898776
CH$SMILES: NC(=O)N1C2=CC=CC=C2C=CC2=CC(O)=CC=C12
CH$IUPAC: InChI=1S/C15H12N2O2/c16-15(19)17-13-4-2-1-3-10(13)5-6-11-9-12(18)7-8-14(11)17/h1-9,18H,(H2,16,19)
CH$LINK: CAS 68011-66-5
CH$LINK: CHEBI CHEBI:80596
CH$LINK: KEGG C16601
CH$LINK: PUBCHEM CID:129274
CH$LINK: INCHIKEY VPZIYMMSJFWLSP-UHFFFAOYSA-N
CH$LINK: CHEMSPIDER 114505
CH$LINK: COMPTOX DTXSID20218201
AC$INSTRUMENT: Bruker maXis Impact
AC$INSTRUMENT_TYPE: LC-ESI-QTOF
AC$MASS_SPECTROMETRY: MS_TYPE MS2
AC$MASS_SPECTROMETRY: ION_MODE NEGATIVE
AC$MASS_SPECTROMETRY: IONIZATION ESI
AC$MASS_SPECTROMETRY: FRAGMENTATION_MODE CID
AC$MASS_SPECTROMETRY: COLLISION_ENERGY 40 eV
AC$MASS_SPECTROMETRY: RESOLUTION 35000
AC$CHROMATOGRAPHY: COLUMN_NAME Acclaim RSLC C18 2.2um, 2.1x100mm, Thermo
AC$CHROMATOGRAPHY: FLOW_GRADIENT 99/1 at 0-1 min, 61/39 at 3 min, 0.1/99.9 at 14-16 min, 99/1 at 16.1-20 min
AC$CHROMATOGRAPHY: FLOW_RATE 200 uL/min at 0-3 min, 400 uL/min at 14 min, 480 uL/min at 16-19 min, 200 uL/min at 19.1-20 min
AC$CHROMATOGRAPHY: RETENTION_TIME 5.994 min
AC$CHROMATOGRAPHY: SOLVENT A 90:10 water:methanol with 5mM ammonium acetate
AC$CHROMATOGRAPHY: SOLVENT B methanol with 5mM ammonium acetate
MS$FOCUSED_ION: BASE_PEAK 251.0818
MS$FOCUSED_ION: PRECURSOR_M/Z 251.0826
MS$FOCUSED_ION: PRECURSOR_TYPE [M-H]-
MS$DATA_PROCESSING: RECALIBRATE identity on assigned fragments and MS1
MS$DATA_PROCESSING: WHOLE RMassBank 2.10.0
PK$SPLASH: splash10-066r-0940000000-cf2229156bcd2c500405
PK$ANNOTATION: m/z tentative_formula formula_count mass error(ppm)
  165.0704 C13H9- 2 165.071 -3.4
  166.0653 C12H8N- 1 166.0662 -5.36
  167.0692 C11[13]CH8N- 1 167.069 1.09
  180.079 C13H10N- 1 180.0819 -16.04
  181.0541 C12H7NO- 1 181.0533 4.36
  207.068 C14H9NO- 1 207.069 -4.71
  208.0751 C14H10NO- 1 208.0768 -8.12
PK$NUM_PEAK: 7
PK$PEAK: m/z int. rel.int.
  165.0704 640 283
  166.0653 2252 999
  167.0692 404 179
  180.079 988 438
  181.0541 348 154
  207.068 1572 697
  208.0751 936 415
//
