ACCESSION: MSBNK-Athens_Univ-AU279601
RECORD_TITLE: Indole-3-acetic acid; LC-ESI-QTOF; MS2; CE: 10 eV; R=35000; [M+H]+
DATE: 2019.05.31
AUTHORS: Nikiforos Alygizakis, Katerina Galani, Nikolaos Thomaidis, University of Athens
LICENSE: CC BY
COPYRIGHT: Copyright (C) 2019 Department of Chemistry, University of Athens
COMMENT: CONFIDENCE standard compound
COMMENT: INTERNAL_ID 2796
CH$NAME: Indole-3-acetic acid
CH$NAME: 2-(1H-indol-3-yl)acetic acid
CH$COMPOUND_CLASS: N/A; Environmental Standard
CH$FORMULA: C10H9NO2
CH$EXACT_MASS: 175.0633285
CH$SMILES: OC(=O)CC1=CNC2=CC=CC=C12
CH$IUPAC: InChI=1S/C10H9NO2/c12-10(13)5-7-6-11-9-4-2-1-3-8(7)9/h1-4,6,11H,5H2,(H,12,13)
CH$LINK: CAS 87-51-4
CH$LINK: CHEBI CHEBI:16411
CH$LINK: KEGG C00954
CH$LINK: PUBCHEM CID:802
CH$LINK: INCHIKEY SEOVTRFCIGRIMH-UHFFFAOYSA-N
CH$LINK: CHEMSPIDER 780
CH$LINK: COMPTOX DTXSID5020738
AC$INSTRUMENT: Bruker maXis Impact
AC$INSTRUMENT_TYPE: LC-ESI-QTOF
AC$MASS_SPECTROMETRY: MS_TYPE MS2
AC$MASS_SPECTROMETRY: ION_MODE POSITIVE
AC$MASS_SPECTROMETRY: IONIZATION ESI
AC$MASS_SPECTROMETRY: FRAGMENTATION_MODE CID
AC$MASS_SPECTROMETRY: COLLISION_ENERGY 10 eV
AC$MASS_SPECTROMETRY: RESOLUTION 35000
AC$CHROMATOGRAPHY: COLUMN_NAME Acclaim RSLC C18 2.2um, 2.1x100mm, Thermo
AC$CHROMATOGRAPHY: FLOW_GRADIENT 99/1 at 0-1 min, 61/39 at 3 min, 0.1/99.9 at 14-16 min, 99/1 at 16.1-20 min
AC$CHROMATOGRAPHY: FLOW_RATE 200 uL/min at 0-3 min, 400 uL/min at 14 min, 480 uL/min at 16-19 min, 200 uL/min at 19.1-20 min
AC$CHROMATOGRAPHY: RETENTION_TIME 5.781 min
AC$CHROMATOGRAPHY: SOLVENT A 90:10 water:methanol with 0.01% formic acid and 5mM ammonium formate
AC$CHROMATOGRAPHY: SOLVENT B methanol with 0.01% formic acid and 5mM ammonium formate
MS$FOCUSED_ION: BASE_PEAK 176.0695
MS$FOCUSED_ION: PRECURSOR_M/Z 176.0706
MS$FOCUSED_ION: PRECURSOR_TYPE [M+H]+
MS$DATA_PROCESSING: RECALIBRATE identity on assigned fragments and MS1
MS$DATA_PROCESSING: WHOLE RMassBank 2.10.1
PK$SPLASH: splash10-003r-0900000000-340b77a2a4a74cf456f7
PK$ANNOTATION: m/z tentative_formula formula_count mass error(ppm)
  130.0639 C9H8N+ 1 130.0651 -9.63
  131.0672 C8[13]CH8N+ 1 131.069 -13.65
  176.0693 C10H10NO2+ 1 176.0706 -7.48
  177.0725 C9[13]CH10NO2+ 1 177.0745 -11.55
PK$NUM_PEAK: 4
PK$PEAK: m/z int. rel.int.
  130.0639 36232 999
  131.0672 3884 107
  176.0693 20276 559
  177.0725 3064 84
//
