ACCESSION: MSBNK-Athens_Univ-AU508556
RECORD_TITLE: 6-Chloroperfluorohexylphosphonic acid (Cl-PFHxPA); LC-ESI-QTOF; MS2; CE: 23.9-35.8 eV; R=35000; [M-H]-
DATE: 2023.04.25
AUTHORS: Konstantina Diamanti, Georgios Gkotsis, Nikiforos Alygizakis, Nikolaos Thomaidis
LICENSE: CC BY
COPYRIGHT: Copyright (C) 2023 Department of Chemistry, University of Athens
COMMENT: CONFIDENCE standard compound
COMMENT: INTERNAL_ID 5085
CH$NAME: 6-Chloroperfluorohexylphosphonic acid (Cl-PFHxPA)
CH$COMPOUND_CLASS: N/A; Environmental Standard
CH$FORMULA: C6H2ClF12O3P
CH$EXACT_MASS: 415.9238
CH$SMILES: OP(O)(=O)C(F)(F)C(F)(F)C(F)(F)C(F)(F)C(F)(F)C(F)(F)Cl
CH$IUPAC: InChI=1S/C6H2ClF12O3P/c7-5(16,17)3(12,13)1(8,9)2(10,11)4(14,15)6(18,19)23(20,21)22/h(H2,20,21,22)
CH$LINK: INCHIKEY SSYJCIUXWUSGKG-UHFFFAOYSA-N
CH$LINK: CHEMSPIDER 95666959
AC$INSTRUMENT: Bruker maXis Impact
AC$INSTRUMENT_TYPE: LC-ESI-QTOF
AC$MASS_SPECTROMETRY: MS_TYPE MS2
AC$MASS_SPECTROMETRY: MODE NEGATIVE
AC$MASS_SPECTROMETRY: IONIZATION ESI
AC$MASS_SPECTROMETRY: FRAGMENTATION_MODE CID
AC$MASS_SPECTROMETRY: COLLISION_ENERGY 23.9-35.8 eV
AC$MASS_SPECTROMETRY: RESOLUTION 35000
AC$MASS_SPECTROMETRY: MASS_RANGE_M/Z 50-1000
AC$CHROMATOGRAPHY: COLUMN_NAME Acclaim RSLC C18 2.2um, 2.1x100mm, Thermo
AC$CHROMATOGRAPHY: FLOW_GRADIENT 99/1 at 0-1 min, 61/39 at 3 min, 0.1/99.9 at 14-16 min, 99/1 at 16.1-20 min
AC$CHROMATOGRAPHY: FLOW_RATE 200 uL/min at 0-3 min, 400 uL/min at 14 min, 480 uL/min at 16-19 min, 200 uL/min at 19.1-20 min
AC$CHROMATOGRAPHY: RETENTION_TIME 7.018 min
MS$FOCUSED_ION: BASE_PEAK 59.0129
MS$FOCUSED_ION: PRECURSOR_M/Z 414.9166
MS$FOCUSED_ION: PRECURSOR_TYPE [M-H]-
MS$DATA_PROCESSING: RECALIBRATE identity on assigned fragments and MS1
MS$DATA_PROCESSING: WHOLE RMassBank 3.9.0
PK$SPLASH: splash10-004i-9000200000-ba2b3d4762ff02ad57b3
PK$ANNOTATION: m/z tentative_formula formula_count mass error(ppm)
  78.9579 O3P- 2 78.9591 -15.04
  414.919 C6HClF12O3P- 1 414.9166 5.9
PK$NUM_PEAK: 2
PK$PEAK: m/z int. rel.int.
  78.9579 4060 999
  414.919 992 244
//
