ACCESSION: MSBNK-Athens_Univ-AU226607
RECORD_TITLE: Vildagliptin; LC-ESI-QTOF; MS2; HILIC; CE: 10 eV; R=35000; [M+H]+
DATE: 2016.02.26
AUTHORS: Nikiforos Alygizakis, Nikolaos Thomaidis, University of Athens
LICENSE: CC BY
COPYRIGHT: Copyright (C) 2016 Department of Chemistry, University of Athens
COMMENT: CONFIDENCE standard compound
COMMENT: INTERNAL_ID 2266
CH$NAME: Vildagliptin
CH$NAME: (2S)-1-[2-[(3-hydroxy-1-adamantyl)amino]acetyl]pyrrolidine-2-carbonitrile
CH$COMPOUND_CLASS: N/A; Environmental Standard
CH$FORMULA: C17H25N3O2
CH$EXACT_MASS: 303.1946770
CH$SMILES: C1C[C@H](N(C1)C(=O)CNC23CC4CC(C2)CC(C4)(C3)O)C#N
CH$IUPAC: InChI=1S/C17H25N3O2/c18-9-14-2-1-3-20(14)15(21)10-19-16-5-12-4-13(6-16)8-17(22,7-12)11-16/h12-14,19,22H,1-8,10-11H2/t12?,13?,14-,16?,17?/m0/s1
CH$LINK: CAS 274901-16-5
CH$LINK: PUBCHEM CID:6918537
CH$LINK: INCHIKEY SYOKIDBDQMKNDQ-XWTIBIIYSA-N
CH$LINK: CHEMSPIDER 5293734
CH$LINK: COMPTOX DTXSID80881091
AC$INSTRUMENT: Bruker maXis Impact
AC$INSTRUMENT_TYPE: LC-ESI-QTOF
AC$MASS_SPECTROMETRY: MS_TYPE MS2
AC$MASS_SPECTROMETRY: ION_MODE POSITIVE
AC$MASS_SPECTROMETRY: IONIZATION ESI
AC$MASS_SPECTROMETRY: FRAGMENTATION_MODE CID
AC$MASS_SPECTROMETRY: COLLISION_ENERGY 10 eV
AC$MASS_SPECTROMETRY: RESOLUTION 35000
AC$CHROMATOGRAPHY: COLUMN_NAME ACQUITY UPLC BEH Amide 1.7 um 2.1x100mm, Waters
AC$CHROMATOGRAPHY: FLOW_GRADIENT 0/100 at 0-2 min, 95/5 at 12 min, 95/5 at 17 min, 0/100 at 17.1, 0/100 at 25 min
AC$CHROMATOGRAPHY: FLOW_RATE 200 uL/min
AC$CHROMATOGRAPHY: RETENTION_TIME 6.644 min
AC$CHROMATOGRAPHY: SOLVENT A Water with 0.01% formic acid and 1mM ammonium formate
AC$CHROMATOGRAPHY: SOLVENT B Acetonitrile:Water 95:5 with 0.01% formic acid and 1mM ammonium formate
MS$FOCUSED_ION: BASE_PEAK 304.2048
MS$FOCUSED_ION: PRECURSOR_M/Z 304.202
MS$FOCUSED_ION: PRECURSOR_TYPE [M+H]+
MS$DATA_PROCESSING: RECALIBRATE identity on assigned fragments and MS1
MS$DATA_PROCESSING: WHOLE RMassBank 1.99.10
PK$SPLASH: splash10-0udi-0109000000-278e0a03db59373103cd
PK$ANNOTATION: m/z tentative_formula formula_count mass error(ppm)
  151.1127 C10H15O+ 2 151.1117 6.02
  154.0983 C9H14O2+ 2 154.0988 -3.35
  155.1013 C8[13]CH14O2+ 1 155.1027 -9.51
  304.2047 C17H26N3O2+ 1 304.202 8.94
  305.2076 C16[13]CH26N3O2+ 1 305.2059 5.85
  306.2104 C15[13]C2H26N3O2+ 1 306.2092 3.76
PK$NUM_PEAK: 6
PK$PEAK: m/z int. rel.int.
  151.1127 9920 5
  154.0983 267672 152
  155.1013 20976 11
  304.2047 1755504 999
  305.2076 331924 188
  306.2104 23264 13
//
