ACCESSION: MSBNK-Athens_Univ-AU244203
RECORD_TITLE: Tributylamine; LC-ESI-QTOF; MS2; CE: 30 eV; R=35000; [M+H]+
DATE: 2019.04.05
AUTHORS: Nikiforos Alygizakis, Katerina Galani, Nikolaos Thomaidis, University of Athens
LICENSE: CC BY
COPYRIGHT: Copyright (C) 2019 Department of Chemistry, University of Athens
COMMENT: CONFIDENCE standard compound
COMMENT: INTERNAL_ID 2442
CH$NAME: Tributylamine
CH$NAME: N,N-dibutylbutan-1-amine
CH$COMPOUND_CLASS: N/A; Environmental Standard
CH$FORMULA: C12H27N
CH$EXACT_MASS: 185.2143499
CH$SMILES: CCCCN(CCCC)CCCC
CH$IUPAC: InChI=1S/C12H27N/c1-4-7-10-13(11-8-5-2)12-9-6-3/h4-12H2,1-3H3
CH$LINK: CAS 102-82-9
CH$LINK: CHEBI CHEBI:38905
CH$LINK: PUBCHEM CID:7622
CH$LINK: INCHIKEY IMFACGCPASFAPR-UHFFFAOYSA-N
CH$LINK: CHEMSPIDER 7340
CH$LINK: COMPTOX DTXSID4026183
AC$INSTRUMENT: Bruker maXis Impact
AC$INSTRUMENT_TYPE: LC-ESI-QTOF
AC$MASS_SPECTROMETRY: MS_TYPE MS2
AC$MASS_SPECTROMETRY: ION_MODE POSITIVE
AC$MASS_SPECTROMETRY: IONIZATION ESI
AC$MASS_SPECTROMETRY: FRAGMENTATION_MODE CID
AC$MASS_SPECTROMETRY: COLLISION_ENERGY 30 eV
AC$MASS_SPECTROMETRY: RESOLUTION 35000
AC$CHROMATOGRAPHY: COLUMN_NAME Acclaim RSLC C18 2.2um, 2.1x100mm, Thermo
AC$CHROMATOGRAPHY: FLOW_GRADIENT 99/1 at 0-1 min, 61/39 at 3 min, 0.1/99.9 at 14-16 min, 99/1 at 16.1-20 min
AC$CHROMATOGRAPHY: FLOW_RATE 200 uL/min at 0-3 min, 400 uL/min at 14 min, 480 uL/min at 16-19 min, 200 uL/min at 19.1-20 min
AC$CHROMATOGRAPHY: RETENTION_TIME 5.069 min
AC$CHROMATOGRAPHY: SOLVENT A 90:10 water:methanol with 0.01% formic acid and 5mM ammonium formate
AC$CHROMATOGRAPHY: SOLVENT B methanol with 0.01% formic acid and 5mM ammonium formate
MS$FOCUSED_ION: BASE_PEAK 186.2204
MS$FOCUSED_ION: PRECURSOR_M/Z 186.2216
MS$FOCUSED_ION: PRECURSOR_TYPE [M+H]+
MS$DATA_PROCESSING: RECALIBRATE identity on assigned fragments and MS1
MS$DATA_PROCESSING: WHOLE RMassBank 2.10.1
PK$SPLASH: splash10-001r-0900000000-776dabe8362f9d5aa4c5
PK$ANNOTATION: m/z tentative_formula formula_count mass error(ppm)
  128.1418 C8H18N+ 1 128.1434 -12.21
  130.1579 C8H20N+ 1 130.159 -8.62
  131.161 C7[13]CH20N+ 1 131.1629 -14.76
  167.0735 C12H9N+ 1 167.073 3.46
  168.0801 C12H10N+ 1 168.0808 -3.83
  186.2203 C12H28N+ 1 186.2216 -6.91
PK$NUM_PEAK: 6
PK$PEAK: m/z int. rel.int.
  128.1418 880 157
  130.1579 5580 999
  131.161 568 101
  167.0735 532 95
  168.0801 388 69
  186.2203 5000 895
//
