ACCESSION: MSBNK-Athens_Univ-AU233859
RECORD_TITLE: Methiocarb-sulfoxide phenol; LC-ESI-QTOF; MS2; CE: 30 eV; R=35000; [M-H]-
DATE: 2019.03.28
AUTHORS: Nikiforos Alygizakis, Katerina Galani, Nikolaos Thomaidis, University of Athens
LICENSE: CC BY
COPYRIGHT: Copyright (C) 2019 Department of Chemistry, University of Athens
COMMENT: CONFIDENCE standard compound
COMMENT: INTERNAL_ID 2338
CH$NAME: Methiocarb-sulfoxide phenol
CH$NAME: Phenol, 3,5-dimethyl-4-(methylsulfinyl)-
CH$NAME: 3,5-dimethyl-4-methylsulfinylphenol
CH$COMPOUND_CLASS: N/A; Environmental Standard
CH$FORMULA: C9H12O2S
CH$EXACT_MASS: 184.0558006
CH$SMILES: CC1=CC(O)=CC(C)=C1S(C)=O
CH$IUPAC: InChI=1S/C9H12O2S/c1-6-4-8(10)5-7(2)9(6)12(3)11/h4-5,10H,1-3H3
CH$LINK: CAS 22454-92-8
CH$LINK: PUBCHEM CID:3029900
CH$LINK: INCHIKEY ZHBBDQFXEDCQFI-UHFFFAOYSA-N
CH$LINK: CHEMSPIDER 2295156
CH$LINK: COMPTOX DTXSID20865052
AC$INSTRUMENT: Bruker maXis Impact
AC$INSTRUMENT_TYPE: LC-ESI-QTOF
AC$MASS_SPECTROMETRY: MS_TYPE MS2
AC$MASS_SPECTROMETRY: ION_MODE NEGATIVE
AC$MASS_SPECTROMETRY: IONIZATION ESI
AC$MASS_SPECTROMETRY: FRAGMENTATION_MODE CID
AC$MASS_SPECTROMETRY: COLLISION_ENERGY 30 eV
AC$MASS_SPECTROMETRY: RESOLUTION 35000
AC$CHROMATOGRAPHY: COLUMN_NAME Acclaim RSLC C18 2.2um, 2.1x100mm, Thermo
AC$CHROMATOGRAPHY: FLOW_GRADIENT 99/1 at 0-1 min, 61/39 at 3 min, 0.1/99.9 at 14-16 min, 99/1 at 16.1-20 min
AC$CHROMATOGRAPHY: FLOW_RATE 200 uL/min at 0-3 min, 400 uL/min at 14 min, 480 uL/min at 16-19 min, 200 uL/min at 19.1-20 min
AC$CHROMATOGRAPHY: RETENTION_TIME 4.626 min
AC$CHROMATOGRAPHY: SOLVENT A 90:10 water:methanol with 5mM ammonium acetate
AC$CHROMATOGRAPHY: SOLVENT B methanol with 5mM ammonium acetate
MS$FOCUSED_ION: BASE_PEAK 168.0252
MS$FOCUSED_ION: PRECURSOR_M/Z 183.0485
MS$FOCUSED_ION: PRECURSOR_TYPE [M-H]-
MS$DATA_PROCESSING: RECALIBRATE identity on assigned fragments and MS1
MS$DATA_PROCESSING: WHOLE RMassBank 2.10.0
PK$SPLASH: splash10-0v4i-0900000000-18f0de8d2e804316d049
PK$ANNOTATION: m/z tentative_formula formula_count mass error(ppm)
  123.0278 C7H7S- 1 123.0274 3.24
  135.045 C8H7O2- 1 135.0452 -1.18
  138.0147 C7H6OS- 1 138.0145 1.58
  149.008 C8H5OS- 1 149.0067 9.14
  150.0135 C8H6OS- 1 150.0145 -6.25
  151.0225 C8H7OS- 1 151.0223 1.42
  167.0191 C8H7O2S- 1 167.0172 11.35
  168.024 C8H8O2S- 1 168.025 -6.25
PK$NUM_PEAK: 8
PK$PEAK: m/z int. rel.int.
  123.0278 3532 999
  135.045 920 260
  138.0147 368 104
  149.008 568 160
  150.0135 544 153
  151.0225 3460 978
  167.0191 520 147
  168.024 1740 492
//
