ACCESSION: MSBNK-Athens_Univ-AU314101
RECORD_TITLE: Simazine; LC-ESI-QTOF; MS2; CE: 40 eV; R=35000; [M+H]+
DATE: 2019.05.30
AUTHORS: Nikiforos Alygizakis, Katerina Galani, Nikolaos Thomaidis, University of Athens
LICENSE: CC BY
COPYRIGHT: Copyright (C) 2019 Department of Chemistry, University of Athens
COMMENT: CONFIDENCE standard compound
COMMENT: INTERNAL_ID 3141
CH$NAME: Simazine
CH$NAME: 6-chloro-2-N,4-N-diethyl-1,3,5-triazine-2,4-diamine
CH$COMPOUND_CLASS: N/A; Environmental Standard
CH$FORMULA: C7H12ClN5
CH$EXACT_MASS: 201.0781231
CH$SMILES: CCNC1=NC(NCC)=NC(Cl)=N1
CH$IUPAC: InChI=1S/C7H12ClN5/c1-3-9-6-11-5(8)12-7(13-6)10-4-2/h3-4H2,1-2H3,(H2,9,10,11,12,13)
CH$LINK: CAS 122-34-9
CH$LINK: CHEBI CHEBI:27496
CH$LINK: KEGG C11172
CH$LINK: PUBCHEM CID:5216
CH$LINK: INCHIKEY ODCWYMIRDDJXKW-UHFFFAOYSA-N
CH$LINK: CHEMSPIDER 5027
CH$LINK: COMPTOX DTXSID4021268
AC$INSTRUMENT: Bruker maXis Impact
AC$INSTRUMENT_TYPE: LC-ESI-QTOF
AC$MASS_SPECTROMETRY: MS_TYPE MS2
AC$MASS_SPECTROMETRY: ION_MODE POSITIVE
AC$MASS_SPECTROMETRY: IONIZATION ESI
AC$MASS_SPECTROMETRY: FRAGMENTATION_MODE CID
AC$MASS_SPECTROMETRY: COLLISION_ENERGY 40 eV
AC$MASS_SPECTROMETRY: RESOLUTION 35000
AC$CHROMATOGRAPHY: COLUMN_NAME Acclaim RSLC C18 2.2um, 2.1x100mm, Thermo
AC$CHROMATOGRAPHY: FLOW_GRADIENT 99/1 at 0-1 min, 61/39 at 3 min, 0.1/99.9 at 14-16 min, 99/1 at 16.1-20 min
AC$CHROMATOGRAPHY: FLOW_RATE 200 uL/min at 0-3 min, 400 uL/min at 14 min, 480 uL/min at 16-19 min, 200 uL/min at 19.1-20 min
AC$CHROMATOGRAPHY: RETENTION_TIME 7.439 min
AC$CHROMATOGRAPHY: SOLVENT A 90:10 water:methanol with 0.01% formic acid and 5mM ammonium formate
AC$CHROMATOGRAPHY: SOLVENT B methanol with 0.01% formic acid and 5mM ammonium formate
MS$FOCUSED_ION: BASE_PEAK 202.0853
MS$FOCUSED_ION: PRECURSOR_M/Z 202.0854
MS$FOCUSED_ION: PRECURSOR_TYPE [M+H]+
MS$DATA_PROCESSING: RECALIBRATE identity on assigned fragments and MS1
MS$DATA_PROCESSING: WHOLE RMassBank 2.10.1
PK$SPLASH: splash10-0002-0900000000-193b353094528674a7e1
PK$ANNOTATION: m/z tentative_formula formula_count mass error(ppm)
  131.048 C7H5N3+ 2 131.0478 1.26
  144.0552 C7H11ClN+ 1 144.0575 -15.34
  145.0635 C7H12ClN+ 1 145.0653 -12.39
  146.0664 C6[13]CH12ClN+ 1 146.0692 -19.09
  147.0705 C6H12ClN2+ 1 147.0684 14.66
PK$NUM_PEAK: 5
PK$PEAK: m/z int. rel.int.
  131.048 888 7
  144.0552 8640 76
  145.0635 112604 999
  146.0664 12300 109
  147.0705 868 7
//
