ACCESSION: MSBNK-Athens_Univ-AU594550
RECORD_TITLE: Perfluoropentanoic acid (PFPeA); LC-ESI-QTOF; MS2; CE: 10 eV; R=35000; [M-H]-
DATE: 2020.04.11
AUTHORS: Georgios Gkotsis, Maria-Christina Nika, Reza Aalizadeh, Nikolaos Thomaidis
LICENSE: CC BY
COPYRIGHT: Copyright (C) 2020 Department of Chemistry, University of Athens
COMMENT: CONFIDENCE standard compound
COMMENT: INTERNAL_ID 5945
CH$NAME: Perfluoropentanoic acid (PFPeA)
CH$NAME: Perfluorovaleric acid
CH$NAME: 2,2,3,3,4,4,5,5,5-nonafluoropentanoic acid
CH$COMPOUND_CLASS: N/A; Environmental Standard
CH$FORMULA: C5HF9O2
CH$EXACT_MASS: 263.9833
CH$SMILES: C(=O)(C(C(C(C(F)(F)F)(F)F)(F)F)(F)F)O
CH$IUPAC: InChI=1S/C5HF9O2/c6-2(7,1(15)16)3(8,9)4(10,11)5(12,13)14/h(H,15,16)
CH$LINK: CAS 2706-90-3
CH$LINK: CHEBI CHEBI:83491
CH$LINK: CHEMSPIDER 68426
CH$LINK: INCHIKEY CXZGQIAOTKWCDB-UHFFFAOYSA-N
CH$LINK: PUBCHEM CID:75921
AC$INSTRUMENT: Bruker maXis Impact
AC$INSTRUMENT_TYPE: LC-ESI-QTOF
AC$MASS_SPECTROMETRY: MS_TYPE MS2
AC$MASS_SPECTROMETRY: ION_MODE NEGATIVE
AC$MASS_SPECTROMETRY: IONIZATION ESI
AC$MASS_SPECTROMETRY: FRAGMENTATION_MODE CID
AC$MASS_SPECTROMETRY: COLLISION_ENERGY 10 eV
AC$MASS_SPECTROMETRY: RESOLUTION 35000
AC$CHROMATOGRAPHY: COLUMN_NAME Acclaim RSLC C18 2.2um, 2.1x100mm, Thermo
AC$CHROMATOGRAPHY: FLOW_GRADIENT 99/1 at 0-1 min, 61/39 at 3 min, 0.1/99.9 at 14-16 min, 99/1 at 16.1-20 min
AC$CHROMATOGRAPHY: FLOW_RATE 200 uL/min at 0-3 min, 400 uL/min at 14 min, 480 uL/min at 16-19 min, 200 uL/min at 19.1-20 min
AC$CHROMATOGRAPHY: RETENTION_TIME 6.439 min
AC$CHROMATOGRAPHY: SOLVENT A 90:10 water:methanol with 5mM ammonium acetate
AC$CHROMATOGRAPHY: SOLVENT B methanol with 5mM ammonium acetate
MS$FOCUSED_ION: BASE_PEAK 262.9757
MS$FOCUSED_ION: PRECURSOR_M/Z 262.976
MS$FOCUSED_ION: PRECURSOR_TYPE [M-H]-
MS$DATA_PROCESSING: RECALIBRATE identity on assigned fragments and MS1
MS$DATA_PROCESSING: WHOLE RMassBank 2.8.0
PK$SPLASH: splash10-014i-0090000000-5df85a4fddefc92f99fd
PK$NUM_PEAK: 2
PK$PEAK: m/z int. rel.int.
  218.9864 9488 999
  262.9759 412 43
//
