ACCESSION: MSBNK-Athens_Univ-AU509855
RECORD_TITLE: 2H-Perfluoro-2-decenoic acid (8:2) (FOUEA); LC-ESI-QTOF; MS2; CE: 50 eV; R=35000; [M-H]-
DATE: 2023.04.25
AUTHORS: Konstantina Diamanti, Georgios Gkotsis, Nikiforos Alygizakis, Nikolaos Thomaidis
LICENSE: CC BY
COPYRIGHT: Copyright (C) 2023 Department of Chemistry, University of Athens
COMMENT: CONFIDENCE standard compound
COMMENT: INTERNAL_ID 5098
CH$NAME: 2H-Perfluoro-2-decenoic acid (8:2) (FOUEA)
CH$NAME: 2-Decenoic acid, 3,4,4,5,5,6,6,7,7,8,8,9,9,10,10,10-hexadecafluoro-
CH$NAME: (Z)-3,4,4,5,5,6,6,7,7,8,8,9,9,10,10,10-hexadecafluorodec-2-enoic acid
CH$COMPOUND_CLASS: N/A; Environmental Standard
CH$FORMULA: C10H2F16O2
CH$EXACT_MASS: 457.9799
CH$SMILES: C(=C(/C(C(C(C(C(C(C(F)(F)F)(F)F)(F)F)(F)F)(F)F)(F)F)(F)F)\F)\C(=O)O
CH$IUPAC: InChI=1S/C10H2F16O2/c11-2(1-3(27)28)4(12,13)5(14,15)6(16,17)7(18,19)8(20,21)9(22,23)10(24,25)26/h1H,(H,27,28)/b2-1-
CH$LINK: CAS 70887-84-2
CH$LINK: CHEBI 83495
CH$LINK: PUBCHEM CID:11733192
CH$LINK: INCHIKEY WHZXTVOEGZRRJM-UPHRSURJSA-N
CH$LINK: CHEMSPIDER 9907905
AC$INSTRUMENT: Bruker maXis Impact
AC$INSTRUMENT_TYPE: LC-ESI-QTOF
AC$MASS_SPECTROMETRY: MS_TYPE MS2
AC$MASS_SPECTROMETRY: MODE NEGATIVE
AC$MASS_SPECTROMETRY: IONIZATION ESI
AC$MASS_SPECTROMETRY: FRAGMENTATION_MODE CID
AC$MASS_SPECTROMETRY: COLLISION_ENERGY 50 eV
AC$MASS_SPECTROMETRY: RESOLUTION 35000
AC$MASS_SPECTROMETRY: MASS_RANGE_M/Z 50-1000
AC$CHROMATOGRAPHY: COLUMN_NAME Acclaim RSLC C18 2.2um, 2.1x100mm, Thermo
AC$CHROMATOGRAPHY: FLOW_GRADIENT 99/1 at 0-1 min, 61/39 at 3 min, 0.1/99.9 at 14-16 min, 99/1 at 16.1-20 min
AC$CHROMATOGRAPHY: FLOW_RATE 200 uL/min at 0-3 min, 400 uL/min at 14 min, 480 uL/min at 16-19 min, 200 uL/min at 19.1-20 min
AC$CHROMATOGRAPHY: RETENTION_TIME 10.625 min
MS$FOCUSED_ION: BASE_PEAK 393.9794
MS$FOCUSED_ION: PRECURSOR_M/Z 456.9727
MS$FOCUSED_ION: PRECURSOR_TYPE [M-H]-
MS$DATA_PROCESSING: RECALIBRATE identity on assigned fragments and MS1
MS$DATA_PROCESSING: WHOLE RMassBank 3.9.0
PK$SPLASH: splash10-0006-0009000000-3ea5679220794f57dba7
PK$ANNOTATION: m/z tentative_formula formula_count mass error(ppm)
  392.9813 C6HF16O- 2 392.9777 9.19
  393.977 C9HF15- 2 393.9844 -18.81
PK$NUM_PEAK: 2
PK$PEAK: m/z int. rel.int.
  392.9813 416 999
  393.977 364 874
//
