ACCESSION: MSBNK-Athens_Univ-AU236762
RECORD_TITLE: Ethylparaben; LC-ESI-QTOF; MS2; CE: Ramp 18.6-27.9 eV; R=35000; [M-H]-
DATE: 2019.03.29
AUTHORS: Nikiforos Alygizakis, Katerina Galani, Nikolaos Thomaidis, University of Athens
LICENSE: CC BY
COPYRIGHT: Copyright (C) 2019 Department of Chemistry, University of Athens
COMMENT: CONFIDENCE standard compound
COMMENT: INTERNAL_ID 2367
CH$NAME: Ethylparaben
CH$NAME: ethyl 4-hydroxybenzoate
CH$COMPOUND_CLASS: N/A; Environmental Standard
CH$FORMULA: C9H10O3
CH$EXACT_MASS: 166.0629942
CH$SMILES: CCOC(=O)C1=CC=C(O)C=C1
CH$IUPAC: InChI=1S/C9H10O3/c1-2-12-9(11)7-3-5-8(10)6-4-7/h3-6,10H,2H2,1H3
CH$LINK: CAS 121-58-4
CH$LINK: CHEBI CHEBI:31575
CH$LINK: KEGG D01647
CH$LINK: PUBCHEM CID:8434
CH$LINK: INCHIKEY NUVBSKCKDOMJSU-UHFFFAOYSA-N
CH$LINK: CHEMSPIDER 13846749
CH$LINK: COMPTOX DTXSID9022528
AC$INSTRUMENT: Bruker maXis Impact
AC$INSTRUMENT_TYPE: LC-ESI-QTOF
AC$MASS_SPECTROMETRY: MS_TYPE MS2
AC$MASS_SPECTROMETRY: ION_MODE NEGATIVE
AC$MASS_SPECTROMETRY: IONIZATION ESI
AC$MASS_SPECTROMETRY: FRAGMENTATION_MODE CID
AC$MASS_SPECTROMETRY: COLLISION_ENERGY Ramp 18.6-27.9 eV
AC$MASS_SPECTROMETRY: RESOLUTION 35000
AC$CHROMATOGRAPHY: COLUMN_NAME Acclaim RSLC C18 2.2um, 2.1x100mm, Thermo
AC$CHROMATOGRAPHY: FLOW_GRADIENT 99/1 at 0-1 min, 61/39 at 3 min, 0.1/99.9 at 14-16 min, 99/1 at 16.1-20 min
AC$CHROMATOGRAPHY: FLOW_RATE 200 uL/min at 0-3 min, 400 uL/min at 14 min, 480 uL/min at 16-19 min, 200 uL/min at 19.1-20 min
AC$CHROMATOGRAPHY: RETENTION_TIME 7.299 min
AC$CHROMATOGRAPHY: SOLVENT A 90:10 water:methanol with 5mM ammonium acetate
AC$CHROMATOGRAPHY: SOLVENT B methanol with 5mM ammonium acetate
MS$FOCUSED_ION: BASE_PEAK 59.0132
MS$FOCUSED_ION: PRECURSOR_M/Z 165.0557
MS$FOCUSED_ION: PRECURSOR_TYPE [M-H]-
MS$DATA_PROCESSING: RECALIBRATE identity on assigned fragments and MS1
MS$DATA_PROCESSING: WHOLE RMassBank 2.10.0
PK$SPLASH: splash10-000i-0900000000-61c9ce673a8b8699f516
PK$ANNOTATION: m/z tentative_formula formula_count mass error(ppm)
  136.0162 C7H4O3- 1 136.0166 -2.99
  137.0256 C7H5O3- 1 137.0244 8.76
  165.0553 C9H9O3- 1 165.0557 -2.79
PK$NUM_PEAK: 3
PK$PEAK: m/z int. rel.int.
  136.0162 520 999
  137.0256 440 845
  165.0553 360 691
//
