ACCESSION: MSBNK-Athens_Univ-AU225709
RECORD_TITLE: Sitagliptin; LC-ESI-QTOF; MS2; HILIC; CE: 30 eV; R=35000; [M+H]+
DATE: 2016.02.26
AUTHORS: Nikiforos Alygizakis, Nikolaos Thomaidis, University of Athens
LICENSE: CC BY
COPYRIGHT: Copyright (C) 2016 Department of Chemistry, University of Athens
COMMENT: CONFIDENCE standard compound
COMMENT: INTERNAL_ID 2257
CH$NAME: Sitagliptin
CH$NAME: (3R)-3-amino-1-[3-(trifluoromethyl)-6,8-dihydro-5H-[1,2,4]triazolo[4,3-a]pyrazin-7-yl]-4-(2,4,5-trifluorophenyl)butan-1-one
CH$COMPOUND_CLASS: N/A; Environmental Standard
CH$FORMULA: C16H15F6N5O
CH$EXACT_MASS: 407.1180794
CH$SMILES: c1c(c(cc(c1F)F)F)C[C@H](CC(=O)N2CCn3c(nnc3C(F)(F)F)C2)N
CH$IUPAC: InChI=1S/C16H15F6N5O/c17-10-6-12(19)11(18)4-8(10)3-9(23)5-14(28)26-1-2-27-13(7-26)24-25-15(27)16(20,21)22/h4,6,9H,1-3,5,7,23H2/t9-/m1/s1
CH$LINK: CAS 486460-32-6
CH$LINK: CHEBI CHEBI:40237
CH$LINK: PUBCHEM CID:4369359
CH$LINK: INCHIKEY MFFMDFFZMYYVKS-SECBINFHSA-N
CH$LINK: CHEMSPIDER 3571948
CH$LINK: COMPTOX DTXSID70197572
AC$INSTRUMENT: Bruker maXis Impact
AC$INSTRUMENT_TYPE: LC-ESI-QTOF
AC$MASS_SPECTROMETRY: MS_TYPE MS2
AC$MASS_SPECTROMETRY: ION_MODE POSITIVE
AC$MASS_SPECTROMETRY: IONIZATION ESI
AC$MASS_SPECTROMETRY: FRAGMENTATION_MODE CID
AC$MASS_SPECTROMETRY: COLLISION_ENERGY 30 eV
AC$MASS_SPECTROMETRY: RESOLUTION 35000
AC$CHROMATOGRAPHY: COLUMN_NAME ACQUITY UPLC BEH Amide 1.7 um 2.1x100mm, Waters
AC$CHROMATOGRAPHY: FLOW_GRADIENT 0/100 at 0-2 min, 95/5 at 12 min, 95/5 at 17 min, 0/100 at 17.1, 0/100 at 25 min
AC$CHROMATOGRAPHY: FLOW_RATE 200 uL/min
AC$CHROMATOGRAPHY: RETENTION_TIME 6.295 min
AC$CHROMATOGRAPHY: SOLVENT A Water with 0.01% formic acid and 1mM ammonium formate
AC$CHROMATOGRAPHY: SOLVENT B Acetonitrile:Water 95:5 with 0.01% formic acid and 1mM ammonium formate
MS$FOCUSED_ION: BASE_PEAK 408.1287
MS$FOCUSED_ION: PRECURSOR_M/Z 408.1254
MS$FOCUSED_ION: PRECURSOR_TYPE [M+H]+
MS$DATA_PROCESSING: RECALIBRATE identity on assigned fragments and MS1
MS$DATA_PROCESSING: WHOLE RMassBank 1.99.10
PK$SPLASH: splash10-00du-0930000000-80a515b84356fda68996
PK$ANNOTATION: m/z tentative_formula formula_count mass error(ppm)
  127.0357 C7H5F2+ 3 127.0354 2.53
  138.0281 F4H4N3O+ 4 138.0285 -3
  154.0469 F4H6N4O+ 4 154.0472 -2.03
  171.0422 CH6F5N3O+ 5 171.0426 -2.25
  174.0534 F5H7N4O+ 5 174.0535 -0.17
  193.0708 C3H9F4N4O+ 4 193.0707 0.38
  194.0731 C2[13]CH9F4N4O+ 1 194.0746 -7.6
  199.0375 C10H6F3O+ 8 199.0365 4.77
  219.0503 C12H7F2NO+ 12 219.049 5.82
  235.0818 C13H11F2NO+ 12 235.0803 6.32
  236.084 C12[13]CH11F2NO+ 1 236.0842 -1.04
  237.0608 C15H8FNO+ 11 237.0584 9.86
  391.1018 C16H13F6N4O+ 1 391.0988 7.67
  392.1042 C15[13]CH13F6N4O+ 1 392.1027 3.73
  408.1276 C16H16F6N5O+ 1 408.1254 5.56
PK$NUM_PEAK: 15
PK$PEAK: m/z int. rel.int.
  127.0357 13700 27
  138.0281 5388 10
  154.0469 21144 42
  171.0422 12888 26
  174.0534 492612 999
  193.0708 413448 838
  194.0731 22592 45
  199.0375 3632 7
  219.0503 4208 8
  235.0818 351948 713
  236.084 26616 53
  237.0608 2800 5
  391.1018 33468 67
  392.1042 6472 13
  408.1276 9092 18
//
