ACCESSION: MSBNK-Athens_Univ-AU235602
RECORD_TITLE: Celecoxib; LC-ESI-QTOF; MS2; CE: 20 eV; R=35000; [M+H]+
DATE: 2019.05.30
AUTHORS: Nikiforos Alygizakis, Katerina Galani, Nikolaos Thomaidis, University of Athens
LICENSE: CC BY
COPYRIGHT: Copyright (C) 2019 Department of Chemistry, University of Athens
COMMENT: CONFIDENCE standard compound
COMMENT: INTERNAL_ID 2356
CH$NAME: Celecoxib
CH$NAME: 4-[5-(4-methylphenyl)-3-(trifluoromethyl)pyrazol-1-yl]benzenesulfonamide
CH$COMPOUND_CLASS: N/A; Environmental Standard
CH$FORMULA: C17H14F3N3O2S
CH$EXACT_MASS: 381.0758823
CH$SMILES: CC1=CC=C(C=C1)C1=CC(=NN1C1=CC=C(C=C1)S(N)(=O)=O)C(F)(F)F
CH$IUPAC: InChI=1S/C17H14F3N3O2S/c1-11-2-4-12(5-3-11)15-10-16(17(18,19)20)22-23(15)13-6-8-14(9-7-13)26(21,24)25/h2-10H,1H3,(H2,21,24,25)
CH$LINK: CAS 184007-95-2
CH$LINK: CHEBI CHEBI:41423
CH$LINK: KEGG C07589
CH$LINK: PUBCHEM CID:2662
CH$LINK: INCHIKEY RZEKVGVHFLEQIL-UHFFFAOYSA-N
CH$LINK: CHEMSPIDER 2562
CH$LINK: COMPTOX DTXSID0022777
AC$INSTRUMENT: Bruker maXis Impact
AC$INSTRUMENT_TYPE: LC-ESI-QTOF
AC$MASS_SPECTROMETRY: MS_TYPE MS2
AC$MASS_SPECTROMETRY: ION_MODE POSITIVE
AC$MASS_SPECTROMETRY: IONIZATION ESI
AC$MASS_SPECTROMETRY: FRAGMENTATION_MODE CID
AC$MASS_SPECTROMETRY: COLLISION_ENERGY 20 eV
AC$MASS_SPECTROMETRY: RESOLUTION 35000
AC$CHROMATOGRAPHY: COLUMN_NAME Acclaim RSLC C18 2.2um, 2.1x100mm, Thermo
AC$CHROMATOGRAPHY: FLOW_GRADIENT 99/1 at 0-1 min, 61/39 at 3 min, 0.1/99.9 at 14-16 min, 99/1 at 16.1-20 min
AC$CHROMATOGRAPHY: FLOW_RATE 200 uL/min at 0-3 min, 400 uL/min at 14 min, 480 uL/min at 16-19 min, 200 uL/min at 19.1-20 min
AC$CHROMATOGRAPHY: RETENTION_TIME 10.292 min
AC$CHROMATOGRAPHY: SOLVENT A 90:10 water:methanol with 0.01% formic acid and 5mM ammonium formate
AC$CHROMATOGRAPHY: SOLVENT B methanol with 0.01% formic acid and 5mM ammonium formate
MS$FOCUSED_ION: BASE_PEAK 382.0825
MS$FOCUSED_ION: PRECURSOR_M/Z 382.0832
MS$FOCUSED_ION: PRECURSOR_TYPE [M+H]+
MS$DATA_PROCESSING: RECALIBRATE identity on assigned fragments and MS1
MS$DATA_PROCESSING: WHOLE RMassBank 2.10.1
PK$SPLASH: splash10-001i-0009000000-8082964a3b04b6cf8a27
PK$ANNOTATION: m/z tentative_formula formula_count mass error(ppm)
  300.0895 C14H15F3N2S+ 7 300.0903 -2.49
  302.1011 C17H13F3N2+ 2 302.1025 -4.89
  303.1093 C17H14F3N2+ 2 303.1104 -3.42
  332.0777 C17H11F3N2O2+ 3 332.0767 3.1
  362.0775 C17H14F2N3O2S+ 1 362.0769 1.58
  363.0779 C16[13]CH14F2N3O2S+ 1 363.0808 -8.01
  382.0832 C17H15F3N3O2S+ 1 382.0832 -0.02
  383.0857 C16[13]CH15F3N3O2S+ 1 383.0871 -3.52
  384.0823 C17H15F3N3O2[34]S+ 1 384.0795 7.38
PK$NUM_PEAK: 9
PK$PEAK: m/z int. rel.int.
  300.0895 612 6
  302.1011 636 6
  303.1093 1672 18
  332.0777 616 6
  362.0775 2480 26
  363.0779 504 5
  382.0832 92544 999
  383.0857 20648 222
  384.0823 6012 64
//
