ACCESSION: MSBNK-Athens_Univ-AU246206
RECORD_TITLE: 4-Amino-N,N-dimethylbenzenesulfonamide; LC-ESI-QTOF; MS2; CE: Ramp 18.0-27.1 eV; R=35000; [M+H]+
DATE: 2019.04.08
AUTHORS: Nikiforos Alygizakis, Katerina Galani, Nikolaos Thomaidis, University of Athens
LICENSE: CC BY
COPYRIGHT: Copyright (C) 2019 Department of Chemistry, University of Athens
COMMENT: CONFIDENCE standard compound
COMMENT: INTERNAL_ID 2462
CH$NAME: 4-Amino-N,N-dimethylbenzenesulfonamide
CH$NAME: 4-amino-N,N-dimethylbenzenesulfonamide
CH$COMPOUND_CLASS: N/A; Environmental Standard
CH$FORMULA: C8H12N2O2S
CH$EXACT_MASS: 200.0619486
CH$SMILES: CN(C)S(=O)(=O)C1=CC=C(N)C=C1
CH$IUPAC: InChI=1S/C8H12N2O2S/c1-10(2)13(11,12)8-5-3-7(9)4-6-8/h3-6H,9H2,1-2H3
CH$LINK: CAS 1709-59-7
CH$LINK: PUBCHEM CID:74369
CH$LINK: INCHIKEY BABGMPQXLCJMSK-UHFFFAOYSA-N
CH$LINK: CHEMSPIDER 66962
CH$LINK: COMPTOX DTXSID5061902
AC$INSTRUMENT: Bruker maXis Impact
AC$INSTRUMENT_TYPE: LC-ESI-QTOF
AC$MASS_SPECTROMETRY: MS_TYPE MS2
AC$MASS_SPECTROMETRY: ION_MODE POSITIVE
AC$MASS_SPECTROMETRY: IONIZATION ESI
AC$MASS_SPECTROMETRY: FRAGMENTATION_MODE CID
AC$MASS_SPECTROMETRY: COLLISION_ENERGY Ramp 18.0-27.1 eV
AC$MASS_SPECTROMETRY: RESOLUTION 35000
AC$CHROMATOGRAPHY: COLUMN_NAME Acclaim RSLC C18 2.2um, 2.1x100mm, Thermo
AC$CHROMATOGRAPHY: FLOW_GRADIENT 99/1 at 0-1 min, 61/39 at 3 min, 0.1/99.9 at 14-16 min, 99/1 at 16.1-20 min
AC$CHROMATOGRAPHY: FLOW_RATE 200 uL/min at 0-3 min, 400 uL/min at 14 min, 480 uL/min at 16-19 min, 200 uL/min at 19.1-20 min
AC$CHROMATOGRAPHY: RETENTION_TIME 4.335 min
AC$CHROMATOGRAPHY: SOLVENT A 90:10 water:methanol with 0.01% formic acid and 5mM ammonium formate
AC$CHROMATOGRAPHY: SOLVENT B methanol with 0.01% formic acid and 5mM ammonium formate
MS$FOCUSED_ION: BASE_PEAK 201.0681
MS$FOCUSED_ION: PRECURSOR_M/Z 201.0692
MS$FOCUSED_ION: PRECURSOR_TYPE [M+H]+
MS$DATA_PROCESSING: RECALIBRATE identity on assigned fragments and MS1
MS$DATA_PROCESSING: WHOLE RMassBank 2.10.1
PK$SPLASH: splash10-0a4i-0900000000-fb11875fc98fae2493bc
PK$ANNOTATION: m/z tentative_formula formula_count mass error(ppm)
  65.0377 C5H5+ 1 65.0386 -13.29
  68.0484 C4H6N+ 1 68.0495 -15.24
  92.0503 C6H6N+ 1 92.0495 8.71
  108.0437 C6H6NO+ 1 108.0444 -6.27
  120.0562 C8H8O+ 1 120.057 -6.03
  156.0104 C6H6NO2S+ 1 156.0114 -6.07
  157.0116 C5[13]CH6NO2S+ 1 157.0153 -23.74
  158.0073 C6H6NO2[34]S+ 1 158.0077 -2.72
PK$NUM_PEAK: 8
PK$PEAK: m/z int. rel.int.
  65.0377 416 26
  68.0484 388 25
  92.0503 692 44
  108.0437 1328 85
  120.0562 380 24
  156.0104 15464 999
  157.0116 580 37
  158.0073 532 34
//
