ACCESSION: MSBNK-Athens_Univ-AU225151
RECORD_TITLE: Telmisartan; LC-ESI-QTOF; MS2; CE: 10 eV; R=35000; [M-H]-
DATE: 2016.02.25
AUTHORS: Nikiforos Alygizakis, Reza Aalizadeh, Nikolaos Thomaidis, University of Athens
LICENSE: CC BY
COPYRIGHT: Copyright (C) 2016 Department of Chemistry, University of Athens
COMMENT: CONFIDENCE standard compound
COMMENT: INTERNAL_ID 2251
CH$NAME: Telmisartan
CH$NAME: 2-[4-[[4-methyl-6-(1-methylbenzimidazol-2-yl)-2-propylbenzimidazol-1-yl]methyl]phenyl]benzoic acid
CH$COMPOUND_CLASS: N/A; Environmental Standard
CH$FORMULA: C33H30N4O2
CH$EXACT_MASS: 514.2368762
CH$SMILES: CCCc1nc2c(cc(cc2n1Cc3ccc(cc3)c4ccccc4C(=O)O)c5nc6ccccc6n5C)C
CH$IUPAC: InChI=1S/C33H30N4O2/c1-4-9-30-35-31-21(2)18-24(32-34-27-12-7-8-13-28(27)36(32)3)19-29(31)37(30)20-22-14-16-23(17-15-22)25-10-5-6-11-26(25)33(38)39/h5-8,10-19H,4,9,20H2,1-3H3,(H,38,39)
CH$LINK: CAS 144701-48-4
CH$LINK: CHEBI CHEBI:9434
CH$LINK: KEGG D00627
CH$LINK: PUBCHEM CID:65999
CH$LINK: INCHIKEY RMMXLENWKUUMAY-UHFFFAOYSA-N
CH$LINK: CHEMSPIDER 59391
CH$LINK: COMPTOX DTXSID8023636
AC$INSTRUMENT: Bruker maXis Impact
AC$INSTRUMENT_TYPE: LC-ESI-QTOF
AC$MASS_SPECTROMETRY: MS_TYPE MS2
AC$MASS_SPECTROMETRY: ION_MODE NEGATIVE
AC$MASS_SPECTROMETRY: IONIZATION ESI
AC$MASS_SPECTROMETRY: FRAGMENTATION_MODE CID
AC$MASS_SPECTROMETRY: COLLISION_ENERGY 10 eV
AC$MASS_SPECTROMETRY: RESOLUTION 35000
AC$CHROMATOGRAPHY: COLUMN_NAME Acclaim RSLC C18 2.2um, 2.1x100mm, Thermo
AC$CHROMATOGRAPHY: FLOW_GRADIENT 99/1 at 0-1 min, 61/39 at 3 min, 0.1/99.9 at 14-16 min, 99/1 at 16.1-20 min
AC$CHROMATOGRAPHY: FLOW_RATE 200 uL/min at 0-3 min, 400 uL/min at 14 min, 480 uL/min at 16-19 min, 200 uL/min at 19.1-20 min
AC$CHROMATOGRAPHY: RETENTION_TIME 9.597 min
AC$CHROMATOGRAPHY: SOLVENT A 90:10 water:methanol with 5mM ammonium acetate
AC$CHROMATOGRAPHY: SOLVENT B methanol with 5mM ammonium acetate
MS$FOCUSED_ION: BASE_PEAK 513.2235
MS$FOCUSED_ION: PRECURSOR_M/Z 513.2296
MS$FOCUSED_ION: PRECURSOR_TYPE [M-H]-
MS$DATA_PROCESSING: RECALIBRATE identity on assigned fragments and MS1
MS$DATA_PROCESSING: WHOLE RMassBank 1.99.10
PK$SPLASH: splash10-03di-0000090000-219191b231632ae82938
PK$ANNOTATION: m/z tentative_formula formula_count mass error(ppm)
  513.2249 C33H29N4O2- 1 513.2296 -9.11
  514.2258 C32[13]CH29N4O2- 1 514.2324 -12.77
PK$NUM_PEAK: 2
PK$PEAK: m/z int. rel.int.
  513.2249 2000 999
  514.2258 828 413
//
