ACCESSION: MSBNK-Athens_Univ-AU252703
RECORD_TITLE: Octyl-3,5-di-tert-butyl-4-hydroxyhydrocinnamate; LC-ESI-QTOF; MS2; CE: 30 eV; R=35000; [M+H]+
DATE: 2019.04.08
AUTHORS: Nikiforos Alygizakis, Katerina Galani, Nikolaos Thomaidis, University of Athens
LICENSE: CC BY
COPYRIGHT: Copyright (C) 2019 Department of Chemistry, University of Athens
COMMENT: CONFIDENCE standard compound
COMMENT: INTERNAL_ID 2527
CH$NAME: Octyl-3,5-di-tert-butyl-4-hydroxyhydrocinnamate
CH$NAME: Octyl-3,5-di-tert-butyl-4-hydroxy-hydrocinnamate
CH$NAME: octyl 3-(3,5-ditert-butyl-4-hydroxyphenyl)propanoate
CH$COMPOUND_CLASS: N/A; Environmental Standard
CH$FORMULA: C25H42O3
CH$EXACT_MASS: 390.3133952
CH$SMILES: CCCCCCCCOC(=O)CCC1=CC(=C(O)C(=C1)C(C)(C)C)C(C)(C)C
CH$IUPAC: InChI=1S/C25H42O3/c1-8-9-10-11-12-13-16-28-22(26)15-14-19-17-20(24(2,3)4)23(27)21(18-19)25(5,6)7/h17-18,27H,8-16H2,1-7H3
CH$LINK: CAS 13417-12-4
CH$LINK: PUBCHEM CID:9908458
CH$LINK: INCHIKEY CFXCGWWYIDZIMU-UHFFFAOYSA-N
CH$LINK: CHEMSPIDER 8084110
CH$LINK: COMPTOX DTXSID60273995
AC$INSTRUMENT: Bruker maXis Impact
AC$INSTRUMENT_TYPE: LC-ESI-QTOF
AC$MASS_SPECTROMETRY: MS_TYPE MS2
AC$MASS_SPECTROMETRY: ION_MODE POSITIVE
AC$MASS_SPECTROMETRY: IONIZATION ESI
AC$MASS_SPECTROMETRY: FRAGMENTATION_MODE CID
AC$MASS_SPECTROMETRY: COLLISION_ENERGY 30 eV
AC$MASS_SPECTROMETRY: RESOLUTION 35000
AC$CHROMATOGRAPHY: COLUMN_NAME Acclaim RSLC C18 2.2um, 2.1x100mm, Thermo
AC$CHROMATOGRAPHY: FLOW_GRADIENT 99/1 at 0-1 min, 61/39 at 3 min, 0.1/99.9 at 14-16 min, 99/1 at 16.1-20 min
AC$CHROMATOGRAPHY: FLOW_RATE 200 uL/min at 0-3 min, 400 uL/min at 14 min, 480 uL/min at 16-19 min, 200 uL/min at 19.1-20 min
AC$CHROMATOGRAPHY: RETENTION_TIME 14.650 min
AC$CHROMATOGRAPHY: SOLVENT A 90:10 water:methanol with 0.01% formic acid and 5mM ammonium formate
AC$CHROMATOGRAPHY: SOLVENT B methanol with 0.01% formic acid and 5mM ammonium formate
MS$FOCUSED_ION: BASE_PEAK 408.3471
MS$FOCUSED_ION: PRECURSOR_M/Z 391.3207
MS$FOCUSED_ION: PRECURSOR_TYPE [M+H]+
MS$DATA_PROCESSING: RECALIBRATE identity on assigned fragments and MS1
MS$DATA_PROCESSING: WHOLE RMassBank 2.10.1
PK$SPLASH: splash10-0002-0900000000-e5ca75c41fa0b95afc94
PK$ANNOTATION: m/z tentative_formula formula_count mass error(ppm)
  121.0633 C8H9O+ 1 121.0648 -12.16
  149.0218 C8H5O3+ 1 149.0233 -10.34
  149.0582 C9H9O2+ 1 149.0597 -10.32
  150.026 C7[13]CH5O3+ 1 150.0272 -7.94
  150.0605 C8[13]CH9O2+ 1 150.0636 -20.58
  163.1092 C11H15O+ 1 163.1117 -15.69
  167.0683 C9H11O3+ 1 167.0703 -11.97
  195.1211 C15H15+ 1 195.1168 21.67
  219.1717 C15H23O+ 1 219.1743 -12.23
PK$NUM_PEAK: 9
PK$PEAK: m/z int. rel.int.
  121.0633 324 38
  149.0218 8476 999
  149.0582 3800 447
  150.026 808 95
  150.0605 544 64
  163.1092 336 39
  167.0683 1068 125
  195.1211 400 47
  219.1717 348 41
//
