ACCESSION: MSBNK-Athens_Univ-AU271406
RECORD_TITLE: Indomethacin; LC-ESI-QTOF; MS2; CE: Ramp 22.8-34.1 eV; R=35000; [M+H]+
DATE: 2019.05.30
AUTHORS: Nikiforos Alygizakis, Katerina Galani, Nikolaos Thomaidis, University of Athens
LICENSE: CC BY
COPYRIGHT: Copyright (C) 2019 Department of Chemistry, University of Athens
COMMENT: CONFIDENCE standard compound
COMMENT: INTERNAL_ID 2714
CH$NAME: Indomethacin
CH$NAME: 2-[1-(4-chlorobenzoyl)-5-methoxy-2-methylindol-3-yl]acetic acid
CH$COMPOUND_CLASS: N/A; Environmental Standard
CH$FORMULA: C19H16ClNO4
CH$EXACT_MASS: 357.0767857
CH$SMILES: COC1=CC2=C(C=C1)N(C(=O)C1=CC=C(Cl)C=C1)C(C)=C2CC(O)=O
CH$IUPAC: InChI=1S/C19H16ClNO4/c1-11-15(10-18(22)23)16-9-14(25-2)7-8-17(16)21(11)19(24)12-3-5-13(20)6-4-12/h3-9H,10H2,1-2H3,(H,22,23)
CH$LINK: CAS 53-86-1
CH$LINK: CHEBI CHEBI:49662
CH$LINK: KEGG C01926
CH$LINK: PUBCHEM CID:3715
CH$LINK: INCHIKEY CGIGDMFJXJATDK-UHFFFAOYSA-N
CH$LINK: CHEMSPIDER 3584
CH$LINK: COMPTOX DTXSID9020740
AC$INSTRUMENT: Bruker maXis Impact
AC$INSTRUMENT_TYPE: LC-ESI-QTOF
AC$MASS_SPECTROMETRY: MS_TYPE MS2
AC$MASS_SPECTROMETRY: ION_MODE POSITIVE
AC$MASS_SPECTROMETRY: IONIZATION ESI
AC$MASS_SPECTROMETRY: FRAGMENTATION_MODE CID
AC$MASS_SPECTROMETRY: COLLISION_ENERGY Ramp 22.8-34.1 eV
AC$MASS_SPECTROMETRY: RESOLUTION 35000
AC$CHROMATOGRAPHY: COLUMN_NAME Acclaim RSLC C18 2.2um, 2.1x100mm, Thermo
AC$CHROMATOGRAPHY: FLOW_GRADIENT 99/1 at 0-1 min, 61/39 at 3 min, 0.1/99.9 at 14-16 min, 99/1 at 16.1-20 min
AC$CHROMATOGRAPHY: FLOW_RATE 200 uL/min at 0-3 min, 400 uL/min at 14 min, 480 uL/min at 16-19 min, 200 uL/min at 19.1-20 min
AC$CHROMATOGRAPHY: RETENTION_TIME 10.649 min
AC$CHROMATOGRAPHY: SOLVENT A 90:10 water:methanol with 0.01% formic acid and 5mM ammonium formate
AC$CHROMATOGRAPHY: SOLVENT B methanol with 0.01% formic acid and 5mM ammonium formate
MS$FOCUSED_ION: BASE_PEAK 372.2323
MS$FOCUSED_ION: PRECURSOR_M/Z 358.0841
MS$FOCUSED_ION: PRECURSOR_TYPE [M+H]+
MS$DATA_PROCESSING: RECALIBRATE identity on assigned fragments and MS1
MS$DATA_PROCESSING: WHOLE RMassBank 2.10.1
PK$SPLASH: splash10-000i-0900000000-e7bdb77765564e5abf6b
PK$ANNOTATION: m/z tentative_formula formula_count mass error(ppm)
  138.9936 C7H4ClO+ 1 138.9945 -6.8
  139.9972 C6[13]CH4ClO+ 1 139.9984 -8.4
  140.9908 C7H4[37]ClO+ 1 140.9921 -9.3
  141.9948 C8NO2+ 1 141.9924 17.07
  163.0745 C10H11O2+ 3 163.0754 -5.51
  174.0905 C11H12NO+ 3 174.0913 -4.74
  245.1084 C14H15NO3+ 1 245.1046 15.41
  261.103 C14H15NO4+ 1 261.0996 13.26
PK$NUM_PEAK: 8
PK$PEAK: m/z int. rel.int.
  138.9936 42872 999
  139.9972 3392 79
  140.9908 11836 275
  141.9948 748 17
  163.0745 420 9
  174.0905 1736 40
  245.1084 1516 35
  261.103 356 8
//
