ACCESSION: MSBNK-Athens_Univ-AU152602
RECORD_TITLE: Paroxetine; LC-ESI-QTOF; MS2; CE: 20 eV; R=35000; [M+H]+
DATE: 2019.05.30
AUTHORS: Nikiforos Alygizakis, Katerina Galani, Nikolaos Thomaidis, University of Athens
LICENSE: CC BY
COPYRIGHT: Copyright (C) 2019 Department of Chemistry, University of Athens
COMMENT: CONFIDENCE standard compound
COMMENT: INTERNAL_ID 1526
CH$NAME: Paroxetine
CH$NAME: 3-[(1,3-Benzodioxol-5-yloxy)methyl]-4-(4-fluorophenyl)piperidine
CH$NAME: 3-(1,3-benzodioxol-5-yloxymethyl)-4-(4-fluorophenyl)piperidine
CH$COMPOUND_CLASS: N/A; Environmental Standard
CH$FORMULA: C19H20FNO3
CH$EXACT_MASS: 329.1427217
CH$SMILES: FC1=CC=C(C=C1)C1CCNCC1COC1=CC2=C(OCO2)C=C1
CH$IUPAC: InChI=1S/C19H20FNO3/c20-15-3-1-13(2-4-15)17-7-8-21-10-14(17)11-22-16-5-6-18-19(9-16)24-12-23-18/h1-6,9,14,17,21H,7-8,10-12H2
CH$LINK: CAS 827-88-3
CH$LINK: CHEBI CHEBI:94410
CH$LINK: PUBCHEM CID:4691
CH$LINK: INCHIKEY AHOUBRCZNHFOSL-UHFFFAOYSA-N
CH$LINK: CHEMSPIDER 4529
AC$INSTRUMENT: Bruker maXis Impact
AC$INSTRUMENT_TYPE: LC-ESI-QTOF
AC$MASS_SPECTROMETRY: MS_TYPE MS2
AC$MASS_SPECTROMETRY: ION_MODE POSITIVE
AC$MASS_SPECTROMETRY: IONIZATION ESI
AC$MASS_SPECTROMETRY: FRAGMENTATION_MODE CID
AC$MASS_SPECTROMETRY: COLLISION_ENERGY 20 eV
AC$MASS_SPECTROMETRY: RESOLUTION 35000
AC$CHROMATOGRAPHY: COLUMN_NAME Acclaim RSLC C18 2.2um, 2.1x100mm, Thermo
AC$CHROMATOGRAPHY: FLOW_GRADIENT 99/1 at 0-1 min, 61/39 at 3 min, 0.1/99.9 at 14-16 min, 99/1 at 16.1-20 min
AC$CHROMATOGRAPHY: FLOW_RATE 200 uL/min at 0-3 min, 400 uL/min at 14 min, 480 uL/min at 16-19 min, 200 uL/min at 19.1-20 min
AC$CHROMATOGRAPHY: RETENTION_TIME 7.547 min
AC$CHROMATOGRAPHY: SOLVENT A 90:10 water:methanol with 0.01% formic acid and 5mM ammonium formate
AC$CHROMATOGRAPHY: SOLVENT B methanol with 0.01% formic acid and 5mM ammonium formate
MS$FOCUSED_ION: BASE_PEAK 237.1017
MS$FOCUSED_ION: PRECURSOR_M/Z 330.15
MS$FOCUSED_ION: PRECURSOR_TYPE [M+H]+
MS$DATA_PROCESSING: RECALIBRATE identity on assigned fragments and MS1
MS$DATA_PROCESSING: WHOLE RMassBank 2.10.1
PK$SPLASH: splash10-001i-0109000000-078d87ce6df57cf612b3
PK$ANNOTATION: m/z tentative_formula formula_count mass error(ppm)
  123.0595 C8H8F+ 1 123.0605 -7.39
  151.0374 C8H7O3+ 1 151.039 -10.21
  163.0904 C11H12F+ 1 163.0918 -8.49
  178.1013 C11H13FN+ 3 178.1027 -7.36
  192.1174 C12H15FN+ 3 192.1183 -4.94
  193.1222 C11[13]CH15FN+ 1 193.1222 -0.28
  313.1231 C19H18FO3+ 1 313.1234 -1.27
  330.1499 C19H21FNO3+ 1 330.15 -0.43
  331.1532 C18[13]CH21FNO3+ 1 331.1539 -2.12
  332.1553 C17[13]C2H21FNO3+ 1 332.1573 -5.76
PK$NUM_PEAK: 10
PK$PEAK: m/z int. rel.int.
  123.0595 6856 5
  151.0374 20200 15
  163.0904 11624 8
  178.1013 7516 5
  192.1174 197960 149
  193.1222 31752 24
  313.1231 8240 6
  330.1499 1321180 999
  331.1532 239536 181
  332.1553 25672 19
//
