ACCESSION: MSBNK-Athens_Univ-AU229358
RECORD_TITLE: PHIP; LC-ESI-QTOF; MS2; CE: 20 eV; R=35000; [M-H]-
DATE: 2019.03.22
AUTHORS: Nikiforos Alygizakis, Katerina Galani, Nikolaos Thomaidis, University of Athens
LICENSE: CC BY
COPYRIGHT: Copyright (C) 2019 Department of Chemistry, University of Athens
COMMENT: CONFIDENCE standard compound
COMMENT: INTERNAL_ID 2293
CH$NAME: PHIP
CH$NAME: 2-Amino-1-methyl-6-phenylimidazo[4,5-b]pyridine
CH$NAME: 1-methyl-6-phenylimidazo[4,5-b]pyridin-2-amine
CH$COMPOUND_CLASS: N/A; Environmental Standard
CH$FORMULA: C13H12N4
CH$EXACT_MASS: 224.1061964
CH$SMILES: CN1C(N)=NC2=NC=C(C=C12)C1=CC=CC=C1
CH$IUPAC: InChI=1S/C13H12N4/c1-17-11-7-10(9-5-3-2-4-6-9)8-15-12(11)16-13(17)14/h2-8H,1H3,(H2,14,15,16)
CH$LINK: CAS 106105-17-3
CH$LINK: CHEBI CHEBI:76290
CH$LINK: KEGG C16038
CH$LINK: PUBCHEM CID:1530
CH$LINK: INCHIKEY UQVKZNNCIHJZLS-UHFFFAOYSA-N
CH$LINK: CHEMSPIDER 1476
CH$LINK: COMPTOX DTXSID3037628
AC$INSTRUMENT: Bruker maXis Impact
AC$INSTRUMENT_TYPE: LC-ESI-QTOF
AC$MASS_SPECTROMETRY: MS_TYPE MS2
AC$MASS_SPECTROMETRY: ION_MODE NEGATIVE
AC$MASS_SPECTROMETRY: IONIZATION ESI
AC$MASS_SPECTROMETRY: FRAGMENTATION_MODE CID
AC$MASS_SPECTROMETRY: COLLISION_ENERGY 20 eV
AC$MASS_SPECTROMETRY: RESOLUTION 35000
AC$CHROMATOGRAPHY: COLUMN_NAME Acclaim RSLC C18 2.2um, 2.1x100mm, Thermo
AC$CHROMATOGRAPHY: FLOW_GRADIENT 99/1 at 0-1 min, 61/39 at 3 min, 0.1/99.9 at 14-16 min, 99/1 at 16.1-20 min
AC$CHROMATOGRAPHY: FLOW_RATE 200 uL/min at 0-3 min, 400 uL/min at 14 min, 480 uL/min at 16-19 min, 200 uL/min at 19.1-20 min
AC$CHROMATOGRAPHY: RETENTION_TIME 7.244 min
AC$CHROMATOGRAPHY: SOLVENT A 90:10 water:methanol with 5mM ammonium acetate
AC$CHROMATOGRAPHY: SOLVENT B methanol with 5mM ammonium acetate
MS$FOCUSED_ION: BASE_PEAK 223.0974
MS$FOCUSED_ION: PRECURSOR_M/Z 223.0989
MS$FOCUSED_ION: PRECURSOR_TYPE [M-H]-
MS$DATA_PROCESSING: RECALIBRATE identity on assigned fragments and MS1
MS$DATA_PROCESSING: WHOLE RMassBank 2.10.0
PK$SPLASH: splash10-0a4i-0090000000-14b4e6ecfa39851cca8f
PK$ANNOTATION: m/z tentative_formula formula_count mass error(ppm)
  208.0734 C12H8N4- 1 208.0754 -9.69
  223.0979 C13H11N4- 1 223.0989 -4.64
PK$NUM_PEAK: 2
PK$PEAK: m/z int. rel.int.
  208.0734 2708 999
  223.0979 1088 401
//
