ACCESSION: MSBNK-Athens_Univ-AU105011
RECORD_TITLE: Cefoperazone; LC-ESI-QTOF; MS2; HILIC; CE: 50 eV; R=35000; [M+H]+
DATE: 2016.02.26
AUTHORS: Nikiforos Alygizakis, Nikolaos Thomaidis, University of Athens
LICENSE: CC BY
COPYRIGHT: Copyright (C) 2016 Department of Chemistry, University of Athens
COMMENT: CONFIDENCE standard compound
COMMENT: INTERNAL_ID 1050
CH$NAME: Cefoperazone
CH$NAME: AC1OFCHV
CH$NAME: (6R,7R)-7-[[(2S)-2-[(4-ethyl-2,3-dioxopiperazine-1-carbonyl)amino]-2-(4-hydroxyphenyl)acetyl]amino]-3-[(1-methyltetrazol-5-yl)sulfanylmethyl]-8-oxo-5-thia-1-azabicyclo[4.2.0]oct-2-ene-2-carboxylic acid
CH$COMPOUND_CLASS: N/A; Environmental Standard
CH$FORMULA: C25H27N9O8S2
CH$EXACT_MASS: 645.1424008
CH$SMILES: O=C2N1/C(=C(\CS[C@@H]1[C@@H]2NC(=O)[C@H](c3ccc(O)cc3)NC(=O)N4C(=O)C(=O)N(CC)CC4)CSc5nnnn5C)C(=O)O
CH$IUPAC: InChI=1S/C25H27N9O8S2/c1-3-32-8-9-33(21(39)20(32)38)24(42)27-15(12-4-6-14(35)7-5-12)18(36)26-16-19(37)34-17(23(40)41)13(10-43-22(16)34)11-44-25-28-29-30-31(25)2/h4-7,15-16,22,35H,3,8-11H2,1-2H3,(H,26,36)(H,27,42)(H,40,41)/t15-,16+,22+/m0/s1
CH$LINK: CAS 62893-20-3
CH$LINK: PUBCHEM CID:7048632
CH$LINK: INCHIKEY GCFBRXLSHGKWDP-WJONJSRFSA-N
CH$LINK: CHEMSPIDER 5408849
AC$INSTRUMENT: Bruker maXis Impact
AC$INSTRUMENT_TYPE: LC-ESI-QTOF
AC$MASS_SPECTROMETRY: MS_TYPE MS2
AC$MASS_SPECTROMETRY: ION_MODE POSITIVE
AC$MASS_SPECTROMETRY: IONIZATION ESI
AC$MASS_SPECTROMETRY: FRAGMENTATION_MODE CID
AC$MASS_SPECTROMETRY: COLLISION_ENERGY 50 eV
AC$MASS_SPECTROMETRY: RESOLUTION 35000
AC$CHROMATOGRAPHY: COLUMN_NAME ACQUITY UPLC BEH Amide 1.7 um 2.1x100mm, Waters
AC$CHROMATOGRAPHY: FLOW_GRADIENT 0/100 at 0-2 min, 95/5 at 12 min, 95/5 at 17 min, 0/100 at 17.1, 0/100 at 25 min
AC$CHROMATOGRAPHY: FLOW_RATE 200 uL/min
AC$CHROMATOGRAPHY: RETENTION_TIME 5.730 min
AC$CHROMATOGRAPHY: SOLVENT A Water with 0.01% formic acid and 1mM ammonium formate
AC$CHROMATOGRAPHY: SOLVENT B Acetonitrile:Water 95:5 with 0.01% formic acid and 1mM ammonium formate
MS$FOCUSED_ION: BASE_PEAK 704.5256
MS$FOCUSED_ION: PRECURSOR_M/Z 646.1497
MS$FOCUSED_ION: PRECURSOR_TYPE [M+H]+
MS$DATA_PROCESSING: RECALIBRATE identity on assigned fragments and MS1
MS$DATA_PROCESSING: WHOLE RMassBank 1.99.10
PK$SPLASH: splash10-0006-0900000000-0433af0ab531e0ec0c28
PK$ANNOTATION: m/z tentative_formula formula_count mass error(ppm)
  143.0811 C6H11N2O2+ 7 143.0815 -2.78
  144.0854 CH12N4O4+ 8 144.0853 0.45
  148.0396 CH6N7S+ 10 148.04 -2.31
  156.0134 CH8N4OS2+ 10 156.0134 0.02
PK$NUM_PEAK: 4
PK$PEAK: m/z int. rel.int.
  143.0811 4732 999
  144.0854 440 92
  148.0396 2016 425
  156.0134 464 97
//
