ACCESSION: MSBNK-Athens_Univ-AU240359
RECORD_TITLE: Perfluorodecanoic acid; LC-ESI-QTOF; MS2; CE: 30 eV; R=35000; [M-H]-
DATE: 2019.03.29
AUTHORS: Nikiforos Alygizakis, Katerina Galani, Nikolaos Thomaidis, University of Athens
LICENSE: CC BY
COPYRIGHT: Copyright (C) 2019 Department of Chemistry, University of Athens
COMMENT: CONFIDENCE standard compound
COMMENT: INTERNAL_ID 2403
CH$NAME: Perfluorodecanoic acid
CH$NAME: 2,2,3,3,4,4,5,5,6,6,7,7,8,8,9,9,10,10,10-nonadecafluorodecanoic acid
CH$COMPOUND_CLASS: N/A; Environmental Standard
CH$FORMULA: C10HF19O2
CH$EXACT_MASS: 513.9673155
CH$SMILES: OC(=O)C(F)(F)C(F)(F)C(F)(F)C(F)(F)C(F)(F)C(F)(F)C(F)(F)C(F)(F)C(F)(F)F
CH$IUPAC: InChI=1S/C10HF19O2/c11-2(12,1(30)31)3(13,14)4(15,16)5(17,18)6(19,20)7(21,22)8(23,24)9(25,26)10(27,28)29/h(H,30,31)
CH$LINK: CAS 335-76-2
CH$LINK: CHEBI CHEBI:35546
CH$LINK: PUBCHEM CID:9555
CH$LINK: INCHIKEY PCIUEQPBYFRTEM-UHFFFAOYSA-N
CH$LINK: CHEMSPIDER 9181
CH$LINK: COMPTOX DTXSID3031860
AC$INSTRUMENT: Bruker maXis Impact
AC$INSTRUMENT_TYPE: LC-ESI-QTOF
AC$MASS_SPECTROMETRY: MS_TYPE MS2
AC$MASS_SPECTROMETRY: ION_MODE NEGATIVE
AC$MASS_SPECTROMETRY: IONIZATION ESI
AC$MASS_SPECTROMETRY: FRAGMENTATION_MODE CID
AC$MASS_SPECTROMETRY: COLLISION_ENERGY 30 eV
AC$MASS_SPECTROMETRY: RESOLUTION 35000
AC$CHROMATOGRAPHY: COLUMN_NAME Acclaim RSLC C18 2.2um, 2.1x100mm, Thermo
AC$CHROMATOGRAPHY: FLOW_GRADIENT 99/1 at 0-1 min, 61/39 at 3 min, 0.1/99.9 at 14-16 min, 99/1 at 16.1-20 min
AC$CHROMATOGRAPHY: FLOW_RATE 200 uL/min at 0-3 min, 400 uL/min at 14 min, 480 uL/min at 16-19 min, 200 uL/min at 19.1-20 min
AC$CHROMATOGRAPHY: RETENTION_TIME 11.085 min
AC$CHROMATOGRAPHY: SOLVENT A 90:10 water:methanol with 5mM ammonium acetate
AC$CHROMATOGRAPHY: SOLVENT B methanol with 5mM ammonium acetate
MS$FOCUSED_ION: BASE_PEAK 468.9709
MS$FOCUSED_ION: PRECURSOR_M/Z 512.96
MS$FOCUSED_ION: PRECURSOR_TYPE [M-H]-
MS$DATA_PROCESSING: RECALIBRATE identity on assigned fragments and MS1
MS$DATA_PROCESSING: WHOLE RMassBank 2.10.0
PK$SPLASH: splash10-014i-0970000000-45965db845f96608c8c9
PK$ANNOTATION: m/z tentative_formula formula_count mass error(ppm)
  118.9935 C7FO- 2 118.9939 -3.37
  168.9898 C3F7- 2 168.9894 2.69
  196.9824 C4F7O- 2 196.9843 -9.67
  218.9851 C4F9- 2 218.9862 -4.95
  268.9836 C5F11- 2 268.983 2.15
  318.9778 C6F13- 1 318.9798 -6.36
  468.9672 C9F19- 1 468.9702 -6.45
PK$NUM_PEAK: 7
PK$PEAK: m/z int. rel.int.
  118.9935 896 83
  168.9898 10780 999
  196.9824 924 85
  218.9851 6196 574
  268.9836 4928 456
  318.9778 644 59
  468.9672 576 53
//
