ACCESSION: MSBNK-Athens_Univ-AU223208
RECORD_TITLE: 1-Hydroxy-Benzotriazol; LC-ESI-QTOF; MS2; HILIC; CE: 20 eV; R=35000; [M+H]+
DATE: 2016.02.26
AUTHORS: Nikiforos Alygizakis, Nikolaos Thomaidis, University of Athens
LICENSE: CC BY
COPYRIGHT: Copyright (C) 2016 Department of Chemistry, University of Athens
COMMENT: CONFIDENCE standard compound
COMMENT: INTERNAL_ID 2232
CH$NAME: 1-Hydroxy-Benzotriazol
CH$NAME: 1-hydroxybenzotriazole
CH$COMPOUND_CLASS: N/A; Environmental Standard
CH$FORMULA: C6H5N3O
CH$EXACT_MASS: 135.0432618
CH$SMILES: c1ccc2c(c1)nnn2O
CH$IUPAC: InChI=1S/C6H5N3O/c10-9-6-4-2-1-3-5(6)7-8-9/h1-4,10H
CH$LINK: CAS 2592-95-2
CH$LINK: PUBCHEM CID:75771
CH$LINK: INCHIKEY ASOKPJOREAFHNY-UHFFFAOYSA-N
CH$LINK: CHEMSPIDER 68282
CH$LINK: COMPTOX DTXSID3044627
AC$INSTRUMENT: Bruker maXis Impact
AC$INSTRUMENT_TYPE: LC-ESI-QTOF
AC$MASS_SPECTROMETRY: MS_TYPE MS2
AC$MASS_SPECTROMETRY: ION_MODE POSITIVE
AC$MASS_SPECTROMETRY: IONIZATION ESI
AC$MASS_SPECTROMETRY: FRAGMENTATION_MODE CID
AC$MASS_SPECTROMETRY: COLLISION_ENERGY 20 eV
AC$MASS_SPECTROMETRY: RESOLUTION 35000
AC$CHROMATOGRAPHY: COLUMN_NAME ACQUITY UPLC BEH Amide 1.7 um 2.1x100mm, Waters
AC$CHROMATOGRAPHY: FLOW_GRADIENT 0/100 at 0-2 min, 95/5 at 12 min, 95/5 at 17 min, 0/100 at 17.1, 0/100 at 25 min
AC$CHROMATOGRAPHY: FLOW_RATE 200 uL/min
AC$CHROMATOGRAPHY: RETENTION_TIME 2.783 min
AC$CHROMATOGRAPHY: SOLVENT A Water with 0.01% formic acid and 1mM ammonium formate
AC$CHROMATOGRAPHY: SOLVENT B Acetonitrile:Water 95:5 with 0.01% formic acid and 1mM ammonium formate
MS$FOCUSED_ION: BASE_PEAK 136.0515
MS$FOCUSED_ION: PRECURSOR_M/Z 136.0505
MS$FOCUSED_ION: PRECURSOR_TYPE [M+H]+
MS$DATA_PROCESSING: RECALIBRATE identity on assigned fragments and MS1
MS$DATA_PROCESSING: WHOLE RMassBank 1.99.10
PK$SPLASH: splash10-000i-0900000000-9f0869bf634b86d601f7
PK$ANNOTATION: m/z tentative_formula formula_count mass error(ppm)
  119.0486 C6H5N3+ 1 119.0478 6.72
  120.0521 C5[13]CH5N3+ 1 120.0517 2.99
  136.0515 C6H6N3O+ 1 136.0505 6.86
  137.0546 C5[13]CH6N3O+ 1 137.0544 0.87
PK$NUM_PEAK: 4
PK$PEAK: m/z int. rel.int.
  119.0486 29580 165
  120.0521 2384 13
  136.0515 178768 999
  137.0546 12776 71
//
