ACCESSION: MSBNK-Athens_Univ-AU267103
RECORD_TITLE: Diphenhydramine; LC-ESI-QTOF; MS2; CE: 30 eV; R=35000; [M+H]+
DATE: 2019.05.30
AUTHORS: Nikiforos Alygizakis, Katerina Galani, Nikolaos Thomaidis, University of Athens
LICENSE: CC BY
COPYRIGHT: Copyright (C) 2019 Department of Chemistry, University of Athens
COMMENT: CONFIDENCE standard compound
COMMENT: INTERNAL_ID 2671
CH$NAME: Diphenhydramine
CH$NAME: 2-benzhydryloxy-N,N-dimethylethanamine
CH$COMPOUND_CLASS: N/A; Environmental Standard
CH$FORMULA: C17H21NO
CH$EXACT_MASS: 255.1623143
CH$SMILES: CN(C)CCOC(C1=CC=CC=C1)C1=CC=CC=C1
CH$IUPAC: InChI=1S/C17H21NO/c1-18(2)13-14-19-17(15-9-5-3-6-10-15)16-11-7-4-8-12-16/h3-12,17H,13-14H2,1-2H3
CH$LINK: CAS 58-73-1
CH$LINK: CHEBI CHEBI:4636
CH$LINK: KEGG D00300
CH$LINK: PUBCHEM CID:3100
CH$LINK: INCHIKEY ZZVUWRFHKOJYTH-UHFFFAOYSA-N
CH$LINK: CHEMSPIDER 2989
CH$LINK: COMPTOX DTXSID4022949
AC$INSTRUMENT: Bruker maXis Impact
AC$INSTRUMENT_TYPE: LC-ESI-QTOF
AC$MASS_SPECTROMETRY: MS_TYPE MS2
AC$MASS_SPECTROMETRY: ION_MODE POSITIVE
AC$MASS_SPECTROMETRY: IONIZATION ESI
AC$MASS_SPECTROMETRY: FRAGMENTATION_MODE CID
AC$MASS_SPECTROMETRY: COLLISION_ENERGY 30 eV
AC$MASS_SPECTROMETRY: RESOLUTION 35000
AC$CHROMATOGRAPHY: COLUMN_NAME Acclaim RSLC C18 2.2um, 2.1x100mm, Thermo
AC$CHROMATOGRAPHY: FLOW_GRADIENT 99/1 at 0-1 min, 61/39 at 3 min, 0.1/99.9 at 14-16 min, 99/1 at 16.1-20 min
AC$CHROMATOGRAPHY: FLOW_RATE 200 uL/min at 0-3 min, 400 uL/min at 14 min, 480 uL/min at 16-19 min, 200 uL/min at 19.1-20 min
AC$CHROMATOGRAPHY: RETENTION_TIME 6.468 min
AC$CHROMATOGRAPHY: SOLVENT A 90:10 water:methanol with 0.01% formic acid and 5mM ammonium formate
AC$CHROMATOGRAPHY: SOLVENT B methanol with 0.01% formic acid and 5mM ammonium formate
MS$FOCUSED_ION: BASE_PEAK 256.1693
MS$FOCUSED_ION: PRECURSOR_M/Z 256.1696
MS$FOCUSED_ION: PRECURSOR_TYPE [M+H]+
MS$DATA_PROCESSING: RECALIBRATE identity on assigned fragments and MS1
MS$DATA_PROCESSING: WHOLE RMassBank 2.10.1
PK$SPLASH: splash10-014i-0900000000-7ebf4e1f1624dab4463b
PK$ANNOTATION: m/z tentative_formula formula_count mass error(ppm)
  152.061 C12H8+ 1 152.0621 -6.62
  153.0643 C11[13]CH8+ 1 153.066 -10.87
  165.0688 C13H9+ 1 165.0699 -6.3
  166.0757 C13H10+ 1 166.0777 -11.87
  167.085 C13H11+ 1 167.0855 -2.94
  168.0879 C12[13]CH11+ 1 168.0894 -8.83
  169.0633 C12H9O+ 1 169.0648 -8.56
  169.0909 C11[13]C2H11+ 1 169.0928 -10.97
PK$NUM_PEAK: 8
PK$PEAK: m/z int. rel.int.
  152.061 500584 201
  153.0643 61060 24
  165.0688 596596 239
  166.0757 212104 85
  167.085 2485936 999
  168.0879 386884 155
  169.0633 18220 7
  169.0909 18492 7
//
