ACCESSION: MSBNK-Athens_Univ-AU240560
RECORD_TITLE: Perfluorooctanesulfonic acid; LC-ESI-QTOF; MS2; CE: 40 eV; R=35000; [M-H]-
DATE: 2019.03.29
AUTHORS: Nikiforos Alygizakis, Katerina Galani, Nikolaos Thomaidis, University of Athens
LICENSE: CC BY
COPYRIGHT: Copyright (C) 2019 Department of Chemistry, University of Athens
COMMENT: CONFIDENCE standard compound
COMMENT: INTERNAL_ID 2405
CH$NAME: Perfluorooctanesulfonic acid
CH$NAME: Perfluorooctane sulfonic acid
CH$NAME: 1,1,2,2,3,3,4,4,5,5,6,6,7,7,8,8,8-heptadecafluorooctane-1-sulfonic acid
CH$COMPOUND_CLASS: N/A; Environmental Standard
CH$FORMULA: C8HF17O3S
CH$EXACT_MASS: 499.9374946
CH$SMILES: OS(=O)(=O)C(F)(F)C(F)(F)C(F)(F)C(F)(F)C(F)(F)C(F)(F)C(F)(F)C(F)(F)F
CH$IUPAC: InChI=1S/C8HF17O3S/c9-1(10,3(13,14)5(17,18)7(21,22)23)2(11,12)4(15,16)6(19,20)8(24,25)29(26,27)28/h(H,26,27,28)
CH$LINK: CAS 2795-39-3
CH$LINK: CHEBI CHEBI:39421
CH$LINK: KEGG C18142
CH$LINK: PUBCHEM CID:74483
CH$LINK: INCHIKEY YFSUTJLHUFNCNZ-UHFFFAOYSA-N
CH$LINK: CHEMSPIDER 67068
CH$LINK: COMPTOX DTXSID3031864
AC$INSTRUMENT: Bruker maXis Impact
AC$INSTRUMENT_TYPE: LC-ESI-QTOF
AC$MASS_SPECTROMETRY: MS_TYPE MS2
AC$MASS_SPECTROMETRY: ION_MODE NEGATIVE
AC$MASS_SPECTROMETRY: IONIZATION ESI
AC$MASS_SPECTROMETRY: FRAGMENTATION_MODE CID
AC$MASS_SPECTROMETRY: COLLISION_ENERGY 40 eV
AC$MASS_SPECTROMETRY: RESOLUTION 35000
AC$CHROMATOGRAPHY: COLUMN_NAME Acclaim RSLC C18 2.2um, 2.1x100mm, Thermo
AC$CHROMATOGRAPHY: FLOW_GRADIENT 99/1 at 0-1 min, 61/39 at 3 min, 0.1/99.9 at 14-16 min, 99/1 at 16.1-20 min
AC$CHROMATOGRAPHY: FLOW_RATE 200 uL/min at 0-3 min, 400 uL/min at 14 min, 480 uL/min at 16-19 min, 200 uL/min at 19.1-20 min
AC$CHROMATOGRAPHY: RETENTION_TIME 10.425 min
AC$CHROMATOGRAPHY: SOLVENT A 90:10 water:methanol with 5mM ammonium acetate
AC$CHROMATOGRAPHY: SOLVENT B methanol with 5mM ammonium acetate
MS$FOCUSED_ION: BASE_PEAK 498.9316
MS$FOCUSED_ION: PRECURSOR_M/Z 498.9302
MS$FOCUSED_ION: PRECURSOR_TYPE [M-H]-
MS$DATA_PROCESSING: RECALIBRATE identity on assigned fragments and MS1
MS$DATA_PROCESSING: WHOLE RMassBank 2.10.0
PK$SPLASH: splash10-0002-0000900000-f0862f79c7106132a029
PK$ANNOTATION: m/z tentative_formula formula_count mass error(ppm)
  129.9539 CF2O3S- 1 129.9542 -1.89
  168.9887 C3F7- 2 168.9894 -3.87
  218.9851 C4F9- 1 218.9862 -4.88
  229.9465 C3F6O3S- 1 229.9478 -5.39
  279.9441 C4F8O3S- 1 279.9446 -1.86
  498.9305 C8F17O3S- 1 498.9302 0.47
  499.933 C7[13]CF17O3S- 1 499.933 -0.14
  500.9275 C8F17O3[34]S- 1 500.9255 4.08
PK$NUM_PEAK: 8
PK$PEAK: m/z int. rel.int.
  129.9539 1116 6
  168.9887 6232 35
  218.9851 1800 10
  229.9465 2784 15
  279.9441 1460 8
  498.9305 175376 999
  499.933 9896 56
  500.9275 6196 35
//
