ACCESSION: MSBNK-Athens_Univ-AU207401
RECORD_TITLE: Propazine-2-hydroxy; LC-ESI-QTOF; MS2; CE: 10 eV; R=35000; [M+H]+
DATE: 2015.12.04
AUTHORS: Nikiforos Alygizakis, Nikolaos Thomaidis, University of Athens
LICENSE: CC BY-SA
COPYRIGHT: Copyright (C) 2015 Department of Chemistry, University of Athens
COMMENT: CONFIDENCE standard compound
COMMENT: INTERNAL_ID 2074
CH$NAME: Propazine-2-hydroxy
CH$NAME: 2-Hydroxypropazine
CH$NAME: 2,6-bis(propan-2-ylamino)-1H-1,3,5-triazin-4-one
CH$COMPOUND_CLASS: N/A; Environmental Standard
CH$FORMULA: C9H17N5O
CH$EXACT_MASS: 211.1433102
CH$SMILES: CC(C)NC1=NC(=O)N=C(NC(C)C)N1
CH$IUPAC: InChI=1S/C9H17N5O/c1-5(2)10-7-12-8(11-6(3)4)14-9(15)13-7/h5-6H,1-4H3,(H3,10,11,12,13,14,15)
CH$LINK: CAS 7374-53-0
CH$LINK: INCHIKEY RUOTUMSRCIMLJK-UHFFFAOYSA-N
CH$LINK: CHEMSPIDER 22289
CH$LINK: COMPTOX DTXSID40224061
CH$LINK: PUBCHEM CID:135461611
AC$INSTRUMENT: Bruker maXis Impact
AC$INSTRUMENT_TYPE: LC-ESI-QTOF
AC$MASS_SPECTROMETRY: MS_TYPE MS2
AC$MASS_SPECTROMETRY: ION_MODE POSITIVE
AC$MASS_SPECTROMETRY: IONIZATION ESI
AC$MASS_SPECTROMETRY: FRAGMENTATION_MODE CID
AC$MASS_SPECTROMETRY: COLLISION_ENERGY 10 eV
AC$MASS_SPECTROMETRY: RESOLUTION 35000
AC$CHROMATOGRAPHY: COLUMN_NAME Acclaim RSLC C18 2.2um, 2.1x100mm, Thermo
AC$CHROMATOGRAPHY: FLOW_GRADIENT 99/1 at 0-1 min, 61/39 at 3 min, 0.1/99.9 at 14-16 min, 99/1 at 16.1-20 min
AC$CHROMATOGRAPHY: FLOW_RATE 200 uL/min at 0-3 min, 400 uL/min at 14 min, 480 uL/min at 16-19 min, 200 uL/min at 19.1-20 min
AC$CHROMATOGRAPHY: RETENTION_TIME 5.7 min
AC$CHROMATOGRAPHY: SOLVENT A 90:10 water:methanol with 0.01% formic acid and 5mM ammonium formate
AC$CHROMATOGRAPHY: SOLVENT B methanol with 0.01% formic acid and 5mM ammonium formate
MS$FOCUSED_ION: BASE_PEAK 212.1502
MS$FOCUSED_ION: PRECURSOR_M/Z 212.1506
MS$FOCUSED_ION: PRECURSOR_TYPE [M+H]+
MS$DATA_PROCESSING: RECALIBRATE identity on assigned fragments and MS1
MS$DATA_PROCESSING: REANALYZE Peaks with additional N2/O included
MS$DATA_PROCESSING: WHOLE RMassBank 2.0.3
PK$SPLASH: splash10-03di-0090000000-fab528dff2b7c7c383b3
PK$ANNOTATION: m/z tentative_formula formula_count mass error(ppm)
  128.0563 C3H6N5O+ 1 128.0567 -2.78
  170.1027 C6H12N5O+ 1 170.1036 -5.49
  195.1228 C9H15N4O+ 1 195.124 -6.6
  212.1502 C9H18N5O+ 1 212.1506 -1.75
  213.1529 C8[13]CH18N5O+ 1 213.153 -0.47
  214.155 C7[13]C2H18N5O+ 1 214.1552 -0.93
PK$NUM_PEAK: 6
PK$PEAK: m/z int. rel.int.
  128.0563 3764 5
  170.1027 11620 16
  195.1228 1392 2
  212.1502 718172 999
  213.1529 60148 84
  214.155 4312 6
//
