ACCESSION: MSBNK-Athens_Univ-AU262201
RECORD_TITLE: Benalaxyl; LC-ESI-QTOF; MS2; CE: 10 eV; R=35000; [M+H]+
DATE: 2019.05.30
AUTHORS: Nikiforos Alygizakis, Katerina Galani, Nikolaos Thomaidis, University of Athens
LICENSE: CC BY
COPYRIGHT: Copyright (C) 2019 Department of Chemistry, University of Athens
COMMENT: CONFIDENCE standard compound
COMMENT: INTERNAL_ID 2622
CH$NAME: Benalaxyl
CH$NAME: L-Alanine, N-(2,6-dimethylphenyl)-N-(phenylacetyl)-, methyl ester
CH$NAME: methyl (2S)-2-(2,6-dimethyl-N-(2-phenylacetyl)anilino)propanoate
CH$COMPOUND_CLASS: N/A; Environmental Standard
CH$FORMULA: C20H23NO3
CH$EXACT_MASS: 325.1677936
CH$SMILES: COC(=O)[C@H](C)N(C(=O)CC1=CC=CC=C1)C1=C(C)C=CC=C1C
CH$IUPAC: InChI=1S/C20H23NO3/c1-14-9-8-10-15(2)19(14)21(16(3)20(23)24-4)18(22)13-17-11-6-5-7-12-17/h5-12,16H,13H2,1-4H3/t16-/m0/s1
CH$LINK: CAS 97716-85-3
CH$LINK: CHEBI CHEBI:82782
CH$LINK: PUBCHEM CID:5491362
CH$LINK: INCHIKEY CJPQIRJHIZUAQP-INIZCTEOSA-N
CH$LINK: CHEMSPIDER 4590491
CH$LINK: COMPTOX DTXSID20243159
AC$INSTRUMENT: Bruker maXis Impact
AC$INSTRUMENT_TYPE: LC-ESI-QTOF
AC$MASS_SPECTROMETRY: MS_TYPE MS2
AC$MASS_SPECTROMETRY: ION_MODE POSITIVE
AC$MASS_SPECTROMETRY: IONIZATION ESI
AC$MASS_SPECTROMETRY: FRAGMENTATION_MODE CID
AC$MASS_SPECTROMETRY: COLLISION_ENERGY 10 eV
AC$MASS_SPECTROMETRY: RESOLUTION 35000
AC$CHROMATOGRAPHY: COLUMN_NAME Acclaim RSLC C18 2.2um, 2.1x100mm, Thermo
AC$CHROMATOGRAPHY: FLOW_GRADIENT 99/1 at 0-1 min, 61/39 at 3 min, 0.1/99.9 at 14-16 min, 99/1 at 16.1-20 min
AC$CHROMATOGRAPHY: FLOW_RATE 200 uL/min at 0-3 min, 400 uL/min at 14 min, 480 uL/min at 16-19 min, 200 uL/min at 19.1-20 min
AC$CHROMATOGRAPHY: RETENTION_TIME 11.002 min
AC$CHROMATOGRAPHY: SOLVENT A 90:10 water:methanol with 0.01% formic acid and 5mM ammonium formate
AC$CHROMATOGRAPHY: SOLVENT B methanol with 0.01% formic acid and 5mM ammonium formate
MS$FOCUSED_ION: BASE_PEAK 326.1758
MS$FOCUSED_ION: PRECURSOR_M/Z 326.1751
MS$FOCUSED_ION: PRECURSOR_TYPE [M+H]+
MS$DATA_PROCESSING: RECALIBRATE identity on assigned fragments and MS1
MS$DATA_PROCESSING: WHOLE RMassBank 2.10.1
PK$SPLASH: splash10-004l-0096000000-c2c2b5a15ea23191d6ab
PK$ANNOTATION: m/z tentative_formula formula_count mass error(ppm)
  148.1111 C7H16O3+ 2 148.1094 11.81
  149.1141 C6[13]CH16O3+ 1 149.1133 5.14
  208.1327 C12H18NO2+ 1 208.1332 -2.33
  209.1357 C11[13]CH18NO2+ 1 209.1371 -6.79
  266.1538 C18H20NO+ 1 266.1539 -0.41
  267.1567 C17[13]CH20NO+ 1 267.1578 -4.44
  294.1489 C19H20NO2+ 1 294.1489 0.1
  295.1522 C18[13]CH20NO2+ 1 295.1528 -1.72
  296.1548 C17[13]C2H20NO2+ 1 296.1561 -4.47
  326.1758 C20H24NO3+ 1 326.1751 2.25
  327.1787 C19[13]CH24NO3+ 1 327.179 -0.88
  328.1813 C18[13]C2H24NO3+ 1 328.1823 -3.04
PK$NUM_PEAK: 12
PK$PEAK: m/z int. rel.int.
  148.1111 249304 100
  149.1141 23888 9
  208.1327 1208144 488
  209.1357 112360 45
  266.1538 414160 167
  267.1567 67864 27
  294.1489 2191172 886
  295.1522 421644 170
  296.1548 36540 14
  326.1758 2469852 999
  327.1787 625472 252
  328.1813 55852 22
//
