ACCESSION: MSBNK-Athens_Univ-AU271001
RECORD_TITLE: Fenofibrate; LC-ESI-QTOF; MS2; CE: 10 eV; R=35000; [M+H]+
DATE: 2019.05.30
AUTHORS: Nikiforos Alygizakis, Katerina Galani, Nikolaos Thomaidis, University of Athens
LICENSE: CC BY
COPYRIGHT: Copyright (C) 2019 Department of Chemistry, University of Athens
COMMENT: CONFIDENCE standard compound
COMMENT: INTERNAL_ID 2710
CH$NAME: Fenofibrate
CH$NAME: propan-2-yl 2-[4-(4-chlorobenzoyl)phenoxy]-2-methylpropanoate
CH$COMPOUND_CLASS: N/A; Environmental Standard
CH$FORMULA: C20H21ClO4
CH$EXACT_MASS: 360.1128368
CH$SMILES: CC(C)OC(=O)C(C)(C)OC1=CC=C(C=C1)C(=O)C1=CC=C(Cl)C=C1
CH$IUPAC: InChI=1S/C20H21ClO4/c1-13(2)24-19(23)20(3,4)25-17-11-7-15(8-12-17)18(22)14-5-9-16(21)10-6-14/h5-13H,1-4H3
CH$LINK: CAS 49562-28-9
CH$LINK: CHEBI CHEBI:5001
CH$LINK: KEGG D00565
CH$LINK: PUBCHEM CID:3339
CH$LINK: INCHIKEY YMTINGFKWWXKFG-UHFFFAOYSA-N
CH$LINK: CHEMSPIDER 3222
CH$LINK: COMPTOX DTXSID2029874
AC$INSTRUMENT: Bruker maXis Impact
AC$INSTRUMENT_TYPE: LC-ESI-QTOF
AC$MASS_SPECTROMETRY: MS_TYPE MS2
AC$MASS_SPECTROMETRY: ION_MODE POSITIVE
AC$MASS_SPECTROMETRY: IONIZATION ESI
AC$MASS_SPECTROMETRY: FRAGMENTATION_MODE CID
AC$MASS_SPECTROMETRY: COLLISION_ENERGY 10 eV
AC$MASS_SPECTROMETRY: RESOLUTION 35000
AC$CHROMATOGRAPHY: COLUMN_NAME Acclaim RSLC C18 2.2um, 2.1x100mm, Thermo
AC$CHROMATOGRAPHY: FLOW_GRADIENT 99/1 at 0-1 min, 61/39 at 3 min, 0.1/99.9 at 14-16 min, 99/1 at 16.1-20 min
AC$CHROMATOGRAPHY: FLOW_RATE 200 uL/min at 0-3 min, 400 uL/min at 14 min, 480 uL/min at 16-19 min, 200 uL/min at 19.1-20 min
AC$CHROMATOGRAPHY: RETENTION_TIME 12.408 min
AC$CHROMATOGRAPHY: SOLVENT A 90:10 water:methanol with 0.01% formic acid and 5mM ammonium formate
AC$CHROMATOGRAPHY: SOLVENT B methanol with 0.01% formic acid and 5mM ammonium formate
MS$FOCUSED_ION: BASE_PEAK 361.1203
MS$FOCUSED_ION: PRECURSOR_M/Z 361.1201
MS$FOCUSED_ION: PRECURSOR_TYPE [M+H]+
MS$DATA_PROCESSING: RECALIBRATE identity on assigned fragments and MS1
MS$DATA_PROCESSING: WHOLE RMassBank 2.10.1
PK$SPLASH: splash10-03di-0019000000-250a5f55ce22e370047d
PK$ANNOTATION: m/z tentative_formula formula_count mass error(ppm)
  233.036 C13H10ClO2+ 2 233.0364 -1.75
  234.0392 C12[13]CH10ClO2+ 1 234.0403 -4.72
  235.033 C13H10[37]ClO2+ 1 235.034 -4.13
  361.1207 C20H22ClO4+ 1 361.1201 1.55
  362.1237 C19[13]CH22ClO4+ 1 362.124 -0.86
  363.1179 C20H22[37]ClO4+ 1 363.1177 0.46
PK$NUM_PEAK: 6
PK$PEAK: m/z int. rel.int.
  233.036 602708 249
  234.0392 59216 24
  235.033 139636 57
  361.1207 2411940 999
  362.1237 481924 199
  363.1179 787712 326
//
