ACCESSION: MSBNK-Athens_Univ-AU117501
RECORD_TITLE: Carbadox; LC-ESI-QTOF; MS2; CE: 10 eV; R=35000; [M+H]+
DATE: 2015.09.23
AUTHORS: Nikiforos Alygizakis, Anna Bletsou, Nikolaos Thomaidis, University of Athens
LICENSE: CC BY-SA
COPYRIGHT: Copyright (C) 2015 Department of Chemistry, University of Athens
COMMENT: CONFIDENCE standard compound
COMMENT: INTERNAL_ID 1175
CH$NAME: Carbadox
CH$NAME: methyl N-[(1-hydroxy-4-oxidoquinoxalin-4-ium-2-ylidene)methylimino]carbamate
CH$COMPOUND_CLASS: N/A; Environmental Standard
CH$FORMULA: C11H10N4O4
CH$EXACT_MASS: 262.0702048
CH$SMILES: COC(=O)NN=CC1=[N+](C2=CC=CC=C2[N+](=C1)[O-])[O-]
CH$IUPAC: InChI=1S/C11H10N4O4/c1-19-11(16)13-12-6-8-7-14(17)9-4-2-3-5-10(9)15(8)18/h2-7H,1H3,(H,13,16)
CH$LINK: CAS 6804-07-5
CH$LINK: PUBCHEM CID:135403805
CH$LINK: INCHIKEY OVGGLBAWFMIPPY-UHFFFAOYSA-N
CH$LINK: CHEMSPIDER 21172614
AC$INSTRUMENT: Bruker maXis Impact
AC$INSTRUMENT_TYPE: LC-ESI-QTOF
AC$MASS_SPECTROMETRY: MS_TYPE MS2
AC$MASS_SPECTROMETRY: ION_MODE POSITIVE
AC$MASS_SPECTROMETRY: IONIZATION ESI
AC$MASS_SPECTROMETRY: FRAGMENTATION_MODE CID
AC$MASS_SPECTROMETRY: COLLISION_ENERGY 10 eV
AC$MASS_SPECTROMETRY: RESOLUTION 35000
AC$CHROMATOGRAPHY: COLUMN_NAME Acclaim RSLC C18 2.2um, 2.1x100mm, Thermo
AC$CHROMATOGRAPHY: FLOW_GRADIENT 99/1 at 0-1 min, 61/39 at 3 min, 0.1/99.9 at 14-16 min, 99/1 at 16.1-20 min
AC$CHROMATOGRAPHY: FLOW_RATE 200 uL/min at 0-3 min, 400 uL/min at 14 min, 480 uL/min at 16-19 min, 200 uL/min at 19.1-20 min
AC$CHROMATOGRAPHY: RETENTION_TIME 4.7 min
AC$CHROMATOGRAPHY: SOLVENT A water with 0.01% formic acid and 5mM ammonium formate
AC$CHROMATOGRAPHY: SOLVENT B 90:10 water:methanol with 0.01% formic acid and 5mM ammonium formate
MS$FOCUSED_ION: BASE_PEAK 221.1036
MS$FOCUSED_ION: PRECURSOR_M/Z 263.0775
MS$FOCUSED_ION: PRECURSOR_TYPE [M+H]+
MS$DATA_PROCESSING: RECALIBRATE identity on assigned fragments and MS1
MS$DATA_PROCESSING: REANALYZE Peaks with additional N2/O included
MS$DATA_PROCESSING: WHOLE RMassBank 2.0.2
PK$SPLASH: splash10-03di-0090000000-5371d22a9675a84101db
PK$ANNOTATION: m/z tentative_formula formula_count mass error(ppm)
  229.0682 C11H9N4O2+ 1 229.072 -16.59
  231.0421 C11H7N2O4+ 2 231.04 9.09
  232.0473 C10[13]CH7N2O4+ 1 232.0439 14.33
  263.0729 C11H11N4O4+ 1 263.0775 -17.49
  264.0771 C10[13]CH11N4O4+ 1 264.0814 -16.28
PK$NUM_PEAK: 5
PK$PEAK: m/z int. rel.int.
  229.0682 640 10
  231.0421 27852 474
  232.0473 2024 34
  263.0729 58696 999
  264.0771 5180 88
//
