ACCESSION: MSBNK-Athens_Univ-AU268001
RECORD_TITLE: Oxazepam; LC-ESI-QTOF; MS2; CE: 10 eV; R=35000; [M+H]+
DATE: 2019.05.30
AUTHORS: Nikiforos Alygizakis, Katerina Galani, Nikolaos Thomaidis, University of Athens
LICENSE: CC BY
COPYRIGHT: Copyright (C) 2019 Department of Chemistry, University of Athens
COMMENT: CONFIDENCE standard compound
COMMENT: INTERNAL_ID 2680
CH$NAME: Oxazepam
CH$NAME: 7-chloro-3-hydroxy-5-phenyl-1,3-dihydro-1,4-benzodiazepin-2-one
CH$COMPOUND_CLASS: N/A; Environmental Standard
CH$FORMULA: C15H11ClN2O2
CH$EXACT_MASS: 286.0509053
CH$SMILES: OC1N=C(C2=CC=CC=C2)C2=C(NC1=O)C=CC(Cl)=C2
CH$IUPAC: InChI=1S/C15H11ClN2O2/c16-10-6-7-12-11(8-10)13(9-4-2-1-3-5-9)18-15(20)14(19)17-12/h1-8,15,20H,(H,17,19)
CH$LINK: CAS 604-75-1
CH$LINK: CHEBI CHEBI:7823
CH$LINK: KEGG C07359
CH$LINK: PUBCHEM CID:4616
CH$LINK: INCHIKEY ADIMAYPTOBDMTL-UHFFFAOYSA-N
CH$LINK: CHEMSPIDER 4455
CH$LINK: COMPTOX DTXSID1021087
AC$INSTRUMENT: Bruker maXis Impact
AC$INSTRUMENT_TYPE: LC-ESI-QTOF
AC$MASS_SPECTROMETRY: MS_TYPE MS2
AC$MASS_SPECTROMETRY: ION_MODE POSITIVE
AC$MASS_SPECTROMETRY: IONIZATION ESI
AC$MASS_SPECTROMETRY: FRAGMENTATION_MODE CID
AC$MASS_SPECTROMETRY: COLLISION_ENERGY 10 eV
AC$MASS_SPECTROMETRY: RESOLUTION 35000
AC$CHROMATOGRAPHY: COLUMN_NAME Acclaim RSLC C18 2.2um, 2.1x100mm, Thermo
AC$CHROMATOGRAPHY: FLOW_GRADIENT 99/1 at 0-1 min, 61/39 at 3 min, 0.1/99.9 at 14-16 min, 99/1 at 16.1-20 min
AC$CHROMATOGRAPHY: FLOW_RATE 200 uL/min at 0-3 min, 400 uL/min at 14 min, 480 uL/min at 16-19 min, 200 uL/min at 19.1-20 min
AC$CHROMATOGRAPHY: RETENTION_TIME 8.366 min
AC$CHROMATOGRAPHY: SOLVENT A 90:10 water:methanol with 0.01% formic acid and 5mM ammonium formate
AC$CHROMATOGRAPHY: SOLVENT B methanol with 0.01% formic acid and 5mM ammonium formate
MS$FOCUSED_ION: BASE_PEAK 287.057
MS$FOCUSED_ION: PRECURSOR_M/Z 287.0582
MS$FOCUSED_ION: PRECURSOR_TYPE [M+H]+
MS$DATA_PROCESSING: RECALIBRATE identity on assigned fragments and MS1
MS$DATA_PROCESSING: WHOLE RMassBank 2.10.1
PK$SPLASH: splash10-000i-0090000000-e2d3c1b6e1024062ae23
PK$ANNOTATION: m/z tentative_formula formula_count mass error(ppm)
  231.0669 C13H12ClN2+ 1 231.0684 -6.41
  241.0512 C14H10ClN2+ 1 241.0527 -6.08
  243.0482 C14H10[37]ClN2+ 1 243.0503 -8.64
  269.0464 C15H10ClN2O+ 1 269.0476 -4.42
  270.0487 C14[13]CH10ClN2O+ 1 270.0515 -10.51
  271.0432 C15H10[37]ClN2O+ 1 271.0452 -7.35
  287.0571 C15H12ClN2O2+ 1 287.0582 -3.7
  288.0599 C14[13]CH12ClN2O2+ 1 288.0621 -7.51
  289.0544 C15H12[37]ClN2O2+ 1 289.0558 -4.8
PK$NUM_PEAK: 9
PK$PEAK: m/z int. rel.int.
  231.0669 660 8
  241.0512 1668 21
  243.0482 656 8
  269.0464 8260 105
  270.0487 1752 22
  271.0432 2544 32
  287.0571 78432 999
  288.0599 13596 173
  289.0544 22344 284
//
