ACCESSION: MSBNK-Athens_Univ-AU244002
RECORD_TITLE: Azobenzene; LC-ESI-QTOF; MS2; CE: 20 eV; R=35000; [M+H]+
DATE: 2019.04.05
AUTHORS: Nikiforos Alygizakis, Katerina Galani, Nikolaos Thomaidis, University of Athens
LICENSE: CC BY
COPYRIGHT: Copyright (C) 2019 Department of Chemistry, University of Athens
COMMENT: CONFIDENCE standard compound
COMMENT: INTERNAL_ID 2440
CH$NAME: Azobenzene
CH$COMPOUND_CLASS: N/A; Environmental Standard
CH$FORMULA: C12H10N2
CH$EXACT_MASS: 182.0843983
CH$SMILES: C1=CC=C(C=C1)\N=N\C1=CC=CC=C1
CH$IUPAC: InChI=1S/C12H10N2/c1-3-7-11(8-4-1)13-14-12-9-5-2-6-10-12/h1-10H/b14-13+
CH$LINK: CAS 103-33-3
CH$LINK: CHEBI CHEBI:58996
CH$LINK: KEGG C19334
CH$LINK: INCHIKEY DMLAVOWQYNRWNQ-BUHFOSPRSA-N
CH$LINK: CHEMSPIDER 2185
AC$INSTRUMENT: Bruker maXis Impact
AC$INSTRUMENT_TYPE: LC-ESI-QTOF
AC$MASS_SPECTROMETRY: MS_TYPE MS2
AC$MASS_SPECTROMETRY: ION_MODE POSITIVE
AC$MASS_SPECTROMETRY: IONIZATION ESI
AC$MASS_SPECTROMETRY: FRAGMENTATION_MODE CID
AC$MASS_SPECTROMETRY: COLLISION_ENERGY 20 eV
AC$MASS_SPECTROMETRY: RESOLUTION 35000
AC$CHROMATOGRAPHY: COLUMN_NAME Acclaim RSLC C18 2.2um, 2.1x100mm, Thermo
AC$CHROMATOGRAPHY: FLOW_GRADIENT 99/1 at 0-1 min, 61/39 at 3 min, 0.1/99.9 at 14-16 min, 99/1 at 16.1-20 min
AC$CHROMATOGRAPHY: FLOW_RATE 200 uL/min at 0-3 min, 400 uL/min at 14 min, 480 uL/min at 16-19 min, 200 uL/min at 19.1-20 min
AC$CHROMATOGRAPHY: RETENTION_TIME 8.516 min
AC$CHROMATOGRAPHY: SOLVENT A 90:10 water:methanol with 0.01% formic acid and 5mM ammonium formate
AC$CHROMATOGRAPHY: SOLVENT B methanol with 0.01% formic acid and 5mM ammonium formate
MS$FOCUSED_ION: BASE_PEAK 177.0528
MS$FOCUSED_ION: PRECURSOR_M/Z 183.0917
MS$FOCUSED_ION: PRECURSOR_TYPE [M+H]+
MS$DATA_PROCESSING: RECALIBRATE identity on assigned fragments and MS1
MS$DATA_PROCESSING: WHOLE RMassBank 2.10.1
PK$SPLASH: splash10-000t-0900000000-8df34d0716082dd6b761
PK$ANNOTATION: m/z tentative_formula formula_count mass error(ppm)
  149.0421 C12H5+ 1 149.0386 23.47
  183.0898 C12H11N2+ 1 183.0917 -10.13
PK$NUM_PEAK: 2
PK$PEAK: m/z int. rel.int.
  149.0421 696 999
  183.0898 368 528
//
