ACCESSION: MSBNK-Athens_Univ-AU594052
RECORD_TITLE: N-ethylperfluorooctane sulfonamidoacetic acid (N-EtFOSAA); LC-ESI-QTOF; MS2; CE: 30 eV; R=35000; [M-H]-
DATE: 2020.04.11
AUTHORS: Georgios Gkotsis, Maria-Christina Nika, Reza Aalizadeh, Nikolaos Thomaidis
LICENSE: CC BY
COPYRIGHT: Copyright (C) 2020 Department of Chemistry, University of Athens
COMMENT: CONFIDENCE standard compound
COMMENT: INTERNAL_ID 5940
CH$NAME: N-ethylperfluorooctane sulfonamidoacetic acid (N-EtFOSAA)
CH$NAME: N-Ethyl-N-[(heptadecafluorooctyl)sulphonyl]glycine
CH$NAME: 2-[ethyl(1,1,2,2,3,3,4,4,5,5,6,6,7,7,8,8,8-heptadecafluorooctylsulfonyl)amino]acetic acid
CH$COMPOUND_CLASS: N/A; Environmental Standard
CH$FORMULA: C12H8F17NO4S
CH$EXACT_MASS: 584.9903
CH$SMILES: CCN(CC(=O)O)S(=O)(=O)C(C(C(C(C(C(C(C(F)(F)F)(F)F)(F)F)(F)F)(F)F)(F)F)(F)F)(F)F
CH$IUPAC: InChI=1S/C12H8F17NO4S/c1-2-30(3-4(31)32)35(33,34)12(28,29)10(23,24)8(19,20)6(15,16)5(13,14)7(17,18)9(21,22)11(25,26)27/h2-3H2,1H3,(H,31,32)
CH$LINK: CAS 2991-50-6
CH$LINK: CHEBI CHEBI:83507
CH$LINK: CHEMSPIDER 17128
CH$LINK: INCHIKEY CKRXVVGETMYFIO-UHFFFAOYSA-N
CH$LINK: PUBCHEM CID:18134
AC$INSTRUMENT: Bruker maXis Impact
AC$INSTRUMENT_TYPE: LC-ESI-QTOF
AC$MASS_SPECTROMETRY: MS_TYPE MS2
AC$MASS_SPECTROMETRY: ION_MODE NEGATIVE
AC$MASS_SPECTROMETRY: IONIZATION ESI
AC$MASS_SPECTROMETRY: FRAGMENTATION_MODE CID
AC$MASS_SPECTROMETRY: COLLISION_ENERGY 30 eV
AC$MASS_SPECTROMETRY: RESOLUTION 35000
AC$CHROMATOGRAPHY: COLUMN_NAME Acclaim RSLC C18 2.2um, 2.1x100mm, Thermo
AC$CHROMATOGRAPHY: FLOW_GRADIENT 99/1 at 0-1 min, 61/39 at 3 min, 0.1/99.9 at 14-16 min, 99/1 at 16.1-20 min
AC$CHROMATOGRAPHY: FLOW_RATE 200 uL/min at 0-3 min, 400 uL/min at 14 min, 480 uL/min at 16-19 min, 200 uL/min at 19.1-20 min
AC$CHROMATOGRAPHY: RETENTION_TIME 11.685 min
AC$CHROMATOGRAPHY: SOLVENT A 90:10 water:methanol with 5mM ammonium acetate
AC$CHROMATOGRAPHY: SOLVENT B methanol with 5mM ammonium acetate
MS$FOCUSED_ION: BASE_PEAK 583.9821
MS$FOCUSED_ION: PRECURSOR_M/Z 583.983
MS$FOCUSED_ION: PRECURSOR_TYPE [M-H]-
MS$DATA_PROCESSING: RECALIBRATE identity on assigned fragments and MS1
MS$DATA_PROCESSING: WHOLE RMassBank 2.8.0
PK$SPLASH: splash10-014i-0880900000-e6440380607ffa858248
PK$NUM_PEAK: 3
PK$PEAK: m/z int. rel.int.
  168.9903 320 897
  218.9857 336 942
  418.9722 356 999
//
