ACCESSION: MSBNK-Athens_Univ-AU284604
RECORD_TITLE: Lauryl diethanolamide; LC-ESI-QTOF; MS2; CE: 40 eV; R=35000; [M+H]+
DATE: 2019.05.31
AUTHORS: Nikiforos Alygizakis, Katerina Galani, Nikolaos Thomaidis, University of Athens
LICENSE: CC BY
COPYRIGHT: Copyright (C) 2019 Department of Chemistry, University of Athens
COMMENT: CONFIDENCE standard compound
COMMENT: INTERNAL_ID 2846
CH$NAME: Lauryl diethanolamide
CH$NAME: N,N-bis(2-hydroxyethyl)dodecanamide
CH$COMPOUND_CLASS: N/A; Environmental Standard
CH$FORMULA: C16H33NO3
CH$EXACT_MASS: 287.2460439
CH$SMILES: CCCCCCCCCCCC(=O)N(CCO)CCO
CH$IUPAC: InChI=1S/C16H33NO3/c1-2-3-4-5-6-7-8-9-10-11-16(20)17(12-14-18)13-15-19/h18-19H,2-15H2,1H3
CH$LINK: CAS 120-40-1
CH$LINK: PUBCHEM CID:8430
CH$LINK: INCHIKEY AOMUHOFOVNGZAN-UHFFFAOYSA-N
CH$LINK: CHEMSPIDER 8123
CH$LINK: COMPTOX DTXSID5025491
AC$INSTRUMENT: Bruker maXis Impact
AC$INSTRUMENT_TYPE: LC-ESI-QTOF
AC$MASS_SPECTROMETRY: MS_TYPE MS2
AC$MASS_SPECTROMETRY: ION_MODE POSITIVE
AC$MASS_SPECTROMETRY: IONIZATION ESI
AC$MASS_SPECTROMETRY: FRAGMENTATION_MODE CID
AC$MASS_SPECTROMETRY: COLLISION_ENERGY 40 eV
AC$MASS_SPECTROMETRY: RESOLUTION 35000
AC$CHROMATOGRAPHY: COLUMN_NAME Acclaim RSLC C18 2.2um, 2.1x100mm, Thermo
AC$CHROMATOGRAPHY: FLOW_GRADIENT 99/1 at 0-1 min, 61/39 at 3 min, 0.1/99.9 at 14-16 min, 99/1 at 16.1-20 min
AC$CHROMATOGRAPHY: FLOW_RATE 200 uL/min at 0-3 min, 400 uL/min at 14 min, 480 uL/min at 16-19 min, 200 uL/min at 19.1-20 min
AC$CHROMATOGRAPHY: RETENTION_TIME 11.728 min
AC$CHROMATOGRAPHY: SOLVENT A 90:10 water:methanol with 0.01% formic acid and 5mM ammonium formate
AC$CHROMATOGRAPHY: SOLVENT B methanol with 0.01% formic acid and 5mM ammonium formate
MS$FOCUSED_ION: BASE_PEAK 288.2529
MS$FOCUSED_ION: PRECURSOR_M/Z 288.2533
MS$FOCUSED_ION: PRECURSOR_TYPE [M+H]+
MS$DATA_PROCESSING: RECALIBRATE identity on assigned fragments and MS1
MS$DATA_PROCESSING: WHOLE RMassBank 2.10.1
PK$SPLASH: splash10-004i-0090000000-79ace3a2b10cc7870687
PK$ANNOTATION: m/z tentative_formula formula_count mass error(ppm)
  142.0849 C7H12NO2+ 1 142.0863 -9.59
  226.2157 C14H28NO+ 1 226.2165 -3.81
  227.2001 C14H27O2+ 1 227.2006 -1.94
  228.2031 C14H28O2+ 1 228.2084 -23.12
  270.2414 C16H32NO2+ 1 270.2428 -5.2
  271.2453 C15[13]CH32NO2+ 1 271.2467 -4.86
PK$NUM_PEAK: 6
PK$PEAK: m/z int. rel.int.
  142.0849 348 97
  226.2157 2592 728
  227.2001 3556 999
  228.2031 956 268
  270.2414 2568 721
  271.2453 424 119
//
