ACCESSION: MSBNK-Athens_Univ-AU262701
RECORD_TITLE: Triallate; LC-ESI-QTOF; MS2; CE: 10 eV; R=35000; [M+H]+
DATE: 2019.05.30
AUTHORS: Nikiforos Alygizakis, Katerina Galani, Nikolaos Thomaidis, University of Athens
LICENSE: CC BY
COPYRIGHT: Copyright (C) 2019 Department of Chemistry, University of Athens
COMMENT: CONFIDENCE standard compound
COMMENT: INTERNAL_ID 2627
CH$NAME: Triallate
CH$NAME: S-(2,3,3-trichloroprop-2-enyl) N,N-di(propan-2-yl)carbamothioate
CH$COMPOUND_CLASS: N/A; Environmental Standard
CH$FORMULA: C10H16Cl3NOS
CH$EXACT_MASS: 303.0018182
CH$SMILES: CC(C)N(C(C)C)C(=O)SCC(Cl)=C(Cl)Cl
CH$IUPAC: InChI=1S/C10H16Cl3NOS/c1-6(2)14(7(3)4)10(15)16-5-8(11)9(12)13/h6-7H,5H2,1-4H3
CH$LINK: CAS 2303-17-5
CH$LINK: CHEBI CHEBI:81978
CH$LINK: KEGG C18813
CH$LINK: PUBCHEM CID:5543
CH$LINK: INCHIKEY MWBPRDONLNQCFV-UHFFFAOYSA-N
CH$LINK: CHEMSPIDER 5342
CH$LINK: COMPTOX DTXSID5024344
AC$INSTRUMENT: Bruker maXis Impact
AC$INSTRUMENT_TYPE: LC-ESI-QTOF
AC$MASS_SPECTROMETRY: MS_TYPE MS2
AC$MASS_SPECTROMETRY: ION_MODE POSITIVE
AC$MASS_SPECTROMETRY: IONIZATION ESI
AC$MASS_SPECTROMETRY: FRAGMENTATION_MODE CID
AC$MASS_SPECTROMETRY: COLLISION_ENERGY 10 eV
AC$MASS_SPECTROMETRY: RESOLUTION 35000
AC$CHROMATOGRAPHY: COLUMN_NAME Acclaim RSLC C18 2.2um, 2.1x100mm, Thermo
AC$CHROMATOGRAPHY: FLOW_GRADIENT 99/1 at 0-1 min, 61/39 at 3 min, 0.1/99.9 at 14-16 min, 99/1 at 16.1-20 min
AC$CHROMATOGRAPHY: FLOW_RATE 200 uL/min at 0-3 min, 400 uL/min at 14 min, 480 uL/min at 16-19 min, 200 uL/min at 19.1-20 min
AC$CHROMATOGRAPHY: RETENTION_TIME 12.809 min
AC$CHROMATOGRAPHY: SOLVENT A 90:10 water:methanol with 0.01% formic acid and 5mM ammonium formate
AC$CHROMATOGRAPHY: SOLVENT B methanol with 0.01% formic acid and 5mM ammonium formate
MS$FOCUSED_ION: BASE_PEAK 322.1441
MS$FOCUSED_ION: PRECURSOR_M/Z 304.0091
MS$FOCUSED_ION: PRECURSOR_TYPE [M+H]+
MS$DATA_PROCESSING: RECALIBRATE identity on assigned fragments and MS1
MS$DATA_PROCESSING: WHOLE RMassBank 2.10.1
PK$SPLASH: splash10-0zfr-0009000000-2cc62fe8cbca1d4e3dac
PK$ANNOTATION: m/z tentative_formula formula_count mass error(ppm)
  128.1054 C7H14NO+ 1 128.107 -12.24
  140.9322 C3H3Cl2S+ 1 140.9327 -3.91
  142.9222 C3H2Cl3+ 2 142.9217 3.59
  144.9164 C3H2Cl2[37]Cl+ 1 144.9193 -19.77
  149.0233 CH16Cl3O+ 1 149.0261 -18.82
  218.9554 C6H10Cl3S+ 3 218.9563 -4.15
  261.0045 C9H16Cl3S+ 1 261.0033 4.58
  261.9618 C7H11Cl3NOS+ 2 261.9621 -1.35
  262.9635 C10H8Cl3NO+ 2 262.9666 -11.75
  263.9594 C7H11Cl2[37]ClNOS+ 1 263.9597 -1.44
  304.0093 C10H17Cl3NOS+ 1 304.0091 0.71
  305.0115 C9[13]CH17Cl3NOS+ 1 305.013 -4.9
  306.0062 C10H17Cl2[37]ClNOS+ 1 306.0067 -1.52
PK$NUM_PEAK: 13
PK$PEAK: m/z int. rel.int.
  128.1054 2272 31
  140.9322 476 6
  142.9222 504 7
  144.9164 468 6
  149.0233 552 7
  218.9554 364 5
  261.0045 388 5
  261.9618 4760 66
  262.9635 876 12
  263.9594 4448 62
  304.0093 71220 999
  305.0115 9016 126
  306.0062 59976 841
//
