ACCESSION: MSBNK-Athens_Univ-AU243401
RECORD_TITLE: 3,3`-Dimethylbenzidine; LC-ESI-QTOF; MS2; CE: 10 eV; R=35000; [M+H]+
DATE: 2019.04.05
AUTHORS: Nikiforos Alygizakis, Katerina Galani, Nikolaos Thomaidis, University of Athens
LICENSE: CC BY
COPYRIGHT: Copyright (C) 2019 Department of Chemistry, University of Athens
COMMENT: CONFIDENCE standard compound
COMMENT: INTERNAL_ID 2434
CH$NAME: 3,3`-Dimethylbenzidine
CH$NAME: 4-(4-amino-3-methylphenyl)-2-methylaniline
CH$COMPOUND_CLASS: N/A; Environmental Standard
CH$FORMULA: C14H16N2
CH$EXACT_MASS: 212.1313485
CH$SMILES: CC1=CC(=CC=C1N)C1=CC=C(N)C(C)=C1
CH$IUPAC: InChI=1S/C14H16N2/c1-9-7-11(3-5-13(9)15)12-4-6-14(16)10(2)8-12/h3-8H,15-16H2,1-2H3
CH$LINK: CAS 119-93-7
CH$LINK: CHEBI CHEBI:34320
CH$LINK: KEGG C14443
CH$LINK: PUBCHEM CID:8413
CH$LINK: INCHIKEY NUIURNJTPRWVAP-UHFFFAOYSA-N
CH$LINK: CHEMSPIDER 8106
CH$LINK: COMPTOX DTXSID5024059
AC$INSTRUMENT: Bruker maXis Impact
AC$INSTRUMENT_TYPE: LC-ESI-QTOF
AC$MASS_SPECTROMETRY: MS_TYPE MS2
AC$MASS_SPECTROMETRY: ION_MODE POSITIVE
AC$MASS_SPECTROMETRY: IONIZATION ESI
AC$MASS_SPECTROMETRY: FRAGMENTATION_MODE CID
AC$MASS_SPECTROMETRY: COLLISION_ENERGY 10 eV
AC$MASS_SPECTROMETRY: RESOLUTION 35000
AC$CHROMATOGRAPHY: COLUMN_NAME Acclaim RSLC C18 2.2um, 2.1x100mm, Thermo
AC$CHROMATOGRAPHY: FLOW_GRADIENT 99/1 at 0-1 min, 61/39 at 3 min, 0.1/99.9 at 14-16 min, 99/1 at 16.1-20 min
AC$CHROMATOGRAPHY: FLOW_RATE 200 uL/min at 0-3 min, 400 uL/min at 14 min, 480 uL/min at 16-19 min, 200 uL/min at 19.1-20 min
AC$CHROMATOGRAPHY: RETENTION_TIME 5.631 min
AC$CHROMATOGRAPHY: SOLVENT A 90:10 water:methanol with 0.01% formic acid and 5mM ammonium formate
AC$CHROMATOGRAPHY: SOLVENT B methanol with 0.01% formic acid and 5mM ammonium formate
MS$FOCUSED_ION: BASE_PEAK 213.1378
MS$FOCUSED_ION: PRECURSOR_M/Z 213.1386
MS$FOCUSED_ION: PRECURSOR_TYPE [M+H]+
MS$DATA_PROCESSING: RECALIBRATE identity on assigned fragments and MS1
MS$DATA_PROCESSING: WHOLE RMassBank 2.10.0
PK$SPLASH: splash10-03di-0090000000-360f2f58c21fac3027c1
PK$ANNOTATION: m/z tentative_formula formula_count mass error(ppm)
  196.111 C14H14N+ 1 196.1121 -5.67
  198.1141 C13H14N2+ 1 198.1151 -5.52
  211.1222 C14H15N2+ 1 211.123 -3.47
  212.1304 C14H16N2+ 1 212.1308 -2.12
  213.1376 C14H17N2+ 1 213.1386 -4.88
  214.141 C13[13]CH17N2+ 1 214.1425 -6.9
  215.144 C12[13]C2H17N2+ 1 215.1459 -8.68
PK$NUM_PEAK: 7
PK$PEAK: m/z int. rel.int.
  196.111 11944 9
  198.1141 8528 6
  211.1222 11688 9
  212.1304 767636 625
  213.1376 1226060 999
  214.141 120612 98
  215.144 8908 7
//
