ACCESSION: MSBNK-Athens_Univ-AU255505
RECORD_TITLE: Dimethachlor ESA; LC-ESI-QTOF; MS2; CE: 50 eV; R=35000; [M+H]+
DATE: 2019.05.29
AUTHORS: Nikiforos Alygizakis, Katerina Galani, Nikolaos Thomaidis, University of Athens
LICENSE: CC BY
COPYRIGHT: Copyright (C) 2019 Department of Chemistry, University of Athens
COMMENT: CONFIDENCE standard compound
COMMENT: INTERNAL_ID 2555
CH$NAME: Dimethachlor ESA
CH$NAME: 2-[(2,6-Dimethylphenyl)(2-methoxyethyl)amino]-2-oxoethanesulfonic acid
CH$NAME: 2-[N-(2-methoxyethyl)-2,6-dimethylanilino]-2-oxoethanesulfonic acid
CH$COMPOUND_CLASS: N/A; Environmental Standard
CH$FORMULA: C13H19NO5S
CH$EXACT_MASS: 301.0983937
CH$SMILES: COCCN(C(=O)CS(O)(=O)=O)C1=C(C)C=CC=C1C
CH$IUPAC: InChI=1S/C13H19NO5S/c1-10-5-4-6-11(2)13(10)14(7-8-19-3)12(15)9-20(16,17)18/h4-6H,7-9H2,1-3H3,(H,16,17,18)
CH$LINK: CHEBI CHEBI:83484
CH$LINK: PUBCHEM CID:86290104
CH$LINK: INCHIKEY RVSCDWJKJDBFRS-UHFFFAOYSA-N
CH$LINK: CHEMSPIDER 28290251
CH$LINK: COMPTOX DTXSID20891457
AC$INSTRUMENT: Bruker maXis Impact
AC$INSTRUMENT_TYPE: LC-ESI-QTOF
AC$MASS_SPECTROMETRY: MS_TYPE MS2
AC$MASS_SPECTROMETRY: ION_MODE POSITIVE
AC$MASS_SPECTROMETRY: IONIZATION ESI
AC$MASS_SPECTROMETRY: FRAGMENTATION_MODE CID
AC$MASS_SPECTROMETRY: COLLISION_ENERGY 50 eV
AC$MASS_SPECTROMETRY: RESOLUTION 35000
AC$CHROMATOGRAPHY: COLUMN_NAME Acclaim RSLC C18 2.2um, 2.1x100mm, Thermo
AC$CHROMATOGRAPHY: FLOW_GRADIENT 99/1 at 0-1 min, 61/39 at 3 min, 0.1/99.9 at 14-16 min, 99/1 at 16.1-20 min
AC$CHROMATOGRAPHY: FLOW_RATE 200 uL/min at 0-3 min, 400 uL/min at 14 min, 480 uL/min at 16-19 min, 200 uL/min at 19.1-20 min
AC$CHROMATOGRAPHY: RETENTION_TIME 5.761 min
AC$CHROMATOGRAPHY: SOLVENT A 90:10 water:methanol with 0.01% formic acid and 5mM ammonium formate
AC$CHROMATOGRAPHY: SOLVENT B methanol with 0.01% formic acid and 5mM ammonium formate
MS$FOCUSED_ION: BASE_PEAK 212.1502
MS$FOCUSED_ION: PRECURSOR_M/Z 302.1057
MS$FOCUSED_ION: PRECURSOR_TYPE [M+H]+
MS$DATA_PROCESSING: RECALIBRATE identity on assigned fragments and MS1
MS$DATA_PROCESSING: WHOLE RMassBank 2.10.1
PK$SPLASH: splash10-001j-0900000000-8864c7fbca30f058207f
PK$ANNOTATION: m/z tentative_formula formula_count mass error(ppm)
  117.0568 C8H7N+ 3 117.0573 -4.58
  130.0632 C6H10O3+ 3 130.0624 5.82
  131.0725 C9H9N+ 3 131.073 -3.32
  132.0798 C9H10N+ 3 132.0808 -7.13
  133.0834 C8[13]CH10N+ 1 133.0847 -9.55
  144.0813 C4H16O3S+ 4 144.0815 -1.48
  146.0952 C10H12N+ 3 146.0964 -8.36
  147.0982 C9[13]CH12N+ 1 147.1003 -14.2
  148.1113 C10H14N+ 3 148.1121 -5.46
  158.0966 C11H12N+ 4 158.0964 0.96
  174.0909 C11H12NO+ 4 174.0913 -2.6
  175.0935 C8H15O4+ 1 175.0965 -16.97
PK$NUM_PEAK: 12
PK$PEAK: m/z int. rel.int.
  117.0568 828 118
  130.0632 968 138
  131.0725 2492 357
  132.0798 6964 999
  133.0834 800 114
  144.0813 616 88
  146.0952 5204 746
  147.0982 868 124
  148.1113 664 95
  158.0966 468 67
  174.0909 2740 393
  175.0935 656 94
//
