ACCESSION: MSBNK-Athens_Univ-AU285704
RECORD_TITLE: Triethylcitrate; LC-ESI-QTOF; MS2; CE: 40 eV; R=35000; [M+H]+
DATE: 2019.05.31
AUTHORS: Nikiforos Alygizakis, Katerina Galani, Nikolaos Thomaidis, University of Athens
LICENSE: CC BY
COPYRIGHT: Copyright (C) 2019 Department of Chemistry, University of Athens
COMMENT: CONFIDENCE standard compound
COMMENT: INTERNAL_ID 2857
CH$NAME: Triethylcitrate
CH$NAME: Triethyl citrate
CH$NAME: triethyl 2-hydroxypropane-1,2,3-tricarboxylate
CH$COMPOUND_CLASS: N/A; Environmental Standard
CH$FORMULA: C12H20O7
CH$EXACT_MASS: 276.1209030
CH$SMILES: CCOC(=O)CC(O)(CC(=O)OCC)C(=O)OCC
CH$IUPAC: InChI=1S/C12H20O7/c1-4-17-9(13)7-12(16,11(15)19-6-3)8-10(14)18-5-2/h16H,4-8H2,1-3H3
CH$LINK: CAS 77-93-0
CH$LINK: KEGG D06228
CH$LINK: PUBCHEM CID:6506
CH$LINK: INCHIKEY DOOTYTYQINUNNV-UHFFFAOYSA-N
CH$LINK: CHEMSPIDER 13850879
CH$LINK: COMPTOX DTXSID0040701
AC$INSTRUMENT: Bruker maXis Impact
AC$INSTRUMENT_TYPE: LC-ESI-QTOF
AC$MASS_SPECTROMETRY: MS_TYPE MS2
AC$MASS_SPECTROMETRY: ION_MODE POSITIVE
AC$MASS_SPECTROMETRY: IONIZATION ESI
AC$MASS_SPECTROMETRY: FRAGMENTATION_MODE CID
AC$MASS_SPECTROMETRY: COLLISION_ENERGY 40 eV
AC$MASS_SPECTROMETRY: RESOLUTION 35000
AC$CHROMATOGRAPHY: COLUMN_NAME Acclaim RSLC C18 2.2um, 2.1x100mm, Thermo
AC$CHROMATOGRAPHY: FLOW_GRADIENT 99/1 at 0-1 min, 61/39 at 3 min, 0.1/99.9 at 14-16 min, 99/1 at 16.1-20 min
AC$CHROMATOGRAPHY: FLOW_RATE 200 uL/min at 0-3 min, 400 uL/min at 14 min, 480 uL/min at 16-19 min, 200 uL/min at 19.1-20 min
AC$CHROMATOGRAPHY: RETENTION_TIME 6.982 min
AC$CHROMATOGRAPHY: SOLVENT A 90:10 water:methanol with 0.01% formic acid and 5mM ammonium formate
AC$CHROMATOGRAPHY: SOLVENT B methanol with 0.01% formic acid and 5mM ammonium formate
MS$FOCUSED_ION: BASE_PEAK 277.1277
MS$FOCUSED_ION: PRECURSOR_M/Z 277.1282
MS$FOCUSED_ION: PRECURSOR_TYPE [M+H]+
MS$DATA_PROCESSING: RECALIBRATE identity on assigned fragments and MS1
MS$DATA_PROCESSING: WHOLE RMassBank 2.10.1
PK$SPLASH: splash10-052r-0900000000-34e25f82ddb9ad07320c
PK$ANNOTATION: m/z tentative_formula formula_count mass error(ppm)
  129.0166 C5H5O4+ 1 129.0182 -12.61
  139.0008 C6H3O4+ 1 139.0026 -13.2
  140.0032 C5[13]CH3O4+ 1 140.0065 -23.39
  149.0217 C8H5O3+ 1 149.0233 -11.09
  157.0129 C6H5O5+ 1 157.0131 -1.55
  157.0476 C7H9O4+ 1 157.0495 -12.63
  158.0516 C6[13]CH9O4+ 1 158.0534 -11.82
PK$NUM_PEAK: 7
PK$PEAK: m/z int. rel.int.
  129.0166 1108 166
  139.0008 6648 999
  140.0032 672 100
  149.0217 444 66
  157.0129 536 80
  157.0476 4880 733
  158.0516 672 100
//
