ACCESSION: MSBNK-Athens_Univ-AU242901
RECORD_TITLE: 4,4`-Thiodianiline; LC-ESI-QTOF; MS2; CE: 10 eV; R=35000; [M+H]+
DATE: 2019.04.05
AUTHORS: Nikiforos Alygizakis, Katerina Galani, Nikolaos Thomaidis, University of Athens
LICENSE: CC BY
COPYRIGHT: Copyright (C) 2019 Department of Chemistry, University of Athens
COMMENT: CONFIDENCE standard compound
COMMENT: INTERNAL_ID 2429
CH$NAME: 4,4`-Thiodianiline
CH$NAME: 4-(4-aminophenyl)sulfanylaniline
CH$COMPOUND_CLASS: N/A; Environmental Standard
CH$FORMULA: C12H12N2S
CH$EXACT_MASS: 216.0721194
CH$SMILES: NC1=CC=C(SC2=CC=C(N)C=C2)C=C1
CH$IUPAC: InChI=1S/C12H12N2S/c13-9-1-5-11(6-2-9)15-12-7-3-10(14)4-8-12/h1-8H,13-14H2
CH$LINK: CAS 139-65-1
CH$LINK: CHEBI CHEBI:82374
CH$LINK: KEGG C19303
CH$LINK: PUBCHEM CID:8765
CH$LINK: INCHIKEY ICNFHJVPAJKPHW-UHFFFAOYSA-N
CH$LINK: CHEMSPIDER 8435
CH$LINK: COMPTOX DTXSID9021344
AC$INSTRUMENT: Bruker maXis Impact
AC$INSTRUMENT_TYPE: LC-ESI-QTOF
AC$MASS_SPECTROMETRY: MS_TYPE MS2
AC$MASS_SPECTROMETRY: ION_MODE POSITIVE
AC$MASS_SPECTROMETRY: IONIZATION ESI
AC$MASS_SPECTROMETRY: FRAGMENTATION_MODE CID
AC$MASS_SPECTROMETRY: COLLISION_ENERGY 10 eV
AC$MASS_SPECTROMETRY: RESOLUTION 35000
AC$CHROMATOGRAPHY: COLUMN_NAME Acclaim RSLC C18 2.2um, 2.1x100mm, Thermo
AC$CHROMATOGRAPHY: FLOW_GRADIENT 99/1 at 0-1 min, 61/39 at 3 min, 0.1/99.9 at 14-16 min, 99/1 at 16.1-20 min
AC$CHROMATOGRAPHY: FLOW_RATE 200 uL/min at 0-3 min, 400 uL/min at 14 min, 480 uL/min at 16-19 min, 200 uL/min at 19.1-20 min
AC$CHROMATOGRAPHY: RETENTION_TIME 6.233 min
AC$CHROMATOGRAPHY: SOLVENT A 90:10 water:methanol with 0.01% formic acid and 5mM ammonium formate
AC$CHROMATOGRAPHY: SOLVENT B methanol with 0.01% formic acid and 5mM ammonium formate
MS$FOCUSED_ION: BASE_PEAK 217.0788
MS$FOCUSED_ION: PRECURSOR_M/Z 217.0794
MS$FOCUSED_ION: PRECURSOR_TYPE [M+H]+
MS$DATA_PROCESSING: RECALIBRATE identity on assigned fragments and MS1
MS$DATA_PROCESSING: WHOLE RMassBank 2.10.0
PK$SPLASH: splash10-014i-0090000000-5972f79f21912c991792
PK$ANNOTATION: m/z tentative_formula formula_count mass error(ppm)
  124.0204 C6H6NS+ 2 124.0215 -8.86
  200.0512 C12H10NS+ 1 200.0528 -8.3
  216.0705 C12H12N2S+ 1 216.0716 -4.75
  217.0788 C12H13N2S+ 1 217.0794 -2.78
  218.0816 C11[13]CH13N2S+ 1 218.0833 -7.84
  219.0748 C12H13N2[34]S+ 1 219.0757 -4.32
PK$NUM_PEAK: 6
PK$PEAK: m/z int. rel.int.
  124.0204 15980 39
  200.0512 2844 7
  216.0705 52260 130
  217.0788 400632 999
  218.0816 46460 115
  219.0748 14404 35
//
