ACCESSION: MSBNK-Athens_Univ-AU200410
RECORD_TITLE: 2-Methyl-4-amino-6-methoxy-s-triazine; LC-ESI-QTOF; MS2; HILIC; CE: 10 eV; R=35000; [M+H]+
DATE: 2016.02.26
AUTHORS: Nikiforos Alygizakis, Nikolaos Thomaidis, University of Athens
LICENSE: CC BY
COPYRIGHT: Copyright (C) 2016 Department of Chemistry, University of Athens
COMMENT: CONFIDENCE standard compound
COMMENT: INTERNAL_ID 2004
CH$NAME: 2-Methyl-4-amino-6-methoxy-s-triazine
CH$NAME: 2-Amino-4-methoxy-6-methyl-1,3,5-triazine
CH$NAME: 4-methoxy-6-methyl-1,3,5-triazin-2-amine
CH$COMPOUND_CLASS: N/A; Environmental Standard
CH$FORMULA: C5H8N4O
CH$EXACT_MASS: 140.0698109
CH$SMILES: CC1=NC(OC)=NC(N)=N1
CH$IUPAC: InChI=1S/C5H8N4O/c1-3-7-4(6)9-5(8-3)10-2/h1-2H3,(H2,6,7,8,9)
CH$LINK: CAS 1668-54-8
CH$LINK: CHEBI CHEBI:83511
CH$LINK: PUBCHEM CID:15466
CH$LINK: INCHIKEY NXFQWRWXEYTOTK-UHFFFAOYSA-N
CH$LINK: CHEMSPIDER 14716
CH$LINK: COMPTOX DTXSID4041230
AC$INSTRUMENT: Bruker maXis Impact
AC$INSTRUMENT_TYPE: LC-ESI-QTOF
AC$MASS_SPECTROMETRY: MS_TYPE MS2
AC$MASS_SPECTROMETRY: ION_MODE POSITIVE
AC$MASS_SPECTROMETRY: IONIZATION ESI
AC$MASS_SPECTROMETRY: FRAGMENTATION_MODE CID
AC$MASS_SPECTROMETRY: COLLISION_ENERGY 10 eV
AC$MASS_SPECTROMETRY: RESOLUTION 35000
AC$CHROMATOGRAPHY: COLUMN_NAME ACQUITY UPLC BEH Amide 1.7 um 2.1x100mm, Waters
AC$CHROMATOGRAPHY: FLOW_GRADIENT 0/100 at 0-2 min, 95/5 at 12 min, 95/5 at 17 min, 0/100 at 17.1, 0/100 at 25 min
AC$CHROMATOGRAPHY: FLOW_RATE 200 uL/min
AC$CHROMATOGRAPHY: RETENTION_TIME 1.880 min
AC$CHROMATOGRAPHY: SOLVENT A Water with 0.01% formic acid and 1mM ammonium formate
AC$CHROMATOGRAPHY: SOLVENT B Acetonitrile:Water 95:5 with 0.01% formic acid and 1mM ammonium formate
MS$FOCUSED_ION: BASE_PEAK 141.0778
MS$FOCUSED_ION: PRECURSOR_M/Z 141.0771
MS$FOCUSED_ION: PRECURSOR_TYPE [M+H]+
MS$DATA_PROCESSING: RECALIBRATE identity on assigned fragments and MS1
MS$DATA_PROCESSING: WHOLE RMassBank 1.99.10
PK$SPLASH: splash10-0006-0900000000-24904e6d96ce67f7520b
PK$ANNOTATION: m/z tentative_formula formula_count mass error(ppm)
  141.0778 C5H9N4O+ 1 141.0771 4.92
  142.0804 C4[13]CH9N4O+ 1 142.081 -4.39
PK$NUM_PEAK: 2
PK$PEAK: m/z int. rel.int.
  141.0778 1059032 999
  142.0804 50452 47
//
