ACCESSION: MSBNK-Athens_Univ-AU161901
RECORD_TITLE: Cocaine; LC-ESI-QTOF; MS2; CE: 10 eV; R=35000; [M+H]+
DATE: 2015.12.07
AUTHORS: Nikiforos Alygizakis, Nikolaos Thomaidis, University of Athens
LICENSE: CC BY-SA
COPYRIGHT: Copyright (C) 2015 Department of Chemistry, University of Athens
COMMENT: CONFIDENCE standard compound
COMMENT: INTERNAL_ID 1619
CH$NAME: Cocaine
CH$NAME: methyl (1S,3S,4R,5R)-3-benzoyloxy-8-methyl-8-azabicyclo[3.2.1]octane-4-carboxylate
CH$COMPOUND_CLASS: N/A; Environmental Standard
CH$FORMULA: C17H21NO4
CH$EXACT_MASS: 303.1470582
CH$SMILES: CN1[C@H]2CC[C@@H]1[C@H]([C@H](C2)OC(=O)c3ccccc3)C(=O)OC
CH$IUPAC: InChI=1S/C17H21NO4/c1-18-12-8-9-13(18)15(17(20)21-2)14(10-12)22-16(19)11-6-4-3-5-7-11/h3-7,12-15H,8-10H2,1-2H3/t12-,13+,14-,15+/m0/s1
CH$LINK: CAS 50-36-2
CH$LINK: CHEBI CHEBI:27958
CH$LINK: KEGG C01416
CH$LINK: PUBCHEM CID:446220
CH$LINK: INCHIKEY ZPUCINDJVBIVPJ-LJISPDSOSA-N
CH$LINK: CHEMSPIDER 10194104
CH$LINK: COMPTOX DTXSID2038443
AC$INSTRUMENT: Bruker maXis Impact
AC$INSTRUMENT_TYPE: LC-ESI-QTOF
AC$MASS_SPECTROMETRY: MS_TYPE MS2
AC$MASS_SPECTROMETRY: ION_MODE POSITIVE
AC$MASS_SPECTROMETRY: IONIZATION ESI
AC$MASS_SPECTROMETRY: FRAGMENTATION_MODE CID
AC$MASS_SPECTROMETRY: COLLISION_ENERGY 10 eV
AC$MASS_SPECTROMETRY: RESOLUTION 35000
AC$CHROMATOGRAPHY: COLUMN_NAME Acclaim RSLC C18 2.2um, 2.1x100mm, Thermo
AC$CHROMATOGRAPHY: FLOW_GRADIENT 99/1 at 0-1 min, 61/39 at 3 min, 0.1/99.9 at 14-16 min, 99/1 at 16.1-20 min
AC$CHROMATOGRAPHY: FLOW_RATE 200 uL/min at 0-3 min, 400 uL/min at 14 min, 480 uL/min at 16-19 min, 200 uL/min at 19.1-20 min
AC$CHROMATOGRAPHY: RETENTION_TIME 4.9 min
AC$CHROMATOGRAPHY: SOLVENT A 90:10 water:methanol with 0.01% formic acid and 5mM ammonium formate
AC$CHROMATOGRAPHY: SOLVENT B methanol with 0.01% formic acid and 5mM ammonium formate
MS$FOCUSED_ION: BASE_PEAK 304.155
MS$FOCUSED_ION: PRECURSOR_M/Z 304.1543
MS$FOCUSED_ION: PRECURSOR_TYPE [M+H]+
MS$DATA_PROCESSING: RECALIBRATE identity on assigned fragments and MS1
MS$DATA_PROCESSING: REANALYZE Peaks with additional N2/O included
MS$DATA_PROCESSING: WHOLE RMassBank 2.0.3
PK$SPLASH: splash10-0udi-0009000000-a2004e33ce1140fd0ed1
PK$ANNOTATION: m/z tentative_formula formula_count mass error(ppm)
  182.117 C10H16NO2+ 1 182.1176 -3.06
  304.1559 C17H22NO4+ 1 304.1543 5.15
  305.1582 C16[13]CH22NO4+ 1 305.1576 1.97
  306.1606 C15[13]C2H22NO4+ 1 306.1601 1.63
PK$NUM_PEAK: 4
PK$PEAK: m/z int. rel.int.
  182.117 166664 66
  304.1559 2512408 999
  305.1582 887824 353
  306.1606 51800 20
//
