ACCESSION: MSBNK-Athens_Univ-AU242401
RECORD_TITLE: 3,3`-Dichlorobenzidine; LC-ESI-QTOF; MS2; CE: 10 eV; R=35000; [M+H]+
DATE: 2019.04.05
AUTHORS: Nikiforos Alygizakis, Katerina Galani, Nikolaos Thomaidis, University of Athens
LICENSE: CC BY
COPYRIGHT: Copyright (C) 2019 Department of Chemistry, University of Athens
COMMENT: CONFIDENCE standard compound
COMMENT: INTERNAL_ID 2424
CH$NAME: 3,3`-Dichlorobenzidine
CH$NAME: 4-(4-amino-3-chlorophenyl)-2-chloroaniline
CH$COMPOUND_CLASS: N/A; Environmental Standard
CH$FORMULA: C12H10Cl2N2
CH$EXACT_MASS: 252.0221037
CH$SMILES: NC1=CC=C(C=C1Cl)C1=CC=C(N)C(Cl)=C1
CH$IUPAC: InChI=1S/C12H10Cl2N2/c13-9-5-7(1-3-11(9)15)8-2-4-12(16)10(14)6-8/h1-6H,15-16H2
CH$LINK: CAS 91-94-1
CH$LINK: CHEBI CHEBI:82315
CH$LINK: KEGG C19225
CH$LINK: PUBCHEM CID:7070
CH$LINK: INCHIKEY HUWXDEQWWKGHRV-UHFFFAOYSA-N
CH$LINK: CHEMSPIDER 6803
CH$LINK: COMPTOX DTXSID6020432
AC$INSTRUMENT: Bruker maXis Impact
AC$INSTRUMENT_TYPE: LC-ESI-QTOF
AC$MASS_SPECTROMETRY: MS_TYPE MS2
AC$MASS_SPECTROMETRY: ION_MODE POSITIVE
AC$MASS_SPECTROMETRY: IONIZATION ESI
AC$MASS_SPECTROMETRY: FRAGMENTATION_MODE CID
AC$MASS_SPECTROMETRY: COLLISION_ENERGY 10 eV
AC$MASS_SPECTROMETRY: RESOLUTION 35000
AC$CHROMATOGRAPHY: COLUMN_NAME Acclaim RSLC C18 2.2um, 2.1x100mm, Thermo
AC$CHROMATOGRAPHY: FLOW_GRADIENT 99/1 at 0-1 min, 61/39 at 3 min, 0.1/99.9 at 14-16 min, 99/1 at 16.1-20 min
AC$CHROMATOGRAPHY: FLOW_RATE 200 uL/min at 0-3 min, 400 uL/min at 14 min, 480 uL/min at 16-19 min, 200 uL/min at 19.1-20 min
AC$CHROMATOGRAPHY: RETENTION_TIME 8.892 min
AC$CHROMATOGRAPHY: SOLVENT A 90:10 water:methanol with 0.01% formic acid and 5mM ammonium formate
AC$CHROMATOGRAPHY: SOLVENT B methanol with 0.01% formic acid and 5mM ammonium formate
MS$FOCUSED_ION: BASE_PEAK 244.1901
MS$FOCUSED_ION: PRECURSOR_M/Z 253.0294
MS$FOCUSED_ION: PRECURSOR_TYPE [M+H]+
MS$DATA_PROCESSING: RECALIBRATE identity on assigned fragments and MS1
MS$DATA_PROCESSING: WHOLE RMassBank 2.10.0
PK$SPLASH: splash10-0udi-0090000000-a881f28e839102e4f523
PK$ANNOTATION: m/z tentative_formula formula_count mass error(ppm)
  217.0489 C12H10ClN2+ 1 217.0527 -17.65
  251.0136 C12H9Cl2N2+ 1 251.0137 -0.4
  252.0208 C12H10Cl2N2+ 1 252.0216 -3.16
  253.0275 C12H11Cl2N2+ 1 253.0294 -7.27
  254.0179 C12H10Cl[37]ClN2+ 1 254.0192 -4.86
  255.0252 C12H11Cl[37]ClN2+ 1 255.027 -7.03
PK$NUM_PEAK: 6
PK$PEAK: m/z int. rel.int.
  217.0489 468 8
  251.0136 13848 245
  252.0208 56376 999
  253.0275 43344 768
  254.0179 33472 593
  255.0252 27564 488
//
