ACCESSION: MSBNK-Athens_Univ-AU221233
RECORD_TITLE: Lovastatin; LC-ESI-QTOF; MS2; CE: 40 eV; R=35000; [M+Na]+
DATE: 2016.02.28
AUTHORS: Nikiforos Alygizakis, Nikolaos Thomaidis, University of Athens
LICENSE: CC BY
COPYRIGHT: Copyright (C) 2016 Department of Chemistry, University of Athens
COMMENT: CONFIDENCE standard compound
COMMENT: INTERNAL_ID 2212
CH$NAME: Lovastatin
CH$NAME: [(1S,3R,7S,8S,8aR)-8-[2-[(2R,4R)-4-hydroxy-6-oxooxan-2-yl]ethyl]-3,7-dimethyl-1,2,3,7,8,8a-hexahydronaphthalen-1-yl] (2S)-2-methylbutanoate
CH$COMPOUND_CLASS: N/A; Environmental Standard
CH$FORMULA: C24H36O5
CH$EXACT_MASS: 404.2562743
CH$SMILES: CC[C@H](C)C(=O)O[C@H]1C[C@H](C=C2[C@H]1[C@H]([C@H](C=C2)C)CC[C@@H]3C[C@H](CC(=O)O3)O)C
CH$IUPAC: InChI=1S/C24H36O5/c1-5-15(3)24(27)29-21-11-14(2)10-17-7-6-16(4)20(23(17)21)9-8-19-12-18(25)13-22(26)28-19/h6-7,10,14-16,18-21,23,25H,5,8-9,11-13H2,1-4H3/t14-,15-,16-,18+,19+,20-,21-,23-/m0/s1
CH$LINK: CAS 75330-75-5
CH$LINK: CHEBI CHEBI:40303
CH$LINK: KEGG C07074
CH$LINK: PUBCHEM CID:53232
CH$LINK: INCHIKEY PCZOHLXUXFIOCF-BXMDZJJMSA-N
CH$LINK: CHEMSPIDER 48085
CH$LINK: COMPTOX DTXSID5020784
AC$INSTRUMENT: Bruker maXis Impact
AC$INSTRUMENT_TYPE: LC-ESI-QTOF
AC$MASS_SPECTROMETRY: MS_TYPE MS2
AC$MASS_SPECTROMETRY: ION_MODE POSITIVE
AC$MASS_SPECTROMETRY: IONIZATION ESI
AC$MASS_SPECTROMETRY: FRAGMENTATION_MODE CID
AC$MASS_SPECTROMETRY: COLLISION_ENERGY 40 eV
AC$MASS_SPECTROMETRY: RESOLUTION 35000
AC$CHROMATOGRAPHY: COLUMN_NAME Acclaim RSLC C18 2.2um, 2.1x100mm, Thermo
AC$CHROMATOGRAPHY: FLOW_GRADIENT 99/1 at 0-1 min, 61/39 at 3 min, 0.1/99.9 at 14-16 min, 99/1 at 16.1-20 min
AC$CHROMATOGRAPHY: FLOW_RATE 200 uL/min at 0-3 min, 400 uL/min at 14 min, 480 uL/min at 16-19 min, 200 uL/min at 19.1-20 min
AC$CHROMATOGRAPHY: RETENTION_TIME 11.909 min
AC$CHROMATOGRAPHY: SOLVENT A 90:10 water:methanol with 0.01% formic acid and 5mM ammonium formate
AC$CHROMATOGRAPHY: SOLVENT B methanol with 0.01% formic acid and 5mM ammonium formate
MS$FOCUSED_ION: BASE_PEAK 279.1607
MS$FOCUSED_ION: PRECURSOR_M/Z 427.2455
MS$FOCUSED_ION: PRECURSOR_TYPE [M+Na]+
MS$DATA_PROCESSING: RECALIBRATE identity on assigned fragments and MS1
MS$DATA_PROCESSING: WHOLE RMassBank 1.99.10
PK$SPLASH: splash10-004i-0109200000-e60c289c9708d98be087
PK$ANNOTATION: m/z tentative_formula formula_count mass error(ppm)
  199.1511 C6H24NaO5+ 3 199.1516 -2.3
  325.1781 C19H26NaO3+ 2 325.1774 2.1
  326.1832 C19H27NaO3+ 2 326.1852 -6.12
  427.246 C24H36NaO5+ 1 427.2455 1.23
PK$NUM_PEAK: 4
PK$PEAK: m/z int. rel.int.
  199.1511 320 146
  325.1781 2184 999
  326.1832 576 263
  427.246 680 311
//
