ACCESSION: MSBNK-Athens_Univ-AU224805
RECORD_TITLE: Fenfluramine; LC-ESI-QTOF; MS2; CE: 50 eV; R=35000; [M+H]+
DATE: 2015.12.05
AUTHORS: Nikiforos Alygizakis, Nikolaos Thomaidis, University of Athens
LICENSE: CC BY-SA
COPYRIGHT: Copyright (C) 2015 Department of Chemistry, University of Athens
COMMENT: CONFIDENCE standard compound
COMMENT: INTERNAL_ID 2248
CH$NAME: Fenfluramine
CH$NAME: N-ethyl-1-[3-(trifluoromethyl)phenyl]propan-2-amine
CH$COMPOUND_CLASS: N/A; Environmental Standard
CH$FORMULA: C12H16F3N
CH$EXACT_MASS: 231.1234842
CH$SMILES: CCNC(C)CC1=CC(=CC=C1)C(F)(F)F
CH$IUPAC: InChI=1S/C12H16F3N/c1-3-16-9(2)7-10-5-4-6-11(8-10)12(13,14)15/h4-6,8-9,16H,3,7H2,1-2H3
CH$LINK: CAS 3239-44-9
CH$LINK: CHEBI CHEBI:5000
CH$LINK: KEGG D07945
CH$LINK: PUBCHEM CID:3337
CH$LINK: INCHIKEY DBGIVFWFUFKIQN-UHFFFAOYSA-N
CH$LINK: CHEMSPIDER 3220
CH$LINK: COMPTOX DTXSID4023044
AC$INSTRUMENT: Bruker maXis Impact
AC$INSTRUMENT_TYPE: LC-ESI-QTOF
AC$MASS_SPECTROMETRY: MS_TYPE MS2
AC$MASS_SPECTROMETRY: ION_MODE POSITIVE
AC$MASS_SPECTROMETRY: IONIZATION ESI
AC$MASS_SPECTROMETRY: FRAGMENTATION_MODE CID
AC$MASS_SPECTROMETRY: COLLISION_ENERGY 50 eV
AC$MASS_SPECTROMETRY: RESOLUTION 35000
AC$CHROMATOGRAPHY: COLUMN_NAME Acclaim RSLC C18 2.2um, 2.1x100mm, Thermo
AC$CHROMATOGRAPHY: FLOW_GRADIENT 99/1 at 0-1 min, 61/39 at 3 min, 0.1/99.9 at 14-16 min, 99/1 at 16.1-20 min
AC$CHROMATOGRAPHY: FLOW_RATE 200 uL/min at 0-3 min, 400 uL/min at 14 min, 480 uL/min at 16-19 min, 200 uL/min at 19.1-20 min
AC$CHROMATOGRAPHY: RETENTION_TIME 6.2 min
AC$CHROMATOGRAPHY: SOLVENT A 90:10 water:methanol with 0.01% formic acid and 5mM ammonium formate
AC$CHROMATOGRAPHY: SOLVENT B methanol with 0.01% formic acid and 5mM ammonium formate
MS$FOCUSED_ION: BASE_PEAK 232.1302
MS$FOCUSED_ION: PRECURSOR_M/Z 232.1308
MS$FOCUSED_ION: PRECURSOR_TYPE [M+H]+
MS$DATA_PROCESSING: RECALIBRATE identity on assigned fragments and MS1
MS$DATA_PROCESSING: REANALYZE Peaks with additional N2/O included
MS$DATA_PROCESSING: WHOLE RMassBank 2.0.3
PK$SPLASH: splash10-0a4i-0900000000-051ff0ad0ba0c9f76270
PK$ANNOTATION: m/z tentative_formula formula_count mass error(ppm)
  133.0246 C6H4F3+ 1 133.026 -10.36
  137.0383 C11H5+ 1 137.0386 -2.25
  139.0343 C8H5F2+ 1 139.0354 -7.94
  140.0375 C9H4N2+ 2 140.0369 3.95
  146.0516 C10H7F+ 1 146.0526 -7.02
  147.0342 C8H4FN2+ 2 147.0353 -7.33
  148.0373 C7[13]CH4FN2+ 1 148.0382 -6.08
  158.0324 C8H5F3+ 1 158.0338 -8.93
  159.0406 C8H6F3+ 1 159.0416 -6.32
  160.0442 C7[13]CH6F3+ 1 160.045 -5
PK$NUM_PEAK: 10
PK$PEAK: m/z int. rel.int.
  133.0246 7804 14
  137.0383 6772 12
  139.0343 56960 103
  140.0375 4892 8
  146.0516 5188 9
  147.0342 41036 74
  148.0373 4420 8
  158.0324 5084 9
  159.0406 547580 999
  160.0442 41328 75
//
