ACCESSION: MSBNK-Athens_Univ-AU235957
RECORD_TITLE: Vardenafil; LC-ESI-QTOF; MS2; CE: 10 eV; R=35000; [M-H]-
DATE: 2019.03.29
AUTHORS: Nikiforos Alygizakis, Katerina Galani, Nikolaos Thomaidis, University of Athens
LICENSE: CC BY
COPYRIGHT: Copyright (C) 2019 Department of Chemistry, University of Athens
COMMENT: CONFIDENCE standard compound
COMMENT: INTERNAL_ID 2359
CH$NAME: Vardenafil
CH$NAME: CID 110634
CH$NAME: 2-[2-ethoxy-5-(4-ethylpiperazin-1-yl)sulfonylphenyl]-5-methyl-7-propyl-1H-imidazo[5,1-f][1,2,4]triazin-4-one
CH$COMPOUND_CLASS: N/A; Environmental Standard
CH$FORMULA: C23H32N6O4S
CH$EXACT_MASS: 488.2205745
CH$SMILES: CCCC1=NC(C)=C2N1NC(=NC2=O)C1=C(OCC)C=CC(=C1)S(=O)(=O)N1CCN(CC)CC1
CH$IUPAC: InChI=1S/C23H32N6O4S/c1-5-8-20-24-16(4)21-23(30)25-22(26-29(20)21)18-15-17(9-10-19(18)33-7-3)34(31,32)28-13-11-27(6-2)12-14-28/h9-10,15H,5-8,11-14H2,1-4H3,(H,25,26,30)
CH$LINK: CAS 224785-90-4
CH$LINK: CHEBI CHEBI:46295
CH$LINK: KEGG D08668
CH$LINK: INCHIKEY SECKRCOLJRRGGV-UHFFFAOYSA-N
CH$LINK: CHEMSPIDER 99300
CH$LINK: COMPTOX DTXSID3048318
CH$LINK: PUBCHEM CID:135400189
AC$INSTRUMENT: Bruker maXis Impact
AC$INSTRUMENT_TYPE: LC-ESI-QTOF
AC$MASS_SPECTROMETRY: MS_TYPE MS2
AC$MASS_SPECTROMETRY: ION_MODE NEGATIVE
AC$MASS_SPECTROMETRY: IONIZATION ESI
AC$MASS_SPECTROMETRY: FRAGMENTATION_MODE CID
AC$MASS_SPECTROMETRY: COLLISION_ENERGY 10 eV
AC$MASS_SPECTROMETRY: RESOLUTION 35000
AC$CHROMATOGRAPHY: COLUMN_NAME Acclaim RSLC C18 2.2um, 2.1x100mm, Thermo
AC$CHROMATOGRAPHY: FLOW_GRADIENT 99/1 at 0-1 min, 61/39 at 3 min, 0.1/99.9 at 14-16 min, 99/1 at 16.1-20 min
AC$CHROMATOGRAPHY: FLOW_RATE 200 uL/min at 0-3 min, 400 uL/min at 14 min, 480 uL/min at 16-19 min, 200 uL/min at 19.1-20 min
AC$CHROMATOGRAPHY: RETENTION_TIME 9.846 min
AC$CHROMATOGRAPHY: SOLVENT A 90:10 water:methanol with 5mM ammonium acetate
AC$CHROMATOGRAPHY: SOLVENT B methanol with 5mM ammonium acetate
MS$FOCUSED_ION: BASE_PEAK 487.2115
MS$FOCUSED_ION: PRECURSOR_M/Z 487.2133
MS$FOCUSED_ION: PRECURSOR_TYPE [M-H]-
MS$DATA_PROCESSING: RECALIBRATE identity on assigned fragments and MS1
MS$DATA_PROCESSING: WHOLE RMassBank 2.10.0
PK$SPLASH: splash10-000i-0000900000-e10263c8f866f8b725ea
PK$ANNOTATION: m/z tentative_formula formula_count mass error(ppm)
  350.1179 C16H20N3O4S- 9 350.118 -0.31
  487.2129 C23H31N6O4S- 1 487.2133 -0.92
  488.2153 C22[13]CH31N6O4S- 1 488.2161 -1.6
PK$NUM_PEAK: 3
PK$PEAK: m/z int. rel.int.
  350.1179 400 42
  487.2129 9432 999
  488.2153 2372 251
//
