ACCESSION: MSBNK-Athens_Univ-AU313301
RECORD_TITLE: Monocrotophos; LC-ESI-QTOF; MS2; CE: 10 eV; R=35000; [M+H]+
DATE: 2016.02.22
AUTHORS: Nikiforos Alygizakis, Reza Aalizadeh, Nikolaos Thomaidis, University of Athens
LICENSE: CC BY
COPYRIGHT: Copyright (C) 2016 Department of Chemistry, University of Athens
COMMENT: CONFIDENCE standard compound
COMMENT: INTERNAL_ID 3133
CH$NAME: Monocrotophos
CH$NAME: dimethyl [(E)-4-(methylamino)-4-oxobut-2-en-2-yl] phosphate
CH$COMPOUND_CLASS: N/A; Environmental Standard
CH$FORMULA: C7H14NO5P
CH$EXACT_MASS: 223.0609592
CH$SMILES: C/C(=C\C(=N\C)\O)/OP(=O)(OC)OC
CH$IUPAC: InChI=1S/C7H14NO5P/c1-6(5-7(9)8-2)13-14(10,11-3)12-4/h5H,1-4H3,(H,8,9)/b6-5+
CH$LINK: CAS 6923-22-4
CH$LINK: CHEBI CHEBI:38728
CH$LINK: KEGG C18663
CH$LINK: PUBCHEM CID:5371562
CH$LINK: INCHIKEY KRTSDMXIXPKRQR-AATRIKPKSA-N
CH$LINK: CHEMSPIDER 4522053
CH$LINK: COMPTOX DTXSID9034816
AC$INSTRUMENT: Bruker maXis Impact
AC$INSTRUMENT_TYPE: LC-ESI-QTOF
AC$MASS_SPECTROMETRY: MS_TYPE MS2
AC$MASS_SPECTROMETRY: ION_MODE POSITIVE
AC$MASS_SPECTROMETRY: IONIZATION ESI
AC$MASS_SPECTROMETRY: FRAGMENTATION_MODE CID
AC$MASS_SPECTROMETRY: COLLISION_ENERGY 10 eV
AC$MASS_SPECTROMETRY: RESOLUTION 35000
AC$CHROMATOGRAPHY: COLUMN_NAME Acclaim RSLC C18 2.2um, 2.1x100mm, Thermo
AC$CHROMATOGRAPHY: FLOW_GRADIENT 99/1 at 0-1 min, 61/39 at 3 min, 0.1/99.9 at 14-16 min, 99/1 at 16.1-20 min
AC$CHROMATOGRAPHY: FLOW_RATE 200 uL/min at 0-3 min, 400 uL/min at 14 min, 480 uL/min at 16-19 min, 200 uL/min at 19.1-20 min
AC$CHROMATOGRAPHY: RETENTION_TIME 4.210 min
AC$CHROMATOGRAPHY: SOLVENT A 90:10 water:methanol with 0.01% formic acid and 5mM ammonium formate
AC$CHROMATOGRAPHY: SOLVENT B methanol with 0.01% formic acid and 5mM ammonium formate
MS$FOCUSED_ION: BASE_PEAK 224.0696
MS$FOCUSED_ION: PRECURSOR_M/Z 224.0682
MS$FOCUSED_ION: PRECURSOR_TYPE [M+H]+
MS$DATA_PROCESSING: RECALIBRATE identity on assigned fragments and MS1
MS$DATA_PROCESSING: WHOLE RMassBank 1.99.10
PK$SPLASH: splash10-002f-0900000000-bc93c9f49b96b126240c
PK$ANNOTATION: m/z tentative_formula formula_count mass error(ppm)
  127.016 C2H8O4P+ 2 127.0155 3.87
  128.0192 C[13]CH8O4P+ 1 128.0194 -1.75
  167.0472 C5H12O4P+ 1 167.0468 2.65
  168.0506 C4[13]CH12O4P+ 1 168.0507 -0.33
  193.0274 C6H10O5P+ 1 193.026 6.85
  194.0302 C5[13]CH10O5P+ 1 194.0299 1.2
  195.0314 C6H10O4[18]OP+ 1 195.0308 2.88
  224.0697 C7H15NO5P+ 1 224.0682 6.38
PK$NUM_PEAK: 8
PK$PEAK: m/z int. rel.int.
  127.016 282704 519
  128.0192 6628 12
  167.0472 72960 134
  168.0506 4068 7
  193.0274 543528 999
  194.0302 26452 48
  195.0314 4792 8
  224.0697 29020 53
//
