ACCESSION: MSBNK-Athens_Univ-AU229005
RECORD_TITLE: Desacetyldiltiazem; LC-ESI-QTOF; MS2; CE: 50 eV; R=35000; [M+H]+
DATE: 2018.12.19
AUTHORS: Nikiforos Alygizakis, Katerina Galani, Nikolaos Thomaidis, University of Athens
LICENSE: CC BY
COPYRIGHT: Copyright (C) 2018 Department of Chemistry, University of Athens
COMMENT: CONFIDENCE standard compound
COMMENT: INTERNAL_ID 2290
CH$NAME: Desacetyldiltiazem
CH$NAME: (2S,3S)-5-[2-(dimethylamino)ethyl]-3-hydroxy-2-(4-methoxyphenyl)-2,3-dihydro-1,5-benzothiazepin-4-one
CH$COMPOUND_CLASS: N/A; Environmental Standard
CH$FORMULA: C20H24N2O3S
CH$EXACT_MASS: 372.1507636
CH$SMILES: CN(C)CCN1c2ccccc2S[C@H]([C@H](C1=O)O)c3ccc(cc3)OC
CH$IUPAC: InChI=1S/C20H24N2O3S/c1-21(2)12-13-22-16-6-4-5-7-17(16)26-19(18(23)20(22)24)14-8-10-15(25-3)11-9-14/h4-11,18-19,23H,12-13H2,1-3H3/t18-,19+/m1/s1
CH$LINK: CAS 4592-94-3
CH$LINK: PUBCHEM CID:91638
CH$LINK: INCHIKEY NZHUXMZTSSZXSB-MOPGFXCFSA-N
CH$LINK: CHEMSPIDER 82743
CH$LINK: COMPTOX DTXSID00881093
AC$INSTRUMENT: Bruker maXis Impact
AC$INSTRUMENT_TYPE: LC-ESI-QTOF
AC$MASS_SPECTROMETRY: MS_TYPE MS2
AC$MASS_SPECTROMETRY: ION_MODE POSITIVE
AC$MASS_SPECTROMETRY: IONIZATION ESI
AC$MASS_SPECTROMETRY: FRAGMENTATION_MODE CID
AC$MASS_SPECTROMETRY: COLLISION_ENERGY 50 eV
AC$MASS_SPECTROMETRY: RESOLUTION 35000
AC$CHROMATOGRAPHY: COLUMN_NAME Acclaim RSLC C18 2.2um, 2.1x100mm, Thermo
AC$CHROMATOGRAPHY: FLOW_GRADIENT 99/1 at 0-1 min, 61/39 at 3 min, 0.1/99.9 at 14-16 min, 99/1 at 16.1-20 min
AC$CHROMATOGRAPHY: FLOW_RATE 200 uL/min at 0-3 min, 400 uL/min at 14 min, 480 uL/min at 16-19 min, 200 uL/min at 19.1-20 min
AC$CHROMATOGRAPHY: RETENTION_TIME 6.267 min
AC$CHROMATOGRAPHY: SOLVENT A 90:10 water:methanol with 0.01% formic acid and 5mM ammonium formate
AC$CHROMATOGRAPHY: SOLVENT B methanol with 0.01% formic acid and 5mM ammonium formate
MS$FOCUSED_ION: BASE_PEAK 373.1586
MS$FOCUSED_ION: PRECURSOR_M/Z 373.158
MS$FOCUSED_ION: PRECURSOR_TYPE [M+H]+
MS$DATA_PROCESSING: RECALIBRATE identity on assigned fragments and MS1
MS$DATA_PROCESSING: WHOLE RMassBank 2.10.0
PK$SPLASH: splash10-0ufr-0900000000-d49a4a20329efaf093de
PK$ANNOTATION: m/z tentative_formula formula_count mass error(ppm)
  109.0103 C6H5S+ 1 109.0106 -3.03
  117.0565 C8H7N+ 3 117.0573 -6.67
  121.0641 H13N2O3S+ 2 121.0641 -0.71
  136.0205 C7H6NS+ 3 136.0215 -7.92
  148.0495 C9H8O2+ 1 148.0519 -15.76
  149.0575 C9H9O2+ 1 149.0597 -14.89
  150.0362 C5H10O3S+ 3 150.0345 11.25
  151.0391 C4[13]CH10O3S+ 1 151.0384 4.62
  152.0319 C5H10O3[34]S+ 1 152.0309 7.08
  176.0805 C11H12O2+ 1 176.0832 -15.29
  178.0313 C9H8NOS+ 2 178.0321 -4.76
  179.0343 C8[13]CH8NOS+ 1 179.036 -9.5
  180.0271 C9H8NO[34]S+ 1 180.0285 -7.63
PK$NUM_PEAK: 13
PK$PEAK: m/z int. rel.int.
  109.0103 15672 7
  117.0565 13112 6
  121.0641 24144 11
  136.0205 21516 10
  148.0495 41844 20
  149.0575 13224 6
  150.0362 2088160 999
  151.0391 141360 67
  152.0319 52848 25
  176.0805 11492 5
  178.0313 1519820 727
  179.0343 108760 52
  180.0271 37788 18
//
