ACCESSION: MSBNK-Athens_Univ-AU230862
RECORD_TITLE: 5-Chlorobenzotriazole; LC-ESI-QTOF; MS2; CE: Ramp 20-30 eV; R=35000; [M-H]-
DATE: 2019.03.28
AUTHORS: Nikiforos Alygizakis, Katerina Galani, Nikolaos Thomaidis, University of Athens
LICENSE: CC BY
COPYRIGHT: Copyright (C) 2019 Department of Chemistry, University of Athens
COMMENT: CONFIDENCE standard compound
COMMENT: INTERNAL_ID 2308
CH$NAME: 5-Chlorobenzotriazole
CH$NAME: 5-chloro-2H-benzotriazole
CH$COMPOUND_CLASS: N/A; Environmental Standard
CH$FORMULA: C6H4ClN3
CH$EXACT_MASS: 153.0093748
CH$SMILES: ClC1=CC2=NNN=C2C=C1
CH$IUPAC: InChI=1S/C6H4ClN3/c7-4-1-2-5-6(3-4)9-10-8-5/h1-3H,(H,8,9,10)
CH$LINK: CAS 94-97-3
CH$LINK: PUBCHEM CID:66760
CH$LINK: INCHIKEY PZBQVZFITSVHAW-UHFFFAOYSA-N
CH$LINK: CHEMSPIDER 60126
CH$LINK: COMPTOX DTXSID0047450
AC$INSTRUMENT: Bruker maXis Impact
AC$INSTRUMENT_TYPE: LC-ESI-QTOF
AC$MASS_SPECTROMETRY: MS_TYPE MS2
AC$MASS_SPECTROMETRY: ION_MODE NEGATIVE
AC$MASS_SPECTROMETRY: IONIZATION ESI
AC$MASS_SPECTROMETRY: FRAGMENTATION_MODE CID
AC$MASS_SPECTROMETRY: COLLISION_ENERGY Ramp 20-30 eV
AC$MASS_SPECTROMETRY: RESOLUTION 35000
AC$CHROMATOGRAPHY: COLUMN_NAME Acclaim RSLC C18 2.2um, 2.1x100mm, Thermo
AC$CHROMATOGRAPHY: FLOW_GRADIENT 99/1 at 0-1 min, 61/39 at 3 min, 0.1/99.9 at 14-16 min, 99/1 at 16.1-20 min
AC$CHROMATOGRAPHY: FLOW_RATE 200 uL/min at 0-3 min, 400 uL/min at 14 min, 480 uL/min at 16-19 min, 200 uL/min at 19.1-20 min
AC$CHROMATOGRAPHY: RETENTION_TIME 6.379 min
AC$CHROMATOGRAPHY: SOLVENT A 90:10 water:methanol with 5mM ammonium acetate
AC$CHROMATOGRAPHY: SOLVENT B methanol with 5mM ammonium acetate
MS$FOCUSED_ION: BASE_PEAK 59.013
MS$FOCUSED_ION: PRECURSOR_M/Z 152.0021
MS$FOCUSED_ION: PRECURSOR_TYPE [M-H]-
MS$DATA_PROCESSING: RECALIBRATE identity on assigned fragments and MS1
MS$DATA_PROCESSING: WHOLE RMassBank 2.10.0
PK$SPLASH: splash10-0udi-1900000000-e0f8e22020ba61f4f876
PK$ANNOTATION: m/z tentative_formula formula_count mass error(ppm)
  88.0181 C6H2N- 1 88.0193 -13.26
  116.024 C6H2N3- 1 116.0254 -12.11
  152.0027 C6H3ClN3- 1 152.0021 4.13
  153.0052 C5[13]CH3ClN3- 1 153.0049 1.74
  153.9996 C6H3[37]ClN3- 1 153.9986 6.44
PK$NUM_PEAK: 5
PK$PEAK: m/z int. rel.int.
  88.0181 7376 260
  116.024 456 16
  152.0027 28296 999
  153.0052 2072 73
  153.9996 5444 192
//
