ACCESSION: MSBNK-Athens_Univ-AU239059
RECORD_TITLE: 5-Aminonaphthalene-2-sulfonic acid; LC-ESI-QTOF; MS2; CE: 30 eV; R=35000; [M-H]-
DATE: 2019.03.29
AUTHORS: Nikiforos Alygizakis, Katerina Galani, Nikolaos Thomaidis, University of Athens
LICENSE: CC BY
COPYRIGHT: Copyright (C) 2019 Department of Chemistry, University of Athens
COMMENT: CONFIDENCE standard compound
COMMENT: INTERNAL_ID 2390
CH$NAME: 5-Aminonaphthalene-2-sulfonic acid
CH$NAME: 2-Naphthalenesulfonic acid, 5-amino-
CH$COMPOUND_CLASS: N/A; Environmental Standard
CH$FORMULA: C10H9NO3S
CH$EXACT_MASS: 223.0303141
CH$SMILES: NC1=C2C=CC(=CC2=CC=C1)S(O)(=O)=O
CH$IUPAC: InChI=1S/C10H9NO3S/c11-10-3-1-2-7-6-8(15(12,13)14)4-5-9(7)10/h1-6H,11H2,(H,12,13,14)
CH$LINK: CAS 119-79-9
CH$LINK: PUBCHEM CID:8408
CH$LINK: INCHIKEY UWPJYQYRSWYIGZ-UHFFFAOYSA-N
CH$LINK: CHEMSPIDER 8101
CH$LINK: COMPTOX DTXSID6059497
AC$INSTRUMENT: Bruker maXis Impact
AC$INSTRUMENT_TYPE: LC-ESI-QTOF
AC$MASS_SPECTROMETRY: MS_TYPE MS2
AC$MASS_SPECTROMETRY: ION_MODE NEGATIVE
AC$MASS_SPECTROMETRY: IONIZATION ESI
AC$MASS_SPECTROMETRY: FRAGMENTATION_MODE CID
AC$MASS_SPECTROMETRY: COLLISION_ENERGY 30 eV
AC$MASS_SPECTROMETRY: RESOLUTION 35000
AC$CHROMATOGRAPHY: COLUMN_NAME Acclaim RSLC C18 2.2um, 2.1x100mm, Thermo
AC$CHROMATOGRAPHY: FLOW_GRADIENT 99/1 at 0-1 min, 61/39 at 3 min, 0.1/99.9 at 14-16 min, 99/1 at 16.1-20 min
AC$CHROMATOGRAPHY: FLOW_RATE 200 uL/min at 0-3 min, 400 uL/min at 14 min, 480 uL/min at 16-19 min, 200 uL/min at 19.1-20 min
AC$CHROMATOGRAPHY: RETENTION_TIME 3.049 min
AC$CHROMATOGRAPHY: SOLVENT A 90:10 water:methanol with 5mM ammonium acetate
AC$CHROMATOGRAPHY: SOLVENT B methanol with 5mM ammonium acetate
MS$FOCUSED_ION: BASE_PEAK 222.0225
MS$FOCUSED_ION: PRECURSOR_M/Z 222.023
MS$FOCUSED_ION: PRECURSOR_TYPE [M-H]-
MS$DATA_PROCESSING: RECALIBRATE identity on assigned fragments and MS1
MS$DATA_PROCESSING: WHOLE RMassBank 2.10.0
PK$SPLASH: splash10-0a4i-0930000000-bfbac66c80aca0203f42
PK$ANNOTATION: m/z tentative_formula formula_count mass error(ppm)
  158.0611 C10H8NO- 1 158.0611 -0.09
  222.0209 C10H8NO3S- 1 222.023 -9.74
PK$NUM_PEAK: 2
PK$PEAK: m/z int. rel.int.
  158.0611 1716 999
  222.0209 576 335
//
