ACCESSION: MSBNK-Athens_Univ-AU357301
RECORD_TITLE: Napropamide; LC-ESI-QTOF; MS2; CE: 10 eV; R=35000; [M+H]+
DATE: 2015.12.09
AUTHORS: Nikiforos Alygizakis, Nikolaos Thomaidis, University of Athens
LICENSE: CC BY-SA
COPYRIGHT: Copyright (C) 2015 Department of Chemistry, University of Athens
COMMENT: CONFIDENCE standard compound
COMMENT: INTERNAL_ID 3573
CH$NAME: Napropamide
CH$NAME: N,N-diethyl-2-naphthalen-1-yloxypropanamide
CH$COMPOUND_CLASS: N/A; Environmental Standard
CH$FORMULA: C17H21NO2
CH$EXACT_MASS: 271.1572289
CH$SMILES: CCN(CC)C(=O)C(C)OC1=C2C=CC=CC2=CC=C1
CH$IUPAC: InChI=1S/C17H21NO2/c1-4-18(5-2)17(19)13(3)20-16-12-8-10-14-9-6-7-11-15(14)16/h6-13H,4-5H2,1-3H3
CH$LINK: CAS 15299-99-7
CH$LINK: CHEBI CHEBI:83771
CH$LINK: KEGG C18868
CH$LINK: PUBCHEM CID:27189
CH$LINK: INCHIKEY WXZVAROIGSFCFJ-UHFFFAOYSA-N
CH$LINK: CHEMSPIDER 25304
CH$LINK: COMPTOX DTXSID5024211
AC$INSTRUMENT: Bruker maXis Impact
AC$INSTRUMENT_TYPE: LC-ESI-QTOF
AC$MASS_SPECTROMETRY: MS_TYPE MS2
AC$MASS_SPECTROMETRY: ION_MODE POSITIVE
AC$MASS_SPECTROMETRY: IONIZATION ESI
AC$MASS_SPECTROMETRY: FRAGMENTATION_MODE CID
AC$MASS_SPECTROMETRY: COLLISION_ENERGY 10 eV
AC$MASS_SPECTROMETRY: RESOLUTION 35000
AC$CHROMATOGRAPHY: COLUMN_NAME Acclaim RSLC C18 2.2um, 2.1x100mm, Thermo
AC$CHROMATOGRAPHY: FLOW_GRADIENT 99/1 at 0-1 min, 61/39 at 3 min, 0.1/99.9 at 14-16 min, 99/1 at 16.1-20 min
AC$CHROMATOGRAPHY: FLOW_RATE 200 uL/min at 0-3 min, 400 uL/min at 14 min, 480 uL/min at 16-19 min, 200 uL/min at 19.1-20 min
AC$CHROMATOGRAPHY: RETENTION_TIME 10.1 min
AC$CHROMATOGRAPHY: SOLVENT A 90:10 water:methanol with 0.01% formic acid and 5mM ammonium formate
AC$CHROMATOGRAPHY: SOLVENT B methanol with 0.01% formic acid and 5mM ammonium formate
MS$FOCUSED_ION: BASE_PEAK 272.1643
MS$FOCUSED_ION: PRECURSOR_M/Z 272.1645
MS$FOCUSED_ION: PRECURSOR_TYPE [M+H]+
MS$DATA_PROCESSING: RECALIBRATE identity on assigned fragments and MS1
MS$DATA_PROCESSING: REANALYZE Peaks with additional N2/O included
MS$DATA_PROCESSING: WHOLE RMassBank 2.0.3
PK$SPLASH: splash10-00di-0290000000-810a9e78c13fb2ef27ee
PK$ANNOTATION: m/z tentative_formula formula_count mass error(ppm)
  129.114 C7H15NO+ 1 129.1148 -6.51
  130.1168 C2H16N3O3+ 1 130.1186 -13.84
  171.0791 C12H11O+ 1 171.0804 -7.84
  172.0823 C11[13]CH11O+ 1 172.0838 -8.72
  199.0746 C13H11O2+ 1 199.0754 -3.78
  200.0779 C12[13]CH11O2+ 1 200.0787 -4
  272.1643 C17H22NO2+ 1 272.1645 -0.63
  273.1675 C16[13]C7H22NO2+ 1 273.1678 -1.1
  274.1697 C15[13]C2H22NO2+ 1 274.1706 -3.28
PK$NUM_PEAK: 9
PK$PEAK: m/z int. rel.int.
  129.114 69240 75
  130.1168 4624 5
  171.0791 37508 40
  172.0823 5164 5
  199.0746 145988 158
  200.0779 17932 19
  272.1643 919916 999
  273.1675 131732 143
  274.1697 12916 14
//
