ACCESSION: MSBNK-Athens_Univ-AU272101
RECORD_TITLE: Captopril; LC-ESI-QTOF; MS2; CE: 10 eV; R=35000; [M+H]+
DATE: 2019.05.30
AUTHORS: Nikiforos Alygizakis, Katerina Galani, Nikolaos Thomaidis, University of Athens
LICENSE: CC BY
COPYRIGHT: Copyright (C) 2019 Department of Chemistry, University of Athens
COMMENT: CONFIDENCE standard compound
COMMENT: INTERNAL_ID 2721
CH$NAME: Captopril
CH$NAME: (2S)-1-[(2S)-2-methyl-3-sulfanylpropanoyl]pyrrolidine-2-carboxylic acid
CH$COMPOUND_CLASS: N/A; Environmental Standard
CH$FORMULA: C9H15NO3S
CH$EXACT_MASS: 217.0772643
CH$SMILES: C[C@H](CS)C(=O)N1CCC[C@H]1C(O)=O
CH$IUPAC: InChI=1S/C9H15NO3S/c1-6(5-14)8(11)10-4-2-3-7(10)9(12)13/h6-7,14H,2-5H2,1H3,(H,12,13)/t6-,7+/m1/s1
CH$LINK: CAS 62571-86-2
CH$LINK: CHEBI CHEBI:3380
CH$LINK: KEGG D00251
CH$LINK: PUBCHEM CID:44093
CH$LINK: INCHIKEY FAKRSMQSSFJEIM-RQJHMYQMSA-N
CH$LINK: CHEMSPIDER 40130
CH$LINK: COMPTOX DTXSID1037197
AC$INSTRUMENT: Bruker maXis Impact
AC$INSTRUMENT_TYPE: LC-ESI-QTOF
AC$MASS_SPECTROMETRY: MS_TYPE MS2
AC$MASS_SPECTROMETRY: ION_MODE POSITIVE
AC$MASS_SPECTROMETRY: IONIZATION ESI
AC$MASS_SPECTROMETRY: FRAGMENTATION_MODE CID
AC$MASS_SPECTROMETRY: COLLISION_ENERGY 10 eV
AC$MASS_SPECTROMETRY: RESOLUTION 35000
AC$CHROMATOGRAPHY: COLUMN_NAME Acclaim RSLC C18 2.2um, 2.1x100mm, Thermo
AC$CHROMATOGRAPHY: FLOW_GRADIENT 99/1 at 0-1 min, 61/39 at 3 min, 0.1/99.9 at 14-16 min, 99/1 at 16.1-20 min
AC$CHROMATOGRAPHY: FLOW_RATE 200 uL/min at 0-3 min, 400 uL/min at 14 min, 480 uL/min at 16-19 min, 200 uL/min at 19.1-20 min
AC$CHROMATOGRAPHY: RETENTION_TIME 4.581 min
AC$CHROMATOGRAPHY: SOLVENT A 90:10 water:methanol with 0.01% formic acid and 5mM ammonium formate
AC$CHROMATOGRAPHY: SOLVENT B methanol with 0.01% formic acid and 5mM ammonium formate
MS$FOCUSED_ION: BASE_PEAK 238.0988
MS$FOCUSED_ION: PRECURSOR_M/Z 218.0845
MS$FOCUSED_ION: PRECURSOR_TYPE [M+H]+
MS$DATA_PROCESSING: RECALIBRATE identity on assigned fragments and MS1
MS$DATA_PROCESSING: WHOLE RMassBank 2.10.1
PK$SPLASH: splash10-014i-0290000000-1fecd0b4a33bc6afc4f2
PK$ANNOTATION: m/z tentative_formula formula_count mass error(ppm)
  116.0703 C5H10NO2+ 1 116.0706 -2.77
  172.078 C8H14NOS+ 1 172.0791 -6.35
  173.0795 C7[13]CH14NOS+ 1 173.083 -19.84
  200.073 C9H14NO2S+ 1 200.074 -4.95
  218.0835 C9H16NO3S+ 1 218.0845 -4.74
  219.0871 C8[13]CH16NO3S+ 1 219.0884 -6.09
  220.0821 C9H16NO3[34]S+ 1 220.0809 5.6
PK$NUM_PEAK: 7
PK$PEAK: m/z int. rel.int.
  116.0703 848 74
  172.078 2940 259
  173.0795 428 37
  200.073 660 58
  218.0835 11324 999
  219.0871 1344 118
  220.0821 740 65
//
