ACCESSION: MSBNK-Athens_Univ-AU227958
RECORD_TITLE: Moclobemide; LC-ESI-QTOF; MS2; CE: 20 eV; R=35000; [M-H]-
DATE: 2018.12.20
AUTHORS: Nikiforos Alygizakis, Katerina Galani, Nikolaos Thomaidis, University of Athens
LICENSE: CC BY
COPYRIGHT: Copyright (C) 2018 Department of Chemistry, University of Athens
COMMENT: CONFIDENCE standard compound
COMMENT: INTERNAL_ID 2279
CH$NAME: Moclobemide
CH$NAME: 4-chloro-N-(2-morpholin-4-ylethyl)benzamide
CH$COMPOUND_CLASS: N/A; Environmental Standard
CH$FORMULA: C13H17ClN2O2
CH$EXACT_MASS: 268.0978555
CH$SMILES: c1cc(ccc1C(=O)NCCN2CCOCC2)Cl
CH$IUPAC: InChI=1S/C13H17ClN2O2/c14-12-3-1-11(2-4-12)13(17)15-5-6-16-7-9-18-10-8-16/h1-4H,5-10H2,(H,15,17)
CH$LINK: CAS 71320-77-9
CH$LINK: CHEBI CHEBI:83531
CH$LINK: KEGG D02561
CH$LINK: PUBCHEM CID:4235
CH$LINK: INCHIKEY YHXISWVBGDMDLQ-UHFFFAOYSA-N
CH$LINK: CHEMSPIDER 4087
CH$LINK: COMPTOX DTXSID9040554
AC$INSTRUMENT: Bruker maXis Impact
AC$INSTRUMENT_TYPE: LC-ESI-QTOF
AC$MASS_SPECTROMETRY: MS_TYPE MS2
AC$MASS_SPECTROMETRY: ION_MODE NEGATIVE
AC$MASS_SPECTROMETRY: IONIZATION ESI
AC$MASS_SPECTROMETRY: FRAGMENTATION_MODE CID
AC$MASS_SPECTROMETRY: COLLISION_ENERGY 20 eV
AC$MASS_SPECTROMETRY: RESOLUTION 35000
AC$CHROMATOGRAPHY: COLUMN_NAME Acclaim RSLC C18 2.2um, 2.1x100mm, Thermo
AC$CHROMATOGRAPHY: FLOW_GRADIENT 99/1 at 0-1 min, 61/39 at 3 min, 0.1/99.9 at 14-16 min, 99/1 at 16.1-20 min
AC$CHROMATOGRAPHY: FLOW_RATE 200 uL/min at 0-3 min, 400 uL/min at 14 min, 480 uL/min at 16-19 min, 200 uL/min at 19.1-20 min
AC$CHROMATOGRAPHY: RETENTION_TIME 6.883 min
AC$CHROMATOGRAPHY: SOLVENT A 90:10 water:methanol with 5mM ammonium acetate
AC$CHROMATOGRAPHY: SOLVENT B methanol with 5mM ammonium acetate
MS$FOCUSED_ION: BASE_PEAK 267.0901
MS$FOCUSED_ION: PRECURSOR_M/Z 267.0906
MS$FOCUSED_ION: PRECURSOR_TYPE [M-H]-
MS$DATA_PROCESSING: RECALIBRATE identity on assigned fragments and MS1
MS$DATA_PROCESSING: WHOLE RMassBank 2.10.0
PK$SPLASH: splash10-0gb9-0490000000-555f64ae0dc792150b72
PK$ANNOTATION: m/z tentative_formula formula_count mass error(ppm)
  154.0067 C7H5ClNO- 2 154.0065 1.49
  267.0902 C13H16ClN2O2- 1 267.0906 -1.3
PK$NUM_PEAK: 2
PK$PEAK: m/z int. rel.int.
  154.0067 368 553
  267.0902 664 999
//
