ACCESSION: MSBNK-Athens_Univ-AU277903
RECORD_TITLE: Propamocarb; LC-ESI-QTOF; MS2; CE: 30 eV; R=35000; [M+H]+
DATE: 2019.05.31
AUTHORS: Nikiforos Alygizakis, Katerina Galani, Nikolaos Thomaidis, University of Athens
LICENSE: CC BY
COPYRIGHT: Copyright (C) 2019 Department of Chemistry, University of Athens
COMMENT: CONFIDENCE standard compound
COMMENT: INTERNAL_ID 2779
CH$NAME: Propamocarb
CH$NAME: propyl N-[3-(dimethylamino)propyl]carbamate
CH$COMPOUND_CLASS: N/A; Environmental Standard
CH$FORMULA: C9H20N2O2
CH$EXACT_MASS: 188.1524779
CH$SMILES: CCCOC(=O)NCCCN(C)C
CH$IUPAC: InChI=1S/C9H20N2O2/c1-4-8-13-9(12)10-6-5-7-11(2)3/h4-8H2,1-3H3,(H,10,12)
CH$LINK: CAS 24579-73-5
CH$LINK: CHEBI CHEBI:82033
CH$LINK: KEGG C18885
CH$LINK: PUBCHEM CID:32490
CH$LINK: INCHIKEY WZZLDXDUQPOXNW-UHFFFAOYSA-N
CH$LINK: CHEMSPIDER 30114
CH$LINK: COMPTOX DTXSID1040295
AC$INSTRUMENT: Bruker maXis Impact
AC$INSTRUMENT_TYPE: LC-ESI-QTOF
AC$MASS_SPECTROMETRY: MS_TYPE MS2
AC$MASS_SPECTROMETRY: ION_MODE POSITIVE
AC$MASS_SPECTROMETRY: IONIZATION ESI
AC$MASS_SPECTROMETRY: FRAGMENTATION_MODE CID
AC$MASS_SPECTROMETRY: COLLISION_ENERGY 30 eV
AC$MASS_SPECTROMETRY: RESOLUTION 35000
AC$CHROMATOGRAPHY: COLUMN_NAME Acclaim RSLC C18 2.2um, 2.1x100mm, Thermo
AC$CHROMATOGRAPHY: FLOW_GRADIENT 99/1 at 0-1 min, 61/39 at 3 min, 0.1/99.9 at 14-16 min, 99/1 at 16.1-20 min
AC$CHROMATOGRAPHY: FLOW_RATE 200 uL/min at 0-3 min, 400 uL/min at 14 min, 480 uL/min at 16-19 min, 200 uL/min at 19.1-20 min
AC$CHROMATOGRAPHY: RETENTION_TIME 3.326 min
AC$CHROMATOGRAPHY: SOLVENT A 90:10 water:methanol with 0.01% formic acid and 5mM ammonium formate
AC$CHROMATOGRAPHY: SOLVENT B methanol with 0.01% formic acid and 5mM ammonium formate
MS$FOCUSED_ION: BASE_PEAK 189.159
MS$FOCUSED_ION: PRECURSOR_M/Z 189.1598
MS$FOCUSED_ION: PRECURSOR_TYPE [M+H]+
MS$DATA_PROCESSING: RECALIBRATE identity on assigned fragments and MS1
MS$DATA_PROCESSING: WHOLE RMassBank 2.10.1
PK$SPLASH: splash10-004l-0900000000-d2e333be530cd31b6cb8
PK$ANNOTATION: m/z tentative_formula formula_count mass error(ppm)
  129.1007 C6H13N2O+ 1 129.1022 -11.65
  144.1006 C7H14NO2+ 1 144.1019 -9.02
  147.1117 C6H15N2O2+ 1 147.1128 -7.18
  189.1593 C9H21N2O2+ 1 189.1598 -2.53
PK$NUM_PEAK: 4
PK$PEAK: m/z int. rel.int.
  129.1007 2328 999
  144.1006 1240 532
  147.1117 380 163
  189.1593 820 351
//
