ACCESSION: MSBNK-Athens_Univ-AU238262
RECORD_TITLE: Salicylic acid; LC-ESI-QTOF; MS2; CE: Ramp 17.5-26.2 eV; R=35000; [M-H]-
DATE: 2019.03.29
AUTHORS: Nikiforos Alygizakis, Katerina Galani, Nikolaos Thomaidis, University of Athens
LICENSE: CC BY
COPYRIGHT: Copyright (C) 2019 Department of Chemistry, University of Athens
COMMENT: CONFIDENCE standard compound
COMMENT: INTERNAL_ID 2382
CH$NAME: Salicylic acid
CH$NAME: 2-hydroxybenzoic acid
CH$COMPOUND_CLASS: N/A; Environmental Standard
CH$FORMULA: C7H6O3
CH$EXACT_MASS: 138.0316941
CH$SMILES: OC(=O)C1=C(O)C=CC=C1
CH$IUPAC: InChI=1S/C7H6O3/c8-6-4-2-1-3-5(6)7(9)10/h1-4,8H,(H,9,10)
CH$LINK: CAS 63-36-5
CH$LINK: CHEBI CHEBI:16914
CH$LINK: KEGG C00805
CH$LINK: PUBCHEM CID:338
CH$LINK: INCHIKEY YGSDEFSMJLZEOE-UHFFFAOYSA-N
CH$LINK: CHEMSPIDER 331
CH$LINK: COMPTOX DTXSID7026368
AC$INSTRUMENT: Bruker maXis Impact
AC$INSTRUMENT_TYPE: LC-ESI-QTOF
AC$MASS_SPECTROMETRY: MS_TYPE MS2
AC$MASS_SPECTROMETRY: ION_MODE NEGATIVE
AC$MASS_SPECTROMETRY: IONIZATION ESI
AC$MASS_SPECTROMETRY: FRAGMENTATION_MODE CID
AC$MASS_SPECTROMETRY: COLLISION_ENERGY Ramp 17.5-26.2 eV
AC$MASS_SPECTROMETRY: RESOLUTION 35000
AC$CHROMATOGRAPHY: COLUMN_NAME Acclaim RSLC C18 2.2um, 2.1x100mm, Thermo
AC$CHROMATOGRAPHY: FLOW_GRADIENT 99/1 at 0-1 min, 61/39 at 3 min, 0.1/99.9 at 14-16 min, 99/1 at 16.1-20 min
AC$CHROMATOGRAPHY: FLOW_RATE 200 uL/min at 0-3 min, 400 uL/min at 14 min, 480 uL/min at 16-19 min, 200 uL/min at 19.1-20 min
AC$CHROMATOGRAPHY: RETENTION_TIME 3.637 min
AC$CHROMATOGRAPHY: SOLVENT A 90:10 water:methanol with 5mM ammonium acetate
AC$CHROMATOGRAPHY: SOLVENT B methanol with 5mM ammonium acetate
MS$FOCUSED_ION: BASE_PEAK 59.0131
MS$FOCUSED_ION: PRECURSOR_M/Z 137.0244
MS$FOCUSED_ION: PRECURSOR_TYPE [M-H]-
MS$DATA_PROCESSING: RECALIBRATE identity on assigned fragments and MS1
MS$DATA_PROCESSING: WHOLE RMassBank 2.10.0
PK$SPLASH: splash10-0006-9000000000-c0ab23c5de16b125ccab
PK$ANNOTATION: m/z tentative_formula formula_count mass error(ppm)
  65.0384 C5H5- 1 65.0397 -18.95
  93.0331 C6H5O- 1 93.0346 -15.79
  94.0358 C5[13]CH5O- 1 94.0374 -17.06
  137.0231 C7H5O3- 1 137.0244 -9.78
PK$NUM_PEAK: 4
PK$PEAK: m/z int. rel.int.
  65.0384 2456 154
  93.0331 15896 999
  94.0358 856 53
  137.0231 564 35
//
