ACCESSION: MSBNK-Athens_Univ-AU260905
RECORD_TITLE: Chlorfenvinphos; LC-ESI-QTOF; MS2; CE: 50 eV; R=35000; [M+H]+
DATE: 2019.05.30
AUTHORS: Nikiforos Alygizakis, Katerina Galani, Nikolaos Thomaidis, University of Athens
LICENSE: CC BY
COPYRIGHT: Copyright (C) 2019 Department of Chemistry, University of Athens
COMMENT: CONFIDENCE standard compound
COMMENT: INTERNAL_ID 2609
CH$NAME: Chlorfenvinphos
CH$NAME: Phosphoric acid, 2-chloro-1-(2,4-dichlorophenyl)ethenyl diethyl ester
CH$NAME: [2-chloro-1-(2,4-dichlorophenyl)ethenyl] diethyl phosphate
CH$COMPOUND_CLASS: N/A; Environmental Standard
CH$FORMULA: C12H14Cl3O4P
CH$EXACT_MASS: 357.9695286
CH$SMILES: CCOP(=O)(OCC)OC(=CCl)C1=C(Cl)C=C(Cl)C=C1
CH$IUPAC: InChI=1S/C12H14Cl3O4P/c1-3-17-20(16,18-4-2)19-12(8-13)10-6-5-9(14)7-11(10)15/h5-8H,3-4H2,1-2H3
CH$LINK: CAS 470-90-6
CH$LINK: CHEBI CHEBI:38598
CH$LINK: PUBCHEM CID:10107
CH$LINK: INCHIKEY FSAVDKDHPDSCTO-UHFFFAOYSA-N
CH$LINK: CHEMSPIDER 9703
CH$LINK: COMPTOX DTXSID7034250
AC$INSTRUMENT: Bruker maXis Impact
AC$INSTRUMENT_TYPE: LC-ESI-QTOF
AC$MASS_SPECTROMETRY: MS_TYPE MS2
AC$MASS_SPECTROMETRY: ION_MODE POSITIVE
AC$MASS_SPECTROMETRY: IONIZATION ESI
AC$MASS_SPECTROMETRY: FRAGMENTATION_MODE CID
AC$MASS_SPECTROMETRY: COLLISION_ENERGY 50 eV
AC$MASS_SPECTROMETRY: RESOLUTION 35000
AC$CHROMATOGRAPHY: COLUMN_NAME Acclaim RSLC C18 2.2um, 2.1x100mm, Thermo
AC$CHROMATOGRAPHY: FLOW_GRADIENT 99/1 at 0-1 min, 61/39 at 3 min, 0.1/99.9 at 14-16 min, 99/1 at 16.1-20 min
AC$CHROMATOGRAPHY: FLOW_RATE 200 uL/min at 0-3 min, 400 uL/min at 14 min, 480 uL/min at 16-19 min, 200 uL/min at 19.1-20 min
AC$CHROMATOGRAPHY: RETENTION_TIME 11.027 min
AC$CHROMATOGRAPHY: SOLVENT A 90:10 water:methanol with 0.01% formic acid and 5mM ammonium formate
AC$CHROMATOGRAPHY: SOLVENT B methanol with 0.01% formic acid and 5mM ammonium formate
MS$FOCUSED_ION: BASE_PEAK 326.1752
MS$FOCUSED_ION: PRECURSOR_M/Z 358.9768
MS$FOCUSED_ION: PRECURSOR_TYPE [M+H]+
MS$DATA_PROCESSING: RECALIBRATE identity on assigned fragments and MS1
MS$DATA_PROCESSING: WHOLE RMassBank 2.10.1
PK$SPLASH: splash10-014i-0900000000-71d56133a32d26d081f3
PK$ANNOTATION: m/z tentative_formula formula_count mass error(ppm)
  122.9993 C6H4OP+ 4 122.9994 -1.17
  127.0149 C2H8O4P+ 3 127.0155 -4.15
  132.9829 CH7ClO3P+ 4 132.9816 10.17
  133.9897 C2H8Cl2O2+ 4 133.9896 0.82
  134.9799 CH7[37]ClO3P+ 1 134.9792 5.28
  150.9931 C2H9Cl2O3+ 4 150.9923 4.95
  163.0044 Cl2H14O3P+ 5 163.0052 -5.05
  168.9591 CH8Cl2O3P+ 4 168.9583 4.93
  169.9673 C7H4ClOP+ 4 169.9683 -5.81
  170.957 CH8Cl[37]ClO3P+ 1 170.9559 6.61
  170.9705 C6[13]CH4ClOP+ 1 170.9722 -9.56
  171.9644 C7H4[37]ClOP+ 1 171.9659 -8.77
  172.9677 C4H8Cl2OP+ 3 172.9684 -4.09
  196.9646 Cl3H13O3P+ 4 196.9662 -8.33
  198.9634 H13Cl2[37]ClO3P+ 1 198.9638 -2.38
  204.936 C8H4Cl3+ 3 204.9373 -6.33
  205.9396 C7[13]CH4Cl3+ 1 205.9412 -7.86
  206.9329 C8H4Cl2[37]Cl+ 1 206.9349 -9.83
PK$NUM_PEAK: 18
PK$PEAK: m/z int. rel.int.
  122.9993 1104 5
  127.0149 3168 14
  132.9829 6392 29
  133.9897 1752 8
  134.9799 1864 8
  150.9931 1104 5
  163.0044 1384 6
  168.9591 11340 52
  169.9673 217432 999
  170.957 5880 27
  170.9705 18316 84
  171.9644 90248 414
  172.9677 5932 27
  196.9646 4756 21
  198.9634 2264 10
  204.936 16084 73
  205.9396 1688 7
  206.9329 12560 57
//
