ACCESSION: MSBNK-Athens_Univ-AU243301
RECORD_TITLE: Benzidine; LC-ESI-QTOF; MS2; CE: 10 eV; R=35000; [M+H]+
DATE: 2019.04.05
AUTHORS: Nikiforos Alygizakis, Katerina Galani, Nikolaos Thomaidis, University of Athens
LICENSE: CC BY
COPYRIGHT: Copyright (C) 2019 Department of Chemistry, University of Athens
COMMENT: CONFIDENCE standard compound
COMMENT: INTERNAL_ID 2433
CH$NAME: Benzidine
CH$NAME: 4-(4-aminophenyl)aniline
CH$COMPOUND_CLASS: N/A; Environmental Standard
CH$FORMULA: C12H12N2
CH$EXACT_MASS: 184.1000484
CH$SMILES: NC1=CC=C(C=C1)C1=CC=C(N)C=C1
CH$IUPAC: InChI=1S/C12H12N2/c13-11-5-1-9(2-6-11)10-3-7-12(14)8-4-10/h1-8H,13-14H2
CH$LINK: CAS 92-87-5
CH$LINK: CHEBI CHEBI:80495
CH$LINK: PUBCHEM CID:7111
CH$LINK: INCHIKEY HFACYLZERDEVSX-UHFFFAOYSA-N
CH$LINK: CHEMSPIDER 6844
CH$LINK: COMPTOX DTXSID2020137
AC$INSTRUMENT: Bruker maXis Impact
AC$INSTRUMENT_TYPE: LC-ESI-QTOF
AC$MASS_SPECTROMETRY: MS_TYPE MS2
AC$MASS_SPECTROMETRY: ION_MODE POSITIVE
AC$MASS_SPECTROMETRY: IONIZATION ESI
AC$MASS_SPECTROMETRY: FRAGMENTATION_MODE CID
AC$MASS_SPECTROMETRY: COLLISION_ENERGY 10 eV
AC$MASS_SPECTROMETRY: RESOLUTION 35000
AC$CHROMATOGRAPHY: COLUMN_NAME Acclaim RSLC C18 2.2um, 2.1x100mm, Thermo
AC$CHROMATOGRAPHY: FLOW_GRADIENT 99/1 at 0-1 min, 61/39 at 3 min, 0.1/99.9 at 14-16 min, 99/1 at 16.1-20 min
AC$CHROMATOGRAPHY: FLOW_RATE 200 uL/min at 0-3 min, 400 uL/min at 14 min, 480 uL/min at 16-19 min, 200 uL/min at 19.1-20 min
AC$CHROMATOGRAPHY: RETENTION_TIME 3.975 min
AC$CHROMATOGRAPHY: SOLVENT A 90:10 water:methanol with 0.01% formic acid and 5mM ammonium formate
AC$CHROMATOGRAPHY: SOLVENT B methanol with 0.01% formic acid and 5mM ammonium formate
MS$FOCUSED_ION: BASE_PEAK 199.0969
MS$FOCUSED_ION: PRECURSOR_M/Z 185.1073
MS$FOCUSED_ION: PRECURSOR_TYPE [M+H]+
MS$DATA_PROCESSING: RECALIBRATE identity on assigned fragments and MS1
MS$DATA_PROCESSING: WHOLE RMassBank 2.10.0
PK$SPLASH: splash10-0019-0900000000-1d2b2204933dd4b1e9f2
PK$ANNOTATION: m/z tentative_formula formula_count mass error(ppm)
  167.0713 C12H9N+ 1 167.073 -9.78
  168.0795 C12H10N+ 1 168.0808 -7.82
  169.0831 C11[13]CH10N+ 1 169.0847 -9.08
  183.0903 C12H11N2+ 1 183.0917 -7.4
  184.0986 C12H12N2+ 1 184.0995 -5.02
  185.1062 C12H13N2+ 1 185.1073 -6.24
  186.1094 C11[13]CH13N2+ 1 186.1112 -9.89
  187.1124 C10[13]C2H13N2+ 1 187.1146 -11.68
PK$NUM_PEAK: 8
PK$PEAK: m/z int. rel.int.
  167.0713 2516 6
  168.0795 11708 28
  169.0831 2548 6
  183.0903 8084 19
  184.0986 316876 767
  185.1062 412328 999
  186.1094 37884 91
  187.1124 2080 5
//
