ACCESSION: MSBNK-Athens_Univ-AU235002
RECORD_TITLE: Flutamide; LC-ESI-QTOF; MS2; CE: 20 eV; R=35000; [M+H]+
DATE: 2019.05.30
AUTHORS: Nikiforos Alygizakis, Katerina Galani, Nikolaos Thomaidis, University of Athens
LICENSE: CC BY
COPYRIGHT: Copyright (C) 2019 Department of Chemistry, University of Athens
COMMENT: CONFIDENCE standard compound
COMMENT: INTERNAL_ID 2350
CH$NAME: Flutamide
CH$NAME: 2-methyl-N-[4-nitro-3-(trifluoromethyl)phenyl]propanamide
CH$COMPOUND_CLASS: N/A; Environmental Standard
CH$FORMULA: C11H11F3N2O3
CH$EXACT_MASS: 276.0721769
CH$SMILES: CC(C)C(=O)NC1=CC(=C(C=C1)[N+]([O-])=O)C(F)(F)F
CH$IUPAC: InChI=1S/C11H11F3N2O3/c1-6(2)10(17)15-7-3-4-9(16(18)19)8(5-7)11(12,13)14/h3-6H,1-2H3,(H,15,17)
CH$LINK: CAS 37209-54-4
CH$LINK: CHEBI CHEBI:5132
CH$LINK: KEGG C07653
CH$LINK: PUBCHEM CID:3397
CH$LINK: INCHIKEY MKXKFYHWDHIYRV-UHFFFAOYSA-N
CH$LINK: CHEMSPIDER 3280
CH$LINK: COMPTOX DTXSID7032004
AC$INSTRUMENT: Bruker maXis Impact
AC$INSTRUMENT_TYPE: LC-ESI-QTOF
AC$MASS_SPECTROMETRY: MS_TYPE MS2
AC$MASS_SPECTROMETRY: ION_MODE POSITIVE
AC$MASS_SPECTROMETRY: IONIZATION ESI
AC$MASS_SPECTROMETRY: FRAGMENTATION_MODE CID
AC$MASS_SPECTROMETRY: COLLISION_ENERGY 20 eV
AC$MASS_SPECTROMETRY: RESOLUTION 35000
AC$CHROMATOGRAPHY: COLUMN_NAME Acclaim RSLC C18 2.2um, 2.1x100mm, Thermo
AC$CHROMATOGRAPHY: FLOW_GRADIENT 99/1 at 0-1 min, 61/39 at 3 min, 0.1/99.9 at 14-16 min, 99/1 at 16.1-20 min
AC$CHROMATOGRAPHY: FLOW_RATE 200 uL/min at 0-3 min, 400 uL/min at 14 min, 480 uL/min at 16-19 min, 200 uL/min at 19.1-20 min
AC$CHROMATOGRAPHY: RETENTION_TIME 11.187 min
AC$CHROMATOGRAPHY: SOLVENT A 90:10 water:methanol with 0.01% formic acid and 5mM ammonium formate
AC$CHROMATOGRAPHY: SOLVENT B methanol with 0.01% formic acid and 5mM ammonium formate
MS$FOCUSED_ION: BASE_PEAK 277.0782
MS$FOCUSED_ION: PRECURSOR_M/Z 277.0795
MS$FOCUSED_ION: PRECURSOR_TYPE [M+H]+
MS$DATA_PROCESSING: RECALIBRATE identity on assigned fragments and MS1
MS$DATA_PROCESSING: WHOLE RMassBank 2.10.1
PK$SPLASH: splash10-016r-0960000000-3c6548a79476783c1eee
PK$ANNOTATION: m/z tentative_formula formula_count mass error(ppm)
  125.0144 C5H2FN2O+ 3 125.0146 -1.53
  165.069 C8H9N2O2+ 4 165.0659 19.15
  166.0724 C7[13]CH9N2O2+ 1 166.0698 15.64
  167.0753 C6[13]C2H9N2O2+ 1 167.0731 12.9
  199.0302 C11H4FN2O+ 4 199.0302 0.12
  200.0337 C10[13]CH4FN2O+ 1 200.0341 -2.06
  201.0271 C8H4F3N2O+ 5 201.027 0.29
  249.0462 C9H8F3N2O3+ 1 249.0482 -7.88
  262.0541 C10H9F3N2O3+ 1 262.056 -7.27
  277.0777 C11H12F3N2O3+ 1 277.0795 -6.47
  278.0811 C10[13]CH12F3N2O3+ 1 278.0834 -8.04
PK$NUM_PEAK: 11
PK$PEAK: m/z int. rel.int.
  125.0144 18624 10
  165.069 1738292 999
  166.0724 182392 104
  167.0753 9236 5
  199.0302 178732 102
  200.0337 22068 12
  201.0271 45332 26
  249.0462 14884 8
  262.0541 11544 6
  277.0777 1114988 640
  278.0811 216272 124
//
