ACCESSION: MSBNK-Athens_Univ-AU500601
RECORD_TITLE: Ethyl benzoate; GC-APCI-QTOF; MS2; CE: 10 eV; R=35000; [M+H]+
DATE: 2021.04.19
AUTHORS: Chrysoula Kanakaki, Nikiforos Alygizakis, Nikolaos Thomaidis, University of Athens
LICENSE: CC BY
COPYRIGHT: Copyright (C) 2021 Department of Chemistry, University of Athens
COMMENT: CONFIDENCE standard compound
COMMENT: INTERNAL_ID 5006
CH$NAME: Ethyl benzoate
CH$COMPOUND_CLASS: N/A; Food Contact Material
CH$FORMULA: C9H10O2
CH$EXACT_MASS: 150.0681
CH$SMILES: CCOC(=O)C1=CC=CC=C1
CH$IUPAC: InChI=1S/C9H10O2/c1-2-11-9(10)8-6-4-3-5-7-8/h3-7H,2H2,1H3
CH$LINK: CAS 93-89-0
CH$LINK: PUBCHEM CID:7165
CH$LINK: INCHIKEY MTZQAGJQAFMTAQ-UHFFFAOYSA-N
CH$LINK: CHEMSPIDER 6897
AC$INSTRUMENT: Bruker 450 GC coupled to maXis Impact
AC$INSTRUMENT_TYPE: GC-APCI-QTOF
AC$MASS_SPECTROMETRY: MS_TYPE MS2
AC$MASS_SPECTROMETRY: ION_MODE POSITIVE
AC$MASS_SPECTROMETRY: IONIZATION APCI
AC$MASS_SPECTROMETRY: FRAGMENTATION_MODE CID
AC$MASS_SPECTROMETRY: COLLISION_ENERGY 10 eV
AC$MASS_SPECTROMETRY: RESOLUTION 35000
AC$CHROMATOGRAPHY: COLUMN_NAME Rxi-5Sil MS column, 30m, 0.25mm i.d., 0.25µm film thickness, Restek
AC$CHROMATOGRAPHY: COLUMN_TEMPERATURE_GRADIENT 55oC at 0 min, 55oC at 3 min, 180oC at 11.33 min with 15oC/min, 280oC at 26.72 min with 6.5oC/min, 280oC at 31.72 min, 300oC at 33.72 min with 10oC/min, 300oC at 39 min
AC$CHROMATOGRAPHY: FLOW_RATE 1.5 mL/min
AC$CHROMATOGRAPHY: RETENTION_TIME 9.294 min
AC$CHROMATOGRAPHY: SOLVENT A Helium
MS$FOCUSED_ION: BASE_PEAK 151.0776
MS$FOCUSED_ION: PRECURSOR_M/Z 151.0754
MS$FOCUSED_ION: PRECURSOR_TYPE [M+H]+
MS$DATA_PROCESSING: RECALIBRATE identity on assigned fragments and MS1
MS$DATA_PROCESSING: WHOLE RMassBank 2.16.0
PK$SPLASH: splash10-00di-0900000000-e497c87c8b60d8b3cc17
PK$ANNOTATION: m/z tentative_formula formula_count mass error(ppm)
  79.054 C6H7+ 1 79.0542 -3.34
  122.036 C7H6O2+ 1 122.0362 -2.05
  123.0435 C7H7O2+ 1 123.0441 -4.92
  131.05 C9H7O+ 1 131.0491 6.57
  135.0445 C8H7O2+ 1 135.0441 3.14
  149.0626 C9H9O2+ 1 149.0597 19.52
  150.0697 C9H10O2+ 1 150.0675 14.29
  151.0783 C9H11O2+ 1 151.0754 19.3
PK$NUM_PEAK: 8
PK$PEAK: m/z int. rel.int.
  79.054 116 6
  122.036 1056 57
  123.0435 18204 999
  131.05 400 21
  135.0445 152 8
  149.0626 1356 74
  150.0697 572 31
  151.0783 1708 93
//
