ACCESSION: MSBNK-Athens_Univ-AU285206
RECORD_TITLE: N,N-Dimethyltetradecylamine-N-oxide; LC-ESI-QTOF; MS2; CE: Ramp 20.1-30.1 eV; R=35000; [M+H]+
DATE: 2019.05.31
AUTHORS: Nikiforos Alygizakis, Katerina Galani, Nikolaos Thomaidis, University of Athens
LICENSE: CC BY
COPYRIGHT: Copyright (C) 2019 Department of Chemistry, University of Athens
COMMENT: CONFIDENCE standard compound
COMMENT: INTERNAL_ID 2852
CH$NAME: N,N-Dimethyltetradecylamine-N-oxide
CH$NAME: Myristamine oxide
CH$NAME: N,N-dimethyltetradecan-1-amine oxide
CH$COMPOUND_CLASS: N/A; Environmental Standard
CH$FORMULA: C16H35NO
CH$EXACT_MASS: 257.2718647
CH$SMILES: CCCCCCCCCCCCCC[N+](C)(C)[O-]
CH$IUPAC: InChI=1S/C16H35NO/c1-4-5-6-7-8-9-10-11-12-13-14-15-16-17(2,3)18/h4-16H2,1-3H3
CH$LINK: CAS 3332-27-2
CH$LINK: PUBCHEM CID:18739
CH$LINK: INCHIKEY ONHFWHCMZAJCFB-UHFFFAOYSA-N
CH$LINK: CHEMSPIDER 17695
CH$LINK: COMPTOX DTXSID2029660
AC$INSTRUMENT: Bruker maXis Impact
AC$INSTRUMENT_TYPE: LC-ESI-QTOF
AC$MASS_SPECTROMETRY: MS_TYPE MS2
AC$MASS_SPECTROMETRY: ION_MODE POSITIVE
AC$MASS_SPECTROMETRY: IONIZATION ESI
AC$MASS_SPECTROMETRY: FRAGMENTATION_MODE CID
AC$MASS_SPECTROMETRY: COLLISION_ENERGY Ramp 20.1-30.1 eV
AC$MASS_SPECTROMETRY: RESOLUTION 35000
AC$CHROMATOGRAPHY: COLUMN_NAME Acclaim RSLC C18 2.2um, 2.1x100mm, Thermo
AC$CHROMATOGRAPHY: FLOW_GRADIENT 99/1 at 0-1 min, 61/39 at 3 min, 0.1/99.9 at 14-16 min, 99/1 at 16.1-20 min
AC$CHROMATOGRAPHY: FLOW_RATE 200 uL/min at 0-3 min, 400 uL/min at 14 min, 480 uL/min at 16-19 min, 200 uL/min at 19.1-20 min
AC$CHROMATOGRAPHY: RETENTION_TIME 9.728 min
AC$CHROMATOGRAPHY: SOLVENT A 90:10 water:methanol with 0.01% formic acid and 5mM ammonium formate
AC$CHROMATOGRAPHY: SOLVENT B methanol with 0.01% formic acid and 5mM ammonium formate
MS$FOCUSED_ION: BASE_PEAK 102.1287
MS$FOCUSED_ION: PRECURSOR_M/Z 258.2791
MS$FOCUSED_ION: PRECURSOR_TYPE [M+H]+
MS$DATA_PROCESSING: RECALIBRATE identity on assigned fragments and MS1
MS$DATA_PROCESSING: WHOLE RMassBank 2.10.1
PK$SPLASH: splash10-056r-0090000000-e5d7970f89b0ec19fbf3
PK$ANNOTATION: m/z tentative_formula formula_count mass error(ppm)
  227.0406 C16H5NO+ 1 227.0366 17.6
  256.2662 C16H34NO+ 1 256.2635 10.52
PK$NUM_PEAK: 2
PK$PEAK: m/z int. rel.int.
  227.0406 888 999
  256.2662 488 549
//
