ACCESSION: MSBNK-Athens_Univ-AU166407
RECORD_TITLE: Norbuprenorphine; LC-ESI-QTOF; MS2; HILIC; CE: 10 eV; R=35000; [M+H]+
DATE: 2016.02.26
AUTHORS: Nikiforos Alygizakis, Nikolaos Thomaidis, University of Athens
LICENSE: CC BY
COPYRIGHT: Copyright (C) 2016 Department of Chemistry, University of Athens
COMMENT: CONFIDENCE standard compound
COMMENT: INTERNAL_ID 1664
CH$NAME: Norbuprenorphine
CH$COMPOUND_CLASS: N/A; Environmental Standard
CH$FORMULA: C25H35NO4
CH$EXACT_MASS: 413.2566086
CH$SMILES: C[C@]([C@H]1C[C@@]23CC[C@@]1([C@H]4[C@@]25CCN[C@@H]3Cc6c5c(c(cc6)O)O4)OC)(C(C)(C)C)O
CH$IUPAC: InChI=1S/C25H35NO4/c1-21(2,3)22(4,28)16-13-23-8-9-25(16,29-5)20-24(23)10-11-26-17(23)12-14-6-7-15(27)19(30-20)18(14)24/h6-7,16-17,20,26-28H,8-13H2,1-5H3/t16-,17-,20-,22+,23-,24+,25-/m1/s1
CH$LINK: CAS 78715-23-8
CH$LINK: PUBCHEM CID:114976
CH$LINK: INCHIKEY YOYLLRBMGQRFTN-IOMBULRVSA-N
CH$LINK: CHEMSPIDER 102911
CH$LINK: COMPTOX DTXSID60891436
AC$INSTRUMENT: Bruker maXis Impact
AC$INSTRUMENT_TYPE: LC-ESI-QTOF
AC$MASS_SPECTROMETRY: MS_TYPE MS2
AC$MASS_SPECTROMETRY: ION_MODE POSITIVE
AC$MASS_SPECTROMETRY: IONIZATION ESI
AC$MASS_SPECTROMETRY: FRAGMENTATION_MODE CID
AC$MASS_SPECTROMETRY: COLLISION_ENERGY 10 eV
AC$MASS_SPECTROMETRY: RESOLUTION 35000
AC$CHROMATOGRAPHY: COLUMN_NAME ACQUITY UPLC BEH Amide 1.7 um 2.1x100mm, Waters
AC$CHROMATOGRAPHY: FLOW_GRADIENT 0/100 at 0-2 min, 95/5 at 12 min, 95/5 at 17 min, 0/100 at 17.1, 0/100 at 25 min
AC$CHROMATOGRAPHY: FLOW_RATE 200 uL/min
AC$CHROMATOGRAPHY: RETENTION_TIME 6.231 min
AC$CHROMATOGRAPHY: SOLVENT A Water with 0.01% formic acid and 1mM ammonium formate
AC$CHROMATOGRAPHY: SOLVENT B Acetonitrile:Water 95:5 with 0.01% formic acid and 1mM ammonium formate
MS$FOCUSED_ION: BASE_PEAK 328.156
MS$FOCUSED_ION: PRECURSOR_M/Z 414.2639
MS$FOCUSED_ION: PRECURSOR_TYPE [M+H]+
MS$DATA_PROCESSING: RECALIBRATE identity on assigned fragments and MS1
MS$DATA_PROCESSING: WHOLE RMassBank 1.99.10
PK$SPLASH: splash10-03di-0000900000-e8bb505ed3edc3b3f233
PK$ANNOTATION: m/z tentative_formula formula_count mass error(ppm)
  414.2657 C25H36NO4+ 1 414.2639 4.45
  415.2693 C24[13]CH36NO4+ 1 415.2678 3.76
  416.272 C23[13]C2H36NO4+ 1 416.2711 2.1
PK$NUM_PEAK: 3
PK$PEAK: m/z int. rel.int.
  414.2657 168948 999
  415.2693 46404 274
  416.272 5840 34
//
