ACCESSION: MSBNK-Athens_Univ-AU510908
RECORD_TITLE: Phenylethylamine; LC-ESI-QTOF; MS2; HILIC; CE: 10 eV; R=35000; [M+H]+
DATE: 2016.02.26
AUTHORS: Nikiforos Alygizakis, Nikolaos Thomaidis, University of Athens
LICENSE: CC BY
COPYRIGHT: Copyright (C) 2016 Department of Chemistry, University of Athens
COMMENT: CONFIDENCE standard compound
COMMENT: INTERNAL_ID 5109
CH$NAME: Phenylethylamine
CH$NAME: Phenethylamine
CH$NAME: 2-phenylethanamine
CH$COMPOUND_CLASS: N/A; Environmental Standard
CH$FORMULA: C8H11N
CH$EXACT_MASS: 121.0891494
CH$SMILES: c1ccc(cc1)CCN
CH$IUPAC: InChI=1S/C8H11N/c9-7-6-8-4-2-1-3-5-8/h1-5H,6-7,9H2
CH$LINK: CAS 64-04-0
CH$LINK: CHEBI CHEBI:18397
CH$LINK: KEGG C05332
CH$LINK: PUBCHEM CID:1001
CH$LINK: INCHIKEY BHHGXPLMPWCGHP-UHFFFAOYSA-N
CH$LINK: CHEMSPIDER 13856352
CH$LINK: COMPTOX DTXSID5058773
AC$INSTRUMENT: Bruker maXis Impact
AC$INSTRUMENT_TYPE: LC-ESI-QTOF
AC$MASS_SPECTROMETRY: MS_TYPE MS2
AC$MASS_SPECTROMETRY: ION_MODE POSITIVE
AC$MASS_SPECTROMETRY: IONIZATION ESI
AC$MASS_SPECTROMETRY: FRAGMENTATION_MODE CID
AC$MASS_SPECTROMETRY: COLLISION_ENERGY 10 eV
AC$MASS_SPECTROMETRY: RESOLUTION 35000
AC$CHROMATOGRAPHY: COLUMN_NAME ACQUITY UPLC BEH Amide 1.7 um 2.1x100mm, Waters
AC$CHROMATOGRAPHY: FLOW_GRADIENT 0/100 at 0-2 min, 95/5 at 12 min, 95/5 at 17 min, 0/100 at 17.1, 0/100 at 25 min
AC$CHROMATOGRAPHY: FLOW_RATE 200 uL/min
AC$CHROMATOGRAPHY: RETENTION_TIME 6.280 min
AC$CHROMATOGRAPHY: SOLVENT A Water with 0.01% formic acid and 1mM ammonium formate
AC$CHROMATOGRAPHY: SOLVENT B Acetonitrile:Water 95:5 with 0.01% formic acid and 1mM ammonium formate
MS$FOCUSED_ION: BASE_PEAK 122.0949
MS$FOCUSED_ION: PRECURSOR_M/Z 122.0964
MS$FOCUSED_ION: PRECURSOR_TYPE [M+H]+
MS$DATA_PROCESSING: RECALIBRATE identity on assigned fragments and MS1
MS$DATA_PROCESSING: WHOLE RMassBank 1.99.10
PK$SPLASH: splash10-00di-0900000000-fd6520342b8675a56fb7
PK$ANNOTATION: m/z tentative_formula formula_count mass error(ppm)
  105.0689 C8H9+ 1 105.0699 -9.67
  122.0948 C8H12N+ 1 122.0964 -13.17
  123.0979 C7[13]CH12N+ 1 123.1003 -19.92
PK$NUM_PEAK: 3
PK$PEAK: m/z int. rel.int.
  105.0689 1616 45
  122.0948 35368 999
  123.0979 3300 93
//
