ACCESSION: MSBNK-Athens_Univ-AU212932
RECORD_TITLE: Cilastatin; LC-ESI-QTOF; MS2; CE: 30 eV; R=35000; [M+Na]+
DATE: 2016.02.28
AUTHORS: Nikiforos Alygizakis, Nikolaos Thomaidis, University of Athens
LICENSE: CC BY
COPYRIGHT: Copyright (C) 2016 Department of Chemistry, University of Athens
COMMENT: CONFIDENCE standard compound
COMMENT: INTERNAL_ID 2129
CH$NAME: Cilastatin
CH$NAME: (Z)-7-[(2R)-2-amino-2-carboxyethyl]sulfanyl-2-[[(1S)-2,2-dimethylcyclopropanecarbonyl]amino]hept-2-enoic acid
CH$COMPOUND_CLASS: N/A; Environmental Standard
CH$FORMULA: C16H26N2O5S
CH$EXACT_MASS: 358.1562429
CH$SMILES: CC1(C[C@@H]1/C(=N/C(=C\CCCCSC[C@@H](C(=O)O)N)/C(=O)O)/O)C
CH$IUPAC: InChI=1S/C16H26N2O5S/c1-16(2)8-10(16)13(19)18-12(15(22)23)6-4-3-5-7-24-9-11(17)14(20)21/h6,10-11H,3-5,7-9,17H2,1-2H3,(H,18,19)(H,20,21)(H,22,23)/b12-6-/t10-,11+/m1/s1
CH$LINK: CAS 82009-34-5
CH$LINK: CHEBI CHEBI:3697
CH$LINK: KEGG C01675
CH$LINK: PUBCHEM CID:6435415
CH$LINK: INCHIKEY DHSUYTOATWAVLW-WFVMDLQDSA-N
CH$LINK: CHEMSPIDER 4940183
CH$LINK: COMPTOX DTXSID8048238
AC$INSTRUMENT: Bruker maXis Impact
AC$INSTRUMENT_TYPE: LC-ESI-QTOF
AC$MASS_SPECTROMETRY: MS_TYPE MS2
AC$MASS_SPECTROMETRY: ION_MODE POSITIVE
AC$MASS_SPECTROMETRY: IONIZATION ESI
AC$MASS_SPECTROMETRY: FRAGMENTATION_MODE CID
AC$MASS_SPECTROMETRY: COLLISION_ENERGY 30 eV
AC$MASS_SPECTROMETRY: RESOLUTION 35000
AC$CHROMATOGRAPHY: COLUMN_NAME Acclaim RSLC C18 2.2um, 2.1x100mm, Thermo
AC$CHROMATOGRAPHY: FLOW_GRADIENT 99/1 at 0-1 min, 61/39 at 3 min, 0.1/99.9 at 14-16 min, 99/1 at 16.1-20 min
AC$CHROMATOGRAPHY: FLOW_RATE 200 uL/min at 0-3 min, 400 uL/min at 14 min, 480 uL/min at 16-19 min, 200 uL/min at 19.1-20 min
AC$CHROMATOGRAPHY: RETENTION_TIME 14.735 min
AC$CHROMATOGRAPHY: SOLVENT A 90:10 water:methanol with 0.01% formic acid and 5mM ammonium formate
AC$CHROMATOGRAPHY: SOLVENT B methanol with 0.01% formic acid and 5mM ammonium formate
MS$FOCUSED_ION: BASE_PEAK 391.2864
MS$FOCUSED_ION: PRECURSOR_M/Z 381.1455
MS$FOCUSED_ION: PRECURSOR_TYPE [M+Na]+
MS$DATA_PROCESSING: RECALIBRATE identity on assigned fragments and MS1
MS$DATA_PROCESSING: WHOLE RMassBank 1.99.10
PK$SPLASH: splash10-001i-0090000000-95da9709b811e392cce5
PK$ANNOTATION: m/z tentative_formula formula_count mass error(ppm)
  232.0771 C11H15NNaOS+ 8 232.0767 2
  233.078 C11H14NaO4+ 6 233.0784 -2.04
  250.0896 C13H16NO2S+ 10 250.0896 -0.21
  251.0965 C13H17NO2S+ 9 251.0975 -3.8
PK$NUM_PEAK: 4
PK$PEAK: m/z int. rel.int.
  232.0771 2152 999
  233.078 364 168
  250.0896 536 248
  251.0965 344 159
//
