ACCESSION: MSBNK-Athens_Univ-AU287504
RECORD_TITLE: DCOIT; LC-ESI-QTOF; MS2; CE: 40 eV; R=35000; [M+H]+
DATE: 2019.05.31
AUTHORS: Nikiforos Alygizakis, Katerina Galani, Nikolaos Thomaidis, University of Athens
LICENSE: CC BY
COPYRIGHT: Copyright (C) 2019 Department of Chemistry, University of Athens
COMMENT: CONFIDENCE standard compound
COMMENT: INTERNAL_ID 2875
CH$NAME: DCOIT
CH$NAME: Kathon 930
CH$NAME: 4,5-dichloro-2-octyl-1,2-thiazol-3-one
CH$COMPOUND_CLASS: N/A; Environmental Standard
CH$FORMULA: C11H17Cl2NOS
CH$EXACT_MASS: 281.0407905
CH$SMILES: CCCCCCCCN1SC(Cl)=C(Cl)C1=O
CH$IUPAC: InChI=1S/C11H17Cl2NOS/c1-2-3-4-5-6-7-8-14-11(15)9(12)10(13)16-14/h2-8H2,1H3
CH$LINK: CAS 6625-54-3
CH$LINK: CHEBI CHEBI:83518
CH$LINK: PUBCHEM CID:91688
CH$LINK: INCHIKEY PORQOHRXAJJKGK-UHFFFAOYSA-N
CH$LINK: CHEMSPIDER 82791
CH$LINK: COMPTOX DTXSID5032315
AC$INSTRUMENT: Bruker maXis Impact
AC$INSTRUMENT_TYPE: LC-ESI-QTOF
AC$MASS_SPECTROMETRY: MS_TYPE MS2
AC$MASS_SPECTROMETRY: ION_MODE POSITIVE
AC$MASS_SPECTROMETRY: IONIZATION ESI
AC$MASS_SPECTROMETRY: FRAGMENTATION_MODE CID
AC$MASS_SPECTROMETRY: COLLISION_ENERGY 40 eV
AC$MASS_SPECTROMETRY: RESOLUTION 35000
AC$CHROMATOGRAPHY: COLUMN_NAME Acclaim RSLC C18 2.2um, 2.1x100mm, Thermo
AC$CHROMATOGRAPHY: FLOW_GRADIENT 99/1 at 0-1 min, 61/39 at 3 min, 0.1/99.9 at 14-16 min, 99/1 at 16.1-20 min
AC$CHROMATOGRAPHY: FLOW_RATE 200 uL/min at 0-3 min, 400 uL/min at 14 min, 480 uL/min at 16-19 min, 200 uL/min at 19.1-20 min
AC$CHROMATOGRAPHY: RETENTION_TIME 12.451 min
AC$CHROMATOGRAPHY: SOLVENT A 90:10 water:methanol with 0.01% formic acid and 5mM ammonium formate
AC$CHROMATOGRAPHY: SOLVENT B methanol with 0.01% formic acid and 5mM ammonium formate
MS$FOCUSED_ION: BASE_PEAK 282.0476
MS$FOCUSED_ION: PRECURSOR_M/Z 282.0481
MS$FOCUSED_ION: PRECURSOR_TYPE [M+H]+
MS$DATA_PROCESSING: RECALIBRATE identity on assigned fragments and MS1
MS$DATA_PROCESSING: WHOLE RMassBank 2.10.1
PK$SPLASH: splash10-01b9-0900000000-1803b909c949ac0d10ce
PK$ANNOTATION: m/z tentative_formula formula_count mass error(ppm)
  126.9157 C2HCl2S+ 1 126.9171 -10.38
  128.9129 C2HCl[37]ClS+ 1 128.9147 -13.93
  134.953 C3H2ClNOS+ 1 134.954 -7.51
  135.9547 C2[13]CH2ClNOS+ 1 135.9579 -23.65
  136.9499 C3H2[37]ClNOS+ 1 136.9516 -12.86
  149.0215 C6H10ClS+ 1 149.0186 19.24
  150.0253 C6H11ClS+ 2 150.0265 -7.69
  151.911 C3Cl2NS+ 1 151.9123 -8.66
  153.9073 C3Cl[37]ClNS+ 1 153.9099 -16.92
  169.9217 C3H2Cl2NOS+ 1 169.9229 -7.13
  170.9239 C2[13]CH2Cl2NOS+ 1 170.9268 -16.83
  171.9187 C3H2Cl[37]ClNOS+ 1 171.9205 -10.51
PK$NUM_PEAK: 12
PK$PEAK: m/z int. rel.int.
  126.9157 6476 42
  128.9129 4592 30
  134.953 24036 159
  135.9547 1244 8
  136.9499 6484 42
  149.0215 1080 7
  150.0253 1244 8
  151.911 7036 46
  153.9073 3260 21
  169.9217 150964 999
  170.9239 6580 43
  171.9187 85396 565
//
