ACCESSION: MSBNK-Athens_Univ-AU302707
RECORD_TITLE: Omethoate; LC-ESI-QTOF; MS2; HILIC; CE: 10 eV; R=35000; [M+H]+
DATE: 2016.02.26
AUTHORS: Nikiforos Alygizakis, Nikolaos Thomaidis, University of Athens
LICENSE: CC BY
COPYRIGHT: Copyright (C) 2016 Department of Chemistry, University of Athens
COMMENT: CONFIDENCE standard compound
COMMENT: INTERNAL_ID 3027
CH$NAME: Omethoate
CH$NAME: 2-dimethoxyphosphorylsulfanyl-N-methylacetamide
CH$COMPOUND_CLASS: N/A; Environmental Standard
CH$FORMULA: C5H12NO4PS
CH$EXACT_MASS: 213.0224655
CH$SMILES: CNC(=O)CSP(=O)(OC)OC
CH$IUPAC: InChI=1S/C5H12NO4PS/c1-6-5(7)4-12-11(8,9-2)10-3/h4H2,1-3H3,(H,6,7)
CH$LINK: CAS 1113-02-6
CH$LINK: CHEBI CHEBI:38730
CH$LINK: PUBCHEM CID:14210
CH$LINK: INCHIKEY PZXOQEXFMJCDPG-UHFFFAOYSA-N
CH$LINK: CHEMSPIDER 13574
CH$LINK: COMPTOX DTXSID4037580
AC$INSTRUMENT: Bruker maXis Impact
AC$INSTRUMENT_TYPE: LC-ESI-QTOF
AC$MASS_SPECTROMETRY: MS_TYPE MS2
AC$MASS_SPECTROMETRY: ION_MODE POSITIVE
AC$MASS_SPECTROMETRY: IONIZATION ESI
AC$MASS_SPECTROMETRY: FRAGMENTATION_MODE CID
AC$MASS_SPECTROMETRY: COLLISION_ENERGY 10 eV
AC$MASS_SPECTROMETRY: RESOLUTION 35000
AC$CHROMATOGRAPHY: COLUMN_NAME ACQUITY UPLC BEH Amide 1.7 um 2.1x100mm, Waters
AC$CHROMATOGRAPHY: FLOW_GRADIENT 0/100 at 0-2 min, 95/5 at 12 min, 95/5 at 17 min, 0/100 at 17.1, 0/100 at 25 min
AC$CHROMATOGRAPHY: FLOW_RATE 200 uL/min
AC$CHROMATOGRAPHY: RETENTION_TIME 2.117 min
AC$CHROMATOGRAPHY: SOLVENT A Water with 0.01% formic acid and 1mM ammonium formate
AC$CHROMATOGRAPHY: SOLVENT B Acetonitrile:Water 95:5 with 0.01% formic acid and 1mM ammonium formate
MS$FOCUSED_ION: BASE_PEAK 195.1222
MS$FOCUSED_ION: PRECURSOR_M/Z 214.0297
MS$FOCUSED_ION: PRECURSOR_TYPE [M+H]+
MS$DATA_PROCESSING: RECALIBRATE identity on assigned fragments and MS1
MS$DATA_PROCESSING: WHOLE RMassBank 1.99.10
PK$SPLASH: splash10-01q9-0940000000-e06f549d8218eb8fc57b
PK$ANNOTATION: m/z tentative_formula formula_count mass error(ppm)
  142.992 C2H8O3PS+ 3 142.9926 -4.52
  154.9911 C3H8O3PS+ 1 154.9926 -10
  182.9864 C4H8O4PS+ 1 182.9875 -6.46
  196.0181 C5H11NO3PS+ 1 196.0192 -5.51
  214.0292 C5H13NO4PS+ 1 214.0297 -2.7
PK$NUM_PEAK: 5
PK$PEAK: m/z int. rel.int.
  142.992 1884 130
  154.9911 2076 143
  182.9864 14448 999
  196.0181 3148 217
  214.0292 11624 803
//
