ACCESSION: MSBNK-Athens_Univ-AU271002
RECORD_TITLE: Fenofibrate; LC-ESI-QTOF; MS2; CE: 20 eV; R=35000; [M+H]+
DATE: 2019.05.30
AUTHORS: Nikiforos Alygizakis, Katerina Galani, Nikolaos Thomaidis, University of Athens
LICENSE: CC BY
COPYRIGHT: Copyright (C) 2019 Department of Chemistry, University of Athens
COMMENT: CONFIDENCE standard compound
COMMENT: INTERNAL_ID 2710
CH$NAME: Fenofibrate
CH$NAME: propan-2-yl 2-[4-(4-chlorobenzoyl)phenoxy]-2-methylpropanoate
CH$COMPOUND_CLASS: N/A; Environmental Standard
CH$FORMULA: C20H21ClO4
CH$EXACT_MASS: 360.1128368
CH$SMILES: CC(C)OC(=O)C(C)(C)OC1=CC=C(C=C1)C(=O)C1=CC=C(Cl)C=C1
CH$IUPAC: InChI=1S/C20H21ClO4/c1-13(2)24-19(23)20(3,4)25-17-11-7-15(8-12-17)18(22)14-5-9-16(21)10-6-14/h5-13H,1-4H3
CH$LINK: CAS 49562-28-9
CH$LINK: CHEBI CHEBI:5001
CH$LINK: KEGG D00565
CH$LINK: PUBCHEM CID:3339
CH$LINK: INCHIKEY YMTINGFKWWXKFG-UHFFFAOYSA-N
CH$LINK: CHEMSPIDER 3222
CH$LINK: COMPTOX DTXSID2029874
AC$INSTRUMENT: Bruker maXis Impact
AC$INSTRUMENT_TYPE: LC-ESI-QTOF
AC$MASS_SPECTROMETRY: MS_TYPE MS2
AC$MASS_SPECTROMETRY: ION_MODE POSITIVE
AC$MASS_SPECTROMETRY: IONIZATION ESI
AC$MASS_SPECTROMETRY: FRAGMENTATION_MODE CID
AC$MASS_SPECTROMETRY: COLLISION_ENERGY 20 eV
AC$MASS_SPECTROMETRY: RESOLUTION 35000
AC$CHROMATOGRAPHY: COLUMN_NAME Acclaim RSLC C18 2.2um, 2.1x100mm, Thermo
AC$CHROMATOGRAPHY: FLOW_GRADIENT 99/1 at 0-1 min, 61/39 at 3 min, 0.1/99.9 at 14-16 min, 99/1 at 16.1-20 min
AC$CHROMATOGRAPHY: FLOW_RATE 200 uL/min at 0-3 min, 400 uL/min at 14 min, 480 uL/min at 16-19 min, 200 uL/min at 19.1-20 min
AC$CHROMATOGRAPHY: RETENTION_TIME 12.442 min
AC$CHROMATOGRAPHY: SOLVENT A 90:10 water:methanol with 0.01% formic acid and 5mM ammonium formate
AC$CHROMATOGRAPHY: SOLVENT B methanol with 0.01% formic acid and 5mM ammonium formate
MS$FOCUSED_ION: BASE_PEAK 361.1205
MS$FOCUSED_ION: PRECURSOR_M/Z 361.1201
MS$FOCUSED_ION: PRECURSOR_TYPE [M+H]+
MS$DATA_PROCESSING: RECALIBRATE identity on assigned fragments and MS1
MS$DATA_PROCESSING: WHOLE RMassBank 2.10.1
PK$SPLASH: splash10-001i-0090000000-5872c6ddd18f549e90b8
PK$ANNOTATION: m/z tentative_formula formula_count mass error(ppm)
  121.0278 C7H5O2+ 2 121.0284 -5.28
  138.9937 C7H4ClO+ 1 138.9945 -5.87
  139.9968 C6[13]CH4ClO+ 1 139.9984 -11.28
  140.9906 C7H4[37]ClO+ 1 140.9921 -10.74
  233.0364 C13H10ClO2+ 2 233.0364 0.13
  234.0394 C12[13]CH10ClO2+ 1 234.0403 -3.69
  235.0335 C13H10[37]ClO2+ 1 235.034 -2.02
  236.0363 C16H9Cl+ 1 236.0387 -10.14
  361.1205 C20H22ClO4+ 1 361.1201 0.94
  362.1233 C19[13]CH22ClO4+ 1 362.124 -1.88
  363.1175 C20H22[37]ClO4+ 1 363.1177 -0.68
PK$NUM_PEAK: 11
PK$PEAK: m/z int. rel.int.
  121.0278 62576 26
  138.9937 198824 83
  139.9968 14676 6
  140.9906 49988 21
  233.0364 2374096 999
  234.0394 304892 128
  235.0335 628388 264
  236.0363 45448 19
  361.1205 147004 61
  362.1233 27644 11
  363.1175 38904 16
//
