ACCESSION: MSBNK-Athens_Univ-AU204501
RECORD_TITLE: D617; LC-ESI-QTOF; MS2; CE: 10 eV; R=35000; [M+H]+
DATE: 2015.12.05
AUTHORS: Nikiforos Alygizakis, Nikolaos Thomaidis, University of Athens
LICENSE: CC BY-SA
COPYRIGHT: Copyright (C) 2015 Department of Chemistry, University of Athens
COMMENT: CONFIDENCE standard compound
COMMENT: INTERNAL_ID 2045
CH$NAME: D617
CH$NAME: 2-(3,4-dimethoxyphenyl)-5-(methylamino)-2-propan-2-ylpentanenitrile
CH$COMPOUND_CLASS: N/A; Environmental Standard
CH$FORMULA: C17H26N2O2
CH$EXACT_MASS: 290.1994281
CH$SMILES: CNCCCC(C#N)(C(C)C)C1=CC(OC)=C(OC)C=C1
CH$IUPAC: InChI=1S/C17H26N2O2/c1-13(2)17(12-18,9-6-10-19-3)14-7-8-15(20-4)16(11-14)21-5/h7-8,11,13,19H,6,9-10H2,1-5H3
CH$LINK: CAS 34245-14-2
CH$LINK: CHEBI CHEBI:83528
CH$LINK: PUBCHEM CID:93168
CH$LINK: INCHIKEY WLOBUUJURNEQCL-UHFFFAOYSA-N
CH$LINK: CHEMSPIDER 84112
CH$LINK: COMPTOX DTXSID40891459
AC$INSTRUMENT: Bruker maXis Impact
AC$INSTRUMENT_TYPE: LC-ESI-QTOF
AC$MASS_SPECTROMETRY: MS_TYPE MS2
AC$MASS_SPECTROMETRY: ION_MODE POSITIVE
AC$MASS_SPECTROMETRY: IONIZATION ESI
AC$MASS_SPECTROMETRY: FRAGMENTATION_MODE CID
AC$MASS_SPECTROMETRY: COLLISION_ENERGY 10 eV
AC$MASS_SPECTROMETRY: RESOLUTION 35000
AC$CHROMATOGRAPHY: COLUMN_NAME Acclaim RSLC C18 2.2um, 2.1x100mm, Thermo
AC$CHROMATOGRAPHY: FLOW_GRADIENT 99/1 at 0-1 min, 61/39 at 3 min, 0.1/99.9 at 14-16 min, 99/1 at 16.1-20 min
AC$CHROMATOGRAPHY: FLOW_RATE 200 uL/min at 0-3 min, 400 uL/min at 14 min, 480 uL/min at 16-19 min, 200 uL/min at 19.1-20 min
AC$CHROMATOGRAPHY: RETENTION_TIME 6.1 min
AC$CHROMATOGRAPHY: SOLVENT A 90:10 water:methanol with 0.01% formic acid and 5mM ammonium formate
AC$CHROMATOGRAPHY: SOLVENT B methanol with 0.01% formic acid and 5mM ammonium formate
MS$FOCUSED_ION: BASE_PEAK 291.2071
MS$FOCUSED_ION: PRECURSOR_M/Z 291.2067
MS$FOCUSED_ION: PRECURSOR_TYPE [M+H]+
MS$DATA_PROCESSING: RECALIBRATE identity on assigned fragments and MS1
MS$DATA_PROCESSING: REANALYZE Peaks with additional N2/O included
MS$DATA_PROCESSING: WHOLE RMassBank 2.0.3
PK$SPLASH: splash10-0006-0090000000-9e47d8c16d34365daa4f
PK$ANNOTATION: m/z tentative_formula formula_count mass error(ppm)
  151.0744 C9H11O2+ 1 151.0754 -6.4
  165.089 C10H13O2+ 1 165.091 -12.1
  177.0902 C11H13O2+ 1 177.091 -4.3
  218.1173 C13H16NO2+ 1 218.1176 -1.3
  233.1542 C15H21O2+ 1 233.1536 2.7
  248.1514 C14H20N2O2+ 1 248.1519 -2.07
  260.1643 C16H22NO2+ 1 260.1645 -0.88
  261.1679 C15[13]CH22NO2+ 1 261.1678 0.38
  264.1954 C16H26NO2+ 1 264.1958 -1.46
  291.2072 C17H27N2O2+ 1 291.2067 1.72
  292.2105 C16[13]CH27N2O2+ 1 292.2099 2.05
  293.2133 C15[13]C2H27N2O2+ 1 293.2126 2.39
PK$NUM_PEAK: 12
PK$PEAK: m/z int. rel.int.
  151.0744 2624 2
  165.089 744 1
  177.0902 1932 1
  218.1173 1280 1
  233.1542 1020 1
  248.1514 3272 2
  260.1643 16920 12
  261.1679 2836 2
  264.1954 784 1
  291.2072 1464808 999
  292.2105 252616 172
  293.2133 20256 14
//
