ACCESSION: MSBNK-Athens_Univ-AU211304
RECORD_TITLE: Norlidocaine; LC-ESI-QTOF; MS2; CE: 40 eV; R=35000; [M+H]+
DATE: 2015.12.05
AUTHORS: Nikiforos Alygizakis, Nikolaos Thomaidis, University of Athens
LICENSE: CC BY-SA
COPYRIGHT: Copyright (C) 2015 Department of Chemistry, University of Athens
COMMENT: CONFIDENCE standard compound
COMMENT: INTERNAL_ID 2113
CH$NAME: Norlidocaine
CH$NAME: Monoethylglycinexylidide
CH$NAME: N-(2,6-dimethylphenyl)-2-(ethylamino)acetamide
CH$COMPOUND_CLASS: N/A; Environmental Standard
CH$FORMULA: C12H18N2O
CH$EXACT_MASS: 206.1419132
CH$SMILES: CCNCC(=O)NC1=C(C)C=CC=C1C
CH$IUPAC: InChI=1S/C12H18N2O/c1-4-13-8-11(15)14-12-9(2)6-5-7-10(12)3/h5-7,13H,4,8H2,1-3H3,(H,14,15)
CH$LINK: CAS 7728-40-7
CH$LINK: CHEBI CHEBI:222828
CH$LINK: KEGG C16561
CH$LINK: PUBCHEM CID:24415
CH$LINK: INCHIKEY WRMRXPASUROZGT-UHFFFAOYSA-N
CH$LINK: CHEMSPIDER 22824
CH$LINK: COMPTOX DTXSID60228006
AC$INSTRUMENT: Bruker maXis Impact
AC$INSTRUMENT_TYPE: LC-ESI-QTOF
AC$MASS_SPECTROMETRY: MS_TYPE MS2
AC$MASS_SPECTROMETRY: ION_MODE POSITIVE
AC$MASS_SPECTROMETRY: IONIZATION ESI
AC$MASS_SPECTROMETRY: FRAGMENTATION_MODE CID
AC$MASS_SPECTROMETRY: COLLISION_ENERGY 40 eV
AC$MASS_SPECTROMETRY: RESOLUTION 35000
AC$CHROMATOGRAPHY: COLUMN_NAME Acclaim RSLC C18 2.2um, 2.1x100mm, Thermo
AC$CHROMATOGRAPHY: FLOW_GRADIENT 99/1 at 0-1 min, 61/39 at 3 min, 0.1/99.9 at 14-16 min, 99/1 at 16.1-20 min
AC$CHROMATOGRAPHY: FLOW_RATE 200 uL/min at 0-3 min, 400 uL/min at 14 min, 480 uL/min at 16-19 min, 200 uL/min at 19.1-20 min
AC$CHROMATOGRAPHY: RETENTION_TIME 4.3 min
AC$CHROMATOGRAPHY: SOLVENT A 90:10 water:methanol with 0.01% formic acid and 5mM ammonium formate
AC$CHROMATOGRAPHY: SOLVENT B methanol with 0.01% formic acid and 5mM ammonium formate
MS$FOCUSED_ION: BASE_PEAK 207.1486
MS$FOCUSED_ION: PRECURSOR_M/Z 207.1492
MS$FOCUSED_ION: PRECURSOR_TYPE [M+H]+
MS$DATA_PROCESSING: RECALIBRATE identity on assigned fragments and MS1
MS$DATA_PROCESSING: REANALYZE Peaks with additional N2/O included
MS$DATA_PROCESSING: WHOLE RMassBank 2.0.3
PK$SPLASH: splash10-00di-0900000000-f8983882a261ea7ea6a8
PK$ANNOTATION: m/z tentative_formula formula_count mass error(ppm)
  117.057 C8H7N+ 1 117.0573 -2.74
  118.0648 C8H8N+ 1 118.0651 -2.67
  122.0961 C8H12N+ 1 122.0964 -2.9
  123.0795 C8H11O+ 1 123.0804 -7.46
  132.0792 C9H10N+ 1 132.0808 -12.04
  134.0944 C9H12N+ 1 134.0964 -14.77
  150.0891 C9H12NO+ 1 150.0913 -14.91
PK$NUM_PEAK: 7
PK$PEAK: m/z int. rel.int.
  117.057 948 473
  118.0648 308 153
  122.0961 2000 999
  123.0795 616 307
  132.0792 500 249
  134.0944 368 183
  150.0891 388 193
//
