ACCESSION: MSBNK-Athens_Univ-AU215110
RECORD_TITLE: Acemetacin; LC-ESI-QTOF; MS2; HILIC; CE: 40 eV; R=35000; [M+H]+
DATE: 2016.02.26
AUTHORS: Nikiforos Alygizakis, Nikolaos Thomaidis, University of Athens
LICENSE: CC BY
COPYRIGHT: Copyright (C) 2016 Department of Chemistry, University of Athens
COMMENT: CONFIDENCE standard compound
COMMENT: INTERNAL_ID 2151
CH$NAME: Acemetacin
CH$NAME: 2-[2-[1-(4-chlorobenzoyl)-5-methoxy-2-methylindol-3-yl]acetyl]oxyacetic acid
CH$COMPOUND_CLASS: N/A; Environmental Standard
CH$FORMULA: C21H18ClNO6
CH$EXACT_MASS: 415.0822650
CH$SMILES: Cc1c(c2cc(ccc2n1C(=O)c3ccc(cc3)Cl)OC)CC(=O)OCC(=O)O
CH$IUPAC: InChI=1S/C21H18ClNO6/c1-12-16(10-20(26)29-11-19(24)25)17-9-15(28-2)7-8-18(17)23(12)21(27)13-3-5-14(22)6-4-13/h3-9H,10-11H2,1-2H3,(H,24,25)
CH$LINK: CAS 53164-05-9
CH$LINK: CHEBI CHEBI:31162
CH$LINK: PUBCHEM CID:1981
CH$LINK: INCHIKEY FSQKKOOTNAMONP-UHFFFAOYSA-N
CH$LINK: CHEMSPIDER 1904
CH$LINK: COMPTOX DTXSID7022540
AC$INSTRUMENT: Bruker maXis Impact
AC$INSTRUMENT_TYPE: LC-ESI-QTOF
AC$MASS_SPECTROMETRY: MS_TYPE MS2
AC$MASS_SPECTROMETRY: ION_MODE POSITIVE
AC$MASS_SPECTROMETRY: IONIZATION ESI
AC$MASS_SPECTROMETRY: FRAGMENTATION_MODE CID
AC$MASS_SPECTROMETRY: COLLISION_ENERGY 40 eV
AC$MASS_SPECTROMETRY: RESOLUTION 35000
AC$CHROMATOGRAPHY: COLUMN_NAME ACQUITY UPLC BEH Amide 1.7 um 2.1x100mm, Waters
AC$CHROMATOGRAPHY: FLOW_GRADIENT 0/100 at 0-2 min, 95/5 at 12 min, 95/5 at 17 min, 0/100 at 17.1, 0/100 at 25 min
AC$CHROMATOGRAPHY: FLOW_RATE 200 uL/min
AC$CHROMATOGRAPHY: RETENTION_TIME 1.766 min
AC$CHROMATOGRAPHY: SOLVENT A Water with 0.01% formic acid and 1mM ammonium formate
AC$CHROMATOGRAPHY: SOLVENT B Acetonitrile:Water 95:5 with 0.01% formic acid and 1mM ammonium formate
MS$FOCUSED_ION: BASE_PEAK 586.2947
MS$FOCUSED_ION: PRECURSOR_M/Z 416.0895
MS$FOCUSED_ION: PRECURSOR_TYPE [M+H]+
MS$DATA_PROCESSING: RECALIBRATE identity on assigned fragments and MS1
MS$DATA_PROCESSING: WHOLE RMassBank 1.99.10
PK$SPLASH: splash10-0f79-0900000000-4eae06d24c8e557596b0
PK$ANNOTATION: m/z tentative_formula formula_count mass error(ppm)
  133.0862 C3H16ClNO2+ 4 133.0864 -1.53
  138.9949 C7H4ClO+ 1 138.9945 2.9
  139.9983 C5H2NO4+ 1 139.9978 3.34
  140.9927 C7H4[37]ClO+ 1 140.9921 4.37
  152.1443 C10H18N+ 1 152.1434 5.92
  197.074 C11H14ClO+ 2 197.0728 6.28
PK$NUM_PEAK: 6
PK$PEAK: m/z int. rel.int.
  133.0862 548 167
  138.9949 3264 999
  139.9983 544 166
  140.9927 1080 330
  152.1443 2728 834
  197.074 396 121
//
