ACCESSION: MSBNK-Athens_Univ-AU105402
RECORD_TITLE: Erythromycin; LC-ESI-QTOF; MS2; CE: 20 eV; R=35000; [M+H]+
DATE: 2015.09.22
AUTHORS: Nikiforos Alygizakis, Anna Bletsou, Nikolaos Thomaidis, University of Athens
LICENSE: CC BY-SA
COPYRIGHT: Copyright (C) 2015 Department of Chemistry, University of Athens
COMMENT: CONFIDENCE standard compound
COMMENT: INTERNAL_ID 1054
CH$NAME: Erythromycin
CH$NAME: (3R,4S,5S,6R,7R,9R,11R,12R,13S,14R)-6-[(2S,3R,4S,6R)-4-(dimethylamino)-3-hydroxy-6-methyloxan-2-yl]oxy-14-ethyl-7,12,13-trihydroxy-4-[(2R,4R,5S,6S)-5-hydroxy-4-methoxy-4,6-dimethyloxan-2-yl]oxy-3,5,7,9,11,13-hexamethyl-oxacyclotetradecane-2,10-dione
CH$COMPOUND_CLASS: N/A; Environmental Standard
CH$FORMULA: C37H67NO13
CH$EXACT_MASS: 733.4612412
CH$SMILES: CC[C@@H]1[C@@]([C@@H]([C@H](C(=O)[C@@H](C[C@@]([C@@H]([C@H]([C@@H]([C@H](C(=O)O1)C)O[C@H]2C[C@@]([C@H]([C@@H](O2)C)O)(C)OC)C)O[C@H]3[C@@H]([C@H](C[C@H](O3)C)N(C)C)O)(C)O)C)C)O)(C)O
CH$IUPAC: InChI=1S/C37H67NO13/c1-14-25-37(10,45)30(41)20(4)27(39)18(2)16-35(8,44)32(51-34-28(40)24(38(11)12)15-19(3)47-34)21(5)29(22(6)33(43)49-25)50-26-17-36(9,46-13)31(42)23(7)48-26/h18-26,28-32,34,40-42,44-45H,14-17H2,1-13H3/t18-,19-,20+,21+,22-,23+,24+,25-,26+,28-,29+,30-,31+,32-,34+,35-,36-,37-/m1/s1
CH$LINK: CAS 114-07-8
CH$LINK: CHEBI CHEBI:42355
CH$LINK: PUBCHEM CID:12560
CH$LINK: INCHIKEY ULGZDMOVFRHVEP-RWJQBGPGSA-N
CH$LINK: CHEMSPIDER 12041
CH$LINK: COMPTOX DTXSID4022991
AC$INSTRUMENT: Bruker maXis Impact
AC$INSTRUMENT_TYPE: LC-ESI-QTOF
AC$MASS_SPECTROMETRY: MS_TYPE MS2
AC$MASS_SPECTROMETRY: ION_MODE POSITIVE
AC$MASS_SPECTROMETRY: IONIZATION ESI
AC$MASS_SPECTROMETRY: FRAGMENTATION_MODE CID
AC$MASS_SPECTROMETRY: COLLISION_ENERGY 20 eV
AC$MASS_SPECTROMETRY: RESOLUTION 35000
AC$CHROMATOGRAPHY: COLUMN_NAME Acclaim RSLC C18 2.2um, 2.1x100mm, Thermo
AC$CHROMATOGRAPHY: FLOW_GRADIENT 99/1 at 0-1 min, 61/39 at 3 min, 0.1/99.9 at 14-16 min, 99/1 at 16.1-20 min
AC$CHROMATOGRAPHY: FLOW_RATE 200 uL/min at 0-3 min, 400 uL/min at 14 min, 480 uL/min at 16-19 min, 200 uL/min at 19.1-20 min
AC$CHROMATOGRAPHY: RETENTION_TIME 8.0 min
AC$CHROMATOGRAPHY: SOLVENT A water with 0.01% formic acid and 5mM ammonium formate
AC$CHROMATOGRAPHY: SOLVENT B 90:10 water:methanol with 0.01% formic acid and 5mM ammonium formate
MS$FOCUSED_ION: BASE_PEAK 494.3295
MS$FOCUSED_ION: PRECURSOR_M/Z 734.4685
MS$FOCUSED_ION: PRECURSOR_TYPE [M+H]+
MS$DATA_PROCESSING: RECALIBRATE identity on assigned fragments and MS1
MS$DATA_PROCESSING: REANALYZE Peaks with additional N2/O included
MS$DATA_PROCESSING: WHOLE RMassBank 2.0.2
PK$SPLASH: splash10-0a7i-0900070700-45f1a3bf3aac26069507
PK$ANNOTATION: m/z tentative_formula formula_count mass error(ppm)
  158.1168 C8H16NO2+ 2 158.1176 -4.67
  576.3847 C30H56O10+ 10 576.3868 -3.61
  734.4703 C37H68NO13+ 1 734.4685 2.41
PK$NUM_PEAK: 3
PK$PEAK: m/z int. rel.int.
  158.1168 672 999
  576.3847 540 802
  734.4703 556 826
//
