ACCESSION: MSBNK-Athens_Univ-AU234957
RECORD_TITLE: Bicalutamide; LC-ESI-QTOF; MS2; CE: 10 eV; R=35000; [M-H]-
DATE: 2019.03.28
AUTHORS: Nikiforos Alygizakis, Katerina Galani, Nikolaos Thomaidis, University of Athens
LICENSE: CC BY
COPYRIGHT: Copyright (C) 2019 Department of Chemistry, University of Athens
COMMENT: CONFIDENCE standard compound
COMMENT: INTERNAL_ID 2349
CH$NAME: Bicalutamide
CH$NAME: N-[4-cyano-3-(trifluoromethyl)phenyl]-3-(4-fluorophenyl)sulfonyl-2-hydroxy-2-methylpropanamide
CH$COMPOUND_CLASS: N/A; Environmental Standard
CH$FORMULA: C18H14F4N2O4S
CH$EXACT_MASS: 430.0610408
CH$SMILES: CC(O)(CS(=O)(=O)C1=CC=C(F)C=C1)C(=O)NC1=CC(=C(C=C1)C#N)C(F)(F)F
CH$IUPAC: InChI=1S/C18H14F4N2O4S/c1-17(26,10-29(27,28)14-6-3-12(19)4-7-14)16(25)24-13-5-2-11(9-23)15(8-13)18(20,21)22/h2-8,26H,10H2,1H3,(H,24,25)
CH$LINK: CAS 90357-06-5
CH$LINK: CHEBI CHEBI:91617
CH$LINK: PUBCHEM CID:2375
CH$LINK: INCHIKEY LKJPYSCBVHEWIU-UHFFFAOYSA-N
CH$LINK: CHEMSPIDER 2284
CH$LINK: COMPTOX DTXSID2022678
AC$INSTRUMENT: Bruker maXis Impact
AC$INSTRUMENT_TYPE: LC-ESI-QTOF
AC$MASS_SPECTROMETRY: MS_TYPE MS2
AC$MASS_SPECTROMETRY: ION_MODE NEGATIVE
AC$MASS_SPECTROMETRY: IONIZATION ESI
AC$MASS_SPECTROMETRY: FRAGMENTATION_MODE CID
AC$MASS_SPECTROMETRY: COLLISION_ENERGY 10 eV
AC$MASS_SPECTROMETRY: RESOLUTION 35000
AC$CHROMATOGRAPHY: COLUMN_NAME Acclaim RSLC C18 2.2um, 2.1x100mm, Thermo
AC$CHROMATOGRAPHY: FLOW_GRADIENT 99/1 at 0-1 min, 61/39 at 3 min, 0.1/99.9 at 14-16 min, 99/1 at 16.1-20 min
AC$CHROMATOGRAPHY: FLOW_RATE 200 uL/min at 0-3 min, 400 uL/min at 14 min, 480 uL/min at 16-19 min, 200 uL/min at 19.1-20 min
AC$CHROMATOGRAPHY: RETENTION_TIME 8.552 min
AC$CHROMATOGRAPHY: SOLVENT A 90:10 water:methanol with 5mM ammonium acetate
AC$CHROMATOGRAPHY: SOLVENT B methanol with 5mM ammonium acetate
MS$FOCUSED_ION: BASE_PEAK 255.0398
MS$FOCUSED_ION: PRECURSOR_M/Z 429.0538
MS$FOCUSED_ION: PRECURSOR_TYPE [M-H]-
MS$DATA_PROCESSING: RECALIBRATE identity on assigned fragments and MS1
MS$DATA_PROCESSING: WHOLE RMassBank 2.10.0
PK$SPLASH: splash10-0a6r-0090600000-8130a8e69d992b532602
PK$ANNOTATION: m/z tentative_formula formula_count mass error(ppm)
  243.0139 C13H3F2NO2- 19 243.0137 0.81
  255.0396 C11H10FNO3S- 20 255.0371 9.9
  256.0416 C10[13]CH10FNO3S- 1 256.0399 6.52
  257.044 C9[13]C2H10FNO3S- 1 257.0433 2.72
  411.0412 C18H11F4N2O3S- 1 411.0432 -4.87
  429.0535 C18H13F4N2O4S- 1 429.0538 -0.55
  430.0563 C17[13]CH13F4N2O4S- 1 430.0566 -0.67
  431.0524 C18H13F4N2O4[34]S- 1 431.049 7.75
PK$NUM_PEAK: 8
PK$PEAK: m/z int. rel.int.
  243.0139 2272 23
  255.0396 97488 999
  256.0416 10592 108
  257.044 824 8
  411.0412 984 10
  429.0535 65996 676
  430.0563 9548 97
  431.0524 2912 29
//
