ACCESSION: MSBNK-Athens_Univ-AU502402
RECORD_TITLE: Propyl benzoate; GC-APCI-QTOF; MS2; CE: 20 eV; R=35000; [M+H]+
DATE: 2021.04.19
AUTHORS: Chrysoula Kanakaki, Nikiforos Alygizakis, Nikolaos Thomaidis, University of Athens
LICENSE: CC BY
COPYRIGHT: Copyright (C) 2021 Department of Chemistry, University of Athens
COMMENT: CONFIDENCE standard compound
COMMENT: INTERNAL_ID 5024
CH$NAME: Propyl benzoate
CH$COMPOUND_CLASS: N/A; Food Contact Material
CH$FORMULA: C10H12O2
CH$EXACT_MASS: 164.0837
CH$SMILES: CCCOC(=O)C1=CC=CC=C1
CH$IUPAC: InChI=1S/C10H12O2/c1-2-8-12-10(11)9-6-4-3-5-7-9/h3-7H,2,8H2,1H3
CH$LINK: CAS 2315-68-6
CH$LINK: PUBCHEM CID:16846
CH$LINK: INCHIKEY UDEWPOVQBGFNGE-UHFFFAOYSA-N
CH$LINK: CHEMSPIDER 15965
AC$INSTRUMENT: Bruker 450 GC coupled to maXis Impact
AC$INSTRUMENT_TYPE: GC-APCI-QTOF
AC$MASS_SPECTROMETRY: MS_TYPE MS2
AC$MASS_SPECTROMETRY: ION_MODE POSITIVE
AC$MASS_SPECTROMETRY: IONIZATION APCI
AC$MASS_SPECTROMETRY: FRAGMENTATION_MODE CID
AC$MASS_SPECTROMETRY: COLLISION_ENERGY 20 eV
AC$MASS_SPECTROMETRY: RESOLUTION 35000
AC$CHROMATOGRAPHY: COLUMN_NAME Rxi-5Sil MS column, 30m, 0.25mm i.d., 0.25µm film thickness, Restek
AC$CHROMATOGRAPHY: COLUMN_TEMPERATURE_GRADIENT 55oC at 0 min, 55oC at 3 min, 180oC at 11.33 min with 15oC/min, 280oC at 26.72 min with 6.5oC/min, 280oC at 31.72 min, 300oC at 33.72 min with 10oC/min, 300oC at 39 min
AC$CHROMATOGRAPHY: FLOW_RATE 1.5 mL/min
AC$CHROMATOGRAPHY: RETENTION_TIME 10.286 min
AC$CHROMATOGRAPHY: SOLVENT A Helium
MS$FOCUSED_ION: BASE_PEAK 123.043
MS$FOCUSED_ION: PRECURSOR_M/Z 165.091
MS$FOCUSED_ION: PRECURSOR_TYPE [M+H]+
MS$DATA_PROCESSING: RECALIBRATE identity on assigned fragments and MS1
MS$DATA_PROCESSING: WHOLE RMassBank 2.16.0
PK$SPLASH: splash10-00di-2900000000-6037e123379d40d6f2e7
PK$ANNOTATION: m/z tentative_formula formula_count mass error(ppm)
  53.0387 C4H5+ 1 53.0386 2.65
  79.0535 C6H7+ 1 79.0542 -8.75
  95.048 C6H7O+ 1 95.0491 -11.56
  105.033 C7H5O+ 1 105.0335 -5.08
  115.0535 C9H7+ 1 115.0542 -6.12
  117.0695 C9H9+ 1 117.0699 -2.95
  122.0358 C7H6O2+ 1 122.0362 -3.45
  123.0432 C7H7O2+ 1 123.0441 -6.63
  135.0441 C8H7O2+ 1 135.0441 0.59
  145.0675 C10H9O+ 1 145.0648 18.5
  146.0727 C10H10O+ 1 146.0726 0.81
PK$NUM_PEAK: 11
PK$PEAK: m/z int. rel.int.
  53.0387 140 7
  79.0535 5220 279
  95.048 112 5
  105.033 820 43
  115.0535 228 12
  117.0695 548 29
  122.0358 464 24
  123.0432 18688 999
  135.0441 556 29
  145.0675 604 32
  146.0727 108 5
//
