ACCESSION: MSBNK-Athens_Univ-AU271201
RECORD_TITLE: Terbinafine; LC-ESI-QTOF; MS2; CE: 10 eV; R=35000; [M+H]+
DATE: 2019.05.30
AUTHORS: Nikiforos Alygizakis, Katerina Galani, Nikolaos Thomaidis, University of Athens
LICENSE: CC BY
COPYRIGHT: Copyright (C) 2019 Department of Chemistry, University of Athens
COMMENT: CONFIDENCE standard compound
COMMENT: INTERNAL_ID 2712
CH$NAME: Terbinafine
CH$NAME: (E)-N,6,6-trimethyl-N-(naphthalen-1-ylmethyl)hept-2-en-4-yn-1-amine
CH$COMPOUND_CLASS: N/A; Environmental Standard
CH$FORMULA: C21H25N
CH$EXACT_MASS: 291.1986998
CH$SMILES: CN(C\C=C\C#CC(C)(C)C)CC1=CC=CC2=CC=CC=C12
CH$IUPAC: InChI=1S/C21H25N/c1-21(2,3)15-8-5-9-16-22(4)17-19-13-10-12-18-11-6-7-14-20(18)19/h5-7,9-14H,16-17H2,1-4H3/b9-5+
CH$LINK: CAS 91161-71-6
CH$LINK: CHEBI CHEBI:9448
CH$LINK: KEGG C08079
CH$LINK: PUBCHEM CID:1549008
CH$LINK: INCHIKEY DOMXUEMWDBAQBQ-WEVVVXLNSA-N
CH$LINK: CHEMSPIDER 1266005
CH$LINK: COMPTOX DTXSID2023640
AC$INSTRUMENT: Bruker maXis Impact
AC$INSTRUMENT_TYPE: LC-ESI-QTOF
AC$MASS_SPECTROMETRY: MS_TYPE MS2
AC$MASS_SPECTROMETRY: ION_MODE POSITIVE
AC$MASS_SPECTROMETRY: IONIZATION ESI
AC$MASS_SPECTROMETRY: FRAGMENTATION_MODE CID
AC$MASS_SPECTROMETRY: COLLISION_ENERGY 10 eV
AC$MASS_SPECTROMETRY: RESOLUTION 35000
AC$CHROMATOGRAPHY: COLUMN_NAME Acclaim RSLC C18 2.2um, 2.1x100mm, Thermo
AC$CHROMATOGRAPHY: FLOW_GRADIENT 99/1 at 0-1 min, 61/39 at 3 min, 0.1/99.9 at 14-16 min, 99/1 at 16.1-20 min
AC$CHROMATOGRAPHY: FLOW_RATE 200 uL/min at 0-3 min, 400 uL/min at 14 min, 480 uL/min at 16-19 min, 200 uL/min at 19.1-20 min
AC$CHROMATOGRAPHY: RETENTION_TIME 9.799 min
AC$CHROMATOGRAPHY: SOLVENT A 90:10 water:methanol with 0.01% formic acid and 5mM ammonium formate
AC$CHROMATOGRAPHY: SOLVENT B methanol with 0.01% formic acid and 5mM ammonium formate
MS$FOCUSED_ION: BASE_PEAK 292.207
MS$FOCUSED_ION: PRECURSOR_M/Z 292.206
MS$FOCUSED_ION: PRECURSOR_TYPE [M+H]+
MS$DATA_PROCESSING: RECALIBRATE identity on assigned fragments and MS1
MS$DATA_PROCESSING: WHOLE RMassBank 2.10.1
PK$SPLASH: splash10-0006-0390000000-94fb8f54416afd06a080
PK$ANNOTATION: m/z tentative_formula formula_count mass error(ppm)
  141.0691 C11H9+ 1 141.0699 -5.57
  142.0725 C10[13]CH9+ 1 142.0738 -9.34
  150.1266 C10H16N+ 1 150.1277 -7.2
  170.0954 C12H12N+ 1 170.0964 -6.25
  205.1005 C16H13+ 1 205.1012 -3.37
  261.1631 C20H21+ 1 261.1638 -2.46
  292.2072 C21H26N+ 1 292.206 4.17
  294.2129 C19[13]C2H26N+ 1 294.2132 -1.27
PK$NUM_PEAK: 8
PK$PEAK: m/z int. rel.int.
  141.0691 852280 339
  142.0725 83984 33
  150.1266 22964 9
  170.0954 46672 18
  205.1005 29940 11
  261.1631 17448 6
  292.2072 2511076 999
  294.2129 65208 25
//
