ACCESSION: MSBNK-Athens_Univ-AU596702
RECORD_TITLE: Vomitoxin; LC-ESI-QTOF; MS2; CE: 30 eV; R=35000; [M+H]+
DATE: 2020.04.11
AUTHORS: Varvara Nikolopoulou, Anthi Panara, Reza Aalizadeh, Nikolaos Thomaidis
LICENSE: CC BY
COPYRIGHT: Copyright (C) 2020 Department of Chemistry, University of Athens
COMMENT: CONFIDENCE standard compound
COMMENT: INTERNAL_ID 5967
CH$NAME: Vomitoxin
CH$NAME: Rd toxin
CH$NAME: 3,10-dihydroxy-2-(hydroxymethyl)-1,5-dimethylspiro[8-oxatricyclo[7.2.1.02,7]dodec-5-ene-12,2`-oxirane]-4-one
CH$COMPOUND_CLASS: Natural Product; Fungal metabolite
CH$FORMULA: C15H20O6
CH$EXACT_MASS: 296.126
CH$SMILES: CC1=CC2C(C(C1=O)O)(C3(CC(C(C34CO4)O2)O)C)CO
CH$IUPAC: InChI=1S/C15H20O6/c1-7-3-9-14(5-16,11(19)10(7)18)13(2)4-8(17)12(21-9)15(13)6-20-15/h3,8-9,11-12,16-17,19H,4-6H2,1-2H3
CH$LINK: CAS 51481-10-8
CH$LINK: CHEMSPIDER 380420
CH$LINK: INCHIKEY LINOMUASTDIRTM-UHFFFAOYSA-N
CH$LINK: PUBCHEM CID:430147
AC$INSTRUMENT: Bruker maXis Impact
AC$INSTRUMENT_TYPE: LC-ESI-QTOF
AC$MASS_SPECTROMETRY: MS_TYPE MS2
AC$MASS_SPECTROMETRY: ION_MODE POSITIVE
AC$MASS_SPECTROMETRY: IONIZATION ESI
AC$MASS_SPECTROMETRY: FRAGMENTATION_MODE CID
AC$MASS_SPECTROMETRY: COLLISION_ENERGY 30 eV
AC$MASS_SPECTROMETRY: RESOLUTION 35000
AC$CHROMATOGRAPHY: COLUMN_NAME Acclaim RSLC C18 2.2um, 2.1x100mm, Thermo
AC$CHROMATOGRAPHY: FLOW_GRADIENT 99/1 at 0-1 min, 61/39 at 3 min, 0.1/99.9 at 14-16 min, 99/1 at 16.1-20 min
AC$CHROMATOGRAPHY: FLOW_RATE 200 uL/min at 0-3 min, 400 uL/min at 14 min, 480 uL/min at 16-19 min, 200 uL/min at 19.1-20 min
AC$CHROMATOGRAPHY: RETENTION_TIME 3.874 min
AC$CHROMATOGRAPHY: SOLVENT A 90:10 water:methanol with 0.01% formic acid and 5mM ammonium formate
AC$CHROMATOGRAPHY: SOLVENT B methanol with 0.01% formic acid and 5mM ammonium formate
MS$FOCUSED_ION: BASE_PEAK 297.1333
MS$FOCUSED_ION: PRECURSOR_M/Z 297.1333
MS$FOCUSED_ION: PRECURSOR_TYPE [M+H]+
MS$DATA_PROCESSING: RECALIBRATE identity on assigned fragments and MS1
MS$DATA_PROCESSING: WHOLE RMassBank 2.8.0
PK$SPLASH: splash10-0kdi-0940000000-8cd9b67a1aa86011c513
PK$ANNOTATION: m/z tentative_formula formula_count mass error(ppm)
  159.0806 C11H11O+ 1 159.0804 1.08
  175.0762 C11H11O2+ 1 175.0754 4.54
  203.1035 C13H15O2+ 1 203.1067 -15.53
PK$NUM_PEAK: 3
PK$PEAK: m/z int. rel.int.
  159.0806 340 816
  175.0762 416 999
  203.1035 376 902
//
