ACCESSION: MSBNK-Athens_Univ-AU228101
RECORD_TITLE: Acebutolol; LC-ESI-QTOF; MS2; CE: 10 eV; R=35000; [M+H]+
DATE: 2018.12.19
AUTHORS: Nikiforos Alygizakis, Katerina Galani, Nikolaos Thomaidis, University of Athens
LICENSE: CC BY
COPYRIGHT: Copyright (C) 2018 Department of Chemistry, University of Athens
COMMENT: CONFIDENCE standard compound
COMMENT: INTERNAL_ID 2281
CH$NAME: Acebutolol
CH$NAME: N-[3-acetyl-4-[2-hydroxy-3-(propan-2-ylamino)propoxy]phenyl]butanamide
CH$COMPOUND_CLASS: N/A; Environmental Standard
CH$FORMULA: C18H28N2O4
CH$EXACT_MASS: 336.2049074
CH$SMILES: CCCC(=O)Nc1ccc(c(c1)C(=O)C)OCC(CNC(C)C)O
CH$IUPAC: InChI=1S/C18H28N2O4/c1-5-6-18(23)20-14-7-8-17(16(9-14)13(4)21)24-11-15(22)10-19-12(2)3/h7-9,12,15,19,22H,5-6,10-11H2,1-4H3,(H,20,23)
CH$LINK: CAS 68107-82-4
CH$LINK: CHEBI CHEBI:2379
CH$LINK: KEGG C06803
CH$LINK: PUBCHEM CID:1978
CH$LINK: INCHIKEY GOEMGAFJFRBGGG-UHFFFAOYSA-N
CH$LINK: CHEMSPIDER 1901
CH$LINK: COMPTOX DTXSID2048539
AC$INSTRUMENT: Bruker maXis Impact
AC$INSTRUMENT_TYPE: LC-ESI-QTOF
AC$MASS_SPECTROMETRY: MS_TYPE MS2
AC$MASS_SPECTROMETRY: ION_MODE POSITIVE
AC$MASS_SPECTROMETRY: IONIZATION ESI
AC$MASS_SPECTROMETRY: FRAGMENTATION_MODE CID
AC$MASS_SPECTROMETRY: COLLISION_ENERGY 10 eV
AC$MASS_SPECTROMETRY: RESOLUTION 35000
AC$CHROMATOGRAPHY: COLUMN_NAME Acclaim RSLC C18 2.2um, 2.1x100mm, Thermo
AC$CHROMATOGRAPHY: FLOW_GRADIENT 99/1 at 0-1 min, 61/39 at 3 min, 0.1/99.9 at 14-16 min, 99/1 at 16.1-20 min
AC$CHROMATOGRAPHY: FLOW_RATE 200 uL/min at 0-3 min, 400 uL/min at 14 min, 480 uL/min at 16-19 min, 200 uL/min at 19.1-20 min
AC$CHROMATOGRAPHY: RETENTION_TIME 4.660 min
AC$CHROMATOGRAPHY: SOLVENT A 90:10 water:methanol with 0.01% formic acid and 5mM ammonium formate
AC$CHROMATOGRAPHY: SOLVENT B methanol with 0.01% formic acid and 5mM ammonium formate
MS$FOCUSED_ION: BASE_PEAK 337.2128
MS$FOCUSED_ION: PRECURSOR_M/Z 337.2122
MS$FOCUSED_ION: PRECURSOR_TYPE [M+H]+
MS$DATA_PROCESSING: RECALIBRATE identity on assigned fragments and MS1
MS$DATA_PROCESSING: WHOLE RMassBank 2.10.0
PK$SPLASH: splash10-000i-0009000000-6d0d67c3acd18ae44924
PK$ANNOTATION: m/z tentative_formula formula_count mass error(ppm)
  319.201 C18H27N2O3+ 1 319.2016 -1.92
  337.2133 C18H29N2O4+ 1 337.2122 3.35
PK$NUM_PEAK: 2
PK$PEAK: m/z int. rel.int.
  319.201 42308 16
  337.2133 2512956 999
//
