ACCESSION: MSBNK-Athens_Univ-AU232457
RECORD_TITLE: Chlorothalonil-4-hydroxy; LC-ESI-QTOF; MS2; CE: 10 eV; R=35000; [M-H]-
DATE: 2019.03.28
AUTHORS: Nikiforos Alygizakis, Katerina Galani, Nikolaos Thomaidis, University of Athens
LICENSE: CC BY
COPYRIGHT: Copyright (C) 2019 Department of Chemistry, University of Athens
COMMENT: CONFIDENCE standard compound
COMMENT: INTERNAL_ID 2324
CH$NAME: Chlorothalonil-4-hydroxy
CH$NAME: 4-Hydroxy-2,5,6-trichloroisophthalonitrile
CH$NAME: 2,4,5-trichloro-6-hydroxybenzene-1,3-dicarbonitrile
CH$COMPOUND_CLASS: N/A; Environmental Standard
CH$FORMULA: C8HCl3N2O
CH$EXACT_MASS: 245.9154457
CH$SMILES: OC1=C(Cl)C(Cl)=C(C#N)C(Cl)=C1C#N
CH$IUPAC: InChI=1S/C8HCl3N2O/c9-5-3(1-12)6(10)7(11)8(14)4(5)2-13/h14H
CH$LINK: CAS 28343-61-5
CH$LINK: CHEBI CHEBI:133542
CH$LINK: PUBCHEM CID:34217
CH$LINK: INCHIKEY MDQKYGOECVSPIW-UHFFFAOYSA-N
CH$LINK: CHEMSPIDER 31530
CH$LINK: COMPTOX DTXSID90182586
AC$INSTRUMENT: Bruker maXis Impact
AC$INSTRUMENT_TYPE: LC-ESI-QTOF
AC$MASS_SPECTROMETRY: MS_TYPE MS2
AC$MASS_SPECTROMETRY: ION_MODE NEGATIVE
AC$MASS_SPECTROMETRY: IONIZATION ESI
AC$MASS_SPECTROMETRY: FRAGMENTATION_MODE CID
AC$MASS_SPECTROMETRY: COLLISION_ENERGY 10 eV
AC$MASS_SPECTROMETRY: RESOLUTION 35000
AC$CHROMATOGRAPHY: COLUMN_NAME Acclaim RSLC C18 2.2um, 2.1x100mm, Thermo
AC$CHROMATOGRAPHY: FLOW_GRADIENT 99/1 at 0-1 min, 61/39 at 3 min, 0.1/99.9 at 14-16 min, 99/1 at 16.1-20 min
AC$CHROMATOGRAPHY: FLOW_RATE 200 uL/min at 0-3 min, 400 uL/min at 14 min, 480 uL/min at 16-19 min, 200 uL/min at 19.1-20 min
AC$CHROMATOGRAPHY: RETENTION_TIME 7.501 min
AC$CHROMATOGRAPHY: SOLVENT A 90:10 water:methanol with 5mM ammonium acetate
AC$CHROMATOGRAPHY: SOLVENT B methanol with 5mM ammonium acetate
MS$FOCUSED_ION: BASE_PEAK 244.9083
MS$FOCUSED_ION: PRECURSOR_M/Z 244.9082
MS$FOCUSED_ION: PRECURSOR_TYPE [M-H]-
MS$DATA_PROCESSING: RECALIBRATE identity on assigned fragments and MS1
MS$DATA_PROCESSING: WHOLE RMassBank 2.10.0
PK$SPLASH: splash10-0005-0090000000-f0b79620b3018ac5d531
PK$ANNOTATION: m/z tentative_formula formula_count mass error(ppm)
  244.9082 C8Cl3N2O- 1 244.9082 0.21
  245.9103 C7[13]CCl3N2O- 1 245.911 -2.55
  246.9053 C8Cl2[37]ClN2O- 1 246.9047 2.58
PK$NUM_PEAK: 3
PK$PEAK: m/z int. rel.int.
  244.9082 195668 999
  245.9103 22676 115
  246.9053 184960 944
//
