ACCESSION: MSBNK-Athens_Univ-AU258402
RECORD_TITLE: Picoxystrobin; LC-ESI-QTOF; MS2; CE: 20 eV; R=35000; [M+H]+
DATE: 2019.05.29
AUTHORS: Nikiforos Alygizakis, Katerina Galani, Nikolaos Thomaidis, University of Athens
LICENSE: CC BY
COPYRIGHT: Copyright (C) 2019 Department of Chemistry, University of Athens
COMMENT: CONFIDENCE standard compound
COMMENT: INTERNAL_ID 2584
CH$NAME: Picoxystrobin
CH$NAME: methyl (E)-3-methoxy-2-[2-[[6-(trifluoromethyl)pyridin-2-yl]oxymethyl]phenyl]prop-2-enoate
CH$COMPOUND_CLASS: N/A; Environmental Standard
CH$FORMULA: C18H16F3NO4
CH$EXACT_MASS: 367.1031427
CH$SMILES: CO\C=C(\C(=O)OC)C1=CC=CC=C1COC1=CC=CC(=N1)C(F)(F)F
CH$IUPAC: InChI=1S/C18H16F3NO4/c1-24-11-14(17(23)25-2)13-7-4-3-6-12(13)10-26-16-9-5-8-15(22-16)18(19,20)21/h3-9,11H,10H2,1-2H3/b14-11+
CH$LINK: CAS 117428-22-5
CH$LINK: CHEBI CHEBI:83197
CH$LINK: PUBCHEM CID:11285653
CH$LINK: INCHIKEY IBSNKSODLGJUMQ-SDNWHVSQSA-N
CH$LINK: CHEMSPIDER 9460644
CH$LINK: COMPTOX DTXSID9047542
AC$INSTRUMENT: Bruker maXis Impact
AC$INSTRUMENT_TYPE: LC-ESI-QTOF
AC$MASS_SPECTROMETRY: MS_TYPE MS2
AC$MASS_SPECTROMETRY: ION_MODE POSITIVE
AC$MASS_SPECTROMETRY: IONIZATION ESI
AC$MASS_SPECTROMETRY: FRAGMENTATION_MODE CID
AC$MASS_SPECTROMETRY: COLLISION_ENERGY 20 eV
AC$MASS_SPECTROMETRY: RESOLUTION 35000
AC$CHROMATOGRAPHY: COLUMN_NAME Acclaim RSLC C18 2.2um, 2.1x100mm, Thermo
AC$CHROMATOGRAPHY: FLOW_GRADIENT 99/1 at 0-1 min, 61/39 at 3 min, 0.1/99.9 at 14-16 min, 99/1 at 16.1-20 min
AC$CHROMATOGRAPHY: FLOW_RATE 200 uL/min at 0-3 min, 400 uL/min at 14 min, 480 uL/min at 16-19 min, 200 uL/min at 19.1-20 min
AC$CHROMATOGRAPHY: RETENTION_TIME 10.567 min
AC$CHROMATOGRAPHY: SOLVENT A 90:10 water:methanol with 0.01% formic acid and 5mM ammonium formate
AC$CHROMATOGRAPHY: SOLVENT B methanol with 0.01% formic acid and 5mM ammonium formate
MS$FOCUSED_ION: BASE_PEAK 317.1649
MS$FOCUSED_ION: PRECURSOR_M/Z 368.1104
MS$FOCUSED_ION: PRECURSOR_TYPE [M+H]+
MS$DATA_PROCESSING: RECALIBRATE identity on assigned fragments and MS1
MS$DATA_PROCESSING: WHOLE RMassBank 2.10.1
PK$SPLASH: splash10-0002-0930000000-f18474aec7bf05f15234
PK$ANNOTATION: m/z tentative_formula formula_count mass error(ppm)
  115.0537 C9H7+ 3 115.0542 -4.5
  117.0691 C9H9+ 2 117.0699 -6.51
  145.0642 C10H9O+ 3 145.0648 -4.37
  146.0675 C9[13]CH9O+ 1 146.0687 -8.47
  147.0701 C8[13]C2H9O+ 1 147.072 -13.16
  173.0587 C11H9O2+ 4 173.0597 -5.73
  177.0903 C11H13O2+ 4 177.091 -4.23
  205.0855 C10H12F3O+ 6 205.0835 9.65
  206.0887 C9[13]CH12F3O+ 1 206.0874 6.35
PK$NUM_PEAK: 9
PK$PEAK: m/z int. rel.int.
  115.0537 20148 8
  117.0691 19440 8
  145.0642 2352648 999
  146.0675 264532 112
  147.0701 12964 5
  173.0587 87292 37
  177.0903 94064 39
  205.0855 1062268 451
  206.0887 97648 41
//
