ACCESSION: MSBNK-Athens_Univ-AU405502
RECORD_TITLE: 1-Chlorobenzotriazole; LC-ESI-QTOF; MS2; CE: 20 eV; R=35000; [M+H]+
DATE: 2016.02.22
AUTHORS: Nikiforos Alygizakis, Reza Aalizadeh, Nikolaos Thomaidis, University of Athens
LICENSE: CC BY
COPYRIGHT: Copyright (C) 2016 Department of Chemistry, University of Athens
COMMENT: CONFIDENCE standard compound
COMMENT: INTERNAL_ID 4055
CH$NAME: 1-Chlorobenzotriazole
CH$COMPOUND_CLASS: N/A; Environmental Standard
CH$FORMULA: C6H4ClN3
CH$EXACT_MASS: 153.0093748
CH$SMILES: C1=CC=C2C(=C1)N=NN2Cl
CH$IUPAC: InChI=1S/C6H4ClN3/c7-10-6-4-2-1-3-5(6)8-9-10/h1-4H
CH$LINK: CAS 21050-95-3
CH$LINK: PUBCHEM CID:88761
CH$LINK: INCHIKEY INOGLHRUEYDAHX-UHFFFAOYSA-N
CH$LINK: CHEMSPIDER 80093
CH$LINK: COMPTOX DTXSID50175272
AC$INSTRUMENT: Bruker maXis Impact
AC$INSTRUMENT_TYPE: LC-ESI-QTOF
AC$MASS_SPECTROMETRY: MS_TYPE MS2
AC$MASS_SPECTROMETRY: ION_MODE POSITIVE
AC$MASS_SPECTROMETRY: IONIZATION ESI
AC$MASS_SPECTROMETRY: FRAGMENTATION_MODE CID
AC$MASS_SPECTROMETRY: COLLISION_ENERGY 20 eV
AC$MASS_SPECTROMETRY: RESOLUTION 35000
AC$CHROMATOGRAPHY: COLUMN_NAME Acclaim RSLC C18 2.2um, 2.1x100mm, Thermo
AC$CHROMATOGRAPHY: FLOW_GRADIENT 99/1 at 0-1 min, 61/39 at 3 min, 0.1/99.9 at 14-16 min, 99/1 at 16.1-20 min
AC$CHROMATOGRAPHY: FLOW_RATE 200 uL/min at 0-3 min, 400 uL/min at 14 min, 480 uL/min at 16-19 min, 200 uL/min at 19.1-20 min
AC$CHROMATOGRAPHY: RETENTION_TIME 6.408 min
AC$CHROMATOGRAPHY: SOLVENT A 90:10 water:methanol with 0.01% formic acid and 5mM ammonium formate
AC$CHROMATOGRAPHY: SOLVENT B methanol with 0.01% formic acid and 5mM ammonium formate
MS$FOCUSED_ION: BASE_PEAK 154.0166
MS$FOCUSED_ION: PRECURSOR_M/Z 154.0167
MS$FOCUSED_ION: PRECURSOR_TYPE [M+H]+
MS$DATA_PROCESSING: RECALIBRATE identity on assigned fragments and MS1
MS$DATA_PROCESSING: WHOLE RMassBank 1.99.10
PK$SPLASH: splash10-0udi-0900000000-65f514d985a5fd497fe9
PK$ANNOTATION: m/z tentative_formula formula_count mass error(ppm)
  126.01 C6H5ClN+ 1 126.0105 -4.02
  128.0066 C6H5[37]ClN+ 1 128.0081 -12
  154.0168 C6H5ClN3+ 1 154.0167 0.89
  155.0199 C5[13]CH5ClN3+ 1 155.0206 -4.01
  156.0135 C6H5[37]ClN3+ 1 156.0142 -5.07
PK$NUM_PEAK: 5
PK$PEAK: m/z int. rel.int.
  126.01 2088 90
  128.0066 792 34
  154.0168 23076 999
  155.0199 1428 61
  156.0135 6572 284
//
