ACCESSION: MSBNK-Athens_Univ-AU508353
RECORD_TITLE: Perfluorooctylphosphonic acid (PFOPA); LC-ESI-QTOF; MS2; CE: 30 eV; R=35000; [M-H]-
DATE: 2023.04.25
AUTHORS: Konstantina Diamanti, Georgios Gkotsis, Nikiforos Alygizakis, Nikolaos Thomaidis
LICENSE: CC BY
COPYRIGHT: Copyright (C) 2023 Department of Chemistry, University of Athens
COMMENT: CONFIDENCE standard compound
COMMENT: INTERNAL_ID 5083
CH$NAME: Perfluorooctylphosphonic acid (PFOPA)
CH$NAME: (Heptadecafluorooctyl)phosphonic acid
CH$NAME: 1,1,2,2,3,3,4,4,5,5,6,6,7,7,8,8,8-heptadecafluorooctylphosphonic acid
CH$COMPOUND_CLASS: N/A; Environmental Standard
CH$FORMULA: C8H2F17O3P
CH$EXACT_MASS: 499.9470
CH$SMILES: FC(F)(C(F)(F)P(O)(=O)O)C(F)(F)C(F)(F)C(F)(F)C(F)(F)C(F)(F)C(F)(F)F
CH$IUPAC: InChI=1S/C8H2F17O3P/c9-1(10,3(13,14)5(17,18)7(21,22)23)2(11,12)4(15,16)6(19,20)8(24,25)29(26,27)28/h(H2,26,27,28)
CH$LINK: CAS 40143-78-0
CH$LINK: PUBCHEM CID:13528037
CH$LINK: INCHIKEY CPRNWMZKNOIIML-UHFFFAOYSA-N
CH$LINK: CHEMSPIDER 15186112
AC$INSTRUMENT: Bruker maXis Impact
AC$INSTRUMENT_TYPE: LC-ESI-QTOF
AC$MASS_SPECTROMETRY: MS_TYPE MS2
AC$MASS_SPECTROMETRY: MODE NEGATIVE
AC$MASS_SPECTROMETRY: IONIZATION ESI
AC$MASS_SPECTROMETRY: FRAGMENTATION_MODE CID
AC$MASS_SPECTROMETRY: COLLISION_ENERGY 30 eV
AC$MASS_SPECTROMETRY: RESOLUTION 35000
AC$MASS_SPECTROMETRY: MASS_RANGE_M/Z 50-1000
AC$CHROMATOGRAPHY: COLUMN_NAME Acclaim RSLC C18 2.2um, 2.1x100mm, Thermo
AC$CHROMATOGRAPHY: FLOW_GRADIENT 99/1 at 0-1 min, 61/39 at 3 min, 0.1/99.9 at 14-16 min, 99/1 at 16.1-20 min
AC$CHROMATOGRAPHY: FLOW_RATE 200 uL/min at 0-3 min, 400 uL/min at 14 min, 480 uL/min at 16-19 min, 200 uL/min at 19.1-20 min
AC$CHROMATOGRAPHY: RETENTION_TIME 9.008 min
MS$FOCUSED_ION: BASE_PEAK 293.9871
MS$FOCUSED_ION: PRECURSOR_M/Z 498.9397
MS$FOCUSED_ION: PRECURSOR_TYPE [M-H]-
MS$DATA_PROCESSING: RECALIBRATE identity on assigned fragments and MS1
MS$DATA_PROCESSING: WHOLE RMassBank 3.9.0
PK$SPLASH: splash10-0002-0000900000-34616a4a9db4ef47bd10
PK$ANNOTATION: m/z tentative_formula formula_count mass error(ppm)
  498.9339 C8HF17O3P- 1 498.9397 -11.77
  498.9415 C8HF17O3P- 1 498.9397 3.56
PK$NUM_PEAK: 2
PK$PEAK: m/z int. rel.int.
  498.9339 360 946
  498.9415 380 999
//
