ACCESSION: MSBNK-Athens_Univ-AU230605
RECORD_TITLE: Chloramphenicol; LC-ESI-QTOF; MS2; CE: 50 eV; R=35000; [M+H]+
DATE: 2019.04.08
AUTHORS: Nikiforos Alygizakis, Katerina Galani, Nikolaos Thomaidis, University of Athens
LICENSE: CC BY
COPYRIGHT: Copyright (C) 2019 Department of Chemistry, University of Athens
COMMENT: CONFIDENCE standard compound
COMMENT: INTERNAL_ID 2306
CH$NAME: Chloramphenicol
CH$NAME: 2,2-Dichloro-N-[1,3-dihydroxy-1-(4-nitrophenyl)propan-2-yl]acetamide
CH$NAME: 2,2-dichloro-N-[1,3-dihydroxy-1-(4-nitrophenyl)propan-2-yl]acetamide
CH$COMPOUND_CLASS: N/A; Environmental Standard
CH$FORMULA: C11H12Cl2N2O5
CH$EXACT_MASS: 322.0123268
CH$SMILES: OCC(NC(=O)C(Cl)Cl)C(O)C1=CC=C(C=C1)[N+]([O-])=O
CH$IUPAC: InChI=1S/C11H12Cl2N2O5/c12-10(13)11(18)14-8(5-16)9(17)6-1-3-7(4-2-6)15(19)20/h1-4,8-10,16-17H,5H2,(H,14,18)
CH$LINK: CAS 56-75-7
CH$LINK: CHEBI CHEBI:94390
CH$LINK: PUBCHEM CID:298
CH$LINK: INCHIKEY WIIZWVCIJKGZOK-UHFFFAOYSA-N
CH$LINK: CHEMSPIDER 292
AC$INSTRUMENT: Bruker maXis Impact
AC$INSTRUMENT_TYPE: LC-ESI-QTOF
AC$MASS_SPECTROMETRY: MS_TYPE MS2
AC$MASS_SPECTROMETRY: ION_MODE POSITIVE
AC$MASS_SPECTROMETRY: IONIZATION ESI
AC$MASS_SPECTROMETRY: FRAGMENTATION_MODE CID
AC$MASS_SPECTROMETRY: COLLISION_ENERGY 50 eV
AC$MASS_SPECTROMETRY: RESOLUTION 35000
AC$CHROMATOGRAPHY: COLUMN_NAME Acclaim RSLC C18 2.2um, 2.1x100mm, Thermo
AC$CHROMATOGRAPHY: FLOW_GRADIENT 99/1 at 0-1 min, 61/39 at 3 min, 0.1/99.9 at 14-16 min, 99/1 at 16.1-20 min
AC$CHROMATOGRAPHY: FLOW_RATE 200 uL/min at 0-3 min, 400 uL/min at 14 min, 480 uL/min at 16-19 min, 200 uL/min at 19.1-20 min
AC$CHROMATOGRAPHY: RETENTION_TIME 5.712 min
AC$CHROMATOGRAPHY: SOLVENT A 90:10 water:methanol with 0.01% formic acid and 5mM ammonium formate
AC$CHROMATOGRAPHY: SOLVENT B methanol with 0.01% formic acid and 5mM ammonium formate
MS$FOCUSED_ION: BASE_PEAK 376.2389
MS$FOCUSED_ION: PRECURSOR_M/Z 323.0196
MS$FOCUSED_ION: PRECURSOR_TYPE [M+H]+
MS$DATA_PROCESSING: RECALIBRATE identity on assigned fragments and MS1
MS$DATA_PROCESSING: WHOLE RMassBank 2.10.1
PK$SPLASH: splash10-014i-0900000000-ce1237f08f9d2bc030a0
PK$ANNOTATION: m/z tentative_formula formula_count mass error(ppm)
  118.0636 C2H13ClNO2+ 3 118.0629 5.67
  119.0716 C5H11O3+ 2 119.0703 10.77
  130.0643 C9H8N+ 3 130.0651 -6.57
  131.0487 C9H7O+ 3 131.0491 -3.59
  164.024 C3H12Cl2NO2+ 4 164.024 0.46
  165.0648 C8H9N2O2+ 2 165.0659 -6.15
PK$NUM_PEAK: 6
PK$PEAK: m/z int. rel.int.
  118.0636 524 688
  119.0716 536 704
  130.0643 468 615
  131.0487 300 394
  164.024 636 836
  165.0648 760 999
//
