ACCESSION: MSBNK-Athens_Univ-AU507002
RECORD_TITLE: Triethylphosphite; GC-APCI-QTOF; MS2; CE: 20 eV; R=35000; [M+H]+
DATE: 2021.04.20
AUTHORS: Chrysoula Kanakaki, Nikiforos Alygizakis, Nikolaos Thomaidis, University of Athens
LICENSE: CC BY
COPYRIGHT: Copyright (C) 2021 Department of Chemistry, University of Athens
COMMENT: CONFIDENCE standard compound
COMMENT: INTERNAL_ID 5070
CH$NAME: Triethylphosphite
CH$COMPOUND_CLASS: N/A; Food Contact Material
CH$FORMULA: C6H15O3P
CH$EXACT_MASS: 166.0759
CH$SMILES: CCOP(OCC)OCC
CH$IUPAC: InChI=1S/C6H15O3P/c1-4-7-10(8-5-2)9-6-3/h4-6H2,1-3H3
CH$LINK: CAS 122-52-1
CH$LINK: PUBCHEM CID:31215
CH$LINK: INCHIKEY BDZBKCUKTQZUTL-UHFFFAOYSA-N
CH$LINK: CHEMSPIDER 28956
AC$INSTRUMENT: Bruker 450 GC coupled to maXis Impact
AC$INSTRUMENT_TYPE: GC-APCI-QTOF
AC$MASS_SPECTROMETRY: MS_TYPE MS2
AC$MASS_SPECTROMETRY: ION_MODE POSITIVE
AC$MASS_SPECTROMETRY: IONIZATION APCI
AC$MASS_SPECTROMETRY: FRAGMENTATION_MODE CID
AC$MASS_SPECTROMETRY: COLLISION_ENERGY 20 eV
AC$MASS_SPECTROMETRY: RESOLUTION 35000
AC$CHROMATOGRAPHY: COLUMN_NAME Rxi-5Sil MS column, 30m, 0.25mm i.d., 0.25µm film thickness, Restek
AC$CHROMATOGRAPHY: COLUMN_TEMPERATURE_GRADIENT 55oC at 0 min, 55oC at 3 min, 180oC at 11.33 min with 15oC/min, 280oC at 26.72 min with 6.5oC/min, 280oC at 31.72 min, 300oC at 33.72 min with 10oC/min, 300oC at 39 min
AC$CHROMATOGRAPHY: FLOW_RATE 1.5 mL/min
AC$CHROMATOGRAPHY: RETENTION_TIME 13.911 min
AC$CHROMATOGRAPHY: SOLVENT A Helium
MS$FOCUSED_ION: BASE_PEAK 167.0842
MS$FOCUSED_ION: PRECURSOR_M/Z 167.0832
MS$FOCUSED_ION: PRECURSOR_TYPE [M+H]+
MS$DATA_PROCESSING: RECALIBRATE identity on assigned fragments and MS1
MS$DATA_PROCESSING: WHOLE RMassBank 2.16.0
PK$SPLASH: splash10-014i-0900000000-ff0fb13a44184b0b718f
PK$ANNOTATION: m/z tentative_formula formula_count mass error(ppm)
  141.071 C4H14O3P+ 1 141.0675 24.72
  152.0607 C5H13O3P+ 1 152.0597 6.94
  153.0652 C5H14O3P+ 1 153.0675 -15.11
  165.069 C6H14O3P+ 1 165.0675 9.25
  166.0759 C6H15O3P+ 1 166.0753 3.13
  167.0844 C6H16O3P+ 1 167.0832 7.6
PK$NUM_PEAK: 6
PK$PEAK: m/z int. rel.int.
  141.071 148 21
  152.0607 5964 871
  153.0652 732 106
  165.069 5684 830
  166.0759 2092 305
  167.0844 6836 999
//
