ACCESSION: MSBNK-Athens_Univ-AU230604
RECORD_TITLE: Chloramphenicol; LC-ESI-QTOF; MS2; CE: 40 eV; R=35000; [M+H]+
DATE: 2019.04.08
AUTHORS: Nikiforos Alygizakis, Katerina Galani, Nikolaos Thomaidis, University of Athens
LICENSE: CC BY
COPYRIGHT: Copyright (C) 2019 Department of Chemistry, University of Athens
COMMENT: CONFIDENCE standard compound
COMMENT: INTERNAL_ID 2306
CH$NAME: Chloramphenicol
CH$NAME: 2,2-Dichloro-N-[1,3-dihydroxy-1-(4-nitrophenyl)propan-2-yl]acetamide
CH$NAME: 2,2-dichloro-N-[1,3-dihydroxy-1-(4-nitrophenyl)propan-2-yl]acetamide
CH$COMPOUND_CLASS: N/A; Environmental Standard
CH$FORMULA: C11H12Cl2N2O5
CH$EXACT_MASS: 322.0123268
CH$SMILES: OCC(NC(=O)C(Cl)Cl)C(O)C1=CC=C(C=C1)[N+]([O-])=O
CH$IUPAC: InChI=1S/C11H12Cl2N2O5/c12-10(13)11(18)14-8(5-16)9(17)6-1-3-7(4-2-6)15(19)20/h1-4,8-10,16-17H,5H2,(H,14,18)
CH$LINK: CAS 56-75-7
CH$LINK: CHEBI CHEBI:94390
CH$LINK: PUBCHEM CID:298
CH$LINK: INCHIKEY WIIZWVCIJKGZOK-UHFFFAOYSA-N
CH$LINK: CHEMSPIDER 292
AC$INSTRUMENT: Bruker maXis Impact
AC$INSTRUMENT_TYPE: LC-ESI-QTOF
AC$MASS_SPECTROMETRY: MS_TYPE MS2
AC$MASS_SPECTROMETRY: ION_MODE POSITIVE
AC$MASS_SPECTROMETRY: IONIZATION ESI
AC$MASS_SPECTROMETRY: FRAGMENTATION_MODE CID
AC$MASS_SPECTROMETRY: COLLISION_ENERGY 40 eV
AC$MASS_SPECTROMETRY: RESOLUTION 35000
AC$CHROMATOGRAPHY: COLUMN_NAME Acclaim RSLC C18 2.2um, 2.1x100mm, Thermo
AC$CHROMATOGRAPHY: FLOW_GRADIENT 99/1 at 0-1 min, 61/39 at 3 min, 0.1/99.9 at 14-16 min, 99/1 at 16.1-20 min
AC$CHROMATOGRAPHY: FLOW_RATE 200 uL/min at 0-3 min, 400 uL/min at 14 min, 480 uL/min at 16-19 min, 200 uL/min at 19.1-20 min
AC$CHROMATOGRAPHY: RETENTION_TIME 5.728 min
AC$CHROMATOGRAPHY: SOLVENT A 90:10 water:methanol with 0.01% formic acid and 5mM ammonium formate
AC$CHROMATOGRAPHY: SOLVENT B methanol with 0.01% formic acid and 5mM ammonium formate
MS$FOCUSED_ION: BASE_PEAK 376.2397
MS$FOCUSED_ION: PRECURSOR_M/Z 323.0196
MS$FOCUSED_ION: PRECURSOR_TYPE [M+H]+
MS$DATA_PROCESSING: RECALIBRATE identity on assigned fragments and MS1
MS$DATA_PROCESSING: WHOLE RMassBank 2.10.1
PK$SPLASH: splash10-014i-0910000000-cc8e4729483c91bc670b
PK$ANNOTATION: m/z tentative_formula formula_count mass error(ppm)
  118.0631 C2H13ClNO2+ 3 118.0629 1.81
  119.0723 C8H9N+ 2 119.073 -5.69
  132.0565 C9H8O+ 3 132.057 -3.61
  162.0531 C3H13ClNO4+ 4 162.0528 2.26
  164.0235 C6H9ClO3+ 5 164.0235 0.1
  165.065 C8H9N2O2+ 2 165.0659 -4.95
  257.9949 C10H8Cl2N2O2+ 2 257.9957 -3.39
  259.9926 C10H8Cl[37]ClN2O2+ 1 259.9933 -2.98
PK$NUM_PEAK: 8
PK$PEAK: m/z int. rel.int.
  118.0631 364 126
  119.0723 532 185
  132.0565 380 132
  162.0531 464 161
  164.0235 544 189
  165.065 2872 999
  257.9949 596 207
  259.9926 444 154
//
