ACCESSION: MSBNK-Athens_Univ-AU230159
RECORD_TITLE: Diphenylphosphate; LC-ESI-QTOF; MS2; CE: 30 eV; R=35000; [M-H]-
DATE: 2019.03.28
AUTHORS: Nikiforos Alygizakis, Katerina Galani, Nikolaos Thomaidis, University of Athens
LICENSE: CC BY
COPYRIGHT: Copyright (C) 2019 Department of Chemistry, University of Athens
COMMENT: CONFIDENCE standard compound
COMMENT: INTERNAL_ID 2301
CH$NAME: Diphenylphosphate
CH$NAME: Diphenyl phosphate
CH$NAME: diphenyl hydrogen phosphate
CH$COMPOUND_CLASS: N/A; Environmental Standard
CH$FORMULA: C12H11O4P
CH$EXACT_MASS: 250.0394955
CH$SMILES: OP(=O)(OC1=CC=CC=C1)OC1=CC=CC=C1
CH$IUPAC: InChI=1S/C12H11O4P/c13-17(14,15-11-7-3-1-4-8-11)16-12-9-5-2-6-10-12/h1-10H,(H,13,14)
CH$LINK: CAS 838-85-7
CH$LINK: PUBCHEM CID:13282
CH$LINK: INCHIKEY ASMQGLCHMVWBQR-UHFFFAOYSA-N
CH$LINK: CHEMSPIDER 12722
CH$LINK: COMPTOX DTXSID1048207
AC$INSTRUMENT: Bruker maXis Impact
AC$INSTRUMENT_TYPE: LC-ESI-QTOF
AC$MASS_SPECTROMETRY: MS_TYPE MS2
AC$MASS_SPECTROMETRY: ION_MODE NEGATIVE
AC$MASS_SPECTROMETRY: IONIZATION ESI
AC$MASS_SPECTROMETRY: FRAGMENTATION_MODE CID
AC$MASS_SPECTROMETRY: COLLISION_ENERGY 30 eV
AC$MASS_SPECTROMETRY: RESOLUTION 35000
AC$CHROMATOGRAPHY: COLUMN_NAME Acclaim RSLC C18 2.2um, 2.1x100mm, Thermo
AC$CHROMATOGRAPHY: FLOW_GRADIENT 99/1 at 0-1 min, 61/39 at 3 min, 0.1/99.9 at 14-16 min, 99/1 at 16.1-20 min
AC$CHROMATOGRAPHY: FLOW_RATE 200 uL/min at 0-3 min, 400 uL/min at 14 min, 480 uL/min at 16-19 min, 200 uL/min at 19.1-20 min
AC$CHROMATOGRAPHY: RETENTION_TIME 6.404 min
AC$CHROMATOGRAPHY: SOLVENT A 90:10 water:methanol with 5mM ammonium acetate
AC$CHROMATOGRAPHY: SOLVENT B methanol with 5mM ammonium acetate
MS$FOCUSED_ION: BASE_PEAK 249.0319
MS$FOCUSED_ION: PRECURSOR_M/Z 249.0322
MS$FOCUSED_ION: PRECURSOR_TYPE [M-H]-
MS$DATA_PROCESSING: RECALIBRATE identity on assigned fragments and MS1
MS$DATA_PROCESSING: WHOLE RMassBank 2.10.0
PK$SPLASH: splash10-0udj-0980000000-894add44c1b5c2c8119b
PK$ANNOTATION: m/z tentative_formula formula_count mass error(ppm)
  154.9897 C6H4O3P- 1 154.9904 -4.33
  249.033 C12H10O4P- 1 249.0322 3.09
PK$NUM_PEAK: 2
PK$PEAK: m/z int. rel.int.
  154.9897 620 999
  249.033 592 953
//
