ACCESSION: MSBNK-Athens_Univ-AU504601
RECORD_TITLE: Methyl benzoate; GC-APCI-QTOF; MS2; CE: 10 eV; R=35000; [M+H]+
DATE: 2021.04.20
AUTHORS: Chrysoula Kanakaki, Nikiforos Alygizakis, Nikolaos Thomaidis, University of Athens
LICENSE: CC BY
COPYRIGHT: Copyright (C) 2021 Department of Chemistry, University of Athens
COMMENT: CONFIDENCE standard compound
COMMENT: INTERNAL_ID 5046
CH$NAME: Methyl benzoate
CH$COMPOUND_CLASS: N/A; Food Contact Material
CH$FORMULA: C8H8O2
CH$EXACT_MASS: 136.0524
CH$SMILES: COC(=O)C1=CC=CC=C1
CH$IUPAC: InChI=1S/C8H8O2/c1-10-8(9)7-5-3-2-4-6-7/h2-6H,1H3
CH$LINK: CAS 93-58-3
CH$LINK: CHEBI CHEBI:72775
CH$LINK: KEGG C20645
CH$LINK: PUBCHEM CID:7150
CH$LINK: INCHIKEY QPJVMBTYPHYUOC-UHFFFAOYSA-N
CH$LINK: CHEMSPIDER 6883
AC$INSTRUMENT: Bruker 450 GC coupled to maXis Impact
AC$INSTRUMENT_TYPE: GC-APCI-QTOF
AC$MASS_SPECTROMETRY: MS_TYPE MS2
AC$MASS_SPECTROMETRY: ION_MODE POSITIVE
AC$MASS_SPECTROMETRY: IONIZATION APCI
AC$MASS_SPECTROMETRY: FRAGMENTATION_MODE CID
AC$MASS_SPECTROMETRY: COLLISION_ENERGY 10 eV
AC$MASS_SPECTROMETRY: RESOLUTION 35000
AC$CHROMATOGRAPHY: COLUMN_NAME Rxi-5Sil MS column, 30m, 0.25mm i.d., 0.25µm film thickness, Restek
AC$CHROMATOGRAPHY: COLUMN_TEMPERATURE_GRADIENT 55oC at 0 min, 55oC at 3 min, 180oC at 11.33 min with 15oC/min, 280oC at 26.72 min with 6.5oC/min, 280oC at 31.72 min, 300oC at 33.72 min with 10oC/min, 300oC at 39 min
AC$CHROMATOGRAPHY: FLOW_RATE 1.5 mL/min
AC$CHROMATOGRAPHY: RETENTION_TIME 8.476 min
AC$CHROMATOGRAPHY: SOLVENT A Helium
MS$FOCUSED_ION: BASE_PEAK 137.0601
MS$FOCUSED_ION: PRECURSOR_M/Z 137.0597
MS$FOCUSED_ION: PRECURSOR_TYPE [M+H]+
MS$DATA_PROCESSING: RECALIBRATE identity on assigned fragments and MS1
MS$DATA_PROCESSING: WHOLE RMassBank 2.16.0
PK$SPLASH: splash10-000i-0900000000-ebdf1bd59092b03ac230
PK$ANNOTATION: m/z tentative_formula formula_count mass error(ppm)
  91.0533 C7H7+ 1 91.0542 -10.29
  93.0691 C7H9+ 1 93.0699 -8.57
  105.0322 C7H5O+ 1 105.0335 -11.92
  135.0461 C8H7O2+ 1 135.0441 14.95
  136.0497 C8H8O2+ 1 136.0519 -15.78
  137.0601 C8H9O2+ 1 137.0597 2.93
PK$NUM_PEAK: 6
PK$PEAK: m/z int. rel.int.
  91.0533 272 29
  93.0691 364 39
  105.0322 420 45
  135.0461 252 27
  136.0497 136 14
  137.0601 9304 999
//
