ACCESSION: MSBNK-Athens_Univ-AU228902
RECORD_TITLE: Metoclopramide; LC-ESI-QTOF; MS2; CE: 20 eV; R=35000; [M+H]+
DATE: 2018.12.19
AUTHORS: Nikiforos Alygizakis, Katerina Galani, Nikolaos Thomaidis, University of Athens
LICENSE: CC BY
COPYRIGHT: Copyright (C) 2018 Department of Chemistry, University of Athens
COMMENT: CONFIDENCE standard compound
COMMENT: INTERNAL_ID 2289
CH$NAME: Metoclopramide
CH$NAME: 4-amino-5-chloro-N-[2-(diethylamino)ethyl]-2-methoxybenzamide
CH$COMPOUND_CLASS: N/A; Environmental Standard
CH$FORMULA: C14H22ClN3O2
CH$EXACT_MASS: 299.1400546
CH$SMILES: CCN(CC)CCNC(=O)c1cc(c(cc1OC)N)Cl
CH$IUPAC: InChI=1S/C14H22ClN3O2/c1-4-18(5-2)7-6-17-14(19)10-8-11(15)12(16)9-13(10)20-3/h8-9H,4-7,16H2,1-3H3,(H,17,19)
CH$LINK: CAS 364-62-5
CH$LINK: CHEBI CHEBI:107736
CH$LINK: KEGG D00726
CH$LINK: PUBCHEM CID:4168
CH$LINK: INCHIKEY TTWJBBZEZQICBI-UHFFFAOYSA-N
CH$LINK: CHEMSPIDER 4024
CH$LINK: COMPTOX DTXSID6045169
AC$INSTRUMENT: Bruker maXis Impact
AC$INSTRUMENT_TYPE: LC-ESI-QTOF
AC$MASS_SPECTROMETRY: MS_TYPE MS2
AC$MASS_SPECTROMETRY: ION_MODE POSITIVE
AC$MASS_SPECTROMETRY: IONIZATION ESI
AC$MASS_SPECTROMETRY: FRAGMENTATION_MODE CID
AC$MASS_SPECTROMETRY: COLLISION_ENERGY 20 eV
AC$MASS_SPECTROMETRY: RESOLUTION 35000
AC$CHROMATOGRAPHY: COLUMN_NAME Acclaim RSLC C18 2.2um, 2.1x100mm, Thermo
AC$CHROMATOGRAPHY: FLOW_GRADIENT 99/1 at 0-1 min, 61/39 at 3 min, 0.1/99.9 at 14-16 min, 99/1 at 16.1-20 min
AC$CHROMATOGRAPHY: FLOW_RATE 200 uL/min at 0-3 min, 400 uL/min at 14 min, 480 uL/min at 16-19 min, 200 uL/min at 19.1-20 min
AC$CHROMATOGRAPHY: RETENTION_TIME 4.300 min
AC$CHROMATOGRAPHY: SOLVENT A 90:10 water:methanol with 0.01% formic acid and 5mM ammonium formate
AC$CHROMATOGRAPHY: SOLVENT B methanol with 0.01% formic acid and 5mM ammonium formate
MS$FOCUSED_ION: BASE_PEAK 300.147
MS$FOCUSED_ION: PRECURSOR_M/Z 300.1473
MS$FOCUSED_ION: PRECURSOR_TYPE [M+H]+
MS$DATA_PROCESSING: RECALIBRATE identity on assigned fragments and MS1
MS$DATA_PROCESSING: WHOLE RMassBank 2.10.0
PK$SPLASH: splash10-004i-0191000000-c6edee8efd6b8eefe7a8
PK$ANNOTATION: m/z tentative_formula formula_count mass error(ppm)
  183.0305 C11H5NO2+ 2 183.0315 -5.23
  184.0149 C8H7ClNO2+ 3 184.016 -5.91
  185.0184 C7[13]CH7ClNO2+ 1 185.0199 -8.02
  186.0119 C8H7[37]ClNO2+ 1 186.0136 -8.9
  212.0339 C9H9ClN2O2+ 2 212.0347 -3.73
  227.0578 C10H12ClN2O2+ 1 227.0582 -1.77
  228.0606 C9[13]CH12ClN2O2+ 1 228.0621 -6.51
  229.0546 C10H12[37]ClN2O2+ 1 229.0558 -5.23
  230.0573 C13H11ClN2+ 1 230.0605 -14.2
  300.147 C14H23ClN3O2+ 1 300.1473 -1.07
  301.15 C13[13]CH23ClN3O2+ 1 301.1512 -4.15
  302.1446 C14H23[37]ClN3O2+ 1 302.1449 -1.25
PK$NUM_PEAK: 12
PK$PEAK: m/z int. rel.int.
  183.0305 16124 6
  184.0149 348144 138
  185.0184 26796 10
  186.0119 84636 33
  212.0339 13344 5
  227.0578 2503476 999
  228.0606 260540 103
  229.0546 783236 312
  230.0573 32628 13
  300.147 414428 165
  301.15 52108 20
  302.1446 94592 37
//
