ACCESSION: MSBNK-Athens_Univ-AU114802
RECORD_TITLE: Flunixin; LC-ESI-QTOF; MS2; CE: 20 eV; R=35000; [M+H]+
DATE: 2015.09.23
AUTHORS: Nikiforos Alygizakis, Anna Bletsou, Nikolaos Thomaidis, University of Athens
LICENSE: CC BY-SA
COPYRIGHT: Copyright (C) 2015 Department of Chemistry, University of Athens
COMMENT: CONFIDENCE standard compound
COMMENT: INTERNAL_ID 1148
CH$NAME: Flunixin
CH$NAME: 2-[2-methyl-3-(trifluoromethyl)anilino]pyridine-3-carboxylic acid
CH$COMPOUND_CLASS: N/A; Environmental Standard
CH$FORMULA: C14H11F3N2O2
CH$EXACT_MASS: 296.0772623
CH$SMILES: Cc1c(cccc1Nc2c(cccn2)C(=O)O)C(F)(F)F
CH$IUPAC: InChI=1S/C14H11F3N2O2/c1-8-10(14(15,16)17)5-2-6-11(8)19-12-9(13(20)21)4-3-7-18-12/h2-7H,1H3,(H,18,19)(H,20,21)
CH$LINK: CAS 38677-85-9
CH$LINK: PUBCHEM CID:38081
CH$LINK: INCHIKEY NOOCSNJCXJYGPE-UHFFFAOYSA-N
CH$LINK: CHEMSPIDER 34911
CH$LINK: COMPTOX DTXSID4048565
AC$INSTRUMENT: Bruker maXis Impact
AC$INSTRUMENT_TYPE: LC-ESI-QTOF
AC$MASS_SPECTROMETRY: MS_TYPE MS2
AC$MASS_SPECTROMETRY: ION_MODE POSITIVE
AC$MASS_SPECTROMETRY: IONIZATION ESI
AC$MASS_SPECTROMETRY: FRAGMENTATION_MODE CID
AC$MASS_SPECTROMETRY: COLLISION_ENERGY 20 eV
AC$MASS_SPECTROMETRY: RESOLUTION 35000
AC$CHROMATOGRAPHY: COLUMN_NAME Acclaim RSLC C18 2.2um, 2.1x100mm, Thermo
AC$CHROMATOGRAPHY: FLOW_GRADIENT 99/1 at 0-1 min, 61/39 at 3 min, 0.1/99.9 at 14-16 min, 99/1 at 16.1-20 min
AC$CHROMATOGRAPHY: FLOW_RATE 200 uL/min at 0-3 min, 400 uL/min at 14 min, 480 uL/min at 16-19 min, 200 uL/min at 19.1-20 min
AC$CHROMATOGRAPHY: RETENTION_TIME 9.2 min
AC$CHROMATOGRAPHY: SOLVENT A water with 0.01% formic acid and 5mM ammonium formate
AC$CHROMATOGRAPHY: SOLVENT B 90:10 water:methanol with 0.01% formic acid and 5mM ammonium formate
MS$FOCUSED_ION: BASE_PEAK 297.0747
MS$FOCUSED_ION: PRECURSOR_M/Z 297.0845
MS$FOCUSED_ION: PRECURSOR_TYPE [M+H]+
MS$DATA_PROCESSING: RECALIBRATE identity on assigned fragments and MS1
MS$DATA_PROCESSING: REANALYZE Peaks with additional N2/O included
MS$DATA_PROCESSING: WHOLE RMassBank 2.0.2
PK$SPLASH: splash10-0002-0090000000-ae48aa44e601b23f0084
PK$ANNOTATION: m/z tentative_formula formula_count mass error(ppm)
  277.0748 C14H11F2N2O2+ 2 277.0783 -12.63
  279.0704 C14H10F3N2O+ 1 279.074 -12.9
  280.0725 C13[13]CH10F3N2O+ 1 280.0779 -19.28
  297.0805 C14H12F3N2O2+ 1 297.0845 -13.46
  298.0827 C13[13]CH12F3N2O2+ 1 298.0884 -19.12
PK$NUM_PEAK: 5
PK$PEAK: m/z int. rel.int.
  277.0748 6100 14
  279.0704 212484 488
  280.0725 24776 56
  297.0805 434600 999
  298.0827 57604 132
//
