ACCESSION: MSBNK-ACES_SU-AS000123
RECORD_TITLE: Nicotine; LC-APCI-QFT; MS2; CE: Ramp 20%-70% (nominal); R=30000; [M+H]+
DATE: 2022.08.15
AUTHORS: ACESx, Jonathan W. Martin Group
LICENSE: CC BY
COPYRIGHT: Stockholm University, ACESx, Jonathan W. Martin Group (C) 2022
COMMENT: CONFIDENCE Standard Compound (Level 1)
CH$NAME: Nicotine
CH$NAME: 3-[(2S)-1-methylpyrrolidin-2-yl]pyridine
CH$COMPOUND_CLASS: Alkaloids; Cholinergic Agonists
CH$FORMULA: C10H14N2
CH$EXACT_MASS: 162.1157
CH$SMILES: N=1C=CC=C(C1)C2N(C)CCC2
CH$IUPAC: InChI=1S/C10H14N2/c1-12-7-3-5-10(12)9-4-2-6-11-8-9/h2,4,6,8,10H,3,5,7H2,1H3/t10-/m0/s1
AC$INSTRUMENT: QExactive Orbitrap HF-X (Thermo Scientific)
AC$INSTRUMENT_TYPE: LC-APCI-QFT
AC$MASS_SPECTROMETRY: MS_TYPE MS2
AC$MASS_SPECTROMETRY: ION_MODE POSITIVE
AC$MASS_SPECTROMETRY: IONIZATION APCI
AC$MASS_SPECTROMETRY: FRAGMENTATION_MODE HCD
AC$MASS_SPECTROMETRY: COLLISION_ENERGY Ramp 20%-70% (nominal)
AC$MASS_SPECTROMETRY: RESOLUTION 30000
AC$CHROMATOGRAPHY: COLUMN_NAME Waters; Acquity UPLC BEH C18, 2.1 x 100 mm, 1.7 um, Waters
AC$CHROMATOGRAPHY: FLOW_GRADIENT 98/2 at 4.2 min, 0/100 at 22 min, 0/100 at 25 min, 98/2 at 25.1 min, 98/2 at 30 min
AC$CHROMATOGRAPHY: FLOW_RATE 0.45mL/min
AC$CHROMATOGRAPHY: RETENTION_TIME 6.310600
AC$CHROMATOGRAPHY: UOA_RTI 113.0100
AC$CHROMATOGRAPHY: SOLVENT A 1 mM ammonium fluoride in water
AC$CHROMATOGRAPHY: SOLVENT B MeOH
AC$CHROMATOGRAPHY: COMMENT Coupled to online-solid-phase-extraction with Oasis® HLB (80 Å, 15 um, 2.1 x 20 mm, Waters) with a flow gradient of 98/2 at 0 min, 98/2 at 2.2 min, 0/0 at 4.2 min, 98/5 at 25.1 min, 98/2 at 30 with a flow rate of 0.5 mL/min
MS$FOCUSED_ION: BASE_PEAK 163.12315
MS$FOCUSED_ION: PRECURSOR_M/Z 163.1232
MS$FOCUSED_ION: ION_TYPE [M+H]+
MS$DATA_PROCESSING: WHOLE MS-DIAL
PK$SPLASH: splash10-01q9-0900000000-6e5527ebbd1fcce02486
PK$NUM_PEAK: 17
PK$PEAK: m/z int. rel.int.
  80.05041 84871 34.126
  84.08143 134004 53.882
  92.05009 28620 11.508
  106.06567 483508 194.416
  115.05478 62493 25.128
  117.05759 773047 310.838
  120.08031 171570 68.987
  120.08136 189722 76.286
  130.06505 1289706 518.584
  131.07298 26150 10.515
  132.08066 1207479 485.521
  163.03763 123297 49.577
  163.04042 129920 52.24
  163.05159 26185 10.529
  163.07394 51751 20.809
  163.08792 28842 11.597
  163.12315 2484489 999
//
