ACCESSION: MSBNK-ACES_SU-AS000207
RECORD_TITLE: Thiamethoxam; LC-ESI-QFT; MS2; CE: Ramp 20%-70% (nominal); R=30000; [M+H]+
DATE: 2022.08.15
AUTHORS: ACESx, Jonathan W. Martin Group
LICENSE: CC BY
COPYRIGHT: Stockholm University, ACESx, Jonathan W. Martin Group (C) 2022
COMMENT: CONFIDENCE Standard Compound (Level 1)
CH$NAME: Thiamethoxam
CH$NAME: (NE)-N-[3-[(2-chloro-1,3-thiazol-5-yl)methyl]-5-methyl-1,3,5-oxadiazinan-4-ylidene]nitramide
CH$COMPOUND_CLASS: Pesticides; Insecticides; Neonicotinoids
CH$FORMULA: C8H10ClN5O3S
CH$EXACT_MASS: 291.0193
CH$SMILES: O=[N+]([O-])N=C1N(C)COCN1CC=2SC(Cl)=NC2
CH$IUPAC: InChI=1S/C8H10ClN5O3S/c1-12-4-17-5-13(8(12)11-14(15)16)3-6-2-10-7(9)18-6/h2H,3-5H2,1H3/b11-8+
AC$INSTRUMENT: QExactive Orbitrap HF-X (Thermo Scientific)
AC$INSTRUMENT_TYPE: LC-ESI-QFT
AC$MASS_SPECTROMETRY: MS_TYPE MS2
AC$MASS_SPECTROMETRY: ION_MODE POSITIVE
AC$MASS_SPECTROMETRY: IONIZATION ESI
AC$MASS_SPECTROMETRY: FRAGMENTATION_MODE HCD
AC$MASS_SPECTROMETRY: COLLISION_ENERGY Ramp 20%-70% (nominal)
AC$MASS_SPECTROMETRY: RESOLUTION 30000
AC$CHROMATOGRAPHY: COLUMN_NAME Waters; Acquity UPLC BEH C18, 2.1 x 100 mm, 1.7 um, Waters
AC$CHROMATOGRAPHY: FLOW_GRADIENT 98/2 at 4.2 min, 0/100 at 22 min, 0/100 at 25 min, 98/2 at 25.1 min, 98/2 at 30 min
AC$CHROMATOGRAPHY: FLOW_RATE 0.45mL/min
AC$CHROMATOGRAPHY: RETENTION_TIME 8.450300
AC$CHROMATOGRAPHY: UOA_RTI 225.4700
AC$CHROMATOGRAPHY: SOLVENT A 1 mM ammonium fluoride in water
AC$CHROMATOGRAPHY: SOLVENT B MeOH
AC$CHROMATOGRAPHY: COMMENT Coupled to online-solid-phase-extraction with Oasis® HLB (80 Å, 15 um, 2.1 x 20 mm, Waters) with a flow gradient of 98/2 at 0 min, 98/2 at 2.2 min, 0/0 at 4.2 min, 98/5 at 25.1 min, 98/2 at 30 with a flow rate of 0.5 mL/min
MS$FOCUSED_ION: BASE_PEAK NA
MS$FOCUSED_ION: PRECURSOR_M/Z NA
MS$FOCUSED_ION: ION_TYPE [M+H]+
MS$DATA_PROCESSING: WHOLE MS-DIAL
PK$SPLASH: splash10-03e9-1960000000-5dfe866522d22bacc985
PK$NUM_PEAK: 26
PK$PEAK: m/z int. rel.int.
  67.04176 6159315 26.624
  69.045 33952512 146.76
  70.99522 22624512 97.794
  78.94525 2403102 10.387
  81.04421 4955158 21.419
  95.06049 2800324 12.104
  98.00592 6110630 26.413
  99.00149 8275373 35.77
  108.05579 36219392 156.558
  113.01707 3766921 16.283
  122.07176 28887296 124.865
  123.07945 8034357 34.729
  125.0168 22422528 96.921
  131.96722 165250304 714.294
  138.01248 6614855 28.593
  151.02007 13747456 59.423
  152.02757 64189440 277.459
  174.97295 6198897 26.795
  180.04677 9103616 39.35
  181.0551 36335872 157.062
  210.05771 48579840 209.986
  211.06477 231116288 999
  212.76883 4980591 21.529
  245.02551 3182572 13.757
  246.03387 11277568 48.747
  292.0256 9008128 38.938
//
