ACCESSION: MSBNK-ACES_SU-AS000184
RECORD_TITLE: Imidacloprid; LC-ESI-QFT; MS2; CE: Ramp 20%-70% (nominal); R=30000; [M+H]+
DATE: 2022.08.15
AUTHORS: ACESx, Jonathan W. Martin Group
LICENSE: CC BY
COPYRIGHT: Stockholm University, ACESx, Jonathan W. Martin Group (C) 2022
COMMENT: CONFIDENCE Standard Compound (Level 1)
CH$NAME: Imidacloprid
CH$NAME: (NE)-N-[1-[(6-chloropyridin-3-yl)methyl]imidazolidin-2-ylidene]nitramide
CH$COMPOUND_CLASS: Pesticides; Insecticides; Neonicotinoids
CH$FORMULA: C9H10ClN5O2
CH$EXACT_MASS: 255.0523
CH$SMILES: O=[N+]([O-])N=C1NCCN1CC2=CN=C(Cl)C=C2
CH$IUPAC: InChI=1S/C9H10ClN5O2/c10-8-2-1-7(5-12-8)6-14-4-3-11-9(14)13-15(16)17/h1-2,5H,3-4,6H2,(H,11,13)
AC$INSTRUMENT: QExactive Orbitrap HF-X (Thermo Scientific)
AC$INSTRUMENT_TYPE: LC-ESI-QFT
AC$MASS_SPECTROMETRY: MS_TYPE MS2
AC$MASS_SPECTROMETRY: ION_MODE POSITIVE
AC$MASS_SPECTROMETRY: IONIZATION ESI
AC$MASS_SPECTROMETRY: FRAGMENTATION_MODE HCD
AC$MASS_SPECTROMETRY: COLLISION_ENERGY Ramp 20%-70% (nominal)
AC$MASS_SPECTROMETRY: RESOLUTION 30000
AC$CHROMATOGRAPHY: COLUMN_NAME Waters; Acquity UPLC BEH C18, 2.1 x 100 mm, 1.7 um, Waters
AC$CHROMATOGRAPHY: FLOW_GRADIENT 98/2 at 4.2 min, 0/100 at 22 min, 0/100 at 25 min, 98/2 at 25.1 min, 98/2 at 30 min
AC$CHROMATOGRAPHY: FLOW_RATE 0.45mL/min
AC$CHROMATOGRAPHY: RETENTION_TIME 9.582100
AC$CHROMATOGRAPHY: UOA_RTI 284.9600
AC$CHROMATOGRAPHY: SOLVENT A 1 mM ammonium fluoride in water
AC$CHROMATOGRAPHY: SOLVENT B MeOH
AC$CHROMATOGRAPHY: COMMENT Coupled to online-solid-phase-extraction with Oasis® HLB (80 Å, 15 um, 2.1 x 20 mm, Waters) with a flow gradient of 98/2 at 0 min, 98/2 at 2.2 min, 0/0 at 4.2 min, 98/5 at 25.1 min, 98/2 at 30 with a flow rate of 0.5 mL/min
MS$FOCUSED_ION: BASE_PEAK NA
MS$FOCUSED_ION: PRECURSOR_M/Z NA
MS$FOCUSED_ION: ION_TYPE [M+H]+
MS$DATA_PROCESSING: WHOLE MS-DIAL
PK$SPLASH: NA
PK$NUM_PEAK: 38
PK$PEAK: m/z int. rel.int.
  56.04984 11080448 35.635
  65.03879 3729606 11.994
  84.06233 66276352 213.144
  92.04953 7245088 23.3
  93.05763 3930863 12.642
  99.05588 7563530 24.324
  105.04462 3488923 11.22
  106.06531 4567908 14.69
  107.06094 4563848 14.677
  108.04585 3474864 11.175
  119.06071 4735862 15.23
  126.01082 18930176 60.879
  127.01857 3335790 10.728
  128.02603 23781376 76.481
  131.06035 5318795 17.105
  133.06378 10505472 33.786
  133.07635 8753408 28.151
  134.07164 7923578 25.482
  141.02121 8431616 27.116
  146.05844 4043403 13.004
  146.07172 20066304 64.533
  147.06641 24050944 77.348
  148.08725 9315840 29.96
  158.07187 11074304 35.615
  159.0795 14072832 45.258
  167.0376 4824951 15.517
  173.08232 30238208 97.246
  174.09027 33718784 108.439
  175.09834 233743104 751.716
  181.02748 7113409 22.877
  191.09338 4774504 15.355
  194.0484 4266954 13.722
  208.0508 4238558 13.631
  209.05927 310635008 999
  210.06732 65146624 209.511
  212.05943 47456256 152.619
  213.5174 5394549 17.349
  256.05893 106297344 341.852
//
