ACCESSION: MSBNK-ACES_SU-AS000035
RECORD_TITLE: Benzoylecgonine; LC-APCI-QFT; MS2; CE: Ramp 20%-70% (nominal); R=30000; [M-H]-
DATE: 2022.08.15
AUTHORS: ACESx, Jonathan W. Martin Group
LICENSE: CC BY
COPYRIGHT: Stockholm University, ACESx, Jonathan W. Martin Group (C) 2022
COMMENT: CONFIDENCE Standard Compound (Level 1)
CH$NAME: Benzoylecgonine
CH$NAME: (1R,2R,3S,5S)-3-benzoyloxy-8-methyl-8-azabicyclo[3.2.1]octane-2-carboxylic acid
CH$COMPOUND_CLASS: Drugs; Tropanes
CH$FORMULA: C16H19NO4
CH$EXACT_MASS: 289.1314
CH$SMILES: O=C(OC1CC2N(C)C(CC2)C1C(=O)O)C=3C=CC=CC3
CH$IUPAC: InChI=1S/C16H19NO4/c1-17-11-7-8-12(17)14(15(18)19)13(9-11)21-16(20)10-5-3-2-4-6-10/h2-6,11-14H,7-9H2,1H3,(H,18,19)/t11-,12+,13-,14+/m0/s1
AC$INSTRUMENT: QExactive Orbitrap HF-X (Thermo Scientific)
AC$INSTRUMENT_TYPE: LC-APCI-QFT
AC$MASS_SPECTROMETRY: MS_TYPE MS2
AC$MASS_SPECTROMETRY: ION_MODE NEGATIVE
AC$MASS_SPECTROMETRY: IONIZATION APCI
AC$MASS_SPECTROMETRY: FRAGMENTATION_MODE HCD
AC$MASS_SPECTROMETRY: COLLISION_ENERGY Ramp 20%-70% (nominal)
AC$MASS_SPECTROMETRY: RESOLUTION 30000
AC$CHROMATOGRAPHY: COLUMN_NAME Waters; Acquity UPLC BEH C18, 2.1 x 100 mm, 1.7 um, Waters
AC$CHROMATOGRAPHY: FLOW_GRADIENT 98/2 at 4.2 min, 0/100 at 22 min, 0/100 at 25 min, 98/2 at 25.1 min, 98/2 at 30 min
AC$CHROMATOGRAPHY: FLOW_RATE 0.45mL/min
AC$CHROMATOGRAPHY: RETENTION_TIME 9.428200
AC$CHROMATOGRAPHY: UOA_RTI 237.0100
AC$CHROMATOGRAPHY: SOLVENT A 1 mM ammonium fluoride in water
AC$CHROMATOGRAPHY: SOLVENT B MeOH
AC$CHROMATOGRAPHY: COMMENT Coupled to online-solid-phase-extraction with Oasis® HLB (80 Å, 15 um, 2.1 x 20 mm, Waters) with a flow gradient of 98/2 at 0 min, 98/2 at 2.2 min, 0/0 at 4.2 min, 98/5 at 25.1 min, 98/2 at 30 with a flow rate of 0.5 mL/min
MS$FOCUSED_ION: BASE_PEAK 121.02898
MS$FOCUSED_ION: PRECURSOR_M/Z 288.1246
MS$FOCUSED_ION: ION_TYPE [M-H]-
MS$DATA_PROCESSING: WHOLE MS-DIAL
PK$SPLASH: splash10-00di-0900000000-87b9d502b868e371a600
PK$NUM_PEAK: 21
PK$PEAK: m/z int. rel.int.
  55.83444 7002 6.498
  57.97552 132242 122.728
  77.03967 22820 21.178
  84.10118 7980 7.406
  85.87697 6918 6.42
  88.55031 8182 7.593
  121.02898 1076443 999
  121.0304 982634 911.94
  122.03227 75800 70.347
  122.03391 68613 63.677
  153.7197 7319 6.792
  212.93703 23170 21.503
  212.95204 21617 20.062
  223.98798 10299 9.558
  287.12967 7947 7.375
  287.16623 8229 7.637
  288.12393 46740 43.377
  289.12729 15561 14.441
  289.21704 9396 8.72
  289.97684 10949 10.161
  290.01263 85567 79.411
//
