ACCESSION: MSBNK-ACES_SU-AS000197
RECORD_TITLE: Paracetamol; LC-ESI-QFT; MS2; CE: Ramp 20%-70% (nominal); R=30000; [M+H]+
DATE: 2022.08.15
AUTHORS: ACESx, Jonathan W. Martin Group
LICENSE: CC BY
COPYRIGHT: Stockholm University, ACESx, Jonathan W. Martin Group (C) 2022
COMMENT: CONFIDENCE Standard Compound (Level 1)
CH$NAME: Paracetamol
CH$NAME: Acetaminophen
CH$COMPOUND_CLASS: Drugs; Amines; Anilides; Acetanilides
CH$FORMULA: C8H9NO2
CH$EXACT_MASS: 151.0633
CH$SMILES: O=C(NC1=CC=C(O)C=C1)C
CH$IUPAC: InChI=1S/C8H9NO2/c1-6(10)9-7-2-4-8(11)5-3-7/h2-5,11H,1H3,(H,9,10)
AC$INSTRUMENT: QExactive Orbitrap HF-X (Thermo Scientific)
AC$INSTRUMENT_TYPE: LC-ESI-QFT
AC$MASS_SPECTROMETRY: MS_TYPE MS2
AC$MASS_SPECTROMETRY: ION_MODE POSITIVE
AC$MASS_SPECTROMETRY: IONIZATION ESI
AC$MASS_SPECTROMETRY: FRAGMENTATION_MODE HCD
AC$MASS_SPECTROMETRY: COLLISION_ENERGY Ramp 20%-70% (nominal)
AC$MASS_SPECTROMETRY: RESOLUTION 30000
AC$CHROMATOGRAPHY: COLUMN_NAME Waters; Acquity UPLC BEH C18, 2.1 x 100 mm, 1.7 um, Waters
AC$CHROMATOGRAPHY: FLOW_GRADIENT 98/2 at 4.2 min, 0/100 at 22 min, 0/100 at 25 min, 98/2 at 25.1 min, 98/2 at 30 min
AC$CHROMATOGRAPHY: FLOW_RATE 0.45mL/min
AC$CHROMATOGRAPHY: RETENTION_TIME 6.451800
AC$CHROMATOGRAPHY: UOA_RTI 120.4300
AC$CHROMATOGRAPHY: SOLVENT A 1 mM ammonium fluoride in water
AC$CHROMATOGRAPHY: SOLVENT B MeOH
AC$CHROMATOGRAPHY: COMMENT Coupled to online-solid-phase-extraction with Oasis® HLB (80 Å, 15 um, 2.1 x 20 mm, Waters) with a flow gradient of 98/2 at 0 min, 98/2 at 2.2 min, 0/0 at 4.2 min, 98/5 at 25.1 min, 98/2 at 30 with a flow rate of 0.5 mL/min
MS$FOCUSED_ION: BASE_PEAK NA
MS$FOCUSED_ION: PRECURSOR_M/Z NA
MS$FOCUSED_ION: ION_TYPE [M+H]+
MS$DATA_PROCESSING: WHOLE MS-DIAL
PK$SPLASH: splash10-0w29-1900000000-10974475546b0badd1ae
PK$NUM_PEAK: 14
PK$PEAK: m/z int. rel.int.
  58.06543 992695 17.236
  59.07315 1182395 20.53
  65.03873 3494038 60.668
  82.06526 1413345 24.54
  92.04984 3717475 64.547
  93.03372 6434201 111.718
  109.05246 335471 5.825
  110.06029 54082048 939.037
  111.04431 2725420 47.322
  121.04024 312291 5.422
  134.05983 995590 17.287
  152.04639 1587260 27.56
  152.04865 1981673 34.408
  152.0708 57535488 999
//
