ACCESSION: MSBNK-ACES_SU-AS000106
RECORD_TITLE: Diphenyl Phosphate; LC-APCI-QFT; MS2; CE: Ramp 20%-70% (nominal); R=30000; [M+H]+
DATE: 2022.08.15
AUTHORS: ACESx, Jonathan W. Martin Group
LICENSE: CC BY
COPYRIGHT: Stockholm University, ACESx, Jonathan W. Martin Group (C) 2022
COMMENT: CONFIDENCE Standard Compound (Level 1)
CH$NAME: Diphenyl Phosphate
CH$NAME: Phosphoric acid diphenyl ester
CH$COMPOUND_CLASS: Aryl phosphate
CH$FORMULA: C12H11O4P
CH$EXACT_MASS: 250.0395
CH$SMILES: O=P(O)(OC=1C=CC=CC1)OC=2C=CC=CC2
CH$IUPAC: InChI=1S/C12H11O4P/c13-17(14,15-11-7-3-1-4-8-11)16-12-9-5-2-6-10-12/h1-10H,(H,13,14)
AC$INSTRUMENT: QExactive Orbitrap HF-X (Thermo Scientific)
AC$INSTRUMENT_TYPE: LC-APCI-QFT
AC$MASS_SPECTROMETRY: MS_TYPE MS2
AC$MASS_SPECTROMETRY: ION_MODE POSITIVE
AC$MASS_SPECTROMETRY: IONIZATION APCI
AC$MASS_SPECTROMETRY: FRAGMENTATION_MODE HCD
AC$MASS_SPECTROMETRY: COLLISION_ENERGY Ramp 20%-70% (nominal)
AC$MASS_SPECTROMETRY: RESOLUTION 30000
AC$CHROMATOGRAPHY: COLUMN_NAME Waters; Acquity UPLC BEH C18, 2.1 x 100 mm, 1.7 um, Waters
AC$CHROMATOGRAPHY: FLOW_GRADIENT 98/2 at 4.2 min, 0/100 at 22 min, 0/100 at 25 min, 98/2 at 25.1 min, 98/2 at 30 min
AC$CHROMATOGRAPHY: FLOW_RATE 0.45mL/min
AC$CHROMATOGRAPHY: RETENTION_TIME 11.934000
AC$CHROMATOGRAPHY: UOA_RTI 408.5800
AC$CHROMATOGRAPHY: SOLVENT A 1 mM ammonium fluoride in water
AC$CHROMATOGRAPHY: SOLVENT B MeOH
AC$CHROMATOGRAPHY: COMMENT Coupled to online-solid-phase-extraction with Oasis® HLB (80 Å, 15 um, 2.1 x 20 mm, Waters) with a flow gradient of 98/2 at 0 min, 98/2 at 2.2 min, 0/0 at 4.2 min, 98/5 at 25.1 min, 98/2 at 30 with a flow rate of 0.5 mL/min
MS$FOCUSED_ION: BASE_PEAK 319.11801
MS$FOCUSED_ION: PRECURSOR_M/Z 251.0467
MS$FOCUSED_ION: ION_TYPE [M+H]+
MS$DATA_PROCESSING: WHOLE MS-DIAL
PK$SPLASH: NA
PK$NUM_PEAK: 16
PK$PEAK: m/z int. rel.int.
  51.02332 439990 27.769
  53.03894 1777642 112.192
  55.01811 107913 6.811
  77.03865 382947 24.169
  81.03376 201259 12.702
  95.04948 2028437 128.021
  105.04489 709469 44.777
  152.06236 1867654 117.873
  153.07018 343336 21.669
  157.00481 81910 5.17
  168.0574 317771 20.056
  169.06537 160623 10.137
  175.01624 548380 34.61
  215.02596 111063 7.01
  233.03668 260416 16.436
  251.04721 15828736 999
//
