ACCESSION: MSBNK-ACES_SU-AS000143
RECORD_TITLE: Tris(2-butoxyethyl) phosphate; LC-APCI-QFT; MS2; CE: Ramp 20%-70% (nominal); R=30000; [M+H]+
DATE: 2022.08.15
AUTHORS: ACESx, Jonathan W. Martin Group
LICENSE: CC BY
COPYRIGHT: Stockholm University, ACESx, Jonathan W. Martin Group (C) 2022
COMMENT: CONFIDENCE Standard Compound (Level 1)
CH$NAME: Tris(2-butoxyethyl) phosphate
CH$NAME: TBEP
CH$COMPOUND_CLASS: Organophosphates; Chelating agent; Plasticizer
CH$FORMULA: C18H39O7P
CH$EXACT_MASS: 398.2433
CH$SMILES: O=P(OCCOCCCC)(OCCOCCCC)OCCOCCCC
CH$IUPAC: InChI=1S/C18H39O7P/c1-4-7-10-20-13-16-23-26(19,24-17-14-21-11-8-5-2)25-18-15-22-12-9-6-3/h4-18H2,1-3H3
AC$INSTRUMENT: QExactive Orbitrap HF-X (Thermo Scientific)
AC$INSTRUMENT_TYPE: LC-APCI-QFT
AC$MASS_SPECTROMETRY: MS_TYPE MS2
AC$MASS_SPECTROMETRY: ION_MODE POSITIVE
AC$MASS_SPECTROMETRY: IONIZATION APCI
AC$MASS_SPECTROMETRY: FRAGMENTATION_MODE HCD
AC$MASS_SPECTROMETRY: COLLISION_ENERGY Ramp 20%-70% (nominal)
AC$MASS_SPECTROMETRY: RESOLUTION 30000
AC$CHROMATOGRAPHY: COLUMN_NAME Waters; Acquity UPLC BEH C18, 2.1 x 100 mm, 1.7 um, Waters
AC$CHROMATOGRAPHY: FLOW_GRADIENT 98/2 at 4.2 min, 0/100 at 22 min, 0/100 at 25 min, 98/2 at 25.1 min, 98/2 at 30 min
AC$CHROMATOGRAPHY: FLOW_RATE 0.45mL/min
AC$CHROMATOGRAPHY: RETENTION_TIME 19.000900
AC$CHROMATOGRAPHY: UOA_RTI 780.0200
AC$CHROMATOGRAPHY: SOLVENT A 1 mM ammonium fluoride in water
AC$CHROMATOGRAPHY: SOLVENT B MeOH
AC$CHROMATOGRAPHY: COMMENT Coupled to online-solid-phase-extraction with Oasis® HLB (80 Å, 15 um, 2.1 x 20 mm, Waters) with a flow gradient of 98/2 at 0 min, 98/2 at 2.2 min, 0/0 at 4.2 min, 98/5 at 25.1 min, 98/2 at 30 with a flow rate of 0.5 mL/min
MS$FOCUSED_ION: BASE_PEAK 119.06079
MS$FOCUSED_ION: PRECURSOR_M/Z 399.2512
MS$FOCUSED_ION: ION_TYPE [M+H]+
MS$DATA_PROCESSING: WHOLE MS-DIAL
PK$SPLASH: splash10-0002-3951000000-11ff57e3fb89d8ffc341
PK$NUM_PEAK: 14
PK$PEAK: m/z int. rel.int.
  55.05457 14894848 95.606
  57.07018 37826304 242.796
  59.04944 2813518 18.059
  83.08532 15218176 97.681
  98.98438 11295232 72.501
  101.09625 42819840 274.848
  125.00018 3502369 22.481
  143.01033 8656128 55.561
  199.07362 155638784 999
  211.28578 4148290 26.627
  225.08929 4020855 25.809
  243.0993 5171582 33.195
  299.16226 106691584 684.822
  399.24948 26395136 169.423
//
