ACCESSION: MSBNK-ACES_SU-AS000251
RECORD_TITLE: Malaoxon; LC-ESI-QFT; MS2; CE: Ramp 20%-70% (nominal); R=30000; [M-H]-
DATE: 2022.08.15
AUTHORS: ACESx, Jonathan W. Martin Group
LICENSE: CC BY
COPYRIGHT: Stockholm University, ACESx, Jonathan W. Martin Group (C) 2022
COMMENT: CONFIDENCE Standard Compound (Level 1)
CH$NAME: Malaoxon
CH$NAME: Diethyl 2-dimethoxyphosphorylsulfanylbutanedioate
CH$COMPOUND_CLASS: Pesticides; Organophosphate Insecticides; Organothiophosphates
CH$FORMULA: C10H19O7PS
CH$EXACT_MASS: 314.0589
CH$SMILES: O=C(OCC)CC(SP(=O)(OC)OC)C(=O)OCC
CH$IUPAC: InChI=1S/C10H19O7PS/c1-5-16-9(11)7-8(10(12)17-6-2)19-18(13,14-3)15-4/h8H,5-7H2,1-4H3
AC$INSTRUMENT: QExactive Orbitrap HF-X (Thermo Scientific)
AC$INSTRUMENT_TYPE: LC-ESI-QFT
AC$MASS_SPECTROMETRY: MS_TYPE MS2
AC$MASS_SPECTROMETRY: ION_MODE NEGATIVE
AC$MASS_SPECTROMETRY: IONIZATION ESI
AC$MASS_SPECTROMETRY: FRAGMENTATION_MODE HCD
AC$MASS_SPECTROMETRY: COLLISION_ENERGY Ramp 20%-70% (nominal)
AC$MASS_SPECTROMETRY: RESOLUTION 30000
AC$CHROMATOGRAPHY: COLUMN_NAME Waters; Acquity UPLC BEH C18, 2.1 x 100 mm, 1.7 um, Waters
AC$CHROMATOGRAPHY: FLOW_GRADIENT 98/2 at 4.2 min, 0/100 at 22 min, 0/100 at 25 min, 98/2 at 25.1 min, 98/2 at 30 min
AC$CHROMATOGRAPHY: FLOW_RATE 0.45mL/min
AC$CHROMATOGRAPHY: RETENTION_TIME 13.408000
AC$CHROMATOGRAPHY: UOA_RTI 465.5200
AC$CHROMATOGRAPHY: SOLVENT A 1 mM ammonium fluoride in water
AC$CHROMATOGRAPHY: SOLVENT B MeOH
AC$CHROMATOGRAPHY: COMMENT Coupled to online-solid-phase-extraction with Oasis® HLB (80 Å, 15 um, 2.1 x 20 mm, Waters) with a flow gradient of 98/2 at 0 min, 98/2 at 2.2 min, 0/0 at 4.2 min, 98/5 at 25.1 min, 98/2 at 30 with a flow rate of 0.5 mL/min
MS$FOCUSED_ION: BASE_PEAK 203.03880
MS$FOCUSED_ION: PRECURSOR_M/Z 313.0523
MS$FOCUSED_ION: ION_TYPE [M-H]-
MS$DATA_PROCESSING: WHOLE MS-DIAL
PK$SPLASH: splash10-0zi0-7890000000-766c3a7fb7d7ac035ff5
PK$NUM_PEAK: 8
PK$PEAK: m/z int. rel.int.
  62.96408 48364 151.229
  78.95927 222779 696.607
  84.9754 32166 100.58
  109.0061 238939 747.138
  125.00154 33679 105.311
  183.0125 62068 194.08
  203.0388 319486 999
  212.51683 34097 106.618
//
