ACCESSION: MSBNK-ACES_SU-AS000022
RECORD_TITLE: 2-Naphthol; LC-APCI-QFT; MS2; CE: Ramp 20%-70% (nominal); R=30000; [M-H]-
DATE: 2022.08.15
AUTHORS: ACESx, Jonathan W. Martin Group
LICENSE: CC BY
COPYRIGHT: Stockholm University, ACESx, Jonathan W. Martin Group (C) 2022
COMMENT: CONFIDENCE Standard Compound (Level 1)
CH$NAME: 2-Naphthol
CH$NAME: Naphthalen-2-ol
CH$COMPOUND_CLASS: Intermediate substance in pigment production; Polycyclic Aromatic Hydrocarbons; Naphthalenes; Naphthols;
CH$FORMULA: C10H8O
CH$EXACT_MASS: 144.0575
CH$SMILES: OC=1C=CC=2C=CC=CC2C1
CH$IUPAC: InChI=1S/C10H8O/c11-10-6-5-8-3-1-2-4-9(8)7-10/h1-7,11H
AC$INSTRUMENT: QExactive Orbitrap HF-X (Thermo Scientific)
AC$INSTRUMENT_TYPE: LC-APCI-QFT
AC$MASS_SPECTROMETRY: MS_TYPE MS2
AC$MASS_SPECTROMETRY: ION_MODE NEGATIVE
AC$MASS_SPECTROMETRY: IONIZATION APCI
AC$MASS_SPECTROMETRY: FRAGMENTATION_MODE HCD
AC$MASS_SPECTROMETRY: COLLISION_ENERGY Ramp 20%-70% (nominal)
AC$MASS_SPECTROMETRY: RESOLUTION 30000
AC$CHROMATOGRAPHY: COLUMN_NAME Waters; Acquity UPLC BEH C18, 2.1 x 100 mm, 1.7 um, Waters
AC$CHROMATOGRAPHY: FLOW_GRADIENT 98/2 at 4.2 min, 0/100 at 22 min, 0/100 at 25 min, 98/2 at 25.1 min, 98/2 at 30 min
AC$CHROMATOGRAPHY: FLOW_RATE 0.45mL/min
AC$CHROMATOGRAPHY: RETENTION_TIME 13.699400
AC$CHROMATOGRAPHY: UOA_RTI 482.2500
AC$CHROMATOGRAPHY: SOLVENT A 1 mM ammonium fluoride in water
AC$CHROMATOGRAPHY: SOLVENT B MeOH
AC$CHROMATOGRAPHY: COMMENT Coupled to online-solid-phase-extraction with Oasis® HLB (80 Å, 15 um, 2.1 x 20 mm, Waters) with a flow gradient of 98/2 at 0 min, 98/2 at 2.2 min, 0/0 at 4.2 min, 98/5 at 25.1 min, 98/2 at 30 with a flow rate of 0.5 mL/min
MS$FOCUSED_ION: BASE_PEAK 143.05049
MS$FOCUSED_ION: PRECURSOR_M/Z 143.0503
MS$FOCUSED_ION: ION_TYPE [M-H]-
MS$DATA_PROCESSING: WHOLE MS-DIAL
PK$SPLASH: splash10-0006-0900000000-3379541b7088328e5606
PK$NUM_PEAK: 9
PK$PEAK: m/z int. rel.int.
  115.05554 920741 163.09
  116.05913 81682 14.468
  143.05049 5639971 999
  143.08081 41717 7.389
  143.10722 155484 27.541
  143.10883 146657 25.977
  144.05396 655410 116.092
  145.06636 32994 5.844
  145.07738 263105 46.603
//
