ACCESSION: MSBNK-ACES_SU-AS000077
RECORD_TITLE: 5-Methyl-1H-benzotriazole; LC-APCI-QFT; MS2; CE: Ramp 20%-70% (nominal); R=30000; [M+H]+
DATE: 2022.08.15
AUTHORS: ACESx, Jonathan W. Martin Group
LICENSE: CC BY
COPYRIGHT: Stockholm University, ACESx, Jonathan W. Martin Group (C) 2022
COMMENT: CONFIDENCE Standard Compound (Level 1)
CH$NAME: 5-Methyl-1H-benzotriazole
CH$NAME: 5-methyl-2H-benzotriazole
CH$COMPOUND_CLASS: Azoles; Triazoles; Benzotriazoles
CH$FORMULA: C7H7N3
CH$EXACT_MASS: 133.0640
CH$SMILES: N=1NN=C2C=C(C=CC12)C
CH$IUPAC: InChI=1S/C7H7N3/c1-5-2-3-6-7(4-5)9-10-8-6/h2-4H,1H3,(H,8,9,10)
AC$INSTRUMENT: QExactive Orbitrap HF-X (Thermo Scientific)
AC$INSTRUMENT_TYPE: LC-APCI-QFT
AC$MASS_SPECTROMETRY: MS_TYPE MS2
AC$MASS_SPECTROMETRY: ION_MODE POSITIVE
AC$MASS_SPECTROMETRY: IONIZATION APCI
AC$MASS_SPECTROMETRY: FRAGMENTATION_MODE HCD
AC$MASS_SPECTROMETRY: COLLISION_ENERGY Ramp 20%-70% (nominal)
AC$MASS_SPECTROMETRY: RESOLUTION 30000
AC$CHROMATOGRAPHY: COLUMN_NAME Waters; Acquity UPLC BEH C18, 2.1 x 100 mm, 1.7 um, Waters
AC$CHROMATOGRAPHY: FLOW_GRADIENT 98/2 at 4.2 min, 0/100 at 22 min, 0/100 at 25 min, 98/2 at 25.1 min, 98/2 at 30 min
AC$CHROMATOGRAPHY: FLOW_RATE 0.45mL/min
AC$CHROMATOGRAPHY: RETENTION_TIME 10.950800
AC$CHROMATOGRAPHY: UOA_RTI 356.9000
AC$CHROMATOGRAPHY: SOLVENT A 1 mM ammonium fluoride in water
AC$CHROMATOGRAPHY: SOLVENT B MeOH
AC$CHROMATOGRAPHY: COMMENT Coupled to online-solid-phase-extraction with Oasis® HLB (80 Å, 15 um, 2.1 x 20 mm, Waters) with a flow gradient of 98/2 at 0 min, 98/2 at 2.2 min, 0/0 at 4.2 min, 98/5 at 25.1 min, 98/2 at 30 with a flow rate of 0.5 mL/min
MS$FOCUSED_ION: BASE_PEAK 147.09204
MS$FOCUSED_ION: PRECURSOR_M/Z 134.0712
MS$FOCUSED_ION: ION_TYPE [M+H]+
MS$DATA_PROCESSING: WHOLE MS-DIAL
PK$SPLASH: splash10-001i-2900000000-af1a9a2933f830bced21
PK$NUM_PEAK: 13
PK$PEAK: m/z int. rel.int.
  65.03879 9746538 73.788
  80.05417 2710496 20.52
  92.05453 19263882 145.84
  93.05732 949954 7.192
  93.06176 3864843 29.259
  107.06163 3627062 27.459
  117.04477 594746 4.503
  126.80996 358516 2.714
  133.06323 1302794 9.863
  134.07095 131957056 999
  135.0554 1596566 12.087
  135.06824 1815425 13.744
  135.07484 10745470 81.35
//
