ACCESSION: MSBNK-ACES_SU-AS000235
RECORD_TITLE: Chloramphenicol; LC-ESI-QFT; MS2; CE: Ramp 20%-70% (nominal); R=30000; [M-H]-
DATE: 2022.08.15
AUTHORS: ACESx, Jonathan W. Martin Group
LICENSE: CC BY
COPYRIGHT: Stockholm University, ACESx, Jonathan W. Martin Group (C) 2022
COMMENT: CONFIDENCE Standard Compound (Level 1)
CH$NAME: Chloramphenicol
CH$NAME: 2,2-dichloro-N-[(1R,2R)-1,3-dihydroxy-1-(4-nitrophenyl)propan-2-yl]acetamide
CH$COMPOUND_CLASS: Drugs; Antiinfective Agents; Alcohols; Glycols; Propylene Glycols
CH$FORMULA: C11H12Cl2N2O5
CH$EXACT_MASS: 322.0123
CH$SMILES: O=C(NC(CO)C(O)C1=CC=C(C=C1)[N+](=O)[O-])C(Cl)Cl
CH$IUPAC: InChI=1S/C11H12Cl2N2O5/c12-10(13)11(18)14-8(5-16)9(17)6-1-3-7(4-2-6)15(19)20/h1-4,8-10,16-17H,5H2,(H,14,18)/t8-,9-/m1/s1
AC$INSTRUMENT: QExactive Orbitrap HF-X (Thermo Scientific)
AC$INSTRUMENT_TYPE: LC-ESI-QFT
AC$MASS_SPECTROMETRY: MS_TYPE MS2
AC$MASS_SPECTROMETRY: ION_MODE NEGATIVE
AC$MASS_SPECTROMETRY: IONIZATION ESI
AC$MASS_SPECTROMETRY: FRAGMENTATION_MODE HCD
AC$MASS_SPECTROMETRY: COLLISION_ENERGY Ramp 20%-70% (nominal)
AC$MASS_SPECTROMETRY: RESOLUTION 30000
AC$CHROMATOGRAPHY: COLUMN_NAME Waters; Acquity UPLC BEH C18, 2.1 x 100 mm, 1.7 um, Waters
AC$CHROMATOGRAPHY: FLOW_GRADIENT 98/2 at 4.2 min, 0/100 at 22 min, 0/100 at 25 min, 98/2 at 25.1 min, 98/2 at 30 min
AC$CHROMATOGRAPHY: FLOW_RATE 0.45mL/min
AC$CHROMATOGRAPHY: RETENTION_TIME 10.687400
AC$CHROMATOGRAPHY: UOA_RTI 309.3100
AC$CHROMATOGRAPHY: SOLVENT A 1 mM ammonium fluoride in water
AC$CHROMATOGRAPHY: SOLVENT B MeOH
AC$CHROMATOGRAPHY: COMMENT Coupled to online-solid-phase-extraction with Oasis® HLB (80 Å, 15 um, 2.1 x 20 mm, Waters) with a flow gradient of 98/2 at 0 min, 98/2 at 2.2 min, 0/0 at 4.2 min, 98/5 at 25.1 min, 98/2 at 30 with a flow rate of 0.5 mL/min
MS$FOCUSED_ION: BASE_PEAK 321.00559
MS$FOCUSED_ION: PRECURSOR_M/Z 321.0054
MS$FOCUSED_ION: ION_TYPE [M-H]-
MS$DATA_PROCESSING: WHOLE MS-DIAL
PK$SPLASH: splash10-0fk9-0933000000-c366686cfc1640816f44
PK$NUM_PEAK: 23
PK$PEAK: m/z int. rel.int.
  78.03506 211587 22.852
  82.94638 359976 38.878
  84.00948 110881 11.975
  106.02997 166836 18.019
  121.02922 3243185 350.272
  122.02438 493764 53.328
  122.02583 533835 57.655
  125.95187 217458 23.486
  126.93651 491104 53.04
  148.04068 150777 16.284
  150.01971 164851 17.804
  151.02777 3151625 340.383
  152.03595 6189175 668.446
  166.01518 185479 20.032
  176.03603 1975491 213.358
  194.04558 3866915 417.636
  207.04196 165572 17.882
  215.56555 108610 11.73
  219.04144 285758 30.863
  237.05205 465475 50.272
  249.05292 978721 105.704
  257.03461 6119977 660.972
  321.00559 9249792 999
//
