ACCESSION: MSBNK-ACES_SU-AS000122
RECORD_TITLE: Metronidazole; LC-APCI-QFT; MS2; CE: Ramp 20%-70% (nominal); R=30000; [M+H]+
DATE: 2022.08.15
AUTHORS: ACESx, Jonathan W. Martin Group
LICENSE: CC BY
COPYRIGHT: Stockholm University, ACESx, Jonathan W. Martin Group (C) 2022
COMMENT: CONFIDENCE Standard Compound (Level 1)
CH$NAME: Metronidazole
CH$NAME: 2-(2-methyl-5-nitroimidazol-1-yl)ethanol
CH$COMPOUND_CLASS: Drugs; Antiinfective Agents; Nitroimidazoles
CH$FORMULA: C6H9N3O3
CH$EXACT_MASS: 171.0644
CH$SMILES: O=[N+]([O-])C1=CN=C(N1CCO)C
CH$IUPAC: InChI=1S/C6H9N3O3/c1-5-7-4-6(9(11)12)8(5)2-3-10/h4,10H,2-3H2,1H3
AC$INSTRUMENT: QExactive Orbitrap HF-X (Thermo Scientific)
AC$INSTRUMENT_TYPE: LC-APCI-QFT
AC$MASS_SPECTROMETRY: MS_TYPE MS2
AC$MASS_SPECTROMETRY: ION_MODE POSITIVE
AC$MASS_SPECTROMETRY: IONIZATION APCI
AC$MASS_SPECTROMETRY: FRAGMENTATION_MODE HCD
AC$MASS_SPECTROMETRY: COLLISION_ENERGY Ramp 20%-70% (nominal)
AC$MASS_SPECTROMETRY: RESOLUTION 30000
AC$CHROMATOGRAPHY: COLUMN_NAME Waters; Acquity UPLC BEH C18, 2.1 x 100 mm, 1.7 um, Waters
AC$CHROMATOGRAPHY: FLOW_GRADIENT 98/2 at 4.2 min, 0/100 at 22 min, 0/100 at 25 min, 98/2 at 25.1 min, 98/2 at 30 min
AC$CHROMATOGRAPHY: FLOW_RATE 0.45mL/min
AC$CHROMATOGRAPHY: RETENTION_TIME 6.876500
AC$CHROMATOGRAPHY: UOA_RTI 142.7500
AC$CHROMATOGRAPHY: SOLVENT A 1 mM ammonium fluoride in water
AC$CHROMATOGRAPHY: SOLVENT B MeOH
AC$CHROMATOGRAPHY: COMMENT Coupled to online-solid-phase-extraction with Oasis® HLB (80 Å, 15 um, 2.1 x 20 mm, Waters) with a flow gradient of 98/2 at 0 min, 98/2 at 2.2 min, 0/0 at 4.2 min, 98/5 at 25.1 min, 98/2 at 30 with a flow rate of 0.5 mL/min
MS$FOCUSED_ION: BASE_PEAK 62.06032
MS$FOCUSED_ION: PRECURSOR_M/Z 172.0716
MS$FOCUSED_ION: ION_TYPE [M+H]+
MS$DATA_PROCESSING: WHOLE MS-DIAL
PK$SPLASH: NA
PK$NUM_PEAK: 7
PK$PEAK: m/z int. rel.int.
  56.03719 2768529 49.532
  69.04494 475699 8.511
  82.05251 1478964 26.46
  98.04759 2733412 48.904
  111.04292 2649489 47.402
  128.04538 55837696 999
  172.07175 36247040 648.501
//
