ACCESSION: MSBNK-ACES_SU-AS000126
RECORD_TITLE: Octocrylene; LC-APCI-QFT; MS2; CE: Ramp 20%-70% (nominal); R=30000; [M+H]+
DATE: 2022.08.15
AUTHORS: ACESx, Jonathan W. Martin Group
LICENSE: CC BY
COPYRIGHT: Stockholm University, ACESx, Jonathan W. Martin Group (C) 2022
COMMENT: CONFIDENCE Standard Compound (Level 1)
CH$NAME: Octocrylene
CH$NAME: 2-ethylhexyl 2-cyano-3,3-diphenylprop-2-enoate
CH$COMPOUND_CLASS: Acrylates; Personnal Care Products; Sunscreens Agents; UV Stabilizers
CH$FORMULA: C24H27NO2
CH$EXACT_MASS: 361.2042
CH$SMILES: N
CH$IUPAC: InChI=1S/C24H27NO2/c1-3-5-12-19(4-2)18-27-24(26)22(17-25)23(20-13-8-6-9-14-20)21-15-10-7-11-16-21/h6-11,13-16,19H,3-5,12,18H2,1-2H3
AC$INSTRUMENT: QExactive Orbitrap HF-X (Thermo Scientific)
AC$INSTRUMENT_TYPE: LC-APCI-QFT
AC$MASS_SPECTROMETRY: MS_TYPE MS2
AC$MASS_SPECTROMETRY: ION_MODE POSITIVE
AC$MASS_SPECTROMETRY: IONIZATION APCI
AC$MASS_SPECTROMETRY: FRAGMENTATION_MODE HCD
AC$MASS_SPECTROMETRY: COLLISION_ENERGY Ramp 20%-70% (nominal)
AC$MASS_SPECTROMETRY: RESOLUTION 30000
AC$CHROMATOGRAPHY: COLUMN_NAME Waters; Acquity UPLC BEH C18, 2.1 x 100 mm, 1.7 um, Waters
AC$CHROMATOGRAPHY: FLOW_GRADIENT 98/2 at 4.2 min, 0/100 at 22 min, 0/100 at 25 min, 98/2 at 25.1 min, 98/2 at 30 min
AC$CHROMATOGRAPHY: FLOW_RATE 0.45mL/min
AC$CHROMATOGRAPHY: RETENTION_TIME 20.252200
AC$CHROMATOGRAPHY: UOA_RTI 845.7900
AC$CHROMATOGRAPHY: SOLVENT A 1 mM ammonium fluoride in water
AC$CHROMATOGRAPHY: SOLVENT B MeOH
AC$CHROMATOGRAPHY: COMMENT Coupled to online-solid-phase-extraction with Oasis® HLB (80 Å, 15 um, 2.1 x 20 mm, Waters) with a flow gradient of 98/2 at 0 min, 98/2 at 2.2 min, 0/0 at 4.2 min, 98/5 at 25.1 min, 98/2 at 30 with a flow rate of 0.5 mL/min
MS$FOCUSED_ION: BASE_PEAK 229.08647
MS$FOCUSED_ION: PRECURSOR_M/Z 362.2113
MS$FOCUSED_ION: ION_TYPE [M+H]+
MS$DATA_PROCESSING: WHOLE MS-DIAL
PK$SPLASH: splash10-0udi-0290000000-5dd84decc84d58f9da9c
PK$NUM_PEAK: 21
PK$PEAK: m/z int. rel.int.
  51.80074 6375 18.27
  57.07016 17990 51.557
  69.01421 6391 18.316
  71.08562 18523 53.085
  95.04911 8072 23.133
  104.04973 7976 22.858
  105.03353 48046 137.694
  116.94281 6556 18.789
  150.32619 7227 20.712
  167.48962 7940 22.755
  176.06221 31639 90.673
  177.0704 38433 110.144
  178.07771 20612 59.071
  201.1869 7040 20.176
  203.07317 67875 194.521
  204.08044 109972 315.166
  214.53098 11534 33.055
  214.54446 20521 58.811
  232.07539 136361 390.793
  250.08711 348585 999
  259.13504 7671 21.984
//
