ACCESSION: MSBNK-ACES_SU-AS000169
RECORD_TITLE: Cyanazine; LC-ESI-QFT; MS2; CE: Ramp 20%-70% (nominal); R=30000; [M+H]+
DATE: 2022.08.15
AUTHORS: ACESx, Jonathan W. Martin Group
LICENSE: CC BY
COPYRIGHT: Stockholm University, ACESx, Jonathan W. Martin Group (C) 2022
COMMENT: CONFIDENCE Standard Compound (Level 1)
CH$NAME: Cyanazine
CH$NAME: 2-[[4-chloro-6-(ethylamino)-1,3,5-triazin-2-yl]amino]-2-methylpropanenitrile
CH$COMPOUND_CLASS: Pesticides; Herbicides; Triazines
CH$FORMULA: C9H13ClN6
CH$EXACT_MASS: 240.0890
CH$SMILES: N
CH$IUPAC: InChI=1S/C9H13ClN6/c1-4-12-7-13-6(10)14-8(15-7)16-9(2,3)5-11/h4H2,1-3H3,(H2,12,13,14,15,16)
AC$INSTRUMENT: QExactive Orbitrap HF-X (Thermo Scientific)
AC$INSTRUMENT_TYPE: LC-ESI-QFT
AC$MASS_SPECTROMETRY: MS_TYPE MS2
AC$MASS_SPECTROMETRY: ION_MODE POSITIVE
AC$MASS_SPECTROMETRY: IONIZATION ESI
AC$MASS_SPECTROMETRY: FRAGMENTATION_MODE HCD
AC$MASS_SPECTROMETRY: COLLISION_ENERGY Ramp 20%-70% (nominal)
AC$MASS_SPECTROMETRY: RESOLUTION 30000
AC$CHROMATOGRAPHY: COLUMN_NAME Waters; Acquity UPLC BEH C18, 2.1 x 100 mm, 1.7 um, Waters
AC$CHROMATOGRAPHY: FLOW_GRADIENT 98/2 at 4.2 min, 0/100 at 22 min, 0/100 at 25 min, 98/2 at 25.1 min, 98/2 at 30 min
AC$CHROMATOGRAPHY: FLOW_RATE 0.45mL/min
AC$CHROMATOGRAPHY: RETENTION_TIME 12.524900
AC$CHROMATOGRAPHY: UOA_RTI 439.6400
AC$CHROMATOGRAPHY: SOLVENT A 1 mM ammonium fluoride in water
AC$CHROMATOGRAPHY: SOLVENT B MeOH
AC$CHROMATOGRAPHY: COMMENT Coupled to online-solid-phase-extraction with Oasis® HLB (80 Å, 15 um, 2.1 x 20 mm, Waters) with a flow gradient of 98/2 at 0 min, 98/2 at 2.2 min, 0/0 at 4.2 min, 98/5 at 25.1 min, 98/2 at 30 with a flow rate of 0.5 mL/min
MS$FOCUSED_ION: BASE_PEAK NA
MS$FOCUSED_ION: PRECURSOR_M/Z NA
MS$FOCUSED_ION: ION_TYPE [M+H]+
MS$DATA_PROCESSING: WHOLE MS-DIAL
PK$SPLASH: NA
PK$NUM_PEAK: 17
PK$PEAK: m/z int. rel.int.
  61.97934 5881352 13.797
  68.02441 40484864 94.971
  71.06053 43357184 101.709
  79.00541 14743808 34.587
  83.0609 20813824 48.826
  90.01056 5079380 11.915
  96.05598 44132608 103.528
  104.00131 70062592 164.355
  110.07155 5073452 11.901
  119.03717 10629632 24.935
  132.03242 35953664 84.341
  136.08682 12422912 29.142
  138.07765 4559951 10.697
  146.02315 8363968 19.62
  174.05452 11261184 26.417
  214.08633 120554496 282.801
  241.09689 425861120 999
//
