ACCESSION: MSBNK-ACES_SU-AS000067
RECORD_TITLE: Sucralose; LC-APCI-QFT; MS2; CE: Ramp 20%-70% (nominal); R=30000; [M-H]-
DATE: 2022.08.15
AUTHORS: ACESx, Jonathan W. Martin Group
LICENSE: CC BY
COPYRIGHT: Stockholm University, ACESx, Jonathan W. Martin Group (C) 2022
COMMENT: CONFIDENCE Standard Compound (Level 1)
CH$NAME: Sucralose
CH$NAME: (2R,3R,4R,5R,6R)-2-[(2R,3S,4S,5S)-2,5-bis(chloromethyl)-3,4-dihydroxyoxolan-2-yl]oxy-5-chloro-6-(hydroxymethyl)oxane-3,4-diol
CH$COMPOUND_CLASS: Food Additives; Flavoring Agents; Artifical Sweetners
CH$FORMULA: C12H19Cl3O8
CH$EXACT_MASS: 396.0145
CH$SMILES: ClCC1OC(OC2OC(CO)C(Cl)C(O)C2O)(CCl)C(O)C1O
CH$IUPAC: InChI=1S/C12H19Cl3O8/c13-1-4-7(17)10(20)12(3-14,22-4)23-11-9(19)8(18)6(15)5(2-16)21-11/h4-11,16-20H,1-3H2/t4-,5-,6+,7-,8+,9-,10+,11-,12+/m1/s1
AC$INSTRUMENT: QExactive Orbitrap HF-X (Thermo Scientific)
AC$INSTRUMENT_TYPE: LC-APCI-QFT
AC$MASS_SPECTROMETRY: MS_TYPE MS2
AC$MASS_SPECTROMETRY: ION_MODE NEGATIVE
AC$MASS_SPECTROMETRY: IONIZATION APCI
AC$MASS_SPECTROMETRY: FRAGMENTATION_MODE HCD
AC$MASS_SPECTROMETRY: COLLISION_ENERGY Ramp 20%-70% (nominal)
AC$MASS_SPECTROMETRY: RESOLUTION 30000
AC$CHROMATOGRAPHY: COLUMN_NAME Waters; Acquity UPLC BEH C18, 2.1 x 100 mm, 1.7 um, Waters
AC$CHROMATOGRAPHY: FLOW_GRADIENT 98/2 at 4.2 min, 0/100 at 22 min, 0/100 at 25 min, 98/2 at 25.1 min, 98/2 at 30 min
AC$CHROMATOGRAPHY: FLOW_RATE 0.45mL/min
AC$CHROMATOGRAPHY: RETENTION_TIME 9.057000
AC$CHROMATOGRAPHY: UOA_RTI 276.8600
AC$CHROMATOGRAPHY: SOLVENT A 1 mM ammonium fluoride in water
AC$CHROMATOGRAPHY: SOLVENT B MeOH
AC$CHROMATOGRAPHY: COMMENT Coupled to online-solid-phase-extraction with Oasis® HLB (80 Å, 15 um, 2.1 x 20 mm, Waters) with a flow gradient of 98/2 at 0 min, 98/2 at 2.2 min, 0/0 at 4.2 min, 98/5 at 25.1 min, 98/2 at 30 with a flow rate of 0.5 mL/min
MS$FOCUSED_ION: BASE_PEAK 395.00778
MS$FOCUSED_ION: PRECURSOR_M/Z 395.0068
MS$FOCUSED_ION: ION_TYPE [M-H]-
MS$DATA_PROCESSING: WHOLE MS-DIAL
PK$SPLASH: splash10-0002-1139000000-dc0aa492d1847592617d
PK$NUM_PEAK: 26
PK$PEAK: m/z int. rel.int.
  52.47009 1406 60.051
  57.93439 1857 79.314
  59.21208 1396 59.624
  59.28772 1461 62.4
  62.29631 1762 75.256
  71.15475 1762 75.256
  89.32178 1434 61.247
  101.02356 981 41.899
  117.04691 1246 53.217
  145.82312 1755 74.957
  173.38416 1311 55.994
  175.14265 1599 68.294
  211.32518 10599 452.689
  211.33836 2511 107.246
  217.7916 1673 71.455
  252.31294 2072 88.496
  288.90576 1603 68.465
  289.90726 2523 107.759
  290.90402 2153 91.956
  303.56628 1448 61.845
  359.03152 10055 429.455
  361.02887 3090 131.976
  394.05618 1749 74.701
  395.00778 23390 999
  396.01151 5597 239.051
  397.00314 15726 671.666
//
