ACCESSION: MSBNK-ACES_SU-AS000047
RECORD_TITLE: Diphenyl Phosphate; LC-APCI-QFT; MS2; CE: Ramp 20%-70% (nominal); R=30000; [M-H]-
DATE: 2022.08.15
AUTHORS: ACESx, Jonathan W. Martin Group
LICENSE: CC BY
COPYRIGHT: Stockholm University, ACESx, Jonathan W. Martin Group (C) 2022
COMMENT: CONFIDENCE Standard Compound (Level 1)
CH$NAME: Diphenyl Phosphate
CH$NAME: Phosphoric acid diphenyl ester
CH$COMPOUND_CLASS: Aryl phosphate
CH$FORMULA: C12H11O4P
CH$EXACT_MASS: 250.0395
CH$SMILES: O=P(O)(OC=1C=CC=CC1)OC=2C=CC=CC2
CH$IUPAC: InChI=1S/C12H11O4P/c13-17(14,15-11-7-3-1-4-8-11)16-12-9-5-2-6-10-12/h1-10H,(H,13,14)
AC$INSTRUMENT: QExactive Orbitrap HF-X (Thermo Scientific)
AC$INSTRUMENT_TYPE: LC-APCI-QFT
AC$MASS_SPECTROMETRY: MS_TYPE MS2
AC$MASS_SPECTROMETRY: ION_MODE NEGATIVE
AC$MASS_SPECTROMETRY: IONIZATION APCI
AC$MASS_SPECTROMETRY: FRAGMENTATION_MODE HCD
AC$MASS_SPECTROMETRY: COLLISION_ENERGY Ramp 20%-70% (nominal)
AC$MASS_SPECTROMETRY: RESOLUTION 30000
AC$CHROMATOGRAPHY: COLUMN_NAME Waters; Acquity UPLC BEH C18, 2.1 x 100 mm, 1.7 um, Waters
AC$CHROMATOGRAPHY: FLOW_GRADIENT 98/2 at 4.2 min, 0/100 at 22 min, 0/100 at 25 min, 98/2 at 25.1 min, 98/2 at 30 min
AC$CHROMATOGRAPHY: FLOW_RATE 0.45mL/min
AC$CHROMATOGRAPHY: RETENTION_TIME 11.952000
AC$CHROMATOGRAPHY: UOA_RTI 381.9200
AC$CHROMATOGRAPHY: SOLVENT A 1 mM ammonium fluoride in water
AC$CHROMATOGRAPHY: SOLVENT B MeOH
AC$CHROMATOGRAPHY: COMMENT Coupled to online-solid-phase-extraction with Oasis® HLB (80 Å, 15 um, 2.1 x 20 mm, Waters) with a flow gradient of 98/2 at 0 min, 98/2 at 2.2 min, 0/0 at 4.2 min, 98/5 at 25.1 min, 98/2 at 30 with a flow rate of 0.5 mL/min
MS$FOCUSED_ION: BASE_PEAK 249.03227
MS$FOCUSED_ION: PRECURSOR_M/Z 249.0325
MS$FOCUSED_ION: ION_TYPE [M-H]-
MS$DATA_PROCESSING: WHOLE MS-DIAL
PK$SPLASH: splash10-0005-8090000000-8ca27d53411951fe0003
PK$NUM_PEAK: 14
PK$PEAK: m/z int. rel.int.
  65.03969 84763 16.854
  78.95912 267219 53.133
  93.03482 4643927 923.382
  94.03806 274497 54.58
  100.96722 39717 7.897
  154.99072 242842 48.286
  213.82556 33359 6.633
  213.84026 66568 13.236
  247.05505 27572 5.482
  247.16869 27803 5.528
  247.17233 31106 6.185
  249.03227 5024227 999
  250.03563 655358 130.309
  251.03813 35445 7.048
//
