ACCESSION: MSBNK-ACES_SU-AS000205
RECORD_TITLE: Sulfamethazine; LC-ESI-QFT; MS2; CE: Ramp 20%-70% (nominal); R=30000; [M+H]+
DATE: 2022.08.15
AUTHORS: ACESx, Jonathan W. Martin Group
LICENSE: CC BY
COPYRIGHT: Stockholm University, ACESx, Jonathan W. Martin Group (C) 2022
COMMENT: CONFIDENCE Standard Compound (Level 1)
CH$NAME: Sulfamethazine
CH$NAME: 4-amino-N-(4,6-dimethylpyrimidin-2-yl)benzenesulfonamide
CH$COMPOUND_CLASS: Drugs; Antiinfective Agents; Amines; Aniline Compounds; Sulfanilamides
CH$FORMULA: C12H14N4O2S
CH$EXACT_MASS: 278.0837
CH$SMILES: O=S(=O)(NC=1N=C(C=C(N1)C)C)C2=CC=C(N)C=C2
CH$IUPAC: InChI=1S/C12H14N4O2S/c1-8-7-9(2)15-12(14-8)16-19(17,18)11-5-3-10(13)4-6-11/h3-7H,13H2,1-2H3,(H,14,15,16)
AC$INSTRUMENT: QExactive Orbitrap HF-X (Thermo Scientific)
AC$INSTRUMENT_TYPE: LC-ESI-QFT
AC$MASS_SPECTROMETRY: MS_TYPE MS2
AC$MASS_SPECTROMETRY: ION_MODE POSITIVE
AC$MASS_SPECTROMETRY: IONIZATION ESI
AC$MASS_SPECTROMETRY: FRAGMENTATION_MODE HCD
AC$MASS_SPECTROMETRY: COLLISION_ENERGY Ramp 20%-70% (nominal)
AC$MASS_SPECTROMETRY: RESOLUTION 30000
AC$CHROMATOGRAPHY: COLUMN_NAME Waters; Acquity UPLC BEH C18, 2.1 x 100 mm, 1.7 um, Waters
AC$CHROMATOGRAPHY: FLOW_GRADIENT 98/2 at 4.2 min, 0/100 at 22 min, 0/100 at 25 min, 98/2 at 25.1 min, 98/2 at 30 min
AC$CHROMATOGRAPHY: FLOW_RATE 0.45mL/min
AC$CHROMATOGRAPHY: RETENTION_TIME 8.789400
AC$CHROMATOGRAPHY: UOA_RTI 243.3000
AC$CHROMATOGRAPHY: SOLVENT A 1 mM ammonium fluoride in water
AC$CHROMATOGRAPHY: SOLVENT B MeOH
AC$CHROMATOGRAPHY: COMMENT Coupled to online-solid-phase-extraction with Oasis® HLB (80 Å, 15 um, 2.1 x 20 mm, Waters) with a flow gradient of 98/2 at 0 min, 98/2 at 2.2 min, 0/0 at 4.2 min, 98/5 at 25.1 min, 98/2 at 30 with a flow rate of 0.5 mL/min
MS$FOCUSED_ION: BASE_PEAK NA
MS$FOCUSED_ION: PRECURSOR_M/Z NA
MS$FOCUSED_ION: ION_TYPE [M+H]+
MS$DATA_PROCESSING: WHOLE MS-DIAL
PK$SPLASH: splash10-004i-3590000000-d793cdb12f333c1fd3e3
PK$NUM_PEAK: 18
PK$PEAK: m/z int. rel.int.
  65.03874 97236992 88.061
  68.04961 30333952 27.471
  80.04946 23491072 21.274
  81.04456 22307584 20.202
  92.04982 273753856 247.92
  93.05752 12088576 10.948
  95.06047 49007360 44.383
  108.04452 291117824 263.646
  110.06026 35547136 32.193
  122.07166 26898944 24.361
  123.0788 9309440 8.431
  124.08694 338355200 306.425
  125.07074 22731008 20.586
  156.01158 75894016 68.732
  186.03369 29510400 26.726
  204.04437 226680576 205.289
  213.1143 27046144 24.494
  279.09039 1103096576 999
//
