ACCESSION: MSBNK-ACES_SU-AS000150
RECORD_TITLE: Atenolol; LC-ESI-QFT; MS2; CE: Ramp 20%-70% (nominal); R=30000; [M+H]+
DATE: 2022.08.15
AUTHORS: ACESx, Jonathan W. Martin Group
LICENSE: CC BY
COPYRIGHT: Stockholm University, ACESx, Jonathan W. Martin Group (C) 2022
COMMENT: CONFIDENCE Standard Compound (Level 1)
CH$NAME: Atenolol
CH$NAME: 2-[4-[2-hydroxy-3-(propan-2-ylamino)propoxy]phenyl]acetamide
CH$COMPOUND_CLASS: Drugs; Agent Affecting Nervous System; Beta-Adrenergic Antagonist
CH$FORMULA: C14H22N2O3
CH$EXACT_MASS: 266.1630
CH$SMILES: O=C(N)CC1=CC=C(OCC(O)CNC(C)C)C=C1
CH$IUPAC: InChI=1S/C14H22N2O3/c1-10(2)16-8-12(17)9-19-13-5-3-11(4-6-13)7-14(15)18/h3-6,10,12,16-17H,7-9H2,1-2H3,(H2,15,18)
AC$INSTRUMENT: QExactive Orbitrap HF-X (Thermo Scientific)
AC$INSTRUMENT_TYPE: LC-ESI-QFT
AC$MASS_SPECTROMETRY: MS_TYPE MS2
AC$MASS_SPECTROMETRY: ION_MODE POSITIVE
AC$MASS_SPECTROMETRY: IONIZATION ESI
AC$MASS_SPECTROMETRY: FRAGMENTATION_MODE HCD
AC$MASS_SPECTROMETRY: COLLISION_ENERGY Ramp 20%-70% (nominal)
AC$MASS_SPECTROMETRY: RESOLUTION 30000
AC$CHROMATOGRAPHY: COLUMN_NAME Waters; Acquity UPLC BEH C18, 2.1 x 100 mm, 1.7 um, Waters
AC$CHROMATOGRAPHY: FLOW_GRADIENT 98/2 at 4.2 min, 0/100 at 22 min, 0/100 at 25 min, 98/2 at 25.1 min, 98/2 at 30 min
AC$CHROMATOGRAPHY: FLOW_RATE 0.45mL/min
AC$CHROMATOGRAPHY: RETENTION_TIME 7.167600
AC$CHROMATOGRAPHY: UOA_RTI 158.0600
AC$CHROMATOGRAPHY: SOLVENT A 1 mM ammonium fluoride in water
AC$CHROMATOGRAPHY: SOLVENT B MeOH
AC$CHROMATOGRAPHY: COMMENT Coupled to online-solid-phase-extraction with Oasis® HLB (80 Å, 15 um, 2.1 x 20 mm, Waters) with a flow gradient of 98/2 at 0 min, 98/2 at 2.2 min, 0/0 at 4.2 min, 98/5 at 25.1 min, 98/2 at 30 with a flow rate of 0.5 mL/min
MS$FOCUSED_ION: BASE_PEAK NA
MS$FOCUSED_ION: PRECURSOR_M/Z NA
MS$FOCUSED_ION: ION_TYPE [M+H]+
MS$DATA_PROCESSING: WHOLE MS-DIAL
PK$SPLASH: NA
PK$NUM_PEAK: 26
PK$PEAK: m/z int. rel.int.
  56.04987 146323200 69.188
  58.06552 12884224 6.092
  72.08084 62566144 29.584
  74.06006 139673856 66.043
  91.05942 29817600 14.099
  93.07422 21676288 10.249
  98.09995 19520512 9.23
  105.07129 19979776 9.447
  106.06653 20443136 9.666
  107.05054 31539456 14.913
  115.05455 18850304 8.913
  116.10747 34170624 16.157
  117.06995 32841216 15.529
  119.04962 29105664 13.762
  121.06511 39379968 18.62
  133.0649 123403264 58.35
  134.06004 20968192 9.915
  145.06488 280574208 132.667
  147.04424 17008128 8.042
  162.06625 11973120 5.661
  164.07048 12221440 5.779
  178.08641 11960832 5.656
  190.08641 37265920 17.621
  208.09723 12297728 5.815
  225.12383 54407936 25.726
  267.17108 2112762624 999
//
