ACCESSION: MSBNK-ACES_SU-AS000010
RECORD_TITLE: Perfluorohexanesulfonic acid; LC-ESI-QFT; MS2; CE:40; R=30000; [M-H]-
DATE: 2020.05.07
AUTHORS: ACESx, Martin Group
LICENSE: CC BY
COPYRIGHT: Stockholm University, ACESx, Martin Group (C) 2022
COMMENT: CONFIDENCE Standard Compound (Level 1)
CH$NAME: Perfluorohexanesulfonic acid
CH$NAME: 1,1,2,2,3,3,4,4,5,5,6,6,6-tridecafluorohexane-1-sulfonic acid
CH$COMPOUND_CLASS: Perfluoroalkyl Acids; Organosulfonic acid; PFAS
CH$FORMULA: C6HF13O3S
CH$EXACT_MASS: 399.9439
CH$SMILES: OS(=O)(=O)C(F)(F)C(F)(F)C(F)(F)C(F)(F)C(F)(F)C(F)(F)F
CH$IUPAC: InChI=1S/C6HF13O3S/c7-1(8,3(11,12)5(15,16)17)2(9,10)4(13,14)6(18,19)23(20,21)22/h(H,20,21,22)
AC$INSTRUMENT: QExactive Orbitrap HF-X (Thermo Scientific)
AC$INSTRUMENT_TYPE: LC-ESI-QFT
AC$MASS_SPECTROMETRY: MS_TYPE MS2
AC$MASS_SPECTROMETRY: ION_MODE NEGATIVE
AC$MASS_SPECTROMETRY: IONIZATION ESI
AC$MASS_SPECTROMETRY: FRAGMENTATION_MODE HCD
AC$MASS_SPECTROMETRY: COLLISION_ENERGY 40
AC$MASS_SPECTROMETRY: RESOLUTION 30000
AC$CHROMATOGRAPHY: COLUMN_NAME Acquity UPLC BEH C18, 3.0 x 100 mm, 1.7 um, Waters
AC$CHROMATOGRAPHY: FLOW_GRADIENT 95/5 at 0-15 min, 5/95 at 15.1-24 min, 95/5 at 24.1-28 min
AC$CHROMATOGRAPHY: FLOW_RATE 0.4mL/min
AC$CHROMATOGRAPHY: RETENTION_TIME 14.499150
AC$CHROMATOGRAPHY: UOA_RTI 586.046901965
AC$CHROMATOGRAPHY: SOLVENT A 10 mM ammonium acetate in water
AC$CHROMATOGRAPHY: SOLVENT B MeOH
MS$FOCUSED_ION: BASE_PEAK 398.93799
MS$FOCUSED_ION: PRECURSOR_M/Z 398.7920
MS$FOCUSED_ION: ION_TYPE [M-H]-
MS$DATA_PROCESSING: WHOLE MS-DIAL
PK$SPLASH: splash10-0002-3009000000-186bb0143f91ec83e901
PK$NUM_PEAK: 5
PK$PEAK: m/z int. rel.int.
  79.95764 94753936 307.078
  81.95338 6239140 20.22
  81.96174 6166641 19.985
  98.95605 29018454 94.043
  398.93799 308257984 999
//
