ACCESSION: MSBNK-ACES_SU-AS000085
RECORD_TITLE: Benzoylecgonine; LC-APCI-QFT; MS2; CE: Ramp 20%-70% (nominal); R=30000; [M+H]+
DATE: 2022.08.15
AUTHORS: ACESx, Jonathan W. Martin Group
LICENSE: CC BY
COPYRIGHT: Stockholm University, ACESx, Jonathan W. Martin Group (C) 2022
COMMENT: CONFIDENCE Standard Compound (Level 1)
CH$NAME: Benzoylecgonine
CH$NAME: (1R,2R,3S,5S)-3-benzoyloxy-8-methyl-8-azabicyclo[3.2.1]octane-2-carboxylic acid
CH$COMPOUND_CLASS: Drugs; Tropanes
CH$FORMULA: C16H19NO4
CH$EXACT_MASS: 289.1314
CH$SMILES: O=C(OC1CC2N(C)C(CC2)C1C(=O)O)C=3C=CC=CC3
CH$IUPAC: InChI=1S/C16H19NO4/c1-17-11-7-8-12(17)14(15(18)19)13(9-11)21-16(20)10-5-3-2-4-6-10/h2-6,11-14H,7-9H2,1H3,(H,18,19)/t11-,12+,13-,14+/m0/s1
AC$INSTRUMENT: QExactive Orbitrap HF-X (Thermo Scientific)
AC$INSTRUMENT_TYPE: LC-APCI-QFT
AC$MASS_SPECTROMETRY: MS_TYPE MS2
AC$MASS_SPECTROMETRY: ION_MODE POSITIVE
AC$MASS_SPECTROMETRY: IONIZATION APCI
AC$MASS_SPECTROMETRY: FRAGMENTATION_MODE HCD
AC$MASS_SPECTROMETRY: COLLISION_ENERGY Ramp 20%-70% (nominal)
AC$MASS_SPECTROMETRY: RESOLUTION 30000
AC$CHROMATOGRAPHY: COLUMN_NAME Waters; Acquity UPLC BEH C18, 2.1 x 100 mm, 1.7 um, Waters
AC$CHROMATOGRAPHY: FLOW_GRADIENT 98/2 at 4.2 min, 0/100 at 22 min, 0/100 at 25 min, 98/2 at 25.1 min, 98/2 at 30 min
AC$CHROMATOGRAPHY: FLOW_RATE 0.45mL/min
AC$CHROMATOGRAPHY: RETENTION_TIME 9.426900
AC$CHROMATOGRAPHY: UOA_RTI 276.8000
AC$CHROMATOGRAPHY: SOLVENT A 1 mM ammonium fluoride in water
AC$CHROMATOGRAPHY: SOLVENT B MeOH
AC$CHROMATOGRAPHY: COMMENT Coupled to online-solid-phase-extraction with Oasis® HLB (80 Å, 15 um, 2.1 x 20 mm, Waters) with a flow gradient of 98/2 at 0 min, 98/2 at 2.2 min, 0/0 at 4.2 min, 98/5 at 25.1 min, 98/2 at 30 with a flow rate of 0.5 mL/min
MS$FOCUSED_ION: BASE_PEAK 98.98375
MS$FOCUSED_ION: PRECURSOR_M/Z 290.1385
MS$FOCUSED_ION: ION_TYPE [M+H]+
MS$DATA_PROCESSING: WHOLE MS-DIAL
PK$SPLASH: splash10-0006-2590000000-9ca591a4d1a190299f38
PK$NUM_PEAK: 16
PK$PEAK: m/z int. rel.int.
  53.03897 589121 35.717
  67.0544 317357 19.241
  68.04961 237074 14.373
  82.06562 1670333 101.27 aaa
  83.04944 695020 42.138
  91.05427 811483 49.199
  93.0707 293311 17.783
  95.04904 339530 20.585
  105.03327 4212818 255.416 aaaa
  119.04907 611081 37.049
  122.09578 286647 17.379
  122.09723 306632 18.591
  150.09081 249911 15.152
  150.09229 231384 14.028
  168.10197 3861506 234.117
  290.13806 16477440 999
//
