ACCESSION: MSBNK-ACES_SU-AS000057
RECORD_TITLE: Metalaxyl; LC-APCI-QFT; MS2; CE: Ramp 20%-70% (nominal); R=30000; [M-H]-
DATE: 2022.08.15
AUTHORS: ACESx, Jonathan W. Martin Group
LICENSE: CC BY
COPYRIGHT: Stockholm University, ACESx, Jonathan W. Martin Group (C) 2022
COMMENT: CONFIDENCE Standard Compound (Level 1)
CH$NAME: Metalaxyl
CH$NAME: Methyl 2-(N-(2-methoxyacetyl)-2,6-dimethylanilino)propanoate
CH$COMPOUND_CLASS: Pesticides; Fungicides; Carboxamides
CH$FORMULA: C15H21NO4
CH$EXACT_MASS: 279.1471
CH$SMILES: O=C(OC)C(N(C(=O)COC)C=1C(=CC=CC1C)C)C
CH$IUPAC: InChI=1S/C15H21NO4/c1-10-7-6-8-11(2)14(10)16(13(17)9-19-4)12(3)15(18)20-5/h6-8,12H,9H2,1-5H3
AC$INSTRUMENT: QExactive Orbitrap HF-X (Thermo Scientific)
AC$INSTRUMENT_TYPE: LC-APCI-QFT
AC$MASS_SPECTROMETRY: MS_TYPE MS2
AC$MASS_SPECTROMETRY: ION_MODE NEGATIVE
AC$MASS_SPECTROMETRY: IONIZATION APCI
AC$MASS_SPECTROMETRY: FRAGMENTATION_MODE HCD
AC$MASS_SPECTROMETRY: COLLISION_ENERGY Ramp 20%-70% (nominal)
AC$MASS_SPECTROMETRY: RESOLUTION 30000
AC$CHROMATOGRAPHY: COLUMN_NAME Waters; Acquity UPLC BEH C18, 2.1 x 100 mm, 1.7 um, Waters
AC$CHROMATOGRAPHY: FLOW_GRADIENT 98/2 at 4.2 min, 0/100 at 22 min, 0/100 at 25 min, 98/2 at 25.1 min, 98/2 at 30 min
AC$CHROMATOGRAPHY: FLOW_RATE 0.45mL/min
AC$CHROMATOGRAPHY: RETENTION_TIME 14.781000
AC$CHROMATOGRAPHY: UOA_RTI 544.3500
AC$CHROMATOGRAPHY: SOLVENT A 1 mM ammonium fluoride in water
AC$CHROMATOGRAPHY: SOLVENT B MeOH
AC$CHROMATOGRAPHY: COMMENT Coupled to online-solid-phase-extraction with Oasis® HLB (80 Å, 15 um, 2.1 x 20 mm, Waters) with a flow gradient of 98/2 at 0 min, 98/2 at 2.2 min, 0/0 at 4.2 min, 98/5 at 25.1 min, 98/2 at 30 with a flow rate of 0.5 mL/min
MS$FOCUSED_ION: BASE_PEAK 218.11829
MS$FOCUSED_ION: PRECURSOR_M/Z 278.1397
MS$FOCUSED_ION: ION_TYPE [M-H]-
MS$DATA_PROCESSING: WHOLE MS-DIAL
PK$SPLASH: splash10-0gc0-0390000000-e8bf8f057cc043e6c873
PK$NUM_PEAK: 49
PK$PEAK: m/z int. rel.int.
  59.01379 3936 19.487
  75.00899 10104 50.024
  87.04509 3148 15.585
  89.02444 4980 24.655
  92.99585 2465 12.204
  106.04144 19680 97.433
  122.07256 10187 50.434
  127.11292 2094 10.367
  130.06616 113698 562.903
  131.06932 9826 48.647
  142.99287 2196 10.872
  144.082 16210 80.253
  145.0851 2263 11.204
  146.06079 3499 17.323
  148.07675 2620 12.971
  158.06024 2947 14.59
  161.96935 2750 13.615
  170.09756 3645 18.046
  172.07695 9727 48.157
  174.09233 24189 119.756
  175.09621 3512 17.387
  186.09225 4646 23.002
  196.0184 2643 13.085
  203.0916 31825 157.561
  203.09509 113732 563.072
  204.09885 15290 75.699
  208.98514 2506 12.407
  213.10876 6837 33.849
  214.08768 14856 73.55
  216.10252 3238 16.031
  218.11267 11193 55.415
  218.11829 201783 999
  219.12239 24028 118.959
  221.15065 2658 13.159
  231.0903 7574 37.498
  246.11369 57375 284.056
  247.11768 8979 44.454
  259.05811 2789 13.808
  276.16968 3968 19.645
  277.07593 47903 237.161
  277.14218 4781 23.67
  277.18179 10900 53.964
  277.2171 2635 13.046
  277.996 8310 41.142
  278.07996 7061 34.958
  278.14035 27030 133.822
  279.14267 6039 29.898
  279.16205 2760 13.664
  279.23218 4037 19.987
//
