ACCESSION: MSBNK-ACES_SU-AS000213
RECORD_TITLE: 1-Naphthalenesulfonic acid; LC-ESI-QFT; MS2; CE: Ramp 20%-70% (nominal); R=30000; [M-H]-
DATE: 2022.08.15
AUTHORS: ACESx, Jonathan W. Martin Group
LICENSE: CC BY
COPYRIGHT: Stockholm University, ACESx, Jonathan W. Martin Group (C) 2022
COMMENT: CONFIDENCE Standard Compound (Level 1)
CH$NAME: 1-Naphthalenesulfonic acid
CH$NAME: Naphthalene-1-sulfonic acid
CH$COMPOUND_CLASS: Polycyclic Aromatic Hydrocarbons; Naphthalenes; Naphthalenesulfonates; Organosulfonic acids; Arenesulfonic acids
CH$FORMULA: C10H8O3S
CH$EXACT_MASS: 208.0194
CH$SMILES: O=S(=O)(O)C1=CC=CC=2C=CC=CC21
CH$IUPAC: InChI=1S/C10H8O3S/c11-14(12,13)10-7-3-5-8-4-1-2-6-9(8)10/h1-7H,(H,11,12,13)
AC$INSTRUMENT: QExactive Orbitrap HF-X (Thermo Scientific)
AC$INSTRUMENT_TYPE: LC-ESI-QFT
AC$MASS_SPECTROMETRY: MS_TYPE MS2
AC$MASS_SPECTROMETRY: ION_MODE NEGATIVE
AC$MASS_SPECTROMETRY: IONIZATION ESI
AC$MASS_SPECTROMETRY: FRAGMENTATION_MODE HCD
AC$MASS_SPECTROMETRY: COLLISION_ENERGY Ramp 20%-70% (nominal)
AC$MASS_SPECTROMETRY: RESOLUTION 30000
AC$CHROMATOGRAPHY: COLUMN_NAME Waters; Acquity UPLC BEH C18, 2.1 x 100 mm, 1.7 um, Waters
AC$CHROMATOGRAPHY: FLOW_GRADIENT 98/2 at 4.2 min, 0/100 at 22 min, 0/100 at 25 min, 98/2 at 25.1 min, 98/2 at 30 min
AC$CHROMATOGRAPHY: FLOW_RATE 0.45mL/min
AC$CHROMATOGRAPHY: RETENTION_TIME 8.847500
AC$CHROMATOGRAPHY: UOA_RTI 203.6700
AC$CHROMATOGRAPHY: SOLVENT A 1 mM ammonium fluoride in water
AC$CHROMATOGRAPHY: SOLVENT B MeOH
AC$CHROMATOGRAPHY: COMMENT Coupled to online-solid-phase-extraction with Oasis® HLB (80 Å, 15 um, 2.1 x 20 mm, Waters) with a flow gradient of 98/2 at 0 min, 98/2 at 2.2 min, 0/0 at 4.2 min, 98/5 at 25.1 min, 98/2 at 30 with a flow rate of 0.5 mL/min
MS$FOCUSED_ION: BASE_PEAK 117.04610
MS$FOCUSED_ION: PRECURSOR_M/Z 117.0461
MS$FOCUSED_ION: ION_TYPE [M-H]-
MS$DATA_PROCESSING: WHOLE MS-DIAL
PK$SPLASH: splash10-0a4i-2490000000-55c9b21b49f53b7004af
PK$NUM_PEAK: 7
PK$PEAK: m/z int. rel.int.
  79.95752 1457186 314.577
  87.00912 86198 18.608
  111.00876 252597 54.531
  143.05017 1868756 403.426
  144.05367 180652 38.999
  207.01218 4627578 999
  208.01521 427870 92.368
//
