ACCESSION: MSBNK-ACES_SU-AS000156
RECORD_TITLE: Benzoylecgonine; LC-ESI-QFT; MS2; CE: Ramp 20%-70% (nominal); R=30000; [M+H]+
DATE: 2022.08.15
AUTHORS: ACESx, Jonathan W. Martin Group
LICENSE: CC BY
COPYRIGHT: Stockholm University, ACESx, Jonathan W. Martin Group (C) 2022
COMMENT: CONFIDENCE Standard Compound (Level 1)
CH$NAME: Benzoylecgonine
CH$NAME: (1R,2R,3S,5S)-3-benzoyloxy-8-methyl-8-azabicyclo[3.2.1]octane-2-carboxylic acid
CH$COMPOUND_CLASS: Drugs; Tropanes
CH$FORMULA: C16H19NO4
CH$EXACT_MASS: 289.1314
CH$SMILES: O=C(OC1CC2N(C)C(CC2)C1C(=O)O)C=3C=CC=CC3
CH$IUPAC: InChI=1S/C16H19NO4/c1-17-11-7-8-12(17)14(15(18)19)13(9-11)21-16(20)10-5-3-2-4-6-10/h2-6,11-14H,7-9H2,1H3,(H,18,19)/t11-,12+,13-,14+/m0/s1
AC$INSTRUMENT: QExactive Orbitrap HF-X (Thermo Scientific)
AC$INSTRUMENT_TYPE: LC-ESI-QFT
AC$MASS_SPECTROMETRY: MS_TYPE MS2
AC$MASS_SPECTROMETRY: ION_MODE POSITIVE
AC$MASS_SPECTROMETRY: IONIZATION ESI
AC$MASS_SPECTROMETRY: FRAGMENTATION_MODE HCD
AC$MASS_SPECTROMETRY: COLLISION_ENERGY Ramp 20%-70% (nominal)
AC$MASS_SPECTROMETRY: RESOLUTION 30000
AC$CHROMATOGRAPHY: COLUMN_NAME Waters; Acquity UPLC BEH C18, 2.1 x 100 mm, 1.7 um, Waters
AC$CHROMATOGRAPHY: FLOW_GRADIENT 98/2 at 4.2 min, 0/100 at 22 min, 0/100 at 25 min, 98/2 at 25.1 min, 98/2 at 30 min
AC$CHROMATOGRAPHY: FLOW_RATE 0.45mL/min
AC$CHROMATOGRAPHY: RETENTION_TIME 9.450200
AC$CHROMATOGRAPHY: UOA_RTI 278.0300
AC$CHROMATOGRAPHY: SOLVENT A 1 mM ammonium fluoride in water
AC$CHROMATOGRAPHY: SOLVENT B MeOH
AC$CHROMATOGRAPHY: COMMENT Coupled to online-solid-phase-extraction with Oasis® HLB (80 Å, 15 um, 2.1 x 20 mm, Waters) with a flow gradient of 98/2 at 0 min, 98/2 at 2.2 min, 0/0 at 4.2 min, 98/5 at 25.1 min, 98/2 at 30 with a flow rate of 0.5 mL/min
MS$FOCUSED_ION: BASE_PEAK NA
MS$FOCUSED_ION: PRECURSOR_M/Z NA
MS$FOCUSED_ION: ION_TYPE [M+H]+
MS$DATA_PROCESSING: WHOLE MS-DIAL
PK$SPLASH: NA
PK$NUM_PEAK: 23
PK$PEAK: m/z int. rel.int.
  53.03899 25281792 22.586
  67.05449 17025536 15.21
  68.04962 10514944 9.394
  77.04092 8526080 7.617
  81.07718 5820979 5.2
  82.07266 97492992 87.098
  83.08049 36858880 32.929
  91.05931 53183488 47.513
  93.07411 19871744 17.753
  95.05359 30233600 27.01
  96.0851 9981440 8.917
  100.07925 10591488 9.462
  105.03476 218309376 195.033
  105.04559 11174400 9.983
  108.08199 9483520 8.472
  119.0495 34075136 30.442
  122.09659 20997632 18.759
  124.11212 10262016 9.168
  150.0919 15171328 13.554
  168.10211 249728512 223.102
  212.80228 6893366 6.158
  272.12891 14769408 13.195
  290.13837 1118227712 999
//
