ACCESSION: MSBNK-ACES_SU-AS000096
RECORD_TITLE: Clarithromycin; LC-APCI-QFT; MS2; CE: Ramp 20%-70% (nominal); R=30000; [M+H]+
DATE: 2022.08.15
AUTHORS: ACESx, Jonathan W. Martin Group
LICENSE: CC BY
COPYRIGHT: Stockholm University, ACESx, Jonathan W. Martin Group (C) 2022
COMMENT: CONFIDENCE Standard Compound (Level 1)
CH$NAME: Clarithromycin
CH$NAME: (3R,4S,5S,6R,7R,9R,11R,12R,13S,14R)-6-[(2S,3R,4S,6R)-4-(dimethylamino)-3-hydroxy-6-methyloxan-2-yl]oxy-14-ethyl-12,13-dihydroxy-4-[(2R,4R,5S,6S)-5-hydroxy-4-methoxy-4,6-dimethyloxan-2-yl]oxy-7-methoxy-3,5,7,9,11,13-hexamethyl-oxacyclotetradecane-2,10-dione
CH$COMPOUND_CLASS: Drugs; Antiinfective Agents; Antibiotics; Macrolides
CH$FORMULA: C38H69NO13
CH$EXACT_MASS: 747.4769
CH$SMILES: O=C1OC(CC)C(O)(C)C(O)C(C(=O)C(C)CC(OC)(C)C(OC2OC(C)CC(N(C)C)C2O)C(C)C(OC3OC(C)C(O)C(OC)(C)C3)C1C)C
CH$IUPAC: InChI=1S/C38H69NO13/c1-15-26-38(10,45)31(42)21(4)28(40)19(2)17-37(9,47-14)33(52-35-29(41)25(39(11)12)16-20(3)48-35)22(5)30(23(6)34(44)50-26)51-27-18-36(8,46-13)32(43)24(7)49-27/h19-27,29-33,35,41-43,45H,15-18H2,1-14H3/t19-,20-,21+,22+,23-,24+,25+,26-,27+,29-,30+,31-,32+,33-,35+,36-,37-,38-/m1/s1
AC$INSTRUMENT: QExactive Orbitrap HF-X (Thermo Scientific)
AC$INSTRUMENT_TYPE: LC-APCI-QFT
AC$MASS_SPECTROMETRY: MS_TYPE MS2
AC$MASS_SPECTROMETRY: ION_MODE POSITIVE
AC$MASS_SPECTROMETRY: IONIZATION APCI
AC$MASS_SPECTROMETRY: FRAGMENTATION_MODE HCD
AC$MASS_SPECTROMETRY: COLLISION_ENERGY Ramp 20%-70% (nominal)
AC$MASS_SPECTROMETRY: RESOLUTION 30000
AC$CHROMATOGRAPHY: COLUMN_NAME Waters; Acquity UPLC BEH C18, 2.1 x 100 mm, 1.7 um, Waters
AC$CHROMATOGRAPHY: FLOW_GRADIENT 98/2 at 4.2 min, 0/100 at 22 min, 0/100 at 25 min, 98/2 at 25.1 min, 98/2 at 30 min
AC$CHROMATOGRAPHY: FLOW_RATE 0.45mL/min
AC$CHROMATOGRAPHY: RETENTION_TIME 16.274300
AC$CHROMATOGRAPHY: UOA_RTI 636.7100
AC$CHROMATOGRAPHY: SOLVENT A 1 mM ammonium fluoride in water
AC$CHROMATOGRAPHY: SOLVENT B MeOH
AC$CHROMATOGRAPHY: COMMENT Coupled to online-solid-phase-extraction with Oasis® HLB (80 Å, 15 um, 2.1 x 20 mm, Waters) with a flow gradient of 98/2 at 0 min, 98/2 at 2.2 min, 0/0 at 4.2 min, 98/5 at 25.1 min, 98/2 at 30 with a flow rate of 0.5 mL/min
MS$FOCUSED_ION: BASE_PEAK 203.01419
MS$FOCUSED_ION: PRECURSOR_M/Z 748.4860
MS$FOCUSED_ION: ION_TYPE [M+H]+
MS$DATA_PROCESSING: WHOLE MS-DIAL
PK$SPLASH: splash10-0a4i-5900010000-6a7dff94a7c2f1b2e1f4
PK$NUM_PEAK: 29
PK$PEAK: m/z int. rel.int.
  53.00252 12678 5.657
  55.05455 108507 48.419
  59.04936 70283 31.362
  70.06517 14768 6.59
  71.04919 12347 5.51
  72.08086 285553 127.421
  73.0522 13951 6.225
  81.07009 28193 12.58
  83.049161 883978 394.453
  84.08054 37951 16.935
  87.04399 100583 44.883
  88.07579 55258 24.658
  98.09633 140141 62.534
  113.05987 15089 6.733
  115.07566 74332 33.169
  116.06996 64387 28.731
  116.10585 137391 61.307
  127.07446 105018 46.862
  127.07639 109042 48.657
  158.11771 2238779 999
  159.10289 11740 5.239
  299.8389 14723 6.57
  316.21149 22211 9.911
  365.23297 28664 12.791
  540.35303 13078 5.836
  558.36456 168701 75.279
  590.39026 326180 145.55
  590.44415 16126 7.196
  748.48853 59371 26.493
//
