ACCESSION: MSBNK-ACES_SU-AS000036
RECORD_TITLE: Bioallethrin; LC-APCI-QFT; MS2; CE: Ramp 20%-70% (nominal); R=30000; [M-H]-
DATE: 2022.08.15
AUTHORS: ACESx, Jonathan W. Martin Group
LICENSE: CC BY
COPYRIGHT: Stockholm University, ACESx, Jonathan W. Martin Group (C) 2022
COMMENT: CONFIDENCE Standard Compound (Level 1)
CH$NAME: Bioallethrin
CH$NAME: (2-methyl-4-oxo-3-prop-2-enylcyclopent-2-en-1-yl) (1R,3R)-2,2-dimethyl-3-(2-methylprop-1-enyl)cyclopropane-1-carboxylate
CH$COMPOUND_CLASS: Pesticides; Pyrethrins/Pyrethroids; Cyclopentane Monoterpenes; Cyclopropanecarboxylate ester; Allethrin; Trans-allethrin
CH$FORMULA: C19H26O3
CH$EXACT_MASS: 302.1882
CH$SMILES: O=C(OC1C(=C(C(=O)C1)CC=C)C)C2C(C=C(C)C)C2(C)C
CH$IUPAC: InChI=1S/C19H26O3/c1-7-8-13-12(4)16(10-15(13)20)22-18(21)17-14(9-11(2)3)19(17,5)6/h7,9,14,16-17H,1,8,10H2,2-6H3/t14-,16?,17+/m1/s1
AC$INSTRUMENT: QExactive Orbitrap HF-X (Thermo Scientific)
AC$INSTRUMENT_TYPE: LC-APCI-QFT
AC$MASS_SPECTROMETRY: MS_TYPE MS2
AC$MASS_SPECTROMETRY: ION_MODE NEGATIVE
AC$MASS_SPECTROMETRY: IONIZATION APCI
AC$MASS_SPECTROMETRY: FRAGMENTATION_MODE HCD
AC$MASS_SPECTROMETRY: COLLISION_ENERGY Ramp 20%-70% (nominal)
AC$MASS_SPECTROMETRY: RESOLUTION 30000
AC$CHROMATOGRAPHY: COLUMN_NAME Waters; Acquity UPLC BEH C18, 2.1 x 100 mm, 1.7 um, Waters
AC$CHROMATOGRAPHY: FLOW_GRADIENT 98/2 at 4.2 min, 0/100 at 22 min, 0/100 at 25 min, 98/2 at 25.1 min, 98/2 at 30 min
AC$CHROMATOGRAPHY: FLOW_RATE 0.45mL/min
AC$CHROMATOGRAPHY: RETENTION_TIME 19.297800
AC$CHROMATOGRAPHY: UOA_RTI 803.6900
AC$CHROMATOGRAPHY: SOLVENT A 1 mM ammonium fluoride in water
AC$CHROMATOGRAPHY: SOLVENT B MeOH
AC$CHROMATOGRAPHY: COMMENT Coupled to online-solid-phase-extraction with Oasis® HLB (80 Å, 15 um, 2.1 x 20 mm, Waters) with a flow gradient of 98/2 at 0 min, 98/2 at 2.2 min, 0/0 at 4.2 min, 98/5 at 25.1 min, 98/2 at 30 with a flow rate of 0.5 mL/min
MS$FOCUSED_ION: BASE_PEAK 301.18109
MS$FOCUSED_ION: PRECURSOR_M/Z 301.1809
MS$FOCUSED_ION: ION_TYPE [M-H]-
MS$DATA_PROCESSING: WHOLE MS-DIAL
PK$SPLASH: splash10-0udi-0509000000-6afb466fb26854872c2b
PK$NUM_PEAK: 28
PK$PEAK: m/z int. rel.int.
  57.03445 5920 5.523
  78.06116 5402 5.04
  109.02885 13598 12.687
  131.04951 23030 21.487
  131.05132 28821 26.89
  133.06537 91183 85.075
  133.0668 84659 78.988
  134.06953 10889 10.16
  135.04445 27253 25.427
  136.05347 9206 8.589
  146.07394 14670 13.687
  149.06221 5710 5.327
  151.07555 19396 18.097
  156.39017 5421 5.058
  167.10713 187782 175.202
  167.10887 185768 173.323
  168.11107 18283 17.058
  212.64056 5619 5.243
  212.65346 9924 9.259
  212.66678 25612 23.896
  219.58997 5638 5.26
  260.14221 5885 5.491
  270.65192 6374 5.947
  283.17056 19258 17.968
  284.17322 5864 5.471
  301.18109 1070728 999
  302.18512 206493 192.66
  303.1864 10546 9.84
//
