ACCESSION: MSBNK-ACES_SU-AS000167
RECORD_TITLE: Clenbuterol; LC-ESI-QFT; MS2; CE: Ramp 20%-70% (nominal); R=30000; [M+H]+
DATE: 2022.08.15
AUTHORS: ACESx, Jonathan W. Martin Group
LICENSE: CC BY
COPYRIGHT: Stockholm University, ACESx, Jonathan W. Martin Group (C) 2022
COMMENT: CONFIDENCE Standard Compound (Level 1)
CH$NAME: Clenbuterol
CH$NAME: 1-(4-amino-3,5-dichlorophenyl)-2-(tert-butylamino)ethanol
CH$COMPOUND_CLASS: Veterinary Drugs; Adrenoreceptor agonist; Amino Alcohols; Ethanolamines;
CH$FORMULA: C12H18Cl2N2O
CH$EXACT_MASS: 276.0796
CH$SMILES: ClC=1C=C(C=C(Cl)C1N)C(O)CNC(C)(C)C
CH$IUPAC: InChI=1S/C12H18Cl2N2O/c1-12(2,3)16-6-10(17)7-4-8(13)11(15)9(14)5-7/h4-5,10,16-17H,6,15H2,1-3H3
AC$INSTRUMENT: QExactive Orbitrap HF-X (Thermo Scientific)
AC$INSTRUMENT_TYPE: LC-ESI-QFT
AC$MASS_SPECTROMETRY: MS_TYPE MS2
AC$MASS_SPECTROMETRY: ION_MODE POSITIVE
AC$MASS_SPECTROMETRY: IONIZATION ESI
AC$MASS_SPECTROMETRY: FRAGMENTATION_MODE HCD
AC$MASS_SPECTROMETRY: COLLISION_ENERGY Ramp 20%-70% (nominal)
AC$MASS_SPECTROMETRY: RESOLUTION 30000
AC$CHROMATOGRAPHY: COLUMN_NAME Waters; Acquity UPLC BEH C18, 2.1 x 100 mm, 1.7 um, Waters
AC$CHROMATOGRAPHY: FLOW_GRADIENT 98/2 at 4.2 min, 0/100 at 22 min, 0/100 at 25 min, 98/2 at 25.1 min, 98/2 at 30 min
AC$CHROMATOGRAPHY: FLOW_RATE 0.45mL/min
AC$CHROMATOGRAPHY: RETENTION_TIME 10.336400
AC$CHROMATOGRAPHY: UOA_RTI 324.6100
AC$CHROMATOGRAPHY: SOLVENT A 1 mM ammonium fluoride in water
AC$CHROMATOGRAPHY: SOLVENT B MeOH
AC$CHROMATOGRAPHY: COMMENT Coupled to online-solid-phase-extraction with Oasis® HLB (80 Å, 15 um, 2.1 x 20 mm, Waters) with a flow gradient of 98/2 at 0 min, 98/2 at 2.2 min, 0/0 at 4.2 min, 98/5 at 25.1 min, 98/2 at 30 with a flow rate of 0.5 mL/min
MS$FOCUSED_ION: BASE_PEAK NA
MS$FOCUSED_ION: PRECURSOR_M/Z NA
MS$FOCUSED_ION: ION_TYPE [M+H]+
MS$DATA_PROCESSING: WHOLE MS-DIAL
PK$SPLASH: splash10-100r-0690000000-9e053a8276526a4919c0
PK$NUM_PEAK: 11
PK$PEAK: m/z int. rel.int.
  57.07011 19079168 62.649
  131.0605 28540672 93.717
  132.06824 155769088 511.487
  133.0761 8109193 26.628
  140.02657 13353216 43.847
  151.01814 14058496 46.163
  167.03755 47206144 155.007
  168.04482 156863744 515.081
  203.01405 304237312 999
  259.07669 247542016 812.834
  277.08643 80528128 264.424
//
