ACCESSION: MSBNK-ACES_SU-AS000091
RECORD_TITLE: Carbofuran; LC-APCI-QFT; MS2; CE: Ramp 20%-70% (nominal); R=30000; [M+H]+
DATE: 2022.08.15
AUTHORS: ACESx, Jonathan W. Martin Group
LICENSE: CC BY
COPYRIGHT: Stockholm University, ACESx, Jonathan W. Martin Group (C) 2022
COMMENT: CONFIDENCE Standard Compound (Level 1)
CH$NAME: Carbofuran
CH$NAME: (2,2-dimethyl-3H-1-benzofuran-7-yl) N-methylcarbamate
CH$COMPOUND_CLASS: Pesticides; Carbamate Insecticides; Phenylcarbamates
CH$FORMULA: C12H15NO3
CH$EXACT_MASS: 221.1052
CH$SMILES: O=C(OC1=CC=CC2=C1OC(C)(C)C2)NC
CH$IUPAC: InChI=1S/C12H15NO3/c1-12(2)7-8-5-4-6-9(10(8)16-12)15-11(14)13-3/h4-6H
AC$INSTRUMENT: QExactive Orbitrap HF-X (Thermo Scientific)
AC$INSTRUMENT_TYPE: LC-APCI-QFT
AC$MASS_SPECTROMETRY: MS_TYPE MS2
AC$MASS_SPECTROMETRY: ION_MODE POSITIVE
AC$MASS_SPECTROMETRY: IONIZATION APCI
AC$MASS_SPECTROMETRY: FRAGMENTATION_MODE HCD
AC$MASS_SPECTROMETRY: COLLISION_ENERGY Ramp 20%-70% (nominal)
AC$MASS_SPECTROMETRY: RESOLUTION 30000
AC$CHROMATOGRAPHY: COLUMN_NAME Waters; Acquity UPLC BEH C18, 2.1 x 100 mm, 1.7 um, Waters
AC$CHROMATOGRAPHY: FLOW_GRADIENT 98/2 at 4.2 min, 0/100 at 22 min, 0/100 at 25 min, 98/2 at 25.1 min, 98/2 at 30 min
AC$CHROMATOGRAPHY: FLOW_RATE 0.45mL/min
AC$CHROMATOGRAPHY: RETENTION_TIME 13.027100
AC$CHROMATOGRAPHY: UOA_RTI 466.0300
AC$CHROMATOGRAPHY: SOLVENT A 1 mM ammonium fluoride in water
AC$CHROMATOGRAPHY: SOLVENT B MeOH
AC$CHROMATOGRAPHY: COMMENT Coupled to online-solid-phase-extraction with Oasis® HLB (80 Å, 15 um, 2.1 x 20 mm, Waters) with a flow gradient of 98/2 at 0 min, 98/2 at 2.2 min, 0/0 at 4.2 min, 98/5 at 25.1 min, 98/2 at 30 with a flow rate of 0.5 mL/min
MS$FOCUSED_ION: BASE_PEAK 274.99771
MS$FOCUSED_ION: PRECURSOR_M/Z 222.1125
MS$FOCUSED_ION: ION_TYPE [M+H]+
MS$DATA_PROCESSING: WHOLE MS-DIAL
PK$SPLASH: NA
PK$NUM_PEAK: 15
PK$PEAK: m/z int. rel.int.
  55.05455 8091075 75.172
  58.02907 1910722 17.752
  67.05441 1150614 10.69
  91.05391 4529508 42.082
  95.04939 3360190 31.219
  111.04433 594156 5.52
  119.04967 934851 8.685
  119.08575 1919352 17.832
  123.0441 73343744 681.416
  137.06006 3219014 29.907
  147.08044 1359835 12.634
  165.09152 107526656 999
  213.68864 669835 6.223
  213.70163 694020 6.448
  222.11331 18170624 168.818
//
