ACCESSION: MSBNK-ACES_SU-AS000210
RECORD_TITLE: Tris(2-butoxyethyl) phosphate; LC-ESI-QFT; MS2; CE: Ramp 20%-70% (nominal); R=30000; [M+H]+
DATE: 2022.08.15
AUTHORS: ACESx, Jonathan W. Martin Group
LICENSE: CC BY
COPYRIGHT: Stockholm University, ACESx, Jonathan W. Martin Group (C) 2022
COMMENT: CONFIDENCE Standard Compound (Level 1)
CH$NAME: Tris(2-butoxyethyl) phosphate
CH$NAME: TBEP
CH$COMPOUND_CLASS: Organophosphates; Chelating agent; Plasticizer
CH$FORMULA: C18H39O7P
CH$EXACT_MASS: 398.2433
CH$SMILES: O=P(OCCOCCCC)(OCCOCCCC)OCCOCCCC
CH$IUPAC: InChI=1S/C18H39O7P/c1-4-7-10-20-13-16-23-26(19,24-17-14-21-11-8-5-2)25-18-15-22-12-9-6-3/h4-18H2,1-3H3
AC$INSTRUMENT: QExactive Orbitrap HF-X (Thermo Scientific)
AC$INSTRUMENT_TYPE: LC-ESI-QFT
AC$MASS_SPECTROMETRY: MS_TYPE MS2
AC$MASS_SPECTROMETRY: ION_MODE POSITIVE
AC$MASS_SPECTROMETRY: IONIZATION ESI
AC$MASS_SPECTROMETRY: FRAGMENTATION_MODE HCD
AC$MASS_SPECTROMETRY: COLLISION_ENERGY Ramp 20%-70% (nominal)
AC$MASS_SPECTROMETRY: RESOLUTION 30000
AC$CHROMATOGRAPHY: COLUMN_NAME Waters; Acquity UPLC BEH C18, 2.1 x 100 mm, 1.7 um, Waters
AC$CHROMATOGRAPHY: FLOW_GRADIENT 98/2 at 4.2 min, 0/100 at 22 min, 0/100 at 25 min, 98/2 at 25.1 min, 98/2 at 30 min
AC$CHROMATOGRAPHY: FLOW_RATE 0.45mL/min
AC$CHROMATOGRAPHY: RETENTION_TIME 19.007900
AC$CHROMATOGRAPHY: UOA_RTI 780.3800
AC$CHROMATOGRAPHY: SOLVENT A 1 mM ammonium fluoride in water
AC$CHROMATOGRAPHY: SOLVENT B MeOH
AC$CHROMATOGRAPHY: COMMENT Coupled to online-solid-phase-extraction with Oasis® HLB (80 Å, 15 um, 2.1 x 20 mm, Waters) with a flow gradient of 98/2 at 0 min, 98/2 at 2.2 min, 0/0 at 4.2 min, 98/5 at 25.1 min, 98/2 at 30 with a flow rate of 0.5 mL/min
MS$FOCUSED_ION: BASE_PEAK NA
MS$FOCUSED_ION: PRECURSOR_M/Z NA
MS$FOCUSED_ION: ION_TYPE [M+H]+
MS$DATA_PROCESSING: WHOLE MS-DIAL
PK$SPLASH: splash10-0002-5940000000-2609c4584f3d093951d9
PK$NUM_PEAK: 22
PK$PEAK: m/z int. rel.int.
  53.00253 16356352 18.562
  55.05457 137870080 156.466
  57.07019 356871680 405.006
  59.04938 22782464 25.855
  66.20941 6380829 7.241
  69.23976 6591320 7.48
  83.08552 99811584 113.274
  98.98423 108719360 123.383
  101.09615 319683584 362.802
  125.0002 26957056 30.593
  143.01036 62123520 70.503
  151.42851 6491025 7.367
  199.07368 880270336 999
  211.26729 9355776 10.618
  211.27759 54670848 62.045
  211.28912 11818752 13.413
  220.85503 6646107 7.543
  225.08937 23374080 26.527
  243.09938 33587456 38.118
  249.51544 7034356 7.983
  299.16235 514901760 584.351
  399.24963 132906752 150.833
//
