ACCESSION: MSBNK-ACES_SU-AS000135
RECORD_TITLE: Salbutamol; LC-APCI-QFT; MS2; CE: Ramp 20%-70% (nominal); R=30000; [M+H]+
DATE: 2022.08.15
AUTHORS: ACESx, Jonathan W. Martin Group
LICENSE: CC BY
COPYRIGHT: Stockholm University, ACESx, Jonathan W. Martin Group (C) 2022
COMMENT: CONFIDENCE Standard Compound (Level 1)
CH$NAME: Salbutamol
CH$NAME: Albuterol
CH$COMPOUND_CLASS: Drugs; Amines; Ethylamines; Phenethylamines
CH$FORMULA: C13H21NO3
CH$EXACT_MASS: 239.1521
CH$SMILES: OC1=CC=C(C=C1CO)C(O)CNC(C)(C)C
CH$IUPAC: InChI=1S/C13H21NO3/c1-13(2,3)14-7-12(17)9-4-5-11(16)10(6-9)8-15/h4-6,12,14-17H,7-8H2,1-3H3
AC$INSTRUMENT: QExactive Orbitrap HF-X (Thermo Scientific)
AC$INSTRUMENT_TYPE: LC-APCI-QFT
AC$MASS_SPECTROMETRY: MS_TYPE MS2
AC$MASS_SPECTROMETRY: ION_MODE POSITIVE
AC$MASS_SPECTROMETRY: IONIZATION APCI
AC$MASS_SPECTROMETRY: FRAGMENTATION_MODE HCD
AC$MASS_SPECTROMETRY: COLLISION_ENERGY Ramp 20%-70% (nominal)
AC$MASS_SPECTROMETRY: RESOLUTION 30000
AC$CHROMATOGRAPHY: COLUMN_NAME Waters; Acquity UPLC BEH C18, 2.1 x 100 mm, 1.7 um, Waters
AC$CHROMATOGRAPHY: FLOW_GRADIENT 98/2 at 4.2 min, 0/100 at 22 min, 0/100 at 25 min, 98/2 at 25.1 min, 98/2 at 30 min
AC$CHROMATOGRAPHY: FLOW_RATE 0.45mL/min
AC$CHROMATOGRAPHY: RETENTION_TIME 7.049400
AC$CHROMATOGRAPHY: UOA_RTI 151.8400
AC$CHROMATOGRAPHY: SOLVENT A 1 mM ammonium fluoride in water
AC$CHROMATOGRAPHY: SOLVENT B MeOH
AC$CHROMATOGRAPHY: COMMENT Coupled to online-solid-phase-extraction with Oasis® HLB (80 Å, 15 um, 2.1 x 20 mm, Waters) with a flow gradient of 98/2 at 0 min, 98/2 at 2.2 min, 0/0 at 4.2 min, 98/5 at 25.1 min, 98/2 at 30 with a flow rate of 0.5 mL/min
MS$FOCUSED_ION: BASE_PEAK 184.11993
MS$FOCUSED_ION: PRECURSOR_M/Z 240.1593
MS$FOCUSED_ION: ION_TYPE [M+H]+
MS$DATA_PROCESSING: WHOLE MS-DIAL
PK$SPLASH: splash10-00dj-1950000000-ccbf513fb4a98a2be51f
PK$NUM_PEAK: 19
PK$PEAK: m/z int. rel.int.
  57.07011 689461 75.746
  79.0541 333719 36.663
  80.04943 212130 23.305
  91.05415 411781 45.24
  93.07378 329919 36.246
  93.07002 371453 40.809
  103.05469 493031 54.166
  106.06538 164933 18.12
  118.06465 191988 21.092
  120.08084 884035 97.123
  121.065 2373952 260.81
  130.06506 1417299 155.709
  131.04903 277701 30.509
  133.05222 1533842 168.513
  148.07585 7086567 778.554
  166.08672 4891009 537.342
  213.9115 147288 16.182
  222.14894 9093120 999
  240.15906 3506067 385.188
//
