ACCESSION: MSBNK-ACES_SU-AS000216
RECORD_TITLE: 2-Bromo-4,6-dinitroaniline; LC-ESI-QFT; MS2; CE: Ramp 20%-70% (nominal); R=30000; [M-H]-
DATE: 2022.08.15
AUTHORS: ACESx, Jonathan W. Martin Group
LICENSE: CC BY
COPYRIGHT: Stockholm University, ACESx, Jonathan W. Martin Group (C) 2022
COMMENT: CONFIDENCE Standard Compound (Level 1)
CH$NAME: 2-Bromo-4,6-dinitroaniline
CH$NAME: 6-Bromo-2,4-dinitroaniline
CH$COMPOUND_CLASS: Nitroanilines
CH$FORMULA: C6H4BrN3O4
CH$EXACT_MASS: 260.9385
CH$SMILES: O=[N+]([O-])C1=CC(Br)=C(N)C(=C1)[N+](=O)[O-]
CH$IUPAC: InChI=1S/C6H4BrN3O4/c7-4-1-3(9(11)12)2-5(6(4)8)10(13)14/h1-2H,8H2
AC$INSTRUMENT: QExactive Orbitrap HF-X (Thermo Scientific)
AC$INSTRUMENT_TYPE: LC-ESI-QFT
AC$MASS_SPECTROMETRY: MS_TYPE MS2
AC$MASS_SPECTROMETRY: ION_MODE NEGATIVE
AC$MASS_SPECTROMETRY: IONIZATION ESI
AC$MASS_SPECTROMETRY: FRAGMENTATION_MODE HCD
AC$MASS_SPECTROMETRY: COLLISION_ENERGY Ramp 20%-70% (nominal)
AC$MASS_SPECTROMETRY: RESOLUTION 30000
AC$CHROMATOGRAPHY: COLUMN_NAME Waters; Acquity UPLC BEH C18, 2.1 x 100 mm, 1.7 um, Waters
AC$CHROMATOGRAPHY: FLOW_GRADIENT 98/2 at 4.2 min, 0/100 at 22 min, 0/100 at 25 min, 98/2 at 25.1 min, 98/2 at 30 min
AC$CHROMATOGRAPHY: FLOW_RATE 0.45mL/min
AC$CHROMATOGRAPHY: RETENTION_TIME 13.455900
AC$CHROMATOGRAPHY: UOA_RTI 468.2700
AC$CHROMATOGRAPHY: SOLVENT A 1 mM ammonium fluoride in water
AC$CHROMATOGRAPHY: SOLVENT B MeOH
AC$CHROMATOGRAPHY: COMMENT Coupled to online-solid-phase-extraction with Oasis® HLB (80 Å, 15 um, 2.1 x 20 mm, Waters) with a flow gradient of 98/2 at 0 min, 98/2 at 2.2 min, 0/0 at 4.2 min, 98/5 at 25.1 min, 98/2 at 30 with a flow rate of 0.5 mL/min
MS$FOCUSED_ION: BASE_PEAK 160.95686
MS$FOCUSED_ION: PRECURSOR_M/Z 218.9623
MS$FOCUSED_ION: ION_TYPE [M-H]-
MS$DATA_PROCESSING: WHOLE MS-DIAL
PK$SPLASH: splash10-03di-0900000000-1ba770baff4a84931617
PK$NUM_PEAK: 8
PK$PEAK: m/z int. rel.int.
  50.00346 818943 13.194
  68.99841 1083652 17.458
  78.91896 16260864 261.972
  120.00941 4403954 70.95
  199.936 1507866 24.293
  212.93132 2735860 44.076
  229.93304 714802 11.516
  259.93168 62008832 999
//
