ACCESSION: MSBNK-ACES_SU-AS000006
RECORD_TITLE: Perfluorobutanoic acid; LC-ESI-QFT; MS2; CE:40; R=30000; [M-H]-
DATE: 2020.05.07
AUTHORS: ACESx, Martin Group
LICENSE: CC BY
COPYRIGHT: Stockholm University, ACESx, Martin Group (C) 2022
COMMENT: CONFIDENCE Standard Compound (Level 1)
CH$NAME: Perfluorobutanoic acid
CH$NAME: 2,2,3,3,4,4,4-heptafluorobutanoic acid
CH$COMPOUND_CLASS: Perfluoroalkyl Acids; Caprylates; Carboxylic acid; Fluoroalkanoic acid; Water repellant; PFAS
CH$FORMULA: C4HF7O2
CH$EXACT_MASS: 213.9865
CH$SMILES: O=C(O)C(F)(F)C(F)(F)C(F)(F)F
CH$IUPAC: InChI=1S/C4HF7O2/c5-2(6,1(12)13)3(7,8)4(9,10)11/h(H,12,13)
AC$INSTRUMENT: QExactive Orbitrap HF-X (Thermo Scientific)
AC$INSTRUMENT_TYPE: LC-ESI-QFT
AC$MASS_SPECTROMETRY: MS_TYPE MS2
AC$MASS_SPECTROMETRY: ION_MODE NEGATIVE
AC$MASS_SPECTROMETRY: IONIZATION ESI
AC$MASS_SPECTROMETRY: FRAGMENTATION_MODE HCD
AC$MASS_SPECTROMETRY: COLLISION_ENERGY 40
AC$MASS_SPECTROMETRY: RESOLUTION 30000
AC$CHROMATOGRAPHY: COLUMN_NAME Acquity UPLC BEH C18, 3.0 x 100 mm, 1.7 um, Waters
AC$CHROMATOGRAPHY: FLOW_GRADIENT 95/5 at 0-15 min, 5/95 at 15.1-24 min, 95/5 at 24.1-28 min
AC$CHROMATOGRAPHY: FLOW_RATE 0.4mL/min
AC$CHROMATOGRAPHY: RETENTION_TIME  9.688442
AC$CHROMATOGRAPHY: UOA_RTI 160.1688737782
AC$CHROMATOGRAPHY: SOLVENT A 10 mM ammonium acetate in water
AC$CHROMATOGRAPHY: SOLVENT B MeOH
MS$FOCUSED_ION: BASE_PEAK 168.98988
MS$FOCUSED_ION: PRECURSOR_M/Z 212.9793
MS$FOCUSED_ION: ION_TYPE [M-H]-
MS$DATA_PROCESSING: WHOLE MS-DIAL
PK$SPLASH: splash10-014i-0900000000-c8f98dbce216698f2c7e
PK$NUM_PEAK: 32
PK$PEAK: m/z int. rel.int.
  57.03447 9229 15.14
  59.01376 55229 90.602
  78.95914 25609 42.011
  78.96704 25608 42.009
  81.95316 4662 7.647
  90.97125 4370 7.169
  95.95236 4146 6.801
  98.92952 7968 13.072
  108.02213 21232 34.83
  126.90485 34372 56.387
  128.99295 7072 11.601
  132.86787 11566 18.974
  134.86517 13280 21.786
  136.94894 6733 11.045
  138.02022 55156 90.483
  141.09248 3955 6.488
  149.09744 9077 14.891
  153.1284 11858 19.454
  157.06563 7092 11.634
  161.00427 5444 8.931
  168.98988 608968 999
  169.99306 15059 24.704
  171.99988 300984 493.759
  176.90701 10640 17.454
  176.92975 3787 6.212
  182.00974 75590 124.005
  185.06073 15928 26.129
  194.93889 5699 9.349
  197.11795 12555 20.596
  201.11298 4395 7.21
  211.04027 3772 6.188
  212.97894 5036 8.262
//
