ACCESSION: MSBNK-ACES_SU-AS000084
RECORD_TITLE: Atrazine-desisopropyl; LC-APCI-QFT; MS2; CE: Ramp 20%-70% (nominal); R=30000; [M+H]+
DATE: 2022.08.15
AUTHORS: ACESx, Jonathan W. Martin Group
LICENSE: CC BY
COPYRIGHT: Stockholm University, ACESx, Jonathan W. Martin Group (C) 2022
COMMENT: CONFIDENCE Standard Compound (Level 1)
CH$NAME: Atrazine-desisopropyl
CH$NAME: 6-chloro-2-N-ethyl-1,3,5-triazine-2,4-diamine
CH$COMPOUND_CLASS: Pesticide metabolites; Herbicides; Triazines
CH$FORMULA: C5H8ClN5
CH$EXACT_MASS: 173.0468
CH$SMILES: ClC=1N=C(N=C(N1)NCC)N
CH$IUPAC: InChI=1S/C5H8ClN5/c1-2-8-5-10-3(6)9-4(7)11-5/h2H2,1H3,(H3,7,8,9,10,11)
AC$INSTRUMENT: QExactive Orbitrap HF-X (Thermo Scientific)
AC$INSTRUMENT_TYPE: LC-APCI-QFT
AC$MASS_SPECTROMETRY: MS_TYPE MS2
AC$MASS_SPECTROMETRY: ION_MODE POSITIVE
AC$MASS_SPECTROMETRY: IONIZATION APCI
AC$MASS_SPECTROMETRY: FRAGMENTATION_MODE HCD
AC$MASS_SPECTROMETRY: COLLISION_ENERGY Ramp 20%-70% (nominal)
AC$MASS_SPECTROMETRY: RESOLUTION 30000
AC$CHROMATOGRAPHY: COLUMN_NAME Waters; Acquity UPLC BEH C18, 2.1 x 100 mm, 1.7 um, Waters
AC$CHROMATOGRAPHY: FLOW_GRADIENT 98/2 at 4.2 min, 0/100 at 22 min, 0/100 at 25 min, 98/2 at 25.1 min, 98/2 at 30 min
AC$CHROMATOGRAPHY: FLOW_RATE 0.45mL/min
AC$CHROMATOGRAPHY: RETENTION_TIME 8.744100
AC$CHROMATOGRAPHY: UOA_RTI 240.9200
AC$CHROMATOGRAPHY: SOLVENT A 1 mM ammonium fluoride in water
AC$CHROMATOGRAPHY: SOLVENT B MeOH
AC$CHROMATOGRAPHY: COMMENT Coupled to online-solid-phase-extraction with Oasis® HLB (80 Å, 15 um, 2.1 x 20 mm, Waters) with a flow gradient of 98/2 at 0 min, 98/2 at 2.2 min, 0/0 at 4.2 min, 98/5 at 25.1 min, 98/2 at 30 with a flow rate of 0.5 mL/min
MS$FOCUSED_ION: BASE_PEAK 174.05455
MS$FOCUSED_ION: PRECURSOR_M/Z 174.0544
MS$FOCUSED_ION: ION_TYPE [M+H]+
MS$DATA_PROCESSING: WHOLE MS-DIAL
PK$SPLASH: NA
PK$NUM_PEAK: 14
PK$PEAK: m/z int. rel.int.
  61.97942 132450 9.352
  68.02435 1630941 115.163
  71.06055 626766 44.257
  79.00545 1547214 109.251
  90.0105 74601 5.268
  96.05584 1630226 115.113
  104.00133 2111833 149.12
  110.04599 175720 12.408
  132.03244 1419836 100.257
  132.97485 164790 11.636
  138.07722 267858 18.914
  146.02246 591181 41.744
  173.98923 150912 10.656
  174.05455 14147840 999
//
