ACCESSION: MSBNK-ACES_SU-AS000223
RECORD_TITLE: 6-Chloro-2,4-dinitroaniline; LC-ESI-QFT; MS2; CE: Ramp 20%-70% (nominal); R=30000; [M-H]-
DATE: 2022.08.15
AUTHORS: ACESx, Jonathan W. Martin Group
LICENSE: CC BY
COPYRIGHT: Stockholm University, ACESx, Jonathan W. Martin Group (C) 2022
COMMENT: CONFIDENCE Standard Compound (Level 1)
CH$NAME: 6-Chloro-2,4-dinitroaniline
CH$NAME: 2-chloro-4,6-dinitroaniline
CH$COMPOUND_CLASS: Amines; Aniline Compounds
CH$FORMULA: C6H4ClN3O4
CH$EXACT_MASS: 216.9890
CH$SMILES: O=[N+]([O-])C1=CC(Cl)=C(N)C(=C1)[N+](=O)[O-]
CH$IUPAC: InChI=1S/C6H4ClN3O4/c7-4-1-3(9(11)12)2-5(6(4)8)10(13)14/h1-2H,8H2
AC$INSTRUMENT: QExactive Orbitrap HF-X (Thermo Scientific)
AC$INSTRUMENT_TYPE: LC-ESI-QFT
AC$MASS_SPECTROMETRY: MS_TYPE MS2
AC$MASS_SPECTROMETRY: ION_MODE NEGATIVE
AC$MASS_SPECTROMETRY: IONIZATION ESI
AC$MASS_SPECTROMETRY: FRAGMENTATION_MODE HCD
AC$MASS_SPECTROMETRY: COLLISION_ENERGY Ramp 20%-70% (nominal)
AC$MASS_SPECTROMETRY: RESOLUTION 30000
AC$CHROMATOGRAPHY: COLUMN_NAME Waters; Acquity UPLC BEH C18, 2.1 x 100 mm, 1.7 um, Waters
AC$CHROMATOGRAPHY: FLOW_GRADIENT 98/2 at 4.2 min, 0/100 at 22 min, 0/100 at 25 min, 98/2 at 25.1 min, 98/2 at 30 min
AC$CHROMATOGRAPHY: FLOW_RATE 0.45mL/min
AC$CHROMATOGRAPHY: RETENTION_TIME 12.909700
AC$CHROMATOGRAPHY: UOA_RTI 436.9100
AC$CHROMATOGRAPHY: SOLVENT A 1 mM ammonium fluoride in water
AC$CHROMATOGRAPHY: SOLVENT B MeOH
AC$CHROMATOGRAPHY: COMMENT Coupled to online-solid-phase-extraction with Oasis® HLB (80 Å, 15 um, 2.1 x 20 mm, Waters) with a flow gradient of 98/2 at 0 min, 98/2 at 2.2 min, 0/0 at 4.2 min, 98/5 at 25.1 min, 98/2 at 30 with a flow rate of 0.5 mL/min
MS$FOCUSED_ION: BASE_PEAK 215.98207
MS$FOCUSED_ION: PRECURSOR_M/Z 215.9820
MS$FOCUSED_ION: ION_TYPE [M-H]-
MS$DATA_PROCESSING: WHOLE MS-DIAL
PK$SPLASH: splash10-014i-0290000000-ffdbfd66c4050b20dbc8
PK$NUM_PEAK: 8
PK$PEAK: m/z int. rel.int.
  50.00349 1583722 13.591
  68.99838 2691081 23.094
  76.01959 1821802 15.634
  120.00952 8830976 75.784
  155.98643 12934144 110.996
  168.98122 2917219 25.035
  185.98405 1996620 17.134
  215.98207 116411392 999
//
