ACCESSION: MSBNK-UFZ-WANA226005070APM
RECORD_TITLE: Denatonium; LC-ESI-ITFT; MS2; CE: 30%; R=15000; [M]+
DATE: 2023.08.13
AUTHORS: Tobias Schulze, Martin Krauss, Department of Effect-Directed Analysis, Helmholtz Centre for Environmental Research - UFZ, Leipzig, Germany
LICENSE: CC0
COPYRIGHT: Copyright (C) 2023
COMMENT: CONFIDENCE Reference Standard (Level 1)
CH$NAME: Denatonium
CH$NAME: benzyl-[2-(2,6-dimethylanilino)-2-oxoethyl]-diethylazanium
CH$COMPOUND_CLASS: N/A; Environmental Standard
CH$FORMULA: C21H29N2O
CH$EXACT_MASS: 325.227439968091
CH$SMILES: CC[N+](CC)(CC(=O)NC1=C(C)C=CC=C1C)CC1=CC=CC=C1
CH$IUPAC: InChI=1S/C21H28N2O/c1-5-23(6-2,15-19-13-8-7-9-14-19)16-20(24)22-21-17(3)11-10-12-18(21)4/h7-14H,5-6,15-16H2,1-4H3/p+1
CH$LINK: CAS 47324-98-1
CH$LINK: CHEBI 95255
CH$LINK: PUBCHEM CID:15488
CH$LINK: INCHIKEY ZFQMTVNLDNXRNQ-UHFFFAOYSA-O
CH$LINK: CHEMSPIDER 14735
CH$LINK: COMPTOX DTXSID9043770
AC$INSTRUMENT: LTQ Orbitrap XL Thermo Scientific
AC$INSTRUMENT_TYPE: LC-ESI-ITFT
AC$MASS_SPECTROMETRY: MS_TYPE MS2
AC$MASS_SPECTROMETRY: ION_MODE POSITIVE
AC$MASS_SPECTROMETRY: IONIZATION ESI
AC$MASS_SPECTROMETRY: FRAGMENTATION_MODE HCD
AC$MASS_SPECTROMETRY: COLLISION_ENERGY 30 % (nominal)
AC$MASS_SPECTROMETRY: RESOLUTION 15000
AC$MASS_SPECTROMETRY: MASS_RANGE_M/Z 50-340
AC$CHROMATOGRAPHY: COLUMN_NAME Kinetex Evo C18 2.6 um 50 x 2.1 mm
AC$CHROMATOGRAPHY: FLOW_GRADIENT 95/5 at 0 min, 95/5 at 1 min, 0/100 at 13 min, 0/100 at 24 min, 95/5 at 24.3 min, 95/5 at 32 min
AC$CHROMATOGRAPHY: FLOW_RATE 300 uL/min
AC$CHROMATOGRAPHY: RETENTION_TIME 7.633 min
MS$FOCUSED_ION: BASE_PEAK 325.2286
MS$FOCUSED_ION: PRECURSOR_M/Z 325.2274
MS$FOCUSED_ION: PRECURSOR_TYPE [M]+
MS$FOCUSED_ION: PRECURSOR_INTENSITY 33177502
MS$DATA_PROCESSING: RECALIBRATE loess on assigned fragments and MS1
MS$DATA_PROCESSING: REANALYZE Peaks with additional N2/O included
MS$DATA_PROCESSING: WHOLE RMassBank 3.11.2
PK$SPLASH: splash10-0019-9032000000-d3a3f1c86a440ded54ed
PK$ANNOTATION: m/z tentative_formula formula_count mass error(ppm)
  86.0965 C5H12N+ 1 86.0964 0.54
  91.0543 C7H7+ 1 91.0542 0.6
  233.1647 C14H21N2O+ 1 233.1648 -0.46
  325.2277 C21H29N2O+ 1 325.2274 0.88
PK$NUM_PEAK: 4
PK$PEAK: m/z int. rel.int.
  86.0965 1065685.6 999
  91.0543 424367.5 397
  233.1647 653459.8 612
  325.2277 477459.4 447
//
