ACCESSION: MSBNK-UFZ-UP000510
RECORD_TITLE: Nonaethylene glycol; LC-ESI-ITFT; MS2; CE: 60%; R=15000; [M+Na]+
DATE: 2019.07.31
AUTHORS: Liza-Marie Beckers, Werner Brack, Janek-Paul Dann, Martin Krauss, Erik Mueller, Tobias Schulze, Helmholtz Centre for Environmental Research GmbH - UFZ, Leipzig, Germany
LICENSE: CC0
COPYRIGHT: Copyright (C) 2019
PUBLICATION: Beckers L-M, Brack W, Dann JP, Krauss M, Mueller E, Schulze T, 2020. Unraveling longitudinal pollution patterns of organic micropollutants in a river by non-target screening and cluster analysis. Science of The Total Environment, https://doi.org/10.1016/j.scitotenv.2020.138388
COMMENT: CONFIDENCE Reference Standard (Level 1)
COMMENT: INTERNAL_ID 10
CH$NAME: Nonaethylene glycol
CH$NAME: 2-[2-[2-[2-[2-[2-[2-[2-(2-hydroxyethoxy)ethoxy]ethoxy]ethoxy]ethoxy]ethoxy]ethoxy]ethoxy]ethanol
CH$COMPOUND_CLASS: N/A; Environmental Standard
CH$FORMULA: C18H38O10
CH$EXACT_MASS: 414.2465
CH$SMILES: OCCOCCOCCOCCOCCOCCOCCOCCOCCO
CH$IUPAC: InChI=1S/C18H38O10/c19-1-3-21-5-7-23-9-11-25-13-15-27-17-18-28-16-14-26-12-10-24-8-6-22-4-2-20/h19-20H,1-18H2
CH$LINK: CAS 6155-96-0
CH$LINK: CHEBI CHEBI:39784
CH$LINK: PUBCHEM CID:4867
CH$LINK: INCHIKEY YZUUTMGDONTGTN-UHFFFAOYSA-N
CH$LINK: CHEMSPIDER 4701
AC$INSTRUMENT: LTQ Orbitrap XL Thermo Scientific
AC$INSTRUMENT_TYPE: LC-ESI-ITFT
AC$MASS_SPECTROMETRY: MS_TYPE MS2
AC$MASS_SPECTROMETRY: ION_MODE POSITIVE
AC$MASS_SPECTROMETRY: IONIZATION ESI
AC$MASS_SPECTROMETRY: FRAGMENTATION_MODE CID
AC$MASS_SPECTROMETRY: COLLISION_ENERGY 60 % (nominal)
AC$MASS_SPECTROMETRY: RESOLUTION 15000
AC$CHROMATOGRAPHY: COLUMN_NAME Kinetex Evo C18 2.6 um 50 x 2.1 mm
AC$CHROMATOGRAPHY: FLOW_GRADIENT 95/5 at 0 min, 95/5 at 1 min, 0/100 at 13 min, 0/100 at 24 min, 95/5 at 24.3 min, 95/5/0 at 32 min
AC$CHROMATOGRAPHY: FLOW_RATE 300 uL/min
AC$CHROMATOGRAPHY: RETENTION_TIME 7.277 min
AC$CHROMATOGRAPHY: SOLVENT A water with 0.1% formic acid
AC$CHROMATOGRAPHY: SOLVENT B methanol with 0.1% formic acid
MS$FOCUSED_ION: BASE_PEAK 432.2807
MS$FOCUSED_ION: PRECURSOR_M/Z 437.2357
MS$FOCUSED_ION: PRECURSOR_TYPE [M+Na]+
MS$DATA_PROCESSING: RECALIBRATE loess on assigned fragments and MS1
MS$DATA_PROCESSING: REANALYZE Peaks with additional N2/O included
MS$DATA_PROCESSING: WHOLE RMassBank 2.12.0
PK$SPLASH: splash10-0006-0009000000-e2c4dbc150458532e354
PK$ANNOTATION: m/z tentative_formula formula_count mass error(ppm)
  305.158 C12H26NaO7+ 2 305.1571 3.09
  331.1743 C14H28NaO7+ 2 331.1727 4.71
  349.1841 C14H30NaO8+ 2 349.1833 2.35
  375.2002 C16H32NaO8+ 2 375.1989 3.28
  393.2103 C16H34NaO9+ 2 393.2095 2.05
PK$NUM_PEAK: 5
PK$PEAK: m/z int. rel.int.
  305.158 2218.7 85
  331.1743 2936.3 113
  349.1841 3597.2 139
  375.2002 2783.3 107
  393.2103 25821 999
//
