ACCESSION: MSBNK-UFZ-WANA307625AF82PM
RECORD_TITLE: (Methoxymethyl)triphenylphosphonium; LC-ESI-ITFT; MS2; CE: 90%; R=15000; [M]+
DATE: 2023.08.13
AUTHORS: Tobias Schulze, Martin Krauss, Department of Effect-Directed Analysis, Helmholtz Centre for Environmental Research - UFZ, Leipzig, Germany
LICENSE: CC0
COPYRIGHT: Copyright (C) 2023
COMMENT: CONFIDENCE Reference Standard (Level 1)
CH$NAME: (Methoxymethyl)triphenylphosphonium
CH$NAME: methoxymethyl(triphenyl)phosphanium
CH$COMPOUND_CLASS: N/A; Environmental Standard
CH$FORMULA: C20H20OP
CH$EXACT_MASS: 307.124628310091
CH$SMILES: COC[P+](C1=CC=CC=C1)(C1=CC=CC=C1)C1=CC=CC=C1
CH$IUPAC: InChI=1S/C20H20OP/c1-21-17-22(18-11-5-2-6-12-18,19-13-7-3-8-14-19)20-15-9-4-10-16-20/h2-16H,17H2,1H3/q+1
CH$LINK: PUBCHEM CID:2723799
CH$LINK: INCHIKEY SDMCZCALYDCRBH-UHFFFAOYSA-N
CH$LINK: CHEMSPIDER 2005990
AC$INSTRUMENT: LTQ Orbitrap XL Thermo Scientific
AC$INSTRUMENT_TYPE: LC-ESI-ITFT
AC$MASS_SPECTROMETRY: MS_TYPE MS2
AC$MASS_SPECTROMETRY: ION_MODE POSITIVE
AC$MASS_SPECTROMETRY: IONIZATION ESI
AC$MASS_SPECTROMETRY: FRAGMENTATION_MODE HCD
AC$MASS_SPECTROMETRY: COLLISION_ENERGY 90 % (nominal)
AC$MASS_SPECTROMETRY: RESOLUTION 15000
AC$MASS_SPECTROMETRY: MASS_RANGE_M/Z 50-320
AC$CHROMATOGRAPHY: COLUMN_NAME Kinetex Evo C18 2.6 um 50 x 2.1 mm
AC$CHROMATOGRAPHY: FLOW_GRADIENT 95/5 at 0 min, 95/5 at 1 min, 0/100 at 13 min, 0/100 at 24 min, 95/5 at 24.3 min, 95/5 at 32 min
AC$CHROMATOGRAPHY: FLOW_RATE 300 uL/min
AC$CHROMATOGRAPHY: RETENTION_TIME 7.556 min
MS$FOCUSED_ION: BASE_PEAK 307.1254
MS$FOCUSED_ION: PRECURSOR_M/Z 307.1246
MS$FOCUSED_ION: PRECURSOR_TYPE [M]+
MS$FOCUSED_ION: PRECURSOR_INTENSITY 25181494
MS$DATA_PROCESSING: RECALIBRATE loess on assigned fragments and MS1
MS$DATA_PROCESSING: REANALYZE Peaks with additional N2/O included
MS$DATA_PROCESSING: WHOLE RMassBank 3.11.2
PK$SPLASH: splash10-001i-0900000000-1dc704dc372610fcb230
PK$ANNOTATION: m/z tentative_formula formula_count mass error(ppm)
  79.0543 C6H7+ 1 79.0542 0.3
  91.0543 C7H7+ 1 91.0542 0.33
  107.0045 C6H4P+ 1 107.0045 0.16
  108.0124 C6H5P+ 1 108.0123 0.15
  141.0699 C11H9+ 1 141.0699 0.47
  152.0621 C12H8+ 1 152.0621 0.13
  154.0774 C12H10+ 1 154.0777 -2.18
  159.0358 C10H8P+ 1 159.0358 -0.3
  165.0698 C13H9+ 1 165.0699 -0.2
  170.0282 C11H7P+ 1 170.028 1.32
  183.0357 C12H8P+ 1 183.0358 -0.54
  185.0513 C12H10P+ 1 185.0515 -0.7
  195.0361 C13H8P+ 1 195.0358 1.26
  196.0437 C13H9P+ 1 196.0436 0.5
  197.051 C13H10P+ 1 197.0515 -2.34
  199.0665 C13H12P+ 1 199.0671 -3.27
  261.0825 C18H14P+ 1 261.0828 -0.85
  262.0909 C18H15P+ 1 262.0906 1.08
  263.0983 C18H16P+ 1 263.0984 -0.26
  277.1141 C19H18P+ 1 277.1141 0.07
PK$NUM_PEAK: 20
PK$PEAK: m/z int. rel.int.
  79.0543 3455.8 5
  91.0543 7502 12
  107.0045 27568 47
  108.0124 118862.1 203
  141.0699 11249.6 19
  152.0621 23899.2 40
  154.0774 3746 6
  159.0358 3304 5
  165.0698 9291.9 15
  170.0282 7052.1 12
  183.0357 584393.7 999
  185.0513 58693.8 100
  195.0361 2047.7 3
  196.0437 3384.7 5
  197.051 1919.1 3
  199.0665 4379 7
  261.0825 40608.9 69
  262.0909 4075.1 6
  263.0983 7380.8 12
  277.1141 7329.3 12
//
