ACCESSION: MSBNK-UFZ-WANA061513D9F1PH
RECORD_TITLE: Risperidone; LC-ESI-ITFT; MS2; CE: 50%; R=15000; [M+H]+
DATE: 2023.08.12
AUTHORS: Tobias Schulze, Martin Krauss, Department of Effect-Directed Analysis, Helmholtz Centre for Environmental Research - UFZ, Leipzig, Germany
LICENSE: CC0
COPYRIGHT: Copyright (C) 2023
COMMENT: CONFIDENCE Reference Standard (Level 1)
CH$NAME: Risperidone
CH$NAME: 3-[2-[4-(6-fluoro-1,2-benzoxazol-3-yl)piperidin-1-yl]ethyl]-2-methyl-6,7,8,9-tetrahydropyrido[1,2-a]pyrimidin-4-one
CH$COMPOUND_CLASS: N/A; Environmental Standard
CH$FORMULA: C23H27FN4O2
CH$EXACT_MASS: 410.211804324
CH$SMILES: CC1=C(CCN2CCC(CC2)C2=NOC3=C2C=CC(F)=C3)C(=O)N2CCCCC2=N1
CH$IUPAC: InChI=1S/C23H27FN4O2/c1-15-18(23(29)28-10-3-2-4-21(28)25-15)9-13-27-11-7-16(8-12-27)22-19-6-5-17(24)14-20(19)30-26-22/h5-6,14,16H,2-4,7-13H2,1H3
CH$LINK: CAS 106266-06-2
CH$LINK: CHEBI CHEBI:8871
CH$LINK: KEGG D00426
CH$LINK: PUBCHEM CID:5073
CH$LINK: INCHIKEY RAPZEAPATHNIPO-UHFFFAOYSA-N
CH$LINK: CHEMSPIDER 4895
CH$LINK: COMPTOX DTXSID8045193
AC$INSTRUMENT: LTQ Orbitrap XL Thermo Scientific
AC$INSTRUMENT_TYPE: LC-ESI-ITFT
AC$MASS_SPECTROMETRY: MS_TYPE MS2
AC$MASS_SPECTROMETRY: ION_MODE POSITIVE
AC$MASS_SPECTROMETRY: IONIZATION ESI
AC$MASS_SPECTROMETRY: FRAGMENTATION_MODE HCD
AC$MASS_SPECTROMETRY: COLLISION_ENERGY 50 % (nominal)
AC$MASS_SPECTROMETRY: RESOLUTION 15000
AC$MASS_SPECTROMETRY: MASS_RANGE_M/Z 50-425
AC$CHROMATOGRAPHY: COLUMN_NAME Kinetex Evo C18 2.6 um 50 x 2.1 mm
AC$CHROMATOGRAPHY: FLOW_GRADIENT 95/5 at 0 min, 95/5 at 1 min, 0/100 at 13 min, 0/100 at 24 min, 95/5 at 24.3 min, 95/5 at 32 min
AC$CHROMATOGRAPHY: FLOW_RATE 300 uL/min
AC$CHROMATOGRAPHY: RETENTION_TIME 7.026 min
MS$FOCUSED_ION: BASE_PEAK 411.2202
MS$FOCUSED_ION: PRECURSOR_M/Z 411.2191
MS$FOCUSED_ION: PRECURSOR_TYPE [M+H]+
MS$FOCUSED_ION: PRECURSOR_INTENSITY 49635068
MS$DATA_PROCESSING: RECALIBRATE loess on assigned fragments and MS1
MS$DATA_PROCESSING: REANALYZE Peaks with additional N2/O included
MS$DATA_PROCESSING: WHOLE RMassBank 3.11.2
PK$SPLASH: splash10-0006-0900000000-5f47cdb736c4eedce08e
PK$ANNOTATION: m/z tentative_formula formula_count mass error(ppm)
  110.0602 C6H8NO+ 2 110.06 1.27
  191.1179 C11H15N2O+ 1 191.1179 0.04
  411.2197 C23H28FN4O2+ 1 411.2191 1.5
PK$NUM_PEAK: 3
PK$PEAK: m/z int. rel.int.
  110.0602 59381.9 1
  191.1179 34786488 999
  411.2197 39539.7 1
//
