ACCESSION: MSBNK-UFZ-WANA0363237762PH
RECORD_TITLE: 2-Isopropyl-6-methyl-pyrimidin-4-ol; LC-ESI-ITFT; MS2; CE: 80%; R=15000; [M+H]+
DATE: 2023.08.13
AUTHORS: Tobias Schulze, Martin Krauss, Department of Effect-Directed Analysis, Helmholtz Centre for Environmental Research - UFZ, Leipzig, Germany
LICENSE: CC0
COPYRIGHT: Copyright (C) 2023
COMMENT: CONFIDENCE Reference Standard (Level 1)
CH$NAME: 2-Isopropyl-6-methyl-pyrimidin-4-ol
CH$NAME: CID 17777
CH$NAME: 6-methyl-2-propan-2-yl-1H-pyrimidin-4-one
CH$COMPOUND_CLASS: N/A; Environmental Standard
CH$FORMULA: C8H12N2O
CH$EXACT_MASS: 152.094963004
CH$SMILES: CC(C)C1=NC(C)=CC(=O)N1
CH$IUPAC: InChI=1S/C8H12N2O/c1-5(2)8-9-6(3)4-7(11)10-8/h4-5H,1-3H3,(H,9,10,11)
CH$LINK: CAS 2814-20-2
CH$LINK: CHEBI CHEBI:38629
CH$LINK: PUBCHEM CID:17777
CH$LINK: INCHIKEY AJPIUNPJBFBUKK-UHFFFAOYSA-N
CH$LINK: CHEMSPIDER 16799
CH$LINK: COMPTOX DTXSID1027502
AC$INSTRUMENT: LTQ Orbitrap XL Thermo Scientific
AC$INSTRUMENT_TYPE: LC-ESI-ITFT
AC$MASS_SPECTROMETRY: MS_TYPE MS2
AC$MASS_SPECTROMETRY: ION_MODE POSITIVE
AC$MASS_SPECTROMETRY: IONIZATION ESI
AC$MASS_SPECTROMETRY: FRAGMENTATION_MODE HCD
AC$MASS_SPECTROMETRY: COLLISION_ENERGY 80 % (nominal)
AC$MASS_SPECTROMETRY: RESOLUTION 15000
AC$MASS_SPECTROMETRY: MASS_RANGE_M/Z 50-165
AC$CHROMATOGRAPHY: COLUMN_NAME Kinetex Evo C18 2.6 um 50 x 2.1 mm
AC$CHROMATOGRAPHY: FLOW_GRADIENT 95/5 at 0 min, 95/5 at 1 min, 0/100 at 13 min, 0/100 at 24 min, 95/5 at 24.3 min, 95/5 at 32 min
AC$CHROMATOGRAPHY: FLOW_RATE 300 uL/min
AC$CHROMATOGRAPHY: RETENTION_TIME 1.545 min
MS$FOCUSED_ION: BASE_PEAK 153.1028
MS$FOCUSED_ION: PRECURSOR_M/Z 153.1022
MS$FOCUSED_ION: PRECURSOR_TYPE [M+H]+
MS$FOCUSED_ION: PRECURSOR_INTENSITY 18562942
MS$DATA_PROCESSING: RECALIBRATE loess on assigned fragments and MS1
MS$DATA_PROCESSING: REANALYZE Peaks with additional N2/O included
MS$DATA_PROCESSING: WHOLE RMassBank 3.11.2
PK$SPLASH: splash10-001i-9200000000-790e66bb718206d0bd8e
PK$ANNOTATION: m/z tentative_formula formula_count mass error(ppm)
  56.0493 C3H6N+ 1 56.0495 -3.8
  67.0178 C4H3O+ 1 67.0178 -0.07
  70.065 C4H8N+ 1 70.0651 -1.95
  84.0443 C4H6NO+ 1 84.0444 -0.59
  108.0806 C7H10N+ 1 108.0808 -1.26
  112.0756 C6H10NO+ 1 112.0757 -0.38
  136.0759 C8H10NO+ 1 136.0757 1.7
  137.071 C7H9N2O+ 1 137.0709 0.49
  138.0788 C7H10N2O+ 1 138.0788 0.37
  153.1022 C8H13N2O+ 1 153.1022 0.05
PK$NUM_PEAK: 10
PK$PEAK: m/z int. rel.int.
  56.0493 6428.9 2
  67.0178 4976.7 1
  70.065 896011.1 349
  84.0443 2558506.5 999
  108.0806 5626.3 2
  112.0756 5618.8 2
  136.0759 3554.3 1
  137.071 18589.1 7
  138.0788 31021.3 12
  153.1022 1057875.6 413
//
