ACCESSION: MSBNK-UFZ-WANA239011C9CFPH
RECORD_TITLE: Propyzamide; LC-ESI-ITFT; MS2; CE: 40%; R=15000; [M+H]+
DATE: 2023.08.12
AUTHORS: Tobias Schulze, Martin Krauss, Department of Effect-Directed Analysis, Helmholtz Centre for Environmental Research - UFZ, Leipzig, Germany
LICENSE: CC0
COPYRIGHT: Copyright (C) 2023
COMMENT: CONFIDENCE Reference Standard (Level 1)
CH$NAME: Propyzamide
CH$NAME: 3,5-dichloro-N-(2-methylbut-3-yn-2-yl)benzamide
CH$COMPOUND_CLASS: N/A; Environmental Standard
CH$FORMULA: C12H11Cl2NO
CH$EXACT_MASS: 255.021769332
CH$SMILES: CC(C)(NC(=O)C1=CC(Cl)=CC(Cl)=C1)C#C
CH$IUPAC: InChI=1S/C12H11Cl2NO/c1-4-12(2,3)15-11(16)8-5-9(13)7-10(14)6-8/h1,5-7H,2-3H3,(H,15,16)
CH$LINK: CAS 11097-11-3
CH$LINK: CHEBI CHEBI:34935
CH$LINK: KEGG C14333
CH$LINK: PUBCHEM CID:32154
CH$LINK: INCHIKEY PHNUZKMIPFFYSO-UHFFFAOYSA-N
CH$LINK: CHEMSPIDER 29822
CH$LINK: COMPTOX DTXSID2020420
AC$INSTRUMENT: LTQ Orbitrap XL Thermo Scientific
AC$INSTRUMENT_TYPE: LC-ESI-ITFT
AC$MASS_SPECTROMETRY: MS_TYPE MS2
AC$MASS_SPECTROMETRY: ION_MODE POSITIVE
AC$MASS_SPECTROMETRY: IONIZATION ESI
AC$MASS_SPECTROMETRY: FRAGMENTATION_MODE HCD
AC$MASS_SPECTROMETRY: COLLISION_ENERGY 40 % (nominal)
AC$MASS_SPECTROMETRY: RESOLUTION 15000
AC$MASS_SPECTROMETRY: MASS_RANGE_M/Z 50-270
AC$CHROMATOGRAPHY: COLUMN_NAME Kinetex Evo C18 2.6 um 50 x 2.1 mm
AC$CHROMATOGRAPHY: FLOW_GRADIENT 95/5 at 0 min, 95/5 at 1 min, 0/100 at 13 min, 0/100 at 24 min, 95/5 at 24.3 min, 95/5 at 32 min
AC$CHROMATOGRAPHY: FLOW_RATE 300 uL/min
AC$CHROMATOGRAPHY: RETENTION_TIME 11.075 min
MS$FOCUSED_ION: BASE_PEAK 230.1171
MS$FOCUSED_ION: PRECURSOR_M/Z 256.029
MS$FOCUSED_ION: PRECURSOR_TYPE [M+H]+
MS$FOCUSED_ION: PRECURSOR_INTENSITY 9818008
MS$DATA_PROCESSING: RECALIBRATE loess on assigned fragments and MS1
MS$DATA_PROCESSING: REANALYZE Peaks with additional N2/O included
MS$DATA_PROCESSING: WHOLE RMassBank 3.11.2
PK$SPLASH: splash10-059i-0930000000-91792a52e1600013bdf8
PK$ANNOTATION: m/z tentative_formula formula_count mass error(ppm)
  65.0383 C5H5+ 1 65.0386 -4.21
  67.054 C5H7+ 1 67.0542 -4.07
  85.0646 C5H9O+ 1 85.0648 -2.44
  146.9762 C6H5Cl2+ 1 146.9763 -0.68
  171.9716 C7H4Cl2N+ 2 171.9715 0.32
  172.9553 C7H3Cl2O+ 1 172.9555 -1.32
  189.9818 C7H6Cl2NO+ 1 189.9821 -1.45
  256.0287 C12H12Cl2NO+ 1 256.029 -1.28
PK$NUM_PEAK: 8
PK$PEAK: m/z int. rel.int.
  65.0383 11650.1 30
  67.054 34781.2 90
  85.0646 5555.5 14
  146.9762 5581.1 14
  171.9716 2921.2 7
  172.9553 328266.9 854
  189.9818 383935.7 999
  256.0287 311495.4 810
//
