ACCESSION: MSBNK-UFZ-UF400903
RECORD_TITLE: Imazalil; LC-ESI-ITFT; MS2; CE: 35; R=15000; [M+H]+
DATE: 2017.01.05
AUTHORS: Schulze T, Krauss M, Department of Effect-Directed Analysis, Helmholtz Centre for Environmental Research - UFZ GmbH, Leipzig, Germany
LICENSE: CC BY
COPYRIGHT: Copyright (C) 2017
COMMENT: CONFIDENCE standard compound
COMMENT: INTERNAL_ID 4009
CH$NAME: Imazalil
CH$NAME: 1-[2-(2,4-Dichlorophenyl)-2-prop-2-enoxyethyl]imidazole
CH$COMPOUND_CLASS: N/A; Environmental Standard
CH$FORMULA: C14H14Cl2N2O
CH$EXACT_MASS: 296.0483
CH$SMILES: ClC1=CC=C(C(CN2C=CN=C2)OCC=C)C(Cl)=C1
CH$IUPAC: InChI=1S/C14H14Cl2N2O/c1-2-7-19-14(9-18-6-5-17-10-18)12-4-3-11(15)8-13(12)16/h2-6,8,10,14H,1,7,9H2
CH$LINK: CAS 35554-44-0
CH$LINK: CHEBI CHEBI:83829
CH$LINK: KEGG C18739
CH$LINK: PUBCHEM CID:37175
CH$LINK: INCHIKEY PZBPKYOVPCNPJY-UHFFFAOYSA-N
CH$LINK: CHEMSPIDER 34116
CH$LINK: COMPTOX DTXSID8024151
AC$INSTRUMENT: LTQ Orbitrap XL Thermo Scientific
AC$INSTRUMENT_TYPE: LC-ESI-ITFT
AC$MASS_SPECTROMETRY: MS_TYPE MS2
AC$MASS_SPECTROMETRY: ION_MODE POSITIVE
AC$MASS_SPECTROMETRY: IONIZATION ESI
AC$MASS_SPECTROMETRY: FRAGMENTATION_MODE CID
AC$MASS_SPECTROMETRY: COLLISION_ENERGY 35 (nominal)
AC$MASS_SPECTROMETRY: RESOLUTION 15000
AC$CHROMATOGRAPHY: COLUMN_NAME Kinetex Core-Shell C18 2.6 um, 3.0 x 100 mm, Phenomenex
AC$CHROMATOGRAPHY: FLOW_GRADIENT 90/10 at 0 min, 80/20 at 3.2 min, 5/95 at 17.8 min, 5/95 at 37.8 min, 90/10 at 37.9 min, 90/10 at 47 min
AC$CHROMATOGRAPHY: FLOW_RATE 200 uL/min
AC$CHROMATOGRAPHY: RETENTION_TIME 21.338 min
AC$CHROMATOGRAPHY: SOLVENT A water with 0.1% formic acid
AC$CHROMATOGRAPHY: SOLVENT B methanol with 0.1% formic acid
MS$FOCUSED_ION: BASE_PEAK 163.1326
MS$FOCUSED_ION: PRECURSOR_M/Z 297.0556
MS$FOCUSED_ION: PRECURSOR_TYPE [M+H]+
MS$DATA_PROCESSING: RECALIBRATE loess on assigned fragments and MS1
MS$DATA_PROCESSING: REANALYZE Peaks with additional N2/O included
MS$DATA_PROCESSING: WHOLE RMassBank 2.2.1
PK$SPLASH: splash10-0pb9-0490000000-b6d420f7f6624b53a03f
PK$ANNOTATION: m/z tentative_formula formula_count mass error(ppm)
  109.0759 C6H9N2+ 1 109.076 -0.95
  149.0153 C9H6Cl+ 1 149.0153 0.58
  158.9761 C7H5Cl2+ 1 158.9763 -0.88
  164.0385 C10H9Cl+ 1 164.0387 -1.24
  172.9919 C8H7Cl2+ 1 172.9919 -0.33
  175.0311 C11H8Cl+ 1 175.0309 1.24
  176.0386 C11H9Cl+ 1 176.0387 -0.71
  184.9918 C9H7Cl2+ 1 184.9919 -0.97
  186.9702 C9ClN2O+ 1 186.9694 4.25
  188.0946 C11H12N2O+ 1 188.0944 1.16
  199.0075 C10H9Cl2+ 1 199.0076 -0.27
  200.9867 C9H7Cl2O+ 1 200.9868 -0.72
  211.0075 C11H9Cl2+ 1 211.0076 -0.52
  229.018 C11H11Cl2O+ 1 229.0181 -0.85
  255.0085 C11H9Cl2N2O+ 1 255.0086 -0.38
PK$NUM_PEAK: 15
PK$PEAK: m/z int. rel.int.
  109.0759 90775.5 39
  149.0153 10940.2 4
  158.9761 781106.1 336
  164.0385 5678.6 2
  172.9919 201947 86
  175.0311 24210.5 10
  176.0386 530271 228
  184.9918 169066.3 72
  186.9702 5380.3 2
  188.0946 10684.5 4
  199.0075 97037.9 41
  200.9867 1696351.9 729
  211.0075 148107.1 63
  229.018 98115.3 42
  255.0085 2322339.2 999
//
