ACCESSION: MSBNK-UFZ-WANA126813D9F1PH
RECORD_TITLE: Isophorone; LC-ESI-ITFT; MS2; CE: 50%; R=15000; [M+H]+
DATE: 2023.08.12
AUTHORS: Tobias Schulze, Martin Krauss, Department of Effect-Directed Analysis, Helmholtz Centre for Environmental Research - UFZ, Leipzig, Germany
LICENSE: CC0
COPYRIGHT: Copyright (C) 2023
COMMENT: CONFIDENCE Reference Standard (Level 1)
CH$NAME: Isophorone
CH$NAME: 3,5,5-trimethylcyclohex-2-en-1-one
CH$COMPOUND_CLASS: N/A; Environmental Standard
CH$FORMULA: C9H14O
CH$EXACT_MASS: 138.104465068
CH$SMILES: CC1=CC(=O)CC(C)(C)C1
CH$IUPAC: InChI=1S/C9H14O/c1-7-4-8(10)6-9(2,3)5-7/h4H,5-6H2,1-3H3
CH$LINK: CAS 78-59-1
CH$LINK: CHEBI CHEBI:34800
CH$LINK: KEGG C14743
CH$LINK: PUBCHEM CID:6544
CH$LINK: INCHIKEY HJOVHMDZYOCNQW-UHFFFAOYSA-N
CH$LINK: CHEMSPIDER 6296
CH$LINK: COMPTOX DTXSID8020759
AC$INSTRUMENT: LTQ Orbitrap XL Thermo Scientific
AC$INSTRUMENT_TYPE: LC-ESI-ITFT
AC$MASS_SPECTROMETRY: MS_TYPE MS2
AC$MASS_SPECTROMETRY: ION_MODE POSITIVE
AC$MASS_SPECTROMETRY: IONIZATION ESI
AC$MASS_SPECTROMETRY: FRAGMENTATION_MODE HCD
AC$MASS_SPECTROMETRY: COLLISION_ENERGY 50 % (nominal)
AC$MASS_SPECTROMETRY: RESOLUTION 15000
AC$MASS_SPECTROMETRY: MASS_RANGE_M/Z 50-150
AC$CHROMATOGRAPHY: COLUMN_NAME Kinetex Evo C18 2.6 um 50 x 2.1 mm
AC$CHROMATOGRAPHY: FLOW_GRADIENT 95/5 at 0 min, 95/5 at 1 min, 0/100 at 13 min, 0/100 at 24 min, 95/5 at 24.3 min, 95/5 at 32 min
AC$CHROMATOGRAPHY: FLOW_RATE 300 uL/min
AC$CHROMATOGRAPHY: RETENTION_TIME 8.532 min
MS$FOCUSED_ION: BASE_PEAK 139.1118
MS$FOCUSED_ION: PRECURSOR_M/Z 139.1117
MS$FOCUSED_ION: PRECURSOR_TYPE [M+H]+
MS$FOCUSED_ION: PRECURSOR_INTENSITY 25727030
MS$DATA_PROCESSING: RECALIBRATE loess on assigned fragments and MS1
MS$DATA_PROCESSING: REANALYZE Peaks with additional N2/O included
MS$DATA_PROCESSING: WHOLE RMassBank 3.11.2
PK$SPLASH: splash10-000i-4900000000-ce84454a4a945fb18572
PK$ANNOTATION: m/z tentative_formula formula_count mass error(ppm)
  69.0332 C4H5O+ 1 69.0335 -4.93
  79.054 C6H7+ 1 79.0542 -2.63
  81.0696 C6H9+ 1 81.0699 -3.19
  83.0489 C5H7O+ 1 83.0491 -3.16
  91.0541 C7H7+ 1 91.0542 -1.64
  93.0696 C7H9+ 1 93.0699 -2.69
  95.0853 C7H11+ 1 95.0855 -2.66
  97.0645 C6H9O+ 1 97.0648 -2.63
  97.1009 C7H13+ 1 97.1012 -2.56
  105.0696 C8H9+ 1 105.0699 -2.53
  109.1008 C8H13+ 1 109.1012 -3.02
  111.0803 C7H11O+ 1 111.0804 -1.72
  121.1008 C9H13+ 1 121.1012 -2.79
  139.1114 C9H15O+ 1 139.1117 -2.79
PK$NUM_PEAK: 14
PK$PEAK: m/z int. rel.int.
  69.0332 2024801.5 387
  79.054 25085.5 4
  81.0696 33629.4 6
  83.0489 210505.5 40
  91.0541 8030.4 1
  93.0696 129406 24
  95.0853 112779.5 21
  97.0645 315798.4 60
  97.1009 16545.5 3
  105.0696 31019.1 5
  109.1008 9759.7 1
  111.0803 20090 3
  121.1008 375158.9 71
  139.1114 5220732 999
//
