ACCESSION: MSBNK-UFZ-WANA243213D9F1PH
RECORD_TITLE: 2(4-morpholinyl)benzothiazole; LC-ESI-ITFT; MS2; CE: 50%; R=15000; [M+H]+
DATE: 2023.08.12
AUTHORS: Tobias Schulze, Martin Krauss, Department of Effect-Directed Analysis, Helmholtz Centre for Environmental Research - UFZ, Leipzig, Germany
LICENSE: CC0
COPYRIGHT: Copyright (C) 2023
COMMENT: CONFIDENCE Reference Standard (Level 1)
CH$NAME: 2(4-morpholinyl)benzothiazole
CH$NAME: 2-(4-Morpholinyl)benzothiazole
CH$NAME: 4-(1,3-benzothiazol-2-yl)morpholine
CH$COMPOUND_CLASS: N/A; Environmental Standard
CH$FORMULA: C11H12N2OS
CH$EXACT_MASS: 220.067034004
CH$SMILES: C1CN(CCO1)C1=NC2=CC=CC=C2S1
CH$IUPAC: InChI=1S/C11H12N2OS/c1-2-4-10-9(3-1)12-11(15-10)13-5-7-14-8-6-13/h1-4H,5-8H2
CH$LINK: CAS 4225-26-7
CH$LINK: CHEBI CHEBI:181575
CH$LINK: PUBCHEM CID:77901
CH$LINK: INCHIKEY VVUVJGRVEYHIHC-UHFFFAOYSA-N
CH$LINK: CHEMSPIDER 70292
CH$LINK: COMPTOX DTXSID90891505
AC$INSTRUMENT: LTQ Orbitrap XL Thermo Scientific
AC$INSTRUMENT_TYPE: LC-ESI-ITFT
AC$MASS_SPECTROMETRY: MS_TYPE MS2
AC$MASS_SPECTROMETRY: ION_MODE POSITIVE
AC$MASS_SPECTROMETRY: IONIZATION ESI
AC$MASS_SPECTROMETRY: FRAGMENTATION_MODE HCD
AC$MASS_SPECTROMETRY: COLLISION_ENERGY 50 % (nominal)
AC$MASS_SPECTROMETRY: RESOLUTION 15000
AC$MASS_SPECTROMETRY: MASS_RANGE_M/Z 50-235
AC$CHROMATOGRAPHY: COLUMN_NAME Kinetex Evo C18 2.6 um 50 x 2.1 mm
AC$CHROMATOGRAPHY: FLOW_GRADIENT 95/5 at 0 min, 95/5 at 1 min, 0/100 at 13 min, 0/100 at 24 min, 95/5 at 24.3 min, 95/5 at 32 min
AC$CHROMATOGRAPHY: FLOW_RATE 300 uL/min
AC$CHROMATOGRAPHY: RETENTION_TIME 9.220 min
MS$FOCUSED_ION: BASE_PEAK 221.0749
MS$FOCUSED_ION: PRECURSOR_M/Z 221.0743
MS$FOCUSED_ION: PRECURSOR_TYPE [M+H]+
MS$FOCUSED_ION: PRECURSOR_INTENSITY 34178508
MS$DATA_PROCESSING: RECALIBRATE loess on assigned fragments and MS1
MS$DATA_PROCESSING: REANALYZE Peaks with additional N2/O included
MS$DATA_PROCESSING: WHOLE RMassBank 3.11.2
PK$SPLASH: splash10-00di-0290000000-53ea0b954084832190cf
PK$ANNOTATION: m/z tentative_formula formula_count mass error(ppm)
  109.0109 C6H5S+ 1 109.0106 2.29
  117.0574 C8H7N+ 1 117.0573 0.92
  124.0216 C6H6NS+ 1 124.0215 0.24
  136.0217 C7H6NS+ 1 136.0215 0.82
  150.0373 C8H8NS+ 1 150.0372 0.68
  175.0326 C9H7N2S+ 1 175.0324 0.88
  177.0482 C9H9N2S+ 1 177.0481 0.46
  203.0639 C11H11N2S+ 1 203.0637 0.65
  219.0591 C11H11N2OS+ 1 219.0587 2.2
  221.0744 C11H13N2OS+ 1 221.0743 0.41
PK$NUM_PEAK: 10
PK$PEAK: m/z int. rel.int.
  109.0109 7566.6 1
  117.0574 10973.2 1
  124.0216 10416.8 1
  136.0217 142737.6 19
  150.0373 205660.7 28
  175.0326 16262.1 2
  177.0482 1548328.5 210
  203.0639 31263.4 4
  219.0591 22368.5 3
  221.0744 7335342.5 999
//
