ACCESSION: MSBNK-UFZ-UF405354
RECORD_TITLE: Metolachlor OA; LC-ESI-ITFT; MS2; CE: 55; R=15000; [M-H]-
DATE: 2017.01.05
AUTHORS: Schulze T, Krauss M, Department of Effect-Directed Analysis, Helmholtz Centre for Environmental Research - UFZ GmbH, Leipzig, Germany
LICENSE: CC BY
COPYRIGHT: Copyright (C) 2017
COMMENT: CONFIDENCE standard compound
COMMENT: INTERNAL_ID 4053
CH$NAME: Metolachlor OA
CH$NAME: 2-[2-Ethyl-N-(1-methoxypropan-2-yl)-6-methylanilino]-2-oxoacetic acid
CH$COMPOUND_CLASS: N/A; Environmental Standard
CH$FORMULA: C15H21NO4
CH$EXACT_MASS: 279.1471
CH$SMILES: CCC1=C(N(C(C)COC)C(=O)C(O)=O)C(C)=CC=C1
CH$IUPAC: InChI=1S/C15H21NO4/c1-5-12-8-6-7-10(2)13(12)16(11(3)9-20-4)14(17)15(18)19/h6-8,11H,5,9H2,1-4H3,(H,18,19)
CH$LINK: CAS 152019-73-3
CH$LINK: CHEBI CHEBI:83652
CH$LINK: PUBCHEM CID:15842092
CH$LINK: INCHIKEY LNOOSYCKMKZOJB-UHFFFAOYSA-N
CH$LINK: CHEMSPIDER 21170688
CH$LINK: COMPTOX DTXSID6037568
AC$INSTRUMENT: LTQ Orbitrap XL Thermo Scientific
AC$INSTRUMENT_TYPE: LC-ESI-ITFT
AC$MASS_SPECTROMETRY: MS_TYPE MS2
AC$MASS_SPECTROMETRY: ION_MODE NEGATIVE
AC$MASS_SPECTROMETRY: IONIZATION ESI
AC$MASS_SPECTROMETRY: FRAGMENTATION_MODE CID
AC$MASS_SPECTROMETRY: COLLISION_ENERGY 55 (nominal)
AC$MASS_SPECTROMETRY: RESOLUTION 15000
AC$CHROMATOGRAPHY: COLUMN_NAME Kinetex Core-Shell C18 2.6 um, 3.0 x 100 mm, Phenomenex
AC$CHROMATOGRAPHY: FLOW_GRADIENT 90/10 at 0 min, 80/20 at 3.2 min, 5/95 at 17.8 min, 5/95 at 37.8 min, 90/10 at 37.9 min, 90/10 at 47 min
AC$CHROMATOGRAPHY: FLOW_RATE 200 uL/min
AC$CHROMATOGRAPHY: RETENTION_TIME 23.786 min
AC$CHROMATOGRAPHY: SOLVENT A water with 0.1% formic acid
AC$CHROMATOGRAPHY: SOLVENT B methanol with 0.1% formic acid
MS$FOCUSED_ION: BASE_PEAK 278.14
MS$FOCUSED_ION: PRECURSOR_M/Z 278.1398
MS$FOCUSED_ION: PRECURSOR_TYPE [M-H]-
MS$DATA_PROCESSING: RECALIBRATE loess on assigned fragments and MS1
MS$DATA_PROCESSING: REANALYZE Peaks with additional N2/O included
MS$DATA_PROCESSING: WHOLE RMassBank 2.2.1
PK$SPLASH: splash10-0a4i-0090000000-215133795fe6327908e6
PK$ANNOTATION: m/z tentative_formula formula_count mass error(ppm)
  199.1325 C9H17N3O2- 1 199.1326 -0.45
  206.155 C13H20NO- 1 206.155 -0.36
PK$NUM_PEAK: 2
PK$PEAK: m/z int. rel.int.
  199.1325 8355.4 19
  206.155 422112.3 999
//
