ACCESSION: MSBNK-UFZ-UP000105
RECORD_TITLE: Gabapentin-lactam; LC-ESI-ITFT; MS2; CE: 65%; R=15000; [M+H]+
DATE: 2019.07.31
AUTHORS: Liza-Marie Beckers, Werner Brack, Janek-Paul Dann, Martin Krauss, Erik Mueller, Tobias Schulze, Helmholtz Centre for Environmental Research GmbH - UFZ, Leipzig, Germany
LICENSE: CC0
COPYRIGHT: Copyright (C) 2019
PUBLICATION: Beckers L-M, Brack W, Dann JP, Krauss M, Mueller E, Schulze T, 2020. Unraveling longitudinal pollution patterns of organic micropollutants in a river by non-target screening and cluster analysis. Science of The Total Environment, https://doi.org/10.1016/j.scitotenv.2020.138388
COMMENT: CONFIDENCE Reference Standard (Level 1)
COMMENT: INTERNAL_ID 7
CH$NAME: Gabapentin-lactam
CH$NAME: 2-azaspiro[4.5]decan-3-one
CH$COMPOUND_CLASS: N/A; Environmental Standard
CH$FORMULA: C9H15NO
CH$EXACT_MASS: 153.1154
CH$SMILES: O=C1CC2(CN1)CCCCC2
CH$IUPAC: InChI=1S/C9H15NO/c11-8-6-9(7-10-8)4-2-1-3-5-9/h1-7H2,(H,10,11)
CH$LINK: CAS 64744-50-9
CH$LINK: PUBCHEM CID:47457
CH$LINK: INCHIKEY JAWPQJDOQPSNIQ-UHFFFAOYSA-N
CH$LINK: CHEMSPIDER 43180
AC$INSTRUMENT: LTQ Orbitrap XL Thermo Scientific
AC$INSTRUMENT_TYPE: LC-ESI-ITFT
AC$MASS_SPECTROMETRY: MS_TYPE MS2
AC$MASS_SPECTROMETRY: ION_MODE POSITIVE
AC$MASS_SPECTROMETRY: IONIZATION ESI
AC$MASS_SPECTROMETRY: FRAGMENTATION_MODE HCD
AC$MASS_SPECTROMETRY: COLLISION_ENERGY 65 % (nominal)
AC$MASS_SPECTROMETRY: RESOLUTION 15000
AC$CHROMATOGRAPHY: COLUMN_NAME Kinetex Evo C18 2.6 um 50 x 2.1 mm
AC$CHROMATOGRAPHY: FLOW_GRADIENT 95/5 at 0 min, 95/5 at 1 min, 0/100 at 13 min, 0/100 at 24 min, 95/5 at 24.3 min, 95/5/0 at 32 min
AC$CHROMATOGRAPHY: FLOW_RATE 300 uL/min
AC$CHROMATOGRAPHY: RETENTION_TIME 8.060 min
AC$CHROMATOGRAPHY: SOLVENT A water with 0.1% formic acid
AC$CHROMATOGRAPHY: SOLVENT B methanol with 0.1% formic acid
MS$FOCUSED_ION: BASE_PEAK 154.1225
MS$FOCUSED_ION: PRECURSOR_M/Z 154.1226
MS$FOCUSED_ION: PRECURSOR_TYPE [M+H]+
MS$DATA_PROCESSING: RECALIBRATE loess on assigned fragments and MS1
MS$DATA_PROCESSING: REANALYZE Peaks with additional N2/O included
MS$DATA_PROCESSING: WHOLE RMassBank 2.12.0
PK$SPLASH: splash10-0udi-2900000000-34164680dfb4b0df0a8d
PK$ANNOTATION: m/z tentative_formula formula_count mass error(ppm)
  60.0442 C2H6NO+ 1 60.0444 -3.9
  67.0541 C5H7+ 1 67.0542 -1.69
  69.0698 C5H9+ 1 69.0699 -1.52
  72.0444 C3H6NO+ 1 72.0444 -0.38
  81.0699 C6H9+ 1 81.0699 -0.07
  91.0543 C7H7+ 1 91.0542 0.32
  93.0699 C7H9+ 1 93.0699 0.07
  95.0855 C7H11+ 1 95.0855 -0.25
  109.1012 C8H13+ 1 109.1012 0.18
  112.1121 C7H14N+ 1 112.1121 -0.17
  119.0856 C9H11+ 1 119.0855 0.42
  137.0965 C9H13O+ 1 137.0961 2.91
  154.1226 C9H16NO+ 1 154.1226 -0.54
PK$NUM_PEAK: 13
PK$PEAK: m/z int. rel.int.
  60.0442 23814.5 2
  67.0541 202324.9 19
  69.0698 42293.7 3
  72.0444 75527.9 7
  81.0699 13923.4 1
  91.0543 86864.6 8
  93.0699 142728.5 13
  95.0855 1865701 175
  109.1012 119666.1 11
  112.1121 100602.3 9
  119.0856 76814.9 7
  137.0965 27412.8 2
  154.1226 10593629 999
//
