ACCESSION: MSBNK-UFZ-WANA220403B085PH
RECORD_TITLE: Terbinafine; LC-ESI-ITFT; MS2; CE: 20%; R=15000; [M+H]+
DATE: 2023.08.12
AUTHORS: Tobias Schulze, Martin Krauss, Department of Effect-Directed Analysis, Helmholtz Centre for Environmental Research - UFZ, Leipzig, Germany
LICENSE: CC0
COPYRIGHT: Copyright (C) 2023
COMMENT: CONFIDENCE Reference Standard (Level 1)
CH$NAME: Terbinafine
CH$NAME: (E)-N,6,6-trimethyl-N-(naphthalen-1-ylmethyl)hept-2-en-4-yn-1-amine
CH$COMPOUND_CLASS: N/A; Environmental Standard
CH$FORMULA: C21H25N
CH$EXACT_MASS: 291.1986998
CH$SMILES: CN(C\C=C\C#CC(C)(C)C)CC1=CC=CC2=CC=CC=C12
CH$IUPAC: InChI=1S/C21H25N/c1-21(2,3)15-8-5-9-16-22(4)17-19-13-10-12-18-11-6-7-14-20(18)19/h5-7,9-14H,16-17H2,1-4H3/b9-5+
CH$LINK: CAS 91161-71-6
CH$LINK: CHEBI CHEBI:9448
CH$LINK: KEGG D02375
CH$LINK: PUBCHEM CID:1549008
CH$LINK: INCHIKEY DOMXUEMWDBAQBQ-WEVVVXLNSA-N
CH$LINK: CHEMSPIDER 1266005
CH$LINK: COMPTOX DTXSID2023640
AC$INSTRUMENT: LTQ Orbitrap XL Thermo Scientific
AC$INSTRUMENT_TYPE: LC-ESI-ITFT
AC$MASS_SPECTROMETRY: MS_TYPE MS2
AC$MASS_SPECTROMETRY: ION_MODE POSITIVE
AC$MASS_SPECTROMETRY: IONIZATION ESI
AC$MASS_SPECTROMETRY: FRAGMENTATION_MODE HCD
AC$MASS_SPECTROMETRY: COLLISION_ENERGY 20 % (nominal)
AC$MASS_SPECTROMETRY: RESOLUTION 15000
AC$MASS_SPECTROMETRY: MASS_RANGE_M/Z 50-305
AC$CHROMATOGRAPHY: COLUMN_NAME Kinetex Evo C18 2.6 um 50 x 2.1 mm
AC$CHROMATOGRAPHY: FLOW_GRADIENT 95/5 at 0 min, 95/5 at 1 min, 0/100 at 13 min, 0/100 at 24 min, 95/5 at 24.3 min, 95/5 at 32 min
AC$CHROMATOGRAPHY: FLOW_RATE 300 uL/min
AC$CHROMATOGRAPHY: RETENTION_TIME 9.613 min
MS$FOCUSED_ION: BASE_PEAK 292.2068
MS$FOCUSED_ION: PRECURSOR_M/Z 292.206
MS$FOCUSED_ION: PRECURSOR_TYPE [M+H]+
MS$FOCUSED_ION: PRECURSOR_INTENSITY 112828384
MS$DATA_PROCESSING: RECALIBRATE loess on assigned fragments and MS1
MS$DATA_PROCESSING: REANALYZE Peaks with additional N2/O included
MS$DATA_PROCESSING: WHOLE RMassBank 3.11.2
PK$SPLASH: splash10-0006-0490000000-d8f322d1cb8eb91105b0
PK$ANNOTATION: m/z tentative_formula formula_count mass error(ppm)
  79.0541 C6H7+ 1 79.0542 -1.59
  91.0543 C7H7+ 1 91.0542 0.65
  93.0698 C7H9+ 1 93.0699 -0.47
  105.0699 C8H9+ 1 105.0699 0.28
  121.1012 C9H13+ 1 121.1012 -0.1
  141.0698 C11H9+ 1 141.0699 -0.27
  150.1277 C10H16N+ 1 150.1277 0.05
  165.0701 C13H9+ 1 165.0699 1.27
  170.0963 C12H12N+ 1 170.0964 -0.49
  179.0856 C14H11+ 1 179.0855 0.26
  193.1015 C15H13+ 1 193.1012 1.61
  205.1013 C16H13+ 1 205.1012 0.43
  219.1162 C17H15+ 1 219.1168 -2.76
  236.143 C17H18N+ 1 236.1434 -1.43
  249.1637 C19H21+ 1 249.1638 -0.28
  261.1639 C20H21+ 1 261.1638 0.29
  292.2058 C21H26N+ 1 292.206 -0.52
PK$NUM_PEAK: 17
PK$PEAK: m/z int. rel.int.
  79.0541 63425.6 2
  91.0543 89282.2 3
  93.0698 1114995.8 49
  105.0699 100805.1 4
  121.1012 325186.2 14
  141.0698 11242622 497
  150.1277 379459.3 16
  165.0701 42559.1 1
  170.0963 530189.8 23
  179.0856 89899.9 3
  193.1015 42871.8 1
  205.1013 376091.4 16
  219.1162 44730.4 1
  236.143 119665 5
  249.1637 69253 3
  261.1639 190964.7 8
  292.2058 22591558 999
//
