ACCESSION: MSBNK-UFZ-WANA2483155BE0PH
RECORD_TITLE: Acridone; LC-ESI-ITFT; MS2; CE: 60%; R=15000; [M+H]+
DATE: 2023.08.12
AUTHORS: Tobias Schulze, Martin Krauss, Department of Effect-Directed Analysis, Helmholtz Centre for Environmental Research - UFZ, Leipzig, Germany
LICENSE: CC0
COPYRIGHT: Copyright (C) 2023
COMMENT: CONFIDENCE Reference Standard (Level 1)
CH$NAME: Acridone
CH$NAME: 10H-acridin-9-one
CH$COMPOUND_CLASS: N/A; Environmental Standard
CH$FORMULA: C13H9NO
CH$EXACT_MASS: 195.068413908
CH$SMILES: O=C1C2=CC=CC=C2NC2=CC=CC=C12
CH$IUPAC: InChI=1S/C13H9NO/c15-13-9-5-1-3-7-11(9)14-12-8-4-2-6-10(12)13/h1-8H,(H,14,15)
CH$LINK: CAS 578-95-0
CH$LINK: CHEBI CHEBI:50756
CH$LINK: KEGG C20142
CH$LINK: PUBCHEM CID:2015
CH$LINK: INCHIKEY FZEYVTFCMJSGMP-UHFFFAOYSA-N
CH$LINK: CHEMSPIDER 10188539
CH$LINK: COMPTOX DTXSID8060371
AC$INSTRUMENT: LTQ Orbitrap XL Thermo Scientific
AC$INSTRUMENT_TYPE: LC-ESI-ITFT
AC$MASS_SPECTROMETRY: MS_TYPE MS2
AC$MASS_SPECTROMETRY: ION_MODE POSITIVE
AC$MASS_SPECTROMETRY: IONIZATION ESI
AC$MASS_SPECTROMETRY: FRAGMENTATION_MODE HCD
AC$MASS_SPECTROMETRY: COLLISION_ENERGY 60 % (nominal)
AC$MASS_SPECTROMETRY: RESOLUTION 15000
AC$MASS_SPECTROMETRY: MASS_RANGE_M/Z 50-210
AC$CHROMATOGRAPHY: COLUMN_NAME Kinetex Evo C18 2.6 um 50 x 2.1 mm
AC$CHROMATOGRAPHY: FLOW_GRADIENT 95/5 at 0 min, 95/5 at 1 min, 0/100 at 13 min, 0/100 at 24 min, 95/5 at 24.3 min, 95/5 at 32 min
AC$CHROMATOGRAPHY: FLOW_RATE 300 uL/min
AC$CHROMATOGRAPHY: RETENTION_TIME 9.087 min
MS$FOCUSED_ION: BASE_PEAK 358.2379
MS$FOCUSED_ION: PRECURSOR_M/Z 196.0757
MS$FOCUSED_ION: PRECURSOR_TYPE [M+H]+
MS$FOCUSED_ION: PRECURSOR_INTENSITY 33784180
MS$DATA_PROCESSING: RECALIBRATE loess on assigned fragments and MS1
MS$DATA_PROCESSING: REANALYZE Peaks with additional N2/O included
MS$DATA_PROCESSING: WHOLE RMassBank 3.11.2
PK$SPLASH: splash10-0002-0900000000-491dfc93e09a2e0d53f7
PK$ANNOTATION: m/z tentative_formula formula_count mass error(ppm)
  167.0727 C12H9N+ 1 167.073 -1.69
  195.0677 C13H9NO+ 1 195.0679 -0.95
  196.0753 C13H10NO+ 1 196.0757 -2.1
PK$NUM_PEAK: 3
PK$PEAK: m/z int. rel.int.
  167.0727 22534.5 3
  195.0677 17215.6 2
  196.0753 6543259.5 999
//
