ACCESSION: MSBNK-UFZ-WANA058103B085PH
RECORD_TITLE: Lorazepam; LC-ESI-ITFT; MS2; CE: 20%; R=15000; [M+H]+
DATE: 2023.08.12
AUTHORS: Tobias Schulze, Martin Krauss, Department of Effect-Directed Analysis, Helmholtz Centre for Environmental Research - UFZ, Leipzig, Germany
LICENSE: CC0
COPYRIGHT: Copyright (C) 2023
COMMENT: CONFIDENCE Reference Standard (Level 1)
CH$NAME: Lorazepam
CH$NAME: 7-chloro-5-(2-chlorophenyl)-3-hydroxy-1,3-dihydro-1,4-benzodiazepin-2-one
CH$COMPOUND_CLASS: N/A; Environmental Standard
CH$FORMULA: C15H10Cl2N2O2
CH$EXACT_MASS: 320.01193292
CH$SMILES: OC1N=C(C2=CC=CC=C2Cl)C2=C(NC1=O)C=CC(Cl)=C2
CH$IUPAC: InChI=1S/C15H10Cl2N2O2/c16-8-5-6-12-10(7-8)13(19-15(21)14(20)18-12)9-3-1-2-4-11(9)17/h1-7,15,21H,(H,18,20)
CH$LINK: CAS 846-49-1
CH$LINK: CHEBI CHEBI:6539
CH$LINK: KEGG D00365
CH$LINK: PUBCHEM CID:3958
CH$LINK: INCHIKEY DIWRORZWFLOCLC-UHFFFAOYSA-N
CH$LINK: CHEMSPIDER 3821
CH$LINK: COMPTOX DTXSID7023225
AC$INSTRUMENT: LTQ Orbitrap XL Thermo Scientific
AC$INSTRUMENT_TYPE: LC-ESI-ITFT
AC$MASS_SPECTROMETRY: MS_TYPE MS2
AC$MASS_SPECTROMETRY: ION_MODE POSITIVE
AC$MASS_SPECTROMETRY: IONIZATION ESI
AC$MASS_SPECTROMETRY: FRAGMENTATION_MODE HCD
AC$MASS_SPECTROMETRY: COLLISION_ENERGY 20 % (nominal)
AC$MASS_SPECTROMETRY: RESOLUTION 15000
AC$MASS_SPECTROMETRY: MASS_RANGE_M/Z 50-335
AC$CHROMATOGRAPHY: COLUMN_NAME Kinetex Evo C18 2.6 um 50 x 2.1 mm
AC$CHROMATOGRAPHY: FLOW_GRADIENT 95/5 at 0 min, 95/5 at 1 min, 0/100 at 13 min, 0/100 at 24 min, 95/5 at 24.3 min, 95/5 at 32 min
AC$CHROMATOGRAPHY: FLOW_RATE 300 uL/min
AC$CHROMATOGRAPHY: RETENTION_TIME 10.252 min
MS$FOCUSED_ION: BASE_PEAK 321.0205
MS$FOCUSED_ION: PRECURSOR_M/Z 321.0192
MS$FOCUSED_ION: PRECURSOR_TYPE [M+H]+
MS$FOCUSED_ION: PRECURSOR_INTENSITY 6397892
MS$DATA_PROCESSING: RECALIBRATE loess on assigned fragments and MS1
MS$DATA_PROCESSING: REANALYZE Peaks with additional N2/O included
MS$DATA_PROCESSING: WHOLE RMassBank 3.11.2
PK$SPLASH: splash10-00di-0009000000-a80ce377237546a9b66c
PK$ANNOTATION: m/z tentative_formula formula_count mass error(ppm)
  275.0139 C14H9Cl2N2+ 1 275.0137 0.52
  303.0089 C15H9Cl2N2O+ 1 303.0086 0.87
  321.0195 C15H11Cl2N2O2+ 1 321.0192 0.86
PK$NUM_PEAK: 3
PK$PEAK: m/z int. rel.int.
  275.0139 37321.8 85
  303.0089 110496.3 253
  321.0195 435910.2 999
//
