ACCESSION: MSBNK-UFZ-WANA029213D9F1PM
RECORD_TITLE: Benzethonium; LC-ESI-ITFT; MS2; CE: 50%; R=15000; [M]+
DATE: 2023.08.13
AUTHORS: Tobias Schulze, Martin Krauss, Department of Effect-Directed Analysis, Helmholtz Centre for Environmental Research - UFZ, Leipzig, Germany
LICENSE: CC0
COPYRIGHT: Copyright (C) 2023
COMMENT: CONFIDENCE Reference Standard (Level 1)
CH$NAME: Benzethonium
CH$NAME: benzyl-dimethyl-[2-[2-[4-(2,4,4-trimethylpentan-2-yl)phenoxy]ethoxy]ethyl]azanium
CH$COMPOUND_CLASS: N/A; Environmental Standard
CH$FORMULA: C27H42NO2
CH$EXACT_MASS: 412.321006004091
CH$SMILES: CC(C)(C)CC(C)(C)C1=CC=C(OCCOCC[N+](C)(C)CC2=CC=CC=C2)C=C1
CH$IUPAC: InChI=1S/C27H42NO2/c1-26(2,3)22-27(4,5)24-13-15-25(16-14-24)30-20-19-29-18-17-28(6,7)21-23-11-9-8-10-12-23/h8-16H,17-22H2,1-7H3/q+1
CH$LINK: CAS 498-77-1
CH$LINK: CHEBI 94725
CH$LINK: PUBCHEM CID:2335
CH$LINK: INCHIKEY SIYLLGKDQZGJHK-UHFFFAOYSA-N
CH$LINK: CHEMSPIDER 2245
CH$LINK: COMPTOX DTXSID5046984
AC$INSTRUMENT: LTQ Orbitrap XL Thermo Scientific
AC$INSTRUMENT_TYPE: LC-ESI-ITFT
AC$MASS_SPECTROMETRY: MS_TYPE MS2
AC$MASS_SPECTROMETRY: ION_MODE POSITIVE
AC$MASS_SPECTROMETRY: IONIZATION ESI
AC$MASS_SPECTROMETRY: FRAGMENTATION_MODE HCD
AC$MASS_SPECTROMETRY: COLLISION_ENERGY 50 % (nominal)
AC$MASS_SPECTROMETRY: RESOLUTION 15000
AC$MASS_SPECTROMETRY: MASS_RANGE_M/Z 50-425
AC$CHROMATOGRAPHY: COLUMN_NAME Kinetex Evo C18 2.6 um 50 x 2.1 mm
AC$CHROMATOGRAPHY: FLOW_GRADIENT 95/5 at 0 min, 95/5 at 1 min, 0/100 at 13 min, 0/100 at 24 min, 95/5 at 24.3 min, 95/5 at 32 min
AC$CHROMATOGRAPHY: FLOW_RATE 300 uL/min
AC$CHROMATOGRAPHY: RETENTION_TIME 11.407 min
MS$FOCUSED_ION: BASE_PEAK 412.322
MS$FOCUSED_ION: PRECURSOR_M/Z 412.321
MS$FOCUSED_ION: PRECURSOR_TYPE [M]+
MS$FOCUSED_ION: PRECURSOR_INTENSITY 67167928
MS$DATA_PROCESSING: RECALIBRATE loess on assigned fragments and MS1
MS$DATA_PROCESSING: REANALYZE Peaks with additional N2/O included
MS$DATA_PROCESSING: WHOLE RMassBank 3.11.2
PK$SPLASH: splash10-00dl-9002000000-4c98858d1bbb9488a100
PK$ANNOTATION: m/z tentative_formula formula_count mass error(ppm)
  70.065 C4H8N+ 1 70.0651 -2.13
  72.0805 C4H10N+ 1 72.0808 -3.36
  84.0804 C5H10N+ 1 84.0808 -4.45
  86.0599 C4H8NO+ 1 86.06 -1.17
  88.0757 C4H10NO+ 1 88.0757 0.21
  91.0541 C7H7+ 1 91.0542 -1.88
  100.0755 C5H10NO+ 1 100.0757 -2.23
  105.0699 C8H9+ 1 105.0699 -0.13
  114.0914 C6H12NO+ 1 114.0913 0.13
  116.1069 C6H14NO+ 1 116.107 -0.76
  118.0776 C9H10+ 1 118.0777 -0.7
  121.0649 C8H9O+ 1 121.0648 1.06
  135.0805 C9H11O+ 1 135.0804 0.59
  136.1119 C9H14N+ 1 136.1121 -1.01
  149.0957 C10H13O+ 1 149.0961 -2.6
  177.1271 C12H17O+ 1 177.1274 -1.55
  208.1332 C12H18NO2+ 1 208.1332 0.02
  219.1736 C15H23O+ 1 219.1743 -3.58
  233.1899 C16H25O+ 1 233.19 -0.59
  300.1956 C19H26NO2+ 1 300.1958 -0.56
  320.2584 C20H34NO2+ 1 320.2584 -0.09
  412.3211 C27H42NO2+ 1 412.321 0.22
PK$NUM_PEAK: 22
PK$PEAK: m/z int. rel.int.
  70.065 85261.9 5
  72.0805 13833256 832
  84.0804 67758.5 4
  86.0599 68512 4
  88.0757 92072.3 5
  91.0541 16595331 999
  100.0755 55775.9 3
  105.0699 62776.1 3
  114.0914 57458.2 3
  116.1069 479748.9 28
  118.0776 47327.4 2
  121.0649 87081.9 5
  135.0805 72340.7 4
  136.1119 44023 2
  149.0957 104206.7 6
  177.1271 63111.3 3
  208.1332 277836.8 16
  219.1736 54384.3 3
  233.1899 347645.5 20
  300.1956 479144.5 28
  320.2584 7139105.5 429
  412.3211 655569.9 39
//
