ACCESSION: MSBNK-UFZ-UF401504
RECORD_TITLE: Thiabendazole; LC-ESI-ITFT; MS2; CE: 55; R=15000; [M+H]+
DATE: 2017.01.05
AUTHORS: Schulze T, Krauss M, Department of Effect-Directed Analysis, Helmholtz Centre for Environmental Research - UFZ GmbH, Leipzig, Germany
LICENSE: CC BY
COPYRIGHT: Copyright (C) 2017
COMMENT: CONFIDENCE standard compound
COMMENT: INTERNAL_ID 4015
CH$NAME: Thiabendazole
CH$NAME: 4-(1H-Benzimidazol-2-yl)-1,3-thiazole
CH$COMPOUND_CLASS: N/A; Environmental Standard
CH$FORMULA: C10H7N3S
CH$EXACT_MASS: 201.0361
CH$SMILES: N1C2=CC=CC=C2N=C1C1=CSC=N1
CH$IUPAC: InChI=1S/C10H7N3S/c1-2-4-8-7(3-1)12-10(13-8)9-5-14-6-11-9/h1-6H,(H,12,13)
CH$LINK: CAS 945-65-3
CH$LINK: CHEBI CHEBI:45979
CH$LINK: KEGG C07131
CH$LINK: PUBCHEM CID:5430
CH$LINK: INCHIKEY WJCNZQLZVWNLKY-UHFFFAOYSA-N
CH$LINK: CHEMSPIDER 5237
CH$LINK: COMPTOX DTXSID0021337
AC$INSTRUMENT: LTQ Orbitrap XL Thermo Scientific
AC$INSTRUMENT_TYPE: LC-ESI-ITFT
AC$MASS_SPECTROMETRY: MS_TYPE MS2
AC$MASS_SPECTROMETRY: ION_MODE POSITIVE
AC$MASS_SPECTROMETRY: IONIZATION ESI
AC$MASS_SPECTROMETRY: FRAGMENTATION_MODE CID
AC$MASS_SPECTROMETRY: COLLISION_ENERGY 55 (nominal)
AC$MASS_SPECTROMETRY: RESOLUTION 15000
AC$CHROMATOGRAPHY: COLUMN_NAME Kinetex Core-Shell C18 2.6 um, 3.0 x 100 mm, Phenomenex
AC$CHROMATOGRAPHY: FLOW_GRADIENT 90/10 at 0 min, 80/20 at 3.2 min, 5/95 at 17.8 min, 5/95 at 37.8 min, 90/10 at 37.9 min, 90/10 at 47 min
AC$CHROMATOGRAPHY: FLOW_RATE 200 uL/min
AC$CHROMATOGRAPHY: RETENTION_TIME 15.483 min
AC$CHROMATOGRAPHY: SOLVENT A water with 0.1% formic acid
AC$CHROMATOGRAPHY: SOLVENT B methanol with 0.1% formic acid
MS$FOCUSED_ION: BASE_PEAK 163.1325
MS$FOCUSED_ION: PRECURSOR_M/Z 202.0433
MS$FOCUSED_ION: PRECURSOR_TYPE [M+H]+
MS$DATA_PROCESSING: RECALIBRATE loess on assigned fragments and MS1
MS$DATA_PROCESSING: REANALYZE Peaks with additional N2/O included
MS$DATA_PROCESSING: WHOLE RMassBank 2.2.1
PK$SPLASH: splash10-004i-0900000000-f10752ce7ad55a656f25
PK$ANNOTATION: m/z tentative_formula formula_count mass error(ppm)
  131.0601 C8H7N2+ 1 131.0604 -2.41
  158.071 C9H8N3+ 1 158.0713 -1.73
  170.0714 C10H8N3+ 1 170.0713 0.54
  175.0321 C9H7N2S+ 1 175.0324 -1.99
PK$NUM_PEAK: 4
PK$PEAK: m/z int. rel.int.
  131.0601 4353.4 5
  158.071 20712.7 24
  170.0714 3913.7 4
  175.0321 855779.7 999
//
