ACCESSION: MSBNK-UFZ-UA005201
RECORD_TITLE: 2-Hydroxyquinoline; LC-ESI-QFT; MS2; CE: 50%; R=35000; [M+H]+
DATE: 2017.08.17
AUTHORS: Muz M (1), Dann J (1), Jaeger F (2), Brack W (1), Krauss M (1), (1) Department of Effect-Directed Analysis, Helmholtz Centre for Environmental Research - UFZ GmbH, Leipzig, Germany, (2) Synchem UG & Co. KG, Felsberg-Altenburg, Germany
LICENSE: CC BY
COPYRIGHT: Copyright (C) 2017
PUBLICATION: Muz M, Dann J, Jaeger F, Brack W, Krauss M (2017) Environ. Sci. Technol. 51:4681-4688, DOI:10.1021/acs.est.7b00426. Identification of Mutagenic Aromatic Amines in River Samples with Industrial Wastewater Impact
COMMENT: CONFIDENCE Reference Standard (Level 1)
COMMENT: INTERNAL_ID 52
CH$NAME: 2-Hydroxyquinoline
CH$NAME: 1H-Quinolin-2-one
CH$COMPOUND_CLASS: N/A; Environmental Standard
CH$FORMULA: C9H7NO
CH$EXACT_MASS: 145.0528
CH$SMILES: c1ccc2c(c1)ccc(n2)O
CH$IUPAC: InChI=1S/C9H7NO/c11-9-6-5-7-3-1-2-4-8(7)10-9/h1-6H,(H,10,11)
CH$LINK: CAS 59-31-4
CH$LINK: CHEBI CHEBI:16365
CH$LINK: KEGG C06338
CH$LINK: PUBCHEM CID:6038
CH$LINK: INCHIKEY LISFMEBWQUVKPJ-UHFFFAOYSA-N
CH$LINK: CHEMSPIDER 5816
CH$LINK: COMPTOX DTXSID1058769
AC$INSTRUMENT: Q Exactive Plus Orbitrap Thermo Scientific
AC$INSTRUMENT_TYPE: LC-ESI-QFT
AC$MASS_SPECTROMETRY: MS_TYPE MS2
AC$MASS_SPECTROMETRY: ION_MODE POSITIVE
AC$MASS_SPECTROMETRY: IONIZATION ESI
AC$MASS_SPECTROMETRY: FRAGMENTATION_MODE HCD
AC$MASS_SPECTROMETRY: COLLISION_ENERGY 50 % (nominal)
AC$MASS_SPECTROMETRY: RESOLUTION 35000
AC$CHROMATOGRAPHY: COLUMN_NAME Accucore PhenylHexyl 2.6um, 3x150mm, Thermo
AC$CHROMATOGRAPHY: FLOW_GRADIENT 90/10 at 0 min, 90/10 at 3.2 min, 5/95 at 21 min, 5/95 at 41 min, 90/10 at 50 min
AC$CHROMATOGRAPHY: FLOW_RATE 200 uL/min
AC$CHROMATOGRAPHY: RETENTION_TIME 20.103 min
AC$CHROMATOGRAPHY: SOLVENT A water with 0.1% formic acid
AC$CHROMATOGRAPHY: SOLVENT B methanol with 0.1% formic acid
MS$FOCUSED_ION: BASE_PEAK 146.0599
MS$FOCUSED_ION: PRECURSOR_M/Z 146.06
MS$FOCUSED_ION: PRECURSOR_TYPE [M+H]+
MS$DATA_PROCESSING: RECALIBRATE loess on assigned fragments and MS1
MS$DATA_PROCESSING: REANALYZE Peaks with additional N2/O included
MS$DATA_PROCESSING: WHOLE RMassBank 2.5.0
PK$SPLASH: splash10-0002-0900000000-6f4a330166e4977fd0b8
PK$ANNOTATION: m/z tentative_formula formula_count mass error(ppm)
  128.0493 C9H6N+ 1 128.0495 -1.28
  146.0599 C9H8NO+ 1 146.06 -1.13
PK$NUM_PEAK: 2
PK$PEAK: m/z int. rel.int.
  128.0493 40616912 151
  146.0599 267437920 999
//
