ACCESSION: MSBNK-UFZ-WANA013801AD6CPH
RECORD_TITLE: Prosulfocarb; LC-ESI-ITFT; MS2; CE: 10%; R=15000; [M+H]+
DATE: 2023.08.12
AUTHORS: Tobias Schulze, Martin Krauss, Department of Effect-Directed Analysis, Helmholtz Centre for Environmental Research - UFZ, Leipzig, Germany
LICENSE: CC0
COPYRIGHT: Copyright (C) 2023
COMMENT: CONFIDENCE Reference Standard (Level 1)
CH$NAME: Prosulfocarb
CH$NAME: S-benzyl N,N-dipropylcarbamothioate
CH$COMPOUND_CLASS: N/A; Environmental Standard
CH$FORMULA: C14H21NOS
CH$EXACT_MASS: 251.134385292
CH$SMILES: CCCN(CCC)C(=O)SCC1=CC=CC=C1
CH$IUPAC: InChI=1S/C14H21NOS/c1-3-10-15(11-4-2)14(16)17-12-13-8-6-5-7-9-13/h5-9H,3-4,10-12H2,1-2H3
CH$LINK: CAS 52888-80-9
CH$LINK: CHEBI CHEBI:81941
CH$LINK: KEGG C18760
CH$LINK: PUBCHEM CID:62020
CH$LINK: INCHIKEY NQLVQOSNDJXLKG-UHFFFAOYSA-N
CH$LINK: CHEMSPIDER 55867
CH$LINK: COMPTOX DTXSID3058119
AC$INSTRUMENT: LTQ Orbitrap XL Thermo Scientific
AC$INSTRUMENT_TYPE: LC-ESI-ITFT
AC$MASS_SPECTROMETRY: MS_TYPE MS2
AC$MASS_SPECTROMETRY: ION_MODE POSITIVE
AC$MASS_SPECTROMETRY: IONIZATION ESI
AC$MASS_SPECTROMETRY: FRAGMENTATION_MODE HCD
AC$MASS_SPECTROMETRY: COLLISION_ENERGY 10 % (nominal)
AC$MASS_SPECTROMETRY: RESOLUTION 15000
AC$MASS_SPECTROMETRY: MASS_RANGE_M/Z 50-265
AC$CHROMATOGRAPHY: COLUMN_NAME Kinetex Evo C18 2.6 um 50 x 2.1 mm
AC$CHROMATOGRAPHY: FLOW_GRADIENT 95/5 at 0 min, 95/5 at 1 min, 0/100 at 13 min, 0/100 at 24 min, 95/5 at 24.3 min, 95/5 at 32 min
AC$CHROMATOGRAPHY: FLOW_RATE 300 uL/min
AC$CHROMATOGRAPHY: RETENTION_TIME 13.097 min
MS$FOCUSED_ION: BASE_PEAK 252.1422
MS$FOCUSED_ION: PRECURSOR_M/Z 252.1417
MS$FOCUSED_ION: PRECURSOR_TYPE [M+H]+
MS$FOCUSED_ION: PRECURSOR_INTENSITY 41917156
MS$DATA_PROCESSING: RECALIBRATE loess on assigned fragments and MS1
MS$DATA_PROCESSING: REANALYZE Peaks with additional N2/O included
MS$DATA_PROCESSING: WHOLE RMassBank 3.11.2
PK$SPLASH: splash10-0udi-0090000000-83cc9179e174a34b34bf
PK$ANNOTATION: m/z tentative_formula formula_count mass error(ppm)
  86.0599 C4H8NO+ 1 86.06 -1.87
  91.0541 C7H7+ 1 91.0542 -1.28
  128.1068 C7H14NO+ 1 128.107 -1.3
  252.1414 C14H22NOS+ 1 252.1417 -1.24
PK$NUM_PEAK: 4
PK$PEAK: m/z int. rel.int.
  86.0599 51956.4 7
  91.0541 138923.8 18
  128.1068 266830.8 36
  252.1414 7367978 999
//
