ACCESSION: MSBNK-UFZ-UP000173
RECORD_TITLE: Gabapentin-lactam; LC-ESI-ITFT; MS2; CE: 110%; R=15000; [M+H]+
DATE: 2019.07.31
AUTHORS: Liza-Marie Beckers, Werner Brack, Janek-Paul Dann, Martin Krauss, Erik Mueller, Tobias Schulze, Helmholtz Centre for Environmental Research GmbH - UFZ, Leipzig, Germany
LICENSE: CC0
COPYRIGHT: Copyright (C) 2019
PUBLICATION: Beckers L-M, Brack W, Dann JP, Krauss M, Mueller E, Schulze T, 2020. Unraveling longitudinal pollution patterns of organic micropollutants in a river by non-target screening and cluster analysis. Science of The Total Environment, https://doi.org/10.1016/j.scitotenv.2020.138388
COMMENT: CONFIDENCE Reference Standard (Level 1)
COMMENT: INTERNAL_ID 7
CH$NAME: Gabapentin-lactam
CH$NAME: 2-azaspiro[4.5]decan-3-one
CH$COMPOUND_CLASS: N/A; Environmental Standard
CH$FORMULA: C9H15NO
CH$EXACT_MASS: 153.1154
CH$SMILES: O=C1CC2(CN1)CCCCC2
CH$IUPAC: InChI=1S/C9H15NO/c11-8-6-9(7-10-8)4-2-1-3-5-9/h1-7H2,(H,10,11)
CH$LINK: CAS 64744-50-9
CH$LINK: PUBCHEM CID:47457
CH$LINK: INCHIKEY JAWPQJDOQPSNIQ-UHFFFAOYSA-N
CH$LINK: CHEMSPIDER 43180
AC$INSTRUMENT: LTQ Orbitrap XL Thermo Scientific
AC$INSTRUMENT_TYPE: LC-ESI-ITFT
AC$MASS_SPECTROMETRY: MS_TYPE MS2
AC$MASS_SPECTROMETRY: ION_MODE POSITIVE
AC$MASS_SPECTROMETRY: IONIZATION ESI
AC$MASS_SPECTROMETRY: FRAGMENTATION_MODE HCD
AC$MASS_SPECTROMETRY: COLLISION_ENERGY 110 % (nominal)
AC$MASS_SPECTROMETRY: RESOLUTION 15000
AC$CHROMATOGRAPHY: COLUMN_NAME Kinetex Evo C18 2.6 um 50 x 2.1 mm
AC$CHROMATOGRAPHY: FLOW_GRADIENT 95/5 at 0 min, 95/5 at 1 min, 0/100 at 13 min, 0/100 at 24 min, 95/5 at 24.3 min, 95/5/0 at 32 min
AC$CHROMATOGRAPHY: FLOW_RATE 300 uL/min
AC$CHROMATOGRAPHY: RETENTION_TIME 8.251 min
AC$CHROMATOGRAPHY: SOLVENT A water with 0.1% formic acid
AC$CHROMATOGRAPHY: SOLVENT B methanol with 0.1% formic acid
MS$FOCUSED_ION: BASE_PEAK 154.1226
MS$FOCUSED_ION: PRECURSOR_M/Z 154.1226
MS$FOCUSED_ION: PRECURSOR_TYPE [M+H]+
MS$DATA_PROCESSING: RECALIBRATE loess on assigned fragments and MS1
MS$DATA_PROCESSING: REANALYZE Peaks with additional N2/O included
MS$DATA_PROCESSING: WHOLE RMassBank 2.12.0
PK$SPLASH: splash10-0002-9100000000-dfd8cebe12024375aa73
PK$ANNOTATION: m/z tentative_formula formula_count mass error(ppm)
  54.0336 C3H4N+ 1 54.0338 -3.78
  55.0541 C4H7+ 1 55.0542 -2.44
  60.0443 C2H6NO+ 1 60.0444 -1.62
  65.0385 C5H5+ 1 65.0386 -1.82
  67.0541 C5H7+ 1 67.0542 -1.4
  69.0698 C5H9+ 1 69.0699 -1.25
  70.0652 C4H8N+ 1 70.0651 1.69
  72.0443 C3H6NO+ 1 72.0444 -0.91
  77.0385 C6H5+ 1 77.0386 -1.29
  79.0542 C6H7+ 1 79.0542 -0.13
  80.062 C6H8+ 1 80.0621 -0.54
  81.0698 C6H9+ 1 81.0699 -0.46
  91.0542 C7H7+ 1 91.0542 -0.5
  93.0699 C7H9+ 1 93.0699 -0.24
  95.0855 C7H11+ 1 95.0855 -0.72
  107.0855 C8H11+ 1 107.0855 -0.23
  108.0803 C7H10N+ 1 108.0808 -4.22
  109.1011 C8H13+ 1 109.1012 -0.44
  110.0963 C7H12N+ 1 110.0964 -0.89
  112.112 C7H14N+ 1 112.1121 -0.56
  119.0854 C9H11+ 1 119.0855 -0.84
  137.0958 C9H13O+ 1 137.0961 -1.76
  154.1225 C9H16NO+ 1 154.1226 -0.88
PK$NUM_PEAK: 23
PK$PEAK: m/z int. rel.int.
  54.0336 2379.1 4
  55.0541 1526.3 3
  60.0443 4338 8
  65.0385 5289.8 10
  67.0541 176603.7 360
  69.0698 16654.7 33
  70.0652 2081.3 4
  72.0443 42936.9 87
  77.0385 6734.2 13
  79.0542 5268.7 10
  80.062 4655.5 9
  81.0698 11029.5 22
  91.0542 26189.2 53
  93.0699 64245.2 131
  95.0855 489387.9 999
  107.0855 1605.7 3
  108.0803 1356.8 2
  109.1011 15066.8 30
  110.0963 1916.7 3
  112.112 13917.9 28
  119.0854 5597.3 11
  137.0958 1578.8 3
  154.1225 127841 260
//
