ACCESSION: MSBNK-UFZ-UA002703
RECORD_TITLE: 1,8-diaminopyrene; APCI-ITFT; MS2; CE: 35%; R=30000; [M+H]+
DATE: 2014.06.24
AUTHORS: C. Gallampois (Umea), E. Schymanski (Eawag), W. Brack (UFZ)
LICENSE: CC BY
COPYRIGHT: Copyright (C) Eawag, 2014
PUBLICATION: Multi-criteria approach for tentative identification of polyaromatic river mutagens
COMMENT: CONFIDENCE standard compound
COMMENT: INTERNAL_ID 27
CH$NAME: 1,8-diaminopyrene
CH$NAME: pyrene-1,8-diamine
CH$COMPOUND_CLASS: N/A; Environmental Standard
CH$FORMULA: C16H12N2
CH$EXACT_MASS: 232.1000
CH$SMILES: c4cc2ccc1ccc(N)c3c1c2c(cc3)c4N
CH$IUPAC: InChI=1S/C16H12N2/c17-13-7-3-9-1-2-10-4-8-14(18)12-6-5-11(13)15(9)16(10)12/h1-8H,17-18H2
CH$LINK: CAS 30269-04-6
CH$LINK: PUBCHEM CID:169139
CH$LINK: INCHIKEY BLYOXQBERINFDU-UHFFFAOYSA-N
CH$LINK: CHEMSPIDER 147933
CH$LINK: COMPTOX DTXSID40184358
AC$INSTRUMENT: LTQ Orbitrap XL Thermo Scientific
AC$INSTRUMENT_TYPE: APCI-ITFT
AC$MASS_SPECTROMETRY: MS_TYPE MS2
AC$MASS_SPECTROMETRY: ION_MODE POSITIVE
AC$MASS_SPECTROMETRY: IONIZATION APCI
AC$MASS_SPECTROMETRY: FRAGMENTATION_MODE CID
AC$MASS_SPECTROMETRY: COLLISION_ENERGY 35 % (nominal)
AC$MASS_SPECTROMETRY: RESOLUTION 30000
AC$CHROMATOGRAPHY: COLUMN_NAME N/A
AC$CHROMATOGRAPHY: FLOW_GRADIENT Direct infusion experiment
AC$CHROMATOGRAPHY: FLOW_RATE 5 uL/min
AC$CHROMATOGRAPHY: RETENTION_TIME N/A min
AC$CHROMATOGRAPHY: SOLVENT A methanol
AC$CHROMATOGRAPHY: SOLVENT B N/A
MS$FOCUSED_ION: BASE_PEAK 233.1073
MS$FOCUSED_ION: PRECURSOR_M/Z 233.1073
MS$FOCUSED_ION: PRECURSOR_TYPE [M+H]+
MS$DATA_PROCESSING: RECALIBRATE loess on assigned fragments and MS1
MS$DATA_PROCESSING: REANALYZE Peaks with additional N2/O included
MS$DATA_PROCESSING: WHOLE RMassBank 1.5.2.3
PK$SPLASH: splash10-014i-0090000000-d204e0da8f1a6d82e8eb
PK$ANNOTATION: m/z tentative_formula formula_count mass error(ppm)
  216.0811 C16H10N+ 1 216.0808 1.32
  217.0887 C16H11N+ 1 217.0886 0.32
  231.0917 C16H11N2+ 1 231.0917 0.2
  232.0995 C16H12N2+ 1 232.0995 0.04
  233.1073 C16H13N2+ 1 233.1073 -0.11
PK$NUM_PEAK: 5
PK$PEAK: m/z int. rel.int.
  216.0811 397068.1 54
  217.0887 7337664.8 999
  231.0917 11180 1
  232.0995 33269.5 4
  233.1073 21995.2 2
//
