ACCESSION: MSBNK-UFZ-WANA0338155BE0PH
RECORD_TITLE: Pindolol; LC-ESI-ITFT; MS2; CE: 60%; R=15000; [M+H]+
DATE: 2023.08.12
AUTHORS: Tobias Schulze, Martin Krauss, Department of Effect-Directed Analysis, Helmholtz Centre for Environmental Research - UFZ, Leipzig, Germany
LICENSE: CC0
COPYRIGHT: Copyright (C) 2023
COMMENT: CONFIDENCE Reference Standard (Level 1)
CH$NAME: Pindolol
CH$NAME: 1-(1H-indol-4-yloxy)-3-(propan-2-ylamino)propan-2-ol
CH$COMPOUND_CLASS: N/A; Environmental Standard
CH$FORMULA: C14H20N2O2
CH$EXACT_MASS: 248.15247788
CH$SMILES: CC(C)NCC(O)COC1=CC=CC2=C1C=CN2
CH$IUPAC: InChI=1S/C14H20N2O2/c1-10(2)16-8-11(17)9-18-14-5-3-4-13-12(14)6-7-15-13/h3-7,10-11,15-17H,8-9H2,1-2H3
CH$LINK: CAS 28813-39-0
CH$LINK: CHEBI CHEBI:8214
CH$LINK: KEGG D00513
CH$LINK: PUBCHEM CID:4828
CH$LINK: INCHIKEY JZQKKSLKJUAGIC-UHFFFAOYSA-N
CH$LINK: CHEMSPIDER 4662
CH$LINK: COMPTOX DTXSID8023476
AC$INSTRUMENT: LTQ Orbitrap XL Thermo Scientific
AC$INSTRUMENT_TYPE: LC-ESI-ITFT
AC$MASS_SPECTROMETRY: MS_TYPE MS2
AC$MASS_SPECTROMETRY: ION_MODE POSITIVE
AC$MASS_SPECTROMETRY: IONIZATION ESI
AC$MASS_SPECTROMETRY: FRAGMENTATION_MODE HCD
AC$MASS_SPECTROMETRY: COLLISION_ENERGY 60 % (nominal)
AC$MASS_SPECTROMETRY: RESOLUTION 15000
AC$MASS_SPECTROMETRY: MASS_RANGE_M/Z 50-260
AC$CHROMATOGRAPHY: COLUMN_NAME Kinetex Evo C18 2.6 um 50 x 2.1 mm
AC$CHROMATOGRAPHY: FLOW_GRADIENT 95/5 at 0 min, 95/5 at 1 min, 0/100 at 13 min, 0/100 at 24 min, 95/5 at 24.3 min, 95/5 at 32 min
AC$CHROMATOGRAPHY: FLOW_RATE 300 uL/min
AC$CHROMATOGRAPHY: RETENTION_TIME 0.883 min
MS$FOCUSED_ION: BASE_PEAK 235.1815
MS$FOCUSED_ION: PRECURSOR_M/Z 249.1598
MS$FOCUSED_ION: PRECURSOR_TYPE [M+H]+
MS$FOCUSED_ION: PRECURSOR_INTENSITY 9462054
MS$DATA_PROCESSING: RECALIBRATE loess on assigned fragments and MS1
MS$DATA_PROCESSING: REANALYZE Peaks with additional N2/O included
MS$DATA_PROCESSING: WHOLE RMassBank 3.11.2
PK$SPLASH: splash10-00xr-5900000000-102f32e6cf9aecad0f2c
PK$ANNOTATION: m/z tentative_formula formula_count mass error(ppm)
  56.0493 C3H6N+ 1 56.0495 -2.83
  58.065 C3H8N+ 1 58.0651 -2.58
  60.0807 C3H10N+ 1 60.0808 -1.28
  72.0808 C4H10N+ 1 72.0808 0.11
  74.06 C3H8NO+ 1 74.06 0.1
  84.0808 C5H10N+ 1 84.0808 0.45
  86.0965 C5H12N+ 1 86.0964 0.72
  98.0966 C6H12N+ 1 98.0964 1.45
  100.1122 C6H14N+ 1 100.1121 1.56
  116.1071 C6H14NO+ 1 116.107 1.35
  118.0652 C8H8N+ 1 118.0651 0.92
  130.0654 C9H8N+ 1 130.0651 1.92
  132.0446 C8H6NO+ 1 132.0444 1.62
  132.081 C9H10N+ 1 132.0808 1.78
  133.0524 C8H7NO+ 1 133.0522 1.37
  134.0603 C8H8NO+ 1 134.06 1.59
  144.081 C10H10N+ 1 144.0808 1.79
  145.0649 C10H9O+ 1 145.0648 1.08
  146.0603 C9H8NO+ 1 146.06 1.62
  154.0656 C11H8N+ 1 154.0651 3.21
  160.076 C10H10NO+ 1 160.0757 1.95
  172.076 C11H10NO+ 1 172.0757 1.63
  176.1071 C11H14NO+ 1 176.107 0.84
  207.1131 C11H15N2O2+ 1 207.1128 1.36
  249.1604 C14H21N2O2+ 1 249.1598 2.68
PK$NUM_PEAK: 25
PK$PEAK: m/z int. rel.int.
  56.0493 253995.6 173
  58.065 141999.1 97
  60.0807 5618.6 3
  72.0808 558530.6 381
  74.06 626488 428
  84.0808 8635 5
  86.0965 17896.9 12
  98.0966 322315.4 220
  100.1122 68827.5 47
  116.1071 1460882 999
  118.0652 109682.1 75
  130.0654 35553 24
  132.0446 42649 29
  132.081 16478.5 11
  133.0524 14524.7 9
  134.0603 394540.3 269
  144.081 445871.3 304
  145.0649 8569.9 5
  146.0603 350588.5 239
  154.0656 10710.9 7
  160.076 42478.4 29
  172.076 428192.8 292
  176.1071 3268.1 2
  207.1131 4846 3
  249.1604 30610.1 20
//
