ACCESSION: MSBNK-UFZ-WANA238711C9CFPH
RECORD_TITLE: Imidacloprid-guanidine; LC-ESI-ITFT; MS2; CE: 40%; R=15000; [M+H]+
DATE: 2023.08.12
AUTHORS: Tobias Schulze, Martin Krauss, Department of Effect-Directed Analysis, Helmholtz Centre for Environmental Research - UFZ, Leipzig, Germany
LICENSE: CC0
COPYRIGHT: Copyright (C) 2023
COMMENT: CONFIDENCE Reference Standard (Level 1)
CH$NAME: Imidacloprid-guanidine
CH$NAME: (2z)-1-[(6-Chloropyridin-3-Yl)methyl]imidazolidin-2-Imine
CH$NAME: 1-[(6-chloropyridin-3-yl)methyl]-4,5-dihydroimidazol-2-amine
CH$COMPOUND_CLASS: N/A; Environmental Standard
CH$FORMULA: C9H11ClN4
CH$EXACT_MASS: 210.067224032
CH$SMILES: NC1=NCCN1CC1=CN=C(Cl)C=C1
CH$IUPAC: InChI=1S/C9H11ClN4/c10-8-2-1-7(5-13-8)6-14-4-3-12-9(14)11/h1-2,5H,3-4,6H2,(H2,11,12)
CH$LINK: CAS 115970-17-7
CH$LINK: PUBCHEM CID:10130527
CH$LINK: INCHIKEY UEQZFAGVRGWPDK-UHFFFAOYSA-N
CH$LINK: CHEMSPIDER 8306043
CH$LINK: COMPTOX DTXSID90436011
AC$INSTRUMENT: LTQ Orbitrap XL Thermo Scientific
AC$INSTRUMENT_TYPE: LC-ESI-ITFT
AC$MASS_SPECTROMETRY: MS_TYPE MS2
AC$MASS_SPECTROMETRY: ION_MODE POSITIVE
AC$MASS_SPECTROMETRY: IONIZATION ESI
AC$MASS_SPECTROMETRY: FRAGMENTATION_MODE HCD
AC$MASS_SPECTROMETRY: COLLISION_ENERGY 40 % (nominal)
AC$MASS_SPECTROMETRY: RESOLUTION 15000
AC$MASS_SPECTROMETRY: MASS_RANGE_M/Z 50-225
AC$CHROMATOGRAPHY: COLUMN_NAME Kinetex Evo C18 2.6 um 50 x 2.1 mm
AC$CHROMATOGRAPHY: FLOW_GRADIENT 95/5 at 0 min, 95/5 at 1 min, 0/100 at 13 min, 0/100 at 24 min, 95/5 at 24.3 min, 95/5 at 32 min
AC$CHROMATOGRAPHY: FLOW_RATE 300 uL/min
AC$CHROMATOGRAPHY: RETENTION_TIME 0.547 min
MS$FOCUSED_ION: BASE_PEAK 211.075
MS$FOCUSED_ION: PRECURSOR_M/Z 211.0745
MS$FOCUSED_ION: PRECURSOR_TYPE [M+H]+
MS$FOCUSED_ION: PRECURSOR_INTENSITY 4829001.5
MS$DATA_PROCESSING: RECALIBRATE loess on assigned fragments and MS1
MS$DATA_PROCESSING: REANALYZE Peaks with additional N2/O included
MS$DATA_PROCESSING: WHOLE RMassBank 3.11.2
PK$SPLASH: splash10-03di-0290000000-6516e6ad735055db4774
PK$ANNOTATION: m/z tentative_formula formula_count mass error(ppm)
  84.0556 C3H6N3+ 1 84.0556 0.07
  126.0106 C6H5ClN+ 1 126.0105 0.45
  133.0761 C8H9N2+ 1 133.076 0.53
  168.0326 C7H7ClN3+ 1 168.0323 1.85
  169.0528 C8H10ClN2+ 1 169.0527 0.38
  175.098 C9H11N4+ 1 175.0978 0.75
  194.0481 C9H9ClN3+ 1 194.048 0.7
  211.0746 C9H12ClN4+ 1 211.0745 0.49
PK$NUM_PEAK: 8
PK$PEAK: m/z int. rel.int.
  84.0556 65962.2 49
  126.0106 277729.9 206
  133.0761 16640.4 12
  168.0326 3849.3 2
  169.0528 11020.2 8
  175.098 75020.1 55
  194.0481 8132.3 6
  211.0746 1342750.9 999
//
