ACCESSION: MSBNK-UFZ-WANA098711C9CFPH
RECORD_TITLE: DCOIT; LC-ESI-ITFT; MS2; CE: 40%; R=15000; [M+H]+
DATE: 2023.08.12
AUTHORS: Tobias Schulze, Martin Krauss, Department of Effect-Directed Analysis, Helmholtz Centre for Environmental Research - UFZ, Leipzig, Germany
LICENSE: CC0
COPYRIGHT: Copyright (C) 2023
COMMENT: CONFIDENCE Reference Standard (Level 1)
CH$NAME: DCOIT
CH$NAME: Kathon 930
CH$NAME: 4,5-dichloro-2-octyl-1,2-thiazol-3-one
CH$COMPOUND_CLASS: N/A; Environmental Standard
CH$FORMULA: C11H17Cl2NOS
CH$EXACT_MASS: 281.040790524
CH$SMILES: CCCCCCCCN1SC(Cl)=C(Cl)C1=O
CH$IUPAC: InChI=1S/C11H17Cl2NOS/c1-2-3-4-5-6-7-8-14-11(15)9(12)10(13)16-14/h2-8H2,1H3
CH$LINK: CAS 6625-54-3
CH$LINK: CHEBI CHEBI:83518
CH$LINK: PUBCHEM CID:91688
CH$LINK: INCHIKEY PORQOHRXAJJKGK-UHFFFAOYSA-N
CH$LINK: CHEMSPIDER 82791
CH$LINK: COMPTOX DTXSID5032315
AC$INSTRUMENT: LTQ Orbitrap XL Thermo Scientific
AC$INSTRUMENT_TYPE: LC-ESI-ITFT
AC$MASS_SPECTROMETRY: MS_TYPE MS2
AC$MASS_SPECTROMETRY: ION_MODE POSITIVE
AC$MASS_SPECTROMETRY: IONIZATION ESI
AC$MASS_SPECTROMETRY: FRAGMENTATION_MODE HCD
AC$MASS_SPECTROMETRY: COLLISION_ENERGY 40 % (nominal)
AC$MASS_SPECTROMETRY: RESOLUTION 15000
AC$MASS_SPECTROMETRY: MASS_RANGE_M/Z 50-295
AC$CHROMATOGRAPHY: COLUMN_NAME Kinetex Evo C18 2.6 um 50 x 2.1 mm
AC$CHROMATOGRAPHY: FLOW_GRADIENT 95/5 at 0 min, 95/5 at 1 min, 0/100 at 13 min, 0/100 at 24 min, 95/5 at 24.3 min, 95/5 at 32 min
AC$CHROMATOGRAPHY: FLOW_RATE 300 uL/min
AC$CHROMATOGRAPHY: RETENTION_TIME 13.491 min
MS$FOCUSED_ION: BASE_PEAK 282.049
MS$FOCUSED_ION: PRECURSOR_M/Z 282.0481
MS$FOCUSED_ION: PRECURSOR_TYPE [M+H]+
MS$FOCUSED_ION: PRECURSOR_INTENSITY 6714798
MS$DATA_PROCESSING: RECALIBRATE loess on assigned fragments and MS1
MS$DATA_PROCESSING: REANALYZE Peaks with additional N2/O included
MS$DATA_PROCESSING: WHOLE RMassBank 3.11.2
PK$SPLASH: splash10-014i-5900000000-17edd0d43caf72621900
PK$ANNOTATION: m/z tentative_formula formula_count mass error(ppm)
  57.0696 C4H9+ 1 57.0699 -4.05
  71.0854 C5H11+ 1 71.0855 -1.58
  169.9229 C3H2Cl2NOS+ 1 169.9229 0.19
PK$NUM_PEAK: 3
PK$PEAK: m/z int. rel.int.
  57.0696 74333.6 317
  71.0854 70477.3 300
  169.9229 234160.5 999
//
