ACCESSION: MSBNK-UFZ-WANA132101AD6CPH
RECORD_TITLE: 1-Naphthylamine; LC-ESI-ITFT; MS2; CE: 10%; R=15000; [M+H]+
DATE: 2023.08.12
AUTHORS: Tobias Schulze, Martin Krauss, Department of Effect-Directed Analysis, Helmholtz Centre for Environmental Research - UFZ, Leipzig, Germany
LICENSE: CC0
COPYRIGHT: Copyright (C) 2023
COMMENT: CONFIDENCE Reference Standard (Level 1)
CH$NAME: 1-Naphthylamine
CH$NAME: naphthalen-1-amine
CH$COMPOUND_CLASS: N/A; Environmental Standard
CH$FORMULA: C10H9N
CH$EXACT_MASS: 143.073499288
CH$SMILES: NC1=C2C=CC=CC2=CC=C1
CH$IUPAC: InChI=1S/C10H9N/c11-10-7-3-5-8-4-1-2-6-9(8)10/h1-7H,11H2
CH$LINK: CAS 134-32-7
CH$LINK: CHEBI CHEBI:50450
CH$LINK: KEGG C14790
CH$LINK: PUBCHEM CID:8640
CH$LINK: INCHIKEY RUFPHBVGCFYCNW-UHFFFAOYSA-N
CH$LINK: CHEMSPIDER 8319
CH$LINK: COMPTOX DTXSID7020920
AC$INSTRUMENT: LTQ Orbitrap XL Thermo Scientific
AC$INSTRUMENT_TYPE: LC-ESI-ITFT
AC$MASS_SPECTROMETRY: MS_TYPE MS2
AC$MASS_SPECTROMETRY: ION_MODE POSITIVE
AC$MASS_SPECTROMETRY: IONIZATION ESI
AC$MASS_SPECTROMETRY: FRAGMENTATION_MODE HCD
AC$MASS_SPECTROMETRY: COLLISION_ENERGY 10 % (nominal)
AC$MASS_SPECTROMETRY: RESOLUTION 15000
AC$MASS_SPECTROMETRY: MASS_RANGE_M/Z 50-155
AC$CHROMATOGRAPHY: COLUMN_NAME Kinetex Evo C18 2.6 um 50 x 2.1 mm
AC$CHROMATOGRAPHY: FLOW_GRADIENT 95/5 at 0 min, 95/5 at 1 min, 0/100 at 13 min, 0/100 at 24 min, 95/5 at 24.3 min, 95/5 at 32 min
AC$CHROMATOGRAPHY: FLOW_RATE 300 uL/min
AC$CHROMATOGRAPHY: RETENTION_TIME 2.528 min
MS$FOCUSED_ION: BASE_PEAK 144.0809
MS$FOCUSED_ION: PRECURSOR_M/Z 144.0808
MS$FOCUSED_ION: PRECURSOR_TYPE [M+H]+
MS$FOCUSED_ION: PRECURSOR_INTENSITY 26746976
MS$DATA_PROCESSING: RECALIBRATE loess on assigned fragments and MS1
MS$DATA_PROCESSING: REANALYZE Peaks with additional N2/O included
MS$DATA_PROCESSING: WHOLE RMassBank 3.11.2
PK$SPLASH: splash10-0006-0900000000-0ba0e4430d91a32cdbb2
PK$ANNOTATION: m/z tentative_formula formula_count mass error(ppm)
  143.0727 C10H9N+ 1 143.073 -1.88
  144.0804 C10H10N+ 1 144.0808 -2.73
PK$NUM_PEAK: 2
PK$PEAK: m/z int. rel.int.
  143.0727 8175.3 1
  144.0804 5980875.5 999
//
