ACCESSION: MSBNK-UFZ-WANA263103B085PH
RECORD_TITLE: 2-Aminobiphenyl; LC-ESI-ITFT; MS2; CE: 20%; R=15000; [M+H]+
DATE: 2023.08.12
AUTHORS: Tobias Schulze, Martin Krauss, Department of Effect-Directed Analysis, Helmholtz Centre for Environmental Research - UFZ, Leipzig, Germany
LICENSE: CC0
COPYRIGHT: Copyright (C) 2023
COMMENT: CONFIDENCE Reference Standard (Level 1)
CH$NAME: 2-Aminobiphenyl
CH$NAME: 2-phenylaniline
CH$COMPOUND_CLASS: N/A; Environmental Standard
CH$FORMULA: C12H11N
CH$EXACT_MASS: 169.089149352
CH$SMILES: NC1=C(C=CC=C1)C1=CC=CC=C1
CH$IUPAC: InChI=1S/C12H11N/c13-12-9-5-4-8-11(12)10-6-2-1-3-7-10/h1-9H,13H2
CH$LINK: CAS 90-41-5
CH$LINK: PUBCHEM CID:7015
CH$LINK: INCHIKEY TWBPWBPGNQWFSJ-UHFFFAOYSA-N
CH$LINK: CHEMSPIDER 6748
CH$LINK: COMPTOX DTXSID3030189
AC$INSTRUMENT: LTQ Orbitrap XL Thermo Scientific
AC$INSTRUMENT_TYPE: LC-ESI-ITFT
AC$MASS_SPECTROMETRY: MS_TYPE MS2
AC$MASS_SPECTROMETRY: ION_MODE POSITIVE
AC$MASS_SPECTROMETRY: IONIZATION ESI
AC$MASS_SPECTROMETRY: FRAGMENTATION_MODE HCD
AC$MASS_SPECTROMETRY: COLLISION_ENERGY 20 % (nominal)
AC$MASS_SPECTROMETRY: RESOLUTION 15000
AC$MASS_SPECTROMETRY: MASS_RANGE_M/Z 50-185
AC$CHROMATOGRAPHY: COLUMN_NAME Kinetex Evo C18 2.6 um 50 x 2.1 mm
AC$CHROMATOGRAPHY: FLOW_GRADIENT 95/5 at 0 min, 95/5 at 1 min, 0/100 at 13 min, 0/100 at 24 min, 95/5 at 24.3 min, 95/5 at 32 min
AC$CHROMATOGRAPHY: FLOW_RATE 300 uL/min
AC$CHROMATOGRAPHY: RETENTION_TIME 8.213 min
MS$FOCUSED_ION: BASE_PEAK 170.0965
MS$FOCUSED_ION: PRECURSOR_M/Z 170.0964
MS$FOCUSED_ION: PRECURSOR_TYPE [M+H]+
MS$FOCUSED_ION: PRECURSOR_INTENSITY 44284872
MS$DATA_PROCESSING: RECALIBRATE loess on assigned fragments and MS1
MS$DATA_PROCESSING: REANALYZE Peaks with additional N2/O included
MS$DATA_PROCESSING: WHOLE RMassBank 3.11.2
PK$SPLASH: splash10-00di-0900000000-5f7b9d90fb76eb02e033
PK$ANNOTATION: m/z tentative_formula formula_count mass error(ppm)
  169.0892 C12H11N+ 1 169.0886 3.65
  170.0961 C12H12N+ 1 170.0964 -2.1
PK$NUM_PEAK: 2
PK$PEAK: m/z int. rel.int.
  169.0892 25421.3 1
  170.0961 23571596 999
//
