ACCESSION: MSBNK-UFZ-WANA1321213166PH
RECORD_TITLE: 1-Naphthylamine; LC-ESI-ITFT; MS2; CE: 70%; R=15000; [M+H]+
DATE: 2023.08.13
AUTHORS: Tobias Schulze, Martin Krauss, Department of Effect-Directed Analysis, Helmholtz Centre for Environmental Research - UFZ, Leipzig, Germany
LICENSE: CC0
COPYRIGHT: Copyright (C) 2023
COMMENT: CONFIDENCE Reference Standard (Level 1)
CH$NAME: 1-Naphthylamine
CH$NAME: naphthalen-1-amine
CH$COMPOUND_CLASS: N/A; Environmental Standard
CH$FORMULA: C10H9N
CH$EXACT_MASS: 143.073499288
CH$SMILES: NC1=C2C=CC=CC2=CC=C1
CH$IUPAC: InChI=1S/C10H9N/c11-10-7-3-5-8-4-1-2-6-9(8)10/h1-7H,11H2
CH$LINK: CAS 134-32-7
CH$LINK: CHEBI CHEBI:50450
CH$LINK: KEGG C14790
CH$LINK: PUBCHEM CID:8640
CH$LINK: INCHIKEY RUFPHBVGCFYCNW-UHFFFAOYSA-N
CH$LINK: CHEMSPIDER 8319
CH$LINK: COMPTOX DTXSID7020920
AC$INSTRUMENT: LTQ Orbitrap XL Thermo Scientific
AC$INSTRUMENT_TYPE: LC-ESI-ITFT
AC$MASS_SPECTROMETRY: MS_TYPE MS2
AC$MASS_SPECTROMETRY: ION_MODE POSITIVE
AC$MASS_SPECTROMETRY: IONIZATION ESI
AC$MASS_SPECTROMETRY: FRAGMENTATION_MODE HCD
AC$MASS_SPECTROMETRY: COLLISION_ENERGY 70 % (nominal)
AC$MASS_SPECTROMETRY: RESOLUTION 15000
AC$MASS_SPECTROMETRY: MASS_RANGE_M/Z 50-155
AC$CHROMATOGRAPHY: COLUMN_NAME Kinetex Evo C18 2.6 um 50 x 2.1 mm
AC$CHROMATOGRAPHY: FLOW_GRADIENT 95/5 at 0 min, 95/5 at 1 min, 0/100 at 13 min, 0/100 at 24 min, 95/5 at 24.3 min, 95/5 at 32 min
AC$CHROMATOGRAPHY: FLOW_RATE 300 uL/min
AC$CHROMATOGRAPHY: RETENTION_TIME 2.534 min
MS$FOCUSED_ION: BASE_PEAK 144.0809
MS$FOCUSED_ION: PRECURSOR_M/Z 144.0808
MS$FOCUSED_ION: PRECURSOR_TYPE [M+H]+
MS$FOCUSED_ION: PRECURSOR_INTENSITY 22160560
MS$DATA_PROCESSING: RECALIBRATE loess on assigned fragments and MS1
MS$DATA_PROCESSING: REANALYZE Peaks with additional N2/O included
MS$DATA_PROCESSING: WHOLE RMassBank 3.11.2
PK$SPLASH: splash10-0006-0900000000-96c8856d0c016a38c17b
PK$ANNOTATION: m/z tentative_formula formula_count mass error(ppm)
  91.0542 C7H7+ 1 91.0542 -0.82
  103.0539 C8H7+ 1 103.0542 -3.19
  115.054 C9H7+ 1 115.0542 -1.66
  116.0496 C8H6N+ 1 116.0495 0.94
  117.0697 C9H9+ 1 117.0699 -1.57
  127.054 C10H7+ 1 127.0542 -1.89
  128.0619 C10H8+ 1 128.0621 -1.28
  143.0729 C10H9N+ 1 143.073 -0.09
  144.0805 C10H10N+ 1 144.0808 -2.22
PK$NUM_PEAK: 9
PK$PEAK: m/z int. rel.int.
  91.0542 6621.8 1
  103.0539 9373.2 1
  115.054 30237.8 4
  116.0496 7495.8 1
  117.0697 759419.4 124
  127.054 234709 38
  128.0619 105464.6 17
  143.0729 1069333.1 175
  144.0805 6084857 999
//
