ACCESSION: MSBNK-UFZ-UF405203
RECORD_TITLE: 3,4-Dichlorophenylurea; LC-ESI-ITFT; MS2; CE: 35; R=15000; [M+H]+
DATE: 2017.01.05
AUTHORS: Schulze T, Krauss M, Department of Effect-Directed Analysis, Helmholtz Centre for Environmental Research - UFZ GmbH, Leipzig, Germany
LICENSE: CC BY
COPYRIGHT: Copyright (C) 2017
COMMENT: CONFIDENCE standard compound
COMMENT: INTERNAL_ID 4052
CH$NAME: 3,4-Dichlorophenylurea
CH$NAME: 1-(3,4-Dichlorophenyl)urea
CH$NAME: (3,4-Dichlorophenyl)urea
CH$COMPOUND_CLASS: N/A; Environmental Standard
CH$FORMULA: C7H6Cl2N2O
CH$EXACT_MASS: 203.9857
CH$SMILES: NC(=O)NC1=CC(Cl)=C(Cl)C=C1
CH$IUPAC: InChI=1S/C7H6Cl2N2O/c8-5-2-1-4(3-6(5)9)11-7(10)12/h1-3H,(H3,10,11,12)
CH$LINK: CAS 2327-02-8
CH$LINK: CHEBI CHEBI:83464
CH$LINK: PUBCHEM CID:16854
CH$LINK: INCHIKEY CYESCLHCWJKRKM-UHFFFAOYSA-N
CH$LINK: CHEMSPIDER 15972
CH$LINK: COMPTOX DTXSID2041468
AC$INSTRUMENT: LTQ Orbitrap XL Thermo Scientific
AC$INSTRUMENT_TYPE: LC-ESI-ITFT
AC$MASS_SPECTROMETRY: MS_TYPE MS2
AC$MASS_SPECTROMETRY: ION_MODE POSITIVE
AC$MASS_SPECTROMETRY: IONIZATION ESI
AC$MASS_SPECTROMETRY: FRAGMENTATION_MODE CID
AC$MASS_SPECTROMETRY: COLLISION_ENERGY 35 (nominal)
AC$MASS_SPECTROMETRY: RESOLUTION 15000
AC$CHROMATOGRAPHY: COLUMN_NAME Kinetex Core-Shell C18 2.6 um, 3.0 x 100 mm, Phenomenex
AC$CHROMATOGRAPHY: FLOW_GRADIENT 90/10 at 0 min, 80/20 at 3.2 min, 5/95 at 17.8 min, 5/95 at 37.8 min, 90/10 at 37.9 min, 90/10 at 47 min
AC$CHROMATOGRAPHY: FLOW_RATE 200 uL/min
AC$CHROMATOGRAPHY: RETENTION_TIME 22.812 min
AC$CHROMATOGRAPHY: SOLVENT A water with 0.1% formic acid
AC$CHROMATOGRAPHY: SOLVENT B methanol with 0.1% formic acid
MS$FOCUSED_ION: BASE_PEAK 163.1327
MS$FOCUSED_ION: PRECURSOR_M/Z 204.993
MS$FOCUSED_ION: PRECURSOR_TYPE [M+H]+
MS$DATA_PROCESSING: RECALIBRATE loess on assigned fragments and MS1
MS$DATA_PROCESSING: REANALYZE Peaks with additional N2/O included
MS$DATA_PROCESSING: WHOLE RMassBank 2.2.1
PK$SPLASH: splash10-03di-0900000000-03105449c8f07c32dfde
PK$ANNOTATION: m/z tentative_formula formula_count mass error(ppm)
  127.0183 C6H6ClN+ 1 127.0183 -0.2
  159.9717 C6H4Cl2N+ 1 159.9715 0.93
  161.9872 C6H6Cl2N+ 1 161.9872 -0.19
  187.9665 C7H4Cl2NO+ 1 187.9664 0.16
  204.993 C7H7Cl2N2O+ 1 204.993 -0.21
PK$NUM_PEAK: 5
PK$PEAK: m/z int. rel.int.
  127.0183 19443.7 29
  159.9717 3394.1 5
  161.9872 662359.7 999
  187.9665 70801.8 106
  204.993 12142.1 18
//
