ACCESSION: MSBNK-UFZ-UF424003
RECORD_TITLE: Bisphenol S; LC-ESI-ITFT; MS2; CE: 35; R=15000; [M+H]+
DATE: 2017.01.05
AUTHORS: Schulze T, Krauss M, Department of Effect-Directed Analysis, Helmholtz Centre for Environmental Research - UFZ GmbH, Leipzig, Germany
LICENSE: CC BY
COPYRIGHT: Copyright (C) 2017
COMMENT: CONFIDENCE standard compound
COMMENT: INTERNAL_ID 4240
CH$NAME: Bisphenol S
CH$NAME: 4,4`-Sulfonyldiphenol
CH$NAME: 4-(4-Hydroxyphenyl)sulfonylphenol
CH$COMPOUND_CLASS: N/A; Environmental Standard
CH$FORMULA: C12H10O4S
CH$EXACT_MASS: 250.0300
CH$SMILES: OC1=CC=C(C=C1)S(=O)(=O)C1=CC=C(O)C=C1
CH$IUPAC: InChI=1S/C12H10O4S/c13-9-1-5-11(6-2-9)17(15,16)12-7-3-10(14)4-8-12/h1-8,13-14H
CH$LINK: CAS 80-09-1
CH$LINK: CHEBI CHEBI:34372
CH$LINK: KEGG C14216
CH$LINK: PUBCHEM CID:6626
CH$LINK: INCHIKEY VPWNQTHUCYMVMZ-UHFFFAOYSA-N
CH$LINK: CHEMSPIDER 6374
CH$LINK: COMPTOX DTXSID3022409
AC$INSTRUMENT: LTQ Orbitrap XL Thermo Scientific
AC$INSTRUMENT_TYPE: LC-ESI-ITFT
AC$MASS_SPECTROMETRY: MS_TYPE MS2
AC$MASS_SPECTROMETRY: ION_MODE POSITIVE
AC$MASS_SPECTROMETRY: IONIZATION ESI
AC$MASS_SPECTROMETRY: FRAGMENTATION_MODE CID
AC$MASS_SPECTROMETRY: COLLISION_ENERGY 35 (nominal)
AC$MASS_SPECTROMETRY: RESOLUTION 15000
AC$CHROMATOGRAPHY: COLUMN_NAME Kinetex Core-Shell C18 2.6 um, 3.0 x 100 mm, Phenomenex
AC$CHROMATOGRAPHY: FLOW_GRADIENT 90/10 at 0 min, 80/20 at 3.2 min, 5/95 at 17.8 min, 5/95 at 37.8 min, 90/10 at 37.9 min, 90/10 at 47 min
AC$CHROMATOGRAPHY: FLOW_RATE 200 uL/min
AC$CHROMATOGRAPHY: RETENTION_TIME 19.349 min
AC$CHROMATOGRAPHY: SOLVENT A water with 0.1% formic acid
AC$CHROMATOGRAPHY: SOLVENT B methanol with 0.1% formic acid
MS$FOCUSED_ION: BASE_PEAK 163.1324
MS$FOCUSED_ION: PRECURSOR_M/Z 251.0373
MS$FOCUSED_ION: PRECURSOR_TYPE [M+H]+
MS$DATA_PROCESSING: RECALIBRATE loess on assigned fragments and MS1
MS$DATA_PROCESSING: REANALYZE Peaks with additional N2/O included
MS$DATA_PROCESSING: WHOLE RMassBank 2.2.1
PK$SPLASH: splash10-0a4i-0920000000-ad798b68532513833ae4
PK$ANNOTATION: m/z tentative_formula formula_count mass error(ppm)
  65.0383 C5H5+ 1 65.0386 -3.88
  81.0333 C5H5O+ 1 81.0335 -2
  93.0332 C6H5O+ 1 93.0335 -2.71
  109.0282 C6H5O2+ 1 109.0284 -2.1
  111.0437 C6H7O2+ 1 111.0441 -2.87
  121.0394 C6H5N2O+ 1 121.0396 -2.08
  156.995 C6H5O3S+ 1 156.9954 -2.56
  222.9971 C12H3N2OS+ 1 222.9961 4.53
  251.0368 C12H11O4S+ 1 251.0373 -1.85
PK$NUM_PEAK: 9
PK$PEAK: m/z int. rel.int.
  65.0383 135758.3 13
  81.0333 21927.7 2
  93.0332 247437.1 24
  109.0282 996069.1 98
  111.0437 27867.7 2
  121.0394 405755.2 40
  156.995 10122684 999
  222.9971 105073.5 10
  251.0368 2587925.5 255
//
