ACCESSION: MSBNK-UFZ-WANA238203B085PH
RECORD_TITLE: Dodemorph; LC-ESI-ITFT; MS2; CE: 20%; R=15000; [M+H]+
DATE: 2023.08.12
AUTHORS: Tobias Schulze, Martin Krauss, Department of Effect-Directed Analysis, Helmholtz Centre for Environmental Research - UFZ, Leipzig, Germany
LICENSE: CC0
COPYRIGHT: Copyright (C) 2023
COMMENT: CONFIDENCE Reference Standard (Level 1)
CH$NAME: Dodemorph
CH$NAME: 4-cyclododecyl-2,6-dimethylmorpholine
CH$COMPOUND_CLASS: N/A; Environmental Standard
CH$FORMULA: C18H35NO
CH$EXACT_MASS: 281.27186474
CH$SMILES: CC1CN(CC(C)O1)C1CCCCCCCCCCC1
CH$IUPAC: InChI=1S/C18H35NO/c1-16-14-19(15-17(2)20-16)18-12-10-8-6-4-3-5-7-9-11-13-18/h16-18H,3-15H2,1-2H3
CH$LINK: CAS 1593-77-7
CH$LINK: CHEBI CHEBI:81960
CH$LINK: KEGG C18786
CH$LINK: PUBCHEM CID:61899
CH$LINK: INCHIKEY JMXKCYUTURMERF-UHFFFAOYSA-N
CH$LINK: CHEMSPIDER 55760
CH$LINK: COMPTOX DTXSID5041019
AC$INSTRUMENT: LTQ Orbitrap XL Thermo Scientific
AC$INSTRUMENT_TYPE: LC-ESI-ITFT
AC$MASS_SPECTROMETRY: MS_TYPE MS2
AC$MASS_SPECTROMETRY: ION_MODE POSITIVE
AC$MASS_SPECTROMETRY: IONIZATION ESI
AC$MASS_SPECTROMETRY: FRAGMENTATION_MODE HCD
AC$MASS_SPECTROMETRY: COLLISION_ENERGY 20 % (nominal)
AC$MASS_SPECTROMETRY: RESOLUTION 15000
AC$MASS_SPECTROMETRY: MASS_RANGE_M/Z 50-295
AC$CHROMATOGRAPHY: COLUMN_NAME Kinetex Evo C18 2.6 um 50 x 2.1 mm
AC$CHROMATOGRAPHY: FLOW_GRADIENT 95/5 at 0 min, 95/5 at 1 min, 0/100 at 13 min, 0/100 at 24 min, 95/5 at 24.3 min, 95/5 at 32 min
AC$CHROMATOGRAPHY: FLOW_RATE 300 uL/min
AC$CHROMATOGRAPHY: RETENTION_TIME 8.644 min
MS$FOCUSED_ION: BASE_PEAK 282.2798
MS$FOCUSED_ION: PRECURSOR_M/Z 282.2791
MS$FOCUSED_ION: PRECURSOR_TYPE [M+H]+
MS$FOCUSED_ION: PRECURSOR_INTENSITY 2842053.5
MS$DATA_PROCESSING: RECALIBRATE loess on assigned fragments and MS1
MS$DATA_PROCESSING: REANALYZE Peaks with additional N2/O included
MS$DATA_PROCESSING: WHOLE RMassBank 3.11.2
PK$SPLASH: splash10-001i-0090000000-389f8be2a5537af99564
PK$ANNOTATION: m/z tentative_formula formula_count mass error(ppm)
  116.1072 C6H14NO+ 1 116.107 1.56
  282.2798 C18H36NO+ 1 282.2791 2.4
PK$NUM_PEAK: 2
PK$PEAK: m/z int. rel.int.
  116.1072 1811.8 9
  282.2798 197921.9 999
//
