ACCESSION: MSBNK-UFZ-WANA0006155BE0PH
RECORD_TITLE: Azinphos methyl; LC-ESI-ITFT; MS2; CE: 60%; R=15000; [M+H]+
DATE: 2023.08.12
AUTHORS: Tobias Schulze, Martin Krauss, Department of Effect-Directed Analysis, Helmholtz Centre for Environmental Research - UFZ, Leipzig, Germany
LICENSE: CC0
COPYRIGHT: Copyright (C) 2023
COMMENT: CONFIDENCE Reference Standard (Level 1)
CH$NAME: Azinphos methyl
CH$NAME: Azinphos-methyl
CH$NAME: 3-(dimethoxyphosphinothioylsulfanylmethyl)-1,2,3-benzotriazin-4-one
CH$COMPOUND_CLASS: N/A; Environmental Standard
CH$FORMULA: C10H12N3O3PS2
CH$EXACT_MASS: 317.005769874
CH$SMILES: COP(=S)(OC)SCN1N=NC2=CC=CC=C2C1=O
CH$IUPAC: InChI=1S/C10H12N3O3PS2/c1-15-17(18,16-2)19-7-13-10(14)8-5-3-4-6-9(8)11-12-13/h3-6H,7H2,1-2H3
CH$LINK: CAS 86-50-0
CH$LINK: CHEBI CHEBI:2953
CH$LINK: KEGG C11018
CH$LINK: PUBCHEM CID:2268
CH$LINK: INCHIKEY CJJOSEISRRTUQB-UHFFFAOYSA-N
CH$LINK: CHEMSPIDER 2181
CH$LINK: COMPTOX DTXSID3020122
AC$INSTRUMENT: LTQ Orbitrap XL Thermo Scientific
AC$INSTRUMENT_TYPE: LC-ESI-ITFT
AC$MASS_SPECTROMETRY: MS_TYPE MS2
AC$MASS_SPECTROMETRY: ION_MODE POSITIVE
AC$MASS_SPECTROMETRY: IONIZATION ESI
AC$MASS_SPECTROMETRY: FRAGMENTATION_MODE HCD
AC$MASS_SPECTROMETRY: COLLISION_ENERGY 60 % (nominal)
AC$MASS_SPECTROMETRY: RESOLUTION 15000
AC$MASS_SPECTROMETRY: MASS_RANGE_M/Z 50-330
AC$CHROMATOGRAPHY: COLUMN_NAME Kinetex Evo C18 2.6 um 50 x 2.1 mm
AC$CHROMATOGRAPHY: FLOW_GRADIENT 95/5 at 0 min, 95/5 at 1 min, 0/100 at 13 min, 0/100 at 24 min, 95/5 at 24.3 min, 95/5 at 32 min
AC$CHROMATOGRAPHY: FLOW_RATE 300 uL/min
AC$CHROMATOGRAPHY: RETENTION_TIME 10.764 min
MS$FOCUSED_ION: BASE_PEAK 339.9961
MS$FOCUSED_ION: PRECURSOR_M/Z 318.013
MS$FOCUSED_ION: PRECURSOR_TYPE [M+H]+
MS$FOCUSED_ION: PRECURSOR_INTENSITY 2109922.75
MS$DATA_PROCESSING: RECALIBRATE loess on assigned fragments and MS1
MS$DATA_PROCESSING: REANALYZE Peaks with additional N2/O included
MS$DATA_PROCESSING: WHOLE RMassBank 3.11.2
PK$SPLASH: splash10-00di-1900000000-5d69610fb2fb29410ec8
PK$ANNOTATION: m/z tentative_formula formula_count mass error(ppm)
  77.0389 C2H8NP+ 2 77.0389 -0.25
  78.9946 CH4O2P+ 1 78.9943 3.85
  104.05 CH12O3S+ 2 104.0502 -1.47
  105.0341 C3H8NOP+ 1 105.0338 2.73
  105.0451 C2H8N3P+ 3 105.045 0.96
  124.9826 C2H6O2PS+ 1 124.9821 4.31
  132.045 C4H9N2OP+ 2 132.0447 1.92
  142.9932 C2H8O3PS+ 1 142.9926 4.27
  167.0171 C4H10NO2PS+ 1 167.0164 3.76
PK$NUM_PEAK: 9
PK$PEAK: m/z int. rel.int.
  77.0389 4577.3 120
  78.9946 7898.3 208
  104.05 3759 99
  105.0341 3940.8 104
  105.0451 2258.7 59
  124.9826 37804.6 999
  132.045 4006.7 105
  142.9932 16344 431
  167.0171 3630.4 95
//
