ACCESSION: MSBNK-UFZ-WANA2390213166PH
RECORD_TITLE: Propyzamide; LC-ESI-ITFT; MS2; CE: 70%; R=15000; [M+H]+
DATE: 2023.08.13
AUTHORS: Tobias Schulze, Martin Krauss, Department of Effect-Directed Analysis, Helmholtz Centre for Environmental Research - UFZ, Leipzig, Germany
LICENSE: CC0
COPYRIGHT: Copyright (C) 2023
COMMENT: CONFIDENCE Reference Standard (Level 1)
CH$NAME: Propyzamide
CH$NAME: 3,5-dichloro-N-(2-methylbut-3-yn-2-yl)benzamide
CH$COMPOUND_CLASS: N/A; Environmental Standard
CH$FORMULA: C12H11Cl2NO
CH$EXACT_MASS: 255.021769332
CH$SMILES: CC(C)(NC(=O)C1=CC(Cl)=CC(Cl)=C1)C#C
CH$IUPAC: InChI=1S/C12H11Cl2NO/c1-4-12(2,3)15-11(16)8-5-9(13)7-10(14)6-8/h1,5-7H,2-3H3,(H,15,16)
CH$LINK: CAS 11097-11-3
CH$LINK: CHEBI CHEBI:34935
CH$LINK: KEGG C14333
CH$LINK: PUBCHEM CID:32154
CH$LINK: INCHIKEY PHNUZKMIPFFYSO-UHFFFAOYSA-N
CH$LINK: CHEMSPIDER 29822
CH$LINK: COMPTOX DTXSID2020420
AC$INSTRUMENT: LTQ Orbitrap XL Thermo Scientific
AC$INSTRUMENT_TYPE: LC-ESI-ITFT
AC$MASS_SPECTROMETRY: MS_TYPE MS2
AC$MASS_SPECTROMETRY: ION_MODE POSITIVE
AC$MASS_SPECTROMETRY: IONIZATION ESI
AC$MASS_SPECTROMETRY: FRAGMENTATION_MODE HCD
AC$MASS_SPECTROMETRY: COLLISION_ENERGY 70 % (nominal)
AC$MASS_SPECTROMETRY: RESOLUTION 15000
AC$MASS_SPECTROMETRY: MASS_RANGE_M/Z 50-270
AC$CHROMATOGRAPHY: COLUMN_NAME Kinetex Evo C18 2.6 um 50 x 2.1 mm
AC$CHROMATOGRAPHY: FLOW_GRADIENT 95/5 at 0 min, 95/5 at 1 min, 0/100 at 13 min, 0/100 at 24 min, 95/5 at 24.3 min, 95/5 at 32 min
AC$CHROMATOGRAPHY: FLOW_RATE 300 uL/min
AC$CHROMATOGRAPHY: RETENTION_TIME 11.074 min
MS$FOCUSED_ION: BASE_PEAK 230.1171
MS$FOCUSED_ION: PRECURSOR_M/Z 256.029
MS$FOCUSED_ION: PRECURSOR_TYPE [M+H]+
MS$FOCUSED_ION: PRECURSOR_INTENSITY 11500178
MS$DATA_PROCESSING: RECALIBRATE loess on assigned fragments and MS1
MS$DATA_PROCESSING: REANALYZE Peaks with additional N2/O included
MS$DATA_PROCESSING: WHOLE RMassBank 3.11.2
PK$SPLASH: splash10-00di-0900000000-48f52999fb262759a1b7
PK$ANNOTATION: m/z tentative_formula formula_count mass error(ppm)
  65.0383 C5H5+ 1 65.0386 -3.73
  67.054 C5H7+ 1 67.0542 -3.61
  126.9948 C6H4ClO+ 2 126.9945 2.02
  144.9602 C6H3Cl2+ 1 144.9606 -2.67
  146.9761 C6H5Cl2+ 1 146.9763 -1.18
  162.9717 C6H5Cl2O+ 1 162.9712 2.94
  171.9713 C7H4Cl2N+ 2 171.9715 -1.12
  172.9554 C7H3Cl2O+ 1 172.9555 -0.99
  172.9664 C9ClNO+ 1 172.9663 0.84
  189.9818 C7H6Cl2NO+ 1 189.9821 -1.48
PK$NUM_PEAK: 10
PK$PEAK: m/z int. rel.int.
  65.0383 10107.3 25
  67.054 23073.3 58
  126.9948 2190.1 5
  144.9602 3941.1 9
  146.9761 5124.5 13
  162.9717 2463.1 6
  171.9713 8364.2 21
  172.9554 393742.5 999
  172.9664 127876.5 324
  189.9818 32629.9 82
//
