ACCESSION: MSBNK-UFZ-WANA017413D9F1PH
RECORD_TITLE: Ketoprofen; LC-ESI-ITFT; MS2; CE: 50%; R=15000; [M+H]+
DATE: 2023.08.12
AUTHORS: Tobias Schulze, Martin Krauss, Department of Effect-Directed Analysis, Helmholtz Centre for Environmental Research - UFZ, Leipzig, Germany
LICENSE: CC0
COPYRIGHT: Copyright (C) 2023
COMMENT: CONFIDENCE Reference Standard (Level 1)
CH$NAME: Ketoprofen
CH$NAME: 2-(3-benzoylphenyl)propanoic acid
CH$COMPOUND_CLASS: N/A; Environmental Standard
CH$FORMULA: C16H14O3
CH$EXACT_MASS: 254.094294308
CH$SMILES: CC(C(O)=O)C1=CC=CC(=C1)C(=O)C1=CC=CC=C1
CH$IUPAC: InChI=1S/C16H14O3/c1-11(16(18)19)13-8-5-9-14(10-13)15(17)12-6-3-2-4-7-12/h2-11H,1H3,(H,18,19)
CH$LINK: CAS 22161-81-5
CH$LINK: CHEBI CHEBI:6128
CH$LINK: KEGG D00132
CH$LINK: PUBCHEM CID:3825
CH$LINK: INCHIKEY DKYWVDODHFEZIM-UHFFFAOYSA-N
CH$LINK: CHEMSPIDER 3693
CH$LINK: COMPTOX DTXSID6020771
AC$INSTRUMENT: LTQ Orbitrap XL Thermo Scientific
AC$INSTRUMENT_TYPE: LC-ESI-ITFT
AC$MASS_SPECTROMETRY: MS_TYPE MS2
AC$MASS_SPECTROMETRY: ION_MODE POSITIVE
AC$MASS_SPECTROMETRY: IONIZATION ESI
AC$MASS_SPECTROMETRY: FRAGMENTATION_MODE HCD
AC$MASS_SPECTROMETRY: COLLISION_ENERGY 50 % (nominal)
AC$MASS_SPECTROMETRY: RESOLUTION 15000
AC$MASS_SPECTROMETRY: MASS_RANGE_M/Z 50-270
AC$CHROMATOGRAPHY: COLUMN_NAME Kinetex Evo C18 2.6 um 50 x 2.1 mm
AC$CHROMATOGRAPHY: FLOW_GRADIENT 95/5 at 0 min, 95/5 at 1 min, 0/100 at 13 min, 0/100 at 24 min, 95/5 at 24.3 min, 95/5 at 32 min
AC$CHROMATOGRAPHY: FLOW_RATE 300 uL/min
AC$CHROMATOGRAPHY: RETENTION_TIME 10.763 min
MS$FOCUSED_ION: BASE_PEAK 416.9909
MS$FOCUSED_ION: PRECURSOR_M/Z 255.1016
MS$FOCUSED_ION: PRECURSOR_TYPE [M+H]+
MS$FOCUSED_ION: PRECURSOR_INTENSITY 10229253
MS$DATA_PROCESSING: RECALIBRATE loess on assigned fragments and MS1
MS$DATA_PROCESSING: REANALYZE Peaks with additional N2/O included
MS$DATA_PROCESSING: WHOLE RMassBank 3.11.2
PK$SPLASH: splash10-0a4i-0930000000-596c7d86175615dd3bd8
PK$ANNOTATION: m/z tentative_formula formula_count mass error(ppm)
  77.0388 C6H5+ 1 77.0386 2.39
  93.0702 C7H9+ 1 93.0699 3.05
  95.0494 C6H7O+ 1 95.0491 3.13
  103.0546 C8H7+ 1 103.0542 3.58
  105.0338 C7H5O+ 1 105.0335 2.63
  121.0651 C8H9O+ 1 121.0648 2.89
  131.0495 C9H7O+ 1 131.0491 2.42
  166.0784 C13H10+ 1 166.0777 4.35
  177.0551 C10H9O3+ 1 177.0546 2.64
  181.1013 C14H13+ 1 181.1012 0.61
  194.0731 C14H10O+ 1 194.0726 2.32
  209.0965 C15H13O+ 1 209.0961 2.03
  255.1022 C16H15O3+ 1 255.1016 2.61
PK$NUM_PEAK: 13
PK$PEAK: m/z int. rel.int.
  77.0388 20993 28
  93.0702 2135.3 2
  95.0494 3068.6 4
  103.0546 10014 13
  105.0338 723310.2 999
  121.0651 3310.3 4
  131.0495 32563.4 44
  166.0784 2351 3
  177.0551 139789.2 193
  181.1013 5486.5 7
  194.0731 58799.5 81
  209.0965 386008.5 533
  255.1022 1928.7 2
//
