ACCESSION: MSBNK-UFZ-WANA227611C9CFPH
RECORD_TITLE: Tetracain; LC-ESI-ITFT; MS2; CE: 40%; R=15000; [M+H]+
DATE: 2023.08.12
AUTHORS: Tobias Schulze, Martin Krauss, Department of Effect-Directed Analysis, Helmholtz Centre for Environmental Research - UFZ, Leipzig, Germany
LICENSE: CC0
COPYRIGHT: Copyright (C) 2023
COMMENT: CONFIDENCE Reference Standard (Level 1)
CH$NAME: Tetracain
CH$NAME: Tetracaine
CH$NAME: 2-(dimethylamino)ethyl 4-(butylamino)benzoate
CH$COMPOUND_CLASS: N/A; Environmental Standard
CH$FORMULA: C15H24N2O2
CH$EXACT_MASS: 264.183778008
CH$SMILES: CCCCNC1=CC=C(C=C1)C(=O)OCCN(C)C
CH$IUPAC: InChI=1S/C15H24N2O2/c1-4-5-10-16-14-8-6-13(7-9-14)15(18)19-12-11-17(2)3/h6-9,16H,4-5,10-12H2,1-3H3
CH$LINK: CAS 94-24-6
CH$LINK: CHEBI CHEBI:9468
CH$LINK: KEGG D00551
CH$LINK: PUBCHEM CID:5411
CH$LINK: INCHIKEY GKCBAIGFKIBETG-UHFFFAOYSA-N
CH$LINK: CHEMSPIDER 5218
CH$LINK: COMPTOX DTXSID1043883
AC$INSTRUMENT: LTQ Orbitrap XL Thermo Scientific
AC$INSTRUMENT_TYPE: LC-ESI-ITFT
AC$MASS_SPECTROMETRY: MS_TYPE MS2
AC$MASS_SPECTROMETRY: ION_MODE POSITIVE
AC$MASS_SPECTROMETRY: IONIZATION ESI
AC$MASS_SPECTROMETRY: FRAGMENTATION_MODE HCD
AC$MASS_SPECTROMETRY: COLLISION_ENERGY 40 % (nominal)
AC$MASS_SPECTROMETRY: RESOLUTION 15000
AC$MASS_SPECTROMETRY: MASS_RANGE_M/Z 50-280
AC$CHROMATOGRAPHY: COLUMN_NAME Kinetex Evo C18 2.6 um 50 x 2.1 mm
AC$CHROMATOGRAPHY: FLOW_GRADIENT 95/5 at 0 min, 95/5 at 1 min, 0/100 at 13 min, 0/100 at 24 min, 95/5 at 24.3 min, 95/5 at 32 min
AC$CHROMATOGRAPHY: FLOW_RATE 300 uL/min
AC$CHROMATOGRAPHY: RETENTION_TIME 7.265 min
MS$FOCUSED_ION: BASE_PEAK 265.1919
MS$FOCUSED_ION: PRECURSOR_M/Z 265.1911
MS$FOCUSED_ION: PRECURSOR_TYPE [M+H]+
MS$FOCUSED_ION: PRECURSOR_INTENSITY 39481968
MS$DATA_PROCESSING: RECALIBRATE loess on assigned fragments and MS1
MS$DATA_PROCESSING: REANALYZE Peaks with additional N2/O included
MS$DATA_PROCESSING: WHOLE RMassBank 3.11.2
PK$SPLASH: splash10-004i-2900000000-2f7696e83e3f556c9bfc
PK$ANNOTATION: m/z tentative_formula formula_count mass error(ppm)
  72.0807 C4H10N+ 1 72.0808 -1.37
  176.107 C11H14NO+ 1 176.107 0.32
  220.1333 C13H18NO2+ 1 220.1332 0.43
  265.1911 C15H25N2O2+ 1 265.1911 0.15
PK$NUM_PEAK: 4
PK$PEAK: m/z int. rel.int.
  72.0807 1855529.2 234
  176.107 7903034.5 999
  220.1333 713576.1 90
  265.1911 22333.2 2
//
