ACCESSION: MSBNK-UFZ-UF418004
RECORD_TITLE: Dibutyl phthalate; LC-ESI-ITFT; MS2; CE: 55; R=15000; [M+H]+
DATE: 2017.01.05
AUTHORS: Schulze T, Krauss M, Department of Effect-Directed Analysis, Helmholtz Centre for Environmental Research - UFZ GmbH, Leipzig, Germany
LICENSE: CC BY
COPYRIGHT: Copyright (C) 2017
COMMENT: CONFIDENCE standard compound
COMMENT: INTERNAL_ID 4180
CH$NAME: Dibutyl phthalate
CH$NAME: Benzene-1,2-dicarboxylate-dibuthyl
CH$COMPOUND_CLASS: N/A; Environmental Standard
CH$FORMULA: C16H22O4
CH$EXACT_MASS: 278.1518
CH$SMILES: CCCCOC(=O)C1=CC=CC=C1C(=O)OCCCC
CH$IUPAC: InChI=1S/C16H22O4/c1-3-5-11-19-15(17)13-9-7-8-10-14(13)16(18)20-12-6-4-2/h7-10H,3-6,11-12H2,1-2H3
CH$LINK: CAS 84-74-2
CH$LINK: CHEBI CHEBI:34687
CH$LINK: KEGG C14214
CH$LINK: PUBCHEM CID:3026
CH$LINK: INCHIKEY DOIRQSBPFJWKBE-UHFFFAOYSA-N
CH$LINK: CHEMSPIDER 13837319
CH$LINK: COMPTOX DTXSID2021781
AC$INSTRUMENT: LTQ Orbitrap XL Thermo Scientific
AC$INSTRUMENT_TYPE: LC-ESI-ITFT
AC$MASS_SPECTROMETRY: MS_TYPE MS2
AC$MASS_SPECTROMETRY: ION_MODE POSITIVE
AC$MASS_SPECTROMETRY: IONIZATION ESI
AC$MASS_SPECTROMETRY: FRAGMENTATION_MODE CID
AC$MASS_SPECTROMETRY: COLLISION_ENERGY 55 (nominal)
AC$MASS_SPECTROMETRY: RESOLUTION 15000
AC$CHROMATOGRAPHY: COLUMN_NAME Kinetex Core-Shell C18 2.6 um, 3.0 x 100 mm, Phenomenex
AC$CHROMATOGRAPHY: FLOW_GRADIENT 90/10 at 0 min, 80/20 at 3.2 min, 5/95 at 17.8 min, 5/95 at 37.8 min, 90/10 at 37.9 min, 90/10 at 47 min
AC$CHROMATOGRAPHY: FLOW_RATE 200 uL/min
AC$CHROMATOGRAPHY: RETENTION_TIME 27.060 min
AC$CHROMATOGRAPHY: SOLVENT A water with 0.1% formic acid
AC$CHROMATOGRAPHY: SOLVENT B methanol with 0.1% formic acid
MS$FOCUSED_ION: BASE_PEAK 279.16
MS$FOCUSED_ION: PRECURSOR_M/Z 279.1591
MS$FOCUSED_ION: PRECURSOR_TYPE [M+H]+
MS$DATA_PROCESSING: RECALIBRATE loess on assigned fragments and MS1
MS$DATA_PROCESSING: REANALYZE Peaks with additional N2/O included
MS$DATA_PROCESSING: WHOLE RMassBank 2.2.1
PK$SPLASH: splash10-0002-0920000000-f84bcb5ebbad7fcd0a80
PK$ANNOTATION: m/z tentative_formula formula_count mass error(ppm)
  149.0238 C8H5O3+ 1 149.0233 3.08
  203.0598 C14H7N2+ 1 203.0604 -2.85
  205.0867 C12H13O3+ 1 205.0859 3.58
PK$NUM_PEAK: 3
PK$PEAK: m/z int. rel.int.
  149.0238 325705.8 999
  203.0598 11292 34
  205.0867 97132.6 297
//
