ACCESSION: MSBNK-UFZ-WANA050013D9F1PM
RECORD_TITLE: Amidosulfobetaine-14; LC-ESI-ITFT; MS2; CE: 50%; R=15000; [M]+
DATE: 2023.08.13
AUTHORS: Tobias Schulze, Martin Krauss, Department of Effect-Directed Analysis, Helmholtz Centre for Environmental Research - UFZ, Leipzig, Germany
LICENSE: CC0
COPYRIGHT: Copyright (C) 2023
COMMENT: CONFIDENCE Reference Standard (Level 1)
CH$NAME: Amidosulfobetaine-14
CH$NAME: 3-[Dimethyl[3-(tetradecanoylamino)propyl]aminio]-1-propanesulfonate
CH$NAME: dimethyl-(3-sulfopropyl)-[3-(tetradecanoylamino)propyl]azanium
CH$COMPOUND_CLASS: N/A; Environmental Standard
CH$FORMULA: C22H47N2O4S
CH$EXACT_MASS: 435.325105404091
CH$SMILES: CCCCCCCCCCCCCC(=O)NCCC[N+](C)(C)CCCS(O)(=O)=O
CH$IUPAC: InChI=1S/C22H46N2O4S/c1-4-5-6-7-8-9-10-11-12-13-14-17-22(25)23-18-15-19-24(2,3)20-16-21-29(26,27)28/h4-21H2,1-3H3,(H-,23,25,26,27,28)/p+1
CH$LINK: PUBCHEM CID:4046966
CH$LINK: INCHIKEY UTSXERRKRAEDOV-UHFFFAOYSA-O
CH$LINK: CHEMSPIDER 3263003
AC$INSTRUMENT: LTQ Orbitrap XL Thermo Scientific
AC$INSTRUMENT_TYPE: LC-ESI-ITFT
AC$MASS_SPECTROMETRY: MS_TYPE MS2
AC$MASS_SPECTROMETRY: ION_MODE POSITIVE
AC$MASS_SPECTROMETRY: IONIZATION ESI
AC$MASS_SPECTROMETRY: FRAGMENTATION_MODE HCD
AC$MASS_SPECTROMETRY: COLLISION_ENERGY 50 % (nominal)
AC$MASS_SPECTROMETRY: RESOLUTION 15000
AC$MASS_SPECTROMETRY: MASS_RANGE_M/Z 50-450
AC$CHROMATOGRAPHY: COLUMN_NAME Kinetex Evo C18 2.6 um 50 x 2.1 mm
AC$CHROMATOGRAPHY: FLOW_GRADIENT 95/5 at 0 min, 95/5 at 1 min, 0/100 at 13 min, 0/100 at 24 min, 95/5 at 24.3 min, 95/5 at 32 min
AC$CHROMATOGRAPHY: FLOW_RATE 300 uL/min
AC$CHROMATOGRAPHY: RETENTION_TIME 13.388 min
MS$FOCUSED_ION: BASE_PEAK 371.3275
MS$FOCUSED_ION: PRECURSOR_M/Z 435.3251
MS$FOCUSED_ION: PRECURSOR_TYPE [M]+
MS$FOCUSED_ION: PRECURSOR_INTENSITY 2419737.5
MS$DATA_PROCESSING: RECALIBRATE loess on assigned fragments and MS1
MS$DATA_PROCESSING: REANALYZE Peaks with additional N2/O included
MS$DATA_PROCESSING: WHOLE RMassBank 3.11.2
PK$SPLASH: splash10-014i-1090000000-7d039ec4f2b8e7e10179
PK$ANNOTATION: m/z tentative_formula formula_count mass error(ppm)
  57.0697 C4H9+ 1 57.0699 -2.27
  58.065 C3H8N+ 1 58.0651 -2.08
  67.0543 C5H7+ 1 67.0542 0.65
  69.0699 C5H9+ 1 69.0699 0.84
  71.0856 C5H11+ 1 71.0855 0.38
  81.07 C6H9+ 1 81.0699 1.92
  83.0856 C6H11+ 1 83.0855 1.25
  85.1014 C6H13+ 1 85.1012 2.82
  95.0858 C7H11+ 1 95.0855 2.81
  97.1013 C7H13+ 1 97.1012 1.46
  109.1015 C8H13+ 1 109.1012 3.06
  111.1171 C8H15+ 1 111.1168 2.67
  123.1172 C9H15+ 1 123.1168 2.69
  137.1329 C10H17+ 1 137.1325 3.42
  158.3394 C4H46O4+ 1 158.3391 2.4
  168.0687 C5H14NO3S+ 2 168.0689 -1.1
  211.206 C14H27O+ 2 211.2056 1.88
  268.2641 C11H40O4S+ 2 268.2642 -0.22
PK$NUM_PEAK: 18
PK$PEAK: m/z int. rel.int.
  57.0697 10907.4 32
  58.065 4282.5 12
  67.0543 1828.4 5
  69.0699 3491.9 10
  71.0856 10216.7 30
  81.07 3932.3 11
  83.0856 2352.7 7
  85.1014 5080.4 15
  95.0858 9550.3 28
  97.1013 2295.3 6
  109.1015 4647 13
  111.1171 2142.3 6
  123.1172 2947.4 8
  137.1329 1423.5 4
  158.3394 1804.3 5
  168.0687 1563.8 4
  211.206 6896.5 20
  268.2641 333754 999
//
