ACCESSION: MSBNK-UFZ-WANA273011C9CFPH
RECORD_TITLE: Torasemide; LC-ESI-ITFT; MS2; CE: 40%; R=15000; [M+H]+
DATE: 2023.08.12
AUTHORS: Tobias Schulze, Martin Krauss, Department of Effect-Directed Analysis, Helmholtz Centre for Environmental Research - UFZ, Leipzig, Germany
LICENSE: CC0
COPYRIGHT: Copyright (C) 2023
COMMENT: CONFIDENCE Reference Standard (Level 1)
CH$NAME: Torasemide
CH$NAME: Torsemide
CH$NAME: 1-[4-(3-methylanilino)pyridin-3-yl]sulfonyl-3-propan-2-ylurea
CH$COMPOUND_CLASS: N/A; Environmental Standard
CH$FORMULA: C16H20N4O3S
CH$EXACT_MASS: 348.1256115
CH$SMILES: CC(C)NC(=O)NS(=O)(=O)C1=CN=CC=C1NC1=CC=CC(C)=C1
CH$IUPAC: InChI=1S/C16H20N4O3S/c1-11(2)18-16(21)20-24(22,23)15-10-17-8-7-14(15)19-13-6-4-5-12(3)9-13/h4-11H,1-3H3,(H,17,19)(H2,18,20,21)
CH$LINK: CAS 56211-40-6
CH$LINK: CHEBI CHEBI:9637
CH$LINK: KEGG D00382
CH$LINK: PUBCHEM CID:41781
CH$LINK: INCHIKEY NGBFQHCMQULJNZ-UHFFFAOYSA-N
CH$LINK: CHEMSPIDER 38123
CH$LINK: COMPTOX DTXSID2023690
AC$INSTRUMENT: LTQ Orbitrap XL Thermo Scientific
AC$INSTRUMENT_TYPE: LC-ESI-ITFT
AC$MASS_SPECTROMETRY: MS_TYPE MS2
AC$MASS_SPECTROMETRY: ION_MODE POSITIVE
AC$MASS_SPECTROMETRY: IONIZATION ESI
AC$MASS_SPECTROMETRY: FRAGMENTATION_MODE HCD
AC$MASS_SPECTROMETRY: COLLISION_ENERGY 40 % (nominal)
AC$MASS_SPECTROMETRY: RESOLUTION 15000
AC$MASS_SPECTROMETRY: MASS_RANGE_M/Z 50-360
AC$CHROMATOGRAPHY: COLUMN_NAME Kinetex Evo C18 2.6 um 50 x 2.1 mm
AC$CHROMATOGRAPHY: FLOW_GRADIENT 95/5 at 0 min, 95/5 at 1 min, 0/100 at 13 min, 0/100 at 24 min, 95/5 at 24.3 min, 95/5 at 32 min
AC$CHROMATOGRAPHY: FLOW_RATE 300 uL/min
AC$CHROMATOGRAPHY: RETENTION_TIME 8.465 min
MS$FOCUSED_ION: BASE_PEAK 245.1183
MS$FOCUSED_ION: PRECURSOR_M/Z 349.1329
MS$FOCUSED_ION: PRECURSOR_TYPE [M+H]+
MS$FOCUSED_ION: PRECURSOR_INTENSITY 41515252
MS$DATA_PROCESSING: RECALIBRATE loess on assigned fragments and MS1
MS$DATA_PROCESSING: REANALYZE Peaks with additional N2/O included
MS$DATA_PROCESSING: WHOLE RMassBank 3.11.2
PK$SPLASH: splash10-03di-0090000000-3d24116302d0303b0df1
PK$ANNOTATION: m/z tentative_formula formula_count mass error(ppm)
  122.0603 C7H8NO+ 1 122.06 2.51
  125.0168 C5H5N2S+ 1 125.0168 0.13
  183.0918 C12H11N2+ 3 183.0917 0.57
  191.0635 C10H11N2S+ 1 191.0637 -1.52
  198.0788 C12H10N2O+ 2 198.0788 0.34
  199.0867 C12H11N2O+ 2 199.0866 0.66
  201.0481 C11H9N2S+ 1 201.0481 -0.21
  219.0587 C11H11N2OS+ 1 219.0587 0.11
  229.0429 C12H9N2OS+ 1 229.043 -0.49
  230.0511 C12H10N2OS+ 1 230.0508 1.05
  247.0537 C12H11N2O2S+ 1 247.0536 0.52
  264.0802 C12H14N3O2S+ 2 264.0801 0.27
  265.0841 C15H11N3O2+ 1 265.0846 -1.8
  290.0595 C13H12N3O3S+ 1 290.0594 0.4
PK$NUM_PEAK: 14
PK$PEAK: m/z int. rel.int.
  122.0603 14030.7 3
  125.0168 61772.4 13
  183.0918 178409.9 40
  191.0635 5680.3 1
  198.0788 24756.7 5
  199.0867 23039.1 5
  201.0481 24551.1 5
  219.0587 95742.2 21
  229.0429 12243.3 2
  230.0511 42493.6 9
  247.0537 98729.6 22
  264.0802 4417481 999
  265.0841 63782.6 14
  290.0595 617709.5 139
//
