ACCESSION: MSBNK-UFZ-WANA086605070APH
RECORD_TITLE: Fenthion; LC-ESI-ITFT; MS2; CE: 30%; R=15000; [M+H]+
DATE: 2023.08.12
AUTHORS: Tobias Schulze, Martin Krauss, Department of Effect-Directed Analysis, Helmholtz Centre for Environmental Research - UFZ, Leipzig, Germany
LICENSE: CC0
COPYRIGHT: Copyright (C) 2023
COMMENT: CONFIDENCE Reference Standard (Level 1)
CH$NAME: Fenthion
CH$NAME: dimethoxy-(3-methyl-4-methylsulfanylphenoxy)-sulfanylidene-lambda5-phosphane
CH$COMPOUND_CLASS: N/A; Environmental Standard
CH$FORMULA: C10H15O3PS2
CH$EXACT_MASS: 278.02002297
CH$SMILES: COP(=S)(OC)OC1=CC=C(SC)C(C)=C1
CH$IUPAC: InChI=1S/C10H15O3PS2/c1-8-7-9(5-6-10(8)16-4)13-14(15,11-2)12-3/h5-7H,1-4H3
CH$LINK: CAS 55-38-9
CH$LINK: CHEBI CHEBI:34761
CH$LINK: KEGG C14420
CH$LINK: PUBCHEM CID:3346
CH$LINK: INCHIKEY PNVJTZOFSHSLTO-UHFFFAOYSA-N
CH$LINK: CHEMSPIDER 3229
CH$LINK: COMPTOX DTXSID8020620
AC$INSTRUMENT: LTQ Orbitrap XL Thermo Scientific
AC$INSTRUMENT_TYPE: LC-ESI-ITFT
AC$MASS_SPECTROMETRY: MS_TYPE MS2
AC$MASS_SPECTROMETRY: ION_MODE POSITIVE
AC$MASS_SPECTROMETRY: IONIZATION ESI
AC$MASS_SPECTROMETRY: FRAGMENTATION_MODE HCD
AC$MASS_SPECTROMETRY: COLLISION_ENERGY 30 % (nominal)
AC$MASS_SPECTROMETRY: RESOLUTION 15000
AC$MASS_SPECTROMETRY: MASS_RANGE_M/Z 50-290
AC$CHROMATOGRAPHY: COLUMN_NAME Kinetex Evo C18 2.6 um 50 x 2.1 mm
AC$CHROMATOGRAPHY: FLOW_GRADIENT 95/5 at 0 min, 95/5 at 1 min, 0/100 at 13 min, 0/100 at 24 min, 95/5 at 24.3 min, 95/5 at 32 min
AC$CHROMATOGRAPHY: FLOW_RATE 300 uL/min
AC$CHROMATOGRAPHY: RETENTION_TIME 11.161 min
MS$FOCUSED_ION: BASE_PEAK 279.0282
MS$FOCUSED_ION: PRECURSOR_M/Z 279.0273
MS$FOCUSED_ION: PRECURSOR_TYPE [M+H]+
MS$FOCUSED_ION: PRECURSOR_INTENSITY 5177871
MS$DATA_PROCESSING: RECALIBRATE loess on assigned fragments and MS1
MS$DATA_PROCESSING: REANALYZE Peaks with additional N2/O included
MS$DATA_PROCESSING: WHOLE RMassBank 3.11.2
PK$SPLASH: splash10-001i-0090000000-874512dc9c403ca68882
PK$ANNOTATION: m/z tentative_formula formula_count mass error(ppm)
  149.0237 C8H5O3+ 1 149.0233 2.67
  153.0376 C8H9OS+ 1 153.0369 4.53
  216.0015 C8H9O3PS+ 1 216.0005 4.83
  231.0249 C9H12O3PS+ 1 231.0239 4.13
  247.0019 C9H12O2PS2+ 1 247.0011 3.2
  279.0283 C10H16O3PS2+ 1 279.0273 3.69
PK$NUM_PEAK: 6
PK$PEAK: m/z int. rel.int.
  149.0237 1343.3 7
  153.0376 10196.1 53
  216.0015 10151.7 53
  231.0249 190263.8 999
  247.0019 4515 23
  279.0283 37775.2 198
//
