ACCESSION: MSBNK-UFZ-WANA2227237762PH
RECORD_TITLE: Flumequine; LC-ESI-ITFT; MS2; CE: 80%; R=15000; [M+H]+
DATE: 2023.08.13
AUTHORS: Tobias Schulze, Martin Krauss, Department of Effect-Directed Analysis, Helmholtz Centre for Environmental Research - UFZ, Leipzig, Germany
LICENSE: CC0
COPYRIGHT: Copyright (C) 2023
COMMENT: CONFIDENCE Reference Standard (Level 1)
CH$NAME: Flumequine
CH$NAME: 7-fluoro-12-methyl-4-oxo-1-azatricyclo[7.3.1.05,13]trideca-2,5,7,9(13)-tetraene-3-carboxylic acid
CH$COMPOUND_CLASS: N/A; Environmental Standard
CH$FORMULA: C14H12FNO3
CH$EXACT_MASS: 261.080121464
CH$SMILES: CC1CCC2=C3N1C=C(C(O)=O)C(=O)C3=CC(F)=C2
CH$IUPAC: InChI=1S/C14H12FNO3/c1-7-2-3-8-4-9(15)5-10-12(8)16(7)6-11(13(10)17)14(18)19/h4-7H,2-3H2,1H3,(H,18,19)
CH$LINK: CAS 42835-25-6
CH$LINK: CHEBI CHEBI:85269
CH$LINK: PUBCHEM CID:3374
CH$LINK: INCHIKEY DPSPPJIUMHPXMA-UHFFFAOYSA-N
CH$LINK: CHEMSPIDER 3257
CH$LINK: COMPTOX DTXSID5045623
AC$INSTRUMENT: LTQ Orbitrap XL Thermo Scientific
AC$INSTRUMENT_TYPE: LC-ESI-ITFT
AC$MASS_SPECTROMETRY: MS_TYPE MS2
AC$MASS_SPECTROMETRY: ION_MODE POSITIVE
AC$MASS_SPECTROMETRY: IONIZATION ESI
AC$MASS_SPECTROMETRY: FRAGMENTATION_MODE HCD
AC$MASS_SPECTROMETRY: COLLISION_ENERGY 80 % (nominal)
AC$MASS_SPECTROMETRY: RESOLUTION 15000
AC$MASS_SPECTROMETRY: MASS_RANGE_M/Z 50-275
AC$CHROMATOGRAPHY: COLUMN_NAME Kinetex Evo C18 2.6 um 50 x 2.1 mm
AC$CHROMATOGRAPHY: FLOW_GRADIENT 95/5 at 0 min, 95/5 at 1 min, 0/100 at 13 min, 0/100 at 24 min, 95/5 at 24.3 min, 95/5 at 32 min
AC$CHROMATOGRAPHY: FLOW_RATE 300 uL/min
AC$CHROMATOGRAPHY: RETENTION_TIME 9.262 min
MS$FOCUSED_ION: BASE_PEAK 262.0886
MS$FOCUSED_ION: PRECURSOR_M/Z 262.0874
MS$FOCUSED_ION: PRECURSOR_TYPE [M+H]+
MS$FOCUSED_ION: PRECURSOR_INTENSITY 20263888
MS$DATA_PROCESSING: RECALIBRATE loess on assigned fragments and MS1
MS$DATA_PROCESSING: REANALYZE Peaks with additional N2/O included
MS$DATA_PROCESSING: WHOLE RMassBank 3.11.2
PK$SPLASH: splash10-0uk9-0090000000-31052e5c867b97c1fba5
PK$ANNOTATION: m/z tentative_formula formula_count mass error(ppm)
  146.0402 C9H5FN+ 1 146.0401 1.2
  147.0481 C9H6FN+ 1 147.0479 1.4
  148.0559 C9H7FN+ 1 148.0557 1.18
  161.0637 C10H8FN+ 1 161.0635 1.1
  174.0351 C10H5FNO+ 1 174.035 0.84
  176.0872 C11H11FN+ 1 176.087 1.4
  187.0425 C11H6FNO+ 2 187.0428 -1.63
  188.0511 C11H7FNO+ 1 188.0506 2.77
  200.0876 C13H11FN+ 1 200.087 3.23
  201.0592 C12H8FNO+ 1 201.0584 3.57
  202.0301 C11H5FNO2+ 1 202.0299 0.88
  203.038 C11H6FNO2+ 1 203.0377 1.56
  216.0455 C12H7FNO2+ 1 216.0455 0.07
  216.0822 C13H11FNO+ 1 216.0819 1.23
  220.0406 C11H7FNO3+ 1 220.0404 0.63
  221.0488 C11H8FNO3+ 1 221.0483 2.56
  234.0563 C12H9FNO3+ 1 234.0561 0.8
  244.077 C14H11FNO2+ 1 244.0768 0.71
  262.0875 C14H13FNO3+ 1 262.0874 0.46
PK$NUM_PEAK: 19
PK$PEAK: m/z int. rel.int.
  146.0402 33990.5 29
  147.0481 4862.5 4
  148.0559 9130.9 7
  161.0637 3746.5 3
  174.0351 177501.9 152
  176.0872 17921.6 15
  187.0425 4351.4 3
  188.0511 3267.8 2
  200.0876 12905.7 11
  201.0592 6202.3 5
  202.0301 1166272.6 999
  203.038 9767.8 8
  216.0455 6845.6 5
  216.0822 7625.4 6
  220.0406 548815.4 470
  221.0488 8601.5 7
  234.0563 20631.4 17
  244.077 429859.4 368
  262.0875 161277.5 138
//
