ACCESSION: MSBNK-UFZ-UP000191
RECORD_TITLE: Gabapentin-lactam; LC-ESI-ITFT; MS2; CE: 105%; R=15000; [M+H]+
DATE: 2019.07.31
AUTHORS: Liza-Marie Beckers, Werner Brack, Janek-Paul Dann, Martin Krauss, Erik Mueller, Tobias Schulze, Helmholtz Centre for Environmental Research GmbH - UFZ, Leipzig, Germany
LICENSE: CC0
COPYRIGHT: Copyright (C) 2019
PUBLICATION: Beckers L-M, Brack W, Dann JP, Krauss M, Mueller E, Schulze T, 2020. Unraveling longitudinal pollution patterns of organic micropollutants in a river by non-target screening and cluster analysis. Science of The Total Environment, https://doi.org/10.1016/j.scitotenv.2020.138388
COMMENT: CONFIDENCE Reference Standard (Level 1)
COMMENT: INTERNAL_ID 7
CH$NAME: Gabapentin-lactam
CH$NAME: 2-azaspiro[4.5]decan-3-one
CH$COMPOUND_CLASS: N/A; Environmental Standard
CH$FORMULA: C9H15NO
CH$EXACT_MASS: 153.1154
CH$SMILES: O=C1CC2(CN1)CCCCC2
CH$IUPAC: InChI=1S/C9H15NO/c11-8-6-9(7-10-8)4-2-1-3-5-9/h1-7H2,(H,10,11)
CH$LINK: CAS 64744-50-9
CH$LINK: PUBCHEM CID:47457
CH$LINK: INCHIKEY JAWPQJDOQPSNIQ-UHFFFAOYSA-N
CH$LINK: CHEMSPIDER 43180
AC$INSTRUMENT: LTQ Orbitrap XL Thermo Scientific
AC$INSTRUMENT_TYPE: LC-ESI-ITFT
AC$MASS_SPECTROMETRY: MS_TYPE MS2
AC$MASS_SPECTROMETRY: ION_MODE POSITIVE
AC$MASS_SPECTROMETRY: IONIZATION ESI
AC$MASS_SPECTROMETRY: FRAGMENTATION_MODE HCD
AC$MASS_SPECTROMETRY: COLLISION_ENERGY 105 % (nominal)
AC$MASS_SPECTROMETRY: RESOLUTION 15000
AC$CHROMATOGRAPHY: COLUMN_NAME Kinetex Evo C18 2.6 um 50 x 2.1 mm
AC$CHROMATOGRAPHY: FLOW_GRADIENT 95/5 at 0 min, 95/5 at 1 min, 0/100 at 13 min, 0/100 at 24 min, 95/5 at 24.3 min, 95/5/0 at 32 min
AC$CHROMATOGRAPHY: FLOW_RATE 300 uL/min
AC$CHROMATOGRAPHY: RETENTION_TIME 8.247 min
AC$CHROMATOGRAPHY: SOLVENT A water with 0.1% formic acid
AC$CHROMATOGRAPHY: SOLVENT B methanol with 0.1% formic acid
MS$FOCUSED_ION: BASE_PEAK 154.1225
MS$FOCUSED_ION: PRECURSOR_M/Z 154.1226
MS$FOCUSED_ION: PRECURSOR_TYPE [M+H]+
MS$DATA_PROCESSING: RECALIBRATE loess on assigned fragments and MS1
MS$DATA_PROCESSING: REANALYZE Peaks with additional N2/O included
MS$DATA_PROCESSING: WHOLE RMassBank 2.12.0
PK$SPLASH: splash10-0002-9200000000-2e8dadb445cc693a0951
PK$ANNOTATION: m/z tentative_formula formula_count mass error(ppm)
  54.0336 C3H4N+ 1 54.0338 -3.86
  60.0441 C2H6NO+ 1 60.0444 -4.03
  65.0384 C5H5+ 1 65.0386 -2.36
  67.0541 C5H7+ 1 67.0542 -2.14
  69.0697 C5H9+ 1 69.0699 -2.15
  70.0651 C4H8N+ 1 70.0651 -0.92
  72.0443 C3H6NO+ 1 72.0444 -1.7
  77.0385 C6H5+ 1 77.0386 -1.02
  79.0541 C6H7+ 1 79.0542 -1.52
  80.062 C6H8+ 1 80.0621 -1.23
  81.0698 C6H9+ 1 81.0699 -0.85
  86.0601 C4H8NO+ 1 86.06 0.35
  91.0541 C7H7+ 1 91.0542 -1.1
  93.0698 C7H9+ 1 93.0699 -0.67
  95.0854 C7H11+ 1 95.0855 -0.95
  109.1011 C8H13+ 1 109.1012 -1.08
  112.1119 C7H14N+ 1 112.1121 -1.34
  119.0854 C9H11+ 1 119.0855 -1.06
  137.0957 C9H13O+ 1 137.0961 -2.75
  154.1225 C9H16NO+ 1 154.1226 -0.93
PK$NUM_PEAK: 20
PK$PEAK: m/z int. rel.int.
  54.0336 5183.6 6
  60.0441 6522 8
  65.0384 6495.8 8
  67.0541 233752.2 306
  69.0697 21420.1 28
  70.0651 3208 4
  72.0443 67227.8 88
  77.0385 7192.2 9
  79.0541 6836.1 8
  80.062 4552 5
  81.0698 14186.3 18
  86.0601 3355 4
  91.0541 37321.2 48
  93.0698 91763.2 120
  95.0854 762234.1 999
  109.1011 27100.8 35
  112.1119 25830.2 33
  119.0854 9875.4 12
  137.0957 1661.8 2
  154.1225 274720.7 360
//
