ACCESSION: MSBNK-UFZ-WANA020413D9F1PH
RECORD_TITLE: Carbamazepine; LC-ESI-ITFT; MS2; CE: 50%; R=15000; [M+H]+
DATE: 2023.08.12
AUTHORS: Tobias Schulze, Martin Krauss, Department of Effect-Directed Analysis, Helmholtz Centre for Environmental Research - UFZ, Leipzig, Germany
LICENSE: CC0
COPYRIGHT: Copyright (C) 2023
COMMENT: CONFIDENCE Reference Standard (Level 1)
CH$NAME: Carbamazepine
CH$NAME: benzo[b][1]benzazepine-11-carboxamide
CH$COMPOUND_CLASS: N/A; Environmental Standard
CH$FORMULA: C15H12N2O
CH$EXACT_MASS: 236.094963004
CH$SMILES: NC(=O)N1C2=CC=CC=C2C=CC2=CC=CC=C12
CH$IUPAC: InChI=1S/C15H12N2O/c16-15(18)17-13-7-3-1-5-11(13)9-10-12-6-2-4-8-14(12)17/h1-10H,(H2,16,18)
CH$LINK: CAS 298-46-4
CH$LINK: CHEBI CHEBI:3387
CH$LINK: KEGG C06868
CH$LINK: PUBCHEM CID:2554
CH$LINK: INCHIKEY FFGPTBGBLSHEPO-UHFFFAOYSA-N
CH$LINK: CHEMSPIDER 2457
CH$LINK: COMPTOX DTXSID4022731
AC$INSTRUMENT: LTQ Orbitrap XL Thermo Scientific
AC$INSTRUMENT_TYPE: LC-ESI-ITFT
AC$MASS_SPECTROMETRY: MS_TYPE MS2
AC$MASS_SPECTROMETRY: ION_MODE POSITIVE
AC$MASS_SPECTROMETRY: IONIZATION ESI
AC$MASS_SPECTROMETRY: FRAGMENTATION_MODE HCD
AC$MASS_SPECTROMETRY: COLLISION_ENERGY 50 % (nominal)
AC$MASS_SPECTROMETRY: RESOLUTION 15000
AC$MASS_SPECTROMETRY: MASS_RANGE_M/Z 50-250
AC$CHROMATOGRAPHY: COLUMN_NAME Kinetex Evo C18 2.6 um 50 x 2.1 mm
AC$CHROMATOGRAPHY: FLOW_GRADIENT 95/5 at 0 min, 95/5 at 1 min, 0/100 at 13 min, 0/100 at 24 min, 95/5 at 24.3 min, 95/5 at 32 min
AC$CHROMATOGRAPHY: FLOW_RATE 300 uL/min
AC$CHROMATOGRAPHY: RETENTION_TIME 9.605 min
MS$FOCUSED_ION: BASE_PEAK 231.1502
MS$FOCUSED_ION: PRECURSOR_M/Z 237.1022
MS$FOCUSED_ION: PRECURSOR_TYPE [M+H]+
MS$FOCUSED_ION: PRECURSOR_INTENSITY 14502129
MS$DATA_PROCESSING: RECALIBRATE loess on assigned fragments and MS1
MS$DATA_PROCESSING: REANALYZE Peaks with additional N2/O included
MS$DATA_PROCESSING: WHOLE RMassBank 3.11.2
PK$SPLASH: splash10-0006-0900000000-a8f2462ab5217dbb2234
PK$ANNOTATION: m/z tentative_formula formula_count mass error(ppm)
  167.0861 C13H11+ 1 167.0855 3.69
  179.0722 C13H9N+ 1 179.073 -4.33
  192.0812 C14H10N+ 1 192.0808 2.37
  193.089 C14H11N+ 1 193.0886 1.89
  194.0966 C14H12N+ 1 194.0964 1.03
  220.0759 C15H10NO+ 1 220.0757 1.07
  237.1026 C15H13N2O+ 1 237.1022 1.46
PK$NUM_PEAK: 7
PK$PEAK: m/z int. rel.int.
  167.0861 3797.1 2
  179.0722 2163.3 1
  192.0812 408721.7 229
  193.089 33736.7 18
  194.0966 1775509.9 999
  220.0759 10199.6 5
  237.1026 153683.9 86
//
