ACCESSION: MSBNK-UFZ-WANA309613D9F1PH
RECORD_TITLE: Harmine; LC-ESI-ITFT; MS2; CE: 50%; R=15000; [M+H]+
DATE: 2023.08.12
AUTHORS: Tobias Schulze, Martin Krauss, Department of Effect-Directed Analysis, Helmholtz Centre for Environmental Research - UFZ, Leipzig, Germany
LICENSE: CC0
COPYRIGHT: Copyright (C) 2023
COMMENT: CONFIDENCE Reference Standard (Level 1)
CH$NAME: Harmine
CH$NAME: 7-methoxy-1-methyl-9H-pyrido[3,4-b]indole
CH$COMPOUND_CLASS: N/A; Environmental Standard
CH$FORMULA: C13H12N2O
CH$EXACT_MASS: 212.094963004
CH$SMILES: COC1=CC2=C(C=C1)C1=C(N2)C(C)=NC=C1
CH$IUPAC: InChI=1S/C13H12N2O/c1-8-13-11(5-6-14-8)10-4-3-9(16-2)7-12(10)15-13/h3-7,15H,1-2H3
CH$LINK: CAS 442-51-3
CH$LINK: CHEBI CHEBI:28121
CH$LINK: KEGG C06538
CH$LINK: PUBCHEM CID:5280953
CH$LINK: INCHIKEY BXNJHAXVSOCGBA-UHFFFAOYSA-N
CH$LINK: CHEMSPIDER 4444445
CH$LINK: COMPTOX DTXSID30196066
AC$INSTRUMENT: LTQ Orbitrap XL Thermo Scientific
AC$INSTRUMENT_TYPE: LC-ESI-ITFT
AC$MASS_SPECTROMETRY: MS_TYPE MS2
AC$MASS_SPECTROMETRY: ION_MODE POSITIVE
AC$MASS_SPECTROMETRY: IONIZATION ESI
AC$MASS_SPECTROMETRY: FRAGMENTATION_MODE HCD
AC$MASS_SPECTROMETRY: COLLISION_ENERGY 50 % (nominal)
AC$MASS_SPECTROMETRY: RESOLUTION 15000
AC$MASS_SPECTROMETRY: MASS_RANGE_M/Z 50-225
AC$CHROMATOGRAPHY: COLUMN_NAME Kinetex Evo C18 2.6 um 50 x 2.1 mm
AC$CHROMATOGRAPHY: FLOW_GRADIENT 95/5 at 0 min, 95/5 at 1 min, 0/100 at 13 min, 0/100 at 24 min, 95/5 at 24.3 min, 95/5 at 32 min
AC$CHROMATOGRAPHY: FLOW_RATE 300 uL/min
AC$CHROMATOGRAPHY: RETENTION_TIME 6.554 min
MS$FOCUSED_ION: BASE_PEAK 213.103
MS$FOCUSED_ION: PRECURSOR_M/Z 213.1022
MS$FOCUSED_ION: PRECURSOR_TYPE [M+H]+
MS$FOCUSED_ION: PRECURSOR_INTENSITY 50480312
MS$DATA_PROCESSING: RECALIBRATE loess on assigned fragments and MS1
MS$DATA_PROCESSING: REANALYZE Peaks with additional N2/O included
MS$DATA_PROCESSING: WHOLE RMassBank 3.11.2
PK$SPLASH: splash10-03di-0190000000-b5bee3b47f87abbf87f0
PK$ANNOTATION: m/z tentative_formula formula_count mass error(ppm)
  170.084 C11H10N2+ 1 170.0838 0.7
  198.0788 C12H10N2O+ 1 198.0788 0.19
  213.1022 C13H13N2O+ 1 213.1022 -0.09
PK$NUM_PEAK: 3
PK$PEAK: m/z int. rel.int.
  170.084 198197.6 7
  198.0788 4827076.5 186
  213.1022 25854682 999
//
