ACCESSION: MSBNK-UFZ-WANA3106237762PM
RECORD_TITLE: Methyltriphenylphosphonium; LC-ESI-ITFT; MS2; CE: 80%; R=15000; [M]+
DATE: 2023.08.13
AUTHORS: Tobias Schulze, Martin Krauss, Department of Effect-Directed Analysis, Helmholtz Centre for Environmental Research - UFZ, Leipzig, Germany
LICENSE: CC0
COPYRIGHT: Copyright (C) 2023
COMMENT: CONFIDENCE Reference Standard (Level 1)
CH$NAME: Methyltriphenylphosphonium
CH$NAME: Triphenylmethylphosphonium
CH$NAME: methyl(triphenyl)phosphanium
CH$COMPOUND_CLASS: N/A; Environmental Standard
CH$FORMULA: C19H18P
CH$EXACT_MASS: 277.114063626091
CH$SMILES: C[P+](C1=CC=CC=C1)(C1=CC=CC=C1)C1=CC=CC=C1
CH$IUPAC: InChI=1S/C19H18P/c1-20(17-11-5-2-6-12-17,18-13-7-3-8-14-18)19-15-9-4-10-16-19/h2-16H,1H3/q+1
CH$LINK: CAS 21176-92-1
CH$LINK: PUBCHEM CID:74506
CH$LINK: INCHIKEY AZFQCTBZOPUVOW-UHFFFAOYSA-N
CH$LINK: CHEMSPIDER 67087
CH$LINK: COMPTOX DTXSID20166591
AC$INSTRUMENT: LTQ Orbitrap XL Thermo Scientific
AC$INSTRUMENT_TYPE: LC-ESI-ITFT
AC$MASS_SPECTROMETRY: MS_TYPE MS2
AC$MASS_SPECTROMETRY: ION_MODE POSITIVE
AC$MASS_SPECTROMETRY: IONIZATION ESI
AC$MASS_SPECTROMETRY: FRAGMENTATION_MODE HCD
AC$MASS_SPECTROMETRY: COLLISION_ENERGY 80 % (nominal)
AC$MASS_SPECTROMETRY: RESOLUTION 15000
AC$MASS_SPECTROMETRY: MASS_RANGE_M/Z 50-290
AC$CHROMATOGRAPHY: COLUMN_NAME Kinetex Evo C18 2.6 um 50 x 2.1 mm
AC$CHROMATOGRAPHY: FLOW_GRADIENT 95/5 at 0 min, 95/5 at 1 min, 0/100 at 13 min, 0/100 at 24 min, 95/5 at 24.3 min, 95/5 at 32 min
AC$CHROMATOGRAPHY: FLOW_RATE 300 uL/min
AC$CHROMATOGRAPHY: RETENTION_TIME 7.138 min
MS$FOCUSED_ION: BASE_PEAK 277.1149
MS$FOCUSED_ION: PRECURSOR_M/Z 277.1141
MS$FOCUSED_ION: PRECURSOR_TYPE [M]+
MS$FOCUSED_ION: PRECURSOR_INTENSITY 13993600
MS$DATA_PROCESSING: RECALIBRATE loess on assigned fragments and MS1
MS$DATA_PROCESSING: REANALYZE Peaks with additional N2/O included
MS$DATA_PROCESSING: WHOLE RMassBank 3.11.2
PK$SPLASH: splash10-06w9-0980000000-ecd4534541d443bdc532
PK$ANNOTATION: m/z tentative_formula formula_count mass error(ppm)
  79.0543 C6H7+ 1 79.0542 0.78
  91.0544 C7H7+ 1 91.0542 1.75
  107.0046 C6H4P+ 1 107.0045 1.22
  108.0124 C6H5P+ 1 108.0123 0.79
  121.0203 C7H6P+ 1 121.0202 1.25
  123.0362 C7H8P+ 1 123.0358 2.78
  141.0704 C11H9+ 1 141.0699 3.82
  152.0621 C12H8+ 1 152.0621 0.03
  154.0779 C12H10+ 1 154.0777 0.99
  155.0856 C12H11+ 1 155.0855 0.28
  183.0359 C12H8P+ 1 183.0358 0.46
  184.0438 C12H9P+ 1 184.0436 0.86
  185.0514 C12H10P+ 1 185.0515 -0.12
  199.0671 C13H12P+ 1 199.0671 0.18
  200.0751 C13H13P+ 1 200.0749 0.65
  230.1096 C18H14+ 1 230.109 2.49
  261.0829 C18H14P+ 1 261.0828 0.43
  262.091 C18H15P+ 1 262.0906 1.66
  277.1142 C19H18P+ 1 277.1141 0.4
PK$NUM_PEAK: 19
PK$PEAK: m/z int. rel.int.
  79.0543 40979.8 38
  91.0544 18631 17
  107.0046 38756.2 36
  108.0124 664882.1 624
  121.0203 19545.2 18
  123.0362 6940.8 6
  141.0704 3397.8 3
  152.0621 11994.2 11
  154.0779 18823.8 17
  155.0856 6081.6 5
  183.0359 568090.9 533
  184.0438 127994.1 120
  185.0514 477166.9 447
  199.0671 68919.2 64
  200.0751 61202.4 57
  230.1096 5177.7 4
  261.0829 509309.9 478
  262.091 254878.1 239
  277.1142 1064307.8 999
//
