ACCESSION: MSBNK-UFZ-WANA096603B085PH
RECORD_TITLE: Thiophanate-methyl; LC-ESI-ITFT; MS2; CE: 20%; R=15000; [M+H]+
DATE: 2023.08.12
AUTHORS: Tobias Schulze, Martin Krauss, Department of Effect-Directed Analysis, Helmholtz Centre for Environmental Research - UFZ, Leipzig, Germany
LICENSE: CC0
COPYRIGHT: Copyright (C) 2023
COMMENT: CONFIDENCE Reference Standard (Level 1)
CH$NAME: Thiophanate-methyl
CH$NAME: CID 3085
CH$NAME: N`-methoxycarbonyl-N-[2-[(N-methoxycarbonyl-C-sulfanylcarbonimidoyl)amino]phenyl]carbamimidothioic acid
CH$COMPOUND_CLASS: N/A; Environmental Standard
CH$FORMULA: C12H14N4O4S2
CH$EXACT_MASS: 342.045646928
CH$SMILES: COC(=O)NC(=S)NC1=CC=CC=C1NC(=S)NC(=O)OC
CH$IUPAC: InChI=1S/C12H14N4O4S2/c1-19-11(17)15-9(21)13-7-5-3-4-6-8(7)14-10(22)16-12(18)20-2/h3-6H,1-2H3,(H2,13,15,17,21)(H2,14,16,18,22)
CH$LINK: CAS 23564-05-8
CH$LINK: CHEBI CHEBI:35014
CH$LINK: KEGG C14432
CH$LINK: PUBCHEM CID:3085
CH$LINK: INCHIKEY QGHREAKMXXNCOA-UHFFFAOYSA-N
CH$LINK: CHEMSPIDER 2297683
CH$LINK: COMPTOX DTXSID1024338
AC$INSTRUMENT: LTQ Orbitrap XL Thermo Scientific
AC$INSTRUMENT_TYPE: LC-ESI-ITFT
AC$MASS_SPECTROMETRY: MS_TYPE MS2
AC$MASS_SPECTROMETRY: ION_MODE POSITIVE
AC$MASS_SPECTROMETRY: IONIZATION ESI
AC$MASS_SPECTROMETRY: FRAGMENTATION_MODE HCD
AC$MASS_SPECTROMETRY: COLLISION_ENERGY 20 % (nominal)
AC$MASS_SPECTROMETRY: RESOLUTION 15000
AC$MASS_SPECTROMETRY: MASS_RANGE_M/Z 50-355
AC$CHROMATOGRAPHY: COLUMN_NAME Kinetex Evo C18 2.6 um 50 x 2.1 mm
AC$CHROMATOGRAPHY: FLOW_GRADIENT 95/5 at 0 min, 95/5 at 1 min, 0/100 at 13 min, 0/100 at 24 min, 95/5 at 24.3 min, 95/5 at 32 min
AC$CHROMATOGRAPHY: FLOW_RATE 300 uL/min
AC$CHROMATOGRAPHY: RETENTION_TIME 9.002 min
MS$FOCUSED_ION: BASE_PEAK 343.054
MS$FOCUSED_ION: PRECURSOR_M/Z 343.0529
MS$FOCUSED_ION: PRECURSOR_TYPE [M+H]+
MS$FOCUSED_ION: PRECURSOR_INTENSITY 4558862
MS$DATA_PROCESSING: RECALIBRATE loess on assigned fragments and MS1
MS$DATA_PROCESSING: REANALYZE Peaks with additional N2/O included
MS$DATA_PROCESSING: WHOLE RMassBank 3.11.2
PK$SPLASH: splash10-0udi-0921000000-7bbace7cd5d37126a895
PK$ANNOTATION: m/z tentative_formula formula_count mass error(ppm)
  151.0331 CH13NO3S2+ 2 151.0331 0.01
  160.0512 C2H12N2O4S+ 3 160.0512 -0.04
  192.0776 C11H12O3+ 2 192.0781 -2.38
  209.0385 C9H9N2O2S+ 1 209.0379 2.56
  226.0654 C11H14O3S+ 2 226.0658 -1.78
  235.9957 C11H8O2S2+ 3 235.996 -1.5
  251.0606 C12H13NO3S+ 2 251.0611 -1.91
  268.022 C12H12O3S2+ 3 268.0222 -0.99
  277.0401 C11H9N4O3S+ 1 277.039 4.17
  279.0005 C10H7N4O2S2+ 2 279.0005 0.12
  311.0278 C11H11N4O3S2+ 1 311.0267 3.38
  343.0542 C12H15N4O4S2+ 1 343.0529 3.6
PK$NUM_PEAK: 12
PK$PEAK: m/z int. rel.int.
  151.0331 301552.3 999
  160.0512 3147.1 10
  192.0776 17787.3 58
  209.0385 2615.8 8
  226.0654 25223.7 83
  235.9957 16831.8 55
  251.0606 13808 45
  268.022 24408.6 80
  277.0401 2834.8 9
  279.0005 2866.5 9
  311.0278 41627.9 137
  343.0542 18543.9 61
//
