ACCESSION: MSBNK-UFZ-WANA223325AF82PH
RECORD_TITLE: Enalapril; LC-ESI-ITFT; MS2; CE: 90%; R=15000; [M+H]+
DATE: 2023.08.13
AUTHORS: Tobias Schulze, Martin Krauss, Department of Effect-Directed Analysis, Helmholtz Centre for Environmental Research - UFZ, Leipzig, Germany
LICENSE: CC0
COPYRIGHT: Copyright (C) 2023
COMMENT: CONFIDENCE Reference Standard (Level 1)
CH$NAME: Enalapril
CH$NAME: (2S)-1-[(2S)-2-[[(2S)-1-ethoxy-1-oxo-4-phenylbutan-2-yl]amino]propanoyl]pyrrolidine-2-carboxylic acid
CH$COMPOUND_CLASS: N/A; Environmental Standard
CH$FORMULA: C20H28N2O5
CH$EXACT_MASS: 376.199821996
CH$SMILES: CCOC(=O)[C@H](CCC1=CC=CC=C1)N[C@@H](C)C(=O)N1CCC[C@H]1C(O)=O
CH$IUPAC: InChI=1S/C20H28N2O5/c1-3-27-20(26)16(12-11-15-8-5-4-6-9-15)21-14(2)18(23)22-13-7-10-17(22)19(24)25/h4-6,8-9,14,16-17,21H,3,7,10-13H2,1-2H3,(H,24,25)/t14-,16-,17-/m0/s1
CH$LINK: CAS 75847-73-3
CH$LINK: CHEBI CHEBI:4784
CH$LINK: KEGG D07892
CH$LINK: PUBCHEM CID:5388962
CH$LINK: INCHIKEY GBXSMTUPTTWBMN-XIRDDKMYSA-N
CH$LINK: CHEMSPIDER 4534998
CH$LINK: COMPTOX DTXSID5022982
AC$INSTRUMENT: LTQ Orbitrap XL Thermo Scientific
AC$INSTRUMENT_TYPE: LC-ESI-ITFT
AC$MASS_SPECTROMETRY: MS_TYPE MS2
AC$MASS_SPECTROMETRY: ION_MODE POSITIVE
AC$MASS_SPECTROMETRY: IONIZATION ESI
AC$MASS_SPECTROMETRY: FRAGMENTATION_MODE HCD
AC$MASS_SPECTROMETRY: COLLISION_ENERGY 90 % (nominal)
AC$MASS_SPECTROMETRY: RESOLUTION 15000
AC$MASS_SPECTROMETRY: MASS_RANGE_M/Z 50-390
AC$CHROMATOGRAPHY: COLUMN_NAME Kinetex Evo C18 2.6 um 50 x 2.1 mm
AC$CHROMATOGRAPHY: FLOW_GRADIENT 95/5 at 0 min, 95/5 at 1 min, 0/100 at 13 min, 0/100 at 24 min, 95/5 at 24.3 min, 95/5 at 32 min
AC$CHROMATOGRAPHY: FLOW_RATE 300 uL/min
AC$CHROMATOGRAPHY: RETENTION_TIME 8.096 min
MS$FOCUSED_ION: BASE_PEAK 377.2079
MS$FOCUSED_ION: PRECURSOR_M/Z 377.2071
MS$FOCUSED_ION: PRECURSOR_TYPE [M+H]+
MS$FOCUSED_ION: PRECURSOR_INTENSITY 41445436
MS$DATA_PROCESSING: RECALIBRATE loess on assigned fragments and MS1
MS$DATA_PROCESSING: REANALYZE Peaks with additional N2/O included
MS$DATA_PROCESSING: WHOLE RMassBank 3.11.2
PK$SPLASH: splash10-00kf-9500000000-b876cfef595f02994385
PK$ANNOTATION: m/z tentative_formula formula_count mass error(ppm)
  56.0492 C3H6N+ 1 56.0495 -4.27
  70.065 C4H8N+ 1 70.0651 -1.84
  73.0647 C4H9O+ 1 73.0648 -1.56
  74.0234 C2H4NO2+ 1 74.0237 -3.73
  82.0652 C5H8N+ 1 82.0651 1.32
  91.0542 C7H7+ 1 91.0542 0.02
  102.055 C4H8NO2+ 1 102.055 0.22
  105.0698 C8H9+ 1 105.0699 -0.66
  115.0543 C9H7+ 1 115.0542 0.39
  116.0706 C5H10NO2+ 1 116.0706 -0.2
  117.0699 C9H9+ 1 117.0699 0
  128.062 C10H8+ 1 128.0621 -0.56
  130.0862 C6H12NO2+ 1 130.0863 -0.15
  134.0965 C9H12N+ 1 134.0964 0.3
  160.112 C11H14N+ 1 160.1121 -0.37
PK$NUM_PEAK: 15
PK$PEAK: m/z int. rel.int.
  56.0492 942553.5 117
  70.065 256546 32
  73.0647 115307 14
  74.0234 46260 5
  82.0652 27606 3
  91.0542 8006181 999
  102.055 551513.5 68
  105.0698 89055.3 11
  115.0543 261321.7 32
  116.0706 29103.7 3
  117.0699 4153469.5 518
  128.062 40223.5 5
  130.0862 162488 20
  134.0965 73056.1 9
  160.112 193218.1 24
//
