ACCESSION: MSBNK-UFZ-WANA2160155BE0PH
RECORD_TITLE: Pioglitazone; LC-ESI-ITFT; MS2; CE: 60%; R=15000; [M+H]+
DATE: 2023.08.12
AUTHORS: Tobias Schulze, Martin Krauss, Department of Effect-Directed Analysis, Helmholtz Centre for Environmental Research - UFZ, Leipzig, Germany
LICENSE: CC0
COPYRIGHT: Copyright (C) 2023
COMMENT: CONFIDENCE Reference Standard (Level 1)
CH$NAME: Pioglitazone
CH$NAME: 5-[[4-[2-(5-ethylpyridin-2-yl)ethoxy]phenyl]methyl]-1,3-thiazolidine-2,4-dione
CH$COMPOUND_CLASS: N/A; Environmental Standard
CH$FORMULA: C19H20N2O3S
CH$EXACT_MASS: 356.1194635
CH$SMILES: CCC1=CN=C(CCOC2=CC=C(CC3SC(=O)NC3=O)C=C2)C=C1
CH$IUPAC: InChI=1S/C19H20N2O3S/c1-2-13-3-6-15(20-12-13)9-10-24-16-7-4-14(5-8-16)11-17-18(22)21-19(23)25-17/h3-8,12,17H,2,9-11H2,1H3,(H,21,22,23)
CH$LINK: CAS 111025-46-8
CH$LINK: CHEBI CHEBI:8228
CH$LINK: KEGG C07675
CH$LINK: PUBCHEM CID:4829
CH$LINK: INCHIKEY HYAFETHFCAUJAY-UHFFFAOYSA-N
CH$LINK: CHEMSPIDER 4663
CH$LINK: COMPTOX DTXSID3037129
AC$INSTRUMENT: LTQ Orbitrap XL Thermo Scientific
AC$INSTRUMENT_TYPE: LC-ESI-ITFT
AC$MASS_SPECTROMETRY: MS_TYPE MS2
AC$MASS_SPECTROMETRY: ION_MODE POSITIVE
AC$MASS_SPECTROMETRY: IONIZATION ESI
AC$MASS_SPECTROMETRY: FRAGMENTATION_MODE HCD
AC$MASS_SPECTROMETRY: COLLISION_ENERGY 60 % (nominal)
AC$MASS_SPECTROMETRY: RESOLUTION 15000
AC$MASS_SPECTROMETRY: MASS_RANGE_M/Z 50-370
AC$CHROMATOGRAPHY: COLUMN_NAME Kinetex Evo C18 2.6 um 50 x 2.1 mm
AC$CHROMATOGRAPHY: FLOW_GRADIENT 95/5 at 0 min, 95/5 at 1 min, 0/100 at 13 min, 0/100 at 24 min, 95/5 at 24.3 min, 95/5 at 32 min
AC$CHROMATOGRAPHY: FLOW_RATE 300 uL/min
AC$CHROMATOGRAPHY: RETENTION_TIME 7.985 min
MS$FOCUSED_ION: BASE_PEAK 357.1278
MS$FOCUSED_ION: PRECURSOR_M/Z 357.1267
MS$FOCUSED_ION: PRECURSOR_TYPE [M+H]+
MS$FOCUSED_ION: PRECURSOR_INTENSITY 30617210
MS$DATA_PROCESSING: RECALIBRATE loess on assigned fragments and MS1
MS$DATA_PROCESSING: REANALYZE Peaks with additional N2/O included
MS$DATA_PROCESSING: WHOLE RMassBank 3.11.2
PK$SPLASH: splash10-001i-0900000000-c3e3dcbdb27131c486ca
PK$ANNOTATION: m/z tentative_formula formula_count mass error(ppm)
  104.0496 C7H6N+ 1 104.0495 1.28
  106.0652 C7H8N+ 1 106.0651 0.82
  107.073 C7H9N+ 1 107.073 0.59
  118.0654 C8H8N+ 2 118.0651 2.15
  119.073 C8H9N+ 1 119.073 0.78
  120.0809 C8H10N+ 1 120.0808 0.65
  121.0887 C8H11N+ 2 121.0886 0.77
  124.0757 C7H10NO+ 1 124.0757 -0.12
  134.0965 C9H12N+ 2 134.0964 0.84
  135.1041 C9H13N+ 1 135.1043 -1.31
  240.1383 C16H18NO+ 1 240.1383 -0.14
  286.1265 C17H20NOS+ 1 286.126 1.59
  357.1277 C19H21N2O3S+ 1 357.1267 2.78
PK$NUM_PEAK: 13
PK$PEAK: m/z int. rel.int.
  104.0496 1723.2 1
  106.0652 19547.3 13
  107.073 11925.8 8
  118.0654 1987.3 1
  119.073 206663.4 139
  120.0809 34716.5 23
  121.0887 28765.8 19
  124.0757 8370.6 5
  134.0965 1485021.6 999
  135.1041 306789.7 206
  240.1383 5557.3 3
  286.1265 4395.5 2
  357.1277 5129.3 3
//
