ACCESSION: MSBNK-UFZ-WANA000501AD6CPH
RECORD_TITLE: Dichlorvos; LC-ESI-ITFT; MS2; CE: 10%; R=15000; [M+H]+
DATE: 2023.08.12
AUTHORS: Tobias Schulze, Martin Krauss, Department of Effect-Directed Analysis, Helmholtz Centre for Environmental Research - UFZ, Leipzig, Germany
LICENSE: CC0
COPYRIGHT: Copyright (C) 2023
COMMENT: CONFIDENCE Reference Standard (Level 1)
CH$NAME: Dichlorvos
CH$NAME: 2,2-dichloroethenyl dimethyl phosphate
CH$COMPOUND_CLASS: N/A; Environmental Standard
CH$FORMULA: C4H7Cl2O4P
CH$EXACT_MASS: 219.945900694
CH$SMILES: COP(=O)(OC)OC=C(Cl)Cl
CH$IUPAC: InChI=1S/C4H7Cl2O4P/c1-8-11(7,9-2)10-3-4(5)6/h3H,1-2H3
CH$LINK: CAS 62-73-7
CH$LINK: CHEBI CHEBI:34690
CH$LINK: KEGG C14430
CH$LINK: PUBCHEM CID:3039
CH$LINK: INCHIKEY OEBRKCOSUFCWJD-UHFFFAOYSA-N
CH$LINK: CHEMSPIDER 2931
CH$LINK: COMPTOX DTXSID5020449
AC$INSTRUMENT: LTQ Orbitrap XL Thermo Scientific
AC$INSTRUMENT_TYPE: LC-ESI-ITFT
AC$MASS_SPECTROMETRY: MS_TYPE MS2
AC$MASS_SPECTROMETRY: ION_MODE POSITIVE
AC$MASS_SPECTROMETRY: IONIZATION ESI
AC$MASS_SPECTROMETRY: FRAGMENTATION_MODE HCD
AC$MASS_SPECTROMETRY: COLLISION_ENERGY 10 % (nominal)
AC$MASS_SPECTROMETRY: RESOLUTION 15000
AC$MASS_SPECTROMETRY: MASS_RANGE_M/Z 50-235
AC$CHROMATOGRAPHY: COLUMN_NAME Kinetex Evo C18 2.6 um 50 x 2.1 mm
AC$CHROMATOGRAPHY: FLOW_GRADIENT 95/5 at 0 min, 95/5 at 1 min, 0/100 at 13 min, 0/100 at 24 min, 95/5 at 24.3 min, 95/5 at 32 min
AC$CHROMATOGRAPHY: FLOW_RATE 300 uL/min
AC$CHROMATOGRAPHY: RETENTION_TIME 8.334 min
MS$FOCUSED_ION: BASE_PEAK 237.1242
MS$FOCUSED_ION: PRECURSOR_M/Z 220.9532
MS$FOCUSED_ION: PRECURSOR_TYPE [M+H]+
MS$FOCUSED_ION: PRECURSOR_INTENSITY 250431.3
MS$DATA_PROCESSING: RECALIBRATE loess on assigned fragments and MS1
MS$DATA_PROCESSING: REANALYZE Peaks with additional N2/O included
MS$DATA_PROCESSING: WHOLE RMassBank 3.11.2
PK$SPLASH: splash10-00di-0090000000-796793fe611ffae6e614
PK$ANNOTATION: m/z tentative_formula formula_count mass error(ppm)
  109.0053 C3H6ClO2+ 2 109.0051 2.32
  127.0162 C3H8ClO3+ 1 127.0156 4.27
  144.9824 C3H7Cl2O2+ 1 144.9818 4.73
  220.954 C4H8Cl2O4P+ 1 220.9532 3.8
PK$NUM_PEAK: 4
PK$PEAK: m/z int. rel.int.
  109.0053 1931.5 10
  127.0162 3089.7 16
  144.9824 1244.7 6
  220.954 186362.6 999
//
