ACCESSION: MSBNK-UFZ-WANA224103B085PH
RECORD_TITLE: Mebendazole; LC-ESI-ITFT; MS2; CE: 20%; R=15000; [M+H]+
DATE: 2023.08.12
AUTHORS: Tobias Schulze, Martin Krauss, Department of Effect-Directed Analysis, Helmholtz Centre for Environmental Research - UFZ, Leipzig, Germany
LICENSE: CC0
COPYRIGHT: Copyright (C) 2023
COMMENT: CONFIDENCE Reference Standard (Level 1)
CH$NAME: Mebendazole
CH$NAME: methyl N-(6-benzoyl-1H-benzimidazol-2-yl)carbamate
CH$COMPOUND_CLASS: N/A; Environmental Standard
CH$FORMULA: C16H13N3O3
CH$EXACT_MASS: 295.095691276
CH$SMILES: COC(=O)NC1=NC2=C(N1)C=C(C=C2)C(=O)C1=CC=CC=C1
CH$IUPAC: InChI=1S/C16H13N3O3/c1-22-16(21)19-15-17-12-8-7-11(9-13(12)18-15)14(20)10-5-3-2-4-6-10/h2-9H,1H3,(H2,17,18,19,21)
CH$LINK: CAS 31431-39-7
CH$LINK: CHEBI CHEBI:6704
CH$LINK: KEGG D00368
CH$LINK: PUBCHEM CID:4030
CH$LINK: INCHIKEY OPXLLQIJSORQAM-UHFFFAOYSA-N
CH$LINK: CHEMSPIDER 3890
CH$LINK: COMPTOX DTXSID4040682
AC$INSTRUMENT: LTQ Orbitrap XL Thermo Scientific
AC$INSTRUMENT_TYPE: LC-ESI-ITFT
AC$MASS_SPECTROMETRY: MS_TYPE MS2
AC$MASS_SPECTROMETRY: ION_MODE POSITIVE
AC$MASS_SPECTROMETRY: IONIZATION ESI
AC$MASS_SPECTROMETRY: FRAGMENTATION_MODE HCD
AC$MASS_SPECTROMETRY: COLLISION_ENERGY 20 % (nominal)
AC$MASS_SPECTROMETRY: RESOLUTION 15000
AC$MASS_SPECTROMETRY: MASS_RANGE_M/Z 50-310
AC$CHROMATOGRAPHY: COLUMN_NAME Kinetex Evo C18 2.6 um 50 x 2.1 mm
AC$CHROMATOGRAPHY: FLOW_GRADIENT 95/5 at 0 min, 95/5 at 1 min, 0/100 at 13 min, 0/100 at 24 min, 95/5 at 24.3 min, 95/5 at 32 min
AC$CHROMATOGRAPHY: FLOW_RATE 300 uL/min
AC$CHROMATOGRAPHY: RETENTION_TIME 9.774 min
MS$FOCUSED_ION: BASE_PEAK 296.1041
MS$FOCUSED_ION: PRECURSOR_M/Z 296.103
MS$FOCUSED_ION: PRECURSOR_TYPE [M+H]+
MS$FOCUSED_ION: PRECURSOR_INTENSITY 15784703
MS$DATA_PROCESSING: RECALIBRATE loess on assigned fragments and MS1
MS$DATA_PROCESSING: REANALYZE Peaks with additional N2/O included
MS$DATA_PROCESSING: WHOLE RMassBank 3.11.2
PK$SPLASH: splash10-0002-0090000000-24b5dcc6efcdb6e9968e
PK$ANNOTATION: m/z tentative_formula formula_count mass error(ppm)
  264.0769 C15H10N3O2+ 1 264.0768 0.69
  296.103 C16H14N3O3+ 1 296.103 0.13
PK$NUM_PEAK: 2
PK$PEAK: m/z int. rel.int.
  264.0769 69293.5 48
  296.103 1417207.1 999
//
