ACCESSION: MSBNK-UFZ-WANA0305213166PM
RECORD_TITLE: Didecyldimethylammonium; LC-ESI-ITFT; MS2; CE: 70%; R=15000; [M]+
DATE: 2023.08.13
AUTHORS: Tobias Schulze, Martin Krauss, Department of Effect-Directed Analysis, Helmholtz Centre for Environmental Research - UFZ, Leipzig, Germany
LICENSE: CC0
COPYRIGHT: Copyright (C) 2023
COMMENT: CONFIDENCE Reference Standard (Level 1)
CH$NAME: Didecyldimethylammonium
CH$NAME: didecyl(dimethyl)azanium
CH$COMPOUND_CLASS: N/A; Environmental Standard
CH$FORMULA: C22H48N
CH$EXACT_MASS: 326.378126956091
CH$SMILES: CCCCCCCCCC[N+](C)(C)CCCCCCCCCC
CH$IUPAC: InChI=1S/C22H48N/c1-5-7-9-11-13-15-17-19-21-23(3,4)22-20-18-16-14-12-10-8-6-2/h5-22H2,1-4H3/q+1
CH$LINK: CAS 7173-51-5
CH$LINK: CHEBI 193591
CH$LINK: PUBCHEM CID:16958
CH$LINK: INCHIKEY JGFDZZLUDWMUQH-UHFFFAOYSA-N
CH$LINK: CHEMSPIDER 16067
CH$LINK: COMPTOX DTXSID0048004
AC$INSTRUMENT: LTQ Orbitrap XL Thermo Scientific
AC$INSTRUMENT_TYPE: LC-ESI-ITFT
AC$MASS_SPECTROMETRY: MS_TYPE MS2
AC$MASS_SPECTROMETRY: ION_MODE POSITIVE
AC$MASS_SPECTROMETRY: IONIZATION ESI
AC$MASS_SPECTROMETRY: FRAGMENTATION_MODE HCD
AC$MASS_SPECTROMETRY: COLLISION_ENERGY 70 % (nominal)
AC$MASS_SPECTROMETRY: RESOLUTION 15000
AC$MASS_SPECTROMETRY: MASS_RANGE_M/Z 50-340
AC$CHROMATOGRAPHY: COLUMN_NAME Kinetex Evo C18 2.6 um 50 x 2.1 mm
AC$CHROMATOGRAPHY: FLOW_GRADIENT 95/5 at 0 min, 95/5 at 1 min, 0/100 at 13 min, 0/100 at 24 min, 95/5 at 24.3 min, 95/5 at 32 min
AC$CHROMATOGRAPHY: FLOW_RATE 300 uL/min
AC$CHROMATOGRAPHY: RETENTION_TIME 12.161 min
MS$FOCUSED_ION: BASE_PEAK 284.3318
MS$FOCUSED_ION: PRECURSOR_M/Z 326.3781
MS$FOCUSED_ION: PRECURSOR_TYPE [M]+
MS$FOCUSED_ION: PRECURSOR_INTENSITY 267514.09
MS$DATA_PROCESSING: RECALIBRATE loess on assigned fragments and MS1
MS$DATA_PROCESSING: REANALYZE Peaks with additional N2/O included
MS$DATA_PROCESSING: WHOLE RMassBank 3.11.2
PK$SPLASH: splash10-052r-7900000000-c4b21dbf3d223ea7f61b
PK$ANNOTATION: m/z tentative_formula formula_count mass error(ppm)
  57.0699 C4H9+ 1 57.0699 0.11
  58.0652 C3H8N+ 1 58.0651 0.75
  71.0858 C5H11+ 1 71.0855 3.73
  184.2064 C12H26N+ 1 184.206 2.1
  186.2221 C12H28N+ 1 186.2216 2.58
PK$NUM_PEAK: 5
PK$PEAK: m/z int. rel.int.
  57.0699 17060.4 598
  58.0652 5279.9 185
  71.0858 5073 178
  184.2064 2615 91
  186.2221 28464.5 999
//
