ACCESSION: MSBNK-UFZ-WANA232725AF82PH
RECORD_TITLE: 5-Chlorobenzotriazole; LC-ESI-ITFT; MS2; CE: 90%; R=15000; [M+H]+
DATE: 2023.08.13
AUTHORS: Tobias Schulze, Martin Krauss, Department of Effect-Directed Analysis, Helmholtz Centre for Environmental Research - UFZ, Leipzig, Germany
LICENSE: CC0
COPYRIGHT: Copyright (C) 2023
COMMENT: CONFIDENCE Reference Standard (Level 1)
CH$NAME: 5-Chlorobenzotriazole
CH$NAME: 5-chloro-2H-benzotriazole
CH$COMPOUND_CLASS: N/A; Environmental Standard
CH$FORMULA: C6H4ClN3
CH$EXACT_MASS: 153.009374808
CH$SMILES: ClC1=CC2=NNN=C2C=C1
CH$IUPAC: InChI=1S/C6H4ClN3/c7-4-1-2-5-6(3-4)9-10-8-5/h1-3H,(H,8,9,10)
CH$LINK: CAS 94-97-3
CH$LINK: PUBCHEM CID:66760
CH$LINK: INCHIKEY PZBQVZFITSVHAW-UHFFFAOYSA-N
CH$LINK: CHEMSPIDER 60126
CH$LINK: COMPTOX DTXSID0047450
AC$INSTRUMENT: LTQ Orbitrap XL Thermo Scientific
AC$INSTRUMENT_TYPE: LC-ESI-ITFT
AC$MASS_SPECTROMETRY: MS_TYPE MS2
AC$MASS_SPECTROMETRY: ION_MODE POSITIVE
AC$MASS_SPECTROMETRY: IONIZATION ESI
AC$MASS_SPECTROMETRY: FRAGMENTATION_MODE HCD
AC$MASS_SPECTROMETRY: COLLISION_ENERGY 90 % (nominal)
AC$MASS_SPECTROMETRY: RESOLUTION 15000
AC$MASS_SPECTROMETRY: MASS_RANGE_M/Z 50-165
AC$CHROMATOGRAPHY: COLUMN_NAME Kinetex Evo C18 2.6 um 50 x 2.1 mm
AC$CHROMATOGRAPHY: FLOW_GRADIENT 95/5 at 0 min, 95/5 at 1 min, 0/100 at 13 min, 0/100 at 24 min, 95/5 at 24.3 min, 95/5 at 32 min
AC$CHROMATOGRAPHY: FLOW_RATE 300 uL/min
AC$CHROMATOGRAPHY: RETENTION_TIME 7.274 min
MS$FOCUSED_ION: BASE_PEAK 154.0167
MS$FOCUSED_ION: PRECURSOR_M/Z 154.0167
MS$FOCUSED_ION: PRECURSOR_TYPE [M+H]+
MS$FOCUSED_ION: PRECURSOR_INTENSITY 15769845
MS$DATA_PROCESSING: RECALIBRATE loess on assigned fragments and MS1
MS$DATA_PROCESSING: REANALYZE Peaks with additional N2/O included
MS$DATA_PROCESSING: WHOLE RMassBank 3.11.2
PK$SPLASH: splash10-0f6w-9400000000-d31b1726e792bc22d7a3
PK$ANNOTATION: m/z tentative_formula formula_count mass error(ppm)
  72.9837 C3H2Cl+ 1 72.984 -4.02
  90.0336 C6H4N+ 1 90.0338 -2.66
  91.0414 C6H5N+ 1 91.0417 -3.22
  98.9993 C5H4Cl+ 1 98.9996 -3.01
  119.0475 C6H5N3+ 1 119.0478 -2.18
  125.0024 C6H4ClN+ 1 125.0027 -2.09
  126.0102 C6H5ClN+ 1 126.0105 -2.74
  154.0162 C6H5ClN3+ 1 154.0167 -2.64
PK$NUM_PEAK: 8
PK$PEAK: m/z int. rel.int.
  72.9837 299887 109
  90.0336 1190991.2 432
  91.0414 359487.3 130
  98.9993 2748428.5 999
  119.0475 18187.6 6
  125.0024 17710.3 6
  126.0102 480448.9 174
  154.0162 1772927 644
//
