ACCESSION: MSBNK-UFZ-WANA040105070APH
RECORD_TITLE: Michler`s ketone; LC-ESI-ITFT; MS2; CE: 30%; R=15000; [M+H]+
DATE: 2023.08.12
AUTHORS: Tobias Schulze, Martin Krauss, Department of Effect-Directed Analysis, Helmholtz Centre for Environmental Research - UFZ, Leipzig, Germany
LICENSE: CC0
COPYRIGHT: Copyright (C) 2023
COMMENT: CONFIDENCE Reference Standard (Level 1)
CH$NAME: Michler`s ketone
CH$NAME: bis[4-(dimethylamino)phenyl]methanone
CH$COMPOUND_CLASS: N/A; Environmental Standard
CH$FORMULA: C17H20N2O
CH$EXACT_MASS: 268.15756326
CH$SMILES: CN(C)C1=CC=C(C=C1)C(=O)C1=CC=C(C=C1)N(C)C
CH$IUPAC: InChI=1S/C17H20N2O/c1-18(2)15-9-5-13(6-10-15)17(20)14-7-11-16(12-8-14)19(3)4/h5-12H,1-4H3
CH$LINK: CAS 90-94-8
CH$LINK: CHEBI CHEBI:82347
CH$LINK: KEGG C19266
CH$LINK: PUBCHEM CID:7031
CH$LINK: INCHIKEY VVBLNCFGVYUYGU-UHFFFAOYSA-N
CH$LINK: CHEMSPIDER 6764
CH$LINK: COMPTOX DTXSID2020894
AC$INSTRUMENT: LTQ Orbitrap XL Thermo Scientific
AC$INSTRUMENT_TYPE: LC-ESI-ITFT
AC$MASS_SPECTROMETRY: MS_TYPE MS2
AC$MASS_SPECTROMETRY: ION_MODE POSITIVE
AC$MASS_SPECTROMETRY: IONIZATION ESI
AC$MASS_SPECTROMETRY: FRAGMENTATION_MODE HCD
AC$MASS_SPECTROMETRY: COLLISION_ENERGY 30 % (nominal)
AC$MASS_SPECTROMETRY: RESOLUTION 15000
AC$MASS_SPECTROMETRY: MASS_RANGE_M/Z 50-280
AC$CHROMATOGRAPHY: COLUMN_NAME Kinetex Evo C18 2.6 um 50 x 2.1 mm
AC$CHROMATOGRAPHY: FLOW_GRADIENT 95/5 at 0 min, 95/5 at 1 min, 0/100 at 13 min, 0/100 at 24 min, 95/5 at 24.3 min, 95/5 at 32 min
AC$CHROMATOGRAPHY: FLOW_RATE 300 uL/min
AC$CHROMATOGRAPHY: RETENTION_TIME 12.004 min
MS$FOCUSED_ION: BASE_PEAK 269.1648
MS$FOCUSED_ION: PRECURSOR_M/Z 269.1648
MS$FOCUSED_ION: PRECURSOR_TYPE [M+H]+
MS$FOCUSED_ION: PRECURSOR_INTENSITY 14204852
MS$DATA_PROCESSING: RECALIBRATE loess on assigned fragments and MS1
MS$DATA_PROCESSING: REANALYZE Peaks with additional N2/O included
MS$DATA_PROCESSING: WHOLE RMassBank 3.11.2
PK$SPLASH: splash10-014i-0290000000-3d493816b3f950289ab7
PK$ANNOTATION: m/z tentative_formula formula_count mass error(ppm)
  148.0753 C9H10NO+ 1 148.0757 -2.76
  254.1401 C16H18N2O+ 1 254.1414 -4.87
  269.164 C17H21N2O+ 1 269.1648 -3.01
PK$NUM_PEAK: 3
PK$PEAK: m/z int. rel.int.
  148.0753 384856.4 314
  254.1401 1537.7 1
  269.164 1222029.6 999
//
