ACCESSION: MSBNK-UFZ-WANA0202237762PH
RECORD_TITLE: Terbuthylazine; LC-ESI-ITFT; MS2; CE: 80%; R=15000; [M+H]+
DATE: 2023.08.13
AUTHORS: Tobias Schulze, Martin Krauss, Department of Effect-Directed Analysis, Helmholtz Centre for Environmental Research - UFZ, Leipzig, Germany
LICENSE: CC0
COPYRIGHT: Copyright (C) 2023
COMMENT: CONFIDENCE Reference Standard (Level 1)
CH$NAME: Terbuthylazine
CH$NAME: 2-N-tert-butyl-6-chloro-4-N-ethyl-1,3,5-triazine-2,4-diamine
CH$COMPOUND_CLASS: N/A; Environmental Standard
CH$FORMULA: C9H16ClN5
CH$EXACT_MASS: 229.109423192
CH$SMILES: CCNC1=NC(Cl)=NC(NC(C)(C)C)=N1
CH$IUPAC: InChI=1S/C9H16ClN5/c1-5-11-7-12-6(10)13-8(14-7)15-9(2,3)4/h5H2,1-4H3,(H2,11,12,13,14,15)
CH$LINK: CAS 5915-41-3
CH$LINK: CHEBI CHEBI:30263
CH$LINK: KEGG C18810
CH$LINK: PUBCHEM CID:22206
CH$LINK: INCHIKEY FZXISNSWEXTPMF-UHFFFAOYSA-N
CH$LINK: CHEMSPIDER 20848
CH$LINK: COMPTOX DTXSID4027608
AC$INSTRUMENT: LTQ Orbitrap XL Thermo Scientific
AC$INSTRUMENT_TYPE: LC-ESI-ITFT
AC$MASS_SPECTROMETRY: MS_TYPE MS2
AC$MASS_SPECTROMETRY: ION_MODE POSITIVE
AC$MASS_SPECTROMETRY: IONIZATION ESI
AC$MASS_SPECTROMETRY: FRAGMENTATION_MODE HCD
AC$MASS_SPECTROMETRY: COLLISION_ENERGY 80 % (nominal)
AC$MASS_SPECTROMETRY: RESOLUTION 15000
AC$MASS_SPECTROMETRY: MASS_RANGE_M/Z 50-245
AC$CHROMATOGRAPHY: COLUMN_NAME Kinetex Evo C18 2.6 um 50 x 2.1 mm
AC$CHROMATOGRAPHY: FLOW_GRADIENT 95/5 at 0 min, 95/5 at 1 min, 0/100 at 13 min, 0/100 at 24 min, 95/5 at 24.3 min, 95/5 at 32 min
AC$CHROMATOGRAPHY: FLOW_RATE 300 uL/min
AC$CHROMATOGRAPHY: RETENTION_TIME 11.033 min
MS$FOCUSED_ION: BASE_PEAK 230.1172
MS$FOCUSED_ION: PRECURSOR_M/Z 230.1167
MS$FOCUSED_ION: PRECURSOR_TYPE [M+H]+
MS$FOCUSED_ION: PRECURSOR_INTENSITY 59970860
MS$DATA_PROCESSING: RECALIBRATE loess on assigned fragments and MS1
MS$DATA_PROCESSING: REANALYZE Peaks with additional N2/O included
MS$DATA_PROCESSING: WHOLE RMassBank 3.11.2
PK$SPLASH: splash10-0fdk-6900000000-22d0f1f7f20b43d9d706
PK$ANNOTATION: m/z tentative_formula formula_count mass error(ppm)
  61.9789 CHClN+ 1 61.9792 -4.85
  68.0241 C2H2N3+ 1 68.0243 -3.94
  71.0601 C3H7N2+ 1 71.0604 -3.45
  79.0056 CH4ClN2+ 1 79.0058 -2.32
  90.0103 C3H5ClN+ 1 90.0105 -1.99
  96.0555 C4H6N3+ 1 96.0556 -1.69
  104.0008 C2H3ClN3+ 1 104.001 -1.69
  110.0459 C3H4N5+ 1 110.0461 -1.62
  132.0321 C4H7ClN3+ 1 132.0323 -1.69
  138.0772 C5H8N5+ 1 138.0774 -1.51
  146.0226 C3H5ClN5+ 1 146.0228 -1.65
  174.0539 C5H9ClN5+ 1 174.0541 -1.24
PK$NUM_PEAK: 12
PK$PEAK: m/z int. rel.int.
  61.9789 79517.4 20
  68.0241 1977633.1 503
  71.0601 1315227.1 334
  79.0056 2145119 546
  90.0103 125459 31
  96.0555 3592650.2 914
  104.0008 3041952.2 774
  110.0459 395887.7 100
  132.0321 2369595.5 603
  138.0772 686592.2 174
  146.0226 1756970.5 447
  174.0539 3924851 999
//
