ACCESSION: MSBNK-UFZ-UF403202
RECORD_TITLE: Terbuthylazine; LC-ESI-ITFT; MS2; CE: 80; R=15000; [M+H]+
DATE: 2017.01.05
AUTHORS: Schulze T, Krauss M, Department of Effect-Directed Analysis, Helmholtz Centre for Environmental Research - UFZ GmbH, Leipzig, Germany
LICENSE: CC BY
COPYRIGHT: Copyright (C) 2017
COMMENT: CONFIDENCE standard compound
COMMENT: INTERNAL_ID 4032
CH$NAME: Terbuthylazine
CH$NAME: 2-N-Tert-butyl-6-chloro-4-N-ethyl-1,3,5-triazine-2,4-diamine
CH$COMPOUND_CLASS: N/A; Environmental Standard
CH$FORMULA: C9H16ClN5
CH$EXACT_MASS: 229.1094
CH$SMILES: CCNC1=NC(Cl)=NC(NC(C)(C)C)=N1
CH$IUPAC: InChI=1S/C9H16ClN5/c1-5-11-7-12-6(10)13-8(14-7)15-9(2,3)4/h5H2,1-4H3,(H2,11,12,13,14,15)
CH$LINK: CAS 5915-41-3
CH$LINK: CHEBI CHEBI:30263
CH$LINK: KEGG C18810
CH$LINK: PUBCHEM CID:22206
CH$LINK: INCHIKEY FZXISNSWEXTPMF-UHFFFAOYSA-N
CH$LINK: CHEMSPIDER 20848
CH$LINK: COMPTOX DTXSID4027608
AC$INSTRUMENT: LTQ Orbitrap XL Thermo Scientific
AC$INSTRUMENT_TYPE: LC-ESI-ITFT
AC$MASS_SPECTROMETRY: MS_TYPE MS2
AC$MASS_SPECTROMETRY: ION_MODE POSITIVE
AC$MASS_SPECTROMETRY: IONIZATION ESI
AC$MASS_SPECTROMETRY: FRAGMENTATION_MODE HCD
AC$MASS_SPECTROMETRY: COLLISION_ENERGY 80 (nominal)
AC$MASS_SPECTROMETRY: RESOLUTION 15000
AC$CHROMATOGRAPHY: COLUMN_NAME Kinetex Core-Shell C18 2.6 um, 3.0 x 100 mm, Phenomenex
AC$CHROMATOGRAPHY: FLOW_GRADIENT 90/10 at 0 min, 80/20 at 3.2 min, 5/95 at 17.8 min, 5/95 at 37.8 min, 90/10 at 37.9 min, 90/10 at 47 min
AC$CHROMATOGRAPHY: FLOW_RATE 200 uL/min
AC$CHROMATOGRAPHY: RETENTION_TIME 24.653 min
AC$CHROMATOGRAPHY: SOLVENT A water with 0.1% formic acid
AC$CHROMATOGRAPHY: SOLVENT B methanol with 0.1% formic acid
MS$FOCUSED_ION: BASE_PEAK 230.1163
MS$FOCUSED_ION: PRECURSOR_M/Z 230.1167
MS$FOCUSED_ION: PRECURSOR_TYPE [M+H]+
MS$DATA_PROCESSING: RECALIBRATE loess on assigned fragments and MS1
MS$DATA_PROCESSING: REANALYZE Peaks with additional N2/O included
MS$DATA_PROCESSING: WHOLE RMassBank 2.2.1
PK$SPLASH: splash10-0feb-3900000000-9b75e2029336ad796882
PK$ANNOTATION: m/z tentative_formula formula_count mass error(ppm)
  71.0602 C3H7N2+ 1 71.0604 -1.9
  79.0056 CH4ClN2+ 1 79.0058 -1.58
  90.0107 C3H5ClN+ 1 90.0105 2.18
  96.0555 C4H6N3+ 1 96.0556 -1.48
  104.0009 C2H3ClN3+ 1 104.001 -1.41
  110.046 C3H4N5+ 1 110.0461 -1.09
  132.0322 C4H7ClN3+ 1 132.0323 -1.07
  138.0774 C5H8N5+ 1 138.0774 -0.44
  146.0226 C3H5ClN5+ 1 146.0228 -1.07
  174.0539 C5H9ClN5+ 1 174.0541 -1.18
PK$NUM_PEAK: 10
PK$PEAK: m/z int. rel.int.
  71.0602 437964.4 179
  79.0056 1263188.9 519
  90.0107 48070.5 19
  96.0555 1601207.1 657
  104.0009 2431019.8 999
  110.046 202888.2 83
  132.0322 1433824.5 589
  138.0774 436824 179
  146.0226 1199565.9 492
  174.0539 2205731.5 906
//
