ACCESSION: MSBNK-UFZ-UF413003
RECORD_TITLE: Cotinine; LC-ESI-ITFT; MS2; CE: 35; R=15000; [M+H]+
DATE: 2017.01.05
AUTHORS: Schulze T, Krauss M, Department of Effect-Directed Analysis, Helmholtz Centre for Environmental Research - UFZ GmbH, Leipzig, Germany
LICENSE: CC BY
COPYRIGHT: Copyright (C) 2017
COMMENT: CONFIDENCE standard compound
COMMENT: INTERNAL_ID 4130
CH$NAME: Cotinine
CH$NAME: (5S)-1-methyl-5-pyridin-3-ylpyrrolidin-2-one
CH$COMPOUND_CLASS: N/A; Environmental Standard
CH$FORMULA: C10H12N2O
CH$EXACT_MASS: 176.0950
CH$SMILES: CN1[C@@H](CCC1=O)C1=CC=CN=C1
CH$IUPAC: InChI=1S/C10H12N2O/c1-12-9(4-5-10(12)13)8-3-2-6-11-7-8/h2-3,6-7,9H,4-5H2,1H3/t9-/m0/s1
CH$LINK: CAS 486-56-6
CH$LINK: CHEBI CHEBI:68641
CH$LINK: PUBCHEM CID:854019
CH$LINK: INCHIKEY UIKROCXWUNQSPJ-VIFPVBQESA-N
CH$LINK: CHEMSPIDER 746405
CH$LINK: COMPTOX DTXSID1047576
AC$INSTRUMENT: LTQ Orbitrap XL Thermo Scientific
AC$INSTRUMENT_TYPE: LC-ESI-ITFT
AC$MASS_SPECTROMETRY: MS_TYPE MS2
AC$MASS_SPECTROMETRY: ION_MODE POSITIVE
AC$MASS_SPECTROMETRY: IONIZATION ESI
AC$MASS_SPECTROMETRY: FRAGMENTATION_MODE CID
AC$MASS_SPECTROMETRY: COLLISION_ENERGY 35 (nominal)
AC$MASS_SPECTROMETRY: RESOLUTION 15000
AC$CHROMATOGRAPHY: COLUMN_NAME Kinetex Core-Shell C18 2.6 um, 3.0 x 100 mm, Phenomenex
AC$CHROMATOGRAPHY: FLOW_GRADIENT 90/10 at 0 min, 80/20 at 3.2 min, 5/95 at 17.8 min, 5/95 at 37.8 min, 90/10 at 37.9 min, 90/10 at 47 min
AC$CHROMATOGRAPHY: FLOW_RATE 200 uL/min
AC$CHROMATOGRAPHY: RETENTION_TIME 2.635 min
AC$CHROMATOGRAPHY: SOLVENT A water with 0.1% formic acid
AC$CHROMATOGRAPHY: SOLVENT B methanol with 0.1% formic acid
MS$FOCUSED_ION: BASE_PEAK 177.1029
MS$FOCUSED_ION: PRECURSOR_M/Z 177.1022
MS$FOCUSED_ION: PRECURSOR_TYPE [M+H]+
MS$DATA_PROCESSING: RECALIBRATE loess on assigned fragments and MS1
MS$DATA_PROCESSING: REANALYZE Peaks with additional N2/O included
MS$DATA_PROCESSING: WHOLE RMassBank 2.2.1
PK$SPLASH: splash10-004j-2900000000-4e1a7125e96086090a94
PK$ANNOTATION: m/z tentative_formula formula_count mass error(ppm)
  70.0655 C4H8N+ 1 70.0651 4.72
  80.0498 C5H6N+ 1 80.0495 3.97
  98.0604 C5H8NO+ 1 98.06 3.86
  118.0656 C8H8N+ 1 118.0651 4.31
  119.0734 C8H9N+ 1 119.073 3.68
  146.0607 C9H8NO+ 1 146.06 4.4
  147.006 C6HN3O2+ 1 147.0063 -2.21
  148.0762 C9H10NO+ 1 148.0757 3.45
  149.0716 C8H9N2O+ 1 149.0709 4.64
  160.0764 C10H10NO+ 1 160.0757 4.15
  177.103 C10H13N2O+ 1 177.1022 4.23
PK$NUM_PEAK: 11
PK$PEAK: m/z int. rel.int.
  70.0655 4798.1 2
  80.0498 332554.8 198
  98.0604 375961.6 224
  118.0656 61000.6 36
  119.0734 4505.6 2
  146.0607 482604.7 287
  147.006 4308.3 2
  148.0762 6400 3
  149.0716 96511.5 57
  160.0764 12133.6 7
  177.103 1674076.2 999
//
