ACCESSION: MSBNK-UFZ-WANA0288213166PH
RECORD_TITLE: 2-Isopropylthioxanthone; LC-ESI-ITFT; MS2; CE: 70%; R=15000; [M+H]+
DATE: 2023.08.13
AUTHORS: Tobias Schulze, Martin Krauss, Department of Effect-Directed Analysis, Helmholtz Centre for Environmental Research - UFZ, Leipzig, Germany
LICENSE: CC0
COPYRIGHT: Copyright (C) 2023
COMMENT: CONFIDENCE Reference Standard (Level 1)
CH$NAME: 2-Isopropylthioxanthone
CH$NAME: 2-propan-2-ylthioxanthen-9-one
CH$COMPOUND_CLASS: N/A; Environmental Standard
CH$FORMULA: C16H14OS
CH$EXACT_MASS: 254.076536068
CH$SMILES: CC(C)C1=CC=C2SC3=C(C=CC=C3)C(=O)C2=C1
CH$IUPAC: InChI=1S/C16H14OS/c1-10(2)11-7-8-15-13(9-11)16(17)12-5-3-4-6-14(12)18-15/h3-10H,1-2H3
CH$LINK: CAS 5495-84-1
CH$LINK: PUBCHEM CID:79633
CH$LINK: INCHIKEY KTALPKYXQZGAEG-UHFFFAOYSA-N
CH$LINK: CHEMSPIDER 71936
CH$LINK: COMPTOX DTXSID1044691
AC$INSTRUMENT: LTQ Orbitrap XL Thermo Scientific
AC$INSTRUMENT_TYPE: LC-ESI-ITFT
AC$MASS_SPECTROMETRY: MS_TYPE MS2
AC$MASS_SPECTROMETRY: ION_MODE POSITIVE
AC$MASS_SPECTROMETRY: IONIZATION ESI
AC$MASS_SPECTROMETRY: FRAGMENTATION_MODE HCD
AC$MASS_SPECTROMETRY: COLLISION_ENERGY 70 % (nominal)
AC$MASS_SPECTROMETRY: RESOLUTION 15000
AC$MASS_SPECTROMETRY: MASS_RANGE_M/Z 50-270
AC$CHROMATOGRAPHY: COLUMN_NAME Kinetex Evo C18 2.6 um 50 x 2.1 mm
AC$CHROMATOGRAPHY: FLOW_GRADIENT 95/5 at 0 min, 95/5 at 1 min, 0/100 at 13 min, 0/100 at 24 min, 95/5 at 24.3 min, 95/5 at 32 min
AC$CHROMATOGRAPHY: FLOW_RATE 300 uL/min
AC$CHROMATOGRAPHY: RETENTION_TIME 13.628 min
MS$FOCUSED_ION: BASE_PEAK 255.0845
MS$FOCUSED_ION: PRECURSOR_M/Z 255.0838
MS$FOCUSED_ION: PRECURSOR_TYPE [M+H]+
MS$FOCUSED_ION: PRECURSOR_INTENSITY 10848133
MS$DATA_PROCESSING: RECALIBRATE loess on assigned fragments and MS1
MS$DATA_PROCESSING: REANALYZE Peaks with additional N2/O included
MS$DATA_PROCESSING: WHOLE RMassBank 3.11.2
PK$SPLASH: splash10-03di-0190000000-0beb7cbf323f360cc927
PK$ANNOTATION: m/z tentative_formula formula_count mass error(ppm)
  141.0702 C11H9+ 1 141.0699 2.17
  152.0617 C12H8+ 1 152.0621 -2.46
  184.034 C12H8S+ 1 184.0341 -0.53
  185.0419 C12H9S+ 1 185.0419 -0.52
  197.042 C13H9S+ 1 197.0419 0.18
  212.029 C13H8OS+ 1 212.029 -0.12
  213.0367 C13H9OS+ 1 213.0369 -0.54
  225.0365 C14H9OS+ 1 225.0369 -1.72
  239.0523 C15H11OS+ 1 239.0525 -1.03
  240.0603 C15H12OS+ 1 240.0603 -0.33
  255.0836 C16H15OS+ 1 255.0838 -0.92
PK$NUM_PEAK: 11
PK$PEAK: m/z int. rel.int.
  141.0702 3046.4 1
  152.0617 7949.2 3
  184.034 229219 93
  185.0419 62223 25
  197.042 4282.8 1
  212.029 11383 4
  213.0367 2450181.8 999
  225.0365 9686.4 3
  239.0523 57082.9 23
  240.0603 28296.3 11
  255.0836 31997.8 13
//
