ACCESSION: MSBNK-UFZ-WANA2124237762PH
RECORD_TITLE: Metobromuron; LC-ESI-ITFT; MS2; CE: 80%; R=15000; [M+H]+
DATE: 2023.08.13
AUTHORS: Tobias Schulze, Martin Krauss, Department of Effect-Directed Analysis, Helmholtz Centre for Environmental Research - UFZ, Leipzig, Germany
LICENSE: CC0
COPYRIGHT: Copyright (C) 2023
COMMENT: CONFIDENCE Reference Standard (Level 1)
CH$NAME: Metobromuron
CH$NAME: 3-(4-bromophenyl)-1-methoxy-1-methylurea
CH$COMPOUND_CLASS: N/A; Environmental Standard
CH$FORMULA: C9H11BrN2O2
CH$EXACT_MASS: 258.000389692
CH$SMILES: CON(C)C(=O)NC1=CC=C(Br)C=C1
CH$IUPAC: InChI=1S/C9H11BrN2O2/c1-12(14-2)9(13)11-8-5-3-7(10)4-6-8/h3-6H,1-2H3,(H,11,13)
CH$LINK: CAS 3060-89-7
CH$LINK: CHEBI CHEBI:81964
CH$LINK: KEGG C18793
CH$LINK: PUBCHEM CID:18290
CH$LINK: INCHIKEY WLFDQEVORAMCIM-UHFFFAOYSA-N
CH$LINK: CHEMSPIDER 17276
CH$LINK: COMPTOX DTXSID6042157
AC$INSTRUMENT: LTQ Orbitrap XL Thermo Scientific
AC$INSTRUMENT_TYPE: LC-ESI-ITFT
AC$MASS_SPECTROMETRY: MS_TYPE MS2
AC$MASS_SPECTROMETRY: ION_MODE POSITIVE
AC$MASS_SPECTROMETRY: IONIZATION ESI
AC$MASS_SPECTROMETRY: FRAGMENTATION_MODE HCD
AC$MASS_SPECTROMETRY: COLLISION_ENERGY 80 % (nominal)
AC$MASS_SPECTROMETRY: RESOLUTION 15000
AC$MASS_SPECTROMETRY: MASS_RANGE_M/Z 50-270
AC$CHROMATOGRAPHY: COLUMN_NAME Kinetex Evo C18 2.6 um 50 x 2.1 mm
AC$CHROMATOGRAPHY: FLOW_GRADIENT 95/5 at 0 min, 95/5 at 1 min, 0/100 at 13 min, 0/100 at 24 min, 95/5 at 24.3 min, 95/5 at 32 min
AC$CHROMATOGRAPHY: FLOW_RATE 300 uL/min
AC$CHROMATOGRAPHY: RETENTION_TIME 9.677 min
MS$FOCUSED_ION: BASE_PEAK 259.0087
MS$FOCUSED_ION: PRECURSOR_M/Z 259.0077
MS$FOCUSED_ION: PRECURSOR_TYPE [M+H]+
MS$FOCUSED_ION: PRECURSOR_INTENSITY 9454360
MS$DATA_PROCESSING: RECALIBRATE loess on assigned fragments and MS1
MS$DATA_PROCESSING: REANALYZE Peaks with additional N2/O included
MS$DATA_PROCESSING: WHOLE RMassBank 3.11.2
PK$SPLASH: splash10-00kf-4900000000-26fcc96b2a004ee68743
PK$ANNOTATION: m/z tentative_formula formula_count mass error(ppm)
  60.0443 C2H6NO+ 1 60.0444 -1.17
  61.0522 C2H7NO+ 1 61.0522 0.31
  62.0599 C2H8NO+ 1 62.06 -1.76
  65.0385 C5H5+ 1 65.0386 -1.85
  90.0342 C6H4N+ 1 90.0338 3.61
  91.0418 C6H5N+ 1 91.0417 1.56
  92.0496 C6H6N+ 1 92.0495 1.61
  93.0576 C6H7N+ 1 93.0573 3.39
  110.0602 C6H8NO+ 1 110.06 1.82
  119.0606 C7H7N2+ 1 119.0604 1.64
  120.0683 C7H8N2+ 1 120.0682 0.99
  131.0605 C8H7N2+ 1 131.0604 0.9
  142.9494 C5H4Br+ 1 142.9491 1.88
  147.0555 C8H7N2O+ 1 147.0553 1.74
  148.0634 C8H8N2O+ 1 148.0631 2.04
  169.9603 C6H5BrN+ 1 169.96 1.9
  170.9681 C6H6BrN+ 1 170.9678 1.89
  183.9763 C7H7BrN+ 1 183.9756 3.85
  226.9817 C8H8BrN2O+ 1 226.9815 1.07
PK$NUM_PEAK: 19
PK$PEAK: m/z int. rel.int.
  60.0443 6629.9 45
  61.0522 1233.3 8
  62.0599 4631.4 31
  65.0385 3126.5 21
  90.0342 3718.8 25
  91.0418 146133.7 999
  92.0496 22365.2 152
  93.0576 1681 11
  110.0602 1959.1 13
  119.0606 50625.2 346
  120.0683 1206.6 8
  131.0605 2078 14
  142.9494 44299.2 302
  147.0555 23101 157
  148.0634 25738.2 175
  169.9603 115032.6 786
  170.9681 104204.9 712
  183.9763 2388.1 16
  226.9817 7403.3 50
//
