ACCESSION: MSBNK-UFZ-WANA0500213166PM
RECORD_TITLE: Amidosulfobetaine-14; LC-ESI-ITFT; MS2; CE: 70%; R=15000; [M]+
DATE: 2023.08.13
AUTHORS: Tobias Schulze, Martin Krauss, Department of Effect-Directed Analysis, Helmholtz Centre for Environmental Research - UFZ, Leipzig, Germany
LICENSE: CC0
COPYRIGHT: Copyright (C) 2023
COMMENT: CONFIDENCE Reference Standard (Level 1)
CH$NAME: Amidosulfobetaine-14
CH$NAME: 3-[Dimethyl[3-(tetradecanoylamino)propyl]aminio]-1-propanesulfonate
CH$NAME: dimethyl-(3-sulfopropyl)-[3-(tetradecanoylamino)propyl]azanium
CH$COMPOUND_CLASS: N/A; Environmental Standard
CH$FORMULA: C22H47N2O4S
CH$EXACT_MASS: 435.325105404091
CH$SMILES: CCCCCCCCCCCCCC(=O)NCCC[N+](C)(C)CCCS(O)(=O)=O
CH$IUPAC: InChI=1S/C22H46N2O4S/c1-4-5-6-7-8-9-10-11-12-13-14-17-22(25)23-18-15-19-24(2,3)20-16-21-29(26,27)28/h4-21H2,1-3H3,(H-,23,25,26,27,28)/p+1
CH$LINK: PUBCHEM CID:4046966
CH$LINK: INCHIKEY UTSXERRKRAEDOV-UHFFFAOYSA-O
CH$LINK: CHEMSPIDER 3263003
AC$INSTRUMENT: LTQ Orbitrap XL Thermo Scientific
AC$INSTRUMENT_TYPE: LC-ESI-ITFT
AC$MASS_SPECTROMETRY: MS_TYPE MS2
AC$MASS_SPECTROMETRY: ION_MODE POSITIVE
AC$MASS_SPECTROMETRY: IONIZATION ESI
AC$MASS_SPECTROMETRY: FRAGMENTATION_MODE HCD
AC$MASS_SPECTROMETRY: COLLISION_ENERGY 70 % (nominal)
AC$MASS_SPECTROMETRY: RESOLUTION 15000
AC$MASS_SPECTROMETRY: MASS_RANGE_M/Z 50-450
AC$CHROMATOGRAPHY: COLUMN_NAME Kinetex Evo C18 2.6 um 50 x 2.1 mm
AC$CHROMATOGRAPHY: FLOW_GRADIENT 95/5 at 0 min, 95/5 at 1 min, 0/100 at 13 min, 0/100 at 24 min, 95/5 at 24.3 min, 95/5 at 32 min
AC$CHROMATOGRAPHY: FLOW_RATE 300 uL/min
AC$CHROMATOGRAPHY: RETENTION_TIME 13.260 min
MS$FOCUSED_ION: BASE_PEAK 258.243
MS$FOCUSED_ION: PRECURSOR_M/Z 435.3251
MS$FOCUSED_ION: PRECURSOR_TYPE [M]+
MS$FOCUSED_ION: PRECURSOR_INTENSITY 2355071.75
MS$DATA_PROCESSING: RECALIBRATE loess on assigned fragments and MS1
MS$DATA_PROCESSING: REANALYZE Peaks with additional N2/O included
MS$DATA_PROCESSING: WHOLE RMassBank 3.11.2
PK$SPLASH: splash10-0avi-9010000000-dfe01fd78ea3e97460df
PK$ANNOTATION: m/z tentative_formula formula_count mass error(ppm)
  55.054 C4H7+ 1 55.0542 -3.65
  57.0697 C4H9+ 1 57.0699 -3.64
  58.0649 C3H8N+ 1 58.0651 -3.39
  67.0541 C5H7+ 1 67.0542 -1.49
  69.0698 C5H9+ 1 69.0699 -1.28
  71.0854 C5H11+ 1 71.0855 -1.1
  81.0699 C6H9+ 1 81.0699 -0.03
  83.0856 C6H11+ 1 83.0855 0.72
  85.1012 C6H13+ 1 85.1012 0.53
  95.0856 C7H11+ 1 95.0855 0.46
  97.1013 C7H13+ 1 97.1012 0.77
  109.1012 C8H13+ 1 109.1012 0.44
  123.0114 C3H7O3S+ 1 123.011 2.72
  123.1169 C9H15+ 1 123.1168 0.64
  168.0688 C5H14NO3S+ 2 168.0689 -0.54
  211.2052 C6H31N2O3S+ 2 211.205 0.94
  268.2633 C17H34NO+ 2 268.2635 -0.54
PK$NUM_PEAK: 17
PK$PEAK: m/z int. rel.int.
  55.054 4411.4 48
  57.0697 90919.1 999
  58.0649 23882.3 262
  67.0541 9886.4 108
  69.0698 12625.2 138
  71.0854 68205.6 749
  81.0699 16666.1 183
  83.0856 7208.8 79
  85.1012 36642.8 402
  95.0856 28956.2 318
  97.1013 4223.7 46
  109.1012 13982.3 153
  123.0114 1184 13
  123.1169 4192.8 46
  168.0688 3724.3 40
  211.2052 2784.6 30
  268.2633 48058.6 528
//
