ACCESSION: MSBNK-UFZ-UF413603
RECORD_TITLE: 4-Aminobenzamide; LC-ESI-ITFT; MS2; CE: 35; R=15000; [M+H]+
DATE: 2017.01.05
AUTHORS: Schulze T, Krauss M, Department of Effect-Directed Analysis, Helmholtz Centre for Environmental Research - UFZ GmbH, Leipzig, Germany
LICENSE: CC BY
COPYRIGHT: Copyright (C) 2017
COMMENT: CONFIDENCE standard compound
COMMENT: INTERNAL_ID 4136
CH$NAME: 4-Aminobenzamide
CH$COMPOUND_CLASS: N/A; Environmental Standard
CH$FORMULA: C7H8N2O
CH$EXACT_MASS: 136.0637
CH$SMILES: NC(=O)C1=CC=C(N)C=C1
CH$IUPAC: InChI=1S/C7H8N2O/c8-6-3-1-5(2-4-6)7(9)10/h1-4H,8H2,(H2,9,10)
CH$LINK: CAS 2835-68-9
CH$LINK: PUBCHEM CID:76079
CH$LINK: INCHIKEY QIKYZXDTTPVVAC-UHFFFAOYSA-N
CH$LINK: CHEMSPIDER 68568
CH$LINK: COMPTOX DTXSID7038814
AC$INSTRUMENT: LTQ Orbitrap XL Thermo Scientific
AC$INSTRUMENT_TYPE: LC-ESI-ITFT
AC$MASS_SPECTROMETRY: MS_TYPE MS2
AC$MASS_SPECTROMETRY: ION_MODE POSITIVE
AC$MASS_SPECTROMETRY: IONIZATION ESI
AC$MASS_SPECTROMETRY: FRAGMENTATION_MODE CID
AC$MASS_SPECTROMETRY: COLLISION_ENERGY 35 (nominal)
AC$MASS_SPECTROMETRY: RESOLUTION 15000
AC$CHROMATOGRAPHY: COLUMN_NAME Kinetex Core-Shell C18 2.6 um, 3.0 x 100 mm, Phenomenex
AC$CHROMATOGRAPHY: FLOW_GRADIENT 90/10 at 0 min, 80/20 at 3.2 min, 5/95 at 17.8 min, 5/95 at 37.8 min, 90/10 at 37.9 min, 90/10 at 47 min
AC$CHROMATOGRAPHY: FLOW_RATE 200 uL/min
AC$CHROMATOGRAPHY: RETENTION_TIME 2.928 min
AC$CHROMATOGRAPHY: SOLVENT A water with 0.1% formic acid
AC$CHROMATOGRAPHY: SOLVENT B methanol with 0.1% formic acid
MS$FOCUSED_ION: BASE_PEAK 163.1333
MS$FOCUSED_ION: PRECURSOR_M/Z 137.0709
MS$FOCUSED_ION: PRECURSOR_TYPE [M+H]+
MS$DATA_PROCESSING: RECALIBRATE loess on assigned fragments and MS1
MS$DATA_PROCESSING: REANALYZE Peaks with additional N2/O included
MS$DATA_PROCESSING: WHOLE RMassBank 2.2.1
PK$SPLASH: splash10-00di-0900000000-cbb401c0f52a8f57e499
PK$ANNOTATION: m/z tentative_formula formula_count mass error(ppm)
  81.0702 C6H9+ 1 81.0699 4.2
  94.0655 C6H8N+ 1 94.0651 3.91
  120.0448 C7H6NO+ 1 120.0444 3.56
  137.0715 C7H9N2O+ 1 137.0709 3.93
PK$NUM_PEAK: 4
PK$PEAK: m/z int. rel.int.
  81.0702 2487.9 1
  94.0655 96127.5 74
  120.0448 1287119.6 999
  137.0715 108333.8 84
//
