ACCESSION: MSBNK-UFZ-WANA0230155BE0PH
RECORD_TITLE: Irgarol; LC-ESI-ITFT; MS2; CE: 60%; R=15000; [M+H]+
DATE: 2023.08.12
AUTHORS: Tobias Schulze, Martin Krauss, Department of Effect-Directed Analysis, Helmholtz Centre for Environmental Research - UFZ, Leipzig, Germany
LICENSE: CC0
COPYRIGHT: Copyright (C) 2023
COMMENT: CONFIDENCE Reference Standard (Level 1)
CH$NAME: Irgarol
CH$NAME: Cybutryne
CH$NAME: 2-N-tert-butyl-4-N-cyclopropyl-6-methylsulfanyl-1,3,5-triazine-2,4-diamine
CH$COMPOUND_CLASS: N/A; Environmental Standard
CH$FORMULA: C11H19N5S
CH$EXACT_MASS: 253.136116608
CH$SMILES: CSC1=NC(NC2CC2)=NC(NC(C)(C)C)=N1
CH$IUPAC: InChI=1S/C11H19N5S/c1-11(2,3)16-9-13-8(12-7-5-6-7)14-10(15-9)17-4/h7H,5-6H2,1-4H3,(H2,12,13,14,15,16)
CH$LINK: CAS 28159-98-0
CH$LINK: CHEBI CHEBI:5962
CH$LINK: KEGG C10927
CH$LINK: PUBCHEM CID:91590
CH$LINK: INCHIKEY HDHLIWCXDDZUFH-UHFFFAOYSA-N
CH$LINK: CHEMSPIDER 82701
CH$LINK: COMPTOX DTXSID3032416
AC$INSTRUMENT: LTQ Orbitrap XL Thermo Scientific
AC$INSTRUMENT_TYPE: LC-ESI-ITFT
AC$MASS_SPECTROMETRY: MS_TYPE MS2
AC$MASS_SPECTROMETRY: ION_MODE POSITIVE
AC$MASS_SPECTROMETRY: IONIZATION ESI
AC$MASS_SPECTROMETRY: FRAGMENTATION_MODE HCD
AC$MASS_SPECTROMETRY: COLLISION_ENERGY 60 % (nominal)
AC$MASS_SPECTROMETRY: RESOLUTION 15000
AC$MASS_SPECTROMETRY: MASS_RANGE_M/Z 50-265
AC$CHROMATOGRAPHY: COLUMN_NAME Kinetex Evo C18 2.6 um 50 x 2.1 mm
AC$CHROMATOGRAPHY: FLOW_GRADIENT 95/5 at 0 min, 95/5 at 1 min, 0/100 at 13 min, 0/100 at 24 min, 95/5 at 24.3 min, 95/5 at 32 min
AC$CHROMATOGRAPHY: FLOW_RATE 300 uL/min
AC$CHROMATOGRAPHY: RETENTION_TIME 10.360 min
MS$FOCUSED_ION: BASE_PEAK 254.1441
MS$FOCUSED_ION: PRECURSOR_M/Z 254.1434
MS$FOCUSED_ION: PRECURSOR_TYPE [M+H]+
MS$FOCUSED_ION: PRECURSOR_INTENSITY 30237826
MS$DATA_PROCESSING: RECALIBRATE loess on assigned fragments and MS1
MS$DATA_PROCESSING: REANALYZE Peaks with additional N2/O included
MS$DATA_PROCESSING: WHOLE RMassBank 3.11.2
PK$SPLASH: splash10-0002-2900000000-186bfeb4a583117680c3
PK$ANNOTATION: m/z tentative_formula formula_count mass error(ppm)
  56.0492 C3H6N+ 1 56.0495 -4.8
  57.0696 C4H9+ 1 57.0699 -4.38
  58.0649 C3H8N+ 1 58.0651 -4.29
  68.0241 C2H2N3+ 1 68.0243 -2.59
  74.0058 C2H4NS+ 1 74.0059 -1.68
  81.0447 C4H5N2+ 1 81.0447 0.08
  83.0603 C4H7N2+ 1 83.0604 -0.71
  87.0263 C4H7S+ 1 87.0263 -0.03
  91.0324 C2H7N2S+ 1 91.0324 -0.48
  108.0556 C5H6N3+ 1 108.0556 -0.42
  114.0372 C5H8NS+ 1 114.0372 -0.19
  116.0276 C3H6N3S+ 1 116.0277 -0.59
  125.0821 C5H9N4+ 1 125.0822 -0.31
  150.0774 C6H8N5+ 1 150.0774 -0.25
  152.0929 C6H10N5+ 1 152.0931 -0.86
  156.0338 C4H6N5S+ 1 156.0338 -0.29
  156.0589 C6H10N3S+ 1 156.059 -0.43
  158.0494 C4H8N5S+ 1 158.0495 -0.78
  170.0495 C5H8N5S+ 1 170.0495 0.13
  171.0699 C6H11N4S+ 1 171.0699 -0.15
  183.0569 C6H9N5S+ 1 183.0573 -2.21
  198.0808 C7H12N5S+ 1 198.0808 -0.19
  254.143 C11H20N5S+ 1 254.1434 -1.69
PK$NUM_PEAK: 23
PK$PEAK: m/z int. rel.int.
  56.0492 126952.1 44
  57.0696 31694.5 11
  58.0649 32918 11
  68.0241 23636 8
  74.0058 39995.1 14
  81.0447 22126.7 7
  83.0603 378875.4 134
  87.0263 25617.6 9
  91.0324 577409 204
  108.0556 320434.4 113
  114.0372 57246.2 20
  116.0276 148224.5 52
  125.0821 219694.7 77
  150.0774 142663.9 50
  152.0929 12088.1 4
  156.0338 49215.6 17
  156.0589 228862.5 80
  158.0494 13263.2 4
  170.0495 53038.3 18
  171.0699 31554 11
  183.0569 4063.9 1
  198.0808 2824292 999
  254.143 25753.6 9
//
