ACCESSION: MSBNK-UFZ-WANA029203B085PM
RECORD_TITLE: Benzethonium; LC-ESI-ITFT; MS2; CE: 20%; R=15000; [M]+
DATE: 2023.08.13
AUTHORS: Tobias Schulze, Martin Krauss, Department of Effect-Directed Analysis, Helmholtz Centre for Environmental Research - UFZ, Leipzig, Germany
LICENSE: CC0
COPYRIGHT: Copyright (C) 2023
COMMENT: CONFIDENCE Reference Standard (Level 1)
CH$NAME: Benzethonium
CH$NAME: benzyl-dimethyl-[2-[2-[4-(2,4,4-trimethylpentan-2-yl)phenoxy]ethoxy]ethyl]azanium
CH$COMPOUND_CLASS: N/A; Environmental Standard
CH$FORMULA: C27H42NO2
CH$EXACT_MASS: 412.321006004091
CH$SMILES: CC(C)(C)CC(C)(C)C1=CC=C(OCCOCC[N+](C)(C)CC2=CC=CC=C2)C=C1
CH$IUPAC: InChI=1S/C27H42NO2/c1-26(2,3)22-27(4,5)24-13-15-25(16-14-24)30-20-19-29-18-17-28(6,7)21-23-11-9-8-10-12-23/h8-16H,17-22H2,1-7H3/q+1
CH$LINK: CAS 498-77-1
CH$LINK: CHEBI 94725
CH$LINK: PUBCHEM CID:2335
CH$LINK: INCHIKEY SIYLLGKDQZGJHK-UHFFFAOYSA-N
CH$LINK: CHEMSPIDER 2245
CH$LINK: COMPTOX DTXSID5046984
AC$INSTRUMENT: LTQ Orbitrap XL Thermo Scientific
AC$INSTRUMENT_TYPE: LC-ESI-ITFT
AC$MASS_SPECTROMETRY: MS_TYPE MS2
AC$MASS_SPECTROMETRY: ION_MODE POSITIVE
AC$MASS_SPECTROMETRY: IONIZATION ESI
AC$MASS_SPECTROMETRY: FRAGMENTATION_MODE HCD
AC$MASS_SPECTROMETRY: COLLISION_ENERGY 20 % (nominal)
AC$MASS_SPECTROMETRY: RESOLUTION 15000
AC$MASS_SPECTROMETRY: MASS_RANGE_M/Z 50-425
AC$CHROMATOGRAPHY: COLUMN_NAME Kinetex Evo C18 2.6 um 50 x 2.1 mm
AC$CHROMATOGRAPHY: FLOW_GRADIENT 95/5 at 0 min, 95/5 at 1 min, 0/100 at 13 min, 0/100 at 24 min, 95/5 at 24.3 min, 95/5 at 32 min
AC$CHROMATOGRAPHY: FLOW_RATE 300 uL/min
AC$CHROMATOGRAPHY: RETENTION_TIME 11.385 min
MS$FOCUSED_ION: BASE_PEAK 412.3219
MS$FOCUSED_ION: PRECURSOR_M/Z 412.321
MS$FOCUSED_ION: PRECURSOR_TYPE [M]+
MS$FOCUSED_ION: PRECURSOR_INTENSITY 8814041
MS$DATA_PROCESSING: RECALIBRATE loess on assigned fragments and MS1
MS$DATA_PROCESSING: REANALYZE Peaks with additional N2/O included
MS$DATA_PROCESSING: WHOLE RMassBank 3.11.2
PK$SPLASH: splash10-03di-0000900000-8af4e9984a2771072fc7
PK$ANNOTATION: m/z tentative_formula formula_count mass error(ppm)
  72.0804 C4H10N+ 1 72.0808 -4.81
  412.3208 C27H42NO2+ 1 412.321 -0.46
PK$NUM_PEAK: 2
PK$PEAK: m/z int. rel.int.
  72.0804 32438.7 3
  412.3208 8443572 999
//
