ACCESSION: MSBNK-UFZ-UA001003
RECORD_TITLE: Benz[c]acridine; APCI-ITFT; MS2; CE: 35%; R=30000; [M+H]+
DATE: 2014.06.24
AUTHORS: C. Gallampois (Umea), E. Schymanski (Eawag), W. Brack (UFZ)
LICENSE: CC BY
COPYRIGHT: Copyright (C) Eawag, 2014
PUBLICATION: Multi-criteria approach for tentative identification of polyaromatic river mutagens
COMMENT: CONFIDENCE standard compound
COMMENT: INTERNAL_ID 10
CH$NAME: Benz[c]acridine
CH$NAME: benzo[a]acridine
CH$COMPOUND_CLASS: N/A; Environmental Standard
CH$FORMULA: C17H11N
CH$EXACT_MASS: 229.0891
CH$SMILES: c1ccc2c(c1)ccc1nc3ccccc3cc21
CH$IUPAC: InChI=1S/C17H11N/c1-3-7-14-12(5-1)9-10-17-15(14)11-13-6-2-4-8-16(13)18-17/h1-11H
CH$LINK: CAS 225-51-4
CH$LINK: KEGG C19337
CH$LINK: PUBCHEM CID:9180
CH$LINK: INCHIKEY JEGZRTMZYUDVBF-UHFFFAOYSA-N
CH$LINK: CHEMSPIDER 8825
CH$LINK: COMPTOX DTXSID9075371
AC$INSTRUMENT: LTQ Orbitrap XL Thermo Scientific
AC$INSTRUMENT_TYPE: APCI-ITFT
AC$MASS_SPECTROMETRY: MS_TYPE MS2
AC$MASS_SPECTROMETRY: ION_MODE POSITIVE
AC$MASS_SPECTROMETRY: IONIZATION APCI
AC$MASS_SPECTROMETRY: FRAGMENTATION_MODE CID
AC$MASS_SPECTROMETRY: COLLISION_ENERGY 35 % (nominal)
AC$MASS_SPECTROMETRY: RESOLUTION 30000
AC$CHROMATOGRAPHY: COLUMN_NAME N/A
AC$CHROMATOGRAPHY: FLOW_GRADIENT Direct infusion experiment
AC$CHROMATOGRAPHY: FLOW_RATE 5 uL/min
AC$CHROMATOGRAPHY: RETENTION_TIME N/A min
AC$CHROMATOGRAPHY: SOLVENT A methanol
AC$CHROMATOGRAPHY: SOLVENT B N/A
MS$FOCUSED_ION: BASE_PEAK 230.0964
MS$FOCUSED_ION: PRECURSOR_M/Z 230.0964
MS$FOCUSED_ION: PRECURSOR_TYPE [M+H]+
MS$DATA_PROCESSING: RECALIBRATE loess on assigned fragments and MS1
MS$DATA_PROCESSING: REANALYZE Peaks with additional N2/O included
MS$DATA_PROCESSING: WHOLE RMassBank 1.5.2.3
PK$SPLASH: splash10-001i-0090000000-683cddf2b0091d6e6f7e
PK$ANNOTATION: m/z tentative_formula formula_count mass error(ppm)
  70.0288 C3H4NO+ 1 70.0287 0.28
  202.0778 C16H10+ 1 202.0777 0.44
  228.0802 C17H10N+ 1 228.0808 -2.61
  230.0962 C17H12N+ 1 230.0964 -0.85
PK$NUM_PEAK: 5
PK$PEAK: m/z int. rel.int.
  70.0288 1126.3 2
  202.0778 4815.3 8
  228.0802 1940.4 3
  230.0962 542746.6 999
  231.0995 191539.9031 352
//
