ACCESSION: MSBNK-UFZ-WANA058003B085PH
RECORD_TITLE: Loperamide; LC-ESI-ITFT; MS2; CE: 20%; R=15000; [M+H]+
DATE: 2023.08.12
AUTHORS: Tobias Schulze, Martin Krauss, Department of Effect-Directed Analysis, Helmholtz Centre for Environmental Research - UFZ, Leipzig, Germany
LICENSE: CC0
COPYRIGHT: Copyright (C) 2023
COMMENT: CONFIDENCE Reference Standard (Level 1)
CH$NAME: Loperamide
CH$NAME: 4-[4-(4-chlorophenyl)-4-hydroxypiperidin-1-yl]-N,N-dimethyl-2,2-diphenylbutanamide
CH$COMPOUND_CLASS: N/A; Environmental Standard
CH$FORMULA: C29H33ClN2O2
CH$EXACT_MASS: 476.223055976
CH$SMILES: CN(C)C(=O)C(CCN1CCC(O)(CC1)C1=CC=C(Cl)C=C1)(C1=CC=CC=C1)C1=CC=CC=C1
CH$IUPAC: InChI=1S/C29H33ClN2O2/c1-31(2)27(33)29(24-9-5-3-6-10-24,25-11-7-4-8-12-25)19-22-32-20-17-28(34,18-21-32)23-13-15-26(30)16-14-23/h3-16,34H,17-22H2,1-2H3
CH$LINK: CAS 53179-11-6
CH$LINK: CHEBI CHEBI:6532
CH$LINK: KEGG D08144
CH$LINK: PUBCHEM CID:3955
CH$LINK: INCHIKEY RDOIQAHITMMDAJ-UHFFFAOYSA-N
CH$LINK: CHEMSPIDER 3818
CH$LINK: COMPTOX DTXSID6045165
AC$INSTRUMENT: LTQ Orbitrap XL Thermo Scientific
AC$INSTRUMENT_TYPE: LC-ESI-ITFT
AC$MASS_SPECTROMETRY: MS_TYPE MS2
AC$MASS_SPECTROMETRY: ION_MODE POSITIVE
AC$MASS_SPECTROMETRY: IONIZATION ESI
AC$MASS_SPECTROMETRY: FRAGMENTATION_MODE HCD
AC$MASS_SPECTROMETRY: COLLISION_ENERGY 20 % (nominal)
AC$MASS_SPECTROMETRY: RESOLUTION 15000
AC$MASS_SPECTROMETRY: MASS_RANGE_M/Z 50-490
AC$CHROMATOGRAPHY: COLUMN_NAME Kinetex Evo C18 2.6 um 50 x 2.1 mm
AC$CHROMATOGRAPHY: FLOW_GRADIENT 95/5 at 0 min, 95/5 at 1 min, 0/100 at 13 min, 0/100 at 24 min, 95/5 at 24.3 min, 95/5 at 32 min
AC$CHROMATOGRAPHY: FLOW_RATE 300 uL/min
AC$CHROMATOGRAPHY: RETENTION_TIME 9.767 min
MS$FOCUSED_ION: BASE_PEAK 477.2305
MS$FOCUSED_ION: PRECURSOR_M/Z 477.2303
MS$FOCUSED_ION: PRECURSOR_TYPE [M+H]+
MS$FOCUSED_ION: PRECURSOR_INTENSITY 6951582.5
MS$DATA_PROCESSING: RECALIBRATE loess on assigned fragments and MS1
MS$DATA_PROCESSING: REANALYZE Peaks with additional N2/O included
MS$DATA_PROCESSING: WHOLE RMassBank 3.11.2
PK$SPLASH: splash10-014i-0090200000-91a493b224515f215723
PK$ANNOTATION: m/z tentative_formula formula_count mass error(ppm)
  266.1539 C18H20NO+ 2 266.1539 -0.27
  477.2293 C29H34ClN2O2+ 1 477.2303 -2.25
PK$NUM_PEAK: 2
PK$PEAK: m/z int. rel.int.
  266.1539 342674.7 999
  477.2293 95866.3 279
//
