ACCESSION: MSBNK-UFZ-WANA027505070APH
RECORD_TITLE: Simazine; LC-ESI-ITFT; MS2; CE: 30%; R=15000; [M+H]+
DATE: 2023.08.12
AUTHORS: Tobias Schulze, Martin Krauss, Department of Effect-Directed Analysis, Helmholtz Centre for Environmental Research - UFZ, Leipzig, Germany
LICENSE: CC0
COPYRIGHT: Copyright (C) 2023
COMMENT: CONFIDENCE Reference Standard (Level 1)
CH$NAME: Simazine
CH$NAME: 6-chloro-2-N,4-N-diethyl-1,3,5-triazine-2,4-diamine
CH$COMPOUND_CLASS: N/A; Environmental Standard
CH$FORMULA: C7H12ClN5
CH$EXACT_MASS: 201.078123064
CH$SMILES: CCNC1=NC(NCC)=NC(Cl)=N1
CH$IUPAC: InChI=1S/C7H12ClN5/c1-3-9-6-11-5(8)12-7(13-6)10-4-2/h3-4H2,1-2H3,(H2,9,10,11,12,13)
CH$LINK: CAS 122-34-9
CH$LINK: CHEBI CHEBI:27496
CH$LINK: KEGG C11172
CH$LINK: PUBCHEM CID:5216
CH$LINK: INCHIKEY ODCWYMIRDDJXKW-UHFFFAOYSA-N
CH$LINK: CHEMSPIDER 5027
CH$LINK: COMPTOX DTXSID4021268
AC$INSTRUMENT: LTQ Orbitrap XL Thermo Scientific
AC$INSTRUMENT_TYPE: LC-ESI-ITFT
AC$MASS_SPECTROMETRY: MS_TYPE MS2
AC$MASS_SPECTROMETRY: ION_MODE POSITIVE
AC$MASS_SPECTROMETRY: IONIZATION ESI
AC$MASS_SPECTROMETRY: FRAGMENTATION_MODE HCD
AC$MASS_SPECTROMETRY: COLLISION_ENERGY 30 % (nominal)
AC$MASS_SPECTROMETRY: RESOLUTION 15000
AC$MASS_SPECTROMETRY: MASS_RANGE_M/Z 50-215
AC$CHROMATOGRAPHY: COLUMN_NAME Kinetex Evo C18 2.6 um 50 x 2.1 mm
AC$CHROMATOGRAPHY: FLOW_GRADIENT 95/5 at 0 min, 95/5 at 1 min, 0/100 at 13 min, 0/100 at 24 min, 95/5 at 24.3 min, 95/5 at 32 min
AC$CHROMATOGRAPHY: FLOW_RATE 300 uL/min
AC$CHROMATOGRAPHY: RETENTION_TIME 8.710 min
MS$FOCUSED_ION: BASE_PEAK 202.0862
MS$FOCUSED_ION: PRECURSOR_M/Z 202.0854
MS$FOCUSED_ION: PRECURSOR_TYPE [M+H]+
MS$FOCUSED_ION: PRECURSOR_INTENSITY 25437600
MS$DATA_PROCESSING: RECALIBRATE loess on assigned fragments and MS1
MS$DATA_PROCESSING: REANALYZE Peaks with additional N2/O included
MS$DATA_PROCESSING: WHOLE RMassBank 3.11.2
PK$SPLASH: splash10-0udi-0090000000-3c2fcc2f3558c6e0ffce
PK$ANNOTATION: m/z tentative_formula formula_count mass error(ppm)
  96.0557 C4H6N3+ 1 96.0556 0.94
  104.001 C2H3ClN3+ 1 104.001 0.07
  124.087 C6H10N3+ 1 124.0869 0.91
  132.0324 C4H7ClN3+ 1 132.0323 0.95
  166.1091 C7H12N5+ 1 166.1087 2.1
  174.0543 C5H9ClN5+ 1 174.0541 0.98
  202.0855 C7H13ClN5+ 1 202.0854 0.66
PK$NUM_PEAK: 7
PK$PEAK: m/z int. rel.int.
  96.0557 11657.7 2
  104.001 8207.1 1
  124.087 124225.7 27
  132.0324 87058.8 19
  166.1091 11129 2
  174.0543 31984.2 7
  202.0855 4446033 999
//
