ACCESSION: MSBNK-UFZ-WANA034911C9CFPH
RECORD_TITLE: Ametryn; LC-ESI-ITFT; MS2; CE: 40%; R=15000; [M+H]+
DATE: 2023.08.12
AUTHORS: Tobias Schulze, Martin Krauss, Department of Effect-Directed Analysis, Helmholtz Centre for Environmental Research - UFZ, Leipzig, Germany
LICENSE: CC0
COPYRIGHT: Copyright (C) 2023
COMMENT: CONFIDENCE Reference Standard (Level 1)
CH$NAME: Ametryn
CH$NAME: 4-N-ethyl-6-methylsulfanyl-2-N-propan-2-yl-1,3,5-triazine-2,4-diamine
CH$COMPOUND_CLASS: N/A; Environmental Standard
CH$FORMULA: C9H17N5S
CH$EXACT_MASS: 227.120466544
CH$SMILES: CCNC1=NC(SC)=NC(NC(C)C)=N1
CH$IUPAC: InChI=1S/C9H17N5S/c1-5-10-7-12-8(11-6(2)3)14-9(13-7)15-4/h6H,5H2,1-4H3,(H2,10,11,12,13,14)
CH$LINK: CAS 834-12-8
CH$LINK: CHEBI CHEBI:22472
CH$LINK: KEGG C18700
CH$LINK: PUBCHEM CID:13263
CH$LINK: INCHIKEY RQVYBGPQFYCBGX-UHFFFAOYSA-N
CH$LINK: CHEMSPIDER 12705
CH$LINK: COMPTOX DTXSID1023869
AC$INSTRUMENT: LTQ Orbitrap XL Thermo Scientific
AC$INSTRUMENT_TYPE: LC-ESI-ITFT
AC$MASS_SPECTROMETRY: MS_TYPE MS2
AC$MASS_SPECTROMETRY: ION_MODE POSITIVE
AC$MASS_SPECTROMETRY: IONIZATION ESI
AC$MASS_SPECTROMETRY: FRAGMENTATION_MODE HCD
AC$MASS_SPECTROMETRY: COLLISION_ENERGY 40 % (nominal)
AC$MASS_SPECTROMETRY: RESOLUTION 15000
AC$MASS_SPECTROMETRY: MASS_RANGE_M/Z 50-240
AC$CHROMATOGRAPHY: COLUMN_NAME Kinetex Evo C18 2.6 um 50 x 2.1 mm
AC$CHROMATOGRAPHY: FLOW_GRADIENT 95/5 at 0 min, 95/5 at 1 min, 0/100 at 13 min, 0/100 at 24 min, 95/5 at 24.3 min, 95/5 at 32 min
AC$CHROMATOGRAPHY: FLOW_RATE 300 uL/min
AC$CHROMATOGRAPHY: RETENTION_TIME 8.689 min
MS$FOCUSED_ION: BASE_PEAK 228.1287
MS$FOCUSED_ION: PRECURSOR_M/Z 228.1277
MS$FOCUSED_ION: PRECURSOR_TYPE [M+H]+
MS$FOCUSED_ION: PRECURSOR_INTENSITY 45881356
MS$DATA_PROCESSING: RECALIBRATE loess on assigned fragments and MS1
MS$DATA_PROCESSING: REANALYZE Peaks with additional N2/O included
MS$DATA_PROCESSING: WHOLE RMassBank 3.11.2
PK$SPLASH: splash10-004r-0590000000-190f22573269c405f06d
PK$ANNOTATION: m/z tentative_formula formula_count mass error(ppm)
  68.0242 C2H2N3+ 1 68.0243 -1.25
  71.0603 C3H7N2+ 1 71.0604 -0.43
  91.0326 C2H7N2S+ 1 91.0324 1.2
  96.0557 C4H6N3+ 1 96.0556 1.09
  113.0823 C4H9N4+ 1 113.0822 0.76
  116.0278 C3H6N3S+ 1 116.0277 1.32
  138.0776 C5H8N5+ 1 138.0774 1.22
  138.1027 C7H12N3+ 1 138.1026 1.17
  144.0592 C5H10N3S+ 1 144.059 1.1
  158.0497 C4H8N5S+ 1 158.0495 1.44
  158.0749 C6H12N3S+ 1 158.0746 1.4
  180.1247 C8H14N5+ 1 180.1244 1.8
  186.081 C6H12N5S+ 1 186.0808 1.14
  200.0967 C7H14N5S+ 1 200.0964 1.21
  213.1038 C8H15N5S+ 1 213.1043 -2.09
  228.128 C9H18N5S+ 1 228.1277 0.98
PK$NUM_PEAK: 16
PK$PEAK: m/z int. rel.int.
  68.0242 60165 6
  71.0603 24181.4 2
  91.0326 69153.8 7
  96.0557 323127.1 36
  113.0823 16428.8 1
  116.0278 74088.8 8
  138.0776 63060.2 7
  138.1027 178899.1 20
  144.0592 87212.7 9
  158.0497 48541.2 5
  158.0749 32456.2 3
  180.1247 49305.5 5
  186.081 5154744 581
  200.0967 18317 2
  213.1038 14269.7 1
  228.128 8849667 999
//
