ACCESSION: MSBNK-UFZ-WANA310625AF82PM
RECORD_TITLE: Methyltriphenylphosphonium; LC-ESI-ITFT; MS2; CE: 90%; R=15000; [M]+
DATE: 2023.08.13
AUTHORS: Tobias Schulze, Martin Krauss, Department of Effect-Directed Analysis, Helmholtz Centre for Environmental Research - UFZ, Leipzig, Germany
LICENSE: CC0
COPYRIGHT: Copyright (C) 2023
COMMENT: CONFIDENCE Reference Standard (Level 1)
CH$NAME: Methyltriphenylphosphonium
CH$NAME: Triphenylmethylphosphonium
CH$NAME: methyl(triphenyl)phosphanium
CH$COMPOUND_CLASS: N/A; Environmental Standard
CH$FORMULA: C19H18P
CH$EXACT_MASS: 277.114063626091
CH$SMILES: C[P+](C1=CC=CC=C1)(C1=CC=CC=C1)C1=CC=CC=C1
CH$IUPAC: InChI=1S/C19H18P/c1-20(17-11-5-2-6-12-17,18-13-7-3-8-14-18)19-15-9-4-10-16-19/h2-16H,1H3/q+1
CH$LINK: CAS 21176-92-1
CH$LINK: PUBCHEM CID:74506
CH$LINK: INCHIKEY AZFQCTBZOPUVOW-UHFFFAOYSA-N
CH$LINK: CHEMSPIDER 67087
CH$LINK: COMPTOX DTXSID20166591
AC$INSTRUMENT: LTQ Orbitrap XL Thermo Scientific
AC$INSTRUMENT_TYPE: LC-ESI-ITFT
AC$MASS_SPECTROMETRY: MS_TYPE MS2
AC$MASS_SPECTROMETRY: ION_MODE POSITIVE
AC$MASS_SPECTROMETRY: IONIZATION ESI
AC$MASS_SPECTROMETRY: FRAGMENTATION_MODE HCD
AC$MASS_SPECTROMETRY: COLLISION_ENERGY 90 % (nominal)
AC$MASS_SPECTROMETRY: RESOLUTION 15000
AC$MASS_SPECTROMETRY: MASS_RANGE_M/Z 50-290
AC$CHROMATOGRAPHY: COLUMN_NAME Kinetex Evo C18 2.6 um 50 x 2.1 mm
AC$CHROMATOGRAPHY: FLOW_GRADIENT 95/5 at 0 min, 95/5 at 1 min, 0/100 at 13 min, 0/100 at 24 min, 95/5 at 24.3 min, 95/5 at 32 min
AC$CHROMATOGRAPHY: FLOW_RATE 300 uL/min
AC$CHROMATOGRAPHY: RETENTION_TIME 7.138 min
MS$FOCUSED_ION: BASE_PEAK 277.1149
MS$FOCUSED_ION: PRECURSOR_M/Z 277.1141
MS$FOCUSED_ION: PRECURSOR_TYPE [M]+
MS$FOCUSED_ION: PRECURSOR_INTENSITY 13993600
MS$DATA_PROCESSING: RECALIBRATE loess on assigned fragments and MS1
MS$DATA_PROCESSING: REANALYZE Peaks with additional N2/O included
MS$DATA_PROCESSING: WHOLE RMassBank 3.11.2
PK$SPLASH: splash10-053r-0920000000-874b520ea80f0959d15a
PK$ANNOTATION: m/z tentative_formula formula_count mass error(ppm)
  79.0543 C6H7+ 1 79.0542 1.17
  91.0544 C7H7+ 1 91.0542 1.42
  107.0047 C6H4P+ 1 107.0045 1.65
  108.0125 C6H5P+ 1 108.0123 1.07
  121.0203 C7H6P+ 1 121.0202 1.32
  123.036 C7H8P+ 1 123.0358 1.92
  141.0701 C11H9+ 1 141.0699 1.76
  152.0622 C12H8+ 1 152.0621 1.03
  154.0779 C12H10+ 1 154.0777 1.39
  183.0359 C12H8P+ 1 183.0358 0.71
  185.0514 C12H10P+ 1 185.0515 -0.21
  199.0672 C13H12P+ 1 199.0671 0.41
  200.0752 C13H13P+ 1 200.0749 1.19
  230.109 C18H14+ 1 230.109 -0.17
  261.0829 C18H14P+ 1 261.0828 0.55
  262.0917 C18H15P+ 1 262.0906 4.34
  277.1142 C19H18P+ 1 277.1141 0.62
PK$NUM_PEAK: 17
PK$PEAK: m/z int. rel.int.
  79.0543 34799 32
  91.0544 20541.9 19
  107.0047 69151.8 64
  108.0125 591679.1 549
  121.0203 22247.5 20
  123.036 7600.9 7
  141.0701 12579.2 11
  152.0622 32143.9 29
  154.0779 20843 19
  183.0359 1074710.6 999
  185.0514 463378 430
  199.0672 80980.5 75
  200.0752 29780.9 27
  230.109 3041.1 2
  261.0829 327795.2 304
  262.0917 79691.6 74
  277.1142 273137.5 253
//
