ACCESSION: MSBNK-UFZ-UF411103
RECORD_TITLE: 2-Hydroxycarbamazepine; LC-ESI-ITFT; MS2; CE: 35; R=15000; [M+H]+
DATE: 2017.01.05
AUTHORS: Schulze T, Krauss M, Department of Effect-Directed Analysis, Helmholtz Centre for Environmental Research - UFZ GmbH, Leipzig, Germany
LICENSE: CC BY
COPYRIGHT: Copyright (C) 2017
COMMENT: CONFIDENCE standard compound
COMMENT: INTERNAL_ID 4111
CH$NAME: 2-Hydroxycarbamazepine
CH$NAME: 3-Hydroxybenzo[b][1]benzazepine-11-carboxamide
CH$COMPOUND_CLASS: N/A; Environmental Standard
CH$FORMULA: C15H12N2O2
CH$EXACT_MASS: 252.0899
CH$SMILES: NC(=O)N1C2=CC=CC=C2C=CC2=CC(O)=CC=C12
CH$IUPAC: InChI=1S/C15H12N2O2/c16-15(19)17-13-4-2-1-3-10(13)5-6-11-9-12(18)7-8-14(11)17/h1-9,18H,(H2,16,19)
CH$LINK: CAS 68011-66-5
CH$LINK: CHEBI CHEBI:80596
CH$LINK: KEGG C16601
CH$LINK: PUBCHEM CID:129274
CH$LINK: INCHIKEY VPZIYMMSJFWLSP-UHFFFAOYSA-N
CH$LINK: CHEMSPIDER 114505
CH$LINK: COMPTOX DTXSID20218201
AC$INSTRUMENT: LTQ Orbitrap XL Thermo Scientific
AC$INSTRUMENT_TYPE: LC-ESI-ITFT
AC$MASS_SPECTROMETRY: MS_TYPE MS2
AC$MASS_SPECTROMETRY: ION_MODE POSITIVE
AC$MASS_SPECTROMETRY: IONIZATION ESI
AC$MASS_SPECTROMETRY: FRAGMENTATION_MODE CID
AC$MASS_SPECTROMETRY: COLLISION_ENERGY 35 (nominal)
AC$MASS_SPECTROMETRY: RESOLUTION 15000
AC$CHROMATOGRAPHY: COLUMN_NAME Kinetex Core-Shell C18 2.6 um, 3.0 x 100 mm, Phenomenex
AC$CHROMATOGRAPHY: FLOW_GRADIENT 90/10 at 0 min, 80/20 at 3.2 min, 5/95 at 17.8 min, 5/95 at 37.8 min, 90/10 at 37.9 min, 90/10 at 47 min
AC$CHROMATOGRAPHY: FLOW_RATE 200 uL/min
AC$CHROMATOGRAPHY: RETENTION_TIME 19.668 min
AC$CHROMATOGRAPHY: SOLVENT A water with 0.1% formic acid
AC$CHROMATOGRAPHY: SOLVENT B methanol with 0.1% formic acid
MS$FOCUSED_ION: BASE_PEAK 163.1329
MS$FOCUSED_ION: PRECURSOR_M/Z 253.0972
MS$FOCUSED_ION: PRECURSOR_TYPE [M+H]+
MS$DATA_PROCESSING: RECALIBRATE loess on assigned fragments and MS1
MS$DATA_PROCESSING: REANALYZE Peaks with additional N2/O included
MS$DATA_PROCESSING: WHOLE RMassBank 2.2.1
PK$SPLASH: splash10-01p9-0090000000-cb82cb0d65494c2a8eb5
PK$ANNOTATION: m/z tentative_formula formula_count mass error(ppm)
  179.073 C13H9N+ 1 179.073 0.13
  180.0808 C13H10N+ 1 180.0808 0.1
  182.0968 C13H12N+ 1 182.0964 1.89
  208.0762 C14H10NO+ 1 208.0757 2.6
  210.0916 C14H12NO+ 1 210.0913 1.24
  235.0868 C15H11N2O+ 1 235.0866 0.73
  236.0709 C15H10NO2+ 1 236.0706 1.13
PK$NUM_PEAK: 7
PK$PEAK: m/z int. rel.int.
  179.073 1747 1
  180.0808 25879.2 25
  182.0968 4448.4 4
  208.0762 8359.4 8
  210.0916 507975.5 506
  235.0868 2128 2
  236.0709 1002353.2 999
//
