ACCESSION: MSBNK-UFZ-UP000132
RECORD_TITLE: N-lauroylethanolamine; LC-ESI-ITFT; MS2; CE: 75%; R=15000; [M+H]+
DATE: 2019.07.31
AUTHORS: Liza-Marie Beckers, Werner Brack, Janek-Paul Dann, Martin Krauss, Erik Mueller, Tobias Schulze, Helmholtz Centre for Environmental Research GmbH - UFZ, Leipzig, Germany
LICENSE: CC0
COPYRIGHT: Copyright (C) 2019
PUBLICATION: Beckers L-M, Brack W, Dann JP, Krauss M, Mueller E, Schulze T, 2020. Unraveling longitudinal pollution patterns of organic micropollutants in a river by non-target screening and cluster analysis. Science of The Total Environment, https://doi.org/10.1016/j.scitotenv.2020.138388
COMMENT: CONFIDENCE Reference Standard (Level 1)
COMMENT: INTERNAL_ID 2
CH$NAME: N-lauroylethanolamine
CH$NAME: N-(2-hydroxyethyl)dodecanamide
CH$COMPOUND_CLASS: N/A; Environmental Standard
CH$FORMULA: C14H29NO2
CH$EXACT_MASS: 243.2198
CH$SMILES: CCCCCCCCCCCC(=O)NCCO
CH$IUPAC: InChI=1S/C14H29NO2/c1-2-3-4-5-6-7-8-9-10-11-14(17)15-12-13-16/h16H,2-13H2,1H3,(H,15,17)
CH$LINK: CAS 142-78-9
CH$LINK: CHEBI CHEBI:85263
CH$LINK: LIPIDMAPS LMFA08040041
CH$LINK: PUBCHEM CID:8899
CH$LINK: INCHIKEY QZXSMBBFBXPQHI-UHFFFAOYSA-N
CH$LINK: CHEMSPIDER 8559
AC$INSTRUMENT: LTQ Orbitrap XL Thermo Scientific
AC$INSTRUMENT_TYPE: LC-ESI-ITFT
AC$MASS_SPECTROMETRY: MS_TYPE MS2
AC$MASS_SPECTROMETRY: ION_MODE POSITIVE
AC$MASS_SPECTROMETRY: IONIZATION ESI
AC$MASS_SPECTROMETRY: FRAGMENTATION_MODE HCD
AC$MASS_SPECTROMETRY: COLLISION_ENERGY 75 % (nominal)
AC$MASS_SPECTROMETRY: RESOLUTION 15000
AC$CHROMATOGRAPHY: COLUMN_NAME Kinetex Evo C18 2.6 um 50 x 2.1 mm
AC$CHROMATOGRAPHY: FLOW_GRADIENT 95/5 at 0 min, 95/5 at 1 min, 0/100 at 13 min, 0/100 at 24 min, 95/5 at 24.3 min, 95/5/0 at 32 min
AC$CHROMATOGRAPHY: FLOW_RATE 300 uL/min
AC$CHROMATOGRAPHY: RETENTION_TIME 13.013 min
AC$CHROMATOGRAPHY: SOLVENT A water with 0.1% formic acid
AC$CHROMATOGRAPHY: SOLVENT B methanol with 0.1% formic acid
MS$FOCUSED_ION: BASE_PEAK 244.2271
MS$FOCUSED_ION: PRECURSOR_M/Z 244.2271
MS$FOCUSED_ION: PRECURSOR_TYPE [M+H]+
MS$DATA_PROCESSING: RECALIBRATE loess on assigned fragments and MS1
MS$DATA_PROCESSING: REANALYZE Peaks with additional N2/O included
MS$DATA_PROCESSING: WHOLE RMassBank 2.12.0
PK$SPLASH: splash10-03dj-9000000000-c52eea9b7ba8bb370f54
PK$ANNOTATION: m/z tentative_formula formula_count mass error(ppm)
  57.0696 C4H9+ 1 57.0699 -4.02
  62.0598 C2H8NO+ 1 62.06 -3.14
  67.0541 C5H7+ 1 67.0542 -1.92
  71.0854 C5H11+ 1 71.0855 -1.32
  81.0698 C6H9+ 1 81.0699 -0.85
  85.1009 C6H13+ 1 85.1012 -2.9
  95.0854 C7H11+ 1 95.0855 -1.14
  109.101 C8H13+ 1 109.1012 -1.92
  226.2158 C14H28NO+ 1 226.2165 -3.33
PK$NUM_PEAK: 9
PK$PEAK: m/z int. rel.int.
  57.0696 100748.1 180
  62.0598 556140.1 999
  67.0541 144182.5 258
  71.0854 140104.8 251
  81.0698 206216.3 370
  85.1009 34811.6 62
  95.0854 306463.3 550
  109.101 39581.4 71
  226.2158 49302.9 88
//
