ACCESSION: MSBNK-UFZ-WANA2263213166PH
RECORD_TITLE: Carbaryl; LC-ESI-ITFT; MS2; CE: 70%; R=15000; [M+H]+
DATE: 2023.08.13
AUTHORS: Tobias Schulze, Martin Krauss, Department of Effect-Directed Analysis, Helmholtz Centre for Environmental Research - UFZ, Leipzig, Germany
LICENSE: CC0
COPYRIGHT: Copyright (C) 2023
COMMENT: CONFIDENCE Reference Standard (Level 1)
CH$NAME: Carbaryl
CH$NAME: naphthalen-1-yl N-methylcarbamate
CH$COMPOUND_CLASS: N/A; Environmental Standard
CH$FORMULA: C12H11NO2
CH$EXACT_MASS: 201.078978592
CH$SMILES: CNC(=O)OC1=C2C=CC=CC2=CC=C1
CH$IUPAC: InChI=1S/C12H11NO2/c1-13-12(14)15-11-8-4-6-9-5-2-3-7-10(9)11/h2-8H,1H3,(H,13,14)
CH$LINK: CAS 63-25-2
CH$LINK: CHEBI CHEBI:3390
CH$LINK: KEGG D07613
CH$LINK: PUBCHEM CID:6129
CH$LINK: INCHIKEY CVXBEEMKQHEXEN-UHFFFAOYSA-N
CH$LINK: CHEMSPIDER 5899
CH$LINK: COMPTOX DTXSID9020247
AC$INSTRUMENT: LTQ Orbitrap XL Thermo Scientific
AC$INSTRUMENT_TYPE: LC-ESI-ITFT
AC$MASS_SPECTROMETRY: MS_TYPE MS2
AC$MASS_SPECTROMETRY: ION_MODE POSITIVE
AC$MASS_SPECTROMETRY: IONIZATION ESI
AC$MASS_SPECTROMETRY: FRAGMENTATION_MODE HCD
AC$MASS_SPECTROMETRY: COLLISION_ENERGY 70 % (nominal)
AC$MASS_SPECTROMETRY: RESOLUTION 15000
AC$MASS_SPECTROMETRY: MASS_RANGE_M/Z 50-215
AC$CHROMATOGRAPHY: COLUMN_NAME Kinetex Evo C18 2.6 um 50 x 2.1 mm
AC$CHROMATOGRAPHY: FLOW_GRADIENT 95/5 at 0 min, 95/5 at 1 min, 0/100 at 13 min, 0/100 at 24 min, 95/5 at 24.3 min, 95/5 at 32 min
AC$CHROMATOGRAPHY: FLOW_RATE 300 uL/min
AC$CHROMATOGRAPHY: RETENTION_TIME 9.357 min
MS$FOCUSED_ION: BASE_PEAK 145.0653
MS$FOCUSED_ION: PRECURSOR_M/Z 202.0863
MS$FOCUSED_ION: PRECURSOR_TYPE [M+H]+
MS$FOCUSED_ION: PRECURSOR_INTENSITY 7930660
MS$DATA_PROCESSING: RECALIBRATE loess on assigned fragments and MS1
MS$DATA_PROCESSING: REANALYZE Peaks with additional N2/O included
MS$DATA_PROCESSING: WHOLE RMassBank 3.11.2
PK$SPLASH: splash10-014i-0920000000-806fa82b8a9f01077447
PK$ANNOTATION: m/z tentative_formula formula_count mass error(ppm)
  58.0289 C2H4NO+ 1 58.0287 2.74
  91.0547 C7H7+ 1 91.0542 4.88
  117.0704 C9H9+ 1 117.0699 4.89
  127.0547 C10H7+ 1 127.0542 3.39
  146.0235 C8H4NO2+ 1 146.0237 -1.03
  174.055 C10H8NO2+ 1 174.055 -0.02
  202.0863 C12H12NO2+ 1 202.0863 0.02
PK$NUM_PEAK: 7
PK$PEAK: m/z int. rel.int.
  58.0289 2496.3 26
  91.0547 1738.6 18
  117.0704 93246.5 999
  127.0547 6396.1 68
  146.0235 6819.3 73
  174.055 15031.6 161
  202.0863 28650.5 306
//
