ACCESSION: MSBNK-UFZ-WANA228413D9F1PH
RECORD_TITLE: 2-Oxindole; LC-ESI-ITFT; MS2; CE: 50%; R=15000; [M+H]+
DATE: 2023.08.12
AUTHORS: Tobias Schulze, Martin Krauss, Department of Effect-Directed Analysis, Helmholtz Centre for Environmental Research - UFZ, Leipzig, Germany
LICENSE: CC0
COPYRIGHT: Copyright (C) 2023
COMMENT: CONFIDENCE Reference Standard (Level 1)
CH$NAME: 2-Oxindole
CH$NAME: Oxindole
CH$NAME: 1,3-dihydroindol-2-one
CH$COMPOUND_CLASS: N/A; Environmental Standard
CH$FORMULA: C8H7NO
CH$EXACT_MASS: 133.052763844
CH$SMILES: O=C1CC2=CC=CC=C2N1
CH$IUPAC: InChI=1S/C8H7NO/c10-8-5-6-3-1-2-4-7(6)9-8/h1-4H,5H2,(H,9,10)
CH$LINK: CAS 59-48-3
CH$LINK: CHEBI CHEBI:31697
CH$LINK: KEGG C12312
CH$LINK: PUBCHEM CID:321710
CH$LINK: INCHIKEY JYGFTBXVXVMTGB-UHFFFAOYSA-N
CH$LINK: CHEMSPIDER 284794
CH$LINK: COMPTOX DTXSID80870389
AC$INSTRUMENT: LTQ Orbitrap XL Thermo Scientific
AC$INSTRUMENT_TYPE: LC-ESI-ITFT
AC$MASS_SPECTROMETRY: MS_TYPE MS2
AC$MASS_SPECTROMETRY: ION_MODE POSITIVE
AC$MASS_SPECTROMETRY: IONIZATION ESI
AC$MASS_SPECTROMETRY: FRAGMENTATION_MODE HCD
AC$MASS_SPECTROMETRY: COLLISION_ENERGY 50 % (nominal)
AC$MASS_SPECTROMETRY: RESOLUTION 15000
AC$MASS_SPECTROMETRY: MASS_RANGE_M/Z 50-145
AC$CHROMATOGRAPHY: COLUMN_NAME Kinetex Evo C18 2.6 um 50 x 2.1 mm
AC$CHROMATOGRAPHY: FLOW_GRADIENT 95/5 at 0 min, 95/5 at 1 min, 0/100 at 13 min, 0/100 at 24 min, 95/5 at 24.3 min, 95/5 at 32 min
AC$CHROMATOGRAPHY: FLOW_RATE 300 uL/min
AC$CHROMATOGRAPHY: RETENTION_TIME 4.332 min
MS$FOCUSED_ION: BASE_PEAK 134.0601
MS$FOCUSED_ION: PRECURSOR_M/Z 134.06
MS$FOCUSED_ION: PRECURSOR_TYPE [M+H]+
MS$FOCUSED_ION: PRECURSOR_INTENSITY 5987429
MS$DATA_PROCESSING: RECALIBRATE loess on assigned fragments and MS1
MS$DATA_PROCESSING: REANALYZE Peaks with additional N2/O included
MS$DATA_PROCESSING: WHOLE RMassBank 3.11.2
PK$SPLASH: splash10-001i-0900000000-9fe8e01e1fadbf1f4402
PK$ANNOTATION: m/z tentative_formula formula_count mass error(ppm)
  79.054 C6H7+ 1 79.0542 -3.21
  105.0332 C7H5O+ 1 105.0335 -2.38
  106.0649 C7H8N+ 1 106.0651 -2.56
  107.0488 C7H7O+ 1 107.0491 -3.06
  116.0492 C8H6N+ 1 116.0495 -1.96
  134.0597 C8H8NO+ 1 134.06 -2.62
PK$NUM_PEAK: 6
PK$PEAK: m/z int. rel.int.
  79.054 18078.4 8
  105.0332 19495.6 8
  106.0649 168663.9 77
  107.0488 4183.9 1
  116.0492 4673.6 2
  134.0597 2179761.8 999
//
