ACCESSION: MSBNK-UFZ-WANA0369155BE0PH
RECORD_TITLE: 2-(Methylthio)benzothiazole; LC-ESI-ITFT; MS2; CE: 60%; R=15000; [M+H]+
DATE: 2023.08.12
AUTHORS: Tobias Schulze, Martin Krauss, Department of Effect-Directed Analysis, Helmholtz Centre for Environmental Research - UFZ, Leipzig, Germany
LICENSE: CC0
COPYRIGHT: Copyright (C) 2023
COMMENT: CONFIDENCE Reference Standard (Level 1)
CH$NAME: 2-(Methylthio)benzothiazole
CH$NAME: 2-methylsulfanyl-1,3-benzothiazole
CH$COMPOUND_CLASS: N/A; Environmental Standard
CH$FORMULA: C8H7NS2
CH$EXACT_MASS: 181.001991224
CH$SMILES: CSC1=NC2=CC=CC=C2S1
CH$IUPAC: InChI=1S/C8H7NS2/c1-10-8-9-6-4-2-3-5-7(6)11-8/h2-5H,1H3
CH$LINK: CAS 615-22-5
CH$LINK: CHEBI CHEBI:1217
CH$LINK: KEGG C10910
CH$LINK: PUBCHEM CID:11989
CH$LINK: INCHIKEY UTBVIMLZIRIFFR-UHFFFAOYSA-N
CH$LINK: CHEMSPIDER 11494
CH$LINK: COMPTOX DTXSID70274236
AC$INSTRUMENT: LTQ Orbitrap XL Thermo Scientific
AC$INSTRUMENT_TYPE: LC-ESI-ITFT
AC$MASS_SPECTROMETRY: MS_TYPE MS2
AC$MASS_SPECTROMETRY: ION_MODE POSITIVE
AC$MASS_SPECTROMETRY: IONIZATION ESI
AC$MASS_SPECTROMETRY: FRAGMENTATION_MODE HCD
AC$MASS_SPECTROMETRY: COLLISION_ENERGY 60 % (nominal)
AC$MASS_SPECTROMETRY: RESOLUTION 15000
AC$MASS_SPECTROMETRY: MASS_RANGE_M/Z 50-195
AC$CHROMATOGRAPHY: COLUMN_NAME Kinetex Evo C18 2.6 um 50 x 2.1 mm
AC$CHROMATOGRAPHY: FLOW_GRADIENT 95/5 at 0 min, 95/5 at 1 min, 0/100 at 13 min, 0/100 at 24 min, 95/5 at 24.3 min, 95/5 at 32 min
AC$CHROMATOGRAPHY: FLOW_RATE 300 uL/min
AC$CHROMATOGRAPHY: RETENTION_TIME 10.745 min
MS$FOCUSED_ION: BASE_PEAK 182.0098
MS$FOCUSED_ION: PRECURSOR_M/Z 182.0093
MS$FOCUSED_ION: PRECURSOR_TYPE [M+H]+
MS$FOCUSED_ION: PRECURSOR_INTENSITY 9709008
MS$DATA_PROCESSING: RECALIBRATE loess on assigned fragments and MS1
MS$DATA_PROCESSING: REANALYZE Peaks with additional N2/O included
MS$DATA_PROCESSING: WHOLE RMassBank 3.11.2
PK$SPLASH: splash10-00lr-0900000000-143a6c4d15bb01a1d3f1
PK$ANNOTATION: m/z tentative_formula formula_count mass error(ppm)
  109.0107 C6H5S+ 1 109.0106 0.82
  124.0341 C7H8S+ 1 124.0341 -0.59
  135.0138 C7H5NS+ 1 135.0137 0.72
  136.0217 C7H6NS+ 1 136.0215 1.04
  149.0296 C8H7NS+ 1 149.0294 1.31
  150.0375 C8H8NS+ 1 150.0372 1.9
  165.9785 C7H4NS2+ 1 165.978 3.18
  166.9859 C7H5NS2+ 1 166.9858 0.78
  182.0093 C8H8NS2+ 1 182.0093 0.38
PK$NUM_PEAK: 9
PK$PEAK: m/z int. rel.int.
  109.0107 16523.7 9
  124.0341 3500 2
  135.0138 57797.4 34
  136.0217 18089.5 10
  149.0296 3701.3 2
  150.0375 2251.4 1
  165.9785 3612.6 2
  166.9859 1191376.5 717
  182.0093 1658220.4 999
//
