ACCESSION: MSBNK-UFZ-UP000006
RECORD_TITLE: Methocarbamol; LC-ESI-ITFT; MS2; CE: 10%; R=15000; [M+H]+
DATE: 2019.07.31
AUTHORS: Liza-Marie Beckers, Werner Brack, Janek-Paul Dann, Martin Krauss, Erik Mueller, Tobias Schulze, Helmholtz Centre for Environmental Research GmbH - UFZ, Leipzig, Germany
LICENSE: CC0
COPYRIGHT: Copyright (C) 2019
PUBLICATION: Beckers L-M, Brack W, Dann JP, Krauss M, Mueller E, Schulze T, 2020. Unraveling longitudinal pollution patterns of organic micropollutants in a river by non-target screening and cluster analysis. Science of The Total Environment, https://doi.org/10.1016/j.scitotenv.2020.138388
COMMENT: CONFIDENCE Reference Standard (Level 1)
COMMENT: INTERNAL_ID 3
CH$NAME: Methocarbamol
CH$NAME: [2-hydroxy-3-(2-methoxyphenoxy)propyl] carbamate
CH$COMPOUND_CLASS: N/A; Environmental Standard
CH$FORMULA: C11H15NO5
CH$EXACT_MASS: 241.0950
CH$SMILES: COC1=C(OCC(O)COC(N)=O)C=CC=C1
CH$IUPAC: InChI=1S/C11H15NO5/c1-15-9-4-2-3-5-10(9)16-6-8(13)7-17-11(12)14/h2-5,8,13H,6-7H2,1H3,(H2,12,14)
CH$LINK: CAS 532-03-6
CH$LINK: CHEBI CHEBI:77498
CH$LINK: KEGG D00402
CH$LINK: PUBCHEM CID:4107
CH$LINK: INCHIKEY GNXFOGHNGIVQEH-UHFFFAOYSA-N
CH$LINK: CHEMSPIDER 3964
AC$INSTRUMENT: LTQ Orbitrap XL Thermo Scientific
AC$INSTRUMENT_TYPE: LC-ESI-ITFT
AC$MASS_SPECTROMETRY: MS_TYPE MS2
AC$MASS_SPECTROMETRY: ION_MODE POSITIVE
AC$MASS_SPECTROMETRY: IONIZATION ESI
AC$MASS_SPECTROMETRY: FRAGMENTATION_MODE HCD
AC$MASS_SPECTROMETRY: COLLISION_ENERGY 10 % (nominal)
AC$MASS_SPECTROMETRY: RESOLUTION 15000
AC$CHROMATOGRAPHY: COLUMN_NAME Kinetex Evo C18 2.6 um 50 x 2.1 mm
AC$CHROMATOGRAPHY: FLOW_GRADIENT 95/5 at 0 min, 95/5 at 1 min, 0/100 at 13 min, 0/100 at 24 min, 95/5 at 24.3 min, 95/5/0 at 32 min
AC$CHROMATOGRAPHY: FLOW_RATE 300 uL/min
AC$CHROMATOGRAPHY: RETENTION_TIME 7.151 min
AC$CHROMATOGRAPHY: SOLVENT A water with 0.1% formic acid
AC$CHROMATOGRAPHY: SOLVENT B methanol with 0.1% formic acid
MS$FOCUSED_ION: BASE_PEAK 264.0841
MS$FOCUSED_ION: PRECURSOR_M/Z 242.1023
MS$FOCUSED_ION: PRECURSOR_TYPE [M+H]+
MS$DATA_PROCESSING: RECALIBRATE loess on assigned fragments and MS1
MS$DATA_PROCESSING: REANALYZE Peaks with additional N2/O included
MS$DATA_PROCESSING: WHOLE RMassBank 2.12.0
PK$SPLASH: splash10-014i-0910000000-a28028b37cd24e38c2a6
PK$ANNOTATION: m/z tentative_formula formula_count mass error(ppm)
  118.0499 C4H8NO3+ 1 118.0499 -0.01
  125.0595 C7H9O2+ 1 125.0597 -1.47
  163.0752 C10H11O2+ 1 163.0754 -0.83
  199.0964 C10H15O4+ 1 199.0965 -0.29
  224.0915 C11H14NO4+ 1 224.0917 -0.9
  242.1025 C11H16NO5+ 1 242.1023 0.78
PK$NUM_PEAK: 6
PK$PEAK: m/z int. rel.int.
  118.0499 10109.1 999
  125.0595 2844.1 281
  163.0752 4949.8 489
  199.0964 4204.5 415
  224.0915 1179.4 116
  242.1025 3268.7 323
//
