ACCESSION: MSBNK-UFZ-WANA273405070APH
RECORD_TITLE: Candesartan; LC-ESI-ITFT; MS2; CE: 30%; R=15000; [M+H]+
DATE: 2023.08.12
AUTHORS: Tobias Schulze, Martin Krauss, Department of Effect-Directed Analysis, Helmholtz Centre for Environmental Research - UFZ, Leipzig, Germany
LICENSE: CC0
COPYRIGHT: Copyright (C) 2023
COMMENT: CONFIDENCE Reference Standard (Level 1)
CH$NAME: Candesartan
CH$NAME: 2-ethoxy-3-[[4-[2-(2H-tetrazol-5-yl)phenyl]phenyl]methyl]benzimidazole-4-carboxylic acid
CH$COMPOUND_CLASS: N/A; Environmental Standard
CH$FORMULA: C24H20N6O3
CH$EXACT_MASS: 440.1596885
CH$SMILES: CCOC1=NC2=CC=CC(C(O)=O)=C2N1CC1=CC=C(C=C1)C1=CC=CC=C1C1=NN=NN1
CH$IUPAC: InChI=1S/C24H20N6O3/c1-2-33-24-25-20-9-5-8-19(23(31)32)21(20)30(24)14-15-10-12-16(13-11-15)17-6-3-4-7-18(17)22-26-28-29-27-22/h3-13H,2,14H2,1H3,(H,31,32)(H,26,27,28,29)
CH$LINK: CAS 145040-37-5
CH$LINK: CHEBI CHEBI:3347
CH$LINK: KEGG D00522
CH$LINK: PUBCHEM CID:2541
CH$LINK: INCHIKEY HTQMVQVXFRQIKW-UHFFFAOYSA-N
CH$LINK: CHEMSPIDER 2445
CH$LINK: COMPTOX DTXSID0022725
AC$INSTRUMENT: LTQ Orbitrap XL Thermo Scientific
AC$INSTRUMENT_TYPE: LC-ESI-ITFT
AC$MASS_SPECTROMETRY: MS_TYPE MS2
AC$MASS_SPECTROMETRY: ION_MODE POSITIVE
AC$MASS_SPECTROMETRY: IONIZATION ESI
AC$MASS_SPECTROMETRY: FRAGMENTATION_MODE HCD
AC$MASS_SPECTROMETRY: COLLISION_ENERGY 30 % (nominal)
AC$MASS_SPECTROMETRY: RESOLUTION 15000
AC$MASS_SPECTROMETRY: MASS_RANGE_M/Z 50-455
AC$CHROMATOGRAPHY: COLUMN_NAME Kinetex Evo C18 2.6 um 50 x 2.1 mm
AC$CHROMATOGRAPHY: FLOW_GRADIENT 95/5 at 0 min, 95/5 at 1 min, 0/100 at 13 min, 0/100 at 24 min, 95/5 at 24.3 min, 95/5 at 32 min
AC$CHROMATOGRAPHY: FLOW_RATE 300 uL/min
AC$CHROMATOGRAPHY: RETENTION_TIME 11.276 min
MS$FOCUSED_ION: BASE_PEAK 441.1683
MS$FOCUSED_ION: PRECURSOR_M/Z 441.167
MS$FOCUSED_ION: PRECURSOR_TYPE [M+H]+
MS$FOCUSED_ION: PRECURSOR_INTENSITY 8480090
MS$DATA_PROCESSING: RECALIBRATE loess on assigned fragments and MS1
MS$DATA_PROCESSING: REANALYZE Peaks with additional N2/O included
MS$DATA_PROCESSING: WHOLE RMassBank 3.11.2
PK$SPLASH: splash10-03dr-0090000000-130bdfc4bf1078540805
PK$ANNOTATION: m/z tentative_formula formula_count mass error(ppm)
  192.0816 C14H10N+ 1 192.0808 4.09
  207.0925 C14H11N2+ 1 207.0917 4.17
  208.113 C15H14N+ 1 208.1121 4.29
  210.0921 C14H12NO+ 1 210.0913 3.82
  219.0764 C11H11N2O3+ 1 219.0764 -0.03
  235.0988 C14H11N4+ 2 235.0978 4.17
  235.1239 C16H15N2+ 1 235.123 4.08
  263.1301 C18H17NO+ 2 263.1305 -1.51
  395.1516 C24H19N4O2+ 1 395.1503 3.45
  423.1582 C24H19N6O2+ 1 423.1564 4.2
PK$NUM_PEAK: 10
PK$PEAK: m/z int. rel.int.
  192.0816 5645.3 123
  207.0925 17732.8 388
  208.113 2257.4 49
  210.0921 6646.7 145
  219.0764 1026 22
  235.0988 9989.7 218
  235.1239 20502.6 449
  263.1301 45587.8 999
  395.1516 3434.2 75
  423.1582 2068.6 45
//
