ACCESSION: MSBNK-UFZ-WANA223603B085PH
RECORD_TITLE: Cyproterone; LC-ESI-ITFT; MS2; CE: 20%; R=15000; [M+H]+
DATE: 2023.08.12
AUTHORS: Tobias Schulze, Martin Krauss, Department of Effect-Directed Analysis, Helmholtz Centre for Environmental Research - UFZ, Leipzig, Germany
LICENSE: CC0
COPYRIGHT: Copyright (C) 2023
COMMENT: CONFIDENCE Reference Standard (Level 1)
CH$NAME: Cyproterone
CH$NAME: (1S,2S,3S,5R,11R,12S,15R,16S)-15-acetyl-9-chloro-15-hydroxy-2,16-dimethylpentacyclo[9.7.0.02,8.03,5.012,16]octadeca-7,9-dien-6-one
CH$COMPOUND_CLASS: N/A; Environmental Standard
CH$FORMULA: C22H27ClO3
CH$EXACT_MASS: 374.164872404
CH$SMILES: CC(=O)[C@@]1(O)CC[C@H]2[C@@H]3C=C(Cl)C4=CC(=O)[C@@H]5C[C@@H]5[C@]4(C)[C@H]3CC[C@]12C
CH$IUPAC: InChI=1S/C22H27ClO3/c1-11(24)22(26)7-5-14-12-9-18(23)17-10-19(25)13-8-16(13)21(17,3)15(12)4-6-20(14,22)2/h9-10,12-16,26H,4-8H2,1-3H3/t12-,13+,14-,15-,16-,20-,21-,22-/m0/s1
CH$LINK: CAS 2098-66-0
CH$LINK: CHEBI CHEBI:50742
CH$LINK: KEGG D07766
CH$LINK: PUBCHEM CID:5284537
CH$LINK: INCHIKEY DUSHUSLJJMDGTE-ZJPMUUANSA-N
CH$LINK: CHEMSPIDER 4447594
CH$LINK: COMPTOX DTXSID3022873
AC$INSTRUMENT: LTQ Orbitrap XL Thermo Scientific
AC$INSTRUMENT_TYPE: LC-ESI-ITFT
AC$MASS_SPECTROMETRY: MS_TYPE MS2
AC$MASS_SPECTROMETRY: ION_MODE POSITIVE
AC$MASS_SPECTROMETRY: IONIZATION ESI
AC$MASS_SPECTROMETRY: FRAGMENTATION_MODE HCD
AC$MASS_SPECTROMETRY: COLLISION_ENERGY 20 % (nominal)
AC$MASS_SPECTROMETRY: RESOLUTION 15000
AC$MASS_SPECTROMETRY: MASS_RANGE_M/Z 50-390
AC$CHROMATOGRAPHY: COLUMN_NAME Kinetex Evo C18 2.6 um 50 x 2.1 mm
AC$CHROMATOGRAPHY: FLOW_GRADIENT 95/5 at 0 min, 95/5 at 1 min, 0/100 at 13 min, 0/100 at 24 min, 95/5 at 24.3 min, 95/5 at 32 min
AC$CHROMATOGRAPHY: FLOW_RATE 300 uL/min
AC$CHROMATOGRAPHY: RETENTION_TIME 11.716 min
MS$FOCUSED_ION: BASE_PEAK 303.2319
MS$FOCUSED_ION: PRECURSOR_M/Z 375.1721
MS$FOCUSED_ION: PRECURSOR_TYPE [M+H]+
MS$FOCUSED_ION: PRECURSOR_INTENSITY 9591165
MS$DATA_PROCESSING: RECALIBRATE loess on assigned fragments and MS1
MS$DATA_PROCESSING: REANALYZE Peaks with additional N2/O included
MS$DATA_PROCESSING: WHOLE RMassBank 3.11.2
PK$SPLASH: splash10-004i-0009000000-16e828152b47c1df3e0c
PK$ANNOTATION: m/z tentative_formula formula_count mass error(ppm)
  219.0563 C13H12ClO+ 1 219.0571 -3.88
  279.1732 C20H23O+ 2 279.1743 -4.21
  321.1837 C22H25O2+ 1 321.1849 -3.84
  357.1604 C22H26ClO2+ 1 357.1616 -3.25
  375.1708 C22H28ClO3+ 1 375.1721 -3.61
PK$NUM_PEAK: 5
PK$PEAK: m/z int. rel.int.
  219.0563 2508.1 5
  279.1732 2077.1 4
  321.1837 17268.9 37
  357.1604 11355.2 24
  375.1708 462727.7 999
//
