ACCESSION: MSBNK-UFZ-UF416803
RECORD_TITLE: Epiandrosterone; LC-ESI-ITFT; MS2; CE: 35; R=15000; [M+H]+
DATE: 2017.01.05
AUTHORS: Schulze T, Krauss M, Department of Effect-Directed Analysis, Helmholtz Centre for Environmental Research - UFZ GmbH, Leipzig, Germany
LICENSE: CC BY
COPYRIGHT: Copyright (C) 2017
COMMENT: CONFIDENCE standard compound
COMMENT: INTERNAL_ID 4168
CH$NAME: Epiandrosterone
CH$NAME: (3S,5S,8R,9S,10S,13S,14S)-3-Hydroxy-10,13-dimethyl-1,2,3,4,5,6,7,8,9,11,12,14,15,16-tetradecahydrocyclopenta[a]phenanthren-17-one
CH$COMPOUND_CLASS: N/A; Environmental Standard
CH$FORMULA: C19H30O2
CH$EXACT_MASS: 290.2246
CH$SMILES: O=C2[C@]1(CC[C@H]3[C@H]([C@@H]1CC2)CC[C@H]4C[C@@H](O)CC[C@]34C)C
CH$IUPAC: InChI=1S/C19H30O2/c1-18-9-7-13(20)11-12(18)3-4-14-15-5-6-17(21)19(15,2)10-8-16(14)18/h12-16,20H,3-11H2,1-2H3/t12-,13-,14-,15-,16-,18-,19-/m0/s1
CH$LINK: CAS 481-29-8
CH$LINK: CHEBI CHEBI:541975
CH$LINK: KEGG C07635
CH$LINK: LIPIDMAPS LMST02020023
CH$LINK: PUBCHEM CID:441302
CH$LINK: INCHIKEY QGXBDMJGAMFCBF-LUJOEAJASA-N
CH$LINK: CHEMSPIDER 390065
CH$LINK: COMPTOX DTXSID20289698
AC$INSTRUMENT: LTQ Orbitrap XL Thermo Scientific
AC$INSTRUMENT_TYPE: LC-ESI-ITFT
AC$MASS_SPECTROMETRY: MS_TYPE MS2
AC$MASS_SPECTROMETRY: ION_MODE POSITIVE
AC$MASS_SPECTROMETRY: IONIZATION ESI
AC$MASS_SPECTROMETRY: FRAGMENTATION_MODE CID
AC$MASS_SPECTROMETRY: COLLISION_ENERGY 35 (nominal)
AC$MASS_SPECTROMETRY: RESOLUTION 15000
AC$CHROMATOGRAPHY: COLUMN_NAME Kinetex Core-Shell C18 2.6 um, 3.0 x 100 mm, Phenomenex
AC$CHROMATOGRAPHY: FLOW_GRADIENT 90/10 at 0 min, 80/20 at 3.2 min, 5/95 at 17.8 min, 5/95 at 37.8 min, 90/10 at 37.9 min, 90/10 at 47 min
AC$CHROMATOGRAPHY: FLOW_RATE 200 uL/min
AC$CHROMATOGRAPHY: RETENTION_TIME 26.467 min
AC$CHROMATOGRAPHY: SOLVENT A water with 0.1% formic acid
AC$CHROMATOGRAPHY: SOLVENT B methanol with 0.1% formic acid
MS$FOCUSED_ION: BASE_PEAK 315.2311
MS$FOCUSED_ION: PRECURSOR_M/Z 291.2319
MS$FOCUSED_ION: PRECURSOR_TYPE [M+H]+
MS$DATA_PROCESSING: RECALIBRATE loess on assigned fragments and MS1
MS$DATA_PROCESSING: REANALYZE Peaks with additional N2/O included
MS$DATA_PROCESSING: WHOLE RMassBank 2.2.1
PK$SPLASH: splash10-0002-0090000000-4c38277695c02158638b
PK$ANNOTATION: m/z tentative_formula formula_count mass error(ppm)
  245.0844 C17H11NO+ 1 245.0835 3.7
  249.1845 C16H25O2+ 1 249.1849 -1.55
  273.2208 C19H29O+ 1 273.2213 -1.63
PK$NUM_PEAK: 3
PK$PEAK: m/z int. rel.int.
  245.0844 7483.6 127
  249.1845 58774.2 999
  273.2208 9091.6 154
//
