ACCESSION: MSBNK-UFZ-WANA411425AF82PH
RECORD_TITLE: 4-Hydroxycoumarin; LC-ESI-ITFT; MS2; CE: 90%; R=15000; [M+H]+
DATE: 2023.08.13
AUTHORS: Tobias Schulze, Martin Krauss, Department of Effect-Directed Analysis, Helmholtz Centre for Environmental Research - UFZ, Leipzig, Germany
LICENSE: CC0
COPYRIGHT: Copyright (C) 2023
COMMENT: CONFIDENCE Reference Standard (Level 1)
CH$NAME: 4-Hydroxycoumarin
CH$NAME: 4-hydroxychromen-2-one
CH$COMPOUND_CLASS: N/A; Environmental Standard
CH$FORMULA: C9H6O3
CH$EXACT_MASS: 162.031694052
CH$SMILES: OC1=CC(=O)OC2=CC=CC=C12
CH$IUPAC: InChI=1S/C9H6O3/c10-7-5-9(11)12-8-4-2-1-3-6(7)8/h1-5,10H
CH$LINK: CAS 1076-38-6
CH$LINK: CHEBI CHEBI:40070
CH$LINK: KEGG C20414
CH$LINK: PUBCHEM CID:54682930
CH$LINK: INCHIKEY VXIXUWQIVKSKSA-UHFFFAOYSA-N
CH$LINK: CHEMSPIDER 10254753
CH$LINK: COMPTOX DTXSID8061472
AC$INSTRUMENT: LTQ Orbitrap XL Thermo Scientific
AC$INSTRUMENT_TYPE: LC-ESI-ITFT
AC$MASS_SPECTROMETRY: MS_TYPE MS2
AC$MASS_SPECTROMETRY: ION_MODE POSITIVE
AC$MASS_SPECTROMETRY: IONIZATION ESI
AC$MASS_SPECTROMETRY: FRAGMENTATION_MODE HCD
AC$MASS_SPECTROMETRY: COLLISION_ENERGY 90 % (nominal)
AC$MASS_SPECTROMETRY: RESOLUTION 15000
AC$MASS_SPECTROMETRY: MASS_RANGE_M/Z 50-175
AC$CHROMATOGRAPHY: COLUMN_NAME Kinetex Evo C18 2.6 um 50 x 2.1 mm
AC$CHROMATOGRAPHY: FLOW_GRADIENT 95/5 at 0 min, 95/5 at 1 min, 0/100 at 13 min, 0/100 at 24 min, 95/5 at 24.3 min, 95/5 at 32 min
AC$CHROMATOGRAPHY: FLOW_RATE 300 uL/min
AC$CHROMATOGRAPHY: RETENTION_TIME 7.999 min
MS$FOCUSED_ION: BASE_PEAK 163.039
MS$FOCUSED_ION: PRECURSOR_M/Z 163.039
MS$FOCUSED_ION: PRECURSOR_TYPE [M+H]+
MS$FOCUSED_ION: PRECURSOR_INTENSITY 13408374
MS$DATA_PROCESSING: RECALIBRATE loess on assigned fragments and MS1
MS$DATA_PROCESSING: REANALYZE Peaks with additional N2/O included
MS$DATA_PROCESSING: WHOLE RMassBank 3.11.2
PK$SPLASH: splash10-00di-5900000000-1a173727378579365892
PK$ANNOTATION: m/z tentative_formula formula_count mass error(ppm)
  77.0383 C6H5+ 1 77.0386 -4.08
  79.0539 C6H7+ 1 79.0542 -3.83
  89.0383 C7H5+ 1 89.0386 -2.96
  91.0539 C7H7+ 1 91.0542 -3.25
  93.0332 C6H5O+ 1 93.0335 -3.27
  95.0488 C6H7O+ 1 95.0491 -3.3
  101.0381 C8H5+ 1 101.0386 -4.45
  107.0489 C7H7O+ 1 107.0491 -2.57
  111.0437 C6H7O2+ 1 111.0441 -3.02
  119.0489 C8H7O+ 1 119.0491 -2.37
  121.028 C7H5O2+ 1 121.0284 -2.96
  139.0386 C7H7O3+ 1 139.039 -2.85
  145.0279 C9H5O2+ 1 145.0284 -3.47
  163.0385 C9H7O3+ 1 163.039 -2.83
PK$NUM_PEAK: 14
PK$PEAK: m/z int. rel.int.
  77.0383 89640.6 54
  79.0539 85458.6 52
  89.0383 21862.1 13
  91.0539 569180.7 346
  93.0332 196325.4 119
  95.0488 256780.4 156
  101.0381 2304.7 1
  107.0489 28310.1 17
  111.0437 33015.6 20
  119.0489 35553.4 21
  121.028 1639317 999
  139.0386 9509.7 5
  145.0279 11522.9 7
  163.0385 259107.4 157
//
