ACCESSION: MSBNK-UFZ-WANA098601AD6CPH
RECORD_TITLE: (Benzothiazol-2-ylthio)methyl thiocyanate; LC-ESI-ITFT; MS2; CE: 10%; R=15000; [M+H]+
DATE: 2023.08.12
AUTHORS: Tobias Schulze, Martin Krauss, Department of Effect-Directed Analysis, Helmholtz Centre for Environmental Research - UFZ, Leipzig, Germany
LICENSE: CC0
COPYRIGHT: Copyright (C) 2023
COMMENT: CONFIDENCE Reference Standard (Level 1)
CH$NAME: (Benzothiazol-2-ylthio)methyl thiocyanate
CH$NAME: 2-(Thiocyanomethylthio)benzothiazole
CH$NAME: 1,3-benzothiazol-2-ylsulfanylmethyl thiocyanate
CH$COMPOUND_CLASS: N/A; Environmental Standard
CH$FORMULA: C9H6N2S3
CH$EXACT_MASS: 237.969311192
CH$SMILES: N#CSCSC1=NC2=CC=CC=C2S1
CH$IUPAC: InChI=1S/C9H6N2S3/c10-5-12-6-13-9-11-7-3-1-2-4-8(7)14-9/h1-4H,6H2
CH$LINK: CAS 21564-17-0
CH$LINK: PUBCHEM CID:30692
CH$LINK: INCHIKEY TUBQDCKAWGHZPF-UHFFFAOYSA-N
CH$LINK: CHEMSPIDER 28480
CH$LINK: COMPTOX DTXSID6032647
AC$INSTRUMENT: LTQ Orbitrap XL Thermo Scientific
AC$INSTRUMENT_TYPE: LC-ESI-ITFT
AC$MASS_SPECTROMETRY: MS_TYPE MS2
AC$MASS_SPECTROMETRY: ION_MODE POSITIVE
AC$MASS_SPECTROMETRY: IONIZATION ESI
AC$MASS_SPECTROMETRY: FRAGMENTATION_MODE HCD
AC$MASS_SPECTROMETRY: COLLISION_ENERGY 10 % (nominal)
AC$MASS_SPECTROMETRY: RESOLUTION 15000
AC$MASS_SPECTROMETRY: MASS_RANGE_M/Z 50-250
AC$CHROMATOGRAPHY: COLUMN_NAME Kinetex Evo C18 2.6 um 50 x 2.1 mm
AC$CHROMATOGRAPHY: FLOW_GRADIENT 95/5 at 0 min, 95/5 at 1 min, 0/100 at 13 min, 0/100 at 24 min, 95/5 at 24.3 min, 95/5 at 32 min
AC$CHROMATOGRAPHY: FLOW_RATE 300 uL/min
AC$CHROMATOGRAPHY: RETENTION_TIME 10.819 min
MS$FOCUSED_ION: BASE_PEAK 238.9775
MS$FOCUSED_ION: PRECURSOR_M/Z 238.9766
MS$FOCUSED_ION: PRECURSOR_TYPE [M+H]+
MS$FOCUSED_ION: PRECURSOR_INTENSITY 2591449.75
MS$DATA_PROCESSING: RECALIBRATE loess on assigned fragments and MS1
MS$DATA_PROCESSING: REANALYZE Peaks with additional N2/O included
MS$DATA_PROCESSING: WHOLE RMassBank 3.11.2
PK$SPLASH: splash10-004i-0950000000-4108d8846c3d63c174ad
PK$ANNOTATION: m/z tentative_formula formula_count mass error(ppm)
  167.9943 C7H6NS2+ 1 167.9936 3.93
  179.9943 C8H6NS2+ 1 179.9936 3.75
  211.9664 C8H6NS3+ 1 211.9657 3.26
  238.9774 C9H7N2S3+ 1 238.9766 3.45
PK$NUM_PEAK: 4
PK$PEAK: m/z int. rel.int.
  167.9943 1251.1 6
  179.9943 207026.5 999
  211.9664 34527.2 166
  238.9774 96357.2 464
//
