ACCESSION: MSBNK-UFZ-WANA408711C9CFPH
RECORD_TITLE: Metazachlor BH 479-9; LC-ESI-ITFT; MS2; CE: 40%; R=15000; [M+H]+
DATE: 2023.08.12
AUTHORS: Tobias Schulze, Martin Krauss, Department of Effect-Directed Analysis, Helmholtz Centre for Environmental Research - UFZ, Leipzig, Germany
LICENSE: CC0
COPYRIGHT: Copyright (C) 2023
COMMENT: CONFIDENCE Reference Standard (Level 1)
CH$NAME: Metazachlor BH 479-9
CH$NAME: 2-[2-[2,6-dimethyl-N-(pyrazol-1-ylmethyl)anilino]-2-oxoethyl]sulfinylacetic acid
CH$COMPOUND_CLASS: N/A; Environmental Standard
CH$FORMULA: C16H19N3O4S
CH$EXACT_MASS: 349.109627088
CH$SMILES: CC1=CC=CC(C)=C1N(CN1C=CC=N1)C(=O)CS(=O)CC(O)=O
CH$IUPAC: InChI=1S/C16H19N3O4S/c1-12-5-3-6-13(2)16(12)19(11-18-8-4-7-17-18)14(20)9-24(23)10-15(21)22/h3-8H,9-11H2,1-2H3,(H,21,22)
CH$LINK: PUBCHEM CID:139291839
CH$LINK: INCHIKEY DYCHUHSHQIYFAI-UHFFFAOYSA-N
CH$LINK: CHEMSPIDER 71047190
CH$LINK: COMPTOX DTXSID501017811
AC$INSTRUMENT: LTQ Orbitrap XL Thermo Scientific
AC$INSTRUMENT_TYPE: LC-ESI-ITFT
AC$MASS_SPECTROMETRY: MS_TYPE MS2
AC$MASS_SPECTROMETRY: ION_MODE POSITIVE
AC$MASS_SPECTROMETRY: IONIZATION ESI
AC$MASS_SPECTROMETRY: FRAGMENTATION_MODE HCD
AC$MASS_SPECTROMETRY: COLLISION_ENERGY 40 % (nominal)
AC$MASS_SPECTROMETRY: RESOLUTION 15000
AC$MASS_SPECTROMETRY: MASS_RANGE_M/Z 50-365
AC$CHROMATOGRAPHY: COLUMN_NAME Kinetex Evo C18 2.6 um 50 x 2.1 mm
AC$CHROMATOGRAPHY: FLOW_GRADIENT 95/5 at 0 min, 95/5 at 1 min, 0/100 at 13 min, 0/100 at 24 min, 95/5 at 24.3 min, 95/5 at 32 min
AC$CHROMATOGRAPHY: FLOW_RATE 300 uL/min
AC$CHROMATOGRAPHY: RETENTION_TIME 8.253 min
MS$FOCUSED_ION: BASE_PEAK 116.9863
MS$FOCUSED_ION: PRECURSOR_M/Z 350.1169
MS$FOCUSED_ION: PRECURSOR_TYPE [M+H]+
MS$FOCUSED_ION: PRECURSOR_INTENSITY 1236185.75
MS$DATA_PROCESSING: RECALIBRATE loess on assigned fragments and MS1
MS$DATA_PROCESSING: REANALYZE Peaks with additional N2/O included
MS$DATA_PROCESSING: WHOLE RMassBank 3.11.2
PK$SPLASH: splash10-001i-0900000000-a14e577a800f1716386f
PK$ANNOTATION: m/z tentative_formula formula_count mass error(ppm)
  130.9804 C4H3O3S+ 1 130.9797 4.66
  133.0894 C3H17O3S+ 1 133.0893 0.93
  134.097 C3H18O3S+ 2 134.0971 -0.67
  148.9909 C4H5O4S+ 1 148.9903 4.3
  160.0765 C4H16O4S+ 2 160.0764 0.59
  168.9989 C10H3NS+ 1 168.9981 4.65
PK$NUM_PEAK: 6
PK$PEAK: m/z int. rel.int.
  130.9804 10952.2 14
  133.0894 3393.7 4
  134.097 766275.5 999
  148.9909 42414.4 55
  160.0765 1730.4 2
  168.9989 1181.6 1
//
