ACCESSION: MSBNK-UFZ-WANA2729155BE0PH
RECORD_TITLE: Labetalol; LC-ESI-ITFT; MS2; CE: 60%; R=15000; [M+H]+
DATE: 2023.08.12
AUTHORS: Tobias Schulze, Martin Krauss, Department of Effect-Directed Analysis, Helmholtz Centre for Environmental Research - UFZ, Leipzig, Germany
LICENSE: CC0
COPYRIGHT: Copyright (C) 2023
COMMENT: CONFIDENCE Reference Standard (Level 1)
CH$NAME: Labetalol
CH$NAME: 2-hydroxy-5-[1-hydroxy-2-(4-phenylbutan-2-ylamino)ethyl]benzamide
CH$COMPOUND_CLASS: N/A; Environmental Standard
CH$FORMULA: C19H24N2O3
CH$EXACT_MASS: 328.178692628
CH$SMILES: CC(CCC1=CC=CC=C1)NCC(O)C1=CC(C(N)=O)=C(O)C=C1
CH$IUPAC: InChI=1S/C19H24N2O3/c1-13(7-8-14-5-3-2-4-6-14)21-12-18(23)15-9-10-17(22)16(11-15)19(20)24/h2-6,9-11,13,18,21-23H,7-8,12H2,1H3,(H2,20,24)
CH$LINK: CAS 83167-24-2
CH$LINK: CHEBI CHEBI:6343
CH$LINK: KEGG D08106
CH$LINK: PUBCHEM CID:3869
CH$LINK: INCHIKEY SGUAFYQXFOLMHL-UHFFFAOYSA-N
CH$LINK: CHEMSPIDER 3734
CH$LINK: COMPTOX DTXSID2023191
AC$INSTRUMENT: LTQ Orbitrap XL Thermo Scientific
AC$INSTRUMENT_TYPE: LC-ESI-ITFT
AC$MASS_SPECTROMETRY: MS_TYPE MS2
AC$MASS_SPECTROMETRY: ION_MODE POSITIVE
AC$MASS_SPECTROMETRY: IONIZATION ESI
AC$MASS_SPECTROMETRY: FRAGMENTATION_MODE HCD
AC$MASS_SPECTROMETRY: COLLISION_ENERGY 60 % (nominal)
AC$MASS_SPECTROMETRY: RESOLUTION 15000
AC$MASS_SPECTROMETRY: MASS_RANGE_M/Z 50-340
AC$CHROMATOGRAPHY: COLUMN_NAME Kinetex Evo C18 2.6 um 50 x 2.1 mm
AC$CHROMATOGRAPHY: FLOW_GRADIENT 95/5 at 0 min, 95/5 at 1 min, 0/100 at 13 min, 0/100 at 24 min, 95/5 at 24.3 min, 95/5 at 32 min
AC$CHROMATOGRAPHY: FLOW_RATE 300 uL/min
AC$CHROMATOGRAPHY: RETENTION_TIME 7.162 min
MS$FOCUSED_ION: BASE_PEAK 329.187
MS$FOCUSED_ION: PRECURSOR_M/Z 329.186
MS$FOCUSED_ION: PRECURSOR_TYPE [M+H]+
MS$FOCUSED_ION: PRECURSOR_INTENSITY 43695192
MS$DATA_PROCESSING: RECALIBRATE loess on assigned fragments and MS1
MS$DATA_PROCESSING: REANALYZE Peaks with additional N2/O included
MS$DATA_PROCESSING: WHOLE RMassBank 3.11.2
PK$SPLASH: splash10-03dl-5900000000-4d22c1ec3e3c9b00ea56
PK$ANNOTATION: m/z tentative_formula formula_count mass error(ppm)
  91.0543 C7H7+ 1 91.0542 0.28
  105.0699 C8H9+ 1 105.0699 0.66
  106.0652 C7H8N+ 1 106.0651 0.46
  107.0492 C7H7O+ 1 107.0491 0.51
  119.0492 C8H7O+ 1 119.0491 0.38
  120.0444 C7H6NO+ 1 120.0444 0.08
  133.1016 C10H13+ 1 133.1012 3.01
  134.0601 C8H8NO+ 1 134.06 0.45
  135.0442 C8H7O2+ 1 135.0441 0.72
  136.0758 C8H10NO+ 1 136.0757 0.67
  144.0446 C9H6NO+ 1 144.0444 1.11
  145.0288 C9H5O2+ 1 145.0284 2.93
  147.0441 C9H7O2+ 1 147.0441 0.29
  162.055 C9H8NO2+ 1 162.055 0.56
  164.0706 C9H10NO2+ 1 164.0706 -0.1
  165.0546 C9H9O3+ 1 165.0546 -0.16
  179.0814 C9H11N2O2+ 1 179.0815 -0.8
  180.0656 C9H10NO3+ 1 180.0655 0.52
  190.0864 C11H12NO2+ 1 190.0863 0.79
  207.1135 C11H15N2O2+ 1 207.1128 3.43
  294.1488 C19H20NO2+ 1 294.1489 -0.21
PK$NUM_PEAK: 21
PK$PEAK: m/z int. rel.int.
  91.0543 1264585.1 870
  105.0699 3780.6 2
  106.0652 37471.1 25
  107.0492 22642.4 15
  119.0492 13930.8 9
  120.0444 15933 10
  133.1016 3926.3 2
  134.0601 121086.5 83
  135.0442 15537.7 10
  136.0758 11552.4 7
  144.0446 24736.3 17
  145.0288 6067.1 4
  147.0441 69574.8 47
  162.055 1450569.9 999
  164.0706 48409.4 33
  165.0546 66991 46
  179.0814 17413.8 11
  180.0656 25466.4 17
  190.0864 48933.8 33
  207.1135 5996.7 4
  294.1488 17583.8 12
//
