ACCESSION: MSBNK-UFZ-UF403104
RECORD_TITLE: Linuron; LC-ESI-ITFT; MS2; CE: 55; R=15000; [M+H]+
DATE: 2017.01.05
AUTHORS: Schulze T, Krauss M, Department of Effect-Directed Analysis, Helmholtz Centre for Environmental Research - UFZ GmbH, Leipzig, Germany
LICENSE: CC BY
COPYRIGHT: Copyright (C) 2017
COMMENT: CONFIDENCE standard compound
COMMENT: INTERNAL_ID 4031
CH$NAME: Linuron
CH$NAME: 3-(3,4-Dichlorophenyl)-1-methoxy-1-methylurea
CH$COMPOUND_CLASS: N/A; Environmental Standard
CH$FORMULA: C9H10Cl2N2O2
CH$EXACT_MASS: 248.0119
CH$SMILES: CON(C)C(=O)NC1=CC=C(Cl)C(Cl)=C1
CH$IUPAC: InChI=1S/C9H10Cl2N2O2/c1-13(15-2)9(14)12-6-3-4-7(10)8(11)5-6/h3-5H,1-2H3,(H,12,14)
CH$LINK: CAS 330-55-2
CH$LINK: CHEBI CHEBI:6482
CH$LINK: KEGG C11007
CH$LINK: PUBCHEM CID:9502
CH$LINK: INCHIKEY XKJMBINCVNINCA-UHFFFAOYSA-N
CH$LINK: CHEMSPIDER 9130
CH$LINK: COMPTOX DTXSID2024163
AC$INSTRUMENT: LTQ Orbitrap XL Thermo Scientific
AC$INSTRUMENT_TYPE: LC-ESI-ITFT
AC$MASS_SPECTROMETRY: MS_TYPE MS2
AC$MASS_SPECTROMETRY: ION_MODE POSITIVE
AC$MASS_SPECTROMETRY: IONIZATION ESI
AC$MASS_SPECTROMETRY: FRAGMENTATION_MODE CID
AC$MASS_SPECTROMETRY: COLLISION_ENERGY 55 (nominal)
AC$MASS_SPECTROMETRY: RESOLUTION 15000
AC$CHROMATOGRAPHY: COLUMN_NAME Kinetex Core-Shell C18 2.6 um, 3.0 x 100 mm, Phenomenex
AC$CHROMATOGRAPHY: FLOW_GRADIENT 90/10 at 0 min, 80/20 at 3.2 min, 5/95 at 17.8 min, 5/95 at 37.8 min, 90/10 at 37.9 min, 90/10 at 47 min
AC$CHROMATOGRAPHY: FLOW_RATE 200 uL/min
AC$CHROMATOGRAPHY: RETENTION_TIME 24.574 min
AC$CHROMATOGRAPHY: SOLVENT A water with 0.1% formic acid
AC$CHROMATOGRAPHY: SOLVENT B methanol with 0.1% formic acid
MS$FOCUSED_ION: BASE_PEAK 226.0894
MS$FOCUSED_ION: PRECURSOR_M/Z 249.0192
MS$FOCUSED_ION: PRECURSOR_TYPE [M+H]+
MS$DATA_PROCESSING: RECALIBRATE loess on assigned fragments and MS1
MS$DATA_PROCESSING: REANALYZE Peaks with additional N2/O included
MS$DATA_PROCESSING: WHOLE RMassBank 2.2.1
PK$SPLASH: splash10-053r-0900000000-58defb2ae9c51a83691e
PK$ANNOTATION: m/z tentative_formula formula_count mass error(ppm)
  60.0441 C2H6NO+ 1 60.0444 -4.24
  159.9715 C6H4Cl2N+ 2 159.9715 -0.31
  160.9792 C6H5Cl2N+ 2 160.9794 -0.92
  182.024 C8H7ClN2O+ 1 182.0241 -0.52
  187.9665 C7H4Cl2NO+ 1 187.9664 0.24
  216.9933 C8H7Cl2N2O+ 1 216.993 1.36
  218.0007 C8H8Cl2N2O+ 1 218.0008 -0.34
PK$NUM_PEAK: 7
PK$PEAK: m/z int. rel.int.
  60.0441 3485.5 15
  159.9715 124334.6 568
  160.9792 3147.5 14
  182.024 218623.5 999
  187.9665 26358.2 120
  216.9933 3212.2 14
  218.0007 5848.1 26
//
