ACCESSION: MSBNK-UFZ-WANA0294237762PM
RECORD_TITLE: Benzyldimethyldodecylammonium; LC-ESI-ITFT; MS2; CE: 80%; R=15000; [M]+
DATE: 2023.08.13
AUTHORS: Tobias Schulze, Martin Krauss, Department of Effect-Directed Analysis, Helmholtz Centre for Environmental Research - UFZ, Leipzig, Germany
LICENSE: CC0
COPYRIGHT: Copyright (C) 2023
COMMENT: CONFIDENCE Reference Standard (Level 1)
CH$NAME: Benzyldimethyldodecylammonium
CH$NAME: Benzododecinium
CH$NAME: benzyl-dodecyl-dimethylazanium
CH$COMPOUND_CLASS: N/A; Environmental Standard
CH$FORMULA: C21H38N
CH$EXACT_MASS: 304.299876636091
CH$SMILES: CCCCCCCCCCCC[N+](C)(C)CC1=CC=CC=C1
CH$IUPAC: InChI=1S/C21H38N/c1-4-5-6-7-8-9-10-11-12-16-19-22(2,3)20-21-17-14-13-15-18-21/h13-15,17-18H,4-12,16,19-20H2,1-3H3/q+1
CH$LINK: CAS 5459-84-7
CH$LINK: CHEBI 135611
CH$LINK: PUBCHEM CID:8754
CH$LINK: INCHIKEY CYDRXTMLKJDRQH-UHFFFAOYSA-N
CH$LINK: CHEMSPIDER 8424
CH$LINK: COMPTOX DTXSID60872947
AC$INSTRUMENT: LTQ Orbitrap XL Thermo Scientific
AC$INSTRUMENT_TYPE: LC-ESI-ITFT
AC$MASS_SPECTROMETRY: MS_TYPE MS2
AC$MASS_SPECTROMETRY: ION_MODE POSITIVE
AC$MASS_SPECTROMETRY: IONIZATION ESI
AC$MASS_SPECTROMETRY: FRAGMENTATION_MODE HCD
AC$MASS_SPECTROMETRY: COLLISION_ENERGY 80 % (nominal)
AC$MASS_SPECTROMETRY: RESOLUTION 15000
AC$MASS_SPECTROMETRY: MASS_RANGE_M/Z 50-315
AC$CHROMATOGRAPHY: COLUMN_NAME Kinetex Evo C18 2.6 um 50 x 2.1 mm
AC$CHROMATOGRAPHY: FLOW_GRADIENT 95/5 at 0 min, 95/5 at 1 min, 0/100 at 13 min, 0/100 at 24 min, 95/5 at 24.3 min, 95/5 at 32 min
AC$CHROMATOGRAPHY: FLOW_RATE 300 uL/min
AC$CHROMATOGRAPHY: RETENTION_TIME 11.189 min
MS$FOCUSED_ION: BASE_PEAK 304.3003
MS$FOCUSED_ION: PRECURSOR_M/Z 304.2999
MS$FOCUSED_ION: PRECURSOR_TYPE [M]+
MS$FOCUSED_ION: PRECURSOR_INTENSITY 57930064
MS$DATA_PROCESSING: RECALIBRATE loess on assigned fragments and MS1
MS$DATA_PROCESSING: REANALYZE Peaks with additional N2/O included
MS$DATA_PROCESSING: WHOLE RMassBank 3.11.2
PK$SPLASH: splash10-0006-9000000000-c43f6400b43da08a609d
PK$ANNOTATION: m/z tentative_formula formula_count mass error(ppm)
  57.0697 C4H9+ 1 57.0699 -3.57
  58.0649 C3H8N+ 1 58.0651 -3.79
  65.0385 C5H5+ 1 65.0386 -1.72
  69.0698 C5H9+ 1 69.0699 -1.39
  71.0729 C4H9N+ 1 71.073 -0.95
  71.0855 C5H11+ 1 71.0855 -0.67
  72.0807 C4H10N+ 1 72.0808 -1.39
  91.0542 C7H7+ 1 91.0542 -0.01
  212.2371 C14H30N+ 1 212.2373 -0.85
PK$NUM_PEAK: 9
PK$PEAK: m/z int. rel.int.
  57.0697 79369 10
  58.0649 1574615.8 208
  65.0385 26539.5 3
  69.0698 13017.7 1
  71.0729 20898.2 2
  71.0855 28566.4 3
  72.0807 45745.6 6
  91.0542 7539261 999
  212.2371 289245.1 38
//
