ACCESSION: MSBNK-UFZ-WANA240801AD6CPH
RECORD_TITLE: Ebastin; LC-ESI-ITFT; MS2; CE: 10%; R=15000; [M+H]+
DATE: 2023.08.12
AUTHORS: Tobias Schulze, Martin Krauss, Department of Effect-Directed Analysis, Helmholtz Centre for Environmental Research - UFZ, Leipzig, Germany
LICENSE: CC0
COPYRIGHT: Copyright (C) 2023
COMMENT: CONFIDENCE Reference Standard (Level 1)
CH$NAME: Ebastin
CH$NAME: Ebastine
CH$NAME: 4-(4-benzhydryloxypiperidin-1-yl)-1-(4-tert-butylphenyl)butan-1-one
CH$COMPOUND_CLASS: N/A; Environmental Standard
CH$FORMULA: C32H39NO2
CH$EXACT_MASS: 469.298079488
CH$SMILES: CC(C)(C)C1=CC=C(C=C1)C(=O)CCCN1CCC(CC1)OC(C1=CC=CC=C1)C1=CC=CC=C1
CH$IUPAC: InChI=1S/C32H39NO2/c1-32(2,3)28-18-16-25(17-19-28)30(34)15-10-22-33-23-20-29(21-24-33)35-31(26-11-6-4-7-12-26)27-13-8-5-9-14-27/h4-9,11-14,16-19,29,31H,10,15,20-24H2,1-3H3
CH$LINK: CAS 90729-43-4
CH$LINK: CHEBI CHEBI:31528
CH$LINK: KEGG D01478
CH$LINK: PUBCHEM CID:3191
CH$LINK: INCHIKEY MJJALKDDGIKVBE-UHFFFAOYSA-N
CH$LINK: CHEMSPIDER 3079
CH$LINK: COMPTOX DTXSID6046472
AC$INSTRUMENT: LTQ Orbitrap XL Thermo Scientific
AC$INSTRUMENT_TYPE: LC-ESI-ITFT
AC$MASS_SPECTROMETRY: MS_TYPE MS2
AC$MASS_SPECTROMETRY: ION_MODE POSITIVE
AC$MASS_SPECTROMETRY: IONIZATION ESI
AC$MASS_SPECTROMETRY: FRAGMENTATION_MODE HCD
AC$MASS_SPECTROMETRY: COLLISION_ENERGY 10 % (nominal)
AC$MASS_SPECTROMETRY: RESOLUTION 15000
AC$MASS_SPECTROMETRY: MASS_RANGE_M/Z 50-485
AC$CHROMATOGRAPHY: COLUMN_NAME Kinetex Evo C18 2.6 um 50 x 2.1 mm
AC$CHROMATOGRAPHY: FLOW_GRADIENT 95/5 at 0 min, 95/5 at 1 min, 0/100 at 13 min, 0/100 at 24 min, 95/5 at 24.3 min, 95/5 at 32 min
AC$CHROMATOGRAPHY: FLOW_RATE 300 uL/min
AC$CHROMATOGRAPHY: RETENTION_TIME 11.349 min
MS$FOCUSED_ION: BASE_PEAK 470.3052
MS$FOCUSED_ION: PRECURSOR_M/Z 470.3054
MS$FOCUSED_ION: PRECURSOR_TYPE [M+H]+
MS$FOCUSED_ION: PRECURSOR_INTENSITY 12969034
MS$DATA_PROCESSING: RECALIBRATE loess on assigned fragments and MS1
MS$DATA_PROCESSING: REANALYZE Peaks with additional N2/O included
MS$DATA_PROCESSING: WHOLE RMassBank 3.11.2
PK$SPLASH: splash10-00di-0000900000-53e53862408d635ffee2
PK$ANNOTATION: m/z tentative_formula formula_count mass error(ppm)
  167.085 C13H11+ 1 167.0855 -3.2
  470.3035 C32H40NO2+ 1 470.3054 -4.02
PK$NUM_PEAK: 2
PK$PEAK: m/z int. rel.int.
  167.085 6233.9 15
  470.3035 411357.1 999
//
