ACCESSION: MSBNK-UFZ-WANA019501AD6CPH
RECORD_TITLE: 2-(2-(Chlorophenyl)amino)benzaldehyde; LC-ESI-ITFT; MS2; CE: 10%; R=15000; [M+H]+
DATE: 2023.08.12
AUTHORS: Tobias Schulze, Martin Krauss, Department of Effect-Directed Analysis, Helmholtz Centre for Environmental Research - UFZ, Leipzig, Germany
LICENSE: CC0
COPYRIGHT: Copyright (C) 2023
COMMENT: CONFIDENCE Reference Standard (Level 1)
CH$NAME: 2-(2-(Chlorophenyl)amino)benzaldehyde
CH$NAME: 2-((2-Chlorophenyl)amino)benzaldehyde
CH$NAME: 2-(2-chloroanilino)benzaldehyde
CH$COMPOUND_CLASS: N/A; Environmental Standard
CH$FORMULA: C13H10ClNO
CH$EXACT_MASS: 231.04509162
CH$SMILES: ClC1=CC=CC=C1NC1=C(C=O)C=CC=C1
CH$IUPAC: InChI=1S/C13H10ClNO/c14-11-6-2-4-8-13(11)15-12-7-3-1-5-10(12)9-16/h1-9,15H
CH$LINK: CAS 71758-44-6
CH$LINK: PUBCHEM CID:53423421
CH$LINK: INCHIKEY DAAHPDZFLSFYPJ-UHFFFAOYSA-N
CH$LINK: CHEMSPIDER 26001359
CH$LINK: COMPTOX DTXSID20698322
AC$INSTRUMENT: LTQ Orbitrap XL Thermo Scientific
AC$INSTRUMENT_TYPE: LC-ESI-ITFT
AC$MASS_SPECTROMETRY: MS_TYPE MS2
AC$MASS_SPECTROMETRY: ION_MODE POSITIVE
AC$MASS_SPECTROMETRY: IONIZATION ESI
AC$MASS_SPECTROMETRY: FRAGMENTATION_MODE HCD
AC$MASS_SPECTROMETRY: COLLISION_ENERGY 10 % (nominal)
AC$MASS_SPECTROMETRY: RESOLUTION 15000
AC$MASS_SPECTROMETRY: MASS_RANGE_M/Z 50-245
AC$CHROMATOGRAPHY: COLUMN_NAME Kinetex Evo C18 2.6 um 50 x 2.1 mm
AC$CHROMATOGRAPHY: FLOW_GRADIENT 95/5 at 0 min, 95/5 at 1 min, 0/100 at 13 min, 0/100 at 24 min, 95/5 at 24.3 min, 95/5 at 32 min
AC$CHROMATOGRAPHY: FLOW_RATE 300 uL/min
AC$CHROMATOGRAPHY: RETENTION_TIME 12.523 min
MS$FOCUSED_ION: BASE_PEAK 116.9862
MS$FOCUSED_ION: PRECURSOR_M/Z 232.0524
MS$FOCUSED_ION: PRECURSOR_TYPE [M+H]+
MS$FOCUSED_ION: PRECURSOR_INTENSITY 1714619
MS$DATA_PROCESSING: RECALIBRATE loess on assigned fragments and MS1
MS$DATA_PROCESSING: REANALYZE Peaks with additional N2/O included
MS$DATA_PROCESSING: WHOLE RMassBank 3.11.2
PK$SPLASH: splash10-01q9-0090000000-3b162ff1ffef7749ba42
PK$ANNOTATION: m/z tentative_formula formula_count mass error(ppm)
  214.0425 C13H9ClN+ 1 214.0418 3.41
  232.0531 C13H11ClNO+ 1 232.0524 3.32
PK$NUM_PEAK: 2
PK$PEAK: m/z int. rel.int.
  214.0425 103561.9 684
  232.0531 151115.8 999
//
