ACCESSION: MSBNK-UFZ-WANA0267213166PH
RECORD_TITLE: N-Phenyl-1-naphthylamine; LC-ESI-ITFT; MS2; CE: 70%; R=15000; [M+H]+
DATE: 2023.08.13
AUTHORS: Tobias Schulze, Martin Krauss, Department of Effect-Directed Analysis, Helmholtz Centre for Environmental Research - UFZ, Leipzig, Germany
LICENSE: CC0
COPYRIGHT: Copyright (C) 2023
COMMENT: CONFIDENCE Reference Standard (Level 1)
CH$NAME: N-Phenyl-1-naphthylamine
CH$NAME: N-phenylnaphthalen-1-amine
CH$COMPOUND_CLASS: N/A; Environmental Standard
CH$FORMULA: C16H13N
CH$EXACT_MASS: 219.104799416
CH$SMILES: N(C1=CC=CC=C1)C1=CC=CC2=C1C=CC=C2
CH$IUPAC: InChI=1S/C16H13N/c1-2-9-14(10-3-1)17-16-12-6-8-13-7-4-5-11-15(13)16/h1-12,17H
CH$LINK: CAS 90-30-2
CH$LINK: CHEBI CHEBI:34876
CH$LINK: KEGG C14405
CH$LINK: PUBCHEM CID:7013
CH$LINK: INCHIKEY XQVWYOYUZDUNRW-UHFFFAOYSA-N
CH$LINK: CHEMSPIDER 6746
CH$LINK: COMPTOX DTXSID2025892
AC$INSTRUMENT: LTQ Orbitrap XL Thermo Scientific
AC$INSTRUMENT_TYPE: LC-ESI-ITFT
AC$MASS_SPECTROMETRY: MS_TYPE MS2
AC$MASS_SPECTROMETRY: ION_MODE POSITIVE
AC$MASS_SPECTROMETRY: IONIZATION ESI
AC$MASS_SPECTROMETRY: FRAGMENTATION_MODE HCD
AC$MASS_SPECTROMETRY: COLLISION_ENERGY 70 % (nominal)
AC$MASS_SPECTROMETRY: RESOLUTION 15000
AC$MASS_SPECTROMETRY: MASS_RANGE_M/Z 50-235
AC$CHROMATOGRAPHY: COLUMN_NAME Kinetex Evo C18 2.6 um 50 x 2.1 mm
AC$CHROMATOGRAPHY: FLOW_GRADIENT 95/5 at 0 min, 95/5 at 1 min, 0/100 at 13 min, 0/100 at 24 min, 95/5 at 24.3 min, 95/5 at 32 min
AC$CHROMATOGRAPHY: FLOW_RATE 300 uL/min
AC$CHROMATOGRAPHY: RETENTION_TIME 12.695 min
MS$FOCUSED_ION: BASE_PEAK 220.1122
MS$FOCUSED_ION: PRECURSOR_M/Z 220.1121
MS$FOCUSED_ION: PRECURSOR_TYPE [M+H]+
MS$FOCUSED_ION: PRECURSOR_INTENSITY 25983212
MS$DATA_PROCESSING: RECALIBRATE loess on assigned fragments and MS1
MS$DATA_PROCESSING: REANALYZE Peaks with additional N2/O included
MS$DATA_PROCESSING: WHOLE RMassBank 3.11.2
PK$SPLASH: splash10-0006-1910000000-35ce8727b66d530863d5
PK$ANNOTATION: m/z tentative_formula formula_count mass error(ppm)
  65.0383 C5H5+ 1 65.0386 -4.67
  92.0493 C6H6N+ 1 92.0495 -1.87
  93.0571 C6H7N+ 1 93.0573 -2.26
  104.0493 C7H6N+ 1 104.0495 -2.03
  115.054 C9H7+ 1 115.0542 -1.66
  117.0696 C9H9+ 1 117.0699 -2.09
  128.0618 C10H8+ 1 128.0621 -1.64
  142.065 C10H8N+ 1 142.0651 -0.95
  143.0727 C10H9N+ 1 143.073 -2.01
  178.0774 C14H10+ 1 178.0777 -1.94
  193.1009 C15H13+ 1 193.1012 -1.33
  202.0774 C16H10+ 1 202.0777 -1.3
  203.0851 C16H11+ 1 203.0855 -1.96
  204.0803 C15H10N+ 1 204.0808 -2.15
  204.093 C16H12+ 1 204.0934 -1.72
  205.0883 C15H11N+ 1 205.0886 -1.24
  218.0964 C16H12N+ 1 218.0964 -0.1
  219.1046 C16H13N+ 1 219.1043 1.44
  220.1117 C16H14N+ 1 220.1121 -1.75
PK$NUM_PEAK: 19
PK$PEAK: m/z int. rel.int.
  65.0383 88464.9 9
  92.0493 1649054.1 182
  93.0571 596490.8 66
  104.0493 26453.2 2
  115.054 994551.6 110
  117.0696 13911.3 1
  128.0618 937429.2 103
  142.065 514205.5 56
  143.0727 9023850 999
  178.0774 56769.8 6
  193.1009 35370.1 3
  202.0774 173428.2 19
  203.0851 277155.2 30
  204.0803 115804.7 12
  204.093 29066.3 3
  205.0883 113973 12
  218.0964 77210 8
  219.1046 189296.4 20
  220.1117 1139095.2 126
//
