ACCESSION: MSBNK-UFZ-WANA216025AF82PH
RECORD_TITLE: Pioglitazone; LC-ESI-ITFT; MS2; CE: 90%; R=15000; [M+H]+
DATE: 2023.08.13
AUTHORS: Tobias Schulze, Martin Krauss, Department of Effect-Directed Analysis, Helmholtz Centre for Environmental Research - UFZ, Leipzig, Germany
LICENSE: CC0
COPYRIGHT: Copyright (C) 2023
COMMENT: CONFIDENCE Reference Standard (Level 1)
CH$NAME: Pioglitazone
CH$NAME: 5-[[4-[2-(5-ethylpyridin-2-yl)ethoxy]phenyl]methyl]-1,3-thiazolidine-2,4-dione
CH$COMPOUND_CLASS: N/A; Environmental Standard
CH$FORMULA: C19H20N2O3S
CH$EXACT_MASS: 356.1194635
CH$SMILES: CCC1=CN=C(CCOC2=CC=C(CC3SC(=O)NC3=O)C=C2)C=C1
CH$IUPAC: InChI=1S/C19H20N2O3S/c1-2-13-3-6-15(20-12-13)9-10-24-16-7-4-14(5-8-16)11-17-18(22)21-19(23)25-17/h3-8,12,17H,2,9-11H2,1H3,(H,21,22,23)
CH$LINK: CAS 111025-46-8
CH$LINK: CHEBI CHEBI:8228
CH$LINK: KEGG C07675
CH$LINK: PUBCHEM CID:4829
CH$LINK: INCHIKEY HYAFETHFCAUJAY-UHFFFAOYSA-N
CH$LINK: CHEMSPIDER 4663
CH$LINK: COMPTOX DTXSID3037129
AC$INSTRUMENT: LTQ Orbitrap XL Thermo Scientific
AC$INSTRUMENT_TYPE: LC-ESI-ITFT
AC$MASS_SPECTROMETRY: MS_TYPE MS2
AC$MASS_SPECTROMETRY: ION_MODE POSITIVE
AC$MASS_SPECTROMETRY: IONIZATION ESI
AC$MASS_SPECTROMETRY: FRAGMENTATION_MODE HCD
AC$MASS_SPECTROMETRY: COLLISION_ENERGY 90 % (nominal)
AC$MASS_SPECTROMETRY: RESOLUTION 15000
AC$MASS_SPECTROMETRY: MASS_RANGE_M/Z 50-370
AC$CHROMATOGRAPHY: COLUMN_NAME Kinetex Evo C18 2.6 um 50 x 2.1 mm
AC$CHROMATOGRAPHY: FLOW_GRADIENT 95/5 at 0 min, 95/5 at 1 min, 0/100 at 13 min, 0/100 at 24 min, 95/5 at 24.3 min, 95/5 at 32 min
AC$CHROMATOGRAPHY: FLOW_RATE 300 uL/min
AC$CHROMATOGRAPHY: RETENTION_TIME 8.019 min
MS$FOCUSED_ION: BASE_PEAK 357.1281
MS$FOCUSED_ION: PRECURSOR_M/Z 357.1267
MS$FOCUSED_ION: PRECURSOR_TYPE [M+H]+
MS$FOCUSED_ION: PRECURSOR_INTENSITY 9254415
MS$DATA_PROCESSING: RECALIBRATE loess on assigned fragments and MS1
MS$DATA_PROCESSING: REANALYZE Peaks with additional N2/O included
MS$DATA_PROCESSING: WHOLE RMassBank 3.11.2
PK$SPLASH: splash10-00lr-0900000000-b56ae75646cff5862e1b
PK$ANNOTATION: m/z tentative_formula formula_count mass error(ppm)
  79.0545 C6H7+ 1 79.0542 3.5
  91.0547 C7H7+ 1 91.0542 4.71
  93.0576 C6H7N+ 2 93.0573 3.06
  96.0446 C5H6NO+ 1 96.0444 2.08
  104.0499 C7H6N+ 2 104.0495 3.98
  106.0655 C7H8N+ 2 106.0651 3.97
  107.0734 C7H9N+ 2 107.073 4.36
  108.081 C7H10N+ 2 108.0808 2.48
  118.0657 C2H14O3S+ 2 118.0658 -1.31
  119.0734 C2H15O3S+ 2 119.0736 -1.62
  120.0812 C2H16O3S+ 2 120.0815 -1.93
  121.0891 C8H11N+ 2 121.0886 3.86
  124.0761 C7H10NO+ 1 124.0757 2.91
  132.081 C9H10N+ 2 132.0808 1.91
  134.097 C3H18O3S+ 2 134.0971 -1.1
  135.1047 C9H13N+ 2 135.1043 3.57
PK$NUM_PEAK: 16
PK$PEAK: m/z int. rel.int.
  79.0545 17144.8 44
  91.0547 3674.1 9
  93.0576 6010.5 15
  96.0446 1274.6 3
  104.0499 3056.3 8
  106.0655 26260.1 68
  107.0734 20311.8 53
  108.081 1708.6 4
  118.0657 14293.3 37
  119.0734 338091.6 885
  120.0812 31827.5 83
  121.0891 5572.7 14
  124.0761 5710.8 14
  132.081 1341 3
  134.097 381538.7 999
  135.1047 13771.4 36
//
