ACCESSION: MSBNK-UFZ-WANA017305070APH
RECORD_TITLE: Desethylatrazine; LC-ESI-ITFT; MS2; CE: 30%; R=15000; [M+H]+
DATE: 2023.08.12
AUTHORS: Tobias Schulze, Martin Krauss, Department of Effect-Directed Analysis, Helmholtz Centre for Environmental Research - UFZ, Leipzig, Germany
LICENSE: CC0
COPYRIGHT: Copyright (C) 2023
COMMENT: CONFIDENCE Reference Standard (Level 1)
CH$NAME: Desethylatrazine
CH$NAME: Deethylatrazine
CH$NAME: 6-chloro-2-N-propan-2-yl-1,3,5-triazine-2,4-diamine
CH$COMPOUND_CLASS: N/A; Environmental Standard
CH$FORMULA: C6H10ClN5
CH$EXACT_MASS: 187.062473
CH$SMILES: CC(C)NC1=NC(N)=NC(Cl)=N1
CH$IUPAC: InChI=1S/C6H10ClN5/c1-3(2)9-6-11-4(7)10-5(8)12-6/h3H,1-2H3,(H3,8,9,10,11,12)
CH$LINK: CAS 6190-65-4
CH$LINK: CHEBI CHEBI:28212
CH$LINK: KEGG C06559
CH$LINK: PUBCHEM CID:22563
CH$LINK: INCHIKEY DFWFIQKMSFGDCQ-UHFFFAOYSA-N
CH$LINK: CHEMSPIDER 21157
CH$LINK: COMPTOX DTXSID5037494
AC$INSTRUMENT: LTQ Orbitrap XL Thermo Scientific
AC$INSTRUMENT_TYPE: LC-ESI-ITFT
AC$MASS_SPECTROMETRY: MS_TYPE MS2
AC$MASS_SPECTROMETRY: ION_MODE POSITIVE
AC$MASS_SPECTROMETRY: IONIZATION ESI
AC$MASS_SPECTROMETRY: FRAGMENTATION_MODE HCD
AC$MASS_SPECTROMETRY: COLLISION_ENERGY 30 % (nominal)
AC$MASS_SPECTROMETRY: RESOLUTION 15000
AC$MASS_SPECTROMETRY: MASS_RANGE_M/Z 50-200
AC$CHROMATOGRAPHY: COLUMN_NAME Kinetex Evo C18 2.6 um 50 x 2.1 mm
AC$CHROMATOGRAPHY: FLOW_GRADIENT 95/5 at 0 min, 95/5 at 1 min, 0/100 at 13 min, 0/100 at 24 min, 95/5 at 24.3 min, 95/5 at 32 min
AC$CHROMATOGRAPHY: FLOW_RATE 300 uL/min
AC$CHROMATOGRAPHY: RETENTION_TIME 6.471 min
MS$FOCUSED_ION: BASE_PEAK 188.0701
MS$FOCUSED_ION: PRECURSOR_M/Z 188.0697
MS$FOCUSED_ION: PRECURSOR_TYPE [M+H]+
MS$FOCUSED_ION: PRECURSOR_INTENSITY 27170010
MS$DATA_PROCESSING: RECALIBRATE loess on assigned fragments and MS1
MS$DATA_PROCESSING: REANALYZE Peaks with additional N2/O included
MS$DATA_PROCESSING: WHOLE RMassBank 3.11.2
PK$SPLASH: splash10-000i-0900000000-05326708ea136a3fceec
PK$ANNOTATION: m/z tentative_formula formula_count mass error(ppm)
  79.0057 CH4ClN2+ 1 79.0058 -1.04
  104.0012 C2H3ClN3+ 1 104.001 1.61
  146.0226 C3H5ClN5+ 1 146.0228 -1.14
  188.0695 C6H11ClN5+ 1 188.0697 -1.35
PK$NUM_PEAK: 4
PK$PEAK: m/z int. rel.int.
  79.0057 9336.8 1
  104.0012 11544.6 1
  146.0226 1107386.1 165
  188.0695 6703163.5 999
//
