ACCESSION: MSBNK-UFZ-UP000035
RECORD_TITLE: Methocarbamol; LC-ESI-ITFT; MS2; CE: 25%; R=15000; [M+H]+
DATE: 2019.07.31
AUTHORS: Liza-Marie Beckers, Werner Brack, Janek-Paul Dann, Martin Krauss, Erik Mueller, Tobias Schulze, Helmholtz Centre for Environmental Research GmbH - UFZ, Leipzig, Germany
LICENSE: CC0
COPYRIGHT: Copyright (C) 2019
PUBLICATION: Beckers L-M, Brack W, Dann JP, Krauss M, Mueller E, Schulze T, 2020. Unraveling longitudinal pollution patterns of organic micropollutants in a river by non-target screening and cluster analysis. Science of The Total Environment, https://doi.org/10.1016/j.scitotenv.2020.138388
COMMENT: CONFIDENCE Reference Standard (Level 1)
COMMENT: INTERNAL_ID 3
CH$NAME: Methocarbamol
CH$NAME: [2-hydroxy-3-(2-methoxyphenoxy)propyl] carbamate
CH$COMPOUND_CLASS: N/A; Environmental Standard
CH$FORMULA: C11H15NO5
CH$EXACT_MASS: 241.0950
CH$SMILES: COC1=C(OCC(O)COC(N)=O)C=CC=C1
CH$IUPAC: InChI=1S/C11H15NO5/c1-15-9-4-2-3-5-10(9)16-6-8(13)7-17-11(12)14/h2-5,8,13H,6-7H2,1H3,(H2,12,14)
CH$LINK: CAS 532-03-6
CH$LINK: CHEBI CHEBI:77498
CH$LINK: KEGG D00402
CH$LINK: PUBCHEM CID:4107
CH$LINK: INCHIKEY GNXFOGHNGIVQEH-UHFFFAOYSA-N
CH$LINK: CHEMSPIDER 3964
AC$INSTRUMENT: LTQ Orbitrap XL Thermo Scientific
AC$INSTRUMENT_TYPE: LC-ESI-ITFT
AC$MASS_SPECTROMETRY: MS_TYPE MS2
AC$MASS_SPECTROMETRY: ION_MODE POSITIVE
AC$MASS_SPECTROMETRY: IONIZATION ESI
AC$MASS_SPECTROMETRY: FRAGMENTATION_MODE HCD
AC$MASS_SPECTROMETRY: COLLISION_ENERGY 25 % (nominal)
AC$MASS_SPECTROMETRY: RESOLUTION 15000
AC$CHROMATOGRAPHY: COLUMN_NAME Kinetex Evo C18 2.6 um 50 x 2.1 mm
AC$CHROMATOGRAPHY: FLOW_GRADIENT 95/5 at 0 min, 95/5 at 1 min, 0/100 at 13 min, 0/100 at 24 min, 95/5 at 24.3 min, 95/5/0 at 32 min
AC$CHROMATOGRAPHY: FLOW_RATE 300 uL/min
AC$CHROMATOGRAPHY: RETENTION_TIME 7.155 min
AC$CHROMATOGRAPHY: SOLVENT A water with 0.1% formic acid
AC$CHROMATOGRAPHY: SOLVENT B methanol with 0.1% formic acid
MS$FOCUSED_ION: BASE_PEAK 264.0843
MS$FOCUSED_ION: PRECURSOR_M/Z 242.1023
MS$FOCUSED_ION: PRECURSOR_TYPE [M+H]+
MS$DATA_PROCESSING: RECALIBRATE loess on assigned fragments and MS1
MS$DATA_PROCESSING: REANALYZE Peaks with additional N2/O included
MS$DATA_PROCESSING: WHOLE RMassBank 2.12.0
PK$SPLASH: splash10-02t9-0900000000-d55c9fd1ed2f3bb2f69a
PK$ANNOTATION: m/z tentative_formula formula_count mass error(ppm)
  118.0498 C4H8NO3+ 1 118.0499 -0.39
  125.0596 C7H9O2+ 1 125.0597 -1.03
  135.0806 C9H11O+ 1 135.0804 1.24
  151.0751 C9H11O2+ 1 151.0754 -1.38
  163.0753 C10H11O2+ 1 163.0754 -0.59
PK$NUM_PEAK: 5
PK$PEAK: m/z int. rel.int.
  118.0498 24939.5 999
  125.0596 5281.1 211
  135.0806 1978 79
  151.0751 2716 108
  163.0753 13367.9 535
//
