ACCESSION: MSBNK-UFZ-WANA0292237762PM
RECORD_TITLE: Benzethonium; LC-ESI-ITFT; MS2; CE: 80%; R=15000; [M]+
DATE: 2023.08.13
AUTHORS: Tobias Schulze, Martin Krauss, Department of Effect-Directed Analysis, Helmholtz Centre for Environmental Research - UFZ, Leipzig, Germany
LICENSE: CC0
COPYRIGHT: Copyright (C) 2023
COMMENT: CONFIDENCE Reference Standard (Level 1)
CH$NAME: Benzethonium
CH$NAME: benzyl-dimethyl-[2-[2-[4-(2,4,4-trimethylpentan-2-yl)phenoxy]ethoxy]ethyl]azanium
CH$COMPOUND_CLASS: N/A; Environmental Standard
CH$FORMULA: C27H42NO2
CH$EXACT_MASS: 412.321006004091
CH$SMILES: CC(C)(C)CC(C)(C)C1=CC=C(OCCOCC[N+](C)(C)CC2=CC=CC=C2)C=C1
CH$IUPAC: InChI=1S/C27H42NO2/c1-26(2,3)22-27(4,5)24-13-15-25(16-14-24)30-20-19-29-18-17-28(6,7)21-23-11-9-8-10-12-23/h8-16H,17-22H2,1-7H3/q+1
CH$LINK: CAS 498-77-1
CH$LINK: CHEBI 94725
CH$LINK: PUBCHEM CID:2335
CH$LINK: INCHIKEY SIYLLGKDQZGJHK-UHFFFAOYSA-N
CH$LINK: CHEMSPIDER 2245
CH$LINK: COMPTOX DTXSID5046984
AC$INSTRUMENT: LTQ Orbitrap XL Thermo Scientific
AC$INSTRUMENT_TYPE: LC-ESI-ITFT
AC$MASS_SPECTROMETRY: MS_TYPE MS2
AC$MASS_SPECTROMETRY: ION_MODE POSITIVE
AC$MASS_SPECTROMETRY: IONIZATION ESI
AC$MASS_SPECTROMETRY: FRAGMENTATION_MODE HCD
AC$MASS_SPECTROMETRY: COLLISION_ENERGY 80 % (nominal)
AC$MASS_SPECTROMETRY: RESOLUTION 15000
AC$MASS_SPECTROMETRY: MASS_RANGE_M/Z 50-425
AC$CHROMATOGRAPHY: COLUMN_NAME Kinetex Evo C18 2.6 um 50 x 2.1 mm
AC$CHROMATOGRAPHY: FLOW_GRADIENT 95/5 at 0 min, 95/5 at 1 min, 0/100 at 13 min, 0/100 at 24 min, 95/5 at 24.3 min, 95/5 at 32 min
AC$CHROMATOGRAPHY: FLOW_RATE 300 uL/min
AC$CHROMATOGRAPHY: RETENTION_TIME 11.416 min
MS$FOCUSED_ION: BASE_PEAK 412.3211
MS$FOCUSED_ION: PRECURSOR_M/Z 412.321
MS$FOCUSED_ION: PRECURSOR_TYPE [M]+
MS$FOCUSED_ION: PRECURSOR_INTENSITY 77682624
MS$DATA_PROCESSING: RECALIBRATE loess on assigned fragments and MS1
MS$DATA_PROCESSING: REANALYZE Peaks with additional N2/O included
MS$DATA_PROCESSING: WHOLE RMassBank 3.11.2
PK$SPLASH: splash10-0006-9000000000-81cfc44c11f5c508a874
PK$ANNOTATION: m/z tentative_formula formula_count mass error(ppm)
  57.0696 C4H9+ 1 57.0699 -4.37
  58.0649 C3H8N+ 1 58.0651 -4.25
  65.0385 C5H5+ 1 65.0386 -1.37
  69.0697 C5H9+ 1 69.0699 -2.61
  70.065 C4H8N+ 1 70.0651 -1.47
  72.0807 C4H10N+ 1 72.0808 -1.71
  84.0808 C5H10N+ 1 84.0808 0.03
  85.0885 C5H11N+ 1 85.0886 -0.78
  86.0601 C4H8NO+ 1 86.06 0.48
  87.0679 C4H9NO+ 1 87.0679 0.65
  88.0758 C4H10NO+ 1 88.0757 1.5
  91.0542 C7H7+ 1 91.0542 -0.43
  93.0697 C7H9+ 1 93.0699 -2.28
  100.076 C5H10NO+ 1 100.0757 2.75
  105.0698 C8H9+ 1 105.0699 -0.83
  107.0489 C7H7O+ 1 107.0491 -2.02
  107.0855 C8H11+ 1 107.0855 -0.18
  109.0643 C7H9O+ 1 109.0648 -4.73
  114.0912 C6H12NO+ 1 114.0913 -1.56
  116.1069 C6H14NO+ 1 116.107 -0.5
  118.0776 C9H10+ 1 118.0777 -0.71
  119.0853 C9H11+ 1 119.0855 -1.59
  121.0647 C8H9O+ 1 121.0648 -1.05
  134.0964 C9H12N+ 1 134.0964 -0.13
  135.0805 C9H11O+ 1 135.0804 0.14
  135.1166 C10H15+ 1 135.1168 -1.62
  149.096 C10H13O+ 1 149.0961 -0.48
  204.1382 C13H18NO+ 1 204.1383 -0.59
PK$NUM_PEAK: 28
PK$PEAK: m/z int. rel.int.
  57.0696 1986071.2 87
  58.0649 1388656.1 61
  65.0385 90667.6 4
  69.0697 39645.7 1
  70.065 318303 14
  72.0807 5654340 250
  84.0808 236933.6 10
  85.0885 87519.3 3
  86.0601 209961.6 9
  87.0679 127171.2 5
  88.0758 72976.4 3
  91.0542 22560972 999
  93.0697 78605.2 3
  100.076 75828.6 3
  105.0698 182174.6 8
  107.0489 89491.1 3
  107.0855 106637.7 4
  109.0643 49778.1 2
  114.0912 49867.7 2
  116.1069 71120 3
  118.0776 696368.8 30
  119.0853 94672.1 4
  121.0647 189189.6 8
  134.0964 152990.4 6
  135.0805 218237 9
  135.1166 45613.2 2
  149.096 48342 2
  204.1382 44455.4 1
//
