ACCESSION: MSBNK-UFZ-WANA410625AF82PM
RECORD_TITLE: Benzyldimethyltetradecylammonium; LC-ESI-ITFT; MS2; CE: 90%; R=15000; [M]+
DATE: 2023.08.13
AUTHORS: Tobias Schulze, Martin Krauss, Department of Effect-Directed Analysis, Helmholtz Centre for Environmental Research - UFZ, Leipzig, Germany
LICENSE: CC0
COPYRIGHT: Copyright (C) 2023
COMMENT: CONFIDENCE Reference Standard (Level 1)
CH$NAME: Benzyldimethyltetradecylammonium
CH$NAME: benzyl-dimethyl-tetradecylazanium
CH$COMPOUND_CLASS: N/A; Environmental Standard
CH$FORMULA: C23H42N
CH$EXACT_MASS: 332.331176764091
CH$SMILES: CCCCCCCCCCCCCC[N+](C)(C)CC1=CC=CC=C1
CH$IUPAC: InChI=1S/C23H42N/c1-4-5-6-7-8-9-10-11-12-13-14-18-21-24(2,3)22-23-19-16-15-17-20-23/h15-17,19-20H,4-14,18,21-22H2,1-3H3/q+1
CH$LINK: CAS 5285-67-6
CH$LINK: PUBCHEM CID:8756
CH$LINK: INCHIKEY WNBGYVXHFTYOBY-UHFFFAOYSA-N
CH$LINK: CHEMSPIDER 8426
CH$LINK: COMPTOX DTXSID3048360
AC$INSTRUMENT: LTQ Orbitrap XL Thermo Scientific
AC$INSTRUMENT_TYPE: LC-ESI-ITFT
AC$MASS_SPECTROMETRY: MS_TYPE MS2
AC$MASS_SPECTROMETRY: ION_MODE POSITIVE
AC$MASS_SPECTROMETRY: IONIZATION ESI
AC$MASS_SPECTROMETRY: FRAGMENTATION_MODE HCD
AC$MASS_SPECTROMETRY: COLLISION_ENERGY 90 % (nominal)
AC$MASS_SPECTROMETRY: RESOLUTION 15000
AC$MASS_SPECTROMETRY: MASS_RANGE_M/Z 50-345
AC$CHROMATOGRAPHY: COLUMN_NAME Kinetex Evo C18 2.6 um 50 x 2.1 mm
AC$CHROMATOGRAPHY: FLOW_GRADIENT 95/5 at 0 min, 95/5 at 1 min, 0/100 at 13 min, 0/100 at 24 min, 95/5 at 24.3 min, 95/5 at 32 min
AC$CHROMATOGRAPHY: FLOW_RATE 300 uL/min
AC$CHROMATOGRAPHY: RETENTION_TIME 11.950 min
MS$FOCUSED_ION: BASE_PEAK 332.3314
MS$FOCUSED_ION: PRECURSOR_M/Z 332.3312
MS$FOCUSED_ION: PRECURSOR_TYPE [M]+
MS$FOCUSED_ION: PRECURSOR_INTENSITY 24419804
MS$DATA_PROCESSING: RECALIBRATE loess on assigned fragments and MS1
MS$DATA_PROCESSING: REANALYZE Peaks with additional N2/O included
MS$DATA_PROCESSING: WHOLE RMassBank 3.11.2
PK$SPLASH: splash10-0006-9000000000-fc0c6862b5c74fa36a86
PK$ANNOTATION: m/z tentative_formula formula_count mass error(ppm)
  57.0696 C4H9+ 1 57.0699 -4.77
  58.0649 C3H8N+ 1 58.0651 -4.71
  65.0384 C5H5+ 1 65.0386 -2.89
  71.0853 C5H11+ 1 71.0855 -2.6
  72.0807 C4H10N+ 1 72.0808 -1.71
  91.0541 C7H7+ 1 91.0542 -0.85
  240.2681 C16H34N+ 1 240.2686 -1.89
PK$NUM_PEAK: 7
PK$PEAK: m/z int. rel.int.
  57.0696 124151.2 10
  58.0649 2136617.2 181
  65.0384 88738.6 7
  71.0853 41621.1 3
  72.0807 84043.4 7
  91.0541 11767600 999
  240.2681 70441.4 5
//
