ACCESSION: MSBNK-UFZ-WANA220413D9F1PH
RECORD_TITLE: Terbinafine; LC-ESI-ITFT; MS2; CE: 50%; R=15000; [M+H]+
DATE: 2023.08.12
AUTHORS: Tobias Schulze, Martin Krauss, Department of Effect-Directed Analysis, Helmholtz Centre for Environmental Research - UFZ, Leipzig, Germany
LICENSE: CC0
COPYRIGHT: Copyright (C) 2023
COMMENT: CONFIDENCE Reference Standard (Level 1)
CH$NAME: Terbinafine
CH$NAME: (E)-N,6,6-trimethyl-N-(naphthalen-1-ylmethyl)hept-2-en-4-yn-1-amine
CH$COMPOUND_CLASS: N/A; Environmental Standard
CH$FORMULA: C21H25N
CH$EXACT_MASS: 291.1986998
CH$SMILES: CN(C\C=C\C#CC(C)(C)C)CC1=CC=CC2=CC=CC=C12
CH$IUPAC: InChI=1S/C21H25N/c1-21(2,3)15-8-5-9-16-22(4)17-19-13-10-12-18-11-6-7-14-20(18)19/h5-7,9-14H,16-17H2,1-4H3/b9-5+
CH$LINK: CAS 91161-71-6
CH$LINK: CHEBI CHEBI:9448
CH$LINK: KEGG D02375
CH$LINK: PUBCHEM CID:1549008
CH$LINK: INCHIKEY DOMXUEMWDBAQBQ-WEVVVXLNSA-N
CH$LINK: CHEMSPIDER 1266005
CH$LINK: COMPTOX DTXSID2023640
AC$INSTRUMENT: LTQ Orbitrap XL Thermo Scientific
AC$INSTRUMENT_TYPE: LC-ESI-ITFT
AC$MASS_SPECTROMETRY: MS_TYPE MS2
AC$MASS_SPECTROMETRY: ION_MODE POSITIVE
AC$MASS_SPECTROMETRY: IONIZATION ESI
AC$MASS_SPECTROMETRY: FRAGMENTATION_MODE HCD
AC$MASS_SPECTROMETRY: COLLISION_ENERGY 50 % (nominal)
AC$MASS_SPECTROMETRY: RESOLUTION 15000
AC$MASS_SPECTROMETRY: MASS_RANGE_M/Z 50-305
AC$CHROMATOGRAPHY: COLUMN_NAME Kinetex Evo C18 2.6 um 50 x 2.1 mm
AC$CHROMATOGRAPHY: FLOW_GRADIENT 95/5 at 0 min, 95/5 at 1 min, 0/100 at 13 min, 0/100 at 24 min, 95/5 at 24.3 min, 95/5 at 32 min
AC$CHROMATOGRAPHY: FLOW_RATE 300 uL/min
AC$CHROMATOGRAPHY: RETENTION_TIME 9.665 min
MS$FOCUSED_ION: BASE_PEAK 292.2069
MS$FOCUSED_ION: PRECURSOR_M/Z 292.206
MS$FOCUSED_ION: PRECURSOR_TYPE [M+H]+
MS$FOCUSED_ION: PRECURSOR_INTENSITY 41812240
MS$DATA_PROCESSING: RECALIBRATE loess on assigned fragments and MS1
MS$DATA_PROCESSING: REANALYZE Peaks with additional N2/O included
MS$DATA_PROCESSING: WHOLE RMassBank 3.11.2
PK$SPLASH: splash10-0006-1900000000-f23926dbd0803c5ba9ff
PK$ANNOTATION: m/z tentative_formula formula_count mass error(ppm)
  77.0386 C6H5+ 1 77.0386 0.12
  79.0542 C6H7+ 1 79.0542 -0.12
  91.0543 C7H7+ 1 91.0542 0.79
  93.0699 C7H9+ 1 93.0699 0.51
  103.0543 C8H7+ 1 103.0542 0.24
  105.0699 C8H9+ 1 105.0699 0.66
  106.0778 C8H10+ 1 106.0777 0.58
  119.0856 C9H11+ 1 119.0855 0.76
  121.1012 C9H13+ 1 121.1012 -0.01
  141.0699 C11H9+ 1 141.0699 0.52
  150.1277 C10H16N+ 1 150.1277 -0.43
  165.0695 C13H9+ 1 165.0699 -2.46
  170.0964 C12H12N+ 1 170.0964 0.06
  179.0858 C14H11+ 1 179.0855 1.54
  204.0942 C16H12+ 1 204.0934 4.14
  205.1012 C16H13+ 1 205.1012 0.19
  261.1633 C20H21+ 1 261.1638 -1.96
PK$NUM_PEAK: 17
PK$PEAK: m/z int. rel.int.
  77.0386 32953.9 5
  79.0542 122950 19
  91.0543 142407.5 22
  93.0699 782503.2 122
  103.0543 9424.3 1
  105.0699 196124.1 30
  106.0778 20696.1 3
  119.0856 38933 6
  121.1012 49413.8 7
  141.0699 6360489 999
  150.1277 33968.6 5
  165.0695 7110.7 1
  170.0964 57489.1 9
  179.0858 9992.8 1
  204.0942 6533.5 1
  205.1012 23645.2 3
  261.1633 10081.1 1
//
