ACCESSION: MSBNK-UFZ-WANA2204155BE0PH
RECORD_TITLE: Terbinafine; LC-ESI-ITFT; MS2; CE: 60%; R=15000; [M+H]+
DATE: 2023.08.12
AUTHORS: Tobias Schulze, Martin Krauss, Department of Effect-Directed Analysis, Helmholtz Centre for Environmental Research - UFZ, Leipzig, Germany
LICENSE: CC0
COPYRIGHT: Copyright (C) 2023
COMMENT: CONFIDENCE Reference Standard (Level 1)
CH$NAME: Terbinafine
CH$NAME: (E)-N,6,6-trimethyl-N-(naphthalen-1-ylmethyl)hept-2-en-4-yn-1-amine
CH$COMPOUND_CLASS: N/A; Environmental Standard
CH$FORMULA: C21H25N
CH$EXACT_MASS: 291.1986998
CH$SMILES: CN(C\C=C\C#CC(C)(C)C)CC1=CC=CC2=CC=CC=C12
CH$IUPAC: InChI=1S/C21H25N/c1-21(2,3)15-8-5-9-16-22(4)17-19-13-10-12-18-11-6-7-14-20(18)19/h5-7,9-14H,16-17H2,1-4H3/b9-5+
CH$LINK: CAS 91161-71-6
CH$LINK: CHEBI CHEBI:9448
CH$LINK: KEGG D02375
CH$LINK: PUBCHEM CID:1549008
CH$LINK: INCHIKEY DOMXUEMWDBAQBQ-WEVVVXLNSA-N
CH$LINK: CHEMSPIDER 1266005
CH$LINK: COMPTOX DTXSID2023640
AC$INSTRUMENT: LTQ Orbitrap XL Thermo Scientific
AC$INSTRUMENT_TYPE: LC-ESI-ITFT
AC$MASS_SPECTROMETRY: MS_TYPE MS2
AC$MASS_SPECTROMETRY: ION_MODE POSITIVE
AC$MASS_SPECTROMETRY: IONIZATION ESI
AC$MASS_SPECTROMETRY: FRAGMENTATION_MODE HCD
AC$MASS_SPECTROMETRY: COLLISION_ENERGY 60 % (nominal)
AC$MASS_SPECTROMETRY: RESOLUTION 15000
AC$MASS_SPECTROMETRY: MASS_RANGE_M/Z 50-305
AC$CHROMATOGRAPHY: COLUMN_NAME Kinetex Evo C18 2.6 um 50 x 2.1 mm
AC$CHROMATOGRAPHY: FLOW_GRADIENT 95/5 at 0 min, 95/5 at 1 min, 0/100 at 13 min, 0/100 at 24 min, 95/5 at 24.3 min, 95/5 at 32 min
AC$CHROMATOGRAPHY: FLOW_RATE 300 uL/min
AC$CHROMATOGRAPHY: RETENTION_TIME 9.665 min
MS$FOCUSED_ION: BASE_PEAK 292.2069
MS$FOCUSED_ION: PRECURSOR_M/Z 292.206
MS$FOCUSED_ION: PRECURSOR_TYPE [M+H]+
MS$FOCUSED_ION: PRECURSOR_INTENSITY 41812240
MS$DATA_PROCESSING: RECALIBRATE loess on assigned fragments and MS1
MS$DATA_PROCESSING: REANALYZE Peaks with additional N2/O included
MS$DATA_PROCESSING: WHOLE RMassBank 3.11.2
PK$SPLASH: splash10-0006-1900000000-e509ca77333ea56ab78d
PK$ANNOTATION: m/z tentative_formula formula_count mass error(ppm)
  57.0697 C4H9+ 1 57.0699 -2.51
  77.0385 C6H5+ 1 77.0386 -0.78
  79.0542 C6H7+ 1 79.0542 -0.8
  81.0698 C6H9+ 1 81.0699 -1.02
  91.0542 C7H7+ 1 91.0542 -0.05
  93.0699 C7H9+ 1 93.0699 -0.15
  103.0542 C8H7+ 1 103.0542 -0.2
  105.0698 C8H9+ 1 105.0699 -0.28
  106.0777 C8H10+ 1 106.0777 0
  115.0543 C9H7+ 1 115.0542 0.64
  119.0855 C9H11+ 1 119.0855 0.12
  121.1011 C9H13+ 1 121.1012 -0.27
  141.0698 C11H9+ 1 141.0699 -0.24
  150.1276 C10H16N+ 1 150.1277 -0.63
  170.0964 C12H12N+ 1 170.0964 -0.39
  179.0849 C14H11+ 1 179.0855 -3.75
  205.1011 C16H13+ 1 205.1012 -0.56
PK$NUM_PEAK: 17
PK$PEAK: m/z int. rel.int.
  57.0697 5343.1 1
  77.0385 62613.8 14
  79.0542 95066.2 22
  81.0698 6416.7 1
  91.0542 150333.2 35
  93.0699 386186.2 91
  103.0542 19144.1 4
  105.0698 121441 28
  106.0777 16591.7 3
  115.0543 10562.2 2
  119.0855 22063 5
  121.1011 8318.4 1
  141.0698 4209535 999
  150.1276 7271.7 1
  170.0964 26213.5 6
  179.0849 5244 1
  205.1011 5064.9 1
//
