ACCESSION: MSBNK-UFZ-WANA0526213166PH
RECORD_TITLE: Amiodarone; LC-ESI-ITFT; MS2; CE: 70%; R=15000; [M+H]+
DATE: 2023.08.13
AUTHORS: Tobias Schulze, Martin Krauss, Department of Effect-Directed Analysis, Helmholtz Centre for Environmental Research - UFZ, Leipzig, Germany
LICENSE: CC0
COPYRIGHT: Copyright (C) 2023
COMMENT: CONFIDENCE Reference Standard (Level 1)
CH$NAME: Amiodarone
CH$NAME: (2-butyl-1-benzofuran-3-yl)-[4-[2-(diethylamino)ethoxy]-3,5-diiodophenyl]methanone
CH$COMPOUND_CLASS: N/A; Environmental Standard
CH$FORMULA: C25H29I2NO3
CH$EXACT_MASS: 645.023689788
CH$SMILES: CCCCC1=C(C(=O)C2=CC(I)=C(OCCN(CC)CC)C(I)=C2)C2=CC=CC=C2O1
CH$IUPAC: InChI=1S/C25H29I2NO3/c1-4-7-11-22-23(18-10-8-9-12-21(18)31-22)24(29)17-15-19(26)25(20(27)16-17)30-14-13-28(5-2)6-3/h8-10,12,15-16H,4-7,11,13-14H2,1-3H3
CH$LINK: CAS 1951-25-3
CH$LINK: CHEBI CHEBI:2663
CH$LINK: KEGG C06823
CH$LINK: PUBCHEM CID:2157
CH$LINK: INCHIKEY IYIKLHRQXLHMJQ-UHFFFAOYSA-N
CH$LINK: CHEMSPIDER 2072
CH$LINK: COMPTOX DTXSID7022592
AC$INSTRUMENT: LTQ Orbitrap XL Thermo Scientific
AC$INSTRUMENT_TYPE: LC-ESI-ITFT
AC$MASS_SPECTROMETRY: MS_TYPE MS2
AC$MASS_SPECTROMETRY: ION_MODE POSITIVE
AC$MASS_SPECTROMETRY: IONIZATION ESI
AC$MASS_SPECTROMETRY: FRAGMENTATION_MODE HCD
AC$MASS_SPECTROMETRY: COLLISION_ENERGY 70 % (nominal)
AC$MASS_SPECTROMETRY: RESOLUTION 15000
AC$MASS_SPECTROMETRY: MASS_RANGE_M/Z 60-660
AC$CHROMATOGRAPHY: COLUMN_NAME Kinetex Evo C18 2.6 um 50 x 2.1 mm
AC$CHROMATOGRAPHY: FLOW_GRADIENT 95/5 at 0 min, 95/5 at 1 min, 0/100 at 13 min, 0/100 at 24 min, 95/5 at 24.3 min, 95/5 at 32 min
AC$CHROMATOGRAPHY: FLOW_RATE 300 uL/min
AC$CHROMATOGRAPHY: RETENTION_TIME 11.731 min
MS$FOCUSED_ION: BASE_PEAK 646.0321
MS$FOCUSED_ION: PRECURSOR_M/Z 646.031
MS$FOCUSED_ION: PRECURSOR_TYPE [M+H]+
MS$FOCUSED_ION: PRECURSOR_INTENSITY 2889747.75
MS$DATA_PROCESSING: RECALIBRATE loess on assigned fragments and MS1
MS$DATA_PROCESSING: REANALYZE Peaks with additional N2/O included
MS$DATA_PROCESSING: WHOLE RMassBank 3.11.2
PK$SPLASH: splash10-00dr-9000000000-0f7c861ea0fdcaa7fc69
PK$ANNOTATION: m/z tentative_formula formula_count mass error(ppm)
  72.081 C4H10N+ 1 72.0808 2.74
  86.0968 C5H12N+ 1 86.0964 4.19
  201.0919 H26IO3+ 2 201.0921 -1.14
PK$NUM_PEAK: 3
PK$PEAK: m/z int. rel.int.
  72.081 25092 999
  86.0968 20559.7 818
  201.0919 3464 137
//
