ACCESSION: MSBNK-UFZ-UF400601
RECORD_TITLE: Diazinon; LC-ESI-ITFT; MS2; CE: 55; R=15000; [M+H]+
DATE: 2017.01.05
AUTHORS: Schulze T, Krauss M, Department of Effect-Directed Analysis, Helmholtz Centre for Environmental Research - UFZ GmbH, Leipzig, Germany
LICENSE: CC BY
COPYRIGHT: Copyright (C) 2017
COMMENT: CONFIDENCE standard compound
COMMENT: INTERNAL_ID 4006
CH$NAME: Diazinon
CH$NAME: Diethoxy-(6-methyl-2-propan-2-ylpyrimidin-4-yl)oxy-sulfanylidene-{5}-phosphane
CH$COMPOUND_CLASS: N/A; Environmental Standard
CH$FORMULA: C12H21N2O3PS
CH$EXACT_MASS: 304.1011
CH$SMILES: CCOP(=S)(OCC)OC1=NC(=NC(C)=C1)C(C)C
CH$IUPAC: InChI=1S/C12H21N2O3PS/c1-6-15-18(19,16-7-2)17-11-8-10(5)13-12(14-11)9(3)4/h8-9H,6-7H2,1-5H3
CH$LINK: CAS 665-66-7
CH$LINK: CHEBI CHEBI:34682
CH$LINK: KEGG C14324
CH$LINK: PUBCHEM CID:3017
CH$LINK: INCHIKEY FHIVAFMUCKRCQO-UHFFFAOYSA-N
CH$LINK: CHEMSPIDER 2909
CH$LINK: COMPTOX DTXSID9020407
AC$INSTRUMENT: LTQ Orbitrap XL Thermo Scientific
AC$INSTRUMENT_TYPE: LC-ESI-ITFT
AC$MASS_SPECTROMETRY: MS_TYPE MS2
AC$MASS_SPECTROMETRY: ION_MODE POSITIVE
AC$MASS_SPECTROMETRY: IONIZATION ESI
AC$MASS_SPECTROMETRY: FRAGMENTATION_MODE HCD
AC$MASS_SPECTROMETRY: COLLISION_ENERGY 55 (nominal)
AC$MASS_SPECTROMETRY: RESOLUTION 15000
AC$CHROMATOGRAPHY: COLUMN_NAME Kinetex Core-Shell C18 2.6 um, 3.0 x 100 mm, Phenomenex
AC$CHROMATOGRAPHY: FLOW_GRADIENT 90/10 at 0 min, 80/20 at 3.2 min, 5/95 at 17.8 min, 5/95 at 37.8 min, 90/10 at 37.9 min, 90/10 at 47 min
AC$CHROMATOGRAPHY: FLOW_RATE 200 uL/min
AC$CHROMATOGRAPHY: RETENTION_TIME 26.263 min
AC$CHROMATOGRAPHY: SOLVENT A water with 0.1% formic acid
AC$CHROMATOGRAPHY: SOLVENT B methanol with 0.1% formic acid
MS$FOCUSED_ION: BASE_PEAK 305.1079
MS$FOCUSED_ION: PRECURSOR_M/Z 305.1083
MS$FOCUSED_ION: PRECURSOR_TYPE [M+H]+
MS$DATA_PROCESSING: RECALIBRATE loess on assigned fragments and MS1
MS$DATA_PROCESSING: REANALYZE Peaks with additional N2/O included
MS$DATA_PROCESSING: WHOLE RMassBank 2.2.1
PK$SPLASH: splash10-0gb9-1900000000-fde2fd32fffda1ea9300
PK$ANNOTATION: m/z tentative_formula formula_count mass error(ppm)
  84.0444 C4H6NO+ 2 84.0444 -0.27
  96.9507 H2O2PS+ 1 96.9508 -0.81
  98.9841 H4O4P+ 1 98.9842 -1.09
  100.0214 C4H6NS+ 2 100.0215 -1.15
  114.9613 H4O3PS+ 1 114.9613 -0.67
  153.1021 C8H13N2O+ 1 153.1022 -0.63
  169.0794 C8H13N2S+ 1 169.0794 -0.26
  188.0781 C9H17PS+ 1 188.0783 -0.99
  188.0974 C8H16N2OS+ 1 188.0978 -1.91
  188.1155 C8H16N2O3+ 1 188.1155 -0.44
PK$NUM_PEAK: 10
PK$PEAK: m/z int. rel.int.
  84.0444 271642.3 44
  96.9507 1339091.8 219
  98.9841 63625.4 10
  100.0214 415649.1 68
  114.9613 996092.9 163
  153.1021 3204811.8 524
  169.0794 6103329.5 999
  188.0781 47582.9 7
  188.0974 44656.8 7
  188.1155 34994.6 5
//
