ACCESSION: MSBNK-UFZ-WANA032105070APH
RECORD_TITLE: Tri(butoxyethyl)phosphate; LC-ESI-ITFT; MS2; CE: 30%; R=15000; [M+H]+
DATE: 2023.08.12
AUTHORS: Tobias Schulze, Martin Krauss, Department of Effect-Directed Analysis, Helmholtz Centre for Environmental Research - UFZ, Leipzig, Germany
LICENSE: CC0
COPYRIGHT: Copyright (C) 2023
COMMENT: CONFIDENCE Reference Standard (Level 1)
CH$NAME: Tri(butoxyethyl)phosphate
CH$NAME: tris(2-butoxyethyl) phosphate
CH$COMPOUND_CLASS: N/A; Environmental Standard
CH$FORMULA: C18H39O7P
CH$EXACT_MASS: 398.243340218
CH$SMILES: CCCCOCCOP(=O)(OCCOCCCC)OCCOCCCC
CH$IUPAC: InChI=1S/C18H39O7P/c1-4-7-10-20-13-16-23-26(19,24-17-14-21-11-8-5-2)25-18-15-22-12-9-6-3/h4-18H2,1-3H3
CH$LINK: CAS 78-51-3
CH$LINK: CHEBI CHEBI:35038
CH$LINK: KEGG C14446
CH$LINK: PUBCHEM CID:6540
CH$LINK: INCHIKEY WTLBZVNBAKMVDP-UHFFFAOYSA-N
CH$LINK: CHEMSPIDER 6292
CH$LINK: COMPTOX DTXSID5021758
AC$INSTRUMENT: LTQ Orbitrap XL Thermo Scientific
AC$INSTRUMENT_TYPE: LC-ESI-ITFT
AC$MASS_SPECTROMETRY: MS_TYPE MS2
AC$MASS_SPECTROMETRY: ION_MODE POSITIVE
AC$MASS_SPECTROMETRY: IONIZATION ESI
AC$MASS_SPECTROMETRY: FRAGMENTATION_MODE HCD
AC$MASS_SPECTROMETRY: COLLISION_ENERGY 30 % (nominal)
AC$MASS_SPECTROMETRY: RESOLUTION 15000
AC$MASS_SPECTROMETRY: MASS_RANGE_M/Z 50-410
AC$CHROMATOGRAPHY: COLUMN_NAME Kinetex Evo C18 2.6 um 50 x 2.1 mm
AC$CHROMATOGRAPHY: FLOW_GRADIENT 95/5 at 0 min, 95/5 at 1 min, 0/100 at 13 min, 0/100 at 24 min, 95/5 at 24.3 min, 95/5 at 32 min
AC$CHROMATOGRAPHY: FLOW_RATE 300 uL/min
AC$CHROMATOGRAPHY: RETENTION_TIME 13.378 min
MS$FOCUSED_ION: BASE_PEAK 399.2521
MS$FOCUSED_ION: PRECURSOR_M/Z 399.2506
MS$FOCUSED_ION: PRECURSOR_TYPE [M+H]+
MS$FOCUSED_ION: PRECURSOR_INTENSITY 30518920
MS$DATA_PROCESSING: RECALIBRATE loess on assigned fragments and MS1
MS$DATA_PROCESSING: REANALYZE Peaks with additional N2/O included
MS$DATA_PROCESSING: WHOLE RMassBank 3.11.2
PK$SPLASH: splash10-0002-5910000000-30a606f91a7cf3bec159
PK$ANNOTATION: m/z tentative_formula formula_count mass error(ppm)
  57.0697 C4H9+ 1 57.0699 -3.53
  59.049 C3H7O+ 1 59.0491 -3.05
  83.0856 C6H11+ 1 83.0855 1.04
  98.9844 H4O4P+ 1 98.9842 2.12
  101.0963 C6H13O+ 1 101.0961 2.06
  125 C2H6O4P+ 1 124.9998 1.53
  143.0107 C2H8O5P+ 1 143.0104 1.88
  199.0734 C6H16O5P+ 1 199.073 1.87
  225.0896 C8H18O5P+ 1 225.0886 4.22
  243.1 C8H20O6P+ 1 243.0992 3.45
  299.1622 C12H28O6P+ 1 299.1618 1.45
PK$NUM_PEAK: 11
PK$PEAK: m/z int. rel.int.
  57.0697 92879.1 532
  59.049 7339.4 42
  83.0856 35566.8 203
  98.9844 17324.8 99
  101.0963 39745.3 227
  125 8294.4 47
  143.0107 30428.1 174
  199.0734 174267.9 999
  225.0896 3735.4 21
  243.1 6749.7 38
  299.1622 38540.7 220
//
