ACCESSION: MSBNK-UFZ-WANA310613D9F1PM
RECORD_TITLE: Methyltriphenylphosphonium; LC-ESI-ITFT; MS2; CE: 50%; R=15000; [M]+
DATE: 2023.08.13
AUTHORS: Tobias Schulze, Martin Krauss, Department of Effect-Directed Analysis, Helmholtz Centre for Environmental Research - UFZ, Leipzig, Germany
LICENSE: CC0
COPYRIGHT: Copyright (C) 2023
COMMENT: CONFIDENCE Reference Standard (Level 1)
CH$NAME: Methyltriphenylphosphonium
CH$NAME: Triphenylmethylphosphonium
CH$NAME: methyl(triphenyl)phosphanium
CH$COMPOUND_CLASS: N/A; Environmental Standard
CH$FORMULA: C19H18P
CH$EXACT_MASS: 277.114063626091
CH$SMILES: C[P+](C1=CC=CC=C1)(C1=CC=CC=C1)C1=CC=CC=C1
CH$IUPAC: InChI=1S/C19H18P/c1-20(17-11-5-2-6-12-17,18-13-7-3-8-14-18)19-15-9-4-10-16-19/h2-16H,1H3/q+1
CH$LINK: CAS 21176-92-1
CH$LINK: PUBCHEM CID:74506
CH$LINK: INCHIKEY AZFQCTBZOPUVOW-UHFFFAOYSA-N
CH$LINK: CHEMSPIDER 67087
CH$LINK: COMPTOX DTXSID20166591
AC$INSTRUMENT: LTQ Orbitrap XL Thermo Scientific
AC$INSTRUMENT_TYPE: LC-ESI-ITFT
AC$MASS_SPECTROMETRY: MS_TYPE MS2
AC$MASS_SPECTROMETRY: ION_MODE POSITIVE
AC$MASS_SPECTROMETRY: IONIZATION ESI
AC$MASS_SPECTROMETRY: FRAGMENTATION_MODE HCD
AC$MASS_SPECTROMETRY: COLLISION_ENERGY 50 % (nominal)
AC$MASS_SPECTROMETRY: RESOLUTION 15000
AC$MASS_SPECTROMETRY: MASS_RANGE_M/Z 50-290
AC$CHROMATOGRAPHY: COLUMN_NAME Kinetex Evo C18 2.6 um 50 x 2.1 mm
AC$CHROMATOGRAPHY: FLOW_GRADIENT 95/5 at 0 min, 95/5 at 1 min, 0/100 at 13 min, 0/100 at 24 min, 95/5 at 24.3 min, 95/5 at 32 min
AC$CHROMATOGRAPHY: FLOW_RATE 300 uL/min
AC$CHROMATOGRAPHY: RETENTION_TIME 7.091 min
MS$FOCUSED_ION: BASE_PEAK 277.1151
MS$FOCUSED_ION: PRECURSOR_M/Z 277.1141
MS$FOCUSED_ION: PRECURSOR_TYPE [M]+
MS$FOCUSED_ION: PRECURSOR_INTENSITY 39546268
MS$DATA_PROCESSING: RECALIBRATE loess on assigned fragments and MS1
MS$DATA_PROCESSING: REANALYZE Peaks with additional N2/O included
MS$DATA_PROCESSING: WHOLE RMassBank 3.11.2
PK$SPLASH: splash10-004i-0090000000-cffe30bbe1fa6d99239c
PK$ANNOTATION: m/z tentative_formula formula_count mass error(ppm)
  108.0123 C6H5P+ 1 108.0123 0.09
  200.0741 C13H13P+ 1 200.0749 -3.95
  261.0832 C18H14P+ 1 261.0828 1.71
  262.0908 C18H15P+ 1 262.0906 0.96
  277.1143 C19H18P+ 1 277.1141 0.84
PK$NUM_PEAK: 5
PK$PEAK: m/z int. rel.int.
  108.0123 11576.7 1
  200.0741 9564.3 1
  261.0832 9093.4 1
  262.0908 68900.4 7
  277.1143 8744157 999
//
