ACCESSION: MSBNK-UFZ-WANA0229213166PH
RECORD_TITLE: Atrazine; LC-ESI-ITFT; MS2; CE: 70%; R=15000; [M+H]+
DATE: 2023.08.13
AUTHORS: Tobias Schulze, Martin Krauss, Department of Effect-Directed Analysis, Helmholtz Centre for Environmental Research - UFZ, Leipzig, Germany
LICENSE: CC0
COPYRIGHT: Copyright (C) 2023
COMMENT: CONFIDENCE Reference Standard (Level 1)
CH$NAME: Atrazine
CH$NAME: 6-chloro-4-N-ethyl-2-N-propan-2-yl-1,3,5-triazine-2,4-diamine
CH$COMPOUND_CLASS: N/A; Environmental Standard
CH$FORMULA: C8H14ClN5
CH$EXACT_MASS: 215.093773128
CH$SMILES: CCNC1=NC(NC(C)C)=NC(Cl)=N1
CH$IUPAC: InChI=1S/C8H14ClN5/c1-4-10-7-12-6(9)13-8(14-7)11-5(2)3/h5H,4H2,1-3H3,(H2,10,11,12,13,14)
CH$LINK: CAS 1912-24-9
CH$LINK: CHEBI CHEBI:15930
CH$LINK: KEGG C06551
CH$LINK: PUBCHEM CID:2256
CH$LINK: INCHIKEY MXWJVTOOROXGIU-UHFFFAOYSA-N
CH$LINK: CHEMSPIDER 2169
CH$LINK: COMPTOX DTXSID9020112
AC$INSTRUMENT: LTQ Orbitrap XL Thermo Scientific
AC$INSTRUMENT_TYPE: LC-ESI-ITFT
AC$MASS_SPECTROMETRY: MS_TYPE MS2
AC$MASS_SPECTROMETRY: ION_MODE POSITIVE
AC$MASS_SPECTROMETRY: IONIZATION ESI
AC$MASS_SPECTROMETRY: FRAGMENTATION_MODE HCD
AC$MASS_SPECTROMETRY: COLLISION_ENERGY 70 % (nominal)
AC$MASS_SPECTROMETRY: RESOLUTION 15000
AC$MASS_SPECTROMETRY: MASS_RANGE_M/Z 50-230
AC$CHROMATOGRAPHY: COLUMN_NAME Kinetex Evo C18 2.6 um 50 x 2.1 mm
AC$CHROMATOGRAPHY: FLOW_GRADIENT 95/5 at 0 min, 95/5 at 1 min, 0/100 at 13 min, 0/100 at 24 min, 95/5 at 24.3 min, 95/5 at 32 min
AC$CHROMATOGRAPHY: FLOW_RATE 300 uL/min
AC$CHROMATOGRAPHY: RETENTION_TIME 9.863 min
MS$FOCUSED_ION: BASE_PEAK 216.1014
MS$FOCUSED_ION: PRECURSOR_M/Z 216.101
MS$FOCUSED_ION: PRECURSOR_TYPE [M+H]+
MS$FOCUSED_ION: PRECURSOR_INTENSITY 38091068
MS$DATA_PROCESSING: RECALIBRATE loess on assigned fragments and MS1
MS$DATA_PROCESSING: REANALYZE Peaks with additional N2/O included
MS$DATA_PROCESSING: WHOLE RMassBank 3.11.2
PK$SPLASH: splash10-00dj-5900000000-287b37f506aa3e3d686a
PK$ANNOTATION: m/z tentative_formula formula_count mass error(ppm)
  61.9789 CHClN+ 1 61.9792 -4.72
  68.0241 C2H2N3+ 1 68.0243 -3.38
  71.0602 C3H7N2+ 1 71.0604 -3.13
  79.0056 CH4ClN2+ 1 79.0058 -1.84
  85.076 C4H9N2+ 1 85.076 -0.83
  90.0104 C3H5ClN+ 1 90.0105 -1.48
  96.0555 C4H6N3+ 1 96.0556 -1.21
  104.0009 C2H3ClN3+ 1 104.001 -1.32
  107.0369 C3H8ClN2+ 1 107.0371 -1.39
  110.046 C3H4N5+ 1 110.0461 -1.21
  132.0321 C4H7ClN3+ 1 132.0323 -1.23
  138.0772 C5H8N5+ 1 138.0774 -1.29
  146.0226 C3H5ClN5+ 1 146.0228 -1.12
  172.0384 C5H7ClN5+ 1 172.0384 -0.2
  174.0539 C5H9ClN5+ 1 174.0541 -0.89
  180.1245 C8H14N5+ 1 180.1244 0.55
  188.0696 C6H11ClN5+ 1 188.0697 -0.62
  216.1009 C8H15ClN5+ 1 216.101 -0.87
PK$NUM_PEAK: 18
PK$PEAK: m/z int. rel.int.
  61.9789 33210.4 9
  68.0241 914051.8 255
  71.0602 534187.2 149
  79.0056 1145104.9 320
  85.076 19105.4 5
  90.0104 55658.3 15
  96.0555 2233329.8 624
  104.0009 1791158.6 500
  107.0369 10005.2 2
  110.046 160762.2 44
  132.0321 1441836.2 403
  138.0772 456437.1 127
  146.0226 1123003.9 314
  172.0384 11260.3 3
  174.0539 3572638.8 999
  180.1245 20500.6 5
  188.0696 14327 4
  216.1009 262695.6 73
//
