ACCESSION: MSBNK-UFZ-WANA221511C9CFPM
RECORD_TITLE: Anastrozole; LC-ESI-ITFT; MS2; CE: 40%; R=15000; [M]+
DATE: 2023.08.13
AUTHORS: Tobias Schulze, Martin Krauss, Department of Effect-Directed Analysis, Helmholtz Centre for Environmental Research - UFZ, Leipzig, Germany
LICENSE: CC0
COPYRIGHT: Copyright (C) 2023
COMMENT: CONFIDENCE Reference Standard (Level 1)
CH$NAME: Anastrozole
CH$NAME: 2-[3-(2-cyanopropan-2-yl)-5-(1,2,4-triazol-1-ylmethyl)phenyl]-2-methylpropanenitrile
CH$COMPOUND_CLASS: N/A; Environmental Standard
CH$FORMULA: C17H19N5
CH$EXACT_MASS: 293.164045608
CH$SMILES: CC(C)(C#N)C1=CC(=CC(CN2C=NC=N2)=C1)C(C)(C)C#N
CH$IUPAC: InChI=1S/C17H19N5/c1-16(2,9-18)14-5-13(8-22-12-20-11-21-22)6-15(7-14)17(3,4)10-19/h5-7,11-12H,8H2,1-4H3
CH$LINK: CAS 120511-73-1
CH$LINK: CHEBI 2704
CH$LINK: KEGG C08159
CH$LINK: PUBCHEM CID:2187
CH$LINK: INCHIKEY YBBLVLTVTVSKRW-UHFFFAOYSA-N
CH$LINK: CHEMSPIDER 2102
CH$LINK: COMPTOX DTXSID9022607
AC$INSTRUMENT: LTQ Orbitrap XL Thermo Scientific
AC$INSTRUMENT_TYPE: LC-ESI-ITFT
AC$MASS_SPECTROMETRY: MS_TYPE MS2
AC$MASS_SPECTROMETRY: ION_MODE POSITIVE
AC$MASS_SPECTROMETRY: IONIZATION ESI
AC$MASS_SPECTROMETRY: FRAGMENTATION_MODE HCD
AC$MASS_SPECTROMETRY: COLLISION_ENERGY 40 % (nominal)
AC$MASS_SPECTROMETRY: RESOLUTION 15000
AC$MASS_SPECTROMETRY: MASS_RANGE_M/Z 50-305
AC$CHROMATOGRAPHY: COLUMN_NAME Kinetex Evo C18 2.6 um 50 x 2.1 mm
AC$CHROMATOGRAPHY: FLOW_GRADIENT 95/5 at 0 min, 95/5 at 1 min, 0/100 at 13 min, 0/100 at 24 min, 95/5 at 24.3 min, 95/5 at 32 min
AC$CHROMATOGRAPHY: FLOW_RATE 300 uL/min
AC$CHROMATOGRAPHY: RETENTION_TIME 8.794 min
MS$FOCUSED_ION: BASE_PEAK 293.1065
MS$FOCUSED_ION: PRECURSOR_M/Z 293.1635
MS$FOCUSED_ION: PRECURSOR_TYPE [M]+
MS$FOCUSED_ION: PRECURSOR_INTENSITY 58793668
MS$DATA_PROCESSING: RECALIBRATE loess on assigned fragments and MS1
MS$DATA_PROCESSING: REANALYZE Peaks with additional N2/O included
MS$DATA_PROCESSING: WHOLE RMassBank 3.11.2
PK$SPLASH: splash10-014i-9000000000-0ced7cd21f2911095c19
PK$ANNOTATION: m/z tentative_formula formula_count mass error(ppm)
  57.0696 C4H9+ 1 57.0699 -4.95
  67.054 C5H7+ 1 67.0542 -2.99
  69.0697 C5H9+ 1 69.0699 -2.91
  70.0774 C5H10+ 1 70.0777 -4.67
  82.0525 C4H6N2+ 1 82.0525 -0.99
  137.1074 C8H13N2+ 1 137.1073 0.34
  161.0954 C9H11N3+ 1 161.0947 3.9
  166.1093 C7H12N5+ 1 166.1087 3.56
PK$NUM_PEAK: 8
PK$PEAK: m/z int. rel.int.
  57.0696 1446107.5 282
  67.054 105247.3 20
  69.0697 5108154 999
  70.0774 50173.4 9
  82.0525 412391.8 80
  137.1074 242325.8 47
  161.0954 91229 17
  166.1093 266964.1 52
//
