ACCESSION: MSBNK-UFZ-UF402203
RECORD_TITLE: Azoxystrobin; LC-ESI-ITFT; MS2; CE: 35; R=15000; [M+H]+
DATE: 2017.01.05
AUTHORS: Schulze T, Krauss M, Department of Effect-Directed Analysis, Helmholtz Centre for Environmental Research - UFZ GmbH, Leipzig, Germany
LICENSE: CC BY
COPYRIGHT: Copyright (C) 2017
COMMENT: CONFIDENCE standard compound
COMMENT: INTERNAL_ID 4022
CH$NAME: Azoxystrobin
CH$NAME: Methyl (E)-2-[2-[6-(2-cyanophenoxy)pyrimidin-4-YL]oxyphenyl]-3-methoxy-prop-2-enoate
CH$COMPOUND_CLASS: N/A; Environmental Standard
CH$FORMULA: C22H17N3O5
CH$EXACT_MASS: 403.1168206
CH$SMILES: CO/C=C(\C1=CC=CC=C1OC2=NC=NC(=C2)OC3=CC=CC=C3C#N)/C(=O)OC
CH$IUPAC: InChI=1S/C22H17N3O5/c1-27-13-17(22(26)28-2)16-8-4-6-10-19(16)30-21-11-20(24-14-25-21)29-18-9-5-3-7-15(18)12-23/h3-11,13-14H,1-2H3/b17-13+
CH$LINK: CAS 131860-33-8
CH$LINK: CHEBI CHEBI:40909
CH$LINK: CHEMSPIDER 2298772
CH$LINK: COMPTOX DTXSID0032520
CH$LINK: INCHIKEY WFDXOXNFNRHQEC-GHRIWEEISA-N
CH$LINK: KEGG C18558
CH$LINK: PUBCHEM CID:3034285
AC$INSTRUMENT: LTQ Orbitrap XL Thermo Scientific
AC$INSTRUMENT_TYPE: LC-ESI-ITFT
AC$MASS_SPECTROMETRY: MS_TYPE MS2
AC$MASS_SPECTROMETRY: ION_MODE POSITIVE
AC$MASS_SPECTROMETRY: IONIZATION ESI
AC$MASS_SPECTROMETRY: FRAGMENTATION_MODE CID
AC$MASS_SPECTROMETRY: COLLISION_ENERGY 35 (nominal)
AC$MASS_SPECTROMETRY: RESOLUTION 15000
AC$CHROMATOGRAPHY: COLUMN_NAME Kinetex Core-Shell C18 2.6 um, 3.0 x 100 mm, Phenomenex
AC$CHROMATOGRAPHY: FLOW_GRADIENT 90/10 at 0 min, 80/20 at 3.2 min, 5/95 at 17.8 min, 5/95 at 37.8 min, 90/10 at 37.9 min, 90/10 at 47 min
AC$CHROMATOGRAPHY: FLOW_RATE 200 uL/min
AC$CHROMATOGRAPHY: RETENTION_TIME 24.061 min
AC$CHROMATOGRAPHY: SOLVENT A water with 0.1% formic acid
AC$CHROMATOGRAPHY: SOLVENT B methanol with 0.1% formic acid
MS$FOCUSED_ION: BASE_PEAK 254.1429
MS$FOCUSED_ION: PRECURSOR_M/Z 404.1241
MS$FOCUSED_ION: PRECURSOR_TYPE [M+H]+
MS$DATA_PROCESSING: RECALIBRATE loess on assigned fragments and MS1
MS$DATA_PROCESSING: REANALYZE Peaks with additional N2/O included
MS$DATA_PROCESSING: WHOLE RMassBank 2.2.1
PK$SPLASH: splash10-00di-0009000000-d9c8c3d26564f80ae07d
PK$ANNOTATION: m/z tentative_formula formula_count mass error(ppm)
  188.1035 C7H14N3O3+ 2 188.103 2.9
  328.1079 C20H14N3O2+ 2 328.1081 -0.44
  344.1032 C20H14N3O3+ 2 344.103 0.74
  372.0977 C21H14N3O4+ 1 372.0979 -0.38
PK$NUM_PEAK: 4
PK$PEAK: m/z int. rel.int.
  188.1035 5070.6 3
  328.1079 3812.9 2
  344.1032 14510.1 8
  372.0977 1662649.9 999
//
