ACCESSION: MSBNK-UFZ-WANA0156237762PH
RECORD_TITLE: Fenpropimorph; LC-ESI-ITFT; MS2; CE: 80%; R=15000; [M+H]+
DATE: 2023.08.13
AUTHORS: Tobias Schulze, Martin Krauss, Department of Effect-Directed Analysis, Helmholtz Centre for Environmental Research - UFZ, Leipzig, Germany
LICENSE: CC0
COPYRIGHT: Copyright (C) 2023
COMMENT: CONFIDENCE Reference Standard (Level 1)
CH$NAME: Fenpropimorph
CH$NAME: (2S,6R)-4-[3-(4-tert-butylphenyl)-2-methylpropyl]-2,6-dimethylmorpholine
CH$COMPOUND_CLASS: N/A; Environmental Standard
CH$FORMULA: C20H33NO
CH$EXACT_MASS: 303.256214676
CH$SMILES: CC(CN1C[C@H](C)O[C@H](C)C1)CC1=CC=C(C=C1)C(C)(C)C
CH$IUPAC: InChI=1S/C20H33NO/c1-15(12-21-13-16(2)22-17(3)14-21)11-18-7-9-19(10-8-18)20(4,5)6/h7-10,15-17H,11-14H2,1-6H3/t15?,16-,17+
CH$LINK: CAS 80641-49-2
CH$LINK: CHEBI CHEBI:143732
CH$LINK: KEGG C18787
CH$LINK: PUBCHEM CID:93365
CH$LINK: INCHIKEY RYAUSSKQMZRMAI-ALOPSCKCSA-N
CH$LINK: CHEMSPIDER 84290
CH$LINK: COMPTOX DTXSID4034601
AC$INSTRUMENT: LTQ Orbitrap XL Thermo Scientific
AC$INSTRUMENT_TYPE: LC-ESI-ITFT
AC$MASS_SPECTROMETRY: MS_TYPE MS2
AC$MASS_SPECTROMETRY: ION_MODE POSITIVE
AC$MASS_SPECTROMETRY: IONIZATION ESI
AC$MASS_SPECTROMETRY: FRAGMENTATION_MODE HCD
AC$MASS_SPECTROMETRY: COLLISION_ENERGY 80 % (nominal)
AC$MASS_SPECTROMETRY: RESOLUTION 15000
AC$MASS_SPECTROMETRY: MASS_RANGE_M/Z 50-315
AC$CHROMATOGRAPHY: COLUMN_NAME Kinetex Evo C18 2.6 um 50 x 2.1 mm
AC$CHROMATOGRAPHY: FLOW_GRADIENT 95/5 at 0 min, 95/5 at 1 min, 0/100 at 13 min, 0/100 at 24 min, 95/5 at 24.3 min, 95/5 at 32 min
AC$CHROMATOGRAPHY: FLOW_RATE 300 uL/min
AC$CHROMATOGRAPHY: RETENTION_TIME 9.129 min
MS$FOCUSED_ION: BASE_PEAK 274.2536
MS$FOCUSED_ION: PRECURSOR_M/Z 304.2635
MS$FOCUSED_ION: PRECURSOR_TYPE [M+H]+
MS$FOCUSED_ION: PRECURSOR_INTENSITY 100896.9
MS$DATA_PROCESSING: RECALIBRATE loess on assigned fragments and MS1
MS$DATA_PROCESSING: REANALYZE Peaks with additional N2/O included
MS$DATA_PROCESSING: WHOLE RMassBank 3.11.2
PK$SPLASH: splash10-052b-1900000000-63d133b11ccd3542ae4d
PK$ANNOTATION: m/z tentative_formula formula_count mass error(ppm)
  57.0699 C4H9+ 1 57.0699 -0.33
  58.0651 C3H8N+ 1 58.0651 -1.02
  72.0809 C4H10N+ 1 72.0808 1.79
  91.0545 C7H7+ 1 91.0542 2.95
  98.0967 C6H12N+ 1 98.0964 3.09
  105.0702 C8H9+ 1 105.0699 3.48
  107.0859 C8H11+ 1 107.0855 3.91
  116.1074 C6H14NO+ 1 116.107 3.2
  117.0704 C9H9+ 1 117.0699 4.43
  119.0859 C9H11+ 1 119.0855 3.13
  132.0938 C10H12+ 1 132.0934 3.51
  147.1173 C11H15+ 1 147.1168 2.99
PK$NUM_PEAK: 12
PK$PEAK: m/z int. rel.int.
  57.0699 7546.9 187
  58.0651 4363.5 108
  72.0809 1594.6 39
  91.0545 1923 47
  98.0967 2503.7 62
  105.0702 9742.3 242
  107.0859 1988 49
  116.1074 4171.7 103
  117.0704 2154 53
  119.0859 12033.8 299
  132.0938 16555.5 412
  147.1173 40118.1 999
//
