ACCESSION: MSBNK-UFZ-WANA411213D9F1PH
RECORD_TITLE: 4-tert-Butylbenzenesulfonamide; LC-ESI-ITFT; MS2; CE: 50%; R=15000; [M+H]+
DATE: 2023.08.12
AUTHORS: Tobias Schulze, Martin Krauss, Department of Effect-Directed Analysis, Helmholtz Centre for Environmental Research - UFZ, Leipzig, Germany
LICENSE: CC0
COPYRIGHT: Copyright (C) 2023
COMMENT: CONFIDENCE Reference Standard (Level 1)
CH$NAME: 4-tert-Butylbenzenesulfonamide
CH$COMPOUND_CLASS: N/A; Environmental Standard
CH$FORMULA: C10H15NO2S
CH$EXACT_MASS: 213.08234972
CH$SMILES: CC(C)(C)C1=CC=C(C=C1)S(N)(=O)=O
CH$IUPAC: InChI=1S/C10H15NO2S/c1-10(2,3)8-4-6-9(7-5-8)14(11,12)13/h4-7H,1-3H3,(H2,11,12,13)
CH$LINK: CAS 6292-59-7
CH$LINK: PUBCHEM CID:222872
CH$LINK: INCHIKEY KYDZEZNYRFJCSA-UHFFFAOYSA-N
CH$LINK: CHEMSPIDER 193526
CH$LINK: COMPTOX DTXSID70278754
AC$INSTRUMENT: LTQ Orbitrap XL Thermo Scientific
AC$INSTRUMENT_TYPE: LC-ESI-ITFT
AC$MASS_SPECTROMETRY: MS_TYPE MS2
AC$MASS_SPECTROMETRY: ION_MODE POSITIVE
AC$MASS_SPECTROMETRY: IONIZATION ESI
AC$MASS_SPECTROMETRY: FRAGMENTATION_MODE HCD
AC$MASS_SPECTROMETRY: COLLISION_ENERGY 50 % (nominal)
AC$MASS_SPECTROMETRY: RESOLUTION 15000
AC$MASS_SPECTROMETRY: MASS_RANGE_M/Z 50-225
AC$CHROMATOGRAPHY: COLUMN_NAME Kinetex Evo C18 2.6 um 50 x 2.1 mm
AC$CHROMATOGRAPHY: FLOW_GRADIENT 95/5 at 0 min, 95/5 at 1 min, 0/100 at 13 min, 0/100 at 24 min, 95/5 at 24.3 min, 95/5 at 32 min
AC$CHROMATOGRAPHY: FLOW_RATE 300 uL/min
AC$CHROMATOGRAPHY: RETENTION_TIME 9.307 min
MS$FOCUSED_ION: BASE_PEAK 358.238
MS$FOCUSED_ION: PRECURSOR_M/Z 214.0896
MS$FOCUSED_ION: PRECURSOR_TYPE [M+H]+
MS$FOCUSED_ION: PRECURSOR_INTENSITY 135425.36
MS$DATA_PROCESSING: RECALIBRATE loess on assigned fragments and MS1
MS$DATA_PROCESSING: REANALYZE Peaks with additional N2/O included
MS$DATA_PROCESSING: WHOLE RMassBank 3.11.2
PK$SPLASH: splash10-0a4l-5900000000-4af16fbe977ddea1d81d
PK$ANNOTATION: m/z tentative_formula formula_count mass error(ppm)
  57.0697 C4H9+ 1 57.0699 -3.11
  77.0387 C6H5+ 1 77.0386 1.01
  91.0543 C7H7+ 1 91.0542 0.37
  93.0697 C7H9+ 1 93.0699 -1.46
  105.07 C8H9+ 1 105.0699 1.39
  131.0856 C10H11+ 1 131.0855 0.84
  133.1015 C10H13+ 1 133.1012 2.09
  151.1115 C10H15O+ 1 151.1117 -1.71
  197.0639 C10H13O2S+ 1 197.0631 4.15
PK$NUM_PEAK: 9
PK$PEAK: m/z int. rel.int.
  57.0697 1145.8 92
  77.0387 2106.7 169
  91.0543 9877.6 794
  93.0697 1045.5 84
  105.07 12421 999
  131.0856 1794 144
  133.1015 3206.3 257
  151.1115 2973.4 239
  197.0639 1584 127
//
