ACCESSION: MSBNK-UFZ-WANA0017213166PH
RECORD_TITLE: Isoproturon; LC-ESI-ITFT; MS2; CE: 70%; R=15000; [M+H]+
DATE: 2023.08.13
AUTHORS: Tobias Schulze, Martin Krauss, Department of Effect-Directed Analysis, Helmholtz Centre for Environmental Research - UFZ, Leipzig, Germany
LICENSE: CC0
COPYRIGHT: Copyright (C) 2023
COMMENT: CONFIDENCE Reference Standard (Level 1)
CH$NAME: Isoproturon
CH$NAME: 1,1-dimethyl-3-(4-propan-2-ylphenyl)urea
CH$COMPOUND_CLASS: N/A; Environmental Standard
CH$FORMULA: C12H18N2O
CH$EXACT_MASS: 206.141913196
CH$SMILES: CC(C)C1=CC=C(NC(=O)N(C)C)C=C1
CH$IUPAC: InChI=1S/C12H18N2O/c1-9(2)10-5-7-11(8-6-10)13-12(15)14(3)4/h5-9H,1-4H3,(H,13,15)
CH$LINK: CAS 34123-59-6
CH$LINK: CHEBI CHEBI:6049
CH$LINK: KEGG C11005
CH$LINK: PUBCHEM CID:36679
CH$LINK: INCHIKEY PUIYMUZLKQOUOZ-UHFFFAOYSA-N
CH$LINK: CHEMSPIDER 33695
CH$LINK: COMPTOX DTXSID1042077
AC$INSTRUMENT: LTQ Orbitrap XL Thermo Scientific
AC$INSTRUMENT_TYPE: LC-ESI-ITFT
AC$MASS_SPECTROMETRY: MS_TYPE MS2
AC$MASS_SPECTROMETRY: ION_MODE POSITIVE
AC$MASS_SPECTROMETRY: IONIZATION ESI
AC$MASS_SPECTROMETRY: FRAGMENTATION_MODE HCD
AC$MASS_SPECTROMETRY: COLLISION_ENERGY 70 % (nominal)
AC$MASS_SPECTROMETRY: RESOLUTION 15000
AC$MASS_SPECTROMETRY: MASS_RANGE_M/Z 50-220
AC$CHROMATOGRAPHY: COLUMN_NAME Kinetex Evo C18 2.6 um 50 x 2.1 mm
AC$CHROMATOGRAPHY: FLOW_GRADIENT 95/5 at 0 min, 95/5 at 1 min, 0/100 at 13 min, 0/100 at 24 min, 95/5 at 24.3 min, 95/5 at 32 min
AC$CHROMATOGRAPHY: FLOW_RATE 300 uL/min
AC$CHROMATOGRAPHY: RETENTION_TIME 10.022 min
MS$FOCUSED_ION: BASE_PEAK 207.1497
MS$FOCUSED_ION: PRECURSOR_M/Z 207.1492
MS$FOCUSED_ION: PRECURSOR_TYPE [M+H]+
MS$FOCUSED_ION: PRECURSOR_INTENSITY 40492572
MS$DATA_PROCESSING: RECALIBRATE loess on assigned fragments and MS1
MS$DATA_PROCESSING: REANALYZE Peaks with additional N2/O included
MS$DATA_PROCESSING: WHOLE RMassBank 3.11.2
PK$SPLASH: splash10-00di-9100000000-0cf74ad3ec35346ba7f7
PK$ANNOTATION: m/z tentative_formula formula_count mass error(ppm)
  72.0442 C3H6NO+ 1 72.0444 -2.22
  91.0542 C7H7+ 1 91.0542 -0.57
  92.0494 C6H6N+ 1 92.0495 -0.71
  93.0699 C7H9+ 1 93.0699 0.57
  107.0855 C8H11+ 1 107.0855 -0.23
  117.0697 C9H9+ 1 117.0699 -1.57
  119.0731 C8H9N+ 1 119.073 0.98
  120.0443 C7H6NO+ 1 120.0444 -0.61
  134.0964 C9H12N+ 1 134.0964 -0.5
  147.0915 C9H11N2+ 1 147.0917 -1.22
  162.0913 C10H12NO+ 1 162.0913 -0.4
  165.1022 C9H13N2O+ 1 165.1022 -0.36
  207.1487 C12H19N2O+ 1 207.1492 -2.32
PK$NUM_PEAK: 13
PK$PEAK: m/z int. rel.int.
  72.0442 7884121.5 999
  91.0542 87098 11
  92.0494 29494.4 3
  93.0699 24755.5 3
  107.0855 103671.8 13
  117.0697 32881.9 4
  119.0731 24219.6 3
  120.0443 95752.3 12
  134.0964 793636.7 100
  147.0915 88161.1 11
  162.0913 66454 8
  165.1022 257763.4 32
  207.1487 31891.9 4
//
