ACCESSION: MSBNK-UFZ-WANA048811C9CFPH
RECORD_TITLE: Boscalid; LC-ESI-ITFT; MS2; CE: 40%; R=15000; [M+H]+
DATE: 2023.08.12
AUTHORS: Tobias Schulze, Martin Krauss, Department of Effect-Directed Analysis, Helmholtz Centre for Environmental Research - UFZ, Leipzig, Germany
LICENSE: CC0
COPYRIGHT: Copyright (C) 2023
COMMENT: CONFIDENCE Reference Standard (Level 1)
CH$NAME: Boscalid
CH$NAME: 2-chloro-N-[2-(4-chlorophenyl)phenyl]pyridine-3-carboxamide
CH$COMPOUND_CLASS: N/A; Environmental Standard
CH$FORMULA: C18H12Cl2N2O
CH$EXACT_MASS: 342.032668364
CH$SMILES: ClC1=CC=C(C=C1)C1=CC=CC=C1NC(=O)C1=CC=CN=C1Cl
CH$IUPAC: InChI=1S/C18H12Cl2N2O/c19-13-9-7-12(8-10-13)14-4-1-2-6-16(14)22-18(23)15-5-3-11-21-17(15)20/h1-11H,(H,22,23)
CH$LINK: CAS 54494-12-1
CH$LINK: CHEBI CHEBI:81822
CH$LINK: KEGG C18547
CH$LINK: PUBCHEM CID:213013
CH$LINK: INCHIKEY WYEMLYFITZORAB-UHFFFAOYSA-N
CH$LINK: CHEMSPIDER 184713
CH$LINK: COMPTOX DTXSID6034392
AC$INSTRUMENT: LTQ Orbitrap XL Thermo Scientific
AC$INSTRUMENT_TYPE: LC-ESI-ITFT
AC$MASS_SPECTROMETRY: MS_TYPE MS2
AC$MASS_SPECTROMETRY: ION_MODE POSITIVE
AC$MASS_SPECTROMETRY: IONIZATION ESI
AC$MASS_SPECTROMETRY: FRAGMENTATION_MODE HCD
AC$MASS_SPECTROMETRY: COLLISION_ENERGY 40 % (nominal)
AC$MASS_SPECTROMETRY: RESOLUTION 15000
AC$MASS_SPECTROMETRY: MASS_RANGE_M/Z 50-355
AC$CHROMATOGRAPHY: COLUMN_NAME Kinetex Evo C18 2.6 um 50 x 2.1 mm
AC$CHROMATOGRAPHY: FLOW_GRADIENT 95/5 at 0 min, 95/5 at 1 min, 0/100 at 13 min, 0/100 at 24 min, 95/5 at 24.3 min, 95/5 at 32 min
AC$CHROMATOGRAPHY: FLOW_RATE 300 uL/min
AC$CHROMATOGRAPHY: RETENTION_TIME 11.206 min
MS$FOCUSED_ION: BASE_PEAK 404.1245
MS$FOCUSED_ION: PRECURSOR_M/Z 343.0399
MS$FOCUSED_ION: PRECURSOR_TYPE [M+H]+
MS$FOCUSED_ION: PRECURSOR_INTENSITY 8692095
MS$DATA_PROCESSING: RECALIBRATE loess on assigned fragments and MS1
MS$DATA_PROCESSING: REANALYZE Peaks with additional N2/O included
MS$DATA_PROCESSING: WHOLE RMassBank 3.11.2
PK$SPLASH: splash10-0a4i-0219000000-06197ed219ef4d2cd62e
PK$ANNOTATION: m/z tentative_formula formula_count mass error(ppm)
  78.0337 C5H4N+ 1 78.0338 -1.58
  96.0442 C5H6NO+ 1 96.0444 -2.46
  111.9944 C5H3ClN+ 2 111.9949 -3.96
  114.0105 C5H5ClN+ 2 114.0105 -0.27
  139.9897 C6H3ClNO+ 2 139.9898 -0.76
  271.0864 C18H11N2O+ 1 271.0866 -0.87
  272.0942 C18H12N2O+ 1 272.0944 -0.69
  289.0525 C18H10ClN2+ 1 289.0527 -0.85
  307.063 C18H12ClN2O+ 1 307.0633 -0.71
  343.0397 C18H13Cl2N2O+ 1 343.0399 -0.78
PK$NUM_PEAK: 10
PK$PEAK: m/z int. rel.int.
  78.0337 4846.8 5
  96.0442 5553.1 5
  111.9944 2296.4 2
  114.0105 23563.5 24
  139.9897 218562.4 229
  271.0864 65732.3 68
  272.0942 65481.1 68
  289.0525 10333.8 10
  307.063 953044.9 999
  343.0397 63052.6 66
//
