ACCESSION: MSBNK-UFZ-WANA0292213166PM
RECORD_TITLE: Benzethonium; LC-ESI-ITFT; MS2; CE: 70%; R=15000; [M]+
DATE: 2023.08.13
AUTHORS: Tobias Schulze, Martin Krauss, Department of Effect-Directed Analysis, Helmholtz Centre for Environmental Research - UFZ, Leipzig, Germany
LICENSE: CC0
COPYRIGHT: Copyright (C) 2023
COMMENT: CONFIDENCE Reference Standard (Level 1)
CH$NAME: Benzethonium
CH$NAME: benzyl-dimethyl-[2-[2-[4-(2,4,4-trimethylpentan-2-yl)phenoxy]ethoxy]ethyl]azanium
CH$COMPOUND_CLASS: N/A; Environmental Standard
CH$FORMULA: C27H42NO2
CH$EXACT_MASS: 412.321006004091
CH$SMILES: CC(C)(C)CC(C)(C)C1=CC=C(OCCOCC[N+](C)(C)CC2=CC=CC=C2)C=C1
CH$IUPAC: InChI=1S/C27H42NO2/c1-26(2,3)22-27(4,5)24-13-15-25(16-14-24)30-20-19-29-18-17-28(6,7)21-23-11-9-8-10-12-23/h8-16H,17-22H2,1-7H3/q+1
CH$LINK: CAS 498-77-1
CH$LINK: CHEBI 94725
CH$LINK: PUBCHEM CID:2335
CH$LINK: INCHIKEY SIYLLGKDQZGJHK-UHFFFAOYSA-N
CH$LINK: CHEMSPIDER 2245
CH$LINK: COMPTOX DTXSID5046984
AC$INSTRUMENT: LTQ Orbitrap XL Thermo Scientific
AC$INSTRUMENT_TYPE: LC-ESI-ITFT
AC$MASS_SPECTROMETRY: MS_TYPE MS2
AC$MASS_SPECTROMETRY: ION_MODE POSITIVE
AC$MASS_SPECTROMETRY: IONIZATION ESI
AC$MASS_SPECTROMETRY: FRAGMENTATION_MODE HCD
AC$MASS_SPECTROMETRY: COLLISION_ENERGY 70 % (nominal)
AC$MASS_SPECTROMETRY: RESOLUTION 15000
AC$MASS_SPECTROMETRY: MASS_RANGE_M/Z 50-425
AC$CHROMATOGRAPHY: COLUMN_NAME Kinetex Evo C18 2.6 um 50 x 2.1 mm
AC$CHROMATOGRAPHY: FLOW_GRADIENT 95/5 at 0 min, 95/5 at 1 min, 0/100 at 13 min, 0/100 at 24 min, 95/5 at 24.3 min, 95/5 at 32 min
AC$CHROMATOGRAPHY: FLOW_RATE 300 uL/min
AC$CHROMATOGRAPHY: RETENTION_TIME 11.416 min
MS$FOCUSED_ION: BASE_PEAK 412.3211
MS$FOCUSED_ION: PRECURSOR_M/Z 412.321
MS$FOCUSED_ION: PRECURSOR_TYPE [M]+
MS$FOCUSED_ION: PRECURSOR_INTENSITY 77682624
MS$DATA_PROCESSING: RECALIBRATE loess on assigned fragments and MS1
MS$DATA_PROCESSING: REANALYZE Peaks with additional N2/O included
MS$DATA_PROCESSING: WHOLE RMassBank 3.11.2
PK$SPLASH: splash10-0006-9000000000-7144579dc24ae7258da1
PK$ANNOTATION: m/z tentative_formula formula_count mass error(ppm)
  57.0696 C4H9+ 1 57.0699 -4.11
  58.0649 C3H8N+ 1 58.0651 -4.18
  69.0697 C5H9+ 1 69.0699 -2.05
  70.065 C4H8N+ 1 70.0651 -1.25
  72.0807 C4H10N+ 1 72.0808 -1.5
  84.0808 C5H10N+ 1 84.0808 -0.06
  85.0886 C5H11N+ 1 85.0886 -0.51
  86.06 C4H8NO+ 1 86.06 -0.14
  87.0678 C4H9NO+ 1 87.0679 -1.01
  88.0758 C4H10NO+ 1 88.0757 0.81
  90.0465 C7H6+ 1 90.0464 0.7
  91.0542 C7H7+ 1 91.0542 -0.18
  93.07 C7H9+ 1 93.0699 0.84
  100.0755 C5H10NO+ 1 100.0757 -1.83
  105.07 C8H9+ 1 105.0699 1.49
  107.0488 C7H7O+ 1 107.0491 -2.73
  107.0855 C8H11+ 1 107.0855 -0.53
  109.065 C7H9O+ 1 109.0648 1.99
  114.0915 C6H12NO+ 1 114.0913 1.25
  116.1069 C6H14NO+ 1 116.107 -0.5
  118.0777 C9H10+ 1 118.0777 -0.06
  119.0856 C9H11+ 1 119.0855 0.71
  121.0648 C8H9O+ 1 121.0648 0.09
  134.0964 C9H12N+ 1 134.0964 -0.02
  135.0804 C9H11O+ 1 135.0804 -0.42
  135.1166 C10H15+ 1 135.1168 -1.62
  149.0958 C10H13O+ 1 149.0961 -1.71
  204.1387 C13H18NO+ 1 204.1383 2.02
  208.1336 C12H18NO2+ 1 208.1332 1.8
  233.1901 C16H25O+ 1 233.19 0.55
  320.2584 C20H34NO2+ 1 320.2584 0.03
PK$NUM_PEAK: 31
PK$PEAK: m/z int. rel.int.
  57.0696 2146167 103
  58.0649 1231816.4 59
  69.0697 53117.2 2
  70.065 228941.8 11
  72.0807 7335680 352
  84.0808 185638.6 8
  85.0886 102821.8 4
  86.06 191652.3 9
  87.0678 130730.6 6
  88.0758 58705.8 2
  90.0465 32711.5 1
  91.0542 20767506 999
  93.07 78726.9 3
  100.0755 68544.7 3
  105.07 144748.6 6
  107.0488 41197.1 1
  107.0855 114648.8 5
  109.065 51986.2 2
  114.0915 70467.7 3
  116.1069 135889.6 6
  118.0777 540447.3 25
  119.0856 63288.6 3
  121.0648 163961.6 7
  134.0964 133564.6 6
  135.0804 299169.1 14
  135.1166 95660.3 4
  149.0958 129593.9 6
  204.1387 47759.9 2
  208.1336 42029.7 2
  233.1901 112446.1 5
  320.2584 274365.4 13
//
