ACCESSION: MSBNK-UFZ-WANA263225AF82PH
RECORD_TITLE: 2-Bromoaniline; LC-ESI-ITFT; MS2; CE: 90%; R=15000; [M+H]+
DATE: 2023.08.13
AUTHORS: Tobias Schulze, Martin Krauss, Department of Effect-Directed Analysis, Helmholtz Centre for Environmental Research - UFZ, Leipzig, Germany
LICENSE: CC0
COPYRIGHT: Copyright (C) 2023
COMMENT: CONFIDENCE Reference Standard (Level 1)
CH$NAME: 2-Bromoaniline
CH$COMPOUND_CLASS: N/A; Environmental Standard
CH$FORMULA: C6H6BrN
CH$EXACT_MASS: 170.968361292
CH$SMILES: NC1=C(Br)C=CC=C1
CH$IUPAC: InChI=1S/C6H6BrN/c7-5-3-1-2-4-6(5)8/h1-4H,8H2
CH$LINK: CAS 615-36-1
CH$LINK: PUBCHEM CID:11992
CH$LINK: INCHIKEY AOPBDRUWRLBSDB-UHFFFAOYSA-N
CH$LINK: CHEMSPIDER 21111816
CH$LINK: COMPTOX DTXSID5060645
AC$INSTRUMENT: LTQ Orbitrap XL Thermo Scientific
AC$INSTRUMENT_TYPE: LC-ESI-ITFT
AC$MASS_SPECTROMETRY: MS_TYPE MS2
AC$MASS_SPECTROMETRY: ION_MODE POSITIVE
AC$MASS_SPECTROMETRY: IONIZATION ESI
AC$MASS_SPECTROMETRY: FRAGMENTATION_MODE HCD
AC$MASS_SPECTROMETRY: COLLISION_ENERGY 90 % (nominal)
AC$MASS_SPECTROMETRY: RESOLUTION 15000
AC$MASS_SPECTROMETRY: MASS_RANGE_M/Z 50-185
AC$CHROMATOGRAPHY: COLUMN_NAME Kinetex Evo C18 2.6 um 50 x 2.1 mm
AC$CHROMATOGRAPHY: FLOW_GRADIENT 95/5 at 0 min, 95/5 at 1 min, 0/100 at 13 min, 0/100 at 24 min, 95/5 at 24.3 min, 95/5 at 32 min
AC$CHROMATOGRAPHY: FLOW_RATE 300 uL/min
AC$CHROMATOGRAPHY: RETENTION_TIME 6.217 min
MS$FOCUSED_ION: BASE_PEAK 116.986
MS$FOCUSED_ION: PRECURSOR_M/Z 171.9756
MS$FOCUSED_ION: PRECURSOR_TYPE [M+H]+
MS$FOCUSED_ION: PRECURSOR_INTENSITY 1902240.38
MS$DATA_PROCESSING: RECALIBRATE loess on assigned fragments and MS1
MS$DATA_PROCESSING: REANALYZE Peaks with additional N2/O included
MS$DATA_PROCESSING: WHOLE RMassBank 3.11.2
PK$SPLASH: splash10-0006-9100000000-88a129c660d32dd91315
PK$ANNOTATION: m/z tentative_formula formula_count mass error(ppm)
  65.0385 C5H5+ 1 65.0386 -0.68
  66.0464 C5H6+ 1 66.0464 -0.14
  92.0497 C6H6N+ 1 92.0495 2.11
  93.0574 C6H7N+ 1 93.0573 1.34
  171.9759 C6H7BrN+ 1 171.9756 1.71
PK$NUM_PEAK: 5
PK$PEAK: m/z int. rel.int.
  65.0385 326676.7 719
  66.0464 7384.2 16
  92.0497 453693.5 999
  93.0574 247492.6 544
  171.9759 124103.7 273
//
