ACCESSION: MSBNK-UFZ-WANA0017155BE0PH
RECORD_TITLE: Isoproturon; LC-ESI-ITFT; MS2; CE: 60%; R=15000; [M+H]+
DATE: 2023.08.12
AUTHORS: Tobias Schulze, Martin Krauss, Department of Effect-Directed Analysis, Helmholtz Centre for Environmental Research - UFZ, Leipzig, Germany
LICENSE: CC0
COPYRIGHT: Copyright (C) 2023
COMMENT: CONFIDENCE Reference Standard (Level 1)
CH$NAME: Isoproturon
CH$NAME: 1,1-dimethyl-3-(4-propan-2-ylphenyl)urea
CH$COMPOUND_CLASS: N/A; Environmental Standard
CH$FORMULA: C12H18N2O
CH$EXACT_MASS: 206.141913196
CH$SMILES: CC(C)C1=CC=C(NC(=O)N(C)C)C=C1
CH$IUPAC: InChI=1S/C12H18N2O/c1-9(2)10-5-7-11(8-6-10)13-12(15)14(3)4/h5-9H,1-4H3,(H,13,15)
CH$LINK: CAS 34123-59-6
CH$LINK: CHEBI CHEBI:6049
CH$LINK: KEGG C11005
CH$LINK: PUBCHEM CID:36679
CH$LINK: INCHIKEY PUIYMUZLKQOUOZ-UHFFFAOYSA-N
CH$LINK: CHEMSPIDER 33695
CH$LINK: COMPTOX DTXSID1042077
AC$INSTRUMENT: LTQ Orbitrap XL Thermo Scientific
AC$INSTRUMENT_TYPE: LC-ESI-ITFT
AC$MASS_SPECTROMETRY: MS_TYPE MS2
AC$MASS_SPECTROMETRY: ION_MODE POSITIVE
AC$MASS_SPECTROMETRY: IONIZATION ESI
AC$MASS_SPECTROMETRY: FRAGMENTATION_MODE HCD
AC$MASS_SPECTROMETRY: COLLISION_ENERGY 60 % (nominal)
AC$MASS_SPECTROMETRY: RESOLUTION 15000
AC$MASS_SPECTROMETRY: MASS_RANGE_M/Z 50-220
AC$CHROMATOGRAPHY: COLUMN_NAME Kinetex Evo C18 2.6 um 50 x 2.1 mm
AC$CHROMATOGRAPHY: FLOW_GRADIENT 95/5 at 0 min, 95/5 at 1 min, 0/100 at 13 min, 0/100 at 24 min, 95/5 at 24.3 min, 95/5 at 32 min
AC$CHROMATOGRAPHY: FLOW_RATE 300 uL/min
AC$CHROMATOGRAPHY: RETENTION_TIME 9.872 min
MS$FOCUSED_ION: BASE_PEAK 116.9861
MS$FOCUSED_ION: PRECURSOR_M/Z 207.1492
MS$FOCUSED_ION: PRECURSOR_TYPE [M+H]+
MS$FOCUSED_ION: PRECURSOR_INTENSITY 459425.19
MS$DATA_PROCESSING: RECALIBRATE loess on assigned fragments and MS1
MS$DATA_PROCESSING: REANALYZE Peaks with additional N2/O included
MS$DATA_PROCESSING: WHOLE RMassBank 3.11.2
PK$SPLASH: splash10-00di-9200000000-4f2b7e8fbac62a25e2de
PK$ANNOTATION: m/z tentative_formula formula_count mass error(ppm)
  72.0442 C3H6NO+ 1 72.0444 -2.21
  92.0494 C6H6N+ 1 92.0495 -0.44
  107.0856 C8H11+ 1 107.0855 0.28
  117.0699 C9H9+ 1 117.0699 -0.21
  120.0444 C7H6NO+ 1 120.0444 -0.04
  134.0964 C9H12N+ 1 134.0964 -0.29
  147.0916 C9H11N2+ 1 147.0917 -0.31
  162.0913 C10H12NO+ 1 162.0913 -0.06
  165.1022 C9H13N2O+ 1 165.1022 -0.23
  207.1492 C12H19N2O+ 1 207.1492 -0.15
PK$NUM_PEAK: 10
PK$PEAK: m/z int. rel.int.
  72.0442 4985652.5 999
  92.0494 13057.8 2
  107.0856 30917 6
  117.0699 14349.4 2
  120.0444 60519.1 12
  134.0964 464570.3 93
  147.0916 49409.1 9
  162.0913 87167.9 17
  165.1022 503560.5 100
  207.1492 173082.9 34
//
