ACCESSION: MSBNK-UFZ-WANA0447155BE0PH
RECORD_TITLE: Capecitabine; LC-ESI-ITFT; MS2; CE: 60%; R=15000; [M+H]+
DATE: 2023.08.12
AUTHORS: Tobias Schulze, Martin Krauss, Department of Effect-Directed Analysis, Helmholtz Centre for Environmental Research - UFZ, Leipzig, Germany
LICENSE: CC0
COPYRIGHT: Copyright (C) 2023
COMMENT: CONFIDENCE Reference Standard (Level 1)
CH$NAME: Capecitabine
CH$NAME: pentyl N-[1-[(2R,3R,4S,5R)-3,4-dihydroxy-5-methyloxolan-2-yl]-5-fluoro-2-oxopyrimidin-4-yl]carbamate
CH$COMPOUND_CLASS: N/A; Environmental Standard
CH$FORMULA: C15H22FN3O6
CH$EXACT_MASS: 359.149263644
CH$SMILES: CCCCCOC(=O)NC1=NC(=O)N(C=C1F)[C@@H]1O[C@H](C)[C@@H](O)[C@H]1O
CH$IUPAC: InChI=1S/C15H22FN3O6/c1-3-4-5-6-24-15(23)18-12-9(16)7-19(14(22)17-12)13-11(21)10(20)8(2)25-13/h7-8,10-11,13,20-21H,3-6H2,1-2H3,(H,17,18,22,23)/t8-,10-,11-,13-/m1/s1
CH$LINK: CAS 154361-50-9
CH$LINK: CHEBI CHEBI:31348
CH$LINK: KEGG D01223
CH$LINK: PUBCHEM CID:60953
CH$LINK: INCHIKEY GAGWJHPBXLXJQN-UORFTKCHSA-N
CH$LINK: CHEMSPIDER 54916
CH$LINK: COMPTOX DTXSID3046451
AC$INSTRUMENT: LTQ Orbitrap XL Thermo Scientific
AC$INSTRUMENT_TYPE: LC-ESI-ITFT
AC$MASS_SPECTROMETRY: MS_TYPE MS2
AC$MASS_SPECTROMETRY: ION_MODE POSITIVE
AC$MASS_SPECTROMETRY: IONIZATION ESI
AC$MASS_SPECTROMETRY: FRAGMENTATION_MODE HCD
AC$MASS_SPECTROMETRY: COLLISION_ENERGY 60 % (nominal)
AC$MASS_SPECTROMETRY: RESOLUTION 15000
AC$MASS_SPECTROMETRY: MASS_RANGE_M/Z 50-375
AC$CHROMATOGRAPHY: COLUMN_NAME Kinetex Evo C18 2.6 um 50 x 2.1 mm
AC$CHROMATOGRAPHY: FLOW_GRADIENT 95/5 at 0 min, 95/5 at 1 min, 0/100 at 13 min, 0/100 at 24 min, 95/5 at 24.3 min, 95/5 at 32 min
AC$CHROMATOGRAPHY: FLOW_RATE 300 uL/min
AC$CHROMATOGRAPHY: RETENTION_TIME 9.491 min
MS$FOCUSED_ION: BASE_PEAK 360.1579
MS$FOCUSED_ION: PRECURSOR_M/Z 360.1565
MS$FOCUSED_ION: PRECURSOR_TYPE [M+H]+
MS$FOCUSED_ION: PRECURSOR_INTENSITY 11614605
MS$DATA_PROCESSING: RECALIBRATE loess on assigned fragments and MS1
MS$DATA_PROCESSING: REANALYZE Peaks with additional N2/O included
MS$DATA_PROCESSING: WHOLE RMassBank 3.11.2
PK$SPLASH: splash10-001i-0900000000-a9d868dfc894a29fa956
PK$ANNOTATION: m/z tentative_formula formula_count mass error(ppm)
  71.0857 C5H11+ 1 71.0855 2.71
  130.0416 C9H6O+ 2 130.0413 2.32
  174.0316 C10H6O3+ 3 174.0311 2.76
  185.9994 C10HFNO2+ 1 185.9986 4.64
PK$NUM_PEAK: 4
PK$PEAK: m/z int. rel.int.
  71.0857 6199.3 44
  130.0416 137914.6 999
  174.0316 53595.8 388
  185.9994 2496.7 18
//
