ACCESSION: MSBNK-UFZ-WANA020025AF82PH
RECORD_TITLE: 1,2-Benzisothiazolinone; LC-ESI-ITFT; MS2; CE: 90%; R=15000; [M+H]+
DATE: 2023.08.13
AUTHORS: Tobias Schulze, Martin Krauss, Department of Effect-Directed Analysis, Helmholtz Centre for Environmental Research - UFZ, Leipzig, Germany
LICENSE: CC0
COPYRIGHT: Copyright (C) 2023
COMMENT: CONFIDENCE Reference Standard (Level 1)
CH$NAME: 1,2-Benzisothiazolinone
CH$NAME: 1,2-Benzisothiazol-3(2H)-one
CH$NAME: 1,2-benzothiazol-3-one
CH$COMPOUND_CLASS: N/A; Environmental Standard
CH$FORMULA: C7H5NOS
CH$EXACT_MASS: 151.00918478
CH$SMILES: O=C1NSC2=CC=CC=C12
CH$IUPAC: InChI=1S/C7H5NOS/c9-7-5-3-1-2-4-6(5)10-8-7/h1-4H,(H,8,9)
CH$LINK: CAS 2634-33-5
CH$LINK: CHEBI CHEBI:167099
CH$LINK: PUBCHEM CID:17520
CH$LINK: INCHIKEY DMSMPAJRVJJAGA-UHFFFAOYSA-N
CH$LINK: CHEMSPIDER 16567
CH$LINK: COMPTOX DTXSID5032523
AC$INSTRUMENT: LTQ Orbitrap XL Thermo Scientific
AC$INSTRUMENT_TYPE: LC-ESI-ITFT
AC$MASS_SPECTROMETRY: MS_TYPE MS2
AC$MASS_SPECTROMETRY: ION_MODE POSITIVE
AC$MASS_SPECTROMETRY: IONIZATION ESI
AC$MASS_SPECTROMETRY: FRAGMENTATION_MODE HCD
AC$MASS_SPECTROMETRY: COLLISION_ENERGY 90 % (nominal)
AC$MASS_SPECTROMETRY: RESOLUTION 15000
AC$MASS_SPECTROMETRY: MASS_RANGE_M/Z 50-165
AC$CHROMATOGRAPHY: COLUMN_NAME Kinetex Evo C18 2.6 um 50 x 2.1 mm
AC$CHROMATOGRAPHY: FLOW_GRADIENT 95/5 at 0 min, 95/5 at 1 min, 0/100 at 13 min, 0/100 at 24 min, 95/5 at 24.3 min, 95/5 at 32 min
AC$CHROMATOGRAPHY: FLOW_RATE 300 uL/min
AC$CHROMATOGRAPHY: RETENTION_TIME 4.975 min
MS$FOCUSED_ION: BASE_PEAK 152.0169
MS$FOCUSED_ION: PRECURSOR_M/Z 152.0165
MS$FOCUSED_ION: PRECURSOR_TYPE [M+H]+
MS$FOCUSED_ION: PRECURSOR_INTENSITY 6690627.5
MS$DATA_PROCESSING: RECALIBRATE loess on assigned fragments and MS1
MS$DATA_PROCESSING: REANALYZE Peaks with additional N2/O included
MS$DATA_PROCESSING: WHOLE RMassBank 3.11.2
PK$SPLASH: splash10-0pc0-1900000000-1a051017365f567311b7
PK$ANNOTATION: m/z tentative_formula formula_count mass error(ppm)
  63.023 C5H3+ 1 63.0229 0.54
  65.0386 C5H5+ 1 65.0386 -0.21
  77.0387 C6H5+ 1 77.0386 1.57
  80.0496 C5H6N+ 1 80.0495 1.7
  90.034 C6H4N+ 1 90.0338 2.26
  92.0499 C6H6N+ 1 92.0495 4.1
  97.0109 C5H5S+ 1 97.0106 2.47
  105.0338 C7H5O+ 1 105.0335 2.54
  106.9953 C6H3S+ 1 106.995 2.48
  108.0032 C6H4S+ 1 108.0028 3.09
  109.0109 C6H5S+ 1 109.0106 2.14
  119.0367 C7H5NO+ 1 119.0366 1.24
  124.0218 C6H6NS+ 1 124.0215 2.15
  132.9986 C7H3NS+ 1 132.9981 4.3
  134.0062 C7H4NS+ 1 134.0059 2.34
  135.998 C7H4OS+ 1 135.9977 1.57
  152.0168 C7H6NOS+ 1 152.0165 2.14
PK$NUM_PEAK: 17
PK$PEAK: m/z int. rel.int.
  63.023 6219.7 7
  65.0386 13484.9 16
  77.0387 50185.6 61
  80.0496 114900.6 141
  90.034 65657.2 80
  92.0499 1196.5 1
  97.0109 11835.2 14
  105.0338 359880.4 443
  106.9953 25293.7 31
  108.0032 2125 2
  109.0109 463373 571
  119.0367 2389.6 2
  124.0218 17350.7 21
  132.9986 3920.6 4
  134.0062 533995.9 658
  135.998 11024.5 13
  152.0168 810662.4 999
//
