ACCESSION: MSBNK-UFZ-WANA372503B085PH
RECORD_TITLE: Prochloraz BTS44596; LC-ESI-ITFT; MS2; CE: 20%; R=15000; [M+H]+
DATE: 2023.08.12
AUTHORS: Tobias Schulze, Martin Krauss, Department of Effect-Directed Analysis, Helmholtz Centre for Environmental Research - UFZ, Leipzig, Germany
LICENSE: CC0
COPYRIGHT: Copyright (C) 2023
COMMENT: CONFIDENCE Reference Standard (Level 1)
CH$NAME: Prochloraz BTS44596
CH$NAME: N-(Propyl(2-(2,4,6-trichlorophenoxy)ethyl)carbamoyl)formamide
CH$NAME: N-[propyl-[2-(2,4,6-trichlorophenoxy)ethyl]carbamoyl]formamide
CH$COMPOUND_CLASS: N/A; Environmental Standard
CH$FORMULA: C13H15Cl3N2O3
CH$EXACT_MASS: 352.01482538
CH$SMILES: CCCN(CCOC1=C(Cl)C=C(Cl)C=C1Cl)C(=O)NC=O
CH$IUPAC: InChI=1S/C13H15Cl3N2O3/c1-2-3-18(13(20)17-8-19)4-5-21-12-10(15)6-9(14)7-11(12)16/h6-8H,2-5H2,1H3,(H,17,19,20)
CH$LINK: PUBCHEM CID:57472173
CH$LINK: INCHIKEY RHDVQZWCBQXOJW-UHFFFAOYSA-N
CH$LINK: CHEMSPIDER 23255241
CH$LINK: COMPTOX DTXSID50891607
AC$INSTRUMENT: LTQ Orbitrap XL Thermo Scientific
AC$INSTRUMENT_TYPE: LC-ESI-ITFT
AC$MASS_SPECTROMETRY: MS_TYPE MS2
AC$MASS_SPECTROMETRY: ION_MODE POSITIVE
AC$MASS_SPECTROMETRY: IONIZATION ESI
AC$MASS_SPECTROMETRY: FRAGMENTATION_MODE HCD
AC$MASS_SPECTROMETRY: COLLISION_ENERGY 20 % (nominal)
AC$MASS_SPECTROMETRY: RESOLUTION 15000
AC$MASS_SPECTROMETRY: MASS_RANGE_M/Z 50-365
AC$CHROMATOGRAPHY: COLUMN_NAME Kinetex Evo C18 2.6 um 50 x 2.1 mm
AC$CHROMATOGRAPHY: FLOW_GRADIENT 95/5 at 0 min, 95/5 at 1 min, 0/100 at 13 min, 0/100 at 24 min, 95/5 at 24.3 min, 95/5 at 32 min
AC$CHROMATOGRAPHY: FLOW_RATE 300 uL/min
AC$CHROMATOGRAPHY: RETENTION_TIME 12.356 min
MS$FOCUSED_ION: BASE_PEAK 353.0231
MS$FOCUSED_ION: PRECURSOR_M/Z 353.0221
MS$FOCUSED_ION: PRECURSOR_TYPE [M+H]+
MS$FOCUSED_ION: PRECURSOR_INTENSITY 3448451
MS$DATA_PROCESSING: RECALIBRATE loess on assigned fragments and MS1
MS$DATA_PROCESSING: REANALYZE Peaks with additional N2/O included
MS$DATA_PROCESSING: WHOLE RMassBank 3.11.2
PK$SPLASH: splash10-0a4i-0009000000-e55dc9d5b9e9aca2d03a
PK$ANNOTATION: m/z tentative_formula formula_count mass error(ppm)
  70.0288 C3H4NO+ 1 70.0287 1.13
  265.9546 C9H7Cl3NO2+ 1 265.9537 3.39
  280.0063 C11H13Cl3NO+ 1 280.0057 2.14
  308.0015 C12H13Cl3NO2+ 1 308.0006 2.95
  353.0231 C13H16Cl3N2O3+ 1 353.0221 2.72
PK$NUM_PEAK: 5
PK$PEAK: m/z int. rel.int.
  70.0288 2135.5 19
  265.9546 11664.3 104
  280.0063 1411.5 12
  308.0015 111008 999
  353.0231 15861.1 142
//
