ACCESSION: MSBNK-UFZ-WANA4087213166PH
RECORD_TITLE: Metazachlor BH 479-9; LC-ESI-ITFT; MS2; CE: 70%; R=15000; [M+H]+
DATE: 2023.08.13
AUTHORS: Tobias Schulze, Martin Krauss, Department of Effect-Directed Analysis, Helmholtz Centre for Environmental Research - UFZ, Leipzig, Germany
LICENSE: CC0
COPYRIGHT: Copyright (C) 2023
COMMENT: CONFIDENCE Reference Standard (Level 1)
CH$NAME: Metazachlor BH 479-9
CH$NAME: 2-[2-[2,6-dimethyl-N-(pyrazol-1-ylmethyl)anilino]-2-oxoethyl]sulfinylacetic acid
CH$COMPOUND_CLASS: N/A; Environmental Standard
CH$FORMULA: C16H19N3O4S
CH$EXACT_MASS: 349.109627088
CH$SMILES: CC1=CC=CC(C)=C1N(CN1C=CC=N1)C(=O)CS(=O)CC(O)=O
CH$IUPAC: InChI=1S/C16H19N3O4S/c1-12-5-3-6-13(2)16(12)19(11-18-8-4-7-17-18)14(20)9-24(23)10-15(21)22/h3-8H,9-11H2,1-2H3,(H,21,22)
CH$LINK: PUBCHEM CID:139291839
CH$LINK: INCHIKEY DYCHUHSHQIYFAI-UHFFFAOYSA-N
CH$LINK: CHEMSPIDER 71047190
CH$LINK: COMPTOX DTXSID501017811
AC$INSTRUMENT: LTQ Orbitrap XL Thermo Scientific
AC$INSTRUMENT_TYPE: LC-ESI-ITFT
AC$MASS_SPECTROMETRY: MS_TYPE MS2
AC$MASS_SPECTROMETRY: ION_MODE POSITIVE
AC$MASS_SPECTROMETRY: IONIZATION ESI
AC$MASS_SPECTROMETRY: FRAGMENTATION_MODE HCD
AC$MASS_SPECTROMETRY: COLLISION_ENERGY 70 % (nominal)
AC$MASS_SPECTROMETRY: RESOLUTION 15000
AC$MASS_SPECTROMETRY: MASS_RANGE_M/Z 50-365
AC$CHROMATOGRAPHY: COLUMN_NAME Kinetex Evo C18 2.6 um 50 x 2.1 mm
AC$CHROMATOGRAPHY: FLOW_GRADIENT 95/5 at 0 min, 95/5 at 1 min, 0/100 at 13 min, 0/100 at 24 min, 95/5 at 24.3 min, 95/5 at 32 min
AC$CHROMATOGRAPHY: FLOW_RATE 300 uL/min
AC$CHROMATOGRAPHY: RETENTION_TIME 8.406 min
MS$FOCUSED_ION: BASE_PEAK 350.118
MS$FOCUSED_ION: PRECURSOR_M/Z 350.1169
MS$FOCUSED_ION: PRECURSOR_TYPE [M+H]+
MS$FOCUSED_ION: PRECURSOR_INTENSITY 5303419
MS$DATA_PROCESSING: RECALIBRATE loess on assigned fragments and MS1
MS$DATA_PROCESSING: REANALYZE Peaks with additional N2/O included
MS$DATA_PROCESSING: WHOLE RMassBank 3.11.2
PK$SPLASH: splash10-001i-0900000000-9564290254016d15bb4d
PK$ANNOTATION: m/z tentative_formula formula_count mass error(ppm)
  79.0546 C6H7+ 1 79.0542 4.66
  88.9695 C2HO2S+ 1 88.9692 3.67
  105.0703 C8H9+ 1 105.0699 3.91
  107.086 C8H11+ 1 107.0855 4.12
  119.0734 C2H15O3S+ 2 119.0736 -1.82
  130.9803 C4H3O3S+ 1 130.9797 4.09
  132.0813 C3H16O3S+ 2 132.0815 -0.89
  133.0768 C2H15NO3S+ 1 133.0767 0.4
  133.0891 C3H17O3S+ 2 133.0893 -1.34
  134.0969 C3H18O3S+ 2 134.0971 -1.55
  146.0969 C4H18O3S+ 2 146.0971 -1.59
  148.9909 C4H5O4S+ 1 148.9903 3.7
  156.0815 C5H16O3S+ 2 156.0815 0.49
  160.0763 C4H16O4S+ 2 160.0764 -0.63
  175.0999 C5H19O4S+ 2 175.0999 0.43
PK$NUM_PEAK: 15
PK$PEAK: m/z int. rel.int.
  79.0546 1557 1
  88.9695 56790.5 59
  105.0703 55547.2 58
  107.086 4113 4
  119.0734 3268 3
  130.9803 6232.3 6
  132.0813 11598.8 12
  133.0768 3171.1 3
  133.0891 7118.4 7
  134.0969 945744.1 999
  146.0969 1198.9 1
  148.9909 4608.4 4
  156.0815 4318.6 4
  160.0763 5796.9 6
  175.0999 5705.5 6
//
