ACCESSION: MSBNK-UFZ-WANA2205213166PH
RECORD_TITLE: Clopidogrel; LC-ESI-ITFT; MS2; CE: 70%; R=15000; [M+H]+
DATE: 2023.08.13
AUTHORS: Tobias Schulze, Martin Krauss, Department of Effect-Directed Analysis, Helmholtz Centre for Environmental Research - UFZ, Leipzig, Germany
LICENSE: CC0
COPYRIGHT: Copyright (C) 2023
COMMENT: CONFIDENCE Reference Standard (Level 1)
CH$NAME: Clopidogrel
CH$NAME: Plavix
CH$NAME: methyl 2-(2-chlorophenyl)-2-(6,7-dihydro-4H-thieno[3,2-c]pyridin-5-yl)acetate
CH$COMPOUND_CLASS: N/A; Environmental Standard
CH$FORMULA: C16H16ClNO2S
CH$EXACT_MASS: 321.059027432
CH$SMILES: COC(=O)C(N1CCC2=C(C1)C=CS2)C1=CC=CC=C1Cl
CH$IUPAC: InChI=1S/C16H16ClNO2S/c1-20-16(19)15(12-4-2-3-5-13(12)17)18-8-6-14-11(10-18)7-9-21-14/h2-5,7,9,15H,6,8,10H2,1H3
CH$LINK: CAS 94188-84-8
CH$LINK: CHEBI CHEBI:103977
CH$LINK: PUBCHEM CID:2806
CH$LINK: INCHIKEY GKTWGGQPFAXNFI-UHFFFAOYSA-N
CH$LINK: CHEMSPIDER 2704
CH$LINK: COMPTOX DTXSID70861221
AC$INSTRUMENT: LTQ Orbitrap XL Thermo Scientific
AC$INSTRUMENT_TYPE: LC-ESI-ITFT
AC$MASS_SPECTROMETRY: MS_TYPE MS2
AC$MASS_SPECTROMETRY: ION_MODE POSITIVE
AC$MASS_SPECTROMETRY: IONIZATION ESI
AC$MASS_SPECTROMETRY: FRAGMENTATION_MODE HCD
AC$MASS_SPECTROMETRY: COLLISION_ENERGY 70 % (nominal)
AC$MASS_SPECTROMETRY: RESOLUTION 15000
AC$MASS_SPECTROMETRY: MASS_RANGE_M/Z 50-335
AC$CHROMATOGRAPHY: COLUMN_NAME Kinetex Evo C18 2.6 um 50 x 2.1 mm
AC$CHROMATOGRAPHY: FLOW_GRADIENT 95/5 at 0 min, 95/5 at 1 min, 0/100 at 13 min, 0/100 at 24 min, 95/5 at 24.3 min, 95/5 at 32 min
AC$CHROMATOGRAPHY: FLOW_RATE 300 uL/min
AC$CHROMATOGRAPHY: RETENTION_TIME 10.875 min
MS$FOCUSED_ION: BASE_PEAK 322.0673
MS$FOCUSED_ION: PRECURSOR_M/Z 322.0663
MS$FOCUSED_ION: PRECURSOR_TYPE [M+H]+
MS$FOCUSED_ION: PRECURSOR_INTENSITY 37255120
MS$DATA_PROCESSING: RECALIBRATE loess on assigned fragments and MS1
MS$DATA_PROCESSING: REANALYZE Peaks with additional N2/O included
MS$DATA_PROCESSING: WHOLE RMassBank 3.11.2
PK$SPLASH: splash10-0a4i-0900000000-4cf8e10dcf43ae51d708
PK$ANNOTATION: m/z tentative_formula formula_count mass error(ppm)
  77.0385 C6H5+ 1 77.0386 -1.2
  91.0542 C7H7+ 1 91.0542 0.1
  105.0335 C7H5O+ 2 105.0335 -0.29
  111.0263 C6H7S+ 1 111.0263 -0.3
  125.0153 C7H6Cl+ 1 125.0153 0.21
  127.0311 C7H8Cl+ 1 127.0309 1.35
  148.052 C9H8O2+ 2 148.0519 0.51
  152.0263 C8H7ClN+ 2 152.0262 0.72
  154.0419 C8H9ClN+ 2 154.0418 0.89
  155.0258 C8H8ClO+ 1 155.0258 0.02
  183.0208 C9H8ClO2+ 1 183.0207 0.27
  184.0524 C9H11ClNO+ 2 184.0524 0.24
  212.0478 C10H11ClNO2+ 1 212.0473 2.42
PK$NUM_PEAK: 13
PK$PEAK: m/z int. rel.int.
  77.0385 27718 2
  91.0542 255237 21
  105.0335 225886 19
  111.0263 55762.8 4
  125.0153 2494667.2 210
  127.0311 35625.9 3
  148.052 162438 13
  152.0263 2897468.2 244
  154.0419 293735.6 24
  155.0258 11851858 999
  183.0208 1892795.9 159
  184.0524 1115095.4 93
  212.0478 40368.8 3
//
