ACCESSION: MSBNK-UFZ-WANA235205070APH
RECORD_TITLE: Sulfathiazole; LC-ESI-ITFT; MS2; CE: 30%; R=15000; [M+H]+
DATE: 2023.08.12
AUTHORS: Tobias Schulze, Martin Krauss, Department of Effect-Directed Analysis, Helmholtz Centre for Environmental Research - UFZ, Leipzig, Germany
LICENSE: CC0
COPYRIGHT: Copyright (C) 2023
COMMENT: CONFIDENCE Reference Standard (Level 1)
CH$NAME: Sulfathiazole
CH$NAME: 4-amino-N-(1,3-thiazol-2-yl)benzenesulfonamide
CH$COMPOUND_CLASS: N/A; Environmental Standard
CH$FORMULA: C9H9N3O2S2
CH$EXACT_MASS: 255.013618528
CH$SMILES: NC1=CC=C(C=C1)S(=O)(=O)NC1=NC=CS1
CH$IUPAC: InChI=1S/C9H9N3O2S2/c10-7-1-3-8(4-2-7)16(13,14)12-9-11-5-6-15-9/h1-6H,10H2,(H,11,12)
CH$LINK: CAS 72-14-0
CH$LINK: CHEBI CHEBI:9337
CH$LINK: KEGG C11169
CH$LINK: PUBCHEM CID:5340
CH$LINK: INCHIKEY JNMRHUJNCSQMMB-UHFFFAOYSA-N
CH$LINK: CHEMSPIDER 5148
CH$LINK: COMPTOX DTXSID8026068
AC$INSTRUMENT: LTQ Orbitrap XL Thermo Scientific
AC$INSTRUMENT_TYPE: LC-ESI-ITFT
AC$MASS_SPECTROMETRY: MS_TYPE MS2
AC$MASS_SPECTROMETRY: ION_MODE POSITIVE
AC$MASS_SPECTROMETRY: IONIZATION ESI
AC$MASS_SPECTROMETRY: FRAGMENTATION_MODE HCD
AC$MASS_SPECTROMETRY: COLLISION_ENERGY 30 % (nominal)
AC$MASS_SPECTROMETRY: RESOLUTION 15000
AC$MASS_SPECTROMETRY: MASS_RANGE_M/Z 50-270
AC$CHROMATOGRAPHY: COLUMN_NAME Kinetex Evo C18 2.6 um 50 x 2.1 mm
AC$CHROMATOGRAPHY: FLOW_GRADIENT 95/5 at 0 min, 95/5 at 1 min, 0/100 at 13 min, 0/100 at 24 min, 95/5 at 24.3 min, 95/5 at 32 min
AC$CHROMATOGRAPHY: FLOW_RATE 300 uL/min
AC$CHROMATOGRAPHY: RETENTION_TIME 1.694 min
MS$FOCUSED_ION: BASE_PEAK 157.0357
MS$FOCUSED_ION: PRECURSOR_M/Z 256.0209
MS$FOCUSED_ION: PRECURSOR_TYPE [M+H]+
MS$FOCUSED_ION: PRECURSOR_INTENSITY 3871556.75
MS$DATA_PROCESSING: RECALIBRATE loess on assigned fragments and MS1
MS$DATA_PROCESSING: REANALYZE Peaks with additional N2/O included
MS$DATA_PROCESSING: WHOLE RMassBank 3.11.2
PK$SPLASH: splash10-0a4i-0920000000-47476189a4ace03b2051
PK$ANNOTATION: m/z tentative_formula formula_count mass error(ppm)
  65.0386 C5H5+ 1 65.0386 1.12
  92.0498 C6H6N+ 1 92.0495 3.84
  101.0172 C3H5N2S+ 1 101.0168 3.91
  108.0448 C6H6NO+ 1 108.0444 3.84
  156.012 C6H6NO2S+ 1 156.0114 3.73
  162.9637 C3H3N2O2S2+ 1 162.963 3.77
  190.044 C9H8N3S+ 1 190.0433 3.51
  256.0217 C9H10N3O2S2+ 1 256.0209 3.28
PK$NUM_PEAK: 8
PK$PEAK: m/z int. rel.int.
  65.0386 2556.3 3
  92.0498 73615.8 113
  101.0172 33359.7 51
  108.0448 126729.1 196
  156.012 645800.8 999
  162.9637 4984.5 7
  190.044 5683.8 8
  256.0217 207317.4 320
//
