ACCESSION: MSBNK-UFZ-WANA0106237762PH
RECORD_TITLE: Carbetamide; LC-ESI-ITFT; MS2; CE: 80%; R=15000; [M+H]+
DATE: 2023.08.13
AUTHORS: Tobias Schulze, Martin Krauss, Department of Effect-Directed Analysis, Helmholtz Centre for Environmental Research - UFZ, Leipzig, Germany
LICENSE: CC0
COPYRIGHT: Copyright (C) 2023
COMMENT: CONFIDENCE Reference Standard (Level 1)
CH$NAME: Carbetamide
CH$NAME: Carbetamex
CH$NAME: [(2R)-1-(ethylamino)-1-oxopropan-2-yl] N-phenylcarbamate
CH$COMPOUND_CLASS: N/A; Environmental Standard
CH$FORMULA: C12H16N2O3
CH$EXACT_MASS: 236.116092372
CH$SMILES: CCNC(=O)[C@@H](C)OC(=O)NC1=CC=CC=C1
CH$IUPAC: InChI=1S/C12H16N2O3/c1-3-13-11(15)9(2)17-12(16)14-10-7-5-4-6-8-10/h4-9H,3H2,1-2H3,(H,13,15)(H,14,16)/t9-/m1/s1
CH$LINK: CAS 16118-49-3
CH$LINK: PUBCHEM CID:152031
CH$LINK: INCHIKEY AMRQXHFXNZFDCH-SECBINFHSA-N
CH$LINK: CHEMSPIDER 133997
CH$LINK: COMPTOX DTXSID7041756
AC$INSTRUMENT: LTQ Orbitrap XL Thermo Scientific
AC$INSTRUMENT_TYPE: LC-ESI-ITFT
AC$MASS_SPECTROMETRY: MS_TYPE MS2
AC$MASS_SPECTROMETRY: ION_MODE POSITIVE
AC$MASS_SPECTROMETRY: IONIZATION ESI
AC$MASS_SPECTROMETRY: FRAGMENTATION_MODE HCD
AC$MASS_SPECTROMETRY: COLLISION_ENERGY 80 % (nominal)
AC$MASS_SPECTROMETRY: RESOLUTION 15000
AC$MASS_SPECTROMETRY: MASS_RANGE_M/Z 50-250
AC$CHROMATOGRAPHY: COLUMN_NAME Kinetex Evo C18 2.6 um 50 x 2.1 mm
AC$CHROMATOGRAPHY: FLOW_GRADIENT 95/5 at 0 min, 95/5 at 1 min, 0/100 at 13 min, 0/100 at 24 min, 95/5 at 24.3 min, 95/5 at 32 min
AC$CHROMATOGRAPHY: FLOW_RATE 300 uL/min
AC$CHROMATOGRAPHY: RETENTION_TIME 8.334 min
MS$FOCUSED_ION: BASE_PEAK 237.1243
MS$FOCUSED_ION: PRECURSOR_M/Z 237.1234
MS$FOCUSED_ION: PRECURSOR_TYPE [M+H]+
MS$FOCUSED_ION: PRECURSOR_INTENSITY 14896589
MS$DATA_PROCESSING: RECALIBRATE loess on assigned fragments and MS1
MS$DATA_PROCESSING: REANALYZE Peaks with additional N2/O included
MS$DATA_PROCESSING: WHOLE RMassBank 3.11.2
PK$SPLASH: splash10-00di-9400000000-80ddef1ed4b77ac11271
PK$ANNOTATION: m/z tentative_formula formula_count mass error(ppm)
  55.0179 C3H3O+ 1 55.0178 0.56
  72.0446 C3H6NO+ 1 72.0444 3.6
  72.081 C4H10N+ 1 72.0808 3.48
  77.0389 C6H5+ 1 77.0386 3.95
  92.0499 C6H6N+ 1 92.0495 4.84
  95.0496 C6H7O+ 1 95.0491 4.33
  100.0762 C5H10NO+ 1 100.0757 4.79
  105.0452 C6H5N2+ 1 105.0447 4.7
  120.0449 C7H6NO+ 1 120.0444 4.47
PK$NUM_PEAK: 9
PK$PEAK: m/z int. rel.int.
  55.0179 10847 54
  72.0446 28041.3 142
  72.081 197242.9 999
  77.0389 34236.7 173
  92.0499 57586.8 291
  95.0496 6730.7 34
  100.0762 30062.7 152
  105.0452 23179.5 117
  120.0449 96668.2 489
//
