ACCESSION: MSBNK-UFZ-WANA3106213166PM
RECORD_TITLE: Methyltriphenylphosphonium; LC-ESI-ITFT; MS2; CE: 70%; R=15000; [M]+
DATE: 2023.08.13
AUTHORS: Tobias Schulze, Martin Krauss, Department of Effect-Directed Analysis, Helmholtz Centre for Environmental Research - UFZ, Leipzig, Germany
LICENSE: CC0
COPYRIGHT: Copyright (C) 2023
COMMENT: CONFIDENCE Reference Standard (Level 1)
CH$NAME: Methyltriphenylphosphonium
CH$NAME: Triphenylmethylphosphonium
CH$NAME: methyl(triphenyl)phosphanium
CH$COMPOUND_CLASS: N/A; Environmental Standard
CH$FORMULA: C19H18P
CH$EXACT_MASS: 277.114063626091
CH$SMILES: C[P+](C1=CC=CC=C1)(C1=CC=CC=C1)C1=CC=CC=C1
CH$IUPAC: InChI=1S/C19H18P/c1-20(17-11-5-2-6-12-17,18-13-7-3-8-14-18)19-15-9-4-10-16-19/h2-16H,1H3/q+1
CH$LINK: CAS 21176-92-1
CH$LINK: PUBCHEM CID:74506
CH$LINK: INCHIKEY AZFQCTBZOPUVOW-UHFFFAOYSA-N
CH$LINK: CHEMSPIDER 67087
CH$LINK: COMPTOX DTXSID20166591
AC$INSTRUMENT: LTQ Orbitrap XL Thermo Scientific
AC$INSTRUMENT_TYPE: LC-ESI-ITFT
AC$MASS_SPECTROMETRY: MS_TYPE MS2
AC$MASS_SPECTROMETRY: ION_MODE POSITIVE
AC$MASS_SPECTROMETRY: IONIZATION ESI
AC$MASS_SPECTROMETRY: FRAGMENTATION_MODE HCD
AC$MASS_SPECTROMETRY: COLLISION_ENERGY 70 % (nominal)
AC$MASS_SPECTROMETRY: RESOLUTION 15000
AC$MASS_SPECTROMETRY: MASS_RANGE_M/Z 50-290
AC$CHROMATOGRAPHY: COLUMN_NAME Kinetex Evo C18 2.6 um 50 x 2.1 mm
AC$CHROMATOGRAPHY: FLOW_GRADIENT 95/5 at 0 min, 95/5 at 1 min, 0/100 at 13 min, 0/100 at 24 min, 95/5 at 24.3 min, 95/5 at 32 min
AC$CHROMATOGRAPHY: FLOW_RATE 300 uL/min
AC$CHROMATOGRAPHY: RETENTION_TIME 7.138 min
MS$FOCUSED_ION: BASE_PEAK 277.1149
MS$FOCUSED_ION: PRECURSOR_M/Z 277.1141
MS$FOCUSED_ION: PRECURSOR_TYPE [M]+
MS$FOCUSED_ION: PRECURSOR_INTENSITY 13993600
MS$DATA_PROCESSING: RECALIBRATE loess on assigned fragments and MS1
MS$DATA_PROCESSING: REANALYZE Peaks with additional N2/O included
MS$DATA_PROCESSING: WHOLE RMassBank 3.11.2
PK$SPLASH: splash10-004i-0290000000-33372b23e740a804995e
PK$ANNOTATION: m/z tentative_formula formula_count mass error(ppm)
  79.0542 C6H7+ 1 79.0542 0.2
  91.0544 C7H7+ 1 91.0542 1.42
  107.0046 C6H4P+ 1 107.0045 1.15
  108.0124 C6H5P+ 1 108.0123 0.36
  121.0202 C7H6P+ 1 121.0202 0.62
  123.0357 C7H8P+ 1 123.0358 -0.87
  152.0623 C12H8+ 1 152.0621 1.33
  154.0778 C12H10+ 1 154.0777 0.4
  155.0854 C12H11+ 1 155.0855 -1.09
  183.0358 C12H8P+ 1 183.0358 -0.29
  184.0436 C12H9P+ 1 184.0436 -0.05
  185.0514 C12H10P+ 1 185.0515 -0.45
  199.067 C13H12P+ 1 199.0671 -0.74
  200.075 C13H13P+ 1 200.0749 0.12
  230.1096 C18H14+ 1 230.109 2.55
  261.0828 C18H14P+ 1 261.0828 0.08
  262.0907 C18H15P+ 1 262.0906 0.38
  277.1141 C19H18P+ 1 277.1141 -0.04
PK$NUM_PEAK: 18
PK$PEAK: m/z int. rel.int.
  79.0542 29237.5 9
  91.0544 13151.9 4
  107.0046 13866.4 4
  108.0124 487869.3 163
  121.0202 13421.4 4
  123.0357 5260 1
  152.0623 3621.2 1
  154.0778 9108 3
  155.0854 5998.9 2
  183.0358 178455.2 59
  184.0436 137749.2 46
  185.0514 248789.4 83
  199.067 36583 12
  200.075 64915.6 21
  230.1096 3469 1
  261.0828 425905.3 142
  262.0907 453169 151
  277.1141 2980488 999
//
