ACCESSION: MSBNK-UFZ-WANA3083213166PH
RECORD_TITLE: 2-Hydroxyquinoline; LC-ESI-ITFT; MS2; CE: 70%; R=15000; [M+H]+
DATE: 2023.08.13
AUTHORS: Tobias Schulze, Martin Krauss, Department of Effect-Directed Analysis, Helmholtz Centre for Environmental Research - UFZ, Leipzig, Germany
LICENSE: CC0
COPYRIGHT: Copyright (C) 2023
COMMENT: CONFIDENCE Reference Standard (Level 1)
CH$NAME: 2-Hydroxyquinoline
CH$NAME: 1H-quinolin-2-one
CH$COMPOUND_CLASS: N/A; Environmental Standard
CH$FORMULA: C9H7NO
CH$EXACT_MASS: 145.052763844
CH$SMILES: OC1=NC2=CC=CC=C2C=C1
CH$IUPAC: InChI=1S/C9H7NO/c11-9-6-5-7-3-1-2-4-8(7)10-9/h1-6H,(H,10,11)
CH$LINK: CAS 59-31-4
CH$LINK: CHEBI CHEBI:16365
CH$LINK: KEGG C06415
CH$LINK: PUBCHEM CID:6038
CH$LINK: INCHIKEY LISFMEBWQUVKPJ-UHFFFAOYSA-N
CH$LINK: CHEMSPIDER 5816
CH$LINK: COMPTOX DTXSID1058769
AC$INSTRUMENT: LTQ Orbitrap XL Thermo Scientific
AC$INSTRUMENT_TYPE: LC-ESI-ITFT
AC$MASS_SPECTROMETRY: MS_TYPE MS2
AC$MASS_SPECTROMETRY: ION_MODE POSITIVE
AC$MASS_SPECTROMETRY: IONIZATION ESI
AC$MASS_SPECTROMETRY: FRAGMENTATION_MODE HCD
AC$MASS_SPECTROMETRY: COLLISION_ENERGY 70 % (nominal)
AC$MASS_SPECTROMETRY: RESOLUTION 15000
AC$MASS_SPECTROMETRY: MASS_RANGE_M/Z 50-160
AC$CHROMATOGRAPHY: COLUMN_NAME Kinetex Evo C18 2.6 um 50 x 2.1 mm
AC$CHROMATOGRAPHY: FLOW_GRADIENT 95/5 at 0 min, 95/5 at 1 min, 0/100 at 13 min, 0/100 at 24 min, 95/5 at 24.3 min, 95/5 at 32 min
AC$CHROMATOGRAPHY: FLOW_RATE 300 uL/min
AC$CHROMATOGRAPHY: RETENTION_TIME 6.023 min
MS$FOCUSED_ION: BASE_PEAK 240.1815
MS$FOCUSED_ION: PRECURSOR_M/Z 146.06
MS$FOCUSED_ION: PRECURSOR_TYPE [M+H]+
MS$FOCUSED_ION: PRECURSOR_INTENSITY 1051414.62
MS$DATA_PROCESSING: RECALIBRATE loess on assigned fragments and MS1
MS$DATA_PROCESSING: REANALYZE Peaks with additional N2/O included
MS$DATA_PROCESSING: WHOLE RMassBank 3.11.2
PK$SPLASH: splash10-0002-0900000000-b638b271d805d1209d64
PK$ANNOTATION: m/z tentative_formula formula_count mass error(ppm)
  118.0655 C8H8N+ 1 118.0651 3.38
  128.05 C9H6N+ 1 128.0495 4.11
  146.0606 C9H8NO+ 1 146.06 4.03
PK$NUM_PEAK: 3
PK$PEAK: m/z int. rel.int.
  118.0655 1512.8 1
  128.05 481254.8 422
  146.0606 1137156.4 999
//
