ACCESSION: MSBNK-UFZ-WANA129003B085PH
RECORD_TITLE: Aniline; LC-ESI-ITFT; MS2; CE: 20%; R=15000; [M+H]+
DATE: 2023.08.12
AUTHORS: Tobias Schulze, Martin Krauss, Department of Effect-Directed Analysis, Helmholtz Centre for Environmental Research - UFZ, Leipzig, Germany
LICENSE: CC0
COPYRIGHT: Copyright (C) 2023
COMMENT: CONFIDENCE Reference Standard (Level 1)
CH$NAME: Aniline
CH$COMPOUND_CLASS: N/A; Environmental Standard
CH$FORMULA: C6H7N
CH$EXACT_MASS: 93.057849224
CH$SMILES: NC1=CC=CC=C1
CH$IUPAC: InChI=1S/C6H7N/c7-6-4-2-1-3-5-6/h1-5H,7H2
CH$LINK: CAS 62-53-3
CH$LINK: CHEBI CHEBI:17296
CH$LINK: KEGG C00292
CH$LINK: PUBCHEM CID:6115
CH$LINK: INCHIKEY PAYRUJLWNCNPSJ-UHFFFAOYSA-N
CH$LINK: CHEMSPIDER 5889
CH$LINK: COMPTOX DTXSID8020090
AC$INSTRUMENT: LTQ Orbitrap XL Thermo Scientific
AC$INSTRUMENT_TYPE: LC-ESI-ITFT
AC$MASS_SPECTROMETRY: MS_TYPE MS2
AC$MASS_SPECTROMETRY: ION_MODE POSITIVE
AC$MASS_SPECTROMETRY: IONIZATION ESI
AC$MASS_SPECTROMETRY: FRAGMENTATION_MODE HCD
AC$MASS_SPECTROMETRY: COLLISION_ENERGY 20 % (nominal)
AC$MASS_SPECTROMETRY: RESOLUTION 15000
AC$MASS_SPECTROMETRY: MASS_RANGE_M/Z 50-105
AC$CHROMATOGRAPHY: COLUMN_NAME Kinetex Evo C18 2.6 um 50 x 2.1 mm
AC$CHROMATOGRAPHY: FLOW_GRADIENT 95/5 at 0 min, 95/5 at 1 min, 0/100 at 13 min, 0/100 at 24 min, 95/5 at 24.3 min, 95/5 at 32 min
AC$CHROMATOGRAPHY: FLOW_RATE 300 uL/min
AC$CHROMATOGRAPHY: RETENTION_TIME 0.597 min
MS$FOCUSED_ION: BASE_PEAK 94.0652
MS$FOCUSED_ION: PRECURSOR_M/Z 94.0651
MS$FOCUSED_ION: PRECURSOR_TYPE [M+H]+
MS$FOCUSED_ION: PRECURSOR_INTENSITY 18264778
MS$DATA_PROCESSING: RECALIBRATE loess on assigned fragments and MS1
MS$DATA_PROCESSING: REANALYZE Peaks with additional N2/O included
MS$DATA_PROCESSING: WHOLE RMassBank 3.11.2
PK$SPLASH: splash10-0006-9000000000-522aafc2497968e21c8a
PK$ANNOTATION: m/z tentative_formula formula_count mass error(ppm)
  77.0384 C6H5+ 1 77.0386 -2.91
  93.057 C6H7N+ 1 93.0573 -3.23
  94.0649 C6H8N+ 1 94.0651 -2.29
PK$NUM_PEAK: 3
PK$PEAK: m/z int. rel.int.
  77.0384 19862.9 4
  93.057 8782.1 1
  94.0649 4548734.5 999
//
