ACCESSION: MSBNK-UFZ-UP000042
RECORD_TITLE: Triethylene glycol monomethyl ether; LC-ESI-ITFT; MS2; CE: 35%; R=15000; [M+H]+
DATE: 2019.07.31
AUTHORS: Liza-Marie Beckers, Werner Brack, Janek-Paul Dann, Martin Krauss, Erik Mueller, Tobias Schulze, Helmholtz Centre for Environmental Research GmbH - UFZ, Leipzig, Germany
LICENSE: CC0
COPYRIGHT: Copyright (C) 2019
PUBLICATION: Beckers L-M, Brack W, Dann JP, Krauss M, Mueller E, Schulze T, 2020. Unraveling longitudinal pollution patterns of organic micropollutants in a river by non-target screening and cluster analysis. Science of The Total Environment, https://doi.org/10.1016/j.scitotenv.2020.138388
COMMENT: CONFIDENCE Reference Standard (Level 1)
COMMENT: INTERNAL_ID 5
CH$NAME: Triethylene glycol monomethyl ether
CH$NAME: 2-[2-(2-methoxyethoxy)ethoxy]ethanol
CH$COMPOUND_CLASS: N/A; Environmental Standard
CH$FORMULA: C7H16O4
CH$EXACT_MASS: 164.1049
CH$SMILES: COCCOCCOCCO
CH$IUPAC: InChI=1S/C7H16O4/c1-9-4-5-11-7-6-10-3-2-8/h8H,2-7H2,1H3
CH$LINK: CAS 112-35-6
CH$LINK: CHEBI CHEBI:84233
CH$LINK: PUBCHEM CID:8178
CH$LINK: INCHIKEY JLGLQAWTXXGVEM-UHFFFAOYSA-N
CH$LINK: CHEMSPIDER 7886
AC$INSTRUMENT: LTQ Orbitrap XL Thermo Scientific
AC$INSTRUMENT_TYPE: LC-ESI-ITFT
AC$MASS_SPECTROMETRY: MS_TYPE MS2
AC$MASS_SPECTROMETRY: ION_MODE POSITIVE
AC$MASS_SPECTROMETRY: IONIZATION ESI
AC$MASS_SPECTROMETRY: FRAGMENTATION_MODE HCD
AC$MASS_SPECTROMETRY: COLLISION_ENERGY 35 % (nominal)
AC$MASS_SPECTROMETRY: RESOLUTION 15000
AC$CHROMATOGRAPHY: COLUMN_NAME Kinetex Evo C18 2.6 um 50 x 2.1 mm
AC$CHROMATOGRAPHY: FLOW_GRADIENT 95/5 at 0 min, 95/5 at 1 min, 0/100 at 13 min, 0/100 at 24 min, 95/5 at 24.3 min, 95/5/0 at 32 min
AC$CHROMATOGRAPHY: FLOW_RATE 300 uL/min
AC$CHROMATOGRAPHY: RETENTION_TIME 1.410 min
AC$CHROMATOGRAPHY: SOLVENT A water with 0.1% formic acid
AC$CHROMATOGRAPHY: SOLVENT B methanol with 0.1% formic acid
MS$FOCUSED_ION: BASE_PEAK 165.1119
MS$FOCUSED_ION: PRECURSOR_M/Z 165.1121
MS$FOCUSED_ION: PRECURSOR_TYPE [M+H]+
MS$DATA_PROCESSING: RECALIBRATE loess on assigned fragments and MS1
MS$DATA_PROCESSING: REANALYZE Peaks with additional N2/O included
MS$DATA_PROCESSING: WHOLE RMassBank 2.12.0
PK$SPLASH: splash10-0zfr-6900000000-dfd42131a3cffe3a3988
PK$ANNOTATION: m/z tentative_formula formula_count mass error(ppm)
  59.049 C3H7O+ 1 59.0491 -2.08
  103.0753 C5H11O2+ 1 103.0754 -0.48
PK$NUM_PEAK: 2
PK$PEAK: m/z int. rel.int.
  59.049 1614.8 675
  103.0753 2387.5 999
//
