ACCESSION: MSBNK-UFZ-UF411403
RECORD_TITLE: Gabapentin; LC-ESI-ITFT; MS2; CE: 35; R=15000; [M+H]+
DATE: 2017.01.05
AUTHORS: Schulze T, Krauss M, Department of Effect-Directed Analysis, Helmholtz Centre for Environmental Research - UFZ GmbH, Leipzig, Germany
LICENSE: CC BY
COPYRIGHT: Copyright (C) 2017
COMMENT: CONFIDENCE standard compound
COMMENT: INTERNAL_ID 4114
CH$NAME: Gabapentin
CH$NAME: 2-[1-(Aminomethyl)cyclohexyl]acetic acid
CH$COMPOUND_CLASS: N/A; Environmental Standard
CH$FORMULA: C9H17NO2
CH$EXACT_MASS: 171.1259
CH$SMILES: NCC1(CC(O)=O)CCCCC1
CH$IUPAC: InChI=1S/C9H17NO2/c10-7-9(6-8(11)12)4-2-1-3-5-9/h1-7,10H2,(H,11,12)
CH$LINK: CAS 360-70-3
CH$LINK: CHEBI CHEBI:42797
CH$LINK: KEGG D00332
CH$LINK: PUBCHEM CID:3446
CH$LINK: INCHIKEY UGJMXCAKCUNAIE-UHFFFAOYSA-N
CH$LINK: CHEMSPIDER 3328
CH$LINK: COMPTOX DTXSID0020074
AC$INSTRUMENT: LTQ Orbitrap XL Thermo Scientific
AC$INSTRUMENT_TYPE: LC-ESI-ITFT
AC$MASS_SPECTROMETRY: MS_TYPE MS2
AC$MASS_SPECTROMETRY: ION_MODE POSITIVE
AC$MASS_SPECTROMETRY: IONIZATION ESI
AC$MASS_SPECTROMETRY: FRAGMENTATION_MODE CID
AC$MASS_SPECTROMETRY: COLLISION_ENERGY 35 (nominal)
AC$MASS_SPECTROMETRY: RESOLUTION 15000
AC$CHROMATOGRAPHY: COLUMN_NAME Kinetex Core-Shell C18 2.6 um, 3.0 x 100 mm, Phenomenex
AC$CHROMATOGRAPHY: FLOW_GRADIENT 90/10 at 0 min, 80/20 at 3.2 min, 5/95 at 17.8 min, 5/95 at 37.8 min, 90/10 at 37.9 min, 90/10 at 47 min
AC$CHROMATOGRAPHY: FLOW_RATE 200 uL/min
AC$CHROMATOGRAPHY: RETENTION_TIME 11.872 min
AC$CHROMATOGRAPHY: SOLVENT A water with 0.1% formic acid
AC$CHROMATOGRAPHY: SOLVENT B methanol with 0.1% formic acid
MS$FOCUSED_ION: BASE_PEAK 163.1328
MS$FOCUSED_ION: PRECURSOR_M/Z 172.1332
MS$FOCUSED_ION: PRECURSOR_TYPE [M+H]+
MS$DATA_PROCESSING: RECALIBRATE loess on assigned fragments and MS1
MS$DATA_PROCESSING: REANALYZE Peaks with additional N2/O included
MS$DATA_PROCESSING: WHOLE RMassBank 2.2.1
PK$SPLASH: splash10-0udi-0900000000-eb3bc990b07a9471ea6e
PK$ANNOTATION: m/z tentative_formula formula_count mass error(ppm)
  55.0176 C3H3O+ 1 55.0178 -3.82
  95.0856 C7H11+ 1 95.0855 0.88
  119.0857 C9H11+ 1 119.0855 1.79
  137.0963 C9H13O+ 1 137.0961 1.55
  154.1227 C9H16NO+ 1 154.1226 0.6
  155.1068 C9H15O2+ 1 155.1067 0.69
  172.1336 C9H18NO2+ 1 172.1332 2.41
PK$NUM_PEAK: 7
PK$PEAK: m/z int. rel.int.
  55.0176 1892.5 1
  95.0856 9389.8 6
  119.0857 8539.5 5
  137.0963 58550.7 39
  154.1227 1485052.4 999
  155.1068 85859.7 57
  172.1336 3046.8 2
//
