ACCESSION: MSBNK-UFZ-WANA224513D9F1PH
RECORD_TITLE: Albendazole; LC-ESI-ITFT; MS2; CE: 50%; R=15000; [M+H]+
DATE: 2023.08.12
AUTHORS: Tobias Schulze, Martin Krauss, Department of Effect-Directed Analysis, Helmholtz Centre for Environmental Research - UFZ, Leipzig, Germany
LICENSE: CC0
COPYRIGHT: Copyright (C) 2023
COMMENT: CONFIDENCE Reference Standard (Level 1)
CH$NAME: Albendazole
CH$NAME: methyl N-(6-propylsulfanyl-1H-benzimidazol-2-yl)carbamate
CH$COMPOUND_CLASS: N/A; Environmental Standard
CH$FORMULA: C12H15N3O2S
CH$EXACT_MASS: 265.08849772
CH$SMILES: CCCSC1=CC2=C(NC(NC(=O)OC)=N2)C=C1
CH$IUPAC: InChI=1S/C12H15N3O2S/c1-3-6-18-8-4-5-9-10(7-8)14-11(13-9)15-12(16)17-2/h4-5,7H,3,6H2,1-2H3,(H2,13,14,15,16)
CH$LINK: CAS 54029-12-8
CH$LINK: CHEBI CHEBI:16664
CH$LINK: KEGG C01779
CH$LINK: PUBCHEM CID:2082
CH$LINK: INCHIKEY HXHWSAZORRCQMX-UHFFFAOYSA-N
CH$LINK: CHEMSPIDER 1998
CH$LINK: COMPTOX DTXSID0022563
AC$INSTRUMENT: LTQ Orbitrap XL Thermo Scientific
AC$INSTRUMENT_TYPE: LC-ESI-ITFT
AC$MASS_SPECTROMETRY: MS_TYPE MS2
AC$MASS_SPECTROMETRY: ION_MODE POSITIVE
AC$MASS_SPECTROMETRY: IONIZATION ESI
AC$MASS_SPECTROMETRY: FRAGMENTATION_MODE HCD
AC$MASS_SPECTROMETRY: COLLISION_ENERGY 50 % (nominal)
AC$MASS_SPECTROMETRY: RESOLUTION 15000
AC$MASS_SPECTROMETRY: MASS_RANGE_M/Z 50-280
AC$CHROMATOGRAPHY: COLUMN_NAME Kinetex Evo C18 2.6 um 50 x 2.1 mm
AC$CHROMATOGRAPHY: FLOW_GRADIENT 95/5 at 0 min, 95/5 at 1 min, 0/100 at 13 min, 0/100 at 24 min, 95/5 at 24.3 min, 95/5 at 32 min
AC$CHROMATOGRAPHY: FLOW_RATE 300 uL/min
AC$CHROMATOGRAPHY: RETENTION_TIME 9.214 min
MS$FOCUSED_ION: BASE_PEAK 266.0967
MS$FOCUSED_ION: PRECURSOR_M/Z 266.0958
MS$FOCUSED_ION: PRECURSOR_TYPE [M+H]+
MS$FOCUSED_ION: PRECURSOR_INTENSITY 52023972
MS$DATA_PROCESSING: RECALIBRATE loess on assigned fragments and MS1
MS$DATA_PROCESSING: REANALYZE Peaks with additional N2/O included
MS$DATA_PROCESSING: WHOLE RMassBank 3.11.2
PK$SPLASH: splash10-001i-0190000000-7f2f2eadc61de1751172
PK$ANNOTATION: m/z tentative_formula formula_count mass error(ppm)
  159.0428 C8H5N3O+ 1 159.0427 0.86
  179.051 C8H9N3S+ 1 179.0512 -0.88
  191.0149 C8H5N3OS+ 1 191.0148 0.69
  192.0227 C8H6N3OS+ 1 192.0226 0.62
  206.0748 C10H12N3S+ 1 206.0746 0.76
  223.0411 C9H9N3O2S+ 1 223.041 0.61
  234.0697 C11H12N3OS+ 1 234.0696 0.42
  266.0959 C12H16N3O2S+ 1 266.0958 0.4
PK$NUM_PEAK: 8
PK$PEAK: m/z int. rel.int.
  159.0428 81743.8 7
  179.051 17338.4 1
  191.0149 609009.3 56
  192.0227 745887.1 69
  206.0748 12530.5 1
  223.0411 75582.5 7
  234.0697 10717659 999
  266.0959 482081.7 44
//
