ACCESSION: MSBNK-UFZ-WANA031201AD6CPH
RECORD_TITLE: Lauryl diethanolamide; LC-ESI-ITFT; MS2; CE: 10%; R=15000; [M+H]+
DATE: 2023.08.12
AUTHORS: Tobias Schulze, Martin Krauss, Department of Effect-Directed Analysis, Helmholtz Centre for Environmental Research - UFZ, Leipzig, Germany
LICENSE: CC0
COPYRIGHT: Copyright (C) 2023
COMMENT: CONFIDENCE Reference Standard (Level 1)
CH$NAME: Lauryl diethanolamide
CH$NAME: N,N-bis(2-hydroxyethyl)dodecanamide
CH$COMPOUND_CLASS: N/A; Environmental Standard
CH$FORMULA: C16H33NO3
CH$EXACT_MASS: 287.246043916
CH$SMILES: CCCCCCCCCCCC(=O)N(CCO)CCO
CH$IUPAC: InChI=1S/C16H33NO3/c1-2-3-4-5-6-7-8-9-10-11-16(20)17(12-14-18)13-15-19/h18-19H,2-15H2,1H3
CH$LINK: CAS 120-40-1
CH$LINK: CHEBI CHEBI:143726
CH$LINK: PUBCHEM CID:8430
CH$LINK: INCHIKEY AOMUHOFOVNGZAN-UHFFFAOYSA-N
CH$LINK: CHEMSPIDER 8123
CH$LINK: COMPTOX DTXSID5025491
AC$INSTRUMENT: LTQ Orbitrap XL Thermo Scientific
AC$INSTRUMENT_TYPE: LC-ESI-ITFT
AC$MASS_SPECTROMETRY: MS_TYPE MS2
AC$MASS_SPECTROMETRY: ION_MODE POSITIVE
AC$MASS_SPECTROMETRY: IONIZATION ESI
AC$MASS_SPECTROMETRY: FRAGMENTATION_MODE HCD
AC$MASS_SPECTROMETRY: COLLISION_ENERGY 10 % (nominal)
AC$MASS_SPECTROMETRY: RESOLUTION 15000
AC$MASS_SPECTROMETRY: MASS_RANGE_M/Z 50-300
AC$CHROMATOGRAPHY: COLUMN_NAME Kinetex Evo C18 2.6 um 50 x 2.1 mm
AC$CHROMATOGRAPHY: FLOW_GRADIENT 95/5 at 0 min, 95/5 at 1 min, 0/100 at 13 min, 0/100 at 24 min, 95/5 at 24.3 min, 95/5 at 32 min
AC$CHROMATOGRAPHY: FLOW_RATE 300 uL/min
AC$CHROMATOGRAPHY: RETENTION_TIME 12.837 min
MS$FOCUSED_ION: BASE_PEAK 288.2537
MS$FOCUSED_ION: PRECURSOR_M/Z 288.2533
MS$FOCUSED_ION: PRECURSOR_TYPE [M+H]+
MS$FOCUSED_ION: PRECURSOR_INTENSITY 36984632
MS$DATA_PROCESSING: RECALIBRATE loess on assigned fragments and MS1
MS$DATA_PROCESSING: REANALYZE Peaks with additional N2/O included
MS$DATA_PROCESSING: WHOLE RMassBank 3.11.2
PK$SPLASH: splash10-000i-0090000000-792847f5cb27e22032e8
PK$ANNOTATION: m/z tentative_formula formula_count mass error(ppm)
  88.0755 C4H10NO+ 1 88.0757 -2.72
  106.086 C4H12NO2+ 1 106.0863 -1.96
  227.2 C14H27O2+ 1 227.2006 -2.33
  270.2426 C16H32NO2+ 1 270.2428 -0.54
  288.2527 C16H34NO3+ 1 288.2533 -2.02
PK$NUM_PEAK: 5
PK$PEAK: m/z int. rel.int.
  88.0755 39166.4 8
  106.086 399986.4 82
  227.2 11155.5 2
  270.2426 14482.7 2
  288.2527 4826274.5 999
//
