ACCESSION: MSBNK-UFZ-WANA030813D9F1PH
RECORD_TITLE: Ethyl 4-(dimethylamino)benzoate; LC-ESI-ITFT; MS2; CE: 50%; R=15000; [M+H]+
DATE: 2023.08.12
AUTHORS: Tobias Schulze, Martin Krauss, Department of Effect-Directed Analysis, Helmholtz Centre for Environmental Research - UFZ, Leipzig, Germany
LICENSE: CC0
COPYRIGHT: Copyright (C) 2023
COMMENT: CONFIDENCE Reference Standard (Level 1)
CH$NAME: Ethyl 4-(dimethylamino)benzoate
CH$NAME: Ethyl 4-dimethylaminobenzoate
CH$COMPOUND_CLASS: N/A; Environmental Standard
CH$FORMULA: C11H15NO2
CH$EXACT_MASS: 193.11027872
CH$SMILES: CCOC(=O)C1=CC=C(C=C1)N(C)C
CH$IUPAC: InChI=1S/C11H15NO2/c1-4-14-11(13)9-5-7-10(8-6-9)12(2)3/h5-8H,4H2,1-3H3
CH$LINK: CAS 10287-53-3
CH$LINK: CHEBI CHEBI:52073
CH$LINK: PUBCHEM CID:25127
CH$LINK: INCHIKEY FZUGPQWGEGAKET-UHFFFAOYSA-N
CH$LINK: CHEMSPIDER 23472
CH$LINK: COMPTOX DTXSID2044763
AC$INSTRUMENT: LTQ Orbitrap XL Thermo Scientific
AC$INSTRUMENT_TYPE: LC-ESI-ITFT
AC$MASS_SPECTROMETRY: MS_TYPE MS2
AC$MASS_SPECTROMETRY: ION_MODE POSITIVE
AC$MASS_SPECTROMETRY: IONIZATION ESI
AC$MASS_SPECTROMETRY: FRAGMENTATION_MODE HCD
AC$MASS_SPECTROMETRY: COLLISION_ENERGY 50 % (nominal)
AC$MASS_SPECTROMETRY: RESOLUTION 15000
AC$MASS_SPECTROMETRY: MASS_RANGE_M/Z 50-205
AC$CHROMATOGRAPHY: COLUMN_NAME Kinetex Evo C18 2.6 um 50 x 2.1 mm
AC$CHROMATOGRAPHY: FLOW_GRADIENT 95/5 at 0 min, 95/5 at 1 min, 0/100 at 13 min, 0/100 at 24 min, 95/5 at 24.3 min, 95/5 at 32 min
AC$CHROMATOGRAPHY: FLOW_RATE 300 uL/min
AC$CHROMATOGRAPHY: RETENTION_TIME 11.173 min
MS$FOCUSED_ION: BASE_PEAK 194.1182
MS$FOCUSED_ION: PRECURSOR_M/Z 194.1176
MS$FOCUSED_ION: PRECURSOR_TYPE [M+H]+
MS$FOCUSED_ION: PRECURSOR_INTENSITY 26913130
MS$DATA_PROCESSING: RECALIBRATE loess on assigned fragments and MS1
MS$DATA_PROCESSING: REANALYZE Peaks with additional N2/O included
MS$DATA_PROCESSING: WHOLE RMassBank 3.11.2
PK$SPLASH: splash10-016u-0900000000-e03a0ced7e2c1edd9196
PK$ANNOTATION: m/z tentative_formula formula_count mass error(ppm)
  107.073 C7H9N+ 1 107.073 0.02
  121.0887 C8H11N+ 1 121.0886 0.58
  122.0965 C8H12N+ 1 122.0964 0.32
  134.0601 C8H8NO+ 1 134.06 0.79
  134.0968 C9H12N+ 1 134.0964 3.01
  135.0678 C8H9NO+ 1 135.0679 -0.79
  148.0757 C9H10NO+ 1 148.0757 0.25
  150.055 C8H8NO2+ 1 150.055 0.5
  151.0629 C8H9NO2+ 1 151.0628 0.9
  164.071 C9H10NO2+ 1 164.0706 2.5
  166.0864 C9H12NO2+ 1 166.0863 0.72
  178.0866 C10H12NO2+ 1 178.0863 2.18
  179.0942 C10H13NO2+ 1 179.0941 0.89
  194.1174 C11H16NO2+ 1 194.1176 -0.99
PK$NUM_PEAK: 14
PK$PEAK: m/z int. rel.int.
  107.073 49246.9 20
  121.0887 58050.6 24
  122.0965 43229.9 17
  134.0601 221854.9 91
  134.0968 12625.4 5
  135.0678 20499.3 8
  148.0757 10869.1 4
  150.055 9716.3 4
  151.0629 994223.9 411
  164.071 27632.9 11
  166.0864 2410773.5 999
  178.0866 20937.5 8
  179.0942 2074533.8 859
  194.1174 2057268.9 852
//
