ACCESSION: MSBNK-UFZ-WANA004513D9F1PH
RECORD_TITLE: Iminostilbene; LC-ESI-ITFT; MS2; CE: 50%; R=15000; [M+H]+
DATE: 2023.08.12
AUTHORS: Tobias Schulze, Martin Krauss, Department of Effect-Directed Analysis, Helmholtz Centre for Environmental Research - UFZ, Leipzig, Germany
LICENSE: CC0
COPYRIGHT: Copyright (C) 2023
COMMENT: CONFIDENCE Reference Standard (Level 1)
CH$NAME: Iminostilbene
CH$NAME: 11H-benzo[b][1]benzazepine
CH$COMPOUND_CLASS: N/A; Environmental Standard
CH$FORMULA: C14H11N
CH$EXACT_MASS: 193.089149352
CH$SMILES: N1C2=CC=CC=C2C=CC2=CC=CC=C12
CH$IUPAC: InChI=1S/C14H11N/c1-3-7-13-11(5-1)9-10-12-6-2-4-8-14(12)15-13/h1-10,15H
CH$LINK: CAS 256-96-2
CH$LINK: CHEBI CHEBI:47802
CH$LINK: PUBCHEM CID:9212
CH$LINK: INCHIKEY LCGTWRLJTMHIQZ-UHFFFAOYSA-N
CH$LINK: CHEMSPIDER 8857
CH$LINK: COMPTOX DTXSID90871625
AC$INSTRUMENT: LTQ Orbitrap XL Thermo Scientific
AC$INSTRUMENT_TYPE: LC-ESI-ITFT
AC$MASS_SPECTROMETRY: MS_TYPE MS2
AC$MASS_SPECTROMETRY: ION_MODE POSITIVE
AC$MASS_SPECTROMETRY: IONIZATION ESI
AC$MASS_SPECTROMETRY: FRAGMENTATION_MODE HCD
AC$MASS_SPECTROMETRY: COLLISION_ENERGY 50 % (nominal)
AC$MASS_SPECTROMETRY: RESOLUTION 15000
AC$MASS_SPECTROMETRY: MASS_RANGE_M/Z 50-205
AC$CHROMATOGRAPHY: COLUMN_NAME Kinetex Evo C18 2.6 um 50 x 2.1 mm
AC$CHROMATOGRAPHY: FLOW_GRADIENT 95/5 at 0 min, 95/5 at 1 min, 0/100 at 13 min, 0/100 at 24 min, 95/5 at 24.3 min, 95/5 at 32 min
AC$CHROMATOGRAPHY: FLOW_RATE 300 uL/min
AC$CHROMATOGRAPHY: RETENTION_TIME 11.173 min
MS$FOCUSED_ION: BASE_PEAK 194.1182
MS$FOCUSED_ION: PRECURSOR_M/Z 194.0964
MS$FOCUSED_ION: PRECURSOR_TYPE [M+H]+
MS$FOCUSED_ION: PRECURSOR_INTENSITY 26913130
MS$DATA_PROCESSING: RECALIBRATE loess on assigned fragments and MS1
MS$DATA_PROCESSING: REANALYZE Peaks with additional N2/O included
MS$DATA_PROCESSING: WHOLE RMassBank 3.11.2
PK$SPLASH: splash10-0006-0900000000-3c62d89fc9ed056e755f
PK$ANNOTATION: m/z tentative_formula formula_count mass error(ppm)
  107.073 C7H9N+ 1 107.073 0.02
  121.0887 C8H11N+ 1 121.0886 0.58
  122.0965 C8H12N+ 1 122.0964 0.32
  134.0968 C9H12N+ 1 134.0964 3.01
  167.0859 C13H11+ 1 167.0855 1.95
  193.089 C14H11N+ 1 193.0886 1.97
  194.0965 C14H12N+ 1 194.0964 0.48
PK$NUM_PEAK: 7
PK$PEAK: m/z int. rel.int.
  107.073 49246.9 6
  121.0887 58050.6 7
  122.0965 43229.9 5
  134.0968 12625.4 1
  167.0859 9604.8 1
  193.089 53764.2 7
  194.0965 7393775.5 999
//
