ACCESSION: MSBNK-UFZ-WANA0196237762PH
RECORD_TITLE: Carbendazim; LC-ESI-ITFT; MS2; CE: 80%; R=15000; [M+H]+
DATE: 2023.08.13
AUTHORS: Tobias Schulze, Martin Krauss, Department of Effect-Directed Analysis, Helmholtz Centre for Environmental Research - UFZ, Leipzig, Germany
LICENSE: CC0
COPYRIGHT: Copyright (C) 2023
COMMENT: CONFIDENCE Reference Standard (Level 1)
CH$NAME: Carbendazim
CH$NAME: methyl N-(1H-benzimidazol-2-yl)carbamate
CH$COMPOUND_CLASS: N/A; Environmental Standard
CH$FORMULA: C9H9N3O2
CH$EXACT_MASS: 191.069476528
CH$SMILES: COC(=O)NC1=NC2=CC=CC=C2N1
CH$IUPAC: InChI=1S/C9H9N3O2/c1-14-9(13)12-8-10-6-4-2-3-5-7(6)11-8/h2-5H,1H3,(H2,10,11,12,13)
CH$LINK: CAS 37953-07-4
CH$LINK: CHEBI CHEBI:3392
CH$LINK: KEGG C10897
CH$LINK: PUBCHEM CID:25429
CH$LINK: INCHIKEY TWFZGCMQGLPBSX-UHFFFAOYSA-N
CH$LINK: CHEMSPIDER 23741
CH$LINK: COMPTOX DTXSID4024729
AC$INSTRUMENT: LTQ Orbitrap XL Thermo Scientific
AC$INSTRUMENT_TYPE: LC-ESI-ITFT
AC$MASS_SPECTROMETRY: MS_TYPE MS2
AC$MASS_SPECTROMETRY: ION_MODE POSITIVE
AC$MASS_SPECTROMETRY: IONIZATION ESI
AC$MASS_SPECTROMETRY: FRAGMENTATION_MODE HCD
AC$MASS_SPECTROMETRY: COLLISION_ENERGY 80 % (nominal)
AC$MASS_SPECTROMETRY: RESOLUTION 15000
AC$MASS_SPECTROMETRY: MASS_RANGE_M/Z 50-205
AC$CHROMATOGRAPHY: COLUMN_NAME Kinetex Evo C18 2.6 um 50 x 2.1 mm
AC$CHROMATOGRAPHY: FLOW_GRADIENT 95/5 at 0 min, 95/5 at 1 min, 0/100 at 13 min, 0/100 at 24 min, 95/5 at 24.3 min, 95/5 at 32 min
AC$CHROMATOGRAPHY: FLOW_RATE 300 uL/min
AC$CHROMATOGRAPHY: RETENTION_TIME 1.117 min
MS$FOCUSED_ION: BASE_PEAK 192.0774
MS$FOCUSED_ION: PRECURSOR_M/Z 192.0768
MS$FOCUSED_ION: PRECURSOR_TYPE [M+H]+
MS$FOCUSED_ION: PRECURSOR_INTENSITY 15893174
MS$DATA_PROCESSING: RECALIBRATE loess on assigned fragments and MS1
MS$DATA_PROCESSING: REANALYZE Peaks with additional N2/O included
MS$DATA_PROCESSING: WHOLE RMassBank 3.11.2
PK$SPLASH: splash10-03di-0900000000-85605614ea59dc8694d2
PK$ANNOTATION: m/z tentative_formula formula_count mass error(ppm)
  90.034 C6H4N+ 1 90.0338 1.84
  91.0544 C7H7+ 1 91.0542 1.86
  92.0495 C6H6N+ 1 92.0495 0.78
  105.0448 C6H5N2+ 1 105.0447 0.85
  107.0603 C6H7N2+ 1 107.0604 -0.24
  117.0448 C7H5N2+ 1 117.0447 0.83
  119.0492 C8H7O+ 1 119.0491 0.83
  119.0606 C7H7N2+ 1 119.0604 2.28
  132.0557 C7H6N3+ 1 132.0556 0.91
  133.0636 C7H7N3+ 1 133.0634 0.8
  135.0554 C7H7N2O+ 1 135.0553 0.61
  148.0876 C8H10N3+ 1 148.0869 4.27
  160.0506 C8H6N3O+ 1 160.0505 0.49
  192.076 C9H10N3O2+ 1 192.0768 -4.06
PK$NUM_PEAK: 14
PK$PEAK: m/z int. rel.int.
  90.034 6148.4 1
  91.0544 11202 2
  92.0495 93486.4 17
  105.0448 51914 9
  107.0603 7824.2 1
  117.0448 19722.8 3
  119.0492 17575.5 3
  119.0606 5417.6 1
  132.0557 577190.2 109
  133.0636 121245.7 23
  135.0554 69809.5 13
  148.0876 6052.8 1
  160.0506 5243218.5 999
  192.076 6115.8 1
//
