ACCESSION: MSBNK-UFZ-WANA405401AD6CPH
RECORD_TITLE: 2-(Piperazin-1-yl)ethanamine; LC-ESI-ITFT; MS2; CE: 10%; R=15000; [M+H]+
DATE: 2023.08.12
AUTHORS: Tobias Schulze, Martin Krauss, Department of Effect-Directed Analysis, Helmholtz Centre for Environmental Research - UFZ, Leipzig, Germany
LICENSE: CC0
COPYRIGHT: Copyright (C) 2023
COMMENT: CONFIDENCE Reference Standard (Level 1)
CH$NAME: 2-(Piperazin-1-yl)ethanamine
CH$NAME: N-(2-Aminoethyl)piperazine
CH$NAME: 2-piperazin-1-ylethanamine
CH$COMPOUND_CLASS: N/A; Environmental Standard
CH$FORMULA: C6H15N3
CH$EXACT_MASS: 129.12659748
CH$SMILES: NCCN1CCNCC1
CH$IUPAC: InChI=1S/C6H15N3/c7-1-4-9-5-2-8-3-6-9/h8H,1-7H2
CH$LINK: CAS 140-31-8
CH$LINK: PUBCHEM CID:8795
CH$LINK: INCHIKEY IMUDHTPIFIBORV-UHFFFAOYSA-N
CH$LINK: CHEMSPIDER 8465
CH$LINK: COMPTOX DTXSID2021997
AC$INSTRUMENT: LTQ Orbitrap XL Thermo Scientific
AC$INSTRUMENT_TYPE: LC-ESI-ITFT
AC$MASS_SPECTROMETRY: MS_TYPE MS2
AC$MASS_SPECTROMETRY: ION_MODE POSITIVE
AC$MASS_SPECTROMETRY: IONIZATION ESI
AC$MASS_SPECTROMETRY: FRAGMENTATION_MODE HCD
AC$MASS_SPECTROMETRY: COLLISION_ENERGY 10 % (nominal)
AC$MASS_SPECTROMETRY: RESOLUTION 15000
AC$MASS_SPECTROMETRY: MASS_RANGE_M/Z 50-145
AC$CHROMATOGRAPHY: COLUMN_NAME Kinetex Evo C18 2.6 um 50 x 2.1 mm
AC$CHROMATOGRAPHY: FLOW_GRADIENT 95/5 at 0 min, 95/5 at 1 min, 0/100 at 13 min, 0/100 at 24 min, 95/5 at 24.3 min, 95/5 at 32 min
AC$CHROMATOGRAPHY: FLOW_RATE 300 uL/min
AC$CHROMATOGRAPHY: RETENTION_TIME 0.470 min
MS$FOCUSED_ION: BASE_PEAK 202.1802
MS$FOCUSED_ION: PRECURSOR_M/Z 130.1339
MS$FOCUSED_ION: PRECURSOR_TYPE [M+H]+
MS$FOCUSED_ION: PRECURSOR_INTENSITY 1744157.25
MS$DATA_PROCESSING: RECALIBRATE loess on assigned fragments and MS1
MS$DATA_PROCESSING: REANALYZE Peaks with additional N2/O included
MS$DATA_PROCESSING: WHOLE RMassBank 3.11.2
PK$SPLASH: splash10-001i-0900000000-4526acb67470cc8e922c
PK$ANNOTATION: m/z tentative_formula formula_count mass error(ppm)
  113.1076 C6H13N2+ 1 113.1073 2.22
  130.1341 C6H16N3+ 1 130.1339 1.75
PK$NUM_PEAK: 2
PK$PEAK: m/z int. rel.int.
  113.1076 15035 66
  130.1341 225641.2 999
//
