ACCESSION: MSBNK-UFZ-WANA265713D9F1PH
RECORD_TITLE: Azobenzene; LC-ESI-ITFT; MS2; CE: 50%; R=15000; [M+H]+
DATE: 2023.08.12
AUTHORS: Tobias Schulze, Martin Krauss, Department of Effect-Directed Analysis, Helmholtz Centre for Environmental Research - UFZ, Leipzig, Germany
LICENSE: CC0
COPYRIGHT: Copyright (C) 2023
COMMENT: CONFIDENCE Reference Standard (Level 1)
CH$NAME: Azobenzene
CH$COMPOUND_CLASS: N/A; Environmental Standard
CH$FORMULA: C12H10N2
CH$EXACT_MASS: 182.08439832
CH$SMILES: C1=CC=C(C=C1)\N=N\C1=CC=CC=C1
CH$IUPAC: InChI=1S/C12H10N2/c1-3-7-11(8-4-1)13-14-12-9-5-2-6-10-12/h1-10H/b14-13+
CH$LINK: CAS 103-33-3
CH$LINK: CHEBI CHEBI:58996
CH$LINK: KEGG C19334
CH$LINK: INCHIKEY DMLAVOWQYNRWNQ-BUHFOSPRSA-N
CH$LINK: CHEMSPIDER 2185
CH$LINK: COMPTOX DTXSID601026524
AC$INSTRUMENT: LTQ Orbitrap XL Thermo Scientific
AC$INSTRUMENT_TYPE: LC-ESI-ITFT
AC$MASS_SPECTROMETRY: MS_TYPE MS2
AC$MASS_SPECTROMETRY: ION_MODE POSITIVE
AC$MASS_SPECTROMETRY: IONIZATION ESI
AC$MASS_SPECTROMETRY: FRAGMENTATION_MODE HCD
AC$MASS_SPECTROMETRY: COLLISION_ENERGY 50 % (nominal)
AC$MASS_SPECTROMETRY: RESOLUTION 15000
AC$MASS_SPECTROMETRY: MASS_RANGE_M/Z 50-195
AC$CHROMATOGRAPHY: COLUMN_NAME Kinetex Evo C18 2.6 um 50 x 2.1 mm
AC$CHROMATOGRAPHY: FLOW_GRADIENT 95/5 at 0 min, 95/5 at 1 min, 0/100 at 13 min, 0/100 at 24 min, 95/5 at 24.3 min, 95/5 at 32 min
AC$CHROMATOGRAPHY: FLOW_RATE 300 uL/min
AC$CHROMATOGRAPHY: RETENTION_TIME 10.321 min
MS$FOCUSED_ION: BASE_PEAK 116.9859
MS$FOCUSED_ION: PRECURSOR_M/Z 183.0917
MS$FOCUSED_ION: PRECURSOR_TYPE [M+H]+
MS$FOCUSED_ION: PRECURSOR_INTENSITY 1076884.75
MS$DATA_PROCESSING: RECALIBRATE loess on assigned fragments and MS1
MS$DATA_PROCESSING: REANALYZE Peaks with additional N2/O included
MS$DATA_PROCESSING: WHOLE RMassBank 3.11.2
PK$SPLASH: splash10-004i-9800000000-97d29e9e384b9034a3f2
PK$ANNOTATION: m/z tentative_formula formula_count mass error(ppm)
  77.0386 C6H5+ 1 77.0386 0.61
  105.0448 C6H5N2+ 1 105.0447 1.15
  153.0705 C12H9+ 1 153.0699 4.01
  154.0784 C12H10+ 1 154.0777 4.47
  166.0654 C12H8N+ 1 166.0651 1.43
  183.0919 C12H11N2+ 1 183.0917 1.15
PK$NUM_PEAK: 6
PK$PEAK: m/z int. rel.int.
  77.0386 210088.2 999
  105.0448 85450.7 406
  153.0705 1108.9 5
  154.0784 1116.9 5
  166.0654 4546.8 21
  183.0919 103374.3 491
//
