ACCESSION: MSBNK-UFZ-WANA239001AD6CPH
RECORD_TITLE: Propyzamide; LC-ESI-ITFT; MS2; CE: 10%; R=15000; [M+H]+
DATE: 2023.08.12
AUTHORS: Tobias Schulze, Martin Krauss, Department of Effect-Directed Analysis, Helmholtz Centre for Environmental Research - UFZ, Leipzig, Germany
LICENSE: CC0
COPYRIGHT: Copyright (C) 2023
COMMENT: CONFIDENCE Reference Standard (Level 1)
CH$NAME: Propyzamide
CH$NAME: 3,5-dichloro-N-(2-methylbut-3-yn-2-yl)benzamide
CH$COMPOUND_CLASS: N/A; Environmental Standard
CH$FORMULA: C12H11Cl2NO
CH$EXACT_MASS: 255.021769332
CH$SMILES: CC(C)(NC(=O)C1=CC(Cl)=CC(Cl)=C1)C#C
CH$IUPAC: InChI=1S/C12H11Cl2NO/c1-4-12(2,3)15-11(16)8-5-9(13)7-10(14)6-8/h1,5-7H,2-3H3,(H,15,16)
CH$LINK: CAS 11097-11-3
CH$LINK: CHEBI CHEBI:34935
CH$LINK: KEGG C14333
CH$LINK: PUBCHEM CID:32154
CH$LINK: INCHIKEY PHNUZKMIPFFYSO-UHFFFAOYSA-N
CH$LINK: CHEMSPIDER 29822
CH$LINK: COMPTOX DTXSID2020420
AC$INSTRUMENT: LTQ Orbitrap XL Thermo Scientific
AC$INSTRUMENT_TYPE: LC-ESI-ITFT
AC$MASS_SPECTROMETRY: MS_TYPE MS2
AC$MASS_SPECTROMETRY: ION_MODE POSITIVE
AC$MASS_SPECTROMETRY: IONIZATION ESI
AC$MASS_SPECTROMETRY: FRAGMENTATION_MODE HCD
AC$MASS_SPECTROMETRY: COLLISION_ENERGY 10 % (nominal)
AC$MASS_SPECTROMETRY: RESOLUTION 15000
AC$MASS_SPECTROMETRY: MASS_RANGE_M/Z 50-270
AC$CHROMATOGRAPHY: COLUMN_NAME Kinetex Evo C18 2.6 um 50 x 2.1 mm
AC$CHROMATOGRAPHY: FLOW_GRADIENT 95/5 at 0 min, 95/5 at 1 min, 0/100 at 13 min, 0/100 at 24 min, 95/5 at 24.3 min, 95/5 at 32 min
AC$CHROMATOGRAPHY: FLOW_RATE 300 uL/min
AC$CHROMATOGRAPHY: RETENTION_TIME 11.147 min
MS$FOCUSED_ION: BASE_PEAK 334.1053
MS$FOCUSED_ION: PRECURSOR_M/Z 256.029
MS$FOCUSED_ION: PRECURSOR_TYPE [M+H]+
MS$FOCUSED_ION: PRECURSOR_INTENSITY 5106406
MS$DATA_PROCESSING: RECALIBRATE loess on assigned fragments and MS1
MS$DATA_PROCESSING: REANALYZE Peaks with additional N2/O included
MS$DATA_PROCESSING: WHOLE RMassBank 3.11.2
PK$SPLASH: splash10-0a4i-0090000000-9e2939a3dc0488b7a85d
PK$ANNOTATION: m/z tentative_formula formula_count mass error(ppm)
  172.9558 C7H3Cl2O+ 1 172.9555 1.5
  189.9822 C7H6Cl2NO+ 1 189.9821 0.46
  256.029 C12H12Cl2NO+ 1 256.029 -0.19
PK$NUM_PEAK: 3
PK$PEAK: m/z int. rel.int.
  172.9558 2605 5
  189.9822 37114.1 82
  256.029 451521.4 999
//
