ACCESSION: MSBNK-UFZ-WANA2438237762PH
RECORD_TITLE: N-Cyclohexyl-2-benzothiazole-amine; LC-ESI-ITFT; MS2; CE: 80%; R=15000; [M+H]+
DATE: 2023.08.13
AUTHORS: Tobias Schulze, Martin Krauss, Department of Effect-Directed Analysis, Helmholtz Centre for Environmental Research - UFZ, Leipzig, Germany
LICENSE: CC0
COPYRIGHT: Copyright (C) 2023
COMMENT: CONFIDENCE Reference Standard (Level 1)
CH$NAME: N-Cyclohexyl-2-benzothiazole-amine
CH$NAME: N-cyclohexyl-1,3-benzothiazol-2-amine
CH$COMPOUND_CLASS: N/A; Environmental Standard
CH$FORMULA: C13H16N2S
CH$EXACT_MASS: 232.103419512
CH$SMILES: C1CCC(CC1)NC1=NC2=CC=CC=C2S1
CH$IUPAC: InChI=1S/C13H16N2S/c1-2-6-10(7-3-1)14-13-15-11-8-4-5-9-12(11)16-13/h4-5,8-10H,1-3,6-7H2,(H,14,15)
CH$LINK: CAS 28291-75-0
CH$LINK: CHEBI CHEBI:191148
CH$LINK: PUBCHEM CID:591790
CH$LINK: INCHIKEY UPWPIFMHSFSVLE-UHFFFAOYSA-N
CH$LINK: CHEMSPIDER 514454
CH$LINK: COMPTOX DTXSID50891506
AC$INSTRUMENT: LTQ Orbitrap XL Thermo Scientific
AC$INSTRUMENT_TYPE: LC-ESI-ITFT
AC$MASS_SPECTROMETRY: MS_TYPE MS2
AC$MASS_SPECTROMETRY: ION_MODE POSITIVE
AC$MASS_SPECTROMETRY: IONIZATION ESI
AC$MASS_SPECTROMETRY: FRAGMENTATION_MODE HCD
AC$MASS_SPECTROMETRY: COLLISION_ENERGY 80 % (nominal)
AC$MASS_SPECTROMETRY: RESOLUTION 15000
AC$MASS_SPECTROMETRY: MASS_RANGE_M/Z 50-245
AC$CHROMATOGRAPHY: COLUMN_NAME Kinetex Evo C18 2.6 um 50 x 2.1 mm
AC$CHROMATOGRAPHY: FLOW_GRADIENT 95/5 at 0 min, 95/5 at 1 min, 0/100 at 13 min, 0/100 at 24 min, 95/5 at 24.3 min, 95/5 at 32 min
AC$CHROMATOGRAPHY: FLOW_RATE 300 uL/min
AC$CHROMATOGRAPHY: RETENTION_TIME 9.481 min
MS$FOCUSED_ION: BASE_PEAK 233.1113
MS$FOCUSED_ION: PRECURSOR_M/Z 233.1107
MS$FOCUSED_ION: PRECURSOR_TYPE [M+H]+
MS$FOCUSED_ION: PRECURSOR_INTENSITY 76010480
MS$DATA_PROCESSING: RECALIBRATE loess on assigned fragments and MS1
MS$DATA_PROCESSING: REANALYZE Peaks with additional N2/O included
MS$DATA_PROCESSING: WHOLE RMassBank 3.11.2
PK$SPLASH: splash10-0udi-0900000000-73a3c374560f18a51826
PK$ANNOTATION: m/z tentative_formula formula_count mass error(ppm)
  83.0854 C6H11+ 1 83.0855 -1.2
  92.0494 C6H6N+ 1 92.0495 -0.46
  109.0106 C6H5S+ 1 109.0106 -0.59
  118.0524 C7H6N2+ 1 118.0525 -1.12
  124.0215 C6H6NS+ 1 124.0215 -0.68
  151.0323 C7H7N2S+ 1 151.0324 -0.71
  233.11 C13H17N2S+ 1 233.1107 -3.19
PK$NUM_PEAK: 7
PK$PEAK: m/z int. rel.int.
  83.0854 2620497 85
  92.0494 764216.5 24
  109.0106 1535314.2 50
  118.0524 88687.2 2
  124.0215 2120173.5 69
  151.0323 30572372 999
  233.11 106527.1 3
//
