ACCESSION: MSBNK-UFZ-WANA0292155BE0PM
RECORD_TITLE: Benzethonium; LC-ESI-ITFT; MS2; CE: 60%; R=15000; [M]+
DATE: 2023.08.13
AUTHORS: Tobias Schulze, Martin Krauss, Department of Effect-Directed Analysis, Helmholtz Centre for Environmental Research - UFZ, Leipzig, Germany
LICENSE: CC0
COPYRIGHT: Copyright (C) 2023
COMMENT: CONFIDENCE Reference Standard (Level 1)
CH$NAME: Benzethonium
CH$NAME: benzyl-dimethyl-[2-[2-[4-(2,4,4-trimethylpentan-2-yl)phenoxy]ethoxy]ethyl]azanium
CH$COMPOUND_CLASS: N/A; Environmental Standard
CH$FORMULA: C27H42NO2
CH$EXACT_MASS: 412.321006004091
CH$SMILES: CC(C)(C)CC(C)(C)C1=CC=C(OCCOCC[N+](C)(C)CC2=CC=CC=C2)C=C1
CH$IUPAC: InChI=1S/C27H42NO2/c1-26(2,3)22-27(4,5)24-13-15-25(16-14-24)30-20-19-29-18-17-28(6,7)21-23-11-9-8-10-12-23/h8-16H,17-22H2,1-7H3/q+1
CH$LINK: CAS 498-77-1
CH$LINK: CHEBI 94725
CH$LINK: PUBCHEM CID:2335
CH$LINK: INCHIKEY SIYLLGKDQZGJHK-UHFFFAOYSA-N
CH$LINK: CHEMSPIDER 2245
CH$LINK: COMPTOX DTXSID5046984
AC$INSTRUMENT: LTQ Orbitrap XL Thermo Scientific
AC$INSTRUMENT_TYPE: LC-ESI-ITFT
AC$MASS_SPECTROMETRY: MS_TYPE MS2
AC$MASS_SPECTROMETRY: ION_MODE POSITIVE
AC$MASS_SPECTROMETRY: IONIZATION ESI
AC$MASS_SPECTROMETRY: FRAGMENTATION_MODE HCD
AC$MASS_SPECTROMETRY: COLLISION_ENERGY 60 % (nominal)
AC$MASS_SPECTROMETRY: RESOLUTION 15000
AC$MASS_SPECTROMETRY: MASS_RANGE_M/Z 50-425
AC$CHROMATOGRAPHY: COLUMN_NAME Kinetex Evo C18 2.6 um 50 x 2.1 mm
AC$CHROMATOGRAPHY: FLOW_GRADIENT 95/5 at 0 min, 95/5 at 1 min, 0/100 at 13 min, 0/100 at 24 min, 95/5 at 24.3 min, 95/5 at 32 min
AC$CHROMATOGRAPHY: FLOW_RATE 300 uL/min
AC$CHROMATOGRAPHY: RETENTION_TIME 11.407 min
MS$FOCUSED_ION: BASE_PEAK 412.322
MS$FOCUSED_ION: PRECURSOR_M/Z 412.321
MS$FOCUSED_ION: PRECURSOR_TYPE [M]+
MS$FOCUSED_ION: PRECURSOR_INTENSITY 67167928
MS$DATA_PROCESSING: RECALIBRATE loess on assigned fragments and MS1
MS$DATA_PROCESSING: REANALYZE Peaks with additional N2/O included
MS$DATA_PROCESSING: WHOLE RMassBank 3.11.2
PK$SPLASH: splash10-006x-9000000000-c60c7694d6ed63d77d7b
PK$ANNOTATION: m/z tentative_formula formula_count mass error(ppm)
  70.0649 C4H8N+ 1 70.0651 -3.22
  72.0805 C4H10N+ 1 72.0808 -3.78
  84.0807 C5H10N+ 1 84.0808 -1
  86.0598 C4H8NO+ 1 86.06 -2.32
  88.0756 C4H10NO+ 1 88.0757 -1.09
  91.054 C7H7+ 1 91.0542 -2.3
  100.0756 C5H10NO+ 1 100.0757 -1.24
  105.07 C8H9+ 1 105.0699 1.47
  114.0911 C6H12NO+ 1 114.0913 -2.34
  116.1068 C6H14NO+ 1 116.107 -1.48
  118.0777 C9H10+ 1 118.0777 -0.19
  121.0647 C8H9O+ 1 121.0648 -0.9
  134.0961 C9H12N+ 1 134.0964 -2.16
  135.0805 C9H11O+ 1 135.0804 0.25
  149.0956 C10H13O+ 1 149.0961 -3.01
  177.1269 C12H17O+ 1 177.1274 -2.93
  208.1332 C12H18NO2+ 1 208.1332 -0.2
  233.1901 C16H25O+ 1 233.19 0.26
  320.2583 C20H34NO2+ 1 320.2584 -0.48
PK$NUM_PEAK: 19
PK$PEAK: m/z int. rel.int.
  70.0649 85224.5 5
  72.0805 7005533 490
  84.0807 45293.3 3
  86.0598 92571.3 6
  88.0756 69581.5 4
  91.054 14256365 999
  100.0756 65085.2 4
  105.07 47388.8 3
  114.0911 70942.2 4
  116.1068 181218.8 12
  118.0777 146026.1 10
  121.0647 90818.7 6
  134.0961 80008.2 5
  135.0805 162402.6 11
  149.0956 120007.4 8
  177.1269 44504 3
  208.1332 145138.5 10
  233.1901 246874.2 17
  320.2583 1457330.9 102
//
