ACCESSION: MSBNK-UFZ-UA001503
RECORD_TITLE: Benzophenone; APCI-ITFT; MS2; CE: 35%; R=30000; [M+H]+
DATE: 2014.06.24
AUTHORS: C. Gallampois (Umea), E. Schymanski (Eawag), W. Brack (UFZ)
LICENSE: CC BY
COPYRIGHT: Copyright (C) Eawag, 2014
PUBLICATION: Multi-criteria approach for tentative identification of polyaromatic river mutagens
COMMENT: CONFIDENCE standard compound
COMMENT: INTERNAL_ID 15
CH$NAME: Benzophenone
CH$NAME: diphenylmethanone
CH$COMPOUND_CLASS: N/A; Environmental Standard
CH$FORMULA: C13H10O
CH$EXACT_MASS: 182.0732
CH$SMILES: O=C(c1ccccc1)c2ccccc2
CH$IUPAC: InChI=1S/C13H10O/c14-13(11-7-3-1-4-8-11)12-9-5-2-6-10-12/h1-10H
CH$LINK: CAS 119-61-9
CH$LINK: KEGG C06354
CH$LINK: PUBCHEM CID:3102
CH$LINK: INCHIKEY RWCCWEUUXYIKHB-UHFFFAOYSA-N
CH$LINK: CHEMSPIDER 2991
CH$LINK: COMPTOX DTXSID0021961
AC$INSTRUMENT: LTQ Orbitrap XL Thermo Scientific
AC$INSTRUMENT_TYPE: APCI-ITFT
AC$MASS_SPECTROMETRY: MS_TYPE MS2
AC$MASS_SPECTROMETRY: ION_MODE POSITIVE
AC$MASS_SPECTROMETRY: IONIZATION APCI
AC$MASS_SPECTROMETRY: FRAGMENTATION_MODE CID
AC$MASS_SPECTROMETRY: COLLISION_ENERGY 35 % (nominal)
AC$MASS_SPECTROMETRY: RESOLUTION 30000
AC$CHROMATOGRAPHY: COLUMN_NAME N/A
AC$CHROMATOGRAPHY: FLOW_GRADIENT Direct infusion experiment
AC$CHROMATOGRAPHY: FLOW_RATE 5 uL/min
AC$CHROMATOGRAPHY: RETENTION_TIME N/A min
AC$CHROMATOGRAPHY: SOLVENT A methanol
AC$CHROMATOGRAPHY: SOLVENT B N/A
MS$FOCUSED_ION: BASE_PEAK 183.0804
MS$FOCUSED_ION: PRECURSOR_M/Z 183.0804
MS$FOCUSED_ION: PRECURSOR_TYPE [M+H]+
MS$DATA_PROCESSING: RECALIBRATE loess on assigned fragments and MS1
MS$DATA_PROCESSING: REANALYZE Peaks with additional N2/O included
MS$DATA_PROCESSING: WHOLE RMassBank 1.5.2.3
PK$SPLASH: splash10-0a4i-0900000000-c08dc4bd854f23a10ab6
PK$ANNOTATION: m/z tentative_formula formula_count mass error(ppm)
  77.0386 C6H5+ 1 77.0386 0.43
  105.0335 C7H5O+ 1 105.0335 -0.11
  183.0806 C13H11O+ 1 183.0804 1.08
PK$NUM_PEAK: 3
PK$PEAK: m/z int. rel.int.
  77.0386 128164.8 9
  105.0335 13335897.9 999
  183.0806 274264.8 20
//
