ACCESSION: MSBNK-UFZ-UF414302
RECORD_TITLE: 4,4`-Thiodianiline; LC-ESI-ITFT; MS2; CE: 80; R=15000; [M+H]+
DATE: 2017.01.05
AUTHORS: Schulze T, Krauss M, Department of Effect-Directed Analysis, Helmholtz Centre for Environmental Research - UFZ GmbH, Leipzig, Germany
LICENSE: CC BY
COPYRIGHT: Copyright (C) 2017
COMMENT: CONFIDENCE standard compound
COMMENT: INTERNAL_ID 4143
CH$NAME: 4,4`-Thiodianiline
CH$NAME: 4-(4-Aminophenyl)sulfanylaniline
CH$COMPOUND_CLASS: N/A; Environmental Standard
CH$FORMULA: C12H12N2S
CH$EXACT_MASS: 216.0721
CH$SMILES: NC1=CC=C(SC2=CC=C(N)C=C2)C=C1
CH$IUPAC: InChI=1S/C12H12N2S/c13-9-1-5-11(6-2-9)15-12-7-3-10(14)4-8-12/h1-8H,13-14H2
CH$LINK: CAS 139-65-1
CH$LINK: CHEBI CHEBI:82374
CH$LINK: KEGG C19303
CH$LINK: PUBCHEM CID:8765
CH$LINK: INCHIKEY ICNFHJVPAJKPHW-UHFFFAOYSA-N
CH$LINK: CHEMSPIDER 8435
CH$LINK: COMPTOX DTXSID9021344
AC$INSTRUMENT: LTQ Orbitrap XL Thermo Scientific
AC$INSTRUMENT_TYPE: LC-ESI-ITFT
AC$MASS_SPECTROMETRY: MS_TYPE MS2
AC$MASS_SPECTROMETRY: ION_MODE POSITIVE
AC$MASS_SPECTROMETRY: IONIZATION ESI
AC$MASS_SPECTROMETRY: FRAGMENTATION_MODE HCD
AC$MASS_SPECTROMETRY: COLLISION_ENERGY 80 (nominal)
AC$MASS_SPECTROMETRY: RESOLUTION 15000
AC$CHROMATOGRAPHY: COLUMN_NAME Kinetex Core-Shell C18 2.6 um, 3.0 x 100 mm, Phenomenex
AC$CHROMATOGRAPHY: FLOW_GRADIENT 90/10 at 0 min, 80/20 at 3.2 min, 5/95 at 17.8 min, 5/95 at 37.8 min, 90/10 at 37.9 min, 90/10 at 47 min
AC$CHROMATOGRAPHY: FLOW_RATE 200 uL/min
AC$CHROMATOGRAPHY: RETENTION_TIME 16.228 min
AC$CHROMATOGRAPHY: SOLVENT A water with 0.1% formic acid
AC$CHROMATOGRAPHY: SOLVENT B methanol with 0.1% formic acid
MS$FOCUSED_ION: BASE_PEAK 217.0801
MS$FOCUSED_ION: PRECURSOR_M/Z 217.0794
MS$FOCUSED_ION: PRECURSOR_TYPE [M+H]+
MS$DATA_PROCESSING: RECALIBRATE loess on assigned fragments and MS1
MS$DATA_PROCESSING: REANALYZE Peaks with additional N2/O included
MS$DATA_PROCESSING: WHOLE RMassBank 2.2.1
PK$SPLASH: splash10-00di-1900000000-fececa74527f6802535c
PK$ANNOTATION: m/z tentative_formula formula_count mass error(ppm)
  80.0498 C5H6N+ 1 80.0495 3.59
  93.0577 C6H7N+ 1 93.0573 3.86
  124.022 C6H6NS+ 1 124.0215 3.76
  129.0704 C10H9+ 1 129.0699 3.7
  134.0191 C8H6S+ 1 134.0185 4.46
  143.0735 C10H9N+ 1 143.073 4.1
  156.0815 C11H10N+ 1 156.0808 4.64
  167.0737 C12H9N+ 1 167.073 4.34
  183.0271 C12H7S+ 1 183.0263 4.42
  184.0349 C12H8S+ 1 184.0341 4.12
  184.1004 C12H12N2+ 1 184.0995 4.9
  199.0459 C12H9NS+ 1 199.045 4.21
  200.0538 C12H10NS+ 1 200.0528 4.77
  201.0364 C12H9OS+ 2 201.0369 -2.22
  211.0333 C12H7N2S+ 1 211.0324 4.22
PK$NUM_PEAK: 15
PK$PEAK: m/z int. rel.int.
  80.0498 152959.5 138
  93.0577 112563.3 102
  124.022 1099964.5 999
  129.0704 15635.3 14
  134.0191 5208.5 4
  143.0735 1721.7 1
  156.0815 39660.1 36
  167.0737 168220.3 152
  183.0271 123528.9 112
  184.0349 153116.5 139
  184.1004 56345.1 51
  199.0459 429788.6 390
  200.0538 50820.6 46
  201.0364 2021.6 1
  211.0333 49996.9 45
//
