ACCESSION: MSBNK-UFZ-WANA017805070APH
RECORD_TITLE: Sulfapyridine; LC-ESI-ITFT; MS2; CE: 30%; R=15000; [M+H]+
DATE: 2023.08.12
AUTHORS: Tobias Schulze, Martin Krauss, Department of Effect-Directed Analysis, Helmholtz Centre for Environmental Research - UFZ, Leipzig, Germany
LICENSE: CC0
COPYRIGHT: Copyright (C) 2023
COMMENT: CONFIDENCE Reference Standard (Level 1)
CH$NAME: Sulfapyridine
CH$NAME: 4-amino-N-pyridin-2-ylbenzenesulfonamide
CH$COMPOUND_CLASS: N/A; Environmental Standard
CH$FORMULA: C11H11N3O2S
CH$EXACT_MASS: 249.057197592
CH$SMILES: NC1=CC=C(C=C1)S(=O)(=O)NC1=NC=CC=C1
CH$IUPAC: InChI=1S/C11H11N3O2S/c12-9-4-6-10(7-5-9)17(15,16)14-11-3-1-2-8-13-11/h1-8H,12H2,(H,13,14)
CH$LINK: CAS 144-83-2
CH$LINK: CHEBI CHEBI:132842
CH$LINK: KEGG D02434
CH$LINK: PUBCHEM CID:5336
CH$LINK: INCHIKEY GECHUMIMRBOMGK-UHFFFAOYSA-N
CH$LINK: CHEMSPIDER 5145
CH$LINK: COMPTOX DTXSID3026067
AC$INSTRUMENT: LTQ Orbitrap XL Thermo Scientific
AC$INSTRUMENT_TYPE: LC-ESI-ITFT
AC$MASS_SPECTROMETRY: MS_TYPE MS2
AC$MASS_SPECTROMETRY: ION_MODE POSITIVE
AC$MASS_SPECTROMETRY: IONIZATION ESI
AC$MASS_SPECTROMETRY: FRAGMENTATION_MODE HCD
AC$MASS_SPECTROMETRY: COLLISION_ENERGY 30 % (nominal)
AC$MASS_SPECTROMETRY: RESOLUTION 15000
AC$MASS_SPECTROMETRY: MASS_RANGE_M/Z 50-265
AC$CHROMATOGRAPHY: COLUMN_NAME Kinetex Evo C18 2.6 um 50 x 2.1 mm
AC$CHROMATOGRAPHY: FLOW_GRADIENT 95/5 at 0 min, 95/5 at 1 min, 0/100 at 13 min, 0/100 at 24 min, 95/5 at 24.3 min, 95/5 at 32 min
AC$CHROMATOGRAPHY: FLOW_RATE 300 uL/min
AC$CHROMATOGRAPHY: RETENTION_TIME 1.744 min
MS$FOCUSED_ION: BASE_PEAK 250.0654
MS$FOCUSED_ION: PRECURSOR_M/Z 250.0645
MS$FOCUSED_ION: PRECURSOR_TYPE [M+H]+
MS$FOCUSED_ION: PRECURSOR_INTENSITY 4547338
MS$DATA_PROCESSING: RECALIBRATE loess on assigned fragments and MS1
MS$DATA_PROCESSING: REANALYZE Peaks with additional N2/O included
MS$DATA_PROCESSING: WHOLE RMassBank 3.11.2
PK$SPLASH: splash10-0udi-1790000000-da143db273d513c872d6
PK$ANNOTATION: m/z tentative_formula formula_count mass error(ppm)
  92.0499 C6H6N+ 1 92.0495 4.75
  95.0608 C5H7N2+ 1 95.0604 4.76
  108.0449 C6H6NO+ 1 108.0444 4.69
  156.0121 C6H6NO2S+ 1 156.0114 4.81
  157.0073 C5H5N2O2S+ 1 157.0066 4.5
  184.0878 C11H10N3+ 1 184.0869 4.73
  186.1032 C11H12N3+ 1 186.1026 3.39
  232.0539 C11H10N3OS+ 1 232.0539 -0.16
  250.0655 C11H12N3O2S+ 1 250.0645 4.11
PK$NUM_PEAK: 9
PK$PEAK: m/z int. rel.int.
  92.0499 23801.5 48
  95.0608 52643.6 108
  108.0449 47682 97
  156.0121 235953.3 484
  157.0073 19738.8 40
  184.0878 104990 215
  186.1032 2866 5
  232.0539 2220.1 4
  250.0655 486151 999
//
