ACCESSION: MSBNK-UFZ-UF413404
RECORD_TITLE: Isophorondiamine; LC-ESI-ITFT; MS2; CE: 55; R=15000; [M+H]+
DATE: 2017.01.05
AUTHORS: Schulze T, Krauss M, Department of Effect-Directed Analysis, Helmholtz Centre for Environmental Research - UFZ GmbH, Leipzig, Germany
LICENSE: CC BY
COPYRIGHT: Copyright (C) 2017
COMMENT: CONFIDENCE standard compound
COMMENT: INTERNAL_ID 4134
CH$NAME: Isophorondiamine
CH$NAME: Isophorone diamine
CH$NAME: 3-(Aminomethyl)-3,5,5-trimethylcyclohexan-1-amine
CH$COMPOUND_CLASS: N/A; Environmental Standard
CH$FORMULA: C10H22N2
CH$EXACT_MASS: 170.1783
CH$SMILES: CC1(C)CC(N)CC(C)(CN)C1
CH$IUPAC: InChI=1S/C10H22N2/c1-9(2)4-8(12)5-10(3,6-9)7-11/h8H,4-7,11-12H2,1-3H3
CH$LINK: CAS 2855-13-2
CH$LINK: PUBCHEM CID:17857
CH$LINK: INCHIKEY RNLHGQLZWXBQNY-UHFFFAOYSA-N
CH$LINK: CHEMSPIDER 16867
CH$LINK: COMPTOX DTXSID6027503
AC$INSTRUMENT: LTQ Orbitrap XL Thermo Scientific
AC$INSTRUMENT_TYPE: LC-ESI-ITFT
AC$MASS_SPECTROMETRY: MS_TYPE MS2
AC$MASS_SPECTROMETRY: ION_MODE POSITIVE
AC$MASS_SPECTROMETRY: IONIZATION ESI
AC$MASS_SPECTROMETRY: FRAGMENTATION_MODE CID
AC$MASS_SPECTROMETRY: COLLISION_ENERGY 55 (nominal)
AC$MASS_SPECTROMETRY: RESOLUTION 15000
AC$CHROMATOGRAPHY: COLUMN_NAME Kinetex Core-Shell C18 2.6 um, 3.0 x 100 mm, Phenomenex
AC$CHROMATOGRAPHY: FLOW_GRADIENT 90/10 at 0 min, 80/20 at 3.2 min, 5/95 at 17.8 min, 5/95 at 37.8 min, 90/10 at 37.9 min, 90/10 at 47 min
AC$CHROMATOGRAPHY: FLOW_RATE 200 uL/min
AC$CHROMATOGRAPHY: RETENTION_TIME 2.214 min
AC$CHROMATOGRAPHY: SOLVENT A water with 0.1% formic acid
AC$CHROMATOGRAPHY: SOLVENT B methanol with 0.1% formic acid
MS$FOCUSED_ION: BASE_PEAK 119.1069
MS$FOCUSED_ION: PRECURSOR_M/Z 171.1856
MS$FOCUSED_ION: PRECURSOR_TYPE [M+H]+
MS$DATA_PROCESSING: RECALIBRATE loess on assigned fragments and MS1
MS$DATA_PROCESSING: REANALYZE Peaks with additional N2/O included
MS$DATA_PROCESSING: WHOLE RMassBank 2.2.1
PK$SPLASH: splash10-0udi-0900000000-e2557ae852df7cb03806
PK$ANNOTATION: m/z tentative_formula formula_count mass error(ppm)
  72.0445 C3H6NO+ 1 72.0444 2.18
  89.0714 C3H9N2O+ 1 89.0709 4.66
  107.0607 C6H7N2+ 1 107.0604 3.37
  154.1596 C10H20N+ 1 154.159 4
PK$NUM_PEAK: 4
PK$PEAK: m/z int. rel.int.
  72.0445 2777.1 2
  89.0714 10047.7 10
  107.0607 2068.7 2
  154.1596 958863.9 999
//
