ACCESSION: MSBNK-UFZ-WANA029225AF82PM
RECORD_TITLE: Benzethonium; LC-ESI-ITFT; MS2; CE: 90%; R=15000; [M]+
DATE: 2023.08.13
AUTHORS: Tobias Schulze, Martin Krauss, Department of Effect-Directed Analysis, Helmholtz Centre for Environmental Research - UFZ, Leipzig, Germany
LICENSE: CC0
COPYRIGHT: Copyright (C) 2023
COMMENT: CONFIDENCE Reference Standard (Level 1)
CH$NAME: Benzethonium
CH$NAME: benzyl-dimethyl-[2-[2-[4-(2,4,4-trimethylpentan-2-yl)phenoxy]ethoxy]ethyl]azanium
CH$COMPOUND_CLASS: N/A; Environmental Standard
CH$FORMULA: C27H42NO2
CH$EXACT_MASS: 412.321006004091
CH$SMILES: CC(C)(C)CC(C)(C)C1=CC=C(OCCOCC[N+](C)(C)CC2=CC=CC=C2)C=C1
CH$IUPAC: InChI=1S/C27H42NO2/c1-26(2,3)22-27(4,5)24-13-15-25(16-14-24)30-20-19-29-18-17-28(6,7)21-23-11-9-8-10-12-23/h8-16H,17-22H2,1-7H3/q+1
CH$LINK: CAS 498-77-1
CH$LINK: CHEBI 94725
CH$LINK: PUBCHEM CID:2335
CH$LINK: INCHIKEY SIYLLGKDQZGJHK-UHFFFAOYSA-N
CH$LINK: CHEMSPIDER 2245
CH$LINK: COMPTOX DTXSID5046984
AC$INSTRUMENT: LTQ Orbitrap XL Thermo Scientific
AC$INSTRUMENT_TYPE: LC-ESI-ITFT
AC$MASS_SPECTROMETRY: MS_TYPE MS2
AC$MASS_SPECTROMETRY: ION_MODE POSITIVE
AC$MASS_SPECTROMETRY: IONIZATION ESI
AC$MASS_SPECTROMETRY: FRAGMENTATION_MODE HCD
AC$MASS_SPECTROMETRY: COLLISION_ENERGY 90 % (nominal)
AC$MASS_SPECTROMETRY: RESOLUTION 15000
AC$MASS_SPECTROMETRY: MASS_RANGE_M/Z 50-425
AC$CHROMATOGRAPHY: COLUMN_NAME Kinetex Evo C18 2.6 um 50 x 2.1 mm
AC$CHROMATOGRAPHY: FLOW_GRADIENT 95/5 at 0 min, 95/5 at 1 min, 0/100 at 13 min, 0/100 at 24 min, 95/5 at 24.3 min, 95/5 at 32 min
AC$CHROMATOGRAPHY: FLOW_RATE 300 uL/min
AC$CHROMATOGRAPHY: RETENTION_TIME 11.416 min
MS$FOCUSED_ION: BASE_PEAK 412.3211
MS$FOCUSED_ION: PRECURSOR_M/Z 412.321
MS$FOCUSED_ION: PRECURSOR_TYPE [M]+
MS$FOCUSED_ION: PRECURSOR_INTENSITY 77682624
MS$DATA_PROCESSING: RECALIBRATE loess on assigned fragments and MS1
MS$DATA_PROCESSING: REANALYZE Peaks with additional N2/O included
MS$DATA_PROCESSING: WHOLE RMassBank 3.11.2
PK$SPLASH: splash10-0006-9000000000-198dfbed1948b38393f9
PK$ANNOTATION: m/z tentative_formula formula_count mass error(ppm)
  57.0696 C4H9+ 1 57.0699 -4.11
  58.0649 C3H8N+ 1 58.0651 -3.92
  65.0384 C5H5+ 1 65.0386 -2.66
  70.065 C4H8N+ 1 70.0651 -1.8
  72.0807 C4H10N+ 1 72.0808 -1.39
  84.0808 C5H10N+ 1 84.0808 0.12
  85.0884 C5H11N+ 1 85.0886 -1.94
  86.0602 C4H8NO+ 1 86.06 2.17
  87.0678 C4H9NO+ 1 87.0679 -0.84
  88.0761 C4H10NO+ 1 88.0757 4.8
  90.0464 C7H6+ 1 90.0464 -0.15
  91.0542 C7H7+ 1 91.0542 -0.18
  93.0698 C7H9+ 1 93.0699 -1.3
  105.0698 C8H9+ 1 105.0699 -0.61
  107.049 C7H7O+ 1 107.0491 -1.52
  107.0857 C8H11+ 1 107.0855 1.32
  109.0649 C7H9O+ 1 109.0648 1.08
  116.1069 C6H14NO+ 1 116.107 -1.03
  118.0777 C9H10+ 1 118.0777 -0.32
  119.0853 C9H11+ 1 119.0855 -2.3
  121.0647 C8H9O+ 1 121.0648 -0.61
  134.0964 C9H12N+ 1 134.0964 -0.36
  135.0803 C9H11O+ 1 135.0804 -0.76
PK$NUM_PEAK: 23
PK$PEAK: m/z int. rel.int.
  57.0696 1260234.9 74
  58.0649 1097512.2 65
  65.0384 159109.9 9
  70.065 299522.2 17
  72.0807 3145545.8 186
  84.0808 257836.4 15
  85.0884 44659.8 2
  86.0602 98018 5
  87.0678 68081.3 4
  88.0761 34140.9 2
  90.0464 31217 1
  91.0542 16822730 999
  93.0698 61965.2 3
  105.0698 132627.4 7
  107.049 86314.5 5
  107.0857 48973.2 2
  109.0649 34774.3 2
  116.1069 54523.7 3
  118.0777 572540.2 33
  119.0853 61968.2 3
  121.0647 110609.3 6
  134.0964 101669.4 6
  135.0803 102052.3 6
//
