ACCESSION: MSBNK-UFZ-UF403303
RECORD_TITLE: Atrazine; LC-ESI-ITFT; MS2; CE: 35; R=15000; [M+H]+
DATE: 2017.01.05
AUTHORS: Schulze T, Krauss M, Department of Effect-Directed Analysis, Helmholtz Centre for Environmental Research - UFZ GmbH, Leipzig, Germany
LICENSE: CC BY
COPYRIGHT: Copyright (C) 2017
COMMENT: CONFIDENCE standard compound
COMMENT: INTERNAL_ID 4033
CH$NAME: Atrazine
CH$NAME: 6-Chloro-4-N-ethyl-2-N-propan-2-yl-1,3,5-triazine-2,4-diamine
CH$COMPOUND_CLASS: N/A; Environmental Standard
CH$FORMULA: C8H14ClN5
CH$EXACT_MASS: 215.0938
CH$SMILES: CCNC1=NC(NC(C)C)=NC(Cl)=N1
CH$IUPAC: InChI=1S/C8H14ClN5/c1-4-10-7-12-6(9)13-8(14-7)11-5(2)3/h5H,4H2,1-3H3,(H2,10,11,12,13,14)
CH$LINK: CAS 1912-24-9
CH$LINK: CHEBI CHEBI:15930
CH$LINK: KEGG C06551
CH$LINK: PUBCHEM CID:2256
CH$LINK: INCHIKEY MXWJVTOOROXGIU-UHFFFAOYSA-N
CH$LINK: CHEMSPIDER 2169
CH$LINK: COMPTOX DTXSID9020112
AC$INSTRUMENT: LTQ Orbitrap XL Thermo Scientific
AC$INSTRUMENT_TYPE: LC-ESI-ITFT
AC$MASS_SPECTROMETRY: MS_TYPE MS2
AC$MASS_SPECTROMETRY: ION_MODE POSITIVE
AC$MASS_SPECTROMETRY: IONIZATION ESI
AC$MASS_SPECTROMETRY: FRAGMENTATION_MODE CID
AC$MASS_SPECTROMETRY: COLLISION_ENERGY 35 (nominal)
AC$MASS_SPECTROMETRY: RESOLUTION 15000
AC$CHROMATOGRAPHY: COLUMN_NAME Kinetex Core-Shell C18 2.6 um, 3.0 x 100 mm, Phenomenex
AC$CHROMATOGRAPHY: FLOW_GRADIENT 90/10 at 0 min, 80/20 at 3.2 min, 5/95 at 17.8 min, 5/95 at 37.8 min, 90/10 at 37.9 min, 90/10 at 47 min
AC$CHROMATOGRAPHY: FLOW_RATE 200 uL/min
AC$CHROMATOGRAPHY: RETENTION_TIME 23.294 min
AC$CHROMATOGRAPHY: SOLVENT A water with 0.1% formic acid
AC$CHROMATOGRAPHY: SOLVENT B methanol with 0.1% formic acid
MS$FOCUSED_ION: BASE_PEAK 242.1429
MS$FOCUSED_ION: PRECURSOR_M/Z 216.101
MS$FOCUSED_ION: PRECURSOR_TYPE [M+H]+
MS$DATA_PROCESSING: RECALIBRATE loess on assigned fragments and MS1
MS$DATA_PROCESSING: REANALYZE Peaks with additional N2/O included
MS$DATA_PROCESSING: WHOLE RMassBank 2.2.1
PK$SPLASH: splash10-00di-0930000000-dd4746b8886d6bfc69c6
PK$ANNOTATION: m/z tentative_formula formula_count mass error(ppm)
  68.0242 C2H2N3+ 1 68.0243 -1.35
  79.0057 CH4ClN2+ 1 79.0058 -0.52
  96.0555 C4H6N3+ 1 96.0556 -0.92
  104.0009 C2H3ClN3+ 1 104.001 -0.53
  132.0322 C4H7ClN3+ 1 132.0323 -0.84
  138.0773 C5H8N5+ 1 138.0774 -0.66
  138.1026 C7H12N3+ 1 138.1026 0.07
  146.0227 C3H5ClN5+ 1 146.0228 -0.45
  146.048 C5H9ClN3+ 1 146.048 0.46
  174.0539 C5H9ClN5+ 1 174.0541 -1.09
  180.1239 C8H14N5+ 1 180.1244 -2.45
  188.0698 C6H11ClN5+ 1 188.0697 0.06
  216.1009 C8H15ClN5+ 1 216.101 -0.48
PK$NUM_PEAK: 13
PK$PEAK: m/z int. rel.int.
  68.0242 21508.9 2
  79.0057 21251.1 2
  96.0555 142340.3 17
  104.0009 102745.6 12
  132.0322 45126.4 5
  138.0773 21363.6 2
  138.1026 143592.9 18
  146.0227 69653 8
  146.048 82523.3 10
  174.0539 7922263.5 999
  180.1239 19174.9 2
  188.0698 55862.5 7
  216.1009 2945735.5 371
//
