ACCESSION: MSBNK-UFZ-WANA0073155BE0PH
RECORD_TITLE: 2-Methylbenzothiazole; LC-ESI-ITFT; MS2; CE: 60%; R=15000; [M+H]+
DATE: 2023.08.12
AUTHORS: Tobias Schulze, Martin Krauss, Department of Effect-Directed Analysis, Helmholtz Centre for Environmental Research - UFZ, Leipzig, Germany
LICENSE: CC0
COPYRIGHT: Copyright (C) 2023
COMMENT: CONFIDENCE Reference Standard (Level 1)
CH$NAME: 2-Methylbenzothiazole
CH$NAME: 2-methyl-1,3-benzothiazole
CH$COMPOUND_CLASS: N/A; Environmental Standard
CH$FORMULA: C8H7NS
CH$EXACT_MASS: 149.029920224
CH$SMILES: CC1=NC2=CC=CC=C2S1
CH$IUPAC: InChI=1S/C8H7NS/c1-6-9-7-4-2-3-5-8(7)10-6/h2-5H,1H3
CH$LINK: CAS 120-75-2
CH$LINK: PUBCHEM CID:8446
CH$LINK: INCHIKEY DXYYSGDWQCSKKO-UHFFFAOYSA-N
CH$LINK: CHEMSPIDER 8138
CH$LINK: COMPTOX DTXSID8049208
AC$INSTRUMENT: LTQ Orbitrap XL Thermo Scientific
AC$INSTRUMENT_TYPE: LC-ESI-ITFT
AC$MASS_SPECTROMETRY: MS_TYPE MS2
AC$MASS_SPECTROMETRY: ION_MODE POSITIVE
AC$MASS_SPECTROMETRY: IONIZATION ESI
AC$MASS_SPECTROMETRY: FRAGMENTATION_MODE HCD
AC$MASS_SPECTROMETRY: COLLISION_ENERGY 60 % (nominal)
AC$MASS_SPECTROMETRY: RESOLUTION 15000
AC$MASS_SPECTROMETRY: MASS_RANGE_M/Z 50-165
AC$CHROMATOGRAPHY: COLUMN_NAME Kinetex Evo C18 2.6 um 50 x 2.1 mm
AC$CHROMATOGRAPHY: FLOW_GRADIENT 95/5 at 0 min, 95/5 at 1 min, 0/100 at 13 min, 0/100 at 24 min, 95/5 at 24.3 min, 95/5 at 32 min
AC$CHROMATOGRAPHY: FLOW_RATE 300 uL/min
AC$CHROMATOGRAPHY: RETENTION_TIME 9.267 min
MS$FOCUSED_ION: BASE_PEAK 221.0749
MS$FOCUSED_ION: PRECURSOR_M/Z 150.0372
MS$FOCUSED_ION: PRECURSOR_TYPE [M+H]+
MS$FOCUSED_ION: PRECURSOR_INTENSITY 9399739
MS$DATA_PROCESSING: RECALIBRATE loess on assigned fragments and MS1
MS$DATA_PROCESSING: REANALYZE Peaks with additional N2/O included
MS$DATA_PROCESSING: WHOLE RMassBank 3.11.2
PK$SPLASH: splash10-0udi-0900000000-f0426ddb05e00887fa42
PK$ANNOTATION: m/z tentative_formula formula_count mass error(ppm)
  109.0108 C6H5S+ 1 109.0106 1.17
  117.0576 C8H7N+ 1 117.0573 2.62
  150.0373 C8H8NS+ 1 150.0372 0.78
PK$NUM_PEAK: 3
PK$PEAK: m/z int. rel.int.
  109.0108 268239.3 114
  117.0576 6550.1 2
  150.0373 2344420.8 999
//
