ACCESSION: MSBNK-UFZ-WANA240411C9CFPH
RECORD_TITLE: Benzocain; LC-ESI-ITFT; MS2; CE: 40%; R=15000; [M+H]+
DATE: 2023.08.12
AUTHORS: Tobias Schulze, Martin Krauss, Department of Effect-Directed Analysis, Helmholtz Centre for Environmental Research - UFZ, Leipzig, Germany
LICENSE: CC0
COPYRIGHT: Copyright (C) 2023
COMMENT: CONFIDENCE Reference Standard (Level 1)
CH$NAME: Benzocain
CH$NAME: Benzocaine
CH$NAME: ethyl 4-aminobenzoate
CH$COMPOUND_CLASS: N/A; Environmental Standard
CH$FORMULA: C9H11NO2
CH$EXACT_MASS: 165.078978592
CH$SMILES: CCOC(=O)C1=CC=C(N)C=C1
CH$IUPAC: InChI=1S/C9H11NO2/c1-2-12-9(11)7-3-5-8(10)6-4-7/h3-6H,2,10H2,1H3
CH$LINK: CAS 94-09-7
CH$LINK: CHEBI CHEBI:116735
CH$LINK: KEGG D00552
CH$LINK: PUBCHEM CID:2337
CH$LINK: INCHIKEY BLFLLBZGZJTVJG-UHFFFAOYSA-N
CH$LINK: CHEMSPIDER 13854242
CH$LINK: COMPTOX DTXSID8021804
AC$INSTRUMENT: LTQ Orbitrap XL Thermo Scientific
AC$INSTRUMENT_TYPE: LC-ESI-ITFT
AC$MASS_SPECTROMETRY: MS_TYPE MS2
AC$MASS_SPECTROMETRY: ION_MODE POSITIVE
AC$MASS_SPECTROMETRY: IONIZATION ESI
AC$MASS_SPECTROMETRY: FRAGMENTATION_MODE HCD
AC$MASS_SPECTROMETRY: COLLISION_ENERGY 40 % (nominal)
AC$MASS_SPECTROMETRY: RESOLUTION 15000
AC$MASS_SPECTROMETRY: MASS_RANGE_M/Z 50-180
AC$CHROMATOGRAPHY: COLUMN_NAME Kinetex Evo C18 2.6 um 50 x 2.1 mm
AC$CHROMATOGRAPHY: FLOW_GRADIENT 95/5 at 0 min, 95/5 at 1 min, 0/100 at 13 min, 0/100 at 24 min, 95/5 at 24.3 min, 95/5 at 32 min
AC$CHROMATOGRAPHY: FLOW_RATE 300 uL/min
AC$CHROMATOGRAPHY: RETENTION_TIME 7.562 min
MS$FOCUSED_ION: BASE_PEAK 166.0867
MS$FOCUSED_ION: PRECURSOR_M/Z 166.0863
MS$FOCUSED_ION: PRECURSOR_TYPE [M+H]+
MS$FOCUSED_ION: PRECURSOR_INTENSITY 25015282
MS$DATA_PROCESSING: RECALIBRATE loess on assigned fragments and MS1
MS$DATA_PROCESSING: REANALYZE Peaks with additional N2/O included
MS$DATA_PROCESSING: WHOLE RMassBank 3.11.2
PK$SPLASH: splash10-000i-1900000000-37ade343bd87f33b7b1d
PK$ANNOTATION: m/z tentative_formula formula_count mass error(ppm)
  77.0387 C6H5+ 1 77.0386 1.4
  93.0575 C6H7N+ 1 93.0573 2.01
  94.0651 C6H8N+ 1 94.0651 0.19
  120.0444 C7H6NO+ 1 120.0444 0.08
  122.0965 C8H12N+ 1 122.0964 0.32
  138.055 C7H8NO2+ 1 138.055 0.15
  166.0863 C9H12NO2+ 1 166.0863 0.08
PK$NUM_PEAK: 7
PK$PEAK: m/z int. rel.int.
  77.0387 7042.9 1
  93.0575 10146.5 1
  94.0651 1645158.8 293
  120.0444 1537805.8 274
  122.0965 16933 3
  138.055 5596872 999
  166.0863 847442.6 151
//
