ACCESSION: MSBNK-UFZ-WANA096605070APH
RECORD_TITLE: Thiophanate-methyl; LC-ESI-ITFT; MS2; CE: 30%; R=15000; [M+H]+
DATE: 2023.08.12
AUTHORS: Tobias Schulze, Martin Krauss, Department of Effect-Directed Analysis, Helmholtz Centre for Environmental Research - UFZ, Leipzig, Germany
LICENSE: CC0
COPYRIGHT: Copyright (C) 2023
COMMENT: CONFIDENCE Reference Standard (Level 1)
CH$NAME: Thiophanate-methyl
CH$NAME: CID 3085
CH$NAME: N`-methoxycarbonyl-N-[2-[(N-methoxycarbonyl-C-sulfanylcarbonimidoyl)amino]phenyl]carbamimidothioic acid
CH$COMPOUND_CLASS: N/A; Environmental Standard
CH$FORMULA: C12H14N4O4S2
CH$EXACT_MASS: 342.045646928
CH$SMILES: COC(=O)NC(=S)NC1=CC=CC=C1NC(=S)NC(=O)OC
CH$IUPAC: InChI=1S/C12H14N4O4S2/c1-19-11(17)15-9(21)13-7-5-3-4-6-8(7)14-10(22)16-12(18)20-2/h3-6H,1-2H3,(H2,13,15,17,21)(H2,14,16,18,22)
CH$LINK: CAS 23564-05-8
CH$LINK: CHEBI CHEBI:35014
CH$LINK: KEGG C14432
CH$LINK: PUBCHEM CID:3085
CH$LINK: INCHIKEY QGHREAKMXXNCOA-UHFFFAOYSA-N
CH$LINK: CHEMSPIDER 2297683
CH$LINK: COMPTOX DTXSID1024338
AC$INSTRUMENT: LTQ Orbitrap XL Thermo Scientific
AC$INSTRUMENT_TYPE: LC-ESI-ITFT
AC$MASS_SPECTROMETRY: MS_TYPE MS2
AC$MASS_SPECTROMETRY: ION_MODE POSITIVE
AC$MASS_SPECTROMETRY: IONIZATION ESI
AC$MASS_SPECTROMETRY: FRAGMENTATION_MODE HCD
AC$MASS_SPECTROMETRY: COLLISION_ENERGY 30 % (nominal)
AC$MASS_SPECTROMETRY: RESOLUTION 15000
AC$MASS_SPECTROMETRY: MASS_RANGE_M/Z 50-355
AC$CHROMATOGRAPHY: COLUMN_NAME Kinetex Evo C18 2.6 um 50 x 2.1 mm
AC$CHROMATOGRAPHY: FLOW_GRADIENT 95/5 at 0 min, 95/5 at 1 min, 0/100 at 13 min, 0/100 at 24 min, 95/5 at 24.3 min, 95/5 at 32 min
AC$CHROMATOGRAPHY: FLOW_RATE 300 uL/min
AC$CHROMATOGRAPHY: RETENTION_TIME 9.002 min
MS$FOCUSED_ION: BASE_PEAK 343.054
MS$FOCUSED_ION: PRECURSOR_M/Z 343.0529
MS$FOCUSED_ION: PRECURSOR_TYPE [M+H]+
MS$FOCUSED_ION: PRECURSOR_INTENSITY 4558862
MS$DATA_PROCESSING: RECALIBRATE loess on assigned fragments and MS1
MS$DATA_PROCESSING: REANALYZE Peaks with additional N2/O included
MS$DATA_PROCESSING: WHOLE RMassBank 3.11.2
PK$SPLASH: splash10-0udi-0900000000-16dd53826d7a44973e00
PK$ANNOTATION: m/z tentative_formula formula_count mass error(ppm)
  151.0331 CH13NO3S2+ 2 151.0331 -0.09
  160.0515 C2H12N2O4S+ 2 160.0512 1.39
  192.0777 C11H12O3+ 2 192.0781 -2.22
  194.0393 C2H14N2O4S2+ 2 194.039 1.6
  219.0347 C11H9NO2S+ 2 219.0349 -0.79
  226.0651 C9H12N3O2S+ 2 226.0645 2.88
  235.9955 C11H8O2S2+ 3 235.996 -2.09
  251.0605 C12H13NO3S+ 2 251.0611 -2.15
  268.0213 C10H10N3O2S2+ 2 268.0209 1.51
  277.0402 C11H9N4O3S+ 1 277.039 4.28
  311.0275 C11H11N4O3S2+ 1 311.0267 2.59
PK$NUM_PEAK: 11
PK$PEAK: m/z int. rel.int.
  151.0331 253951.7 999
  160.0515 4630.6 18
  192.0777 11812.5 46
  194.0393 9073 35
  219.0347 5445.4 21
  226.0651 2381.4 9
  235.9955 11116.9 43
  251.0605 3961.8 15
  268.0213 4610.9 18
  277.0402 2382.5 9
  311.0275 3051 12
//
