ACCESSION: MSBNK-UFZ-WANA405503B085PH
RECORD_TITLE: 4-Hydroxy-1-(2-hydroxyethyl)-2,2,6,6-tetramethylpiperidine; LC-ESI-ITFT; MS2; CE: 20%; R=15000; [M+H]+
DATE: 2023.08.12
AUTHORS: Tobias Schulze, Martin Krauss, Department of Effect-Directed Analysis, Helmholtz Centre for Environmental Research - UFZ, Leipzig, Germany
LICENSE: CC0
COPYRIGHT: Copyright (C) 2023
COMMENT: CONFIDENCE Reference Standard (Level 1)
CH$NAME: 4-Hydroxy-1-(2-hydroxyethyl)-2,2,6,6-tetramethylpiperidine
CH$NAME: 1-(2-hydroxyethyl)-2,2,6,6-tetramethylpiperidin-4-ol
CH$COMPOUND_CLASS: N/A; Environmental Standard
CH$FORMULA: C11H23NO2
CH$EXACT_MASS: 201.172878976
CH$SMILES: CC1(C)CC(O)CC(C)(C)N1CCO
CH$IUPAC: InChI=1S/C11H23NO2/c1-10(2)7-9(14)8-11(3,4)12(10)5-6-13/h9,13-14H,5-8H2,1-4H3
CH$LINK: CAS 52722-86-8
CH$LINK: CHEBI CHEBI:182655
CH$LINK: PUBCHEM CID:104301
CH$LINK: INCHIKEY STEYNUVPFMIUOY-UHFFFAOYSA-N
CH$LINK: CHEMSPIDER 94161
CH$LINK: COMPTOX DTXSID4068795
AC$INSTRUMENT: LTQ Orbitrap XL Thermo Scientific
AC$INSTRUMENT_TYPE: LC-ESI-ITFT
AC$MASS_SPECTROMETRY: MS_TYPE MS2
AC$MASS_SPECTROMETRY: ION_MODE POSITIVE
AC$MASS_SPECTROMETRY: IONIZATION ESI
AC$MASS_SPECTROMETRY: FRAGMENTATION_MODE HCD
AC$MASS_SPECTROMETRY: COLLISION_ENERGY 20 % (nominal)
AC$MASS_SPECTROMETRY: RESOLUTION 15000
AC$MASS_SPECTROMETRY: MASS_RANGE_M/Z 50-215
AC$CHROMATOGRAPHY: COLUMN_NAME Kinetex Evo C18 2.6 um 50 x 2.1 mm
AC$CHROMATOGRAPHY: FLOW_GRADIENT 95/5 at 0 min, 95/5 at 1 min, 0/100 at 13 min, 0/100 at 24 min, 95/5 at 24.3 min, 95/5 at 32 min
AC$CHROMATOGRAPHY: FLOW_RATE 300 uL/min
AC$CHROMATOGRAPHY: RETENTION_TIME 0.552 min
MS$FOCUSED_ION: BASE_PEAK 202.1803
MS$FOCUSED_ION: PRECURSOR_M/Z 202.1802
MS$FOCUSED_ION: PRECURSOR_TYPE [M+H]+
MS$FOCUSED_ION: PRECURSOR_INTENSITY 3089648.25
MS$DATA_PROCESSING: RECALIBRATE loess on assigned fragments and MS1
MS$DATA_PROCESSING: REANALYZE Peaks with additional N2/O included
MS$DATA_PROCESSING: WHOLE RMassBank 3.11.2
PK$SPLASH: splash10-0udi-0090000000-a30655196318fdf17ecd
PK$ANNOTATION: m/z tentative_formula formula_count mass error(ppm)
  62.0598 C2H8NO+ 1 62.06 -3.92
  102.0915 C5H12NO+ 1 102.0913 1.92
  202.1805 C11H24NO2+ 1 202.1802 1.64
PK$NUM_PEAK: 3
PK$PEAK: m/z int. rel.int.
  62.0598 1006.2 1
  102.0915 3971.1 5
  202.1805 755815.4 999
//
