ACCESSION: MSBNK-UFZ-WANA0500155BE0PM
RECORD_TITLE: Amidosulfobetaine-14; LC-ESI-ITFT; MS2; CE: 60%; R=15000; [M]+
DATE: 2023.08.13
AUTHORS: Tobias Schulze, Martin Krauss, Department of Effect-Directed Analysis, Helmholtz Centre for Environmental Research - UFZ, Leipzig, Germany
LICENSE: CC0
COPYRIGHT: Copyright (C) 2023
COMMENT: CONFIDENCE Reference Standard (Level 1)
CH$NAME: Amidosulfobetaine-14
CH$NAME: 3-[Dimethyl[3-(tetradecanoylamino)propyl]aminio]-1-propanesulfonate
CH$NAME: dimethyl-(3-sulfopropyl)-[3-(tetradecanoylamino)propyl]azanium
CH$COMPOUND_CLASS: N/A; Environmental Standard
CH$FORMULA: C22H47N2O4S
CH$EXACT_MASS: 435.325105404091
CH$SMILES: CCCCCCCCCCCCCC(=O)NCCC[N+](C)(C)CCCS(O)(=O)=O
CH$IUPAC: InChI=1S/C22H46N2O4S/c1-4-5-6-7-8-9-10-11-12-13-14-17-22(25)23-18-15-19-24(2,3)20-16-21-29(26,27)28/h4-21H2,1-3H3,(H-,23,25,26,27,28)/p+1
CH$LINK: PUBCHEM CID:4046966
CH$LINK: INCHIKEY UTSXERRKRAEDOV-UHFFFAOYSA-O
CH$LINK: CHEMSPIDER 3263003
AC$INSTRUMENT: LTQ Orbitrap XL Thermo Scientific
AC$INSTRUMENT_TYPE: LC-ESI-ITFT
AC$MASS_SPECTROMETRY: MS_TYPE MS2
AC$MASS_SPECTROMETRY: ION_MODE POSITIVE
AC$MASS_SPECTROMETRY: IONIZATION ESI
AC$MASS_SPECTROMETRY: FRAGMENTATION_MODE HCD
AC$MASS_SPECTROMETRY: COLLISION_ENERGY 60 % (nominal)
AC$MASS_SPECTROMETRY: RESOLUTION 15000
AC$MASS_SPECTROMETRY: MASS_RANGE_M/Z 50-450
AC$CHROMATOGRAPHY: COLUMN_NAME Kinetex Evo C18 2.6 um 50 x 2.1 mm
AC$CHROMATOGRAPHY: FLOW_GRADIENT 95/5 at 0 min, 95/5 at 1 min, 0/100 at 13 min, 0/100 at 24 min, 95/5 at 24.3 min, 95/5 at 32 min
AC$CHROMATOGRAPHY: FLOW_RATE 300 uL/min
AC$CHROMATOGRAPHY: RETENTION_TIME 13.388 min
MS$FOCUSED_ION: BASE_PEAK 371.3275
MS$FOCUSED_ION: PRECURSOR_M/Z 435.3251
MS$FOCUSED_ION: PRECURSOR_TYPE [M]+
MS$FOCUSED_ION: PRECURSOR_INTENSITY 2419737.5
MS$DATA_PROCESSING: RECALIBRATE loess on assigned fragments and MS1
MS$DATA_PROCESSING: REANALYZE Peaks with additional N2/O included
MS$DATA_PROCESSING: WHOLE RMassBank 3.11.2
PK$SPLASH: splash10-014i-8190000000-8aaee2d28fab52ef2332
PK$ANNOTATION: m/z tentative_formula formula_count mass error(ppm)
  57.0697 C4H9+ 1 57.0699 -2.34
  58.065 C3H8N+ 1 58.0651 -2.81
  67.0542 C5H7+ 1 67.0542 -0.83
  69.0699 C5H9+ 1 69.0699 -0.15
  71.0855 C5H11+ 1 71.0855 0.16
  81.0701 C6H9+ 1 81.0699 2.48
  83.0857 C6H11+ 1 83.0855 1.9
  85.1013 C6H13+ 1 85.1012 1.48
  95.0857 C7H11+ 1 95.0855 1.93
  97.1014 C7H13+ 1 97.1012 1.85
  109.1015 C8H13+ 1 109.1012 3.06
  111.117 C8H15+ 1 111.1168 1.36
  123.1172 C9H15+ 1 123.1168 2.93
  137.1325 C10H17+ 2 137.1325 -0.14
  158.3393 C4H46O4+ 1 158.3391 1.24
  211.2048 C14H27O+ 2 211.2056 -3.9
  268.264 C11H40O4S+ 2 268.2642 -0.68
PK$NUM_PEAK: 17
PK$PEAK: m/z int. rel.int.
  57.0697 19876.3 270
  58.065 5328.3 72
  67.0542 1801.5 24
  69.0699 2029.7 27
  71.0855 13386.9 181
  81.0701 3777.5 51
  83.0857 1901.3 25
  85.1013 9538.1 129
  95.0857 8123.9 110
  97.1014 1837.7 24
  109.1015 3852 52
  111.117 1669.5 22
  123.1172 1583.6 21
  137.1325 1033.9 14
  158.3393 1340.8 18
  211.2048 2420 32
  268.264 73508.3 999
//
