ACCESSION: MSBNK-UFZ-UP000171
RECORD_TITLE: Gabapentin-lactam; LC-ESI-ITFT; MS2; CE: 100%; R=15000; [M+H]+
DATE: 2019.07.31
AUTHORS: Liza-Marie Beckers, Werner Brack, Janek-Paul Dann, Martin Krauss, Erik Mueller, Tobias Schulze, Helmholtz Centre for Environmental Research GmbH - UFZ, Leipzig, Germany
LICENSE: CC0
COPYRIGHT: Copyright (C) 2019
PUBLICATION: Beckers L-M, Brack W, Dann JP, Krauss M, Mueller E, Schulze T, 2020. Unraveling longitudinal pollution patterns of organic micropollutants in a river by non-target screening and cluster analysis. Science of The Total Environment, https://doi.org/10.1016/j.scitotenv.2020.138388
COMMENT: CONFIDENCE Reference Standard (Level 1)
COMMENT: INTERNAL_ID 7
CH$NAME: Gabapentin-lactam
CH$NAME: 2-azaspiro[4.5]decan-3-one
CH$COMPOUND_CLASS: N/A; Environmental Standard
CH$FORMULA: C9H15NO
CH$EXACT_MASS: 153.1154
CH$SMILES: O=C1CC2(CN1)CCCCC2
CH$IUPAC: InChI=1S/C9H15NO/c11-8-6-9(7-10-8)4-2-1-3-5-9/h1-7H2,(H,10,11)
CH$LINK: CAS 64744-50-9
CH$LINK: PUBCHEM CID:47457
CH$LINK: INCHIKEY JAWPQJDOQPSNIQ-UHFFFAOYSA-N
CH$LINK: CHEMSPIDER 43180
AC$INSTRUMENT: LTQ Orbitrap XL Thermo Scientific
AC$INSTRUMENT_TYPE: LC-ESI-ITFT
AC$MASS_SPECTROMETRY: MS_TYPE MS2
AC$MASS_SPECTROMETRY: ION_MODE POSITIVE
AC$MASS_SPECTROMETRY: IONIZATION ESI
AC$MASS_SPECTROMETRY: FRAGMENTATION_MODE HCD
AC$MASS_SPECTROMETRY: COLLISION_ENERGY 100 % (nominal)
AC$MASS_SPECTROMETRY: RESOLUTION 15000
AC$CHROMATOGRAPHY: COLUMN_NAME Kinetex Evo C18 2.6 um 50 x 2.1 mm
AC$CHROMATOGRAPHY: FLOW_GRADIENT 95/5 at 0 min, 95/5 at 1 min, 0/100 at 13 min, 0/100 at 24 min, 95/5 at 24.3 min, 95/5/0 at 32 min
AC$CHROMATOGRAPHY: FLOW_RATE 300 uL/min
AC$CHROMATOGRAPHY: RETENTION_TIME 8.251 min
AC$CHROMATOGRAPHY: SOLVENT A water with 0.1% formic acid
AC$CHROMATOGRAPHY: SOLVENT B methanol with 0.1% formic acid
MS$FOCUSED_ION: BASE_PEAK 154.1226
MS$FOCUSED_ION: PRECURSOR_M/Z 154.1226
MS$FOCUSED_ION: PRECURSOR_TYPE [M+H]+
MS$DATA_PROCESSING: RECALIBRATE loess on assigned fragments and MS1
MS$DATA_PROCESSING: REANALYZE Peaks with additional N2/O included
MS$DATA_PROCESSING: WHOLE RMassBank 2.12.0
PK$SPLASH: splash10-0002-9300000000-cfda513b1e7ebbd871fd
PK$ANNOTATION: m/z tentative_formula formula_count mass error(ppm)
  54.0337 C3H4N+ 1 54.0338 -3.14
  55.0541 C4H7+ 1 55.0542 -2.51
  60.0443 C2H6NO+ 1 60.0444 -1.43
  65.0384 C5H5+ 1 65.0386 -2.28
  67.0541 C5H7+ 1 67.0542 -1.17
  69.0698 C5H9+ 1 69.0699 -1.36
  70.065 C4H8N+ 1 70.0651 -1.36
  72.0443 C3H6NO+ 1 72.0444 -0.59
  77.0386 C6H5+ 1 77.0386 0.1
  79.0542 C6H7+ 1 79.0542 0.16
  80.0621 C6H8+ 1 80.0621 0.32
  81.0698 C6H9+ 1 81.0699 -0.46
  91.0542 C7H7+ 1 91.0542 -0.42
  93.0699 C7H9+ 1 93.0699 0.08
  95.0855 C7H11+ 1 95.0855 -0.48
  107.0855 C8H11+ 1 107.0855 0.13
  108.0804 C7H10N+ 1 108.0808 -3.09
  109.1011 C8H13+ 1 109.1012 -0.3
  110.0961 C7H12N+ 1 110.0964 -3.04
  112.112 C7H14N+ 1 112.1121 -0.29
  119.0854 C9H11+ 1 119.0855 -1.03
  136.1118 C9H14N+ 1 136.1121 -2.24
  137.0961 C9H13O+ 1 137.0961 -0.21
  154.1226 C9H16NO+ 1 154.1226 -0.58
PK$NUM_PEAK: 24
PK$PEAK: m/z int. rel.int.
  54.0337 3754 5
  55.0541 3386.8 4
  60.0443 5935 8
  65.0384 6163.1 8
  67.0541 191830.5 266
  69.0698 23845.9 33
  70.065 2152.5 2
  72.0443 56185.5 78
  77.0386 5569.7 7
  79.0542 5071.8 7
  80.0621 3545.5 4
  81.0698 13616.5 18
  91.0542 33956.1 47
  93.0699 81913.2 113
  95.0855 718346.9 999
  107.0855 2011.1 2
  108.0804 1652.4 2
  109.1011 29690.6 41
  110.0961 1540.2 2
  112.112 23817.9 33
  119.0854 13554.8 18
  136.1118 1377.7 1
  137.0961 2364.6 3
  154.1226 353777.4 491
//
