ACCESSION: MSBNK-UFZ-WANA0511237762PH
RECORD_TITLE: Acetyl-sulfamethoxazole; LC-ESI-ITFT; MS2; CE: 80%; R=15000; [M+H]+
DATE: 2023.08.13
AUTHORS: Tobias Schulze, Martin Krauss, Department of Effect-Directed Analysis, Helmholtz Centre for Environmental Research - UFZ, Leipzig, Germany
LICENSE: CC0
COPYRIGHT: Copyright (C) 2023
COMMENT: CONFIDENCE Reference Standard (Level 1)
CH$NAME: Acetyl-sulfamethoxazole
CH$NAME: Acetylsulfamethoxazole
CH$NAME: N-[4-[(5-methyl-1,2-oxazol-3-yl)sulfamoyl]phenyl]acetamide
CH$COMPOUND_CLASS: N/A; Environmental Standard
CH$FORMULA: C12H13N3O4S
CH$EXACT_MASS: 295.062676896
CH$SMILES: CC(=O)NC1=CC=C(C=C1)S(=O)(=O)NC1=NOC(C)=C1
CH$IUPAC: InChI=1S/C12H13N3O4S/c1-8-7-12(14-19-8)15-20(17,18)11-5-3-10(4-6-11)13-9(2)16/h3-7H,1-2H3,(H,13,16)(H,14,15)
CH$LINK: CAS 21312-10-7
CH$LINK: CHEBI CHEBI:31169
CH$LINK: KEGG D01601
CH$LINK: PUBCHEM CID:65280
CH$LINK: INCHIKEY GXPIUNZCALHVBA-UHFFFAOYSA-N
CH$LINK: CHEMSPIDER 58771
CH$LINK: COMPTOX DTXSID8049044
AC$INSTRUMENT: LTQ Orbitrap XL Thermo Scientific
AC$INSTRUMENT_TYPE: LC-ESI-ITFT
AC$MASS_SPECTROMETRY: MS_TYPE MS2
AC$MASS_SPECTROMETRY: ION_MODE POSITIVE
AC$MASS_SPECTROMETRY: IONIZATION ESI
AC$MASS_SPECTROMETRY: FRAGMENTATION_MODE HCD
AC$MASS_SPECTROMETRY: COLLISION_ENERGY 80 % (nominal)
AC$MASS_SPECTROMETRY: RESOLUTION 15000
AC$MASS_SPECTROMETRY: MASS_RANGE_M/Z 50-310
AC$CHROMATOGRAPHY: COLUMN_NAME Kinetex Evo C18 2.6 um 50 x 2.1 mm
AC$CHROMATOGRAPHY: FLOW_GRADIENT 95/5 at 0 min, 95/5 at 1 min, 0/100 at 13 min, 0/100 at 24 min, 95/5 at 24.3 min, 95/5 at 32 min
AC$CHROMATOGRAPHY: FLOW_RATE 300 uL/min
AC$CHROMATOGRAPHY: RETENTION_TIME 7.620 min
MS$FOCUSED_ION: BASE_PEAK 325.1721
MS$FOCUSED_ION: PRECURSOR_M/Z 296.07
MS$FOCUSED_ION: PRECURSOR_TYPE [M+H]+
MS$FOCUSED_ION: PRECURSOR_INTENSITY 6730892
MS$DATA_PROCESSING: RECALIBRATE loess on assigned fragments and MS1
MS$DATA_PROCESSING: REANALYZE Peaks with additional N2/O included
MS$DATA_PROCESSING: WHOLE RMassBank 3.11.2
PK$SPLASH: splash10-014l-9600000000-ccd957b68ec5bc04f80b
PK$ANNOTATION: m/z tentative_formula formula_count mass error(ppm)
  65.0387 C5H5+ 1 65.0386 2.13
  77.0388 C6H5+ 1 77.0386 2.26
  79.0545 C6H7+ 1 79.0542 3.5
  80.0498 C5H6N+ 1 80.0495 4.37
  92.0499 C6H6N+ 2 92.0495 4.68
  93.0339 C6H5O+ 1 93.0335 4.44
  93.0577 C6H7N+ 2 93.0573 4.29
  94.0655 H14O3S+ 2 94.0658 -3.03
  99.0557 C4H7N2O+ 1 99.0553 4.18
  105.0454 H11NO3S+ 1 105.0454 -0.58
  106.0656 CH14O3S+ 2 106.0658 -2.11
  108.0449 H12O4S+ 2 108.0451 -2
  110.0606 H14O4S+ 2 110.0607 -1.34
  119.0608 CH13NO3S+ 2 119.0611 -2.3
  131.0609 C2H13NO3S+ 2 131.0611 -0.88
  133.0765 C8H9N2+ 1 133.076 3.64
  134.0606 C2H14O4S+ 2 134.0607 -0.81
  136.0761 C8H10NO+ 1 136.0757 2.94
  143.0609 C3H13NO3S+ 2 143.0611 -1.49
  146.0719 C2H14N2O3S+ 3 146.072 -0.51
  147.0796 C8H9N3+ 1 147.0791 3.68
  148.0875 C8H10N3+ 1 148.0869 3.65
  156.0121 C6H6NO2S+ 1 156.0114 4.75
  160.0876 C9H10N3+ 2 160.0869 4.34
  162.0666 C2H14N2O4S+ 2 162.0669 -1.8
  173.0581 C9H7N3O+ 1 173.0584 -1.45
  176.0284 C10H8OS+ 2 176.029 -3.64
PK$NUM_PEAK: 27
PK$PEAK: m/z int. rel.int.
  65.0387 223888.6 999
  77.0388 1697.4 7
  79.0545 7735.7 34
  80.0498 5736.5 25
  92.0499 73057.8 325
  93.0339 45865.5 204
  93.0577 40637.1 181
  94.0655 18059.2 80
  99.0557 14237 63
  105.0454 1145.4 5
  106.0656 16398.7 73
  108.0449 109055 486
  110.0606 7573.9 33
  119.0608 2920.4 13
  131.0609 3318.5 14
  133.0765 1234.1 5
  134.0606 101248.1 451
  136.0761 1883.1 8
  143.0609 1869.7 8
  146.0719 21120.7 94
  147.0796 12300.6 54
  148.0875 1212.1 5
  156.0121 3925.4 17
  160.0876 18455.8 82
  162.0666 2028.9 9
  173.0581 1037 4
  176.0284 1393.4 6
//
