ACCESSION: MSBNK-UFZ-WANA4112213166PH
RECORD_TITLE: 4-tert-Butylbenzenesulfonamide; LC-ESI-ITFT; MS2; CE: 70%; R=15000; [M+H]+
DATE: 2023.08.13
AUTHORS: Tobias Schulze, Martin Krauss, Department of Effect-Directed Analysis, Helmholtz Centre for Environmental Research - UFZ, Leipzig, Germany
LICENSE: CC0
COPYRIGHT: Copyright (C) 2023
COMMENT: CONFIDENCE Reference Standard (Level 1)
CH$NAME: 4-tert-Butylbenzenesulfonamide
CH$COMPOUND_CLASS: N/A; Environmental Standard
CH$FORMULA: C10H15NO2S
CH$EXACT_MASS: 213.08234972
CH$SMILES: CC(C)(C)C1=CC=C(C=C1)S(N)(=O)=O
CH$IUPAC: InChI=1S/C10H15NO2S/c1-10(2,3)8-4-6-9(7-5-8)14(11,12)13/h4-7H,1-3H3,(H2,11,12,13)
CH$LINK: CAS 6292-59-7
CH$LINK: PUBCHEM CID:222872
CH$LINK: INCHIKEY KYDZEZNYRFJCSA-UHFFFAOYSA-N
CH$LINK: CHEMSPIDER 193526
CH$LINK: COMPTOX DTXSID70278754
AC$INSTRUMENT: LTQ Orbitrap XL Thermo Scientific
AC$INSTRUMENT_TYPE: LC-ESI-ITFT
AC$MASS_SPECTROMETRY: MS_TYPE MS2
AC$MASS_SPECTROMETRY: ION_MODE POSITIVE
AC$MASS_SPECTROMETRY: IONIZATION ESI
AC$MASS_SPECTROMETRY: FRAGMENTATION_MODE HCD
AC$MASS_SPECTROMETRY: COLLISION_ENERGY 70 % (nominal)
AC$MASS_SPECTROMETRY: RESOLUTION 15000
AC$MASS_SPECTROMETRY: MASS_RANGE_M/Z 50-225
AC$CHROMATOGRAPHY: COLUMN_NAME Kinetex Evo C18 2.6 um 50 x 2.1 mm
AC$CHROMATOGRAPHY: FLOW_GRADIENT 95/5 at 0 min, 95/5 at 1 min, 0/100 at 13 min, 0/100 at 24 min, 95/5 at 24.3 min, 95/5 at 32 min
AC$CHROMATOGRAPHY: FLOW_RATE 300 uL/min
AC$CHROMATOGRAPHY: RETENTION_TIME 9.456 min
MS$FOCUSED_ION: BASE_PEAK 916.5253
MS$FOCUSED_ION: PRECURSOR_M/Z 214.0896
MS$FOCUSED_ION: PRECURSOR_TYPE [M+H]+
MS$FOCUSED_ION: PRECURSOR_INTENSITY 766597.44
MS$DATA_PROCESSING: RECALIBRATE loess on assigned fragments and MS1
MS$DATA_PROCESSING: REANALYZE Peaks with additional N2/O included
MS$DATA_PROCESSING: WHOLE RMassBank 3.11.2
PK$SPLASH: splash10-0a4l-6900000000-ce3cff9417ccefb6af05
PK$ANNOTATION: m/z tentative_formula formula_count mass error(ppm)
  77.0386 C6H5+ 1 77.0386 0.88
  91.0543 C7H7+ 1 91.0542 0.44
  105.0699 C8H9+ 1 105.0699 0.43
  115.0546 C9H7+ 1 115.0542 2.98
  117.0699 C9H9+ 1 117.0699 0.32
PK$NUM_PEAK: 5
PK$PEAK: m/z int. rel.int.
  77.0386 2090.2 113
  91.0543 13871.2 754
  105.0699 18360.2 999
  115.0546 1425 77
  117.0699 1160 63
//
