ACCESSION: MSBNK-UFZ-WANA3076213166PM
RECORD_TITLE: (Methoxymethyl)triphenylphosphonium; LC-ESI-ITFT; MS2; CE: 70%; R=15000; [M]+
DATE: 2023.08.13
AUTHORS: Tobias Schulze, Martin Krauss, Department of Effect-Directed Analysis, Helmholtz Centre for Environmental Research - UFZ, Leipzig, Germany
LICENSE: CC0
COPYRIGHT: Copyright (C) 2023
COMMENT: CONFIDENCE Reference Standard (Level 1)
CH$NAME: (Methoxymethyl)triphenylphosphonium
CH$NAME: methoxymethyl(triphenyl)phosphanium
CH$COMPOUND_CLASS: N/A; Environmental Standard
CH$FORMULA: C20H20OP
CH$EXACT_MASS: 307.124628310091
CH$SMILES: COC[P+](C1=CC=CC=C1)(C1=CC=CC=C1)C1=CC=CC=C1
CH$IUPAC: InChI=1S/C20H20OP/c1-21-17-22(18-11-5-2-6-12-18,19-13-7-3-8-14-19)20-15-9-4-10-16-20/h2-16H,17H2,1H3/q+1
CH$LINK: PUBCHEM CID:2723799
CH$LINK: INCHIKEY SDMCZCALYDCRBH-UHFFFAOYSA-N
CH$LINK: CHEMSPIDER 2005990
AC$INSTRUMENT: LTQ Orbitrap XL Thermo Scientific
AC$INSTRUMENT_TYPE: LC-ESI-ITFT
AC$MASS_SPECTROMETRY: MS_TYPE MS2
AC$MASS_SPECTROMETRY: ION_MODE POSITIVE
AC$MASS_SPECTROMETRY: IONIZATION ESI
AC$MASS_SPECTROMETRY: FRAGMENTATION_MODE HCD
AC$MASS_SPECTROMETRY: COLLISION_ENERGY 70 % (nominal)
AC$MASS_SPECTROMETRY: RESOLUTION 15000
AC$MASS_SPECTROMETRY: MASS_RANGE_M/Z 50-320
AC$CHROMATOGRAPHY: COLUMN_NAME Kinetex Evo C18 2.6 um 50 x 2.1 mm
AC$CHROMATOGRAPHY: FLOW_GRADIENT 95/5 at 0 min, 95/5 at 1 min, 0/100 at 13 min, 0/100 at 24 min, 95/5 at 24.3 min, 95/5 at 32 min
AC$CHROMATOGRAPHY: FLOW_RATE 300 uL/min
AC$CHROMATOGRAPHY: RETENTION_TIME 7.556 min
MS$FOCUSED_ION: BASE_PEAK 307.1254
MS$FOCUSED_ION: PRECURSOR_M/Z 307.1246
MS$FOCUSED_ION: PRECURSOR_TYPE [M]+
MS$FOCUSED_ION: PRECURSOR_INTENSITY 25181494
MS$DATA_PROCESSING: RECALIBRATE loess on assigned fragments and MS1
MS$DATA_PROCESSING: REANALYZE Peaks with additional N2/O included
MS$DATA_PROCESSING: WHOLE RMassBank 3.11.2
PK$SPLASH: splash10-01q9-0940000000-4dbfcff62c22281cb5bc
PK$ANNOTATION: m/z tentative_formula formula_count mass error(ppm)
  79.0543 C6H7+ 1 79.0542 1.07
  91.0543 C7H7+ 1 91.0542 1.08
  108.0123 C6H5P+ 1 108.0123 0.08
  141.0697 C11H9+ 1 141.0699 -1.26
  152.062 C12H8+ 1 152.0621 -0.17
  165.0697 C13H9+ 1 165.0699 -1.13
  183.0357 C12H8P+ 1 183.0358 -0.62
  185.0513 C12H10P+ 1 185.0515 -1.11
  197.0514 C13H10P+ 1 197.0515 -0.1
  261.0826 C18H14P+ 1 261.0828 -0.62
  262.0905 C18H15P+ 1 262.0906 -0.2
  263.0982 C18H16P+ 1 263.0984 -0.84
  277.1141 C19H18P+ 1 277.1141 0.07
PK$NUM_PEAK: 13
PK$PEAK: m/z int. rel.int.
  79.0543 15594.2 12
  91.0543 36395.9 28
  108.0123 389096.7 300
  141.0697 16328.7 12
  152.062 78875.1 61
  165.0697 28257.4 21
  183.0357 1291527.4 999
  185.0513 380077.7 293
  197.0514 44274.5 34
  261.0826 355167.7 274
  262.0905 273898.9 211
  263.0982 169913.4 131
  277.1141 285156.7 220
//
