ACCESSION: MSBNK-UFZ-WANA0500237762PM
RECORD_TITLE: Amidosulfobetaine-14; LC-ESI-ITFT; MS2; CE: 80%; R=15000; [M]+
DATE: 2023.08.13
AUTHORS: Tobias Schulze, Martin Krauss, Department of Effect-Directed Analysis, Helmholtz Centre for Environmental Research - UFZ, Leipzig, Germany
LICENSE: CC0
COPYRIGHT: Copyright (C) 2023
COMMENT: CONFIDENCE Reference Standard (Level 1)
CH$NAME: Amidosulfobetaine-14
CH$NAME: 3-[Dimethyl[3-(tetradecanoylamino)propyl]aminio]-1-propanesulfonate
CH$NAME: dimethyl-(3-sulfopropyl)-[3-(tetradecanoylamino)propyl]azanium
CH$COMPOUND_CLASS: N/A; Environmental Standard
CH$FORMULA: C22H47N2O4S
CH$EXACT_MASS: 435.325105404091
CH$SMILES: CCCCCCCCCCCCCC(=O)NCCC[N+](C)(C)CCCS(O)(=O)=O
CH$IUPAC: InChI=1S/C22H46N2O4S/c1-4-5-6-7-8-9-10-11-12-13-14-17-22(25)23-18-15-19-24(2,3)20-16-21-29(26,27)28/h4-21H2,1-3H3,(H-,23,25,26,27,28)/p+1
CH$LINK: PUBCHEM CID:4046966
CH$LINK: INCHIKEY UTSXERRKRAEDOV-UHFFFAOYSA-O
CH$LINK: CHEMSPIDER 3263003
AC$INSTRUMENT: LTQ Orbitrap XL Thermo Scientific
AC$INSTRUMENT_TYPE: LC-ESI-ITFT
AC$MASS_SPECTROMETRY: MS_TYPE MS2
AC$MASS_SPECTROMETRY: ION_MODE POSITIVE
AC$MASS_SPECTROMETRY: IONIZATION ESI
AC$MASS_SPECTROMETRY: FRAGMENTATION_MODE HCD
AC$MASS_SPECTROMETRY: COLLISION_ENERGY 80 % (nominal)
AC$MASS_SPECTROMETRY: RESOLUTION 15000
AC$MASS_SPECTROMETRY: MASS_RANGE_M/Z 50-450
AC$CHROMATOGRAPHY: COLUMN_NAME Kinetex Evo C18 2.6 um 50 x 2.1 mm
AC$CHROMATOGRAPHY: FLOW_GRADIENT 95/5 at 0 min, 95/5 at 1 min, 0/100 at 13 min, 0/100 at 24 min, 95/5 at 24.3 min, 95/5 at 32 min
AC$CHROMATOGRAPHY: FLOW_RATE 300 uL/min
AC$CHROMATOGRAPHY: RETENTION_TIME 13.260 min
MS$FOCUSED_ION: BASE_PEAK 258.243
MS$FOCUSED_ION: PRECURSOR_M/Z 435.3251
MS$FOCUSED_ION: PRECURSOR_TYPE [M]+
MS$FOCUSED_ION: PRECURSOR_INTENSITY 2355071.75
MS$DATA_PROCESSING: RECALIBRATE loess on assigned fragments and MS1
MS$DATA_PROCESSING: REANALYZE Peaks with additional N2/O included
MS$DATA_PROCESSING: WHOLE RMassBank 3.11.2
PK$SPLASH: splash10-0ab9-9000000000-47ee9f80676489d39577
PK$ANNOTATION: m/z tentative_formula formula_count mass error(ppm)
  55.054 C4H7+ 1 55.0542 -4.97
  57.0696 C4H9+ 1 57.0699 -4.57
  58.0649 C3H8N+ 1 58.0651 -4.51
  67.0541 C5H7+ 1 67.0542 -2.62
  69.0698 C5H9+ 1 69.0699 -1.72
  71.0854 C5H11+ 1 71.0855 -1.95
  81.0698 C6H9+ 1 81.0699 -0.5
  83.0854 C6H11+ 1 83.0855 -1.3
  85.1011 C6H13+ 1 85.1012 -0.36
  95.0855 C7H11+ 1 95.0855 -0.42
  97.1011 C7H13+ 1 97.1012 -1.03
  109.1011 C8H13+ 1 109.1012 -0.4
  123.0109 C3H7O3S+ 2 123.011 -0.82
  123.1164 C9H15+ 2 123.1168 -3.64
  268.263 C17H34NO+ 2 268.2635 -2.02
PK$NUM_PEAK: 15
PK$PEAK: m/z int. rel.int.
  55.054 11636.1 46
  57.0696 247693.5 999
  58.0649 51602.8 208
  67.0541 20550.3 82
  69.0698 25428.2 102
  71.0854 156456.2 631
  81.0698 27258.1 109
  83.0854 10324.8 41
  85.1011 63417.7 255
  95.0855 57669.7 232
  97.1011 4332.9 17
  109.1011 17650.1 71
  123.0109 3095.4 12
  123.1164 4613.4 18
  268.263 12358.5 49
//
