ACCESSION: MSBNK-UFZ-WANA310505070APH
RECORD_TITLE: Isoxaben; LC-ESI-ITFT; MS2; CE: 30%; R=15000; [M+H]+
DATE: 2023.08.12
AUTHORS: Tobias Schulze, Martin Krauss, Department of Effect-Directed Analysis, Helmholtz Centre for Environmental Research - UFZ, Leipzig, Germany
LICENSE: CC0
COPYRIGHT: Copyright (C) 2023
COMMENT: CONFIDENCE Reference Standard (Level 1)
CH$NAME: Isoxaben
CH$NAME: 2,6-dimethoxy-N-[3-(3-methylpentan-3-yl)-1,2-oxazol-5-yl]benzamide
CH$COMPOUND_CLASS: N/A; Environmental Standard
CH$FORMULA: C18H24N2O4
CH$EXACT_MASS: 332.173607248
CH$SMILES: CCC(C)(CC)C1=NOC(NC(=O)C2=C(OC)C=CC=C2OC)=C1
CH$IUPAC: InChI=1S/C18H24N2O4/c1-6-18(3,7-2)14-11-15(24-20-14)19-17(21)16-12(22-4)9-8-10-13(16)23-5/h8-11H,6-7H2,1-5H3,(H,19,21)
CH$LINK: CAS 87387-81-3
CH$LINK: CHEBI CHEBI:63956
CH$LINK: KEGG C18504
CH$LINK: PUBCHEM CID:73672
CH$LINK: INCHIKEY PMHURSZHKKJGBM-UHFFFAOYSA-N
CH$LINK: CHEMSPIDER 66323
CH$LINK: COMPTOX DTXSID8024159
AC$INSTRUMENT: LTQ Orbitrap XL Thermo Scientific
AC$INSTRUMENT_TYPE: LC-ESI-ITFT
AC$MASS_SPECTROMETRY: MS_TYPE MS2
AC$MASS_SPECTROMETRY: ION_MODE POSITIVE
AC$MASS_SPECTROMETRY: IONIZATION ESI
AC$MASS_SPECTROMETRY: FRAGMENTATION_MODE HCD
AC$MASS_SPECTROMETRY: COLLISION_ENERGY 30 % (nominal)
AC$MASS_SPECTROMETRY: RESOLUTION 15000
AC$MASS_SPECTROMETRY: MASS_RANGE_M/Z 50-345
AC$CHROMATOGRAPHY: COLUMN_NAME Kinetex Evo C18 2.6 um 50 x 2.1 mm
AC$CHROMATOGRAPHY: FLOW_GRADIENT 95/5 at 0 min, 95/5 at 1 min, 0/100 at 13 min, 0/100 at 24 min, 95/5 at 24.3 min, 95/5 at 32 min
AC$CHROMATOGRAPHY: FLOW_RATE 300 uL/min
AC$CHROMATOGRAPHY: RETENTION_TIME 11.495 min
MS$FOCUSED_ION: BASE_PEAK 333.1814
MS$FOCUSED_ION: PRECURSOR_M/Z 333.1809
MS$FOCUSED_ION: PRECURSOR_TYPE [M+H]+
MS$FOCUSED_ION: PRECURSOR_INTENSITY 24972804
MS$DATA_PROCESSING: RECALIBRATE loess on assigned fragments and MS1
MS$DATA_PROCESSING: REANALYZE Peaks with additional N2/O included
MS$DATA_PROCESSING: WHOLE RMassBank 3.11.2
PK$SPLASH: splash10-014i-0900000000-4f859ecfa73a6bb0f8a0
PK$ANNOTATION: m/z tentative_formula formula_count mass error(ppm)
  150.0309 C8H6O3+ 1 150.0311 -1.43
  165.0545 C9H9O3+ 1 165.0546 -0.6
  170.1176 C9H16NO2+ 1 170.1176 0.34
  222.076 C11H12NO4+ 1 222.0761 -0.27
  333.1806 C18H25N2O4+ 1 333.1809 -0.88
PK$NUM_PEAK: 5
PK$PEAK: m/z int. rel.int.
  150.0309 2740.3 1
  165.0545 1789412.8 999
  170.1176 1893.4 1
  222.076 3452 1
  333.1806 50228.1 28
//
