ACCESSION: MSBNK-UFZ-WANA055805070APH
RECORD_TITLE: EDDP; LC-ESI-ITFT; MS2; CE: 30%; R=15000; [M+H]+
DATE: 2023.08.12
AUTHORS: Tobias Schulze, Martin Krauss, Department of Effect-Directed Analysis, Helmholtz Centre for Environmental Research - UFZ, Leipzig, Germany
LICENSE: CC0
COPYRIGHT: Copyright (C) 2023
COMMENT: CONFIDENCE Reference Standard (Level 1)
CH$NAME: EDDP
CH$NAME: 2-Ethylidene-1,5-dimethyl-3,3-diphenylpyrrolidine
CH$NAME: (2Z)-2-ethylidene-1,5-dimethyl-3,3-diphenylpyrrolidine
CH$COMPOUND_CLASS: N/A; Environmental Standard
CH$FORMULA: C20H23N
CH$EXACT_MASS: 277.183049736
CH$SMILES: C\C=C1/N(C)C(C)CC1(C1=CC=CC=C1)C1=CC=CC=C1
CH$IUPAC: InChI=1S/C20H23N/c1-4-19-20(15-16(2)21(19)3,17-11-7-5-8-12-17)18-13-9-6-10-14-18/h4-14,16H,15H2,1-3H3/b19-4-
CH$LINK: CAS 30223-73-5
CH$LINK: PUBCHEM CID:5378015
CH$LINK: INCHIKEY AJRJPORIQGYFMT-PVOVUMCXSA-N
CH$LINK: CHEMSPIDER 4526936
CH$LINK: COMPTOX DTXSID10880951
AC$INSTRUMENT: LTQ Orbitrap XL Thermo Scientific
AC$INSTRUMENT_TYPE: LC-ESI-ITFT
AC$MASS_SPECTROMETRY: MS_TYPE MS2
AC$MASS_SPECTROMETRY: ION_MODE POSITIVE
AC$MASS_SPECTROMETRY: IONIZATION ESI
AC$MASS_SPECTROMETRY: FRAGMENTATION_MODE HCD
AC$MASS_SPECTROMETRY: COLLISION_ENERGY 30 % (nominal)
AC$MASS_SPECTROMETRY: RESOLUTION 15000
AC$MASS_SPECTROMETRY: MASS_RANGE_M/Z 50-290
AC$CHROMATOGRAPHY: COLUMN_NAME Kinetex Evo C18 2.6 um 50 x 2.1 mm
AC$CHROMATOGRAPHY: FLOW_GRADIENT 95/5 at 0 min, 95/5 at 1 min, 0/100 at 13 min, 0/100 at 24 min, 95/5 at 24.3 min, 95/5 at 32 min
AC$CHROMATOGRAPHY: FLOW_RATE 300 uL/min
AC$CHROMATOGRAPHY: RETENTION_TIME 7.755 min
MS$FOCUSED_ION: BASE_PEAK 278.1913
MS$FOCUSED_ION: PRECURSOR_M/Z 278.1903
MS$FOCUSED_ION: PRECURSOR_TYPE [M+H]+
MS$FOCUSED_ION: PRECURSOR_INTENSITY 33159606
MS$DATA_PROCESSING: RECALIBRATE loess on assigned fragments and MS1
MS$DATA_PROCESSING: REANALYZE Peaks with additional N2/O included
MS$DATA_PROCESSING: WHOLE RMassBank 3.11.2
PK$SPLASH: splash10-004i-0090000000-4040427cf9f04ff80e12
PK$ANNOTATION: m/z tentative_formula formula_count mass error(ppm)
  249.1504 C18H19N+ 1 249.1512 -3.21
  278.1907 C20H24N+ 1 278.1903 1.4
PK$NUM_PEAK: 2
PK$PEAK: m/z int. rel.int.
  249.1504 9405.9 3
  278.1907 2416150.5 999
//
