ACCESSION: MSBNK-UFZ-UA004503
RECORD_TITLE: 3-hydroxybenzo(a)pyrene; APCI-ITFT; MS2; CE: 35%; R=30000; [M+H]+
DATE: 2014.06.24
AUTHORS: C. Gallampois (Umea), E. Schymanski (Eawag), W. Brack (UFZ)
LICENSE: CC BY
COPYRIGHT: Copyright (C) Eawag, 2014
PUBLICATION: Multi-criteria approach for tentative identification of polyaromatic river mutagens
COMMENT: CONFIDENCE standard compound
COMMENT: INTERNAL_ID 45
CH$NAME: 3-hydroxybenzo(a)pyrene
CH$NAME: benzo[a]pyren-3-ol
CH$COMPOUND_CLASS: N/A; Environmental Standard
CH$FORMULA: C20H12O
CH$EXACT_MASS: 268.0888
CH$SMILES: Oc5ccc3ccc2c1ccccc1cc4c2c3c5cc4
CH$IUPAC: InChI=1S/C20H12O/c21-18-10-7-12-5-8-16-15-4-2-1-3-13(15)11-14-6-9-17(18)19(12)20(14)16/h1-11,21H
CH$LINK: CAS 13345-21-6
CH$LINK: KEGG C14461
CH$LINK: PUBCHEM CID:25890
CH$LINK: INCHIKEY SPUUWWRWIAEPDB-UHFFFAOYSA-N
CH$LINK: CHEMSPIDER 24121
CH$LINK: COMPTOX DTXSID7038319
AC$INSTRUMENT: LTQ Orbitrap XL Thermo Scientific
AC$INSTRUMENT_TYPE: APCI-ITFT
AC$MASS_SPECTROMETRY: MS_TYPE MS2
AC$MASS_SPECTROMETRY: ION_MODE POSITIVE
AC$MASS_SPECTROMETRY: IONIZATION APCI
AC$MASS_SPECTROMETRY: FRAGMENTATION_MODE CID
AC$MASS_SPECTROMETRY: COLLISION_ENERGY 35 % (nominal)
AC$MASS_SPECTROMETRY: RESOLUTION 30000
AC$CHROMATOGRAPHY: COLUMN_NAME N/A
AC$CHROMATOGRAPHY: FLOW_GRADIENT Direct infusion experiment
AC$CHROMATOGRAPHY: FLOW_RATE 5 uL/min
AC$CHROMATOGRAPHY: RETENTION_TIME N/A min
AC$CHROMATOGRAPHY: SOLVENT A methanol
AC$CHROMATOGRAPHY: SOLVENT B N/A
MS$FOCUSED_ION: BASE_PEAK 269.0961
MS$FOCUSED_ION: PRECURSOR_M/Z 269.0961
MS$FOCUSED_ION: PRECURSOR_TYPE [M+H]+
MS$DATA_PROCESSING: RECALIBRATE loess on assigned fragments and MS1
MS$DATA_PROCESSING: REANALYZE Peaks with additional N2/O included
MS$DATA_PROCESSING: WHOLE RMassBank 1.5.2.3
PK$SPLASH: splash10-0udi-0090000000-77a6972c944570635acb
PK$ANNOTATION: m/z tentative_formula formula_count mass error(ppm)
  239.0853 C19H11+ 1 239.0855 -1.07
  240.0929 C19H12+ 1 240.0934 -1.84
  241.1004 C19H13+ 1 241.1012 -3.26
  251.0852 C20H11+ 1 251.0855 -1.26
  252.0929 C20H12+ 1 252.0934 -1.75
  255.0802 C19H11O+ 1 255.0804 -1.1
  267.08 C20H11O+ 1 267.0804 -1.54
  268.0878 C20H12O+ 1 268.0883 -1.67
  269.0957 C20H13O+ 1 269.0961 -1.42
PK$NUM_PEAK: 9
PK$PEAK: m/z int. rel.int.
  239.0853 146477.4 82
  240.0929 210707.3 117
  241.1004 120289.7 67
  251.0852 1783873 999
  252.0929 1455119.9 814
  255.0802 2583.4 1
  267.08 21491.7 12
  268.0878 258029.1 144
  269.0957 31789.2 17
//
