ACCESSION: MSBNK-UFZ-WANA030811C9CFPH
RECORD_TITLE: Ethyl 4-(dimethylamino)benzoate; LC-ESI-ITFT; MS2; CE: 40%; R=15000; [M+H]+
DATE: 2023.08.12
AUTHORS: Tobias Schulze, Martin Krauss, Department of Effect-Directed Analysis, Helmholtz Centre for Environmental Research - UFZ, Leipzig, Germany
LICENSE: CC0
COPYRIGHT: Copyright (C) 2023
COMMENT: CONFIDENCE Reference Standard (Level 1)
CH$NAME: Ethyl 4-(dimethylamino)benzoate
CH$NAME: Ethyl 4-dimethylaminobenzoate
CH$COMPOUND_CLASS: N/A; Environmental Standard
CH$FORMULA: C11H15NO2
CH$EXACT_MASS: 193.11027872
CH$SMILES: CCOC(=O)C1=CC=C(C=C1)N(C)C
CH$IUPAC: InChI=1S/C11H15NO2/c1-4-14-11(13)9-5-7-10(8-6-9)12(2)3/h5-8H,4H2,1-3H3
CH$LINK: CAS 10287-53-3
CH$LINK: CHEBI CHEBI:52073
CH$LINK: PUBCHEM CID:25127
CH$LINK: INCHIKEY FZUGPQWGEGAKET-UHFFFAOYSA-N
CH$LINK: CHEMSPIDER 23472
CH$LINK: COMPTOX DTXSID2044763
AC$INSTRUMENT: LTQ Orbitrap XL Thermo Scientific
AC$INSTRUMENT_TYPE: LC-ESI-ITFT
AC$MASS_SPECTROMETRY: MS_TYPE MS2
AC$MASS_SPECTROMETRY: ION_MODE POSITIVE
AC$MASS_SPECTROMETRY: IONIZATION ESI
AC$MASS_SPECTROMETRY: FRAGMENTATION_MODE HCD
AC$MASS_SPECTROMETRY: COLLISION_ENERGY 40 % (nominal)
AC$MASS_SPECTROMETRY: RESOLUTION 15000
AC$MASS_SPECTROMETRY: MASS_RANGE_M/Z 50-205
AC$CHROMATOGRAPHY: COLUMN_NAME Kinetex Evo C18 2.6 um 50 x 2.1 mm
AC$CHROMATOGRAPHY: FLOW_GRADIENT 95/5 at 0 min, 95/5 at 1 min, 0/100 at 13 min, 0/100 at 24 min, 95/5 at 24.3 min, 95/5 at 32 min
AC$CHROMATOGRAPHY: FLOW_RATE 300 uL/min
AC$CHROMATOGRAPHY: RETENTION_TIME 11.173 min
MS$FOCUSED_ION: BASE_PEAK 194.1182
MS$FOCUSED_ION: PRECURSOR_M/Z 194.1176
MS$FOCUSED_ION: PRECURSOR_TYPE [M+H]+
MS$FOCUSED_ION: PRECURSOR_INTENSITY 26913130
MS$DATA_PROCESSING: RECALIBRATE loess on assigned fragments and MS1
MS$DATA_PROCESSING: REANALYZE Peaks with additional N2/O included
MS$DATA_PROCESSING: WHOLE RMassBank 3.11.2
PK$SPLASH: splash10-0006-0900000000-0a352193c9d44a0c1a3d
PK$ANNOTATION: m/z tentative_formula formula_count mass error(ppm)
  107.073 C7H9N+ 1 107.073 0.31
  121.0887 C8H11N+ 1 121.0886 1.14
  122.0964 C8H12N+ 1 122.0964 0.07
  134.0603 C8H8NO+ 1 134.06 1.93
  151.0629 C8H9NO2+ 1 151.0628 0.49
  166.0864 C9H12NO2+ 1 166.0863 0.63
  178.0867 C10H12NO2+ 1 178.0863 2.52
  179.0942 C10H13NO2+ 1 179.0941 0.72
  194.1174 C11H16NO2+ 1 194.1176 -0.6
PK$NUM_PEAK: 9
PK$PEAK: m/z int. rel.int.
  107.073 8272.3 1
  121.0887 50326.2 8
  122.0964 28564.9 4
  134.0603 42047.4 7
  151.0629 280956.8 46
  166.0864 2334784.5 389
  178.0867 9138.1 1
  179.0942 1562013.8 260
  194.1174 5990573 999
//
