ACCESSION: MSBNK-UFZ-WANA223311C9CFPH
RECORD_TITLE: Enalapril; LC-ESI-ITFT; MS2; CE: 40%; R=15000; [M+H]+
DATE: 2023.08.12
AUTHORS: Tobias Schulze, Martin Krauss, Department of Effect-Directed Analysis, Helmholtz Centre for Environmental Research - UFZ, Leipzig, Germany
LICENSE: CC0
COPYRIGHT: Copyright (C) 2023
COMMENT: CONFIDENCE Reference Standard (Level 1)
CH$NAME: Enalapril
CH$NAME: (2S)-1-[(2S)-2-[[(2S)-1-ethoxy-1-oxo-4-phenylbutan-2-yl]amino]propanoyl]pyrrolidine-2-carboxylic acid
CH$COMPOUND_CLASS: N/A; Environmental Standard
CH$FORMULA: C20H28N2O5
CH$EXACT_MASS: 376.199821996
CH$SMILES: CCOC(=O)[C@H](CCC1=CC=CC=C1)N[C@@H](C)C(=O)N1CCC[C@H]1C(O)=O
CH$IUPAC: InChI=1S/C20H28N2O5/c1-3-27-20(26)16(12-11-15-8-5-4-6-9-15)21-14(2)18(23)22-13-7-10-17(22)19(24)25/h4-6,8-9,14,16-17,21H,3,7,10-13H2,1-2H3,(H,24,25)/t14-,16-,17-/m0/s1
CH$LINK: CAS 75847-73-3
CH$LINK: CHEBI CHEBI:4784
CH$LINK: KEGG D07892
CH$LINK: PUBCHEM CID:5388962
CH$LINK: INCHIKEY GBXSMTUPTTWBMN-XIRDDKMYSA-N
CH$LINK: CHEMSPIDER 4534998
CH$LINK: COMPTOX DTXSID5022982
AC$INSTRUMENT: LTQ Orbitrap XL Thermo Scientific
AC$INSTRUMENT_TYPE: LC-ESI-ITFT
AC$MASS_SPECTROMETRY: MS_TYPE MS2
AC$MASS_SPECTROMETRY: ION_MODE POSITIVE
AC$MASS_SPECTROMETRY: IONIZATION ESI
AC$MASS_SPECTROMETRY: FRAGMENTATION_MODE HCD
AC$MASS_SPECTROMETRY: COLLISION_ENERGY 40 % (nominal)
AC$MASS_SPECTROMETRY: RESOLUTION 15000
AC$MASS_SPECTROMETRY: MASS_RANGE_M/Z 50-390
AC$CHROMATOGRAPHY: COLUMN_NAME Kinetex Evo C18 2.6 um 50 x 2.1 mm
AC$CHROMATOGRAPHY: FLOW_GRADIENT 95/5 at 0 min, 95/5 at 1 min, 0/100 at 13 min, 0/100 at 24 min, 95/5 at 24.3 min, 95/5 at 32 min
AC$CHROMATOGRAPHY: FLOW_RATE 300 uL/min
AC$CHROMATOGRAPHY: RETENTION_TIME 8.086 min
MS$FOCUSED_ION: BASE_PEAK 377.208
MS$FOCUSED_ION: PRECURSOR_M/Z 377.2071
MS$FOCUSED_ION: PRECURSOR_TYPE [M+H]+
MS$FOCUSED_ION: PRECURSOR_INTENSITY 26211124
MS$DATA_PROCESSING: RECALIBRATE loess on assigned fragments and MS1
MS$DATA_PROCESSING: REANALYZE Peaks with additional N2/O included
MS$DATA_PROCESSING: WHOLE RMassBank 3.11.2
PK$SPLASH: splash10-001i-0591000000-d4b280633a60226ba842
PK$ANNOTATION: m/z tentative_formula formula_count mass error(ppm)
  70.065 C4H8N+ 1 70.0651 -1.84
  73.0647 C4H9O+ 1 73.0648 -1.55
  91.0544 C7H7+ 1 91.0542 1.46
  98.0605 C5H8NO+ 1 98.06 4.73
  102.0549 C4H8NO2+ 1 102.055 -0.43
  116.0706 C5H10NO2+ 1 116.0706 0.04
  117.0698 C9H9+ 1 117.0699 -0.53
  130.0862 C6H12NO2+ 1 130.0863 -0.63
  134.0964 C9H12N+ 1 134.0964 -0.41
  144.0811 C10H10N+ 1 144.0808 2.43
  160.112 C11H14N+ 1 160.1121 -0.29
  162.1275 C11H16N+ 1 162.1277 -1.43
  206.1176 C12H16NO2+ 1 206.1176 0.08
  206.1536 C13H20NO+ 1 206.1539 -1.59
  232.1329 C14H18NO2+ 1 232.1332 -1.41
  234.1488 C14H20NO2+ 1 234.1489 -0.41
  303.1702 C17H23N2O3+ 1 303.1703 -0.49
  377.2074 C20H29N2O5+ 1 377.2071 0.7
PK$NUM_PEAK: 18
PK$PEAK: m/z int. rel.int.
  70.065 39062.1 3
  73.0647 41892.5 4
  91.0544 42608.3 4
  98.0605 19299.5 1
  102.0549 176490.5 17
  116.0706 201983.7 20
  117.0698 1250070.2 125
  130.0862 1949123.9 195
  134.0964 935390 93
  144.0811 22991.1 2
  160.112 2017065.2 202
  162.1275 56077.6 5
  206.1176 146433.9 14
  206.1536 39726.4 3
  232.1329 63881.5 6
  234.1488 9972606 999
  303.1702 1327068.5 132
  377.2074 27035.1 2
//
