ACCESSION: MSBNK-UFZ-UP000195
RECORD_TITLE: Gabapentin-lactam; LC-ESI-ITFT; MS2; CE: 125%; R=15000; [M+H]+
DATE: 2019.07.31
AUTHORS: Liza-Marie Beckers, Werner Brack, Janek-Paul Dann, Martin Krauss, Erik Mueller, Tobias Schulze, Helmholtz Centre for Environmental Research GmbH - UFZ, Leipzig, Germany
LICENSE: CC0
COPYRIGHT: Copyright (C) 2019
PUBLICATION: Beckers L-M, Brack W, Dann JP, Krauss M, Mueller E, Schulze T, 2020. Unraveling longitudinal pollution patterns of organic micropollutants in a river by non-target screening and cluster analysis. Science of The Total Environment, https://doi.org/10.1016/j.scitotenv.2020.138388
COMMENT: CONFIDENCE Reference Standard (Level 1)
COMMENT: INTERNAL_ID 7
CH$NAME: Gabapentin-lactam
CH$NAME: 2-azaspiro[4.5]decan-3-one
CH$COMPOUND_CLASS: N/A; Environmental Standard
CH$FORMULA: C9H15NO
CH$EXACT_MASS: 153.1154
CH$SMILES: O=C1CC2(CN1)CCCCC2
CH$IUPAC: InChI=1S/C9H15NO/c11-8-6-9(7-10-8)4-2-1-3-5-9/h1-7H2,(H,10,11)
CH$LINK: CAS 64744-50-9
CH$LINK: PUBCHEM CID:47457
CH$LINK: INCHIKEY JAWPQJDOQPSNIQ-UHFFFAOYSA-N
CH$LINK: CHEMSPIDER 43180
AC$INSTRUMENT: LTQ Orbitrap XL Thermo Scientific
AC$INSTRUMENT_TYPE: LC-ESI-ITFT
AC$MASS_SPECTROMETRY: MS_TYPE MS2
AC$MASS_SPECTROMETRY: ION_MODE POSITIVE
AC$MASS_SPECTROMETRY: IONIZATION ESI
AC$MASS_SPECTROMETRY: FRAGMENTATION_MODE HCD
AC$MASS_SPECTROMETRY: COLLISION_ENERGY 125 % (nominal)
AC$MASS_SPECTROMETRY: RESOLUTION 15000
AC$CHROMATOGRAPHY: COLUMN_NAME Kinetex Evo C18 2.6 um 50 x 2.1 mm
AC$CHROMATOGRAPHY: FLOW_GRADIENT 95/5 at 0 min, 95/5 at 1 min, 0/100 at 13 min, 0/100 at 24 min, 95/5 at 24.3 min, 95/5/0 at 32 min
AC$CHROMATOGRAPHY: FLOW_RATE 300 uL/min
AC$CHROMATOGRAPHY: RETENTION_TIME 8.247 min
AC$CHROMATOGRAPHY: SOLVENT A water with 0.1% formic acid
AC$CHROMATOGRAPHY: SOLVENT B methanol with 0.1% formic acid
MS$FOCUSED_ION: BASE_PEAK 154.1225
MS$FOCUSED_ION: PRECURSOR_M/Z 154.1226
MS$FOCUSED_ION: PRECURSOR_TYPE [M+H]+
MS$DATA_PROCESSING: RECALIBRATE loess on assigned fragments and MS1
MS$DATA_PROCESSING: REANALYZE Peaks with additional N2/O included
MS$DATA_PROCESSING: WHOLE RMassBank 2.12.0
PK$SPLASH: splash10-00kb-9000000000-b471887ca33488023abe
PK$ANNOTATION: m/z tentative_formula formula_count mass error(ppm)
  54.0337 C3H4N+ 1 54.0338 -1.74
  60.0442 C2H6NO+ 1 60.0444 -2.7
  65.0385 C5H5+ 1 65.0386 -1.66
  67.0541 C5H7+ 1 67.0542 -1.57
  69.0698 C5H9+ 1 69.0699 -1.26
  70.0651 C4H8N+ 1 70.0651 -0.81
  72.0443 C3H6NO+ 1 72.0444 -1.06
  77.0385 C6H5+ 1 77.0386 -0.62
  79.0542 C6H7+ 1 79.0542 -0.56
  80.062 C6H8+ 1 80.0621 -0.09
  81.0699 C6H9+ 1 81.0699 -0.29
  86.0599 C4H8NO+ 1 86.06 -1.6
  91.0542 C7H7+ 1 91.0542 -0.68
  93.0698 C7H9+ 1 93.0699 -0.34
  95.0855 C7H11+ 1 95.0855 -0.38
  109.1011 C8H13+ 1 109.1012 -0.59
  112.112 C7H14N+ 1 112.1121 -0.59
  154.1225 C9H16NO+ 1 154.1226 -0.63
PK$NUM_PEAK: 18
PK$PEAK: m/z int. rel.int.
  54.0337 1592.8 6
  60.0442 2287.4 9
  65.0385 7881 33
  67.0541 153678.8 645
  69.0698 10595.8 44
  70.0651 2086.2 8
  72.0443 33188.7 139
  77.0385 9876.6 41
  79.0542 6034.3 25
  80.062 6765.5 28
  81.0699 8429.8 35
  86.0599 999.2 4
  91.0542 21791 91
  93.0698 50196.1 210
  95.0855 237977.7 999
  109.1011 5038.9 21
  112.112 4344.5 18
  154.1225 26671.3 111
//
