ACCESSION: MSBNK-UFZ-WANA023525AF82PH
RECORD_TITLE: Diclofenac; LC-ESI-ITFT; MS2; CE: 90%; R=15000; [M+H]+
DATE: 2023.08.13
AUTHORS: Tobias Schulze, Martin Krauss, Department of Effect-Directed Analysis, Helmholtz Centre for Environmental Research - UFZ, Leipzig, Germany
LICENSE: CC0
COPYRIGHT: Copyright (C) 2023
COMMENT: CONFIDENCE Reference Standard (Level 1)
CH$NAME: Diclofenac
CH$NAME: 2-[2-(2,6-dichloroanilino)phenyl]acetic acid
CH$COMPOUND_CLASS: N/A; Environmental Standard
CH$FORMULA: C14H11Cl2NO2
CH$EXACT_MASS: 295.016683952
CH$SMILES: OC(=O)CC1=C(NC2=C(Cl)C=CC=C2Cl)C=CC=C1
CH$IUPAC: InChI=1S/C14H11Cl2NO2/c15-10-5-3-6-11(16)14(10)17-12-7-2-1-4-9(12)8-13(18)19/h1-7,17H,8H2,(H,18,19)
CH$LINK: CAS 15307-86-5
CH$LINK: CHEBI CHEBI:47381
CH$LINK: KEGG D07816
CH$LINK: PUBCHEM CID:3033
CH$LINK: INCHIKEY DCOPUUMXTXDBNB-UHFFFAOYSA-N
CH$LINK: CHEMSPIDER 2925
CH$LINK: COMPTOX DTXSID6022923
AC$INSTRUMENT: LTQ Orbitrap XL Thermo Scientific
AC$INSTRUMENT_TYPE: LC-ESI-ITFT
AC$MASS_SPECTROMETRY: MS_TYPE MS2
AC$MASS_SPECTROMETRY: ION_MODE POSITIVE
AC$MASS_SPECTROMETRY: IONIZATION ESI
AC$MASS_SPECTROMETRY: FRAGMENTATION_MODE HCD
AC$MASS_SPECTROMETRY: COLLISION_ENERGY 90 % (nominal)
AC$MASS_SPECTROMETRY: RESOLUTION 15000
AC$MASS_SPECTROMETRY: MASS_RANGE_M/Z 50-310
AC$CHROMATOGRAPHY: COLUMN_NAME Kinetex Evo C18 2.6 um 50 x 2.1 mm
AC$CHROMATOGRAPHY: FLOW_GRADIENT 95/5 at 0 min, 95/5 at 1 min, 0/100 at 13 min, 0/100 at 24 min, 95/5 at 24.3 min, 95/5 at 32 min
AC$CHROMATOGRAPHY: FLOW_RATE 300 uL/min
AC$CHROMATOGRAPHY: RETENTION_TIME 12.203 min
MS$FOCUSED_ION: BASE_PEAK 296.0251
MS$FOCUSED_ION: PRECURSOR_M/Z 296.024
MS$FOCUSED_ION: PRECURSOR_TYPE [M+H]+
MS$FOCUSED_ION: PRECURSOR_INTENSITY 8664442
MS$DATA_PROCESSING: RECALIBRATE loess on assigned fragments and MS1
MS$DATA_PROCESSING: REANALYZE Peaks with additional N2/O included
MS$DATA_PROCESSING: WHOLE RMassBank 3.11.2
PK$SPLASH: splash10-03di-0090000000-d08607f17600320475b0
PK$ANNOTATION: m/z tentative_formula formula_count mass error(ppm)
  178.0659 C13H8N+ 1 178.0651 4.25
  179.0738 C13H9N+ 1 179.073 4.65
  214.0426 C13H9ClN+ 1 214.0418 3.89
PK$NUM_PEAK: 3
PK$PEAK: m/z int. rel.int.
  178.0659 7450.8 19
  179.0738 9306.4 24
  214.0426 379449.5 999
//
