ACCESSION: MSBNK-UFZ-WANA017905070APH
RECORD_TITLE: Desethylterbutylazine; LC-ESI-ITFT; MS2; CE: 30%; R=15000; [M+H]+
DATE: 2023.08.12
AUTHORS: Tobias Schulze, Martin Krauss, Department of Effect-Directed Analysis, Helmholtz Centre for Environmental Research - UFZ, Leipzig, Germany
LICENSE: CC0
COPYRIGHT: Copyright (C) 2023
COMMENT: CONFIDENCE Reference Standard (Level 1)
CH$NAME: Desethylterbutylazine
CH$NAME: Desethylterbuthylazine
CH$NAME: 2-N-tert-butyl-6-chloro-1,3,5-triazine-2,4-diamine
CH$COMPOUND_CLASS: N/A; Environmental Standard
CH$FORMULA: C7H12ClN5
CH$EXACT_MASS: 201.078123064
CH$SMILES: CC(C)(C)NC1=NC(Cl)=NC(N)=N1
CH$IUPAC: InChI=1S/C7H12ClN5/c1-7(2,3)13-6-11-4(8)10-5(9)12-6/h1-3H3,(H3,9,10,11,12,13)
CH$LINK: CAS 30125-63-4
CH$LINK: CHEBI CHEBI:83522
CH$LINK: PUBCHEM CID:108201
CH$LINK: INCHIKEY LMKQNTMFZLAJDV-UHFFFAOYSA-N
CH$LINK: CHEMSPIDER 97278
CH$LINK: COMPTOX DTXSID80184211
AC$INSTRUMENT: LTQ Orbitrap XL Thermo Scientific
AC$INSTRUMENT_TYPE: LC-ESI-ITFT
AC$MASS_SPECTROMETRY: MS_TYPE MS2
AC$MASS_SPECTROMETRY: ION_MODE POSITIVE
AC$MASS_SPECTROMETRY: IONIZATION ESI
AC$MASS_SPECTROMETRY: FRAGMENTATION_MODE HCD
AC$MASS_SPECTROMETRY: COLLISION_ENERGY 30 % (nominal)
AC$MASS_SPECTROMETRY: RESOLUTION 15000
AC$MASS_SPECTROMETRY: MASS_RANGE_M/Z 50-215
AC$CHROMATOGRAPHY: COLUMN_NAME Kinetex Evo C18 2.6 um 50 x 2.1 mm
AC$CHROMATOGRAPHY: FLOW_GRADIENT 95/5 at 0 min, 95/5 at 1 min, 0/100 at 13 min, 0/100 at 24 min, 95/5 at 24.3 min, 95/5 at 32 min
AC$CHROMATOGRAPHY: FLOW_RATE 300 uL/min
AC$CHROMATOGRAPHY: RETENTION_TIME 9.090 min
MS$FOCUSED_ION: BASE_PEAK 202.0857
MS$FOCUSED_ION: PRECURSOR_M/Z 202.0854
MS$FOCUSED_ION: PRECURSOR_TYPE [M+H]+
MS$FOCUSED_ION: PRECURSOR_INTENSITY 27400540
MS$DATA_PROCESSING: RECALIBRATE loess on assigned fragments and MS1
MS$DATA_PROCESSING: REANALYZE Peaks with additional N2/O included
MS$DATA_PROCESSING: WHOLE RMassBank 3.11.2
PK$SPLASH: splash10-0f6t-0980000000-9b81db7f62687965f661
PK$ANNOTATION: m/z tentative_formula formula_count mass error(ppm)
  146.0225 C3H5ClN5+ 1 146.0228 -1.87
  202.0851 C7H13ClN5+ 1 202.0854 -1.61
PK$NUM_PEAK: 2
PK$PEAK: m/z int. rel.int.
  146.0225 1339623.1 999
  202.0851 1303906.5 972
//
