ACCESSION: MSBNK-UFZ-WANA234725AF82PH
RECORD_TITLE: Quinoline N-oxide; LC-ESI-ITFT; MS2; CE: 90%; R=15000; [M+H]+
DATE: 2023.08.13
AUTHORS: Tobias Schulze, Martin Krauss, Department of Effect-Directed Analysis, Helmholtz Centre for Environmental Research - UFZ, Leipzig, Germany
LICENSE: CC0
COPYRIGHT: Copyright (C) 2023
COMMENT: CONFIDENCE Reference Standard (Level 1)
CH$NAME: Quinoline N-oxide
CH$NAME: Quinoline 1-oxide
CH$NAME: 1-oxidoquinolin-1-ium
CH$COMPOUND_CLASS: N/A; Environmental Standard
CH$FORMULA: C9H7NO
CH$EXACT_MASS: 145.052763844
CH$SMILES: [O-][N+]1=CC=CC2=CC=CC=C12
CH$IUPAC: InChI=1S/C9H7NO/c11-10-7-3-5-8-4-1-2-6-9(8)10/h1-7H
CH$LINK: CAS 1613-37-2
CH$LINK: CHEBI CHEBI:181573
CH$LINK: PUBCHEM CID:15366
CH$LINK: INCHIKEY GIIWGCBLYNDKBO-UHFFFAOYSA-N
CH$LINK: CHEMSPIDER 14627
CH$LINK: COMPTOX DTXSID00167107
AC$INSTRUMENT: LTQ Orbitrap XL Thermo Scientific
AC$INSTRUMENT_TYPE: LC-ESI-ITFT
AC$MASS_SPECTROMETRY: MS_TYPE MS2
AC$MASS_SPECTROMETRY: ION_MODE POSITIVE
AC$MASS_SPECTROMETRY: IONIZATION ESI
AC$MASS_SPECTROMETRY: FRAGMENTATION_MODE HCD
AC$MASS_SPECTROMETRY: COLLISION_ENERGY 90 % (nominal)
AC$MASS_SPECTROMETRY: RESOLUTION 15000
AC$MASS_SPECTROMETRY: MASS_RANGE_M/Z 50-160
AC$CHROMATOGRAPHY: COLUMN_NAME Kinetex Evo C18 2.6 um 50 x 2.1 mm
AC$CHROMATOGRAPHY: FLOW_GRADIENT 95/5 at 0 min, 95/5 at 1 min, 0/100 at 13 min, 0/100 at 24 min, 95/5 at 24.3 min, 95/5 at 32 min
AC$CHROMATOGRAPHY: FLOW_RATE 300 uL/min
AC$CHROMATOGRAPHY: RETENTION_TIME 2.496 min
MS$FOCUSED_ION: BASE_PEAK 146.06
MS$FOCUSED_ION: PRECURSOR_M/Z 146.06
MS$FOCUSED_ION: PRECURSOR_TYPE [M+H]+
MS$FOCUSED_ION: PRECURSOR_INTENSITY 14641477
MS$DATA_PROCESSING: RECALIBRATE loess on assigned fragments and MS1
MS$DATA_PROCESSING: REANALYZE Peaks with additional N2/O included
MS$DATA_PROCESSING: WHOLE RMassBank 3.11.2
PK$SPLASH: splash10-004i-0900000000-7ba5fce13156fad91a17
PK$ANNOTATION: m/z tentative_formula formula_count mass error(ppm)
  77.0384 C6H5+ 1 77.0386 -2.69
  78.0462 C6H6+ 1 78.0464 -2.53
  91.0541 C7H7+ 1 91.0542 -1.82
  95.049 C6H7O+ 1 95.0491 -1.29
  101.0384 C8H5+ 1 101.0386 -1.81
  102.0462 C8H6+ 1 102.0464 -1.5
  103.0541 C8H7+ 1 103.0542 -1.41
  117.0572 C8H7N+ 1 117.0573 -1.09
  118.0649 C8H8N+ 1 118.0651 -1.66
  119.049 C8H7O+ 1 119.0491 -1.6
  128.0494 C9H6N+ 1 128.0495 -0.3
  129.057 C9H7N+ 1 129.0573 -2.19
  146.0598 C9H8NO+ 1 146.06 -1.92
PK$NUM_PEAK: 13
PK$PEAK: m/z int. rel.int.
  77.0384 96893.4 20
  78.0462 24617.6 5
  91.0541 241959.6 50
  95.049 20387.2 4
  101.0384 33295 6
  102.0462 129962.2 27
  103.0541 68816.6 14
  117.0572 85365.5 17
  118.0649 67496.2 14
  119.049 15743.9 3
  128.0494 705768.7 147
  129.057 4774340 999
  146.0598 955581.1 199
//
