ACCESSION: MSBNK-UFZ-WANA020213D9F1PH
RECORD_TITLE: Terbuthylazine; LC-ESI-ITFT; MS2; CE: 50%; R=15000; [M+H]+
DATE: 2023.08.12
AUTHORS: Tobias Schulze, Martin Krauss, Department of Effect-Directed Analysis, Helmholtz Centre for Environmental Research - UFZ, Leipzig, Germany
LICENSE: CC0
COPYRIGHT: Copyright (C) 2023
COMMENT: CONFIDENCE Reference Standard (Level 1)
CH$NAME: Terbuthylazine
CH$NAME: 2-N-tert-butyl-6-chloro-4-N-ethyl-1,3,5-triazine-2,4-diamine
CH$COMPOUND_CLASS: N/A; Environmental Standard
CH$FORMULA: C9H16ClN5
CH$EXACT_MASS: 229.109423192
CH$SMILES: CCNC1=NC(Cl)=NC(NC(C)(C)C)=N1
CH$IUPAC: InChI=1S/C9H16ClN5/c1-5-11-7-12-6(10)13-8(14-7)15-9(2,3)4/h5H2,1-4H3,(H2,11,12,13,14,15)
CH$LINK: CAS 5915-41-3
CH$LINK: CHEBI CHEBI:30263
CH$LINK: KEGG C18810
CH$LINK: PUBCHEM CID:22206
CH$LINK: INCHIKEY FZXISNSWEXTPMF-UHFFFAOYSA-N
CH$LINK: CHEMSPIDER 20848
CH$LINK: COMPTOX DTXSID4027608
AC$INSTRUMENT: LTQ Orbitrap XL Thermo Scientific
AC$INSTRUMENT_TYPE: LC-ESI-ITFT
AC$MASS_SPECTROMETRY: MS_TYPE MS2
AC$MASS_SPECTROMETRY: ION_MODE POSITIVE
AC$MASS_SPECTROMETRY: IONIZATION ESI
AC$MASS_SPECTROMETRY: FRAGMENTATION_MODE HCD
AC$MASS_SPECTROMETRY: COLLISION_ENERGY 50 % (nominal)
AC$MASS_SPECTROMETRY: RESOLUTION 15000
AC$MASS_SPECTROMETRY: MASS_RANGE_M/Z 50-245
AC$CHROMATOGRAPHY: COLUMN_NAME Kinetex Evo C18 2.6 um 50 x 2.1 mm
AC$CHROMATOGRAPHY: FLOW_GRADIENT 95/5 at 0 min, 95/5 at 1 min, 0/100 at 13 min, 0/100 at 24 min, 95/5 at 24.3 min, 95/5 at 32 min
AC$CHROMATOGRAPHY: FLOW_RATE 300 uL/min
AC$CHROMATOGRAPHY: RETENTION_TIME 11.032 min
MS$FOCUSED_ION: BASE_PEAK 230.1171
MS$FOCUSED_ION: PRECURSOR_M/Z 230.1167
MS$FOCUSED_ION: PRECURSOR_TYPE [M+H]+
MS$FOCUSED_ION: PRECURSOR_INTENSITY 59071612
MS$DATA_PROCESSING: RECALIBRATE loess on assigned fragments and MS1
MS$DATA_PROCESSING: REANALYZE Peaks with additional N2/O included
MS$DATA_PROCESSING: WHOLE RMassBank 3.11.2
PK$SPLASH: splash10-00di-0900000000-cbd9bee6021dad94f952
PK$ANNOTATION: m/z tentative_formula formula_count mass error(ppm)
  68.0241 C2H2N3+ 1 68.0243 -3.38
  71.0602 C3H7N2+ 1 71.0604 -2.79
  79.0056 CH4ClN2+ 1 79.0058 -1.9
  90.0103 C3H5ClN+ 1 90.0105 -2.39
  96.0555 C4H6N3+ 1 96.0556 -1.06
  104.0008 C2H3ClN3+ 1 104.001 -1.53
  110.0461 C3H4N5+ 1 110.0461 0.05
  132.0321 C4H7ClN3+ 1 132.0323 -1.24
  138.0773 C5H8N5+ 1 138.0774 -0.88
  146.0227 C3H5ClN5+ 1 146.0228 -0.93
  174.0539 C5H9ClN5+ 1 174.0541 -1.21
  230.1165 C9H17ClN5+ 1 230.1167 -0.84
PK$NUM_PEAK: 12
PK$PEAK: m/z int. rel.int.
  68.0241 127495.4 10
  71.0602 52942 4
  79.0056 428716 33
  90.0103 16925.1 1
  96.0555 487812.6 38
  104.0008 138574.4 10
  110.0461 18342.8 1
  132.0321 561659.2 44
  138.0773 171908.6 13
  146.0227 470673.6 37
  174.0539 12648634 999
  230.1165 461042.2 36
//
