ACCESSION: MSBNK-UFZ-WANA0291237762PH
RECORD_TITLE: 5-Methyl-1H-benzotriazole; LC-ESI-ITFT; MS2; CE: 80%; R=15000; [M+H]+
DATE: 2023.08.13
AUTHORS: Tobias Schulze, Martin Krauss, Department of Effect-Directed Analysis, Helmholtz Centre for Environmental Research - UFZ, Leipzig, Germany
LICENSE: CC0
COPYRIGHT: Copyright (C) 2023
COMMENT: CONFIDENCE Reference Standard (Level 1)
CH$NAME: 5-Methyl-1H-benzotriazole
CH$NAME: 5-methyl-2H-benzotriazole
CH$COMPOUND_CLASS: N/A; Environmental Standard
CH$FORMULA: C7H7N3
CH$EXACT_MASS: 133.063997224
CH$SMILES: CC1=CC=C2NN=NC2=C1
CH$IUPAC: InChI=1S/C7H7N3/c1-5-2-3-6-7(4-5)9-10-8-6/h2-4H,1H3,(H,8,9,10)
CH$LINK: CAS 136-85-6
CH$LINK: CHEBI CHEBI:83455
CH$LINK: PUBCHEM CID:8705
CH$LINK: INCHIKEY LRUDIIUSNGCQKF-UHFFFAOYSA-N
CH$LINK: CHEMSPIDER 8381
CH$LINK: COMPTOX DTXSID1038743
AC$INSTRUMENT: LTQ Orbitrap XL Thermo Scientific
AC$INSTRUMENT_TYPE: LC-ESI-ITFT
AC$MASS_SPECTROMETRY: MS_TYPE MS2
AC$MASS_SPECTROMETRY: ION_MODE POSITIVE
AC$MASS_SPECTROMETRY: IONIZATION ESI
AC$MASS_SPECTROMETRY: FRAGMENTATION_MODE HCD
AC$MASS_SPECTROMETRY: COLLISION_ENERGY 80 % (nominal)
AC$MASS_SPECTROMETRY: RESOLUTION 15000
AC$MASS_SPECTROMETRY: MASS_RANGE_M/Z 50-145
AC$CHROMATOGRAPHY: COLUMN_NAME Kinetex Evo C18 2.6 um 50 x 2.1 mm
AC$CHROMATOGRAPHY: FLOW_GRADIENT 95/5 at 0 min, 95/5 at 1 min, 0/100 at 13 min, 0/100 at 24 min, 95/5 at 24.3 min, 95/5 at 32 min
AC$CHROMATOGRAPHY: FLOW_RATE 300 uL/min
AC$CHROMATOGRAPHY: RETENTION_TIME 6.747 min
MS$FOCUSED_ION: BASE_PEAK 134.0716
MS$FOCUSED_ION: PRECURSOR_M/Z 134.0713
MS$FOCUSED_ION: PRECURSOR_TYPE [M+H]+
MS$FOCUSED_ION: PRECURSOR_INTENSITY 33387120
MS$DATA_PROCESSING: RECALIBRATE loess on assigned fragments and MS1
MS$DATA_PROCESSING: REANALYZE Peaks with additional N2/O included
MS$DATA_PROCESSING: WHOLE RMassBank 3.11.2
PK$SPLASH: splash10-003r-5900000000-f96e6884d9b332a1d13d
PK$ANNOTATION: m/z tentative_formula formula_count mass error(ppm)
  54.0337 C3H4N+ 1 54.0338 -3.19
  65.0384 C5H5+ 1 65.0386 -2.09
  66.0462 C5H6+ 1 66.0464 -2.45
  67.0416 C4H5N+ 1 67.0417 -1.18
  77.0386 C6H5+ 1 77.0386 -0.31
  78.0338 C5H4N+ 1 78.0338 0.14
  78.0466 C6H6+ 1 78.0464 2.26
  79.0542 C6H7+ 1 79.0542 -0.74
  80.0494 C5H6N+ 1 80.0495 -0.68
  89.0386 C7H5+ 1 89.0386 -0.05
  91.0417 C6H5N+ 1 91.0417 0.39
  104.0497 C7H6N+ 1 104.0495 2.3
  105.0448 C6H5N2+ 1 105.0447 0.63
  106.0651 C7H8N+ 1 106.0651 0.16
  134.0713 C7H8N3+ 1 134.0713 0.11
PK$NUM_PEAK: 15
PK$PEAK: m/z int. rel.int.
  54.0337 9207.8 1
  65.0384 20186.3 2
  66.0462 38691 4
  67.0416 49111.8 5
  77.0386 2502476.8 292
  78.0338 70929 8
  78.0466 17811.8 2
  79.0542 4038224 472
  80.0494 135961.5 15
  89.0386 137872.8 16
  91.0417 92219 10
  104.0497 25968.8 3
  105.0448 683497.9 79
  106.0651 1817353.5 212
  134.0713 8542733 999
//
