ACCESSION: MSBNK-UFZ-WANA2404237762PH
RECORD_TITLE: Benzocain; LC-ESI-ITFT; MS2; CE: 80%; R=15000; [M+H]+
DATE: 2023.08.13
AUTHORS: Tobias Schulze, Martin Krauss, Department of Effect-Directed Analysis, Helmholtz Centre for Environmental Research - UFZ, Leipzig, Germany
LICENSE: CC0
COPYRIGHT: Copyright (C) 2023
COMMENT: CONFIDENCE Reference Standard (Level 1)
CH$NAME: Benzocain
CH$NAME: Benzocaine
CH$NAME: ethyl 4-aminobenzoate
CH$COMPOUND_CLASS: N/A; Environmental Standard
CH$FORMULA: C9H11NO2
CH$EXACT_MASS: 165.078978592
CH$SMILES: CCOC(=O)C1=CC=C(N)C=C1
CH$IUPAC: InChI=1S/C9H11NO2/c1-2-12-9(11)7-3-5-8(10)6-4-7/h3-6H,2,10H2,1H3
CH$LINK: CAS 94-09-7
CH$LINK: CHEBI CHEBI:116735
CH$LINK: KEGG D00552
CH$LINK: PUBCHEM CID:2337
CH$LINK: INCHIKEY BLFLLBZGZJTVJG-UHFFFAOYSA-N
CH$LINK: CHEMSPIDER 13854242
CH$LINK: COMPTOX DTXSID8021804
AC$INSTRUMENT: LTQ Orbitrap XL Thermo Scientific
AC$INSTRUMENT_TYPE: LC-ESI-ITFT
AC$MASS_SPECTROMETRY: MS_TYPE MS2
AC$MASS_SPECTROMETRY: ION_MODE POSITIVE
AC$MASS_SPECTROMETRY: IONIZATION ESI
AC$MASS_SPECTROMETRY: FRAGMENTATION_MODE HCD
AC$MASS_SPECTROMETRY: COLLISION_ENERGY 80 % (nominal)
AC$MASS_SPECTROMETRY: RESOLUTION 15000
AC$MASS_SPECTROMETRY: MASS_RANGE_M/Z 50-180
AC$CHROMATOGRAPHY: COLUMN_NAME Kinetex Evo C18 2.6 um 50 x 2.1 mm
AC$CHROMATOGRAPHY: FLOW_GRADIENT 95/5 at 0 min, 95/5 at 1 min, 0/100 at 13 min, 0/100 at 24 min, 95/5 at 24.3 min, 95/5 at 32 min
AC$CHROMATOGRAPHY: FLOW_RATE 300 uL/min
AC$CHROMATOGRAPHY: RETENTION_TIME 7.564 min
MS$FOCUSED_ION: BASE_PEAK 166.0867
MS$FOCUSED_ION: PRECURSOR_M/Z 166.0863
MS$FOCUSED_ION: PRECURSOR_TYPE [M+H]+
MS$FOCUSED_ION: PRECURSOR_INTENSITY 35027256
MS$DATA_PROCESSING: RECALIBRATE loess on assigned fragments and MS1
MS$DATA_PROCESSING: REANALYZE Peaks with additional N2/O included
MS$DATA_PROCESSING: WHOLE RMassBank 3.11.2
PK$SPLASH: splash10-00dl-9800000000-4108a77e4b00275db65a
PK$ANNOTATION: m/z tentative_formula formula_count mass error(ppm)
  65.0384 C5H5+ 1 65.0386 -2.21
  67.0541 C5H7+ 1 67.0542 -2.59
  77.0385 C6H5+ 1 77.0386 -0.51
  92.0496 C6H6N+ 1 92.0495 0.87
  93.0574 C6H7N+ 1 93.0573 0.93
  94.0651 C6H8N+ 1 94.0651 0.18
  95.0491 C6H7O+ 1 95.0491 -0.49
  110.0601 C6H8NO+ 1 110.06 0.36
  120.0444 C7H6NO+ 1 120.0444 0.08
  121.0286 C7H5O2+ 1 121.0284 1.46
  137.0477 C7H7NO2+ 1 137.0471 4.43
  138.055 C7H8NO2+ 1 138.055 0.3
  166.0862 C9H12NO2+ 1 166.0863 -0.5
PK$NUM_PEAK: 13
PK$PEAK: m/z int. rel.int.
  65.0384 155784.6 28
  67.0541 31208.6 5
  77.0385 1028779.1 188
  92.0496 933100.4 171
  93.0574 345596.5 63
  94.0651 4466950 820
  95.0491 206444.8 37
  110.0601 81991.8 15
  120.0444 5440820 999
  121.0286 10004.6 1
  137.0477 6819.3 1
  138.055 1001927.7 183
  166.0862 10101.5 1
//
