ACCESSION: MSBNK-UFZ-WANA053605070APM
RECORD_TITLE: Bisoprolol; LC-ESI-ITFT; MS2; CE: 30%; R=15000; [M]+
DATE: 2023.08.13
AUTHORS: Tobias Schulze, Martin Krauss, Department of Effect-Directed Analysis, Helmholtz Centre for Environmental Research - UFZ, Leipzig, Germany
LICENSE: CC0
COPYRIGHT: Copyright (C) 2023
COMMENT: CONFIDENCE Reference Standard (Level 1)
CH$NAME: Bisoprolol
CH$NAME: 1-(propan-2-ylamino)-3-[4-(2-propan-2-yloxyethoxymethyl)phenoxy]propan-2-ol
CH$COMPOUND_CLASS: N/A; Environmental Standard
CH$FORMULA: C18H31NO4
CH$EXACT_MASS: 325.225308472
CH$SMILES: CC(C)NCC(O)COC1=CC=C(COCCOC(C)C)C=C1
CH$IUPAC: InChI=1S/C18H31NO4/c1-14(2)19-11-17(20)13-23-18-7-5-16(6-8-18)12-21-9-10-22-15(3)4/h5-8,14-15,17,19-20H,9-13H2,1-4H3
CH$LINK: CAS 66722-44-9
CH$LINK: CHEBI 3127
CH$LINK: KEGG C06852
CH$LINK: PUBCHEM CID:2405
CH$LINK: INCHIKEY VHYCDWMUTMEGQY-UHFFFAOYSA-N
CH$LINK: CHEMSPIDER 2312
CH$LINK: COMPTOX DTXSID6022682
AC$INSTRUMENT: LTQ Orbitrap XL Thermo Scientific
AC$INSTRUMENT_TYPE: LC-ESI-ITFT
AC$MASS_SPECTROMETRY: MS_TYPE MS2
AC$MASS_SPECTROMETRY: ION_MODE POSITIVE
AC$MASS_SPECTROMETRY: IONIZATION ESI
AC$MASS_SPECTROMETRY: FRAGMENTATION_MODE HCD
AC$MASS_SPECTROMETRY: COLLISION_ENERGY 30 % (nominal)
AC$MASS_SPECTROMETRY: RESOLUTION 15000
AC$MASS_SPECTROMETRY: MASS_RANGE_M/Z 50-340
AC$CHROMATOGRAPHY: COLUMN_NAME Kinetex Evo C18 2.6 um 50 x 2.1 mm
AC$CHROMATOGRAPHY: FLOW_GRADIENT 95/5 at 0 min, 95/5 at 1 min, 0/100 at 13 min, 0/100 at 24 min, 95/5 at 24.3 min, 95/5 at 32 min
AC$CHROMATOGRAPHY: FLOW_RATE 300 uL/min
AC$CHROMATOGRAPHY: RETENTION_TIME 7.715 min
MS$FOCUSED_ION: BASE_PEAK 325.1725
MS$FOCUSED_ION: PRECURSOR_M/Z 325.2248
MS$FOCUSED_ION: PRECURSOR_TYPE [M]+
MS$FOCUSED_ION: PRECURSOR_INTENSITY 24915022
MS$DATA_PROCESSING: RECALIBRATE loess on assigned fragments and MS1
MS$DATA_PROCESSING: REANALYZE Peaks with additional N2/O included
MS$DATA_PROCESSING: WHOLE RMassBank 3.11.2
PK$SPLASH: splash10-014i-0920000000-1c212f397ce36e37ed5f
PK$ANNOTATION: m/z tentative_formula formula_count mass error(ppm)
  116.0494 C8H6N+ 1 116.0495 -0.34
  144.0445 C9H6NO+ 1 144.0444 0.95
  156.0809 C11H10N+ 1 156.0808 0.94
  166.0652 C12H8N+ 1 166.0651 0.36
  184.076 C12H10NO+ 1 184.0757 1.47
  238.0654 C18H8N+ 1 238.0651 1.32
  242.0972 C18H12N+ 1 242.0964 3.3
  263.1062 C18H15O2+ 1 263.1067 -1.68
PK$NUM_PEAK: 8
PK$PEAK: m/z int. rel.int.
  116.0494 21197.2 999
  144.0445 1670.5 78
  156.0809 6966.8 328
  166.0652 12219.3 575
  184.076 2997 141
  238.0654 3221.5 151
  242.0972 2484.5 117
  263.1062 5329.9 251
//
