ACCESSION: MSBNK-UFZ-WANA4087237762PH
RECORD_TITLE: Metazachlor BH 479-9; LC-ESI-ITFT; MS2; CE: 80%; R=15000; [M+H]+
DATE: 2023.08.13
AUTHORS: Tobias Schulze, Martin Krauss, Department of Effect-Directed Analysis, Helmholtz Centre for Environmental Research - UFZ, Leipzig, Germany
LICENSE: CC0
COPYRIGHT: Copyright (C) 2023
COMMENT: CONFIDENCE Reference Standard (Level 1)
CH$NAME: Metazachlor BH 479-9
CH$NAME: 2-[2-[2,6-dimethyl-N-(pyrazol-1-ylmethyl)anilino]-2-oxoethyl]sulfinylacetic acid
CH$COMPOUND_CLASS: N/A; Environmental Standard
CH$FORMULA: C16H19N3O4S
CH$EXACT_MASS: 349.109627088
CH$SMILES: CC1=CC=CC(C)=C1N(CN1C=CC=N1)C(=O)CS(=O)CC(O)=O
CH$IUPAC: InChI=1S/C16H19N3O4S/c1-12-5-3-6-13(2)16(12)19(11-18-8-4-7-17-18)14(20)9-24(23)10-15(21)22/h3-8H,9-11H2,1-2H3,(H,21,22)
CH$LINK: PUBCHEM CID:139291839
CH$LINK: INCHIKEY DYCHUHSHQIYFAI-UHFFFAOYSA-N
CH$LINK: CHEMSPIDER 71047190
CH$LINK: COMPTOX DTXSID501017811
AC$INSTRUMENT: LTQ Orbitrap XL Thermo Scientific
AC$INSTRUMENT_TYPE: LC-ESI-ITFT
AC$MASS_SPECTROMETRY: MS_TYPE MS2
AC$MASS_SPECTROMETRY: ION_MODE POSITIVE
AC$MASS_SPECTROMETRY: IONIZATION ESI
AC$MASS_SPECTROMETRY: FRAGMENTATION_MODE HCD
AC$MASS_SPECTROMETRY: COLLISION_ENERGY 80 % (nominal)
AC$MASS_SPECTROMETRY: RESOLUTION 15000
AC$MASS_SPECTROMETRY: MASS_RANGE_M/Z 50-365
AC$CHROMATOGRAPHY: COLUMN_NAME Kinetex Evo C18 2.6 um 50 x 2.1 mm
AC$CHROMATOGRAPHY: FLOW_GRADIENT 95/5 at 0 min, 95/5 at 1 min, 0/100 at 13 min, 0/100 at 24 min, 95/5 at 24.3 min, 95/5 at 32 min
AC$CHROMATOGRAPHY: FLOW_RATE 300 uL/min
AC$CHROMATOGRAPHY: RETENTION_TIME 8.406 min
MS$FOCUSED_ION: BASE_PEAK 350.118
MS$FOCUSED_ION: PRECURSOR_M/Z 350.1169
MS$FOCUSED_ION: PRECURSOR_TYPE [M+H]+
MS$FOCUSED_ION: PRECURSOR_INTENSITY 5303419
MS$DATA_PROCESSING: RECALIBRATE loess on assigned fragments and MS1
MS$DATA_PROCESSING: REANALYZE Peaks with additional N2/O included
MS$DATA_PROCESSING: WHOLE RMassBank 3.11.2
PK$SPLASH: splash10-001i-0900000000-f0357613f7b6be62498f
PK$ANNOTATION: m/z tentative_formula formula_count mass error(ppm)
  118.0657 C2H14O3S+ 2 118.0658 -1.37
  119.0738 C2H15O3S+ 1 119.0736 1.58
  130.9802 C4H3O3S+ 1 130.9797 3.39
  132.0815 C3H16O3S+ 1 132.0815 0.14
  133.0768 C2H15NO3S+ 1 133.0767 0.28
  133.0895 C3H17O3S+ 1 133.0893 1.52
  134.0971 C3H18O3S+ 1 134.0971 -0.07
  156.0817 C5H16O3S+ 1 156.0815 1.27
  160.0763 C4H16O4S+ 2 160.0764 -0.25
  175.1 C5H19O4S+ 2 175.0999 1.04
PK$NUM_PEAK: 10
PK$PEAK: m/z int. rel.int.
  118.0657 1293.2 2
  119.0738 3250.2 5
  130.9802 1892.8 3
  132.0815 17005.4 27
  133.0768 7547.7 12
  133.0895 4597.5 7
  134.0971 613138.1 999
  156.0817 3470.7 5
  160.0763 3545.3 5
  175.1 1394.3 2
//
