ACCESSION: MSBNK-UFZ-WANA223725AF82PH
RECORD_TITLE: Fluorometholone; LC-ESI-ITFT; MS2; CE: 90%; R=15000; [M+H]+
DATE: 2023.08.13
AUTHORS: Tobias Schulze, Martin Krauss, Department of Effect-Directed Analysis, Helmholtz Centre for Environmental Research - UFZ, Leipzig, Germany
LICENSE: CC0
COPYRIGHT: Copyright (C) 2023
COMMENT: CONFIDENCE Reference Standard (Level 1)
CH$NAME: Fluorometholone
CH$NAME: (6S,8S,9R,10S,11S,13S,14S,17R)-17-acetyl-9-fluoro-11,17-dihydroxy-6,10,13-trimethyl-6,7,8,11,12,14,15,16-octahydrocyclopenta[a]phenanthren-3-one
CH$COMPOUND_CLASS: N/A; Environmental Standard
CH$FORMULA: C22H29FO4
CH$EXACT_MASS: 376.204987628
CH$SMILES: [H][C@@]12CC[C@](O)(C(C)=O)[C@@]1(C)C[C@H](O)[C@@]1(F)[C@@]2([H])C[C@H](C)C2=CC(=O)C=C[C@]12C
CH$IUPAC: InChI=1S/C22H29FO4/c1-12-9-17-15-6-8-21(27,13(2)24)20(15,4)11-18(26)22(17,23)19(3)7-5-14(25)10-16(12)19/h5,7,10,12,15,17-18,26-27H,6,8-9,11H2,1-4H3/t12-,15-,17-,18-,19-,20-,21-,22-/m0/s1
CH$LINK: CAS 426-13-1
CH$LINK: CHEBI CHEBI:31625
CH$LINK: KEGG D01367
CH$LINK: PUBCHEM CID:9878
CH$LINK: INCHIKEY FAOZLTXFLGPHNG-KNAQIMQKSA-N
CH$LINK: CHEMSPIDER 9494
CH$LINK: COMPTOX DTXSID7047435
AC$INSTRUMENT: LTQ Orbitrap XL Thermo Scientific
AC$INSTRUMENT_TYPE: LC-ESI-ITFT
AC$MASS_SPECTROMETRY: MS_TYPE MS2
AC$MASS_SPECTROMETRY: ION_MODE POSITIVE
AC$MASS_SPECTROMETRY: IONIZATION ESI
AC$MASS_SPECTROMETRY: FRAGMENTATION_MODE HCD
AC$MASS_SPECTROMETRY: COLLISION_ENERGY 90 % (nominal)
AC$MASS_SPECTROMETRY: RESOLUTION 15000
AC$MASS_SPECTROMETRY: MASS_RANGE_M/Z 50-390
AC$CHROMATOGRAPHY: COLUMN_NAME Kinetex Evo C18 2.6 um 50 x 2.1 mm
AC$CHROMATOGRAPHY: FLOW_GRADIENT 95/5 at 0 min, 95/5 at 1 min, 0/100 at 13 min, 0/100 at 24 min, 95/5 at 24.3 min, 95/5 at 32 min
AC$CHROMATOGRAPHY: FLOW_RATE 300 uL/min
AC$CHROMATOGRAPHY: RETENTION_TIME 10.829 min
MS$FOCUSED_ION: BASE_PEAK 377.2121
MS$FOCUSED_ION: PRECURSOR_M/Z 377.2123
MS$FOCUSED_ION: PRECURSOR_TYPE [M+H]+
MS$FOCUSED_ION: PRECURSOR_INTENSITY 7599394
MS$DATA_PROCESSING: RECALIBRATE loess on assigned fragments and MS1
MS$DATA_PROCESSING: REANALYZE Peaks with additional N2/O included
MS$DATA_PROCESSING: WHOLE RMassBank 3.11.2
PK$SPLASH: splash10-0673-3900000000-8c51915f1809cf933380
PK$ANNOTATION: m/z tentative_formula formula_count mass error(ppm)
  91.0543 C7H7+ 1 91.0542 0.77
  105.07 C8H9+ 1 105.0699 1.59
  117.0702 C9H9+ 1 117.0699 3
  119.0853 C9H11+ 1 119.0855 -2.25
  121.0651 C8H9O+ 1 121.0648 2.14
  135.0805 C9H11O+ 1 135.0804 0.23
PK$NUM_PEAK: 6
PK$PEAK: m/z int. rel.int.
  91.0543 2486.8 999
  105.07 1893.1 760
  117.0702 1576 633
  119.0853 1122.3 450
  121.0651 1312.7 527
  135.0805 1436.7 577
//
