ACCESSION: MSBNK-UFZ-WANA3076237762PM
RECORD_TITLE: (Methoxymethyl)triphenylphosphonium; LC-ESI-ITFT; MS2; CE: 80%; R=15000; [M]+
DATE: 2023.08.13
AUTHORS: Tobias Schulze, Martin Krauss, Department of Effect-Directed Analysis, Helmholtz Centre for Environmental Research - UFZ, Leipzig, Germany
LICENSE: CC0
COPYRIGHT: Copyright (C) 2023
COMMENT: CONFIDENCE Reference Standard (Level 1)
CH$NAME: (Methoxymethyl)triphenylphosphonium
CH$NAME: methoxymethyl(triphenyl)phosphanium
CH$COMPOUND_CLASS: N/A; Environmental Standard
CH$FORMULA: C20H20OP
CH$EXACT_MASS: 307.124628310091
CH$SMILES: COC[P+](C1=CC=CC=C1)(C1=CC=CC=C1)C1=CC=CC=C1
CH$IUPAC: InChI=1S/C20H20OP/c1-21-17-22(18-11-5-2-6-12-18,19-13-7-3-8-14-19)20-15-9-4-10-16-20/h2-16H,17H2,1H3/q+1
CH$LINK: PUBCHEM CID:2723799
CH$LINK: INCHIKEY SDMCZCALYDCRBH-UHFFFAOYSA-N
CH$LINK: CHEMSPIDER 2005990
AC$INSTRUMENT: LTQ Orbitrap XL Thermo Scientific
AC$INSTRUMENT_TYPE: LC-ESI-ITFT
AC$MASS_SPECTROMETRY: MS_TYPE MS2
AC$MASS_SPECTROMETRY: ION_MODE POSITIVE
AC$MASS_SPECTROMETRY: IONIZATION ESI
AC$MASS_SPECTROMETRY: FRAGMENTATION_MODE HCD
AC$MASS_SPECTROMETRY: COLLISION_ENERGY 80 % (nominal)
AC$MASS_SPECTROMETRY: RESOLUTION 15000
AC$MASS_SPECTROMETRY: MASS_RANGE_M/Z 50-320
AC$CHROMATOGRAPHY: COLUMN_NAME Kinetex Evo C18 2.6 um 50 x 2.1 mm
AC$CHROMATOGRAPHY: FLOW_GRADIENT 95/5 at 0 min, 95/5 at 1 min, 0/100 at 13 min, 0/100 at 24 min, 95/5 at 24.3 min, 95/5 at 32 min
AC$CHROMATOGRAPHY: FLOW_RATE 300 uL/min
AC$CHROMATOGRAPHY: RETENTION_TIME 7.556 min
MS$FOCUSED_ION: BASE_PEAK 307.1254
MS$FOCUSED_ION: PRECURSOR_M/Z 307.1246
MS$FOCUSED_ION: PRECURSOR_TYPE [M]+
MS$FOCUSED_ION: PRECURSOR_INTENSITY 25181494
MS$DATA_PROCESSING: RECALIBRATE loess on assigned fragments and MS1
MS$DATA_PROCESSING: REANALYZE Peaks with additional N2/O included
MS$DATA_PROCESSING: WHOLE RMassBank 3.11.2
PK$SPLASH: splash10-001i-0910000000-ad507859ad8622a7ce45
PK$ANNOTATION: m/z tentative_formula formula_count mass error(ppm)
  79.0542 C6H7+ 1 79.0542 -0.38
  91.0541 C7H7+ 1 91.0542 -1.01
  107.0044 C6H4P+ 1 107.0045 -0.63
  108.0123 C6H5P+ 1 108.0123 -0.34
  109.0201 C6H6P+ 1 109.0202 -0.21
  141.07 C11H9+ 1 141.0699 0.68
  152.062 C12H8+ 1 152.0621 -0.07
  154.0772 C12H10+ 1 154.0777 -3.37
  159.0359 C10H8P+ 1 159.0358 0.76
  165.0696 C13H9+ 1 165.0699 -1.4
  170.0283 C11H7P+ 1 170.028 1.59
  183.0356 C12H8P+ 1 183.0358 -1.04
  185.0512 C12H10P+ 1 185.0515 -1.61
  196.0439 C13H9P+ 1 196.0436 1.44
  197.0514 C13H10P+ 1 197.0515 -0.17
  199.0673 C13H12P+ 1 199.0671 1.18
  261.0824 C18H14P+ 1 261.0828 -1.2
  262.0911 C18H15P+ 1 262.0906 2.12
  263.0983 C18H16P+ 1 263.0984 -0.37
  277.1139 C19H18P+ 1 277.1141 -0.59
PK$NUM_PEAK: 20
PK$PEAK: m/z int. rel.int.
  79.0542 10954.5 12
  91.0541 18221.7 20
  107.0044 18887.8 21
  108.0123 253511.2 291
  109.0201 4130.5 4
  141.07 16422.8 18
  152.062 36568.1 42
  154.0772 4821.7 5
  159.0359 3917 4
  165.0696 18767.2 21
  170.0283 5907.2 6
  183.0356 868187.4 999
  185.0512 168249.8 193
  196.0439 5143.6 5
  197.0514 9240.9 10
  199.0673 4524.4 5
  261.0824 147110 169
  262.0911 40715.3 46
  263.0983 40527.2 46
  277.1139 55598 63
//
