ACCESSION: MSBNK-UFZ-WANA309703B085PH
RECORD_TITLE: Dimoxystrobin; LC-ESI-ITFT; MS2; CE: 20%; R=15000; [M+H]+
DATE: 2023.08.12
AUTHORS: Tobias Schulze, Martin Krauss, Department of Effect-Directed Analysis, Helmholtz Centre for Environmental Research - UFZ, Leipzig, Germany
LICENSE: CC0
COPYRIGHT: Copyright (C) 2023
COMMENT: CONFIDENCE Reference Standard (Level 1)
CH$NAME: Dimoxystrobin
CH$NAME: (2E)-2-[2-[(2,5-dimethylphenoxy)methyl]phenyl]-2-methoxyimino-N-methylacetamide
CH$COMPOUND_CLASS: N/A; Environmental Standard
CH$FORMULA: C19H22N2O3
CH$EXACT_MASS: 326.163042564
CH$SMILES: CNC(=O)C(=N\OC)\C1=CC=CC=C1COC1=CC(C)=CC=C1C
CH$IUPAC: InChI=1S/C19H22N2O3/c1-13-9-10-14(2)17(11-13)24-12-15-7-5-6-8-16(15)18(21-23-4)19(22)20-3/h5-11H,12H2,1-4H3,(H,20,22)/b21-18+
CH$LINK: CAS 149961-52-4
CH$LINK: CHEBI CHEBI:83218
CH$LINK: PUBCHEM CID:10936292
CH$LINK: INCHIKEY WXUZAHCNPWONDH-DYTRJAOYSA-N
CH$LINK: CHEMSPIDER 9111528
CH$LINK: COMPTOX DTXSID3057981
AC$INSTRUMENT: LTQ Orbitrap XL Thermo Scientific
AC$INSTRUMENT_TYPE: LC-ESI-ITFT
AC$MASS_SPECTROMETRY: MS_TYPE MS2
AC$MASS_SPECTROMETRY: ION_MODE POSITIVE
AC$MASS_SPECTROMETRY: IONIZATION ESI
AC$MASS_SPECTROMETRY: FRAGMENTATION_MODE HCD
AC$MASS_SPECTROMETRY: COLLISION_ENERGY 20 % (nominal)
AC$MASS_SPECTROMETRY: RESOLUTION 15000
AC$MASS_SPECTROMETRY: MASS_RANGE_M/Z 50-340
AC$CHROMATOGRAPHY: COLUMN_NAME Kinetex Evo C18 2.6 um 50 x 2.1 mm
AC$CHROMATOGRAPHY: FLOW_GRADIENT 95/5 at 0 min, 95/5 at 1 min, 0/100 at 13 min, 0/100 at 24 min, 95/5 at 24.3 min, 95/5 at 32 min
AC$CHROMATOGRAPHY: FLOW_RATE 300 uL/min
AC$CHROMATOGRAPHY: RETENTION_TIME 12.176 min
MS$FOCUSED_ION: BASE_PEAK 308.1531
MS$FOCUSED_ION: PRECURSOR_M/Z 327.1703
MS$FOCUSED_ION: PRECURSOR_TYPE [M+H]+
MS$FOCUSED_ION: PRECURSOR_INTENSITY 6385916.5
MS$DATA_PROCESSING: RECALIBRATE loess on assigned fragments and MS1
MS$DATA_PROCESSING: REANALYZE Peaks with additional N2/O included
MS$DATA_PROCESSING: WHOLE RMassBank 3.11.2
PK$SPLASH: splash10-0a4i-0190000000-f1ce45a2d61ff675b5ed
PK$ANNOTATION: m/z tentative_formula formula_count mass error(ppm)
  58.0286 C2H4NO+ 1 58.0287 -1.66
  116.0499 C8H6N+ 1 116.0495 3.31
  205.0978 C11H13N2O2+ 1 205.0972 3.08
  210.1284 C15H16N+ 1 210.1277 3.34
  238.1232 C16H16NO+ 1 238.1226 2.53
  280.134 C18H18NO2+ 1 280.1332 2.87
  327.1709 C19H23N2O3+ 1 327.1703 1.82
PK$NUM_PEAK: 7
PK$PEAK: m/z int. rel.int.
  58.0286 3829.1 30
  116.0499 23755.2 187
  205.0978 126522.3 999
  210.1284 2435.3 19
  238.1232 43976.6 347
  280.134 7826.7 61
  327.1709 6929.7 54
//
