ACCESSION: MSBNK-UFZ-WANA223701AD6CPH
RECORD_TITLE: Fluorometholone; LC-ESI-ITFT; MS2; CE: 10%; R=15000; [M+H]+
DATE: 2023.08.12
AUTHORS: Tobias Schulze, Martin Krauss, Department of Effect-Directed Analysis, Helmholtz Centre for Environmental Research - UFZ, Leipzig, Germany
LICENSE: CC0
COPYRIGHT: Copyright (C) 2023
COMMENT: CONFIDENCE Reference Standard (Level 1)
CH$NAME: Fluorometholone
CH$NAME: (6S,8S,9R,10S,11S,13S,14S,17R)-17-acetyl-9-fluoro-11,17-dihydroxy-6,10,13-trimethyl-6,7,8,11,12,14,15,16-octahydrocyclopenta[a]phenanthren-3-one
CH$COMPOUND_CLASS: N/A; Environmental Standard
CH$FORMULA: C22H29FO4
CH$EXACT_MASS: 376.204987628
CH$SMILES: [H][C@@]12CC[C@](O)(C(C)=O)[C@@]1(C)C[C@H](O)[C@@]1(F)[C@@]2([H])C[C@H](C)C2=CC(=O)C=C[C@]12C
CH$IUPAC: InChI=1S/C22H29FO4/c1-12-9-17-15-6-8-21(27,13(2)24)20(15,4)11-18(26)22(17,23)19(3)7-5-14(25)10-16(12)19/h5,7,10,12,15,17-18,26-27H,6,8-9,11H2,1-4H3/t12-,15-,17-,18-,19-,20-,21-,22-/m0/s1
CH$LINK: CAS 426-13-1
CH$LINK: CHEBI CHEBI:31625
CH$LINK: KEGG D01367
CH$LINK: PUBCHEM CID:9878
CH$LINK: INCHIKEY FAOZLTXFLGPHNG-KNAQIMQKSA-N
CH$LINK: CHEMSPIDER 9494
CH$LINK: COMPTOX DTXSID7047435
AC$INSTRUMENT: LTQ Orbitrap XL Thermo Scientific
AC$INSTRUMENT_TYPE: LC-ESI-ITFT
AC$MASS_SPECTROMETRY: MS_TYPE MS2
AC$MASS_SPECTROMETRY: ION_MODE POSITIVE
AC$MASS_SPECTROMETRY: IONIZATION ESI
AC$MASS_SPECTROMETRY: FRAGMENTATION_MODE HCD
AC$MASS_SPECTROMETRY: COLLISION_ENERGY 10 % (nominal)
AC$MASS_SPECTROMETRY: RESOLUTION 15000
AC$MASS_SPECTROMETRY: MASS_RANGE_M/Z 50-390
AC$CHROMATOGRAPHY: COLUMN_NAME Kinetex Evo C18 2.6 um 50 x 2.1 mm
AC$CHROMATOGRAPHY: FLOW_GRADIENT 95/5 at 0 min, 95/5 at 1 min, 0/100 at 13 min, 0/100 at 24 min, 95/5 at 24.3 min, 95/5 at 32 min
AC$CHROMATOGRAPHY: FLOW_RATE 300 uL/min
AC$CHROMATOGRAPHY: RETENTION_TIME 10.819 min
MS$FOCUSED_ION: BASE_PEAK 377.212
MS$FOCUSED_ION: PRECURSOR_M/Z 377.2123
MS$FOCUSED_ION: PRECURSOR_TYPE [M+H]+
MS$FOCUSED_ION: PRECURSOR_INTENSITY 8883481
MS$DATA_PROCESSING: RECALIBRATE loess on assigned fragments and MS1
MS$DATA_PROCESSING: REANALYZE Peaks with additional N2/O included
MS$DATA_PROCESSING: WHOLE RMassBank 3.11.2
PK$SPLASH: splash10-056r-0019000000-636e24cf18a1241e8eff
PK$ANNOTATION: m/z tentative_formula formula_count mass error(ppm)
  279.1738 C20H23O+ 1 279.1743 -2.03
  339.1953 C22H27O3+ 2 339.1955 -0.41
  357.2053 C22H29O4+ 1 357.206 -2.1
  377.2118 C22H30FO4+ 1 377.2123 -1.27
PK$NUM_PEAK: 4
PK$PEAK: m/z int. rel.int.
  279.1738 2023 231
  339.1953 1965.1 224
  357.2053 6533.4 746
  377.2118 8741.4 999
//
