ACCESSION: MSBNK-UFZ-WANA036213D9F1PH
RECORD_TITLE: Ambrettolide; LC-ESI-ITFT; MS2; CE: 50%; R=15000; [M+H]+
DATE: 2023.08.12
AUTHORS: Tobias Schulze, Martin Krauss, Department of Effect-Directed Analysis, Helmholtz Centre for Environmental Research - UFZ, Leipzig, Germany
LICENSE: CC0
COPYRIGHT: Copyright (C) 2023
COMMENT: CONFIDENCE Reference Standard (Level 1)
CH$NAME: Ambrettolide
CH$NAME: (8Z)-1-oxacycloheptadec-8-en-2-one
CH$COMPOUND_CLASS: N/A; Environmental Standard
CH$FORMULA: C16H28O2
CH$EXACT_MASS: 252.208930136
CH$SMILES: O=C1CCCCC\C=C/CCCCCCCCO1
CH$IUPAC: InChI=1S/C16H28O2/c17-16-14-12-10-8-6-4-2-1-3-5-7-9-11-13-15-18-16/h2,4H,1,3,5-15H2/b4-2-
CH$LINK: CAS 123-69-3
CH$LINK: CHEBI CHEBI:189999
CH$LINK: PUBCHEM CID:5365703
CH$LINK: INCHIKEY NVIPUOMWGQAOIT-RQOWECAXSA-N
CH$LINK: CHEMSPIDER 4517661
CH$LINK: COMPTOX DTXSID20881237
AC$INSTRUMENT: LTQ Orbitrap XL Thermo Scientific
AC$INSTRUMENT_TYPE: LC-ESI-ITFT
AC$MASS_SPECTROMETRY: MS_TYPE MS2
AC$MASS_SPECTROMETRY: ION_MODE POSITIVE
AC$MASS_SPECTROMETRY: IONIZATION ESI
AC$MASS_SPECTROMETRY: FRAGMENTATION_MODE HCD
AC$MASS_SPECTROMETRY: COLLISION_ENERGY 50 % (nominal)
AC$MASS_SPECTROMETRY: RESOLUTION 15000
AC$MASS_SPECTROMETRY: MASS_RANGE_M/Z 50-265
AC$CHROMATOGRAPHY: COLUMN_NAME Kinetex Evo C18 2.6 um 50 x 2.1 mm
AC$CHROMATOGRAPHY: FLOW_GRADIENT 95/5 at 0 min, 95/5 at 1 min, 0/100 at 13 min, 0/100 at 24 min, 95/5 at 24.3 min, 95/5 at 32 min
AC$CHROMATOGRAPHY: FLOW_RATE 300 uL/min
AC$CHROMATOGRAPHY: RETENTION_TIME 14.612 min
MS$FOCUSED_ION: BASE_PEAK 116.986
MS$FOCUSED_ION: PRECURSOR_M/Z 253.2162
MS$FOCUSED_ION: PRECURSOR_TYPE [M+H]+
MS$FOCUSED_ION: PRECURSOR_INTENSITY 209405.86
MS$DATA_PROCESSING: RECALIBRATE loess on assigned fragments and MS1
MS$DATA_PROCESSING: REANALYZE Peaks with additional N2/O included
MS$DATA_PROCESSING: WHOLE RMassBank 3.11.2
PK$SPLASH: splash10-00ls-9100000000-8efc1b7f9fdf1fb2e9b4
PK$ANNOTATION: m/z tentative_formula formula_count mass error(ppm)
  55.0541 C4H7+ 1 55.0542 -2.01
  69.07 C5H9+ 1 69.0699 1.58
  81.07 C6H9+ 1 81.0699 1.33
  83.0859 C6H11+ 1 83.0855 4.18
  95.0858 C7H11+ 1 95.0855 3.35
  121.1009 C9H13+ 1 121.1012 -2.34
PK$NUM_PEAK: 6
PK$PEAK: m/z int. rel.int.
  55.0541 1538.6 546
  69.07 2814.5 999
  81.07 1988.4 705
  83.0859 1619.7 574
  95.0858 2152.8 764
  121.1009 1415.5 502
//
