ACCESSION: MSBNK-UFZ-WANA0421155BE0PH
RECORD_TITLE: Benzothiazole; LC-ESI-ITFT; MS2; CE: 60%; R=15000; [M+H]+
DATE: 2023.08.12
AUTHORS: Tobias Schulze, Martin Krauss, Department of Effect-Directed Analysis, Helmholtz Centre for Environmental Research - UFZ, Leipzig, Germany
LICENSE: CC0
COPYRIGHT: Copyright (C) 2023
COMMENT: CONFIDENCE Reference Standard (Level 1)
CH$NAME: Benzothiazole
CH$NAME: 1,3-benzothiazole
CH$COMPOUND_CLASS: N/A; Environmental Standard
CH$FORMULA: C7H5NS
CH$EXACT_MASS: 135.01427016
CH$SMILES: S1C=NC2=CC=CC=C12
CH$IUPAC: InChI=1S/C7H5NS/c1-2-4-7-6(3-1)8-5-9-7/h1-5H
CH$LINK: CAS 95-16-9
CH$LINK: CHEBI CHEBI:45993
CH$LINK: PUBCHEM CID:7222
CH$LINK: INCHIKEY IOJUPLGTWVMSFF-UHFFFAOYSA-N
CH$LINK: CHEMSPIDER 6952
CH$LINK: COMPTOX DTXSID7024586
AC$INSTRUMENT: LTQ Orbitrap XL Thermo Scientific
AC$INSTRUMENT_TYPE: LC-ESI-ITFT
AC$MASS_SPECTROMETRY: MS_TYPE MS2
AC$MASS_SPECTROMETRY: ION_MODE POSITIVE
AC$MASS_SPECTROMETRY: IONIZATION ESI
AC$MASS_SPECTROMETRY: FRAGMENTATION_MODE HCD
AC$MASS_SPECTROMETRY: COLLISION_ENERGY 60 % (nominal)
AC$MASS_SPECTROMETRY: RESOLUTION 15000
AC$MASS_SPECTROMETRY: MASS_RANGE_M/Z 50-150
AC$CHROMATOGRAPHY: COLUMN_NAME Kinetex Evo C18 2.6 um 50 x 2.1 mm
AC$CHROMATOGRAPHY: FLOW_GRADIENT 95/5 at 0 min, 95/5 at 1 min, 0/100 at 13 min, 0/100 at 24 min, 95/5 at 24.3 min, 95/5 at 32 min
AC$CHROMATOGRAPHY: FLOW_RATE 300 uL/min
AC$CHROMATOGRAPHY: RETENTION_TIME 7.759 min
MS$FOCUSED_ION: BASE_PEAK 136.0219
MS$FOCUSED_ION: PRECURSOR_M/Z 136.0215
MS$FOCUSED_ION: PRECURSOR_TYPE [M+H]+
MS$FOCUSED_ION: PRECURSOR_INTENSITY 13103831
MS$DATA_PROCESSING: RECALIBRATE loess on assigned fragments and MS1
MS$DATA_PROCESSING: REANALYZE Peaks with additional N2/O included
MS$DATA_PROCESSING: WHOLE RMassBank 3.11.2
PK$SPLASH: splash10-000i-0900000000-d5885711eec1b228151f
PK$ANNOTATION: m/z tentative_formula formula_count mass error(ppm)
  109.0107 C6H5S+ 1 109.0106 0.75
  136.0216 C7H6NS+ 1 136.0215 0.37
PK$NUM_PEAK: 2
PK$PEAK: m/z int. rel.int.
  109.0107 43696.5 11
  136.0216 3765628.5 999
//
