ACCESSION: MSBNK-UFZ-WANA410603B085PM
RECORD_TITLE: Benzyldimethyltetradecylammonium; LC-ESI-ITFT; MS2; CE: 20%; R=15000; [M]+
DATE: 2023.08.13
AUTHORS: Tobias Schulze, Martin Krauss, Department of Effect-Directed Analysis, Helmholtz Centre for Environmental Research - UFZ, Leipzig, Germany
LICENSE: CC0
COPYRIGHT: Copyright (C) 2023
COMMENT: CONFIDENCE Reference Standard (Level 1)
CH$NAME: Benzyldimethyltetradecylammonium
CH$NAME: benzyl-dimethyl-tetradecylazanium
CH$COMPOUND_CLASS: N/A; Environmental Standard
CH$FORMULA: C23H42N
CH$EXACT_MASS: 332.331176764091
CH$SMILES: CCCCCCCCCCCCCC[N+](C)(C)CC1=CC=CC=C1
CH$IUPAC: InChI=1S/C23H42N/c1-4-5-6-7-8-9-10-11-12-13-14-18-21-24(2,3)22-23-19-16-15-17-20-23/h15-17,19-20H,4-14,18,21-22H2,1-3H3/q+1
CH$LINK: CAS 5285-67-6
CH$LINK: PUBCHEM CID:8756
CH$LINK: INCHIKEY WNBGYVXHFTYOBY-UHFFFAOYSA-N
CH$LINK: CHEMSPIDER 8426
CH$LINK: COMPTOX DTXSID3048360
AC$INSTRUMENT: LTQ Orbitrap XL Thermo Scientific
AC$INSTRUMENT_TYPE: LC-ESI-ITFT
AC$MASS_SPECTROMETRY: MS_TYPE MS2
AC$MASS_SPECTROMETRY: ION_MODE POSITIVE
AC$MASS_SPECTROMETRY: IONIZATION ESI
AC$MASS_SPECTROMETRY: FRAGMENTATION_MODE HCD
AC$MASS_SPECTROMETRY: COLLISION_ENERGY 20 % (nominal)
AC$MASS_SPECTROMETRY: RESOLUTION 15000
AC$MASS_SPECTROMETRY: MASS_RANGE_M/Z 50-345
AC$CHROMATOGRAPHY: COLUMN_NAME Kinetex Evo C18 2.6 um 50 x 2.1 mm
AC$CHROMATOGRAPHY: FLOW_GRADIENT 95/5 at 0 min, 95/5 at 1 min, 0/100 at 13 min, 0/100 at 24 min, 95/5 at 24.3 min, 95/5 at 32 min
AC$CHROMATOGRAPHY: FLOW_RATE 300 uL/min
AC$CHROMATOGRAPHY: RETENTION_TIME 12.031 min
MS$FOCUSED_ION: BASE_PEAK 332.3316
MS$FOCUSED_ION: PRECURSOR_M/Z 332.3312
MS$FOCUSED_ION: PRECURSOR_TYPE [M]+
MS$FOCUSED_ION: PRECURSOR_INTENSITY 16831178
MS$DATA_PROCESSING: RECALIBRATE loess on assigned fragments and MS1
MS$DATA_PROCESSING: REANALYZE Peaks with additional N2/O included
MS$DATA_PROCESSING: WHOLE RMassBank 3.11.2
PK$SPLASH: splash10-001i-0009000000-73cdb4673bcb281804f4
PK$ANNOTATION: m/z tentative_formula formula_count mass error(ppm)
  91.0546 C7H7+ 1 91.0542 3.95
  240.2692 C16H34N+ 1 240.2686 2.61
  332.3314 C23H42N+ 1 332.3312 0.69
PK$NUM_PEAK: 3
PK$PEAK: m/z int. rel.int.
  91.0546 2434.2 2
  240.2692 1554.9 1
  332.3314 1031944.1 999
//
