ACCESSION: MSBNK-UFZ-WANA058111C9CFPH
RECORD_TITLE: Lorazepam; LC-ESI-ITFT; MS2; CE: 40%; R=15000; [M+H]+
DATE: 2023.08.12
AUTHORS: Tobias Schulze, Martin Krauss, Department of Effect-Directed Analysis, Helmholtz Centre for Environmental Research - UFZ, Leipzig, Germany
LICENSE: CC0
COPYRIGHT: Copyright (C) 2023
COMMENT: CONFIDENCE Reference Standard (Level 1)
CH$NAME: Lorazepam
CH$NAME: 7-chloro-5-(2-chlorophenyl)-3-hydroxy-1,3-dihydro-1,4-benzodiazepin-2-one
CH$COMPOUND_CLASS: N/A; Environmental Standard
CH$FORMULA: C15H10Cl2N2O2
CH$EXACT_MASS: 320.01193292
CH$SMILES: OC1N=C(C2=CC=CC=C2Cl)C2=C(NC1=O)C=CC(Cl)=C2
CH$IUPAC: InChI=1S/C15H10Cl2N2O2/c16-8-5-6-12-10(7-8)13(19-15(21)14(20)18-12)9-3-1-2-4-11(9)17/h1-7,15,21H,(H,18,20)
CH$LINK: CAS 846-49-1
CH$LINK: CHEBI CHEBI:6539
CH$LINK: KEGG D00365
CH$LINK: PUBCHEM CID:3958
CH$LINK: INCHIKEY DIWRORZWFLOCLC-UHFFFAOYSA-N
CH$LINK: CHEMSPIDER 3821
CH$LINK: COMPTOX DTXSID7023225
AC$INSTRUMENT: LTQ Orbitrap XL Thermo Scientific
AC$INSTRUMENT_TYPE: LC-ESI-ITFT
AC$MASS_SPECTROMETRY: MS_TYPE MS2
AC$MASS_SPECTROMETRY: ION_MODE POSITIVE
AC$MASS_SPECTROMETRY: IONIZATION ESI
AC$MASS_SPECTROMETRY: FRAGMENTATION_MODE HCD
AC$MASS_SPECTROMETRY: COLLISION_ENERGY 40 % (nominal)
AC$MASS_SPECTROMETRY: RESOLUTION 15000
AC$MASS_SPECTROMETRY: MASS_RANGE_M/Z 50-335
AC$CHROMATOGRAPHY: COLUMN_NAME Kinetex Evo C18 2.6 um 50 x 2.1 mm
AC$CHROMATOGRAPHY: FLOW_GRADIENT 95/5 at 0 min, 95/5 at 1 min, 0/100 at 13 min, 0/100 at 24 min, 95/5 at 24.3 min, 95/5 at 32 min
AC$CHROMATOGRAPHY: FLOW_RATE 300 uL/min
AC$CHROMATOGRAPHY: RETENTION_TIME 10.313 min
MS$FOCUSED_ION: BASE_PEAK 515.2449
MS$FOCUSED_ION: PRECURSOR_M/Z 321.0192
MS$FOCUSED_ION: PRECURSOR_TYPE [M+H]+
MS$FOCUSED_ION: PRECURSOR_INTENSITY 13486388
MS$DATA_PROCESSING: RECALIBRATE loess on assigned fragments and MS1
MS$DATA_PROCESSING: REANALYZE Peaks with additional N2/O included
MS$DATA_PROCESSING: WHOLE RMassBank 3.11.2
PK$SPLASH: splash10-004i-0092000000-a9c5cab3dadfa8d97a06
PK$ANNOTATION: m/z tentative_formula formula_count mass error(ppm)
  128.0262 C6H7ClN+ 2 128.0262 0.45
  138.0106 C7H5ClN+ 2 138.0105 0.62
  153.0217 C7H6ClN2+ 2 153.0214 1.7
  156.0213 C7H7ClNO+ 3 156.0211 1.39
  163.006 C8H4ClN2+ 2 163.0058 1.34
  166.0055 C5H8Cl2N2+ 3 166.0059 -2.51
  229.0529 C13H10ClN2+ 1 229.0527 0.9
  250.0186 C13H10Cl2N+ 1 250.0185 0.62
  257.048 C14H10ClN2O+ 1 257.0476 1.63
  265.0297 C13H11Cl2N2+ 1 265.0294 1.05
  275.014 C14H9Cl2N2+ 1 275.0137 0.84
  275.9979 C14H8Cl2NO+ 1 275.9977 0.59
  291.0093 C14H9Cl2N2O+ 1 291.0086 2.16
  292.0168 C14H10Cl2N2O+ 1 292.0165 1.16
  303.0089 C15H9Cl2N2O+ 1 303.0086 0.8
  321.0195 C15H11Cl2N2O2+ 1 321.0192 0.84
PK$NUM_PEAK: 16
PK$PEAK: m/z int. rel.int.
  128.0262 16173.7 21
  138.0106 18595.5 25
  153.0217 2994.3 4
  156.0213 5549.8 7
  163.006 2264.7 3
  166.0055 11900.7 16
  229.0529 165196.5 222
  250.0186 6388.7 8
  257.048 1548.3 2
  265.0297 83170.5 112
  275.014 741413.6 999
  275.9979 4468.1 6
  291.0093 1959.9 2
  292.0168 3331.3 4
  303.0089 210992.1 284
  321.0195 35691.1 48
//
