ACCESSION: MSBNK-UFZ-WANA003611C9CFPH
RECORD_TITLE: Chlorotoluron; LC-ESI-ITFT; MS2; CE: 40%; R=15000; [M+H]+
DATE: 2023.08.12
AUTHORS: Tobias Schulze, Martin Krauss, Department of Effect-Directed Analysis, Helmholtz Centre for Environmental Research - UFZ, Leipzig, Germany
LICENSE: CC0
COPYRIGHT: Copyright (C) 2023
COMMENT: CONFIDENCE Reference Standard (Level 1)
CH$NAME: Chlorotoluron
CH$NAME: 3-(3-chloro-4-methylphenyl)-1,1-dimethylurea
CH$COMPOUND_CLASS: N/A; Environmental Standard
CH$FORMULA: C10H13ClN2O
CH$EXACT_MASS: 212.071640716
CH$SMILES: CN(C)C(=O)NC1=CC(Cl)=C(C)C=C1
CH$IUPAC: InChI=1S/C10H13ClN2O/c1-7-4-5-8(6-9(7)11)12-10(14)13(2)3/h4-6H,1-3H3,(H,12,14)
CH$LINK: CAS 15545-48-9
CH$LINK: CHEBI CHEBI:81981
CH$LINK: KEGG C18817
CH$LINK: PUBCHEM CID:27375
CH$LINK: INCHIKEY JXCGFZXSOMJFOA-UHFFFAOYSA-N
CH$LINK: CHEMSPIDER 25472
CH$LINK: COMPTOX DTXSID8052853
AC$INSTRUMENT: LTQ Orbitrap XL Thermo Scientific
AC$INSTRUMENT_TYPE: LC-ESI-ITFT
AC$MASS_SPECTROMETRY: MS_TYPE MS2
AC$MASS_SPECTROMETRY: ION_MODE POSITIVE
AC$MASS_SPECTROMETRY: IONIZATION ESI
AC$MASS_SPECTROMETRY: FRAGMENTATION_MODE HCD
AC$MASS_SPECTROMETRY: COLLISION_ENERGY 40 % (nominal)
AC$MASS_SPECTROMETRY: RESOLUTION 15000
AC$MASS_SPECTROMETRY: MASS_RANGE_M/Z 50-225
AC$CHROMATOGRAPHY: COLUMN_NAME Kinetex Evo C18 2.6 um 50 x 2.1 mm
AC$CHROMATOGRAPHY: FLOW_GRADIENT 95/5 at 0 min, 95/5 at 1 min, 0/100 at 13 min, 0/100 at 24 min, 95/5 at 24.3 min, 95/5 at 32 min
AC$CHROMATOGRAPHY: FLOW_RATE 300 uL/min
AC$CHROMATOGRAPHY: RETENTION_TIME 9.526 min
MS$FOCUSED_ION: BASE_PEAK 213.0792
MS$FOCUSED_ION: PRECURSOR_M/Z 213.0789
MS$FOCUSED_ION: PRECURSOR_TYPE [M+H]+
MS$FOCUSED_ION: PRECURSOR_INTENSITY 31470052
MS$DATA_PROCESSING: RECALIBRATE loess on assigned fragments and MS1
MS$DATA_PROCESSING: REANALYZE Peaks with additional N2/O included
MS$DATA_PROCESSING: WHOLE RMassBank 3.11.2
PK$SPLASH: splash10-00di-9040000000-74930b22ee72ab300f2c
PK$ANNOTATION: m/z tentative_formula formula_count mass error(ppm)
  72.0441 C3H6NO+ 1 72.0444 -3.69
  140.0259 C10H4O+ 2 140.0257 1.57
  168.0208 C8H7ClNO+ 1 168.0211 -1.58
  213.0786 C10H14ClN2O+ 1 213.0789 -1.63
PK$NUM_PEAK: 4
PK$PEAK: m/z int. rel.int.
  72.0441 4528559 999
  140.0259 82395.3 18
  168.0208 169404.7 37
  213.0786 2249299.8 496
//
