ACCESSION: MSBNK-UFZ-WANA2245155BE0PH
RECORD_TITLE: Albendazole; LC-ESI-ITFT; MS2; CE: 60%; R=15000; [M+H]+
DATE: 2023.08.12
AUTHORS: Tobias Schulze, Martin Krauss, Department of Effect-Directed Analysis, Helmholtz Centre for Environmental Research - UFZ, Leipzig, Germany
LICENSE: CC0
COPYRIGHT: Copyright (C) 2023
COMMENT: CONFIDENCE Reference Standard (Level 1)
CH$NAME: Albendazole
CH$NAME: methyl N-(6-propylsulfanyl-1H-benzimidazol-2-yl)carbamate
CH$COMPOUND_CLASS: N/A; Environmental Standard
CH$FORMULA: C12H15N3O2S
CH$EXACT_MASS: 265.08849772
CH$SMILES: CCCSC1=CC2=C(NC(NC(=O)OC)=N2)C=C1
CH$IUPAC: InChI=1S/C12H15N3O2S/c1-3-6-18-8-4-5-9-10(7-8)14-11(13-9)15-12(16)17-2/h4-5,7H,3,6H2,1-2H3,(H2,13,14,15,16)
CH$LINK: CAS 54029-12-8
CH$LINK: CHEBI CHEBI:16664
CH$LINK: KEGG C01779
CH$LINK: PUBCHEM CID:2082
CH$LINK: INCHIKEY HXHWSAZORRCQMX-UHFFFAOYSA-N
CH$LINK: CHEMSPIDER 1998
CH$LINK: COMPTOX DTXSID0022563
AC$INSTRUMENT: LTQ Orbitrap XL Thermo Scientific
AC$INSTRUMENT_TYPE: LC-ESI-ITFT
AC$MASS_SPECTROMETRY: MS_TYPE MS2
AC$MASS_SPECTROMETRY: ION_MODE POSITIVE
AC$MASS_SPECTROMETRY: IONIZATION ESI
AC$MASS_SPECTROMETRY: FRAGMENTATION_MODE HCD
AC$MASS_SPECTROMETRY: COLLISION_ENERGY 60 % (nominal)
AC$MASS_SPECTROMETRY: RESOLUTION 15000
AC$MASS_SPECTROMETRY: MASS_RANGE_M/Z 50-280
AC$CHROMATOGRAPHY: COLUMN_NAME Kinetex Evo C18 2.6 um 50 x 2.1 mm
AC$CHROMATOGRAPHY: FLOW_GRADIENT 95/5 at 0 min, 95/5 at 1 min, 0/100 at 13 min, 0/100 at 24 min, 95/5 at 24.3 min, 95/5 at 32 min
AC$CHROMATOGRAPHY: FLOW_RATE 300 uL/min
AC$CHROMATOGRAPHY: RETENTION_TIME 9.214 min
MS$FOCUSED_ION: BASE_PEAK 266.0967
MS$FOCUSED_ION: PRECURSOR_M/Z 266.0958
MS$FOCUSED_ION: PRECURSOR_TYPE [M+H]+
MS$FOCUSED_ION: PRECURSOR_INTENSITY 52023972
MS$DATA_PROCESSING: RECALIBRATE loess on assigned fragments and MS1
MS$DATA_PROCESSING: REANALYZE Peaks with additional N2/O included
MS$DATA_PROCESSING: WHOLE RMassBank 3.11.2
PK$SPLASH: splash10-001l-0590000000-7bd261c34d682ef0c0ef
PK$ANNOTATION: m/z tentative_formula formula_count mass error(ppm)
  159.0429 C8H5N3O+ 1 159.0427 1.15
  160.0507 C8H6N3O+ 1 160.0505 0.85
  179.0514 C8H9N3S+ 1 179.0512 1.42
  191.0151 C8H5N3OS+ 1 191.0148 1.41
  192.0228 C8H6N3OS+ 1 192.0226 0.78
  206.0745 C10H12N3S+ 1 206.0746 -0.79
  223.0414 C9H9N3O2S+ 1 223.041 1.77
  234.0697 C11H12N3OS+ 1 234.0696 0.75
  266.0956 C12H16N3O2S+ 1 266.0958 -0.52
PK$NUM_PEAK: 9
PK$PEAK: m/z int. rel.int.
  159.0429 348997.1 53
  160.0507 21903.6 3
  179.0514 26822.5 4
  191.0151 1903506.1 293
  192.0228 1642704.2 252
  206.0745 14029.2 2
  223.0414 50250.8 7
  234.0697 6488335.5 999
  266.0956 44890.5 6
//
