ACCESSION: MSBNK-UFZ-WANA005501AD6CPH
RECORD_TITLE: Triethylcitrate; LC-ESI-ITFT; MS2; CE: 10%; R=15000; [M+H]+
DATE: 2023.08.12
AUTHORS: Tobias Schulze, Martin Krauss, Department of Effect-Directed Analysis, Helmholtz Centre for Environmental Research - UFZ, Leipzig, Germany
LICENSE: CC0
COPYRIGHT: Copyright (C) 2023
COMMENT: CONFIDENCE Reference Standard (Level 1)
CH$NAME: Triethylcitrate
CH$NAME: Triethyl citrate
CH$NAME: triethyl 2-hydroxypropane-1,2,3-tricarboxylate
CH$COMPOUND_CLASS: N/A; Environmental Standard
CH$FORMULA: C12H20O7
CH$EXACT_MASS: 276.12090298
CH$SMILES: CCOC(=O)CC(O)(CC(=O)OCC)C(=O)OCC
CH$IUPAC: InChI=1S/C12H20O7/c1-4-17-9(13)7-12(16,11(15)19-6-3)8-10(14)18-5-2/h16H,4-8H2,1-3H3
CH$LINK: CAS 77-93-0
CH$LINK: CHEBI CHEBI:168426
CH$LINK: KEGG D06228
CH$LINK: PUBCHEM CID:6506
CH$LINK: INCHIKEY DOOTYTYQINUNNV-UHFFFAOYSA-N
CH$LINK: CHEMSPIDER 13850879
CH$LINK: COMPTOX DTXSID0040701
AC$INSTRUMENT: LTQ Orbitrap XL Thermo Scientific
AC$INSTRUMENT_TYPE: LC-ESI-ITFT
AC$MASS_SPECTROMETRY: MS_TYPE MS2
AC$MASS_SPECTROMETRY: ION_MODE POSITIVE
AC$MASS_SPECTROMETRY: IONIZATION ESI
AC$MASS_SPECTROMETRY: FRAGMENTATION_MODE HCD
AC$MASS_SPECTROMETRY: COLLISION_ENERGY 10 % (nominal)
AC$MASS_SPECTROMETRY: RESOLUTION 15000
AC$MASS_SPECTROMETRY: MASS_RANGE_M/Z 50-290
AC$CHROMATOGRAPHY: COLUMN_NAME Kinetex Evo C18 2.6 um 50 x 2.1 mm
AC$CHROMATOGRAPHY: FLOW_GRADIENT 95/5 at 0 min, 95/5 at 1 min, 0/100 at 13 min, 0/100 at 24 min, 95/5 at 24.3 min, 95/5 at 32 min
AC$CHROMATOGRAPHY: FLOW_RATE 300 uL/min
AC$CHROMATOGRAPHY: RETENTION_TIME 8.954 min
MS$FOCUSED_ION: BASE_PEAK 277.129
MS$FOCUSED_ION: PRECURSOR_M/Z 277.1282
MS$FOCUSED_ION: PRECURSOR_TYPE [M+H]+
MS$FOCUSED_ION: PRECURSOR_INTENSITY 15019134
MS$DATA_PROCESSING: RECALIBRATE loess on assigned fragments and MS1
MS$DATA_PROCESSING: REANALYZE Peaks with additional N2/O included
MS$DATA_PROCESSING: WHOLE RMassBank 3.11.2
PK$SPLASH: splash10-0a4i-0910000000-aff3d8b90355cda2f6f1
PK$ANNOTATION: m/z tentative_formula formula_count mass error(ppm)
  157.0498 C7H9O4+ 1 157.0495 1.96
  203.0915 C9H15O5+ 1 203.0914 0.26
PK$NUM_PEAK: 2
PK$PEAK: m/z int. rel.int.
  157.0498 8946.9 999
  203.0915 1528.6 170
//
