ACCESSION: MSBNK-UFZ-UP000193
RECORD_TITLE: Gabapentin-lactam; LC-ESI-ITFT; MS2; CE: 115%; R=15000; [M+H]+
DATE: 2019.07.31
AUTHORS: Liza-Marie Beckers, Werner Brack, Janek-Paul Dann, Martin Krauss, Erik Mueller, Tobias Schulze, Helmholtz Centre for Environmental Research GmbH - UFZ, Leipzig, Germany
LICENSE: CC0
COPYRIGHT: Copyright (C) 2019
PUBLICATION: Beckers L-M, Brack W, Dann JP, Krauss M, Mueller E, Schulze T, 2020. Unraveling longitudinal pollution patterns of organic micropollutants in a river by non-target screening and cluster analysis. Science of The Total Environment, https://doi.org/10.1016/j.scitotenv.2020.138388
COMMENT: CONFIDENCE Reference Standard (Level 1)
COMMENT: INTERNAL_ID 7
CH$NAME: Gabapentin-lactam
CH$NAME: 2-azaspiro[4.5]decan-3-one
CH$COMPOUND_CLASS: N/A; Environmental Standard
CH$FORMULA: C9H15NO
CH$EXACT_MASS: 153.1154
CH$SMILES: O=C1CC2(CN1)CCCCC2
CH$IUPAC: InChI=1S/C9H15NO/c11-8-6-9(7-10-8)4-2-1-3-5-9/h1-7H2,(H,10,11)
CH$LINK: CAS 64744-50-9
CH$LINK: PUBCHEM CID:47457
CH$LINK: INCHIKEY JAWPQJDOQPSNIQ-UHFFFAOYSA-N
CH$LINK: CHEMSPIDER 43180
AC$INSTRUMENT: LTQ Orbitrap XL Thermo Scientific
AC$INSTRUMENT_TYPE: LC-ESI-ITFT
AC$MASS_SPECTROMETRY: MS_TYPE MS2
AC$MASS_SPECTROMETRY: ION_MODE POSITIVE
AC$MASS_SPECTROMETRY: IONIZATION ESI
AC$MASS_SPECTROMETRY: FRAGMENTATION_MODE HCD
AC$MASS_SPECTROMETRY: COLLISION_ENERGY 115 % (nominal)
AC$MASS_SPECTROMETRY: RESOLUTION 15000
AC$CHROMATOGRAPHY: COLUMN_NAME Kinetex Evo C18 2.6 um 50 x 2.1 mm
AC$CHROMATOGRAPHY: FLOW_GRADIENT 95/5 at 0 min, 95/5 at 1 min, 0/100 at 13 min, 0/100 at 24 min, 95/5 at 24.3 min, 95/5/0 at 32 min
AC$CHROMATOGRAPHY: FLOW_RATE 300 uL/min
AC$CHROMATOGRAPHY: RETENTION_TIME 8.247 min
AC$CHROMATOGRAPHY: SOLVENT A water with 0.1% formic acid
AC$CHROMATOGRAPHY: SOLVENT B methanol with 0.1% formic acid
MS$FOCUSED_ION: BASE_PEAK 154.1225
MS$FOCUSED_ION: PRECURSOR_M/Z 154.1226
MS$FOCUSED_ION: PRECURSOR_TYPE [M+H]+
MS$DATA_PROCESSING: RECALIBRATE loess on assigned fragments and MS1
MS$DATA_PROCESSING: REANALYZE Peaks with additional N2/O included
MS$DATA_PROCESSING: WHOLE RMassBank 2.12.0
PK$SPLASH: splash10-0002-9100000000-72f875cd65c6eaa0fb4f
PK$ANNOTATION: m/z tentative_formula formula_count mass error(ppm)
  54.0336 C3H4N+ 1 54.0338 -3.79
  60.0442 C2H6NO+ 1 60.0444 -2.63
  65.0385 C5H5+ 1 65.0386 -1.66
  67.0541 C5H7+ 1 67.0542 -1.57
  69.0698 C5H9+ 1 69.0699 -1.48
  70.065 C4H8N+ 1 70.0651 -1.9
  72.0443 C3H6NO+ 1 72.0444 -1.06
  77.0386 C6H5+ 1 77.0386 -0.13
  79.0542 C6H7+ 1 79.0542 -0.75
  80.062 C6H8+ 1 80.0621 -0.66
  81.0698 C6H9+ 1 81.0699 -0.48
  86.0602 C4H8NO+ 1 86.06 1.41
  91.0541 C7H7+ 1 91.0542 -0.84
  93.0698 C7H9+ 1 93.0699 -0.43
  95.0855 C7H11+ 1 95.0855 -0.46
  109.1011 C8H13+ 1 109.1012 -1.15
  112.112 C7H14N+ 1 112.1121 -0.93
  119.0854 C9H11+ 1 119.0855 -1.44
  137.0958 C9H13O+ 1 137.0961 -2.08
  154.1226 C9H16NO+ 1 154.1226 -0.54
PK$NUM_PEAK: 20
PK$PEAK: m/z int. rel.int.
  54.0336 2956.6 6
  60.0442 2900.7 6
  65.0385 7968.4 17
  67.0541 199857.4 432
  69.0698 14573.1 31
  70.065 2525.2 5
  72.0443 49835.4 107
  77.0386 9350.2 20
  79.0542 6519.6 14
  80.062 4424.1 9
  81.0698 10485.3 22
  86.0602 1554.7 3
  91.0541 25113.6 54
  93.0698 67404.8 145
  95.0855 461962.2 999
  109.1011 14428 31
  112.112 11682.9 25
  119.0854 3760.4 8
  137.0958 1206.3 2
  154.1226 89230.3 192
//
