ACCESSION: MSBNK-UFZ-WANA0295213166PM
RECORD_TITLE: Benzyldimethylhexadecylammonium; LC-ESI-ITFT; MS2; CE: 70%; R=15000; [M]+
DATE: 2023.08.13
AUTHORS: Tobias Schulze, Martin Krauss, Department of Effect-Directed Analysis, Helmholtz Centre for Environmental Research - UFZ, Leipzig, Germany
LICENSE: CC0
COPYRIGHT: Copyright (C) 2023
COMMENT: CONFIDENCE Reference Standard (Level 1)
CH$NAME: Benzyldimethylhexadecylammonium
CH$NAME: Cetalkonium
CH$NAME: benzyl-hexadecyl-dimethylazanium
CH$COMPOUND_CLASS: N/A; Environmental Standard
CH$FORMULA: C25H46N
CH$EXACT_MASS: 360.362476892091
CH$SMILES: CCCCCCCCCCCCCCCC[N+](C)(C)CC1=CC=CC=C1
CH$IUPAC: InChI=1S/C25H46N/c1-4-5-6-7-8-9-10-11-12-13-14-15-16-20-23-26(2,3)24-25-21-18-17-19-22-25/h17-19,21-22H,4-16,20,23-24H2,1-3H3/q+1
CH$LINK: CAS 51895-89-7
CH$LINK: CHEBI 135523
CH$LINK: PUBCHEM CID:31203
CH$LINK: INCHIKEY QDYLMAYUEZBUFO-UHFFFAOYSA-N
CH$LINK: CHEMSPIDER 28944
CH$LINK: COMPTOX DTXSID3047007
AC$INSTRUMENT: LTQ Orbitrap XL Thermo Scientific
AC$INSTRUMENT_TYPE: LC-ESI-ITFT
AC$MASS_SPECTROMETRY: MS_TYPE MS2
AC$MASS_SPECTROMETRY: ION_MODE POSITIVE
AC$MASS_SPECTROMETRY: IONIZATION ESI
AC$MASS_SPECTROMETRY: FRAGMENTATION_MODE HCD
AC$MASS_SPECTROMETRY: COLLISION_ENERGY 70 % (nominal)
AC$MASS_SPECTROMETRY: RESOLUTION 15000
AC$MASS_SPECTROMETRY: MASS_RANGE_M/Z 50-375
AC$CHROMATOGRAPHY: COLUMN_NAME Kinetex Evo C18 2.6 um 50 x 2.1 mm
AC$CHROMATOGRAPHY: FLOW_GRADIENT 95/5 at 0 min, 95/5 at 1 min, 0/100 at 13 min, 0/100 at 24 min, 95/5 at 24.3 min, 95/5 at 32 min
AC$CHROMATOGRAPHY: FLOW_RATE 300 uL/min
AC$CHROMATOGRAPHY: RETENTION_TIME 12.658 min
MS$FOCUSED_ION: BASE_PEAK 360.3627
MS$FOCUSED_ION: PRECURSOR_M/Z 360.3625
MS$FOCUSED_ION: PRECURSOR_TYPE [M]+
MS$FOCUSED_ION: PRECURSOR_INTENSITY 39930128
MS$DATA_PROCESSING: RECALIBRATE loess on assigned fragments and MS1
MS$DATA_PROCESSING: REANALYZE Peaks with additional N2/O included
MS$DATA_PROCESSING: WHOLE RMassBank 3.11.2
PK$SPLASH: splash10-0006-9000000000-1a9117c639e876e64121
PK$ANNOTATION: m/z tentative_formula formula_count mass error(ppm)
  57.0696 C4H9+ 1 57.0699 -4.37
  58.0649 C3H8N+ 1 58.0651 -4.71
  69.0696 C5H9+ 1 69.0699 -3.93
  71.0854 C5H11+ 1 71.0855 -1.52
  72.0806 C4H10N+ 1 72.0808 -1.92
  91.0541 C7H7+ 1 91.0542 -0.85
  268.2995 C18H38N+ 1 268.2999 -1.48
PK$NUM_PEAK: 7
PK$PEAK: m/z int. rel.int.
  57.0696 154191.7 12
  58.0649 3241708 252
  69.0696 21112.5 1
  71.0854 58505.1 4
  72.0806 77994.3 6
  91.0541 12806202 999
  268.2995 1201998.9 93
//
