ACCESSION: MSBNK-UFZ-UF404301
RECORD_TITLE: Tebuconazol; LC-ESI-ITFT; MS2; CE: 55; R=15000; [M+H]+
DATE: 2017.01.05
AUTHORS: Schulze T, Krauss M, Department of Effect-Directed Analysis, Helmholtz Centre for Environmental Research - UFZ GmbH, Leipzig, Germany
LICENSE: CC BY
COPYRIGHT: Copyright (C) 2017
COMMENT: CONFIDENCE standard compound
COMMENT: INTERNAL_ID 4043
CH$NAME: Tebuconazol
CH$NAME: Tebuconazole
CH$NAME: 1-(4-Chlorophenyl)-4,4-dimethyl-3-(1,2,4-triazol-1-ylmethyl)pentan-3-ol
CH$COMPOUND_CLASS: N/A; Environmental Standard
CH$FORMULA: C16H22ClN3O
CH$EXACT_MASS: 307.1451
CH$SMILES: CC(C)(C)C(O)(CCC1=CC=C(Cl)C=C1)CN1C=NC=N1
CH$IUPAC: InChI=1S/C16H22ClN3O/c1-15(2,3)16(21,10-20-12-18-11-19-20)9-8-13-4-6-14(17)7-5-13/h4-7,11-12,21H,8-10H2,1-3H3
CH$LINK: CAS 84808-29-7
CH$LINK: CHEBI CHEBI:83779
CH$LINK: KEGG C18489
CH$LINK: PUBCHEM CID:86102
CH$LINK: INCHIKEY PXMNMQRDXWABCY-UHFFFAOYSA-N
CH$LINK: CHEMSPIDER 77680
CH$LINK: COMPTOX DTXSID9032113
AC$INSTRUMENT: LTQ Orbitrap XL Thermo Scientific
AC$INSTRUMENT_TYPE: LC-ESI-ITFT
AC$MASS_SPECTROMETRY: MS_TYPE MS2
AC$MASS_SPECTROMETRY: ION_MODE POSITIVE
AC$MASS_SPECTROMETRY: IONIZATION ESI
AC$MASS_SPECTROMETRY: FRAGMENTATION_MODE HCD
AC$MASS_SPECTROMETRY: COLLISION_ENERGY 55 (nominal)
AC$MASS_SPECTROMETRY: RESOLUTION 15000
AC$CHROMATOGRAPHY: COLUMN_NAME Kinetex Core-Shell C18 2.6 um, 3.0 x 100 mm, Phenomenex
AC$CHROMATOGRAPHY: FLOW_GRADIENT 90/10 at 0 min, 80/20 at 3.2 min, 5/95 at 17.8 min, 5/95 at 37.8 min, 90/10 at 37.9 min, 90/10 at 47 min
AC$CHROMATOGRAPHY: FLOW_RATE 200 uL/min
AC$CHROMATOGRAPHY: RETENTION_TIME 25.941 min
AC$CHROMATOGRAPHY: SOLVENT A water with 0.1% formic acid
AC$CHROMATOGRAPHY: SOLVENT B methanol with 0.1% formic acid
MS$FOCUSED_ION: BASE_PEAK 163.1327
MS$FOCUSED_ION: PRECURSOR_M/Z 308.1524
MS$FOCUSED_ION: PRECURSOR_TYPE [M+H]+
MS$DATA_PROCESSING: RECALIBRATE loess on assigned fragments and MS1
MS$DATA_PROCESSING: REANALYZE Peaks with additional N2/O included
MS$DATA_PROCESSING: WHOLE RMassBank 2.2.1
PK$SPLASH: splash10-00di-9300000000-fb043643bbb67dc3bdfd
PK$ANNOTATION: m/z tentative_formula formula_count mass error(ppm)
  70.0398 C2H4N3+ 1 70.04 -2.49
  83.0854 C6H11+ 1 83.0855 -1.36
  115.0543 C9H7+ 1 115.0542 0.89
  116.0621 C9H8+ 1 116.0621 0.34
  125.0151 C7H6Cl+ 1 125.0153 -0.97
  139.0309 C8H8Cl+ 1 139.0309 0.01
  151.0308 C9H8Cl+ 1 151.0309 -0.61
  165.0464 C10H10Cl+ 1 165.0466 -0.71
  179.0618 C11H12Cl+ 1 179.0622 -2.32
  308.1522 C16H23ClN3O+ 1 308.1524 -0.83
PK$NUM_PEAK: 10
PK$PEAK: m/z int. rel.int.
  70.0398 592378.5 999
  83.0854 4635.3 7
  115.0543 5296 8
  116.0621 3650.5 6
  125.0151 131583.1 221
  139.0309 10695.7 18
  151.0308 65434 110
  165.0464 16147.4 27
  179.0618 3123.2 5
  308.1522 2872.1 4
//
