ACCESSION: MSBNK-UFZ-WANA235211C9CFPH
RECORD_TITLE: Sulfathiazole; LC-ESI-ITFT; MS2; CE: 40%; R=15000; [M+H]+
DATE: 2023.08.12
AUTHORS: Tobias Schulze, Martin Krauss, Department of Effect-Directed Analysis, Helmholtz Centre for Environmental Research - UFZ, Leipzig, Germany
LICENSE: CC0
COPYRIGHT: Copyright (C) 2023
COMMENT: CONFIDENCE Reference Standard (Level 1)
CH$NAME: Sulfathiazole
CH$NAME: 4-amino-N-(1,3-thiazol-2-yl)benzenesulfonamide
CH$COMPOUND_CLASS: N/A; Environmental Standard
CH$FORMULA: C9H9N3O2S2
CH$EXACT_MASS: 255.013618528
CH$SMILES: NC1=CC=C(C=C1)S(=O)(=O)NC1=NC=CS1
CH$IUPAC: InChI=1S/C9H9N3O2S2/c10-7-1-3-8(4-2-7)16(13,14)12-9-11-5-6-15-9/h1-6H,10H2,(H,11,12)
CH$LINK: CAS 72-14-0
CH$LINK: CHEBI CHEBI:9337
CH$LINK: KEGG C11169
CH$LINK: PUBCHEM CID:5340
CH$LINK: INCHIKEY JNMRHUJNCSQMMB-UHFFFAOYSA-N
CH$LINK: CHEMSPIDER 5148
CH$LINK: COMPTOX DTXSID8026068
AC$INSTRUMENT: LTQ Orbitrap XL Thermo Scientific
AC$INSTRUMENT_TYPE: LC-ESI-ITFT
AC$MASS_SPECTROMETRY: MS_TYPE MS2
AC$MASS_SPECTROMETRY: ION_MODE POSITIVE
AC$MASS_SPECTROMETRY: IONIZATION ESI
AC$MASS_SPECTROMETRY: FRAGMENTATION_MODE HCD
AC$MASS_SPECTROMETRY: COLLISION_ENERGY 40 % (nominal)
AC$MASS_SPECTROMETRY: RESOLUTION 15000
AC$MASS_SPECTROMETRY: MASS_RANGE_M/Z 50-270
AC$CHROMATOGRAPHY: COLUMN_NAME Kinetex Evo C18 2.6 um 50 x 2.1 mm
AC$CHROMATOGRAPHY: FLOW_GRADIENT 95/5 at 0 min, 95/5 at 1 min, 0/100 at 13 min, 0/100 at 24 min, 95/5 at 24.3 min, 95/5 at 32 min
AC$CHROMATOGRAPHY: FLOW_RATE 300 uL/min
AC$CHROMATOGRAPHY: RETENTION_TIME 1.721 min
MS$FOCUSED_ION: BASE_PEAK 157.0357
MS$FOCUSED_ION: PRECURSOR_M/Z 256.0209
MS$FOCUSED_ION: PRECURSOR_TYPE [M+H]+
MS$FOCUSED_ION: PRECURSOR_INTENSITY 3837261.5
MS$DATA_PROCESSING: RECALIBRATE loess on assigned fragments and MS1
MS$DATA_PROCESSING: REANALYZE Peaks with additional N2/O included
MS$DATA_PROCESSING: WHOLE RMassBank 3.11.2
PK$SPLASH: splash10-0a4i-1900000000-d0f8cb0ceaf7ed44c79e
PK$ANNOTATION: m/z tentative_formula formula_count mass error(ppm)
  65.0385 C5H5+ 1 65.0386 -1.16
  80.0494 C5H6N+ 1 80.0495 -0.73
  92.0496 C6H6N+ 1 92.0495 1.38
  94.0652 C6H8N+ 1 94.0651 1.25
  100.009 C3H4N2S+ 1 100.009 0.66
  101.0169 C3H5N2S+ 1 101.0168 1.25
  108.0445 C6H6NO+ 1 108.0444 1.16
  110.0601 C6H8NO+ 1 110.06 0.72
  120.0557 C6H6N3+ 1 120.0556 0.95
  140.0169 C6H6NOS+ 1 140.0165 3.34
  156.0116 C6H6NO2S+ 1 156.0114 1.31
  162.9634 C3H3N2O2S2+ 1 162.963 2.16
  190.0435 C9H8N3S+ 1 190.0433 1.04
  256.0212 C9H10N3O2S2+ 1 256.0209 1
PK$NUM_PEAK: 14
PK$PEAK: m/z int. rel.int.
  65.0385 14531.8 15
  80.0494 1140.8 1
  92.0496 250786.3 271
  94.0652 2674.4 2
  100.009 1322.4 1
  101.0169 68045 73
  108.0445 330769.1 357
  110.0601 6327.3 6
  120.0557 5025.8 5
  140.0169 1986.6 2
  156.0116 923075.1 999
  162.9634 4162.7 4
  190.0435 6746.4 7
  256.0212 46994.3 50
//
