ACCESSION: MSBNK-UFZ-WANA2233213166PH
RECORD_TITLE: Enalapril; LC-ESI-ITFT; MS2; CE: 70%; R=15000; [M+H]+
DATE: 2023.08.13
AUTHORS: Tobias Schulze, Martin Krauss, Department of Effect-Directed Analysis, Helmholtz Centre for Environmental Research - UFZ, Leipzig, Germany
LICENSE: CC0
COPYRIGHT: Copyright (C) 2023
COMMENT: CONFIDENCE Reference Standard (Level 1)
CH$NAME: Enalapril
CH$NAME: (2S)-1-[(2S)-2-[[(2S)-1-ethoxy-1-oxo-4-phenylbutan-2-yl]amino]propanoyl]pyrrolidine-2-carboxylic acid
CH$COMPOUND_CLASS: N/A; Environmental Standard
CH$FORMULA: C20H28N2O5
CH$EXACT_MASS: 376.199821996
CH$SMILES: CCOC(=O)[C@H](CCC1=CC=CC=C1)N[C@@H](C)C(=O)N1CCC[C@H]1C(O)=O
CH$IUPAC: InChI=1S/C20H28N2O5/c1-3-27-20(26)16(12-11-15-8-5-4-6-9-15)21-14(2)18(23)22-13-7-10-17(22)19(24)25/h4-6,8-9,14,16-17,21H,3,7,10-13H2,1-2H3,(H,24,25)/t14-,16-,17-/m0/s1
CH$LINK: CAS 75847-73-3
CH$LINK: CHEBI CHEBI:4784
CH$LINK: KEGG D07892
CH$LINK: PUBCHEM CID:5388962
CH$LINK: INCHIKEY GBXSMTUPTTWBMN-XIRDDKMYSA-N
CH$LINK: CHEMSPIDER 4534998
CH$LINK: COMPTOX DTXSID5022982
AC$INSTRUMENT: LTQ Orbitrap XL Thermo Scientific
AC$INSTRUMENT_TYPE: LC-ESI-ITFT
AC$MASS_SPECTROMETRY: MS_TYPE MS2
AC$MASS_SPECTROMETRY: ION_MODE POSITIVE
AC$MASS_SPECTROMETRY: IONIZATION ESI
AC$MASS_SPECTROMETRY: FRAGMENTATION_MODE HCD
AC$MASS_SPECTROMETRY: COLLISION_ENERGY 70 % (nominal)
AC$MASS_SPECTROMETRY: RESOLUTION 15000
AC$MASS_SPECTROMETRY: MASS_RANGE_M/Z 50-390
AC$CHROMATOGRAPHY: COLUMN_NAME Kinetex Evo C18 2.6 um 50 x 2.1 mm
AC$CHROMATOGRAPHY: FLOW_GRADIENT 95/5 at 0 min, 95/5 at 1 min, 0/100 at 13 min, 0/100 at 24 min, 95/5 at 24.3 min, 95/5 at 32 min
AC$CHROMATOGRAPHY: FLOW_RATE 300 uL/min
AC$CHROMATOGRAPHY: RETENTION_TIME 8.096 min
MS$FOCUSED_ION: BASE_PEAK 377.2079
MS$FOCUSED_ION: PRECURSOR_M/Z 377.2071
MS$FOCUSED_ION: PRECURSOR_TYPE [M+H]+
MS$FOCUSED_ION: PRECURSOR_INTENSITY 41445436
MS$DATA_PROCESSING: RECALIBRATE loess on assigned fragments and MS1
MS$DATA_PROCESSING: REANALYZE Peaks with additional N2/O included
MS$DATA_PROCESSING: WHOLE RMassBank 3.11.2
PK$SPLASH: splash10-014l-4900000000-ea791fcd73a0bbc31f1c
PK$ANNOTATION: m/z tentative_formula formula_count mass error(ppm)
  56.0492 C3H6N+ 1 56.0495 -4.41
  70.065 C4H8N+ 1 70.0651 -2.17
  73.0647 C4H9O+ 1 73.0648 -1.46
  82.0648 C5H8N+ 1 82.0651 -3.7
  91.0542 C7H7+ 1 91.0542 0.02
  98.0598 C5H8NO+ 1 98.06 -1.95
  102.055 C4H8NO2+ 1 102.055 0.07
  105.0699 C8H9+ 1 105.0699 -0.23
  115.0542 C9H7+ 1 115.0542 0.06
  116.0706 C5H10NO2+ 1 116.0706 0.32
  117.0699 C9H9+ 1 117.0699 -0.07
  128.0616 C10H8+ 1 128.0621 -3.42
  130.0862 C6H12NO2+ 1 130.0863 -0.15
  134.0964 C9H12N+ 1 134.0964 0.07
  142.0858 C7H12NO2+ 1 142.0863 -3.28
  143.0858 C11H11+ 1 143.0855 1.81
  160.1121 C11H14N+ 1 160.1121 0.2
  206.1175 C12H16NO2+ 1 206.1176 -0.17
  232.1329 C14H18NO2+ 1 232.1332 -1.3
  234.1489 C14H20NO2+ 1 234.1489 0.22
PK$NUM_PEAK: 20
PK$PEAK: m/z int. rel.int.
  56.0492 1187470.5 152
  70.065 244830.5 31
  73.0647 409030.3 52
  82.0648 25428.8 3
  91.0542 5526447 710
  98.0598 63147.6 8
  102.055 1401948.2 180
  105.0699 121002.4 15
  115.0542 61376.5 7
  116.0706 148768 19
  117.0699 7773483.5 999
  128.0616 30228.1 3
  130.0862 1705109.8 219
  134.0964 855003.3 109
  142.0858 32080.8 4
  143.0858 82209.9 10
  160.1121 2103924.8 270
  206.1175 40173.6 5
  232.1329 34369.5 4
  234.1489 147866.6 19
//
