ACCESSION: MSBNK-UFZ-WANA036325AF82PH
RECORD_TITLE: 2-Isopropyl-6-methyl-pyrimidin-4-ol; LC-ESI-ITFT; MS2; CE: 90%; R=15000; [M+H]+
DATE: 2023.08.13
AUTHORS: Tobias Schulze, Martin Krauss, Department of Effect-Directed Analysis, Helmholtz Centre for Environmental Research - UFZ, Leipzig, Germany
LICENSE: CC0
COPYRIGHT: Copyright (C) 2023
COMMENT: CONFIDENCE Reference Standard (Level 1)
CH$NAME: 2-Isopropyl-6-methyl-pyrimidin-4-ol
CH$NAME: CID 17777
CH$NAME: 6-methyl-2-propan-2-yl-1H-pyrimidin-4-one
CH$COMPOUND_CLASS: N/A; Environmental Standard
CH$FORMULA: C8H12N2O
CH$EXACT_MASS: 152.094963004
CH$SMILES: CC(C)C1=NC(C)=CC(=O)N1
CH$IUPAC: InChI=1S/C8H12N2O/c1-5(2)8-9-6(3)4-7(11)10-8/h4-5H,1-3H3,(H,9,10,11)
CH$LINK: CAS 2814-20-2
CH$LINK: CHEBI CHEBI:38629
CH$LINK: PUBCHEM CID:17777
CH$LINK: INCHIKEY AJPIUNPJBFBUKK-UHFFFAOYSA-N
CH$LINK: CHEMSPIDER 16799
CH$LINK: COMPTOX DTXSID1027502
AC$INSTRUMENT: LTQ Orbitrap XL Thermo Scientific
AC$INSTRUMENT_TYPE: LC-ESI-ITFT
AC$MASS_SPECTROMETRY: MS_TYPE MS2
AC$MASS_SPECTROMETRY: ION_MODE POSITIVE
AC$MASS_SPECTROMETRY: IONIZATION ESI
AC$MASS_SPECTROMETRY: FRAGMENTATION_MODE HCD
AC$MASS_SPECTROMETRY: COLLISION_ENERGY 90 % (nominal)
AC$MASS_SPECTROMETRY: RESOLUTION 15000
AC$MASS_SPECTROMETRY: MASS_RANGE_M/Z 50-165
AC$CHROMATOGRAPHY: COLUMN_NAME Kinetex Evo C18 2.6 um 50 x 2.1 mm
AC$CHROMATOGRAPHY: FLOW_GRADIENT 95/5 at 0 min, 95/5 at 1 min, 0/100 at 13 min, 0/100 at 24 min, 95/5 at 24.3 min, 95/5 at 32 min
AC$CHROMATOGRAPHY: FLOW_RATE 300 uL/min
AC$CHROMATOGRAPHY: RETENTION_TIME 1.545 min
MS$FOCUSED_ION: BASE_PEAK 153.1028
MS$FOCUSED_ION: PRECURSOR_M/Z 153.1022
MS$FOCUSED_ION: PRECURSOR_TYPE [M+H]+
MS$FOCUSED_ION: PRECURSOR_INTENSITY 18562942
MS$DATA_PROCESSING: RECALIBRATE loess on assigned fragments and MS1
MS$DATA_PROCESSING: REANALYZE Peaks with additional N2/O included
MS$DATA_PROCESSING: WHOLE RMassBank 3.11.2
PK$SPLASH: splash10-001i-9100000000-7a4c36cf5f72010a0d29
PK$ANNOTATION: m/z tentative_formula formula_count mass error(ppm)
  56.0492 C3H6N+ 1 56.0495 -4.27
  67.0177 C4H3O+ 1 67.0178 -2.57
  70.065 C4H8N+ 1 70.0651 -1.84
  84.0444 C4H6NO+ 1 84.0444 -0.41
  87.0918 C4H11N2+ 1 87.0917 1.2
  108.081 C7H10N+ 1 108.0808 1.99
  112.0759 C6H10NO+ 1 112.0757 2.14
  137.071 C7H9N2O+ 1 137.0709 0.38
  138.0787 C7H10N2O+ 1 138.0788 -0.41
  153.1023 C8H13N2O+ 1 153.1022 0.15
PK$NUM_PEAK: 10
PK$PEAK: m/z int. rel.int.
  56.0492 11054.7 5
  67.0177 12534.9 6
  70.065 805045.4 403
  84.0444 1995019.9 999
  87.0918 2814.4 1
  108.081 5769.7 2
  112.0759 4288.4 2
  137.071 33392.4 16
  138.0787 25839.4 12
  153.1023 405220 202
//
