ACCESSION: MSBNK-UFZ-WANA0274155BE0PH
RECORD_TITLE: Metolachlor; LC-ESI-ITFT; MS2; CE: 60%; R=15000; [M+H]+
DATE: 2023.08.12
AUTHORS: Tobias Schulze, Martin Krauss, Department of Effect-Directed Analysis, Helmholtz Centre for Environmental Research - UFZ, Leipzig, Germany
LICENSE: CC0
COPYRIGHT: Copyright (C) 2023
COMMENT: CONFIDENCE Reference Standard (Level 1)
CH$NAME: Metolachlor
CH$NAME: 2-chloro-N-(2-ethyl-6-methylphenyl)-N-(1-methoxypropan-2-yl)acetamide
CH$COMPOUND_CLASS: N/A; Environmental Standard
CH$FORMULA: C15H22ClNO2
CH$EXACT_MASS: 283.133906624
CH$SMILES: CCC1=CC=CC(C)=C1N(C(C)COC)C(=O)CCl
CH$IUPAC: InChI=1S/C15H22ClNO2/c1-5-13-8-6-7-11(2)15(13)17(14(18)9-16)12(3)10-19-4/h6-8,12H,5,9-10H2,1-4H3
CH$LINK: CAS 63150-68-5
CH$LINK: CHEBI CHEBI:83645
CH$LINK: KEGG C10953
CH$LINK: PUBCHEM CID:4169
CH$LINK: INCHIKEY WVQBLGZPHOPPFO-UHFFFAOYSA-N
CH$LINK: CHEMSPIDER 4025
CH$LINK: COMPTOX DTXSID4022448
AC$INSTRUMENT: LTQ Orbitrap XL Thermo Scientific
AC$INSTRUMENT_TYPE: LC-ESI-ITFT
AC$MASS_SPECTROMETRY: MS_TYPE MS2
AC$MASS_SPECTROMETRY: ION_MODE POSITIVE
AC$MASS_SPECTROMETRY: IONIZATION ESI
AC$MASS_SPECTROMETRY: FRAGMENTATION_MODE HCD
AC$MASS_SPECTROMETRY: COLLISION_ENERGY 60 % (nominal)
AC$MASS_SPECTROMETRY: RESOLUTION 15000
AC$MASS_SPECTROMETRY: MASS_RANGE_M/Z 50-295
AC$CHROMATOGRAPHY: COLUMN_NAME Kinetex Evo C18 2.6 um 50 x 2.1 mm
AC$CHROMATOGRAPHY: FLOW_GRADIENT 95/5 at 0 min, 95/5 at 1 min, 0/100 at 13 min, 0/100 at 24 min, 95/5 at 24.3 min, 95/5 at 32 min
AC$CHROMATOGRAPHY: FLOW_RATE 300 uL/min
AC$CHROMATOGRAPHY: RETENTION_TIME 11.802 min
MS$FOCUSED_ION: BASE_PEAK 284.1416
MS$FOCUSED_ION: PRECURSOR_M/Z 284.1412
MS$FOCUSED_ION: PRECURSOR_TYPE [M+H]+
MS$FOCUSED_ION: PRECURSOR_INTENSITY 45288328
MS$DATA_PROCESSING: RECALIBRATE loess on assigned fragments and MS1
MS$DATA_PROCESSING: REANALYZE Peaks with additional N2/O included
MS$DATA_PROCESSING: WHOLE RMassBank 3.11.2
PK$SPLASH: splash10-0fb9-0930000000-8f31d414c2fbed140451
PK$ANNOTATION: m/z tentative_formula formula_count mass error(ppm)
  73.0646 C4H9O+ 1 73.0648 -3.01
  76.9787 C2H2ClO+ 1 76.9789 -2.06
  119.0854 C9H11+ 1 119.0855 -0.78
  133.0884 C9H11N+ 1 133.0886 -1.21
  134.0962 C9H12N+ 1 134.0964 -1.43
  135.0804 C9H11O+ 2 135.0804 -0.02
  145.0883 C10H11N+ 1 145.0886 -1.9
  146.0962 C10H12N+ 1 146.0964 -1.68
  148.1119 C10H14N+ 1 148.1121 -1.05
  158.0961 C11H12N+ 1 158.0964 -2.12
  159.1041 C11H13N+ 1 159.1043 -0.77
  160.1118 C11H14N+ 1 160.1121 -1.91
  162.1275 C11H16N+ 1 162.1277 -1.34
  174.1275 C12H16N+ 1 174.1277 -1.41
  176.1431 C12H18N+ 1 176.1434 -1.46
  194.073 C11H13ClN+ 2 194.0731 -0.66
  212.0834 C14H12O2+ 2 212.0832 1.14
  252.1147 C14H19ClNO+ 1 252.115 -1.23
PK$NUM_PEAK: 18
PK$PEAK: m/z int. rel.int.
  73.0646 45134.4 83
  76.9787 13106 24
  119.0854 13632.7 25
  133.0884 22833.1 42
  134.0962 64997.3 120
  135.0804 4150.5 7
  145.0883 13376.9 24
  146.0962 41868.1 77
  148.1119 12749.9 23
  158.0961 28118.3 52
  159.1041 12048.6 22
  160.1118 41028.2 76
  162.1275 2992.8 5
  174.1275 7189.2 13
  176.1431 537987.8 999
  194.073 17296.9 32
  212.0834 23646.6 43
  252.1147 282400.3 524
//
