ACCESSION: MSBNK-UFZ-WANA0321155BE0PH
RECORD_TITLE: Tri(butoxyethyl)phosphate; LC-ESI-ITFT; MS2; CE: 60%; R=15000; [M+H]+
DATE: 2023.08.12
AUTHORS: Tobias Schulze, Martin Krauss, Department of Effect-Directed Analysis, Helmholtz Centre for Environmental Research - UFZ, Leipzig, Germany
LICENSE: CC0
COPYRIGHT: Copyright (C) 2023
COMMENT: CONFIDENCE Reference Standard (Level 1)
CH$NAME: Tri(butoxyethyl)phosphate
CH$NAME: tris(2-butoxyethyl) phosphate
CH$COMPOUND_CLASS: N/A; Environmental Standard
CH$FORMULA: C18H39O7P
CH$EXACT_MASS: 398.243340218
CH$SMILES: CCCCOCCOP(=O)(OCCOCCCC)OCCOCCCC
CH$IUPAC: InChI=1S/C18H39O7P/c1-4-7-10-20-13-16-23-26(19,24-17-14-21-11-8-5-2)25-18-15-22-12-9-6-3/h4-18H2,1-3H3
CH$LINK: CAS 78-51-3
CH$LINK: CHEBI CHEBI:35038
CH$LINK: KEGG C14446
CH$LINK: PUBCHEM CID:6540
CH$LINK: INCHIKEY WTLBZVNBAKMVDP-UHFFFAOYSA-N
CH$LINK: CHEMSPIDER 6292
CH$LINK: COMPTOX DTXSID5021758
AC$INSTRUMENT: LTQ Orbitrap XL Thermo Scientific
AC$INSTRUMENT_TYPE: LC-ESI-ITFT
AC$MASS_SPECTROMETRY: MS_TYPE MS2
AC$MASS_SPECTROMETRY: ION_MODE POSITIVE
AC$MASS_SPECTROMETRY: IONIZATION ESI
AC$MASS_SPECTROMETRY: FRAGMENTATION_MODE HCD
AC$MASS_SPECTROMETRY: COLLISION_ENERGY 60 % (nominal)
AC$MASS_SPECTROMETRY: RESOLUTION 15000
AC$MASS_SPECTROMETRY: MASS_RANGE_M/Z 50-410
AC$CHROMATOGRAPHY: COLUMN_NAME Kinetex Evo C18 2.6 um 50 x 2.1 mm
AC$CHROMATOGRAPHY: FLOW_GRADIENT 95/5 at 0 min, 95/5 at 1 min, 0/100 at 13 min, 0/100 at 24 min, 95/5 at 24.3 min, 95/5 at 32 min
AC$CHROMATOGRAPHY: FLOW_RATE 300 uL/min
AC$CHROMATOGRAPHY: RETENTION_TIME 13.379 min
MS$FOCUSED_ION: BASE_PEAK 399.2519
MS$FOCUSED_ION: PRECURSOR_M/Z 399.2506
MS$FOCUSED_ION: PRECURSOR_TYPE [M+H]+
MS$FOCUSED_ION: PRECURSOR_INTENSITY 47708360
MS$DATA_PROCESSING: RECALIBRATE loess on assigned fragments and MS1
MS$DATA_PROCESSING: REANALYZE Peaks with additional N2/O included
MS$DATA_PROCESSING: WHOLE RMassBank 3.11.2
PK$SPLASH: splash10-0a4i-9000000000-1cf20e45174c7bd2ea7e
PK$ANNOTATION: m/z tentative_formula formula_count mass error(ppm)
  55.054 C4H7+ 1 55.0542 -4.3
  57.0696 C4H9+ 1 57.0699 -4.12
  59.0489 C3H7O+ 1 59.0491 -4.6
  83.0855 C6H11+ 1 83.0855 -0.23
  98.9842 H4O4P+ 1 98.9842 0.2
  101.0962 C6H13O+ 1 101.0961 0.76
  125 C2H6O4P+ 1 124.9998 1.03
  143.0104 C2H8O5P+ 1 143.0104 0.34
PK$NUM_PEAK: 8
PK$PEAK: m/z int. rel.int.
  55.054 40514.6 267
  57.0696 151057 999
  59.0489 3444.8 22
  83.0855 9512 62
  98.9842 40808.4 269
  101.0962 2239.7 14
  125 6573.2 43
  143.0104 1916 12
//
