ACCESSION: MSBNK-UFZ-WANA239025AF82PH
RECORD_TITLE: Propyzamide; LC-ESI-ITFT; MS2; CE: 90%; R=15000; [M+H]+
DATE: 2023.08.13
AUTHORS: Tobias Schulze, Martin Krauss, Department of Effect-Directed Analysis, Helmholtz Centre for Environmental Research - UFZ, Leipzig, Germany
LICENSE: CC0
COPYRIGHT: Copyright (C) 2023
COMMENT: CONFIDENCE Reference Standard (Level 1)
CH$NAME: Propyzamide
CH$NAME: 3,5-dichloro-N-(2-methylbut-3-yn-2-yl)benzamide
CH$COMPOUND_CLASS: N/A; Environmental Standard
CH$FORMULA: C12H11Cl2NO
CH$EXACT_MASS: 255.021769332
CH$SMILES: CC(C)(NC(=O)C1=CC(Cl)=CC(Cl)=C1)C#C
CH$IUPAC: InChI=1S/C12H11Cl2NO/c1-4-12(2,3)15-11(16)8-5-9(13)7-10(14)6-8/h1,5-7H,2-3H3,(H,15,16)
CH$LINK: CAS 11097-11-3
CH$LINK: CHEBI CHEBI:34935
CH$LINK: KEGG C14333
CH$LINK: PUBCHEM CID:32154
CH$LINK: INCHIKEY PHNUZKMIPFFYSO-UHFFFAOYSA-N
CH$LINK: CHEMSPIDER 29822
CH$LINK: COMPTOX DTXSID2020420
AC$INSTRUMENT: LTQ Orbitrap XL Thermo Scientific
AC$INSTRUMENT_TYPE: LC-ESI-ITFT
AC$MASS_SPECTROMETRY: MS_TYPE MS2
AC$MASS_SPECTROMETRY: ION_MODE POSITIVE
AC$MASS_SPECTROMETRY: IONIZATION ESI
AC$MASS_SPECTROMETRY: FRAGMENTATION_MODE HCD
AC$MASS_SPECTROMETRY: COLLISION_ENERGY 90 % (nominal)
AC$MASS_SPECTROMETRY: RESOLUTION 15000
AC$MASS_SPECTROMETRY: MASS_RANGE_M/Z 50-270
AC$CHROMATOGRAPHY: COLUMN_NAME Kinetex Evo C18 2.6 um 50 x 2.1 mm
AC$CHROMATOGRAPHY: FLOW_GRADIENT 95/5 at 0 min, 95/5 at 1 min, 0/100 at 13 min, 0/100 at 24 min, 95/5 at 24.3 min, 95/5 at 32 min
AC$CHROMATOGRAPHY: FLOW_RATE 300 uL/min
AC$CHROMATOGRAPHY: RETENTION_TIME 11.074 min
MS$FOCUSED_ION: BASE_PEAK 230.1171
MS$FOCUSED_ION: PRECURSOR_M/Z 256.029
MS$FOCUSED_ION: PRECURSOR_TYPE [M+H]+
MS$FOCUSED_ION: PRECURSOR_INTENSITY 11500178
MS$DATA_PROCESSING: RECALIBRATE loess on assigned fragments and MS1
MS$DATA_PROCESSING: REANALYZE Peaks with additional N2/O included
MS$DATA_PROCESSING: WHOLE RMassBank 3.11.2
PK$SPLASH: splash10-00di-0900000000-25fd07bb276f07684b0b
PK$ANNOTATION: m/z tentative_formula formula_count mass error(ppm)
  65.0383 C5H5+ 1 65.0386 -3.61
  67.054 C5H7+ 1 67.0542 -3.84
  105.0697 C8H9+ 1 105.0699 -1.6
  108.9838 C6H2Cl+ 1 108.984 -1.52
  126.9943 C6H4ClO+ 1 126.9945 -1.35
  128.0023 C6H5ClO+ 2 128.0023 -0.68
  132.0806 C9H10N+ 1 132.0808 -1.44
  139.0056 C9HNO+ 1 139.0053 2.74
  144.9604 C6H3Cl2+ 1 144.9606 -1.72
  146.9762 C6H5Cl2+ 1 146.9763 -0.24
  162.9711 C6H5Cl2O+ 1 162.9712 -0.71
  171.9713 C7H4Cl2N+ 2 171.9715 -1.3
  172.9555 C7H3Cl2O+ 1 172.9555 -0.37
  172.9665 C9ClNO+ 1 172.9663 0.93
  189.9819 C7H6Cl2NO+ 1 189.9821 -0.92
PK$NUM_PEAK: 15
PK$PEAK: m/z int. rel.int.
  65.0383 19493.5 45
  67.054 38812.9 91
  105.0697 13485.7 31
  108.9838 19400.7 45
  126.9943 7967.5 18
  128.0023 8145 19
  132.0806 8040.3 18
  139.0056 10059.3 23
  144.9604 21359.1 50
  146.9762 4033.3 9
  162.9711 10559.6 24
  171.9713 9147.2 21
  172.9555 222075.5 521
  172.9665 425122.3 999
  189.9819 4928.4 11
//
