ACCESSION: MSBNK-UFZ-UF410553
RECORD_TITLE: Lincomycin; LC-ESI-ITFT; MS2; CE: 35; R=15000; [M-H]-
DATE: 2017.01.05
AUTHORS: Schulze T, Krauss M, Department of Effect-Directed Analysis, Helmholtz Centre for Environmental Research - UFZ GmbH, Leipzig, Germany
LICENSE: CC BY
COPYRIGHT: Copyright (C) 2017
COMMENT: CONFIDENCE standard compound
COMMENT: INTERNAL_ID 4105
CH$NAME: Lincomycin
CH$NAME: (2S,4R)-N-[(1R,2R)-2-Hydroxy-1-[(2R,3R,4S,5R,6R)-3,4,5-trihydroxy-6-methylsulfanyloxan-2-yl]propyl]-1-methyl-4-propylpyrrolidine-2-carboxamide
CH$COMPOUND_CLASS: N/A; Environmental Standard
CH$FORMULA: C18H34N2O6S
CH$EXACT_MASS: 406.2138
CH$SMILES: CCC[C@@H]1C[C@H](N(C)C1)C(=O)N[C@H]([C@@H](C)O)[C@H]1O[C@H](SC)[C@H](O)[C@@H](O)[C@H]1O
CH$IUPAC: InChI=1S/C18H34N2O6S/c1-5-6-10-7-11(20(3)8-10)17(25)19-12(9(2)21)16-14(23)13(22)15(24)18(26-16)27-4/h9-16,18,21-24H,5-8H2,1-4H3,(H,19,25)/t9-,10-,11+,12-,13+,14-,15-,16-,18-/m1/s1
CH$LINK: CAS 154-21-2
CH$LINK: CHEBI CHEBI:6472
CH$LINK: KEGG D00223
CH$LINK: PUBCHEM CID:3000540
CH$LINK: INCHIKEY OJMMVQQUTAEWLP-KIDUDLJLSA-N
CH$LINK: CHEMSPIDER 2272112
CH$LINK: COMPTOX DTXSID3023215
AC$INSTRUMENT: LTQ Orbitrap XL Thermo Scientific
AC$INSTRUMENT_TYPE: LC-ESI-ITFT
AC$MASS_SPECTROMETRY: MS_TYPE MS2
AC$MASS_SPECTROMETRY: ION_MODE NEGATIVE
AC$MASS_SPECTROMETRY: IONIZATION ESI
AC$MASS_SPECTROMETRY: FRAGMENTATION_MODE CID
AC$MASS_SPECTROMETRY: COLLISION_ENERGY 35 (nominal)
AC$MASS_SPECTROMETRY: RESOLUTION 15000
AC$CHROMATOGRAPHY: COLUMN_NAME Kinetex Core-Shell C18 2.6 um, 3.0 x 100 mm, Phenomenex
AC$CHROMATOGRAPHY: FLOW_GRADIENT 90/10 at 0 min, 80/20 at 3.2 min, 5/95 at 17.8 min, 5/95 at 37.8 min, 90/10 at 37.9 min, 90/10 at 47 min
AC$CHROMATOGRAPHY: FLOW_RATE 200 uL/min
AC$CHROMATOGRAPHY: RETENTION_TIME 13.675 min
AC$CHROMATOGRAPHY: SOLVENT A water with 0.1% formic acid
AC$CHROMATOGRAPHY: SOLVENT B methanol with 0.1% formic acid
MS$FOCUSED_ION: BASE_PEAK 178.9779
MS$FOCUSED_ION: PRECURSOR_M/Z 405.2065
MS$FOCUSED_ION: PRECURSOR_TYPE [M-H]-
MS$DATA_PROCESSING: RECALIBRATE loess on assigned fragments and MS1
MS$DATA_PROCESSING: REANALYZE Peaks with additional N2/O included
MS$DATA_PROCESSING: WHOLE RMassBank 2.2.1
PK$SPLASH: splash10-016r-0895000000-4b0507fffd39d9fc075f
PK$ANNOTATION: m/z tentative_formula formula_count mass error(ppm)
  127.059 C7H11S- 1 127.0587 2.54
  169.1347 C9H17N2O- 2 169.1346 0.47
  199.1273 C10H19N2S- 1 199.1274 -0.86
  267.1712 C14H23N2O3- 2 267.1714 -0.66
  277.155 C15H21N2O3- 1 277.1558 -2.59
  325.1583 C16H25N2O3S- 1 325.1591 -2.47
  344.9753 C18H3NO5S- 1 344.9737 4.51
PK$NUM_PEAK: 7
PK$PEAK: m/z int. rel.int.
  127.059 3237.6 236
  169.1347 4620.2 337
  199.1273 8806.6 644
  267.1712 13658.7 999
  277.155 4736.7 346
  325.1583 7249.6 530
  344.9753 3481.6 254
//
