ACCESSION: MSBNK-UFZ-WANA222711C9CFPH
RECORD_TITLE: Flumequine; LC-ESI-ITFT; MS2; CE: 40%; R=15000; [M+H]+
DATE: 2023.08.12
AUTHORS: Tobias Schulze, Martin Krauss, Department of Effect-Directed Analysis, Helmholtz Centre for Environmental Research - UFZ, Leipzig, Germany
LICENSE: CC0
COPYRIGHT: Copyright (C) 2023
COMMENT: CONFIDENCE Reference Standard (Level 1)
CH$NAME: Flumequine
CH$NAME: 7-fluoro-12-methyl-4-oxo-1-azatricyclo[7.3.1.05,13]trideca-2,5,7,9(13)-tetraene-3-carboxylic acid
CH$COMPOUND_CLASS: N/A; Environmental Standard
CH$FORMULA: C14H12FNO3
CH$EXACT_MASS: 261.080121464
CH$SMILES: CC1CCC2=C3N1C=C(C(O)=O)C(=O)C3=CC(F)=C2
CH$IUPAC: InChI=1S/C14H12FNO3/c1-7-2-3-8-4-9(15)5-10-12(8)16(7)6-11(13(10)17)14(18)19/h4-7H,2-3H2,1H3,(H,18,19)
CH$LINK: CAS 42835-25-6
CH$LINK: CHEBI CHEBI:85269
CH$LINK: PUBCHEM CID:3374
CH$LINK: INCHIKEY DPSPPJIUMHPXMA-UHFFFAOYSA-N
CH$LINK: CHEMSPIDER 3257
CH$LINK: COMPTOX DTXSID5045623
AC$INSTRUMENT: LTQ Orbitrap XL Thermo Scientific
AC$INSTRUMENT_TYPE: LC-ESI-ITFT
AC$MASS_SPECTROMETRY: MS_TYPE MS2
AC$MASS_SPECTROMETRY: ION_MODE POSITIVE
AC$MASS_SPECTROMETRY: IONIZATION ESI
AC$MASS_SPECTROMETRY: FRAGMENTATION_MODE HCD
AC$MASS_SPECTROMETRY: COLLISION_ENERGY 40 % (nominal)
AC$MASS_SPECTROMETRY: RESOLUTION 15000
AC$MASS_SPECTROMETRY: MASS_RANGE_M/Z 50-275
AC$CHROMATOGRAPHY: COLUMN_NAME Kinetex Evo C18 2.6 um 50 x 2.1 mm
AC$CHROMATOGRAPHY: FLOW_GRADIENT 95/5 at 0 min, 95/5 at 1 min, 0/100 at 13 min, 0/100 at 24 min, 95/5 at 24.3 min, 95/5 at 32 min
AC$CHROMATOGRAPHY: FLOW_RATE 300 uL/min
AC$CHROMATOGRAPHY: RETENTION_TIME 9.262 min
MS$FOCUSED_ION: BASE_PEAK 262.0887
MS$FOCUSED_ION: PRECURSOR_M/Z 262.0874
MS$FOCUSED_ION: PRECURSOR_TYPE [M+H]+
MS$FOCUSED_ION: PRECURSOR_INTENSITY 19786082
MS$DATA_PROCESSING: RECALIBRATE loess on assigned fragments and MS1
MS$DATA_PROCESSING: REANALYZE Peaks with additional N2/O included
MS$DATA_PROCESSING: WHOLE RMassBank 3.11.2
PK$SPLASH: splash10-0006-0090000000-63f69654808b5d8ef31a
PK$ANNOTATION: m/z tentative_formula formula_count mass error(ppm)
  202.0298 C11H5FNO2+ 1 202.0299 -0.24
  244.0769 C14H11FNO2+ 1 244.0768 0.46
  262.0875 C14H13FNO3+ 1 262.0874 0.24
PK$NUM_PEAK: 3
PK$PEAK: m/z int. rel.int.
  202.0298 5723.2 2
  244.0769 2530541.2 999
  262.0875 1239973.2 489
//
