ACCESSION: MSBNK-UFZ-WANA220405070APH
RECORD_TITLE: Terbinafine; LC-ESI-ITFT; MS2; CE: 30%; R=15000; [M+H]+
DATE: 2023.08.12
AUTHORS: Tobias Schulze, Martin Krauss, Department of Effect-Directed Analysis, Helmholtz Centre for Environmental Research - UFZ, Leipzig, Germany
LICENSE: CC0
COPYRIGHT: Copyright (C) 2023
COMMENT: CONFIDENCE Reference Standard (Level 1)
CH$NAME: Terbinafine
CH$NAME: (E)-N,6,6-trimethyl-N-(naphthalen-1-ylmethyl)hept-2-en-4-yn-1-amine
CH$COMPOUND_CLASS: N/A; Environmental Standard
CH$FORMULA: C21H25N
CH$EXACT_MASS: 291.1986998
CH$SMILES: CN(C\C=C\C#CC(C)(C)C)CC1=CC=CC2=CC=CC=C12
CH$IUPAC: InChI=1S/C21H25N/c1-21(2,3)15-8-5-9-16-22(4)17-19-13-10-12-18-11-6-7-14-20(18)19/h5-7,9-14H,16-17H2,1-4H3/b9-5+
CH$LINK: CAS 91161-71-6
CH$LINK: CHEBI CHEBI:9448
CH$LINK: KEGG D02375
CH$LINK: PUBCHEM CID:1549008
CH$LINK: INCHIKEY DOMXUEMWDBAQBQ-WEVVVXLNSA-N
CH$LINK: CHEMSPIDER 1266005
CH$LINK: COMPTOX DTXSID2023640
AC$INSTRUMENT: LTQ Orbitrap XL Thermo Scientific
AC$INSTRUMENT_TYPE: LC-ESI-ITFT
AC$MASS_SPECTROMETRY: MS_TYPE MS2
AC$MASS_SPECTROMETRY: ION_MODE POSITIVE
AC$MASS_SPECTROMETRY: IONIZATION ESI
AC$MASS_SPECTROMETRY: FRAGMENTATION_MODE HCD
AC$MASS_SPECTROMETRY: COLLISION_ENERGY 30 % (nominal)
AC$MASS_SPECTROMETRY: RESOLUTION 15000
AC$MASS_SPECTROMETRY: MASS_RANGE_M/Z 50-305
AC$CHROMATOGRAPHY: COLUMN_NAME Kinetex Evo C18 2.6 um 50 x 2.1 mm
AC$CHROMATOGRAPHY: FLOW_GRADIENT 95/5 at 0 min, 95/5 at 1 min, 0/100 at 13 min, 0/100 at 24 min, 95/5 at 24.3 min, 95/5 at 32 min
AC$CHROMATOGRAPHY: FLOW_RATE 300 uL/min
AC$CHROMATOGRAPHY: RETENTION_TIME 9.613 min
MS$FOCUSED_ION: BASE_PEAK 292.2068
MS$FOCUSED_ION: PRECURSOR_M/Z 292.206
MS$FOCUSED_ION: PRECURSOR_TYPE [M+H]+
MS$FOCUSED_ION: PRECURSOR_INTENSITY 112828384
MS$DATA_PROCESSING: RECALIBRATE loess on assigned fragments and MS1
MS$DATA_PROCESSING: REANALYZE Peaks with additional N2/O included
MS$DATA_PROCESSING: WHOLE RMassBank 3.11.2
PK$SPLASH: splash10-0006-1910000000-8d582b420fdcda03914d
PK$ANNOTATION: m/z tentative_formula formula_count mass error(ppm)
  79.0541 C6H7+ 1 79.0542 -1.59
  91.0543 C7H7+ 1 91.0542 0.4
  93.0698 C7H9+ 1 93.0699 -0.56
  105.0698 C8H9+ 1 105.0699 -0.88
  119.0856 C9H11+ 1 119.0855 0.72
  121.1011 C9H13+ 1 121.1012 -0.29
  141.0698 C11H9+ 1 141.0699 -0.38
  150.1276 C10H16N+ 1 150.1277 -0.77
  165.0692 C13H9+ 1 165.0699 -4.18
  170.0964 C12H12N+ 1 170.0964 -0.04
  179.0855 C14H11+ 1 179.0855 -0.34
  193.1015 C15H13+ 1 193.1012 1.61
  205.1011 C16H13+ 1 205.1012 -0.32
  219.1166 C17H15+ 1 219.1168 -0.95
  235.148 C18H19+ 1 235.1481 -0.74
  236.1433 C17H18N+ 1 236.1434 -0.27
  261.1639 C20H21+ 1 261.1638 0.29
  292.2059 C21H26N+ 1 292.206 -0.41
PK$NUM_PEAK: 18
PK$PEAK: m/z int. rel.int.
  79.0541 260921.9 9
  91.0543 161518.3 5
  93.0698 3462077 128
  105.0698 389581.7 14
  119.0856 90251 3
  121.1011 860185.5 31
  141.0698 26923710 999
  150.1276 523803.4 19
  165.0692 49653.2 1
  170.0964 754914.6 28
  179.0855 94620.8 3
  193.1015 54417.5 2
  205.1011 370073.7 13
  219.1166 43465.2 1
  235.148 38249.6 1
  236.1433 131512.9 4
  261.1639 205878.1 7
  292.2059 3865758.2 143
//
