ACCESSION: MSBNK-UFZ-UA007801
RECORD_TITLE: 2-Phenylpyridine; LC-ESI-QFT; MS2; CE: 61.67%; R=35000; [M+H]+
DATE: 2017.08.17
AUTHORS: Muz M, Kutsarova S, Krauss M, Schulze T, Brack W, Department of Effect-Directed Analysis, Helmholtz Centre for Environmental Research - UFZ GmbH, Leipzig, Germany
LICENSE: CC BY
COPYRIGHT: Copyright (C) 2017
PUBLICATION: Muz M, Kutsarova S, Krauss M, Schulze T, Brack W (2017) Environ. Sci. Technol. 51:1830-1839, DOI:10.1021/acs.est.6b05468. Mutagenicity in surface waters - synergistic effects of carboline alkaloids and aromatic amines
COMMENT: CONFIDENCE Reference Standard (Level 1)
COMMENT: INTERNAL_ID 78
CH$NAME: 2-Phenylpyridine
CH$COMPOUND_CLASS: N/A; Environmental Standard
CH$FORMULA: C11H9N
CH$EXACT_MASS: 155.0735
CH$SMILES: c1ccc(cc1)c2ccccn2
CH$IUPAC: InChI=1S/C11H9N/c1-2-6-10(7-3-1)11-8-4-5-9-12-11/h1-9H
CH$LINK: CAS 1008-89-5
CH$LINK: PUBCHEM CID:13887
CH$LINK: INCHIKEY VQGHOUODWALEFC-UHFFFAOYSA-N
CH$LINK: CHEMSPIDER 13286
CH$LINK: COMPTOX DTXSID6074417
AC$INSTRUMENT: Q Exactive Plus Orbitrap Thermo Scientific
AC$INSTRUMENT_TYPE: LC-ESI-QFT
AC$MASS_SPECTROMETRY: MS_TYPE MS2
AC$MASS_SPECTROMETRY: ION_MODE POSITIVE
AC$MASS_SPECTROMETRY: IONIZATION ESI
AC$MASS_SPECTROMETRY: FRAGMENTATION_MODE HCD
AC$MASS_SPECTROMETRY: COLLISION_ENERGY 61.67 % (nominal)
AC$MASS_SPECTROMETRY: RESOLUTION 35000
AC$CHROMATOGRAPHY: COLUMN_NAME Accucore PhenylHexyl 2.6um, 3x150mm, Thermo
AC$CHROMATOGRAPHY: FLOW_GRADIENT 90/10 at 0 min, 90/10 at 3.2 min, 5/95 at 21 min, 5/95 at 41 min, 90/10 at 50 min
AC$CHROMATOGRAPHY: FLOW_RATE 200 uL/min
AC$CHROMATOGRAPHY: RETENTION_TIME 17.882 min
AC$CHROMATOGRAPHY: SOLVENT A water with 0.1% formic acid
AC$CHROMATOGRAPHY: SOLVENT B methanol
MS$FOCUSED_ION: BASE_PEAK 156.0807
MS$FOCUSED_ION: PRECURSOR_M/Z 156.0808
MS$FOCUSED_ION: PRECURSOR_TYPE [M+H]+
MS$DATA_PROCESSING: RECALIBRATE loess on assigned fragments and MS1
MS$DATA_PROCESSING: REANALYZE Peaks with additional N2/O included
MS$DATA_PROCESSING: WHOLE RMassBank 2.5.0
PK$SPLASH: splash10-0a4i-2900000000-ee4a41f8f551358268e2
PK$ANNOTATION: m/z tentative_formula formula_count mass error(ppm)
  78.0338 C5H4N+ 1 78.0338 0.13
  96.0444 C5H6NO+ 1 96.0444 0.27
  128.0621 C10H8+ 1 128.0621 0.36
  129.0699 C10H9+ 1 129.0699 0.35
  154.0653 C11H8N+ 1 154.0651 0.99
  156.0809 C11H10N+ 1 156.0808 0.88
PK$NUM_PEAK: 6
PK$PEAK: m/z int. rel.int.
  78.0338 117448336 101
  96.0444 153473440 133
  128.0621 16572871 14
  129.0699 12702628 11
  154.0653 14895539 12
  156.0809 1151300224 999
//
