ACCESSION: MSBNK-BS-BS003692
RECORD_TITLE: Glycitein; LC-ESI-QTOF; MS2; CE:20 eV; [M-H]-
DATE: 2017.12.01 (Created 2014.01.09)
AUTHORS: Plant Biology, The Noble Foundation, Ardmore, OK, US/Dennis Fine, Daniel Wherritt, and Lloyd Sumner
LICENSE: CC BY-NC-SA
CH$NAME: Glycitein
CH$COMPOUND_CLASS: Natural Product; N/A
CH$FORMULA: C16H12O5
CH$EXACT_MASS: 284.0685
CH$SMILES: C(OC1=C(C(=C2C(=C1[H])C(=O)C(=C(O2)[H])C3=C(C(=C(C(=C3[H])[H])O[H])[H])[H])[H])O[H])([H])([H])[H]
CH$IUPAC: InChI=1S/C16H12O5/c1-20-15-6-11-14(7-13(15)18)21-8-12(16(11)19)9-2-4-10(17)5-3-9/h2-8,17-18H,1H3
CH$LINK: CAS 40957-83-3
CH$LINK: COMPTOX DTXSID40193960
CH$LINK: INCHIKEY DXYUAIFZCFRPTH-UHFFFAOYSA-N
CH$LINK: PUBCHEM CID:5317750
AC$INSTRUMENT: Bruker impact HD
AC$INSTRUMENT_TYPE: LC-ESI-QTOF
AC$MASS_SPECTROMETRY: MS_TYPE MS2
AC$MASS_SPECTROMETRY: ION_MODE NEGATIVE
AC$MASS_SPECTROMETRY: COLLISION_ENERGY 20 eV
AC$MASS_SPECTROMETRY: IONIZATION ESI
AC$MASS_SPECTROMETRY: ISOLATION_WIDTH 5
AC$MASS_SPECTROMETRY: PEAK_WIDTH 0.012
AC$MASS_SPECTROMETRY: MASS_RANGE_M/Z 94.8802-1505.2
AC$CHROMATOGRAPHY: COLUMN_NAME Waters Acquity BEH C18 1.7um x 2.1 x 150 mm
AC$CHROMATOGRAPHY: FLOW_GRADIENT 95/5 at 0 min, 20/80 at 35 min; 5/95 at 35 min, 5/95 at 38 min; 95/5 at 38.1 min, 95/5 at 45 min
AC$CHROMATOGRAPHY: FLOW_RATE FLOW_RATE 560 uL / min
AC$CHROMATOGRAPHY: SOLVENT A water with 0.05% formic acid
AC$CHROMATOGRAPHY: SOLVENT B acetonitrile with 0.05 % formic acid
AC$CHROMATOGRAPHY: RETENTION_TIME 499.2 sec
MS$FOCUSED_ION: PRECURSOR_M/Z 283.0614
MS$FOCUSED_ION: PRECURSOR_TYPE [M-H]-
MS$DATA_PROCESSING: WHOLE convert from Bruker Library Editor (https://github.com/MassBank/MassBank2NIST)
PK$SPLASH: splash10-014i-0090000000-cea55aa49f539e7744bc
PK$NUM_PEAK: 5
PK$PEAK: m/z int. rel.int.
  240.0429 96 96
  268.0382 999 999
  269.0413 94 94
  283.0614 184 184
  284.0645 31 31
//
