ACCESSION: MSBNK-BS-BS003059
RECORD_TITLE: Genistein; LC-ESI-QTOF; MS2; CE:50 eV; [M-H]-
DATE: 2017.12.01 (Created 2013.11.15)
AUTHORS: Plant Biology, The Noble Foundation, Ardmore, OK, US/Dennis Fine, Daniel Wherritt, and Lloyd Sumner
LICENSE: CC BY-NC-SA
CH$NAME: Genistein
CH$COMPOUND_CLASS: Natural Product; N/A
CH$FORMULA: C15H10O5
CH$EXACT_MASS: 270.0528
CH$SMILES: C1(=C(C(=C(C(=C1C2=C(OC3=C(C(=C(C(=C3C2=O)O[H])[H])O[H])[H])[H])[H])[H])O[H])[H])[H]
CH$IUPAC: InChI=1S/C15H10O5/c16-9-3-1-8(2-4-9)11-7-20-13-6-10(17)5-12(18)14(13)15(11)19/h1-7,16-18H
CH$LINK: INCHIKEY TZBJGXHYKVUXJN-UHFFFAOYSA-N
CH$LINK: CAS 446-72-0
CH$LINK: COMPTOX DTXSID5022308
CH$LINK: PUBCHEM CID:5280961
AC$INSTRUMENT: Bruker impact HD
AC$INSTRUMENT_TYPE: LC-ESI-QTOF
AC$MASS_SPECTROMETRY: MS_TYPE MS2
AC$MASS_SPECTROMETRY: ION_MODE NEGATIVE
AC$MASS_SPECTROMETRY: COLLISION_ENERGY 50 eV
AC$MASS_SPECTROMETRY: IONIZATION ESI
AC$MASS_SPECTROMETRY: ISOLATION_WIDTH 5
AC$MASS_SPECTROMETRY: PEAK_WIDTH 0.017
AC$MASS_SPECTROMETRY: MASS_RANGE_M/Z 94.8796-1505.18
AC$CHROMATOGRAPHY: COLUMN_NAME Waters Acquity BEH C18 1.7um x 2.1 x 150 mm
AC$CHROMATOGRAPHY: FLOW_GRADIENT 95/5 at 0 min, 20/80 at 35 min; 5/95 at 35 min, 5/95 at 38 min; 95/5 at 38.1 min, 95/5 at 45 min
AC$CHROMATOGRAPHY: FLOW_RATE FLOW_RATE 560 uL / min
AC$CHROMATOGRAPHY: SOLVENT A water with 0.05% formic acid
AC$CHROMATOGRAPHY: SOLVENT B acetonitrile with 0.05 % formic acid
AC$CHROMATOGRAPHY: RETENTION_TIME 563.4 sec
MS$FOCUSED_ION: PRECURSOR_M/Z 269.1
MS$FOCUSED_ION: PRECURSOR_TYPE [M-H]-
MS$DATA_PROCESSING: WHOLE convert from Bruker Library Editor (https://github.com/MassBank/MassBank2NIST)
PK$SPLASH: splash10-001i-0900000000-ad50062f85b9c32e1426
PK$NUM_PEAK: 23
PK$PEAK: m/z int. rel.int.
  105.0368 66 66
  107.0147 116 116
  117.0359 299 299
  130.0440 121 121
  131.0518 126 126
  132.0235 953 953
  133.0311 999 999
  134.0381 632 632
  135.0459 437 437
  136.0496 83 83
  141.0349 108 108
  143.0518 108 108
  154.0441 87 87
  155.0535 114 114
  156.0378 76 76
  157.0314 188 188
  158.0371 99 99
  159.0472 204 204
  171.0506 67 67
  180.0596 92 92
  182.0400 83 83
  195.0493 73 73
  223.0442 116 116
//
