ACCESSION: MSBNK-BS-BS003756
RECORD_TITLE: 3',4'-Dimethoxy-7-hydroxyflavone; LC-ESI-QTOF; MS2; CE:20 eV; [M-H]-
DATE: 2017.12.01 (Created 2014.01.04)
AUTHORS: Plant Biology, The Noble Foundation, Ardmore, OK, US/Dennis Fine, Daniel Wherritt, and Lloyd Sumner
LICENSE: CC BY-NC-SA
CH$NAME: 3',4'-Dimethoxy-7-hydroxyflavone
CH$COMPOUND_CLASS: Natural Product; N/A
CH$FORMULA: C17H14O5
CH$EXACT_MASS: 298.0841
CH$SMILES: C(OC1=C(C(=C(C(=C1[H])[H])C2=C(C(=O)C3=C(O2)C(=C(C(=C3[H])[H])O[H])[H])[H])[H])OC([H])([H])[H])([H])([H])[H]
CH$IUPAC: InChI=1S/C17H14O5/c1-20-14-6-3-10(7-17(14)21-2)15-9-13(19)12-5-4-11(18)8-16(12)22-15/h3-9,18H,1-2H3
CH$LINK: CAS 33513-36-9
CH$LINK: COMPTOX DTXSID50187153
CH$LINK: INCHIKEY MEDOAKSPIIOKFU-UHFFFAOYSA-N
CH$LINK: PUBCHEM CID:5378518
AC$INSTRUMENT: Bruker impact HD
AC$INSTRUMENT_TYPE: LC-ESI-QTOF
AC$MASS_SPECTROMETRY: MS_TYPE MS2
AC$MASS_SPECTROMETRY: ION_MODE NEGATIVE
AC$MASS_SPECTROMETRY: COLLISION_ENERGY 20 eV
AC$MASS_SPECTROMETRY: IONIZATION ESI
AC$MASS_SPECTROMETRY: ISOLATION_WIDTH 5
AC$MASS_SPECTROMETRY: PEAK_WIDTH 0.015
AC$MASS_SPECTROMETRY: MASS_RANGE_M/Z 94.8807-1505.26
AC$CHROMATOGRAPHY: COLUMN_NAME Waters Acquity BEH C18 1.7um x 2.1 x 150 mm
AC$CHROMATOGRAPHY: FLOW_GRADIENT 95/5 at 0 min, 20/80 at 35 min; 5/95 at 35 min, 5/95 at 38 min; 95/5 at 38.1 min, 95/5 at 45 min
AC$CHROMATOGRAPHY: FLOW_RATE FLOW_RATE 560 uL / min
AC$CHROMATOGRAPHY: SOLVENT A water with 0.05% formic acid
AC$CHROMATOGRAPHY: SOLVENT B acetonitrile with 0.05 % formic acid
AC$CHROMATOGRAPHY: RETENTION_TIME 744 sec
MS$FOCUSED_ION: PRECURSOR_M/Z 311.0935
MS$FOCUSED_ION: PRECURSOR_TYPE [M-H]-
MS$DATA_PROCESSING: WHOLE convert from Bruker Library Editor (https://github.com/MassBank/MassBank2NIST)
PK$SPLASH: splash10-03dj-0097000000-2ab4e6378baae3cb99ca
PK$NUM_PEAK: 18
PK$PEAK: m/z int. rel.int.
  253.0511 28 28
  254.0558 5 5
  266.0589 5 5
  267.0666 70 70
  268.0696 13 13
  269.0745 2 2
  279.0664 4 4
  281.0462 193 193
  282.0498 26 26
  283.0484 4 4
  294.0533 4 4
  295.0616 147 147
  296.0698 743 743
  297.0728 87 87
  298.0765 9 9
  311.0935 999 999
  312.0965 130 130
  313.0996 14 14
//
