ACCESSION: MSBNK-BS-BS003124
RECORD_TITLE: Vanillic acid; LC-ESI-QTOF; MS2; CE:20 eV; [M-H]-
DATE: 2017.12.01 (Created 2014.01.10)
AUTHORS: Plant Biology, The Noble Foundation, Ardmore, OK, US/Dennis Fine, Daniel Wherritt, and Lloyd Sumner
LICENSE: CC BY-NC-SA
CH$NAME: Vanillic acid
CH$COMPOUND_CLASS: Natural Product; N/A
CH$FORMULA: C8H8O4
CH$EXACT_MASS: 168.0423
CH$SMILES: C(OC1=C(C(=C(C(=C1[H])C(=O)O[H])[H])[H])O[H])([H])([H])[H]
CH$IUPAC: InChI=1S/C8H8O4/c1-12-7-4-5(8(10)11)2-3-6(7)9/h2-4,9H,1H3,(H,10,11)
CH$LINK: CAS 121-34-6
CH$LINK: COMPTOX DTXSID6059522
CH$LINK: INCHIKEY WKOLLVMJNQIZCI-UHFFFAOYSA-N
CH$LINK: PUBCHEM CID:8468
AC$INSTRUMENT: Bruker impact HD
AC$INSTRUMENT_TYPE: LC-ESI-QTOF
AC$MASS_SPECTROMETRY: MS_TYPE MS2
AC$MASS_SPECTROMETRY: ION_MODE NEGATIVE
AC$MASS_SPECTROMETRY: COLLISION_ENERGY 20 eV
AC$MASS_SPECTROMETRY: IONIZATION ESI
AC$MASS_SPECTROMETRY: ISOLATION_WIDTH 5
AC$MASS_SPECTROMETRY: PEAK_WIDTH 0.015
AC$MASS_SPECTROMETRY: MASS_RANGE_M/Z 94.8802-1505.2
AC$CHROMATOGRAPHY: COLUMN_NAME Waters Acquity BEH C18 1.7um x 2.1 x 150 mm
AC$CHROMATOGRAPHY: FLOW_GRADIENT 95/5 at 0 min, 20/80 at 35 min; 5/95 at 35 min, 5/95 at 38 min; 95/5 at 38.1 min, 95/5 at 45 min
AC$CHROMATOGRAPHY: FLOW_RATE FLOW_RATE 560 uL / min
AC$CHROMATOGRAPHY: SOLVENT A water with 0.05% formic acid
AC$CHROMATOGRAPHY: SOLVENT B acetonitrile with 0.05 % formic acid
AC$CHROMATOGRAPHY: RETENTION_TIME 154.8 sec
MS$FOCUSED_ION: PRECURSOR_M/Z 167.1
MS$FOCUSED_ION: PRECURSOR_TYPE [M-H]-
MS$DATA_PROCESSING: WHOLE convert from Bruker Library Editor (https://github.com/MassBank/MassBank2NIST)
PK$SPLASH: splash10-0a4i-0900000000-8e112ffa4dcc7c08b0fd
PK$NUM_PEAK: 2
PK$PEAK: m/z int. rel.int.
  108.0216 999 999
  152.0119 370 370
//
