ACCESSION: MSBNK-BS-BS003614
RECORD_TITLE: Hispidulin; LC-ESI-QTOF; MS2; CE:40 eV; [M-H]-
DATE: 2017.12.01 (Created 2013.11.23)
AUTHORS: Plant Biology, The Noble Foundation, Ardmore, OK, US/Dennis Fine, Daniel Wherritt, and Lloyd Sumner
LICENSE: CC BY-NC-SA
CH$NAME: Hispidulin
CH$COMPOUND_CLASS: Natural Product; N/A
CH$FORMULA: C16H12O6
CH$EXACT_MASS: 300.0634
CH$SMILES: C(OC1=C(C2=C(C(=C1O[H])[H])OC(=C(C2=O)[H])C3=C(C(=C(C(=C3[H])[H])O[H])[H])[H])O[H])([H])([H])[H]
CH$IUPAC: InChI=1S/C16H12O6/c1-21-16-11(19)7-13-14(15(16)20)10(18)6-12(22-13)8-2-4-9(17)5-3-8/h2-7,17,19-20H,1H3
CH$LINK: CAS 1447-88-7
CH$LINK: COMPTOX DTXSID30162786
CH$LINK: INCHIKEY IHFBPDAQLQOCBX-UHFFFAOYSA-N
CH$LINK: PUBCHEM CID:5281628
AC$INSTRUMENT: Bruker impact HD
AC$INSTRUMENT_TYPE: LC-ESI-QTOF
AC$MASS_SPECTROMETRY: MS_TYPE MS2
AC$MASS_SPECTROMETRY: ION_MODE NEGATIVE
AC$MASS_SPECTROMETRY: COLLISION_ENERGY 40 eV
AC$MASS_SPECTROMETRY: IONIZATION ESI
AC$MASS_SPECTROMETRY: ISOLATION_WIDTH 5
AC$MASS_SPECTROMETRY: PEAK_WIDTH 0.017
AC$MASS_SPECTROMETRY: MASS_RANGE_M/Z 94.8825-1505.22
AC$CHROMATOGRAPHY: COLUMN_NAME Waters Acquity BEH C18 1.7um x 2.1 x 150 mm
AC$CHROMATOGRAPHY: FLOW_GRADIENT 95/5 at 0 min, 20/80 at 35 min; 5/95 at 35 min, 5/95 at 38 min; 95/5 at 38.1 min, 95/5 at 45 min
AC$CHROMATOGRAPHY: FLOW_RATE FLOW_RATE 560 uL / min
AC$CHROMATOGRAPHY: SOLVENT A water with 0.05% formic acid
AC$CHROMATOGRAPHY: SOLVENT B acetonitrile with 0.05 % formic acid
AC$CHROMATOGRAPHY: RETENTION_TIME 621 sec
MS$FOCUSED_ION: PRECURSOR_M/Z 299.05
MS$FOCUSED_ION: PRECURSOR_TYPE [M-H]-
MS$DATA_PROCESSING: WHOLE convert from Bruker Library Editor (https://github.com/MassBank/MassBank2NIST)
PK$SPLASH: splash10-0040-0690000000-5fbad78704cd6c99bdca
PK$NUM_PEAK: 11
PK$PEAK: m/z int. rel.int.
  117.0350 286 286
  136.9878 999 999
  156.0562 195 195
  183.0447 234 234
  186.0334 222 222
  211.0398 196 196
  227.0350 561 561
  228.0426 266 266
  255.0297 260 260
  283.0259 472 472
  284.0327 818 818
//
