ACCESSION: MSBNK-BS-BS001194
RECORD_TITLE: 3-GlcA-28-Glc oleanolic acid (NMR); LC-ESI-QTOF; MS2; CE:48 eV; [M-H]-
DATE: 2017.12.01 (Created 2014.12.12)
AUTHORS: Plant Biology, The Noble Foundation, Ardmore, OK, US/Dennis Fine, Daniel Wherritt, and Lloyd Sumner
LICENSE: CC BY-NC-SA
CH$NAME: 3-GlcA-28-Glc oleanolic acid (NMR)
CH$COMPOUND_CLASS: Natural Product; N/A
CH$FORMULA: C42H66O14
CH$EXACT_MASS: 794.4453
CH$SMILES: C1[C@@H](C(C2[C@](C1)(C3[C@@](CC2)([C@]4(C(=CC3)[C@]5([C@@](CC4)(CCC(C5)(C)C)C(O[C@H]6[C@@H]([C@H]([C@@H]([C@H](O6)CO)O)O)O)=O)[H])C)C)C)(C)C)O[C@@H]7O[C@@H]([C@H]([C@@H]([C@H]7O)O)O)C(=O)O
CH$IUPAC: InChI=1S/C42H66O14/c1-37(2)14-16-42(36(52)56-34-30(48)27(45)26(44)22(19-43)53-34)17-15-40(6)20(21(42)18-37)8-9-24-39(5)12-11-25(38(3,4)23(39)10-13-41(24,40)7)54-35-31(49)28(46)29(47)32(55-35)33(50)51/h8,21-32,34-35,43-49H,9-19H2,1-7H3,(H,50,51)/t21-,22+,23?,24?,25-,26+,27-,28-,29-,30+,31+,32-,34-,35+,39-,40+,41+,42-/m0/s1
CH$LINK: INCHIKEY YOSRLTNUOCHBEA-XFBOPQPKSA-N
CH$LINK: PUBCHEM CID:134782085
AC$INSTRUMENT: Bruker impact HD
AC$INSTRUMENT_TYPE: LC-ESI-QTOF
AC$MASS_SPECTROMETRY: MS_TYPE MS2
AC$MASS_SPECTROMETRY: ION_MODE NEGATIVE
AC$MASS_SPECTROMETRY: COLLISION_ENERGY 48 eV
AC$MASS_SPECTROMETRY: IONIZATION ESI
AC$MASS_SPECTROMETRY: PEAK_WIDTH 0.012
AC$MASS_SPECTROMETRY: MASS_RANGE_M/Z 100-1500
AC$CHROMATOGRAPHY: COLUMN_NAME Waters Acquity BEH C18 1.7um x 2.1 x 150 mm
AC$CHROMATOGRAPHY: FLOW_GRADIENT 95/5 at 0 min, 20/80 at 35 min; 5/95 at 35 min, 5/95 at 38 min; 95/5 at 38.1 min, 95/5 at 45 min
AC$CHROMATOGRAPHY: FLOW_RATE FLOW_RATE 560 uL / min
AC$CHROMATOGRAPHY: SOLVENT A water with 0.05% formic acid
AC$CHROMATOGRAPHY: SOLVENT B acetonitrile with 0.05 % formic acid
AC$CHROMATOGRAPHY: RETENTION_TIME 945 sec
MS$FOCUSED_ION: PRECURSOR_M/Z 793.4521
MS$FOCUSED_ION: PRECURSOR_TYPE [M-H]-
MS$DATA_PROCESSING: WHOLE convert from Bruker Library Editor (https://github.com/MassBank/MassBank2NIST)
PK$SPLASH: splash10-0006-0000000900-805bd5a34ebd9ff296d3
PK$NUM_PEAK: 9
PK$PEAK: m/z int. rel.int.
  455.3521 81 81
  569.3828 134 134
  570.3809 19 19
  631.3824 102 102
  632.3814 34 34
  793.4348 999 999
  794.4368 405 405
  795.4225 37 37
  795.4499 65 65
//
