ACCESSION: MSBNK-BS-BS003480
RECORD_TITLE: Kaempferol-3-O-glucoside; LC-ESI-QTOF; MS2; CE:50 eV; [M-H]-
DATE: 2017.12.01 (Created 2013.11.22)
AUTHORS: Plant Biology, The Noble Foundation, Ardmore, OK, US/Dennis Fine, Daniel Wherritt, and Lloyd Sumner
LICENSE: CC BY-NC-SA
CH$NAME: Kaempferol-3-O-glucoside
CH$COMPOUND_CLASS: Natural Product; N/A
CH$FORMULA: C21H20O11
CH$EXACT_MASS: 448.1006
CH$SMILES: C1(=C(C(=C(C(=C1C2=C(C(=O)C3=C(C(=C(C(=C3O2)[H])O[H])[H])O[H])OC4(C(C(C(C(O4)(C(O[H])([H])[H])[H])(O[H])[H])(O[H])[H])(O[H])[H])[H])[H])[H])O[H])[H])[H]
CH$IUPAC: InChI=1S/C21H20O11/c22-7-13-15(26)17(28)18(29)21(31-13)32-20-16(27)14-11(25)5-10(24)6-12(14)30-19(20)8-1-3-9(23)4-2-8/h1-6,13,15,17-18,21-26,28-29H,7H2/t13-,15-,17+,18-,21+/m1/s1
CH$LINK: INCHIKEY JPUKWEQWGBDDQB-QSOFNFLRSA-N
CH$LINK: CAS 480-10-4
AC$INSTRUMENT: Bruker impact HD
AC$INSTRUMENT_TYPE: LC-ESI-QTOF
AC$MASS_SPECTROMETRY: MS_TYPE MS2
AC$MASS_SPECTROMETRY: ION_MODE NEGATIVE
AC$MASS_SPECTROMETRY: COLLISION_ENERGY 50 eV
AC$MASS_SPECTROMETRY: IONIZATION ESI
AC$MASS_SPECTROMETRY: ISOLATION_WIDTH 5
AC$MASS_SPECTROMETRY: PEAK_WIDTH 0.013
AC$MASS_SPECTROMETRY: MASS_RANGE_M/Z 94.8796-1505.22
AC$CHROMATOGRAPHY: COLUMN_NAME Waters Acquity BEH C18 1.7um x 2.1 x 150 mm
AC$CHROMATOGRAPHY: FLOW_GRADIENT 95/5 at 0 min, 20/80 at 35 min; 5/95 at 35 min, 5/95 at 38 min; 95/5 at 38.1 min, 95/5 at 45 min
AC$CHROMATOGRAPHY: FLOW_RATE FLOW_RATE 560 uL / min
AC$CHROMATOGRAPHY: SOLVENT A water with 0.05% formic acid
AC$CHROMATOGRAPHY: SOLVENT B acetonitrile with 0.05 % formic acid
AC$CHROMATOGRAPHY: RETENTION_TIME 362.4 sec
MS$FOCUSED_ION: PRECURSOR_M/Z 447.09
MS$FOCUSED_ION: PRECURSOR_TYPE [M-H]-
MS$DATA_PROCESSING: WHOLE convert from Bruker Library Editor (https://github.com/MassBank/MassBank2NIST)
PK$SPLASH: splash10-0a6r-0090000000-364026dfdcefd0d2e3a9
PK$NUM_PEAK: 25
PK$PEAK: m/z int. rel.int.
  132.0244 3 3
  151.0049 4 4
  163.0057 3 3
  183.0454 4 4
  187.0417 3 3
  200.0470 3 3
  211.0393 7 7
  212.0424 2 2
  226.0239 5 5
  227.0343 999 999
  228.0381 115 115
  229.0477 29 29
  230.0524 5 5
  239.0349 10 10
  240.0381 4 4
  241.0481 5 5
  243.0260 3 3
  255.0294 987 987
  256.0335 162 162
  257.0378 22 22
  258.0453 4 4
  283.0227 3 3
  284.0324 161 161
  285.0388 72 72
  286.0442 11 11
//
