ACCESSION: MSBNK-BS-BS003652
RECORD_TITLE: Neohesperidin; LC-ESI-QTOF; MS2; CE:30 eV; [M-H]-
DATE: 2017.12.01 (Created 2014.01.04)
AUTHORS: Plant Biology, The Noble Foundation, Ardmore, OK, US/Dennis Fine, Daniel Wherritt, and Lloyd Sumner
LICENSE: CC BY-NC-SA
CH$NAME: Neohesperidin
CH$COMPOUND_CLASS: Natural Product; N/A
CH$FORMULA: C28H34O15
CH$EXACT_MASS: 610.1898
CH$SMILES: C(C1(C(C(C(C(O1)(OC2(C(C(C(OC2(OC=3C(=C(C4=C(C3[H])OC(C(C4=O)([H])[H])(C=5C(=C(C(=C(C5[H])O[H])OC([H])([H])[H])[H])[H])[H])O[H])[H])[H])(C(O[H])([H])[H])[H])(O[H])[H])(O[H])[H])[H])[H])(O[H])[H])(O[H])[H])(O[H])[H])[H])([H])([H])[H]
CH$IUPAC: InChI=1S/C28H34O15/c1-10-21(33)23(35)25(37)27(39-10)43-26-24(36)22(34)19(9-29)42-28(26)40-12-6-14(31)20-15(32)8-17(41-18(20)7-12)11-3-4-16(38-2)13(30)5-11/h3-7,10,17,19,21-31,33-37H,8-9H2,1-2H3/t10-,17-,19+,21-,22+,23+,24-,25+,26+,27-,28+/m0/s1
CH$LINK: INCHIKEY ARGKVCXINMKCAZ-UZRWAPQLSA-N
CH$LINK: CAS 13241-33-3
AC$INSTRUMENT: Bruker impact HD
AC$INSTRUMENT_TYPE: LC-ESI-QTOF
AC$MASS_SPECTROMETRY: MS_TYPE MS2
AC$MASS_SPECTROMETRY: ION_MODE NEGATIVE
AC$MASS_SPECTROMETRY: COLLISION_ENERGY 30 eV
AC$MASS_SPECTROMETRY: IONIZATION ESI
AC$MASS_SPECTROMETRY: ISOLATION_WIDTH 5
AC$MASS_SPECTROMETRY: PEAK_WIDTH 0.014
AC$MASS_SPECTROMETRY: MASS_RANGE_M/Z 94.8811-1505.23
AC$CHROMATOGRAPHY: COLUMN_NAME Waters Acquity BEH C18 1.7um x 2.1 x 150 mm
AC$CHROMATOGRAPHY: FLOW_GRADIENT 95/5 at 0 min, 20/80 at 35 min; 5/95 at 35 min, 5/95 at 38 min; 95/5 at 38.1 min, 95/5 at 45 min
AC$CHROMATOGRAPHY: FLOW_RATE FLOW_RATE 560 uL / min
AC$CHROMATOGRAPHY: SOLVENT A water with 0.05% formic acid
AC$CHROMATOGRAPHY: SOLVENT B acetonitrile with 0.05 % formic acid
AC$CHROMATOGRAPHY: RETENTION_TIME 447 sec
MS$FOCUSED_ION: PRECURSOR_M/Z 609.1788
MS$FOCUSED_ION: PRECURSOR_TYPE [M-H]-
MS$DATA_PROCESSING: WHOLE convert from Bruker Library Editor (https://github.com/MassBank/MassBank2NIST)
PK$SPLASH: splash10-0a4i-0003009000-68522ebdb396405fee53
PK$NUM_PEAK: 6
PK$PEAK: m/z int. rel.int.
  301.0717 446 446
  302.0719 75 75
  343.0917 49 49
  609.1788 999 999
  610.1800 244 244
  611.1902 59 59
//
