ACCESSION: MSBNK-BS-BS002017
RECORD_TITLE: Hex-hex-hexA-Bayogenin (PUT); LC-ESI-QTOF; MS2; CE:55 eV; [M-H]-
DATE: 2017.12.01 (Created 2014.12.12)
AUTHORS: Plant Biology, The Noble Foundation, Ardmore, OK, US/Dennis Fine, Daniel Wherritt, and Lloyd Sumner
LICENSE: CC BY-NC-SA
CH$NAME: Hex-hex-hexA-Bayogenin (PUT)
CH$COMPOUND_CLASS: Natural Product; N/A
CH$FORMULA: C48H76O21
CH$EXACT_MASS: 988.4879
CH$SMILES: N/A
CH$IUPAC: N/A
AC$INSTRUMENT: Bruker impact HD
AC$INSTRUMENT_TYPE: LC-ESI-QTOF
AC$MASS_SPECTROMETRY: MS_TYPE MS2
AC$MASS_SPECTROMETRY: ION_MODE NEGATIVE
AC$MASS_SPECTROMETRY: COLLISION_ENERGY 55 eV
AC$MASS_SPECTROMETRY: IONIZATION ESI
AC$MASS_SPECTROMETRY: PEAK_WIDTH 0.015
AC$MASS_SPECTROMETRY: MASS_RANGE_M/Z 100-1500
AC$CHROMATOGRAPHY: COLUMN_NAME Waters Acquity BEH C18 1.7um x 2.1 x 150 mm
AC$CHROMATOGRAPHY: FLOW_GRADIENT 95/5 at 0 min, 20/80 at 35 min; 5/95 at 35 min, 5/95 at 38 min; 95/5 at 38.1 min, 95/5 at 45 min
AC$CHROMATOGRAPHY: FLOW_RATE FLOW_RATE 560 uL / min
AC$CHROMATOGRAPHY: SOLVENT A water with 0.05% formic acid
AC$CHROMATOGRAPHY: SOLVENT B acetonitrile with 0.05 % formic acid
AC$CHROMATOGRAPHY: RETENTION_TIME 720.6 sec
MS$FOCUSED_ION: PRECURSOR_M/Z 987.4769
MS$FOCUSED_ION: PRECURSOR_TYPE [M-H]-
MS$DATA_PROCESSING: WHOLE convert from Bruker Library Editor (https://github.com/MassBank/MassBank2NIST)
PK$SPLASH: splash10-000i-0000100009-99c67ab2cf091877f768
PK$NUM_PEAK: 19
PK$PEAK: m/z int. rel.int.
  113.0208 10 10
  113.0238 11 11
  439.3272 23 23
  440.3231 8 8
  469.3299 22 22
  487.3401 146 146
  488.3438 41 41
  489.3488 7 7
  583.3591 88 88
  584.3711 12 12
  601.3837 14 14
  602.3721 10 10
  619.3793 36 36
  825.4212 34 34
  826.4238 10 10
  987.4785 999 999
  988.4797 480 480
  989.4850 147 147
  990.4757 10 10
//
