ACCESSION: MSBNK-BS-BS003221
RECORD_TITLE: Kaempferide; LC-ESI-QTOF; MS2; CE:10 eV; [M-H]-
DATE: 2017.12.01 (Created 2013.11.16)
AUTHORS: Plant Biology, The Noble Foundation, Ardmore, OK, US/Dennis Fine, Daniel Wherritt, and Lloyd Sumner
LICENSE: CC BY-NC-SA
CH$NAME: Kaempferide
CH$COMPOUND_CLASS: Natural Product; N/A
CH$FORMULA: C16H12O6
CH$EXACT_MASS: 300.0634
CH$SMILES: C(OC1=C(C(=C(C(=C1[H])[H])C2=C(C(=O)C3=C(C(=C(C(=C3O2)[H])O[H])[H])O[H])O[H])[H])[H])([H])([H])[H]
CH$IUPAC: InChI=1S/C16H12O6/c1-21-10-4-2-8(3-5-10)16-15(20)14(19)13-11(18)6-9(17)7-12(13)22-16/h2-7,17-18,20H,1H3
CH$LINK: CAS 491-54-3
CH$LINK: COMPTOX DTXSID9034155
CH$LINK: INCHIKEY SQFSKOYWJBQGKQ-UHFFFAOYSA-N
CH$LINK: PUBCHEM CID:5281666
AC$INSTRUMENT: Bruker impact HD
AC$INSTRUMENT_TYPE: LC-ESI-QTOF
AC$MASS_SPECTROMETRY: MS_TYPE MS2
AC$MASS_SPECTROMETRY: ION_MODE NEGATIVE
AC$MASS_SPECTROMETRY: COLLISION_ENERGY 10 eV
AC$MASS_SPECTROMETRY: IONIZATION ESI
AC$MASS_SPECTROMETRY: ISOLATION_WIDTH 5
AC$MASS_SPECTROMETRY: PEAK_WIDTH 0.012
AC$MASS_SPECTROMETRY: MASS_RANGE_M/Z 94.8801-1505.16
AC$CHROMATOGRAPHY: COLUMN_NAME Waters Acquity BEH C18 1.7um x 2.1 x 150 mm
AC$CHROMATOGRAPHY: FLOW_GRADIENT 95/5 at 0 min, 20/80 at 35 min; 5/95 at 35 min, 5/95 at 38 min; 95/5 at 38.1 min, 95/5 at 45 min
AC$CHROMATOGRAPHY: FLOW_RATE FLOW_RATE 560 uL / min
AC$CHROMATOGRAPHY: SOLVENT A water with 0.05% formic acid
AC$CHROMATOGRAPHY: SOLVENT B acetonitrile with 0.05 % formic acid
AC$CHROMATOGRAPHY: RETENTION_TIME 882.6 sec
MS$FOCUSED_ION: PRECURSOR_M/Z 299.0585
MS$FOCUSED_ION: PRECURSOR_TYPE [M-H]-
MS$DATA_PROCESSING: WHOLE convert from Bruker Library Editor (https://github.com/MassBank/MassBank2NIST)
PK$SPLASH: splash10-0002-0091000000-57350f569441ea5d880f
PK$NUM_PEAK: 3
PK$PEAK: m/z int. rel.int.
  284.0351 21 21
  299.0585 999 999
  300.0624 122 122
//
