ACCESSION: MSBNK-BS-BS003239
RECORD_TITLE: Hederagenin; LC-ESI-QTOF; MS2; CE:40 eV; [M-H]-
DATE: 2017.12.01 (Created 2013.11.18)
AUTHORS: Plant Biology, The Noble Foundation, Ardmore, OK, US/Dennis Fine, Daniel Wherritt, and Lloyd Sumner
LICENSE: CC BY-NC-SA
CH$NAME: Hederagenin
CH$COMPOUND_CLASS: Natural Product; N/A
CH$FORMULA: C30H48O4
CH$EXACT_MASS: 472.3553
CH$SMILES: C([C@]12C(C([C@@]([H])([C@@]([C@]1([H])C(C([C@@]3([C@]2([H])C(C(=C4[C@]3(C(C([C@@]5([C@@]4([H])C(C(C(C5([H])[H])([H])[H])(C([H])([H])[H])C([H])([H])[H])([H])[H])C(=O)O[H])([H])[H])([H])[H])C([H])([H])[H])[H])([H])[H])C([H])([H])[H])([H])[H])([H])[H])(C([H])([H])[H])C(O[H])([H])[H])O[H])([H])[H])([H])[H])([H])([H])[H]
CH$IUPAC: InChI=1S/C30H48O4/c1-25(2)13-15-30(24(33)34)16-14-28(5)19(20(30)17-25)7-8-22-26(3)11-10-23(32)27(4,18-31)21(26)9-12-29(22,28)6/h7,20-23,31-32H,8-18H2,1-6H3,(H,33,34)/t20-,21+,22+,23-,26-,27-,28+,29+,30-/m0/s1
CH$LINK: CAS 465-99-6
CH$LINK: INCHIKEY PGOYMURMZNDHNS-MYPRUECHSA-N
CH$LINK: PUBCHEM CID:73299
AC$INSTRUMENT: Bruker impact HD
AC$INSTRUMENT_TYPE: LC-ESI-QTOF
AC$MASS_SPECTROMETRY: MS_TYPE MS2
AC$MASS_SPECTROMETRY: ION_MODE NEGATIVE
AC$MASS_SPECTROMETRY: COLLISION_ENERGY 40 eV
AC$MASS_SPECTROMETRY: IONIZATION ESI
AC$MASS_SPECTROMETRY: ISOLATION_WIDTH 5
AC$MASS_SPECTROMETRY: PEAK_WIDTH 0.015
AC$MASS_SPECTROMETRY: MASS_RANGE_M/Z 94.8784-1505.16
AC$CHROMATOGRAPHY: COLUMN_NAME Waters Acquity BEH C18 1.7um x 2.1 x 150 mm
AC$CHROMATOGRAPHY: FLOW_GRADIENT 95/5 at 0 min, 20/80 at 35 min; 5/95 at 35 min, 5/95 at 38 min; 95/5 at 38.1 min, 95/5 at 45 min
AC$CHROMATOGRAPHY: FLOW_RATE FLOW_RATE 560 uL / min
AC$CHROMATOGRAPHY: SOLVENT A water with 0.05% formic acid
AC$CHROMATOGRAPHY: SOLVENT B acetonitrile with 0.05 % formic acid
AC$CHROMATOGRAPHY: RETENTION_TIME 1343.4 sec
MS$FOCUSED_ION: PRECURSOR_M/Z 471.3573
MS$FOCUSED_ION: PRECURSOR_TYPE [M-H]-
MS$DATA_PROCESSING: WHOLE convert from Bruker Library Editor (https://github.com/MassBank/MassBank2NIST)
PK$SPLASH: splash10-00di-0000900000-7c3f336e3c13e550dc6c
PK$NUM_PEAK: 4
PK$PEAK: m/z int. rel.int.
  407.3367 152 152
  471.3573 999 999
  472.3577 338 338
  473.3643 81 81
//
