ACCESSION: MSBNK-BS-BS003663
RECORD_TITLE: Scutellarein; LC-ESI-QTOF; MS2; CE:20 eV; [M-H]-
DATE: 2017.12.01 (Created 2014.01.09)
AUTHORS: Plant Biology, The Noble Foundation, Ardmore, OK, US/Dennis Fine, Daniel Wherritt, and Lloyd Sumner
LICENSE: CC BY-NC-SA
CH$NAME: Scutellarein
CH$COMPOUND_CLASS: Natural Product; N/A
CH$FORMULA: C15H10O6
CH$EXACT_MASS: 286.0477
CH$SMILES: C1(=C(C(=C(C(=C1C2=C(C(=O)C3=C(O2)C(=C(C(=C3O[H])O[H])O[H])[H])[H])[H])[H])O[H])[H])[H]
CH$IUPAC: InChI=1S/C15H10O6/c16-8-3-1-7(2-4-8)11-5-9(17)13-12(21-11)6-10(18)14(19)15(13)20/h1-6,16,18-20H
CH$LINK: CAS 529-53-3
CH$LINK: COMPTOX DTXSID40200946
CH$LINK: INCHIKEY JVXZRQGOGOXCEC-UHFFFAOYSA-N
CH$LINK: PUBCHEM CID:5281697
AC$INSTRUMENT: Bruker impact HD
AC$INSTRUMENT_TYPE: LC-ESI-QTOF
AC$MASS_SPECTROMETRY: MS_TYPE MS2
AC$MASS_SPECTROMETRY: ION_MODE NEGATIVE
AC$MASS_SPECTROMETRY: COLLISION_ENERGY 20 eV
AC$MASS_SPECTROMETRY: IONIZATION ESI
AC$MASS_SPECTROMETRY: ISOLATION_WIDTH 5
AC$MASS_SPECTROMETRY: PEAK_WIDTH 0.014
AC$MASS_SPECTROMETRY: MASS_RANGE_M/Z 94.8809-1505.21
AC$CHROMATOGRAPHY: COLUMN_NAME Waters Acquity BEH C18 1.7um x 2.1 x 150 mm
AC$CHROMATOGRAPHY: FLOW_GRADIENT 95/5 at 0 min, 20/80 at 35 min; 5/95 at 35 min, 5/95 at 38 min; 95/5 at 38.1 min, 95/5 at 45 min
AC$CHROMATOGRAPHY: FLOW_RATE FLOW_RATE 560 uL / min
AC$CHROMATOGRAPHY: SOLVENT A water with 0.05% formic acid
AC$CHROMATOGRAPHY: SOLVENT B acetonitrile with 0.05 % formic acid
AC$CHROMATOGRAPHY: RETENTION_TIME 427.8 sec
MS$FOCUSED_ION: PRECURSOR_M/Z 283.026
MS$FOCUSED_ION: PRECURSOR_TYPE [M-H]-
MS$DATA_PROCESSING: WHOLE convert from Bruker Library Editor (https://github.com/MassBank/MassBank2NIST)
PK$SPLASH: splash10-000i-0090000000-dfb81d7bffac0efa5dd2
PK$NUM_PEAK: 11
PK$PEAK: m/z int. rel.int.
  117.0340 45 45
  163.0046 24 24
  227.0352 32 32
  239.0338 24 24
  255.0308 353 353
  256.0345 31 31
  267.0327 26 26
  283.0260 292 292
  284.0289 34 34
  285.0415 999 999
  286.0453 82 82
//
