ACCESSION: MSBNK-BS-BS003419
RECORD_TITLE: 7-Hydroxy-2'-methoxyflavone; LC-ESI-QTOF; MS2; CE:30 eV; [M-H]-
DATE: 2017.12.01 (Created 2014.07.26)
AUTHORS: Plant Biology, The Noble Foundation, Ardmore, OK, US/Dennis Fine, Daniel Wherritt, and Lloyd Sumner
LICENSE: CC BY-NC-SA
CH$NAME: 7-Hydroxy-2'-methoxyflavone
CH$COMPOUND_CLASS: Natural Product; N/A
CH$FORMULA: C16H12O4
CH$EXACT_MASS: 268.0736
CH$SMILES: O=C1C=2C(OC(=C1[H])C=3C(=C(C(=C(C3OC([H])([H])[H])[H])[H])[H])[H])=C(C(O[H])=C(C2[H])[H])[H]
CH$IUPAC: InChI=1S/C16H12O4/c1-19-14-5-3-2-4-12(14)16-9-13(18)11-7-6-10(17)8-15(11)20-16/h2-9,17H,1H3
CH$LINK: CAS 77298-65-8
CH$LINK: INCHIKEY PFEQKIBOPJQNBI-UHFFFAOYSA-N
CH$LINK: PUBCHEM CID:5391150
AC$INSTRUMENT: Bruker impact HD
AC$INSTRUMENT_TYPE: LC-ESI-QTOF
AC$MASS_SPECTROMETRY: MS_TYPE MS2
AC$MASS_SPECTROMETRY: ION_MODE NEGATIVE
AC$MASS_SPECTROMETRY: COLLISION_ENERGY 30 eV
AC$MASS_SPECTROMETRY: IONIZATION ESI
AC$MASS_SPECTROMETRY: ISOLATION_WIDTH 5
AC$MASS_SPECTROMETRY: PEAK_WIDTH 0.012
AC$MASS_SPECTROMETRY: MASS_RANGE_M/Z 94.8486-1505.15
AC$CHROMATOGRAPHY: COLUMN_NAME Waters Acquity BEH C18 1.7um x 2.1 x 150 mm
AC$CHROMATOGRAPHY: FLOW_GRADIENT 95/5 at 0 min, 20/80 at 35 min; 5/95 at 35 min, 5/95 at 38 min; 95/5 at 38.1 min, 95/5 at 45 min
AC$CHROMATOGRAPHY: FLOW_RATE FLOW_RATE 560 uL / min
AC$CHROMATOGRAPHY: SOLVENT A water with 0.05% formic acid
AC$CHROMATOGRAPHY: SOLVENT B acetonitrile with 0.05 % formic acid
AC$CHROMATOGRAPHY: RETENTION_TIME 713.4 sec
MS$FOCUSED_ION: PRECURSOR_M/Z 267.0611
MS$FOCUSED_ION: PRECURSOR_TYPE [M-H]-
MS$DATA_PROCESSING: WHOLE convert from Bruker Library Editor (https://github.com/MassBank/MassBank2NIST)
PK$SPLASH: splash10-0udi-0190000000-dc7d5c4f1b0396ecafc1
PK$NUM_PEAK: 212
PK$PEAK: m/z int. rel.int.
  116.0270 1 1
  117.0344 29 29
  118.0365 2 2
  131.0491 7 7
  132.0205 38 38
  133.0283 26 26
  134.0314 2 2
  135.0075 7 7
  147.0412 1 1
  152.0602 2 2
  154.0397 9 9
  167.0467 3 3
  168.0550 2 2
  179.0467 11 11
  180.0546 56 56
  181.0580 5 5
  183.0414 5 5
  195.0412 32 32
  196.0487 41 41
  197.0531 4 4
  207.0410 10 10
  208.0486 67 67
  209.0518 9 9
  211.0360 16 16
  212.0380 1 1
  213.0488 1 1
  222.0260 2 2
  223.0354 111 111
  223.0698 1 1
  224.0437 441 441
  225.0466 50 50
  226.0481 3 3
  235.0358 5 5
  250.0227 5 5
  251.0309 999 999
  252.0372 399 399
  253.0406 45 45
  254.0440 3 3
  267.0611 70 70
  268.0651 11 11
  839.1794 1 1
  859.4079 1 1
  859.9354 1 1
  871.2224 1 1
  881.2956 1 1
  901.7333 1 1
  925.3580 1 1
  930.3935 1 1
  934.4387 1 1
  942.5375 1 1
  947.0218 1 1
  950.9128 1 1
  955.9245 1 1
  957.4324 1 1
  965.6786 1 1
  974.8699 1 1
  975.1443 1 1
  980.4233 1 1
  996.8054 1 1
  1001.1179 1 1
  1004.2946 1 1
  1005.1982 1 1
  1014.0180 1 1
  1016.0433 1 1
  1017.2419 1 1
  1025.7722 1 1
  1026.6991 1 1
  1027.2559 1 1
  1049.1266 1 1
  1054.9706 1 1
  1063.6102 1 1
  1063.9460 1 1
  1067.6545 1 1
  1071.0144 1 1
  1080.1855 1 1
  1080.2521 1 1
  1089.7151 1 1
  1094.3671 1 1
  1102.2183 1 1
  1109.6125 1 1
  1118.0464 1 1
  1118.9567 1 1
  1121.4923 1 1
  1123.4043 1 1
  1127.0601 1 1
  1127.6868 1 1
  1140.8840 1 1
  1145.0319 1 1
  1145.2617 1 1
  1147.3624 1 1
  1148.7925 1 1
  1149.3597 1 1
  1152.7063 1 1
  1160.5132 1 1
  1162.1633 1 1
  1174.9056 1 1
  1175.7629 1 1
  1176.6467 1 1
  1179.5198 1 1
  1180.1072 1 1
  1180.8370 1 1
  1183.4459 1 1
  1185.4363 1 1
  1188.1285 1 1
  1188.8331 1 1
  1193.2975 1 1
  1197.8401 1 1
  1202.2659 1 1
  1204.8478 1 1
  1219.8806 1 1
  1227.4402 1 1
  1228.5201 1 1
  1231.1158 1 1
  1232.9302 1 1
  1233.4520 1 1
  1240.8981 1 1
  1244.2798 1 1
  1256.9952 1 1
  1262.0941 1 1
  1264.2216 1 1
  1269.2722 1 1
  1270.7310 1 1
  1271.4912 1 1
  1275.5507 1 1
  1275.6278 1 1
  1279.7622 1 1
  1283.2797 1 1
  1283.9393 1 1
  1285.5063 1 1
  1288.0662 1 1
  1288.3571 1 1
  1290.2062 1 1
  1291.1143 1 1
  1293.6619 1 1
  1295.1211 1 1
  1297.1466 1 1
  1297.7262 1 1
  1300.9430 1 1
  1304.0339 1 1
  1304.8812 1 1
  1309.2611 1 1
  1309.8184 1 1
  1309.9946 1 1
  1310.7504 1 1
  1313.3561 1 1
  1314.0721 1 1
  1315.3411 1 1
  1315.8477 1 1
  1318.1489 1 1
  1322.2419 1 1
  1328.4473 1 1
  1330.5192 1 1
  1332.0161 1 1
  1332.7515 1 1
  1334.8918 1 1
  1337.9576 1 1
  1338.0630 1 1
  1338.2351 1 1
  1338.7710 1 1
  1342.1722 1 1
  1346.1722 1 1
  1353.6022 1 1
  1357.1960 1 1
  1362.9592 1 1
  1370.8147 1 1
  1371.9929 1 1
  1372.4037 1 1
  1373.5074 1 1
  1379.6194 1 1
  1379.9991 1 1
  1380.2644 1 1
  1380.2821 1 1
  1380.3291 1 1
  1385.1931 1 1
  1388.6240 1 1
  1389.8773 1 1
  1391.3208 1 1
  1395.9720 1 1
  1402.2109 1 1
  1403.9017 1 1
  1407.3627 1 1
  1418.0032 1 1
  1421.0337 1 1
  1424.2990 1 1
  1431.2582 1 1
  1433.9510 1 1
  1434.4825 1 1
  1437.4711 1 1
  1437.8525 1 1
  1441.0527 1 1
  1442.1847 1 1
  1444.9489 1 1
  1448.7366 1 1
  1457.2273 1 1
  1459.0577 1 1
  1460.6000 1 1
  1461.0393 1 1
  1468.0459 1 1
  1468.1163 1 1
  1468.3698 1 1
  1472.2511 1 1
  1476.7352 1 1
  1479.7960 1 1
  1482.8978 1 1
  1489.2013 1 1
  1493.9519 1 1
  1497.8888 1 1
  1498.0104 1 1
  1498.2223 1 1
  1500.4777 1 1
  1504.3110 1 1
  1504.8405 1 1
//
