ACCESSION: MSBNK-BS-BS003772
RECORD_TITLE: 3'-Hydroxyflavone; LC-ESI-QTOF; MS2; CE:30 eV; [M-H]-
DATE: 2017.12.01 (Created 2014.01.05)
AUTHORS: Plant Biology, The Noble Foundation, Ardmore, OK, US/Dennis Fine, Daniel Wherritt, and Lloyd Sumner
LICENSE: CC BY-NC-SA
CH$NAME: 3'-Hydroxyflavone
CH$COMPOUND_CLASS: Natural Product; N/A
CH$FORMULA: C15H10O3
CH$EXACT_MASS: 238.0630
CH$SMILES: C1(=C(C(=C2C(=C1[H])C(=O)C(=C(O2)C3=C(C(=C(C(=C3[H])[H])[H])O[H])[H])[H])[H])[H])[H]
CH$IUPAC: InChI=1S/C15H10O3/c16-11-5-3-4-10(8-11)15-9-13(17)12-6-1-2-7-14(12)18-15/h1-9,16H
CH$LINK: CAS 70460-18-3
CH$LINK: COMPTOX DTXSID70281647
CH$LINK: INCHIKEY ISZWRZGKEWQACU-UHFFFAOYSA-N
CH$LINK: PUBCHEM CID:229015
AC$INSTRUMENT: Bruker impact HD
AC$INSTRUMENT_TYPE: LC-ESI-QTOF
AC$MASS_SPECTROMETRY: MS_TYPE MS2
AC$MASS_SPECTROMETRY: ION_MODE NEGATIVE
AC$MASS_SPECTROMETRY: COLLISION_ENERGY 30 eV
AC$MASS_SPECTROMETRY: IONIZATION ESI
AC$MASS_SPECTROMETRY: ISOLATION_WIDTH 5
AC$MASS_SPECTROMETRY: PEAK_WIDTH 0.016
AC$MASS_SPECTROMETRY: MASS_RANGE_M/Z 94.8804-1505.22
AC$CHROMATOGRAPHY: COLUMN_NAME Waters Acquity BEH C18 1.7um x 2.1 x 150 mm
AC$CHROMATOGRAPHY: FLOW_GRADIENT 95/5 at 0 min, 20/80 at 35 min; 5/95 at 35 min, 5/95 at 38 min; 95/5 at 38.1 min, 95/5 at 45 min
AC$CHROMATOGRAPHY: FLOW_RATE FLOW_RATE 560 uL / min
AC$CHROMATOGRAPHY: SOLVENT A water with 0.05% formic acid
AC$CHROMATOGRAPHY: SOLVENT B acetonitrile with 0.05 % formic acid
AC$CHROMATOGRAPHY: RETENTION_TIME 680.4 sec
MS$FOCUSED_ION: PRECURSOR_M/Z 237.0574
MS$FOCUSED_ION: PRECURSOR_TYPE [M-H]-
MS$DATA_PROCESSING: WHOLE convert from Bruker Library Editor (https://github.com/MassBank/MassBank2NIST)
PK$SPLASH: splash10-014i-0920000000-3b799ca82f564c939f86
PK$NUM_PEAK: 6
PK$PEAK: m/z int. rel.int.
  117.0358 999 999
  118.0392 71 71
  209.0639 13 13
  235.0399 11 11
  237.0574 214 214
  238.0584 37 37
//
