ACCESSION: MSBNK-BS-BS003052
RECORD_TITLE: Prunetin; LC-ESI-QTOF; MS2; CE:10 eV; [M-H]-
DATE: 2017.12.01 (Created 2013.11.15)
AUTHORS: Plant Biology, The Noble Foundation, Ardmore, OK, US/Dennis Fine, Daniel Wherritt, and Lloyd Sumner
LICENSE: CC BY-NC-SA
CH$NAME: Prunetin
CH$COMPOUND_CLASS: Natural Product; N/A
CH$FORMULA: C16H12O5
CH$EXACT_MASS: 284.0685
CH$SMILES: C(OC1=C(C(=C2C(=C1[H])OC(=C(C2=O)C3=C(C(=C(C(=C3[H])[H])O[H])[H])[H])[H])O[H])[H])([H])([H])[H]
CH$IUPAC: InChI=1S/C16H12O5/c1-20-11-6-13(18)15-14(7-11)21-8-12(16(15)19)9-2-4-10(17)5-3-9/h2-8,17-18H,1H3
CH$LINK: CAS 552-59-0
CH$LINK: COMPTOX DTXSID3022530
CH$LINK: INCHIKEY KQMVAGISDHMXJJ-UHFFFAOYSA-N
CH$LINK: PUBCHEM CID:5281804
AC$INSTRUMENT: Bruker impact HD
AC$INSTRUMENT_TYPE: LC-ESI-QTOF
AC$MASS_SPECTROMETRY: MS_TYPE MS2
AC$MASS_SPECTROMETRY: ION_MODE NEGATIVE
AC$MASS_SPECTROMETRY: COLLISION_ENERGY 10 eV
AC$MASS_SPECTROMETRY: IONIZATION ESI
AC$MASS_SPECTROMETRY: ISOLATION_WIDTH 5
AC$MASS_SPECTROMETRY: PEAK_WIDTH 0.013
AC$MASS_SPECTROMETRY: MASS_RANGE_M/Z 94.8799-1505.19
AC$CHROMATOGRAPHY: COLUMN_NAME Waters Acquity BEH C18 1.7um x 2.1 x 150 mm
AC$CHROMATOGRAPHY: FLOW_GRADIENT 95/5 at 0 min, 20/80 at 35 min; 5/95 at 35 min, 5/95 at 38 min; 95/5 at 38.1 min, 95/5 at 45 min
AC$CHROMATOGRAPHY: FLOW_RATE FLOW_RATE 560 uL / min
AC$CHROMATOGRAPHY: SOLVENT A water with 0.05% formic acid
AC$CHROMATOGRAPHY: SOLVENT B acetonitrile with 0.05 % formic acid
AC$CHROMATOGRAPHY: RETENTION_TIME 871.2 sec
MS$FOCUSED_ION: PRECURSOR_M/Z 283.0634
MS$FOCUSED_ION: PRECURSOR_TYPE [M-H]-
MS$DATA_PROCESSING: WHOLE convert from Bruker Library Editor (https://github.com/MassBank/MassBank2NIST)
PK$SPLASH: splash10-001i-0090000000-306c2baf58cc6c40c407
PK$NUM_PEAK: 4
PK$PEAK: m/z int. rel.int.
  268.0399 47 47
  283.0634 999 999
  284.0671 117 117
  285.0691 24 24
//
