ACCESSION: MSBNK-BS-BS001122
RECORD_TITLE: 3-Gal(1-2)GluA Soyasapogenol B (NMR); LC-ESI-QTOF; MS2; CE:48 eV; [M-H]-
DATE: 2017.12.01 (Created 2014.12.12)
AUTHORS: Plant Biology, The Noble Foundation, Ardmore, OK, US/Dennis Fine, Daniel Wherritt, and Lloyd Sumner
LICENSE: CC BY-NC-SA
CH$NAME: 3-Gal(1-2)GluA Soyasapogenol B (NMR)
CH$COMPOUND_CLASS: Natural Product; N/A
CH$FORMULA: C42H68O14
CH$EXACT_MASS: 796.4609
CH$SMILES: C1[C@@H]([C@@](C2[C@](C1)(C3[C@@](CC2)([C@]4(C(=CC3)[C@]5([C@@](CC4)([C@@H](CC(C5)(C)C)O)C)[H])C)C)C)(CO)C)O[C@@H]6O[C@@H]([C@H]([C@@H]([C@H]6O[C@@H]7O[C@@H]([C@@H]([C@@H]([C@H]7O)O)O)CO)O)O)C(O)=O
CH$IUPAC: InChI=1S/C42H68O14/c1-37(2)16-21-20-8-9-24-39(4)12-11-26(40(5,19-44)23(39)10-13-42(24,7)41(20,6)15-14-38(21,3)25(45)17-37)54-36-33(30(49)29(48)32(55-36)34(51)52)56-35-31(50)28(47)27(46)22(18-43)53-35/h8,21-33,35-36,43-50H,9-19H2,1-7H3,(H,51,52)/t21-,22+,23?,24?,25+,26-,27-,28-,29-,30-,31+,32-,33+,35-,36+,38+,39-,40+,41+,42+/m0/s1
CH$LINK: INCHIKEY OKIHRVKXRCAJFQ-VAJUJSSWSA-N
CH$LINK: PUBCHEM CID:134755458
AC$INSTRUMENT: Bruker impact HD
AC$INSTRUMENT_TYPE: LC-ESI-QTOF
AC$MASS_SPECTROMETRY: MS_TYPE MS2
AC$MASS_SPECTROMETRY: ION_MODE NEGATIVE
AC$MASS_SPECTROMETRY: COLLISION_ENERGY 48 eV
AC$MASS_SPECTROMETRY: IONIZATION ESI
AC$MASS_SPECTROMETRY: PEAK_WIDTH 0.013
AC$MASS_SPECTROMETRY: MASS_RANGE_M/Z 100-1500
AC$CHROMATOGRAPHY: COLUMN_NAME Waters Acquity BEH C18 1.7um x 2.1 x 150 mm
AC$CHROMATOGRAPHY: FLOW_GRADIENT 95/5 at 0 min, 20/80 at 35 min; 5/95 at 35 min, 5/95 at 38 min; 95/5 at 38.1 min, 95/5 at 45 min
AC$CHROMATOGRAPHY: FLOW_RATE FLOW_RATE 560 uL / min
AC$CHROMATOGRAPHY: SOLVENT A water with 0.05% formic acid
AC$CHROMATOGRAPHY: SOLVENT B acetonitrile with 0.05 % formic acid
AC$CHROMATOGRAPHY: RETENTION_TIME 1060.8 sec
MS$FOCUSED_ION: PRECURSOR_M/Z 795.4482
MS$FOCUSED_ION: PRECURSOR_TYPE [M-H]-
MS$DATA_PROCESSING: WHOLE convert from Bruker Library Editor (https://github.com/MassBank/MassBank2NIST)
PK$SPLASH: splash10-0002-0000000900-fda3c8966f004dc0d527
PK$NUM_PEAK: 3
PK$PEAK: m/z int. rel.int.
  795.4529 999 999
  796.4564 428 428
  797.4594 45 45
//
