ACCESSION: MSBNK-BS-BS003454
RECORD_TITLE: 3,6,2',3'-Tetrahydroxyflavone; LC-ESI-QTOF; MS2; CE:40 eV; [M-H]-
DATE: 2017.12.01 (Created 2013.11.23)
AUTHORS: Plant Biology, The Noble Foundation, Ardmore, OK, US/Dennis Fine, Daniel Wherritt, and Lloyd Sumner
LICENSE: CC BY-NC-SA
CH$NAME: 3,6,2',3'-Tetrahydroxyflavone
CH$COMPOUND_CLASS: Natural Product; N/A
CH$FORMULA: C15H10O6
CH$EXACT_MASS: 286.0477
CH$SMILES: C1=C(C=C2C(=C1)OC(=C(C2=O)O)C3=CC=CC(=C3O)O)O
CH$IUPAC: InChI=1S/C15H10O6/c16-7-4-5-11-9(6-7)13(19)14(20)15(21-11)8-2-1-3-10(17)12(8)18/h1-6,16-18,20H
CH$LINK: COMPTOX DTXSID90350980
CH$LINK: INCHIKEY KQRPHHDERPYSPX-UHFFFAOYSA-N
CH$LINK: PUBCHEM CID:688828
AC$INSTRUMENT: Bruker impact HD
AC$INSTRUMENT_TYPE: LC-ESI-QTOF
AC$MASS_SPECTROMETRY: MS_TYPE MS2
AC$MASS_SPECTROMETRY: ION_MODE NEGATIVE
AC$MASS_SPECTROMETRY: COLLISION_ENERGY 40 eV
AC$MASS_SPECTROMETRY: IONIZATION ESI
AC$MASS_SPECTROMETRY: ISOLATION_WIDTH 5
AC$MASS_SPECTROMETRY: PEAK_WIDTH 0.016
AC$MASS_SPECTROMETRY: MASS_RANGE_M/Z 94.8804-1505.19
AC$CHROMATOGRAPHY: COLUMN_NAME Waters Acquity BEH C18 1.7um x 2.1 x 150 mm
AC$CHROMATOGRAPHY: FLOW_GRADIENT 95/5 at 0 min, 20/80 at 35 min; 5/95 at 35 min, 5/95 at 38 min; 95/5 at 38.1 min, 95/5 at 45 min
AC$CHROMATOGRAPHY: FLOW_RATE FLOW_RATE 560 uL / min
AC$CHROMATOGRAPHY: SOLVENT A water with 0.05% formic acid
AC$CHROMATOGRAPHY: SOLVENT B acetonitrile with 0.05 % formic acid
AC$CHROMATOGRAPHY: RETENTION_TIME 475.2 sec
MS$FOCUSED_ION: PRECURSOR_M/Z 285.04
MS$FOCUSED_ION: PRECURSOR_TYPE [M-H]-
MS$DATA_PROCESSING: WHOLE convert from Bruker Library Editor (https://github.com/MassBank/MassBank2NIST)
PK$SPLASH: splash10-006t-0900000000-f74cce846e44e81798ff
PK$NUM_PEAK: 25
PK$PEAK: m/z int. rel.int.
  108.0211 73 73
  109.0289 72 72
  115.0531 25 25
  117.0353 36 36
  119.0141 40 40
  121.0295 589 589
  122.0335 23 23
  123.0076 26 26
  135.0077 38 38
  139.0400 48 48
  143.0500 54 54
  147.0069 24 24
  149.0240 999 999
  150.0280 81 81
  155.0483 25 25
  171.0467 26 26
  175.0023 37 37
  182.0358 78 78
  183.0435 40 40
  199.0405 24 24
  201.0195 25 25
  210.0327 35 35
  211.0405 32 32
  227.0355 32 32
  238.0268 37 37
//
