ACCESSION: MSBNK-BS-BS003234
RECORD_TITLE: Luteolin-7,3'-di-O-glucoside; LC-ESI-QTOF; MS2; CE:20 eV; [M-H]-
DATE: 2017.12.01 (Created 2013.11.16)
AUTHORS: Plant Biology, The Noble Foundation, Ardmore, OK, US/Dennis Fine, Daniel Wherritt, and Lloyd Sumner
LICENSE: CC BY-NC-SA
CH$NAME: 5-hydroxy-2-[4-hydroxy-3-[(2S,3R,4S,5R,6R)-3,4,5-trihydroxy-6-(hydroxymethyl)oxan-2-yl]oxy-phenyl]-7-[(2S,3R,4S,5R,6R)-3,4,5-trihydroxy-6-(hydroxymethyl)oxan-2-yl]oxy-chromen-4-one
CH$NAME: luteolin-3',7-di-O-glucoside
CH$NAME: Luteolin 3',7-O-diglucoside
CH$NAME: Luteolin-7,3'-di-O-glucoside
CH$NAME: Lutl-3p-Glc-7-Glc
CH$COMPOUND_CLASS: Natural Product; N/A
CH$FORMULA: C27H30O16
CH$EXACT_MASS: 610.15338
CH$SMILES: C1=CC(=C(C=C1C2=CC(=O)C3=C(C=C(C=C3O2)O[C@H]4[C@@H]([C@H]([C@@H]([C@H](O4)CO)O)O)O)O)O[C@H]5[C@@H]([C@H]([C@@H]([C@H](O5)CO)O)O)O)O
CH$IUPAC: InChI=1S/C27H30O16/c28-7-17-20(33)22(35)24(37)26(42-17)39-10-4-12(31)19-13(32)6-14(40-16(19)5-10)9-1-2-11(30)15(3-9)41-27-25(38)23(36)21(34)18(8-29)43-27/h1-6,17-18,20-31,33-38H,7-8H2/t17-,18-,20-,21-,22+,23+,24-,25-,26-,27-/m1/s1
CH$LINK: CAS 52187-80-1
CH$LINK: CHEMSPIDER 4590322
CH$LINK: COMPTOX DTXSID90200214
CH$LINK: INCHIKEY BISZYPSIZGKOFA-IPOZFMEPSA-N
CH$LINK: KNAPSACK C00004290
CH$LINK: NIKKAJI J279.475F
CH$LINK: PUBCHEM CID:5490298
AC$INSTRUMENT: Bruker impact HD
AC$INSTRUMENT_TYPE: LC-ESI-QTOF
AC$MASS_SPECTROMETRY: MS_TYPE MS2
AC$MASS_SPECTROMETRY: ION_MODE NEGATIVE
AC$MASS_SPECTROMETRY: COLLISION_ENERGY 20 eV
AC$MASS_SPECTROMETRY: IONIZATION ESI
AC$MASS_SPECTROMETRY: ISOLATION_WIDTH 5
AC$MASS_SPECTROMETRY: PEAK_WIDTH 0.015
AC$MASS_SPECTROMETRY: MASS_RANGE_M/Z 94.8813-1505.21
AC$CHROMATOGRAPHY: COLUMN_NAME Waters Acquity BEH C18 1.7um x 2.1 x 150 mm
AC$CHROMATOGRAPHY: FLOW_GRADIENT 95/5 at 0 min, 20/80 at 35 min; 5/95 at 35 min, 5/95 at 38 min; 95/5 at 38.1 min, 95/5 at 45 min
AC$CHROMATOGRAPHY: FLOW_RATE FLOW_RATE 560 uL / min
AC$CHROMATOGRAPHY: SOLVENT A water with 0.05% formic acid
AC$CHROMATOGRAPHY: SOLVENT B acetonitrile with 0.05 % formic acid
AC$CHROMATOGRAPHY: RETENTION_TIME 288 sec
MS$FOCUSED_ION: PRECURSOR_M/Z 609.1514
MS$FOCUSED_ION: PRECURSOR_TYPE [M-H]-
MS$DATA_PROCESSING: WHOLE convert from Bruker Library Editor (https://github.com/MassBank/MassBank2NIST)
PK$SPLASH: splash10-0a4j-0000509000-c51b82803d40131f6b51
PK$NUM_PEAK: 7
PK$PEAK: m/z int. rel.int.
  285.0424 51 51
  447.0971 695 695
  448.1015 136 136
  449.1031 46 46
  609.1514 999 999
  610.1549 278 278
  611.1592 40 40
//
