ACCESSION: MSBNK-BS-BS001139
RECORD_TITLE: 3-Glu-(1-2)Ara-28-Glu Hederagenin (NMR); LC-ESI-QTOF; MS2; CE:53 eV; [M-H]-
DATE: 2017.12.01 (Created 2014.12.12)
AUTHORS: Plant Biology, The Noble Foundation, Ardmore, OK, US/Dennis Fine, Daniel Wherritt, and Lloyd Sumner
LICENSE: CC BY-NC-SA
CH$NAME: 3-Glu-(1-2)Ara-28-Glu Hederagenin (NMR)
CH$NAME: 3-Glu(1-2)Ara-28-Glu Hederagenin (NMR)
CH$COMPOUND_CLASS: Natural Product; N/A
CH$FORMULA: C48H78O17
CH$EXACT_MASS: 926.5239
CH$SMILES: C1[C@@H]([C@@](C2[C@](C1)(C3[C@@](CC2)([C@]4(C(=CC3)[C@]5([C@@](CC4)(CCC(C5)(C)C)C(O[C@H]6[C@@H]([C@H]([C@@H]([C@H](O6)CO)O)O)O)=O)[H])C)C)C)(C)CO)O[C@@H]7OC[C@@H]([C@@H]([C@H]7C[C@@H]8O[C@@H]([C@H]([C@@H]([C@H]8O)O)O)CO)O)O
CH$IUPAC: InChI=1S/C48H78O17/c1-43(2)13-15-48(42(60)65-41-39(59)38(58)36(56)29(20-50)63-41)16-14-46(5)24(25(48)18-43)7-8-31-44(3)11-10-32(45(4,22-51)30(44)9-12-47(31,46)6)64-40-23(33(53)26(52)21-61-40)17-27-34(54)37(57)35(55)28(19-49)62-27/h7,23,25-41,49-59H,8-22H2,1-6H3/t23-,25+,26+,27+,28-,29-,30?,31?,32+,33-,34+,35-,36-,37-,38+,39-,40+,41+,44+,45+,46-,47-,48+/m1/s1
CH$LINK: INCHIKEY MFUIQYJWLPDASM-JVXCVNMSSA-N
CH$LINK: PUBCHEM CID:134749305
AC$INSTRUMENT: Bruker impact HD
AC$INSTRUMENT_TYPE: LC-ESI-QTOF
AC$MASS_SPECTROMETRY: MS_TYPE MS2
AC$MASS_SPECTROMETRY: ION_MODE NEGATIVE
AC$MASS_SPECTROMETRY: COLLISION_ENERGY 53 eV
AC$MASS_SPECTROMETRY: IONIZATION ESI
AC$MASS_SPECTROMETRY: PEAK_WIDTH 0.036
AC$MASS_SPECTROMETRY: MASS_RANGE_M/Z 100-1500
AC$CHROMATOGRAPHY: COLUMN_NAME Waters Acquity BEH C18 1.7um x 2.1 x 150 mm
AC$CHROMATOGRAPHY: FLOW_GRADIENT 95/5 at 0 min, 20/80 at 35 min; 5/95 at 35 min, 5/95 at 38 min; 95/5 at 38.1 min, 95/5 at 45 min
AC$CHROMATOGRAPHY: FLOW_RATE FLOW_RATE 560 uL / min
AC$CHROMATOGRAPHY: SOLVENT A water with 0.05% formic acid
AC$CHROMATOGRAPHY: SOLVENT B acetonitrile with 0.05 % formic acid
AC$CHROMATOGRAPHY: RETENTION_TIME 875.4 sec
MS$FOCUSED_ION: PRECURSOR_M/Z 927.494
MS$FOCUSED_ION: PRECURSOR_TYPE [M-H]-
MS$DATA_PROCESSING: WHOLE convert from Bruker Library Editor (https://github.com/MassBank/MassBank2NIST)
PK$SPLASH: splash10-014i-0000102900-e2a86cc1955bcb84232f
PK$NUM_PEAK: 22
PK$PEAK: m/z int. rel.int.
  101.024 17 17
  113.025 9 9
  119.035 10 10
  149.044 3 3
  179.054 3 3
  423.323 30 30
  471.346 137 137
  472.351 35 35
  525.358 12 12
  585.378 108 108
  586.378 42 42
  603.389 354 354
  604.393 123 123
  605.392 25 25
  617.415 3 3
  645.386 6 6
  765.442 999 999
  766.446 433 433
  767.450 109 109
  768.448 21 21
  807.446 33 33
  808.446 7 7
//
