ACCESSION: MSBNK-BS-BS003099
RECORD_TITLE: Luteolin; LC-ESI-QTOF; MS2; CE:30 eV; [M-H]-
DATE: 2017.12.01 (Created 2013.08.01)
AUTHORS: Plant Biology, The Noble Foundation, Ardmore, OK, US/Dennis Fine, Daniel Wherritt, and Lloyd Sumner
LICENSE: CC BY-NC-SA
CH$NAME: Luteolin
CH$COMPOUND_CLASS: Natural Product; N/A
CH$FORMULA: C15H10O6
CH$EXACT_MASS: 286.0477
CH$SMILES: C1(=C(C(=C(C(=C1C2=C(C(=O)C3=C(C(=C(C(=C3O2)[H])O[H])[H])O[H])[H])[H])O[H])O[H])[H])[H]
CH$IUPAC: InChI=1S/C15H10O6/c16-8-4-11(19)15-12(20)6-13(21-14(15)5-8)7-1-2-9(17)10(18)3-7/h1-6,16-19H
CH$LINK: CAS 491-70-3
CH$LINK: COMPTOX DTXSID4074988
CH$LINK: INCHIKEY IQPNAANSBPBGFQ-UHFFFAOYSA-N
CH$LINK: PUBCHEM CID:5280445
AC$INSTRUMENT: Bruker impact HD
AC$INSTRUMENT_TYPE: LC-ESI-QTOF
AC$MASS_SPECTROMETRY: MS_TYPE MS2
AC$MASS_SPECTROMETRY: ION_MODE NEGATIVE
AC$MASS_SPECTROMETRY: COLLISION_ENERGY 30 eV
AC$MASS_SPECTROMETRY: IONIZATION ESI
AC$MASS_SPECTROMETRY: PEAK_WIDTH 0.022
AC$MASS_SPECTROMETRY: MASS_RANGE_M/Z 94.8784-3005.4
AC$CHROMATOGRAPHY: COLUMN_NAME Waters Acquity BEH C18 1.7um x 2.1 x 150 mm
AC$CHROMATOGRAPHY: FLOW_GRADIENT 95/5 at 0 min, 20/80 at 35 min; 5/95 at 35 min, 5/95 at 38 min; 95/5 at 38.1 min, 95/5 at 45 min
AC$CHROMATOGRAPHY: FLOW_RATE FLOW_RATE 560 uL / min
AC$CHROMATOGRAPHY: SOLVENT A water with 0.05% formic acid
AC$CHROMATOGRAPHY: SOLVENT B acetonitrile with 0.05 % formic acid
AC$CHROMATOGRAPHY: RETENTION_TIME 490.01 sec
MS$FOCUSED_ION: PRECURSOR_M/Z 285.048
MS$FOCUSED_ION: PRECURSOR_TYPE [M-H]-
MS$DATA_PROCESSING: WHOLE convert from Bruker Library Editor (https://github.com/MassBank/MassBank2NIST)
PK$SPLASH: splash10-0a4i-0190000000-7f42ffe76ed9c3f69f11
PK$NUM_PEAK: 26
PK$PEAK: m/z int. rel.int.
  107.0173 43 43
  133.0331 80 80
  139.0556 10 10
  149.0287 20 20
  151.0077 40 40
  159.0464 10 10
  169.0226 9 9
  173.0642 8 8
  175.0438 24 24
  183.0467 28 28
  198.0398 9 9
  201.0306 9 9
  217.0573 24 24
  223.0472 10 10
  226.0361 10 10
  227.0410 27 27
  229.0567 10 10
  241.0583 12 12
  243.0381 25 25
  255.0371 999 999
  256.0398 135 135
  257.0464 29 29
  267.0384 9 9
  283.0247 10 10
  285.0482 239 239
  286.0531 24 24
//
