ACCESSION: MSBNK-BS-BS002036
RECORD_TITLE: HexA-dhex-Pen-Pen-Pen-Zanhic acid (PUT); LC-ESI-QTOF; MS2; CE:65 eV; [M-H]-
DATE: 2017.12.01 (Created 2014.12.12)
AUTHORS: Plant Biology, The Noble Foundation, Ardmore, OK, US/Dennis Fine, Daniel Wherritt, and Lloyd Sumner
LICENSE: CC BY-NC-SA
CH$NAME: HexA-dhex-Pen-Pen-Pen-Zanhic acid (PUT)
CH$COMPOUND_CLASS: Natural Product; N/A
CH$FORMULA: C57H88O29
CH$EXACT_MASS: 1236.5411
CH$SMILES: N/A
CH$IUPAC: N/A
AC$INSTRUMENT: Bruker impact HD
AC$INSTRUMENT_TYPE: LC-ESI-QTOF
AC$MASS_SPECTROMETRY: MS_TYPE MS2
AC$MASS_SPECTROMETRY: ION_MODE NEGATIVE
AC$MASS_SPECTROMETRY: COLLISION_ENERGY 65 eV
AC$MASS_SPECTROMETRY: IONIZATION ESI
AC$MASS_SPECTROMETRY: PEAK_WIDTH 0.015
AC$MASS_SPECTROMETRY: MASS_RANGE_M/Z 100-1500
AC$CHROMATOGRAPHY: COLUMN_NAME Waters Acquity BEH C18 1.7um x 2.1 x 150 mm
AC$CHROMATOGRAPHY: FLOW_GRADIENT 95/5 at 0 min, 20/80 at 35 min; 5/95 at 35 min, 5/95 at 38 min; 95/5 at 38.1 min, 95/5 at 45 min
AC$CHROMATOGRAPHY: FLOW_RATE FLOW_RATE 560 uL / min
AC$CHROMATOGRAPHY: SOLVENT A water with 0.05% formic acid
AC$CHROMATOGRAPHY: SOLVENT B acetonitrile with 0.05 % formic acid
AC$CHROMATOGRAPHY: RETENTION_TIME 665.4 sec
MS$FOCUSED_ION: PRECURSOR_M/Z 1235.529
MS$FOCUSED_ION: PRECURSOR_TYPE [M-H]-
MS$DATA_PROCESSING: WHOLE convert from Bruker Library Editor (https://github.com/MassBank/MassBank2NIST)
PK$SPLASH: splash10-000i-0290000000-bbedf25fb93d4ff9381b
PK$NUM_PEAK: 10
PK$PEAK: m/z int. rel.int.
  103.0039 18 18
  113.0229 35 35
  116.9279 25 25
  131.0341 34 34
  193.0350 292 292
  455.3152 6 6
  693.3441 15 15
  1235.5323 999 999
  1236.5391 537 537
  1237.5317 175 175
//
