ACCESSION: MSBNK-BS-BS003815
RECORD_TITLE: 2'-Hydroxy-4-methoxychalcone; LC-ESI-QTOF; MS2; CE:30 eV; [M-H]-
DATE: 2017.12.01 (Created 2014.01.07)
AUTHORS: Plant Biology, The Noble Foundation, Ardmore, OK, US/Dennis Fine, Daniel Wherritt, and Lloyd Sumner
LICENSE: CC BY-NC-SA
CH$NAME: 2'-Hydroxy-4-methoxychalcone
CH$COMPOUND_CLASS: Natural Product; N/A
CH$FORMULA: C16H14O3
CH$EXACT_MASS: 254.0943
CH$SMILES: C(OC1=C(C(=C(C(=C1[H])[H])/C(=C(/C(=O)C2=C(C(=C(C(=C2O[H])[H])[H])[H])[H])\[H])/[H])[H])[H])([H])([H])[H]
CH$IUPAC: InChI=1S/C16H14O3/c1-19-13-9-6-12(7-10-13)8-11-16(18)14-4-2-3-5-15(14)17/h2-11,17H,1H3/b11-8+
CH$LINK: CAS 34000-29-8
CH$LINK: INCHIKEY NXBNYUSXDBHELA-DHZHZOJOSA-N
CH$LINK: PUBCHEM CID:5331295
AC$INSTRUMENT: Bruker impact HD
AC$INSTRUMENT_TYPE: LC-ESI-QTOF
AC$MASS_SPECTROMETRY: MS_TYPE MS2
AC$MASS_SPECTROMETRY: ION_MODE NEGATIVE
AC$MASS_SPECTROMETRY: COLLISION_ENERGY 30 eV
AC$MASS_SPECTROMETRY: IONIZATION ESI
AC$MASS_SPECTROMETRY: ISOLATION_WIDTH 5
AC$MASS_SPECTROMETRY: PEAK_WIDTH 0.017
AC$MASS_SPECTROMETRY: MASS_RANGE_M/Z 94.881-1505.22
AC$CHROMATOGRAPHY: COLUMN_NAME Waters Acquity BEH C18 1.7um x 2.1 x 150 mm
AC$CHROMATOGRAPHY: FLOW_GRADIENT 95/5 at 0 min, 20/80 at 35 min; 5/95 at 35 min, 5/95 at 38 min; 95/5 at 38.1 min, 95/5 at 45 min
AC$CHROMATOGRAPHY: FLOW_RATE FLOW_RATE 560 uL / min
AC$CHROMATOGRAPHY: SOLVENT A water with 0.05% formic acid
AC$CHROMATOGRAPHY: SOLVENT B acetonitrile with 0.05 % formic acid
AC$CHROMATOGRAPHY: RETENTION_TIME 1221 sec
MS$FOCUSED_ION: PRECURSOR_M/Z 253.1
MS$FOCUSED_ION: PRECURSOR_TYPE [M-H]-
MS$DATA_PROCESSING: WHOLE convert from Bruker Library Editor (https://github.com/MassBank/MassBank2NIST)
PK$SPLASH: splash10-000i-0090000000-45adbba795b2883ad9e5
PK$NUM_PEAK: 6
PK$PEAK: m/z int. rel.int.
  117.0359 47 47
  209.0610 41 41
  210.0645 35 35
  221.0596 49 49
  237.0554 999 999
  238.0605 196 196
//
