ACCESSION: MSBNK-BS-BS003631
RECORD_TITLE: Isosakuranin; LC-ESI-QTOF; MS2; CE:30 eV; [M-H]-
DATE: 2017.12.01 (Created 2014.08.07)
AUTHORS: Plant Biology, The Noble Foundation, Ardmore, OK, US/Dennis Fine, Daniel Wherritt, and Lloyd Sumner
LICENSE: CC BY-NC-SA
CH$NAME: Isosakuranin
CH$COMPOUND_CLASS: Natural Product; N/A
CH$FORMULA: C22H24O10
CH$EXACT_MASS: 448.1369
CH$SMILES: COC1=CC=C(C=C1)[C@@H]2CC(=O)C3=C(C=C(C=C3O2)O[C@H]4[C@@H]([C@H]([C@@H]([C@H](O4)CO)O)O)O)O
CH$IUPAC: InChI=1S/C22H24O10/c1-29-11-4-2-10(3-5-11)15-8-14(25)18-13(24)6-12(7-16(18)31-15)30-22-21(28)20(27)19(26)17(9-23)32-22/h2-7,15,17,19-24,26-28H,8-9H2,1H3/t15-,17+,19+,20-,21+,22+/m0/s1
CH$LINK: INCHIKEY KEEWIHDTSNESJZ-ZJHVPRRPSA-N
CH$LINK: CAS 491-69-0
CH$LINK: PUBCHEM CID:102004611
AC$INSTRUMENT: Bruker impact HD
AC$INSTRUMENT_TYPE: LC-ESI-QTOF
AC$MASS_SPECTROMETRY: MS_TYPE MS2
AC$MASS_SPECTROMETRY: ION_MODE NEGATIVE
AC$MASS_SPECTROMETRY: COLLISION_ENERGY 30 eV
AC$MASS_SPECTROMETRY: IONIZATION ESI
AC$MASS_SPECTROMETRY: ISOLATION_WIDTH 5
AC$MASS_SPECTROMETRY: PEAK_WIDTH 0.018
AC$MASS_SPECTROMETRY: MASS_RANGE_M/Z 94.8427-1505.03
AC$CHROMATOGRAPHY: COLUMN_NAME Waters Acquity BEH C18 1.7um x 2.1 x 150 mm
AC$CHROMATOGRAPHY: FLOW_GRADIENT 95/5 at 0 min, 20/80 at 35 min; 5/95 at 35 min, 5/95 at 38 min; 95/5 at 38.1 min, 95/5 at 45 min
AC$CHROMATOGRAPHY: FLOW_RATE FLOW_RATE 560 uL / min
AC$CHROMATOGRAPHY: SOLVENT A water with 0.05% formic acid
AC$CHROMATOGRAPHY: SOLVENT B acetonitrile with 0.05 % formic acid
AC$CHROMATOGRAPHY: RETENTION_TIME 603 sec
MS$FOCUSED_ION: PRECURSOR_M/Z 285.0756
MS$FOCUSED_ION: PRECURSOR_TYPE [M-H-C6H10O5]-
MS$DATA_PROCESSING: WHOLE convert from Bruker Library Editor (https://github.com/MassBank/MassBank2NIST)
PK$SPLASH: splash10-01p9-0970000000-4861eeb856c8508af745
PK$NUM_PEAK: 33
PK$PEAK: m/z int. rel.int.
  107.0133 94 94
  108.0212 191 191
  122.0003 42 42
  123.0088 53 53
  124.0142 41 41
  125.0254 30 30
  136.0163 487 487
  137.0184 30 30
  151.0035 422 422
  164.0116 999 999
  165.0134 109 109
  175.0749 122 122
  186.0326 39 39
  187.0410 31 31
  196.0008 352 352
  198.0680 34 34
  200.0465 33 33
  201.0547 57 57
  215.0699 36 36
  217.0861 32 32
  225.0555 51 51
  226.0623 96 96
  227.0351 123 123
  228.0414 165 165
  241.0861 42 42
  242.0563 30 30
  242.0884 33 33
  243.0655 584 584
  244.0716 103 103
  257.0800 30 30
  270.0524 228 228
  285.0756 866 866
  286.0786 171 171
//
