ACCESSION: MSBNK-BS-BS003462
RECORD_TITLE: Isobavachin; LC-ESI-QTOF; MS2; CE:20 eV; [M-H]-
DATE: 2017.12.01 (Created 2013.11.23)
AUTHORS: Plant Biology, The Noble Foundation, Ardmore, OK, US/Dennis Fine, Daniel Wherritt, and Lloyd Sumner
LICENSE: CC BY-NC-SA
CH$NAME: Isobavachin
CH$COMPOUND_CLASS: Natural Product; N/A
CH$FORMULA: C20H20O4
CH$EXACT_MASS: 324.1362
CH$SMILES: C(C(=C(C(C1=C(C(=C(C2=C1OC(C(C2=O)([H])[H])(C3=C(C(=C(C(=C3[H])[H])O[H])[H])[H])[H])[H])[H])O[H])([H])[H])[H])C([H])([H])[H])([H])([H])[H]
CH$IUPAC: InChI=1S/C20H20O4/c1-12(2)3-8-15-17(22)10-9-16-18(23)11-19(24-20(15)16)13-4-6-14(21)7-5-13/h3-7,9-10,19,21-22H,8,11H2,1-2H3/t19-/m0/s1
CH$LINK: INCHIKEY KYFBXCHUXFKMGQ-IBGZPJMESA-N
CH$LINK: CAS 31524-62-6
CH$LINK: COMPTOX DTXSID20953509
AC$INSTRUMENT: Bruker impact HD
AC$INSTRUMENT_TYPE: LC-ESI-QTOF
AC$MASS_SPECTROMETRY: MS_TYPE MS2
AC$MASS_SPECTROMETRY: ION_MODE NEGATIVE
AC$MASS_SPECTROMETRY: COLLISION_ENERGY 20 eV
AC$MASS_SPECTROMETRY: IONIZATION ESI
AC$MASS_SPECTROMETRY: ISOLATION_WIDTH 5
AC$MASS_SPECTROMETRY: PEAK_WIDTH 0.014
AC$MASS_SPECTROMETRY: MASS_RANGE_M/Z 94.8812-1505.21
AC$CHROMATOGRAPHY: COLUMN_NAME Waters Acquity BEH C18 1.7um x 2.1 x 150 mm
AC$CHROMATOGRAPHY: FLOW_GRADIENT 95/5 at 0 min, 20/80 at 35 min; 5/95 at 35 min, 5/95 at 38 min; 95/5 at 38.1 min, 95/5 at 45 min
AC$CHROMATOGRAPHY: FLOW_RATE FLOW_RATE 560 uL / min
AC$CHROMATOGRAPHY: SOLVENT A water with 0.05% formic acid
AC$CHROMATOGRAPHY: SOLVENT B acetonitrile with 0.05 % formic acid
AC$CHROMATOGRAPHY: RETENTION_TIME 878.4 sec
MS$FOCUSED_ION: PRECURSOR_M/Z 323.1297
MS$FOCUSED_ION: PRECURSOR_TYPE [M-H]-
MS$DATA_PROCESSING: WHOLE convert from Bruker Library Editor (https://github.com/MassBank/MassBank2NIST)
PK$SPLASH: splash10-0gi0-0964000000-255c3c82e00f96fa3811
PK$NUM_PEAK: 15
PK$PEAK: m/z int. rel.int.
  119.0502 999 999
  120.0533 68 68
  121.0545 5 5
  157.0645 7 7
  159.0812 43 43
  160.0838 8 8
  203.0719 617 617
  204.0748 53 53
  205.0770 9 9
  221.0823 129 129
  222.0870 20 20
  281.1184 13 13
  323.1297 453 453
  324.1329 86 86
  325.1350 14 14
//
