ACCESSION: MSBNK-BS-BS001169
RECORD_TITLE: 3-Glu-28-Xyl(1-4)Rha(1-2)Ara Medicagenic acid (NMR); LC-ESI-QTOF; MS2; CE:59 eV; [M-H]-
DATE: 2017.12.01 (Created 2014.12.12)
AUTHORS: Plant Biology, The Noble Foundation, Ardmore, OK, US/Dennis Fine, Daniel Wherritt, and Lloyd Sumner
LICENSE: CC BY-NC-SA
CH$NAME: 3-Glu-28-Xyl(1-4)Rha(1-2)Ara Medicagenic acid (NMR)
CH$COMPOUND_CLASS: Natural Product; N/A
CH$FORMULA: C52H82O23
CH$EXACT_MASS: 1074.5247
CH$SMILES: C[C@H]1[C@@H]([C@H]([C@H]([C@@H](O1)O[C@@H]2[C@H]([C@H](CO[C@H]2OC(=O)[C@@]34CC[C@@]5(C(=CCC6[C@]5(CCC7[C@@]6(C[C@@H]([C@@H]([C@@]7(C)C(=O)O)O[C@H]8[C@@H]([C@H]([C@@H]([C@H](O8)CO)O)O)O)O)C)C)[C@@H]3CC(CC4)(C)C)C)O)O)O)O)O[C@H]9[C@@H]([C@H]([C@@H](CO9)O)O)O
CH$IUPAC: InChI=1S/C52H82O23/c1-21-38(72-41-35(62)30(57)25(55)19-68-41)34(61)37(64)42(70-21)73-39-31(58)26(56)20-69-44(39)75-46(67)52-14-12-47(2,3)16-23(52)22-8-9-28-48(4)17-24(54)40(74-43-36(63)33(60)32(59)27(18-53)71-43)51(7,45(65)66)29(48)10-11-50(28,6)49(22,5)13-15-52/h8,21,23-44,53-64H,9-20H2,1-7H3,(H,65,66)/t21-,23-,24-,25+,26-,27+,28?,29?,30-,31-,32+,33-,34-,35+,36+,37+,38-,39+,40-,41-,42-,43-,44-,48+,49+,50+,51-,52-/m0/s1
CH$LINK: INCHIKEY VHMKOKUNAPLSBJ-GQVSKFISSA-N
CH$LINK: PUBCHEM CID:134773062
AC$INSTRUMENT: Bruker impact HD
AC$INSTRUMENT_TYPE: LC-ESI-QTOF
AC$MASS_SPECTROMETRY: MS_TYPE MS2
AC$MASS_SPECTROMETRY: ION_MODE NEGATIVE
AC$MASS_SPECTROMETRY: COLLISION_ENERGY 59 eV
AC$MASS_SPECTROMETRY: IONIZATION ESI
AC$MASS_SPECTROMETRY: PEAK_WIDTH 0.015
AC$MASS_SPECTROMETRY: MASS_RANGE_M/Z 100-1500
AC$CHROMATOGRAPHY: COLUMN_NAME Waters Acquity BEH C18 1.7um x 2.1 x 150 mm
AC$CHROMATOGRAPHY: FLOW_GRADIENT 95/5 at 0 min, 20/80 at 35 min; 5/95 at 35 min, 5/95 at 38 min; 95/5 at 38.1 min, 95/5 at 45 min
AC$CHROMATOGRAPHY: FLOW_RATE FLOW_RATE 560 uL / min
AC$CHROMATOGRAPHY: SOLVENT A water with 0.05% formic acid
AC$CHROMATOGRAPHY: SOLVENT B acetonitrile with 0.05 % formic acid
AC$CHROMATOGRAPHY: RETENTION_TIME 819 sec
MS$FOCUSED_ION: PRECURSOR_M/Z 1073.533
MS$FOCUSED_ION: PRECURSOR_TYPE [M-H]-
MS$DATA_PROCESSING: WHOLE convert from Bruker Library Editor (https://github.com/MassBank/MassBank2NIST)
PK$SPLASH: splash10-00dr-9101800000-70a76af2d50135ee6aac
PK$NUM_PEAK: 22
PK$PEAK: m/z int. rel.int.
  101.0241 21 21
  113.0236 28 28
  116.9272 14 14
  119.0338 20 20
  131.0342 43 43
  143.0341 6 6
  149.0427 14 14
  205.0729 6 6
  277.0947 8 8
  295.1031 17 17
  337.1143 164 164
  409.1342 21 21
  439.3209 999 999
  440.3251 229 229
  441.3260 31 31
  849.4576 50 50
  849.4921 10 10
  850.4536 18 18
  1073.5104 751 751
  1074.5188 431 431
  1075.5151 117 117
  1076.5214 9 9
//
