ACCESSION: MSBNK-BS-BS003640
RECORD_TITLE: Nevadensin; LC-ESI-QTOF; MS2; CE:20 eV; [M-H]-
DATE: 2017.12.01 (Created 2013.11.23)
AUTHORS: Plant Biology, The Noble Foundation, Ardmore, OK, US/Dennis Fine, Daniel Wherritt, and Lloyd Sumner
LICENSE: CC BY-NC-SA
CH$NAME: Nevadensin
CH$COMPOUND_CLASS: Natural Product; N/A
CH$FORMULA: C18H16O7
CH$EXACT_MASS: 344.0896
CH$SMILES: C(OC1=C(C(=C(C(=C1[H])[H])C2=C(C(=O)C3=C(C(=C(C(=C3O2)OC([H])([H])[H])O[H])OC([H])([H])[H])O[H])[H])[H])[H])([H])([H])[H]
CH$IUPAC: InChI=1S/C18H16O7/c1-22-10-6-4-9(5-7-10)12-8-11(19)13-14(20)17(23-2)15(21)18(24-3)16(13)25-12/h4-8,20-21H,1-3H3
CH$LINK: CAS 10176-66-6
CH$LINK: COMPTOX DTXSID40144174
CH$LINK: INCHIKEY KRFBMPVGAYGGJE-UHFFFAOYSA-N
CH$LINK: PUBCHEM CID:160921
AC$INSTRUMENT: Bruker impact HD
AC$INSTRUMENT_TYPE: LC-ESI-QTOF
AC$MASS_SPECTROMETRY: MS_TYPE MS2
AC$MASS_SPECTROMETRY: ION_MODE NEGATIVE
AC$MASS_SPECTROMETRY: COLLISION_ENERGY 20 eV
AC$MASS_SPECTROMETRY: IONIZATION ESI
AC$MASS_SPECTROMETRY: ISOLATION_WIDTH 5
AC$MASS_SPECTROMETRY: PEAK_WIDTH 0.013
AC$MASS_SPECTROMETRY: MASS_RANGE_M/Z 94.8824-1505.22
AC$CHROMATOGRAPHY: COLUMN_NAME Waters Acquity BEH C18 1.7um x 2.1 x 150 mm
AC$CHROMATOGRAPHY: FLOW_GRADIENT 95/5 at 0 min, 20/80 at 35 min; 5/95 at 35 min, 5/95 at 38 min; 95/5 at 38.1 min, 95/5 at 45 min
AC$CHROMATOGRAPHY: FLOW_RATE FLOW_RATE 560 uL / min
AC$CHROMATOGRAPHY: SOLVENT A water with 0.05% formic acid
AC$CHROMATOGRAPHY: SOLVENT B acetonitrile with 0.05 % formic acid
AC$CHROMATOGRAPHY: RETENTION_TIME 882 sec
MS$FOCUSED_ION: PRECURSOR_M/Z 343.0835
MS$FOCUSED_ION: PRECURSOR_TYPE [M-H]-
MS$DATA_PROCESSING: WHOLE convert from Bruker Library Editor (https://github.com/MassBank/MassBank2NIST)
PK$SPLASH: splash10-004i-0009000000-9e955bce1b5f239076cd
PK$NUM_PEAK: 20
PK$PEAK: m/z int. rel.int.
  152.0108 1 1
  167.0347 2 2
  226.0272 2 2
  229.0506 1 1
  241.0504 16 16
  242.0523 2 2
  257.0463 1 1
  269.0460 1 1
  285.0413 2 2
  298.0114 3 3
  313.0360 297 297
  314.0392 33 33
  315.0410 4 4
  327.0520 1 1
  328.0600 999 999
  329.0634 112 112
  330.0647 14 14
  343.0835 141 141
  344.0864 17 17
  345.0893 2 2
//
