ACCESSION: MSBNK-BS-BS003406
RECORD_TITLE: 3-Rha-Ara-GlcUA-Soyasapogenol B; LC-ESI-QTOF; MS2; CE:30 eV; [M-H]-
DATE: 2017.12.01 (Created 2014.08.07)
AUTHORS: Plant Biology, The Noble Foundation, Ardmore, OK, US/Dennis Fine, Daniel Wherritt, and Lloyd Sumner
LICENSE: CC BY-NC-SA
CH$NAME: 3-Rha-Ara-GlcUA-Soyasapogenol B
CH$COMPOUND_CLASS: Natural Product; N/A
CH$FORMULA: C47H76O17
CH$EXACT_MASS: 912.5083
CH$SMILES: C1[C@@H]([C@]([C@]2([C@](C1)([C@@]3([C@@](CC2)([C@]4(C(=CC3)[C@]5([C@@](CC4)([C@@H](CC(C5)(C)C)O)C)[H])C)C)[H])C)[H])(C)CO)OC6O[C@H]([C@@H]([C@H]([C@@H]6O[C@@H]7[C@H]([C@@H]([C@@H](CO7)O)O)O[C@@H]8O[C@@H]([C@H]([C@@H]([C@@H]8O)O)O)C)O)O)C(=O)O
CH$IUPAC: InChI=1S/C47H76O17/c1-21-29(51)31(53)34(56)39(60-21)63-36-30(52)24(49)19-59-40(36)64-37-33(55)32(54)35(38(57)58)62-41(37)61-28-12-13-44(5)25(45(28,6)20-48)11-14-47(8)26(44)10-9-22-23-17-42(2,3)18-27(50)43(23,4)15-16-46(22,47)7/h9,21,23-37,39-41,48-56H,10-20H2,1-8H3,(H,57,58)/t21-,23+,24-,25-,26-,27-,28+,29-,30-,31+,32-,33-,34+,35-,36+,37+,39+,40-,41?,43-,44+,45-,46-,47-/m1/s1
CH$LINK: INCHIKEY IBZLICPLPYSFNZ-NKWBMYJBSA-N
CH$LINK: PUBCHEM CID:134737391
AC$INSTRUMENT: Bruker impact HD
AC$INSTRUMENT_TYPE: LC-ESI-QTOF
AC$MASS_SPECTROMETRY: MS_TYPE MS2
AC$MASS_SPECTROMETRY: ION_MODE NEGATIVE
AC$MASS_SPECTROMETRY: COLLISION_ENERGY 30 eV
AC$MASS_SPECTROMETRY: IONIZATION ESI
AC$MASS_SPECTROMETRY: ISOLATION_WIDTH 5
AC$MASS_SPECTROMETRY: PEAK_WIDTH 0.014
AC$MASS_SPECTROMETRY: MASS_RANGE_M/Z 94.8394-1504.98
AC$CHROMATOGRAPHY: COLUMN_NAME Waters Acquity BEH C18 1.7um x 2.1 x 150 mm
AC$CHROMATOGRAPHY: FLOW_GRADIENT 95/5 at 0 min, 20/80 at 35 min; 5/95 at 35 min, 5/95 at 38 min; 95/5 at 38.1 min, 95/5 at 45 min
AC$CHROMATOGRAPHY: FLOW_RATE FLOW_RATE 560 uL / min
AC$CHROMATOGRAPHY: SOLVENT A water with 0.05% formic acid
AC$CHROMATOGRAPHY: SOLVENT B acetonitrile with 0.05 % formic acid
AC$CHROMATOGRAPHY: RETENTION_TIME 1072.8 sec
MS$FOCUSED_ION: PRECURSOR_M/Z 911.459
MS$FOCUSED_ION: PRECURSOR_TYPE [M-H]-
MS$DATA_PROCESSING: WHOLE convert from Bruker Library Editor (https://github.com/MassBank/MassBank2NIST)
PK$SPLASH: splash10-03di-0000000009-65be7561ce3da79792ca
PK$NUM_PEAK: 42
PK$PEAK: m/z int. rel.int.
  175.0362 3 3
  176.0339 3 3
  176.6397 2 2
  262.9946 3 3
  263.3254 2 2
  263.5439 3 3
  263.5938 3 3
  264.2788 2 2
  264.3708 3 3
  264.9035 3 3
  264.9870 3 3
  265.2722 3 3
  265.3759 2 2
  265.4829 4 4
  265.5031 2 2
  265.5227 3 3
  265.6982 3 3
  266.0452 3 3
  266.2691 3 3
  266.3074 3 3
  266.3416 4 4
  266.7149 3 3
  266.7689 3 3
  266.7870 3 3
  267.4096 3 3
  267.5460 3 3
  267.7686 3 3
  267.9288 3 3
  268.0262 3 3
  268.1008 3 3
  268.1839 3 3
  268.4444 2 2
  269.8566 3 3
  270.0224 3 3
  911.2836 2 2
  911.4590 999 999
  911.6125 3 3
  911.6436 3 3
  911.6860 4 4
  912.4586 184 184
  913.4644 50 50
  914.4641 9 9
//
