ACCESSION: MSBNK-BS-BS003296
RECORD_TITLE: 7,3',4',5'-Tetrahydroxyflavone; LC-ESI-QTOF; MS2; CE:30 eV; [M-H]-
DATE: 2017.12.01 (Created 2013.11.09)
AUTHORS: Plant Biology, The Noble Foundation, Ardmore, OK, US/Dennis Fine, Daniel Wherritt, and Lloyd Sumner
LICENSE: CC BY-NC-SA
CH$NAME: 7,3',4',5'-Tetrahydroxyflavone
CH$COMPOUND_CLASS: Natural Product; N/A
CH$FORMULA: C15H10O6
CH$EXACT_MASS: 286.0477
CH$SMILES: C1(=C(C2=C(C(=C1O[H])[H])OC(=C(C2=O)[H])C3=C(C(=C(C(=C3[H])O[H])O[H])O[H])[H])[H])[H]
CH$IUPAC: InChI=1S/C15H10O6/c16-8-1-2-9-10(17)6-13(21-14(9)5-8)7-3-11(18)15(20)12(19)4-7/h1-6,16,18-20H
CH$LINK: CAS 67858-31-5
CH$LINK: COMPTOX DTXSID70419827
CH$LINK: INCHIKEY CCCIGFPBADVTFE-UHFFFAOYSA-N
CH$LINK: PUBCHEM CID:5393164
AC$INSTRUMENT: Bruker impact HD
AC$INSTRUMENT_TYPE: LC-ESI-QTOF
AC$MASS_SPECTROMETRY: MS_TYPE MS2
AC$MASS_SPECTROMETRY: ION_MODE NEGATIVE
AC$MASS_SPECTROMETRY: COLLISION_ENERGY 30 eV
AC$MASS_SPECTROMETRY: IONIZATION ESI
AC$MASS_SPECTROMETRY: ISOLATION_WIDTH 5
AC$MASS_SPECTROMETRY: PEAK_WIDTH 0.022
AC$MASS_SPECTROMETRY: MASS_RANGE_M/Z 94.8829-2005.29
AC$CHROMATOGRAPHY: COLUMN_NAME Waters Acquity BEH C18 1.7um x 2.1 x 150 mm
AC$CHROMATOGRAPHY: FLOW_GRADIENT 95/5 at 0 min, 20/80 at 35 min; 5/95 at 35 min, 5/95 at 38 min; 95/5 at 38.1 min, 95/5 at 45 min
AC$CHROMATOGRAPHY: FLOW_RATE FLOW_RATE 560 uL / min
AC$CHROMATOGRAPHY: SOLVENT A water with 0.05% formic acid
AC$CHROMATOGRAPHY: SOLVENT B acetonitrile with 0.05 % formic acid
AC$CHROMATOGRAPHY: RETENTION_TIME 276 sec
MS$FOCUSED_ION: PRECURSOR_M/Z 285.0407
MS$FOCUSED_ION: PRECURSOR_TYPE [M-H]-
MS$DATA_PROCESSING: WHOLE convert from Bruker Library Editor (https://github.com/MassBank/MassBank2NIST)
PK$SPLASH: splash10-0002-0930000000-7bf999ef06e9afa4a650
PK$NUM_PEAK: 3
PK$PEAK: m/z int. rel.int.
  135.0084 100 100
  149.0246 999 999
  285.0407 390 390
//
