ACCESSION: MSBNK-BS-BS003680
RECORD_TITLE: Sorbifolin; LC-ESI-QTOF; MS2; CE:50 eV; [M-H]-
DATE: 2017.12.01 (Created 2014.01.04)
AUTHORS: Plant Biology, The Noble Foundation, Ardmore, OK, US/Dennis Fine, Daniel Wherritt, and Lloyd Sumner
LICENSE: CC BY-NC-SA
CH$NAME: Sorbifolin
CH$COMPOUND_CLASS: Natural Product; N/A
CH$FORMULA: C16H12O6
CH$EXACT_MASS: 300.0634
CH$SMILES: C(OC1=C(C(=C2C(=C1[H])OC(=C(C2=O)[H])C3=C(C(=C(C(=C3[H])[H])O[H])[H])[H])O[H])O[H])([H])([H])[H]
CH$IUPAC: InChI=1S/C16H12O6/c1-21-13-7-12-14(16(20)15(13)19)10(18)6-11(22-12)8-2-4-9(17)5-3-8/h2-7,17,19-20H,1H3
CH$LINK: CAS 23130-22-5
CH$LINK: COMPTOX DTXSID70177697
CH$LINK: INCHIKEY UWARRXZVZDFPQU-UHFFFAOYSA-N
CH$LINK: PUBCHEM CID:3084390
AC$INSTRUMENT: Bruker impact HD
AC$INSTRUMENT_TYPE: LC-ESI-QTOF
AC$MASS_SPECTROMETRY: MS_TYPE MS2
AC$MASS_SPECTROMETRY: ION_MODE NEGATIVE
AC$MASS_SPECTROMETRY: COLLISION_ENERGY 50 eV
AC$MASS_SPECTROMETRY: IONIZATION ESI
AC$MASS_SPECTROMETRY: ISOLATION_WIDTH 5
AC$MASS_SPECTROMETRY: PEAK_WIDTH 0.016
AC$MASS_SPECTROMETRY: MASS_RANGE_M/Z 94.8823-1505.25
AC$CHROMATOGRAPHY: COLUMN_NAME Waters Acquity BEH C18 1.7um x 2.1 x 150 mm
AC$CHROMATOGRAPHY: FLOW_GRADIENT 95/5 at 0 min, 20/80 at 35 min; 5/95 at 35 min, 5/95 at 38 min; 95/5 at 38.1 min, 95/5 at 45 min
AC$CHROMATOGRAPHY: FLOW_RATE FLOW_RATE 560 uL / min
AC$CHROMATOGRAPHY: SOLVENT A water with 0.05% formic acid
AC$CHROMATOGRAPHY: SOLVENT B acetonitrile with 0.05 % formic acid
AC$CHROMATOGRAPHY: RETENTION_TIME 538.8 sec
MS$FOCUSED_ION: PRECURSOR_M/Z 299.1
MS$FOCUSED_ION: PRECURSOR_TYPE [M-H]-
MS$DATA_PROCESSING: WHOLE convert from Bruker Library Editor (https://github.com/MassBank/MassBank2NIST)
PK$SPLASH: splash10-014i-0910000000-aa42cb799b1dd83bbafb
PK$NUM_PEAK: 19
PK$PEAK: m/z int. rel.int.
  108.0239 120 120
  110.0025 111 111
  116.0273 123 123
  117.0352 999 999
  118.0373 96 96
  119.0148 114 114
  130.0439 84 84
  135.0112 75 75
  136.9890 361 361
  139.0030 140 140
  155.0508 74 74
  158.0380 129 129
  164.0124 76 76
  183.0462 205 205
  185.0279 95 95
  199.0409 88 88
  227.0384 206 206
  255.0312 85 85
  283.0264 107 107
//
