ACCESSION: MSBNK-BS-BS002015
RECORD_TITLE: Hex-hex-Mal-Bayogenin (isomer 2) (PUT); LC-ESI-QTOF; MS2; CE:50 eV; [M-H]-
DATE: 2017.12.01 (Created 2014.12.12)
AUTHORS: Plant Biology, The Noble Foundation, Ardmore, OK, US/Dennis Fine, Daniel Wherritt, and Lloyd Sumner
LICENSE: CC BY-NC-SA
CH$NAME: Hex-hex-Mal-Bayogenin (isomer 2) (PUT)
CH$COMPOUND_CLASS: Natural Product; N/A
CH$FORMULA: C45H70O18
CH$EXACT_MASS: 898.4562
CH$SMILES: N/A
CH$IUPAC: N/A
AC$INSTRUMENT: Bruker impact HD
AC$INSTRUMENT_TYPE: LC-ESI-QTOF
AC$MASS_SPECTROMETRY: MS_TYPE MS2
AC$MASS_SPECTROMETRY: ION_MODE NEGATIVE
AC$MASS_SPECTROMETRY: COLLISION_ENERGY 50 eV
AC$MASS_SPECTROMETRY: IONIZATION ESI
AC$MASS_SPECTROMETRY: PEAK_WIDTH 0.016
AC$MASS_SPECTROMETRY: MASS_RANGE_M/Z 100-1500
AC$CHROMATOGRAPHY: COLUMN_NAME Waters Acquity BEH C18 1.7um x 2.1 x 150 mm
AC$CHROMATOGRAPHY: FLOW_GRADIENT 95/5 at 0 min, 20/80 at 35 min; 5/95 at 35 min, 5/95 at 38 min; 95/5 at 38.1 min, 95/5 at 45 min
AC$CHROMATOGRAPHY: FLOW_RATE FLOW_RATE 560 uL / min
AC$CHROMATOGRAPHY: SOLVENT A water with 0.05% formic acid
AC$CHROMATOGRAPHY: SOLVENT B acetonitrile with 0.05 % formic acid
AC$CHROMATOGRAPHY: RETENTION_TIME 811.2 sec
MS$FOCUSED_ION: PRECURSOR_M/Z 853.4557
MS$FOCUSED_ION: PRECURSOR_TYPE [M-H]-
MS$DATA_PROCESSING: WHOLE convert from Bruker Library Editor (https://github.com/MassBank/MassBank2NIST)
PK$SPLASH: splash10-0006-0000009000-b4bcbddc3f36639cb26b
PK$NUM_PEAK: 14
PK$PEAK: m/z int. rel.int.
  101.0243 7 7
  485.3252 14 14
  487.3347 18 18
  629.3714 7 7
  631.3350 6 6
  631.3840 416 416
  632.3866 165 165
  633.3920 30 30
  649.3968 201 201
  650.3977 55 55
  691.4060 999 999
  692.4089 408 408
  693.4103 84 84
  809.4173 7 7
//
