ACCESSION: MSBNK-BS-BS001187
RECORD_TITLE: 3-(Glc(1-2)Glc(1-2)Glc)-28-(Xyl(1-4)[Ara(1-3)]Rha(1-2)Ara Medicagenic acid (NMR); LC-ESI-QTOF; MS2; CE:100 eV; [M-H]-
DATE: 2017.12.01 (Created 2015.01.15)
AUTHORS: Plant Biology, The Noble Foundation, Ardmore, OK, US/Dennis Fine, Daniel Wherritt, and Lloyd Sumner
LICENSE: CC BY-NC-SA
CH$NAME: 3-(Glc(1-2)Glc(1-2)Glc)-28-(Xyl(1-4)[Ara(1-3)]Rha(1-2)Ara Medicagenic acid (NMR)
CH$NAME: 3-Glc(1-2)Glc(1-2)Glc-28-Xyl(1-4)[Ara(1-3)]Rha(1-2)Ara Medicagenic acid (NMR)
CH$COMPOUND_CLASS: Natural Product; N/A
CH$FORMULA: C69H110O37
CH$EXACT_MASS: 1530.673
CH$SMILES: C[C@H]1[C@@H]([C@H]([C@H]([C@@H](O1)O[C@@H]2[C@H]([C@H](CO[C@H]2OC(=O)[C@@]34CC[C@@]5(C(=CCC6[C@]5(CCC7[C@@]6(C[C@@H]([C@@H]([C@@]7(C)C(=O)O)O[C@H]8[C@@H]([C@H]([C@@H]([C@H](O8)CO)O)O)O[C@H]9[C@@H]([C@H]([C@@H]([C@H](O9)CO)O)O)O[C@H]1[C@@H]([C@H]([C@@H]([C@H](O1)CO)O)O)O)O)C)C)[C@@H]3CC(CC4)(C)C)C)O)O)O)O[C@H]1[C@@H]([C@H]([C@H](CO1)O)O)O)O[C@H]1[C@@H]([C@H]([C@@H](CO1)O)O)O
CH$IUPAC: InChI=1S/C69H110O37/c1-24-49(100-55-45(86)36(77)28(74)21-93-55)50(101-56-46(87)37(78)29(75)22-94-56)48(89)58(96-24)102-51-38(79)30(76)23-95-59(51)106-63(92)69-14-12-64(2,3)16-26(69)25-8-9-34-65(4)17-27(73)54(68(7,62(90)91)35(65)10-11-67(34,6)66(25,5)13-15-69)105-61-53(44(85)41(82)33(20-72)99-61)104-60-52(43(84)40(81)32(19-71)98-60)103-57-47(88)42(83)39(80)31(18-70)97-57/h8,24,26-61,70-89H,9-23H2,1-7H3,(H,90,91)/t24-,26-,27-,28+,29-,30-,31+,32+,33+,34?,35?,36-,37-,38-,39+,40+,41+,42-,43-,44-,45+,46+,47+,48+,49-,50-,51+,52+,53+,54-,55-,56-,57-,58-,59-,60-,61-,65+,66+,67+,68-,69-/m0/s1
CH$LINK: INCHIKEY OMLTZGGUOLBXJO-WLPKCRDHSA-N
CH$LINK: PUBCHEM CID:134740410
AC$INSTRUMENT: Bruker impact HD
AC$INSTRUMENT_TYPE: LC-ESI-QTOF
AC$MASS_SPECTROMETRY: MS_TYPE MS2
AC$MASS_SPECTROMETRY: ION_MODE NEGATIVE
AC$MASS_SPECTROMETRY: COLLISION_ENERGY 100 eV
AC$MASS_SPECTROMETRY: IONIZATION ESI
AC$MASS_SPECTROMETRY: ISOLATION_WIDTH 15.1979
AC$MASS_SPECTROMETRY: PEAK_WIDTH 0.02
AC$MASS_SPECTROMETRY: MASS_RANGE_M/Z 100-2250
AC$CHROMATOGRAPHY: COLUMN_NAME Waters Acquity BEH C18 1.7um x 2.1 x 150 mm
AC$CHROMATOGRAPHY: FLOW_GRADIENT 95/5 at 0 min, 20/80 at 35 min; 5/95 at 35 min, 5/95 at 38 min; 95/5 at 38.1 min, 95/5 at 45 min
AC$CHROMATOGRAPHY: FLOW_RATE FLOW_RATE 560 uL / min
AC$CHROMATOGRAPHY: SOLVENT A water with 0.05% formic acid
AC$CHROMATOGRAPHY: SOLVENT B acetonitrile with 0.05 % formic acid
AC$CHROMATOGRAPHY: RETENTION_TIME 760.8 sec
MS$FOCUSED_ION: PRECURSOR_M/Z 1529.659
MS$FOCUSED_ION: PRECURSOR_TYPE [M-H]-
MS$DATA_PROCESSING: WHOLE convert from Bruker Library Editor (https://github.com/MassBank/MassBank2NIST)
PK$SPLASH: splash10-001i-0149250000-67773213bfff0ee75edc
PK$NUM_PEAK: 21
PK$PEAK: m/z int. rel.int.
  101.0237 37 37
  113.0219 22 22
  131.0351 16 16
  161.0448 49 49
  179.0563 104 104
  221.0644 255 255
  222.0707 39 39
  263.0763 290 290
  337.1132 62 62
  341.1037 26 26
  383.1190 999 999
  384.1199 167 167
  385.1324 31 31
  409.1307 24 24
  439.3184 238 238
  440.3240 60 60
  469.1563 74 74
  1529.6591 359 359
  1530.6581 225 225
  1531.6608 108 108
  1532.6422 45 45
//
