ACCESSION: MSBNK-BS-BS001084
RECORD_TITLE: 4'-O-(2'-E-Feruloyl GluA(1-2)GluA) Apigenin (NMR); LC-ESI-QTOF; MS2; CE:32 eV; [M+H]+
DATE: 2017.12.01 (Created 2014.09.25)
AUTHORS: Plant Biology, The Noble Foundation, Ardmore, OK, US/Dennis Fine, Daniel Wherritt, and Lloyd Sumner
LICENSE: CC BY-NC-SA
CH$NAME: 4'-O-(2'-E-Feruloyl GluA(1-2)GluA) Apigenin (NMR)
CH$COMPOUND_CLASS: Natural Product; N/A
CH$FORMULA: C37H34O20
CH$EXACT_MASS: 798.1643
CH$SMILES: C1(=CC(=C2C(=C1)OC(=CC2=O)C3=CC=C(C=C3)O[C@@H]4O[C@H](C(=O)O)[C@H]([C@@H]([C@H]4O[C@H]5[C@@H]([C@H]([C@@H]([C@@H](C(=O)O)O5)O)O)OC(/C=C/C6=CC=C(C(OC)=C6)O)=O)O)O)O)O
CH$IUPAC: InChI=1S/C37H34O20/c1-51-22-10-14(2-8-18(22)39)3-9-24(42)54-32-28(45)26(43)31(35(49)50)56-37(32)57-33-29(46)27(44)30(34(47)48)55-36(33)52-17-6-4-15(5-7-17)21-13-20(41)25-19(40)11-16(38)12-23(25)53-21/h2-13,26-33,36-40,43-46H,1H3,(H,47,48)(H,49,50)/b9-3+/t26-,27-,28-,29-,30-,31-,32+,33+,36+,37-/m0/s1
CH$LINK: INCHIKEY LNCLTICCQWMCNS-OJBICJBZSA-N
CH$LINK: PUBCHEM CID:134747237
AC$INSTRUMENT: Bruker impact HD
AC$INSTRUMENT_TYPE: LC-ESI-QTOF
AC$MASS_SPECTROMETRY: MS_TYPE MS2
AC$MASS_SPECTROMETRY: ION_MODE POSITIVE
AC$MASS_SPECTROMETRY: COLLISION_ENERGY 32 eV
AC$MASS_SPECTROMETRY: IONIZATION ESI
AC$MASS_SPECTROMETRY: ISOLATION_WIDTH 9.19656
AC$MASS_SPECTROMETRY: PEAK_WIDTH 0.014
AC$MASS_SPECTROMETRY: MASS_RANGE_M/Z 94.8644-1505.32
AC$CHROMATOGRAPHY: COLUMN_NAME Waters Acquity BEH C18 1.7um x 2.1 x 150 mm
AC$CHROMATOGRAPHY: FLOW_GRADIENT 95/5 at 0 min, 20/80 at 35 min; 5/95 at 35 min, 5/95 at 38 min; 95/5 at 38.1 min, 95/5 at 45 min
AC$CHROMATOGRAPHY: FLOW_RATE FLOW_RATE 560 uL / min
AC$CHROMATOGRAPHY: SOLVENT A water with 0.05% formic acid
AC$CHROMATOGRAPHY: SOLVENT B acetonitrile with 0.05 % formic acid
AC$CHROMATOGRAPHY: RETENTION_TIME 466.8 sec
MS$FOCUSED_ION: PRECURSOR_M/Z 799.1725
MS$FOCUSED_ION: PRECURSOR_TYPE [M+H]+
MS$DATA_PROCESSING: WHOLE convert from Bruker Library Editor (https://github.com/MassBank/MassBank2NIST)
PK$SPLASH: splash10-00di-0091000000-eb17bcda3c543b5773e6
PK$NUM_PEAK: 14
PK$PEAK: m/z int. rel.int.
  260.0673 232 232
  261.0723 45 45
  271.0601 999 999
  272.0630 137 137
  273.0706 22 22
  299.0532 21 21
  335.0768 54 54
  336.0797 15 15
  353.0868 166 166
  354.0896 25 25
  447.0929 111 111
  448.0942 25 25
  799.1725 27 27
  800.1694 11 11
//
