ACCESSION: MSBNK-BS-BS003667
RECORD_TITLE: Saponarin; LC-ESI-QTOF; MS2; CE:30 eV; [M-H]-
DATE: 2017.12.01 (Created 2014.01.04)
AUTHORS: Plant Biology, The Noble Foundation, Ardmore, OK, US/Dennis Fine, Daniel Wherritt, and Lloyd Sumner
LICENSE: CC BY-NC-SA
CH$NAME: Saponarin
CH$COMPOUND_CLASS: Natural Product; N/A
CH$FORMULA: C27H30O15
CH$EXACT_MASS: 594.1585
CH$SMILES: C1(=C(C(=C(C(=C1C2=C(C(=O)C3=C(C(=C(C(=C3O2)[H])OC4(C(C(C(C(O4)(C(O[H])([H])[H])[H])(O[H])[H])(O[H])[H])(O[H])[H])[H])C5(C(C(C(C(O5)(C(O[H])([H])[H])[H])(O[H])[H])(O[H])[H])(O[H])[H])[H])O[H])[H])[H])[H])O[H])[H])[H]
CH$IUPAC: InChI=1S/C27H30O15/c28-7-15-19(32)22(35)24(37)26(40-15)18-14(41-27-25(38)23(36)20(33)16(8-29)42-27)6-13-17(21(18)34)11(31)5-12(39-13)9-1-3-10(30)4-2-9/h1-6,15-16,19-20,22-30,32-38H,7-8H2/t15-,16-,19-,20-,22+,23+,24-,25-,26+,27-/m1/s1
CH$LINK: INCHIKEY HGUVPEBGCAVWID-KETMJRJWSA-N
CH$LINK: CAS 20310-89-8
CH$LINK: COMPTOX DTXSID10174201
AC$INSTRUMENT: Bruker impact HD
AC$INSTRUMENT_TYPE: LC-ESI-QTOF
AC$MASS_SPECTROMETRY: MS_TYPE MS2
AC$MASS_SPECTROMETRY: ION_MODE NEGATIVE
AC$MASS_SPECTROMETRY: COLLISION_ENERGY 30 eV
AC$MASS_SPECTROMETRY: IONIZATION ESI
AC$MASS_SPECTROMETRY: ISOLATION_WIDTH 5
AC$MASS_SPECTROMETRY: PEAK_WIDTH 0.011
AC$MASS_SPECTROMETRY: MASS_RANGE_M/Z 94.8807-1505.22
AC$CHROMATOGRAPHY: COLUMN_NAME Waters Acquity BEH C18 1.7um x 2.1 x 150 mm
AC$CHROMATOGRAPHY: FLOW_GRADIENT 95/5 at 0 min, 20/80 at 35 min; 5/95 at 35 min, 5/95 at 38 min; 95/5 at 38.1 min, 95/5 at 45 min
AC$CHROMATOGRAPHY: FLOW_RATE FLOW_RATE 560 uL / min
AC$CHROMATOGRAPHY: SOLVENT A water with 0.05% formic acid
AC$CHROMATOGRAPHY: SOLVENT B acetonitrile with 0.05 % formic acid
AC$CHROMATOGRAPHY: RETENTION_TIME 240.6 sec
MS$FOCUSED_ION: PRECURSOR_M/Z 593.1488
MS$FOCUSED_ION: PRECURSOR_TYPE [M-H]-
MS$DATA_PROCESSING: WHOLE convert from Bruker Library Editor (https://github.com/MassBank/MassBank2NIST)
PK$SPLASH: splash10-0006-0000090000-09af3855adba25af50e1
PK$NUM_PEAK: 20
PK$PEAK: m/z int. rel.int.
  282.0528 3 3
  283.0607 2 2
  297.0390 14 14
  298.0392 3 3
  311.0540 51 51
  312.0568 5 5
  314.0405 2 2
  341.0639 6 6
  342.0690 2 2
  413.0839 3 3
  430.0869 8 8
  431.0956 62 62
  432.0997 8 8
  433.1055 2 2
  473.1071 15 15
  474.1110 4 4
  593.1488 999 999
  594.1521 250 250
  595.1530 43 43
  596.1619 7 7
//
