ACCESSION: MSBNK-BS-BS002008
RECORD_TITLE: Glc-octadecatrienoyl-sn-glycerol (isomer 2) (PUT); LC-ESI-QTOF; MS2; CE:39 eV; [M-H]-
DATE: 2017.12.01 (Created 2014.12.12)
AUTHORS: Plant Biology, The Noble Foundation, Ardmore, OK, US/Dennis Fine, Daniel Wherritt, and Lloyd Sumner
LICENSE: CC BY-NC-SA
CH$NAME: Glc-octadecatrienoyl-sn-glycerol (isomer 2) (PUT)
CH$COMPOUND_CLASS: Natural Product; N/A
CH$FORMULA: C27H46O9
CH$EXACT_MASS: 514.3142
CH$SMILES: N/A
CH$IUPAC: N/A
AC$INSTRUMENT: Bruker impact HD
AC$INSTRUMENT_TYPE: LC-ESI-QTOF
AC$MASS_SPECTROMETRY: MS_TYPE MS2
AC$MASS_SPECTROMETRY: ION_MODE NEGATIVE
AC$MASS_SPECTROMETRY: COLLISION_ENERGY 39 eV
AC$MASS_SPECTROMETRY: IONIZATION ESI
AC$MASS_SPECTROMETRY: PEAK_WIDTH 0.017
AC$MASS_SPECTROMETRY: MASS_RANGE_M/Z 100-1500
AC$CHROMATOGRAPHY: COLUMN_NAME Waters Acquity BEH C18 1.7um x 2.1 x 150 mm
AC$CHROMATOGRAPHY: FLOW_GRADIENT 95/5 at 0 min, 20/80 at 35 min; 5/95 at 35 min, 5/95 at 38 min; 95/5 at 38.1 min, 95/5 at 45 min
AC$CHROMATOGRAPHY: FLOW_RATE FLOW_RATE 560 uL / min
AC$CHROMATOGRAPHY: SOLVENT A water with 0.05% formic acid
AC$CHROMATOGRAPHY: SOLVENT B acetonitrile with 0.05 % formic acid
AC$CHROMATOGRAPHY: RETENTION_TIME 1391.4 sec
MS$FOCUSED_ION: PRECURSOR_M/Z 559.3088
MS$FOCUSED_ION: PRECURSOR_TYPE [M-H]-
MS$DATA_PROCESSING: WHOLE convert from Bruker Library Editor (https://github.com/MassBank/MassBank2NIST)
PK$SPLASH: splash10-004i-0090000000-eafbff4e11809fce050e
PK$NUM_PEAK: 8
PK$PEAK: m/z int. rel.int.
  247.9321 7 7
  253.0923 139 139
  277.2158 999 999
  278.2193 162 162
  279.2324 117 117
  393.9671 86 86
  535.9861 25 25
  556.0009 21 21
//
