ACCESSION: MSBNK-BS-BS003872
RECORD_TITLE: Pentadecanoic acid; LC-ESI-QTOF; MS2; CE:20 eV; [M-H]-
DATE: 2017.12.01 (Created 2014.08.18)
AUTHORS: Plant Biology, The Noble Foundation, Ardmore, OK, US/Dennis Fine, Daniel Wherritt, and Lloyd Sumner
LICENSE: CC BY-NC-SA
CH$NAME: Pentadecanoic acid
CH$COMPOUND_CLASS: Natural Product; N/A
CH$FORMULA: C15H30O2
CH$EXACT_MASS: 242.2246
CH$SMILES: C(C(C(C(C(C(C(C(C(C(C(C(C(C(C(=O)O[H])([H])[H])([H])[H])([H])[H])([H])[H])([H])[H])([H])[H])([H])[H])([H])[H])([H])[H])([H])[H])([H])[H])([H])[H])([H])[H])([H])([H])[H]
CH$IUPAC: InChI=1S/C15H30O2/c1-2-3-4-5-6-7-8-9-10-11-12-13-14-15(16)17/h2-14H2,1H3,(H,16,17)
CH$LINK: CAS 1002-84-2
CH$LINK: COMPTOX DTXSID2021652
CH$LINK: INCHIKEY WQEPLUUGTLDZJY-UHFFFAOYSA-N
CH$LINK: PUBCHEM CID:13849
AC$INSTRUMENT: Bruker impact HD
AC$INSTRUMENT_TYPE: LC-ESI-QTOF
AC$MASS_SPECTROMETRY: MS_TYPE MS2
AC$MASS_SPECTROMETRY: ION_MODE NEGATIVE
AC$MASS_SPECTROMETRY: COLLISION_ENERGY 20 eV
AC$MASS_SPECTROMETRY: IONIZATION ESI
AC$MASS_SPECTROMETRY: ISOLATION_WIDTH 5
AC$MASS_SPECTROMETRY: PEAK_WIDTH 0.013
AC$MASS_SPECTROMETRY: MASS_RANGE_M/Z 94.846-1505.08
AC$CHROMATOGRAPHY: COLUMN_NAME Waters Acquity BEH C18 1.7um x 2.1 x 150 mm
AC$CHROMATOGRAPHY: FLOW_GRADIENT 95/5 at 0 min, 20/80 at 35 min; 5/95 at 35 min, 5/95 at 38 min; 95/5 at 38.1 min, 95/5 at 45 min
AC$CHROMATOGRAPHY: FLOW_RATE FLOW_RATE 560 uL / min
AC$CHROMATOGRAPHY: SOLVENT A water with 0.05% formic acid
AC$CHROMATOGRAPHY: SOLVENT B acetonitrile with 0.05 % formic acid
AC$CHROMATOGRAPHY: RETENTION_TIME 1791 sec
MS$FOCUSED_ION: PRECURSOR_M/Z 241.2173
MS$FOCUSED_ION: PRECURSOR_TYPE [M-H]-
MS$DATA_PROCESSING: WHOLE convert from Bruker Library Editor (https://github.com/MassBank/MassBank2NIST)
PK$SPLASH: splash10-0006-0090000000-e497b3530081726e5ced
PK$NUM_PEAK: 5
PK$PEAK: m/z int. rel.int.
  223.2050 5 5
  241.2173 999 999
  241.7063 2 2
  242.2201 100 100
  243.2222 6 6
//
