ACCESSION: MSBNK-BS-BS003265
RECORD_TITLE: Protocatechuic aldehyde; LC-ESI-QTOF; MS2; CE:20 eV; [M-H]-
DATE: 2017.12.01 (Created 2014.01.10)
AUTHORS: Plant Biology, The Noble Foundation, Ardmore, OK, US/Dennis Fine, Daniel Wherritt, and Lloyd Sumner
LICENSE: CC BY-NC-SA
CH$NAME: Protocatechuic aldehyde
CH$COMPOUND_CLASS: Natural Product; N/A
CH$FORMULA: C7H6O3
CH$EXACT_MASS: 138.0317
CH$SMILES: C1(=C(C(=C(C(=C1C(=O)[H])[H])O[H])O[H])[H])[H]
CH$IUPAC: InChI=1S/C7H6O3/c8-4-5-1-2-6(9)7(10)3-5/h1-4,9-10H
CH$LINK: CAS 139-85-5
CH$LINK: COMPTOX DTXSID4074512
CH$LINK: INCHIKEY IBGBGRVKPALMCQ-UHFFFAOYSA-N
CH$LINK: PUBCHEM CID:8768
AC$INSTRUMENT: Bruker impact HD
AC$INSTRUMENT_TYPE: LC-ESI-QTOF
AC$MASS_SPECTROMETRY: MS_TYPE MS2
AC$MASS_SPECTROMETRY: ION_MODE NEGATIVE
AC$MASS_SPECTROMETRY: COLLISION_ENERGY 20 eV
AC$MASS_SPECTROMETRY: IONIZATION ESI
AC$MASS_SPECTROMETRY: ISOLATION_WIDTH 5
AC$MASS_SPECTROMETRY: PEAK_WIDTH 0.016
AC$MASS_SPECTROMETRY: MASS_RANGE_M/Z 94.8751-1505.14
AC$CHROMATOGRAPHY: COLUMN_NAME Waters Acquity BEH C18 1.7um x 2.1 x 150 mm
AC$CHROMATOGRAPHY: FLOW_GRADIENT 95/5 at 0 min, 20/80 at 35 min; 5/95 at 35 min, 5/95 at 38 min; 95/5 at 38.1 min, 95/5 at 45 min
AC$CHROMATOGRAPHY: FLOW_RATE FLOW_RATE 560 uL / min
AC$CHROMATOGRAPHY: SOLVENT A water with 0.05% formic acid
AC$CHROMATOGRAPHY: SOLVENT B acetonitrile with 0.05 % formic acid
AC$CHROMATOGRAPHY: RETENTION_TIME 65.4 sec
MS$FOCUSED_ION: PRECURSOR_M/Z 137.0239
MS$FOCUSED_ION: PRECURSOR_TYPE [M-H]-
MS$DATA_PROCESSING: WHOLE convert from Bruker Library Editor (https://github.com/MassBank/MassBank2NIST)
PK$SPLASH: splash10-000i-0900000000-25b5b2bc87af9df04e91
PK$NUM_PEAK: 6
PK$PEAK: m/z int. rel.int.
  108.0205 343 343
  109.0305 214 214
  119.0151 217 217
  136.0166 514 514
  137.0239 999 999
  138.0265 127 127
//
