ACCESSION: MSBNK-BS-BS003552
RECORD_TITLE: Isosakuranetin; LC-ESI-QTOF; MS2; CE:20 eV; [M-H]-
DATE: 2017.12.01 (Created 2013.11.24)
AUTHORS: Plant Biology, The Noble Foundation, Ardmore, OK, US/Dennis Fine, Daniel Wherritt, and Lloyd Sumner
LICENSE: CC BY-NC-SA
CH$NAME: Isosakuranetin
CH$COMPOUND_CLASS: Natural Product; N/A
CH$FORMULA: C16H14O5
CH$EXACT_MASS: 286.0841
CH$SMILES: C(OC1=C(C(=C(C(=C1[H])[H])C2(C(C(=O)C3=C(C(=C(C(=C3O2)[H])O[H])[H])O[H])([H])[H])[H])[H])[H])([H])([H])[H]
CH$IUPAC: InChI=1S/C16H14O5/c1-20-11-4-2-9(3-5-11)14-8-13(19)16-12(18)6-10(17)7-15(16)21-14/h2-7,14,17-18H,8H2,1H3/t14-/m0/s1
CH$LINK: INCHIKEY HMUJXQRRKBLVOO-AWEZNQCLSA-N
CH$LINK: CAS 480-43-3
CH$LINK: COMPTOX DTXSID60963980
AC$INSTRUMENT: Bruker impact HD
AC$INSTRUMENT_TYPE: LC-ESI-QTOF
AC$MASS_SPECTROMETRY: MS_TYPE MS2
AC$MASS_SPECTROMETRY: ION_MODE NEGATIVE
AC$MASS_SPECTROMETRY: COLLISION_ENERGY 20 eV
AC$MASS_SPECTROMETRY: IONIZATION ESI
AC$MASS_SPECTROMETRY: ISOLATION_WIDTH 5
AC$MASS_SPECTROMETRY: PEAK_WIDTH 0.015
AC$MASS_SPECTROMETRY: MASS_RANGE_M/Z 94.8825-1505.23
AC$CHROMATOGRAPHY: COLUMN_NAME Waters Acquity BEH C18 1.7um x 2.1 x 150 mm
AC$CHROMATOGRAPHY: FLOW_GRADIENT 95/5 at 0 min, 20/80 at 35 min; 5/95 at 35 min, 5/95 at 38 min; 95/5 at 38.1 min, 95/5 at 45 min
AC$CHROMATOGRAPHY: FLOW_RATE FLOW_RATE 560 uL / min
AC$CHROMATOGRAPHY: SOLVENT A water with 0.05% formic acid
AC$CHROMATOGRAPHY: SOLVENT B acetonitrile with 0.05 % formic acid
AC$CHROMATOGRAPHY: RETENTION_TIME 838.2 sec
MS$FOCUSED_ION: PRECURSOR_M/Z 285.0776
MS$FOCUSED_ION: PRECURSOR_TYPE [M-H]-
MS$DATA_PROCESSING: WHOLE convert from Bruker Library Editor (https://github.com/MassBank/MassBank2NIST)
PK$SPLASH: splash10-000i-0090000000-0e910cfc6d99a17b66ad
PK$NUM_PEAK: 27
PK$PEAK: m/z int. rel.int.
  108.0216 1 1
  136.0173 4 4
  151.0043 14 14
  164.0124 47 47
  165.0158 3 3
  175.0765 3 3
  177.0206 1 1
  196.0020 14 14
  197.0057 1 1
  199.0758 2 2
  201.0550 1 1
  217.0870 3 3
  225.0555 1 1
  226.0638 3 3
  227.0350 1 1
  228.0434 2 2
  241.0868 7 7
  242.0915 1 1
  243.0668 57 57
  244.0703 6 6
  257.0821 2 2
  269.0468 1 1
  270.0536 41 41
  271.0572 6 6
  285.0776 999 999
  286.0810 107 107
  287.0823 10 10
//
