ACCESSION: MSBNK-BS-BS003595
RECORD_TITLE: Artocaprin; LC-ESI-QTOF; MS2; CE:10 eV; [M-H]-
DATE: 2017.12.01 (Created 2013.11.23)
AUTHORS: Plant Biology, The Noble Foundation, Ardmore, OK, US/Dennis Fine, Daniel Wherritt, and Lloyd Sumner
LICENSE: CC BY-NC-SA
CH$NAME: Artocaprin
CH$COMPOUND_CLASS: Natural Product; N/A
CH$FORMULA: C26H28O6
CH$EXACT_MASS: 436.1886
CH$SMILES: C(C(C([H])([H])[H])(/C(=C(/C1=C(C(=C2C(=C1O[H])C(=O)C(=C(O2)C3=C(C(=C(C(=C3[H])[H])O[H])[H])O[H])C(C(=C(C([H])([H])[H])C([H])([H])[H])[H])([H])[H])[H])OC([H])([H])[H])\[H])/[H])[H])([H])([H])[H]
CH$IUPAC: InChI=1S/C26H28O6/c1-14(2)6-9-18-21(31-5)13-22-23(24(18)29)25(30)19(10-7-15(3)4)26(32-22)17-11-8-16(27)12-20(17)28/h6-9,11-14,27-29H,10H2,1-5H3/b9-6+
CH$LINK: CAS 7608-44-8
CH$LINK: INCHIKEY KRGDFVQWQJIMEK-RMKNXTFCSA-N
CH$LINK: PUBCHEM CID:5458461
AC$INSTRUMENT: Bruker impact HD
AC$INSTRUMENT_TYPE: LC-ESI-QTOF
AC$MASS_SPECTROMETRY: MS_TYPE MS2
AC$MASS_SPECTROMETRY: ION_MODE NEGATIVE
AC$MASS_SPECTROMETRY: COLLISION_ENERGY 10 eV
AC$MASS_SPECTROMETRY: IONIZATION ESI
AC$MASS_SPECTROMETRY: ISOLATION_WIDTH 5
AC$MASS_SPECTROMETRY: PEAK_WIDTH 0.011
AC$MASS_SPECTROMETRY: MASS_RANGE_M/Z 94.8821-1505.23
AC$CHROMATOGRAPHY: COLUMN_NAME Waters Acquity BEH C18 1.7um x 2.1 x 150 mm
AC$CHROMATOGRAPHY: FLOW_GRADIENT 95/5 at 0 min, 20/80 at 35 min; 5/95 at 35 min, 5/95 at 38 min; 95/5 at 38.1 min, 95/5 at 45 min
AC$CHROMATOGRAPHY: FLOW_RATE FLOW_RATE 560 uL / min
AC$CHROMATOGRAPHY: SOLVENT A water with 0.05% formic acid
AC$CHROMATOGRAPHY: SOLVENT B acetonitrile with 0.05 % formic acid
AC$CHROMATOGRAPHY: RETENTION_TIME 1596 sec
MS$FOCUSED_ION: PRECURSOR_M/Z 435.1826
MS$FOCUSED_ION: PRECURSOR_TYPE [M-H]-
MS$DATA_PROCESSING: WHOLE convert from Bruker Library Editor (https://github.com/MassBank/MassBank2NIST)
PK$SPLASH: splash10-000i-0000900000-0edef93ed272697afd8a
PK$NUM_PEAK: 4
PK$PEAK: m/z int. rel.int.
  313.1437 15 15
  435.1826 999 999
  436.1858 191 191
  437.1876 27 27
//
