ACCESSION: MSBNK-BS-BS001111
RECORD_TITLE: 3-GluA Soyasapogenol B (NMR); LC-ESI-QTOF; MS2; CE:42 eV; [M-H]-
DATE: 2017.12.01 (Created 2014.06.03)
AUTHORS: Plant Biology, The Noble Foundation, Ardmore, OK, US/Dennis Fine, Daniel Wherritt, and Lloyd Sumner
LICENSE: CC BY-NC-SA
CH$NAME: 3-GluA Soyasapogenol B (NMR)
CH$COMPOUND_CLASS: Natural Product; N/A
CH$FORMULA: C36H58O9
CH$EXACT_MASS: 634.4081
CH$SMILES: C1[C@@H]([C@@](C2[C@](C1)(C3[C@@](CC2)([C@]4(C(=CC3)[C@]5([C@@](CC4)([C@@H](CC(C5)(C)C)O)C)[H])C)C)C)(CO)C)O[C@@H]6O[C@@H]([C@H]([C@@H]([C@H]6O)O)O)C(O)=O
CH$IUPAC: InChI=1S/C36H58O9/c1-31(2)16-20-19-8-9-22-33(4)12-11-24(44-30-27(41)25(39)26(40)28(45-30)29(42)43)34(5,18-37)21(33)10-13-36(22,7)35(19,6)15-14-32(20,3)23(38)17-31/h8,20-28,30,37-41H,9-18H2,1-7H3,(H,42,43)/t20-,21?,22?,23+,24-,25-,26-,27+,28-,30+,32+,33-,34+,35+,36+/m0/s1
CH$LINK: INCHIKEY NARQRJFIZNOSJV-JMMGJMLBSA-N
CH$LINK: PUBCHEM CID:51136552
AC$INSTRUMENT: Bruker impact HD
AC$INSTRUMENT_TYPE: LC-ESI-QTOF
AC$MASS_SPECTROMETRY: MS_TYPE MS2
AC$MASS_SPECTROMETRY: ION_MODE NEGATIVE
AC$MASS_SPECTROMETRY: COLLISION_ENERGY 42 eV
AC$MASS_SPECTROMETRY: IONIZATION ESI
AC$MASS_SPECTROMETRY: ISOLATION_WIDTH 8.53377
AC$MASS_SPECTROMETRY: PEAK_WIDTH 0.016
AC$MASS_SPECTROMETRY: MASS_RANGE_M/Z 94.8462-1505.06
AC$CHROMATOGRAPHY: COLUMN_NAME Waters Acquity BEH C18 1.7um x 2.1 x 150 mm
AC$CHROMATOGRAPHY: FLOW_GRADIENT 95/5 at 0 min, 20/80 at 35 min; 5/95 at 35 min, 5/95 at 38 min; 95/5 at 38.1 min, 95/5 at 45 min
AC$CHROMATOGRAPHY: FLOW_RATE FLOW_RATE 560 uL / min
AC$CHROMATOGRAPHY: SOLVENT A water with 0.05% formic acid
AC$CHROMATOGRAPHY: SOLVENT B acetonitrile with 0.05 % formic acid
AC$CHROMATOGRAPHY: RETENTION_TIME 1165.8 sec
MS$FOCUSED_ION: PRECURSOR_M/Z 633.4006
MS$FOCUSED_ION: PRECURSOR_TYPE [M-H]-
MS$DATA_PROCESSING: WHOLE convert from Bruker Library Editor (https://github.com/MassBank/MassBank2NIST)
PK$SPLASH: splash10-001i-0000009000-d7aab4c172fb2dcd7f96
PK$NUM_PEAK: 4
PK$PEAK: m/z int. rel.int.
  113.0237 135 135
  633.4006 999 999
  634.4025 368 368
  635.4066 90 90
//
