ACCESSION: MSBNK-BS-BS003512
RECORD_TITLE: Eriodictyol-7-neohesperidoside; LC-ESI-QTOF; MS2; CE:20 eV; [M-H]-
DATE: 2017.12.01 (Created 2013.11.23)
AUTHORS: Plant Biology, The Noble Foundation, Ardmore, OK, US/Dennis Fine, Daniel Wherritt, and Lloyd Sumner
LICENSE: CC BY-NC-SA
CH$NAME: Eriodictyol-7-neohesperidoside
CH$COMPOUND_CLASS: Natural Product; N/A
CH$FORMULA: C27H32O15
CH$EXACT_MASS: 596.1741
CH$SMILES: C(C1(C(C(C(C(O1)(OC2(C(C(C(OC2(OC3=C(C(=C4C(=O)C(C(OC4=C3[H])(C5=C(C(=C(C(=C5[H])[H])O[H])O[H])[H])[H])([H])[H])O[H])[H])[H])(C(O[H])([H])[H])[H])(O[H])[H])(O[H])[H])[H])[H])(O[H])[H])(O[H])[H])(O[H])[H])[H])([H])([H])[H]
CH$IUPAC: InChI=1S/C27H32O15/c1-9-20(33)22(35)24(37)26(38-9)42-25-23(36)21(34)18(8-28)41-27(25)39-11-5-14(31)19-15(32)7-16(40-17(19)6-11)10-2-3-12(29)13(30)4-10/h2-6,9,16,18,20-31,33-37H,7-8H2,1H3/t9-,16-,18+,20-,21+,22+,23-,24+,25+,26-,27+/m0/s1
CH$LINK: INCHIKEY OBKKEZLIABHSGY-DOYQYKRZSA-N
CH$LINK: CAS 13241-32-2
CH$LINK: COMPTOX DTXSID70157530
AC$INSTRUMENT: Bruker impact HD
AC$INSTRUMENT_TYPE: LC-ESI-QTOF
AC$MASS_SPECTROMETRY: MS_TYPE MS2
AC$MASS_SPECTROMETRY: ION_MODE NEGATIVE
AC$MASS_SPECTROMETRY: COLLISION_ENERGY 20 eV
AC$MASS_SPECTROMETRY: IONIZATION ESI
AC$MASS_SPECTROMETRY: ISOLATION_WIDTH 5
AC$MASS_SPECTROMETRY: PEAK_WIDTH 0.0087
AC$MASS_SPECTROMETRY: MASS_RANGE_M/Z 94.8824-1505.22
AC$CHROMATOGRAPHY: COLUMN_NAME Waters Acquity BEH C18 1.7um x 2.1 x 150 mm
AC$CHROMATOGRAPHY: FLOW_GRADIENT 95/5 at 0 min, 20/80 at 35 min; 5/95 at 35 min, 5/95 at 38 min; 95/5 at 38.1 min, 95/5 at 45 min
AC$CHROMATOGRAPHY: FLOW_RATE FLOW_RATE 560 uL / min
AC$CHROMATOGRAPHY: SOLVENT A water with 0.05% formic acid
AC$CHROMATOGRAPHY: SOLVENT B acetonitrile with 0.05 % formic acid
AC$CHROMATOGRAPHY: RETENTION_TIME 330.6 sec
MS$FOCUSED_ION: PRECURSOR_M/Z 595.1684
MS$FOCUSED_ION: PRECURSOR_TYPE [M-H]-
MS$DATA_PROCESSING: WHOLE convert from Bruker Library Editor (https://github.com/MassBank/MassBank2NIST)
PK$SPLASH: splash10-0002-0000090000-3109bbd8ee69f77557bc
PK$NUM_PEAK: 9
PK$PEAK: m/z int. rel.int.
  287.0545 3 3
  459.1150 19 19
  460.1204 5 5
  593.1528 10 10
  594.1522 4 4
  595.1684 999 999
  596.1721 243 243
  597.1752 41 41
  598.1825 2 2
//
