ACCESSION: MSBNK-BS-BS003484
RECORD_TITLE: Formononetin-7-O-glucoside (Ononin); LC-ESI-QTOF; MS2; CE:20 eV; [M-H]-
DATE: 2017.12.01 (Created 2013.11.22)
AUTHORS: Plant Biology, The Noble Foundation, Ardmore, OK, US/Dennis Fine, Daniel Wherritt, and Lloyd Sumner
LICENSE: CC BY-NC-SA
CH$NAME: Formononetin-7-O-glucoside (Ononin)
CH$COMPOUND_CLASS: Natural Product; N/A
CH$FORMULA: C22H22O9
CH$EXACT_MASS: 430.1264
CH$SMILES: COC1=CC=C(C=C1)C2=COC3=C(C2=O)C=CC(=C3)O[C@H]4[C@@H]([C@H]([C@@H]([C@H](O4)CO)O)O)O
CH$IUPAC: InChI=1S/C22H22O9/c1-28-12-4-2-11(3-5-12)15-10-29-16-8-13(6-7-14(16)18(15)24)30-22-21(27)20(26)19(25)17(9-23)31-22/h2-8,10,17,19-23,25-27H,9H2,1H3/t17-,19-,20+,21-,22-/m1/s1
CH$LINK: CAS 486-62-4
CH$LINK: COMPTOX DTXSID70964089
CH$LINK: INCHIKEY MGJLSBDCWOSMHL-MIUGBVLSSA-N
CH$LINK: PUBCHEM CID:442813
AC$INSTRUMENT: Bruker impact HD
AC$INSTRUMENT_TYPE: LC-ESI-QTOF
AC$MASS_SPECTROMETRY: MS_TYPE MS2
AC$MASS_SPECTROMETRY: ION_MODE NEGATIVE
AC$MASS_SPECTROMETRY: COLLISION_ENERGY 20 eV
AC$MASS_SPECTROMETRY: IONIZATION ESI
AC$MASS_SPECTROMETRY: ISOLATION_WIDTH 5
AC$MASS_SPECTROMETRY: PEAK_WIDTH 0.012
AC$MASS_SPECTROMETRY: MASS_RANGE_M/Z 94.879-1505.18
AC$CHROMATOGRAPHY: COLUMN_NAME Waters Acquity BEH C18 1.7um x 2.1 x 150 mm
AC$CHROMATOGRAPHY: FLOW_GRADIENT 95/5 at 0 min, 20/80 at 35 min; 5/95 at 35 min, 5/95 at 38 min; 95/5 at 38.1 min, 95/5 at 45 min
AC$CHROMATOGRAPHY: FLOW_RATE FLOW_RATE 560 uL / min
AC$CHROMATOGRAPHY: SOLVENT A water with 0.05% formic acid
AC$CHROMATOGRAPHY: SOLVENT B acetonitrile with 0.05 % formic acid
AC$CHROMATOGRAPHY: RETENTION_TIME 489 sec
MS$FOCUSED_ION: PRECURSOR_M/Z 475.1212
MS$FOCUSED_ION: PRECURSOR_TYPE [M-H]-
MS$DATA_PROCESSING: WHOLE convert from Bruker Library Editor (https://github.com/MassBank/MassBank2NIST)
PK$SPLASH: splash10-014i-0090000000-40e8330b6def47a6f880
PK$NUM_PEAK: 7
PK$PEAK: m/z int. rel.int.
  223.0414 4 4
  252.0434 18 18
  253.0461 6 6
  267.0660 999 999
  268.0688 112 112
  269.0714 11 11
  475.1212 3 3
//
