ACCESSION: MSBNK-BS-BS003246
RECORD_TITLE: 7-Hydroxy-4'-methoxyflavone; LC-ESI-QTOF; MS2; CE:20 eV; [M-H]-
DATE: 2017.12.01 (Created 2013.11.23)
AUTHORS: Plant Biology, The Noble Foundation, Ardmore, OK, US/Dennis Fine, Daniel Wherritt, and Lloyd Sumner
LICENSE: CC BY-NC-SA
CH$NAME: 7-Hydroxy-4'-methoxyflavone
CH$COMPOUND_CLASS: Natural Product; N/A
CH$FORMULA: C16H12O4
CH$EXACT_MASS: 268.0736
CH$SMILES: C(OC1=C(C(=C(C(=C1[H])[H])C2=C(C(=O)C3=C(O2)C(=C(C(=C3[H])[H])O[H])[H])[H])[H])[H])([H])([H])[H]
CH$IUPAC: InChI=1S/C16H12O4/c1-19-12-5-2-10(3-6-12)15-9-14(18)13-7-4-11(17)8-16(13)20-15/h2-9,17H,1H3
CH$LINK: CAS 487-17-2
CH$LINK: COMPTOX DTXSID20197587
CH$LINK: INCHIKEY SQVXWIUVAILQRH-UHFFFAOYSA-N
CH$LINK: PUBCHEM CID:5320693
AC$INSTRUMENT: Bruker impact HD
AC$INSTRUMENT_TYPE: LC-ESI-QTOF
AC$MASS_SPECTROMETRY: MS_TYPE MS2
AC$MASS_SPECTROMETRY: ION_MODE NEGATIVE
AC$MASS_SPECTROMETRY: COLLISION_ENERGY 20 eV
AC$MASS_SPECTROMETRY: IONIZATION ESI
AC$MASS_SPECTROMETRY: ISOLATION_WIDTH 5
AC$MASS_SPECTROMETRY: PEAK_WIDTH 0.013
AC$MASS_SPECTROMETRY: MASS_RANGE_M/Z 94.8805-1505.21
AC$CHROMATOGRAPHY: COLUMN_NAME Waters Acquity BEH C18 1.7um x 2.1 x 150 mm
AC$CHROMATOGRAPHY: FLOW_GRADIENT 95/5 at 0 min, 20/80 at 35 min; 5/95 at 35 min, 5/95 at 38 min; 95/5 at 38.1 min, 95/5 at 45 min
AC$CHROMATOGRAPHY: FLOW_RATE FLOW_RATE 560 uL / min
AC$CHROMATOGRAPHY: SOLVENT A water with 0.05% formic acid
AC$CHROMATOGRAPHY: SOLVENT B acetonitrile with 0.05 % formic acid
AC$CHROMATOGRAPHY: RETENTION_TIME 694.2 sec
MS$FOCUSED_ION: PRECURSOR_M/Z 267.0669
MS$FOCUSED_ION: PRECURSOR_TYPE [M-H]-
MS$DATA_PROCESSING: WHOLE convert from Bruker Library Editor (https://github.com/MassBank/MassBank2NIST)
PK$SPLASH: splash10-0uxr-0090000000-9e13887d013082b69068
PK$NUM_PEAK: 14
PK$PEAK: m/z int. rel.int.
  117.0350 131 131
  118.0383 8 8
  135.0089 5 5
  147.0447 4 4
  223.0399 11 11
  224.0473 10 10
  225.0513 2 2
  251.0338 3 3
  252.0432 999 999
  253.0463 95 95
  254.0483 10 10
  267.0669 707 707
  268.0699 83 83
  269.0728 9 9
//
