ACCESSION: MSBNK-BS-BS001050
RECORD_TITLE: 1-Hydroxy-2-(9Z,12Z-octadecadienoyl)-sn-glycero-3-phosphoethanolamine (NMR); LC-ESI-QTOF; MS2; CE:36 eV; [M-H]-
DATE: 2017.12.01 (Created 2014.11.20)
AUTHORS: Plant Biology, The Noble Foundation, Ardmore, OK, US/Dennis Fine, Daniel Wherritt, and Lloyd Sumner
LICENSE: CC BY-NC-SA
CH$NAME: 1-Hydroxy-2-(9Z,12Z-octadecadienoyl)-sn-glycero-3-phosphoethanolamine (NMR)
CH$NAME: 2-Ammonioethyl (2R)-3-hydroxy-2-[(9Z,12Z)-octadecadienoyloxy]propyl phosphate
CH$COMPOUND_CLASS: Natural Product; N/A
CH$FORMULA: C23H44NO7P
CH$EXACT_MASS: 477.286
CH$SMILES: CCCCC/C=C\C/C=C\CCCCCCCC(=O)O[C@H](CO)COP(=O)(O)OCCN
CH$IUPAC: InChI=1S/C23H44NO7P/c1-2-3-4-5-6-7-8-9-10-11-12-13-14-15-16-17-23(26)31-22(20-25)21-30-32(27,28)29-19-18-24/h6-7,9-10,22,25H,2-5,8,11-21,24H2,1H3,(H,27,28)/b7-6-,10-9-/t22-/m1/s1
CH$LINK: INCHIKEY SVRBKLJIDJHADS-USWSLJGRSA-N
CH$LINK: PUBCHEM CID:53480926
AC$INSTRUMENT: Bruker impact HD
AC$INSTRUMENT_TYPE: LC-ESI-QTOF
AC$MASS_SPECTROMETRY: MS_TYPE MS2
AC$MASS_SPECTROMETRY: ION_MODE NEGATIVE
AC$MASS_SPECTROMETRY: COLLISION_ENERGY 36 eV
AC$MASS_SPECTROMETRY: IONIZATION ESI
AC$MASS_SPECTROMETRY: ISOLATION_WIDTH 7.82208
AC$MASS_SPECTROMETRY: PEAK_WIDTH 0.03
AC$MASS_SPECTROMETRY: MASS_RANGE_M/Z 94.8523-2005.29
AC$CHROMATOGRAPHY: COLUMN_NAME Waters Acquity BEH C18 1.7um x 2.1 x 150 mm
AC$CHROMATOGRAPHY: FLOW_GRADIENT 95/5 at 0 min, 20/80 at 35 min; 5/95 at 35 min, 5/95 at 38 min; 95/5 at 38.1 min, 95/5 at 45 min
AC$CHROMATOGRAPHY: FLOW_RATE FLOW_RATE 560 uL / min
AC$CHROMATOGRAPHY: SOLVENT A water with 0.05% formic acid
AC$CHROMATOGRAPHY: SOLVENT B acetonitrile with 0.05 % formic acid
AC$CHROMATOGRAPHY: RETENTION_TIME 1353.6 sec
MS$FOCUSED_ION: PRECURSOR_M/Z 476.277
MS$FOCUSED_ION: PRECURSOR_TYPE [M-H]-
MS$DATA_PROCESSING: WHOLE convert from Bruker Library Editor (https://github.com/MassBank/MassBank2NIST)
PK$SPLASH: splash10-004i-0090000000-1093bde59f8f73d36232
PK$NUM_PEAK: 2
PK$PEAK: m/z int. rel.int.
  279.230 999 999
  280.236 227 227
//
