ACCESSION: MSBNK-BS-BS001079
RECORD_TITLE: 4'-O-(2'-E-Coumaroyl GluA)(1-2)GluA) Apigenin (NMR); LC-ESI-QTOF; MS2; CE:32 eV; [M+H]+
DATE: 2017.12.01 (Created 2014.09.25)
AUTHORS: Plant Biology, The Noble Foundation, Ardmore, OK, US/Dennis Fine, Daniel Wherritt, and Lloyd Sumner
LICENSE: CC BY-NC-SA
CH$NAME: 4'-O-(2'-E-Coumaroyl GluA)(1-2)GluA) Apigenin (NMR)
CH$COMPOUND_CLASS: Natural Product; N/A
CH$FORMULA: C36H32O19
CH$EXACT_MASS: 768.1538
CH$SMILES: C1(=CC(=C2C(=C1)OC(=CC2=O)C3=CC=C(C=C3)O[C@@H]4O[C@H](C(=O)O)[C@H]([C@@H]([C@H]4O[C@H]5[C@@H]([C@H]([C@@H]([C@@H](C(=O)O)O5)O)O)OC(/C=C/C6=CC=C(C=C6)O)=O)O)O)O)O
CH$IUPAC: InChI=1S/C36H32O19/c37-16-6-1-14(2-7-16)3-10-23(41)52-31-27(44)25(42)30(34(48)49)54-36(31)55-32-28(45)26(43)29(33(46)47)53-35(32)50-18-8-4-15(5-9-18)21-13-20(40)24-19(39)11-17(38)12-22(24)51-21/h1-13,25-32,35-39,42-45H,(H,46,47)(H,48,49)/b10-3+/t25-,26-,27-,28-,29-,30-,31+,32+,35+,36-/m0/s1
CH$LINK: INCHIKEY NCJNNMWJQIKYLO-FRVSQPBBSA-N
CH$LINK: PUBCHEM CID:134751759
AC$INSTRUMENT: Bruker impact HD
AC$INSTRUMENT_TYPE: LC-ESI-QTOF
AC$MASS_SPECTROMETRY: MS_TYPE MS2
AC$MASS_SPECTROMETRY: ION_MODE POSITIVE
AC$MASS_SPECTROMETRY: COLLISION_ENERGY 32 eV
AC$MASS_SPECTROMETRY: IONIZATION ESI
AC$MASS_SPECTROMETRY: ISOLATION_WIDTH 9.07652
AC$MASS_SPECTROMETRY: PEAK_WIDTH 0.015
AC$MASS_SPECTROMETRY: MASS_RANGE_M/Z 94.8644-1505.32
AC$CHROMATOGRAPHY: COLUMN_NAME Waters Acquity BEH C18 1.7um x 2.1 x 150 mm
AC$CHROMATOGRAPHY: FLOW_GRADIENT 95/5 at 0 min, 20/80 at 35 min; 5/95 at 35 min, 5/95 at 38 min; 95/5 at 38.1 min, 95/5 at 45 min
AC$CHROMATOGRAPHY: FLOW_RATE FLOW_RATE 560 uL / min
AC$CHROMATOGRAPHY: SOLVENT A water with 0.05% formic acid
AC$CHROMATOGRAPHY: SOLVENT B acetonitrile with 0.05 % formic acid
AC$CHROMATOGRAPHY: RETENTION_TIME 458.4 sec
MS$FOCUSED_ION: PRECURSOR_M/Z 769.1555
MS$FOCUSED_ION: PRECURSOR_TYPE [M+H]+
MS$DATA_PROCESSING: WHOLE convert from Bruker Library Editor (https://github.com/MassBank/MassBank2NIST)
PK$SPLASH: splash10-00di-0091000000-6e5bce804cfdf026ce4a
PK$NUM_PEAK: 12
PK$PEAK: m/z int. rel.int.
  230.0564 80 80
  259.0608 25 25
  269.0428 31 31
  271.0607 999 999
  272.0626 154 154
  305.0648 48 48
  323.0760 138 138
  324.0763 18 18
  447.0925 73 73
  447.1234 17 17
  448.0978 25 25
  769.1555 18 18
//
