ACCESSION: MSBNK-BS-BS001198
RECORD_TITLE: 3-((3'-Malonyl)Xyl)-28-Glu Bayogenin (NMR); LC-ESI-QTOF; MS2; CE:51 eV; [M-H]-
DATE: 2017.12.01 (Created 2014.11.13)
AUTHORS: Plant Biology, The Noble Foundation, Ardmore, OK, US/Dennis Fine, Daniel Wherritt, and Lloyd Sumner
LICENSE: CC BY-NC-SA
CH$NAME: 3-((3'-Malonyl)Xyl)-28-Glu Bayogenin (NMR)
CH$COMPOUND_CLASS: Natural Product; N/A
CH$FORMULA: C44H68O17
CH$EXACT_MASS: 868.4457
CH$SMILES: [C@H]1([C@@H]([C@@](C2[C@](C1)(C3[C@@](CC2)([C@]4(C(=CC3)[C@]5([C@@](CC4)(CCC(C5)(C)C)C(O[C@H]6[C@@H]([C@H]([C@@H]([C@H](O6)CO)O)O)O)=O)[H])C)C)C)(C)CO)O[C@@H]7OC[C@H]([C@@H]([C@H]7O)OC(=O)CC(=O)O)O)O
CH$IUPAC: InChI=1S/C44H68O17/c1-39(2)11-13-44(38(56)61-37-32(54)31(53)30(52)25(18-45)58-37)14-12-42(5)21(22(44)16-39)7-8-27-40(3)17-23(47)35(41(4,20-46)26(40)9-10-43(27,42)6)60-36-33(55)34(24(48)19-57-36)59-29(51)15-28(49)50/h7,22-27,30-37,45-48,52-55H,8-20H2,1-6H3,(H,49,50)/t22-,23-,24+,25+,26?,27?,30+,31-,32+,33+,34-,35-,36-,37-,40-,41-,42+,43+,44-/m0/s1
CH$LINK: INCHIKEY GCLVKIXOISSSOM-HUSOEYKKSA-N
CH$LINK: PUBCHEM CID:134731816
AC$INSTRUMENT: Bruker impact HD
AC$INSTRUMENT_TYPE: LC-ESI-QTOF
AC$MASS_SPECTROMETRY: MS_TYPE MS2
AC$MASS_SPECTROMETRY: ION_MODE NEGATIVE
AC$MASS_SPECTROMETRY: COLLISION_ENERGY 51 eV
AC$MASS_SPECTROMETRY: IONIZATION ESI
AC$MASS_SPECTROMETRY: PEAK_WIDTH 0.012
AC$MASS_SPECTROMETRY: MASS_RANGE_M/Z 100-1500
AC$CHROMATOGRAPHY: COLUMN_NAME Waters Acquity BEH C18 1.7um x 2.1 x 150 mm
AC$CHROMATOGRAPHY: FLOW_GRADIENT 95/5 at 0 min, 20/80 at 35 min; 5/95 at 35 min, 5/95 at 38 min; 95/5 at 38.1 min, 95/5 at 45 min
AC$CHROMATOGRAPHY: FLOW_RATE FLOW_RATE 560 uL / min
AC$CHROMATOGRAPHY: SOLVENT A water with 0.05% formic acid
AC$CHROMATOGRAPHY: SOLVENT B acetonitrile with 0.05 % formic acid
AC$CHROMATOGRAPHY: RETENTION_TIME 789.42 sec
MS$FOCUSED_ION: PRECURSOR_M/Z 867.4379
MS$FOCUSED_ION: PRECURSOR_TYPE [M-H]-
MS$DATA_PROCESSING: WHOLE convert from Bruker Library Editor (https://github.com/MassBank/MassBank2NIST)
PK$SPLASH: splash10-014i-0000103090-8af70dfd4b52869d9684
PK$NUM_PEAK: 11
PK$PEAK: m/z int. rel.int.
  99.0088 21 21
  113.0247 52 52
  487.3443 170 170
  488.3460 23 23
  601.3710 392 392
  602.3738 88 88
  645.3542 103 103
  664.9060 12 12
  867.4374 999 999
  868.4400 370 370
  869.4380 24 24
//
