ACCESSION: MSBNK-BS-BS003498
RECORD_TITLE: 5,7-Dihydroxy-2'-methoxyflavone; LC-ESI-QTOF; MS2; CE:20 eV; [M-H]-
DATE: 2017.12.01 (Created 2013.11.23)
AUTHORS: Plant Biology, The Noble Foundation, Ardmore, OK, US/Dennis Fine, Daniel Wherritt, and Lloyd Sumner
LICENSE: CC BY-NC-SA
CH$NAME: 5,7-Dihydroxy-2'-methoxyflavone
CH$COMPOUND_CLASS: Natural Product; N/A
CH$FORMULA: C16H12O5
CH$EXACT_MASS: 284.0685
CH$SMILES: C1(=CC(=C2C(=C1)OC(=CC2=O)C3=CC=CC=C3OC)O)O
CH$IUPAC: InChI=1S/C16H12O5/c1-20-13-5-3-2-4-10(13)14-8-12(19)16-11(18)6-9(17)7-15(16)21-14/h2-8,17-18H,1H3
CH$LINK: CAS 10458-35-2
CH$LINK: INCHIKEY SWYVZKGICYEZDR-UHFFFAOYSA-N
CH$LINK: PUBCHEM CID:5378210
AC$INSTRUMENT: Bruker impact HD
AC$INSTRUMENT_TYPE: LC-ESI-QTOF
AC$MASS_SPECTROMETRY: MS_TYPE MS2
AC$MASS_SPECTROMETRY: ION_MODE NEGATIVE
AC$MASS_SPECTROMETRY: COLLISION_ENERGY 20 eV
AC$MASS_SPECTROMETRY: IONIZATION ESI
AC$MASS_SPECTROMETRY: ISOLATION_WIDTH 5
AC$MASS_SPECTROMETRY: PEAK_WIDTH 0.011
AC$MASS_SPECTROMETRY: MASS_RANGE_M/Z 94.8827-1505.23
AC$CHROMATOGRAPHY: COLUMN_NAME Waters Acquity BEH C18 1.7um x 2.1 x 150 mm
AC$CHROMATOGRAPHY: FLOW_GRADIENT 95/5 at 0 min, 20/80 at 35 min; 5/95 at 35 min, 5/95 at 38 min; 95/5 at 38.1 min, 95/5 at 45 min
AC$CHROMATOGRAPHY: FLOW_RATE FLOW_RATE 560 uL / min
AC$CHROMATOGRAPHY: SOLVENT A water with 0.05% formic acid
AC$CHROMATOGRAPHY: SOLVENT B acetonitrile with 0.05 % formic acid
AC$CHROMATOGRAPHY: RETENTION_TIME 871.2 sec
MS$FOCUSED_ION: PRECURSOR_M/Z 283.0619
MS$FOCUSED_ION: PRECURSOR_TYPE [M-H]-
MS$DATA_PROCESSING: WHOLE convert from Bruker Library Editor (https://github.com/MassBank/MassBank2NIST)
PK$SPLASH: splash10-00lr-0090000000-d723bdf87e08f19cdbea
PK$NUM_PEAK: 20
PK$PEAK: m/z int. rel.int.
  122.0003 3 3
  196.0536 5 5
  199.0405 1 1
  211.0426 1 1
  224.0502 1 1
  227.0355 1 1
  239.0359 6 6
  239.0754 2 2
  240.0435 80 80
  241.0474 9 9
  242.0502 2 2
  251.0353 1 1
  267.0305 47 47
  268.0384 579 579
  269.0418 60 60
  270.0438 9 9
  283.0619 999 999
  284.0651 121 121
  285.0671 16 16
  286.0710 1 1
//
