ACCESSION: MSBNK-BS-BS003646
RECORD_TITLE: Pratol; LC-ESI-QTOF; MS2; CE:10 eV; [M-H]-
DATE: 2017.12.01 (Created 2013.11.23)
AUTHORS: Plant Biology, The Noble Foundation, Ardmore, OK, US/Dennis Fine, Daniel Wherritt, and Lloyd Sumner
LICENSE: CC BY-NC-SA
CH$NAME: Pratol
CH$COMPOUND_CLASS: Natural Product; N/A
CH$FORMULA: C16H12O4
CH$EXACT_MASS: 268.0736
CH$SMILES: C(OC1=C(C(=C(C(=C1[H])[H])C2=C(C(=O)C3=C(O2)C(=C(C(=C3[H])[H])O[H])[H])[H])[H])[H])([H])([H])[H]
CH$IUPAC: InChI=1S/C16H12O4/c1-19-12-5-2-10(3-6-12)15-9-14(18)13-7-4-11(17)8-16(13)20-15/h2-9,17H,1H3
CH$LINK: CAS 487-24-1
CH$LINK: COMPTOX DTXSID20197587
CH$LINK: INCHIKEY SQVXWIUVAILQRH-UHFFFAOYSA-N
CH$LINK: PUBCHEM CID:5320693
AC$INSTRUMENT: Bruker impact HD
AC$INSTRUMENT_TYPE: LC-ESI-QTOF
AC$MASS_SPECTROMETRY: MS_TYPE MS2
AC$MASS_SPECTROMETRY: ION_MODE NEGATIVE
AC$MASS_SPECTROMETRY: COLLISION_ENERGY 10 eV
AC$MASS_SPECTROMETRY: IONIZATION ESI
AC$MASS_SPECTROMETRY: ISOLATION_WIDTH 5
AC$MASS_SPECTROMETRY: PEAK_WIDTH 0.011
AC$MASS_SPECTROMETRY: MASS_RANGE_M/Z 94.8827-1505.24
AC$CHROMATOGRAPHY: COLUMN_NAME Waters Acquity BEH C18 1.7um x 2.1 x 150 mm
AC$CHROMATOGRAPHY: FLOW_GRADIENT 95/5 at 0 min, 20/80 at 35 min; 5/95 at 35 min, 5/95 at 38 min; 95/5 at 38.1 min, 95/5 at 45 min
AC$CHROMATOGRAPHY: FLOW_RATE FLOW_RATE 560 uL / min
AC$CHROMATOGRAPHY: SOLVENT A water with 0.05% formic acid
AC$CHROMATOGRAPHY: SOLVENT B acetonitrile with 0.05 % formic acid
AC$CHROMATOGRAPHY: RETENTION_TIME 691.8 sec
MS$FOCUSED_ION: PRECURSOR_M/Z 267.0662
MS$FOCUSED_ION: PRECURSOR_TYPE [M-H]-
MS$DATA_PROCESSING: WHOLE convert from Bruker Library Editor (https://github.com/MassBank/MassBank2NIST)
PK$SPLASH: splash10-014i-0090000000-4ff43580b09d61ab1b53
PK$NUM_PEAK: 9
PK$PEAK: m/z int. rel.int.
  223.0397 1 1
  252.0424 49 49
  253.0459 8 8
  254.0470 1 1
  266.7712 1 1
  267.0662 999 999
  267.1099 1 1
  268.0696 117 117
  269.0719 11 11
//
