ACCESSION: MSBNK-BS-BS003384
RECORD_TITLE: Naringin; LC-ESI-QTOF; MS2; CE:20 eV; [M-H]-
DATE: 2017.12.01 (Created 2014.08.14)
AUTHORS: Plant Biology, The Noble Foundation, Ardmore, OK, US/Dennis Fine, Daniel Wherritt, and Lloyd Sumner
LICENSE: CC BY-NC-SA
CH$NAME: Naringin
CH$COMPOUND_CLASS: Natural Product; N/A
CH$FORMULA: C27H32O14
CH$EXACT_MASS: 580.1792
CH$SMILES: C([C@@]1([H])[C@@]([H])([C@]([H])([C@]([H])([C@@]([H])(O1)O[C@]2([H])[C@]([H])([C@@]([H])([C@]([H])(O[C@@]2([H])OC3=C(C(=C4C(=O)C([C@]([H])(OC4=C3[H])C5=C(C(=C(C(=C5[H])[H])O[H])[H])[H])([H])[H])O[H])[H])C(O[H])([H])[H])O[H])O[H])O[H])O[H])O[H])([H])([H])[H]
CH$IUPAC: InChI=1S/C27H32O14/c1-10-20(32)22(34)24(36)26(37-10)41-25-23(35)21(33)18(9-28)40-27(25)38-13-6-14(30)19-15(31)8-16(39-17(19)7-13)11-2-4-12(29)5-3-11/h2-7,10,16,18,20-30,32-36H,8-9H2,1H3/t10-,16-,18+,20-,21+,22+,23-,24+,25+,26-,27+/m0/s1
CH$LINK: CAS 10236-47-2
CH$LINK: COMPTOX DTXSID6022478
CH$LINK: INCHIKEY DFPMSGMNTNDNHN-ZPHOTFPESA-N
CH$LINK: PUBCHEM CID:442428
AC$INSTRUMENT: Bruker impact HD
AC$INSTRUMENT_TYPE: LC-ESI-QTOF
AC$MASS_SPECTROMETRY: MS_TYPE MS2
AC$MASS_SPECTROMETRY: ION_MODE NEGATIVE
AC$MASS_SPECTROMETRY: COLLISION_ENERGY 20 eV
AC$MASS_SPECTROMETRY: IONIZATION ESI
AC$MASS_SPECTROMETRY: ISOLATION_WIDTH 5
AC$MASS_SPECTROMETRY: PEAK_WIDTH 0.017
AC$MASS_SPECTROMETRY: MASS_RANGE_M/Z 94.8508-1505.14
AC$CHROMATOGRAPHY: COLUMN_NAME Waters Acquity BEH C18 1.7um x 2.1 x 150 mm
AC$CHROMATOGRAPHY: FLOW_GRADIENT 95/5 at 0 min, 20/80 at 35 min; 5/95 at 35 min, 5/95 at 38 min; 95/5 at 38.1 min, 95/5 at 45 min
AC$CHROMATOGRAPHY: FLOW_RATE FLOW_RATE 560 uL / min
AC$CHROMATOGRAPHY: SOLVENT A water with 0.05% formic acid
AC$CHROMATOGRAPHY: SOLVENT B acetonitrile with 0.05 % formic acid
AC$CHROMATOGRAPHY: RETENTION_TIME 393.6 sec
MS$FOCUSED_ION: PRECURSOR_M/Z 579.1754
MS$FOCUSED_ION: PRECURSOR_TYPE [M-H]-
MS$DATA_PROCESSING: WHOLE convert from Bruker Library Editor (https://github.com/MassBank/MassBank2NIST)
PK$SPLASH: splash10-004i-0000090000-d6285c4e4374990ed161
PK$NUM_PEAK: 13
PK$PEAK: m/z int. rel.int.
  271.0613 16 16
  272.0651 1 1
  313.0711 2 2
  373.0941 2 2
  459.1164 28 28
  460.1222 4 4
  579.1754 999 999
  579.2759 1 1
  579.2943 1 1
  579.9358 4 4
  580.1785 175 175
  581.1799 17 17
  582.1823 2 2
//
