ACCESSION: MSBNK-BS-BS003421
RECORD_TITLE: 7-Hydroxy-2'-methoxyflavone; LC-ESI-QTOF; MS2; CE:50 eV; [M-H]-
DATE: 2017.12.01 (Created 2014.07.26)
AUTHORS: Plant Biology, The Noble Foundation, Ardmore, OK, US/Dennis Fine, Daniel Wherritt, and Lloyd Sumner
LICENSE: CC BY-NC-SA
CH$NAME: 7-Hydroxy-2'-methoxyflavone
CH$COMPOUND_CLASS: Natural Product; N/A
CH$FORMULA: C16H12O4
CH$EXACT_MASS: 268.0736
CH$SMILES: O=C1C=2C(OC(=C1[H])C=3C(=C(C(=C(C3OC([H])([H])[H])[H])[H])[H])[H])=C(C(O[H])=C(C2[H])[H])[H]
CH$IUPAC: InChI=1S/C16H12O4/c1-19-14-5-3-2-4-12(14)16-9-13(18)11-7-6-10(17)8-15(11)20-16/h2-9,17H,1H3
CH$LINK: CAS 77298-65-8
CH$LINK: INCHIKEY PFEQKIBOPJQNBI-UHFFFAOYSA-N
CH$LINK: PUBCHEM CID:5391150
AC$INSTRUMENT: Bruker impact HD
AC$INSTRUMENT_TYPE: LC-ESI-QTOF
AC$MASS_SPECTROMETRY: MS_TYPE MS2
AC$MASS_SPECTROMETRY: ION_MODE NEGATIVE
AC$MASS_SPECTROMETRY: COLLISION_ENERGY 50 eV
AC$MASS_SPECTROMETRY: IONIZATION ESI
AC$MASS_SPECTROMETRY: ISOLATION_WIDTH 5
AC$MASS_SPECTROMETRY: PEAK_WIDTH 0.016
AC$MASS_SPECTROMETRY: MASS_RANGE_M/Z 94.8489-1505.15
AC$CHROMATOGRAPHY: COLUMN_NAME Waters Acquity BEH C18 1.7um x 2.1 x 150 mm
AC$CHROMATOGRAPHY: FLOW_GRADIENT 95/5 at 0 min, 20/80 at 35 min; 5/95 at 35 min, 5/95 at 38 min; 95/5 at 38.1 min, 95/5 at 45 min
AC$CHROMATOGRAPHY: FLOW_RATE FLOW_RATE 560 uL / min
AC$CHROMATOGRAPHY: SOLVENT A water with 0.05% formic acid
AC$CHROMATOGRAPHY: SOLVENT B acetonitrile with 0.05 % formic acid
AC$CHROMATOGRAPHY: RETENTION_TIME 713.4 sec
MS$FOCUSED_ION: PRECURSOR_M/Z 267.07
MS$FOCUSED_ION: PRECURSOR_TYPE [M-H]-
MS$DATA_PROCESSING: WHOLE convert from Bruker Library Editor (https://github.com/MassBank/MassBank2NIST)
PK$SPLASH: splash10-0159-0940000000-72152c8fb80364e0ac30
PK$NUM_PEAK: 223
PK$PEAK: m/z int. rel.int.
  116.0267 48 48
  117.0346 999 999
  118.0375 69 69
  125.0398 6 6
  129.0308 5 5
  131.0496 7 7
  132.0202 100 100
  133.0283 575 575
  133.0538 4 4
  134.0313 30 30
  135.0076 62 62
  139.0526 21 21
  141.0316 11 11
  142.0399 4 4
  151.0527 24 24
  152.0610 9 9
  153.0159 6 6
  153.0331 9 9
  154.0396 40 40
  155.0470 7 7
  157.0261 33 33
  163.0530 7 7
  166.0363 5 5
  167.0471 179 179
  168.0521 21 21
  169.0272 6 6
  169.0625 17 17
  170.0346 9 9
  178.0368 6 6
  179.0468 122 122
  180.0533 65 65
  181.0272 16 16
  181.0568 9 9
  182.0322 10 10
  183.0399 25 25
  184.0447 4 4
  194.0322 15 15
  195.0412 580 580
  196.0448 74 74
  197.0527 16 16
  198.0259 5 5
  207.0407 131 131
  208.0448 20 20
  210.0277 8 8
  211.0345 22 22
  212.0401 4 4
  213.0512 16 16
  222.0266 74 74
  223.0355 435 435
  224.0406 120 120
  225.0443 15 15
  235.0346 9 9
  250.0208 38 38
  251.0294 495 495
  252.0333 72 72
  253.0371 4 4
  517.9139 4 4
  570.3834 4 4
  584.4887 4 4
  621.6893 4 4
  645.6729 4 4
  653.3762 4 4
  663.8096 4 4
  667.8667 4 4
  687.6558 4 4
  687.6978 4 4
  699.3137 4 4
  707.2681 5 5
  718.3127 4 4
  720.6013 4 4
  729.6812 5 5
  755.8416 4 4
  760.3795 4 4
  770.4621 4 4
  782.8719 5 5
  790.7099 4 4
  805.9337 4 4
  810.8883 4 4
  819.4595 4 4
  822.8437 4 4
  824.9603 4 4
  825.9137 4 4
  828.5339 4 4
  829.9807 4 4
  835.5868 4 4
  843.8919 5 5
  855.1295 4 4
  855.5860 4 4
  855.9316 4 4
  856.5804 4 4
  858.2732 4 4
  858.3793 5 5
  875.9131 4 4
  880.9900 4 4
  881.1258 5 5
  886.0839 4 4
  886.5542 4 4
  890.8741 4 4
  891.9380 4 4
  898.5721 4 4
  907.1357 4 4
  917.3269 4 4
  923.0427 5 5
  935.5390 4 4
  935.8361 4 4
  937.0460 5 5
  940.3275 4 4
  940.9098 4 4
  944.7036 4 4
  946.1636 5 5
  947.2673 4 4
  948.5817 4 4
  948.6746 4 4
  962.1614 4 4
  964.4797 4 4
  968.1426 5 5
  968.1757 4 4
  973.5612 4 4
  982.5846 4 4
  983.2847 4 4
  987.1746 4 4
  987.8151 4 4
  989.3218 4 4
  992.9241 5 5
  997.5727 4 4
  1000.2711 4 4
  1000.9930 4 4
  1005.8481 4 4
  1014.7887 4 4
  1019.3598 5 5
  1023.3987 4 4
  1045.8112 5 5
  1048.7711 4 4
  1053.4335 4 4
  1054.4011 4 4
  1067.9451 4 4
  1071.9899 4 4
  1072.7087 4 4
  1091.1886 4 4
  1102.5560 4 4
  1102.8571 4 4
  1110.9552 4 4
  1119.6588 4 4
  1120.4192 4 4
  1126.8843 4 4
  1137.7748 4 4
  1137.9657 4 4
  1154.0765 4 4
  1155.6904 4 4
  1161.4441 4 4
  1162.1246 5 5
  1164.0486 4 4
  1164.0968 4 4
  1166.8448 4 4
  1183.0500 4 4
  1190.8778 4 4
  1191.0186 4 4
  1192.5266 4 4
  1194.8269 4 4
  1202.4473 4 4
  1211.0099 5 5
  1213.4221 6 6
  1215.9104 4 4
  1216.6519 5 5
  1216.7040 4 4
  1216.9063 4 4
  1220.1039 4 4
  1221.6188 4 4
  1242.8397 4 4
  1248.4631 4 4
  1251.0483 4 4
  1255.3876 4 4
  1256.5313 4 4
  1261.8346 4 4
  1268.5863 6 6
  1271.7858 4 4
  1274.7408 5 5
  1277.9596 4 4
  1278.0732 4 4
  1280.8092 4 4
  1302.1522 4 4
  1318.6575 4 4
  1318.7688 4 4
  1323.7794 5 5
  1326.6350 4 4
  1329.3514 4 4
  1329.5416 4 4
  1336.8387 4 4
  1341.7686 5 5
  1344.3182 4 4
  1349.8945 4 4
  1350.3959 4 4
  1356.4744 4 4
  1360.9546 4 4
  1372.8574 4 4
  1375.0641 4 4
  1375.6141 5 5
  1375.9904 4 4
  1376.0314 5 5
  1376.9465 4 4
  1377.0371 4 4
  1400.8738 4 4
  1401.1852 4 4
  1407.1990 4 4
  1407.3613 4 4
  1411.6433 4 4
  1416.5638 4 4
  1417.3984 4 4
  1422.6975 4 4
  1431.2861 4 4
  1442.2795 4 4
  1453.2234 4 4
  1458.2314 4 4
  1459.7640 4 4
  1462.8693 4 4
  1464.4050 4 4
  1468.6792 4 4
  1470.1437 4 4
  1477.6160 4 4
  1480.2805 4 4
  1483.2451 6 6
  1486.5471 4 4
  1494.9934 4 4
//
