ACCESSION: MSBNK-BS-BS003905
RECORD_TITLE: Gallocatechin; LC-ESI-QTOF; MS2; CE:10 eV; [M-H]-
DATE: 2017.12.01 (Created 2014.08.19)
AUTHORS: Plant Biology, The Noble Foundation, Ardmore, OK, US/Dennis Fine, Daniel Wherritt, and Lloyd Sumner
LICENSE: CC BY-NC-SA
CH$NAME: Gallocatechin
CH$COMPOUND_CLASS: Natural Product; N/A
CH$FORMULA: C15H14O7
CH$EXACT_MASS: 306.0740
CH$SMILES: C1[C@H]([C@@H](OC2=CC(=CC(=C21)O)O)C3=CC(=C(C(=C3)O)O)O)O
CH$IUPAC: InChI=1S/C15H14O7/c16-7-3-9(17)8-5-12(20)15(22-13(8)4-7)6-1-10(18)14(21)11(19)2-6/h1-4,12,15-21H,5H2/t12-,15+/m1/s1
CH$LINK: CAS 3371-27-5
CH$LINK: COMPTOX DTXSID10432358
CH$LINK: INCHIKEY XMOCLSLCDHWDHP-DOMZBBRYSA-N
CH$LINK: PUBCHEM CID:9882981
AC$INSTRUMENT: Bruker impact HD
AC$INSTRUMENT_TYPE: LC-ESI-QTOF
AC$MASS_SPECTROMETRY: MS_TYPE MS2
AC$MASS_SPECTROMETRY: ION_MODE NEGATIVE
AC$MASS_SPECTROMETRY: COLLISION_ENERGY 10 eV
AC$MASS_SPECTROMETRY: IONIZATION ESI
AC$MASS_SPECTROMETRY: ISOLATION_WIDTH 5
AC$MASS_SPECTROMETRY: PEAK_WIDTH 0.018
AC$MASS_SPECTROMETRY: MASS_RANGE_M/Z 94.8507-1505.14
AC$CHROMATOGRAPHY: COLUMN_NAME Waters Acquity BEH C18 1.7um x 2.1 x 150 mm
AC$CHROMATOGRAPHY: FLOW_GRADIENT 95/5 at 0 min, 20/80 at 35 min; 5/95 at 35 min, 5/95 at 38 min; 95/5 at 38.1 min, 95/5 at 45 min
AC$CHROMATOGRAPHY: FLOW_RATE FLOW_RATE 560 uL / min
AC$CHROMATOGRAPHY: SOLVENT A water with 0.05% formic acid
AC$CHROMATOGRAPHY: SOLVENT B acetonitrile with 0.05 % formic acid
AC$CHROMATOGRAPHY: RETENTION_TIME 67.8 sec
MS$FOCUSED_ION: PRECURSOR_M/Z 305.0686
MS$FOCUSED_ION: PRECURSOR_TYPE [M-H]-
MS$DATA_PROCESSING: WHOLE convert from Bruker Library Editor (https://github.com/MassBank/MassBank2NIST)
PK$SPLASH: splash10-0a4i-0019000000-83d961b9674b7b1b2a65
PK$NUM_PEAK: 22
PK$PEAK: m/z int. rel.int.
  125.0246 44 44
  137.0247 28 28
  165.0195 34 34
  179.0348 27 27
  219.0659 18 18
  221.0456 15 15
  235.0611 17 17
  241.0513 13 13
  257.0461 16 16
  259.0616 24 24
  261.0770 43 43
  262.0812 11 11
  274.0488 10 10
  275.0564 53 53
  276.0612 20 20
  285.0409 41 41
  286.0456 15 15
  303.0520 141 141
  304.0560 58 58
  305.0686 999 999
  306.0728 274 274
  307.0752 24 24
//
