ACCESSION: MSBNK-BS-BS002041
RECORD_TITLE: Hex-hexA-dhex Bayogenin (PUT); LC-ESI-QTOF; MS2; CE:55 eV; [M-H]-
DATE: 2017.12.01 (Created 2014.12.12)
AUTHORS: Plant Biology, The Noble Foundation, Ardmore, OK, US/Dennis Fine, Daniel Wherritt, and Lloyd Sumner
LICENSE: CC BY-NC-SA
CH$NAME: Hex-hexA-dhex Bayogenin (PUT)
CH$COMPOUND_CLASS: Natural Product; N/A
CH$FORMULA: C55H72O15
CH$EXACT_MASS: 972.4871
CH$SMILES: N/A
CH$IUPAC: N/A
AC$INSTRUMENT: Bruker impact HD
AC$INSTRUMENT_TYPE: LC-ESI-QTOF
AC$MASS_SPECTROMETRY: MS_TYPE MS2
AC$MASS_SPECTROMETRY: ION_MODE NEGATIVE
AC$MASS_SPECTROMETRY: COLLISION_ENERGY 55 eV
AC$MASS_SPECTROMETRY: IONIZATION ESI
AC$MASS_SPECTROMETRY: PEAK_WIDTH 0.014
AC$MASS_SPECTROMETRY: MASS_RANGE_M/Z 100-1500
AC$CHROMATOGRAPHY: COLUMN_NAME Waters Acquity BEH C18 1.7um x 2.1 x 150 mm
AC$CHROMATOGRAPHY: FLOW_GRADIENT 95/5 at 0 min, 20/80 at 35 min; 5/95 at 35 min, 5/95 at 38 min; 95/5 at 38.1 min, 95/5 at 45 min
AC$CHROMATOGRAPHY: FLOW_RATE FLOW_RATE 560 uL / min
AC$CHROMATOGRAPHY: SOLVENT A water with 0.05% formic acid
AC$CHROMATOGRAPHY: SOLVENT B acetonitrile with 0.05 % formic acid
AC$CHROMATOGRAPHY: RETENTION_TIME 918 sec
MS$FOCUSED_ION: PRECURSOR_M/Z 971.4795
MS$FOCUSED_ION: PRECURSOR_TYPE [M-H]-
MS$DATA_PROCESSING: WHOLE convert from Bruker Library Editor (https://github.com/MassBank/MassBank2NIST)
PK$SPLASH: splash10-00di-0000000009-9055f685db849f5301b5
PK$NUM_PEAK: 13
PK$PEAK: m/z int. rel.int.
  115.0422 5 5
  459.3530 10 10
  487.3443 9 9
  573.3787 10 10
  601.3729 25 25
  602.3718 10 10
  645.3638 83 83
  909.4749 34 34
  910.4730 11 11
  971.4822 999 999
  972.4850 517 517
  973.4876 124 124
  974.4801 10 10
//
