ACCESSION: MSBNK-BS-BS003047
RECORD_TITLE: Apigenin; LC-ESI-QTOF; MS2; CE:30 eV; [M-H]-
DATE: 2017.12.01 (Created 2013.08.01)
AUTHORS: Plant Biology, The Noble Foundation, Ardmore, OK, US/Dennis Fine, Daniel Wherritt, and Lloyd Sumner
LICENSE: CC BY-NC-SA
CH$NAME: Apigenin
CH$COMPOUND_CLASS: Natural Product; N/A
CH$FORMULA: C15H10O5
CH$EXACT_MASS: 270.0528
CH$SMILES: C1(=C(C(=C(C(=C1C2=C(C(=O)C3=C(C(=C(C(=C3O2)[H])O[H])[H])O[H])[H])[H])[H])O[H])[H])[H]
CH$IUPAC: InChI=1S/C15H10O5/c16-9-3-1-8(2-4-9)13-7-12(19)15-11(18)5-10(17)6-14(15)20-13/h1-7,16-18H
CH$LINK: CAS 520-36-5
CH$LINK: COMPTOX DTXSID6022391
CH$LINK: INCHIKEY KZNIFHPLKGYRTM-UHFFFAOYSA-N
CH$LINK: PUBCHEM CID:5280443
AC$INSTRUMENT: Bruker impact HD
AC$INSTRUMENT_TYPE: LC-ESI-QTOF
AC$MASS_SPECTROMETRY: MS_TYPE MS2
AC$MASS_SPECTROMETRY: ION_MODE NEGATIVE
AC$MASS_SPECTROMETRY: COLLISION_ENERGY 30 eV
AC$MASS_SPECTROMETRY: IONIZATION ESI
AC$MASS_SPECTROMETRY: PEAK_WIDTH 0.027
AC$MASS_SPECTROMETRY: MASS_RANGE_M/Z 94.8793-3005.42
AC$CHROMATOGRAPHY: COLUMN_NAME Waters Acquity BEH C18 1.7um x 2.1 x 150 mm
AC$CHROMATOGRAPHY: FLOW_GRADIENT 95/5 at 0 min, 20/80 at 35 min; 5/95 at 35 min, 5/95 at 38 min; 95/5 at 38.1 min, 95/5 at 45 min
AC$CHROMATOGRAPHY: FLOW_RATE FLOW_RATE 560 uL / min
AC$CHROMATOGRAPHY: SOLVENT A water with 0.05% formic acid
AC$CHROMATOGRAPHY: SOLVENT B acetonitrile with 0.05 % formic acid
AC$CHROMATOGRAPHY: RETENTION_TIME 580.837 sec
MS$FOCUSED_ION: PRECURSOR_M/Z 269.052
MS$FOCUSED_ION: PRECURSOR_TYPE [M-H]-
MS$DATA_PROCESSING: WHOLE convert from Bruker Library Editor (https://github.com/MassBank/MassBank2NIST)
PK$SPLASH: splash10-014i-0940000000-eb8b08c7beca627dc728
PK$NUM_PEAK: 23
PK$PEAK: m/z int. rel.int.
  105.038 84 84
  107.017 266 266
  117.038 999 999
  118.041 81 81
  121.033 43 43
  149.029 309 309
  151.008 494 494
  152.011 26 26
  157.070 21 21
  159.049 111 111
  181.068 31 31
  182.076 23 23
  183.049 42 42
  197.067 24 24
  199.047 18 18
  201.061 64 64
  224.056 31 31
  225.061 152 152
  226.061 18 18
  227.040 122 122
  269.052 823 823
  270.056 99 99
  271.057 20 20
//
