ACCESSION: MSBNK-BS-BS003636
RECORD_TITLE: Isosakuranin; LC-ESI-QTOF; MS2; CE:10 eV; [M-H]-
DATE: 2017.12.01 (Created 2014.08.06)
AUTHORS: Plant Biology, The Noble Foundation, Ardmore, OK, US/Dennis Fine, Daniel Wherritt, and Lloyd Sumner
LICENSE: CC BY-NC-SA
CH$NAME: Isosakuranin
CH$COMPOUND_CLASS: Natural Product; N/A
CH$FORMULA: C22H24O10
CH$EXACT_MASS: 448.1369
CH$SMILES: COC1=CC=C(C=C1)[C@@H]2CC(=O)C3=C(C=C(C=C3O2)O[C@H]4[C@@H]([C@H]([C@@H]([C@H](O4)CO)O)O)O)O
CH$IUPAC: InChI=1S/C22H24O10/c1-29-11-4-2-10(3-5-11)15-8-14(25)18-13(24)6-12(7-16(18)31-15)30-22-21(28)20(27)19(26)17(9-23)32-22/h2-7,15,17,19-24,26-28H,8-9H2,1H3/t15-,17+,19+,20-,21+,22+/m0/s1
CH$LINK: INCHIKEY KEEWIHDTSNESJZ-ZJHVPRRPSA-N
CH$LINK: CAS 491-69-0
CH$LINK: PUBCHEM CID:102004611
AC$INSTRUMENT: Bruker impact HD
AC$INSTRUMENT_TYPE: LC-ESI-QTOF
AC$MASS_SPECTROMETRY: MS_TYPE MS2
AC$MASS_SPECTROMETRY: ION_MODE NEGATIVE
AC$MASS_SPECTROMETRY: COLLISION_ENERGY 10 eV
AC$MASS_SPECTROMETRY: IONIZATION ESI
AC$MASS_SPECTROMETRY: ISOLATION_WIDTH 5
AC$MASS_SPECTROMETRY: PEAK_WIDTH 0.015
AC$MASS_SPECTROMETRY: MASS_RANGE_M/Z 94.8438-1505.06
AC$CHROMATOGRAPHY: COLUMN_NAME Waters Acquity BEH C18 1.7um x 2.1 x 150 mm
AC$CHROMATOGRAPHY: FLOW_GRADIENT 95/5 at 0 min, 20/80 at 35 min; 5/95 at 35 min, 5/95 at 38 min; 95/5 at 38.1 min, 95/5 at 45 min
AC$CHROMATOGRAPHY: FLOW_RATE FLOW_RATE 560 uL / min
AC$CHROMATOGRAPHY: SOLVENT A water with 0.05% formic acid
AC$CHROMATOGRAPHY: SOLVENT B acetonitrile with 0.05 % formic acid
AC$CHROMATOGRAPHY: RETENTION_TIME 603 sec
MS$FOCUSED_ION: PRECURSOR_M/Z 447.1336
MS$FOCUSED_ION: PRECURSOR_TYPE [M-H]-
MS$DATA_PROCESSING: WHOLE convert from Bruker Library Editor (https://github.com/MassBank/MassBank2NIST)
PK$SPLASH: splash10-000j-0091500000-b35cebbee10f552e07ae
PK$NUM_PEAK: 44
PK$PEAK: m/z int. rel.int.
  243.0661 1 1
  270.0516 1 1
  285.0794 999 999
  286.0819 144 144
  287.0836 6 6
  288.0855 1 1
  299.0931 3 3
  307.1003 3 3
  308.1024 1 1
  309.0778 41 41
  310.0821 6 6
  327.0892 55 55
  328.0925 10 10
  339.0895 3 3
  351.0885 5 5
  357.1005 3 3
  358.1044 1 1
  369.0973 4 4
  370.1031 1 1
  387.1111 5 5
  429.1230 3 3
  447.1336 515 515
  448.1361 115 115
  449.1389 11 11
  968.5156 1 1
  1022.5987 1 1
  1065.3875 1 1
  1164.7509 1 1
  1173.8995 1 1
  1218.0964 1 1
  1247.7131 1 1
  1257.5240 1 1
  1277.2017 1 1
  1278.9321 1 1
  1282.0420 1 1
  1301.2997 1 1
  1323.4696 1 1
  1342.4154 1 1
  1370.3663 1 1
  1374.5013 1 1
  1388.2611 1 1
  1475.2947 1 1
  1501.8439 1 1
  1502.0313 1 1
//
