ACCESSION: MSBNK-BS-BS003698
RECORD_TITLE: Cauloside C (3-Glu(1-2)Ara Hederagenin) (NMR); LC-ESI-QTOF; MS2; CE:50 eV; [M-H]-
DATE: 2017.12.01 (Created 2014.01.05)
AUTHORS: Plant Biology, The Noble Foundation, Ardmore, OK, US/Dennis Fine, Daniel Wherritt, and Lloyd Sumner
LICENSE: CC BY-NC-SA
CH$NAME: Cauloside C (3-Glu(1-2)Ara Hederagenin) (NMR)
CH$COMPOUND_CLASS: Natural Product; N/A
CH$FORMULA: C41H66O13
CH$EXACT_MASS: 766.4503
CH$SMILES: C[C@]12CC[C@@H]([C@@]([C@@H]1CC[C@@]3([C@@H]2CC=C4[C@]3(CC[C@@]5([C@H]4CC(CC5)(C)C)C(=O)O)C)C)(C)CO)O[C@H]6[C@@H]([C@H]([C@H](CO6)O)O)O[C@H]7[C@@H]([C@H]([C@@H]([C@H](O7)CO)O)O)O
CH$IUPAC: InChI=1S/C41H66O13/c1-36(2)13-15-41(35(49)50)16-14-39(5)21(22(41)17-36)7-8-26-37(3)11-10-27(38(4,20-43)25(37)9-12-40(26,39)6)53-34-32(28(45)23(44)19-51-34)54-33-31(48)30(47)29(46)24(18-42)52-33/h7,22-34,42-48H,8-20H2,1-6H3,(H,49,50)/t22-,23-,24+,25+,26+,27-,28-,29+,30-,31+,32+,33-,34-,37-,38-,39+,40+,41-/m0/s1
CH$LINK: INCHIKEY RROGHRHLBLVQSG-UUWFFIQNSA-N
CH$LINK: CAS 20853-58-1
CH$LINK: PUBCHEM CID:13878151
AC$INSTRUMENT: Bruker impact HD
AC$INSTRUMENT_TYPE: LC-ESI-QTOF
AC$MASS_SPECTROMETRY: MS_TYPE MS2
AC$MASS_SPECTROMETRY: ION_MODE NEGATIVE
AC$MASS_SPECTROMETRY: COLLISION_ENERGY 50 eV
AC$MASS_SPECTROMETRY: IONIZATION ESI
AC$MASS_SPECTROMETRY: ISOLATION_WIDTH 5
AC$MASS_SPECTROMETRY: PEAK_WIDTH 0.014
AC$MASS_SPECTROMETRY: MASS_RANGE_M/Z 94.8795-1505.21
AC$CHROMATOGRAPHY: COLUMN_NAME Waters Acquity BEH C18 1.7um x 2.1 x 150 mm
AC$CHROMATOGRAPHY: FLOW_GRADIENT 95/5 at 0 min, 20/80 at 35 min; 5/95 at 35 min, 5/95 at 38 min; 95/5 at 38.1 min, 95/5 at 45 min
AC$CHROMATOGRAPHY: FLOW_RATE FLOW_RATE 560 uL / min
AC$CHROMATOGRAPHY: SOLVENT A water with 0.05% formic acid
AC$CHROMATOGRAPHY: SOLVENT B acetonitrile with 0.05 % formic acid
AC$CHROMATOGRAPHY: RETENTION_TIME 1099.2 sec
MS$FOCUSED_ION: PRECURSOR_M/Z 811.4
MS$FOCUSED_ION: PRECURSOR_TYPE [M-H]-
MS$DATA_PROCESSING: WHOLE convert from Bruker Library Editor (https://github.com/MassBank/MassBank2NIST)
PK$SPLASH: splash10-014i-0000003900-2dc6e30b8143e9689ef2
PK$NUM_PEAK: 8
PK$PEAK: m/z int. rel.int.
  471.3522 145 145
  585.3848 47 47
  586.3823 56 56
  603.3940 445 445
  604.3938 156 156
  765.4518 999 999
  766.4525 421 421
  767.4603 47 47
//
