ACCESSION: MSBNK-BS-BS003405
RECORD_TITLE: 3-Rha-Ara-GlcUA-Soyasapogenol B; LC-ESI-QTOF; MS2; CE:20 eV; [M-H]-
DATE: 2017.12.01 (Created 2014.08.07)
AUTHORS: Plant Biology, The Noble Foundation, Ardmore, OK, US/Dennis Fine, Daniel Wherritt, and Lloyd Sumner
LICENSE: CC BY-NC-SA
CH$NAME: 3-Rha-Ara-GlcUA-Soyasapogenol B
CH$COMPOUND_CLASS: Natural Product; N/A
CH$FORMULA: C47H76O17
CH$EXACT_MASS: 912.5083
CH$SMILES: C1[C@@H]([C@]([C@]2([C@](C1)([C@@]3([C@@](CC2)([C@]4(C(=CC3)[C@]5([C@@](CC4)([C@@H](CC(C5)(C)C)O)C)[H])C)C)[H])C)[H])(C)CO)OC6O[C@H]([C@@H]([C@H]([C@@H]6O[C@@H]7[C@H]([C@@H]([C@@H](CO7)O)O)O[C@@H]8O[C@@H]([C@H]([C@@H]([C@@H]8O)O)O)C)O)O)C(=O)O
CH$IUPAC: InChI=1S/C47H76O17/c1-21-29(51)31(53)34(56)39(60-21)63-36-30(52)24(49)19-59-40(36)64-37-33(55)32(54)35(38(57)58)62-41(37)61-28-12-13-44(5)25(45(28,6)20-48)11-14-47(8)26(44)10-9-22-23-17-42(2,3)18-27(50)43(23,4)15-16-46(22,47)7/h9,21,23-37,39-41,48-56H,10-20H2,1-8H3,(H,57,58)/t21-,23+,24-,25-,26-,27-,28+,29-,30-,31+,32-,33-,34+,35-,36+,37+,39+,40-,41?,43-,44+,45-,46-,47-/m1/s1
CH$LINK: INCHIKEY IBZLICPLPYSFNZ-NKWBMYJBSA-N
CH$LINK: PUBCHEM CID:134737391
AC$INSTRUMENT: Bruker impact HD
AC$INSTRUMENT_TYPE: LC-ESI-QTOF
AC$MASS_SPECTROMETRY: MS_TYPE MS2
AC$MASS_SPECTROMETRY: ION_MODE NEGATIVE
AC$MASS_SPECTROMETRY: COLLISION_ENERGY 20 eV
AC$MASS_SPECTROMETRY: IONIZATION ESI
AC$MASS_SPECTROMETRY: ISOLATION_WIDTH 5
AC$MASS_SPECTROMETRY: PEAK_WIDTH 0.014
AC$MASS_SPECTROMETRY: MASS_RANGE_M/Z 94.8394-1504.98
AC$CHROMATOGRAPHY: COLUMN_NAME Waters Acquity BEH C18 1.7um x 2.1 x 150 mm
AC$CHROMATOGRAPHY: FLOW_GRADIENT 95/5 at 0 min, 20/80 at 35 min; 5/95 at 35 min, 5/95 at 38 min; 95/5 at 38.1 min, 95/5 at 45 min
AC$CHROMATOGRAPHY: FLOW_RATE FLOW_RATE 560 uL / min
AC$CHROMATOGRAPHY: SOLVENT A water with 0.05% formic acid
AC$CHROMATOGRAPHY: SOLVENT B acetonitrile with 0.05 % formic acid
AC$CHROMATOGRAPHY: RETENTION_TIME 1072.8 sec
MS$FOCUSED_ION: PRECURSOR_M/Z 911.459
MS$FOCUSED_ION: PRECURSOR_TYPE [M-H]-
MS$DATA_PROCESSING: WHOLE convert from Bruker Library Editor (https://github.com/MassBank/MassBank2NIST)
PK$SPLASH: splash10-03di-0000000009-d4ff5be32d1ffb61a7b7
PK$NUM_PEAK: 47
PK$PEAK: m/z int. rel.int.
  174.0992 2 2
  183.1969 2 2
  261.2075 3 3
  262.9281 2 2
  263.7710 3 3
  263.9779 3 3
  264.4612 3 3
  264.5335 3 3
  264.6816 3 3
  264.8288 3 3
  264.8580 3 3
  265.0017 3 3
  265.1185 3 3
  265.1752 3 3
  265.2894 3 3
  265.3240 3 3
  265.3553 3 3
  265.5745 3 3
  265.7277 3 3
  266.0213 3 3
  266.0685 3 3
  266.1053 3 3
  266.3133 3 3
  266.4260 2 2
  266.4453 3 3
  266.4874 3 3
  266.5057 3 3
  266.5214 3 3
  266.9382 3 3
  267.0933 3 3
  267.1382 4 4
  267.1548 3 3
  267.2473 3 3
  267.2619 2 2
  267.4133 3 3
  268.4771 3 3
  269.6117 3 3
  269.8752 3 3
  270.0138 2 2
  911.4590 999 999
  911.5922 6 6
  911.6198 5 5
  911.6537 4 4
  911.6982 3 3
  912.4623 189 189
  913.4644 53 53
  914.4680 10 10
//
