ACCESSION: MSBNK-Kyoto_Univ-CA000153
RECORD_TITLE: Isozeaxanthin; FAB-EBEB; MS2; m/z: 568.43; [M]*+
DATE: 2016.01.19 (Created 2007.03.15, modified 2011.05.10)
AUTHORS: Akimoto N, Graduate School of Pharmaceutical Sciences, Kyoto University and Maoka T, Research Institute for Production Development
LICENSE: CC BY-SA
COMMENT: Profile spectrum of this record is given as a JPEG file.
COMMENT: [Profile] CA000153.jpg
CH$NAME: Isozeaxanthin
CH$COMPOUND_CLASS: Natural Product; Carotenoid
CH$FORMULA: C40H56O2
CH$EXACT_MASS: 568.42803
CH$SMILES: C(C(=C2C)C(CCC(O)2)(C)C)=CC(=CC=CC(=CC=CC=C(C)C=CC=C(C)C=CC(=C1C)C(CCC(O)1)(C)C)C)C
CH$IUPAC: InChI=1S/C40H56O2/c1-29(17-13-19-31(3)21-23-35-33(5)37(41)25-27-39(35,7)8)15-11-12-16-30(2)18-14-20-32(4)22-24-36-34(6)38(42)26-28-40(36,9)10/h11-24,37-38,41-42H,25-28H2,1-10H3/b12-11+,17-13+,18-14+,23-21+,24-22+,29-15+,30-16+,31-19+,32-20+
CH$LINK: CHEMSPIDER 9932404
CH$LINK: PUBCHEM CID:11757703
CH$LINK: INCHIKEY GYZWNQLEQAGWGD-DKLMTRRASA-N
AC$INSTRUMENT: JMS-HX/HX 110A, JEOL
AC$INSTRUMENT_TYPE: FAB-EBEB
AC$MASS_SPECTROMETRY: MS_TYPE MS2
AC$MASS_SPECTROMETRY: ION_MODE POSITIVE
AC$MASS_SPECTROMETRY: ATOM_GUN_CURRENT 5 mA
AC$MASS_SPECTROMETRY: BOMBARDMENT 6 kV xenon
AC$MASS_SPECTROMETRY: COLLISION_ENERGY 3 kV
AC$MASS_SPECTROMETRY: COLLISION_GAS Ar
AC$MASS_SPECTROMETRY: GAS_PRESSURE adjust to attenuate the intensity of the precursor ion by 30 %
AC$MASS_SPECTROMETRY: IONIZATION FAB
AC$MASS_SPECTROMETRY: MATRIX 1-2 uL m-NBA
AC$MASS_SPECTROMETRY: PROBE_TIP stainless-steel
MS$FOCUSED_ION: BASE_PEAK 568.3274
MS$FOCUSED_ION: PRECURSOR_M/Z 568.43
MS$FOCUSED_ION: PRECURSOR_TYPE [M]+*
PK$SPLASH: splash10-014l-1920020000-96d43ccf9bc2840ba584
PK$NUM_PEAK: 1676
PK$PEAK: m/z int. rel.int.
  10.8517 0.01 0
  12.9647 0.05 0
  13.9730 0.09 1
  14.9698 0.19 2
  21.1885 0.04 0
  22.9083 0.03 0
  25.9539 0.40 4
  26.9605 2.14 21
  27.9652 0.24 2
  28.9668 1.74 17
  29.9246 0.07 1
  30.9488 0.18 2
  31.0331 0.02 0
  31.0969 0.01 0
  35.8049 0.02 0
  35.9343 0.02 0
  36.9275 0.19 2
  37.9444 0.33 3
  38.9511 2.46 25
  39.2566 0.02 0
  39.7514 0.03 0
  39.9601 0.24 2
  40.0807 0.02 0
  40.9653 3.55 35
  41.9580 0.14 1
  42.7612 0.02 0
  42.9524 4.16 42
  43.5541 0.03 0
  43.6514 0.02 0
  43.9710 0.08 1
  44.9582 0.21 2
  48.9225 0.20 2
  49.7900 0.06 1
  49.9345 0.50 5
  50.9548 1.20 12
  51.9447 0.29 3
  52.7984 0.08 1
  52.9624 0.86 9
  53.7474 0.02 0
  53.9489 0.07 1
  54.9743 3.71 37
  55.9857 0.14 1
  56.9672 0.55 5
  57.9457 0.03 0
  58.5539 0.02 0
  58.9860 0.26 3
  59.9064 0.01 0
  60.9148 0.05 0
  61.7574 0.05 0
  61.9355 0.36 4
  62.9302 0.81 8
  63.3256 0.04 0
  63.7078 0.01 0
  63.9558 0.31 3
  64.2548 0.01 0
  64.7249 0.12 1
  64.9465 1.65 16
  65.4056 0.01 0
  65.7926 0.03 0
  65.9698 0.22 2
  66.4644 0.02 0
  66.9611 3.71 37
  67.8420 0.03 0
  67.9691 0.08 1
  68.9724 6.25 62
  69.7409 0.03 0
  69.8655 0.06 1
  69.9793 0.06 1
  70.9589 1.43 14
  71.2092 0.03 0
  71.9786 0.02 0
  72.8695 0.02 0
  72.9713 0.04 0
  73.5544 0.01 0
  73.8934 0.46 5
  74.1513 0.05 0
  74.5632 0.06 1
  74.7113 0.06 1
  74.9265 0.52 5
  75.0226 0.23 2
  75.3035 0.09 1
  75.5637 0.12 1
  75.7093 0.07 1
  75.8991 0.42 4
  76.0268 0.05 0
  76.1796 0.04 0
  76.4795 0.05 0
  76.9212 8.18 82
  77.1641 0.18 2
  77.3022 0.13 1
  77.4328 0.06 1
  77.5058 0.03 0
  77.6166 0.05 0
  77.9330 1.78 18
  78.1013 0.08 1
  78.2199 0.08 1
  78.4240 0.03 0
  78.9438 8.52 85
  79.1366 0.05 0
  79.2750 0.11 1
  79.6428 0.03 0
  79.9417 1.49 15
  80.2309 0.02 0
  80.9572 12.51 125
  81.2313 0.04 0
  81.9330 0.43 4
  82.4485 0.13 1
  82.9576 2.96 30
  83.1923 0.06 1
  83.9649 0.07 1
  84.9367 0.35 3
  85.6239 0.04 0
  85.8775 0.23 2
  86.4193 0.01 0
  86.6955 0.07 1
  86.9091 0.33 3
  87.2971 0.06 1
  87.5673 0.03 0
  87.9080 0.12 1
  88.1870 0.09 1
  88.3924 0.06 1
  88.8828 1.53 15
  89.1799 0.12 1
  89.3382 0.10 1
  89.4484 0.06 1
  89.9364 0.52 5
  90.0534 0.09 1
  90.1939 0.07 1
  90.3912 0.19 2
  90.9226 26.50 265
  91.2852 0.07 1
  91.3862 0.04 0
  91.5992 0.07 1
  91.9528 2.37 24
  92.2423 0.08 1
  92.3817 0.09 1
  92.9495 17.72 177
  93.2367 0.08 1
  93.3484 0.08 1
  93.4365 0.05 0
  93.6669 0.08 1
  93.9636 0.85 8
  94.1065 0.06 1
  94.3169 0.05 0
  94.4928 0.12 1
  94.9721 18.65 186
  95.2994 0.07 1
  95.4866 0.03 0
  95.9382 0.86 9
  96.1373 0.04 0
  96.9644 3.84 38
  97.7121 0.04 0
  97.9254 0.20 2
  98.9502 0.87 9
  99.7045 0.05 0
  99.9193 0.09 1
  100.4803 0.02 0
  100.5992 0.08 1
  100.9062 0.65 6
  101.2313 0.07 1
  101.3368 0.07 1
  101.4467 0.04 0
  101.9043 1.69 17
  102.2640 0.13 1
  102.4309 0.08 1
  102.9123 5.94 59
  103.4127 0.14 1
  103.9315 3.09 31
  104.2119 0.09 1
  104.3769 0.03 0
  104.9526 40.85 408
  105.2608 0.09 1
  105.4934 0.10 1
  105.9668 4.15 41
  106.2146 0.05 0
  106.4668 0.05 0
  106.9683 19.32 193
  107.2284 0.06 1
  107.3945 0.13 1
  107.6187 0.12 1
  107.9569 2.24 22
  108.3876 0.09 1
  108.9671 13.08 131
  109.3605 0.08 1
  109.6366 0.11 1
  109.7222 0.07 1
  109.9466 0.71 7
  110.2605 0.10 1
  110.4619 0.03 0
  110.9458 4.45 44
  111.4137 0.03 0
  111.5052 0.03 0
  111.7440 0.01 0
  111.9999 0.05 0
  112.2320 0.04 0
  112.4366 0.15 1
  112.9509 1.23 12
  113.3480 0.17 2
  113.9329 0.78 8
  114.0782 0.19 2
  114.3419 0.21 2
  114.9006 18.56 185
  115.1426 0.14 1
  115.3405 0.15 1
  115.9145 7.07 71
  116.1449 0.17 2
  116.3425 0.18 2
  116.9186 18.72 187
  117.2625 0.05 0
  117.9318 4.39 44
  118.2794 0.11 1
  118.4085 0.13 1
  118.9439 40.50 405
  119.2153 0.22 2
  119.3573 0.19 2
  119.9461 4.19 42
  120.1956 0.11 1
  120.3671 0.19 2
  120.9535 21.88 219
  121.1824 0.18 2
  121.3032 0.09 1
  121.4120 0.07 1
  121.9356 2.07 21
  122.2119 0.06 1
  122.9547 11.26 113
  123.1912 0.19 2
  123.4368 0.04 0
  123.6779 0.16 2
  123.9497 2.05 20
  124.1157 0.06 1
  124.9454 1.65 16
  125.3653 0.10 1
  125.8828 0.94 9
  126.1849 0.10 1
  126.8976 7.04 70
  127.8906 22.05 220
  128.9003 25.11 251
  129.1463 0.22 2
  129.9112 10.18 102
  130.1427 0.22 2
  130.9227 26.04 260
  131.1417 0.14 1
  131.9297 6.10 61
  132.1437 0.12 1
  132.9307 26.75 267
  133.3613 0.04 0
  133.5047 0.19 2
  133.9375 3.03 30
  134.1074 0.11 1
  134.2742 0.10 1
  134.9383 10.70 107
  135.2917 0.10 1
  135.4258 0.08 1
  135.5618 0.08 1
  135.9305 1.76 18
  136.9336 6.97 70
  137.2464 0.05 0
  137.3742 0.11 1
  137.9346 1.48 15
  138.1333 0.14 1
  138.9360 9.09 91
  139.2163 0.13 1
  139.9014 1.09 11
  140.0420 0.67 7
  140.2425 0.28 3
  140.8873 17.97 180
  141.2099 0.17 2
  141.3650 0.12 1
  141.9062 18.15 181
  142.1547 0.07 1
  142.3133 0.11 1
  142.9249 32.15 321
  143.2115 0.26 3
  143.9276 9.86 99
  144.3270 0.15 1
  144.9379 33.11 331
  145.2604 0.18 2
  145.4018 0.15 1
  145.9445 4.16 42
  146.1351 0.23 2
  146.3579 0.12 1
  146.9490 15.43 154
  147.1646 0.20 2
  147.3056 0.16 2
  147.4499 0.11 1
  147.6243 0.16 2
  147.7601 0.13 1
  147.9563 2.99 30
  148.2857 0.13 1
  148.6494 0.19 2
  148.9587 7.03 70
  149.3009 0.19 2
  149.4284 0.09 1
  149.9436 0.98 10
  150.2533 0.07 1
  150.5210 0.17 2
  150.9347 2.45 24
  151.1460 0.30 3
  151.8872 7.93 79
  152.9044 9.82 98
  153.1398 0.37 4
  153.9114 5.36 54
  154.2433 0.09 1
  154.9311 20.94 209
  155.2316 0.14 1
  155.9484 13.23 132
  156.1996 0.20 2
  156.4290 0.22 2
  156.9594 29.33 293
  157.4324 0.20 2
  157.5959 0.26 3
  157.9758 6.41 64
  158.2195 0.15 1
  158.4393 0.18 2
  158.9699 18.80 188
  159.5332 0.14 1
  159.9688 2.55 25
  160.5180 0.19 2
  160.9831 8.40 84
  161.3057 0.17 2
  161.6436 0.14 1
  161.9770 0.98 10
  162.1624 0.11 1
  162.2527 0.08 1
  162.5955 0.19 2
  162.9903 5.64 56
  163.5049 0.24 2
  163.9592 1.42 14
  164.1475 0.39 4
  164.2878 0.19 2
  164.9334 17.13 171
  165.9197 5.01 50
  166.9515 13.83 138
  167.4389 0.09 1
  167.9703 5.80 58
  168.2071 0.22 2
  168.9757 19.54 195
  169.3352 0.17 2
  169.5070 0.25 2
  169.9859 6.96 70
  170.2996 0.14 1
  170.9941 14.72 147
  171.2754 0.13 1
  171.4734 0.18 2
  171.9923 3.00 30
  172.2205 0.14 1
  172.3853 0.17 2
  173.0000 10.33 103
  173.2477 0.12 1
  173.9422 1.39 14
  174.3771 0.12 1
  175.0054 5.85 58
  175.4045 0.11 1
  175.9375 1.88 19
  176.3168 0.14 1
  176.5437 0.22 2
  176.9693 3.16 32
  177.2150 0.23 2
  177.9195 7.67 77
  178.1874 0.21 2
  178.9345 12.19 122
  179.2053 0.07 1
  179.3106 0.04 0
  179.9369 5.67 57
  180.2642 0.07 1
  180.9566 14.82 148
  181.2533 0.16 2
  181.5151 0.21 2
  181.9669 6.52 65
  182.2678 0.08 1
  182.9779 15.59 156
  183.2393 0.24 2
  183.3630 0.08 1
  183.5976 0.25 2
  183.9936 4.46 45
  184.2585 0.13 1
  184.4314 0.19 2
  184.9823 10.09 101
  185.3039 0.18 2
  185.5085 0.17 2
  185.9864 1.67 17
  186.4052 0.29 3
  186.6093 0.19 2
  186.9918 5.43 54
  187.4917 0.17 2
  187.9621 0.87 9
  188.3079 0.16 2
  188.5155 0.35 3
  188.9545 5.92 59
  189.1912 0.35 3
  189.3113 0.23 2
  189.4233 0.20 2
  189.9273 1.77 18
  190.2512 0.20 2
  190.9559 11.13 111
  191.5184 0.14 1
  191.9440 5.53 55
  192.9434 11.62 116
  193.2226 0.12 1
  193.9474 6.46 65
  194.2708 0.20 2
  194.4629 0.19 2
  194.9656 12.88 129
  195.2139 0.16 2
  195.5754 0.24 2
  195.9782 4.48 45
  196.2754 0.19 2
  196.5314 0.40 4
  196.9859 12.96 130
  197.5117 0.15 1
  197.9752 2.27 23
  198.4267 0.15 1
  198.9854 5.73 57
  199.2791 0.13 1
  199.3971 0.07 1
  199.9595 1.66 17
  200.3551 0.17 2
  200.5471 0.19 2
  200.9918 3.39 34
  201.9064 3.55 35
  202.2698 0.17 2
  202.4145 0.11 1
  202.9519 5.60 56
  203.9259 2.36 24
  204.3053 0.16 2
  204.9487 5.91 59
  205.2868 0.18 2
  205.4181 0.19 2
  205.5678 0.15 1
  205.9632 4.89 49
  206.2497 0.13 1
  206.5125 0.28 3
  206.9720 9.77 98
  207.2675 0.16 2
  207.5277 0.17 2
  207.6530 0.22 2
  207.9820 3.41 34
  208.2552 0.08 1
  208.9836 10.30 103
  209.3019 0.13 1
  209.4492 0.11 1
  209.9707 1.69 17
  210.2946 0.14 1
  210.6302 0.28 3
  211.0006 5.61 56
  211.3594 0.13 1
  211.7313 0.14 1
  212.0064 0.91 9
  212.2978 0.02 0
  212.5429 0.16 2
  212.9976 2.72 27
  213.3028 0.12 1
  213.4715 0.10 1
  213.6436 0.12 1
  213.9708 0.61 6
  214.2673 0.15 1
  214.5235 0.22 2
  214.9643 4.27 43
  215.3156 0.13 1
  215.3928 0.08 1
  215.9616 2.09 21
  216.2556 0.11 1
  216.4198 0.25 2
  216.9792 4.98 50
  217.3760 0.12 1
  217.9774 2.49 25
  218.1718 0.22 2
  218.3751 0.14 1
  218.9823 5.26 53
  219.2301 0.09 1
  219.3212 0.02 0
  219.5287 0.11 1
  219.6642 0.15 1
  220.0108 2.48 25
  220.2560 0.20 2
  220.6403 0.32 3
  221.0206 6.71 67
  221.3159 0.11 1
  221.4181 0.07 1
  221.6086 0.12 1
  222.0349 1.65 16
  222.2804 0.16 2
  223.0237 5.06 51
  223.3007 0.13 1
  223.5065 0.05 0
  223.6492 0.19 2
  224.0306 1.17 12
  224.3943 0.10 1
  224.5452 0.21 2
  225.0414 3.47 35
  225.4574 0.19 2
  225.6057 0.08 1
  226.0265 1.65 16
  226.2325 0.16 2
  226.4124 0.08 1
  227.0072 2.02 20
  227.4538 0.24 2
  227.9959 1.36 14
  228.2749 0.05 0
  228.4309 0.17 2
  229.0125 3.32 33
  229.2565 0.06 1
  229.5047 0.15 1
  230.0114 1.41 14
  230.3364 0.06 1
  230.4640 0.08 1
  230.6485 0.12 1
  231.0182 2.92 29
  231.4202 0.06 1
  231.5506 0.06 1
  231.7557 0.29 3
  232.0378 2.39 24
  232.3068 0.20 2
  232.4674 0.16 2
  233.0247 4.54 45
  233.3673 0.06 1
  233.5987 0.19 2
  234.0087 1.86 19
  234.3095 0.08 1
  234.4441 0.03 0
  234.6138 0.06 1
  235.0232 3.16 32
  235.3537 0.10 1
  235.5227 0.12 1
  235.6986 0.08 1
  236.0388 1.11 11
  236.3158 0.06 1
  236.4457 0.15 1
  237.0451 2.95 29
  237.4219 0.11 1
  237.6860 0.10 1
  237.8297 0.11 1
  238.0752 1.00 10
  238.2740 0.10 1
  238.3930 0.12 1
  238.5732 0.19 2
  239.0266 2.52 25
  239.3231 0.15 1
  239.4422 0.02 0
  239.5970 0.05 0
  240.0202 0.82 8
  240.2935 0.12 1
  240.4690 0.11 1
  241.0191 2.27 23
  241.3392 0.06 1
  241.5327 0.11 1
  241.9652 1.01 10
  242.0968 0.31 3
  242.4467 0.12 1
  243.0150 3.06 31
  243.4036 0.06 1
  243.5277 0.09 1
  243.6393 0.17 2
  244.0307 0.97 10
  244.3747 0.11 1
  244.4939 0.09 1
  244.6938 0.12 1
  245.0123 3.03 30
  245.5012 0.07 1
  245.7267 0.07 1
  246.0163 1.12 11
  246.4274 0.11 1
  246.5930 0.13 1
  247.0276 3.10 31
  247.2580 0.14 1
  247.4622 0.13 1
  247.7314 0.20 2
  248.0543 1.03 10
  248.3704 0.18 2
  248.4436 0.08 1
  249.0379 2.53 25
  249.4411 0.11 1
  250.0281 0.80 8
  250.2263 0.11 1
  250.5661 0.16 2
  251.0572 2.01 20
  251.4241 0.16 2
  251.5685 0.22 2
  252.0093 0.94 9
  252.3382 0.12 1
  252.4689 0.06 1
  252.6105 0.11 1
  253.0183 1.99 20
  253.4158 0.09 1
  253.5617 0.10 1
  254.0471 0.94 9
  254.2227 0.30 3
  254.5394 0.05 0
  254.6729 0.09 1
  255.0359 2.01 20
  255.3928 0.05 0
  255.6536 0.10 1
  256.0569 0.67 7
  256.4021 0.03 0
  257.0186 2.63 26
  257.2954 0.10 1
  257.4442 0.11 1
  257.6145 0.04 0
  258.0194 0.86 9
  258.1987 0.17 2
  258.3344 0.08 1
  258.5829 0.11 1
  259.0329 2.40 24
  259.2656 0.13 1
  259.5800 0.14 1
  260.0184 0.95 9
  260.4423 0.11 1
  260.5774 0.07 1
  261.0381 2.67 27
  261.3658 0.05 0
  261.9853 0.47 5
  262.5391 0.18 2
  263.0548 2.04 20
  263.4756 0.11 1
  263.6996 0.04 0
  264.0276 0.57 6
  264.4048 0.07 1
  264.5248 0.03 0
  265.0498 1.68 17
  265.3058 0.09 1
  265.7540 0.16 2
  266.0509 0.76 8
  266.4096 0.21 2
  266.5602 0.11 1
  266.7684 0.29 3
  267.0460 2.21 22
  267.6075 0.24 2
  268.0219 0.52 5
  268.4753 0.08 1
  269.0544 2.01 20
  269.4245 0.05 0
  269.6884 0.08 1
  270.0309 0.55 5
  270.3580 0.04 0
  270.6053 0.07 1
  271.0458 1.77 18
  271.5232 0.12 1
  271.7032 0.05 0
  272.0569 0.77 8
  272.2728 0.10 1
  272.5904 0.04 0
  273.0717 1.84 18
  273.3117 0.05 0
  273.5441 0.10 1
  273.7258 0.06 1
  274.0734 0.42 4
  274.5223 0.05 0
  274.7242 0.08 1
  275.0711 1.21 12
  275.5916 0.21 2
  275.6964 0.17 2
  276.0220 0.56 6
  276.3184 0.09 1
  276.5349 0.18 2
  276.6155 0.09 1
  277.0702 1.37 14
  277.6021 0.10 1
  278.0465 0.49 5
  278.5042 0.05 0
  278.7056 0.04 0
  279.0641 1.10 11
  279.3781 0.03 0
  279.6490 0.15 1
  279.7880 0.05 0
  280.0652 0.53 5
  280.3056 0.06 1
  280.6197 0.08 1
  280.7538 0.08 1
  281.0645 0.93 9
  281.4767 0.04 0
  281.6796 0.10 1
  282.0446 0.78 8
  282.3039 0.11 1
  282.4853 0.04 0
  283.0478 1.53 15
  283.3364 0.08 1
  283.6924 0.11 1
  284.0096 0.41 4
  284.2405 0.07 1
  284.5347 0.08 1
  285.0509 1.08 11
  285.3250 0.03 0
  285.4530 0.06 1
  285.7119 0.04 0
  286.0417 0.53 5
  286.3994 0.02 0
  286.6332 0.21 2
  286.7773 0.20 2
  287.0877 1.03 10
  287.3383 0.15 1
  287.6411 0.10 1
  287.8269 0.12 1
  288.0699 0.23 2
  288.3518 0.04 0
  288.6049 0.10 1
  289.0466 0.96 10
  289.4778 0.06 1
  289.8360 0.09 1
  290.0037 0.18 2
  290.1616 0.21 2
  290.4601 0.09 1
  290.6548 0.15 1
  291.0737 0.83 8
  291.7139 0.09 1
  292.0348 0.51 5
  292.4496 0.10 1
  292.6313 0.08 1
  293.0538 0.61 6
  293.3706 0.15 1
  293.5725 0.04 0
  293.7911 0.06 1
  294.0473 0.72 7
  294.2472 0.14 1
  294.5132 0.05 0
  294.6887 0.10 1
  295.0508 1.07 11
  295.2416 0.10 1
  295.5418 0.05 0
  295.6617 0.08 1
  296.0183 0.43 4
  296.3576 0.08 1
  296.4488 0.02 0
  297.0717 1.21 12
  297.4159 0.03 0
  297.7699 0.07 1
  298.0954 0.49 5
  298.4961 0.05 0
  298.7143 0.08 1
  299.0593 0.75 7
  299.4936 0.10 1
  299.6561 0.05 0
  300.0228 0.37 4
  300.1274 0.18 2
  300.2626 0.11 1
  300.3728 0.05 0
  300.5283 0.07 1
  300.6908 0.13 1
  301.0478 0.73 7
  301.2710 0.06 1
  301.5555 0.08 1
  301.6943 0.08 1
  301.8275 0.13 1
  302.0912 0.36 4
  302.3556 0.02 0
  302.6625 0.05 0
  303.0148 1.03 10
  303.1383 0.64 6
  303.2960 0.04 0
  303.4167 0.07 1
  303.6609 0.06 1
  304.0628 0.36 4
  304.3762 0.07 1
  304.5402 0.08 1
  305.0511 0.98 10
  305.3735 0.02 0
  305.5822 0.09 1
  305.7805 0.06 1
  306.0290 0.25 2
  306.1951 0.15 1
  306.6943 0.10 1
  307.0309 0.62 6
  307.3053 0.10 1
  308.0448 0.26 3
  308.1454 0.15 1
  308.2320 0.09 1
  308.4241 0.08 1
  308.5030 0.05 0
  308.6846 0.09 1
  309.0737 0.48 5
  309.4209 0.11 1
  309.7017 0.08 1
  309.8351 0.07 1
  310.1048 0.31 3
  310.2879 0.07 1
  310.3836 0.06 1
  310.5003 0.02 0
  311.0349 0.62 6
  311.3549 0.05 0
  311.5905 0.07 1
  311.7072 0.09 1
  312.0727 0.28 3
  312.3027 0.04 0
  313.0590 0.71 7
  313.4100 0.08 1
  313.6498 0.10 1
  314.0546 0.25 2
  314.1966 0.13 1
  314.5357 0.05 0
  314.6868 0.10 1
  315.0700 1.04 10
  315.6624 0.06 1
  315.8163 0.13 1
  316.0366 0.35 3
  316.1884 0.11 1
  316.6760 0.11 1
  317.0741 0.53 5
  317.2112 0.23 2
  317.6555 0.09 1
  318.0627 0.27 3
  318.3280 0.07 1
  318.7584 0.01 0
  319.0558 0.60 6
  319.2462 0.24 2
  319.5493 0.03 0
  319.6570 0.02 0
  320.0609 0.61 6
  320.1862 0.34 3
  320.5930 0.13 1
  320.7841 0.08 1
  321.0866 0.60 6
  321.3365 0.03 0
  321.4822 0.08 1
  321.6712 0.02 0
  321.8183 0.08 1
  322.1201 0.24 2
  322.4128 0.06 1
  322.6559 0.04 0
  323.0432 0.48 5
  323.3521 0.07 1
  323.6281 0.07 1
  323.9874 0.20 2
  324.2964 0.02 0
  324.6586 0.07 1
  324.9893 0.29 3
  325.1539 0.34 3
  325.3536 0.05 0
  325.4973 0.11 1
  325.8238 0.08 1
  326.0957 0.14 1
  326.5702 0.04 0
  326.7524 0.04 0
  327.0769 0.28 3
  327.3194 0.06 1
  327.6510 0.03 0
  327.9090 0.11 1
  328.1424 0.09 1
  328.5862 0.04 0
  328.8547 0.12 1
  329.0882 0.77 8
  329.2207 0.23 2
  329.7200 0.03 0
  330.1429 0.35 3
  330.7235 0.07 1
  331.0714 0.57 6
  331.2040 0.33 3
  331.7250 0.10 1
  331.8582 0.17 2
  332.0930 0.37 4
  332.2836 0.17 2
  332.3600 0.08 1
  333.0729 0.51 5
  333.2727 0.09 1
  333.4781 0.12 1
  333.6324 0.07 1
  333.9381 0.05 0
  334.0888 0.34 3
  334.2788 0.09 1
  334.4555 0.11 1
  334.6435 0.10 1
  334.7837 0.06 1
  334.9008 0.06 1
  335.1077 0.74 7
  335.3524 0.05 0
  335.5355 0.04 0
  335.9331 0.05 0
  336.1295 0.27 3
  337.1228 0.65 6
  337.5283 0.07 1
  337.7177 0.08 1
  337.8664 0.06 1
  338.1709 0.30 3
  338.7610 0.16 2
  338.9182 0.03 0
  339.1133 0.20 2
  339.2782 0.05 0
  339.8375 0.05 0
  339.9512 0.05 0
  340.0719 0.17 2
  340.1709 0.12 1
  340.4187 0.03 0
  340.8131 0.11 1
  340.9114 0.08 1
  341.1508 0.39 4
  341.7517 0.10 1
  341.9637 0.10 1
  342.1224 0.12 1
  342.2733 0.11 1
  342.6195 0.10 1
  343.0892 0.41 4
  343.2725 0.14 1
  343.7486 0.05 0
  344.0913 0.27 3
  344.2149 0.09 1
  344.6370 0.19 2
  344.9060 0.09 1
  345.0739 0.38 4
  345.2095 0.25 2
  345.2924 0.13 1
  345.4637 0.08 1
  345.9253 0.09 1
  346.1290 0.52 5
  346.2829 0.12 1
  346.4325 0.05 0
  346.5885 0.11 1
  346.7887 0.14 1
  347.1484 0.51 5
  347.6003 0.03 0
  348.1463 0.52 5
  348.2327 0.22 2
  348.9439 0.24 2
  349.1829 0.78 8
  349.5997 0.05 0
  350.1655 0.36 4
  350.6414 0.06 1
  350.8798 0.12 1
  351.1659 0.27 3
  351.8043 0.05 0
  351.9935 0.09 1
  352.2164 0.11 1
  352.8464 0.14 1
  353.1137 0.36 4
  353.2726 0.08 1
  353.7305 0.04 0
  354.0526 0.04 0
  354.2031 0.05 0
  354.5555 0.11 1
  354.7799 0.10 1
  355.1851 0.23 2
  355.7395 0.06 1
  355.9273 0.08 1
  356.0997 0.17 2
  356.2341 0.10 1
  356.4149 0.02 0
  356.5479 0.07 1
  356.6373 0.02 0
  356.8125 0.03 0
  357.1291 0.29 3
  357.3944 0.08 1
  357.4880 0.09 1
  357.6435 0.03 0
  357.8138 0.02 0
  358.1537 0.23 2
  358.5357 0.07 1
  358.7124 0.02 0
  358.8617 0.17 2
  359.1498 0.35 3
  359.3460 0.18 2
  359.9069 0.09 1
  360.2014 0.34 3
  360.3598 0.07 1
  360.5259 0.05 0
  360.7791 0.18 2
  361.2019 0.40 4
  361.4038 0.07 1
  361.5812 0.06 1
  361.6857 0.14 1
  362.1647 0.58 6
  362.4396 0.04 0
  362.6507 0.05 0
  362.7881 0.06 1
  362.9376 0.11 1
  363.2097 0.46 5
  363.6572 0.09 1
  363.8697 0.05 0
  364.1230 0.16 2
  364.2787 0.16 2
  365.0539 0.20 2
  365.2335 0.07 1
  365.6117 0.10 1
  365.7408 0.07 1
  366.0537 0.23 2
  366.1828 0.06 1
  366.2986 0.07 1
  366.6417 0.07 1
  367.1133 0.13 1
  367.7126 0.10 1
  367.9218 0.11 1
  368.0270 0.06 1
  368.5647 0.12 1
  368.8279 0.11 1
  369.0181 0.17 2
  369.2140 0.12 1
  369.5551 0.09 1
  370.1168 0.02 0
  370.2740 0.03 0
  370.5057 0.06 1
  370.9038 0.16 2
  371.1404 0.20 2
  371.4473 0.07 1
  372.0076 0.03 0
  372.2113 0.15 1
  372.6284 0.02 0
  372.8701 0.07 1
  373.0325 0.26 3
  373.1906 0.28 3
  373.3347 0.07 1
  373.7662 0.08 1
  373.9539 0.11 1
  374.1514 0.38 4
  374.2526 0.11 1
  374.8395 0.18 2
  375.1425 0.51 5
  375.5383 0.03 0
  375.6895 0.03 0
  376.0572 0.18 2
  376.2428 0.08 1
  377.0415 0.04 0
  377.1891 0.21 2
  377.7039 0.04 0
  377.9486 0.04 0
  378.1455 0.04 0
  378.2848 0.09 1
  378.5872 0.04 0
  378.8460 0.02 0
  379.0576 0.03 0
  379.8215 0.09 1
  380.1317 0.08 1
  380.4855 0.09 1
  380.6600 0.03 0
  380.7845 0.05 0
  380.9308 0.08 1
  381.0941 0.14 1
  381.3009 0.02 0
  381.9383 0.04 0
  382.0896 0.12 1
  382.4794 0.03 0
  382.6595 0.02 0
  383.1028 0.20 2
  383.6165 0.19 2
  384.1443 0.16 2
  384.3280 0.13 1
  384.6102 0.10 1
  384.7503 0.06 1
  384.8481 0.05 0
  385.0529 0.11 1
  385.2071 0.20 2
  385.3330 0.13 1
  385.5006 0.13 1
  385.6758 0.09 1
  385.9124 0.11 1
  386.1672 0.27 3
  386.5044 0.07 1
  386.9035 0.08 1
  387.0922 0.33 3
  387.2992 0.15 1
  387.7350 0.06 1
  387.8596 0.02 0
  388.1321 0.26 3
  388.3588 0.12 1
  388.5898 0.05 0
  388.7229 0.03 0
  389.1313 0.25 2
  389.2777 0.09 1
  389.7306 0.05 0
  389.8940 0.07 1
  390.0313 0.09 1
  390.1045 0.04 0
  390.2827 0.03 0
  390.7870 0.06 1
  391.1687 0.12 1
  391.2948 0.11 1
  391.4991 0.04 0
  391.5956 0.02 0
  391.8301 0.03 0
  392.1436 0.11 1
  392.2986 0.03 0
  392.6867 0.13 1
  392.9044 0.08 1
  393.0468 0.17 2
  393.1905 0.04 0
  393.5899 0.09 1
  393.9274 0.03 0
  394.2050 0.07 1
  394.5573 0.05 0
  394.8068 0.11 1
  395.0393 0.19 2
  395.2408 0.23 2
  395.5361 0.12 1
  395.9385 0.07 1
  396.1091 0.11 1
  396.2690 0.06 1
  396.5961 0.09 1
  396.8808 0.06 1
  397.1085 0.18 2
  397.3037 0.19 2
  397.4827 0.04 0
  397.7287 0.06 1
  397.8965 0.04 0
  398.0340 0.09 1
  398.1869 0.11 1
  398.3709 0.03 0
  398.5923 0.03 0
  398.7290 0.03 0
  398.8700 0.05 0
  399.1633 0.29 3
  399.9008 0.06 1
  400.0798 0.10 1
  400.6241 0.01 0
  400.8688 0.09 1
  401.1897 0.33 3
  401.4703 0.03 0
  401.7616 0.22 2
  401.9569 0.12 1
  402.2164 0.38 4
  402.5437 0.08 1
  402.7834 0.08 1
  403.1883 0.38 4
  403.6341 0.05 0
  404.2357 0.45 4
  404.7170 0.11 1
  405.1324 0.13 1
  405.2415 0.11 1
  405.7717 0.10 1
  406.0575 0.07 1
  406.9053 0.15 1
  407.2159 0.11 1
  407.4391 0.03 0
  407.6180 0.11 1
  407.8483 0.06 1
  408.1279 0.13 1
  408.3004 0.05 0
  408.4300 0.04 0
  408.6969 0.05 0
  408.8117 0.04 0
  408.9815 0.15 1
  409.1435 0.03 0
  409.5210 0.03 0
  409.9000 0.11 1
  410.1613 0.25 2
  410.2374 0.12 1
  410.5459 0.07 1
  410.8383 0.04 0
  411.0602 0.14 1
  411.2109 0.23 2
  411.3582 0.10 1
  411.7915 0.08 1
  412.0775 0.15 1
  412.2544 0.11 1
  412.4214 0.06 1
  412.6989 0.13 1
  413.1739 0.32 3
  413.4579 0.04 0
  413.5382 0.02 0
  413.7968 0.03 0
  413.9117 0.05 0
  414.1653 0.49 5
  414.8820 0.14 1
  414.9744 0.05 0
  415.2027 0.15 1
  415.3994 0.12 1
  415.5410 0.13 1
  415.7342 0.07 1
  416.1260 0.35 3
  416.3495 0.15 1
  416.5567 0.03 0
  416.6688 0.03 0
  416.8288 0.04 0
  417.1129 0.11 1
  417.1932 0.06 1
  417.2877 0.05 0
  418.1569 0.11 1
  418.2979 0.10 1
  418.4037 0.05 0
  418.5256 0.03 0
  418.6716 0.04 0
  418.7851 0.04 0
  418.8767 0.04 0
  419.1299 0.10 1
  419.2610 0.04 0
  419.3703 0.03 0
  419.5804 0.05 0
  420.0965 0.15 1
  420.1974 0.10 1
  420.3871 0.02 0
  420.6367 0.10 1
  421.0294 0.17 2
  421.3112 0.24 2
  421.5999 0.07 1
  422.1527 0.13 1
  422.6788 0.06 1
  422.8929 0.07 1
  423.0309 0.20 2
  423.1499 0.12 1
  423.2591 0.20 2
  423.4422 0.06 1
  423.8218 0.05 0
  424.1430 0.10 1
  424.2972 0.06 1
  424.7191 0.10 1
  424.8903 0.11 1
  425.0826 0.09 1
  425.2383 0.01 0
  425.4109 0.06 1
  425.8835 0.02 0
  426.0956 0.13 1
  426.2872 0.11 1
  426.6451 0.18 2
  426.7881 0.05 0
  427.1340 0.19 2
  427.3151 0.17 2
  427.6025 0.05 0
  427.8273 0.14 1
  428.2056 0.48 5
  428.5276 0.09 1
  428.7848 0.10 1
  429.1442 0.33 3
  429.4183 0.04 0
  429.7523 0.05 0
  429.8566 0.05 0
  430.2597 0.15 1
  430.6269 0.07 1
  430.8447 0.04 0
  431.1506 0.17 2
  431.3648 0.04 0
  431.5100 0.12 1
  431.7046 0.06 1
  432.1253 0.15 1
  432.3340 0.15 1
  432.4637 0.06 1
  432.6533 0.09 1
  432.8401 0.03 0
  432.9881 0.06 1
  433.1376 0.06 1
  433.4421 0.09 1
  434.0166 0.17 2
  434.1696 0.06 1
  434.4333 0.05 0
  434.5919 0.13 1
  434.8633 0.31 3
  435.0995 0.12 1
  435.3724 0.18 2
  435.4922 0.06 1
  436.0549 0.07 1
  436.2115 0.17 2
  436.4702 0.05 0
  436.7022 0.12 1
  436.8510 0.43 4
  437.1387 0.25 2
  437.4173 0.14 1
  437.5216 0.05 0
  437.7113 0.07 1
  437.8397 0.12 1
  438.0583 0.23 2
  438.3341 0.22 2
  438.5591 0.27 3
  438.7826 0.23 2
  440.8585 1.82 18
  441.3473 1.22 12
  441.7854 0.63 6
  441.9942 0.56 6
  442.2440 0.35 3
  442.3646 0.34 3
  442.5269 0.35 3
  442.6898 0.19 2
  442.8055 0.07 1
  443.0087 0.22 2
  443.1922 0.22 2
  443.3784 0.28 3
  443.5753 0.05 0
  443.8032 0.06 1
  443.9831 0.19 2
  444.2280 0.17 2
  444.4340 0.09 1
  444.6436 0.09 1
  444.8024 0.09 1
  445.0889 0.23 2
  445.2603 0.20 2
  445.4375 0.02 0
  445.6957 0.13 1
  446.0691 0.10 1
  446.2646 0.13 1
  446.4375 0.09 1
  446.6421 0.09 1
  446.7960 0.08 1
  447.1708 0.16 2
  447.4940 0.06 1
  447.7213 0.09 1
  447.9493 0.12 1
  448.0686 0.06 1
  448.1907 0.13 1
  448.3177 0.04 0
  448.4773 0.05 0
  448.8365 0.03 0
  449.0455 0.15 1
  449.2128 0.13 1
  449.3215 0.11 1
  449.6992 0.17 2
  449.8707 0.07 1
  450.0444 0.06 1
  450.2025 0.03 0
  450.3522 0.07 1
  450.5012 0.04 0
  450.7737 0.12 1
  450.8718 0.07 1
  451.2128 0.17 2
  451.2997 0.08 1
  451.4854 0.08 1
  451.6979 0.10 1
  451.7854 0.06 1
  452.0304 0.26 3
  452.2430 0.06 1
  452.4865 0.04 0
  452.6186 0.08 1
  452.8170 0.24 2
  453.2167 0.27 3
  453.3749 0.25 2
  453.4857 0.11 1
  453.5627 0.03 0
  453.7265 0.11 1
  453.9299 0.05 0
  454.0634 0.22 2
  454.2350 0.12 1
  454.4355 0.17 2
  454.5959 0.16 2
  454.7703 0.07 1
  454.8939 0.07 1
  455.0698 0.11 1
  455.3127 0.12 1
  455.5974 0.03 0
  455.8897 0.09 1
  456.2025 0.17 2
  456.4012 0.12 1
  457.0043 0.05 0
  457.2657 0.19 2
  457.4644 0.20 2
  457.6152 0.11 1
  457.8245 0.08 1
  458.0866 0.19 2
  458.2684 0.27 3
  458.5678 0.03 0
  458.9152 0.07 1
  459.0153 0.03 0
  459.1358 0.10 1
  459.2760 0.02 0
  459.4705 0.09 1
  459.5347 0.03 0
  460.0244 0.10 1
  460.1372 0.08 1
  460.3162 0.18 2
  460.5178 0.14 1
  460.8842 0.12 1
  461.0308 0.09 1
  461.1802 0.06 1
  461.3811 0.13 1
  461.6222 0.10 1
  461.9872 0.16 2
  462.2776 0.30 3
  462.4475 0.08 1
  462.6075 0.02 0
  462.9459 0.08 1
  463.1912 0.16 2
  463.6543 0.04 0
  463.9067 0.10 1
  464.0942 0.07 1
  464.1929 0.05 0
  464.3903 0.07 1
  464.4706 0.04 0
  464.6800 0.02 0
  464.8647 0.05 0
  465.0593 0.12 1
  465.2363 0.05 0
  465.3561 0.12 1
  465.7573 0.04 0
  466.0238 0.05 0
  466.5321 0.13 1
  466.7211 0.14 1
  466.8276 0.07 1
  466.9686 0.08 1
  467.0687 0.11 1
  467.2796 0.13 1
  467.4904 0.03 0
  467.9600 0.31 3
  468.2231 0.59 6
  468.3274 0.28 3
  468.4233 0.12 1
  468.8620 0.09 1
  469.1793 0.32 3
  469.3239 0.17 2
  469.4501 0.08 1
  469.5355 0.03 0
  469.7026 0.10 1
  469.9628 0.03 0
  470.2576 0.34 3
  470.7097 0.07 1
  470.8882 0.13 1
  471.0638 0.06 1
  471.2641 0.11 1
  471.6782 0.07 1
  471.8644 0.05 0
  472.0414 0.19 2
  472.2262 0.04 0
  472.3631 0.15 1
  472.5592 0.10 1
  472.8950 0.08 1
  473.0621 0.07 1
  473.2886 0.18 2
  473.4875 0.10 1
  473.5955 0.05 0
  473.7182 0.02 0
  473.9552 0.17 2
  474.0540 0.05 0
  474.3411 0.12 1
  474.6713 0.11 1
  474.8272 0.10 1
  475.2745 0.28 3
  476.2426 15.76 157
  476.6850 0.24 2
  477.0195 0.15 1
  477.2657 0.20 2
  477.6644 0.09 1
  477.9319 0.23 2
  478.0723 0.11 1
  478.1683 0.11 1
  478.3024 0.08 1
  478.4216 0.10 1
  478.8288 0.08 1
  478.9100 0.05 0
  479.1838 0.24 2
  479.3109 0.11 1
  479.5423 0.04 0
  479.8260 0.05 0
  480.6003 0.05 0
  480.7923 0.11 1
  481.2546 0.10 1
  481.5490 0.07 1
  481.8468 0.10 1
  481.9908 0.10 1
  482.1588 0.08 1
  482.3021 0.05 0
  482.7589 0.02 0
  482.9325 0.12 1
  483.1570 0.10 1
  484.0256 0.06 1
  485.5552 0.03 0
  486.0540 0.06 1
  486.3349 0.05 0
  486.4880 0.09 1
  486.6270 0.02 0
  486.8324 0.09 1
  486.9114 0.04 0
  487.2917 0.14 1
  487.5225 0.08 1
  488.2444 0.30 3
  488.4844 0.07 1
  488.6552 0.05 0
  488.9064 0.11 1
  489.2826 0.80 8
  489.6185 0.04 0
  489.7392 0.07 1
  490.5403 0.05 0
  490.6913 0.04 0
  491.0019 0.08 1
  491.1198 0.10 1
  491.2765 0.15 1
  491.6153 0.01 0
  491.7621 0.06 1
  492.6247 0.02 0
  492.8414 0.08 1
  492.9876 0.19 2
  493.1739 0.14 1
  493.3052 0.12 1
  493.8269 0.21 2
  494.0098 0.17 2
  494.2993 0.11 1
  494.5195 0.10 1
  494.6558 0.06 1
  494.9580 0.06 1
  495.2326 0.05 0
  495.3350 0.11 1
  495.4896 0.14 1
  495.5814 0.06 1
  495.6852 0.04 0
  496.1491 0.05 0
  496.2691 0.07 1
  496.4704 0.02 0
  497.2294 0.11 1
  497.4159 0.11 1
  497.4935 0.05 0
  498.0020 0.11 1
  498.3487 0.11 1
  498.6347 0.06 1
  499.1093 0.08 1
  500.3593 0.11 1
  500.9004 0.06 1
  501.3976 0.06 1
  501.8150 0.08 1
  502.6676 0.03 0
  502.8124 0.10 1
  502.9643 0.03 0
  503.4256 0.01 0
  503.5916 0.02 0
  504.3065 0.03 0
  505.1267 0.10 1
  505.2546 0.02 0
  505.7930 0.10 1
  506.0339 0.11 1
  506.2437 0.09 1
  507.2442 0.02 0
  507.7516 0.05 0
  508.1706 0.17 2
  508.9571 0.11 1
  509.2532 0.24 2
  509.4093 0.06 1
  509.9526 0.05 0
  510.0421 0.04 0
  510.2988 0.21 2
  510.3904 0.10 1
  510.7838 0.08 1
  510.9368 0.06 1
  511.2555 0.03 0
  511.4776 0.11 1
  511.6447 0.03 0
  512.0776 0.06 1
  512.2877 0.08 1
  512.4583 0.10 1
  513.0506 0.06 1
  513.1522 0.07 1
  513.3397 0.03 0
  513.4589 0.04 0
  513.8834 0.07 1
  514.2825 0.13 1
  514.5582 0.09 1
  514.8086 0.10 1
  515.2670 0.09 1
  516.6260 0.11 1
  516.7374 0.04 0
  516.8679 0.02 0
  517.2205 0.13 1
  517.3954 0.05 0
  518.4731 0.08 1
  518.6573 0.05 0
  518.8152 0.05 0
  519.0488 0.30 3
  519.1827 0.17 2
  519.4353 0.18 2
  519.9531 0.15 1
  520.1985 0.15 1
  520.3826 0.11 1
  520.5499 0.13 1
  520.8299 0.06 1
  520.9780 0.12 1
  521.1354 0.07 1
  521.4048 0.06 1
  521.5784 0.06 1
  521.7252 0.04 0
  521.9495 0.11 1
  522.1752 0.13 1
  522.5110 0.09 1
  522.7164 0.10 1
  522.8970 0.04 0
  523.2526 0.17 2
  523.4459 0.09 1
  523.5891 0.06 1
  523.8212 0.03 0
  524.0809 0.10 1
  524.2206 0.25 2
  524.5240 0.23 2
  524.7455 0.02 0
  525.0250 0.07 1
  525.1498 0.08 1
  525.3157 0.03 0
  525.4385 0.21 2
  525.5211 0.07 1
  525.7991 0.09 1
  526.0086 0.15 1
  526.3650 0.09 1
  526.5245 0.21 2
  526.7870 0.06 1
  527.3784 0.05 0
  527.6190 0.06 1
  527.7969 0.14 1
  527.9479 0.15 1
  528.1935 0.02 0
  528.3544 0.08 1
  528.6014 0.15 1
  528.7348 0.08 1
  528.9254 0.11 1
  529.0637 0.10 1
  529.3043 0.03 0
  529.4928 0.09 1
  529.6890 0.03 0
  529.8400 0.09 1
  530.3398 0.10 1
  530.5698 0.05 0
  530.8134 0.21 2
  531.0011 0.17 2
  531.1606 0.07 1
  531.4409 0.08 1
  531.5665 0.10 1
  531.9647 0.17 2
  532.1637 0.07 1
  532.3726 0.10 1
  532.5654 0.13 1
  532.7016 0.07 1
  532.9903 0.12 1
  533.2593 0.15 1
  533.5367 0.17 2
  533.6504 0.15 1
  533.9052 0.18 2
  534.1544 0.49 5
  534.3394 0.33 3
  535.1838 0.93 9
  535.6109 0.05 0
  535.8503 0.29 3
  535.9562 0.12 1
  536.1101 0.33 3
  536.2400 0.26 3
  536.4539 0.27 3
  536.6128 0.12 1
  536.7554 0.11 1
  536.9503 0.14 1
  537.2271 0.28 3
  537.7023 0.16 2
  537.9021 0.16 2
  538.2622 0.72 7
  538.4606 0.43 4
  539.1626 0.44 4
  539.4747 0.58 6
  539.6421 0.27 3
  539.7903 0.31 3
  539.9944 0.19 2
  540.2416 0.43 4
  540.4641 0.38 4
  540.7988 0.27 3
  541.3730 0.48 5
  541.5905 0.30 3
  542.1923 0.48 5
  542.6400 0.57 6
  542.9508 0.25 2
  543.3838 0.54 5
  543.7913 0.61 6
  544.1318 0.73 7
  544.3677 0.52 5
  545.0868 0.54 5
  545.7077 0.66 7
  546.0376 0.58 6
  546.3484 0.67 7
  546.7574 1.08 11
  547.1248 1.10 11
  547.4590 1.00 10
  549.9720 16.30 163
  551.2488 2.24 22
  551.6042 0.93 9
  552.2713 1.77 18
  552.5822 1.14 11
  553.2341 3.85 38
  553.7112 0.60 6
  554.3174 1.30 13
  554.4591 0.70 7
  555.0498 1.16 12
  555.2014 0.47 5
  555.3853 0.78 8
  555.5975 0.48 5
  555.8992 0.85 8
  556.1946 0.66 7
  556.5034 0.88 9
  556.9285 0.79 8
  557.3465 0.79 8
  558.1481 0.93 9
  558.8108 0.87 9
  559.4143 1.10 11
  559.8923 0.94 9
  560.1765 1.00 10
  560.5763 1.23 12
  560.8886 1.19 12
  568.3274 99.97 999
  568.9220 37.96 379
  569.7805 17.03 170
  570.4767 8.39 84
  571.3521 3.99 40
  572.2206 2.79 28
  573.4255 1.44 14
  573.7318 0.68 7
  574.3216 0.65 6
  574.7365 0.78 8
  574.8776 0.52 5
//
