ACCESSION: MSBNK-Kyoto_Univ-CA000046
RECORD_TITLE: Crocoxanthin; FAB-EBEB; MS2; m/z: 550.42; [M]+*
DATE: 2016.01.19 (Created 2010.04.01, modified 2011.05.10)
AUTHORS: Akimoto N, Graduate School of Pharmaceutical Sciences, Kyoto University and Maoka T, Research Institute for Production Development
LICENSE: CC BY-SA
PUBLICATION: Takashi Maoka, Yasuhiro Fujiwara, Keiji Hashimoto, and Naoshige Akimoto, Carotenoids in Three Species of Corbicula Clams, Corbicula japonica, Corbicula sandai, and Corbicula sp. (Chinese Freshwater Corbicula Clam), J. Agric. Food Chem., 53, 8357-8364 (2005).
COMMENT: Profile spectrum of this record is given as a JPEG file.
COMMENT: [Profile] CA000046.jpg
CH$NAME: 7,8-Didehydrocryptoxanthin
CH$NAME: Crocoxanthin
CH$COMPOUND_CLASS: N/A
CH$FORMULA: C40H54O
CH$EXACT_MASS: 550.41747
CH$SMILES: C(=CC(=C(C)2)C(C)(C)CCC2)C(C)=CC=CC(=CC=CC=C(C)C=CC=C(C#CC(=C1C)C(C)(C)CC(C1)O)C)C
CH$IUPAC: InChI=1S/C40H54O/c1-30(18-13-20-32(3)23-25-37-34(5)22-15-27-39(37,7)8)16-11-12-17-31(2)19-14-21-33(4)24-26-38-35(6)28-36(41)29-40(38,9)10/h11-14,16-21,23,25,36,41H,15,22,27-29H2,1-10H3/b12-11+,18-13+,19-14+,25-23+,30-16+,31-17+,32-20+,33-21+/t36-/m1/s1
CH$LINK: CAS 76207-91-5
CH$LINK: NIKKAJI J2.243.561B
CH$LINK: INCHIKEY UNJKJDIRJWIHLL-BQLQDKTLSA-N
AC$INSTRUMENT: JMS-HX/HX 110A, JEOL
AC$INSTRUMENT_TYPE: FAB-EBEB
AC$MASS_SPECTROMETRY: MS_TYPE MS2
AC$MASS_SPECTROMETRY: ION_MODE POSITIVE
AC$MASS_SPECTROMETRY: ATOM_GUN_CURRENT 5 mA
AC$MASS_SPECTROMETRY: BOMBARDMENT 6 kV xenon
AC$MASS_SPECTROMETRY: COLLISION_ENERGY 3 kV
AC$MASS_SPECTROMETRY: COLLISION_GAS Ar
AC$MASS_SPECTROMETRY: GAS_PRESSURE adjust to attenuate the intensity of the precursor ion by 30 %
AC$MASS_SPECTROMETRY: IONIZATION FAB
AC$MASS_SPECTROMETRY: MATRIX 1-2 uL m-NBA
AC$MASS_SPECTROMETRY: PROBE_TIP stainless-steel
MS$FOCUSED_ION: BASE_PEAK 535.3963
MS$FOCUSED_ION: PRECURSOR_M/Z 550.42
MS$FOCUSED_ION: PRECURSOR_TYPE [M]+*
MS$DATA_PROCESSING: RELATIVE_M/Z normalised by peak(m/z=535.3963).  set 999 for peak(m/z=550.4190,rel=2883).
PK$SPLASH: splash10-0udi-3941160000-0f49d116b26dadace2d0
PK$NUM_PEAK: 1693
PK$PEAK: m/z int. rel.int.
  1.1046 0.02 1
  1.4804 0.05 1
  4.0082 0.01 0
  5.2783 0.01 0
  14.9814 0.17 5
  17.1929 0.01 0
  18.8533 0.01 0
  22.9401 0.11 3
  24.9598 0.10 3
  25.9625 0.25 7
  26.1026 0.12 3
  26.3335 0.01 0
  26.7967 0.03 1
  26.9615 1.68 48
  27.9663 0.13 4
  28.9710 1.28 37
  29.4546 0.02 1
  29.6008 0.01 0
  29.9309 0.02 1
  30.0669 0.01 0
  30.6296 0.01 0
  30.9484 0.21 6
  35.0652 0.05 1
  36.9195 0.12 3
  37.9537 0.36 10
  38.5099 0.01 0
  38.6631 0.01 0
  38.9469 3.24 93
  39.9558 0.41 12
  40.9705 6.98 201
  41.9488 0.18 5
  42.9695 3.56 103
  43.9546 0.09 3
  44.9587 0.17 5
  47.5508 0.01 0
  49.0808 0.06 2
  49.8186 0.05 1
  49.9549 1.27 37
  50.2054 0.04 1
  50.7014 0.01 0
  50.9485 1.85 53
  51.6008 0.06 2
  51.9572 1.00 29
  52.9589 3.24 93
  53.9650 0.21 6
  54.9737 6.88 198
  55.9933 0.18 5
  56.9833 2.03 59
  57.9911 0.37 11
  58.9618 0.28 8
  59.9939 0.05 1
  60.9550 0.09 3
  61.0842 0.01 0
  61.9282 0.50 14
  62.4363 0.02 1
  62.9508 1.45 42
  63.1033 0.07 2
  63.2586 0.06 2
  63.9571 0.40 12
  64.5589 0.04 1
  64.9593 2.97 86
  65.9613 0.34 10
  66.6145 0.06 2
  66.6924 0.06 2
  66.9670 3.59 104
  67.9652 0.22 6
  68.9789 10.08 291
  69.3876 0.08 2
  69.9675 0.06 2
  70.9731 0.43 12
  72.0368 0.16 5
  72.9479 0.04 1
  73.9326 0.76 22
  74.9453 0.74 21
  75.1895 0.03 1
  75.5352 0.03 1
  75.6509 0.09 3
  75.9329 0.46 13
  76.4153 0.01 0
  76.5568 0.07 2
  76.9384 5.47 158
  77.1402 0.06 2
  77.2965 0.04 1
  77.4651 0.02 1
  77.7001 0.06 2
  77.9710 1.44 42
  78.1371 0.05 1
  78.3006 0.03 1
  78.4591 0.07 2
  78.6601 0.07 2
  78.9568 4.60 133
  79.4223 0.05 1
  79.8188 0.05 1
  79.9803 0.52 15
  80.2725 0.01 0
  80.5105 0.06 2
  80.9717 6.52 188
  81.9535 0.12 3
  82.0212 0.06 2
  82.2326 0.02 1
  82.4928 0.02 1
  82.9735 1.91 55
  83.5317 0.12 3
  83.9899 0.10 3
  84.9698 1.64 47
  85.7375 0.01 0
  85.9277 0.26 7
  86.8986 0.33 10
  87.7512 0.07 2
  87.9474 0.10 3
  88.4370 0.14 4
  88.6175 0.06 2
  88.9483 0.83 24
  89.3546 0.09 3
  89.5855 0.06 2
  89.7906 0.08 2
  89.9705 0.44 13
  90.1223 0.04 1
  90.3346 0.03 1
  90.4670 0.15 4
  90.5625 0.08 2
  90.9536 11.02 318
  91.2701 0.05 1
  91.6508 0.03 1
  91.9563 1.04 30
  92.9738 6.11 176
  93.3761 0.02 1
  93.7851 0.04 1
  93.9723 0.30 9
  94.4990 0.11 3
  94.7167 0.12 3
  94.9850 5.54 160
  95.2628 0.01 0
  95.9952 0.12 3
  96.2974 0.11 3
  96.9754 0.47 14
  97.7004 0.13 4
  97.9575 0.13 4
  98.0575 0.14 4
  98.3826 0.01 0
  98.9369 0.26 7
  99.3147 0.03 1
  99.8289 0.07 2
  99.9797 0.21 6
  100.6637 0.01 0
  100.9358 0.28 8
  101.0810 0.15 4
  101.1592 0.12 3
  101.2663 0.08 2
  101.5781 0.10 3
  101.9407 0.84 24
  102.1563 0.10 3
  102.3349 0.08 2
  102.4687 0.03 1
  102.6013 0.05 1
  102.9747 2.59 75
  103.3146 0.06 2
  103.9390 0.89 26
  104.3979 0.08 2
  104.6328 0.10 3
  104.9790 15.57 449
  105.2900 0.03 1
  105.9624 0.95 27
  106.9902 6.49 187
  107.3162 0.04 1
  107.4449 0.07 2
  107.9628 0.24 7
  108.0673 0.08 2
  108.3636 0.01 0
  108.7813 0.14 4
  109.0006 2.51 72
  109.3444 0.05 1
  109.9717 0.29 8
  110.5722 0.18 5
  110.9795 0.32 9
  111.9357 0.05 1
  112.6589 0.04 1
  112.7677 0.07 2
  112.9370 0.42 12
  113.3332 0.16 5
  113.6373 0.11 3
  113.7445 0.15 4
  113.9500 0.47 14
  114.2461 0.13 4
  114.3558 0.06 2
  114.5009 0.07 2
  114.9358 6.41 185
  115.2821 0.15 4
  115.9675 2.32 67
  116.1382 0.20 6
  116.3588 0.11 3
  116.5242 0.03 1
  116.9502 5.79 167
  117.2241 0.10 3
  117.3102 0.07 2
  117.4246 0.05 1
  117.6794 0.07 2
  117.9608 1.45 42
  118.5535 0.17 5
  118.9608 13.69 395
  119.2408 0.10 3
  119.4154 0.10 3
  119.5108 0.06 2
  119.6757 0.11 3
  119.9772 0.97 28
  120.1507 0.05 1
  120.3901 0.07 2
  120.9618 4.68 135
  121.2039 0.11 3
  121.4334 0.10 3
  121.7866 0.19 5
  121.9496 0.52 15
  122.0483 0.18 5
  122.2678 0.12 3
  122.9853 3.20 92
  123.6130 0.06 2
  123.9022 0.18 5
  124.0170 0.14 4
  124.3269 0.01 0
  124.9405 0.25 7
  125.3805 0.09 3
  125.6167 0.07 2
  125.8914 0.44 13
  126.1710 0.12 3
  126.2782 0.11 3
  126.3581 0.11 3
  126.6549 0.15 4
  126.9238 2.37 68
  127.2001 0.17 5
  127.3691 0.11 3
  127.4820 0.20 6
  127.9081 6.91 199
  128.2562 0.03 1
  128.4878 0.15 4
  128.9199 8.12 234
  129.3908 0.03 1
  129.9415 3.30 95
  130.9422 8.07 233
  131.1427 0.19 5
  131.3259 0.11 3
  131.9343 1.07 31
  132.2761 0.06 2
  132.9429 5.82 168
  133.2108 0.05 1
  133.3552 0.04 1
  133.5623 0.09 3
  133.7375 0.07 2
  133.8524 0.26 7
  134.0063 0.55 16
  134.1351 0.09 3
  134.3426 0.11 3
  134.5232 0.02 1
  134.9583 1.05 30
  135.3573 0.06 2
  135.8397 0.25 7
  135.9940 0.23 7
  136.5601 0.02 1
  136.9838 0.56 16
  137.6359 0.08 2
  137.9154 0.31 9
  137.9995 0.15 4
  138.1313 0.09 3
  138.3305 0.08 2
  138.8986 1.48 43
  139.2033 0.07 2
  139.4021 0.12 3
  139.5377 0.04 1
  139.7255 0.25 7
  139.9560 0.49 14
  140.9059 6.07 175
  141.3217 0.15 4
  141.4098 0.05 1
  141.9238 5.65 163
  142.4873 0.13 4
  142.9422 9.19 265
  143.2083 0.17 5
  143.3718 0.06 2
  143.5659 0.03 1
  143.9516 3.30 95
  144.1800 0.11 3
  144.3742 0.06 2
  144.9626 6.91 199
  145.1781 0.23 7
  145.3202 0.05 1
  145.4274 0.10 3
  145.9777 0.95 27
  146.0588 0.45 13
  146.5296 0.02 1
  146.9770 2.83 82
  147.4676 0.09 3
  147.5993 0.07 2
  147.6823 0.03 1
  147.8341 0.04 1
  148.0121 0.41 12
  148.2670 0.04 1
  148.6200 0.11 3
  148.7244 0.07 2
  149.0064 0.33 10
  149.6517 0.07 2
  149.9170 0.38 11
  150.0290 0.22 6
  150.3595 0.11 3
  150.6888 0.16 5
  150.9193 0.67 19
  151.1184 0.25 7
  151.2475 0.14 4
  151.9368 3.71 107
  152.1819 0.14 4
  152.3499 0.12 3
  152.5337 0.19 5
  152.9628 3.81 110
  153.2200 0.06 2
  153.3010 0.05 1
  153.5326 0.18 5
  153.7109 0.19 5
  153.9746 1.78 51
  154.2164 0.03 1
  154.3614 0.15 4
  154.4726 0.07 2
  154.9766 7.13 206
  155.3034 0.10 3
  155.4801 0.06 2
  155.9781 4.10 118
  156.4028 0.05 1
  156.9950 8.05 232
  157.3206 0.12 3
  157.4446 0.11 3
  157.6783 0.11 3
  158.0071 1.93 56
  158.3556 0.14 4
  158.4602 0.04 1
  159.0118 3.89 112
  159.2256 0.13 4
  159.4325 0.06 2
  159.6116 0.19 5
  159.6955 0.11 3
  159.9833 0.58 17
  160.1429 0.13 4
  160.2281 0.06 2
  160.5229 0.05 1
  160.6568 0.07 2
  161.0275 2.27 65
  161.3054 0.05 1
  161.4406 0.12 3
  161.6522 0.06 2
  161.7584 0.06 2
  161.8923 0.09 3
  162.0605 0.41 12
  162.2963 0.11 3
  162.4088 0.09 3
  162.5681 0.12 3
  162.9944 0.48 14
  163.1683 0.14 4
  163.3923 0.11 3
  163.5208 0.14 4
  163.7125 0.09 3
  163.8479 0.21 6
  164.0404 0.52 15
  164.9814 6.21 179
  165.3729 0.10 3
  165.4832 0.02 1
  165.9794 2.08 60
  166.4815 0.24 7
  166.9934 4.80 138
  167.2563 0.14 4
  167.5345 0.15 4
  168.0127 2.82 81
  168.2619 0.09 3
  168.3853 0.11 3
  169.0099 5.86 169
  169.3050 0.03 1
  169.4487 0.06 2
  169.5494 0.14 4
  169.6317 0.11 3
  170.0174 2.60 75
  170.3481 0.18 5
  171.0117 4.60 133
  171.3261 0.10 3
  171.4498 0.16 5
  171.7504 0.26 7
  172.0091 0.72 21
  172.2572 0.17 5
  172.5300 0.08 2
  172.7210 0.12 3
  173.0403 2.69 78
  173.2549 0.12 3
  173.4695 0.06 2
  173.6327 0.06 2
  173.8124 0.34 10
  174.0213 0.89 26
  174.1204 0.31 9
  174.3923 0.01 0
  174.5988 0.07 2
  175.0272 1.50 43
  175.3959 0.04 1
  175.6292 0.22 6
  175.9631 0.92 27
  176.1584 0.39 11
  176.4803 0.16 5
  177.0059 1.28 37
  177.1472 0.45 13
  177.9545 3.87 112
  178.3035 0.14 4
  178.4054 0.12 3
  178.9827 6.33 183
  179.2516 0.06 2
  179.4230 0.03 1
  179.5276 0.07 2
  179.9828 2.62 76
  180.9785 5.93 171
  181.4590 0.16 5
  181.9958 2.40 69
  182.3464 0.15 4
  182.5079 0.08 2
  182.6203 0.11 3
  183.0113 5.01 144
  183.6355 0.15 4
  183.9998 1.24 36
  184.2076 0.18 5
  184.3489 0.05 1
  184.5381 0.17 5
  185.0229 2.32 67
  185.3235 0.10 3
  185.4566 0.09 3
  185.6261 0.14 4
  186.0497 0.34 10
  186.5035 0.06 2
  186.6341 0.05 1
  187.0138 1.36 39
  187.2687 0.14 4
  187.3673 0.06 2
  187.5178 0.09 3
  187.8010 0.11 3
  187.9829 0.35 10
  188.2860 0.15 4
  188.4879 0.23 7
  188.9865 1.96 57
  189.2911 0.17 5
  189.4341 0.19 5
  189.9856 1.48 43
  190.1485 0.38 11
  190.2646 0.21 6
  190.3436 0.07 2
  190.5559 0.19 5
  190.9762 3.42 99
  191.2573 0.04 1
  191.4146 0.08 2
  191.5199 0.02 1
  191.9674 2.57 74
  192.3135 0.12 3
  192.4946 0.12 3
  192.9861 5.84 168
  193.3645 0.01 0
  193.4879 0.05 1
  193.6145 0.10 3
  194.0002 2.63 76
  194.3178 0.10 3
  194.4142 0.07 2
  194.5428 0.06 2
  195.0033 5.68 164
  195.2728 0.20 6
  195.3776 0.11 3
  196.0095 1.71 49
  196.2302 0.15 4
  196.3718 0.11 3
  196.4819 0.12 3
  197.0143 3.56 103
  197.4985 0.05 1
  197.6035 0.07 2
  198.0118 0.70 20
  198.3726 0.08 2
  198.5272 0.11 3
  198.7322 0.10 3
  199.0131 1.35 39
  199.5540 0.14 4
  199.9369 0.51 15
  200.0994 0.36 10
  200.4180 0.10 3
  200.5522 0.06 2
  200.7005 0.12 3
  201.0528 1.23 35
  201.3386 0.25 7
  201.9691 2.38 69
  202.5585 0.05 1
  202.9995 2.87 83
  203.5233 0.16 5
  203.7023 0.17 5
  204.0027 1.47 42
  204.4783 0.07 2
  204.9882 4.17 120
  205.3554 0.12 3
  205.9923 2.74 79
  206.2730 0.08 2
  206.4677 0.11 3
  206.6075 0.24 7
  207.0163 4.61 133
  207.3269 0.18 5
  207.4408 0.11 3
  207.5787 0.20 6
  207.7418 0.21 6
  208.0369 1.86 54
  208.6015 0.05 1
  209.0146 3.08 89
  209.2471 0.27 8
  209.3793 0.20 6
  209.5198 0.06 2
  210.0122 0.64 18
  210.3128 0.07 2
  211.0199 1.30 37
  211.6138 0.13 4
  212.0774 0.56 16
  212.2584 0.09 3
  212.3712 0.07 2
  212.5269 0.11 3
  212.6008 0.05 1
  212.8156 0.53 15
  213.0244 0.94 27
  213.1283 0.39 11
  213.7778 0.14 4
  214.0368 0.48 14
  214.1893 0.11 3
  214.4198 0.07 2
  214.5087 0.06 2
  214.9983 3.08 89
  215.2113 0.25 7
  215.3132 0.11 3
  215.3963 0.06 2
  215.6555 0.16 5
  216.0160 1.71 49
  216.3558 0.23 7
  217.0049 2.87 83
  217.4989 0.13 4
  218.0275 1.09 31
  218.5789 0.23 7
  219.0276 3.90 112
  219.4778 0.02 1
  220.0419 1.55 45
  220.2124 0.33 10
  220.4994 0.06 2
  221.0501 3.35 97
  221.3385 0.06 2
  221.6426 0.11 3
  222.0567 1.14 33
  222.4899 0.05 1
  222.6019 0.06 2
  222.7387 0.08 2
  223.0801 2.26 65
  223.4749 0.09 3
  223.5890 0.17 5
  223.7213 0.14 4
  223.8979 0.23 7
  224.0947 0.47 14
  224.2707 0.09 3
  224.5901 0.05 1
  225.1117 0.76 22
  225.9902 0.77 22
  226.1858 0.18 5
  226.3276 0.18 5
  226.5052 0.10 3
  226.7024 0.28 8
  227.0154 1.23 35
  227.1553 0.61 18
  227.2685 0.22 6
  227.4397 0.10 3
  227.6304 0.16 5
  227.7261 0.10 3
  228.0718 1.11 32
  228.4012 0.09 3
  228.6825 0.10 3
  229.0439 2.55 74
  229.2999 0.18 5
  229.5057 0.11 3
  229.6894 0.21 6
  230.0327 1.61 46
  230.1610 0.49 14
  230.2803 0.19 5
  230.5481 0.09 3
  230.6510 0.13 4
  231.0466 3.45 99
  231.4162 0.07 2
  232.0576 1.47 42
  232.3850 0.08 2
  232.5180 0.09 3
  233.0619 2.67 77
  233.3724 0.12 3
  233.6059 0.11 3
  234.0795 1.09 31
  234.2524 0.31 9
  234.5128 0.27 8
  234.7412 0.06 2
  235.0728 1.98 57
  235.4905 0.13 4
  235.6198 0.03 1
  235.8261 0.43 12
  236.0879 0.72 21
  236.4842 0.05 1
  236.6508 0.09 3
  237.0635 1.02 29
  237.5077 0.13 4
  237.6900 0.12 3
  238.0839 0.59 17
  238.4427 0.03 1
  239.0197 1.52 44
  239.4492 0.13 4
  239.6878 0.03 1
  240.0500 0.36 10
  240.5299 0.09 3
  241.0701 1.58 46
  241.3429 0.29 8
  241.5038 0.06 2
  241.6699 0.04 1
  242.0441 1.23 35
  242.4400 0.06 2
  242.6402 0.11 3
  243.0552 2.47 71
  243.3157 0.18 5
  243.5506 0.27 8
  243.7346 0.13 4
  243.9978 1.09 31
  244.1431 0.76 22
  244.5464 0.11 3
  245.0415 2.66 77
  245.7816 0.10 3
  246.0928 1.33 38
  246.3293 0.06 2
  246.4361 0.12 3
  246.6451 0.12 3
  246.7480 0.16 5
  247.0744 1.82 52
  247.5122 0.07 2
  247.7036 0.04 1
  247.8425 0.28 8
  248.0529 0.76 22
  248.2135 0.24 7
  248.4555 0.02 1
  249.0810 1.15 33
  249.4784 0.19 5
  249.8044 0.06 2
  250.0609 0.58 17
  250.3180 0.12 3
  250.5765 0.03 1
  250.7064 0.14 4
  251.1204 1.23 35
  251.2129 0.59 17
  251.3822 0.12 3
  251.5626 0.06 2
  251.6676 0.11 3
  252.0355 0.58 17
  252.2302 0.53 15
  252.4801 0.05 1
  252.5897 0.11 3
  253.0640 1.46 42
  253.4484 0.16 5
  253.6335 0.13 4
  253.7502 0.04 1
  254.0823 0.61 18
  254.4491 0.05 1
  254.8049 0.53 15
  255.0740 1.57 45
  255.5237 0.12 3
  255.7180 0.14 4
  256.0529 0.85 25
  256.2847 0.18 5
  256.4568 0.02 1
  257.0380 1.70 49
  257.6508 0.16 5
  257.8354 0.20 6
  258.1140 0.66 19
  258.2822 0.16 5
  258.4301 0.07 2
  258.5694 0.10 3
  259.0806 1.81 52
  259.3323 0.20 6
  259.6031 0.15 4
  260.0468 0.65 19
  260.1994 0.35 10
  260.3348 0.12 3
  260.4985 0.10 3
  260.7194 0.27 8
  261.0883 1.23 35
  261.4072 0.16 5
  262.1103 0.44 13
  262.7017 0.14 4
  263.0952 1.11 32
  263.4393 0.07 2
  263.6136 0.10 3
  263.7255 0.10 3
  263.8696 0.11 3
  264.0671 0.27 8
  264.4008 0.08 2
  264.5587 0.11 3
  265.0478 0.86 25
  265.2078 0.41 12
  265.4395 0.20 6
  265.6956 0.03 1
  266.0499 0.65 19
  266.2099 0.32 9
  266.5247 0.22 6
  266.6241 0.11 3
  267.0793 1.94 56
  267.6359 0.26 7
  268.0311 1.04 30
  268.2038 0.67 19
  268.4344 0.06 2
  269.0755 1.49 43
  269.4639 0.06 2
  269.7456 0.11 3
  270.1062 0.51 15
  270.3129 0.08 2
  270.4755 0.08 2
  271.0633 1.49 43
  271.3576 0.09 3
  271.5459 0.12 3
  271.6493 0.06 2
  272.0523 0.53 15
  272.3453 0.03 1
  272.6759 0.04 1
  273.0685 1.31 38
  273.3570 0.12 3
  273.4373 0.06 2
  273.5553 0.12 3
  273.6692 0.10 3
  273.8787 0.02 1
  274.1541 0.31 9
  274.2885 0.21 6
  274.6371 0.44 13
  275.1194 1.50 43
  275.4213 0.15 4
  275.6447 0.20 6
  275.7568 0.09 3
  276.0264 0.40 12
  276.2802 0.18 5
  276.4212 0.11 3
  276.7278 0.09 3
  276.9889 0.65 19
  277.1458 0.57 16
  277.2882 0.30 9
  277.4616 0.06 2
  277.7445 0.06 2
  278.0413 0.31 9
  278.2398 0.44 13
  278.5894 0.19 5
  279.0194 0.70 20
  279.2767 0.43 12
  279.4218 0.10 3
  279.6442 0.10 3
  279.7662 0.07 2
  280.0941 0.49 14
  280.3739 0.21 6
  280.6049 0.11 3
  281.0616 1.47 42
  281.3361 0.10 3
  281.7539 0.24 7
  282.0233 0.70 20
  282.1923 0.32 9
  282.4616 0.10 3
  282.6577 0.16 5
  282.8340 0.29 8
  283.1106 1.56 45
  283.3622 0.16 5
  283.6838 0.14 4
  284.1369 0.47 14
  284.3984 0.15 4
  284.5385 0.23 7
  284.7320 0.09 3
  285.0952 0.93 27
  285.3493 0.12 3
  285.4951 0.12 3
  285.7023 0.15 4
  286.0599 0.36 10
  286.1959 0.10 3
  286.3160 0.03 1
  286.4328 0.06 2
  287.0472 1.02 29
  287.7714 0.12 3
  288.0150 0.22 6
  288.1649 0.18 5
  288.7082 0.11 3
  289.0628 0.65 19
  289.3105 0.23 7
  289.6169 0.09 3
  289.9986 0.21 6
  290.4313 0.10 3
  290.5462 0.05 1
  290.6744 0.13 4
  290.8389 0.20 6
  291.0119 0.46 13
  291.1560 0.59 17
  291.4903 0.02 1
  291.6032 0.03 1
  292.0235 0.46 13
  292.1510 0.26 7
  292.5350 0.07 2
  292.7286 0.11 3
  293.0948 0.94 27
  293.2560 0.21 6
  293.3413 0.09 3
  293.4444 0.11 3
  293.8622 0.27 8
  294.0770 0.66 19
  294.1815 0.12 3
  294.5418 0.01 0
  295.0099 0.84 24
  295.1911 0.88 25
  295.4324 0.10 3
  295.5323 0.07 2
  295.6612 0.08 2
  295.7426 0.03 1
  295.8715 0.29 8
  296.1063 0.49 14
  296.3960 0.12 3
  297.0581 0.77 22
  297.4041 0.04 1
  297.5602 0.11 3
  297.7038 0.09 3
  297.8143 0.05 1
  298.0663 0.29 8
  298.3251 0.15 4
  298.5825 0.08 2
  299.0688 0.65 19
  299.8339 0.11 3
  300.1053 0.31 9
  300.4409 0.11 3
  300.8156 0.14 4
  301.0275 0.73 21
  301.2095 0.18 5
  301.3009 0.12 3
  301.8246 0.15 4
  301.9749 0.10 3
  302.0895 0.28 8
  302.2094 0.43 12
  302.5445 0.13 4
  302.7120 0.13 4
  303.0399 0.64 18
  303.2624 0.07 2
  303.4366 0.04 1
  303.7797 0.22 6
  304.0129 0.21 6
  304.1480 0.10 3
  304.6078 0.07 2
  304.7476 0.14 4
  305.0272 0.55 16
  305.2307 0.18 5
  305.3877 0.04 1
  305.5215 0.12 3
  305.7601 0.17 5
  305.8562 0.02 1
  306.0868 0.30 9
  307.0611 1.04 30
  307.6962 0.10 3
  308.1145 0.41 12
  308.4314 0.06 2
  308.5156 0.04 1
  308.7238 0.06 2
  308.9546 0.42 12
  309.1429 0.45 13
  309.3094 0.23 7
  309.6668 0.04 1
  309.8936 0.19 5
  310.1138 0.30 9
  310.5834 0.12 3
  311.1081 0.79 23
  311.2235 0.32 9
  311.4424 0.02 1
  311.7576 0.04 1
  311.8611 0.08 2
  312.0170 0.30 9
  312.1411 0.13 4
  312.3096 0.13 4
  312.4569 0.12 3
  312.6195 0.07 2
  313.0508 0.62 18
  313.3143 0.19 5
  313.9873 0.13 4
  314.2182 0.24 7
  314.3762 0.11 3
  314.5793 0.02 1
  314.7931 0.25 7
  315.0958 0.32 9
  315.1755 0.21 6
  315.4510 0.12 3
  315.6508 0.02 1
  315.7909 0.07 2
  316.0944 0.23 7
  316.2829 0.12 3
  316.8135 0.16 5
  316.9975 0.42 12
  317.1210 0.37 11
  317.2392 0.24 7
  317.5188 0.02 1
  317.7154 0.10 3
  318.0190 0.18 5
  318.2029 0.12 3
  318.2966 0.11 3
  318.4248 0.12 3
  318.6467 0.16 5
  318.8705 0.17 5
  319.1117 0.50 14
  319.3416 0.26 7
  319.7469 0.10 3
  319.8705 0.18 5
  319.9854 0.03 1
  320.1495 0.21 6
  320.3024 0.14 4
  320.6173 0.12 3
  320.8253 0.25 7
  320.9011 0.17 5
  321.1583 0.66 19
  321.4055 0.13 4
  321.5052 0.04 1
  322.0576 0.37 11
  322.1500 0.18 5
  323.0248 0.36 10
  323.2196 0.50 14
  323.6112 0.05 1
  323.7349 0.05 1
  323.8459 0.13 4
  324.0813 0.22 6
  324.3047 0.12 3
  324.5873 0.09 3
  325.0735 0.42 12
  325.3275 0.20 6
  325.7352 0.10 3
  325.9601 0.12 3
  326.1124 0.25 7
  326.2135 0.13 4
  326.4463 0.08 2
  326.8002 0.12 3
  327.1475 0.40 12
  327.3790 0.10 3
  327.6631 0.05 1
  328.0033 0.20 6
  328.2279 0.04 1
  328.3369 0.08 2
  328.8167 0.13 4
  329.0699 0.64 18
  329.2001 0.60 17
  329.4055 0.07 2
  329.7618 0.16 5
  329.9279 0.25 7
  330.0901 0.19 5
  330.2889 0.04 1
  330.6951 0.06 2
  331.0680 0.70 20
  331.2375 0.37 11
  331.5308 0.07 2
  331.7263 0.07 2
  331.9896 0.15 4
  332.2083 0.29 8
  332.6239 0.11 3
  333.1553 1.04 30
  333.3861 0.22 6
  333.7273 0.19 5
  334.1703 0.85 25
  334.3592 0.25 7
  334.9013 0.17 5
  335.1129 0.53 15
  335.2925 0.18 5
  335.3590 0.08 2
  335.7037 0.07 2
  336.1208 0.21 6
  336.3051 0.21 6
  336.4762 0.07 2
  336.5673 0.08 2
  336.6572 0.07 2
  336.7949 0.03 1
  336.9579 0.11 3
  337.0891 0.23 7
  337.2428 0.12 3
  337.5722 0.09 3
  337.8684 0.14 4
  338.0727 0.13 4
  338.3143 0.10 3
  338.8874 0.21 6
  338.9966 0.06 2
  339.1843 0.30 9
  339.9339 0.10 3
  340.0937 0.15 4
  340.5418 0.03 1
  340.6690 0.10 3
  340.7742 0.03 1
  340.9473 0.28 8
  341.1950 0.24 7
  341.4341 0.11 3
  341.6885 0.05 1
  342.1440 0.18 5
  342.3045 0.09 3
  342.6429 0.08 2
  342.7601 0.12 3
  343.0692 0.40 12
  343.2364 0.37 11
  343.4022 0.15 4
  343.6021 0.11 3
  343.9758 0.13 4
  344.1257 0.22 6
  344.7566 0.04 1
  345.1631 1.00 29
  345.4609 0.21 6
  345.6062 0.10 3
  345.8827 0.09 3
  346.1633 0.57 16
  346.4705 0.10 3
  346.7151 0.12 3
  346.9250 0.15 4
  347.1723 1.04 30
  347.3922 0.14 4
  347.5115 0.06 2
  347.9368 0.13 4
  348.1168 0.16 5
  348.2274 0.24 7
  348.3148 0.04 1
  348.5421 0.07 2
  349.0988 0.27 8
  349.3201 0.22 6
  349.5401 0.11 3
  349.8548 0.11 3
  350.0949 0.09 3
  350.3783 0.30 9
  350.9211 0.23 7
  350.9991 0.11 3
  351.1565 0.16 5
  351.4673 0.10 3
  352.1702 0.11 3
  352.3757 0.24 7
  352.5531 0.11 3
  352.9580 0.11 3
  353.1234 0.16 5
  353.3763 0.05 1
  353.6237 0.11 3
  354.0080 0.20 6
  354.1928 0.12 3
  354.3478 0.16 5
  354.7835 0.12 3
  355.2424 0.39 11
  355.4792 0.13 4
  355.8311 0.10 3
  355.9868 0.04 1
  356.1052 0.10 3
  356.2123 0.02 1
  356.6621 0.01 0
  356.9961 0.28 8
  357.1844 0.51 15
  357.3494 0.23 7
  357.5909 0.04 1
  357.6854 0.08 2
  358.1266 0.21 6
  358.7861 0.11 3
  359.1388 0.72 21
  359.3298 0.19 5
  359.5681 0.05 1
  360.2170 0.80 23
  361.0584 0.10 3
  361.2462 0.26 7
  361.8520 0.13 4
  361.9952 0.18 5
  362.2302 0.27 8
  362.9300 0.15 4
  363.0625 0.29 8
  363.1757 0.37 11
  363.3861 0.11 3
  364.0941 0.15 4
  364.2106 0.24 7
  364.4031 0.11 3
  364.5842 0.04 1
  364.9539 0.30 9
  365.2556 0.38 11
  366.2168 0.44 13
  366.3940 0.10 3
  366.9243 0.12 3
  367.1855 0.18 5
  367.3441 0.07 2
  367.9557 0.18 5
  368.1323 0.18 5
  368.2482 0.10 3
  368.5380 0.11 3
  368.8877 0.10 3
  369.1829 0.17 5
  369.3001 0.13 4
  369.5406 0.07 2
  370.0757 0.13 4
  370.6327 0.11 3
  371.0812 0.36 10
  371.2924 0.36 10
  371.5570 0.08 2
  371.9836 0.14 4
  372.1755 0.21 6
  372.3361 0.15 4
  372.6787 0.06 2
  373.0646 0.69 20
  373.1866 0.39 11
  373.4066 0.05 1
  373.8459 0.11 3
  374.0605 0.28 8
  374.2006 0.29 8
  375.1559 0.11 3
  375.5160 0.02 1
  375.7373 0.11 3
  375.9060 0.03 1
  376.1648 0.13 4
  376.3255 0.10 3
  376.8996 0.07 2
  377.1010 0.18 5
  377.2811 0.16 5
  377.4211 0.16 5
  377.6499 0.07 2
  378.3242 0.03 1
  378.8585 0.10 3
  379.0146 0.10 3
  379.1333 0.06 2
  379.2454 0.30 9
  379.3528 0.21 6
  379.7163 0.02 1
  379.9225 0.09 3
  380.2300 0.19 5
  380.3321 0.13 4
  381.0887 0.14 4
  381.2955 0.11 3
  381.3709 0.05 1
  381.5951 0.03 1
  381.7152 0.04 1
  382.2230 0.13 4
  383.1946 0.31 9
  383.3662 0.22 6
  383.7866 0.02 1
  383.9802 0.11 3
  384.2365 0.11 3
  385.1696 0.39 11
  385.2871 0.32 9
  385.9794 0.06 2
  386.1964 0.39 11
  386.3559 0.10 3
  386.4481 0.12 3
  386.5342 0.12 3
  386.9194 0.04 1
  387.0202 0.05 1
  387.1858 0.48 14
  387.3761 0.18 5
  387.6699 0.06 2
  387.7868 0.04 1
  388.2348 0.14 4
  389.1010 0.08 2
  389.2105 0.16 5
  389.3160 0.24 7
  389.7755 0.05 1
  390.0500 0.12 3
  390.2069 0.06 2
  390.3773 0.06 2
  390.4935 0.04 1
  391.0372 0.13 4
  391.1982 0.07 2
  391.7239 0.06 2
  391.9477 0.10 3
  392.2236 0.28 8
  393.0313 0.14 4
  393.1643 0.13 4
  393.2739 0.20 6
  393.7683 0.11 3
  394.2461 0.25 7
  394.3430 0.12 3
  394.8308 0.09 3
  394.9778 0.11 3
  395.2297 0.43 12
  395.3607 0.07 2
  396.0130 0.08 2
  396.1948 0.18 5
  396.3031 0.12 3
  396.5209 0.18 5
  396.7776 0.12 3
  396.9935 0.10 3
  397.3331 0.81 23
  397.4922 0.35 10
  397.9019 0.04 1
  398.1025 0.09 3
  398.1954 0.10 3
  398.4574 0.03 1
  398.9034 0.03 1
  399.2316 0.40 12
  400.0552 0.12 3
  400.2028 0.26 7
  400.3932 0.28 8
  400.6616 0.04 1
  401.1665 0.52 15
  401.4450 0.04 1
  401.6908 0.07 2
  401.9746 0.05 1
  402.1229 0.15 4
  402.3086 0.14 4
  402.5056 0.13 4
  403.0153 0.11 3
  403.1703 0.23 7
  403.3874 0.13 4
  403.6773 0.02 1
  404.2404 0.13 4
  404.9580 0.13 4
  405.1818 0.16 5
  405.4130 0.18 5
  405.5941 0.13 4
  406.2529 0.27 8
  406.8142 0.08 2
  407.0173 0.13 4
  407.3160 0.11 3
  407.6048 0.12 3
  408.3058 0.23 7
  408.4348 0.08 2
  408.9200 0.11 3
  409.1420 0.11 3
  409.3659 0.15 4
  409.8418 0.21 6
  410.0644 0.17 5
  410.6446 0.11 3
  410.9421 0.20 6
  411.2650 0.44 13
  411.4870 0.07 2
  411.6768 0.13 4
  411.9182 0.04 1
  412.1602 0.22 6
  412.3762 0.23 7
  412.8362 0.11 3
  413.2715 0.53 15
  413.4755 0.18 5
  413.6861 0.10 3
  413.9796 0.12 3
  414.1348 0.16 5
  414.2759 0.09 3
  414.8477 0.10 3
  415.3038 0.16 5
  415.7158 0.06 2
  416.2729 0.17 5
  416.5760 0.10 3
  417.2270 0.43 12
  417.3525 0.11 3
  417.4453 0.09 3
  417.6382 0.16 5
  418.2018 0.13 4
  418.5176 0.08 2
  418.6472 0.01 0
  418.8936 0.10 3
  419.1273 0.05 1
  419.2682 0.25 7
  419.5461 0.13 4
  419.6903 0.12 3
  419.8906 0.12 3
  420.0883 0.05 1
  420.2399 0.20 6
  420.3334 0.10 3
  420.6754 0.11 3
  420.7876 0.09 3
  421.0441 0.11 3
  421.1496 0.19 5
  421.2838 0.18 5
  421.4348 0.07 2
  421.8943 0.07 2
  422.0153 0.05 1
  422.2197 0.16 5
  422.5343 0.24 7
  422.6017 0.10 3
  422.7240 0.15 4
  423.0787 0.11 3
  423.3566 0.16 5
  423.6432 0.11 3
  424.1303 0.02 1
  424.3340 0.12 3
  424.4443 0.06 2
  424.5859 0.10 3
  424.7817 0.27 8
  424.9574 0.12 3
  425.0851 0.07 2
  425.2167 0.16 5
  425.3236 0.16 5
  425.4646 0.10 3
  425.8608 0.02 1
  426.1849 0.81 23
  426.4716 0.15 4
  426.6346 0.12 3
  426.8244 0.17 5
  427.2829 0.80 23
  427.4339 0.41 12
  427.8015 0.27 8
  428.0989 0.41 12
  428.2098 0.24 7
  428.3161 0.25 7
  428.4511 0.30 9
  428.6115 0.22 6
  428.7813 0.11 3
  428.9611 0.34 10
  429.1596 0.25 7
  429.2612 0.22 6
  429.4811 0.39 11
  429.7545 0.10 3
  429.9430 0.09 3
  430.1582 0.18 5
  430.3060 0.11 3
  430.5680 0.09 3
  430.9738 0.11 3
  431.2118 0.23 7
  431.3676 0.09 3
  432.0468 0.10 3
  432.2975 0.26 7
  432.4547 0.07 2
  432.5670 0.11 3
  432.8752 0.06 2
  433.0511 0.17 5
  433.1995 0.08 2
  433.3159 0.18 5
  433.5646 0.12 3
  434.0293 0.10 3
  434.3523 0.05 1
  434.6011 0.14 4
  435.0264 0.11 3
  435.1842 0.12 3
  435.4083 0.16 5
  435.7975 0.11 3
  435.9460 0.27 8
  436.2242 0.25 7
  436.4215 0.07 2
  436.6630 0.05 1
  436.8556 0.15 4
  437.0362 0.15 4
  437.1191 0.12 3
  437.2790 0.14 4
  437.4763 0.12 3
  437.9439 0.08 2
  438.1004 0.09 3
  438.3211 0.06 2
  438.4743 0.10 3
  438.8851 0.08 2
  439.0644 0.19 5
  439.2216 0.11 3
  439.4604 0.30 9
  439.6899 0.09 3
  439.8484 0.10 3
  440.1930 0.20 6
  440.3181 0.27 8
  440.4292 0.17 5
  440.6680 0.14 4
  440.8393 0.20 6
  440.9531 0.12 3
  441.1418 0.34 10
  441.2983 0.18 5
  441.6757 0.20 6
  441.9681 0.10 3
  442.2659 0.04 1
  442.5389 0.09 3
  442.6921 0.12 3
  442.8119 0.10 3
  442.9866 0.24 7
  443.2242 0.47 14
  443.4524 0.54 16
  443.7823 0.11 3
  443.9523 0.15 4
  444.3539 0.25 7
  444.6490 0.05 1
  445.1416 0.34 10
  445.2608 0.20 6
  445.4723 0.14 4
  446.0834 0.05 1
  446.3672 0.06 2
  446.4904 0.02 1
  447.1143 0.11 3
  447.3901 0.15 4
  448.0997 0.14 4
  448.4184 0.14 4
  448.4987 0.09 3
  448.6072 0.11 3
  449.0933 0.17 5
  449.2218 0.07 2
  449.4213 0.06 2
  450.1792 0.11 3
  450.2887 0.23 7
  450.4985 0.22 6
  450.8326 0.11 3
  451.0491 0.09 3
  451.1767 0.08 2
  451.3184 0.10 3
  451.4253 0.21 6
  451.5843 0.02 1
  451.7794 0.11 3
  452.0648 0.24 7
  452.2879 0.10 3
  452.5706 0.08 2
  452.9428 0.06 2
  453.1901 0.11 3
  453.3692 0.30 9
  453.9352 0.07 2
  454.1765 0.20 6
  454.5033 0.10 3
  455.0494 0.16 5
  455.1443 0.05 1
  455.3602 0.15 4
  455.5941 0.13 4
  455.6937 0.07 2
  456.1248 0.11 3
  456.6563 0.05 1
  456.8468 0.10 3
  457.2138 0.21 6
  457.5661 0.16 5
  458.3222 2.80 81
  458.6471 0.29 8
  458.8991 0.30 9
  458.9894 0.20 6
  459.2060 0.11 3
  459.6065 0.11 3
  459.8352 0.11 3
  460.1689 0.13 4
  460.3861 0.09 3
  460.8288 0.02 1
  461.0214 0.09 3
  461.2888 0.02 1
  461.4667 0.13 4
  461.6908 0.12 3
  461.8426 0.10 3
  462.0104 0.17 5
  462.1027 0.12 3
  462.2070 0.13 4
  462.3903 0.11 3
  462.4738 0.04 1
  462.6029 0.09 3
  462.9527 0.11 3
  463.1125 0.14 4
  463.3272 0.25 7
  463.5332 0.02 1
  463.6562 0.11 3
  463.8295 0.18 5
  464.0609 0.12 3
  464.3779 0.25 7
  464.7879 0.17 5
  464.9806 0.08 2
  465.1357 0.43 12
  465.2675 0.24 7
  465.4421 0.10 3
  465.8675 0.05 1
  465.9545 0.05 1
  466.0876 0.12 3
  466.2762 0.32 9
  466.8609 0.01 0
  467.8303 0.12 3
  468.3722 0.12 3
  468.5093 0.16 5
  469.2728 0.34 10
  469.5183 0.13 4
  469.7271 0.07 2
  470.1185 0.09 3
  470.2637 0.23 7
  470.4651 0.15 4
  471.0031 0.12 3
  471.2133 0.14 4
  471.3538 0.05 1
  471.4950 0.13 4
  471.7065 0.10 3
  472.2204 0.18 5
  472.6320 0.10 3
  473.3595 0.01 0
  474.3353 0.19 5
  474.4183 0.08 2
  474.8701 0.11 3
  475.0006 0.11 3
  475.1566 0.12 3
  475.3474 0.17 5
  475.6566 0.12 3
  475.9197 0.04 1
  476.1259 0.08 2
  476.2932 0.16 5
  476.4807 0.06 2
  476.7611 0.01 0
  476.9673 0.09 3
  477.1367 0.21 6
  477.3192 0.04 1
  477.6661 0.12 3
  477.9247 0.09 3
  478.2155 0.11 3
  478.4013 0.17 5
  478.4975 0.19 5
  479.0216 0.22 6
  479.1285 0.13 4
  479.3518 0.37 11
  479.6606 0.11 3
  479.8050 0.09 3
  480.1800 0.11 3
  481.0638 0.14 4
  481.2676 0.30 9
  481.4408 0.07 2
  481.5524 0.09 3
  481.7911 0.05 1
  482.1528 0.14 4
  482.2751 0.09 3
  482.4182 0.22 6
  482.5586 0.14 4
  482.8769 0.14 4
  483.0153 0.05 1
  483.6491 0.09 3
  483.9313 0.06 2
  484.5097 0.10 3
  485.2827 0.05 1
  486.4048 0.10 3
  486.8188 0.12 3
  487.4167 0.11 3
  489.0506 0.10 3
  489.4125 0.15 4
  489.5737 0.12 3
  489.6714 0.09 3
  490.3008 0.02 1
  490.7456 0.08 2
  491.2641 0.42 12
  491.5805 0.10 3
  491.9893 0.14 4
  492.2201 0.20 6
  492.3632 0.28 8
  492.5104 0.33 10
  492.6288 0.12 3
  493.3521 0.32 9
  493.8652 0.15 4
  494.0432 0.08 2
  494.3583 0.70 20
  494.5758 0.12 3
  494.8555 0.17 5
  495.1680 0.13 4
  495.4396 0.11 3
  495.5300 0.03 1
  495.7053 0.06 2
  497.4652 0.07 2
  497.5690 0.02 1
  498.7649 0.06 2
  498.9062 0.05 1
  499.1284 0.16 5
  499.2241 0.06 2
  499.3907 0.11 3
  500.0286 0.11 3
  501.0627 0.11 3
  501.4429 0.11 3
  501.6069 0.03 1
  502.3614 0.09 3
  502.7423 0.03 1
  503.1772 0.14 4
  503.3743 0.04 1
  504.0668 0.13 4
  504.2627 0.13 4
  504.6530 0.11 3
  504.7533 0.10 3
  504.8957 0.10 3
  505.0160 0.14 4
  505.1871 0.18 5
  505.3857 0.16 5
  505.5562 0.16 5
  505.9506 0.12 3
  506.1826 0.21 6
  506.3269 0.16 5
  506.5074 0.14 4
  506.7073 0.22 6
  507.0724 0.13 4
  507.7958 0.04 1
  508.0732 0.07 2
  508.2357 0.11 3
  508.4430 0.26 7
  508.6115 0.04 1
  508.9357 0.11 3
  509.2259 0.08 2
  509.6024 0.21 6
  510.0236 0.10 3
  510.1754 0.07 2
  510.3366 0.01 0
  510.5057 0.04 1
  511.0748 0.17 5
  511.5476 0.11 3
  511.7014 0.12 3
  511.8746 0.17 5
  512.0452 0.12 3
  512.4263 0.17 5
  512.6069 0.08 2
  512.6932 0.05 1
  512.8851 0.11 3
  513.0670 0.23 7
  513.3934 0.12 3
  513.6696 0.10 3
  513.8322 0.11 3
  514.1338 0.17 5
  514.3431 0.21 6
  514.4174 0.08 2
  514.6708 0.18 5
  514.9604 0.13 4
  515.0748 0.07 2
  515.2728 0.09 3
  515.5524 0.15 4
  515.7812 0.11 3
  516.0093 0.09 3
  516.1745 0.13 4
  516.4133 0.16 5
  516.6100 0.14 4
  516.7197 0.19 5
  516.7959 0.12 3
  516.9364 0.06 2
  517.1344 0.39 11
  517.3947 0.47 14
  517.6254 0.25 7
  517.8201 0.07 2
  518.0355 0.04 1
  518.1425 0.04 1
  518.3626 0.19 5
  518.7038 0.15 4
  518.9514 0.30 9
  519.1494 0.54 16
  519.3949 0.56 16
  519.5977 0.43 12
  519.7047 0.10 3
  520.3510 0.71 20
  520.6474 0.33 10
  520.7524 0.10 3
  520.9190 0.11 3
  521.1686 0.12 3
  521.3673 0.35 10
  521.6142 0.15 4
  521.7313 0.10 3
  521.8517 0.09 3
  521.9601 0.12 3
  522.0518 0.10 3
  522.2619 0.07 2
  522.4841 0.17 5
  523.2543 0.05 1
  523.3660 0.06 2
  523.6203 0.11 3
  523.7361 0.17 5
  523.9268 0.17 5
  524.0413 0.14 4
  524.1650 0.04 1
  524.4000 0.37 11
  524.6509 0.37 11
  525.0129 0.38 11
  525.3884 0.42 12
  525.8214 0.64 18
  526.0751 0.55 16
  526.2036 0.50 14
  526.4204 0.56 16
  526.5864 0.31 9
  527.0938 0.86 25
  527.2390 0.43 12
  527.5596 0.69 20
  527.7142 0.52 15
  527.9766 0.43 12
  528.2236 0.68 20
  528.3594 0.45 13
  528.5716 0.50 14
  529.0489 0.74 21
  529.4539 0.72 21
  529.7363 0.66 19
  530.0443 1.18 34
  530.3756 0.70 20
  530.6990 1.29 37
  531.3316 1.49 43
  532.4255 3.41 98
  533.5504 1.57 45
  534.4100 2.74 79
  535.3963 34.64 999
  536.4155 1.03 30
  536.8568 0.36 10
  537.1287 0.47 14
  537.4401 0.33 10
  537.7032 0.38 11
  538.0703 0.51 15
  538.3763 0.34 10
  538.5357 0.28 8
  538.8043 0.32 9
  539.0400 0.35 10
  539.1880 0.28 8
  539.2838 0.11 3
  539.4492 0.35 10
  539.8182 0.68 20
  540.0962 0.38 11
  540.4003 0.44 13
  540.6219 0.48 14
  540.9682 0.34 10
  541.3239 0.43 12
  541.5563 0.35 10
  541.8102 0.38 11
  542.0198 0.53 15
  542.3092 0.56 16
  542.5215 0.29 8
  543.4567 0.74 21
  543.7400 0.37 11
  544.4146 0.94 27
  545.0711 1.16 33
  545.5126 1.58 46
  545.7786 1.35 39
  546.2729 1.91 55
  550.4190 99.97 999
  551.0043 21.86 630
  551.6104 10.48 302
  552.3394 6.13 177
  552.8739 3.67 106
  553.7452 2.04 59
  554.2043 1.47 42
  554.5264 1.56 45
  555.0945 0.94 27
  555.4046 0.60 17
  555.7695 0.58 17
//
