ACCESSION: MSBNK-Kyoto_Univ-CA000068
RECORD_TITLE: Lutein 5,6-epoxide; FAB-EBEB; MS2; m/z: 584.42; [M]+*
DATE: 2016.01.19 (Created 2010.04.01, modified 2011.05.10)
AUTHORS: Akimoto N, Graduate School of Pharmaceutical Sciences, Kyoto University and Maoka T, Research Institute for Production Development
LICENSE: CC BY-SA
PUBLICATION: Sanae Kishimoto, Takashi Maoka, Masayoshi Nakayama and Akemi Ohmiya, Carotenoid composition in petals of chrysanthemum (Dendranthema grandiflorm (Ramat.) Kitamura), Phytochemistry, 65, 2781-2787 (2004).
COMMENT: Profile spectrum of this record is given as a JPEG file.
COMMENT: [Profile] CA000068.jpg
CH$NAME: Lutein 5,6-epoxide
CH$COMPOUND_CLASS: N/A
CH$FORMULA: C40H56O3
CH$EXACT_MASS: 584.42295
CH$SMILES: C(O)(C3)C=C(C)C(C3(C)C)C=CC(C)=CC=CC(=CC=CC=C(C=CC=C(C=CC(O2)(C2(C)1)C(CC(C1)O)(C)C)C)C)C
CH$IUPAC: InChI=1S/C40H56O3/c1-29(17-13-19-31(3)21-22-36-33(5)25-34(41)26-37(36,6)7)15-11-12-16-30(2)18-14-20-32(4)23-24-40-38(8,9)27-35(42)28-39(40,10)43-40/h11-25,34-36,41-42H,26-28H2,1-10H3/b12-11+,17-13+,18-14+,22-21+,24-23+,29-15+,30-16+,31-19+,32-20+/t34-,35-,36-,39+,40-/m0/s1
CH$LINK: CAS 28368-08-3
CH$LINK: CHEBI CHEBI:27448
CH$LINK: KEGG C08602
CH$LINK: PUBCHEM CID:5281244
CH$LINK: INCHIKEY DYUUPIKEWLHQGQ-FJOIUHRLSA-N
CH$LINK: COMPTOX DTXSID40415093
AC$INSTRUMENT: JMS-HX/HX 110A, JEOL
AC$INSTRUMENT_TYPE: FAB-EBEB
AC$MASS_SPECTROMETRY: MS_TYPE MS2
AC$MASS_SPECTROMETRY: ION_MODE POSITIVE
AC$MASS_SPECTROMETRY: ATOM_GUN_CURRENT 5 mA
AC$MASS_SPECTROMETRY: BOMBARDMENT 6 kV xenon
AC$MASS_SPECTROMETRY: COLLISION_ENERGY 3 kV
AC$MASS_SPECTROMETRY: COLLISION_GAS Ar
AC$MASS_SPECTROMETRY: GAS_PRESSURE adjust to attenuate the intensity of the precursor ion by 30 %
AC$MASS_SPECTROMETRY: IONIZATION FAB
AC$MASS_SPECTROMETRY: MATRIX 1-2 uL m-NBA
AC$MASS_SPECTROMETRY: PROBE_TIP stainless-steel
MS$FOCUSED_ION: BASE_PEAK 104.9761
MS$FOCUSED_ION: PRECURSOR_M/Z 584.42
MS$FOCUSED_ION: PRECURSOR_TYPE [M]+*
MS$DATA_PROCESSING: RELATIVE_M/Z normalised by peak(m/z=104.9761).  set 999 for peak(m/z=585.2384,rel=1166).  set 999 for peak(m/z=584.4774,rel=4173).
PK$SPLASH: splash10-001l-3920040000-bc7472948a04b95bac15
PK$NUM_PEAK: 1649
PK$PEAK: m/z int. rel.int.
  0.5775 0.01 0
  5.3133 0.10 4
  13.8859 0.10 4
  14.9697 0.46 19
  22.5765 0.01 0
  25.9496 0.31 13
  26.9625 2.12 89
  27.9642 0.22 9
  28.9605 1.85 77
  29.9465 0.10 4
  30.2739 0.01 0
  30.9564 0.34 14
  31.4743 0.01 0
  34.2640 0.01 0
  36.8811 0.22 9
  37.9356 0.28 12
  38.4133 0.03 1
  38.6232 0.05 2
  38.6995 0.02 1
  38.9496 4.32 180
  39.6636 0.03 1
  39.9666 0.44 18
  40.9592 7.79 325
  41.5228 0.05 2
  41.9614 0.45 19
  42.3866 0.01 0
  42.9460 23.74 991
  43.2300 0.03 1
  43.3858 0.05 2
  43.4765 0.01 0
  43.6873 0.10 4
  43.9493 0.16 7
  44.9426 0.31 13
  46.1170 0.01 0
  47.9424 0.01 0
  48.3244 0.05 2
  48.9719 0.04 2
  49.4236 0.01 0
  49.7401 0.02 1
  49.9388 0.49 20
  50.9408 1.79 75
  51.1647 0.04 2
  51.2586 0.01 0
  51.6614 0.06 3
  51.9328 0.49 20
  52.2290 0.01 0
  52.9554 4.20 175
  53.9564 0.16 7
  54.9671 9.78 408
  55.9886 0.09 4
  56.9811 3.70 154
  57.9877 0.15 6
  58.9570 1.35 56
  59.9152 0.06 3
  60.0597 0.01 0
  60.9158 0.37 15
  61.9470 0.34 14
  62.9573 1.47 61
  63.1209 0.06 3
  63.3940 0.09 4
  63.5673 0.02 1
  63.9390 0.25 10
  64.1407 0.01 0
  64.2888 0.01 0
  64.4409 0.05 2
  64.5784 0.04 2
  64.9606 2.72 114
  65.1897 0.04 2
  65.3344 0.01 0
  65.8194 0.11 5
  65.9792 0.64 27
  66.2142 0.04 2
  66.4557 0.01 0
  66.9677 5.58 233
  67.1719 0.09 4
  67.4444 0.05 2
  67.9840 0.19 8
  68.3029 0.02 1
  68.9647 8.02 335
  69.5211 0.09 4
  69.9364 0.14 6
  70.9534 3.60 150
  71.4083 0.03 1
  72.0319 0.02 1
  72.1468 0.01 0
  72.5173 0.01 0
  72.9283 0.09 4
  73.9518 0.39 16
  74.9449 0.48 20
  75.4000 0.03 1
  75.6296 0.17 7
  75.9032 0.28 12
  76.1735 0.01 0
  76.3181 0.03 1
  76.6492 0.18 8
  76.9424 8.40 351
  77.1672 0.07 3
  77.2935 0.20 8
  77.4304 0.10 4
  77.6008 0.12 5
  77.9532 2.15 90
  78.2947 0.09 4
  78.4503 0.08 3
  78.6224 0.03 1
  78.9552 8.61 359
  79.3450 0.03 1
  79.5052 0.10 4
  79.6466 0.05 2
  79.9561 2.03 85
  80.5326 0.02 1
  80.6323 0.08 3
  80.9658 10.82 452
  81.3490 0.03 1
  81.9177 0.72 30
  82.4616 0.07 3
  82.9533 4.76 199
  83.9379 0.27 11
  84.2098 0.01 0
  84.5388 0.03 1
  84.9570 4.01 167
  85.1834 0.01 0
  85.5271 0.04 2
  85.6082 0.06 3
  85.7718 0.02 1
  85.9523 0.20 8
  86.9423 5.18 216
  87.8574 0.07 3
  87.9783 0.16 7
  88.4450 0.04 2
  88.9352 1.18 49
  89.2524 0.04 2
  89.4557 0.05 2
  89.7982 0.14 6
  89.9532 0.63 26
  90.0614 0.17 7
  90.3856 0.16 7
  90.9505 17.30 722
  91.2711 0.19 8
  91.5529 0.10 4
  91.9612 2.00 83
  92.9681 14.42 602
  93.4353 0.15 6
  93.9693 1.19 50
  94.2804 0.06 3
  94.9711 11.55 482
  95.3227 0.10 4
  95.4857 0.06 3
  95.9786 0.97 40
  96.9692 2.85 119
  97.1765 0.02 1
  97.4353 0.10 4
  97.7763 0.14 6
  98.0014 0.24 10
  98.4183 0.13 5
  98.7669 0.11 5
  98.9756 0.22 9
  99.1684 0.04 2
  99.5051 0.13 5
  99.8407 0.12 5
  99.9891 0.09 4
  100.6918 0.08 3
  100.9274 0.53 22
  101.2205 0.11 5
  101.3524 0.13 5
  101.9853 1.14 48
  102.1605 0.13 5
  102.3226 0.06 3
  102.5160 0.13 5
  102.9617 3.07 128
  103.1903 0.21 9
  103.3046 0.11 5
  103.4227 0.10 4
  103.5621 0.16 7
  103.9705 1.65 69
  104.3898 0.04 2
  104.5814 0.03 1
  104.9761 23.93 999
  105.4013 0.13 5
  105.5719 0.05 2
  105.9673 1.73 72
  106.6402 0.03 1
  106.9874 11.68 488
  107.5443 0.14 6
  107.9992 1.72 72
  108.1393 0.21 9
  108.2707 0.04 2
  108.4846 0.07 3
  108.9836 8.26 345
  109.2380 0.10 4
  109.4232 0.04 2
  109.6443 0.05 2
  109.9438 0.38 16
  110.6397 0.03 1
  110.9788 2.00 83
  111.5792 0.01 0
  111.7986 0.20 8
  112.0074 0.16 7
  112.2871 0.15 6
  112.4834 0.08 3
  112.7564 0.07 3
  112.9763 1.05 44
  113.2818 0.09 4
  113.5285 0.04 2
  113.6852 0.16 7
  113.9358 0.28 12
  114.1358 0.10 4
  114.3447 0.12 5
  114.9540 8.73 364
  115.3101 0.14 6
  115.3788 0.06 3
  115.5379 0.10 4
  115.9560 4.24 177
  116.1433 0.36 15
  116.3337 0.11 5
  116.5153 0.26 11
  116.9558 10.37 433
  117.2421 0.07 3
  117.4706 0.08 3
  117.9583 1.88 78
  118.2630 0.03 1
  118.4994 0.11 5
  118.9642 20.89 872
  119.3468 0.06 3
  119.4549 0.12 5
  119.9671 2.26 94
  120.1965 0.07 3
  120.2958 0.08 3
  120.4118 0.01 0
  120.9651 11.08 463
  121.3648 0.08 3
  121.5901 0.13 5
  121.6524 0.06 3
  121.9529 1.18 49
  122.4438 0.20 8
  122.9472 14.05 587
  123.1601 0.24 10
  123.3216 0.10 4
  123.4459 0.07 3
  123.6216 0.05 2
  123.8804 0.13 5
  123.9976 0.21 9
  124.9419 2.20 92
  125.1979 0.05 2
  125.3367 0.14 6
  125.4141 0.04 2
  125.9422 0.49 20
  126.0888 0.11 5
  126.2102 0.10 4
  126.5430 0.15 6
  126.9354 3.33 139
  127.3539 0.31 13
  127.9363 9.59 400
  128.1889 0.29 12
  128.3832 0.20 8
  128.5232 0.15 6
  128.9334 12.44 519
  129.2031 0.17 7
  129.4879 0.02 1
  129.9486 5.03 210
  130.2531 0.11 5
  130.3797 0.04 2
  130.9443 13.78 575
  131.3499 0.07 3
  131.4741 0.02 1
  131.9418 3.33 139
  132.1931 0.05 2
  132.2998 0.06 3
  132.4586 0.06 3
  132.9458 11.28 471
  133.5161 0.11 5
  133.9432 1.76 73
  134.1774 0.06 3
  134.3751 0.19 8
  134.4964 0.08 3
  134.9397 5.35 223
  135.2127 0.09 4
  135.3179 0.04 2
  135.4107 0.06 3
  135.9407 0.83 35
  136.3938 0.07 3
  136.9474 3.54 148
  137.2044 0.06 3
  137.3021 0.07 3
  137.5080 0.01 0
  137.7074 0.35 15
  137.9646 1.96 82
  138.3669 0.10 4
  138.9691 2.16 90
  139.1978 0.14 6
  139.3469 0.06 3
  139.5264 0.11 5
  139.9425 0.62 26
  140.1675 0.23 10
  140.3595 0.25 10
  140.4635 0.11 5
  140.9400 8.39 350
  141.2159 0.18 8
  141.9300 7.92 331
  142.3505 0.10 4
  142.5285 0.21 9
  142.9474 16.37 683
  143.2878 0.14 6
  143.4139 0.10 4
  143.5816 0.12 5
  143.9652 5.56 232
  144.3126 0.18 8
  144.5723 0.21 9
  144.9537 19.26 804
  145.3881 0.11 5
  145.9570 2.44 102
  146.3363 0.02 1
  146.4402 0.01 0
  146.9647 7.01 293
  147.2966 0.24 10
  147.4696 0.03 1
  147.5557 0.02 1
  147.7281 0.16 7
  148.0032 0.85 35
  148.1206 0.28 12
  148.2333 0.09 4
  148.5351 0.12 5
  148.9671 2.85 119
  149.2990 0.06 3
  149.4710 0.06 3
  149.5672 0.02 1
  149.8130 0.27 11
  149.9790 0.61 25
  150.2362 0.11 5
  150.4435 0.12 5
  150.5831 0.07 3
  150.9760 2.76 115
  151.3757 0.25 10
  151.9427 4.30 180
  152.3421 0.14 6
  152.6164 0.19 8
  152.9701 4.82 201
  153.3239 0.10 4
  153.4692 0.15 6
  153.6618 0.21 9
  153.9818 2.66 111
  154.2419 0.14 6
  154.9705 11.30 472
  155.2782 0.31 13
  155.5566 0.22 9
  155.9921 6.17 258
  156.3060 0.09 4
  156.4130 0.05 2
  156.9951 16.09 672
  157.3061 0.30 13
  157.4659 0.11 5
  157.9931 3.83 160
  158.2548 0.03 1
  158.3659 0.11 5
  158.9973 9.91 414
  159.3262 0.09 4
  159.6645 0.16 7
  160.0110 1.22 51
  160.4106 0.15 6
  160.9988 4.27 178
  161.4161 0.10 4
  161.6470 0.07 3
  161.8840 0.30 13
  162.0699 0.46 19
  162.2969 0.15 6
  162.5018 0.10 4
  162.5850 0.04 2
  163.0110 1.66 69
  163.2563 0.09 4
  163.4956 0.15 6
  163.6327 0.06 3
  164.0274 0.62 26
  164.1814 0.26 11
  164.2507 0.11 5
  164.4061 0.07 3
  164.4956 0.12 5
  164.5938 0.15 6
  165.0076 6.33 264
  165.4297 0.14 6
  165.5657 0.09 4
  166.0297 2.40 100
  166.3901 0.26 11
  166.5127 0.14 6
  166.6475 0.30 13
  167.0283 7.32 306
  167.4645 0.09 4
  168.0304 2.88 120
  168.2449 0.23 10
  169.0318 8.92 372
  169.3473 0.24 10
  169.5323 0.19 8
  170.0385 3.61 151
  170.3704 0.12 5
  171.0439 8.68 362
  171.2979 0.14 6
  171.4953 0.08 3
  172.0197 1.79 75
  172.3224 0.12 5
  172.5867 0.08 3
  173.0441 4.03 168
  173.4799 0.14 6
  173.7121 0.13 5
  174.0476 0.67 28
  174.4473 0.13 5
  174.6628 0.10 4
  175.0552 2.62 109
  175.3525 0.03 1
  175.4863 0.03 1
  175.6032 0.03 1
  176.0135 0.91 38
  176.1312 0.30 13
  176.4801 0.07 3
  176.6012 0.15 6
  176.7797 0.23 10
  177.0598 1.13 47
  177.3372 0.15 6
  177.5436 0.21 9
  178.0275 3.82 159
  178.2821 0.30 13
  178.5327 0.13 5
  179.0149 6.07 253
  179.6356 0.08 3
  180.0226 3.13 131
  180.4260 0.11 5
  180.6335 0.28 12
  181.0215 7.17 299
  181.4373 0.19 8
  181.6816 0.16 7
  182.0305 3.06 128
  182.3054 0.13 5
  182.4208 0.12 5
  182.5641 0.06 3
  183.0171 8.99 375
  183.4111 0.28 12
  183.4973 0.12 5
  183.6706 0.19 8
  184.0498 1.94 81
  184.2809 0.13 5
  184.3863 0.15 6
  184.5474 0.12 5
  185.0302 4.73 197
  185.4118 0.03 1
  185.6471 0.06 3
  186.0404 1.06 44
  186.3630 0.27 11
  186.6360 0.14 6
  187.0608 2.72 114
  187.2971 0.12 5
  187.4388 0.07 3
  187.8032 0.12 5
  188.0839 0.60 25
  188.6571 0.31 13
  189.0327 2.24 94
  189.3081 0.12 5
  189.5331 0.11 5
  190.0133 1.32 55
  190.2937 0.19 8
  191.0055 3.36 140
  191.4574 0.21 9
  191.6165 0.16 7
  192.0207 2.47 103
  192.3431 0.17 7
  192.4606 0.22 9
  193.0038 6.09 254
  193.4439 0.05 2
  193.5882 0.16 7
  194.0291 2.92 122
  194.2623 0.29 12
  194.4893 0.22 9
  194.6323 0.41 17
  195.0400 8.50 355
  195.3301 0.15 6
  195.4711 0.13 5
  195.6531 0.07 3
  196.0446 3.23 135
  196.3410 0.08 3
  196.4697 0.13 5
  197.0299 7.19 300
  197.3580 0.07 3
  197.5834 0.18 8
  198.0226 1.25 52
  198.3385 0.13 5
  198.4914 0.01 0
  198.6785 0.36 15
  199.0625 3.23 135
  199.2860 0.13 5
  199.7263 0.17 7
  200.0700 0.83 35
  200.5303 0.09 4
  201.0540 1.49 62
  201.2764 0.33 14
  201.7178 0.27 11
  202.0152 1.71 71
  202.2645 0.24 10
  202.5997 0.27 11
  203.0373 2.17 91
  203.4386 0.05 2
  204.0552 1.06 44
  204.4320 0.05 2
  204.6658 0.20 8
  205.0317 3.45 144
  205.2188 0.53 22
  205.4224 0.07 3
  205.5214 0.10 4
  205.7168 0.24 10
  206.0485 1.51 63
  206.4745 0.05 2
  207.0308 5.32 222
  207.6064 0.30 13
  208.0459 2.67 111
  208.4034 0.10 4
  209.0401 5.31 222
  209.4578 0.11 5
  209.5895 0.09 4
  210.0652 1.19 50
  210.1893 0.70 29
  210.6059 0.10 4
  211.0542 3.56 149
  211.4965 0.17 7
  211.7587 0.07 3
  212.0844 0.78 33
  212.3205 0.10 4
  212.4655 0.10 4
  212.6477 0.06 3
  213.0848 1.62 68
  213.3147 0.10 4
  213.5413 0.12 5
  213.7236 0.25 10
  214.0531 0.60 25
  214.1650 0.28 12
  214.2963 0.12 5
  215.0247 2.09 87
  216.0554 0.98 41
  216.3915 0.03 1
  216.7373 0.29 12
  217.0479 1.60 67
  217.3308 0.09 4
  217.4360 0.08 3
  217.5972 0.10 4
  217.6893 0.02 1
  218.0436 0.93 39
  218.3640 0.11 5
  218.5115 0.10 4
  218.7150 0.27 11
  219.0536 2.14 89
  219.4621 0.08 3
  219.5750 0.12 5
  219.6907 0.06 3
  220.0703 1.59 66
  220.3972 0.12 5
  221.0839 4.56 190
  221.4221 0.14 6
  222.0883 1.65 69
  222.5598 0.10 4
  222.7499 0.26 11
  223.1064 2.98 124
  223.4761 0.18 8
  223.6370 0.12 5
  223.7453 0.15 6
  223.8507 0.23 10
  224.1047 1.02 43
  224.2164 0.46 19
  225.1139 1.46 61
  225.3423 0.15 6
  225.5742 0.06 3
  225.7762 0.23 10
  226.0797 0.39 16
  226.5089 0.05 2
  226.7562 0.21 9
  227.1120 1.15 48
  227.5226 0.22 9
  227.7081 0.12 5
  228.1043 0.97 40
  228.4526 0.04 2
  228.6562 0.05 2
  229.0985 1.87 78
  229.3669 0.16 7
  229.6910 0.14 6
  229.8579 0.14 6
  230.1076 0.70 29
  230.2913 0.12 5
  230.4123 0.11 5
  230.5633 0.12 5
  231.1249 2.17 91
  231.3553 0.24 10
  231.5004 0.02 1
  231.6885 0.12 5
  232.1161 1.05 44
  232.5869 0.08 3
  233.1029 2.90 121
  233.4815 0.14 6
  233.6225 0.18 8
  234.1234 1.18 49
  234.3680 0.11 5
  234.4931 0.12 5
  234.6015 0.02 1
  235.1214 2.63 110
  235.3904 0.12 5
  235.4857 0.06 3
  236.1059 0.70 29
  236.3333 0.06 3
  236.6692 0.06 3
  237.1185 1.61 67
  237.3383 0.16 7
  237.5178 0.07 3
  237.6479 0.10 4
  237.9081 0.15 6
  238.1503 0.26 11
  238.7488 0.10 4
  239.1373 0.98 41
  239.5898 0.05 2
  239.8217 0.02 1
  240.1127 0.32 13
  240.2381 0.30 13
  240.4533 0.06 3
  240.6114 0.10 4
  241.0885 0.84 35
  241.5135 0.09 4
  241.7240 0.12 5
  242.0912 1.01 42
  242.3741 0.08 3
  242.6146 0.06 3
  243.0879 1.19 50
  243.5878 0.07 3
  243.7133 0.22 9
  243.8130 0.12 5
  244.0718 0.53 22
  244.3549 0.20 8
  244.6269 0.12 5
  244.8055 0.27 11
  245.1096 1.59 66
  245.4382 0.11 5
  245.6252 0.12 5
  245.7843 0.13 5
  246.1033 0.86 36
  246.4048 0.30 13
  246.4997 0.09 4
  247.1202 1.73 72
  247.4693 0.05 2
  247.5964 0.08 3
  248.1550 0.58 24
  248.2451 0.23 10
  248.4602 0.13 5
  248.7215 0.07 3
  249.1147 1.49 62
  249.5067 0.11 5
  249.6541 0.04 2
  250.0182 0.37 15
  250.2271 0.33 14
  250.5863 0.11 5
  250.7520 0.25 10
  250.8582 0.10 4
  251.1022 1.03 43
  251.2182 0.66 28
  252.0461 0.41 17
  252.4601 0.12 5
  252.5797 0.11 5
  252.8161 0.12 5
  253.1147 1.19 50
  253.3449 0.10 4
  253.4442 0.08 3
  253.8661 0.11 5
  254.1411 0.21 9
  254.3650 0.13 5
  254.5022 0.19 8
  254.7891 0.22 9
  255.1349 0.87 36
  255.2434 0.43 18
  255.7278 0.04 2
  256.0737 0.44 18
  256.2292 0.21 9
  256.3552 0.04 2
  257.0713 0.97 40
  257.5228 0.11 5
  257.6830 0.18 8
  257.8455 0.11 5
  258.1143 0.50 21
  258.3439 0.11 5
  258.5610 0.13 5
  259.1184 1.23 51
  259.3719 0.22 9
  259.5624 0.06 3
  260.1459 0.52 22
  260.3568 0.11 5
  260.6349 0.09 4
  261.1198 1.19 50
  261.7547 0.13 5
  261.9530 0.29 12
  262.1213 0.34 14
  262.2741 0.37 15
  262.5846 0.17 7
  262.8363 0.34 14
  263.1385 1.02 43
  263.8734 0.18 8
  264.1469 0.47 20
  264.5853 0.04 2
  264.7796 0.14 6
  265.1725 0.83 35
  265.5682 0.02 1
  265.9317 0.15 6
  266.2229 0.30 13
  266.5816 0.12 5
  267.1719 0.59 25
  267.6591 0.03 1
  267.9554 0.15 6
  268.1857 0.21 9
  268.5874 0.11 5
  268.8529 0.14 6
  269.1823 0.77 32
  269.3972 0.07 3
  269.7436 0.21 9
  270.0450 0.47 20
  270.2578 0.24 10
  270.5298 0.05 2
  270.8685 0.31 13
  271.1756 1.19 50
  271.4497 0.13 5
  271.7449 0.02 1
  272.1835 0.26 11
  272.6391 0.14 6
  273.1643 1.40 58
  273.4548 0.10 4
  273.8141 0.09 4
  274.2228 0.41 17
  274.3163 0.14 6
  274.7363 0.12 5
  275.1705 1.07 45
  275.4613 0.13 5
  275.6644 0.12 5
  275.8091 0.05 2
  276.1316 0.34 14
  276.3382 0.17 7
  276.4843 0.09 4
  277.1302 1.13 47
  277.3755 0.17 7
  277.6932 0.02 1
  278.1501 0.42 18
  278.4707 0.04 2
  278.7815 0.01 0
  279.1303 0.63 26
  279.3708 0.07 3
  279.5923 0.11 5
  280.0790 0.34 14
  280.2830 0.16 7
  280.4645 0.02 1
  280.7832 0.09 4
  280.9098 0.04 2
  281.1469 0.73 30
  281.3193 0.20 8
  281.5431 0.02 1
  281.6993 0.01 0
  282.0005 0.10 4
  282.1715 0.23 10
  282.3390 0.08 3
  282.8359 0.06 3
  283.0400 0.75 31
  283.1808 0.75 31
  283.3336 0.13 5
  283.7905 0.03 1
  284.1622 0.30 13
  284.2812 0.12 5
  284.7572 0.06 3
  284.9382 0.21 9
  285.1587 0.89 37
  285.3277 0.32 13
  285.5855 0.10 4
  285.8905 0.20 8
  286.1610 0.47 20
  286.4921 0.07 3
  287.1248 0.79 33
  287.3362 0.34 14
  287.7844 0.10 4
  288.1911 0.33 14
  288.5943 0.09 4
  288.7395 0.05 2
  289.1949 0.96 40
  289.3676 0.10 4
  289.8358 0.04 2
  290.1327 0.21 9
  290.3731 0.12 5
  290.6968 0.04 2
  290.8830 0.06 3
  291.1390 0.52 22
  291.3088 0.36 15
  291.7202 0.04 2
  291.8914 0.05 2
  292.1669 0.34 14
  292.3092 0.07 3
  292.8637 0.12 5
  293.1414 0.37 15
  293.3218 0.17 7
  293.4557 0.11 5
  294.1880 0.38 16
  294.3431 0.11 5
  294.5722 0.06 3
  295.1778 0.36 15
  295.7342 0.22 9
  296.0318 0.05 2
  296.2306 0.36 15
  296.6489 0.10 4
  296.9247 0.10 4
  297.1638 0.45 19
  297.2886 0.28 12
  298.1479 0.40 17
  298.4393 0.11 5
  298.6333 0.10 4
  298.8598 0.06 3
  299.1746 0.91 38
  299.4413 0.11 5
  300.0999 0.10 4
  300.2573 0.08 3
  300.3391 0.04 2
  300.5707 0.06 3
  300.8686 0.14 6
  301.1842 0.44 18
  301.9185 0.19 8
  302.1085 0.27 11
  302.7172 0.11 5
  303.1530 0.41 17
  303.4723 0.07 3
  303.7965 0.06 3
  304.1137 0.22 9
  304.5454 0.02 1
  304.9919 0.08 3
  305.1269 0.18 8
  305.2562 0.03 1
  305.9622 0.11 5
  306.1191 0.19 8
  306.3015 0.14 6
  306.9193 0.13 5
  307.2374 0.19 8
  307.7005 0.10 4
  307.8589 0.03 1
  308.1791 0.14 6
  308.3849 0.08 3
  308.5391 0.07 3
  308.6713 0.04 2
  308.8071 0.09 4
  309.0433 0.40 17
  309.2533 0.16 7
  309.9698 0.11 5
  310.1106 0.08 3
  310.8690 0.12 5
  311.2008 0.28 12
  311.6848 0.02 1
  312.1228 0.35 15
  312.2792 0.14 6
  312.6699 0.11 5
  312.8348 0.05 2
  313.1816 0.57 24
  313.4293 0.09 4
  314.1408 0.06 3
  314.2640 0.10 4
  314.3624 0.12 5
  314.8339 0.04 2
  315.1512 0.26 11
  315.3147 0.13 5
  315.4096 0.09 4
  315.9846 0.11 5
  316.0880 0.13 5
  316.2779 0.23 10
  316.9770 0.07 3
  317.0931 0.33 14
  317.1852 0.27 11
  317.3078 0.16 7
  317.7888 0.12 5
  318.2082 0.06 3
  318.3266 0.12 5
  318.4825 0.11 5
  318.6985 0.11 5
  319.1145 0.19 8
  319.2818 0.15 6
  319.3980 0.08 3
  319.6326 0.02 1
  320.0557 0.10 4
  320.3066 0.12 5
  321.0098 0.11 5
  321.1771 0.21 9
  321.4891 0.12 5
  322.0414 0.07 3
  322.1931 0.22 9
  322.3279 0.11 5
  322.8774 0.10 4
  323.0966 0.37 15
  323.2710 0.04 2
  323.4242 0.20 8
  323.6427 0.06 3
  324.1583 0.04 2
  324.3279 0.15 6
  324.8287 0.10 4
  325.0728 0.40 17
  325.2806 0.41 17
  325.7922 0.05 2
  325.9327 0.10 4
  326.3024 0.22 9
  327.0482 0.13 5
  327.2576 0.18 8
  327.4074 0.04 2
  328.2045 0.20 8
  329.1998 0.28 12
  329.4128 0.13 5
  329.8112 0.03 1
  330.0356 0.15 6
  330.2592 0.15 6
  330.3722 0.10 4
  330.8352 0.03 1
  331.1704 0.30 13
  331.3203 0.23 10
  331.4623 0.11 5
  331.7678 0.09 4
  332.1592 0.26 11
  332.2338 0.13 5
  332.3467 0.25 10
  332.9832 0.21 9
  333.2809 0.38 16
  334.3148 0.14 6
  334.5742 0.01 0
  334.8080 0.04 2
  335.2276 0.24 10
  335.7025 0.10 4
  336.1874 0.16 7
  337.2325 0.41 17
  338.3033 0.18 8
  339.2138 0.13 5
  339.3821 0.18 8
  340.2395 0.11 5
  340.7958 0.13 5
  340.9613 0.13 5
  341.1425 0.12 5
  341.3052 0.19 8
  341.9632 0.07 3
  342.1515 0.13 5
  342.3988 0.13 5
  343.2545 0.39 16
  343.4002 0.16 7
  344.0016 0.10 4
  344.3293 0.12 5
  344.4778 0.13 5
  344.8241 0.13 5
  345.1120 0.37 15
  345.3459 0.48 20
  345.6666 0.07 3
  346.2511 0.25 10
  347.1144 0.19 8
  347.3804 0.32 13
  348.1059 0.07 3
  348.2539 0.27 11
  348.3791 0.04 2
  349.1324 0.29 12
  349.2576 0.23 10
  349.3416 0.13 5
  349.5052 0.11 5
  349.9314 0.08 3
  350.2061 0.11 5
  350.8636 0.07 3
  351.2051 0.47 20
  351.4008 0.40 17
  352.2549 1.82 76
  352.4827 0.13 5
  352.8635 0.14 6
  353.0344 0.07 3
  353.2522 0.18 8
  353.4045 0.09 4
  353.7093 0.02 1
  354.2197 0.04 2
  354.5757 0.05 2
  355.2408 0.08 3
  355.4210 0.15 6
  356.3774 0.13 5
  357.0954 0.11 5
  357.1908 0.14 6
  357.3005 0.11 5
  357.4038 0.17 7
  357.9901 0.11 5
  358.1447 0.13 5
  358.5323 0.12 5
  359.1820 0.22 9
  359.2825 0.12 5
  359.4108 0.13 5
  359.5091 0.06 3
  359.6744 0.06 3
  359.9088 0.11 5
  360.0749 0.08 3
  360.2644 0.14 6
  360.4326 0.13 5
  360.5174 0.06 3
  361.2102 0.29 12
  362.0477 0.05 2
  362.3289 0.15 6
  362.5002 0.06 3
  362.7354 0.01 0
  363.3053 0.24 10
  363.5676 0.09 4
  363.6983 0.10 4
  364.0537 0.06 3
  364.1631 0.01 0
  364.4276 0.20 8
  364.8412 0.06 3
  365.2820 0.68 28
  365.6908 0.11 5
  366.0832 0.10 4
  366.2012 0.05 2
  366.3335 0.02 1
  366.5382 0.03 1
  366.9826 0.06 3
  367.3069 0.15 6
  367.5479 0.11 5
  368.2072 0.12 5
  368.4689 0.11 5
  368.9774 0.14 6
  369.1894 0.13 5
  369.3629 0.11 5
  370.1497 0.12 5
  370.2926 0.15 6
  371.1591 0.07 3
  371.2979 0.10 4
  371.4338 0.09 4
  371.6380 0.09 4
  372.0379 0.03 1
  372.3104 0.10 4
  372.5089 0.09 4
  372.6484 0.13 5
  372.7872 0.05 2
  373.1807 0.35 15
  373.3487 0.23 10
  374.0746 0.11 5
  374.2639 0.13 5
  374.6227 0.11 5
  375.1651 0.19 8
  375.3018 0.09 4
  375.4278 0.12 5
  375.9610 0.08 3
  376.0778 0.08 3
  376.2365 0.14 6
  376.7349 0.10 4
  377.1805 0.23 10
  377.3044 0.11 5
  377.4524 0.07 3
  377.9081 0.11 5
  378.0056 0.13 5
  378.2043 0.10 4
  378.4136 0.12 5
  379.0217 0.10 4
  379.2545 0.23 10
  380.3213 0.34 14
  381.1019 0.13 5
  381.3305 0.12 5
  381.4373 0.20 8
  381.6425 0.22 9
  381.8975 0.03 1
  382.3271 0.05 2
  382.5073 0.11 5
  382.6084 0.06 3
  383.0708 0.15 6
  383.3551 0.28 12
  384.2386 0.06 3
  384.6105 0.13 5
  385.0701 0.09 4
  385.2312 0.11 5
  385.4115 0.17 7
  386.2147 0.11 5
  386.3586 0.16 7
  386.8590 0.10 4
  386.9709 0.12 5
  387.0572 0.12 5
  387.2232 0.20 8
  387.3401 0.09 4
  387.4691 0.08 3
  388.0273 0.11 5
  388.2569 0.21 9
  389.2971 0.26 11
  389.4831 0.18 8
  390.0407 0.13 5
  390.1391 0.19 8
  390.6119 0.22 9
  390.6975 0.09 4
  391.0861 0.19 8
  391.3279 0.37 15
  391.8913 0.03 1
  392.1117 0.22 9
  392.4062 0.21 9
  392.6388 0.10 4
  392.9990 0.08 3
  393.1217 0.18 8
  393.1930 0.09 4
  393.3820 0.16 7
  393.5682 0.11 5
  393.8336 0.06 3
  394.2324 0.11 5
  394.3687 0.05 2
  394.6012 0.04 2
  395.2904 0.17 7
  395.7999 0.06 3
  396.3122 0.11 5
  396.7276 0.04 2
  397.4526 0.07 3
  398.3369 0.11 5
  398.4361 0.11 5
  399.0122 0.11 5
  399.1021 0.05 2
  399.5518 0.08 3
  400.3278 0.22 9
  401.2481 0.29 12
  401.4145 0.25 10
  401.7679 0.14 6
  402.0364 0.04 2
  402.1899 0.20 8
  402.3599 0.29 12
  402.4948 0.12 5
  402.6955 0.10 4
  403.0133 0.12 5
  403.1989 0.39 16
  403.3282 0.32 13
  403.4639 0.22 9
  403.8024 0.11 5
  404.2945 0.39 16
  404.4659 0.11 5
  405.0181 0.11 5
  405.3152 0.17 7
  407.0705 0.11 5
  407.3163 0.24 10
  408.1815 0.13 5
  408.3345 0.05 2
  408.8603 0.14 6
  409.2607 0.07 3
  409.5404 0.14 6
  409.9116 0.11 5
  410.3962 0.07 3
  411.2085 0.14 6
  411.3634 0.13 5
  411.5226 0.10 4
  412.2115 0.21 9
  412.3607 0.20 8
  413.1704 0.03 1
  413.3624 0.14 6
  413.7437 0.09 4
  414.1172 0.10 4
  414.2129 0.12 5
  414.4585 0.10 4
  414.5806 0.02 1
  415.2362 0.16 7
  415.4340 0.04 2
  416.2060 0.08 3
  416.3517 0.11 5
  416.7439 0.11 5
  416.9824 0.09 4
  417.0824 0.05 2
  417.3453 0.23 10
  417.7725 0.10 4
  417.9889 0.05 2
  418.4054 0.11 5
  418.7519 0.01 0
  419.2305 0.34 14
  419.3948 0.34 14
  419.4842 0.11 5
  420.1994 0.09 4
  420.3408 0.06 3
  421.3705 0.15 6
  422.1759 0.09 4
  422.3174 0.33 14
  422.4625 0.27 11
  423.2379 0.08 3
  423.4495 0.10 4
  423.6682 0.09 4
  424.1772 0.20 8
  424.2822 0.04 2
  424.6375 0.10 4
  425.2008 0.12 5
  425.4796 0.14 6
  425.6290 0.11 5
  425.7461 0.10 4
  425.8846 0.12 5
  426.0793 0.16 7
  426.2742 0.12 5
  426.6274 0.05 2
  427.1612 0.15 6
  427.3054 0.17 7
  427.3953 0.15 6
  427.4867 0.18 8
  427.7979 0.16 7
  427.9013 0.10 4
  428.0134 0.07 3
  428.3724 0.36 15
  428.5815 0.20 8
  428.8364 0.04 2
  429.1555 0.32 13
  429.2982 0.09 4
  429.4781 0.16 7
  429.7336 0.11 5
  430.1120 0.12 5
  430.4425 0.20 8
  431.3057 1.05 44
  432.1282 0.16 7
  432.3424 0.11 5
  432.4395 0.14 6
  432.5388 0.09 4
  432.9137 0.11 5
  433.7220 0.11 5
  435.5525 0.17 7
  437.3704 0.14 6
  438.2877 0.22 9
  438.5356 0.15 6
  438.7221 0.11 5
  439.3701 0.08 3
  439.5159 0.07 3
  439.7217 0.04 2
  440.1675 0.21 9
  440.3783 0.29 12
  440.6363 0.19 8
  441.3852 0.25 10
  441.7154 0.11 5
  442.3157 0.04 2
  443.0669 0.05 2
  443.2506 0.16 7
  443.3749 0.14 6
  443.7416 0.08 3
  443.9425 0.16 7
  444.3342 0.24 10
  444.6223 0.12 5
  444.7896 0.12 5
  445.2635 0.79 33
  445.4537 0.44 18
  445.6839 0.21 9
  445.9241 0.19 8
  446.3716 2.14 89
  446.5947 0.69 29
  446.8163 0.10 4
  447.1059 0.08 3
  447.3047 0.29 12
  447.7838 0.09 4
  448.0712 0.10 4
  448.2206 0.08 3
  448.7748 0.06 3
  449.2661 0.07 3
  450.3339 0.12 5
  450.7702 0.05 2
  451.3388 0.06 3
  451.7079 0.12 5
  452.2944 0.16 7
  453.2823 0.21 9
  454.2646 0.10 4
  454.3926 0.14 6
  454.6974 0.11 5
  455.0838 0.14 6
  455.2741 0.03 1
  455.3900 0.11 5
  455.6075 0.15 6
  455.7721 0.08 3
  455.9796 0.17 7
  456.1728 0.09 4
  456.3739 0.09 4
  456.5091 0.05 2
  456.7195 0.30 13
  456.8576 0.13 5
  457.2262 0.47 20
  457.5002 0.30 13
  458.1086 0.33 14
  458.3147 0.02 1
  458.5179 0.14 6
  458.6768 0.09 4
  459.0533 0.09 4
  459.3088 0.19 8
  459.5342 0.11 5
  459.8957 0.12 5
  460.0668 0.07 3
  460.5607 0.15 6
  461.2357 0.13 5
  461.4093 0.21 9
  462.3101 0.21 9
  463.0380 0.14 6
  464.0675 0.07 3
  464.2119 0.19 8
  464.4169 0.13 5
  464.8942 0.01 0
  465.1614 0.07 3
  465.4151 0.13 5
  465.7559 0.01 0
  466.2833 0.12 5
  466.4240 0.11 5
  466.8221 0.02 1
  467.2673 0.10 4
  467.9512 0.07 3
  468.3607 0.36 15
  468.4858 0.03 1
  468.6802 0.20 8
  468.8889 0.04 2
  469.1327 0.10 4
  469.2935 0.12 5
  469.5615 0.13 5
  470.2542 0.17 7
  471.0791 0.13 5
  471.1784 0.06 3
  471.3185 0.11 5
  471.6109 0.10 4
  472.4967 0.04 2
  472.9064 0.01 0
  473.0379 0.13 5
  473.1595 0.05 2
  473.4319 0.14 6
  474.3299 0.02 1
  474.6481 0.09 4
  475.2953 0.10 4
  476.8428 0.06 3
  477.1461 0.01 0
  477.4185 0.25 10
  477.5466 0.17 7
  479.4070 0.06 3
  479.5608 0.09 4
  480.3705 0.15 6
  480.5000 0.11 5
  480.9500 0.03 1
  481.2562 0.13 5
  481.5087 0.12 5
  481.7605 0.11 5
  481.8850 0.06 3
  482.3837 0.16 7
  483.0262 0.04 2
  483.3303 0.02 1
  483.5965 0.17 7
  483.7503 0.03 1
  484.3177 0.32 13
  484.4551 0.05 2
  484.6125 0.12 5
  484.9281 0.06 3
  485.0684 0.12 5
  485.2680 0.22 9
  485.4047 0.15 6
  485.5972 0.10 4
  485.7890 0.07 3
  486.1554 0.08 3
  486.3279 0.11 5
  486.5261 0.09 4
  486.7745 0.12 5
  487.4601 0.08 3
  488.3140 0.06 3
  489.0471 0.03 1
  489.6474 0.09 4
  489.7453 0.13 5
  490.0819 0.11 5
  490.3092 0.05 2
  490.4379 0.08 3
  490.7187 0.07 3
  490.9882 0.09 4
  491.3234 0.34 14
  491.4599 0.54 23
  491.5664 0.14 6
  492.0317 0.15 6
  492.1375 0.16 7
  492.4077 0.80 33
  492.6128 0.42 18
  492.7107 0.17 7
  493.3777 0.05 2
  493.6815 0.11 5
  493.8881 0.11 5
  494.1668 0.13 5
  494.4778 0.08 3
  495.0598 0.11 5
  495.3178 0.19 8
  495.5123 0.19 8
  495.7246 0.16 7
  495.9491 0.04 2
  496.5719 0.14 6
  496.8929 0.11 5
  497.1160 0.06 3
  497.3863 0.44 18
  497.5650 0.22 9
  497.6837 0.13 5
  497.9776 0.11 5
  498.1127 0.13 5
  498.3230 0.18 8
  498.7370 0.15 6
  498.8714 0.12 5
  499.2447 0.23 10
  499.3563 0.11 5
  499.5308 0.22 9
  500.3189 0.85 35
  500.5120 0.26 11
  500.7523 0.26 11
  501.0140 0.12 5
  501.1850 0.08 3
  501.4882 0.15 6
  501.7943 0.10 4
  502.1119 0.08 3
  502.6462 0.20 8
  502.9380 0.05 2
  503.5146 0.07 3
  503.9838 0.09 4
  504.4195 2.51 105
  504.7979 0.26 11
  505.0883 0.11 5
  505.2572 0.15 6
  505.4732 0.13 5
  505.6278 0.11 5
  506.3074 0.11 5
  507.0866 0.13 5
  507.2468 0.01 0
  507.6017 0.09 4
  507.9867 0.04 2
  508.2021 0.03 1
  508.4389 0.12 5
  508.9799 0.10 4
  509.3856 0.17 7
  509.6060 0.13 5
  509.8937 0.11 5
  510.1148 0.09 4
  510.3603 0.30 13
  510.6057 0.25 10
  511.0122 0.04 2
  511.2584 0.06 3
  511.5232 0.18 8
  511.7422 0.14 6
  512.2410 0.05 2
  512.4050 0.16 7
  512.7728 0.07 3
  513.3655 0.12 5
  513.5559 0.10 4
  514.1149 0.11 5
  514.3655 0.14 6
  514.4692 0.18 8
  514.8522 0.06 3
  514.9653 0.11 5
  515.0999 0.02 1
  515.2910 0.02 1
  515.7978 0.06 3
  516.1545 0.04 2
  516.4675 0.06 3
  516.5826 0.11 5
  516.7634 0.16 7
  517.4547 0.04 2
  517.6920 0.05 2
  517.9850 0.04 2
  518.9065 0.10 4
  519.0652 0.11 5
  519.4162 0.09 4
  520.9197 0.02 1
  521.8828 0.04 2
  522.2360 0.05 2
  522.3425 0.03 1
  522.5027 0.10 4
  522.6364 0.09 4
  522.9017 0.11 5
  523.2120 0.17 7
  523.5067 0.13 5
  523.6790 0.13 5
  523.9979 0.19 8
  524.4813 0.13 5
  524.5543 0.06 3
  524.8403 0.09 4
  525.2293 0.14 6
  525.3588 0.18 8
  525.4617 0.12 5
  525.5898 0.12 5
  525.6906 0.05 2
  526.0246 0.23 10
  526.1562 0.11 5
  526.3757 0.34 14
  526.6118 0.29 12
  526.8156 0.15 6
  526.9865 0.05 2
  527.3069 0.21 9
  527.5316 0.20 8
  527.8305 0.12 5
  528.0444 0.11 5
  528.3176 0.97 40
  528.5329 0.63 26
  528.6910 0.21 9
  528.8040 0.04 2
  528.9935 0.09 4
  529.2811 0.10 4
  529.3669 0.08 3
  529.4614 0.09 4
  529.6838 0.14 6
  530.3698 0.09 4
  531.8907 0.06 3
  532.0231 0.06 3
  532.4273 0.10 4
  532.9031 0.17 7
  533.4197 0.16 7
  534.2861 0.10 4
  534.4507 0.12 5
  534.8042 0.13 5
  535.0410 0.07 3
  535.1605 0.11 5
  535.2986 0.05 2
  535.5713 0.13 5
  535.7394 0.13 5
  535.8475 0.20 8
  535.9548 0.12 5
  536.4658 0.10 4
  537.1921 0.04 2
  537.5607 0.04 2
  537.7124 0.01 0
  538.4488 0.39 16
  539.0951 0.10 4
  539.2676 0.11 5
  539.4086 0.25 10
  539.6469 0.16 7
  539.8860 0.05 2
  540.4643 0.06 3
  540.7012 0.28 12
  540.8966 0.05 2
  541.1658 0.18 8
  541.3039 0.12 5
  541.4951 0.11 5
  541.6883 0.28 12
  541.8730 0.13 5
  542.0076 0.12 5
  542.2424 0.08 3
  542.7170 0.12 5
  542.8995 0.13 5
  543.1458 0.03 1
  543.4221 0.06 3
  543.8344 0.19 8
  544.0399 0.09 4
  544.2933 0.07 3
  544.5303 0.14 6
  544.9012 0.16 7
  545.1138 0.22 9
  545.3565 0.10 4
  545.4532 0.08 3
  545.6179 0.08 3
  546.1641 0.12 5
  546.5443 0.10 4
  547.2868 0.25 10
  547.5031 0.17 7
  547.6771 0.10 4
  548.0057 0.10 4
  548.4225 0.20 8
  548.5843 0.11 5
  548.7640 0.14 6
  549.2173 0.13 5
  549.6606 0.18 8
  549.8798 0.02 1
  550.0194 0.20 8
  550.2708 0.19 8
  550.4548 0.18 8
  550.6496 0.08 3
  550.8416 0.18 8
  550.9969 0.11 5
  551.1624 0.29 12
  551.5663 0.37 15
  551.9237 0.28 12
  552.1894 0.11 5
  552.3420 0.08 3
  552.5052 0.10 4
  552.6342 0.03 1
  552.8713 0.06 3
  553.1484 0.12 5
  553.2982 0.14 6
  553.4292 0.26 11
  553.7773 0.22 9
  554.3489 0.47 20
  554.8289 0.19 8
  555.1276 0.18 8
  555.3367 0.27 11
  555.6791 0.38 16
  555.8747 0.22 9
  556.1849 0.29 12
  556.3518 0.44 18
  556.5753 0.26 11
  556.7845 0.43 18
  556.8819 0.17 7
  557.2709 0.41 17
  557.4937 0.18 8
  557.6800 0.37 15
  557.8864 0.19 8
  557.9974 0.14 6
  558.2116 0.26 11
  558.4165 0.49 20
  558.6357 0.25 10
  558.8156 0.20 8
  559.0283 0.21 9
  559.3823 0.40 17
  559.5081 0.19 8
  559.7331 0.25 10
  559.9581 0.28 12
  560.2567 0.52 22
  560.4661 0.21 9
  560.7254 0.36 15
  561.0891 0.47 20
  561.2598 0.33 14
  561.4963 0.43 18
  561.8828 0.38 16
  562.2944 0.66 28
  562.5538 0.47 20
  562.9839 0.57 24
  563.5433 0.52 22
  564.4101 0.68 28
  564.6945 0.71 30
  565.1333 0.88 37
  565.7543 1.37 57
  566.6433 14.15 591
  567.6210 1.39 58
  567.9811 0.52 22
  568.1677 0.46 19
  568.3406 0.71 30
  568.5844 0.87 36
  569.5700 2.91 121
  569.8902 0.80 33
  570.1197 0.60 25
  570.3956 0.68 28
  570.7422 0.56 23
  570.9059 0.19 8
  571.1089 0.14 6
  571.3655 0.39 16
  571.6036 0.45 19
  571.8495 0.62 26
  571.9589 0.25 10
  572.1597 0.24 10
  572.4178 0.56 23
  572.6373 0.09 4
  572.7280 0.10 4
  572.8624 0.40 17
  573.0311 0.15 6
  573.4851 0.55 23
  573.6531 0.38 16
  573.9969 0.45 19
  574.3637 0.38 16
  574.5989 0.38 16
  574.8291 0.54 23
  575.0836 0.47 20
  575.2824 0.48 20
  575.5055 0.46 19
  575.9866 0.83 35
  576.5793 0.54 23
  576.8325 0.39 16
  577.1449 0.76 32
  577.5267 0.64 27
  578.1732 1.09 46
  584.4774 99.97 999
  585.2384 27.94 999
  586.0080 12.40 518
  586.7547 7.00 292
  587.8867 3.51 147
  588.7035 2.01 84
  589.2302 1.50 63
  589.8184 1.00 42
  590.7389 0.63 26
  590.9490 0.52 22
  591.2084 0.68 28
  591.4143 0.50 21
  591.6337 0.28 12
  591.8052 0.31 13
  591.9682 0.26 11
  592.2949 0.26 11
  592.5622 0.38 16
  592.7495 0.22 9
  592.9717 0.39 16
  593.0790 0.25 10
  593.2319 0.18 8
//
