ACCESSION: MSBNK-Kyoto_Univ-CA000143
RECORD_TITLE: Amarouciaxanthin B; FAB-EBEB; MS2; m/z: 596.39; [M]*+
DATE: 2016.01.19 (Created 2007.03.15, modified 2011.05.10)
AUTHORS: Akimoto N, Graduate School of Pharmaceutical Sciences, Kyoto University and Maoka T, Research Institute for Production Development
LICENSE: CC BY-SA
COMMENT: Profile spectrum of this record is given as a JPEG file.
COMMENT: [Profile] CA000143.jpg
CH$NAME: Amarouciaxanthin B
CH$COMPOUND_CLASS: Natural Product; Carotenoid
CH$FORMULA: C40H52O4
CH$EXACT_MASS: 596.38656
CH$SMILES: CC(C)(C=1C#CC(C)=CC=CC(C)=CC=CC=C(C=CC=C(C(CC(O)(C=2C)C(CC(C2)=O)(C)C)=O)C)C)CC(CC(C)1)O
CH$IUPAC: InChI=1S/C40H52O4/c1-28(17-13-18-30(3)21-22-36-32(5)23-34(41)25-38(36,7)8)15-11-12-16-29(2)19-14-20-31(4)37(43)27-40(44)33(6)24-35(42)26-39(40,9)10/h11-20,24,34,41,44H,23,25-27H2,1-10H3/b12-11+,17-13+,19-14+,28-15+,29-16+,30-18+,31-20+/t34-,40-/m1/s1
CH$LINK: CHEMSPIDER 4945158
CH$LINK: PUBCHEM CID:6440922
CH$LINK: INCHIKEY XUKJTNSSWNXSQU-OMEVNMJGSA-N
AC$INSTRUMENT: JMS-HX/HX 110A, JEOL
AC$INSTRUMENT_TYPE: FAB-EBEB
AC$MASS_SPECTROMETRY: MS_TYPE MS2
AC$MASS_SPECTROMETRY: ION_MODE POSITIVE
AC$MASS_SPECTROMETRY: ATOM_GUN_CURRENT 5 mA
AC$MASS_SPECTROMETRY: BOMBARDMENT 6 kV xenon
AC$MASS_SPECTROMETRY: COLLISION_ENERGY 3 kV
AC$MASS_SPECTROMETRY: COLLISION_GAS Ar
AC$MASS_SPECTROMETRY: GAS_PRESSURE adjust to attenuate the intensity of the precursor ion by 30 %
AC$MASS_SPECTROMETRY: IONIZATION FAB
AC$MASS_SPECTROMETRY: MATRIX 1-2 uL m-NBA
AC$MASS_SPECTROMETRY: PROBE_TIP stainless-steel
MS$FOCUSED_ION: BASE_PEAK 596.4753
MS$FOCUSED_ION: PRECURSOR_M/Z 596.39
MS$FOCUSED_ION: PRECURSOR_TYPE [M]+*
PK$SPLASH: splash10-0002-1941030000-cd76302370b584f43cc2
PK$NUM_PEAK: 1796
PK$PEAK: m/z int. rel.int.
  0.0013 0.01 0
  0.0320 0.01 0
  0.1758 0.01 0
  0.5679 0.01 0
  1.2527 0.01 0
  2.0690 0.01 0
  2.2560 0.01 0
  2.6967 0.01 0
  4.4888 0.01 0
  5.1212 0.01 0
  7.7882 0.01 0
  8.7808 0.01 0
  10.5747 0.01 0
  11.9753 0.07 1
  12.0391 0.02 0
  12.9751 0.06 1
  13.9729 0.03 0
  14.9789 0.15 1
  15.6488 0.01 0
  16.6049 0.01 0
  18.0156 0.01 0
  18.1967 0.01 0
  18.3881 0.01 0
  20.6961 0.01 0
  24.9374 0.03 0
  25.9660 0.12 1
  26.9636 1.32 13
  27.7098 0.01 0
  27.9537 0.02 0
  28.9700 1.40 14
  29.9663 0.05 0
  30.9510 0.20 2
  36.9449 0.20 2
  37.9553 0.31 3
  38.2447 0.02 0
  38.9539 2.91 29
  39.2482 0.03 0
  39.9728 0.40 4
  40.9735 4.64 46
  41.9661 0.47 5
  42.3614 0.06 1
  42.9538 9.08 91
  43.9645 0.09 1
  44.9587 0.15 1
  46.0050 0.01 0
  48.8661 0.02 0
  48.9497 0.10 1
  49.9541 0.65 6
  50.9566 1.99 20
  51.1439 0.01 0
  51.5795 0.01 0
  51.9641 0.69 7
  52.9698 3.66 37
  53.7248 0.01 0
  53.9726 0.27 3
  54.9813 5.92 59
  55.9976 0.31 3
  56.9945 1.91 19
  57.2229 0.05 0
  58.0102 0.10 1
  58.9801 0.49 5
  59.8620 0.06 1
  59.9816 0.06 1
  60.0913 0.03 0
  60.8036 0.05 0
  60.9410 0.10 1
  61.9584 0.73 7
  62.9540 1.70 17
  63.1077 0.10 1
  63.2350 0.07 1
  63.4697 0.11 1
  63.9527 0.31 3
  64.9641 3.35 33
  65.4830 0.07 1
  65.6654 0.06 1
  65.9700 0.84 8
  66.9748 5.37 54
  67.1931 0.06 1
  67.9567 0.64 6
  68.9761 7.07 71
  69.8708 0.04 0
  69.9774 0.11 1
  70.9738 2.42 24
  71.3377 0.03 0
  71.5405 0.02 0
  72.9817 0.12 1
  73.9300 0.69 7
  74.9330 1.34 13
  75.1693 0.07 1
  75.3629 0.04 0
  75.5050 0.03 0
  75.9639 0.68 7
  76.5331 0.02 0
  76.9575 9.67 97
  77.1646 0.05 0
  77.3022 0.07 1
  77.3802 0.03 0
  77.6650 0.04 0
  77.9643 2.52 25
  78.3331 0.01 0
  78.4724 0.02 0
  78.6822 0.07 1
  78.9664 7.61 76
  79.1647 0.06 1
  79.9775 0.96 10
  80.4714 0.10 1
  80.6330 0.06 1
  80.7201 0.04 0
  80.9845 5.68 57
  81.8339 0.05 0
  81.9758 0.39 4
  82.9771 4.69 47
  83.4439 0.06 1
  83.9799 0.23 2
  84.9801 4.75 47
  85.3225 0.06 1
  85.9363 0.43 4
  86.9495 0.90 9
  87.4237 0.10 1
  87.5537 0.03 0
  87.8382 0.10 1
  87.9775 0.28 3
  88.1503 0.13 1
  88.3627 0.10 1
  88.5436 0.03 0
  88.9587 2.50 25
  89.1728 0.09 1
  89.3773 0.19 2
  89.6209 0.07 1
  89.7236 0.10 1
  89.9705 0.50 5
  90.1826 0.05 0
  90.3380 0.03 0
  90.5878 0.18 2
  90.9669 25.14 251
  91.2569 0.13 1
  91.5114 0.20 2
  91.9817 2.29 23
  92.2158 0.01 0
  92.4709 0.04 0
  92.9822 10.25 102
  93.1577 0.09 1
  93.2791 0.03 0
  93.4436 0.11 1
  93.9863 1.18 12
  94.1054 0.10 1
  94.4456 0.18 2
  94.9856 11.50 115
  95.1612 0.14 1
  95.3485 0.09 1
  95.5260 0.11 1
  95.9754 2.19 22
  96.1866 0.03 0
  96.9847 2.09 21
  97.7766 0.10 1
  97.9675 0.49 5
  98.8371 0.05 0
  98.9686 0.35 3
  99.3638 0.04 0
  99.5354 0.09 1
  99.6121 0.02 0
  99.8350 0.12 1
  99.9942 0.15 1
  100.1128 0.17 2
  100.5253 0.04 0
  100.6359 0.18 2
  100.7648 0.07 1
  100.9625 0.69 7
  101.1001 0.09 1
  101.4069 0.11 1
  101.5967 0.04 0
  101.9571 1.88 19
  102.1119 0.12 1
  102.6132 0.18 2
  102.9674 4.80 48
  103.4438 0.10 1
  103.5859 0.13 1
  103.9772 2.60 26
  104.2070 0.08 1
  104.2844 0.05 0
  104.5187 0.04 0
  104.9902 25.62 256
  105.2033 0.22 2
  105.3522 0.04 0
  105.4488 0.03 0
  105.7834 0.10 1
  106.0019 1.82 18
  106.4557 0.12 1
  106.6074 0.05 0
  107.0009 18.02 180
  107.2389 0.15 1
  107.4580 0.13 1
  107.7938 0.12 1
  107.9957 1.77 18
  108.2285 0.08 1
  108.3919 0.06 1
  108.4945 0.01 0
  108.9937 11.25 112
  109.3246 0.02 0
  109.5524 0.03 0
  109.7085 0.10 1
  109.9636 0.95 9
  110.2253 0.06 1
  110.3390 0.06 1
  110.9886 16.97 170
  111.2672 0.02 0
  111.9459 0.29 3
  112.2677 0.04 0
  112.5360 0.08 1
  112.7631 0.20 2
  112.9685 1.10 11
  113.1165 0.15 1
  113.3796 0.26 3
  113.7570 0.40 4
  113.9628 0.69 7
  114.1903 0.09 1
  114.3905 0.20 2
  114.5977 0.15 1
  114.9510 15.82 158
  115.3243 0.21 2
  115.4261 0.08 1
  115.6042 0.12 1
  115.9638 5.36 54
  116.2896 0.08 1
  116.4454 0.15 1
  116.5770 0.16 2
  116.9711 12.17 122
  117.2730 0.01 0
  117.4163 0.02 0
  117.6425 0.05 0
  117.7331 0.07 1
  117.9749 1.92 19
  118.2135 0.18 2
  118.5836 0.05 0
  118.9808 23.58 236
  119.3416 0.15 1
  119.5872 0.07 1
  119.7077 0.12 1
  119.9812 1.89 19
  120.9759 9.03 90
  121.5187 0.02 0
  121.9493 1.55 15
  122.3570 0.11 1
  122.5680 0.10 1
  122.6606 0.06 1
  122.9676 3.93 39
  123.4711 0.04 0
  123.9509 1.00 10
  124.6590 0.09 1
  124.9857 7.78 78
  125.1799 0.13 1
  125.4015 0.02 0
  125.9496 1.12 11
  126.1689 0.05 0
  126.2996 0.18 2
  126.4545 0.08 1
  126.9272 6.55 65
  127.3656 0.32 3
  127.9432 16.79 168
  128.2753 0.21 2
  128.5010 0.41 4
  128.9534 18.67 187
  129.2832 0.07 1
  129.4440 0.08 1
  129.5930 0.10 1
  129.9643 7.04 70
  130.2762 0.09 1
  130.4967 0.16 2
  130.9620 12.38 124
  131.2599 0.17 2
  131.4531 0.03 0
  131.6123 0.09 1
  131.9708 3.19 32
  132.2258 0.06 1
  132.3222 0.06 1
  132.9704 10.34 103
  133.3320 0.11 1
  133.4791 0.15 1
  133.9593 1.21 12
  134.2156 0.07 1
  134.4444 0.11 1
  134.5489 0.06 1
  134.9606 13.98 140
  135.2856 0.09 1
  135.5654 0.11 1
  135.6924 0.11 1
  135.9644 0.84 8
  136.9536 3.06 31
  137.9509 4.84 48
  138.2059 0.10 1
  138.3592 0.20 2
  138.4417 0.03 0
  138.9454 8.00 80
  139.1523 0.08 1
  139.8966 0.73 7
  140.1415 0.32 3
  140.3223 0.27 3
  140.9469 15.72 157
  141.2424 0.31 3
  141.4532 0.10 1
  141.5686 0.07 1
  141.9572 11.27 113
  142.2730 0.20 2
  142.4164 0.13 1
  142.5524 0.03 0
  142.9647 18.70 187
  143.3094 0.15 1
  143.4775 0.09 1
  143.9633 5.61 56
  144.2046 0.20 2
  144.3535 0.15 1
  144.4639 0.14 1
  144.6043 0.08 1
  144.9742 14.21 142
  145.2550 0.10 1
  145.3549 0.04 0
  145.5193 0.07 1
  145.9582 2.18 22
  146.3146 0.10 1
  146.6365 0.13 1
  146.9705 12.29 123
  147.3033 0.11 1
  147.5848 0.11 1
  147.9859 2.62 26
  148.2829 0.05 0
  148.4111 0.02 0
  148.9862 10.26 103
  149.9440 1.01 10
  150.3467 0.23 2
  150.6532 0.27 3
  150.9711 5.42 54
  151.1873 0.16 2
  151.4826 0.27 3
  151.9475 8.48 85
  152.2986 0.19 2
  152.9698 38.01 380
  153.3595 0.44 4
  153.5829 0.23 2
  153.9769 7.32 73
  154.2193 0.18 2
  154.4308 0.15 1
  154.5906 0.11 1
  154.9668 15.35 153
  155.2128 0.22 2
  155.3270 0.06 1
  155.5703 0.39 4
  155.9805 8.18 82
  156.3282 0.20 2
  156.4440 0.11 1
  156.9938 16.16 161
  157.2395 0.25 2
  157.3499 0.15 1
  157.5566 0.07 1
  157.9884 4.34 43
  158.3752 0.17 2
  158.9906 9.55 95
  159.2577 0.18 2
  159.4944 0.07 1
  159.6314 0.09 1
  160.0011 2.15 21
  160.1699 0.11 1
  160.3582 0.14 1
  160.5749 0.05 0
  160.6776 0.09 1
  160.9990 11.02 110
  161.2686 0.20 2
  161.3969 0.10 1
  161.6970 0.13 1
  162.0045 0.55 5
  162.4839 0.13 1
  162.9885 2.42 24
  163.3343 0.24 2
  163.5807 0.18 2
  163.9700 1.06 11
  164.2280 0.37 4
  164.4339 0.31 3
  164.9718 16.59 166
  165.2402 0.15 1
  165.3995 0.26 3
  165.9819 5.64 56
  166.3177 0.24 2
  166.5212 0.10 1
  166.9983 11.20 112
  167.4233 0.08 1
  167.5957 0.14 1
  167.9998 5.01 50
  168.2451 0.08 1
  168.3633 0.17 2
  168.5855 0.21 2
  169.0151 12.23 122
  169.3333 0.06 1
  169.4373 0.05 0
  170.0168 4.39 44
  170.3397 0.11 1
  170.5690 0.14 1
  171.0231 9.65 96
  171.3762 0.12 1
  171.5120 0.06 1
  172.0160 2.42 24
  172.2272 0.13 1
  172.4454 0.08 1
  172.5963 0.04 0
  173.0238 7.54 75
  173.6521 0.11 1
  174.0195 1.48 15
  174.1964 0.25 2
  174.3726 0.16 2
  174.5503 0.09 1
  174.7987 0.27 3
  175.0213 2.57 26
  175.2678 0.04 0
  175.4932 0.16 2
  175.9728 2.03 20
  176.4798 0.18 2
  176.9903 2.59 26
  177.3122 0.26 3
  177.9793 10.07 101
  178.2351 0.26 3
  178.3771 0.13 1
  178.5327 0.18 2
  178.9900 14.56 145
  179.3000 0.10 1
  179.4673 0.20 2
  179.9960 5.72 57
  180.2570 0.43 4
  180.3971 0.13 1
  180.5830 0.17 2
  181.0034 13.69 137
  181.2673 0.37 4
  181.4814 0.14 1
  182.0122 5.52 55
  182.3857 0.06 1
  182.5253 0.09 1
  183.0209 10.73 107
  183.2537 0.35 3
  183.4879 0.14 1
  183.6837 0.13 1
  184.0180 2.96 30
  184.3372 0.06 1
  184.5017 0.14 1
  185.0171 5.49 55
  185.2940 0.11 1
  185.5909 0.20 2
  186.0079 1.08 11
  186.2198 0.11 1
  186.3296 0.04 0
  186.5320 0.11 1
  186.7516 0.13 1
  187.0267 3.29 33
  187.2347 0.18 2
  187.3178 0.10 1
  187.4407 0.15 1
  187.9234 0.70 7
  188.4193 0.31 3
  188.5669 0.23 2
  188.9771 5.31 53
  189.4348 0.19 2
  189.9711 2.79 28
  190.3520 0.34 3
  190.9925 9.12 91
  191.2622 0.15 1
  191.4542 0.17 2
  191.9814 6.94 69
  192.2809 0.33 3
  192.4241 0.11 1
  192.9964 14.16 142
  193.3512 0.02 0
  193.5145 0.21 2
  194.0079 5.74 57
  194.3498 0.35 3
  195.0042 13.83 138
  195.3697 0.07 1
  195.5339 0.13 1
  196.0079 4.36 44
  196.2584 0.13 1
  196.5137 0.19 2
  197.0129 7.88 79
  197.4382 0.15 1
  197.6247 0.21 2
  198.0011 1.39 14
  198.2865 0.15 1
  198.5193 0.20 2
  198.6119 0.20 2
  199.0058 4.06 41
  199.4365 0.10 1
  199.6418 0.28 3
  199.8126 0.10 1
  200.0319 1.35 13
  200.2283 0.11 1
  200.9893 2.35 23
  201.3719 0.35 3
  201.5374 0.28 3
  201.9735 4.91 49
  202.2719 0.34 3
  202.9720 5.86 59
  203.3544 0.16 2
  203.9940 3.00 30
  204.2082 0.26 3
  204.3454 0.15 1
  204.9957 7.79 78
  205.2939 0.12 1
  205.4867 0.21 2
  205.5797 0.21 2
  206.0028 5.32 53
  206.2596 0.16 2
  206.4025 0.18 2
  206.6475 0.37 4
  207.0188 11.50 115
  207.3423 0.38 4
  207.6242 0.21 2
  208.0186 4.02 40
  208.2825 0.20 2
  208.4353 0.36 4
  208.5993 0.14 1
  209.0259 9.17 92
  209.4039 0.24 2
  210.0281 2.73 27
  210.2318 0.29 3
  210.3291 0.22 2
  210.4584 0.04 0
  211.0343 4.45 44
  211.3480 0.10 1
  211.4600 0.08 1
  211.6986 0.12 1
  212.0374 1.05 10
  212.3847 0.18 2
  213.0244 2.91 29
  213.4777 0.20 2
  213.6239 0.19 2
  213.9854 0.74 7
  214.2139 0.32 3
  214.5831 1.33 13
  215.0089 6.50 65
  215.4068 0.24 2
  215.6466 0.30 3
  216.0014 4.58 46
  216.3103 0.11 1
  217.0119 6.65 66
  218.0123 3.50 35
  218.4283 0.32 3
  219.0272 8.21 82
  219.3951 0.09 1
  220.0418 5.02 50
  220.2891 0.26 3
  220.4428 0.06 1
  220.5958 0.08 1
  221.0500 7.64 76
  221.4972 0.30 3
  221.5944 0.22 2
  222.0536 2.58 26
  222.3144 0.16 2
  222.5850 0.31 3
  223.0683 5.24 52
  223.5719 0.08 1
  223.8125 0.33 3
  224.0602 1.38 14
  224.3324 0.13 1
  224.4451 0.25 2
  224.5858 0.15 1
  225.0582 3.46 35
  225.3627 0.26 3
  225.4517 0.10 1
  225.5714 0.13 1
  226.0454 1.86 19
  226.2717 0.42 4
  227.0191 2.46 25
  227.4710 0.22 2
  227.6875 0.29 3
  228.0358 1.53 15
  228.4564 0.08 1
  229.0432 5.17 52
  229.3027 0.14 1
  229.5103 0.19 2
  230.0538 2.94 29
  230.4151 0.13 1
  231.0628 7.74 77
  231.6186 0.15 1
  232.0897 3.55 35
  232.3867 0.20 2
  232.6534 0.32 3
  233.0819 6.72 67
  233.3726 0.14 1
  233.5540 0.25 2
  234.0884 2.69 27
  234.7610 0.28 3
  235.0911 5.90 59
  235.3890 0.13 1
  235.7079 0.35 3
  236.0928 1.81 18
  236.5366 0.26 3
  237.0955 4.36 44
  237.3537 0.24 2
  237.6020 0.23 2
  238.0769 0.97 10
  238.5288 0.22 2
  239.0587 4.17 42
  239.3956 0.26 3
  239.5845 0.16 2
  240.0513 1.53 15
  240.1833 0.58 6
  240.3491 0.10 1
  240.5394 0.12 1
  241.0598 3.12 31
  241.5972 0.12 1
  242.0553 1.81 18
  242.5515 0.15 1
  242.7194 0.33 3
  243.0596 4.21 42
  243.4399 0.08 1
  244.0720 2.91 29
  244.5805 0.27 3
  245.0686 5.22 52
  245.3993 0.32 3
  245.6103 0.13 1
  246.0761 3.30 33
  246.3963 0.04 0
  246.4942 0.05 0
  246.6363 0.17 2
  247.0798 6.09 61
  247.4916 0.23 2
  247.5712 0.13 1
  247.6507 0.08 1
  248.0873 2.84 28
  248.3626 0.14 1
  248.6105 0.13 1
  249.0930 4.33 43
  249.4854 0.25 2
  249.6581 0.14 1
  249.8159 0.32 3
  250.1076 1.06 11
  250.5466 0.06 1
  251.0894 1.92 19
  251.4404 0.28 3
  252.0489 1.38 14
  252.4636 0.21 2
  253.0483 2.72 27
  253.3107 0.15 1
  253.4214 0.03 0
  253.5795 0.07 1
  253.7502 0.05 0
  254.0840 1.60 16
  254.3302 0.20 2
  254.4707 0.05 0
  255.0677 3.48 35
  255.2873 0.23 2
  255.5809 0.11 1
  256.0730 1.44 14
  256.3647 0.08 1
  256.5920 0.13 1
  257.0772 5.11 51
  257.4474 0.08 1
  257.5449 0.11 1
  258.0860 2.00 20
  258.3439 0.13 1
  258.5792 0.13 1
  258.6901 0.07 1
  259.0717 5.51 55
  259.4463 0.28 3
  259.5912 0.11 1
  260.0817 2.20 22
  260.5222 0.14 1
  261.0998 4.48 45
  261.6147 0.28 3
  261.7455 0.16 2
  262.0935 1.35 13
  262.4069 0.25 2
  263.0931 3.45 34
  263.3839 0.05 0
  263.5226 0.18 2
  263.8411 0.22 2
  264.1313 1.11 11
  264.4470 0.20 2
  264.5886 0.13 1
  265.0785 2.30 23
  265.3850 0.12 1
  265.6378 0.10 1
  266.0769 1.30 13
  266.2766 0.23 2
  266.4430 0.14 1
  266.6109 0.13 1
  267.0770 2.88 29
  267.4950 0.19 2
  267.7118 0.13 1
  268.1200 1.10 11
  268.5452 0.16 2
  268.6713 0.11 1
  269.1157 3.10 31
  269.4602 0.23 2
  269.6396 0.14 1
  269.7701 0.14 1
  270.0934 2.08 21
  270.4188 0.34 3
  270.7365 0.27 3
  271.1067 4.70 47
  271.5032 0.10 1
  271.8160 0.20 2
  272.1161 1.54 15
  272.4531 0.28 3
  272.6930 0.19 2
  273.1201 3.13 31
  273.5013 0.14 1
  273.8348 0.35 3
  274.1351 1.26 13
  274.3736 0.08 1
  274.5121 0.25 2
  274.6618 0.15 1
  275.1340 2.67 27
  275.4670 0.17 2
  275.5863 0.07 1
  275.9073 0.32 3
  276.1424 1.19 12
  276.3676 0.11 1
  276.5267 0.12 1
  277.1147 1.85 18
  277.4976 0.17 2
  277.7408 0.02 0
  278.1131 0.51 5
  278.7153 0.20 2
  278.8195 0.09 1
  279.1260 1.76 18
  279.5140 0.07 1
  279.6396 0.15 1
  279.7786 0.11 1
  280.1178 1.17 12
  280.4392 0.01 0
  280.5641 0.08 1
  281.1184 3.04 30
  282.0838 1.18 12
  282.5012 0.08 1
  283.1126 2.65 26
  283.4684 0.34 3
  283.5458 0.17 2
  283.7723 0.07 1
  284.1069 1.54 15
  284.4862 0.16 2
  284.7810 0.36 4
  285.1192 2.80 28
  285.6592 0.05 0
  285.7786 0.08 1
  286.1481 0.78 8
  286.4515 0.08 1
  286.6634 0.18 2
  287.1282 2.30 23
  287.4773 0.04 0
  287.6123 0.10 1
  287.7211 0.02 0
  288.1363 0.84 8
  288.2657 0.31 3
  288.4343 0.05 0
  288.6632 0.17 2
  289.1361 1.49 15
  289.6418 0.09 1
  289.7834 0.14 1
  290.1263 0.61 6
  290.3703 0.09 1
  290.6193 0.10 1
  290.7673 0.10 1
  291.1358 1.40 14
  291.4696 0.04 0
  291.7151 0.11 1
  292.1079 0.75 7
  292.4482 0.06 1
  292.8695 0.30 3
  293.1344 2.53 25
  293.4088 0.03 0
  293.5979 0.07 1
  293.7344 0.15 1
  294.1531 0.99 10
  294.4453 0.07 1
  294.6878 0.05 0
  295.1280 1.88 19
  295.5034 0.19 2
  296.0980 0.99 10
  296.4025 0.17 2
  296.6102 0.28 3
  297.1046 2.50 25
  297.5585 0.15 1
  297.6531 0.11 1
  297.7634 0.03 0
  298.1199 1.28 13
  298.4473 0.11 1
  298.6523 0.11 1
  299.1263 2.58 26
  299.5377 0.13 1
  299.7256 0.22 2
  300.1072 0.77 8
  300.4141 0.22 2
  300.4931 0.09 1
  300.7480 0.19 2
  301.1354 1.61 16
  301.3918 0.13 1
  301.5677 0.03 0
  301.7649 0.12 1
  302.0804 0.69 7
  302.4651 0.15 1
  302.6560 0.13 1
  303.1390 1.46 15
  303.5643 0.15 1
  303.7125 0.10 1
  304.0260 0.48 5
  304.1493 0.08 1
  304.5698 0.03 0
  304.7080 0.04 0
  305.1086 1.12 11
  305.4428 0.06 1
  305.6382 0.27 3
  306.0638 0.65 6
  306.2769 0.08 1
  306.4979 0.13 1
  306.7795 0.09 1
  307.1411 1.94 19
  307.4256 0.25 2
  307.6374 0.11 1
  308.0638 0.43 4
  308.3498 0.12 1
  308.5082 0.09 1
  309.0974 1.22 12
  309.4476 0.08 1
  309.6253 0.02 0
  309.7558 0.09 1
  310.0662 0.85 8
  310.2674 0.38 4
  310.5222 0.28 3
  311.1073 1.87 19
  311.4263 0.03 0
  311.5655 0.07 1
  311.8424 0.07 1
  312.1387 0.67 7
  312.2843 0.29 3
  312.8461 0.44 4
  313.1538 2.26 23
  313.7386 0.04 0
  314.0914 0.61 6
  314.2328 0.60 6
  314.4442 0.11 1
  315.1076 1.62 16
  315.4205 0.04 0
  315.6169 0.12 1
  315.7741 0.01 0
  316.1370 0.35 3
  316.3235 0.17 2
  316.6650 0.26 3
  316.7528 0.13 1
  317.1516 0.98 10
  317.4174 0.10 1
  317.6611 0.11 1
  317.8654 0.20 2
  318.1435 0.38 4
  318.2414 0.15 1
  318.6888 0.12 1
  318.8882 0.37 4
  319.1613 0.89 9
  319.4501 0.04 0
  319.6553 0.13 1
  319.8354 0.17 2
  320.0842 0.61 6
  320.2537 0.31 3
  320.4124 0.27 3
  320.5554 0.14 1
  321.1275 0.87 9
  321.3463 0.16 2
  321.8276 0.23 2
  322.1209 0.31 3
  322.3870 0.12 1
  322.4928 0.06 1
  322.5987 0.03 0
  323.1087 0.96 10
  323.4987 0.08 1
  323.9723 0.22 2
  324.1769 0.62 6
  324.3523 0.07 1
  325.1180 0.91 9
  325.5996 0.07 1
  325.8430 0.08 1
  326.1257 0.41 4
  326.4335 0.15 1
  326.5817 0.16 2
  326.7571 0.20 2
  327.1308 1.69 17
  327.3427 0.15 1
  327.4408 0.06 1
  327.5497 0.03 0
  327.7101 0.16 2
  327.8576 0.29 3
  328.1075 0.43 4
  328.3259 0.12 1
  328.6080 0.06 1
  328.7076 0.07 1
  328.8558 0.14 1
  329.1752 1.34 13
  329.6422 0.10 1
  329.8406 0.05 0
  330.0949 0.42 4
  330.3185 0.27 3
  330.6279 0.13 1
  330.7841 0.15 1
  331.1495 1.64 16
  331.4898 0.13 1
  332.1032 0.39 4
  332.6113 0.25 2
  333.1754 1.82 18
  333.4886 0.14 1
  333.6377 0.10 1
  333.7230 0.02 0
  334.1667 0.49 5
  334.3051 0.27 3
  334.4033 0.11 1
  334.5897 0.14 1
  334.7954 0.09 1
  335.1633 0.69 7
  335.5892 0.11 1
  335.7369 0.15 1
  335.8796 0.08 1
  336.1542 0.44 4
  336.2690 0.31 3
  336.6405 0.10 1
  336.8054 0.14 1
  337.1848 1.06 11
  337.4000 0.07 1
  337.5611 0.04 0
  338.1771 0.63 6
  338.6248 0.13 1
  339.2043 0.88 9
  339.5618 0.18 2
  339.9530 0.03 0
  340.1923 0.49 5
  340.5248 0.13 1
  340.6946 0.06 1
  341.1690 0.73 7
  341.4930 0.12 1
  341.6664 0.05 0
  341.8033 0.09 1
  342.0656 0.29 3
  342.3351 0.24 2
  342.4864 0.10 1
  342.6419 0.09 1
  343.1753 1.23 12
  343.4491 0.13 1
  343.6728 0.09 1
  344.0464 0.35 3
  344.1632 0.25 2
  344.3733 0.15 1
  344.5591 0.13 1
  344.6537 0.05 0
  344.8423 0.12 1
  345.1557 0.81 8
  345.3837 0.08 1
  345.5781 0.21 2
  345.7875 0.18 2
  346.1935 1.09 11
  346.4101 0.07 1
  346.8282 0.16 2
  347.2092 0.93 9
  347.4165 0.17 2
  347.6166 0.16 2
  347.8319 0.16 2
  348.2035 0.41 4
  348.3779 0.20 2
  348.5221 0.14 1
  348.6319 0.11 1
  349.1779 0.54 5
  349.3337 0.26 3
  349.6121 0.08 1
  349.7535 0.15 1
  350.0750 0.28 3
  350.2659 0.43 4
  350.6758 0.04 0
  351.1653 0.79 8
  351.5802 0.07 1
  352.0720 0.44 4
  352.2371 0.44 4
  352.4798 0.13 1
  352.7404 0.08 1
  353.1842 0.85 8
  353.6991 0.09 1
  353.7960 0.08 1
  353.8987 0.17 2
  354.2499 0.50 5
  354.5250 0.16 2
  354.7210 0.14 1
  355.1577 0.96 10
  355.3107 0.31 3
  355.5966 0.16 2
  355.7310 0.02 0
  355.9357 0.05 0
  356.1447 0.19 2
  356.2812 0.23 2
  356.5269 0.20 2
  357.1513 0.60 6
  357.4732 0.06 1
  357.7570 0.19 2
  358.1465 0.29 3
  358.6812 0.22 2
  358.8975 0.14 1
  359.2001 0.73 7
  359.3992 0.28 3
  359.8405 0.09 1
  359.9785 0.14 1
  360.2912 0.49 5
  360.6873 0.09 1
  360.8527 0.16 2
  361.1093 0.23 2
  361.2948 0.16 2
  361.5616 0.15 1
  361.7233 0.10 1
  362.1986 0.31 3
  362.4208 0.05 0
  362.7825 0.08 1
  362.9580 0.25 2
  363.2212 0.57 6
  363.5563 0.10 1
  363.7224 0.12 1
  363.8972 0.11 1
  364.1116 0.17 2
  364.2288 0.12 1
  364.3978 0.10 1
  364.5654 0.17 2
  364.7920 0.09 1
  364.9474 0.37 4
  365.1981 0.70 7
  365.5852 0.23 2
  365.6973 0.15 1
  365.9854 0.12 1
  366.1980 0.28 3
  366.5313 0.22 2
  366.6139 0.12 1
  366.9258 0.18 2
  367.2138 0.84 8
  367.3604 0.35 3
  367.5472 0.05 0
  367.6823 0.04 0
  368.0732 0.10 1
  368.2536 0.45 4
  368.3578 0.24 2
  368.5288 0.08 1
  369.1864 1.10 11
  369.6097 0.06 1
  369.7412 0.01 0
  370.0043 0.10 1
  370.1660 0.28 3
  370.2437 0.15 1
  370.7763 0.09 1
  371.1760 0.85 8
  371.3830 0.35 3
  371.5081 0.19 2
  371.9157 0.16 2
  372.2637 0.34 3
  372.6527 0.13 1
  372.8008 0.07 1
  373.2208 0.95 9
  373.4854 0.15 1
  373.6343 0.19 2
  373.8630 0.12 1
  374.1542 0.44 4
  374.3405 0.34 3
  374.6318 0.24 2
  374.9411 0.12 1
  375.0446 0.09 1
  375.1806 0.31 3
  375.3281 0.50 5
  375.5194 0.15 1
  376.0596 0.13 1
  376.3423 0.20 2
  376.4452 0.10 1
  376.7819 0.11 1
  377.1611 0.22 2
  377.3913 0.06 1
  377.6136 0.15 1
  378.0346 0.13 1
  378.1591 0.20 2
  378.3145 0.17 2
  378.5311 0.14 1
  378.6909 0.12 1
  378.7988 0.11 1
  378.9370 0.14 1
  379.1644 0.50 5
  379.5428 0.24 2
  379.6729 0.21 2
  379.9288 0.25 2
  380.1187 0.12 1
  380.2725 0.18 2
  380.4860 0.22 2
  380.6708 0.11 1
  380.7909 0.05 0
  381.2568 0.85 8
  381.5659 0.32 3
  381.8198 0.27 3
  382.2217 0.37 4
  382.4396 0.26 3
  383.2199 0.93 9
  383.3731 0.46 5
  383.5199 0.18 2
  383.7773 0.11 1
  384.1024 0.26 3
  384.2183 0.12 1
  384.4139 0.15 1
  384.6038 0.12 1
  385.1865 1.31 13
  385.3448 0.79 8
  385.5534 0.21 2
  385.7066 0.18 2
  386.2390 0.48 5
  386.4016 0.21 2
  386.5470 0.11 1
  386.8801 0.16 2
  387.0370 0.24 2
  387.2298 0.18 2
  387.4277 0.10 1
  387.7983 0.11 1
  387.9984 0.15 1
  388.1416 0.13 1
  388.3568 0.10 1
  388.7605 0.09 1
  388.8987 0.09 1
  389.1067 0.06 1
  389.2867 0.15 1
  389.4342 0.09 1
  389.6178 0.19 2
  389.8776 0.07 1
  390.4261 0.05 0
  390.6802 0.07 1
  390.9236 0.16 2
  391.1035 0.08 1
  391.2900 0.23 2
  391.6356 0.01 0
  392.0294 0.16 2
  392.1029 0.10 1
  392.2419 0.08 1
  392.3945 0.05 0
  392.9396 0.11 1
  393.0281 0.03 0
  393.2629 0.31 3
  393.3493 0.12 1
  393.7591 0.18 2
  393.8909 0.13 1
  394.0320 0.11 1
  394.1804 0.27 3
  394.2740 0.14 1
  394.3691 0.05 0
  394.6334 0.05 0
  395.2406 0.77 8
  395.5914 0.12 1
  395.8853 0.04 0
  396.1129 0.23 2
  396.2246 0.41 4
  396.4191 0.11 1
  396.6359 0.18 2
  396.7426 0.07 1
  396.9781 0.13 1
  397.2663 0.63 6
  397.5480 0.12 1
  397.7577 0.09 1
  397.9220 0.09 1
  398.2289 0.18 2
  398.3846 0.11 1
  398.7355 0.05 0
  399.2731 1.22 12
  399.5066 0.18 2
  399.6399 0.14 1
  399.8582 0.14 1
  400.2763 1.31 13
  400.3952 0.61 6
  400.5970 0.08 1
  400.7375 0.12 1
  400.9509 0.27 3
  401.2738 1.58 16
  401.4655 0.72 7
  401.8051 0.10 1
  401.9492 0.04 0
  402.0876 0.24 2
  402.3003 0.16 2
  402.5043 0.11 1
  402.8122 0.13 1
  402.9931 0.13 1
  403.2022 0.31 3
  403.7069 0.11 1
  403.9780 0.09 1
  404.2852 0.03 0
  404.3926 0.10 1
  404.4993 0.10 1
  404.6255 0.08 1
  404.7135 0.07 1
  404.9327 0.12 1
  405.2176 0.29 3
  405.3517 0.06 1
  405.6719 0.09 1
  405.8918 0.11 1
  406.1414 0.15 1
  406.3556 0.03 0
  406.5201 0.09 1
  406.7963 0.11 1
  407.1656 0.19 2
  407.8004 0.10 1
  408.3601 0.12 1
  408.6162 0.11 1
  408.8464 0.05 0
  409.2699 1.00 10
  409.5678 0.08 1
  409.8514 0.11 1
  410.2317 0.46 5
  410.3767 0.29 3
  410.7678 0.11 1
  410.8912 0.21 2
  411.2556 0.69 7
  411.5825 0.10 1
  412.2558 0.45 4
  412.4567 0.22 2
  412.6439 0.08 1
  412.7504 0.11 1
  412.9326 0.09 1
  413.2587 1.41 14
  413.5619 0.23 2
  413.6627 0.12 1
  413.8419 0.10 1
  414.0104 0.20 2
  414.3021 0.88 9
  414.7025 0.06 1
  414.8458 0.14 1
  415.2930 2.38 24
  415.6415 0.02 0
  415.8374 0.11 1
  416.1046 0.02 0
  416.2991 0.09 1
  416.4108 0.11 1
  416.5001 0.11 1
  416.8796 0.09 1
  417.2484 0.40 4
  417.4264 0.14 1
  417.6230 0.11 1
  417.7570 0.05 0
  418.2548 0.26 3
  418.4565 0.11 1
  418.5329 0.06 1
  419.0271 0.06 1
  419.3246 0.14 1
  420.0898 0.06 1
  420.4523 0.12 1
  420.6519 0.21 2
  421.0006 0.11 1
  421.2744 0.46 5
  421.4633 0.14 1
  421.7133 0.13 1
  421.9814 0.15 1
  422.2848 0.18 2
  422.4225 0.12 1
  422.6142 0.08 1
  422.7202 0.11 1
  422.9537 0.15 1
  423.2398 0.24 2
  423.4770 0.14 1
  423.7220 0.16 2
  423.9022 0.03 0
  424.1141 0.33 3
  424.3513 0.63 6
  424.4760 0.20 2
  424.5921 0.04 0
  424.7737 0.16 2
  425.3087 3.36 34
  425.7643 0.10 1
  425.9294 0.18 2
  426.2286 0.69 7
  426.4341 0.61 6
  426.6006 0.08 1
  426.7427 0.20 2
  427.2654 1.87 19
  427.6426 0.28 3
  428.2793 2.53 25
  428.5670 0.18 2
  428.7495 0.15 1
  428.8981 0.23 2
  429.2778 2.37 24
  429.4363 1.12 11
  429.7078 0.10 1
  429.9066 0.03 0
  430.2301 0.15 1
  430.3792 0.21 2
  430.5470 0.11 1
  431.0859 0.03 0
  431.2264 0.04 0
  431.3935 0.18 2
  431.7588 0.09 1
  432.0182 0.08 1
  432.1284 0.14 1
  432.3460 0.09 1
  432.4670 0.06 1
  432.6515 0.07 1
  432.7718 0.08 1
  433.0679 0.02 0
  433.3252 0.28 3
  433.4729 0.05 0
  433.9146 0.04 0
  434.0227 0.10 1
  435.1419 0.13 1
  435.6500 0.05 0
  435.9600 0.16 2
  436.3484 0.11 1
  436.4890 0.05 0
  436.6079 0.03 0
  436.8501 0.11 1
  437.1377 0.14 1
  437.2538 0.09 1
  437.4138 0.15 1
  437.6906 0.13 1
  438.1282 0.12 1
  438.4433 0.07 1
  438.8095 0.10 1
  438.9176 0.06 1
  439.0618 0.03 0
  439.2399 0.25 2
  439.4137 0.21 2
  439.6494 0.10 1
  439.8535 0.16 2
  440.1902 0.28 3
  440.3972 0.34 3
  440.6077 0.15 1
  440.7014 0.11 1
  440.8190 0.10 1
  441.1911 1.09 11
  441.3050 0.56 6
  441.5394 0.13 1
  441.6389 0.04 0
  442.2735 4.12 41
  443.2840 13.10 131
  443.7463 0.35 3
  444.3075 6.48 65
  444.6407 0.29 3
  444.8276 0.25 2
  445.0043 0.16 2
  445.2510 0.10 1
  445.4335 0.22 2
  445.5591 0.13 1
  445.6918 0.05 0
  445.8505 0.22 2
  446.0403 0.06 1
  446.1881 0.20 2
  446.2964 0.17 2
  446.5222 0.09 1
  446.6657 0.02 0
  446.8432 0.11 1
  446.9572 0.05 0
  447.6816 0.08 1
  447.7906 0.10 1
  449.0440 0.10 1
  449.2634 0.11 1
  449.4452 0.05 0
  449.5636 0.04 0
  450.2355 0.05 0
  450.3582 0.04 0
  451.2668 0.11 1
  451.9186 0.07 1
  452.1438 0.13 1
  452.2478 0.07 1
  452.3994 0.04 0
  453.2267 0.10 1
  453.7183 0.10 1
  454.3933 0.11 1
  455.1911 0.09 1
  455.5413 0.10 1
  455.8633 0.10 1
  456.9840 0.07 1
  457.1718 0.26 3
  457.3957 0.12 1
  458.0557 0.07 1
  458.2681 0.13 1
  458.4421 0.07 1
  459.2438 0.13 1
  459.7949 0.12 1
  460.0441 0.09 1
  460.5209 0.01 0
  460.8438 0.06 1
  461.3307 0.05 0
  461.4889 0.06 1
  461.7786 0.04 0
  462.0350 0.11 1
  462.2872 0.13 1
  463.1693 0.11 1
  463.4359 0.17 2
  463.5573 0.03 0
  464.6606 0.10 1
  465.3000 0.02 0
  465.6233 0.10 1
  466.2093 0.07 1
  466.4064 0.13 1
  466.5818 0.05 0
  467.0964 0.17 2
  467.4017 0.12 1
  467.6414 0.15 1
  467.8204 0.10 1
  468.0773 0.18 2
  468.2917 0.14 1
  468.4671 0.16 2
  468.6339 0.11 1
  468.8432 0.19 2
  469.1501 0.29 3
  469.3175 0.16 2
  469.5435 0.18 2
  469.6922 0.11 1
  469.8546 0.07 1
  470.0821 0.11 1
  470.3189 0.17 2
  471.1643 0.15 1
  472.2936 0.06 1
  472.4677 0.05 0
  472.7609 0.11 1
  473.0945 0.07 1
  473.1949 0.08 1
  473.4469 0.07 1
  474.0839 0.12 1
  475.0487 0.08 1
  475.1896 0.03 0
  475.7407 0.10 1
  476.2246 0.09 1
  476.5880 0.09 1
  476.7230 0.15 1
  477.1658 0.11 1
  477.8470 0.05 0
  478.9827 0.10 1
  479.1763 0.10 1
  479.2797 0.11 1
  479.7897 0.11 1
  480.0968 0.09 1
  480.4169 0.11 1
  481.1590 0.22 2
  481.3635 0.16 2
  481.4813 0.13 1
  481.6901 0.33 3
  481.9907 0.19 2
  482.1678 0.21 2
  482.4684 0.26 3
  482.6830 0.10 1
  482.8644 0.08 1
  483.1130 0.12 1
  483.2684 0.15 1
  483.3956 0.13 1
  483.5770 0.12 1
  483.7743 0.05 0
  484.0193 0.08 1
  484.2932 0.16 2
  484.4927 0.06 1
  484.5946 0.01 0
  484.9618 0.11 1
  486.1696 0.10 1
  486.4559 0.16 2
  486.5397 0.10 1
  487.1173 0.12 1
  487.9689 0.09 1
  488.3376 0.10 1
  488.5618 0.02 0
  489.2559 0.02 0
  489.4359 0.25 2
  490.2110 0.14 1
  490.4648 0.08 1
  491.9277 0.10 1
  493.1310 0.11 1
  493.8140 0.10 1
  494.4370 0.20 2
  494.6392 0.14 1
  495.0890 0.01 0
  495.5150 0.15 1
  495.8934 0.08 1
  496.0956 0.06 1
  496.2407 0.14 1
  496.3678 0.27 3
  496.4675 0.07 1
  497.2575 0.08 1
  497.5333 0.08 1
  498.0786 0.05 0
  498.3509 0.16 2
  498.4801 0.11 1
  499.2002 0.11 1
  499.3208 0.05 0
  499.4544 0.28 3
  499.5902 0.22 2
  499.8986 0.07 1
  500.1666 0.05 0
  500.4057 0.04 0
  500.5812 0.04 0
  501.0160 0.17 2
  501.1685 0.09 1
  501.4711 0.30 3
  501.6307 0.08 1
  501.8648 0.11 1
  502.1313 0.07 1
  502.3611 0.16 2
  502.6038 0.15 1
  503.1933 0.25 2
  503.3580 0.09 1
  503.4881 0.20 2
  504.3247 0.45 4
  504.5552 0.28 3
  504.6932 0.12 1
  505.1346 0.10 1
  505.2741 0.09 1
  505.4779 0.07 1
  505.8782 0.06 1
  505.9670 0.07 1
  506.2004 0.16 2
  506.3934 0.09 1
  506.6586 0.11 1
  506.8457 0.13 1
  506.9245 0.09 1
  507.2150 0.11 1
  507.5120 0.29 3
  507.6471 0.13 1
  507.7816 0.11 1
  508.2758 0.22 2
  508.5115 0.11 1
  508.8287 0.10 1
  509.2472 0.12 1
  509.4250 0.08 1
  509.5623 0.10 1
  509.9837 0.12 1
  510.2114 0.23 2
  510.8503 0.11 1
  511.0382 0.02 0
  511.3086 0.09 1
  511.4734 0.09 1
  511.6461 0.11 1
  512.3474 0.21 2
  512.6459 0.12 1
  512.8570 0.07 1
  513.1389 0.11 1
  513.3637 0.26 3
  514.2833 0.22 2
  514.5566 0.11 1
  515.0070 0.11 1
  515.3143 0.11 1
  516.0453 0.07 1
  516.1415 0.06 1
  516.5450 0.14 1
  516.7901 0.15 1
  517.3411 0.27 3
  517.5269 0.49 5
  517.8914 0.16 2
  518.0563 0.06 1
  518.1662 0.08 1
  518.3347 0.17 2
  518.5212 0.25 2
  519.1179 0.08 1
  519.2654 0.18 2
  519.4556 0.06 1
  519.6499 0.16 2
  519.8375 0.11 1
  519.9818 0.09 1
  520.2198 0.16 2
  520.3988 0.05 0
  520.6124 0.01 0
  520.8396 0.04 0
  521.6730 0.09 1
  522.3636 0.16 2
  522.6104 0.12 1
  522.8802 0.07 1
  523.3262 0.08 1
  523.6062 0.04 0
  523.9742 0.01 0
  524.1857 0.14 1
  524.3762 0.16 2
  524.5782 0.19 2
  524.7897 0.11 1
  525.0510 0.22 2
  525.3419 0.11 1
  525.4883 0.13 1
  525.7193 0.10 1
  525.8636 0.12 1
  525.9589 0.07 1
  526.5406 0.05 0
  526.8417 0.08 1
  526.9427 0.04 0
  527.1008 0.11 1
  527.2249 0.18 2
  527.4003 0.05 0
  527.8529 0.05 0
  528.1171 0.06 1
  528.3734 0.19 2
  528.5394 0.05 0
  528.7812 0.14 1
  528.9617 0.14 1
  529.1450 0.11 1
  529.2909 0.27 3
  529.6554 0.21 2
  529.8345 0.10 1
  530.2070 0.16 2
  530.3737 0.13 1
  530.6510 0.06 1
  530.8264 0.06 1
  530.9924 0.15 1
  531.1080 0.15 1
  531.2769 0.06 1
  531.7051 0.10 1
  531.7989 0.08 1
  532.0300 0.04 0
  532.1527 0.06 1
  532.2877 0.24 2
  532.5065 0.12 1
  532.6653 0.05 0
  532.8488 0.19 2
  532.9462 0.06 1
  533.3643 0.15 1
  533.5455 0.24 2
  533.6582 0.11 1
  533.7701 0.19 2
  533.9001 0.18 2
  534.0243 0.10 1
  534.1362 0.11 1
  534.3146 0.19 2
  534.7117 0.18 2
  534.8489 0.12 1
  534.9269 0.05 0
  535.4656 0.19 2
  535.5848 0.07 1
  535.7422 0.11 1
  535.9365 0.22 2
  536.4066 0.18 2
  536.7988 0.11 1
  536.9880 0.06 1
  537.1686 0.21 2
  537.3477 0.33 3
  537.5160 0.38 4
  537.7543 0.10 1
  537.9060 0.04 0
  538.0259 0.26 3
  538.2686 0.05 0
  538.4362 0.26 3
  538.6146 0.05 0
  538.8045 0.16 2
  538.9172 0.07 1
  539.1519 0.14 1
  539.3751 0.14 1
  539.5659 0.11 1
  539.7009 0.05 0
  539.9927 0.09 1
  540.1560 0.22 2
  540.3243 0.31 3
  540.4637 0.20 2
  540.7823 0.11 1
  540.8675 0.06 1
  541.1528 0.08 1
  541.3869 0.11 1
  541.4982 0.08 1
  541.6238 0.11 1
  541.7178 0.03 0
  541.8500 0.11 1
  542.4373 0.11 1
  543.2219 0.12 1
  543.4885 0.05 0
  543.6771 0.01 0
  543.8570 0.02 0
  544.0651 0.04 0
  544.2053 0.09 1
  544.3309 0.06 1
  544.6257 0.05 0
  544.9964 0.13 1
  545.1959 0.12 1
  545.3830 0.40 4
  545.5549 0.47 5
  545.8389 0.10 1
  546.0825 0.11 1
  546.3101 0.16 2
  546.5623 0.14 1
  546.7306 0.05 0
  546.8571 0.19 2
  547.0717 0.07 1
  547.4540 0.14 1
  547.5674 0.16 2
  547.7214 0.15 1
  547.9757 0.05 0
  548.2019 0.10 1
  548.4288 0.11 1
  548.7237 0.23 2
  549.0374 0.25 2
  549.1581 0.24 2
  549.3351 0.13 1
  549.4782 0.17 2
  549.6863 0.18 2
  549.8511 0.14 1
  550.0123 0.25 2
  550.2588 0.22 2
  550.4221 0.14 1
  550.7069 0.38 4
  550.8702 0.22 2
  551.0235 0.12 1
  551.2577 0.28 3
  551.4456 0.44 4
  551.7398 0.27 3
  552.1185 0.40 4
  552.3217 0.35 3
  552.4742 0.34 3
  552.5884 0.27 3
  552.7575 0.27 3
  552.9354 0.21 2
  553.0503 0.06 1
  553.3929 0.46 5
  553.8137 0.44 4
  554.1078 0.54 5
  554.3103 0.33 3
  554.4086 0.15 1
  554.5568 0.21 2
  554.9205 0.58 6
  555.1547 0.27 3
  555.3882 0.37 4
  555.6014 0.44 4
  556.0605 0.40 4
  556.2579 0.28 3
  556.6122 0.34 3
  556.7604 0.42 4
  556.8855 0.18 2
  557.0106 0.12 1
  557.1761 0.21 2
  557.4357 0.23 2
  557.5897 0.33 3
  557.8283 0.46 5
  557.9961 0.41 4
  558.1718 0.26 3
  558.2911 0.25 2
  558.4401 0.46 5
  558.5499 0.25 2
  558.8204 0.14 1
  559.0431 0.30 3
  559.1884 0.18 2
  559.3714 0.36 4
  559.5919 0.50 5
  559.8277 0.29 3
  560.0699 0.57 6
  560.2558 0.39 4
  560.3968 0.25 2
  560.6036 0.18 2
  560.8018 0.11 1
  560.9934 0.23 2
  561.1851 0.17 2
  561.4461 0.43 4
  561.7101 0.24 2
  561.8959 0.30 3
  562.0695 0.17 2
  562.3313 0.20 2
  562.5389 0.28 3
  562.7197 0.13 1
  562.9135 0.18 2
  563.4017 1.62 16
  563.8074 0.61 6
  563.9485 0.27 3
  564.1962 0.06 1
  564.9405 0.20 2
  565.1347 0.19 2
  565.2928 0.39 4
  565.4271 0.35 3
  565.8220 0.56 6
  566.1829 0.82 8
  566.5858 0.57 6
  567.1092 0.84 8
  567.6521 0.94 9
  568.0441 0.75 7
  568.3546 0.87 9
  568.7813 1.24 12
  569.0174 0.95 9
  569.3972 0.97 10
  569.8340 0.95 9
  570.2175 1.08 11
  570.5872 1.17 12
  570.8710 0.78 8
  571.4212 1.81 18
  572.8381 1.63 16
  574.1460 1.72 17
  578.4739 39.75 397
  579.2830 2.27 23
  579.7504 1.61 16
  580.9360 1.21 12
  581.4727 6.40 64
  581.7191 2.97 30
  581.9778 1.91 19
  582.3115 1.41 14
  582.5905 0.82 8
  582.9011 1.32 13
  583.1533 1.23 12
  583.3961 1.46 15
  583.7747 1.45 14
  584.0933 1.16 12
  584.7957 1.42 14
  585.5060 1.48 15
  586.1736 1.41 14
  586.9628 1.76 18
  587.9001 2.11 21
  596.4753 99.97 999
  597.3548 41.70 417
  598.0979 17.69 177
  598.9847 8.81 88
  599.9077 4.24 42
  600.3244 2.68 27
  601.0423 1.85 18
  601.5103 1.61 16
  601.7999 0.87 9
  602.1878 0.94 9
  602.6364 0.79 8
  603.0964 0.48 5
  603.3225 0.36 4
  603.5038 0.33 3
  603.9300 0.32 3
//
