ACCESSION: MSBNK-Kyoto_Univ-CA000156
RECORD_TITLE: Papilioerythrione; FAB-EBEB; MS2; m/z: 580.39; [M]*+
DATE: 2016.01.19 (Created 2007.03.15, modified 2011.05.10)
AUTHORS: Akimoto N, Graduate School of Pharmaceutical Sciences, Kyoto University and Maoka T, Research Institute for Production Development
LICENSE: CC BY-SA
COMMENT: Profile spectrum of this record is given as a JPEG file.
COMMENT: [Profile] CA000156.jpg
CH$NAME: Papilioerythrione
CH$COMPOUND_CLASS: Natural Product; Carotenoid
CH$FORMULA: C40H52O3
CH$EXACT_MASS: 580.39165
CH$SMILES: CC1=CC(=O)CC([C@H]1/C=C/C(=C/C=C/C(=C/C=C/C=C(\C)/C=C/C=C(\C)/C=C/C2=C(C(=O)[C@H](CC2(C)C)O)C)/C)/C)(C)C
CH$IUPAC: InChI=1S/C40H52O3/c1-28(17-13-19-30(3)21-23-35-32(5)25-34(41)26-39(35,7)8)15-11-12-16-29(2)18-14-20-31(4)22-24-36-33(6)38(43)37(42)27-40(36,9)10/h11-25,35,37,42H,26-27H2,1-10H3/b12-11+,17-13+,18-14+,23-21+,24-22+,28-15+,29-16+,30-19+,31-20+/t35-,37-/m0/s1
CH$LINK: CHEMSPIDER 16736342
CH$LINK: PUBCHEM CID:101316822
CH$LINK: INCHIKEY LIMWSSBYWJHLNB-PSHRTHBJSA-N
AC$INSTRUMENT: JMS-HX/HX 110A, JEOL
AC$INSTRUMENT_TYPE: FAB-EBEB
AC$MASS_SPECTROMETRY: MS_TYPE MS2
AC$MASS_SPECTROMETRY: ION_MODE POSITIVE
AC$MASS_SPECTROMETRY: ATOM_GUN_CURRENT 5 mA
AC$MASS_SPECTROMETRY: BOMBARDMENT 6 kV xenon
AC$MASS_SPECTROMETRY: COLLISION_ENERGY 3 kV
AC$MASS_SPECTROMETRY: COLLISION_GAS Ar
AC$MASS_SPECTROMETRY: GAS_PRESSURE adjust to attenuate the intensity of the precursor ion by 30 %
AC$MASS_SPECTROMETRY: IONIZATION FAB
AC$MASS_SPECTROMETRY: MATRIX 1-2 uL m-NBA
AC$MASS_SPECTROMETRY: PROBE_TIP stainless-steel
MS$FOCUSED_ION: BASE_PEAK 580.3223
MS$FOCUSED_ION: PRECURSOR_M/Z 580.39
MS$FOCUSED_ION: PRECURSOR_TYPE [M]+*
PK$SPLASH: splash10-005c-3920010000-4790bf89f6fae15d683d
PK$NUM_PEAK: 1851
PK$PEAK: m/z int. rel.int.
  0.0092 0.01 0
  0.0724 0.01 0
  11.9422 0.01 0
  12.9596 0.10 1
  13.9605 0.12 1
  14.9708 0.45 4
  18.9021 0.09 1
  18.9670 0.01 0
  22.9185 0.22 2
  23.9211 0.01 0
  24.9216 0.11 1
  25.9392 0.79 8
  26.9452 5.57 56
  27.9562 0.59 6
  28.2389 0.01 0
  28.9534 4.45 44
  29.9319 0.12 1
  30.9349 0.64 6
  31.9384 0.03 0
  35.9255 0.03 0
  36.0974 0.01 0
  36.7433 0.02 0
  36.9209 0.94 9
  37.4666 0.01 0
  37.6606 0.03 0
  37.9230 2.35 23
  38.1970 0.05 0
  38.2787 0.01 0
  38.7030 0.03 0
  38.9286 16.22 162
  39.2297 0.04 0
  39.7310 0.01 0
  39.9424 1.97 20
  40.1547 0.01 0
  40.6739 0.04 0
  40.9449 24.21 242
  41.1805 0.01 0
  41.3052 0.02 0
  41.9385 0.39 4
  42.6387 0.02 0
  42.9318 16.26 162
  43.9253 0.39 4
  44.9407 0.48 5
  46.9091 0.08 1
  47.9136 0.03 0
  48.4990 0.01 0
  48.9141 0.31 3
  49.2219 0.01 0
  49.3744 0.06 1
  49.5078 0.01 0
  49.9145 5.76 58
  50.3671 0.03 0
  50.7175 0.04 0
  50.9214 10.58 106
  51.2955 0.03 0
  51.3930 0.04 0
  51.5365 0.01 0
  51.9305 3.82 38
  52.0860 0.03 0
  52.5098 0.04 0
  52.6940 0.06 1
  52.9326 17.17 172
  53.1997 0.04 0
  53.2934 0.02 0
  53.7137 0.02 0
  53.9284 0.67 7
  54.1316 0.04 0
  54.6487 0.01 0
  54.9414 26.27 263
  55.9538 1.04 10
  56.9507 4.11 41
  57.9018 0.09 1
  58.1648 0.03 0
  58.5397 0.01 0
  58.9482 1.25 12
  59.0973 0.03 0
  59.9193 0.14 1
  60.2394 0.04 0
  60.4037 0.02 0
  60.9091 0.97 10
  61.3630 0.02 0
  61.4865 0.02 0
  61.9119 2.90 29
  62.0711 0.06 1
  62.2681 0.02 0
  62.5137 0.01 0
  62.9187 8.61 86
  63.2028 0.08 1
  63.3082 0.08 1
  63.5749 0.03 0
  63.9275 1.83 18
  64.1227 0.04 0
  64.2761 0.02 0
  64.4262 0.05 0
  64.6084 0.08 1
  64.9282 13.89 139
  65.2034 0.05 0
  65.2726 0.04 0
  65.7424 0.07 1
  65.9419 2.83 28
  66.2741 0.02 0
  66.3989 0.04 0
  66.6978 0.07 1
  66.9359 15.43 154
  67.9178 0.57 6
  68.3122 0.01 0
  68.9329 18.68 187
  69.1662 0.03 0
  69.9307 0.35 3
  70.3796 0.01 0
  70.9269 2.87 29
  71.5091 0.04 0
  71.9404 0.11 1
  72.6955 0.01 0
  72.9053 0.44 4
  73.3623 0.05 0
  73.4955 0.01 0
  73.8966 2.54 25
  74.9010 2.94 29
  75.1315 0.07 1
  75.4193 0.17 2
  75.5802 0.12 1
  75.8958 1.79 18
  76.1288 0.15 1
  76.4672 0.11 1
  76.9107 35.05 350
  77.3032 0.28 3
  77.3906 0.15 1
  77.5419 0.23 2
  77.9200 8.43 84
  78.1714 0.15 1
  78.3072 0.11 1
  78.4560 0.10 1
  78.5684 0.08 1
  78.9234 27.55 275
  79.3384 0.16 2
  79.6606 0.01 0
  79.9293 2.94 29
  80.1994 0.10 1
  80.5135 0.06 1
  80.6349 0.05 0
  80.9316 23.23 232
  81.1207 0.16 2
  81.3934 0.10 1
  81.9165 0.54 5
  82.1423 0.03 0
  82.3886 0.08 1
  82.9184 11.74 117
  83.3673 0.01 0
  83.9141 0.33 3
  84.4964 0.02 0
  84.6705 0.01 0
  84.9202 4.41 44
  85.2048 0.05 0
  85.5562 0.02 0
  85.8989 0.72 7
  86.6112 0.02 0
  86.8886 1.88 19
  87.8951 0.65 6
  88.2073 0.10 1
  88.4163 0.16 2
  88.5940 0.22 2
  88.9103 4.82 48
  89.2589 0.46 5
  89.4836 0.16 2
  89.9085 2.07 21
  90.2057 0.22 2
  90.4224 0.20 2
  90.9169 62.27 622
  91.1796 0.12 1
  91.4625 0.14 1
  91.9168 5.97 60
  92.3380 0.03 0
  92.9312 27.33 273
  93.1749 0.15 1
  93.3442 0.11 1
  93.4787 0.01 0
  93.6273 0.07 1
  93.9387 2.66 27
  94.1744 0.03 0
  94.3018 0.02 0
  94.4224 0.15 1
  94.6663 0.03 0
  94.9421 10.56 106
  95.2832 0.06 1
  95.4427 0.10 1
  95.6054 0.01 0
  95.9316 0.84 8
  96.4192 0.03 0
  96.6567 0.02 0
  96.9331 1.76 18
  97.1899 0.03 0
  97.5308 0.03 0
  97.6522 0.03 0
  97.7818 0.23 2
  97.9101 0.57 6
  98.0656 0.02 0
  98.3200 0.08 1
  98.9113 0.77 8
  99.9121 0.23 2
  100.4303 0.14 1
  100.6492 0.15 1
  100.9142 1.08 11
  101.1576 0.10 1
  101.3129 0.08 1
  101.4545 0.02 0
  101.9208 4.21 42
  102.1976 0.19 2
  102.4479 0.13 1
  102.9175 11.45 114
  103.2915 0.04 0
  103.3788 0.05 0
  103.4730 0.01 0
  103.9273 5.88 59
  104.1458 0.06 1
  104.9358 56.64 566
  105.1729 0.33 3
  105.3507 0.08 1
  105.5034 0.12 1
  105.5704 0.07 1
  105.6669 0.08 1
  105.9412 6.94 69
  106.2051 0.02 0
  106.4089 0.18 2
  106.5224 0.13 1
  106.9503 21.39 214
  107.2357 0.10 1
  107.4105 0.17 2
  107.5879 0.01 0
  107.9365 3.61 36
  108.5446 0.07 1
  108.9510 14.85 148
  109.1754 0.13 1
  109.4432 0.05 0
  109.5331 0.02 0
  109.6338 0.05 0
  109.9276 0.58 6
  110.2291 0.05 0
  110.4565 0.05 0
  110.5441 0.10 1
  110.6234 0.05 0
  110.9316 3.05 30
  111.6229 0.02 0
  111.9632 0.34 3
  112.2683 0.04 0
  112.5116 0.15 1
  112.9118 1.65 16
  113.1452 0.31 3
  113.3078 0.37 4
  113.5363 0.27 3
  113.8979 1.53 15
  114.9013 37.29 373
  115.2853 0.26 3
  115.4389 0.29 3
  115.9127 12.18 122
  116.1720 0.23 2
  116.9219 30.02 300
  117.1676 0.32 3
  117.2631 0.10 1
  117.4496 0.17 2
  117.9217 6.84 68
  118.2519 0.05 0
  118.3935 0.14 1
  118.9262 43.76 437
  119.3559 0.08 1
  119.5079 0.04 0
  119.9354 4.77 48
  120.2883 0.06 1
  120.4002 0.24 2
  120.4898 0.11 1
  120.9204 16.17 162
  121.2188 0.18 2
  121.4103 0.07 1
  121.5877 0.04 0
  121.9184 2.86 29
  122.2171 0.12 1
  122.3576 0.12 1
  122.4647 0.13 1
  122.9203 5.98 60
  123.3138 0.05 0
  123.4982 0.05 0
  123.5919 0.07 1
  123.9171 1.46 15
  124.4044 0.01 0
  124.9249 3.07 31
  125.2899 0.15 1
  125.4039 0.06 1
  125.5115 0.14 1
  125.8678 1.41 14
  126.2519 0.14 1
  126.8956 12.85 128
  127.2364 0.46 5
  127.8958 38.17 381
  128.3372 0.53 5
  128.8940 40.32 403
  129.1657 0.16 2
  129.3974 0.18 2
  129.9050 14.87 149
  130.4221 0.34 3
  130.9103 29.10 291
  131.1613 0.17 2
  131.3391 0.20 2
  131.9018 7.14 71
  132.2688 0.17 2
  132.4786 0.20 2
  132.9192 25.64 256
  133.1728 0.12 1
  133.2814 0.08 1
  133.4739 0.17 2
  133.9131 4.18 42
  134.2927 0.23 2
  134.5538 0.20 2
  134.9076 21.55 215
  135.1839 0.03 0
  135.3645 0.14 1
  135.4942 0.10 1
  135.9091 2.25 22
  136.1611 0.12 1
  136.2720 0.05 0
  136.9135 12.18 122
  137.1442 0.11 1
  137.2449 0.09 1
  137.4004 0.11 1
  137.5992 0.12 1
  137.8994 1.27 13
  138.2364 0.12 1
  138.4026 0.09 1
  138.8825 4.76 48
  139.2159 0.04 0
  139.3915 0.14 1
  139.9171 1.88 19
  140.2325 0.30 3
  140.8866 28.68 287
  141.2135 0.28 3
  141.8952 24.45 244
  142.1770 0.16 2
  142.3900 0.38 4
  142.9055 38.05 380
  143.9043 11.67 117
  144.3139 0.25 2
  144.9134 33.29 333
  145.2562 0.27 3
  145.4559 0.25 2
  145.9024 5.49 55
  146.1089 0.13 1
  146.2798 0.05 0
  146.9169 16.42 164
  147.1592 0.14 1
  147.3878 0.19 2
  147.5384 0.11 1
  147.8973 1.42 14
  148.2106 0.11 1
  148.3349 0.08 1
  148.5168 0.03 0
  148.9249 6.22 62
  149.2895 0.07 1
  149.4067 0.19 2
  149.5020 0.05 0
  149.9085 1.70 17
  150.1682 0.32 3
  150.8931 6.97 70
  151.2650 0.35 3
  151.8971 13.75 137
  152.1592 0.39 4
  152.8881 17.24 172
  153.2607 0.23 2
  153.8992 8.41 84
  154.2270 0.27 3
  154.4304 0.24 2
  154.9146 25.51 255
  155.2234 0.15 1
  155.3691 0.37 4
  155.9316 16.88 169
  156.3665 0.24 2
  156.5424 0.35 3
  156.9382 30.60 306
  157.3968 0.31 3
  157.9376 6.39 64
  158.3179 0.18 2
  158.4747 0.15 1
  158.9266 36.79 368
  159.2050 0.35 3
  159.4287 0.09 1
  159.9384 3.26 33
  160.2986 0.21 2
  160.5319 0.19 2
  160.9484 9.64 96
  161.5089 0.17 2
  161.9331 1.42 14
  162.4037 0.30 3
  162.9474 4.04 40
  163.1926 0.26 3
  163.4928 0.45 4
  163.9385 2.24 22
  164.9269 26.80 268
  165.1993 0.49 5
  165.3100 0.18 2
  165.9356 9.36 94
  166.2337 0.37 4
  166.9403 19.19 192
  167.3993 0.23 2
  167.9492 8.66 87
  168.3669 0.21 2
  168.9587 22.09 221
  169.2197 0.34 3
  169.3768 0.20 2
  169.9615 8.35 83
  170.4107 0.17 2
  170.9643 15.06 150
  171.5268 0.17 2
  171.9558 4.68 47
  172.2402 0.09 1
  172.4783 0.26 3
  172.9614 7.85 78
  173.3389 0.07 1
  173.5139 0.12 1
  173.9435 2.33 23
  174.1812 0.06 1
  174.3206 0.14 1
  174.9586 4.95 49
  175.3232 0.23 2
  175.4209 0.07 1
  175.9192 2.46 25
  176.1653 0.10 1
  176.3528 0.15 1
  176.9323 3.13 31
  177.9306 13.67 137
  178.4628 0.25 2
  178.9296 20.71 207
  179.4304 0.17 2
  179.9388 9.17 92
  180.1781 0.28 3
  180.9384 19.63 196
  181.2970 0.21 2
  181.4540 0.14 1
  181.9387 7.84 78
  182.2495 0.25 2
  182.9457 16.96 169
  183.3217 0.24 2
  183.9460 4.23 42
  184.2768 0.17 2
  184.4192 0.18 2
  184.9509 9.77 98
  185.2019 0.12 1
  185.3722 0.20 2
  185.9211 2.05 20
  186.2843 0.25 2
  186.4350 0.10 1
  186.9348 4.65 46
  187.2669 0.20 2
  187.4646 0.23 2
  187.9531 2.01 20
  188.1699 0.22 2
  188.9218 8.54 85
  189.3937 0.30 3
  189.9250 3.63 36
  190.4190 0.36 4
  190.9240 10.17 102
  191.2318 0.14 1
  191.3836 0.11 1
  191.9148 8.10 81
  192.3406 0.34 3
  192.9348 15.88 159
  193.2183 0.17 2
  193.4733 0.15 1
  193.9465 7.32 73
  194.9369 18.89 189
  195.3013 0.14 1
  195.4344 0.24 2
  195.9464 6.05 60
  196.2632 0.22 2
  196.4810 0.21 2
  196.9523 14.40 144
  197.2426 0.27 3
  197.6088 0.35 3
  197.9464 2.69 27
  198.2178 0.19 2
  198.4406 0.19 2
  198.5650 0.14 1
  198.9596 7.27 73
  199.2509 0.14 1
  199.4198 0.14 1
  199.5731 0.33 3
  199.9473 1.93 19
  200.2039 0.34 3
  200.3688 0.28 3
  200.9410 3.98 40
  201.2908 0.19 2
  201.9064 6.07 61
  202.3852 0.21 2
  202.9334 8.33 83
  203.9265 3.29 33
  204.9436 7.79 78
  205.3181 0.13 1
  205.9419 6.00 60
  206.3029 0.13 1
  206.9455 10.13 101
  207.3740 0.22 2
  207.5505 0.23 2
  207.9620 5.09 51
  208.3358 0.29 3
  208.9563 12.18 122
  209.2106 0.32 3
  209.4244 0.16 2
  209.9580 3.59 36
  210.2400 0.12 1
  210.4229 0.21 2
  210.9650 7.73 77
  211.3166 0.21 2
  211.4969 0.11 1
  211.9759 1.48 15
  212.2863 0.04 0
  212.9459 3.74 37
  213.2737 0.21 2
  213.4273 0.11 1
  213.9640 1.19 12
  214.1555 0.31 3
  214.2506 0.16 2
  214.9328 7.52 75
  215.3526 0.18 2
  215.9553 3.32 33
  216.1980 0.23 2
  216.4091 0.16 2
  216.9492 6.58 66
  217.3231 0.09 1
  217.5467 0.08 1
  217.9573 3.05 30
  218.2976 0.11 1
  218.4909 0.20 2
  218.9694 6.32 63
  219.2325 0.22 2
  219.3796 0.15 1
  219.9757 3.12 31
  220.3059 0.18 2
  220.4040 0.14 1
  220.5063 0.07 1
  220.9949 7.82 78
  221.3812 0.23 2
  221.9868 2.88 29
  222.2710 0.03 0
  223.0021 7.90 79
  223.2767 0.34 3
  223.4289 0.10 1
  223.9921 2.01 20
  224.3125 0.10 1
  224.9978 4.62 46
  225.4146 0.31 3
  225.9568 2.01 20
  226.3142 0.21 2
  226.4811 0.23 2
  226.9924 3.48 35
  227.3105 0.22 2
  227.9578 2.48 25
  228.3737 0.04 0
  228.5297 0.10 1
  228.9880 5.37 54
  229.4082 0.15 1
  229.6156 0.17 2
  229.9978 2.83 28
  230.4464 0.15 1
  230.9951 5.73 57
  231.2968 0.11 1
  231.5003 0.02 0
  232.0028 2.95 29
  232.4777 0.27 3
  233.0109 5.65 56
  233.2450 0.31 3
  233.3696 0.16 2
  233.4860 0.03 0
  234.0201 2.32 23
  234.3665 0.17 2
  234.5556 0.21 2
  235.0227 5.30 53
  235.4545 0.15 1
  236.0042 2.01 20
  236.1048 0.90 9
  236.2885 0.05 0
  236.4133 0.06 1
  236.5527 0.16 2
  237.0215 3.94 39
  237.3725 0.14 1
  237.4800 0.09 1
  237.5813 0.06 1
  238.0149 1.22 12
  238.4118 0.11 1
  238.5290 0.02 0
  239.0017 4.03 40
  239.4827 0.23 2
  239.9832 1.38 14
  240.2665 0.18 2
  240.4415 0.05 0
  240.9805 3.08 31
  241.3597 0.22 2
  241.9815 1.52 15
  242.3658 0.17 2
  242.4895 0.08 1
  242.9913 3.85 38
  243.2512 0.17 2
  243.5522 0.11 1
  244.0090 1.95 19
  244.2114 0.20 2
  244.4109 0.23 2
  244.9917 4.24 42
  245.3130 0.18 2
  245.9955 2.01 20
  246.2773 0.21 2
  247.0046 4.30 43
  247.4738 0.09 1
  248.0265 1.37 14
  248.2292 0.18 2
  248.4032 0.24 2
  249.0245 3.96 40
  249.3379 0.16 2
  249.4898 0.15 1
  249.9976 1.58 16
  250.2527 0.09 1
  250.3941 0.10 1
  250.6080 0.04 0
  251.0032 2.56 26
  251.3810 0.21 2
  251.9679 2.45 24
  252.3974 0.33 3
  253.0048 2.49 25
  253.4066 0.16 2
  254.0037 1.18 12
  254.3427 0.21 2
  255.0014 2.84 28
  255.3371 0.15 1
  255.6254 0.20 2
  256.0233 1.35 13
  256.2787 0.09 1
  256.5355 0.18 2
  256.6395 0.07 1
  256.9983 2.59 26
  257.3417 0.14 1
  257.5155 0.19 2
  258.0350 1.57 16
  258.3890 0.10 1
  258.5447 0.06 1
  258.7081 0.12 1
  259.0231 2.80 28
  260.0186 1.16 12
  260.2729 0.19 2
  260.4902 0.06 1
  261.0143 2.69 27
  261.2924 0.16 2
  261.4120 0.03 0
  261.6007 0.04 0
  262.0005 0.85 8
  262.4829 0.13 1
  262.6494 0.10 1
  263.0291 2.50 25
  263.3221 0.18 2
  263.4815 0.17 2
  263.6060 0.08 1
  264.0439 0.96 10
  264.1824 0.56 6
  264.4146 0.24 2
  264.9988 1.66 17
  265.3319 0.07 1
  265.5929 0.15 1
  266.0030 1.00 10
  266.1787 0.30 3
  266.5427 0.09 1
  267.0390 2.06 21
  267.2925 0.11 1
  267.4647 0.08 1
  267.6510 0.09 1
  268.0172 0.73 7
  268.3085 0.10 1
  268.5285 0.11 1
  269.0412 1.75 17
  269.3557 0.24 2
  269.4713 0.26 3
  269.6640 0.13 1
  270.0206 1.25 12
  270.1762 0.37 4
  270.6997 0.17 2
  271.0487 2.13 21
  271.4791 0.16 2
  271.6501 0.10 1
  272.0476 1.03 10
  272.3772 0.11 1
  273.0377 2.49 25
  273.3673 0.19 2
  273.6879 0.13 1
  274.0330 1.67 17
  274.3181 0.15 1
  274.4608 0.05 0
  274.5862 0.04 0
  275.0502 1.82 18
  275.3660 0.09 1
  275.4815 0.08 1
  275.5844 0.01 0
  275.9828 0.79 8
  276.1859 0.30 3
  276.3042 0.04 0
  276.5143 0.05 0
  277.0389 2.18 22
  277.3415 0.11 1
  277.6791 0.12 1
  278.0133 0.50 5
  278.2179 0.12 1
  278.3034 0.07 1
  278.5016 0.07 1
  278.7175 0.18 2
  279.0391 1.42 14
  279.2571 0.29 3
  279.4743 0.06 1
  280.0848 0.77 8
  280.2222 0.28 3
  280.3246 0.12 1
  280.6786 0.24 2
  281.0516 1.93 19
  281.3209 0.09 1
  281.5747 0.11 1
  281.7311 0.22 2
  282.0481 0.79 8
  282.2942 0.11 1
  282.5986 0.14 1
  283.0363 2.54 25
  283.6832 0.15 1
  284.0424 0.90 9
  284.4487 0.23 2
  284.6452 0.10 1
  285.0256 1.58 16
  286.0196 0.91 9
  286.3039 0.07 1
  286.5187 0.03 0
  286.6907 0.09 1
  287.0404 1.80 18
  287.4049 0.02 0
  287.6703 0.16 2
  288.0587 0.82 8
  288.2898 0.22 2
  288.4388 0.09 1
  289.0232 2.06 21
  289.3063 0.17 2
  289.4764 0.12 1
  289.7961 0.18 2
  290.0764 0.58 6
  290.4440 0.02 0
  290.5795 0.07 1
  291.0549 1.42 14
  291.2663 0.38 4
  291.4061 0.20 2
  291.6899 0.11 1
  292.0298 0.51 5
  292.1591 0.24 2
  292.3614 0.08 1
  292.6059 0.08 1
  293.0148 1.17 12
  293.2762 0.25 2
  293.3900 0.11 1
  293.4631 0.04 0
  293.6901 0.04 0
  293.8721 0.16 2
  294.0766 0.41 4
  294.2453 0.10 1
  294.4365 0.06 1
  294.5967 0.04 0
  295.0389 1.05 10
  295.5261 0.20 2
  295.6976 0.08 1
  296.0506 0.52 5
  296.3600 0.08 1
  296.5203 0.05 0
  297.0365 2.59 26
  297.3979 0.07 1
  298.0486 0.87 9
  298.2660 0.17 2
  298.4130 0.02 0
  298.6022 0.09 1
  299.0166 1.28 13
  299.3445 0.08 1
  299.6985 0.10 1
  300.0194 0.64 6
  300.1552 0.47 5
  300.3473 0.06 1
  300.4043 0.03 0
  300.5402 0.06 1
  301.0385 1.16 12
  301.3222 0.21 2
  301.4609 0.07 1
  301.5897 0.13 1
  302.0297 0.57 6
  302.2564 0.22 2
  302.3965 0.09 1
  302.6472 0.18 2
  303.0021 1.13 11
  303.1240 0.66 7
  303.4359 0.06 1
  303.6409 0.14 1
  303.8691 0.18 2
  304.0515 0.46 5
  304.2734 0.06 1
  304.4340 0.02 0
  304.6024 0.04 0
  304.9955 0.64 6
  305.3287 0.22 2
  305.4943 0.12 1
  305.6226 0.08 1
  306.0193 0.45 4
  306.2419 0.13 1
  306.5922 0.12 1
  307.0270 0.93 9
  307.4774 0.08 1
  307.5670 0.05 0
  307.9109 0.34 3
  308.1598 0.11 1
  308.4700 0.15 1
  308.5941 0.19 2
  308.8204 0.37 4
  309.0587 1.16 12
  309.4790 0.19 2
  309.6476 0.10 1
  310.0524 0.30 3
  310.2252 0.12 1
  310.5157 0.11 1
  311.0144 1.31 13
  311.4052 0.08 1
  311.5477 0.08 1
  311.9217 0.28 3
  312.0719 0.31 3
  312.3203 0.07 1
  312.5193 0.10 1
  313.0633 0.83 8
  313.3816 0.10 1
  313.5637 0.11 1
  313.6780 0.08 1
  313.9921 0.58 6
  314.1580 0.37 4
  314.3429 0.10 1
  314.4806 0.07 1
  314.6697 0.04 0
  315.0255 0.83 8
  315.1837 0.40 4
  315.7393 0.11 1
  315.9984 0.26 3
  316.2329 0.18 2
  316.4814 0.01 0
  316.7074 0.05 0
  316.9489 0.76 8
  317.1255 0.51 5
  317.3593 0.11 1
  317.5450 0.02 0
  317.7591 0.04 0
  318.0783 0.51 5
  318.3574 0.04 0
  318.4909 0.06 1
  318.5962 0.05 0
  318.7021 0.10 1
  319.0405 0.52 5
  319.2695 0.03 0
  319.4094 0.04 0
  319.5916 0.09 1
  319.8799 0.05 0
  320.0001 0.05 0
  320.1407 0.19 2
  320.2248 0.11 1
  320.4771 0.06 1
  320.7202 0.07 1
  321.0375 0.63 6
  321.1916 0.17 2
  321.4468 0.07 1
  321.5274 0.04 0
  321.7896 0.10 1
  322.0766 0.36 4
  322.2216 0.14 1
  322.4718 0.07 1
  322.6175 0.08 1
  323.0212 0.85 8
  323.2043 0.19 2
  323.4044 0.05 0
  323.9284 0.12 1
  324.0684 0.36 4
  324.1950 0.16 2
  324.5126 0.07 1
  325.0551 0.76 8
  325.3239 0.11 1
  325.4045 0.04 0
  325.6818 0.09 1
  325.8650 0.15 1
  326.1260 0.36 4
  326.4112 0.03 0
  326.5512 0.14 1
  326.6800 0.09 1
  327.0557 0.84 8
  327.1852 0.60 6
  327.3734 0.08 1
  327.6445 0.01 0
  328.0203 0.27 3
  328.2729 0.16 2
  328.6778 0.09 1
  329.0954 0.59 6
  329.3474 0.12 1
  329.4273 0.05 0
  329.7410 0.03 0
  330.0744 0.25 2
  330.3179 0.08 1
  330.6026 0.14 1
  330.7208 0.10 1
  331.0401 0.51 5
  331.3460 0.02 0
  331.4792 0.02 0
  331.6647 0.08 1
  332.0740 0.39 4
  332.4324 0.09 1
  332.7072 0.01 0
  332.8524 0.09 1
  333.0862 0.83 8
  333.3150 0.08 1
  333.4836 0.08 1
  333.7513 0.10 1
  334.0772 0.36 4
  334.4498 0.06 1
  334.6470 0.09 1
  335.0840 0.50 5
  335.6334 0.16 2
  335.8180 0.16 2
  336.0875 0.25 2
  336.3477 0.11 1
  336.6037 0.04 0
  336.7933 0.03 0
  336.9949 0.53 5
  337.1639 0.31 3
  337.6987 0.11 1
  337.7829 0.05 0
  338.0319 0.17 2
  338.3467 0.02 0
  338.4557 0.05 0
  338.6644 0.08 1
  339.0698 0.62 6
  339.2057 0.27 3
  339.3974 0.03 0
  340.0194 0.20 2
  340.2204 0.06 1
  340.3974 0.11 1
  340.7824 0.04 0
  341.0981 0.55 5
  341.5362 0.05 0
  341.6750 0.03 0
  341.9779 0.14 1
  342.1726 0.16 2
  342.4445 0.02 0
  342.6321 0.01 0
  343.0916 0.46 5
  343.4038 0.02 0
  343.7798 0.11 1
  344.1679 0.26 3
  344.3711 0.03 0
  345.1247 0.49 5
  345.3428 0.15 1
  345.5065 0.07 1
  345.7183 0.04 0
  345.8549 0.06 1
  346.1348 0.65 6
  346.3721 0.10 1
  346.7802 0.15 1
  347.1266 0.78 8
  347.3172 0.21 2
  347.4121 0.12 1
  347.8125 0.07 1
  347.9237 0.09 1
  348.1420 0.25 2
  348.4226 0.02 0
  349.0958 1.10 11
  349.4119 0.05 0
  349.7302 0.03 0
  349.8499 0.11 1
  350.0519 0.36 4
  350.3093 0.06 1
  350.5063 0.08 1
  350.6297 0.02 0
  351.0947 0.95 9
  351.6661 0.06 1
  351.9831 0.15 1
  352.1930 0.21 2
  352.4702 0.02 0
  352.6269 0.07 1
  353.0460 0.36 4
  353.2432 0.17 2
  353.6772 0.08 1
  353.7779 0.03 0
  353.8942 0.06 1
  354.1020 0.19 2
  354.6709 0.07 1
  355.1220 0.34 3
  355.3817 0.08 1
  355.8641 0.07 1
  356.0386 0.15 1
  356.1755 0.17 2
  356.3061 0.03 0
  356.5885 0.06 1
  356.6956 0.10 1
  357.1192 0.58 6
  357.2924 0.21 2
  357.8466 0.07 1
  358.0943 0.26 3
  358.2000 0.16 2
  358.5258 0.06 1
  358.7571 0.02 0
  359.0929 0.64 6
  359.2228 0.31 3
  359.4236 0.06 1
  359.5628 0.09 1
  360.0583 0.26 3
  360.2414 0.29 3
  360.5098 0.04 0
  361.1388 1.95 19
  361.3418 0.41 4
  361.6015 0.07 1
  362.1236 0.51 5
  362.2961 0.21 2
  362.6224 0.08 1
  362.7480 0.12 1
  362.8090 0.06 1
  363.1291 0.66 7
  363.2880 0.31 3
  363.4072 0.07 1
  363.5193 0.08 1
  363.6520 0.03 0
  364.0956 0.34 3
  364.5626 0.01 0
  364.8465 0.05 0
  365.1233 0.36 4
  365.8643 0.04 0
  366.1660 0.14 1
  366.6417 0.03 0
  366.7851 0.01 0
  367.0826 0.15 1
  367.3574 0.17 2
  367.4617 0.05 0
  367.5846 0.02 0
  368.1100 0.15 1
  368.2527 0.08 1
  368.4842 0.09 1
  368.8116 0.06 1
  369.1148 0.24 2
  369.3151 0.14 1
  369.4181 0.09 1
  369.6631 0.06 1
  369.7839 0.06 1
  370.1106 0.09 1
  370.2591 0.08 1
  370.5709 0.08 1
  370.9012 0.06 1
  371.1043 0.55 5
  371.2372 0.32 3
  371.3153 0.15 1
  371.4958 0.08 1
  372.0329 0.11 1
  372.1608 0.16 2
  372.3178 0.14 1
  372.6290 0.04 0
  372.8059 0.13 1
  373.1406 0.39 4
  373.4085 0.10 1
  373.5705 0.07 1
  374.0992 0.39 4
  374.2747 0.26 3
  374.3671 0.09 1
  374.5547 0.08 1
  375.1319 0.49 5
  375.3785 0.05 0
  375.5605 0.02 0
  375.7932 0.05 0
  375.9146 0.15 1
  376.1019 0.39 4
  376.2906 0.34 3
  377.1208 0.50 5
  377.6729 0.01 0
  377.9114 0.08 1
  378.1165 0.15 1
  378.5302 0.05 0
  378.7638 0.08 1
  378.9320 0.08 1
  379.1690 0.39 4
  379.2776 0.21 2
  379.3628 0.12 1
  379.5360 0.06 1
  379.8526 0.03 0
  379.9754 0.08 1
  380.1891 0.02 0
  380.3006 0.05 0
  380.7308 0.06 1
  381.1490 0.30 3
  381.5132 0.05 0
  381.7752 0.08 1
  382.1324 0.22 2
  382.2438 0.07 1
  382.3475 0.03 0
  382.4626 0.01 0
  382.5804 0.04 0
  382.6862 0.07 1
  382.9525 0.10 1
  383.0832 0.11 1
  383.2899 0.15 1
  384.0207 0.12 1
  384.1130 0.05 0
  384.2267 0.09 1
  384.3524 0.04 0
  384.5612 0.07 1
  384.8602 0.16 2
  385.0464 0.19 2
  385.2857 0.25 2
  385.7177 0.01 0
  385.9812 0.26 3
  386.2448 0.30 3
  387.1073 0.28 3
  387.4192 0.07 1
  387.6992 0.16 2
  388.0190 0.12 1
  388.2343 0.18 2
  388.3650 0.09 1
  388.5732 0.11 1
  388.8092 0.06 1
  389.0330 0.28 3
  389.1858 0.48 5
  389.3003 0.10 1
  389.4083 0.05 0
  389.5909 0.07 1
  389.7039 0.08 1
  390.1020 0.32 3
  390.3109 0.11 1
  391.1000 0.18 2
  391.4632 0.04 0
  391.5777 0.04 0
  391.8201 0.09 1
  391.9730 0.07 1
  392.0782 0.07 1
  392.1855 0.07 1
  392.2943 0.14 1
  392.5887 0.06 1
  393.0423 0.16 2
  393.2392 0.04 0
  393.7903 0.13 1
  394.0869 0.07 1
  394.3094 0.10 1
  394.6664 0.05 0
  394.8179 0.02 0
  395.0711 0.13 1
  395.1799 0.09 1
  395.3684 0.08 1
  395.5255 0.04 0
  396.0761 0.20 2
  396.2646 0.19 2
  396.4374 0.03 0
  396.5498 0.02 0
  396.8272 0.10 1
  397.1118 0.48 5
  397.2533 0.19 2
  397.3743 0.07 1
  397.8296 0.04 0
  398.0024 0.09 1
  398.1639 0.15 1
  398.3076 0.11 1
  398.5311 0.10 1
  399.0732 0.29 3
  399.2369 0.15 1
  399.4760 0.14 1
  399.8275 0.11 1
  400.0032 0.20 2
  400.1883 0.17 2
  400.4160 0.10 1
  401.1547 0.59 6
  401.3454 0.20 2
  401.7632 0.03 0
  401.8742 0.05 0
  402.1013 0.19 2
  402.3056 0.24 2
  402.8807 0.10 1
  403.0053 0.06 1
  403.1768 0.20 2
  403.4011 0.05 0
  403.5883 0.05 0
  403.7129 0.03 0
  404.0254 0.18 2
  404.1400 0.04 0
  404.3778 0.16 2
  404.5893 0.27 3
  404.8933 0.11 1
  404.9951 0.08 1
  405.2422 0.23 2
  405.7976 0.04 0
  406.0411 0.15 1
  406.1600 0.05 0
  406.3537 0.04 0
  406.4976 0.04 0
  406.9035 0.03 0
  407.0943 0.14 1
  407.2339 0.17 2
  407.4298 0.07 1
  407.9001 0.19 2
  408.3074 0.10 1
  408.4474 0.04 0
  409.1313 0.29 3
  409.3566 0.02 0
  409.6929 0.05 0
  409.8187 0.04 0
  410.0370 0.04 0
  410.1798 0.09 1
  410.3882 0.04 0
  410.8311 0.05 0
  411.0067 0.31 3
  411.1930 0.27 3
  411.3060 0.15 1
  411.6843 0.14 1
  412.1110 0.33 3
  412.3584 0.13 1
  412.6756 0.02 0
  412.8192 0.14 1
  412.9458 0.17 2
  413.1848 0.35 3
  413.3476 0.25 2
  413.5887 0.08 1
  413.7480 0.09 1
  413.8369 0.03 0
  414.1847 0.12 1
  414.8988 0.06 1
  415.1834 0.54 5
  415.3911 0.19 2
  415.6194 0.10 1
  415.8599 0.03 0
  416.1401 0.32 3
  416.5229 0.04 0
  416.7391 0.04 0
  417.1582 0.50 5
  417.2856 0.17 2
  417.5403 0.05 0
  417.6505 0.11 1
  417.7530 0.04 0
  417.8526 0.04 0
  418.0056 0.10 1
  418.1301 0.18 2
  418.9584 0.07 1
  419.0551 0.04 0
  419.2701 0.21 2
  419.6223 0.07 1
  419.8365 0.09 1
  420.0799 0.13 1
  420.5048 0.10 1
  420.9674 0.10 1
  421.2443 0.15 1
  421.9625 0.08 1
  422.1319 0.13 1
  422.3219 0.16 2
  422.5383 0.05 0
  422.8416 0.12 1
  422.9925 0.15 1
  423.1342 0.18 2
  423.2253 0.11 1
  423.8326 0.08 1
  423.9778 0.05 0
  424.1544 0.18 2
  424.3509 0.01 0
  424.5474 0.09 1
  424.7514 0.11 1
  425.0409 0.51 5
  425.2514 0.34 3
  425.4156 0.12 1
  425.6980 0.09 1
  426.1788 0.48 5
  426.5671 0.03 0
  427.1084 1.12 11
  427.3623 0.32 3
  427.6447 0.03 0
  427.7962 0.09 1
  428.1227 0.14 1
  428.3212 0.08 1
  428.5616 0.07 1
  429.1229 0.17 2
  429.3819 0.16 2
  429.5818 0.11 1
  429.7682 0.05 0
  430.1631 0.22 2
  430.4149 0.08 1
  430.5117 0.07 1
  430.6234 0.05 0
  431.0091 0.06 1
  431.2296 0.08 1
  431.3997 0.06 1
  431.6295 0.03 0
  431.8502 0.04 0
  431.9925 0.04 0
  432.2124 0.04 0
  432.3504 0.07 1
  432.4600 0.10 1
  432.6913 0.15 1
  433.0956 0.13 1
  433.3503 0.10 1
  433.6500 0.07 1
  433.9112 0.12 1
  434.2094 0.06 1
  434.4614 0.11 1
  434.6087 0.11 1
  434.8657 0.13 1
  435.0422 0.18 2
  435.2109 0.17 2
  435.8238 0.04 0
  436.0082 0.09 1
  436.2196 0.31 3
  436.3307 0.08 1
  436.7030 0.07 1
  436.9066 0.10 1
  437.0590 0.24 2
  437.1800 0.09 1
  437.3210 0.09 1
  437.5253 0.07 1
  437.8970 0.06 1
  438.0372 0.09 1
  438.1291 0.03 0
  438.4374 0.05 0
  438.7350 0.03 0
  438.8369 0.05 0
  439.0833 0.11 1
  439.6130 0.03 0
  439.8096 0.06 1
  440.0987 0.21 2
  440.2689 0.11 1
  440.3565 0.10 1
  440.6913 0.16 2
  440.8237 0.02 0
  441.0537 0.30 3
  441.2432 0.56 6
  441.4818 0.02 0
  441.6264 0.10 1
  442.1599 1.49 15
  442.4540 0.04 0
  442.6136 0.09 1
  443.1564 0.94 9
  443.3252 0.34 3
  443.5874 0.04 0
  443.7249 0.07 1
  443.9493 0.07 1
  444.0846 0.24 2
  444.2029 0.12 1
  444.4693 0.09 1
  444.7621 0.05 0
  445.1098 0.18 2
  445.2787 0.17 2
  445.3863 0.10 1
  445.5580 0.03 0
  445.7696 0.10 1
  445.9064 0.14 1
  446.2434 0.16 2
  446.7607 0.10 1
  446.8569 0.07 1
  447.0180 0.09 1
  447.1199 0.19 2
  447.3878 0.07 1
  447.9280 0.13 1
  448.0256 0.10 1
  448.3271 0.09 1
  448.4810 0.07 1
  448.7397 0.12 1
  449.1175 0.15 1
  449.3085 0.12 1
  449.5258 0.06 1
  449.6677 0.10 1
  449.8038 0.08 1
  449.9150 0.04 0
  450.1117 0.08 1
  450.2251 0.10 1
  450.5465 0.10 1
  450.7618 0.10 1
  450.9529 0.03 0
  451.2387 0.45 4
  451.5117 0.12 1
  451.7726 0.19 2
  452.0143 0.21 2
  452.1433 0.24 2
  452.3779 0.27 3
  452.5255 0.29 3
  452.9033 0.32 3
  453.2134 0.23 2
  453.4145 0.29 3
  453.6434 0.27 3
  453.8102 0.16 2
  454.0327 0.21 2
  454.1446 0.18 2
  454.4747 0.14 1
  454.7856 0.12 1
  454.9197 0.12 1
  455.0709 0.03 0
  455.2220 0.11 1
  455.3582 0.08 1
  455.6620 0.05 0
  456.0015 0.03 0
  456.2831 0.21 2
  456.5955 0.06 1
  456.8565 0.13 1
  457.2516 0.28 3
  457.6482 0.07 1
  457.8828 0.15 1
  458.0868 0.16 2
  458.2423 0.30 3
  458.4941 0.13 1
  458.7338 0.08 1
  459.0334 0.26 3
  459.1389 0.11 1
  459.2367 0.07 1
  459.4207 0.12 1
  459.6653 0.15 1
  459.8719 0.13 1
  459.9723 0.13 1
  460.1211 0.02 0
  460.3177 0.02 0
  460.5335 0.05 0
  460.7664 0.10 1
  461.1417 0.17 2
  461.7257 0.04 0
  461.9223 0.07 1
  462.0491 0.05 0
  462.1688 0.09 1
  462.6788 0.04 0
  462.7978 0.12 1
  462.9587 0.07 1
  463.1297 0.14 1
  463.2330 0.08 1
  463.3619 0.03 0
  463.5009 0.08 1
  463.8129 0.08 1
  464.2061 0.17 2
  464.3058 0.12 1
  464.4034 0.05 0
  464.7454 0.12 1
  464.9655 0.08 1
  465.1223 0.08 1
  465.3040 0.23 2
  465.4572 0.20 2
  465.7300 0.22 2
  465.8989 0.19 2
  466.1290 0.58 6
  466.3642 0.57 6
  466.6086 0.24 2
  466.8936 0.19 2
  467.0902 0.19 2
  467.2406 0.27 3
  467.4081 0.15 1
  467.5114 0.06 1
  467.8712 0.16 2
  468.0765 0.24 2
  468.2646 0.17 2
  468.6865 0.11 1
  468.9587 0.23 2
  469.1276 0.10 1
  469.2695 0.08 1
  469.3828 0.06 1
  469.5296 0.13 1
  469.7947 0.14 1
  470.1432 0.09 1
  470.3578 0.20 2
  470.9536 0.07 1
  471.0905 0.11 1
  471.2602 0.08 1
  472.0022 0.02 0
  472.1483 0.19 2
  472.3736 0.08 1
  472.8227 0.07 1
  472.9546 0.07 1
  473.2169 0.17 2
  473.8514 0.07 1
  474.2521 0.33 3
  474.3683 0.15 1
  474.4895 0.07 1
  474.9273 0.11 1
  475.3037 0.07 1
  475.9041 0.03 0
  476.1002 0.25 2
  476.3377 0.02 0
  476.8254 0.04 0
  477.0757 0.11 1
  477.2733 0.21 2
  477.3923 0.11 1
  477.7311 0.08 1
  478.0021 0.08 1
  478.2253 0.10 1
  478.5726 0.05 0
  479.1303 0.22 2
  479.5875 0.08 1
  479.7437 0.10 1
  479.9277 0.13 1
  480.1196 0.11 1
  480.3365 0.09 1
  480.7002 0.10 1
  480.9199 0.04 0
  481.1689 0.21 2
  481.3322 0.11 1
  481.4585 0.18 2
  482.0063 0.08 1
  482.2039 0.19 2
  482.3523 0.20 2
  482.5399 0.22 2
  482.6762 0.16 2
  482.9858 0.17 2
  483.1963 0.11 1
  483.3062 0.11 1
  483.5266 0.14 1
  483.6565 0.04 0
  483.8448 0.14 1
  484.1652 0.27 3
  484.3228 0.07 1
  484.4705 0.11 1
  484.8523 0.08 1
  485.0442 0.12 1
  485.1976 0.10 1
  485.3667 0.18 2
  485.7784 0.07 1
  486.0082 0.10 1
  486.2579 0.38 4
  486.3550 0.12 1
  486.4749 0.06 1
  486.6504 0.09 1
  486.7675 0.07 1
  487.1664 0.22 2
  487.4688 0.20 2
  487.7267 0.34 3
  488.2616 5.94 59
  488.6642 0.28 3
  488.9491 0.39 4
  489.0887 0.15 1
  489.2312 0.19 2
  489.4122 0.21 2
  489.6167 0.21 2
  489.8817 0.21 2
  489.9651 0.10 1
  490.0862 0.07 1
  490.5237 0.09 1
  490.9512 0.07 1
  491.1756 0.12 1
  491.4214 0.07 1
  491.5654 0.05 0
  492.0008 0.08 1
  492.1746 0.05 0
  492.5516 0.10 1
  492.8815 0.11 1
  493.1103 0.21 2
  493.3747 0.05 0
  494.1465 0.12 1
  494.3147 0.15 1
  494.7971 0.04 0
  494.9782 0.11 1
  495.0837 0.07 1
  495.2854 0.22 2
  495.4486 0.05 0
  495.5812 0.07 1
  495.8884 0.09 1
  496.2697 0.12 1
  496.9305 0.16 2
  497.0566 0.10 1
  497.2512 0.08 1
  497.4138 0.06 1
  497.7531 0.09 1
  498.2107 0.77 8
  498.5123 0.34 3
  498.8545 0.12 1
  499.0969 0.08 1
  499.2487 0.08 1
  499.4291 0.08 1
  499.5902 0.03 0
  499.7249 0.08 1
  500.1663 0.46 5
  500.3246 0.38 4
  500.5078 0.10 1
  500.9548 0.20 2
  501.1894 0.38 4
  501.3826 0.37 4
  501.5737 0.11 1
  501.8340 0.08 1
  502.2476 0.10 1
  502.4465 0.07 1
  502.5877 0.07 1
  502.8209 0.04 0
  503.2045 0.11 1
  503.4178 0.07 1
  503.5254 0.05 0
  503.8250 0.01 0
  504.1794 0.12 1
  504.3591 0.08 1
  504.4775 0.07 1
  504.5887 0.07 1
  504.9111 0.11 1
  505.0787 0.12 1
  505.4167 0.23 2
  505.5159 0.06 1
  505.7320 0.08 1
  505.9602 0.12 1
  506.1970 0.20 2
  506.4809 0.08 1
  506.5836 0.02 0
  507.1371 0.18 2
  507.2106 0.09 1
  507.3718 0.24 2
  507.5808 0.11 1
  507.7299 0.08 1
  507.9617 0.15 1
  508.1607 0.07 1
  508.3055 0.04 0
  508.5417 0.03 0
  508.6922 0.11 1
  508.9005 0.13 1
  509.0517 0.10 1
  509.2928 0.38 4
  509.5190 0.11 1
  509.6517 0.08 1
  510.1025 0.09 1
  510.6433 0.07 1
  510.7668 0.07 1
  511.1164 0.13 1
  511.2961 0.07 1
  511.7185 0.05 0
  511.8412 0.06 1
  512.1038 0.10 1
  512.3799 0.11 1
  512.5783 0.04 0
  512.9729 0.04 0
  513.1734 0.11 1
  513.3860 0.21 2
  513.6308 0.14 1
  513.8042 0.10 1
  514.4005 0.13 1
  514.6519 0.12 1
  514.8806 0.06 1
  515.0280 0.10 1
  515.2196 0.08 1
  515.4283 0.06 1
  515.8165 0.11 1
  516.1042 0.05 0
  516.2032 0.01 0
  516.7076 0.14 1
  516.8016 0.07 1
  517.1649 0.19 2
  517.3401 0.09 1
  517.5581 0.06 1
  517.8387 0.04 0
  518.2505 0.01 0
  518.4671 0.09 1
  518.7919 0.07 1
  518.9929 0.07 1
  519.1432 0.08 1
  519.2985 0.15 1
  519.4431 0.19 2
  519.9261 0.08 1
  520.1684 0.14 1
  520.4171 0.10 1
  520.5831 0.08 1
  520.7455 0.11 1
  521.1367 0.15 1
  521.4060 0.17 2
  521.5115 0.04 0
  521.7117 0.07 1
  522.1007 0.06 1
  522.4228 0.04 0
  522.5496 0.16 2
  522.6715 0.14 1
  522.9444 0.15 1
  523.2017 0.22 2
  523.5045 0.18 2
  523.7903 0.08 1
  524.2443 0.54 5
  524.5528 0.24 2
  524.7210 0.05 0
  524.8664 0.08 1
  525.0203 0.10 1
  525.2355 0.10 1
  525.4251 0.09 1
  525.8057 0.09 1
  526.0103 0.09 1
  526.3324 0.14 1
  526.5634 0.04 0
  526.7515 0.23 2
  527.0223 0.02 0
  527.3082 0.15 1
  527.6432 0.10 1
  527.9240 0.07 1
  528.1849 0.07 1
  528.5392 0.06 1
  528.8043 0.16 2
  529.2848 0.10 1
  529.4110 0.14 1
  529.8466 0.01 0
  530.0740 0.05 0
  530.1788 0.19 2
  530.3334 0.17 2
  530.6792 0.08 1
  530.9252 0.11 1
  531.0842 0.07 1
  531.3101 0.09 1
  531.4470 0.08 1
  531.7336 0.07 1
  531.9504 0.16 2
  532.0908 0.04 0
  532.2883 0.04 0
  532.6220 0.05 0
  532.7739 0.02 0
  533.0748 0.07 1
  533.2466 0.22 2
  533.3806 0.19 2
  533.5803 0.12 1
  533.6937 0.09 1
  534.0259 0.35 3
  534.3290 0.58 6
  534.5065 0.38 4
  534.6591 0.14 1
  534.9080 0.13 1
  535.2068 1.02 10
  535.4186 0.74 7
  535.5398 0.38 4
  535.6896 0.18 2
  535.7851 0.11 1
  536.0482 0.25 2
  536.2936 0.30 3
  536.6465 0.21 2
  536.8434 0.09 1
  537.2000 0.18 2
  537.3840 0.25 2
  537.5095 0.08 1
  537.7014 0.06 1
  537.8469 0.11 1
  537.9795 0.04 0
  538.1635 0.14 1
  538.3547 0.27 3
  538.6000 0.03 0
  538.7227 0.09 1
  539.3903 0.16 2
  539.5344 0.28 3
  539.7990 0.04 0
  540.1535 0.22 2
  540.4324 0.11 1
  540.6799 0.11 1
  540.8489 0.11 1
  541.1592 0.06 1
  541.3183 0.12 1
  541.5316 0.15 1
  541.8098 0.11 1
  541.9211 0.07 1
  542.2393 0.20 2
  542.3648 0.11 1
  542.6173 0.08 1
  542.8484 0.13 1
  542.9583 0.10 1
  543.2202 0.18 2
  543.3992 0.07 1
  543.5890 0.07 1
  543.6946 0.11 1
  543.9150 0.31 3
  544.1398 0.33 3
  544.3945 0.11 1
  544.7112 0.19 2
  544.8675 0.10 1
  544.9966 0.09 1
  545.1807 0.08 1
  545.3298 0.19 2
  545.4868 0.10 1
  545.6459 0.08 1
  545.8079 0.11 1
  545.9249 0.13 1
  546.0348 0.08 1
  546.1725 0.19 2
  546.3808 0.10 1
  546.6505 0.09 1
  546.7462 0.11 1
  547.0708 0.70 7
  547.3677 0.76 8
  547.5924 0.27 3
  547.8693 0.13 1
  547.9913 0.23 2
  548.0905 0.22 2
  548.2111 0.13 1
  548.3766 0.06 1
  548.4802 0.03 0
  548.9418 0.17 2
  549.1959 0.34 3
  549.4799 0.25 2
  549.6912 0.17 2
  549.8025 0.06 1
  549.9409 0.09 1
  550.2885 0.81 8
  550.4876 0.31 3
  550.8167 0.32 3
  551.2242 0.82 8
  551.5189 0.54 5
  551.7266 0.28 3
  551.9164 0.15 1
  552.2277 0.64 6
  552.5888 0.44 4
  552.8322 0.28 3
  552.9999 0.04 0
  553.2441 0.27 3
  553.3954 0.27 3
  553.5517 0.14 1
  553.6730 0.09 1
  553.8679 0.40 4
  554.1548 0.25 2
  554.3005 0.17 2
  554.4589 0.13 1
  554.6524 0.18 2
  554.9236 0.36 4
  555.2849 0.33 3
  555.4298 0.25 2
  555.7639 0.30 3
  556.0209 0.20 2
  556.2878 0.21 2
  556.5591 0.30 3
  556.8640 0.25 2
  557.2059 0.30 3
  557.5265 0.64 6
  557.9688 0.39 4
  558.5128 0.48 5
  558.8304 0.49 5
  559.1132 0.62 6
  559.4957 0.44 4
  559.7770 0.64 6
  560.0761 0.73 7
  560.3346 0.57 6
  560.5191 0.75 7
  561.2577 1.50 15
  562.3525 11.50 115
  563.2479 1.88 19
  563.5919 0.84 8
  564.3214 1.98 20
  565.3301 6.13 61
  565.7939 0.68 7
  566.2277 0.70 7
  566.6182 0.62 6
  567.1425 0.57 6
  567.6063 0.36 4
  567.7994 0.58 6
  568.0837 0.46 5
  568.3829 0.47 5
  568.6110 0.55 5
  568.9672 0.47 5
  569.1760 0.52 5
  569.3249 0.60 6
  569.7902 0.59 6
  570.1166 0.82 8
  570.2463 0.32 3
  570.9403 0.84 8
  571.4911 0.62 6
  571.9294 0.66 7
  572.4525 0.91 9
  572.9749 0.78 8
  573.5364 1.04 10
  580.3223 99.97 999
  581.1984 28.64 286
  582.0614 12.81 128
  582.8668 6.07 61
  583.6595 3.23 32
  584.5497 1.94 19
  585.4935 1.27 13
//
