ACCESSION: MSBNK-Kyoto_Univ-CA000184
RECORD_TITLE: Coenzyme Q10; FAB-EBEB; MS2; m/z: 869.70; [M+Li]*+
DATE: 2016.01.19 (Created 2007.03.15, modified 2011.05.06)
AUTHORS: Akimoto N, Graduate School of Pharmaceutical Sciences, Kyoto University and Maoka T, Research Institute for Production Development
LICENSE: CC BY-SA
CH$NAME: Coenzyme Q10
CH$COMPOUND_CLASS: Natural Product; Lipid
CH$FORMULA: C59H90O4
CH$EXACT_MASS: 862.68391
CH$SMILES: C(CC=C(CCC=C(C)CCC=C(C)C)C)C(=CCCC(C)=CCCC(=CCCC(=CCCC(=CCCC(=CCCC(=CCc(c(C)1)c(c(OC)c(OC)c1=O)=O)C)C)C)C)C)C
CH$IUPAC: InChI=1S/C59H90O4/c1-44(2)24-15-25-45(3)26-16-27-46(4)28-17-29-47(5)30-18-31-48(6)32-19-33-49(7)34-20-35-50(8)36-21-37-51(9)38-22-39-52(10)40-23-41-53(11)42-43-55-54(12)56(60)58(62-13)59(63-14)57(55)61/h24,26,28,30,32,34,36,38,40,42H,15-23,25,27,29,31,33,35,37,39,41,43H2,1-14H3/b45-26+,46-28+,47-30+,48-32+,49-34+,50-36+,51-38+,52-40+,53-42+
CH$LINK: CHEBI CHEBI:46245
CH$LINK: CHEMSPIDER 4445197
CH$LINK: KEGG C11378 D01065
CH$LINK: LIPIDMAPS LMPR02010001
CH$LINK: PUBCHEM CID:5281915
CH$LINK: INCHIKEY ACTIUHUUMQJHFO-UPTCCGCDSA-N
CH$LINK: COMPTOX DTXSID6046054
AC$INSTRUMENT: JMS-HX/HX 110A, JEOL
AC$INSTRUMENT_TYPE: FAB-EBEB
AC$MASS_SPECTROMETRY: MS_TYPE MS2
AC$MASS_SPECTROMETRY: ION_MODE POSITIVE
AC$MASS_SPECTROMETRY: ATOM_GUN_CURRENT 5 mA
AC$MASS_SPECTROMETRY: BOMBARDMENT 6 kV xenon
AC$MASS_SPECTROMETRY: COLLISION_ENERGY 3 kV
AC$MASS_SPECTROMETRY: COLLISION_GAS Ar
AC$MASS_SPECTROMETRY: GAS_PRESSURE adjust to attenuate the intensity of the precursor ion by 30 %
AC$MASS_SPECTROMETRY: IONIZATION FAB
AC$MASS_SPECTROMETRY: MATRIX 1-2 uL m-NBA
AC$MASS_SPECTROMETRY: PROBE_TIP stainless-steel
MS$FOCUSED_ION: BASE_PEAK 869.6019
MS$FOCUSED_ION: PRECURSOR_M/Z 869.70
MS$FOCUSED_ION: PRECURSOR_TYPE [M+Li]+*
PK$SPLASH: splash10-014i-0010000090-d62ba4fc6302f1faa7f9
PK$NUM_PEAK: 828
PK$PEAK: m/z int. rel.int.
  6.0033 0.02 0
  7.0038 0.38 4
  14.9871 0.01 0
  22.9412 0.01 0
  24.9917 0.01 0
  27.0030 0.03 0
  28.0078 0.01 0
  29.0225 0.04 0
  35.0078 0.01 0
  35.9941 0.01 0
  37.0068 0.02 0
  37.9801 0.01 0
  38.9794 0.08 1
  39.9869 0.01 0
  41.0109 0.24 2
  42.0234 0.01 0
  43.0273 0.04 0
  50.0024 0.01 0
  50.9872 0.03 0
  52.1179 0.01 0
  53.0026 0.13 1
  54.0073 0.01 0
  55.0137 0.19 2
  56.0185 0.01 0
  57.0029 0.03 0
  57.9726 0.01 0
  58.9777 0.02 0
  60.0042 0.03 0
  61.9367 0.01 0
  62.9779 0.02 0
  64.0085 0.02 0
  64.9305 0.03 0
  66.0045 0.04 0
  66.4525 0.01 0
  67.0147 0.29 3
  68.0231 0.17 2
  69.0229 1.74 17
  70.0338 0.03 0
  71.0342 0.02 0
  72.2134 0.01 0
  72.7009 0.01 0
  73.9729 0.04 0
  75.0255 0.23 2
  76.0263 0.17 2
  77.0001 0.18 2
  78.0136 0.02 0
  78.3282 0.01 0
  78.9930 0.21 2
  80.0348 0.01 0
  81.0128 0.61 6
  82.0516 0.04 0
  83.0226 0.03 0
  85.0339 0.01 0
  85.9722 0.01 0
  86.9700 0.01 0
  87.9995 0.02 0
  88.9769 0.02 0
  89.4748 0.01 0
  90.3170 0.01 0
  91.0107 0.14 1
  92.0349 0.03 0
  92.9990 0.23 2
  93.4233 0.01 0
  94.0364 0.02 0
  95.0296 0.14 1
  96.0510 0.01 0
  96.9750 0.01 0
  98.0494 0.01 0
  98.9710 0.02 0
  99.9168 0.01 0
  100.9756 0.04 0
  102.0371 0.02 0
  103.0562 0.05 0
  103.9740 0.03 0
  105.0054 0.13 1
  106.0430 0.01 0
  106.9916 0.14 1
  108.0547 0.02 0
  109.0527 0.08 1
  110.0907 0.01 0
  111.0536 0.01 0
  112.0167 0.01 0
  113.0026 0.01 0
  114.0817 0.04 0
  115.0091 0.04 0
  116.0412 0.04 0
  117.0290 0.07 1
  117.4601 0.01 0
  118.0462 0.02 0
  119.0214 0.08 1
  120.0253 0.02 0
  121.0446 0.10 1
  122.1063 0.01 0
  123.0755 0.03 0
  123.9944 0.01 0
  125.0367 0.01 0
  125.5401 0.01 0
  125.9937 0.02 0
  127.0222 0.05 0
  128.0117 0.07 1
  128.9796 0.07 1
  129.9880 0.03 0
  131.0315 0.09 1
  132.0081 0.02 0
  133.0001 0.09 1
  133.9190 0.02 0
  135.0183 0.05 0
  135.4043 0.01 0
  136.0565 0.03 0
  137.0628 0.06 1
  138.0014 0.02 0
  138.9671 0.01 0
  140.0512 0.02 0
  140.9682 0.05 0
  142.0356 0.11 1
  142.9772 0.06 1
  144.0298 0.15 1
  144.9800 0.13 1
  145.3497 0.01 0
  145.9815 0.04 0
  146.9944 0.07 1
  148.5124 0.01 0
  149.0064 0.03 0
  149.9511 0.01 0
  151.0040 0.02 0
  152.0583 0.02 0
  152.9828 0.05 0
  154.0337 0.03 0
  154.9382 0.13 1
  155.9309 0.04 0
  156.4399 0.01 0
  157.0019 0.09 1
  157.9646 0.11 1
  158.9752 0.40 4
  159.9687 0.10 1
  161.0225 0.09 1
  161.9509 0.03 0
  162.9826 0.03 0
  164.0974 0.01 0
  164.9799 0.03 0
  165.9290 0.05 0
  166.2449 0.02 0
  167.0166 0.13 1
  167.9555 0.03 0
  168.2330 0.01 0
  168.9879 0.13 1
  169.9823 0.05 0
  171.0107 0.09 1
  171.9577 0.08 1
  172.9882 0.28 3
  173.9578 0.26 3
  175.0008 0.24 2
  175.5041 0.01 0
  176.0201 0.12 1
  177.0590 0.05 0
  178.0201 0.02 0
  179.0756 0.08 1
  180.0344 0.14 1
  181.0253 0.18 2
  181.4565 0.02 0
  182.0401 0.14 1
  183.0287 0.24 2
  183.9889 0.07 1
  185.0358 0.19 2
  186.0040 0.21 2
  187.0172 0.53 5
  188.0186 0.98 10
  189.0265 0.59 6
  190.0309 0.16 2
  191.0466 0.06 1
  191.6522 0.01 0
  192.2581 0.01 0
  193.0302 0.06 1
  193.5739 0.01 0
  194.0674 0.06 1
  195.0213 0.17 2
  196.0455 0.10 1
  197.0221 0.31 3
  198.0057 0.21 2
  199.0324 0.36 4
  200.0134 0.12 1
  201.0142 0.49 5
  202.0073 1.35 13
  203.0075 0.96 10
  204.0000 0.07 1
  205.0187 0.05 0
  205.9809 0.02 0
  206.3944 0.03 0
  206.9948 0.04 0
  208.0157 0.17 2
  208.9928 0.26 3
  210.0407 0.19 2
  211.0086 0.57 6
  212.0197 0.31 3
  213.0018 0.46 5
  213.9717 0.06 1
  214.3662 0.02 0
  214.9870 0.11 1
  215.8579 0.02 0
  217.0241 0.11 1
  217.6012 0.02 0
  218.1784 0.02 0
  219.0255 0.07 1
  219.9715 0.04 0
  220.3719 0.01 0
  221.1324 0.06 1
  222.0282 0.06 1
  222.9740 0.17 2
  224.0490 0.15 1
  225.0089 0.61 6
  226.0316 0.60 6
  227.0163 0.56 6
  228.0424 0.07 1
  229.0326 0.09 1
  229.5818 0.01 0
  230.1678 0.02 0
  231.0213 0.06 1
  231.3404 0.03 0
  232.1060 0.02 0
  232.5461 0.02 0
  233.1591 0.06 1
  234.1976 0.05 0
  235.0618 0.12 1
  235.8853 0.04 0
  237.0380 0.10 1
  238.0746 0.13 1
  239.0468 0.35 3
  240.0520 0.58 6
  241.0535 6.70 67
  242.0121 0.34 3
  243.0819 0.31 3
  244.0003 0.02 0
  244.4977 0.01 0
  245.0256 0.02 0
  246.0907 0.02 0
  247.0584 0.02 0
  247.4587 0.01 0
  248.0876 0.03 0
  249.0215 0.05 0
  250.0691 0.03 0
  251.1086 0.07 1
  252.1072 0.03 0
  253.0888 0.10 1
  254.1146 0.11 1
  255.0797 0.74 7
  256.0781 1.84 18
  257.1076 0.36 4
  258.0720 0.09 1
  259.1615 0.03 0
  260.3392 0.02 0
  261.0216 0.03 0
  262.0967 0.02 0
  263.1199 0.04 0
  264.0058 0.02 0
  265.0780 0.06 1
  266.1354 0.03 0
  267.1342 0.07 1
  268.0348 0.02 0
  269.0893 0.07 1
  270.1552 0.05 0
  271.0636 0.04 0
  272.0975 0.02 0
  273.1692 0.02 0
  274.0897 0.02 0
  275.1118 0.05 0
  276.1079 0.03 0
  277.1418 0.05 0
  278.0155 0.02 0
  279.1911 0.15 1
  280.1515 0.05 0
  281.1232 0.12 1
  282.0424 0.01 0
  283.0193 0.03 0
  284.1267 0.02 0
  285.1905 0.03 0
  286.2370 0.02 0
  287.0587 0.01 0
  288.2143 0.03 0
  289.2289 0.01 0
  289.7109 0.01 0
  290.1709 0.03 0
  291.1088 0.05 0
  292.1815 0.05 0
  293.1457 0.17 2
  294.1545 0.11 1
  295.0729 0.08 1
  296.2131 0.02 0
  297.2008 0.01 0
  299.4901 0.01 0
  300.1951 0.01 0
  301.0179 0.01 0
  302.0784 0.02 0
  302.7975 0.01 0
  303.4234 0.03 0
  304.1051 0.02 0
  304.9379 0.02 0
  305.4199 0.01 0
  307.1021 0.10 1
  308.1848 0.10 1
  309.1300 0.93 9
  309.9754 0.05 0
  311.1036 0.05 0
  313.1498 0.01 0
  315.1960 0.02 0
  317.2479 0.02 0
  319.2387 0.02 0
  320.0506 0.01 0
  321.0679 0.01 0
  323.1414 0.34 3
  324.1642 0.63 6
  325.1470 0.13 1
  326.2598 0.14 1
  326.6755 0.01 0
  327.7127 0.01 0
  329.0410 0.01 0
  329.3698 0.01 0
  330.7950 0.02 0
  331.2739 0.06 1
  332.2342 0.02 0
  333.2093 0.02 0
  333.6294 0.01 0
  334.3022 0.01 0
  335.1539 0.01 0
  335.9969 0.01 0
  337.2294 0.08 1
  338.2273 0.04 0
  339.0218 0.03 0
  339.6351 0.02 0
  340.0336 0.01 0
  340.4993 0.01 0
  342.1813 0.01 0
  343.0035 0.02 0
  344.0389 0.01 0
  344.6037 0.01 0
  345.2673 0.04 0
  346.1866 0.03 0
  347.4023 0.04 0
  348.4904 0.01 0
  349.1412 0.06 1
  350.1782 0.01 0
  351.2402 0.02 0
  352.3159 0.01 0
  353.1740 0.01 0
  355.8843 0.01 0
  356.5835 0.01 0
  357.3009 0.01 0
  357.7237 0.01 0
  359.1926 0.02 0
  360.3290 0.06 1
  361.1663 0.40 4
  362.1613 0.06 1
  363.1949 0.04 0
  363.8165 0.01 0
  364.1837 0.01 0
  365.1952 0.02 0
  365.4160 0.01 0
  367.0544 0.02 0
  368.4116 0.03 0
  369.4805 0.01 0
  371.3235 0.02 0
  372.1765 0.01 0
  373.4382 0.03 0
  374.3570 0.05 0
  375.2151 0.06 1
  375.6577 0.01 0
  376.2608 0.08 1
  377.1847 0.50 5
  378.2128 0.05 0
  378.6783 0.01 0
  379.1823 0.05 0
  379.4581 0.02 0
  380.0955 0.01 0
  381.1061 0.01 0
  383.3859 0.01 0
  383.8362 0.01 0
  384.5579 0.01 0
  385.9189 0.01 0
  387.2073 0.02 0
  389.2469 0.03 0
  390.2466 0.05 0
  391.2080 0.59 6
  392.2127 0.38 4
  393.2379 0.11 1
  394.1229 0.05 0
  394.6504 0.02 0
  395.4293 0.01 0
  397.1324 0.03 0
  397.9706 0.01 0
  399.3437 0.02 0
  400.2071 0.02 0
  401.2589 0.03 0
  402.4242 0.01 0
  403.2859 0.02 0
  405.1866 0.09 1
  406.2121 0.01 0
  406.9428 0.01 0
  408.8948 0.02 0
  411.2358 0.01 0
  412.3329 0.02 0
  413.2075 0.03 0
  413.7892 0.01 0
  414.4390 0.01 0
  415.3072 0.04 0
  416.4209 0.02 0
  417.2553 0.03 0
  419.2899 0.02 0
  424.8134 0.01 0
  425.3497 0.02 0
  426.1610 0.01 0
  427.3589 0.02 0
  428.3183 0.05 0
  429.2733 0.49 5
  430.3671 0.03 0
  430.9471 0.02 0
  431.3634 0.03 0
  432.1801 0.02 0
  432.5919 0.01 0
  433.4041 0.01 0
  435.3792 0.01 0
  435.9203 0.01 0
  438.0446 0.01 0
  438.9342 0.01 0
  440.5338 0.01 0
  441.3053 0.03 0
  441.7309 0.01 0
  442.5936 0.02 0
  443.3972 0.11 1
  444.2761 0.04 0
  445.3030 0.38 4
  446.2573 0.04 0
  447.2505 0.03 0
  448.2665 0.01 0
  449.1209 0.01 0
  450.0667 0.02 0
  451.3703 0.01 0
  453.1827 0.02 0
  453.7436 0.02 0
  457.1624 0.02 0
  458.3305 0.04 0
  459.2707 0.50 5
  460.2816 0.27 3
  461.2334 0.12 1
  462.2127 0.02 0
  462.6145 0.01 0
  463.2721 0.01 0
  464.6696 0.01 0
  465.1925 0.01 0
  467.1592 0.01 0
  469.7045 0.01 0
  471.4941 0.01 0
  472.6051 0.02 0
  473.3092 0.14 1
  473.8441 0.02 0
  474.2822 0.02 0
  475.2978 0.02 0
  476.1012 0.01 0
  477.3658 0.02 0
  478.9434 0.02 0
  479.5349 0.02 0
  480.3935 0.01 0
  480.9142 0.01 0
  481.2431 0.01 0
  481.6063 0.01 0
  481.9718 0.02 0
  482.3738 0.01 0
  483.3173 0.02 0
  484.3752 0.01 0
  485.2000 0.01 0
  485.8445 0.02 0
  487.2752 0.06 1
  489.4081 0.01 0
  490.2884 0.04 0
  493.7534 0.01 0
  494.4782 0.02 0
  494.8371 0.01 0
  495.3468 0.01 0
  496.2133 0.03 0
  497.3176 0.29 3
  498.4427 0.02 0
  499.2339 0.04 0
  499.5839 0.02 0
  500.2975 0.01 0
  501.3017 0.01 0
  502.6652 0.01 0
  505.4272 0.01 0
  505.9033 0.01 0
  506.7296 0.01 0
  507.5102 0.02 0
  508.2839 0.01 0
  509.4127 0.02 0
  509.9966 0.01 0
  511.4095 0.05 0
  512.1172 0.01 0
  513.2969 0.30 3
  515.2258 0.02 0
  515.6360 0.01 0
  516.2592 0.01 0
  516.9971 0.01 0
  517.6135 0.01 0
  519.3692 0.01 0
  520.7698 0.01 0
  521.4507 0.01 0
  523.2644 0.01 0
  524.0464 0.01 0
  526.4753 0.03 0
  527.3768 0.52 5
  528.4023 0.17 2
  529.4647 0.11 1
  530.5088 0.03 0
  531.6127 0.01 0
  532.2369 0.01 0
  533.4167 0.02 0
  534.1605 0.01 0
  535.5334 0.01 0
  536.5804 0.01 0
  537.2494 0.01 0
  537.5198 0.01 0
  538.1270 0.01 0
  539.6324 0.02 0
  541.3948 0.13 1
  542.3139 0.05 0
  543.1024 0.01 0
  544.6109 0.01 0
  545.5417 0.02 0
  547.4749 0.03 0
  547.9335 0.01 0
  549.3303 0.02 0
  549.8922 0.01 0
  551.5187 0.05 0
  553.4896 0.02 0
  554.5015 0.02 0
  555.3965 0.06 1
  556.8792 0.02 0
  557.5517 0.01 0
  559.3285 0.02 0
  562.1458 0.01 0
  563.6362 0.02 0
  564.4493 0.04 0
  565.4415 0.18 2
  566.3810 0.01 0
  566.7670 0.02 0
  567.5021 0.07 1
  568.4556 0.01 0
  569.1679 0.01 0
  569.5241 0.03 0
  572.5020 0.01 0
  575.3627 0.01 0
  575.8151 0.01 0
  576.9311 0.02 0
  577.5007 0.01 0
  578.6467 0.02 0
  579.5265 0.04 0
  580.3212 0.05 0
  581.4998 0.36 4
  582.5405 0.01 0
  583.2689 0.01 0
  583.6595 0.01 0
  585.7185 0.03 0
  588.5708 0.02 0
  588.8857 0.02 0
  589.3731 0.01 0
  591.6055 0.02 0
  592.6194 0.02 0
  593.5508 0.02 0
  595.4619 0.53 5
  596.4693 0.22 2
  597.4468 0.10 1
  598.2290 0.01 0
  598.7259 0.01 0
  599.4207 0.02 0
  600.0833 0.01 0
  601.2130 0.02 0
  602.7557 0.01 0
  603.5773 0.02 0
  604.3990 0.01 0
  605.4480 0.02 0
  605.9301 0.02 0
  607.3304 0.01 0
  607.7298 0.02 0
  608.1385 0.02 0
  608.5334 0.02 0
  609.3943 0.13 1
  610.5516 0.05 0
  611.2314 0.02 0
  611.5322 0.01 0
  613.0984 0.01 0
  613.5394 0.01 0
  614.8601 0.01 0
  615.8157 0.01 0
  617.4238 0.03 0
  618.0418 0.01 0
  618.6368 0.01 0
  619.5444 0.05 0
  620.1580 0.02 0
  621.3092 0.02 0
  622.5732 0.02 0
  623.4213 0.05 0
  624.1843 0.01 0
  629.7155 0.02 0
  630.2467 0.01 0
  631.3896 0.01 0
  632.2979 0.01 0
  632.7073 0.01 0
  633.5168 0.08 1
  634.5311 0.02 0
  635.5847 0.05 0
  635.9090 0.02 0
  636.5623 0.03 0
  637.4503 0.03 0
  638.6535 0.01 0
  639.3506 0.01 0
  639.9672 0.01 0
  641.6332 0.01 0
  643.0392 0.01 0
  643.7527 0.01 0
  644.7884 0.01 0
  645.4904 0.01 0
  647.0280 0.02 0
  647.6680 0.06 1
  648.4185 0.03 0
  649.5143 0.31 3
  650.3708 0.02 0
  650.7806 0.01 0
  651.4346 0.03 0
  651.8905 0.01 0
  652.9543 0.01 0
  653.4103 0.01 0
  654.4789 0.01 0
  655.9508 0.01 0
  657.5466 0.02 0
  658.1149 0.01 0
  658.7668 0.02 0
  659.8270 0.02 0
  660.4255 0.02 0
  663.6297 0.56 6
  664.6090 0.26 3
  665.6695 0.09 1
  666.6210 0.02 0
  667.3080 0.01 0
  668.4639 0.01 0
  669.7615 0.01 0
  670.7596 0.02 0
  671.6581 0.02 0
  672.3429 0.01 0
  672.9025 0.02 0
  673.9960 0.05 0
  674.7576 0.02 0
  676.4689 0.01 0
  677.8043 0.11 1
  679.0514 0.04 0
  679.6065 0.02 0
  680.1802 0.01 0
  682.1545 0.01 0
  684.0084 0.01 0
  685.1363 0.01 0
  685.9321 0.07 1
  686.2719 0.03 0
  687.8110 0.02 0
  688.4177 0.01 0
  689.7746 0.03 0
  690.1783 0.02 0
  691.7475 0.06 1
  692.6097 0.02 0
  697.8659 0.01 0
  699.0866 0.01 0
  699.7347 0.03 0
  700.6360 0.01 0
  701.7770 0.11 1
  702.4686 0.02 0
  703.0688 0.01 0
  703.6257 0.04 0
  704.2236 0.01 0
  706.0223 0.02 0
  706.8669 0.01 0
  707.4010 0.01 0
  708.3826 0.02 0
  711.9260 0.01 0
  712.5197 0.01 0
  713.1256 0.01 0
  714.3943 0.01 0
  715.6310 0.04 0
  717.5644 0.19 2
  718.3805 0.03 0
  719.5461 0.04 0
  720.5095 0.01 0
  721.3235 0.01 0
  723.5080 0.01 0
  724.0507 0.01 0
  725.1339 0.01 0
  726.0331 0.01 0
  726.7622 0.01 0
  727.4062 0.05 0
  727.9744 0.02 0
  728.6644 0.01 0
  729.1957 0.02 0
  729.7271 0.02 0
  730.2538 0.04 0
  731.5582 0.50 5
  732.3864 0.14 1
  733.0536 0.05 0
  733.7922 0.02 0
  734.8829 0.01 0
  735.6262 0.01 0
  736.1348 0.01 0
  736.7792 0.01 0
  737.1957 0.01 0
  737.7411 0.02 0
  738.2866 0.01 0
  739.1796 0.01 0
  739.6998 0.01 0
  741.8980 0.01 0
  742.6047 0.02 0
  743.4518 0.01 0
  744.7272 0.02 0
  745.5929 0.15 1
  746.5783 0.06 1
  747.4048 0.02 0
  747.7571 0.02 0
  748.1670 0.02 0
  749.3137 0.02 0
  750.1427 0.01 0
  754.9790 0.01 0
  755.8842 0.01 0
  756.3840 0.01 0
  757.1764 0.02 0
  757.5081 0.01 0
  758.8211 0.01 0
  759.5675 0.07 1
  760.7307 0.02 0
  761.5994 0.02 0
  763.8334 0.01 0
  766.3387 0.02 0
  768.3226 0.02 0
  769.5939 0.08 1
  770.0905 0.02 0
  770.7595 0.03 0
  771.3228 0.07 1
  771.7894 0.04 0
  772.4953 0.01 0
  773.7277 0.03 0
  774.2198 0.01 0
  774.6888 0.01 0
  775.5374 0.01 0
  777.3195 0.02 0
  777.8508 0.02 0
  778.6373 0.01 0
  779.6378 0.01 0
  780.1552 0.01 0
  781.2523 0.01 0
  781.8020 0.02 0
  782.1654 0.01 0
  782.6301 0.01 0
  783.6882 0.05 0
  785.5560 0.20 2
  786.5430 0.03 0
  787.4033 0.03 0
  788.4202 0.01 0
  789.0115 0.01 0
  790.1021 0.02 0
  790.8706 0.01 0
  791.5885 0.01 0
  794.2278 0.02 0
  795.4452 0.03 0
  797.0815 0.01 0
  797.7972 0.03 0
  799.6109 0.38 4
  800.5615 0.16 2
  801.5927 0.07 1
  802.2142 0.02 0
  802.8887 0.01 0
  804.4333 0.01 0
  805.8630 0.02 0
  806.4661 0.03 0
  806.8506 0.01 0
  807.6127 0.03 0
  808.4208 0.02 0
  809.1691 0.01 0
  810.1339 0.04 0
  811.0179 0.03 0
  811.6181 0.04 0
  812.3839 0.01 0
  813.6006 0.11 1
  814.5895 0.07 1
  815.4429 0.03 0
  815.8822 0.01 0
  816.2778 0.02 0
  817.2646 0.02 0
  817.9155 0.01 0
  819.1508 0.01 0
  820.7703 0.02 0
  821.1660 0.03 0
  821.7872 0.02 0
  823.5955 0.06 1
  824.6055 0.05 0
  825.5972 0.07 1
  826.3220 0.04 0
  827.6151 0.16 2
  828.8347 0.04 0
  829.7014 0.04 0
  830.3669 0.04 0
  830.9523 0.06 1
  831.6225 0.05 0
  832.7243 0.04 0
  833.2454 0.03 0
  833.7963 0.01 0
  834.5170 0.06 1
  835.0519 0.02 0
  835.5501 0.06 1
  837.9376 0.12 1
  839.7445 0.39 4
  842.4240 0.07 1
  843.5583 0.08 1
  844.4952 0.03 0
  845.4368 0.06 1
  846.2061 0.08 1
  846.9524 0.06 1
  847.4416 0.06 1
  848.1926 0.07 1
  848.9045 0.08 1
  851.4493 0.29 3
  853.5717 0.78 8
  854.6605 1.11 11
  856.2386 0.12 1
  858.8392 0.15 1
  869.6019 99.97 999
  871.2520 1.18 12
  872.5781 0.62 6
  873.8974 0.33 3
//
