ACCESSION: MSBNK-Kyoto_Univ-CA000185
RECORD_TITLE: 1,16-Didehydro-2,6-cyclolycopene-5-ol; FAB-EBEB; MS2; m/z: 552.43; [M]*+
DATE: 2016.01.19 (Created 2007.10.14, modified 2011.05.10)
AUTHORS: Akimoto N, Graduate School of Pharmaceutical Sciences, Kyoto University and Maoka T, Research Institute for Production Development
LICENSE: CC BY-SA
COMMENT: Profile spectrum of this record is given as a JPEG file.
COMMENT: [Profile] CA000185.jpg
CH$NAME: 1,16-Didehydro-2,6-cyclolycopene-5-ol
CH$COMPOUND_CLASS: Natural Product
CH$FORMULA: C40H56O
CH$EXACT_MASS: 552.43312
CH$SMILES: C(C=CC=C(C=CC=C(C=CC(C(=C(C)C)1)C(CC1)(C)O)C)C)=C(C=CC=C(C)C=CC=C(CCC=C(C)C)C)C
CH$IUPAC: InChI=1S/C40H56O/c1-31(2)17-13-20-35(7)23-15-25-36(8)24-14-21-33(5)18-11-12-19-34(6)22-16-26-37(9)27-28-39-38(32(3)4)29-30-40(39,10)41/h11-12,14-19,21-28,39,41H,13,20,29-30H2,1-10H3/b12-11+,21-14+,22-16+,25-15+,28-27+,33-18+,34-19+,35-23+,36-24+,37-26+
CH$LINK: INCHIKEY FPMYHSUBVJYCMZ-AOOBVGOJSA-N
AC$INSTRUMENT: JMS-HX/HX 110A, JEOL
AC$INSTRUMENT_TYPE: FAB-EBEB
AC$MASS_SPECTROMETRY: MS_TYPE MS2
AC$MASS_SPECTROMETRY: ION_MODE POSITIVE
AC$MASS_SPECTROMETRY: ATOM_GUN_CURRENT 5 mA
AC$MASS_SPECTROMETRY: BOMBARDMENT 6 kV xenon
AC$MASS_SPECTROMETRY: COLLISION_ENERGY 3 kV
AC$MASS_SPECTROMETRY: COLLISION_GAS Ar
AC$MASS_SPECTROMETRY: GAS_PRESSURE adjust to attenuate the intensity of the precursor ion by 30 %
AC$MASS_SPECTROMETRY: IONIZATION FAB
AC$MASS_SPECTROMETRY: MATRIX 1-2 uL m-NBA
AC$MASS_SPECTROMETRY: PROBE_TIP stainless-steel
MS$FOCUSED_ION: BASE_PEAK 552.4194
MS$FOCUSED_ION: PRECURSOR_M/Z 552.43
MS$FOCUSED_ION: PRECURSOR_TYPE [M]+*
PK$SPLASH: splash10-1003-4910020000-5b03ebe10d8257726269
PK$NUM_PEAK: 1723
PK$PEAK: m/z int. rel.int.
  0.0261 0.01 0
  12.9842 0.01 0
  13.9922 0.06 1
  14.9888 0.22 2
  22.9494 0.03 0
  24.6599 0.01 0
  24.9763 0.04 0
  25.9652 0.30 3
  26.2905 0.01 0
  26.9722 2.66 27
  27.9919 0.26 3
  28.9918 2.83 28
  29.9226 0.02 0
  30.0118 0.03 0
  30.9809 0.05 0
  35.8625 0.05 0
  36.9595 0.18 2
  37.2032 0.05 0
  37.3202 0.02 0
  37.5057 0.01 0
  37.9707 0.60 6
  38.5783 0.02 0
  38.9829 6.03 60
  39.6570 0.02 0
  39.7244 0.03 0
  39.9929 0.61 6
  40.5561 0.03 0
  40.9947 17.33 173
  41.4099 0.01 0
  41.9917 0.30 3
  42.9737 29.48 295
  43.9987 0.21 2
  44.9804 0.87 9
  45.2485 0.12 1
  46.0143 0.01 0
  46.9291 0.02 0
  47.7471 0.07 1
  48.4651 0.03 0
  48.9603 0.08 1
  49.0831 0.01 0
  49.7039 0.01 0
  49.9617 1.51 15
  50.9819 3.36 34
  51.7805 0.03 0
  51.9723 1.18 12
  52.9868 7.52 75
  53.9911 0.29 3
  54.9940 16.25 162
  55.8873 0.02 0
  56.0158 0.13 1
  57.0076 1.14 11
  57.4323 0.08 1
  57.9829 0.36 4
  58.9861 0.39 4
  60.5530 0.02 0
  60.9598 0.11 1
  61.4662 0.07 1
  61.7704 0.06 1
  61.9683 0.81 8
  62.6823 0.01 0
  62.9663 1.78 18
  63.1610 0.02 0
  63.2634 0.02 0
  63.6098 0.02 0
  63.7443 0.01 0
  63.9683 0.46 5
  64.2965 0.01 0
  64.5776 0.03 0
  64.6764 0.07 1
  64.9846 5.50 55
  65.3103 0.02 0
  65.9759 1.00 10
  66.3206 0.02 0
  66.4582 0.01 0
  67.0016 8.75 87
  67.4852 0.04 0
  67.6850 0.05 0
  67.8632 0.11 1
  68.0081 0.81 8
  68.4382 0.01 0
  69.0122 44.02 440
  69.2896 0.07 1
  69.4493 0.08 1
  69.6472 0.01 0
  69.9938 0.40 4
  70.0673 0.16 2
  70.9859 5.43 54
  71.2925 0.01 0
  71.5562 0.05 0
  72.0027 0.08 1
  72.9734 0.07 1
  73.0878 0.01 0
  73.5122 0.01 0
  73.9554 0.51 5
  74.9605 0.86 9
  75.1415 0.07 1
  75.2367 0.06 1
  75.3763 0.02 0
  75.4899 0.02 0
  75.6230 0.07 1
  75.7006 0.04 0
  75.9648 0.62 6
  76.2152 0.04 0
  76.3624 0.07 1
  76.5565 0.06 1
  76.9788 15.91 159
  77.2986 0.19 2
  77.4496 0.12 1
  77.5712 0.08 1
  77.6990 0.08 1
  77.9825 3.09 31
  78.2060 0.07 1
  78.4508 0.13 1
  78.9993 17.28 173
  79.2424 0.05 0
  79.2940 0.02 0
  79.4622 0.05 0
  79.7219 0.07 1
  80.0094 2.64 26
  80.6328 0.07 1
  81.0162 22.78 228
  81.2184 0.09 1
  81.4157 0.06 1
  82.0077 0.41 4
  82.4835 0.04 0
  83.0216 2.53 25
  83.2737 0.04 0
  83.4460 0.08 1
  83.9997 0.12 1
  85.0075 0.70 7
  85.6130 0.02 0
  85.9597 0.30 3
  86.4695 0.01 0
  86.9822 0.64 6
  87.9780 0.15 1
  88.3600 0.04 0
  88.4604 0.06 1
  88.5982 0.16 2
  88.9767 1.49 15
  89.3355 0.17 2
  89.5287 0.11 1
  89.6381 0.07 1
  89.7878 0.11 1
  89.9870 0.67 7
  90.2094 0.12 1
  91.0002 35.26 352
  91.5276 0.09 1
  91.6126 0.02 0
  91.7369 0.04 0
  92.0140 3.98 40
  92.4215 0.10 1
  93.0254 31.63 316
  93.2718 0.13 1
  93.4446 0.02 0
  94.0393 1.09 11
  94.4052 0.02 0
  95.0453 12.11 121
  95.3439 0.02 0
  96.0295 0.27 3
  96.1817 0.03 0
  96.3934 0.02 0
  97.0222 0.87 9
  97.9928 0.27 3
  98.8738 0.06 1
  99.0427 0.27 3
  99.9449 0.16 2
  100.0906 0.04 0
  100.4910 0.02 0
  100.6910 0.05 0
  101.0035 0.39 4
  101.2702 0.10 1
  101.4675 0.15 1
  101.9898 1.64 16
  102.2381 0.06 1
  102.3414 0.09 1
  102.4252 0.08 1
  102.6690 0.12 1
  103.0140 5.02 50
  103.2173 0.06 1
  103.3864 0.06 1
  103.5460 0.04 0
  103.6684 0.05 0
  104.0253 2.57 26
  104.4575 0.05 0
  104.6163 0.08 1
  105.0360 45.47 454
  105.3907 0.09 1
  105.6109 0.13 1
  106.0458 4.01 40
  106.4822 0.04 0
  106.6518 0.04 0
  107.0470 21.91 219
  107.4877 0.17 2
  107.6796 0.03 0
  108.0452 1.07 11
  108.3242 0.01 0
  108.6503 0.05 0
  108.7872 0.05 0
  109.0498 5.88 59
  109.5122 0.06 1
  109.6726 0.02 0
  110.0358 0.13 1
  110.3628 0.04 0
  110.4386 0.01 0
  110.5962 0.02 0
  110.8238 0.05 0
  111.0353 0.65 6
  111.3078 0.02 0
  111.4597 0.01 0
  111.8754 0.03 0
  112.0238 0.06 1
  112.1159 0.05 0
  112.5818 0.13 1
  112.6614 0.11 1
  113.0162 0.42 4
  113.2272 0.15 1
  113.4527 0.14 1
  113.9819 0.34 3
  114.1446 0.18 2
  114.4419 0.29 3
  114.5590 0.22 2
  114.9995 13.81 138
  115.3880 0.09 1
  115.5601 0.12 1
  116.0054 5.76 58
  116.2830 0.17 2
  116.5246 0.20 2
  117.0128 16.71 167
  117.4845 0.10 1
  117.5925 0.05 0
  117.7416 0.04 0
  118.0163 3.07 31
  118.2137 0.08 1
  118.4040 0.12 1
  118.5786 0.10 1
  119.0235 32.38 324
  119.3235 0.06 1
  119.5601 0.19 2
  120.0189 3.21 32
  120.2944 0.06 1
  120.4435 0.04 0
  120.5616 0.01 0
  121.0399 9.82 98
  121.4565 0.04 0
  121.5445 0.03 0
  121.9930 0.38 4
  122.2633 0.05 0
  122.6557 0.06 1
  123.0319 1.85 18
  123.2636 0.01 0
  124.0424 0.10 1
  124.1331 0.05 0
  125.0213 2.86 29
  125.2584 0.06 1
  125.4231 0.09 1
  125.9813 0.41 4
  126.3719 0.03 0
  126.5643 0.15 1
  126.9815 4.49 45
  127.1935 0.30 3
  127.3078 0.25 2
  127.4625 0.34 3
  127.9793 14.54 145
  128.3972 0.18 2
  128.5264 0.13 1
  128.9899 18.68 187
  129.2638 0.18 2
  129.4648 0.11 1
  129.5965 0.04 0
  130.0061 8.14 81
  130.2416 0.17 2
  130.4913 0.13 1
  131.0075 24.22 242
  131.3318 0.04 0
  131.4362 0.02 0
  131.5615 0.08 1
  132.0089 6.30 63
  132.4707 0.17 2
  133.0219 21.62 216
  133.4115 0.20 2
  133.5304 0.14 1
  133.7625 0.09 1
  134.0219 1.32 13
  134.4252 0.08 1
  134.6880 0.09 1
  135.0367 4.41 44
  135.3232 0.05 0
  135.5535 0.07 1
  135.8569 0.11 1
  136.0534 0.19 2
  136.2709 0.07 1
  136.7952 0.02 0
  137.0309 0.56 6
  137.4733 0.01 0
  137.7110 0.07 1
  137.9469 0.16 2
  138.1122 0.14 1
  138.2826 0.07 1
  138.5316 0.11 1
  138.9859 1.70 17
  139.2357 0.09 1
  139.3833 0.13 1
  139.5309 0.03 0
  140.0180 0.58 6
  140.3004 0.22 2
  140.9934 13.37 134
  141.2829 0.17 2
  141.4612 0.20 2
  141.5520 0.08 1
  142.0002 13.74 137
  142.3908 0.24 2
  142.5706 0.20 2
  143.0105 23.46 234
  143.2315 0.39 4
  143.4706 0.11 1
  143.5846 0.03 0
  143.7035 0.05 0
  144.0206 8.00 80
  144.3615 0.17 2
  144.6426 0.24 2
  145.0342 30.94 309
  145.3916 0.06 1
  145.6275 0.19 2
  146.0369 2.43 24
  146.3110 0.18 2
  146.4721 0.12 1
  146.5533 0.04 0
  147.0487 7.94 79
  147.3574 0.11 1
  147.4981 0.02 0
  147.6094 0.02 0
  147.7926 0.08 1
  148.0471 0.35 3
  148.2554 0.01 0
  148.4518 0.04 0
  148.5988 0.03 0
  148.6765 0.03 0
  149.0407 0.72 7
  149.3268 0.05 0
  149.5022 0.04 0
  149.7653 0.08 1
  150.0177 0.45 4
  150.1487 0.07 1
  150.5755 0.17 2
  151.0238 1.58 16
  151.2647 0.33 3
  151.4874 0.15 1
  152.0007 4.46 45
  152.2336 0.18 2
  152.6517 0.19 2
  153.0135 6.30 63
  153.2272 0.22 2
  153.4779 0.13 1
  153.5904 0.05 0
  154.0298 3.37 34
  154.2235 0.24 2
  154.4191 0.11 1
  154.5581 0.06 1
  155.0407 15.38 154
  155.5405 0.11 1
  156.0474 8.64 86
  156.5079 0.14 1
  157.0568 24.73 247
  157.3538 0.16 2
  157.4767 0.19 2
  158.0621 4.80 48
  158.5953 0.23 2
  159.0769 14.11 141
  159.3201 0.22 2
  159.5032 0.14 1
  159.6466 0.12 1
  159.8443 0.10 1
  160.0838 0.52 5
  160.3796 0.07 1
  160.5787 0.01 0
  160.7171 0.05 0
  161.0984 3.12 31
  161.3280 0.10 1
  161.6310 0.05 0
  161.7607 0.04 0
  162.0714 0.31 3
  162.3297 0.06 1
  162.6272 0.12 1
  163.0762 0.98 10
  163.3246 0.18 2
  163.4297 0.07 1
  163.5773 0.06 1
  164.0412 0.56 6
  164.3030 0.22 2
  164.5687 0.26 3
  165.0425 10.18 102
  165.4136 0.11 1
  165.6065 0.10 1
  166.0571 3.25 32
  166.3811 0.15 1
  166.4754 0.06 1
  166.6412 0.16 2
  167.0677 9.45 94
  167.4672 0.09 1
  168.0619 3.49 35
  168.3172 0.21 2
  168.5548 0.06 1
  169.0751 15.12 151
  169.5829 0.16 2
  170.0846 5.13 51
  170.3910 0.14 1
  170.5001 0.08 1
  171.0840 13.53 135
  171.3462 0.18 2
  171.5703 0.26 3
  171.8079 0.26 3
  172.0949 2.38 24
  172.5123 0.18 2
  172.6706 0.25 2
  173.0970 6.09 61
  173.4931 0.14 1
  173.6953 0.07 1
  174.1176 0.54 5
  174.2989 0.11 1
  174.3924 0.02 0
  174.5012 0.05 0
  174.6654 0.14 1
  174.7723 0.13 1
  175.0905 1.50 15
  175.5177 0.05 0
  175.6698 0.18 2
  176.0105 0.58 6
  176.3316 0.10 1
  176.6463 0.11 1
  177.0554 1.23 12
  177.3129 0.11 1
  177.4449 0.04 0
  178.0353 4.25 42
  178.2604 0.30 3
  178.3931 0.07 1
  178.5838 0.13 1
  179.0349 8.44 84
  179.3100 0.09 1
  179.4887 0.08 1
  179.6502 0.07 1
  180.0409 3.80 38
  180.2932 0.08 1
  180.4337 0.04 0
  180.5863 0.10 1
  181.0521 10.41 104
  181.2949 0.12 1
  181.3984 0.15 1
  182.0542 4.10 41
  182.5517 0.07 1
  183.0596 12.33 123
  183.3923 0.15 1
  183.6226 0.12 1
  184.0566 2.67 27
  184.3382 0.06 1
  184.6449 0.13 1
  185.0734 7.06 71
  185.4712 0.11 1
  185.6192 0.09 1
  185.7447 0.10 1
  186.0786 1.08 11
  186.3523 0.06 1
  186.7215 0.05 0
  187.0755 1.87 19
  187.4019 0.05 0
  187.6161 0.07 1
  187.8374 0.21 2
  188.0556 0.36 4
  188.2609 0.13 1
  188.5400 0.19 2
  189.0253 2.00 20
  189.2859 0.16 2
  189.4208 0.02 0
  190.0225 1.02 10
  190.4581 0.16 2
  191.0197 3.49 35
  191.3443 0.04 0
  191.5320 0.09 1
  192.0277 3.38 34
  192.4104 0.07 1
  192.6200 0.09 1
  193.0363 8.14 81
  193.3052 0.08 1
  193.5491 0.13 1
  194.0467 3.44 34
  194.4523 0.15 1
  195.0557 11.41 114
  195.4493 0.18 2
  195.6348 0.13 1
  196.0594 2.88 29
  196.4300 0.11 1
  196.5609 0.17 2
  196.6311 0.11 1
  197.0728 11.14 111
  197.4107 0.16 2
  197.6570 0.11 1
  198.0795 2.29 23
  198.3724 0.11 1
  199.0881 4.31 43
  199.3017 0.14 1
  199.4567 0.10 1
  199.6962 0.14 1
  200.0707 0.96 10
  200.3374 0.13 1
  200.4362 0.08 1
  200.7359 0.15 1
  201.0641 1.06 11
  201.3116 0.07 1
  201.6463 0.28 3
  202.0251 1.89 19
  202.2823 0.08 1
  202.4226 0.13 1
  202.5791 0.12 1
  203.0389 2.56 26
  203.3260 0.05 0
  203.6262 0.16 2
  203.8092 0.12 1
  204.0557 1.48 15
  204.4239 0.23 2
  204.5281 0.13 1
  205.0388 3.35 33
  205.3554 0.15 1
  205.5833 0.12 1
  205.6960 0.03 0
  206.0515 2.38 24
  206.5004 0.03 0
  206.6202 0.08 1
  207.0524 6.00 60
  207.3258 0.08 1
  207.4062 0.03 0
  207.5410 0.11 1
  207.6939 0.11 1
  208.0673 2.24 22
  208.3486 0.17 2
  208.4407 0.05 0
  209.0684 7.91 79
  209.3869 0.29 3
  209.5607 0.03 0
  209.7716 0.07 1
  210.0759 1.52 15
  210.3919 0.12 1
  210.6113 0.17 2
  210.6924 0.07 1
  211.0896 4.37 44
  211.3967 0.11 1
  211.5571 0.05 0
  211.7584 0.09 1
  212.0733 1.01 10
  212.4260 0.07 1
  212.6995 0.12 1
  213.0880 1.98 20
  213.3200 0.07 1
  213.5019 0.01 0
  213.6390 0.04 0
  213.7398 0.06 1
  214.0336 0.49 5
  214.2162 0.11 1
  214.3911 0.08 1
  214.5296 0.06 1
  214.7122 0.18 2
  215.0419 2.25 22
  215.6468 0.14 1
  216.0475 1.08 11
  216.4789 0.14 1
  216.6578 0.03 0
  217.0620 2.13 21
  217.4369 0.06 1
  217.7064 0.19 2
  218.0625 0.92 9
  218.2996 0.19 2
  218.5151 0.12 1
  219.0700 3.07 31
  219.4055 0.11 1
  219.5821 0.09 1
  220.0884 1.73 17
  220.3725 0.10 1
  220.5172 0.15 1
  220.7180 0.20 2
  221.0961 4.15 41
  221.3712 0.05 0
  221.5395 0.04 0
  221.6001 0.02 0
  221.7899 0.02 0
  222.0951 1.04 10
  222.4323 0.10 1
  222.6991 0.15 1
  223.1134 3.82 38
  223.4853 0.14 1
  223.7053 0.16 2
  224.0995 0.83 8
  224.3214 0.05 0
  224.5042 0.06 1
  224.6720 0.11 1
  224.8274 0.06 1
  225.1349 2.26 23
  225.3720 0.09 1
  225.4490 0.05 0
  225.6358 0.13 1
  226.1113 0.60 6
  226.2583 0.30 3
  226.4269 0.08 1
  226.6330 0.13 1
  227.1358 0.84 8
  227.3491 0.16 2
  228.0648 0.76 8
  228.1660 0.44 4
  228.5262 0.12 1
  229.0757 1.74 17
  229.3356 0.07 1
  229.5947 0.08 1
  229.7645 0.01 0
  230.0936 0.98 10
  230.3914 0.05 0
  230.6304 0.06 1
  231.0700 2.12 21
  231.3790 0.08 1
  231.6070 0.11 1
  231.7410 0.05 0
  232.0977 1.04 10
  232.3709 0.03 0
  232.5506 0.08 1
  232.6938 0.16 2
  233.0984 2.49 25
  234.0910 0.91 9
  234.5422 0.20 2
  234.8228 0.10 1
  235.1205 3.66 37
  235.4129 0.06 1
  235.6766 0.07 1
  235.8827 0.19 2
  236.1229 0.69 7
  236.2859 0.08 1
  236.5293 0.03 0
  236.7918 0.27 3
  237.1250 2.42 24
  237.4386 0.11 1
  237.6010 0.04 0
  237.6881 0.05 0
  238.1137 0.53 5
  238.4013 0.12 1
  238.5316 0.14 1
  238.6960 0.09 1
  239.1067 0.97 10
  239.3721 0.05 0
  239.5909 0.12 1
  239.8759 0.08 1
  240.0693 0.37 4
  240.2501 0.19 2
  240.5968 0.03 0
  241.1226 1.05 10
  241.6366 0.38 4
  242.0845 0.57 6
  242.7410 0.09 1
  242.8853 0.12 1
  243.1136 0.96 10
  243.2815 0.28 3
  243.4698 0.08 1
  243.6666 0.18 2
  243.7926 0.12 1
  244.1168 0.66 7
  244.4823 0.03 0
  244.6588 0.06 1
  245.1098 1.75 17
  245.2253 0.75 7
  245.4584 0.04 0
  245.6829 0.02 0
  245.8313 0.14 1
  246.1465 0.62 6
  246.5063 0.14 1
  246.8577 0.19 2
  247.1257 2.48 25
  247.3996 0.06 1
  247.5146 0.13 1
  247.6040 0.10 1
  247.7354 0.05 0
  248.1401 1.04 10
  248.3983 0.14 1
  249.1410 2.56 26
  249.4999 0.08 1
  249.8227 0.08 1
  250.1442 0.66 7
  250.3158 0.24 2
  250.4427 0.05 0
  250.7281 0.08 1
  251.1529 1.56 16
  251.4522 0.07 1
  251.5647 0.07 1
  251.6771 0.08 1
  251.8744 0.06 1
  252.1227 0.51 5
  252.3947 0.03 0
  252.5577 0.04 0
  252.6642 0.05 0
  253.1294 0.89 9
  253.7091 0.06 1
  253.7919 0.07 1
  254.1055 0.29 3
  254.6840 0.05 0
  255.1252 1.32 13
  255.3988 0.03 0
  255.8039 0.13 1
  256.0992 0.54 5
  256.3591 0.03 0
  256.4696 0.02 0
  256.8722 0.17 2
  257.1137 0.79 8
  257.3098 0.21 2
  257.7309 0.02 0
  258.1258 0.52 5
  258.4595 0.03 0
  258.5727 0.11 1
  258.7189 0.04 0
  259.1310 1.27 13
  259.4615 0.03 0
  259.6676 0.11 1
  260.1707 0.68 7
  260.5843 0.15 1
  260.7318 0.05 0
  261.1461 1.87 19
  261.6817 0.06 1
  261.8860 0.04 0
  262.1937 0.62 6
  262.4045 0.06 1
  262.6510 0.03 0
  263.1348 1.66 17
  263.4340 0.09 1
  263.6469 0.07 1
  263.8091 0.03 0
  263.9383 0.11 1
  264.1440 0.38 4
  264.3055 0.19 2
  264.5396 0.06 1
  264.7031 0.06 1
  265.1562 0.95 9
  265.3916 0.12 1
  265.4984 0.10 1
  265.7840 0.05 0
  266.1336 0.47 5
  266.5420 0.09 1
  267.1714 0.98 10
  267.5594 0.09 1
  267.8188 0.05 0
  267.9640 0.07 1
  268.1290 0.33 3
  268.2907 0.14 1
  268.6055 0.11 1
  268.6913 0.08 1
  268.9072 0.07 1
  269.1673 0.78 8
  269.5997 0.04 0
  269.6913 0.04 0
  270.0601 0.49 5
  270.1551 0.24 2
  270.4824 0.05 0
  270.7114 0.03 0
  271.1159 0.84 8
  271.5475 0.05 0
  271.9633 0.04 0
  272.1983 0.24 2
  272.4525 0.04 0
  272.8360 0.13 1
  273.1430 0.82 8
  273.4989 0.12 1
  273.6284 0.10 1
  273.7188 0.09 1
  273.9097 0.13 1
  274.1203 0.20 2
  274.4149 0.05 0
  274.5543 0.07 1
  274.7003 0.11 1
  275.1521 1.01 10
  275.6449 0.05 0
  275.8213 0.09 1
  276.1867 0.33 3
  276.6592 0.07 1
  276.8429 0.07 1
  277.2018 0.89 9
  277.5349 0.04 0
  277.7683 0.11 1
  278.1550 0.61 6
  278.4208 0.09 1
  278.5927 0.06 1
  278.7620 0.09 1
  278.9815 0.24 2
  279.2202 0.54 5
  279.4543 0.06 1
  279.7903 0.05 0
  280.1712 0.52 5
  280.3756 0.06 1
  280.5423 0.05 0
  280.7698 0.04 0
  281.1866 0.58 6
  281.5558 0.05 0
  282.1791 0.31 3
  282.3790 0.03 0
  282.5564 0.11 1
  282.8840 0.03 0
  283.1712 0.58 6
  283.3274 0.23 2
  283.6789 0.02 0
  284.1973 0.25 2
  284.8885 0.07 1
  285.1793 0.81 8
  285.4719 0.03 0
  285.7594 0.04 0
  286.2348 0.14 1
  286.8695 0.05 0
  287.1704 0.79 8
  287.6307 0.05 0
  287.7471 0.17 2
  288.1625 0.22 2
  288.2948 0.21 2
  288.4377 0.06 1
  288.5131 0.04 0
  288.8617 0.15 1
  289.1753 0.77 8
  289.5617 0.11 1
  289.8760 0.04 0
  290.2135 0.17 2
  290.5933 0.06 1
  290.8607 0.04 0
  291.1718 0.45 4
  291.2870 0.30 3
  291.4273 0.10 1
  291.6153 0.08 1
  291.7047 0.04 0
  292.1647 0.13 1
  292.6249 0.06 1
  293.1665 0.28 3
  294.1990 0.18 2
  294.3056 0.10 1
  294.5805 0.02 0
  295.0721 0.30 3
  295.2887 0.29 3
  295.9028 0.07 1
  295.9870 0.05 0
  296.1076 0.11 1
  296.2514 0.12 1
  296.5032 0.02 0
  296.5867 0.01 0
  296.7596 0.01 0
  297.1454 0.35 3
  297.3654 0.15 1
  297.5550 0.06 1
  298.1071 0.17 2
  298.2934 0.11 1
  298.5314 0.03 0
  298.8748 0.01 0
  299.1453 0.42 4
  299.3674 0.07 1
  299.6765 0.06 1
  299.7786 0.10 1
  299.9198 0.09 1
  300.1745 0.18 2
  300.4086 0.04 0
  300.5359 0.02 0
  301.1501 0.49 5
  301.4493 0.04 0
  301.9780 0.21 2
  302.2221 0.19 2
  302.5227 0.03 0
  303.1790 0.53 5
  303.4079 0.11 1
  303.5194 0.11 1
  303.6913 0.07 1
  303.9647 0.10 1
  304.1618 0.20 2
  304.4193 0.05 0
  304.8986 0.11 1
  305.1934 0.45 4
  305.2949 0.20 2
  305.4410 0.05 0
  305.7072 0.04 0
  305.7875 0.03 0
  306.0153 0.10 1
  306.1959 0.10 1
  306.5890 0.02 0
  306.6873 0.04 0
  306.9310 0.07 1
  307.0512 0.11 1
  307.2292 0.22 2
  307.8880 0.03 0
  308.0189 0.06 1
  308.1238 0.07 1
  308.2713 0.18 2
  308.4294 0.01 0
  308.6074 0.07 1
  309.1183 0.29 3
  309.2405 0.16 2
  310.0638 0.11 1
  310.1575 0.04 0
  310.3249 0.03 0
  310.6732 0.07 1
  311.1277 0.23 2
  311.3098 0.15 1
  311.4175 0.14 1
  312.1241 0.21 2
  312.2843 0.14 1
  312.3933 0.06 1
  312.5662 0.04 0
  312.8680 0.05 0
  313.1872 0.40 4
  313.7437 0.03 0
  314.2092 0.18 2
  314.4233 0.02 0
  314.8483 0.05 0
  314.9680 0.08 1
  315.1729 0.38 4
  315.8633 0.05 0
  316.1348 0.12 1
  316.2658 0.17 2
  316.4288 0.01 0
  316.8965 0.06 1
  317.2219 0.36 4
  317.4674 0.13 1
  317.8208 0.10 1
  318.1795 0.18 2
  318.4251 0.09 1
  318.5981 0.01 0
  319.2171 0.38 4
  319.3722 0.12 1
  319.8768 0.03 0
  320.1025 0.11 1
  320.2896 0.11 1
  320.6770 0.03 0
  320.8441 0.04 0
  320.9533 0.08 1
  321.2037 0.29 3
  321.5793 0.12 1
  321.8530 0.02 0
  322.1447 0.19 2
  322.2659 0.14 1
  322.4091 0.03 0
  322.7547 0.06 1
  323.1151 0.18 2
  323.2816 0.06 1
  324.0110 0.02 0
  324.2276 0.04 0
  324.3835 0.03 0
  324.6819 0.07 1
  325.0844 0.15 1
  325.2783 0.20 2
  325.7114 0.06 1
  326.0620 0.05 0
  326.2845 0.09 1
  326.7531 0.05 0
  327.1550 0.44 4
  327.2463 0.19 2
  327.3450 0.10 1
  327.8236 0.06 1
  327.8969 0.02 0
  328.2685 0.15 1
  329.1991 0.42 4
  329.4346 0.02 0
  329.5690 0.03 0
  329.6974 0.03 0
  330.1378 0.20 2
  330.3707 0.16 2
  330.5490 0.09 1
  331.0487 0.05 0
  331.2650 0.56 6
  331.7076 0.05 0
  331.8527 0.04 0
  332.2034 0.37 4
  332.3951 0.11 1
  333.2238 0.54 5
  333.5593 0.07 1
  333.7264 0.03 0
  334.0134 0.11 1
  334.2044 0.07 1
  334.3096 0.05 0
  334.9475 0.04 0
  335.2512 0.45 4
  335.3317 0.21 2
  335.6667 0.04 0
  335.8432 0.06 1
  335.9997 0.13 1
  336.1016 0.04 0
  336.2641 0.13 1
  337.0260 0.15 1
  337.1679 0.26 3
  337.3478 0.06 1
  337.8081 0.06 1
  338.2165 0.24 2
  339.0699 0.06 1
  339.1699 0.07 1
  339.2772 0.16 2
  339.6010 0.06 1
  339.7416 0.10 1
  339.9355 0.01 0
  340.2188 0.06 1
  340.3281 0.04 0
  340.5993 0.01 0
  341.1578 0.13 1
  341.3591 0.12 1
  341.9264 0.08 1
  342.1290 0.17 2
  342.2557 0.14 1
  342.3637 0.08 1
  342.6070 0.12 1
  342.7377 0.06 1
  343.2344 0.58 6
  343.3671 0.26 3
  343.8625 0.11 1
  344.1059 0.18 2
  344.3313 0.18 2
  344.4380 0.12 1
  344.5153 0.09 1
  344.7114 0.08 1
  345.1842 0.24 2
  345.2896 0.13 1
  345.4843 0.06 1
  345.6604 0.04 0
  346.2374 0.27 3
  346.6310 0.04 0
  347.2627 0.34 3
  347.4449 0.12 1
  347.6470 0.05 0
  347.7631 0.05 0
  348.0587 0.06 1
  348.2942 0.36 4
  348.4910 0.05 0
  348.8387 0.03 0
  349.0369 0.14 1
  349.2578 0.22 2
  349.9145 0.05 0
  350.1374 0.03 0
  350.7047 0.06 1
  351.2440 0.20 2
  351.4042 0.11 1
  352.0084 0.02 0
  352.1573 0.03 0
  352.3629 0.02 0
  352.6306 0.06 1
  352.9318 0.05 0
  353.2543 0.15 1
  353.7083 0.07 1
  353.8466 0.01 0
  354.1838 0.03 0
  354.3795 0.08 1
  354.9703 0.03 0
  355.1718 0.22 2
  355.3353 0.02 0
  355.9706 0.03 0
  356.1254 0.09 1
  356.3210 0.19 2
  356.4211 0.08 1
  356.6146 0.06 1
  356.7775 0.09 1
  357.2140 0.31 3
  357.3802 0.31 3
  357.6599 0.07 1
  357.7961 0.04 0
  357.9008 0.04 0
  358.2894 0.35 3
  358.4089 0.21 2
  358.6979 0.04 0
  358.8288 0.02 0
  358.9850 0.17 2
  359.0945 0.24 2
  359.2227 0.30 3
  359.3369 0.15 1
  359.7361 0.03 0
  359.9698 0.03 0
  360.2456 0.29 3
  360.3411 0.10 1
  360.4359 0.10 1
  360.5508 0.04 0
  360.8079 0.06 1
  361.0269 0.12 1
  361.3094 0.15 1
  361.8210 0.07 1
  361.9613 0.01 0
  362.2752 0.26 3
  363.1483 0.11 1
  363.2832 0.18 2
  363.3807 0.07 1
  363.5645 0.10 1
  363.7321 0.03 0
  364.0809 0.08 1
  364.3341 0.13 1
  365.0544 0.06 1
  365.2582 0.08 1
  365.3784 0.06 1
  366.1884 0.08 1
  366.4831 0.04 0
  367.1147 0.09 1
  367.3038 0.25 2
  367.6801 0.02 0
  367.8927 0.08 1
  368.2149 0.08 1
  369.3370 0.16 2
  369.7383 0.06 1
  370.1309 0.06 1
  370.3927 0.05 0
  370.5630 0.08 1
  370.6691 0.07 1
  371.1205 0.11 1
  371.2688 0.23 2
  371.4685 0.01 0
  371.6321 0.10 1
  372.2773 0.03 0
  372.9425 0.02 0
  373.0794 0.08 1
  373.2257 0.14 1
  373.3593 0.06 1
  373.5711 0.09 1
  374.2284 0.06 1
  374.4008 0.23 2
  375.0589 0.08 1
  375.2099 0.22 2
  375.3241 0.20 2
  375.4885 0.03 0
  375.7357 0.07 1
  375.8827 0.04 0
  376.1580 0.12 1
  376.3217 0.09 1
  377.0709 0.08 1
  377.1885 0.15 1
  377.3289 0.11 1
  377.7512 0.09 1
  378.3033 0.10 1
  379.2030 0.06 1
  379.4450 0.15 1
  380.1296 0.07 1
  380.3188 0.01 0
  381.1304 0.04 0
  381.3324 0.18 2
  381.9997 0.02 0
  382.9219 0.07 1
  383.2075 0.20 2
  383.9920 0.08 1
  384.0856 0.07 1
  384.2348 0.20 2
  384.3618 0.06 1
  384.9492 0.02 0
  385.0903 0.08 1
  385.2181 0.10 1
  385.3130 0.07 1
  385.4937 0.10 1
  385.9994 0.02 0
  386.1353 0.10 1
  386.3433 0.12 1
  386.5775 0.04 0
  386.9869 0.02 0
  387.2552 0.40 4
  387.3563 0.13 1
  387.5316 0.09 1
  387.9993 0.07 1
  388.3593 0.15 1
  389.1463 0.06 1
  389.3009 0.09 1
  389.4147 0.07 1
  389.9716 0.11 1
  390.1302 0.07 1
  390.3129 0.06 1
  390.4608 0.03 0
  390.9127 0.08 1
  391.2454 0.18 2
  391.3839 0.15 1
  392.2254 0.08 1
  393.1185 0.05 0
  393.2739 0.19 2
  393.3676 0.06 1
  393.6154 0.04 0
  393.9870 0.01 0
  394.1926 0.32 3
  394.4169 0.28 3
  394.7008 0.05 0
  395.1187 0.08 1
  395.4140 0.11 1
  395.8802 0.06 1
  396.0583 0.08 1
  396.2331 0.27 3
  396.9297 0.05 0
  397.0811 0.09 1
  397.3383 0.22 2
  397.8293 0.08 1
  398.0571 0.04 0
  398.2145 0.17 2
  398.3452 0.27 3
  398.5200 0.06 1
  398.7438 0.11 1
  398.9662 0.03 0
  399.1799 0.21 2
  399.3843 0.19 2
  399.9330 0.04 0
  400.2347 0.11 1
  400.5162 0.12 1
  401.1413 0.24 2
  401.3398 0.29 3
  401.4996 0.06 1
  402.0051 0.06 1
  402.2130 0.39 4
  402.3501 0.05 0
  402.5106 0.03 0
  402.8904 0.01 0
  403.0810 0.06 1
  403.3103 0.35 3
  403.4053 0.08 1
  403.5123 0.03 0
  403.6220 0.05 0
  404.1503 0.07 1
  404.3542 0.24 2
  404.7047 0.06 1
  404.9542 0.10 1
  405.2425 0.12 1
  406.0130 0.07 1
  406.2699 0.14 1
  406.5930 0.03 0
  407.0619 0.06 1
  407.1930 0.04 0
  407.3422 0.07 1
  407.5027 0.04 0
  407.7831 0.01 0
  408.1878 0.16 2
  408.6040 0.05 0
  408.9707 0.03 0
  409.1647 0.07 1
  409.2898 0.11 1
  409.5341 0.14 1
  409.8700 0.06 1
  410.0152 0.04 0
  410.3143 0.13 1
  410.5392 0.11 1
  410.6549 0.06 1
  410.9220 0.10 1
  411.2432 0.31 3
  411.3630 0.24 2
  411.6213 0.12 1
  412.3007 0.32 3
  412.6046 0.08 1
  412.6989 0.04 0
  412.9305 0.01 0
  413.2518 0.46 5
  413.3495 0.39 4
  413.5209 0.31 3
  414.2827 0.31 3
  414.3771 0.19 2
  414.4729 0.09 1
  414.7346 0.01 0
  414.9770 0.16 2
  415.0801 0.10 1
  415.2434 0.17 2
  415.4195 0.29 3
  415.5293 0.15 1
  415.7309 0.03 0
  416.3154 0.18 2
  416.5169 0.09 1
  416.6941 0.08 1
  416.8906 0.09 1
  417.2115 0.17 2
  417.3413 0.19 2
  417.5278 0.03 0
  417.6154 0.03 0
  417.7933 0.08 1
  418.1664 0.06 1
  418.7883 0.07 1
  419.1234 0.12 1
  419.3246 0.13 1
  420.1800 0.05 0
  420.3486 0.09 1
  420.7539 0.03 0
  420.9980 0.07 1
  421.2241 0.05 0
  421.6147 0.08 1
  422.0422 0.11 1
  422.2214 0.11 1
  422.3064 0.04 0
  422.5265 0.04 0
  422.7065 0.07 1
  422.8068 0.12 1
  422.9018 0.07 1
  423.0255 0.08 1
  423.2864 0.08 1
  423.5587 0.14 1
  423.6959 0.04 0
  423.9321 0.11 1
  424.0666 0.10 1
  424.2264 0.13 1
  424.3556 0.25 2
  424.4974 0.10 1
  424.7624 0.20 2
  424.9698 0.25 2
  425.1465 0.17 2
  425.3659 0.23 2
  425.6684 0.18 2
  425.7802 0.05 0
  426.0699 0.14 1
  426.2860 0.24 2
  426.4266 0.15 1
  426.5731 0.13 1
  426.8589 0.15 1
  427.2698 0.89 9
  427.4699 0.62 6
  427.7510 0.08 1
  427.8889 0.08 1
  428.0676 0.17 2
  428.3079 0.23 2
  428.4939 0.11 1
  428.8882 0.04 0
  429.1044 0.13 1
  429.2329 0.17 2
  429.3601 0.30 3
  429.4471 0.22 2
  429.6841 0.01 0
  430.1272 0.02 0
  430.2631 0.10 1
  430.4111 0.10 1
  430.5476 0.05 0
  430.7438 0.07 1
  430.9687 0.07 1
  431.0537 0.08 1
  431.2211 0.09 1
  431.6175 0.03 0
  431.7366 0.03 0
  432.0219 0.05 0
  432.8166 0.02 0
  433.1481 0.03 0
  433.3543 0.26 3
  433.6376 0.09 1
  434.6642 0.11 1
  434.8195 0.03 0
  435.0184 0.03 0
  435.1223 0.09 1
  435.4343 0.04 0
  435.6152 0.07 1
  435.8362 0.07 1
  436.1443 0.11 1
  436.5294 0.08 1
  436.7712 0.03 0
  436.9306 0.08 1
  437.0204 0.02 0
  437.1510 0.08 1
  437.3111 0.09 1
  437.6373 0.07 1
  437.9327 0.13 1
  438.2020 0.12 1
  438.3320 0.10 1
  438.3916 0.05 0
  438.6013 0.16 2
  438.7922 0.21 2
  438.8947 0.13 1
  438.9899 0.06 1
  439.2397 0.19 2
  439.3965 0.12 1
  439.5546 0.10 1
  439.7496 0.11 1
  439.9198 0.17 2
  440.0665 0.13 1
  440.1656 0.11 1
  440.3888 0.28 3
  440.5603 0.06 1
  440.6675 0.09 1
  441.0126 0.04 0
  441.2069 0.46 5
  441.3717 0.24 2
  441.5741 0.04 0
  441.7544 0.04 0
  441.9500 0.15 1
  442.2402 0.28 3
  442.5082 0.13 1
  442.7589 0.11 1
  442.9432 0.09 1
  443.2649 0.09 1
  443.5718 0.06 1
  443.7105 0.01 0
  443.8633 0.17 2
  444.2876 0.06 1
  444.4612 0.06 1
  444.7045 0.04 0
  444.8238 0.16 2
  445.1743 0.08 1
  445.3587 0.17 2
  445.5833 0.08 1
  446.2784 0.42 4
  446.5110 0.14 1
  446.9561 0.06 1
  447.1861 0.04 0
  447.3496 0.12 1
  447.5923 0.27 3
  447.7479 0.08 1
  447.9423 0.17 2
  448.1474 0.20 2
  448.4371 0.20 2
  448.8467 0.08 1
  449.1257 0.25 2
  449.2665 0.21 2
  449.3899 0.12 1
  449.5441 0.02 0
  449.7083 0.07 1
  450.0765 0.12 1
  450.3575 0.10 1
  450.4983 0.11 1
  450.6284 0.13 1
  450.8790 0.10 1
  451.1536 0.02 0
  451.2903 0.15 1
  451.3593 0.06 1
  451.6258 0.07 1
  451.7973 0.13 1
  452.0451 0.07 1
  452.2019 0.01 0
  452.3935 0.11 1
  452.7726 0.08 1
  453.0734 0.09 1
  453.4143 0.16 2
  453.5758 0.14 1
  453.8290 0.13 1
  454.0172 0.06 1
  454.1559 0.14 1
  454.2892 0.10 1
  454.4333 0.19 2
  454.7709 0.16 2
  455.0349 0.04 0
  455.2292 0.17 2
  455.3692 0.03 0
  455.5207 0.04 0
  455.6788 0.09 1
  455.9361 0.05 0
  456.1552 0.08 1
  456.3850 0.10 1
  456.6859 0.04 0
  457.0832 0.16 2
  457.3425 0.17 2
  457.4578 0.09 1
  457.6514 0.01 0
  457.8652 0.06 1
  458.0066 0.05 0
  458.3604 0.52 5
  458.6741 0.09 1
  458.9019 0.03 0
  459.0078 0.10 1
  459.0990 0.05 0
  459.2987 0.18 2
  459.5219 0.20 2
  459.7202 0.05 0
  459.8302 0.10 1
  460.3570 9.38 94
  460.7531 0.40 4
  460.9683 0.27 3
  461.1901 0.23 2
  461.3041 0.26 3
  461.4857 0.05 0
  461.5809 0.03 0
  461.7760 0.04 0
  462.2479 0.11 1
  462.3645 0.07 1
  462.7413 0.18 2
  462.9558 0.09 1
  463.2152 0.10 1
  463.6456 0.10 1
  463.8642 0.12 1
  464.1075 0.13 1
  464.3858 0.13 1
  464.7693 0.21 2
  465.0375 0.32 3
  465.2621 0.65 6
  465.4901 0.21 2
  465.6825 0.40 4
  465.9728 0.17 2
  466.1485 0.20 2
  466.4013 0.18 2
  466.6421 0.12 1
  466.8372 0.12 1
  467.3086 0.46 5
  467.5520 0.22 2
  468.0912 0.27 3
  468.3608 0.39 4
  468.7968 0.23 2
  468.9396 0.25 2
  469.3755 0.26 3
  469.5305 0.17 2
  469.6660 0.08 1
  469.8685 0.19 2
  470.3816 0.49 5
  470.5976 0.11 1
  470.7673 0.11 1
  470.9565 0.03 0
  471.2174 0.16 2
  471.3864 0.12 1
  471.4824 0.08 1
  471.6802 0.18 2
  472.3766 0.36 4
  472.5490 0.22 2
  472.8247 0.08 1
  473.3654 0.67 7
  473.8330 0.03 0
  474.0544 0.06 1
  474.3429 0.04 0
  474.8233 0.04 0
  475.0797 0.03 0
  475.3252 0.12 1
  475.4480 0.05 0
  475.8976 0.02 0
  477.2470 0.02 0
  477.3631 0.05 0
  477.6490 0.01 0
  477.9214 0.03 0
  478.1163 0.05 0
  478.2007 0.03 0
  478.4098 0.07 1
  478.6322 0.08 1
  478.9833 0.09 1
  479.1763 0.20 2
  479.3150 0.15 1
  479.5555 0.18 2
  480.1230 0.39 4
  480.3602 0.85 8
  480.5298 0.29 3
  481.0250 0.16 2
  481.2434 0.39 4
  481.3734 0.26 3
  481.5504 0.01 0
  481.7051 0.11 1
  482.3445 0.79 8
  482.5100 0.57 6
  482.6816 0.06 1
  483.3605 7.86 79
  483.7861 0.12 1
  484.0930 0.23 2
  484.2298 0.18 2
  484.3451 0.27 3
  484.4992 0.20 2
  484.8263 0.14 1
  484.9671 0.08 1
  485.3706 0.10 1
  485.7976 0.10 1
  486.1234 0.02 0
  486.4391 0.10 1
  486.5470 0.03 0
  486.8212 0.10 1
  487.1779 0.01 0
  487.5157 0.01 0
  487.9830 0.03 0
  488.3685 0.11 1
  488.7600 0.07 1
  489.2307 0.05 0
  490.2143 0.01 0
  491.1443 0.07 1
  491.3817 0.09 1
  491.4441 0.05 0
  491.6748 0.03 0
  492.2716 0.07 1
  492.7598 0.02 0
  493.2802 0.11 1
  493.4291 0.19 2
  493.6229 0.10 1
  494.1581 0.05 0
  494.3426 0.36 4
  494.4787 0.08 1
  495.1266 0.12 1
  495.3211 0.07 1
  496.1965 0.19 2
  496.3333 0.22 2
  496.4869 0.29 3
  496.6211 0.05 0
  496.9296 0.07 1
  497.3824 0.52 5
  497.6165 0.16 2
  498.1123 0.11 1
  498.3183 0.15 1
  498.4451 0.06 1
  498.6846 0.10 1
  499.0113 0.11 1
  499.1582 0.11 1
  499.3011 0.06 1
  499.4105 0.03 0
  499.5641 0.08 1
  499.7513 0.09 1
  500.3961 0.08 1
  500.7047 0.07 1
  501.0543 0.05 0
  501.1616 0.02 0
  501.8501 0.10 1
  502.4439 0.03 0
  504.1461 0.12 1
  504.5256 0.02 0
  505.6235 0.11 1
  505.9174 0.04 0
  506.2093 0.06 1
  507.3280 0.05 0
  507.5757 0.04 0
  507.6916 0.03 0
  508.0712 0.19 2
  508.3270 0.19 2
  508.5245 0.09 1
  508.6752 0.08 1
  508.8807 0.03 0
  509.2008 0.24 2
  509.4894 0.16 2
  509.7392 0.04 0
  510.3278 0.35 3
  510.6023 0.10 1
  510.8267 0.10 1
  511.0095 0.08 1
  511.3952 0.42 4
  511.6269 0.11 1
  511.8941 0.06 1
  512.1152 0.11 1
  512.2839 0.10 1
  512.5338 0.08 1
  512.8010 0.10 1
  513.2430 0.05 0
  513.5122 0.14 1
  513.9750 0.02 0
  514.4232 0.03 0
  515.0862 0.11 1
  515.2544 0.10 1
  515.4011 0.04 0
  515.7460 0.10 1
  515.9263 0.16 2
  516.0522 0.08 1
  516.1299 0.06 1
  516.5251 0.07 1
  516.6437 0.04 0
  516.7194 0.02 0
  516.8547 0.04 0
  516.9545 0.06 1
  517.1166 0.02 0
  517.3551 0.06 1
  517.9380 0.06 1
  518.1952 0.03 0
  518.3929 0.08 1
  518.7117 0.12 1
  518.9871 0.03 0
  519.2819 0.43 4
  519.4816 0.27 3
  519.6283 0.14 1
  519.7147 0.04 0
  519.8434 0.08 1
  520.0712 0.11 1
  520.1771 0.13 1
  520.4316 0.06 1
  520.5509 0.02 0
  521.2571 0.05 0
  521.4990 0.07 1
  521.8830 0.08 1
  522.3641 0.88 9
  522.7146 0.11 1
  523.0369 0.11 1
  523.1468 0.06 1
  523.3754 0.29 3
  523.5831 0.15 1
  523.7366 0.15 1
  523.9825 0.11 1
  524.1111 0.10 1
  524.3759 0.15 1
  524.6386 0.08 1
  524.9047 0.20 2
  525.0280 0.11 1
  525.2712 0.11 1
  525.3959 0.10 1
  525.8256 0.15 1
  526.1124 0.15 1
  526.2029 0.05 0
  526.3765 0.08 1
  526.5709 0.09 1
  526.7431 0.05 0
  526.8738 0.11 1
  527.0320 0.09 1
  527.2177 0.20 2
  527.4871 0.10 1
  527.6935 0.07 1
  527.9181 0.06 1
  528.1567 0.19 2
  528.3304 0.08 1
  528.4517 0.13 1
  528.6132 0.08 1
  528.7513 0.22 2
  529.0563 0.18 2
  529.3748 0.08 1
  529.5162 0.08 1
  529.6637 0.10 1
  529.9171 0.23 2
  530.0491 0.05 0
  530.1430 0.03 0
  530.3408 0.14 1
  530.6243 0.31 3
  531.0011 0.25 2
  531.2438 0.30 3
  531.6005 0.28 3
  531.8954 0.48 5
  532.4345 0.63 6
  532.9125 0.66 7
  533.1043 0.71 7
  534.4299 5.23 52
  534.9026 0.53 5
  535.0938 0.52 5
  535.4612 0.69 7
  535.8052 0.54 5
  536.3451 1.26 13
  536.8635 0.77 8
  537.4275 4.42 44
  537.6340 1.91 19
  538.3328 0.56 6
  538.6514 0.41 4
  539.0632 0.42 4
  539.3536 0.37 4
  539.5944 0.29 3
  539.9432 0.55 5
  540.2249 0.58 6
  540.4825 0.52 5
  540.6918 0.26 3
  540.8909 0.35 3
  541.2283 0.45 4
  541.8938 0.61 6
  542.0944 0.52 5
  542.1815 0.26 3
  542.4532 0.34 3
  542.9939 0.54 5
  543.5010 0.66 7
  544.0317 0.54 5
  544.4041 0.82 8
  544.7442 0.63 6
  545.1568 0.81 8
  545.6774 0.70 7
  546.4584 1.11 11
  546.7621 1.28 13
  552.4194 99.97 999
  553.1288 27.22 272
  553.8002 13.60 136
  554.6946 6.74 67
  555.3143 3.61 36
//
