ACCESSION: MSBNK-Kyoto_Univ-CA000108
RECORD_TITLE: 7,8-Dihydroparasiloxanthin; FAB-EBEB; MS2; m/z: 572.46; [M]+*
DATE: 2016.01.19 (Created 2010.07.29, modified 2011.05.10)
AUTHORS: Akimoto N, Graduate School of Pharmaceutical Sciences, Kyoto University and Maoka T, Research Institute for Production Development
LICENSE: CC BY-SA
COMMENT: Profile spectrum of this record is given as a JPEG file.
COMMENT: [Profile] CA000108.jpg
CH$NAME: 7,8-Dihydroparasiloxanthin
CH$COMPOUND_CLASS: Natural Product
CH$FORMULA: C40H60O2
CH$EXACT_MASS: 572.45933
CH$SMILES: CC(C1)=C(CCC(C)=CC=CC(C)=CC=CC=C(C)C=CC=C(CCC(=C(C)2)C(CC(O)C2)(C)C)C)C(CC(O)1)(C)C
CH$IUPAC: InChI=1S/C40H60O2/c1-29(17-13-19-31(3)21-23-37-33(5)25-35(41)27-39(37,7)8)15-11-12-16-30(2)18-14-20-32(4)22-24-38-34(6)26-36(42)28-40(38,9)10/h11-20,35-36,41-42H,21-28H2,1-10H3/b12-11+,17-13+,18-14+,29-15+,30-16+,31-19+,32-20+/t35-,36-/m1/s1
CH$LINK: CAS 62994-71-2
CH$LINK: CHEMSPIDER 17220907
CH$LINK: PUBCHEM CID:16061230
CH$LINK: INCHIKEY DCNLLBVWQNTIMR-DDEWRDOISA-N
SP$SCIENTIFIC_NAME: Silurus asotus
SP$LINEAGE: cellular organisms; Eukaryota; Fungi/Metazoa group; Metazoa; Eumetazoa; Bilateria; Coelomata; Deuterostomia; Chordata; Craniata; Vertebrata; Gnathostomata; Teleostomi; Euteleostomi; Actinopterygii; Actinopteri; Neopterygii; Teleostei; Elopocephala; Clupeocephala; Otocephala; Ostariophysi; Otophysi; Siluriphysi; Siluriformes; Siluridae; Silurus
SP$LINK: NCBI-TAXONOMY 30991
AC$INSTRUMENT: JMS-HX/HX 110A, JEOL
AC$INSTRUMENT_TYPE: FAB-EBEB
AC$MASS_SPECTROMETRY: MS_TYPE MS2
AC$MASS_SPECTROMETRY: ION_MODE POSITIVE
AC$MASS_SPECTROMETRY: ATOM_GUN_CURRENT 5 mA
AC$MASS_SPECTROMETRY: BOMBARDMENT 6 kV xenon
AC$MASS_SPECTROMETRY: COLLISION_ENERGY 3 kV
AC$MASS_SPECTROMETRY: COLLISION_GAS Ar
AC$MASS_SPECTROMETRY: GAS_PRESSURE adjust to attenuate the intensity of the precursor ion by 30 %
AC$MASS_SPECTROMETRY: IONIZATION FAB
AC$MASS_SPECTROMETRY: MATRIX 1-2 uL m-NBA
AC$MASS_SPECTROMETRY: PROBE_TIP stainless-steel
MS$FOCUSED_ION: BASE_PEAK 572.5145
MS$FOCUSED_ION: PRECURSOR_M/Z 572.46
MS$FOCUSED_ION: PRECURSOR_TYPE [M]+*
PK$SPLASH: splash10-00xr-4910130000-2a7374018bffdd24439c
PK$ANNOTATION: m/z InChI
  419.331 InChI=1/C30H43O/c1-23(2)13-11-16-24(3)14-9-10-15-25(4)17-12-18-26(5)19-20-29-27(6)21-28(31)22-30(29,7)8/h9-18,28,31H,1,19-22H2,2-8H3/q+1/b10-9+,16-11+,17-12+,23-13-,24-14+,25-15+,26-18+/t28-/m1/s1
  433.347 InChI=1/C31H45O/c1-9-24(2)16-12-17-25(3)14-10-11-15-26(4)18-13-19-27(5)20-21-30-28(6)22-29(32)23-31(30,7)8/h10-19,29,32H,1,9,20-23H2,2-8H3/q+1/b11-10+,17-12+,18-13+,24-16+,25-14+,26-15+,27-19+/t29-/m1/s1
  554.449 InChI=1/C40H58O/c1-30(18-13-20-32(3)23-25-37-34(5)22-15-27-39(37,7)8)16-11-12-17-31(2)19-14-21-33(4)24-26-38-35(6)28-36(41)29-40(38,9)10/h11-21,27,36,41H,22-26,28-29H2,1-10H3/q+1/b12-11+,18-13+,19-14+,30-16+,31-17+,32-20+,33-21+/t36-/m1/s1
PK$NUM_PEAK: 1307
PK$PEAK: m/z int. rel.int.
  0.0229 0.02 0
  2.0518 0.01 0
  8.7422 0.02 0
  11.9383 0.02 0
  13.9552 0.07 1
  14.9681 0.18 2
  15.9625 0.02 0
  18.9400 0.03 0
  22.9066 0.08 1
  24.9211 0.02 0
  25.9383 0.26 3
  26.9553 1.69 17
  27.9513 0.17 2
  28.9597 1.19 12
  29.2514 0.01 0
  29.8922 0.04 0
  30.9459 0.17 2
  35.9394 0.01 0
  36.1488 0.01 0
  36.9217 0.15 1
  37.2861 0.01 0
  37.5196 0.01 0
  37.9362 0.40 4
  38.2339 0.04 0
  38.9396 3.06 31
  39.4151 0.02 0
  39.9597 0.51 5
  40.5923 0.01 0
  40.9535 7.32 73
  41.1492 0.04 0
  41.9524 0.10 1
  42.9538 6.71 67
  43.3266 0.01 0
  43.7528 0.04 0
  43.9552 0.16 2
  44.9446 0.27 3
  47.8561 0.02 0
  48.5796 0.03 0
  48.8998 0.07 1
  49.5535 0.04 0
  49.9287 0.86 9
  50.9388 1.73 17
  51.1922 0.01 0
  51.3849 0.03 0
  51.9411 0.75 7
  52.3364 0.03 0
  52.9427 3.68 37
  53.9418 0.15 1
  54.2890 0.03 0
  54.9558 8.98 90
  55.2077 0.01 0
  55.9654 0.18 2
  56.3200 0.02 0
  56.9688 4.03 40
  57.9591 0.10 1
  58.4751 0.08 1
  58.9547 0.63 6
  59.1705 0.01 0
  59.9554 0.03 0
  60.9182 0.06 1
  61.3633 0.02 0
  61.9196 0.45 4
  62.9401 1.16 12
  63.0973 0.02 0
  63.4929 0.03 0
  63.9371 0.35 3
  64.2569 0.03 0
  64.5883 0.02 0
  64.9426 2.31 23
  65.6655 0.03 0
  65.9403 0.51 5
  66.0567 0.09 1
  66.4998 0.04 0
  66.5770 0.03 0
  66.6903 0.03 0
  66.9549 9.49 95
  67.5777 0.01 0
  67.9514 0.20 2
  68.6310 0.02 0
  68.9680 17.52 175
  69.2536 0.05 0
  69.9747 0.23 2
  70.9564 1.26 13
  71.9988 0.01 0
  72.8282 0.02 0
  72.9804 0.08 1
  73.6737 0.07 1
  73.9484 0.32 3
  74.9496 0.39 4
  75.0558 0.16 2
  75.4613 0.07 1
  75.5712 0.04 0
  75.6933 0.01 0
  75.8452 0.11 1
  75.9633 0.21 2
  76.1101 0.09 1
  76.1951 0.03 0
  76.3379 0.02 0
  76.4417 0.02 0
  76.5286 0.03 0
  76.6166 0.04 0
  76.9394 7.63 76
  77.1088 0.16 2
  77.2490 0.10 1
  77.3519 0.03 0
  77.4460 0.06 1
  77.5882 0.07 1
  77.9400 1.97 20
  78.1890 0.04 0
  78.2863 0.04 0
  78.9630 8.95 89
  79.1781 0.03 0
  79.3521 0.06 1
  79.5657 0.04 0
  79.9649 1.30 13
  80.2791 0.02 0
  80.9703 11.11 111
  81.1925 0.06 1
  81.4669 0.01 0
  81.9654 0.32 3
  82.9799 3.79 38
  83.1915 0.02 0
  83.9329 0.07 1
  83.9961 0.02 0
  84.9617 1.68 17
  85.9466 0.16 2
  86.0526 0.11 1
  86.9237 0.15 1
  87.9483 0.16 2
  88.2155 0.03 0
  88.5547 0.04 0
  88.7349 0.12 1
  88.9441 0.85 8
  89.2319 0.12 1
  89.4354 0.05 0
  89.5924 0.02 0
  89.7162 0.02 0
  89.9592 0.34 3
  90.1443 0.10 1
  90.3034 0.09 1
  90.4716 0.12 1
  90.6345 0.18 2
  90.9586 14.67 147
  91.2659 0.04 0
  91.3885 0.03 0
  91.4831 0.02 0
  91.6166 0.04 0
  91.9669 1.77 18
  92.1559 0.08 1
  92.2562 0.05 0
  92.3765 0.07 1
  92.4854 0.10 1
  92.9812 19.74 197
  93.2882 0.01 0
  93.4442 0.05 0
  93.5228 0.03 0
  93.6392 0.05 0
  93.7416 0.02 0
  93.9990 1.47 15
  94.4637 0.03 0
  95.0070 9.48 95
  95.5027 0.01 0
  95.7425 0.02 0
  96.0032 0.33 3
  96.9806 3.88 39
  97.9919 0.10 1
  98.9905 0.16 2
  99.3793 0.01 0
  99.8610 0.04 0
  99.9671 0.16 2
  100.5438 0.05 0
  100.6840 0.06 1
  100.9430 0.18 2
  101.0747 0.05 0
  101.1873 0.02 0
  101.3005 0.01 0
  101.5227 0.05 0
  101.6911 0.03 0
  101.9685 0.43 4
  102.2077 0.02 0
  102.3899 0.06 1
  102.5648 0.04 0
  102.9693 2.34 23
  103.2369 0.05 0
  103.3412 0.07 1
  103.5344 0.05 0
  103.6220 0.09 1
  103.9757 0.92 9
  104.3265 0.05 0
  104.5051 0.09 1
  104.6663 0.12 1
  104.9877 18.95 189
  105.2512 0.11 1
  105.4064 0.06 1
  105.6309 0.10 1
  105.9921 1.76 18
  107.0066 19.69 197
  107.2798 0.08 1
  107.3984 0.02 0
  108.0085 1.05 10
  108.5798 0.13 1
  109.0208 22.84 228
  109.3470 0.26 3
  109.5117 0.12 1
  109.6388 0.05 0
  110.0079 0.38 4
  110.1916 0.05 0
  110.4858 0.07 1
  110.6182 0.06 1
  110.7054 0.04 0
  111.0074 4.50 45
  111.3050 0.04 0
  111.4502 0.05 0
  111.8594 0.05 0
  111.9864 0.10 1
  112.2770 0.03 0
  112.3796 0.03 0
  112.5854 0.03 0
  112.7031 0.07 1
  112.9953 0.09 1
  113.2416 0.12 1
  113.3759 0.03 0
  113.5051 0.11 1
  113.7409 0.07 1
  113.9377 0.15 1
  114.0645 0.07 1
  114.3195 0.02 0
  114.4470 0.08 1
  114.5739 0.05 0
  114.9548 4.68 47
  115.2183 0.12 1
  115.4193 0.04 0
  115.5584 0.06 1
  115.7077 0.14 1
  115.9658 2.00 20
  116.2291 0.08 1
  116.5299 0.11 1
  116.9778 6.31 63
  117.3962 0.05 0
  117.6118 0.12 1
  117.9792 1.54 15
  118.2839 0.04 0
  118.4134 0.03 0
  118.9801 17.05 170
  119.3584 0.10 1
  119.4984 0.07 1
  119.5785 0.05 0
  119.9851 4.31 43
  120.2659 0.08 1
  120.6002 0.05 0
  121.0011 7.42 74
  121.3460 0.05 0
  121.5074 0.04 0
  121.9674 0.50 5
  122.2445 0.09 1
  122.5485 0.06 1
  123.0002 2.38 24
  123.2687 0.05 0
  123.6704 0.09 1
  123.7753 0.09 1
  124.0063 0.17 2
  124.3181 0.01 0
  124.7369 0.05 0
  124.9452 0.18 2
  125.1746 0.03 0
  125.6985 0.02 0
  125.9449 0.17 2
  126.3293 0.01 0
  126.4943 0.02 0
  126.9497 1.56 16
  127.1553 0.09 1
  127.3649 0.19 2
  127.4832 0.22 2
  127.9514 5.48 55
  128.2325 0.12 1
  128.4810 0.13 1
  128.9633 8.05 80
  129.2596 0.05 0
  129.3769 0.04 0
  129.4774 0.03 0
  129.9578 3.24 32
  130.3854 0.07 1
  130.5184 0.08 1
  130.9644 11.23 112
  131.2576 0.10 1
  131.3978 0.04 0
  131.5361 0.10 1
  131.6608 0.16 2
  131.9717 5.05 50
  132.3661 0.11 1
  132.5408 0.10 1
  132.9885 19.80 198
  133.2934 0.17 2
  133.9852 1.50 15
  134.1291 0.24 2
  135.0019 45.52 455
  135.2368 0.46 5
  135.5693 0.20 2
  135.6804 0.17 2
  136.0060 0.72 7
  136.1477 0.20 2
  136.4124 0.07 1
  136.5587 0.03 0
  136.7500 0.07 1
  136.9966 1.06 11
  137.3317 0.03 0
  137.5238 0.01 0
  137.9224 0.19 2
  138.5362 0.07 1
  138.9815 0.72 7
  139.3187 0.03 0
  139.6300 0.05 0
  139.9648 0.23 2
  140.2142 0.02 0
  140.3860 0.09 1
  140.4663 0.03 0
  140.6335 0.16 2
  140.9563 3.39 34
  141.1864 0.12 1
  141.3112 0.03 0
  141.4100 0.02 0
  141.5100 0.03 0
  141.9685 3.76 38
  142.3604 0.06 1
  142.4482 0.02 0
  142.9726 9.40 94
  143.5307 0.12 1
  143.9770 3.15 31
  144.2845 0.14 1
  144.4977 0.18 2
  144.9930 15.16 151
  145.4439 0.10 1
  145.9962 2.56 26
  146.5849 0.04 0
  147.0069 2.86 29
  147.2785 0.03 0
  147.4383 0.04 0
  147.6600 0.05 0
  147.9910 0.18 2
  148.2346 0.05 0
  149.0169 0.89 9
  149.2297 0.02 0
  149.4419 0.02 0
  149.6442 0.02 0
  149.8130 0.05 0
  149.9765 0.05 0
  150.0846 0.06 1
  150.4335 0.17 2
  150.6024 0.01 0
  151.0043 1.56 16
  151.2762 0.05 0
  151.4426 0.02 0
  151.9597 1.37 14
  152.2088 0.18 2
  152.3647 0.11 1
  152.5471 0.03 0
  153.0112 3.49 35
  153.2645 0.14 1
  153.4093 0.10 1
  153.6997 0.03 0
  153.9935 1.19 12
  154.3026 0.09 1
  154.5826 0.17 2
  155.0071 4.77 48
  155.3277 0.12 1
  155.4410 0.09 1
  155.6332 0.07 1
  156.0223 2.65 26
  156.2663 0.16 2
  156.4812 0.08 1
  156.6297 0.12 1
  157.0258 8.19 82
  157.3370 0.04 0
  157.4963 0.06 1
  157.5879 0.04 0
  158.0215 2.21 22
  158.4153 0.10 1
  158.5017 0.06 1
  159.0373 6.42 64
  159.3670 0.12 1
  159.5392 0.13 1
  160.0473 0.57 6
  160.6854 0.04 0
  161.0562 0.97 10
  161.3451 0.07 1
  161.6541 0.03 0
  162.0525 0.26 3
  162.4823 0.05 0
  163.0536 0.49 5
  163.2230 0.13 1
  163.4618 0.02 0
  163.6613 0.08 1
  163.8728 0.05 0
  164.0449 0.24 2
  164.1770 0.07 1
  164.3239 0.12 1
  164.5201 0.04 0
  165.0122 2.69 27
  165.5366 0.07 1
  165.7063 0.09 1
  166.0344 1.27 13
  166.2771 0.11 1
  166.4027 0.04 0
  166.5846 0.09 1
  167.0179 2.22 22
  167.2788 0.06 1
  167.3839 0.07 1
  167.4568 0.03 0
  168.0315 1.13 11
  168.3710 0.06 1
  169.0363 4.17 42
  169.4495 0.02 0
  170.0492 1.93 19
  170.3818 0.08 1
  170.5535 0.05 0
  171.0628 5.18 52
  171.4732 0.07 1
  171.6678 0.02 0
  171.7849 0.09 1
  172.0825 0.76 8
  172.2537 0.03 0
  172.5026 0.05 0
  173.0648 1.84 18
  173.6841 0.09 1
  174.0578 0.42 4
  174.7673 0.04 0
  175.0937 0.88 9
  175.2781 0.08 1
  175.6884 0.10 1
  176.0486 0.23 2
  176.4155 0.02 0
  177.0389 0.93 9
  177.2483 0.07 1
  177.3477 0.08 1
  177.5847 0.07 1
  177.7002 0.06 1
  178.0172 1.13 11
  178.4229 0.04 0
  178.6184 0.03 0
  178.7548 0.12 1
  179.0390 2.73 27
  179.5009 0.07 1
  180.0173 1.01 10
  180.2197 0.11 1
  180.4033 0.06 1
  180.5439 0.10 1
  181.0243 2.95 29
  181.2861 0.06 1
  181.5184 0.05 0
  182.0341 1.30 13
  182.2604 0.05 0
  182.5453 0.12 1
  183.0337 4.61 46
  183.4192 0.15 1
  183.6322 0.12 1
  184.0542 0.97 10
  185.0261 2.77 28
  185.4505 0.08 1
  185.6874 0.03 0
  186.0444 0.82 8
  186.4083 0.04 0
  186.6609 0.05 0
  187.0628 1.08 11
  187.2850 0.09 1
  187.3701 0.03 0
  187.5667 0.09 1
  188.0438 0.25 2
  188.2966 0.02 0
  188.6218 0.02 0
  189.0471 0.81 8
  189.2730 0.12 1
  189.3725 0.02 0
  189.7709 0.08 1
  190.0246 0.41 4
  190.1397 0.16 2
  190.3393 0.04 0
  190.5471 0.10 1
  191.0122 0.81 8
  191.3595 0.04 0
  191.5228 0.14 1
  191.9949 0.67 7
  192.2035 0.07 1
  192.4285 0.01 0
  192.6494 0.09 1
  193.0262 1.44 14
  193.5170 0.04 0
  193.7591 0.08 1
  194.0412 1.01 10
  194.4597 0.05 0
  195.0242 3.27 33
  195.2807 0.07 1
  195.4036 0.02 0
  195.6154 0.07 1
  195.7301 0.08 1
  196.0458 1.06 11
  196.4722 0.02 0
  197.0421 4.00 40
  197.3281 0.14 1
  197.4660 0.07 1
  197.6115 0.02 0
  198.0539 1.14 11
  198.4053 0.10 1
  198.5882 0.04 0
  199.0594 3.23 32
  199.2825 0.12 1
  199.5777 0.08 1
  199.7805 0.03 0
  199.9036 0.22 2
  200.0887 0.46 5
  200.3003 0.09 1
  200.4820 0.02 0
  201.0572 0.43 4
  201.6175 0.05 0
  201.7891 0.09 1
  202.0262 0.29 3
  202.2448 0.09 1
  202.4860 0.02 0
  203.0426 0.66 7
  203.3193 0.10 1
  203.4843 0.07 1
  203.8074 0.10 1
  204.0242 0.17 2
  204.2192 0.08 1
  204.7484 0.10 1
  205.0178 0.65 6
  206.0229 0.74 7
  206.3922 0.04 0
  206.6045 0.09 1
  206.7943 0.19 2
  207.0394 1.60 16
  207.3610 0.05 0
  207.8132 0.17 2
  208.0577 0.59 6
  208.3508 0.03 0
  208.5387 0.08 1
  208.6576 0.03 0
  209.0260 2.47 25
  209.4149 0.06 1
  209.5961 0.18 2
  210.0494 1.14 11
  210.3968 0.08 1
  210.5692 0.03 0
  211.0453 2.98 30
  211.3360 0.12 1
  211.6057 0.09 1
  211.7350 0.01 0
  212.0772 0.79 8
  212.3927 0.01 0
  213.1021 0.47 5
  213.8000 0.04 0
  213.9548 0.09 1
  214.0815 0.05 0
  214.1699 0.02 0
  214.6653 0.07 1
  214.8325 0.05 0
  215.0333 0.32 3
  215.4371 0.08 1
  215.6119 0.04 0
  215.9862 0.06 1
  216.2290 0.04 0
  216.4025 0.06 1
  216.7207 0.16 2
  217.0397 0.35 3
  217.2167 0.13 1
  217.3951 0.04 0
  217.6119 0.05 0
  218.0868 0.28 3
  218.3332 0.04 0
  218.7691 0.02 0
  219.0650 0.59 6
  219.5333 0.05 0
  219.6830 0.03 0
  219.8423 0.11 1
  220.0992 0.31 3
  220.3706 0.06 1
  220.4942 0.02 0
  220.6049 0.05 0
  221.0604 1.10 11
  221.6817 0.04 0
  222.0907 0.35 3
  222.2406 0.12 1
  223.0878 1.49 15
  223.5673 0.04 0
  223.8362 0.10 1
  224.1101 0.46 5
  224.4927 0.02 0
  225.0894 1.04 10
  225.3654 0.03 0
  225.5672 0.04 0
  225.7434 0.03 0
  225.9094 0.08 1
  226.1242 0.16 2
  226.2461 0.09 1
  226.6180 0.02 0
  227.0451 0.20 2
  227.3420 0.06 1
  227.4474 0.06 1
  227.9760 0.14 1
  228.1862 0.09 1
  228.5466 0.05 0
  228.8472 0.08 1
  229.0837 0.36 4
  229.2227 0.08 1
  229.6336 0.02 0
  230.0625 0.18 2
  230.2126 0.06 1
  231.0485 0.23 2
  231.2951 0.06 1
  232.0363 0.15 1
  232.1582 0.12 1
  232.8335 0.04 0
  233.0361 0.31 3
  233.1616 0.21 2
  233.6696 0.08 1
  234.1109 0.17 2
  234.5998 0.06 1
  234.7770 0.03 0
  235.0826 0.71 7
  235.2164 0.46 5
  235.8724 0.10 1
  236.1112 0.39 4
  236.2595 0.06 1
  236.6618 0.11 1
  237.1208 0.98 10
  237.3500 0.05 0
  237.5130 0.04 0
  237.7215 0.01 0
  237.9631 0.08 1
  238.1392 0.13 1
  238.2801 0.09 1
  238.4693 0.01 0
  238.8636 0.09 1
  239.1586 0.33 3
  239.5254 0.10 1
  240.0139 0.14 1
  240.1597 0.11 1
  240.2876 0.05 0
  240.4624 0.04 0
  240.8965 0.09 1
  240.9649 0.05 0
  241.1501 0.11 1
  242.1305 0.10 1
  242.7931 0.08 1
  243.0033 0.12 1
  243.1784 0.16 2
  243.6613 0.09 1
  244.0716 0.07 1
  245.0114 0.11 1
  245.1900 0.16 2
  245.4088 0.04 0
  245.7646 0.05 0
  245.8609 0.05 0
  246.1011 0.14 1
  246.4993 0.04 0
  247.1310 0.28 3
  247.2612 0.05 0
  247.7503 0.06 1
  247.8480 0.10 1
  248.0191 0.16 2
  248.2118 0.25 2
  248.7191 0.05 0
  249.0601 0.31 3
  249.2396 0.19 2
  249.6437 0.05 0
  249.7651 0.06 1
  250.1409 0.59 6
  250.2934 0.18 2
  250.4890 0.05 0
  250.7074 0.04 0
  251.1388 2.84 28
  251.4350 0.09 1
  251.7464 0.07 1
  252.1426 0.27 3
  252.4285 0.09 1
  252.6602 0.06 1
  252.8941 0.16 2
  253.1946 0.56 6
  253.4223 0.05 0
  253.6402 0.07 1
  253.9214 0.04 0
  254.1054 0.08 1
  254.2435 0.14 1
  254.3254 0.08 1
  254.8733 0.05 0
  255.0342 0.12 1
  255.1937 0.09 1
  255.4219 0.04 0
  255.8054 0.02 0
  255.9469 0.10 1
  256.0663 0.02 0
  256.2605 0.07 1
  256.3972 0.03 0
  257.1465 0.10 1
  258.1813 0.14 1
  258.5617 0.04 0
  259.1436 0.06 1
  259.3081 0.07 1
  260.0665 0.11 1
  260.2679 0.02 0
  260.5909 0.06 1
  261.0786 0.16 2
  261.2043 0.11 1
  261.9075 0.05 0
  262.0125 0.01 0
  262.1779 0.09 1
  262.2953 0.04 0
  262.7033 0.06 1
  262.8111 0.06 1
  263.1670 0.51 5
  263.5757 0.03 0
  263.9568 0.20 2
  264.1320 0.56 6
  264.2961 0.24 2
  265.1669 3.96 40
  265.4994 0.14 1
  265.6531 0.07 1
  266.1666 5.31 53
  266.5869 0.22 2
  266.7420 0.09 1
  267.1770 0.43 4
  267.6259 0.04 0
  267.8250 0.04 0
  267.9768 0.05 0
  268.1578 0.08 1
  268.5658 0.07 1
  268.9856 0.08 1
  269.1527 0.02 0
  269.3108 0.07 1
  269.4278 0.03 0
  269.9724 0.04 0
  270.1111 0.06 1
  270.2211 0.14 1
  271.0878 0.13 1
  271.2195 0.10 1
  271.3386 0.07 1
  271.9839 0.02 0
  272.1671 0.05 0
  272.8272 0.02 0
  272.9324 0.03 0
  273.1023 0.10 1
  273.2138 0.04 0
  273.3141 0.05 0
  273.6491 0.04 0
  274.0128 0.06 1
  274.2350 0.06 1
  275.0879 0.10 1
  275.2725 0.07 1
  275.4147 0.04 0
  276.1333 0.06 1
  276.5906 0.03 0
  276.9057 0.05 0
  276.9984 0.04 0
  277.1371 0.09 1
  277.3142 0.10 1
  277.9411 0.03 0
  278.1476 0.07 1
  278.3052 0.06 1
  279.0487 0.15 1
  279.2824 0.30 3
  280.2264 0.38 4
  280.5844 0.05 0
  281.2599 0.13 1
  281.4052 0.08 1
  281.8337 0.01 0
  282.2596 0.15 1
  282.4125 0.07 1
  282.6394 0.03 0
  282.8838 0.06 1
  283.2413 0.09 1
  284.1226 0.04 0
  284.2428 0.03 0
  284.3412 0.04 0
  284.9874 0.08 1
  285.1900 0.21 2
  285.3067 0.09 1
  285.9551 0.04 0
  286.2220 0.08 1
  286.9657 0.03 0
  287.0999 0.02 0
  287.2431 0.11 1
  287.8024 0.05 0
  288.1261 0.10 1
  288.2631 0.07 1
  288.4016 0.14 1
  288.9148 0.02 0
  289.1711 0.21 2
  289.3387 0.06 1
  290.1366 0.04 0
  290.6826 0.10 1
  291.0659 0.04 0
  291.2196 0.10 1
  291.3195 0.11 1
  291.4752 0.09 1
  292.2658 0.01 0
  293.1712 0.12 1
  293.2837 0.09 1
  293.7616 0.02 0
  294.1439 0.18 2
  294.2794 0.03 0
  295.2013 0.02 0
  295.3439 0.06 1
  296.1751 0.03 0
  296.8904 0.02 0
  297.0092 0.07 1
  297.3302 0.03 0
  298.0037 0.05 0
  298.1499 0.09 1
  298.5206 0.02 0
  299.0837 0.04 0
  299.2327 0.13 1
  300.2508 0.10 1
  301.1242 0.06 1
  302.2434 0.05 0
  302.3303 0.02 0
  303.1431 0.07 1
  303.8917 0.05 0
  304.0920 0.01 0
  304.3497 0.05 0
  304.9213 0.02 0
  305.1363 0.09 1
  305.2533 0.04 0
  307.0742 0.05 0
  307.3160 0.12 1
  308.0652 0.06 1
  308.1599 0.03 0
  308.2608 0.05 0
  309.1406 0.02 0
  309.2724 0.06 1
  310.1537 0.06 1
  310.2729 0.06 1
  311.1131 0.15 1
  311.3102 0.09 1
  312.2950 0.02 0
  312.5532 0.06 1
  313.1664 0.03 0
  313.2786 0.02 0
  314.0414 0.06 1
  314.2632 0.05 0
  315.2100 0.05 0
  316.0242 0.04 0
  316.2391 0.08 1
  316.4609 0.09 1
  316.7010 0.10 1
  316.9384 0.05 0
  317.0788 0.04 0
  317.2045 0.05 0
  317.3344 0.04 0
  318.2045 0.12 1
  319.1759 0.44 4
  319.3403 0.14 1
  319.4759 0.11 1
  319.6192 0.02 0
  319.8398 0.01 0
  320.1840 0.12 1
  320.3857 0.07 1
  320.5909 0.02 0
  321.1186 0.04 0
  321.2816 0.02 0
  323.0148 0.02 0
  323.1821 0.02 0
  323.4141 0.02 0
  324.2634 0.05 0
  324.3731 0.01 0
  325.3498 0.17 2
  327.1941 0.26 3
  327.3643 0.22 2
  328.2170 0.01 0
  328.7863 0.06 1
  328.9692 0.08 1
  329.1381 0.10 1
  329.3901 0.09 1
  329.9672 0.04 0
  330.2853 0.02 0
  330.9611 0.08 1
  331.0392 0.04 0
  331.3095 0.10 1
  331.4454 0.07 1
  332.1797 0.05 0
  332.2805 0.05 0
  332.3860 0.17 2
  333.2811 0.05 0
  335.4082 0.08 1
  336.5245 0.04 0
  336.9744 0.03 0
  337.1917 0.08 1
  337.3365 0.13 1
  338.2871 0.08 1
  338.4608 0.01 0
  338.9819 0.01 0
  339.2077 0.26 3
  339.3891 0.27 3
  339.6852 0.05 0
  339.9187 0.02 0
  340.2409 0.02 0
  340.4097 0.06 1
  340.8508 0.06 1
  341.2082 0.09 1
  341.6789 0.01 0
  342.2628 0.03 0
  342.5098 0.03 0
  343.5711 0.04 0
  344.1398 0.03 0
  345.1076 0.08 1
  345.3681 0.15 1
  346.0891 0.07 1
  346.2700 0.04 0
  346.3742 0.06 1
  346.4960 0.03 0
  347.0664 0.06 1
  347.2347 0.08 1
  348.0150 0.05 0
  348.4263 0.11 1
  349.1384 0.06 1
  349.2941 0.02 0
  350.2036 0.06 1
  351.1815 0.18 2
  351.3274 0.09 1
  351.4887 0.06 1
  351.6628 0.05 0
  352.1998 0.10 1
  352.7128 0.04 0
  353.2457 0.06 1
  353.3479 0.02 0
  354.3291 0.09 1
  354.9185 0.07 1
  355.3359 0.06 1
  355.4720 0.03 0
  356.2532 0.05 0
  356.3893 0.05 0
  356.6658 0.04 0
  356.8103 0.02 0
  357.3520 0.05 0
  358.2287 0.04 0
  358.4495 0.04 0
  358.6145 0.06 1
  358.7217 0.04 0
  358.9729 0.10 1
  359.2692 0.03 0
  359.4011 0.09 1
  359.5505 0.02 0
  359.8290 0.08 1
  360.0686 0.04 0
  360.6270 0.05 0
  360.8631 0.01 0
  361.2861 0.03 0
  361.4384 0.04 0
  362.1851 0.04 0
  362.2852 0.01 0
  362.5208 0.03 0
  363.0567 0.04 0
  363.2894 0.15 1
  364.1922 0.03 0
  364.3961 0.10 1
  365.2425 0.19 2
  367.3147 0.05 0
  369.2300 0.06 1
  370.2500 0.06 1
  370.7321 0.10 1
  371.0752 0.06 1
  371.1861 0.06 1
  371.2969 0.07 1
  373.1328 0.09 1
  373.3828 0.18 2
  373.9558 0.05 0
  374.1751 0.01 0
  374.3402 0.13 1
  375.3354 0.23 2
  376.2222 0.07 1
  376.3372 0.07 1
  376.7929 0.12 1
  377.0745 0.02 0
  377.2748 0.15 1
  377.4188 0.10 1
  377.6841 0.10 1
  378.1653 0.08 1
  379.2874 0.03 0
  380.8509 0.03 0
  381.2561 0.09 1
  383.2047 0.04 0
  384.2180 0.04 0
  385.5218 0.03 0
  385.7068 0.07 1
  386.1526 0.05 0
  386.3807 0.06 1
  387.2433 0.01 0
  387.5146 0.08 1
  387.6763 0.04 0
  388.5009 0.03 0
  389.0612 0.11 1
  389.3318 0.33 3
  389.6788 0.06 1
  390.3198 0.13 1
  391.2287 0.06 1
  391.8280 0.02 0
  393.0192 0.10 1
  393.3571 0.06 1
  395.0476 0.04 0
  395.4196 0.04 0
  396.1883 0.06 1
  396.9535 0.03 0
  397.2123 0.06 1
  397.5002 0.06 1
  397.9416 0.10 1
  398.1340 0.10 1
  398.5082 0.06 1
  399.0670 0.01 0
  399.2821 0.07 1
  399.3762 0.05 0
  399.5814 0.19 2
  399.7745 0.04 0
  400.0207 0.09 1
  400.1594 0.14 1
  400.2478 0.07 1
  400.3801 0.05 0
  400.5641 0.05 0
  400.6603 0.03 0
  400.8471 0.02 0
  401.0445 0.16 2
  401.3955 0.30 3
  401.5717 0.05 0
  402.0685 0.05 0
  402.3777 0.17 2
  402.7273 0.06 1
  403.3643 0.36 4
  403.5915 0.18 2
  403.7274 0.02 0
  403.9553 0.10 1
  404.3106 0.66 7
  405.3802 0.27 3
  405.8037 0.04 0
  406.1943 0.02 0
  406.4663 0.10 1
  408.2641 0.10 1
  409.3239 0.03 0
  410.0242 0.01 0
  410.8015 0.06 1
  411.0305 0.05 0
  411.2474 0.03 0
  411.4135 0.04 0
  412.2065 0.01 0
  412.9168 0.01 0
  413.3099 0.02 0
  413.5686 0.09 1
  413.7495 0.02 0
  414.3999 0.01 0
  414.5830 0.03 0
  414.6799 0.02 0
  415.0532 0.03 0
  415.2992 0.07 1
  415.5813 0.02 0
  415.9263 0.07 1
  416.1646 0.12 1
  416.4142 0.13 1
  416.5952 0.12 1
  416.7508 0.09 1
  417.0040 0.20 2
  417.3321 0.75 7
  417.4693 0.64 6
  417.6185 0.09 1
  417.9190 0.33 3
  418.3434 2.60 26
  419.3526 28.31 283
  420.0041 0.45 4
  420.2573 0.53 5
  420.4165 0.35 3
  420.8713 0.21 2
  421.0453 0.26 3
  421.2965 0.23 2
  421.4790 0.21 2
  421.7408 0.11 1
  421.9665 0.06 1
  422.1723 0.05 0
  422.4339 0.03 0
  422.6027 0.02 0
  422.7440 0.08 1
  422.9934 0.06 1
  423.1015 0.07 1
  423.3685 0.03 0
  423.7034 0.06 1
  423.8200 0.03 0
  423.9458 0.07 1
  424.2362 0.02 0
  424.5987 0.06 1
  424.9336 0.04 0
  425.8664 0.10 1
  426.2904 0.01 0
  426.9801 0.01 0
  427.2572 0.02 0
  428.2757 0.05 0
  428.5811 0.03 0
  430.4523 0.02 0
  431.1183 0.10 1
  431.3297 0.11 1
  431.5849 0.05 0
  432.1562 0.13 1
  432.2701 0.14 1
  432.4363 0.18 2
  433.3117 0.64 6
  433.4376 0.30 3
  433.9298 0.03 0
  434.1533 0.04 0
  435.2623 0.08 1
  435.8670 0.02 0
  436.9925 0.04 0
  438.0020 0.01 0
  438.6578 0.03 0
  439.2317 0.02 0
  440.3900 0.04 0
  442.9866 0.01 0
  444.1375 0.02 0
  444.3449 0.10 1
  444.4652 0.01 0
  445.1929 0.02 0
  446.4050 0.04 0
  449.5482 0.05 0
  458.1609 0.04 0
  458.3506 0.10 1
  458.5141 0.04 0
  458.8737 0.05 0
  459.1971 0.05 0
  459.3861 0.08 1
  459.4937 0.05 0
  459.8059 0.05 0
  459.9425 0.08 1
  460.3036 0.05 0
  462.1019 0.03 0
  469.3088 0.05 0
  471.2260 0.04 0
  471.4236 0.11 1
  471.5101 0.05 0
  471.9373 0.05 0
  472.1393 0.10 1
  472.4029 0.21 2
  473.4474 0.10 1
  474.0724 0.04 0
  474.3601 0.09 1
  475.8811 0.03 0
  478.8575 0.05 0
  479.3942 0.14 1
  479.4736 0.08 1
  480.0557 0.06 1
  480.2039 0.07 1
  480.4719 0.14 1
  481.2355 0.04 0
  486.1929 0.03 0
  486.3260 0.06 1
  486.5398 0.07 1
  488.4306 0.11 1
  491.2232 0.09 1
  491.3224 0.09 1
  492.3367 0.10 1
  492.5464 0.11 1
  492.8248 0.08 1
  493.3469 0.11 1
  493.5077 0.16 2
  493.5998 0.14 1
  493.8031 0.04 0
  494.4153 0.05 0
  495.2229 0.10 1
  496.1008 0.06 1
  498.4676 0.05 0
  498.7127 0.08 1
  500.1776 0.04 0
  503.3432 0.04 0
  503.6388 0.07 1
  504.2620 0.06 1
  509.9528 0.02 0
  511.0691 0.08 1
  511.4956 0.07 1
  512.2159 0.09 1
  512.4833 0.08 1
  512.6085 0.09 1
  513.6967 0.06 1
  514.2097 0.08 1
  514.4630 0.13 1
  514.5649 0.05 0
  514.8033 0.03 0
  515.5641 0.04 0
  515.9214 0.07 1
  517.8577 0.06 1
  522.1032 0.03 0
  524.5605 0.05 0
  526.4142 0.06 1
  527.2158 0.11 1
  527.3531 0.07 1
  527.6732 0.04 0
  528.2936 0.09 1
  528.6526 0.11 1
  529.3381 0.07 1
  529.5187 0.10 1
  530.3644 0.05 0
  530.5159 0.02 0
  531.0202 0.10 1
  532.4609 0.09 1
  532.9291 0.02 0
  533.1749 0.04 0
  533.6013 0.06 1
  534.3629 0.02 0
  534.5399 0.03 0
  535.6784 0.04 0
  536.6398 0.07 1
  537.4695 0.08 1
  538.1752 0.04 0
  538.5585 0.14 1
  538.7512 0.03 0
  539.2550 0.06 1
  539.4222 0.18 2
  539.6235 0.15 1
  539.7263 0.15 1
  540.3286 0.11 1
  540.5674 0.03 0
  540.9507 0.05 0
  541.1867 0.06 1
  541.3589 0.10 1
  542.3929 0.64 6
  542.6771 0.22 2
  543.2654 0.08 1
  543.4199 0.06 1
  543.9401 0.06 1
  544.2831 0.06 1
  544.7892 0.10 1
  545.1039 0.08 1
  545.5952 0.06 1
  545.9418 0.02 0
  546.5769 0.07 1
  547.0349 0.09 1
  547.1433 0.05 0
  547.5786 0.09 1
  547.6891 0.06 1
  548.0670 0.08 1
  548.5384 0.04 0
  548.7284 0.07 1
  548.9688 0.07 1
  550.2527 0.03 0
  550.4044 0.09 1
  550.5186 0.04 0
  550.7561 0.05 0
  550.9291 0.08 1
  551.2397 0.11 1
  551.6963 0.07 1
  551.8665 0.06 1
  552.0409 0.03 0
  552.3904 0.13 1
  552.5698 0.14 1
  552.8762 0.17 2
  553.0804 0.09 1
  553.4371 0.30 3
  553.8363 0.12 1
  554.5312 1.98 20
  554.7581 1.29 13
  555.1927 0.18 2
  555.3477 0.35 3
  555.4893 0.23 2
  555.8128 0.18 2
  556.3254 0.44 4
  556.5540 0.22 2
  556.7246 0.12 1
  557.4631 0.95 9
  557.7087 0.60 6
  557.8864 0.07 1
  558.1470 0.23 2
  558.2426 0.10 1
  558.4819 0.19 2
  558.5937 0.12 1
  558.8160 0.21 2
  559.0695 0.18 2
  559.2288 0.04 0
  559.3549 0.09 1
  559.6353 0.22 2
  560.1252 0.41 4
  560.3433 0.06 1
  560.4658 0.04 0
  560.6357 0.09 1
  560.7710 0.10 1
  560.8765 0.07 1
  561.0719 0.20 2
  561.2907 0.05 0
  561.5570 0.14 1
  561.7971 0.06 1
  562.0676 0.11 1
  562.4535 0.16 2
  562.6078 0.08 1
  562.7714 0.05 0
  562.9725 0.13 1
  563.1156 0.22 2
  563.3465 0.17 2
  563.6609 0.33 3
  563.8387 0.20 2
  564.0787 0.10 1
  564.4669 0.25 2
  564.7615 0.27 3
  565.3784 0.17 2
  565.7020 0.26 3
  566.2191 0.28 3
  566.4648 0.33 3
  566.9188 0.41 4
  567.6172 0.70 7
  567.8835 0.33 3
  568.3575 0.75 7
  568.9114 1.00 10
  572.5145 99.97 999
  573.2860 14.97 150
  573.9216 7.04 70
  574.5685 3.55 35
  575.1573 2.03 20
  575.7496 1.51 15
  576.3173 0.75 7
//
