ACCESSION: MSBNK-Kyoto_Univ-CA000059
RECORD_TITLE: Isofucoxanthinol; FAB-EBEB; MS2; m/z: 616.41; [M]+*
DATE: 2016.01.19 (Created 2010.04.01, modified 2011.05.10)
AUTHORS: Akimoto N, Graduate School of Pharmaceutical Sciences, Kyoto University and Maoka T, Research Institute for Production Development
LICENSE: CC BY-SA
PUBLICATION: Prepared from fucoxanthin
COMMENT: Profile spectrum of this record is given as a JPEG file.
COMMENT: [Profile] CA000059.jpg
CH$NAME: Isofucoxanthinol
CH$COMPOUND_CLASS: N/A
CH$FORMULA: C40H56O5
CH$EXACT_MASS: 616.41277
CH$SMILES: O=C(C=C(C2(C)O)C(CC(O)C2)(C)C)C(=CC=CC(C)=CC=CC=C(C=CC=C(C)C=C=C(C(C)(O)1)C(C)(C)CC(C1)O)C)C
CH$IUPAC: InChI=1S/C40H56O5/c1-28(17-13-18-30(3)21-22-35-37(5,6)24-32(41)26-39(35,9)44)15-11-12-16-29(2)19-14-20-31(4)34(43)23-36-38(7,8)25-33(42)27-40(36,10)45/h11-21,23,32-33,41-42,44-45H,24-27H2,1-10H3/b12-11+,17-13+,19-14+,28-15+,29-16+,30-18+,31-20+,36-23+/t22?,32-,33-,39+,40+/m0/s1
CH$LINK: CAS 7176-05-8
CH$LINK: NIKKAJI J1.312.326H
CH$LINK: INCHIKEY MMJDJIJUPVPKSW-NYHICDMRSA-N
AC$INSTRUMENT: JMS-HX/HX 110A, JEOL
AC$INSTRUMENT_TYPE: FAB-EBEB
AC$MASS_SPECTROMETRY: MS_TYPE MS2
AC$MASS_SPECTROMETRY: ION_MODE POSITIVE
AC$MASS_SPECTROMETRY: ATOM_GUN_CURRENT 5 mA
AC$MASS_SPECTROMETRY: BOMBARDMENT 6 kV xenon
AC$MASS_SPECTROMETRY: COLLISION_ENERGY 3 kV
AC$MASS_SPECTROMETRY: COLLISION_GAS Ar
AC$MASS_SPECTROMETRY: GAS_PRESSURE adjust to attenuate the intensity of the precursor ion by 30 %
AC$MASS_SPECTROMETRY: IONIZATION FAB
AC$MASS_SPECTROMETRY: MATRIX 1-2 uL m-NBA
AC$MASS_SPECTROMETRY: PROBE_TIP stainless-steel
MS$FOCUSED_ION: BASE_PEAK 598.5557
MS$FOCUSED_ION: PRECURSOR_M/Z 616.41
MS$FOCUSED_ION: PRECURSOR_TYPE [M]+*
MS$DATA_PROCESSING: RELATIVE_M/Z normalised by peak(m/z=598.5557).  set 999 for peak(m/z=616.4952,rel=1749).
PK$SPLASH: splash10-014i-3931023000-36abb8db83579efd155c
PK$NUM_PEAK: 1815
PK$PEAK: m/z int. rel.int.
  1.5552 0.01 0
  8.1994 0.02 0
  13.9849 0.03 1
  15.0041 0.08 1
  18.0094 0.03 1
  18.9917 0.05 1
  22.9365 0.19 3
  24.9666 0.02 0
  25.9889 0.23 4
  26.9872 1.40 24
  27.9770 0.17 3
  28.9894 1.38 24
  30.9826 0.35 6
  36.9634 0.14 2
  37.9775 0.55 10
  38.3230 0.02 0
  38.7592 0.01 0
  38.9760 3.46 61
  39.6450 0.01 0
  39.9876 0.45 8
  40.9972 6.94 121
  41.9755 0.20 3
  42.4933 0.05 1
  42.9739 31.69 554
  43.9900 0.25 4
  44.9989 0.69 12
  46.9725 0.19 3
  47.8957 0.01 0
  48.9591 0.12 2
  49.1112 0.02 0
  49.6052 0.04 1
  49.9673 1.00 17
  50.6954 0.08 1
  50.9747 3.29 58
  51.6511 0.03 1
  51.9898 1.18 21
  52.9909 4.71 82
  53.9793 0.23 4
  54.3822 0.01 0
  55.0025 8.10 142
  56.0099 0.32 6
  57.0159 4.57 80
  57.9906 0.37 6
  59.0100 2.38 42
  60.0009 0.04 1
  60.9734 0.48 8
  61.1490 0.02 0
  61.9919 0.43 8
  62.3298 0.04 1
  62.5428 0.06 1
  62.9858 2.04 36
  63.4472 0.03 1
  63.5741 0.01 0
  63.7565 0.02 0
  63.9924 0.43 8
  64.3518 0.03 1
  64.5576 0.02 0
  64.9919 3.55 62
  65.5635 0.03 1
  65.9887 0.92 16
  66.4250 0.02 0
  66.5844 0.03 1
  67.0091 5.71 100
  67.2895 0.02 0
  67.8231 0.05 1
  67.9926 0.25 4
  68.9990 11.29 197
  69.9988 0.28 5
  70.9952 2.59 45
  71.9380 0.01 0
  73.0013 0.24 4
  73.9689 0.78 14
  74.7105 0.02 0
  74.9758 0.93 16
  75.2402 0.14 2
  75.4817 0.07 1
  75.8040 0.06 1
  75.9766 0.29 5
  76.5304 0.03 1
  76.9800 9.12 160
  77.2556 0.06 1
  77.3873 0.08 1
  77.5756 0.05 1
  77.7456 0.07 1
  77.9902 2.07 36
  78.2488 0.01 0
  78.5405 0.07 1
  78.7367 0.06 1
  79.0006 7.39 129
  80.0063 1.50 26
  80.2058 0.05 1
  80.5215 0.03 1
  81.0073 5.91 103
  81.2809 0.10 2
  81.9785 0.64 11
  82.6836 0.04 1
  82.9967 7.83 137
  84.0026 0.23 4
  85.0004 5.15 90
  85.5924 0.01 0
  85.9630 0.37 6
  86.9856 4.52 79
  87.8618 0.04 1
  87.9987 0.15 3
  88.6796 0.05 1
  88.9799 1.22 21
  89.2811 0.12 2
  89.4560 0.13 2
  89.6675 0.04 1
  89.9586 0.46 8
  90.2111 0.04 1
  90.4211 0.10 2
  90.5848 0.11 2
  90.9985 16.03 280
  91.6362 0.06 1
  91.9957 1.40 24
  92.2184 0.06 1
  92.3425 0.04 1
  93.0096 9.81 172
  93.2838 0.05 1
  93.3846 0.06 1
  93.5613 0.04 1
  94.0196 0.93 16
  94.7137 0.09 2
  95.0152 9.09 159
  95.2144 0.08 1
  95.4275 0.06 1
  95.8582 0.11 2
  96.0220 1.03 18
  96.4695 0.06 1
  97.0071 2.06 36
  97.9962 0.26 5
  98.9842 0.32 6
  99.8236 0.01 0
  99.9724 0.16 3
  100.7787 0.02 0
  101.0208 0.53 9
  101.1308 0.06 1
  101.5307 0.02 0
  101.7047 0.03 1
  101.9903 0.93 16
  102.2134 0.03 1
  102.5506 0.10 2
  103.0055 3.15 55
  103.2919 0.10 2
  103.4208 0.03 1
  103.5511 0.06 1
  104.0081 1.28 22
  104.1907 0.07 1
  104.3498 0.04 1
  104.6114 0.04 1
  105.0235 16.86 295
  105.5463 0.04 1
  106.0396 1.61 28
  106.1947 0.08 1
  106.4247 0.03 1
  107.0384 9.44 165
  107.3231 0.12 2
  107.5432 0.05 1
  108.0230 1.30 23
  108.2409 0.05 1
  108.5249 0.01 0
  109.0399 7.63 133
  109.3590 0.10 2
  109.6269 0.05 1
  109.7404 0.03 1
  110.0413 0.41 7
  111.0207 2.95 52
  111.3917 0.03 1
  111.7481 0.03 1
  112.0288 0.09 2
  112.4675 0.06 1
  112.6292 0.07 1
  112.9922 2.57 45
  113.3012 0.13 2
  113.4658 0.07 1
  113.7731 0.23 4
  113.9991 0.32 6
  114.1471 0.16 3
  114.3901 0.10 2
  115.0045 9.49 166
  115.2291 0.22 4
  115.4745 0.06 1
  115.5988 0.14 2
  116.0128 3.37 59
  116.3182 0.05 1
  116.4971 0.17 3
  116.6139 0.07 1
  117.0169 7.65 134
  117.4026 0.09 2
  117.4864 0.05 1
  117.6482 0.02 0
  118.0089 1.63 29
  118.3692 0.14 2
  118.5188 0.02 0
  118.6972 0.13 2
  119.0253 15.91 278
  119.3366 0.05 1
  119.6024 0.03 1
  120.0203 1.62 28
  120.2284 0.02 0
  120.3458 0.04 1
  120.5625 0.03 1
  121.0247 9.39 164
  121.3573 0.07 1
  121.5396 0.09 2
  122.0169 1.49 26
  122.5567 0.04 1
  123.0086 3.96 69
  123.2195 0.06 1
  123.7065 0.03 1
  124.0141 0.32 6
  125.0158 2.68 47
  125.2431 0.11 2
  125.4639 0.09 2
  125.7361 0.12 2
  126.0169 0.55 10
  126.3044 0.12 2
  126.6309 0.02 0
  126.9930 2.79 49
  127.2585 0.13 2
  127.5380 0.16 3
  127.9975 8.98 157
  128.2964 0.15 3
  128.4759 0.13 2
  128.6297 0.13 2
  129.0047 10.89 190
  129.2042 0.18 3
  129.4169 0.07 1
  129.5075 0.02 0
  130.0046 4.33 76
  130.4399 0.01 0
  130.7238 0.14 2
  131.0138 9.66 169
  131.2171 0.12 2
  131.4874 0.04 1
  131.6523 0.02 0
  132.0090 2.16 38
  132.2934 0.04 1
  132.4745 0.02 0
  132.5760 0.09 2
  133.0141 8.91 156
  133.3308 0.07 1
  133.6058 0.07 1
  134.0071 1.60 28
  134.4811 0.10 2
  135.0094 8.62 151
  135.3834 0.03 1
  135.6438 0.04 1
  136.0035 1.70 30
  136.3940 0.14 2
  137.0095 4.19 73
  137.2323 0.09 2
  137.4746 0.12 2
  137.5807 0.03 1
  137.7383 0.10 2
  138.0007 0.65 11
  138.3175 0.02 0
  138.6377 0.06 1
  139.0109 1.96 34
  139.3983 0.09 2
  139.6413 0.03 1
  140.0015 0.50 9
  140.2754 0.15 3
  140.4463 0.14 2
  140.9905 9.95 174
  141.3412 0.11 2
  141.4626 0.03 1
  141.6981 0.09 2
  142.0095 5.97 104
  142.5003 0.11 2
  143.0081 12.26 214
  143.3724 0.12 2
  143.5041 0.09 2
  144.0233 4.02 70
  144.2406 0.13 2
  144.4822 0.09 2
  144.6639 0.04 1
  145.0228 11.78 206
  145.4612 0.04 1
  146.0246 2.08 36
  146.3550 0.11 2
  146.5222 0.11 2
  147.0194 7.36 129
  147.3150 0.07 1
  147.4487 0.07 1
  147.5675 0.04 1
  148.0173 1.25 22
  148.1896 0.07 1
  148.3227 0.09 2
  149.0243 4.78 84
  149.5072 0.07 1
  149.6006 0.04 1
  150.0025 0.63 11
  150.2002 0.08 1
  150.3857 0.10 2
  150.5144 0.08 1
  151.0170 3.92 69
  151.3294 0.11 2
  151.4812 0.09 2
  151.9999 3.48 61
  152.2115 0.23 4
  152.4564 0.22 4
  153.0169 5.84 102
  153.3428 0.08 1
  153.5527 0.33 6
  153.7341 0.33 6
  154.0194 2.57 45
  154.2389 0.11 2
  155.0187 9.52 167
  155.3554 0.07 1
  155.5133 0.06 1
  155.6902 0.09 2
  156.0292 5.75 101
  156.2838 0.11 2
  156.5549 0.18 3
  157.0399 10.96 192
  157.3957 0.11 2
  158.0461 2.98 52
  158.3347 0.05 1
  158.4663 0.06 1
  158.6676 0.05 1
  159.0505 10.51 184
  159.4595 0.09 2
  159.5476 0.05 1
  160.0401 1.59 28
  160.2601 0.11 2
  160.3941 0.05 1
  160.5554 0.15 3
  161.0545 8.47 148
  161.3014 0.05 1
  161.4929 0.05 1
  161.5955 0.09 2
  162.0321 0.79 14
  162.2840 0.10 2
  162.3969 0.16 3
  162.5058 0.17 3
  162.6948 0.10 2
  162.8174 0.10 2
  163.0660 2.07 36
  163.3887 0.04 1
  163.6457 0.04 1
  164.0673 0.70 12
  164.3683 0.17 3
  164.5164 0.09 2
  165.0378 8.29 145
  165.3871 0.11 2
  165.6040 0.08 1
  166.0544 2.46 43
  166.4658 0.13 2
  167.0671 9.31 163
  167.2987 0.12 2
  167.5414 0.07 1
  167.7780 0.13 2
  168.0641 2.72 48
  168.3434 0.10 2
  168.6172 0.15 3
  169.0749 7.78 136
  169.4784 0.18 3
  169.6451 0.16 3
  170.0776 2.75 48
  170.3843 0.04 1
  170.5421 0.08 1
  170.6930 0.08 1
  171.0873 7.39 129
  171.3494 0.13 2
  171.6341 0.20 3
  171.8156 0.15 3
  172.0825 1.64 29
  172.4781 0.02 0
  172.6680 0.31 5
  173.0858 5.70 100
  173.3137 0.14 2
  173.5402 0.23 4
  173.7000 0.05 1
  174.0823 1.11 19
  174.3489 0.04 1
  174.5474 0.08 1
  174.6887 0.07 1
  175.0844 3.10 54
  175.4050 0.12 2
  175.5264 0.04 1
  175.6891 0.04 1
  175.7815 0.02 0
  176.0727 1.13 20
  176.4301 0.10 2
  177.0714 1.65 29
  177.5098 0.15 3
  177.6576 0.12 2
  178.0507 2.87 50
  178.5262 0.14 2
  179.0730 6.83 119
  179.4837 0.12 2
  180.0613 2.73 48
  180.4592 0.07 1
  180.5755 0.09 2
  181.0670 6.67 117
  181.3412 0.05 1
  181.5303 0.15 3
  181.6106 0.09 2
  182.0755 2.52 44
  182.2937 0.14 2
  182.5356 0.20 3
  183.0818 6.48 113
  183.6165 0.15 3
  183.7254 0.07 1
  184.0736 2.33 41
  184.2874 0.11 2
  184.5809 0.14 2
  184.7378 0.06 1
  185.0849 5.18 91
  185.5952 0.09 2
  186.0641 1.37 24
  186.5609 0.18 3
  187.0752 3.48 61
  187.4214 0.06 1
  188.0627 0.68 12
  188.4543 0.17 3
  188.6408 0.16 3
  189.0661 3.24 57
  189.4886 0.16 3
  189.6808 0.22 4
  190.0617 1.19 21
  190.5076 0.15 3
  190.7152 0.11 2
  191.0546 3.18 56
  191.4428 0.03 1
  191.7147 0.22 4
  192.0570 1.85 32
  192.4281 0.15 3
  192.5592 0.06 1
  193.0692 6.13 107
  193.4433 0.01 0
  194.0792 3.05 53
  194.4556 0.10 2
  194.6938 0.09 2
  195.0808 6.61 116
  195.3560 0.07 1
  195.5377 0.09 2
  196.0808 2.25 39
  196.4919 0.09 2
  196.6339 0.11 2
  197.0828 6.87 120
  197.4963 0.03 1
  197.6257 0.14 2
  198.0840 1.26 22
  198.3528 0.03 1
  198.6223 0.06 1
  199.0802 3.55 62
  199.3695 0.06 1
  199.5453 0.07 1
  199.7239 0.10 2
  200.0651 0.75 13
  200.3440 0.12 2
  200.5991 0.05 1
  200.7400 0.07 1
  201.0771 2.19 38
  201.2917 0.17 3
  201.5132 0.15 3
  202.0512 1.55 27
  202.3079 0.17 3
  202.4187 0.18 3
  202.5177 0.15 3
  202.6552 0.12 2
  203.0636 2.78 49
  203.4511 0.04 1
  203.5718 0.06 1
  204.0815 1.38 24
  204.4657 0.05 1
  205.0614 2.95 52
  205.4472 0.13 2
  205.5519 0.08 1
  205.7873 0.10 2
  206.0833 2.54 44
  206.3188 0.08 1
  206.4446 0.17 3
  206.5852 0.08 1
  206.7554 0.27 5
  207.0902 5.76 101
  207.4946 0.20 3
  207.6804 0.09 2
  208.0857 1.84 32
  208.5108 0.17 3
  208.6030 0.06 1
  209.0894 5.02 88
  209.4324 0.13 2
  210.1043 1.57 27
  210.3220 0.10 2
  210.5009 0.08 1
  211.0964 3.64 64
  211.5363 0.09 2
  211.6913 0.15 3
  212.1102 0.77 13
  212.3542 0.08 1
  212.6257 0.17 3
  213.0906 2.85 50
  213.3524 0.15 3
  213.5408 0.06 1
  213.6657 0.03 1
  213.8887 0.16 3
  214.0800 0.81 14
  214.4167 0.04 1
  214.5628 0.30 5
  215.0903 2.84 50
  215.4724 0.03 1
  215.6299 0.14 2
  216.0856 1.50 26
  216.2672 0.17 3
  216.4361 0.07 1
  216.6007 0.14 2
  217.0750 2.47 43
  217.4645 0.09 2
  217.6180 0.13 2
  217.7021 0.04 1
  218.0917 1.58 28
  218.4079 0.18 3
  218.4970 0.11 2
  218.6194 0.02 0
  218.7977 0.08 1
  219.1076 3.10 54
  219.4982 0.15 3
  219.6503 0.08 1
  220.0885 1.35 24
  220.3731 0.02 0
  220.7200 0.11 2
  221.1116 3.43 60
  221.4636 0.18 3
  221.6131 0.10 2
  221.7675 0.08 1
  222.0984 1.09 19
  222.2926 0.13 2
  222.4669 0.07 1
  222.6745 0.05 1
  223.1218 2.95 52
  223.4500 0.11 2
  223.6386 0.31 5
  223.8123 0.16 3
  223.8946 0.08 1
  224.1470 0.99 17
  224.3804 0.06 1
  224.5648 0.11 2
  224.6882 0.07 1
  224.8081 0.03 1
  225.1323 3.15 55
  225.3608 0.17 3
  225.7334 0.04 1
  226.0939 0.87 15
  226.2842 0.10 2
  226.6633 0.13 2
  226.8145 0.12 2
  227.1284 1.65 29
  227.3734 0.13 2
  227.5062 0.10 2
  227.6340 0.09 2
  227.7534 0.09 2
  228.1206 0.70 12
  228.5192 0.05 1
  228.6642 0.11 2
  229.1283 1.86 33
  229.4687 0.04 1
  230.1349 0.78 14
  230.4165 0.07 1
  231.1277 1.94 34
  231.6691 0.10 2
  232.1359 1.37 24
  232.4313 0.10 2
  232.5544 0.17 3
  233.1559 4.68 82
  233.4343 0.10 2
  233.6052 0.10 2
  233.7996 0.09 2
  234.1628 1.53 27
  234.5240 0.09 2
  235.1736 2.86 50
  235.6418 0.05 1
  235.7555 0.09 2
  235.8557 0.10 2
  236.1676 0.89 16
  236.3809 0.10 2
  236.4960 0.13 2
  236.7007 0.08 1
  236.8067 0.09 2
  237.1707 1.82 32
  237.4622 0.07 1
  237.7922 0.11 2
  237.9472 0.18 3
  238.1478 0.78 14
  238.6230 0.15 3
  239.1281 1.80 31
  239.6618 0.06 1
  239.9188 0.23 4
  240.1487 0.44 8
  240.2946 0.16 3
  240.4875 0.13 2
  240.6207 0.10 2
  240.7659 0.11 2
  241.1504 1.46 26
  241.6148 0.10 2
  241.7757 0.04 1
  242.1141 0.69 12
  242.2694 0.31 5
  242.4539 0.12 2
  242.6826 0.02 0
  242.8166 0.13 2
  243.1430 1.73 30
  243.5620 0.15 3
  243.7096 0.19 3
  244.1245 0.54 9
  244.4296 0.05 1
  244.5408 0.07 1
  244.7405 0.09 2
  245.1441 2.03 36
  245.5856 0.07 1
  245.7033 0.08 1
  246.1456 1.48 26
  246.3311 0.20 3
  246.4367 0.12 2
  246.5887 0.10 2
  247.1617 2.26 40
  247.4508 0.07 1
  247.6335 0.07 1
  248.1754 1.12 20
  248.5417 0.24 4
  248.7102 0.10 2
  249.1373 1.77 31
  249.4809 0.10 2
  249.5923 0.02 0
  250.0802 0.56 10
  250.2503 0.42 7
  250.3896 0.11 2
  250.7162 0.03 1
  250.8419 0.06 1
  251.1443 1.20 21
  251.5359 0.08 1
  251.7297 0.07 1
  251.8698 0.05 1
  252.1493 0.63 11
  252.3839 0.12 2
  252.4833 0.06 1
  252.7371 0.09 2
  252.9059 0.10 2
  253.1312 1.55 27
  253.2671 0.57 10
  253.6734 0.19 3
  254.1227 0.39 7
  254.5412 0.05 1
  255.1474 1.66 29
  255.3700 0.09 2
  256.1066 0.62 11
  256.2763 0.12 2
  256.6995 0.05 1
  257.1585 1.82 32
  257.5095 0.07 1
  257.7824 0.03 1
  258.1779 0.52 9
  258.5547 0.11 2
  258.6852 0.18 3
  258.8019 0.08 1
  259.1552 1.97 34
  259.4871 0.10 2
  259.6541 0.09 2
  260.1394 0.92 16
  260.3925 0.04 1
  260.7108 0.01 0
  261.1669 1.52 27
  261.4659 0.08 1
  261.6567 0.14 2
  261.8460 0.13 2
  262.1717 0.65 11
  262.4105 0.11 2
  262.5526 0.03 1
  262.8603 0.10 2
  263.1746 1.62 28
  263.4178 0.10 2
  263.5563 0.06 1
  263.8412 0.08 1
  264.1649 0.46 8
  264.4376 0.09 2
  264.6838 0.05 1
  264.8762 0.09 2
  265.1770 1.08 19
  265.8103 0.04 1
  266.1342 0.59 10
  266.2800 0.16 3
  266.7993 0.07 1
  267.1599 1.17 20
  267.7433 0.04 1
  268.0487 0.30 5
  268.2276 0.45 8
  268.3548 0.14 2
  268.4820 0.07 1
  268.6423 0.11 2
  268.9125 0.16 3
  269.2022 0.80 14
  269.6789 0.11 2
  269.7565 0.03 1
  270.1512 0.48 8
  270.3857 0.07 1
  270.6021 0.03 1
  270.7934 0.06 1
  270.8862 0.05 1
  271.1768 1.27 22
  271.5774 0.09 2
  271.7709 0.04 1
  271.9328 0.17 3
  272.1026 0.65 11
  272.2371 0.33 6
  272.4487 0.03 1
  272.6847 0.09 2
  272.8365 0.08 1
  273.1855 1.83 32
  273.6375 0.10 2
  274.1904 0.64 11
  274.5007 0.05 1
  274.8830 0.15 3
  275.1912 1.39 24
  275.7025 0.04 1
  275.8293 0.06 1
  276.1498 0.31 5
  276.4027 0.20 3
  276.5712 0.03 1
  277.2081 0.83 15
  277.4539 0.08 1
  278.1759 0.31 5
  278.3057 0.15 3
  278.5565 0.05 1
  278.7562 0.21 4
  278.8405 0.16 3
  279.1620 0.84 15
  279.5679 0.02 0
  279.7280 0.11 2
  279.9261 0.05 1
  280.1714 0.31 5
  280.2902 0.07 1
  281.1681 0.67 12
  281.6683 0.07 1
  281.8562 0.07 1
  282.2162 0.27 5
  282.4811 0.23 4
  282.6071 0.10 2
  282.7496 0.08 1
  283.2278 0.80 14
  283.3660 0.30 5
  283.7751 0.04 1
  284.1330 0.43 8
  284.3138 0.10 2
  284.6992 0.11 2
  284.8109 0.13 2
  285.2165 1.84 32
  285.6935 0.12 2
  285.9320 0.05 1
  286.2109 0.76 13
  286.6008 0.10 2
  286.7464 0.02 0
  286.9374 0.13 2
  287.2099 1.31 23
  287.5278 0.05 1
  287.6771 0.10 2
  287.7903 0.16 3
  287.9308 0.10 2
  288.0938 0.10 2
  288.2178 0.24 4
  288.3937 0.09 2
  289.1906 0.43 8
  289.7936 0.09 2
  290.1962 0.36 6
  290.3470 0.20 3
  290.6832 0.03 1
  290.8607 0.06 1
  291.1724 0.70 12
  291.7050 0.04 1
  292.0233 0.02 0
  292.1590 0.21 4
  292.3084 0.17 3
  292.5791 0.04 1
  292.6953 0.06 1
  293.1877 0.62 11
  293.3985 0.15 3
  293.4996 0.14 2
  294.1949 0.48 8
  294.7453 0.09 2
  295.1447 0.57 10
  295.2877 0.25 4
  295.6590 0.04 1
  295.9242 0.10 2
  296.1951 0.35 6
  296.3295 0.16 3
  296.4639 0.03 1
  297.2046 1.17 20
  298.1823 0.59 10
  298.5238 0.06 1
  299.1926 1.05 18
  299.6895 0.29 5
  299.9156 0.20 3
  300.2126 0.35 6
  300.5138 0.06 1
  300.6294 0.04 1
  300.9264 0.09 2
  301.1894 0.70 12
  301.4019 0.09 2
  301.7097 0.09 2
  301.8312 0.05 1
  302.1578 0.32 6
  302.4137 0.10 2
  303.1807 0.71 12
  303.2899 0.17 3
  303.4099 0.10 2
  303.5487 0.10 2
  303.8191 0.12 2
  303.9587 0.03 1
  304.1872 0.25 4
  304.3947 0.12 2
  304.5799 0.03 1
  304.7289 0.12 2
  305.2047 0.61 11
  305.5881 0.08 1
  305.7523 0.03 1
  306.2153 0.14 2
  306.7181 0.10 2
  307.1292 1.00 17
  307.3173 0.42 7
  307.7059 0.07 1
  308.0866 0.36 6
  308.3899 0.06 1
  308.6902 0.05 1
  309.1507 1.06 19
  309.3606 0.33 6
  309.5163 0.05 1
  309.6350 0.07 1
  310.1505 1.16 20
  310.3851 0.16 3
  310.6205 0.14 2
  311.2057 1.26 22
  311.3925 0.23 4
  311.7554 0.10 2
  311.8547 0.02 0
  312.1705 0.61 11
  312.2842 0.31 5
  312.4436 0.11 2
  312.7740 0.11 2
  313.2044 1.21 21
  313.5174 0.07 1
  313.6218 0.07 1
  313.9044 0.01 0
  314.1631 0.41 7
  315.2126 0.88 15
  315.6077 0.08 1
  315.7505 0.13 2
  316.1247 0.46 8
  316.2421 0.17 3
  316.6424 0.03 1
  316.8896 0.09 2
  317.1812 0.49 9
  317.3690 0.21 4
  317.6207 0.13 2
  317.7019 0.07 1
  317.8404 0.11 2
  317.9695 0.08 1
  318.1813 0.33 6
  319.0968 0.54 9
  319.2136 0.25 4
  319.5394 0.08 1
  319.7781 0.09 2
  320.1946 0.34 6
  320.4355 0.09 2
  320.7411 0.09 2
  321.1664 0.28 5
  322.0106 0.05 1
  322.2095 0.27 5
  322.4011 0.05 1
  322.7685 0.09 2
  323.1889 0.35 6
  323.6609 0.02 0
  324.1583 0.28 5
  324.3101 0.25 4
  324.5483 0.09 2
  324.7125 0.01 0
  324.8824 0.05 1
  325.2122 0.54 9
  325.4643 0.03 1
  325.9815 0.12 2
  326.2438 0.38 7
  327.2087 0.25 4
  327.4151 0.12 2
  327.5699 0.06 1
  327.6884 0.05 1
  327.8083 0.05 1
  328.0816 0.34 6
  328.2255 0.35 6
  328.4166 0.10 2
  328.8237 0.07 1
  329.1784 0.38 7
  329.3369 0.18 3
  329.6277 0.09 2
  330.1934 0.12 2
  330.4333 0.02 0
  330.7278 0.06 1
  331.1758 0.42 7
  331.5285 0.13 2
  332.0034 0.05 1
  332.1999 0.08 1
  332.3817 0.10 2
  332.7607 0.11 2
  333.1732 0.47 8
  333.4198 0.10 2
  333.5879 0.09 2
  333.7181 0.04 1
  334.0273 0.11 2
  334.2085 0.16 3
  334.3570 0.08 1
  335.1997 0.47 8
  335.3998 0.14 2
  335.5192 0.08 1
  336.1830 0.35 6
  336.4269 0.10 2
  336.6424 0.05 1
  337.1411 0.30 5
  337.4702 0.05 1
  338.0192 0.15 3
  338.2238 0.18 3
  338.7867 0.09 2
  338.8807 0.06 1
  339.2062 0.43 8
  339.8246 0.03 1
  340.1065 0.08 1
  340.2850 0.09 2
  340.4343 0.12 2
  340.6878 0.04 1
  341.0478 0.09 2
  341.2947 0.43 8
  341.8841 0.10 2
  342.0448 0.09 2
  342.2783 0.18 3
  342.5780 0.06 1
  342.9352 0.03 1
  343.1592 0.28 5
  343.3607 0.29 5
  343.6707 0.08 1
  344.1545 0.28 5
  344.3131 0.06 1
  344.4128 0.07 1
  344.5307 0.09 2
  344.6646 0.08 1
  344.9091 0.10 2
  345.0546 0.18 3
  345.2416 0.53 9
  345.4541 0.10 2
  346.0182 0.08 1
  346.1194 0.07 1
  346.3239 0.11 2
  346.4506 0.08 1
  346.9383 0.10 2
  347.2680 0.51 9
  348.0551 0.15 3
  348.2677 0.11 2
  348.4228 0.07 1
  348.5699 0.07 1
  349.1611 0.55 10
  349.3068 0.26 5
  349.7474 0.08 1
  350.0598 0.17 3
  350.2944 0.14 2
  350.4765 0.09 2
  350.7708 0.18 3
  350.8917 0.09 2
  351.1496 0.46 8
  351.3069 0.30 5
  351.5918 0.09 2
  351.8555 0.07 1
  352.2628 0.26 5
  353.0082 0.20 3
  353.2953 1.05 18
  354.0955 0.12 2
  354.1939 0.07 1
  354.2930 0.05 1
  354.4680 0.07 1
  354.9279 0.10 2
  355.1874 0.32 6
  355.3769 0.34 6
  355.9682 0.06 1
  356.0775 0.06 1
  356.2620 0.25 4
  356.5026 0.02 0
  357.0072 0.21 4
  357.2660 0.30 5
  357.5293 0.09 2
  357.8334 0.06 1
  358.0864 0.04 1
  358.2119 0.17 3
  358.3942 0.08 1
  359.1725 0.22 4
  359.2804 0.17 3
  359.5941 0.06 1
  359.7852 0.09 2
  359.8939 0.10 2
  360.0865 0.13 2
  360.2944 0.24 4
  360.4469 0.09 2
  360.5556 0.06 1
  360.7621 0.03 1
  360.8971 0.05 1
  361.2524 0.24 4
  361.4326 0.08 1
  361.5713 0.12 2
  361.8727 0.06 1
  362.0952 0.09 2
  362.2996 0.18 3
  362.7681 0.12 2
  362.9732 0.04 1
  363.3038 1.02 18
  363.6542 0.04 1
  364.0367 0.11 2
  364.3521 0.37 6
  364.7288 0.08 1
  365.2092 0.63 11
  365.3800 0.68 12
  366.1854 0.19 3
  366.3658 0.25 4
  366.8945 0.05 1
  367.2823 0.62 11
  367.4203 0.30 5
  367.6387 0.07 1
  367.7315 0.03 1
  367.8607 0.06 1
  368.0645 0.09 2
  368.3085 0.28 5
  369.2465 0.46 8
  369.3955 0.19 3
  369.4933 0.10 2
  369.9361 0.02 0
  370.2856 0.16 3
  370.3739 0.08 1
  371.0181 0.06 1
  371.3086 0.47 8
  372.2966 0.20 3
  372.4681 0.18 3
  373.1513 0.13 2
  373.4053 0.17 3
  373.9622 0.11 2
  374.1090 0.16 3
  374.3236 0.18 3
  374.4506 0.10 2
  375.2113 0.23 4
  375.4260 0.29 5
  375.6596 0.05 1
  376.0956 0.14 2
  376.3511 0.17 3
  377.1019 0.10 2
  377.2954 0.34 6
  377.4648 0.12 2
  377.7015 0.09 2
  377.9388 0.05 1
  378.1061 0.13 2
  378.3179 0.10 2
  378.5429 0.09 2
  378.8322 0.05 1
  379.3574 0.48 8
  379.5868 0.05 1
  379.7789 0.08 1
  379.9272 0.10 2
  380.1800 0.24 4
  380.2823 0.15 3
  380.6623 0.12 2
  381.3024 1.47 26
  381.7803 0.05 1
  382.1406 0.31 5
  382.3488 0.25 4
  382.5769 0.02 0
  383.1185 0.03 1
  383.3209 0.19 3
  384.0373 0.09 2
  384.1396 0.15 3
  384.2455 0.09 2
  384.7186 0.09 2
  385.3523 0.29 5
  385.4567 0.10 2
  386.1351 0.11 2
  386.5221 0.05 1
  386.9223 0.09 2
  387.1005 0.07 1
  387.2437 0.09 2
  387.3868 0.22 4
  388.3531 0.19 3
  389.2714 0.33 6
  389.4226 0.17 3
  389.6271 0.11 2
  389.7228 0.07 1
  390.1122 0.21 4
  390.3073 0.44 8
  390.4688 0.10 2
  390.5923 0.06 1
  390.7523 0.06 1
  391.0168 0.12 2
  391.2857 0.29 5
  391.4640 0.10 2
  391.8389 0.09 2
  392.2314 0.40 7
  392.3958 0.25 4
  392.8482 0.09 2
  393.0835 0.10 2
  393.3466 0.21 4
  394.1266 0.10 2
  394.3006 0.05 1
  394.4373 0.05 1
  394.6076 0.12 2
  394.7436 0.01 0
  395.2619 0.27 5
  395.4798 0.16 3
  395.6918 0.02 0
  395.9404 0.18 3
  396.0157 0.09 2
  396.9173 0.05 1
  397.1235 0.21 4
  397.3429 0.14 2
  397.5228 0.06 1
  398.1430 0.08 1
  398.3010 0.14 2
  399.3016 0.55 10
  399.5342 0.15 3
  399.7646 0.09 2
  400.0887 0.09 2
  400.4610 0.16 3
  400.6615 0.08 1
  401.0207 0.17 3
  401.1663 0.20 3
  401.3280 0.70 12
  401.4999 0.31 5
  401.8694 0.05 1
  402.0070 0.12 2
  402.1724 0.09 2
  402.3685 0.06 1
  402.4695 0.12 2
  402.7790 0.07 1
  402.9773 0.17 3
  403.2635 0.15 3
  403.4289 0.16 3
  404.3240 0.18 3
  404.9300 0.09 2
  405.0808 0.06 1
  405.2565 0.17 3
  405.3985 0.28 5
  405.6071 0.09 2
  405.8275 0.03 1
  406.2213 0.06 1
  406.3238 0.05 1
  406.4314 0.05 1
  406.6189 0.01 0
  406.8312 0.09 2
  406.9176 0.06 1
  407.2251 0.20 3
  407.3803 0.10 2
  407.5458 0.17 3
  407.8753 0.13 2
  408.1045 0.21 4
  408.2495 0.08 1
  408.3673 0.19 3
  408.4794 0.10 2
  409.0916 0.10 2
  409.1890 0.11 2
  409.3523 0.14 2
  409.4842 0.23 4
  410.3271 0.19 3
  411.2428 0.12 2
  412.1013 0.13 2
  412.2735 0.14 2
  412.5006 0.09 2
  412.6068 0.05 1
  413.2875 0.23 4
  413.3981 0.24 4
  413.4860 0.09 2
  414.2825 0.09 2
  414.4056 0.09 2
  414.5698 0.08 1
  415.1340 0.03 1
  415.3033 0.11 2
  415.4690 0.08 1
  416.0010 0.14 2
  416.2385 0.10 2
  416.3602 0.05 1
  416.4863 0.08 1
  416.9348 0.06 1
  417.3559 0.41 7
  417.5264 0.15 3
  417.6844 0.08 1
  417.8263 0.06 1
  418.0414 0.10 2
  418.2477 0.47 8
  418.4540 0.38 7
  419.3525 3.02 53
  419.7930 0.11 2
  419.9635 0.07 1
  420.1281 0.13 2
  420.4077 0.34 6
  420.5694 0.11 2
  421.1263 0.09 2
  421.3159 0.14 2
  421.5230 0.05 1
  421.7242 0.04 1
  422.1378 0.11 2
  422.3149 0.09 2
  422.6135 0.01 0
  422.8360 0.09 2
  423.2664 0.10 2
  423.3894 0.13 2
  423.4883 0.11 2
  424.0322 0.09 2
  424.1588 0.15 3
  424.3879 0.06 1
  424.5446 0.09 2
  424.6676 0.07 1
  425.2167 0.15 3
  425.3727 0.24 4
  425.5191 0.06 1
  425.9533 0.07 1
  426.0968 0.12 2
  426.2498 0.05 1
  426.4475 0.14 2
  427.0370 0.08 1
  427.2282 0.14 2
  427.3453 0.09 2
  427.9005 0.05 1
  428.1319 0.09 2
  428.2755 0.09 2
  428.4475 0.21 4
  428.5303 0.09 2
  428.9171 0.01 0
  429.1983 0.10 2
  429.3660 0.18 3
  429.4942 0.09 2
  429.6598 0.09 2
  430.2429 0.18 3
  430.4377 0.18 3
  431.2253 0.19 3
  432.2942 0.16 3
  432.4547 0.09 2
  432.8474 0.08 1
  433.2057 0.20 3
  433.8990 0.04 1
  434.3123 0.20 3
  434.5021 0.11 2
  435.1302 0.23 4
  435.3630 0.48 8
  436.1699 0.24 4
  436.3309 0.12 2
  436.5023 0.13 2
  436.6407 0.05 1
  437.3670 0.06 1
  437.5626 0.08 1
  438.5307 0.05 1
  439.1364 0.15 3
  439.3766 0.20 3
  439.6212 0.09 2
  439.9091 0.08 1
  440.2131 0.11 2
  440.4577 0.23 4
  440.6848 0.11 2
  440.8181 0.07 1
  441.0152 0.02 0
  441.2078 0.08 1
  441.4005 0.16 3
  441.7704 0.09 2
  442.1704 0.08 1
  442.3426 0.29 5
  442.5280 0.10 2
  442.9316 0.09 2
  443.3683 0.22 4
  443.5134 0.09 2
  443.7361 0.06 1
  444.1187 0.04 1
  444.3165 0.20 3
  444.4960 0.14 2
  444.6939 0.10 2
  445.0090 0.06 1
  445.3586 0.31 5
  445.5594 0.14 2
  445.7140 0.05 1
  446.2629 0.30 5
  446.4014 0.03 1
  446.5590 0.02 0
  446.7005 0.06 1
  446.9152 0.10 2
  447.3521 2.14 37
  447.5397 0.44 8
  448.1650 0.21 4
  448.4641 0.13 2
  448.7250 0.09 2
  448.8130 0.07 1
  448.9970 0.11 2
  449.3387 0.16 3
  449.7338 0.17 3
  450.0454 0.07 1
  450.2778 0.16 3
  450.6840 0.11 2
  450.9216 0.08 1
  451.0616 0.07 1
  451.1716 0.08 1
  451.4077 0.17 3
  451.6416 0.10 2
  451.9423 0.11 2
  452.1755 0.14 2
  452.3808 0.25 4
  452.5363 0.12 2
  452.9095 0.02 0
  453.3268 0.28 5
  453.4603 0.10 2
  454.2906 0.11 2
  454.5113 0.09 2
  454.6881 0.11 2
  455.0431 0.01 0
  455.4216 0.23 4
  455.6350 0.05 1
  456.1977 0.12 2
  456.3444 0.17 3
  456.6936 0.09 2
  456.9783 0.07 1
  457.1543 0.14 2
  457.2989 0.20 3
  457.4911 0.06 1
  458.0802 0.13 2
  458.2468 0.12 2
  458.3891 0.08 1
  458.6041 0.08 1
  459.0407 0.08 1
  459.3540 0.18 3
  459.5125 0.12 2
  459.6072 0.03 1
  459.8691 0.04 1
  460.2750 0.20 3
  460.5450 0.18 3
  460.9009 0.07 1
  461.2231 0.44 8
  461.3508 0.32 6
  461.5578 0.03 1
  461.7530 0.03 1
  461.8661 0.08 1
  462.2433 0.46 8
  463.2702 1.65 29
  463.7092 0.05 1
  463.8751 0.13 2
  464.0483 0.07 1
  464.2840 0.23 4
  464.4212 0.18 3
  464.8221 0.11 2
  465.1583 0.10 2
  465.3529 0.22 4
  465.9197 0.03 1
  466.4417 0.12 2
  467.2068 0.06 1
  467.4029 0.04 1
  467.6026 0.06 1
  467.9426 0.09 2
  468.0843 0.13 2
  469.0544 0.05 1
  469.3430 0.10 2
  469.5061 0.13 2
  469.6376 0.07 1
  470.1487 0.14 2
  471.2258 0.19 3
  471.4325 0.11 2
  472.0718 0.04 1
  472.2668 0.12 2
  472.4875 0.07 1
  473.0857 0.09 2
  473.4795 0.19 3
  473.9055 0.03 1
  474.0587 0.04 1
  474.3153 0.10 2
  474.9474 0.02 0
  475.1483 0.23 4
  475.2349 0.14 2
  475.3229 0.09 2
  475.4864 0.03 1
  475.8025 0.05 1
  475.9294 0.10 2
  476.3510 0.85 15
  476.5725 0.23 4
  476.7251 0.08 1
  477.1013 0.12 2
  477.3859 0.21 4
  477.5237 0.10 2
  477.7761 0.14 2
  478.2162 0.26 5
  478.4472 0.29 5
  478.6592 0.16 3
  478.7428 0.07 1
  478.9863 0.06 1
  479.0802 0.08 1
  479.3663 0.51 9
  479.6414 0.10 2
  480.0859 0.14 2
  480.4528 0.16 3
  480.5613 0.10 2
  481.0338 0.04 1
  481.1879 0.05 1
  481.3551 0.10 2
  481.4696 0.09 2
  481.5686 0.10 2
  482.1461 0.07 1
  482.2789 0.11 2
  482.4550 0.09 2
  482.7426 0.08 1
  482.9003 0.09 2
  483.4169 0.16 3
  483.8154 0.09 2
  483.9438 0.11 2
  484.2314 0.07 1
  484.5206 0.12 2
  485.2207 0.12 2
  485.4225 0.09 2
  485.5326 0.08 1
  485.6295 0.07 1
  485.7315 0.05 1
  486.3267 0.10 2
  486.5256 0.18 3
  486.8376 0.01 0
  487.1018 0.05 1
  487.3617 0.18 3
  487.7316 0.11 2
  488.2205 0.10 2
  488.4077 0.08 1
  488.7343 0.12 2
  488.8907 0.27 5
  489.1285 0.20 3
  489.3407 0.20 3
  489.5433 0.25 4
  489.9471 0.18 3
  490.1681 0.14 2
  490.2635 0.16 3
  490.4794 0.08 1
  490.6607 0.11 2
  491.1226 0.12 2
  491.2320 0.05 1
  491.4933 0.14 2
  491.6497 0.06 1
  491.9523 0.08 1
  492.1762 0.12 2
  492.4083 0.14 2
  493.0611 0.08 1
  493.3195 0.10 2
  493.5670 0.10 2
  494.3660 0.17 3
  494.5930 0.03 1
  494.7773 0.09 2
  495.1166 0.10 2
  495.3817 0.10 2
  495.5029 0.18 3
  495.8547 0.06 1
  496.1162 0.04 1
  496.2763 0.10 2
  496.6047 0.11 2
  497.0968 0.08 1
  497.2636 0.17 3
  497.4230 0.20 3
  497.5941 0.16 3
  497.8924 0.06 1
  498.2185 0.10 2
  498.4037 0.16 3
  498.4991 0.19 3
  498.7849 0.10 2
  499.2469 0.24 4
  499.4251 0.23 4
  499.5924 0.10 2
  499.8469 0.09 2
  500.1711 0.05 1
  500.3626 0.11 2
  500.6010 0.06 1
  500.9472 0.03 1
  501.1240 0.09 2
  501.4659 0.09 2
  501.6082 0.05 1
  501.8371 0.11 2
  501.9787 0.10 2
  502.1848 0.27 5
  502.4710 0.02 0
  502.7791 0.10 2
  502.9127 0.19 3
  503.4512 0.10 2
  503.9186 0.06 1
  504.3537 0.12 2
  504.9150 0.18 3
  505.1432 0.10 2
  505.3597 0.13 2
  505.5212 0.13 2
  505.8140 0.15 3
  506.3680 0.30 5
  506.5816 0.15 3
  506.9016 0.10 2
  507.3551 0.27 5
  507.6377 0.16 3
  508.2087 0.17 3
  509.1423 0.08 1
  509.3119 0.22 4
  509.4682 0.13 2
  509.9468 0.11 2
  510.2449 0.03 1
  510.4394 0.16 3
  510.7095 0.15 3
  510.8461 0.12 2
  511.1397 0.16 3
  511.3827 0.17 3
  512.3342 0.05 1
  512.8980 0.08 1
  512.9986 0.10 2
  513.1205 0.10 2
  513.3532 0.23 4
  513.4406 0.11 2
  513.5867 0.09 2
  513.9472 0.02 0
  514.1110 0.01 0
  514.3915 0.25 4
  514.5596 0.09 2
  514.8563 0.09 2
  515.1419 0.13 2
  515.4334 0.24 4
  515.7485 0.10 2
  516.0760 0.08 1
  516.4226 0.19 3
  516.6782 0.23 4
  516.9418 0.08 1
  517.2642 0.05 1
  517.4265 0.03 1
  517.5661 0.08 1
  517.6829 0.13 2
  518.3453 0.20 3
  518.4379 0.17 3
  518.6127 0.23 4
  519.1518 0.10 2
  519.3898 0.29 5
  519.5469 0.13 2
  519.6902 0.16 3
  520.0259 0.08 1
  520.2837 0.22 4
  520.4291 0.15 3
  520.6583 0.11 2
  521.4796 0.11 2
  522.0145 0.06 1
  522.2584 0.09 2
  522.5331 0.15 3
  523.2178 0.10 2
  523.4551 0.30 5
  523.8549 0.04 1
  523.9672 0.10 2
  524.1333 0.10 2
  524.4397 0.23 4
  524.6704 0.10 2
  524.7689 0.09 2
  525.5117 0.12 2
  525.7631 0.10 2
  526.0261 0.10 2
  526.6811 0.06 1
  527.0302 0.09 2
  527.1379 0.05 1
  527.2552 0.14 2
  527.5456 0.19 3
  527.7158 0.11 2
  528.1997 0.15 3
  528.4131 0.16 3
  528.6661 0.05 1
  529.0885 0.10 2
  529.4112 0.10 2
  529.6437 0.03 1
  529.7727 0.03 1
  530.0015 0.09 2
  530.5516 0.09 2
  531.2073 0.10 2
  531.2968 0.09 2
  531.4589 0.12 2
  531.5593 0.14 2
  531.8388 0.05 1
  532.0222 0.20 3
  532.4432 0.07 1
  532.5833 0.10 2
  532.8070 0.09 2
  533.1290 0.07 1
  533.6484 0.07 1
  534.3438 0.10 2
  534.7979 0.12 2
  535.2535 0.07 1
  535.4280 0.04 1
  535.6085 0.14 2
  536.0487 0.10 2
  536.2336 0.18 3
  536.3796 0.16 3
  536.5300 0.22 4
  536.8822 0.14 2
  537.0561 0.08 1
  537.1434 0.07 1
  537.2872 0.05 1
  537.4662 0.40 7
  538.0422 0.08 1
  538.2103 0.03 1
  538.4531 0.09 2
  538.6270 0.08 1
  539.0893 0.18 3
  539.4863 0.21 4
  540.0844 0.08 1
  540.2304 0.09 2
  540.3845 0.18 3
  540.5489 0.19 3
  540.7705 0.10 2
  540.8887 0.21 4
  541.1228 0.03 1
  541.3246 0.16 3
  541.5088 0.21 4
  541.6233 0.09 2
  542.0336 0.04 1
  542.2670 0.10 2
  542.6185 0.16 3
  542.8057 0.10 2
  542.9451 0.13 2
  543.1873 0.08 1
  543.7510 0.09 2
  543.9742 0.19 3
  544.1357 0.16 3
  544.4072 0.33 6
  544.5812 0.04 1
  544.7222 0.16 3
  545.0187 0.20 3
  545.2037 0.14 2
  545.3138 0.09 2
  545.4827 0.09 2
  545.7219 0.06 1
  545.9238 0.09 2
  546.1367 0.02 0
  546.3077 0.05 1
  546.4913 0.10 2
  546.6132 0.09 2
  546.7820 0.04 1
  546.9633 0.11 2
  547.2343 0.06 1
  547.4787 0.15 3
  547.6681 0.14 2
  548.0059 0.11 2
  548.0925 0.07 1
  548.4280 0.04 1
  548.5983 0.07 1
  548.6805 0.04 1
  548.7819 0.03 1
  548.8928 0.08 1
  549.0198 0.12 2
  549.3458 0.05 1
  549.4720 0.05 1
  549.7717 0.23 4
  549.9016 0.09 2
  550.1909 0.06 1
  550.3759 0.21 4
  550.5874 0.08 1
  550.7137 0.13 2
  550.9186 0.12 2
  551.1205 0.18 3
  551.4649 0.25 4
  551.7866 0.13 2
  552.1266 0.16 3
  552.5532 0.23 4
  552.8433 0.20 3
  553.0636 0.10 2
  553.3596 0.16 3
  553.5278 0.18 3
  553.7150 0.17 3
  553.9427 0.20 3
  554.3702 0.28 5
  554.6456 0.29 5
  554.8674 0.19 3
  555.0349 0.16 3
  555.3918 0.43 8
  555.6041 0.12 2
  555.9640 0.20 3
  556.1843 0.14 2
  556.4290 0.14 2
  556.6824 0.14 2
  557.2178 0.43 8
  557.4676 0.35 6
  557.5660 0.14 2
  557.7578 0.15 3
  557.8856 0.09 2
  557.9840 0.04 1
  558.4255 0.19 3
  558.6047 0.14 2
  558.7884 0.11 2
  559.0859 0.19 3
  559.4643 0.28 5
  559.6722 0.22 4
  559.9903 0.05 1
  560.3033 0.19 3
  560.6067 0.10 2
  560.7117 0.07 1
  561.0931 0.20 3
  561.3142 0.20 3
  561.5207 0.10 2
  561.7374 0.04 1
  561.9160 0.08 1
  562.2679 0.09 2
  562.3862 0.10 2
  562.5126 0.14 2
  562.6221 0.09 2
  562.7786 0.18 3
  563.1585 0.07 1
  563.3179 0.13 2
  563.4921 0.21 4
  563.6750 0.21 4
  563.8646 0.06 1
  564.1542 0.11 2
  564.2857 0.11 2
  564.5605 0.19 3
  564.6605 0.14 2
  564.9963 0.32 6
  565.1271 0.19 3
  565.3314 0.51 9
  565.5820 0.47 8
  565.7401 0.34 6
  565.8892 0.21 4
  565.9760 0.11 2
  566.1053 0.22 4
  566.3448 0.22 4
  566.5903 0.22 4
  566.8535 0.21 4
  567.0372 0.24 4
  567.2018 0.36 6
  567.3437 0.20 3
  567.5428 0.27 5
  567.9684 0.46 8
  568.1933 0.26 5
  568.4528 0.58 10
  568.7210 0.27 5
  569.0790 0.44 8
  569.5406 0.60 10
  569.8692 0.35 6
  570.0721 0.33 6
  570.4087 0.46 8
  570.7505 0.54 9
  571.1674 0.45 8
  571.4349 0.55 10
  571.7765 0.57 10
  572.1469 0.44 8
  572.3384 0.57 10
  572.5892 0.60 10
  573.0770 0.73 13
  573.3338 0.53 9
  573.5546 0.46 8
  573.8209 0.39 7
  574.2097 0.50 9
  574.4598 0.39 7
  574.7445 0.46 8
  574.9139 0.42 7
  575.1223 0.48 8
  575.4671 0.68 12
  575.8178 0.44 8
  576.0804 0.48 8
  576.3571 0.18 3
  576.5529 0.40 7
  576.6483 0.17 3
  576.7628 0.19 3
  577.0416 0.39 7
  577.2492 0.34 6
  577.5515 0.24 4
  577.8281 0.32 6
  578.3835 0.34 6
  578.7262 0.22 4
  578.8473 0.15 3
  579.1841 0.50 9
  579.5598 0.47 8
  579.7894 0.42 7
  579.9898 0.14 2
  580.1483 0.19 3
  580.5145 1.72 30
  580.7684 0.59 10
  580.9276 0.31 5
  581.1463 0.28 5
  581.4259 0.45 8
  581.8662 0.28 5
  582.1429 0.13 2
  582.3396 0.39 7
  582.6119 0.33 6
  582.7902 0.18 3
  583.5476 1.17 20
  584.1355 0.13 2
  584.3102 0.20 3
  584.5392 0.27 5
  584.7396 0.17 3
  585.3796 0.93 16
  586.3257 1.35 24
  587.5751 1.90 33
  588.5574 1.37 24
  589.5242 1.94 34
  597.5742 6.00 105
  598.5557 57.11 999
  599.4962 3.81 67
  600.0325 1.33 23
  600.5072 1.57 27
  600.9305 0.91 16
  601.5278 3.32 58
  601.9254 1.12 20
  602.2974 0.94 16
  602.8690 1.01 18
  603.5837 1.29 23
  606.1007 1.44 25
  606.9006 1.50 26
  607.6389 1.45 25
  616.4952 99.97 999
  617.4343 20.82 364
  618.0819 10.62 186
  618.5981 6.52 114
  619.4146 3.43 60
  620.4971 1.78 31
  620.7039 1.05 18
  621.6258 0.70 12
  621.8635 0.76 13
  622.0695 0.57 10
  622.4737 0.52 9
  622.6989 0.30 5
  622.8917 0.32 6
  623.1418 0.32 6
  623.3384 0.18 3
  623.6274 0.34 6
  623.8299 0.19 3
//
