ACCESSION: MSBNK-Kyoto_Univ-CA000127
RECORD_TITLE: Sarcinaxanthin monoglucoside; FAB-EBEB; MS2; m/z: 866.61; [M]*+
DATE: 2016.01.19 (Created 2007.10.06, modified 2011.05.10)
AUTHORS: Akimoto N, Graduate School of Pharmaceutical Sciences, Kyoto University and Maoka T, Research Institute for Production Development
LICENSE: CC BY-SA
COMMENT: Profile spectrum of this record is given as a JPEG file.
COMMENT: [Profile] CA000127.jpg
CH$NAME: Sarcinaxanthin monoglucoside
CH$COMPOUND_CLASS: Natural Product; Carotenoid
CH$FORMULA: C56H82O7
CH$EXACT_MASS: 866.60605
CH$SMILES: O(C(OCC(C)=CCC(C2)C(C)(C)C(C=CC(C)=CC=CC(C)=CC=CC=C(C=CC=C(C=CC(C3=C)C(C)(C)C(CC3)CC=C(C)CO)C)C)C(=C)C2)1)C(C(C(O)C1O)O)CO
CH$IUPAC: InChI=1S/C56H82O7/c1-38(19-15-21-40(3)25-33-48-44(7)27-31-46(55(48,9)10)29-23-42(5)35-57)17-13-14-18-39(2)20-16-22-41(4)26-34-49-45(8)28-32-47(56(49,11)12)30-24-43(6)37-62-54-53(61)52(60)51(59)50(36-58)63-54/h13-26,33-34,46-54,57-61H,7-8,27-32,35-37H2,1-6,9-12H3/b14-13+,19-15+,20-16+,33-25+,34-26+,38-17+,39-18+,40-21+,41-22+,42-23+,43-24+/t46-,47-,48+,49+,50+,51+,52-,53+,54+/m0/s1
CH$LINK: INCHIKEY BRWOXKPPNFPCOO-KMXUZMIRSA-N
AC$INSTRUMENT: JMS-HX/HX 110A, JEOL
AC$INSTRUMENT_TYPE: FAB-EBEB
AC$MASS_SPECTROMETRY: MS_TYPE MS2
AC$MASS_SPECTROMETRY: ION_MODE POSITIVE
AC$MASS_SPECTROMETRY: ATOM_GUN_CURRENT 5 mA
AC$MASS_SPECTROMETRY: BOMBARDMENT 6 kV xenon
AC$MASS_SPECTROMETRY: COLLISION_ENERGY 3 kV
AC$MASS_SPECTROMETRY: COLLISION_GAS Ar
AC$MASS_SPECTROMETRY: GAS_PRESSURE adjust to attenuate the intensity of the precursor ion by 30 %
AC$MASS_SPECTROMETRY: IONIZATION FAB
AC$MASS_SPECTROMETRY: PROBE_TIP stainless-steel
MS$FOCUSED_ION: BASE_PEAK 866.4878
MS$FOCUSED_ION: PRECURSOR_M/Z 866.61
MS$FOCUSED_ION: PRECURSOR_TYPE [M]+*
PK$SPLASH: splash10-014i-4920001180-b65ddc24550ed036fe17
PK$NUM_PEAK: 1467
PK$PEAK: m/z int. rel.int.
  3.6358 0.03 0
  11.8340 0.01 0
  13.9642 0.01 0
  15.0079 0.03 0
  17.8477 0.01 0
  18.9925 0.10 1
  22.9629 0.73 7
  25.9847 0.14 1
  27.0006 0.36 4
  27.9794 0.07 1
  29.0058 0.81 8
  30.9982 0.41 4
  32.6220 0.02 0
  36.9866 0.02 0
  37.9669 0.02 0
  38.9884 0.97 10
  39.9790 0.14 1
  41.0121 3.01 30
  42.0512 0.01 0
  43.0041 6.30 63
  43.9951 0.07 1
  45.0166 1.45 14
  46.9887 0.12 1
  49.9585 0.09 1
  50.6510 0.01 0
  50.9832 0.42 4
  52.0076 0.17 2
  53.0005 1.77 18
  54.0085 0.16 2
  55.0175 3.15 31
  55.2122 0.02 0
  56.0417 0.24 2
  56.6004 0.01 0
  57.0077 2.72 27
  58.0091 0.12 1
  58.9903 0.42 4
  60.0404 0.04 0
  60.9858 1.90 19
  61.8804 0.04 0
  61.9816 0.05 0
  62.9919 0.56 6
  63.9620 0.12 1
  65.0070 1.00 10
  65.9711 0.20 2
  67.0132 2.48 25
  67.5372 0.05 0
  68.0083 0.15 1
  69.0197 7.95 79
  69.9580 0.09 1
  70.0608 0.05 0
  71.0034 0.90 9
  72.0088 0.03 0
  72.9869 3.88 39
  74.0006 0.42 4
  74.8553 0.13 1
  74.9776 0.19 2
  75.3155 0.09 1
  75.9963 0.14 1
  76.5604 0.04 0
  76.7809 0.04 0
  77.0008 1.79 18
  77.4138 0.16 2
  77.9901 0.28 3
  79.0183 3.09 31
  79.5573 0.06 1
  80.0011 0.63 6
  81.0268 5.43 54
  81.8524 0.01 0
  82.0935 0.14 1
  83.0108 1.68 17
  83.7492 0.03 0
  83.9840 0.12 1
  84.2667 0.10 1
  84.9972 6.68 67
  86.0138 0.15 1
  86.9975 3.70 37
  88.0175 0.14 1
  88.9591 0.43 4
  89.1367 0.13 1
  89.3225 0.04 0
  89.6402 0.15 1
  89.8453 0.05 0
  90.0099 0.19 2
  90.1603 0.11 1
  90.7347 0.12 1
  91.0226 7.07 71
  92.0512 0.56 6
  92.6247 0.02 0
  93.0354 7.12 71
  93.4780 0.10 1
  94.0370 0.60 6
  94.4107 0.02 0
  95.0502 4.24 42
  95.9425 0.10 1
  97.0236 1.71 17
  97.2753 0.04 0
  97.9906 0.31 3
  99.0140 0.68 7
  99.2637 0.04 0
  100.0900 0.07 1
  100.7467 0.09 1
  101.0139 0.75 7
  101.5752 0.04 0
  102.0048 0.20 2
  102.5744 0.04 0
  103.0253 1.43 14
  103.1719 0.14 1
  103.3877 0.10 1
  103.6796 0.01 0
  103.8206 0.09 1
  104.0409 0.45 4
  104.3448 0.11 1
  104.7613 0.10 1
  105.0433 8.08 81
  105.4961 0.02 0
  106.0671 0.75 7
  106.5692 0.08 1
  107.0535 5.93 59
  107.2855 0.11 1
  107.7473 0.07 1
  108.0854 0.30 3
  109.0547 2.27 23
  110.0628 0.26 3
  110.7261 0.04 0
  111.0514 0.52 5
  111.8026 0.03 0
  112.0194 0.32 3
  112.6258 0.03 0
  112.8842 0.08 1
  112.9836 0.03 0
  113.4975 0.10 1
  113.9556 0.11 1
  114.3515 0.08 1
  114.5407 0.21 2
  115.0251 3.45 34
  115.2239 0.19 2
  115.5218 0.10 1
  116.0342 1.11 11
  116.4438 0.10 1
  116.6389 0.07 1
  117.0369 3.07 31
  118.0563 0.67 7
  118.3942 0.09 1
  118.6237 0.03 0
  119.0573 8.93 89
  119.3414 0.02 0
  120.0619 0.99 10
  120.4464 0.02 0
  120.6034 0.07 1
  121.0856 4.62 46
  121.3931 0.02 0
  122.0565 0.30 3
  123.0788 1.37 14
  123.7520 0.03 0
  124.0370 0.26 3
  124.9959 0.07 1
  125.1026 0.09 1
  125.9971 0.40 4
  126.6436 0.04 0
  127.0042 2.88 29
  127.6191 0.04 0
  128.0037 2.64 26
  128.2683 0.22 2
  129.0274 3.61 36
  129.4554 0.04 0
  130.0086 1.92 19
  130.5320 0.03 0
  130.6570 0.03 0
  131.0341 5.37 54
  131.3678 0.04 0
  131.6931 0.03 0
  132.0717 0.96 10
  133.0439 5.53 55
  134.0290 0.18 2
  135.0629 1.89 19
  135.6054 0.01 0
  135.9969 0.18 2
  137.0445 0.29 3
  137.9681 0.15 1
  139.0030 0.42 4
  139.9779 0.30 3
  140.2150 0.12 1
  140.5192 0.09 1
  140.6683 0.06 1
  140.9947 2.27 23
  141.5333 0.20 2
  142.0016 3.08 31
  142.4499 0.09 1
  142.6409 0.14 1
  143.0108 5.96 60
  144.0117 1.74 17
  144.3584 0.06 1
  145.0176 8.47 85
  145.3106 0.05 0
  145.4847 0.15 1
  145.6934 0.03 0
  146.0489 0.93 9
  146.5949 0.10 1
  146.7987 0.08 1
  147.0612 1.61 16
  147.3550 0.02 0
  148.0205 0.26 3
  148.3923 0.08 1
  149.0444 0.47 5
  149.6650 0.09 1
  150.0299 0.10 1
  150.9284 0.24 2
  151.0403 0.11 1
  151.3314 0.02 0
  151.5689 0.09 1
  151.7526 0.09 1
  152.0144 0.74 7
  152.3023 0.09 1
  152.3965 0.02 0
  152.5975 0.11 1
  152.9834 0.89 9
  153.4657 0.03 0
  153.6122 0.09 1
  153.9950 0.96 10
  154.4869 0.04 0
  155.0007 2.72 27
  155.4950 0.10 1
  155.6301 0.11 1
  156.0220 2.21 22
  156.5900 0.10 1
  157.0293 7.40 74
  157.7036 0.14 1
  158.0242 1.17 12
  158.5583 0.08 1
  159.0511 2.72 27
  159.4700 0.03 0
  160.0168 0.23 2
  160.4009 0.02 0
  160.5694 0.12 1
  160.7434 0.04 0
  161.0443 0.51 5
  161.8099 0.04 0
  162.2001 0.09 1
  163.0376 0.23 2
  163.7567 0.08 1
  164.0568 0.26 3
  164.2761 0.06 1
  164.4436 0.08 1
  164.9989 2.09 21
  165.9867 1.07 11
  166.4353 0.07 1
  166.9919 1.47 15
  167.5059 0.10 1
  167.7269 0.06 1
  168.0449 0.78 8
  168.3081 0.09 1
  168.5329 0.15 1
  169.0368 2.82 28
  169.3360 0.11 1
  170.0445 1.21 12
  170.6444 0.12 1
  171.0651 3.33 33
  171.3273 0.11 1
  171.4373 0.10 1
  171.5428 0.09 1
  171.9473 0.21 2
  172.1465 0.34 3
  173.0857 1.21 12
  173.4404 0.06 1
  174.0691 0.19 2
  175.1262 0.77 8
  175.7440 0.04 0
  176.0185 0.22 2
  176.1364 0.16 2
  177.0066 0.29 3
  177.1671 0.11 1
  177.4798 0.11 1
  177.7059 0.04 0
  178.0751 0.86 9
  178.6337 0.18 2
  179.0356 1.72 17
  180.0534 1.10 11
  180.2736 0.09 1
  180.6307 0.06 1
  181.0611 2.31 23
  181.3463 0.05 0
  181.5426 0.10 1
  182.0679 1.11 11
  182.6760 0.10 1
  183.0933 3.62 36
  183.3568 0.08 1
  183.7530 0.09 1
  184.1020 1.39 14
  184.6870 0.08 1
  185.0977 1.28 13
  185.4648 0.05 0
  185.5847 0.03 0
  186.1240 0.26 3
  186.3854 0.10 1
  186.8684 0.11 1
  187.1104 0.71 7
  187.8442 0.02 0
  188.3105 0.17 2
  188.8306 0.10 1
  189.1001 0.32 3
  189.3537 0.11 1
  190.0779 0.19 2
  190.2714 0.10 1
  191.0771 0.83 8
  191.6068 0.05 0
  192.0706 0.86 9
  192.6725 0.05 0
  193.0641 2.06 21
  193.7336 0.03 0
  194.0555 1.06 11
  195.0674 2.28 23
  196.0866 0.86 9
  196.7466 0.15 1
  197.0946 2.91 29
  197.5988 0.05 0
  198.0743 0.44 4
  198.3654 0.09 1
  198.6951 0.05 0
  199.1241 0.96 10
  200.1279 0.41 4
  200.6475 0.01 0
  200.8163 0.05 0
  201.0753 0.46 5
  201.5211 0.05 0
  201.8506 0.20 2
  202.0806 0.42 4
  203.0463 0.45 4
  203.2757 0.09 1
  204.0400 0.30 3
  204.6044 0.11 1
  205.0523 0.50 5
  205.4948 0.07 1
  205.8102 0.10 1
  206.0475 0.58 6
  206.4234 0.05 0
  207.0415 1.70 17
  208.0420 1.10 11
  208.6307 0.15 1
  209.0743 2.10 21
  210.0856 0.63 6
  210.6251 0.10 1
  211.0967 0.97 10
  211.7416 0.09 1
  212.0859 0.40 4
  212.7823 0.10 1
  213.0776 0.53 5
  213.7461 0.06 1
  214.0605 0.39 4
  214.4679 0.06 1
  215.0773 0.29 3
  215.9639 0.09 1
  216.2873 0.11 1
  216.8016 0.10 1
  217.0617 0.25 2
  217.3769 0.07 1
  217.7244 0.10 1
  218.0872 0.24 2
  219.0345 0.54 5
  220.0689 0.57 6
  220.6996 0.07 1
  221.0803 1.14 11
  221.7952 0.09 1
  222.0408 0.37 4
  223.0821 1.21 12
  223.3956 0.06 1
  224.0610 0.43 4
  224.4034 0.02 0
  224.5941 0.08 1
  225.0702 0.51 5
  225.1809 0.22 2
  225.5645 0.07 1
  225.7258 0.08 1
  226.1611 0.25 2
  227.0484 0.24 2
  227.9657 0.20 2
  228.0957 0.08 1
  229.0357 0.47 5
  229.2384 0.08 1
  229.7953 0.08 1
  230.0718 0.16 2
  230.8310 0.19 2
  231.0828 0.45 4
  231.3864 0.03 0
  231.8079 0.03 0
  232.0426 0.62 6
  233.0615 0.90 9
  233.8344 0.06 1
  234.1030 0.21 2
  235.0520 0.58 6
  235.6463 0.04 0
  235.8624 0.07 1
  236.1495 0.26 3
  236.6807 0.09 1
  237.0170 0.39 4
  237.2977 0.03 0
  238.0311 0.18 2
  238.1619 0.22 2
  239.0621 0.68 7
  239.4653 0.10 1
  239.7751 0.07 1
  240.0495 0.25 2
  240.1929 0.08 1
  240.6396 0.16 2
  241.0161 0.25 2
  242.0460 0.34 3
  242.2946 0.08 1
  242.6657 0.04 0
  242.8267 0.07 1
  243.0889 0.70 7
  243.8141 0.10 1
  244.0678 0.27 3
  244.2270 0.15 1
  245.0974 0.42 4
  245.4565 0.10 1
  245.6795 0.07 1
  246.0715 0.34 3
  246.5380 0.19 2
  247.0906 0.62 6
  247.6704 0.08 1
  247.8579 0.16 2
  248.0725 0.19 2
  249.0898 0.39 4
  249.3790 0.09 1
  249.5434 0.09 1
  250.1637 0.36 4
  250.9341 0.07 1
  251.1646 0.32 3
  251.5180 0.11 1
  252.0071 0.18 2
  252.2144 0.17 2
  253.0506 0.35 3
  253.2037 0.12 1
  253.6806 0.09 1
  253.9986 0.13 1
  254.1965 0.11 1
  254.3429 0.01 0
  255.0965 0.44 4
  255.2624 0.22 2
  255.4400 0.05 0
  256.0368 0.31 3
  256.1776 0.15 1
  256.4212 0.04 0
  256.7299 0.10 1
  257.1465 0.35 3
  258.0857 0.19 2
  258.2635 0.07 1
  258.7241 0.07 1
  259.1148 0.44 4
  259.9276 0.08 1
  260.1289 0.20 2
  260.2738 0.04 0
  261.1245 0.50 5
  261.3324 0.07 1
  262.1736 0.35 3
  262.5807 0.01 0
  263.1424 0.69 7
  264.2255 0.31 3
  264.3587 0.10 1
  264.4599 0.04 0
  265.1067 0.36 4
  266.1781 0.26 3
  266.5801 0.10 1
  266.9004 0.10 1
  267.0056 0.06 1
  267.2091 0.29 3
  267.5363 0.07 1
  267.7759 0.03 0
  268.0915 0.14 1
  269.0025 0.10 1
  269.1565 0.26 3
  270.0943 0.27 3
  271.1349 0.38 4
  271.8070 0.18 2
  272.0988 0.25 2
  272.2647 0.10 1
  272.6298 0.11 1
  273.1276 0.38 4
  274.1569 0.10 1
  275.1230 0.25 2
  276.0837 0.19 2
  276.3144 0.19 2
  277.2072 0.16 2
  277.3832 0.03 0
  277.6854 0.12 1
  278.1022 0.28 3
  278.2773 0.17 2
  278.9740 0.28 3
  279.2794 0.19 2
  280.0616 0.11 1
  280.2995 0.02 0
  281.0331 0.07 1
  281.1810 0.09 1
  282.1783 0.09 1
  283.1850 0.22 2
  284.0978 0.05 0
  284.4882 0.11 1
  284.9021 0.15 1
  285.1199 0.26 3
  286.0855 0.07 1
  286.2121 0.09 1
  286.3849 0.03 0
  287.1467 0.19 2
  287.4030 0.10 1
  288.1248 0.16 2
  289.0768 0.24 2
  289.9023 0.09 1
  290.1431 0.11 1
  290.2670 0.10 1
  290.9424 0.10 1
  291.1961 0.10 1
  292.2639 0.06 1
  293.1826 0.29 3
  293.3310 0.19 2
  294.0240 0.15 1
  294.3081 0.09 1
  295.1803 0.12 1
  296.0823 0.11 1
  297.1096 0.23 2
  297.7513 0.09 1
  299.1101 0.22 2
  299.2559 0.14 1
  299.9474 0.12 1
  300.1956 0.16 2
  300.8785 0.08 1
  301.1860 0.14 1
  302.1974 0.21 2
  303.1736 0.41 4
  304.1453 0.18 2
  304.9169 0.09 1
  305.0738 0.11 1
  305.2327 0.09 1
  306.1745 0.14 1
  306.4934 0.04 0
  307.1698 0.06 1
  307.3259 0.04 0
  309.0785 0.11 1
  309.2445 0.11 1
  309.6794 0.12 1
  310.2893 0.09 1
  310.5583 0.09 1
  310.9241 0.12 1
  311.2227 0.10 1
  311.3484 0.07 1
  312.1021 0.02 0
  312.2712 0.09 1
  312.6432 0.06 1
  312.8074 0.05 0
  313.1703 0.20 2
  313.7971 0.01 0
  314.0127 0.17 2
  314.2965 0.09 1
  315.0443 0.09 1
  315.2303 0.09 1
  315.8397 0.11 1
  315.9496 0.03 0
  316.1158 0.10 1
  317.1659 0.10 1
  317.3510 0.09 1
  317.6015 0.03 0
  318.2242 0.08 1
  318.3906 0.12 1
  319.1443 0.18 2
  319.3156 0.17 2
  320.5392 0.05 0
  321.0981 0.09 1
  321.2944 0.13 1
  322.1042 0.11 1
  322.3015 0.04 0
  323.1543 0.11 1
  323.3179 0.11 1
  324.3257 0.04 0
  324.8913 0.01 0
  325.1641 0.11 1
  325.3745 0.21 2
  325.7705 0.01 0
  326.6728 0.08 1
  327.2347 0.18 2
  327.4373 0.06 1
  328.1225 0.13 1
  329.2112 0.28 3
  329.5202 0.01 0
  330.3768 0.07 1
  331.1590 0.28 3
  332.2159 0.18 2
  333.1729 0.10 1
  333.3337 0.03 0
  334.1747 0.17 2
  335.1451 0.04 0
  335.2514 0.03 0
  336.1039 0.10 1
  337.2507 0.16 2
  339.1257 0.14 1
  339.3445 0.06 1
  339.8179 0.02 0
  340.9002 0.08 1
  341.1221 0.15 1
  341.5490 0.14 1
  342.1331 0.21 2
  343.2470 0.21 2
  343.6313 0.13 1
  344.8950 0.10 1
  345.1719 0.13 1
  346.3883 0.10 1
  346.8994 0.07 1
  347.1187 0.08 1
  349.1532 0.17 2
  349.2848 0.06 1
  350.1674 0.08 1
  351.2127 0.11 1
  352.3781 0.10 1
  353.1376 0.13 1
  353.3562 0.10 1
  354.1288 0.02 0
  355.2581 0.08 1
  355.5747 0.11 1
  357.0141 0.10 1
  357.2029 0.12 1
  357.4237 0.11 1
  358.9357 0.10 1
  359.0276 0.04 0
  359.3165 0.05 0
  359.7594 0.05 0
  361.1502 0.10 1
  362.1644 0.03 0
  363.0657 0.10 1
  363.3529 0.04 0
  364.1674 0.14 1
  365.2204 0.11 1
  367.2058 0.14 1
  367.3290 0.08 1
  368.0822 0.10 1
  368.4558 0.09 1
  369.1932 0.10 1
  369.3775 0.06 1
  369.8605 0.01 0
  370.1120 0.04 0
  371.1534 0.13 1
  371.2767 0.10 1
  372.1669 0.02 0
  372.3193 0.10 1
  373.1094 0.12 1
  375.1075 0.13 1
  375.2730 0.02 0
  376.3978 0.10 1
  376.9969 0.10 1
  377.2107 0.17 2
  379.0569 0.11 1
  379.2849 0.02 0
  381.0123 0.09 1
  381.2906 0.15 1
  383.1243 0.10 1
  385.1985 0.08 1
  386.1766 0.19 2
  386.4044 0.10 1
  387.2643 0.10 1
  387.9478 0.01 0
  388.1404 0.09 1
  388.2870 0.06 1
  389.1212 0.10 1
  389.3250 0.12 1
  390.0910 0.12 1
  391.0641 0.08 1
  391.1986 0.07 1
  391.3513 0.17 2
  392.2191 0.09 1
  393.4116 0.04 0
  394.5361 0.07 1
  395.2326 0.09 1
  396.0066 0.12 1
  397.2492 0.18 2
  397.4865 0.09 1
  398.6783 0.11 1
  399.0504 0.11 1
  399.3260 0.05 0
  400.0775 0.06 1
  401.1199 0.13 1
  401.3131 0.16 2
  402.0950 0.10 1
  403.1790 0.09 1
  404.0106 0.13 1
  404.2170 0.17 2
  404.8433 0.01 0
  405.1545 0.11 1
  406.2321 0.11 1
  407.3280 0.01 0
  408.1219 0.06 1
  409.2657 0.18 2
  409.3755 0.10 1
  410.1566 0.17 2
  410.5195 0.10 1
  411.1787 0.17 2
  411.3995 0.10 1
  411.9298 0.10 1
  412.8586 0.09 1
  413.1994 0.04 0
  414.2725 0.11 1
  415.0472 0.10 1
  415.2611 0.19 2
  415.3963 0.10 1
  415.5537 0.04 0
  416.0743 0.12 1
  416.2620 0.13 1
  417.0885 0.07 1
  417.2136 0.10 1
  417.3689 0.10 1
  418.4600 0.03 0
  419.0974 0.09 1
  419.2638 0.19 2
  419.4373 0.07 1
  419.5724 0.13 1
  420.1494 0.07 1
  421.1532 0.09 1
  423.2371 0.10 1
  424.1637 0.05 0
  424.3656 0.15 1
  425.2368 0.16 2
  425.5054 0.02 0
  426.2546 0.03 0
  426.5222 0.11 1
  427.3756 0.04 0
  428.1938 0.11 1
  429.3555 0.11 1
  430.1608 0.11 1
  431.2704 0.19 2
  432.1760 0.15 1
  432.3822 0.11 1
  433.1474 0.20 2
  433.4345 0.11 1
  434.3172 0.15 1
  435.1323 0.15 1
  437.3787 0.11 1
  438.6638 0.14 1
  439.2469 0.16 2
  440.2545 0.18 2
  441.1429 0.12 1
  441.3087 0.09 1
  442.2064 0.04 0
  443.4076 0.26 3
  444.0912 0.08 1
  444.2510 0.23 2
  445.1865 0.11 1
  445.3777 0.12 1
  446.0554 0.08 1
  446.2173 0.08 1
  447.3352 0.09 1
  447.7419 0.03 0
  448.2884 0.09 1
  450.1698 0.15 1
  451.2742 0.09 1
  453.3853 0.11 1
  454.1823 0.11 1
  456.3592 0.24 2
  458.2823 0.09 1
  459.2390 0.07 1
  460.3438 0.11 1
  460.9531 0.19 2
  461.1153 0.09 1
  461.9629 0.08 1
  462.3644 0.15 1
  463.0803 0.11 1
  463.1989 0.08 1
  464.0802 0.18 2
  464.2273 0.23 2
  464.4575 0.09 1
  465.2223 0.09 1
  465.4454 0.10 1
  466.2732 0.10 1
  467.3639 0.10 1
  470.1111 0.11 1
  471.2713 0.09 1
  472.2257 0.10 1
  474.0017 0.09 1
  474.1375 0.09 1
  475.1669 0.09 1
  476.1925 0.11 1
  476.8462 0.09 1
  477.2881 0.09 1
  478.0909 0.09 1
  478.3585 0.11 1
  478.7610 0.11 1
  479.2852 0.16 2
  480.0983 0.10 1
  480.7260 0.10 1
  481.2634 0.10 1
  481.4521 0.10 1
  483.2960 0.22 2
  483.5354 0.06 1
  483.7900 0.07 1
  484.4271 0.11 1
  485.1849 0.18 2
  485.4508 0.12 1
  487.2925 0.10 1
  489.9032 0.09 1
  490.4738 0.15 1
  492.0476 0.10 1
  492.2497 0.10 1
  493.3901 0.07 1
  493.5565 0.05 0
  494.3607 0.23 2
  495.3060 0.25 2
  496.0343 0.21 2
  496.2788 0.24 2
  496.4513 0.14 1
  497.3237 0.25 2
  497.6677 0.10 1
  498.2014 0.13 1
  498.4520 0.16 2
  499.2283 0.10 1
  499.3917 0.10 1
  499.5013 0.08 1
  500.0695 0.09 1
  500.1751 0.04 0
  500.4562 0.10 1
  501.3159 0.11 1
  502.3757 0.08 1
  503.1035 0.22 2
  503.3442 0.10 1
  503.9797 0.10 1
  505.3211 0.09 1
  505.8888 0.08 1
  506.2747 0.12 1
  507.1004 0.12 1
  507.9648 0.08 1
  508.3102 0.09 1
  508.6525 0.10 1
  509.2427 0.03 0
  509.5424 0.12 1
  510.4010 0.12 1
  511.2697 0.11 1
  511.4628 0.12 1
  512.3276 0.12 1
  513.0675 0.06 1
  513.2952 0.06 1
  514.0443 0.05 0
  516.1821 0.10 1
  518.0530 0.09 1
  519.2388 0.15 1
  520.3332 0.05 0
  521.1063 0.01 0
  521.3942 0.13 1
  522.1622 0.09 1
  523.3963 0.17 2
  524.2245 0.03 0
  525.0712 0.06 1
  525.2748 0.08 1
  526.0299 0.18 2
  526.1734 0.12 1
  526.3994 0.03 0
  526.8523 0.10 1
  527.0681 0.09 1
  527.4091 0.06 1
  528.0676 0.02 0
  528.6387 0.11 1
  528.8953 0.09 1
  530.8053 0.10 1
  531.3378 0.06 1
  531.7289 0.06 1
  533.0436 0.13 1
  533.2280 0.06 1
  534.3606 0.09 1
  535.3986 0.12 1
  537.3539 0.08 1
  539.3202 0.25 2
  539.5604 0.24 2
  542.2948 0.12 1
  543.3395 0.09 1
  544.2875 0.16 2
  545.3751 0.08 1
  546.0738 0.11 1
  546.5637 0.10 1
  547.3470 0.11 1
  548.0580 0.11 1
  549.4812 0.21 2
  549.9692 0.10 1
  550.2239 0.05 0
  550.5500 0.12 1
  551.0676 0.09 1
  552.1386 0.10 1
  552.5901 0.10 1
  553.3565 0.09 1
  554.0975 0.09 1
  554.3044 0.09 1
  555.1841 0.07 1
  555.4073 0.12 1
  556.1902 0.18 2
  556.4471 0.15 1
  557.1077 0.09 1
  557.8469 0.09 1
  558.0774 0.09 1
  558.4618 0.12 1
  559.2990 0.12 1
  561.1418 0.04 0
  562.1780 0.11 1
  564.1468 0.12 1
  564.8191 0.11 1
  565.2425 0.15 1
  566.6026 0.11 1
  567.2495 0.17 2
  567.8629 0.01 0
  568.5547 0.09 1
  569.3978 0.09 1
  571.2430 0.11 1
  572.2326 0.14 1
  572.7534 0.01 0
  573.2110 0.10 1
  573.4882 0.11 1
  575.5931 0.02 0
  576.1507 0.11 1
  576.5045 0.10 1
  579.1635 0.14 1
  579.3950 0.05 0
  580.1649 0.20 2
  580.4392 0.17 2
  580.9889 0.11 1
  581.5886 0.03 0
  582.1465 0.08 1
  582.3943 0.13 1
  582.5698 0.12 1
  582.9604 0.09 1
  583.1960 0.12 1
  584.1213 0.11 1
  584.2274 0.03 0
  584.7446 0.11 1
  585.1608 0.14 1
  586.3382 0.12 1
  588.0452 0.05 0
  588.5197 0.14 1
  591.2048 0.09 1
  591.3600 0.10 1
  591.5754 0.05 0
  592.2725 0.13 1
  593.3618 0.10 1
  593.5731 0.07 1
  594.0988 0.14 1
  594.2673 0.09 1
  595.3801 0.09 1
  597.4243 0.18 2
  598.3925 0.12 1
  599.8887 0.03 0
  600.2012 0.28 3
  600.7180 0.04 0
  601.2349 0.05 0
  601.4330 0.10 1
  601.6023 0.13 1
  602.2891 0.15 1
  602.4552 0.11 1
  602.6234 0.13 1
  603.3173 0.19 2
  603.5303 0.03 0
  603.6791 0.10 1
  604.3965 0.17 2
  604.6462 0.10 1
  605.2435 0.10 1
  605.5850 0.21 2
  606.5033 0.11 1
  607.1822 0.06 1
  608.1455 0.24 2
  608.3392 0.09 1
  609.2150 0.04 0
  609.3873 0.10 1
  609.5494 0.13 1
  610.0377 0.09 1
  610.3467 0.10 1
  611.0441 0.09 1
  612.5553 0.08 1
  613.0417 0.11 1
  613.2508 0.02 0
  613.4670 0.06 1
  614.3828 0.10 1
  615.5313 0.14 1
  616.1759 0.13 1
  617.5092 0.07 1
  618.1335 0.11 1
  618.3998 0.45 4
  618.5620 0.14 1
  619.0568 0.06 1
  619.2853 0.12 1
  619.5342 0.23 2
  620.2015 0.11 1
  620.3577 0.15 1
  621.1474 0.09 1
  621.2994 0.10 1
  622.1454 0.15 1
  622.3127 0.09 1
  623.0128 0.07 1
  623.3189 0.10 1
  623.9741 0.12 1
  624.1446 0.05 0
  624.3079 0.27 3
  624.4855 0.11 1
  625.1601 0.07 1
  625.3693 0.14 1
  628.1826 0.01 0
  628.4674 0.09 1
  629.4669 0.10 1
  629.7701 0.12 1
  630.5553 0.08 1
  631.4375 0.09 1
  631.8735 0.09 1
  632.0226 0.12 1
  632.2360 0.05 0
  633.3848 0.18 2
  633.5952 0.09 1
  633.9731 0.12 1
  634.4183 0.10 1
  635.4131 0.10 1
  635.7390 0.10 1
  637.0259 0.13 1
  637.2834 0.12 1
  637.4478 0.11 1
  638.0669 0.09 1
  638.4040 0.22 2
  638.8402 0.04 0
  640.1734 0.14 1
  640.3880 0.09 1
  641.5211 0.06 1
  642.8893 0.10 1
  643.2336 0.23 2
  644.0849 0.09 1
  646.4284 0.06 1
  646.6400 0.11 1
  647.2113 0.13 1
  647.6243 0.16 2
  648.5105 0.13 1
  649.3253 0.10 1
  649.9938 0.11 1
  650.2791 0.13 1
  650.4222 0.06 1
  650.9221 0.05 0
  652.3372 0.13 1
  652.5069 0.03 0
  653.2563 0.10 1
  653.4435 0.12 1
  654.1102 0.11 1
  655.1462 0.09 1
  655.3055 0.11 1
  655.8108 0.04 0
  657.0337 0.08 1
  657.1736 0.15 1
  657.8903 0.06 1
  658.3047 0.27 3
  658.5477 0.20 2
  658.7815 0.04 0
  659.2634 0.10 1
  659.5167 0.17 2
  660.1905 0.06 1
  660.7501 0.12 1
  662.0693 0.13 1
  663.1937 0.13 1
  663.3326 0.08 1
  664.2456 0.08 1
  666.3517 0.10 1
  667.2383 0.11 1
  667.3823 0.10 1
  668.2935 0.10 1
  668.5346 0.09 1
  669.4111 0.11 1
  669.6481 0.04 0
  670.2764 0.12 1
  670.5226 0.06 1
  671.1857 0.10 1
  671.4218 0.16 2
  672.1462 0.10 1
  672.5018 0.38 4
  672.7889 0.25 2
  673.2865 0.11 1
  673.5604 0.20 2
  673.7218 0.14 1
  674.3186 0.09 1
  674.5710 0.22 2
  675.5684 0.11 1
  676.1969 0.19 2
  677.3253 0.08 1
  677.5603 0.05 0
  677.7330 0.08 1
  678.0060 0.05 0
  678.4751 0.11 1
  679.2908 0.12 1
  679.4543 0.11 1
  680.2854 0.02 0
  680.5685 0.10 1
  682.2779 0.11 1
  682.4629 0.11 1
  683.5027 0.11 1
  683.7142 0.10 1
  684.2503 0.17 2
  684.9191 0.10 1
  685.3205 0.04 0
  685.6462 0.11 1
  686.3080 0.31 3
  686.6470 0.26 3
  687.0433 0.17 2
  687.4344 0.86 9
  687.8624 0.10 1
  688.0228 0.13 1
  688.1821 0.21 2
  688.4058 0.19 2
  688.6876 0.11 1
  689.2933 0.27 3
  689.5701 0.13 1
  689.7050 0.09 1
  690.0502 0.13 1
  690.2330 0.07 1
  691.2709 0.07 1
  691.6581 0.04 0
  692.3109 0.13 1
  693.3795 0.15 1
  694.8690 0.09 1
  695.0386 0.15 1
  695.9255 0.07 1
  696.2157 0.13 1
  696.4558 0.10 1
  698.4055 0.05 0
  698.8511 0.10 1
  699.1689 0.09 1
  699.3120 0.09 1
  701.2916 0.09 1
  701.4142 0.09 1
  701.6370 0.18 2
  702.4926 0.73 7
  703.3338 0.58 6
  703.4482 0.24 2
  703.6138 0.12 1
  703.7999 0.11 1
  704.0063 0.12 1
  704.3989 0.26 3
  704.7004 0.28 3
  705.3956 0.16 2
  705.7902 0.12 1
  706.1470 0.15 1
  708.2510 0.11 1
  708.3921 0.13 1
  708.5741 0.09 1
  709.2233 0.08 1
  709.5107 0.09 1
  709.7090 0.04 0
  710.0229 0.03 0
  710.1988 0.10 1
  710.3757 0.10 1
  710.8113 0.14 1
  711.2397 0.10 1
  712.3195 0.23 2
  712.6308 0.10 1
  713.2944 0.11 1
  713.8569 0.16 2
  714.3041 0.11 1
  714.5184 0.08 1
  715.6681 0.11 1
  716.3440 0.04 0
  716.5482 0.09 1
  716.9097 0.06 1
  717.1731 0.18 2
  717.3467 0.05 0
  718.1779 0.09 1
  718.4117 0.12 1
  719.5033 0.13 1
  720.1957 0.17 2
  720.3172 0.05 0
  721.3773 0.10 1
  722.4006 0.10 1
  723.0615 0.11 1
  724.2310 0.13 1
  724.5220 0.09 1
  724.6283 0.04 0
  725.7070 0.10 1
  726.6355 0.09 1
  728.0637 0.05 0
  728.3671 0.09 1
  728.6348 0.12 1
  729.0894 0.11 1
  730.1857 0.09 1
  730.6219 0.11 1
  730.8120 0.10 1
  731.2104 0.17 2
  731.3382 0.13 1
  731.5242 0.13 1
  732.4158 2.05 20
  732.6618 0.79 8
  733.0997 0.09 1
  733.3058 0.13 1
  734.0816 0.11 1
  734.5970 0.11 1
  735.4055 0.22 2
  737.8546 0.04 0
  738.2925 0.08 1
  738.4477 0.23 2
  738.5764 0.16 2
  739.8852 0.06 1
  740.1599 0.11 1
  740.3896 0.21 2
  740.4927 0.08 1
  740.7490 0.08 1
  742.3531 0.12 1
  744.0319 0.08 1
  745.5117 0.10 1
  745.8762 0.11 1
  746.4083 0.51 5
  746.6014 0.25 2
  746.7719 0.19 2
  746.9731 0.17 2
  747.3510 0.23 2
  747.5512 0.21 2
  748.0629 0.11 1
  748.3795 0.12 1
  748.6563 0.18 2
  748.9138 0.11 1
  749.1058 0.12 1
  749.5154 0.08 1
  749.7452 0.10 1
  750.1946 0.20 2
  750.4572 0.17 2
  750.6369 0.15 1
  750.8116 0.16 2
  751.2049 0.13 1
  751.4919 0.13 1
  751.7289 0.16 2
  752.0221 0.22 2
  752.2009 0.21 2
  752.3705 0.23 2
  752.5237 0.19 2
  752.9303 0.07 1
  753.3461 0.16 2
  753.5739 0.25 2
  753.7292 0.13 1
  754.0602 0.20 2
  754.3483 0.23 2
  754.9960 0.13 1
  755.2331 0.03 0
  755.6509 0.15 1
  756.1240 0.23 2
  756.6993 0.17 2
  756.9250 0.05 0
  757.2336 0.09 1
  757.4973 0.23 2
  757.6281 0.09 1
  758.4282 0.16 2
  758.5876 0.04 0
  758.7499 0.01 0
  760.0350 0.19 2
  760.3422 0.22 2
  760.5882 0.18 2
  760.7056 0.12 1
  760.9843 0.12 1
  761.5855 0.04 0
  761.8876 0.09 1
  762.3746 0.14 1
  762.6379 0.12 1
  763.5016 0.11 1
  763.9058 0.08 1
  764.3989 0.23 2
  764.5184 0.11 1
  764.6920 0.08 1
  765.0799 0.12 1
  765.3341 0.20 2
  766.2254 0.28 3
  766.4357 0.23 2
  766.6093 0.12 1
  766.8819 0.09 1
  767.9989 0.13 1
  768.1418 0.10 1
  768.5330 0.11 1
  768.6462 0.08 1
  771.3574 0.11 1
  771.7271 0.11 1
  772.3633 0.09 1
  772.6339 0.12 1
  773.4407 0.15 1
  773.8687 0.07 1
  774.4866 1.26 13
  774.9471 0.10 1
  775.2321 0.06 1
  775.6161 0.11 1
  775.7469 0.08 1
  775.9042 0.13 1
  776.2086 0.23 2
  776.4221 0.12 1
  776.6039 0.10 1
  777.8204 0.11 1
  778.0625 0.13 1
  778.3812 0.11 1
  778.6907 0.08 1
  779.4456 0.08 1
  779.6346 0.05 0
  780.3813 0.38 4
  780.6868 0.10 1
  780.8993 0.20 2
  781.1680 0.09 1
  781.3130 0.11 1
  781.4959 0.32 3
  781.7002 0.13 1
  781.9393 0.09 1
  782.9160 0.11 1
  784.3044 0.08 1
  786.0159 0.04 0
  786.5503 0.01 0
  787.1736 0.24 2
  790.2853 0.12 1
  791.6773 0.11 1
  792.1372 0.12 1
  792.3048 0.28 3
  792.5215 0.10 1
  793.2042 0.06 1
  794.1180 0.29 3
  794.3868 0.26 3
  794.5912 0.29 3
  794.7292 0.13 1
  794.8938 0.28 3
  795.4212 0.31 3
  796.5303 0.10 1
  798.3018 0.13 1
  798.6688 0.07 1
  799.3987 0.10 1
  801.1276 0.09 1
  804.1857 0.21 2
  804.7317 0.24 2
  805.7992 0.05 0
  806.1500 0.09 1
  806.5130 0.21 2
  806.6868 0.11 1
  806.8760 0.35 3
  807.3934 0.05 0
  807.5540 0.17 2
  808.0898 0.10 1
  808.4447 0.31 3
  808.7229 0.18 2
  808.8610 0.15 1
  809.1320 0.11 1
  809.4152 0.06 1
  810.8049 0.10 1
  811.9583 0.10 1
  813.5034 0.09 1
  814.2897 0.13 1
  814.7466 0.05 0
  815.7339 0.12 1
  815.9930 0.13 1
  816.6152 0.12 1
  817.2323 0.07 1
  818.3217 0.18 2
  819.0806 0.10 1
  820.3139 0.19 2
  820.5251 0.28 3
  821.5738 0.12 1
  821.7819 0.09 1
  822.3114 0.25 2
  822.6399 0.29 3
  822.9949 0.11 1
  823.2928 0.16 2
  824.5100 0.20 2
  825.1467 0.08 1
  828.9813 0.09 1
  829.4634 0.11 1
  829.6143 0.21 2
  829.8997 0.11 1
  830.7162 0.07 1
  831.6888 0.19 2
  831.9070 0.11 1
  832.3677 0.25 2
  832.6114 0.16 2
  832.8652 0.19 2
  833.1569 0.13 1
  833.4382 0.20 2
  834.1468 0.41 4
  834.4608 0.32 3
  834.6830 0.39 4
  834.9838 0.27 3
  835.2836 0.30 3
  835.6373 0.31 3
  836.1563 0.37 4
  836.5580 0.56 6
  836.8099 0.11 1
  836.9333 0.12 1
  837.1260 0.19 2
  837.5032 0.23 2
  837.8071 0.13 1
  837.9906 0.16 2
  838.2486 0.28 3
  838.5494 0.31 3
  838.7319 0.35 3
  839.0929 0.27 3
  839.4712 0.22 2
  839.9362 0.07 1
  840.1299 0.24 2
  840.2411 0.13 1
  840.4716 0.15 1
  840.6979 0.10 1
  840.9263 0.21 2
  841.1527 0.11 1
  841.5402 0.32 3
  842.2266 0.28 3
  842.5988 0.22 2
  842.9006 0.16 2
  843.0598 0.11 1
  843.4249 0.16 2
  843.7563 0.17 2
  844.2193 0.27 3
  844.3172 0.13 1
  844.7507 0.25 2
  845.0556 0.11 1
  845.3035 0.29 3
  845.5105 0.28 3
  845.7032 0.19 2
  846.3009 0.53 5
  846.6202 0.32 3
  847.1485 0.26 3
  847.4932 0.10 1
  847.6768 0.16 2
  848.5275 2.01 20
  848.8702 1.07 11
  849.2477 0.69 7
  849.5261 0.32 3
  849.7648 0.36 4
  849.9127 0.18 2
  850.2667 0.45 4
  850.4809 0.30 3
  850.7339 0.41 4
  851.5632 1.35 13
  851.7979 0.61 6
  851.9550 0.41 4
  852.4242 0.37 4
  852.7078 0.26 3
  853.0546 0.11 1
  853.3821 0.29 3
  853.5698 0.13 1
  853.7473 0.06 1
  854.1166 0.08 1
  854.3339 0.20 2
  854.5706 0.31 3
  854.8705 0.27 3
  855.2970 0.20 2
  855.5521 0.18 2
  855.7225 0.11 1
  856.3264 0.14 1
  856.6611 0.24 2
  856.9814 0.23 2
  857.1314 0.30 3
  857.3039 0.15 1
  857.6722 0.21 2
  857.8232 0.35 3
  857.9497 0.21 2
  858.2977 0.37 4
  858.4435 0.26 3
  858.6456 0.13 1
  858.8262 0.38 4
  859.2527 0.63 6
  859.4863 0.37 4
  859.7547 0.29 3
  860.2485 0.61 6
  861.3384 0.78 8
  861.7874 1.31 13
  862.1751 1.36 14
  866.4878 99.97 999
  867.3083 7.92 79
  868.1585 3.90 39
  869.2639 2.03 20
  869.9253 1.55 15
  870.6571 1.18 12
  871.4155 0.81 8
  871.7023 0.70 7
  872.0566 0.70 7
  872.4639 0.61 6
  872.6588 0.52 5
  872.7548 0.25 2
  873.0590 0.25 2
  873.3141 0.32 3
  873.4877 0.16 2
  873.7266 0.19 2
  873.9164 0.14 1
//
