ACCESSION: MSBNK-Kyoto_Univ-CA000100
RECORD_TITLE: Rubixanthin; FAB-EBEB; MS2; m/z: 552.43; [M]+*
DATE: 2016.01.19 (Created 2010.04.01, modified 2011.05.10)
AUTHORS: Akimoto N, Graduate School of Pharmaceutical Sciences, Kyoto University and Maoka T, Research Institute for Production Development
LICENSE: CC BY-SA
PUBLICATION: Takashi Maoka, Sterically Hindered Carotenoids with 3Z, 5Z Configuration  from the Seeds of Oriental Bitter Sweet, Celastrus orbiculatus, Phytochemistry, 70, 920-923 (2009).
COMMENT: Profile spectrum of this record is given as a JPEG file.
COMMENT: [Profile] CA000100.jpg
CH$NAME: Rubixanthin
CH$COMPOUND_CLASS: N/A
CH$FORMULA: C40H56O
CH$EXACT_MASS: 552.43312
CH$SMILES: C(=CC=C(C)C=CC(=C(C)1)C(C)(C)CC(C1)O)C(=CC=CC=C(C=CC=C(C)C=CC=C(CCC=C(C)C)C)C)C
CH$IUPAC: InChI=1S/C40H56O/c1-31(2)17-13-20-34(5)23-15-25-35(6)24-14-21-32(3)18-11-12-19-33(4)22-16-26-36(7)27-28-39-37(8)29-38(41)30-40(39,9)10/h11-12,14-19,21-28,38,41H,13,20,29-30H2,1-10H3/b12-11+,21-14+,22-16+,25-15+,28-27+,32-18+,33-19+,34-23+,35-24+,36-26+/t38-/m1/s1
CH$LINK: CAS 3763-55-1
CH$LINK: CHEBI CHEBI:8907
CH$LINK: KEGG C08611
CH$LINK: LIPIDBANK VCA1046
CH$LINK: PUBCHEM CID:5281252
CH$LINK: INCHIKEY ABTRFGSPYXCGMR-AXXBKCDFSA-N
AC$INSTRUMENT: JMS-HX/HX 110A, JEOL
AC$INSTRUMENT_TYPE: FAB-EBEB
AC$MASS_SPECTROMETRY: MS_TYPE MS2
AC$MASS_SPECTROMETRY: ION_MODE POSITIVE
AC$MASS_SPECTROMETRY: ATOM_GUN_CURRENT 5 mA
AC$MASS_SPECTROMETRY: BOMBARDMENT 6 kV xenon
AC$MASS_SPECTROMETRY: COLLISION_ENERGY 3 kV
AC$MASS_SPECTROMETRY: COLLISION_GAS Ar
AC$MASS_SPECTROMETRY: GAS_PRESSURE adjust to attenuate the intensity of the precursor ion by 30 %
AC$MASS_SPECTROMETRY: IONIZATION FAB
AC$MASS_SPECTROMETRY: MATRIX 1-2 uL m-NBA
AC$MASS_SPECTROMETRY: PROBE_TIP stainless-steel
MS$FOCUSED_ION: BASE_PEAK 104.9538
MS$FOCUSED_ION: PRECURSOR_M/Z 552.43
MS$FOCUSED_ION: PRECURSOR_TYPE [M]+*
MS$DATA_PROCESSING: RELATIVE_M/Z normalised by peak(m/z=104.9538).  set 999 for peak(m/z=552.3463,rel=2922).  set 999 for peak(m/z=552.9722,rel=1057).
PK$SPLASH: splash10-0udi-3920130000-4b928b932dc2050600f8
PK$NUM_PEAK: 1830
PK$PEAK: m/z int. rel.int.
  0.8618 0.01 0
  1.2349 0.01 0
  1.6908 0.01 0
  2.7648 0.01 0
  6.1761 0.01 0
  6.8525 0.01 0
  8.0504 0.01 0
  12.0968 0.01 0
  12.9640 0.03 1
  13.9792 0.02 1
  14.9741 0.12 4
  15.2841 0.01 0
  15.7124 0.02 1
  18.8279 0.01 0
  22.9259 0.07 2
  24.9152 0.03 1
  25.5501 0.01 0
  25.9490 0.29 8
  26.9536 2.81 82
  27.7079 0.01 0
  27.9654 0.28 8
  28.9639 1.96 57
  29.9547 0.02 1
  30.9418 0.17 5
  34.9248 0.06 2
  35.9361 0.01 0
  36.7746 0.02 1
  36.9119 0.37 11
  37.2800 0.07 2
  37.6332 0.02 1
  37.9321 0.71 21
  38.9387 5.04 147
  39.4948 0.04 1
  39.8226 0.11 3
  39.9384 0.76 22
  40.9537 12.35 361
  41.8985 0.22 6
  41.9708 0.44 13
  42.9533 5.75 168
  43.3751 0.01 0
  43.9232 0.18 5
  44.9437 0.25 7
  48.0757 0.06 2
  48.8240 0.02 1
  48.9720 0.21 6
  49.3953 0.08 2
  49.9213 1.35 39
  50.9355 3.48 102
  51.4742 0.09 3
  51.9384 1.30 38
  52.9403 5.70 167
  53.4001 0.01 0
  53.9450 0.38 11
  54.7499 0.04 1
  54.9540 15.00 438
  55.4709 0.08 2
  55.9701 0.47 14
  56.2959 0.02 1
  56.9645 4.47 131
  57.1672 0.08 2
  57.5062 0.01 0
  57.9237 0.06 2
  58.9571 0.85 25
  59.2054 0.01 0
  59.9617 0.02 1
  60.1672 0.06 2
  60.9272 0.18 5
  61.3311 0.01 0
  61.9349 0.83 24
  62.4578 0.01 0
  62.6614 0.05 1
  62.9320 3.80 111
  63.0825 0.11 3
  63.2655 0.02 1
  63.4730 0.11 3
  63.5479 0.05 1
  63.7115 0.02 1
  63.9412 0.73 21
  64.1381 0.05 1
  64.9433 4.97 145
  65.2361 0.10 3
  65.4929 0.02 1
  65.9530 1.11 32
  66.3431 0.01 0
  66.4677 0.06 2
  66.9419 7.80 228
  67.2025 0.05 1
  67.3167 0.03 1
  67.9404 0.20 6
  68.9544 19.47 569
  69.4042 0.07 2
  69.9601 0.30 9
  70.0570 0.08 2
  70.3603 0.14 4
  70.9290 1.06 31
  71.2501 0.01 0
  71.9344 0.05 1
  72.3702 0.01 0
  72.7823 0.03 1
  72.8718 0.06 2
  73.2401 0.04 1
  73.9113 1.02 30
  74.2703 0.02 1
  74.8945 1.01 30
  75.1805 0.19 6
  75.3842 0.14 4
  75.5503 0.04 1
  75.9295 0.77 23
  76.1031 0.12 4
  76.2036 0.06 2
  76.4735 0.13 4
  76.6219 0.11 3
  76.9255 14.44 422
  77.1631 0.31 9
  77.2550 0.13 4
  77.3535 0.11 3
  77.4683 0.12 4
  77.6411 0.10 3
  77.9305 2.86 84
  78.0963 0.11 3
  78.2861 0.13 4
  78.4515 0.02 1
  78.5504 0.06 2
  78.9347 13.86 405
  79.2386 0.06 2
  79.9293 1.85 54
  80.6528 0.08 2
  80.9430 14.86 434
  81.2583 0.05 1
  81.4200 0.09 3
  81.5000 0.01 0
  81.8417 0.19 6
  81.9658 0.30 9
  82.4525 0.10 3
  82.9427 4.04 118
  83.9369 0.13 4
  84.1213 0.05 1
  84.5357 0.03 1
  84.9387 3.65 107
  85.2527 0.01 0
  85.9340 0.37 11
  86.7431 0.04 1
  86.9494 0.53 15
  87.9026 0.25 7
  88.4752 0.08 2
  88.9251 2.09 61
  89.1813 0.26 8
  89.2686 0.12 4
  89.3589 0.03 1
  89.4899 0.17 5
  89.5946 0.04 1
  89.7148 0.12 4
  89.9294 0.66 19
  90.1136 0.22 6
  90.3238 0.24 7
  90.4650 0.29 8
  90.6459 0.20 6
  90.9360 29.34 858
  91.2586 0.04 1
  91.3867 0.16 5
  91.9402 3.14 92
  92.1444 0.08 2
  92.2433 0.07 2
  92.5309 0.05 1
  92.9467 17.14 501
  93.3443 0.24 7
  93.9643 1.32 39
  94.3701 0.08 2
  94.9618 14.83 433
  95.1753 0.13 4
  95.3365 0.02 1
  95.4733 0.16 5
  95.5554 0.04 1
  95.9719 0.56 16
  96.9660 1.27 37
  97.9240 0.31 9
  98.9249 0.28 8
  99.0498 0.08 2
  99.4182 0.01 0
  99.5954 0.04 1
  99.9389 0.07 2
  100.0400 0.01 0
  100.5778 0.03 1
  100.8384 0.20 6
  100.9896 0.49 14
  101.1957 0.17 5
  101.3906 0.14 4
  101.5485 0.07 2
  101.9428 1.11 32
  102.1155 0.19 6
  102.2536 0.04 1
  102.4028 0.16 5
  102.9513 4.68 137
  103.1770 0.15 4
  103.4110 0.12 4
  103.6062 0.06 2
  103.9369 1.99 58
  104.2251 0.14 4
  104.4016 0.15 4
  104.5621 0.16 5
  104.9538 34.18 999
  105.5635 0.08 2
  105.9658 4.00 117
  106.2981 0.11 3
  106.4860 0.08 2
  106.9639 16.42 480
  107.2612 0.15 4
  107.4375 0.16 5
  107.9483 0.93 27
  108.2574 0.11 3
  108.3894 0.05 1
  108.4947 0.02 1
  108.6916 0.06 2
  108.9736 6.97 204
  109.3023 0.03 1
  109.4226 0.07 2
  109.7336 0.01 0
  109.8940 0.33 10
  110.0031 0.18 5
  110.9565 0.83 24
  111.3460 0.02 1
  111.6149 0.09 3
  111.8917 0.31 9
  112.2698 0.05 1
  112.5271 0.01 0
  112.6738 0.09 3
  112.8756 0.47 14
  113.0200 0.36 11
  113.1374 0.16 5
  113.2147 0.11 3
  113.3268 0.14 4
  113.4262 0.17 5
  113.6247 0.12 4
  113.9360 0.65 19
  114.2204 0.10 3
  114.4707 0.26 8
  114.6088 0.22 6
  114.9319 13.07 382
  115.2456 0.27 8
  115.4175 0.16 5
  115.5432 0.06 2
  115.9317 5.30 155
  116.3073 0.32 9
  116.4494 0.30 9
  116.9355 12.32 360
  117.3230 0.13 4
  117.4942 0.17 5
  117.9346 2.48 72
  118.5316 0.10 3
  118.9321 29.95 875
  119.2917 0.23 7
  119.5191 0.11 3
  119.9443 4.38 128
  120.1961 0.12 4
  120.3154 0.12 4
  120.4407 0.03 1
  120.9416 11.86 347
  121.2853 0.10 3
  121.4756 0.15 4
  121.7025 0.03 1
  121.9512 0.88 26
  122.2886 0.11 3
  122.3809 0.03 1
  122.5157 0.08 2
  122.9487 3.21 94
  123.4848 0.05 1
  123.6879 0.04 1
  123.8594 0.07 2
  123.9762 0.27 8
  124.5994 0.02 1
  124.8984 0.63 18
  125.2164 0.22 6
  125.2755 0.12 4
  125.3675 0.03 1
  125.9235 0.82 24
  126.1291 0.03 1
  126.3829 0.09 3
  126.9133 4.40 129
  127.1143 0.38 11
  127.2835 0.14 4
  127.3977 0.24 7
  127.5596 0.40 12
  127.9148 15.00 438
  128.2780 0.41 12
  128.5068 0.39 11
  128.9113 17.92 524
  129.3956 0.09 3
  129.5524 0.15 4
  129.9213 7.58 222
  130.3155 0.19 6
  130.5000 0.09 3
  130.9184 16.28 476
  131.2123 0.27 8
  131.4051 0.08 2
  131.6145 0.09 3
  131.9216 3.34 98
  132.2748 0.15 4
  132.3560 0.05 1
  132.5244 0.20 6
  132.9290 15.71 459
  133.1615 0.25 7
  133.3682 0.11 3
  133.4451 0.04 1
  133.5891 0.06 2
  133.8981 1.47 43
  134.1896 0.04 1
  134.4413 0.05 1
  134.5628 0.05 1
  134.9257 4.09 120
  135.4159 0.05 1
  135.5228 0.14 4
  135.6346 0.04 1
  135.9194 0.48 14
  136.2142 0.01 0
  136.4009 0.04 1
  136.9464 1.96 57
  137.1833 0.06 2
  137.5188 0.01 0
  137.9348 0.48 14
  138.0717 0.16 5
  138.5283 0.21 6
  138.9224 1.68 49
  139.3422 0.08 2
  139.4625 0.08 2
  139.6033 0.05 1
  139.9073 0.95 28
  140.0408 0.40 12
  140.1233 0.24 7
  140.2431 0.38 11
  140.3884 0.32 9
  140.5461 0.28 8
  140.9243 12.57 367
  141.3052 0.27 8
  141.3903 0.13 4
  141.5930 0.03 1
  141.9162 10.13 296
  142.1793 0.15 4
  142.2695 0.03 1
  142.4823 0.23 7
  142.9241 19.24 562
  143.2596 0.15 4
  143.5542 0.26 8
  143.9279 6.15 180
  144.2414 0.11 3
  144.9428 21.46 627
  145.2297 0.19 6
  145.5011 0.30 9
  145.9592 2.02 59
  146.1952 0.13 4
  146.4406 0.26 8
  146.5281 0.09 3
  146.6492 0.13 4
  146.9616 6.63 194
  147.1941 0.25 7
  147.3310 0.18 5
  147.5216 0.02 1
  147.9275 0.66 19
  148.1082 0.21 6
  148.3791 0.14 4
  148.5362 0.21 6
  148.9618 2.05 60
  149.2623 0.13 4
  149.4633 0.10 3
  149.5848 0.03 1
  149.7590 0.14 4
  150.0002 0.44 13
  150.1832 0.19 6
  150.3123 0.15 4
  150.5310 0.19 6
  150.9330 1.74 51
  151.3294 0.19 6
  151.9299 4.87 142
  152.2319 0.29 8
  152.9327 7.86 230
  153.4449 0.23 7
  153.5517 0.16 5
  153.9427 2.94 86
  154.3742 0.18 5
  154.5446 0.30 9
  154.9586 13.36 390
  155.2929 0.15 4
  155.4584 0.11 3
  155.9698 8.88 260
  156.2305 0.17 5
  156.3547 0.18 5
  156.4296 0.09 3
  156.9811 18.79 549
  157.2446 0.21 6
  157.5429 0.29 8
  157.9825 4.51 132
  158.4501 0.08 2
  158.9905 10.39 304
  159.3315 0.27 8
  159.4521 0.20 6
  159.9898 1.63 48
  160.2969 0.12 4
  160.4423 0.08 2
  160.5928 0.14 4
  161.0076 3.13 91
  161.2954 0.07 2
  161.3877 0.04 1
  161.4649 0.03 1
  161.5940 0.04 1
  162.0148 0.73 21
  162.3421 0.14 4
  162.4839 0.12 4
  162.9968 1.24 36
  163.3440 0.15 4
  163.5391 0.17 5
  163.9872 1.09 32
  164.1425 0.30 9
  164.2946 0.06 2
  164.9897 10.59 310
  165.4326 0.32 9
  165.9854 3.14 92
  166.3938 0.14 4
  166.9994 9.65 282
  167.2868 0.18 5
  167.3913 0.06 2
  167.5236 0.07 2
  167.9859 3.45 101
  168.4205 0.26 8
  168.5929 0.16 5
  168.9973 11.58 338
  169.3092 0.20 6
  169.4969 0.16 5
  170.0169 4.62 135
  170.3138 0.21 6
  170.4287 0.10 3
  171.0125 8.80 257
  171.4887 0.11 3
  172.0031 2.21 65
  172.3227 0.02 1
  172.4847 0.10 3
  172.6411 0.21 6
  173.0237 6.50 190
  173.5380 0.09 3
  173.8083 0.21 6
  174.0691 0.83 24
  174.3642 0.19 6
  174.5303 0.10 3
  174.6372 0.22 6
  175.0331 4.68 137
  175.4545 0.26 8
  175.9436 1.04 30
  176.2378 0.06 2
  176.4098 0.10 3
  177.0305 2.06 60
  177.4295 0.26 8
  177.9722 5.21 152
  178.2847 0.04 1
  178.4276 0.09 3
  178.5871 0.15 4
  178.9909 8.16 238
  179.3886 0.15 4
  179.5756 0.18 5
  179.9823 3.93 115
  180.1937 0.39 11
  180.3169 0.05 1
  180.5482 0.11 3
  180.9839 9.91 290
  181.5456 0.17 5
  182.0033 3.86 113
  182.2866 0.17 5
  182.4176 0.13 4
  182.5699 0.43 13
  182.9965 10.31 301
  183.4937 0.29 8
  183.6031 0.17 5
  183.9999 2.31 68
  184.4577 0.22 6
  184.5537 0.15 4
  185.0046 5.51 161
  185.3876 0.25 7
  185.9816 1.16 34
  186.3431 0.11 3
  186.5040 0.11 3
  186.5989 0.05 1
  187.0233 2.54 74
  187.3953 0.07 2
  187.5736 0.20 6
  188.0394 0.73 21
  188.5554 0.15 4
  188.7248 0.37 11
  189.0111 3.19 93
  189.4086 0.19 6
  189.9756 1.25 37
  190.1786 0.35 10
  190.3964 0.10 3
  190.9651 3.46 101
  191.3527 0.09 3
  191.5642 0.14 4
  191.6799 0.40 12
  191.9912 3.38 99
  192.3037 0.15 4
  192.9766 6.24 182
  193.2964 0.07 2
  193.4862 0.16 5
  193.9857 2.91 85
  194.4306 0.08 2
  194.9935 8.98 262
  195.3194 0.16 5
  195.4457 0.24 7
  196.0031 2.82 82
  196.4922 0.17 5
  197.0093 7.04 206
  197.3994 0.30 9
  197.5710 0.09 3
  198.0425 1.36 40
  198.2709 0.21 6
  198.5109 0.14 4
  199.0098 2.73 80
  199.3610 0.19 6
  200.0305 1.16 34
  200.1913 0.20 6
  200.2979 0.14 4
  200.5272 0.16 5
  201.0246 1.91 56
  201.4569 0.05 1
  201.5532 0.09 3
  201.9811 2.06 60
  202.4039 0.06 2
  202.6231 0.22 6
  202.9956 3.44 101
  203.3578 0.14 4
  203.4943 0.11 3
  203.9989 1.34 39
  204.2202 0.16 5
  204.3302 0.27 8
  204.4765 0.18 5
  204.9781 3.62 106
  205.2312 0.09 3
  205.4391 0.10 3
  205.5744 0.09 3
  205.9915 2.40 70
  206.2765 0.14 4
  206.4876 0.05 1
  207.0027 4.98 146
  207.4045 0.10 3
  207.5581 0.18 5
  208.0086 2.72 79
  208.4002 0.26 8
  209.0150 5.73 167
  209.3815 0.18 5
  209.4788 0.10 3
  209.5955 0.13 4
  210.0251 1.45 42
  210.2697 0.11 3
  210.4534 0.20 6
  211.0181 3.43 100
  211.5504 0.18 5
  211.7530 0.22 6
  212.0128 0.77 23
  213.0282 1.26 37
  213.4330 0.18 5
  213.5727 0.13 4
  213.7332 0.19 6
  213.9932 0.69 20
  214.1440 0.33 10
  214.2559 0.15 4
  214.4314 0.38 11
  214.5822 0.12 4
  215.0088 2.64 77
  215.3067 0.09 3
  215.4602 0.06 2
  216.0060 1.10 32
  216.2903 0.10 3
  216.4926 0.12 4
  217.0354 3.21 94
  217.3641 0.10 3
  217.5666 0.15 4
  218.0334 1.50 44
  218.2802 0.11 3
  218.4203 0.18 5
  219.0306 3.34 98
  219.3641 0.07 2
  219.4964 0.13 4
  219.5681 0.06 2
  220.0261 1.78 52
  220.3364 0.20 6
  220.5273 0.02 1
  221.0547 3.82 112
  221.4707 0.12 4
  221.5751 0.21 6
  221.7518 0.14 4
  222.0590 1.35 39
  222.3179 0.22 6
  222.4386 0.10 3
  222.5515 0.12 4
  223.0721 3.82 112
  223.3599 0.05 1
  223.4937 0.18 5
  223.7723 0.15 4
  224.0726 1.37 40
  224.1862 0.48 14
  224.4577 0.11 3
  224.6073 0.11 3
  224.7633 0.10 3
  225.0976 1.90 56
  225.4124 0.15 4
  225.5391 0.06 2
  226.0604 1.11 32
  226.2557 0.10 3
  226.5045 0.12 4
  226.8335 0.30 9
  227.1294 0.98 29
  227.4899 0.07 2
  228.0245 1.19 35
  228.3746 0.08 2
  228.7091 0.24 7
  229.0600 1.68 49
  229.3744 0.12 4
  229.5701 0.14 4
  229.7476 0.10 3
  230.0757 0.89 26
  230.7466 0.25 7
  231.0514 2.57 75
  231.3739 0.10 3
  231.5384 0.08 2
  232.0529 1.32 39
  232.5969 0.07 2
  233.0469 2.88 84
  233.6205 0.15 4
  233.7845 0.25 7
  234.0680 1.16 34
  234.2981 0.17 5
  234.4713 0.13 4
  234.6379 0.15 4
  235.0739 2.95 86
  235.4171 0.33 10
  235.5341 0.19 6
  235.6230 0.12 4
  235.7407 0.07 2
  236.0801 0.95 28
  236.2848 0.23 7
  236.6144 0.26 8
  237.0755 1.72 50
  237.3045 0.26 8
  237.3876 0.14 4
  237.6938 0.07 2
  238.0484 0.60 18
  238.1911 0.21 6
  238.3436 0.04 1
  239.0629 2.32 68
  239.5152 0.11 3
  240.0325 0.49 14
  240.4392 0.15 4
  240.7221 0.17 5
  241.0824 1.28 37
  241.4741 0.11 3
  241.6877 0.16 5
  241.8194 0.09 3
  242.0002 0.59 17
  242.1503 0.50 15
  242.2663 0.20 6
  242.3875 0.15 4
  242.6713 0.11 3
  243.0816 1.72 50
  243.3353 0.13 4
  243.5398 0.14 4
  243.6513 0.08 2
  244.0735 1.23 36
  244.3771 0.05 1
  244.6532 0.16 5
  245.0815 1.95 57
  245.3367 0.15 4
  245.4417 0.01 0
  245.6968 0.15 4
  246.0649 1.06 31
  246.3608 0.10 3
  247.0703 2.29 67
  247.3341 0.15 4
  247.4713 0.07 2
  247.5711 0.09 3
  247.7431 0.16 5
  247.9433 0.26 8
  248.1232 0.69 20
  248.4154 0.09 3
  248.6643 0.09 3
  249.1089 1.76 51
  249.7211 0.18 5
  250.0883 0.46 13
  250.3347 0.17 5
  250.6054 0.17 5
  250.7283 0.12 4
  251.1311 1.32 39
  251.5405 0.08 2
  252.0577 0.63 18
  252.5030 0.12 4
  252.6936 0.10 3
  253.0694 1.31 38
  253.4768 0.12 4
  253.8441 0.11 3
  254.0893 0.63 18
  254.4002 0.10 3
  254.6631 0.15 4
  255.1036 1.53 45
  255.4027 0.14 4
  256.0945 0.82 24
  256.2616 0.14 4
  256.5602 0.05 1
  256.7483 0.09 3
  257.0811 1.18 34
  257.5430 0.11 3
  258.1108 0.56 16
  258.3609 0.23 7
  258.7301 0.10 3
  259.1046 1.66 49
  259.5535 0.30 9
  259.9393 0.41 12
  260.1211 0.56 16
  260.2501 0.42 12
  260.5938 0.07 2
  261.0779 1.71 50
  261.3565 0.10 3
  261.5600 0.07 2
  261.7089 0.04 1
  262.1601 0.66 19
  262.3248 0.16 5
  262.4559 0.08 2
  262.5660 0.07 2
  262.7518 0.16 5
  263.0892 1.11 32
  263.3086 0.20 6
  263.4358 0.11 3
  263.5742 0.10 3
  263.8049 0.07 2
  264.1147 0.68 20
  264.2900 0.20 6
  264.5616 0.12 4
  265.0693 1.08 32
  265.4141 0.14 4
  265.6172 0.20 6
  265.6983 0.11 3
  266.0756 0.42 12
  266.2114 0.29 8
  266.3480 0.18 5
  266.5056 0.16 5
  266.7873 0.42 12
  267.1474 1.54 45
  267.4568 0.11 3
  267.5796 0.24 7
  267.7676 0.17 5
  268.1094 0.79 23
  268.3404 0.12 4
  268.4941 0.10 3
  268.5846 0.14 4
  269.1033 1.17 34
  269.3925 0.08 2
  269.5956 0.12 4
  269.7110 0.07 2
  269.8672 0.19 6
  270.1276 0.53 15
  270.2910 0.16 5
  270.5119 0.09 3
  270.6035 0.12 4
  270.6807 0.07 2
  271.0387 0.94 27
  271.2912 0.06 2
  271.4383 0.09 3
  271.5656 0.01 0
  271.8894 0.25 7
  272.1110 0.46 13
  272.2719 0.25 7
  272.4698 0.03 1
  272.6657 0.10 3
  272.7646 0.03 1
  273.1248 1.30 38
  273.4118 0.17 5
  273.6117 0.02 1
  274.1324 0.37 11
  274.5488 0.16 5
  274.6735 0.03 1
  275.1236 1.11 32
  275.2966 0.31 9
  275.4590 0.08 2
  275.6517 0.10 3
  275.7573 0.06 2
  275.8418 0.06 2
  275.9461 0.17 5
  276.1132 0.67 20
  276.2782 0.24 7
  276.7068 0.07 2
  277.1096 1.03 30
  277.2377 0.39 11
  277.3684 0.10 3
  277.4583 0.13 4
  277.7542 0.14 4
  278.1036 0.52 15
  278.2562 0.08 2
  278.3539 0.08 2
  278.5587 0.05 1
  279.0496 0.64 19
  279.1956 0.41 12
  280.0738 0.42 12
  280.3904 0.14 4
  280.6527 0.07 2
  280.7400 0.05 1
  280.9826 0.50 15
  281.1954 0.87 25
  281.4922 0.09 3
  281.6575 0.17 5
  282.1078 0.62 18
  282.5931 0.11 3
  282.7776 0.11 3
  283.1367 0.97 28
  283.2637 0.32 9
  283.5686 0.13 4
  284.1401 0.57 17
  284.4504 0.11 3
  284.6237 0.07 2
  284.8083 0.09 3
  285.1570 0.93 27
  285.4177 0.10 3
  285.6820 0.08 2
  285.9431 0.03 1
  286.1314 0.39 11
  286.4613 0.11 3
  287.1118 0.63 18
  287.2664 0.46 13
  287.4820 0.04 1
  287.7213 0.06 2
  287.9402 0.22 6
  288.1822 0.28 8
  288.8363 0.07 2
  289.1279 0.88 26
  289.6075 0.12 4
  289.8436 0.10 3
  290.1268 0.45 13
  290.4933 0.04 1
  290.8082 0.13 4
  291.1331 0.63 18
  291.3713 0.15 4
  291.4898 0.07 2
  291.9359 0.45 13
  292.2132 0.28 8
  293.0591 0.54 16
  294.0290 0.39 11
  294.2012 0.42 12
  294.6422 0.06 2
  294.8561 0.16 5
  295.0554 0.53 15
  295.2164 0.44 13
  295.3846 0.23 7
  295.4919 0.05 1
  295.6707 0.15 4
  295.7774 0.08 2
  296.0788 0.23 7
  296.2530 0.04 1
  296.4239 0.05 1
  296.5995 0.11 3
  296.7339 0.12 4
  297.0864 0.42 12
  297.2978 0.18 5
  297.5615 0.04 1
  297.7616 0.09 3
  297.9565 0.12 4
  298.1241 0.31 9
  298.4535 0.04 1
  298.6775 0.19 6
  299.0871 0.41 12
  299.3370 0.12 4
  299.9549 0.07 2
  300.1345 0.30 9
  300.3294 0.18 5
  301.0893 0.50 15
  301.6006 0.05 1
  301.8513 0.16 5
  302.0715 0.31 9
  302.2824 0.12 4
  302.6751 0.11 3
  302.8940 0.25 7
  303.1600 0.71 21
  303.5574 0.10 3
  303.9383 0.07 2
  304.0756 0.20 6
  304.3072 0.26 8
  304.7385 0.18 5
  304.9190 0.20 6
  305.1719 0.55 16
  305.2933 0.17 5
  305.4964 0.08 2
  306.1655 0.29 8
  306.2704 0.16 5
  306.7975 0.04 1
  307.1301 0.49 14
  307.8219 0.05 1
  308.1234 0.30 9
  308.4063 0.08 2
  308.6746 0.04 1
  308.7988 0.13 4
  309.0505 0.16 5
  309.3082 0.13 4
  309.5753 0.08 2
  309.6762 0.08 2
  309.7865 0.02 1
  310.0648 0.49 14
  310.2728 0.23 7
  310.5405 0.16 5
  311.1657 0.36 11
  311.7072 0.04 1
  312.0594 0.40 12
  312.1365 0.14 4
  312.8238 0.02 1
  313.0511 0.36 11
  313.2359 0.22 6
  313.6653 0.18 5
  314.0096 0.21 6
  314.1719 0.16 5
  314.3328 0.13 4
  314.8381 0.17 5
  315.1379 0.48 14
  315.6646 0.11 3
  315.9266 0.15 4
  316.0822 0.23 7
  316.2359 0.29 8
  316.6629 0.03 1
  316.7859 0.08 2
  317.1172 0.50 15
  317.6234 0.03 1
  317.7685 0.25 7
  318.0279 0.30 9
  318.2082 0.12 4
  318.3153 0.15 4
  318.7691 0.10 3
  319.1198 0.42 12
  319.3281 0.29 8
  319.5190 0.14 4
  319.7227 0.05 1
  319.8338 0.03 1
  319.9782 0.25 7
  320.1307 0.47 14
  320.2325 0.23 7
  320.3230 0.14 4
  320.7044 0.14 4
  321.1803 0.52 15
  321.2975 0.21 6
  321.4286 0.13 4
  322.1150 0.56 16
  322.3134 0.26 8
  322.6184 0.04 1
  322.7263 0.04 1
  322.8568 0.11 3
  323.0878 0.44 13
  323.2130 0.29 8
  323.4960 0.13 4
  323.9356 0.21 6
  324.1720 0.06 2
  324.2666 0.10 3
  324.4964 0.04 1
  324.8048 0.09 3
  324.9493 0.11 3
  325.1332 0.31 9
  325.2697 0.03 1
  325.5409 0.16 5
  325.7501 0.04 1
  326.0039 0.10 3
  326.1351 0.13 4
  326.3817 0.14 4
  327.1593 0.45 13
  327.4372 0.11 3
  327.7504 0.10 3
  327.8917 0.11 3
  327.9963 0.16 5
  328.1947 0.24 7
  328.2966 0.07 2
  328.4976 0.16 5
  329.1752 0.47 14
  330.1959 0.42 12
  330.5654 0.20 6
  330.7046 0.06 2
  331.1114 0.31 9
  331.2939 0.32 9
  331.4138 0.09 3
  331.7754 0.12 4
  332.1344 0.52 15
  332.2230 0.23 7
  332.3841 0.13 4
  332.6559 0.01 0
  333.0556 0.41 12
  333.2068 0.75 22
  333.3300 0.42 12
  333.8683 0.14 4
  334.0708 0.43 13
  334.3027 0.38 11
  334.9044 0.09 3
  335.0210 0.08 2
  335.2395 0.32 9
  335.3915 0.14 4
  335.9006 0.10 3
  336.0519 0.24 7
  336.2358 0.21 6
  336.3618 0.07 2
  336.5231 0.02 1
  336.8070 0.11 3
  336.9164 0.09 3
  337.1403 0.55 16
  337.3416 0.05 1
  337.4590 0.06 2
  337.7709 0.07 2
  337.9463 0.16 5
  338.1836 0.32 9
  338.6063 0.08 2
  338.8590 0.10 3
  339.0963 0.22 6
  339.2497 0.27 8
  339.3924 0.08 2
  339.6918 0.08 2
  340.0045 0.32 9
  340.7435 0.09 3
  341.1463 0.33 10
  341.2898 0.25 7
  341.4919 0.10 3
  341.8767 0.10 3
  342.1329 0.24 7
  342.3958 0.11 3
  342.6046 0.09 3
  342.8414 0.02 1
  343.0315 0.10 3
  343.2157 0.35 10
  343.7395 0.11 3
  343.8882 0.02 1
  344.0978 0.13 4
  344.2139 0.13 4
  344.3293 0.13 4
  344.4054 0.05 1
  345.1922 0.54 16
  345.8817 0.17 5
  346.2061 0.55 16
  346.4137 0.13 4
  346.5912 0.14 4
  346.7388 0.07 2
  346.8623 0.10 3
  347.0452 0.19 6
  347.2462 0.34 10
  347.3897 0.10 3
  347.7262 0.07 2
  347.8851 0.08 2
  348.0767 0.23 7
  348.2570 0.25 7
  348.4446 0.06 2
  348.6416 0.08 2
  348.8105 0.03 1
  349.0396 0.13 4
  349.3160 0.63 18
  349.5852 0.15 4
  349.7782 0.05 1
  349.9338 0.19 6
  350.0620 0.07 2
  350.2544 0.36 11
  350.4735 0.07 2
  350.5596 0.03 1
  351.2416 0.42 12
  351.4294 0.15 4
  351.9310 0.08 2
  352.1649 0.15 4
  352.3640 0.14 4
  352.5477 0.04 1
  352.8971 0.06 2
  353.1891 0.13 4
  353.3354 0.11 3
  353.9776 0.15 4
  354.1794 0.12 4
  354.4608 0.11 3
  354.6051 0.06 2
  355.0305 0.09 3
  355.3116 0.14 4
  355.9346 0.11 3
  356.0652 0.13 4
  356.1672 0.03 1
  356.2905 0.06 2
  356.3958 0.08 2
  356.7436 0.12 4
  356.9915 0.19 6
  357.1115 0.10 3
  357.2514 0.53 15
  357.3514 0.24 7
  357.4487 0.12 4
  357.6173 0.03 1
  357.8559 0.20 6
  358.2112 0.34 10
  358.8178 0.03 1
  359.2451 0.54 16
  359.4211 0.25 7
  359.5204 0.11 3
  360.0424 0.16 5
  360.1438 0.10 3
  360.3351 0.51 15
  360.6339 0.03 1
  360.7772 0.12 4
  361.0779 0.24 7
  361.3007 0.36 11
  361.5434 0.12 4
  361.7855 0.13 4
  361.9082 0.10 3
  362.2123 0.52 15
  362.3977 0.19 6
  362.5544 0.03 1
  362.6538 0.06 2
  362.8205 0.20 6
  363.1233 0.35 10
  363.2881 0.26 8
  363.5515 0.01 0
  363.7150 0.10 3
  363.9791 0.21 6
  364.1626 0.13 4
  364.3847 0.10 3
  364.9304 0.07 2
  365.1052 0.10 3
  365.2300 0.11 3
  365.3641 0.06 2
  365.4902 0.06 2
  365.9346 0.13 4
  366.1141 0.18 5
  366.3042 0.10 3
  366.8381 0.05 1
  366.9608 0.29 8
  367.1411 0.29 8
  367.3299 0.11 3
  367.4981 0.10 3
  367.6483 0.07 2
  368.0126 0.04 1
  368.1815 0.16 5
  368.3377 0.22 6
  368.9744 0.06 2
  369.0992 0.07 2
  369.2520 0.18 5
  369.3367 0.11 3
  370.0368 0.15 4
  370.1803 0.06 2
  370.2971 0.12 4
  370.4319 0.14 4
  370.7623 0.08 2
  370.9052 0.18 5
  371.0213 0.18 5
  371.2136 0.18 5
  371.3357 0.11 3
  371.7235 0.07 2
  371.9499 0.10 3
  372.2309 0.16 5
  372.6448 0.07 2
  372.9279 0.04 1
  373.2638 0.37 11
  373.4601 0.10 3
  373.5769 0.09 3
  373.9415 0.11 3
  374.1144 0.10 3
  374.2780 0.07 2
  374.6854 0.06 2
  374.8977 0.16 5
  375.2063 0.50 15
  375.4694 0.15 4
  375.7993 0.05 1
  376.1106 0.34 10
  376.4072 0.09 3
  376.9582 0.17 5
  377.2388 0.15 4
  377.7665 0.10 3
  379.1368 0.17 5
  379.2424 0.11 3
  379.5297 0.04 1
  380.0984 0.05 1
  380.2293 0.04 1
  380.7747 0.11 3
  381.0480 0.19 6
  381.1549 0.11 3
  381.3554 0.12 4
  381.5092 0.06 2
  381.6021 0.04 1
  382.0519 0.13 4
  382.3065 0.19 6
  383.1862 0.22 6
  383.3988 0.13 4
  383.6201 0.05 1
  383.7785 0.02 1
  384.0272 0.20 6
  384.1930 0.08 2
  384.5160 0.14 4
  385.2795 0.47 14
  385.4313 0.14 4
  385.7362 0.14 4
  385.8827 0.26 8
  386.0960 0.07 2
  386.1963 0.14 4
  386.3434 0.18 5
  386.5714 0.09 3
  386.9092 0.07 2
  387.1754 0.22 6
  387.3466 0.19 6
  387.4837 0.02 1
  387.9452 0.20 6
  388.1445 0.24 7
  388.2856 0.14 4
  388.4020 0.17 5
  388.8033 0.06 2
  389.1974 0.12 4
  389.3325 0.02 1
  389.4643 0.05 1
  389.9439 0.16 5
  390.0911 0.06 2
  390.2557 0.10 3
  390.3909 0.10 3
  391.1028 0.10 3
  391.2466 0.09 3
  391.4125 0.10 3
  392.0964 0.03 1
  392.2818 0.12 4
  392.4257 0.08 2
  392.8279 0.02 1
  393.2401 0.25 7
  393.3626 0.15 4
  393.8063 0.06 2
  394.1055 0.26 8
  394.3592 0.21 6
  395.0178 0.09 3
  395.2568 0.06 2
  395.3452 0.08 2
  396.1458 0.23 7
  396.2830 0.18 5
  396.4002 0.12 4
  396.6801 0.04 1
  396.8139 0.06 2
  397.0804 0.13 4
  397.3770 0.24 7
  397.8504 0.01 0
  398.2086 0.18 5
  398.7645 0.10 3
  399.2366 0.71 21
  399.4576 0.29 8
  399.7770 0.03 1
  400.1620 0.22 6
  400.3727 0.22 6
  400.7994 0.02 1
  400.9132 0.06 2
  401.0670 0.28 8
  401.3025 0.50 15
  401.4811 0.06 2
  401.7300 0.02 1
  402.0451 0.26 8
  402.2217 0.17 5
  402.3609 0.41 12
  403.0347 0.13 4
  403.2515 0.33 10
  403.3752 0.14 4
  403.5459 0.08 2
  403.9554 0.15 4
  404.1441 0.12 4
  404.3402 0.22 6
  405.1693 0.14 4
  405.2329 0.05 1
  405.5127 0.06 2
  405.7817 0.11 3
  406.0461 0.13 4
  406.3051 0.57 17
  406.8460 0.10 3
  407.0903 0.14 4
  407.3534 0.17 5
  407.5917 0.06 2
  408.0168 0.02 1
  408.1587 0.10 3
  408.3823 0.15 4
  408.9574 0.11 3
  409.1904 0.15 4
  409.2546 0.07 2
  409.8961 0.08 2
  410.3809 0.07 2
  410.5315 0.01 0
  410.9721 0.12 4
  411.1047 0.13 4
  411.1958 0.02 1
  411.3203 0.14 4
  411.5259 0.12 4
  411.8260 0.06 2
  412.2271 0.42 12
  412.5600 0.05 1
  413.1259 0.29 8
  413.3396 0.15 4
  413.4608 0.10 3
  413.7040 0.12 4
  413.9853 0.29 8
  414.0999 0.22 6
  414.2599 0.35 10
  414.5855 0.14 4
  414.9064 0.26 8
  415.2748 0.61 18
  415.4497 0.27 8
  415.8376 0.13 4
  416.2751 0.38 11
  416.4661 0.32 9
  416.6346 0.14 4
  417.4879 0.10 3
  417.7782 0.12 4
  418.1006 0.06 2
  418.3488 0.21 6
  418.5434 0.13 4
  418.8177 0.07 2
  419.0852 0.10 3
  419.3207 0.18 5
  419.5562 0.02 1
  419.6913 0.11 3
  419.8237 0.10 3
  420.1502 0.21 6
  420.4639 0.14 4
  420.6479 0.06 2
  420.8841 0.13 4
  421.1203 0.01 0
  421.2895 0.12 4
  421.4421 0.09 3
  421.6201 0.06 2
  421.8074 0.11 3
  421.8997 0.09 3
  422.2082 0.24 7
  423.0004 0.12 4
  423.3344 0.13 4
  423.5967 0.10 3
  424.0537 0.06 2
  424.1555 0.09 3
  424.3991 0.06 2
  424.6407 0.10 3
  424.7411 0.05 1
  424.9332 0.27 8
  425.1574 0.04 1
  425.2745 0.06 2
  425.3675 0.02 1
  425.6306 0.19 6
  426.1654 0.10 3
  426.3689 0.12 4
  426.5503 0.10 3
  426.6888 0.10 3
  426.8521 0.14 4
  426.9659 0.13 4
  427.0992 0.22 6
  427.2009 0.12 4
  427.3475 0.10 3
  427.6079 0.10 3
  427.7766 0.10 3
  427.9239 0.38 11
  428.2888 0.29 8
  428.5117 0.14 4
  428.8137 0.08 2
  429.2448 0.43 13
  429.5301 0.14 4
  429.6941 0.07 2
  429.8126 0.12 4
  429.9512 0.03 1
  430.3141 0.43 13
  430.7387 0.23 7
  431.0695 0.19 6
  431.3019 0.28 8
  431.5262 0.16 5
  431.6689 0.10 3
  431.9689 0.08 2
  432.1624 0.09 3
  432.2703 0.11 3
  432.4471 0.13 4
  432.5334 0.10 3
  432.6721 0.14 4
  432.8469 0.01 0
  433.1068 0.11 3
  433.2910 0.06 2
  433.4577 0.12 4
  433.6734 0.11 3
  434.1054 0.06 2
  434.2046 0.11 3
  434.2964 0.03 1
  434.9836 0.27 8
  435.1806 0.23 7
  435.3460 0.18 5
  435.6173 0.15 4
  435.7239 0.05 1
  436.0374 0.04 1
  436.2545 0.07 2
  436.5298 0.12 4
  436.8340 0.20 6
  436.9713 0.13 4
  437.2233 0.25 7
  437.4638 0.44 13
  437.6112 0.31 9
  437.9744 0.52 15
  438.1425 0.09 3
  438.4541 0.45 13
  438.6806 0.49 14
  438.8408 0.28 8
  439.0378 0.25 7
  439.3742 0.37 11
  439.7595 0.26 8
  439.9626 0.22 6
  440.2628 0.56 16
  440.3828 0.28 8
  440.5584 0.57 17
  440.7299 0.24 7
  440.8553 0.13 4
  441.0490 0.21 6
  441.3171 0.53 15
  441.6555 0.22 6
  441.9270 0.35 10
  442.3145 0.25 7
  442.4659 0.52 15
  442.5638 0.19 6
  442.6905 0.15 4
  442.8118 0.14 4
  442.9197 0.24 7
  443.0585 0.11 3
  443.2194 0.25 7
  443.4024 0.22 6
  443.5036 0.17 5
  443.7409 0.09 3
  443.9581 0.14 4
  444.0808 0.17 5
  444.2317 0.12 4
  444.3376 0.10 3
  444.5139 0.22 6
  444.8491 0.11 3
  445.0838 0.29 8
  445.3955 0.61 18
  445.5766 0.36 11
  445.6671 0.17 5
  445.9614 0.13 4
  446.2786 0.53 15
  446.4757 0.23 7
  446.6205 0.10 3
  446.7975 0.10 3
  446.9498 0.06 2
  447.0926 0.22 6
  447.2763 0.19 6
  447.4272 0.14 4
  447.7350 0.02 1
  447.9147 0.07 2
  448.1515 0.11 3
  448.5874 0.04 1
  448.7188 0.05 1
  449.0877 0.22 6
  449.2238 0.08 2
  449.4358 0.24 7
  450.3801 0.10 3
  450.5606 0.04 1
  450.8522 0.17 5
  451.0617 0.12 4
  451.1955 0.04 1
  451.4532 0.06 2
  451.5576 0.06 2
  451.6741 0.10 3
  451.8401 0.07 2
  452.0262 0.07 2
  452.2089 0.34 10
  452.5034 0.12 4
  452.7933 0.14 4
  453.0999 0.04 1
  453.2887 0.19 6
  453.4520 0.07 2
  453.7030 0.13 4
  453.8744 0.11 3
  454.2821 0.17 5
  454.4816 0.03 1
  454.6262 0.14 4
  454.9135 0.10 3
  455.0735 0.03 1
  455.2134 0.13 4
  455.6325 0.06 2
  455.8936 0.11 3
  456.3530 0.30 9
  456.5605 0.22 6
  456.7862 0.06 2
  457.1893 0.06 2
  457.4404 0.28 8
  457.9005 0.22 6
  458.0344 0.20 6
  458.2373 0.11 3
  458.5634 0.16 5
  458.7791 0.29 8
  458.9338 0.17 5
  459.0878 0.14 4
  459.3658 0.67 20
  459.5982 0.55 16
  460.3389 17.26 504
  460.8279 0.31 9
  460.9987 0.44 13
  461.1213 0.29 8
  461.3015 0.10 3
  461.4549 0.07 2
  461.7355 0.25 7
  462.0202 0.04 1
  462.1823 0.12 4
  462.3833 0.15 4
  462.9561 0.07 2
  463.0994 0.23 7
  463.2133 0.07 2
  463.3929 0.10 3
  463.5469 0.20 6
  463.6548 0.11 3
  464.1171 0.13 4
  464.2082 0.08 2
  464.3456 0.05 1
  464.4695 0.05 1
  464.5847 0.11 3
  464.6758 0.05 1
  465.2018 0.24 7
  465.3928 0.14 4
  465.6179 0.08 2
  465.9730 0.12 4
  466.0749 0.13 4
  466.2317 0.11 3
  466.3476 0.11 3
  466.8589 0.19 6
  467.0787 0.10 3
  467.2817 0.01 0
  467.4486 0.12 4
  467.7260 0.09 3
  468.1509 0.10 3
  468.4016 0.31 9
  468.8164 0.03 1
  469.3151 0.07 2
  469.4880 0.04 1
  469.7011 0.02 1
  470.2293 0.12 4
  470.6368 0.15 4
  471.1094 0.04 1
  471.3969 0.31 9
  471.5712 0.13 4
  471.9641 0.17 5
  472.2993 0.66 19
  472.5466 0.16 5
  472.7893 0.11 3
  473.0193 0.20 6
  473.2794 0.76 22
  473.5348 0.29 8
  473.8392 0.16 5
  474.3353 0.09 3
  474.5646 0.11 3
  474.7162 0.05 1
  475.1218 0.01 0
  475.4262 0.15 4
  475.9760 0.22 6
  476.1739 0.10 3
  476.3482 0.12 4
  476.7391 0.08 2
  476.9625 0.09 3
  477.0852 0.08 2
  477.4406 0.18 5
  477.6364 0.06 2
  477.8550 0.05 1
  477.9474 0.07 2
  478.1791 0.31 9
  478.3826 0.12 4
  478.5607 0.12 4
  478.9557 0.13 4
  479.1740 0.02 1
  479.4840 0.15 4
  479.9969 0.12 4
  480.0559 0.05 1
  480.3137 0.12 4
  480.5387 0.24 7
  481.2345 0.13 4
  481.4501 0.20 6
  481.5639 0.06 2
  481.7126 0.11 3
  482.2825 0.04 1
  482.7748 0.15 4
  482.9322 0.20 6
  483.0259 0.17 5
  483.3929 0.12 4
  483.6481 0.09 3
  483.8960 0.10 3
  484.0554 0.04 1
  484.1900 0.13 4
  484.4016 0.08 2
  484.4907 0.10 3
  484.9422 0.07 2
  485.1177 0.16 5
  485.2101 0.06 2
  485.4392 0.01 0
  486.0569 0.10 3
  486.1486 0.13 4
  486.4541 0.10 3
  486.6886 0.10 3
  488.6046 0.11 3
  488.9550 0.02 1
  489.2123 0.06 2
  489.3584 0.13 4
  489.5326 0.24 7
  489.7819 0.10 3
  489.9681 0.01 0
  490.4774 0.11 3
  490.8633 0.03 1
  491.0141 0.07 2
  491.1267 0.10 3
  491.3284 0.21 6
  491.4872 0.07 2
  491.6601 0.06 2
  491.9335 0.05 1
  492.1982 0.15 4
  492.5226 0.07 2
  493.1573 0.12 4
  493.2960 0.14 4
  493.4816 0.06 2
  493.5889 0.05 1
  493.9072 0.04 1
  494.0540 0.14 4
  494.2235 0.15 4
  494.3697 0.27 8
  495.1787 0.18 5
  495.2939 0.16 5
  495.4280 0.06 2
  495.8912 0.10 3
  496.1975 0.24 7
  496.2699 0.14 4
  496.4073 0.10 3
  496.6051 0.09 3
  497.1474 0.03 1
  497.6951 0.05 1
  498.5633 0.07 2
  498.7416 0.04 1
  498.9441 0.09 3
  499.0862 0.33 10
  499.2243 0.05 1
  499.9531 0.06 2
  500.1536 0.14 4
  500.2971 0.10 3
  500.5545 0.11 3
  500.6893 0.07 2
  500.9280 0.14 4
  501.6207 0.08 2
  502.0974 0.30 9
  502.2550 0.14 4
  502.4153 0.08 2
  502.9444 0.04 1
  503.1764 0.03 1
  503.3273 0.08 2
  503.4399 0.09 3
  503.5305 0.13 4
  503.7712 0.14 4
  503.9995 0.18 5
  504.2191 0.12 4
  504.4100 0.18 5
  504.5627 0.12 4
  505.6522 0.14 4
  505.7560 0.12 4
  505.8872 0.09 3
  506.1383 0.23 7
  506.2428 0.14 4
  506.4249 0.27 8
  506.7390 0.11 3
  507.1261 0.06 2
  507.3277 0.36 11
  507.4596 0.16 5
  507.5855 0.24 7
  507.7094 0.10 3
  508.0142 0.14 4
  508.1508 0.21 6
  508.5138 0.08 2
  508.6524 0.01 0
  509.1514 0.11 3
  509.4602 0.14 4
  509.7181 0.05 1
  509.8788 0.07 2
  510.0697 0.27 8
  510.2513 0.30 9
  510.4609 0.08 2
  510.6297 0.10 3
  510.7744 0.11 3
  511.3391 0.12 4
  511.4911 0.13 4
  512.3352 0.06 2
  512.7693 0.09 3
  513.0621 0.10 3
  513.3602 0.13 4
  513.7957 0.13 4
  514.0101 0.23 7
  514.3223 0.01 0
  515.1973 0.08 2
  515.4553 0.18 5
  515.6971 0.04 1
  515.7870 0.05 1
  515.9163 0.07 2
  516.1207 0.15 4
  516.2258 0.12 4
  516.5529 0.17 5
  516.7291 0.10 3
  516.9187 0.09 3
  517.1619 0.12 4
  517.4072 0.05 1
  517.6250 0.06 2
  517.7550 0.12 4
  517.9896 0.11 3
  518.1363 0.11 3
  518.3514 0.11 3
  518.6241 0.15 4
  518.7790 0.23 7
  519.0786 0.18 5
  519.3124 0.20 6
  519.4398 0.12 4
  519.5745 0.37 11
  519.8171 0.03 1
  519.9819 0.15 4
  520.1274 0.12 4
  520.2762 0.35 10
  520.4698 0.26 8
  520.6602 0.23 7
  520.9202 0.11 3
  521.1931 0.23 7
  521.5731 0.45 13
  521.9116 0.12 4
  522.1073 0.40 12
  522.3928 0.52 15
  523.0370 0.14 4
  523.3386 0.22 6
  523.6061 0.02 1
  523.7676 0.14 4
  524.2798 0.25 7
  524.6163 0.15 4
  524.9280 0.05 1
  525.2847 0.06 2
  525.3879 0.07 2
  525.7319 0.11 3
  525.9651 0.19 6
  526.1804 0.10 3
  526.2648 0.05 1
  526.4204 0.10 3
  526.5759 0.24 7
  526.7777 0.16 5
  526.9031 0.11 3
  527.0063 0.04 1
  527.1378 0.09 3
  527.4053 0.08 2
  527.7587 0.11 3
  527.9880 0.13 4
  528.1428 0.22 6
  528.2977 0.15 4
  528.5787 0.15 4
  528.7369 0.24 7
  528.8616 0.12 4
  528.9857 0.07 2
  529.1131 0.15 4
  529.2150 0.12 4
  529.3082 0.16 5
  529.5255 0.29 8
  529.6998 0.16 5
  529.7944 0.15 4
  529.9593 0.13 4
  530.0847 0.25 7
  530.2296 0.16 5
  530.4146 0.20 6
  530.5387 0.09 3
  530.7426 0.23 7
  530.9886 0.47 14
  531.6928 0.53 15
  531.8913 0.33 10
  532.1442 0.47 14
  532.3031 0.21 6
  532.4627 0.17 5
  532.7242 0.48 14
  532.9006 0.26 8
  533.1488 0.66 19
  533.3540 0.40 12
  533.5767 0.51 15
  534.4359 3.99 117
  534.8913 0.76 22
  535.3635 1.76 51
  535.6707 0.70 20
  536.4066 1.83 53
  537.4705 7.56 221
  537.8951 0.75 22
  538.2487 0.45 13
  538.3553 0.32 9
  538.6083 0.36 11
  538.8323 0.22 6
  539.0262 0.26 8
  539.1490 0.21 6
  539.2818 0.23 7
  539.4925 0.22 6
  539.6360 0.13 4
  540.0219 0.20 6
  540.1419 0.11 3
  540.3828 0.31 9
  540.5961 0.21 6
  540.7786 0.35 10
  540.9974 0.23 7
  541.1987 0.15 4
  541.4892 0.40 12
  541.7146 0.24 7
  542.0575 0.35 10
  542.3373 0.35 10
  542.6970 0.26 8
  542.8473 0.13 4
  543.0365 0.48 14
  543.2667 0.36 11
  543.4706 0.54 16
  543.6552 0.39 11
  543.7988 0.18 5
  543.9699 0.66 19
  544.0732 0.24 7
  544.3967 0.35 10
  544.7134 0.44 13
  545.2745 0.81 24
  545.4557 0.40 12
  545.9610 0.69 20
  546.2972 0.81 24
  546.8423 1.45 42
  547.1173 1.32 39
  547.8353 2.15 63
  552.3463 99.97 999
  552.9722 36.17 999
  553.7527 16.42 480
  554.6336 8.67 253
  555.3781 4.76 139
  556.0830 2.84 83
  556.8998 1.79 52
  557.1943 1.12 33
  557.6202 0.84 25
  557.9777 0.88 26
  558.4222 0.76 22
  558.8735 0.56 16
  559.0449 0.24 7
  559.2438 0.40 12
  559.4788 0.25 7
  559.8350 0.41 12
  560.0372 0.37 11
  560.2495 0.32 9
  560.5214 0.18 5
  560.6747 0.17 5
  560.7892 0.13 4
  560.9372 0.19 6
  561.1281 0.24 7
  561.3531 0.19 6
  561.5620 0.14 4
  561.7026 0.03 1
  561.8694 0.11 3
  562.0254 0.04 1
  562.3321 0.18 5
  562.5363 0.19 6
//
