ACCESSION: MSBNK-Kyoto_Univ-CA000036
RECORD_TITLE: Crocoxanthin; FAB-EBEB; MS2; m/z: 550.42; [M]+*
DATE: 2016.01.19 (Created 2010.04.01, modified 2011.05.10)
AUTHORS: Akimoto N, Graduate School of Pharmaceutical Sciences, Kyoto University and Maoka T, Research Institute for Production Development
LICENSE: CC BY-SA
PUBLICATION: Takashi Maoka, Yasuhiro Fujiwara, Keiji Hashimoto, and Naoshige Akimoto, Carotenoids in Three Species of Corbicula Clams, Corbicula japonica, Corbicula sandai, and Corbicula sp. (Chinese Freshwater Corbicula Clam), J. Agric. Food Chem., 53, 8357-8364 (2005).
COMMENT: Profile spectrum of this record is given as a JPEG file.
COMMENT: [Profile] CA000036.jpg
CH$NAME: Crocoxanthin
CH$COMPOUND_CLASS: N/A
CH$FORMULA: C40H54O
CH$EXACT_MASS: 550.41747
CH$SMILES: C(=CC(=C(C)2)C(C)(C)CCC2)C(C)=CC=CC(=CC=CC=C(C)C=CC=C(C#CC(=C1C)C(C)(C)CC(C1)O)C)C
CH$IUPAC: InChI=1S/C40H54O/c1-30(18-13-20-32(3)23-25-37-34(5)22-15-27-39(37,7)8)16-11-12-17-31(2)19-14-21-33(4)24-26-38-35(6)28-36(41)29-40(38,9)10/h11-14,16-21,23,25,36,41H,15,22,27-29H2,1-10H3/b12-11+,18-13+,19-14+,25-23+,30-16+,31-17+,32-20+,33-21+/t36-/m1/s1
CH$LINK: CAS 21284-10-6
CH$LINK: NIKKAJI J15.763E
CH$LINK: INCHIKEY UNJKJDIRJWIHLL-BQLQDKTLSA-N
AC$INSTRUMENT: JMS-HX/HX 110A, JEOL
AC$INSTRUMENT_TYPE: FAB-EBEB
AC$MASS_SPECTROMETRY: MS_TYPE MS2
AC$MASS_SPECTROMETRY: ION_MODE POSITIVE
AC$MASS_SPECTROMETRY: ATOM_GUN_CURRENT 5 mA
AC$MASS_SPECTROMETRY: BOMBARDMENT 6 kV xenon
AC$MASS_SPECTROMETRY: COLLISION_ENERGY 3 kV
AC$MASS_SPECTROMETRY: COLLISION_GAS Ar
AC$MASS_SPECTROMETRY: GAS_PRESSURE adjust to attenuate the intensity of the precursor ion by 30 %
AC$MASS_SPECTROMETRY: IONIZATION FAB
AC$MASS_SPECTROMETRY: MATRIX 1-2 uL m-NBA
AC$MASS_SPECTROMETRY: PROBE_TIP stainless-steel
MS$FOCUSED_ION: BASE_PEAK 535.5356
MS$FOCUSED_ION: PRECURSOR_M/Z 550.42
MS$FOCUSED_ION: PRECURSOR_TYPE [M]+*
MS$DATA_PROCESSING: RELATIVE_M/Z normalised by peak(m/z=535.5356).  set 999 for peak(m/z=550.3890,rel=1745).
PK$SPLASH: splash10-0udi-3931130000-b82cf4ae0af311d8d122
PK$NUM_PEAK: 1809
PK$PEAK: m/z int. rel.int.
  0.0744 0.01 0
  2.4009 0.01 0
  12.9711 0.01 0
  13.9928 0.03 1
  14.9855 0.12 2
  15.2175 0.01 0
  15.4973 0.01 0
  17.9860 0.01 0
  22.9325 0.22 4
  24.9571 0.11 2
  25.9662 0.71 12
  26.9696 3.21 56
  27.4872 0.02 0
  27.9704 0.36 6
  28.9760 3.24 57
  29.9563 0.07 1
  30.9561 0.58 10
  36.7233 0.02 0
  36.9639 0.46 8
  37.5382 0.02 0
  37.6403 0.03 1
  37.9359 0.71 12
  38.4488 0.01 0
  38.9547 8.53 149
  39.9688 1.19 21
  40.9719 14.87 260
  41.9748 0.31 5
  42.9738 8.01 140
  43.9954 0.19 3
  44.9688 0.42 7
  47.8787 0.04 1
  48.7500 0.02 0
  48.9418 0.21 4
  49.1140 0.09 2
  49.9410 2.63 46
  50.4837 0.03 1
  50.9565 5.79 101
  51.2425 0.04 1
  51.9648 1.87 33
  52.7293 0.03 1
  52.9630 8.19 143
  53.9874 0.34 6
  54.9773 20.20 353
  55.9825 0.37 6
  56.5604 0.10 2
  56.6588 0.01 0
  56.9947 6.49 113
  57.4827 0.07 1
  57.9833 0.20 3
  58.9775 1.07 19
  59.9866 0.01 0
  60.4063 0.10 2
  60.5406 0.01 0
  60.6645 0.03 1
  60.9592 0.47 8
  61.1419 0.02 0
  61.9519 1.95 34
  62.9503 4.60 80
  63.1441 0.06 1
  63.4929 0.04 1
  63.6447 0.10 2
  63.9544 0.67 12
  64.1814 0.08 1
  64.4465 0.02 0
  64.9636 7.26 127
  65.2327 0.04 1
  65.5101 0.03 1
  65.9645 0.99 17
  66.6006 0.02 0
  66.9751 10.47 183
  67.9852 0.42 7
  68.6942 0.06 1
  68.9789 10.46 183
  69.2168 0.01 0
  69.9773 0.23 4
  70.9589 2.11 37
  71.6562 0.03 1
  71.8519 0.03 1
  71.9810 0.01 0
  72.3703 0.01 0
  72.6181 0.01 0
  72.9802 0.42 7
  73.1318 0.03 1
  73.3884 0.07 1
  73.9425 1.68 29
  74.6719 0.08 1
  74.9475 1.92 34
  75.1658 0.19 3
  75.3333 0.11 2
  75.4727 0.13 2
  75.6443 0.04 1
  75.8187 0.51 9
  75.9744 1.47 26
  76.1086 0.11 2
  76.2433 0.12 2
  76.3687 0.19 3
  76.4980 0.14 2
  76.9506 20.63 360
  77.1814 0.35 6
  77.3299 0.11 2
  77.5147 0.10 2
  77.5832 0.05 1
  77.9581 3.93 69
  78.2057 0.07 1
  78.4557 0.14 2
  78.9636 16.82 294
  79.1968 0.13 2
  79.4161 0.05 1
  79.6020 0.10 2
  79.9707 2.15 38
  80.2254 0.10 2
  80.3713 0.05 1
  80.9717 22.15 387
  81.3036 0.07 1
  81.5040 0.09 2
  81.9659 0.38 7
  82.5013 0.07 1
  82.9797 4.52 79
  83.2483 0.03 1
  83.5351 0.04 1
  83.8845 0.02 0
  83.9962 0.18 3
  84.2422 0.01 0
  84.9670 5.64 98
  85.5594 0.05 1
  85.9368 0.89 16
  86.1230 0.07 1
  86.6841 0.01 0
  86.9540 1.28 22
  87.2076 0.04 1
  87.3795 0.06 1
  87.6779 0.05 1
  87.9571 0.43 8
  88.2445 0.09 2
  88.4215 0.18 3
  88.6146 0.11 2
  88.9604 3.27 57
  89.1416 0.28 5
  89.2329 0.21 4
  89.4063 0.11 2
  89.6096 0.07 1
  89.9504 0.78 14
  90.3001 0.16 3
  90.4077 0.19 3
  90.5315 0.15 3
  90.9606 35.49 620
  91.2465 0.24 4
  91.3976 0.11 2
  91.4847 0.02 0
  91.6912 0.08 1
  91.9707 4.72 82
  92.3439 0.06 1
  92.4624 0.03 1
  92.6429 0.25 4
  92.9837 21.47 375
  93.3194 0.07 1
  93.5354 0.13 2
  93.6640 0.07 1
  93.9763 1.28 22
  94.3028 0.05 1
  94.5402 0.10 2
  94.9914 13.78 241
  95.3657 0.04 1
  95.4465 0.07 1
  95.6873 0.13 2
  95.8153 0.06 1
  95.9836 0.45 8
  96.0534 0.21 4
  96.1885 0.12 2
  96.6150 0.01 0
  96.9906 1.21 21
  97.5194 0.03 1
  97.9850 0.74 13
  98.2762 0.10 2
  98.9743 0.28 5
  99.7609 0.02 0
  99.9644 0.10 2
  100.6361 0.05 1
  100.9523 1.12 20
  101.1692 0.20 3
  101.2533 0.09 2
  101.4192 0.22 4
  101.5363 0.06 1
  101.6322 0.11 2
  101.9714 2.37 41
  102.2447 0.15 3
  102.4710 0.15 3
  102.9729 6.39 112
  103.1889 0.15 3
  103.2745 0.06 1
  103.3577 0.08 1
  103.9739 3.10 54
  104.2518 0.10 2
  104.4819 0.15 3
  104.9832 39.14 683
  105.2544 0.16 3
  105.3552 0.07 1
  105.4784 0.09 2
  105.6805 0.12 2
  105.9837 2.86 50
  106.4861 0.14 2
  106.6348 0.10 2
  106.9961 15.58 272
  107.4057 0.05 1
  107.5220 0.05 1
  107.6115 0.08 1
  107.9812 1.06 19
  108.4242 0.09 2
  108.9869 5.20 91
  109.2896 0.02 0
  109.4413 0.02 0
  109.8651 0.17 3
  110.0187 0.39 7
  110.7779 0.07 1
  110.9777 0.69 12
  111.3798 0.13 2
  111.8144 0.10 2
  111.9249 0.24 4
  112.0289 0.23 4
  112.2852 0.14 2
  112.3791 0.07 1
  112.4932 0.12 2
  112.6296 0.10 2
  112.7731 0.31 5
  112.9861 0.68 12
  113.1512 0.25 4
  113.3469 0.28 5
  113.5912 0.30 5
  113.9488 1.60 28
  114.1298 0.19 3
  114.3714 0.35 6
  114.4727 0.19 3
  114.9574 20.56 359
  115.2545 0.20 3
  115.4046 0.31 5
  115.4815 0.15 3
  115.9579 7.05 123
  116.9532 18.13 317
  117.4144 0.39 7
  117.5866 0.13 2
  117.9602 3.44 60
  118.1416 0.24 4
  118.4075 0.11 2
  118.4998 0.14 2
  118.5999 0.20 3
  118.9632 31.80 555
  119.3314 0.11 2
  119.5265 0.03 1
  119.7331 0.15 3
  119.9802 2.22 39
  120.2692 0.24 4
  120.4246 0.18 3
  120.5389 0.04 1
  120.9848 14.69 257
  121.2039 0.37 6
  121.3196 0.15 3
  121.4268 0.14 2
  121.6357 0.06 1
  121.9732 2.26 39
  122.2932 0.18 3
  122.4478 0.20 3
  122.5685 0.10 2
  122.9865 21.34 373
  123.3501 0.16 3
  123.4418 0.11 2
  123.6076 0.10 2
  123.7011 0.09 2
  123.8645 0.26 5
  124.0261 0.41 7
  124.5416 0.08 1
  124.7161 0.15 3
  124.9484 0.60 10
  125.1730 0.22 4
  125.4499 0.19 3
  125.6325 0.23 4
  125.9492 1.70 30
  126.3794 0.14 2
  126.9452 7.76 136
  127.3136 0.30 5
  127.4650 0.29 5
  127.9411 22.90 400
  128.2758 0.28 5
  128.4016 0.37 6
  128.4994 0.46 8
  128.9358 23.66 413
  129.2293 0.16 3
  129.4966 0.17 3
  129.9445 9.59 167
  130.2623 0.09 2
  130.3437 0.05 1
  130.5275 0.19 3
  130.9459 19.32 337
  131.2597 0.21 4
  131.3413 0.10 2
  131.9546 4.49 78
  132.3179 0.15 3
  132.4302 0.12 2
  132.5468 0.18 3
  132.9546 12.59 220
  133.2955 0.17 3
  133.4092 0.25 4
  133.9447 1.11 19
  134.3051 0.07 1
  134.4622 0.04 1
  134.5675 0.06 1
  134.9565 2.02 35
  135.2284 0.12 2
  135.4091 0.05 1
  135.9563 0.63 11
  136.0619 0.28 5
  136.2600 0.10 2
  136.4459 0.08 1
  136.6120 0.12 2
  136.9517 0.91 16
  137.3954 0.11 2
  137.7039 0.07 1
  137.9519 0.50 9
  138.2333 0.12 2
  138.3991 0.23 4
  138.6900 0.54 9
  138.9438 3.54 62
  139.1438 0.11 2
  139.2689 0.12 2
  139.9473 1.89 33
  140.0706 0.59 10
  140.2845 0.29 5
  140.9407 18.94 331
  141.3279 0.26 5
  141.5072 0.23 4
  141.9462 16.84 294
  142.4649 0.38 7
  142.9559 26.43 462
  143.3476 0.23 4
  143.9516 7.87 137
  144.2260 0.10 2
  144.9695 23.01 402
  145.2822 0.34 6
  145.4847 0.22 4
  145.9777 1.84 32
  146.2446 0.12 2
  146.4560 0.19 3
  146.9863 7.51 131
  147.2491 0.11 2
  147.5469 0.21 4
  147.6892 0.15 3
  148.0065 0.57 10
  148.1077 0.22 4
  148.2251 0.12 2
  148.3251 0.14 2
  148.4213 0.18 3
  148.5213 0.14 2
  148.9738 1.18 21
  149.3253 0.19 3
  149.4353 0.09 2
  149.5316 0.10 2
  149.9752 1.14 20
  150.1142 0.36 6
  150.2913 0.25 4
  150.4841 0.12 2
  150.9888 2.86 50
  151.2149 0.38 7
  151.3471 0.18 3
  151.9625 9.85 172
  152.2791 0.56 10
  152.9797 10.97 192
  153.3022 0.35 6
  153.4353 0.20 3
  153.5696 0.19 3
  153.9884 5.80 101
  154.2729 0.14 2
  154.3740 0.14 2
  154.4689 0.15 3
  154.9891 17.00 297
  155.3820 0.27 5
  155.5473 0.18 3
  155.9977 10.78 188
  156.2921 0.11 2
  156.9982 19.75 345
  157.4805 0.19 3
  158.0159 3.84 67
  158.3833 0.21 4
  159.0200 7.28 127
  159.3801 0.29 5
  159.5959 0.10 2
  159.8653 0.46 8
  160.0527 0.68 12
  160.2225 0.10 2
  160.4339 0.15 3
  160.5734 0.16 3
  161.0357 2.26 39
  161.4027 0.11 2
  161.5360 0.11 2
  161.7192 0.20 3
  162.0219 0.53 9
  162.1230 0.21 4
  162.4499 0.24 4
  162.5283 0.14 2
  163.0032 2.42 42
  163.2544 0.17 3
  163.4581 0.33 6
  164.0385 1.60 28
  164.3430 0.37 6
  164.4760 0.22 4
  165.0168 20.61 360
  165.4489 0.37 6
  166.0321 7.39 129
  166.4151 0.21 4
  167.0237 13.38 234
  167.3942 0.27 5
  167.5453 0.22 4
  168.0386 5.37 94
  168.4638 0.14 2
  169.0365 15.84 277
  169.5361 0.25 4
  170.0339 5.50 96
  170.3728 0.12 2
  170.4577 0.10 2
  171.0332 9.94 174
  171.5056 0.22 4
  172.0637 1.43 25
  172.3860 0.04 1
  172.5649 0.23 4
  173.0466 3.86 67
  173.5088 0.11 2
  173.9140 0.55 10
  174.0620 1.04 18
  174.3599 0.15 3
  174.5093 0.08 1
  174.7361 0.29 5
  175.0513 1.77 31
  175.5758 0.35 6
  175.9994 2.08 36
  176.3683 0.18 3
  177.0352 2.47 43
  177.2497 0.65 11
  178.0201 11.28 197
  178.2806 0.31 5
  178.3806 0.16 3
  179.0152 17.28 302
  179.3058 0.34 6
  180.0172 5.60 98
  180.3367 0.57 10
  181.0180 14.98 262
  181.3869 0.33 6
  181.5656 0.24 4
  182.0239 5.00 87
  183.0253 13.05 228
  183.4604 0.10 2
  183.6080 0.12 2
  183.7646 0.64 11
  184.0554 2.91 51
  184.3259 0.15 3
  184.5426 0.20 3
  185.0478 4.83 84
  185.3101 0.30 5
  185.4169 0.18 3
  185.6440 0.30 5
  186.0491 1.16 20
  186.2501 0.17 3
  186.3614 0.13 2
  186.5099 0.06 1
  186.6553 0.36 6
  187.0516 1.48 26
  187.2834 0.17 3
  187.5768 0.32 6
  188.0681 1.01 18
  188.2418 0.42 7
  188.4014 0.32 6
  189.0250 6.45 113
  189.2533 0.54 9
  189.9696 2.43 42
  190.4026 0.35 6
  191.0096 10.76 188
  191.3479 0.17 3
  191.4705 0.09 2
  191.5854 0.19 3
  192.0188 7.17 125
  192.3752 0.25 4
  193.0144 13.02 227
  193.3960 0.21 4
  193.5355 0.13 2
  194.0208 6.31 110
  194.5242 0.38 7
  195.0412 13.32 233
  195.4040 0.27 5
  196.0050 3.60 63
  196.5874 0.16 3
  197.0394 8.96 156
  197.3098 0.45 8
  197.4747 0.41 7
  197.5796 0.31 5
  198.0531 1.60 28
  198.3159 0.22 4
  198.4132 0.13 2
  198.4924 0.05 1
  199.0505 2.64 46
  199.4141 0.27 5
  199.5230 0.22 4
  199.6848 0.23 4
  200.0517 1.64 29
  200.2974 0.15 3
  200.4883 0.42 7
  200.5941 0.34 6
  200.7360 0.48 8
  201.0470 1.74 30
  201.2192 0.68 12
  201.3263 0.30 5
  202.0343 7.17 125
  202.2622 0.44 8
  202.3790 0.30 5
  203.0318 7.17 125
  203.3108 0.35 6
  204.0105 2.92 51
  204.3852 0.10 2
  205.0315 7.86 137
  205.4505 0.17 3
  206.0396 5.54 97
  206.4942 0.17 3
  207.0422 12.05 210
  207.3955 0.16 3
  207.5295 0.20 3
  208.0331 4.78 83
  209.0431 9.66 169
  209.3061 0.33 6
  209.4719 0.26 5
  210.0595 1.66 29
  210.3077 0.23 4
  210.5027 0.14 2
  210.6265 0.24 4
  211.0705 2.80 49
  211.3979 0.15 3
  211.5204 0.11 2
  211.6384 0.23 4
  212.0644 1.22 21
  212.4315 0.23 4
  213.0465 2.35 41
  213.4060 0.17 3
  213.5591 0.24 4
  213.6850 0.36 6
  214.0608 0.88 15
  214.4685 0.41 7
  215.0359 7.34 128
  215.4087 0.16 3
  215.5301 0.22 4
  216.0790 3.87 68
  216.2025 1.50 26
  216.3551 0.11 2
  217.0667 7.98 139
  217.3527 0.51 9
  217.4833 0.05 1
  218.0788 3.54 62
  218.5087 0.26 5
  219.0771 6.91 121
  219.3900 0.27 5
  220.0868 3.86 67
  220.4968 0.20 3
  221.0944 6.92 121
  221.4173 0.20 3
  221.5358 0.22 4
  222.0789 2.22 39
  222.5628 0.25 4
  223.0996 4.08 71
  223.4749 0.23 4
  223.8685 0.71 12
  224.1188 1.58 28
  224.4487 0.24 4
  224.6110 0.30 5
  225.1130 1.63 28
  225.5962 0.14 2
  226.0476 2.53 44
  226.5189 0.24 4
  227.0883 2.18 38
  227.3766 0.45 8
  227.5783 0.30 5
  228.0692 3.06 53
  228.3406 0.22 4
  228.4520 0.38 7
  228.5399 0.25 4
  229.0719 5.73 100
  229.4151 0.14 2
  229.6653 0.12 2
  230.1044 3.38 59
  230.2724 0.92 16
  230.4868 0.20 3
  231.0805 6.05 106
  231.4677 0.12 2
  231.5987 0.24 4
  232.0955 2.73 48
  232.3667 0.23 4
  232.5082 0.29 5
  233.0932 6.89 120
  233.6209 0.22 4
  234.1011 2.24 39
  234.4006 0.17 3
  234.4978 0.13 2
  234.6446 0.23 4
  235.1230 4.89 85
  235.4886 0.14 2
  235.6589 0.12 2
  236.1245 1.56 27
  236.3673 0.16 3
  236.5025 0.01 0
  236.6795 0.18 3
  237.1217 2.44 43
  237.5142 0.21 4
  237.7788 0.21 4
  238.1525 1.10 19
  238.4877 0.49 9
  238.5930 0.29 5
  239.0955 4.46 78
  239.3609 0.44 8
  239.6002 0.22 4
  239.8290 0.57 10
  240.1173 1.34 23
  240.3102 0.43 8
  240.5750 0.24 4
  241.0930 3.47 61
  241.4776 0.18 3
  242.0978 1.77 31
  242.3242 0.50 9
  242.4295 0.15 3
  242.6540 0.31 5
  243.0977 5.83 102
  243.4799 0.33 6
  244.0966 3.74 65
  244.3919 0.16 3
  244.6028 0.20 3
  245.0946 6.00 105
  245.5373 0.15 3
  246.0994 3.15 55
  246.4564 0.14 2
  247.0934 6.08 106
  247.6832 0.08 1
  248.1152 1.46 25
  248.5079 0.22 4
  249.1453 3.34 58
  249.5578 0.20 3
  249.7263 0.11 2
  249.8582 0.21 4
  250.1789 0.98 17
  250.4354 0.17 3
  250.5876 0.09 2
  251.1178 1.47 26
  251.6092 0.54 9
  251.6892 0.11 2
  252.0978 1.74 30
  252.3647 0.37 6
  252.6310 0.28 5
  253.0915 3.07 54
  253.5311 0.16 3
  254.1105 1.66 29
  254.2700 0.70 12
  254.5883 0.09 2
  254.6920 0.26 5
  255.1114 3.88 68
  255.5920 0.20 3
  256.0989 2.34 41
  256.6630 0.24 4
  257.1096 4.79 84
  257.4525 0.12 2
  258.1449 2.11 37
  258.3046 0.88 15
  258.4189 0.29 5
  258.5891 0.05 1
  259.1095 4.46 78
  259.5289 0.27 5
  260.1244 2.07 36
  260.3683 0.36 6
  260.4860 0.16 3
  261.1462 4.01 70
  261.4783 0.18 3
  261.5809 0.12 2
  261.6841 0.05 1
  261.8209 0.14 2
  262.1169 0.98 17
  262.2616 0.59 10
  262.3629 0.12 2
  262.5122 0.05 1
  262.6162 0.10 2
  263.1254 2.13 37
  263.4886 0.19 3
  263.6637 0.17 3
  264.1625 0.63 11
  264.3955 0.15 3
  264.5232 0.34 6
  264.7292 0.35 6
  265.1229 2.07 36
  265.3987 0.24 4
  265.5995 0.42 7
  265.8023 0.42 7
  266.1460 1.36 24
  266.3535 0.27 5
  266.5333 0.16 3
  267.1267 3.38 59
  267.4218 0.14 2
  267.6998 0.46 8
  268.1254 1.66 29
  268.5589 0.02 0
  269.1335 3.41 60
  269.4968 0.13 2
  269.6659 0.10 2
  269.7614 0.17 3
  270.1378 2.09 36
  270.4525 0.26 5
  270.5499 0.22 4
  271.1331 2.81 49
  271.5123 0.37 6
  271.7270 0.27 5
  272.1550 0.90 16
  272.4105 0.09 2
  272.6094 0.24 4
  273.1310 3.04 53
  273.6870 0.23 4
  274.1627 1.18 21
  274.3109 0.58 10
  274.5013 0.24 4
  274.7162 0.25 4
  275.1438 1.97 34
  275.5452 0.13 2
  275.7733 0.06 1
  276.0956 1.37 24
  276.2439 0.56 10
  276.5208 0.19 3
  277.1135 1.41 25
  277.5546 0.33 6
  277.8889 0.35 6
  278.1217 0.97 17
  278.2741 0.58 10
  278.5142 0.28 5
  278.6863 0.04 1
  279.1362 2.17 38
  279.5419 0.08 1
  279.7497 0.27 5
  280.1192 1.29 23
  280.4597 0.23 4
  281.1143 3.64 64
  281.7229 0.12 2
  282.1414 1.33 23
  282.4801 0.03 1
  282.6353 0.13 2
  283.1153 2.99 52
  283.4936 0.21 4
  283.7010 0.20 3
  284.1395 1.38 24
  284.4902 0.12 2
  284.6006 0.19 3
  285.1606 3.03 53
  285.3559 0.75 13
  285.6053 0.12 2
  285.7801 0.27 5
  285.8870 0.23 4
  286.1787 0.81 14
  286.4961 0.20 3
  286.6631 0.11 2
  286.8169 0.14 2
  287.1588 1.85 32
  287.4862 0.19 3
  287.7139 0.25 4
  287.8037 0.12 2
  288.0803 0.80 14
  288.2830 0.63 11
  288.4679 0.17 3
  289.1394 1.78 31
  289.4148 0.11 2
  289.6578 0.06 1
  289.7589 0.10 2
  289.9398 0.50 9
  290.1208 0.95 17
  290.3335 0.41 7
  290.4881 0.11 2
  290.5700 0.09 2
  291.1005 1.48 26
  292.0830 0.88 15
  292.2508 0.39 7
  292.3592 0.10 2
  292.5350 0.20 3
  293.0987 1.31 23
  293.4709 0.11 2
  293.7372 0.16 3
  294.1352 0.97 17
  294.5246 0.25 4
  294.7712 0.08 1
  295.1276 2.03 35
  295.4410 0.12 2
  295.5568 0.06 1
  295.9787 0.60 10
  296.1354 1.11 19
  296.2928 0.38 7
  297.1091 1.94 34
  297.3862 0.24 4
  297.7091 0.27 5
  298.0882 0.67 12
  298.3628 0.30 5
  298.5222 0.19 3
  299.1397 2.10 37
  299.4084 0.50 9
  299.7320 0.31 5
  300.1695 0.61 11
  300.3681 0.24 4
  300.5144 0.14 2
  300.6607 0.22 4
  301.1493 1.07 19
  301.3506 0.60 10
  301.6538 0.22 4
  302.1339 0.58 10
  302.3299 0.25 4
  302.4180 0.08 1
  302.6405 0.04 1
  302.7597 0.12 2
  303.1332 1.27 22
  303.5121 0.11 2
  303.7267 0.36 6
  303.8360 0.26 5
  303.9215 0.09 2
  304.1315 0.85 15
  304.2348 0.41 7
  304.3667 0.21 4
  304.5727 0.16 3
  304.7655 0.25 4
  305.1286 1.48 26
  305.2492 0.36 6
  305.3691 0.08 1
  305.4513 0.03 1
  305.5726 0.11 2
  305.9463 0.46 8
  306.1809 0.43 8
  306.4520 0.10 2
  306.5474 0.06 1
  306.8424 0.53 9
  307.1579 1.57 27
  307.5510 0.32 6
  308.1178 0.65 11
  308.3260 0.16 3
  308.5919 0.10 2
  308.7636 0.12 2
  308.8783 0.37 6
  309.1204 1.47 26
  309.2775 0.71 12
  310.0488 0.90 16
  310.2232 0.41 7
  310.3791 0.12 2
  310.5476 0.06 1
  310.6796 0.11 2
  310.8633 0.28 5
  311.1877 1.28 22
  311.4849 0.23 4
  311.7443 0.17 3
  311.8538 0.09 2
  312.1212 0.45 8
  312.2651 0.21 4
  312.3488 0.13 2
  312.4974 0.26 5
  312.6308 0.12 2
  313.1298 1.42 25
  313.2672 0.73 13
  313.5877 0.12 2
  313.6879 0.10 2
  313.7742 0.13 2
  313.9401 0.12 2
  314.1930 0.45 8
  314.4745 0.02 0
  314.6623 0.08 1
  315.1801 0.77 13
  315.4085 0.28 5
  315.6701 0.14 2
  316.1110 0.31 5
  316.3493 0.47 8
  316.5213 0.07 1
  316.7106 0.14 2
  316.8713 0.18 3
  317.1442 0.96 17
  317.3734 0.47 8
  317.5401 0.04 1
  318.0103 0.22 4
  318.2428 0.32 6
  318.3624 0.08 1
  318.5437 0.02 0
  318.8028 0.20 3
  319.1416 1.14 20
  319.4671 0.18 3
  319.6552 0.10 2
  319.8405 0.11 2
  320.1748 0.56 10
  320.3422 0.23 4
  320.5383 0.06 1
  320.7316 0.15 3
  321.2088 1.26 22
  321.4919 0.14 2
  321.5823 0.12 2
  321.6794 0.06 1
  321.8488 0.07 1
  322.2191 0.37 6
  322.5707 0.03 1
  322.7569 0.16 3
  323.1691 1.12 20
  323.3991 0.37 6
  323.6318 0.12 2
  323.9104 0.10 2
  324.1571 0.58 10
  324.3200 0.30 5
  324.4809 0.19 3
  324.8414 0.07 1
  324.9870 0.33 6
  325.2005 0.73 13
  325.3681 0.48 8
  325.5064 0.12 2
  325.6494 0.04 1
  325.9095 0.18 3
  326.0911 0.56 10
  326.2880 0.33 6
  326.4596 0.11 2
  326.5966 0.17 3
  326.7829 0.10 2
  327.1255 0.87 15
  327.3916 0.72 13
  327.6511 0.11 2
  327.7966 0.13 2
  328.2777 0.41 7
  328.5920 0.14 2
  328.6984 0.17 3
  328.8133 0.18 3
  329.1416 0.89 16
  329.4181 0.74 13
  329.5650 0.18 3
  329.8063 0.04 1
  330.1633 0.41 7
  330.3786 0.14 2
  330.7729 0.10 2
  331.1937 1.49 26
  331.6052 0.21 4
  331.7581 0.20 3
  332.0647 0.31 5
  332.2655 0.62 11
  332.6086 0.10 2
  333.2058 1.96 34
  333.5523 0.14 2
  333.6561 0.11 2
  333.8749 0.35 6
  334.2068 1.61 28
  334.3838 0.54 9
  334.5614 0.16 3
  334.7869 0.07 1
  335.1641 0.90 16
  335.4808 0.19 3
  335.6531 0.19 3
  336.1468 0.49 9
  336.3863 0.16 3
  336.6405 0.28 5
  336.7703 0.11 2
  337.1795 0.83 14
  337.4637 0.12 2
  337.9902 0.13 2
  338.2058 0.33 6
  338.3476 0.09 2
  338.6624 0.05 1
  338.9547 0.45 8
  339.2369 1.13 20
  339.4506 0.16 3
  339.6550 0.14 2
  339.8407 0.10 2
  340.0019 0.22 4
  340.2915 0.36 6
  340.5898 0.10 2
  340.7922 0.08 1
  341.2044 0.58 10
  341.3522 0.38 7
  341.5440 0.10 2
  341.6452 0.18 3
  342.2513 0.26 5
  342.3412 0.14 2
  342.4864 0.12 2
  342.6216 0.19 3
  342.8394 0.20 3
  342.9713 0.23 4
  343.2717 0.60 10
  343.6107 0.04 1
  343.8093 0.15 3
  344.1017 0.38 7
  344.3535 0.32 6
  344.4521 0.13 2
  344.6940 0.15 3
  345.2310 1.63 28
  345.4942 0.37 6
  345.8347 0.20 3
  346.2132 1.16 20
  346.3679 0.41 7
  346.7777 0.22 4
  347.2396 2.72 47
  347.5789 0.32 6
  347.7408 0.10 2
  347.8688 0.11 2
  347.9774 0.21 4
  348.1581 0.38 7
  348.3961 0.33 6
  348.6321 0.06 1
  348.7341 0.12 2
  348.9287 0.37 6
  349.1888 0.54 9
  349.3094 0.38 7
  349.5248 0.21 4
  349.7988 0.14 2
  349.9495 0.10 2
  350.1776 0.30 5
  350.2742 0.20 3
  350.5963 0.04 1
  350.9844 0.10 2
  351.2452 0.49 9
  351.4159 0.20 3
  351.6413 0.20 3
  351.8601 0.10 2
  352.1302 0.22 4
  352.3797 0.46 8
  352.6031 0.02 0
  352.8699 0.03 1
  353.0180 0.15 3
  353.2535 0.65 11
  353.4783 0.24 4
  353.6858 0.04 1
  353.9460 0.11 2
  354.1495 0.26 5
  354.2973 0.29 5
  354.4236 0.25 4
  354.6604 0.12 2
  354.7954 0.04 1
  355.0302 0.28 5
  355.2677 0.59 10
  355.4619 0.20 3
  355.7108 0.12 2
  355.8837 0.12 2
  356.3294 0.50 9
  356.6434 0.15 3
  357.1964 0.75 13
  357.3421 0.71 12
  357.4678 0.35 6
  357.5683 0.12 2
  357.7094 0.08 1
  357.9549 0.21 4
  358.2417 0.47 8
  358.4427 0.10 2
  358.6204 0.16 3
  358.7994 0.23 4
  359.2533 1.28 22
  359.7491 0.11 2
  360.2037 1.23 21
  360.5139 0.36 6
  360.8461 0.15 3
  361.2302 0.65 11
  361.6789 0.01 0
  361.9532 0.08 1
  362.1117 0.23 4
  362.4346 0.35 6
  362.7249 0.04 1
  362.9260 0.03 1
  363.2589 0.55 10
  363.5586 0.15 3
  363.6445 0.11 2
  363.8889 0.06 1
  364.2312 0.23 4
  364.5156 0.11 2
  364.7481 0.08 1
  364.9652 0.14 2
  365.1224 0.27 5
  365.2789 0.29 5
  365.5014 0.09 2
  365.6606 0.07 1
  365.9997 0.11 2
  366.1449 0.23 4
  366.3427 0.16 3
  366.5686 0.16 3
  366.7518 0.10 2
  366.8710 0.08 1
  367.1582 0.28 5
  367.3247 0.17 3
  367.5353 0.14 2
  367.9037 0.06 1
  368.0797 0.26 5
  368.2628 0.14 2
  368.4580 0.26 5
  368.6639 0.01 0
  368.7998 0.07 1
  368.9810 0.13 2
  369.2808 0.56 10
  369.3941 0.27 5
  369.9717 0.09 2
  370.2356 0.11 2
  370.3755 0.11 2
  370.4935 0.25 4
  370.6107 0.06 1
  371.2391 0.84 15
  371.5530 0.15 3
  371.7830 0.13 2
  372.0722 0.30 5
  372.2562 0.74 13
  372.4114 0.27 5
  372.5661 0.28 5
  372.8427 0.26 5
  373.2253 1.42 25
  373.3779 0.40 7
  373.5273 0.18 3
  373.7086 0.16 3
  374.0146 0.26 5
  374.2166 0.36 6
  374.3305 0.18 3
  374.5012 0.32 6
  374.7386 0.22 4
  374.8346 0.06 1
  375.1486 0.17 3
  375.3239 0.25 4
  375.4960 0.07 1
  375.8234 0.10 2
  376.2188 0.07 1
  376.4855 0.18 3
  377.1770 0.12 2
  377.4305 0.08 1
  377.5632 0.13 2
  377.7413 0.03 1
  378.2288 0.33 6
  378.8345 0.21 4
  379.2040 0.48 8
  379.3774 0.44 8
  379.5009 0.43 8
  379.9358 0.16 3
  380.1946 0.20 3
  380.3608 0.22 4
  380.4775 0.04 1
  380.7657 0.05 1
  380.8665 0.05 1
  381.1120 0.31 5
  381.3602 0.40 7
  381.5117 0.18 3
  381.8893 0.14 2
  382.1936 0.13 2
  382.3778 0.24 4
  382.5920 0.19 3
  382.8703 0.13 2
  383.1266 0.49 9
  383.2621 0.28 5
  383.4589 0.40 7
  383.6685 0.10 2
  383.9455 0.04 1
  384.2125 0.16 3
  384.4774 0.18 3
  384.7084 0.14 2
  384.8466 0.06 1
  385.2417 0.77 13
  385.3232 0.28 5
  385.6029 0.16 3
  385.6984 0.12 2
  386.0034 0.33 6
  386.2832 0.48 8
  386.5081 0.18 3
  386.7004 0.05 1
  387.0116 0.37 6
  387.3174 0.69 12
  387.5344 0.26 5
  387.6639 0.19 3
  387.9617 0.04 1
  388.2615 0.41 7
  388.8125 0.05 1
  388.9734 0.14 2
  389.1878 0.34 6
  389.2893 0.20 3
  389.4382 0.14 2
  389.6432 0.01 0
  390.2190 0.43 8
  390.3252 0.17 3
  390.5783 0.12 2
  391.0219 0.10 2
  391.3759 0.42 7
  391.4661 0.13 2
  391.6538 0.21 4
  392.1668 0.50 9
  392.2991 0.37 6
  392.4120 0.21 4
  392.5149 0.12 2
  392.8657 0.12 2
  393.1950 0.36 6
  393.3260 0.31 5
  393.4115 0.18 3
  394.0476 0.05 1
  394.2501 0.28 5
  394.3710 0.18 3
  394.4699 0.05 1
  394.7031 0.11 2
  394.8602 0.06 1
  395.1729 0.64 11
  395.3948 0.57 10
  395.4830 0.26 5
  395.6013 0.05 1
  396.2082 0.29 5
  396.3011 0.22 4
  396.4782 0.33 6
  396.6593 0.04 1
  397.3297 1.59 28
  397.5978 0.75 13
  397.7188 0.15 3
  398.1051 0.26 5
  398.2796 0.23 4
  398.4554 0.62 11
  398.7222 0.11 2
  398.8699 0.11 2
  399.1768 0.47 8
  399.3914 0.93 16
  399.7060 0.11 2
  399.8629 0.14 2
  400.1855 0.37 6
  400.4739 0.39 7
  400.6222 0.08 1
  400.7484 0.06 1
  401.0015 0.08 1
  401.2159 0.39 7
  401.3381 0.29 5
  401.4550 0.21 4
  401.7756 0.12 2
  401.8791 0.07 1
  402.0521 0.15 3
  402.2692 0.22 4
  402.4368 0.02 0
  402.6566 0.05 1
  403.0073 0.15 3
  403.2725 0.20 3
  403.4201 0.22 4
  403.5470 0.09 2
  403.7588 0.03 1
  404.1142 0.09 2
  404.2411 0.06 1
  404.3841 0.12 2
  404.9687 0.20 3
  405.2794 0.30 5
  405.5346 0.22 4
  406.1674 0.16 3
  406.3130 0.24 4
  406.3852 0.12 2
  406.5917 0.11 2
  406.8924 0.04 1
  407.0487 0.17 3
  407.3368 0.30 5
  407.9075 0.16 3
  408.1668 0.22 4
  408.2737 0.21 4
  408.4235 0.12 2
  408.7663 0.18 3
  409.0684 0.11 2
  409.3271 0.85 15
  409.4835 0.33 6
  409.6486 0.14 2
  409.8933 0.14 2
  410.2094 0.58 10
  410.3151 0.23 4
  410.4842 0.13 2
  410.6740 0.11 2
  410.7877 0.19 3
  411.0030 0.24 4
  411.3218 0.88 15
  411.7029 0.17 3
  411.8493 0.08 1
  412.3401 0.77 13
  412.5086 0.40 7
  412.6650 0.11 2
  412.9084 0.14 2
  413.3384 1.07 19
  413.6199 0.24 4
  413.8880 0.07 1
  414.0853 0.34 6
  414.3749 0.57 10
  414.5949 0.08 1
  414.8069 0.12 2
  415.0885 0.06 1
  415.3988 0.29 5
  415.4837 0.13 2
  415.6008 0.12 2
  415.8121 0.24 4
  415.8750 0.10 2
  416.0145 0.11 2
  416.1701 0.11 2
  416.2762 0.07 1
  416.8918 0.26 5
  417.1862 0.18 3
  417.3758 0.14 2
  417.4960 0.14 2
  417.6856 0.14 2
  417.8546 0.03 1
  418.0890 0.22 4
  418.2512 0.18 3
  418.4195 0.11 2
  418.5724 0.10 2
  419.1053 0.22 4
  419.2408 0.13 2
  419.4252 0.19 3
  419.6830 0.11 2
  419.9461 0.17 3
  420.2286 0.13 2
  420.3722 0.24 4
  420.5097 0.05 1
  420.6634 0.13 2
  420.9873 0.15 3
  421.2017 0.35 6
  421.3900 0.35 6
  421.6105 0.09 2
  422.1088 0.11 2
  422.3646 0.32 6
  422.5597 0.10 2
  422.7654 0.18 3
  423.0834 0.13 2
  423.3326 0.32 6
  423.4969 0.13 2
  423.7154 0.06 1
  423.9733 0.08 1
  424.1877 0.22 4
  424.3354 0.16 3
  424.4797 0.08 1
  424.6033 0.31 5
  424.8940 0.20 3
  425.0663 0.23 4
  425.2200 0.53 9
  425.3904 0.39 7
  425.5387 0.12 2
  425.7272 0.14 2
  426.2885 1.28 22
  426.5497 0.83 14
  426.7482 0.21 4
  427.2909 2.43 42
  427.7894 0.30 5
  428.2058 0.55 10
  428.5026 0.39 7
  428.6870 0.36 6
  428.8648 0.15 3
  429.2926 0.29 5
  429.5085 0.29 5
  429.7378 0.21 4
  429.8688 0.10 2
  430.1897 0.18 3
  430.2812 0.14 2
  430.4169 0.11 2
  430.5172 0.17 3
  430.9123 0.12 2
  431.0988 0.10 2
  431.2633 0.11 2
  431.4003 0.12 2
  431.6049 0.19 3
  432.0816 0.04 1
  432.2681 0.07 1
  432.5222 0.16 3
  432.6238 0.04 1
  433.0277 0.12 2
  433.2664 0.18 3
  433.3827 0.14 2
  433.5947 0.21 4
  433.7244 0.08 1
  433.9377 0.06 1
  434.0581 0.16 3
  434.1236 0.06 1
  434.4593 0.08 1
  434.6031 0.01 0
  434.7382 0.14 2
  435.1722 0.11 2
  435.3481 0.36 6
  435.5026 0.03 1
  435.7460 0.07 1
  436.1720 0.18 3
  436.4188 0.19 3
  436.7185 0.09 2
  436.8215 0.03 1
  436.9914 0.13 2
  437.2756 0.26 5
  437.4188 0.40 7
  437.6027 0.16 3
  438.1573 0.21 4
  438.3486 0.50 9
  438.4242 0.27 5
  438.7600 0.13 2
  438.9720 0.02 0
  439.1286 0.35 6
  439.3788 0.18 3
  439.6223 0.07 1
  439.8050 0.10 2
  440.1281 0.21 4
  440.2264 0.10 2
  440.4278 0.27 5
  440.6132 0.23 4
  440.8594 0.11 2
  440.9664 0.09 2
  441.2762 0.56 10
  441.5285 0.12 2
  441.6951 0.05 1
  441.8457 0.12 2
  441.9507 0.09 2
  442.2070 0.26 5
  442.3904 0.18 3
  442.5115 0.27 5
  442.7450 0.06 1
  442.8394 0.09 2
  443.0047 0.18 3
  443.1412 0.16 3
  443.3058 0.35 6
  443.4309 0.27 5
  443.5327 0.20 3
  443.6511 0.03 1
  443.8104 0.08 1
  444.1591 0.08 1
  444.3237 0.17 3
  444.4569 0.08 1
  444.6912 0.08 1
  444.9154 0.17 3
  445.2353 0.56 10
  445.4341 0.68 12
  445.6276 0.20 3
  445.7822 0.17 3
  446.0138 0.12 2
  446.0714 0.06 1
  446.3284 0.12 2
  446.4275 0.19 3
  446.5366 0.13 2
  446.7361 0.13 2
  446.8880 0.11 2
  447.1671 0.12 2
  447.2903 0.30 5
  447.6331 0.03 1
  448.1914 0.07 1
  448.3206 0.20 3
  448.4599 0.10 2
  448.7009 0.12 2
  448.8790 0.05 1
  449.1127 0.09 2
  449.4561 0.36 6
  449.6851 0.20 3
  450.0541 0.21 4
  450.4311 0.47 8
  450.7411 0.19 3
  450.9696 0.11 2
  451.0845 0.13 2
  451.2890 0.29 5
  451.3672 0.08 1
  451.5142 0.14 2
  451.5903 0.06 1
  451.7701 0.09 2
  452.0915 0.21 4
  452.3087 0.21 4
  452.4998 0.16 3
  452.7444 0.09 2
  453.0732 0.02 0
  453.5663 0.07 1
  453.6586 0.09 2
  453.7648 0.07 1
  453.8845 0.06 1
  454.0789 0.19 3
  454.5461 0.14 2
  454.6443 0.13 2
  454.8328 0.23 4
  455.1510 0.10 2
  455.2733 0.15 3
  455.4337 0.36 6
  455.5661 0.13 2
  455.8314 0.15 3
  456.0199 0.14 2
  456.1670 0.18 3
  456.5085 0.19 3
  456.6108 0.13 2
  457.0654 0.15 3
  457.3782 0.44 8
  457.6042 0.19 3
  457.8709 0.13 2
  458.3576 4.41 77
  458.8991 0.31 5
  459.0142 0.36 6
  459.3210 0.22 4
  459.4380 0.30 5
  459.5383 0.21 4
  459.6232 0.13 2
  459.7476 0.07 1
  459.8787 0.08 1
  460.0378 0.22 4
  460.2317 0.21 4
  460.3494 0.11 2
  460.5078 0.10 2
  460.6837 0.15 3
  460.8448 0.21 4
  460.9465 0.35 6
  461.1979 0.14 2
  461.3778 0.52 9
  461.6353 0.12 2
  461.7349 0.09 2
  462.0499 0.12 2
  462.1903 0.14 2
  462.3140 0.09 2
  462.3909 0.04 1
  462.5762 0.13 2
  462.6812 0.08 1
  462.8296 0.11 2
  463.0590 0.40 7
  463.5031 0.55 10
  463.7151 0.50 9
  464.0743 0.69 12
  464.2843 0.37 6
  464.6368 0.84 15
  464.8174 0.39 7
  465.0133 0.78 14
  465.4662 0.57 10
  465.7210 0.40 7
  466.0562 0.21 4
  466.4067 0.29 5
  466.6428 0.21 4
  466.9044 0.10 2
  466.9807 0.08 1
  467.1707 0.24 4
  467.4603 0.17 3
  467.6503 0.04 1
  467.7621 0.03 1
  468.0136 0.06 1
  468.1748 0.07 1
  468.3702 0.13 2
  468.7823 0.16 3
  469.2132 0.26 5
  469.4989 0.21 4
  469.7358 0.11 2
  469.9131 0.14 2
  470.0871 0.14 2
  470.2175 0.20 3
  470.3714 0.12 2
  470.5093 0.42 7
  470.8258 0.13 2
  471.0479 0.06 1
  471.2735 0.31 5
  471.4120 0.11 2
  471.5545 0.27 5
  471.6683 0.07 1
  472.0993 0.07 1
  472.3221 0.10 2
  472.5597 0.19 3
  472.7812 0.18 3
  473.1199 0.32 6
  473.3688 0.04 1
  473.5596 0.12 2
  473.9485 0.29 5
  474.3018 0.11 2
  474.4598 0.17 3
  474.8005 0.10 2
  475.2108 0.20 3
  475.3534 0.13 2
  475.5415 0.30 5
  475.6412 0.09 2
  475.8420 0.16 3
  476.0810 0.28 5
  476.1727 0.22 4
  476.3990 0.24 4
  476.5737 0.19 3
  476.7210 0.20 3
  476.8288 0.11 2
  476.9961 0.22 4
  477.2590 0.35 6
  477.5417 0.50 9
  477.6861 0.30 5
  477.8612 0.16 3
  478.1667 0.33 6
  478.4227 0.82 14
  478.6693 0.13 2
  479.4206 1.81 32
  479.8103 0.43 8
  480.0109 0.13 2
  480.1833 0.28 5
  480.4287 0.22 4
  480.5945 0.12 2
  480.8164 0.16 3
  481.0891 0.44 8
  481.2857 0.47 8
  481.5170 0.43 8
  482.0405 0.76 13
  482.3975 0.90 16
  482.6161 0.77 13
  482.7692 0.34 6
  482.9324 0.14 2
  483.1122 0.30 5
  483.3469 0.34 6
  483.5107 0.17 3
  483.6050 0.09 2
  483.7434 0.27 5
  483.9259 0.21 4
  484.0302 0.13 2
  484.1907 0.17 3
  484.3693 0.08 1
  484.5378 0.16 3
  484.6735 0.14 2
  484.8293 0.14 2
  485.0600 0.18 3
  485.2666 0.15 3
  485.4285 0.12 2
  485.5442 0.05 1
  485.6652 0.11 2
  485.9501 0.36 6
  486.1346 0.12 2
  486.3052 0.15 3
  486.5426 0.21 4
  486.8054 0.10 2
  487.0702 0.22 4
  487.4307 0.10 2
  488.2955 0.22 4
  488.4794 0.24 4
  488.9965 0.11 2
  489.1295 0.09 2
  489.3984 0.11 2
  489.5469 0.11 2
  489.6888 0.12 2
  489.7884 0.04 1
  490.0821 0.11 2
  490.2754 0.19 3
  490.3998 0.19 3
  490.5490 0.38 7
  490.6513 0.24 4
  491.0527 0.11 2
  491.3892 0.60 10
  491.6320 0.62 11
  491.7812 0.13 2
  491.9431 0.17 3
  492.2301 0.27 5
  492.4094 0.49 9
  492.6576 0.11 2
  492.7740 0.09 2
  492.9607 0.18 3
  493.3821 0.89 16
  494.3751 4.30 75
  494.6306 1.38 24
  494.8214 0.44 8
  495.1118 0.15 3
  495.4236 0.10 2
  495.5514 0.17 3
  495.6732 0.22 4
  495.9167 0.10 2
  496.1617 0.30 5
  496.2574 0.14 2
  497.4632 0.11 2
  497.9632 0.13 2
  498.3593 0.09 2
  498.5896 0.08 1
  499.0467 0.16 3
  499.2796 0.09 2
  499.4249 0.12 2
  499.8258 0.11 2
  500.3981 0.12 2
  501.1765 0.01 0
  501.3352 0.10 2
  501.4577 0.08 1
  501.9028 0.04 1
  502.3915 0.10 2
  502.5267 0.25 4
  502.7142 0.11 2
  503.0174 0.09 2
  503.1644 0.09 2
  503.2259 0.04 1
  503.4331 0.05 1
  503.6169 0.23 4
  503.8235 0.10 2
  503.9004 0.05 1
  504.0641 0.08 1
  504.1878 0.07 1
  504.3656 0.18 3
  504.5635 0.32 6
  504.6477 0.08 1
  505.0876 0.35 6
  505.3108 0.13 2
  505.5555 0.07 1
  505.6624 0.10 2
  506.0041 0.10 2
  506.1270 0.15 3
  506.3209 0.47 8
  506.5456 0.48 8
  506.7013 0.13 2
  506.8357 0.14 2
  507.3137 0.25 4
  507.5203 0.17 3
  507.8379 0.17 3
  508.4510 0.15 3
  508.6616 0.12 2
  508.9565 0.12 2
  509.1303 0.13 2
  509.3984 0.05 1
  509.5355 0.16 3
  509.9380 0.22 4
  510.0992 0.08 1
  510.2864 0.21 4
  510.4101 0.11 2
  510.6114 0.02 0
  510.7759 0.07 1
  510.9243 0.22 4
  511.2520 0.18 3
  511.3804 0.26 5
  511.5195 0.18 3
  511.6365 0.10 2
  511.7455 0.08 1
  512.2184 0.17 3
  512.4197 0.11 2
  512.5541 0.12 2
  512.6504 0.12 2
  512.8637 0.11 2
  512.9841 0.11 2
  513.1246 0.11 2
  513.2369 0.13 2
  513.3780 0.11 2
  513.5192 0.10 2
  514.0027 0.28 5
  514.1739 0.23 4
  514.3766 0.17 3
  514.5786 0.32 6
  514.6996 0.05 1
  514.8140 0.13 2
  514.9913 0.13 2
  515.1310 0.13 2
  515.4173 0.24 4
  515.5384 0.11 2
  516.0956 0.12 2
  516.1792 0.09 2
  516.3999 0.20 3
  516.5451 0.11 2
  516.7504 0.03 1
  516.8381 0.02 0
  516.9558 0.09 2
  517.1826 0.24 4
  517.4080 0.81 14
  517.6160 0.53 9
  517.9224 0.25 4
  518.1412 0.26 5
  518.2844 0.24 4
  518.4717 0.13 2
  518.7219 0.22 4
  519.4056 0.21 4
  519.7267 0.24 4
  520.0519 0.25 4
  520.2499 0.36 6
  520.4199 0.43 8
  520.6193 0.41 7
  520.8187 0.13 2
  521.0234 0.21 4
  521.1659 0.06 1
  521.3058 0.10 2
  521.3834 0.06 1
  521.5587 0.52 9
  521.6938 0.33 6
  521.7989 0.13 2
  522.0579 0.15 3
  522.5517 0.45 8
  522.7410 0.16 3
  522.9512 0.13 2
  523.0542 0.16 3
  523.3962 0.12 2
  523.5996 0.39 7
  523.8057 0.36 6
  523.9636 0.47 8
  524.1222 0.48 8
  524.3310 0.34 6
  524.4622 0.24 4
  524.5793 0.23 4
  524.8323 0.43 8
  524.9655 0.18 3
  525.2479 0.82 14
  525.4835 0.51 9
  525.6367 0.41 7
  525.8033 1.06 19
  525.9914 0.42 7
  526.1915 0.39 7
  526.5590 0.67 12
  526.7704 0.62 11
  526.9424 0.60 10
  527.0770 0.38 7
  527.2831 0.84 15
  527.6232 0.58 10
  527.9464 1.02 18
  528.1185 0.51 9
  528.5670 1.06 19
  528.8661 0.84 15
  529.0830 1.01 18
  530.3408 1.40 24
  531.3015 1.72 30
  532.5668 7.18 125
  532.8185 3.87 68
  534.3993 3.46 60
  535.5356 57.21 999
  536.4222 1.93 34
  536.6251 1.38 24
  537.0831 0.70 12
  537.3477 0.34 6
  537.7421 0.61 11
  538.0261 0.60 10
  538.3709 0.48 8
  538.7306 0.65 11
  539.1022 0.55 10
  539.3220 0.53 9
  539.6407 0.38 7
  539.8926 0.53 9
  540.0881 0.65 11
  540.2870 0.64 11
  540.5235 0.49 9
  540.8048 0.74 13
  540.9984 0.58 10
  541.2944 0.64 11
  541.6039 0.36 6
  542.1444 0.76 13
  542.5557 0.78 14
  543.2289 0.76 13
  543.7621 1.20 21
  543.9838 1.03 18
  544.8581 1.77 31
  545.0403 1.33 23
  545.5843 2.46 43
  550.3890 99.96 999
  551.3270 32.31 564
  552.2264 13.50 236
  553.1138 7.63 133
  553.8669 3.74 65
  554.9689 2.36 41
  555.2535 1.87 33
//
