ACCESSION: MSBNK-Kyoto_Univ-CA000142
RECORD_TITLE: Amarouciaxanthin A; FAB-EBEB; MS2; m/z: 614.40; [M]*+
DATE: 2016.01.19 (Created 2007.03.15, modified 2011.05.10)
AUTHORS: Akimoto N, Graduate School of Pharmaceutical Sciences, Kyoto University and Maoka T, Research Institute for Production Development
LICENSE: CC BY-SA
COMMENT: Profile spectrum of this record is given as a JPEG file.
COMMENT: [Profile] CA000142.jpg
CH$NAME: Amarouciaxanthin A
CH$COMPOUND_CLASS: Natural Product; Carotenoid
CH$FORMULA: C40H54O5
CH$EXACT_MASS: 614.39712
CH$SMILES: CC1=CC(=O)CC([C@]1(CC(=O)/C(=C/C=C/C(=C/C=C/C=C(\C)/C=C/C=C(\C)/C=C=C2[C@](C[C@H](CC2(C)C)O)(C)O)/C)/C)O)(C)C
CH$IUPAC: InChI=1S/C40H54O5/c1-28(17-13-18-30(3)21-22-36-37(6,7)24-34(42)26-39(36,10)44)15-11-12-16-29(2)19-14-20-31(4)35(43)27-40(45)32(5)23-33(41)25-38(40,8)9/h11-21,23,34,42,44-45H,24-27H2,1-10H3/b12-11+,17-13+,19-14+,28-15+,29-16+,30-18+,31-20+/t22?,34-,39+,40+/m0/s1
CH$LINK: INCHIKEY NBAOGGCOLYTLDU-MEPQDIAVSA-N
CH$LINK: CHEMSPIDER 10470395
CH$LINK: PUBCHEM CID:16061220
AC$INSTRUMENT: JMS-HX/HX 110A, JEOL
AC$INSTRUMENT_TYPE: FAB-EBEB
AC$MASS_SPECTROMETRY: MS_TYPE MS2
AC$MASS_SPECTROMETRY: ION_MODE POSITIVE
AC$MASS_SPECTROMETRY: ATOM_GUN_CURRENT 5 mA
AC$MASS_SPECTROMETRY: BOMBARDMENT 6 kV xenon
AC$MASS_SPECTROMETRY: COLLISION_ENERGY 3 kV
AC$MASS_SPECTROMETRY: COLLISION_GAS Ar
AC$MASS_SPECTROMETRY: GAS_PRESSURE adjust to attenuate the intensity of the precursor ion by 30 %
AC$MASS_SPECTROMETRY: IONIZATION FAB
AC$MASS_SPECTROMETRY: MATRIX 1-2 uL m-NBA
AC$MASS_SPECTROMETRY: PROBE_TIP stainless-steel
MS$FOCUSED_ION: BASE_PEAK 614.4901
MS$FOCUSED_ION: PRECURSOR_M/Z 614.40
MS$FOCUSED_ION: PRECURSOR_TYPE [M]+*
PK$SPLASH: splash10-0904-2920011000-7b821ee501197bc3cfb8
PK$NUM_PEAK: 1806
PK$PEAK: m/z int. rel.int.
  0.0808 0.01 0
  0.2720 0.01 0
  0.4995 0.01 0
  0.8476 0.01 0
  2.2434 0.01 0
  2.7667 0.01 0
  3.9235 0.01 0
  5.4406 0.01 0
  5.8196 0.01 0
  8.4173 0.01 0
  10.3575 0.01 0
  11.4221 0.01 0
  12.3127 0.01 0
  12.9717 0.19 2
  14.3468 0.01 0
  14.9806 0.53 5
  16.8433 0.04 0
  18.6669 0.01 0
  20.4316 0.01 0
  22.9357 0.16 2
  24.9733 0.04 0
  25.9626 0.31 3
  26.9670 2.39 24
  27.9743 0.26 3
  28.9804 1.50 15
  30.9576 0.21 2
  33.1007 0.01 0
  35.9317 0.05 0
  36.4598 0.05 0
  36.9379 0.14 1
  37.2001 0.01 0
  37.9642 0.63 6
  38.3794 0.09 1
  38.7697 0.01 0
  38.9688 5.26 53
  39.4676 0.01 0
  39.9793 1.11 11
  40.4640 0.09 1
  40.5787 0.03 0
  40.9861 9.24 92
  41.9762 0.54 5
  42.9645 36.82 368
  43.3688 0.08 1
  43.5525 0.02 0
  43.9510 0.03 0
  44.9764 0.43 4
  47.8607 0.01 0
  48.9537 0.16 2
  49.3639 0.03 0
  49.9495 0.78 8
  50.9727 2.99 30
  51.9802 1.09 11
  52.9801 4.13 41
  53.8586 0.04 0
  53.9944 0.35 3
  54.9919 11.15 111
  55.2058 0.01 0
  55.6555 0.01 0
  55.9981 0.54 5
  57.0056 1.90 19
  57.9813 0.28 3
  59.0044 1.40 14
  60.9726 0.36 4
  61.9584 0.45 4
  62.0973 0.04 0
  62.2098 0.07 1
  62.9693 1.40 14
  63.9829 0.29 3
  64.1740 0.03 0
  64.9821 4.21 42
  65.1877 0.01 0
  65.6216 0.06 1
  65.9888 1.21 12
  66.4734 0.11 1
  66.9922 5.88 59
  67.2385 0.03 0
  67.9766 0.84 8
  68.6497 0.02 0
  68.9895 15.47 155
  69.1850 0.03 0
  69.3361 0.05 0
  69.9912 0.45 4
  70.1974 0.08 1
  70.6829 0.01 0
  70.9914 2.44 24
  71.3535 0.01 0
  71.9345 0.04 0
  72.0345 0.06 1
  72.8654 0.07 1
  72.9939 0.16 2
  73.1095 0.04 0
  73.9512 0.36 4
  74.9653 0.96 10
  75.1544 0.11 1
  75.2898 0.11 1
  75.4648 0.07 1
  75.9669 0.76 8
  76.5891 0.07 1
  76.9723 11.40 114
  77.2941 0.06 1
  77.3756 0.08 1
  77.4614 0.09 1
  77.7127 0.04 0
  77.9839 2.47 25
  78.2500 0.10 1
  78.5815 0.05 0
  78.7398 0.07 1
  78.9868 10.13 101
  79.3651 0.05 0
  79.9861 1.67 17
  80.5302 0.03 0
  81.0041 8.51 85
  81.2629 0.06 1
  81.9822 1.76 18
  82.1470 0.07 1
  82.9982 15.25 152
  83.9819 0.30 3
  84.9926 4.61 46
  85.7865 0.12 1
  85.9530 0.47 5
  86.7629 0.05 0
  86.9789 5.19 52
  87.8081 0.01 0
  87.9713 0.16 2
  88.0915 0.07 1
  88.3039 0.04 0
  88.5022 0.05 0
  88.6822 0.08 1
  88.9711 2.07 21
  89.2621 0.26 3
  89.4486 0.10 1
  89.5878 0.12 1
  89.9932 0.72 7
  90.2238 0.11 1
  90.5336 0.04 0
  90.9814 24.58 246
  91.4693 0.13 1
  91.9968 3.50 35
  92.5541 0.16 2
  92.7166 0.21 2
  93.0040 14.36 144
  93.2313 0.17 2
  93.3482 0.11 1
  93.5029 0.08 1
  93.7977 0.12 1
  93.9974 2.17 22
  94.2689 0.05 0
  94.4819 0.07 1
  94.6221 0.02 0
  95.0056 18.54 185
  95.3962 0.06 1
  95.5691 0.10 1
  95.6933 0.10 1
  95.9936 3.24 32
  96.2286 0.02 0
  97.0154 2.77 28
  97.3054 0.03 0
  97.9667 0.66 7
  98.1192 0.10 1
  98.5712 0.10 1
  99.0074 0.56 6
  99.9942 0.17 2
  100.5735 0.08 1
  100.9596 0.48 5
  101.1958 0.09 1
  101.3967 0.03 0
  101.5382 0.06 1
  101.9827 1.16 12
  102.2763 0.22 2
  102.5453 0.18 2
  102.6726 0.15 1
  102.9913 5.57 56
  103.1764 0.11 1
  103.2823 0.10 1
  103.3413 0.04 0
  103.4834 0.12 1
  103.5804 0.17 2
  103.6636 0.12 1
  104.0000 2.42 24
  104.4422 0.18 2
  104.6177 0.07 1
  105.0056 31.20 312
  105.2869 0.20 2
  105.4939 0.14 1
  105.6397 0.06 1
  106.0163 3.81 38
  106.2644 0.23 2
  106.4691 0.09 1
  106.6389 0.14 1
  107.0213 24.67 247
  107.2340 0.16 2
  107.3375 0.17 2
  107.4679 0.13 1
  108.0102 4.06 41
  108.4717 0.06 1
  108.5951 0.06 1
  109.0119 17.26 172
  109.3593 0.01 0
  109.5001 0.02 0
  109.6326 0.02 0
  110.0104 1.66 17
  110.1988 0.06 1
  110.3847 0.03 0
  110.7085 0.08 1
  111.0081 19.44 194
  111.4684 0.01 0
  111.9947 0.50 5
  112.1110 0.07 1
  112.4081 0.12 1
  112.5516 0.23 2
  113.0022 1.40 14
  113.1323 0.27 3
  113.2450 0.14 1
  113.3764 0.13 1
  113.4917 0.19 2
  113.6870 0.07 1
  113.9649 0.74 7
  114.1385 0.28 3
  114.3049 0.14 1
  114.5108 0.26 3
  114.9725 15.08 151
  115.4113 0.20 2
  115.6589 0.10 1
  115.9746 5.51 55
  116.3170 0.15 1
  116.5773 0.21 2
  116.9861 14.20 142
  117.2512 0.18 2
  117.3258 0.08 1
  117.4217 0.11 1
  117.9914 3.14 31
  118.3258 0.20 2
  118.5823 0.08 1
  118.9969 24.44 244
  119.3767 0.12 1
  119.7046 0.02 0
  120.0125 3.37 34
  120.2997 0.23 2
  120.4358 0.04 0
  120.5492 0.11 1
  121.0009 15.19 152
  121.3635 0.01 0
  121.6396 0.10 1
  121.7381 0.13 1
  121.9895 2.58 26
  122.2252 0.04 0
  122.3441 0.11 1
  122.5310 0.03 0
  122.7323 0.09 1
  122.9965 5.76 58
  123.3399 0.13 1
  123.4701 0.03 0
  123.7260 0.03 0
  123.9839 1.01 10
  124.1706 0.13 1
  124.3894 0.20 2
  124.5526 0.04 0
  125.0030 18.79 188
  125.2633 0.12 1
  125.3663 0.07 1
  125.5055 0.02 0
  125.6695 0.11 1
  125.7503 0.08 1
  125.9860 0.71 7
  126.1285 0.10 1
  126.3584 0.06 1
  126.4806 0.13 1
  126.6121 0.20 2
  126.9526 6.42 64
  127.4374 0.25 2
  127.9593 18.56 185
  128.1799 0.40 4
  128.2998 0.30 3
  128.5014 0.29 3
  128.9654 20.56 205
  129.2918 0.09 1
  129.3736 0.04 0
  129.5188 0.12 1
  129.9768 8.12 81
  130.3380 0.16 2
  130.5249 0.12 1
  130.9776 18.78 188
  131.4048 0.12 1
  131.5668 0.09 1
  131.6886 0.12 1
  131.9804 5.64 56
  132.2664 0.13 1
  132.4823 0.09 1
  132.9877 16.77 168
  133.4259 0.16 2
  133.6222 0.04 0
  133.9824 2.63 26
  134.4430 0.05 0
  134.5579 0.10 1
  134.9816 23.10 231
  135.2268 0.13 1
  135.3398 0.04 0
  135.4275 0.02 0
  135.6436 0.10 1
  135.9781 2.47 25
  136.3952 0.08 1
  136.9717 5.35 53
  137.3920 0.14 1
  137.9594 7.65 76
  138.9639 10.30 103
  139.5188 0.28 3
  139.7208 0.06 1
  139.9610 1.14 11
  140.2922 0.24 2
  140.3853 0.16 2
  140.9544 15.96 160
  141.2552 0.12 1
  141.5072 0.07 1
  141.6258 0.13 1
  141.9711 12.78 128
  142.3581 0.01 0
  142.5319 0.26 3
  142.9796 21.75 217
  143.3052 0.27 3
  143.4227 0.14 1
  143.9797 8.61 86
  144.2916 0.14 1
  144.9923 24.63 246
  145.2473 0.14 1
  145.4944 0.15 1
  145.9798 5.19 52
  146.2688 0.09 1
  146.4527 0.16 2
  146.5982 0.07 1
  146.9905 16.68 167
  147.3115 0.13 1
  147.4234 0.11 1
  147.9841 3.69 37
  148.3439 0.04 0
  148.4836 0.20 2
  149.0077 18.61 186
  149.2455 0.15 1
  149.3598 0.16 2
  149.5598 0.11 1
  149.6977 0.08 1
  150.0087 1.16 12
  150.3611 0.19 2
  150.5194 0.19 2
  150.9918 7.59 76
  151.2646 0.12 1
  151.3682 0.13 1
  151.9663 6.42 64
  152.2251 0.47 5
  152.3648 0.17 2
  152.5383 0.27 3
  153.0028 44.75 447
  153.5434 0.62 6
  154.0036 12.14 121
  154.6080 0.23 2
  154.9986 16.81 168
  155.3289 0.12 1
  155.4329 0.11 1
  156.0142 9.86 99
  156.2054 0.27 3
  156.2897 0.12 1
  156.5088 0.20 2
  157.0227 19.37 194
  157.3263 0.02 0
  157.4891 0.07 1
  158.0259 5.29 53
  158.2480 0.33 3
  158.3905 0.06 1
  158.5595 0.02 0
  159.0273 22.84 228
  159.3676 0.18 2
  159.5218 0.14 1
  159.7108 0.10 1
  160.0261 3.78 38
  160.2500 0.08 1
  160.4446 0.22 2
  160.6536 0.16 2
  161.0313 14.85 148
  161.3012 0.06 1
  161.5363 0.09 1
  161.6976 0.22 2
  162.0292 1.30 13
  162.3219 0.14 1
  162.4738 0.08 1
  163.0417 4.26 43
  163.2668 0.20 2
  163.5119 0.13 1
  163.6112 0.15 1
  164.0385 1.03 10
  164.3433 0.23 2
  165.0177 12.95 129
  165.4050 0.19 2
  165.6094 0.33 3
  166.0292 4.35 43
  166.3881 0.19 2
  166.5542 0.24 2
  167.0629 42.92 429
  167.5340 0.33 3
  167.7868 0.18 2
  168.0506 4.40 44
  168.3036 0.24 2
  168.4094 0.05 0
  168.5448 0.11 1
  169.0592 13.95 139
  169.3281 0.13 1
  169.5021 0.23 2
  169.7168 0.14 1
  170.0671 6.12 61
  170.3066 0.28 3
  170.4023 0.14 1
  170.7232 0.23 2
  171.0731 12.09 121
  171.3066 0.32 3
  171.4574 0.05 0
  171.6826 0.17 2
  172.0719 5.43 54
  172.4064 0.17 2
  172.5438 0.27 3
  172.6977 0.25 2
  173.0743 13.74 137
  173.3761 0.16 2
  173.6181 0.30 3
  174.0706 2.44 24
  174.2825 0.19 2
  174.5247 0.08 1
  175.0759 6.65 66
  175.3093 0.12 1
  175.4559 0.11 1
  175.6618 0.20 2
  175.7837 0.15 1
  176.0448 1.35 13
  176.3127 0.17 2
  176.4767 0.09 1
  176.6400 0.07 1
  177.0625 2.52 25
  177.2631 0.11 1
  177.4507 0.14 1
  177.5638 0.04 0
  178.0314 6.37 64
  178.5005 0.40 4
  178.7124 0.14 1
  179.0458 10.58 106
  179.2936 0.14 1
  180.0561 3.75 37
  180.2426 0.33 3
  180.5128 0.26 3
  180.6441 0.16 2
  180.7664 0.19 2
  181.0608 10.47 105
  181.3968 0.23 2
  181.5780 0.20 2
  181.7115 0.15 1
  182.0629 5.06 51
  182.4281 0.07 1
  182.6918 0.03 0
  183.0683 13.28 133
  183.3799 0.13 1
  183.6174 0.24 2
  183.8002 0.25 2
  184.0668 4.28 43
  184.3883 0.25 2
  184.5428 0.08 1
  185.0619 9.79 98
  185.3697 0.17 2
  185.5728 0.13 1
  186.0423 1.85 18
  186.4051 0.12 1
  186.5376 0.09 1
  187.0615 6.76 68
  187.3926 0.12 1
  187.7182 0.10 1
  188.0668 0.79 8
  188.2453 0.13 1
  188.3565 0.03 0
  188.4704 0.11 1
  188.6747 0.18 2
  189.0457 5.31 53
  189.4982 0.11 1
  189.8020 0.25 2
  190.0453 1.35 13
  190.1865 0.34 3
  190.4967 0.22 2
  191.0456 4.92 49
  191.3100 0.09 1
  191.4659 0.10 1
  192.0499 3.81 38
  192.3654 0.10 1
  192.5534 0.04 0
  192.6634 0.12 1
  193.0514 8.80 88
  193.2841 0.18 2
  193.4423 0.05 0
  193.6214 0.02 0
  194.0521 5.00 50
  194.3477 0.14 1
  195.0611 12.03 120
  195.5243 0.09 1
  195.7113 0.11 1
  196.0595 4.33 43
  196.2731 0.19 2
  196.3925 0.03 0
  196.6591 0.15 1
  197.0690 12.62 126
  197.3023 0.24 2
  197.7472 0.18 2
  198.0490 2.58 26
  198.4236 0.05 0
  198.6304 0.16 2
  199.0618 6.65 66
  199.3051 0.10 1
  199.5610 0.10 1
  199.8470 0.28 3
  200.0681 1.55 15
  200.4165 0.07 1
  200.5242 0.20 2
  200.7397 0.23 2
  201.0589 3.42 34
  201.3501 0.37 4
  201.5160 0.21 2
  202.0229 3.09 31
  202.4971 0.25 2
  203.0414 4.37 44
  203.3469 0.20 2
  203.4920 0.02 0
  203.6819 0.09 1
  204.0359 1.26 13
  204.2659 0.05 0
  204.5211 0.07 1
  205.0457 4.80 48
  205.3495 0.10 1
  205.4540 0.12 1
  205.7578 0.13 1
  206.0568 2.92 29
  206.3726 0.02 0
  206.5741 0.09 1
  207.0635 8.51 85
  207.4862 0.09 1
  207.7426 0.18 2
  208.0777 2.91 29
  208.3426 0.19 2
  208.5562 0.26 3
  209.0721 10.69 107
  209.3856 0.14 1
  209.5937 0.12 1
  210.0620 3.39 34
  210.3469 0.18 2
  210.5213 0.06 1
  210.7218 0.07 1
  211.0750 9.37 94
  211.6239 0.24 2
  212.0949 2.15 21
  212.3342 0.22 2
  212.5976 0.22 2
  213.0730 4.94 49
  213.3582 0.09 1
  213.5985 0.12 1
  214.0776 1.39 14
  214.2982 0.23 2
  214.6851 0.35 3
  215.0722 5.16 52
  215.4219 0.13 1
  215.5799 0.21 2
  216.0461 1.85 18
  216.3494 0.22 2
  217.0522 2.97 30
  217.3585 0.11 1
  217.4904 0.10 1
  217.6648 0.25 2
  218.0877 2.31 23
  218.4944 0.24 2
  218.6999 0.18 2
  219.0679 4.55 45
  219.3208 0.14 1
  219.6338 0.07 1
  220.0903 2.63 26
  220.3560 0.12 1
  221.0990 4.62 46
  221.3677 0.24 2
  221.5657 0.25 2
  222.1032 2.30 23
  222.3890 0.12 1
  222.4916 0.18 2
  222.6416 0.08 1
  223.0867 5.61 56
  223.4109 0.11 1
  223.6232 0.56 6
  224.0848 1.87 19
  224.5479 0.12 1
  225.0960 5.57 56
  225.4353 0.28 3
  225.6280 0.05 0
  226.0801 1.51 15
  226.4862 0.21 2
  226.6223 0.12 1
  226.7052 0.10 1
  227.1206 3.93 39
  227.3078 0.30 3
  227.4056 0.11 1
  227.5921 0.16 2
  228.0835 1.50 15
  228.3900 0.17 2
  228.5872 0.05 0
  229.1107 4.97 50
  229.3591 0.16 2
  229.6998 0.20 2
  230.0838 1.75 17
  230.4891 0.18 2
  230.6879 0.22 2
  231.1062 3.43 34
  231.3739 0.16 2
  231.5046 0.27 3
  231.6339 0.43 4
  231.7461 0.05 0
  232.1333 1.61 16
  232.5354 0.23 2
  233.1345 12.72 127
  233.4330 0.11 1
  233.7472 0.10 1
  233.8738 0.12 1
  234.1333 1.59 16
  234.2983 0.35 3
  234.4864 0.12 1
  234.6730 0.08 1
  235.1574 6.27 63
  235.4476 0.15 1
  236.1160 1.22 12
  236.5390 0.14 1
  236.7350 0.16 2
  237.1311 3.62 36
  237.6452 0.16 2
  238.1210 0.59 6
  238.5721 0.05 0
  238.7496 0.25 2
  239.1411 3.23 32
  239.5547 0.27 3
  239.6357 0.14 1
  240.1211 0.90 9
  240.4588 0.30 3
  240.8093 0.21 2
  241.1392 2.32 23
  241.4485 0.13 1
  241.6078 0.06 1
  241.7714 0.12 1
  242.1320 0.72 7
  242.5276 0.10 1
  242.7432 0.16 2
  242.8243 0.08 1
  243.1132 2.29 23
  243.3238 0.13 1
  243.4519 0.09 1
  243.6057 0.10 1
  244.0975 1.30 13
  244.3481 0.16 2
  244.4556 0.03 0
  244.7006 0.19 2
  245.1235 3.20 32
  245.3749 0.18 2
  245.5380 0.02 0
  245.6378 0.02 0
  246.1442 2.99 30
  246.3480 0.32 3
  247.1140 3.63 36
  247.4725 0.16 2
  247.5673 0.08 1
  247.7947 0.11 1
  248.1369 1.46 15
  248.5048 0.08 1
  248.7294 0.18 2
  249.1309 3.72 37
  249.5752 0.22 2
  249.8020 0.16 2
  250.1345 0.98 10
  250.4249 0.02 0
  250.7174 0.15 1
  251.1449 2.31 23
  251.5346 0.06 1
  251.7188 0.12 1
  251.8537 0.10 1
  252.1278 0.56 6
  252.6055 0.14 1
  253.1239 2.81 28
  253.4353 0.03 0
  253.6467 0.12 1
  254.0989 0.79 8
  254.2947 0.12 1
  254.4783 0.07 1
  254.6770 0.16 2
  255.1386 1.41 14
  255.4831 0.11 1
  255.6068 0.04 0
  255.8920 0.09 1
  256.1214 0.97 10
  256.3023 0.14 1
  256.5397 0.13 1
  256.7835 0.10 1
  257.1325 2.71 27
  257.3692 0.25 2
  257.4779 0.10 1
  257.6010 0.12 1
  258.1067 1.14 11
  258.2233 0.43 4
  258.4851 0.06 1
  258.8816 0.27 3
  259.1420 2.14 21
  259.3982 0.13 1
  259.5786 0.20 2
  259.7854 0.10 1
  260.1613 1.17 12
  260.7726 0.11 1
  261.1478 2.53 25
  261.3868 0.19 2
  261.4842 0.08 1
  262.1549 0.87 9
  262.4041 0.10 1
  262.5609 0.09 1
  262.7485 0.09 1
  263.1509 2.02 20
  263.6107 0.11 1
  263.7762 0.06 1
  264.1115 0.74 7
  264.3321 0.14 1
  265.1310 2.17 22
  265.7173 0.13 1
  265.8721 0.06 1
  266.1423 0.68 7
  266.5222 0.07 1
  266.6864 0.08 1
  266.8298 0.07 1
  267.1718 0.82 8
  267.4737 0.17 2
  267.7355 0.10 1
  268.1249 0.63 6
  268.2935 0.20 2
  268.4656 0.07 1
  268.5697 0.07 1
  268.8552 0.18 2
  269.1451 1.25 12
  269.7169 0.10 1
  270.1267 0.72 7
  270.5265 0.10 1
  270.7885 0.08 1
  271.1237 2.19 22
  271.4727 0.02 0
  271.6263 0.05 0
  271.7800 0.11 1
  272.1642 0.74 7
  272.4471 0.17 2
  272.6274 0.14 1
  272.8314 0.23 2
  273.1532 2.95 29
  273.8177 0.15 1
  274.1769 1.11 11
  274.3451 0.11 1
  274.8934 0.34 3
  275.1730 2.36 24
  275.5331 0.03 0
  275.6690 0.06 1
  276.1435 1.00 10
  276.2916 0.30 3
  276.4008 0.08 1
  276.8093 0.10 1
  277.1645 1.62 16
  277.4206 0.07 1
  277.7565 0.10 1
  277.9025 0.12 1
  278.1586 0.55 5
  278.4370 0.18 2
  278.7931 0.04 0
  279.1709 1.89 19
  279.4522 0.08 1
  279.5601 0.12 1
  279.6873 0.10 1
  280.1501 0.70 7
  280.4979 0.19 2
  280.7595 0.18 2
  281.1986 1.13 11
  281.9261 0.11 1
  282.1332 0.56 6
  282.3395 0.26 3
  282.5085 0.07 1
  282.6696 0.09 1
  283.1672 1.45 14
  283.4125 0.13 1
  283.6506 0.17 2
  284.1692 0.86 9
  284.4411 0.11 1
  284.7268 0.11 1
  285.1894 3.47 35
  285.5392 0.12 1
  285.6284 0.05 0
  285.7119 0.03 0
  286.1638 1.43 14
  286.6879 0.10 1
  286.8456 0.19 2
  287.1947 2.15 21
  287.5309 0.05 0
  287.8132 0.10 1
  288.1819 0.78 8
  288.3785 0.11 1
  288.5989 0.07 1
  289.1542 1.23 12
  289.4978 0.10 1
  289.6095 0.12 1
  289.7305 0.06 1
  290.1556 0.65 6
  291.1716 1.22 12
  291.4895 0.06 1
  291.8643 0.04 0
  292.2017 0.60 6
  292.4734 0.06 1
  293.2060 1.34 13
  293.4807 0.05 0
  293.7245 0.12 1
  293.9898 0.18 2
  294.2012 0.33 3
  294.6238 0.16 2
  295.1526 1.28 13
  296.1851 0.58 6
  296.4352 0.06 1
  296.5325 0.09 1
  296.6298 0.05 0
  296.8337 0.14 1
  297.1905 1.99 20
  297.5531 0.04 0
  297.8083 0.12 1
  298.1933 1.63 16
  298.5920 0.11 1
  298.7246 0.02 0
  298.8386 0.08 1
  299.2078 4.32 43
  299.4919 0.11 1
  299.6109 0.09 1
  299.7480 0.17 2
  299.9564 0.16 2
  300.1786 0.68 7
  300.7614 0.13 1
  300.8256 0.06 1
  301.1957 1.63 16
  301.4223 0.14 1
  301.6654 0.08 1
  301.7737 0.12 1
  301.9367 0.13 1
  302.2174 0.38 4
  302.4982 0.08 1
  302.6404 0.07 1
  303.1506 1.53 15
  303.4148 0.08 1
  303.6733 0.08 1
  304.1772 0.44 4
  305.1418 0.83 8
  305.3217 0.38 4
  305.5369 0.12 1
  305.7774 0.11 1
  305.9702 0.13 1
  306.1458 0.37 4
  306.2693 0.07 1
  306.6391 0.04 0
  307.1433 1.76 18
  307.2987 0.65 6
  307.6412 0.09 1
  307.7922 0.27 3
  308.1072 1.67 17
  308.6572 0.06 1
  309.2057 0.58 6
  309.4060 0.27 3
  309.5628 0.07 1
  309.7768 0.12 1
  310.2033 0.52 5
  310.6198 0.02 0
  311.2011 1.99 20
  311.7102 0.15 1
  311.8643 0.06 1
  312.2368 0.81 8
  312.4306 0.24 2
  312.6722 0.10 1
  312.8624 0.06 1
  313.1836 1.07 11
  313.5085 0.14 1
  313.7914 0.14 1
  313.8984 0.07 1
  314.1683 0.27 3
  314.2805 0.24 2
  314.5685 0.11 1
  315.1503 0.67 7
  315.4579 0.01 0
  315.8654 0.05 0
  316.1731 0.55 5
  316.7392 0.10 1
  317.1606 1.00 10
  317.5798 0.11 1
  317.6877 0.11 1
  318.1034 0.16 2
  318.3018 0.27 3
  318.4908 0.04 0
  318.9160 0.14 1
  319.1796 0.74 7
  319.4440 0.13 1
  319.7193 0.10 1
  320.2264 0.29 3
  320.7372 0.15 1
  320.8416 0.06 1
  321.2024 0.71 7
  321.5532 0.12 1
  321.7213 0.13 1
  321.8467 0.04 0
  322.1322 0.24 2
  322.3308 0.26 3
  322.9724 0.19 2
  323.1681 0.76 8
  323.5124 0.09 1
  323.8162 0.21 2
  323.9460 0.09 1
  324.1360 0.34 3
  324.2476 0.41 4
  324.7769 0.19 2
  325.1990 1.13 11
  325.4006 0.22 2
  325.7285 0.05 0
  325.8997 0.03 0
  326.1796 0.32 3
  326.2986 0.23 2
  326.5583 0.07 1
  327.1720 0.44 4
  327.7343 0.06 1
  327.8570 0.16 2
  328.1131 0.34 3
  328.7946 0.10 1
  329.1799 0.85 8
  329.4209 0.10 1
  329.9580 0.11 1
  330.1983 0.42 4
  330.2992 0.22 2
  330.5308 0.08 1
  330.9875 0.43 4
  331.2133 0.73 7
  331.3629 0.36 4
  331.4427 0.13 1
  331.6983 0.02 0
  331.9104 0.05 0
  332.1573 0.48 5
  332.3076 0.18 2
  332.9641 0.15 1
  333.2009 0.82 8
  333.3760 0.22 2
  334.0232 0.10 1
  334.2281 0.27 3
  334.4715 0.15 1
  335.1799 0.51 5
  336.0330 0.07 1
  336.2307 0.34 3
  336.5803 0.07 1
  336.9444 0.06 1
  337.1915 0.65 6
  337.2911 0.22 2
  337.8690 0.09 1
  338.0813 0.10 1
  338.2507 0.14 1
  338.3997 0.01 0
  339.2163 0.62 6
  339.3421 0.41 4
  339.5232 0.11 1
  339.7871 0.10 1
  340.2264 0.25 2
  340.4802 0.03 0
  341.2443 0.37 4
  341.9088 0.09 1
  342.0831 0.14 1
  342.2981 0.15 1
  343.1813 0.44 4
  343.4407 0.15 1
  343.9027 0.01 0
  344.2682 0.17 2
  345.0209 0.38 4
  345.2077 0.71 7
  345.3799 0.52 5
  345.8072 0.09 1
  345.9715 0.07 1
  346.1481 0.27 3
  346.2963 0.33 3
  346.5049 0.27 3
  346.7477 0.18 2
  347.2776 0.81 8
  347.4586 0.07 1
  347.7647 0.12 1
  348.2438 0.19 2
  348.4270 0.03 0
  349.2501 0.68 7
  350.0653 0.06 1
  350.1759 0.16 2
  350.3628 0.41 4
  350.5868 0.17 2
  350.7359 0.19 2
  351.2058 0.71 7
  351.4495 0.15 1
  351.7499 0.10 1
  351.9638 0.14 1
  352.2628 0.35 3
  352.9009 0.09 1
  353.1898 0.55 5
  353.4052 0.16 2
  354.0579 0.05 0
  354.2457 0.22 2
  354.4880 0.01 0
  354.8469 0.15 1
  355.1839 0.53 5
  355.3214 0.44 4
  355.8790 0.11 1
  356.2954 0.31 3
  356.6791 0.07 1
  357.0293 0.26 3
  357.2092 0.35 3
  357.3490 0.08 1
  357.4917 0.03 0
  358.2760 0.10 1
  358.4908 0.03 0
  358.6576 0.12 1
  359.0450 0.16 2
  359.2767 0.65 6
  359.4821 0.18 2
  359.8215 0.18 2
  360.1245 0.19 2
  360.3118 0.31 3
  360.8800 0.09 1
  361.2800 0.92 9
  361.5139 0.14 1
  361.9387 0.11 1
  362.2061 0.19 2
  362.4131 0.07 1
  362.7658 0.11 1
  363.3116 0.56 6
  364.2424 0.71 7
  364.5318 0.08 1
  364.6368 0.09 1
  364.7964 0.13 1
  365.3002 1.02 10
  365.6443 0.11 1
  365.7872 0.02 0
  366.1911 0.47 5
  366.3304 0.33 3
  366.6337 0.10 1
  366.8875 0.07 1
  367.1362 0.13 1
  367.2718 0.27 3
  367.4045 0.16 2
  367.6941 0.07 1
  367.9172 0.04 0
  368.2491 0.36 4
  368.4037 0.23 2
  368.4949 0.08 1
  368.6743 0.12 1
  368.8005 0.07 1
  369.0040 0.09 1
  369.3183 0.88 9
  369.9529 0.12 1
  370.3037 0.09 1
  370.4514 0.11 1
  370.6225 0.11 1
  370.7855 0.11 1
  371.2812 0.57 6
  371.4370 0.22 2
  371.5542 0.20 2
  371.7704 0.08 1
  372.1227 0.21 2
  372.2945 0.25 2
  372.8668 0.10 1
  373.0277 0.11 1
  373.2912 0.57 6
  373.4150 0.12 1
  373.5264 0.12 1
  373.6553 0.04 0
  373.7973 0.09 1
  374.0354 0.04 0
  374.2197 0.18 2
  374.4782 0.35 3
  374.7367 0.19 2
  375.2371 0.51 5
  375.4555 0.11 1
  375.6668 0.07 1
  375.9792 0.10 1
  376.2546 0.22 2
  376.7682 0.11 1
  377.3029 0.41 4
  377.4814 0.21 2
  378.0409 0.17 2
  378.2726 0.51 5
  378.3863 0.36 4
  378.7200 0.10 1
  379.2578 0.53 5
  379.4998 0.15 1
  379.5901 0.10 1
  379.8357 0.12 1
  380.3153 0.41 4
  380.4603 0.23 2
  380.7176 0.08 1
  380.8248 0.14 1
  381.2862 0.55 5
  381.4713 0.27 3
  381.7090 0.10 1
  381.9007 0.13 1
  382.1748 0.27 3
  382.3593 0.29 3
  382.5831 0.21 2
  383.2633 0.37 4
  383.7139 0.07 1
  384.3138 0.12 1
  385.1097 0.12 1
  385.2635 0.35 3
  385.4188 0.10 1
  385.5449 0.07 1
  385.7767 0.14 1
  385.9765 0.09 1
  386.0647 0.07 1
  386.3155 0.29 3
  386.9301 0.09 1
  387.0446 0.12 1
  387.2728 0.47 5
  387.4077 0.24 2
  387.5003 0.06 1
  388.2864 0.34 3
  389.0420 0.21 2
  389.3111 0.72 7
  389.4912 0.14 1
  389.8465 0.11 1
  389.9683 0.08 1
  390.2353 0.47 5
  390.3498 0.34 3
  390.4176 0.17 2
  391.2522 0.69 7
  391.4834 0.21 2
  391.6366 0.08 1
  392.0905 0.12 1
  392.3976 0.33 3
  392.9091 0.10 1
  393.2375 0.41 4
  393.4681 0.24 2
  394.2431 0.35 3
  394.7161 0.07 1
  394.9737 0.16 2
  395.1854 0.11 1
  395.3562 0.17 2
  395.5423 0.10 1
  395.8153 0.16 2
  396.2854 0.20 2
  396.9111 0.10 1
  397.2433 1.08 11
  397.6324 0.01 0
  397.8441 0.13 1
  398.1041 0.14 1
  398.3407 0.22 2
  398.5196 0.12 1
  399.2272 0.15 1
  399.4171 0.12 1
  399.9721 0.12 1
  400.2511 0.05 0
  400.4519 0.17 2
  400.6418 0.01 0
  400.8770 0.10 1
  401.2057 0.41 4
  401.3774 0.37 4
  401.5637 0.09 1
  401.6638 0.09 1
  402.0049 0.11 1
  402.1050 0.08 1
  402.3446 0.15 1
  402.5119 0.18 2
  402.7581 0.04 0
  403.0145 0.29 3
  403.3243 0.90 9
  403.7839 0.11 1
  403.9637 0.15 1
  404.1975 0.18 2
  404.3714 0.48 5
  404.7419 0.05 0
  404.8610 0.08 1
  405.1745 0.26 3
  405.3784 0.17 2
  405.4668 0.11 1
  405.6737 0.13 1
  406.1962 0.19 2
  406.4711 0.10 1
  406.8263 0.11 1
  407.3102 0.12 1
  407.6677 0.04 0
  408.3724 0.16 2
  408.5537 0.17 2
  409.1766 0.12 1
  409.4215 0.17 2
  409.5692 0.17 2
  410.3633 0.19 2
  410.6317 0.05 0
  411.2409 0.27 3
  411.4837 0.10 1
  411.6739 0.10 1
  412.1953 0.06 1
  412.3708 0.08 1
  413.0291 0.09 1
  413.2318 0.65 6
  413.3145 0.27 3
  413.4549 0.16 2
  413.6758 0.06 1
  414.3971 0.35 3
  414.5720 0.16 2
  415.2473 0.28 3
  415.4858 0.02 0
  416.2512 0.22 2
  416.8655 0.11 1
  417.3010 0.65 6
  417.4991 0.19 2
  417.6036 0.08 1
  417.7651 0.12 1
  418.0647 0.13 1
  418.3146 1.06 11
  418.4879 0.32 3
  418.8204 0.11 1
  419.2502 1.07 11
  419.4614 0.79 8
  419.9847 0.06 1
  420.1828 0.17 2
  420.3159 0.45 4
  420.5674 0.16 2
  421.1046 0.09 1
  421.4051 0.08 1
  421.6427 0.06 1
  422.2028 0.28 3
  422.9522 0.05 0
  423.3537 0.19 2
  423.5913 0.05 0
  423.8129 0.04 0
  424.3599 0.11 1
  424.6809 0.11 1
  425.0159 0.09 1
  425.3253 0.27 3
  425.5220 0.04 0
  425.7437 0.13 1
  426.2871 0.32 3
  426.9798 0.13 1
  427.3485 0.36 4
  427.6324 0.16 2
  427.9169 0.03 0
  428.0406 0.13 1
  428.3478 0.27 3
  428.5527 0.07 1
  428.7349 0.14 1
  429.2690 0.45 4
  429.8302 0.11 1
  430.2634 0.07 1
  430.4764 0.12 1
  430.7837 0.12 1
  430.9506 0.11 1
  431.3268 0.85 8
  431.7410 0.06 1
  431.9034 0.10 1
  432.3719 0.42 4
  432.6954 0.10 1
  433.3549 1.64 16
  433.7970 0.10 1
  433.9185 0.11 1
  434.0837 0.15 1
  434.2510 0.39 4
  434.4372 0.11 1
  434.7440 0.11 1
  435.2708 0.27 3
  435.4870 0.11 1
  435.8969 0.04 0
  436.1497 0.15 1
  436.3455 0.11 1
  437.0966 0.16 2
  437.4356 0.12 1
  437.6621 0.10 1
  438.4440 0.11 1
  438.8350 0.11 1
  439.0813 0.10 1
  439.2838 0.15 1
  439.3963 0.14 1
  439.5140 0.10 1
  440.0022 0.08 1
  440.1930 0.14 1
  440.2982 0.18 2
  440.8442 0.08 1
  441.0175 0.11 1
  441.2528 0.41 4
  441.4407 0.34 3
  441.5204 0.16 2
  441.7850 0.07 1
  441.9656 0.20 2
  442.4429 0.46 5
  442.6681 0.09 1
  442.8406 0.13 1
  443.3612 1.82 18
  443.7334 0.08 1
  443.8884 0.09 1
  444.1611 0.37 4
  444.4141 0.19 2
  444.8718 0.13 1
  445.3428 1.59 16
  445.6514 0.11 1
  445.8049 0.12 1
  446.3183 1.25 12
  446.4726 0.62 6
  446.7052 0.27 3
  446.8515 0.11 1
  447.3225 1.76 18
  447.9376 0.03 0
  448.3465 0.87 9
  448.6186 0.10 1
  448.9800 0.03 0
  449.2375 0.28 3
  449.4299 0.06 1
  449.9040 0.10 1
  450.2368 0.09 1
  451.1177 0.11 1
  451.2728 0.14 1
  451.7001 0.11 1
  451.8648 0.04 0
  452.1933 0.05 0
  452.5929 0.11 1
  453.3049 0.18 2
  453.4212 0.15 1
  453.5800 0.04 0
  454.2358 0.11 1
  454.8023 0.02 0
  455.0848 0.19 2
  455.2912 0.35 3
  455.4910 0.15 1
  455.9588 0.02 0
  456.2984 0.32 3
  456.4617 0.20 2
  456.6425 0.12 1
  457.2230 0.25 2
  457.3526 0.13 1
  457.8043 0.11 1
  457.9675 0.14 1
  458.2516 0.21 2
  458.4581 0.34 3
  458.6645 0.15 1
  459.0123 0.15 1
  459.2964 1.08 11
  459.5981 0.37 4
  459.8046 0.20 2
  460.3311 3.99 40
  461.3380 9.89 99
  462.3545 7.55 75
  462.8731 0.18 2
  463.0013 0.09 1
  463.2547 0.34 3
  463.6964 0.12 1
  463.9388 0.06 1
  464.1307 0.20 2
  464.2926 0.11 1
  464.6076 0.12 1
  465.2486 0.10 1
  465.5761 0.13 1
  465.7739 0.09 1
  466.0984 0.09 1
  466.2750 0.09 1
  467.5389 0.12 1
  467.8664 0.14 1
  468.0225 0.05 0
  468.2548 0.26 3
  468.3676 0.10 1
  468.5010 0.07 1
  468.8733 0.06 1
  469.1554 0.16 2
  469.2873 0.21 2
  469.5321 0.12 1
  469.9279 0.06 1
  470.1402 0.07 1
  471.3786 0.33 3
  471.5469 0.08 1
  471.7034 0.10 1
  471.9697 0.08 1
  472.3772 0.15 1
  472.5177 0.10 1
  472.6180 0.13 1
  472.7248 0.10 1
  472.9940 0.21 2
  473.1389 0.29 3
  473.2786 0.04 0
  473.3928 0.12 1
  473.7828 0.16 2
  473.9657 0.20 2
  474.3213 0.52 5
  474.5072 0.11 1
  474.5979 0.11 1
  475.3150 0.24 2
  475.4285 0.25 2
  475.5982 0.08 1
  476.1566 0.09 1
  477.2398 0.15 1
  477.3474 0.18 2
  477.4418 0.16 2
  478.1833 0.16 2
  478.5266 0.10 1
  479.1846 0.15 1
  479.4482 0.15 1
  479.6246 0.22 2
  480.2110 0.13 1
  480.7630 0.11 1
  480.9043 0.11 1
  481.0339 0.12 1
  481.8026 0.08 1
  482.0618 0.19 2
  482.3379 0.09 1
  482.4909 0.08 1
  482.6110 0.28 3
  482.7926 0.12 1
  483.3989 0.05 0
  483.7335 0.12 1
  483.9583 0.11 1
  484.6504 0.11 1
  485.2428 0.10 1
  485.7636 0.12 1
  485.9606 0.10 1
  486.0953 0.21 2
  486.2477 0.17 2
  486.5634 0.40 4
  486.7699 0.38 4
  487.0182 0.27 3
  487.3757 0.18 2
  487.5295 0.24 2
  487.6145 0.12 1
  487.7764 0.18 2
  487.8789 0.20 2
  488.2012 0.27 3
  488.9118 0.06 1
  489.0481 0.08 1
  489.2605 0.22 2
  489.9763 0.17 2
  490.1602 0.21 2
  490.9866 0.19 2
  491.5068 0.12 1
  491.7296 0.11 1
  491.9817 0.06 1
  492.4184 0.10 1
  493.2083 0.13 1
  493.4729 0.18 2
  494.0394 0.10 1
  494.5494 0.12 1
  494.7803 0.07 1
  495.0442 0.11 1
  495.5792 0.05 0
  496.6479 0.09 1
  496.8619 0.12 1
  497.3809 0.22 2
  497.5912 0.12 1
  497.7130 0.01 0
  498.2085 0.11 1
  498.3375 0.21 2
  498.4387 0.21 2
  498.6043 0.02 0
  498.9924 0.12 1
  499.2121 0.18 2
  499.6237 0.27 3
  499.8324 0.13 1
  500.0243 0.26 3
  500.1788 0.25 2
  500.3429 0.27 3
  500.5385 0.10 1
  500.6871 0.18 2
  500.8776 0.38 4
  501.1237 0.20 2
  501.2826 0.11 1
  501.4906 0.28 3
  501.5770 0.10 1
  501.7111 0.11 1
  501.9418 0.06 1
  502.2289 0.22 2
  502.4348 0.18 2
  502.6326 0.23 2
  502.7959 0.09 1
  503.1754 0.16 2
  503.3395 0.14 1
  503.5182 0.08 1
  503.6494 0.02 0
  504.2926 0.14 1
  504.5592 0.13 1
  504.7160 0.04 0
  505.4743 0.12 1
  506.3323 0.10 1
  506.5778 0.18 2
  507.1009 0.06 1
  507.2577 0.10 1
  507.4226 0.16 2
  508.3437 1.70 17
  508.5291 1.14 11
  508.9051 0.15 1
  509.1440 0.12 1
  509.3404 0.24 2
  509.5222 0.09 1
  509.8922 0.12 1
  510.6919 0.19 2
  511.4732 0.05 0
  511.7341 0.12 1
  512.3279 0.10 1
  512.4385 0.09 1
  512.6731 0.04 0
  512.9062 0.05 0
  513.2222 0.10 1
  513.4311 0.07 1
  513.5733 0.21 2
  514.1033 0.07 1
  514.3196 0.28 3
  514.4523 0.33 3
  514.5688 0.26 3
  514.8394 0.14 1
  515.0916 0.14 1
  515.2778 0.06 1
  515.4186 0.13 1
  515.8570 0.24 2
  516.3834 0.47 5
  516.5352 0.26 3
  516.7296 0.29 3
  516.8359 0.18 2
  517.0477 0.08 1
  517.2172 0.13 1
  517.4781 0.19 2
  517.6674 0.11 1
  518.0413 0.21 2
  518.3376 0.25 2
  518.4623 0.15 1
  518.5986 0.14 1
  518.8450 0.11 1
  519.4427 0.32 3
  519.6591 0.18 2
  519.8747 0.02 0
  520.0184 0.12 1
  520.1123 0.06 1
  520.3976 0.14 1
  520.8223 0.10 1
  521.0731 0.11 1
  521.3518 0.19 2
  521.5256 0.25 2
  521.6796 0.21 2
  522.4161 4.23 42
  522.8195 0.08 1
  523.0132 0.14 1
  523.2471 0.20 2
  523.3689 0.20 2
  523.5178 0.26 3
  524.0760 0.12 1
  524.1707 0.14 1
  524.3534 0.07 1
  524.4531 0.04 0
  524.6696 0.14 1
  524.9902 0.12 1
  525.4978 0.07 1
  526.1624 0.08 1
  526.3761 0.13 1
  526.5715 0.01 0
  527.4464 0.08 1
  528.2619 0.11 1
  528.5203 0.21 2
  529.2261 0.16 2
  529.5629 0.13 1
  530.0586 0.11 1
  530.3243 0.13 1
  531.5230 0.23 2
  532.0143 0.09 1
  533.3560 0.09 1
  533.4475 0.06 1
  533.7565 0.11 1
  534.0290 0.10 1
  534.4537 1.47 15
  534.7592 0.15 1
  535.0858 0.21 2
  535.4528 1.60 16
  535.6256 0.70 7
  535.8182 0.07 1
  536.3222 0.12 1
  536.4775 0.19 2
  536.7360 0.12 1
  537.2253 0.13 1
  537.3660 0.15 1
  537.6436 0.10 1
  537.7689 0.14 1
  538.1249 0.15 1
  538.2861 0.04 0
  538.4120 0.11 1
  538.9490 0.13 1
  539.3226 0.10 1
  539.5410 0.17 2
  540.2744 0.23 2
  540.6274 0.12 1
  540.7366 0.20 2
  541.4129 0.21 2
  541.7419 0.12 1
  542.2115 0.11 1
  542.3259 0.08 1
  542.9391 0.13 1
  543.1546 0.05 0
  544.3102 0.10 1
  544.5293 0.09 1
  544.7565 0.10 1
  545.2343 0.10 1
  545.4527 0.04 0
  545.7444 0.03 0
  546.0456 0.06 1
  546.1761 0.11 1
  546.4113 0.07 1
  546.5579 0.19 2
  546.6986 0.11 1
  547.7181 0.08 1
  548.1594 0.11 1
  548.2935 0.02 0
  548.6534 0.13 1
  548.7722 0.08 1
  548.9144 0.13 1
  549.5814 0.16 2
  549.7310 0.10 1
  549.9164 0.09 1
  550.3900 0.11 1
  550.5571 0.12 1
  550.6531 0.06 1
  550.8079 0.10 1
  550.9655 0.01 0
  551.2250 0.13 1
  551.7374 0.09 1
  552.0087 0.04 0
  552.3173 0.10 1
  552.4266 0.13 1
  552.6187 0.17 2
  552.7118 0.14 1
  553.1993 0.11 1
  553.4553 0.20 2
  553.6781 0.08 1
  554.0015 0.01 0
  554.5045 0.12 1
  554.6438 0.12 1
  554.9305 0.11 1
  555.2407 0.15 1
  555.4577 0.14 1
  555.6278 0.12 1
  555.7188 0.11 1
  555.8713 0.08 1
  555.9651 0.08 1
  556.2196 0.18 2
  556.4264 0.21 2
  556.6647 0.28 3
  556.9852 0.09 1
  557.0901 0.08 1
  557.3995 0.25 2
  557.6342 0.13 1
  557.8080 0.06 1
  558.2356 0.10 1
  558.4578 0.20 2
  559.1912 0.12 1
  559.3049 0.12 1
  559.9658 0.12 1
  560.0831 0.07 1
  560.2026 0.07 1
  560.3669 0.29 3
  561.0660 0.12 1
  562.0540 0.18 2
  562.5558 0.08 1
  562.7560 0.10 1
  563.2901 0.25 2
  563.5688 0.41 4
  563.7955 0.11 1
  564.1763 0.18 2
  564.3362 0.24 2
  564.4375 0.11 1
  564.5739 0.12 1
  564.7009 0.06 1
  565.0178 0.13 1
  565.3472 0.27 3
  565.7250 0.11 1
  565.8615 0.13 1
  566.2365 0.15 1
  566.5402 0.23 2
  566.6833 0.20 2
  567.0978 0.10 1
  567.2791 0.21 2
  567.4963 0.49 5
  567.7025 0.14 1
  567.9233 0.23 2
  568.0195 0.21 2
  568.1435 0.21 2
  568.4318 0.43 4
  568.5815 0.16 2
  568.7034 0.08 1
  568.8340 0.13 1
  568.9506 0.08 1
  569.0754 0.18 2
  569.2911 0.24 2
  569.7476 0.39 4
  570.0169 0.31 3
  570.3596 0.37 4
  570.6018 0.34 3
  570.8095 0.11 1
  570.9700 0.17 2
  571.3162 0.36 4
  571.5350 0.24 2
  571.7034 0.60 6
  571.8190 0.23 2
  571.9683 0.25 2
  572.1660 0.36 4
  572.5392 0.23 2
  572.7676 0.33 3
  572.9542 0.35 3
  573.2332 0.46 5
  573.3524 0.23 2
  573.6372 0.18 2
  573.7697 0.14 1
  573.9614 0.24 2
  574.2206 0.12 1
  574.4292 0.26 3
  574.5815 0.10 1
  574.7133 0.20 2
  574.8091 0.08 1
  574.9343 0.21 2
  575.0778 0.06 1
  575.3735 0.21 2
  575.6268 0.08 1
  575.8135 0.11 1
  575.9987 0.18 2
  576.2937 0.23 2
  576.5126 0.22 2
  576.6642 0.17 2
  576.8135 0.16 2
  576.9717 0.22 2
  577.0580 0.13 1
  577.2762 0.41 4
  577.4607 0.29 3
  577.6320 0.36 4
  577.9959 0.35 3
  578.1306 0.22 2
  578.4769 1.46 15
  578.6988 0.71 7
  579.2010 0.28 3
  579.3270 0.14 1
  579.4405 0.04 0
  579.5737 0.11 1
  579.7590 0.25 2
  579.9354 0.22 2
  580.0973 0.15 1
  580.3909 0.07 1
  580.6450 0.12 1
  580.8580 0.23 2
  581.4790 1.23 12
  581.7060 0.73 7
  581.9389 0.25 2
  582.3182 0.52 5
  582.6243 0.01 0
  582.8125 0.07 1
  582.9788 0.18 2
  583.3156 0.37 4
  583.6188 0.31 3
  583.9528 0.50 5
  584.1183 0.47 5
  584.4567 0.72 7
  584.7028 0.81 8
  585.0616 1.02 10
  585.2418 0.78 8
  585.5648 0.83 8
  585.8987 0.32 3
  586.1104 0.72 7
  586.4100 0.97 10
  586.6576 0.87 9
  586.9161 0.64 6
  587.0817 0.77 8
  587.3680 0.63 6
  587.8163 0.79 8
  588.2434 1.12 11
  588.4998 1.02 10
  588.8023 0.91 9
  589.1305 0.91 9
  589.5788 0.88 9
  590.1942 1.34 13
  590.9509 1.37 14
  591.7744 1.19 12
  592.5708 1.58 16
  593.5350 2.20 22
  594.6971 2.88 29
  596.5043 64.63 646
  597.4527 4.00 40
  598.4363 1.84 18
  598.7242 1.53 15
  599.4735 4.82 48
  600.3445 1.08 11
  600.8909 0.81 8
  601.3524 0.93 9
  602.0454 1.18 12
  602.9201 1.03 10
  603.5494 1.09 11
  604.2725 1.04 10
  605.2953 1.42 14
  606.1709 1.36 14
  607.0868 1.56 16
  607.8730 1.81 18
  614.4901 99.96 999
  615.2538 41.86 418
  616.0403 19.40 194
  616.9581 9.72 97
  617.9463 5.51 55
  618.6002 3.39 34
  619.2723 2.23 22
  620.0077 1.38 14
  620.4479 1.09 11
  621.0198 0.93 9
  621.4718 0.93 9
  621.6740 0.53 5
  621.9384 0.63 6
  622.3002 0.62 6
  622.5434 0.63 6
  622.8430 0.47 5
  623.2949 0.35 3
  623.4678 0.16 2
//
