ACCESSION: MSBNK-Kyoto_Univ-CA000045
RECORD_TITLE: Isocryptoxanthin; FAB-EBEB; MS2; m/z: 552.43; [M]+*
DATE: 2016.01.19 (Created 2010.04.01, modified 2011.05.10)
AUTHORS: Akimoto N, Graduate School of Pharmaceutical Sciences, Kyoto University and Maoka T, Research Institute for Production Development
LICENSE: CC BY-SA
PUBLICATION: Tsushima, M.; Matsuno, T, Comparative biochemical studies of carotenoids in sea urchin-1. Comp. Biochem. Physiol. 1990, 96B, 801-810.
COMMENT: Profile spectrum of this record is given as a JPEG file.
COMMENT: [Profile] CA000045.jpg
CH$NAME: Isocryptoxanthin
CH$COMPOUND_CLASS: N/A
CH$FORMULA: C40H56O
CH$EXACT_MASS: 552.43312
CH$SMILES: C(=CC(=C(C)2)C(C)(C)CCC2)C(C)=CC=CC(=CC=CC=C(C)C=CC=C(C)C=CC(=C1C)C(CCC(O)1)(C)C)C
CH$IUPAC: InChI=1S/C40H56O/c1-30(18-13-20-32(3)23-25-36-34(5)22-15-28-39(36,7)8)16-11-12-17-31(2)19-14-21-33(4)24-26-37-35(6)38(41)27-29-40(37,9)10/h11-14,16-21,23-26,38,41H,15,22,27-29H2,1-10H3/b12-11+,18-13+,19-14+,25-23+,26-24+,30-16+,31-17+,32-20+,33-21+
CH$LINK: CAS 472-62-8
CH$LINK: NIKKAJI J40.220F
CH$LINK: INCHIKEY JCRCKXUPYKELBT-QQGJMDNJSA-N
AC$INSTRUMENT: JMS-HX/HX 110A, JEOL
AC$INSTRUMENT_TYPE: FAB-EBEB
AC$MASS_SPECTROMETRY: MS_TYPE MS2
AC$MASS_SPECTROMETRY: ION_MODE POSITIVE
AC$MASS_SPECTROMETRY: ATOM_GUN_CURRENT 5 mA
AC$MASS_SPECTROMETRY: BOMBARDMENT 6 kV xenon
AC$MASS_SPECTROMETRY: COLLISION_ENERGY 3 kV
AC$MASS_SPECTROMETRY: COLLISION_GAS Ar
AC$MASS_SPECTROMETRY: GAS_PRESSURE adjust to attenuate the intensity of the precursor ion by 30 %
AC$MASS_SPECTROMETRY: IONIZATION FAB
AC$MASS_SPECTROMETRY: MATRIX 1-2 uL m-NBA
AC$MASS_SPECTROMETRY: PROBE_TIP stainless-steel
MS$FOCUSED_ION: BASE_PEAK 104.9188
MS$FOCUSED_ION: PRECURSOR_M/Z 552.43
MS$FOCUSED_ION: PRECURSOR_TYPE [M]+*
MS$DATA_PROCESSING: RELATIVE_M/Z normalised by peak(m/z=104.9188).  set 999 for peak(m/z=552.2807,rel=2432).
PK$SPLASH: splash10-0udi-3920130000-8acf7c01586ce2a2318c
PK$NUM_PEAK: 1770
PK$PEAK: m/z int. rel.int.
  0.0388 0.01 0
  0.0681 0.01 0
  0.1471 0.01 0
  0.6692 0.01 0
  0.8236 0.01 0
  0.9687 0.01 0
  1.2002 0.01 0
  1.2851 0.01 0
  2.5635 0.01 0
  2.7395 0.03 1
  2.8594 0.03 1
  3.1599 0.01 0
  3.4700 0.04 1
  3.7517 0.01 0
  4.3250 0.02 0
  4.5442 0.01 0
  5.5952 0.12 3
  8.5557 0.01 0
  10.8202 0.01 0
  12.9528 0.06 1
  13.5727 0.03 1
  13.9648 0.02 0
  14.9657 0.36 9
  16.9889 0.01 0
  18.0548 0.01 0
  19.1780 0.01 0
  20.3247 0.01 0
  21.5485 0.06 1
  22.9106 0.48 12
  23.1145 0.01 0
  23.7978 0.01 0
  24.3517 0.01 0
  24.6952 0.03 1
  24.9310 0.02 0
  25.9322 0.65 16
  26.9398 3.39 82
  27.9415 0.55 13
  28.9447 4.02 98
  29.0988 0.01 0
  29.9158 0.12 3
  29.9686 0.11 3
  30.9264 0.31 8
  31.1620 0.02 0
  32.2186 0.01 0
  32.7465 0.01 0
  36.9074 0.31 8
  36.9895 0.02 0
  37.9211 1.68 41
  38.2910 0.02 0
  38.9212 8.09 197
  39.5416 0.03 1
  39.9445 1.00 24
  40.0990 0.05 1
  40.3937 0.02 0
  40.5581 0.01 0
  40.9387 17.66 430
  41.1493 0.10 2
  41.9401 0.53 13
  42.9233 15.12 368
  43.9247 0.42 10
  44.3970 0.01 0
  44.9239 0.69 17
  45.7979 0.01 0
  47.0161 0.01 0
  48.3734 0.09 2
  48.8992 0.21 5
  49.3933 0.04 1
  49.7407 0.07 2
  49.9049 2.19 53
  50.7158 0.05 1
  50.9145 4.84 118
  51.2929 0.02 0
  51.7240 0.05 1
  51.9162 1.85 45
  52.9215 8.09 197
  53.1303 0.01 0
  53.6165 0.12 3
  53.9287 0.51 12
  54.1686 0.01 0
  54.6022 0.07 2
  54.9309 23.53 572
  55.3176 0.01 0
  55.9383 1.64 40
  56.9356 4.69 114
  57.2758 0.01 0
  57.4332 0.15 4
  57.9512 0.41 10
  58.9263 1.06 26
  59.9125 0.12 3
  60.8410 0.22 5
  60.9877 0.05 1
  61.3942 0.10 2
  61.9064 1.44 35
  62.1719 0.01 0
  62.9050 3.85 94
  63.0290 0.27 7
  63.1350 0.13 3
  63.3153 0.11 3
  63.6392 0.04 1
  63.8965 0.97 24
  64.0215 0.14 3
  64.1567 0.04 1
  64.3714 0.01 0
  64.6774 0.11 3
  64.9155 5.83 142
  65.0640 0.12 3
  65.3040 0.14 3
  65.7520 0.12 3
  65.9171 1.02 25
  66.1236 0.21 5
  66.6891 0.10 2
  66.9220 11.02 268
  67.2876 0.01 0
  67.9231 0.49 12
  68.4437 0.14 3
  68.9295 26.07 634
  69.4025 0.06 1
  69.9286 0.47 11
  70.9164 2.72 66
  71.8381 0.14 3
  71.9443 0.06 1
  72.7417 0.12 3
  72.9262 0.17 4
  73.1345 0.01 0
  73.8821 1.14 28
  74.7066 0.17 4
  74.8928 1.32 32
  75.4235 0.18 4
  75.8984 0.79 19
  76.0310 0.22 5
  76.1359 0.13 3
  76.3146 0.13 3
  76.4191 0.20 5
  76.5779 0.13 3
  76.8938 17.36 422
  77.0813 0.47 11
  77.1920 0.24 6
  77.4494 0.26 6
  77.8887 4.22 103
  78.0840 0.03 1
  78.4303 0.18 4
  78.9067 16.85 410
  79.3949 0.07 2
  79.6281 0.02 0
  79.8895 1.33 32
  80.0421 0.15 4
  80.3605 0.13 3
  80.4943 0.14 3
  80.6404 0.13 3
  80.9155 22.37 544
  81.1643 0.07 2
  81.2425 0.13 3
  81.9032 1.17 28
  82.3486 0.01 0
  82.5514 0.15 4
  82.9122 5.05 123
  83.2630 0.05 1
  83.9414 0.37 9
  84.1593 0.05 1
  84.5056 0.02 0
  84.9421 0.70 17
  85.8884 0.85 21
  86.8585 0.65 16
  87.8465 0.17 4
  88.4850 0.03 1
  88.8677 2.23 54
  89.2273 0.43 10
  89.5244 0.23 6
  89.6463 0.21 5
  89.7884 0.42 10
  89.9369 1.03 25
  90.2668 0.08 2
  90.4454 0.24 6
  90.8991 29.19 710
  91.4918 0.13 3
  91.6443 0.16 4
  91.9131 3.59 87
  92.0911 0.25 6
  92.3596 0.14 3
  92.4880 0.10 2
  92.5882 0.16 4
  92.9235 23.14 563
  93.2608 0.14 3
  93.3703 0.23 6
  93.6481 0.12 3
  93.9103 1.31 32
  94.4357 0.15 4
  94.6542 0.01 0
  94.9310 19.99 486
  95.1631 0.12 3
  95.3155 0.25 6
  95.4523 0.03 1
  95.5548 0.11 3
  95.7202 0.07 2
  95.9020 0.96 23
  96.3678 0.17 4
  96.9181 3.63 88
  97.1523 0.07 2
  97.8842 0.23 6
  97.9767 0.19 5
  98.8241 0.22 5
  98.9472 0.74 18
  99.2158 0.09 2
  99.3589 0.14 3
  99.9448 0.13 3
  100.8561 0.56 14
  101.0968 0.12 3
  101.2457 0.03 1
  101.3505 0.01 0
  101.6427 0.13 3
  101.9121 1.51 37
  102.0672 0.22 5
  102.4801 0.28 7
  102.9153 4.96 121
  103.2473 0.08 2
  103.4276 0.23 6
  103.9156 3.06 74
  104.3115 0.10 2
  104.3944 0.13 3
  104.9188 41.06 999
  105.3546 0.27 7
  105.9267 4.40 107
  106.1518 0.16 4
  106.3633 0.12 3
  106.4925 0.04 1
  106.6111 0.12 3
  106.9295 19.94 485
  107.2381 0.14 3
  107.3402 0.03 1
  107.4631 0.08 2
  107.5438 0.13 3
  107.9430 2.30 56
  108.1867 0.13 3
  108.4988 0.05 1
  108.9379 12.24 298
  109.1951 0.02 0
  109.6609 0.01 0
  109.8856 0.60 15
  110.0758 0.12 3
  110.2243 0.10 2
  110.5291 0.07 2
  110.9267 2.07 50
  111.7925 0.20 5
  111.9563 0.19 5
  112.0700 0.12 3
  112.4134 0.05 1
  112.5804 0.18 4
  112.9595 1.06 26
  113.1614 0.44 11
  113.3471 0.09 2
  113.9198 0.94 23
  114.2570 0.39 9
  114.3836 0.15 4
  114.5133 0.15 4
  114.8857 17.14 417
  115.1879 0.40 10
  115.3875 0.20 5
  115.8842 5.97 145
  116.1225 0.21 5
  116.2531 0.14 3
  116.3326 0.09 2
  116.8891 14.08 343
  117.2302 0.12 3
  117.3513 0.10 2
  117.4219 0.08 2
  117.5913 0.23 6
  117.9056 4.11 100
  118.3317 0.11 3
  118.8977 37.08 902
  119.1727 0.18 4
  119.5469 0.18 4
  119.9141 4.11 100
  120.1277 0.15 4
  120.4401 0.02 0
  120.9004 14.77 359
  121.2828 0.02 0
  121.4653 0.14 3
  121.8820 1.52 37
  122.1065 0.13 3
  122.3572 0.12 3
  122.5582 0.27 7
  122.9183 8.71 212
  123.3431 0.07 2
  123.6556 0.11 3
  123.8770 1.35 33
  124.5391 0.07 2
  124.6657 0.24 6
  124.9209 1.69 41
  125.2773 0.13 3
  125.5546 0.10 2
  125.6930 0.15 4
  125.8808 1.07 26
  126.2303 0.14 3
  126.3567 0.25 6
  126.5379 0.14 3
  126.8547 5.79 141
  127.2004 0.36 9
  127.8622 17.22 419
  128.1404 0.22 5
  128.4053 0.34 8
  128.8605 18.63 453
  129.2627 0.48 12
  129.4440 0.22 5
  129.8717 9.08 221
  130.1640 0.28 7
  130.3743 0.23 6
  130.8767 19.84 483
  131.4143 0.15 4
  131.8767 4.74 115
  132.2417 0.02 0
  132.4064 0.21 5
  132.8798 20.05 488
  133.2033 0.46 11
  133.4469 0.13 3
  133.8747 2.57 63
  134.8726 5.91 144
  135.4104 0.16 4
  135.8675 1.20 29
  136.3527 0.17 4
  136.8919 3.82 93
  137.5609 0.15 4
  137.8840 1.04 25
  138.2916 0.12 3
  138.3752 0.08 2
  138.5605 0.08 2
  138.8722 5.40 131
  139.1004 0.14 3
  139.1872 0.18 4
  139.2982 0.21 5
  139.8732 1.46 36
  140.0842 0.49 12
  140.2338 0.31 8
  140.3207 0.15 4
  140.5467 0.48 12
  140.8597 12.78 311
  141.1492 0.18 4
  141.4469 0.15 4
  141.8702 13.55 330
  142.1793 0.12 3
  142.8743 24.05 585
  143.2173 0.09 2
  143.8775 9.12 222
  144.2389 0.31 8
  144.8885 26.26 639
  145.3844 0.15 4
  145.5279 0.20 5
  145.8949 3.37 82
  146.1802 0.45 11
  146.2964 0.09 2
  146.9066 9.21 224
  147.2210 0.26 6
  147.2922 0.17 4
  147.5466 0.32 8
  147.9218 1.18 29
  148.4285 0.18 4
  148.9180 3.34 81
  149.2341 0.30 7
  149.3725 0.08 2
  149.6174 0.31 8
  149.8611 1.11 27
  150.0384 0.09 2
  150.1901 0.25 6
  150.3800 0.33 8
  150.4796 0.13 3
  150.6771 0.47 11
  150.9010 2.06 50
  151.2215 0.45 11
  151.3218 0.19 5
  151.8791 5.45 133
  152.1471 0.16 4
  152.2670 0.20 5
  152.3932 0.25 6
  152.8743 8.48 206
  153.2645 0.01 0
  153.4285 0.34 8
  153.8924 4.88 119
  154.3081 0.36 9
  154.3968 0.30 7
  154.4918 0.16 4
  154.9064 17.30 421
  155.2822 0.52 13
  155.9055 10.49 255
  156.2318 0.13 3
  156.3635 0.18 4
  156.9200 21.71 528
  157.1803 0.24 6
  157.3619 0.08 2
  157.5479 0.35 9
  157.9277 5.84 142
  158.1283 0.27 7
  158.2987 0.14 3
  158.4097 0.15 4
  158.5618 0.25 6
  158.9343 15.46 376
  159.4124 0.18 4
  159.9449 2.38 58
  160.0435 1.01 25
  160.1813 0.17 4
  160.5036 0.32 8
  160.6225 0.12 3
  160.9494 6.17 150
  161.1980 0.34 8
  161.3080 0.15 4
  161.3934 0.12 3
  161.4902 0.12 3
  161.9496 1.30 32
  162.2401 0.09 2
  162.3845 0.27 7
  162.4959 0.27 7
  162.9538 3.51 85
  163.2977 0.12 3
  163.5841 0.19 5
  163.9397 1.34 33
  164.2148 0.31 8
  164.4012 0.12 3
  164.4918 0.14 3
  164.9142 11.72 285
  165.4789 0.07 2
  165.6439 0.32 8
  165.9295 3.67 89
  166.2228 0.40 10
  166.3805 0.13 3
  166.5634 0.29 7
  166.9418 10.11 246
  167.1849 0.15 4
  167.4046 0.11 3
  167.5312 0.17 4
  167.9277 4.18 102
  168.1754 0.23 6
  168.3585 0.23 6
  168.4681 0.15 4
  168.9478 14.72 358
  169.2851 0.29 7
  169.4861 0.22 5
  169.9452 5.30 129
  170.3779 0.27 7
  170.9497 11.22 273
  171.2684 0.14 3
  171.4093 0.21 5
  171.5484 0.35 9
  171.9631 2.85 69
  172.1562 0.24 6
  172.3246 0.29 7
  172.9601 8.39 204
  173.3186 0.15 4
  173.5151 0.07 2
  173.9151 1.54 37
  174.1549 0.17 4
  174.3223 0.31 8
  174.6137 0.31 8
  174.9745 5.00 122
  175.5354 0.16 4
  175.6691 0.05 1
  175.9372 1.44 35
  176.0703 0.71 17
  176.3487 0.33 8
  176.9374 3.40 83
  177.3422 0.47 11
  177.9122 6.60 161
  178.2713 0.15 4
  178.3963 0.19 5
  178.9169 9.29 226
  179.3094 0.23 6
  179.9121 4.42 108
  180.2959 0.23 6
  180.4485 0.14 3
  180.9180 9.87 240
  181.2478 0.16 4
  181.9195 4.74 115
  182.3492 0.23 6
  182.4726 0.02 0
  182.9281 12.13 295
  183.1904 0.18 4
  183.3868 0.39 9
  183.9468 2.66 65
  184.3264 0.14 3
  184.9360 6.89 168
  185.2191 0.60 15
  185.5209 0.22 5
  185.9400 1.89 46
  186.4630 0.06 1
  186.9483 4.95 120
  187.2786 0.20 5
  187.5961 0.15 4
  187.9566 1.05 26
  188.2492 0.32 8
  188.3789 0.26 6
  188.5797 0.34 8
  188.9245 4.46 109
  189.3655 0.17 4
  189.5203 0.14 3
  189.9133 1.52 37
  190.1272 0.40 10
  190.2294 0.17 4
  190.3836 0.03 1
  190.9066 6.00 146
  191.9140 3.92 95
  192.3597 0.13 3
  192.4504 0.15 4
  192.9290 8.33 203
  193.1310 0.40 10
  193.3260 0.15 4
  193.4348 0.15 4
  193.9355 4.64 113
  194.1171 0.23 6
  194.3701 0.14 3
  194.5369 0.25 6
  194.9194 10.49 255
  195.2473 0.13 3
  195.4057 0.34 8
  195.6203 0.12 3
  195.9360 4.02 98
  196.2009 0.22 5
  196.3266 0.15 4
  196.5380 0.24 6
  196.9358 11.48 279
  197.3137 0.30 7
  197.5168 0.13 3
  197.9174 1.60 39
  198.2716 0.16 4
  198.9337 4.58 111
  199.2764 0.27 7
  199.3661 0.04 1
  199.5824 0.30 7
  199.9408 1.06 26
  200.1494 0.15 4
  200.3864 0.14 3
  200.5330 0.18 4
  200.9419 3.71 90
  201.2353 0.14 3
  201.4375 0.14 3
  201.9074 2.57 63
  202.2093 0.17 4
  202.4802 0.13 3
  202.9264 4.65 113
  203.2963 0.20 5
  203.4134 0.26 6
  203.9213 1.80 44
  204.1503 0.17 4
  204.2998 0.25 6
  204.5108 0.19 5
  204.9328 4.52 110
  205.2319 0.21 5
  205.9209 2.99 73
  206.3224 0.04 1
  206.4734 0.07 2
  206.9360 7.24 176
  207.4077 0.14 3
  207.6521 0.34 8
  207.9406 2.48 60
  208.1344 0.18 4
  208.4579 0.14 3
  208.9540 8.45 206
  209.4055 0.23 6
  209.9426 2.73 66
  210.4579 0.28 7
  210.9694 4.56 111
  211.2829 0.23 6
  211.5829 0.28 7
  211.7206 0.34 8
  211.9933 1.20 29
  212.3077 0.30 7
  212.4207 0.15 4
  212.5305 0.22 5
  212.6604 0.18 4
  212.9573 2.45 60
  213.3979 0.01 0
  213.6403 0.27 7
  213.9828 1.12 27
  214.2585 0.15 4
  214.3852 0.12 3
  214.9425 3.65 89
  215.3210 0.14 3
  215.5831 0.30 7
  215.9266 1.56 38
  216.1562 0.20 5
  216.2506 0.12 3
  216.3827 0.15 4
  216.9391 3.08 75
  217.2131 0.16 4
  217.4898 0.05 1
  217.6883 0.16 4
  217.9781 1.86 45
  218.3760 0.13 3
  218.5264 0.12 3
  218.6306 0.03 1
  218.9615 4.28 104
  219.2807 0.17 4
  219.4638 0.07 2
  219.9688 2.10 51
  220.2386 0.21 5
  220.4048 0.17 4
  220.9745 5.27 128
  221.3090 0.22 5
  221.6201 0.18 4
  221.7342 0.38 9
  221.9742 1.36 33
  222.3655 0.09 2
  222.4464 0.08 2
  222.5893 0.12 3
  222.7700 0.66 16
  223.0023 4.73 115
  223.2842 0.21 5
  223.4121 0.15 4
  223.4897 0.13 3
  223.6438 0.32 8
  223.7090 0.15 4
  224.0269 1.28 31
  224.9853 3.14 76
  225.2387 0.21 5
  225.4196 0.31 8
  225.5946 0.34 8
  225.9937 1.10 27
  226.3720 0.20 5
  226.6218 0.13 3
  226.9847 1.52 37
  227.3328 0.16 4
  227.4827 0.28 7
  227.5779 0.08 2
  227.9579 0.97 24
  228.1451 0.30 7
  228.2670 0.19 5
  228.4868 0.49 12
  228.9909 2.61 64
  229.1781 0.32 8
  229.5701 0.05 1
  229.9642 1.25 30
  230.0797 0.49 12
  230.9809 3.09 75
  231.3536 0.15 4
  231.6219 0.11 3
  231.9673 1.81 44
  232.1436 0.18 4
  232.4669 0.14 3
  232.5603 0.07 2
  232.9776 4.01 98
  233.2553 0.15 4
  233.3239 0.08 2
  233.6270 0.28 7
  233.9942 1.45 35
  234.3347 0.12 3
  234.5784 0.25 6
  234.9654 3.29 80
  235.3040 0.19 5
  235.5943 0.06 1
  235.7159 0.14 3
  235.9761 0.77 19
  236.1010 0.39 9
  236.5333 0.05 1
  236.6268 0.13 3
  237.0095 2.62 64
  237.1547 1.04 25
  237.3778 0.14 3
  237.4798 0.21 5
  237.6768 0.13 3
  237.8652 0.48 12
  238.0576 1.12 27
  238.2879 0.17 4
  238.3723 0.15 4
  238.5556 0.12 3
  239.0125 2.62 64
  239.4341 0.18 4
  239.6017 0.24 6
  239.9356 0.63 15
  240.1680 0.28 7
  240.3147 0.22 5
  240.5774 0.25 6
  240.9749 2.09 51
  241.4964 0.12 3
  241.6897 0.29 7
  241.9878 0.92 22
  242.6660 0.27 7
  242.9898 2.62 64
  243.6126 0.40 10
  243.7011 0.33 8
  244.0047 0.97 24
  244.2899 0.27 7
  244.3883 0.15 4
  244.5090 0.10 2
  244.9720 2.07 50
  245.2534 0.16 4
  245.4003 0.14 3
  245.6207 0.14 3
  245.7067 0.07 2
  245.9954 1.47 36
  246.3569 0.22 5
  246.4776 0.30 7
  246.6719 0.04 1
  247.0145 2.61 64
  247.3053 0.25 6
  247.4700 0.13 3
  247.7602 0.14 3
  247.9860 0.87 21
  248.1035 0.67 16
  248.4640 0.13 3
  249.0183 3.17 77
  249.3007 0.13 3
  249.7047 0.14 3
  250.0515 0.54 13
  251.0312 2.46 60
  251.2461 0.37 9
  251.4104 0.18 4
  251.6549 0.19 5
  251.9710 1.16 28
  252.4439 0.14 3
  252.5602 0.13 3
  253.0076 1.97 48
  253.3335 0.24 6
  253.5274 0.20 5
  253.6719 0.25 6
  253.9670 0.77 19
  254.1793 0.49 12
  254.7459 0.38 9
  254.9958 1.40 34
  255.1312 0.71 17
  255.2278 0.31 8
  255.4823 0.14 3
  255.6506 0.09 2
  256.0103 0.47 11
  256.2260 0.13 3
  256.3602 0.17 4
  256.7878 0.57 14
  256.9818 1.69 41
  257.1364 0.55 13
  257.5193 0.03 1
  257.9410 0.67 16
  258.0457 0.52 13
  258.2523 0.34 8
  258.9723 2.43 59
  259.2086 0.34 8
  259.4653 0.06 1
  259.5654 0.15 4
  259.7425 0.31 8
  259.8768 0.46 11
  260.0355 0.61 15
  260.5293 0.16 4
  260.7973 0.44 11
  261.0140 1.70 41
  261.2550 0.11 3
  261.3914 0.12 3
  261.6713 0.19 5
  261.9269 0.83 20
  262.1002 0.40 10
  262.2649 0.26 6
  262.4546 0.03 1
  262.7518 0.51 12
  263.0430 1.76 43
  263.3047 0.23 6
  263.7403 0.26 6
  264.0237 1.08 26
  264.3566 0.16 4
  265.0132 1.77 43
  265.3475 0.15 4
  265.5282 0.20 5
  265.9839 0.72 18
  266.1409 0.36 9
  266.4172 0.12 3
  267.0247 1.86 45
  267.5143 0.13 3
  267.7260 0.26 6
  268.0263 1.06 26
  268.1398 0.36 9
  268.3298 0.23 6
  268.4440 0.32 8
  268.5536 0.19 5
  268.7562 0.44 11
  269.0320 2.03 49
  269.2717 0.13 3
  269.6892 0.15 4
  269.8461 0.23 6
  270.0168 0.79 19
  270.1137 0.29 7
  270.2100 0.14 3
  270.4809 0.12 3
  270.6049 0.16 4
  270.9860 1.29 31
  271.5999 0.03 1
  271.9824 0.47 11
  272.1341 0.14 3
  272.2574 0.19 5
  273.0384 1.42 35
  273.8064 0.19 5
  274.0268 0.62 15
  274.2769 0.16 4
  274.6398 0.15 4
  274.7784 0.26 6
  275.0213 1.39 34
  275.2206 0.18 4
  275.4378 0.48 12
  275.6015 0.38 9
  275.7197 0.24 6
  276.0439 1.06 26
  276.2386 0.34 8
  276.5833 0.15 4
  277.0085 1.38 34
  277.7634 0.26 6
  277.9272 0.60 15
  278.1630 0.18 4
  278.3103 0.11 3
  278.4272 0.14 3
  278.6439 0.09 2
  279.0000 1.43 35
  279.2002 0.15 4
  279.5194 0.15 4
  279.8326 0.28 7
  280.0771 0.51 12
  280.6237 0.10 2
  281.0289 1.63 40
  281.2933 0.19 5
  281.5756 0.16 4
  281.6542 0.06 1
  281.8711 0.35 9
  282.0999 0.92 22
  282.2790 0.16 4
  282.4192 0.17 4
  282.6811 0.02 0
  283.0025 1.18 29
  283.4866 0.16 4
  283.8107 0.26 6
  283.9278 0.09 2
  284.0746 0.61 15
  284.2314 0.19 5
  284.5205 0.08 2
  284.6091 0.10 2
  284.7745 0.40 10
  285.0405 0.85 21
  285.3958 0.10 2
  285.7210 0.10 2
  285.9960 0.79 19
  286.2398 0.16 4
  286.5148 0.13 3
  286.7045 0.13 3
  287.0067 1.03 25
  287.2493 0.14 3
  287.4575 0.36 9
  287.5428 0.09 2
  287.6995 0.12 3
  287.9442 0.62 15
  288.0440 0.38 9
  288.1478 0.25 6
  288.5677 0.29 7
  288.7999 0.29 7
  289.0360 0.91 22
  289.3409 0.11 3
  289.6028 0.09 2
  289.8152 0.27 7
  289.9237 0.19 5
  290.0672 0.30 7
  290.3848 0.08 2
  290.4900 0.02 0
  291.0497 1.37 33
  291.1503 0.57 14
  291.7049 0.15 4
  292.0292 0.47 11
  292.4097 0.14 3
  292.6924 0.19 5
  292.8572 0.17 4
  293.0697 1.73 42
  293.4914 0.06 1
  294.0303 0.46 11
  294.2462 0.12 3
  294.3429 0.06 1
  295.0084 0.98 24
  295.2283 0.17 4
  295.7191 0.14 3
  295.9151 0.49 12
  296.0754 0.33 8
  296.2152 0.15 4
  296.8141 0.19 5
  297.0288 0.69 17
  297.3541 0.14 3
  297.4489 0.17 4
  297.9578 0.61 15
  298.1354 0.16 4
  298.2580 0.09 2
  298.7564 0.29 7
  298.9877 0.63 15
  299.1720 0.13 3
  299.2873 0.14 3
  299.4524 0.14 3
  299.5770 0.14 3
  299.9290 0.21 5
  300.0470 0.24 6
  300.1577 0.13 3
  300.3513 0.27 7
  300.8168 0.15 4
  300.9779 0.52 13
  301.0966 0.35 9
  301.6842 0.13 3
  301.7737 0.06 1
  301.9866 0.55 13
  302.4834 0.07 2
  302.6917 0.05 1
  303.0937 0.87 21
  303.2184 0.23 6
  303.6636 0.12 3
  303.9575 0.28 7
  304.0769 0.12 3
  304.7856 0.21 5
  305.0292 0.50 12
  305.1433 0.24 6
  305.6637 0.13 3
  305.8701 0.17 4
  306.1409 0.24 6
  306.3533 0.13 3
  306.8791 0.70 17
  306.9946 0.47 11
  307.1553 0.12 3
  307.9720 0.41 10
  308.9064 0.30 7
  309.0074 0.25 6
  309.1229 0.30 7
  309.5354 0.05 1
  309.9293 0.42 10
  310.0894 0.20 5
  310.5020 0.12 3
  310.9996 1.07 26
  311.1026 0.21 5
  311.7318 0.19 5
  312.0555 0.60 15
  312.1857 0.15 4
  312.5081 0.03 1
  312.7633 0.15 4
  313.0066 0.57 14
  313.2106 0.12 3
  313.4054 0.11 3
  313.4825 0.08 2
  313.7949 0.14 3
  313.9850 0.33 8
  314.5129 0.15 4
  314.8972 0.60 15
  315.0149 0.78 19
  315.1872 0.13 3
  315.6706 0.03 1
  315.9758 0.55 13
  316.1255 0.28 7
  316.2545 0.26 6
  317.0420 0.91 22
  317.7172 0.01 0
  317.9095 0.09 2
  318.0991 0.29 7
  318.2761 0.22 5
  318.6181 0.15 4
  318.9807 0.41 10
  319.1850 0.75 18
  319.6182 0.02 0
  319.8012 0.21 5
  319.9350 0.11 3
  320.0681 0.25 6
  320.2152 0.32 8
  320.3483 0.16 4
  320.4828 0.03 1
  320.9980 1.13 27
  321.1477 0.42 10
  321.8454 0.20 5
  322.0018 0.47 11
  322.1616 0.64 16
  322.4766 0.18 4
  323.0286 0.27 7
  323.5913 0.25 6
  324.0348 0.34 8
  324.2173 0.24 6
  324.6962 0.11 3
  324.9160 0.19 5
  325.0672 0.10 2
  325.3957 0.16 4
  325.5955 0.09 2
  325.9459 0.15 4
  326.0732 0.15 4
  326.2524 0.07 2
  326.3470 0.01 0
  326.8494 0.14 3
  327.0500 0.31 8
  327.2179 0.27 7
  327.8550 0.27 7
  328.0009 0.30 7
  328.2087 0.21 5
  329.0315 0.74 18
  329.2545 0.14 3
  329.9249 0.32 8
  330.1472 0.37 9
  330.8797 0.42 10
  331.0182 0.47 11
  331.1288 0.20 5
  331.4404 0.13 3
  331.5776 0.14 3
  331.8160 0.24 6
  331.9359 0.16 4
  332.1404 0.42 10
  332.3075 0.10 2
  332.7325 0.13 3
  333.0969 1.18 29
  333.9256 0.25 6
  334.2121 0.45 11
  334.4253 0.03 1
  334.8784 0.12 3
  335.1682 0.59 14
  335.6320 0.01 0
  335.8167 0.25 6
  335.9266 0.17 4
  336.1485 0.29 7
  336.4671 0.12 3
  336.6204 0.12 3
  336.7430 0.01 0
  336.8937 0.19 5
  337.1256 0.30 7
  337.5129 0.15 4
  337.9062 0.07 2
  338.0736 0.45 11
  338.2836 0.27 7
  338.8723 0.27 7
  338.9763 0.09 2
  339.0897 0.23 6
  339.1890 0.06 1
  339.9145 0.13 3
  340.1393 0.31 8
  340.3527 0.07 2
  340.6968 0.16 4
  340.8315 0.17 4
  341.0343 0.50 12
  341.1390 0.25 6
  341.5992 0.13 3
  341.7013 0.11 3
  341.7894 0.15 4
  341.9148 0.24 6
  342.0775 0.20 5
  342.4584 0.10 2
  343.0596 0.57 14
  343.5206 0.02 0
  343.7421 0.06 1
  344.0971 0.60 15
  344.3787 0.18 4
  344.6777 0.15 4
  344.8532 0.16 4
  345.0240 0.56 14
  345.2162 0.36 9
  345.7702 0.12 3
  346.1160 0.97 24
  346.7602 0.11 3
  346.8770 0.17 4
  347.0679 0.57 14
  347.2608 0.47 11
  347.7489 0.01 0
  348.0400 0.39 9
  348.2510 0.20 5
  348.7691 0.15 4
  349.0883 0.72 18
  349.5284 0.09 2
  349.9839 0.14 3
  350.0707 0.12 3
  350.3305 0.08 2
  351.1267 0.17 4
  351.3238 0.20 5
  351.9277 0.06 1
  352.0827 0.22 5
  352.2805 0.14 3
  352.7989 0.06 1
  352.9733 0.16 4
  353.0869 0.18 4
  353.2098 0.20 5
  353.7043 0.11 3
  353.8005 0.18 4
  353.9676 0.19 5
  354.0959 0.21 5
  354.2443 0.05 1
  354.8126 0.13 3
  354.9792 0.13 3
  355.1950 0.26 6
  355.3622 0.16 4
  355.5368 0.16 4
  356.0526 0.26 6
  356.1825 0.15 4
  356.2698 0.19 5
  357.1161 0.51 12
  357.2854 0.21 5
  357.7300 0.12 3
  358.0339 0.14 3
  358.2445 0.22 5
  358.5532 0.08 2
  358.7918 0.24 6
  358.8638 0.15 4
  359.1497 0.70 17
  359.6904 0.25 6
  360.0404 0.37 9
  360.2565 0.48 12
  360.4625 0.17 4
  360.6145 0.14 3
  360.7859 0.11 3
  361.0073 0.40 10
  361.1893 0.19 5
  361.3113 0.20 5
  361.3933 0.14 3
  361.7941 0.14 3
  362.0369 0.38 9
  362.1963 0.71 17
  362.3763 0.21 5
  362.5891 0.08 2
  362.7545 0.21 5
  363.0306 0.45 11
  363.1527 0.20 5
  364.0552 0.27 7
  364.2339 0.22 5
  364.6596 0.19 5
  365.0625 0.33 8
  365.6683 0.15 4
  365.7771 0.05 1
  366.0747 0.33 8
  366.1768 0.13 3
  366.4517 0.07 2
  366.9041 0.22 5
  367.0903 0.35 9
  367.2258 0.24 6
  367.6262 0.16 4
  368.0033 0.37 9
  368.2169 0.18 4
  368.9403 0.25 6
  369.1586 0.49 12
  369.9781 0.18 4
  370.0842 0.27 7
  370.2123 0.17 4
  370.6802 0.13 3
  370.9225 0.14 3
  371.0560 0.21 5
  371.1695 0.14 3
  371.2910 0.11 3
  371.7776 0.04 1
  372.0660 0.49 12
  372.3077 0.14 3
  373.1068 0.31 8
  373.2617 0.14 3
  374.1912 0.33 8
  374.3688 0.16 4
  374.6019 0.16 4
  374.9478 0.32 8
  375.1562 0.31 8
  376.0405 0.28 7
  376.1600 0.19 5
  377.0564 0.15 4
  377.2341 0.13 3
  378.0612 0.27 7
  378.3090 0.17 4
  379.0246 0.15 4
  379.1963 0.12 3
  379.4181 0.11 3
  380.0302 0.24 6
  380.2788 0.20 5
  381.0406 0.36 9
  381.1950 0.45 11
  381.3354 0.15 4
  381.6101 0.16 4
  382.0459 0.30 7
  382.1969 0.27 7
  382.4596 0.11 3
  382.7203 0.01 0
  382.9055 0.08 2
  383.0753 0.47 11
  383.2036 0.21 5
  383.3961 0.06 1
  384.0266 0.23 6
  384.3582 0.01 0
  384.5735 0.12 3
  384.7259 0.13 3
  384.9419 0.23 6
  385.1197 0.45 11
  385.4694 0.15 4
  385.8680 0.33 8
  386.0311 0.15 4
  386.1381 0.18 4
  386.2558 0.19 5
  386.4310 0.13 3
  386.7828 0.15 4
  387.1219 0.69 17
  387.2643 0.21 5
  387.9057 0.19 5
  388.0649 0.13 3
  388.2936 0.20 5
  388.5351 0.10 2
  388.8141 0.12 3
  388.9733 0.16 4
  389.0843 0.08 2
  389.4188 0.03 1
  389.8637 0.17 4
  390.2999 0.15 4
  390.6317 0.02 0
  391.1396 0.28 7
  392.0054 0.16 4
  392.2282 0.19 5
  392.3340 0.18 4
  392.6599 0.09 2
  392.8486 0.17 4
  393.3257 0.09 2
  394.0559 0.30 7
  394.2480 0.34 8
  394.4134 0.13 3
  394.9616 0.20 5
  395.2025 0.16 4
  395.3398 0.22 5
  395.6323 0.13 3
  396.0916 0.67 16
  396.2268 0.15 4
  396.4651 0.01 0
  396.7885 0.04 1
  397.0034 0.44 11
  397.1454 0.22 5
  397.2773 0.19 5
  398.0774 0.92 22
  398.4966 0.13 3
  398.9988 1.86 45
  399.2801 1.34 33
  399.6364 0.12 3
  399.9485 0.47 11
  400.1559 0.27 7
  400.2763 0.15 4
  400.4469 0.15 4
  400.6476 0.22 5
  400.8730 0.14 3
  401.1513 0.32 8
  401.4095 0.09 2
  401.7741 0.15 4
  402.0163 0.52 13
  402.1067 0.29 7
  402.1849 0.17 4
  402.2853 0.13 3
  402.4091 0.10 2
  402.6212 0.11 3
  402.7356 0.13 3
  402.9925 0.10 2
  403.1417 0.11 3
  403.2548 0.19 5
  403.3732 0.23 6
  404.2960 0.26 6
  404.8374 0.06 1
  405.0649 0.11 3
  405.2363 0.07 2
  405.3507 0.14 3
  405.9504 0.19 5
  406.1840 0.43 10
  407.0836 0.16 4
  407.2442 0.24 6
  407.5963 0.12 3
  408.3455 0.20 5
  408.9192 0.15 4
  409.2633 0.23 6
  409.3926 0.01 0
  409.8298 0.12 3
  410.0414 0.25 6
  410.1806 0.19 5
  410.2965 0.13 3
  410.7632 0.07 2
  410.8931 0.25 6
  411.1590 0.53 13
  411.3940 0.15 4
  411.6833 0.01 0
  411.9438 0.33 8
  412.1461 0.78 19
  412.3001 0.45 11
  412.7368 0.25 6
  412.9592 0.34 8
  413.1192 0.65 16
  413.3081 0.36 9
  413.9565 0.39 9
  414.2131 0.38 9
  414.7871 0.10 2
  415.1295 0.64 16
  415.3773 0.08 2
  415.6172 0.19 5
  416.0688 0.58 14
  416.2469 0.21 5
  416.7302 0.02 0
  417.2672 0.08 2
  417.8157 0.08 2
  418.1882 0.29 7
  418.4859 0.18 4
  419.1909 0.09 2
  419.2839 0.12 3
  419.4297 0.12 3
  419.5581 0.01 0
  420.0947 0.07 2
  420.2057 0.14 3
  420.4432 0.01 0
  420.5509 0.01 0
  420.7416 0.23 6
  420.8640 0.17 4
  421.2768 0.15 4
  421.3645 0.14 3
  421.5009 0.03 1
  421.8930 0.13 3
  422.0335 0.24 6
  422.1914 0.25 6
  422.4330 0.16 4
  422.5387 0.21 5
  422.6585 0.02 0
  422.7883 0.15 4
  422.9429 0.19 5
  423.1075 0.35 9
  423.3498 0.14 3
  423.4582 0.36 9
  423.5471 0.09 2
  423.7834 0.06 1
  423.8878 0.17 4
  423.9922 0.28 7
  424.1816 0.27 7
  424.3770 0.30 7
  424.4901 0.23 6
  424.7284 0.23 6
  424.9572 0.44 11
  425.0496 0.19 5
  425.3033 0.15 4
  425.3950 0.23 6
  425.7959 0.11 3
  425.9793 0.13 3
  426.1995 0.24 6
  426.2772 0.08 2
  426.4465 0.17 4
  426.9499 0.24 6
  427.1018 0.12 3
  427.2498 0.16 4
  427.5396 0.04 1
  427.6648 0.21 5
  427.8851 0.15 4
  428.0190 0.43 10
  428.2232 0.50 12
  428.3229 0.17 4
  428.5967 0.14 3
  428.9744 0.40 10
  429.2402 0.40 10
  429.3935 0.14 3
  429.4812 0.14 3
  429.5843 0.04 1
  429.7129 0.18 4
  429.9780 0.24 6
  430.2432 0.25 6
  430.4233 0.33 8
  430.8539 0.33 8
  431.2141 0.46 11
  431.8463 0.23 6
  432.1504 0.24 6
  433.0934 0.27 7
  433.2273 0.16 4
  433.3546 0.14 3
  433.7129 0.04 1
  433.8409 0.13 3
  434.1718 0.13 3
  434.7338 0.01 0
  435.2148 0.26 6
  435.4110 0.02 0
  435.8036 0.18 4
  436.0675 0.08 2
  436.1768 0.11 3
  436.5687 0.12 3
  437.0363 0.40 10
  437.2139 0.41 10
  437.3693 0.18 4
  437.4598 0.33 8
  437.6239 0.40 10
  437.8062 0.15 4
  437.9677 0.61 15
  438.1365 0.23 6
  438.3161 0.56 14
  438.5218 0.05 1
  438.6578 0.17 4
  438.8321 0.27 7
  439.0016 0.24 6
  439.1464 0.19 5
  439.3172 0.48 12
  439.4298 0.25 6
  439.5612 0.20 5
  439.7589 0.63 15
  440.0805 0.41 10
  440.3848 0.38 9
  440.5577 0.37 9
  440.6623 0.51 12
  440.7601 0.23 6
  440.9853 0.28 7
  441.2045 0.19 5
  441.3620 0.21 5
  441.4438 0.22 5
  441.6039 0.36 9
  441.8298 0.25 6
  441.9753 0.25 6
  442.1341 0.39 9
  442.2802 0.16 4
  442.4867 0.21 5
  442.5832 0.13 3
  442.7589 0.17 4
  443.0176 0.16 4
  443.1329 0.16 4
  443.4574 0.19 5
  443.8415 0.08 2
  444.0493 0.32 8
  444.2746 0.13 3
  444.3811 0.14 3
  444.7485 0.06 1
  444.9892 0.22 5
  445.2051 0.64 16
  445.3030 0.16 4
  445.4539 0.22 5
  446.1029 0.46 11
  446.3148 0.29 7
  446.5595 0.14 3
  446.9317 0.22 5
  447.1489 0.04 1
  447.4581 0.14 3
  447.8343 0.28 7
  448.0770 0.13 3
  448.2735 0.16 4
  449.0602 0.19 5
  449.1937 0.24 6
  449.3117 0.20 5
  450.1709 0.17 4
  450.3748 0.31 8
  451.0751 0.73 18
  451.6058 0.12 3
  452.0108 0.23 6
  452.1835 0.26 6
  452.2953 0.30 7
  452.7826 0.06 1
  453.1481 0.28 7
  453.4071 0.41 10
  453.5042 0.14 3
  453.9186 0.11 3
  454.0726 0.39 9
  454.3470 0.29 7
  454.7702 0.09 2
  455.1331 0.34 8
  455.2850 0.15 4
  455.3714 0.13 3
  455.5984 0.27 7
  455.7075 0.24 6
  456.0537 0.13 3
  456.3737 0.13 3
  456.5947 0.15 4
  456.7869 0.15 4
  456.9496 0.21 5
  457.1913 0.32 8
  457.3319 0.22 5
  457.5609 0.06 1
  457.7779 0.12 3
  458.0284 0.22 5
  458.2186 0.57 14
  458.3733 0.23 6
  458.5588 0.23 6
  458.8032 0.17 4
  459.0677 0.28 7
  459.3209 0.78 19
  459.4877 0.32 8
  460.2150 19.85 483
  460.7716 0.36 9
  460.9257 0.40 10
  461.0610 0.11 3
  461.2017 0.55 13
  461.3115 0.33 8
  461.4709 0.29 7
  461.6659 0.26 6
  461.7730 0.17 4
  461.9747 0.44 11
  462.1636 0.15 4
  462.3893 0.23 6
  462.5802 0.19 5
  462.7450 0.16 4
  463.0693 0.09 2
  463.3359 0.36 9
  463.6917 0.12 3
  463.8002 0.16 4
  464.1298 0.17 4
  464.2745 0.28 7
  465.1174 0.22 5
  465.3157 0.38 9
  465.4980 0.17 4
  465.9663 0.22 5
  466.2699 0.15 4
  466.4247 0.45 11
  467.1752 0.59 14
  467.3863 0.12 3
  467.7180 0.15 4
  467.7964 0.04 1
  468.1710 0.15 4
  468.3312 0.28 7
  468.5376 0.11 3
  469.3057 0.30 7
  469.6850 0.20 5
  470.2903 0.33 8
  470.4646 0.13 3
  470.6750 0.14 3
  470.9458 0.18 4
  471.1181 0.24 6
  471.2904 0.41 10
  471.5317 0.15 4
  471.6430 0.05 1
  471.9795 0.14 3
  472.2838 0.42 10
  473.2237 0.72 18
  473.4993 0.46 11
  474.8918 0.14 3
  475.0574 0.07 2
  475.1533 0.17 4
  475.5382 0.01 0
  475.9398 0.12 3
  476.0719 0.17 4
  476.2315 0.17 4
  477.1817 0.15 4
  477.3708 0.20 5
  477.9019 0.06 1
  478.2132 0.15 4
  478.3773 0.14 3
  478.5480 0.11 3
  479.0174 0.13 3
  479.2350 0.09 2
  479.6863 0.06 1
  479.7927 0.14 3
  480.0941 0.62 15
  480.1865 0.26 6
  480.3083 0.43 10
  480.4489 0.09 2
  480.6706 0.12 3
  480.8882 0.13 3
  481.0416 0.23 6
  481.1749 0.19 5
  481.3845 0.20 5
  481.5860 0.14 3
  482.2571 0.30 7
  483.2383 0.17 4
  484.2456 0.03 1
  484.3943 0.14 3
  484.8370 0.17 4
  485.0206 0.04 1
  485.9557 0.01 0
  486.7194 0.16 4
  486.9927 0.12 3
  487.9695 0.14 3
  488.7038 0.13 3
  489.1594 0.04 1
  489.3993 0.14 3
  489.6298 0.09 2
  489.8200 0.01 0
  490.2402 0.09 2
  491.0356 0.17 4
  491.1441 0.04 1
  491.7968 0.12 3
  491.9798 0.19 5
  492.1279 0.33 8
  492.2987 0.39 9
  492.5561 0.37 9
  493.0219 0.27 7
  493.3114 0.18 4
  493.4763 0.10 2
  493.8234 0.16 4
  494.0594 0.34 8
  494.1451 0.21 5
  494.2597 0.60 15
  494.3516 0.29 7
  494.8938 0.12 3
  495.1405 0.38 9
  495.2517 0.14 3
  495.6304 0.33 8
  495.9508 0.21 5
  496.1881 0.17 4
  496.4047 0.44 11
  496.8344 0.13 3
  497.0629 0.16 4
  497.1769 0.15 4
  497.6475 0.13 3
  498.1295 0.09 2
  499.2552 0.13 3
  499.4435 0.17 4
  500.1690 0.16 4
  501.1238 0.01 0
  501.4939 0.08 2
  502.0739 0.13 3
  502.5246 0.18 4
  502.6922 0.02 0
  503.1603 0.30 7
  504.0035 0.22 5
  504.0919 0.13 3
  504.2198 0.17 4
  504.9095 0.16 4
  505.0301 0.21 5
  505.2805 0.12 3
  505.3676 0.18 4
  505.5202 0.47 11
  505.6675 0.22 5
  505.8156 0.13 3
  505.9093 0.16 4
  506.0814 0.52 13
  506.2180 0.31 8
  506.4149 0.19 5
  506.5475 0.15 4
  506.6466 0.12 3
  506.8709 0.16 4
  507.1060 0.41 10
  507.2426 0.26 6
  507.3967 0.14 3
  507.5380 0.20 5
  507.8548 0.14 3
  508.0383 0.59 14
  508.2533 0.88 21
  508.3993 0.22 5
  508.7321 0.19 5
  508.8788 0.13 3
  509.1414 0.42 10
  509.2351 0.17 4
  509.4455 0.42 10
  510.2144 0.27 7
  510.4984 0.17 4
  510.8615 0.01 0
  511.1495 0.18 4
  512.1088 0.11 3
  512.7599 0.06 1
  513.1063 0.12 3
  513.3978 0.14 3
  513.6912 0.15 4
  513.7796 0.06 1
  514.1434 0.14 3
  514.4818 0.20 5
  514.6546 0.16 4
  514.9695 0.28 7
  515.8010 0.15 4
  516.0858 0.43 10
  516.2071 0.31 8
  516.4222 0.23 6
  516.7076 0.13 3
  516.8075 0.12 3
  516.9750 0.15 4
  517.1097 0.15 4
  517.3000 0.28 7
  517.6840 0.19 5
  517.9319 0.21 5
  518.1296 0.17 4
  518.2529 0.15 4
  518.3668 0.20 5
  518.5551 0.11 3
  518.9210 0.28 7
  519.0189 0.32 8
  519.2421 0.82 20
  519.4967 0.29 7
  519.6649 0.16 4
  520.0757 0.21 5
  520.2855 0.26 6
  520.4196 0.38 9
  520.6582 0.31 8
  520.9638 0.14 3
  521.0851 0.19 5
  521.3244 0.62 15
  521.4873 0.42 10
  521.6093 0.09 2
  521.7366 0.03 1
  521.9243 0.21 5
  522.0684 0.32 8
  522.3057 0.87 21
  522.3922 0.36 9
  522.6234 0.13 3
  522.8801 0.12 3
  523.1965 0.72 18
  523.3179 0.30 7
  523.6544 0.21 5
  524.1752 0.45 11
  524.3133 0.25 6
  524.7202 0.10 2
  525.0487 0.28 7
  525.2318 0.12 3
  525.5468 0.04 1
  525.6581 0.16 4
  525.8431 0.27 7
  526.0101 0.15 4
  526.2581 0.06 1
  526.4573 0.34 8
  526.9145 0.20 5
  527.0701 0.32 8
  527.4683 0.45 11
  527.5903 0.19 5
  527.8337 0.23 6
  527.9075 0.15 4
  528.0657 0.15 4
  528.2213 0.32 8
  528.3876 0.18 4
  528.6497 0.55 13
  528.7725 0.36 9
  528.9609 0.11 3
  529.0889 0.31 8
  529.2834 0.33 8
  529.4061 0.12 3
  529.5255 0.20 5
  530.0089 0.34 8
  530.4482 0.35 9
  530.5280 0.21 5
  530.7587 0.50 12
  530.9779 0.25 6
  531.2375 0.18 4
  531.3770 0.32 8
  531.5292 0.54 13
  531.7236 0.88 21
  531.9094 0.38 9
  532.0630 0.48 12
  532.2823 0.62 15
  532.5552 0.54 13
  532.7397 0.38 9
  532.9946 1.08 26
  533.2581 1.01 25
  533.4976 0.64 16
  533.7182 0.88 21
  534.3051 8.83 215
  534.7793 0.75 18
  535.2415 1.60 39
  535.5031 0.84 20
  535.6768 0.64 16
  536.1671 2.64 64
  536.4529 1.45 35
  537.2894 7.35 179
  537.7308 0.81 20
  537.9891 0.35 9
  538.2098 0.83 20
  538.3782 0.66 16
  538.5485 0.54 13
  538.8297 0.46 11
  539.1705 0.37 9
  539.2751 0.19 5
  539.6246 0.60 15
  540.0836 0.32 8
  540.3338 0.21 5
  540.4975 0.31 8
  540.7055 0.39 9
  540.9028 0.22 5
  541.1826 0.68 17
  541.2852 0.35 9
  541.7133 0.67 16
  541.9850 0.95 23
  542.3031 0.68 17
  542.5836 0.40 10
  543.0472 0.54 13
  543.3237 0.56 14
  543.5881 0.82 20
  543.9800 0.87 21
  544.2370 0.59 14
  544.4974 1.04 25
  544.7799 0.79 19
  545.2704 0.95 23
  545.6382 0.94 23
  545.8724 1.14 28
  546.9641 1.69 41
  552.2807 99.97 999
  552.8403 41.00 998
  553.5920 19.67 479
  554.3531 10.07 245
  554.7969 6.73 164
  555.4376 4.00 97
  556.3093 2.21 54
  556.9513 1.81 44
  557.2405 1.44 35
  557.5987 1.18 29
  557.9174 1.33 32
  558.0466 0.95 23
  558.2569 1.02 25
  558.5943 0.56 14
  558.8367 0.69 17
  559.1461 0.80 19
  559.3569 0.60 15
  559.8043 0.40 10
  559.9897 0.42 10
  560.2515 0.56 14
  560.4022 0.24 6
  560.6319 0.15 4
  560.8616 0.28 7
  561.1381 0.31 8
  561.3109 0.13 3
  561.4843 0.15 4
  561.6973 0.12 3
  561.8915 0.12 3
  561.9939 0.25 6
  562.2162 0.21 5
  562.4479 0.19 5
//
