ACCESSION: MSBNK-Kyoto_Univ-CA000093
RECORD_TITLE: Peridininol furanoxide; FAB-EBEB; MS2; m/z: 588.35; [M]+*
DATE: 2016.01.19 (Created 2010.04.01, modified 2011.05.10)
AUTHORS: Akimoto N, Graduate School of Pharmaceutical Sciences, Kyoto University and Maoka T, Research Institute for Production Development
LICENSE: CC BY-SA
PUBLICATION: Takashi Maoka, Yasuhiro Fujiwara, Keiji Hashimoto, and Naoshige Akimoto, Carotenoids in Three Species of Corbicula Clams, Corbicula japonica, Corbicula sandai, and Corbicula sp. (Chinese Freshwater Corbicula Clam), J. Agric. Food Chem., 53, 8357-8364 (2005).
COMMENT: Profile spectrum of this record is given as a JPEG file.
COMMENT: [Profile] CA000093.jpg
CH$NAME: Peridininol furanoxide
CH$COMPOUND_CLASS: N/A
CH$FORMULA: C37H48O6
CH$EXACT_MASS: 588.34509
CH$SMILES: C/C(=C\C=C\C=C\C=C(/C)\C=C/1\C=C(C(=O)O1)C2C=C3[C@](O2)(C[C@H](CC3(C)C)O)C)/C=C=C4[C@](C[C@H](CC4(C)C)O)(C)O
CH$IUPAC: InChI=1S/C37H48O6/c1-24(15-16-31-34(3,4)20-26(38)22-36(31,7)41)13-11-9-10-12-14-25(2)17-28-18-29(33(40)42-28)30-19-32-35(5,6)21-27(39)23-37(32,8)43-30/h9-15,17-19,26-27,30,38-39,41H,20-23H2,1-8H3/b11-9+,12-10+,24-13+,25-14+,28-17-/t16?,26-,27-,30?,36+,37+/m0/s1
CH$LINK: INCHIKEY RWIFCBRKLSVYBB-VTZPPSHPSA-N
CH$LINK: PUBCHEM CID:101776196
AC$INSTRUMENT: JMS-HX/HX 110A, JEOL
AC$INSTRUMENT_TYPE: FAB-EBEB
AC$MASS_SPECTROMETRY: MS_TYPE MS2
AC$MASS_SPECTROMETRY: ION_MODE POSITIVE
AC$MASS_SPECTROMETRY: ATOM_GUN_CURRENT 5 mA
AC$MASS_SPECTROMETRY: BOMBARDMENT 6 kV xenon
AC$MASS_SPECTROMETRY: COLLISION_ENERGY 3 kV
AC$MASS_SPECTROMETRY: COLLISION_GAS Ar
AC$MASS_SPECTROMETRY: GAS_PRESSURE adjust to attenuate the intensity of the precursor ion by 30 %
AC$MASS_SPECTROMETRY: IONIZATION FAB
AC$MASS_SPECTROMETRY: MATRIX 1-2 uL m-NBA
AC$MASS_SPECTROMETRY: PROBE_TIP stainless-steel
MS$FOCUSED_ION: BASE_PEAK 570.3678
MS$FOCUSED_ION: PRECURSOR_M/Z 588.35
MS$FOCUSED_ION: PRECURSOR_TYPE [M]+*
MS$DATA_PROCESSING: RELATIVE_M/Z normalised by peak(m/z=570.3678).  set 999 for peak(m/z=588.2922,rel=2365).
PK$SPLASH: splash10-0079-4841190000-ac99e69cc00c7e1f1211
PK$NUM_PEAK: 1655
PK$PEAK: m/z int. rel.int.
  1.0898 0.04 1
  1.1436 0.02 0
  1.1628 0.05 1
  1.3318 0.01 0
  4.7835 0.01 0
  5.0042 0.02 0
  5.0460 0.01 0
  5.7792 0.06 1
  10.8747 0.01 0
  12.9833 0.07 2
  13.9754 0.09 2
  14.2496 0.02 0
  14.9631 0.04 1
  18.6155 0.01 0
  18.9845 0.04 1
  19.2407 0.01 0
  21.5222 0.01 0
  22.3103 0.01 0
  22.9366 0.18 4
  24.7649 0.04 1
  24.9653 0.06 1
  25.9641 0.25 6
  26.9703 1.54 36
  27.9601 0.08 2
  28.9713 0.83 20
  29.9135 0.01 0
  30.9531 0.29 7
  36.6613 0.11 3
  36.8882 0.17 4
  36.9510 0.11 3
  37.1040 0.04 1
  37.9415 0.23 5
  38.9528 3.07 73
  39.1066 0.03 1
  39.8195 0.03 1
  39.9612 0.33 8
  40.3618 0.03 1
  40.9704 3.77 89
  41.9708 0.42 10
  42.9495 18.71 443
  43.6634 0.01 0
  43.9478 0.29 7
  44.9514 0.45 11
  46.9426 0.01 0
  48.9688 0.15 4
  49.9431 0.58 14
  50.9400 2.02 48
  51.1564 0.03 1
  51.9507 0.86 20
  52.9592 2.60 62
  53.9636 0.42 10
  54.9686 5.26 124
  55.4707 0.08 2
  55.9935 0.29 7
  56.9884 5.98 141
  57.9619 0.31 7
  58.9669 1.41 33
  59.9197 0.13 3
  59.9832 0.05 1
  60.9311 0.12 3
  61.9548 0.56 13
  62.1068 0.01 0
  62.9614 1.38 33
  63.9576 0.28 7
  64.1541 0.06 1
  64.2968 0.10 2
  64.9478 1.46 35
  65.9613 0.39 9
  66.9669 2.64 62
  67.9552 0.24 6
  68.3649 0.03 1
  68.4905 0.07 2
  68.9611 4.74 112
  69.1786 0.01 0
  69.3459 0.01 0
  69.8007 0.05 1
  69.9769 0.23 5
  70.9429 0.95 22
  71.8307 0.15 4
  71.9724 0.38 9
  72.9562 0.12 3
  73.4469 0.03 1
  73.9339 0.31 7
  74.9375 0.47 11
  75.0795 0.09 2
  75.4093 0.05 1
  75.4871 0.03 1
  75.9199 0.46 11
  76.5134 0.06 1
  76.6091 0.08 2
  76.9417 4.49 106
  77.3905 0.03 1
  77.6432 0.08 2
  77.9449 1.69 40
  78.1024 0.10 2
  78.4607 0.17 4
  78.9518 3.72 88
  79.9581 0.73 17
  80.9496 2.97 70
  81.4878 0.08 2
  81.9331 0.65 15
  82.0351 0.15 4
  82.4907 0.17 4
  82.9522 6.52 154
  83.8920 0.15 4
  84.2166 0.08 2
  84.9497 2.43 57
  85.1211 0.08 2
  85.2926 0.04 1
  85.8022 0.12 3
  85.9427 0.38 9
  86.9377 1.59 38
  87.9110 0.22 5
  88.0867 0.06 1
  88.9327 1.04 25
  89.2719 0.01 0
  89.9291 0.45 11
  90.1471 0.31 7
  90.3080 0.16 4
  90.6117 0.15 4
  90.9504 6.92 164
  91.3773 0.02 0
  91.4879 0.12 3
  91.9631 1.13 27
  92.5240 0.06 1
  92.9696 3.70 88
  93.1898 0.04 1
  93.3758 0.02 0
  93.9649 0.77 18
  94.0866 0.11 3
  94.9634 5.93 140
  95.9509 0.43 10
  96.5214 0.02 0
  96.9583 2.05 49
  97.9234 0.29 7
  98.9288 0.61 14
  99.8181 0.12 3
  99.9363 0.08 2
  100.9589 0.37 9
  101.1616 0.05 1
  101.3468 0.10 2
  101.9655 0.61 14
  102.1485 0.05 1
  102.4323 0.04 1
  102.5880 0.08 2
  102.6555 0.03 1
  102.9534 1.83 43
  103.3096 0.08 2
  103.5457 0.21 5
  103.9769 0.89 21
  104.5165 0.09 2
  104.7111 0.10 2
  104.9711 6.69 158
  105.5751 0.10 2
  105.9651 1.16 27
  106.1892 0.06 1
  106.4285 0.01 0
  106.9786 5.31 126
  107.9695 1.31 31
  108.5578 0.08 2
  108.9844 3.57 84
  109.2042 0.06 1
  109.3905 0.04 1
  109.8000 0.04 1
  109.9638 0.40 9
  110.9632 0.78 18
  112.0352 0.26 6
  112.5914 0.13 3
  112.7260 0.11 3
  112.8124 0.05 1
  112.9840 0.25 6
  113.0508 0.12 3
  113.9355 0.49 12
  114.3162 0.06 1
  114.4131 0.04 1
  114.5131 0.10 2
  114.9471 4.49 106
  115.1709 0.07 2
  115.4197 0.05 1
  115.9411 1.28 30
  116.1780 0.16 4
  116.2853 0.08 2
  116.4208 0.08 2
  116.9629 3.10 73
  117.3032 0.05 1
  117.4529 0.03 1
  117.9536 0.77 18
  118.9534 5.82 138
  119.2588 0.03 1
  119.4937 0.10 2
  119.9483 1.45 34
  120.4045 0.08 2
  120.6494 0.02 0
  120.9485 7.29 172
  121.1782 0.04 1
  121.9385 1.15 27
  122.7429 0.09 2
  122.9641 2.15 51
  123.2293 0.09 2
  123.6928 0.11 3
  123.9621 0.39 9
  124.2102 0.14 3
  124.4196 0.11 3
  124.5825 0.24 6
  124.9343 11.72 277
  125.3238 0.19 4
  125.4344 0.06 1
  125.6843 0.10 2
  125.9511 0.68 16
  126.4487 0.04 1
  126.9408 1.46 35
  127.2028 0.13 3
  127.3702 0.15 4
  127.9343 4.67 111
  128.2831 0.11 3
  128.6269 0.22 5
  128.9370 4.65 110
  129.1821 0.05 1
  129.3122 0.12 3
  129.7345 0.21 5
  129.9480 1.65 39
  130.1264 0.07 2
  130.9467 3.56 84
  131.2446 0.10 2
  131.9192 1.08 26
  132.9398 3.53 84
  133.8067 0.47 11
  133.9592 1.02 24
  134.9273 3.12 74
  135.9313 0.99 23
  136.9505 1.66 39
  137.3730 0.01 0
  137.7121 0.12 3
  137.9402 0.55 13
  138.5927 0.05 1
  138.9396 0.80 19
  139.5717 0.10 2
  139.9341 0.48 11
  140.3012 0.15 4
  140.5010 0.09 2
  140.9462 4.07 96
  141.3790 0.12 3
  141.5005 0.10 2
  141.9310 2.31 55
  142.4951 0.11 3
  142.9525 4.29 102
  143.3010 0.17 4
  143.9420 1.11 26
  144.2174 0.07 2
  144.3478 0.09 2
  144.5193 0.06 1
  144.9445 6.02 142
  145.3997 0.11 3
  145.5568 0.11 3
  145.9314 1.41 33
  146.4030 0.17 4
  146.5304 0.07 2
  146.9432 3.26 77
  147.2273 0.10 2
  147.2964 0.04 1
  147.9686 0.63 15
  148.5987 0.10 2
  148.9438 2.80 66
  149.3084 0.10 2
  149.9287 0.57 13
  150.2776 0.07 2
  150.4527 0.11 3
  150.9584 1.72 41
  151.4896 0.16 4
  151.6330 0.12 3
  151.9244 1.88 44
  152.1659 0.09 2
  152.3000 0.08 2
  152.3981 0.13 3
  152.5082 0.19 4
  152.7478 0.34 8
  152.9547 1.85 44
  153.5618 0.03 1
  153.9353 1.35 32
  154.1578 0.19 4
  154.4653 0.09 2
  154.9641 2.67 63
  155.2170 0.25 6
  155.4699 0.07 2
  155.6118 0.03 1
  155.9672 1.81 43
  156.3455 0.10 2
  156.6047 0.12 3
  156.9838 2.74 65
  157.1976 0.09 2
  157.6366 0.10 2
  157.9799 1.38 33
  158.2838 0.09 2
  158.4381 0.08 2
  158.9850 3.01 71
  159.3146 0.05 1
  159.4160 0.14 3
  159.5617 0.06 1
  159.9465 0.48 11
  160.3987 0.01 0
  160.9599 2.54 60
  161.3486 0.05 1
  161.9857 0.76 18
  163.0096 2.58 61
  163.2702 0.06 1
  163.5909 0.06 1
  163.7317 0.14 3
  164.0060 0.43 10
  164.9783 3.30 78
  165.3331 0.12 3
  165.6408 0.03 1
  165.9817 1.59 38
  166.1599 0.16 4
  166.4435 0.10 2
  166.9960 4.74 112
  167.3419 0.07 2
  167.5372 0.22 5
  167.9929 1.42 34
  168.3485 0.09 2
  168.4209 0.05 1
  168.9925 2.55 60
  169.6581 0.07 2
  170.0010 1.06 25
  170.3744 0.11 3
  170.4810 0.07 2
  171.0227 3.82 90
  171.4714 0.05 1
  171.6538 0.16 4
  172.0141 1.57 37
  173.0062 2.80 66
  173.2559 0.14 3
  173.6355 0.07 2
  173.9659 0.34 8
  174.5915 0.13 3
  174.9973 2.23 53
  175.4913 0.10 2
  175.9651 1.04 25
  176.3332 0.10 2
  176.9464 0.96 23
  177.4424 0.16 4
  177.7125 0.17 4
  177.9847 2.22 53
  178.3826 0.11 3
  178.6026 0.03 1
  178.9837 2.87 68
  179.5531 0.11 3
  179.7162 0.06 1
  179.9983 1.61 38
  180.2825 0.23 5
  180.5355 0.24 6
  181.0007 9.63 228
  181.3314 0.17 4
  181.5028 0.12 3
  182.0038 1.19 28
  182.4844 0.13 3
  183.0000 2.48 59
  183.5791 0.04 1
  184.0023 1.22 29
  184.9711 2.14 51
  185.3074 0.04 1
  185.9904 1.06 25
  186.2491 0.06 1
  186.5071 0.07 2
  186.9803 1.91 45
  187.3853 0.11 3
  187.4631 0.07 2
  187.7336 0.27 6
  188.0049 0.69 16
  188.1668 0.06 1
  188.3418 0.14 3
  188.9939 1.88 44
  189.3427 0.08 2
  189.4883 0.12 3
  189.6580 0.06 1
  190.0061 0.93 22
  190.2456 0.11 3
  190.5597 0.06 1
  190.9902 1.66 39
  191.4783 0.10 2
  191.9584 1.08 26
  192.4626 0.12 3
  192.9895 2.33 55
  193.3761 0.05 1
  193.5009 0.15 4
  193.9705 1.53 36
  194.3855 0.08 2
  194.5995 0.22 5
  194.9781 2.48 59
  195.3103 0.10 2
  195.9589 1.34 32
  196.2321 0.07 2
  196.5054 0.12 3
  196.9999 2.11 50
  197.2610 0.08 2
  197.4630 0.10 2
  197.7543 0.42 10
  197.9886 0.91 22
  198.1234 0.42 10
  198.2849 0.04 1
  198.9710 1.30 31
  199.5694 0.12 3
  199.9766 1.08 26
  200.1658 0.13 3
  200.3448 0.04 1
  200.5354 0.04 1
  200.9711 1.06 25
  201.2644 0.10 2
  201.6837 0.05 1
  201.9723 1.42 34
  202.2547 0.12 3
  202.4345 0.07 2
  202.6226 0.03 1
  203.0015 1.95 46
  203.7059 0.14 3
  203.9845 0.56 13
  204.4892 0.11 3
  204.5941 0.04 1
  204.9886 1.09 26
  205.5454 0.09 2
  206.0036 0.70 17
  207.0191 2.12 50
  207.9799 1.08 26
  208.5728 0.11 3
  208.9930 1.83 43
  209.2280 0.15 4
  209.3877 0.09 2
  209.6387 0.12 3
  209.7874 0.10 2
  209.9907 1.18 28
  210.4901 0.13 3
  210.6595 0.17 4
  211.0013 1.52 36
  211.3078 0.12 3
  211.4345 0.09 2
  211.6379 0.19 4
  212.0041 0.78 18
  212.1342 0.17 4
  212.5192 0.14 3
  212.9928 1.33 31
  213.7285 0.20 5
  213.9931 0.58 14
  214.2641 0.04 1
  215.0299 1.58 37
  215.9993 0.85 20
  216.7047 0.07 2
  217.0301 1.04 25
  217.6290 0.11 3
  218.0371 1.90 45
  218.4321 0.13 3
  218.7217 0.25 6
  219.0363 1.55 37
  219.5600 0.09 2
  220.0324 1.02 24
  220.3277 0.11 3
  220.5910 0.08 2
  221.0011 2.01 48
  221.3598 0.11 3
  221.4300 0.06 1
  221.5788 0.04 1
  222.0377 0.76 18
  222.6296 0.03 1
  223.0400 0.80 19
  223.4289 0.01 0
  223.9523 0.48 11
  224.3810 0.08 2
  225.0445 1.69 40
  225.2694 0.17 4
  225.5528 0.18 4
  225.6490 0.03 1
  226.0557 0.83 20
  226.2459 0.18 4
  226.6012 0.12 3
  227.0542 1.06 25
  227.7267 0.11 3
  228.0223 0.69 16
  228.1722 0.25 6
  228.5020 0.11 3
  228.6805 0.11 3
  229.0599 1.00 24
  229.5447 0.09 2
  229.6926 0.08 2
  230.0638 0.73 17
  230.4754 0.06 1
  230.6883 0.14 3
  231.0652 1.18 28
  231.3201 0.13 3
  232.0288 0.64 15
  232.2920 0.05 1
  232.4111 0.24 6
  233.0615 3.21 76
  233.7191 0.10 2
  234.0487 1.67 40
  234.4744 0.14 3
  234.7197 0.11 3
  234.8542 0.41 10
  235.0654 1.42 34
  235.2188 0.14 3
  235.5506 0.15 4
  235.7954 0.16 4
  236.0945 0.45 11
  236.6447 0.10 2
  236.8100 0.43 10
  237.0291 1.65 39
  237.2097 0.23 5
  237.4867 0.06 1
  238.0463 0.66 16
  238.2920 0.19 4
  239.0179 0.92 22
  239.4696 0.12 3
  239.7063 0.10 2
  239.9947 0.55 13
  240.1372 0.28 7
  240.5492 0.11 3
  240.6917 0.15 4
  240.8161 0.08 2
  241.0396 1.18 28
  241.6608 0.12 3
  242.0346 0.45 11
  242.4050 0.07 2
  242.5155 0.06 1
  242.7965 0.20 5
  243.0852 1.29 31
  243.3635 0.16 4
  243.5285 0.13 3
  244.0215 0.45 11
  244.1823 0.11 3
  245.0637 1.19 28
  245.4296 0.12 3
  246.0636 0.90 21
  246.3198 0.11 3
  247.0499 1.03 24
  247.4287 0.14 3
  247.9966 0.24 6
  248.1150 0.21 5
  248.2865 0.19 4
  249.0305 0.94 22
  249.3731 0.12 3
  249.5118 0.01 0
  249.8383 0.10 2
  250.1018 0.55 13
  250.3408 0.10 2
  250.5069 0.11 3
  251.0376 1.26 30
  251.1673 0.52 12
  251.3510 0.09 2
  251.7583 0.25 6
  252.0557 0.54 13
  252.3636 0.07 2
  252.4800 0.01 0
  253.0552 1.67 40
  253.5224 0.11 3
  253.9140 0.35 8
  254.0971 0.42 10
  254.2031 0.24 6
  254.4557 0.11 3
  254.7849 0.11 3
  255.0530 0.70 17
  255.4658 0.13 3
  255.5782 0.12 3
  255.8478 0.13 3
  256.1757 0.35 8
  256.3997 0.13 3
  257.0501 0.98 23
  257.3844 0.11 3
  258.0349 0.48 11
  258.6546 0.08 2
  259.0776 1.43 34
  259.6814 0.11 3
  259.8276 0.17 4
  260.0905 0.62 15
  260.4251 0.16 4
  260.7823 0.12 3
  261.0600 1.28 30
  261.8252 0.05 1
  262.0031 0.38 9
  262.1445 0.45 11
  262.2803 0.13 3
  263.0767 1.08 26
  263.4567 0.10 2
  264.0753 0.36 9
  264.5321 0.11 3
  264.6884 0.17 4
  264.7869 0.07 2
  265.0389 0.94 22
  265.3480 0.10 2
  265.5551 0.14 3
  266.0452 0.56 13
  266.4980 0.06 1
  266.6185 0.10 2
  266.7593 0.07 2
  266.8756 0.21 5
  267.0799 0.89 21
  267.3771 0.11 3
  267.7724 0.10 2
  268.0388 0.40 9
  268.1508 0.14 3
  268.4820 0.14 3
  269.0155 0.43 10
  269.1868 0.27 6
  269.4286 0.01 0
  269.6542 0.12 3
  269.8283 0.10 2
  270.0257 0.67 16
  270.2034 0.11 3
  270.7993 0.12 3
  271.0962 1.13 27
  271.5850 0.12 3
  271.8819 0.07 2
  272.0498 0.46 11
  272.2234 0.29 7
  273.0150 0.86 20
  273.7165 0.12 3
  273.8336 0.03 1
  274.0101 0.16 4
  274.1569 0.17 4
  274.2826 0.24 6
  274.4880 0.10 2
  274.7132 0.10 2
  274.8516 0.16 4
  275.0521 0.50 12
  275.2328 0.09 2
  275.7384 0.05 1
  276.0477 0.43 10
  276.6002 0.02 0
  277.0802 0.50 12
  277.2684 0.38 9
  278.0621 0.42 10
  278.2744 0.11 3
  278.4450 0.12 3
  278.8575 0.25 6
  279.1304 0.45 11
  279.8519 0.10 2
  280.1143 0.84 20
  281.1048 1.17 28
  281.5508 0.17 4
  281.6764 0.11 3
  282.1697 3.76 89
  282.5790 0.11 3
  282.8494 0.22 5
  283.1085 0.67 16
  283.2596 0.28 7
  283.7735 0.01 0
  284.1471 0.77 18
  284.3871 0.25 6
  284.6859 0.05 1
  284.8822 0.38 9
  285.1082 0.62 15
  285.6267 0.12 3
  285.9474 0.51 12
  286.0555 0.21 5
  286.1975 0.13 3
  287.0623 0.75 18
  287.4249 0.11 3
  287.8970 0.10 2
  288.0772 0.33 8
  288.2751 0.19 4
  288.8018 0.16 4
  289.0775 0.67 16
  289.2034 0.33 8
  289.2960 0.20 5
  289.5463 0.10 2
  289.8984 0.14 3
  290.0738 0.38 9
  290.2733 0.10 2
  290.4253 0.09 2
  290.6035 0.08 2
  291.0251 0.37 9
  291.2366 0.25 6
  291.4000 0.09 2
  292.0322 0.41 10
  292.1502 0.38 9
  292.6705 0.14 3
  292.8430 0.09 2
  293.1187 0.50 12
  293.2876 0.12 3
  293.3936 0.08 2
  293.7818 0.13 3
  294.0929 0.45 11
  294.2061 0.24 6
  295.0455 0.30 7
  295.3992 0.09 2
  295.7479 0.01 0
  295.9749 0.34 8
  296.1384 0.26 6
  296.4582 0.10 2
  296.7072 0.19 4
  297.0355 0.52 12
  297.1508 0.31 7
  297.3638 0.03 1
  297.9010 0.27 6
  298.0885 0.25 6
  298.2223 0.25 6
  298.6088 0.13 3
  298.7588 0.11 3
  298.9485 0.51 12
  299.1375 0.28 7
  299.7471 0.09 2
  300.0530 0.46 11
  300.1741 0.15 4
  301.0295 0.77 18
  301.3589 0.08 2
  301.6514 0.11 3
  302.0417 0.56 13
  302.1962 0.12 3
  302.8026 0.28 7
  303.1101 0.52 12
  303.4587 0.01 0
  303.9973 0.32 8
  304.2064 0.11 3
  304.9662 0.30 7
  305.1668 0.17 4
  305.4227 0.12 3
  306.0629 0.42 10
  306.1913 0.23 5
  306.9925 0.77 18
  307.2733 0.05 1
  307.5946 0.03 1
  307.9713 0.28 7
  308.1238 0.16 4
  308.2323 0.04 1
  309.0183 0.39 9
  309.7172 0.10 2
  309.9492 0.26 6
  310.0947 0.21 5
  310.4765 0.11 3
  310.7668 0.13 3
  311.0826 0.49 12
  311.3090 0.25 6
  311.3928 0.12 3
  311.9195 0.32 8
  312.0515 0.53 13
  312.1992 0.13 3
  312.8026 0.23 5
  312.9503 0.20 5
  313.1662 0.35 8
  313.9402 0.28 7
  314.0326 0.22 5
  314.6064 0.08 2
  314.8685 0.36 9
  315.0156 0.70 17
  315.3928 0.06 1
  315.6158 0.08 2
  315.8013 0.13 3
  316.0286 0.31 7
  316.1046 0.15 4
  316.2069 0.08 2
  316.5302 0.09 2
  316.7114 0.03 1
  316.9282 0.12 3
  317.1016 0.22 5
  317.5208 0.11 3
  317.9636 0.10 2
  318.0823 0.22 5
  318.2458 0.12 3
  318.5927 0.10 2
  318.7469 0.13 3
  319.0690 0.35 8
  319.6570 0.10 2
  319.8127 0.03 1
  320.0829 0.28 7
  321.0187 0.36 9
  321.1758 0.40 9
  321.2591 0.13 3
  321.8288 0.17 4
  322.1019 0.49 12
  322.8425 0.17 4
  323.0417 0.51 12
  323.1377 0.35 8
  323.3085 0.11 3
  324.0364 0.24 6
  324.6164 0.06 1
  324.7864 0.16 4
  325.0804 0.55 13
  325.5039 0.10 2
  325.9310 0.15 4
  326.1324 0.42 10
  327.0280 0.70 17
  327.1555 0.23 5
  327.2530 0.08 2
  327.5015 0.12 3
  327.9900 0.16 4
  328.2628 0.11 3
  328.6730 0.12 3
  329.0412 0.28 7
  329.3688 0.10 2
  329.4871 0.09 2
  329.6758 0.03 1
  330.0363 0.30 7
  330.1888 0.33 8
  330.3882 0.12 3
  330.9204 0.34 8
  331.1648 0.43 10
  331.7691 0.11 3
  331.9807 0.29 7
  332.1447 0.42 10
  332.4019 0.19 4
  332.5573 0.11 3
  332.8880 0.12 3
  333.0398 0.26 6
  333.1952 0.20 5
  333.9237 0.09 2
  334.0955 0.20 5
  334.4826 0.06 1
  335.1307 0.51 12
  335.3575 0.19 4
  335.7169 0.14 3
  336.1005 0.21 5
  336.2529 0.17 4
  336.3582 0.11 3
  336.7412 0.11 3
  337.1064 0.50 12
  337.2844 0.12 3
  337.4510 0.11 3
  338.0591 0.08 2
  338.2250 0.13 3
  339.0475 0.48 11
  339.2861 0.23 5
  339.5824 0.12 3
  340.0909 0.22 5
  340.2127 0.17 4
  341.0205 0.20 5
  341.1523 0.10 2
  341.4309 0.08 2
  341.5478 0.11 3
  341.9760 0.02 0
  342.1755 0.35 8
  342.2581 0.12 3
  342.5311 0.10 2
  342.6736 0.05 1
  342.8140 0.14 3
  343.0178 0.55 13
  343.1674 0.20 5
  343.9992 0.17 4
  344.1653 0.26 6
  344.8560 0.03 1
  345.0741 0.27 6
  345.3008 0.11 3
  346.0331 0.27 6
  346.2798 0.21 5
  346.5621 0.06 1
  346.9115 0.17 4
  347.1754 0.27 6
  347.4357 0.10 2
  347.5705 0.08 2
  347.6675 0.08 2
  347.9135 0.15 4
  348.0762 0.26 6
  348.2751 0.17 4
  348.9449 0.15 4
  349.1682 0.15 4
  349.2510 0.06 1
  349.5249 0.09 2
  349.8588 0.03 1
  350.0236 0.23 5
  350.1970 0.13 3
  350.7435 0.11 3
  351.1339 0.17 4
  351.3030 0.09 2
  351.4843 0.18 4
  351.6855 0.15 4
  352.1187 0.20 5
  352.2693 0.11 3
  352.8938 0.25 6
  353.0494 0.38 9
  353.2193 0.49 12
  353.4820 0.05 1
  354.0710 0.30 7
  354.2858 0.15 4
  355.0841 0.47 11
  355.2483 0.15 4
  355.3254 0.08 2
  355.8802 0.25 6
  356.0988 0.16 4
  356.2238 0.13 3
  356.5966 0.10 2
  356.8558 0.26 6
  356.9829 0.21 5
  357.1187 0.23 5
  357.2558 0.13 3
  357.4193 0.09 2
  358.0494 0.33 8
  358.2144 0.12 3
  358.6437 0.08 2
  358.7788 0.14 3
  358.9638 0.12 3
  359.1867 0.14 3
  359.8098 0.03 1
  360.0891 0.11 3
  360.2249 0.35 8
  360.9488 0.20 5
  361.0796 0.25 6
  361.2047 0.22 5
  361.3347 0.12 3
  361.4598 0.13 3
  361.9887 0.16 4
  362.1960 0.18 4
  362.8701 0.11 3
  363.0567 0.21 5
  363.2831 0.09 2
  363.4808 0.11 3
  363.9113 0.10 2
  364.1875 0.14 3
  364.3182 0.12 3
  364.5945 0.10 2
  364.9543 0.10 2
  365.1028 0.02 0
  365.8855 0.10 2
  366.0690 0.12 3
  366.3018 0.10 2
  367.1938 0.23 5
  367.3452 0.14 3
  367.9795 0.11 3
  368.2031 0.14 3
  368.4453 0.13 3
  368.8811 0.21 5
  369.1461 0.39 9
  369.3790 0.14 3
  369.6448 0.11 3
  369.7934 0.14 3
  369.9256 0.18 4
  370.1057 0.16 4
  370.1943 0.15 4
  370.7080 0.11 3
  371.1111 0.87 21
  371.3498 0.13 3
  371.5091 0.12 3
  371.6113 0.05 1
  371.8758 0.10 2
  372.0902 0.14 3
  372.2303 0.20 5
  373.0873 0.23 5
  373.3032 0.14 3
  373.5948 0.07 2
  373.9008 0.04 1
  374.1639 0.34 8
  374.2626 0.17 4
  374.9446 0.04 1
  375.1663 0.17 4
  375.2643 0.11 3
  375.6690 0.08 2
  377.1322 0.19 4
  377.2702 0.06 1
  378.1348 0.09 2
  378.2884 0.12 3
  378.7349 0.08 2
  378.8728 0.12 3
  379.1743 0.31 7
  380.2339 0.06 1
  381.1728 0.16 4
  381.4137 0.12 3
  381.5516 0.14 3
  381.9976 0.14 3
  382.1705 0.01 0
  382.9053 0.12 3
  383.0497 0.22 5
  383.2470 0.30 7
  383.3571 0.18 4
  384.0498 0.41 10
  384.1863 0.10 2
  384.2871 0.11 3
  384.8040 0.11 3
  384.9656 0.22 5
  385.0857 0.30 7
  385.2895 0.06 1
  386.0796 0.20 5
  386.2434 0.07 2
  387.0622 0.23 5
  387.3132 0.04 1
  387.6551 0.14 3
  388.0449 0.23 5
  388.3582 0.04 1
  388.8889 0.14 3
  389.0456 0.17 4
  389.2144 0.21 5
  389.4648 0.14 3
  389.8490 0.09 2
  389.9727 0.15 4
  390.0980 0.07 2
  390.2968 0.04 1
  390.6624 0.12 3
  391.1147 0.11 3
  391.3458 0.10 2
  391.5962 0.10 2
  391.9934 0.26 6
  392.2023 0.29 7
  392.7162 0.08 2
  393.2057 0.16 4
  394.0131 0.11 3
  394.1734 0.10 2
  394.3051 0.17 4
  394.4096 0.10 2
  395.0875 0.17 4
  395.2965 0.14 3
  395.4240 0.13 3
  396.3189 0.17 4
  396.8781 0.26 6
  397.2146 0.09 2
  397.3392 0.12 3
  397.6006 0.10 2
  397.7445 0.03 1
  398.0897 0.20 5
  398.2666 0.24 6
  399.1976 0.29 7
  399.3115 0.12 3
  399.8021 0.11 3
  400.1466 0.16 4
  400.4554 0.07 2
  400.6896 0.09 2
  400.7957 0.12 3
  401.0098 0.12 3
  401.1846 0.25 6
  401.3358 0.08 2
  402.0637 0.10 2
  402.8102 0.10 2
  403.0660 0.32 8
  403.2323 0.28 7
  403.3777 0.14 3
  403.5361 0.12 3
  404.0162 0.22 5
  404.1187 0.21 5
  404.1954 0.12 3
  404.3710 0.05 1
  404.7443 0.19 4
  404.9300 0.15 4
  405.1005 0.40 9
  405.2711 0.16 4
  405.5385 0.14 3
  406.1814 0.12 3
  406.4731 0.06 1
  406.7312 0.08 2
  406.9111 0.17 4
  407.1864 0.55 13
  407.4229 0.12 3
  407.7714 0.09 2
  408.1936 0.43 10
  408.8870 0.09 2
  409.0210 0.15 4
  409.1695 0.41 10
  410.2120 0.11 3
  410.3487 0.07 2
  410.7108 0.08 2
  411.0586 0.23 5
  411.2519 0.15 4
  411.8352 0.08 2
  412.1208 0.10 2
  412.2675 0.09 2
  412.4615 0.10 2
  413.0134 0.20 5
  413.2110 0.22 5
  413.3191 0.23 5
  413.6921 0.01 0
  414.2054 0.28 7
  414.4460 0.11 3
  415.1799 0.31 7
  415.4090 0.13 3
  415.9088 0.10 2
  416.0886 0.17 4
  416.2017 0.11 3
  416.3958 0.20 5
  416.5497 0.11 3
  416.9236 0.23 5
  417.1943 0.34 8
  417.9506 0.11 3
  418.1203 0.12 3
  419.1625 0.31 7
  420.1246 0.36 9
  420.5157 0.12 3
  420.7500 0.15 4
  421.1799 0.33 8
  421.9308 0.12 3
  422.0297 0.15 4
  422.2833 0.20 5
  423.0443 0.29 7
  423.1747 0.14 3
  423.2751 0.15 4
  423.5925 0.09 2
  423.9480 0.14 3
  424.0598 0.21 5
  424.4525 0.05 1
  424.6167 0.05 1
  425.0159 0.16 4
  425.2582 0.11 3
  425.6890 0.13 3
  425.8775 0.09 2
  426.1033 0.23 5
  427.0779 0.10 2
  427.3471 0.14 3
  427.6451 0.13 3
  428.0053 0.13 3
  428.1764 0.13 3
  428.3125 0.12 3
  428.5138 0.11 3
  428.6355 0.11 3
  428.8518 0.05 1
  429.0567 0.29 7
  429.2694 0.13 3
  429.5452 0.07 2
  430.1282 0.08 2
  430.2557 0.13 3
  430.5709 0.11 3
  431.0201 0.13 3
  431.1655 0.23 5
  431.3525 0.09 2
  431.7823 0.12 3
  432.0066 0.12 3
  432.1750 0.24 6
  432.3469 0.20 5
  432.7446 0.26 6
  433.0992 0.76 18
  433.2941 0.41 10
  433.4102 0.30 7
  433.6639 0.10 2
  433.8273 0.13 3
  434.0007 0.41 10
  434.1540 0.48 11
  434.2938 0.24 6
  434.4127 0.20 5
  434.6413 0.09 2
  435.1974 3.91 93
  435.4311 1.41 33
  435.8253 0.10 2
  436.0582 0.50 12
  436.2496 0.64 15
  436.6739 0.13 3
  436.7893 0.19 4
  437.0602 0.32 8
  437.3047 0.10 2
  437.7979 0.12 3
  438.0129 0.13 3
  438.1097 0.08 2
  438.2230 0.03 1
  438.9420 0.28 7
  439.0567 0.12 3
  439.1786 0.14 3
  439.3127 0.14 3
  439.4912 0.12 3
  439.7737 0.14 3
  440.0139 0.14 3
  440.2332 0.15 4
  440.7452 0.12 3
  440.9517 0.12 3
  441.0916 0.11 3
  441.2823 0.13 3
  442.1665 0.18 4
  442.4598 0.05 1
  442.9962 0.15 4
  443.2200 0.13 3
  443.8519 0.09 2
  444.1596 0.07 2
  444.4486 0.10 2
  444.8676 0.23 5
  445.1143 0.45 11
  445.2140 0.40 9
  445.3532 0.48 11
  446.0698 0.06 1
  447.0714 0.22 5
  447.2249 0.22 5
  447.5535 0.02 0
  447.7436 0.18 4
  447.9904 0.14 3
  448.2344 0.18 4
  448.5200 0.03 1
  448.9828 0.22 5
  449.2555 0.11 3
  449.3746 0.11 3
  449.5375 0.11 3
  449.6961 0.05 1
  450.0147 0.22 5
  450.1403 0.24 6
  450.5350 0.11 3
  451.0919 0.10 2
  451.4953 0.13 3
  452.0171 0.12 3
  452.1843 0.13 3
  452.2877 0.11 3
  452.8993 0.19 4
  453.0076 0.13 3
  453.3371 0.10 2
  453.5309 0.11 3
  454.1792 0.12 3
  454.3199 0.14 3
  454.4750 0.06 1
  455.0479 0.16 4
  455.2568 0.16 4
  455.4550 0.19 4
  456.5916 0.22 5
  456.8515 0.07 2
  457.2508 0.17 4
  457.4633 0.12 3
  457.7075 0.11 3
  458.1082 0.20 5
  458.2640 0.13 3
  458.3473 0.11 3
  458.7509 0.11 3
  458.8716 0.12 3
  458.9779 0.08 2
  459.1258 0.34 8
  459.2659 0.12 3
  459.5682 0.01 0
  459.8570 0.15 4
  460.1802 0.15 4
  460.9774 0.18 4
  461.1197 0.09 2
  461.2791 0.11 3
  461.3661 0.11 3
  461.5729 0.04 1
  462.1339 0.22 5
  462.3626 0.09 2
  463.0287 0.02 0
  463.3220 0.24 6
  464.7094 0.12 3
  465.1806 0.39 9
  465.3391 0.27 6
  465.7077 0.11 3
  465.8640 0.06 1
  465.9852 0.11 3
  466.1753 0.10 2
  466.3072 0.11 3
  466.7540 0.12 3
  466.9950 0.18 4
  467.2238 0.18 4
  467.4899 0.02 0
  468.1634 0.15 4
  468.3262 0.11 3
  469.0608 0.12 3
  469.1848 0.12 3
  469.6906 0.08 2
  470.0557 0.10 2
  470.2379 0.24 6
  470.4159 0.12 3
  470.6576 0.09 2
  470.7624 0.11 3
  471.2452 0.14 3
  471.6700 0.09 2
  471.8615 0.08 2
  472.1543 0.11 3
  472.3975 0.25 6
  472.5374 0.10 2
  473.3339 0.20 5
  473.4925 0.16 4
  473.7687 0.11 3
  474.2409 0.16 4
  474.4153 0.11 3
  474.9385 0.07 2
  475.0741 0.18 4
  475.2198 0.08 2
  475.4423 0.18 4
  475.6468 0.09 2
  475.9877 0.11 3
  476.2684 0.24 6
  476.6028 0.11 3
  476.9057 0.08 2
  477.1347 0.13 3
  477.7664 0.10 2
  477.8884 0.18 4
  478.1662 0.10 2
  478.3715 0.12 3
  478.6723 0.10 2
  478.7757 0.06 1
  478.9953 0.24 6
  479.1533 0.26 6
  479.2810 0.03 1
  479.7118 0.10 2
  480.0550 0.12 3
  480.3314 0.10 2
  480.4979 0.07 2
  480.7004 0.11 3
  480.9955 0.09 2
  481.2626 0.11 3
  481.4263 0.11 3
  481.6761 0.15 4
  481.8499 0.10 2
  482.2858 0.15 4
  482.5113 0.12 3
  483.0548 0.30 7
  483.2674 0.13 3
  483.4627 0.10 2
  483.7823 0.11 3
  483.9374 0.09 2
  484.0279 0.11 3
  484.1529 0.14 3
  484.6190 0.05 1
  485.0484 0.28 7
  485.2129 0.51 12
  485.3257 0.09 2
  485.4219 0.04 1
  485.6014 0.08 2
  485.9031 0.11 3
  486.0798 0.15 4
  486.2127 0.20 5
  486.3865 0.27 6
  486.6278 0.14 3
  487.0128 0.04 1
  487.3038 0.35 8
  487.6098 0.11 3
  487.9833 0.16 4
  488.1995 0.63 15
  488.3748 0.15 4
  488.5041 0.12 3
  488.7592 0.13 3
  489.0049 0.14 3
  489.1342 0.11 3
  489.2563 0.12 3
  489.4747 0.09 2
  490.0114 0.13 3
  490.4884 0.23 5
  490.6936 0.12 3
  491.2416 0.04 1
  491.4160 0.08 2
  492.0021 0.12 3
  492.2273 0.13 3
  492.8149 0.09 2
  492.8996 0.05 1
  493.1758 0.08 2
  493.3903 0.04 1
  493.5317 0.13 3
  493.6616 0.18 4
  494.1617 0.14 3
  494.9108 0.19 4
  495.2394 0.24 6
  495.4805 0.11 3
  495.7511 0.14 3
  496.2548 1.60 38
  496.6373 0.07 2
  496.9725 0.13 3
  497.1662 0.32 8
  497.3722 0.21 5
  497.7023 0.10 2
  497.9349 0.14 3
  498.0634 0.11 3
  498.2119 0.09 2
  498.4359 0.11 3
  498.7653 0.13 3
  498.9641 0.11 3
  499.1113 0.12 3
  499.3187 0.24 6
  500.0056 0.12 3
  500.0903 0.06 1
  500.1966 0.13 3
  500.2841 0.12 3
  500.3789 0.06 1
  500.7507 0.10 2
  501.0307 0.15 4
  501.2647 0.22 5
  501.4341 0.18 4
  501.9496 0.11 3
  502.1362 0.21 5
  502.3444 0.17 4
  503.0538 0.04 1
  503.2627 0.20 5
  503.6640 0.05 1
  504.1602 0.14 3
  504.2751 0.14 3
  504.4043 0.14 3
  504.6319 0.11 3
  504.8976 0.15 4
  505.6142 0.05 1
  506.1320 0.01 0
  506.5815 0.08 2
  506.9355 0.12 3
  507.1754 0.26 6
  507.3765 0.14 3
  507.4641 0.14 3
  507.5603 0.15 4
  507.6623 0.18 4
  507.9948 0.27 6
  508.2002 0.22 5
  508.3848 0.30 7
  509.1813 0.17 4
  509.3717 0.18 4
  509.5369 0.08 2
  509.9657 0.17 4
  510.0899 0.16 4
  510.2602 0.12 3
  510.5453 0.07 2
  511.1308 0.10 2
  511.2601 0.12 3
  511.4037 0.28 7
  512.1681 0.48 11
  512.3304 0.13 3
  512.5927 0.19 4
  513.1702 0.29 7
  513.2895 0.12 3
  513.4102 0.32 8
  513.5194 0.09 2
  513.8851 0.13 3
  513.9728 0.14 3
  514.1495 0.11 3
  514.2738 0.24 6
  514.4606 0.11 3
  514.8824 0.04 1
  515.1411 0.24 6
  515.2912 0.27 6
  515.4500 0.06 1
  515.9975 0.06 1
  516.1901 0.12 3
  516.6191 0.10 2
  516.8279 0.06 1
  516.9871 0.06 1
  517.3227 0.06 1
  517.5192 0.05 1
  517.9831 0.07 2
  518.1315 0.16 4
  518.7711 0.04 1
  518.9676 0.09 2
  519.1784 0.13 3
  519.2824 0.12 3
  519.5872 0.13 3
  519.7751 0.16 4
  521.1857 0.11 3
  521.2754 0.11 3
  521.5723 0.13 3
  522.0076 0.18 4
  522.1791 0.12 3
  522.2888 0.08 2
  522.5549 0.14 3
  522.7643 0.13 3
  522.8525 0.06 1
  523.0548 0.05 1
  523.2958 0.14 3
  523.3898 0.11 3
  523.9005 0.10 2
  524.1832 0.25 6
  524.2700 0.15 4
  524.5411 0.15 4
  524.6788 0.12 3
  525.0726 0.12 3
  525.3603 0.17 4
  525.6021 0.11 3
  526.1351 0.14 3
  526.4357 0.15 4
  526.7958 0.09 2
  526.9896 0.12 3
  527.2600 0.28 7
  527.4114 0.26 6
  527.5449 0.25 6
  527.7292 0.10 2
  528.0270 0.09 2
  528.1569 0.03 1
  528.4897 0.16 4
  528.7014 0.05 1
  528.8442 0.17 4
  529.0265 0.22 5
  529.2812 0.41 10
  530.0576 0.78 18
  530.2406 0.55 13
  530.3705 0.28 7
  530.5283 0.14 3
  530.6123 0.08 2
  531.0342 0.11 3
  531.2094 0.27 6
  531.3414 0.24 6
  531.4634 0.26 6
  532.1121 0.16 4
  532.4415 0.25 6
  533.0487 0.12 3
  533.5475 0.09 2
  533.9868 0.11 3
  534.1891 0.17 4
  534.5674 0.11 3
  534.9091 0.10 2
  535.4761 0.10 2
  536.3332 0.10 2
  536.4753 0.13 3
  537.1623 0.14 3
  537.2865 0.11 3
  537.4717 0.31 7
  537.5952 0.06 1
  537.7940 0.20 5
  537.9405 0.13 3
  538.1781 0.15 4
  538.3239 0.08 2
  538.8321 0.09 2
  539.0015 0.17 4
  539.1925 0.12 3
  539.3684 0.19 4
  539.5443 0.19 4
  539.7202 0.04 1
  540.0498 0.31 7
  540.1970 0.11 3
  540.3190 0.09 2
  540.4446 0.13 3
  540.7872 0.11 3
  540.9688 0.12 3
  541.0938 0.30 7
  541.2582 0.34 8
  542.1213 0.44 10
  542.3145 0.24 6
  542.4207 0.38 9
  542.5966 0.27 6
  542.8925 0.07 2
  543.2278 0.37 9
  543.4648 0.43 10
  543.7226 0.12 3
  544.2239 1.12 27
  544.3568 0.47 11
  544.5657 0.35 8
  544.7999 0.31 7
  545.0878 0.29 7
  545.4067 0.42 10
  545.6688 0.22 5
  545.9210 0.31 7
  546.0588 0.13 3
  546.3246 0.31 7
  546.4682 0.10 2
  546.6176 0.13 3
  546.6873 0.07 2
  546.8245 0.05 1
  547.1003 0.17 4
  547.5521 0.08 2
  547.7043 0.11 3
  548.0894 0.19 4
  548.2308 0.18 4
  548.4384 0.10 2
  548.7495 0.21 5
  549.2487 0.24 6
  549.4872 0.16 4
  549.6366 0.18 4
  549.7487 0.13 3
  549.9089 0.16 4
  550.1682 0.23 5
  550.9398 0.13 3
  551.2789 0.31 7
  551.4319 0.29 7
  551.7566 0.13 3
  551.8795 0.11 3
  552.2890 0.90 21
  552.4550 0.41 10
  552.6008 0.37 9
  552.7668 0.15 4
  553.0347 0.16 4
  553.1871 0.10 2
  553.3933 0.34 8
  553.5427 0.15 4
  553.6490 0.14 3
  553.9393 0.09 2
  554.1039 0.02 0
  554.2368 0.06 1
  554.3475 0.11 3
  554.6241 0.12 3
  554.7750 0.08 2
  554.9719 0.22 5
  555.3161 0.78 18
  555.5618 0.17 4
  555.6998 0.12 3
  555.8960 0.16 4
  556.0246 0.15 4
  556.2912 0.30 7
  556.5054 0.21 5
  556.8122 0.18 4
  557.0536 0.15 4
  557.2434 0.28 7
  557.5172 0.35 8
  557.8104 0.36 9
  558.1597 0.62 15
  558.5032 0.65 15
  558.7936 0.57 13
  559.0681 0.73 17
  559.3843 0.68 16
  559.7689 0.73 17
  560.0327 0.39 9
  560.1620 0.29 7
  560.3481 0.67 16
  560.6342 0.80 19
  560.7838 0.50 12
  560.9604 0.72 17
  561.0681 0.42 10
  561.3649 0.25 6
  561.7766 0.72 17
  562.0492 0.55 13
  562.2184 0.60 14
  562.4078 0.66 16
  562.7420 0.85 20
  562.9930 0.74 18
  563.4758 0.92 22
  563.8065 0.61 14
  563.9973 0.76 18
  564.1952 0.94 22
  564.4620 0.61 14
  565.0869 1.38 33
  565.8795 1.23 29
  566.5890 1.19 28
  567.7504 2.00 47
  568.5820 1.58 37
  569.2284 2.20 52
  570.3678 42.22 999
  570.9131 2.34 55
  571.3558 2.19 52
  571.7749 0.57 13
  572.1724 1.17 28
  572.5319 0.44 10
  573.3148 3.78 89
  573.5430 1.52 36
  573.7440 0.85 20
  574.1480 0.55 13
  574.4523 0.52 12
  574.7415 0.33 8
  575.1097 0.04 1
  575.3723 0.45 11
  575.6652 0.33 8
  575.9487 0.36 9
  576.2084 0.35 8
  576.3190 0.14 3
  576.5889 0.28 7
  576.7827 0.49 12
  576.9484 0.47 11
  577.0633 0.16 4
  577.2413 0.29 7
  577.4537 0.22 5
  577.6339 0.21 5
  577.8951 0.46 11
  578.0631 0.25 6
  578.1938 0.22 5
  578.4514 0.51 12
  578.7651 0.55 13
  579.0034 0.27 6
  579.1836 0.14 3
  579.4111 0.35 8
  579.8275 0.78 18
  580.1068 0.16 4
  580.6660 0.57 13
  581.1039 0.56 13
  581.2711 0.47 11
  581.7744 0.91 22
  582.0335 0.44 10
  582.3336 0.77 18
  582.6165 0.65 15
  582.8979 0.58 14
  583.4759 0.97 23
  583.9612 1.27 30
  584.3425 0.75 18
  584.5579 1.59 38
  588.2922 99.97 999
  589.1723 9.80 232
  589.6766 4.95 117
  590.3910 2.49 59
  590.9075 1.69 40
  591.3731 1.01 24
  591.8293 0.64 15
  592.3509 0.59 14
  592.5496 0.37 9
  592.7211 0.48 11
  592.9191 0.34 8
  593.0619 0.37 9
  593.2477 0.16 4
  593.4708 0.21 5
  593.6530 0.35 8
  593.8568 0.26 6
  594.0161 0.26 6
  594.2170 0.10 2
  594.3217 0.10 2
  594.5183 0.22 5
  594.6317 0.13 3
  594.7637 0.05 1
  594.8942 0.04 1
//
