ACCESSION: MSBNK-Kyoto_Univ-CA000157
RECORD_TITLE: Pectenolone; FAB-EBEB; MS2; m/z: 580.39; [M]*+
DATE: 2016.01.19 (Created 2007.03.15, modified 2011.05.10)
AUTHORS: Akimoto N, Graduate School of Pharmaceutical Sciences, Kyoto University and Maoka T, Research Institute for Production Development
LICENSE: CC BY-SA
COMMENT: Profile spectrum of this record is given as a JPEG file.
COMMENT: [Profile] CA000157.jpg
CH$NAME: Pectenolone
CH$COMPOUND_CLASS: Natural Product; Carotenoid
CH$FORMULA: C40H52O3
CH$EXACT_MASS: 580.39165
CH$SMILES: CC(=C1C=CC(=CC=CC(C)=CC=CC=C(C)C=CC=C(C#CC(=C2C)C(C)(C)CC(C2)O)C)C)C(=O)C(O)CC1(C)C
CH$IUPAC: InChI=1S/C40H52O3/c1-28(17-13-19-30(3)21-23-35-32(5)25-34(41)26-39(35,7)8)15-11-12-16-29(2)18-14-20-31(4)22-24-36-33(6)38(43)37(42)27-40(36,9)10/h11-20,22,24,34,37,41-42H,25-27H2,1-10H3/b12-11+,17-13+,18-14+,24-22+,28-15+,29-16+,30-19+,31-20+/t34-,37+/m1/s1
CH$LINK: CHEMSPIDER 16736342
CH$LINK: PUBCHEM CID:16061214
CH$LINK: INCHIKEY ANEICJWUPVGZBQ-HEBVJZCOSA-N
AC$INSTRUMENT: JMS-HX/HX 110A, JEOL
AC$INSTRUMENT_TYPE: FAB-EBEB
AC$MASS_SPECTROMETRY: MS_TYPE MS2
AC$MASS_SPECTROMETRY: ION_MODE POSITIVE
AC$MASS_SPECTROMETRY: ATOM_GUN_CURRENT 5 mA
AC$MASS_SPECTROMETRY: BOMBARDMENT 6 kV xenon
AC$MASS_SPECTROMETRY: COLLISION_ENERGY 3 kV
AC$MASS_SPECTROMETRY: COLLISION_GAS Ar
AC$MASS_SPECTROMETRY: GAS_PRESSURE adjust to attenuate the intensity of the precursor ion by 30 %
AC$MASS_SPECTROMETRY: IONIZATION FAB
AC$MASS_SPECTROMETRY: MATRIX 1-2 uL m-NBA
AC$MASS_SPECTROMETRY: PROBE_TIP stainless-steel
MS$FOCUSED_ION: BASE_PEAK 580.3072
MS$FOCUSED_ION: PRECURSOR_M/Z 580.39
MS$FOCUSED_ION: PRECURSOR_TYPE [M]+*
PK$SPLASH: splash10-001i-2930030000-0ad589dd08881f7a45ca
PK$NUM_PEAK: 1872
PK$PEAK: m/z int. rel.int.
  0.0180 0.01 0
  0.4907 0.01 0
  0.6339 0.02 0
  0.7233 0.01 0
  0.9547 0.01 0
  2.1771 0.02 0
  2.9842 0.02 0
  3.9301 0.07 1
  4.3476 0.03 0
  4.3892 0.01 0
  4.6658 0.09 1
  5.8261 0.02 0
  6.6898 0.06 1
  6.8052 0.02 0
  7.2640 0.01 0
  7.3678 0.01 0
  7.9767 0.01 0
  8.3656 0.01 0
  11.5551 0.04 0
  13.0475 0.01 0
  13.8419 0.01 0
  14.3999 0.01 0
  14.6966 0.02 0
  14.8262 0.01 0
  14.9814 0.02 0
  15.9959 0.01 0
  18.9572 0.05 0
  19.4500 0.01 0
  19.7236 0.01 0
  20.2437 0.01 0
  21.2965 0.01 0
  22.3707 0.01 0
  22.9265 0.26 3
  23.2367 0.05 0
  23.4521 0.01 0
  23.9335 0.02 0
  25.9461 0.17 2
  26.9544 1.52 15
  27.9656 0.13 1
  28.9651 1.61 16
  29.8008 0.03 0
  29.9464 0.06 1
  30.9430 0.15 1
  31.9452 0.04 0
  32.7314 0.03 0
  33.2658 0.01 0
  34.1375 0.01 0
  35.0235 0.02 0
  35.9272 0.08 1
  35.9700 0.04 0
  36.9354 0.21 2
  37.0533 0.03 0
  37.1933 0.07 1
  37.4168 0.01 0
  37.9281 0.59 6
  38.6774 0.01 0
  38.9343 4.42 44
  39.9482 0.45 4
  40.3032 0.10 1
  40.7597 0.05 0
  40.9527 8.97 90
  41.9320 0.24 2
  42.3536 0.01 0
  42.9421 6.34 63
  43.9352 0.05 0
  44.9435 0.15 1
  46.3891 0.04 0
  48.3401 0.01 0
  48.9193 0.13 1
  49.1257 0.05 0
  49.5074 0.07 1
  49.9260 1.40 14
  50.5317 0.01 0
  50.9266 3.59 36
  51.9352 1.12 11
  52.9425 6.40 64
  53.9560 0.46 5
  54.9465 10.21 102
  55.9659 0.92 9
  56.5659 0.01 0
  56.7540 0.02 0
  56.9628 2.36 24
  57.9189 0.06 1
  58.8212 0.02 0
  58.9582 0.56 6
  59.9309 0.03 0
  60.3982 0.01 0
  60.9146 0.16 2
  61.1570 0.01 0
  61.5584 0.02 0
  61.9208 0.87 9
  62.5438 0.04 0
  62.9194 2.63 26
  63.1088 0.05 0
  63.2827 0.10 1
  63.6818 0.02 0
  63.9406 0.73 7
  64.2299 0.11 1
  64.3218 0.02 0
  64.6788 0.02 0
  64.9431 4.54 45
  65.4417 0.03 0
  65.9407 1.03 10
  66.1589 0.04 0
  66.4378 0.04 0
  66.5248 0.07 1
  66.9506 6.86 69
  67.1794 0.01 0
  67.9446 0.21 2
  68.9549 12.43 124
  69.2350 0.01 0
  69.6108 0.07 1
  69.9642 0.66 7
  70.2826 0.04 0
  70.9279 1.46 15
  71.1267 0.05 0
  71.9029 0.06 1
  72.8765 0.12 1
  73.2288 0.01 0
  73.5293 0.03 0
  73.8945 0.57 6
  74.1040 0.04 0
  74.8955 1.16 12
  75.0364 0.12 1
  75.1732 0.15 1
  75.3771 0.19 2
  75.4540 0.05 0
  75.6045 0.03 0
  75.7404 0.11 1
  75.9400 0.73 7
  76.1742 0.10 1
  76.2589 0.08 1
  76.5402 0.13 1
  76.9188 14.50 145
  77.1432 0.06 1
  77.3226 0.23 2
  77.5930 0.03 0
  77.9188 2.60 26
  78.0610 0.14 1
  78.2509 0.02 0
  78.4873 0.17 2
  78.5997 0.06 1
  78.9295 11.33 113
  79.1493 0.04 0
  79.4932 0.03 0
  79.6030 0.04 0
  79.7211 0.12 1
  79.9337 1.34 13
  80.1447 0.11 1
  80.2435 0.02 0
  80.4559 0.06 1
  80.9420 11.02 110
  81.2106 0.04 0
  81.3612 0.05 0
  81.9538 0.39 4
  82.9351 2.97 30
  83.3530 0.03 0
  83.8348 0.07 1
  83.9423 0.12 1
  84.3398 0.02 0
  84.9342 2.11 21
  85.3010 0.03 0
  85.4251 0.04 0
  85.6075 0.01 0
  85.8885 0.29 3
  86.9131 0.84 8
  87.8601 0.17 2
  88.1366 0.02 0
  88.4006 0.10 1
  88.9073 1.66 17
  89.1857 0.14 1
  89.4346 0.04 0
  89.5794 0.10 1
  89.9025 0.84 8
  90.0736 0.14 1
  90.3079 0.10 1
  90.4384 0.08 1
  90.9269 28.42 284
  91.1921 0.09 1
  91.3308 0.11 1
  91.5396 0.04 0
  91.6175 0.03 0
  91.9330 2.76 28
  92.1378 0.08 1
  92.2396 0.04 0
  92.9384 12.83 128
  93.1999 0.05 0
  93.4548 0.03 0
  93.6799 0.03 0
  93.9424 1.15 11
  94.3545 0.11 1
  94.4855 0.06 1
  94.6001 0.09 1
  94.9514 5.75 57
  95.2158 0.02 0
  95.4926 0.02 0
  95.9213 0.37 4
  96.5966 0.10 1
  96.9506 2.56 26
  97.2870 0.04 0
  97.4028 0.02 0
  97.7482 0.05 0
  97.9333 0.41 4
  98.0586 0.05 0
  98.2858 0.05 0
  98.5044 0.08 1
  98.6849 0.03 0
  98.8889 0.35 3
  99.7875 0.08 1
  99.9510 0.15 1
  100.1537 0.04 0
  100.3533 0.06 1
  100.4910 0.05 0
  100.9099 0.46 5
  101.2117 0.19 2
  101.3627 0.07 1
  101.5485 0.04 0
  101.6803 0.08 1
  101.9284 1.80 18
  102.1698 0.08 1
  102.3422 0.06 1
  102.4761 0.10 1
  102.6000 0.05 0
  102.9314 5.01 50
  103.1652 0.12 1
  103.3622 0.05 0
  103.4389 0.02 0
  103.9420 2.59 26
  104.2586 0.06 1
  104.3680 0.02 0
  104.5579 0.13 1
  104.9450 28.49 285
  105.3104 0.09 1
  105.4820 0.10 1
  105.9587 3.06 31
  106.2859 0.13 1
  106.4232 0.11 1
  106.6748 0.05 0
  106.9585 10.02 100
  107.1775 0.13 1
  107.4883 0.11 1
  107.9535 1.00 10
  108.3626 0.04 0
  108.9593 5.08 51
  109.1711 0.12 1
  109.3930 0.10 1
  109.5999 0.09 1
  109.9491 0.40 4
  110.9444 2.50 25
  111.2528 0.02 0
  111.4496 0.03 0
  111.8384 0.17 2
  111.9457 0.11 1
  112.2957 0.13 1
  112.5042 0.08 1
  112.9038 0.49 5
  113.0815 0.31 3
  113.4714 0.21 2
  113.8918 0.91 9
  114.3024 0.21 2
  114.9169 15.04 150
  115.1765 0.04 0
  115.3453 0.09 1
  115.4596 0.09 1
  115.9208 6.04 60
  116.3161 0.13 1
  116.6087 0.13 1
  116.9255 13.54 135
  117.1801 0.12 1
  117.5042 0.09 1
  117.5998 0.09 1
  117.9228 2.79 28
  118.1657 0.11 1
  118.3187 0.07 1
  118.9319 26.42 264
  119.3034 0.17 2
  119.3948 0.05 0
  119.4938 0.04 0
  119.9328 3.12 31
  120.2768 0.08 1
  120.4290 0.13 1
  120.9339 8.99 90
  121.2412 0.03 0
  121.4256 0.02 0
  121.6287 0.07 1
  121.9306 1.12 11
  122.1742 0.04 0
  122.6097 0.08 1
  122.9287 2.72 27
  123.2446 0.04 0
  123.4623 0.08 1
  123.9410 0.90 9
  124.3531 0.04 0
  124.9200 1.77 18
  125.1285 0.14 1
  125.2418 0.07 1
  125.3590 0.10 1
  125.4724 0.05 0
  125.5600 0.06 1
  125.6424 0.07 1
  125.9053 0.69 7
  126.0755 0.14 1
  126.2644 0.10 1
  126.4050 0.23 2
  126.5385 0.19 2
  126.8946 5.03 50
  127.1463 0.44 4
  127.5459 0.20 2
  127.9019 16.90 169
  128.1888 0.24 2
  128.4202 0.12 1
  128.5230 0.19 2
  128.9014 17.07 171
  129.1770 0.20 2
  129.4683 0.08 1
  129.5797 0.11 1
  129.9074 7.95 79
  130.2074 0.05 0
  130.4789 0.07 1
  130.9140 15.53 155
  131.2305 0.05 0
  131.5245 0.22 2
  131.9237 4.64 46
  132.2907 0.12 1
  132.4375 0.11 1
  132.9126 17.63 176
  133.1389 0.23 2
  133.2507 0.10 1
  133.6092 0.16 2
  133.9007 2.45 24
  134.2034 0.01 0
  134.4196 0.07 1
  134.5720 0.06 1
  134.9219 8.37 84
  135.8967 1.32 13
  136.5464 0.10 1
  136.9174 5.68 57
  137.3142 0.09 1
  137.5751 0.04 0
  137.9178 0.90 9
  138.3490 0.21 2
  138.9160 3.71 37
  139.1570 0.14 1
  139.8733 1.07 11
  140.0909 0.25 2
  140.2661 0.21 2
  140.5685 0.16 2
  140.8992 15.07 151
  141.3259 0.24 2
  141.9078 13.41 134
  142.1969 0.20 2
  142.4296 0.11 1
  142.9102 21.10 211
  143.2075 0.27 3
  143.3135 0.21 2
  143.4122 0.06 1
  143.9163 7.32 73
  144.2206 0.20 2
  144.3424 0.32 3
  144.4873 0.11 1
  144.9182 19.54 195
  145.2603 0.10 1
  145.4232 0.17 2
  145.4990 0.10 1
  145.5900 0.06 1
  145.9106 3.11 31
  146.2933 0.05 0
  146.5295 0.26 3
  146.9204 14.26 143
  147.2229 0.18 2
  147.5684 0.09 1
  147.9213 1.85 18
  148.3140 0.05 0
  148.4866 0.09 1
  148.9232 2.60 26
  149.2653 0.13 1
  149.3527 0.06 1
  149.4884 0.11 1
  149.9042 0.80 8
  150.1234 0.24 2
  150.2148 0.10 1
  150.3672 0.26 3
  150.5633 0.14 1
  150.9225 3.36 34
  151.3840 0.28 3
  151.9060 6.99 70
  152.4874 0.40 4
  152.9030 8.53 85
  153.2464 0.20 2
  153.3906 0.35 3
  153.5560 0.16 2
  153.9149 4.13 41
  154.9110 15.46 154
  155.3675 0.20 2
  155.9334 9.21 92
  156.2284 0.18 2
  156.9406 18.54 185
  157.2233 0.16 2
  157.3826 0.17 2
  157.6326 0.11 1
  157.9474 4.32 43
  158.5553 0.24 2
  158.9471 11.09 111
  159.3284 0.18 2
  159.5334 0.08 1
  159.9509 2.43 24
  160.3379 0.18 2
  160.5651 0.16 2
  160.9583 6.60 66
  161.3168 0.35 3
  161.5161 0.11 1
  161.9698 1.32 13
  162.1893 0.12 1
  162.4250 0.12 1
  162.9500 3.43 34
  163.4974 0.20 2
  163.6321 0.12 1
  163.9491 1.10 11
  164.1958 0.16 2
  164.3668 0.35 3
  164.9342 14.03 140
  165.3026 0.18 2
  165.4475 0.15 1
  165.9382 5.18 52
  166.3411 0.19 2
  166.9437 10.00 100
  167.2844 0.11 1
  167.4410 0.11 1
  167.9546 3.81 38
  168.1873 0.22 2
  168.3736 0.20 2
  168.9628 13.23 132
  169.3728 0.15 1
  169.5835 0.27 3
  169.9789 6.21 62
  170.4611 0.14 1
  170.9757 10.78 108
  171.3131 0.15 1
  171.4186 0.05 0
  171.9558 2.75 27
  172.4743 0.16 2
  172.9722 7.12 71
  173.3060 0.23 2
  173.6392 0.17 2
  173.9522 1.47 15
  174.3900 0.17 2
  174.5975 0.05 0
  174.9741 4.05 40
  175.2363 0.16 2
  175.3893 0.18 2
  175.9556 1.29 13
  176.1774 0.17 2
  176.4628 0.12 1
  176.9553 1.82 18
  177.4311 0.18 2
  177.9333 7.13 71
  178.1974 0.30 3
  178.3757 0.16 2
  178.5175 0.08 1
  178.9411 10.10 101
  179.4500 0.11 1
  179.9604 4.72 47
  180.1916 0.24 2
  180.3235 0.27 3
  180.9580 12.06 121
  181.1989 0.46 5
  181.4114 0.26 3
  181.5907 0.08 1
  181.9563 5.34 53
  182.2237 0.19 2
  182.3497 0.15 1
  182.9572 11.04 110
  183.2160 0.21 2
  183.4647 0.15 1
  183.9493 3.93 39
  184.3392 0.21 2
  184.5901 0.12 1
  184.9516 5.61 56
  185.2609 0.07 1
  185.3769 0.15 1
  185.5092 0.19 2
  185.9449 1.86 19
  186.2259 0.13 1
  186.3169 0.08 1
  186.9579 4.36 44
  187.2920 0.17 2
  187.4286 0.13 1
  187.9354 1.71 17
  188.2093 0.29 3
  188.2929 0.14 1
  188.4819 0.12 1
  188.9415 4.71 47
  189.2502 0.23 2
  189.8773 1.69 17
  190.2162 0.22 2
  190.3802 0.23 2
  190.4843 0.19 2
  190.9268 6.15 61
  191.2971 0.32 3
  191.9237 5.05 50
  192.3562 0.20 2
  192.9314 9.74 97
  193.2177 0.08 1
  193.4290 0.12 1
  193.5606 0.22 2
  193.9438 4.62 46
  194.3134 0.24 2
  194.4737 0.09 1
  194.9424 11.20 112
  195.3177 0.31 3
  195.5047 0.10 1
  195.9628 3.93 39
  196.3417 0.18 2
  196.9523 9.45 94
  197.3936 0.40 4
  197.5036 0.23 2
  197.9690 2.23 22
  198.2697 0.11 1
  198.9596 5.14 51
  199.2755 0.15 1
  199.4205 0.12 1
  199.9439 1.94 19
  200.2805 0.11 1
  200.5508 0.22 2
  200.6419 0.27 3
  200.9588 3.40 34
  201.2805 0.27 3
  201.4791 0.18 2
  201.9242 3.78 38
  202.1482 0.43 4
  202.3345 0.15 1
  202.5195 0.19 2
  202.9478 5.85 58
  203.2938 0.15 1
  203.3918 0.05 0
  203.9149 2.10 21
  204.2893 0.06 1
  204.4038 0.04 0
  204.9559 6.05 60
  205.3243 0.13 1
  205.5096 0.10 1
  205.9426 3.05 30
  206.2748 0.13 1
  206.4869 0.18 2
  206.9579 8.23 82
  207.3225 0.06 1
  207.4475 0.25 2
  207.9352 3.28 33
  208.3076 0.23 2
  208.3907 0.12 1
  208.9646 7.35 73
  209.3791 0.18 2
  209.5399 0.10 1
  209.9587 2.54 25
  210.3569 0.44 4
  210.9732 5.30 53
  211.3475 0.16 2
  211.4913 0.20 2
  212.0103 1.05 10
  212.1528 0.28 3
  212.9831 4.13 41
  213.2496 0.24 2
  213.6326 0.23 2
  213.9819 0.98 10
  214.2430 0.22 2
  214.3367 0.19 2
  214.9542 6.53 65
  215.2706 0.08 1
  215.9553 2.41 24
  216.2477 0.40 4
  216.3421 0.22 2
  216.4808 0.12 1
  216.9637 4.85 48
  217.3535 0.14 1
  217.4487 0.14 1
  217.5750 0.29 3
  217.9739 2.01 20
  218.2921 0.12 1
  218.4640 0.07 1
  218.5744 0.07 1
  218.9722 4.84 48
  219.4521 0.17 2
  219.9653 2.51 25
  220.4185 0.23 2
  220.9997 6.01 60
  221.2513 0.14 1
  221.3916 0.27 3
  221.9944 1.88 19
  222.4287 0.06 1
  223.0021 4.80 48
  223.3272 0.12 1
  223.4669 0.18 2
  223.6773 0.06 1
  224.0115 1.27 13
  224.3637 0.04 0
  224.5935 0.14 1
  225.0130 3.64 36
  225.5912 0.24 2
  225.9942 1.44 14
  226.2893 0.14 1
  226.4347 0.04 0
  226.9993 2.13 21
  227.1345 1.10 11
  227.3964 0.12 1
  227.5281 0.19 2
  227.9993 1.39 14
  228.4180 0.11 1
  228.5387 0.13 1
  228.9928 3.85 38
  229.3874 0.13 1
  229.6253 0.17 2
  229.9964 1.98 20
  230.2417 0.13 1
  230.4617 0.05 0
  231.0098 3.84 38
  231.4084 0.18 2
  232.0003 2.22 22
  232.2676 0.17 2
  233.0176 4.90 49
  233.3120 0.06 1
  233.5073 0.20 2
  234.0152 1.88 19
  234.2279 0.18 2
  234.4191 0.12 1
  235.0096 3.81 38
  235.3292 0.14 1
  235.5538 0.11 1
  235.7660 0.23 2
  236.0489 1.23 12
  236.3845 0.11 1
  236.4885 0.09 1
  237.0122 3.73 37
  237.4340 0.13 1
  238.0210 0.97 10
  238.2271 0.40 4
  238.4429 0.16 2
  239.0204 3.05 30
  239.4557 0.20 2
  240.0078 1.13 11
  240.3828 0.22 2
  240.5029 0.15 1
  241.0038 2.37 24
  241.4011 0.10 1
  241.9973 1.53 15
  242.2267 0.13 1
  242.4373 0.10 1
  242.5693 0.13 1
  242.9954 2.95 29
  243.2415 0.13 1
  243.4661 0.02 0
  244.0057 1.41 14
  244.2811 0.28 3
  244.5461 0.18 2
  244.9962 3.05 30
  246.0064 2.27 23
  246.3530 0.13 1
  247.0164 2.95 29
  247.3081 0.11 1
  247.4591 0.13 1
  247.9939 0.98 10
  248.5336 0.17 2
  249.0184 3.55 35
  249.3626 0.10 1
  249.5159 0.03 0
  249.6949 0.05 0
  250.0141 0.90 9
  250.2238 0.17 2
  250.4873 0.20 2
  251.0309 2.62 26
  251.2206 0.37 4
  251.4185 0.18 2
  251.9882 1.61 16
  252.3180 0.17 2
  253.0120 1.79 18
  253.3852 0.09 1
  253.5101 0.34 3
  253.6098 0.10 1
  253.9803 0.53 5
  254.2001 0.17 2
  255.0236 2.33 23
  255.3454 0.09 1
  255.5660 0.18 2
  256.0212 1.17 12
  256.2501 0.34 3
  256.4385 0.09 1
  256.5600 0.13 1
  257.0291 1.92 19
  257.4493 0.08 1
  257.5582 0.09 1
  258.0233 1.29 13
  258.2404 0.36 4
  258.3396 0.24 2
  258.5491 0.19 2
  259.0366 2.30 23
  259.3286 0.08 1
  259.5305 0.11 1
  260.0133 1.22 12
  260.2956 0.06 1
  260.5583 0.22 2
  261.0224 2.57 26
  261.4173 0.14 1
  261.5438 0.13 1
  261.6563 0.11 1
  262.0192 0.76 8
  262.3590 0.23 2
  263.0576 2.14 21
  263.3604 0.10 1
  263.5276 0.03 0
  264.0144 0.78 8
  264.3355 0.04 0
  264.5762 0.09 1
  265.0373 1.55 15
  265.4747 0.08 1
  265.5866 0.04 0
  266.0346 0.82 8
  266.1963 0.28 3
  266.4987 0.06 1
  266.5694 0.03 0
  266.7073 0.18 2
  267.0448 1.96 20
  267.3564 0.15 1
  267.5027 0.13 1
  267.8837 0.31 3
  268.0777 0.97 10
  268.5217 0.05 0
  269.0471 1.76 18
  269.4219 0.13 1
  269.6875 0.17 2
  269.8557 0.21 2
  270.0589 0.87 9
  270.3735 0.10 1
  270.4744 0.07 1
  270.6637 0.27 3
  271.0674 1.48 15
  271.6121 0.19 2
  272.0573 0.78 8
  272.1414 0.38 4
  272.3581 0.20 2
  272.5081 0.09 1
  273.0453 2.33 23
  273.3610 0.13 1
  273.5714 0.09 1
  273.7467 0.23 2
  274.0463 0.73 7
  274.4204 0.15 1
  275.0473 2.01 20
  275.5916 0.11 1
  276.0302 1.02 10
  276.4071 0.15 1
  277.0442 1.67 17
  277.3231 0.14 1
  277.5628 0.04 0
  277.8432 0.34 3
  278.0921 0.61 6
  278.2098 0.31 3
  278.4868 0.05 0
  279.0161 1.67 17
  279.4116 0.17 2
  279.6269 0.10 1
  279.9951 0.62 6
  281.0375 1.96 20
  281.5076 0.06 1
  282.0233 0.73 7
  282.1897 0.13 1
  282.4521 0.24 2
  283.0508 1.86 19
  283.3387 0.15 1
  283.5450 0.10 1
  283.9972 0.74 7
  284.2506 0.18 2
  284.7077 0.20 2
  285.0469 1.18 12
  285.4185 0.04 0
  285.5280 0.12 1
  285.6657 0.07 1
  286.0583 0.57 6
  286.3850 0.16 2
  286.4967 0.10 1
  287.0243 1.33 13
  287.2436 0.33 3
  287.3616 0.22 2
  288.0503 0.84 8
  288.4186 0.09 1
  288.5310 0.11 1
  289.0652 1.36 14
  289.4821 0.28 3
  289.5609 0.11 1
  290.0369 0.64 6
  290.2738 0.29 3
  290.3533 0.15 1
  290.4594 0.08 1
  290.6216 0.09 1
  291.0444 1.04 10
  291.3913 0.15 1
  291.6112 0.01 0
  292.0677 0.43 4
  292.1907 0.15 1
  292.3508 0.24 2
  292.4759 0.03 0
  292.7288 0.18 2
  293.0541 0.99 10
  293.4300 0.08 1
  293.5769 0.11 1
  293.7083 0.02 0
  293.9043 0.21 2
  294.1412 0.57 6
  294.3485 0.16 2
  294.6915 0.09 1
  295.0683 1.24 12
  295.6503 0.16 2
  296.1038 0.47 5
  296.3781 0.06 1
  296.5088 0.01 0
  297.0363 2.06 21
  297.5201 0.08 1
  297.6573 0.07 1
  297.7522 0.05 0
  298.0533 0.55 5
  298.2770 0.19 2
  298.4275 0.03 0
  298.6224 0.17 2
  299.0804 1.81 18
  299.4167 0.14 1
  299.6440 0.12 1
  299.8389 0.23 2
  300.0008 0.35 3
  300.1514 0.32 3
  300.3252 0.14 1
  300.5863 0.11 1
  301.0776 0.94 9
  301.6084 0.12 1
  301.8125 0.28 3
  302.0582 0.71 7
  302.4652 0.13 1
  302.6708 0.04 0
  303.0545 0.87 9
  303.3207 0.06 1
  303.5665 0.08 1
  303.7665 0.22 2
  304.0525 0.36 4
  304.1750 0.20 2
  304.2476 0.10 1
  305.0443 0.70 7
  305.2331 0.30 3
  305.4255 0.04 0
  305.7130 0.11 1
  306.0561 0.40 4
  306.1604 0.19 2
  306.2520 0.11 1
  306.4888 0.34 3
  307.0314 0.95 9
  307.3528 0.04 0
  307.5530 0.15 1
  307.7384 0.21 2
  307.8188 0.07 1
  308.0641 0.52 5
  308.2974 0.10 1
  308.4426 0.10 1
  308.7373 0.05 0
  309.0335 0.70 7
  309.4347 0.13 1
  309.7675 0.18 2
  310.0468 0.46 5
  310.5595 0.10 1
  310.7203 0.04 0
  311.0638 0.99 10
  311.5795 0.10 1
  311.7432 0.04 0
  312.0726 0.45 4
  312.3528 0.05 0
  312.6025 0.11 1
  313.0605 0.76 8
  313.2785 0.20 2
  313.5354 0.13 1
  313.6744 0.08 1
  313.9716 0.13 1
  314.1565 0.15 1
  314.2511 0.03 0
  314.5405 0.05 0
  314.6908 0.08 1
  315.0572 0.94 9
  315.4201 0.09 1
  315.6467 0.12 1
  315.7745 0.03 0
  316.0379 0.52 5
  316.2928 0.06 1
  316.4509 0.06 1
  316.6282 0.11 1
  317.0731 0.67 7
  317.2398 0.28 3
  317.3443 0.12 1
  317.8599 0.23 2
  318.1431 0.45 4
  318.3169 0.12 1
  318.4207 0.08 1
  319.0481 0.66 7
  319.5787 0.11 1
  319.6917 0.09 1
  320.0323 0.39 4
  320.2387 0.16 2
  320.5136 0.11 1
  320.7779 0.15 1
  321.0860 0.51 5
  321.5391 0.09 1
  321.9703 0.25 2
  322.1541 0.25 2
  322.2948 0.08 1
  322.5160 0.09 1
  323.0540 0.69 7
  323.4585 0.07 1
  323.5914 0.04 0
  323.7767 0.04 0
  323.9401 0.26 3
  324.2067 0.24 2
  324.4231 0.04 0
  324.6310 0.02 0
  325.0271 0.50 5
  325.1445 0.21 2
  325.5674 0.08 1
  325.7542 0.06 1
  326.0478 0.30 3
  326.3605 0.06 1
  326.7383 0.14 1
  327.1182 0.64 6
  327.4678 0.09 1
  327.7260 0.21 2
  327.9207 0.29 3
  328.1089 0.52 5
  328.2603 0.03 0
  328.4217 0.04 0
  328.5767 0.08 1
  328.9242 0.65 6
  329.1613 0.88 9
  329.6696 0.03 0
  329.8006 0.05 0
  330.0504 0.38 4
  330.2112 0.41 4
  330.3237 0.08 1
  331.0693 0.60 6
  331.2930 0.10 1
  331.5225 0.04 0
  332.1003 0.53 5
  332.4835 0.05 0
  332.6740 0.17 2
  333.0777 0.79 8
  333.3837 0.05 0
  333.5573 0.06 1
  333.7528 0.07 1
  333.9242 0.12 1
  334.0984 0.40 4
  334.5013 0.15 1
  334.8243 0.37 4
  335.0187 0.44 4
  335.2011 0.62 6
  335.4782 0.18 2
  335.8155 0.08 1
  336.0764 0.40 4
  336.2545 0.10 1
  336.4257 0.11 1
  336.5735 0.03 0
  336.7347 0.25 2
  336.9574 0.37 4
  337.2007 0.18 2
  337.3654 0.07 1
  337.6158 0.11 1
  337.8365 0.15 1
  337.9602 0.20 2
  338.1781 0.21 2
  338.6272 0.10 1
  338.7631 0.09 1
  339.0283 0.43 4
  339.1938 0.46 5
  339.2915 0.13 1
  339.3940 0.04 0
  339.6289 0.07 1
  339.7994 0.11 1
  340.0732 0.22 2
  340.3258 0.03 0
  340.4928 0.15 1
  340.6909 0.18 2
  341.0469 0.38 4
  341.2563 0.28 3
  341.4007 0.05 0
  342.0171 0.16 2
  342.1764 0.22 2
  342.3696 0.07 1
  342.5933 0.08 1
  343.0824 0.51 5
  343.2516 0.31 3
  343.7641 0.08 1
  344.0275 0.19 2
  344.2363 0.11 1
  344.8318 0.09 1
  345.1086 0.67 7
  345.3912 0.10 1
  345.7616 0.08 1
  346.0923 0.64 6
  346.4259 0.08 1
  346.6617 0.19 2
  346.7899 0.06 1
  347.1249 0.46 5
  347.4947 0.11 1
  347.6633 0.07 1
  347.7773 0.09 1
  348.1372 0.25 2
  348.3987 0.06 1
  348.5439 0.08 1
  349.0994 0.67 7
  349.2871 0.28 3
  350.0730 0.25 2
  350.3005 0.05 0
  350.5223 0.01 0
  351.0836 0.94 9
  351.4458 0.08 1
  351.5833 0.02 0
  351.9229 0.23 2
  352.0356 0.23 2
  352.2993 0.21 2
  352.4801 0.10 1
  352.7275 0.06 1
  353.0848 0.34 3
  353.4471 0.10 1
  353.8222 0.21 2
  354.0370 0.18 2
  354.2356 0.14 1
  355.0398 0.29 3
  355.2518 0.35 3
  356.0760 0.32 3
  356.1753 0.15 1
  356.2895 0.10 1
  356.8322 0.07 1
  357.2131 0.58 6
  357.3096 0.30 3
  357.4380 0.03 0
  357.5984 0.15 1
  357.9914 0.27 3
  358.1887 0.05 0
  358.3235 0.01 0
  358.5605 0.01 0
  358.7478 0.04 0
  359.0934 0.36 4
  359.3070 0.12 1
  359.5050 0.13 1
  359.6987 0.02 0
  360.0025 0.29 3
  360.2310 0.27 3
  360.4099 0.19 2
  360.5078 0.10 1
  360.6782 0.02 0
  361.1183 0.94 9
  361.6335 0.15 1
  362.0720 0.43 4
  362.3296 0.19 2
  362.5056 0.06 1
  362.6986 0.06 1
  363.0499 0.83 8
  363.2082 0.31 3
  363.3757 0.15 1
  363.9535 0.27 3
  364.2090 0.29 3
  364.8103 0.07 1
  365.0836 0.44 4
  365.7233 0.16 2
  366.0925 0.17 2
  366.3175 0.12 1
  366.6328 0.08 1
  366.8068 0.05 0
  367.0624 0.33 3
  367.2321 0.14 1
  367.6590 0.10 1
  367.8820 0.05 0
  368.0574 0.07 1
  368.2037 0.14 1
  368.8600 0.13 1
  368.9630 0.04 0
  369.1796 0.25 2
  369.4439 0.13 1
  369.9070 0.17 2
  370.1465 0.23 2
  370.5692 0.11 1
  371.1013 0.62 6
  371.2690 0.17 2
  371.4545 0.11 1
  371.5447 0.11 1
  371.6406 0.11 1
  372.0308 0.25 2
  372.2454 0.18 2
  372.3839 0.03 0
  373.1387 0.86 9
  373.2979 0.43 4
  373.5836 0.10 1
  374.0555 0.46 5
  374.1977 0.28 3
  374.3456 0.08 1
  374.8730 0.24 2
  375.1048 0.41 4
  375.2519 0.21 2
  375.5384 0.15 1
  375.6435 0.05 0
  375.7862 0.14 1
  376.1027 0.43 4
  376.3838 0.07 1
  377.1021 1.66 17
  378.0818 0.63 6
  378.8741 0.11 1
  379.1545 0.29 3
  379.3200 0.10 1
  379.4535 0.11 1
  379.5649 0.07 1
  379.8752 0.08 1
  380.0158 0.07 1
  380.1834 0.09 1
  380.3247 0.09 1
  380.5016 0.08 1
  380.8716 0.08 1
  381.0349 0.10 1
  381.1762 0.05 0
  381.7458 0.04 0
  382.0136 0.15 1
  382.1621 0.18 2
  382.3177 0.10 1
  382.7566 0.16 2
  382.9506 0.08 1
  383.1374 0.19 2
  383.2859 0.08 1
  384.1270 0.11 1
  384.2372 0.09 1
  384.4787 0.11 1
  384.6464 0.04 0
  385.0919 0.38 4
  385.2184 0.09 1
  385.3079 0.07 1
  385.6995 0.08 1
  386.0470 0.17 2
  386.3185 0.09 1
  386.9808 0.32 3
  387.1365 0.35 3
  387.2758 0.09 1
  387.6233 0.06 1
  387.9411 0.11 1
  388.0768 0.13 1
  388.2254 0.15 1
  388.5524 0.03 0
  389.0891 0.53 5
  389.5768 0.09 1
  389.8619 0.03 0
  389.9828 0.19 2
  390.2259 0.50 5
  390.4528 0.12 1
  391.0998 0.33 3
  391.3323 0.17 2
  391.7092 0.08 1
  391.9012 0.12 1
  392.0278 0.02 0
  392.2021 0.12 1
  392.7532 0.08 1
  392.9076 0.17 2
  393.1999 0.25 2
  393.5001 0.12 1
  393.7810 0.03 0
  394.0243 0.27 3
  394.2555 0.10 1
  394.6496 0.14 1
  394.8310 0.11 1
  395.0138 0.13 1
  395.1440 0.12 1
  396.0191 0.28 3
  396.1337 0.23 2
  396.3934 0.09 1
  396.8573 0.11 1
  397.1611 0.44 4
  397.3305 0.08 1
  397.5845 0.10 1
  397.9838 0.15 1
  398.1553 0.17 2
  398.2919 0.31 3
  398.6435 0.04 0
  399.0684 0.34 3
  399.1887 0.15 1
  399.3752 0.32 3
  399.8991 0.12 1
  400.1468 0.37 4
  400.2450 0.17 2
  400.3845 0.04 0
  400.8793 0.07 1
  401.1292 0.62 6
  401.3314 0.30 3
  401.4581 0.19 2
  401.7500 0.09 1
  402.0227 0.41 4
  402.3359 0.15 1
  403.1249 0.08 1
  403.2523 0.15 1
  403.4225 0.09 1
  403.6981 0.10 1
  404.1097 0.10 1
  404.2237 0.21 2
  404.3191 0.07 1
  404.5185 0.09 1
  405.1531 0.17 2
  405.4117 0.10 1
  406.1111 0.11 1
  406.1766 0.06 1
  406.6447 0.08 1
  406.9061 0.09 1
  407.0094 0.04 0
  407.2473 0.14 1
  407.6755 0.05 0
  407.7565 0.02 0
  407.9987 0.10 1
  408.0833 0.06 1
  408.2409 0.15 1
  408.5144 0.05 0
  409.0188 0.17 2
  409.2375 0.14 1
  409.4635 0.04 0
  409.5736 0.16 2
  409.6716 0.10 1
  409.7690 0.06 1
  410.0503 0.28 3
  410.2371 0.11 1
  410.5490 0.02 0
  411.0826 0.20 2
  411.3022 0.12 1
  411.5978 0.11 1
  411.9133 0.19 2
  412.0980 0.33 3
  412.3126 0.46 5
  412.5727 0.10 1
  412.7874 0.06 1
  413.2159 0.56 6
  413.4632 0.15 1
  413.7326 0.10 1
  414.0304 0.20 2
  414.2258 0.29 3
  414.5570 0.06 1
  414.7184 0.10 1
  414.8058 0.11 1
  415.0347 0.60 6
  415.1968 0.32 3
  415.3795 0.06 1
  415.5046 0.07 1
  415.6553 0.09 1
  416.1685 0.28 3
  416.3228 0.07 1
  416.7345 0.08 1
  416.8376 0.11 1
  417.1696 0.28 3
  417.3999 0.16 2
  417.5670 0.04 0
  417.8301 0.04 0
  418.0349 0.23 2
  418.2219 0.22 2
  418.4089 0.09 1
  418.6706 0.14 1
  418.7751 0.08 1
  419.0724 0.30 3
  419.2359 0.17 2
  419.5488 0.15 1
  419.7771 0.09 1
  419.9122 0.07 1
  420.8759 0.06 1
  420.9869 0.14 1
  421.0964 0.14 1
  421.2081 0.15 1
  421.3958 0.19 2
  421.8518 0.15 1
  422.0510 0.15 1
  422.2018 0.25 2
  422.5034 0.03 0
  423.0760 0.32 3
  423.2440 0.11 1
  423.4738 0.08 1
  423.6865 0.10 1
  423.8110 0.08 1
  423.9874 0.10 1
  424.0927 0.10 1
  424.2194 0.12 1
  424.9890 0.14 1
  425.2009 0.19 2
  425.3375 0.11 1
  426.1539 0.77 8
  426.5914 0.03 0
  426.9605 0.45 4
  427.1049 0.62 6
  427.2308 0.25 2
  427.6434 0.04 0
  428.0645 0.31 3
  428.1663 0.16 2
  428.8065 0.09 1
  429.1003 0.32 3
  429.3010 0.11 1
  429.3935 0.11 1
  429.5493 0.13 1
  429.7257 0.11 1
  430.1292 0.37 4
  430.3497 0.22 2
  430.7823 0.12 1
  431.0890 0.21 2
  431.2975 0.13 1
  431.4341 0.07 1
  431.6270 0.10 1
  431.9373 0.19 2
  432.1408 0.21 2
  432.3465 0.09 1
  432.5799 0.12 1
  432.7166 0.14 1
  433.0888 0.41 4
  433.4140 0.19 2
  433.6496 0.14 1
  433.9336 0.21 2
  434.2205 0.12 1
  434.4198 0.15 1
  434.6369 0.05 0
  434.8376 0.11 1
  435.0519 0.11 1
  435.1508 0.05 0
  435.3089 0.12 1
  435.5067 0.15 1
  435.5794 0.09 1
  435.7310 0.13 1
  435.9524 0.05 0
  436.0984 0.36 4
  436.2535 0.13 1
  436.5291 0.14 1
  436.6907 0.03 0
  436.9626 0.06 1
  437.1727 0.22 2
  437.3706 0.15 1
  437.8178 0.20 2
  438.0606 0.15 1
  438.3824 0.02 0
  438.6017 0.18 2
  438.7378 0.19 2
  438.9941 0.26 3
  439.1664 0.04 0
  439.3316 0.11 1
  439.5702 0.06 1
  439.7248 0.13 1
  439.9655 0.15 1
  440.1008 0.30 3
  440.4825 0.10 1
  440.6249 0.15 1
  440.8792 0.21 2
  440.9782 0.27 3
  441.0844 0.15 1
  441.3158 0.13 1
  441.5986 0.03 0
  441.8265 0.10 1
  442.0609 0.67 7
  442.1983 0.42 4
  442.4420 0.09 1
  442.7290 0.20 2
  442.9962 0.35 3
  443.1821 0.37 4
  443.5946 0.04 0
  443.8810 0.11 1
  443.9985 0.27 3
  444.1289 0.17 2
  444.2977 0.25 2
  444.4431 0.04 0
  444.5357 0.03 0
  444.8798 0.13 1
  445.0444 0.17 2
  445.2332 0.25 2
  445.3550 0.12 1
  446.0690 0.21 2
  446.2963 0.04 0
  446.5279 0.08 1
  446.7481 0.09 1
  446.8671 0.12 1
  447.0317 0.02 0
  447.2341 0.16 2
  447.5291 0.06 1
  447.7280 0.03 0
  448.1620 0.28 3
  448.2732 0.07 1
  448.3922 0.09 1
  448.6630 0.10 1
  448.8027 0.15 1
  449.0322 0.12 1
  449.1648 0.18 2
  449.4171 0.19 2
  449.5853 0.20 2
  449.8070 0.10 1
  450.1178 0.14 1
  450.4178 0.10 1
  450.5554 0.11 1
  450.6460 0.11 1
  450.7686 0.13 1
  450.9917 0.07 1
  451.2084 0.21 2
  451.5755 0.26 3
  451.9840 0.15 1
  452.1958 0.21 2
  452.3954 0.31 3
  452.6827 0.28 3
  452.8838 0.34 3
  453.1704 0.26 3
  453.3237 0.21 2
  453.5725 0.22 2
  453.7066 0.14 1
  454.0217 0.24 2
  454.3825 0.11 1
  454.5651 0.04 0
  454.7562 0.12 1
  454.9009 0.20 2
  455.1028 0.14 1
  455.2803 0.19 2
  455.5905 0.07 1
  455.8651 0.15 1
  456.1596 0.16 2
  456.3850 0.20 2
  456.6453 0.12 1
  456.7616 0.11 1
  457.0561 0.24 2
  457.1296 0.08 1
  457.3050 0.17 2
  457.5076 0.25 2
  457.7886 0.39 4
  457.9384 0.15 1
  458.1103 0.10 1
  458.2694 0.14 1
  458.3799 0.23 2
  458.4798 0.15 1
  458.6695 0.19 2
  458.8322 0.16 2
  459.0390 0.19 2
  459.3408 0.29 3
  459.5684 0.11 1
  459.7359 0.07 1
  459.9582 0.26 3
  460.0451 0.12 1
  460.2090 0.10 1
  460.3886 0.13 1
  460.7706 0.08 1
  460.9680 0.10 1
  461.1768 0.31 3
  461.3784 0.07 1
  462.1488 0.16 2
  462.3306 0.08 1
  462.3947 0.04 0
  462.9008 0.08 1
  463.1495 0.30 3
  463.3562 0.19 2
  463.7283 0.04 0
  464.0326 0.16 2
  464.2258 0.13 1
  464.4161 0.07 1
  464.8274 0.03 0
  465.0399 0.23 2
  465.2316 0.22 2
  465.3221 0.08 1
  465.7385 0.28 3
  466.1398 0.45 4
  466.2646 0.40 4
  466.4343 0.12 1
  466.5555 0.11 1
  466.7337 0.34 3
  466.8392 0.16 2
  467.1002 0.39 4
  467.2905 0.21 2
  467.5429 0.26 3
  467.7440 0.17 2
  468.0991 0.21 2
  468.3743 0.16 2
  468.6360 0.17 2
  468.9968 0.23 2
  469.2878 0.18 2
  469.3854 0.15 1
  469.6065 0.10 1
  469.8183 0.10 1
  470.0358 0.25 2
  470.2105 0.14 1
  470.3539 0.26 3
  470.6256 0.03 0
  470.8074 0.22 2
  470.9765 0.05 0
  471.1940 0.16 2
  471.4272 0.05 0
  471.5677 0.08 1
  471.6675 0.02 0
  471.9379 0.11 1
  472.0456 0.04 0
  472.2003 0.34 3
  472.7560 0.12 1
  473.1411 0.24 2
  473.4122 0.21 2
  473.6754 0.13 1
  473.9643 0.26 3
  474.2375 0.47 5
  474.4009 0.14 1
  474.6156 0.09 1
  474.7226 0.10 1
  474.9616 0.08 1
  475.1956 0.28 3
  475.3633 0.26 3
  475.4674 0.11 1
  475.6351 0.01 0
  475.8498 0.11 1
  476.0054 0.08 1
  476.2465 0.24 2
  476.5911 0.11 1
  476.9193 0.10 1
  477.0542 0.02 0
  477.3296 0.13 1
  477.4859 0.11 1
  477.9454 0.04 0
  478.1102 0.15 1
  478.3964 0.24 2
  478.8324 0.15 1
  478.9922 0.14 1
  479.1342 0.20 2
  479.4104 0.12 1
  479.6338 0.11 1
  479.8622 0.05 0
  479.9621 0.01 0
  480.1933 0.26 3
  480.3646 0.13 1
  480.8335 0.13 1
  481.0169 0.12 1
  481.2553 0.21 2
  481.4573 0.09 1
  481.6471 0.08 1
  481.8763 0.19 2
  482.1782 0.52 5
  482.3695 0.09 1
  482.6357 0.10 1
  483.1075 0.19 2
  483.2917 0.11 1
  484.2440 0.20 2
  484.4132 0.09 1
  484.6067 0.13 1
  484.7623 0.08 1
  484.8944 0.10 1
  485.1050 0.13 1
  485.6397 0.14 1
  485.7697 0.11 1
  485.8711 0.18 2
  485.9539 0.10 1
  486.2059 0.29 3
  486.3894 0.13 1
  486.6943 0.15 1
  486.9542 0.08 1
  487.2112 0.47 5
  487.4246 0.31 3
  488.2319 7.33 73
  488.8168 0.15 1
  488.9643 0.18 2
  489.0933 0.19 2
  489.2700 0.16 2
  489.4738 0.11 1
  489.6740 0.02 0
  489.9334 0.03 0
  490.1586 0.10 1
  490.3432 0.16 2
  490.5847 0.16 2
  490.6873 0.10 1
  490.9425 0.19 2
  491.2069 0.16 2
  491.3523 0.29 3
  491.4713 0.07 1
  491.6373 0.12 1
  491.9488 0.07 1
  492.0820 0.10 1
  492.2296 0.09 1
  492.5239 0.09 1
  492.6600 0.13 1
  493.1668 0.35 3
  493.5018 0.13 1
  493.6614 0.24 2
  493.8297 0.08 1
  493.9230 0.09 1
  494.1055 0.13 1
  494.2352 0.11 1
  494.3700 0.11 1
  494.5211 0.08 1
  494.6180 0.14 1
  494.7670 0.08 1
  494.9039 0.11 1
  494.9880 0.09 1
  495.1077 0.02 0
  495.2460 0.10 1
  495.3437 0.10 1
  495.4898 0.07 1
  495.6274 0.10 1
  495.7643 0.22 2
  495.8484 0.06 1
  496.3396 0.26 3
  496.4550 0.13 1
  496.6540 0.13 1
  496.8500 0.15 1
  496.9584 0.13 1
  497.1651 0.05 0
  497.6414 0.01 0
  498.0920 0.12 1
  498.4100 0.09 1
  498.5276 0.08 1
  499.0011 0.03 0
  499.1843 0.11 1
  499.3982 0.12 1
  499.4980 0.04 0
  499.6813 0.07 1
  500.1705 0.56 6
  500.4186 0.13 1
  500.5655 0.08 1
  500.6953 0.21 2
  501.2016 0.82 8
  501.4270 0.49 5
  501.8563 0.14 1
  502.1359 0.10 1
  502.3156 0.37 4
  503.0616 0.11 1
  503.2271 0.20 2
  503.3405 0.21 2
  503.7349 0.13 1
  504.0880 0.15 1
  504.2969 0.15 1
  504.6593 0.09 1
  505.0552 0.05 0
  505.3669 0.24 2
  505.7043 0.09 1
  506.1473 0.32 3
  506.3399 0.18 2
  506.5040 0.05 0
  506.6224 0.17 2
  506.8949 0.15 1
  507.0683 0.09 1
  507.2352 0.22 2
  507.3629 0.04 0
  507.6561 0.15 1
  507.8359 0.19 2
  508.2996 0.29 3
  508.5957 0.21 2
  508.9889 0.40 4
  509.1729 0.23 2
  509.3235 0.06 1
  509.4333 0.06 1
  509.6068 0.02 0
  509.8686 0.28 3
  510.0812 0.09 1
  510.1933 0.10 1
  510.3181 0.13 1
  510.5843 0.28 3
  510.8205 0.16 2
  510.9746 0.31 3
  511.2222 0.25 2
  511.3664 0.23 2
  511.4684 0.17 2
  511.7738 0.14 1
  512.1349 0.30 3
  512.2720 0.12 1
  512.4004 0.08 1
  512.5845 0.12 1
  512.7344 0.10 1
  512.8657 0.10 1
  512.9799 0.09 1
  513.3353 0.09 1
  513.4531 0.26 3
  513.6030 0.18 2
  513.7686 0.18 2
  514.1305 0.02 0
  514.2651 0.25 2
  514.7870 0.07 1
  514.8824 0.14 1
  515.3218 0.11 1
  515.8338 0.12 1
  515.9819 0.07 1
  516.1407 0.21 2
  516.2902 0.08 1
  516.4006 0.10 1
  516.7353 0.12 1
  516.9191 0.17 2
  517.0458 0.14 1
  517.1548 0.20 2
  517.2317 0.13 1
  517.3976 0.12 1
  517.4973 0.04 0
  517.7260 0.09 1
  518.1447 0.11 1
  518.3683 0.08 1
  518.5272 0.08 1
  518.6447 0.11 1
  518.7479 0.08 1
  519.0086 0.25 2
  519.1511 0.20 2
  519.2978 0.12 1
  519.4987 0.12 1
  519.6539 0.18 2
  520.1575 0.42 4
  520.3569 0.12 1
  520.7444 0.09 1
  521.1184 0.31 3
  521.2858 0.23 2
  521.4575 0.06 1
  521.6313 0.14 1
  521.7232 0.07 1
  521.9490 0.28 3
  522.3301 0.36 4
  522.6528 0.20 2
  522.7690 0.02 0
  523.0839 0.26 3
  523.3140 0.18 2
  523.4265 0.18 2
  523.6452 0.11 1
  523.8383 0.12 1
  524.2188 1.07 11
  524.4560 0.86 9
  524.5671 0.21 2
  524.6690 0.11 1
  524.9675 0.36 4
  525.0474 0.14 1
  525.2177 0.13 1
  525.4300 0.21 2
  525.7556 0.12 1
  525.9067 0.13 1
  526.0214 0.07 1
  526.1304 0.07 1
  526.2657 0.13 1
  526.3904 0.07 1
  526.5957 0.26 3
  526.8380 0.17 2
  526.9584 0.05 0
  527.1572 0.05 0
  527.5007 0.14 1
  527.8348 0.11 1
  528.1456 0.05 0
  528.5397 0.13 1
  528.7499 0.15 1
  529.0172 0.15 1
  529.1518 0.32 3
  529.2751 0.07 1
  529.3856 0.08 1
  529.7120 0.21 2
  529.9678 0.15 1
  530.3791 0.11 1
  530.6349 0.06 1
  530.8687 0.19 2
  531.0397 0.14 1
  531.5416 0.07 1
  531.9150 0.33 3
  532.1730 0.26 3
  532.3962 0.19 2
  532.5644 0.12 1
  532.7041 0.07 1
  532.9130 0.26 3
  533.0242 0.16 2
  533.2102 0.32 3
  533.4904 0.07 1
  533.6892 0.10 1
  534.2495 0.99 10
  534.3928 0.49 5
  534.5896 0.27 3
  534.6879 0.13 1
  534.8256 0.12 1
  535.2647 0.91 9
  535.4999 0.32 3
  535.7744 0.05 0
  535.9634 0.37 4
  536.2336 0.48 5
  536.5216 0.30 3
  536.6357 0.18 2
  536.8353 0.29 3
  537.2075 0.67 7
  537.5226 0.49 5
  537.7322 0.30 3
  537.9733 0.37 4
  538.1765 0.28 3
  538.3782 0.35 3
  538.5194 0.14 1
  538.8973 0.27 3
  539.0385 0.24 2
  539.1996 0.14 1
  539.3202 0.09 1
  539.5719 0.47 5
  539.7316 0.14 1
  539.8821 0.34 3
  540.1581 0.37 4
  540.4247 0.22 2
  540.5496 0.34 3
  540.6929 0.24 2
  540.7999 0.10 1
  540.9318 0.10 1
  541.2598 0.27 3
  541.5800 0.28 3
  541.7669 0.23 2
  542.1292 0.40 4
  542.3588 0.20 2
  542.4829 0.19 2
  542.5956 0.14 1
  542.7610 0.29 3
  542.9964 0.38 4
  543.2275 0.15 1
  543.4072 0.20 2
  543.5285 0.18 2
  543.7104 0.25 2
  544.0969 0.53 5
  544.3558 0.13 1
  544.5092 0.19 2
  544.6768 0.14 1
  544.9900 0.18 2
  545.1305 0.17 2
  545.2574 0.20 2
  545.4964 0.32 3
  545.6298 0.05 0
  545.7653 0.08 1
  546.0913 0.27 3
  546.3217 0.25 2
  546.5357 0.31 3
  546.7347 0.19 2
  547.2098 0.83 8
  547.4930 0.27 3
  547.6971 0.40 4
  547.9325 0.37 4
  548.2278 0.38 4
  548.4676 0.24 2
  548.6024 0.09 1
  548.7322 0.11 1
  548.9177 0.17 2
  549.3536 0.45 4
  549.5441 0.19 2
  549.7875 0.31 3
  549.9744 0.55 5
  550.2940 0.79 8
  550.4560 0.65 6
  550.6393 0.39 4
  550.8663 0.50 5
  551.2901 1.84 18
  551.7681 0.52 5
  552.2591 1.09 11
  552.5916 0.50 5
  552.8171 0.32 3
  553.0568 0.45 4
  553.2338 0.28 3
  553.6384 0.37 4
  554.0131 0.56 6
  554.5583 0.69 7
  555.0414 0.38 4
  555.5945 0.87 9
  555.8629 0.52 5
  556.2297 1.17 12
  556.4938 0.90 9
  556.9913 0.79 8
  557.7750 1.01 10
  558.8054 1.36 14
  559.3113 0.91 9
  559.8265 1.20 12
  560.6581 1.39 14
  561.5497 1.69 17
  562.3130 7.42 74
  563.2937 1.61 16
  565.3058 12.41 124
  565.7856 1.11 11
  566.2760 0.91 9
  566.5861 0.62 6
  566.8577 0.86 9
  567.1271 1.15 11
  567.3403 0.96 10
  567.7053 0.83 8
  568.0525 0.95 9
  568.5508 0.91 9
  569.2701 1.16 12
  569.6544 1.09 11
  570.6547 1.29 13
  573.5660 1.57 16
  580.3072 99.97 999
  580.9820 44.61 446
  581.6875 22.46 224
  582.4205 11.36 114
  583.2282 6.41 64
  583.8188 3.49 35
  584.7662 1.90 19
//
