ACCESSION: MSBNK-Kyoto_Univ-CA000109
RECORD_TITLE: Lycopene-5,6-diol; FAB-EBEB; MS2; m/z: 570.44; [M]+*
DATE: 2016.01.19 (Created 2010.07.29, modified 2011.05.10)
AUTHORS: Akimoto N, Graduate School of Pharmaceutical Sciences, Kyoto University and Maoka T, Research Institute for Production Development
LICENSE: CC BY-SA
COMMENT: Profile spectrum of this record is given as a JPEG file.
COMMENT: [Profile] CA000109.jpg
CH$NAME: Lycopene-5,6-diol
CH$COMPOUND_CLASS: Natural Product
CH$FORMULA: C40H58O2
CH$EXACT_MASS: 570.44368
CH$SMILES: C(=CC=C(C)C=CC=C(C=CC(C(C)(O)CCC=C(C)C)O)C)C=C(C=CC=C(C)C=CC=C(CCC=C(C)C)C)C
CH$IUPAC: InChI=1S/C40H58O2/c1-32(2)18-13-22-36(7)25-15-27-37(8)26-14-23-34(5)20-11-12-21-35(6)24-16-28-38(9)29-30-39(41)40(10,42)31-17-19-33(3)4/h11-12,14-16,18-21,23-30,39,41-42H,13,17,22,31H2,1-10H3/b12-11+,23-14+,24-16+,27-15+,30-29+,34-20+,35-21+,36-25+,37-26+,38-28+
CH$LINK: CHEMSPIDER 21238542
CH$LINK: INCHIKEY BMVRDJXDSMPZGO-RGZXCSNFSA-N
SP$SCIENTIFIC_NAME: Momordica cochinchinensis
SP$LINEAGE: cellular organisms; Eukaryota; Viridiplantae; Streptophyta; Streptophytina; Embryophyta; Tracheophyta; Euphyllophyta; Spermatophyta; Magnoliophyta; eudicotyledons; core eudicotyledons; rosids; fabids; Cucurbitales; Cucurbitaceae; Momordica
SP$LINK: NCBI-TAXONOMY 3674
AC$INSTRUMENT: JMS-HX/HX 110A, JEOL
AC$INSTRUMENT_TYPE: FAB-EBEB
AC$MASS_SPECTROMETRY: MS_TYPE MS2
AC$MASS_SPECTROMETRY: ION_MODE POSITIVE
AC$MASS_SPECTROMETRY: ATOM_GUN_CURRENT 5 mA
AC$MASS_SPECTROMETRY: BOMBARDMENT 6 kV xenon
AC$MASS_SPECTROMETRY: COLLISION_ENERGY 3 kV
AC$MASS_SPECTROMETRY: COLLISION_GAS Ar
AC$MASS_SPECTROMETRY: GAS_PRESSURE adjust to attenuate the intensity of the precursor ion by 30 %
AC$MASS_SPECTROMETRY: IONIZATION FAB
AC$MASS_SPECTROMETRY: MATRIX 1-2 uL m-NBA
AC$MASS_SPECTROMETRY: PROBE_TIP stainless-steel
MS$FOCUSED_ION: BASE_PEAK 570.5235
MS$FOCUSED_ION: PRECURSOR_M/Z 570.44
MS$FOCUSED_ION: PRECURSOR_TYPE [M]+*
PK$SPLASH: splash10-00di-4921160000-f5f5cc0f09fc9a7808e9
PK$ANNOTATION: m/z InChI
  374.261 InChI=1/C27H34O/c1-23(2)13-9-16-26(5)19-10-17-24(3)14-7-8-15-25(4)18-11-20-27(6)21-12-22-28/h7-22H,1-6H3/q+1
  443.331 InChI=1/C32H43O/c1-27(2)15-10-18-30(5)21-13-23-31(6)22-11-19-28(3)16-8-9-17-29(4)20-12-24-32(7)25-14-26-33/h8-9,11-17,19-26,33H,10,18H2,1-7H3/q+1/b9-8+,19-11+,20-12+,23-13+,25-14+,28-16+,29-17+,30-21+,31-22+,32-24+
  501.373 InChI=1/C35H49O2/c1-28(2)16-12-19-31(5)22-14-24-32(6)23-13-20-29(3)17-10-11-18-30(4)21-15-25-33(7)26-27-34(36)35(8,9)37/h10-11,13-18,20-27,34,36-37H,8,12,19H2,1-7,9H3/q+1/b11-10+,20-13+,21-15+,24-14+,27-26+,29-17+,30-18+,31-22+,32-23+,33-25+
  501.373 InChI=1/C35H49O2/c1-28(2)16-12-20-32(7)23-13-21-30(5)18-10-11-19-31(6)22-14-24-33(8)25-26-34(36)35(9,37)27-15-17-29(3)4/h10-14,16-26,34,36-37H,1,15,27H2,2-9H3/q+1/b11-10+,20-12+,21-13+,22-14+,26-25+,28-16-,30-18+,31-19+,32-23+,33-24+
PK$NUM_PEAK: 1587
PK$PEAK: m/z int. rel.int.
  3.1361 0.01 0
  7.8484 0.01 0
  11.9600 0.02 0
  12.2417 0.01 0
  13.9696 0.09 1
  14.9564 0.03 0
  17.6038 0.01 0
  22.0303 0.01 0
  22.9178 0.27 3
  23.9373 0.02 0
  24.9306 0.02 0
  25.9429 0.05 0
  26.9501 0.90 9
  27.9843 0.09 1
  28.9700 0.75 7
  29.9317 0.03 0
  30.9448 0.23 2
  32.2436 0.01 0
  35.3786 0.01 0
  35.8757 0.10 1
  35.9339 0.07 1
  36.6940 0.03 0
  36.9440 0.06 1
  37.3260 0.02 0
  37.5765 0.04 0
  37.9434 0.33 3
  38.4737 0.03 0
  38.9510 1.35 13
  39.2186 0.04 0
  39.9633 0.33 3
  40.9614 6.97 70
  41.9636 0.30 3
  42.9426 11.73 117
  43.9648 0.03 0
  44.9737 0.20 2
  46.0969 0.01 0
  46.8817 0.09 1
  48.3256 0.02 0
  48.8953 0.05 0
  49.9287 0.38 4
  50.9371 0.94 9
  51.2689 0.06 1
  51.9281 0.14 1
  52.9521 2.38 24
  53.8478 0.07 1
  53.9777 0.24 2
  54.9606 4.97 50
  55.9920 0.21 2
  56.9574 1.16 12
  57.1110 0.05 0
  57.1992 0.04 0
  57.9377 0.28 3
  58.9673 0.85 8
  59.1835 0.03 0
  60.8561 0.07 1
  60.9409 0.04 0
  61.5974 0.02 0
  61.8006 0.13 1
  61.9459 0.15 1
  62.3226 0.07 1
  62.9390 0.83 8
  63.1478 0.06 1
  63.3373 0.09 1
  63.9396 0.14 1
  64.0444 0.05 0
  64.6624 0.04 0
  64.9348 1.31 13
  65.3229 0.03 0
  65.9406 0.44 4
  66.4811 0.05 0
  66.9634 2.71 27
  67.4161 0.03 0
  67.9522 0.47 5
  68.3136 0.05 0
  68.4418 0.01 0
  68.9782 44.66 446
  69.2829 0.02 0
  70.0046 0.40 4
  70.9557 5.50 55
  71.9909 0.03 0
  72.8575 0.06 1
  72.9646 0.07 1
  73.2344 0.05 0
  73.9479 0.34 3
  74.9221 0.34 3
  75.0462 0.03 0
  75.1430 0.09 1
  75.4681 0.02 0
  75.8900 0.17 2
  75.9493 0.09 1
  76.2950 0.05 0
  76.9536 4.07 41
  77.1304 0.11 1
  77.2898 0.10 1
  77.9246 0.80 8
  78.3462 0.02 0
  78.5999 0.03 0
  78.9701 3.66 37
  79.9769 1.47 15
  80.9754 7.41 74
  81.3197 0.02 0
  81.9602 0.25 2
  82.1011 0.07 1
  82.5982 0.05 0
  82.9737 1.42 14
  83.4613 0.02 0
  83.9608 0.06 1
  84.9833 0.46 5
  85.1904 0.01 0
  85.8859 0.02 0
  86.0187 0.14 1
  86.9206 0.26 3
  87.8793 0.01 0
  88.6222 0.13 1
  88.9709 0.39 4
  89.1801 0.08 1
  89.3525 0.06 1
  89.6687 0.11 1
  89.9561 0.08 1
  90.2902 0.09 1
  90.4994 0.06 1
  90.5623 0.03 0
  90.9623 9.34 93
  91.4251 0.07 1
  91.5839 0.03 0
  91.7518 0.04 0
  91.9824 1.22 12
  92.2986 0.07 1
  92.3763 0.01 0
  92.9835 8.77 88
  93.3266 0.03 0
  93.8132 0.04 0
  94.0111 0.68 7
  94.1517 0.07 1
  94.5643 0.02 0
  94.6728 0.01 0
  94.9998 5.54 55
  95.2366 0.04 0
  95.5407 0.01 0
  95.7723 0.05 0
  95.9906 0.26 3
  96.7403 0.02 0
  96.9994 1.55 15
  97.3096 0.02 0
  97.9630 0.08 1
  98.0816 0.02 0
  98.4342 0.07 1
  98.7828 0.07 1
  98.9950 0.13 1
  99.9643 0.04 0
  100.5484 0.02 0
  100.8349 0.21 2
  101.7730 0.19 2
  101.9611 0.27 3
  102.3833 0.09 1
  102.5189 0.05 0
  102.9844 1.89 19
  103.3627 0.09 1
  103.7928 0.09 1
  103.9940 0.71 7
  104.1450 0.11 1
  104.4781 0.11 1
  104.6000 0.06 1
  104.9937 14.10 141
  105.2850 0.05 0
  105.3809 0.01 0
  105.5640 0.05 0
  105.9964 1.07 11
  106.2091 0.03 0
  106.6008 0.01 0
  107.0164 6.26 63
  107.2507 0.04 0
  107.3505 0.10 1
  107.5687 0.03 0
  107.7670 0.03 0
  108.0259 0.57 6
  108.4886 0.05 0
  109.0241 24.38 244
  109.3530 0.04 0
  109.5557 0.07 1
  109.7271 0.10 1
  110.0258 0.31 3
  110.1692 0.03 0
  111.0316 0.78 8
  111.3039 0.01 0
  111.7144 0.04 0
  111.8274 0.03 0
  111.9983 0.13 1
  112.1063 0.04 0
  112.3307 0.10 1
  112.6161 0.03 0
  112.9501 0.21 2
  113.0665 0.06 1
  113.1929 0.10 1
  113.3176 0.18 2
  113.4126 0.10 1
  113.5279 0.08 1
  113.9600 0.07 1
  114.1371 0.06 1
  114.4031 0.01 0
  114.7008 0.14 1
  114.9639 4.17 42
  115.2335 0.12 1
  115.4690 0.10 1
  115.5675 0.10 1
  115.9580 1.83 18
  116.2476 0.05 0
  116.5948 0.02 0
  116.9777 4.60 46
  117.1942 0.07 1
  117.5197 0.08 1
  117.9836 0.91 9
  118.2506 0.09 1
  118.4428 0.03 0
  118.6007 0.02 0
  118.7099 0.06 1
  118.9962 11.08 111
  119.3734 0.06 1
  119.7095 0.09 1
  119.9962 1.31 13
  120.2448 0.03 0
  121.0001 4.24 42
  122.0093 0.62 6
  122.5955 0.03 0
  123.0084 0.91 9
  123.9225 0.17 2
  124.0306 0.08 1
  124.6087 0.08 1
  124.8084 0.07 1
  124.9901 0.47 5
  125.3295 0.04 0
  125.5722 0.05 0
  125.6811 0.02 0
  125.9970 0.27 3
  126.0855 0.13 1
  126.6177 0.17 2
  126.9841 3.53 35
  127.2427 0.11 1
  127.6068 0.06 1
  127.9582 3.60 36
  128.2596 0.03 0
  128.4589 0.12 1
  128.9606 6.22 62
  129.2366 0.02 0
  129.3756 0.05 0
  129.9745 2.73 27
  130.4351 0.06 1
  130.5943 0.07 1
  130.9838 7.96 80
  131.3670 0.06 1
  131.4986 0.08 1
  131.9989 2.52 25
  132.1771 0.11 1
  132.3883 0.02 0
  132.5324 0.06 1
  132.9997 8.46 85
  133.2454 0.06 1
  133.4323 0.09 1
  133.5597 0.13 1
  133.9764 0.86 9
  134.9814 1.88 19
  135.3380 0.01 0
  135.5839 0.05 0
  136.0013 0.40 4
  136.5786 0.10 1
  137.0224 0.37 4
  137.2590 0.09 1
  137.6277 0.01 0
  137.9471 0.27 3
  138.1144 0.04 0
  138.3513 0.02 0
  138.5257 0.04 0
  138.7471 0.10 1
  138.9802 0.96 10
  139.6155 0.01 0
  139.7772 0.18 2
  140.0145 0.24 2
  140.2036 0.12 1
  140.4358 0.05 0
  140.5689 0.05 0
  140.9644 3.34 33
  141.3260 0.12 1
  141.4899 0.03 0
  141.9668 3.21 32
  142.2831 0.16 2
  142.4674 0.05 0
  142.9886 7.90 79
  143.3490 0.17 2
  143.5467 0.11 1
  143.9892 2.65 26
  144.2184 0.06 1
  144.4731 0.05 0
  144.6022 0.04 0
  145.0045 11.40 114
  145.5329 0.07 1
  145.7408 0.14 1
  146.0065 0.83 8
  146.2742 0.01 0
  147.0199 3.74 37
  147.2649 0.08 1
  148.0001 0.49 5
  149.0306 0.86 9
  149.3689 0.02 0
  149.7915 0.09 1
  149.9930 0.26 3
  150.1853 0.03 0
  150.3625 0.09 1
  150.6372 0.03 0
  150.8270 0.24 2
  151.0307 0.27 3
  151.2278 0.08 1
  151.4203 0.22 2
  151.6281 0.10 1
  151.7138 0.12 1
  151.9757 1.22 12
  152.4422 0.08 1
  152.6779 0.13 1
  152.9882 2.32 23
  153.2589 0.01 0
  153.5569 0.05 0
  154.0135 1.16 12
  154.1715 0.12 1
  154.2951 0.14 1
  154.4538 0.08 1
  154.5827 0.10 1
  155.0179 3.81 38
  155.4261 0.20 2
  156.0093 2.57 26
  156.5020 0.10 1
  156.6238 0.10 1
  157.0227 6.77 68
  157.3335 0.13 1
  157.5185 0.02 0
  158.0284 1.91 19
  158.3435 0.09 1
  158.6984 0.16 2
  159.0502 5.40 54
  159.3416 0.05 0
  159.4631 0.09 1
  159.5853 0.16 2
  159.7208 0.10 1
  160.0403 0.26 3
  160.2077 0.05 0
  161.0452 1.90 19
  161.1974 0.22 2
  161.3557 0.06 1
  161.5798 0.14 1
  161.7029 0.07 1
  162.0462 0.28 3
  162.1600 0.13 1
  162.4675 0.03 0
  162.9435 0.32 3
  163.0986 0.43 4
  163.6135 0.06 1
  163.7988 0.05 0
  164.0760 0.35 3
  164.4693 0.06 1
  164.7420 0.18 2
  165.0361 3.20 32
  165.3282 0.10 1
  165.5624 0.09 1
  166.0149 1.08 11
  166.3266 0.10 1
  166.4882 0.11 1
  167.0211 2.29 23
  167.6532 0.09 1
  168.0467 1.02 10
  168.5697 0.09 1
  169.0682 4.36 44
  169.4068 0.01 0
  169.7729 0.10 1
  170.0597 1.80 18
  170.4166 0.13 1
  170.6555 0.06 1
  171.0666 3.93 39
  171.3844 0.11 1
  171.5293 0.11 1
  172.0696 1.00 10
  172.3683 0.09 1
  172.6850 0.11 1
  173.0767 3.30 33
  173.3320 0.13 1
  173.4698 0.11 1
  173.5955 0.10 1
  173.8015 0.18 2
  174.0576 0.57 6
  174.3995 0.01 0
  174.6123 0.05 0
  174.8184 0.19 2
  175.0701 1.02 10
  175.5642 0.13 1
  175.6781 0.10 1
  175.8689 0.21 2
  176.0826 0.80 8
  176.4651 0.09 1
  176.5676 0.05 0
  176.6561 0.07 1
  176.8639 0.18 2
  177.0918 0.62 6
  177.3163 0.11 1
  177.5034 0.05 0
  178.0117 1.02 10
  178.3270 0.14 1
  179.0101 2.80 28
  179.2383 0.08 1
  179.4880 0.14 1
  179.7552 0.08 1
  180.0608 1.12 11
  180.4041 0.06 1
  180.4941 0.05 0
  180.5928 0.04 0
  181.0283 2.90 29
  181.3199 0.07 1
  181.5667 0.10 1
  182.0683 1.68 17
  182.4133 0.12 1
  182.5774 0.06 1
  182.7268 0.16 2
  183.0369 4.76 48
  183.3815 0.19 2
  184.0271 0.83 8
  184.4304 0.07 1
  184.5820 0.12 1
  185.0441 2.24 22
  185.2846 0.05 0
  185.5657 0.17 2
  186.0543 0.66 7
  186.1838 0.22 2
  186.4461 0.06 1
  187.0558 1.33 13
  187.2345 0.24 2
  187.4376 0.02 0
  187.6393 0.10 1
  187.9410 0.19 2
  188.1205 0.37 4
  188.4378 0.05 0
  188.5317 0.05 0
  189.0226 1.09 11
  189.3312 0.12 1
  189.6257 0.06 1
  190.0420 0.43 4
  190.4224 0.10 1
  191.0153 0.98 10
  191.2121 0.12 1
  191.6402 0.01 0
  192.0196 1.23 12
  192.5684 0.09 1
  193.0252 1.71 17
  194.0246 1.17 12
  194.3741 0.10 1
  194.5672 0.11 1
  195.0442 3.09 31
  195.3329 0.15 1
  196.0711 0.90 9
  196.3267 0.12 1
  196.4237 0.12 1
  196.5817 0.17 2
  197.0565 4.46 45
  197.4379 0.07 1
  198.0568 0.96 10
  198.5971 0.11 1
  199.0575 2.28 23
  199.3231 0.12 1
  200.0439 1.07 11
  200.1879 0.30 3
  200.3177 0.11 1
  200.6303 0.08 1
  200.7105 0.03 0
  201.0831 0.56 6
  201.5699 0.10 1
  201.7766 0.12 1
  202.0153 0.56 6
  202.4493 0.11 1
  202.6078 0.16 2
  202.9896 0.87 9
  203.1774 0.24 2
  203.7777 0.20 2
  204.0330 0.34 3
  204.7699 0.15 1
  205.0260 1.18 12
  205.1343 0.40 4
  205.4811 0.06 1
  206.0630 0.94 9
  207.0406 1.59 16
  207.6632 0.05 0
  208.0589 1.09 11
  208.4566 0.06 1
  209.0531 2.96 30
  209.3486 0.11 1
  209.4530 0.12 1
  210.0546 0.48 5
  210.7163 0.05 0
  211.0722 2.03 20
  211.3660 0.05 0
  211.5450 0.07 1
  211.8615 0.12 1
  212.0638 0.59 6
  212.2169 0.08 1
  212.6065 0.13 1
  212.7357 0.10 1
  212.8479 0.15 1
  213.0783 0.77 8
  213.4024 0.08 1
  213.6589 0.17 2
  213.8696 0.10 1
  214.0201 0.25 2
  214.1405 0.16 2
  214.2294 0.08 1
  214.5305 0.11 1
  214.6865 0.07 1
  215.0431 0.60 6
  215.2888 0.23 2
  215.3839 0.05 0
  215.5688 0.03 0
  215.7303 0.07 1
  215.8515 0.13 1
  216.0884 0.45 4
  216.6575 0.11 1
  217.0500 0.72 7
  217.3295 0.10 1
  217.7886 0.11 1
  218.0154 0.38 4
  218.3375 0.15 1
  218.8345 0.09 1
  219.0827 0.67 7
  220.0428 0.41 4
  220.3377 0.10 1
  220.5641 0.04 0
  221.0883 1.54 15
  221.2983 0.11 1
  221.5207 0.09 1
  221.6202 0.11 1
  221.7170 0.12 1
  221.8241 0.08 1
  222.0973 0.73 7
  222.5353 0.23 2
  223.0895 1.40 14
  223.3732 0.10 1
  223.7949 0.21 2
  224.0814 0.28 3
  224.1941 0.14 1
  225.1054 0.69 7
  225.6608 0.13 1
  225.7372 0.06 1
  226.0521 0.23 2
  226.2205 0.12 1
  226.5004 0.09 1
  226.7398 0.11 1
  227.0885 0.64 6
  227.3513 0.08 1
  227.7201 0.04 0
  227.8763 0.08 1
  228.0862 0.36 4
  228.2638 0.10 1
  228.7153 0.06 1
  228.7958 0.05 0
  229.1024 0.56 6
  229.9649 0.14 1
  230.1306 0.16 2
  230.4778 0.12 1
  230.8058 0.08 1
  231.0712 0.41 4
  231.7562 0.13 1
  232.0727 0.53 5
  232.2130 0.27 3
  232.4958 0.12 1
  232.6025 0.10 1
  232.9555 0.37 4
  233.1420 1.10 11
  233.9137 0.16 2
  234.0775 0.34 3
  234.2214 0.06 1
  234.6552 0.12 1
  235.1091 1.01 10
  235.4976 0.09 1
  235.9826 0.11 1
  236.1045 0.40 4
  236.2189 0.22 2
  236.3223 0.06 1
  236.5366 0.02 0
  237.1182 0.74 7
  237.3416 0.12 1
  237.5656 0.15 1
  238.1199 0.26 3
  238.5509 0.12 1
  239.0192 0.56 6
  239.2289 0.29 3
  239.6966 0.08 1
  239.9588 0.11 1
  240.1278 0.13 1
  240.6909 0.10 1
  240.8441 0.18 2
  241.1009 0.50 5
  241.2500 0.16 2
  241.8451 0.12 1
  242.0930 0.32 3
  242.8402 0.06 1
  243.1275 0.42 4
  243.3403 0.05 0
  243.8107 0.05 0
  243.9523 0.08 1
  244.1044 0.21 2
  244.2446 0.12 1
  244.4637 0.03 0
  244.5604 0.05 0
  244.8369 0.13 1
  245.0961 0.55 5
  245.2219 0.21 2
  245.5952 0.08 1
  245.9775 0.11 1
  246.1600 0.31 3
  246.2534 0.17 2
  247.0819 0.66 7
  247.8988 0.08 1
  248.1327 0.30 3
  248.4773 0.02 0
  248.9617 0.12 1
  249.1735 0.79 8
  249.3790 0.04 0
  249.5777 0.04 0
  249.7729 0.04 0
  250.1122 0.28 3
  250.2756 0.20 2
  250.3718 0.11 1
  250.4563 0.06 1
  250.9708 0.34 3
  251.1869 0.34 3
  251.2831 0.17 2
  251.7112 0.06 1
  252.1698 0.44 4
  252.2786 0.07 1
  252.8655 0.10 1
  253.1953 0.62 6
  253.3478 0.28 3
  253.4525 0.06 1
  254.1283 0.31 3
  254.2635 0.14 1
  254.5734 0.02 0
  254.9237 0.02 0
  255.2021 0.53 5
  255.4410 0.06 1
  255.7707 0.06 1
  255.9812 0.11 1
  256.2043 0.15 1
  256.7793 0.03 0
  256.9005 0.06 1
  257.1243 0.52 5
  258.0550 0.22 2
  258.1354 0.11 1
  258.2719 0.13 1
  258.8224 0.01 0
  259.1413 0.24 2
  259.4075 0.11 1
  259.7175 0.09 1
  260.0774 0.31 3
  260.6190 0.13 1
  260.8646 0.04 0
  261.1768 0.37 4
  261.6097 0.07 1
  261.7929 0.06 1
  262.0447 0.27 3
  262.2238 0.36 4
  262.4028 0.11 1
  262.8415 0.09 1
  263.1809 0.52 5
  263.4808 0.08 1
  263.6946 0.06 1
  264.0667 0.23 2
  264.2195 0.17 2
  264.4097 0.02 0
  264.6549 0.03 0
  264.9535 0.10 1
  265.1889 0.45 4
  265.7585 0.08 1
  266.2281 0.19 2
  266.4623 0.09 1
  266.5665 0.07 1
  266.6672 0.01 0
  266.8826 0.11 1
  267.1773 0.61 6
  267.4261 0.02 0
  268.1733 0.23 2
  268.2462 0.13 1
  268.3582 0.19 2
  269.0652 0.35 3
  269.2133 0.43 4
  269.3302 0.10 1
  269.5332 0.05 0
  270.0305 0.21 2
  270.2050 0.12 1
  270.6724 0.12 1
  270.8755 0.07 1
  271.1316 0.26 3
  272.0229 0.07 1
  272.2066 0.22 2
  273.1651 0.32 3
  273.5399 0.08 1
  274.1319 0.19 2
  274.7246 0.04 0
  274.8603 0.11 1
  275.1873 0.50 5
  275.8741 0.07 1
  276.1156 0.25 2
  276.2660 0.10 1
  276.3892 0.07 1
  276.8103 0.06 1
  276.9147 0.11 1
  277.1646 0.27 3
  277.3240 0.10 1
  278.2021 0.22 2
  278.3156 0.10 1
  278.9521 0.25 2
  279.2419 0.36 4
  279.5512 0.08 1
  279.7003 0.03 0
  279.9489 0.19 2
  280.1816 0.33 3
  280.3405 0.13 1
  280.6798 0.05 0
  280.8568 0.12 1
  281.0136 0.07 1
  281.2450 0.38 4
  281.7523 0.08 1
  281.9719 0.12 1
  282.2480 0.26 3
  282.5352 0.09 1
  283.0915 0.14 1
  283.2156 0.11 1
  283.3272 0.14 1
  283.8802 0.05 0
  284.0182 0.11 1
  284.1521 0.12 1
  284.8873 0.03 0
  285.1154 0.21 2
  285.2730 0.27 3
  285.3644 0.13 1
  285.5479 0.12 1
  286.0684 0.15 1
  286.2135 0.32 3
  286.3684 0.10 1
  286.8220 0.09 1
  287.0530 0.23 2
  287.2840 0.12 1
  287.8717 0.10 1
  288.1544 0.19 2
  288.3122 0.30 3
  289.2383 0.29 3
  289.3387 0.07 1
  289.8503 0.09 1
  289.9590 0.08 1
  290.2218 0.17 2
  290.3710 0.11 1
  290.5676 0.03 0
  290.9274 0.06 1
  291.2125 0.30 3
  291.5584 0.13 1
  292.2174 0.29 3
  292.9352 0.03 0
  293.1814 0.26 3
  293.5923 0.09 1
  293.8344 0.05 0
  294.0186 0.11 1
  294.1700 0.14 1
  294.2747 0.10 1
  294.6954 0.10 1
  294.7932 0.11 1
  295.1805 0.31 3
  295.6620 0.02 0
  296.0760 0.06 1
  296.2854 0.14 1
  296.7105 0.06 1
  297.0052 0.07 1
  297.1616 0.17 2
  297.3305 0.10 1
  297.9869 0.10 1
  298.2307 0.08 1
  298.3648 0.15 1
  299.0709 0.14 1
  299.6835 0.10 1
  300.0231 0.12 1
  300.2187 0.12 1
  300.3619 0.07 1
  301.0984 0.21 2
  301.2130 0.11 1
  301.9567 0.05 0
  302.2048 0.24 2
  302.4949 0.02 0
  302.9269 0.13 1
  303.2604 0.33 3
  303.5918 0.11 1
  303.8260 0.09 1
  304.0728 0.15 1
  304.3274 0.10 1
  305.1002 0.21 2
  305.2541 0.10 1
  306.0592 0.05 0
  306.2180 0.13 1
  307.0386 0.28 3
  307.1135 0.14 1
  307.2933 0.12 1
  308.0323 0.17 2
  308.1968 0.11 1
  308.4214 0.10 1
  308.9086 0.05 0
  309.2621 0.10 1
  309.3664 0.07 1
  309.6212 0.05 0
  310.2317 0.09 1
  310.3563 0.05 0
  310.9158 0.06 1
  311.1385 0.14 1
  311.2806 0.15 1
  312.0286 0.24 2
  312.2177 0.10 1
  312.3613 0.06 1
  313.1416 0.10 1
  313.3315 0.11 1
  313.6523 0.12 1
  314.2003 0.20 2
  314.3222 0.04 0
  314.6628 0.12 1
  314.8555 0.11 1
  314.9963 0.13 1
  315.2661 0.13 1
  315.3432 0.05 0
  315.8472 0.04 0
  316.0105 0.10 1
  316.2579 0.23 2
  316.3399 0.09 1
  316.9667 0.11 1
  317.1132 0.05 0
  317.2948 0.16 2
  318.1320 0.26 3
  318.3045 0.15 1
  318.4854 0.02 0
  318.6102 0.02 0
  319.2036 0.29 3
  319.5430 0.07 1
  320.1961 0.33 3
  321.2513 0.25 2
  321.8413 0.02 0
  321.9999 0.07 1
  322.2048 0.12 1
  322.3242 0.09 1
  322.5627 0.11 1
  323.2780 0.09 1
  323.4331 0.10 1
  324.0304 0.23 2
  324.2930 0.10 1
  325.0316 0.02 0
  325.2527 0.18 2
  325.8517 0.05 0
  326.1937 0.14 1
  327.2985 0.11 1
  328.1534 0.22 2
  328.3423 0.16 2
  328.9501 0.09 1
  329.0765 0.03 0
  329.2227 0.26 3
  330.2887 0.20 2
  330.3822 0.10 1
  330.9782 0.11 1
  331.1040 0.25 2
  331.2748 0.25 2
  331.9798 0.04 0
  332.2414 0.19 2
  333.2844 0.31 3
  333.4170 0.12 1
  334.1494 0.06 1
  334.3248 0.17 2
  335.0223 0.10 1
  335.2490 0.12 1
  335.4356 0.09 1
  335.6370 0.09 1
  335.9542 0.10 1
  336.1599 0.06 1
  336.3346 0.12 1
  336.5838 0.05 0
  337.1805 0.05 0
  337.2815 0.11 1
  337.5792 0.06 1
  338.0685 0.11 1
  338.3444 0.03 0
  338.9384 0.06 1
  340.0613 0.15 1
  340.4138 0.13 1
  340.5831 0.06 1
  340.7629 0.04 0
  341.0881 0.06 1
  341.2455 0.12 1
  342.1678 0.14 1
  342.3603 0.09 1
  343.2238 0.19 2
  343.7199 0.04 0
  344.0277 0.06 1
  344.1282 0.12 1
  344.2631 0.18 2
  345.0095 0.11 1
  345.2513 0.18 2
  345.7791 0.11 1
  346.2389 0.08 1
  346.3683 0.12 1
  346.8955 0.06 1
  347.3047 0.52 5
  347.4980 0.12 1
  348.0163 0.05 0
  348.2005 0.17 2
  348.2954 0.19 2
  348.4481 0.20 2
  349.2660 0.02 0
  349.4586 0.05 0
  350.0460 0.05 0
  350.1993 0.13 1
  350.3899 0.01 0
  350.8584 0.08 1
  351.0216 0.02 0
  351.3143 0.24 2
  351.7217 0.10 1
  351.9693 0.13 1
  352.1185 0.10 1
  352.2775 0.11 1
  353.2021 0.09 1
  353.4485 0.11 1
  353.8419 0.02 0
  353.9876 0.11 1
  354.1361 0.13 1
  354.3592 0.11 1
  355.2215 0.08 1
  355.3348 0.10 1
  356.0571 0.12 1
  356.2993 0.16 2
  356.4147 0.08 1
  356.6112 0.14 1
  357.0604 0.05 0
  357.2125 0.15 1
  357.3329 0.11 1
  358.0146 0.06 1
  358.1843 0.10 1
  359.0139 0.10 1
  359.1448 0.22 2
  359.3242 0.21 2
  359.4467 0.15 1
  359.8464 0.09 1
  359.9801 0.09 1
  360.3025 0.16 2
  361.2492 0.25 2
  361.4512 0.12 1
  362.1819 0.12 1
  362.9029 0.16 2
  363.0754 0.05 0
  363.3627 0.06 1
  364.2366 0.21 2
  364.4394 0.20 2
  366.3199 0.10 1
  367.1160 0.09 1
  367.2104 0.07 1
  367.3506 0.27 3
  367.4654 0.11 1
  367.6880 0.07 1
  368.2742 0.09 1
  368.6012 0.13 1
  369.2248 0.11 1
  369.4482 0.03 0
  370.3235 0.15 1
  370.6653 0.05 0
  371.0516 0.09 1
  371.2892 0.09 1
  371.3984 0.12 1
  371.4731 0.06 1
  371.8996 0.09 1
  372.2472 0.21 2
  372.3578 0.19 2
  372.4706 0.17 2
  372.5552 0.06 1
  373.0255 0.18 2
  373.2664 0.77 8
  373.4207 0.26 3
  373.8107 0.23 2
  374.2853 2.00 20
  374.9135 0.16 2
  375.1755 0.30 3
  375.4030 0.47 5
  375.9087 0.13 1
  376.1756 0.18 2
  376.3771 0.28 3
  376.5891 0.09 1
  376.8082 0.11 1
  377.2999 0.11 1
  377.8261 0.08 1
  377.9818 0.08 1
  378.2249 0.09 1
  378.5412 0.04 0
  378.9055 0.04 0
  379.1944 0.11 1
  379.7419 0.05 0
  380.0534 0.08 1
  380.2232 0.07 1
  380.6137 0.03 0
  381.2155 0.13 1
  381.3953 0.03 0
  381.8767 0.11 1
  382.3025 0.11 1
  382.4124 0.08 1
  382.6443 0.05 0
  383.1526 0.04 0
  383.6151 0.06 1
  383.9500 0.09 1
  384.0889 0.12 1
  384.2151 0.14 1
  384.3843 0.14 1
  384.7898 0.11 1
  385.2100 0.07 1
  385.3849 0.08 1
  385.9230 0.10 1
  386.2728 0.21 2
  386.6353 0.10 1
  386.7622 0.11 1
  387.2030 0.18 2
  387.3004 0.07 1
  387.4591 0.21 2
  387.9119 0.07 1
  388.1080 0.25 2
  388.3189 0.46 5
  388.5263 0.13 1
  389.1521 0.05 0
  389.4004 0.19 2
  390.1539 0.17 2
  390.2732 0.11 1
  390.5180 0.03 0
  391.2378 0.09 1
  391.5829 0.09 1
  391.8030 0.04 0
  392.2307 0.12 1
  392.3401 0.11 1
  392.5448 0.13 1
  393.0395 0.11 1
  393.2774 0.11 1
  393.4228 0.11 1
  393.9910 0.10 1
  394.2543 0.09 1
  394.6631 0.06 1
  395.1156 0.16 2
  395.3457 0.08 1
  395.4629 0.06 1
  395.5985 0.07 1
  395.8350 0.11 1
  395.9593 0.10 1
  396.4302 0.06 1
  396.6491 0.11 1
  397.1526 0.08 1
  397.2521 0.08 1
  397.3560 0.15 1
  398.3242 0.12 1
  398.5685 0.06 1
  399.1300 0.17 2
  399.3482 0.08 1
  399.5467 0.11 1
  399.7904 0.08 1
  400.2856 0.15 1
  400.4247 0.06 1
  400.5307 0.11 1
  400.9489 0.02 0
  401.1743 0.07 1
  401.3290 0.20 2
  401.5869 0.13 1
  401.9281 0.07 1
  402.0680 0.07 1
  402.4410 0.20 2
  402.6820 0.02 0
  403.1766 0.10 1
  403.5688 0.10 1
  404.1730 0.10 1
  404.3560 0.02 0
  406.4800 0.11 1
  407.5816 0.07 1
  408.3575 0.07 1
  408.4676 0.04 0
  409.2710 0.14 1
  409.4445 0.11 1
  409.5243 0.02 0
  410.3165 0.22 2
  410.5641 0.10 1
  411.2013 0.21 2
  411.5745 0.14 1
  412.0925 0.15 1
  412.3818 0.37 4
  412.4848 0.27 3
  412.6252 0.09 1
  412.8108 0.15 1
  413.0176 0.12 1
  413.2011 0.17 2
  413.4417 0.16 2
  413.9238 0.08 1
  414.2463 0.20 2
  414.3748 0.14 1
  414.5653 0.25 2
  415.2232 0.16 2
  415.3764 0.12 1
  415.6764 0.08 1
  415.8401 0.10 1
  416.3307 0.20 2
  416.4677 0.09 1
  416.8250 0.12 1
  417.3792 0.56 6
  417.5761 0.17 2
  418.3309 0.10 1
  418.4206 0.07 1
  418.5879 0.07 1
  419.0533 0.06 1
  419.3040 0.11 1
  419.5624 0.02 0
  420.1450 0.11 1
  420.2623 0.13 1
  420.4296 0.13 1
  420.5200 0.14 1
  421.2058 0.13 1
  421.3111 0.11 1
  422.2348 0.13 1
  422.3413 0.05 0
  422.6799 0.04 0
  423.2865 0.15 1
  423.9502 0.11 1
  424.2768 0.04 0
  424.6225 0.08 1
  425.0366 0.08 1
  425.3117 0.06 1
  425.5072 0.11 1
  426.2169 0.14 1
  426.3842 0.06 1
  426.5718 0.09 1
  426.8534 0.05 0
  427.3671 0.23 2
  428.2936 0.71 7
  428.4665 0.25 2
  429.0812 0.20 2
  429.2442 0.21 2
  429.3614 0.13 1
  429.5618 0.15 1
  429.6733 0.11 1
  430.1420 0.10 1
  431.2473 0.11 1
  431.3476 0.12 1
  432.4171 0.22 2
  432.5343 0.16 2
  432.6938 0.12 1
  432.8167 0.07 1
  433.4069 0.14 1
  434.1087 0.04 0
  434.3961 0.24 2
  434.4999 0.08 1
  435.1516 0.08 1
  436.0880 0.03 0
  436.4157 0.20 2
  437.2152 0.05 0
  437.3635 0.11 1
  438.0741 0.11 1
  438.5127 0.11 1
  438.6709 0.10 1
  439.0926 0.03 0
  439.2346 0.11 1
  439.3900 0.09 1
  439.5200 0.04 0
  439.7524 0.09 1
  440.1593 0.13 1
  440.3798 0.16 2
  440.6313 0.25 2
  440.8319 0.09 1
  441.0403 0.05 0
  441.2707 0.19 2
  441.3689 0.11 1
  441.7221 0.25 2
  442.3249 1.81 18
  442.8343 0.29 3
  443.3360 5.52 55
  443.6788 0.39 4
  443.8710 0.17 2
  444.3431 3.99 40
  444.6922 0.51 5
  444.8420 0.12 1
  445.0173 0.19 2
  445.2074 0.21 2
  445.4018 0.16 2
  445.5983 0.20 2
  445.7891 0.10 1
  445.9142 0.27 3
  446.1361 0.04 0
  446.3567 0.23 2
  447.0247 0.09 1
  447.1392 0.15 1
  447.2707 0.16 2
  447.5138 0.10 1
  447.8786 0.01 0
  448.1713 0.08 1
  449.3095 0.07 1
  449.4856 0.07 1
  450.1848 0.12 1
  450.5561 0.08 1
  450.7357 0.03 0
  450.8636 0.09 1
  451.2108 0.13 1
  451.3728 0.12 1
  451.8855 0.02 0
  452.4250 0.10 1
  452.5884 0.08 1
  452.9944 0.01 0
  453.2624 0.08 1
  453.4470 0.16 2
  453.6556 0.06 1
  454.1302 0.04 0
  454.3424 0.22 2
  454.4591 0.09 1
  454.9529 0.16 2
  455.1891 0.15 1
  455.4360 0.13 1
  455.7819 0.08 1
  455.9276 0.04 0
  456.2311 0.12 1
  456.3606 0.07 1
  456.5148 0.09 1
  457.2016 0.13 1
  457.3507 0.20 2
  457.4256 0.11 1
  457.5704 0.11 1
  458.2170 0.07 1
  458.4333 0.10 1
  458.5710 0.23 2
  459.3633 0.10 1
  459.4834 0.11 1
  460.2948 0.16 2
  461.6561 0.08 1
  462.3757 0.02 0
  462.8613 0.06 1
  463.0267 0.09 1
  463.2098 0.10 1
  463.4198 0.31 3
  463.5675 0.11 1
  464.4626 0.15 1
  464.8500 0.11 1
  465.0013 0.06 1
  465.1526 0.11 1
  465.3131 0.17 2
  465.5436 0.12 1
  465.7621 0.12 1
  465.9368 0.04 0
  466.0768 0.08 1
  466.2917 0.33 3
  466.4742 0.10 1
  466.5661 0.12 1
  466.8461 0.04 0
  467.0137 0.11 1
  467.1120 0.05 0
  467.2435 0.11 1
  467.4783 0.14 1
  468.1926 0.23 2
  468.3213 0.18 2
  468.7874 0.19 2
  468.8885 0.06 1
  469.0518 0.17 2
  469.2874 0.29 3
  469.4316 0.35 3
  470.2302 0.26 3
  470.3257 0.25 2
  470.4537 0.28 3
  470.5428 0.11 1
  470.7451 0.17 2
  470.9948 0.10 1
  471.3110 0.13 1
  471.7708 0.07 1
  471.9951 0.06 1
  472.1146 0.08 1
  472.4563 0.11 1
  472.7676 0.06 1
  473.4269 0.13 1
  474.6184 0.16 2
  474.6920 0.05 0
  474.8116 0.10 1
  475.5715 0.11 1
  475.8184 0.11 1
  476.0569 0.11 1
  476.4072 0.32 3
  476.6612 0.25 2
  477.2125 0.06 1
  477.3080 0.06 1
  477.6711 0.15 1
  477.7666 0.10 1
  477.9365 0.12 1
  478.1488 0.34 3
  478.3554 1.38 14
  478.4758 0.59 6
  478.9408 0.12 1
  479.1885 0.07 1
  479.9111 0.09 1
  480.3698 0.10 1
  481.2539 0.25 2
  481.4132 0.21 2
  481.9987 0.11 1
  482.0864 0.08 1
  482.3300 0.29 3
  482.6811 0.06 1
  482.7852 0.04 0
  482.9345 0.07 1
  483.1660 0.19 2
  483.3211 0.35 3
  483.5420 0.17 2
  484.1344 0.08 1
  484.3330 0.23 2
  484.4680 0.16 2
  484.5910 0.13 1
  484.8455 0.07 1
  485.2929 0.12 1
  485.4435 0.28 3
  485.5495 0.10 1
  485.7001 0.08 1
  485.9164 0.09 1
  486.3688 0.83 8
  486.5180 0.48 5
  486.6961 0.13 1
  487.1125 0.12 1
  487.2405 0.13 1
  487.4377 0.24 2
  487.6244 0.20 2
  487.8237 0.09 1
  488.0846 0.04 0
  488.3667 0.05 0
  488.5138 0.15 1
  488.8765 0.06 1
  489.1183 0.07 1
  490.0481 0.09 1
  490.2242 0.07 1
  490.3939 0.26 3
  491.1236 0.07 1
  491.2346 0.13 1
  491.4023 0.17 2
  491.5967 0.45 4
  492.4687 0.11 1
  492.6264 0.05 0
  492.9291 0.04 0
  493.7828 0.04 0
  494.2305 0.11 1
  494.5537 0.08 1
  495.1210 0.11 1
  495.3657 0.12 1
  495.6140 0.10 1
  496.1580 0.10 1
  496.4325 0.13 1
  496.6503 0.11 1
  497.0847 0.10 1
  497.4618 0.12 1
  497.6301 0.11 1
  498.1133 0.11 1
  498.3221 0.09 1
  498.6885 0.12 1
  499.0897 0.17 2
  499.4901 0.12 1
  499.6918 0.10 1
  499.8885 0.07 1
  500.0576 0.12 1
  500.2154 0.15 1
  500.4418 0.32 3
  500.5940 0.09 1
  500.8289 0.04 0
  500.9810 0.07 1
  501.4488 2.08 21
  501.8613 0.11 1
  502.1797 0.10 1
  502.2498 0.04 0
  502.4975 0.20 2
  502.6213 0.24 2
  502.8435 0.12 1
  503.2101 0.18 2
  503.5902 0.17 2
  503.7155 0.04 0
  504.1337 0.12 1
  504.2576 0.15 1
  505.7673 0.10 1
  506.5063 0.10 1
  506.7901 0.11 1
  507.0535 0.13 1
  508.3369 0.14 1
  509.3047 0.05 0
  509.5454 0.06 1
  509.7274 0.02 0
  510.1083 0.08 1
  510.2747 0.11 1
  510.3984 0.17 2
  510.5573 0.11 1
  510.6978 0.11 1
  510.8617 0.09 1
  511.4874 0.11 1
  511.6739 0.12 1
  512.0405 0.08 1
  512.1740 0.13 1
  512.3979 0.27 3
  512.6401 0.15 1
  513.2236 0.09 1
  513.4376 0.10 1
  514.0529 0.04 0
  514.2380 0.13 1
  514.3835 0.12 1
  514.5495 0.11 1
  514.6943 0.11 1
  515.1606 0.11 1
  515.5032 0.27 3
  515.9942 0.06 1
  516.1306 0.15 1
  516.6633 0.06 1
  516.9374 0.11 1
  517.2935 0.06 1
  518.7914 0.11 1
  518.9214 0.05 0
  519.1461 0.07 1
  519.3934 0.11 1
  519.8111 0.03 0
  519.9397 0.16 2
  520.3934 0.07 1
  521.2110 0.15 1
  521.4810 0.07 1
  521.6824 0.02 0
  522.3212 0.09 1
  522.5941 0.10 1
  523.3284 0.13 1
  523.7051 0.04 0
  523.9659 0.16 2
  524.2805 0.21 2
  524.4070 0.18 2
  524.5413 0.19 2
  524.7385 0.11 1
  524.8085 0.04 0
  525.5698 0.07 1
  525.6878 0.11 1
  525.8504 0.14 1
  526.1636 0.12 1
  526.5114 0.23 2
  526.9271 0.10 1
  527.3102 0.30 3
  527.5074 0.19 2
  528.0221 0.08 1
  528.2936 0.19 2
  528.5071 0.13 1
  528.8231 0.15 1
  529.1618 0.13 1
  529.4106 0.09 1
  529.8646 0.11 1
  530.8813 0.02 0
  531.8805 0.10 1
  532.0007 0.12 1
  532.1881 0.07 1
  533.1216 0.10 1
  533.4158 0.11 1
  534.4172 0.19 2
  534.7015 0.09 1
  535.1626 0.10 1
  535.2609 0.12 1
  535.8062 0.12 1
  536.0637 0.07 1
  536.1641 0.10 1
  536.2886 0.10 1
  537.3156 0.10 1
  537.4387 0.05 0
  537.7747 0.10 1
  538.0952 0.06 1
  538.2536 0.12 1
  538.4467 0.08 1
  538.5974 0.13 1
  538.6971 0.07 1
  538.8598 0.11 1
  539.0374 0.15 1
  539.2340 0.12 1
  539.4166 0.13 1
  539.6875 0.10 1
  539.9245 0.14 1
  540.0624 0.04 0
  540.2365 0.12 1
  540.4055 0.24 2
  540.5810 0.52 5
  540.6687 0.16 2
  540.8067 0.09 1
  540.9036 0.11 1
  541.0217 0.19 2
  541.1385 0.06 1
  541.2842 0.35 3
  541.3762 0.20 2
  541.6910 0.36 4
  541.8849 0.02 0
  542.0547 0.22 2
  542.1665 0.13 1
  542.3193 0.38 4
  542.5203 0.38 4
  542.7466 0.30 3
  542.8797 0.35 3
  543.2228 0.25 2
  543.4422 0.13 1
  543.6729 0.05 0
  543.8887 0.13 1
  544.1575 0.25 2
  544.3140 0.14 1
  544.7293 0.07 1
  544.9077 0.19 2
  545.1341 0.07 1
  545.3244 0.13 1
  545.4391 0.17 2
  545.5671 0.22 2
  545.7341 0.15 1
  545.9203 0.03 0
  546.0986 0.11 1
  546.2968 0.17 2
  546.4269 0.19 2
  546.5430 0.09 1
  546.6931 0.36 4
  546.8572 0.23 2
  547.1042 0.21 2
  547.3477 0.18 2
  547.6088 0.10 1
  547.8700 0.13 1
  548.1064 0.04 0
  548.3456 0.27 3
  548.5204 0.13 1
  548.6754 0.26 3
  548.8835 0.12 1
  549.0370 0.20 2
  549.1907 0.08 1
  549.3060 0.36 4
  549.4094 0.19 2
  549.8171 0.25 2
  550.1143 0.09 1
  550.2219 0.19 2
  550.4796 0.36 4
  550.8554 0.59 6
  551.0267 0.57 6
  551.2037 0.46 5
  551.5371 0.93 9
  552.5225 8.06 81
  553.0145 0.87 9
  553.4951 0.95 9
  553.7634 0.22 2
  553.9940 0.17 2
  554.2428 0.20 2
  554.4717 0.71 7
  554.6732 0.66 7
  554.9070 0.33 3
  555.5156 1.27 13
  555.6873 0.75 7
  555.8845 0.50 5
  556.2272 0.36 4
  556.5891 0.41 4
  556.8400 0.25 2
  557.3821 0.59 6
  557.5482 0.25 2
  557.8331 0.35 3
  557.9716 0.13 1
  558.0797 0.14 1
  558.3978 0.38 4
  558.6898 0.03 0
  558.8396 0.24 2
  558.9626 0.60 6
  559.0919 0.30 3
  559.2701 0.18 2
  559.6807 0.28 3
  560.2201 0.20 2
  560.4492 0.23 2
  560.7198 0.18 2
  561.0366 0.41 4
  561.1766 0.23 2
  561.3837 0.40 4
  561.5880 0.29 3
  561.8326 0.56 6
  562.0199 0.36 4
  562.1408 0.50 5
  562.5558 0.36 4
  562.9058 0.51 5
  563.1002 0.48 5
  563.2656 0.35 3
  563.4530 0.50 5
  563.6990 0.69 7
  563.9889 0.67 7
  564.4456 0.88 9
  565.5175 1.19 12
  570.5235 99.97 999
  571.2435 20.78 208
  571.9529 8.69 87
  572.7549 4.33 43
  573.7424 2.24 22
  574.4978 1.56 16
  575.0630 1.20 12
  575.3743 0.99 10
  575.6862 0.74 7
  575.9763 0.59 6
//
