ACCESSION: MSBNK-Kyoto_Univ-CA000152
RECORD_TITLE: Isocryptoxanthin; FAB-EBEB; MS2; m/z: 552.43; [M]*+
DATE: 2016.01.19 (Created 2007.03.15, modified 2011.05.10)
AUTHORS: Akimoto N, Graduate School of Pharmaceutical Sciences, Kyoto University and Maoka T, Research Institute for Production Development
LICENSE: CC BY-SA
COMMENT: Profile spectrum of this record is given as a JPEG file.
COMMENT: [Profile] CA000152.jpg
CH$NAME: Isocryptoxanthin
CH$COMPOUND_CLASS: Natural Product; Carotenoid
CH$FORMULA: C40H56O
CH$EXACT_MASS: 552.43312
CH$SMILES: C(=CC(=C(C)2)C(C)(C)CCC2)C(C)=CC=CC(=CC=CC=C(C)C=CC=C(C)C=CC(=C1C)C(CCC(O)1)(C)C)C
CH$IUPAC: InChI=1S/C40H56O/c1-30(18-13-20-32(3)23-25-36-34(5)22-15-28-39(36,7)8)16-11-12-17-31(2)19-14-21-33(4)24-26-37-35(6)38(41)27-29-40(37,9)10/h11-14,16-21,23-26,38,41H,15,22,27-29H2,1-10H3/b12-11+,18-13+,19-14+,25-23+,26-24+,30-16+,31-17+,32-20+,33-21+
CH$LINK: CHEMSPIDER 8134916
CH$LINK: PUBCHEM CID:9959307
CH$LINK: INCHIKEY JCRCKXUPYKELBT-QQGJMDNJSA-N
AC$INSTRUMENT: JMS-HX/HX 110A, JEOL
AC$INSTRUMENT_TYPE: FAB-EBEB
AC$MASS_SPECTROMETRY: MS_TYPE MS2
AC$MASS_SPECTROMETRY: ION_MODE POSITIVE
AC$MASS_SPECTROMETRY: ATOM_GUN_CURRENT 5 mA
AC$MASS_SPECTROMETRY: BOMBARDMENT 6 kV xenon
AC$MASS_SPECTROMETRY: COLLISION_ENERGY 3 kV
AC$MASS_SPECTROMETRY: COLLISION_GAS Ar
AC$MASS_SPECTROMETRY: GAS_PRESSURE adjust to attenuate the intensity of the precursor ion by 30 %
AC$MASS_SPECTROMETRY: IONIZATION FAB
AC$MASS_SPECTROMETRY: MATRIX 1-2 uL m-NBA
AC$MASS_SPECTROMETRY: PROBE_TIP stainless-steel
MS$FOCUSED_ION: BASE_PEAK 552.3120
MS$FOCUSED_ION: PRECURSOR_M/Z 552.43
MS$FOCUSED_ION: PRECURSOR_TYPE [M]+*
PK$SPLASH: splash10-0udi-1920020000-df6330d82a30093e8fdc
PK$NUM_PEAK: 1670
PK$PEAK: m/z int. rel.int.
  0.0465 0.01 0
  0.0962 0.01 0
  0.1612 0.01 0
  0.2636 0.01 0
  0.5628 0.01 0
  1.5500 0.01 0
  1.7550 0.01 0
  2.0859 0.01 0
  2.4009 0.01 0
  3.9033 0.02 0
  11.0656 0.01 0
  11.5067 0.01 0
  11.6902 0.01 0
  11.9547 0.07 1
  13.4909 0.01 0
  13.9689 0.08 1
  14.9675 0.23 2
  16.9658 0.02 0
  19.6671 0.01 0
  22.9241 0.12 1
  23.9357 0.01 0
  24.9289 0.01 0
  25.9551 0.51 5
  26.9608 1.52 15
  27.9631 0.26 3
  28.9623 1.31 13
  30.9436 0.09 1
  35.5822 0.02 0
  36.9455 0.23 2
  37.0722 0.01 0
  37.9489 0.45 4
  38.9449 2.88 29
  39.1213 0.01 0
  39.9673 0.16 2
  40.9662 3.23 32
  41.9418 0.13 1
  42.9568 2.18 22
  43.1788 0.01 0
  43.9353 0.10 1
  44.9664 0.06 1
  45.7386 0.01 0
  47.2827 0.01 0
  48.9513 0.10 1
  49.9402 0.38 4
  50.7617 0.04 0
  50.9574 0.44 4
  51.9251 0.50 5
  52.9618 1.31 13
  53.9645 0.07 1
  54.9688 3.11 31
  55.4878 0.11 1
  55.8827 0.02 0
  55.9799 0.07 1
  56.2866 0.03 0
  56.9690 1.13 11
  57.5713 0.10 1
  57.9723 0.06 1
  58.8811 0.11 1
  58.9661 0.07 1
  59.9969 0.06 1
  60.9598 0.07 1
  61.8920 0.26 3
  62.9381 1.02 10
  63.9551 0.08 1
  64.9363 1.46 15
  65.7460 0.09 1
  65.9566 0.27 3
  66.7485 0.32 3
  66.9685 2.69 27
  67.9734 0.12 1
  68.9755 10.86 109
  70.0062 0.24 2
  70.9582 0.76 8
  71.2989 0.02 0
  72.7389 0.01 0
  72.9213 0.11 1
  73.8957 0.40 4
  74.2817 0.03 0
  74.6792 0.09 1
  74.9351 0.74 7
  75.1724 0.03 0
  75.4574 0.03 0
  75.6718 0.08 1
  75.8492 0.19 2
  75.9534 0.17 2
  76.9149 7.96 80
  77.1235 0.13 1
  77.3223 0.11 1
  77.4337 0.29 3
  77.5284 0.12 1
  77.6961 0.15 1
  77.9337 2.31 23
  78.1715 0.02 0
  78.2558 0.03 0
  78.9237 7.05 70
  79.2775 0.01 0
  79.9356 1.12 11
  80.3061 0.07 1
  80.9447 12.60 126
  81.4097 0.04 0
  81.8116 0.10 1
  81.9639 0.23 2
  82.9713 2.75 27
  83.9688 0.18 2
  84.6539 0.11 1
  84.7443 0.05 0
  84.9711 0.09 1
  85.8933 0.43 4
  86.5128 0.02 0
  86.6544 0.05 0
  86.8725 0.28 3
  87.6743 0.05 0
  87.9125 0.21 2
  88.4902 0.03 0
  88.9016 1.18 12
  89.2692 0.16 2
  89.4979 0.06 1
  89.7164 0.12 1
  89.9627 0.62 6
  90.1296 0.08 1
  90.2516 0.06 1
  90.9069 21.23 212
  91.1699 0.06 1
  91.3212 0.07 1
  91.4626 0.02 0
  91.6717 0.03 0
  91.9312 2.65 26
  92.2636 0.12 1
  92.9537 16.81 168
  93.3164 0.05 0
  93.4752 0.03 0
  93.6462 0.12 1
  93.9502 0.83 8
  94.3014 0.10 1
  94.4471 0.10 1
  94.9655 15.33 153
  95.2133 0.04 0
  95.9708 0.85 8
  96.5095 0.10 1
  96.7014 0.16 2
  96.9583 2.18 22
  97.3257 0.06 1
  97.8875 0.18 2
  97.9881 0.21 2
  98.8412 0.20 2
  98.9907 0.32 3
  99.0898 0.04 0
  99.7152 0.07 1
  100.4206 0.01 0
  100.5488 0.01 0
  100.6752 0.12 1
  100.7958 0.13 1
  100.9647 0.39 4
  101.1506 0.03 0
  101.3255 0.11 1
  101.4120 0.08 1
  101.5016 0.03 0
  101.7066 0.25 2
  101.9305 1.83 18
  102.3197 0.10 1
  102.6968 0.46 5
  102.9324 4.20 42
  103.1326 0.16 2
  103.2649 0.11 1
  103.4493 0.11 1
  103.5563 0.11 1
  103.9313 3.07 31
  104.2011 0.09 1
  104.4172 0.12 1
  104.9379 37.12 371
  105.3601 0.19 2
  105.9616 3.54 35
  106.1666 0.07 1
  106.4896 0.09 1
  106.9594 19.10 191
  107.1973 0.06 1
  107.3000 0.10 1
  107.9451 2.00 20
  108.1383 0.06 1
  108.2387 0.20 2
  108.3803 0.08 1
  108.9557 8.59 86
  109.2450 0.06 1
  109.5346 0.02 0
  109.9506 0.49 5
  110.2100 0.10 1
  110.5842 0.04 0
  110.7143 0.09 1
  110.9597 1.82 18
  111.2112 0.01 0
  111.6499 0.02 0
  111.9387 0.18 2
  112.2791 0.06 1
  112.4671 0.12 1
  112.7281 0.45 4
  112.9432 0.85 8
  113.0594 0.19 2
  113.1702 0.12 1
  113.3626 0.14 1
  113.5899 0.28 3
  113.9294 0.43 4
  114.0776 0.23 2
  114.2048 0.05 0
  114.8810 14.80 148
  115.2326 0.12 1
  115.3606 0.10 1
  115.8954 5.56 56
  116.1885 0.08 1
  116.4010 0.16 2
  116.9076 16.08 161
  117.1680 0.14 1
  117.4465 0.08 1
  117.9159 3.45 34
  118.2250 0.06 1
  118.3415 0.10 1
  118.4562 0.06 1
  118.9341 36.53 365
  119.2267 0.27 3
  119.3421 0.26 3
  119.4389 0.05 0
  119.6809 0.33 3
  119.9507 3.38 34
  120.1614 0.09 1
  120.3539 0.19 2
  120.4465 0.26 3
  120.9439 15.43 154
  121.4422 0.10 1
  121.9397 1.01 10
  122.3026 0.14 1
  122.4399 0.06 1
  122.9507 7.09 71
  123.1713 0.12 1
  123.3093 0.04 0
  123.4145 0.07 1
  123.6504 0.10 1
  123.9382 0.95 9
  124.0866 0.07 1
  124.4926 0.01 0
  124.9378 0.93 9
  125.1791 0.15 1
  125.3522 0.08 1
  125.6784 0.37 4
  125.9064 1.13 11
  126.1200 0.05 0
  126.2603 0.12 1
  126.8689 5.92 59
  127.2861 0.33 3
  127.8778 17.10 171
  128.2441 0.37 4
  128.8861 21.68 217
  129.1647 0.16 2
  129.3668 0.11 1
  129.5346 0.19 2
  129.9109 8.77 88
  130.0985 0.28 3
  130.3646 0.09 1
  130.9075 22.66 226
  131.1278 0.29 3
  131.3335 0.13 1
  131.4415 0.22 2
  131.9286 5.82 58
  132.1449 0.05 0
  132.2654 0.11 1
  132.3508 0.13 1
  132.9214 22.51 225
  133.2887 0.08 1
  133.5847 0.17 2
  133.9375 2.74 27
  134.3560 0.03 0
  134.5570 0.13 1
  134.9394 7.02 70
  135.3035 0.04 0
  135.5985 0.04 0
  135.9203 0.77 8
  136.2192 0.12 1
  136.3842 0.06 1
  136.4627 0.06 1
  136.5566 0.11 1
  136.9349 3.78 38
  137.3740 0.12 1
  137.6673 0.19 2
  137.9049 0.66 7
  138.0578 0.13 1
  138.1872 0.08 1
  138.3488 0.07 1
  138.5030 0.30 3
  138.9180 4.96 50
  139.1473 0.14 1
  139.3462 0.11 1
  139.4764 0.05 0
  139.9278 0.87 9
  140.1089 0.37 4
  140.8760 14.72 147
  141.3169 0.28 3
  141.5293 0.42 4
  141.9034 14.43 144
  142.1352 0.38 4
  142.9082 27.15 271
  143.1558 0.15 1
  143.4938 0.30 3
  143.9196 8.75 87
  144.2154 0.11 1
  144.9314 28.40 284
  145.3472 0.16 2
  145.5830 0.18 2
  145.9448 3.14 31
  146.2712 0.08 1
  146.4272 0.28 3
  146.9479 10.86 109
  147.2371 0.13 1
  147.3758 0.09 1
  147.4858 0.08 1
  147.9470 1.52 15
  148.1383 0.14 1
  148.3634 0.12 1
  148.5541 0.11 1
  148.6949 0.32 3
  148.9620 4.26 43
  149.2261 0.07 1
  149.3600 0.26 3
  149.5653 0.10 1
  149.9016 0.67 7
  150.2272 0.13 1
  150.8732 1.91 19
  151.2782 0.07 1
  151.8753 6.41 64
  152.2498 0.23 2
  152.8995 8.89 89
  153.1124 0.20 2
  153.2160 0.17 2
  153.4170 0.25 2
  153.9077 4.75 47
  154.1138 0.21 2
  154.2930 0.13 1
  154.4690 0.18 2
  154.9318 16.79 168
  155.3540 0.27 3
  155.5522 0.54 5
  155.9506 11.94 119
  156.1905 0.13 1
  156.9475 24.81 248
  157.9453 4.73 47
  158.3085 0.14 1
  158.5425 0.41 4
  158.9747 16.16 161
  159.2158 0.11 1
  159.3749 0.23 2
  159.9767 2.50 25
  160.4371 0.24 2
  160.6040 0.16 2
  160.9958 7.72 77
  161.2739 0.05 0
  161.4099 0.11 1
  161.6027 0.10 1
  161.7178 0.18 2
  161.9923 0.85 8
  162.1872 0.19 2
  162.3112 0.15 1
  162.4991 0.17 2
  162.6339 0.09 1
  162.9795 3.29 33
  163.2207 0.14 1
  163.5114 0.10 1
  163.9320 1.14 11
  164.1943 0.52 5
  164.3014 0.26 3
  164.3850 0.19 2
  164.9187 14.81 148
  165.3157 0.21 2
  165.9468 4.22 42
  166.1949 0.33 3
  166.4400 0.43 4
  166.9494 11.66 117
  167.2608 0.33 3
  167.9567 4.84 48
  168.3387 0.30 3
  168.5053 0.31 3
  168.9762 17.95 179
  169.2260 0.19 2
  169.3261 0.06 1
  169.9609 6.50 65
  170.2368 0.16 2
  170.4196 0.15 1
  170.9812 12.85 128
  171.1951 0.17 2
  171.3367 0.36 4
  171.4351 0.27 3
  171.5278 0.05 0
  171.6593 0.18 2
  171.9927 2.39 24
  172.2258 0.05 0
  172.4031 0.14 1
  172.5428 0.21 2
  172.9909 9.89 99
  173.2865 0.03 0
  173.4537 0.13 1
  173.6387 0.29 3
  173.9930 1.53 15
  174.2518 0.12 1
  174.6030 0.37 4
  175.0046 5.80 58
  175.5361 0.33 3
  175.6329 0.14 1
  175.9526 1.20 12
  176.2781 0.03 0
  176.5055 0.12 1
  176.6093 0.16 2
  177.0057 3.08 31
  177.2415 0.33 3
  177.3754 0.20 2
  177.9199 7.36 74
  178.3000 0.15 1
  178.9303 11.11 111
  179.1619 0.21 2
  179.3234 0.15 1
  179.4804 0.24 2
  179.9413 6.41 64
  180.3488 0.10 1
  180.9371 12.30 123
  181.2105 0.24 2
  181.4285 0.10 1
  181.6336 0.32 3
  181.7442 0.47 5
  181.9737 5.01 50
  182.3221 0.14 1
  182.4302 0.09 1
  182.9579 14.01 140
  183.2298 0.12 1
  183.9561 2.66 27
  184.1865 0.12 1
  184.4624 0.17 2
  184.9779 9.17 92
  185.1893 0.12 1
  185.3591 0.21 2
  185.5231 0.15 1
  185.6474 0.15 1
  185.9953 2.71 27
  186.2824 0.11 1
  186.9761 5.10 51
  187.3563 0.25 2
  187.7175 0.28 3
  187.9824 0.82 8
  188.1935 0.20 2
  188.6678 0.57 6
  188.9373 4.54 45
  189.2930 0.04 0
  189.4869 0.43 4
  189.9217 2.17 22
  190.2352 0.14 1
  190.3938 0.22 2
  190.9452 6.73 67
  191.2684 0.11 1
  191.4079 0.11 1
  191.4954 0.03 0
  191.9306 4.78 48
  192.1628 0.24 2
  192.3049 0.06 1
  192.9462 10.80 108
  193.2499 0.13 1
  193.4874 0.17 2
  193.9553 4.56 46
  194.3344 0.13 1
  194.9494 13.27 133
  195.2457 0.12 1
  195.5066 0.25 2
  195.7173 0.58 6
  195.9808 3.35 33
  196.2882 0.15 1
  196.5480 0.40 4
  196.9741 10.46 105
  197.2636 0.22 2
  197.3752 0.22 2
  197.7234 0.26 3
  197.9950 1.91 19
  198.4556 0.24 2
  198.9725 4.08 41
  199.5206 0.20 2
  199.9622 1.13 11
  200.2057 0.13 1
  200.3878 0.23 2
  200.5202 0.21 2
  200.6281 0.14 1
  200.9911 4.13 41
  201.4130 0.30 3
  201.9203 3.59 36
  202.1453 0.14 1
  202.3218 0.14 1
  202.9464 4.44 44
  203.3234 0.12 1
  203.5168 0.12 1
  203.9626 1.88 19
  204.5158 0.58 6
  204.9521 4.66 47
  205.1657 0.21 2
  205.3411 0.09 1
  205.5347 0.31 3
  205.6584 0.41 4
  205.9654 3.34 33
  206.2685 0.07 1
  206.9338 7.48 75
  207.5410 0.25 2
  207.9532 3.56 36
  208.2436 0.28 3
  208.4102 0.29 3
  208.9828 9.71 97
  209.3370 0.18 2
  209.5244 0.15 1
  209.6477 0.16 2
  210.0078 2.48 25
  210.2167 0.14 1
  210.4951 0.18 2
  210.6139 0.16 2
  210.7677 0.46 5
  211.0052 4.75 47
  211.3143 0.14 1
  211.5051 0.15 1
  211.6350 0.05 0
  212.0006 0.93 9
  212.2143 0.14 1
  212.4604 0.17 2
  212.5936 0.25 2
  212.7378 0.28 3
  213.0055 2.77 28
  213.3070 0.01 0
  213.7014 0.11 1
  213.9348 0.42 4
  214.0934 0.37 4
  214.2838 0.03 0
  214.5907 0.58 6
  214.9646 4.10 41
  215.3320 0.05 0
  215.6123 0.26 3
  215.9759 1.97 20
  216.2609 0.17 2
  216.4138 0.13 1
  216.9806 4.10 41
  217.1876 0.23 2
  217.4584 0.03 0
  217.6758 0.32 3
  217.9694 1.81 18
  218.2442 0.15 1
  218.4246 0.14 1
  218.9912 4.10 41
  219.1906 0.28 3
  219.3345 0.15 1
  219.5801 0.22 2
  219.9809 1.69 17
  220.2292 0.09 1
  220.3778 0.13 1
  220.5674 0.21 2
  221.0126 6.43 64
  221.2434 0.22 2
  221.4540 0.20 2
  221.5773 0.16 2
  221.6692 0.08 1
  222.0194 1.63 16
  222.3442 0.17 2
  222.5712 0.18 2
  223.0292 5.34 53
  223.2485 0.13 1
  223.4109 0.27 3
  223.6752 0.26 3
  223.8462 0.35 3
  224.0303 0.57 6
  224.4422 0.02 0
  224.5976 0.45 4
  225.0363 3.21 32
  225.2525 0.13 1
  225.9533 1.18 12
  226.2734 0.12 1
  226.4302 0.06 1
  226.5859 0.26 3
  226.7305 0.17 2
  227.0471 1.46 15
  227.5470 0.05 0
  227.9556 0.90 9
  228.2144 0.24 2
  228.3330 0.08 1
  228.5247 0.05 0
  228.7320 0.23 2
  228.9948 3.38 34
  229.3039 0.05 0
  229.4310 0.07 1
  229.6091 0.21 2
  229.9868 1.24 12
  230.4669 0.34 3
  231.0065 3.04 30
  231.2584 0.08 1
  231.4124 0.03 0
  231.5736 0.35 3
  231.6800 0.13 1
  231.9979 1.59 16
  232.2120 0.23 2
  232.4151 0.06 1
  232.7135 0.32 3
  233.0158 3.77 38
  233.3391 0.13 1
  233.5598 0.11 1
  234.0386 1.30 13
  234.2281 0.13 1
  234.5417 0.12 1
  235.0181 3.03 30
  235.2435 0.12 1
  235.5742 0.02 0
  235.7089 0.27 3
  236.0266 0.91 9
  236.1717 0.45 4
  236.3862 0.07 1
  236.7255 0.28 3
  237.0355 3.35 33
  237.2768 0.17 2
  237.4443 0.03 0
  237.6640 0.12 1
  237.7864 0.12 1
  238.0526 0.91 9
  238.2443 0.13 1
  238.3882 0.14 1
  238.6231 0.30 3
  239.0256 2.87 29
  239.3070 0.06 1
  239.5145 0.17 2
  239.6467 0.09 1
  240.0434 0.67 7
  240.2987 0.13 1
  240.3995 0.20 2
  240.5835 0.14 1
  241.0065 1.15 11
  241.1755 0.50 5
  241.4663 0.01 0
  241.6281 0.14 1
  241.9844 0.84 8
  242.2537 0.05 0
  242.5079 0.09 1
  242.6599 0.32 3
  243.0059 2.21 22
  243.4954 0.20 2
  243.6711 0.32 3
  244.0021 1.76 18
  244.3345 0.11 1
  244.4387 0.07 1
  244.6597 0.31 3
  245.0085 2.39 24
  245.3620 0.22 2
  245.6177 0.22 2
  246.0185 1.30 13
  246.2796 0.10 1
  246.4744 0.18 2
  246.5978 0.29 3
  247.0092 3.22 32
  247.3701 0.08 1
  247.5630 0.09 1
  247.6720 0.27 3
  248.0133 1.06 11
  248.4458 0.10 1
  249.0472 2.26 23
  249.3355 0.21 2
  249.6303 0.22 2
  250.0290 0.78 8
  250.2346 0.11 1
  250.3640 0.03 0
  250.5295 0.12 1
  250.7995 0.15 1
  251.0669 2.06 21
  251.3369 0.07 1
  251.4677 0.22 2
  251.6405 0.06 1
  251.7962 0.05 0
  252.0426 1.26 13
  252.3686 0.19 2
  252.4987 0.19 2
  252.6400 0.11 1
  253.0331 2.17 22
  253.3690 0.15 1
  254.0219 0.60 6
  254.9952 1.71 17
  255.1136 0.67 7
  255.3642 0.13 1
  255.5004 0.10 1
  255.6760 0.06 1
  255.8089 0.13 1
  256.0102 1.25 12
  256.1912 0.14 1
  256.3603 0.02 0
  256.4866 0.07 1
  256.5754 0.12 1
  256.7682 0.28 3
  257.0197 1.87 19
  257.2533 0.17 2
  257.4922 0.15 1
  257.9997 1.19 12
  258.2315 0.14 1
  259.0302 2.60 26
  259.2574 0.10 1
  259.3522 0.11 1
  259.5221 0.11 1
  259.9970 0.89 9
  260.3297 0.08 1
  260.5497 0.06 1
  260.7302 0.10 1
  261.0320 2.28 23
  261.5426 0.05 0
  261.7094 0.10 1
  261.9908 0.62 6
  262.3229 0.23 2
  262.4680 0.06 1
  262.6090 0.13 1
  263.0329 2.00 20
  263.5195 0.10 1
  263.7417 0.13 1
  263.8201 0.06 1
  264.1222 0.71 7
  264.3451 0.23 2
  264.4374 0.21 2
  264.6696 0.24 2
  265.0633 1.39 14
  265.4987 0.15 1
  265.9751 0.59 6
  266.3776 0.19 2
  266.5353 0.21 2
  267.0824 2.24 22
  267.3206 0.13 1
  267.4645 0.06 1
  267.6381 0.13 1
  268.0527 0.59 6
  268.3148 0.13 1
  268.5630 0.40 4
  269.0589 1.60 16
  269.5449 0.04 0
  269.6984 0.03 0
  269.8466 0.22 2
  270.0358 0.70 7
  270.1939 0.09 1
  270.4002 0.08 1
  270.5392 0.10 1
  270.6612 0.07 1
  270.7673 0.14 1
  271.0421 1.23 12
  271.2887 0.04 0
  271.4357 0.14 1
  271.5932 0.06 1
  271.7587 0.02 0
  272.0316 0.45 4
  272.2209 0.11 1
  273.0445 1.35 13
  273.4646 0.10 1
  273.6420 0.12 1
  273.8096 0.07 1
  274.0747 0.83 8
  274.3281 0.05 0
  274.4561 0.01 0
  274.5933 0.05 0
  274.8308 0.36 4
  275.0710 1.09 11
  275.4583 0.10 1
  275.6411 0.08 1
  276.0608 0.51 5
  276.4760 0.08 1
  276.7281 0.13 1
  277.0430 0.74 7
  277.4576 0.11 1
  277.7204 0.05 0
  278.0089 0.56 6
  278.2823 0.11 1
  278.4348 0.09 1
  278.5808 0.16 2
  279.0405 1.40 14
  279.2749 0.15 1
  279.5497 0.18 2
  280.0108 0.48 5
  280.1833 0.23 2
  280.3702 0.11 1
  280.5658 0.01 0
  280.7052 0.04 0
  281.0528 1.51 15
  281.1783 0.83 8
  281.5398 0.12 1
  281.7414 0.13 1
  282.0871 0.95 9
  282.3026 0.15 1
  282.6502 0.10 1
  282.7864 0.14 1
  283.0628 0.95 9
  283.2168 0.37 4
  283.4502 0.13 1
  283.7722 0.20 2
  283.9428 0.27 3
  284.0923 0.40 4
  284.3482 0.05 0
  284.4831 0.11 1
  285.0770 0.97 10
  285.3456 0.13 1
  285.7639 0.11 1
  286.0441 0.35 3
  286.1696 0.38 4
  286.5397 0.09 1
  287.0611 0.84 8
  287.4141 0.08 1
  287.7690 0.14 1
  287.9905 0.36 4
  288.1333 0.06 1
  288.5504 0.10 1
  288.7448 0.17 2
  289.0549 0.96 10
  289.4497 0.19 2
  289.5476 0.12 1
  289.9417 0.26 3
  290.1382 0.10 1
  290.2400 0.05 0
  290.6634 0.11 1
  291.0345 1.08 11
  291.3123 0.10 1
  291.6087 0.05 0
  292.0321 0.33 3
  292.5695 0.09 1
  293.0096 0.71 7
  293.2451 0.18 2
  293.4927 0.07 1
  294.0779 0.49 5
  294.2076 0.16 2
  294.8041 0.09 1
  295.0643 0.90 9
  295.2980 0.11 1
  295.8066 0.27 3
  296.0781 0.56 6
  296.2218 0.07 1
  296.4437 0.13 1
  296.6304 0.23 2
  297.0093 0.54 5
  297.1756 0.25 2
  297.3803 0.12 1
  297.5578 0.11 1
  297.8645 0.23 2
  298.0924 0.26 3
  298.5417 0.13 1
  299.0512 0.65 6
  299.6636 0.13 1
  300.0818 0.29 3
  300.2117 0.17 2
  300.4000 0.17 2
  300.8315 0.17 2
  301.0834 0.85 8
  301.4182 0.10 1
  301.5256 0.09 1
  302.0123 0.30 3
  302.1410 0.22 2
  302.5959 0.18 2
  302.7345 0.24 2
  303.0568 1.25 12
  303.3280 0.03 0
  303.5754 0.11 1
  303.8229 0.13 1
  304.0026 0.25 2
  304.1705 0.16 2
  304.5944 0.08 1
  304.6800 0.08 1
  304.8140 0.16 2
  305.0289 0.39 4
  305.1523 0.35 3
  305.5246 0.11 1
  305.7754 0.06 1
  306.1112 0.32 3
  306.2638 0.07 1
  306.4981 0.24 2
  306.6985 0.15 1
  307.0729 0.37 4
  307.6026 0.11 1
  308.0547 0.33 3
  308.2120 0.12 1
  308.8833 0.09 1
  309.0400 0.39 4
  309.2538 0.13 1
  309.6044 0.12 1
  309.8993 0.13 1
  310.0275 0.23 2
  310.1191 0.18 2
  310.7474 0.19 2
  311.0078 0.59 6
  311.4648 0.11 1
  311.6901 0.07 1
  311.9651 0.22 2
  312.0661 0.06 1
  312.1598 0.10 1
  312.3425 0.08 1
  312.4947 0.11 1
  312.7704 0.33 3
  313.0628 0.51 5
  313.6602 0.06 1
  313.9228 0.16 2
  314.1029 0.33 3
  314.1939 0.16 2
  314.5429 0.05 0
  314.6486 0.10 1
  315.0195 0.62 6
  315.2249 0.20 2
  315.4004 0.06 1
  315.5321 0.09 1
  316.0128 0.18 2
  316.1730 0.10 1
  316.5640 0.11 1
  316.6857 0.10 1
  317.0388 0.74 7
  317.2250 0.12 1
  317.4052 0.11 1
  317.7364 0.11 1
  317.9579 0.48 5
  318.0590 0.27 3
  318.1681 0.22 2
  318.6783 0.12 1
  318.8253 0.14 1
  319.0721 0.61 6
  319.5837 0.09 1
  319.9463 0.31 3
  320.0761 0.18 2
  320.1672 0.13 1
  320.5505 0.08 1
  320.8094 0.14 1
  321.1168 0.80 8
  321.5128 0.05 0
  321.7351 0.15 1
  322.0327 0.49 5
  322.2416 0.08 1
  322.3715 0.11 1
  322.6244 0.05 0
  322.8275 0.08 1
  323.0178 0.24 2
  323.1736 0.22 2
  323.6923 0.08 1
  323.8834 0.11 1
  324.0358 0.10 1
  324.1530 0.15 1
  324.7776 0.11 1
  324.9142 0.09 1
  325.1206 0.24 2
  326.0883 0.30 3
  326.5646 0.09 1
  327.1102 0.45 4
  327.3034 0.13 1
  327.7278 0.04 0
  327.9510 0.12 1
  328.0796 0.08 1
  328.4591 0.05 0
  328.7440 0.07 1
  328.9944 0.44 4
  329.1768 0.50 5
  329.3499 0.07 1
  329.7442 0.31 3
  329.9026 0.13 1
  330.0645 0.24 2
  330.6632 0.02 0
  331.0615 0.72 7
  331.1900 0.28 3
  331.2840 0.12 1
  331.5024 0.11 1
  331.6949 0.13 1
  332.1320 0.49 5
  332.2905 0.07 1
  332.5037 0.12 1
  333.1560 1.10 11
  333.3059 0.17 2
  333.6224 0.21 2
  333.8616 0.06 1
  334.1435 0.26 3
  334.5613 0.11 1
  334.6653 0.12 1
  335.0619 0.79 8
  335.3784 0.12 1
  336.0790 0.34 3
  336.2510 0.09 1
  336.9150 0.23 2
  337.0677 0.41 4
  337.2430 0.16 2
  337.9451 0.11 1
  338.1292 0.38 4
  338.6947 0.19 2
  338.8841 0.24 2
  339.0261 0.10 1
  339.1362 0.19 2
  339.3996 0.12 1
  340.0806 0.22 2
  340.4148 0.11 1
  341.0606 0.34 3
  341.4542 0.09 1
  341.8525 0.09 1
  341.9873 0.29 3
  342.1474 0.08 1
  343.1210 0.35 3
  343.3306 0.24 2
  344.0660 0.35 3
  344.2068 0.23 2
  344.3083 0.13 1
  344.4825 0.02 0
  344.6674 0.02 0
  345.1153 0.47 5
  345.3951 0.09 1
  345.5553 0.12 1
  345.8009 0.04 0
  345.9298 0.14 1
  346.0700 1.00 10
  346.2089 0.71 7
  346.5587 0.10 1
  346.8452 0.11 1
  347.1470 0.83 8
  347.3266 0.13 1
  347.5089 0.08 1
  347.6011 0.11 1
  348.0144 0.51 5
  348.2141 0.35 3
  348.8713 0.16 2
  349.1472 0.55 5
  349.2915 0.17 2
  349.6969 0.08 1
  350.1659 0.14 1
  350.7638 0.10 1
  351.1794 0.21 2
  352.0674 0.11 1
  352.1937 0.14 1
  352.6488 0.12 1
  352.8179 0.12 1
  353.0264 0.31 3
  353.1915 0.12 1
  353.3732 0.12 1
  354.0811 0.34 3
  354.3645 0.01 0
  354.8065 0.10 1
  355.1214 0.26 3
  356.0309 0.12 1
  356.1687 0.29 3
  356.9099 0.17 2
  357.2009 0.41 4
  357.4200 0.18 2
  357.5804 0.11 1
  358.1665 0.39 4
  359.1190 0.67 7
  359.3295 0.14 1
  359.7852 0.07 1
  359.9304 0.24 2
  360.0544 0.43 4
  360.2049 0.38 4
  360.5054 0.07 1
  360.8911 0.10 1
  361.1557 0.77 8
  361.7014 0.10 1
  361.7854 0.11 1
  362.0706 0.56 6
  362.2598 0.31 3
  363.1189 0.17 2
  363.3181 0.14 1
  363.9667 0.11 1
  364.1847 0.16 2
  364.8680 0.08 1
  365.0679 0.21 2
  365.1706 0.11 1
  365.5746 0.13 1
  365.9106 0.27 3
  366.1047 0.37 4
  366.2340 0.06 1
  367.1649 0.40 4
  367.3222 0.18 2
  367.4916 0.04 0
  367.6850 0.11 1
  368.1765 0.39 4
  368.3372 0.08 1
  368.7348 0.05 0
  369.0952 0.36 4
  369.3943 0.09 1
  370.1072 0.20 2
  370.4904 0.08 1
  370.8876 0.43 4
  371.1487 0.43 4
  371.6808 0.15 1
  372.0514 0.25 2
  372.2357 0.21 2
  372.9228 0.22 2
  373.1345 0.40 4
  373.3148 0.18 2
  373.9640 0.21 2
  374.1617 0.20 2
  374.3320 0.13 1
  375.0480 0.34 3
  375.1750 0.26 3
  375.2564 0.10 1
  375.8897 0.08 1
  376.0340 0.08 1
  376.2037 0.35 3
  376.4596 0.12 1
  377.1230 0.37 4
  377.3054 0.17 2
  378.0404 0.21 2
  378.2135 0.11 1
  378.6064 0.12 1
  378.8457 0.12 1
  378.9687 0.19 2
  379.0990 0.23 2
  379.2794 0.12 1
  380.0828 0.25 2
  380.9196 0.05 0
  381.1977 0.48 5
  381.4531 0.19 2
  382.0487 0.22 2
  382.2573 0.26 3
  382.7433 0.11 1
  382.9426 0.14 1
  383.2014 0.36 4
  383.6380 0.11 1
  383.9322 0.09 1
  384.0800 0.20 2
  384.2418 0.11 1
  384.6511 0.11 1
  385.0624 0.38 4
  385.1547 0.13 1
  385.2764 0.28 3
  386.1318 0.38 4
  386.2749 0.17 2
  386.7626 0.12 1
  387.1358 0.34 3
  388.1667 0.45 4
  388.3668 0.14 1
  388.9308 0.12 1
  389.1034 0.18 2
  389.2399 0.11 1
  389.5176 0.11 1
  389.6460 0.12 1
  389.7939 0.13 1
  390.0562 0.05 0
  390.2751 0.18 2
  390.3506 0.15 1
  390.4691 0.16 2
  391.1678 0.14 1
  391.2595 0.10 1
  391.9348 0.04 0
  392.4093 0.17 2
  392.8812 0.01 0
  393.1201 0.14 1
  393.4047 0.09 1
  394.1122 0.21 2
  394.3338 0.28 3
  395.0562 0.14 1
  395.2036 0.17 2
  396.0177 0.08 1
  396.1490 0.11 1
  396.2555 0.14 1
  396.6874 0.11 1
  396.7979 0.11 1
  397.2271 0.13 1
  397.8004 0.05 0
  398.0315 0.19 2
  398.1922 0.26 3
  398.4132 0.13 1
  398.7843 0.04 0
  399.0850 0.25 2
  399.2692 0.26 3
  399.4796 0.14 1
  399.5834 0.08 1
  399.7133 0.06 1
  399.9598 0.12 1
  400.1158 0.39 4
  400.2481 0.43 4
  400.3551 0.23 2
  400.5958 0.11 1
  400.6780 0.12 1
  400.8091 0.08 1
  400.9990 0.13 1
  401.2276 0.27 3
  401.3921 0.08 1
  401.5011 0.08 1
  402.0882 0.16 2
  402.3129 0.10 1
  402.7656 0.14 1
  403.0725 0.31 3
  403.2357 0.26 3
  403.6711 0.04 0
  404.1285 0.38 4
  404.2837 0.21 2
  404.3753 0.08 1
  404.8824 0.01 0
  405.1552 0.15 1
  405.4141 0.01 0
  405.5659 0.03 0
  405.7044 0.01 0
  405.8790 0.03 0
  406.1500 0.05 0
  406.2416 0.06 1
  406.4015 0.01 0
  406.9581 0.29 3
  407.2003 0.18 2
  407.5836 0.10 1
  407.8392 0.04 0
  408.0754 0.16 2
  408.3324 0.14 1
  409.1601 0.38 4
  409.5194 0.15 1
  409.6620 0.10 1
  410.1364 0.28 3
  410.2603 0.12 1
  410.4289 0.10 1
  410.7964 0.14 1
  410.9911 0.14 1
  411.1598 0.16 2
  411.2562 0.17 2
  411.7220 0.12 1
  412.0239 0.33 3
  412.2521 0.39 4
  412.5567 0.16 2
  412.6872 0.11 1
  412.8600 0.10 1
  413.1485 0.47 5
  413.3540 0.20 2
  413.5173 0.13 1
  413.8661 0.09 1
  414.0783 0.16 2
  414.2196 0.49 5
  414.3629 0.11 1
  415.1496 0.23 2
  415.3813 0.15 1
  415.9411 0.12 1
  416.0857 0.14 1
  416.2471 0.26 3
  416.3509 0.13 1
  416.4547 0.14 1
  416.7449 0.07 1
  417.0886 0.08 1
  418.0141 0.04 0
  418.1960 0.18 2
  418.4501 0.20 2
  418.8414 0.11 1
  418.9731 0.11 1
  419.1510 0.23 2
  419.5015 0.03 0
  419.6105 0.02 0
  419.7944 0.14 1
  419.8734 0.05 0
  420.0111 0.06 1
  420.1830 0.22 2
  420.5737 0.05 0
  420.7650 0.14 1
  421.0179 0.05 0
  421.1904 0.09 1
  421.3711 0.16 2
  421.7765 0.11 1
  422.1611 0.13 1
  422.5759 0.08 1
  422.7733 0.14 1
  423.0857 0.30 3
  423.3005 0.12 1
  423.4591 0.19 2
  423.8471 0.19 2
  423.9736 0.10 1
  424.1422 0.43 4
  424.3791 0.22 2
  424.5638 0.14 1
  424.7378 0.14 1
  425.0128 0.15 1
  425.1788 0.30 3
  425.3046 0.07 1
  425.4940 0.12 1
  425.6974 0.13 1
  425.8486 0.11 1
  426.0039 0.10 1
  426.1297 0.22 2
  426.3780 0.23 2
  426.5012 0.13 1
  426.6558 0.08 1
  426.8499 0.08 1
  427.0226 0.23 2
  427.1631 0.15 1
  427.2581 0.06 1
  427.5145 0.07 1
  428.2166 0.34 3
  428.3893 0.11 1
  428.5801 0.02 0
  428.7167 0.15 1
  429.0246 0.27 3
  429.1652 0.24 2
  429.2803 0.19 2
  429.4778 0.20 2
  429.6311 0.18 2
  429.7228 0.14 1
  430.1399 0.22 2
  430.2852 0.21 2
  430.3896 0.12 1
  430.6146 0.16 2
  430.7338 0.12 1
  430.8483 0.10 1
  430.9460 0.11 1
  431.0866 0.16 2
  431.1871 0.11 1
  431.3109 0.12 1
  431.6759 0.13 1
  431.7589 0.06 1
  431.8774 0.12 1
  432.0843 0.11 1
  432.2397 0.12 1
  432.3696 0.07 1
  432.7988 0.12 1
  433.2046 0.15 1
  433.3252 0.11 1
  433.5234 0.11 1
  433.8321 0.12 1
  434.3016 0.10 1
  434.9104 0.07 1
  435.1167 0.13 1
  435.1984 0.11 1
  436.3706 0.07 1
  436.7946 0.22 2
  436.9293 0.17 2
  437.0720 0.14 1
  437.5449 0.11 1
  437.7573 0.16 2
  437.9583 0.16 2
  438.2752 0.36 4
  438.7462 0.08 1
  439.2460 0.19 2
  439.4879 0.09 1
  439.6319 0.09 1
  440.1432 0.23 2
  440.3402 0.04 0
  440.6364 0.01 0
  440.8106 0.01 0
  441.0746 0.26 3
  441.3038 0.11 1
  441.4432 0.11 1
  441.6402 0.13 1
  441.7662 0.11 1
  441.9217 0.12 1
  442.1596 0.13 1
  442.3479 0.20 2
  442.9142 0.12 1
  443.2119 0.17 2
  443.4156 0.13 1
  443.7018 0.14 1
  443.9257 0.04 0
  444.2039 0.26 3
  444.3721 0.09 1
  444.5048 0.12 1
  444.7502 0.19 2
  445.1410 0.24 2
  445.3387 0.13 1
  445.4259 0.10 1
  446.2189 0.65 6
  446.3738 0.23 2
  446.7412 0.11 1
  447.0389 0.04 0
  447.3345 0.17 2
  447.6557 0.14 1
  447.7677 0.11 1
  447.9554 0.06 1
  448.1009 0.19 2
  448.5877 0.03 0
  448.8224 0.12 1
  448.9558 0.10 1
  449.1107 0.25 2
  449.3944 0.21 2
  450.0134 0.10 1
  450.1924 0.15 1
  450.3587 0.13 1
  450.4835 0.13 1
  450.8414 0.11 1
  450.9478 0.06 1
  451.0930 0.13 1
  451.2462 0.12 1
  452.2229 0.55 5
  452.4630 0.17 2
  452.7220 0.05 0
  453.0170 0.15 1
  453.1602 0.13 1
  453.2987 0.13 1
  453.5630 0.16 2
  453.9831 0.14 1
  454.1564 0.15 1
  454.3284 0.19 2
  454.5954 0.11 1
  455.0531 0.14 1
  455.1648 0.12 1
  455.3067 0.10 1
  455.5917 0.07 1
  455.9691 0.15 1
  456.2342 0.45 4
  456.5614 0.10 1
  456.7401 0.14 1
  457.1323 0.12 1
  457.4361 0.17 2
  457.6028 0.13 1
  457.7487 0.16 2
  458.0063 0.08 1
  458.1817 0.12 1
  458.3859 0.21 2
  458.6128 0.26 3
  458.7714 0.23 2
  459.0793 0.39 4
  459.2794 0.69 7
  459.4053 0.38 4
  460.2420 21.73 217
  460.6731 0.35 3
  460.7950 0.25 2
  461.2281 0.37 4
  461.4725 0.30 3
  461.6104 0.08 1
  461.7905 0.14 1
  462.0978 0.11 1
  462.2832 0.12 1
  462.3917 0.11 1
  462.5149 0.12 1
  462.8959 0.13 1
  463.0418 0.07 1
  463.3016 0.09 1
  463.8319 0.11 1
  464.0629 0.04 0
  464.2859 0.24 2
  464.7942 0.29 3
  465.3319 0.14 1
  465.6922 0.03 0
  466.0692 0.12 1
  466.1992 0.21 2
  466.4161 0.17 2
  466.9513 0.06 1
  467.2533 0.15 1
  468.0222 0.09 1
  468.1656 0.26 3
  468.3223 0.15 1
  468.4576 0.12 1
  469.1549 0.21 2
  470.0954 0.09 1
  470.2180 0.10 1
  470.3534 0.18 2
  470.4445 0.11 1
  470.8250 0.13 1
  471.1733 0.30 3
  471.3529 0.16 2
  471.9043 0.15 1
  472.1937 0.52 5
  472.3880 0.36 4
  472.5823 0.09 1
  473.1592 0.71 7
  473.3435 0.79 8
  473.5445 0.12 1
  474.5483 0.13 1
  475.0931 0.11 1
  476.0917 0.17 2
  476.3866 0.10 1
  476.6406 0.04 0
  477.4261 0.11 1
  478.0988 0.12 1
  478.9857 0.10 1
  479.2316 0.10 1
  479.4004 0.15 1
  479.9926 0.17 2
  480.2833 0.27 3
  480.4816 0.28 3
  480.7054 0.17 2
  480.8481 0.11 1
  481.0330 0.23 2
  481.1924 0.26 3
  481.2902 0.12 1
  481.6379 0.06 1
  481.9689 0.09 1
  482.1431 0.26 3
  482.2309 0.07 1
  482.8533 0.03 0
  483.1307 0.13 1
  483.2989 0.09 1
  483.4142 0.12 1
  483.7231 0.06 1
  484.1452 0.18 2
  484.2786 0.14 1
  484.4005 0.12 1
  485.3930 0.08 1
  487.3245 0.12 1
  487.8942 0.04 0
  489.1898 0.11 1
  490.1974 0.14 1
  490.4360 0.11 1
  491.0977 0.10 1
  491.2827 0.13 1
  492.1703 0.13 1
  492.2910 0.02 0
  492.4097 0.11 1
  493.1794 0.13 1
  493.3249 0.14 1
  493.4489 0.12 1
  494.0725 0.10 1
  494.2381 0.25 2
  494.3910 0.07 1
  494.4956 0.08 1
  494.8322 0.17 2
  495.1025 0.18 2
  495.2601 0.48 5
  495.3761 0.16 2
  495.8958 0.05 0
  496.1151 0.24 2
  496.2224 0.11 1
  496.4866 0.13 1
  497.2136 0.10 1
  497.3510 0.14 1
  497.4919 0.14 1
  498.2491 0.19 2
  499.4819 0.16 2
  500.6866 0.14 1
  501.2595 0.14 1
  502.3899 0.10 1
  502.9601 0.12 1
  503.6096 0.06 1
  504.0523 0.12 1
  504.3087 0.12 1
  504.3984 0.14 1
  504.6092 0.12 1
  505.2163 0.11 1
  505.7023 0.14 1
  506.1187 0.20 2
  506.2606 0.22 2
  506.3577 0.13 1
  507.0519 0.30 3
  507.3096 0.37 4
  507.6383 0.14 1
  508.0681 0.36 4
  508.2074 0.29 3
  508.3399 0.19 2
  508.5482 0.13 1
  508.7684 0.16 2
  508.9271 0.01 0
  509.1541 0.13 1
  509.4393 0.20 2
  509.6529 0.24 2
  509.7600 0.08 1
  510.3091 0.20 2
  510.7316 0.10 1
  511.4742 0.31 3
  512.1954 0.11 1
  512.4988 0.16 2
  512.8999 0.10 1
  513.2669 0.24 2
  513.5964 0.24 2
  513.7370 0.11 1
  514.1542 0.14 1
  514.2989 0.13 1
  514.5153 0.01 0
  514.7014 0.06 1
  515.2158 0.14 1
  515.4877 0.09 1
  515.6539 0.10 1
  515.8300 0.16 2
  516.0470 0.13 1
  516.2024 0.12 1
  516.2989 0.08 1
  516.7831 0.07 1
  517.0665 0.14 1
  517.3210 0.16 2
  517.5039 0.01 0
  517.8998 0.07 1
  517.9963 0.09 1
  518.1630 0.12 1
  518.3138 0.44 4
  518.4813 0.12 1
  518.6808 0.25 2
  518.7546 0.14 1
  518.9073 0.11 1
  519.0607 0.55 5
  519.2316 0.36 4
  519.4279 0.14 1
  519.5792 0.06 1
  519.7421 0.13 1
  519.8921 0.14 1
  520.1011 0.38 4
  520.3771 0.15 1
  520.6572 0.01 0
  520.8448 0.23 2
  521.0397 0.17 2
  521.2535 0.44 4
  521.3701 0.28 3
  521.5523 0.09 1
  521.7801 0.13 1
  522.0930 0.42 4
  522.3745 0.60 6
  522.5648 0.09 1
  523.1235 0.24 2
  523.4050 0.29 3
  523.6027 0.07 1
  523.8238 0.20 2
  524.1756 0.26 3
  524.4014 0.31 3
  524.5576 0.12 1
  524.7620 0.29 3
  525.1003 0.13 1
  525.2820 0.17 2
  525.4039 0.31 3
  525.6693 0.31 3
  525.8858 0.34 3
  525.9682 0.16 2
  526.2108 0.22 2
  526.6203 0.42 4
  526.9119 0.32 3
  527.1678 0.13 1
  527.3542 0.08 1
  527.4963 0.35 3
  527.6216 0.19 2
  527.7704 0.28 3
  527.9822 0.14 1
  528.1993 0.44 4
  528.3387 0.24 2
  528.4601 0.25 2
  528.7121 0.29 3
  528.9869 0.54 5
  529.1531 0.38 4
  529.5982 0.57 6
  529.9421 0.68 7
  530.2827 0.43 4
  530.3584 0.23 2
  530.6533 0.59 6
  531.0850 0.41 4
  531.3129 0.58 6
  531.6274 1.30 13
  531.9169 0.95 9
  532.2729 0.77 8
  532.7087 0.82 8
  533.1069 1.34 13
  534.0502 4.08 41
  534.3633 2.50 25
  534.5270 0.96 10
  534.8394 1.18 12
  535.2021 1.73 17
  535.4448 1.09 11
  536.2112 2.50 25
  537.1293 7.35 73
  537.6040 0.81 8
  538.2485 0.79 8
  538.6481 0.34 3
  538.8393 0.67 7
  538.9875 0.42 4
  539.3476 0.46 5
  539.8312 0.44 4
  540.0250 0.34 3
  540.3683 0.86 9
  540.7661 0.73 7
  540.9062 0.65 6
  541.1899 0.63 6
  541.4864 0.60 6
  541.6735 0.49 5
  542.0948 0.86 9
  542.4382 0.77 8
  542.6796 0.70 7
  543.2673 0.86 9
  543.7965 0.79 8
  544.3130 1.17 12
  544.8101 1.30 13
  545.4856 1.22 12
  546.2705 1.27 13
  552.3120 99.97 999
  552.9425 37.74 377
  553.8663 17.48 175
  554.6682 7.99 80
  555.6041 4.76 48
  556.1684 2.74 27
  556.8713 1.64 16
  557.1358 1.74 17
  557.4431 1.29 13
  557.7169 1.08 11
  557.9974 0.76 8
  558.2827 0.74 7
  558.4728 0.71 7
  558.6201 0.36 4
  559.0352 0.43 4
  559.4430 0.48 5
  559.8815 0.25 2
  560.3556 0.27 3
  560.6536 0.19 2
  561.0185 0.03 0
  561.2642 0.08 1
  561.5254 0.04 0
  561.8616 0.17 2
  561.9526 0.11 1
  562.2774 0.02 0
//
