ACCESSION: MSBNK-Kyoto_Univ-CA000161
RECORD_TITLE: Tetrahydrospirilloxanthin; FAB-EBEB; MS2; m/z: 600.49; [M]*+
DATE: 2016.01.19 (Created 2007.03.15, modified 2011.05.10)
AUTHORS: Akimoto N, Graduate School of Pharmaceutical Sciences, Kyoto University and Maoka T, Research Institute for Production Development
LICENSE: CC BY-SA
COMMENT: Profile spectrum of this record is given as a JPEG file.
COMMENT: [Profile] CA000161.jpg
CH$NAME: Tetrahydrospirilloxanthin
CH$COMPOUND_CLASS: Natural Product; Carotenoid
CH$FORMULA: C42H64O2
CH$EXACT_MASS: 600.49063
CH$SMILES: C(CCCC(C)(C)OC)(=CC=CC(C)=CC=CC(C)=CC=CC=C(C)C=CC=C(C)C=CC=C(CCCC(C)(C)OC)C)C
CH$IUPAC: InChI=1S/C42H64O2/c1-35(23-15-25-37(3)27-17-29-39(5)31-19-33-41(7,8)43-11)21-13-14-22-36(2)24-16-26-38(4)28-18-30-40(6)32-20-34-42(9,10)44-12/h13-18,21-30H,19-20,31-34H2,1-12H3/b14-13+,23-15+,24-16+,27-17+,28-18+,35-21+,36-22+,37-25+,38-26+,39-29+,40-30+
CH$LINK: CHEMSPIDER 4518271
CH$LINK: PUBCHEM CID:5366411
CH$LINK: INCHIKEY LCTIOHZQWXQPIB-VYCPWLLESA-N
AC$INSTRUMENT: JMS-HX/HX 110A, JEOL
AC$INSTRUMENT_TYPE: FAB-EBEB
AC$MASS_SPECTROMETRY: MS_TYPE MS2
AC$MASS_SPECTROMETRY: ION_MODE POSITIVE
AC$MASS_SPECTROMETRY: ATOM_GUN_CURRENT 5 mA
AC$MASS_SPECTROMETRY: BOMBARDMENT 6 kV xenon
AC$MASS_SPECTROMETRY: COLLISION_ENERGY 3 kV
AC$MASS_SPECTROMETRY: COLLISION_GAS Ar
AC$MASS_SPECTROMETRY: GAS_PRESSURE adjust to attenuate the intensity of the precursor ion by 30 %
AC$MASS_SPECTROMETRY: IONIZATION FAB
AC$MASS_SPECTROMETRY: MATRIX 1-2 uL m-NBA
AC$MASS_SPECTROMETRY: PROBE_TIP stainless-steel
MS$FOCUSED_ION: BASE_PEAK 600.4233
MS$FOCUSED_ION: PRECURSOR_M/Z 600.49
MS$FOCUSED_ION: PRECURSOR_TYPE [M]+*
PK$SPLASH: splash10-0udl-3920011000-ce0a5e5c0582220dbcf3
PK$NUM_PEAK: 1895
PK$PEAK: m/z int. rel.int.
  11.9619 0.01 0
  12.9707 0.01 0
  13.9716 0.06 1
  14.9815 0.28 3
  22.9310 0.06 1
  24.9257 0.04 0
  25.9609 0.21 2
  26.9623 1.31 13
  27.9728 0.14 1
  28.9749 1.27 13
  30.9552 0.07 1
  32.9762 0.12 1
  35.2533 0.02 0
  35.9550 0.02 0
  36.9459 0.20 2
  37.9488 0.34 3
  38.9592 3.17 32
  39.3808 0.01 0
  39.6716 0.01 0
  39.9666 0.44 4
  40.9753 7.00 70
  41.9768 0.54 5
  42.9722 4.55 45
  43.4651 0.01 0
  43.9583 0.02 0
  44.9683 1.42 14
  45.5245 0.01 0
  48.9321 0.12 1
  49.0618 0.02 0
  49.2949 0.01 0
  49.5760 0.01 0
  49.9502 0.90 9
  50.9534 2.36 24
  51.1334 0.01 0
  51.3482 0.01 0
  51.9620 0.66 7
  52.9684 3.79 38
  53.9815 0.23 2
  54.9824 14.36 143
  55.2001 0.02 0
  55.5836 0.01 0
  55.9961 0.49 5
  56.2771 0.01 0
  56.9840 1.17 12
  57.9789 0.15 1
  58.9803 1.20 12
  59.8080 0.01 0
  60.9422 0.16 2
  61.9500 0.80 8
  62.1614 0.03 0
  62.5242 0.02 0
  62.6857 0.03 0
  62.9527 2.09 21
  63.2038 0.01 0
  63.3095 0.01 0
  63.4310 0.02 0
  63.5559 0.02 0
  63.9592 0.28 3
  64.2097 0.04 0
  64.3164 0.04 0
  64.4457 0.03 0
  64.9649 3.81 38
  65.2725 0.01 0
  65.4012 0.01 0
  65.5482 0.05 0
  65.9650 0.69 7
  66.2067 0.01 0
  66.3137 0.01 0
  66.9766 6.06 61
  67.6195 0.01 0
  67.9824 0.36 4
  68.6008 0.02 0
  68.7754 0.02 0
  68.9939 16.18 162
  69.9687 0.09 1
  70.9829 0.64 6
  71.9630 0.27 3
  72.1596 0.02 0
  72.5036 0.03 0
  72.6224 0.02 0
  72.9815 45.76 457
  73.1846 0.08 1
  73.3171 0.02 0
  73.4526 0.06 1
  73.5777 0.02 0
  73.6911 0.04 0
  73.9450 0.76 8
  74.6721 0.03 0
  74.9374 0.81 8
  75.1165 0.13 1
  75.2776 0.05 0
  75.3587 0.02 0
  75.4204 0.01 0
  75.6969 0.04 0
  75.9507 0.47 5
  76.2654 0.03 0
  76.3645 0.02 0
  76.4424 0.01 0
  76.9520 13.76 138
  77.2683 0.21 2
  77.6435 0.09 1
  77.9593 2.91 29
  78.1639 0.05 0
  78.3087 0.02 0
  78.4683 0.04 0
  78.9680 13.93 139
  79.5846 0.04 0
  79.7127 0.05 0
  79.9726 2.05 20
  80.9838 27.39 274
  81.2369 0.07 1
  81.3543 0.03 0
  81.9775 0.15 1
  82.3713 0.02 0
  82.6133 0.02 0
  82.9903 2.12 21
  83.1443 0.07 1
  83.3701 0.01 0
  83.8232 0.02 0
  83.9408 0.03 0
  84.9742 3.72 37
  85.3033 0.03 0
  85.5800 0.02 0
  85.9437 0.31 3
  86.3246 0.01 0
  86.9613 0.56 6
  87.5983 0.04 0
  87.6732 0.02 0
  87.9327 0.28 3
  88.0845 0.03 0
  88.3522 0.04 0
  88.7001 0.17 2
  88.9542 1.44 14
  89.1333 0.24 2
  89.3124 0.14 1
  89.9257 0.44 4
  90.2596 0.05 0
  90.4650 0.10 1
  90.9663 30.31 303
  91.2279 0.10 1
  91.3834 0.07 1
  91.5617 0.03 0
  91.9744 3.92 39
  92.1954 0.02 0
  92.2934 0.01 0
  92.4092 0.02 0
  92.6156 0.14 1
  92.9856 25.69 257
  93.2176 0.11 1
  93.3262 0.04 0
  93.9916 1.43 14
  94.2941 0.04 0
  94.3529 0.02 0
  94.5274 0.03 0
  94.6618 0.04 0
  95.0080 9.19 92
  95.2359 0.03 0
  95.4751 0.03 0
  95.6350 0.08 1
  95.9985 0.14 1
  96.4125 0.03 0
  97.0017 0.55 5
  97.4191 0.01 0
  97.9510 0.15 1
  98.9921 0.73 7
  99.5500 0.01 0
  99.9854 0.11 1
  100.2576 0.02 0
  100.6340 0.08 1
  100.7694 0.08 1
  100.9694 0.51 5
  101.2302 0.09 1
  101.3626 0.04 0
  101.9685 1.50 15
  102.1721 0.05 0
  102.2846 0.05 0
  102.3808 0.02 0
  102.4851 0.04 0
  102.6229 0.16 2
  102.9702 4.94 49
  103.2214 0.07 1
  103.4885 0.04 0
  103.9776 2.50 25
  104.2117 0.06 1
  104.4780 0.12 1
  104.6478 0.05 0
  104.9883 44.52 445
  105.3801 0.08 1
  105.5161 0.02 0
  105.6287 0.06 1
  105.9970 4.00 40
  106.2851 0.02 0
  106.4510 0.02 0
  107.0051 12.71 127
  107.5882 0.10 1
  107.7564 0.03 0
  108.0072 0.56 6
  108.2165 0.02 0
  108.3991 0.05 0
  109.0128 4.23 42
  109.2174 0.08 1
  109.3571 0.03 0
  109.4728 0.02 0
  110.0043 0.19 2
  110.5217 0.04 0
  111.0121 0.82 8
  111.2390 0.04 0
  111.3136 0.02 0
  111.9527 0.08 1
  112.2655 0.02 0
  112.4923 0.06 1
  112.9626 0.40 4
  113.2324 0.12 1
  113.3219 0.08 1
  113.5004 0.08 1
  113.7622 0.11 1
  113.9523 0.42 4
  114.2002 0.15 1
  114.9571 13.60 136
  115.3260 0.14 1
  115.9558 5.64 56
  116.2006 0.12 1
  116.3786 0.08 1
  116.9663 15.11 151
  117.2192 0.11 1
  117.3267 0.04 0
  117.4967 0.05 0
  117.9688 3.04 30
  118.4367 0.08 1
  118.9779 37.23 372
  119.2019 0.10 1
  119.3840 0.05 0
  119.5732 0.06 1
  119.9828 4.34 43
  120.2051 0.07 1
  120.3254 0.08 1
  120.5640 0.06 1
  120.9911 14.86 148
  121.2830 0.08 1
  121.4352 0.11 1
  121.5751 0.03 0
  121.6632 0.01 0
  121.9775 0.57 6
  122.2134 0.04 0
  122.5293 0.07 1
  123.0004 2.82 28
  123.2860 0.02 0
  123.4009 0.02 0
  123.9740 0.13 1
  124.1553 0.01 0
  124.2821 0.03 0
  124.6275 0.03 0
  124.9769 0.48 5
  125.2699 0.07 1
  125.3558 0.04 0
  125.4978 0.06 1
  125.6861 0.03 0
  125.9317 0.64 6
  126.1657 0.08 1
  126.2381 0.04 0
  126.9334 5.13 51
  127.2989 0.22 2
  127.4942 0.26 3
  127.9377 14.45 144
  128.2482 0.15 1
  128.3907 0.19 2
  128.9434 20.00 200
  129.3544 0.08 1
  129.5043 0.08 1
  129.9503 7.91 79
  130.2295 0.09 1
  130.4399 0.09 1
  130.9553 23.61 236
  131.2742 0.13 1
  131.4291 0.07 1
  131.9583 5.95 59
  132.2388 0.14 1
  132.4451 0.10 1
  132.9704 17.49 175
  133.3414 0.06 1
  133.5190 0.13 1
  133.9732 1.81 18
  134.2643 0.07 1
  134.5238 0.03 0
  134.6602 0.11 1
  134.7485 0.05 0
  134.9838 1.25 12
  135.3689 0.01 0
  135.5615 0.01 0
  135.7554 0.06 1
  135.9672 0.16 2
  136.1593 0.04 0
  136.2841 0.17 2
  136.4782 0.11 1
  136.9591 0.44 4
  137.1960 0.01 0
  137.6103 0.02 0
  137.9540 0.33 3
  138.1825 0.02 0
  138.3011 0.07 1
  138.4787 0.13 1
  138.5868 0.03 0
  138.9328 1.50 15
  139.3533 0.08 1
  139.4834 0.08 1
  139.9287 0.50 5
  140.1570 0.30 3
  140.5017 0.27 3
  140.9409 12.67 127
  141.1469 0.31 3
  141.4341 0.20 2
  141.9456 12.18 122
  142.2270 0.08 1
  142.9560 25.74 257
  143.2598 0.16 2
  143.3637 0.13 1
  143.5110 0.18 2
  143.6616 0.10 1
  143.9649 8.64 86
  144.3863 0.18 2
  144.9708 31.52 315
  145.3413 0.18 2
  145.4822 0.23 2
  145.5597 0.12 1
  145.9811 2.26 23
  146.1856 0.05 0
  146.3921 0.07 1
  146.9845 11.47 115
  147.2962 0.14 1
  147.6582 0.14 1
  147.9875 0.40 4
  148.2178 0.05 0
  148.4455 0.07 1
  148.5340 0.02 0
  148.9909 0.27 3
  149.1671 0.06 1
  149.2818 0.04 0
  149.4574 0.10 1
  149.6820 0.04 0
  149.9671 0.27 3
  150.1589 0.11 1
  150.3951 0.07 1
  150.6206 0.21 2
  150.9616 0.90 9
  151.1389 0.26 3
  151.2564 0.09 1
  151.4559 0.34 3
  151.9551 4.25 42
  152.2341 0.26 3
  152.4243 0.14 1
  152.9637 6.28 63
  153.1655 0.21 2
  153.3102 0.10 1
  153.4919 0.10 1
  153.9631 3.69 37
  154.1995 0.08 1
  154.5484 0.16 2
  154.9742 14.48 145
  155.2371 0.13 1
  155.4373 0.05 0
  155.5594 0.01 0
  155.9843 9.81 98
  156.2379 0.17 2
  156.4154 0.13 1
  156.5443 0.08 1
  156.9999 23.53 235
  157.3599 0.13 1
  157.6618 0.14 1
  158.0145 4.23 42
  158.2572 0.02 0
  158.3971 0.11 1
  158.5864 0.10 1
  159.0212 8.42 84
  159.2241 0.15 1
  159.5739 0.12 1
  160.0362 0.62 6
  160.3639 0.06 1
  160.5644 0.04 0
  160.7154 0.01 0
  161.0413 1.17 12
  161.3306 0.09 1
  161.4472 0.04 0
  161.6594 0.04 0
  161.7617 0.06 1
  161.9984 0.12 1
  162.3429 0.10 1
  162.5227 0.02 0
  162.6889 0.11 1
  162.9753 0.40 4
  163.3832 0.17 2
  163.6330 0.12 1
  163.9937 0.60 6
  164.2423 0.12 1
  164.9850 9.35 93
  165.2856 0.07 1
  165.4372 0.16 2
  165.6147 0.10 1
  165.9977 3.16 32
  166.2269 0.15 1
  166.5550 0.09 1
  167.0070 8.91 89
  167.3025 0.09 1
  167.4278 0.11 1
  168.0171 4.21 42
  168.4131 0.10 1
  168.6155 0.18 2
  169.0321 14.73 147
  169.3315 0.14 1
  169.5887 0.10 1
  170.0445 5.23 52
  170.2916 0.11 1
  170.5611 0.12 1
  171.0482 11.22 112
  171.2782 0.10 1
  171.5035 0.11 1
  172.0543 1.70 17
  172.3043 0.14 1
  172.5863 0.13 1
  173.0551 2.86 29
  173.3877 0.09 1
  173.6126 0.11 1
  174.0197 0.34 3
  174.1097 0.18 2
  174.4644 0.06 1
  174.7073 0.08 1
  175.0540 0.54 5
  175.3959 0.07 1
  175.9872 0.84 8
  176.2980 0.02 0
  176.4743 0.12 1
  176.5918 0.13 1
  176.6956 0.08 1
  177.0086 0.78 8
  177.2458 0.17 2
  177.5992 0.10 1
  178.0006 4.88 49
  178.2489 0.06 1
  179.0063 8.16 82
  179.3472 0.11 1
  179.4485 0.06 1
  180.0155 3.76 38
  180.2531 0.15 1
  180.6326 0.18 2
  181.0164 11.03 110
  181.4749 0.14 1
  181.6902 0.08 1
  182.0303 5.05 50
  182.4027 0.08 1
  183.0278 13.41 134
  183.4087 0.12 1
  184.0259 2.98 30
  184.3665 0.17 2
  184.5506 0.24 2
  185.0453 6.01 60
  185.3511 0.08 1
  185.5154 0.11 1
  185.6494 0.10 1
  186.0441 1.23 12
  186.4436 0.10 1
  186.6960 0.13 1
  187.0600 2.55 25
  187.4467 0.05 0
  187.5816 0.03 0
  188.0008 0.23 2
  188.3863 0.10 1
  188.5296 0.10 1
  188.9959 2.13 21
  189.5243 0.12 1
  189.9868 0.93 9
  190.4052 0.15 1
  190.9969 3.49 35
  191.3500 0.03 0
  191.4846 0.06 1
  192.0028 3.28 33
  192.2588 0.08 1
  192.5757 0.28 3
  193.0058 8.07 81
  193.2758 0.09 1
  193.4561 0.09 1
  193.6246 0.16 2
  194.0101 4.59 46
  194.3557 0.20 2
  195.0144 12.22 122
  195.3435 0.19 2
  196.0213 3.26 33
  196.2918 0.10 1
  196.4855 0.24 2
  197.0350 12.42 124
  197.3901 0.18 2
  198.0271 2.01 20
  198.4863 0.15 1
  199.0427 3.29 33
  199.5430 0.30 3
  200.0255 0.71 7
  200.2966 0.07 1
  200.5470 0.21 2
  201.0540 0.74 7
  201.2586 0.13 1
  201.4772 0.05 0
  201.9879 1.78 18
  202.2767 0.09 1
  202.5780 0.08 1
  203.0029 2.21 22
  203.3134 0.03 0
  203.4814 0.05 0
  203.9802 1.31 13
  204.5716 0.32 3
  205.0116 3.98 40
  205.5602 1.98 20
  206.0157 3.32 33
  206.3308 0.12 1
  206.5680 0.17 2
  207.0196 6.81 68
  207.4142 0.10 1
  207.7316 0.24 2
  208.0275 3.30 33
  208.5727 0.11 1
  209.0331 9.60 96
  209.4665 0.20 2
  210.0400 1.84 18
  210.2672 0.08 1
  210.5133 0.12 1
  211.0522 5.94 59
  211.4811 0.14 1
  212.0538 1.36 14
  212.3782 0.08 1
  212.6015 0.40 4
  213.0593 3.28 33
  213.3330 0.10 1
  213.4412 0.18 2
  213.6779 0.09 1
  214.0458 0.27 3
  214.3427 0.09 1
  214.4865 0.10 1
  215.0111 1.73 17
  215.2459 0.10 1
  215.6009 0.04 0
  216.0104 1.47 15
  216.3138 0.17 2
  216.4466 0.03 0
  217.0109 2.38 24
  217.2697 0.05 0
  217.3878 0.05 0
  217.5494 0.11 1
  217.6907 0.08 1
  218.0174 1.48 15
  218.4127 0.13 1
  219.0426 3.68 37
  219.3884 0.03 0
  219.5963 0.14 1
  220.0501 1.90 19
  220.3204 0.14 1
  221.0454 5.17 52
  221.4146 0.09 1
  221.5632 0.05 0
  221.6781 0.11 1
  222.0573 1.89 19
  222.4140 0.08 1
  222.6524 0.11 1
  223.0794 4.14 41
  223.3795 0.08 1
  223.7085 0.19 2
  224.0922 0.98 10
  224.5826 0.09 1
  224.7629 0.14 1
  225.0907 1.27 13
  225.3518 0.06 1
  225.6445 0.11 1
  226.0791 0.59 6
  226.3501 0.10 1
  226.4470 0.03 0
  226.5790 0.05 0
  226.6956 0.04 0
  227.0819 0.54 5
  227.2772 0.20 2
  227.6355 0.08 1
  228.0564 0.65 6
  228.2792 0.04 0
  228.4015 0.04 0
  228.5301 0.08 1
  228.6411 0.07 1
  229.0622 2.10 21
  229.4770 0.08 1
  230.0607 1.05 10
  230.4222 0.09 1
  231.0525 2.81 28
  231.4564 0.05 0
  232.0575 1.24 12
  232.6227 0.21 2
  233.0856 3.40 34
  233.6552 0.16 2
  234.0837 1.68 17
  234.4617 0.04 0
  234.6346 0.06 1
  235.1040 3.54 35
  235.3458 0.12 1
  235.5363 0.15 1
  236.0938 0.62 6
  236.3561 0.09 1
  236.4447 0.03 0
  237.1079 2.02 20
  237.3407 0.09 1
  237.5729 0.04 0
  238.1540 0.41 4
  238.3975 0.05 0
  238.5220 0.06 1
  239.0668 0.83 8
  239.6152 0.19 2
  239.7349 0.08 1
  240.0884 0.33 3
  240.3813 0.08 1
  240.6384 0.55 5
  241.0899 1.07 11
  241.4605 0.04 0
  241.6535 0.05 0
  242.0404 0.61 6
  242.2736 0.06 1
  242.4266 0.03 0
  242.5407 0.04 0
  242.6599 0.08 1
  243.0511 1.24 12
  243.4910 0.03 0
  243.6038 0.04 0
  244.0473 1.05 10
  244.5262 0.04 0
  245.0595 2.17 22
  245.3862 0.04 0
  245.6127 0.03 0
  246.0734 1.09 11
  247.0863 2.97 30
  247.5615 0.07 1
  247.7034 0.17 2
  248.0883 0.86 9
  248.2931 0.13 1
  248.6201 0.19 2
  249.1033 2.27 23
  249.5152 0.02 0
  249.8205 0.15 1
  250.1017 0.73 7
  250.2593 0.10 1
  250.4085 0.04 0
  250.5951 0.06 1
  250.7449 0.05 0
  251.1245 1.03 10
  251.4441 0.10 1
  251.6279 0.10 1
  251.7086 0.05 0
  252.0713 0.35 3
  252.5600 0.05 0
  253.0920 0.85 8
  253.6700 0.06 1
  254.1045 0.23 2
  254.3826 0.03 0
  254.6898 0.09 1
  255.0897 0.96 10
  255.3694 0.06 1
  255.5400 0.16 2
  256.0272 0.56 6
  256.4060 0.04 0
  257.0739 1.20 12
  257.4792 0.07 1
  257.5436 0.03 0
  257.6733 0.04 0
  258.0701 0.78 8
  258.4534 0.04 0
  258.6441 0.07 1
  259.0941 1.67 17
  259.5936 0.02 0
  260.0769 0.62 6
  260.3448 0.06 1
  260.5482 0.03 0
  261.1032 2.27 23
  261.5349 0.09 1
  261.6646 0.02 0
  262.1170 0.48 5
  262.4241 0.06 1
  263.1014 1.31 13
  263.4845 0.10 1
  263.7349 0.06 1
  263.8563 0.03 0
  264.1386 0.40 4
  264.5637 0.05 0
  265.1116 0.82 8
  265.3153 0.18 2
  265.4083 0.04 0
  265.6454 0.05 0
  265.8179 0.05 0
  266.1011 0.37 4
  266.2730 0.13 1
  266.5279 0.04 0
  266.6699 0.03 0
  267.1109 0.85 8
  267.5846 0.04 0
  268.0947 0.21 2
  268.4122 0.08 1
  268.5643 0.02 0
  269.0936 1.01 10
  269.5477 0.02 0
  269.8271 0.10 1
  270.1128 0.39 4
  270.3438 0.03 0
  270.6381 0.03 0
  271.0690 0.88 9
  271.5113 0.07 1
  271.7054 0.07 1
  272.0781 0.46 5
  272.5468 0.06 1
  272.6578 0.04 0
  273.1252 1.40 14
  273.4908 0.05 0
  273.8267 0.07 1
  274.0928 0.42 4
  274.3803 0.04 0
  274.7319 0.11 1
  275.1327 1.22 12
  275.3797 0.06 1
  275.5926 0.08 1
  275.7556 0.02 0
  276.0924 0.37 4
  276.2569 0.13 1
  276.6293 0.07 1
  276.7525 0.05 0
  277.1542 0.66 7
  277.4987 0.02 0
  278.0989 0.27 3
  278.3088 0.09 1
  278.6737 0.05 0
  279.1255 0.42 4
  279.2884 0.06 1
  279.6100 0.05 0
  279.7302 0.01 0
  280.0974 0.17 2
  280.3188 0.01 0
  280.6284 0.02 0
  281.1081 0.39 4
  281.2526 0.12 1
  281.3651 0.11 1
  281.6762 0.05 0
  281.9375 0.02 0
  282.1518 0.16 2
  282.3362 0.04 0
  282.4929 0.06 1
  282.6453 0.04 0
  282.8226 0.08 1
  283.0897 0.42 4
  283.6061 0.04 0
  283.7286 0.07 1
  284.0948 0.30 3
  284.2757 0.10 1
  284.3947 0.04 0
  284.5963 0.01 0
  285.1222 0.55 5
  285.4543 0.06 1
  285.6780 0.06 1
  285.7978 0.04 0
  286.1413 0.33 3
  286.6211 0.05 0
  287.1201 0.59 6
  287.4445 0.06 1
  287.8103 0.08 1
  288.1426 0.47 5
  288.3024 0.14 1
  288.4115 0.04 0
  288.4999 0.03 0
  288.7781 0.06 1
  289.1319 0.58 6
  289.4386 0.01 0
  289.8167 0.08 1
  290.1628 0.35 3
  290.3354 0.04 0
  290.4653 0.01 0
  290.6280 0.05 0
  291.1197 0.24 2
  291.9005 0.03 0
  292.1346 0.09 1
  292.3952 0.04 0
  292.4852 0.02 0
  292.6137 0.06 1
  292.7329 0.04 0
  293.0228 0.16 2
  293.2484 0.24 2
  293.4562 0.02 0
  293.8468 0.04 0
  294.1101 0.15 1
  294.2920 0.05 0
  294.3918 0.04 0
  294.6757 0.05 0
  294.8762 0.05 0
  295.1016 0.24 2
  295.3534 0.05 0
  295.4640 0.05 0
  295.6124 0.02 0
  296.0983 0.14 1
  296.4501 0.02 0
  296.6214 0.02 0
  296.8519 0.13 1
  297.1281 0.31 3
  297.5042 0.02 0
  297.7569 0.04 0
  298.0375 0.09 1
  298.1703 0.13 1
  298.4373 0.02 0
  298.5330 0.03 0
  299.1420 0.63 6
  299.2905 0.23 2
  299.7262 0.04 0
  300.1711 0.23 2
  300.6247 0.04 0
  301.1669 0.88 9
  301.5427 0.06 1
  301.7441 0.05 0
  301.9692 0.06 1
  302.1822 0.16 2
  302.4651 0.06 1
  302.5902 0.02 0
  302.8239 0.07 1
  303.1369 0.38 4
  303.3235 0.11 1
  303.4343 0.02 0
  303.6072 0.09 1
  303.7109 0.03 0
  304.0955 0.20 2
  304.2435 0.10 1
  304.5337 0.07 1
  304.8397 0.02 0
  305.1243 0.21 2
  305.3217 0.11 1
  305.4840 0.03 0
  305.7993 0.02 0
  305.9388 0.04 0
  306.0697 0.06 1
  306.2707 0.04 0
  306.4781 0.06 1
  306.9294 0.10 1
  307.1269 0.16 2
  307.2650 0.08 1
  307.9968 0.04 0
  308.1392 0.20 2
  308.2437 0.04 0
  309.0537 0.26 3
  309.2312 0.20 2
  309.8997 0.04 0
  310.2032 0.08 1
  310.7573 0.04 0
  310.9184 0.08 1
  311.1511 0.39 4
  311.4189 0.04 0
  312.0948 0.19 2
  312.2775 0.09 1
  312.6835 0.02 0
  313.1555 0.51 5
  313.4149 0.04 0
  313.6011 0.04 0
  314.1298 0.16 2
  314.3462 0.05 0
  314.4759 0.06 1
  314.6779 0.04 0
  315.0584 0.35 3
  315.2096 0.20 2
  315.4038 0.06 1
  315.5450 0.03 0
  316.1140 0.15 1
  316.3333 0.06 1
  316.6717 0.03 0
  316.7648 0.03 0
  317.1885 0.32 3
  317.6724 0.04 0
  317.7570 0.03 0
  317.9735 0.07 1
  318.1564 0.13 1
  318.3858 0.02 0
  318.6755 0.02 0
  318.8598 0.04 0
  319.1732 0.23 2
  319.3891 0.06 1
  319.7262 0.03 0
  320.0016 0.06 1
  320.1221 0.04 0
  320.3151 0.06 1
  320.3904 0.02 0
  320.5246 0.01 0
  321.1516 0.30 3
  321.4228 0.09 1
  322.1418 0.21 2
  322.4101 0.03 0
  322.7223 0.05 0
  323.1127 0.10 1
  323.3065 0.05 0
  324.1155 0.10 1
  324.1938 0.06 1
  324.3747 0.01 0
  325.1343 0.29 3
  325.2721 0.10 1
  325.3913 0.04 0
  325.7856 0.02 0
  325.9227 0.04 0
  326.1733 0.14 1
  326.3953 0.02 0
  326.6531 0.05 0
  327.1717 0.54 5
  327.4195 0.07 1
  327.6314 0.07 1
  327.7111 0.04 0
  327.8304 0.05 0
  328.1788 0.10 1
  328.4044 0.09 1
  328.6120 0.04 0
  328.8628 0.08 1
  329.1890 0.38 4
  329.9651 0.07 1
  330.2361 0.09 1
  330.8168 0.06 1
  331.2172 0.32 3
  331.6722 0.04 0
  331.8886 0.10 1
  332.0202 0.05 0
  332.1697 0.13 1
  332.3164 0.06 1
  332.5199 0.09 1
  332.8341 0.06 1
  333.1814 0.37 4
  333.2907 0.18 2
  333.5848 0.02 0
  333.8754 0.03 0
  334.0768 0.03 0
  334.2803 0.09 1
  334.7665 0.02 0
  335.0686 0.11 1
  335.2758 0.08 1
  335.4715 0.05 0
  336.0967 0.05 0
  336.3478 0.10 1
  336.4931 0.05 0
  337.1897 0.18 2
  337.3566 0.06 1
  337.4768 0.02 0
  337.6768 0.11 1
  337.9352 0.03 0
  338.1900 0.15 1
  338.2914 0.06 1
  339.0415 0.09 1
  339.2198 0.21 2
  339.7530 0.03 0
  340.0448 0.13 1
  340.2159 0.07 1
  340.6644 0.09 1
  341.1891 0.26 3
  341.5249 0.06 1
  341.9555 0.05 0
  342.2546 0.24 2
  342.5243 0.03 0
  342.7845 0.02 0
  343.1427 0.25 2
  343.3613 0.13 1
  344.0186 0.03 0
  344.2437 0.10 1
  344.4171 0.03 0
  344.5652 0.04 0
  344.6530 0.03 0
  344.8825 0.05 0
  345.0702 0.23 2
  345.2328 0.23 2
  345.3961 0.06 1
  345.4990 0.06 1
  345.6443 0.03 0
  345.7709 0.08 1
  345.9004 0.04 0
  346.0407 0.10 1
  346.2141 0.18 2
  346.4300 0.09 1
  346.6724 0.04 0
  346.8099 0.02 0
  347.1013 0.06 1
  347.3992 0.04 0
  347.7591 0.06 1
  348.3305 0.02 0
  348.8307 0.04 0
  349.1791 0.10 1
  349.2706 0.04 0
  349.5089 0.06 1
  349.8760 0.04 0
  350.1445 0.07 1
  350.2878 0.03 0
  350.6845 0.04 0
  351.2159 0.20 2
  351.4636 0.11 1
  351.8273 0.02 0
  352.2119 0.25 2
  352.8630 0.04 0
  353.1677 0.28 3
  353.2987 0.25 2
  353.4126 0.05 0
  353.5141 0.07 1
  354.2316 0.40 4
  354.5486 0.02 0
  354.6942 0.02 0
  355.2065 0.31 3
  355.4550 0.06 1
  355.5516 0.03 0
  355.7216 0.04 0
  355.8896 0.03 0
  356.1230 0.21 2
  356.2845 0.13 1
  356.7183 0.03 0
  356.9194 0.02 0
  357.2841 0.16 2
  357.5515 0.13 1
  358.2298 0.16 2
  358.5355 0.05 0
  358.8585 0.04 0
  359.2485 0.25 2
  359.7850 0.05 0
  360.1037 0.06 1
  360.2126 0.06 1
  360.3113 0.03 0
  360.7346 0.03 0
  361.2063 0.06 1
  361.5374 0.05 0
  362.0033 0.06 1
  362.1966 0.05 0
  362.6164 0.05 0
  363.0781 0.07 1
  363.2209 0.10 1
  363.3595 0.08 1
  363.5932 0.07 1
  364.0160 0.08 1
  364.2058 0.12 1
  364.3638 0.18 2
  364.4951 0.04 0
  365.2759 0.36 4
  365.4188 0.12 1
  365.5523 0.03 0
  365.9310 0.07 1
  366.1895 0.34 3
  366.3285 0.26 3
  366.5005 0.04 0
  366.6640 0.07 1
  366.8973 0.08 1
  367.2501 0.39 4
  367.7924 0.02 0
  367.9054 0.05 0
  368.2331 0.10 1
  369.0441 0.05 0
  369.2645 0.33 3
  369.3567 0.13 1
  369.4590 0.06 1
  369.5612 0.04 0
  369.8732 0.10 1
  370.1152 0.06 1
  370.2982 0.14 1
  370.5323 0.03 0
  370.7996 0.03 0
  371.2758 0.09 1
  371.5518 0.07 1
  371.9719 0.12 1
  372.2479 0.03 0
  372.3927 0.02 0
  372.8006 0.02 0
  373.0269 0.05 0
  373.1739 0.08 1
  373.2589 0.03 0
  373.4939 0.04 0
  373.9530 0.04 0
  374.1649 0.03 0
  374.3422 0.06 1
  375.0537 0.03 0
  375.3284 0.13 1
  375.5281 0.07 1
  375.7653 0.13 1
  376.2743 0.20 2
  376.4408 0.10 1
  376.5742 0.03 0
  376.9571 0.07 1
  377.2967 0.23 2
  377.5095 0.06 1
  377.9414 0.05 0
  378.2696 0.69 7
  378.5119 0.12 1
  378.7045 0.06 1
  378.8704 0.04 0
  379.2281 0.20 2
  379.4315 0.09 1
  380.0468 0.13 1
  380.3065 0.17 2
  380.3989 0.06 1
  380.8228 0.08 1
  381.1690 0.21 2
  381.3493 0.13 1
  381.4495 0.02 0
  381.8764 0.04 0
  382.0892 0.06 1
  382.2969 0.08 1
  382.4123 0.08 1
  382.6453 0.05 0
  382.7989 0.06 1
  383.0059 0.09 1
  383.1935 0.15 1
  383.3752 0.07 1
  383.7041 0.06 1
  383.8542 0.02 0
  384.1644 0.08 1
  384.4025 0.05 0
  384.6398 0.04 0
  385.1391 0.10 1
  385.2899 0.04 0
  385.5915 0.01 0
  385.7242 0.07 1
  385.8815 0.06 1
  386.1427 0.07 1
  386.2409 0.04 0
  386.4444 0.09 1
  386.7489 0.04 0
  386.8781 0.03 0
  387.2108 0.11 1
  387.3767 0.04 0
  387.6582 0.09 1
  388.1172 0.16 2
  388.3439 0.07 1
  389.2137 0.11 1
  389.3696 0.16 2
  389.5061 0.03 0
  389.6808 0.02 0
  389.8974 0.01 0
  390.2417 0.09 1
  390.4431 0.04 0
  390.9810 0.09 1
  391.0475 0.04 0
  391.2085 0.16 2
  391.3616 0.10 1
  391.4684 0.02 0
  391.8461 0.12 1
  392.2585 0.18 2
  392.7806 0.06 1
  393.0890 0.05 0
  393.2674 0.18 2
  393.4927 0.06 1
  393.6935 0.01 0
  393.8293 0.04 0
  394.0178 0.06 1
  394.2403 0.03 0
  394.3920 0.03 0
  394.9359 0.11 1
  395.4077 0.18 2
  395.4907 0.09 1
  395.7147 0.03 0
  395.8310 0.04 0
  396.1359 0.07 1
  396.3071 0.05 0
  396.6193 0.05 0
  396.8245 0.07 1
  397.1366 0.23 2
  397.3599 0.36 4
  397.5181 0.07 1
  397.6388 0.04 0
  397.8773 0.01 0
  398.0818 0.03 0
  398.2820 0.17 2
  398.4547 0.11 1
  398.7532 0.03 0
  399.0647 0.05 0
  399.2895 0.26 3
  399.4637 0.06 1
  399.9067 0.06 1
  400.2060 0.06 1
  400.3896 0.09 1
  400.6469 0.03 0
  400.8392 0.01 0
  401.0771 0.10 1
  401.2679 0.05 0
  401.4566 0.04 0
  401.7451 0.05 0
  401.8759 0.04 0
  402.0900 0.04 0
  402.2975 0.09 1
  402.4941 0.02 0
  402.9410 0.06 1
  403.0610 0.06 1
  403.2367 0.11 1
  403.7639 0.07 1
  404.0684 0.14 1
  404.2376 0.16 2
  404.3468 0.07 1
  404.5182 0.05 0
  404.9478 0.03 0
  405.0635 0.04 0
  405.2248 0.06 1
  405.4034 0.04 0
  405.6523 0.02 0
  406.2888 0.07 1
  406.5565 0.05 0
  407.2972 0.06 1
  407.6821 0.03 0
  408.4346 0.07 1
  408.5966 0.01 0
  408.9816 0.01 0
  409.2493 0.13 1
  409.3716 0.06 1
  410.2183 0.09 1
  410.5208 0.10 1
  410.8986 0.02 0
  411.0455 0.14 1
  411.3220 0.15 1
  411.6766 0.11 1
  412.0689 0.16 2
  412.1500 0.07 1
  412.4164 0.16 2
  412.6849 0.03 0
  412.9202 0.06 1
  413.3375 0.08 1
  413.4445 0.09 1
  413.5580 0.03 0
  413.8616 0.02 0
  413.9758 0.02 0
  414.2534 0.10 1
  414.3806 0.08 1
  414.5419 0.11 1
  415.0002 0.06 1
  415.3046 0.13 1
  415.4442 0.13 1
  415.9510 0.03 0
  416.1246 0.11 1
  416.2786 0.06 1
  416.4688 0.05 0
  417.0256 0.03 0
  417.1898 0.13 1
  417.3329 0.20 2
  417.4653 0.17 2
  418.2789 0.31 3
  418.4814 0.10 1
  418.6644 0.05 0
  418.9060 0.07 1
  419.1802 0.22 2
  419.3567 0.36 4
  419.5469 0.13 1
  419.8775 0.03 0
  420.3354 0.41 4
  420.5076 0.24 2
  420.7499 0.02 0
  420.8888 0.01 0
  421.2036 0.07 1
  421.4930 0.03 0
  421.7925 0.03 0
  421.8960 0.05 0
  421.9690 0.03 0
  422.1658 0.07 1
  422.3909 0.03 0
  422.6492 0.06 1
  422.8069 0.11 1
  423.1789 0.19 2
  423.3967 0.31 3
  423.6362 0.11 1
  423.9944 0.08 1
  424.3180 0.29 3
  424.4511 0.09 1
  424.6422 0.07 1
  424.9093 0.05 0
  425.2038 0.21 2
  425.3681 0.22 2
  425.4970 0.10 1
  425.6656 0.07 1
  426.1354 0.05 0
  426.2888 0.05 0
  426.5140 0.05 0
  426.7188 0.07 1
  426.9143 0.04 0
  427.0699 0.04 0
  427.1887 0.07 1
  427.4182 0.05 0
  428.1892 0.06 1
  428.4354 0.03 0
  428.7800 0.02 0
  428.9299 0.06 1
  428.9951 0.03 0
  429.2956 0.20 2
  429.5179 0.09 1
  429.8162 0.04 0
  430.3133 0.52 5
  430.7664 0.04 0
  430.9145 0.02 0
  431.3084 0.62 6
  431.5570 0.05 0
  431.7268 0.06 1
  431.9487 0.15 1
  432.2970 0.41 4
  432.5233 0.20 2
  432.6411 0.10 1
  432.8217 0.02 0
  433.1036 0.08 1
  433.2648 0.08 1
  433.3949 0.04 0
  434.2204 0.08 1
  434.3223 0.02 0
  434.4402 0.03 0
  435.2057 0.05 0
  435.4009 0.06 1
  435.6598 0.02 0
  436.0538 0.02 0
  436.1818 0.01 0
  436.6177 0.01 0
  436.9706 0.05 0
  437.2063 0.07 1
  437.8427 0.02 0
  438.1717 0.07 1
  438.4103 0.05 0
  438.6519 0.03 0
  439.0424 0.02 0
  439.2044 0.04 0
  439.4214 0.12 1
  439.6087 0.06 1
  440.0036 0.02 0
  440.1873 0.05 0
  440.4028 0.05 0
  440.9468 0.03 0
  441.2867 0.07 1
  441.4220 0.04 0
  441.7099 0.07 1
  441.8857 0.04 0
  441.9776 0.04 0
  442.3437 0.63 6
  442.7423 0.04 0
  443.2574 0.31 3
  443.5750 0.04 0
  443.8210 0.05 0
  444.2877 0.55 5
  444.7718 0.06 1
  445.0945 0.19 2
  445.2979 0.17 2
  445.4694 0.08 1
  445.6850 0.08 1
  445.8666 0.05 0
  446.0273 0.02 0
  446.3247 0.05 0
  446.4543 0.04 0
  446.8864 0.11 1
  447.1816 0.10 1
  447.3937 0.07 1
  447.5457 0.05 0
  448.0748 0.11 1
  448.1421 0.05 0
  448.4005 0.11 1
  448.7653 0.06 1
  448.8739 0.07 1
  449.0172 0.02 0
  449.1439 0.12 1
  449.3452 0.06 1
  449.6709 0.03 0
  449.9040 0.07 1
  450.1140 0.05 0
  450.3196 0.10 1
  450.4217 0.04 0
  450.5643 0.02 0
  450.8409 0.08 1
  451.0617 0.09 1
  451.2282 0.09 1
  451.3723 0.11 1
  451.5779 0.07 1
  451.7502 0.05 0
  452.0160 0.07 1
  452.2723 0.10 1
  452.4685 0.07 1
  452.7647 0.13 1
  453.0551 0.08 1
  453.2491 0.14 1
  453.3766 0.05 0
  453.4939 0.09 1
  453.6699 0.07 1
  453.7828 0.03 0
  453.9451 0.08 1
  454.2775 0.12 1
  454.5693 0.09 1
  455.0148 0.04 0
  455.2589 0.17 2
  455.4624 0.10 1
  455.6884 0.09 1
  455.8571 0.05 0
  456.3352 0.23 2
  456.5293 0.03 0
  456.6553 0.01 0
  456.7908 0.02 0
  457.2689 0.65 6
  457.7383 0.05 0
  458.2150 0.21 2
  458.4121 0.15 1
  458.5700 0.09 1
  458.7482 0.04 0
  458.9467 0.11 1
  459.2793 0.04 0
  459.6539 0.04 0
  459.8974 0.07 1
  460.1647 0.05 0
  460.2952 0.07 1
  460.4510 0.04 0
  460.6930 0.04 0
  460.8893 0.06 1
  460.9886 0.06 1
  461.1980 0.02 0
  461.4357 0.01 0
  461.7473 0.03 0
  461.9792 0.03 0
  462.1003 0.02 0
  462.2793 0.14 1
  462.3858 0.15 1
  462.6228 0.09 1
  462.7351 0.04 0
  463.2019 0.04 0
  463.4034 0.05 0
  463.5266 0.02 0
  463.7078 0.04 0
  463.8571 0.05 0
  464.0390 0.06 1
  464.1332 0.03 0
  464.3724 0.05 0
  464.4732 0.09 1
  464.5892 0.05 0
  465.0611 0.13 1
  465.2039 0.10 1
  465.5141 0.20 2
  465.7084 0.06 1
  465.8830 0.09 1
  466.2448 0.15 1
  466.4648 0.13 1
  466.7680 0.05 0
  466.9120 0.08 1
  467.0762 0.08 1
  467.2137 0.06 1
  467.3903 0.22 2
  467.5791 0.10 1
  467.7608 0.04 0
  467.8570 0.03 0
  468.3376 0.20 2
  468.6791 0.06 1
  468.9527 0.11 1
  469.1923 0.05 0
  469.3898 0.09 1
  469.7054 0.11 1
  469.8777 0.09 1
  470.0217 0.16 2
  470.3235 0.36 4
  470.4784 0.10 1
  470.6862 0.02 0
  470.7962 0.01 0
  471.0133 0.03 0
  471.2688 0.09 1
  471.4426 0.06 1
  471.6655 0.09 1
  471.7994 0.07 1
  471.8928 0.02 0
  472.2707 0.06 1
  472.4235 0.12 1
  472.5690 0.10 1
  472.6602 0.08 1
  473.1423 0.04 0
  473.3132 0.05 0
  473.5919 0.03 0
  473.6933 0.04 0
  473.8432 0.02 0
  473.9887 0.07 1
  474.1306 0.03 0
  474.3015 0.11 1
  474.4195 0.04 0
  474.7258 0.12 1
  475.0791 0.09 1
  475.4484 0.05 0
  475.6193 0.12 1
  475.8626 0.04 0
  475.9632 0.06 1
  476.3253 0.27 3
  476.6382 0.07 1
  476.7801 0.03 0
  476.9568 0.07 1
  477.0893 0.04 0
  477.3087 0.05 0
  477.4927 0.14 1
  477.7121 0.04 0
  477.9895 0.02 0
  478.1416 0.06 1
  478.3748 0.19 2
  478.7543 0.06 1
  479.1570 0.12 1
  479.4316 0.35 3
  479.6018 0.05 0
  480.0973 0.08 1
  480.2856 0.30 3
  480.5022 0.06 1
  480.6297 0.04 0
  480.8810 0.05 0
  481.0672 0.05 0
  481.2925 0.24 2
  481.4236 0.26 3
  481.7967 0.04 0
  481.9467 0.03 0
  482.3495 0.09 1
  482.7262 0.06 1
  482.8994 0.04 0
  483.0233 0.06 1
  483.3203 0.18 2
  483.4710 0.21 2
  483.8130 0.02 0
  484.2949 0.45 4
  484.5826 0.10 1
  485.3543 0.58 6
  486.2456 0.26 3
  486.5160 0.27 3
  486.6993 0.18 2
  487.0602 0.21 2
  487.3726 0.36 4
  487.5966 0.19 2
  487.8792 0.26 3
  488.1764 0.23 2
  488.3445 0.17 2
  488.5612 0.13 1
  489.1273 0.32 3
  489.6021 0.21 2
  489.9015 0.10 1
  490.4111 0.29 3
  490.7569 0.07 1
  490.8751 0.05 0
  491.0128 0.04 0
  491.1353 0.01 0
  491.3173 0.07 1
  491.6196 0.10 1
  492.1177 0.09 1
  492.2395 0.13 1
  492.4128 0.14 1
  492.5781 0.05 0
  492.8776 0.10 1
  493.0885 0.05 0
  493.2959 0.10 1
  493.5367 0.05 0
  493.8397 0.07 1
  494.3730 0.83 8
  494.9612 0.06 1
  495.1619 0.08 1
  495.3502 0.05 0
  495.5690 0.09 1
  495.7283 0.13 1
  495.8798 0.09 1
  496.2499 0.09 1
  496.4137 0.06 1
  496.5955 0.06 1
  496.7513 0.03 0
  496.9563 0.12 1
  497.1389 0.11 1
  497.3765 0.19 2
  497.7373 0.09 1
  497.8525 0.04 0
  498.0503 0.21 2
  498.4546 0.49 5
  498.5546 0.21 2
  498.7307 0.22 2
  499.3509 9.87 99
  499.8067 0.19 2
  500.3951 0.40 4
  500.7828 0.18 2
  500.9480 0.05 0
  501.1400 0.04 0
  501.3220 0.05 0
  501.4893 0.12 1
  501.7321 0.12 1
  502.0220 0.14 1
  502.2902 0.13 1
  502.5844 0.08 1
  502.6779 0.07 1
  502.9773 0.08 1
  503.2368 0.07 1
  503.4738 0.04 0
  503.6245 0.03 0
  503.8391 0.10 1
  504.1718 0.10 1
  504.3943 0.08 1
  504.6103 0.07 1
  504.8401 0.05 0
  505.1844 0.07 1
  505.5084 0.07 1
  505.7390 0.07 1
  505.8912 0.09 1
  506.1304 0.13 1
  506.5016 0.15 1
  506.8199 0.10 1
  506.9706 0.11 1
  507.2954 0.35 3
  507.6195 0.20 2
  508.4055 12.42 124
  508.9217 0.23 2
  509.1581 0.14 1
  509.4771 0.14 1
  509.8419 0.09 1
  510.0500 0.17 2
  510.2856 0.23 2
  510.6446 0.10 1
  510.8208 0.06 1
  511.0630 0.14 1
  511.3611 0.41 4
  511.6330 0.11 1
  511.8578 0.13 1
  512.3967 1.68 17
  512.9044 0.07 1
  513.4033 1.02 10
  513.8486 0.06 1
  514.4166 0.34 3
  514.6733 0.11 1
  514.8707 0.07 1
  515.1245 0.07 1
  515.2783 0.02 0
  515.4633 0.03 0
  515.6896 0.05 0
  515.9653 0.05 0
  516.2431 0.06 1
  516.4440 0.04 0
  516.9141 0.04 0
  517.0295 0.04 0
  517.3160 0.09 1
  517.4734 0.05 0
  517.6526 0.09 1
  517.7971 0.10 1
  518.0125 0.03 0
  518.2113 0.09 1
  518.4536 0.03 0
  518.6052 0.09 1
  518.9158 0.06 1
  519.0326 0.05 0
  519.2778 0.09 1
  519.4288 0.08 1
  519.6428 0.11 1
  519.9838 0.11 1
  520.3945 0.51 5
  520.5367 0.47 5
  520.7450 0.06 1
  520.8676 0.04 0
  521.3993 0.86 9
  521.6281 0.30 3
  521.8286 0.11 1
  521.9937 0.03 0
  522.2645 0.06 1
  522.4607 0.13 1
  522.6294 0.09 1
  522.7503 0.05 0
  522.8589 0.06 1
  523.2065 0.04 0
  523.3969 0.03 0
  523.5084 0.05 0
  523.6692 0.06 1
  523.9762 0.12 1
  524.2680 0.12 1
  524.5237 0.10 1
  524.7474 0.10 1
  525.1406 0.11 1
  525.5505 0.11 1
  525.7308 0.07 1
  526.3877 1.84 18
  526.8882 0.14 1
  527.3749 2.18 22
  527.8572 0.14 1
  528.0275 0.12 1
  528.3244 0.30 3
  528.5287 0.20 2
  528.6692 0.13 1
  529.0466 0.07 1
  529.2190 0.09 1
  529.7159 0.07 1
  529.9774 0.02 0
  530.0940 0.03 0
  530.3106 0.07 1
  530.4845 0.10 1
  530.6931 0.02 0
  530.9416 0.10 1
  531.1097 0.02 0
  531.3444 0.03 0
  531.9739 0.05 0
  532.0645 0.04 0
  532.4673 0.06 1
  532.5767 0.08 1
  533.7758 0.05 0
  533.8939 0.08 1
  534.0062 0.04 0
  534.3757 0.01 0
  534.5873 0.06 1
  534.6974 0.05 0
  534.8960 0.04 0
  534.9982 0.02 0
  535.1619 0.12 1
  535.2634 0.05 0
  535.5706 0.12 1
  535.9952 0.06 1
  536.3467 0.66 7
  536.5518 0.27 3
  536.7489 0.08 1
  536.9960 0.13 1
  537.3091 0.03 0
  537.5903 0.23 2
  537.8468 0.04 0
  537.9831 0.07 1
  538.3165 0.18 2
  538.4998 0.15 1
  538.5911 0.06 1
  538.8919 0.10 1
  539.1057 0.07 1
  539.2311 0.04 0
  539.4304 0.04 0
  539.6109 0.09 1
  539.7225 0.11 1
  539.9023 0.06 1
  540.2241 0.15 1
  540.3299 0.10 1
  540.4843 0.03 0
  540.6249 0.04 0
  540.9344 0.05 0
  541.1997 0.04 0
  541.5759 0.20 2
  541.7180 0.03 0
  541.8333 0.02 0
  542.0305 0.06 1
  542.3023 0.08 1
  542.5473 0.06 1
  542.8561 0.07 1
  543.1526 0.16 2
  543.2701 0.06 1
  543.4984 0.17 2
  543.6833 0.07 1
  543.9581 0.06 1
  544.1741 0.14 1
  544.2937 0.07 1
  544.4206 0.08 1
  544.5272 0.03 0
  544.7795 0.09 1
  544.8556 0.04 0
  545.2174 0.06 1
  545.3501 0.07 1
  545.4835 0.02 0
  545.7757 0.03 0
  546.1230 0.04 0
  546.2310 0.03 0
  546.3506 0.03 0
  546.5355 0.12 1
  546.6059 0.05 0
  546.7690 0.07 1
  546.9735 0.08 1
  547.3085 0.08 1
  547.6616 0.04 0
  547.8415 0.03 0
  548.2251 0.05 0
  548.3904 0.04 0
  548.7218 0.06 1
  548.8799 0.08 1
  549.4093 0.10 1
  549.4781 0.04 0
  549.8278 0.11 1
  550.0010 0.10 1
  550.2041 0.05 0
  550.2890 0.04 0
  550.5247 0.13 1
  550.8953 0.03 0
  551.0831 0.02 0
  551.3232 0.06 1
  551.5749 0.11 1
  551.8795 0.07 1
  552.0912 0.05 0
  552.3140 0.34 3
  552.5439 0.26 3
  552.7223 0.10 1
  552.8644 0.15 1
  553.4484 0.54 5
  553.8096 0.12 1
  554.4509 0.71 7
  554.8237 0.23 2
  555.3438 0.33 3
  555.7239 0.24 2
  555.8886 0.09 1
  556.0301 0.19 2
  556.2535 0.27 3
  556.4661 0.30 3
  556.6439 0.32 3
  557.0878 0.39 4
  557.3519 0.30 3
  557.6131 0.19 2
  557.8293 0.35 3
  557.9556 0.19 2
  558.2908 0.26 3
  558.7232 0.29 3
  559.0222 0.22 2
  559.4096 0.23 2
  559.7819 0.34 3
  560.0997 0.25 2
  560.4189 0.41 4
  560.8159 0.35 3
  561.4435 0.37 4
  562.1852 0.47 5
  562.9254 0.52 5
  563.3659 0.26 3
  563.6758 0.19 2
  564.0118 0.27 3
  564.4110 0.25 2
  564.7441 0.31 3
  565.1085 0.20 2
  565.5977 0.17 2
  566.4664 0.30 3
  567.0317 0.31 3
  567.5008 0.36 4
  568.4716 7.78 78
  569.4547 4.00 40
  570.4408 11.19 112
  571.0635 0.18 2
  571.2807 0.33 3
  571.4400 0.19 2
  571.7499 0.17 2
  571.9642 0.03 0
  572.1271 0.20 2
  572.3103 0.14 1
  572.4986 0.14 1
  572.7563 0.16 2
  572.9975 0.07 1
  573.2610 0.07 1
  573.4703 0.08 1
  573.6289 0.08 1
  573.7513 0.05 0
  574.1133 0.03 0
  574.3683 0.03 0
  574.6181 0.10 1
  575.0004 0.12 1
  575.1917 0.03 0
  575.4053 0.06 1
  575.4987 0.03 0
  575.7283 0.03 0
  575.8347 0.04 0
  576.1954 0.08 1
  576.4829 0.03 0
  576.6995 0.11 1
  576.8291 0.05 0
  576.9768 0.20 2
  577.1043 0.17 2
  577.3231 0.18 2
  577.4788 0.14 1
  577.7083 0.15 1
  578.0574 0.22 2
  578.2661 0.08 1
  578.4370 0.17 2
  578.5377 0.08 1
  578.7600 0.25 2
  579.0591 0.22 2
  579.5662 0.21 2
  580.2761 0.31 3
  581.0511 0.37 4
  581.3235 0.32 3
  581.6010 0.37 4
  581.9646 0.38 4
  582.4753 1.06 11
  582.7709 0.66 7
  583.1360 0.45 4
  583.4838 0.62 6
  583.8460 0.70 7
  584.4575 1.88 19
  584.8886 0.61 6
  585.4537 3.65 36
  586.4478 1.10 11
  586.9275 0.49 5
  587.7949 0.53 5
  588.3057 0.56 6
  588.8456 0.79 8
  589.2920 0.64 6
  589.6239 0.57 6
  590.5946 0.67 7
  591.4362 0.99 10
  591.7948 0.63 6
  592.6785 0.84 8
  593.2587 0.86 9
  593.8998 0.97 10
  600.4233 99.97 999
  601.5176 20.45 204
  602.0864 10.86 109
  602.9271 5.04 50
  603.8235 2.60 26
  604.5193 1.28 13
  605.3187 0.85 8
  605.5927 0.60 6
  606.3153 0.43 4
  607.0648 0.34 3
  607.3286 0.40 4
  607.5598 0.26 3
  607.8635 0.26 3
  608.0832 0.18 2
  608.2615 0.18 2
  608.4797 0.10 1
  608.6406 0.20 2
  609.1589 0.16 2
  609.2756 0.08 1
  609.6939 0.16 2
  610.1506 0.10 1
  610.4050 0.04 0
  610.6008 0.04 0
  610.7262 0.07 1
  610.9321 0.07 1
  611.1097 0.06 1
  611.4569 0.05 0
  611.6223 0.07 1
  611.7498 0.07 1
//
