ACCESSION: MSBNK-Kyoto_Univ-CA000096
RECORD_TITLE: Cyclopyrroxanthin; FAB-EBEB; MS2; m/z: 612.35; [M]+*
DATE: 2016.01.19 (Created 2010.04.01, modified 2011.05.10)
AUTHORS: Akimoto N, Graduate School of Pharmaceutical Sciences, Kyoto University and Maoka T, Research Institute for Production Development
LICENSE: CC BY-SA
PUBLICATION: Takashi Maoka, Yasuhiro Fujiwara, Keiji Hashimoto, and Naoshige Akimoto, Structure of New Carotenoids from the Corbicula clam Corbicula japonica, J. Nat. Prod ., 68, 1341-1344 (2005).  Takashi Maoka, Yasuhiro Fujiwara, Keiji Hashimoto, and Naoshige Akimoto, Carotenoids in Three Species of Corbicula Clams, Corbicula japonica, Corbicula sandai, and Corbicula sp. (Chinese Freshwater Corbicula Clam), J. Agric. Food Chem., 53, 8357-8364 (2005).
COMMENT: Profile spectrum of this record is given as a JPEG file.
COMMENT: [Profile] CA000096.jpg
CH$NAME: Cyclopyrroxanthin
CH$COMPOUND_CLASS: N/A
CH$FORMULA: C39H48O6
CH$EXACT_MASS: 612.34509
CH$SMILES: C(C4)(O1)CC(C(C4(C)O)1C=Cc(c2)c(oc(=CC(=CC=CC=CC=C(C#CC(=C3C)C(C)(C)CC(C3)OC(C)=O)C)C)2)=O)(C)C
CH$IUPAC: InChI=1S/C39H48O6/c1-26(16-17-34-28(3)21-32(43-29(4)40)23-36(34,5)6)14-12-10-11-13-15-27(2)20-31-22-30(35(41)44-31)18-19-39-37(7,8)24-33(45-39)25-38(39,9)42/h10-15,18-20,22,32-33,42H,21,23-25H2,1-9H3/b12-10+,13-11+,19-18+,26-14+,27-15+,31-20-/t32-,33+,38-,39-/m1/s1
CH$LINK: INCHIKEY GRBTZPLUNSWVPO-YOZNXODWSA-N
AC$INSTRUMENT: JMS-HX/HX 110A, JEOL
AC$INSTRUMENT_TYPE: FAB-EBEB
AC$MASS_SPECTROMETRY: MS_TYPE MS2
AC$MASS_SPECTROMETRY: ION_MODE POSITIVE
AC$MASS_SPECTROMETRY: ATOM_GUN_CURRENT 5 mA
AC$MASS_SPECTROMETRY: BOMBARDMENT 6 kV xenon
AC$MASS_SPECTROMETRY: COLLISION_ENERGY 3 kV
AC$MASS_SPECTROMETRY: COLLISION_GAS Ar
AC$MASS_SPECTROMETRY: GAS_PRESSURE adjust to attenuate the intensity of the precursor ion by 30 %
AC$MASS_SPECTROMETRY: IONIZATION FAB
AC$MASS_SPECTROMETRY: MATRIX 1-2 uL m-NBA
AC$MASS_SPECTROMETRY: PROBE_TIP stainless-steel
MS$FOCUSED_ION: BASE_PEAK 42.9621
MS$FOCUSED_ION: PRECURSOR_M/Z 612.35
MS$FOCUSED_ION: PRECURSOR_TYPE [M]+*
MS$DATA_PROCESSING: RELATIVE_M/Z normalised by peak(m/z=42.9621).  set 999 for peak(m/z=612.3654,rel=1765).
PK$SPLASH: splash10-03dl-4952123000-386f0826b2422bf8635d
PK$NUM_PEAK: 1933
PK$PEAK: m/z int. rel.int.
  0.0097 0.01 0
  0.0481 0.02 0
  0.1127 0.02 0
  0.1743 0.05 1
  0.2047 0.06 1
  0.2628 0.01 0
  0.8077 0.02 0
  0.8662 0.01 0
  0.9139 0.01 0
  0.9611 0.01 0
  1.1514 0.01 0
  2.7425 0.01 0
  3.0523 0.01 0
  3.4515 0.01 0
  5.7623 0.04 1
  6.2376 0.01 0
  6.3251 0.02 0
  7.4750 0.04 1
  8.6955 0.10 2
  10.4072 0.02 0
  10.4459 0.02 0
  10.7233 0.07 1
  11.7075 0.01 0
  12.9881 0.05 1
  13.3800 0.01 0
  13.9861 0.11 2
  14.8973 0.01 0
  14.9943 0.40 7
  15.3558 0.04 1
  18.5690 0.01 0
  18.9852 0.02 0
  19.0510 0.10 2
  20.8429 0.06 1
  22.9486 0.45 8
  23.4420 0.01 0
  24.2096 0.01 0
  24.7356 0.01 0
  24.9451 0.05 1
  25.3416 0.05 1
  25.6198 0.01 0
  25.9654 0.29 5
  26.9780 1.53 27
  27.9860 0.25 4
  28.9830 0.97 17
  29.6507 0.01 0
  29.9346 0.01 0
  30.0575 0.01 0
  30.5936 0.01 0
  30.9744 0.11 2
  32.4154 0.01 0
  33.0602 0.01 0
  33.5007 0.02 0
  34.8239 0.02 0
  36.5978 0.05 1
  36.9534 0.29 5
  37.9649 0.61 11
  38.3993 0.02 0
  38.9661 4.49 79
  39.2187 0.01 0
  39.4685 0.03 1
  39.9666 0.50 9
  40.9809 8.60 152
  41.3263 0.02 0
  41.6562 0.06 1
  41.7905 0.08 1
  41.9804 0.63 11
  42.4375 0.01 0
  42.9621 56.58 999
  43.3164 0.04 1
  43.6914 0.01 0
  43.8668 0.01 0
  43.9825 0.24 4
  44.9656 0.32 6
  47.1131 0.04 1
  47.9531 0.05 1
  48.2299 0.01 0
  48.9489 0.10 2
  49.2090 0.01 0
  49.3980 0.01 0
  49.9646 1.57 28
  50.6860 0.09 2
  50.9670 3.71 66
  51.1585 0.01 0
  51.3832 0.02 0
  51.9700 1.31 23
  52.9777 4.06 72
  53.6454 0.01 0
  53.9820 0.26 5
  54.1741 0.01 0
  54.4651 0.01 0
  54.9869 12.95 229
  55.9912 0.40 7
  57.0067 1.99 35
  57.9778 0.42 7
  58.2690 0.02 0
  58.9901 0.50 9
  60.7574 0.01 0
  60.9605 0.42 7
  61.9679 1.28 23
  62.1871 0.05 1
  62.5184 0.02 0
  62.9686 2.92 52
  63.1570 0.04 1
  63.3208 0.02 0
  63.4818 0.04 1
  63.5678 0.05 1
  63.6894 0.08 1
  63.7743 0.02 0
  63.9662 0.67 12
  64.2008 0.02 0
  64.6588 0.02 0
  64.9823 3.87 68
  65.9804 0.87 15
  66.1415 0.02 0
  66.3370 0.07 1
  66.4131 0.01 0
  66.5963 0.02 0
  66.9859 5.40 95
  67.2636 0.02 0
  67.9920 0.62 11
  68.9864 9.40 166
  69.2599 0.02 0
  69.6506 0.01 0
  69.9845 1.43 25
  70.9770 1.86 33
  71.8095 0.04 1
  71.9795 0.06 1
  72.9345 0.16 3
  73.6558 0.01 0
  73.9509 0.82 14
  74.9637 1.49 26
  75.3358 0.02 0
  75.4823 0.01 0
  75.5521 0.01 0
  75.9687 0.84 15
  76.2643 0.09 2
  76.3977 0.02 0
  76.4938 0.02 0
  76.5786 0.03 1
  76.9698 10.17 180
  77.2230 0.12 2
  77.3514 0.02 0
  77.4579 0.03 1
  77.9693 2.15 38
  78.9660 9.23 163
  79.4792 0.02 0
  79.9705 1.00 18
  80.4829 0.02 0
  80.9918 6.59 116
  81.2535 0.02 0
  81.5587 0.03 1
  81.6461 0.01 0
  81.9631 0.48 8
  82.3903 0.09 2
  82.6198 0.04 1
  83.0000 10.30 182
  83.8629 0.13 2
  84.0278 0.26 5
  84.9783 1.55 27
  85.9714 0.66 12
  86.9616 1.04 18
  87.9691 0.46 8
  88.1426 0.01 0
  88.4965 0.05 1
  88.5947 0.04 1
  88.7274 0.08 1
  88.9712 2.01 35
  89.3118 0.08 1
  89.5554 0.05 1
  89.6427 0.04 1
  89.9561 0.66 12
  90.3752 0.04 1
  90.5485 0.10 2
  90.9786 14.36 254
  91.2998 0.06 1
  91.7147 0.07 1
  91.9869 1.14 20
  92.2742 0.05 1
  92.5258 0.06 1
  92.9939 7.49 132
  93.2471 0.06 1
  93.4055 0.03 1
  93.5148 0.05 1
  93.9703 0.59 10
  94.9869 7.03 124
  95.3479 0.02 0
  95.4576 0.04 1
  95.9774 0.50 9
  96.3315 0.05 1
  96.9918 1.51 27
  97.2753 0.02 0
  97.9695 1.05 19
  98.2405 0.01 0
  98.9757 0.39 7
  99.3114 0.04 1
  99.9544 0.08 1
  100.0356 0.04 1
  100.6651 0.05 1
  100.9862 0.49 9
  101.2292 0.04 1
  101.5828 0.08 1
  101.9872 1.62 29
  102.2124 0.03 1
  102.7287 0.06 1
  102.9966 3.67 65
  103.3471 0.07 1
  103.9877 1.41 25
  104.3521 0.04 1
  104.5700 0.06 1
  104.6603 0.02 0
  104.9997 15.46 273
  105.2357 0.06 1
  105.3407 0.04 1
  105.5896 0.01 0
  105.7456 0.06 1
  106.0016 0.91 16
  106.4975 0.14 2
  106.6270 0.09 2
  106.9990 6.21 110
  107.2409 0.04 1
  107.3942 0.05 1
  107.5852 0.08 1
  107.9886 1.60 28
  108.4005 0.07 1
  108.6056 0.03 1
  109.0050 3.74 66
  109.5006 0.08 1
  109.9838 0.43 8
  110.2541 0.04 1
  110.6803 0.08 1
  111.0009 2.19 39
  111.3577 0.01 0
  111.9761 0.29 5
  112.3064 0.01 0
  112.4344 0.03 1
  112.6556 0.05 1
  113.0095 0.98 17
  113.2412 0.09 2
  113.3719 0.07 1
  113.5678 0.14 2
  113.9667 0.61 11
  114.2607 0.15 3
  114.4826 0.09 2
  114.9854 9.98 176
  115.2534 0.06 1
  115.3445 0.09 2
  115.4731 0.04 1
  115.9967 2.98 53
  116.3008 0.09 2
  116.5001 0.18 3
  116.9890 5.68 100
  117.2760 0.09 2
  117.6598 0.03 1
  117.9977 1.46 26
  118.5370 0.14 2
  118.9917 10.39 183
  119.4389 0.13 2
  119.5696 0.11 2
  119.6886 0.06 1
  119.9801 1.15 20
  120.3439 0.10 2
  120.6924 0.09 2
  120.9849 8.20 145
  121.4302 0.09 2
  121.5228 0.18 3
  121.6859 0.14 2
  121.9964 3.08 54
  122.2654 0.05 1
  122.3725 0.05 1
  122.9644 2.58 46
  123.4187 0.11 2
  123.9853 0.27 5
  124.2302 0.06 1
  124.3493 0.11 2
  124.5281 0.07 1
  124.9652 4.53 80
  125.2241 0.09 2
  125.3572 0.05 1
  125.4687 0.10 2
  125.6635 0.06 1
  125.9752 0.78 14
  126.3310 0.05 1
  126.4322 0.10 2
  126.5616 0.05 1
  126.9656 4.15 73
  127.2812 0.14 2
  127.9666 11.92 210
  128.2437 0.07 1
  128.5736 0.09 2
  128.9715 11.23 198
  129.2562 0.05 1
  129.3683 0.09 2
  129.5918 0.09 2
  129.9725 3.96 70
  130.3044 0.04 1
  130.4325 0.04 1
  130.6412 0.16 3
  130.9813 8.16 144
  131.2549 0.10 2
  131.4724 0.14 2
  131.7117 0.12 2
  131.9710 2.18 38
  132.3343 0.05 1
  132.9824 5.01 88
  133.2673 0.12 2
  133.4257 0.09 2
  133.6842 0.06 1
  133.9560 0.78 14
  134.6334 0.03 1
  134.9673 2.98 53
  135.3272 0.03 1
  135.9272 0.81 14
  136.5024 0.09 2
  136.9555 1.36 24
  137.2843 0.02 0
  137.5034 0.04 1
  137.5860 0.04 1
  137.9545 0.71 13
  138.2352 0.04 1
  138.4600 0.10 2
  138.5994 0.05 1
  138.9724 2.84 50
  139.3102 0.09 2
  139.4170 0.14 2
  139.9206 0.68 12
  140.3610 0.17 3
  140.5850 0.17 3
  140.9702 9.85 174
  141.3736 0.17 3
  141.5014 0.03 1
  141.9727 6.35 112
  142.3679 0.09 2
  142.5461 0.12 2
  142.9865 9.32 165
  143.3264 0.05 1
  143.5297 0.11 2
  143.9805 1.97 35
  144.4115 0.01 0
  144.5659 0.10 2
  144.9783 7.13 126
  145.5603 0.09 2
  145.9651 2.04 36
  146.4985 0.08 1
  146.9845 3.66 65
  147.2282 0.10 2
  147.3871 0.12 2
  147.9530 0.98 17
  148.2388 0.04 1
  148.4087 0.03 1
  148.5975 0.04 1
  148.9624 5.23 92
  149.2849 0.10 2
  149.5663 0.17 3
  149.9714 1.45 26
  150.2618 0.23 4
  150.4725 0.05 1
  150.9618 2.45 43
  151.4201 0.17 3
  151.9802 7.08 125
  152.1886 0.39 7
  152.3361 0.10 2
  152.5074 0.26 5
  152.9813 6.97 123
  153.5544 0.16 3
  153.9916 3.62 64
  154.3984 0.10 2
  154.6358 0.11 2
  154.9940 10.51 186
  155.4908 0.19 3
  155.9993 4.79 85
  156.2615 0.15 3
  156.4755 0.14 2
  156.5727 0.10 2
  157.0117 10.28 182
  157.3040 0.04 1
  157.4809 0.04 1
  158.0162 1.82 32
  158.2407 0.16 3
  158.4994 0.21 4
  158.6539 0.13 2
  159.0168 4.75 84
  159.5931 0.15 3
  160.0006 1.11 20
  160.2651 0.04 1
  160.4062 0.22 4
  160.7349 0.09 2
  161.0132 2.82 50
  161.5120 0.03 1
  161.6348 0.10 2
  161.9687 0.46 8
  162.1100 0.26 5
  162.2131 0.10 2
  162.3217 0.02 0
  162.5327 0.13 2
  162.6646 0.14 2
  163.0096 2.94 52
  163.4108 0.07 1
  163.6665 0.24 4
  164.0112 0.74 13
  164.2430 0.24 4
  164.4127 0.30 5
  165.0074 12.00 212
  165.3462 0.14 2
  165.5078 0.08 1
  165.6414 0.11 2
  166.0188 4.23 75
  166.4785 0.10 2
  166.6252 0.11 2
  167.0235 6.96 123
  167.2936 0.09 2
  167.4329 0.08 1
  168.0359 4.10 72
  168.2877 0.18 3
  168.5348 0.20 4
  168.6357 0.09 2
  169.0463 7.97 141
  169.3382 0.26 5
  169.4612 0.09 2
  169.5505 0.09 2
  170.0541 2.95 52
  170.3902 0.04 1
  170.6364 0.06 1
  171.0517 4.69 83
  171.4165 0.17 3
  171.6642 0.22 4
  172.0401 1.38 24
  172.3091 0.12 2
  172.4848 0.18 3
  172.5658 0.08 1
  173.0451 5.67 100
  173.3314 0.10 2
  173.4242 0.08 1
  173.5753 0.10 2
  174.0418 0.74 13
  174.3126 0.10 2
  174.4350 0.06 1
  174.5463 0.08 1
  175.0318 1.96 35
  175.2766 0.12 2
  175.5800 0.16 3
  176.0176 1.97 35
  176.2110 0.13 2
  176.3700 0.04 1
  176.4691 0.09 2
  176.6406 0.13 2
  177.0179 3.68 65
  177.3981 0.21 4
  177.5435 0.14 2
  178.0279 7.24 128
  178.4270 0.09 2
  178.5573 0.14 2
  179.0276 9.48 167
  179.2697 0.12 2
  179.5436 0.02 0
  180.0315 4.16 73
  180.2730 0.20 4
  180.4422 0.17 3
  180.5692 0.13 2
  181.0388 10.90 192
  181.3220 0.07 1
  181.4360 0.06 1
  181.5907 0.04 1
  182.0440 3.69 65
  182.4829 0.03 1
  182.6675 0.31 5
  183.0486 7.95 140
  183.5473 0.05 1
  183.7023 0.09 2
  184.0303 1.38 24
  184.3521 0.05 1
  184.6165 0.16 3
  185.0403 3.68 65
  185.3963 0.09 2
  185.6020 0.13 2
  185.6748 0.04 1
  186.0233 1.42 25
  186.2651 0.05 1
  186.3636 0.09 2
  186.5264 0.07 1
  187.0173 2.98 53
  187.4355 0.04 1
  187.6373 0.08 1
  187.9911 0.69 12
  188.1361 0.28 5
  188.3409 0.23 4
  188.4984 0.12 2
  189.0058 4.82 85
  189.4495 0.20 4
  190.0017 2.02 36
  190.5409 0.37 7
  191.0184 6.40 113
  191.5253 0.21 4
  192.0204 3.94 70
  192.3091 0.14 2
  192.5109 0.19 3
  193.0259 8.13 144
  193.3314 0.13 2
  193.5765 0.17 3
  194.0319 4.25 75
  194.4031 0.15 3
  194.5181 0.10 2
  195.0378 8.40 148
  195.3459 0.13 2
  195.4560 0.09 2
  195.6449 0.10 2
  196.0471 2.40 42
  196.2835 0.17 3
  196.4962 0.04 1
  197.0222 5.49 97
  197.4618 0.21 4
  197.6481 0.28 5
  198.0320 2.20 39
  198.5116 0.10 2
  199.0431 5.57 98
  199.4950 0.32 6
  200.0072 1.54 27
  200.3042 0.18 3
  200.5552 0.21 4
  201.0068 2.09 37
  201.4607 0.19 3
  201.9895 5.13 91
  202.3890 0.20 4
  203.0147 5.50 97
  203.3662 0.05 1
  203.5720 0.18 3
  204.0314 1.74 31
  204.3767 0.09 2
  204.6437 0.18 3
  205.0297 4.87 86
  205.2904 0.10 2
  205.4573 0.10 2
  205.6017 0.10 2
  206.0412 2.85 50
  206.3231 0.11 2
  206.5573 0.16 3
  207.0392 5.76 102
  207.4595 0.13 2
  208.0265 2.42 43
  208.3606 0.13 2
  208.6098 0.17 3
  209.0501 8.35 147
  209.5726 0.22 4
  209.6738 0.29 5
  209.7602 0.13 2
  210.0721 2.03 36
  210.4424 0.09 2
  210.6202 0.17 3
  211.0616 5.28 93
  211.5580 0.18 3
  212.0502 1.46 26
  212.2620 0.24 4
  212.6425 0.21 4
  213.0372 2.80 49
  213.3785 0.14 2
  213.5763 0.03 1
  214.0212 1.08 19
  214.2852 0.17 3
  214.4274 0.25 4
  215.0126 5.33 94
  215.3423 0.08 1
  215.4515 0.12 2
  215.5959 0.28 5
  216.0229 2.14 38
  216.2836 0.14 2
  216.5247 0.16 3
  217.0393 4.30 76
  217.3855 0.12 2
  217.5900 0.08 1
  218.0251 2.34 41
  218.3941 0.15 3
  218.5062 0.10 2
  218.6474 0.09 2
  219.0460 4.95 87
  219.4158 0.15 3
  219.5224 0.11 2
  220.0709 2.45 43
  220.4459 0.13 2
  220.6231 0.16 3
  221.0730 4.50 79
  221.3033 0.32 6
  221.4679 0.18 3
  221.6650 0.13 2
  222.0699 1.66 29
  222.3787 0.09 2
  222.5328 0.14 2
  223.0707 4.29 76
  223.4511 0.09 2
  224.0784 1.68 30
  224.3479 0.19 3
  224.4930 0.17 3
  224.5991 0.08 1
  225.0738 3.34 59
  225.4192 0.10 2
  225.5437 0.26 5
  226.0661 2.61 46
  226.3068 0.19 3
  226.3925 0.07 1
  226.5525 0.15 3
  227.0581 2.56 45
  227.5717 0.21 4
  228.0577 2.32 41
  228.4396 0.07 1
  228.5374 0.06 1
  229.0768 3.70 65
  229.3950 0.15 3
  229.5673 0.20 4
  230.0552 2.02 36
  230.5147 0.29 5
  230.6991 0.20 4
  231.0872 4.96 88
  231.3575 0.19 3
  231.4426 0.08 1
  231.5824 0.19 3
  232.1083 1.84 32
  232.3950 0.20 4
  232.5732 0.15 3
  232.7826 0.33 6
  233.1049 4.53 80
  233.4110 0.20 4
  234.1013 2.03 36
  234.3706 0.15 3
  234.5115 0.16 3
  234.7169 0.12 2
  235.1031 3.24 57
  235.4864 0.18 3
  236.0796 1.41 25
  236.4631 0.04 1
  236.6247 0.10 2
  236.7729 0.24 4
  237.1033 3.09 55
  237.6366 0.08 1
  238.0891 1.43 25
  238.2955 0.34 6
  238.3991 0.12 2
  238.4970 0.05 1
  238.6502 0.07 1
  239.0845 3.93 69
  239.3840 0.19 3
  239.5635 0.32 6
  240.0611 0.94 17
  240.3437 0.10 2
  241.0679 2.48 44
  241.5033 0.08 1
  241.6248 0.10 2
  242.0936 2.05 36
  242.3657 0.08 1
  243.0813 3.78 67
  243.3919 0.05 1
  244.0722 1.49 26
  244.5380 0.07 1
  245.0749 3.93 69
  245.4732 0.11 2
  246.0800 1.86 33
  246.6251 0.19 3
  247.0998 3.63 64
  247.5945 0.45 8
  248.0815 1.11 20
  248.4902 0.12 2
  248.6811 0.33 6
  249.1084 2.81 50
  249.5444 0.14 2
  249.7723 0.14 2
  250.1058 1.52 27
  250.3858 0.23 4
  250.6174 0.21 4
  251.0857 2.46 43
  251.6295 0.18 3
  252.0780 1.96 35
  252.3219 0.23 4
  252.6064 0.17 3
  252.7768 0.16 3
  253.0942 2.66 47
  253.4602 0.27 5
  253.6064 0.04 1
  254.0787 0.94 17
  254.2635 0.19 3
  254.3812 0.10 2
  254.4890 0.07 1
  254.6224 0.14 2
  255.0706 2.67 47
  255.3990 0.07 1
  255.7231 0.21 4
  256.0922 0.93 16
  256.5320 0.18 3
  257.0826 2.71 48
  257.4212 0.21 4
  258.1042 1.27 22
  258.3871 0.07 1
  258.4850 0.05 1
  259.1082 3.17 56
  259.5134 0.17 3
  260.0910 1.39 25
  260.4306 0.24 4
  260.5715 0.18 3
  260.6673 0.11 2
  261.1170 3.14 55
  261.4861 0.13 2
  261.7020 0.21 4
  262.1040 1.37 24
  262.3329 0.23 4
  262.4659 0.17 3
  262.6305 0.09 2
  262.7779 0.09 2
  263.0948 1.79 32
  263.4519 0.10 2
  264.1088 0.52 9
  264.5905 0.20 4
  265.0659 1.51 27
  266.0734 1.07 19
  266.4551 0.11 2
  266.5647 0.03 1
  267.1063 1.95 34
  267.4129 0.09 2
  268.0678 1.13 20
  268.4075 0.03 1
  268.6154 0.29 5
  268.7795 0.15 3
  269.0956 2.59 46
  269.3730 0.07 1
  269.6189 0.28 5
  270.0965 0.95 17
  270.5102 0.01 0
  271.1184 3.06 54
  271.5574 0.19 3
  272.1098 0.88 16
  272.4355 0.05 1
  272.6099 0.15 3
  272.7757 0.28 5
  273.1015 2.30 41
  273.6276 0.17 3
  273.7108 0.06 1
  274.1179 0.85 15
  274.5680 0.18 3
  275.1331 3.16 56
  275.4182 0.12 2
  276.1171 1.13 20
  276.6451 1.65 29
  277.1379 2.82 50
  277.4656 0.18 3
  277.5741 0.15 3
  277.7228 0.13 2
  278.1066 0.65 11
  278.3107 0.25 4
  278.5127 0.14 2
  279.1144 1.54 27
  279.4223 0.17 3
  279.5895 0.13 2
  279.7767 0.13 2
  280.1297 0.77 14
  280.4260 0.08 1
  281.1042 2.23 39
  281.6044 0.17 3
  281.8090 0.16 3
  282.1205 0.79 14
  282.3804 0.13 2
  282.8011 0.29 5
  283.1516 2.27 40
  283.4754 0.09 2
  283.6363 0.10 2
  283.7526 0.03 1
  284.1254 1.11 20
  284.4924 0.12 2
  284.7345 0.15 3
  285.1253 2.04 36
  285.4214 0.06 1
  285.6010 0.07 1
  286.1097 0.88 16
  286.4102 0.07 1
  287.1318 2.04 36
  287.4021 0.20 4
  287.5135 0.10 2
  287.6832 0.15 3
  288.1067 0.82 14
  288.5021 0.13 2
  288.6380 0.19 3
  289.1242 2.14 38
  289.4838 0.10 2
  289.6715 0.21 4
  290.0636 1.17 21
  290.1924 0.82 14
  290.4693 0.15 3
  290.6377 0.10 2
  291.1262 1.59 28
  291.4832 0.13 2
  292.0791 0.77 14
  292.4908 0.12 2
  292.5721 0.09 2
  292.7845 0.16 3
  293.1185 1.26 22
  293.3928 0.27 5
  294.0811 0.63 11
  294.6241 0.12 2
  295.1132 1.54 27
  295.4150 0.11 2
  295.7716 0.09 2
  296.1280 0.89 16
  296.3000 0.31 5
  296.3835 0.15 3
  296.5605 0.16 3
  297.1407 1.74 31
  297.4222 0.10 2
  297.6958 0.15 3
  298.1926 0.74 13
  298.3841 0.22 4
  298.6405 0.27 5
  299.1288 2.12 37
  299.4572 0.17 3
  299.6653 0.01 0
  299.8296 0.24 4
  300.1422 0.61 11
  300.4686 0.05 1
  301.1206 1.76 31
  301.4644 0.24 4
  301.6697 0.30 5
  301.7713 0.13 2
  302.1295 2.41 43
  302.4769 0.12 2
  303.1055 2.79 49
  303.5034 0.13 2
  303.7846 0.07 1
  304.1358 0.79 14
  304.2656 0.27 5
  304.4307 0.07 1
  304.6117 0.13 2
  304.7848 0.11 2
  305.0891 0.77 14
  305.6532 0.14 2
  306.0802 0.98 17
  306.5289 0.10 2
  307.1198 1.22 22
  307.4438 0.04 1
  307.5716 0.14 2
  307.9122 0.17 3
  308.1597 0.62 11
  308.5725 0.10 2
  308.7617 0.11 2
  309.1125 1.49 26
  309.4691 0.11 2
  309.7507 0.17 3
  309.8799 0.35 6
  310.1449 0.73 13
  310.3730 0.19 3
  310.4944 0.09 2
  311.1313 1.56 28
  311.3061 0.55 10
  311.5567 0.14 2
  311.7127 0.11 2
  312.1035 0.79 14
  312.5976 0.05 1
  312.7796 0.12 2
  313.1380 1.60 28
  313.7912 0.19 3
  314.1062 0.93 16
  314.3144 0.11 2
  314.5594 0.12 2
  315.1079 2.78 49
  315.3812 0.09 2
  315.6349 0.10 2
  316.0274 0.54 10
  316.1887 0.29 5
  316.5726 0.11 2
  317.1388 1.39 25
  317.4692 0.16 3
  317.6348 0.05 1
  318.1028 0.75 13
  318.2619 0.47 8
  318.4557 0.12 2
  318.6026 0.08 1
  319.1277 1.08 19
  319.4924 0.09 2
  320.1493 0.53 9
  320.3302 0.39 7
  320.6045 0.03 1
  320.7456 0.07 1
  321.1443 1.11 20
  321.6821 0.03 1
  322.1309 0.54 10
  322.3306 0.12 2
  322.6499 0.06 1
  323.0937 1.17 21
  323.3905 0.10 2
  323.7337 0.09 2
  324.1226 0.63 11
  324.4637 0.15 3
  324.7946 0.21 4
  325.1387 1.48 26
  325.6392 0.06 1
  326.1158 1.39 25
  326.4259 0.09 2
  326.6020 0.08 1
  326.7353 0.13 2
  327.1432 1.88 33
  327.4070 0.23 4
  328.1207 3.96 70
  328.5773 0.13 2
  329.0666 0.99 17
  329.2326 0.49 9
  329.3848 0.06 1
  329.4653 0.03 1
  329.5878 0.04 1
  329.7538 0.15 3
  330.0467 0.29 5
  330.2402 0.16 3
  330.5520 0.09 2
  330.7028 0.09 2
  330.8254 0.15 3
  331.1408 0.70 12
  331.4519 0.13 2
  331.6941 0.15 3
  331.9081 0.10 2
  332.0661 0.15 3
  332.2482 0.07 1
  332.6696 0.03 1
  333.1266 0.84 15
  333.3754 0.11 2
  333.5495 0.21 4
  333.7621 0.14 2
  334.0929 0.35 6
  334.2583 0.26 5
  334.5225 0.05 1
  334.6647 0.02 0
  335.1559 0.89 16
  335.5340 0.11 2
  335.8512 0.18 3
  336.1023 0.64 11
  336.4594 0.05 1
  336.7556 0.06 1
  336.8615 0.07 1
  337.1839 1.17 21
  337.5258 0.04 1
  338.0202 0.81 14
  338.2635 0.38 7
  338.6084 0.08 1
  339.1501 2.40 42
  339.4980 0.15 3
  339.6142 0.08 1
  339.8059 0.12 2
  340.1531 1.45 26
  340.4233 0.21 4
  340.6709 0.16 3
  340.7898 0.12 2
  341.1255 2.05 36
  341.2647 1.16 20
  341.4359 0.15 3
  341.6360 0.10 2
  341.7462 0.06 1
  342.1676 0.92 16
  342.5084 0.09 2
  342.7289 0.14 2
  343.1380 0.74 13
  343.3745 0.35 6
  343.7989 0.12 2
  344.1427 0.28 5
  344.3887 0.08 1
  344.7108 0.07 1
  345.1295 0.54 10
  345.3283 0.25 4
  345.5648 0.03 1
  345.9509 0.10 2
  346.1803 0.13 2
  346.4365 0.04 1
  346.9692 0.18 3
  347.1492 0.43 8
  347.2668 0.43 8
  347.4178 0.09 2
  347.6776 0.03 1
  348.0370 0.17 3
  348.1967 0.27 5
  348.5800 0.07 1
  348.7390 0.08 1
  348.8429 0.05 1
  349.2030 0.46 8
  349.5610 0.09 2
  349.7142 0.03 1
  349.8602 0.09 2
  350.1572 0.48 8
  350.4005 0.17 3
  350.6307 0.10 2
  350.8268 0.06 1
  351.1319 0.94 17
  351.2576 0.48 8
  351.5750 0.07 1
  352.1402 1.49 26
  352.3799 0.18 3
  352.6538 0.22 4
  353.1261 1.45 26
  353.5671 0.12 2
  354.1492 1.65 29
  354.4937 0.14 2
  354.7204 0.09 2
  355.1187 0.71 13
  355.8783 0.09 2
  356.1559 0.36 6
  356.3457 0.09 2
  356.5551 0.03 1
  356.7157 0.10 2
  357.1214 0.51 9
  357.3562 0.11 2
  357.6616 0.01 0
  357.8165 0.22 4
  358.1655 0.34 6
  358.3037 0.11 2
  358.5081 0.11 2
  358.7866 0.16 3
  358.8979 0.09 2
  359.1415 0.61 11
  359.2659 0.15 3
  359.3837 0.20 4
  359.6106 0.16 3
  359.7299 0.11 2
  359.8695 0.09 2
  360.1983 0.25 4
  360.9571 0.23 4
  361.1979 0.72 13
  361.3856 0.08 1
  361.5755 0.11 2
  361.8527 0.20 4
  362.0113 0.14 2
  362.1844 0.27 5
  362.3860 0.09 2
  362.4733 0.04 1
  362.8386 0.09 2
  363.1763 0.70 12
  363.4354 0.10 2
  363.6697 0.10 2
  363.8640 0.15 3
  364.1807 0.45 8
  364.3044 0.14 2
  364.5213 0.05 1
  364.6785 0.07 1
  364.7979 0.05 1
  365.1728 0.93 16
  365.4276 0.10 2
  365.7407 0.10 2
  366.1272 0.60 11
  366.3879 0.25 4
  366.5757 0.14 2
  366.7672 0.04 1
  367.1663 0.84 15
  367.3039 0.51 9
  367.5916 0.04 1
  367.7503 0.11 2
  368.0911 0.35 6
  368.1982 0.11 2
  368.3679 0.25 4
  368.4473 0.08 1
  368.6488 0.10 2
  368.8743 0.34 6
  369.1943 1.19 21
  369.5194 0.10 2
  369.7427 0.19 3
  369.9609 0.09 2
  370.2126 0.32 6
  370.6142 0.11 2
  370.7742 0.02 0
  371.1787 0.36 6
  371.5658 0.08 1
  371.8110 0.09 2
  371.9580 0.09 2
  372.2432 0.24 4
  372.4928 0.09 2
  372.8203 0.03 1
  372.9308 0.07 1
  373.2227 0.32 6
  373.4701 0.06 1
  373.8507 0.11 2
  374.2088 0.12 2
  374.6208 0.02 0
  375.0081 0.16 3
  375.2032 0.26 5
  375.5875 0.10 2
  375.6865 0.05 1
  376.0236 0.20 4
  376.1219 0.11 2
  376.2974 0.15 3
  376.7568 0.14 2
  377.0415 0.26 5
  377.2592 0.77 14
  377.4391 0.16 3
  377.5680 0.08 1
  377.8243 0.02 0
  378.0515 0.47 8
  378.2678 0.73 13
  378.7674 0.18 3
  379.1818 0.76 13
  379.3967 0.21 4
  379.5045 0.09 2
  379.9095 0.11 2
  380.1768 0.50 9
  380.5695 0.21 4
  381.1654 0.67 12
  381.7621 0.07 1
  381.9283 0.19 3
  382.2693 0.41 7
  382.4500 0.25 4
  382.6504 0.14 2
  382.8304 0.09 2
  383.2180 1.03 18
  383.5724 0.08 1
  383.7086 0.14 2
  383.9975 0.24 4
  384.1933 1.00 18
  384.3185 0.57 10
  384.6147 0.05 1
  384.6956 0.03 1
  384.8601 0.05 1
  385.2080 0.69 12
  385.3551 0.29 5
  385.5436 0.09 2
  385.8465 0.09 2
  385.9877 0.15 3
  386.2797 0.27 5
  387.0704 0.25 4
  387.2736 0.32 6
  387.7302 0.09 2
  387.9909 0.02 0
  388.2851 0.20 4
  388.5298 0.11 2
  388.8961 0.14 2
  389.1504 0.53 9
  389.2858 0.40 7
  389.4570 0.08 1
  390.2065 0.14 2
  390.4062 0.07 1
  390.8673 0.05 1
  391.1886 0.43 8
  391.3401 0.39 7
  391.5361 0.14 2
  391.7532 0.01 0
  392.0818 0.24 4
  392.3660 0.12 2
  392.6210 0.08 1
  393.2120 0.78 14
  393.8249 0.17 3
  393.9182 0.10 2
  394.1492 0.38 7
  394.3118 0.10 2
  394.4583 0.15 3
  395.0559 0.54 10
  395.1755 0.62 11
  395.2746 0.36 6
  395.3949 0.33 6
  395.5443 0.11 2
  395.7280 0.09 2
  396.1866 0.36 6
  396.5226 0.09 2
  396.6466 0.14 2
  396.8755 0.19 3
  397.1314 0.52 9
  397.3378 0.27 5
  397.5587 0.03 1
  397.9750 0.24 4
  398.2660 0.54 10
  398.4920 0.11 2
  398.7845 0.07 1
  399.1761 0.64 11
  399.3365 0.50 9
  399.4977 0.14 2
  399.6764 0.03 1
  399.8536 0.10 2
  400.0936 0.10 2
  400.2467 0.36 6
  400.3817 0.10 2
  400.4948 0.02 0
  400.7311 0.08 1
  400.9317 0.06 1
  401.1053 0.38 7
  401.2125 0.21 4
  401.3898 0.16 3
  402.0346 0.18 3
  402.2666 0.20 4
  402.4126 0.19 3
  402.7635 0.01 0
  402.8955 0.09 2
  403.1903 0.31 5
  403.4172 0.11 2
  403.5486 0.12 2
  403.6682 0.09 2
  404.2075 0.18 3
  404.3140 0.14 2
  404.4899 0.10 2
  405.2175 0.57 10
  405.4284 0.23 4
  405.7101 0.05 1
  406.1926 1.33 23
  406.4583 0.11 2
  407.1999 0.98 17
  407.4430 0.20 4
  407.7679 0.05 1
  408.0387 0.14 2
  408.2191 0.28 5
  408.4680 0.19 3
  408.6308 0.11 2
  409.1996 1.09 19
  409.4354 0.17 3
  409.6085 0.08 1
  409.9042 0.19 3
  410.1379 0.38 7
  410.3906 0.24 4
  410.8535 0.15 3
  411.2589 0.93 16
  411.5174 0.16 3
  411.8490 0.06 1
  412.1339 0.10 2
  412.3099 0.12 2
  412.4187 0.08 1
  412.5429 0.08 1
  412.7810 0.14 2
  413.1075 0.25 4
  413.3420 0.21 4
  413.4852 0.12 2
  413.6540 0.04 1
  414.0441 0.17 3
  414.1712 0.10 2
  414.3633 0.23 4
  414.6022 0.09 2
  414.8287 0.08 1
  415.1597 0.45 8
  415.3234 0.31 5
  415.5725 0.07 1
  416.1964 0.24 4
  416.4458 0.09 2
  416.6894 0.05 1
  416.8396 0.08 1
  417.1707 1.42 25
  417.3655 0.43 8
  417.8148 0.23 4
  418.1787 0.17 3
  418.3654 0.33 6
  418.4479 0.13 2
  418.5485 0.10 2
  418.7615 0.12 2
  418.9665 0.08 1
  419.1416 0.23 4
  419.3217 0.30 5
  419.4122 0.13 2
  419.6486 0.09 2
  420.0681 0.16 3
  420.3263 0.24 4
  420.4766 0.13 2
  420.7619 0.01 0
  420.8874 0.08 1
  421.2376 0.29 5
  421.4536 0.11 2
  422.1402 0.21 4
  422.2723 0.15 3
  422.3993 0.21 4
  422.4861 0.10 2
  422.5803 0.10 2
  422.8152 0.05 1
  423.0677 0.48 8
  423.2779 0.48 8
  423.4064 0.18 3
  423.6669 0.09 2
  424.1946 0.48 8
  424.3932 0.28 5
  424.6041 0.04 1
  425.2202 1.08 19
  425.4348 0.52 9
  425.7063 0.08 1
  426.0305 0.35 6
  426.2932 0.87 15
  426.5327 0.17 3
  426.9233 0.22 4
  427.2270 0.44 8
  427.3504 0.21 4
  427.5578 0.08 1
  427.9491 0.08 1
  428.0981 0.12 2
  428.4077 0.08 1
  428.7188 0.08 1
  428.8575 0.05 1
  429.2139 0.54 10
  429.4154 0.27 5
  429.5345 0.08 1
  429.8207 0.09 2
  430.1947 0.41 7
  430.3553 0.38 7
  430.7023 0.10 2
  431.1931 1.13 20
  431.4385 0.26 5
  431.8863 0.04 1
  432.1237 0.26 5
  432.3311 0.25 4
  432.4436 0.09 2
  432.7468 0.03 1
  433.1179 0.20 4
  433.3678 0.36 6
  433.5363 0.20 4
  433.7006 0.05 1
  433.8356 0.09 2
  434.0757 0.13 2
  434.4224 0.02 0
  434.5975 0.03 1
  434.7019 0.07 1
  435.1938 0.50 9
  435.3807 0.26 5
  436.0340 0.12 2
  436.3442 0.36 6
  436.5720 0.03 1
  436.7173 0.08 1
  436.8749 0.17 3
  437.1903 0.23 4
  437.3057 0.44 8
  437.4152 0.18 3
  437.5386 0.10 2
  437.6488 0.05 1
  437.8343 0.10 2
  437.9803 0.15 3
  438.2716 0.76 13
  438.5534 0.07 1
  438.7287 0.08 1
  439.2559 0.68 12
  439.4932 0.12 2
  439.9605 0.18 3
  440.0993 0.29 5
  440.2877 0.36 6
  440.8281 0.07 1
  441.1706 0.35 6
  441.4759 0.09 2
  441.5701 0.10 2
  441.7432 0.13 2
  442.0821 0.20 4
  442.3304 0.33 6
  442.5298 0.08 1
  442.6292 0.07 1
  442.8162 0.09 2
  443.1332 0.31 5
  443.3969 0.18 3
  443.7154 0.11 2
  444.0120 0.35 6
  444.2450 0.51 9
  444.4006 0.11 2
  445.1678 0.30 5
  445.3446 0.13 2
  445.4556 0.15 3
  445.7121 0.09 2
  446.2805 0.19 3
  446.5056 0.06 1
  447.1399 0.28 5
  447.3328 0.22 4
  447.4453 0.11 2
  447.8392 0.05 1
  448.0702 0.18 3
  448.2770 0.31 5
  449.2549 0.33 6
  450.1298 0.23 4
  450.4185 0.18 3
  450.6203 0.15 3
  450.7745 0.12 2
  451.1714 0.44 8
  451.4982 0.24 4
  451.9252 0.18 3
  452.1862 0.27 5
  452.4347 0.14 2
  452.7001 0.04 1
  453.0847 0.39 7
  453.3552 0.30 5
  454.0996 0.10 2
  454.3204 0.13 2
  454.5252 0.10 2
  454.7862 0.09 2
  454.8813 0.07 1
  455.1899 0.30 5
  455.3011 0.12 2
  455.4195 0.11 2
  455.7457 0.12 2
  456.1911 0.20 4
  456.3176 0.17 3
  456.4968 0.07 1
  456.6379 0.02 0
  456.8047 0.10 2
  457.2457 0.51 9
  457.4469 0.25 4
  457.6707 0.07 1
  458.2091 0.35 6
  458.3861 0.18 3
  458.9340 0.33 6
  459.1761 1.26 22
  459.3466 0.56 10
  459.5134 0.10 2
  459.6312 0.09 2
  460.0453 0.16 3
  460.1638 0.24 4
  460.3452 0.37 7
  461.0564 0.29 5
  461.2466 0.25 4
  461.4091 0.18 3
  461.5071 0.07 1
  461.6629 0.07 1
  461.9103 0.14 2
  462.0778 0.15 3
  462.2469 0.23 4
  462.5915 0.10 2
  463.0182 0.29 5
  463.3116 0.25 4
  463.4711 0.08 1
  463.7214 0.18 3
  463.8136 0.10 2
  464.0859 0.18 3
  464.2015 0.06 1
  464.3501 0.18 3
  464.4416 0.15 3
  464.7036 0.03 1
  464.9759 0.05 1
  465.1061 0.33 6
  465.2635 0.37 7
  465.5109 0.25 4
  465.9501 0.16 3
  466.0467 0.11 2
  466.1726 0.20 4
  466.3322 0.07 1
  466.4896 0.04 1
  466.7436 0.02 0
  467.0240 0.22 4
  467.2794 0.39 7
  468.0452 0.10 2
  468.2714 0.57 10
  468.4340 0.26 5
  468.7239 0.04 1
  468.9348 0.15 3
  469.2261 0.61 11
  469.4911 0.17 3
  469.7417 0.22 4
  470.2174 0.54 10
  470.4937 0.04 1
  470.7809 0.05 1
  471.1492 0.23 4
  471.3611 0.16 3
  471.7178 0.09 2
  472.0284 0.08 1
  472.1921 0.26 5
  472.4099 0.23 4
  472.6767 0.05 1
  472.8572 0.09 2
  473.1036 0.14 2
  473.2878 0.21 4
  473.4106 0.12 2
  473.5780 0.08 1
  473.7943 0.04 1
  473.9881 0.19 3
  474.2388 0.14 2
  474.3967 0.04 1
  474.9991 0.08 1
  475.3047 0.29 5
  475.4523 0.19 3
  475.6168 0.15 3
  475.8559 0.23 4
  476.0899 0.13 2
  476.3077 0.21 4
  476.3860 0.08 1
  476.7062 0.02 0
  476.9914 0.03 1
  477.2414 0.39 7
  477.4016 0.29 5
  477.7774 0.12 2
  478.2081 0.20 4
  478.4246 0.13 2
  478.7719 0.08 1
  479.2480 0.42 7
  479.6093 0.15 3
  479.8148 0.11 2
  479.9303 0.07 1
  480.0298 0.04 1
  480.1914 0.22 4
  480.3699 0.17 3
  480.5966 0.24 4
  481.1824 0.38 7
  481.3843 0.22 4
  481.5372 0.10 2
  482.0119 0.09 2
  482.2994 0.11 2
  482.5437 0.14 2
  482.6681 0.18 3
  482.7910 0.05 1
  482.9863 0.16 3
  483.2416 0.44 8
  483.6066 0.08 1
  483.7968 0.03 1
  484.1494 0.35 6
  484.5050 0.24 4
  484.8701 0.10 2
  485.2769 0.63 11
  485.7371 0.04 1
  486.1673 0.84 15
  486.3824 0.33 6
  486.4805 0.21 4
  486.7110 0.19 3
  486.8361 0.11 2
  487.2217 0.19 3
  487.4069 0.18 3
  487.4757 0.08 1
  488.0509 0.16 3
  488.2594 0.14 2
  488.4248 0.06 1
  488.6239 0.13 2
  488.7446 0.11 2
  488.8947 0.15 3
  489.0579 0.19 3
  489.1472 0.13 2
  489.2752 0.25 4
  489.4216 0.13 2
  489.5402 0.04 1
  489.6756 0.10 2
  489.7546 0.05 1
  490.1630 0.15 3
  490.3167 0.10 2
  490.5253 0.08 1
  490.6293 0.08 1
  491.0026 0.08 1
  491.2068 0.17 3
  491.5223 0.31 5
  491.7170 0.10 2
  492.1723 0.26 5
  492.3875 0.21 4
  492.5779 0.04 1
  492.7118 0.14 2
  493.2880 0.41 7
  493.5215 0.17 3
  493.8297 0.09 2
  493.9981 0.11 2
  494.3144 0.40 7
  494.5568 0.05 1
  494.7896 0.09 2
  495.2436 0.81 14
  495.4266 0.26 5
  495.6338 0.06 1
  496.3126 0.39 7
  496.9197 0.13 2
  497.1181 0.12 2
  497.4748 0.25 4
  497.7010 0.17 3
  497.9726 0.20 4
  498.2263 0.34 6
  498.6233 0.08 1
  498.8617 0.06 1
  499.2602 0.15 3
  499.4810 0.42 7
  499.9871 0.14 2
  500.1451 0.21 4
  500.3286 0.20 4
  500.5019 0.05 1
  500.6745 0.10 2
  500.8208 0.10 2
  501.1638 0.33 6
  501.5112 0.12 2
  501.7920 0.39 7
  502.0765 0.21 4
  502.2375 0.18 3
  502.6031 0.19 3
  502.7180 0.09 2
  502.9550 0.12 2
  503.2190 0.06 1
  503.3543 0.09 2
  503.5270 0.12 2
  503.8349 0.14 2
  503.9900 0.18 3
  504.3126 0.39 7
  504.6506 0.31 5
  504.8978 0.10 2
  505.1049 0.18 3
  505.3104 0.25 4
  505.4743 0.18 3
  505.7742 0.15 3
  506.0639 0.15 3
  506.2044 0.12 2
  506.4159 0.19 3
  506.6039 0.08 1
  506.7085 0.08 1
  507.3348 0.48 8
  507.6684 0.11 2
  507.9626 0.15 3
  508.3226 0.38 7
  509.2950 1.76 31
  509.7144 0.23 4
  510.1893 0.30 5
  510.3401 0.27 5
  510.5120 0.16 3
  510.6386 0.04 1
  510.8267 0.15 3
  510.9255 0.07 1
  511.3690 0.67 12
  511.7020 0.27 5
  511.8586 0.11 2
  512.3015 0.31 5
  512.4852 0.25 4
  512.6059 0.13 2
  512.7743 0.08 1
  512.8994 0.10 2
  513.1476 0.51 9
  513.3269 0.30 5
  513.5253 0.32 6
  513.6439 0.09 2
  513.8012 0.09 2
  513.8890 0.07 1
  514.0340 0.17 3
  514.2646 0.11 2
  514.4520 0.29 5
  514.6650 0.10 2
  515.1159 0.05 1
  515.3670 0.23 4
  515.5640 0.18 3
  515.7762 0.43 8
  515.9329 0.29 5
  516.2894 0.66 12
  516.7067 0.67 12
  517.2954 1.63 29
  517.5502 0.90 16
  517.7515 0.39 7
  518.1931 0.28 5
  518.7019 0.43 8
  519.1603 0.49 9
  519.3815 0.32 6
  519.5638 0.39 7
  519.6553 0.24 4
  519.9673 0.31 5
  520.2529 0.53 9
  520.4506 0.77 14
  520.5890 0.31 5
  521.0203 0.47 8
  522.2726 1.08 19
  523.1303 1.21 21
  523.4702 0.85 15
  523.7610 0.64 11
  523.9214 0.41 7
  524.4062 0.64 11
  524.5513 0.44 8
  524.8589 0.53 9
  524.9703 0.33 6
  525.1481 0.53 9
  525.3499 0.41 7
  525.5428 0.37 7
  525.7241 0.35 6
  525.9456 0.35 6
  526.3373 0.61 11
  526.5837 0.36 6
  526.8797 0.38 7
  527.1422 0.13 2
  527.3300 0.45 8
  527.5303 0.41 7
  527.7708 0.18 3
  527.9112 0.20 4
  528.2057 0.61 11
  528.3140 0.38 7
  528.4785 0.21 4
  528.6700 0.29 5
  528.7687 0.09 2
  528.9280 0.07 1
  529.1276 0.14 2
  529.2329 0.10 2
  529.5239 0.40 7
  529.7900 0.14 2
  530.0306 0.27 5
  530.3742 0.19 3
  530.6125 0.33 6
  530.7639 0.08 1
  531.0198 0.12 2
  531.1441 0.09 2
  531.3503 0.09 2
  531.5587 0.31 5
  531.7429 0.23 4
  532.1202 0.66 12
  532.4442 0.36 6
  532.6782 0.31 5
  532.7703 0.09 2
  532.9729 0.38 7
  533.2325 0.57 10
  533.5864 0.42 7
  533.8263 0.21 4
  534.0076 0.41 7
  534.2073 0.55 10
  534.3923 0.66 12
  534.6139 0.58 10
  534.9898 0.54 10
  535.1873 0.29 5
  535.3804 0.77 14
  535.5237 0.34 6
  535.6473 0.50 9
  536.3114 0.97 17
  537.3223 5.35 94
  538.3127 1.06 19
  538.8957 0.57 10
  539.2629 0.71 13
  540.1752 0.77 14
  540.7063 0.40 7
  540.9528 0.85 15
  541.2762 0.73 13
  541.4811 0.40 7
  541.8491 0.45 8
  542.2296 0.67 12
  542.7402 0.63 11
  542.9795 0.11 2
  543.2268 0.33 6
  543.5363 0.19 3
  543.6900 0.25 4
  543.8781 0.30 5
  544.0873 0.40 7
  544.4920 0.15 3
  544.6472 0.17 3
  544.8718 0.21 4
  545.0108 0.18 3
  545.3394 0.11 2
  545.6087 0.11 2
  546.0698 0.10 2
  546.5601 0.16 3
  546.8463 0.13 2
  547.1558 0.09 2
  547.3088 0.05 1
  547.5261 0.06 1
  547.7010 0.04 1
  547.9133 0.03 1
  548.4981 0.12 2
  548.7535 0.08 1
  548.9658 0.02 0
  549.1115 0.17 3
  549.4203 0.14 2
  549.6758 0.09 2
  549.9283 0.15 3
  550.1267 0.27 5
  550.3441 0.41 7
  550.5564 0.11 2
  550.7314 0.21 4
  551.3119 2.89 51
  552.3339 14.63 258
  552.7460 0.69 12
  553.3266 4.29 76
  553.8347 0.28 5
  554.1934 0.52 9
  554.3992 0.47 8
  554.5280 0.41 7
  554.6708 0.25 4
  555.1196 0.22 4
  555.5121 0.37 7
  555.8431 0.12 2
  556.0811 0.12 2
  556.3644 0.16 3
  556.7298 0.12 2
  557.1018 0.12 2
  557.2769 0.08 1
  557.3911 0.19 3
  557.5214 0.11 2
  557.7550 0.09 2
  557.9081 0.10 2
  558.0963 0.10 2
  558.2230 0.07 1
  558.4398 0.10 2
  558.7144 0.07 1
  558.9436 0.02 0
  559.2205 0.10 2
  559.3456 0.06 1
  559.5134 0.14 2
  559.7719 0.15 3
  559.9265 0.06 1
  560.1469 0.05 1
  560.4501 0.10 2
  561.0324 0.21 4
  561.1371 0.06 1
  561.2477 0.10 2
  561.4396 0.09 2
  561.9011 0.11 2
  562.0498 0.09 2
  562.6812 0.24 4
  563.0482 0.09 2
  563.2335 0.12 2
  563.4188 0.12 2
  563.5016 0.04 1
  563.7866 0.10 2
  564.0173 0.09 2
  564.3763 0.06 1
  564.6268 0.07 1
  565.1037 0.22 4
  565.3513 0.10 2
  565.4568 0.06 1
  565.9719 0.09 2
  566.2546 0.23 4
  566.5060 0.10 2
  566.7228 0.18 3
  566.8181 0.15 3
  567.3331 0.74 13
  567.8761 0.41 7
  568.3597 1.17 21
  568.6747 0.41 7
  568.8447 0.14 2
  568.9503 0.21 4
  569.3350 2.81 50
  569.6412 0.56 10
  570.3450 1.06 19
  570.9738 0.03 1
  571.1193 0.12 2
  571.2802 0.17 3
  571.3957 0.08 1
  571.5901 0.09 2
  571.8439 0.06 1
  572.2673 0.10 2
  572.3799 0.06 1
  572.8830 0.06 1
  572.9897 0.15 3
  573.3290 0.11 2
  573.6267 0.05 1
  573.7678 0.13 2
  574.0077 0.07 1
  574.1313 0.04 1
  574.4545 0.08 1
  574.8436 0.07 1
  575.1464 0.01 0
  575.3058 0.13 2
  575.4667 0.20 4
  575.7037 0.14 2
  576.2090 0.08 1
  576.3729 0.13 2
  576.5609 0.10 2
  576.8278 0.04 1
  577.0970 0.08 1
  577.2952 0.12 2
  577.4539 0.11 2
  577.6375 0.27 5
  577.8306 0.09 2
  578.0032 0.13 2
  578.4692 0.13 2
  578.6352 0.19 3
  578.7281 0.07 1
  578.9051 0.11 2
  579.3608 0.39 7
  579.6381 0.21 4
  579.8678 0.27 5
  580.1479 0.12 2
  580.3016 0.11 2
  580.6666 0.06 1
  580.9819 0.15 3
  581.1436 0.09 2
  581.3564 0.14 2
  581.5847 0.15 3
  581.7128 0.09 2
  581.8276 0.08 1
  582.0215 0.17 3
  582.1971 0.21 4
  582.3544 0.11 2
  582.6082 0.23 4
  582.7802 0.09 2
  582.9638 0.04 1
  583.1401 0.49 9
  583.4269 0.79 14
  583.6420 0.28 5
  583.8908 0.08 1
  584.4703 1.19 21
  584.7659 0.62 11
  585.0820 0.33 6
  585.2832 0.26 5
  585.4398 0.20 4
  585.5496 0.12 2
  585.6688 0.02 0
  586.1525 0.22 4
  586.6910 0.13 2
  587.0547 0.19 3
  587.2823 0.10 2
  587.4843 0.20 4
  587.6080 0.20 4
  587.9790 0.25 4
  588.2886 0.33 6
  588.5081 0.27 5
  588.7730 0.40 7
  589.2575 0.32 6
  589.6820 0.44 8
  589.8964 0.21 4
  590.0494 0.14 2
  590.4051 0.42 7
  590.6188 0.49 9
  591.1802 0.42 7
  591.5461 0.59 10
  591.8865 0.48 8
  592.2379 0.75 13
  592.6726 0.72 13
  592.9296 0.28 5
  593.2245 1.06 19
  593.5912 0.75 13
  594.4368 4.91 87
  594.7557 1.67 29
  595.0366 0.78 14
  595.3912 1.19 21
  596.5619 0.93 16
  596.7410 0.94 17
  597.3970 11.20 198
  598.2197 0.83 15
  598.4485 0.77 14
  598.6621 0.67 12
  599.0007 0.55 10
  599.3115 0.46 8
  599.6772 0.43 8
  599.9310 0.29 5
  600.4671 0.60 11
  600.6967 0.48 8
  600.8467 0.39 7
  601.0756 0.64 11
  601.2841 0.46 8
  601.6329 0.67 12
  601.8538 0.78 14
  602.0462 0.51 9
  602.3015 0.53 9
  602.4872 0.47 8
  602.9510 0.87 15
  603.4572 0.77 14
  604.1411 0.71 13
  604.6451 0.98 17
  606.1835 1.22 22
  612.3654 99.97 999
  613.1784 26.12 461
  614.0969 11.26 199
  614.9158 5.80 102
  615.6542 2.92 52
  616.4505 1.67 29
  617.3441 1.02 18
  617.8945 0.59 10
  618.2678 0.53 9
  618.5713 0.50 9
  618.7701 0.54 10
  619.0633 0.44 8
  619.4142 0.39 7
  619.6409 0.19 3
  619.9289 0.20 4
  620.1190 0.17 3
  620.3018 0.23 4
  620.3792 0.10 2
  620.5942 0.14 2
  620.7119 0.14 2
  620.9349 0.15 3
  621.0584 0.14 2
  621.1776 0.04 1
  621.3414 0.16 3
  621.5139 0.12 2
  621.6594 0.17 3
  622.1932 0.08 1
  622.3752 0.08 1
  622.5427 0.08 1
//
