ACCESSION: MSBNK-Kyoto_Univ-CA000123
RECORD_TITLE: Hydratopyrrhoxanthinol; FAB-EBEB; MS2; m/z: 588.35; [M]*+
DATE: 2016.01.19 (Created 2007.10.06, modified 2011.05.10)
AUTHORS: Akimoto N, Graduate School of Pharmaceutical Sciences, Kyoto University and Maoka T, Research Institute for Production Development
LICENSE: CC BY-SA
COMMENT: Profile spectrum of this record is given as a JPEG file.
COMMENT: [Profile] CA000123.jpg
CH$NAME: Hydratopyrrhoxanthinol
CH$COMPOUND_CLASS: Natural Product; Carotenoid
CH$FORMULA: C37H48O6
CH$EXACT_MASS: 588.34509
CH$SMILES: C(=CC=CC=C(C)C=c(o2)cc(C=CC(C3(C)C)(C(C)(O)CC(C3)O)O)c(=O)2)C=C(C)C#CC(C1(C)C)=C(C)CC(C1)O
CH$IUPAC: InChI=1S/C37H48O6/c1-25(15-16-32-27(3)20-29(38)22-34(32,4)5)13-11-9-10-12-14-26(2)19-31-21-28(33(40)43-31)17-18-37(42)35(6,7)23-30(39)24-36(37,8)41/h9-14,17-19,21,29-30,38-39,41-42H,20,22-24H2,1-8H3/b11-9+,12-10+,18-17+,25-13+,26-14+,31-19-/t29-,30+,36-,37-/m1/s1
CH$LINK: INCHIKEY NKLWCOIOKXMOKC-OCOPTUJHSA-N
AC$INSTRUMENT: JMS-HX/HX 110A, JEOL
AC$INSTRUMENT_TYPE: FAB-EBEB
AC$MASS_SPECTROMETRY: MS_TYPE MS2
AC$MASS_SPECTROMETRY: ION_MODE POSITIVE
AC$MASS_SPECTROMETRY: ATOM_GUN_CURRENT 5 mA
AC$MASS_SPECTROMETRY: BOMBARDMENT 6 kV xenon
AC$MASS_SPECTROMETRY: COLLISION_ENERGY 3 kV
AC$MASS_SPECTROMETRY: COLLISION_GAS Ar
AC$MASS_SPECTROMETRY: GAS_PRESSURE adjust to attenuate the intensity of the precursor ion by 30 %
AC$MASS_SPECTROMETRY: IONIZATION FAB
AC$MASS_SPECTROMETRY: PROBE_TIP stainless-steel
MS$FOCUSED_ION: BASE_PEAK 588.4807
MS$FOCUSED_ION: PRECURSOR_M/Z 588.35
MS$FOCUSED_ION: PRECURSOR_TYPE [M]+*
PK$SPLASH: splash10-0079-1431190000-09094d5d2f30513ca1a6
PK$NUM_PEAK: 1706
PK$PEAK: m/z int. rel.int.
  1.2659 0.01 0
  8.7406 0.01 0
  13.9666 0.02 0
  14.9813 0.04 0
  15.8479 0.01 0
  16.9511 0.01 0
  22.9405 0.41 4
  24.9792 0.01 0
  25.9756 0.10 1
  26.9696 0.27 3
  27.9706 0.06 1
  28.9757 0.42 4
  29.2144 0.01 0
  29.9689 0.03 0
  30.9593 0.07 1
  32.1644 0.01 0
  36.2087 0.02 0
  36.9864 0.04 0
  37.9604 0.17 2
  38.3523 0.02 0
  38.9607 0.85 8
  39.9827 0.12 1
  40.9819 1.61 16
  41.9745 0.12 1
  42.9647 5.94 59
  43.9571 0.06 1
  44.9816 0.14 1
  46.9449 0.05 0
  48.9691 0.03 0
  49.7853 0.03 0
  49.9613 0.30 3
  50.9715 0.78 8
  51.9882 0.21 2
  52.9772 1.30 13
  53.2461 0.03 0
  53.9823 0.06 1
  54.9874 1.61 16
  55.9962 0.07 1
  56.7561 0.06 1
  57.0124 0.98 10
  57.9702 0.07 1
  58.9841 0.24 2
  59.9564 0.01 0
  60.9425 0.11 1
  61.9643 0.15 1
  62.7635 0.02 0
  62.9701 0.55 5
  63.8177 0.02 0
  63.9719 0.15 1
  64.3488 0.01 0
  64.8264 0.04 0
  64.9869 0.81 8
  65.9981 0.16 2
  66.9890 1.15 11
  67.9756 0.08 1
  68.9877 1.95 19
  69.9663 0.23 2
  70.9771 0.78 8
  71.8851 0.04 0
  72.0164 0.02 0
  72.9654 0.12 1
  73.9622 0.21 2
  74.9630 0.31 3
  75.1610 0.02 0
  75.7145 0.01 0
  75.9640 0.28 3
  76.9753 2.12 21
  77.8087 0.03 0
  77.9714 0.49 5
  78.5799 0.06 1
  78.9836 1.33 13
  79.2179 0.02 0
  79.9852 0.15 1
  80.0623 0.07 1
  80.9819 1.46 15
  81.9774 0.14 1
  82.1982 0.03 0
  82.4454 0.01 0
  83.0145 2.95 29
  83.9483 0.07 1
  84.0533 0.02 0
  84.2447 0.01 0
  84.5564 0.06 1
  84.9928 1.87 19
  85.2184 0.02 0
  85.9617 0.09 1
  86.9760 1.13 11
  87.9759 0.14 1
  88.0771 0.03 0
  88.5496 0.05 0
  88.6303 0.02 0
  88.7688 0.02 0
  88.9771 0.57 6
  89.3126 0.06 1
  89.4190 0.04 0
  89.9771 0.40 4
  90.6353 0.01 0
  90.9886 3.55 35
  91.3953 0.02 0
  91.8343 0.01 0
  91.9952 0.41 4
  93.0053 1.53 15
  93.3716 0.02 0
  94.0061 0.15 1
  95.0019 1.41 14
  96.0026 0.18 2
  97.0004 0.44 4
  97.1754 0.03 0
  97.3430 0.04 0
  97.9781 0.33 3
  98.7244 0.03 0
  98.9881 0.22 2
  99.9890 0.04 0
  100.9845 0.22 2
  101.9831 0.53 5
  102.5803 0.05 0
  102.9949 1.17 12
  103.2102 0.02 0
  103.4800 0.03 0
  103.9905 0.34 3
  104.1993 0.01 0
  105.0118 3.64 36
  105.6577 0.05 0
  105.9986 0.26 3
  106.5039 0.04 0
  106.5921 0.01 0
  107.0129 1.62 16
  107.2140 0.02 0
  107.5291 0.05 0
  107.9944 0.46 5
  108.4935 0.05 0
  109.0145 1.20 12
  109.9566 0.16 2
  110.1229 0.06 1
  110.8010 0.04 0
  111.0067 0.65 6
  111.9755 0.10 1
  112.6417 0.03 0
  112.9770 0.35 3
  113.3537 0.03 0
  113.4491 0.08 1
  113.6760 0.03 0
  113.8452 0.21 2
  114.0093 0.16 2
  114.2709 0.02 0
  114.4733 0.04 0
  114.9739 2.72 27
  115.3066 0.03 0
  115.6542 0.02 0
  115.9776 0.87 9
  116.2432 0.04 0
  116.3779 0.02 0
  116.5165 0.04 0
  116.9810 1.39 14
  117.3825 0.02 0
  117.4790 0.03 0
  117.9839 0.44 4
  118.1555 0.04 0
  118.9903 2.19 22
  119.2115 0.03 0
  119.5046 0.06 1
  119.9699 0.31 3
  120.4188 0.04 0
  120.9939 1.94 19
  121.6385 0.04 0
  121.9783 0.60 6
  122.5348 0.04 0
  122.9660 0.79 8
  123.8168 0.02 0
  123.9763 0.19 2
  124.2546 0.01 0
  124.9867 1.00 10
  125.2757 0.02 0
  125.3941 0.05 0
  125.9661 0.37 4
  126.5451 0.09 1
  126.9526 1.31 13
  127.1860 0.08 1
  127.3455 0.03 0
  127.4357 0.04 0
  127.5771 0.09 1
  127.9645 3.28 33
  128.2007 0.07 1
  128.4254 0.04 0
  128.6216 0.04 0
  128.9750 3.25 32
  129.9862 0.94 9
  130.5909 0.05 0
  130.9732 2.24 22
  131.2052 0.02 0
  131.5546 0.07 1
  131.9856 0.52 5
  132.2420 0.02 0
  132.4045 0.06 1
  132.9823 1.31 13
  133.1410 0.09 1
  133.5768 0.03 0
  133.9742 0.43 4
  134.9582 0.60 6
  135.2102 0.01 0
  135.9485 0.19 2
  136.3058 0.04 0
  136.9757 0.42 4
  137.7808 0.03 0
  137.9610 0.17 2
  138.9343 1.00 10
  139.2227 0.02 0
  139.9310 0.30 3
  140.1393 0.03 0
  140.3048 0.04 0
  140.4868 0.08 1
  140.6682 0.05 0
  140.9790 2.76 28
  141.1763 0.03 0
  141.3394 0.03 0
  141.5150 0.01 0
  141.6662 0.09 1
  141.9713 1.61 16
  142.6123 0.05 0
  142.9872 2.26 23
  143.2173 0.01 0
  143.6672 0.03 0
  143.9909 0.80 8
  144.3074 0.02 0
  144.5875 0.04 0
  144.9883 2.32 23
  145.9775 0.42 4
  146.9889 0.97 10
  147.4127 0.08 1
  147.5342 0.06 1
  147.9947 0.16 2
  148.4920 0.02 0
  148.6084 0.03 0
  148.9696 1.49 15
  149.2204 0.05 0
  149.6091 0.01 0
  149.9839 0.44 4
  150.3150 0.09 1
  150.4835 0.07 1
  150.9800 1.07 11
  151.5414 0.16 2
  151.9789 1.69 17
  152.2512 0.04 0
  152.4154 0.09 1
  152.9882 2.10 21
  153.1886 0.09 1
  153.6402 0.07 1
  154.0037 1.06 11
  154.2504 0.03 0
  154.4737 0.04 0
  155.0088 2.58 26
  155.3033 0.03 0
  155.4090 0.05 0
  156.0242 1.49 15
  156.3336 0.01 0
  156.4770 0.02 0
  156.6579 0.03 0
  157.0345 2.55 25
  157.3529 0.04 0
  157.5835 0.03 0
  158.0175 0.68 7
  158.5395 0.08 1
  158.7213 0.03 0
  159.0409 1.32 13
  159.2705 0.04 0
  159.4210 0.04 0
  160.0538 0.25 2
  160.1398 0.09 1
  160.4510 0.02 0
  160.6332 0.06 1
  161.0359 0.98 10
  161.2061 0.04 0
  161.4940 0.01 0
  161.7457 0.15 1
  161.9428 0.11 1
  162.0620 0.07 1
  162.4302 0.05 0
  162.9959 0.90 9
  163.3483 0.07 1
  163.5235 0.03 0
  163.7243 0.08 1
  164.0222 0.33 3
  164.3263 0.07 1
  164.5266 0.12 1
  165.0244 4.54 45
  165.3517 0.03 0
  165.5292 0.06 1
  166.0410 1.33 13
  166.5623 0.13 1
  167.0583 2.01 20
  167.2644 0.05 0
  168.0575 0.90 9
  169.0689 2.22 22
  169.4610 0.03 0
  169.6358 0.04 0
  169.8375 0.04 0
  170.0703 0.79 8
  170.5454 0.08 1
  171.0674 1.63 16
  171.7496 0.07 1
  171.8496 0.05 0
  172.0672 0.64 6
  172.4342 0.04 0
  173.0516 1.23 12
  173.3532 0.02 0
  173.5359 0.02 0
  174.0671 0.33 3
  174.2897 0.03 0
  175.0427 0.70 7
  175.2411 0.06 1
  175.4173 0.04 0
  175.6103 0.03 0
  175.7499 0.02 0
  176.0434 0.74 7
  176.3497 0.03 0
  176.4514 0.01 0
  176.6067 0.02 0
  177.0210 0.82 8
  177.3567 0.04 0
  177.5270 0.03 0
  178.0366 2.32 23
  178.4866 0.11 1
  178.6183 0.07 1
  179.0434 2.71 27
  179.5311 0.02 0
  179.7010 0.03 0
  180.0571 1.09 11
  180.4859 0.05 0
  180.6076 0.03 0
  181.0557 2.75 27
  181.3829 0.01 0
  181.5856 0.03 0
  181.7509 0.02 0
  182.0768 0.83 8
  182.4008 0.05 0
  182.6302 0.06 1
  183.0611 1.54 15
  183.3792 0.04 0
  183.4779 0.01 0
  183.7436 0.04 0
  184.0454 0.39 4
  184.5136 0.06 1
  185.0528 1.21 12
  185.6850 0.11 1
  186.0165 0.52 5
  186.1229 0.23 2
  186.7330 0.06 1
  187.0559 0.83 8
  187.2320 0.11 1
  187.4559 0.02 0
  187.7393 0.05 0
  188.0699 0.29 3
  188.2475 0.06 1
  188.3753 0.05 0
  188.4709 0.03 0
  188.5639 0.02 0
  189.0156 1.12 11
  189.6288 0.11 1
  190.0295 0.61 6
  190.4420 0.05 0
  190.7122 0.04 0
  191.0468 1.72 17
  191.4300 0.08 1
  192.0270 1.32 13
  192.2803 0.02 0
  192.4598 0.04 0
  192.6173 0.05 0
  193.0455 2.28 23
  193.3175 0.05 0
  193.4997 0.05 0
  193.5971 0.08 1
  193.6663 0.03 0
  193.8356 0.11 1
  194.0686 1.20 12
  194.2873 0.03 0
  194.4087 0.04 0
  194.6302 0.07 1
  195.0513 2.03 20
  195.2955 0.07 1
  195.5589 0.01 0
  196.0536 0.75 7
  196.3495 0.04 0
  196.5424 0.06 1
  197.0655 1.31 13
  197.4872 0.02 0
  198.0230 0.48 5
  198.1013 0.23 2
  198.2566 0.02 0
  198.3858 0.08 1
  198.7397 0.03 0
  199.0422 0.70 7
  199.2725 0.08 1
  199.5214 0.05 0
  199.7669 0.05 0
  200.0213 0.41 4
  200.3907 0.07 1
  200.5111 0.02 0
  200.7877 0.10 1
  201.0554 0.82 8
  201.4945 0.06 1
  201.6239 0.05 0
  202.0163 1.83 18
  202.2614 0.02 0
  202.4935 0.10 1
  203.0273 1.48 15
  203.4683 0.02 0
  203.6846 0.09 1
  204.0382 0.78 8
  204.2202 0.23 2
  204.5331 0.01 0
  204.7041 0.08 1
  205.0551 1.77 18
  205.4068 0.02 0
  205.5703 0.08 1
  205.6938 0.11 1
  206.0511 1.10 11
  206.5142 0.01 0
  206.6508 0.06 1
  207.0670 2.10 21
  207.3887 0.01 0
  207.8189 0.10 1
  208.0751 0.90 9
  208.4433 0.08 1
  208.6353 0.12 1
  209.0672 2.05 20
  209.4798 0.02 0
  210.0556 0.51 5
  210.5181 0.02 0
  210.6205 0.03 0
  210.7152 0.04 0
  211.0617 1.13 11
  211.4269 0.08 1
  211.5515 0.02 0
  211.7895 0.03 0
  212.0060 0.35 3
  212.1424 0.31 3
  212.3354 0.04 0
  212.4593 0.08 1
  212.6227 0.08 1
  213.0623 0.92 9
  213.3635 0.04 0
  213.6418 0.08 1
  214.0664 0.28 3
  214.4155 0.08 1
  214.6428 0.11 1
  215.0474 1.72 17
  215.5277 0.03 0
  216.0497 0.44 4
  216.3520 0.02 0
  216.4942 0.04 0
  216.7847 0.11 1
  217.0552 1.45 14
  217.2515 0.08 1
  217.6338 0.03 0
  217.7510 0.04 0
  218.0869 0.45 4
  218.5644 0.12 1
  218.6678 0.05 0
  219.0753 1.55 15
  219.6016 0.14 1
  219.6863 0.08 1
  220.0801 0.65 6
  220.3496 0.04 0
  220.5941 0.02 0
  220.7080 0.03 0
  220.8234 0.05 0
  221.0930 1.15 11
  221.3848 0.04 0
  221.6044 0.07 1
  221.7469 0.07 1
  221.8435 0.04 0
  222.1133 0.58 6
  222.2711 0.06 1
  222.5068 0.03 0
  222.6722 0.19 2
  223.1104 1.13 11
  224.1120 0.40 4
  224.3730 0.08 1
  224.5713 0.02 0
  224.7648 0.03 0
  225.1218 0.49 5
  225.4232 0.14 1
  225.6425 0.03 0
  226.0756 0.73 7
  226.3096 0.06 1
  226.4016 0.06 1
  226.6627 0.09 1
  226.7784 0.02 0
  227.0911 0.67 7
  227.4116 0.13 1
  227.7774 0.04 0
  228.1029 0.74 7
  228.4095 0.03 0
  228.5218 0.10 1
  228.6884 0.16 2
  229.1053 1.55 15
  229.4783 0.07 1
  229.7510 0.04 0
  230.1304 0.65 6
  230.5008 0.07 1
  231.1057 1.40 14
  231.4391 0.03 0
  231.5609 0.07 1
  231.8282 0.03 0
  232.1352 0.57 6
  232.6658 0.03 0
  232.7709 0.03 0
  233.1296 1.39 14
  233.4792 0.05 0
  234.1152 0.60 6
  234.3535 0.08 1
  234.5535 0.05 0
  234.7674 0.09 1
  235.1347 1.36 14
  235.3647 0.05 0
  235.4832 0.02 0
  235.6708 0.12 1
  235.7600 0.07 1
  235.9113 0.05 0
  236.1330 0.30 3
  236.2425 0.12 1
  236.5905 0.03 0
  236.7760 0.06 1
  237.1135 0.88 9
  237.5098 0.07 1
  237.6486 0.04 0
  237.8251 0.05 0
  238.1544 0.31 3
  238.3987 0.07 1
  238.5124 0.05 0
  238.6262 0.02 0
  239.1057 1.13 11
  239.3081 0.12 1
  239.3940 0.05 0
  239.6809 0.13 1
  240.0692 0.42 4
  240.3520 0.06 1
  240.6397 0.05 0
  241.1000 1.01 10
  241.3669 0.03 0
  241.5080 0.04 0
  241.8287 0.15 1
  242.1243 0.59 6
  242.4143 0.10 1
  242.5226 0.05 0
  242.6680 0.03 0
  242.8511 0.06 1
  243.1133 1.18 12
  243.4230 0.06 1
  243.7313 0.04 0
  244.1187 0.51 5
  244.5341 0.04 0
  244.7894 0.13 1
  245.1119 1.08 11
  245.5722 0.09 1
  246.0928 0.47 5
  246.4274 0.04 0
  246.5841 0.02 0
  246.8102 0.10 1
  247.1420 0.79 8
  247.6293 0.13 1
  248.1019 0.47 5
  248.1937 0.20 2
  248.4451 0.03 0
  248.6013 0.05 0
  248.7021 0.04 0
  249.1280 1.19 12
  249.2877 0.17 2
  249.4314 0.05 0
  249.5603 0.08 1
  249.7438 0.08 1
  250.0886 0.45 4
  250.2463 0.11 1
  250.4565 0.07 1
  250.6051 0.13 1
  251.1217 1.00 10
  251.3558 0.07 1
  251.7267 0.07 1
  252.0808 0.63 6
  252.4686 0.06 1
  252.7912 0.07 1
  253.1195 0.76 8
  253.5579 0.04 0
  253.8610 0.12 1
  254.0925 0.36 4
  254.2778 0.09 1
  254.6595 0.03 0
  255.1263 0.97 10
  255.4099 0.06 1
  255.5875 0.01 0
  255.7693 0.04 0
  256.1182 0.46 5
  256.4862 0.07 1
  256.6961 0.02 0
  257.1323 0.88 9
  257.4047 0.06 1
  257.8330 0.02 0
  258.0977 0.34 3
  258.2501 0.11 1
  258.6581 0.10 1
  258.7922 0.04 0
  259.1399 0.82 8
  259.4729 0.05 0
  259.5979 0.03 0
  260.1284 0.44 4
  260.6526 0.03 0
  260.8156 0.03 0
  261.1382 1.03 10
  261.3097 0.17 2
  261.5951 0.05 0
  261.7940 0.10 1
  262.1589 0.40 4
  262.4626 0.02 0
  262.7650 0.15 1
  263.1237 0.39 4
  263.3361 0.10 1
  263.6202 0.03 0
  263.8657 0.08 1
  264.1211 0.30 3
  264.3455 0.06 1
  264.4630 0.06 1
  264.5347 0.02 0
  264.7106 0.10 1
  264.9013 0.10 1
  265.1434 0.58 6
  265.5340 0.02 0
  265.6536 0.02 0
  266.0893 0.25 2
  266.6708 0.01 0
  267.1214 0.63 6
  267.8058 0.12 1
  268.1298 0.30 3
  268.3101 0.08 1
  268.4827 0.06 1
  268.7665 0.07 1
  268.9081 0.22 2
  269.1406 0.65 6
  269.5500 0.06 1
  269.6317 0.05 0
  269.7416 0.06 1
  269.8798 0.05 0
  270.1532 0.35 3
  270.3808 0.03 0
  270.5126 0.02 0
  270.7241 0.03 0
  271.1554 0.52 5
  271.4008 0.08 1
  271.8139 0.09 1
  272.1544 0.44 4
  272.3195 0.18 2
  272.4492 0.08 1
  272.5959 0.03 0
  273.1347 1.02 10
  273.5198 0.05 0
  273.8196 0.05 0
  274.1505 0.27 3
  274.3579 0.02 0
  274.6077 0.01 0
  275.1595 0.81 8
  275.4545 0.08 1
  275.6208 0.03 0
  275.7540 0.05 0
  276.1162 0.34 3
  276.3946 0.09 1
  276.7632 0.08 1
  276.8922 0.07 1
  277.1657 0.93 9
  277.4174 0.04 0
  277.5506 0.04 0
  278.0977 0.13 1
  278.5674 0.06 1
  278.7190 0.05 0
  279.1104 0.69 7
  279.7318 0.13 1
  280.1622 0.56 6
  280.5361 0.04 0
  281.1288 0.67 7
  281.3688 0.06 1
  281.5876 0.03 0
  281.7499 0.05 0
  282.1727 0.49 5
  282.3901 0.15 1
  282.4924 0.04 0
  282.7169 0.01 0
  283.1377 0.47 5
  283.3933 0.09 1
  283.5402 0.04 0
  283.8410 0.02 0
  284.1856 0.34 3
  284.4568 0.04 0
  284.6030 0.06 1
  284.7167 0.03 0
  285.1497 0.62 6
  285.4274 0.05 0
  285.5969 0.04 0
  285.7170 0.03 0
  285.9410 0.13 1
  286.0696 0.29 3
  286.2356 0.15 1
  286.6186 0.04 0
  286.8497 0.02 0
  287.1522 0.66 7
  287.7876 0.07 1
  288.1178 0.26 3
  288.4967 0.05 0
  288.6126 0.04 0
  289.1747 0.48 5
  289.7136 0.09 1
  290.1493 0.16 2
  290.3721 0.04 0
  290.5079 0.02 0
  290.7010 0.13 1
  290.8318 0.05 0
  291.1396 0.37 4
  291.2853 0.07 1
  291.5202 0.07 1
  291.6277 0.02 0
  291.8788 0.06 1
  292.2088 0.24 2
  292.3495 0.11 1
  292.7445 0.04 0
  293.1651 0.45 4
  293.4937 0.02 0
  293.8005 0.05 0
  294.1569 0.22 2
  294.8342 0.05 0
  294.9403 0.08 1
  295.1369 0.33 3
  295.2932 0.12 1
  295.3893 0.07 1
  295.5385 0.12 1
  295.7224 0.08 1
  296.0853 0.22 2
  296.2324 0.20 2
  296.5931 0.06 1
  297.1555 0.51 5
  297.3239 0.15 1
  297.5581 0.05 0
  297.7095 0.07 1
  298.1603 0.40 4
  298.6613 0.11 1
  298.7986 0.06 1
  299.1568 0.76 8
  299.7549 0.04 0
  299.9015 0.06 1
  300.1528 0.41 4
  300.3468 0.08 1
  300.5656 0.02 0
  300.7850 0.03 0
  301.1433 0.60 6
  301.3366 0.06 1
  301.5484 0.09 1
  301.6567 0.02 0
  302.1695 0.97 10
  302.6519 0.08 1
  302.8098 0.08 1
  303.1265 0.68 7
  303.7868 0.06 1
  304.1687 0.16 2
  304.4231 0.02 0
  304.7038 0.02 0
  305.1382 0.31 3
  305.6499 0.03 0
  305.9292 0.07 1
  306.1596 0.20 2
  306.4793 0.04 0
  306.8345 0.08 1
  307.2004 0.42 4
  307.5266 0.05 0
  308.1173 0.33 3
  308.2762 0.23 2
  308.4237 0.03 0
  308.7088 0.03 0
  309.1429 0.30 3
  309.4771 0.06 1
  309.6501 0.07 1
  309.8523 0.03 0
  310.1070 0.19 2
  310.3029 0.20 2
  310.5030 0.10 1
  310.7258 0.03 0
  310.9571 0.09 1
  311.1643 0.33 3
  311.4304 0.05 0
  311.6916 0.02 0
  312.1324 0.39 4
  312.4135 0.01 0
  312.6257 0.03 0
  312.7705 0.05 0
  313.1468 0.48 5
  313.2661 0.26 3
  313.4648 0.08 1
  313.9995 0.11 1
  314.2750 0.09 1
  314.3439 0.04 0
  314.4745 0.06 1
  315.1485 0.39 4
  315.3374 0.17 2
  315.8652 0.11 1
  316.0129 0.04 0
  316.2033 0.12 1
  316.5493 0.11 1
  316.6551 0.04 0
  316.8413 0.07 1
  317.1631 0.45 4
  317.3919 0.02 0
  317.6783 0.10 1
  317.7579 0.04 0
  318.0656 0.14 1
  318.1757 0.09 1
  318.3875 0.03 0
  318.8182 0.07 1
  319.2041 0.43 4
  319.3385 0.12 1
  319.7508 0.02 0
  319.8638 0.09 1
  320.1382 0.10 1
  320.3238 0.16 2
  320.6793 0.05 0
  320.7809 0.04 0
  321.1912 0.94 9
  321.5795 0.03 0
  321.7224 0.04 0
  322.1463 0.24 2
  322.3753 0.09 1
  323.0091 0.08 1
  323.2388 0.38 4
  323.4949 0.05 0
  323.6080 0.03 0
  323.8535 0.01 0
  324.1245 0.16 2
  324.3280 0.03 0
  324.7080 0.07 1
  324.9606 0.11 1
  325.1705 0.40 4
  325.4103 0.06 1
  325.6985 0.05 0
  325.9533 0.08 1
  326.1469 0.21 2
  326.2893 0.06 1
  326.5989 0.03 0
  326.8061 0.05 0
  326.9591 0.08 1
  327.2011 0.40 4
  327.5678 0.10 1
  327.8234 0.07 1
  328.1672 0.36 4
  328.5140 0.06 1
  328.7419 0.03 0
  328.8259 0.03 0
  329.1492 0.55 5
  329.3500 0.12 1
  329.4533 0.05 0
  329.7866 0.02 0
  330.1641 0.23 2
  330.4248 0.03 0
  330.8073 0.04 0
  331.2148 0.43 4
  331.4720 0.04 0
  331.5860 0.04 0
  331.9579 0.09 1
  332.2251 0.26 3
  332.3897 0.17 2
  332.7467 0.05 0
  332.9206 0.05 0
  333.1636 0.26 3
  333.3403 0.04 0
  333.5591 0.05 0
  334.0017 0.09 1
  334.1771 0.13 1
  334.3246 0.08 1
  335.2299 0.66 7
  335.6641 0.03 0
  335.7916 0.02 0
  336.2094 0.38 4
  336.3667 0.20 2
  336.6394 0.04 0
  336.7932 0.09 1
  337.0096 0.16 2
  337.1968 0.33 3
  337.3620 0.13 1
  337.9337 0.08 1
  338.1950 0.22 2
  338.4357 0.05 0
  338.5532 0.04 0
  338.6927 0.11 1
  338.8060 0.07 1
  339.2240 0.56 6
  339.4683 0.05 0
  339.6050 0.05 0
  339.8842 0.06 1
  340.2205 0.25 2
  340.4463 0.09 1
  341.2199 0.33 3
  341.3788 0.11 1
  341.6381 0.08 1
  341.9566 0.02 0
  342.1888 0.22 2
  342.3064 0.04 0
  343.2328 0.38 4
  343.6768 0.04 0
  344.1772 0.15 1
  344.3105 0.07 1
  344.4886 0.09 1
  344.6612 0.06 1
  345.2685 0.29 3
  345.5009 0.06 1
  346.1626 0.23 2
  346.3294 0.13 1
  347.1644 0.15 1
  347.3691 0.08 1
  348.2285 0.16 2
  348.7042 0.08 1
  348.9960 0.07 1
  349.0980 0.04 0
  349.2777 0.15 1
  349.5745 0.02 0
  349.9162 0.06 1
  350.0760 0.19 2
  350.2187 0.13 1
  350.3693 0.07 1
  350.6639 0.01 0
  350.9308 0.03 0
  351.2369 0.17 2
  351.8963 0.06 1
  352.0298 0.03 0
  352.2239 0.27 3
  352.4187 0.04 0
  352.6621 0.07 1
  352.9733 0.17 2
  353.2424 0.32 3
  353.7756 0.03 0
  354.2183 0.28 3
  354.3339 0.12 1
  355.1307 0.17 2
  355.3770 0.14 1
  356.0418 0.04 0
  356.2161 0.06 1
  356.3253 0.03 0
  356.8024 0.06 1
  356.9409 0.03 0
  357.2295 0.26 3
  357.5431 0.02 0
  357.8559 0.04 0
  358.0688 0.11 1
  358.3145 0.13 1
  358.4860 0.06 1
  358.6782 0.04 0
  358.9403 0.08 1
  359.2726 0.42 4
  359.8006 0.06 1
  360.0814 0.15 1
  360.2864 0.12 1
  360.8867 0.01 0
  361.0125 0.02 0
  361.1154 0.02 0
  361.3341 0.10 1
  361.9923 0.05 0
  362.1624 0.07 1
  362.3175 0.15 1
  362.4998 0.03 0
  362.7529 0.09 1
  363.2265 0.19 2
  363.3970 0.09 1
  363.6623 0.03 0
  364.2393 0.11 1
  364.6479 0.02 0
  365.2443 0.19 2
  365.5374 0.06 1
  365.8178 0.06 1
  366.1396 0.09 1
  366.3336 0.06 1
  366.7167 0.08 1
  366.8430 0.04 0
  367.2233 0.34 3
  367.3753 0.09 1
  367.9462 0.08 1
  368.1024 0.14 1
  368.2680 0.12 1
  368.4000 0.08 1
  368.5413 0.04 0
  368.8047 0.03 0
  369.2350 0.48 5
  369.3999 0.15 1
  370.1423 0.09 1
  370.2543 0.12 1
  370.4449 0.05 0
  370.6198 0.01 0
  370.7640 0.02 0
  370.9725 0.04 0
  371.2502 0.17 2
  371.4187 0.05 0
  371.6829 0.06 1
  371.9792 0.08 1
  372.1662 0.05 0
  372.3455 0.06 1
  372.4919 0.05 0
  372.6804 0.02 0
  373.1367 0.11 1
  373.3266 0.18 2
  374.1922 0.18 2
  374.3850 0.05 0
  374.5629 0.05 0
  374.9472 0.02 0
  375.1929 0.09 1
  375.3307 0.07 1
  375.6008 0.03 0
  376.2280 0.15 1
  376.3459 0.08 1
  376.6724 0.05 0
  376.8410 0.02 0
  377.1968 0.15 1
  377.3333 0.14 1
  378.0862 0.05 0
  378.2926 0.09 1
  378.4254 0.07 1
  378.9769 0.07 1
  379.2004 0.17 2
  379.4669 0.02 0
  379.7662 0.11 1
  379.8969 0.08 1
  380.1656 0.14 1
  380.4078 0.09 1
  380.5299 0.02 0
  380.7786 0.02 0
  381.1415 0.16 2
  381.3509 0.25 2
  381.6453 0.03 0
  381.9133 0.01 0
  382.2148 0.11 1
  382.4378 0.04 0
  382.6350 0.05 0
  383.2582 0.38 4
  384.2231 0.27 3
  384.5205 0.04 0
  384.6063 0.02 0
  385.2854 0.41 4
  385.7651 0.06 1
  385.9432 0.09 1
  386.1219 0.09 1
  386.3371 0.13 1
  386.5016 0.11 1
  386.7289 0.04 0
  387.2752 0.36 4
  388.1005 0.13 1
  388.2292 0.05 0
  388.4230 0.05 0
  388.8192 0.01 0
  389.1969 0.16 2
  389.4236 0.06 1
  389.6768 0.03 0
  389.8321 0.02 0
  390.2605 0.27 3
  390.5038 0.04 0
  391.1204 0.08 1
  391.2771 0.23 2
  391.7736 0.05 0
  392.2680 0.16 2
  392.9070 0.05 0
  393.0859 0.10 1
  393.3886 0.13 1
  394.1221 0.15 1
  394.3032 0.09 1
  394.6274 0.05 0
  395.0497 0.07 1
  395.2101 0.06 1
  395.3403 0.06 1
  396.2365 0.12 1
  396.3596 0.10 1
  396.4763 0.10 1
  396.5773 0.05 0
  396.8171 0.05 0
  396.9746 0.07 1
  397.2223 0.11 1
  397.3999 0.10 1
  398.2304 0.12 1
  398.5698 0.09 1
  398.8949 0.02 0
  399.2873 0.49 5
  399.5408 0.05 0
  399.8846 0.02 0
  400.0522 0.12 1
  400.2957 0.21 2
  400.5213 0.10 1
  400.9066 0.09 1
  401.1458 0.22 2
  401.3944 0.35 3
  401.8894 0.04 0
  402.3120 0.48 5
  402.6279 0.03 0
  402.7569 0.01 0
  403.2885 0.19 2
  403.5385 0.03 0
  403.7964 0.02 0
  403.9956 0.10 1
  404.2371 0.10 1
  404.4170 0.02 0
  404.7265 0.01 0
  404.8963 0.05 0
  405.2482 0.10 1
  405.6746 0.03 0
  405.9196 0.06 1
  406.0730 0.04 0
  406.3102 0.13 1
  406.4378 0.07 1
  406.5661 0.07 1
  407.2255 0.16 2
  407.3939 0.14 1
  407.7788 0.06 1
  408.4512 0.04 0
  409.1165 0.13 1
  409.2534 0.14 1
  409.4040 0.03 0
  409.5273 0.04 0
  409.9050 0.06 1
  410.1620 0.02 0
  410.4012 0.06 1
  410.8143 0.03 0
  411.1007 0.09 1
  411.3298 0.22 2
  411.8088 0.08 1
  412.0623 0.06 1
  412.2535 0.13 1
  412.5758 0.07 1
  413.0277 0.13 1
  413.1308 0.08 1
  413.2526 0.07 1
  413.3865 0.07 1
  413.5125 0.01 0
  414.2202 0.31 3
  414.4773 0.02 0
  414.7201 0.01 0
  415.2416 0.18 2
  415.7051 0.05 0
  416.0310 0.12 1
  416.3004 0.52 5
  416.6006 0.09 1
  416.9839 0.03 0
  417.2998 0.37 4
  417.5255 0.12 1
  417.9074 0.08 1
  418.0629 0.08 1
  418.2564 0.23 2
  418.3718 0.09 1
  418.5430 0.12 1
  419.2747 0.09 1
  419.4846 0.04 0
  419.6896 0.08 1
  420.1978 0.07 1
  420.4149 0.04 0
  420.8922 0.01 0
  421.1360 0.05 0
  421.3409 0.12 1
  421.6513 0.08 1
  422.0456 0.05 0
  422.2592 0.08 1
  422.5259 0.03 0
  423.1395 0.16 2
  423.3015 0.09 1
  423.4256 0.12 1
  423.8300 0.06 1
  424.0020 0.02 0
  424.1884 0.11 1
  424.3562 0.04 0
  424.4975 0.03 0
  425.1306 0.12 1
  425.3020 0.14 1
  425.4440 0.17 2
  425.7086 0.05 0
  426.2199 0.08 1
  426.5118 0.08 1
  426.7427 0.05 0
  427.3596 0.15 1
  427.9572 0.09 1
  428.1519 0.05 0
  428.4146 0.10 1
  429.0086 0.09 1
  429.2842 0.20 2
  429.4553 0.09 1
  430.1819 0.06 1
  430.3895 0.07 1
  430.5634 0.04 0
  430.8677 0.03 0
  431.0574 0.04 0
  431.2135 0.21 2
  431.3875 0.28 3
  431.8836 0.03 0
  432.1886 0.13 1
  432.3956 0.17 2
  432.5860 0.01 0
  432.8567 0.03 0
  433.1102 0.04 0
  433.2741 0.18 2
  433.5097 0.15 1
  434.0984 0.12 1
  434.2803 0.40 4
  434.3884 0.12 1
  434.4937 0.05 0
  434.7429 0.05 0
  435.3094 0.78 8
  435.7148 0.04 0
  435.9132 0.08 1
  436.1002 0.10 1
  436.3637 0.05 0
  436.7871 0.10 1
  437.1159 0.10 1
  437.2262 0.07 1
  437.3029 0.04 0
  437.4805 0.05 0
  437.6703 0.04 0
  438.0199 0.05 0
  438.1138 0.06 1
  438.3308 0.07 1
  438.6970 0.05 0
  439.3303 0.14 1
  439.6398 0.02 0
  440.1364 0.06 1
  440.3313 0.06 1
  440.4631 0.03 0
  440.6774 0.08 1
  440.9654 0.05 0
  441.2471 0.14 1
  441.4162 0.21 2
  441.6570 0.04 0
  441.9522 0.01 0
  442.3206 0.22 2
  442.5421 0.03 0
  443.2301 0.22 2
  443.4150 0.14 1
  443.5612 0.10 1
  443.6859 0.08 1
  443.8092 0.01 0
  444.0400 0.01 0
  444.2336 0.09 1
  444.4063 0.03 0
  444.5569 0.08 1
  445.2271 0.18 2
  445.3110 0.09 1
  445.4659 0.14 1
  445.6207 0.05 0
  446.1161 0.08 1
  446.3369 0.08 1
  446.4337 0.05 0
  446.7283 0.07 1
  447.2030 0.12 1
  447.3120 0.12 1
  447.5421 0.07 1
  448.0541 0.05 0
  448.3323 0.03 0
  448.4334 0.05 0
  448.6937 0.06 1
  448.8264 0.03 0
  449.3907 0.22 2
  449.5435 0.07 1
  449.8956 0.05 0
  449.9910 0.04 0
  450.1208 0.16 2
  450.2198 0.10 1
  450.3876 0.07 1
  450.6257 0.05 0
  451.1966 0.14 1
  451.3666 0.17 2
  451.4886 0.06 1
  451.9770 0.04 0
  452.1951 0.09 1
  452.3048 0.03 0
  452.5092 0.07 1
  452.7560 0.03 0
  453.1434 0.07 1
  453.2567 0.08 1
  453.3938 0.19 2
  453.6534 0.09 1
  454.2417 0.11 1
  454.3666 0.02 0
  454.5510 0.10 1
  454.9987 0.03 0
  455.1285 0.06 1
  455.3237 0.08 1
  455.8123 0.07 1
  455.9235 0.02 0
  456.0390 0.06 1
  456.1754 0.07 1
  456.3612 0.10 1
  456.6353 0.02 0
  457.0314 0.08 1
  457.2446 0.30 3
  457.4627 0.09 1
  457.6996 0.08 1
  457.8732 0.02 0
  458.1890 0.14 1
  458.4545 0.10 1
  458.9088 0.03 0
  459.0316 0.04 0
  459.1679 0.23 2
  459.3668 0.27 3
  459.4751 0.12 1
  459.6553 0.05 0
  460.0874 0.08 1
  460.3494 0.12 1
  460.4578 0.03 0
  460.7643 0.03 0
  460.9351 0.05 0
  461.3529 0.13 1
  461.7434 0.01 0
  462.0170 0.02 0
  462.1454 0.06 1
  462.2830 0.04 0
  463.2933 0.06 1
  463.4646 0.07 1
  463.6566 0.04 0
  464.3496 0.05 0
  464.9337 0.07 1
  465.1122 0.03 0
  465.2670 0.04 0
  465.4999 0.13 1
  466.0898 0.03 0
  466.4360 0.03 0
  467.0209 0.06 1
  467.1901 0.18 2
  467.3420 0.08 1
  467.4976 0.12 1
  467.8775 0.05 0
  468.0152 0.10 1
  468.4288 0.11 1
  468.8446 0.03 0
  468.9980 0.10 1
  469.3716 0.11 1
  469.6261 0.04 0
  469.9021 0.05 0
  470.2764 0.11 1
  470.4097 0.13 1
  470.5496 0.05 0
  471.1884 0.09 1
  471.4078 0.09 1
  471.6100 0.04 0
  472.2146 0.08 1
  472.4189 0.09 1
  472.5358 0.05 0
  473.1260 0.13 1
  473.3175 0.10 1
  473.4351 0.06 1
  473.6359 0.05 0
  473.9372 0.02 0
  474.3029 0.06 1
  474.5038 0.07 1
  474.6271 0.08 1
  475.3071 0.03 0
  475.4505 0.11 1
  476.2539 0.05 0
  476.4849 0.05 0
  476.7137 0.02 0
  477.0767 0.04 0
  477.2015 0.10 1
  477.3845 0.03 0
  478.1801 0.10 1
  478.4599 0.20 2
  478.6522 0.15 1
  478.8344 0.03 0
  479.2039 0.09 1
  479.3345 0.08 1
  479.4572 0.06 1
  479.6487 0.07 1
  479.8374 0.08 1
  480.1438 0.03 0
  480.3404 0.10 1
  481.0602 0.10 1
  481.2826 0.12 1
  481.5632 0.02 0
  482.1875 0.08 1
  482.3763 0.06 1
  483.1908 0.09 1
  483.5375 0.11 1
  484.2696 0.17 2
  484.5165 0.11 1
  484.7081 0.05 0
  485.1208 0.12 1
  485.2192 0.08 1
  485.3750 0.09 1
  485.5243 0.22 2
  485.8976 0.10 1
  486.3677 0.48 5
  486.5465 0.10 1
  486.9205 0.08 1
  487.0806 0.01 0
  487.3089 0.21 2
  487.4676 0.05 0
  487.6018 0.07 1
  487.7361 0.02 0
  487.8861 0.07 1
  488.0677 0.02 0
  488.2042 0.05 0
  488.4353 0.25 2
  488.5753 0.06 1
  489.1512 0.11 1
  489.5971 0.01 0
  489.7974 0.09 1
  489.9489 0.02 0
  490.1175 0.13 1
  490.2323 0.15 1
  490.3944 0.04 0
  490.5995 0.05 0
  491.2574 0.09 1
  491.3685 0.05 0
  491.5091 0.03 0
  492.1418 0.05 0
  492.4589 0.03 0
  492.6756 0.04 0
  492.8384 0.05 0
  493.0652 0.04 0
  493.3184 0.11 1
  493.7403 0.03 0
  493.8694 0.07 1
  494.2612 0.12 1
  494.5769 0.03 0
  494.7756 0.09 1
  495.1207 0.09 1
  495.3403 0.16 2
  495.4781 0.12 1
  495.5922 0.10 1
  495.7472 0.13 1
  495.9969 0.06 1
  496.1461 0.04 0
  496.3148 0.11 1
  496.4525 0.07 1
  496.8881 0.03 0
  497.0553 0.05 0
  497.3531 0.16 2
  497.5785 0.09 1
  498.5244 0.05 0
  498.7419 0.05 0
  498.8797 0.04 0
  499.1897 0.08 1
  499.2773 0.05 0
  500.2951 0.17 2
  500.4558 0.13 1
  500.6848 0.10 1
  500.7480 0.05 0
  501.0208 0.11 1
  501.2318 0.12 1
  501.4493 0.05 0
  501.6503 0.06 1
  502.0595 0.08 1
  502.3043 0.19 2
  502.5900 0.03 0
  503.0337 0.02 0
  503.1464 0.07 1
  503.3503 0.12 1
  503.5370 0.17 2
  503.6891 0.04 0
  503.8902 0.03 0
  504.0654 0.04 0
  504.3253 0.07 1
  504.6929 0.09 1
  504.7941 0.05 0
  505.1804 0.03 0
  505.3979 0.07 1
  505.5581 0.06 1
  505.9401 0.02 0
  506.2288 0.09 1
  506.4427 0.07 1
  506.7163 0.06 1
  506.8872 0.02 0
  507.2298 0.02 0
  507.3396 0.02 0
  507.4998 0.10 1
  507.6319 0.10 1
  508.6962 0.17 2
  508.8269 0.03 0
  509.1465 0.03 0
  509.3189 0.10 1
  509.5365 0.16 2
  509.8296 0.04 0
  510.3876 0.14 1
  510.5859 0.06 1
  511.0621 0.08 1
  511.3157 0.10 1
  511.5312 0.11 1
  511.6483 0.13 1
  512.1891 0.03 0
  512.4176 0.11 1
  513.0318 0.10 1
  513.1503 0.12 1
  513.4247 0.18 2
  513.6166 0.07 1
  513.8436 0.06 1
  513.9370 0.03 0
  514.1281 0.03 0
  514.2947 0.03 0
  514.5096 0.10 1
  514.7151 0.03 0
  514.9184 0.08 1
  515.3186 0.10 1
  515.5276 0.04 0
  515.9818 0.05 0
  516.3770 0.21 2
  516.5480 0.14 1
  516.6787 0.05 0
  516.7756 0.05 0
  516.9068 0.05 0
  517.4366 0.04 0
  517.6718 0.03 0
  518.0267 0.20 2
  518.3708 0.06 1
  518.7960 0.05 0
  519.3825 0.11 1
  519.5216 0.06 1
  519.9203 0.04 0
  520.3025 0.05 0
  520.4868 0.10 1
  520.8389 0.10 1
  521.1566 0.08 1
  521.6686 0.13 1
  521.9454 0.11 1
  522.2057 0.06 1
  522.5643 0.16 2
  522.8153 0.20 2
  522.9100 0.09 1
  523.1595 0.09 1
  523.4070 0.15 1
  523.6902 0.26 3
  524.0474 0.06 1
  524.3652 0.12 1
  524.7159 0.20 2
  524.8106 0.11 1
  524.9268 0.10 1
  525.0466 0.12 1
  525.3220 0.15 1
  525.6254 0.08 1
  525.7875 0.08 1
  525.8937 0.07 1
  526.0501 0.16 2
  526.2158 0.14 1
  526.4252 0.14 1
  526.6218 0.17 2
  526.9661 0.12 1
  527.2459 0.11 1
  527.5336 0.13 1
  527.8715 0.13 1
  528.0659 0.15 1
  528.2137 0.07 1
  528.3679 0.06 1
  528.5875 0.18 2
  528.7603 0.08 1
  528.9899 0.13 1
  529.3408 0.34 3
  529.5316 0.23 2
  529.9750 0.09 1
  530.2548 0.28 3
  530.4973 0.46 5
  530.9193 0.09 1
  531.0168 0.11 1
  531.1675 0.07 1
  531.3864 0.25 2
  531.8893 0.12 1
  532.0494 0.04 0
  532.4203 0.12 1
  532.5179 0.10 1
  532.6450 0.06 1
  532.8976 0.03 0
  533.3253 0.09 1
  533.4415 0.05 0
  533.6209 0.07 1
  533.7774 0.04 0
  533.8728 0.02 0
  534.1434 0.09 1
  534.4189 0.06 1
  534.9257 0.09 1
  535.1733 0.06 1
  535.3132 0.08 1
  535.4919 0.07 1
  535.7087 0.06 1
  535.8580 0.08 1
  536.2154 0.10 1
  536.3819 0.08 1
  536.5678 0.12 1
  536.6568 0.07 1
  536.8599 0.05 0
  537.0315 0.18 2
  537.3452 0.66 7
  538.0371 0.30 3
  538.2388 0.09 1
  538.3839 0.18 2
  538.6358 0.23 2
  539.0242 0.21 2
  539.2668 0.27 3
  539.6027 0.26 3
  539.8856 0.32 3
  540.0529 0.12 1
  540.3845 0.35 3
  540.9819 0.38 4
  541.2382 0.33 3
  541.4765 0.39 4
  541.6373 0.22 2
  541.9260 0.29 3
  542.4580 0.40 4
  542.9771 0.36 4
  543.5192 0.39 4
  543.8409 0.36 4
  544.0082 0.18 2
  544.2071 0.30 3
  544.5202 0.47 5
  544.8498 0.42 4
  545.4329 0.44 4
  545.7452 0.42 4
  546.3535 0.61 6
  546.6853 0.36 4
  547.3734 0.50 5
  547.7935 0.27 3
  548.0822 0.26 3
  548.3602 0.32 3
  548.6136 0.27 3
  548.8881 0.35 3
  549.2644 0.19 2
  549.5129 0.36 4
  549.7356 0.46 5
  549.9655 0.34 3
  550.0811 0.24 2
  550.3282 0.30 3
  550.6406 0.30 3
  551.4236 0.80 8
  551.6607 0.49 5
  551.8467 0.13 1
  551.9495 0.06 1
  552.4904 3.87 39
  553.1944 0.25 2
  553.3855 0.20 2
  553.6125 0.27 3
  553.8044 0.21 2
  553.8920 0.11 1
  554.0479 0.10 1
  554.4215 0.30 3
  554.6744 0.10 1
  554.8691 0.11 1
  555.4288 0.72 7
  555.7363 0.27 3
  555.9203 0.11 1
  556.1329 0.05 0
  556.2271 0.04 0
  556.4376 0.11 1
  556.6589 0.11 1
  556.8853 0.04 0
  557.0915 0.12 1
  557.3732 0.18 2
  557.5743 0.09 1
  557.8417 0.19 2
  558.1147 0.32 3
  558.2793 0.34 3
  558.7148 0.59 6
  559.1567 0.93 9
  559.4377 0.92 9
  559.9055 0.90 9
  560.6091 0.75 7
  561.3883 0.62 6
  562.1868 0.91 9
  562.6169 0.71 7
  563.2814 1.17 12
  564.0405 1.12 11
  565.4620 1.38 14
  566.7137 1.42 14
  570.4780 70.91 709
  571.4368 2.19 22
  572.6774 0.93 9
  573.3903 1.25 12
  573.6370 0.71 7
  573.8772 0.31 3
  574.1784 0.38 4
  574.6589 0.54 5
  575.4644 0.48 5
  575.8998 0.62 6
  576.0977 0.50 5
  576.3036 0.38 4
  576.8975 0.50 5
  577.8845 0.51 5
  578.3465 0.50 5
  578.6636 0.55 5
  579.0266 0.42 4
  579.5574 0.76 8
  580.0596 0.69 7
  580.2877 0.38 4
  580.6636 0.85 8
  581.0065 0.62 6
  581.1708 0.37 4
  581.4227 0.71 7
  581.7211 0.41 4
  582.2900 0.76 8
  582.7062 0.68 7
  583.8786 0.72 7
  584.7052 0.83 8
  588.4807 99.97 999
  589.2095 5.87 59
  589.9597 1.54 15
  590.4303 1.06 11
  590.7875 0.82 8
  591.5845 0.73 7
  592.0766 0.30 3
  592.4116 0.30 3
  592.7947 0.34 3
  593.2610 0.33 3
  593.4562 0.20 2
  593.5674 0.14 1
  593.8443 0.21 2
  594.1937 0.11 1
  594.3078 0.05 0
  594.5654 0.07 1
  594.8064 0.05 0
  594.9808 0.20 2
//
