ACCESSION: MSBNK-Kyoto_Univ-CA000024
RECORD_TITLE: beta-Carotenone; FAB-EBEB; MS2; m/z: 600.42; [M]+*
DATE: 2016.01.19 (Created 2010.04.01, modified 2011.05.10)
AUTHORS: Akimoto N, Graduate School of Pharmaceutical Sciences, Kyoto University and Maoka T, Research Institute for Production Development
LICENSE: CC BY-SA
PUBLICATION: Takashi Maoka, Yasuhiro Fujiwara, Keiji Hashimoto, and Naoshige Akimoto, Carotenoids in Three Species of Corbicula Clams, Corbicula japonica, Corbicula sandai, and Corbicula sp. (Chinese Freshwater Corbicula Clam), J. Agric. Food Chem., 53, 8357-8364 (2005).
COMMENT: Profile spectrum of this record is given as a JPEG file.
COMMENT: [Profile] CA000024.jpg
CH$NAME: beta-Carotenone
CH$COMPOUND_CLASS: N/A
CH$FORMULA: C40H56O4
CH$EXACT_MASS: 600.41786
CH$SMILES: C(C)(C)(C(C=CC(C)=CC=CC(C)=CC=CC=C(C)C=CC=C(C)C=CC(C(C)(C)CCCC(C)=O)=O)=O)CCCC(C)=O
CH$IUPAC: InChI=1S/C40H56O4/c1-31(19-13-21-33(3)25-27-37(43)39(7,8)29-15-23-35(5)41)17-11-12-18-32(2)20-14-22-34(4)26-28-38(44)40(9,10)30-16-24-36(6)42/h11-14,17-22,25-28H,15-16,23-24,29-30H2,1-10H3/b12-11+,19-13+,20-14+,27-25+,28-26+,31-17+,32-18+,33-21+,34-22+
CH$LINK: CAS 20126-74-3
CH$LINK: INCHIKEY UQKVQNUNGXYNOJ-JLTXGRSLSA-N
AC$INSTRUMENT: JMS-HX/HX 110A, JEOL
AC$INSTRUMENT_TYPE: FAB-EBEB
AC$MASS_SPECTROMETRY: MS_TYPE MS2
AC$MASS_SPECTROMETRY: ION_MODE POSITIVE
AC$MASS_SPECTROMETRY: ATOM_GUN_CURRENT 5 mA
AC$MASS_SPECTROMETRY: BOMBARDMENT 6 kV xenon
AC$MASS_SPECTROMETRY: COLLISION_ENERGY 3 kV
AC$MASS_SPECTROMETRY: COLLISION_GAS Ar
AC$MASS_SPECTROMETRY: GAS_PRESSURE adjust to attenuate the intensity of the precursor ion by 30 %
AC$MASS_SPECTROMETRY: IONIZATION FAB
AC$MASS_SPECTROMETRY: MATRIX 1-2 uL m-NBA
AC$MASS_SPECTROMETRY: PROBE_TIP stainless-steel
MS$FOCUSED_ION: BASE_PEAK 68.9834
MS$FOCUSED_ION: PRECURSOR_M/Z 600.42
MS$FOCUSED_ION: PRECURSOR_TYPE [M]+*
MS$DATA_PROCESSING: RELATIVE_M/Z normalised by peak(m/z=68.9834).  set 999 for peak(m/z=600.3445,rel=3790).
PK$SPLASH: splash10-0udi-4931124000-20daa7f20a946da21d69
PK$NUM_PEAK: 1458
PK$PEAK: m/z int. rel.int.
  0.6035 0.01 0
  0.6763 0.01 0
  1.7782 0.03 1
  2.4922 0.01 0
  9.5508 0.01 0
  13.9737 0.01 0
  14.9906 0.12 5
  15.7311 0.10 4
  22.9445 0.61 23
  24.9040 0.03 1
  25.2901 0.01 0
  25.9608 0.12 5
  26.9649 0.76 29
  27.9572 0.20 8
  28.9750 0.76 29
  29.9328 0.03 1
  29.9910 0.01 0
  30.9576 0.06 2
  34.6744 0.11 4
  36.0823 0.01 0
  36.9581 0.15 6
  37.9476 0.34 13
  38.9537 1.51 57
  39.5199 0.01 0
  39.8650 0.02 1
  39.9670 0.28 11
  40.9715 4.60 174
  41.9650 0.42 16
  42.9507 19.99 758
  43.4387 0.04 2
  43.9730 0.06 2
  44.9602 0.35 13
  46.7042 0.01 0
  47.4999 0.07 3
  47.8611 0.01 0
  48.9905 0.05 2
  49.9484 0.62 24
  50.9431 1.12 42
  51.9633 0.42 16
  52.6694 0.11 4
  52.9568 1.97 75
  53.2312 0.05 2
  53.9784 0.23 9
  54.9683 4.02 152
  55.9134 0.17 6
  55.9977 0.34 13
  56.9762 0.81 31
  57.6958 0.03 1
  57.9617 0.18 7
  58.4510 0.01 0
  58.6582 0.01 0
  58.9751 0.49 19
  59.9590 0.12 5
  60.0172 0.04 2
  60.9574 0.06 2
  61.9477 0.13 5
  62.0237 0.07 3
  62.9606 1.21 46
  63.1628 0.10 4
  63.9650 0.39 15
  64.9656 1.29 49
  65.3651 0.05 2
  65.9727 0.58 22
  66.9667 2.47 94
  67.9794 0.21 8
  68.6730 0.04 2
  68.9834 26.35 999
  69.9756 0.48 18
  70.1904 0.09 3
  70.4615 0.09 3
  70.9563 5.82 221
  71.1737 0.08 3
  72.8190 0.07 3
  72.9555 0.02 1
  73.9371 0.26 10
  74.0155 0.09 3
  74.1883 0.01 0
  74.9483 0.34 13
  75.0335 0.12 5
  75.1951 0.09 3
  75.5373 0.05 2
  75.9712 0.15 6
  76.2895 0.05 2
  76.9501 3.48 132
  77.4440 0.08 3
  77.9641 1.19 45
  78.2369 0.03 1
  78.6828 0.11 4
  78.9550 2.72 103
  79.1579 0.17 6
  79.9483 0.59 22
  80.1876 0.03 1
  80.3362 0.01 0
  80.9679 3.42 130
  81.9209 0.10 4
  82.0168 0.05 2
  82.9744 1.51 57
  83.8646 0.11 4
  83.9985 0.18 7
  84.9686 1.85 70
  85.8091 0.03 1
  85.9697 0.20 8
  86.8160 0.25 9
  86.9054 0.16 6
  87.0367 0.10 4
  87.9463 0.24 9
  88.3768 0.11 4
  88.8341 0.26 10
  88.9777 0.89 34
  89.5274 0.04 2
  89.6296 0.09 3
  89.9590 0.65 25
  90.4788 0.03 1
  90.9538 7.01 266
  91.1958 0.06 2
  91.9626 0.81 31
  92.6580 0.09 3
  92.9633 3.42 130
  93.2181 0.04 2
  93.9459 0.59 22
  94.5435 0.05 2
  94.7615 0.11 4
  94.9746 2.37 90
  95.8581 0.03 1
  96.0058 0.17 6
  96.9741 0.63 24
  97.1414 0.04 2
  97.7529 0.04 2
  97.9661 0.24 9
  98.8053 0.07 3
  98.9996 0.25 9
  99.3114 0.01 0
  99.8763 0.07 3
  99.9996 0.10 4
  100.9320 0.24 9
  101.0505 0.11 4
  101.6582 0.03 1
  101.8404 0.44 17
  102.0031 0.53 20
  102.6295 0.02 1
  102.9619 1.20 45
  103.9426 0.74 28
  104.2986 0.11 4
  104.4236 0.13 5
  104.9669 7.29 276
  105.2596 0.08 3
  105.5690 0.11 4
  105.9507 0.78 30
  106.9706 2.82 107
  107.5291 0.07 3
  107.9973 0.81 31
  108.9990 26.21 994
  109.9642 0.24 9
  110.9560 0.99 38
  111.8255 0.04 2
  111.9998 0.22 8
  112.6464 0.05 2
  112.8318 0.29 11
  112.9994 0.39 15
  113.1958 0.10 4
  113.3935 0.13 5
  113.7111 0.10 4
  113.9481 0.28 11
  114.3993 0.09 3
  114.4845 0.02 1
  114.5814 0.04 2
  114.9444 4.18 158
  115.2525 0.01 0
  115.4297 0.01 0
  115.6256 0.05 2
  115.9469 1.63 62
  116.2188 0.10 4
  116.9599 3.74 142
  117.1768 0.04 2
  117.3204 0.16 6
  117.4216 0.11 4
  117.5188 0.06 2
  117.6728 0.04 2
  117.9339 0.85 32
  118.9609 6.26 237
  119.8072 0.19 7
  119.9934 0.52 20
  120.9401 4.28 162
  121.5970 0.01 0
  121.7370 0.09 3
  121.9439 0.46 17
  122.4245 0.07 3
  122.9594 2.55 97
  123.5097 0.05 2
  123.6397 0.07 3
  123.9277 0.14 5
  124.9246 0.45 17
  125.1578 0.17 6
  125.7318 0.20 8
  125.9731 0.36 14
  126.1492 0.10 4
  126.4878 0.26 10
  126.5817 0.12 5
  126.9630 5.72 217
  127.2621 0.19 7
  127.3346 0.09 3
  127.9365 4.24 161
  128.2759 0.12 5
  128.4819 0.18 7
  128.6017 0.13 5
  128.9427 5.46 207
  129.6107 0.11 4
  129.9364 1.94 74
  130.1462 0.14 5
  130.9491 4.74 180
  131.3700 0.13 5
  131.9494 1.19 45
  132.9567 2.28 86
  133.1824 0.09 3
  133.2956 0.11 4
  133.5010 0.12 5
  133.9515 0.46 17
  134.2019 0.05 2
  134.5953 0.01 0
  134.9547 2.48 94
  135.9294 1.13 43
  136.7486 0.05 2
  136.9707 0.81 31
  137.8534 0.17 6
  138.0044 0.20 8
  138.9286 1.17 44
  139.9308 0.77 29
  140.1306 0.08 3
  140.2275 0.10 4
  140.3749 0.08 3
  140.5323 0.06 2
  140.9448 3.75 142
  141.5588 0.14 5
  141.9472 3.46 131
  142.3610 0.12 5
  142.4608 0.08 3
  142.9500 6.06 230
  143.2017 0.14 5
  143.9553 2.17 82
  144.2819 0.08 3
  144.9516 6.48 246
  145.7338 0.07 3
  145.9622 0.95 36
  146.3597 0.04 2
  146.9466 3.30 125
  147.2033 0.03 1
  147.4093 0.12 5
  147.5886 0.01 0
  147.8234 0.10 4
  147.9807 0.55 21
  148.5752 0.11 4
  148.9577 1.02 39
  149.5172 0.03 1
  149.7927 0.32 12
  149.9516 0.25 9
  150.0710 0.18 7
  150.2239 0.06 2
  150.4064 0.07 3
  150.9224 0.69 26
  151.1768 0.15 6
  151.3051 0.13 5
  151.4763 0.08 3
  151.5938 0.11 4
  151.9539 1.47 56
  152.1245 0.21 8
  152.2979 0.07 3
  152.4673 0.01 0
  152.9467 1.84 70
  153.2608 0.11 4
  153.5205 0.15 6
  153.9169 1.19 45
  154.1430 0.10 4
  154.3558 0.02 1
  154.9627 3.83 145
  155.2012 0.18 7
  155.3353 0.01 0
  155.9623 2.14 81
  156.9743 5.75 218
  157.2794 0.03 1
  157.4698 0.05 2
  157.7548 0.14 5
  157.9744 1.44 55
  158.3751 0.03 1
  158.9625 13.43 509
  159.4339 0.04 2
  159.5103 0.02 1
  159.7992 0.21 8
  159.9995 0.88 33
  160.4449 0.03 1
  160.9914 1.90 72
  161.2061 0.12 5
  161.4161 0.11 4
  161.9881 0.42 16
  162.9769 0.87 33
  163.3006 0.06 2
  163.6570 0.08 3
  163.8090 0.19 7
  164.0093 0.34 13
  164.2932 0.10 4
  164.5873 0.06 2
  164.9780 3.66 139
  165.3328 0.11 4
  165.6347 0.07 3
  165.9726 1.33 50
  166.4025 0.13 5
  166.4849 0.12 5
  166.6393 0.10 4
  166.9939 2.30 87
  167.2989 0.11 4
  167.7129 0.12 5
  168.0255 1.44 55
  168.2272 0.15 6
  168.4527 0.03 1
  168.6395 0.10 4
  169.0048 3.76 143
  169.2796 0.26 10
  169.3853 0.09 3
  170.0197 1.32 50
  170.4641 0.04 2
  170.5920 0.07 3
  171.0140 1.96 74
  171.2890 0.11 4
  171.5075 0.11 4
  171.6376 0.12 5
  172.0006 0.95 36
  172.3126 0.08 3
  172.5293 0.09 3
  172.6431 0.14 5
  173.0050 2.48 94
  173.3609 0.06 2
  173.4973 0.08 3
  173.6869 0.03 1
  173.9358 0.08 3
  174.0470 0.16 6
  174.1214 0.10 4
  174.6106 0.08 3
  174.7799 0.18 7
  175.0270 0.83 31
  175.8533 0.20 8
  176.0145 0.53 20
  176.2140 0.03 1
  176.6698 0.14 5
  176.7792 0.10 4
  177.0034 0.49 19
  177.1620 0.15 6
  177.5593 0.08 3
  177.6954 0.12 5
  177.9807 1.56 59
  178.1921 0.19 7
  178.3378 0.08 3
  178.5972 0.04 2
  178.9874 2.06 78
  179.2208 0.13 5
  179.6214 0.13 5
  180.0215 1.08 41
  180.1708 0.22 8
  180.2839 0.03 1
  180.4243 0.01 0
  180.9898 2.49 94
  181.2428 0.12 5
  181.9992 1.00 38
  182.3896 0.13 5
  182.9846 3.15 119
  183.3334 0.15 6
  183.9954 0.93 35
  184.6591 0.11 4
  184.9800 1.98 75
  185.2151 0.05 2
  185.9956 0.48 18
  186.6181 0.10 4
  186.9739 0.96 36
  187.9473 0.35 13
  188.0940 0.09 3
  188.7318 0.08 3
  188.9971 1.05 40
  189.1859 0.11 4
  189.5685 0.07 3
  189.7884 0.05 2
  190.0159 0.53 20
  190.2517 0.08 3
  190.6690 0.09 3
  190.9918 0.92 35
  191.2913 0.02 1
  191.9877 1.12 42
  192.2714 0.13 5
  192.4986 0.19 7
  192.9752 2.25 85
  193.3572 0.04 2
  193.6142 0.13 5
  193.9846 1.14 43
  194.4450 0.17 6
  195.0016 3.19 121
  195.4913 0.09 3
  195.7486 0.08 3
  195.8732 0.47 18
  196.0303 1.13 43
  196.2129 0.04 2
  196.4012 0.11 4
  196.4829 0.08 3
  196.6462 0.05 2
  197.0097 2.66 101
  197.3649 0.08 3
  197.8324 0.13 5
  198.0492 0.48 18
  198.9701 1.19 45
  199.9976 0.27 10
  200.5261 0.12 5
  200.7558 0.21 8
  200.9653 0.65 25
  201.9794 1.01 38
  202.1036 0.39 15
  202.3675 0.04 2
  202.6335 0.09 3
  202.9946 0.67 25
  203.2885 0.12 5
  203.7985 0.20 8
  204.0237 0.57 22
  204.2628 0.12 5
  204.6910 0.13 5
  204.9872 1.11 42
  205.1854 0.10 4
  205.9805 0.73 28
  206.6645 0.12 5
  207.0097 1.76 67
  207.2422 0.05 2
  207.5013 0.04 2
  207.9859 1.02 39
  208.4923 0.11 4
  209.0107 3.41 129
  209.3368 0.11 4
  209.6511 0.13 5
  210.0206 0.87 33
  210.5896 0.12 5
  210.7158 0.22 8
  211.0031 1.73 66
  211.4077 0.14 5
  211.5870 0.01 0
  211.7670 0.03 1
  212.0071 0.42 16
  212.1676 0.15 6
  212.4775 0.11 4
  213.0074 0.69 26
  213.8090 0.12 5
  213.9997 0.23 9
  214.2051 0.04 2
  214.5265 0.14 5
  214.8199 0.28 11
  215.0415 0.93 35
  215.3413 0.11 4
  215.5405 0.15 6
  215.9523 0.23 9
  216.3746 0.10 4
  216.5627 0.04 2
  216.7495 0.13 5
  217.0342 0.88 33
  217.3469 0.04 2
  217.7555 0.09 3
  218.0088 0.59 22
  218.3637 0.01 0
  218.8117 0.04 2
  219.0315 1.25 47
  219.3620 0.05 2
  219.4965 0.01 0
  219.7934 0.14 5
  220.0400 0.93 35
  220.2277 0.09 3
  220.3279 0.05 2
  220.6733 0.11 4
  221.0440 5.39 204
  221.6320 0.11 4
  221.8087 0.30 11
  222.0436 1.20 45
  222.5386 0.10 4
  222.7658 0.28 11
  223.0359 2.05 78
  223.3038 0.11 4
  223.4848 0.12 5
  223.7402 0.03 1
  223.9556 0.16 6
  224.0988 0.22 8
  224.3233 0.11 4
  224.4637 0.12 5
  224.7894 0.13 5
  225.0835 1.17 44
  226.0160 0.85 32
  226.5906 0.10 4
  226.8323 0.11 4
  227.0768 0.78 30
  227.2714 0.13 5
  227.4387 0.11 4
  227.5968 0.10 4
  227.8836 0.12 5
  228.0431 0.64 24
  228.7328 0.11 4
  229.0598 0.58 22
  229.3573 0.07 3
  229.5739 0.08 3
  229.7645 0.11 4
  229.9896 0.27 10
  230.1556 0.40 15
  230.8079 0.15 6
  231.0289 1.02 39
  231.1493 0.63 24
  231.7962 0.09 3
  232.0841 0.34 13
  232.3975 0.11 4
  232.6854 0.02 1
  233.0710 0.67 25
  233.2465 0.19 7
  233.8099 0.07 3
  234.0108 0.71 27
  234.1338 0.43 16
  234.5807 0.05 2
  235.0607 1.55 59
  235.6687 0.11 4
  236.0238 0.79 30
  236.1356 0.32 12
  236.5350 0.32 12
  237.0287 1.37 52
  237.7167 0.12 5
  237.9616 0.35 13
  238.1058 0.66 25
  238.3838 0.03 1
  238.6879 0.14 5
  239.0891 0.85 32
  239.2580 0.23 9
  240.0769 0.33 13
  240.5776 0.12 5
  240.9179 0.16 6
  241.1222 0.46 17
  241.7386 0.10 4
  241.8274 0.12 5
  242.0875 0.41 16
  242.2947 0.15 6
  243.0757 0.45 17
  243.3133 0.13 5
  243.4466 0.12 5
  243.6842 0.09 3
  243.9113 0.26 10
  244.1193 0.29 11
  244.4035 0.13 5
  244.6356 0.13 5
  244.7943 0.09 3
  245.0744 1.10 42
  245.5556 0.08 3
  245.8047 0.08 3
  246.0256 0.45 17
  246.1717 0.27 10
  246.7590 0.19 7
  247.0682 1.05 40
  247.3400 0.19 7
  247.7460 0.08 3
  248.1034 0.37 14
  249.0648 1.00 38
  249.8145 0.09 3
  250.0703 0.46 17
  250.2258 0.10 4
  250.7050 0.04 2
  250.8754 0.29 11
  251.0755 0.59 22
  251.4353 0.11 4
  251.7953 0.12 5
  252.0435 0.32 12
  252.2189 0.10 4
  252.3879 0.11 4
  252.7310 0.06 2
  253.1130 0.57 22
  253.8022 0.04 2
  253.9621 0.21 8
  254.1334 0.22 8
  254.4122 0.20 8
  254.6798 0.11 4
  255.0776 0.17 6
  256.0052 0.38 14
  256.2084 0.13 5
  256.4167 0.10 4
  256.7064 0.09 3
  256.8700 0.16 6
  257.0988 0.55 21
  257.6542 0.11 4
  257.8562 0.12 5
  258.0737 0.38 14
  259.0567 0.79 30
  260.0165 0.24 9
  260.1711 0.19 7
  260.7497 0.09 3
  261.0383 0.53 20
  261.2227 0.45 17
  262.1285 0.21 8
  263.0744 0.73 28
  263.9424 0.13 5
  264.1738 0.29 11
  264.6793 0.11 4
  264.7836 0.07 3
  265.0740 0.71 27
  265.3282 0.11 4
  265.8950 0.08 3
  266.1067 0.13 5
  266.2018 0.12 5
  266.9890 0.34 13
  267.1645 0.08 3
  267.2859 0.04 2
  267.9923 0.12 5
  268.2105 0.16 6
  269.1488 0.38 14
  270.1500 0.14 5
  270.6215 0.14 5
  270.8335 0.17 6
  271.0454 0.44 17
  271.1977 0.39 15
  271.3293 0.13 5
  271.5733 0.06 2
  272.0080 0.39 15
  272.2613 0.11 4
  273.1061 1.60 61
  273.3481 0.23 9
  273.9311 0.10 4
  274.1297 0.32 12
  274.5377 0.07 3
  274.6630 0.04 2
  275.1316 0.95 36
  275.6658 0.11 4
  276.0020 0.34 13
  276.1950 0.24 9
  276.9645 0.13 5
  277.1882 0.20 8
  277.9693 0.12 5
  278.1549 0.20 8
  278.5532 0.05 2
  278.9565 0.14 5
  279.1613 0.23 9
  279.3513 0.08 3
  280.0207 0.19 7
  280.1701 0.15 6
  280.7437 0.08 3
  281.0376 0.22 8
  281.2354 0.12 5
  281.6255 0.12 5
  282.2705 0.23 9
  282.9782 0.21 8
  283.1676 0.22 8
  283.3763 0.03 1
  283.9360 0.28 11
  284.1903 0.23 9
  284.7417 0.03 1
  285.0872 0.53 20
  285.6893 0.23 9
  285.8090 0.11 4
  286.0320 0.24 9
  286.2309 0.17 6
  287.0676 0.72 27
  287.8611 0.14 5
  288.1712 0.51 19
  288.6062 0.10 4
  289.0690 0.83 31
  289.2195 0.47 18
  289.3286 0.13 5
  289.7288 0.11 4
  289.8885 0.14 5
  290.0419 0.18 7
  290.1853 0.06 2
  291.0436 0.30 11
  291.2641 0.11 4
  292.1262 0.26 10
  292.2247 0.12 5
  292.3795 0.21 8
  292.6237 0.07 3
  293.0470 0.69 26
  293.2305 0.12 5
  293.3254 0.08 3
  293.7260 0.11 4
  294.1027 0.43 16
  294.9902 0.12 5
  295.1008 0.09 3
  296.9462 0.24 9
  297.1332 0.39 15
  298.1092 0.44 17
  298.2305 0.12 5
  299.0596 0.37 14
  299.2660 0.27 10
  299.5681 0.15 6
  299.9052 0.10 4
  300.1488 0.28 11
  300.3917 0.12 5
  300.6803 0.09 3
  301.0289 0.70 27
  301.3147 0.10 4
  302.0536 0.15 6
  302.1965 0.06 2
  302.7083 0.11 4
  302.7947 0.05 2
  303.1049 0.63 24
  303.4124 0.10 4
  303.9471 0.12 5
  304.0722 0.15 6
  304.8337 0.12 5
  305.0518 0.27 10
  305.2549 0.23 9
  305.8714 0.10 4
  306.0695 0.07 3
  307.0589 0.15 6
  307.2370 0.12 5
  308.0878 0.29 11
  308.9681 0.22 8
  309.1284 0.12 5
  310.1499 0.19 7
  310.9318 0.25 9
  311.1151 0.47 18
  311.3907 0.01 0
  312.0331 0.42 16
  312.1291 0.13 5
  312.2430 0.18 7
  312.3419 0.12 5
  312.8390 0.26 10
  313.1112 0.33 13
  314.0776 0.14 5
  314.1751 0.13 5
  314.2869 0.12 5
  314.8558 0.15 6
  315.0630 0.16 6
  315.2278 0.12 5
  315.4026 0.12 5
  316.0262 0.27 10
  316.1890 0.23 9
  317.0922 0.50 19
  317.2399 0.19 7
  317.9734 0.11 4
  318.1004 0.32 12
  318.2158 0.20 8
  318.6512 0.08 3
  319.0198 0.28 11
  319.1647 0.24 9
  319.9085 0.13 5
  320.1460 0.14 5
  320.9474 0.16 6
  321.1038 0.12 5
  321.5903 0.08 3
  321.7051 0.01 0
  321.8716 0.02 1
  322.0999 0.18 7
  322.2936 0.11 4
  323.0135 0.36 14
  323.1829 0.23 9
  323.4729 0.13 5
  324.0623 0.15 6
  324.8163 0.06 2
  325.0547 0.41 16
  325.1537 0.15 6
  325.8920 0.16 6
  326.0471 0.10 4
  326.1908 0.06 2
  326.9860 0.18 7
  327.1461 0.13 5
  327.3193 0.10 4
  327.6519 0.12 5
  328.1541 0.09 3
  328.5608 0.11 4
  328.9949 0.24 9
  329.1335 0.35 13
  329.8717 0.14 5
  330.1254 0.16 6
  331.0793 0.26 10
  332.0858 0.21 8
  332.2592 0.10 4
  332.9840 0.11 4
  333.7931 0.01 0
  333.9960 0.05 2
  335.0735 0.35 13
  335.3088 0.17 6
  335.4333 0.12 5
  335.9319 0.10 4
  336.1471 0.15 6
  336.4306 0.01 0
  337.0898 0.19 7
  337.3064 0.12 5
  338.2090 0.12 5
  338.3167 0.11 4
  338.6394 0.09 3
  339.1366 0.11 4
  339.5786 0.01 0
  340.9370 0.14 5
  341.1929 0.22 8
  341.3237 0.12 5
  341.9837 0.24 9
  342.1512 0.45 17
  342.3252 0.12 5
  343.1097 0.18 7
  344.1288 0.23 9
  344.2956 0.09 3
  345.0199 0.27 10
  345.1429 0.12 5
  345.2767 0.10 4
  345.9558 0.12 5
  346.1573 0.36 14
  347.0488 0.17 6
  347.2611 0.19 7
  347.3575 0.05 2
  348.0728 0.13 5
  348.6961 0.07 3
  348.9955 0.19 7
  349.1539 0.43 16
  350.0350 0.12 5
  350.2388 0.15 6
  350.5901 0.08 3
  350.8824 0.10 4
  351.0689 0.25 9
  351.1949 0.26 10
  351.4794 0.01 0
  351.8336 0.12 5
  352.0259 0.07 3
  352.1498 0.26 10
  352.2549 0.13 5
  352.5805 0.09 3
  353.0465 0.39 15
  353.2395 0.38 14
  353.4995 0.10 4
  353.6177 0.13 5
  353.9678 0.14 5
  354.1111 0.25 9
  354.1897 0.11 4
  354.6774 0.12 5
  354.8323 0.11 4
  354.9764 0.14 5
  355.1601 0.06 2
  355.3467 0.10 4
  356.7707 0.13 5
  356.8896 0.13 5
  356.9999 0.17 6
  357.3386 0.03 1
  357.9772 0.22 8
  358.2454 0.12 5
  359.0651 0.24 9
  359.1732 0.29 11
  359.2900 0.05 2
  359.4940 0.10 4
  359.8704 0.10 4
  360.0168 0.17 6
  360.2439 0.05 2
  360.4048 0.04 2
  361.0429 0.10 4
  361.2088 0.14 5
  361.2896 0.06 2
  361.8925 0.13 5
  362.0353 0.10 4
  362.1774 0.11 4
  362.6254 0.12 5
  363.0178 0.15 6
  363.2357 0.20 8
  363.3468 0.23 9
  363.9578 0.09 3
  364.0632 0.15 6
  365.1390 0.24 9
  365.3180 0.11 4
  365.4248 0.03 1
  365.9997 0.06 2
  366.1907 0.17 6
  367.0476 0.16 6
  367.2401 0.16 6
  367.8873 0.14 5
  368.0848 0.11 4
  368.2744 0.11 4
  368.9081 0.12 5
  369.1943 0.15 6
  370.0992 0.06 2
  370.5679 0.09 3
  370.7561 0.01 0
  371.0936 0.23 9
  371.2602 0.13 5
  373.1845 0.22 8
  375.1152 0.12 5
  375.2603 0.22 8
  375.6802 0.15 6
  375.8880 0.17 6
  376.0576 0.10 4
  376.2842 0.04 2
  376.8039 0.14 5
  377.1373 0.45 17
  377.3048 0.29 11
  377.8808 0.04 2
  378.2460 0.23 9
  378.6857 0.04 2
  379.1773 0.32 12
  379.3650 0.22 8
  379.5585 0.12 5
  379.8026 0.06 2
  380.1138 0.16 6
  380.2654 0.13 5
  380.3658 0.10 4
  380.4545 0.05 2
  380.6586 0.06 2
  381.0812 0.12 5
  381.5860 0.06 2
  382.1024 0.11 4
  382.6225 0.06 2
  384.9665 0.17 6
  385.1829 0.11 4
  386.1499 0.18 7
  386.4112 0.08 3
  387.3242 0.17 6
  388.2517 0.17 6
  389.1201 0.19 7
  389.2833 0.12 5
  390.2262 0.29 11
  390.3504 0.16 6
  390.8501 0.11 4
  391.1302 0.35 13
  391.2552 0.13 5
  391.9051 0.10 4
  392.1290 0.44 17
  392.3789 0.21 8
  392.9639 0.04 2
  393.1828 0.04 2
  394.0547 0.01 0
  395.0148 0.12 5
  395.0870 0.04 2
  395.4237 0.02 1
  395.7951 0.10 4
  396.3449 0.01 0
  398.9590 0.06 2
  399.1888 0.14 5
  399.6731 0.02 1
  400.1343 0.21 8
  400.3389 0.22 8
  401.3771 0.10 4
  402.1219 0.10 4
  402.7720 0.10 4
  402.9441 0.21 8
  403.1726 0.11 4
  404.0549 0.14 5
  404.2343 0.10 4
  404.3833 0.11 4
  405.2758 0.07 3
  406.8891 0.07 3
  407.0707 0.11 4
  407.2407 0.17 6
  407.8217 0.17 6
  408.0511 0.07 3
  408.4556 0.01 0
  409.1698 0.15 6
  409.6778 0.12 5
  410.2452 0.27 10
  410.5268 0.02 1
  412.3386 0.12 5
  412.9735 0.10 4
  413.1102 0.21 8
  414.2092 0.13 5
  415.1956 0.13 5
  415.3401 0.01 0
  415.9161 0.09 3
  416.0397 0.08 3
  416.1590 0.28 11
  416.3281 0.34 13
  416.5052 0.09 3
  416.9005 0.12 5
  417.0971 0.42 16
  417.2569 0.26 10
  417.7535 0.14 5
  418.1619 0.23 9
  418.3224 0.12 5
  418.6470 0.06 2
  419.0208 0.12 5
  419.1762 0.19 7
  419.3606 0.11 4
  420.1024 0.13 5
  421.1025 0.11 4
  422.1894 0.14 5
  422.3904 0.03 1
  423.2099 0.15 6
  424.6060 0.11 4
  425.1934 0.21 8
  425.3663 0.16 6
  425.8532 0.09 3
  426.1571 0.14 5
  427.1317 0.23 9
  428.0630 0.27 10
  428.8800 0.16 6
  429.1333 0.28 11
  429.3027 0.17 6
  429.5828 0.03 1
  429.9867 0.34 13
  430.2724 0.61 23
  430.7894 0.11 4
  430.9405 0.20 8
  431.2109 0.56 21
  431.3678 0.11 4
  431.5472 0.04 2
  432.1322 0.28 11
  432.3036 0.18 7
  432.7780 0.07 3
  432.9139 0.13 5
  433.1924 0.24 9
  433.7204 0.01 0
  435.0947 0.15 6
  435.2531 0.11 4
  435.9671 0.10 4
  437.2997 0.06 2
  437.9893 0.01 0
  438.3641 0.08 3
  439.2961 0.15 6
  440.1334 0.12 5
  440.9563 0.07 3
  441.1278 0.10 4
  441.3131 0.13 5
  442.0304 0.23 9
  442.4148 0.10 4
  442.6515 0.12 5
  442.8708 0.12 5
  443.0113 0.13 5
  443.1206 0.15 6
  443.2364 0.14 5
  443.3718 0.10 4
  443.8148 0.12 5
  444.2159 0.62 24
  445.2281 2.87 109
  445.4598 0.60 23
  445.7719 0.12 5
  446.1608 0.88 33
  446.4823 0.12 5
  446.7842 0.13 5
  447.1391 1.46 55
  448.1566 0.32 12
  448.3232 0.15 6
  448.4326 0.09 3
  449.6378 0.14 5
  450.0500 0.15 6
  450.2477 0.10 4
  453.6486 0.07 3
  454.0840 0.12 5
  454.3652 0.33 13
  454.9602 0.10 4
  455.1124 0.12 5
  455.2435 0.08 3
  455.4399 0.21 8
  455.9944 0.11 4
  456.3140 0.29 11
  456.4060 0.08 3
  457.0685 0.13 5
  457.2787 0.28 11
  457.4672 0.12 5
  457.9579 0.23 9
  458.2080 0.22 8
  458.3203 0.23 9
  458.4617 0.09 3
  458.9351 0.10 4
  459.1287 0.27 10
  459.2679 0.17 6
  459.3846 0.11 4
  459.5078 0.10 4
  460.3401 0.11 4
  460.5025 0.05 2
  461.0942 0.23 9
  461.3719 0.23 9
  461.6685 0.13 5
  461.8831 0.10 4
  462.1768 0.12 5
  462.9142 0.11 4
  463.0499 0.17 6
  463.2507 0.15 6
  463.5481 0.12 5
  464.2124 0.23 9
  464.3546 0.14 5
  464.5061 0.11 4
  465.1495 0.07 3
  465.4730 0.10 4
  467.1967 0.16 6
  467.3031 0.10 4
  467.9084 0.09 3
  468.0365 0.07 3
  469.2356 0.11 4
  469.7932 0.04 2
  470.3529 0.11 4
  470.6252 0.12 5
  471.0308 0.11 4
  471.1706 0.15 6
  471.4240 0.14 5
  471.8941 0.08 3
  472.1186 0.47 18
  472.2070 0.25 9
  472.6075 0.09 3
  472.7183 0.08 3
  473.2087 2.10 80
  473.4970 0.74 28
  473.6086 0.12 5
  474.1352 0.16 6
  474.3271 0.36 14
  474.4293 0.22 8
  474.5676 0.13 5
  474.9545 0.09 3
  475.2754 0.11 4
  475.4761 0.12 5
  475.9760 0.04 2
  476.3361 0.14 5
  476.5947 0.02 1
  476.9048 0.20 8
  477.1918 0.25 9
  477.2954 0.13 5
  478.1946 0.11 4
  478.5975 0.12 5
  478.7062 0.12 5
  479.1671 0.13 5
  479.5157 0.10 4
  480.3361 0.01 0
  481.0275 0.13 5
  481.2391 0.11 4
  481.5030 0.13 5
  482.1952 0.19 7
  483.3158 0.11 4
  483.5319 0.13 5
  484.2713 0.13 5
  484.7056 0.13 5
  484.9926 0.12 5
  485.0949 0.18 7
  485.3951 0.15 6
  486.0121 0.14 5
  486.2528 0.23 9
  486.4225 0.11 4
  486.6233 0.17 6
  486.8488 0.19 7
  487.3586 0.69 26
  487.5848 0.34 13
  488.1497 0.16 6
  488.3709 0.08 3
  488.5725 0.11 4
  488.7081 0.05 2
  489.3956 0.08 3
  490.1470 0.32 12
  490.3602 0.15 6
  491.2683 0.07 3
  492.0851 0.10 4
  492.2396 0.16 6
  492.8068 0.09 3
  493.3059 0.09 3
  493.6737 0.09 3
  494.6202 0.08 3
  495.0476 0.23 9
  495.3373 0.13 5
  495.7995 0.07 3
  496.2320 0.21 8
  496.5515 0.09 3
  497.2709 0.06 2
  497.5563 0.11 4
  498.0823 0.10 4
  499.3619 0.11 4
  499.7467 0.09 3
  500.0177 0.14 5
  500.2518 0.31 12
  500.3945 0.16 6
  501.1801 0.13 5
  501.3743 0.15 6
  501.5960 0.07 3
  501.8164 0.04 2
  502.1150 0.19 7
  503.3152 0.11 4
  504.3408 0.11 4
  504.9598 0.07 3
  505.2222 0.14 5
  505.3788 0.03 1
  506.2161 0.25 9
  506.4720 0.03 1
  506.8548 0.04 2
  507.0955 0.11 4
  507.2195 0.14 5
  507.3956 0.09 3
  507.6189 0.12 5
  507.9916 0.09 3
  508.3200 0.76 29
  508.5361 0.32 12
  509.5766 0.04 2
  510.1676 0.14 5
  510.3329 0.02 1
  510.6259 0.12 5
  511.0080 0.01 0
  512.2510 0.19 7
  513.1227 0.12 5
  514.0374 0.12 5
  514.2194 0.18 7
  514.3434 0.15 6
  514.4661 0.13 5
  514.5683 0.09 3
  514.8041 0.04 2
  514.9121 0.04 2
  515.1950 0.43 16
  515.4445 0.30 11
  515.5316 0.16 6
  515.8203 0.05 2
  516.2382 0.20 8
  517.2167 0.12 5
  517.9408 0.14 5
  518.1113 0.05 2
  518.3921 0.11 4
  520.1733 0.21 8
  520.4229 0.45 17
  520.5637 0.14 5
  520.6609 0.13 5
  521.0286 0.21 8
  521.1829 0.21 8
  521.4109 0.12 5
  521.5934 0.15 6
  522.0828 0.09 3
  522.2153 0.07 3
  523.6636 0.05 2
  523.8453 0.11 4
  524.4457 0.11 4
  525.3010 0.13 5
  526.2346 0.38 14
  526.5170 0.12 5
  526.6205 0.03 1
  527.1732 0.10 4
  527.2558 0.08 3
  528.0771 0.15 6
  528.3140 0.23 9
  528.5060 0.13 5
  528.8682 0.10 4
  529.2543 0.20 8
  529.4716 0.23 9
  530.2612 0.13 5
  530.5496 0.22 8
  531.1240 0.10 4
  531.4327 0.17 6
  531.5414 0.18 7
  534.1077 0.10 4
  534.7852 0.12 5
  535.0584 0.11 4
  535.3091 0.11 4
  535.7128 0.11 4
  536.0723 0.07 3
  536.8049 0.14 5
  537.1528 0.13 5
  537.2637 0.07 3
  538.0747 0.02 1
  538.3465 0.11 4
  539.2604 0.11 4
  539.5142 0.12 5
  539.9128 0.10 4
  540.0657 0.12 5
  540.1992 0.07 3
  540.3347 0.13 5
  540.4449 0.15 6
  541.2480 0.06 2
  541.4866 0.21 8
  542.2093 0.19 7
  543.0408 0.12 5
  543.3069 0.13 5
  544.1407 0.13 5
  544.3734 0.22 8
  545.9041 0.14 5
  546.4333 0.04 2
  548.2260 0.12 5
  549.9941 0.06 2
  550.3139 0.17 6
  551.0552 0.17 6
  551.1625 0.06 2
  551.4127 0.10 4
  551.7123 0.01 0
  552.2672 0.18 7
  552.7612 0.09 3
  553.1224 0.18 7
  553.2885 0.23 9
  553.5315 0.11 4
  553.9602 0.23 9
  554.1670 0.11 4
  554.2794 0.22 8
  554.8845 0.04 2
  555.1398 0.24 9
  555.2269 0.12 5
  555.4271 0.17 6
  555.7281 0.11 4
  555.9952 0.21 8
  556.3499 0.40 15
  556.4703 0.17 6
  556.6075 0.28 11
  556.8324 0.34 13
  557.0094 0.66 25
  557.2503 1.33 50
  557.5108 1.11 42
  557.7161 0.25 9
  558.0557 0.11 4
  558.2988 0.33 13
  558.4845 0.28 11
  558.6957 0.02 1
  559.3516 0.16 6
  559.5519 0.17 6
  559.8312 0.13 5
  560.0881 0.09 3
  562.0780 0.10 4
  563.4497 0.10 4
  563.8873 0.11 4
  564.0100 0.02 1
  564.1704 0.12 5
  564.2909 0.12 5
  565.2867 0.17 6
  565.9559 0.11 4
  566.4390 0.09 3
  566.5512 0.12 5
  566.7504 0.12 5
  567.1408 0.13 5
  567.3313 0.13 5
  567.4740 0.11 4
  567.9122 0.12 5
  568.0158 0.12 5
  568.2157 0.25 9
  568.4120 0.25 9
  568.5054 0.13 5
  569.1023 0.07 3
  569.2646 0.23 9
  569.3936 0.23 9
  569.5464 0.11 4
  569.7709 0.15 6
  569.8709 0.07 3
  570.0042 0.11 4
  570.2498 0.34 13
  570.3664 0.25 9
  570.5149 0.12 5
  570.7352 0.03 1
  570.9199 0.11 4
  571.1415 0.26 10
  571.3538 0.76 29
  571.5719 0.34 13
  571.8711 0.08 3
  572.0066 0.10 4
  572.1906 0.35 13
  572.3442 0.28 11
  572.5970 0.18 7
  572.7521 0.20 8
  572.8441 0.04 2
  572.9825 0.10 4
  573.1027 0.09 3
  573.2419 0.12 5
  573.4194 0.10 4
  573.6853 0.11 4
  574.1026 0.09 3
  574.3823 0.14 5
  574.6214 0.21 8
  575.1823 0.12 5
  575.3503 0.08 3
  575.5692 0.14 5
  575.7061 0.12 5
  575.8749 0.16 6
  576.1938 0.03 1
  576.4945 0.06 2
  576.6496 0.13 5
  576.8641 0.25 9
  577.0199 0.29 11
  577.2366 0.06 2
  577.3786 0.11 4
  577.7236 0.28 11
  578.0091 0.11 4
  578.1229 0.13 5
  578.2990 0.32 12
  578.5823 0.26 10
  578.8418 0.18 7
  579.1179 0.29 11
  579.3759 0.14 5
  579.7035 0.36 14
  579.8883 0.18 7
  580.0739 0.23 9
  580.2616 0.18 7
  580.3848 0.17 6
  580.5834 0.25 9
  581.0386 0.40 15
  581.1828 0.21 8
  581.3560 0.40 15
  581.6155 0.29 11
  581.8975 0.38 14
  582.4288 4.90 186
  582.6861 2.04 77
  583.4023 1.19 45
  583.5683 0.51 19
  583.7147 0.39 15
  583.9988 0.39 15
  584.3737 0.67 25
  584.5977 0.23 9
  584.9456 0.45 17
  585.3871 3.21 122
  585.5306 2.09 79
  585.7220 0.29 11
  585.8366 0.13 5
  586.0613 0.15 6
  586.2687 0.45 17
  586.4194 0.19 7
  586.6188 0.25 9
  587.0589 0.16 6
  587.2684 0.11 4
  587.3736 0.01 0
  587.5533 0.19 7
  587.8448 0.15 6
  588.0964 0.06 2
  588.3161 0.04 2
  588.5430 0.03 1
  589.1332 0.23 9
  589.3356 0.08 3
  589.6219 0.17 6
  589.8272 0.22 8
  589.9590 0.12 5
  590.2024 0.13 5
  590.4204 0.09 3
  590.5616 0.17 6
  590.6855 0.14 5
  590.9440 0.13 5
  591.1259 0.09 3
  591.2830 0.12 5
  591.4924 0.26 10
  591.7654 0.36 14
  591.8328 0.15 6
  592.0689 0.39 15
  592.2203 0.26 10
  592.3347 0.06 2
  592.5477 0.07 3
  592.6926 0.27 10
  592.8628 0.29 11
  593.0613 0.18 7
  593.1497 0.09 3
  593.3539 0.11 4
  593.4814 0.07 3
  593.7393 0.49 19
  593.8827 0.19 7
  594.0804 0.26 10
  594.2275 0.14 5
  594.4854 0.30 11
  594.6404 0.22 8
  594.9838 0.64 24
  595.2576 0.43 16
  595.5496 0.47 18
  595.7532 0.76 29
  595.9365 0.48 18
  596.5240 1.01 38
  600.3445 99.97 999
  601.0880 9.32 353
  601.7720 4.53 172
  602.3851 3.21 122
  602.9459 2.09 79
  603.3105 1.68 64
  603.6149 1.32 50
  604.2519 0.82 31
  604.6548 0.47 18
  604.9505 0.48 18
  605.1368 0.20 8
  605.2317 0.23 9
  605.4397 0.43 16
  605.7463 0.01 0
  605.9333 0.14 5
  606.1166 0.11 4
  606.3863 0.33 13
  606.4653 0.16 6
  606.6863 0.16 6
  606.8516 0.25 9
  607.0582 0.39 15
  607.1633 0.31 12
  607.4481 0.14 5
  607.5967 0.11 4
  607.9236 0.05 2
  608.0671 0.24 9
  608.1853 0.13 5
  608.3339 0.09 3
  608.8964 0.14 5
  609.8119 0.09 3
  610.2316 0.13 5
  611.1863 0.01 0
//
