ACCESSION: MSBNK-Kyoto_Univ-CA000155
RECORD_TITLE: Nostoxanthin; FAB-EBEB; MS2; m/z: 600.42; [M]*+
DATE: 2016.01.19 (Created 2007.03.15, modified 2011.05.10)
AUTHORS: Akimoto N, Graduate School of Pharmaceutical Sciences, Kyoto University and Maoka T, Research Institute for Production Development
LICENSE: CC BY-SA
COMMENT: Profile spectrum of this record is given as a JPEG file.
COMMENT: [Profile] CA000155.jpg
CH$NAME: Nostoxanthin
CH$COMPOUND_CLASS: Natural Product; Carotenoid
CH$FORMULA: C40H56O4
CH$EXACT_MASS: 600.41786
CH$SMILES: C(C=CC(C)=CC=CC(C)=CC=CC=C(C)C=CC=C(C)C=CC(C(C)(C)2)=C(C)CC(C(O)2)O)(C(C)(C)1)=C(C)CC(C(O)1)O
CH$IUPAC: InChI=1S/C40H56O4/c1-27(17-13-19-29(3)21-23-33-31(5)25-35(41)37(43)39(33,7)8)15-11-12-16-28(2)18-14-20-30(4)22-24-34-32(6)26-36(42)38(44)40(34,9)10/h11-24,35-38,41-44H,25-26H2,1-10H3/b12-11+,17-13+,18-14+,23-21+,24-22+,27-15+,28-16+,29-19+,30-20+/t35-,36-,37+,38+/m1/s1
CH$LINK: CHEMSPIDER 9379252
CH$LINK: PUBCHEM CID:11204184
CH$LINK: INCHIKEY JVPASJUYZJKFHY-HWFHZMFDSA-N
AC$INSTRUMENT: JMS-HX/HX 110A, JEOL
AC$INSTRUMENT_TYPE: FAB-EBEB
AC$MASS_SPECTROMETRY: MS_TYPE MS2
AC$MASS_SPECTROMETRY: ION_MODE POSITIVE
AC$MASS_SPECTROMETRY: ATOM_GUN_CURRENT 5 mA
AC$MASS_SPECTROMETRY: BOMBARDMENT 6 kV xenon
AC$MASS_SPECTROMETRY: COLLISION_ENERGY 3 kV
AC$MASS_SPECTROMETRY: COLLISION_GAS Ar
AC$MASS_SPECTROMETRY: GAS_PRESSURE adjust to attenuate the intensity of the precursor ion by 30 %
AC$MASS_SPECTROMETRY: IONIZATION FAB
AC$MASS_SPECTROMETRY: MATRIX 1-2 uL m-NBA
AC$MASS_SPECTROMETRY: PROBE_TIP stainless-steel
MS$FOCUSED_ION: BASE_PEAK 600.3630
MS$FOCUSED_ION: PRECURSOR_M/Z 600.42
MS$FOCUSED_ION: PRECURSOR_TYPE [M]+*
PK$SPLASH: splash10-0udi-0930025000-aa53fff8f384760beb22
PK$NUM_PEAK: 1309
PK$PEAK: m/z int. rel.int.
  7.3529 0.01 0
  8.3916 0.01 0
  12.9851 0.03 0
  13.9896 0.04 0
  14.9931 0.12 1
  18.9765 0.05 0
  22.9274 0.06 1
  25.9707 0.10 1
  26.9696 0.34 3
  27.9753 0.04 0
  28.9577 0.29 3
  30.9741 0.06 1
  36.9223 0.03 0
  37.9750 0.09 1
  38.9534 0.35 3
  39.9651 0.02 0
  40.9683 0.48 5
  41.8961 0.01 0
  41.9843 0.14 1
  42.9802 0.49 5
  44.0159 0.01 0
  44.9607 0.10 1
  46.8715 0.06 1
  49.9551 0.26 3
  50.9356 0.10 1
  51.9792 0.05 0
  53.0029 0.38 4
  55.0157 0.45 4
  55.3701 0.01 0
  57.0029 0.22 2
  58.8069 0.01 0
  59.0006 0.05 0
  59.9958 0.13 1
  60.9795 0.02 0
  61.9538 0.05 0
  62.8458 0.04 0
  62.9737 0.09 1
  63.3603 0.02 0
  63.9829 0.02 0
  64.9913 0.07 1
  65.7982 0.04 0
  66.7815 0.02 0
  67.0011 0.25 2
  67.9467 0.02 0
  68.9986 0.56 6
  70.9340 0.16 2
  72.9382 0.08 1
  73.0245 0.01 0
  73.7043 0.08 1
  73.8639 0.05 0
  73.9891 0.20 2
  74.7133 0.02 0
  74.9392 0.06 1
  75.0167 0.04 0
  75.9729 0.10 1
  76.7543 0.12 1
  76.9664 0.68 7
  77.4169 0.11 1
  77.7952 0.07 1
  77.9866 0.20 2
  78.7717 0.04 0
  78.9720 1.13 11
  79.4015 0.09 1
  79.8983 0.09 1
  80.0074 0.14 1
  80.9814 1.24 12
  81.9215 0.03 0
  83.0043 0.50 5
  83.4580 0.09 1
  84.7979 0.01 0
  85.0047 0.26 3
  85.6444 0.06 1
  85.7868 0.16 2
  86.0147 0.10 1
  86.6737 0.06 1
  86.9423 0.62 6
  87.8386 0.03 0
  87.9422 0.02 0
  88.5764 0.12 1
  88.9342 0.39 4
  89.2195 0.15 1
  89.3705 0.04 0
  89.8300 0.02 0
  89.9464 0.17 2
  90.1234 0.06 1
  90.2680 0.02 0
  90.9463 3.65 36
  91.5538 0.02 0
  91.9425 0.39 4
  92.0890 0.08 1
  92.2502 0.05 0
  92.9681 1.71 17
  93.8775 0.13 1
  94.0308 0.22 2
  94.4477 0.05 0
  94.7498 0.15 1
  95.0074 1.53 15
  95.9806 0.09 1
  96.6122 0.09 1
  96.9895 0.40 4
  97.9931 0.08 1
  98.9151 0.03 0
  100.7506 0.07 1
  100.9889 0.46 5
  101.1444 0.10 1
  101.5994 0.11 1
  101.7306 0.13 1
  101.8217 0.08 1
  101.9379 0.28 3
  102.0001 0.14 1
  102.5005 0.11 1
  102.6552 0.08 1
  102.9717 1.50 15
  103.7145 0.09 1
  103.9774 0.51 5
  104.2619 0.11 1
  104.4090 0.07 1
  104.9717 6.57 66
  105.7128 0.05 0
  105.9799 0.52 5
  106.9861 3.91 39
  107.7007 0.06 1
  107.8049 0.03 0
  108.0258 0.23 2
  108.3143 0.01 0
  108.6550 0.09 1
  108.9984 1.84 18
  109.4393 0.04 0
  110.0038 0.05 0
  110.9823 0.33 3
  111.0836 0.12 1
  112.0320 0.11 1
  112.9243 0.21 2
  113.1858 0.08 1
  113.3272 0.06 1
  113.4474 0.02 0
  113.8852 0.23 2
  114.1958 0.11 1
  114.3412 0.04 0
  114.9200 3.35 33
  115.2972 0.06 1
  115.4833 0.01 0
  115.9205 1.17 12
  116.2996 0.01 0
  116.9349 3.35 33
  117.9714 0.82 8
  118.2447 0.08 1
  118.9625 9.27 93
  119.4401 0.11 1
  119.6539 0.12 1
  119.9750 1.44 14
  120.4903 0.05 0
  120.9684 3.14 31
  121.2079 0.08 1
  121.3873 0.08 1
  121.7545 0.07 1
  121.9425 0.33 3
  122.5195 0.01 0
  122.9769 1.02 10
  123.9226 0.29 3
  124.1377 0.02 0
  124.7959 0.20 2
  124.9872 0.32 3
  125.0959 0.12 1
  125.6104 0.06 1
  125.7127 0.06 1
  125.8879 0.22 2
  126.4492 0.02 0
  126.9320 1.27 13
  127.0801 0.26 3
  127.2681 0.08 1
  127.3928 0.06 1
  127.9010 5.37 54
  128.2624 0.11 1
  128.9099 5.43 54
  129.2698 0.10 1
  129.6528 0.28 3
  129.9423 2.06 21
  130.3532 0.06 1
  130.5040 0.02 0
  130.9446 5.00 50
  131.3980 0.04 0
  131.6061 0.08 1
  131.9627 1.30 13
  132.2905 0.05 0
  132.6322 0.38 4
  132.9675 5.82 58
  133.3385 0.05 0
  133.6247 0.10 1
  133.7735 0.06 1
  133.9874 0.86 9
  134.2238 0.05 0
  134.6224 0.11 1
  134.9618 1.89 19
  135.7175 0.14 1
  135.9788 0.31 3
  136.7513 0.14 1
  136.9436 1.14 11
  137.2107 0.10 1
  137.7314 0.05 0
  137.9492 0.14 1
  138.6537 0.21 2
  138.9261 0.94 9
  139.3761 0.06 1
  139.5466 0.01 0
  139.9943 0.22 2
  140.1316 0.12 1
  140.2750 0.18 2
  140.4595 0.13 1
  140.8937 4.54 45
  141.3009 0.10 1
  141.4491 0.06 1
  141.9177 4.03 40
  142.2516 0.05 0
  142.5449 0.18 2
  142.9369 8.38 84
  143.6080 0.14 1
  143.9465 2.34 23
  144.1917 0.10 1
  144.4337 0.06 1
  144.9591 7.35 73
  145.6597 0.10 1
  145.9528 0.95 9
  146.3362 0.13 1
  146.4918 0.09 1
  146.6796 0.15 1
  146.9810 3.99 40
  147.5613 0.10 1
  147.6716 0.03 0
  147.7680 0.05 0
  147.9934 0.57 6
  148.7478 0.20 2
  148.9801 1.31 13
  149.2025 0.06 1
  149.7144 0.05 0
  149.8733 0.22 2
  150.0355 0.20 2
  150.6330 0.24 2
  150.9389 0.98 10
  151.2819 0.13 1
  151.8721 1.67 17
  152.2281 0.04 0
  152.3860 0.10 1
  152.6198 0.42 4
  152.9384 3.05 30
  153.3170 0.06 1
  153.5941 0.09 1
  153.9548 1.26 13
  154.9363 4.57 46
  155.1620 0.08 1
  155.2718 0.03 0
  155.6613 0.25 2
  155.9632 3.50 35
  156.4076 0.12 1
  156.9722 7.63 76
  157.3252 0.20 2
  157.7026 0.05 0
  157.9977 1.82 18
  158.3658 0.06 1
  159.0024 4.06 41
  159.2255 0.12 1
  159.5257 0.09 1
  159.6522 0.10 1
  159.9654 0.59 6
  160.7538 0.22 2
  161.0070 1.87 19
  161.3849 0.07 1
  161.5157 0.09 1
  162.0218 0.32 3
  162.1093 0.12 1
  162.4787 0.10 1
  162.7357 0.10 1
  163.0076 0.55 5
  163.4561 0.10 1
  163.6081 0.09 1
  163.9454 0.29 3
  164.0744 0.10 1
  164.2414 0.12 1
  164.5911 0.33 3
  164.9755 4.21 42
  165.3744 0.02 0
  165.5205 0.14 1
  165.9651 1.42 14
  166.1895 0.31 3
  166.3581 0.05 0
  166.4520 0.03 0
  166.9595 4.24 42
  167.2726 0.01 0
  167.6306 0.12 1
  167.9833 1.84 18
  168.3893 0.06 1
  168.6618 0.18 2
  169.0209 4.43 44
  169.3228 0.11 1
  169.4585 0.10 1
  169.6167 0.08 1
  170.0040 1.90 19
  170.2796 0.04 0
  171.0117 4.21 42
  171.3676 0.16 2
  171.6453 0.07 1
  172.0150 0.78 8
  172.2036 0.08 1
  172.3398 0.07 1
  172.4986 0.04 0
  172.6355 0.05 0
  172.7704 0.26 3
  173.0429 1.93 19
  173.6012 0.02 0
  173.7355 0.06 1
  174.0348 0.50 5
  174.2728 0.10 1
  174.5941 0.17 2
  175.0369 1.32 13
  175.4212 0.12 1
  175.5161 0.10 1
  175.7148 0.07 1
  175.9804 0.59 6
  176.1962 0.09 1
  176.5371 0.03 0
  176.6922 0.12 1
  176.9621 0.32 3
  177.1705 0.07 1
  177.2642 0.04 0
  177.4761 0.26 3
  177.9554 2.31 23
  178.1517 0.13 1
  178.4184 0.08 1
  178.9774 3.17 32
  179.1855 0.14 1
  179.5585 0.10 1
  179.9598 1.47 15
  180.3598 0.23 2
  180.5735 0.26 3
  180.9894 4.09 41
  181.5172 0.19 2
  181.9944 1.77 18
  182.5019 0.10 1
  182.6501 0.04 0
  183.0103 4.50 45
  183.2635 0.11 1
  183.3754 0.20 2
  183.6568 0.20 2
  184.0194 1.16 12
  184.2329 0.07 1
  184.4314 0.09 1
  184.5660 0.17 2
  184.6718 0.08 1
  185.0229 2.21 22
  185.2682 0.13 1
  185.5273 0.07 1
  185.6070 0.06 1
  186.0023 0.60 6
  186.1199 0.13 1
  186.3454 0.04 0
  186.4933 0.11 1
  186.6109 0.05 0
  186.7320 0.13 1
  186.8145 0.09 1
  187.0175 0.88 9
  187.1846 0.11 1
  187.4977 0.08 1
  187.7187 0.10 1
  188.0436 0.36 4
  188.6178 0.27 3
  188.7273 0.25 2
  188.9760 1.08 11
  189.3776 0.05 0
  189.7469 0.28 3
  189.9572 0.63 6
  190.1688 0.15 1
  190.2984 0.09 1
  190.4445 0.11 1
  190.6493 0.25 2
  190.9631 1.39 14
  191.5218 0.07 1
  191.9661 1.64 16
  192.4306 0.10 1
  192.6011 0.10 1
  192.9877 3.17 32
  193.4194 0.04 0
  193.6432 0.08 1
  193.9630 1.72 17
  194.9803 4.56 46
  195.5839 0.22 2
  195.9726 1.26 13
  196.3434 0.13 1
  196.4299 0.11 1
  196.5281 0.06 1
  197.0195 2.75 27
  197.4099 0.11 1
  197.5102 0.11 1
  197.5961 0.05 0
  197.7152 0.13 1
  197.8426 0.15 1
  198.0302 0.91 9
  198.3052 0.01 0
  198.5919 0.10 1
  198.7672 0.09 1
  199.0194 1.56 16
  199.4089 0.06 1
  199.4955 0.06 1
  199.6105 0.09 1
  199.8393 0.12 1
  200.0258 0.22 2
  200.1582 0.11 1
  200.7005 0.08 1
  200.9494 0.43 4
  201.1222 0.07 1
  201.4781 0.02 0
  201.6404 0.14 1
  201.9534 0.87 9
  202.9662 1.61 16
  203.1884 0.18 2
  203.4871 0.04 0
  203.9734 0.52 5
  204.0734 0.17 2
  204.4104 0.01 0
  204.6210 0.11 1
  204.9824 1.97 20
  205.5330 0.05 0
  205.6123 0.03 0
  205.9927 1.40 14
  206.3704 0.02 0
  206.5749 0.20 2
  206.9889 3.04 30
  207.4071 0.03 0
  207.5164 0.03 0
  207.6424 0.08 1
  208.0134 1.24 12
  208.2954 0.10 1
  208.4674 0.23 2
  208.6499 0.13 1
  209.0190 2.29 23
  209.4057 0.11 1
  209.6823 0.14 1
  210.0321 0.71 7
  210.5897 0.10 1
  211.0310 1.43 14
  211.5066 0.17 2
  211.8895 0.02 0
  212.0660 0.42 4
  212.3325 0.10 1
  212.5237 0.12 1
  212.6870 0.09 1
  213.0178 0.55 5
  213.2000 0.08 1
  213.5204 0.13 1
  213.6677 0.16 2
  213.7864 0.09 1
  213.9337 0.10 1
  214.2933 0.05 0
  214.4365 0.10 1
  214.6398 0.30 3
  214.9876 1.23 12
  215.4900 0.07 1
  215.7192 0.18 2
  215.9911 0.25 2
  216.2630 0.03 0
  216.4601 0.13 1
  216.6062 0.13 1
  216.7656 0.13 1
  216.9775 0.81 8
  217.6761 0.12 1
  217.7713 0.10 1
  217.9979 0.36 4
  218.1805 0.07 1
  218.5787 0.06 1
  218.6780 0.08 1
  218.7781 0.11 1
  219.0098 1.47 15
  219.3205 0.12 1
  219.4192 0.10 1
  220.0011 1.05 10
  220.3876 0.08 1
  220.7784 0.26 3
  221.0376 1.72 17
  221.8224 0.23 2
  222.0207 0.59 6
  222.3095 0.04 0
  222.4924 0.11 1
  223.0435 1.15 11
  223.5000 0.08 1
  223.6501 0.11 1
  224.0162 0.26 3
  224.1186 0.33 3
  224.4126 0.04 0
  224.7620 0.17 2
  225.0631 0.88 9
  225.5214 0.03 0
  225.7986 0.11 1
  226.0142 0.51 5
  226.7536 0.09 1
  227.0514 0.59 6
  227.3085 0.12 1
  227.7243 0.13 1
  227.8136 0.12 1
  228.0286 0.44 4
  228.6224 0.07 1
  228.9359 0.41 4
  229.0871 0.40 4
  229.1981 0.12 1
  229.6636 0.05 0
  230.0349 0.57 6
  230.6468 0.16 2
  231.0175 0.85 8
  231.2750 0.03 0
  231.5030 0.03 0
  231.8338 0.06 1
  232.0660 0.54 5
  232.4208 0.10 1
  232.5623 0.08 1
  233.0701 1.25 12
  233.8404 0.17 2
  234.0694 0.74 7
  234.7135 0.12 1
  234.8737 0.24 2
  235.0711 1.26 13
  235.3873 0.01 0
  235.6312 0.12 1
  235.8687 0.07 1
  236.0887 0.76 8
  236.3221 0.10 1
  236.4543 0.09 1
  236.7622 0.08 1
  237.1032 0.92 9
  237.4106 0.10 1
  237.7482 0.04 0
  238.0879 0.22 2
  238.2982 0.07 1
  238.4235 0.09 1
  238.6747 0.09 1
  238.7816 0.12 1
  239.0321 0.80 8
  239.2482 0.11 1
  239.6458 0.12 1
  239.7472 0.08 1
  239.8999 0.12 1
  240.0344 0.29 3
  240.2019 0.09 1
  240.5279 0.07 1
  241.0187 0.60 6
  241.6836 0.13 1
  242.0330 0.19 2
  242.2669 0.10 1
  242.4424 0.10 1
  242.5939 0.04 0
  242.8201 0.07 1
  243.0350 0.67 7
  243.7117 0.07 1
  243.9901 0.49 5
  244.4590 0.06 1
  244.6268 0.04 0
  244.7340 0.07 1
  245.0372 0.74 7
  245.6347 0.11 1
  245.7772 0.10 1
  246.0163 0.40 4
  246.1702 0.11 1
  246.7389 0.18 2
  247.0473 0.85 8
  247.7454 0.04 0
  248.0920 0.54 5
  248.2777 0.03 0
  248.4818 0.10 1
  248.7233 0.13 1
  249.0517 0.90 9
  249.1986 0.30 3
  249.6535 0.08 1
  250.0739 0.19 2
  250.2604 0.11 1
  250.4618 0.04 0
  250.6667 0.02 0
  250.7918 0.08 1
  251.0660 0.30 3
  251.3141 0.03 0
  251.5813 0.11 1
  252.0380 0.37 4
  252.4106 0.01 0
  252.6100 0.10 1
  252.7854 0.10 1
  253.0187 0.61 6
  253.2217 0.14 1
  253.7246 0.11 1
  254.0182 0.17 2
  254.1703 0.07 1
  254.5963 0.11 1
  254.9890 0.40 4
  255.1362 0.53 5
  255.2877 0.06 1
  256.0692 0.38 4
  256.6710 0.08 1
  257.0711 1.01 10
  257.8679 0.16 2
  258.0641 0.07 1
  258.1909 0.08 1
  258.4275 0.07 1
  259.0659 0.64 6
  259.8773 0.10 1
  260.0878 0.32 3
  260.3217 0.05 0
  260.6910 0.12 1
  260.8144 0.18 2
  261.0731 0.89 9
  261.4170 0.07 1
  262.0616 0.18 2
  262.3375 0.03 0
  262.5545 0.09 1
  262.8113 0.08 1
  263.0575 0.41 4
  263.1405 0.18 2
  263.2398 0.14 1
  263.5222 0.10 1
  263.8103 0.17 2
  263.9870 0.10 1
  264.1452 0.07 1
  264.2410 0.05 0
  264.5682 0.06 1
  264.8372 0.38 4
  265.0878 0.40 4
  265.2305 0.09 1
  265.5194 0.11 1
  265.8481 0.11 1
  266.0178 0.15 1
  266.1833 0.15 1
  266.4780 0.09 1
  266.8736 0.03 0
  267.0888 0.44 4
  267.4283 0.09 1
  267.6883 0.06 1
  267.9980 0.13 1
  268.1863 0.12 1
  268.4080 0.06 1
  268.5118 0.02 0
  268.9247 0.21 2
  269.1172 0.47 5
  269.3781 0.09 1
  269.6710 0.05 0
  269.8444 0.09 1
  270.0051 0.17 2
  270.6990 0.23 2
  271.0545 0.56 6
  271.3987 0.05 0
  272.0922 0.27 3
  272.5183 0.08 1
  272.8036 0.19 2
  272.9324 0.19 2
  273.1046 0.55 5
  273.3913 0.08 1
  273.6382 0.20 2
  273.9884 0.19 2
  274.0766 0.09 1
  274.1742 0.12 1
  274.6340 0.12 1
  275.1102 0.51 5
  275.3972 0.10 1
  275.5830 0.04 0
  275.9618 0.13 1
  276.1797 0.12 1
  276.9169 0.18 2
  277.1420 0.41 4
  277.9847 0.16 2
  278.1987 0.10 1
  278.4617 0.09 1
  279.0569 0.19 2
  279.5995 0.10 1
  280.0824 0.20 2
  280.3392 0.10 1
  280.5220 0.04 0
  281.1082 0.20 2
  281.9521 0.13 1
  283.0702 0.73 7
  283.8540 0.04 0
  284.0406 0.16 2
  284.1880 0.07 1
  284.7363 0.14 1
  285.0874 0.51 5
  286.0390 0.30 3
  286.2193 0.22 2
  286.7814 0.09 1
  287.0386 0.26 3
  287.1355 0.20 2
  287.7356 0.08 1
  287.9872 0.09 1
  288.0884 0.13 1
  288.2096 0.08 1
  288.7741 0.07 1
  289.1071 0.48 5
  290.0390 0.10 1
  290.1745 0.10 1
  290.5966 0.10 1
  291.0346 0.16 2
  291.4326 0.11 1
  291.5696 0.14 1
  291.8008 0.05 0
  291.9113 0.11 1
  291.9977 0.08 1
  292.1425 0.08 1
  292.6141 0.08 1
  292.8189 0.08 1
  292.9616 0.15 1
  293.1301 0.28 3
  294.0534 0.11 1
  294.1803 0.05 0
  294.9768 0.18 2
  295.1330 0.24 2
  295.6564 0.14 1
  295.9396 0.14 1
  296.0851 0.22 2
  296.6294 0.08 1
  297.0674 0.40 4
  297.2144 0.21 2
  298.0799 0.20 2
  298.2997 0.07 1
  298.5852 0.09 1
  298.6908 0.12 1
  299.1020 0.62 6
  299.3739 0.06 1
  299.9286 0.10 1
  300.1071 0.34 3
  300.3799 0.11 1
  300.8311 0.11 1
  301.0975 0.43 4
  301.5302 0.12 1
  301.8009 0.05 0
  301.9988 0.09 1
  302.4702 0.10 1
  303.1125 0.19 2
  303.9542 0.28 3
  304.0657 0.05 0
  304.7382 0.10 1
  305.0212 0.29 3
  305.1491 0.19 2
  305.2528 0.03 0
  305.8218 0.10 1
  306.2443 0.17 2
  306.4138 0.09 1
  306.9379 0.11 1
  307.0373 0.14 1
  307.8633 0.07 1
  308.0778 0.03 0
  308.4133 0.05 0
  309.0807 0.12 1
  310.0659 0.15 1
  311.0470 0.20 2
  311.1451 0.19 2
  312.0183 0.13 1
  312.2144 0.17 2
  313.0392 0.45 4
  313.2297 0.12 1
  314.1004 0.23 2
  314.2387 0.11 1
  314.9076 0.03 0
  315.0459 0.12 1
  315.1684 0.18 2
  316.3268 0.11 1
  316.9846 0.24 2
  317.1924 0.05 0
  318.7433 0.11 1
  319.0143 0.15 1
  319.3369 0.02 0
  320.0647 0.08 1
  321.0966 0.58 6
  321.8167 0.06 1
  322.0591 0.12 1
  322.7270 0.12 1
  323.0541 0.29 3
  324.1642 0.18 2
  324.6737 0.09 1
  324.9543 0.15 1
  325.1517 0.20 2
  325.3275 0.09 1
  325.9097 0.11 1
  326.1200 0.34 3
  327.0813 0.14 1
  327.4432 0.09 1
  328.2820 0.04 0
  328.5779 0.09 1
  328.8515 0.14 1
  329.0648 0.21 2
  329.9628 0.12 1
  331.0117 0.29 3
  331.1820 0.22 2
  332.5273 0.07 1
  333.0829 0.08 1
  333.2512 0.12 1
  334.0081 0.11 1
  334.2051 0.12 1
  334.6351 0.08 1
  334.9335 0.10 1
  335.1068 0.02 0
  335.6274 0.09 1
  336.1351 0.12 1
  336.7055 0.07 1
  337.0400 0.10 1
  337.1644 0.11 1
  337.4889 0.01 0
  338.1845 0.13 1
  338.4031 0.04 0
  338.6885 0.11 1
  339.1385 0.17 2
  339.8417 0.04 0
  340.1876 0.20 2
  340.5881 0.06 1
  341.0728 0.09 1
  342.0395 0.09 1
  342.2064 0.06 1
  342.9877 0.11 1
  343.2172 0.18 2
  344.2029 0.06 1
  346.0576 0.18 2
  347.1756 0.05 0
  347.3599 0.07 1
  348.8698 0.09 1
  348.9836 0.11 1
  350.1655 0.11 1
  350.3607 0.09 1
  351.0789 0.08 1
  351.1870 0.08 1
  351.3073 0.09 1
  352.0732 0.16 2
  352.2756 0.14 1
  352.5084 0.11 1
  352.9688 0.10 1
  353.2268 0.38 4
  353.8134 0.12 1
  354.0729 0.11 1
  354.2430 0.23 2
  354.5263 0.10 1
  355.4064 0.11 1
  356.1367 0.09 1
  356.8729 0.09 1
  356.9753 0.06 1
  358.2712 0.07 1
  359.1476 0.14 1
  360.7101 0.08 1
  360.9208 0.13 1
  363.1658 0.27 3
  363.6631 0.10 1
  363.9064 0.12 1
  364.0912 0.11 1
  364.2160 0.11 1
  364.3777 0.19 2
  365.1119 0.22 2
  365.3018 0.11 1
  365.5552 0.09 1
  365.9915 0.11 1
  366.2425 0.32 3
  366.7322 0.07 1
  367.0875 0.08 1
  367.2968 0.07 1
  367.6715 0.11 1
  368.0722 0.06 1
  369.0505 0.04 0
  369.7210 0.13 1
  370.2010 0.04 0
  370.4067 0.10 1
  371.1393 0.12 1
  371.2537 0.10 1
  371.3796 0.11 1
  372.3376 0.13 1
  373.0977 0.02 0
  373.9644 0.10 1
  374.2113 0.03 0
  374.4237 0.12 1
  374.8132 0.23 2
  375.0667 0.21 2
  376.0719 0.14 1
  376.2562 0.05 0
  377.1471 0.13 1
  377.3192 0.12 1
  378.2167 0.22 2
  378.7959 0.09 1
  379.0689 0.14 1
  379.2678 0.16 2
  380.2959 0.11 1
  382.0726 0.12 1
  383.6883 0.08 1
  385.2003 0.12 1
  386.2090 0.11 1
  386.3368 0.09 1
  387.2676 0.11 1
  387.7728 0.11 1
  388.3344 0.11 1
  389.9239 0.09 1
  390.0574 0.05 0
  390.1917 0.17 2
  391.0754 0.27 3
  391.2191 0.27 3
  391.3599 0.17 2
  391.5895 0.12 1
  392.1491 0.28 3
  392.3268 0.33 3
  393.1883 0.14 1
  393.4411 0.08 1
  396.8370 0.05 0
  398.5959 0.03 0
  398.7462 0.12 1
  398.9514 0.09 1
  399.2058 0.09 1
  401.0252 0.16 2
  401.8479 0.09 1
  402.0655 0.25 2
  402.2751 0.26 3
  403.1414 0.18 2
  403.4385 0.08 1
  404.0228 0.12 1
  404.2564 0.13 1
  405.2812 0.12 1
  407.0107 0.12 1
  407.1706 0.08 1
  407.7305 0.08 1
  408.3773 0.12 1
  410.1132 0.10 1
  411.1112 0.10 1
  412.1382 0.12 1
  413.2229 0.10 1
  413.9172 0.09 1
  414.0270 0.10 1
  415.1484 0.13 1
  415.4396 0.14 1
  416.0633 0.08 1
  416.2086 0.32 3
  416.4955 0.02 0
  417.1416 0.30 3
  417.2934 0.11 1
  418.0740 0.06 1
  418.2258 0.18 2
  418.3914 0.19 2
  419.1649 0.23 2
  420.0772 0.10 1
  420.2609 0.23 2
  421.9160 0.15 1
  425.3479 0.12 1
  425.9259 0.11 1
  427.0791 0.12 1
  427.3179 0.09 1
  427.5516 0.10 1
  427.7173 0.06 1
  427.9561 0.04 0
  429.1682 0.11 1
  429.3694 0.10 1
  430.2008 0.24 2
  431.1070 0.17 2
  432.0835 0.22 2
  432.1962 0.07 1
  432.5793 0.11 1
  438.0518 0.08 1
  439.9930 0.10 1
  440.3106 0.12 1
  441.3386 0.03 0
  442.0410 0.05 0
  442.1691 0.15 1
  442.3572 0.13 1
  442.9982 0.12 1
  443.6755 0.09 1
  444.1878 0.77 8
  444.4490 0.14 1
  444.8109 0.12 1
  445.2545 0.14 1
  446.2011 0.13 1
  446.8105 0.10 1
  447.0501 0.16 2
  447.1855 0.15 1
  447.4084 0.25 2
  447.5503 0.11 1
  448.2090 0.12 1
  449.3477 0.11 1
  450.1557 0.16 2
  450.6720 0.05 0
  450.9847 0.11 1
  452.7502 0.06 1
  453.4215 0.11 1
  453.5164 0.02 0
  453.9183 0.12 1
  454.3225 0.11 1
  454.8947 0.11 1
  455.2742 0.01 0
  456.1790 0.15 1
  456.2797 0.10 1
  457.1447 0.14 1
  457.3040 0.04 0
  458.3234 0.13 1
  458.5038 0.06 1
  459.6806 0.11 1
  459.8045 0.11 1
  460.2327 0.09 1
  460.3327 0.08 1
  461.1596 0.09 1
  461.9547 0.18 2
  462.1177 0.16 2
  462.2692 0.03 0
  464.4336 0.07 1
  465.3912 0.06 1
  465.5834 0.05 0
  466.4011 0.07 1
  468.1673 0.10 1
  468.2671 0.14 1
  468.4124 0.07 1
  468.6671 0.10 1
  468.9991 0.10 1
  469.1416 0.10 1
  469.3860 0.11 1
  470.8336 0.11 1
  471.2184 0.09 1
  471.3921 0.09 1
  472.0649 0.14 1
  472.1923 0.16 2
  472.5967 0.13 1
  472.9079 0.13 1
  473.4180 0.05 0
  475.0491 0.08 1
  475.9457 0.05 0
  476.1419 0.13 1
  476.7744 0.12 1
  477.1588 0.08 1
  477.2782 0.13 1
  477.4490 0.17 2
  477.5779 0.12 1
  477.7639 0.10 1
  478.1331 0.02 0
  478.4458 0.04 0
  478.5782 0.11 1
  479.0205 0.15 1
  479.4259 0.08 1
  480.1151 0.25 2
  480.9868 0.07 1
  481.2417 0.11 1
  481.3525 0.13 1
  484.1295 0.16 2
  484.2910 0.18 2
  484.4619 0.31 3
  484.9420 0.22 2
  486.0487 0.15 1
  486.1747 0.11 1
  486.4941 0.12 1
  487.5488 0.09 1
  487.8987 0.07 1
  488.8441 0.13 1
  489.0759 0.13 1
  489.1961 0.09 1
  490.8727 0.11 1
  491.1944 0.05 0
  492.0255 0.08 1
  492.5385 0.11 1
  492.6530 0.13 1
  493.1950 0.13 1
  493.7335 0.15 1
  494.0509 0.11 1
  494.1834 0.17 2
  494.3210 0.36 4
  494.4615 0.11 1
  494.8852 0.13 1
  497.4175 0.06 1
  498.3556 0.11 1
  499.2728 0.10 1
  502.0559 0.11 1
  502.4363 0.20 2
  503.3943 0.07 1
  504.2793 0.04 0
  504.5351 0.13 1
  504.8156 0.13 1
  504.9627 0.07 1
  505.0634 0.12 1
  505.2352 0.19 2
  505.3918 0.12 1
  505.8165 0.13 1
  506.1688 0.05 0
  506.4341 0.11 1
  506.6559 0.09 1
  506.8509 0.12 1
  507.2126 0.15 1
  508.2811 6.71 67
  508.7806 0.08 1
  508.9235 0.19 2
  509.0605 0.18 2
  509.1786 0.10 1
  509.3766 0.10 1
  509.5469 0.11 1
  509.7115 0.17 2
  510.2132 0.10 1
  511.2428 0.10 1
  512.4305 0.07 1
  513.7330 0.11 1
  514.2762 0.19 2
  514.9637 0.01 0
  515.2009 0.10 1
  516.1155 0.10 1
  516.2206 0.10 1
  517.0845 0.10 1
  518.4722 0.13 1
  518.7631 0.07 1
  519.2245 0.10 1
  519.3942 0.13 1
  520.0327 0.11 1
  520.2684 0.21 2
  520.4745 0.28 3
  521.2436 0.47 5
  521.4556 0.09 1
  522.6166 0.07 1
  524.4952 0.08 1
  525.1656 0.22 2
  526.0554 0.10 1
  526.2226 0.13 1
  526.4412 0.14 1
  527.2319 0.08 1
  528.1059 0.12 1
  528.2152 0.11 1
  528.3752 0.10 1
  528.6142 0.05 0
  529.1464 0.10 1
  531.4045 0.14 1
  531.4987 0.12 1
  532.3366 0.09 1
  534.1757 0.01 0
  536.1613 0.09 1
  536.9575 0.04 0
  537.2610 0.10 1
  537.4131 0.13 1
  538.1609 0.11 1
  538.3116 0.12 1
  538.7057 0.14 1
  539.2868 0.28 3
  539.4542 0.10 1
  540.1918 0.34 3
  540.3389 0.77 8
  540.5078 0.06 1
  540.7092 0.13 1
  541.9144 0.06 1
  542.2267 0.04 0
  543.0043 0.11 1
  543.0840 0.03 0
  548.6995 0.11 1
  549.8776 0.11 1
  550.2234 0.05 0
  550.5751 0.11 1
  552.2427 0.11 1
  552.3682 0.14 1
  552.5001 0.14 1
  553.0846 0.15 1
  554.1346 0.11 1
  554.3674 0.15 1
  555.1071 0.11 1
  555.5531 0.10 1
  555.6627 0.11 1
  555.8969 0.16 2
  556.3850 0.11 1
  556.7375 0.11 1
  556.8267 0.07 1
  556.9391 0.13 1
  557.3939 0.11 1
  558.9490 0.10 1
  562.3382 0.08 1
  563.2321 0.09 1
  563.3590 0.07 1
  564.1796 0.22 2
  564.3806 0.23 2
  564.4495 0.11 1
  565.3035 0.10 1
  565.5256 0.13 1
  566.1611 0.10 1
  566.3001 0.16 2
  566.4333 0.48 5
  566.8589 0.09 1
  567.2722 0.54 5
  567.4632 0.17 2
  568.1813 0.18 2
  568.3275 0.18 2
  569.2359 0.19 2
  569.4031 0.19 2
  569.9207 0.09 1
  570.1827 0.06 1
  570.3022 0.28 3
  570.4209 0.13 1
  570.6533 0.06 1
  570.8132 0.08 1
  571.1231 0.25 2
  571.2404 0.10 1
  571.7696 0.08 1
  572.2959 0.11 1
  572.9547 0.11 1
  573.5071 0.01 0
  573.8627 0.13 1
  574.4738 0.12 1
  574.5563 0.10 1
  574.9741 0.12 1
  575.2499 0.10 1
  575.5026 0.12 1
  575.7198 0.14 1
  575.9827 0.05 0
  576.1630 0.17 2
  576.3708 0.20 2
  576.6591 0.15 1
  576.8748 0.11 1
  577.0016 0.15 1
  577.1725 0.11 1
  577.2753 0.11 1
  577.4628 0.21 2
  577.6924 0.19 2
  577.7996 0.10 1
  577.9177 0.10 1
  578.0676 0.14 1
  578.3833 0.13 1
  578.5658 0.51 5
  578.7736 0.15 1
  578.9257 0.18 2
  579.2190 0.38 4
  579.4109 0.14 1
  579.6180 0.13 1
  579.7991 0.31 3
  580.1446 0.22 2
  580.4698 0.36 4
  580.6241 0.12 1
  580.8435 0.23 2
  581.1680 0.42 4
  581.3245 0.32 3
  581.5338 0.29 3
  581.6735 0.31 3
  582.2110 2.79 28
  582.5609 0.75 7
  582.6550 0.41 4
  583.3497 0.80 8
  583.5916 0.35 3
  583.7582 0.21 2
  583.9995 0.25 2
  584.2798 0.87 9
  584.4044 0.56 6
  584.5043 0.17 2
  584.9955 1.61 16
  585.3541 2.02 20
  585.9517 0.19 2
  586.2220 0.25 2
  586.3987 0.20 2
  586.5980 0.20 2
  586.8037 0.12 1
  586.9392 0.09 1
  587.0312 0.08 1
  587.2239 0.30 3
  587.3833 0.03 0
  587.5760 0.12 1
  587.7028 0.17 2
  588.0926 0.10 1
  588.4360 0.28 3
  588.6172 0.14 1
  588.7143 0.20 2
  588.8643 0.15 1
  588.9678 0.13 1
  589.2055 0.31 3
  589.4627 0.23 2
  589.7344 0.16 2
  590.1031 0.22 2
  590.2241 0.23 2
  590.6572 0.34 3
  590.9542 0.34 3
  591.1823 0.37 4
  591.4279 0.27 3
  591.6306 0.13 1
  591.7487 0.07 1
  592.0536 0.35 3
  592.2282 0.23 2
  592.4824 0.22 2
  592.6164 0.09 1
  592.7838 0.12 1
  593.0104 0.29 3
  593.1568 0.24 2
  593.3408 0.36 4
  593.5125 0.42 4
  593.6530 0.27 3
  593.9449 0.48 5
  594.1441 0.36 4
  594.3071 0.31 3
  594.6287 0.64 6
  594.7432 0.40 4
  595.1553 0.60 6
  596.0087 0.68 7
  597.0360 1.87 19
  597.1968 1.60 16
  597.6351 2.31 23
  600.3630 99.96 999
  600.9122 12.77 128
  601.5854 7.10 71
  602.1028 4.62 46
  602.7173 2.95 29
  603.1383 2.12 21
  603.7978 1.35 13
  604.1340 1.07 11
  604.6334 0.72 7
  604.9957 0.62 6
  605.4045 0.63 6
  605.6683 0.36 4
  605.8907 0.24 2
  606.2365 0.33 3
  606.5003 0.25 2
  606.6221 0.16 2
  606.8134 0.39 4
  607.0801 0.17 2
  607.3142 0.11 1
  607.5585 0.31 3
  607.7991 0.15 1
  607.9274 0.10 1
  608.1760 0.19 2
  608.5334 0.32 3
  608.6436 0.20 2
  609.0168 0.02 0
  609.3952 0.02 0
  609.9077 0.01 0
  610.0432 0.07 1
  610.7333 0.05 0
  611.2712 0.08 1
//
