ACCESSION: MSBNK-Kyoto_Univ-CA000136
RECORD_TITLE: 4-Hydroxylutein; FAB-EBEB; MS2; m/z: 584.42; [M]*+
DATE: 2016.01.19 (Created 2007.03.15, modified 2011.05.10)
AUTHORS: Akimoto N, Graduate School of Pharmaceutical Sciences, Kyoto University and Maoka T, Research Institute for Production Development
LICENSE: CC BY-SA
COMMENT: Profile spectrum of this record is given as a JPEG file.
COMMENT: [Profile] CA000136.jpg
CH$NAME: 4-Hydroxylutein
CH$COMPOUND_CLASS: Natural Product; Carotenoid
CH$FORMULA: C40H56O3
CH$EXACT_MASS: 584.42295
CH$SMILES: C(O)(C2)C=C(C)C(C2(C)C)C=CC(C)=CC=CC(C)=CC=CC=C(C)C=CC=C(C)C=CC(C1(C)C)=C(C(O)C(C1)O)C
CH$IUPAC: InChI=1S/C40H56O3/c1-28(17-13-19-30(3)21-23-35-32(5)25-34(41)26-39(35,7)8)15-11-12-16-29(2)18-14-20-31(4)22-24-36-33(6)38(43)37(42)27-40(36,9)10/h11-25,34-35,37-38,41-43H,26-27H2,1-10H3/b12-11+,17-13+,18-14+,23-21+,24-22+,28-15+,29-16+,30-19+,31-20+/t34-,35-,37-,38+/m0/s1
CH$LINK: INCHIKEY RDHCMKIXMMGSAD-LBSQTNITSA-N
AC$INSTRUMENT: JMS-HX/HX 110A, JEOL
AC$INSTRUMENT_TYPE: FAB-EBEB
AC$MASS_SPECTROMETRY: MS_TYPE MS2
AC$MASS_SPECTROMETRY: ION_MODE POSITIVE
AC$MASS_SPECTROMETRY: ATOM_GUN_CURRENT 5 mA
AC$MASS_SPECTROMETRY: BOMBARDMENT 6 kV xenon
AC$MASS_SPECTROMETRY: COLLISION_ENERGY 3 kV
AC$MASS_SPECTROMETRY: COLLISION_GAS Ar
AC$MASS_SPECTROMETRY: GAS_PRESSURE adjust to attenuate the intensity of the precursor ion by 30 %
AC$MASS_SPECTROMETRY: IONIZATION FAB
AC$MASS_SPECTROMETRY: MATRIX 1-2 uL m-NBA
AC$MASS_SPECTROMETRY: PROBE_TIP stainless-steel
MS$FOCUSED_ION: BASE_PEAK 584.5116
MS$FOCUSED_ION: PRECURSOR_M/Z 584.42
MS$FOCUSED_ION: PRECURSOR_TYPE [M]+*
PK$SPLASH: splash10-001i-0920040000-8502d9760e49c6e1ad54
PK$NUM_PEAK: 1651
PK$PEAK: m/z int. rel.int.
  0.0077 0.01 0
  0.1062 0.01 0
  0.1898 0.01 0
  0.3490 0.01 0
  0.8854 0.01 0
  1.4474 0.01 0
  1.8350 0.01 0
  4.0078 0.01 0
  4.2274 0.01 0
  6.6838 0.01 0
  7.9975 0.01 0
  11.1136 0.01 0
  12.9923 0.02 0
  13.9879 0.07 1
  14.0432 0.01 0
  15.0031 0.16 2
  16.6425 0.01 0
  17.8036 0.01 0
  19.3140 0.01 0
  20.9488 0.01 0
  22.7205 0.01 0
  24.9609 0.03 0
  25.4654 0.11 1
  25.9679 0.27 3
  26.9728 0.60 6
  27.9827 0.23 2
  28.9773 0.72 7
  29.9925 0.03 0
  30.9603 0.13 1
  36.4228 0.01 0
  36.9743 0.08 1
  37.9854 0.36 4
  38.7780 0.03 0
  38.9721 0.76 8
  39.9666 0.13 1
  40.9994 0.59 6
  41.3291 0.01 0
  42.0054 0.15 1
  42.3123 0.01 0
  42.9882 0.51 5
  44.0058 0.02 0
  44.9432 0.03 0
  48.3298 0.01 0
  49.0267 0.02 0
  49.9211 0.09 1
  50.0101 0.02 0
  50.8687 0.04 0
  50.9840 0.25 2
  52.0280 0.09 1
  53.0004 0.24 2
  55.0028 0.69 7
  56.0427 0.05 0
  57.0310 0.08 1
  58.9984 0.15 1
  61.0061 0.12 1
  61.9641 0.14 1
  62.9683 0.18 2
  64.0310 0.01 0
  64.8251 0.04 0
  65.0023 0.10 1
  66.0213 0.06 1
  66.7159 0.04 0
  66.8654 0.10 1
  67.0207 0.32 3
  68.0086 0.08 1
  68.9978 0.45 4
  69.6995 0.01 0
  70.0038 0.01 0
  70.9761 0.34 3
  73.0023 0.02 0
  73.9416 0.21 2
  74.1230 0.01 0
  74.7801 0.02 0
  74.9777 0.27 3
  75.5922 0.04 0
  75.9429 0.10 1
  76.6566 0.14 1
  76.9780 1.67 17
  77.1417 0.08 1
  77.3055 0.18 2
  77.9775 0.56 6
  78.6715 0.05 0
  78.9700 1.94 19
  79.9808 0.31 3
  80.7246 0.12 1
  81.0023 2.94 29
  81.4806 0.01 0
  81.9673 0.14 1
  82.0298 0.06 1
  82.7391 0.01 0
  83.0100 1.17 12
  83.4658 0.01 0
  83.8552 0.07 1
  83.9797 0.02 0
  84.2935 0.11 1
  84.7341 0.14 1
  85.0071 0.46 5
  85.5868 0.06 1
  85.8748 0.05 0
  85.9572 0.08 1
  86.6607 0.04 0
  86.9779 0.20 2
  87.9473 0.02 0
  88.6906 0.07 1
  88.9445 0.24 2
  89.1986 0.13 1
  89.4274 0.01 0
  89.5785 0.05 0
  89.7807 0.06 1
  89.9460 0.20 2
  90.1265 0.04 0
  90.5413 0.10 1
  90.9614 7.84 78
  91.3039 0.01 0
  91.7583 0.12 1
  91.9939 0.60 6
  92.4980 0.02 0
  92.9940 6.85 68
  93.2095 0.08 1
  93.4747 0.10 1
  93.6695 0.10 1
  93.7609 0.05 0
  94.0337 0.50 5
  94.4062 0.03 0
  94.9968 5.69 57
  95.5316 0.13 1
  95.6245 0.08 1
  95.8140 0.08 1
  95.9827 0.21 2
  96.3972 0.01 0
  96.8201 0.15 1
  97.0003 1.29 13
  97.2829 0.07 1
  97.9631 0.18 2
  98.8226 0.05 0
  98.9737 0.18 2
  100.2565 0.08 1
  100.4186 0.03 0
  100.6921 0.16 2
  100.9327 0.22 2
  101.6104 0.11 1
  101.6814 0.05 0
  101.9699 0.62 6
  102.2398 0.09 1
  102.3339 0.05 0
  102.7251 0.41 4
  102.9835 1.90 19
  103.1502 0.08 1
  103.2914 0.02 0
  103.4226 0.04 0
  103.6164 0.05 0
  103.9766 0.95 9
  104.4246 0.10 1
  104.9859 18.24 182
  105.1990 0.11 1
  105.6707 0.31 3
  106.0121 2.19 22
  106.7032 0.48 5
  107.0220 9.87 99
  107.2630 0.20 2
  107.3478 0.06 1
  107.4809 0.09 1
  107.7064 0.09 1
  108.0118 0.70 7
  108.5766 0.06 1
  109.0159 6.88 69
  109.6794 0.03 0
  110.0010 0.35 3
  110.3328 0.02 0
  110.6459 0.07 1
  110.7387 0.07 1
  111.0104 1.55 15
  111.7494 0.02 0
  111.8677 0.11 1
  111.9968 0.09 1
  112.5995 0.08 1
  112.7186 0.17 2
  112.7972 0.12 1
  112.9524 0.20 2
  113.1280 0.20 2
  113.2326 0.11 1
  113.3347 0.03 0
  113.5853 0.05 0
  113.7198 0.05 0
  113.9578 0.26 3
  114.1229 0.15 1
  114.2835 0.15 1
  114.9508 8.45 84
  115.2020 0.15 1
  115.3438 0.11 1
  115.5996 0.29 3
  115.9619 2.78 28
  116.2001 0.14 1
  116.3103 0.09 1
  116.4409 0.21 2
  116.9605 9.64 96
  117.2750 0.05 0
  117.4722 0.07 1
  117.6203 0.06 1
  117.7275 0.10 1
  118.0002 1.71 17
  118.1982 0.06 1
  118.4385 0.07 1
  118.9859 21.40 214
  119.4549 0.17 2
  119.6207 0.14 1
  119.9948 2.44 24
  120.3581 0.09 1
  120.6729 0.63 6
  120.9955 10.44 104
  121.2111 0.15 1
  121.4081 0.09 1
  121.6360 0.11 1
  121.7439 0.10 1
  121.9816 1.01 10
  122.4147 0.09 1
  122.9806 10.49 105
  123.5662 0.09 1
  123.6847 0.09 1
  123.8251 0.15 1
  124.0067 0.92 9
  124.6222 0.02 0
  124.7479 0.14 1
  125.0079 1.21 12
  125.2027 0.04 0
  125.6455 0.09 1
  125.8076 0.07 1
  125.9852 0.30 3
  126.1260 0.06 1
  126.2190 0.05 0
  126.3877 0.14 1
  126.9346 3.20 32
  127.1765 0.37 4
  127.3182 0.37 4
  127.9396 10.88 109
  128.2401 0.13 1
  128.9394 13.65 136
  129.2605 0.11 1
  129.3746 0.09 1
  129.5102 0.13 1
  129.9691 5.42 54
  130.3568 0.14 1
  130.9663 14.91 149
  131.3681 0.17 2
  131.5515 0.17 2
  131.7089 0.19 2
  131.9920 3.64 36
  132.2478 0.16 2
  132.5792 0.39 4
  132.7616 0.85 8
  133.0059 16.25 162
  133.2934 0.15 1
  133.5059 0.03 0
  133.9728 1.65 16
  134.5824 0.13 1
  135.0003 8.28 83
  135.2374 0.09 1
  135.4132 0.02 0
  135.6981 0.13 1
  135.9930 0.97 10
  136.1376 0.08 1
  136.4741 0.10 1
  136.5605 0.06 1
  136.9967 3.93 39
  137.3545 0.06 1
  137.7668 0.24 2
  138.0055 1.70 17
  138.1741 0.13 1
  138.3217 0.24 2
  138.5874 0.22 2
  138.9649 1.58 16
  139.3195 0.11 1
  139.5369 0.06 1
  139.9982 0.61 6
  140.1422 0.27 3
  140.3190 0.09 1
  140.9327 9.22 92
  141.2269 0.15 1
  141.5481 0.25 2
  141.9722 10.17 102
  142.1744 0.08 1
  142.3668 0.17 2
  142.9667 19.87 199
  143.2753 0.24 2
  143.5227 0.21 2
  143.9886 5.70 57
  144.9864 21.49 215
  145.5079 0.17 2
  145.5905 0.07 1
  145.8167 0.37 4
  146.0098 2.44 24
  146.5337 0.14 1
  146.6687 0.23 2
  147.0090 8.61 86
  147.3076 0.04 0
  147.4931 0.10 1
  147.9920 1.16 12
  148.2631 0.17 2
  148.3744 0.10 1
  148.5037 0.07 1
  148.5760 0.02 0
  149.0078 3.20 32
  149.2917 0.13 1
  149.3773 0.11 1
  149.5426 0.09 1
  149.6514 0.15 1
  149.8393 0.28 3
  150.0165 0.67 7
  150.3486 0.12 1
  150.5080 0.09 1
  150.6562 0.31 3
  150.9997 1.79 18
  151.1393 0.50 5
  151.3640 0.13 1
  151.5508 0.35 3
  151.9492 3.87 39
  152.2027 0.37 4
  152.2998 0.11 1
  152.9302 5.17 52
  153.3657 0.17 2
  153.5895 0.32 3
  153.9853 3.03 30
  154.3412 0.11 1
  154.9801 11.72 117
  155.5218 0.28 3
  155.7488 0.54 5
  156.0278 8.66 87
  156.3884 0.12 1
  156.5213 0.28 3
  157.0117 15.67 157
  157.3211 0.28 3
  157.5136 0.12 1
  158.0131 4.17 42
  158.3315 0.09 1
  158.6306 0.26 3
  159.0355 9.81 98
  159.3348 0.28 3
  159.4988 0.13 1
  159.6709 0.11 1
  160.0347 1.27 13
  160.2377 0.14 1
  160.4930 0.09 1
  160.7169 0.40 4
  161.0413 4.37 44
  161.5054 0.11 1
  161.6751 0.17 2
  161.7536 0.09 1
  162.0267 0.35 3
  162.3831 0.11 1
  162.6463 0.16 2
  163.0512 1.72 17
  163.2849 0.22 2
  163.3662 0.11 1
  163.7216 0.16 2
  163.8043 0.09 1
  164.0382 0.78 8
  164.2862 0.06 1
  164.9688 8.68 87
  165.4949 0.19 2
  166.0105 3.24 32
  166.2185 0.24 2
  166.3605 0.13 1
  166.6946 0.63 6
  167.0307 8.86 89
  167.2504 0.13 1
  167.4775 0.08 1
  168.0235 3.09 31
  168.3553 0.28 3
  169.0318 9.94 99
  169.3110 0.16 2
  169.4482 0.11 1
  169.5915 0.13 1
  170.0613 5.21 52
  170.2659 0.15 1
  171.0465 9.61 96
  171.4055 0.23 2
  171.6569 0.09 1
  172.0532 2.07 21
  172.2986 0.17 2
  172.4713 0.25 2
  172.5589 0.12 1
  173.0520 5.72 57
  173.3225 0.13 1
  173.5837 0.11 1
  173.7267 0.23 2
  174.0514 1.09 11
  174.4626 0.13 1
  175.0705 3.58 36
  175.2935 0.14 1
  175.3907 0.11 1
  175.4820 0.09 1
  175.6455 0.10 1
  176.0159 0.75 7
  176.4155 0.12 1
  176.5244 0.06 1
  176.7029 0.19 2
  177.0195 1.36 14
  177.2570 0.14 1
  177.9730 4.29 43
  178.3223 0.08 1
  178.5905 0.48 5
  179.0179 8.26 83
  179.4487 0.13 1
  179.5775 0.39 4
  180.0363 3.42 34
  180.2112 0.36 4
  180.4031 0.17 2
  180.5367 0.29 3
  181.0264 10.26 103
  181.6132 0.19 2
  182.0353 4.10 41
  182.4481 0.24 2
  182.6504 0.34 3
  183.0504 9.72 97
  183.3255 0.17 2
  183.6346 0.18 2
  183.8072 0.19 2
  184.0695 2.86 29
  184.3387 0.06 1
  185.0465 4.68 47
  185.6090 0.23 2
  185.8505 0.32 3
  186.0723 1.18 12
  186.2928 0.10 1
  186.7434 0.19 2
  187.0573 2.65 26
  187.2616 0.15 1
  187.5619 0.07 1
  187.7792 0.07 1
  188.0293 0.50 5
  188.2221 0.10 1
  188.3120 0.07 1
  188.5042 0.30 3
  189.0099 3.33 33
  189.4190 0.26 3
  189.6373 0.14 1
  189.9912 1.28 13
  190.3071 0.10 1
  190.5814 0.35 3
  191.0154 2.93 29
  191.6195 0.29 3
  192.0374 2.84 28
  192.3906 0.10 1
  193.0013 6.24 62
  193.3540 0.07 1
  193.5419 0.14 1
  194.0314 3.25 32
  194.3719 0.19 2
  195.0443 10.28 103
  195.3098 0.13 1
  195.4398 0.13 1
  195.5438 0.11 1
  196.0386 3.02 30
  196.4829 0.19 2
  197.0615 9.38 94
  197.4328 0.11 1
  197.5609 0.19 2
  197.7342 0.11 1
  198.0446 1.86 19
  198.4291 0.12 1
  198.6457 0.20 2
  199.0769 3.51 35
  199.3676 0.10 1
  199.5946 0.16 2
  199.7126 0.05 0
  200.0384 0.99 10
  200.4473 0.11 1
  201.0450 1.59 16
  201.6882 0.38 4
  202.0323 1.43 14
  202.3289 0.09 1
  202.5789 0.35 3
  202.7500 0.32 3
  203.0214 2.53 25
  203.4426 0.15 1
  203.5842 0.07 1
  203.8268 0.17 2
  204.0193 1.01 10
  204.1506 0.31 3
  204.2324 0.14 1
  204.4517 0.34 3
  204.5727 0.24 2
  205.0190 3.05 30
  205.3217 0.18 2
  205.4620 0.06 1
  205.6161 0.07 1
  205.7455 0.11 1
  206.0448 2.81 28
  206.3751 0.18 2
  206.5190 0.13 1
  207.0408 6.34 63
  207.6150 0.25 2
  208.0710 2.62 26
  208.3837 0.05 0
  208.6180 0.40 4
  209.0680 7.16 72
  209.3926 0.08 1
  209.5511 0.12 1
  210.0710 1.45 14
  210.2737 0.09 1
  210.3813 0.10 1
  210.6426 0.34 3
  211.0820 5.03 50
  211.5877 0.17 2
  211.7802 0.12 1
  212.0984 0.89 9
  212.4207 0.09 1
  212.8018 0.41 4
  213.0835 1.75 17
  213.6615 0.08 1
  213.7845 0.10 1
  213.9095 0.05 0
  214.1312 0.78 8
  214.3765 0.17 2
  214.9949 2.20 22
  215.3371 0.03 0
  215.4988 0.13 1
  215.7546 0.15 1
  216.0408 0.96 10
  216.4709 0.14 1
  217.0243 2.00 20
  217.3390 0.07 1
  217.7023 0.25 2
  218.0670 1.36 14
  218.3265 0.06 1
  218.6290 0.13 1
  219.0603 3.91 39
  219.4550 0.07 1
  219.6655 0.15 1
  220.0700 1.83 18
  220.3554 0.16 2
  220.6651 0.19 2
  221.0906 3.96 40
  221.3151 0.13 1
  221.4253 0.09 1
  221.5750 0.20 2
  221.6846 0.13 1
  221.8038 0.16 2
  222.1067 1.48 15
  222.6746 0.40 4
  223.1102 3.66 37
  223.3793 0.09 1
  223.6630 0.11 1
  223.7615 0.10 1
  223.8843 0.07 1
  224.1522 0.93 9
  224.4540 0.01 0
  224.6858 0.13 1
  225.1294 1.87 19
  225.3613 0.21 2
  225.4605 0.19 2
  225.6244 0.20 2
  225.7522 0.11 1
  226.0778 0.83 8
  226.3403 0.04 0
  226.6362 0.17 2
  226.7995 0.17 2
  227.1163 1.14 11
  227.4157 0.07 1
  227.5665 0.04 0
  227.6965 0.06 1
  228.0843 0.90 9
  228.3498 0.09 1
  228.6529 0.14 1
  228.7961 0.21 2
  229.0964 1.76 18
  229.4852 0.08 1
  229.6215 0.12 1
  229.8899 0.23 2
  230.1160 0.96 10
  230.4812 0.05 0
  230.6544 0.23 2
  231.1040 2.12 21
  231.5793 0.07 1
  231.7799 0.12 1
  232.1248 1.02 10
  232.5601 0.19 2
  232.7392 0.25 2
  233.1287 3.70 37
  233.4600 0.11 1
  233.6371 0.14 1
  233.9128 0.12 1
  234.1316 1.18 12
  234.4436 0.11 1
  234.6575 0.15 1
  234.8146 0.12 1
  235.1454 2.76 28
  235.5269 0.07 1
  235.6332 0.06 1
  235.7723 0.17 2
  235.8661 0.08 1
  235.9919 0.13 1
  236.1671 0.60 6
  236.3214 0.09 1
  236.5731 0.31 3
  236.6621 0.12 1
  237.1176 1.91 19
  237.5961 0.29 3
  237.8535 0.38 4
  238.1374 0.59 6
  238.3433 0.02 0
  238.6007 0.19 2
  238.7622 0.06 1
  239.1359 1.72 17
  239.6879 0.20 2
  239.8424 0.11 1
  240.1188 0.40 4
  240.5379 0.12 1
  240.6522 0.19 2
  241.0930 0.61 6
  241.3695 0.02 0
  241.6739 0.06 1
  241.7749 0.07 1
  242.0794 0.61 6
  242.5957 0.11 1
  243.0940 1.76 18
  243.4244 0.11 1
  243.7290 0.14 1
  243.8224 0.08 1
  244.0894 0.77 8
  244.2902 0.14 1
  244.3941 0.09 1
  244.7072 0.25 2
  244.8160 0.31 3
  245.1124 2.16 22
  245.5986 0.20 2
  245.7514 0.16 2
  246.0988 1.23 12
  246.6256 0.23 2
  247.1246 1.80 18
  247.6719 0.12 1
  248.1047 0.60 6
  248.5669 0.01 0
  249.1214 1.49 15
  249.4092 0.10 1
  249.5426 0.11 1
  249.8479 0.05 0
  250.1245 0.53 5
  250.3803 0.08 1
  250.5487 0.13 1
  250.7387 0.27 3
  251.1266 0.88 9
  251.2936 0.13 1
  251.4872 0.01 0
  251.5900 0.01 0
  252.0639 0.70 7
  252.1821 0.39 4
  252.4198 0.09 1
  252.5408 0.07 1
  252.7610 0.12 1
  253.1394 0.82 8
  253.4247 0.10 1
  253.7024 0.12 1
  253.8311 0.03 0
  254.1396 0.32 3
  254.2669 0.08 1
  254.4845 0.06 1
  254.6783 0.14 1
  255.1087 0.89 9
  256.0998 1.07 11
  256.5009 0.13 1
  256.6605 0.15 1
  256.8537 0.23 2
  257.1240 1.20 12
  257.4426 0.10 1
  257.5210 0.05 0
  257.7465 0.05 0
  258.1176 0.76 8
  258.3551 0.12 1
  258.5974 0.05 0
  258.8335 0.16 2
  259.1291 2.01 20
  259.5453 0.11 1
  259.7254 0.04 0
  259.8424 0.08 1
  260.1276 0.70 7
  260.4255 0.07 1
  260.6308 0.11 1
  260.7801 0.24 2
  261.1376 1.74 17
  261.3984 0.18 2
  261.6669 0.12 1
  261.7847 0.05 0
  261.9895 0.09 1
  262.1507 0.39 4
  262.4810 0.03 0
  262.6381 0.04 0
  263.1291 1.24 12
  263.4560 0.05 0
  263.7001 0.05 0
  263.8699 0.08 1
  264.1176 0.53 5
  264.3253 0.12 1
  264.6249 0.04 0
  265.1225 1.35 13
  265.4790 0.06 1
  265.6643 0.14 1
  265.9079 0.04 0
  266.1403 0.59 6
  266.2758 0.10 1
  266.7912 0.10 1
  267.1317 1.04 10
  267.7652 0.13 1
  268.1684 0.29 3
  268.4719 0.01 0
  269.1085 0.56 6
  269.3179 0.13 1
  269.5870 0.18 2
  270.2083 0.38 4
  270.4213 0.06 1
  270.7671 0.10 1
  270.8873 0.24 2
  271.1327 0.87 9
  271.2747 0.41 4
  271.6031 0.04 0
  271.8098 0.01 0
  272.1031 0.33 3
  272.3049 0.11 1
  272.5581 0.04 0
  272.7339 0.17 2
  273.1743 1.07 11
  273.5534 0.10 1
  274.2043 0.36 4
  274.3619 0.12 1
  274.8235 0.20 2
  275.1858 0.78 8
  275.6423 0.12 1
  276.1656 0.26 3
  276.6741 0.24 2
  277.1750 0.70 7
  277.9571 0.09 1
  278.1588 0.46 5
  278.4266 0.08 1
  278.5236 0.12 1
  278.6796 0.21 2
  278.8181 0.11 1
  278.9031 0.04 0
  279.1541 0.71 7
  279.3517 0.06 1
  279.9626 0.11 1
  280.2235 0.38 4
  280.7164 0.12 1
  280.8740 0.07 1
  281.1560 0.51 5
  281.4781 0.07 1
  281.6505 0.17 2
  281.8460 0.11 1
  282.1971 0.38 4
  282.5101 0.12 1
  282.6706 0.09 1
  283.1695 0.84 8
  283.5966 0.04 0
  283.8232 0.11 1
  284.0992 0.40 4
  284.2132 0.20 2
  284.3934 0.05 0
  284.6454 0.10 1
  284.8017 0.03 0
  285.1642 1.06 11
  285.6205 0.12 1
  285.7810 0.10 1
  286.1972 0.36 4
  286.4465 0.07 1
  286.8226 0.11 1
  286.9769 0.43 4
  287.2051 0.80 8
  287.3833 0.04 0
  288.1512 0.39 4
  288.2696 0.30 3
  288.5388 0.10 1
  288.8270 0.15 1
  289.1519 0.91 9
  289.9236 0.12 1
  290.1788 0.30 3
  290.4911 0.05 0
  290.6864 0.22 2
  290.8246 0.09 1
  291.2024 1.13 11
  291.9025 0.12 1
  292.1955 0.60 6
  292.3061 0.13 1
  292.3878 0.06 1
  292.8471 0.06 1
  292.9901 0.11 1
  293.1705 0.42 4
  293.7983 0.10 1
  294.0668 0.10 1
  294.1676 0.12 1
  294.2542 0.11 1
  294.3586 0.11 1
  294.6567 0.07 1
  294.7293 0.04 0
  294.8928 0.17 2
  295.2297 0.36 4
  295.3883 0.11 1
  296.1032 0.33 3
  296.7780 0.07 1
  296.9338 0.07 1
  297.1863 0.45 4
  297.6390 0.11 1
  297.8436 0.07 1
  298.1920 0.14 1
  298.4968 0.08 1
  298.9179 0.22 2
  299.0978 0.66 7
  299.2516 1.04 10
  300.2085 0.25 2
  300.3390 0.12 1
  301.0695 0.06 1
  301.2255 0.28 3
  301.3667 0.13 1
  301.9540 0.11 1
  302.1220 0.22 2
  302.1976 0.15 1
  302.6417 0.13 1
  302.9241 0.10 1
  303.1607 0.61 6
  303.2694 0.38 4
  303.9382 0.16 2
  304.1515 0.22 2
  304.3281 0.10 1
  304.5993 0.11 1
  304.8141 0.07 1
  305.1525 0.39 4
  305.3489 0.10 1
  306.0752 0.12 1
  306.1890 0.23 2
  306.2759 0.08 1
  307.0243 0.29 3
  307.1564 0.24 2
  307.3141 0.22 2
  307.6781 0.19 2
  308.1411 0.24 2
  308.2740 0.12 1
  308.6734 0.01 0
  308.8572 0.01 0
  309.0078 0.05 0
  309.2108 0.54 5
  309.3918 0.08 1
  310.0148 0.14 1
  310.1138 0.11 1
  310.2198 0.22 2
  310.2885 0.10 1
  310.8543 0.08 1
  311.1782 0.47 5
  311.7187 0.10 1
  311.9939 0.07 1
  312.1411 0.14 1
  312.2613 0.19 2
  312.6540 0.06 1
  312.8734 0.19 2
  313.1380 0.57 6
  313.3043 0.07 1
  314.2244 0.04 0
  314.7595 0.14 1
  315.1991 0.43 4
  315.5240 0.15 1
  315.7966 0.09 1
  315.9085 0.08 1
  316.1981 0.14 1
  316.7122 0.04 0
  316.8829 0.14 1
  317.1605 0.43 4
  318.1691 0.25 2
  318.2697 0.15 1
  318.7620 0.11 1
  318.9582 0.13 1
  319.1686 0.28 3
  319.2997 0.14 1
  319.9984 0.11 1
  320.1876 0.24 2
  320.3031 0.09 1
  320.4965 0.13 1
  320.7935 0.03 0
  321.1613 0.26 3
  321.4207 0.06 1
  321.8233 0.07 1
  322.2394 0.24 2
  322.7485 0.05 0
  323.2093 0.16 2
  323.3341 0.15 1
  323.6780 0.04 0
  324.3021 0.07 1
  324.8666 0.11 1
  325.1723 0.44 4
  325.2737 0.13 1
  325.7440 0.10 1
  325.9334 0.06 1
  326.2250 0.17 2
  326.5719 0.06 1
  327.0878 0.29 3
  327.2772 0.38 4
  328.0088 0.24 2
  328.0961 0.12 1
  328.3970 0.06 1
  328.6483 0.01 0
  329.1877 0.48 5
  329.4283 0.04 0
  329.5710 0.10 1
  330.2071 0.22 2
  330.8546 0.10 1
  331.0890 0.35 3
  331.1983 0.14 1
  331.4333 0.07 1
  331.6435 0.08 1
  331.9027 0.08 1
  332.1208 0.03 0
  332.2557 0.34 3
  332.4673 0.09 1
  333.1790 0.53 5
  334.0209 0.23 2
  334.1111 0.09 1
  334.2553 0.12 1
  334.3882 0.20 2
  335.1944 0.25 2
  335.3662 0.28 3
  336.0705 0.25 2
  336.2296 0.25 2
  336.3347 0.12 1
  336.6663 0.16 2
  336.8190 0.10 1
  336.9930 0.05 0
  337.2131 0.29 3
  337.3445 0.15 1
  337.5604 0.14 1
  337.8658 0.11 1
  337.9859 0.19 2
  338.2849 0.12 1
  338.4731 0.05 0
  338.9768 0.07 1
  339.2013 0.25 2
  339.7164 0.01 0
  339.9374 0.13 1
  340.1527 0.21 2
  340.3005 0.01 0
  340.6060 0.09 1
  340.9343 0.08 1
  341.1148 0.17 2
  341.3472 0.19 2
  341.6422 0.10 1
  342.1880 0.23 2
  342.6842 0.21 2
  342.8740 0.10 1
  343.1584 0.44 4
  343.3340 0.21 2
  343.7797 0.05 0
  345.2545 0.41 4
  345.4622 0.11 1
  345.7331 0.13 1
  346.1620 0.12 1
  346.6734 0.14 1
  346.8832 0.20 2
  346.9736 0.08 1
  347.1024 0.19 2
  347.2346 0.26 3
  347.4922 0.10 1
  348.2015 0.21 2
  348.4100 0.08 1
  348.5693 0.09 1
  348.7145 0.10 1
  348.8525 0.10 1
  349.0098 0.07 1
  349.2888 0.29 3
  350.2787 0.28 3
  350.5143 0.08 1
  351.2951 0.39 4
  351.5450 0.11 1
  352.0839 0.11 1
  352.2996 0.33 3
  352.7325 0.08 1
  352.9639 0.05 0
  353.1397 0.18 2
  353.3099 0.11 1
  353.5164 0.12 1
  354.1979 0.30 3
  354.3852 0.10 1
  354.6416 0.08 1
  355.1580 0.12 1
  355.2726 0.31 3
  355.4044 0.19 2
  355.6808 0.05 0
  356.2336 0.06 1
  357.2274 0.23 2
  357.4226 0.11 1
  357.8102 0.09 1
  358.0931 0.15 1
  358.2848 0.25 2
  359.0694 0.07 1
  359.2048 0.15 1
  359.3695 0.18 2
  360.2355 0.15 1
  360.3424 0.16 2
  361.3347 0.23 2
  361.6997 0.07 1
  362.1396 0.27 3
  362.3494 0.12 1
  362.5163 0.10 1
  362.8799 0.04 0
  363.0361 0.14 1
  363.2343 0.13 1
  363.3869 0.23 2
  364.0659 0.14 1
  364.2278 0.17 2
  364.3514 0.22 2
  364.6839 0.02 0
  365.1421 0.17 2
  365.3005 0.33 3
  365.4425 0.21 2
  365.5868 0.10 1
  366.5821 0.10 1
  366.7797 0.11 1
  366.9005 0.08 1
  367.1364 0.14 1
  367.2358 0.11 1
  367.7653 0.06 1
  368.3992 0.02 0
  368.9940 0.13 1
  369.2094 0.19 2
  369.4141 0.11 1
  370.0318 0.12 1
  370.3112 0.05 0
  370.5444 0.10 1
  371.0548 0.02 0
  371.1700 0.07 1
  371.3798 0.14 1
  371.5333 0.03 0
  372.1619 0.11 1
  372.4250 0.12 1
  372.5139 0.10 1
  372.7215 0.13 1
  373.1966 0.11 1
  373.3900 0.10 1
  373.5628 0.12 1
  373.7228 0.11 1
  373.8210 0.16 2
  374.2079 0.23 2
  374.3203 0.16 2
  374.5685 0.13 1
  374.7108 0.10 1
  375.0160 0.03 0
  375.3510 0.08 1
  375.5936 0.06 1
  375.7466 0.13 1
  376.2268 0.53 5
  376.3370 0.35 3
  376.4978 0.15 1
  376.6794 0.02 0
  377.1379 0.14 1
  377.3387 0.20 2
  377.7730 0.06 1
  378.1590 0.13 1
  378.9338 0.10 1
  379.1047 0.11 1
  379.3682 0.18 2
  380.2536 0.26 3
  380.8306 0.05 0
  381.1126 0.10 1
  381.6192 0.01 0
  382.0474 0.07 1
  382.3338 0.01 0
  383.1945 0.18 2
  383.8636 0.12 1
  384.0254 0.20 2
  384.5392 0.10 1
  385.1023 0.03 0
  385.2976 0.02 0
  385.4729 0.04 0
  385.7609 0.01 0
  386.0296 0.13 1
  386.2292 0.07 1
  386.7503 0.13 1
  387.1552 0.10 1
  387.3777 0.03 0
  388.1598 0.15 1
  388.3830 0.08 1
  388.6604 0.13 1
  388.9670 0.13 1
  389.2380 0.19 2
  389.6751 0.01 0
  390.2264 0.38 4
  390.3812 0.23 2
  390.7613 0.01 0
  391.0901 0.13 1
  391.2578 0.18 2
  392.0752 0.09 1
  392.2207 0.10 1
  392.7401 0.17 2
  393.3144 0.02 0
  394.0957 0.13 1
  394.2819 0.13 1
  394.5595 0.12 1
  394.7165 0.09 1
  395.1046 0.10 1
  395.2452 0.23 2
  395.4251 0.11 1
  395.6456 0.04 0
  397.2522 0.19 2
  397.6633 0.10 1
  399.3096 0.13 1
  399.4424 0.06 1
  399.6259 0.01 0
  400.3684 0.10 1
  400.8012 0.05 0
  401.0540 0.10 1
  401.1768 0.11 1
  401.3303 0.07 1
  401.4267 0.11 1
  402.2416 0.10 1
  403.3015 0.20 2
  403.3758 0.09 1
  403.7673 0.05 0
  404.1244 0.09 1
  404.4173 0.01 0
  405.1810 0.09 1
  406.3914 0.04 0
  406.8258 0.10 1
  407.0030 0.06 1
  407.1009 0.08 1
  407.3024 0.01 0
  408.1886 0.17 2
  408.6281 0.04 0
  409.3681 0.10 1
  410.2976 0.18 2
  410.3997 0.07 1
  410.4988 0.05 0
  410.7863 0.09 1
  411.4813 0.12 1
  411.6133 0.10 1
  411.7917 0.04 0
  412.2448 0.13 1
  412.4353 0.20 2
  412.7271 0.07 1
  413.2416 0.32 3
  413.3829 0.20 2
  413.5064 0.11 1
  414.1480 0.10 1
  414.2393 0.11 1
  414.4670 0.08 1
  414.5891 0.11 1
  414.7946 0.17 2
  415.1223 0.13 1
  415.2386 0.15 1
  415.3542 0.26 3
  415.4785 0.14 1
  415.6505 0.04 0
  415.7932 0.07 1
  415.9753 0.10 1
  416.3193 0.10 1
  416.9832 0.10 1
  417.2424 0.13 1
  417.4059 0.04 0
  418.0214 0.04 0
  418.1577 0.10 1
  418.3326 0.26 3
  418.9510 0.14 1
  419.0638 0.10 1
  419.2445 0.10 1
  419.4287 0.36 4
  420.4285 0.11 1
  421.1191 0.09 1
  421.3684 0.10 1
  421.5041 0.11 1
  421.7112 0.06 1
  422.3491 0.13 1
  423.0213 0.04 0
  423.3878 0.09 1
  423.5906 0.11 1
  424.3972 0.06 1
  424.5258 0.17 2
  425.3532 0.25 2
  425.8988 0.11 1
  426.1407 0.08 1
  426.4846 0.07 1
  427.1631 0.15 1
  427.4464 0.33 3
  427.8446 0.10 1
  428.3113 0.35 3
  428.9772 0.22 2
  429.2484 0.45 4
  429.4511 0.36 4
  429.8101 0.09 1
  429.8879 0.05 0
  430.2776 0.13 1
  430.8793 0.10 1
  431.2013 0.30 3
  431.3954 0.14 1
  431.5360 0.04 0
  431.6852 0.01 0
  432.1593 0.19 2
  432.3742 0.17 2
  432.5120 0.14 1
  432.7333 0.07 1
  432.9825 0.10 1
  433.3180 0.26 3
  433.4094 0.16 2
  433.6921 0.15 1
  434.9210 0.06 1
  436.2986 0.10 1
  437.3499 0.11 1
  437.5899 0.12 1
  438.7843 0.01 0
  438.9378 0.07 1
  439.4722 0.16 2
  440.5360 0.11 1
  440.7996 0.13 1
  441.1876 0.13 1
  441.3284 0.13 1
  441.4634 0.18 2
  441.6713 0.04 0
  441.9414 0.07 1
  442.1880 0.11 1
  442.3130 0.10 1
  442.7782 0.02 0
  443.1041 0.15 1
  443.2649 0.11 1
  443.3907 0.10 1
  443.5750 0.25 2
  443.7280 0.11 1
  444.0432 0.12 1
  444.3526 1.15 11
  444.6842 0.15 1
  444.9565 0.18 2
  445.3683 0.91 9
  445.7271 0.19 2
  445.9322 0.21 2
  446.3347 2.28 23
  446.5055 1.09 11
  446.8329 0.14 1
  447.0352 0.18 2
  447.3684 0.15 1
  447.5264 0.09 1
  447.8423 0.14 1
  448.2220 0.21 2
  448.3750 0.12 1
  448.8047 0.10 1
  449.0321 0.12 1
  449.1443 0.13 1
  449.3553 0.10 1
  449.4518 0.10 1
  449.9151 0.13 1
  450.2519 0.12 1
  450.5852 0.09 1
  450.8884 0.24 2
  451.2574 0.21 2
  451.3854 0.08 1
  452.0820 0.27 3
  452.2271 0.27 3
  452.3480 0.18 2
  452.4968 0.04 0
  452.6799 0.07 1
  453.0740 0.10 1
  453.4309 0.20 2
  453.6018 0.25 2
  453.8200 0.14 1
  454.0224 0.10 1
  454.3100 0.07 1
  454.5790 0.16 2
  454.8258 0.14 1
  454.9631 0.11 1
  455.0840 0.06 1
  455.3201 0.20 2
  455.4446 0.54 5
  455.9132 0.36 4
  456.1943 0.69 7
  456.4869 1.15 11
  456.7517 1.07 11
  456.9434 0.97 10
  457.4271 0.91 9
  457.6575 0.42 4
  457.8643 0.64 6
  458.0718 0.47 5
  458.3036 0.47 5
  458.5376 0.46 5
  458.7781 0.17 2
  458.8675 0.11 1
  459.0836 0.15 1
  459.1967 0.15 1
  459.4007 0.33 3
  459.5016 0.11 1
  459.6526 0.10 1
  459.8436 0.04 0
  460.2623 0.14 1
  460.5536 0.05 0
  460.9478 0.12 1
  461.2384 0.18 2
  461.5332 0.09 1
  461.9666 0.07 1
  462.1587 0.15 1
  462.2993 0.21 2
  462.4500 0.06 1
  462.6435 0.13 1
  462.7491 0.12 1
  462.8741 0.10 1
  463.0383 0.16 2
  463.2225 0.10 1
  464.0944 0.10 1
  464.6664 0.15 1
  464.8071 0.10 1
  466.3775 0.05 0
  466.6089 0.05 0
  466.9960 0.10 1
  467.1125 0.14 1
  467.5553 0.05 0
  467.8274 0.11 1
  468.2967 0.09 1
  468.5003 0.24 2
  468.7332 0.07 1
  469.0003 0.09 1
  469.1075 0.23 2
  469.3604 0.13 1
  469.5083 0.08 1
  470.2220 0.11 1
  470.3398 0.07 1
  470.5435 0.21 2
  470.7985 0.23 2
  470.9907 0.08 1
  471.1622 0.09 1
  472.0110 0.10 1
  472.3025 0.13 1
  472.8970 0.06 1
  473.0635 0.03 0
  473.4165 0.21 2
  473.5659 0.11 1
  473.8982 0.21 2
  474.3248 0.16 2
  474.4878 0.26 3
  474.6757 0.02 0
  474.8087 0.10 1
  475.2711 0.13 1
  475.8042 0.11 1
  476.3846 0.27 3
  476.5941 0.12 1
  477.4861 0.10 1
  477.7685 0.18 2
  478.1824 0.13 1
  478.4104 0.11 1
  478.5648 0.15 1
  478.8129 0.10 1
  479.0903 0.06 1
  479.2497 0.06 1
  479.3705 0.05 0
  480.2270 0.11 1
  480.9098 0.09 1
  481.0929 0.10 1
  481.2595 0.17 2
  481.6964 0.12 1
  482.4808 0.08 1
  482.9527 0.14 1
  483.4648 0.11 1
  483.5606 0.10 1
  483.8510 0.12 1
  484.2915 0.11 1
  484.4309 0.09 1
  485.3021 0.14 1
  485.7441 0.11 1
  486.0066 0.10 1
  486.3678 0.35 3
  486.6310 0.14 1
  487.3256 0.12 1
  487.8879 0.16 2
  488.0109 0.10 1
  488.1282 0.08 1
  488.2613 0.14 1
  488.4144 0.20 2
  488.5453 0.11 1
  489.0008 0.05 0
  489.3976 0.06 1
  489.5506 0.14 1
  489.7937 0.07 1
  490.2635 0.11 1
  490.4694 0.07 1
  490.5716 0.08 1
  490.7075 0.13 1
  490.7983 0.05 0
  491.2781 0.15 1
  491.4919 0.25 2
  491.6606 0.19 2
  491.7393 0.05 0
  492.4043 7.75 77
  492.8263 0.45 4
  493.0158 0.18 2
  493.2146 0.22 2
  493.3826 0.10 1
  493.5464 0.12 1
  493.8468 0.13 1
  494.0678 0.14 1
  494.3589 0.22 2
  494.6400 0.08 1
  494.8681 0.14 1
  495.1742 0.12 1
  495.7150 0.11 1
  496.1084 0.12 1
  496.7457 0.05 0
  496.8995 0.09 1
  497.2100 0.14 1
  497.3902 0.23 2
  498.0698 0.04 0
  498.5463 0.13 1
  499.2653 0.22 2
  499.4377 0.17 2
  499.7718 0.03 0
  500.3743 0.86 9
  500.7342 0.12 1
  501.5219 0.09 1
  501.8926 0.11 1
  502.5803 0.16 2
  503.3481 0.11 1
  503.5908 0.02 0
  504.0201 0.02 0
  504.1626 0.11 1
  504.2477 0.10 1
  504.3386 0.03 0
  504.5984 0.02 0
  505.2125 0.12 1
  505.4430 0.76 8
  505.5482 0.21 2
  505.6964 0.13 1
  506.5617 0.07 1
  506.7349 0.17 2
  507.2303 0.14 1
  507.5273 0.01 0
  507.6998 0.08 1
  508.1451 0.11 1
  509.0206 0.12 1
  509.5969 0.07 1
  509.9148 0.03 0
  510.0852 0.18 2
  510.2964 0.46 5
  510.4396 0.26 3
  510.6802 0.12 1
  511.1964 0.04 0
  511.3310 0.05 0
  511.4606 0.11 1
  511.7291 0.09 1
  512.3807 0.16 2
  512.5597 0.14 1
  513.4161 0.26 3
  513.5866 0.03 0
  513.9518 0.08 1
  514.4531 0.01 0
  514.6565 0.07 1
  515.0045 0.23 2
  515.3196 0.07 1
  515.9134 0.10 1
  516.0298 0.08 1
  517.3353 0.10 1
  517.6411 0.07 1
  517.9833 0.07 1
  518.4056 0.08 1
  518.7136 0.11 1
  518.9595 0.10 1
  519.1796 0.01 0
  519.3790 0.10 1
  520.2380 0.01 0
  520.5174 0.10 1
  520.6217 0.11 1
  520.9734 0.15 1
  521.8124 0.02 0
  522.0590 0.10 1
  522.4193 0.10 1
  522.6508 0.12 1
  523.1791 0.09 1
  523.7173 0.10 1
  523.8738 0.02 0
  524.1340 0.15 1
  524.3813 0.12 1
  525.3293 0.14 1
  525.5444 0.13 1
  526.3931 0.08 1
  526.5525 0.13 1
  526.8978 0.12 1
  527.1316 0.12 1
  527.3232 0.20 2
  527.4304 0.15 1
  527.5284 0.02 0
  527.6671 0.11 1
  528.0504 0.09 1
  528.3871 0.86 9
  528.6052 0.35 3
  528.8661 0.11 1
  529.2444 0.18 2
  529.4354 0.03 0
  529.9294 0.05 0
  530.1854 0.11 1
  530.3678 0.14 1
  530.4808 0.12 1
  530.8405 0.11 1
  531.4047 0.12 1
  531.5685 0.07 1
  531.9597 0.08 1
  532.0355 0.02 0
  532.7513 0.10 1
  533.2692 0.24 2
  533.5116 0.06 1
  533.7054 0.09 1
  534.2061 0.11 1
  534.4300 0.16 2
  534.7339 0.13 1
  535.0480 0.08 1
  535.2862 0.10 1
  535.4650 0.10 1
  535.6639 0.11 1
  535.8033 0.07 1
  536.2111 0.14 1
  536.6081 0.21 2
  536.6954 0.11 1
  536.7977 0.07 1
  536.9908 0.12 1
  537.2805 0.30 3
  537.6182 0.11 1
  537.7298 0.12 1
  537.9094 0.12 1
  538.0367 0.28 3
  538.2284 0.12 1
  538.3572 0.17 2
  538.5661 0.13 1
  538.8301 0.16 2
  539.1434 0.20 2
  539.3423 0.17 2
  539.5920 0.15 1
  539.7623 0.11 1
  540.1158 0.11 1
  540.4327 0.26 3
  540.7025 0.12 1
  541.0416 0.15 1
  541.5396 0.32 3
  541.7986 0.08 1
  541.9203 0.12 1
  542.1550 0.11 1
  542.6158 0.01 0
  542.8291 0.12 1
  542.9515 0.04 0
  543.2634 0.14 1
  543.6163 0.11 1
  543.8467 0.16 2
  543.9548 0.12 1
  544.2167 0.18 2
  544.3419 0.12 1
  544.4514 0.09 1
  544.5773 0.04 0
  544.7169 0.11 1
  544.8629 0.23 2
  544.9781 0.15 1
  545.1649 0.11 1
  545.2544 0.12 1
  545.4576 0.06 1
  545.8627 0.14 1
  545.9730 0.11 1
  546.0638 0.11 1
  546.2142 0.13 1
  546.4002 0.03 0
  546.8647 0.16 2
  547.1110 0.33 3
  547.4474 0.32 3
  547.8325 0.12 1
  547.9420 0.22 2
  548.2698 0.23 2
  548.4488 0.30 3
  548.5805 0.30 3
  548.9470 0.13 1
  549.0493 0.17 2
  549.3765 0.19 2
  549.6105 0.16 2
  549.7523 0.12 1
  549.9528 0.05 0
  550.3414 0.21 2
  550.4360 0.12 1
  550.5527 0.23 2
  551.3724 0.56 6
  551.6058 0.19 2
  551.7940 0.20 2
  552.0110 0.14 1
  552.1362 0.28 3
  552.2358 0.09 1
  552.3782 0.14 1
  553.0176 0.08 1
  553.4587 0.24 2
  553.6635 0.15 1
  553.9377 0.22 2
  554.0164 0.13 1
  554.3143 0.35 3
  554.6000 0.38 4
  554.8521 0.64 6
  555.1470 0.67 7
  555.4521 0.89 9
  555.6053 0.72 7
  555.9261 0.19 2
  556.0801 0.20 2
  556.2792 0.70 7
  556.6000 0.73 7
  556.8263 0.60 6
  556.9258 0.47 5
  557.0454 0.52 5
  557.2746 0.37 4
  557.5023 0.55 5
  557.9528 0.62 6
  558.3417 0.38 4
  558.8466 0.63 6
  559.3500 0.76 8
  559.6116 0.13 1
  559.8845 0.79 8
  560.6517 0.61 6
  560.7975 0.56 6
  561.1604 0.65 6
  561.6055 0.71 7
  562.0263 1.11 11
  562.6836 1.63 16
  562.9008 1.21 12
  563.7046 1.46 15
  564.4391 1.40 14
  566.2091 18.06 180
  567.3389 2.00 20
  567.9335 1.06 11
  568.4559 1.52 15
  568.7103 0.97 10
  569.4379 2.03 20
  570.0225 0.67 7
  570.5657 0.84 8
  570.9860 0.72 7
  571.3098 0.96 10
  572.2405 1.05 10
  573.0560 1.01 10
  573.4950 1.10 11
  573.8474 1.44 14
  574.2384 0.81 8
  574.4421 0.83 8
  574.6459 0.97 10
  574.8260 1.18 12
  575.2242 0.92 9
  575.7612 1.10 11
  576.1894 1.03 10
  576.8422 1.36 14
  577.7952 1.86 19
  584.5116 99.97 999
  585.0935 37.71 377
  585.8527 17.44 174
  586.6163 9.49 95
  587.2869 5.32 53
  588.0612 3.26 33
  588.6225 2.09 21
  589.8452 1.32 13
  590.1948 0.95 9
  590.7797 0.70 7
  590.9678 0.42 4
  591.1880 0.55 5
  591.8016 0.38 4
  592.2900 0.46 5
  592.5052 0.24 2
  592.6912 0.28 3
  592.9529 0.32 3
  593.4013 0.25 2
//
