ACCESSION: MSBNK-Kyoto_Univ-CA000076
RECORD_TITLE: Lycopene 1,2-epoxide; FAB-EBEB; MS2; m/z: 552.43; [M]+*
DATE: 2016.01.19 (Created 2010.04.01, modified 2011.05.10)
AUTHORS: Akimoto N, Graduate School of Pharmaceutical Sciences, Kyoto University and Maoka T, Research Institute for Production Development
LICENSE: CC BY-SA
PUBLICATION: Prepared from lycopene
COMMENT: Profile spectrum of this record is given as a JPEG file.
COMMENT: [Profile] CA000076.jpg
CH$NAME: Lycopene 1,2-epoxide
CH$COMPOUND_CLASS: N/A
CH$FORMULA: C40H56O
CH$EXACT_MASS: 552.43312
CH$SMILES: CC(CCC(O1)C1(C)C)=CC=CC(C)=CC=CC(=CC=CC=C(C=CC=C(C)C=CC=C(CCC=C(C)C)C)C)C
CH$IUPAC: InChI=1S/C40H56O/c1-32(2)18-13-21-35(5)24-16-27-36(6)25-14-22-33(3)19-11-12-20-34(4)23-15-26-37(7)28-17-29-38(8)30-31-39-40(9,10)41-39/h11-12,14-20,22-29,39H,13,21,30-31H2,1-10H3/b12-11+,22-14+,23-15+,27-16+,28-17+,33-19+,34-20+,35-24+,36-25+,37-26+,38-29+
CH$LINK: CAS 51599-09-8
CH$LINK: INCHIKEY GTXHICADEVOUIY-KSHBURSTSA-N
AC$INSTRUMENT: JMS-HX/HX 110A, JEOL
AC$INSTRUMENT_TYPE: FAB-EBEB
AC$MASS_SPECTROMETRY: MS_TYPE MS2
AC$MASS_SPECTROMETRY: ION_MODE POSITIVE
AC$MASS_SPECTROMETRY: ATOM_GUN_CURRENT 5 mA
AC$MASS_SPECTROMETRY: BOMBARDMENT 6 kV xenon
AC$MASS_SPECTROMETRY: COLLISION_ENERGY 3 kV
AC$MASS_SPECTROMETRY: COLLISION_GAS Ar
AC$MASS_SPECTROMETRY: GAS_PRESSURE adjust to attenuate the intensity of the precursor ion by 30 %
AC$MASS_SPECTROMETRY: IONIZATION FAB
AC$MASS_SPECTROMETRY: MATRIX 1-2 uL m-NBA
AC$MASS_SPECTROMETRY: PROBE_TIP stainless-steel
MS$FOCUSED_ION: BASE_PEAK 68.9912
MS$FOCUSED_ION: PRECURSOR_M/Z 552.43
MS$FOCUSED_ION: PRECURSOR_TYPE [M]+*
MS$DATA_PROCESSING: RELATIVE_M/Z normalised by peak(m/z=68.9912).  set 999 for peak(m/z=552.4398,rel=1883).
PK$SPLASH: splash10-0uxu-3920020000-ec39118c88bd22bed931
PK$NUM_PEAK: 1775
PK$PEAK: m/z int. rel.int.
  10.2075 0.01 0
  10.7251 0.01 0
  11.9569 0.01 0
  12.9548 0.02 0
  13.9676 0.07 1
  14.9737 0.39 7
  15.4516 0.01 0
  22.9327 0.20 4
  23.9411 0.02 0
  24.9354 0.04 1
  25.9516 0.44 8
  26.8032 0.01 0
  26.9595 2.95 56
  27.9640 0.27 5
  28.7918 0.01 0
  28.9677 2.22 42
  29.9814 0.03 1
  30.9492 0.39 7
  35.8978 0.06 1
  36.0331 0.02 0
  36.5110 0.01 0
  36.9252 0.27 5
  37.0563 0.02 0
  37.2949 0.01 0
  37.9451 0.83 16
  38.1168 0.01 0
  38.4541 0.02 0
  38.6358 0.02 0
  38.9473 5.53 104
  39.3768 0.04 1
  39.9547 0.80 15
  40.1293 0.02 0
  40.6017 0.01 0
  40.9655 19.43 366
  41.4368 0.01 0
  41.5931 0.01 0
  41.9697 0.74 14
  42.9724 28.15 530
  43.4755 0.02 0
  43.9853 0.10 2
  44.4838 0.01 0
  44.9614 0.33 6
  47.9161 0.03 1
  48.9309 0.15 3
  49.4123 0.01 0
  49.7055 0.01 0
  49.9414 1.21 23
  50.4642 0.01 0
  50.6151 0.03 1
  50.9489 3.05 57
  51.0972 0.02 0
  51.3983 0.02 0
  51.5108 0.05 1
  51.9576 1.20 23
  52.5227 0.01 0
  52.9643 6.96 131
  53.9668 0.26 5
  54.5792 0.01 0
  54.9801 15.98 301
  55.9770 0.12 2
  56.9902 1.31 25
  57.4285 0.02 0
  57.9720 0.09 2
  58.9776 9.17 173
  59.9773 0.03 1
  60.6863 0.02 0
  60.9672 0.12 2
  61.9385 0.75 14
  62.5639 0.03 1
  62.6506 0.02 0
  62.9540 2.71 51
  63.1082 0.03 1
  63.2524 0.02 0
  63.3219 0.03 1
  63.4302 0.04 1
  63.6378 0.05 1
  63.9530 0.64 12
  64.3682 0.02 0
  64.4546 0.02 0
  64.7484 0.04 1
  64.9646 5.06 95
  65.2243 0.03 1
  65.2927 0.01 0
  65.5361 0.04 1
  65.6940 0.01 0
  65.9662 1.17 22
  66.2092 0.01 0
  66.4932 0.02 0
  66.6055 0.03 1
  66.6695 0.02 0
  66.9787 8.83 166
  67.2005 0.05 1
  67.9821 0.56 11
  68.3912 0.04 1
  68.5465 0.01 0
  68.6857 0.05 1
  68.9912 53.03 999
  69.2738 0.03 1
  69.3579 0.02 0
  69.4795 0.01 0
  69.9779 0.35 7
  70.1988 0.02 0
  70.3900 0.01 0
  70.6101 0.03 1
  70.7116 0.02 0
  70.9696 14.59 275
  71.9871 0.30 6
  72.1279 0.02 0
  72.9839 0.52 10
  73.9117 0.61 11
  74.9356 1.09 21
  75.0960 0.03 1
  75.3434 0.09 2
  75.4569 0.06 1
  75.6098 0.03 1
  75.9468 0.82 15
  76.2114 0.06 1
  76.3480 0.07 1
  76.5819 0.13 2
  76.9488 17.02 321
  77.1758 0.11 2
  77.2616 0.05 1
  77.5044 0.04 1
  77.9577 3.33 63
  78.1246 0.08 2
  78.4624 0.08 2
  78.9657 18.48 348
  79.1582 0.12 2
  79.3229 0.01 0
  79.5884 0.03 1
  79.7179 0.01 0
  79.9765 2.54 48
  80.1562 0.06 1
  80.4297 0.05 1
  80.5140 0.03 1
  80.9801 25.96 489
  81.2864 0.07 1
  81.3917 0.02 0
  81.5190 0.03 1
  81.6904 0.01 0
  81.8020 0.02 0
  81.9842 0.54 10
  82.1778 0.08 2
  82.3896 0.06 1
  82.4545 0.03 1
  82.5252 0.02 0
  82.9894 2.44 46
  83.1801 0.05 1
  83.3380 0.03 1
  83.4972 0.05 1
  83.9960 0.04 1
  84.6528 0.03 1
  84.9728 2.37 45
  85.3466 0.02 0
  85.6387 0.01 0
  85.9338 0.25 5
  86.1339 0.01 0
  86.7206 0.04 1
  86.9445 0.49 9
  87.7081 0.02 0
  87.9159 0.23 4
  88.0803 0.01 0
  88.2179 0.02 0
  88.3050 0.04 1
  88.5028 0.08 2
  88.9309 1.62 31
  89.2743 0.25 5
  89.5083 0.18 3
  89.9511 0.47 9
  90.2562 0.18 3
  90.4832 0.17 3
  90.9611 41.35 779
  91.3015 0.07 1
  91.4511 0.08 2
  91.5758 0.06 1
  91.6728 0.04 1
  91.9739 3.99 75
  92.3163 0.03 1
  92.4893 0.08 2
  92.9861 30.53 575
  93.3205 0.05 1
  93.9765 1.33 25
  94.2308 0.03 1
  94.4515 0.03 1
  95.0003 11.87 224
  95.4210 0.05 1
  95.6475 0.02 0
  95.9878 0.18 3
  96.4788 0.06 1
  96.9959 1.10 21
  97.6756 0.07 1
  97.9482 0.24 5
  98.7423 0.04 1
  98.9739 0.43 8
  99.4050 0.01 0
  99.7636 0.01 0
  99.9246 0.04 1
  100.1766 0.01 0
  100.4117 0.02 0
  100.5317 0.02 0
  100.9306 0.53 10
  101.2031 0.12 2
  101.4352 0.06 1
  101.5984 0.04 1
  101.9614 2.02 38
  102.1608 0.04 1
  102.4251 0.11 2
  102.9724 7.24 136
  103.2490 0.11 2
  103.3376 0.02 0
  103.5292 0.05 1
  103.6380 0.05 1
  103.9758 3.04 57
  104.3630 0.10 2
  104.5448 0.12 2
  104.9887 52.89 996
  105.2775 0.04 1
  105.4145 0.09 2
  105.6228 0.05 1
  105.9978 4.47 84
  106.3753 0.12 2
  106.6249 0.08 2
  107.0034 24.18 456
  107.2640 0.09 2
  107.3602 0.07 1
  107.5663 0.02 0
  107.6720 0.02 0
  107.9983 1.00 19
  108.2296 0.05 1
  108.3182 0.01 0
  108.4098 0.02 0
  108.6502 0.02 0
  109.0139 5.71 108
  109.3075 0.01 0
  109.4457 0.02 0
  109.9691 0.19 4
  110.5323 0.04 1
  110.9849 0.81 15
  111.2335 0.02 0
  111.7458 0.01 0
  111.9318 0.07 1
  112.1035 0.01 0
  112.4699 0.10 2
  112.9586 0.45 8
  113.2445 0.13 2
  113.4177 0.10 2
  113.9432 0.55 10
  114.1767 0.12 2
  114.2811 0.17 3
  114.4613 0.13 2
  114.9557 18.21 343
  115.3206 0.16 3
  115.9601 6.98 131
  116.2779 0.22 4
  116.5273 0.15 3
  116.9665 21.40 403
  117.3011 0.03 1
  117.6106 0.07 1
  117.9702 3.50 66
  118.4986 0.10 2
  118.9790 40.52 763
  119.2166 0.14 3
  119.4652 0.18 3
  119.7132 0.18 3
  119.9831 3.42 64
  120.1672 0.10 2
  120.3355 0.07 1
  120.4681 0.12 2
  120.5923 0.17 3
  120.9947 10.85 204
  121.2602 0.14 3
  121.5156 0.06 1
  121.6120 0.03 1
  121.9633 0.31 6
  122.2851 0.08 2
  122.3938 0.01 0
  122.7771 0.09 2
  123.0117 1.80 34
  123.2803 0.03 1
  123.3715 0.02 0
  123.6817 0.01 0
  123.9154 0.07 1
  124.0042 0.12 2
  124.1052 0.05 1
  124.4382 0.05 1
  124.5302 0.01 0
  124.9852 4.19 79
  125.2278 0.14 3
  125.3442 0.06 1
  125.4277 0.05 1
  125.5338 0.08 2
  125.6545 0.04 1
  125.9498 1.04 20
  126.2475 0.09 2
  126.9411 6.80 128
  127.2943 0.27 5
  127.4636 0.30 6
  127.9429 20.60 388
  128.1906 0.31 6
  128.9453 24.76 466
  129.2558 0.09 2
  129.4298 0.12 2
  129.6173 0.08 2
  129.9599 10.76 203
  130.9641 28.08 529
  131.2447 0.14 3
  131.4774 0.16 3
  131.9719 8.58 162
  132.2184 0.06 1
  132.4452 0.16 3
  132.5977 0.16 3
  132.9797 29.00 546
  133.2615 0.15 3
  133.9449 0.93 18
  134.2370 0.02 0
  134.3664 0.04 1
  134.5206 0.17 3
  134.6186 0.12 2
  134.9874 2.79 53
  135.3817 0.05 1
  135.5916 0.03 1
  135.6984 0.03 1
  135.9615 0.34 6
  136.1159 0.03 1
  136.3389 0.03 1
  136.4624 0.02 0
  136.6070 0.02 0
  136.9699 0.38 7
  137.2055 0.02 0
  137.4547 0.01 0
  137.6255 0.03 1
  137.9361 0.29 5
  138.0011 0.14 3
  138.1292 0.04 1
  138.2518 0.09 2
  138.4740 0.11 2
  138.9404 2.58 49
  139.2310 0.11 2
  139.3246 0.02 0
  139.4337 0.09 2
  139.5819 0.05 1
  139.9620 1.03 19
  140.0959 0.48 9
  140.3546 0.26 5
  140.9430 17.95 338
  141.2957 0.14 3
  141.4510 0.07 1
  141.9567 17.22 324
  142.4565 0.18 3
  142.9639 33.44 630
  143.2246 0.18 3
  143.4692 0.29 5
  143.9703 9.27 175
  144.3284 0.12 2
  144.9789 35.19 663
  145.4584 0.16 3
  145.6542 0.12 2
  145.9904 2.02 38
  146.4235 0.09 2
  146.5333 0.06 1
  146.9997 6.03 114
  147.3957 0.09 2
  147.5738 0.03 1
  147.7238 0.03 1
  147.9894 0.28 5
  148.1588 0.03 1
  148.3432 0.09 2
  148.4270 0.03 1
  148.6109 0.04 1
  148.9837 0.52 10
  149.1608 0.11 2
  149.4430 0.06 1
  149.9507 0.45 8
  150.2006 0.06 1
  150.3378 0.07 1
  150.4687 0.15 3
  150.5896 0.13 2
  150.9606 1.74 33
  151.2182 0.18 3
  151.9513 6.69 126
  152.1640 0.22 4
  152.9630 9.51 179
  153.1997 0.17 3
  153.4113 0.06 1
  153.5257 0.11 2
  153.9749 5.73 108
  154.4048 0.11 2
  154.9851 19.12 360
  155.2915 0.13 2
  155.4922 0.10 2
  155.9925 13.63 257
  157.0070 30.15 568
  157.2672 0.22 4
  157.4695 0.10 2
  158.0116 4.70 89
  158.2405 0.14 3
  159.0190 11.82 223
  159.4463 0.09 2
  159.5978 0.10 2
  160.0189 0.76 14
  160.2179 0.06 1
  160.4605 0.05 1
  161.0330 1.39 26
  161.3402 0.08 2
  161.5216 0.06 1
  161.7689 0.12 2
  162.0313 0.20 4
  162.4710 0.17 3
  162.9881 1.02 19
  163.4458 0.15 3
  163.6244 0.16 3
  164.0019 0.88 17
  164.3656 0.26 5
  164.9911 14.60 275
  165.2409 0.17 3
  165.5827 0.23 4
  166.0071 5.55 105
  166.3097 0.28 5
  166.4919 0.19 4
  167.0083 12.34 232
  167.3154 0.14 3
  167.3984 0.05 1
  168.0171 5.57 105
  168.3219 0.09 2
  168.5716 0.15 3
  169.0235 19.19 362
  169.3526 0.22 4
  169.5390 0.19 4
  170.0242 6.22 117
  170.2755 0.18 3
  170.5077 0.19 4
  171.0358 14.84 280
  171.3164 0.12 2
  172.0151 2.17 41
  172.2730 0.07 1
  172.3982 0.04 1
  172.5666 0.17 3
  173.0497 7.31 138
  173.4897 0.12 2
  173.7358 0.11 2
  174.0271 0.68 13
  174.2243 0.06 1
  174.3821 0.05 1
  175.0185 1.06 20
  175.2452 0.09 2
  175.5152 0.06 1
  175.9820 0.90 17
  176.3738 0.06 1
  176.5515 0.07 1
  177.0040 1.36 26
  177.2883 0.21 4
  177.4362 0.22 4
  177.9738 7.00 132
  178.3693 0.16 3
  178.9895 11.56 218
  179.2812 0.11 2
  179.4025 0.08 2
  179.5621 0.14 3
  179.9988 5.44 102
  180.2083 0.17 3
  180.4740 0.26 5
  181.0081 13.16 248
  181.3762 0.23 4
  181.5469 0.10 2
  182.0155 5.80 109
  182.2528 0.18 3
  183.0223 17.81 336
  183.2904 0.19 4
  183.5303 0.20 4
  184.0315 3.29 62
  184.2543 0.15 3
  184.5911 0.26 5
  185.0408 8.38 158
  185.5655 0.10 2
  186.0397 1.33 25
  186.3750 0.17 3
  186.6314 0.16 3
  187.0405 2.23 42
  187.2990 0.11 2
  187.4337 0.10 2
  187.7545 0.19 4
  188.0073 0.42 8
  188.2839 0.12 2
  188.5310 0.10 2
  188.9816 3.14 59
  189.3470 0.22 4
  189.5313 0.10 2
  189.9796 1.54 29
  190.9788 5.13 97
  191.4500 0.09 2
  191.5471 0.05 1
  192.0011 5.31 100
  192.2950 0.10 2
  192.5266 0.18 3
  193.0072 10.91 206
  193.2550 0.25 5
  193.4416 0.09 2
  194.0094 5.41 102
  194.2727 0.17 3
  194.4614 0.16 3
  195.0166 14.25 268
  195.3194 0.16 3
  196.0301 4.38 83
  196.3524 0.17 3
  196.5245 0.14 3
  197.0345 13.90 262
  197.4834 0.16 3
  198.0543 2.62 49
  198.2769 0.25 5
  198.3789 0.14 3
  199.0501 5.45 103
  199.3419 0.19 4
  199.4794 0.09 2
  199.7073 0.10 2
  200.0225 0.69 13
  200.3105 0.08 2
  200.5004 0.08 2
  201.0425 0.80 15
  201.2209 0.19 4
  201.5091 0.16 3
  201.9939 2.80 53
  202.4006 0.13 2
  202.9884 3.84 72
  203.4444 0.05 1
  204.0048 1.34 25
  204.2552 0.12 2
  204.4409 0.09 2
  205.0171 5.10 96
  205.2605 0.16 3
  205.5254 0.20 4
  206.0163 3.90 73
  206.3881 0.11 2
  206.5916 0.16 3
  207.0283 8.81 166
  207.3731 0.04 1
  207.5714 0.11 2
  208.0382 3.76 71
  208.3170 0.14 3
  208.5926 0.09 2
  209.0446 10.10 190
  209.3599 0.13 2
  210.0652 2.00 38
  210.3053 0.14 3
  210.4319 0.04 1
  210.5948 0.10 2
  211.0667 4.57 86
  211.4836 0.13 2
  211.6388 0.08 2
  212.0648 1.10 21
  212.3624 0.05 1
  212.6138 0.14 3
  213.0640 1.65 31
  213.2830 0.12 2
  213.9844 0.42 8
  214.0760 0.21 4
  214.2366 0.21 4
  214.3400 0.07 1
  214.5182 0.07 1
  215.0267 3.69 70
  215.2329 0.26 5
  215.5672 0.11 2
  216.0207 1.47 28
  216.2445 0.21 4
  216.5348 0.10 2
  216.6272 0.08 2
  217.0346 3.56 67
  217.3197 0.14 3
  217.4760 0.04 1
  217.5561 0.02 0
  218.0470 1.99 37
  218.3746 0.05 1
  218.5961 0.11 2
  219.0638 5.71 108
  219.4827 0.04 1
  220.0784 2.69 51
  220.3163 0.12 2
  220.4942 0.17 3
  221.0810 6.69 126
  221.4579 0.08 2
  222.0684 1.70 32
  222.4344 0.06 1
  222.5172 0.05 1
  222.6725 0.06 1
  223.0973 4.45 84
  223.6657 0.16 3
  224.0979 1.03 19
  224.3185 0.07 1
  224.4909 0.03 1
  224.6809 0.15 3
  224.8409 0.12 2
  225.1348 1.60 30
  225.5521 0.09 2
  226.0597 0.80 15
  226.2505 0.14 3
  226.3635 0.06 1
  226.6081 0.08 2
  227.0720 1.17 22
  227.4696 0.10 2
  228.0654 1.13 21
  228.3425 0.20 4
  228.5583 0.07 1
  228.6952 0.06 1
  229.0643 2.89 54
  229.3415 0.01 0
  229.5176 0.06 1
  229.8496 0.17 3
  230.0884 1.41 27
  230.4127 0.05 1
  230.6006 0.12 2
  231.0738 3.75 71
  231.4217 0.10 2
  231.6064 0.04 1
  232.0771 1.89 36
  232.4780 0.07 1
  232.7072 0.17 3
  233.0867 4.03 76
  233.4440 0.10 2
  233.6687 0.41 8
  234.1149 1.64 31
  234.3012 0.16 3
  234.5397 0.11 2
  234.6808 0.18 3
  235.1057 4.05 76
  235.5711 0.09 2
  235.6554 0.05 1
  236.0941 0.68 13
  236.3786 0.02 0
  236.6840 0.22 4
  237.1143 2.48 47
  237.3544 0.10 2
  237.6128 0.07 1
  237.7783 0.09 2
  238.1179 0.43 8
  238.2959 0.12 2
  238.4680 0.06 1
  238.5943 0.04 1
  239.0864 0.99 19
  239.3483 0.08 2
  240.0619 0.68 13
  240.2328 0.20 4
  240.4403 0.05 1
  240.6211 0.08 2
  241.0514 1.23 23
  241.6488 0.45 8
  242.0838 0.73 14
  242.4252 0.12 2
  243.0707 2.48 47
  243.4135 0.07 1
  243.6141 0.08 2
  243.7459 0.03 1
  244.0822 1.04 20
  244.5084 0.11 2
  244.6100 0.07 1
  244.7399 0.13 2
  245.0973 3.04 57
  245.4344 0.05 1
  245.5505 0.06 1
  245.7231 0.03 1
  246.0990 1.21 23
  246.3076 0.12 2
  246.4821 0.10 2
  247.0911 3.82 72
  247.5282 0.18 3
  247.6326 0.03 1
  248.0960 0.76 14
  248.5550 0.21 4
  249.1039 2.52 47
  249.4651 0.17 3
  249.7062 0.06 1
  250.0904 0.43 8
  250.3204 0.16 3
  250.4373 0.05 1
  250.5983 0.16 3
  250.7730 0.13 2
  251.1364 1.49 28
  251.5984 0.06 1
  251.7943 0.16 3
  252.0893 0.91 17
  252.7201 0.10 2
  253.0954 1.05 20
  253.3656 0.04 1
  253.8290 0.14 3
  254.1150 0.48 9
  254.2998 0.17 3
  254.5575 0.07 1
  254.6943 0.06 1
  255.1047 1.03 19
  255.5243 0.14 3
  256.0512 0.77 15
  256.4479 0.12 2
  257.0822 1.76 33
  257.5456 0.07 1
  258.0991 0.89 17
  258.3453 0.04 1
  258.5283 0.07 1
  258.7410 0.07 1
  259.1182 2.47 47
  259.4304 0.06 1
  259.6911 0.05 1
  260.1100 0.83 16
  260.5909 0.10 2
  261.1271 2.41 45
  261.4664 0.07 1
  261.6733 0.13 2
  262.1234 0.64 12
  262.4799 0.05 1
  262.6810 0.02 0
  263.1331 2.22 42
  263.5070 0.13 2
  263.6579 0.04 1
  263.8392 0.18 3
  264.1557 0.42 8
  264.4366 0.06 1
  264.6536 0.08 2
  265.1436 1.10 21
  265.4517 0.02 0
  265.5598 0.03 1
  265.6957 0.02 0
  266.1074 0.33 6
  266.5330 0.11 2
  267.1341 1.15 22
  267.4628 0.05 1
  267.5994 0.03 1
  267.7182 0.06 1
  268.1340 0.44 8
  268.3591 0.09 2
  268.4971 0.06 1
  269.1587 1.62 31
  269.4327 0.10 2
  269.8855 0.16 3
  270.1246 0.56 11
  270.6083 0.07 1
  270.7744 0.06 1
  271.1138 1.27 24
  271.4460 0.11 2
  271.6358 0.15 3
  272.1025 0.62 12
  272.2324 0.27 5
  272.6062 0.04 1
  273.1304 1.64 31
  273.3995 0.06 1
  273.5518 0.04 1
  273.7134 0.03 1
  274.1296 0.42 8
  274.4225 0.02 0
  274.6837 0.12 2
  275.1408 1.51 28
  275.4384 0.09 2
  275.6793 0.01 0
  275.8759 0.04 1
  276.1530 0.41 8
  276.4210 0.07 1
  276.6196 0.06 1
  277.1477 1.04 20
  277.4513 0.10 2
  277.6401 0.02 0
  277.8884 0.14 3
  278.1564 0.47 9
  278.4133 0.01 0
  278.7375 0.10 2
  279.1271 0.63 12
  279.4454 0.01 0
  279.6918 0.01 0
  279.8807 0.14 3
  280.1311 0.32 6
  280.5228 0.08 2
  280.7719 0.01 0
  281.1220 1.02 19
  281.4141 0.02 0
  281.5370 0.01 0
  281.7015 0.01 0
  282.1146 0.77 15
  282.2434 0.23 4
  282.3776 0.03 1
  282.5343 0.03 1
  282.8370 0.12 2
  283.1298 0.75 14
  283.3599 0.04 1
  283.7288 0.07 1
  283.8517 0.04 1
  284.1506 0.49 9
  284.4330 0.08 2
  284.6148 0.05 1
  284.8033 0.13 2
  285.1379 1.28 24
  285.4501 0.05 1
  285.5703 0.02 0
  286.0925 0.33 6
  286.4679 0.04 1
  286.5981 0.09 2
  287.1290 0.97 18
  287.4417 0.08 2
  287.7201 0.04 1
  288.1657 0.39 7
  288.3873 0.04 1
  288.5109 0.02 0
  289.1485 0.83 16
  289.4382 0.05 1
  289.7233 0.05 1
  289.9403 0.07 1
  290.2254 0.27 5
  290.3008 0.15 3
  290.4596 0.09 2
  290.6766 0.08 2
  291.1279 0.91 17
  291.4713 0.01 0
  291.6931 0.05 1
  291.8234 0.04 1
  292.0114 0.16 3
  292.1067 0.11 2
  292.2100 0.09 2
  292.3218 0.05 1
  292.5707 0.07 1
  292.6554 0.02 0
  293.1208 0.35 7
  293.3737 0.02 0
  293.5213 0.05 1
  293.7597 0.03 1
  293.8735 0.08 2
  294.1662 0.16 3
  294.4390 0.04 1
  294.5794 0.06 1
  295.0920 0.51 10
  295.2377 0.25 5
  295.3894 0.08 2
  295.4841 0.04 1
  295.6669 0.01 0
  295.7855 0.02 0
  295.8815 0.03 1
  296.1213 0.28 5
  296.2744 0.09 2
  296.4161 0.05 1
  296.8249 0.07 1
  297.1343 0.69 13
  297.5623 0.02 0
  297.6684 0.06 1
  297.9361 0.11 2
  298.1733 0.34 6
  298.5478 0.05 1
  298.6532 0.03 1
  299.1357 0.75 14
  299.4473 0.10 2
  299.7416 0.07 1
  299.8517 0.03 1
  300.0903 0.25 5
  300.4252 0.03 1
  300.6247 0.08 2
  300.8369 0.13 2
  301.1400 0.50 9
  301.3800 0.02 0
  301.5186 0.04 1
  302.1109 0.16 3
  302.2502 0.14 3
  302.5407 0.02 0
  302.6787 0.01 0
  302.9036 0.22 4
  303.1378 0.69 13
  303.3938 0.01 0
  303.9538 0.06 1
  304.0786 0.19 4
  304.2624 0.14 3
  304.8934 0.06 1
  305.1310 0.35 7
  305.3275 0.12 2
  305.7947 0.05 1
  306.0842 0.26 5
  306.2627 0.08 2
  306.3869 0.03 1
  306.5462 0.03 1
  306.7998 0.04 1
  306.8801 0.03 1
  307.1277 0.38 7
  307.3754 0.02 0
  307.5434 0.04 1
  307.7240 0.03 1
  307.9750 0.15 3
  308.2001 0.12 2
  308.3695 0.05 1
  308.6458 0.03 1
  309.1346 0.35 7
  309.5451 0.05 1
  309.8493 0.02 0
  310.1436 0.21 4
  310.5562 0.02 0
  310.7608 0.05 1
  310.8671 0.04 1
  311.1096 0.37 7
  311.4352 0.08 2
  311.5814 0.03 1
  311.8632 0.11 2
  312.0639 0.23 4
  312.2047 0.24 5
  312.6813 0.02 0
  313.1545 0.57 11
  313.4224 0.05 1
  313.6445 0.06 1
  313.8831 0.05 1
  314.1710 0.30 6
  314.3146 0.04 1
  314.5008 0.08 2
  314.7202 0.03 1
  315.1484 0.84 16
  315.5966 0.03 1
  315.8480 0.09 2
  315.9504 0.05 1
  316.1173 0.41 8
  316.2869 0.13 2
  316.4758 0.05 1
  317.1889 0.58 11
  317.5042 0.02 0
  317.7889 0.03 1
  318.1648 0.28 5
  318.7477 0.09 2
  318.9386 0.06 1
  319.1928 0.44 8
  319.3446 0.17 3
  319.5569 0.03 1
  319.8410 0.03 1
  320.1698 0.23 4
  320.3149 0.09 2
  320.5392 0.01 0
  320.6877 0.06 1
  320.8827 0.02 0
  321.1529 0.42 8
  321.2814 0.20 4
  321.3839 0.11 2
  321.5637 0.02 0
  321.7707 0.03 1
  321.9758 0.03 1
  322.1409 0.15 3
  322.2881 0.13 2
  322.9160 0.05 1
  323.1497 0.22 4
  323.2562 0.11 2
  323.5319 0.05 1
  323.7790 0.09 2
  323.9175 0.03 1
  324.1287 0.18 3
  324.3212 0.07 1
  324.5303 0.05 1
  325.1791 0.24 5
  325.3183 0.12 2
  325.6541 0.06 1
  325.7560 0.07 1
  326.2157 0.17 3
  326.5669 0.04 1
  326.8427 0.05 1
  327.1913 0.42 8
  327.4598 0.03 1
  327.7950 0.03 1
  328.2186 0.21 4
  328.3476 0.09 2
  328.4993 0.03 1
  329.1758 0.69 13
  329.5630 0.04 1
  329.7818 0.04 1
  330.1185 0.11 2
  330.2469 0.11 2
  330.5909 0.01 0
  330.8430 0.02 0
  331.1911 0.70 13
  331.3282 0.40 8
  331.7108 0.08 2
  332.1161 0.28 5
  332.4010 0.13 2
  332.7631 0.03 1
  333.2030 0.39 7
  333.7476 0.03 1
  333.9007 0.03 1
  334.1084 0.11 2
  334.3155 0.14 3
  334.7403 0.06 1
  334.9001 0.14 3
  335.1278 0.29 5
  335.2869 0.21 4
  335.4015 0.12 2
  335.5193 0.08 2
  335.8077 0.06 1
  336.2539 0.13 2
  336.7214 0.04 1
  337.1790 0.23 4
  337.3708 0.05 1
  337.5001 0.11 2
  337.7412 0.07 1
  337.8425 0.03 1
  337.9597 0.05 1
  338.2182 0.24 5
  338.3514 0.03 1
  338.6506 0.11 2
  339.1010 0.15 3
  339.2875 0.18 3
  339.5134 0.03 1
  339.6974 0.05 1
  339.7926 0.03 1
  339.9506 0.04 1
  340.1058 0.27 5
  340.2764 0.10 2
  340.4984 0.03 1
  340.9822 0.05 1
  341.2268 0.34 6
  341.6941 0.04 1
  341.9000 0.01 0
  342.1967 0.21 4
  342.5427 0.01 0
  342.7367 0.05 1
  342.8980 0.04 1
  343.1987 0.36 7
  343.6294 0.02 0
  343.9541 0.06 1
  344.2028 0.14 3
  344.9750 0.04 1
  345.2525 0.32 6
  345.6213 0.09 2
  345.8181 0.07 1
  345.9781 0.09 2
  346.2489 0.50 9
  346.7659 0.03 1
  346.9000 0.02 0
  347.2576 0.34 6
  347.7339 0.01 0
  348.1582 0.15 3
  348.3264 0.09 2
  348.5439 0.01 0
  349.2505 0.25 5
  349.6149 0.02 0
  350.2002 0.11 2
  350.3357 0.08 2
  350.4745 0.04 1
  350.6761 0.03 1
  351.1927 0.39 7
  351.6613 0.04 1
  351.8603 0.04 1
  352.1300 0.11 2
  352.3463 0.03 1
  352.4992 0.02 0
  352.6587 0.02 0
  352.9145 0.10 2
  353.1682 0.18 3
  354.1618 0.15 3
  354.2906 0.19 4
  354.3935 0.04 1
  354.5732 0.06 1
  355.2779 0.22 4
  355.4460 0.10 2
  355.8184 0.04 1
  356.0753 0.09 2
  356.1948 0.05 1
  356.3630 0.08 2
  356.9263 0.07 1
  357.2600 0.34 6
  358.0030 0.09 2
  358.2039 0.13 2
  358.3988 0.07 1
  358.6592 0.03 1
  358.8835 0.05 1
  359.2427 0.40 8
  359.4517 0.07 1
  359.6140 0.09 2
  359.8490 0.03 1
  359.9785 0.11 2
  360.2263 0.09 2
  360.3912 0.07 1
  360.6617 0.01 0
  361.1525 0.24 5
  361.4370 0.03 1
  361.6133 0.07 1
  361.9646 0.05 1
  362.2345 0.35 7
  362.8236 0.04 1
  363.0441 0.08 2
  363.2164 0.13 2
  363.4268 0.09 2
  363.6125 0.02 0
  364.0294 0.05 1
  364.1718 0.11 2
  364.3949 0.12 2
  364.7470 0.03 1
  364.9207 0.03 1
  365.0490 0.04 1
  365.1934 0.22 4
  365.3317 0.11 2
  365.4800 0.02 0
  365.9471 0.05 1
  366.0968 0.10 2
  366.4076 0.08 2
  366.6321 0.03 1
  367.2758 0.20 4
  367.4449 0.14 3
  368.0083 0.11 2
  368.2176 0.16 3
  368.4007 0.05 1
  368.8976 0.04 1
  369.0871 0.12 2
  369.2940 0.22 4
  369.4395 0.10 2
  369.6183 0.02 0
  369.9000 0.02 0
  370.0668 0.10 2
  370.3057 0.12 2
  370.4599 0.05 1
  370.5954 0.02 0
  371.0279 0.13 2
  371.1440 0.27 5
  371.2855 0.07 1
  371.4364 0.01 0
  371.7094 0.03 1
  371.9537 0.05 1
  372.3356 0.11 2
  372.4684 0.02 0
  372.7628 0.03 1
  372.9398 0.11 2
  373.0619 0.20 4
  373.1674 0.17 3
  373.3263 0.18 3
  373.4204 0.06 1
  373.5199 0.03 1
  373.8578 0.10 2
  374.0361 0.06 1
  374.2137 0.03 1
  374.3987 0.17 3
  374.5749 0.02 0
  374.9202 0.04 1
  375.2481 0.30 6
  375.3963 0.18 3
  375.8999 0.01 0
  376.2666 0.14 3
  376.8557 0.02 0
  377.2959 0.04 1
  377.7287 0.02 0
  377.9331 0.07 1
  378.3006 0.03 1
  378.4977 0.10 2
  378.7662 0.01 0
  379.1103 0.04 1
  379.2794 0.04 1
  379.3943 0.01 0
  379.5132 0.05 1
  379.6321 0.02 0
  380.2228 0.18 3
  380.3191 0.06 1
  380.6017 0.03 1
  381.2279 0.15 3
  381.4979 0.09 2
  382.1623 0.10 2
  382.2826 0.10 2
  382.4610 0.02 0
  382.6261 0.04 1
  383.2291 0.65 12
  383.3761 0.48 9
  383.6094 0.16 3
  383.7699 0.04 1
  384.2358 0.20 4
  384.4671 0.11 2
  384.5661 0.01 0
  385.2126 0.30 6
  385.4921 0.04 1
  385.7442 0.07 1
  385.9428 0.05 1
  386.1086 0.15 3
  386.3982 0.19 4
  386.7914 0.04 1
  386.9211 0.09 2
  387.1558 0.22 4
  387.3250 0.24 5
  387.4942 0.04 1
  387.6340 0.03 1
  388.2627 0.24 5
  388.4634 0.17 3
  388.7450 0.02 0
  389.1604 0.13 2
  389.3497 0.09 2
  389.6199 0.03 1
  390.0956 0.06 1
  390.2321 0.13 2
  390.4368 0.05 1
  390.6435 0.04 1
  390.7920 0.07 1
  391.3105 0.28 5
  391.4276 0.10 2
  391.5815 0.03 1
  391.7669 0.02 0
  392.1811 0.03 1
  392.4206 0.11 2
  392.7766 0.04 1
  393.0236 0.03 1
  393.2591 0.07 1
  393.4412 0.04 1
  394.0515 0.06 1
  394.3179 0.45 8
  394.8333 0.02 0
  394.9364 0.04 1
  395.2389 0.24 5
  395.5569 0.03 1
  395.7610 0.06 1
  395.9585 0.05 1
  396.2229 0.32 6
  396.3763 0.09 2
  396.6119 0.06 1
  396.7686 0.04 1
  396.8824 0.02 0
  397.2620 0.46 9
  397.5030 0.10 2
  397.7199 0.05 1
  397.9489 0.11 2
  398.2851 0.80 15
  398.5121 0.08 2
  398.7585 0.10 2
  398.8482 0.04 1
  399.2862 0.74 14
  399.5165 0.22 4
  400.0823 0.15 3
  400.3142 0.31 6
  400.4606 0.18 3
  400.8336 0.02 0
  401.3201 0.15 3
  401.4866 0.04 1
  401.7921 0.03 1
  402.2138 0.23 4
  402.4525 0.11 2
  402.9866 0.08 2
  403.2835 0.29 5
  403.4967 0.03 1
  403.6706 0.05 1
  403.9106 0.04 1
  404.0924 0.10 2
  404.3017 0.52 10
  404.4428 0.16 3
  404.5652 0.03 1
  404.6848 0.04 1
  404.8092 0.01 0
  404.9710 0.05 1
  405.1282 0.03 1
  405.3401 0.16 3
  405.4745 0.04 1
  405.6223 0.07 1
  405.7173 0.09 2
  405.9908 0.04 1
  406.0891 0.04 1
  406.1921 0.05 1
  406.5231 0.03 1
  406.6442 0.04 1
  407.2882 0.26 5
  407.4829 0.17 3
  407.6006 0.04 1
  407.8200 0.02 0
  408.1223 0.07 1
  408.2648 0.06 1
  408.3845 0.05 1
  408.5323 0.04 1
  408.9444 0.06 1
  409.0742 0.02 0
  409.3893 0.21 4
  409.6046 0.09 2
  409.9157 0.03 1
  410.0047 0.02 0
  410.1967 0.21 4
  410.3379 0.24 5
  410.5640 0.02 0
  410.7721 0.05 1
  410.8437 0.03 1
  411.3047 0.55 10
  411.3910 0.29 5
  411.7637 0.04 1
  412.2762 0.61 11
  412.4696 0.26 5
  412.5834 0.08 2
  412.6918 0.04 1
  412.8999 0.03 1
  413.2720 0.55 10
  413.4126 0.32 6
  413.6160 0.05 1
  413.7519 0.03 1
  414.2116 0.31 6
  414.4044 0.18 3
  414.6494 0.08 2
  414.7431 0.03 1
  414.8823 0.05 1
  415.2344 0.45 8
  415.4419 0.13 2
  415.6567 0.10 2
  415.7893 0.08 2
  416.3369 0.44 8
  416.7857 0.09 2
  416.8913 0.06 1
  416.9729 0.03 1
  417.1026 0.09 2
  417.2511 0.13 2
  417.4490 0.08 2
  417.7104 0.02 0
  417.9024 0.03 1
  418.2314 0.17 3
  418.4200 0.12 2
  419.1296 0.02 0
  419.2633 0.07 1
  419.4279 0.04 1
  419.5335 0.04 1
  419.6225 0.04 1
  420.0325 0.10 2
  420.3328 0.10 2
  420.4652 0.14 3
  420.6144 0.03 1
  420.7288 0.06 1
  420.9729 0.05 1
  421.1797 0.05 1
  421.3797 0.01 0
  421.8071 0.02 0
  421.9510 0.08 2
  422.0774 0.05 1
  422.3784 0.18 3
  422.6541 0.07 1
  422.9779 0.05 1
  423.0930 0.14 3
  423.2207 0.13 2
  423.4268 0.12 2
  423.5753 0.06 1
  423.7078 0.01 0
  423.8276 0.01 0
  424.1461 0.16 3
  424.3067 0.10 2
  424.8688 0.03 1
  425.3225 0.45 8
  425.6885 0.03 1
  425.8813 0.06 1
  426.3176 0.36 7
  426.5518 0.09 2
  426.8289 0.04 1
  427.2921 0.33 6
  427.5759 0.07 1
  427.9467 0.08 2
  428.2720 0.45 8
  428.5826 0.05 1
  428.7171 0.06 1
  428.8035 0.02 0
  429.2767 0.26 5
  429.5251 0.08 2
  429.7099 0.02 0
  430.2321 0.15 3
  430.4543 0.11 2
  430.7114 0.05 1
  430.8627 0.03 1
  431.2711 0.14 3
  431.5872 0.07 1
  431.7599 0.10 2
  431.9247 0.04 1
  432.2929 0.11 2
  432.4824 0.01 0
  433.1239 0.04 1
  433.3824 0.12 2
  433.8351 0.03 1
  433.9416 0.02 0
  434.1620 0.08 2
  434.6328 0.03 1
  434.9650 0.02 0
  435.3206 0.06 1
  435.5122 0.04 1
  435.6837 0.08 2
  436.0527 0.13 2
  436.2791 0.09 2
  436.4600 0.12 2
  436.5611 0.02 0
  436.7822 0.08 2
  437.0260 0.03 1
  437.2451 0.12 2
  437.4976 0.08 2
  437.7991 0.15 3
  437.9867 0.10 2
  438.2212 0.27 5
  438.3310 0.17 3
  438.5588 0.10 2
  438.7451 0.13 2
  439.1370 0.27 5
  439.4197 0.04 1
  439.6248 0.07 1
  440.1172 0.33 6
  440.4007 0.21 4
  440.6144 0.10 2
  440.8108 0.06 1
  440.9616 0.19 4
  441.2672 0.75 14
  441.4662 0.33 6
  441.6431 0.19 4
  441.7724 0.06 1
  442.2925 0.25 5
  442.4754 0.10 2
  442.6416 0.06 1
  442.7978 0.09 2
  443.0210 0.08 2
  443.1275 0.06 1
  443.3065 0.09 2
  443.5331 0.09 2
  444.2891 0.22 4
  444.4017 0.04 1
  444.5244 0.04 1
  444.7355 0.04 1
  444.9333 0.05 1
  445.1880 0.10 2
  445.3710 0.13 2
  446.0025 0.19 4
  446.3611 0.64 12
  446.6447 0.04 1
  446.8056 0.04 1
  447.0276 0.15 3
  447.1643 0.09 2
  447.3943 0.07 1
  447.5418 0.13 2
  448.0420 0.10 2
  448.2807 0.17 3
  448.4128 0.05 1
  448.5415 0.06 1
  448.7990 0.10 2
  448.9908 0.07 1
  449.2999 0.12 2
  449.4300 0.03 1
  449.6419 0.05 1
  449.8142 0.03 1
  450.0362 0.03 1
  450.2173 0.08 2
  450.4386 0.11 2
  450.5318 0.05 1
  450.6357 0.01 0
  450.7913 0.02 0
  450.9326 0.08 2
  451.0711 0.04 1
  451.3825 0.27 5
  451.8184 0.05 1
  451.9503 0.03 1
  452.0688 0.15 3
  452.2395 0.28 5
  452.3667 0.21 4
  452.5696 0.05 1
  452.7209 0.07 1
  452.9292 0.04 1
  453.0678 0.28 5
  453.3832 0.54 10
  453.5754 0.16 3
  453.9913 0.14 3
  454.2324 0.23 4
  454.4292 0.18 3
  454.5906 0.03 1
  454.7681 0.04 1
  454.9215 0.13 2
  455.3073 0.22 4
  455.4613 0.11 2
  455.6120 0.10 2
  455.7178 0.03 1
  456.0420 0.09 2
  456.3253 0.15 3
  456.5698 0.04 1
  456.7359 0.03 1
  456.9322 0.03 1
  457.1264 0.03 1
  457.3180 0.18 3
  457.4761 0.03 1
  457.5812 0.09 2
  457.7514 0.07 1
  457.8940 0.07 1
  458.4065 0.74 14
  458.5412 0.34 6
  458.7354 0.06 1
  458.8446 0.07 1
  459.3578 0.25 5
  459.5347 0.19 4
  459.6533 0.10 2
  460.3695 11.87 224
  461.0000 0.25 5
  461.2466 0.19 4
  461.5092 0.13 2
  461.6720 0.06 1
  461.8288 0.05 1
  462.0687 0.10 2
  462.2986 0.06 1
  462.6544 0.07 1
  462.9560 0.08 2
  463.2099 0.12 2
  463.5638 0.12 2
  463.7789 0.12 2
  464.0879 0.12 2
  464.2835 0.08 2
  464.4491 0.07 1
  464.6032 0.11 2
  464.9451 0.13 2
  465.1736 0.21 4
  465.3613 0.32 6
  465.5208 0.12 2
  466.4377 0.37 7
  466.7072 0.19 4
  466.8748 0.11 2
  467.3648 3.76 71
  467.7885 0.28 5
  468.3818 0.79 15
  468.5366 0.38 7
  468.9496 0.17 3
  469.3277 0.46 9
  469.5168 0.28 5
  469.6040 0.14 3
  469.7521 0.18 3
  470.1725 0.22 4
  470.4421 0.35 7
  470.7324 0.15 3
  470.8987 0.07 1
  471.0341 0.12 2
  471.1387 0.11 2
  471.3727 0.21 4
  471.5518 0.06 1
  471.7268 0.09 2
  471.9146 0.08 2
  472.0198 0.04 1
  472.2914 0.23 4
  472.5764 0.09 2
  472.9707 0.02 0
  473.3778 0.93 18
  473.7594 0.06 1
  474.0103 0.06 1
  474.3194 0.08 2
  474.4140 0.05 1
  474.4878 0.02 0
  474.9506 0.03 1
  475.3550 0.04 1
  476.0002 0.04 1
  476.1814 0.02 0
  476.4168 0.05 1
  476.6945 0.04 1
  476.8984 0.06 1
  477.1896 0.04 1
  477.2754 0.03 1
  477.4659 0.14 3
  477.9454 0.02 0
  478.0539 0.05 1
  478.1865 0.07 1
  478.3398 0.07 1
  478.4684 0.05 1
  478.6901 0.13 2
  478.8796 0.04 1
  479.0028 0.01 0
  479.1267 0.09 2
  479.4683 0.23 4
  479.8587 0.04 1
  480.3148 0.38 7
  480.5003 0.37 7
  480.8352 0.20 4
  481.3911 1.82 34
  481.9551 0.21 4
  482.3664 1.22 23
  482.7107 0.25 5
  483.3893 8.73 164
  484.0324 0.19 4
  484.1731 0.17 3
  484.3492 0.28 5
  484.5053 0.10 2
  484.7137 0.05 1
  484.9790 0.19 4
  485.2704 0.13 2
  485.4701 0.02 0
  485.6248 0.09 2
  485.9431 0.04 1
  486.1521 0.06 1
  486.2634 0.04 1
  486.3947 0.04 1
  486.5012 0.04 1
  486.6513 0.03 1
  486.8242 0.03 1
  487.0486 0.04 1
  487.2228 0.05 1
  487.2892 0.02 0
  487.3917 0.02 0
  487.6946 0.03 1
  487.7830 0.02 0
  488.0638 0.10 2
  488.2702 0.09 2
  488.4692 0.05 1
  488.6441 0.04 1
  488.8605 0.02 0
  489.0221 0.05 1
  489.3491 0.05 1
  489.5528 0.12 2
  489.9804 0.05 1
  490.4368 0.09 2
  490.6512 0.08 2
  490.9776 0.02 0
  491.3657 0.05 1
  491.6023 0.04 1
  492.0587 0.07 1
  492.1686 0.01 0
  492.4743 0.10 2
  492.7733 0.05 1
  493.4040 0.17 3
  493.7224 0.07 1
  493.9342 0.07 1
  494.1863 0.11 2
  494.3264 0.26 5
  494.5771 0.16 3
  494.8064 0.08 2
  495.0296 0.07 1
  495.1128 0.05 1
  495.2864 0.15 3
  495.4305 0.17 3
  495.6102 0.04 1
  495.7785 0.06 1
  495.9012 0.03 1
  496.0366 0.06 1
  496.2015 0.16 3
  496.4060 0.30 6
  496.7077 0.03 1
  496.8566 0.06 1
  497.3782 0.89 17
  497.5458 0.25 5
  497.8791 0.05 1
  498.3364 0.18 3
  498.7514 0.01 0
  498.9439 0.04 1
  499.0860 0.05 1
  499.2483 0.03 1
  499.4012 0.07 1
  499.7211 0.01 0
  500.1509 0.04 1
  500.3883 0.02 0
  500.5345 0.06 1
  500.7652 0.11 2
  501.3339 0.06 1
  501.5049 0.05 1
  502.1776 0.03 1
  502.5277 0.08 2
  502.9268 0.01 0
  503.0596 0.03 1
  503.1522 0.06 1
  503.4661 0.03 1
  503.7095 0.04 1
  503.9299 0.01 0
  504.2967 0.03 1
  504.5022 0.03 1
  504.7010 0.03 1
  504.8831 0.03 1
  505.2172 0.16 3
  505.3699 0.03 1
  505.5794 0.03 1
  505.7394 0.01 0
  505.9075 0.01 0
  506.4230 0.08 2
  506.5576 0.06 1
  506.6875 0.01 0
  506.9962 0.02 0
  507.1441 0.13 2
  507.4461 0.09 2
  507.5626 0.05 1
  507.7615 0.05 1
  507.9644 0.05 1
  508.1431 0.14 3
  508.3875 0.39 7
  508.7451 0.20 4
  509.0417 0.25 5
  509.3243 0.44 8
  509.5795 0.27 5
  510.3871 9.91 187
  510.9698 0.15 3
  511.1968 0.15 3
  511.3629 0.14 3
  511.5203 0.25 5
  511.7641 0.15 3
  512.0996 0.13 2
  512.3105 0.06 1
  512.5389 0.07 1
  512.7573 0.02 0
  512.8618 0.05 1
  513.0118 0.02 0
  513.5624 0.02 0
  513.7708 0.07 1
  513.9663 0.02 0
  514.2469 0.05 1
  514.9282 0.04 1
  515.1439 0.11 2
  515.5505 0.03 1
  515.9585 0.03 1
  516.0965 0.03 1
  516.3946 0.08 2
  516.6545 0.01 0
  516.9359 0.03 1
  517.3748 0.01 0
  517.8906 0.01 0
  518.1418 0.04 1
  518.4976 0.05 1
  518.6866 0.04 1
  519.0296 0.02 0
  519.1475 0.04 1
  519.3372 0.10 2
  519.6186 0.19 4
  519.8376 0.04 1
  520.0306 0.04 1
  520.2196 0.05 1
  520.3865 0.07 1
  520.6122 0.09 2
  520.9534 0.03 1
  521.1302 0.08 2
  521.3253 0.12 2
  521.4332 0.08 2
  521.5973 0.09 2
  521.7601 0.04 1
  521.9210 0.16 3
  522.3606 1.28 24
  522.5938 0.73 14
  522.9135 0.06 1
  523.1299 0.10 2
  523.4898 0.18 3
  523.7526 0.07 1
  523.9656 0.09 2
  524.3062 0.15 3
  524.4382 0.07 1
  524.7438 0.12 2
  524.8456 0.02 0
  525.0059 0.10 2
  525.3128 0.10 2
  525.3825 0.05 1
  525.8397 0.03 1
  526.0696 0.09 2
  526.2639 0.09 2
  526.4818 0.14 3
  526.6118 0.04 1
  526.7995 0.12 2
  526.9343 0.16 3
  527.0375 0.06 1
  527.1776 0.10 2
  527.2908 0.11 2
  527.5107 0.17 3
  527.7366 0.04 1
  528.0677 0.05 1
  528.2602 0.07 1
  528.3895 0.06 1
  528.5933 0.06 1
  528.7160 0.05 1
  528.9044 0.14 3
  529.0874 0.14 3
  529.3341 0.10 2
  529.4554 0.12 2
  529.6827 0.09 2
  529.8021 0.03 1
  529.9804 0.11 2
  530.0703 0.05 1
  530.3974 0.05 1
  530.7930 0.14 3
  531.1101 0.11 2
  531.4111 0.22 4
  531.5740 0.18 3
  531.8449 0.16 3
  532.1326 0.25 5
  532.5718 0.21 4
  532.9399 0.31 6
  533.2899 0.52 10
  533.5346 0.33 6
  533.8411 0.36 7
  534.4500 2.67 50
  534.8268 0.41 8
  535.4002 1.03 19
  535.6510 0.57 11
  535.8301 0.47 9
  536.4135 1.63 31
  536.6992 0.86 16
  537.4551 7.10 134
  537.9440 0.47 9
  538.4913 0.47 9
  538.9467 0.35 7
  539.4753 0.54 10
  539.7811 0.30 6
  540.2480 0.36 7
  541.7875 0.57 11
  542.3919 0.43 8
  542.7535 0.49 9
  543.0017 0.53 10
  543.6592 0.60 11
  544.1442 0.56 11
  544.5676 0.71 13
  545.0977 0.69 13
  552.4398 99.97 999
  553.4260 27.26 514
  554.0293 13.64 257
  554.9894 5.90 111
  555.9315 3.04 57
//
