ACCESSION: MSBNK-Kyoto_Univ-CA000026
RECORD_TITLE: Semi-beta-carotenone; FAB-EBEB; MS2; m/z: 568.43; [M]+*
DATE: 2016.01.19 (Created 2010.04.01, modified 2011.05.10)
AUTHORS: Akimoto N, Graduate School of Pharmaceutical Sciences, Kyoto University and Maoka T, Research Institute for Production Development
LICENSE: CC BY-SA
PUBLICATION: Takashi Maoka, Yasuhiro Fujiwara, Keiji Hashimoto, and Naoshige Akimoto, Carotenoids in Three Species of Corbicula Clams, Corbicula japonica, Corbicula sandai, and Corbicula sp. (Chinese Freshwater Corbicula Clam), J. Agric. Food Chem., 53, 8357-8364 (2005).
COMMENT: Profile spectrum of this record is given as a JPEG file.
COMMENT: [Profile] CA000026.jpg
CH$NAME: Semi-beta-carotenone
CH$COMPOUND_CLASS: N/A
CH$FORMULA: C40H56O2
CH$EXACT_MASS: 568.42803
CH$SMILES: C(=CC(=C(C)1)C(C)(C)CCC1)C(C)=CC=CC(=CC=CC=C(C)C=CC=C(C)C=CC(C(C)(C)CCCC(C)=O)=O)C
CH$IUPAC: InChI=1S/C40H56O2/c1-31(19-13-21-33(3)25-27-37-35(5)23-15-29-39(37,7)8)17-11-12-18-32(2)20-14-22-34(4)26-28-38(42)40(9,10)30-16-24-36(6)41/h11-14,17-22,25-28H,15-16,23-24,29-30H2,1-10H3/b12-11+,19-13+,20-14+,27-25+,28-26+,31-17+,32-18+,33-21+,34-22+
CH$LINK: INCHIKEY PDBIWYOLPQXSTF-JLTXGRSLSA-N
AC$INSTRUMENT: JMS-HX/HX 110A, JEOL
AC$INSTRUMENT_TYPE: FAB-EBEB
AC$MASS_SPECTROMETRY: MS_TYPE MS2
AC$MASS_SPECTROMETRY: ION_MODE POSITIVE
AC$MASS_SPECTROMETRY: ATOM_GUN_CURRENT 5 mA
AC$MASS_SPECTROMETRY: BOMBARDMENT 6 kV xenon
AC$MASS_SPECTROMETRY: COLLISION_ENERGY 3 kV
AC$MASS_SPECTROMETRY: COLLISION_GAS Ar
AC$MASS_SPECTROMETRY: GAS_PRESSURE adjust to attenuate the intensity of the precursor ion by 30 %
AC$MASS_SPECTROMETRY: IONIZATION FAB
AC$MASS_SPECTROMETRY: MATRIX 1-2 uL m-NBA
AC$MASS_SPECTROMETRY: PROBE_TIP stainless-steel
MS$FOCUSED_ION: BASE_PEAK 68.9776
MS$FOCUSED_ION: PRECURSOR_M/Z 568.43
MS$FOCUSED_ION: PRECURSOR_TYPE [M]+*
MS$DATA_PROCESSING: RELATIVE_M/Z normalised by peak(m/z=68.9776).  set 999 for peak(m/z=568.3558,rel=1635).
PK$SPLASH: splash10-014i-4920020000-f5326e64ea185a6b8e87
PK$NUM_PEAK: 1684
PK$PEAK: m/z int. rel.int.
  2.7613 0.03 0
  4.2473 0.01 0
  12.9709 0.04 1
  13.9754 0.16 3
  14.9825 0.44 7
  15.4132 0.01 0
  16.4200 0.01 0
  17.9955 0.07 1
  22.9385 0.13 2
  23.9487 0.01 0
  24.9395 0.07 1
  25.9621 0.44 7
  26.9651 2.90 47
  27.9804 0.48 8
  28.9762 2.73 45
  29.9153 0.01 0
  30.9605 0.02 0
  34.7021 0.01 0
  34.9756 0.06 1
  35.9431 0.02 0
  36.0840 0.02 0
  36.4455 0.01 0
  36.9422 0.23 4
  37.1109 0.01 0
  37.3854 0.06 1
  37.9503 1.00 16
  38.1522 0.02 0
  38.3615 0.02 0
  38.6468 0.09 1
  38.9582 6.82 112
  39.3425 0.02 0
  39.9674 0.87 14
  40.5479 0.02 0
  40.9707 18.86 309
  41.9577 0.73 12
  42.9502 35.05 573
  43.1875 0.02 0
  43.4496 0.03 0
  43.9423 0.07 1
  44.9501 0.36 6
  47.7072 0.01 0
  48.9497 0.13 2
  49.1905 0.07 1
  49.9475 2.34 38
  50.1568 0.03 0
  50.9486 3.77 62
  51.9570 1.44 24
  52.4742 0.01 0
  52.6146 0.03 0
  52.9637 7.58 124
  53.7674 0.02 0
  53.9679 0.38 6
  54.6199 0.05 1
  54.9726 19.26 315
  55.9772 0.68 11
  56.5921 0.06 1
  56.9840 2.16 35
  57.9584 0.38 6
  58.4383 0.10 2
  58.9722 0.81 13
  59.9573 0.01 0
  60.9434 0.33 5
  61.2116 0.04 1
  61.5821 0.10 2
  61.9522 1.28 21
  62.3167 0.04 1
  62.4937 0.02 0
  62.6143 0.02 0
  62.9493 4.06 66
  63.2272 0.05 1
  63.4215 0.01 0
  63.6904 0.02 0
  63.9579 0.55 9
  64.9578 5.34 87
  65.2261 0.06 1
  65.3822 0.10 2
  65.9577 1.29 21
  66.3473 0.07 1
  66.5749 0.06 1
  66.9733 8.49 139
  67.2093 0.13 2
  67.6606 0.02 0
  67.9787 0.39 6
  68.1902 0.08 1
  68.6063 0.05 1
  68.9776 61.06 999
  69.3864 0.02 0
  69.5734 0.04 1
  69.9648 0.53 9
  70.5461 0.01 0
  70.9588 9.79 160
  71.2915 0.01 0
  71.8829 0.14 2
  71.9626 0.10 2
  72.8404 0.02 0
  72.9795 0.07 1
  73.6464 0.02 0
  73.9209 0.72 12
  74.9420 1.53 25
  75.1047 0.15 2
  75.3434 0.07 1
  75.5394 0.09 1
  75.7088 0.03 0
  75.9613 1.25 20
  76.1739 0.05 1
  76.4809 0.12 2
  76.9482 17.09 280
  77.1737 0.07 1
  77.2740 0.17 3
  77.3346 0.07 1
  77.4454 0.14 2
  77.6788 0.21 3
  77.9592 3.65 60
  78.2590 0.18 3
  78.4503 0.13 2
  78.9614 14.94 244
  79.2310 0.11 2
  79.3959 0.03 0
  79.9648 1.58 26
  80.1635 0.07 1
  80.4235 0.08 1
  80.5594 0.04 1
  80.9681 16.49 270
  81.2682 0.06 1
  81.9489 0.37 6
  82.3391 0.02 0
  82.4911 0.15 2
  82.9784 4.98 81
  83.8814 0.07 1
  84.0358 0.12 2
  84.3913 0.10 2
  84.9651 2.05 34
  85.6948 0.03 0
  85.9485 0.47 8
  86.3774 0.01 0
  86.9391 0.56 9
  87.3500 0.18 3
  87.7295 0.04 1
  87.9856 0.25 4
  88.3092 0.07 1
  88.4468 0.05 1
  88.9403 2.31 38
  89.2520 0.30 5
  89.3935 0.15 2
  89.5278 0.04 1
  89.9412 0.88 14
  90.1396 0.19 3
  90.9541 30.76 503
  91.2903 0.18 3
  91.4470 0.15 2
  91.9658 3.26 53
  92.2463 0.09 1
  92.4998 0.11 2
  92.9694 17.60 288
  93.4067 0.03 0
  93.5459 0.09 1
  93.9812 0.96 16
  94.2373 0.06 1
  94.4491 0.15 2
  94.5757 0.12 2
  94.9802 15.40 252
  95.5040 0.03 0
  95.8701 0.37 6
  96.0393 0.28 5
  96.1321 0.06 1
  96.4744 0.12 2
  96.9814 1.30 21
  97.2863 0.03 0
  97.9615 0.53 9
  98.8551 0.16 3
  98.9927 0.27 4
  99.9842 0.16 3
  100.5343 0.10 2
  100.6464 0.05 1
  100.9584 0.65 11
  101.1879 0.14 2
  101.3219 0.07 1
  101.5663 0.12 2
  101.6713 0.03 0
  101.9691 2.20 36
  102.1564 0.21 3
  102.3178 0.05 1
  102.4514 0.15 2
  102.9687 6.19 101
  103.2270 0.07 1
  103.3633 0.13 2
  103.9745 3.38 55
  104.1910 0.17 3
  104.3468 0.12 2
  104.5151 0.11 2
  104.9691 38.41 628
  105.4994 0.12 2
  105.9848 3.36 55
  106.1653 0.11 2
  106.2519 0.06 1
  106.4612 0.12 2
  106.5621 0.05 1
  106.9794 15.55 254
  107.2656 0.09 1
  107.9903 1.92 31
  108.4035 0.13 2
  108.5619 0.03 0
  108.9942 39.51 646
  109.5380 0.02 0
  109.9836 0.47 8
  110.2180 0.11 2
  110.3600 0.06 1
  110.9852 0.96 16
  111.3234 0.04 1
  111.8103 0.10 2
  112.0198 0.10 2
  112.1314 0.10 2
  112.3303 0.09 1
  112.4740 0.24 4
  112.9405 1.13 18
  113.3036 0.23 4
  113.5487 0.16 3
  113.9657 0.66 11
  114.1179 0.23 4
  114.2211 0.16 3
  114.9509 16.71 273
  115.2603 0.28 5
  115.4192 0.11 2
  115.4999 0.04 1
  115.9465 6.13 100
  116.2267 0.37 6
  116.3725 0.14 2
  116.5417 0.22 4
  116.9530 15.16 248
  117.2431 0.06 1
  117.3468 0.13 2
  117.4973 0.09 1
  117.9446 3.31 54
  118.2497 0.18 3
  118.3985 0.15 2
  118.9534 35.11 574
  119.3997 0.25 4
  119.9554 2.69 44
  120.2601 0.25 4
  120.3852 0.16 3
  120.4907 0.09 1
  120.9525 15.08 247
  121.2926 0.11 2
  121.6386 0.07 1
  121.9695 1.52 25
  122.2407 0.06 1
  122.3674 0.05 1
  122.4680 0.04 1
  122.6005 0.02 0
  122.9636 6.31 103
  123.2760 0.09 1
  123.5004 0.05 1
  123.9361 0.29 5
  124.2157 0.05 1
  124.3389 0.05 1
  124.5566 0.05 1
  124.9239 0.87 14
  125.2179 0.07 1
  125.4723 0.23 4
  125.6360 0.11 2
  125.9424 1.23 20
  126.2714 0.10 2
  126.4775 0.15 2
  126.9392 9.62 157
  127.4358 0.29 5
  127.9289 19.91 326
  128.3928 0.24 4
  128.9308 21.02 344
  129.2943 0.19 3
  129.4293 0.13 2
  129.9306 7.72 126
  130.2586 0.07 1
  130.4503 0.07 1
  130.9408 20.85 341
  131.3181 0.10 2
  131.4914 0.18 3
  131.9353 3.56 58
  132.1880 0.21 3
  132.3415 0.17 3
  132.5266 0.14 2
  132.9420 15.19 249
  133.3196 0.19 3
  133.4197 0.16 3
  133.9357 1.11 18
  134.1883 0.04 1
  134.3816 0.06 1
  134.5180 0.05 1
  134.9357 3.92 64
  135.2886 0.14 2
  135.4079 0.10 2
  135.6561 0.23 4
  135.9161 0.95 16
  136.3837 0.05 1
  136.9671 1.78 29
  137.3223 0.13 2
  137.4073 0.07 1
  137.6678 0.13 2
  137.9524 0.50 8
  138.1006 0.17 3
  138.2475 0.05 1
  138.5037 0.14 2
  138.9297 2.51 41
  139.3064 0.06 1
  139.4958 0.10 2
  139.9516 0.92 15
  140.0603 0.51 8
  140.2551 0.17 3
  140.9192 14.66 240
  141.2752 0.16 3
  141.3874 0.17 3
  141.4885 0.14 2
  141.9322 12.17 199
  142.2964 0.21 3
  142.4668 0.33 5
  142.9403 24.37 399
  143.3049 0.24 4
  143.9442 7.83 128
  144.2909 0.20 3
  144.4413 0.21 3
  144.9505 26.93 441
  145.4396 0.34 6
  145.5830 0.22 4
  145.9551 2.73 45
  146.3411 0.11 2
  146.4519 0.09 1
  146.9640 8.97 147
  147.3255 0.16 3
  147.4390 0.14 2
  147.5315 0.07 1
  147.9155 0.58 9
  148.2943 0.07 1
  148.4158 0.03 0
  148.9887 1.57 26
  149.3357 0.17 3
  149.5007 0.05 1
  149.6191 0.06 1
  149.9814 0.72 12
  150.3360 0.14 2
  150.4992 0.13 2
  150.9652 2.15 35
  151.2233 0.19 3
  151.5210 0.19 3
  151.9459 6.26 102
  152.2003 0.31 5
  152.9505 8.89 145
  153.2757 0.19 3
  153.4994 0.24 4
  153.9739 3.55 58
  154.3853 0.30 5
  154.9691 14.72 241
  155.3987 0.38 6
  155.9824 9.04 148
  156.2463 0.20 3
  156.4156 0.13 2
  156.5215 0.12 2
  156.9800 17.98 294
  157.4421 0.18 3
  157.9725 4.24 69
  158.3184 0.19 3
  158.4363 0.06 1
  158.5450 0.21 3
  158.9778 25.19 412
  159.4333 0.15 2
  160.0018 1.84 30
  160.1909 0.34 6
  160.2898 0.15 2
  160.4604 0.23 4
  160.5686 0.18 3
  161.0187 5.40 88
  161.5022 0.21 3
  161.6251 0.12 2
  161.6989 0.07 1
  162.0597 0.84 14
  162.2252 0.12 2
  162.3242 0.06 1
  162.5855 0.03 0
  163.0363 1.81 30
  163.4428 0.12 2
  163.6071 0.34 6
  164.0051 0.99 16
  165.0059 12.40 203
  165.9928 5.21 85
  166.4335 0.24 4
  167.0185 9.32 152
  167.3307 0.25 4
  167.5997 0.10 2
  168.0249 4.17 68
  168.3642 0.33 5
  169.0170 13.47 220
  169.3892 0.08 1
  169.5797 0.09 1
  170.0319 4.56 75
  170.3637 0.16 3
  171.0289 11.72 192
  171.6037 0.29 5
  172.0339 2.60 43
  172.3762 0.25 4
  172.5250 0.14 2
  173.0289 6.29 103
  173.3935 0.10 2
  173.5230 0.13 2
  174.0427 0.85 14
  174.4489 0.08 1
  175.0518 4.21 69
  175.3560 0.25 4
  175.4991 0.19 3
  176.0255 1.02 17
  176.2202 0.19 3
  176.3513 0.12 2
  177.0313 2.87 47
  177.3982 0.18 3
  178.0103 6.49 106
  178.4699 0.26 4
  179.0034 9.66 158
  179.3848 0.17 3
  179.5049 0.12 2
  179.9911 4.30 70
  180.4090 0.03 0
  181.0089 11.00 180
  181.3358 0.32 5
  181.4311 0.09 1
  182.0274 4.55 74
  182.3625 0.13 2
  182.5190 0.14 2
  183.0116 10.70 175
  183.3718 0.31 5
  183.5613 0.17 3
  184.0132 2.70 44
  184.3756 0.15 2
  184.5323 0.13 2
  185.0275 6.50 106
  185.4292 0.24 4
  185.5658 0.06 1
  186.0337 1.62 27
  187.0250 4.52 74
  187.5216 0.16 3
  187.7325 0.12 2
  188.0621 1.09 18
  188.5145 0.15 2
  189.0297 3.83 63
  189.4027 0.08 1
  189.6759 0.44 7
  190.0261 1.96 32
  190.4608 0.16 3
  191.0009 5.85 96
  191.4087 0.18 3
  191.5614 0.14 2
  192.0065 4.93 81
  192.4451 0.21 3
  192.9993 7.52 123
  193.3853 0.18 3
  194.0075 4.35 71
  194.4160 0.34 6
  195.0108 11.61 190
  195.3932 0.15 2
  195.5360 0.09 1
  196.0214 2.81 46
  196.3681 0.23 4
  197.0299 9.13 149
  197.4371 0.10 2
  198.0132 2.09 34
  198.3596 0.02 0
  199.0153 4.25 70
  199.5362 0.28 5
  200.0064 0.93 15
  200.4387 0.14 2
  200.7414 0.63 10
  201.0544 3.43 56
  201.3497 0.15 2
  201.9908 3.10 51
  202.3855 0.20 3
  203.0215 4.70 77
  203.4422 0.05 1
  203.6135 0.27 4
  204.0228 1.56 26
  204.2567 0.21 3
  204.4348 0.15 2
  204.5362 0.07 1
  205.0205 4.31 71
  205.4736 0.14 2
  206.0023 2.96 48
  207.0112 6.70 110
  207.4116 0.35 6
  207.6330 0.30 5
  208.0274 2.62 43
  208.4641 0.21 3
  209.0284 9.08 149
  209.4633 0.10 2
  209.6106 0.15 2
  210.0551 2.37 39
  210.3402 0.06 1
  210.5394 0.08 1
  211.0510 4.84 79
  211.4214 0.22 4
  211.7074 0.12 2
  212.0684 0.95 16
  212.2630 0.17 3
  212.5087 0.11 2
  212.6418 0.07 1
  213.0583 1.65 27
  213.5262 0.25 4
  213.7085 0.42 7
  214.0139 0.43 7
  214.2783 0.30 5
  215.0313 3.40 56
  215.3875 0.05 1
  215.5775 0.18 3
  216.0342 1.13 18
  216.4432 0.05 1
  217.0403 3.46 57
  217.3516 0.05 1
  218.0160 1.65 27
  218.4622 0.08 1
  219.0530 3.67 60
  219.3242 0.33 5
  219.4351 0.23 4
  220.0734 1.76 29
  220.3707 0.58 9
  221.0463 9.43 154
  221.5219 0.14 2
  222.0799 1.67 27
  223.0666 4.78 78
  223.5543 0.21 3
  223.6579 0.14 2
  224.0887 1.06 17
  224.3515 0.13 2
  224.5347 0.19 3
  225.0996 2.49 41
  225.4160 0.11 2
  225.5225 0.13 2
  226.0450 1.23 20
  226.4412 0.16 3
  226.8011 0.28 5
  227.1219 1.93 32
  227.3637 0.27 4
  227.6653 0.67 11
  227.8996 0.35 6
  228.1381 0.99 16
  228.4673 0.11 2
  228.5684 0.10 2
  229.0647 2.05 34
  229.7799 0.12 2
  230.1297 1.34 22
  230.4054 0.07 1
  230.5221 0.10 2
  231.0558 2.18 36
  231.6535 0.12 2
  232.0990 1.68 27
  232.4010 0.08 1
  232.5967 0.09 1
  232.6866 0.10 2
  233.0746 3.33 54
  233.6583 0.09 1
  234.0924 1.55 25
  235.1161 3.66 60
  235.2818 1.07 18
  235.4385 0.14 2
  235.5849 0.15 2
  235.7327 0.19 3
  236.1286 0.89 15
  236.3135 0.29 5
  237.0747 3.29 54
  237.4296 0.12 2
  237.5912 0.08 1
  237.6717 0.03 0
  238.1222 0.48 8
  238.4532 0.13 2
  238.6933 0.30 5
  239.1048 2.54 42
  239.6802 0.23 4
  240.0960 0.77 13
  240.4712 0.07 1
  241.1068 2.77 45
  241.4883 0.16 3
  241.6543 0.25 4
  242.0739 0.93 15
  242.4996 0.07 1
  243.1074 1.70 28
  244.1151 0.76 12
  244.4164 0.14 2
  244.5654 0.17 3
  245.0818 2.25 37
  245.4060 0.06 1
  245.5770 0.11 2
  246.0951 0.98 16
  246.3103 0.28 5
  246.5145 0.06 1
  247.0914 2.69 44
  247.6635 0.18 3
  248.1163 0.89 15
  248.3517 0.05 1
  248.5955 0.27 4
  249.1016 2.50 41
  249.5076 0.09 1
  249.6962 0.20 3
  250.1148 0.82 13
  250.4408 0.10 2
  250.5997 0.07 1
  251.1069 1.90 31
  251.4289 0.25 4
  251.5215 0.07 1
  251.6874 0.11 2
  251.8249 0.12 2
  252.0986 0.92 15
  252.3564 0.24 4
  252.5051 0.06 1
  253.1204 2.21 36
  253.4945 0.07 1
  253.6570 0.01 0
  254.1293 0.99 16
  254.4792 0.09 1
  255.1421 1.59 26
  255.3619 0.29 5
  255.5106 0.28 5
  255.6095 0.09 1
  255.7339 0.11 2
  256.1315 0.72 12
  256.4932 0.08 1
  257.1151 1.36 22
  257.3613 0.15 2
  257.7515 0.09 1
  258.1404 0.74 12
  258.5501 0.06 1
  259.0948 1.70 28
  259.5793 0.03 0
  259.7281 0.03 0
  259.9185 0.23 4
  260.1553 0.91 15
  260.3201 0.40 7
  260.4538 0.17 3
  260.7668 0.25 4
  261.1400 2.36 39
  261.6547 0.16 3
  262.1042 1.25 20
  262.3606 0.15 2
  262.6156 0.40 7
  263.1429 2.17 36
  263.2607 1.04 17
  263.4887 0.29 5
  263.6648 0.10 2
  263.8269 0.07 1
  264.1077 0.76 12
  264.2498 0.28 5
  264.4633 0.02 0
  265.1205 2.04 33
  265.4985 0.09 1
  265.6067 0.05 1
  266.1115 0.63 10
  266.3272 0.33 5
  266.4778 0.08 1
  267.1215 1.77 29
  267.7300 0.10 2
  268.1318 0.62 10
  268.4032 0.17 3
  268.6447 0.02 0
  269.1729 1.25 20
  269.4985 0.18 3
  270.1199 0.55 9
  270.5275 0.06 1
  271.1428 1.20 20
  271.5547 0.02 0
  271.8346 0.17 3
  272.1653 0.50 8
  272.5059 0.04 1
  273.1331 1.44 24
  273.4190 0.19 3
  273.5362 0.08 1
  273.6251 0.05 1
  273.8339 0.22 4
  274.1317 0.82 13
  274.3676 0.12 2
  274.5023 0.12 2
  274.6147 0.07 1
  275.1089 1.18 19
  275.5130 0.18 3
  275.7712 0.18 3
  275.9872 0.48 8
  276.1837 0.40 7
  276.4420 0.16 3
  276.6635 0.22 4
  277.1150 1.13 18
  277.3456 0.60 10
  277.5741 0.22 4
  277.7721 0.09 1
  277.9082 0.11 2
  278.2160 0.41 7
  278.3758 0.23 4
  278.5002 0.03 0
  279.1651 1.35 22
  279.3562 0.41 7
  279.7232 0.12 2
  280.0867 0.64 10
  280.2751 0.51 8
  280.4315 0.05 1
  280.6059 0.08 1
  280.6866 0.06 1
  280.8166 0.15 2
  281.1517 0.96 16
  281.5584 0.04 1
  281.6572 0.04 1
  281.7656 0.06 1
  281.8978 0.13 2
  282.1259 0.25 4
  282.3171 0.09 1
  282.6183 0.14 2
  282.7574 0.04 1
  283.1121 0.47 8
  283.4307 0.10 2
  283.6561 0.04 1
  283.8940 0.23 4
  284.1765 0.17 3
  284.7561 0.22 4
  285.1535 0.93 15
  285.2975 0.43 7
  285.3894 0.09 1
  285.5098 0.09 1
  285.8049 0.15 2
  285.9852 0.14 2
  286.2115 0.42 7
  286.5108 0.10 2
  286.7572 0.19 3
  287.1583 1.06 17
  287.4034 0.05 1
  287.5872 0.05 1
  287.9598 0.31 5
  288.1583 0.24 4
  288.3650 0.14 2
  288.5389 0.08 1
  288.7581 0.11 2
  289.1733 0.99 16
  289.6597 0.03 0
  289.8705 0.15 2
  290.0570 0.28 5
  290.2198 0.19 3
  290.3318 0.04 1
  290.8740 0.27 4
  291.1440 0.71 12
  291.3820 0.22 4
  291.6500 0.12 2
  292.0614 0.25 4
  292.2487 0.30 5
  292.4715 0.05 1
  292.7772 0.22 4
  293.0146 0.42 7
  293.2096 0.55 9
  293.8043 0.02 0
  294.1623 0.57 9
  294.6714 0.05 1
  294.7647 0.07 1
  295.1597 0.44 7
  295.6370 0.08 1
  295.8083 0.12 2
  295.9017 0.02 0
  296.1456 0.15 2
  296.6173 0.11 2
  297.1240 0.41 7
  297.4676 0.09 1
  297.7499 0.04 1
  297.8740 0.03 0
  298.1375 0.57 9
  299.1477 0.85 14
  299.8945 0.11 2
  300.1149 0.31 5
  300.3206 0.14 2
  300.5787 0.15 2
  301.1130 0.69 11
  301.6097 0.12 2
  301.9069 0.15 2
  302.1894 0.37 6
  302.4490 0.17 3
  302.6416 0.16 3
  302.7574 0.10 2
  303.1454 0.98 16
  303.7253 0.05 1
  303.9550 0.21 3
  304.2167 0.11 2
  304.3249 0.15 2
  304.6258 0.13 2
  304.7061 0.04 1
  305.0223 0.41 7
  305.2646 0.44 7
  305.3846 0.22 4
  305.5753 0.01 0
  306.2309 0.38 6
  306.4139 0.15 2
  306.5500 0.06 1
  307.1884 0.53 9
  307.3476 0.19 3
  307.9134 0.20 3
  308.0762 0.10 2
  308.2194 0.13 2
  308.3444 0.08 1
  309.0368 0.22 4
  309.2520 0.23 4
  309.3331 0.12 2
  309.9885 0.37 6
  310.1087 0.20 3
  310.2101 0.11 2
  310.7133 0.15 2
  311.0921 0.44 7
  311.3689 0.13 2
  311.6227 0.05 1
  311.7877 0.14 2
  312.0897 0.11 2
  312.3260 0.05 1
  312.6273 0.08 1
  312.8420 0.14 2
  313.1727 0.54 9
  313.3748 0.23 4
  313.4706 0.13 2
  313.8175 0.11 2
  313.9616 0.07 1
  314.1455 0.36 6
  314.2176 0.15 2
  314.5841 0.11 2
  314.8030 0.16 3
  315.1605 0.71 12
  315.4767 0.02 0
  315.5781 0.02 0
  315.9265 0.31 5
  316.2365 0.18 3
  316.5954 0.12 2
  316.8138 0.21 3
  317.1951 0.62 10
  317.5626 0.08 1
  317.9734 0.25 4
  318.1974 0.35 6
  318.3563 0.34 6
  318.4893 0.08 1
  318.6937 0.06 1
  318.8757 0.06 1
  319.2180 0.73 12
  319.5114 0.11 2
  319.9335 0.07 1
  320.2066 0.44 7
  320.3796 0.10 2
  320.6380 0.21 3
  320.8228 0.05 1
  321.0322 0.41 7
  321.2885 0.79 13
  321.7781 0.09 1
  322.0219 0.28 5
  322.2376 0.29 5
  322.8197 0.06 1
  323.1995 0.42 7
  323.4433 0.12 2
  324.1846 0.25 4
  324.3401 0.11 2
  324.8188 0.07 1
  325.2126 0.29 5
  326.0839 0.25 4
  326.2002 0.20 3
  326.3082 0.05 1
  326.5129 0.10 2
  326.6938 0.04 1
  326.8326 0.05 1
  327.0829 0.26 4
  327.2890 0.28 5
  327.3871 0.13 2
  327.6094 0.18 3
  327.8015 0.11 2
  327.9326 0.03 0
  328.1963 0.19 3
  328.3933 0.10 2
  328.5266 0.15 2
  328.6255 0.07 1
  328.8723 0.07 1
  329.0161 0.24 4
  329.2580 0.54 9
  329.5295 0.09 1
  329.7118 0.08 1
  329.8577 0.08 1
  329.9931 0.07 1
  330.1453 0.24 4
  330.3929 0.16 3
  330.9984 0.25 4
  331.2734 0.46 8
  331.5932 0.03 0
  331.8560 0.10 2
  332.1293 0.51 8
  332.3921 0.39 6
  332.7733 0.02 0
  333.1434 0.82 13
  333.2814 0.68 11
  333.5660 0.10 2
  333.8226 0.21 3
  334.1247 0.29 5
  334.3525 0.14 2
  334.4745 0.11 2
  334.6196 0.07 1
  334.9120 0.08 1
  335.1237 0.29 5
  335.3642 0.22 4
  336.0429 0.16 3
  336.2365 0.05 1
  336.6313 0.16 3
  336.9833 0.15 2
  337.1032 0.17 3
  337.2716 0.34 6
  337.9842 0.05 1
  338.2964 0.21 3
  338.8997 0.09 1
  339.1648 0.32 5
  339.3058 0.08 1
  339.7858 0.08 1
  340.0699 0.17 3
  340.2461 0.17 3
  340.3976 0.10 2
  340.7176 0.10 2
  341.0580 0.14 2
  341.1759 0.06 1
  341.3885 0.27 4
  341.9086 0.06 1
  342.1108 0.22 4
  342.3298 0.06 1
  342.4821 0.06 1
  343.2101 0.38 6
  343.3996 0.27 4
  343.9964 0.04 1
  344.1649 0.32 5
  344.3987 0.04 1
  344.6628 0.12 2
  344.7603 0.04 1
  344.8875 0.04 1
  345.2386 0.68 11
  345.7695 0.07 1
  345.9352 0.10 2
  346.1235 0.39 6
  346.2942 0.50 8
  346.4599 0.06 1
  346.6980 0.07 1
  347.1792 0.54 9
  347.2663 0.27 4
  347.5115 0.09 1
  347.8613 0.06 1
  348.0587 0.04 1
  348.2484 0.16 3
  348.5028 0.18 3
  348.8000 0.08 1
  348.9721 0.24 4
  349.2083 0.52 9
  349.3776 0.18 3
  349.5891 0.13 2
  350.1057 0.02 0
  350.3748 0.12 2
  350.9230 0.01 0
  351.1697 0.18 3
  351.3518 0.25 4
  351.4481 0.07 1
  351.8600 0.04 1
  351.9901 0.01 0
  352.2066 0.10 2
  352.3022 0.07 1
  352.4681 0.13 2
  353.2563 0.58 9
  353.5860 0.01 0
  353.7801 0.20 3
  354.1345 0.21 3
  354.3589 0.12 2
  354.6563 0.01 0
  354.7885 0.10 2
  354.9341 0.04 1
  355.1556 0.16 3
  355.3765 0.24 4
  355.9329 0.11 2
  356.0750 0.16 3
  356.2346 0.09 1
  356.3802 0.17 3
  357.2772 0.82 13
  357.3524 0.41 7
  357.5241 0.04 1
  357.9983 0.10 2
  358.1475 0.20 3
  358.3494 0.23 4
  358.5821 0.11 2
  358.8612 0.02 0
  359.3249 0.44 7
  359.8426 0.11 2
  360.2383 0.69 11
  360.4355 0.29 5
  360.6600 0.14 2
  361.1125 0.10 2
  361.3300 0.13 2
  361.5385 0.08 1
  362.1518 0.09 1
  362.3265 0.12 2
  362.8248 0.08 1
  362.9413 0.17 3
  363.1161 0.32 5
  363.3028 0.25 4
  363.4312 0.12 2
  363.8931 0.14 2
  364.5642 0.19 3
  364.8577 0.17 3
  365.2157 0.54 9
  365.3828 0.48 8
  365.9641 0.10 2
  366.1713 0.12 2
  366.3216 0.17 3
  366.5161 0.02 0
  366.7036 0.10 2
  366.9718 0.11 2
  367.2492 0.44 7
  367.4606 0.14 2
  367.6389 0.24 4
  367.7232 0.07 1
  367.8897 0.08 1
  368.0323 0.08 1
  368.2872 0.20 3
  368.5035 0.19 3
  368.9749 0.05 1
  369.2306 0.17 3
  369.4863 0.10 2
  369.9541 0.08 1
  370.1368 0.10 2
  370.2534 0.16 3
  370.4312 0.11 2
  370.5239 0.03 0
  370.9244 0.11 2
  371.2103 0.12 2
  371.3846 0.14 2
  371.4851 0.14 2
  372.0550 0.11 2
  372.2173 0.34 6
  372.3543 0.11 2
  372.6804 0.10 2
  372.7984 0.05 1
  373.0893 0.09 1
  373.3036 0.07 1
  373.6585 0.05 1
  373.8412 0.07 1
  374.3043 0.16 3
  375.0036 0.09 1
  375.1245 0.13 2
  375.3754 0.23 4
  375.4675 0.12 2
  376.1317 0.15 2
  376.2794 0.12 2
  376.5781 0.06 1
  376.7588 0.07 1
  377.1616 0.28 5
  377.3360 0.15 2
  377.7515 0.17 3
  378.1284 0.59 10
  378.3210 0.33 5
  378.4841 0.03 0
  378.9574 0.02 0
  379.2316 0.44 7
  379.4539 0.04 1
  379.5558 0.04 1
  380.0551 0.08 1
  380.1958 0.10 2
  380.3976 0.16 3
  381.1228 0.22 4
  381.2198 0.18 3
  381.3697 0.28 5
  381.4492 0.11 2
  382.1660 0.08 1
  382.3060 0.19 3
  382.5269 0.09 1
  382.6239 0.03 0
  382.7682 0.13 2
  382.9433 0.30 5
  383.0686 0.48 8
  383.3148 0.77 13
  383.5034 0.24 4
  383.6842 0.08 1
  383.7911 0.02 0
  383.9530 0.12 2
  384.1050 0.17 3
  384.2267 0.08 1
  384.3864 0.27 4
  384.7960 0.05 1
  384.9839 0.10 2
  385.2210 0.58 9
  385.4561 0.38 6
  385.6630 0.18 3
  385.9487 0.11 2
  386.1324 0.20 3
  386.2204 0.15 2
  386.3802 0.21 3
  387.0404 0.14 2
  387.2494 0.19 3
  387.3585 0.25 4
  387.4859 0.25 4
  388.1695 0.16 3
  388.7573 0.06 1
  389.2692 0.37 6
  390.2007 0.10 2
  391.0957 0.25 4
  391.2373 0.47 8
  391.4309 0.34 6
  391.7817 0.12 2
  391.9605 0.27 4
  392.1606 0.32 5
  392.3867 0.17 3
  392.4782 0.05 1
  393.1572 0.23 4
  393.3397 0.19 3
  393.5292 0.10 2
  393.9342 0.02 0
  394.1956 0.10 2
  394.4619 0.12 2
  395.2065 0.22 4
  395.4482 0.10 2
  395.6927 0.09 1
  395.9330 0.17 3
  396.2071 0.08 1
  396.3304 0.19 3
  396.4023 0.12 2
  396.6595 0.09 1
  396.9667 0.11 2
  397.3445 0.61 10
  397.5601 0.58 9
  397.8173 0.10 2
  398.2050 0.68 11
  398.4559 0.46 8
  398.7103 0.02 0
  398.8266 0.06 1
  399.2629 0.35 6
  399.4363 0.16 3
  399.7951 0.08 1
  399.9297 0.23 4
  400.2385 0.27 4
  400.6347 0.09 1
  400.8363 0.09 1
  401.1494 0.10 2
  401.2756 0.04 1
  401.3849 0.11 2
  402.3741 0.23 4
  403.1053 0.12 2
  403.4671 0.14 2
  403.8557 0.09 1
  404.0665 0.12 2
  404.2569 0.06 1
  404.8228 0.11 2
  404.9897 0.03 0
  405.4236 0.12 2
  405.9949 0.03 0
  406.2232 0.02 0
  406.5106 0.11 2
  406.6135 0.03 0
  406.9665 0.06 1
  407.2596 0.08 1
  407.4850 0.10 2
  407.8444 0.06 1
  408.0417 0.07 1
  408.1960 0.08 1
  408.3728 0.20 3
  408.6596 0.03 0
  408.7738 0.04 1
  409.1268 0.06 1
  409.3890 0.28 5
  409.6089 0.03 0
  409.9232 0.10 2
  410.3066 0.42 7
  410.5222 0.07 1
  410.7915 0.21 3
  411.0692 0.34 6
  411.3152 0.48 8
  412.3147 1.48 24
  412.6926 0.11 2
  413.3073 2.55 42
  413.7134 0.16 3
  414.2641 0.54 9
  414.4734 0.21 3
  414.6927 0.22 4
  415.1631 0.96 16
  415.3556 0.30 5
  415.4874 0.11 2
  415.6122 0.12 2
  416.2046 0.05 1
  416.3456 0.10 2
  416.8753 0.02 0
  417.0417 0.15 2
  417.2427 0.35 6
  417.4621 0.12 2
  417.9290 0.10 2
  418.2055 0.38 6
  418.4129 0.39 6
  418.6097 0.13 2
  418.8276 0.10 2
  418.9666 0.13 2
  419.2198 0.25 4
  419.3920 0.16 3
  419.5860 0.05 1
  419.7101 0.01 0
  420.1031 0.12 2
  420.3091 0.19 3
  420.4206 0.04 1
  421.1606 0.02 0
  421.4930 0.07 1
  421.7141 0.08 1
  422.0268 0.11 2
  422.3607 0.19 3
  422.4783 0.16 3
  422.8636 0.09 1
  423.0819 0.10 2
  423.3327 0.24 4
  423.4905 0.16 3
  423.7039 0.02 0
  423.9920 0.06 1
  424.2357 0.48 8
  424.4274 0.30 5
  424.6429 0.11 2
  424.8465 0.07 1
  424.9628 0.35 6
  425.1086 0.43 7
  425.2361 0.32 5
  425.3820 0.29 5
  425.5602 0.25 4
  425.6532 0.08 1
  425.9977 0.21 3
  426.2422 0.24 4
  426.4487 0.42 7
  426.7368 0.06 1
  427.3724 0.48 8
  427.6670 0.13 2
  427.8488 0.07 1
  427.9792 0.16 3
  428.1835 0.11 2
  428.5352 0.03 0
  429.0948 0.23 4
  429.2512 0.22 4
  429.3753 0.17 3
  429.5486 0.23 4
  429.8038 0.08 1
  429.9307 0.07 1
  430.2232 0.28 5
  430.6566 0.10 2
  430.9478 0.13 2
  431.3284 0.85 14
  431.8148 0.05 1
  431.9713 0.07 1
  432.2540 0.25 4
  432.3915 0.13 2
  432.4902 0.09 1
  432.6615 0.19 3
  432.9351 0.05 1
  433.1395 0.16 3
  433.2495 0.12 2
  433.4025 0.13 2
  433.7325 0.02 0
  434.3212 0.14 2
  434.5920 0.10 2
  434.7112 0.08 1
  434.7958 0.05 1
  435.2062 0.12 2
  435.4354 0.01 0
  436.2837 0.17 3
  436.7125 0.07 1
  437.2020 0.11 2
  437.3275 0.06 1
  437.6181 0.18 3
  437.8861 0.10 2
  438.4342 0.03 0
  438.5809 0.10 2
  438.7086 0.11 2
  438.8130 0.09 1
  438.9548 0.10 2
  439.1227 0.20 3
  439.3117 0.19 3
  439.6270 0.09 1
  439.9353 0.02 0
  440.0990 0.15 2
  440.3734 0.78 13
  440.4948 0.35 6
  440.7128 0.10 2
  441.2765 4.95 81
  441.8268 0.16 3
  442.0590 0.15 2
  442.2248 0.24 4
  442.4824 0.24 4
  442.7180 0.11 2
  442.9636 0.17 3
  443.1125 0.11 2
  443.3256 0.14 2
  443.5620 0.02 0
  443.7829 0.07 1
  444.2226 0.57 9
  444.5006 0.26 4
  445.0038 0.11 2
  445.4661 0.33 5
  445.9701 0.09 1
  446.2023 0.17 3
  446.3428 0.18 3
  446.4620 0.09 1
  446.6279 0.11 2
  446.7712 0.13 2
  446.9166 0.16 3
  447.0755 0.04 1
  447.2985 0.23 4
  447.4094 0.18 3
  447.6762 0.34 6
  447.7637 0.12 2
  448.0193 0.23 4
  448.3038 0.12 2
  448.5481 0.10 2
  449.0522 0.05 1
  449.3049 0.05 1
  449.4475 0.08 1
  449.5711 0.03 0
  449.6960 0.03 0
  450.1437 0.07 1
  450.3047 0.07 1
  450.5829 0.13 2
  450.6909 0.12 2
  451.2212 0.09 1
  452.0164 0.05 1
  452.1866 0.16 3
  452.3434 0.23 4
  452.6590 0.09 1
  452.8949 0.13 2
  453.0835 0.08 1
  453.3321 0.21 3
  453.5482 0.11 2
  453.7431 0.13 2
  453.8689 0.08 1
  454.0673 0.11 2
  454.2029 0.25 4
  454.3654 0.33 5
  454.5504 0.20 3
  454.7503 0.26 4
  455.4002 2.38 39
  455.5959 1.03 17
  455.9912 0.26 4
  456.1393 0.15 2
  456.4515 0.25 4
  456.7427 0.18 3
  456.9767 0.19 3
  457.3031 0.41 7
  457.4709 0.05 1
  457.6387 0.19 3
  457.8029 0.25 4
  458.0201 0.15 2
  458.3486 0.28 5
  458.4706 0.14 2
  458.5919 0.12 2
  458.7265 0.10 2
  458.9987 0.10 2
  459.2186 0.37 6
  459.3547 0.33 5
  459.5662 0.26 4
  459.8250 0.06 1
  459.9836 0.14 2
  460.2474 0.15 2
  460.4723 0.11 2
  460.7790 0.05 1
  461.1380 0.19 3
  461.3820 0.38 6
  461.5851 0.21 3
  461.7233 0.15 2
  462.0166 0.14 2
  462.2663 0.39 6
  462.4532 0.39 6
  462.6746 0.20 3
  462.9052 0.20 3
  463.3926 0.10 2
  463.7093 0.11 2
  463.8017 0.07 1
  463.9999 0.10 2
  464.1332 0.12 2
  464.2425 0.06 1
  465.2202 0.12 2
  465.4459 0.11 2
  465.5848 0.06 1
  466.2402 0.13 2
  466.4130 0.07 1
  466.5457 0.11 2
  466.6550 0.20 3
  466.8652 0.10 2
  467.0487 0.05 1
  467.3323 0.19 3
  467.4938 0.19 3
  467.6173 0.06 1
  467.8826 0.12 2
  468.0555 0.10 2
  468.3475 0.31 5
  468.6157 0.11 2
  468.9903 0.21 3
  469.3396 0.47 8
  469.5336 0.15 2
  469.7256 0.09 1
  470.1857 0.16 3
  470.3868 0.03 0
  470.5335 0.21 3
  470.8066 0.22 4
  470.9344 0.03 0
  471.1136 0.06 1
  471.3127 0.14 2
  471.6260 0.23 4
  471.7714 0.12 2
  471.8899 0.09 1
  472.2061 0.16 3
  472.3720 0.09 1
  472.8329 0.06 1
  473.0672 0.03 0
  473.4469 0.28 5
  473.6234 0.04 1
  473.8358 0.16 3
  473.9784 0.06 1
  474.2339 0.21 3
  474.4005 0.21 3
  474.7683 0.10 2
  475.2554 0.24 4
  475.5370 0.39 6
  476.3581 8.06 132
  476.7668 0.42 7
  476.9666 0.21 3
  477.2173 0.31 5
  477.4573 0.19 3
  477.5978 0.06 1
  478.0095 0.08 1
  478.1655 0.08 1
  478.5609 0.09 1
  478.8278 0.11 2
  478.9612 0.03 0
  479.2112 0.04 1
  480.0798 0.16 3
  480.2161 0.06 1
  480.3262 0.14 2
  480.6433 0.05 1
  480.8538 0.09 1
  481.1031 0.08 1
  481.4110 0.09 1
  481.6546 0.18 3
  481.8142 0.08 1
  482.3616 0.78 13
  482.5021 0.75 12
  482.6618 0.28 5
  482.8094 0.10 2
  483.0170 0.21 3
  483.3680 1.03 17
  483.4950 0.31 5
  483.7094 0.13 2
  483.9138 0.12 2
  484.1282 0.18 3
  484.3496 0.45 7
  484.6649 0.08 1
  484.8299 0.09 1
  485.4301 0.24 4
  485.8321 0.04 1
  486.2595 0.19 3
  486.7638 0.06 1
  487.2688 0.17 3
  487.4056 0.12 2
  487.9092 0.22 4
  488.3459 0.86 14
  488.6964 0.14 2
  488.9427 0.09 1
  489.1522 0.53 9
  489.4287 0.68 11
  489.5881 0.33 5
  489.7934 0.18 3
  490.2865 0.05 1
  490.3486 0.02 0
  490.5060 0.12 2
  491.2467 0.09 1
  492.6388 0.07 1
  492.8547 0.01 0
  493.9372 0.10 2
  494.1192 0.13 2
  494.4093 0.13 2
  494.7029 0.09 1
  495.3831 0.28 5
  495.5356 0.15 2
  495.9964 0.05 1
  496.2830 0.24 4
  496.4792 0.07 1
  496.7629 0.10 2
  497.4031 0.71 12
  497.5936 0.38 6
  497.7052 0.36 6
  498.0143 0.05 1
  498.2719 0.22 4
  498.4872 0.15 2
  498.6093 0.02 0
  498.7844 0.18 3
  499.1508 0.23 4
  499.3244 0.22 4
  499.4444 0.06 1
  500.2668 0.06 1
  500.3657 0.12 2
  500.5775 0.06 1
  501.7155 0.08 1
  501.8207 0.10 2
  502.5854 0.11 2
  504.3767 0.05 1
  505.0440 0.14 2
  505.9105 0.06 1
  506.1203 0.11 2
  507.1740 0.16 3
  507.5525 0.10 2
  507.6761 0.05 1
  508.1260 0.05 1
  508.3266 0.20 3
  508.5230 0.25 4
  508.6339 0.09 1
  509.2660 0.11 2
  509.5196 0.24 4
  510.2722 0.47 8
  510.5649 0.34 6
  510.6954 0.25 4
  511.3499 0.47 8
  511.5255 0.21 3
  511.6426 0.12 2
  511.8147 0.11 2
  511.9678 0.10 2
  512.1885 0.31 5
  512.4911 0.16 3
  512.6005 0.12 2
  513.1126 0.06 1
  513.4702 0.07 1
  513.7700 0.03 0
  514.0635 0.09 1
  514.2560 0.11 2
  514.5742 0.02 0
  515.8610 0.03 0
  516.1919 0.03 0
  516.3394 0.10 2
  516.9313 0.04 1
  517.6368 0.10 2
  519.2745 0.05 1
  519.7692 0.07 1
  520.2222 0.20 3
  520.4058 0.10 2
  520.7050 0.02 0
  521.0479 0.23 4
  521.3690 0.18 3
  521.5673 0.03 0
  521.9492 0.10 2
  522.1122 0.10 2
  522.4037 0.19 3
  522.5822 0.34 6
  522.8469 0.11 2
  523.4165 0.22 4
  523.5506 0.14 2
  523.8019 0.13 2
  524.2966 0.76 12
  524.4957 0.36 6
  524.7505 0.24 4
  525.4020 3.24 53
  525.7479 0.40 7
  525.8835 0.10 2
  526.1002 0.09 1
  526.3049 0.31 5
  526.4150 0.20 3
  526.5336 0.16 3
  526.8104 0.12 2
  527.1104 0.07 1
  527.4083 0.10 2
  527.7712 0.08 1
  528.2167 0.05 1
  528.5873 0.13 2
  528.8556 0.02 0
  529.1063 0.13 2
  529.2834 0.11 2
  529.6230 0.06 1
  529.9429 0.10 2
  530.1957 0.05 1
  530.3411 0.08 1
  531.5875 0.20 3
  532.2703 0.10 2
  532.6686 0.14 2
  532.8437 0.12 2
  533.0923 0.10 2
  533.7950 0.04 1
  533.9786 0.01 0
  534.1445 0.16 3
  534.7060 0.11 2
  534.8246 0.13 2
  534.9652 0.11 2
  535.2018 0.03 0
  535.3516 0.29 5
  535.5126 0.24 4
  535.6178 0.18 3
  535.7146 0.11 2
  536.1271 0.11 2
  536.2966 0.27 4
  536.4604 0.29 5
  536.5530 0.13 2
  536.8539 0.13 2
  537.1216 0.15 2
  537.4783 0.66 11
  537.7354 0.09 1
  538.0702 0.10 2
  538.3090 0.40 7
  538.4764 0.38 6
  538.7116 0.23 4
  539.0147 0.20 3
  539.4294 0.68 11
  539.7303 0.45 7
  539.9465 0.12 2
  540.0722 0.03 0
  540.3909 0.31 5
  540.5950 0.19 3
  540.6769 0.09 1
  540.8211 0.08 1
  541.1362 0.10 2
  541.4414 0.10 2
  541.6307 0.08 1
  541.7897 0.19 3
  542.0907 0.11 2
  542.1946 0.05 1
  542.5195 0.13 2
  542.7047 0.19 3
  542.9039 0.26 4
  543.0262 0.04 1
  543.2064 0.11 2
  543.3378 0.07 1
  543.5250 0.19 3
  543.7200 0.09 1
  544.1963 0.14 2
  544.4132 0.10 2
  544.7255 0.27 4
  544.9778 0.21 3
  545.2096 0.19 3
  545.4739 0.11 2
  545.6025 0.11 2
  545.7396 0.17 3
  546.0427 0.26 4
  546.2562 0.42 7
  546.5353 0.18 3
  546.7954 0.11 2
  546.9636 0.43 7
  547.3827 0.39 6
  547.5480 0.32 5
  547.8201 0.47 8
  548.0598 0.12 2
  548.2562 0.25 4
  548.5735 0.34 6
  548.8450 0.60 10
  549.1135 0.28 5
  549.3340 0.44 7
  549.5786 0.51 8
  549.8507 0.51 8
  550.5724 3.63 59
  550.7830 1.78 29
  550.9202 0.82 13
  551.5429 0.98 16
  552.5128 1.45 24
  553.5421 14.11 231
  554.3626 0.78 13
  554.7264 0.47 8
  554.8990 0.59 10
  555.2057 0.32 5
  555.4863 0.35 6
  555.8641 0.31 5
  555.9713 0.15 2
  556.4747 0.32 5
  556.9414 0.47 8
  557.0789 0.16 3
  557.2537 0.12 2
  557.4504 0.23 4
  557.6915 0.35 6
  557.9235 0.37 6
  558.1005 0.15 2
  558.3634 0.43 7
  558.5390 0.21 3
  558.6920 0.26 4
  558.9148 0.20 3
  559.0558 0.30 5
  559.2729 0.54 9
  559.4013 0.28 5
  559.6234 0.35 6
  559.9894 0.45 7
  560.4540 0.64 10
  560.8002 0.62 10
  560.9532 0.51 8
  561.2699 0.58 9
  561.6521 0.69 11
  561.8911 0.56 9
  562.3714 0.83 14
  562.8128 1.09 18
  568.3558 99.96 999
  569.0386 34.81 570
  569.8167 16.27 266
  570.6689 8.13 133
  571.7222 3.35 55
  572.3452 3.09 51
  573.1974 1.62 27
  573.6864 1.13 18
  574.1478 0.94 15
  574.6573 0.83 14
//
