ACCESSION: MSBNK-Kyoto_Univ-CA000102
RECORD_TITLE: Spheroidenone; FAB-EBEB; MS2; m/z: 582.44; [M]+*
DATE: 2016.01.19 (Created 2010.04.01, modified 2011.05.10)
AUTHORS: Akimoto N, Graduate School of Pharmaceutical Sciences, Kyoto University and Maoka T, Research Institute for Production Development
LICENSE: CC BY-SA
COMMENT: Profile spectrum of this record is given as a JPEG file.
COMMENT: [Profile] CA000102.jpg
CH$NAME: Spheroidenone
CH$COMPOUND_CLASS: N/A
CH$FORMULA: C41H58O2
CH$EXACT_MASS: 582.44368
CH$SMILES: C(=CC=C(C=CC=C(C)C=CC=C(C)C=CC(C(C)(C)OC)=O)C)C=C(C=CC=C(CCC=C(C)CCC=C(C)C)C)C
CH$IUPAC: InChI=1S/C41H58O2/c1-33(2)19-14-22-36(5)25-17-28-37(6)26-15-23-34(3)20-12-13-21-35(4)24-16-27-38(7)29-18-30-39(8)31-32-40(42)41(9,10)43-11/h12-13,15-16,18-21,23-27,29-32H,14,17,22,28H2,1-11H3/b13-12+,23-15+,24-16+,29-18+,32-31+,34-20+,35-21+,36-25+,37-26+,38-27+,39-30+
CH$LINK: CAS 13836-70-9
CH$LINK: LIPIDBANK VCA1039
CH$LINK: INCHIKEY ZQFURSYWJPLAJR-FZFXUSNISA-N
AC$INSTRUMENT: JMS-HX/HX 110A, JEOL
AC$INSTRUMENT_TYPE: FAB-EBEB
AC$MASS_SPECTROMETRY: MS_TYPE MS2
AC$MASS_SPECTROMETRY: ION_MODE POSITIVE
AC$MASS_SPECTROMETRY: ATOM_GUN_CURRENT 5 mA
AC$MASS_SPECTROMETRY: BOMBARDMENT 6 kV xenon
AC$MASS_SPECTROMETRY: COLLISION_ENERGY 3 kV
AC$MASS_SPECTROMETRY: COLLISION_GAS Ar
AC$MASS_SPECTROMETRY: GAS_PRESSURE adjust to attenuate the intensity of the precursor ion by 30 %
AC$MASS_SPECTROMETRY: IONIZATION FAB
AC$MASS_SPECTROMETRY: MATRIX 1-2 uL m-NBA
AC$MASS_SPECTROMETRY: PROBE_TIP stainless-steel
MS$FOCUSED_ION: BASE_PEAK 72.9835
MS$FOCUSED_ION: PRECURSOR_M/Z 582.44
MS$FOCUSED_ION: PRECURSOR_TYPE [M]+*
MS$DATA_PROCESSING: RELATIVE_M/Z normalised by peak(m/z=72.9835).  set 999 for peak(m/z=582.4973,rel=1379).
PK$SPLASH: splash10-0089-8920080000-c0219b208abd8c109d2d
PK$NUM_PEAK: 1654
PK$PEAK: m/z int. rel.int.
  12.6906 0.01 0
  13.9287 0.01 0
  14.9749 0.15 2
  17.9763 0.01 0
  25.9542 0.08 1
  26.9583 0.53 7
  27.9666 0.05 1
  28.9713 0.34 5
  29.9699 0.01 0
  30.9033 0.05 1
  32.9717 0.01 0
  36.9434 0.03 0
  37.9419 0.11 2
  38.9479 1.03 14
  39.9590 0.11 2
  40.9662 3.61 50
  41.4037 0.01 0
  41.9641 0.15 2
  42.1273 0.01 0
  42.9622 1.60 22
  43.1881 0.01 0
  43.9717 0.03 0
  44.9576 0.22 3
  48.9166 0.04 1
  49.9465 0.20 3
  50.9453 0.53 7
  51.9648 0.28 4
  52.2196 0.01 0
  52.5554 0.01 0
  52.9652 1.20 17
  53.9566 0.07 1
  54.5396 0.01 0
  54.9765 2.77 38
  55.9849 0.06 1
  56.9866 0.38 5
  57.9555 0.02 0
  58.9624 0.19 3
  59.9046 0.01 0
  60.2509 0.01 0
  60.9560 0.02 0
  61.4825 0.01 0
  61.9426 0.11 2
  62.2553 0.01 0
  62.3842 0.01 0
  62.9548 0.48 7
  63.2431 0.01 0
  63.3777 0.01 0
  63.6341 0.01 0
  63.9607 0.11 2
  64.0945 0.01 0
  64.2178 0.01 0
  64.4493 0.01 0
  64.9669 0.89 12
  65.2959 0.02 0
  65.6185 0.01 0
  65.9675 0.12 2
  66.5442 0.03 0
  66.9783 1.46 20
  67.1636 0.01 0
  67.3717 0.01 0
  67.9766 0.30 4
  68.6558 0.02 0
  68.9894 22.76 314
  69.3218 0.01 0
  69.4601 0.01 0
  69.9877 0.08 1
  70.9827 0.27 4
  71.7136 0.01 0
  71.8600 0.01 0
  71.9730 0.02 0
  72.0820 0.01 0
  72.2165 0.01 0
  72.3481 0.01 0
  72.5729 0.03 0
  72.9835 72.43 999
  73.2139 0.04 1
  73.3530 0.03 0
  73.5222 0.01 0
  73.7438 0.01 0
  73.9632 0.19 3
  74.1903 0.01 0
  74.5490 0.01 0
  74.9501 0.19 3
  75.2199 0.01 0
  75.3382 0.01 0
  75.9150 0.11 2
  76.2499 0.02 0
  76.5794 0.03 0
  76.9502 2.18 30
  77.2493 0.02 0
  77.3385 0.03 0
  77.4623 0.02 0
  77.6003 0.01 0
  77.9529 0.52 7
  78.1329 0.02 0
  78.3265 0.01 0
  78.4265 0.01 0
  78.5590 0.01 0
  78.6845 0.04 1
  78.9651 2.43 34
  79.2796 0.01 0
  79.9786 0.45 6
  80.3176 0.01 0
  80.6161 0.01 0
  80.9813 6.31 87
  81.2846 0.01 0
  81.4811 0.01 0
  81.9893 0.10 1
  82.6383 0.01 0
  82.9889 0.56 8
  83.9815 0.02 0
  84.9720 0.16 2
  85.8971 0.03 0
  86.3879 0.01 0
  86.9450 0.11 2
  87.7914 0.01 0
  87.9509 0.05 1
  88.1576 0.01 0
  88.3281 0.01 0
  88.9508 0.27 4
  89.2174 0.02 0
  89.4132 0.01 0
  89.5605 0.02 0
  89.9507 0.09 1
  90.1535 0.02 0
  90.2829 0.01 0
  90.5723 0.03 0
  90.9615 5.64 78
  91.3238 0.02 0
  91.4998 0.01 0
  91.6839 0.01 0
  91.9644 0.55 8
  92.1492 0.01 0
  92.3275 0.01 0
  92.5607 0.02 0
  92.9824 4.16 57
  93.3041 0.01 0
  94.0002 0.21 3
  94.2620 0.01 0
  94.4140 0.01 0
  94.6734 0.02 0
  94.9999 2.88 40
  95.2719 0.02 0
  95.9690 0.04 1
  96.9963 0.21 3
  97.9540 0.04 1
  98.9521 0.19 3
  99.4705 0.02 0
  99.9348 0.02 0
  100.6479 0.02 0
  100.9517 0.14 2
  101.2178 0.03 0
  101.7472 0.02 0
  101.9626 0.32 4
  102.2111 0.01 0
  102.3157 0.01 0
  102.5251 0.02 0
  102.9679 0.97 13
  103.2075 0.01 0
  103.3629 0.02 0
  103.4622 0.01 0
  103.6252 0.02 0
  103.9876 0.48 7
  104.2959 0.03 0
  104.4122 0.01 0
  104.9886 7.66 106
  105.2799 0.02 0
  105.5462 0.01 0
  105.7167 0.01 0
  105.9996 0.56 8
  106.2148 0.02 0
  106.3667 0.02 0
  106.6474 0.02 0
  107.0061 3.21 44
  107.1941 0.03 0
  107.7061 0.02 0
  108.0118 0.22 3
  108.5358 0.01 0
  109.0131 1.37 19
  109.3604 0.01 0
  109.5651 0.01 0
  109.7956 0.02 0
  110.0192 0.03 0
  110.4617 0.01 0
  110.8011 0.01 0
  111.0081 0.13 2
  111.9929 0.01 0
  112.2781 0.01 0
  112.4578 0.01 0
  112.5596 0.02 0
  112.7818 0.04 1
  112.9578 0.09 1
  113.0629 0.05 1
  113.3175 0.03 0
  113.5273 0.03 0
  113.9134 0.10 1
  114.1798 0.04 1
  114.3295 0.03 0
  114.4729 0.04 1
  114.9536 2.78 38
  115.1702 0.04 1
  115.3100 0.01 0
  115.4575 0.04 1
  115.5452 0.02 0
  115.9605 1.01 14
  116.1743 0.05 1
  116.3264 0.04 1
  116.9690 2.76 38
  117.1869 0.02 0
  117.3501 0.02 0
  117.5324 0.01 0
  117.9828 0.60 8
  118.2559 0.02 0
  118.4679 0.02 0
  118.9802 6.82 94
  119.3625 0.03 0
  119.5147 0.02 0
  119.6298 0.01 0
  119.9862 0.46 6
  120.3523 0.01 0
  120.6040 0.02 0
  120.9756 2.54 35
  121.2217 0.02 0
  121.3525 0.01 0
  121.9568 0.18 2
  122.2187 0.01 0
  122.5443 0.01 0
  122.9869 0.68 9
  123.9985 0.03 0
  124.9626 0.17 2
  125.2217 0.02 0
  125.3841 0.02 0
  125.5440 0.04 1
  125.9543 0.11 2
  126.2182 0.01 0
  126.4409 0.02 0
  126.9441 1.15 16
  127.3816 0.05 1
  127.5154 0.03 0
  127.9513 3.09 43
  128.2392 0.05 1
  128.4929 0.05 1
  128.9520 3.95 54
  129.3784 0.05 1
  129.9605 1.59 22
  130.4516 0.04 1
  130.9670 4.45 61
  131.2021 0.04 1
  131.4256 0.04 1
  131.9748 1.19 16
  132.3240 0.03 0
  132.4677 0.02 0
  132.9772 5.27 73
  133.3230 0.06 1
  133.5131 0.02 0
  133.9763 0.29 4
  134.2240 0.01 0
  134.4933 0.01 0
  134.9747 0.89 12
  135.1841 0.03 0
  135.4113 0.02 0
  135.9376 0.14 2
  136.1546 0.01 0
  136.4494 0.02 0
  136.5534 0.02 0
  136.9877 0.59 8
  137.3071 0.01 0
  137.5009 0.01 0
  137.8944 0.04 1
  138.4113 0.01 0
  138.5981 0.03 0
  138.9344 0.46 6
  139.2767 0.01 0
  139.4591 0.02 0
  139.6737 0.02 0
  139.9362 0.17 2
  140.1161 0.04 1
  140.5535 0.05 1
  140.9470 2.42 33
  141.4130 0.03 0
  141.9503 2.30 32
  142.2885 0.02 0
  142.5807 0.03 0
  142.9619 4.69 65
  143.2333 0.03 0
  143.4480 0.02 0
  143.9759 1.69 23
  144.2957 0.05 1
  144.5292 0.04 1
  144.9778 6.63 91
  145.3012 0.05 1
  145.4603 0.04 1
  145.6300 0.03 0
  145.9793 0.43 6
  146.4220 0.03 0
  146.9825 2.01 28
  147.2371 0.02 0
  147.3747 0.02 0
  147.9715 0.13 2
  148.1191 0.04 1
  148.2316 0.02 0
  148.3833 0.01 0
  148.9767 0.25 3
  149.2623 0.01 0
  149.9742 0.13 2
  150.2832 0.01 0
  150.4803 0.01 0
  150.9726 0.28 4
  151.1320 0.04 1
  151.2508 0.02 0
  151.9362 0.99 14
  152.2504 0.04 1
  152.3574 0.02 0
  152.5043 0.02 0
  152.9610 1.40 19
  153.4392 0.03 0
  153.5982 0.01 0
  153.9709 0.79 11
  154.1906 0.03 0
  154.4762 0.01 0
  154.9710 2.34 32
  155.2395 0.02 0
  155.3615 0.03 0
  155.6294 0.02 0
  155.9967 1.69 23
  156.3902 0.01 0
  156.9979 4.19 58
  157.3196 0.03 0
  157.4959 0.03 0
  157.7002 0.04 1
  158.0014 0.67 9
  158.4784 0.02 0
  158.9883 10.11 139
  159.2765 0.04 1
  159.4069 0.03 0
  159.5827 0.04 1
  160.0142 0.30 4
  160.3521 0.03 0
  161.0028 0.92 13
  161.4689 0.03 0
  161.6297 0.01 0
  162.0063 0.10 1
  162.2509 0.02 0
  162.6250 0.02 0
  162.9865 0.17 2
  163.2172 0.03 0
  163.2950 0.02 0
  163.4594 0.03 0
  163.5513 0.01 0
  163.9627 0.20 3
  164.3332 0.03 0
  164.9901 2.54 35
  165.3239 0.04 1
  165.4516 0.04 1
  165.6425 0.01 0
  165.9954 0.75 10
  166.4055 0.04 1
  166.5750 0.03 0
  167.0109 2.26 31
  167.4329 0.02 0
  167.5728 0.02 0
  168.0152 0.67 9
  168.4569 0.04 1
  169.0283 2.69 37
  169.5679 0.02 0
  170.0291 0.78 11
  170.2786 0.04 1
  170.4238 0.04 1
  171.0279 1.95 27
  171.5394 0.02 0
  172.0268 0.60 8
  172.3763 0.01 0
  172.5050 0.01 0
  172.6195 0.04 1
  172.7104 0.03 0
  173.0365 1.01 14
  173.7449 0.03 0
  174.0362 0.09 1
  174.2580 0.02 0
  174.5049 0.01 0
  174.7403 0.04 1
  175.0345 0.34 5
  175.3260 0.02 0
  175.4779 0.01 0
  175.7439 0.02 0
  176.0072 0.22 3
  176.3003 0.02 0
  176.5096 0.02 0
  176.6096 0.02 0
  177.0069 0.21 3
  177.3096 0.03 0
  177.9748 0.95 13
  178.2635 0.02 0
  178.5449 0.02 0
  178.9914 1.79 25
  179.5003 0.02 0
  180.0019 0.82 11
  180.2274 0.01 0
  180.5775 0.03 0
  181.0111 2.02 28
  181.2889 0.03 0
  181.5681 0.01 0
  182.0236 0.88 12
  182.2996 0.08 1
  182.4678 0.02 0
  183.0219 2.52 35
  183.2675 0.04 1
  183.4243 0.03 0
  184.0154 0.54 7
  184.4187 0.04 1
  184.5524 0.02 0
  185.0340 1.55 21
  185.4436 0.04 1
  185.7263 0.03 0
  186.0396 0.18 2
  186.2014 0.05 1
  186.4794 0.02 0
  187.0404 0.60 8
  187.3825 0.02 0
  187.5866 0.02 0
  187.7077 0.04 1
  188.0098 0.13 2
  188.1868 0.03 0
  188.4434 0.02 0
  188.5849 0.02 0
  188.9853 0.62 9
  189.3639 0.04 1
  189.9456 0.23 3
  190.5296 0.04 1
  190.9992 0.77 11
  191.2699 0.01 0
  191.4888 0.01 0
  191.9900 0.71 10
  192.3113 0.01 0
  192.9944 1.32 18
  193.3664 0.06 1
  193.5084 0.06 1
  194.0123 0.78 11
  194.2998 0.03 0
  195.0130 2.51 35
  195.5290 0.03 0
  196.0157 0.79 11
  196.2885 0.03 0
  196.5073 0.03 0
  197.0265 2.83 39
  197.2844 0.05 1
  197.8318 0.04 1
  198.0556 0.29 4
  198.3095 0.03 0
  198.4594 0.04 1
  199.0353 0.95 13
  199.3229 0.02 0
  199.5236 0.03 0
  199.6195 0.02 0
  199.8401 0.04 1
  200.0422 0.12 2
  200.2361 0.02 0
  200.4814 0.02 0
  200.6110 0.01 0
  201.0414 0.23 3
  201.3184 0.04 1
  201.6078 0.03 0
  201.9857 0.43 6
  202.2957 0.02 0
  202.4631 0.01 0
  203.0106 0.59 8
  203.3565 0.04 1
  203.4375 0.02 0
  203.6530 0.03 0
  204.0128 0.29 4
  204.4784 0.03 0
  205.0162 0.64 9
  205.2587 0.03 0
  205.5046 0.02 0
  206.0221 0.57 8
  206.2730 0.01 0
  206.5809 0.02 0
  207.0196 1.11 15
  207.3717 0.02 0
  207.5980 0.03 0
  208.0300 0.68 9
  208.3761 0.04 1
  209.0402 1.93 27
  209.3018 0.06 1
  209.6570 0.07 1
  210.0268 0.53 7
  210.2768 0.02 0
  210.5489 0.04 1
  211.0359 1.48 20
  211.7857 0.08 1
  212.0614 0.38 5
  212.2909 0.02 0
  212.4502 0.02 0
  212.6384 0.01 0
  213.0473 0.56 8
  213.3260 0.02 0
  213.4356 0.01 0
  213.7971 0.02 0
  214.0600 0.08 1
  214.4160 0.03 0
  215.0192 0.44 6
  215.3720 0.02 0
  215.4624 0.01 0
  215.5418 0.01 0
  216.0217 0.32 4
  216.3242 0.04 1
  216.4713 0.01 0
  216.6468 0.01 0
  217.0323 0.50 7
  217.4828 0.02 0
  217.7191 0.02 0
  218.0308 0.26 4
  218.3274 0.04 1
  218.4753 0.05 1
  219.0312 0.74 10
  219.4164 0.02 0
  220.0501 0.42 6
  220.4763 0.02 0
  221.0666 1.02 14
  221.4763 0.02 0
  222.0676 0.32 4
  222.4644 0.01 0
  222.7234 0.05 1
  223.0940 0.85 12
  223.4092 0.04 1
  223.5824 0.02 0
  223.7688 0.01 0
  224.0772 0.15 2
  224.3378 0.03 0
  224.5735 0.02 0
  225.0795 0.61 8
  225.4408 0.05 1
  225.7126 0.02 0
  225.8152 0.02 0
  226.0920 0.20 3
  226.3972 0.04 1
  226.5914 0.01 0
  227.0889 0.24 3
  227.2797 0.05 1
  227.3900 0.02 0
  227.5844 0.02 0
  227.7377 0.02 0
  228.1153 0.15 2
  228.3396 0.02 0
  228.4937 0.01 0
  228.6284 0.01 0
  229.0693 0.41 6
  229.3117 0.02 0
  229.4416 0.01 0
  229.8306 0.02 0
  230.0876 0.21 3
  230.3502 0.01 0
  230.4591 0.01 0
  230.6454 0.02 0
  231.0709 0.51 7
  231.5283 0.02 0
  231.7280 0.02 0
  232.0988 0.15 2
  232.3491 0.02 0
  232.5668 0.01 0
  233.0973 0.56 8
  233.4053 0.02 0
  233.5412 0.01 0
  233.6897 0.03 0
  233.8340 0.01 0
  234.0920 0.26 4
  234.2835 0.03 0
  234.4653 0.03 0
  234.5514 0.02 0
  235.0975 0.64 9
  235.5661 0.05 1
  236.0778 0.23 3
  236.4222 0.04 1
  236.6347 0.02 0
  237.1118 0.59 8
  237.3695 0.04 1
  237.6835 0.04 1
  238.0921 0.18 2
  238.4159 0.01 0
  238.5535 0.01 0
  239.0782 0.40 6
  239.3827 0.02 0
  239.5753 0.01 0
  239.6698 0.01 0
  240.0585 0.10 1
  240.3867 0.02 0
  240.5926 0.02 0
  240.7254 0.03 0
  241.0635 0.15 2
  241.4162 0.01 0
  241.8371 0.03 0
  242.0799 0.16 2
  242.1843 0.10 1
  242.2831 0.03 0
  242.4098 0.02 0
  242.5970 0.01 0
  243.0766 0.31 4
  243.5486 0.01 0
  243.7150 0.01 0
  244.0763 0.18 2
  244.3758 0.03 0
  245.0709 0.39 5
  245.1998 0.20 3
  245.7717 0.04 1
  246.0951 0.25 3
  246.3264 0.02 0
  246.5055 0.01 0
  247.0966 0.64 9
  247.3887 0.01 0
  247.7045 0.01 0
  248.0908 0.13 2
  248.3021 0.03 0
  248.4234 0.02 0
  249.0979 0.85 12
  249.4202 0.01 0
  249.6873 0.03 0
  250.1137 0.22 3
  250.3286 0.02 0
  250.5652 0.04 1
  251.1110 0.59 8
  251.5221 0.01 0
  251.7190 0.03 0
  251.9333 0.07 1
  252.1414 0.13 2
  252.5401 0.03 0
  252.7741 0.01 0
  253.1079 0.26 4
  253.5417 0.01 0
  253.7855 0.01 0
  254.0873 0.07 1
  254.2795 0.02 0
  254.3780 0.01 0
  254.5583 0.02 0
  254.7561 0.05 1
  255.0978 0.21 3
  255.4669 0.01 0
  255.6269 0.02 0
  256.0555 0.14 2
  256.4407 0.02 0
  256.5616 0.02 0
  257.0851 0.28 4
  257.3634 0.01 0
  257.5780 0.03 0
  257.6990 0.01 0
  258.1066 0.11 2
  258.5906 0.02 0
  259.1215 0.32 4
  259.4139 0.03 0
  260.1093 0.14 2
  260.5250 0.01 0
  260.6607 0.02 0
  261.1059 0.38 5
  261.4999 0.04 1
  261.6903 0.01 0
  262.1202 0.11 2
  262.4332 0.02 0
  262.7049 0.03 0
  263.1244 0.54 7
  263.4122 0.02 0
  263.5936 0.05 1
  264.1750 0.22 3
  264.4048 0.03 0
  264.5835 0.02 0
  264.7657 0.02 0
  265.1483 0.39 5
  265.6325 0.01 0
  265.7832 0.02 0
  266.0692 0.06 1
  266.2164 0.09 1
  266.4561 0.03 0
  266.6700 0.02 0
  266.7709 0.01 0
  267.1608 0.16 2
  267.5429 0.02 0
  267.6664 0.02 0
  268.0640 0.09 1
  268.3431 0.01 0
  269.1120 0.17 2
  269.4951 0.01 0
  270.1021 0.11 2
  270.2305 0.04 1
  271.1492 0.21 3
  271.6722 0.02 0
  271.7600 0.01 0
  271.9046 0.01 0
  272.1174 0.12 2
  272.2669 0.03 0
  272.4973 0.02 0
  272.7409 0.02 0
  273.1518 0.20 3
  273.5775 0.02 0
  273.7475 0.01 0
  274.1507 0.09 1
  274.3790 0.03 0
  274.5692 0.01 0
  274.8062 0.02 0
  275.1567 0.27 4
  275.5739 0.01 0
  275.7969 0.02 0
  276.1616 0.11 2
  276.4617 0.01 0
  276.7268 0.03 0
  277.1225 0.18 2
  277.5392 0.02 0
  277.6486 0.02 0
  277.8647 0.03 0
  278.1033 0.11 2
  278.2352 0.04 1
  278.7538 0.02 0
  279.1110 0.16 2
  279.6444 0.01 0
  279.9252 0.02 0
  280.1724 0.07 1
  281.1125 0.09 1
  281.5971 0.02 0
  281.8008 0.02 0
  281.9939 0.02 0
  282.1681 0.05 1
  282.2924 0.03 0
  282.4406 0.02 0
  282.7919 0.02 0
  283.1235 0.15 2
  283.3216 0.04 1
  283.6329 0.01 0
  284.1241 0.08 1
  284.4698 0.01 0
  284.6667 0.02 0
  285.1116 0.18 2
  285.6107 0.01 0
  286.1000 0.07 1
  286.2842 0.01 0
  286.5655 0.04 1
  286.6682 0.01 0
  286.8264 0.02 0
  287.1225 0.22 3
  287.5466 0.03 0
  288.0495 0.06 1
  288.2451 0.05 1
  288.5504 0.01 0
  288.7959 0.01 0
  289.1674 0.20 3
  289.5228 0.01 0
  289.7219 0.03 0
  289.9000 0.02 0
  290.2103 0.06 1
  290.7037 0.02 0
  291.1230 0.19 3
  291.5887 0.01 0
  291.6899 0.02 0
  291.9228 0.04 1
  292.2753 0.04 1
  292.5131 0.01 0
  292.7305 0.01 0
  293.1548 0.08 1
  293.7270 0.02 0
  294.0452 0.07 1
  294.2028 0.03 0
  294.3676 0.03 0
  294.5815 0.01 0
  294.8842 0.02 0
  295.1314 0.10 1
  295.3574 0.01 0
  295.7390 0.02 0
  296.0960 0.04 1
  296.3559 0.03 0
  296.5637 0.02 0
  296.7038 0.01 0
  296.9426 0.06 1
  297.1687 0.10 1
  297.4272 0.02 0
  297.7012 0.01 0
  298.1281 0.15 2
  298.3973 0.01 0
  298.8264 0.05 1
  299.1378 0.20 3
  300.0660 0.13 2
  300.2295 0.03 0
  300.5334 0.02 0
  300.6165 0.01 0
  301.1269 0.13 2
  301.3610 0.02 0
  301.6028 0.01 0
  302.1295 0.05 1
  302.7868 0.01 0
  303.1331 0.13 2
  304.1919 0.04 1
  304.4219 0.01 0
  304.5305 0.02 0
  304.6046 0.01 0
  304.7556 0.01 0
  304.9016 0.02 0
  305.1599 0.12 2
  305.8514 0.02 0
  306.1613 0.03 0
  306.4069 0.01 0
  307.0012 0.04 1
  307.2539 0.05 1
  307.8604 0.01 0
  308.2134 0.04 1
  308.7070 0.02 0
  308.9803 0.03 0
  309.0862 0.03 0
  309.3164 0.04 1
  309.5057 0.01 0
  309.7967 0.02 0
  310.0291 0.05 1
  310.2403 0.04 1
  310.5913 0.02 0
  310.7517 0.01 0
  310.9156 0.02 0
  311.1487 0.18 2
  311.4306 0.01 0
  311.5748 0.01 0
  311.8398 0.01 0
  312.1132 0.06 1
  312.5012 0.04 1
  312.7810 0.02 0
  313.1811 0.17 2
  313.3047 0.07 1
  313.4178 0.02 0
  313.8186 0.01 0
  314.1311 0.05 1
  314.4160 0.02 0
  314.5581 0.03 0
  314.8112 0.01 0
  315.0997 0.08 1
  315.3288 0.03 0
  315.5657 0.02 0
  315.6512 0.01 0
  316.1470 0.14 2
  316.2396 0.07 1
  316.4581 0.02 0
  317.1407 0.11 2
  317.3338 0.05 1
  317.6592 0.01 0
  317.9464 0.01 0
  318.1552 0.05 1
  318.7148 0.01 0
  318.8903 0.01 0
  319.0573 0.05 1
  319.2179 0.05 1
  319.3927 0.02 0
  319.8138 0.01 0
  320.1500 0.04 1
  320.5484 0.01 0
  320.9873 0.03 0
  321.1147 0.02 0
  321.2761 0.02 0
  321.4503 0.01 0
  321.9182 0.01 0
  322.1137 0.03 0
  322.2687 0.02 0
  322.5074 0.01 0
  323.1142 0.10 1
  323.3323 0.02 0
  323.9789 0.06 1
  324.1468 0.05 1
  324.6016 0.01 0
  324.8098 0.02 0
  325.1541 0.06 1
  325.4878 0.01 0
  326.1382 0.06 1
  326.4160 0.02 0
  326.6017 0.02 0
  326.9843 0.02 0
  327.2231 0.10 1
  327.7795 0.03 0
  328.1126 0.08 1
  328.2983 0.03 0
  328.4855 0.02 0
  329.1951 0.18 2
  329.5787 0.01 0
  329.9814 0.02 0
  330.2112 0.06 1
  330.9600 0.02 0
  331.2195 0.08 1
  331.5281 0.01 0
  332.1671 0.04 1
  332.9177 0.02 0
  333.2220 0.07 1
  333.4292 0.01 0
  333.7116 0.01 0
  333.9216 0.01 0
  334.1877 0.02 0
  334.3495 0.03 0
  334.7725 0.02 0
  334.8901 0.02 0
  335.2307 0.06 1
  335.6330 0.01 0
  336.0870 0.06 1
  336.2315 0.03 0
  336.8662 0.01 0
  337.2580 0.09 1
  337.5003 0.02 0
  337.8361 0.01 0
  338.1755 0.07 1
  338.5603 0.01 0
  338.9018 0.03 0
  339.1201 0.06 1
  339.2051 0.03 0
  339.3164 0.02 0
  339.4015 0.01 0
  339.6155 0.01 0
  340.1343 0.07 1
  341.1359 0.09 1
  341.3146 0.04 1
  341.6109 0.02 0
  341.7329 0.01 0
  342.1186 0.08 1
  342.3391 0.04 1
  342.6390 0.02 0
  342.8192 0.02 0
  343.1914 0.14 2
  343.6411 0.02 0
  343.9305 0.01 0
  344.1971 0.11 2
  344.3766 0.06 1
  344.4752 0.01 0
  344.8830 0.02 0
  345.2299 0.09 1
  345.3427 0.04 1
  345.4669 0.02 0
  345.9223 0.01 0
  346.1472 0.04 1
  346.3005 0.04 1
  346.4310 0.02 0
  347.2279 0.07 1
  347.7743 0.01 0
  348.2186 0.02 0
  348.5331 0.02 0
  348.9937 0.02 0
  349.3046 0.04 1
  350.1153 0.02 0
  351.2101 0.01 0
  351.4289 0.02 0
  351.6312 0.03 0
  351.8663 0.01 0
  352.3748 0.03 0
  352.5587 0.01 0
  352.9429 0.02 0
  353.0644 0.03 0
  353.2505 0.07 1
  353.4181 0.03 0
  353.6397 0.01 0
  353.9558 0.02 0
  354.2137 0.04 1
  354.4638 0.02 0
  354.7366 0.02 0
  354.9227 0.03 0
  355.1977 0.06 1
  355.3746 0.02 0
  355.6183 0.03 0
  356.1598 0.07 1
  356.2728 0.05 1
  356.4853 0.01 0
  356.6835 0.02 0
  357.2173 0.15 2
  357.7979 0.03 0
  358.2543 0.03 0
  359.2865 0.07 1
  359.7664 0.01 0
  360.0870 0.03 0
  360.3323 0.02 0
  360.7469 0.01 0
  360.8848 0.01 0
  361.1238 0.03 0
  361.2248 0.03 0
  361.3542 0.03 0
  361.9351 0.01 0
  362.0523 0.01 0
  362.3238 0.01 0
  363.1865 0.06 1
  364.0373 0.02 0
  364.2463 0.02 0
  364.5228 0.01 0
  365.2365 0.05 1
  366.0086 0.02 0
  366.3194 0.02 0
  367.0610 0.03 0
  367.3213 0.02 0
  367.7224 0.02 0
  367.9763 0.01 0
  368.2480 0.03 0
  369.0211 0.03 0
  369.2822 0.07 1
  369.4543 0.01 0
  369.9466 0.01 0
  370.2475 0.06 1
  370.4723 0.01 0
  371.2443 0.19 3
  371.5275 0.03 0
  371.7530 0.02 0
  372.2284 0.20 3
  372.5678 0.01 0
  372.7714 0.01 0
  373.2717 0.03 0
  373.6873 0.02 0
  373.9272 0.01 0
  374.1464 0.03 0
  375.2256 0.03 0
  375.3580 0.03 0
  375.7154 0.01 0
  375.8464 0.02 0
  376.0059 0.01 0
  376.1929 0.02 0
  376.6854 0.01 0
  377.1950 0.09 1
  377.8404 0.01 0
  378.1212 0.02 0
  378.4539 0.02 0
  378.5811 0.02 0
  378.8200 0.02 0
  379.2437 0.15 2
  379.6390 0.01 0
  379.7257 0.01 0
  380.2512 0.02 0
  380.4630 0.01 0
  380.6636 0.01 0
  380.8826 0.02 0
  380.9821 0.01 0
  381.1165 0.01 0
  381.3661 0.01 0
  381.5475 0.02 0
  381.6570 0.03 0
  381.7715 0.01 0
  382.1299 0.02 0
  382.3540 0.03 0
  382.4984 0.07 1
  382.6349 0.04 1
  382.7935 0.03 0
  383.2246 0.11 2
  383.7069 0.05 1
  383.8349 0.02 0
  383.9551 0.04 1
  384.2930 0.11 2
  384.4766 0.05 1
  384.6744 0.01 0
  384.8380 0.01 0
  385.2734 0.12 2
  385.6164 0.01 0
  386.0639 0.07 1
  386.2717 0.08 1
  386.4489 0.04 1
  386.7129 0.01 0
  386.8694 0.02 0
  387.2566 0.09 1
  387.4772 0.01 0
  387.8487 0.01 0
  388.0637 0.02 0
  388.3334 0.03 0
  388.4815 0.05 1
  388.7192 0.02 0
  389.2225 0.08 1
  389.4560 0.03 0
  389.9222 0.01 0
  390.0440 0.01 0
  390.3330 0.02 0
  390.5103 0.01 0
  391.1026 0.04 1
  391.2586 0.03 0
  391.6965 0.02 0
  391.9129 0.02 0
  392.1750 0.03 0
  392.2996 0.02 0
  393.2389 0.02 0
  393.5202 0.01 0
  394.1135 0.01 0
  394.2823 0.03 0
  394.3878 0.01 0
  394.7154 0.01 0
  395.0010 0.02 0
  395.1592 0.03 0
  395.2539 0.02 0
  395.9186 0.01 0
  396.1836 0.01 0
  396.3973 0.02 0
  396.8804 0.02 0
  397.0970 0.02 0
  397.2687 0.03 0
  397.3827 0.02 0
  397.9328 0.03 0
  398.2499 0.07 1
  398.6133 0.01 0
  399.0787 0.04 1
  399.3139 0.05 1
  399.6111 0.01 0
  399.8513 0.01 0
  400.0009 0.02 0
  400.1884 0.04 1
  400.2939 0.02 0
  400.4300 0.02 0
  401.3403 0.07 1
  401.7431 0.02 0
  402.2343 0.04 1
  402.3590 0.02 0
  402.4859 0.01 0
  402.7005 0.03 0
  403.0385 0.01 0
  403.3750 0.08 1
  403.9326 0.01 0
  404.2449 0.03 0
  404.5067 0.02 0
  404.7106 0.02 0
  404.8133 0.02 0
  405.0993 0.02 0
  405.7375 0.03 0
  405.9023 0.01 0
  406.1676 0.01 0
  406.4008 0.01 0
  406.7047 0.02 0
  407.2540 0.03 0
  408.3117 0.02 0
  408.5652 0.01 0
  409.3527 0.02 0
  409.7372 0.01 0
  410.0768 0.02 0
  410.3011 0.03 0
  410.4471 0.02 0
  410.8665 0.01 0
  411.3444 0.07 1
  412.2874 0.03 0
  412.4441 0.01 0
  412.8408 0.01 0
  413.3138 0.11 2
  413.4534 0.05 1
  413.5674 0.02 0
  414.3852 0.05 1
  414.7742 0.01 0
  415.0442 0.03 0
  415.2601 0.06 1
  415.4966 0.02 0
  415.6797 0.02 0
  415.8386 0.01 0
  416.1350 0.03 0
  416.4143 0.02 0
  416.5547 0.02 0
  417.1526 0.04 1
  417.4633 0.04 1
  417.6143 0.02 0
  417.8460 0.03 0
  418.0569 0.01 0
  418.3085 0.01 0
  418.4546 0.01 0
  418.8516 0.01 0
  418.9849 0.01 0
  419.1787 0.01 0
  421.2303 0.01 0
  421.3336 0.02 0
  421.6887 0.01 0
  422.2633 0.02 0
  422.3589 0.01 0
  422.4944 0.01 0
  422.7788 0.02 0
  422.9443 0.01 0
  424.2563 0.11 2
  424.4168 0.08 1
  424.5715 0.01 0
  425.1641 0.04 1
  425.3450 0.04 1
  425.7368 0.02 0
  425.9441 0.01 0
  426.2675 0.05 1
  427.2898 0.08 1
  427.4772 0.07 1
  427.8498 0.02 0
  428.2873 0.10 1
  428.4647 0.03 0
  428.5531 0.01 0
  428.7718 0.01 0
  429.3533 0.14 2
  429.5435 0.05 1
  429.7588 0.02 0
  429.9170 0.03 0
  430.3282 0.12 2
  430.4935 0.04 1
  430.8092 0.01 0
  431.0715 0.02 0
  431.3081 0.09 1
  431.5576 0.02 0
  431.8512 0.01 0
  432.3145 0.06 1
  432.4485 0.03 0
  432.7358 0.01 0
  432.9896 0.02 0
  433.2220 0.07 1
  433.4223 0.02 0
  433.6711 0.02 0
  433.9562 0.01 0
  434.2499 0.02 0
  435.0727 0.01 0
  436.2149 0.03 0
  437.3395 0.03 0
  437.5063 0.02 0
  437.6533 0.01 0
  438.1575 0.04 1
  438.4941 0.01 0
  438.7558 0.01 0
  438.9456 0.01 0
  439.2230 0.02 0
  439.4377 0.03 0
  439.7801 0.02 0
  440.2123 0.06 1
  440.3593 0.08 1
  440.4620 0.02 0
  440.7452 0.02 0
  441.3237 0.03 0
  441.6148 0.02 0
  441.8417 0.01 0
  441.9936 0.02 0
  442.3118 0.04 1
  442.5344 0.02 0
  442.9069 0.02 0
  443.3114 0.07 1
  443.4020 0.03 0
  443.4798 0.02 0
  443.6824 0.02 0
  443.8244 0.03 0
  444.0414 0.09 1
  444.3168 0.14 2
  444.6236 0.03 0
  444.7771 0.03 0
  445.2859 2.43 34
  445.6884 0.06 1
  445.9460 0.06 1
  446.2679 0.10 1
  446.4841 0.05 1
  446.8767 0.02 0
  447.0744 0.04 1
  447.1443 0.02 0
  447.4027 0.05 1
  447.5940 0.03 0
  447.8967 0.02 0
  448.1544 0.02 0
  448.4063 0.02 0
  448.9710 0.02 0
  449.2344 0.05 1
  449.4714 0.03 0
  450.0133 0.03 0
  450.1832 0.03 0
  450.3738 0.02 0
  450.5673 0.03 0
  450.6687 0.01 0
  451.3341 0.02 0
  451.4584 0.01 0
  452.3245 0.05 1
  452.5945 0.02 0
  452.8437 0.01 0
  453.1158 0.02 0
  453.3307 0.09 1
  454.0491 0.03 0
  454.2898 0.05 1
  454.4384 0.04 1
  454.9505 0.02 0
  455.1433 0.02 0
  455.2890 0.04 1
  455.3790 0.02 0
  455.4897 0.01 0
  456.0047 0.01 0
  456.5012 0.02 0
  456.7104 0.01 0
  456.8562 0.01 0
  457.0819 0.03 0
  457.5020 0.01 0
  457.6327 0.01 0
  457.7477 0.01 0
  457.9713 0.01 0
  458.2871 0.04 1
  458.5386 0.04 1
  458.7643 0.01 0
  459.2180 0.08 1
  459.3860 0.12 2
  459.6089 0.02 0
  460.2191 0.02 0
  460.3904 0.01 0
  460.5309 0.01 0
  460.7585 0.01 0
  461.3713 0.02 0
  461.6652 0.03 0
  462.3273 0.03 0
  462.6462 0.02 0
  463.1599 0.03 0
  463.4875 0.02 0
  463.6002 0.01 0
  463.8592 0.01 0
  464.4764 0.03 0
  465.2200 0.01 0
  465.3620 0.03 0
  465.5376 0.02 0
  465.8701 0.01 0
  466.0735 0.02 0
  466.2727 0.05 1
  466.4661 0.02 0
  466.6716 0.03 0
  466.7608 0.02 0
  467.1077 0.01 0
  467.3097 0.05 1
  467.6088 0.01 0
  468.0170 0.04 1
  468.1227 0.03 0
  468.3589 0.04 1
  468.5381 0.02 0
  469.0363 0.04 1
  469.2926 0.04 1
  469.5732 0.02 0
  469.9630 0.02 0
  470.2778 0.03 0
  470.5612 0.03 0
  470.9760 0.01 0
  471.3201 0.06 1
  471.4744 0.03 0
  471.8064 0.04 1
  472.2105 0.02 0
  472.4240 0.03 0
  472.6896 0.01 0
  473.0623 0.02 0
  473.3101 0.02 0
  473.4944 0.02 0
  473.8950 0.01 0
  474.0556 0.02 0
  474.3634 0.01 0
  475.1461 0.02 0
  475.4068 0.02 0
  475.9525 0.03 0
  476.0768 0.04 1
  476.3096 0.11 2
  476.5474 0.06 1
  476.9146 0.01 0
  477.3839 0.02 0
  477.5503 0.01 0
  478.1475 0.02 0
  478.2646 0.01 0
  478.4575 0.02 0
  478.6418 0.02 0
  478.8246 0.01 0
  479.1025 0.02 0
  479.2704 0.04 1
  479.5626 0.06 1
  479.7641 0.01 0
  480.2435 0.07 1
  480.5507 0.04 1
  480.6793 0.03 0
  481.4281 0.26 4
  481.6760 0.05 1
  481.8689 0.02 0
  482.1012 0.01 0
  482.3134 0.04 1
  482.4477 0.04 1
  482.7643 0.02 0
  482.8743 0.02 0
  482.9922 0.01 0
  483.3981 0.03 0
  483.6339 0.01 0
  483.9934 0.03 0
  484.1178 0.03 0
  484.4136 0.02 0
  484.7388 0.01 0
  484.9732 0.01 0
  485.5693 0.02 0
  485.8723 0.01 0
  486.0281 0.01 0
  486.2426 0.01 0
  486.5814 0.02 0
  487.4420 0.02 0
  487.7944 0.03 0
  488.3679 0.32 4
  488.5855 0.17 2
  488.6940 0.05 1
  488.9402 0.03 0
  489.0622 0.04 1
  489.3676 0.03 0
  489.6352 0.02 0
  489.9571 0.06 1
  490.4216 0.52 7
  490.8270 0.02 0
  491.0482 0.05 1
  491.1610 0.03 0
  491.4301 0.02 0
  491.7391 0.02 0
  492.1852 0.05 1
  492.3730 0.03 0
  492.9932 0.05 1
  493.2945 0.05 1
  493.4958 0.05 1
  493.8727 0.02 0
  494.0090 0.05 1
  494.3366 0.03 0
  494.6129 0.03 0
  494.9849 0.02 0
  495.4082 0.05 1
  495.6045 0.02 0
  496.2949 0.05 1
  496.5276 0.02 0
  496.6583 0.02 0
  496.9939 0.03 0
  497.2295 0.05 1
  497.4173 0.04 1
  497.7236 0.02 0
  498.4227 0.08 1
  499.1824 0.02 0
  499.4567 0.03 0
  499.5709 0.02 0
  500.1772 0.03 0
  500.4914 0.02 0
  500.9828 0.02 0
  501.3213 0.02 0
  501.5013 0.05 1
  502.3298 0.06 1
  502.8469 0.01 0
  503.0576 0.01 0
  503.4469 0.19 3
  503.6183 0.09 1
  503.7776 0.01 0
  503.9176 0.03 0
  504.0941 0.01 0
  504.3941 0.02 0
  504.5627 0.01 0
  504.8027 0.04 1
  505.0534 0.01 0
  505.4278 0.04 1
  505.8171 0.06 1
  506.0965 0.04 1
  506.2136 0.05 1
  506.5201 0.04 1
  506.6602 0.03 0
  507.1210 0.03 0
  507.3482 0.07 1
  507.4954 0.06 1
  507.5990 0.03 0
  507.7397 0.02 0
  508.2978 0.08 1
  508.5678 0.10 1
  508.8036 0.04 1
  509.4218 1.18 16
  509.9784 0.05 1
  510.2028 0.02 0
  510.4136 0.08 1
  510.5594 0.08 1
  510.7902 0.03 0
  511.0689 0.03 0
  511.2462 0.04 1
  511.5799 0.06 1
  511.9351 0.03 0
  512.3317 0.11 2
  512.5812 0.03 0
  513.0150 0.01 0
  513.3939 0.10 1
  513.5847 0.06 1
  513.8141 0.02 0
  514.2344 0.03 0
  514.3630 0.05 1
  514.4803 0.07 1
  514.6346 0.02 0
  515.0292 0.02 0
  516.1243 0.01 0
  516.3376 0.02 0
  516.6880 0.02 0
  517.0397 0.03 0
  517.4907 0.01 0
  517.7447 0.01 0
  517.9880 0.01 0
  519.0270 0.01 0
  519.5743 0.02 0
  520.1238 0.02 0
  520.3829 0.02 0
  520.5028 0.03 0
  520.6006 0.02 0
  521.0602 0.03 0
  521.2729 0.05 1
  521.4206 0.02 0
  521.5705 0.03 0
  521.7418 0.01 0
  522.4827 0.41 6
  523.4319 0.65 9
  523.8017 0.02 0
  523.9958 0.03 0
  524.1151 0.03 0
  524.3107 0.04 1
  524.5505 0.06 1
  524.9388 0.01 0
  525.1837 0.01 0
  525.4964 0.02 0
  526.1396 0.04 1
  526.3987 0.09 1
  526.5779 0.07 1
  526.7107 0.02 0
  527.2405 0.03 0
  527.4332 0.05 1
  527.5646 0.02 0
  527.7731 0.03 0
  528.0944 0.02 0
  528.4156 0.05 1
  528.6070 0.01 0
  528.8898 0.02 0
  529.1440 0.02 0
  529.8430 0.01 0
  530.1251 0.02 0
  530.3864 0.01 0
  530.5564 0.01 0
  530.6913 0.01 0
  531.2248 0.01 0
  531.5154 0.01 0
  532.4931 0.01 0
  532.7238 0.02 0
  533.3651 0.02 0
  534.4421 0.02 0
  534.7843 0.02 0
  535.0079 0.04 1
  535.4865 0.09 1
  535.6700 0.06 1
  535.8314 0.04 1
  535.9057 0.01 0
  536.2465 0.01 0
  536.4379 0.03 0
  536.7958 0.01 0
  536.9679 0.02 0
  537.1151 0.02 0
  537.2701 0.02 0
  537.5859 0.01 0
  538.3716 0.11 2
  538.5646 0.05 1
  538.7711 0.01 0
  539.1368 0.07 1
  539.3690 0.06 1
  539.5690 0.04 1
  539.8113 0.03 0
  539.9091 0.02 0
  540.1177 0.03 0
  540.6093 0.03 0
  540.7801 0.02 0
  541.0037 0.03 0
  541.2681 0.04 1
  541.5361 0.01 0
  541.7604 0.01 0
  542.0448 0.04 1
  542.2949 0.01 0
  542.4342 0.03 0
  542.5600 0.01 0
  542.7815 0.04 1
  543.0831 0.05 1
  543.5197 0.04 1
  543.6998 0.03 0
  543.8970 0.03 0
  544.0607 0.03 0
  544.2486 0.05 1
  544.5666 0.03 0
  544.8439 0.03 0
  544.9411 0.02 0
  545.1920 0.02 0
  545.3806 0.03 0
  545.5314 0.02 0
  545.7315 0.02 0
  546.1103 0.06 1
  546.3090 0.03 0
  546.4655 0.02 0
  546.6313 0.02 0
  547.0409 0.04 1
  547.3339 0.02 0
  547.6635 0.04 1
  547.9250 0.05 1
  548.2589 0.04 1
  548.5433 0.02 0
  548.7485 0.03 0
  549.2831 0.06 1
  549.6992 0.05 1
  549.8322 0.03 0
  550.5356 0.33 5
  550.8179 0.07 1
  551.1060 0.01 0
  551.4435 0.07 1
  551.5908 0.05 1
  551.8002 0.01 0
  552.0576 0.02 0
  552.4358 0.23 3
  552.6967 0.09 1
  552.8362 0.02 0
  553.1078 0.03 0
  553.3159 0.02 0
  553.5518 0.03 0
  553.8300 0.03 0
  554.0623 0.04 1
  554.2390 0.09 1
  554.4935 0.05 1
  554.7216 0.04 1
  554.8868 0.01 0
  555.0884 0.02 0
  555.3058 0.01 0
  555.5560 0.04 1
  555.7255 0.01 0
  555.9293 0.01 0
  556.3276 0.02 0
  556.6394 0.02 0
  556.9040 0.01 0
  557.1314 0.03 0
  557.5755 0.04 1
  557.7578 0.02 0
  557.9796 0.03 0
  558.4701 0.01 0
  558.7030 0.02 0
  558.8935 0.02 0
  559.0668 0.01 0
  559.1995 0.01 0
  559.5084 0.01 0
  559.6504 0.01 0
  559.8359 0.04 1
  560.0999 0.01 0
  560.5001 0.06 1
  560.6434 0.05 1
  560.7540 0.03 0
  560.9652 0.06 1
  561.1343 0.03 0
  561.4354 0.05 1
  561.7379 0.04 1
  562.0389 0.07 1
  562.4378 0.10 1
  562.9187 0.08 1
  563.3553 0.07 1
  563.8220 0.07 1
  564.5499 0.70 10
  564.7489 0.36 5
  564.9380 0.08 1
  565.5567 0.18 2
  565.8664 0.13 2
  566.4987 0.23 3
  566.7435 0.08 1
  567.4978 0.73 10
  567.7490 0.26 4
  568.4969 0.17 2
  568.7567 0.06 1
  569.0515 0.08 1
  569.4269 0.13 2
  569.6860 0.09 1
  570.2120 0.10 1
  570.5689 0.10 1
  571.0822 0.11 2
  571.5568 0.09 1
  571.7945 0.08 1
  572.1964 0.13 2
  572.4055 0.12 2
  572.5911 0.09 1
  572.8924 0.09 1
  573.1979 0.15 2
  573.5006 0.14 2
  573.8618 0.14 2
  575.2661 0.19 3
  575.5245 0.21 3
  575.8094 0.19 3
  576.4534 0.25 3
  577.0403 0.29 4
  582.4973 99.97 999
  583.1386 9.39 130
  583.8684 3.70 51
  584.7266 1.85 26
  585.5349 0.99 14
  585.9166 0.65 9
//
