ACCESSION: MSBNK-Kyoto_Univ-CA000164
RECORD_TITLE: zeta-Carotene; FAB-EBEB; MS2; m/z: 540.47; [M]*+
DATE: 2016.01.19 (Created 2007.03.15, modified 2011.05.10)
AUTHORS: Akimoto N, Graduate School of Pharmaceutical Sciences, Kyoto University and Maoka T, Research Institute for Production Development
LICENSE: CC BY-SA
COMMENT: Profile spectrum of this record is given as a JPEG file.
COMMENT: [Profile] CA000164.jpg
CH$NAME: zeta-Carotene
CH$COMPOUND_CLASS: Natural Product; Carotenoid
CH$FORMULA: C40H60
CH$EXACT_MASS: 540.46950
CH$SMILES: C(C)(C)=CCCC(C)=CCCC(=CC=CC(=CC=CC=C(C=CC=C(CCC=C(C)CCC=C(C)C)C)C)C)C
CH$IUPAC: InChI=1S/C40H60/c1-33(2)19-13-23-37(7)27-17-31-39(9)29-15-25-35(5)21-11-12-22-36(6)26-16-30-40(10)32-18-28-38(8)24-14-20-34(3)4/h11-12,15-16,19-22,25-30H,13-14,17-18,23-24,31-32H2,1-10H3/b12-11+,25-15+,26-16+,35-21+,36-22+,37-27+,38-28+,39-29+,40-30+
CH$LINK: CHEBI CHEBI:28068
CH$LINK: CHEMSPIDER 4444346
CH$LINK: KEGG C05430
CH$LINK: PUBCHEM CID:5280788
CH$LINK: INCHIKEY BIWLELKAFXRPDE-WTXAYMOSSA-N
AC$INSTRUMENT: JMS-HX/HX 110A, JEOL
AC$INSTRUMENT_TYPE: FAB-EBEB
AC$MASS_SPECTROMETRY: MS_TYPE MS2
AC$MASS_SPECTROMETRY: ION_MODE POSITIVE
AC$MASS_SPECTROMETRY: ATOM_GUN_CURRENT 5 mA
AC$MASS_SPECTROMETRY: BOMBARDMENT 6 kV xenon
AC$MASS_SPECTROMETRY: COLLISION_ENERGY 3 kV
AC$MASS_SPECTROMETRY: COLLISION_GAS Ar
AC$MASS_SPECTROMETRY: GAS_PRESSURE adjust to attenuate the intensity of the precursor ion by 30 %
AC$MASS_SPECTROMETRY: IONIZATION FAB
AC$MASS_SPECTROMETRY: MATRIX 1-2 uL m-NBA
AC$MASS_SPECTROMETRY: PROBE_TIP stainless-steel
MS$FOCUSED_ION: BASE_PEAK 540.4600
MS$FOCUSED_ION: PRECURSOR_M/Z 540.47
MS$FOCUSED_ION: PRECURSOR_TYPE [M]+*
PK$SPLASH: splash10-0006-1920050000-b95beee885eb232ab62f
PK$NUM_PEAK: 964
PK$PEAK: m/z int. rel.int.
  1.1644 0.01 0
  2.9721 0.03 0
  12.9608 0.07 1
  13.9745 0.08 1
  14.9705 0.10 1
  20.0177 0.01 0
  21.5365 0.02 0
  22.9030 0.01 0
  24.9452 0.08 1
  25.7126 0.01 0
  25.9388 0.22 2
  26.9425 0.73 7
  27.9432 0.17 2
  28.9560 0.82 8
  36.9075 0.11 1
  36.9707 0.05 0
  37.9090 0.18 2
  37.9755 0.08 1
  38.9311 0.84 8
  39.9224 0.07 1
  40.9525 1.48 15
  41.8600 0.03 0
  42.9778 0.43 4
  48.8110 0.08 1
  48.9301 0.05 0
  49.9585 0.10 1
  50.7893 0.05 0
  50.9377 0.17 2
  51.9704 0.10 1
  52.7747 0.02 0
  52.9490 0.21 2
  53.9716 0.02 0
  54.9726 0.84 8
  58.4843 0.10 1
  58.8216 0.01 0
  61.7565 0.10 1
  61.9501 0.12 1
  62.9229 0.18 2
  63.7932 0.05 0
  63.9265 0.07 1
  64.1906 0.10 1
  64.9218 0.28 3
  65.9504 0.02 0
  66.0533 0.05 0
  66.7401 0.01 0
  66.9556 0.65 6
  67.9576 0.05 0
  68.5415 0.13 1
  68.9702 10.86 109
  69.9983 0.05 0
  70.9752 0.08 1
  72.4872 0.12 1
  73.5821 0.01 0
  73.7710 0.06 1
  74.7034 0.08 1
  74.7720 0.02 0
  74.9396 0.07 1
  75.8919 0.11 1
  76.9243 1.52 15
  77.5247 0.04 0
  77.8046 0.06 1
  77.9393 0.28 3
  78.6487 0.06 1
  78.9367 1.83 18
  79.6164 0.07 1
  79.7089 0.07 1
  79.7730 0.02 0
  79.9441 0.20 2
  80.5492 0.07 1
  80.7352 0.12 1
  80.9633 6.03 60
  81.9601 0.12 1
  82.9567 0.51 5
  85.1208 0.02 0
  86.9189 0.05 0
  87.7834 0.04 0
  87.9512 0.08 1
  88.6815 0.08 1
  88.8651 0.18 2
  89.0853 0.03 0
  89.4387 0.01 0
  89.5872 0.11 1
  89.9524 0.18 2
  90.3230 0.08 1
  90.9151 5.45 54
  91.7346 0.05 0
  91.9253 0.44 4
  92.3872 0.07 1
  92.5677 0.02 0
  92.9473 4.55 45
  93.2361 0.08 1
  93.9642 0.22 2
  94.5606 0.07 1
  94.9705 4.51 45
  98.7493 0.05 0
  99.9023 0.06 1
  100.6686 0.04 0
  100.8824 0.10 1
  101.0390 0.05 0
  101.7854 0.15 1
  101.9422 0.33 3
  102.1671 0.11 1
  102.8997 1.42 14
  103.1572 0.05 0
  103.3808 0.06 1
  103.5980 0.03 0
  103.6961 0.19 2
  103.7859 0.09 1
  103.9539 0.57 6
  104.1514 0.08 1
  104.3060 0.03 0
  104.9436 10.86 109
  105.1285 0.12 1
  105.1897 0.06 1
  105.4257 0.01 0
  105.7425 0.12 1
  105.9654 1.06 11
  106.6463 0.18 2
  106.9609 5.70 57
  107.1547 0.16 2
  107.3911 0.01 0
  107.7467 0.10 1
  107.8406 0.09 1
  107.9721 0.34 3
  108.9792 2.06 21
  109.1583 0.13 1
  109.2855 0.03 0
  110.0625 0.03 0
  110.6638 0.04 0
  110.9661 0.02 0
  111.4170 0.02 0
  112.4521 0.05 0
  112.5591 0.02 0
  112.7231 0.07 1
  112.8777 0.23 2
  113.1906 0.13 1
  113.5251 0.06 1
  113.6049 0.05 0
  113.8925 0.20 2
  114.0736 0.17 2
  114.3161 0.03 0
  114.8862 3.64 36
  115.1343 0.05 0
  115.4166 0.03 0
  115.8908 1.11 11
  116.0987 0.28 3
  116.2397 0.05 0
  116.5446 0.12 1
  116.9065 4.71 47
  117.3684 0.11 1
  117.6337 0.08 1
  117.9212 0.79 8
  118.4102 0.10 1
  118.9331 9.88 99
  119.1473 0.09 1
  119.9399 2.88 29
  120.2517 0.02 0
  120.4489 0.15 1
  120.6798 0.13 1
  120.9625 5.14 51
  121.1568 0.20 2
  121.9846 0.21 2
  122.9599 0.82 8
  123.9128 0.09 1
  124.6275 0.04 0
  124.8863 0.14 1
  125.4028 0.14 1
  125.8452 0.27 3
  126.6131 0.15 1
  126.8803 1.71 17
  127.1792 0.18 2
  127.2980 0.16 2
  127.8634 5.01 50
  128.2209 0.14 1
  128.5409 0.10 1
  128.8926 6.40 64
  129.1351 0.11 1
  129.3253 0.03 0
  129.6098 0.07 1
  129.9066 2.64 26
  130.1390 0.05 0
  130.4756 0.03 0
  130.9140 9.01 90
  131.1338 0.14 1
  131.9175 3.88 39
  132.1401 0.10 1
  132.3920 0.09 1
  132.9333 13.86 139
  133.3748 0.13 1
  133.5753 0.15 1
  133.7299 0.18 2
  133.9605 0.93 9
  134.7491 0.02 0
  134.9597 1.63 16
  135.7669 0.02 0
  136.0605 0.11 1
  136.1965 0.11 1
  136.3093 0.06 1
  136.7245 0.07 1
  136.9539 1.30 13
  137.0834 0.17 2
  137.2380 0.03 0
  137.8832 0.13 1
  138.8436 0.33 3
  139.4148 0.05 0
  139.7790 0.11 1
  139.9439 0.09 1
  140.1150 0.12 1
  140.2812 0.13 1
  140.4203 0.03 0
  140.8650 3.71 37
  141.1342 0.12 1
  141.2390 0.11 1
  141.3431 0.16 2
  141.8886 3.09 31
  142.1291 0.01 0
  142.9072 7.25 72
  143.1985 0.04 0
  143.2967 0.06 1
  143.4109 0.14 1
  143.8952 2.38 24
  144.1367 0.05 0
  144.3092 0.05 0
  144.9311 14.00 140
  145.1327 0.15 1
  145.2410 0.16 2
  145.3746 0.03 0
  145.6778 0.10 1
  145.9476 2.08 21
  146.1915 0.16 2
  146.5668 0.02 0
  146.7272 0.14 1
  146.9589 2.81 28
  147.2241 0.08 1
  147.6624 0.02 0
  147.9314 0.15 1
  148.1913 0.13 1
  148.4022 0.10 1
  148.6758 0.05 0
  148.7838 0.04 0
  148.9756 0.65 6
  149.2264 0.04 0
  149.3518 0.09 1
  149.5530 0.12 1
  149.9623 0.11 1
  150.2848 0.04 0
  150.6677 0.07 1
  150.9257 0.20 2
  151.1906 0.04 0
  151.3846 0.30 3
  151.6665 0.18 2
  151.9041 1.48 15
  152.1519 0.10 1
  152.4363 0.02 0
  152.7514 0.52 5
  152.9501 1.55 15
  153.6560 0.23 2
  153.9452 0.84 8
  154.4621 0.05 0
  154.9199 3.99 40
  155.4853 0.21 2
  155.5627 0.14 1
  155.6832 0.14 1
  155.9598 3.18 32
  156.1627 0.09 1
  156.4494 0.23 2
  156.9549 7.34 73
  157.1811 0.12 1
  157.3386 0.06 1
  157.4418 0.08 1
  157.5137 0.06 1
  157.7300 0.05 0
  157.9883 1.69 17
  158.2929 0.13 1
  158.4431 0.22 2
  158.9875 6.19 62
  159.4308 0.09 1
  160.0101 0.75 7
  160.2087 0.03 0
  160.6523 0.06 1
  161.0379 1.15 11
  161.8280 0.06 1
  161.9880 0.05 0
  162.8158 0.12 1
  163.0230 0.26 3
  163.2942 0.15 1
  163.5605 0.09 1
  163.7691 0.05 0
  163.9117 0.02 0
  164.0870 0.23 2
  164.2215 0.11 1
  164.3308 0.04 0
  164.9268 2.92 29
  165.2009 0.09 1
  165.7358 0.28 3
  165.9672 0.84 8
  166.2570 0.12 1
  166.4973 0.04 0
  166.9329 2.68 27
  167.2901 0.05 0
  167.5199 0.03 0
  167.7114 0.11 1
  167.9852 1.01 10
  168.9586 4.68 47
  169.7181 0.27 3
  170.0049 1.41 14
  170.2729 0.09 1
  170.4258 0.21 2
  170.7253 0.32 3
  170.9865 4.53 45
  171.3869 0.09 1
  171.6123 0.05 0
  171.9826 1.09 11
  172.9977 2.13 21
  173.8803 0.19 2
  174.0191 0.17 2
  174.5199 0.07 1
  174.7111 0.06 1
  174.8916 0.10 1
  175.0582 0.71 7
  175.3258 0.11 1
  175.6522 0.13 1
  175.8903 0.36 4
  176.1271 0.12 1
  176.4827 0.13 1
  176.5472 0.06 1
  176.8353 0.19 2
  176.9604 0.23 2
  177.2290 0.21 2
  177.5968 0.22 2
  177.9427 1.54 15
  178.1564 0.10 1
  178.3379 0.10 1
  178.4018 0.04 0
  178.6403 0.31 3
  178.9389 2.61 26
  179.2008 0.16 2
  179.7445 0.21 2
  179.9477 1.18 12
  180.1326 0.11 1
  180.4448 0.02 0
  180.9375 3.38 34
  181.2733 0.04 0
  181.4349 0.08 1
  181.5914 0.23 2
  181.9470 1.15 11
  182.1562 0.11 1
  182.9456 3.50 35
  183.9423 1.01 10
  184.4627 0.08 1
  184.9891 3.74 37
  185.2723 0.09 1
  185.3726 0.13 1
  185.5422 0.03 0
  185.7144 0.09 1
  185.9761 0.69 7
  186.5175 0.04 0
  186.7400 0.19 2
  187.0095 1.91 19
  187.7261 0.01 0
  187.9010 0.14 1
  188.0200 0.23 2
  188.4996 0.11 1
  188.9114 0.72 7
  189.6192 0.10 1
  189.7847 0.18 2
  189.9668 0.22 2
  190.4445 0.08 1
  190.5916 0.07 1
  190.9273 0.61 6
  191.0630 0.27 3
  191.1803 0.11 1
  191.4766 0.01 0
  191.9311 0.65 6
  192.7312 0.21 2
  192.9506 1.50 15
  193.6313 0.05 0
  193.7455 0.12 1
  193.9612 1.61 16
  194.6364 0.24 2
  194.9767 4.20 42
  195.6805 0.10 1
  195.9711 1.04 10
  196.3653 0.10 1
  196.5666 0.15 1
  196.9871 3.42 34
  197.3246 0.07 1
  197.6570 0.11 1
  197.7727 0.23 2
  197.9972 1.29 13
  198.6214 0.12 1
  198.9969 2.46 25
  199.3654 0.03 0
  199.5434 0.10 1
  199.7558 0.18 2
  200.0170 0.69 7
  200.8250 0.09 1
  200.9921 0.45 4
  201.1093 0.35 3
  201.4180 0.04 0
  201.6083 0.15 1
  201.7082 0.09 1
  201.9401 0.39 4
  202.0932 0.12 1
  202.2932 0.04 0
  202.4425 0.10 1
  202.5803 0.07 1
  202.8456 0.52 5
  203.0379 0.75 7
  203.5944 0.10 1
  203.7830 0.13 1
  203.9452 0.27 3
  204.7213 0.21 2
  204.9491 0.72 7
  205.1416 0.07 1
  205.2680 0.05 0
  205.7789 0.20 2
  205.9451 0.73 7
  206.0620 0.09 1
  206.6353 0.03 0
  206.7573 0.12 1
  206.9943 1.36 14
  207.5197 0.11 1
  208.0015 0.94 9
  208.1738 0.07 1
  208.9983 2.53 25
  209.2883 0.10 1
  209.7820 0.27 3
  209.9955 1.01 10
  210.3139 0.05 0
  210.4348 0.05 0
  210.7018 0.47 5
  211.0209 3.24 32
  211.7783 0.11 1
  211.9952 0.67 7
  212.7072 0.08 1
  212.8218 0.11 1
  213.0330 0.25 2
  213.5186 0.01 0
  213.7015 0.01 0
  214.0139 0.24 2
  214.4044 0.02 0
  214.9682 0.30 3
  215.9042 0.17 2
  216.2215 0.06 1
  216.7548 0.02 0
  216.9747 0.44 4
  217.0670 0.17 2
  217.2953 0.12 1
  217.9973 0.32 3
  218.1696 0.06 1
  218.9977 0.79 8
  219.3980 0.11 1
  219.5607 0.13 1
  220.0257 0.31 3
  220.4520 0.10 1
  220.6916 0.08 1
  221.0282 1.17 12
  221.2117 0.12 1
  221.3157 0.03 0
  222.0182 0.70 7
  222.2438 0.18 2
  222.6543 0.16 2
  222.7985 0.14 1
  223.0416 1.27 13
  223.5977 0.12 1
  224.0505 0.32 3
  224.2872 0.07 1
  224.4263 0.11 1
  224.6528 0.12 1
  225.0616 1.47 15
  225.7786 0.04 0
  226.0361 0.24 2
  226.4679 0.01 0
  226.7739 0.10 1
  227.0916 0.45 4
  227.7826 0.04 0
  228.0894 0.14 1
  228.5332 0.10 1
  229.0443 0.28 3
  230.0137 0.08 1
  230.2950 0.08 1
  230.5102 0.04 0
  230.7365 0.07 1
  230.8426 0.05 0
  231.0398 0.20 2
  231.1827 0.09 1
  231.2681 0.04 0
  231.3657 0.04 0
  232.0468 0.10 1
  232.7125 0.11 1
  232.8322 0.10 1
  233.0335 0.50 5
  234.0199 0.17 2
  234.4458 0.12 1
  234.6634 0.11 1
  234.7832 0.18 2
  234.8609 0.12 1
  235.0124 0.54 5
  235.1283 0.43 4
  235.4431 0.07 1
  235.5843 0.03 0
  235.8103 0.11 1
  236.0591 0.47 5
  236.5702 0.07 1
  237.0523 0.92 9
  237.6537 0.10 1
  237.7166 0.04 0
  238.0167 0.11 1
  238.1781 0.10 1
  238.8103 0.09 1
  238.9010 0.09 1
  239.0845 0.32 3
  239.1611 0.14 1
  239.9193 0.16 2
  240.0736 0.11 1
  240.1560 0.12 1
  240.8937 0.07 1
  241.0981 0.12 1
  242.0398 0.17 2
  242.2955 0.11 1
  243.0668 0.39 4
  243.2571 0.08 1
  244.0000 0.09 1
  244.1033 0.10 1
  244.4249 0.03 0
  245.0622 0.13 1
  245.1622 0.07 1
  245.9108 0.13 1
  246.1188 0.20 2
  246.3015 0.11 1
  247.0594 0.14 1
  247.5087 0.11 1
  247.9535 0.11 1
  248.0959 0.18 2
  249.0476 0.59 6
  249.3494 0.05 0
  249.8843 0.25 2
  250.0899 0.26 3
  250.5382 0.10 1
  251.0446 2.53 25
  251.3290 0.05 0
  251.5067 0.06 1
  251.6024 0.08 1
  251.7691 0.11 1
  252.0074 0.09 1
  252.7015 0.05 0
  253.0069 0.37 4
  254.0595 0.10 1
  254.2641 0.14 1
  254.7560 0.03 0
  255.0264 0.25 2
  255.1913 0.04 0
  255.4807 0.14 1
  256.1201 0.72 7
  256.9232 0.13 1
  257.0360 0.10 1
  257.1560 0.22 2
  257.4260 0.12 1
  259.1219 0.19 2
  260.1561 0.12 1
  261.0117 0.16 2
  261.8676 0.12 1
  262.0563 0.20 2
  263.0887 0.45 4
  263.5211 0.05 0
  264.0359 0.29 3
  264.1633 0.24 2
  264.5566 0.14 1
  264.6964 0.09 1
  264.8539 0.12 1
  265.1081 1.67 17
  265.3074 0.19 2
  265.4225 0.07 1
  265.5885 0.06 1
  265.7009 0.22 2
  266.1166 4.29 43
  266.3526 0.15 1
  266.4728 0.05 0
  266.5716 0.08 1
  266.9220 0.13 1
  267.0756 0.19 2
  267.1783 0.25 2
  267.8835 0.06 1
  268.0381 0.28 3
  268.1699 0.17 2
  268.3781 0.13 1
  269.1364 0.34 3
  269.2604 0.17 2
  269.5659 0.01 0
  270.0678 0.11 1
  271.0106 0.18 2
  272.6263 0.11 1
  273.2358 0.01 0
  275.0734 0.10 1
  276.1200 0.08 1
  276.6012 0.02 0
  277.0263 0.08 1
  277.1649 0.14 1
  277.7653 0.11 1
  277.9909 0.07 1
  279.0527 0.13 1
  279.2038 0.08 1
  280.1304 0.31 3
  280.2501 0.08 1
  281.1213 0.35 3
  282.0515 0.14 1
  282.2263 0.13 1
  283.0822 0.14 1
  283.6299 0.02 0
  284.0662 0.03 0
  285.0392 0.09 1
  285.2250 0.11 1
  286.1655 0.10 1
  288.0496 0.01 0
  289.0359 0.11 1
  289.1669 0.10 1
  289.9614 0.16 2
  290.6087 0.03 0
  291.1552 0.41 4
  292.0326 0.21 2
  292.1414 0.20 2
  292.2614 0.06 1
  293.0309 0.17 2
  293.1856 0.22 2
  293.3678 0.05 0
  293.7664 0.12 1
  294.3546 0.02 0
  294.8890 0.21 2
  294.9579 0.10 1
  295.1120 0.13 1
  295.2471 0.19 2
  296.2047 0.06 1
  296.6508 0.02 0
  297.1605 0.09 1
  298.0798 0.15 1
  300.0305 0.12 1
  300.9279 0.12 1
  301.1748 0.12 1
  302.0863 0.05 0
  302.8837 0.13 1
  303.1825 0.11 1
  304.8250 0.13 1
  304.9144 0.13 1
  305.1260 0.22 2
  306.1236 0.11 1
  306.5476 0.08 1
  306.8736 0.08 1
  307.0873 0.22 2
  307.2108 0.15 1
  309.0269 0.18 2
  309.1775 0.21 2
  310.7943 0.12 1
  310.8969 0.16 2
  311.1976 0.05 0
  311.6930 0.13 1
  312.1187 0.10 1
  312.2490 0.06 1
  312.6057 0.13 1
  316.5779 0.04 0
  316.7215 0.03 0
  317.0475 0.03 0
  317.1930 0.17 2
  318.0605 0.25 2
  318.2166 0.04 0
  319.1013 0.40 4
  319.3398 0.05 0
  320.1332 0.18 2
  320.4456 0.06 1
  321.0262 0.09 1
  321.2687 0.04 0
  321.8777 0.04 0
  322.1750 0.27 3
  322.9358 0.12 1
  323.2034 0.21 2
  323.6946 0.11 1
  324.1931 0.15 1
  328.9451 0.01 0
  329.1126 0.06 1
  330.1156 0.11 1
  330.5983 0.14 1
  331.0732 0.12 1
  331.5204 0.10 1
  331.8622 0.03 0
  332.0713 0.08 1
  332.9534 0.15 1
  333.1810 0.31 3
  333.7749 0.06 1
  334.1147 0.52 5
  334.2935 0.31 3
  334.3893 0.09 1
  334.7093 0.05 0
  335.1436 0.16 2
  335.3515 0.15 1
  336.4334 0.10 1
  337.2118 0.90 9
  338.3713 0.03 0
  339.0515 0.03 0
  341.0819 0.10 1
  343.1414 0.12 1
  343.2537 0.06 1
  344.7388 0.06 1
  345.0746 0.12 1
  345.2934 0.13 1
  345.4203 0.04 0
  346.0893 0.11 1
  347.1366 0.12 1
  347.2629 0.17 2
  347.3469 0.13 1
  347.5651 0.11 1
  347.9718 0.02 0
  348.1787 0.28 3
  348.3037 0.13 1
  348.3950 0.11 1
  348.9697 0.01 0
  349.9625 0.13 1
  350.2496 0.12 1
  351.3108 0.10 1
  355.1233 0.01 0
  355.6388 0.10 1
  358.8007 0.06 1
  359.1575 0.14 1
  359.3409 0.15 1
  359.9398 0.10 1
  360.7525 0.12 1
  361.1028 0.20 2
  361.3344 0.14 1
  362.9272 0.12 1
  363.1661 0.05 0
  364.2406 0.11 1
  373.1181 0.01 0
  373.2484 0.15 1
  373.6133 0.10 1
  382.5403 0.10 1
  384.9455 0.11 1
  386.1831 0.07 1
  386.3891 0.11 1
  386.9420 0.06 1
  387.0778 0.16 2
  387.2692 0.30 3
  388.1170 0.39 4
  388.2303 0.56 6
  388.3117 0.26 3
  388.6780 0.09 1
  388.8496 0.01 0
  389.1689 0.11 1
  389.3325 0.15 1
  390.8556 0.04 0
  393.2696 0.14 1
  393.6109 0.01 0
  394.7496 0.04 0
  396.3180 0.10 1
  398.0272 0.11 1
  398.9536 0.06 1
  399.9424 0.12 1
  400.2164 0.11 1
  400.3713 0.09 1
  400.7929 0.11 1
  401.0008 0.14 1
  401.2887 0.28 3
  401.4813 0.14 1
  401.8408 0.03 0
  402.2697 0.66 7
  402.5491 0.16 2
  402.6882 0.20 2
  403.2509 8.22 82
  403.6819 0.40 4
  403.9064 0.21 2
  404.3163 0.23 2
  404.4659 0.07 1
  404.9486 0.14 1
  405.1844 0.11 1
  405.2645 0.11 1
  405.5652 0.13 1
  405.9168 0.13 1
  406.1983 0.10 1
  406.3539 0.17 2
  406.4844 0.02 0
  406.8520 0.05 0
  407.2196 0.11 1
  408.3575 0.05 0
  414.2323 0.13 1
  416.1358 0.09 1
  416.3344 0.07 1
  416.9559 0.16 2
  417.2670 0.11 1
  417.4325 0.11 1
  417.6695 0.06 1
  417.8966 0.20 2
  424.1804 0.01 0
  426.3334 0.08 1
  427.8010 0.13 1
  428.1210 0.14 1
  428.3583 0.07 1
  429.3410 0.29 3
  429.4842 0.16 2
  429.6412 0.07 1
  430.0601 0.15 1
  430.2383 0.13 1
  430.7069 0.01 0
  431.2902 0.10 1
  434.3853 0.01 0
  436.6536 0.01 0
  442.0698 0.08 1
  442.2231 0.21 2
  442.4387 0.27 3
  443.7543 0.10 1
  444.2400 0.07 1
  444.7914 0.09 1
  444.8877 0.11 1
  445.6521 0.11 1
  445.8240 0.13 1
  446.3369 1.98 20
  446.9566 0.13 1
  447.1426 0.10 1
  447.6808 0.02 0
  448.3289 0.10 1
  448.4898 0.11 1
  449.3319 0.08 1
  451.7276 0.06 1
  452.4236 0.12 1
  453.2825 0.14 1
  453.4189 0.08 1
  455.2973 0.14 1
  456.2975 0.21 2
  456.4711 0.11 1
  457.1700 0.22 2
  457.3635 0.16 2
  458.3705 0.12 1
  458.4924 0.10 1
  458.7342 0.01 0
  459.3696 0.07 1
  461.4615 0.12 1
  462.4781 0.01 0
  469.3570 0.11 1
  470.2966 0.32 3
  470.5327 0.13 1
  471.2190 0.12 1
  471.3689 0.08 1
  471.4922 0.16 2
  472.3304 0.16 2
  473.8001 0.01 0
  479.6021 0.02 0
  479.6710 0.01 0
  483.3807 0.01 0
  483.8005 0.08 1
  484.3875 0.09 1
  485.2756 0.06 1
  494.2706 0.01 0
  495.2834 0.11 1
  497.4546 0.13 1
  498.5247 0.12 1
  499.7776 0.01 0
  502.7172 0.11 1
  503.7944 0.01 0
  506.4915 0.11 1
  508.7000 0.13 1
  509.6503 0.03 0
  510.2977 0.25 2
  512.3589 0.07 1
  514.8571 0.15 1
  515.6036 0.09 1
  516.5377 0.16 2
  517.9836 0.12 1
  518.4324 0.14 1
  518.8594 0.09 1
  519.0398 0.09 1
  519.2552 0.08 1
  519.3627 0.20 2
  519.4800 0.12 1
  519.7678 0.11 1
  520.0861 0.22 2
  520.5476 0.20 2
  520.8526 0.17 2
  521.1550 0.07 1
  521.4401 0.33 3
  521.5410 0.14 1
  521.9216 0.28 3
  522.0336 0.10 1
  522.1139 0.03 0
  522.2134 0.03 0
  522.3824 0.13 1
  522.6769 0.14 1
  522.8825 0.14 1
  523.0801 0.12 1
  523.2446 0.21 2
  523.4502 0.16 2
  523.5768 0.33 3
  523.6843 0.15 1
  523.8209 0.14 1
  524.0842 0.31 3
  524.2507 0.46 5
  524.3820 0.30 3
  524.4735 0.12 1
  524.6227 0.10 1
  524.7614 0.12 1
  525.1288 0.66 7
  525.4008 0.50 5
  525.6057 0.14 1
  525.8120 0.03 0
  526.0653 0.15 1
  526.1867 0.36 4
  526.2683 0.15 1
  526.4235 0.13 1
  526.6086 0.21 2
  526.7127 0.14 1
  526.9880 0.13 1
  527.3555 0.08 1
  527.7681 0.18 2
  527.9684 0.06 1
  528.0706 0.03 0
  528.2112 0.11 1
  528.5044 0.13 1
  528.7446 0.19 2
  528.8686 0.21 2
  529.0185 0.03 0
  529.1213 0.10 1
  529.3124 0.26 3
  529.4478 0.14 1
  529.6342 0.12 1
  529.9201 0.14 1
  530.0249 0.23 2
  530.1609 0.14 1
  530.3560 0.09 1
  530.7142 0.37 4
  530.9968 0.25 2
  531.2536 0.21 2
  531.5210 0.30 3
  531.7824 0.23 2
  531.9834 0.33 3
  532.1241 0.14 1
  532.2939 0.15 1
  532.4346 0.25 2
  532.6947 0.58 6
  532.9734 0.34 3
  533.2123 0.29 3
  533.5361 0.35 3
  533.8240 0.45 4
  534.0158 0.23 2
  534.5400 0.54 5
  534.6979 0.44 4
  535.1306 0.54 5
  535.3728 0.31 3
  535.5347 0.25 2
  535.9873 0.78 8
  536.7140 1.16 12
  540.4600 99.97 999
  540.9797 15.14 151
  541.7378 7.83 78
  542.3489 4.17 42
  542.7866 3.33 33
  543.2097 1.78 18
  543.4963 1.57 16
  543.6573 0.91 9
  543.9632 1.17 12
  544.2532 1.02 10
  544.3605 0.84 8
  544.5651 0.48 5
  544.7737 0.66 7
  544.9591 0.31 3
  545.2405 0.46 5
  545.4008 0.24 2
  545.5770 0.29 3
  545.8047 0.30 3
//
