ACCESSION: MSBNK-Kyoto_Univ-CA000101
RECORD_TITLE: 19-O-Methylsiphonaxanthin; FAB-EBEB; MS2; m/z: 614.43; [M]+*
DATE: 2016.01.19 (Created 2010.04.01, modified 2011.05.10)
AUTHORS: Akimoto N, Graduate School of Pharmaceutical Sciences, Kyoto University and Maoka T, Research Institute for Production Development
LICENSE: CC BY-SA
PUBLICATION: Yukie Yoshii, Shinichi Takaichi, Takashi Moaka, Shoichiro Suda, Hiroshi Sekiguchi, Takeshi Nakayama, and Iso Inouye, Variation of siphonaxanthin series among the genus Nephroselmis (Prasinophyceae, Chlorophyta), including a novel primary methoxy carotenoid, J. Phycol., 41, 827-834 (2005). doi:10.1111/j.1529-8817.2005.00103.x
COMMENT: Profile spectrum of this record is given as a JPEG file.
COMMENT: [Profile] CA000101.jpg
CH$NAME: 19-O-Methylsiphonaxanthin
CH$COMPOUND_CLASS: N/A
CH$FORMULA: C41H58O4
CH$EXACT_MASS: 614.43351
CH$SMILES: CC(=CC=CC=C(C=CC=C(C)C=CC(=C(C)2)C(C)(C)CC(C2)O)C)C=CC=C(C(=O)CC(C(C)(C)1)=C(CC(C1)O)C)COC
CH$IUPAC: InChI=1S/C41H58O4/c1-29(17-13-18-31(3)21-22-37-32(4)23-35(42)26-40(37,6)7)15-11-12-16-30(2)19-14-20-34(28-45-10)39(44)25-38-33(5)24-36(43)27-41(38,8)9/h11-22,35-36,42-43H,23-28H2,1-10H3/b12-11+,17-13+,19-14+,22-21+,29-15+,30-16+,31-18+,34-20+/t35-,36+/m0/s1
CH$LINK: INCHIKEY GBDRSFIDAAFFDL-HHQVSSPNSA-N
AC$INSTRUMENT: JMS-HX/HX 110A, JEOL
AC$INSTRUMENT_TYPE: FAB-EBEB
AC$MASS_SPECTROMETRY: MS_TYPE MS2
AC$MASS_SPECTROMETRY: ION_MODE POSITIVE
AC$MASS_SPECTROMETRY: ATOM_GUN_CURRENT 5 mA
AC$MASS_SPECTROMETRY: BOMBARDMENT 6 kV xenon
AC$MASS_SPECTROMETRY: COLLISION_ENERGY 3 kV
AC$MASS_SPECTROMETRY: COLLISION_GAS Ar
AC$MASS_SPECTROMETRY: GAS_PRESSURE adjust to attenuate the intensity of the precursor ion by 30 %
AC$MASS_SPECTROMETRY: IONIZATION FAB
AC$MASS_SPECTROMETRY: MATRIX 1-2 uL m-NBA
AC$MASS_SPECTROMETRY: PROBE_TIP stainless-steel
MS$FOCUSED_ION: BASE_PEAK 104.9608
MS$FOCUSED_ION: PRECURSOR_M/Z 614.43
MS$FOCUSED_ION: PRECURSOR_TYPE [M]+*
MS$DATA_PROCESSING: RELATIVE_M/Z normalised by peak(m/z=104.9608).  set 999 for peak(m/z=614.3230,rel=1743).
PK$SPLASH: splash10-01ox-3920011000-9e129536e349fa2ba7a1
PK$NUM_PEAK: 1804
PK$PEAK: m/z int. rel.int.
  0.2095 0.01 0
  1.1217 0.01 0
  1.9759 0.01 0
  3.6918 0.01 0
  5.0698 0.01 0
  5.7254 0.01 0
  12.9692 0.04 1
  13.2751 0.01 0
  13.9656 0.09 2
  14.8143 0.01 0
  14.9767 0.71 12
  16.9858 0.01 0
  18.5866 0.01 0
  18.9683 0.07 1
  22.9213 0.14 2
  24.2683 0.01 0
  24.5231 0.01 0
  24.9580 0.06 1
  25.9524 1.03 18
  26.9569 5.06 88
  27.4710 0.01 0
  27.9643 0.52 9
  28.9631 5.20 91
  29.9484 0.16 3
  30.9520 0.88 15
  31.2727 0.01 0
  31.8610 0.01 0
  34.0733 0.13 2
  34.7394 0.02 0
  35.2871 0.01 0
  36.2935 0.10 2
  36.4467 0.02 0
  36.9507 0.37 6
  37.0712 0.04 1
  37.1486 0.03 1
  37.9392 1.44 25
  38.9443 12.62 220
  39.1986 0.08 1
  39.3881 0.08 1
  39.8135 0.03 1
  39.9484 1.47 26
  40.2611 0.02 0
  40.9592 18.77 327
  41.1098 0.04 1
  41.7921 0.03 1
  41.9697 0.88 15
  42.1825 0.02 0
  42.6094 0.01 0
  42.9528 17.48 305
  43.9657 0.37 6
  44.9513 24.80 432
  46.0644 0.01 0
  47.2661 0.03 1
  48.9271 0.42 7
  49.0743 0.14 2
  49.1732 0.09 2
  49.5847 0.07 1
  49.9238 3.24 56
  50.1656 0.02 0
  50.3558 0.07 1
  50.9362 7.82 136
  51.5100 0.08 1
  51.7493 0.18 3
  51.9450 2.75 48
  52.9522 14.41 251
  53.7423 0.04 1
  53.9614 0.89 16
  54.5494 0.01 0
  54.9630 23.66 413
  55.9799 0.95 17
  56.9692 6.54 114
  57.4419 0.15 3
  57.9551 0.35 6
  58.4689 0.07 1
  58.9497 5.08 89
  60.9133 0.54 9
  61.2009 0.03 1
  61.9302 1.89 33
  62.1300 0.02 0
  62.9352 6.39 111
  63.2256 0.12 2
  63.5485 0.05 1
  63.9382 1.58 28
  64.4337 0.10 2
  64.9393 10.59 185
  65.1460 0.13 2
  65.9582 3.07 54
  66.2396 0.08 1
  66.5483 0.03 1
  66.9589 17.45 304
  67.6901 0.04 1
  67.9469 1.58 28
  68.2444 0.03 1
  68.9595 23.49 410
  69.2529 0.03 1
  69.9528 0.32 6
  70.3077 0.14 2
  70.9526 10.04 175
  71.7643 0.01 0
  71.9753 0.16 3
  72.6997 0.02 0
  72.9472 0.28 5
  73.9135 1.72 30
  74.3908 0.01 0
  74.9261 2.39 42
  75.1790 0.10 2
  75.2861 0.05 1
  75.5227 0.16 3
  75.9178 1.69 29
  76.1034 0.15 3
  76.2611 0.17 3
  76.5081 0.05 1
  76.9276 28.27 493
  77.2488 0.34 6
  77.4256 0.17 3
  77.9370 8.02 140
  78.2413 0.07 1
  78.3656 0.16 3
  78.5179 0.06 1
  78.9454 27.33 477
  79.1950 0.16 3
  79.5695 0.08 1
  79.9552 4.28 75
  80.2289 0.06 1
  80.3948 0.09 2
  80.5931 0.05 1
  80.9589 31.45 548
  81.1588 0.10 2
  81.3359 0.19 3
  81.4914 0.16 3
  81.6543 0.15 3
  81.9366 3.90 68
  82.6956 0.33 6
  82.9583 8.69 152
  83.7359 0.10 2
  83.9434 0.51 9
  84.3711 0.07 1
  84.9483 5.15 90
  85.4984 0.09 2
  85.6283 0.06 1
  85.9174 0.61 11
  86.6432 0.03 1
  86.9417 1.44 25
  87.2864 0.01 0
  87.9184 0.56 10
  88.2253 0.03 1
  88.3819 0.12 2
  88.5256 0.08 1
  88.6326 0.35 6
  88.9209 4.64 81
  89.1160 0.25 4
  89.2575 0.26 5
  89.4656 0.25 4
  89.9352 2.27 40
  90.3757 0.25 4
  90.9391 53.05 925
  91.2328 0.18 3
  91.3528 0.06 1
  91.6834 0.40 7
  91.9528 7.62 133
  92.3173 0.10 2
  92.9566 39.25 684
  93.2237 0.41 7
  93.3275 0.10 2
  93.9484 3.21 56
  94.1788 0.12 2
  94.3476 0.10 2
  94.9630 29.64 517
  95.2514 0.04 1
  95.4923 0.12 2
  95.6428 0.10 2
  95.9714 2.01 35
  96.3058 0.04 1
  96.9692 10.24 179
  97.2236 0.07 1
  97.7283 0.08 1
  97.9297 0.54 9
  98.9255 0.91 16
  99.2444 0.01 0
  99.7255 0.04 1
  99.8704 0.18 3
  100.2877 0.02 0
  100.5729 0.15 3
  100.7262 0.29 5
  100.9611 1.01 18
  101.0736 0.24 4
  101.4306 0.23 4
  101.6374 0.26 5
  101.9461 3.19 56
  102.2018 0.06 1
  102.9412 11.44 199
  103.3306 0.22 4
  103.4544 0.23 4
  103.5274 0.11 2
  103.9605 6.00 105
  104.1587 0.18 3
  104.9608 57.29 999
  105.2237 0.22 4
  105.3263 0.05 1
  105.4772 0.12 2
  105.6219 0.17 3
  105.9649 6.31 110
  106.2570 0.04 1
  106.3910 0.13 2
  106.9702 26.15 456
  107.3045 0.13 2
  107.4528 0.15 3
  107.9544 3.58 62
  108.4692 0.10 2
  108.9911 29.09 507
  109.2496 0.21 4
  109.3540 0.19 3
  109.9752 2.05 36
  110.5484 0.05 1
  110.9713 7.87 137
  111.2622 0.04 1
  111.5609 0.09 2
  111.7145 0.10 2
  111.9440 0.23 4
  112.3775 0.07 1
  112.5288 0.16 3
  112.6710 0.24 4
  112.9350 0.75 13
  113.1399 0.42 7
  113.2952 0.41 7
  113.4995 0.30 5
  113.9167 1.01 18
  114.2904 0.30 5
  114.9246 30.11 525
  115.4443 0.17 3
  115.9373 10.92 190
  116.2947 0.22 4
  116.4203 0.06 1
  116.9361 35.53 620
  117.1767 0.24 4
  117.3323 0.09 2
  117.4718 0.13 2
  117.9456 6.52 114
  118.1781 0.23 4
  118.2736 0.09 2
  118.9534 46.32 808
  119.2122 0.37 6
  119.3886 0.25 4
  119.5330 0.07 1
  119.9438 6.68 116
  120.1985 0.04 1
  120.5615 0.45 8
  120.9625 38.81 677
  121.2789 0.18 3
  121.4930 0.10 2
  121.9494 3.23 56
  122.2088 0.08 1
  122.4512 0.18 3
  122.9482 32.36 564
  123.3493 0.10 2
  123.9346 1.18 21
  124.3992 0.12 2
  124.6404 0.12 2
  124.9415 2.14 37
  125.1061 0.22 4
  125.2052 0.16 3
  125.3818 0.10 2
  125.5780 0.03 1
  125.9031 1.48 26
  126.2322 0.20 3
  126.5070 0.28 5
  126.9114 10.61 185
  127.1686 0.56 10
  127.9164 30.63 534
  128.1496 0.72 13
  128.3842 0.41 7
  128.9169 33.77 589
  129.1946 0.08 1
  129.9312 14.35 250
  130.1954 0.31 5
  130.3137 0.11 2
  130.4656 0.31 5
  130.9350 35.84 625
  131.3047 0.20 3
  131.5621 0.14 2
  131.9433 8.21 143
  132.2135 0.11 2
  132.3254 0.09 2
  132.9384 27.16 474
  133.3210 0.28 5
  133.4749 0.18 3
  133.9214 3.94 69
  134.3005 0.32 6
  134.9528 37.94 662
  135.1814 0.49 9
  135.3968 0.18 3
  135.9103 5.23 91
  136.1246 0.15 3
  136.2264 0.15 3
  136.4367 0.14 2
  136.9248 11.15 194
  137.2380 0.16 3
  137.4566 0.26 5
  137.5779 0.19 3
  137.9428 7.73 135
  138.1477 0.30 5
  138.3995 0.13 2
  138.9260 7.34 128
  139.2930 0.15 3
  139.4154 0.04 1
  139.9150 1.85 32
  140.0817 0.64 11
  140.9072 21.97 383
  141.2529 0.30 5
  141.9092 19.98 348
  142.1895 0.09 2
  142.9250 37.42 653
  143.2124 0.12 2
  143.3648 0.24 4
  143.9379 11.82 206
  144.3197 0.23 4
  144.9358 43.62 761
  145.2393 0.40 7
  145.3968 0.20 3
  145.9354 6.19 108
  146.2473 0.22 4
  146.3241 0.06 1
  146.9374 14.73 257
  147.4297 0.31 5
  147.5080 0.12 2
  147.6314 0.04 1
  147.9479 1.90 33
  148.1612 0.09 2
  148.3468 0.12 2
  148.4643 0.40 7
  148.9405 8.41 147
  149.3168 0.14 2
  149.4858 0.13 2
  149.9199 1.07 19
  150.2804 0.26 5
  150.9395 6.75 118
  151.3173 0.44 8
  151.5272 0.46 8
  151.9201 10.69 186
  152.3172 0.49 9
  152.4691 0.37 6
  152.9234 13.56 236
  153.2137 0.26 5
  153.3412 0.07 1
  153.5516 0.50 9
  153.9188 13.68 239
  154.9281 26.47 462
  155.2563 0.09 2
  155.3549 0.13 2
  155.6547 0.45 8
  155.9621 13.13 229
  156.2600 0.23 4
  156.4090 0.10 2
  156.9535 31.72 553
  157.2626 0.32 6
  157.5936 0.36 6
  157.9677 7.76 135
  158.3036 0.13 2
  158.6356 0.50 9
  158.9684 21.79 380
  159.2876 0.35 6
  159.4711 0.34 6
  159.6097 0.24 4
  159.9809 3.32 58
  160.3646 0.37 6
  160.6050 0.25 4
  160.9766 8.94 156
  161.4406 0.04 1
  161.5650 0.20 3
  161.9807 1.62 28
  162.4396 0.16 3
  162.9542 4.00 70
  163.2177 0.21 4
  163.9140 1.73 30
  164.3484 0.46 8
  164.9535 20.63 360
  165.4938 0.17 3
  165.9541 8.01 140
  166.2848 0.08 1
  166.4784 0.13 2
  166.6369 0.58 10
  166.9789 16.90 295
  167.2789 0.23 4
  167.4369 0.22 4
  167.6306 0.21 4
  167.9811 6.41 112
  168.2312 0.27 5
  168.9903 22.45 391
  169.2881 0.26 5
  169.9769 6.95 121
  170.2963 0.07 1
  170.5545 0.37 6
  170.9960 16.91 295
  171.2778 0.23 4
  171.4637 0.19 3
  172.0069 4.03 70
  172.2907 0.22 4
  172.4219 0.16 3
  172.9993 8.59 150
  173.5150 0.23 4
  174.0398 1.21 21
  174.3274 0.19 3
  174.4981 0.37 6
  174.6288 0.09 2
  174.7369 0.50 9
  175.0274 5.71 100
  175.2753 0.18 3
  175.4792 0.16 3
  175.6335 0.23 4
  175.9731 2.09 36
  176.1495 0.28 5
  176.3865 0.14 2
  176.9876 5.36 93
  177.3869 0.58 10
  177.9588 10.34 180
  178.2458 0.18 3
  178.3417 0.13 2
  178.9665 15.70 274
  179.2130 0.25 4
  179.4733 0.05 1
  179.9645 6.04 105
  180.2499 0.13 2
  180.4192 0.25 4
  180.6086 0.52 9
  180.9847 17.08 298
  181.3146 0.19 3
  181.4391 0.14 2
  181.9856 7.65 133
  182.2734 0.24 4
  182.4790 0.42 7
  182.9885 19.04 332
  183.2329 0.18 3
  183.4981 0.22 4
  183.7295 0.55 10
  183.9893 4.26 74
  184.4134 0.20 3
  184.9811 8.85 154
  185.3999 0.18 3
  185.7494 0.49 9
  185.9922 2.01 35
  186.2857 0.23 4
  186.3961 0.11 2
  186.9902 5.92 103
  187.4463 0.32 6
  187.5568 0.17 3
  187.9450 0.99 17
  188.2840 0.09 2
  188.4987 0.88 15
  188.9595 7.23 126
  189.2966 0.16 3
  189.4406 0.42 7
  189.9357 2.14 37
  190.1972 0.32 6
  190.9556 6.95 121
  191.2201 0.22 4
  191.3280 0.11 2
  191.4909 0.21 4
  191.9630 8.53 149
  192.2402 0.26 5
  192.4289 0.34 6
  192.9612 13.32 232
  193.3863 0.34 6
  193.5313 0.06 1
  193.9810 6.26 109
  194.2222 0.37 6
  194.5235 0.29 5
  194.9804 15.11 263
  195.2999 0.20 3
  195.9574 5.09 89
  196.3497 0.23 4
  196.9810 15.38 268
  197.2598 0.25 4
  197.4113 0.32 6
  197.6412 0.36 6
  197.9815 3.23 56
  198.4806 0.22 4
  198.9854 8.83 154
  199.3127 0.21 4
  199.4302 0.15 3
  199.5219 0.12 2
  199.7170 0.16 3
  199.9808 2.27 40
  200.3138 0.17 3
  200.4237 0.06 1
  200.5532 0.17 3
  200.9921 3.61 63
  201.4318 0.58 10
  201.6839 0.53 9
  201.9500 5.09 89
  202.4916 1.07 19
  202.9618 6.49 113
  203.4118 0.30 5
  203.5386 0.06 1
  203.6880 0.11 2
  203.9846 3.04 53
  204.2041 0.30 5
  204.3591 0.20 3
  204.9497 6.60 115
  205.4451 0.23 4
  205.5644 0.10 2
  205.9596 4.17 73
  206.2923 0.11 2
  206.9678 10.22 178
  207.2896 0.08 1
  207.5495 0.31 5
  207.9865 3.91 68
  208.2683 0.22 4
  208.4539 0.42 7
  208.9804 11.56 202
  209.3425 0.20 3
  209.9826 3.62 63
  210.2597 0.35 6
  210.5848 0.26 5
  210.9916 9.99 174
  211.2280 0.27 5
  211.4857 0.18 3
  211.9616 1.85 32
  212.2511 0.07 1
  212.4630 0.24 4
  212.5962 0.21 4
  212.9949 4.53 79
  213.3000 0.19 3
  213.4317 0.05 1
  213.9624 1.18 21
  214.3727 0.13 2
  214.9586 5.22 91
  215.3535 0.28 5
  215.9531 2.42 42
  216.2904 0.12 2
  216.5522 0.19 3
  216.9828 6.06 106
  217.2581 0.18 3
  217.4028 0.17 3
  217.6104 0.24 4
  217.9839 2.68 47
  218.3738 0.17 3
  218.5377 0.06 1
  218.9827 6.34 111
  219.3304 0.09 2
  219.5721 0.28 5
  219.9863 3.13 55
  220.4529 0.10 2
  220.5801 0.22 4
  220.9952 7.95 139
  221.2625 0.22 4
  221.5618 0.69 12
  221.9926 3.34 58
  222.2912 0.17 3
  222.4837 0.49 9
  222.9890 7.56 132
  223.4187 0.14 2
  223.9852 1.88 33
  224.2869 0.14 2
  224.4214 0.11 2
  224.6304 0.23 4
  225.0059 3.83 67
  225.5054 0.15 3
  225.6670 0.31 5
  225.9710 1.80 31
  226.2375 0.13 2
  226.5034 0.33 6
  227.0004 3.41 59
  227.3408 0.15 3
  227.5699 0.17 3
  227.9912 1.95 34
  228.2970 0.12 2
  228.9832 4.05 71
  229.4161 0.18 3
  229.6298 0.25 4
  230.0025 2.34 41
  230.3746 0.10 2
  230.5152 0.29 5
  230.6580 0.41 7
  231.0152 4.31 75
  231.2916 0.26 5
  231.3825 0.15 3
  231.5672 0.11 2
  232.0198 2.45 43
  232.3524 0.28 5
  232.4903 0.35 6
  233.0099 4.86 85
  233.4180 0.04 1
  233.7095 0.33 6
  234.0331 2.03 35
  234.2437 0.18 3
  234.4810 0.28 5
  235.0465 5.49 96
  235.4745 0.42 7
  235.6491 0.24 4
  236.0176 2.66 46
  236.3151 0.12 2
  236.6609 0.26 5
  237.0472 4.46 78
  237.4279 0.21 4
  237.5608 0.19 3
  238.0162 1.24 22
  239.0083 2.52 44
  239.3417 0.11 2
  239.5343 0.24 4
  240.0221 1.30 23
  240.3734 0.16 3
  240.4566 0.12 2
  241.0114 3.33 58
  241.3955 0.20 3
  242.0352 1.90 33
  242.4928 0.16 3
  243.0025 3.27 57
  243.4873 0.23 4
  243.7024 0.32 6
  244.0278 1.62 28
  244.2892 0.21 4
  244.4566 0.19 3
  244.6154 0.07 1
  245.0321 3.13 55
  245.3592 0.12 2
  245.5843 0.25 4
  245.6748 0.21 4
  246.0219 1.87 33
  246.2485 0.18 3
  246.4267 0.06 1
  247.0177 5.25 92
  247.4013 0.31 5
  247.6152 0.08 1
  248.0402 1.61 28
  248.3034 0.04 1
  248.4889 0.20 3
  249.0311 3.67 64
  249.5120 0.26 5
  249.6797 0.13 2
  249.8295 0.21 4
  250.0722 1.38 24
  250.3862 0.21 4
  250.5340 0.12 2
  250.6246 0.07 1
  251.0666 1.99 35
  251.4743 0.20 3
  251.8485 0.25 4
  252.0670 0.86 15
  252.2763 0.11 2
  252.4699 0.14 2
  252.6035 0.09 2
  253.0578 2.17 38
  253.4515 0.11 2
  253.6573 0.20 3
  254.0197 0.93 16
  254.2984 0.17 3
  254.5507 0.23 4
  254.6608 0.14 2
  255.0297 2.59 45
  255.3736 0.20 3
  255.5302 0.11 2
  255.6740 0.20 3
  256.0129 1.08 19
  256.2346 0.07 1
  256.4879 0.25 4
  256.6481 0.13 2
  257.0165 2.05 36
  257.2726 0.15 3
  257.7621 0.17 3
  258.0326 0.98 17
  258.3217 0.12 2
  258.4821 0.10 2
  259.0297 2.27 40
  259.4578 0.21 4
  259.5917 0.10 2
  260.0228 1.29 22
  260.5070 0.10 2
  261.0449 5.41 94
  261.3994 0.09 2
  261.5712 0.39 7
  261.6765 0.23 4
  262.0647 1.71 30
  262.3161 0.07 1
  262.4572 0.11 2
  262.6170 0.12 2
  263.0619 3.67 64
  263.4446 0.16 3
  263.6201 0.18 3
  263.8531 0.27 5
  264.0760 0.64 11
  264.3498 0.11 2
  264.4989 0.11 2
  264.7326 0.19 3
  265.0573 2.12 37
  265.4868 0.07 1
  265.6510 0.23 4
  265.7407 0.12 2
  266.0663 0.91 16
  266.4012 0.04 1
  266.7010 0.15 3
  266.8051 0.21 4
  267.0619 1.32 23
  267.3560 0.12 2
  267.6976 0.10 2
  267.9911 0.47 8
  268.1783 0.39 7
  268.2975 0.14 2
  269.0066 1.39 24
  269.3110 0.11 2
  269.7332 0.28 5
  270.0031 0.64 11
  270.2365 0.07 1
  270.3478 0.16 3
  270.4412 0.10 2
  270.7198 0.12 2
  271.0509 1.82 32
  272.0301 0.61 11
  272.2212 0.24 4
  272.6559 0.14 2
  273.0397 2.30 40
  273.3876 0.16 3
  273.7340 0.15 3
  274.0762 1.00 17
  274.2919 0.19 3
  274.4975 0.11 2
  274.6010 0.05 1
  275.0663 2.82 49
  275.3309 0.12 2
  276.0775 0.85 15
  276.2653 0.23 4
  276.4250 0.12 2
  277.0797 2.56 45
  277.3466 0.27 5
  277.5906 0.11 2
  277.7554 0.10 2
  278.0389 0.86 15
  278.1714 0.55 10
  278.3441 0.16 3
  278.5889 0.20 3
  279.0546 1.55 27
  279.6290 0.11 2
  279.7814 0.21 4
  280.1106 0.79 14
  280.2465 0.11 2
  280.5355 0.06 1
  281.0611 0.97 17
  281.3826 0.07 1
  282.0155 0.55 10
  282.4586 0.08 1
  282.6190 0.24 4
  283.0952 1.72 30
  283.3269 0.13 2
  283.6306 0.16 3
  283.8277 0.22 4
  284.0263 0.46 8
  284.2142 0.32 6
  285.0757 1.18 21
  285.4112 0.22 4
  285.6200 0.15 3
  285.9519 0.49 9
  286.1348 0.51 9
  286.2536 0.13 2
  286.4682 0.11 2
  286.5424 0.06 1
  286.6878 0.11 2
  287.0184 1.19 21
  287.1689 0.81 14
  287.6206 0.11 2
  287.7257 0.09 2
  288.0485 0.68 12
  288.4123 0.10 2
  288.5478 0.23 4
  289.0413 2.98 52
  289.3865 0.06 1
  289.4780 0.04 1
  289.6272 0.08 1
  290.0546 1.99 35
  290.4799 0.23 4
  290.6227 0.11 2
  291.0768 3.17 55
  291.4373 0.15 3
  291.5109 0.09 2
  291.6724 0.16 3
  291.7676 0.13 2
  292.0871 1.53 27
  292.4505 0.12 2
  293.0384 1.08 19
  293.5736 0.06 1
  293.6963 0.11 2
  294.0390 0.54 9
  294.2497 0.67 12
  294.5347 0.11 2
  294.6249 0.05 1
  295.0882 1.06 18
  295.4072 0.22 4
  295.4960 0.09 2
  295.7818 0.13 2
  296.0937 0.36 6
  296.5430 0.11 2
  296.7188 0.11 2
  297.0656 1.24 22
  297.7036 0.12 2
  298.1442 1.16 20
  298.3086 0.23 4
  298.4269 0.09 2
  298.6137 0.13 2
  298.7356 0.03 1
  299.0839 0.98 17
  299.3753 0.10 2
  299.6249 0.23 4
  299.8182 0.16 3
  299.9885 0.33 6
  300.1450 0.57 10
  300.2655 0.09 2
  300.4481 0.10 2
  300.8290 0.21 4
  301.0801 1.06 18
  301.2360 0.37 6
  301.4352 0.22 4
  301.6098 0.11 2
  301.7607 0.11 2
  302.1381 1.29 22
  303.0585 0.78 14
  303.5191 0.08 1
  303.6744 0.10 2
  303.8130 0.14 2
  304.0361 0.23 4
  304.2766 0.18 3
  304.6463 0.11 2
  305.0356 0.77 13
  305.1505 0.34 6
  305.4546 0.23 4
  305.5925 0.15 3
  306.0606 0.58 10
  306.2210 0.46 8
  306.5324 0.13 2
  307.0122 5.20 91
  307.3851 0.14 2
  308.0254 6.33 110
  308.3297 0.21 4
  308.5675 0.08 1
  309.0916 1.09 19
  309.4646 0.18 3
  309.6020 0.12 2
  309.7690 0.15 3
  309.9563 0.28 5
  310.1537 0.42 7
  310.5435 0.12 2
  310.7821 0.09 2
  311.1227 0.81 14
  311.3889 0.05 1
  311.5546 0.07 1
  311.6754 0.13 2
  311.7976 0.10 2
  312.1224 0.59 10
  312.4393 0.13 2
  312.6013 0.12 2
  313.0499 0.72 13
  313.2257 0.27 5
  313.6353 0.10 2
  314.0840 0.45 8
  315.0676 0.71 12
  315.6786 0.19 3
  315.8502 0.12 2
  316.0790 0.30 5
  316.1977 0.11 2
  316.3867 0.10 2
  316.5120 0.10 2
  316.6959 0.11 2
  317.0797 0.69 12
  317.4773 0.03 1
  317.8495 0.07 1
  318.0886 0.41 7
  318.1769 0.18 3
  319.0100 0.40 7
  319.3034 0.18 3
  319.5577 0.06 1
  319.8990 0.30 5
  320.0577 0.26 5
  320.3360 0.12 2
  320.6251 0.12 2
  320.7737 0.13 2
  321.1020 1.22 21
  321.5123 0.23 4
  321.7732 0.10 2
  322.0653 0.45 8
  322.2372 0.15 3
  322.3756 0.31 5
  322.5366 0.11 2
  323.0847 1.70 30
  323.5611 0.17 3
  323.7293 0.06 1
  324.1006 0.25 4
  324.5263 0.21 4
  324.7251 0.02 0
  325.0812 0.54 9
  325.5433 0.10 2
  325.7457 0.13 2
  325.9546 0.21 4
  326.0721 0.28 5
  326.5169 0.10 2
  327.0473 0.60 10
  327.2128 0.35 6
  327.4348 0.09 2
  327.6119 0.11 2
  327.7462 0.25 4
  328.1599 0.97 17
  329.1144 2.20 38
  329.3779 0.12 2
  329.6777 0.12 2
  329.8665 0.21 4
  330.1685 0.26 5
  330.3007 0.12 2
  330.4147 0.04 1
  330.5541 0.08 1
  330.6848 0.11 2
  330.9303 0.23 4
  331.0944 0.67 12
  331.2556 0.41 7
  331.7473 0.15 3
  332.1235 0.44 8
  332.3356 0.20 3
  332.6342 0.05 1
  332.8979 0.09 2
  333.1281 0.66 12
  333.4166 0.08 1
  333.7094 0.01 0
  333.8351 0.06 1
  334.0509 0.16 3
  334.3350 0.04 1
  334.6765 0.12 2
  334.8517 0.10 2
  335.1191 1.52 27
  336.1439 1.01 18
  336.3751 0.11 2
  336.4856 0.10 2
  336.6361 0.14 2
  336.8985 0.25 4
  337.1333 0.84 15
  337.2482 0.58 10
  337.5630 0.07 1
  337.8517 0.14 2
  338.1011 0.23 4
  338.3345 0.16 3
  339.0741 0.33 6
  339.4312 0.13 2
  339.8254 0.12 2
  339.9964 0.10 2
  340.1942 0.38 7
  340.6620 0.20 3
  340.8148 0.12 2
  341.1223 0.49 9
  341.2908 0.13 2
  341.6901 0.08 1
  341.9515 0.09 2
  342.1571 0.13 2
  342.2711 0.13 2
  342.3676 0.06 1
  342.8165 0.20 3
  343.1157 0.66 12
  343.4825 0.10 2
  344.1239 0.30 5
  344.2569 0.07 1
  345.0836 0.68 12
  345.3975 0.05 1
  345.5218 0.03 1
  345.8131 0.19 3
  346.0355 0.25 4
  346.2106 0.18 3
  346.3335 0.14 2
  346.4606 0.12 2
  346.6896 0.18 3
  347.0413 0.31 5
  347.1940 0.21 4
  347.5174 0.08 1
  347.9252 0.10 2
  348.0190 0.11 2
  348.1469 0.13 2
  348.7881 0.05 1
  348.9335 0.10 2
  349.1814 0.79 14
  349.3901 0.15 3
  350.0612 0.11 2
  350.2234 0.22 4
  350.6089 0.10 2
  350.9514 0.35 6
  351.1172 0.69 12
  351.2772 0.29 5
  352.1050 0.23 4
  352.3327 0.10 2
  352.8506 0.13 2
  353.1140 0.33 6
  353.8067 0.24 4
  353.9748 0.21 4
  354.1400 0.11 2
  354.9783 0.21 4
  355.1566 0.39 7
  355.2934 0.22 4
  356.1646 0.30 5
  356.4937 0.14 2
  356.9195 0.19 3
  357.1256 0.40 7
  357.2595 0.18 3
  357.7146 0.07 1
  358.1041 0.11 2
  358.9313 0.18 3
  359.1039 0.46 8
  359.4753 0.01 0
  360.0427 0.14 2
  360.2022 0.33 6
  361.1346 0.51 9
  361.2898 0.30 5
  361.9098 0.14 2
  362.1218 0.16 3
  362.2821 0.12 2
  363.1288 0.65 11
  363.4210 0.05 1
  363.5310 0.12 2
  363.9275 0.03 1
  364.1126 0.15 3
  364.3742 0.12 2
  364.7285 0.16 3
  365.0142 0.36 6
  365.1214 0.13 2
  365.2526 0.10 2
  366.0581 0.19 3
  366.3475 0.18 3
  366.6574 0.05 1
  366.8674 0.14 2
  366.9855 0.19 3
  367.1700 0.31 5
  367.5973 0.04 1
  367.9582 0.10 2
  368.2332 0.09 2
  368.3411 0.06 1
  368.6036 0.04 1
  368.9559 0.22 4
  369.1147 0.43 7
  369.2457 0.21 4
  369.9258 0.11 2
  370.1559 0.17 3
  370.5833 0.13 2
  371.0611 0.42 7
  371.2060 0.20 3
  371.4660 0.11 2
  371.9663 0.11 2
  372.2082 0.37 6
  372.5352 0.07 1
  372.6438 0.02 0
  373.0087 0.24 4
  373.2826 0.12 2
  373.6134 0.08 1
  374.0009 0.28 5
  374.1496 0.20 3
  374.3179 0.15 3
  374.7602 0.13 2
  375.0218 0.26 5
  375.1682 0.33 6
  375.3592 0.29 5
  375.6120 0.10 2
  376.1353 0.48 8
  376.2796 0.31 5
  376.7089 0.12 2
  377.0631 0.35 6
  377.1943 0.27 5
  377.3554 0.15 3
  377.5384 0.12 2
  377.8875 0.08 1
  378.1908 0.56 10
  378.8177 0.21 4
  378.9665 0.11 2
  379.0795 0.14 2
  379.2392 0.24 4
  379.5636 0.08 1
  380.0464 0.24 4
  380.2418 0.08 1
  380.9178 0.12 2
  381.1016 0.32 6
  381.3087 0.41 7
  381.7091 0.10 2
  382.0089 0.24 4
  382.0760 0.11 2
  382.2707 0.18 3
  382.3619 0.12 2
  382.7434 0.08 1
  382.8740 0.12 2
  383.0418 0.26 5
  383.2490 0.24 4
  384.1038 0.20 3
  384.2890 0.10 2
  385.1496 0.25 4
  385.2335 0.13 2
  385.7273 0.10 2
  386.1780 0.09 2
  386.3079 0.24 4
  386.5442 0.14 2
  386.8922 0.26 5
  387.0782 0.47 8
  387.2234 0.22 4
  388.1157 0.08 1
  388.2711 0.25 4
  388.5892 0.12 2
  388.7979 0.06 1
  389.0351 0.60 10
  389.2073 0.40 7
  389.3657 0.12 2
  389.7823 0.14 2
  389.9334 0.12 2
  390.1750 0.12 2
  390.4348 0.14 2
  390.9114 0.12 2
  391.2983 0.13 2
  391.6494 0.11 2
  391.7968 0.13 2
  392.0771 0.22 4
  392.4166 0.23 4
  392.7729 0.11 2
  393.1409 0.27 5
  393.2613 0.22 4
  393.7045 0.05 1
  393.9922 0.10 2
  394.2266 0.22 4
  394.3887 0.07 1
  394.5735 0.20 3
  395.1467 2.96 52
  395.6477 0.07 1
  396.0180 0.10 2
  396.2408 0.12 2
  396.4482 0.12 2
  396.6053 0.13 2
  397.0348 0.31 5
  397.1991 0.19 3
  397.6988 0.05 1
  398.1671 0.12 2
  398.2905 0.19 3
  398.5221 0.15 3
  398.7888 0.14 2
  399.0869 0.41 7
  399.3251 0.43 7
  399.5290 0.15 3
  399.7774 0.31 5
  399.9623 0.19 3
  400.1260 0.14 2
  400.3145 0.16 3
  400.4614 0.10 2
  400.6127 0.14 2
  400.8195 0.13 2
  401.1973 1.04 18
  401.4195 0.12 2
  401.6841 0.10 2
  401.8405 0.21 4
  402.2125 0.81 14
  402.9391 0.15 3
  403.1511 0.26 5
  403.4640 0.08 1
  404.1607 0.39 7
  404.3135 0.13 2
  404.9262 0.15 3
  405.0439 0.17 3
  405.3927 0.10 2
  406.1554 0.13 2
  406.4121 0.12 2
  406.5269 0.04 1
  406.7595 0.14 2
  406.9679 0.13 2
  407.0739 0.32 6
  407.2509 0.35 6
  407.8368 0.05 1
  408.0621 0.17 3
  408.2632 0.17 3
  408.3978 0.14 2
  408.5726 0.10 2
  408.7255 0.08 1
  409.1030 0.41 7
  409.2946 0.32 6
  409.6392 0.01 0
  409.8887 0.10 2
  410.0050 0.18 3
  410.2179 0.12 2
  410.3532 0.07 1
  410.8647 0.12 2
  411.1266 0.35 6
  411.3293 0.28 5
  411.5005 0.13 2
  411.6337 0.09 2
  411.8891 0.13 2
  412.0259 0.20 3
  412.4145 0.12 2
  412.6641 0.10 2
  413.1295 0.64 11
  413.4530 0.14 2
  413.7268 0.23 4
  413.8578 0.18 3
  414.0686 0.28 5
  414.2625 0.13 2
  414.4390 0.16 3
  414.6469 0.16 3
  414.8745 0.48 8
  415.1483 0.47 8
  415.3701 0.50 9
  415.4938 0.16 3
  415.7632 0.28 5
  415.8935 0.20 3
  416.1827 0.41 7
  416.4763 0.11 2
  416.6000 0.24 4
  416.8859 0.06 1
  417.1578 0.51 9
  417.3295 0.28 5
  417.3953 0.14 2
  418.0056 0.28 5
  418.2402 0.43 7
  418.3959 0.21 4
  418.6635 0.12 2
  418.8659 0.22 4
  419.0714 0.01 0
  419.3952 0.03 1
  419.7190 0.03 1
  419.8981 0.11 2
  420.0071 0.16 3
  420.1920 0.14 2
  420.7279 0.14 2
  421.1783 0.24 4
  422.3037 0.09 2
  422.9699 0.13 2
  423.1644 0.21 4
  423.3429 0.20 3
  423.7641 0.13 2
  423.8753 0.07 1
  424.0062 0.11 2
  424.1584 0.08 1
  424.4048 0.12 2
  424.7281 0.02 0
  424.9198 0.14 2
  425.1407 0.28 5
  425.3265 0.13 2
  425.8963 0.17 3
  427.2008 0.65 11
  428.0956 0.45 8
  428.6532 0.11 2
  428.7893 0.10 2
  429.2064 0.89 16
  429.5401 0.13 2
  430.2222 0.28 5
  431.1422 0.26 5
  431.3545 0.30 5
  431.6758 0.17 3
  432.1297 0.75 13
  432.2614 0.48 8
  432.4547 0.09 2
  432.7519 0.31 5
  433.2314 1.54 27
  433.8991 0.11 2
  434.1060 0.14 2
  434.3033 0.23 4
  434.4231 0.12 2
  434.6445 0.11 2
  435.0727 0.26 5
  435.1663 0.10 2
  435.5857 0.03 1
  436.0322 0.11 2
  436.1331 0.11 2
  436.6118 0.08 1
  437.0554 0.13 2
  437.1848 0.22 4
  437.7103 0.10 2
  437.9742 0.11 2
  438.2307 0.06 1
  438.5092 0.10 2
  439.1299 0.08 1
  439.5984 0.11 2
  439.9969 0.11 2
  440.5350 0.13 2
  440.7039 0.14 2
  441.0504 0.21 4
  441.2530 0.23 4
  441.4153 0.13 2
  441.5528 0.15 3
  441.7634 0.15 3
  442.0602 0.24 4
  442.2116 0.13 2
  442.3198 0.13 2
  442.6694 0.38 7
  443.1176 1.87 33
  443.3553 0.36 6
  443.5609 0.22 4
  443.7766 0.22 4
  443.9097 0.17 3
  444.1767 0.75 13
  444.3354 0.36 6
  444.5987 0.07 1
  444.8547 0.21 4
  445.1692 0.52 9
  445.2950 0.30 5
  445.8999 0.18 3
  446.1560 0.15 3
  446.3952 0.11 2
  446.5232 0.03 1
  447.0697 0.98 17
  447.2599 0.65 11
  447.3879 0.34 6
  447.7333 0.12 2
  448.1847 0.16 3
  448.5022 0.05 1
  449.0393 0.40 7
  449.2801 0.26 5
  449.3861 0.12 2
  450.3631 0.13 2
  451.1681 0.02 0
  451.3899 0.17 3
  452.1013 0.03 1
  452.3106 0.01 0
  452.4548 0.11 2
  453.3200 0.08 1
  454.0608 0.18 3
  454.8727 0.16 3
  455.0865 0.11 2
  455.1831 0.06 1
  455.3515 0.09 2
  456.1481 0.13 2
  456.5735 0.13 2
  456.9258 0.13 2
  457.1645 0.13 2
  457.2597 0.03 1
  457.7979 0.09 2
  458.0015 0.10 2
  458.1443 0.35 6
  458.3633 0.23 4
  458.5273 0.19 3
  458.6797 0.05 1
  459.0620 0.32 6
  459.3198 0.31 5
  459.4677 0.10 2
  459.5710 0.11 2
  460.0939 2.66 46
  460.3481 0.67 12
  461.1231 12.10 211
  461.6124 0.29 5
  462.1259 0.88 15
  462.4080 0.56 10
  463.0197 0.21 4
  463.1274 0.19 3
  463.4037 0.28 5
  463.9524 0.13 2
  464.2690 0.13 2
  464.7262 0.20 3
  465.0068 0.21 4
  465.1241 0.13 2
  465.3967 0.07 1
  466.2424 0.11 2
  466.8829 0.09 2
  467.0888 0.15 3
  467.4443 0.01 0
  467.9024 0.10 2
  468.1193 0.13 2
  468.2542 0.13 2
  470.2506 0.12 2
  470.4863 0.14 2
  471.3580 0.10 2
  471.7349 0.11 2
  472.1096 0.11 2
  472.2312 0.09 2
  472.6367 0.12 2
  472.7274 0.08 1
  473.0927 0.40 7
  473.3394 0.25 4
  474.0276 0.23 4
  474.2216 0.40 7
  474.4090 0.12 2
  474.5100 0.12 2
  474.9075 0.19 3
  475.2304 0.87 15
  475.4764 0.14 2
  476.2423 1.17 20
  476.5103 0.36 6
  477.2652 0.60 10
  477.4622 0.12 2
  477.6401 0.12 2
  477.9331 0.11 2
  478.0781 0.24 4
  478.1864 0.12 2
  478.9093 0.27 5
  479.3611 0.30 5
  479.4505 0.15 3
  479.9932 0.13 2
  480.1317 0.12 2
  480.3660 0.13 2
  481.0194 0.10 2
  481.3365 0.11 2
  481.8127 0.11 2
  482.0464 0.11 2
  482.1782 0.08 1
  482.6962 0.13 2
  483.0361 0.23 4
  483.3152 0.26 5
  483.6859 0.11 2
  483.9848 0.16 3
  484.9249 0.04 1
  485.2473 0.12 2
  485.4400 0.16 3
  485.9309 0.13 2
  486.1559 0.13 2
  486.3787 0.27 5
  486.7326 0.11 2
  487.8971 0.18 3
  488.2628 0.10 2
  488.5054 0.10 2
  488.8770 0.15 3
  489.2046 0.34 6
  491.1573 0.12 2
  491.2534 0.13 2
  491.4608 0.05 1
  492.2760 0.07 1
  493.3875 0.17 3
  493.7790 0.12 2
  494.0569 0.01 0
  494.4140 0.15 3
  494.9918 0.13 2
  495.1641 0.25 4
  495.5381 0.10 2
  496.2311 0.12 2
  496.4555 0.05 1
  496.8346 0.18 3
  496.9996 0.11 2
  497.4873 0.12 2
  498.2406 0.03 1
  498.3814 0.12 2
  499.0740 0.13 2
  499.3283 0.23 4
  499.6932 0.10 2
  500.0384 0.14 2
  500.2334 0.11 2
  500.3221 0.12 2
  500.6079 0.05 1
  501.1451 0.09 2
  501.3855 0.14 2
  501.5944 0.18 3
  501.8875 0.13 2
  502.3779 0.16 3
  502.8477 0.01 0
  503.0955 0.12 2
  503.4562 0.10 2
  503.6328 0.12 2
  503.7714 0.12 2
  503.9092 0.11 2
  504.0925 0.14 2
  504.3608 0.06 1
  504.9949 0.10 2
  505.1496 0.10 2
  505.2508 0.12 2
  506.0939 0.07 1
  507.1152 0.07 1
  507.2230 0.12 2
  507.3924 0.17 3
  507.9841 0.13 2
  508.2056 0.24 4
  508.4938 0.18 3
  508.6910 0.15 3
  509.0269 0.18 3
  509.3825 0.19 3
  509.5366 0.11 2
  510.0638 0.11 2
  510.6461 0.02 0
  510.7877 0.13 2
  510.9872 0.15 3
  511.1053 0.12 2
  511.2556 0.15 3
  511.5923 0.13 2
  511.7918 0.08 1
  512.2157 0.36 6
  512.3690 0.25 4
  512.4937 0.14 2
  513.1341 0.23 4
  513.2243 0.10 2
  513.6938 0.15 3
  513.8412 0.14 2
  514.0048 0.43 7
  514.1992 0.40 7
  514.4802 0.42 7
  514.7758 0.11 2
  514.8690 0.12 2
  515.0120 0.11 2
  515.2204 0.09 2
  515.4236 0.25 4
  515.8909 0.11 2
  516.2372 0.24 4
  516.3597 0.10 2
  516.7523 0.05 1
  516.8777 0.13 2
  517.1353 0.18 3
  517.2930 0.14 2
  517.5880 0.15 3
  517.8573 0.12 2
  518.0943 0.19 3
  518.3262 0.14 2
  518.4348 0.12 2
  518.7994 0.07 1
  520.0851 0.10 2
  520.1827 0.14 2
  520.6055 0.03 1
  521.0032 0.12 2
  521.2249 0.13 2
  521.5302 0.11 2
  522.1497 0.11 2
  522.3456 0.21 4
  522.6194 0.14 2
  522.9335 0.11 2
  523.3953 0.13 2
  524.0317 0.11 2
  524.4075 0.15 3
  524.9588 0.15 3
  525.0990 0.13 2
  525.3119 0.07 1
  525.7708 0.13 2
  526.1403 0.15 3
  526.4030 0.25 4
  527.1202 0.11 2
  527.2183 0.13 2
  527.3522 0.10 2
  527.5432 0.14 2
  527.9523 0.10 2
  528.1331 0.26 5
  528.2744 0.16 3
  528.3834 0.14 2
  528.9953 0.23 4
  529.3686 0.12 2
  529.5552 0.11 2
  529.9081 0.16 3
  530.0742 0.79 14
  530.1774 0.38 7
  530.3846 0.96 17
  530.6108 0.31 5
  530.8297 0.13 2
  530.9834 0.24 4
  531.2996 0.12 2
  531.8823 0.09 2
  532.3303 0.14 2
  532.8172 0.12 2
  533.0690 0.30 5
  533.4293 0.28 5
  533.5427 0.40 7
  533.8195 0.36 6
  534.1482 0.47 8
  534.4514 0.61 11
  534.6944 0.13 2
  534.8768 0.20 3
  535.1594 0.63 11
  535.3871 0.22 4
  535.5270 0.19 3
  535.7357 0.22 4
  535.9062 0.18 3
  536.2036 0.26 5
  536.4489 0.18 3
  536.7857 0.02 0
  537.3935 0.22 4
  537.6652 0.11 2
  537.8387 0.11 2
  538.1171 0.25 4
  538.2342 0.11 2
  538.4671 0.11 2
  538.6985 0.14 2
  538.9139 0.12 2
  539.0815 0.22 4
  539.2229 0.36 6
  539.3665 0.18 3
  539.5496 0.11 2
  539.7766 0.29 5
  540.1750 0.21 4
  540.3076 0.19 3
  540.5186 0.14 2
  540.8115 0.14 2
  540.9104 0.09 2
  541.2064 0.24 4
  541.2943 0.12 2
  541.5367 0.09 2
  541.7037 0.08 1
  542.2121 0.05 1
  542.4589 0.14 2
  542.8684 0.13 2
  542.9629 0.16 3
  543.1922 0.17 3
  543.3658 0.14 2
  543.4677 0.09 2
  543.5614 0.03 1
  544.1343 0.23 4
  544.8062 0.12 2
  544.9849 0.17 3
  545.1490 0.13 2
  545.2794 0.11 2
  546.2436 0.14 2
  546.4503 0.07 1
  546.8437 0.06 1
  547.0049 0.26 5
  547.1141 0.15 3
  547.2518 0.23 4
  547.3757 0.16 3
  547.5295 0.13 2
  547.7604 0.49 9
  547.9553 0.27 5
  548.1179 0.36 6
  548.2088 0.18 3
  548.4587 0.11 2
  548.6030 0.13 2
  548.8734 0.33 6
  549.3542 0.32 6
  549.6107 0.15 3
  549.7411 0.08 1
  549.9126 0.27 5
  550.1178 0.20 3
  550.3069 0.51 9
  550.4908 0.17 3
  550.6667 0.29 5
  550.9027 0.47 8
  551.0757 0.33 6
  551.2618 0.47 8
  551.4539 0.26 5
  551.5989 0.11 2
  551.8672 0.20 3
  552.1245 0.25 4
  552.2586 0.24 4
  552.5012 0.39 7
  552.9124 0.50 9
  553.0934 0.51 9
  553.3918 0.56 10
  553.9423 0.94 16
  554.2047 1.60 28
  554.4092 0.62 11
  554.7361 0.56 10
  554.9846 0.49 9
  555.3350 0.23 4
  555.5073 0.23 4
  555.6840 0.33 6
  555.8680 0.33 6
  556.2352 0.57 10
  556.5967 0.25 4
  556.9141 0.35 6
  557.1099 0.71 12
  557.3577 0.44 8
  557.5608 0.16 3
  557.7316 0.15 3
  557.8621 0.18 3
  558.1107 0.35 6
  558.2896 0.55 10
  558.4443 0.39 7
  558.5923 0.25 4
  558.9406 0.32 6
  559.2567 0.14 2
  559.4333 0.12 2
  559.6460 0.09 2
  559.7831 0.13 2
  559.9151 0.09 2
  560.1248 0.11 2
  560.2480 0.09 2
  560.3609 0.05 1
  560.6315 0.18 3
  560.7767 0.21 4
  560.8984 0.20 3
  561.2783 0.11 2
  561.6581 0.19 3
  561.8818 0.12 2
  561.9933 0.21 4
  562.0805 0.14 2
  562.2353 0.16 3
  562.3885 0.22 4
  562.7068 0.16 3
  562.8264 0.28 5
  563.2084 1.02 18
  563.4695 0.45 8
  563.6595 0.17 3
  563.7702 0.10 2
  564.1230 0.65 11
  564.3651 0.70 12
  564.4978 0.68 12
  564.7134 0.15 3
  565.0281 0.35 6
  565.1461 0.39 7
  565.4161 0.69 12
  565.7776 0.26 5
  565.9001 0.21 4
  566.0190 0.15 3
  566.1965 0.32 6
  566.3029 0.08 1
  566.4803 0.28 5
  566.8369 0.17 3
  567.2300 0.78 14
  567.5895 0.37 6
  567.7758 0.11 2
  568.2820 2.03 35
  568.8365 0.47 8
  569.0390 0.55 10
  569.2650 0.38 7
  569.5144 0.66 12
  569.7690 0.41 7
  570.2598 0.66 12
  570.6677 0.42 7
  570.8152 1.04 18
  570.9992 0.33 6
  571.2167 0.63 11
  571.5228 0.86 15
  571.8223 0.68 12
  572.1153 0.82 14
  572.5481 0.88 15
  572.7532 0.51 9
  573.0374 0.65 11
  573.1816 0.52 9
  573.3808 0.49 9
  574.0847 1.28 22
  574.5022 0.92 16
  575.0369 0.99 17
  575.8814 0.97 17
  576.4924 0.64 11
  576.7919 1.06 18
  577.2520 0.81 14
  577.4893 0.77 13
  577.7728 1.01 18
  578.0175 0.90 16
  578.4402 1.01 18
  578.8058 0.95 17
  579.1743 0.71 12
  579.4344 0.73 13
  579.7076 0.56 10
  579.8615 0.55 10
  580.0681 0.70 12
  580.2103 0.77 13
  581.2675 2.38 42
  582.2714 10.59 185
  583.3053 5.43 95
  583.9223 0.26 5
  584.1479 0.58 10
  584.4645 0.46 8
  584.7042 0.20 3
  584.9299 0.30 5
  585.4150 0.47 8
  585.7529 0.41 7
  586.0908 0.49 9
  586.4000 0.43 7
  586.5847 0.44 8
  586.7855 0.36 6
  587.3359 0.51 9
  587.6401 0.19 3
  587.9061 0.60 10
  588.1209 0.53 9
  588.3525 0.57 10
  588.5804 0.83 14
  588.8539 0.38 7
  589.0613 0.30 5
  589.3706 0.62 11
  589.7510 0.75 13
  590.0450 0.60 10
  590.2795 0.43 7
  590.7971 0.79 14
  591.1453 0.59 10
  591.4363 0.97 17
  591.8240 0.68 12
  592.1723 0.79 14
  592.3401 0.63 11
  592.5696 0.94 16
  592.8555 0.70 12
  593.2448 0.93 16
  593.5931 0.83 14
  593.9750 1.30 23
  594.3504 0.97 17
  594.6884 1.12 20
  596.2814 21.85 381
  597.2738 2.03 35
  597.5319 1.46 25
  598.2150 2.00 35
  598.4283 1.34 23
  598.8250 0.97 17
  599.2633 3.19 56
  599.5287 2.48 43
  599.8220 0.87 15
  600.0008 0.53 9
  600.2193 0.84 15
  600.4246 1.25 22
  600.5675 0.64 11
  600.8549 0.96 17
  601.3718 0.76 13
  601.7068 0.72 13
  602.1189 0.77 13
  602.4789 0.66 12
  603.1109 1.05 18
  603.4305 0.93 16
  603.8089 0.87 15
  604.3383 0.74 13
  604.9052 1.11 19
  605.4609 1.35 24
  606.4920 1.37 24
  607.2275 1.52 27
  607.6756 1.43 25
  609.0690 2.40 42
  614.3230 99.96 999
  614.9913 35.20 614
  615.5833 16.13 281
  616.3060 7.71 134
  617.0902 4.58 80
  617.7645 2.94 51
  618.6970 1.58 28
  619.1842 1.06 18
  619.5670 1.04 18
  619.9717 0.98 17
  620.2103 0.55 10
  620.5616 0.78 14
  621.0257 0.60 10
  621.2555 0.25 4
  621.4663 0.29 5
  621.7547 0.25 4
  622.0013 0.16 3
  622.2275 0.37 6
  622.4471 0.21 4
  622.7523 0.35 6
  622.9661 0.19 3
  623.1798 0.16 3
  623.3599 0.16 3
//
