ACCESSION: MSBNK-Kyoto_Univ-CA000025
RECORD_TITLE: Semi-alpha-carotenone; FAB-EBEB; MS2; m/z: 568.43; [M]+*
DATE: 2016.01.19 (Created 2010.04.01, modified 2011.05.10)
AUTHORS: Akimoto N, Graduate School of Pharmaceutical Sciences, Kyoto University and Maoka T, Research Institute for Production Development
LICENSE: CC BY-SA
PUBLICATION: Takashi Maoka, Yasuhiro Fujiwara, Keiji Hashimoto, and Naoshige Akimoto, Carotenoids in Three Species of Corbicula Clams, Corbicula japonica, Corbicula sandai, and Corbicula sp. (Chinese Freshwater Corbicula Clam), J. Agric. Food Chem., 53, 8357-8364 (2005).
COMMENT: Profile spectrum of this record is given as a JPEG file.
COMMENT: [Profile] CA000025.jpg
CH$NAME: Semi-alpha-carotenone
CH$COMPOUND_CLASS: N/A
CH$FORMULA: C40H56O2
CH$EXACT_MASS: 568.42803
CH$SMILES: C(C)(C)(C(C=CC(C)=CC=CC(C)=CC=CC=C(C=CC=C(C)C=CC(C1(C)C)C(C)=CCC1)C)=O)CCCC(C)=O
CH$IUPAC: InChI=1S/C40H56O2/c1-31(19-13-21-33(3)25-27-37-35(5)23-15-29-39(37,7)8)17-11-12-18-32(2)20-14-22-34(4)26-28-38(42)40(9,10)30-16-24-36(6)41/h11-14,17-23,25-28,37H,15-16,24,29-30H2,1-10H3/b12-11+,19-13+,20-14+,27-25+,28-26+,31-17+,32-18+,33-21+,34-22+/t37-/m0/s1
CH$LINK: INCHIKEY OPGDFUSKKYCZKS-NTXLUARGSA-N
AC$INSTRUMENT: JMS-HX/HX 110A, JEOL
AC$INSTRUMENT_TYPE: FAB-EBEB
AC$MASS_SPECTROMETRY: MS_TYPE MS2
AC$MASS_SPECTROMETRY: ION_MODE POSITIVE
AC$MASS_SPECTROMETRY: ATOM_GUN_CURRENT 5 mA
AC$MASS_SPECTROMETRY: BOMBARDMENT 6 kV xenon
AC$MASS_SPECTROMETRY: COLLISION_ENERGY 3 kV
AC$MASS_SPECTROMETRY: COLLISION_GAS Ar
AC$MASS_SPECTROMETRY: GAS_PRESSURE adjust to attenuate the intensity of the precursor ion by 30 %
AC$MASS_SPECTROMETRY: IONIZATION FAB
AC$MASS_SPECTROMETRY: MATRIX 1-2 uL m-NBA
AC$MASS_SPECTROMETRY: PROBE_TIP stainless-steel
MS$FOCUSED_ION: BASE_PEAK 68.9396
MS$FOCUSED_ION: PRECURSOR_M/Z 568.43
MS$FOCUSED_ION: PRECURSOR_TYPE [M]+*
MS$DATA_PROCESSING: RELATIVE_M/Z normalised by peak(m/z=68.9396).  set 999 for peak(m/z=568.9187,rel=1046).  set 999 for peak(m/z=568.2789,rel=2239).
PK$SPLASH: splash10-014i-3920130000-4c9e5a369e4a41b7dced
PK$NUM_PEAK: 1683
PK$PEAK: m/z int. rel.int.
  0.0144 0.01 0
  0.1703 0.01 0
  0.2883 0.01 0
  0.3418 0.02 0
  0.3865 0.01 0
  0.5009 0.01 0
  0.7535 0.01 0
  1.2185 0.01 0
  2.0093 0.01 0
  2.1912 0.01 0
  3.1494 0.01 0
  3.6566 0.01 0
  4.2839 0.01 0
  4.8059 0.02 0
  5.0531 0.01 0
  5.5350 0.01 0
  6.5953 0.01 0
  7.7987 0.01 0
  8.1718 0.01 0
  9.0061 0.12 3
  10.2684 0.01 0
  10.6555 0.01 0
  11.4450 0.01 0
  12.9563 0.11 2
  13.6446 0.01 0
  14.4741 0.01 0
  14.9627 0.23 5
  15.2604 0.01 0
  15.9699 0.02 0
  16.2065 0.01 0
  16.3614 0.01 0
  17.1390 0.01 0
  17.8106 0.01 0
  18.8911 0.01 0
  20.4878 0.01 0
  21.7282 0.01 0
  22.1498 0.01 0
  22.9137 0.27 6
  23.9393 0.10 2
  24.3535 0.01 0
  24.6407 0.01 0
  24.9049 0.06 1
  25.9458 0.77 17
  26.9376 2.96 66
  27.9473 0.82 18
  28.3829 0.01 0
  28.9505 2.90 65
  29.9299 0.14 3
  31.9060 0.01 0
  33.7210 0.01 0
  34.4571 0.01 0
  35.2802 0.01 0
  36.9128 0.20 4
  37.0502 0.01 0
  37.9092 0.90 20
  38.9235 6.51 146
  39.7110 0.01 0
  39.9275 0.94 21
  40.9414 13.88 311
  41.9415 0.40 9
  42.5135 0.01 0
  42.9208 30.08 674
  43.3264 0.01 0
  43.9273 0.27 6
  44.9405 0.38 9
  45.3924 0.01 0
  48.9125 0.11 2
  49.9007 1.45 32
  50.9088 2.14 48
  51.9180 1.49 33
  52.9340 6.93 155
  53.9296 0.46 10
  54.9400 14.53 325
  55.9454 0.68 15
  56.9435 2.30 52
  57.9470 0.34 8
  58.9264 0.86 19
  60.2544 0.01 0
  60.9088 0.13 3
  60.9974 0.06 1
  61.9031 0.78 17
  62.9133 2.09 47
  63.2372 0.08 2
  63.5653 0.10 2
  63.9151 0.62 14
  64.3673 0.16 4
  64.4565 0.03 1
  64.9214 5.75 129
  65.1372 0.05 1
  65.5967 0.06 1
  65.9313 1.68 38
  66.3855 0.07 2
  66.9305 6.73 151
  67.9442 0.79 18
  68.3197 0.01 0
  68.9396 44.60 999
  69.2495 0.11 2
  69.9346 0.44 10
  70.4001 0.13 3
  70.5307 0.06 1
  70.9148 8.41 188
  71.9173 0.23 5
  72.9410 0.09 2
  73.2765 0.01 0
  73.8689 0.39 9
  74.7904 0.22 5
  74.9195 0.93 21
  75.1430 0.19 4
  75.4258 0.06 1
  75.5783 0.02 0
  75.6792 0.12 3
  75.7529 0.09 2
  75.8997 0.86 19
  76.1141 0.04 1
  76.4000 0.09 2
  76.5198 0.22 5
  76.9016 14.57 326
  77.1842 0.06 1
  77.2734 0.06 1
  77.5394 0.23 5
  77.9118 2.87 64
  78.1497 0.15 3
  78.2812 0.03 1
  78.4988 0.02 0
  78.9163 15.49 347
  79.5302 0.13 3
  79.7140 0.11 2
  79.9213 2.44 55
  80.9281 19.90 446
  81.2588 0.12 3
  81.5868 0.11 2
  81.9093 0.40 9
  82.3651 0.14 3
  82.9210 3.33 75
  83.2564 0.02 0
  83.9134 0.22 5
  84.9389 3.09 69
  85.8792 0.38 9
  86.9008 0.83 19
  87.9352 0.32 7
  88.3459 0.09 2
  88.4546 0.11 2
  88.8838 2.23 50
  89.0841 0.20 4
  89.2207 0.28 6
  89.3417 0.17 4
  89.4772 0.13 3
  89.6549 0.12 3
  89.8852 0.61 14
  90.1843 0.10 2
  90.4933 0.28 6
  90.9088 28.15 631
  91.1917 0.16 4
  91.2673 0.09 2
  91.9143 3.76 84
  92.1651 0.04 1
  92.3094 0.13 3
  92.4470 0.19 4
  92.9245 21.51 482
  93.1382 0.19 4
  93.3605 0.34 8
  93.5435 0.19 4
  93.9168 1.56 35
  94.2483 0.11 2
  94.4917 0.03 1
  94.9424 13.57 304
  95.2813 0.12 3
  95.6077 0.08 2
  95.9239 0.36 8
  96.9520 0.92 21
  97.1785 0.17 4
  97.3022 0.01 0
  97.7672 0.05 1
  97.9290 0.22 5
  98.7912 0.12 3
  98.9116 0.44 10
  99.2207 0.11 2
  99.9091 0.34 8
  100.4609 0.16 4
  100.6156 0.16 4
  100.7882 0.26 6
  100.9369 0.44 10
  101.2052 0.15 3
  101.4311 0.15 3
  101.5552 0.03 1
  101.9012 2.11 47
  102.4186 0.20 4
  102.9155 6.36 142
  103.2641 0.14 3
  103.4463 0.18 4
  103.5938 0.13 3
  103.9305 3.47 78
  104.1377 0.09 2
  104.3828 0.14 3
  104.9287 36.39 815
  105.2911 0.07 2
  105.5063 0.21 5
  105.9350 3.10 69
  106.2401 0.13 3
  106.4587 0.15 3
  106.9396 14.83 332
  107.3197 0.13 3
  107.9442 1.26 28
  108.3936 0.08 2
  108.9499 40.55 908
  109.3257 0.10 2
  109.5668 0.17 4
  109.9517 0.42 9
  110.7542 0.09 2
  110.9689 1.11 25
  111.3278 0.01 0
  111.8204 0.29 6
  111.9332 0.37 8
  112.1433 0.06 1
  112.3171 0.05 1
  112.4370 0.06 1
  112.5619 0.10 2
  112.8751 1.27 28
  113.1025 0.10 2
  113.2056 0.13 3
  113.4808 0.24 5
  113.5902 0.13 3
  113.8751 0.64 14
  114.0928 0.24 5
  114.2450 0.06 1
  114.4698 0.34 8
  114.8974 18.00 403
  115.1614 0.08 2
  115.2717 0.21 5
  115.4961 0.15 3
  115.8941 6.27 140
  116.1604 0.19 4
  116.3504 0.22 5
  116.5152 0.13 3
  116.9012 15.83 355
  117.1161 0.34 8
  117.2709 0.11 2
  117.6067 0.17 4
  117.9009 3.56 80
  118.1142 0.08 2
  118.4377 0.07 2
  118.9084 32.92 737
  119.3357 0.11 2
  119.9110 3.71 83
  120.2373 0.15 3
  120.5847 0.08 2
  120.9087 15.31 343
  121.2233 0.25 6
  121.4510 0.10 2
  121.5731 0.10 2
  121.9307 2.98 67
  122.3584 0.19 4
  122.4794 0.28 6
  122.9260 23.53 527
  123.3461 0.21 5
  123.6286 0.13 3
  123.6975 0.08 2
  123.9234 0.39 9
  124.1206 0.04 1
  124.3510 0.06 1
  124.5304 0.24 5
  124.7029 0.16 4
  124.8869 1.03 23
  125.1143 0.28 6
  125.3285 0.17 4
  125.5900 0.11 2
  125.8772 0.70 16
  126.0384 0.25 6
  126.1645 0.22 5
  126.8880 10.27 230
  127.1712 0.47 11
  127.3442 0.08 2
  127.8699 19.13 428
  128.2073 0.26 6
  128.8691 19.73 442
  129.2031 0.07 2
  129.4768 0.14 3
  129.8818 8.65 194
  130.1236 0.22 5
  130.3416 0.17 4
  130.8873 19.07 427
  131.2460 0.10 2
  131.3915 0.03 1
  131.8954 6.52 146
  132.1887 0.39 9
  132.3589 0.10 2
  132.4453 0.09 2
  132.8949 14.65 328
  133.1150 0.24 5
  133.2228 0.28 6
  133.5172 0.24 5
  133.6773 0.09 2
  133.9053 1.51 34
  134.2187 0.12 3
  134.4165 0.02 0
  134.9001 4.51 101
  135.1305 0.17 4
  135.4785 0.14 3
  135.5913 0.10 2
  135.8694 1.28 29
  136.1845 0.13 3
  136.3071 0.10 2
  136.9119 1.54 34
  137.2093 0.06 1
  137.6659 0.35 8
  137.7971 0.16 4
  137.8946 0.20 4
  138.3092 0.13 3
  138.8685 2.83 63
  139.3207 0.07 2
  139.4607 0.33 7
  139.8728 1.09 24
  140.1535 0.19 4
  140.3926 0.46 10
  140.8742 16.05 360
  141.1461 0.30 7
  141.2622 0.24 5
  141.4337 0.27 6
  141.8845 14.89 334
  142.2011 0.16 4
  142.3701 0.22 5
  142.5177 0.18 4
  142.8848 26.80 600
  143.1552 0.11 2
  143.3016 0.33 7
  143.4068 0.13 3
  143.8821 10.42 233
  144.1215 0.12 3
  144.3661 0.17 4
  144.5657 0.17 4
  144.8968 30.96 693
  145.2562 0.23 5
  145.4704 0.17 4
  145.5706 0.12 3
  145.8994 3.10 69
  146.1255 0.15 3
  146.4512 0.50 11
  146.8997 9.23 207
  147.1490 0.08 2
  147.2756 0.08 2
  147.4318 0.14 3
  147.6779 0.10 2
  147.8997 0.98 22
  148.0862 0.09 2
  148.4138 0.13 3
  148.9269 2.24 50
  149.2496 0.02 0
  149.8104 0.55 12
  150.0025 0.06 1
  150.3604 0.24 5
  150.5367 0.15 3
  150.8855 1.04 23
  151.0620 0.26 6
  151.2549 0.20 4
  151.8721 5.71 128
  152.2293 0.39 9
  152.5068 0.39 9
  152.8945 7.62 171
  153.1814 0.18 4
  153.4004 0.13 3
  153.4968 0.15 3
  153.8756 4.26 95
  154.3172 0.17 4
  154.9084 16.39 367
  155.1984 0.13 3
  155.9236 11.96 268
  156.3502 0.27 6
  156.9238 23.20 520
  157.2660 0.32 7
  157.4673 0.30 7
  157.5758 0.19 4
  157.9308 6.01 135
  158.1309 0.36 8
  158.3846 0.43 10
  158.9181 30.24 677
  159.2012 0.12 3
  159.4267 0.58 13
  159.6097 0.26 6
  159.9341 1.45 32
  160.3296 0.20 4
  160.4378 0.12 3
  160.6177 0.12 3
  160.9344 3.56 80
  161.6271 0.08 2
  161.7201 0.06 1
  161.9547 0.54 12
  162.2956 0.14 3
  162.6699 0.10 2
  162.9273 1.39 31
  163.0909 0.23 5
  163.2412 0.30 7
  163.4721 0.31 7
  163.7362 0.42 9
  163.9399 0.83 19
  164.0876 0.58 13
  164.2707 0.56 13
  164.5144 0.69 15
  164.9346 12.21 273
  165.2097 0.16 4
  165.4769 0.43 10
  165.9281 5.06 113
  166.2915 0.16 4
  166.4355 0.13 3
  166.9424 11.44 256
  167.2473 0.19 4
  167.9464 4.29 96
  168.1699 0.17 4
  168.2750 0.25 6
  168.4593 0.28 6
  168.9558 15.35 344
  169.3213 0.13 3
  169.4298 0.13 3
  169.9480 5.22 117
  170.2704 0.03 1
  170.5276 0.35 8
  170.9635 11.17 250
  171.2862 0.32 7
  171.4716 0.06 1
  171.9538 2.58 58
  172.1907 0.17 4
  172.3521 0.16 4
  172.5690 0.15 3
  172.9622 6.71 150
  173.2165 0.11 2
  173.3908 0.26 6
  173.5578 0.36 8
  173.9986 0.63 14
  174.1790 0.09 2
  174.3320 0.12 3
  174.4890 0.12 3
  174.9656 2.90 65
  175.4604 0.12 3
  175.7192 0.32 7
  175.9499 1.71 38
  176.2670 0.17 4
  176.3928 0.07 2
  176.5595 0.08 2
  176.9858 2.28 51
  177.2529 0.38 9
  177.5475 0.30 7
  177.9306 6.07 136
  178.2998 0.11 2
  178.9062 9.89 222
  179.5156 0.28 6
  179.9354 5.33 119
  180.4143 0.28 6
  180.5271 0.15 3
  180.9411 13.34 299
  181.3150 0.21 5
  181.5472 0.14 3
  181.9340 5.94 133
  182.3350 0.38 9
  182.4525 0.12 3
  182.6104 0.28 6
  182.9491 12.96 290
  183.3147 0.12 3
  183.4511 0.06 1
  183.6151 0.22 5
  183.9607 3.54 79
  184.2411 0.13 3
  184.5202 0.12 3
  184.9488 7.88 177
  185.2852 0.05 1
  185.4999 0.24 5
  185.9704 1.81 41
  186.2741 0.28 6
  186.4956 0.09 2
  186.9583 3.05 68
  187.1739 0.21 5
  187.2642 0.12 3
  187.4111 0.08 2
  187.5627 0.13 3
  187.9172 0.70 16
  188.1511 0.24 5
  188.3965 0.23 5
  188.9271 3.52 79
  189.2212 0.30 7
  189.3372 0.13 3
  189.5052 0.24 5
  189.8959 2.03 45
  190.0281 0.72 16
  190.2880 0.28 6
  190.3730 0.10 2
  190.6221 0.50 11
  190.9252 4.70 105
  191.1143 0.37 8
  191.2109 0.16 4
  191.2953 0.06 1
  191.4202 0.12 3
  191.9234 4.10 92
  192.4762 1.73 39
  192.9303 7.75 174
  193.2636 0.14 3
  193.5936 0.28 6
  193.9412 4.20 94
  194.1921 0.38 9
  194.9336 12.36 277
  195.3316 0.13 3
  195.5225 0.27 6
  195.9429 4.37 98
  196.1772 0.15 3
  196.5429 0.13 3
  196.9547 12.29 275
  197.3809 0.03 1
  197.9454 2.58 58
  198.3562 0.25 6
  198.5318 0.20 4
  198.9441 4.54 102
  199.2378 0.18 4
  199.4942 0.21 5
  199.6678 0.26 6
  199.9596 0.99 22
  200.1367 0.33 7
  200.2473 0.14 3
  200.5683 0.17 4
  200.9613 2.52 56
  201.2350 0.17 4
  201.8821 2.40 54
  202.0390 0.73 16
  202.1674 0.18 4
  202.2788 0.13 3
  202.4025 0.11 2
  202.9270 3.66 82
  203.3457 0.22 5
  203.5156 0.10 2
  203.9269 2.41 54
  204.2029 0.17 4
  204.4824 0.11 2
  204.5879 0.20 4
  204.9177 4.35 97
  205.1933 0.23 5
  205.5348 0.32 7
  205.6968 0.20 4
  205.9520 3.80 85
  206.4066 0.41 9
  206.9452 7.35 165
  207.2114 0.19 4
  207.5172 0.18 4
  207.9463 2.68 60
  208.2481 0.11 2
  208.4451 0.20 4
  208.9500 10.15 227
  209.2963 0.16 4
  209.3822 0.17 4
  209.5485 0.16 4
  209.9426 2.55 57
  210.2590 0.36 8
  210.4718 0.14 3
  210.9664 6.48 145
  211.4972 0.05 1
  211.5941 0.05 1
  211.9647 1.23 28
  212.5114 0.44 10
  212.9682 2.60 58
  213.2926 0.13 3
  213.6225 0.15 3
  213.7188 0.25 6
  213.9825 0.75 17
  214.1888 0.13 3
  214.2796 0.08 2
  214.4457 0.30 7
  214.5748 0.27 6
  214.6876 0.22 5
  214.9425 2.69 60
  215.3423 0.38 9
  215.5173 0.05 1
  215.9453 1.76 39
  216.4944 0.09 2
  216.9397 2.61 58
  217.2886 0.17 4
  217.3988 0.17 4
  217.6738 0.31 7
  217.9523 1.59 36
  218.2528 0.35 8
  218.5492 0.15 3
  218.9476 3.27 73
  219.9810 3.37 75
  220.2488 0.23 5
  220.9579 13.42 301
  221.3047 0.15 3
  221.5459 0.08 2
  222.0100 2.47 55
  222.3308 0.22 5
  222.5612 0.04 1
  223.0028 5.64 126
  223.2367 0.17 4
  223.3492 0.06 1
  223.5502 0.01 0
  224.0050 1.61 36
  224.1882 0.20 4
  224.2719 0.08 2
  224.4284 0.10 2
  224.9987 2.54 57
  225.3083 0.17 4
  225.4119 0.16 4
  225.5286 0.12 3
  225.7174 0.37 8
  225.9735 1.17 26
  226.3313 0.22 5
  226.5593 0.19 4
  226.9866 1.03 23
  227.5327 0.63 14
  227.6138 0.40 9
  227.9677 1.00 22
  228.2316 0.15 3
  228.5127 0.09 2
  228.6424 0.20 4
  228.9845 1.97 44
  229.5776 0.17 4
  229.6928 0.25 6
  229.9253 0.88 20
  230.0680 0.29 6
  230.4884 0.04 1
  230.7292 0.35 8
  230.9989 2.84 64
  231.2857 0.36 8
  231.9686 1.79 40
  232.3255 0.24 5
  232.5761 0.03 1
  232.9977 4.07 91
  233.5189 0.03 1
  234.0045 1.82 41
  234.3590 0.16 4
  234.5486 0.21 5
  234.7403 0.61 14
  235.0131 4.55 102
  235.2584 0.13 3
  235.4062 0.13 3
  235.5752 0.21 5
  235.7058 0.21 5
  236.0138 1.80 40
  236.3232 0.16 4
  236.4648 0.12 3
  236.6869 0.34 8
  237.0039 2.69 60
  237.4433 0.14 3
  238.0156 0.77 17
  238.7009 0.42 9
  238.9968 1.83 41
  239.7277 0.15 3
  240.0161 0.83 19
  240.1992 0.24 5
  240.5793 0.37 8
  240.7701 0.33 7
  241.0159 1.74 39
  241.3664 0.19 4
  241.5565 0.07 2
  241.9698 1.15 26
  242.4183 0.15 3
  242.6561 0.12 3
  242.9937 1.90 43
  243.5747 0.16 4
  243.9476 1.00 22
  244.0669 0.46 10
  244.2089 0.21 5
  244.3123 0.15 3
  244.5364 0.17 4
  244.9729 3.02 68
  245.2308 0.16 4
  245.4494 0.19 4
  245.7101 0.20 4
  246.0033 0.58 13
  246.2358 0.36 8
  246.3227 0.19 4
  246.9948 3.04 68
  247.4012 0.17 4
  247.6711 0.13 3
  247.9831 1.20 27
  248.1432 0.40 9
  248.4380 0.12 3
  248.5941 0.25 6
  249.0063 2.82 63
  249.4241 0.32 7
  249.6838 0.20 4
  250.0409 0.86 19
  250.5300 0.14 3
  251.0108 1.59 36
  251.2423 0.24 5
  251.9500 0.70 16
  252.1187 0.35 8
  252.3212 0.26 6
  252.7201 0.40 9
  253.0409 1.42 32
  253.1743 0.70 16
  253.3852 0.24 5
  253.4848 0.12 3
  253.6909 0.12 3
  254.0000 0.73 16
  254.4722 0.28 6
  254.6927 0.20 4
  255.0038 1.40 31
  255.3343 0.12 3
  255.6032 0.22 5
  255.8300 0.47 11
  256.0188 0.79 18
  256.2069 0.11 2
  256.5306 0.14 3
  256.6385 0.11 2
  256.9878 1.90 43
  257.5544 0.04 1
  258.0207 0.88 20
  258.3805 0.15 3
  258.5868 0.12 3
  258.9916 1.58 35
  259.4222 0.21 5
  259.9753 0.71 16
  260.1089 0.65 15
  260.3347 0.15 3
  260.5085 0.21 5
  261.0348 2.95 66
  261.3402 0.14 3
  261.9380 1.17 26
  262.0842 0.98 22
  262.3073 0.23 5
  262.4548 0.16 4
  262.6599 0.27 6
  263.0327 2.60 58
  263.2725 0.23 5
  263.6093 0.16 4
  264.0203 0.92 21
  265.0110 1.41 32
  265.3279 0.08 2
  265.7426 0.36 8
  265.9950 0.80 18
  267.0424 1.53 34
  267.3741 0.15 3
  267.6599 0.17 4
  267.9445 0.30 7
  268.0673 0.14 3
  268.3414 0.14 3
  268.7481 0.10 2
  269.0355 1.31 29
  269.3326 0.16 4
  269.6214 0.16 4
  269.7366 0.13 3
  269.9824 0.38 9
  270.2324 0.13 3
  270.5136 0.23 5
  271.0129 0.93 21
  271.5866 0.20 4
  271.8187 0.13 3
  272.0160 0.20 4
  272.2180 0.13 3
  272.6280 0.11 2
  273.0131 1.82 41
  273.4308 0.14 3
  274.0442 0.63 14
  274.5023 0.16 4
  275.0430 1.85 41
  275.7921 0.32 7
  276.0157 0.41 9
  276.1247 0.75 17
  276.5260 0.14 3
  276.6545 0.21 5
  277.0406 1.34 30
  277.5456 0.19 4
  277.6693 0.11 2
  277.8735 0.14 3
  278.0708 0.79 18
  278.2250 0.03 1
  278.5328 0.15 3
  279.0546 0.95 21
  279.1873 0.67 15
  279.3500 0.13 3
  279.5717 0.12 3
  279.7245 0.15 3
  279.9831 0.67 15
  280.1840 0.19 4
  280.9869 0.99 22
  281.1308 0.77 17
  281.5612 0.14 3
  282.0556 0.66 15
  282.2086 0.20 4
  282.4124 0.12 3
  283.0286 0.61 14
  283.2436 0.17 4
  283.4794 0.12 3
  283.6491 0.12 3
  283.8773 0.13 3
  284.0276 0.51 11
  284.1890 0.36 8
  284.6413 0.15 3
  284.9718 1.22 27
  285.1556 0.41 9
  285.4883 0.01 0
  285.7743 0.10 2
  286.0179 0.44 10
  286.4043 0.15 3
  287.0636 1.15 26
  287.4591 0.01 0
  288.0796 0.36 8
  288.7163 0.16 4
  289.0391 1.64 37
  289.2513 0.19 4
  289.5769 0.14 3
  290.0925 0.87 19
  291.0132 1.17 26
  291.7162 0.09 2
  291.9104 0.45 10
  292.0294 0.26 6
  292.3413 0.15 3
  292.5536 0.07 2
  292.7173 0.13 3
  292.9979 0.61 14
  293.1824 0.43 10
  293.2917 0.15 3
  293.6455 0.18 4
  293.7423 0.14 3
  294.0599 0.45 10
  294.5015 0.03 1
  294.6902 0.15 3
  294.8602 0.22 5
  295.0420 0.33 7
  295.1841 0.24 5
  295.8892 0.14 3
  296.1038 0.45 10
  296.9484 0.91 20
  297.1184 0.59 13
  297.2906 0.11 2
  298.0315 0.56 13
  298.2204 0.17 4
  298.3849 0.17 4
  298.6666 0.13 3
  299.0341 1.42 32
  299.3485 0.10 2
  299.6010 0.19 4
  299.7418 0.23 5
  299.8736 0.14 3
  300.0612 0.48 11
  300.1867 0.07 2
  300.5564 0.17 4
  300.7838 0.17 4
  300.9616 0.83 19
  301.1541 0.58 13
  301.2455 0.21 5
  301.5420 0.02 0
  301.9445 0.53 12
  302.1141 0.37 8
  302.2320 0.15 3
  302.5788 0.08 2
  302.7253 0.04 1
  303.0498 0.74 17
  303.9906 0.30 7
  304.1099 0.26 6
  304.2286 0.05 1
  304.5923 0.06 1
  304.9944 0.23 5
  305.1857 0.10 2
  305.8476 0.35 8
  305.9719 0.37 8
  306.0878 0.23 5
  306.2191 0.21 5
  306.5633 0.07 2
  306.9956 0.42 9
  307.1849 0.45 10
  307.4545 0.08 2
  307.8003 0.16 4
  307.9008 0.13 3
  308.1320 0.34 8
  308.7818 0.25 6
  308.9977 0.84 19
  309.1591 0.13 3
  310.0053 0.31 7
  310.1835 0.15 3
  310.3708 0.01 0
  311.0040 0.75 17
  311.1592 0.32 7
  311.8037 0.03 1
  311.9519 0.46 10
  312.0638 0.43 10
  312.1980 0.25 6
  312.6700 0.23 5
  312.9217 0.32 7
  313.0238 0.16 4
  313.1804 0.08 2
  313.3035 0.14 3
  313.4790 0.12 3
  313.8986 0.32 7
  314.1231 0.14 3
  314.4959 0.12 3
  314.8268 0.29 6
  315.0303 0.53 12
  315.2157 0.11 2
  315.6663 0.12 3
  315.8426 0.09 2
  315.9860 0.23 5
  316.1196 0.14 3
  316.6227 0.12 3
  316.9397 0.53 12
  317.0894 0.47 11
  317.7669 0.13 3
  318.1246 0.37 8
  318.2485 0.19 4
  318.4487 0.10 2
  318.7266 0.18 4
  319.0521 1.32 30
  319.2999 0.12 3
  319.3937 0.08 2
  319.6794 0.19 4
  319.7998 0.14 3
  319.9811 0.20 4
  320.1548 0.27 6
  320.8985 0.36 8
  321.1275 0.82 18
  321.3341 0.11 2
  321.6520 0.13 3
  322.0597 0.40 9
  322.2033 0.11 2
  322.4036 0.13 3
  322.9374 0.45 10
  323.1406 0.34 8
  323.5456 0.01 0
  324.0171 0.32 7
  324.6198 0.09 2
  325.0115 0.60 13
  325.1538 0.38 9
  326.0642 0.55 12
  326.2416 0.16 4
  326.6089 0.15 3
  326.9153 0.55 12
  327.0702 0.38 9
  327.2644 0.12 3
  327.5098 0.20 4
  327.7524 0.12 3
  327.9067 0.09 2
  328.0771 0.36 8
  329.0336 0.65 15
  329.2840 0.11 2
  329.6789 0.06 1
  330.1299 0.21 5
  330.5101 0.08 2
  330.8567 0.14 3
  331.1057 0.49 11
  331.7130 0.12 3
  331.9436 0.40 9
  332.0844 0.47 11
  332.2533 0.39 9
  332.4797 0.12 3
  333.0845 0.70 16
  333.2345 0.45 10
  333.6992 0.17 4
  333.9543 0.14 3
  334.0840 0.12 3
  334.1878 0.05 1
  334.5236 0.08 2
  334.8166 0.14 3
  335.0332 0.29 6
  335.1685 0.13 3
  335.2716 0.04 1
  335.3971 0.05 1
  336.7932 0.16 4
  336.9553 0.11 2
  337.1180 0.33 7
  337.4167 0.01 0
  337.8453 0.11 2
  337.9737 0.29 6
  338.1652 0.14 3
  338.9516 0.27 6
  339.1704 0.32 7
  339.3227 0.13 3
  339.9675 0.05 1
  340.1647 0.14 3
  340.6874 0.15 3
  340.9506 0.20 4
  341.0875 0.31 7
  341.2812 0.15 3
  341.4749 0.06 1
  342.0974 0.23 5
  342.2126 0.19 4
  343.0816 0.25 6
  343.2599 0.11 2
  343.4417 0.09 2
  344.1010 0.33 7
  344.3383 0.09 2
  344.4774 0.01 0
  345.1150 0.61 14
  345.2688 0.52 12
  345.9352 0.19 4
  346.1396 0.32 7
  346.2878 0.15 3
  346.4156 0.15 3
  346.6475 0.15 3
  346.9003 0.04 1
  347.1399 0.40 9
  347.3049 0.18 4
  348.1550 0.13 3
  348.2646 0.16 4
  349.0326 0.35 8
  349.2258 0.12 3
  350.0023 0.14 3
  350.2272 0.17 4
  350.9069 0.18 4
  351.1367 0.49 11
  351.4875 0.14 3
  352.0294 0.36 8
  352.2790 0.33 7
  353.0847 0.74 17
  353.1677 0.37 8
  353.2640 0.21 5
  353.8371 0.10 2
  354.0804 0.38 9
  354.1901 0.18 4
  354.2808 0.04 1
  354.3912 0.05 1
  354.5536 0.20 4
  354.8040 0.17 4
  355.0094 0.44 10
  355.1571 0.34 8
  355.2914 0.15 3
  356.1108 0.64 14
  356.3134 0.15 3
  356.6898 0.09 2
  356.8030 0.13 3
  357.1576 0.63 14
  357.5720 0.25 6
  357.7767 0.11 2
  357.8921 0.11 2
  358.2467 0.47 11
  358.5877 0.17 4
  358.8388 0.22 5
  359.1678 0.54 12
  359.7142 0.15 3
  359.8581 0.10 2
  360.1541 0.63 14
  360.2615 0.29 6
  360.6375 0.13 3
  360.8270 0.01 0
  361.1069 0.44 10
  361.2669 0.35 8
  361.7841 0.13 3
  362.2101 0.13 3
  362.5076 0.07 2
  362.6880 0.13 3
  363.0445 0.19 4
  363.1940 0.37 8
  363.9570 0.13 3
  365.1406 1.53 34
  365.2564 0.63 14
  365.5878 0.18 4
  366.0224 0.39 9
  366.2099 0.23 5
  366.9830 0.29 6
  367.1768 0.23 5
  367.9606 0.14 3
  368.1208 0.14 3
  368.3139 0.08 2
  368.8871 0.12 3
  369.1076 0.36 8
  369.2123 0.14 3
  369.3338 0.18 4
  369.6844 0.07 2
  370.1368 0.65 15
  370.3265 0.20 4
  370.5428 0.08 2
  370.9033 0.16 4
  371.1471 0.50 11
  371.4141 0.14 3
  371.7943 0.03 1
  372.0550 0.36 8
  373.1399 0.01 0
  374.1638 0.16 4
  374.4062 0.13 3
  374.9003 0.01 0
  375.1871 0.03 1
  376.0137 0.05 1
  376.1395 0.14 3
  376.6576 0.13 3
  376.8045 0.12 3
  376.9810 0.33 7
  377.2031 0.41 9
  377.3796 0.14 3
  377.9301 0.10 2
  378.0580 0.68 15
  378.1762 0.44 10
  378.3407 0.17 4
  378.7950 0.12 3
  378.9996 0.50 11
  379.1972 0.32 7
  379.3146 0.21 5
  380.1023 0.30 7
  380.4504 0.13 3
  380.5432 0.06 1
  380.8056 0.11 2
  380.9512 0.12 3
  381.1115 0.24 5
  381.8923 0.09 2
  382.1209 0.15 3
  382.5867 0.15 3
  382.8427 0.16 4
  382.9989 0.29 6
  383.2177 0.28 6
  383.4597 0.14 3
  383.6547 0.09 2
  383.9579 0.34 8
  384.2105 0.52 12
  384.6208 0.01 0
  385.1133 0.57 13
  385.4490 0.15 3
  385.6946 0.22 5
  385.8896 0.19 4
  386.1964 0.33 7
  386.3675 0.10 2
  386.7257 0.08 2
  386.8897 0.15 3
  386.9763 0.14 3
  387.1812 0.31 7
  387.3459 0.07 2
  387.6133 0.11 2
  387.9076 0.06 1
  388.0160 0.15 3
  388.1160 0.19 4
  388.3898 0.09 2
  388.7890 0.13 3
  389.0424 0.35 8
  389.2311 0.27 6
  389.3340 0.08 2
  389.5522 0.09 2
  389.8317 0.16 4
  390.0303 0.08 2
  390.2028 0.18 4
  390.3500 0.13 3
  391.1042 0.88 20
  391.7936 0.09 2
  392.0380 0.20 4
  392.2233 0.28 6
  392.7050 0.10 2
  392.9199 0.16 4
  393.0438 0.32 7
  393.2678 0.32 7
  394.0166 0.26 6
  394.2371 0.14 3
  395.1136 0.23 5
  395.3453 0.16 4
  395.6864 0.15 3
  395.9069 0.19 4
  396.1218 0.24 5
  396.3170 0.09 2
  397.0266 0.46 10
  397.2126 0.58 13
  397.6968 0.17 4
  398.0668 0.61 14
  398.2592 0.48 11
  398.8837 0.37 8
  399.1530 0.48 11
  399.8550 0.17 4
  400.0503 0.58 13
  400.3605 0.31 7
  401.0605 0.18 4
  401.4836 0.12 3
  402.1759 0.18 4
  402.2993 0.12 3
  402.5271 0.15 3
  402.7626 0.04 1
  403.0369 0.28 6
  403.2040 0.08 2
  403.3401 0.12 3
  403.5038 0.10 2
  404.2033 0.16 4
  404.2929 0.22 5
  404.9834 0.17 4
  405.2750 0.17 4
  405.5455 0.03 1
  406.0471 0.08 2
  406.2324 0.25 6
  406.8136 0.15 3
  407.2426 0.23 5
  407.3730 0.06 1
  407.7887 0.12 3
  408.1642 0.15 3
  408.5159 0.15 3
  408.6688 0.11 2
  409.0761 0.26 6
  409.1938 0.29 6
  409.5870 0.12 3
  409.7991 0.05 1
  409.9739 0.13 3
  410.2185 0.29 6
  410.3700 0.22 5
  410.8697 0.15 3
  410.9994 0.30 7
  411.3081 0.55 12
  411.5894 0.13 3
  411.8692 0.29 6
  412.1843 1.59 36
  412.4515 0.19 4
  413.1691 4.16 93
  413.4709 0.29 6
  413.5773 0.05 1
  413.8953 0.29 6
  414.1956 0.77 17
  414.4171 0.17 4
  415.1800 2.58 58
  415.6842 0.16 4
  415.9042 0.17 4
  416.1736 0.37 8
  416.8358 0.16 4
  416.9634 0.20 4
  417.1666 0.29 6
  417.2498 0.15 3
  417.5848 0.05 1
  417.8239 0.10 2
  418.0108 0.31 7
  418.1723 0.07 2
  418.3057 0.27 6
  418.3882 0.15 3
  418.6936 0.12 3
  419.1387 0.29 6
  419.3906 0.14 3
  420.2639 0.17 4
  421.8127 0.18 4
  422.1487 0.15 3
  422.7100 0.12 3
  423.0368 0.29 6
  423.1573 0.25 6
  423.3461 0.14 3
  423.7884 0.07 2
  424.1294 0.62 14
  424.2442 0.52 12
  424.4562 0.14 3
  424.6697 0.16 4
  424.8930 0.15 3
  425.1037 0.31 7
  425.2157 0.25 6
  425.4665 0.18 4
  425.6229 0.14 3
  426.0125 0.08 2
  426.2119 0.25 6
  427.1202 1.18 26
  427.2710 1.12 25
  427.4577 0.29 6
  428.0024 0.27 6
  428.2244 0.16 4
  428.6092 0.12 3
  428.9947 0.29 6
  429.1187 0.20 4
  429.3147 0.37 8
  429.5000 0.10 2
  429.6142 0.16 4
  429.8524 0.21 5
  429.9307 0.15 3
  430.0420 0.15 3
  430.2239 0.28 6
  430.3423 0.18 4
  430.5030 0.23 5
  430.6954 0.13 3
  430.8709 0.32 7
  431.0824 0.42 9
  431.2551 0.48 11
  432.0834 0.26 6
  432.3196 0.31 7
  432.5783 0.13 3
  433.0620 0.18 4
  433.2982 0.19 4
  434.0293 0.04 1
  434.2408 0.13 3
  434.5327 0.13 3
  435.2125 0.03 1
  435.4135 0.20 4
  436.0884 0.16 4
  436.3000 0.39 9
  436.6787 0.04 1
  437.0334 0.34 8
  437.3832 0.12 3
  438.1796 0.10 2
  438.2819 0.07 2
  438.4497 0.02 0
  438.6296 0.04 1
  439.2560 0.33 7
  439.4465 0.40 9
  439.5932 0.15 3
  439.7399 0.09 2
  439.8874 0.10 2
  440.1738 0.83 19
  440.4024 0.35 8
  440.6020 0.12 3
  441.1580 7.78 174
  441.6822 0.36 8
  441.8092 0.14 3
  441.9115 0.21 5
  442.1366 0.40 9
  442.3673 0.15 3
  442.5113 0.14 3
  442.8105 0.12 3
  443.1224 0.43 10
  443.3884 0.36 8
  443.5930 0.18 4
  444.1209 1.42 32
  444.3192 0.27 6
  444.4646 0.10 2
  445.1633 2.26 51
  445.6659 0.19 4
  445.8804 0.23 5
  446.1134 0.55 12
  446.2941 0.59 13
  446.4811 0.16 4
  446.6350 0.23 5
  446.8376 0.07 2
  447.1665 0.29 6
  447.7750 0.05 1
  449.1136 0.13 3
  449.3120 0.18 4
  450.0046 0.09 2
  450.3576 0.16 4
  451.3300 0.19 4
  451.9337 0.15 3
  452.8151 0.16 4
  453.0227 0.29 6
  453.2007 0.31 7
  453.3384 0.22 5
  453.7813 0.24 5
  454.1422 0.47 11
  454.6070 0.28 6
  454.7009 0.26 6
  454.8930 0.19 4
  455.2173 2.26 51
  455.4814 0.51 11
  455.9757 0.24 5
  456.2076 0.25 6
  456.3536 0.14 3
  456.5573 0.30 7
  456.7681 0.15 3
  457.0324 0.23 5
  457.3038 0.09 2
  457.6683 0.35 8
  457.9778 0.21 5
  458.2302 0.32 7
  458.4142 0.15 3
  458.7138 0.16 4
  458.8569 0.33 7
  459.1206 0.43 10
  459.3991 0.46 10
  460.0450 0.21 5
  460.4272 0.12 3
  460.8460 0.10 2
  460.9941 0.13 3
  461.2021 0.49 11
  461.3566 0.11 2
  461.5371 0.13 3
  461.8354 0.14 3
  461.9362 0.14 3
  462.2007 0.55 12
  462.3735 0.24 5
  462.8383 0.04 1
  463.0865 0.16 4
  463.3228 0.18 4
  463.7290 0.09 2
  464.8456 0.10 2
  465.2018 0.08 2
  465.4755 0.15 3
  465.9284 0.12 3
  466.1167 0.14 3
  466.2762 0.17 4
  466.7848 0.11 2
  466.9160 0.11 2
  467.3908 0.21 5
  468.1211 0.62 14
  468.3518 0.32 7
  468.7794 0.02 0
  468.9233 0.14 3
  469.2112 0.72 16
  469.6346 0.12 3
  470.0481 0.06 1
  470.1842 0.22 5
  470.3557 0.26 6
  470.4933 0.08 2
  471.0445 0.19 4
  471.1976 0.25 6
  471.2943 0.15 3
  471.5180 0.05 1
  472.0021 0.18 4
  472.2202 0.21 5
  472.3797 0.14 3
  472.9225 0.11 2
  473.1095 0.14 3
  473.3185 0.44 10
  474.1838 0.14 3
  474.4690 0.16 4
  474.7993 0.17 4
  475.0528 0.37 8
  475.2928 0.42 9
  475.4326 0.30 7
  475.5469 0.32 7
  475.7453 0.16 4
  476.2296 10.64 238
  476.7859 0.34 8
  476.9405 0.21 5
  477.1227 0.13 3
  477.2173 0.18 4
  477.4573 0.27 6
  477.5646 0.08 2
  478.1273 0.23 5
  478.5348 0.14 3
  478.7049 0.12 3
  479.1053 0.01 0
  479.9385 0.13 3
  480.0649 0.13 3
  480.1885 0.19 4
  480.3820 0.19 4
  480.6101 0.16 4
  481.0614 0.29 6
  481.2704 0.11 2
  481.5579 0.23 5
  481.8764 0.27 6
  482.2020 0.87 19
  482.9478 0.35 8
  483.2741 0.78 17
  483.8483 0.23 5
  484.1183 0.23 5
  484.7862 0.11 2
  485.1656 0.10 2
  485.4561 0.01 0
  485.9908 0.23 5
  486.2164 0.31 7
  486.3949 0.15 3
  487.0692 0.29 6
  487.2434 0.16 4
  487.3619 0.14 3
  487.7957 0.16 4
  488.0750 0.84 19
  488.2485 0.51 11
  488.5864 0.12 3
  488.6654 0.07 2
  488.8996 0.12 3
  489.2135 0.99 22
  489.5091 0.24 5
  490.2336 0.05 1
  490.4086 0.15 3
  490.6308 0.15 3
  491.1642 0.13 3
  491.5410 0.15 3
  491.9960 0.04 1
  492.3679 0.15 3
  492.8738 0.16 4
  493.2908 0.12 3
  493.4524 0.16 4
  494.0099 0.23 5
  494.2639 0.28 6
  494.5554 0.07 2
  494.7268 0.20 4
  495.0769 0.43 10
  495.3697 0.32 7
  495.5688 0.09 2
  495.8327 0.14 3
  496.2547 0.74 17
  496.4079 0.38 9
  496.5251 0.28 6
  497.1243 0.64 14
  497.3353 1.01 23
  497.7362 0.43 10
  497.9021 0.23 5
  498.2480 0.53 12
  498.3510 0.26 6
  498.4788 0.12 3
  498.6334 0.25 6
  498.8501 0.24 5
  499.1204 0.28 6
  499.3272 0.25 6
  499.5539 0.35 8
  499.7134 0.30 7
  499.8348 0.21 5
  500.2019 1.81 41
  500.4031 0.81 18
  500.7010 0.21 5
  500.8380 0.29 6
  500.9651 0.15 3
  501.2637 0.23 5
  501.4585 0.32 7
  501.8130 0.36 8
  502.1102 0.16 4
  502.5119 0.26 6
  502.6800 0.12 3
  502.8459 0.14 3
  503.0916 0.18 4
  503.1813 0.11 2
  503.4764 0.20 4
  503.6890 0.17 4
  503.9799 0.15 3
  504.0872 0.16 4
  504.4389 0.09 2
  505.6888 0.16 4
  506.2036 0.16 4
  506.5948 0.19 4
  506.7749 0.05 1
  507.1330 0.28 6
  507.3894 0.26 6
  507.9170 0.13 3
  508.0787 0.13 3
  508.1882 0.23 5
  508.3280 0.17 4
  509.0238 0.21 5
  509.2618 0.15 3
  509.4702 0.19 4
  509.5867 0.13 3
  509.7772 0.28 6
  509.8921 0.15 3
  510.0240 0.81 18
  510.2624 0.81 18
  510.4147 0.29 6
  510.6926 0.08 2
  511.1672 1.10 25
  511.4458 0.33 7
  511.6187 0.31 7
  512.2274 4.20 94
  512.4756 1.12 25
  512.7451 0.17 4
  512.8721 0.10 2
  513.1979 0.13 3
  513.3066 0.16 4
  513.6783 0.12 3
  513.9210 0.16 4
  514.1305 0.30 7
  514.2151 0.16 4
  514.3082 0.14 3
  514.5079 0.15 3
  514.8550 0.12 3
  515.0292 0.28 6
  515.1266 0.15 3
  515.2578 0.02 0
  515.5569 0.09 2
  515.8137 0.08 2
  516.2300 0.17 4
  516.5270 0.01 0
  517.3356 0.26 6
  517.8788 0.13 3
  518.1752 0.14 3
  518.2761 0.18 4
  518.6021 0.15 3
  518.9097 0.13 3
  520.2865 0.11 2
  520.7769 0.10 2
  520.9174 0.12 3
  521.2236 0.14 3
  521.5469 0.16 4
  522.1665 0.13 3
  523.0007 0.16 4
  523.1694 0.13 3
  523.2548 0.09 2
  523.3579 0.11 2
  523.7150 0.16 4
  523.9896 0.26 6
  524.2473 0.92 21
  524.4717 0.65 15
  524.6940 0.06 1
  525.2347 3.20 72
  525.8073 0.18 4
  525.9562 0.18 4
  526.1948 0.34 8
  526.3578 0.42 9
  526.6833 0.15 3
  526.8951 0.14 3
  527.2360 0.14 3
  528.1461 0.25 6
  528.5047 0.13 3
  529.0914 0.02 0
  529.2602 0.04 1
  530.5459 0.17 4
  531.2401 0.16 4
  531.8819 0.32 7
  532.0994 0.28 6
  532.3162 0.13 3
  532.5358 0.39 9
  532.6566 0.17 4
  532.8854 0.16 4
  533.1354 0.01 0
  533.5181 0.03 1
  533.8734 0.12 3
  533.9694 0.11 2
  534.1085 0.12 3
  534.2561 0.13 3
  534.4977 0.14 3
  534.8600 0.18 4
  535.1319 0.14 3
  535.3204 0.17 4
  535.5571 0.17 4
  536.1779 0.08 2
  536.3693 0.26 6
  536.4937 0.11 2
  536.6554 0.25 6
  536.9881 0.26 6
  537.1180 0.16 4
  537.3843 0.18 4
  537.8604 0.14 3
  538.0031 0.23 5
  538.1960 0.26 6
  538.3570 0.17 4
  539.1326 0.91 20
  539.3318 1.14 26
  539.4343 0.64 14
  539.9818 0.18 4
  540.1040 0.14 3
  540.2538 0.33 7
  540.4170 0.20 4
  541.2316 0.12 3
  541.4047 0.13 3
  541.8159 0.13 3
  541.9346 0.40 9
  542.1557 0.15 3
  542.4807 0.30 7
  542.6686 0.24 5
  542.8184 0.15 3
  543.0643 0.21 5
  543.2819 0.08 2
  543.4268 0.46 10
  543.6805 0.20 4
  544.0048 0.17 4
  544.1284 0.15 3
  544.2747 0.14 3
  544.4019 0.30 7
  544.5150 0.16 4
  544.8633 0.24 5
  545.2972 0.10 2
  545.4965 0.15 3
  545.7375 0.07 2
  545.9735 0.31 7
  546.0611 0.15 3
  546.4131 0.08 2
  546.6604 0.31 7
  546.8286 0.25 6
  546.9869 0.16 4
  547.1480 0.23 5
  547.3975 0.26 6
  547.6434 0.59 13
  548.0124 0.55 12
  548.2272 0.44 10
  548.5623 0.40 9
  548.7538 0.58 13
  549.0648 0.80 18
  549.2726 0.62 14
  549.6967 0.64 14
  550.3412 5.20 116
  550.7484 0.84 19
  551.0877 0.76 17
  551.3528 0.80 18
  551.5344 0.55 12
  551.8723 0.59 13
  552.3063 2.54 57
  552.4810 1.26 28
  553.3067 8.34 187
  553.9989 0.62 14
  554.3372 0.35 8
  554.5403 0.49 11
  554.6664 0.23 5
  554.8448 0.28 6
  554.9568 0.41 9
  555.1282 0.32 7
  555.3982 0.57 13
  555.7535 0.56 13
  556.0136 0.39 9
  556.2188 0.53 12
  556.4274 0.58 13
  556.5889 0.41 9
  556.9329 0.49 11
  557.1839 0.46 10
  557.4426 0.39 9
  557.7895 0.48 11
  558.0193 0.32 7
  558.2598 0.37 8
  558.4388 0.66 15
  558.5679 0.32 7
  558.6969 0.35 8
  558.7977 0.36 8
  559.2744 1.09 24
  559.4958 0.76 17
  559.7101 0.81 18
  559.9555 0.74 17
  560.1776 0.61 14
  560.2848 0.54 12
  560.4879 0.80 18
  560.7029 0.79 18
  560.8031 0.43 10
  561.1352 1.01 23
  562.1161 1.59 36
  562.7346 1.71 38
  563.6210 2.58 58
  568.2789 99.97 999
  568.9187 46.70 999
  569.8287 22.09 495
  570.5539 13.04 292
  571.2947 6.30 141
  572.4750 3.03 68
  573.2236 1.86 42
  574.0498 1.37 31
  574.4767 1.01 23
//
