ACCESSION: MSBNK-Kyoto_Univ-CA000085
RECORD_TITLE: 4-Hydroxymyxol; FAB-EBEB; MS2; m/z: 600.42; [M]+*
DATE: 2016.01.19 (Created 2010.04.01, modified 2011.05.10)
AUTHORS: Akimoto N, Graduate School of Pharmaceutical Sciences, Kyoto University and Maoka T, Research Institute for Production Development
LICENSE: CC BY-SA
PUBLICATION: Shinichi Takaichi, Mari Mochimura, and Takashi Maoka, Presence of Free Myxol and 4-Hydroxymyxol and Absence of Myxol Glucosides in Anabaena variabilis ATCC 29413, and Proposal of a Biosynthetic Pathway of Carotenoids, Plant Cell Physiol., 47, 211-216 (2006).
COMMENT: Profile spectrum of this record is given as a JPEG file.
COMMENT: [Profile] CA000085.jpg
CH$NAME: 4-Hydroxymyxol
CH$COMPOUND_CLASS: N/A
CH$FORMULA: C40H56O4
CH$EXACT_MASS: 600.41786
CH$SMILES: C(O)(C1O)C(=C(C(C1)(C)C)C=CC(C)=CC=CC(C)=CC=CC=C(C=CC=C(C=CC=C(C=CC(O)C(C)(C)O)C)C)C)C
CH$IUPAC: InChI=1S/C40H56O4/c1-29(18-13-20-31(3)21-15-23-33(5)25-27-37(42)40(9,10)44)16-11-12-17-30(2)19-14-22-32(4)24-26-35-34(6)38(43)36(41)28-39(35,7)8/h11-27,36-38,41-44H,28H2,1-10H3/b12-11+,18-13+,19-14+,21-15+,26-24+,27-25+,29-16+,30-17+,31-20+,32-22+,33-23+/t36-,37-,38+/m0/s1
CH$LINK: LIPIDBANK VCA1108
CH$LINK: INCHIKEY BOVRCQYBOHNUIF-WGYDBEQGSA-N
AC$INSTRUMENT: JMS-HX/HX 110A, JEOL
AC$INSTRUMENT_TYPE: FAB-EBEB
AC$MASS_SPECTROMETRY: MS_TYPE MS2
AC$MASS_SPECTROMETRY: ION_MODE POSITIVE
AC$MASS_SPECTROMETRY: ATOM_GUN_CURRENT 5 mA
AC$MASS_SPECTROMETRY: BOMBARDMENT 6 kV xenon
AC$MASS_SPECTROMETRY: COLLISION_ENERGY 3 kV
AC$MASS_SPECTROMETRY: COLLISION_GAS Ar
AC$MASS_SPECTROMETRY: GAS_PRESSURE adjust to attenuate the intensity of the precursor ion by 30 %
AC$MASS_SPECTROMETRY: IONIZATION FAB
AC$MASS_SPECTROMETRY: MATRIX 1-2 uL m-NBA
AC$MASS_SPECTROMETRY: PROBE_TIP stainless-steel
MS$FOCUSED_ION: BASE_PEAK 58.9756
MS$FOCUSED_ION: PRECURSOR_M/Z 600.42
MS$FOCUSED_ION: PRECURSOR_TYPE [M]+*
MS$DATA_PROCESSING: RELATIVE_M/Z normalised by peak(m/z=58.9756).  set 999 for peak(m/z=600.4162,rel=3455).
PK$SPLASH: splash10-0udi-4931124000-2243a546a7fb84108774
PK$NUM_PEAK: 1616
PK$PEAK: m/z int. rel.int.
  0.1567 0.01 0
  0.6086 0.01 0
  1.5357 0.01 0
  1.7093 0.06 2
  1.7803 0.01 0
  2.1235 0.01 0
  4.2897 0.01 0
  9.9399 0.03 1
  12.9844 0.01 0
  13.3025 0.01 0
  13.9783 0.03 1
  14.9862 0.16 6
  17.0735 0.01 0
  17.9825 0.03 1
  18.4028 0.01 0
  18.9864 0.06 2
  22.9417 0.95 33
  24.6274 0.01 0
  25.9633 0.21 7
  26.7517 0.05 2
  26.9657 1.05 36
  27.9676 0.13 4
  28.9719 1.36 47
  29.9359 0.09 3
  30.9580 1.20 41
  31.9434 0.03 1
  34.3565 0.03 1
  35.0806 0.04 1
  36.6236 0.02 1
  36.9624 0.11 4
  37.8623 0.10 3
  37.9616 0.44 15
  38.9552 3.66 127
  39.1923 0.02 1
  39.9675 0.57 20
  40.9730 5.70 197
  41.2369 0.02 1
  41.9775 0.53 18
  42.9632 5.62 194
  43.9659 0.18 6
  44.9505 0.58 20
  46.9261 0.13 4
  47.7775 0.01 0
  48.8755 0.11 4
  49.9468 0.84 29
  50.9489 1.60 55
  51.9478 0.77 27
  52.4748 0.03 1
  52.9653 2.81 97
  53.4148 0.01 0
  53.9552 0.15 5
  54.9716 6.54 226
  55.9515 0.37 13
  56.9757 2.31 80
  57.3288 0.01 0
  58.0035 0.14 5
  58.7592 0.05 2
  58.9756 28.90 999
  59.9529 0.23 8
  60.2766 0.04 1
  60.9629 0.19 7
  61.4278 0.07 2
  61.9594 0.59 20
  62.5657 0.02 1
  62.9550 1.85 64
  63.6117 0.07 2
  63.9988 0.18 6
  64.1449 0.02 1
  64.4950 0.08 3
  64.9622 2.10 73
  65.2273 0.01 0
  65.3776 0.03 1
  65.9579 0.45 16
  66.9741 3.55 123
  67.1939 0.01 0
  67.9508 0.48 17
  68.9823 3.90 135
  70.0010 0.41 14
  70.9644 1.99 69
  71.4700 0.06 2
  72.2138 0.03 1
  72.9374 0.38 13
  73.9330 0.51 18
  74.9454 0.45 16
  75.0922 0.10 3
  75.9335 0.31 11
  76.5479 0.08 3
  76.9513 8.11 280
  77.2588 0.04 1
  77.4552 0.11 4
  77.5523 0.02 1
  77.9641 1.63 56
  78.3692 0.10 3
  78.5284 0.15 5
  78.9622 5.09 176
  79.4781 0.04 1
  79.5764 0.10 3
  79.9543 1.21 42
  80.9733 8.08 279
  81.3755 0.02 1
  81.9311 0.57 20
  82.4821 0.05 2
  82.9594 2.14 74
  83.5940 0.06 2
  83.9551 0.26 9
  84.4271 0.01 0
  84.9644 1.25 43
  85.9606 0.29 10
  86.9437 0.82 28
  87.9237 0.15 5
  88.7132 0.04 1
  88.9655 1.42 49
  89.2314 0.13 4
  89.4405 0.09 3
  89.5170 0.06 2
  89.7643 0.12 4
  89.9639 0.46 16
  90.1557 0.17 6
  90.3359 0.10 3
  90.4708 0.04 1
  90.5260 0.02 1
  90.6671 0.06 2
  90.9562 11.65 403
  91.2277 0.07 2
  91.3150 0.03 1
  91.6894 0.03 1
  91.9460 1.13 39
  92.1368 0.05 2
  92.5064 0.09 3
  92.6592 0.04 1
  92.9688 7.47 258
  93.2478 0.06 2
  93.8513 0.14 5
  94.0003 0.52 18
  94.2539 0.10 3
  94.9734 6.93 240
  95.9618 0.34 12
  96.1157 0.02 1
  96.9660 2.77 96
  97.8327 0.22 8
  97.9730 0.20 7
  98.2099 0.03 1
  98.9546 0.19 7
  99.1045 0.08 3
  100.0321 0.10 3
  100.5997 0.04 1
  100.8636 0.21 7
  101.0474 0.14 5
  101.2432 0.05 2
  101.7706 0.13 4
  101.9767 0.83 29
  102.1810 0.07 2
  102.3445 0.11 4
  102.4276 0.08 3
  102.9657 2.23 77
  103.2983 0.11 4
  103.9634 0.88 30
  104.6503 0.10 3
  104.9726 13.53 468
  105.2995 0.14 5
  105.3975 0.06 2
  105.6728 0.02 1
  105.9868 1.19 41
  106.4804 0.08 3
  106.5900 0.02 1
  106.9871 7.09 245
  107.3418 0.05 2
  107.5037 0.11 4
  107.9751 0.91 31
  108.3227 0.11 4
  108.5405 0.07 2
  109.0015 4.12 142
  109.4064 0.02 1
  109.9961 0.59 20
  110.1552 0.09 3
  110.9725 1.26 44
  111.9621 0.32 11
  112.0413 0.08 3
  112.5071 0.14 5
  112.6950 0.09 3
  112.9796 0.39 13
  113.1881 0.03 1
  113.3359 0.12 4
  113.4780 0.08 3
  113.9993 0.33 11
  114.5397 0.17 6
  114.9541 5.85 202
  115.3681 0.07 2
  115.6764 0.06 2
  115.9661 1.92 66
  116.1976 0.16 6
  116.4226 0.06 2
  116.6214 0.20 7
  116.9599 4.98 172
  117.3456 0.02 1
  117.9854 1.39 48
  118.4923 0.13 4
  118.6324 0.10 3
  118.9745 11.69 404
  119.2425 0.11 4
  119.3355 0.12 4
  119.4725 0.03 1
  119.7930 0.14 5
  119.9870 0.70 24
  120.2263 0.06 2
  120.4171 0.08 3
  120.9608 5.28 183
  121.2167 0.08 3
  121.3275 0.05 2
  121.9426 0.88 30
  122.6004 0.02 1
  122.9614 2.39 83
  123.9635 0.57 20
  124.6349 0.14 5
  124.7475 0.22 8
  124.9754 0.84 29
  125.9626 0.45 16
  126.5732 0.14 5
  126.9538 2.61 90
  127.1902 0.27 9
  127.3065 0.06 2
  127.5129 0.09 3
  127.9398 6.61 228
  128.1882 0.13 4
  128.3681 0.20 7
  128.4721 0.12 4
  128.9414 7.65 264
  129.2445 0.06 2
  129.3389 0.10 3
  129.9535 2.98 103
  130.2380 0.09 3
  130.3902 0.09 3
  130.6093 0.15 5
  130.9518 7.88 272
  131.2997 0.11 4
  131.4041 0.09 3
  131.7003 0.04 1
  131.9664 1.77 61
  132.2287 0.15 5
  132.4167 0.07 2
  132.5890 0.10 3
  132.9659 6.62 229
  133.3378 0.14 5
  133.5300 0.11 4
  133.6294 0.06 2
  133.9726 0.65 22
  134.1775 0.04 1
  134.3264 0.10 3
  134.6626 0.02 1
  134.9646 2.37 82
  135.4290 0.10 3
  135.7756 0.14 5
  135.9585 0.79 27
  136.6045 0.07 2
  136.9654 2.08 72
  137.3921 0.02 1
  137.9455 0.54 19
  138.9333 1.22 42
  139.4359 0.05 2
  139.7702 0.35 12
  139.9574 0.74 26
  140.0762 0.29 10
  140.2999 0.17 6
  140.4015 0.05 2
  140.5223 0.08 3
  140.9501 5.67 196
  141.1707 0.12 4
  141.3581 0.15 5
  141.9365 3.59 124
  142.2059 0.03 1
  142.9527 8.78 304
  143.5188 0.04 1
  143.6187 0.02 1
  143.9486 3.01 104
  144.2486 0.12 4
  144.4153 0.05 2
  144.5566 0.05 2
  144.9669 9.76 337
  145.3079 0.15 5
  145.5269 0.12 4
  145.9602 1.48 51
  146.3136 0.13 4
  146.5655 0.11 4
  146.9686 3.09 107
  147.5886 0.10 3
  147.9747 0.62 21
  148.4098 0.10 3
  148.5772 0.03 1
  148.9650 1.52 53
  149.2706 0.04 1
  149.4012 0.07 2
  149.5427 0.09 3
  149.9624 0.70 24
  150.4621 0.11 4
  150.6063 0.06 2
  150.9492 1.19 41
  151.2205 0.10 3
  151.3588 0.10 3
  151.5253 0.09 3
  151.6496 0.14 5
  151.9559 2.60 90
  152.4525 0.15 5
  152.9574 2.97 103
  153.9680 1.77 61
  154.3356 0.18 6
  154.9654 4.24 147
  155.2127 0.12 4
  155.9731 3.56 123
  156.5498 0.11 4
  156.6396 0.08 3
  156.9871 8.01 277
  157.2504 0.17 6
  157.5684 0.04 1
  157.9865 2.29 79
  158.1771 0.20 7
  158.2737 0.12 4
  158.4528 0.08 3
  158.6123 0.05 2
  158.9970 4.62 160
  159.3182 0.16 6
  159.4136 0.02 1
  160.0083 0.87 30
  160.2743 0.06 2
  161.0042 2.15 74
  161.2447 0.09 3
  161.4534 0.15 5
  161.5923 0.04 1
  162.0010 0.59 20
  162.1217 0.14 5
  162.4384 0.04 1
  162.6873 0.03 1
  162.9993 1.11 38
  163.3746 0.03 1
  163.7194 0.24 8
  163.8348 0.31 11
  164.0779 0.36 12
  164.6131 0.15 5
  164.9848 4.65 161
  165.4511 0.06 2
  165.9883 1.34 46
  166.3501 0.10 3
  166.4821 0.08 3
  166.6523 0.13 4
  166.9973 3.46 120
  167.4119 0.02 1
  167.5998 0.07 2
  168.0208 1.18 41
  168.2865 0.13 4
  168.5720 0.12 4
  168.6531 0.10 3
  169.0130 5.70 197
  169.3989 0.11 4
  169.6983 0.13 4
  170.0394 2.26 78
  170.3117 0.10 3
  170.3947 0.07 2
  170.6111 0.07 2
  171.0283 4.01 139
  172.0170 1.34 46
  172.5893 0.05 2
  173.0412 2.05 71
  173.3786 0.04 1
  173.4973 0.13 4
  173.6958 0.03 1
  174.0225 0.73 25
  174.5014 0.07 2
  174.7130 0.14 5
  175.0257 1.61 56
  175.3506 0.02 1
  175.6969 0.07 2
  176.0104 0.83 29
  176.1642 0.05 2
  176.3199 0.18 6
  176.9590 1.04 36
  177.1354 0.41 14
  177.3316 0.24 8
  177.4711 0.20 7
  177.6701 0.16 6
  177.9998 2.55 88
  178.5014 0.06 2
  178.9976 3.34 115
  179.2311 0.12 4
  179.3598 0.07 2
  180.0016 2.07 72
  180.3449 0.20 7
  180.5874 0.14 5
  181.0042 3.13 108
  181.4060 0.11 4
  181.6480 0.11 4
  182.0315 1.69 58
  182.2407 0.12 4
  182.3635 0.03 1
  182.5289 0.14 5
  183.0251 3.92 136
  183.2757 0.17 6
  183.4007 0.04 1
  183.5648 0.02 1
  183.6747 0.05 2
  183.9054 0.86 30
  184.0476 0.94 32
  185.0137 1.84 64
  185.3760 0.14 5
  185.4956 0.09 3
  185.9715 1.01 35
  186.5624 0.18 6
  187.0221 1.41 49
  187.6078 0.02 1
  188.0499 0.66 23
  188.4632 0.06 2
  189.0088 1.89 65
  189.2900 0.10 3
  189.4534 0.03 1
  189.6147 0.10 3
  189.7429 0.07 2
  190.0228 0.63 22
  190.5545 0.08 3
  190.9974 1.49 52
  191.6018 0.14 5
  192.0243 1.91 66
  192.5117 0.13 4
  192.9993 3.51 121
  193.4947 0.10 3
  193.6550 0.15 5
  193.9770 1.29 45
  194.3067 0.14 5
  194.5618 0.13 4
  195.0099 3.40 118
  195.2644 0.18 6
  196.0116 1.36 47
  196.4967 0.02 1
  197.0131 2.99 103
  197.4092 0.04 1
  197.7423 0.11 4
  198.0340 0.65 22
  198.4725 0.09 3
  199.0290 1.70 59
  199.2931 0.12 4
  199.6148 0.11 4
  200.0219 0.28 10
  200.3846 0.10 3
  200.5435 0.11 4
  200.7759 0.13 4
  201.0673 0.71 25
  201.1631 0.25 9
  201.3262 0.05 2
  201.5601 0.11 4
  201.9550 0.95 33
  202.6112 0.11 4
  202.9981 1.43 49
  203.3524 0.13 4
  203.4684 0.16 6
  203.7950 0.03 1
  204.0432 0.52 18
  204.2683 0.10 3
  204.5603 0.16 6
  205.0067 1.56 54
  205.7989 0.19 7
  206.0194 0.71 25
  207.0202 2.81 97
  207.2917 0.10 3
  207.4456 0.09 3
  208.0019 1.49 52
  208.3558 0.21 7
  208.4491 0.11 4
  208.5571 0.08 3
  209.0169 2.52 87
  209.3319 0.16 6
  209.6574 0.02 1
  209.9927 0.78 27
  210.4006 0.10 3
  210.4975 0.10 3
  211.0548 1.82 63
  211.6066 0.12 4
  211.9171 0.60 21
  212.1683 0.15 5
  212.4852 0.11 4
  212.6478 0.07 2
  213.0555 1.31 45
  213.2950 0.10 3
  213.3984 0.12 4
  213.8391 0.18 6
  214.0605 0.38 13
  214.2030 0.15 5
  214.5733 0.04 1
  214.9946 0.85 29
  215.4217 0.12 4
  216.0460 0.78 27
  216.2550 0.09 3
  217.0258 1.23 43
  217.2216 0.14 5
  217.5596 0.10 3
  217.8416 0.15 5
  218.0718 0.47 16
  218.2678 0.14 5
  218.8558 0.80 28
  219.0749 1.68 58
  219.2871 0.07 2
  219.6898 0.12 4
  220.0701 0.77 27
  220.5626 0.02 1
  221.0440 1.94 67
  221.3608 0.13 4
  221.5802 0.11 4
  221.7751 0.13 4
  222.0569 0.53 18
  222.2336 0.12 4
  222.6087 0.02 1
  223.0548 1.35 47
  223.5409 0.07 2
  223.6742 0.10 3
  223.7942 0.07 2
  224.0496 0.40 14
  224.2454 0.06 2
  224.3500 0.13 4
  224.4426 0.11 4
  224.6420 0.12 4
  225.0547 0.58 20
  225.5834 0.11 4
  225.6768 0.05 2
  225.8215 0.10 3
  226.0764 0.58 20
  226.4508 0.04 1
  227.0585 0.68 24
  227.4120 0.07 2
  227.7092 0.29 10
  227.7753 0.14 5
  228.0614 0.74 26
  228.7447 0.06 2
  229.0605 1.14 39
  229.3207 0.08 3
  229.8320 0.18 6
  230.0888 0.92 32
  230.3871 0.12 4
  230.6158 0.12 4
  231.0683 1.11 38
  231.3154 0.12 4
  231.5132 0.14 5
  231.5962 0.11 4
  231.7462 0.13 4
  231.8947 0.32 11
  232.1109 0.74 26
  232.7676 0.10 3
  233.1040 1.43 49
  233.7958 0.05 2
  233.9398 0.11 4
  234.1591 0.59 20
  234.3438 0.10 3
  235.1127 1.52 53
  235.3390 0.24 8
  235.6947 0.04 1
  236.1222 0.32 11
  236.3592 0.08 3
  236.6348 0.06 2
  236.7839 0.14 5
  237.0815 0.62 21
  237.4262 0.06 2
  237.5324 0.04 1
  237.9222 0.07 2
  238.1058 0.44 15
  238.2585 0.11 4
  238.8399 0.22 8
  239.0686 1.06 37
  239.1799 0.37 13
  239.6136 0.17 6
  239.7495 0.04 1
  240.0846 0.58 20
  240.4854 0.12 4
  241.0728 0.69 24
  242.0529 0.30 10
  242.2813 0.13 4
  242.5463 0.16 6
  242.7253 0.12 4
  242.8381 0.08 3
  243.0581 0.84 29
  243.4212 0.04 1
  243.8957 0.12 4
  244.1461 0.29 10
  244.3006 0.05 2
  245.0772 1.28 44
  245.3877 0.12 4
  245.5655 0.05 2
  246.0432 0.28 10
  246.5691 0.10 3
  246.7385 0.13 4
  246.9609 0.63 22
  247.1134 1.06 37
  247.5335 0.09 3
  247.9543 0.26 9
  248.1337 0.33 11
  248.2467 0.15 5
  248.7497 0.06 2
  248.9390 0.39 13
  249.1601 0.63 22
  249.4965 0.10 3
  249.7530 0.13 4
  249.9000 0.21 7
  250.0505 0.32 11
  250.1381 0.21 7
  250.3198 0.09 3
  250.4308 0.09 3
  250.7842 0.11 4
  251.1214 0.72 25
  251.4863 0.07 2
  251.7288 0.22 8
  252.0265 0.39 13
  252.4969 0.11 4
  252.7664 0.09 3
  253.0592 0.48 17
  253.3281 0.06 2
  253.5913 0.06 2
  254.0025 0.34 12
  254.4384 0.22 8
  254.8292 0.10 3
  255.0550 0.32 11
  255.2313 0.21 7
  255.5860 0.11 4
  255.9131 0.11 4
  256.1093 0.44 15
  256.7545 0.08 3
  256.8516 0.15 5
  257.0839 0.98 34
  257.2022 0.41 14
  257.4282 0.15 5
  257.7796 0.07 2
  257.9582 0.34 12
  258.0730 0.28 10
  258.1807 0.32 11
  258.3005 0.05 2
  259.0801 1.14 39
  259.2644 0.18 6
  259.3970 0.11 4
  259.4912 0.11 4
  259.8563 0.14 5
  260.1208 0.48 17
  260.4115 0.10 3
  261.0717 0.67 23
  261.3220 0.09 3
  261.8093 0.05 2
  262.0420 0.38 13
  262.5670 0.10 3
  262.6940 0.11 4
  263.1255 0.54 19
  263.2688 0.21 7
  263.8025 0.13 4
  264.0623 0.33 11
  264.8241 0.21 7
  265.1024 0.70 24
  265.3886 0.11 4
  265.6556 0.07 2
  265.7686 0.10 3
  266.1116 0.40 14
  266.5712 0.13 4
  266.7361 0.07 2
  267.0259 0.34 12
  267.1375 0.20 7
  267.3108 0.10 3
  267.6811 0.04 1
  267.8097 0.10 3
  268.0485 0.19 7
  268.5645 0.06 2
  268.8296 0.22 8
  269.0507 0.43 15
  269.2491 0.19 7
  269.3728 0.12 4
  270.0476 0.36 12
  270.2809 0.11 4
  270.5106 0.07 2
  271.0924 0.53 18
  271.2219 0.50 17
  271.6928 0.09 3
  272.1126 0.17 6
  273.1075 0.67 23
  273.2292 0.28 10
  273.8386 0.19 7
  274.1767 0.32 11
  274.7948 0.11 4
  274.9963 0.34 12
  275.1394 0.43 15
  275.4193 0.05 2
  275.5205 0.11 4
  276.0319 0.23 8
  276.1437 0.17 6
  276.2606 0.05 2
  276.5092 0.10 3
  277.0828 0.40 14
  277.2602 0.18 6
  278.0511 0.19 7
  278.2061 0.12 4
  278.3042 0.13 4
  278.8882 0.16 6
  279.0802 0.28 10
  279.2474 0.31 11
  280.0940 0.36 12
  281.1081 0.37 13
  281.2490 0.19 7
  281.9679 0.30 10
  282.2135 0.06 2
  282.5552 0.13 4
  282.8742 0.07 2
  283.0465 0.42 15
  283.2103 0.15 5
  283.3478 0.07 2
  283.9916 0.23 8
  284.1754 0.21 7
  284.3043 0.11 4
  284.6690 0.02 1
  285.0266 0.31 11
  285.2012 0.33 11
  285.3815 0.07 2
  285.9608 0.30 10
  286.0997 0.35 12
  286.2287 0.15 5
  286.6742 0.09 3
  287.0990 0.71 25
  287.2223 0.13 4
  288.1598 0.83 29
  288.7595 0.16 6
  289.0377 0.25 9
  289.2174 0.39 13
  289.3786 0.05 2
  289.6489 0.02 1
  289.8208 0.19 7
  290.0969 0.21 7
  291.0272 0.34 12
  291.1884 0.34 12
  292.0262 0.27 9
  292.4138 0.08 3
  292.8257 0.11 4
  293.0406 0.54 19
  293.2262 0.30 10
  293.3061 0.14 5
  293.7038 0.06 2
  294.0521 0.33 11
  294.2047 0.15 5
  294.4159 0.09 3
  294.6970 0.03 1
  295.0544 0.32 11
  295.2099 0.21 7
  295.4218 0.13 4
  295.9192 0.10 3
  296.1283 0.05 2
  296.3460 0.14 5
  296.6985 0.09 3
  297.1118 0.26 9
  297.3010 0.05 2
  297.7350 0.06 2
  297.8307 0.03 1
  298.0035 0.27 9
  298.0941 0.12 4
  298.1998 0.06 2
  298.6254 0.07 2
  299.1253 0.59 20
  299.3152 0.06 2
  299.6766 0.05 2
  299.9266 0.09 3
  300.0774 0.09 3
  301.1354 0.63 22
  301.4998 0.14 5
  302.1587 0.16 6
  302.3752 0.11 4
  302.7640 0.04 1
  303.0599 0.20 7
  303.2222 0.37 13
  303.3702 0.13 4
  303.9950 0.15 5
  304.1616 0.25 9
  304.2459 0.11 4
  304.9210 0.11 4
  305.0718 0.38 13
  305.1855 0.30 10
  305.7856 0.06 2
  306.7269 0.09 3
  307.0589 0.13 4
  307.2392 0.10 3
  307.9769 0.24 8
  308.2388 0.02 1
  309.0611 0.37 13
  309.2293 0.21 7
  310.0690 0.23 8
  310.3117 0.07 2
  310.4986 0.12 4
  311.0864 0.28 10
  312.0818 0.30 10
  312.2480 0.12 4
  312.9185 0.09 3
  313.0925 0.46 16
  313.2638 0.19 7
  313.3727 0.11 4
  314.1264 0.10 3
  314.2202 0.12 4
  314.3850 0.22 8
  314.5470 0.01 0
  314.8344 0.06 2
  315.0787 0.20 7
  315.2464 0.06 2
  315.5568 0.11 4
  316.0248 0.12 4
  316.1366 0.11 4
  316.3166 0.11 4
  316.8391 0.07 2
  317.0478 0.25 9
  317.1890 0.13 4
  317.9032 0.06 2
  318.0495 0.20 7
  318.2094 0.37 13
  318.8068 0.10 3
  318.9459 0.34 12
  319.1295 0.41 14
  319.3117 0.07 2
  319.4774 0.11 4
  320.0929 0.32 11
  320.5513 0.09 3
  321.0543 0.10 3
  321.2057 0.21 7
  322.1960 0.16 6
  322.3525 0.07 2
  323.1930 0.20 7
  323.7256 0.13 4
  324.1564 0.15 5
  325.1257 0.19 7
  325.6184 0.12 4
  326.1836 0.35 12
  327.0262 0.25 9
  327.1677 0.21 7
  327.3071 0.22 8
  327.4507 0.04 1
  327.6059 0.10 3
  327.9522 0.14 5
  328.2008 0.18 6
  328.4688 0.06 2
  329.0969 0.11 4
  329.2608 0.27 9
  329.7646 0.09 3
  330.0147 0.19 7
  330.2296 0.12 4
  330.7148 0.03 1
  330.8737 0.14 5
  331.0491 0.16 6
  331.2123 0.42 15
  331.8960 0.16 6
  332.0470 0.11 4
  332.1908 0.10 3
  332.3799 0.13 4
  333.1070 0.21 7
  333.2774 0.10 3
  333.9931 0.09 3
  334.2585 0.06 2
  334.6570 0.06 2
  334.9362 0.13 4
  335.0642 0.26 9
  335.3700 0.11 4
  336.0031 0.11 4
  336.4191 0.01 0
  337.0746 0.12 4
  337.2186 0.09 3
  338.1701 0.27 9
  338.8046 0.16 6
  339.0511 0.11 4
  339.1805 0.56 19
  340.0357 0.11 4
  340.2958 0.08 3
  341.0369 0.07 2
  341.1943 0.14 5
  341.3762 0.12 4
  342.1289 0.20 7
  342.2914 0.13 4
  342.4237 0.05 2
  343.1299 0.11 4
  343.2233 0.11 4
  343.6303 0.09 3
  344.0252 0.12 4
  344.1712 0.08 3
  344.3913 0.12 4
  344.7732 0.07 2
  345.3055 0.09 3
  345.7472 0.14 5
  345.9048 0.04 1
  346.1479 0.20 7
  346.3192 0.07 2
  347.0473 0.20 7
  347.2467 0.11 4
  347.9253 0.13 4
  348.1577 0.12 4
  349.0467 0.13 4
  349.1899 0.08 3
  349.4807 0.13 4
  349.7903 0.11 4
  349.9702 0.03 1
  350.1552 0.20 7
  350.2993 0.11 4
  350.9206 0.04 1
  351.0077 0.03 1
  351.3965 0.11 4
  351.9114 0.11 4
  352.0836 0.18 6
  352.2751 0.22 8
  353.0522 0.12 4
  353.2309 0.09 3
  353.3065 0.05 2
  353.9094 0.10 3
  354.1652 0.21 7
  354.3460 0.13 4
  355.2394 0.20 7
  355.4087 0.10 3
  356.1567 0.13 4
  356.3066 0.10 3
  356.4089 0.13 4
  356.6410 0.12 4
  357.1541 0.17 6
  357.3127 0.27 9
  357.5873 0.01 0
  358.0263 0.13 4
  358.1949 0.26 9
  358.4141 0.10 3
  358.9533 0.12 4
  359.1523 0.12 4
  359.2914 0.09 3
  359.6902 0.03 1
  359.8113 0.07 2
  359.9497 0.11 4
  360.1307 0.12 4
  360.2475 0.14 5
  360.4329 0.05 2
  361.2254 0.31 11
  361.9524 0.10 3
  362.1031 0.10 3
  362.2077 0.20 7
  362.3361 0.25 9
  362.6701 0.10 3
  362.9983 0.29 10
  363.0762 0.13 4
  363.2054 0.02 1
  363.4203 0.01 0
  364.1815 0.14 5
  364.3676 0.11 4
  365.1974 0.43 15
  365.8729 0.12 4
  366.1792 0.10 3
  366.8818 0.07 2
  366.9755 0.02 1
  367.1067 0.17 6
  367.1961 0.11 4
  367.3352 0.10 3
  367.7900 0.14 5
  368.0459 0.30 10
  368.4330 0.06 2
  368.8317 0.01 0
  369.1705 0.28 10
  370.3754 0.09 3
  370.6501 0.11 4
  370.8686 0.11 4
  371.0612 0.26 9
  371.2624 0.10 3
  371.9085 0.13 4
  372.0204 0.11 4
  372.1653 0.12 4
  372.3875 0.11 4
  372.6875 0.05 2
  373.0136 0.12 4
  373.9868 0.01 0
  374.4788 0.03 1
  375.0099 0.14 5
  375.2992 0.14 5
  375.7870 0.11 4
  376.4004 0.07 2
  377.1395 0.11 4
  377.6231 0.12 4
  377.7768 0.10 3
  378.0598 0.20 7
  378.4236 0.06 2
  378.9131 0.04 1
  379.2127 0.19 7
  379.6278 0.07 2
  380.0228 0.07 2
  380.2336 0.12 4
  380.8814 0.08 3
  382.1183 0.11 4
  382.3333 0.14 5
  383.1794 0.13 4
  383.3085 0.15 5
  383.8965 0.12 4
  384.0437 0.12 4
  384.3539 0.05 2
  384.5090 0.10 3
  384.6569 0.07 2
  384.9766 0.12 4
  385.1981 0.17 6
  385.3511 0.21 7
  386.2033 0.26 9
  386.5670 0.08 3
  387.1264 0.19 7
  387.6381 0.08 3
  388.0517 0.12 4
  388.2589 0.12 4
  388.8610 0.11 4
  388.9526 0.02 1
  389.1974 0.21 7
  390.1475 0.15 5
  391.2552 0.14 5
  391.3585 0.10 3
  391.8676 0.08 3
  392.2424 0.11 4
  392.4078 0.09 3
  392.5197 0.10 3
  393.1691 0.12 4
  393.2854 0.18 6
  393.4450 0.04 1
  394.0670 0.09 3
  394.9548 0.12 4
  395.3276 0.08 3
  395.5075 0.25 9
  395.9909 0.10 3
  396.1954 0.23 8
  397.1131 0.08 3
  397.3805 0.16 6
  398.0150 0.11 4
  398.1133 0.15 5
  398.3092 0.16 6
  398.8766 0.02 1
  399.0746 0.20 7
  399.3305 0.18 6
  399.6522 0.10 3
  400.1090 0.21 7
  401.0193 0.09 3
  401.1523 0.10 3
  401.4017 0.12 4
  401.6317 0.04 1
  401.7502 0.07 2
  402.0272 0.11 4
  402.1689 0.15 5
  402.4118 0.10 3
  402.9549 0.06 2
  403.1082 0.23 8
  403.3093 0.19 7
  404.0687 0.18 6
  404.3891 0.10 3
  404.9547 0.13 4
  405.1529 0.10 3
  405.9681 0.07 2
  407.1691 0.09 3
  407.3138 0.12 4
  407.4216 0.08 3
  408.2428 0.17 6
  408.4100 0.11 4
  409.4549 0.10 3
  410.2264 0.22 8
  410.3198 0.15 5
  410.7005 0.08 3
  412.0570 0.06 2
  412.1656 0.10 3
  413.2048 0.23 8
  413.7489 0.09 3
  414.0921 0.17 6
  414.1991 0.11 4
  414.8704 0.13 4
  415.1963 0.14 5
  415.3372 0.20 7
  415.7737 0.07 2
  416.1344 0.15 5
  417.1636 0.12 4
  417.8294 0.10 3
  418.0246 0.07 2
  418.1952 0.09 3
  419.0352 0.35 12
  419.2138 0.16 6
  419.4387 0.05 2
  419.5529 0.10 3
  420.2087 0.10 3
  420.3005 0.11 4
  420.4358 0.10 3
  420.8682 0.08 3
  421.1632 0.11 4
  421.7425 0.06 2
  422.0071 0.16 6
  422.1424 0.07 2
  423.1065 0.09 3
  423.5875 0.07 2
  424.0707 0.17 6
  424.2096 0.31 11
  424.4772 0.10 3
  425.1384 0.09 3
  426.1136 0.19 7
  426.5391 0.14 5
  427.1187 0.09 3
  427.2482 0.11 4
  427.4370 0.06 2
  428.0876 0.07 2
  428.2996 0.15 5
  428.3930 0.12 4
  428.8692 0.09 3
  429.0791 0.03 1
  429.2159 0.23 8
  429.7196 0.10 3
  430.1719 0.12 4
  430.4691 0.08 3
  431.1965 0.47 16
  431.3527 0.21 7
  431.4590 0.10 3
  431.5522 0.07 2
  432.1748 0.18 6
  432.3542 0.30 10
  432.4930 0.22 8
  432.8076 0.12 4
  433.1591 0.16 6
  433.4094 0.11 4
  433.8477 0.05 2
  434.3655 0.06 2
  435.0324 0.12 4
  435.2777 0.13 4
  436.0568 0.12 4
  437.0971 0.13 4
  437.2288 0.11 4
  437.6687 0.06 2
  438.0674 0.23 8
  438.9603 0.11 4
  439.4828 0.10 3
  440.7956 0.02 1
  441.1720 0.07 2
  441.9016 0.11 4
  442.2020 0.14 5
  442.4423 0.13 4
  442.6081 0.11 4
  442.9794 0.12 4
  443.1619 0.11 4
  443.8206 0.18 6
  444.1211 0.46 16
  444.3521 0.12 4
  444.4976 0.11 4
  444.8871 0.10 3
  445.0066 0.11 4
  445.2137 0.51 18
  445.3802 0.20 7
  445.8957 0.11 4
  446.0688 0.08 3
  446.3382 0.21 7
  446.7777 0.06 2
  447.1862 0.80 28
  447.3042 0.43 15
  447.4606 0.23 8
  448.3000 0.14 5
  449.1888 0.18 6
  449.3206 0.13 4
  449.4394 0.12 4
  451.4206 0.13 4
  452.2784 0.17 6
  452.6559 0.11 4
  453.1392 0.11 4
  453.4123 0.07 2
  454.2703 0.16 6
  455.2370 0.09 3
  456.0168 0.03 1
  456.2277 0.11 4
  457.0598 0.09 3
  457.2910 0.19 7
  458.2435 0.21 7
  458.4218 0.11 4
  458.7836 0.05 2
  458.9474 0.11 4
  459.1997 0.10 3
  459.3222 0.22 8
  460.2654 0.14 5
  460.7918 0.14 5
  461.4545 0.13 4
  462.0448 0.12 4
  462.3138 0.13 4
  462.5705 0.13 4
  463.1369 0.11 4
  463.3806 0.17 6
  464.0202 0.11 4
  464.1500 0.11 4
  464.7477 0.03 1
  464.9957 0.08 3
  465.2851 0.12 4
  465.9927 0.07 2
  466.0934 0.11 4
  466.3619 0.29 10
  466.5342 0.17 6
  467.4674 0.11 4
  468.2711 0.22 8
  468.5108 0.15 5
  469.0806 0.08 3
  469.2885 0.12 4
  469.5738 0.01 0
  469.7294 0.13 4
  470.0915 0.24 8
  470.3290 0.12 4
  470.4138 0.11 4
  470.7983 0.10 3
  470.9859 0.04 1
  471.1155 0.13 4
  471.3654 0.06 2
  471.5153 0.11 4
  471.8803 0.15 5
  472.0679 0.11 4
  472.2953 0.18 6
  472.5032 0.12 4
  472.9769 0.11 4
  473.1435 0.07 2
  473.4354 0.15 5
  473.6419 0.29 10
  473.7679 0.11 4
  474.0584 0.28 10
  474.2641 0.33 11
  475.2783 0.24 8
  475.7188 0.04 1
  475.8637 0.10 3
  476.1629 0.13 4
  477.0642 0.11 4
  477.2048 0.08 3
  477.3178 0.11 4
  477.4446 0.09 3
  478.1432 0.10 3
  478.2366 0.11 4
  479.3229 0.19 7
  479.6121 0.09 3
  481.5892 0.02 1
  481.9132 0.13 4
  482.3162 0.13 4
  482.7403 0.10 3
  482.9860 0.10 3
  484.3329 0.13 4
  484.5280 0.17 6
  485.3544 0.22 8
  485.8380 0.15 5
  486.0273 0.10 3
  486.2057 0.11 4
  486.4123 0.23 8
  486.6574 0.20 7
  486.8988 0.33 11
  487.1040 0.25 9
  487.3542 0.14 5
  487.5369 0.31 11
  487.8379 0.12 4
  488.0300 0.15 5
  488.2396 0.13 4
  488.8024 0.13 4
  488.9264 0.11 4
  489.2890 0.16 6
  489.6734 0.31 11
  489.9098 0.12 4
  490.0599 0.11 4
  490.4349 0.33 11
  490.5981 0.16 6
  491.0442 0.04 1
  491.1841 0.18 6
  491.3691 0.29 10
  491.4982 0.13 4
  491.6636 0.13 4
  492.4594 0.11 4
  492.5551 0.11 4
  493.4953 0.23 8
  494.0487 0.05 2
  494.3341 0.18 6
  494.9273 0.15 5
  495.1048 0.27 9
  495.8031 0.11 4
  496.1016 0.11 4
  496.2233 0.17 6
  496.4066 0.01 0
  497.0746 0.11 4
  497.1666 0.14 5
  497.2731 0.10 3
  497.9519 0.04 1
  498.2222 0.20 7
  498.4077 0.10 3
  499.0938 0.13 4
  499.3228 0.13 4
  499.4655 0.13 4
  499.5981 0.13 4
  500.1047 0.11 4
  500.1938 0.06 2
  500.3221 0.10 3
  500.7380 0.12 4
  501.3576 0.24 8
  501.5533 0.15 5
  501.7497 0.12 4
  501.8338 0.10 3
  502.2498 0.25 9
  502.3839 0.11 4
  502.4904 0.12 4
  502.6223 0.11 4
  502.9586 0.12 4
  503.1985 0.09 3
  503.3927 0.06 2
  503.8849 0.12 4
  504.0922 0.14 5
  504.4459 0.15 5
  504.6757 0.16 6
  504.8475 0.08 3
  505.0794 0.27 9
  505.2157 0.12 4
  505.4622 0.26 9
  505.6681 0.12 4
  505.7971 0.35 12
  506.2618 0.38 13
  506.6018 0.30 10
  506.8570 0.16 6
  507.1542 0.17 6
  507.4855 0.21 7
  507.6451 0.16 6
  507.9633 0.43 15
  508.3519 1.96 68
  508.5361 1.27 44
  508.7957 0.10 3
  509.2314 0.20 7
  509.3482 0.16 6
  509.4903 0.11 4
  509.7818 0.17 6
  509.9043 0.11 4
  510.2430 0.48 17
  510.5200 0.22 8
  510.8448 0.07 2
  511.0696 0.03 1
  511.3496 0.09 3
  511.6853 0.20 7
  511.9573 0.18 6
  512.1560 0.27 9
  512.3903 0.25 9
  512.4860 0.11 4
  512.6310 0.10 3
  512.7623 0.02 1
  512.8965 0.07 2
  513.2751 0.16 6
  513.4434 0.17 6
  513.7335 0.12 4
  514.2289 0.12 4
  514.4711 0.09 3
  514.6865 0.10 3
  515.4772 0.14 5
  516.1329 0.01 0
  517.1812 0.13 4
  517.3575 0.09 3
  517.6005 0.13 4
  518.0504 0.17 6
  518.2332 0.26 9
  518.4951 0.10 3
  519.1539 0.10 3
  519.4129 0.06 2
  519.6770 0.06 2
  520.1400 0.26 9
  520.2952 0.27 9
  520.4774 0.13 4
  520.6058 0.23 8
  521.4594 0.16 6
  521.6086 0.05 2
  521.8526 0.04 1
  522.2805 0.27 9
  522.4833 0.28 10
  523.3370 1.27 44
  523.4941 0.86 30
  523.6390 0.50 17
  523.8127 0.10 3
  524.2335 0.27 9
  524.3936 0.41 14
  524.5695 0.23 8
  525.0519 0.25 9
  525.2235 0.22 8
  525.4879 0.36 12
  525.7290 0.10 3
  526.2222 0.31 11
  526.3975 0.33 11
  526.5540 0.10 3
  526.6561 0.12 4
  526.8212 0.25 9
  526.8943 0.14 5
  527.0305 0.12 4
  527.2101 0.18 6
  527.4274 0.26 9
  527.6382 0.15 5
  527.9692 0.12 4
  528.1743 0.22 8
  528.3075 0.09 3
  528.5067 0.18 6
  528.8551 0.24 8
  529.1028 0.14 5
  529.3672 0.14 5
  529.5288 0.14 5
  529.6121 0.10 3
  529.7237 0.10 3
  529.8179 0.14 5
  529.9330 0.12 4
  530.1960 0.19 7
  530.4641 0.11 4
  530.5734 0.15 5
  531.1291 0.12 4
  531.4703 0.23 8
  531.8101 0.04 1
  531.9275 0.21 7
  532.1666 0.10 3
  532.3340 0.04 1
  532.4861 0.04 1
  532.8781 0.10 3
  533.0237 0.12 4
  533.5135 0.12 4
  533.9410 0.14 5
  534.2548 0.06 2
  534.4889 0.08 3
  534.6048 0.11 4
  534.8396 0.04 1
  535.2092 0.13 4
  535.2954 0.05 2
  536.3397 0.04 1
  536.8962 0.04 1
  538.4298 0.05 2
  538.5313 0.09 3
  539.1373 0.17 6
  539.2546 0.10 3
  539.3939 0.21 7
  539.6722 0.26 9
  540.3086 1.59 55
  540.7660 0.33 11
  541.3517 1.88 65
  541.7751 0.11 4
  542.0143 0.19 7
  542.3224 0.80 28
  542.4884 0.28 10
  542.6247 0.32 11
  543.0372 0.11 4
  543.1648 0.16 6
  543.3547 0.21 7
  543.6093 0.12 4
  546.3587 0.12 4
  546.7140 0.12 4
  547.2491 0.13 4
  548.2194 0.09 3
  548.5059 0.13 4
  549.1745 0.14 5
  549.5002 0.18 6
  550.4546 0.09 3
  550.5953 0.12 4
  551.7065 0.11 4
  552.1279 0.14 5
  552.5980 0.18 6
  553.0121 0.11 4
  553.3937 0.12 4
  554.1285 0.21 7
  554.2729 0.20 7
  554.4920 0.07 2
  554.6719 0.14 5
  554.8663 0.04 1
  555.3016 0.11 4
  555.5439 0.11 4
  556.1475 0.03 1
  556.3448 0.20 7
  556.5661 0.11 4
  556.8687 0.05 2
  557.1415 0.01 0
  558.1827 0.11 4
  558.4700 0.14 5
  558.5593 0.14 5
  558.7327 0.12 4
  559.5867 0.13 4
  560.3421 0.11 4
  561.1208 0.11 4
  561.3668 0.06 2
  563.3343 0.07 2
  563.4787 0.11 4
  563.6558 0.13 4
  563.8213 0.10 3
  564.1363 0.29 10
  564.3417 0.08 3
  564.4520 0.05 2
  564.6581 0.12 4
  564.7510 0.04 1
  565.0966 0.19 7
  565.4711 0.01 0
  565.9993 0.09 3
  566.4795 0.16 6
  567.3320 0.67 23
  567.4392 0.30 10
  567.6312 0.65 22
  568.0063 0.13 4
  568.1694 0.24 8
  568.3026 0.08 3
  568.4634 0.11 4
  568.8046 0.04 1
  569.0654 0.07 2
  569.3189 0.10 3
  569.7065 0.14 5
  569.8499 0.19 7
  570.1542 0.30 10
  570.4374 0.55 19
  570.5641 0.14 5
  570.8481 0.08 3
  571.0075 0.11 4
  571.3640 0.21 7
  571.5603 0.10 3
  571.6769 0.08 3
  571.7834 0.10 3
  572.2239 0.15 5
  572.5355 0.19 7
  572.8752 0.28 10
  573.3781 0.08 3
  573.4846 0.11 4
  573.7556 0.19 7
  574.1845 0.33 11
  574.5076 0.09 3
  574.7808 0.05 2
  574.9982 0.06 2
  575.2264 0.14 5
  575.4916 0.17 6
  575.7184 0.02 1
  575.9337 0.20 7
  576.2257 0.15 5
  576.3445 0.10 3
  576.6083 0.13 4
  576.7989 0.10 3
  576.9888 0.28 10
  577.1279 0.09 3
  577.2547 0.24 8
  577.4055 0.05 2
  577.6736 0.20 7
  577.7576 0.12 4
  578.0265 0.17 6
  578.1483 0.12 4
  578.2780 0.10 3
  578.4635 0.28 10
  578.6411 0.21 7
  578.8411 0.33 11
  579.2817 0.11 4
  579.5375 0.23 8
  579.7158 0.27 9
  579.8071 0.17 6
  580.2217 0.29 10
  580.4935 0.20 7
  581.1321 0.84 29
  581.4531 0.47 16
  581.6285 0.68 24
  581.8098 0.50 17
  582.4744 4.22 146
  582.7687 2.36 82
  583.4407 0.85 29
  583.7669 0.35 12
  584.0945 0.74 26
  584.3497 0.97 34
  584.5208 0.56 19
  584.8318 0.10 3
  585.0043 0.21 7
  585.3900 0.66 23
  585.5952 0.25 9
  585.8917 0.10 3
  586.4818 0.27 9
  586.7297 0.05 2
  586.9835 0.09 3
  587.1321 0.27 9
  587.2996 0.13 4
  587.4193 0.05 2
  587.6549 0.06 2
  587.8043 0.27 9
  588.0123 0.14 5
  588.2342 0.31 11
  588.4626 0.17 6
  588.6235 0.13 4
  588.8570 0.18 6
  589.1144 0.12 4
  589.3834 0.21 7
  589.5872 0.01 0
  589.8953 0.11 4
  590.1727 0.29 10
  590.4537 0.13 4
  590.6869 0.11 4
  590.8564 0.18 6
  591.0781 0.36 12
  591.3663 0.29 10
  591.6082 0.21 7
  591.8929 0.23 8
  592.1051 0.36 12
  592.3036 0.45 16
  592.6578 0.38 13
  592.8019 0.59 20
  592.9606 0.25 9
  593.1525 0.27 9
  593.2720 0.11 4
  593.5256 0.45 16
  593.7458 0.20 7
  594.1746 0.52 18
  594.5079 0.25 9
  594.7962 0.49 17
  595.0889 0.48 17
  595.3221 0.59 20
  595.5199 0.54 19
  595.9886 0.97 34
  596.2625 0.22 8
  596.6754 0.91 31
  600.4162 99.96 999
  601.0843 9.56 330
  601.5336 5.58 193
  602.0894 2.70 93
  602.4604 3.05 105
  603.0742 1.58 55
  603.5583 1.23 43
  603.7764 0.66 23
  603.9946 0.90 31
  604.2830 0.91 31
  604.4772 0.43 15
  604.6940 0.41 14
  604.8983 0.36 12
  605.0360 0.20 7
  605.1600 0.18 6
  605.3521 0.47 16
  605.5557 0.28 10
  605.9043 0.23 8
  606.1776 0.22 8
  606.3696 0.16 6
  606.9480 0.12 4
  607.2104 0.08 3
  607.3054 0.04 1
  607.4924 0.11 4
  607.6627 0.10 3
  607.8903 0.06 2
  608.0896 0.06 2
  608.2549 0.06 2
  608.9276 0.07 2
  609.1530 0.07 2
  609.8126 0.01 0
  610.4027 0.08 3
//
