ACCESSION: MSBNK-Kyoto_Univ-CA000095
RECORD_TITLE: Pyrroxanthin 5,8-furanoxide; FAB-EBEB; MS2; m/z: 612.35; [M]+*
DATE: 2016.01.19 (Created 2010.04.01, modified 2011.05.10)
AUTHORS: Akimoto N, Graduate School of Pharmaceutical Sciences, Kyoto University and Maoka T, Research Institute for Production Development
LICENSE: CC BY-SA
PUBLICATION: Takashi Maoka, Yasuhiro Fujiwara, Keiji Hashimoto, and Naoshige Akimoto, Carotenoids in Three Species of Corbicula Clams, Corbicula japonica, Corbicula sandai, and Corbicula sp. (Chinese Freshwater Corbicula Clam), J. Agric. Food Chem., 53, 8357-8364 (2005).
COMMENT: Profile spectrum of this record is given as a JPEG file.
COMMENT: [Profile] CA000095.jpg
CH$NAME: Pyrroxanthin 5,8-furanoxide
CH$COMPOUND_CLASS: N/A
CH$FORMULA: C39H48O6
CH$EXACT_MASS: 612.34509
CH$SMILES: C(=CC=CC=CC=C(C=c(o4)cc(c4=O)C(C=2)OC(C)(C3)C(C(C)(C)CC3OC(C)=O)2)C)(C#CC(C1(C)C)=C(C)CC(C1)O)C
CH$IUPAC: InChI=1S/C39H48O6/c1-25(16-17-33-27(3)19-29(41)22-37(33,5)6)14-12-10-11-13-15-26(2)18-30-20-32(36(42)44-30)34-21-35-38(7,8)23-31(43-28(4)40)24-39(35,9)45-34/h10-15,18,20-21,29,31,34,41H,19,22-24H2,1-9H3/b12-10+,13-11+,25-14+,26-15+,30-18-/t29-,31+,34?,39-/m1/s1
CH$LINK: INCHIKEY AZYANYCAUTZKRJ-LHVSFRKSSA-N
AC$INSTRUMENT: JMS-HX/HX 110A, JEOL
AC$INSTRUMENT_TYPE: FAB-EBEB
AC$MASS_SPECTROMETRY: MS_TYPE MS2
AC$MASS_SPECTROMETRY: ION_MODE POSITIVE
AC$MASS_SPECTROMETRY: ATOM_GUN_CURRENT 5 mA
AC$MASS_SPECTROMETRY: BOMBARDMENT 6 kV xenon
AC$MASS_SPECTROMETRY: COLLISION_ENERGY 3 kV
AC$MASS_SPECTROMETRY: COLLISION_GAS Ar
AC$MASS_SPECTROMETRY: GAS_PRESSURE adjust to attenuate the intensity of the precursor ion by 30 %
AC$MASS_SPECTROMETRY: IONIZATION FAB
AC$MASS_SPECTROMETRY: MATRIX 1-2 uL m-NBA
AC$MASS_SPECTROMETRY: PROBE_TIP stainless-steel
MS$FOCUSED_ION: BASE_PEAK 124.9442
MS$FOCUSED_ION: PRECURSOR_M/Z 612.35
MS$FOCUSED_ION: PRECURSOR_TYPE [M]+*
MS$DATA_PROCESSING: RELATIVE_M/Z normalised by peak(m/z=124.9442).  set 999 for peak(m/z=612.3157,rel=2495).
PK$SPLASH: splash10-03dl-4951122000-856ed9198f7b777f34bf
PK$NUM_PEAK: 1902
PK$PEAK: m/z int. rel.int.
  0.0015 0.10 2
  0.0921 0.01 0
  0.1291 0.02 0
  0.1417 0.02 0
  0.2573 0.01 0
  1.1708 0.23 6
  1.3167 0.06 1
  1.9370 0.10 2
  2.4659 0.05 1
  3.9128 0.01 0
  5.4645 0.01 0
  6.0008 0.01 0
  7.1436 0.02 0
  7.7473 0.09 2
  8.9272 0.01 0
  11.9623 0.01 0
  12.9715 0.10 2
  13.0878 0.04 1
  13.9241 0.03 1
  14.9842 0.29 7
  17.2266 0.01 0
  18.2292 0.07 2
  18.9554 0.04 1
  19.9489 0.01 0
  22.9450 0.37 9
  24.2597 0.01 0
  24.9526 0.06 1
  25.9325 0.16 4
  26.9694 2.75 69
  27.6780 0.01 0
  27.9717 0.19 5
  28.9751 1.79 45
  29.4997 0.02 0
  29.9738 0.04 1
  30.5600 0.03 1
  30.9635 0.34 8
  35.5886 0.03 1
  35.9679 0.07 2
  36.7049 0.01 0
  36.9544 0.35 9
  37.2006 0.01 0
  37.8078 0.08 2
  37.9543 1.34 33
  38.9558 5.77 144
  39.9577 0.45 11
  40.4322 0.03 1
  40.5939 0.03 1
  40.9710 9.66 241
  41.9744 0.53 13
  42.2102 0.01 0
  42.9555 35.25 880
  43.1881 0.01 0
  43.9500 0.16 4
  44.9702 0.28 7
  45.1412 0.11 3
  45.9777 0.09 2
  46.2087 0.01 0
  48.8596 0.10 2
  48.9730 0.34 8
  49.0692 0.03 1
  49.1512 0.01 0
  49.5023 0.02 0
  49.9450 2.61 65
  50.9563 4.90 122
  51.9630 1.52 38
  52.9595 5.43 136
  53.9561 0.34 8
  54.9755 8.27 206
  55.9792 0.58 14
  56.9936 20.32 507
  57.9850 0.15 4
  58.2684 0.01 0
  58.9774 2.63 66
  59.7316 0.09 2
  60.1473 0.03 1
  60.2215 0.04 1
  60.9622 0.39 10
  61.9516 1.05 26
  62.9477 2.82 70
  63.2700 0.04 1
  63.9538 0.64 16
  64.1215 0.06 1
  64.5572 0.03 1
  64.9630 4.06 101
  65.2555 0.02 0
  65.5518 0.04 1
  65.9729 0.96 24
  66.5550 0.02 0
  66.9750 5.75 144
  67.9816 0.51 13
  68.9702 8.21 205
  69.1563 0.09 2
  69.2454 0.08 2
  69.9758 0.21 5
  70.0878 0.08 2
  70.2538 0.01 0
  70.9642 1.36 34
  71.4437 0.04 1
  71.9941 0.12 3
  72.9280 0.30 7
  73.0811 0.03 1
  73.9338 1.21 30
  74.9531 1.65 41
  75.3310 0.09 2
  75.4723 0.14 3
  75.5764 0.06 1
  75.6390 0.02 0
  75.9580 1.23 31
  76.0966 0.11 3
  76.1932 0.07 2
  76.2750 0.06 1
  76.4570 0.04 1
  76.9502 10.97 274
  77.1914 0.05 1
  77.9532 1.97 49
  78.5658 0.01 0
  78.9648 9.49 237
  79.9477 0.59 15
  80.9653 9.07 226
  81.3076 0.07 2
  81.9209 0.39 10
  82.9619 10.10 252
  83.2814 0.01 0
  83.4012 0.01 0
  83.8156 0.09 2
  83.9557 0.38 9
  84.5437 0.13 3
  84.9582 4.21 105
  85.9348 0.83 21
  86.8968 0.64 16
  87.7841 0.07 2
  87.9403 0.96 24
  88.0421 0.15 4
  88.6101 0.10 2
  88.9399 2.11 53
  89.2656 0.09 2
  89.5677 0.10 2
  89.9321 0.59 15
  90.1453 0.11 3
  90.3980 0.04 1
  90.5731 0.10 2
  90.9589 15.17 379
  91.6256 0.03 1
  91.9677 1.39 35
  92.1751 0.10 2
  92.9641 7.35 183
  93.6993 0.03 1
  93.9784 0.67 17
  94.1936 0.05 1
  94.6007 0.08 2
  94.9639 14.85 371
  95.3336 0.11 3
  95.5281 0.06 1
  95.7028 0.02 0
  95.9905 0.92 23
  96.4809 0.10 2
  96.6897 0.20 5
  96.9730 6.39 160
  97.2997 0.06 1
  97.9589 0.38 9
  98.8186 0.24 6
  98.9550 0.65 16
  99.2435 0.02 0
  99.8499 0.14 3
  99.9594 0.41 10
  100.0822 0.08 2
  100.6002 0.10 2
  100.9572 0.61 15
  101.0897 0.15 4
  101.2923 0.01 0
  101.4779 0.14 3
  101.6814 0.11 3
  101.9658 1.73 43
  102.3199 0.11 3
  102.5312 0.05 1
  102.9688 4.33 108
  103.2495 0.19 5
  103.4942 0.08 2
  103.9693 1.53 38
  104.3947 0.11 3
  104.6590 0.05 1
  104.9838 15.19 379
  105.3668 0.07 2
  105.9742 1.66 41
  106.3139 0.06 1
  106.6212 0.09 2
  106.9760 6.40 160
  107.2039 0.11 3
  107.3150 0.01 0
  107.4734 0.27 7
  107.6351 0.03 1
  107.7488 0.02 0
  107.9982 1.28 32
  108.9954 5.28 132
  109.3580 0.01 0
  109.9787 0.56 14
  110.9765 0.93 23
  111.9838 0.25 6
  112.4234 0.14 3
  112.7360 0.09 2
  112.8467 0.38 9
  112.9895 0.93 23
  113.2354 0.11 3
  113.3546 0.06 1
  113.5774 0.11 3
  113.6754 0.10 2
  113.9518 0.58 14
  114.3845 0.25 6
  114.5865 0.09 2
  114.9589 10.82 270
  115.2289 0.21 5
  115.3271 0.06 1
  115.9528 3.05 76
  116.1927 0.14 3
  116.4095 0.09 2
  116.5351 0.14 3
  116.6762 0.08 2
  116.9682 5.85 146
  117.2754 0.05 1
  117.4899 0.14 3
  117.9678 1.45 36
  118.1489 0.08 2
  118.4870 0.03 1
  118.6202 0.06 1
  118.9735 13.00 325
  119.4331 0.19 5
  119.9729 1.14 28
  120.2827 0.13 3
  120.3576 0.04 1
  120.4735 0.04 1
  120.9686 12.75 318
  121.5645 0.05 1
  121.9703 1.93 48
  122.2158 0.09 2
  122.9546 4.44 111
  123.6392 0.07 2
  123.8989 0.41 10
  124.9442 40.02 999
  125.3244 0.09 2
  125.6491 0.22 5
  125.9608 0.91 23
  126.3015 0.03 1
  126.5379 0.15 4
  126.9439 5.28 132
  127.2503 0.18 4
  127.3607 0.06 1
  127.5034 0.24 6
  127.9396 10.51 262
  128.2081 0.15 4
  128.3787 0.09 2
  128.9517 11.11 277
  129.3334 0.16 4
  129.9494 3.57 89
  130.4048 0.13 3
  130.5599 0.12 3
  130.9576 6.29 157
  131.3838 0.06 1
  131.4816 0.05 1
  131.9459 1.64 41
  132.2112 0.05 1
  132.3343 0.08 2
  132.4322 0.07 2
  132.9646 7.98 199
  133.2150 0.12 3
  133.4383 0.06 1
  133.5370 0.15 4
  133.6351 0.10 2
  133.7544 0.10 2
  133.9646 1.16 29
  134.1530 0.13 3
  134.5371 0.08 2
  134.9507 5.50 137
  135.2907 0.11 3
  135.3531 0.05 1
  135.4846 0.20 5
  135.7797 0.23 6
  135.9738 2.00 50
  136.1712 0.11 3
  136.9469 3.19 80
  137.1539 0.16 4
  137.5600 0.13 3
  137.8972 0.43 11
  138.0412 0.11 3
  138.9323 3.47 87
  139.2180 0.08 2
  139.5799 0.01 0
  139.9313 1.39 35
  140.0703 0.46 11
  140.2434 0.16 4
  140.5154 0.32 8
  140.9461 10.09 252
  141.2558 0.16 4
  141.4352 0.04 1
  141.4994 0.02 0
  141.9580 7.75 193
  142.2701 0.18 4
  142.9624 8.86 221
  143.3305 0.04 1
  143.4908 0.13 3
  143.9785 1.86 46
  144.3826 0.18 4
  144.9488 13.45 336
  145.2222 0.10 2
  145.4178 0.02 0
  145.5596 0.05 1
  145.9402 1.32 33
  146.2872 0.03 1
  146.5059 0.01 0
  146.9434 4.25 106
  147.3932 0.10 2
  147.7435 0.11 3
  147.9652 1.00 25
  148.3096 0.11 3
  148.4424 0.11 3
  148.9603 3.20 80
  149.1843 0.10 2
  149.3814 0.10 2
  149.9457 1.48 37
  150.1267 0.16 4
  150.5522 0.12 3
  150.9739 2.14 53
  151.2950 0.26 6
  151.9504 7.35 183
  152.2502 0.22 5
  152.4363 0.30 7
  152.9522 7.90 197
  153.2767 0.10 2
  153.4332 0.14 3
  153.6812 0.21 5
  153.9685 3.12 78
  154.2031 0.06 1
  154.4004 0.14 3
  154.4689 0.08 2
  154.9641 8.67 216
  155.3170 0.10 2
  155.5193 0.15 4
  155.9742 4.14 103
  156.2690 0.07 2
  156.5190 0.28 7
  156.9900 8.66 216
  157.2238 0.19 5
  157.3476 0.17 4
  157.6053 0.01 0
  157.9897 1.93 48
  158.2176 0.21 5
  158.4647 0.11 3
  158.9977 4.12 103
  159.2382 0.12 3
  159.4568 0.03 1
  159.6244 0.08 2
  159.7873 0.17 4
  159.9945 0.91 23
  160.2405 0.02 0
  160.4233 0.01 0
  160.9852 3.56 89
  161.2192 0.12 3
  161.4492 0.14 3
  161.7652 0.25 6
  161.9946 0.39 10
  162.1824 0.15 4
  162.5041 0.15 4
  163.0096 8.25 206
  163.4874 0.30 7
  163.7287 0.48 12
  164.0029 1.44 36
  164.3470 0.23 6
  164.9814 13.52 337
  165.4133 0.15 4
  165.9797 4.55 114
  166.4559 0.18 4
  167.0022 8.66 216
  167.6043 0.09 2
  168.0132 3.53 88
  168.3495 0.15 4
  168.5307 0.13 3
  168.6117 0.10 2
  169.0175 7.83 195
  170.0081 2.65 66
  170.2191 0.12 3
  170.3463 0.10 2
  170.5924 0.11 3
  171.0208 3.76 94
  171.2739 0.15 4
  171.4975 0.10 2
  171.6964 0.10 2
  172.0188 1.77 44
  172.2288 0.11 3
  172.3167 0.06 1
  172.5212 0.20 5
  172.6585 0.13 3
  173.0169 4.12 103
  173.3390 0.27 7
  173.4283 0.14 3
  173.5725 0.04 1
  173.9944 0.80 20
  174.3202 0.03 1
  174.5188 0.20 5
  175.0022 2.54 63
  175.4052 0.23 6
  175.9997 2.15 54
  176.2392 0.25 6
  176.3728 0.18 4
  176.5242 0.16 4
  176.6564 0.09 2
  176.9911 3.02 75
  177.2748 0.21 5
  177.5077 0.05 1
  177.9907 8.22 205
  178.3553 0.24 6
  178.4436 0.13 3
  179.0028 10.97 274
  179.9956 5.52 138
  180.3041 0.08 2
  181.0181 27.06 675
  181.3461 0.16 4
  181.5368 0.29 7
  182.0143 3.13 78
  182.4076 0.22 5
  182.5887 0.15 4
  183.0029 5.47 137
  183.3224 0.22 5
  183.6642 0.14 3
  183.9936 1.13 28
  184.3701 0.16 4
  184.4933 0.06 1
  185.0091 2.46 61
  185.5196 0.11 3
  185.6082 0.07 2
  186.0080 1.31 33
  186.5354 0.33 8
  186.6429 0.09 2
  186.9798 1.81 45
  187.9641 1.30 32
  188.2826 0.24 6
  188.5289 0.02 0
  188.9774 5.08 127
  189.2537 0.10 2
  189.4322 0.15 4
  189.6072 0.20 5
  189.9885 2.47 62
  190.4791 0.21 5
  190.9878 6.68 167
  191.2882 0.13 3
  191.9947 5.16 129
  192.2354 0.17 4
  192.5046 0.10 2
  192.9959 9.83 245
  193.5131 0.25 6
  194.0026 4.59 115
  194.2791 0.15 4
  194.4017 0.12 3
  194.6065 0.16 4
  195.0183 7.80 195
  196.0039 5.03 126
  196.6204 0.15 4
  196.9922 7.07 176
  197.3306 0.18 4
  197.4492 0.18 4
  197.5706 0.11 3
  197.6900 0.13 3
  197.9999 1.36 34
  198.4139 0.01 0
  198.6122 0.09 2
  198.9935 1.95 49
  199.3651 0.17 4
  199.4845 0.20 5
  199.9779 1.33 33
  200.2301 0.21 5
  200.5160 0.34 8
  200.9607 3.61 90
  201.1991 0.17 4
  201.3474 0.23 6
  201.4991 0.25 6
  201.9713 4.90 122
  202.2638 0.12 3
  202.4289 0.11 3
  202.9734 6.18 154
  203.3907 0.04 1
  203.5356 0.17 4
  203.9817 2.18 54
  204.3088 0.23 6
  204.4090 0.14 3
  204.5638 0.20 5
  204.9856 6.04 151
  205.3675 0.24 6
  205.5210 0.14 3
  206.0013 4.86 121
  206.2894 0.17 4
  206.4030 0.10 2
  207.0062 7.70 192
  207.2686 0.26 6
  207.4160 0.04 1
  208.0040 2.82 70
  208.2476 0.19 5
  208.3950 0.12 3
  208.5600 0.11 3
  209.0150 5.54 138
  209.3640 0.17 4
  209.5284 0.18 4
  210.0082 2.07 52
  210.3490 0.05 1
  210.4712 0.06 1
  211.0251 3.20 80
  211.2943 0.06 1
  211.3970 0.08 2
  211.5629 0.24 6
  211.7936 0.20 5
  212.0636 0.84 21
  212.3597 0.19 5
  212.4610 0.13 3
  212.6369 0.10 2
  213.0098 2.08 52
  213.4370 0.29 7
  213.9965 0.90 22
  214.1894 0.17 4
  214.3457 0.19 5
  214.4746 0.20 5
  214.9908 6.59 165
  215.5064 0.28 7
  216.0173 3.28 82
  216.3746 0.13 3
  216.6128 0.07 2
  217.0062 5.23 131
  217.3509 0.21 5
  217.5216 0.13 3
  217.7367 0.39 10
  218.0301 2.77 69
  218.4964 0.42 10
  218.6396 0.07 2
  219.0185 8.98 224
  219.4370 0.37 9
  219.6460 0.15 4
  220.0307 2.67 67
  220.4268 0.06 1
  220.6097 0.13 3
  221.0236 5.53 138
  221.3817 0.26 6
  221.6756 0.05 1
  222.0268 1.54 38
  222.4734 0.07 2
  222.6770 0.07 2
  223.0467 4.30 107
  223.2935 0.15 4
  223.6414 0.19 5
  224.0268 1.24 31
  224.5694 0.05 1
  224.7462 0.12 3
  225.0137 1.39 35
  225.3505 0.15 4
  225.6209 0.12 3
  226.0123 2.27 57
  226.4767 0.27 7
  227.0305 2.18 54
  227.4916 0.08 2
  228.0300 2.42 60
  228.2695 0.40 10
  228.4942 0.29 7
  229.0335 4.30 107
  229.4588 0.11 3
  229.5524 0.04 1
  230.0452 2.82 70
  230.3204 0.14 3
  230.5211 0.03 1
  230.6523 0.11 3
  231.0496 5.38 134
  231.5462 0.11 3
  232.0550 3.18 79
  232.3460 0.33 8
  232.4362 0.20 5
  232.6548 0.16 4
  233.0716 5.92 148
  233.3506 0.18 4
  233.6255 0.26 6
  234.0750 11.66 291
  234.3954 0.21 5
  234.5845 0.09 2
  235.0747 3.99 100
  235.4786 0.15 4
  236.0477 1.42 35
  236.5595 0.15 4
  236.6821 0.09 2
  237.0813 2.91 73
  237.3734 0.19 5
  237.4947 0.09 2
  238.0394 0.51 13
  238.3629 0.13 3
  238.5999 0.54 13
  239.0384 2.75 69
  239.4216 0.21 5
  239.9767 1.12 28
  240.3494 0.11 3
  240.4459 0.08 2
  241.0537 2.16 54
  241.2888 0.24 6
  241.4422 0.11 3
  241.6248 0.15 4
  242.0332 2.06 51
  242.4219 0.29 7
  242.5874 0.15 4
  243.0586 3.50 87
  243.3294 0.10 2
  243.6286 0.29 7
  244.0459 2.29 57
  244.3382 0.21 5
  244.5799 0.13 3
  245.0457 5.40 135
  245.4448 0.22 5
  245.6091 0.09 2
  246.0630 2.58 64
  246.4486 0.09 2
  247.0536 5.19 130
  247.4892 0.34 8
  247.5974 0.19 5
  247.7056 0.06 1
  248.0658 1.88 47
  248.3592 0.24 6
  248.4496 0.10 2
  249.0692 3.62 90
  249.4382 0.08 2
  249.5707 0.19 5
  249.6961 0.14 3
  250.0530 1.80 45
  250.1841 0.59 15
  250.4314 0.07 2
  250.5590 0.16 4
  250.6929 0.16 4
  251.0678 1.95 49
  251.3309 0.21 5
  251.4841 0.15 4
  251.6909 0.29 7
  252.0352 1.50 37
  252.3575 0.17 4
  252.9930 2.24 56
  253.4380 0.37 9
  253.6228 0.22 5
  254.0338 0.92 23
  254.2164 0.41 10
  254.4348 0.17 4
  254.5803 0.15 4
  255.0257 2.61 65
  255.4497 0.14 3
  255.6217 0.11 3
  256.0415 1.88 47
  256.5320 0.07 2
  257.0548 2.58 64
  257.4462 0.09 2
  257.5669 0.12 3
  258.0541 1.38 34
  258.5257 0.16 4
  259.0653 3.99 100
  259.3519 0.14 3
  259.5427 0.26 6
  260.0760 1.83 46
  260.2490 0.49 12
  260.4814 0.33 8
  261.0663 4.12 103
  261.5948 0.24 6
  262.0639 1.32 33
  262.4280 0.24 6
  262.6090 0.26 6
  263.0562 2.18 54
  263.4268 0.20 5
  263.7052 0.26 6
  264.0501 1.27 32
  264.4309 0.23 6
  264.5068 0.12 3
  264.6722 0.29 7
  265.0473 2.25 56
  265.4511 0.15 4
  266.0197 1.01 25
  266.3262 0.19 5
  266.5834 0.10 2
  267.0447 1.95 49
  267.6787 0.57 14
  268.0578 1.23 31
  268.5960 0.20 5
  269.0483 2.43 61
  269.5121 0.15 4
  270.0706 1.45 36
  270.6207 0.10 2
  270.7254 0.19 5
  271.0840 2.58 64
  271.5681 0.10 2
  272.0653 1.06 26
  272.3731 0.24 6
  272.6688 0.15 4
  273.0728 3.12 78
  273.3563 0.14 3
  273.5171 0.13 3
  273.8099 0.36 9
  274.0971 1.56 39
  274.2988 0.27 7
  274.6298 0.16 4
  275.1123 3.96 99
  275.5805 0.33 8
  276.0445 1.22 30
  276.1846 0.72 18
  276.5718 1.09 27
  276.7097 0.32 8
  277.0704 2.43 61
  277.5058 0.10 2
  277.7473 0.32 8
  278.0527 0.62 15
  278.2065 0.34 8
  278.6593 0.13 3
  279.0554 1.15 29
  279.3879 0.14 3
  279.5694 0.12 3
  280.0020 1.12 28
  280.1519 0.58 14
  280.3492 0.24 6
  280.5028 0.18 4
  280.6829 0.20 5
  281.0532 1.32 33
  281.3224 0.18 4
  281.6834 0.14 3
  282.0430 1.12 28
  282.3029 0.06 1
  282.4766 0.11 3
  282.6080 0.10 2
  283.0783 1.85 46
  283.4840 0.19 5
  283.6995 0.04 1
  283.9336 0.61 15
  284.0909 0.80 20
  284.2870 0.14 3
  284.4781 0.12 3
  284.6548 0.14 3
  285.0643 2.74 68
  285.2338 0.96 24
  285.4709 0.09 2
  285.6506 0.12 3
  285.8280 0.11 3
  286.0846 1.42 35
  286.4102 0.22 5
  286.5388 0.13 3
  286.6595 0.24 6
  287.0707 2.96 74
  287.3575 0.15 4
  287.6213 0.13 3
  288.0894 1.41 35
  288.3576 0.05 1
  288.4856 0.01 0
  288.6639 0.31 8
  289.0954 2.86 71
  289.5054 0.08 2
  289.7535 0.48 12
  290.0801 0.91 23
  290.3341 0.20 5
  290.6924 0.21 5
  291.0536 1.07 27
  291.3443 0.14 3
  291.5846 0.09 2
  292.0668 0.64 16
  292.5009 0.29 7
  293.0638 1.24 31
  293.4461 0.05 1
  293.6866 0.13 3
  293.9897 0.39 10
  294.1762 0.50 12
  294.8042 0.31 8
  295.0685 1.05 26
  295.2465 0.54 13
  295.4741 0.08 2
  295.5836 0.13 3
  295.8336 0.27 7
  296.0891 0.89 22
  296.2935 0.21 5
  296.5087 0.23 6
  296.5864 0.11 3
  297.0651 1.92 48
  297.5482 0.07 2
  298.1328 0.80 20
  298.3661 0.21 5
  298.5786 0.12 3
  299.0791 1.54 38
  299.3268 0.16 4
  299.7093 0.04 1
  300.0738 0.55 14
  300.2179 0.28 7
  300.7344 0.35 9
  301.1048 2.49 62
  301.3512 0.27 7
  301.4276 0.13 3
  301.5840 0.09 2
  301.7303 0.19 5
  302.0928 1.10 27
  302.4971 0.01 0
  303.0969 8.20 205
  303.6476 0.29 7
  303.7760 0.12 3
  303.9310 0.17 4
  304.1149 0.51 13
  304.3060 0.08 2
  304.6398 0.18 4
  304.7560 0.11 3
  305.0235 0.94 23
  305.1714 0.82 20
  305.6856 0.12 3
  305.8559 0.54 13
  306.0557 0.68 17
  306.1848 0.36 9
  306.6299 0.11 3
  307.0506 1.05 26
  307.3046 0.32 8
  307.4677 0.07 2
  307.5694 0.07 2
  307.6870 0.21 5
  307.8292 0.28 7
  308.0789 0.77 19
  308.3553 0.12 3
  309.0396 1.67 42
  309.2237 0.30 7
  309.4236 0.03 1
  309.7362 0.11 3
  309.9218 0.21 5
  310.1398 0.60 15
  310.5514 0.06 1
  310.7312 0.09 2
  311.0605 0.98 24
  311.2216 0.45 11
  312.0724 0.64 16
  312.2761 0.12 3
  312.3765 0.11 3
  312.5087 0.12 3
  313.0585 1.18 29
  313.6596 0.10 2
  314.0564 0.77 19
  314.2045 0.27 7
  314.4625 0.11 3
  314.5962 0.16 4
  314.7805 0.17 4
  315.0776 1.40 35
  315.4766 0.23 6
  315.6414 0.21 5
  316.0115 0.66 16
  316.4200 0.20 5
  316.5400 0.13 3
  316.6904 0.21 5
  317.0802 3.41 85
  317.4114 0.33 8
  317.7014 0.19 5
  318.1165 1.43 36
  318.4912 0.13 3
  318.6286 0.14 3
  318.8376 0.35 9
  319.0916 1.36 34
  319.5285 0.07 2
  319.7571 0.11 3
  320.0415 0.43 11
  320.3910 0.12 3
  320.6334 0.03 1
  320.9923 0.49 12
  321.1436 0.40 10
  321.3166 0.24 6
  321.8818 0.28 7
  322.0997 0.30 7
  322.6788 0.04 1
  322.8779 0.51 13
  323.1451 1.07 27
  323.4600 0.11 3
  323.8633 0.26 6
  324.0755 0.50 12
  324.4441 0.13 3
  324.7251 0.02 0
  324.8453 0.14 3
  325.1256 0.79 20
  325.5052 0.05 1
  326.0572 0.41 10
  326.3549 0.15 4
  326.5954 0.07 2
  326.8063 0.19 5
  327.1193 1.01 25
  327.8251 0.16 4
  328.1019 1.16 29
  328.3077 0.27 7
  328.5817 0.05 1
  328.7650 0.34 8
  329.0912 0.84 21
  329.4696 0.08 2
  329.7762 0.13 3
  330.0561 0.41 10
  331.0821 0.79 20
  331.5570 0.12 3
  331.6927 0.13 3
  331.8159 0.03 1
  332.0930 0.49 12
  332.6768 0.15 4
  333.1346 0.91 23
  333.5749 0.13 3
  333.6823 0.11 3
  334.0196 0.52 13
  334.1901 0.18 4
  334.5761 0.12 3
  335.1175 1.08 27
  335.3228 0.30 7
  335.4433 0.17 4
  335.5943 0.02 0
  335.7206 0.10 2
  335.9455 0.30 7
  336.1763 0.42 10
  336.3237 0.17 4
  336.6750 0.14 3
  337.1185 0.62 15
  337.4721 0.14 3
  337.6841 0.11 3
  337.9055 0.28 7
  338.1117 0.44 11
  338.6323 0.12 3
  339.1544 0.70 17
  339.3229 0.27 7
  339.4951 0.12 3
  340.1117 0.43 11
  340.4182 0.11 3
  340.6201 0.13 3
  340.9261 0.34 8
  341.1407 0.66 16
  341.6490 0.20 5
  342.0987 0.54 13
  342.3358 0.08 2
  342.5324 0.11 3
  343.0502 0.78 19
  343.2954 0.06 1
  343.4492 0.09 2
  343.7923 0.03 1
  344.1014 0.33 8
  344.4213 0.13 3
  344.6970 0.12 3
  345.0707 0.32 8
  345.2746 0.22 5
  345.8442 0.24 6
  346.1447 0.16 4
  346.3610 0.12 3
  346.6839 0.03 1
  346.9518 0.33 8
  347.1927 0.43 11
  347.3495 0.29 7
  347.6196 0.29 7
  348.0152 0.69 17
  348.1648 0.22 5
  348.2657 0.19 5
  348.5655 0.10 2
  348.6766 0.09 2
  349.0825 0.65 16
  349.2560 0.26 6
  349.4702 0.36 9
  349.8471 0.21 5
  350.0076 0.32 8
  350.1667 0.29 7
  350.5930 0.04 1
  351.1145 0.67 17
  351.4835 0.09 2
  351.8198 0.13 3
  352.0552 0.31 8
  352.2157 0.25 6
  352.5041 0.14 3
  352.6538 0.12 3
  353.0018 0.84 21
  353.1725 0.55 14
  353.4051 0.10 2
  353.5751 0.04 1
  353.7531 0.08 2
  354.0670 0.47 12
  354.4828 0.14 3
  354.5699 0.15 4
  355.0816 0.89 22
  355.2859 0.41 10
  355.8187 0.14 3
  356.0818 0.63 16
  356.2359 0.26 6
  356.4591 0.10 2
  356.7135 0.09 2
  357.0974 1.05 26
  357.2530 0.66 16
  357.5584 0.17 4
  357.8921 0.12 3
  358.0317 0.13 3
  358.1917 0.44 11
  358.3270 0.07 2
  358.4899 0.16 4
  359.0579 0.52 13
  359.2026 0.26 6
  359.5226 0.03 1
  359.8274 0.05 1
  359.9939 0.19 5
  360.1961 0.10 2
  360.4820 0.14 3
  360.8217 0.14 3
  361.0989 0.51 13
  361.4802 0.10 2
  361.7588 0.08 2
  362.1874 0.36 9
  362.5672 0.14 3
  362.7237 0.04 1
  363.1028 1.07 27
  363.2360 0.82 20
  363.4412 0.11 3
  363.9616 0.10 2
  364.1334 0.26 6
  364.3379 0.18 4
  364.4587 0.11 3
  364.7899 0.11 3
  364.9755 0.40 10
  365.1539 0.44 11
  365.2704 0.35 9
  365.4713 0.11 3
  365.5994 0.07 2
  365.7523 0.09 2
  366.2000 0.28 7
  366.6726 0.13 3
  367.0840 0.61 15
  367.5995 0.18 4
  367.7751 0.09 2
  368.0147 0.30 7
  368.1137 0.11 3
  368.2769 0.19 5
  368.6896 0.01 0
  369.1208 0.77 19
  369.3158 0.07 2
  369.4191 0.05 1
  369.7245 0.06 1
  369.8918 0.03 1
  370.0701 0.33 8
  370.2083 0.13 3
  370.3458 0.12 3
  370.9459 0.29 7
  371.2209 0.76 19
  371.5418 0.11 3
  371.6888 0.12 3
  371.8401 0.14 3
  372.1224 0.85 21
  372.3778 0.21 5
  372.6638 0.22 5
  372.7613 0.10 2
  373.1033 0.75 19
  373.2765 0.20 5
  373.5021 0.11 3
  373.5989 0.12 3
  373.8820 0.16 4
  374.0284 0.20 5
  374.2700 0.33 8
  374.3857 0.16 4
  374.9848 0.25 6
  375.2017 0.46 11
  375.3852 0.20 5
  375.9042 0.12 3
  376.2100 0.13 3
  376.3410 0.12 3
  376.4998 0.09 2
  376.6534 0.14 3
  377.1434 0.67 17
  377.4966 0.23 6
  377.7471 0.16 4
  378.0821 0.54 13
  378.2707 0.16 4
  378.6195 0.14 3
  378.7113 0.10 2
  378.8672 0.15 4
  379.1338 0.49 12
  379.8286 0.08 2
  380.0056 0.18 4
  380.1397 0.09 2
  380.2431 0.19 5
  380.3779 0.14 3
  380.7217 0.11 3
  381.0510 0.48 12
  381.2274 0.42 10
  381.3337 0.22 5
  381.7716 0.06 1
  381.9552 0.10 2
  382.0827 0.28 7
  382.1855 0.27 7
  382.2984 0.29 7
  382.4718 0.17 4
  382.6773 0.15 4
  382.8763 0.28 7
  383.0235 0.32 8
  383.1364 0.22 5
  383.3046 0.12 3
  383.9240 0.12 3
  384.1147 0.17 4
  384.3862 0.22 5
  384.5696 0.05 1
  384.9482 0.17 4
  385.2029 0.37 9
  385.3704 0.17 4
  385.5859 0.09 2
  385.9514 0.15 4
  386.0526 0.11 3
  386.1537 0.12 3
  386.7879 0.10 2
  387.0624 0.29 7
  387.2299 0.18 4
  387.5438 0.11 3
  387.9414 0.12 3
  388.1846 0.55 14
  388.5385 0.13 3
  388.7986 0.09 2
  389.0841 0.66 16
  389.2501 0.44 11
  389.3499 0.14 3
  389.9458 0.05 1
  390.1432 0.07 2
  390.3981 0.10 2
  390.8192 0.24 6
  390.9161 0.21 5
  391.1514 0.41 10
  391.3416 0.12 3
  391.6272 0.16 4
  392.0294 0.13 3
  392.5555 0.10 2
  393.0612 0.40 10
  393.2521 0.41 10
  393.8490 0.16 4
  394.1092 0.22 5
  394.2418 0.04 1
  394.3868 0.17 4
  395.1587 0.42 10
  395.3570 0.11 3
  395.6333 0.11 3
  395.7623 0.14 3
  395.9285 0.22 5
  396.0998 0.27 7
  396.2135 0.11 3
  396.3550 0.11 3
  396.7035 0.01 0
  397.0556 0.42 10
  397.2072 0.43 11
  397.3071 0.17 4
  397.8620 0.15 4
  398.1632 0.19 5
  398.4067 0.12 3
  398.5292 0.11 3
  398.7144 0.26 6
  399.0908 0.53 13
  399.2527 0.41 10
  399.3868 0.25 6
  399.5699 0.10 2
  400.1534 1.32 33
  400.3591 0.37 9
  400.4597 0.13 3
  400.6457 0.01 0
  401.0294 0.35 9
  401.1921 0.29 7
  401.3518 0.03 1
  401.7020 0.30 7
  401.8420 0.13 3
  402.0544 0.14 3
  402.1857 0.13 3
  402.7752 0.11 3
  402.9685 0.12 3
  403.2108 0.33 8
  403.4150 0.19 5
  403.9959 0.19 5
  404.3892 0.24 6
  404.8614 0.12 3
  405.1080 0.46 11
  405.3795 0.12 3
  405.9839 0.09 2
  406.2408 0.30 7
  406.5174 0.11 3
  407.0357 0.25 6
  407.2240 0.68 17
  407.8832 0.13 3
  408.0431 0.14 3
  408.2599 0.18 4
  408.4067 0.06 1
  408.7294 0.22 5
  409.0609 0.45 11
  409.2624 0.29 7
  410.0795 0.11 3
  410.2416 0.10 2
  410.3862 0.06 1
  410.5038 0.09 2
  410.6206 0.13 3
  411.0500 0.42 10
  411.2509 0.25 6
  411.5276 0.12 3
  412.2164 0.13 3
  413.0206 0.40 10
  413.1156 0.36 9
  413.2726 0.36 9
  413.3771 0.20 5
  413.5407 0.15 4
  413.8914 0.14 3
  414.0258 0.23 6
  414.1237 0.09 2
  414.2194 0.11 3
  414.9997 0.23 6
  415.2795 0.34 8
  415.8261 0.27 7
  416.0592 0.11 3
  416.2198 0.38 9
  416.2985 0.13 3
  416.4517 0.08 2
  416.6041 0.10 2
  416.8659 0.11 3
  417.0088 0.27 7
  417.2174 0.69 17
  417.4880 0.11 3
  417.6273 0.27 7
  417.8694 0.15 4
  418.1422 0.34 8
  418.7615 0.18 4
  419.0518 0.18 4
  419.2598 0.28 7
  419.4925 0.11 3
  420.1293 0.14 3
  420.4131 0.22 5
  420.7137 0.11 3
  421.0829 0.29 7
  421.2975 0.26 6
  421.4237 0.24 6
  422.0899 0.05 1
  422.1986 0.11 3
  423.0495 0.34 8
  424.0297 0.04 1
  424.1640 0.21 5
  424.3515 0.16 4
  424.5508 0.13 3
  424.7019 0.10 2
  424.8369 0.12 3
  424.9552 0.10 2
  425.0683 0.11 3
  425.2180 0.21 5
  425.9903 0.07 2
  426.1385 0.14 3
  426.3531 0.06 1
  426.5721 0.13 3
  426.6524 0.06 1
  426.9561 0.13 3
  427.1394 0.23 6
  427.3365 0.15 4
  427.7936 0.13 3
  427.9718 0.12 3
  428.1295 0.13 3
  428.3573 0.17 4
  429.1408 0.25 6
  429.2876 0.25 6
  429.4950 0.14 3
  429.6323 0.14 3
  430.1465 0.09 2
  430.7205 0.14 3
  430.9038 0.09 2
  431.1777 0.49 12
  431.4020 0.16 4
  431.5079 0.13 3
  431.7241 0.12 3
  432.1588 0.21 5
  432.2939 0.16 4
  432.4188 0.14 3
  433.2786 0.49 12
  433.3648 0.22 5
  434.1268 0.05 1
  434.2421 0.17 4
  434.4851 0.14 3
  434.7486 0.10 2
  435.1471 0.28 7
  435.4500 0.01 0
  435.9573 0.08 2
  436.1450 0.20 5
  436.2603 0.17 4
  436.4902 0.13 3
  437.1677 0.42 10
  437.3685 0.12 3
  437.6181 0.13 3
  437.9722 0.15 4
  438.2321 0.11 3
  438.5615 0.02 0
  438.8842 0.10 2
  439.0799 0.10 2
  439.2770 0.17 4
  439.9985 0.03 1
  440.1832 0.10 2
  440.4476 0.12 3
  440.8164 0.01 0
  441.2101 0.34 8
  441.6183 0.08 2
  441.7359 0.15 4
  441.8754 0.16 4
  442.1559 0.20 5
  442.3297 0.12 3
  443.2253 0.38 9
  443.5240 0.22 5
  443.6482 0.16 4
  443.8060 0.12 3
  444.2392 0.20 5
  444.4839 0.11 3
  444.5986 0.08 2
  444.7411 0.21 5
  445.0998 0.23 6
  445.2299 0.31 8
  445.3884 0.27 7
  445.5674 0.09 2
  445.7742 0.12 3
  446.1096 0.12 3
  446.5195 0.14 3
  446.7891 0.12 3
  447.0251 0.13 3
  447.2078 0.13 3
  447.7756 0.13 3
  448.0446 0.15 4
  448.3318 0.10 2
  448.4524 0.05 1
  449.0992 0.24 6
  449.2819 0.14 3
  449.5538 0.15 4
  449.7804 0.07 2
  449.9471 0.11 3
  450.1429 0.32 8
  450.2760 0.22 5
  450.8878 0.42 10
  451.1013 0.24 6
  451.2892 0.42 10
  451.3769 0.13 3
  452.1459 0.10 2
  453.1578 0.38 9
  453.3750 0.28 7
  453.5519 0.10 2
  453.6484 0.12 3
  453.8715 0.23 6
  454.0506 0.16 4
  454.2919 0.13 3
  454.4901 0.10 2
  454.8857 0.11 3
  455.1841 0.11 3
  455.3157 0.12 3
  455.8700 0.10 2
  456.0543 0.12 3
  456.1889 0.11 3
  456.7345 0.15 4
  456.9722 0.15 4
  457.1419 0.19 5
  457.3350 0.19 5
  457.4432 0.13 3
  457.5361 0.12 3
  457.9106 0.19 5
  458.0650 0.20 5
  458.3027 0.17 4
  458.6648 0.13 3
  459.1235 1.04 26
  459.2756 0.78 19
  459.4834 0.14 3
  459.7724 0.14 3
  460.0387 0.43 11
  460.2084 0.45 11
  460.9415 0.20 5
  461.1193 0.54 13
  461.3578 0.28 7
  461.4720 0.11 3
  461.6322 0.13 3
  461.7310 0.14 3
  461.8349 0.06 1
  462.1035 0.17 4
  462.3296 0.12 3
  462.6764 0.08 2
  463.0584 0.36 9
  463.2457 0.10 2
  463.3694 0.10 2
  463.5304 0.13 3
  463.6761 0.17 4
  464.1283 0.21 5
  464.8719 0.02 0
  465.2203 0.47 12
  465.5482 0.13 3
  465.6236 0.08 2
  465.7137 0.05 1
  465.9333 0.14 3
  466.0906 0.21 5
  466.4266 0.15 4
  466.6133 0.16 4
  466.7143 0.19 5
  466.7926 0.06 1
  467.3365 0.27 7
  467.4713 0.19 5
  467.6411 0.14 3
  468.0020 0.22 5
  468.2414 0.26 6
  468.4823 0.09 2
  468.7686 0.12 3
  468.9779 0.12 3
  469.0753 0.08 2
  469.2313 0.24 6
  469.3550 0.13 3
  469.9726 0.23 6
  470.2181 0.38 9
  470.3767 0.20 5
  470.5244 0.14 3
  471.0271 0.05 1
  471.1580 0.21 5
  471.3114 0.09 2
  471.4905 0.23 6
  471.6118 0.18 4
  472.2579 0.19 5
  473.1431 0.33 8
  473.2491 0.27 7
  473.7578 0.04 1
  473.8806 0.07 2
  474.1270 0.14 3
  474.2914 0.34 8
  474.3748 0.13 3
  474.7863 0.01 0
  474.9618 0.13 3
  475.2060 0.31 8
  475.5503 0.11 3
  475.7704 0.07 2
  475.8734 0.07 2
  475.9963 0.12 3
  476.1995 0.37 9
  476.3999 0.30 7
  476.6236 0.16 4
  476.8298 0.11 3
  477.2744 0.47 12
  477.3687 0.22 5
  477.6231 0.03 1
  477.8578 0.16 4
  478.1123 0.23 6
  478.2805 0.37 9
  478.6213 0.15 4
  478.7566 0.09 2
  479.0483 0.14 3
  479.2633 0.20 5
  479.3877 0.06 1
  479.9932 0.14 3
  480.1746 0.45 11
  480.4664 0.23 6
  481.1707 0.25 6
  481.5562 0.14 3
  481.6945 0.13 3
  481.8978 0.05 1
  482.3886 0.01 0
  482.6198 0.19 5
  482.9189 0.14 3
  483.2628 0.33 8
  483.5583 0.28 7
  483.8480 0.22 5
  483.9973 0.10 2
  484.1180 0.22 5
  484.3719 0.31 8
  484.6008 0.16 4
  484.8386 0.18 4
  484.9718 0.21 5
  485.1064 0.28 7
  485.2922 0.26 6
  485.4554 0.08 2
  485.6142 0.13 3
  485.8644 0.12 3
  486.1081 0.44 11
  486.3203 0.22 5
  486.5558 0.13 3
  486.7249 0.11 3
  487.1164 0.13 3
  487.3542 0.07 2
  487.5393 0.21 5
  487.8167 0.17 4
  487.9140 0.15 4
  488.0179 0.08 2
  488.2990 0.28 7
  488.8537 0.28 7
  489.0623 0.39 10
  489.3374 0.27 7
  489.4904 0.17 4
  489.7180 0.10 2
  490.0928 0.18 4
  490.4236 0.24 6
  490.7018 0.09 2
  490.9660 0.17 4
  491.2595 0.74 18
  491.4279 0.59 15
  491.6533 0.22 5
  491.9637 0.10 2
  492.2031 0.28 7
  492.5632 0.12 3
  492.7155 0.12 3
  492.9439 0.09 2
  493.1035 0.35 9
  493.3143 0.34 8
  493.4747 0.20 5
  493.7895 0.16 4
  494.0003 0.16 4
  494.2690 0.32 8
  494.5531 0.17 4
  494.8533 0.06 1
  495.1806 0.52 13
  495.4647 0.40 10
  495.6053 0.15 4
  495.7583 0.12 3
  495.9684 0.07 2
  496.0775 0.17 4
  496.1757 0.19 5
  496.2760 0.16 4
  496.6121 0.18 4
  496.7688 0.17 4
  496.9387 0.25 6
  497.1437 0.25 6
  497.6520 0.32 8
  497.8812 0.20 5
  498.0413 0.17 4
  498.2358 0.32 8
  498.3403 0.17 4
  498.5078 0.21 5
  498.6942 0.55 14
  498.8419 0.45 11
  499.1688 0.34 8
  499.4006 0.11 3
  499.5652 0.23 6
  499.6814 0.17 4
  499.9988 0.23 6
  500.1480 0.11 3
  500.3944 0.23 6
  500.7235 0.33 8
  500.9788 0.31 8
  501.2011 0.35 9
  501.5441 0.43 11
  501.8323 0.19 5
  502.1095 0.52 13
  502.2682 0.43 11
  502.4349 0.12 3
  502.6207 0.24 6
  502.8658 0.27 7
  503.1671 0.35 9
  503.4670 0.14 3
  503.7186 0.37 9
  503.8869 0.12 3
  504.1283 0.34 8
  504.3053 0.46 11
  504.4969 0.22 5
  504.6345 0.12 3
  504.7720 0.11 3
  504.9512 0.19 5
  505.1780 0.39 10
  505.4823 0.45 11
  505.8423 0.32 8
  506.0413 0.41 10
  506.2769 0.22 5
  506.4758 0.13 3
  506.6975 0.10 2
  506.8541 0.17 4
  507.2514 0.58 14
  507.4504 0.24 6
  507.8075 0.22 5
  508.1777 0.28 7
  508.3643 0.38 9
  508.6489 0.25 6
  508.8553 0.11 3
  509.0960 0.24 6
  509.4180 0.37 9
  509.6441 0.03 1
  509.8190 0.21 5
  510.0451 0.26 6
  510.3122 0.27 7
  510.9482 0.24 6
  511.2878 0.37 9
  511.4810 0.23 6
  511.5798 0.13 3
  511.7496 0.15 4
  511.9026 0.22 5
  512.0833 0.24 6
  512.3300 0.37 9
  512.5825 0.06 1
  512.6945 0.21 5
  512.8804 0.15 4
  512.9748 0.14 3
  513.1154 0.31 8
  513.5018 0.10 2
  513.6241 0.12 3
  513.8986 0.04 1
  514.0735 0.24 6
  514.3312 0.45 11
  514.6057 0.46 11
  514.8736 0.60 15
  515.6342 1.25 31
  516.6094 2.53 63
  517.0794 2.07 52
  517.7003 1.75 44
  517.9954 1.47 37
  518.4800 1.02 25
  518.7283 0.85 21
  519.2137 1.78 44
  519.5843 0.78 19
  519.8926 0.67 17
  520.3693 1.22 30
  521.4656 1.43 36
  522.0222 1.30 32
  522.6345 1.52 38
  523.1845 1.34 33
  523.4899 1.11 28
  523.7493 0.73 18
  523.9456 0.65 16
  524.1331 0.75 19
  524.4597 0.78 19
  524.8179 0.59 15
  525.3155 0.60 15
  525.7584 0.30 7
  525.9785 0.27 7
  526.2847 0.32 8
  526.6093 0.41 10
  526.8381 0.37 9
  526.9938 0.33 8
  527.2043 0.64 16
  527.3359 0.32 8
  527.5142 0.62 15
  527.6772 0.27 7
  527.8717 0.16 4
  528.1085 0.40 10
  528.2928 0.33 8
  528.4675 0.30 7
  528.6525 0.66 16
  528.8155 0.38 9
  528.9280 0.26 6
  529.2234 0.35 9
  529.4245 0.25 6
  529.5583 0.30 7
  529.7410 0.25 6
  529.9698 0.64 16
  530.4875 0.37 9
  530.7375 0.38 9
  531.0893 0.52 13
  531.2435 0.37 9
  531.4059 0.37 9
  531.5463 0.37 9
  531.7744 0.15 4
  532.0500 0.41 10
  532.3352 0.61 15
  532.4566 0.26 6
  532.7828 0.31 8
  533.2486 0.98 24
  533.5264 0.69 17
  534.3718 1.10 27
  534.7689 0.68 17
  535.2458 1.17 29
  535.4901 0.58 14
  535.8243 0.70 17
  536.2383 0.81 20
  536.5828 0.69 17
  537.2484 5.43 136
  537.6544 0.78 19
  538.2446 0.79 20
  538.7640 0.77 19
  539.4399 0.99 25
  539.8050 0.96 24
  540.0859 0.81 20
  540.4422 0.51 13
  540.7722 0.51 13
  541.2945 0.71 18
  541.8352 0.62 15
  542.0591 0.35 9
  542.4095 0.39 10
  542.7110 0.41 10
  542.8295 0.18 4
  542.9356 0.38 9
  543.1339 0.38 9
  543.5554 0.24 6
  543.6929 0.13 3
  543.9139 0.29 7
  544.0991 0.17 4
  544.2066 0.17 4
  544.3207 0.20 5
  544.5322 0.13 3
  544.7159 0.14 3
  544.8462 0.24 6
  545.0891 0.13 3
  545.1769 0.04 1
  545.3182 0.10 2
  545.5311 0.08 2
  545.7228 0.11 3
  545.8729 0.02 0
  546.0251 0.23 6
  546.2242 0.17 4
  546.3976 0.10 2
  546.5338 0.06 1
  546.7665 0.16 4
  546.8843 0.09 2
  547.2692 0.13 3
  547.7794 0.09 2
  547.9777 0.17 4
  548.0604 0.14 3
  548.4396 0.23 6
  548.5508 0.04 1
  548.8289 0.17 4
  549.0873 0.19 5
  549.2322 0.08 2
  549.3545 0.10 2
  549.5521 0.05 1
  549.8017 0.11 3
  549.9159 0.20 5
  550.1970 0.23 6
  550.4590 0.25 6
  550.5659 0.29 7
  551.2657 2.99 75
  551.6808 0.87 22
  552.2863 14.34 358
  553.2680 3.97 99
  553.4584 2.03 51
  553.6926 0.36 9
  553.9592 0.19 5
  554.2088 0.41 10
  554.4834 0.31 8
  554.7513 0.18 4
  554.8597 0.30 7
  555.0779 0.36 9
  555.4155 0.11 3
  555.6212 0.27 7
  556.1118 0.10 2
  556.2509 0.13 3
  556.5973 0.12 3
  556.7386 0.15 4
  557.1392 0.08 2
  557.2615 0.12 3
  557.5859 0.14 3
  558.4449 0.10 2
  558.6924 0.09 2
  559.1106 0.14 3
  559.5873 0.09 2
  559.8217 0.09 2
  560.4069 0.19 5
  561.1694 0.26 6
  561.3569 0.14 3
  561.7209 0.12 3
  561.9003 0.09 2
  562.0095 0.07 2
  562.1340 0.11 3
  562.3296 0.06 1
  564.7711 0.05 1
  565.0349 0.01 0
  565.3689 0.14 3
  566.1499 0.22 5
  566.2642 0.06 1
  566.4437 0.23 6
  566.5770 0.10 2
  566.7111 0.14 3
  566.8584 0.10 2
  567.0210 0.28 7
  567.2196 0.24 6
  567.4321 0.50 12
  567.6665 0.24 6
  568.3069 1.21 30
  568.4688 0.44 11
  568.6263 0.20 5
  569.2829 2.64 66
  569.6801 0.45 11
  569.7563 0.18 4
  569.9578 0.23 6
  570.2111 0.85 21
  570.4824 0.84 21
  570.7339 0.16 4
  571.0608 0.12 3
  571.2165 0.14 3
  572.0999 0.19 5
  572.2731 0.19 5
  572.4640 0.15 4
  572.6168 0.05 1
  572.8932 0.05 1
  573.2443 0.07 2
  573.5272 0.03 1
  573.9294 0.18 4
  574.6257 0.23 6
  574.8143 0.10 2
  575.2181 0.24 6
  575.3943 0.14 3
  575.4982 0.12 3
  575.7073 0.12 3
  576.0811 0.15 4
  576.3348 0.06 1
  576.4562 0.17 4
  577.3866 0.14 3
  577.5263 0.07 2
  577.7077 0.12 3
  577.8028 0.13 3
  577.9959 0.10 2
  578.1217 0.20 5
  578.2578 0.11 3
  578.5175 0.21 5
  578.9109 0.11 3
  579.2811 0.48 12
  579.5327 0.35 9
  579.7215 0.10 2
  579.9007 0.17 4
  580.0016 0.23 6
  580.3491 0.23 6
  580.5349 0.11 3
  580.7829 0.09 2
  581.0719 0.18 4
  581.2745 0.17 4
  581.3901 0.15 4
  581.5313 0.30 7
  581.8415 0.24 6
  582.1158 0.37 9
  582.3485 0.56 14
  582.5797 0.18 4
  582.8994 0.02 0
  583.0092 0.07 2
  583.1730 0.42 10
  583.4247 0.33 8
  583.6091 0.13 3
  583.9040 0.05 1
  584.0327 0.12 3
  584.2493 0.39 10
  584.4564 0.32 8
  584.7330 0.16 4
  584.9407 0.17 4
  585.1544 0.13 3
  585.5993 0.19 5
  586.3479 0.01 0
  586.4716 0.06 1
  586.6062 0.02 0
  586.9142 0.22 5
  587.1960 0.11 3
  587.3387 0.06 1
  587.6028 0.31 8
  587.7463 0.28 7
  587.9614 0.17 4
  588.3259 0.24 6
  588.5747 0.24 6
  588.7818 0.20 5
  589.0109 0.20 5
  589.2773 0.22 5
  589.5342 0.29 7
  589.7530 0.20 5
  589.9367 0.22 5
  590.1584 0.50 12
  590.2792 0.44 11
  590.3853 0.18 4
  590.5200 0.12 3
  590.8750 0.49 12
  591.0477 0.28 7
  591.2409 0.08 2
  591.3529 0.30 7
  591.4803 0.24 6
  591.6772 0.35 9
  591.8777 0.26 6
  592.2466 0.63 16
  592.6821 0.58 14
  593.0635 0.52 13
  593.4163 1.10 27
  593.8065 0.81 20
  594.3730 4.25 106
  594.7719 0.80 20
  594.9971 0.71 18
  595.3743 1.06 26
  595.6669 0.47 12
  596.3132 0.61 15
  597.3041 4.43 111
  597.8533 0.54 13
  598.1978 0.63 16
  598.4932 0.33 8
  598.7067 0.37 9
  599.0015 0.55 14
  599.3986 0.56 14
  599.8301 0.66 16
  599.9683 0.13 3
  600.1058 0.27 7
  600.3727 0.47 12
  600.5358 0.55 14
  600.6880 0.34 8
  600.8291 0.13 3
  600.9418 0.27 7
  601.0946 0.52 13
  601.4618 0.38 9
  601.9950 0.42 10
  602.5275 0.34 8
  602.8120 0.57 14
  603.1360 0.43 11
  603.3167 0.48 12
  603.5369 0.42 10
  603.8149 0.44 11
  604.4374 0.67 17
  604.8946 0.70 17
  605.0490 0.59 15
  605.5479 1.08 27
  606.3386 0.98 24
  606.7095 1.02 25
  612.3157 99.96 999
  613.1023 22.32 557
  613.7185 11.03 275
  614.4547 4.83 121
  615.3461 2.28 57
  615.9257 1.24 31
  616.2880 1.15 29
  616.5917 0.78 19
  616.8274 0.48 12
  617.3807 0.65 16
  617.5916 0.26 6
  617.8367 0.66 16
  618.1398 0.33 8
  618.3469 0.26 6
  618.6554 0.27 7
  618.9229 0.27 7
  619.0458 0.11 3
  619.2585 0.31 8
  619.4340 0.29 7
  619.5875 0.28 7
  619.7439 0.49 12
  619.9238 0.10 2
  620.1526 0.16 4
  620.5123 0.30 7
  620.7967 0.22 5
  621.0262 0.11 3
  621.2910 0.08 2
  621.7004 0.08 2
  622.2012 0.11 3
  622.3474 0.01 0
//
