ACCESSION: MSBNK-Kyoto_Univ-CA000054
RECORD_TITLE: alpha-Echinenone; FAB-EBEB; MS2; m/z: 550.42; [M]+*
DATE: 2016.01.19 (Created 2010.04.01, modified 2011.05.10)
AUTHORS: Akimoto N, Graduate School of Pharmaceutical Sciences, Kyoto University and Maoka T, Research Institute for Production Development
LICENSE: CC BY-SA
PUBLICATION: Takashi Maoka, Yasuhiro Fujiwara, Keiji Hashimoto, and Naoshige Akimoto, Carotenoids in Three Species of Corbicula Clams, Corbicula japonica, Corbicula sandai, and Corbicula sp. (Chinese Freshwater Corbicula Clam), J. Agric. Food Chem., 53, 8357-8364 (2005).  Tsushima, M.; Matsuno, T, Comparative biochemical studies of carotenoids in sea urchin-1. Comp. Biochem. Physiol. 1990, 96B, 801-810
COMMENT: Profile spectrum of this record is given as a JPEG file.
COMMENT: [Profile] CA000054.jpg
CH$NAME: alpha-Echinenone
CH$COMPOUND_CLASS: N/A
CH$FORMULA: C40H54O
CH$EXACT_MASS: 550.41747
CH$SMILES: CC1=CCCC([C@H]1/C=C/C(=C/C=C/C(=C/C=C/C=C(\C)/C=C/C=C(\C)/C=C/C2=C(C(=O)CCC2(C)C)C)/C)/C)(C)C
CH$IUPAC: InChI=1S/C40H54O/c1-30(18-13-20-32(3)23-25-36-34(5)22-15-28-39(36,7)8)16-11-12-17-31(2)19-14-21-33(4)24-26-37-35(6)38(41)27-29-40(37,9)10/h11-14,16-26,36H,15,27-29H2,1-10H3/b12-11+,18-13+,19-14+,25-23+,26-24+,30-16+,31-17+,32-20+,33-21+/t36-/m0/s1
CH$LINK: CAS 432-68-8
CH$LINK: INCHIKEY ZRXISZZQHKYPQA-GMKWGACXSA-N
AC$INSTRUMENT: JMS-HX/HX 110A, JEOL
AC$INSTRUMENT_TYPE: FAB-EBEB
AC$MASS_SPECTROMETRY: MS_TYPE MS2
AC$MASS_SPECTROMETRY: ION_MODE POSITIVE
AC$MASS_SPECTROMETRY: ATOM_GUN_CURRENT 5 mA
AC$MASS_SPECTROMETRY: BOMBARDMENT 6 kV xenon
AC$MASS_SPECTROMETRY: COLLISION_ENERGY 3 kV
AC$MASS_SPECTROMETRY: COLLISION_GAS Ar
AC$MASS_SPECTROMETRY: GAS_PRESSURE adjust to attenuate the intensity of the precursor ion by 30 %
AC$MASS_SPECTROMETRY: IONIZATION FAB
AC$MASS_SPECTROMETRY: MATRIX 1-2 uL m-NBA
AC$MASS_SPECTROMETRY: PROBE_TIP stainless-steel
MS$FOCUSED_ION: BASE_PEAK 104.9139
MS$FOCUSED_ION: PRECURSOR_M/Z 550.42
MS$FOCUSED_ION: PRECURSOR_TYPE [M]+*
MS$DATA_PROCESSING: RELATIVE_M/Z normalised by peak(m/z=104.9139).  set 999 for peak(m/z=550.2366,rel=1974).
PK$SPLASH: splash10-0udl-3920020000-59d99d0f0482beef01b7
PK$NUM_PEAK: 1853
PK$PEAK: m/z int. rel.int.
  0.0119 0.01 0
  0.0477 0.06 1
  0.0831 0.01 0
  0.1175 0.01 0
  0.2522 0.01 0
  0.3266 0.11 2
  0.4980 0.04 1
  0.5629 0.01 0
  0.8450 0.01 0
  1.1720 0.03 1
  1.1880 0.01 0
  1.3163 0.01 0
  1.4137 0.01 0
  1.7090 0.08 2
  1.8312 0.01 0
  2.2878 0.01 0
  2.7032 0.06 1
  2.8175 0.01 0
  3.4084 0.01 0
  3.6630 0.01 0
  4.0833 0.01 0
  4.2121 0.04 1
  5.4038 0.02 0
  6.8161 0.02 0
  7.0461 0.01 0
  7.1747 0.01 0
  7.8836 0.02 0
  8.8166 0.14 3
  8.8883 0.03 1
  8.9181 0.01 0
  10.1751 0.13 3
  10.2175 0.03 1
  10.2786 0.06 1
  10.6531 0.01 0
  10.7868 0.01 0
  11.1006 0.01 0
  11.2602 0.01 0
  12.0044 0.02 0
  12.1976 0.05 1
  12.4099 0.03 1
  12.8780 0.09 2
  13.1191 0.02 0
  13.9583 0.07 1
  14.8145 0.01 0
  14.9642 0.50 10
  15.2275 0.11 2
  15.4721 0.02 0
  16.1798 0.06 1
  17.2685 0.06 1
  19.9872 0.01 0
  20.5924 0.01 0
  21.1916 0.03 1
  22.3902 0.01 0
  22.5192 0.10 2
  22.9138 0.03 1
  23.0401 0.02 0
  24.2460 0.01 0
  24.9286 0.13 3
  25.3957 0.01 0
  25.5732 0.01 0
  25.9373 1.00 20
  26.6796 0.03 1
  26.9375 4.92 97
  27.2747 0.02 0
  27.9453 1.10 22
  28.9518 3.93 78
  29.2752 0.02 0
  30.4558 0.01 0
  30.9228 0.08 2
  31.6058 0.02 0
  33.6806 0.03 1
  34.0758 0.01 0
  35.1143 0.10 2
  35.9320 0.06 1
  36.1879 0.03 1
  36.9140 0.46 9
  37.1246 0.01 0
  37.5682 0.03 1
  37.9199 1.65 33
  38.7505 0.06 1
  38.9183 9.97 197
  39.0905 0.07 1
  39.7690 0.08 2
  39.9279 1.24 24
  40.6798 0.11 2
  40.9363 20.38 402
  41.1994 0.08 2
  41.6875 0.09 2
  41.9228 0.95 19
  42.2035 0.07 1
  42.7708 0.05 1
  42.9295 10.41 206
  43.0837 0.13 3
  43.1580 0.12 2
  43.9446 0.12 2
  44.0749 0.01 0
  44.9278 0.57 11
  45.8677 0.07 1
  46.9354 0.08 2
  47.9240 0.06 1
  48.2694 0.01 0
  48.3847 0.02 0
  48.5100 0.01 0
  48.6630 0.12 2
  48.7781 0.04 1
  48.9116 0.26 5
  49.0145 0.03 1
  49.9052 3.04 60
  50.3151 0.10 2
  50.6120 0.01 0
  50.9115 7.06 139
  51.9200 2.73 54
  52.0811 0.08 2
  52.9210 12.49 247
  53.6666 0.07 1
  53.9324 0.70 14
  54.0861 0.01 0
  54.5376 0.02 0
  54.9282 25.97 513
  55.3663 0.05 1
  55.9496 2.31 46
  56.1213 0.01 0
  56.7393 0.04 1
  56.9353 2.22 44
  57.5873 0.07 1
  57.9003 0.03 1
  57.9667 0.02 0
  58.1364 0.01 0
  58.9243 0.18 4
  59.9311 0.11 2
  60.1961 0.02 0
  60.4389 0.01 0
  60.5868 0.11 2
  60.8941 0.47 9
  61.9023 2.05 40
  62.0447 0.05 1
  62.3502 0.03 1
  62.5578 0.05 1
  62.9021 5.64 111
  63.6145 0.08 2
  63.9018 1.52 30
  64.6809 0.06 1
  64.9145 9.37 185
  65.9072 2.00 39
  66.2040 0.02 0
  66.4717 0.04 1
  66.5844 0.08 2
  66.9213 12.21 241
  67.1644 0.11 2
  67.5764 0.05 1
  67.9177 0.49 10
  68.9302 24.57 485
  69.4234 0.14 3
  69.9371 0.85 17
  70.4092 0.10 2
  70.9387 0.74 15
  71.9515 0.06 1
  72.5649 0.10 2
  72.7152 0.03 1
  72.8864 0.31 6
  73.4863 0.03 1
  73.8847 1.55 31
  74.8867 2.42 48
  75.3068 0.09 2
  75.6332 0.15 3
  75.8930 1.75 35
  76.0581 0.05 1
  76.1856 0.06 1
  76.2860 0.11 2
  76.4752 0.16 3
  76.8895 24.03 475
  77.1753 0.26 5
  77.3321 0.20 4
  77.4351 0.11 2
  77.6244 0.14 3
  77.9069 6.13 121
  78.0602 0.23 5
  78.1829 0.30 6
  78.3776 0.05 1
  78.9037 23.44 463
  79.1341 0.05 1
  79.3434 0.05 1
  79.6339 0.09 2
  79.9158 3.87 76
  80.0980 0.05 1
  80.1794 0.05 1
  80.3971 0.04 1
  80.5009 0.07 1
  80.5925 0.10 2
  80.9127 28.53 563
  81.1298 0.10 2
  81.1984 0.04 1
  81.4398 0.13 3
  81.8977 1.02 20
  82.0792 0.10 2
  82.2349 0.01 0
  82.4279 0.12 2
  82.9130 3.39 67
  83.6008 0.01 0
  83.9157 0.37 7
  84.2048 0.04 1
  84.4152 0.01 0
  84.9284 0.55 11
  85.2398 0.01 0
  85.6356 0.03 1
  85.8736 0.75 15
  86.0347 0.07 1
  86.8918 1.22 24
  87.1470 0.02 0
  87.6459 0.12 2
  87.8684 0.34 7
  87.9737 0.16 3
  88.1351 0.12 2
  88.2290 0.03 1
  88.3264 0.04 1
  88.4381 0.26 5
  88.6232 0.36 7
  88.8973 3.10 61
  89.0521 0.32 6
  89.1738 0.36 7
  89.2943 0.24 5
  89.5458 0.16 3
  89.9107 1.17 23
  90.1373 0.38 8
  90.2259 0.20 4
  90.5107 0.34 7
  90.9006 48.19 952
  91.1721 0.08 2
  91.2620 0.14 3
  91.3843 0.07 1
  91.4749 0.15 3
  91.9135 7.23 143
  92.2272 0.08 2
  92.3543 0.01 0
  92.5642 0.08 2
  92.9171 30.31 599
  93.2690 0.02 0
  93.5719 0.08 2
  93.9236 1.88 37
  94.1352 0.10 2
  94.3203 0.10 2
  94.4160 0.03 1
  94.5913 0.03 1
  94.9327 15.94 315
  95.3593 0.04 1
  95.6716 0.04 1
  95.9248 0.44 9
  96.1955 0.05 1
  96.3091 0.02 0
  96.9147 2.85 56
  97.1061 0.13 3
  97.4195 0.09 2
  97.9026 0.58 11
  98.5254 0.02 0
  98.6939 0.12 2
  98.8730 0.43 8
  98.9907 0.28 6
  99.8923 0.40 8
  100.5574 0.07 1
  100.6919 0.25 5
  100.8864 1.31 26
  101.2304 0.16 3
  101.4216 0.08 2
  101.4963 0.03 1
  101.9025 3.07 61
  102.1864 0.12 2
  102.2477 0.04 1
  102.4368 0.19 4
  102.9086 9.68 191
  103.2586 0.11 2
  103.3690 0.14 3
  103.6365 0.28 6
  103.9201 4.98 98
  104.2589 0.25 5
  104.9139 50.59 999
  105.3356 0.08 2
  105.6319 0.05 1
  105.9316 5.81 115
  106.2133 0.17 3
  106.4808 0.16 3
  106.6063 0.19 4
  106.9262 23.35 461
  107.2083 0.04 1
  107.3518 0.11 2
  107.9337 1.60 32
  108.2128 0.02 0
  108.3761 0.08 2
  108.5483 0.02 0
  108.9317 7.34 145
  109.2896 0.18 4
  109.4134 0.09 2
  109.5401 0.07 1
  109.8854 0.67 13
  110.2624 0.01 0
  110.4918 0.01 0
  110.6318 0.09 2
  110.9067 2.11 42
  111.5046 0.08 2
  111.8001 0.09 2
  111.9524 0.25 5
  112.2201 0.05 1
  112.3898 0.26 5
  112.9011 1.53 30
  113.3380 0.31 6
  113.6014 0.23 5
  113.8602 1.15 23
  114.2395 0.20 4
  114.8800 25.57 505
  115.1957 0.08 2
  115.3176 0.17 3
  115.4971 0.39 8
  115.8840 10.42 206
  116.3793 0.36 7
  116.5086 0.41 8
  116.8888 25.79 509
  117.1398 0.31 6
  117.3270 0.07 1
  117.4433 0.20 4
  117.8891 6.15 121
  118.1910 0.20 4
  118.4298 0.29 6
  118.8920 44.99 888
  119.1811 0.24 5
  119.3785 0.10 2
  119.4558 0.08 2
  119.5990 0.12 2
  119.8999 4.77 94
  120.1217 0.17 3
  120.2450 0.13 3
  120.9001 18.40 363
  121.1943 0.32 6
  121.3044 0.21 4
  121.4685 0.05 1
  121.5673 0.08 2
  121.6684 0.24 5
  121.9120 2.75 54
  122.1514 0.14 3
  122.3132 0.13 3
  122.5097 0.03 1
  122.9137 24.00 474
  123.1740 0.15 3
  123.2845 0.08 2
  123.4029 0.02 0
  123.5754 0.10 2
  123.8803 0.68 13
  124.8730 1.05 21
  125.1492 0.22 4
  125.4444 0.12 2
  125.5071 0.04 1
  125.8792 1.71 34
  126.1557 0.22 4
  126.2721 0.17 3
  126.4306 0.16 3
  126.8604 9.81 194
  127.1336 0.53 10
  127.3612 0.61 12
  127.8581 27.63 546
  128.1335 0.55 11
  128.8588 34.49 681
  129.2159 0.24 5
  129.4660 0.14 3
  129.8748 13.18 260
  130.1086 0.28 6
  130.2507 0.10 2
  130.4178 0.15 3
  130.8699 29.47 582
  131.2616 0.26 5
  131.3848 0.17 3
  131.8736 8.67 171
  132.3479 0.15 3
  132.4676 0.07 1
  132.8711 31.12 615
  133.1155 0.36 7
  133.4142 0.19 4
  133.5463 0.03 1
  133.8653 2.25 44
  134.1529 0.06 1
  134.3642 0.15 3
  134.5725 0.12 2
  134.8825 6.19 122
  135.1007 0.16 3
  135.2179 0.10 2
  135.3073 0.05 1
  135.4442 0.07 1
  135.8792 1.04 21
  136.0983 0.19 4
  136.2471 0.14 3
  136.4594 0.08 2
  136.8875 8.45 167
  137.1939 0.23 5
  137.3231 0.16 3
  137.5438 0.12 2
  137.6878 0.33 7
  137.8801 1.42 28
  138.1442 0.17 3
  138.4802 0.19 4
  138.8664 5.76 114
  139.2807 0.21 4
  139.4058 0.10 2
  139.8717 1.55 31
  140.8637 24.84 491
  141.1336 0.27 5
  141.2093 0.13 3
  141.3968 0.20 4
  141.4799 0.09 2
  141.8636 20.70 409
  142.1934 0.23 5
  142.8782 38.42 759
  143.2077 0.31 6
  143.4520 0.27 5
  143.8844 13.59 268
  144.3057 0.20 4
  144.4626 0.28 6
  144.8897 39.92 788
  145.3065 0.20 4
  145.5632 0.25 5
  145.9017 4.10 81
  146.2832 0.29 6
  146.4685 0.10 2
  146.9002 17.13 338
  147.1579 0.20 4
  147.2484 0.18 4
  147.4064 0.35 7
  147.5762 0.12 2
  147.8928 1.76 35
  148.0102 0.72 14
  148.1377 0.18 4
  148.4494 0.20 4
  148.8945 3.19 63
  149.2189 0.10 2
  149.3077 0.09 2
  149.4047 0.11 2
  149.5604 0.08 2
  149.8839 1.00 20
  150.2043 0.33 7
  150.3395 0.23 5
  150.8848 3.39 67
  151.2431 0.60 12
  151.3458 0.30 6
  151.8747 10.72 212
  152.8799 12.96 256
  153.2577 0.36 7
  153.8948 7.00 138
  154.2936 0.41 8
  154.4657 0.43 8
  154.9074 26.34 520
  155.3524 0.22 4
  155.9140 15.36 303
  156.3449 0.18 4
  156.9214 33.88 669
  157.3313 0.43 8
  157.4541 0.14 3
  157.9221 6.33 125
  158.1798 0.28 6
  158.2907 0.17 3
  158.4577 0.37 7
  158.9317 16.89 334
  159.2584 0.21 4
  159.9385 2.94 58
  160.1669 0.23 5
  160.3455 0.29 6
  160.9390 6.76 133
  161.2555 0.16 3
  161.3900 0.10 2
  161.5663 0.14 3
  161.9353 1.21 24
  162.1837 0.06 1
  162.3177 0.09 2
  162.4518 0.21 4
  162.5586 0.25 5
  162.9375 4.80 95
  163.2082 0.24 5
  163.2879 0.14 3
  163.4195 0.21 4
  163.5252 0.05 1
  163.8853 1.53 30
  164.0201 0.74 15
  164.3436 0.30 6
  164.9250 20.74 410
  165.2202 0.39 8
  165.3558 0.37 7
  165.9218 8.51 168
  166.2698 0.37 7
  166.4771 0.34 7
  166.9359 17.71 350
  167.2709 0.18 4
  167.9399 6.60 130
  168.2702 0.28 6
  168.4682 0.29 6
  168.9397 23.51 464
  169.4170 0.25 5
  169.9465 8.39 166
  170.2290 0.30 6
  170.5218 0.36 7
  170.9438 15.95 315
  171.3508 0.31 6
  171.9470 3.69 73
  172.2807 0.15 3
  172.3847 0.22 4
  172.4748 0.03 1
  172.9470 7.17 142
  173.2485 0.25 5
  173.4606 0.17 3
  173.9464 1.92 38
  174.2659 0.21 4
  174.4718 0.15 3
  174.9516 6.11 121
  175.3298 0.22 4
  175.5956 0.34 7
  175.9339 1.94 38
  176.1921 0.12 2
  176.3085 0.31 6
  176.3918 0.15 3
  176.9531 3.25 64
  177.3248 0.36 7
  177.9074 10.56 209
  178.2290 0.31 6
  178.3385 0.26 5
  178.4628 0.22 4
  178.9081 16.48 325
  179.2114 0.33 7
  179.3134 0.23 5
  179.4556 0.24 5
  179.9133 7.82 154
  180.1939 0.25 5
  180.2857 0.27 5
  180.9172 20.37 402
  181.2050 0.23 5
  181.2931 0.08 2
  181.5337 0.28 6
  181.9275 8.90 176
  182.1816 0.21 4
  182.4754 0.24 5
  182.9327 18.90 373
  183.3384 0.16 3
  183.5288 0.26 5
  183.9397 4.93 97
  184.2287 0.32 6
  184.9340 9.39 185
  185.2826 0.19 4
  185.4316 0.33 7
  185.9384 2.78 55
  186.2821 0.24 5
  186.9389 6.29 124
  187.4096 0.09 2
  187.5403 0.48 9
  187.9233 1.63 32
  188.2834 0.36 7
  188.3873 0.16 3
  188.9154 6.87 136
  189.2109 0.25 5
  189.4905 0.26 5
  189.9048 2.58 51
  190.8947 8.61 170
  191.5295 0.54 11
  191.8929 6.27 124
  192.2936 0.28 6
  192.4754 0.16 3
  192.9083 15.74 311
  193.2097 0.15 3
  193.9083 8.48 167
  194.3422 0.18 4
  194.9235 18.83 372
  195.3313 0.42 8
  195.9361 5.66 112
  196.3383 0.41 8
  196.9312 17.15 339
  197.3768 0.28 6
  197.5732 0.36 7
  197.9390 3.44 68
  198.2379 0.19 4
  198.3462 0.08 2
  198.4725 0.26 5
  198.5820 0.15 3
  198.9422 6.07 120
  199.4398 0.22 4
  199.9344 3.27 65
  200.0833 0.83 16
  200.2935 0.21 4
  200.4574 0.25 5
  200.9405 4.75 94
  201.2631 0.34 7
  201.9014 6.05 119
  202.1447 0.28 6
  202.3293 0.21 4
  202.9188 8.86 175
  203.4038 0.28 6
  203.9226 3.60 71
  204.2896 0.22 4
  204.5513 0.33 7
  204.9197 8.03 159
  205.2921 0.17 3
  205.9212 4.96 98
  206.2853 0.35 7
  206.9225 11.80 233
  207.9372 4.07 80
  208.3826 0.32 6
  208.5529 0.33 7
  208.9479 13.20 261
  209.3294 0.33 7
  209.4868 0.23 5
  209.9526 3.37 67
  210.1962 0.18 4
  210.4263 0.15 3
  210.9655 7.74 153
  211.2864 0.49 10
  211.9146 2.60 51
  212.3213 0.23 5
  212.4925 0.35 7
  212.9375 4.86 96
  213.2918 0.10 2
  213.5481 0.34 7
  213.9589 1.70 34
  214.1458 0.40 8
  214.9249 8.89 176
  215.3671 0.35 7
  215.9244 3.17 63
  216.3038 0.12 2
  216.4721 0.15 3
  216.5644 0.11 2
  216.9510 5.15 102
  217.2877 0.16 3
  217.9143 2.68 53
  218.2804 0.30 6
  218.3740 0.18 4
  218.5971 0.50 10
  218.9620 7.09 140
  219.2462 0.24 5
  219.3275 0.13 3
  219.4219 0.18 4
  219.5852 0.23 5
  219.9756 4.02 79
  220.3048 0.21 4
  220.5105 0.14 3
  220.9720 9.23 182
  221.3392 0.21 4
  221.9617 2.65 52
  222.4970 0.45 9
  222.9778 7.38 146
  223.2808 0.12 2
  223.4345 0.14 3
  223.9624 1.71 34
  224.4636 0.20 4
  225.0028 3.82 75
  225.2147 0.50 10
  225.4077 0.09 2
  225.6275 0.13 3
  225.9778 2.28 45
  226.2112 0.30 6
  226.5059 0.29 6
  226.9711 2.79 55
  227.5146 0.36 7
  227.9728 2.23 44
  228.2456 0.20 4
  228.3895 0.24 5
  228.9495 4.26 84
  229.3064 0.10 2
  229.9643 2.41 48
  230.1643 0.32 6
  230.3005 0.16 3
  230.9580 4.74 94
  231.3340 0.27 5
  231.4540 0.14 3
  231.6971 0.34 7
  231.9722 2.10 41
  232.3165 0.22 4
  232.4710 0.16 3
  232.9660 5.49 108
  233.2882 0.26 5
  233.3893 0.20 4
  233.4819 0.10 2
  233.6763 0.40 8
  233.9980 2.28 45
  234.3073 0.26 5
  234.4188 0.10 2
  234.5839 0.24 5
  234.9827 5.95 117
  235.4794 0.15 3
  235.5584 0.12 2
  235.9873 1.69 33
  236.4679 0.20 4
  236.9851 4.42 87
  237.3829 0.13 3
  237.5221 0.14 3
  237.6501 0.05 1
  237.9944 2.09 41
  238.3087 0.14 3
  238.4407 0.09 2
  238.5315 0.09 2
  238.9897 3.83 76
  239.3086 0.28 6
  239.4374 0.09 2
  239.5564 0.35 7
  239.6230 0.17 3
  239.9735 1.28 25
  240.4148 0.15 3
  240.9694 2.79 55
  241.3278 0.17 3
  241.4442 0.13 3
  241.6150 0.13 3
  241.9624 1.53 30
  242.1835 0.13 3
  242.4335 0.18 4
  242.9590 3.32 66
  243.3477 0.11 2
  243.4708 0.08 2
  243.9768 2.48 49
  244.4587 0.20 4
  244.5805 0.13 3
  244.9721 3.74 74
  245.3015 0.11 2
  245.4908 0.14 3
  245.9906 1.83 36
  246.3097 0.34 7
  246.5980 0.44 9
  246.9892 5.61 111
  247.3542 0.15 3
  247.6262 0.30 6
  247.9520 1.28 25
  248.3539 0.22 4
  248.4706 0.14 3
  248.9977 3.74 74
  249.3446 0.19 4
  249.9880 1.03 20
  250.1980 0.43 8
  250.3141 0.10 2
  250.4715 0.17 3
  250.6473 0.20 4
  251.0029 2.99 59
  251.3560 0.26 5
  251.4623 0.13 3
  251.6007 0.28 6
  251.9751 1.42 28
  252.3890 0.09 2
  252.5261 0.06 1
  252.7097 0.43 8
  253.0174 3.69 73
  253.2929 0.11 2
  253.4110 0.11 2
  253.5344 0.33 7
  253.6748 0.28 6
  254.0285 1.14 23
  254.2673 0.19 4
  254.4656 0.04 1
  254.9782 2.71 54
  255.4344 0.34 7
  255.5322 0.19 4
  255.6347 0.09 2
  255.9945 1.99 39
  256.4174 0.10 2
  256.5034 0.09 2
  256.9769 3.36 66
  257.5333 0.18 4
  257.9977 1.55 31
  258.2343 0.44 9
  258.4222 0.18 4
  258.5457 0.27 5
  258.7507 0.74 15
  259.0005 2.59 51
  259.3711 0.18 4
  259.5611 0.17 3
  259.9607 1.19 23
  260.1935 0.16 3
  260.5524 0.06 1
  261.0009 3.14 62
  261.3730 0.21 4
  261.6078 0.13 3
  261.9860 1.13 22
  262.1814 0.35 7
  262.3031 0.17 3
  262.4373 0.19 4
  262.5688 0.09 2
  263.0287 3.50 69
  263.3550 0.11 2
  263.5900 0.12 2
  263.7946 0.44 9
  263.9986 0.99 20
  264.1421 0.40 8
  264.9905 2.31 46
  265.2348 0.24 5
  265.4013 0.10 2
  265.6956 0.26 5
  266.0058 0.96 19
  266.3376 0.18 4
  266.6050 0.19 4
  267.0219 3.13 62
  267.3480 0.15 3
  267.5166 0.24 5
  267.7070 0.35 7
  268.0239 1.12 22
  268.5958 0.25 5
  269.0024 2.73 54
  269.4409 0.05 1
  269.9792 1.50 30
  270.1944 0.27 5
  270.9666 2.14 42
  271.2984 0.05 1
  271.9877 1.14 23
  272.2564 0.24 5
  272.6153 0.20 4
  272.9901 1.81 36
  273.3820 0.07 1
  273.6014 0.12 2
  273.7364 0.12 2
  274.0349 0.70 14
  274.3524 0.24 5
  274.4803 0.15 3
  275.0120 3.47 69
  275.3686 0.19 4
  276.0046 1.06 21
  276.1483 0.52 10
  276.2808 0.23 5
  276.5445 0.19 4
  276.6955 0.16 3
  277.0159 2.31 46
  277.2223 0.34 7
  277.3911 0.11 2
  277.5177 0.15 3
  278.0116 0.96 19
  278.2503 0.25 5
  278.9865 1.60 32
  279.8144 0.43 8
  280.0163 0.84 17
  280.1021 0.43 8
  280.2367 0.22 4
  280.4161 0.02 0
  281.0074 3.65 72
  281.4562 0.30 6
  281.8219 0.61 12
  281.9988 1.09 22
  282.1731 0.34 7
  282.2629 0.09 2
  282.7006 0.33 7
  283.0030 1.95 39
  283.1503 0.87 17
  283.5101 0.12 2
  283.6746 0.11 2
  283.9823 0.90 18
  284.2815 0.19 4
  285.0286 1.50 30
  285.3598 0.19 4
  285.4825 0.12 2
  285.9108 0.35 7
  286.1200 0.35 7
  286.4196 0.11 2
  286.5344 0.11 2
  287.0037 1.88 37
  287.4895 0.07 1
  287.8380 0.27 5
  288.0163 0.49 10
  288.1629 0.22 4
  288.4111 0.06 1
  288.7399 0.31 6
  289.0305 1.40 28
  289.5581 0.21 4
  290.0284 1.14 23
  290.1763 0.54 11
  290.2813 0.11 2
  290.4293 0.02 0
  290.6255 0.02 0
  291.0265 1.30 26
  291.4030 0.13 3
  291.7407 0.17 3
  291.8457 0.49 10
  292.0169 0.78 15
  292.1979 0.44 9
  292.3453 0.04 1
  292.5700 0.06 1
  292.9943 1.02 20
  293.3697 0.17 3
  293.6982 0.18 4
  294.0195 0.60 12
  294.4704 0.18 4
  294.9874 1.16 23
  295.2393 0.06 1
  295.3418 0.02 0
  295.6030 0.06 1
  295.7022 0.15 3
  295.9456 0.75 15
  296.1215 0.29 6
  296.3014 0.09 2
  296.4866 0.02 0
  296.6288 0.11 2
  296.9873 0.89 18
  297.2520 0.10 2
  297.5186 0.13 3
  297.5933 0.03 1
  297.9354 0.54 11
  298.4316 0.15 3
  298.5447 0.11 2
  298.9828 0.70 14
  299.1999 0.18 4
  299.4580 0.06 1
  299.5626 0.20 4
  299.7605 0.11 2
  300.0113 0.40 8
  300.1960 0.23 5
  300.4330 0.07 1
  300.5535 0.10 2
  300.9831 1.15 23
  301.1016 0.62 12
  301.4890 0.11 2
  302.0134 0.39 8
  302.4782 0.06 1
  302.5941 0.12 2
  302.7517 0.29 6
  303.0345 1.07 21
  303.5638 0.13 3
  303.7910 0.06 1
  304.0208 0.71 14
  304.1732 0.26 5
  304.5078 0.30 6
  304.9908 0.95 19
  305.1604 0.51 10
  305.2823 0.12 2
  305.4765 0.15 3
  305.5885 0.03 1
  305.7806 0.25 5
  305.9244 0.24 5
  306.1007 0.14 3
  306.2108 0.20 4
  306.7158 0.42 8
  307.0386 0.91 18
  307.5410 0.23 5
  308.0243 0.47 9
  308.4758 0.12 2
  308.5680 0.13 3
  308.9678 0.72 14
  309.0932 0.28 6
  309.4314 0.13 3
  309.8498 0.43 8
  309.9977 0.31 6
  310.1244 0.25 5
  310.2451 0.03 1
  310.4713 0.04 1
  310.7791 0.14 3
  310.9442 0.56 11
  311.1035 0.78 15
  311.2653 0.11 2
  311.7569 0.10 2
  311.9593 0.34 7
  312.0555 0.15 3
  312.1902 0.15 3
  312.3016 0.11 2
  312.5299 0.05 1
  312.6560 0.08 2
  313.0269 0.71 14
  313.3143 0.34 7
  313.6315 0.28 6
  313.8552 0.20 4
  314.0092 0.12 2
  314.1306 0.25 5
  314.2654 0.16 3
  314.4579 0.12 2
  314.9617 0.81 16
  315.1456 0.30 6
  315.4908 0.12 2
  315.7292 0.19 4
  315.9775 0.52 10
  316.0897 0.47 9
  316.3978 0.09 2
  316.6216 0.11 2
  316.7059 0.12 2
  317.0626 1.19 23
  317.2047 0.59 12
  317.4524 0.16 3
  317.5208 0.08 2
  317.7293 0.29 6
  318.0302 0.69 14
  318.2269 0.13 3
  319.0227 0.91 18
  319.2957 0.21 4
  319.7675 0.20 4
  320.0346 0.61 12
  320.2246 0.07 1
  321.0613 0.87 17
  321.7425 0.10 2
  321.9845 0.42 8
  322.1273 0.23 5
  322.3002 0.17 3
  322.4518 0.07 1
  322.8440 0.17 3
  322.9789 0.33 7
  323.1059 0.27 5
  323.7056 0.11 2
  324.0274 0.39 8
  324.1511 0.28 6
  324.2621 0.10 2
  324.4616 0.12 2
  324.6485 0.08 2
  324.7855 0.26 5
  325.0222 0.45 9
  325.1832 0.19 4
  325.3747 0.17 3
  325.5363 0.11 2
  325.7239 0.10 2
  325.9920 0.47 9
  326.1709 0.13 3
  326.3385 0.11 2
  326.4702 0.11 2
  326.9792 0.34 7
  327.1767 0.41 8
  327.3358 0.15 3
  327.5686 0.15 3
  327.7707 0.09 2
  327.9641 0.21 4
  328.5296 0.01 0
  329.0446 1.05 21
  329.2739 0.30 6
  329.4786 0.13 3
  329.6860 0.13 3
  329.8469 0.17 3
  330.0104 0.49 10
  330.2065 0.27 5
  330.3062 0.12 2
  330.3873 0.09 2
  330.6120 0.10 2
  330.8008 0.14 3
  331.0787 0.81 16
  331.4018 0.12 2
  331.7435 0.03 1
  332.0022 0.73 14
  332.2023 0.35 7
  332.2834 0.14 3
  332.4750 0.19 4
  332.6339 0.13 3
  333.0735 1.42 28
  333.2564 0.35 7
  333.9893 0.58 11
  334.1576 0.34 7
  334.4995 0.11 2
  335.0663 0.94 19
  335.3398 0.08 2
  335.4928 0.13 3
  335.7902 0.04 1
  335.9425 0.49 10
  336.0822 0.31 6
  336.2646 0.14 3
  336.4103 0.05 1
  336.6691 0.11 2
  336.9094 0.36 7
  337.0897 0.24 5
  337.2082 0.10 2
  337.3912 0.11 2
  337.6567 0.12 2
  337.9602 0.08 2
  338.1379 0.19 4
  338.3436 0.18 4
  338.5113 0.04 1
  338.8688 0.21 4
  339.0419 0.49 10
  339.1750 0.20 4
  339.5378 0.11 2
  339.7362 0.27 5
  339.8447 0.17 3
  339.9652 0.49 10
  340.0884 0.38 8
  340.1903 0.30 6
  340.2975 0.06 1
  340.4200 0.16 3
  340.7869 0.17 3
  341.0186 0.44 9
  341.4181 0.15 3
  341.6425 0.07 1
  341.8011 0.05 1
  341.9982 0.27 5
  342.2306 0.19 4
  342.4404 0.10 2
  342.6336 0.03 1
  343.0305 0.53 10
  343.2424 0.31 6
  343.4355 0.03 1
  343.6114 0.17 3
  343.6900 0.15 3
  343.9325 0.13 3
  344.0911 0.24 5
  344.2569 0.30 6
  344.5001 0.11 2
  345.0764 0.81 16
  345.1864 0.47 9
  345.4362 0.12 2
  345.5742 0.06 1
  346.0773 0.58 11
  346.2679 0.41 8
  346.5051 0.16 3
  346.6711 0.07 1
  347.0816 2.59 51
  347.4355 0.15 3
  347.5935 0.13 3
  347.9668 0.38 8
  348.1261 0.42 8
  348.4448 0.11 2
  348.6381 0.11 2
  348.7621 0.16 3
  348.8781 0.13 3
  349.0667 0.76 15
  349.2534 0.36 7
  349.4408 0.05 1
  349.9028 0.13 3
  350.0875 0.34 7
  350.2482 0.30 6
  350.4370 0.05 1
  350.8844 0.13 3
  351.0678 0.30 6
  351.1638 0.25 5
  351.3839 0.14 3
  351.8368 0.06 1
  351.9995 0.22 4
  352.1722 0.18 4
  352.3737 0.07 1
  353.0234 0.26 5
  353.2495 0.11 2
  353.8333 0.04 1
  354.2341 0.29 6
  354.3405 0.17 3
  354.4722 0.16 3
  354.5660 0.08 2
  355.0602 0.42 8
  355.5391 0.15 3
  355.8298 0.10 2
  356.0214 0.21 4
  356.1777 0.24 5
  356.2955 0.12 2
  356.6002 0.01 0
  357.1045 0.81 16
  357.3474 0.19 4
  357.5350 0.05 1
  358.0813 0.53 10
  358.2437 0.43 8
  358.5678 0.08 2
  359.0483 0.89 18
  359.2552 0.64 13
  359.6120 0.11 2
  359.8030 0.14 3
  360.1491 0.95 19
  360.4434 0.13 3
  360.6258 0.11 2
  360.8614 0.33 7
  361.1177 0.57 11
  361.3527 0.15 3
  361.7968 0.15 3
  362.1123 0.22 4
  362.7236 0.18 4
  363.1744 0.18 4
  363.2922 0.18 4
  363.3875 0.07 1
  363.7964 0.28 6
  363.9928 0.15 3
  364.1127 0.08 2
  364.3338 0.10 2
  364.8799 0.23 5
  365.0365 0.29 6
  365.2310 0.47 9
  365.6033 0.11 2
  365.9943 0.19 4
  366.2235 0.14 3
  366.8337 0.14 3
  367.1022 0.08 2
  367.2161 0.11 2
  367.5486 0.08 2
  367.8484 0.14 3
  368.0630 0.13 3
  368.2702 0.09 2
  368.7751 0.22 4
  369.0936 0.37 7
  369.5813 0.10 2
  369.8605 0.08 2
  370.1296 0.14 3
  370.3009 0.11 2
  370.5548 0.06 1
  371.0899 0.71 14
  371.2678 0.20 4
  371.5250 0.04 1
  371.8136 0.15 3
  372.1215 0.38 8
  372.5121 0.10 2
  373.0887 1.20 24
  373.3073 0.45 9
  373.6133 0.12 2
  373.9726 0.29 6
  374.1786 0.31 6
  374.2845 0.07 1
  374.4685 0.15 3
  374.5886 0.10 2
  374.7939 0.04 1
  374.9946 0.32 6
  375.1866 0.24 5
  375.5200 0.06 1
  375.6433 0.03 1
  375.8714 0.09 2
  376.0267 0.06 1
  376.1754 0.13 3
  376.8136 0.13 3
  376.9056 0.12 2
  377.0544 0.13 3
  377.1937 0.14 3
  377.5038 0.13 3
  378.0641 0.20 4
  378.2902 0.11 2
  378.5703 0.03 1
  378.8952 0.22 4
  379.0986 0.46 9
  379.2440 0.20 4
  379.5209 0.11 2
  379.7490 0.13 3
  379.9465 0.18 4
  380.0846 0.33 7
  380.2954 0.10 2
  380.5482 0.10 2
  380.6316 0.07 1
  380.9045 0.15 3
  381.0119 0.13 3
  381.1294 0.23 5
  381.3756 0.12 2
  381.5184 0.10 2
  381.7312 0.12 2
  381.8994 0.13 3
  382.1476 0.34 7
  382.6367 0.13 3
  382.9177 0.35 7
  383.0365 0.48 9
  383.2187 0.29 6
  383.5137 0.18 4
  383.8380 0.15 3
  384.1030 0.13 3
  384.2472 0.13 3
  384.5142 0.02 0
  384.6864 0.11 2
  385.1302 0.46 9
  385.4387 0.10 2
  385.8612 0.08 2
  386.0235 0.19 4
  386.1656 0.28 6
  386.3406 0.10 2
  387.0877 0.57 11
  387.2606 0.19 4
  387.3441 0.13 3
  387.5110 0.11 2
  387.7166 0.16 3
  388.1313 0.21 4
  388.2782 0.08 2
  388.4084 0.11 2
  388.5914 0.09 2
  388.7550 0.12 2
  388.9120 0.09 2
  389.1190 0.22 4
  389.3140 0.12 2
  389.4830 0.07 1
  389.8142 0.14 3
  390.0573 0.16 3
  390.1749 0.12 2
  390.2631 0.13 3
  390.4521 0.15 3
  390.8041 0.11 2
  391.0412 0.23 5
  391.1975 0.16 3
  391.3231 0.12 2
  391.9751 0.31 6
  392.0920 0.16 3
  392.2249 0.17 3
  393.0220 0.32 6
  393.1630 0.20 4
  393.3280 0.19 4
  394.0196 0.19 4
  394.2421 0.25 5
  394.4505 0.11 2
  394.6864 0.15 3
  394.9163 0.15 3
  395.2157 0.40 8
  395.3280 0.10 2
  395.7162 0.04 1
  396.0437 0.39 8
  396.2195 0.17 3
  396.3465 0.20 4
  396.4561 0.11 2
  397.0831 1.09 22
  397.3103 0.42 8
  397.7234 0.17 3
  398.1105 0.39 8
  398.4033 0.11 2
  398.5129 0.10 2
  398.7295 0.11 2
  399.1093 0.69 14
  399.2416 0.20 4
  399.6112 0.09 2
  400.0746 0.44 9
  400.3631 0.15 3
  400.5514 0.07 1
  400.8032 0.12 2
  401.0643 0.45 9
  401.2139 0.46 9
  401.6247 0.04 1
  401.7162 0.07 1
  402.1323 0.92 18
  402.5003 0.11 2
  402.6098 0.14 3
  402.7882 0.05 1
  402.9244 0.20 4
  403.1502 0.21 4
  403.4067 0.02 0
  403.6633 0.16 3
  403.9445 0.11 2
  404.0775 0.11 2
  404.3908 0.12 2
  404.5711 0.14 3
  405.1110 0.37 7
  405.4344 0.13 3
  405.6047 0.11 2
  405.8333 0.10 2
  406.0030 0.25 5
  406.1420 0.09 2
  406.2876 0.30 6
  406.5629 0.10 2
  406.6558 0.12 2
  406.8890 0.03 1
  406.9879 0.02 0
  407.0955 0.10 2
  407.3000 0.07 1
  407.4203 0.08 2
  407.7732 0.18 4
  408.0479 0.16 3
  408.1735 0.01 0
  408.6313 0.14 3
  408.7710 0.05 1
  409.0210 0.41 8
  409.4868 0.44 9
  409.6152 0.07 1
  410.0149 0.36 7
  410.2228 0.14 3
  410.6346 0.21 4
  411.1226 0.71 14
  411.3961 0.39 8
  411.6247 0.16 3
  411.8961 0.48 9
  412.1128 1.33 26
  412.4016 0.27 5
  412.5373 0.12 2
  413.1291 0.83 16
  413.3110 0.40 8
  413.3905 0.13 3
  413.5684 0.16 3
  413.9061 0.14 3
  414.0559 0.45 9
  414.2405 0.42 8
  414.3789 0.15 3
  414.6845 0.12 2
  414.8490 0.01 0
  415.0156 0.11 2
  415.2329 0.37 7
  415.4276 0.12 2
  415.5232 0.17 3
  415.6329 0.10 2
  415.8288 0.19 4
  416.0212 0.08 2
  416.2982 0.23 5
  416.6688 0.07 1
  416.9639 0.17 3
  417.2630 0.14 3
  417.5908 0.12 2
  418.0195 0.18 4
  418.2098 0.19 4
  418.4729 0.09 2
  418.5951 0.14 3
  418.7487 0.17 3
  418.9610 0.07 1
  419.1300 0.21 4
  419.2582 0.14 3
  419.6783 0.03 1
  419.8285 0.11 2
  419.9915 0.11 2
  420.1905 0.11 2
  420.5178 0.14 3
  420.6988 0.08 2
  420.7756 0.02 0
  420.9706 0.26 5
  421.1336 0.16 3
  421.3072 0.08 2
  421.6111 0.11 2
  421.8242 0.03 1
  421.9979 0.07 1
  422.2624 0.36 7
  422.5002 0.12 2
  422.7187 0.25 5
  423.0908 0.60 12
  423.2651 0.17 3
  423.3934 0.13 3
  423.4776 0.08 2
  423.8965 0.01 0
  424.0561 0.20 4
  424.2024 0.15 3
  424.4370 0.31 6
  424.7737 0.19 4
  424.9441 0.47 9
  425.0977 0.73 14
  425.1953 0.46 9
  425.5114 0.08 2
  425.6203 0.07 1
  426.1087 1.69 33
  426.4970 0.12 2
  427.1265 2.75 54
  427.6270 0.27 5
  427.8015 0.31 6
  428.1677 1.39 27
  428.4277 0.41 8
  428.8174 0.47 9
  429.1669 0.43 8
  429.2819 0.12 2
  429.7204 0.20 4
  429.8621 0.11 2
  430.3367 0.31 6
  430.8394 0.03 1
  431.0888 0.07 1
  431.2165 0.13 3
  431.3723 0.10 2
  431.7961 0.06 1
  432.1344 0.06 1
  432.7094 0.01 0
  432.8625 0.03 1
  433.1260 0.13 3
  433.3720 0.17 3
  433.7853 0.12 2
  433.9738 0.13 3
  434.1156 0.15 3
  434.2868 0.04 1
  434.5590 0.01 0
  434.7509 0.02 0
  434.9408 0.10 2
  435.0612 0.11 2
  435.1615 0.12 2
  435.3508 0.06 1
  435.4337 0.02 0
  435.7581 0.09 2
  436.1078 0.42 8
  436.3607 0.29 6
  436.5974 0.13 3
  436.8636 0.31 6
  437.1004 0.39 8
  437.4676 0.58 11
  437.7338 0.19 4
  438.1165 0.45 9
  438.5339 0.36 7
  438.7379 0.17 3
  438.9700 0.35 7
  439.2269 0.49 10
  439.4571 0.33 7
  439.6270 0.11 2
  439.9675 0.31 6
  440.1575 0.31 6
  440.3703 0.19 4
  440.6526 0.21 4
  441.1237 0.69 14
  441.3438 0.31 6
  441.5559 0.10 2
  441.6951 0.07 1
  442.1608 0.33 7
  442.4566 0.12 2
  442.7069 0.10 2
  442.8983 0.11 2
  443.1037 0.28 6
  443.3446 0.40 8
  443.5494 0.19 4
  443.6940 0.02 0
  443.8974 0.12 2
  444.1330 0.52 10
  444.3371 0.21 4
  445.2213 0.16 3
  445.4254 0.13 3
  445.9134 0.04 1
  446.1175 0.10 2
  446.3277 0.02 0
  446.6584 0.11 2
  446.7688 0.13 3
  446.9576 0.11 2
  447.1725 0.22 4
  447.7984 0.23 5
  448.0120 0.23 5
  448.1472 0.14 3
  448.3969 0.01 0
  448.6052 0.11 2
  448.8462 0.14 3
  449.2894 0.32 6
  449.3905 0.21 4
  449.9904 0.06 1
  450.1083 0.22 4
  450.1898 0.12 2
  450.3535 0.06 1
  450.5052 0.14 3
  450.6335 0.12 2
  450.7310 0.06 1
  450.8313 0.12 2
  451.1320 0.35 7
  451.3484 0.07 1
  451.5683 0.07 1
  452.1837 0.87 17
  452.4550 0.13 3
  452.5633 0.13 3
  452.6982 0.11 2
  452.9448 0.11 2
  453.1740 0.13 3
  453.3518 0.16 3
  453.9667 0.39 8
  454.1010 0.20 4
  454.2808 0.31 6
  454.4104 0.14 3
  454.5294 0.14 3
  454.9070 0.21 4
  455.1002 0.23 5
  455.2833 0.25 5
  455.5734 0.11 2
  455.6737 0.06 1
  455.7980 0.13 3
  455.9898 0.23 5
  456.2265 0.33 7
  456.4758 0.08 2
  456.5680 0.04 1
  456.8127 0.18 4
  456.9377 0.25 5
  457.1429 0.35 7
  457.5434 0.33 7
  458.2059 14.51 287
  458.6919 0.40 8
  459.0489 0.19 4
  459.2435 0.11 2
  459.4561 0.10 2
  459.6259 0.11 2
  459.7951 0.32 6
  459.9475 0.20 4
  460.0726 0.21 4
  460.1855 0.22 4
  460.2872 0.25 5
  460.5259 0.11 2
  460.7934 0.12 2
  460.9532 0.33 7
  461.2220 0.32 6
  461.3731 0.17 3
  461.6058 0.11 2
  461.8339 0.14 3
  462.1053 0.15 3
  462.6036 0.11 2
  462.7902 0.06 1
  463.1105 0.31 6
  463.4021 0.27 5
  463.6629 0.30 6
  463.8315 0.30 6
  464.2107 0.77 15
  464.3525 0.44 9
  464.6187 0.28 6
  464.7485 0.21 4
  465.1953 0.52 10
  465.5404 0.10 2
  465.6321 0.12 2
  465.8281 0.32 6
  466.1498 0.39 8
  466.4040 0.09 2
  466.5565 0.23 5
  466.8148 0.14 3
  467.1111 0.27 5
  467.1807 0.07 1
  467.3566 0.14 3
  467.5152 0.20 4
  467.7279 0.17 3
  467.8784 0.13 3
  468.0591 0.10 2
  468.1581 0.11 2
  468.2859 0.21 4
  468.5816 0.16 3
  468.8445 0.11 2
  469.1189 0.55 11
  469.2861 0.14 3
  469.4233 0.11 2
  469.5872 0.09 2
  469.8502 0.16 3
  469.9907 0.36 7
  470.1801 0.85 17
  470.3995 0.32 6
  470.6016 0.14 3
  470.7542 0.10 2
  471.2226 0.98 19
  471.4080 0.60 12
  471.5304 0.10 2
  471.9581 0.08 2
  472.0932 0.06 1
  472.8421 0.06 1
  472.9927 0.01 0
  473.1506 0.13 3
  473.2832 0.13 3
  473.4170 0.12 2
  473.8875 0.09 2
  474.1599 0.20 4
  474.3574 0.17 3
  474.5950 0.14 3
  475.0629 0.13 3
  475.3126 0.11 2
  475.5154 0.13 3
  475.9478 0.11 2
  476.2617 0.38 8
  476.5496 0.25 5
  476.6507 0.11 2
  476.9961 0.38 8
  477.2230 0.56 11
  477.4602 0.40 8
  477.7710 0.26 5
  478.1974 0.84 17
  478.5143 0.45 9
  478.6038 0.25 5
  478.8812 0.49 10
  478.9962 0.57 11
  479.2254 0.92 18
  479.4741 0.50 10
  479.6218 0.21 4
  479.9574 0.44 9
  480.4033 0.50 10
  480.6332 0.34 7
  480.7422 0.25 5
  481.0096 0.46 9
  481.3345 0.45 9
  481.4588 0.18 4
  481.5758 0.27 5
  482.1648 1.07 21
  482.4804 0.59 12
  482.6382 0.26 5
  482.9511 0.34 7
  483.3837 0.42 8
  483.6545 0.27 5
  484.0456 0.60 12
  484.2676 0.15 3
  484.4034 0.23 5
  484.5759 0.11 2
  484.7196 0.04 1
  484.8440 0.41 8
  485.0379 0.21 4
  485.3890 0.12 2
  485.5736 0.10 2
  485.8036 0.18 4
  485.9481 0.27 5
  486.0704 0.32 6
  486.2082 0.28 6
  486.3760 0.26 5
  486.6001 0.10 2
  486.7184 0.21 4
  486.8114 0.15 3
  486.9171 0.11 2
  487.0736 0.15 3
  487.3464 0.31 6
  487.9751 0.11 2
  488.1136 0.17 3
  488.2273 0.17 3
  488.5965 0.07 1
  489.0974 0.04 1
  489.5235 0.10 2
  489.6359 0.04 1
  489.7984 0.20 4
  490.1095 0.18 4
  490.2159 0.24 5
  490.4961 0.08 2
  490.9363 0.03 1
  491.0527 0.09 2
  491.2781 0.12 2
  491.3979 0.14 3
  491.5437 0.14 3
  491.7437 0.22 4
  491.9799 0.36 7
  492.2742 0.57 11
  492.4702 0.14 3
  492.6268 0.12 2
  492.7740 0.23 5
  492.9312 0.48 9
  493.2035 1.35 27
  493.3594 0.62 12
  493.5969 0.27 5
  494.1917 7.18 142
  494.8903 0.47 9
  495.0736 0.19 4
  495.1920 0.12 2
  495.3279 0.28 6
  495.5775 0.28 6
  496.0988 0.19 4
  496.2440 0.28 6
  496.4086 0.27 5
  496.5571 0.24 5
  496.7325 0.06 1
  497.1507 0.10 2
  497.5502 0.12 2
  497.7001 0.08 2
  498.2717 0.10 2
  498.3915 0.01 0
  498.8426 0.11 2
  499.5172 0.19 4
  500.0975 0.12 2
  500.3987 0.10 2
  500.7890 0.02 0
  501.1303 0.12 2
  501.3813 0.08 2
  501.8258 0.16 3
  501.9503 0.13 3
  502.1485 0.09 2
  502.4551 0.11 2
  502.9625 0.09 2
  503.1303 0.27 5
  503.2386 0.15 3
  503.3610 0.11 2
  503.5147 0.09 2
  504.0748 0.21 4
  504.2760 0.10 2
  504.4726 0.18 4
  504.7072 0.21 4
  504.8863 0.07 1
  505.1530 0.24 5
  505.2821 0.35 7
  505.3797 0.21 4
  505.9004 0.21 4
  506.1484 0.38 8
  506.3089 0.16 3
  506.4138 0.09 2
  507.0663 0.32 6
  507.2368 0.17 3
  507.4260 0.14 3
  507.5832 0.04 1
  508.0345 0.18 4
  508.1768 0.13 3
  508.3922 0.06 1
  508.5493 0.17 3
  509.2587 0.09 2
  509.4192 0.08 2
  509.5268 0.10 2
  509.8565 0.11 2
  510.2924 0.14 3
  510.6883 0.24 5
  510.8194 0.12 2
  511.0079 0.06 1
  511.2166 0.14 3
  511.5824 0.10 2
  511.7101 0.11 2
  511.8372 0.12 2
  512.1053 0.12 2
  512.5835 0.20 4
  512.9266 0.05 1
  513.3365 0.06 1
  513.5419 0.13 3
  513.7211 0.33 7
  513.8322 0.13 3
  513.9559 0.08 2
  514.1940 0.17 3
  514.4635 0.15 3
  514.5779 0.21 4
  515.1437 0.03 1
  515.3792 0.18 4
  515.6427 0.12 2
  515.9109 0.19 4
  516.0922 0.28 6
  516.3571 0.07 1
  516.5230 0.12 2
  516.6929 0.12 2
  516.9371 0.11 2
  517.0588 0.18 4
  517.3170 0.30 6
  517.4615 0.13 3
  517.7244 0.15 3
  517.8455 0.11 2
  517.9673 0.07 1
  518.1285 0.28 6
  518.2877 0.12 2
  518.4235 0.23 5
  518.5232 0.21 4
  518.6229 0.15 3
  518.7493 0.07 1
  519.0571 0.52 10
  519.1761 0.30 6
  519.3427 0.37 7
  519.5849 0.20 4
  520.0044 0.31 6
  520.2045 0.61 12
  520.3497 0.57 11
  520.5102 0.37 7
  521.2529 3.94 78
  521.4703 1.53 30
  521.8129 0.18 4
  522.2252 0.61 12
  522.5229 0.46 9
  522.7163 0.15 3
  522.8782 0.13 3
  523.1800 0.57 11
  523.3252 0.20 4
  523.5561 0.21 4
  523.9128 0.21 4
  524.0968 0.28 6
  524.1603 0.13 3
  524.2661 0.07 1
  524.3939 0.11 2
  524.5137 0.09 2
  524.7546 0.24 5
  524.8745 0.14 3
  525.3429 0.26 5
  525.7257 0.22 4
  525.9646 0.42 8
  526.2337 0.19 4
  526.5516 0.25 5
  526.7671 0.29 6
  526.9645 0.26 5
  527.1633 0.20 4
  527.5248 0.30 6
  527.7999 0.18 4
  527.9792 0.12 2
  528.3313 0.45 9
  528.6539 0.34 7
  529.0067 0.63 12
  529.1586 0.43 8
  529.4385 0.60 12
  529.5851 0.30 6
  529.7685 0.32 6
  530.0182 0.59 12
  530.2833 0.85 17
  530.4017 0.35 7
  530.5316 0.28 6
  530.6882 0.72 14
  530.9105 0.78 15
  532.2990 4.35 86
  532.5460 1.84 36
  533.2490 1.91 38
  533.5550 0.80 16
  533.7840 0.80 16
  534.2205 2.10 41
  534.5761 1.53 30
  535.2919 12.71 251
  535.7566 1.24 24
  536.0746 0.89 18
  536.2842 0.82 16
  536.4851 0.56 11
  536.7570 0.39 8
  536.9130 0.38 8
  537.1025 0.60 12
  537.4146 1.10 22
  537.7307 0.76 15
  537.9517 0.64 13
  538.3696 0.61 12
  538.5162 0.58 11
  538.8732 0.69 14
  539.2878 0.62 12
  540.3253 0.73 14
  540.8323 0.68 13
  541.0667 0.65 13
  541.3179 0.71 14
  541.9951 1.11 22
  543.1860 1.66 33
  544.3034 2.13 42
  550.2366 99.96 999
  551.1733 44.09 871
  552.0253 22.57 446
  552.7576 12.38 244
  553.4205 6.98 138
  554.3153 3.28 65
  555.2515 1.65 33
  555.6265 1.50 30
//
