ACCESSION: MSBNK-Kyoto_Univ-CA000124
RECORD_TITLE: Liliaxanthin; FAB-EBEB; MS2; m/z: 600.42; [M]*+
DATE: 2016.01.19 (Created 2007.10.06, modified 2011.05.10)
AUTHORS: Akimoto N, Graduate School of Pharmaceutical Sciences, Kyoto University and Maoka T, Research Institute for Production Development
LICENSE: CC BY-SA
COMMENT: Profile spectrum of this record is given as a JPEG file.
COMMENT: [Profile] CA000124.jpg
CH$NAME: Liliaxanthin
CH$COMPOUND_CLASS: Natural Product; Carotenoid
CH$FORMULA: C40H56O4
CH$EXACT_MASS: 600.41786
CH$SMILES: C(O)(C2O)C(=C(C(C2)(C)C)C=CC(C)=CC=CC(C)=CC=CC=C(C=CC=C(C=CC(=O)C(C(C)(C)1)(C)CC(C1)O)C)C)C
CH$IUPAC: InChI=1S/C40H56O4/c1-28(17-13-19-30(3)21-23-34-32(5)37(44)35(42)27-38(34,6)7)15-11-12-16-29(2)18-14-20-31(4)22-24-36(43)40(10)26-33(41)25-39(40,8)9/h11-24,33,35,37,41-42,44H,25-27H2,1-10H3/b12-11+,17-13+,18-14+,23-21+,24-22+,28-15+,29-16+,30-19+,31-20+/t33-,35-,37+,40-/m0/s1
CH$LINK: INCHIKEY CLUNNEXDLNOYRX-DVURGGGQSA-N
AC$INSTRUMENT: JMS-HX/HX 110A, JEOL
AC$INSTRUMENT_TYPE: FAB-EBEB
AC$MASS_SPECTROMETRY: MS_TYPE MS2
AC$MASS_SPECTROMETRY: ION_MODE POSITIVE
AC$MASS_SPECTROMETRY: ATOM_GUN_CURRENT 5 mA
AC$MASS_SPECTROMETRY: BOMBARDMENT 6 kV xenon
AC$MASS_SPECTROMETRY: COLLISION_ENERGY 3 kV
AC$MASS_SPECTROMETRY: COLLISION_GAS Ar
AC$MASS_SPECTROMETRY: GAS_PRESSURE adjust to attenuate the intensity of the precursor ion by 30 %
AC$MASS_SPECTROMETRY: IONIZATION FAB
AC$MASS_SPECTROMETRY: PROBE_TIP stainless-steel
MS$FOCUSED_ION: BASE_PEAK 600.3825
MS$FOCUSED_ION: PRECURSOR_M/Z 600.42
MS$FOCUSED_ION: PRECURSOR_TYPE [M]+*
PK$SPLASH: splash10-0zgi-3921133000-164eb8abbf9d04152537
PK$NUM_PEAK: 1712
PK$PEAK: m/z int. rel.int.
  0.1796 0.01 0
  0.5438 0.01 0
  1.0473 0.01 0
  1.1242 0.01 0
  2.0948 0.01 0
  3.5412 0.01 0
  4.9504 0.01 0
  10.4705 0.03 0
  12.7548 0.01 0
  12.9828 0.02 0
  13.9997 0.01 0
  14.9828 0.19 2
  16.3335 0.01 0
  18.9979 0.05 0
  22.9546 0.54 5
  24.9559 0.03 0
  25.9826 0.50 5
  26.9893 0.89 9
  27.9964 0.11 1
  28.9916 1.38 14
  29.9813 0.11 1
  30.1334 0.01 0
  30.9736 0.29 3
  35.9625 0.05 0
  36.9627 0.17 2
  37.9664 0.40 4
  38.9840 3.26 33
  39.9790 0.53 5
  41.0018 8.05 80
  41.9911 0.21 2
  42.9930 9.38 94
  43.9469 0.23 2
  44.0172 0.13 1
  44.9843 0.47 5
  45.9579 0.07 1
  46.9267 0.25 2
  46.9851 0.08 1
  48.9473 0.11 1
  49.0273 0.05 0
  49.2100 0.02 0
  49.9907 0.72 7
  50.9702 1.32 13
  51.6220 0.15 1
  51.9869 0.66 7
  52.9993 3.45 34
  53.9689 0.31 3
  54.9962 12.02 120
  55.9751 0.38 4
  57.0055 3.94 39
  57.3360 0.03 0
  58.0016 0.07 1
  58.9992 0.88 9
  59.9621 0.23 2
  60.9912 0.27 3
  61.9763 0.50 5
  62.9815 1.90 19
  63.9729 0.65 6
  64.3066 0.07 1
  64.4236 0.05 0
  64.6453 0.07 1
  64.9940 2.27 23
  65.2548 0.07 1
  65.4687 0.12 1
  65.5346 0.03 0
  65.9995 0.45 4
  67.0015 4.26 43
  67.9823 0.41 4
  68.9967 7.79 78
  69.2471 0.02 0
  70.0027 0.39 4
  70.9864 3.18 32
  72.0219 0.17 2
  72.9694 0.32 3
  73.9744 0.48 5
  74.9570 0.44 4
  75.4256 0.03 0
  75.5563 0.11 1
  75.7241 0.09 1
  75.9881 0.42 4
  76.1096 0.05 0
  76.5935 0.06 1
  76.9741 6.48 65
  77.1628 0.12 1
  77.3398 0.09 1
  77.9875 1.75 17
  78.1139 0.11 1
  78.1976 0.06 1
  78.3158 0.03 0
  78.4268 0.11 1
  78.5730 0.04 0
  78.9922 7.04 70
  79.4149 0.05 0
  79.9951 1.07 11
  80.7372 0.07 1
  81.0094 7.79 78
  81.2279 0.04 0
  81.3052 0.03 0
  81.4706 0.03 0
  81.9960 0.65 6
  82.2536 0.10 1
  82.4832 0.05 0
  83.0317 23.13 231
  83.4697 0.01 0
  83.8297 0.08 1
  84.0252 0.39 4
  85.0407 5.66 57
  85.4761 0.04 0
  85.9946 0.39 4
  86.9977 0.94 9
  87.9327 0.26 3
  88.0651 0.01 0
  88.2365 0.05 0
  88.5961 0.15 1
  88.7110 0.08 1
  88.9775 1.55 15
  89.2013 0.01 0
  89.4161 0.15 1
  89.6408 0.12 1
  89.9986 0.69 7
  90.1464 0.09 1
  90.3432 0.05 0
  90.4604 0.01 0
  90.6697 0.03 0
  91.0032 13.13 131
  91.2232 0.10 1
  91.2896 0.04 0
  91.7701 0.11 1
  92.0244 1.64 16
  92.5168 0.02 0
  92.6950 0.03 0
  93.0264 11.29 113
  94.0190 1.18 12
  94.3117 0.05 0
  94.5316 0.09 1
  94.6629 0.05 0
  95.0353 7.74 77
  95.3117 0.06 1
  95.4958 0.06 1
  96.0146 0.43 4
  96.2381 0.01 0
  97.0264 2.31 23
  97.3669 0.10 1
  97.5369 0.10 1
  97.9656 0.41 4
  98.0573 0.17 2
  98.4659 0.11 1
  98.9867 1.30 13
  99.8940 0.06 1
  100.0192 0.08 1
  100.4558 0.12 1
  100.5379 0.03 0
  100.7874 0.11 1
  100.9824 0.14 1
  101.2447 0.10 1
  101.3671 0.08 1
  101.5655 0.11 1
  101.9884 0.55 5
  102.2386 0.18 2
  102.4191 0.01 0
  102.7539 0.10 1
  103.0177 2.57 26
  103.3094 0.10 1
  103.4877 0.10 1
  103.6233 0.03 0
  104.0301 1.77 18
  104.3628 0.05 0
  104.4373 0.04 0
  104.6495 0.12 1
  105.0331 19.70 197
  105.3784 0.09 1
  105.5594 0.11 1
  105.6455 0.04 0
  106.0355 2.20 22
  106.2154 0.07 1
  107.0441 8.65 86
  107.3348 0.04 0
  107.4510 0.08 1
  108.0449 1.60 16
  108.3525 0.01 0
  108.5588 0.06 1
  109.0661 30.95 309
  109.3565 0.08 1
  109.6725 0.10 1
  110.0383 1.45 14
  110.3471 0.13 1
  110.4687 0.01 0
  111.0415 1.69 17
  112.0540 0.27 3
  112.2839 0.10 1
  112.5650 0.13 1
  112.8009 0.09 1
  113.0177 0.47 5
  113.2441 0.13 1
  113.4386 0.09 1
  113.7011 0.07 1
  113.8138 0.03 0
  113.9867 0.34 3
  114.2103 0.08 1
  114.3949 0.11 1
  114.6661 0.10 1
  115.0105 6.73 67
  115.3334 0.09 1
  115.5529 0.05 0
  115.6692 0.08 1
  116.0084 3.59 36
  116.4372 0.10 1
  116.7099 0.18 2
  117.0155 8.79 88
  117.3548 0.07 1
  118.0068 1.35 13
  119.0325 17.15 171
  119.2385 0.16 2
  119.5311 0.08 1
  120.0262 2.24 22
  120.3987 0.05 0
  120.5184 0.08 1
  121.0219 9.76 98
  121.2726 0.06 1
  121.4138 0.03 0
  121.5239 0.09 1
  122.0237 1.82 18
  122.3921 0.08 1
  122.5809 0.12 1
  123.0217 3.62 36
  124.0126 1.01 10
  125.0192 7.44 74
  125.2999 0.09 1
  125.4347 0.11 1
  125.9685 0.84 8
  126.3383 0.08 1
  126.4355 0.04 0
  126.6090 0.10 1
  127.0144 5.80 58
  127.3252 0.27 3
  127.6433 0.10 1
  127.9871 8.79 88
  128.2709 0.18 2
  128.4056 0.10 1
  128.5208 0.03 0
  129.0024 10.41 104
  129.3749 0.11 1
  130.0104 4.43 44
  130.2812 0.12 1
  130.5087 0.03 0
  131.0040 9.82 98
  131.3316 0.05 0
  131.6678 0.17 2
  132.0173 2.32 23
  133.0265 9.07 91
  133.2719 0.12 1
  133.6274 0.06 1
  133.8085 0.12 1
  134.0126 1.38 14
  134.4831 0.11 1
  135.0058 4.40 44
  135.3277 0.15 1
  135.5303 0.05 0
  135.9659 1.26 13
  136.0881 0.62 6
  136.2558 0.09 1
  136.4526 0.12 1
  137.0051 2.93 29
  137.1777 0.06 1
  137.3141 0.04 0
  137.9960 1.02 10
  138.7361 0.07 1
  138.9866 2.20 22
  139.2274 0.09 1
  139.4947 0.05 0
  139.6247 0.16 2
  139.7428 0.13 1
  140.0063 1.03 10
  140.2393 0.19 2
  140.3941 0.10 1
  140.4970 0.22 2
  140.9952 8.05 80
  141.4771 0.02 0
  142.0052 7.80 78
  142.4790 0.11 1
  142.6460 0.04 0
  143.0083 10.79 108
  143.3659 0.16 2
  143.4845 0.02 0
  144.0097 4.26 43
  144.2617 0.12 1
  144.4885 0.15 1
  144.6292 0.04 0
  145.0176 15.38 154
  145.3780 0.20 2
  145.4668 0.08 1
  145.6618 0.08 1
  146.0278 1.56 16
  146.2904 0.01 0
  146.4207 0.06 1
  146.5564 0.12 1
  147.0231 7.05 70
  147.3455 0.08 1
  147.5181 0.03 0
  148.0287 1.13 11
  148.3005 0.04 0
  148.5523 0.06 1
  148.7539 0.15 1
  149.0400 2.63 26
  150.0222 0.74 7
  150.4086 0.12 1
  150.7126 0.13 1
  151.0113 1.48 15
  151.2866 0.11 1
  151.4511 0.25 2
  152.0034 3.27 33
  152.3629 0.23 2
  152.4792 0.14 1
  152.6097 0.11 1
  152.9937 3.83 38
  153.2520 0.08 1
  153.3771 0.03 0
  153.6167 0.09 1
  154.0145 2.65 26
  154.2711 0.07 1
  154.5580 0.06 1
  155.0296 8.15 81
  155.2493 0.15 1
  155.3673 0.04 0
  155.4725 0.11 1
  155.5992 0.12 1
  155.7374 0.20 2
  156.0268 4.19 42
  156.2501 0.25 2
  156.4201 0.09 1
  156.5517 0.10 1
  157.0552 11.44 114
  157.3401 0.07 1
  157.5482 0.10 1
  157.7278 0.19 2
  158.0461 2.46 25
  158.2765 0.20 2
  158.4103 0.14 1
  158.5090 0.12 1
  159.0499 14.16 142
  159.3015 0.14 1
  159.5526 0.12 1
  160.0648 2.02 20
  160.2531 0.20 2
  160.3803 0.14 1
  161.0549 4.07 41
  161.3239 0.08 1
  161.5042 0.12 1
  161.7617 0.05 0
  162.0817 0.97 10
  162.3991 0.07 1
  162.7328 0.09 1
  163.0714 1.92 19
  163.2710 0.10 1
  164.0117 0.59 6
  164.2868 0.12 1
  164.5028 0.10 1
  164.6727 0.11 1
  165.0465 6.81 68
  165.2932 0.08 1
  165.5761 0.02 0
  166.0427 2.82 28
  166.3243 0.04 0
  166.5108 0.16 2
  166.6789 0.14 1
  167.0540 5.04 50
  167.6641 0.12 1
  168.0797 1.98 20
  168.4886 0.06 1
  169.0660 6.13 61
  169.3824 0.09 1
  169.7576 0.22 2
  170.0940 2.17 22
  170.6062 0.21 2
  171.0926 6.49 65
  171.4921 0.18 2
  171.6746 0.04 0
  172.0592 2.33 23
  172.4781 0.04 0
  172.6191 0.07 1
  173.0776 3.79 38
  173.3659 0.10 1
  173.5350 0.11 1
  173.6931 0.14 1
  173.7770 0.09 1
  174.0777 0.91 9
  174.3840 0.12 1
  175.0942 2.01 20
  175.3536 0.17 2
  175.7393 0.13 1
  176.0602 0.99 10
  176.2378 0.13 1
  176.4940 0.10 1
  176.6593 0.03 0
  177.0372 1.14 11
  177.1752 0.39 4
  177.4035 0.12 1
  177.5314 0.19 2
  178.0504 2.51 25
  178.2754 0.03 0
  178.4813 0.01 0
  178.6550 0.10 1
  179.0560 4.53 45
  179.5016 0.10 1
  180.0453 2.70 27
  180.4699 0.15 1
  180.7084 0.09 1
  181.0702 5.24 52
  181.3374 0.13 1
  181.4841 0.10 1
  182.0669 2.06 21
  182.2254 0.21 2
  182.3440 0.21 2
  182.6081 0.12 1
  182.6760 0.05 0
  183.0740 6.09 61
  183.4164 0.18 2
  183.5894 0.07 1
  183.6807 0.11 1
  183.8620 0.22 2
  184.0563 1.55 15
  184.4622 0.20 2
  185.0646 4.65 46
  185.3567 0.16 2
  185.5588 0.11 1
  185.7512 0.12 1
  186.0695 1.47 15
  186.4051 0.18 2
  186.5908 0.04 0
  186.7229 0.04 0
  187.0627 1.82 18
  187.3358 0.17 2
  187.4239 0.11 1
  187.6152 0.02 0
  187.8603 0.09 1
  188.0909 0.55 5
  188.3952 0.10 1
  188.5522 0.04 0
  188.7829 0.11 1
  189.0584 2.10 21
  189.4029 0.15 1
  189.5772 0.23 2
  190.0183 0.91 9
  190.1940 0.24 2
  190.5491 0.19 2
  191.0525 2.68 27
  191.2484 0.12 1
  191.5243 0.06 1
  191.6257 0.11 1
  192.0521 2.73 27
  192.2716 0.10 1
  192.4918 0.12 1
  193.0427 3.18 32
  193.3590 0.14 1
  193.4453 0.07 1
  193.7147 0.17 2
  194.0519 2.20 22
  194.2813 0.12 1
  194.5128 0.11 1
  195.0574 5.16 52
  195.7081 0.04 0
  196.0622 1.98 20
  196.3936 0.17 2
  196.5714 0.08 1
  197.0759 5.34 53
  197.4054 0.12 1
  197.4933 0.06 1
  197.6207 0.10 1
  197.8450 0.10 1
  198.0992 1.35 13
  198.5487 0.05 0
  199.0634 2.20 22
  199.6816 0.26 3
  199.8493 0.11 1
  200.0532 0.81 8
  200.6273 0.03 0
  201.0629 1.04 10
  201.2800 0.08 1
  201.3736 0.05 0
  201.5214 0.09 1
  202.0107 1.30 13
  202.3695 0.11 1
  202.5382 0.08 1
  203.0214 2.29 23
  203.4020 0.30 3
  204.0188 0.98 10
  204.2405 0.11 1
  204.6658 0.08 1
  205.0356 2.32 23
  205.3797 0.11 1
  205.6898 0.07 1
  206.0444 2.16 22
  206.2510 0.17 2
  206.4395 0.20 2
  206.6204 0.25 2
  207.0553 3.93 39
  207.3879 0.28 3
  207.8111 0.10 1
  208.0444 1.37 14
  208.6439 0.12 1
  209.0660 5.13 51
  209.3634 0.06 1
  209.4784 0.11 1
  209.6296 0.03 0
  210.0435 1.64 16
  210.4066 0.07 1
  211.0696 2.31 23
  211.2844 0.22 2
  211.4894 0.06 1
  211.6987 0.09 1
  212.0725 0.76 8
  213.0683 1.64 16
  213.4257 0.10 1
  213.5667 0.08 1
  213.6881 0.06 1
  213.8201 0.33 3
  214.0456 0.38 4
  214.2000 0.13 1
  214.4213 0.03 0
  214.5519 0.08 1
  215.0353 1.73 17
  215.4273 0.19 2
  216.0562 1.01 10
  216.4169 0.17 2
  217.0413 2.36 24
  217.4861 0.09 1
  217.7665 0.06 1
  218.0576 0.71 7
  218.3864 0.12 1
  218.6257 0.02 0
  218.7971 0.12 1
  219.0715 2.62 26
  219.3550 0.10 1
  219.7120 0.14 1
  220.0691 0.96 10
  220.3450 0.11 1
  220.5726 0.28 3
  220.7632 0.10 1
  221.0959 4.21 42
  221.4343 0.13 1
  221.5702 0.12 1
  221.8127 0.08 1
  222.1035 1.17 12
  222.5031 0.12 1
  223.0766 2.68 27
  223.5015 0.11 1
  223.8143 0.22 2
  224.0689 0.88 9
  224.1741 0.48 5
  224.5137 0.08 1
  225.0723 1.12 11
  225.7152 0.11 1
  226.0690 0.85 8
  226.3169 0.12 1
  226.3983 0.07 1
  226.8618 0.25 2
  227.0774 1.14 11
  227.2811 0.11 1
  227.4841 0.12 1
  228.0343 0.73 7
  228.3154 0.11 1
  228.6147 0.07 1
  228.7146 0.10 1
  229.0864 0.74 7
  229.3950 0.13 1
  229.6228 0.10 1
  230.1031 0.72 7
  230.4006 0.13 1
  230.5624 0.11 1
  231.0766 1.09 11
  231.4313 0.12 1
  232.0625 0.89 9
  232.2026 0.74 7
  232.3595 0.11 1
  232.5039 0.09 1
  232.6658 0.19 2
  233.1022 1.87 19
  233.8747 0.45 4
  234.0990 0.64 6
  234.2473 0.50 5
  234.7551 0.20 2
  235.1250 1.87 19
  235.5407 0.14 1
  235.7419 0.08 1
  236.0740 0.53 5
  236.2788 0.28 3
  236.6286 0.34 3
  236.7250 0.15 1
  237.1107 1.79 18
  237.6796 0.10 1
  237.8457 0.20 2
  238.1288 0.61 6
  238.3232 0.22 2
  238.6957 0.11 1
  239.0818 0.98 10
  239.3262 0.14 1
  239.8920 0.16 2
  240.1373 0.72 7
  240.7533 0.16 2
  241.0754 0.91 9
  241.4801 0.10 1
  241.7361 0.12 1
  242.0986 0.43 4
  242.3729 0.12 1
  243.0833 0.85 8
  243.4297 0.07 1
  243.5588 0.11 1
  244.0937 0.52 5
  244.2758 0.14 1
  245.0933 2.02 20
  245.6462 0.21 2
  246.1349 0.85 8
  246.7431 0.11 1
  247.1062 1.54 15
  247.4849 0.08 1
  247.8538 0.13 1
  247.9506 0.12 1
  248.1499 0.74 7
  249.1000 1.04 10
  249.7081 0.10 1
  250.0957 0.52 5
  250.3496 0.21 2
  250.5731 0.05 0
  251.1263 1.07 11
  251.4002 0.12 1
  251.8693 0.12 1
  252.1086 0.35 3
  252.2487 0.17 2
  253.0939 0.84 8
  253.8409 0.02 0
  254.1285 0.27 3
  255.1173 0.49 5
  255.3249 0.15 1
  255.8287 0.06 1
  256.1228 0.37 4
  256.3723 0.09 1
  257.1322 1.05 10
  257.3690 0.11 1
  258.0872 0.56 6
  258.5475 0.17 2
  258.6986 0.11 1
  259.1360 1.25 12
  259.4180 0.11 1
  259.5129 0.07 1
  259.7928 0.19 2
  259.9919 0.38 4
  260.1393 0.60 6
  260.5907 0.12 1
  260.8033 0.06 1
  261.1138 1.59 16
  261.2626 0.49 5
  262.0595 0.38 4
  262.1765 0.43 4
  262.7069 0.11 1
  263.1360 1.08 11
  263.7574 0.19 2
  263.9468 0.12 1
  264.1213 0.48 5
  264.2405 0.37 4
  265.1325 0.64 6
  265.3504 0.11 1
  265.5406 0.10 1
  265.7954 0.16 2
  266.1667 0.45 4
  266.3797 0.07 1
  266.6821 0.07 1
  267.0862 0.61 6
  267.2665 0.36 4
  268.0847 0.32 3
  268.2403 0.37 4
  268.9913 0.18 2
  269.1710 0.53 5
  269.3004 0.11 1
  270.0430 0.59 6
  270.1837 0.21 2
  270.4837 0.08 1
  270.6245 0.12 1
  270.8526 0.18 2
  271.1584 0.32 3
  271.4363 0.12 1
  272.0955 0.31 3
  272.3188 0.12 1
  272.5273 0.11 1
  273.0941 0.75 7
  273.2187 0.41 4
  273.4164 0.10 1
  273.8696 0.17 2
  274.1728 0.49 5
  274.3165 0.14 1
  274.5919 0.10 1
  274.8282 0.30 3
  275.1470 0.96 10
  275.5642 0.07 1
  275.7884 0.16 2
  276.1850 0.38 4
  276.7204 0.12 1
  277.1826 0.90 9
  277.7165 0.04 0
  278.1278 0.32 3
  278.2773 0.11 1
  278.4616 0.17 2
  278.6154 0.07 1
  279.1237 0.65 6
  279.2668 0.21 2
  280.1575 0.54 5
  280.4117 0.05 0
  280.5805 0.06 1
  281.1289 0.45 4
  281.4481 0.13 1
  281.5642 0.11 1
  281.9938 0.25 2
  282.1940 0.41 4
  282.6037 0.11 1
  283.1353 0.48 5
  283.3320 0.12 1
  283.5059 0.10 1
  283.6699 0.02 0
  284.1325 0.62 6
  284.3136 0.31 3
  284.7057 0.10 1
  285.1877 0.97 10
  285.6134 0.11 1
  285.8409 0.09 1
  286.1526 0.68 7
  286.2781 0.29 3
  287.0984 0.88 9
  287.2304 0.36 4
  287.4352 0.08 1
  287.6442 0.01 0
  287.9796 0.18 2
  288.1837 0.44 4
  288.8046 0.12 1
  289.1414 0.67 7
  289.4448 0.07 1
  289.7682 0.08 1
  289.8803 0.12 1
  290.1373 0.52 5
  290.2637 0.18 2
  290.3929 0.07 1
  291.1541 0.45 4
  291.3848 0.07 1
  291.4991 0.10 1
  292.0533 0.40 4
  292.2440 0.25 2
  292.4140 0.08 1
  292.8598 0.05 0
  293.1692 1.21 12
  293.5057 0.05 0
  294.1626 0.68 7
  294.9003 0.22 2
  295.2035 0.45 4
  296.1768 0.48 5
  297.1483 0.46 5
  297.3003 0.53 5
  297.6773 0.03 0
  297.9850 0.14 1
  298.1071 0.31 3
  298.2470 0.53 5
  298.6190 0.11 1
  298.8961 0.14 1
  299.1961 1.00 10
  300.1160 0.41 4
  300.2675 0.40 4
  300.4018 0.20 2
  300.8797 0.05 0
  301.1677 0.78 8
  301.2977 0.34 3
  301.8772 0.23 2
  302.0302 0.11 1
  302.1459 0.18 2
  302.3103 0.29 3
  302.8614 0.08 1
  303.1294 0.48 5
  303.2867 0.13 1
  303.5519 0.04 0
  304.0924 0.30 3
  304.2704 0.19 2
  304.9748 0.15 1
  305.1299 0.32 3
  305.2930 0.29 3
  305.9117 0.13 1
  306.1513 0.35 3
  306.6585 0.08 1
  307.2029 0.33 3
  307.6730 0.11 1
  308.0043 0.14 1
  308.1775 0.33 3
  308.6262 0.07 1
  309.1465 0.35 3
  309.3777 0.10 1
  310.0700 0.36 4
  310.2540 0.39 4
  310.7709 0.07 1
  310.9270 0.18 2
  311.1870 0.38 4
  311.7491 0.15 1
  312.0843 0.45 4
  312.2698 0.19 2
  313.1709 0.63 6
  313.5879 0.08 1
  314.1124 0.25 2
  314.2786 0.22 2
  314.5186 0.11 1
  314.7946 0.13 1
  315.0533 0.28 3
  315.2059 0.34 3
  315.3872 0.07 1
  315.5378 0.07 1
  316.0696 0.17 2
  316.1936 0.35 3
  316.8904 0.10 1
  317.1019 0.22 2
  317.2611 0.26 3
  317.3464 0.09 1
  317.6540 0.08 1
  318.0240 0.25 2
  318.2342 0.28 3
  318.7821 0.05 0
  319.1400 0.27 3
  319.2949 0.24 2
  319.6873 0.08 1
  320.1916 0.26 3
  320.6472 0.03 0
  320.9478 0.23 2
  321.1817 0.19 2
  321.3798 0.05 0
  322.0171 0.14 1
  322.2654 0.26 3
  322.9839 0.20 2
  323.2093 0.38 4
  323.6220 0.11 1
  323.7606 0.12 1
  323.9178 0.06 1
  324.0815 0.15 1
  324.2754 0.13 1
  325.1464 0.67 7
  325.2857 0.18 2
  325.4587 0.12 1
  325.5543 0.07 1
  326.2043 0.35 3
  326.6553 0.11 1
  327.1567 0.43 4
  328.1058 0.30 3
  328.2057 0.12 1
  328.4155 0.11 1
  328.7353 0.10 1
  329.1399 0.19 2
  329.2908 0.13 1
  330.0167 0.14 1
  330.1950 0.11 1
  330.3236 0.06 1
  331.1022 0.31 3
  331.2963 0.15 1
  331.8240 0.04 0
  332.0735 0.02 0
  332.2173 0.11 1
  333.1313 0.27 3
  333.3205 0.23 2
  333.4298 0.11 1
  334.0901 0.21 2
  334.2484 0.39 4
  334.4088 0.08 1
  335.1138 0.38 4
  335.2469 0.18 2
  335.5548 0.10 1
  335.9182 0.06 1
  336.0887 0.28 3
  336.2629 0.30 3
  336.7407 0.09 1
  337.1200 0.15 1
  337.3136 0.19 2
  338.2169 0.33 3
  338.3476 0.30 3
  338.7419 0.06 1
  339.1664 0.46 5
  339.3625 0.13 1
  340.2015 0.45 4
  340.3423 0.17 2
  341.0802 0.27 3
  341.2979 0.28 3
  341.9188 0.03 0
  342.0539 0.21 2
  342.2458 0.18 2
  342.9005 0.19 2
  343.0184 0.15 1
  343.2570 0.33 3
  343.3771 0.13 1
  344.2275 0.34 3
  344.4518 0.07 1
  345.1205 0.33 3
  345.3470 0.13 1
  346.0725 0.11 1
  346.2473 0.13 1
  346.4997 0.12 1
  346.7593 0.01 0
  347.0283 0.12 1
  347.2736 0.13 1
  347.6973 0.08 1
  348.0576 0.10 1
  348.1447 0.10 1
  348.3389 0.16 2
  348.7447 0.05 0
  349.1454 0.42 4
  349.2965 0.11 1
  350.0996 0.30 3
  350.3069 0.18 2
  350.5738 0.02 0
  350.8941 0.13 1
  351.1115 0.30 3
  351.2835 0.28 3
  351.5455 0.04 0
  351.8154 0.09 1
  352.0681 0.19 2
  352.2394 0.46 5
  352.9060 0.13 1
  353.1652 0.38 4
  353.6389 0.12 1
  353.7858 0.12 1
  353.9205 0.10 1
  354.0371 0.12 1
  354.1790 0.14 1
  354.3518 0.35 3
  354.8725 0.07 1
  355.0626 0.11 1
  355.1908 0.15 1
  355.3327 0.34 3
  355.4933 0.09 1
  356.1314 0.14 1
  356.3151 0.20 2
  356.8561 0.04 0
  356.9879 0.20 2
  357.1861 0.52 5
  357.3460 0.06 1
  357.4901 0.12 1
  358.0081 0.10 1
  358.2430 0.20 2
  358.3640 0.09 1
  358.9312 0.07 1
  359.1978 0.32 3
  359.8068 0.12 1
  360.1606 0.15 1
  360.2543 0.08 1
  360.3646 0.12 1
  360.9319 0.04 0
  361.1294 0.26 3
  361.3673 0.16 2
  362.0104 0.10 1
  362.2411 0.27 3
  363.1193 0.23 2
  363.8267 0.17 2
  364.1563 0.33 3
  364.2883 0.13 1
  364.6042 0.04 0
  364.9417 0.07 1
  365.2180 0.50 5
  365.3615 0.26 3
  365.4675 0.13 1
  366.0625 0.26 3
  366.2311 0.33 3
  366.3652 0.11 1
  366.4704 0.16 2
  366.5497 0.11 1
  367.2165 0.39 4
  368.0866 0.19 2
  368.2733 0.09 1
  368.4420 0.14 1
  369.1883 0.41 4
  369.3585 0.17 2
  369.7292 0.02 0
  370.0789 0.10 1
  370.3176 0.28 3
  371.0475 0.15 1
  371.2956 0.20 2
  372.1410 0.20 2
  372.3076 0.08 1
  372.6366 0.20 2
  373.0810 0.08 1
  373.1806 0.05 0
  373.3054 0.16 2
  373.7563 0.12 1
  373.9064 0.07 1
  374.2008 0.27 3
  374.3704 0.29 3
  374.5862 0.12 1
  374.7269 0.08 1
  374.8950 0.11 1
  375.0329 0.07 1
  375.1512 0.12 1
  375.2855 0.43 4
  375.3937 0.19 2
  375.7885 0.06 1
  375.9689 0.27 3
  376.1169 0.28 3
  376.2937 0.18 2
  376.8113 0.11 1
  377.1469 0.37 4
  377.3050 0.18 2
  377.4205 0.11 1
  378.1028 0.20 2
  378.2104 0.27 3
  378.3129 0.22 2
  378.4255 0.11 1
  378.7685 0.14 1
  379.2573 0.35 3
  379.9058 0.18 2
  380.1657 0.16 2
  380.3362 0.07 1
  381.0762 0.26 3
  381.2017 0.15 1
  381.4174 0.22 2
  382.2563 0.13 1
  382.3796 0.09 1
  383.1797 0.19 2
  383.2944 0.12 1
  383.8442 0.13 1
  383.9647 0.19 2
  384.1790 0.11 1
  385.0572 0.18 2
  385.3993 0.14 1
  386.1058 0.20 2
  386.2357 0.18 2
  386.7280 0.05 0
  387.0636 0.20 2
  387.2101 0.19 2
  387.6072 0.07 1
  387.9342 0.13 1
  388.1869 0.17 2
  388.4301 0.07 1
  388.5276 0.06 1
  389.2352 0.38 4
  389.3391 0.12 1
  390.0092 0.15 1
  390.2894 0.22 2
  391.0701 0.21 2
  391.2896 0.38 4
  392.1650 0.37 4
  392.3217 0.51 5
  392.5644 0.15 1
  393.1127 0.11 1
  393.3655 0.18 2
  394.1292 0.34 3
  394.2643 0.09 1
  394.4947 0.11 1
  394.8856 0.08 1
  395.0439 0.09 1
  395.1494 0.14 1
  395.2707 0.09 1
  395.6609 0.08 1
  396.0172 0.12 1
  396.2781 0.19 2
  396.6510 0.11 1
  397.0224 0.11 1
  397.1272 0.16 2
  397.2718 0.21 2
  397.4388 0.18 2
  397.9613 0.11 1
  398.2165 0.22 2
  398.3871 0.14 1
  398.9979 0.12 1
  399.2415 0.16 2
  399.4981 0.12 1
  400.0252 0.11 1
  400.1698 0.06 1
  400.9897 0.06 1
  401.1835 0.22 2
  402.0585 0.09 1
  402.1836 0.25 2
  402.3326 0.25 2
  403.1852 0.19 2
  403.3111 0.11 1
  403.8557 0.16 2
  404.1660 0.11 1
  404.3628 0.22 2
  404.5378 0.10 1
  405.0659 0.04 0
  405.3401 0.09 1
  405.8378 0.11 1
  406.1178 0.10 1
  406.2748 0.11 1
  407.0917 0.13 1
  407.2690 0.04 0
  407.4579 0.11 1
  408.1113 0.10 1
  408.2445 0.27 3
  408.3805 0.12 1
  409.0572 0.14 1
  409.2324 0.20 2
  409.4097 0.30 3
  410.0075 0.12 1
  410.2855 0.02 0
  410.4375 0.13 1
  411.2664 0.10 1
  411.3728 0.11 1
  411.4821 0.06 1
  411.9179 0.08 1
  412.0330 0.05 0
  412.2480 0.26 3
  412.3813 0.12 1
  412.9279 0.13 1
  413.0870 0.10 1
  413.2098 0.11 1
  413.3420 0.22 2
  413.6216 0.16 2
  414.1620 0.25 2
  414.3304 0.18 2
  414.4973 0.15 1
  414.6764 0.09 1
  415.2205 0.54 5
  415.3296 0.26 3
  416.0674 0.17 2
  416.3420 0.09 1
  417.0769 0.21 2
  417.3169 0.47 5
  417.6168 0.11 1
  417.8235 0.13 1
  418.2926 0.50 5
  419.3284 0.57 6
  419.7744 0.08 1
  419.8728 0.06 1
  420.1742 0.16 2
  420.5256 0.21 2
  420.8423 0.11 1
  421.0071 0.09 1
  421.2703 0.16 2
  421.5139 0.01 0
  422.3325 0.12 1
  422.4915 0.02 0
  423.2899 0.04 0
  424.1809 0.14 1
  424.4579 0.15 1
  425.2051 0.20 2
  425.4706 0.10 1
  425.8778 0.10 1
  426.1230 0.13 1
  426.2431 0.04 0
  426.4109 0.13 1
  426.5354 0.10 1
  426.7314 0.05 0
  427.1170 0.30 3
  427.2921 0.45 4
  427.4918 0.13 1
  427.8586 0.06 1
  428.2464 0.20 2
  428.3853 0.19 2
  428.7949 0.11 1
  428.9533 0.26 3
  429.0532 0.26 3
  429.1386 0.14 1
  429.3441 0.34 3
  429.6031 0.18 2
  429.9469 0.13 1
  430.1632 0.31 3
  430.3662 0.28 3
  430.7702 0.09 1
  431.0824 0.25 2
  431.2963 0.65 6
  431.4553 0.18 2
  432.0486 0.24 2
  432.2170 0.54 5
  432.4916 0.24 2
  432.8436 0.05 0
  433.0048 0.09 1
  433.4052 0.14 1
  434.1989 0.10 1
  434.4346 0.14 1
  434.7679 0.10 1
  435.0151 0.11 1
  435.2963 0.16 2
  435.6347 0.10 1
  435.8574 0.11 1
  436.1523 0.06 1
  436.2789 0.30 3
  436.4365 0.13 1
  437.1349 0.22 2
  437.4719 0.12 1
  437.7590 0.15 1
  437.8639 0.08 1
  438.2847 0.18 2
  438.9059 0.10 1
  439.1902 0.11 1
  439.4129 0.16 2
  439.5323 0.05 0
  440.2584 0.11 1
  440.4515 0.14 1
  440.7423 0.09 1
  440.8993 0.16 2
  441.2458 0.16 2
  441.8918 0.11 1
  442.1211 0.09 1
  442.2715 0.10 1
  442.3808 0.15 1
  443.2685 0.23 2
  443.4385 0.10 1
  443.9168 0.11 1
  444.2293 0.97 10
  444.4471 0.64 6
  444.7634 0.12 1
  445.2721 1.28 13
  445.4653 0.42 4
  445.7352 0.20 2
  445.9313 0.06 1
  446.1332 0.48 5
  446.3235 0.60 6
  447.1855 2.61 26
  447.8065 0.13 1
  448.1156 0.24 2
  448.3139 0.31 3
  448.6462 0.02 0
  449.1710 0.11 1
  449.5149 0.04 0
  449.9022 0.13 1
  450.2077 0.20 2
  450.3597 0.12 1
  450.5935 0.08 1
  451.7093 0.10 1
  451.8715 0.12 1
  452.4116 0.11 1
  452.6824 0.16 2
  453.1024 0.11 1
  453.3487 0.14 1
  454.0178 0.11 1
  454.2532 0.19 2
  454.4031 0.11 1
  455.1469 0.10 1
  455.3294 0.21 2
  456.3456 0.28 3
  456.4912 0.12 1
  456.7375 0.10 1
  456.9570 0.15 1
  457.2149 0.43 4
  457.4243 0.11 1
  457.6793 0.06 1
  457.9227 0.06 1
  458.2052 0.10 1
  458.3769 0.14 1
  458.8428 0.02 0
  458.9761 0.13 1
  459.1058 0.03 0
  459.2485 0.02 0
  459.4275 0.10 1
  459.7412 0.03 0
  460.0346 0.16 2
  460.1948 0.04 0
  461.0049 0.11 1
  461.1542 0.26 3
  461.3129 0.33 3
  461.4991 0.07 1
  461.8064 0.11 1
  462.1100 0.25 2
  462.2898 0.13 1
  462.7543 0.11 1
  462.9435 0.12 1
  463.1856 0.11 1
  463.5190 0.03 0
  463.6538 0.11 1
  463.7821 0.13 1
  463.9785 0.11 1
  464.1873 0.27 3
  464.3214 0.22 2
  464.5033 0.11 1
  464.7389 0.11 1
  464.9302 0.12 1
  465.7856 0.07 1
  465.9775 0.13 1
  466.4069 0.42 4
  466.6799 0.08 1
  467.0065 0.06 1
  467.1397 0.11 1
  467.2679 0.22 2
  467.7009 0.10 1
  468.0753 0.04 0
  468.2484 0.09 1
  468.7850 0.08 1
  468.9595 0.12 1
  469.1841 0.21 2
  469.3868 0.13 1
  469.4969 0.12 1
  469.9641 0.13 1
  470.2509 0.05 0
  470.4030 0.34 3
  470.5652 0.11 1
  470.8007 0.12 1
  471.0817 0.36 4
  471.3483 0.17 2
  471.6837 0.21 2
  471.8705 0.12 1
  472.3045 0.76 8
  472.4885 0.48 5
  473.2042 3.23 32
  473.9831 0.40 4
  474.4605 0.52 5
  474.7235 0.05 0
  474.8641 0.18 2
  475.1793 0.12 1
  475.4510 0.12 1
  476.0662 0.10 1
  476.1641 0.12 1
  476.4749 0.15 1
  476.6307 0.11 1
  477.1315 0.35 3
  477.2750 0.13 1
  477.4663 0.11 1
  477.8185 0.06 1
  478.0910 0.14 1
  478.3026 0.21 2
  478.9057 0.33 3
  479.1130 0.20 2
  479.4196 0.08 1
  479.8835 0.13 1
  481.1941 0.03 0
  482.0836 0.04 0
  482.3475 0.22 2
  483.3792 0.15 1
  483.5467 0.09 1
  483.8301 0.14 1
  483.9389 0.11 1
  484.0673 0.13 1
  484.1818 0.20 2
  484.3500 0.38 4
  484.4436 0.12 1
  484.6198 0.10 1
  484.8917 0.11 1
  485.1636 0.19 2
  485.4116 0.35 3
  485.6691 0.12 1
  485.8888 0.20 2
  486.2130 0.24 2
  486.4385 0.25 2
  486.5342 0.26 3
  486.6633 0.07 1
  486.8098 0.15 1
  486.9403 0.26 3
  487.0738 0.17 2
  487.2950 0.20 2
  487.4662 0.14 1
  487.6801 0.10 1
  487.8433 0.06 1
  488.1240 0.07 1
  488.3329 0.26 3
  488.5497 0.23 2
  488.6527 0.16 2
  488.8950 0.29 3
  489.0343 0.26 3
  489.1996 0.35 3
  489.3737 0.11 1
  489.5428 0.03 0
  489.7473 0.10 1
  489.8960 0.12 1
  490.3400 0.62 6
  490.5119 0.54 5
  490.9588 0.09 1
  491.2751 0.30 3
  491.4883 0.23 2
  492.0767 0.11 1
  492.2320 0.12 1
  492.5135 0.22 2
  492.6724 0.05 0
  492.8465 0.04 0
  493.1288 0.27 3
  493.3508 0.25 2
  493.6657 0.10 1
  494.1016 0.19 2
  494.2776 0.29 3
  494.4572 0.13 1
  494.6326 0.08 1
  495.0752 0.11 1
  496.2053 0.10 1
  496.9755 0.11 1
  497.2029 0.21 2
  497.3522 0.15 1
  497.4855 0.13 1
  497.9391 0.05 0
  498.4709 0.11 1
  498.6970 0.13 1
  498.9122 0.13 1
  499.1013 0.15 1
  499.2426 0.28 3
  499.6485 0.06 1
  499.8209 0.10 1
  499.9738 0.13 1
  500.1565 0.28 3
  500.4753 0.25 2
  500.8884 0.08 1
  501.1363 0.12 1
  501.2943 0.08 1
  501.4486 0.11 1
  501.5892 0.07 1
  501.8124 0.12 1
  502.1574 0.15 1
  502.3075 0.25 2
  502.5017 0.15 1
  502.6474 0.12 1
  503.2468 0.16 2
  503.4055 0.11 1
  503.5150 0.04 0
  503.6650 0.11 1
  503.8898 0.12 1
  504.2906 0.24 2
  504.4421 0.05 0
  504.7944 0.11 1
  505.2780 0.15 1
  505.5056 0.20 2
  505.7883 0.11 1
  506.1167 0.10 1
  506.3422 0.25 2
  506.7373 0.07 1
  506.8649 0.11 1
  507.2716 0.11 1
  507.5747 0.24 2
  507.6595 0.13 1
  508.3563 2.89 29
  508.9161 0.12 1
  509.1663 0.12 1
  509.4266 0.11 1
  509.5608 0.13 1
  509.6623 0.25 2
  510.2518 0.04 0
  510.4106 0.14 1
  510.5492 0.07 1
  510.9444 0.11 1
  511.1670 0.11 1
  511.3955 0.11 1
  511.6573 0.13 1
  512.1447 0.25 2
  512.2484 0.12 1
  512.3956 0.12 1
  512.5392 0.05 0
  512.9439 0.07 1
  513.3320 0.23 2
  513.5010 0.20 2
  513.6896 0.08 1
  514.1785 0.44 4
  514.3859 0.53 5
  514.5636 0.15 1
  515.3528 0.59 6
  515.4820 0.27 3
  515.5966 0.12 1
  516.1312 0.11 1
  516.2720 0.10 1
  516.3895 0.11 1
  517.1636 0.10 1
  517.3979 0.07 1
  518.1823 0.20 2
  519.3228 0.14 1
  519.6196 0.10 1
  520.1319 0.24 2
  520.3503 0.55 5
  520.5237 0.17 2
  521.1495 0.02 0
  521.4144 0.32 3
  521.5838 0.15 1
  522.1057 0.10 1
  522.2693 0.15 1
  522.5364 0.11 1
  523.1149 0.20 2
  523.2350 0.13 1
  524.0264 0.05 0
  524.3420 0.21 2
  524.4478 0.19 2
  524.6888 0.10 1
  524.7916 0.11 1
  525.1761 0.25 2
  525.3615 0.21 2
  526.3129 0.24 2
  526.5026 0.27 3
  526.8524 0.11 1
  527.2969 0.08 1
  527.4650 0.18 2
  527.6496 0.09 1
  527.9972 0.01 0
  528.3354 0.65 6
  529.0154 0.14 1
  529.3152 0.23 2
  529.3949 0.06 1
  530.1242 0.36 4
  530.2560 0.15 1
  530.3987 0.10 1
  530.6740 0.11 1
  531.0795 0.08 1
  531.2621 0.29 3
  531.4678 0.14 1
  531.6655 0.10 1
  532.2479 0.44 4
  532.5167 0.23 2
  533.0476 0.13 1
  533.2497 0.11 1
  533.6264 0.02 0
  533.7850 0.13 1
  533.9886 0.26 3
  534.2921 0.13 1
  534.5059 0.09 1
  535.1072 0.04 0
  535.3057 0.16 2
  535.4223 0.09 1
  535.8831 0.07 1
  536.1671 0.10 1
  536.3352 0.11 1
  536.4794 0.18 2
  536.7808 0.06 1
  537.2590 0.04 0
  538.1451 0.11 1
  538.3162 0.21 2
  538.6524 0.16 2
  538.9227 0.08 1
  539.0778 0.17 2
  539.3111 0.31 3
  539.5002 0.10 1
  539.7698 0.06 1
  539.9763 0.11 1
  540.1060 0.23 2
  540.2850 0.26 3
  540.4003 0.31 3
  540.5002 0.13 1
  540.8793 0.14 1
  541.0098 0.12 1
  541.1569 0.25 2
  541.2764 0.18 2
  541.4540 0.39 4
  541.9548 0.08 1
  542.2244 0.72 7
  542.3969 0.44 4
  542.6528 0.19 2
  542.8376 0.13 1
  543.0529 0.10 1
  543.2565 0.12 1
  543.5421 0.23 2
  543.8262 0.19 2
  543.9785 0.13 1
  544.1191 0.21 2
  544.3495 0.31 3
  544.9715 0.11 1
  545.1868 0.05 0
  545.8450 0.12 1
  546.0386 0.22 2
  546.3119 0.12 1
  546.9339 0.13 1
  547.5465 0.07 1
  547.8793 0.21 2
  548.0344 0.18 2
  548.1961 0.21 2
  548.2787 0.06 1
  548.5260 0.08 1
  549.3141 0.14 1
  549.5359 0.11 1
  549.8427 0.10 1
  549.9507 0.10 1
  550.0479 0.14 1
  550.2661 0.08 1
  550.3785 0.12 1
  550.4851 0.12 1
  550.5997 0.24 2
  550.7084 0.11 1
  551.0964 0.14 1
  551.2552 0.19 2
  551.3857 0.12 1
  551.5735 0.14 1
  551.8165 0.13 1
  552.0913 0.20 2
  552.2842 0.38 4
  552.5431 0.42 4
  552.7106 0.16 2
  552.9833 0.20 2
  553.1581 0.29 3
  553.2828 0.22 2
  553.5656 0.14 1
  553.6846 0.10 1
  553.8478 0.21 2
  553.9971 0.19 2
  554.1741 0.28 3
  554.3968 0.35 3
  554.5817 0.27 3
  554.7043 0.23 2
  554.9081 0.26 3
  555.1917 0.09 1
  555.3171 0.28 3
  555.4390 0.24 2
  555.5681 0.24 2
  556.2775 0.94 9
  556.5371 0.38 4
  556.6612 0.17 2
  556.9694 0.28 3
  557.1841 0.60 6
  557.3611 0.24 2
  557.5091 0.27 3
  557.6600 0.24 2
  557.8892 0.17 2
  558.0016 0.11 1
  558.1620 0.30 3
  558.3549 0.27 3
  558.5631 0.30 3
  558.7169 0.15 1
  558.7808 0.07 1
  559.0143 0.14 1
  559.1551 0.21 2
  559.3531 0.13 1
  559.5512 0.16 2
  559.8798 0.24 2
  560.0699 0.12 1
  560.2905 0.11 1
  560.5182 0.47 5
  560.6967 0.11 1
  560.9390 0.22 2
  561.0827 0.11 1
  561.3054 0.13 1
  561.4353 0.23 2
  561.6421 0.23 2
  561.8924 0.29 3
  562.1180 0.41 4
  562.2972 0.22 2
  562.5381 0.15 1
  562.8588 0.13 1
  563.1716 0.24 2
  563.3501 0.04 0
  563.4633 0.07 1
  563.7194 0.36 4
  563.8863 0.18 2
  564.0634 0.72 7
  564.4523 1.46 15
  564.7172 0.33 3
  564.8021 0.15 1
  564.9545 0.26 3
  565.2353 0.28 3
  565.5916 0.16 2
  565.7473 0.12 1
  566.0320 0.21 2
  566.1747 0.07 1
  566.3066 0.10 1
  566.4557 0.10 1
  566.6478 0.10 1
  566.7991 0.19 2
  566.9991 0.13 1
  567.3135 0.91 9
  567.6069 0.42 4
  567.7424 0.11 1
  568.2756 0.58 6
  568.3951 0.29 3
  568.6653 0.31 3
  568.8037 0.13 1
  569.1146 0.28 3
  569.3218 0.42 4
  569.5500 0.21 2
  569.6587 0.13 1
  569.7673 0.20 2
  570.2006 0.85 8
  570.4354 1.01 10
  570.8063 0.93 9
  571.2172 0.94 9
  571.4498 1.22 12
  571.6548 1.08 11
  572.2751 1.25 12
  572.6599 0.61 6
  572.9425 0.58 6
  573.0838 0.40 4
  573.2787 0.58 6
  573.4657 0.50 5
  573.8099 0.74 7
  574.2063 0.76 8
  574.8470 0.66 7
  575.2506 0.34 3
  575.5123 0.66 7
  575.8580 0.44 4
  576.3080 0.62 6
  576.4747 0.41 4
  576.6857 0.69 7
  577.0821 0.59 6
  577.4844 0.68 7
  578.1266 1.39 14
  578.6825 1.29 13
  579.2145 1.36 14
  579.3668 0.67 7
  580.3381 1.67 17
  582.4122 41.79 418
  583.3322 3.18 32
  583.6077 2.19 22
  583.6998 1.06 11
  584.3052 1.46 15
  585.3870 3.13 31
  585.7278 1.52 15
  586.0889 0.66 7
  586.6864 0.75 7
  587.2723 0.90 9
  587.7053 0.76 8
  587.8292 0.49 5
  588.3043 0.61 6
  589.0621 0.67 7
  589.6241 0.65 6
  590.0220 0.64 6
  590.3081 0.45 4
  590.4450 0.59 6
  590.6370 0.74 7
  590.9629 1.31 13
  591.1520 0.52 5
  591.5576 0.83 8
  592.1805 0.92 9
  592.7897 1.24 12
  592.9976 0.88 9
  593.4424 0.98 10
  593.7307 0.92 9
  594.1689 1.04 10
  594.6594 1.27 13
  595.1586 1.68 17
  596.5532 2.26 23
  600.3825 99.97 999
  601.0165 22.85 228
  601.6658 11.43 114
  602.5789 5.98 60
  603.0116 4.12 41
  603.7160 2.40 24
  604.3132 1.79 18
  604.7372 1.13 11
  605.1235 1.12 11
  605.6192 1.09 11
  605.9229 0.84 8
//
