ACCESSION: MSBNK-Kyoto_Univ-CA000135
RECORD_TITLE: 4'-Hydroxyechinenone; FAB-EBEB; MS2; m/z: 566.41; [M]*+
DATE: 2016.01.19 (Created 2007.03.15, modified 2011.05.10)
AUTHORS: Akimoto N, Graduate School of Pharmaceutical Sciences, Kyoto University and Maoka T, Research Institute for Production Development
LICENSE: CC BY-SA
COMMENT: Profile spectrum of this record is given as a JPEG file.
COMMENT: [Profile] CA000135.jpg
CH$NAME: 4'-Hydroxyechinenone
CH$COMPOUND_CLASS: Natural Product; Carotenoid
CH$FORMULA: C40H54O2
CH$EXACT_MASS: 566.41238
CH$SMILES: C(C(C)=1)(=O)CCC(C(C=CC(C)=CC=CC(=CC=CC=C(C)C=CC=C(C)C=CC(=C2C)C(CCC(O)2)(C)C)C)1)(C)C
CH$IUPAC: InChI=1S/C40H54O2/c1-29(17-13-19-31(3)21-23-35-33(5)37(41)25-27-39(35,7)8)15-11-12-16-30(2)18-14-20-32(4)22-24-36-34(6)38(42)26-28-40(36,9)10/h11-24,37,41H,25-28H2,1-10H3/b12-11+,17-13+,18-14+,23-21+,24-22+,29-15+,30-16+,31-19+,32-20+
CH$LINK: CHEMSPIDER 9932373
CH$LINK: PUBCHEM CID:11757672
CH$LINK: INCHIKEY RONAGRFBGGXGHB-DKLMTRRASA-N
AC$INSTRUMENT: JMS-HX/HX 110A, JEOL
AC$INSTRUMENT_TYPE: FAB-EBEB
AC$MASS_SPECTROMETRY: MS_TYPE MS2
AC$MASS_SPECTROMETRY: ION_MODE POSITIVE
AC$MASS_SPECTROMETRY: ATOM_GUN_CURRENT 5 mA
AC$MASS_SPECTROMETRY: BOMBARDMENT 6 kV xenon
AC$MASS_SPECTROMETRY: COLLISION_ENERGY 3 kV
AC$MASS_SPECTROMETRY: COLLISION_GAS Ar
AC$MASS_SPECTROMETRY: GAS_PRESSURE adjust to attenuate the intensity of the precursor ion by 30 %
AC$MASS_SPECTROMETRY: IONIZATION FAB
AC$MASS_SPECTROMETRY: MATRIX 1-2 uL m-NBA
AC$MASS_SPECTROMETRY: PROBE_TIP stainless-steel
MS$FOCUSED_ION: BASE_PEAK 566.2897
MS$FOCUSED_ION: PRECURSOR_M/Z 566.41
MS$FOCUSED_ION: PRECURSOR_TYPE [M]+*
PK$SPLASH: splash10-014i-1920020000-0e88951888716c05158f
PK$NUM_PEAK: 1670
PK$PEAK: m/z int. rel.int.
  1.0088 0.06 1
  3.8237 0.01 0
  4.9013 0.01 0
  9.1086 0.01 0
  13.9786 0.02 0
  14.9747 0.20 2
  21.2379 0.01 0
  22.9226 0.07 1
  24.6325 0.02 0
  24.9553 0.07 1
  25.9592 0.49 5
  26.9556 2.33 23
  27.9736 0.39 4
  28.9700 1.29 13
  29.5221 0.01 0
  29.9833 0.06 1
  30.9305 0.18 2
  35.9273 0.08 1
  36.9344 0.18 2
  37.5033 0.01 0
  37.9470 0.38 4
  38.0990 0.02 0
  38.9488 2.63 26
  39.2328 0.07 1
  39.9659 0.20 2
  40.9602 2.59 26
  41.9542 0.11 1
  42.9503 2.32 23
  43.9012 0.05 0
  44.9528 0.07 1
  48.4120 0.03 0
  48.9875 0.09 1
  49.9285 0.38 4
  50.9500 1.04 10
  51.9508 0.14 1
  52.7621 0.02 0
  52.9613 0.55 5
  53.9599 0.12 1
  54.4854 0.01 0
  54.9648 2.73 27
  55.9684 0.30 3
  56.7569 0.02 0
  56.9856 0.43 4
  58.1415 0.02 0
  58.9802 0.29 3
  59.8259 0.01 0
  60.7722 0.02 0
  60.9431 0.12 1
  61.9116 0.14 1
  62.1030 0.02 0
  62.7295 0.06 1
  62.9320 1.04 10
  63.2295 0.11 1
  63.7361 0.03 0
  63.9578 0.11 1
  64.9365 1.47 15
  65.9510 0.42 4
  66.4345 0.04 0
  66.7412 0.08 1
  66.9616 2.36 24
  67.3354 0.03 0
  67.9603 0.05 0
  68.9757 6.13 61
  69.9925 0.17 2
  70.9702 0.92 9
  71.3076 0.01 0
  72.6035 0.01 0
  72.8182 0.03 0
  72.9233 0.14 1
  73.5956 0.05 0
  73.6952 0.07 1
  73.8980 0.34 3
  74.6573 0.12 1
  74.9203 0.62 6
  75.3635 0.03 0
  75.8972 0.44 4
  76.5677 0.10 1
  76.9189 7.42 74
  77.2227 0.12 1
  77.4295 0.07 1
  77.5810 0.10 1
  77.7040 0.07 1
  77.9315 1.23 12
  78.5243 0.07 1
  78.9361 5.30 53
  79.7476 0.02 0
  79.9529 0.53 5
  80.0703 0.05 0
  80.9545 8.61 86
  81.1670 0.08 1
  81.6438 0.01 0
  81.7736 0.02 0
  81.9447 0.29 3
  82.1679 0.01 0
  82.7435 0.10 1
  82.9743 2.18 22
  83.8649 0.02 0
  83.9823 0.10 1
  84.6440 0.04 0
  84.7450 0.10 1
  84.9467 0.37 4
  85.3859 0.02 0
  85.8371 0.35 3
  86.0655 0.09 1
  86.6769 0.08 1
  86.8974 0.61 6
  87.1731 0.04 0
  87.3586 0.03 0
  87.5675 0.03 0
  87.8874 0.13 1
  88.1692 0.03 0
  88.3953 0.03 0
  88.5646 0.06 1
  88.9069 1.69 17
  89.1845 0.16 2
  89.3330 0.06 1
  89.4587 0.13 1
  89.6452 0.05 0
  89.9137 0.51 5
  90.1052 0.14 1
  90.2565 0.06 1
  90.4801 0.11 1
  90.9145 23.08 231
  91.1825 0.02 0
  91.3595 0.10 1
  91.7228 0.22 2
  91.9557 2.06 21
  92.3285 0.08 1
  92.4442 0.02 0
  92.9556 14.92 149
  93.2637 0.03 0
  93.6207 0.09 1
  93.7700 0.17 2
  93.9631 1.26 13
  94.1812 0.09 1
  94.3593 0.12 1
  94.4547 0.11 1
  94.9639 11.40 114
  95.3183 0.05 0
  95.4267 0.05 0
  95.7162 0.07 1
  95.9564 0.93 9
  96.4379 0.01 0
  96.7274 0.07 1
  96.9748 3.34 33
  97.1509 0.04 0
  97.3686 0.03 0
  97.7462 0.18 2
  97.9189 0.29 3
  98.5899 0.05 0
  98.8788 0.29 3
  99.0119 0.46 5
  99.0991 0.10 1
  99.9247 0.05 0
  100.4513 0.02 0
  100.5799 0.10 1
  100.6760 0.12 1
  100.7745 0.12 1
  100.9359 0.77 8
  101.3099 0.07 1
  101.8835 1.51 15
  102.1638 0.10 1
  102.2675 0.07 1
  102.3904 0.19 2
  102.9139 5.66 57
  103.2807 0.12 1
  103.4174 0.17 2
  103.5474 0.10 1
  103.9412 3.19 32
  104.1693 0.23 2
  104.9482 33.97 339
  105.1822 0.17 2
  105.3561 0.05 0
  105.5325 0.14 1
  105.9588 3.01 30
  106.2467 0.05 0
  106.3680 0.01 0
  106.9664 14.96 150
  107.3020 0.06 1
  107.5221 0.15 1
  107.6347 0.02 0
  107.7535 0.19 2
  107.9608 1.35 13
  108.1967 0.01 0
  108.9661 7.85 78
  109.3640 0.06 1
  109.4308 0.02 0
  109.6304 0.09 1
  109.9488 0.84 8
  110.1762 0.04 0
  110.3186 0.05 0
  110.5086 0.07 1
  110.6280 0.08 1
  110.9544 3.03 30
  111.2240 0.08 1
  111.3304 0.04 0
  111.5126 0.06 1
  111.9334 0.17 2
  112.3545 0.09 1
  112.6172 0.10 1
  112.9478 1.31 13
  113.1449 0.11 1
  113.3552 0.19 2
  113.5084 0.16 2
  113.8708 0.83 8
  114.0594 0.11 1
  114.2442 0.18 2
  114.4272 0.13 1
  114.8921 19.04 190
  115.2679 0.23 2
  115.8941 5.63 56
  116.2276 0.19 2
  116.9027 14.63 146
  117.1654 0.11 1
  117.3574 0.16 2
  117.6063 0.29 3
  117.9425 2.98 30
  118.1385 0.08 1
  118.9389 35.62 356
  119.2169 0.17 2
  119.9285 3.23 32
  120.1612 0.04 0
  120.3540 0.19 2
  120.9449 17.23 172
  121.1525 0.22 2
  121.2783 0.26 3
  121.4600 0.11 1
  121.9118 2.04 20
  122.3748 0.08 1
  122.6089 0.34 3
  122.9488 8.58 86
  123.1430 0.21 2
  123.3194 0.03 0
  123.5640 0.14 1
  123.7309 0.05 0
  123.9483 1.14 11
  124.1580 0.07 1
  124.5854 0.13 1
  124.9242 1.13 11
  125.4114 0.10 1
  125.5973 0.16 2
  125.8759 1.32 13
  126.0823 0.11 1
  126.3336 0.18 2
  126.8849 7.17 72
  127.8870 22.30 223
  128.0959 0.49 5
  128.3061 0.26 3
  128.8871 23.56 235
  129.4005 0.09 1
  129.9199 9.18 92
  130.1666 0.33 3
  130.3285 0.25 2
  130.9199 23.15 231
  131.1598 0.19 2
  131.4075 0.09 1
  131.5555 0.18 2
  131.9321 5.55 55
  132.2431 0.06 1
  132.9203 26.65 266
  133.2839 0.13 1
  133.4187 0.17 2
  133.4877 0.08 1
  133.6000 0.13 1
  133.9258 2.52 25
  134.1975 0.04 0
  134.3434 0.06 1
  134.9312 11.04 110
  135.3599 0.20 2
  135.9216 1.31 13
  136.1876 0.04 0
  136.5088 0.13 1
  136.9344 9.00 90
  137.1619 0.05 0
  137.3136 0.03 0
  137.4971 0.27 3
  137.5976 0.10 1
  137.9485 1.76 18
  138.1314 0.10 1
  138.3293 0.17 2
  138.9370 8.35 83
  139.1428 0.11 1
  139.2922 0.06 1
  139.5222 0.20 2
  139.6399 0.19 2
  139.9239 1.49 15
  140.8780 20.43 204
  141.2353 0.31 3
  141.3864 0.24 2
  141.9073 17.02 170
  142.3465 0.20 2
  142.9149 29.82 298
  143.2515 0.18 2
  143.3761 0.06 1
  143.9327 10.42 104
  144.1194 0.35 3
  144.2226 0.17 2
  144.3048 0.09 1
  144.9319 27.98 280
  145.3462 0.33 3
  145.5038 0.23 2
  145.9426 3.93 39
  146.1774 0.10 1
  146.2735 0.06 1
  146.4332 0.19 2
  146.9404 16.45 164
  147.2672 0.09 1
  147.3798 0.06 1
  147.5003 0.11 1
  147.6418 0.35 3
  147.9452 2.63 26
  148.2847 0.08 1
  148.5069 0.28 3
  148.9555 5.90 59
  149.3288 0.13 1
  149.5584 0.14 1
  149.6726 0.10 1
  149.9404 1.26 13
  150.1939 0.09 1
  150.4651 0.22 2
  150.8954 2.73 27
  151.3102 0.30 3
  151.5212 0.57 6
  151.9072 9.05 90
  152.2841 0.19 2
  152.8902 11.31 113
  153.2773 0.09 1
  153.4696 0.16 2
  153.9156 5.34 53
  154.1746 0.08 1
  154.3578 0.13 1
  154.9300 20.94 209
  155.3179 0.16 2
  155.9546 13.17 132
  156.2239 0.15 1
  156.9629 27.54 275
  157.3369 0.31 3
  157.6336 0.42 4
  157.9694 6.02 60
  158.1916 0.16 2
  158.3549 0.33 3
  158.9761 17.52 175
  159.2832 0.19 2
  159.4632 0.16 2
  159.9803 3.24 32
  160.2009 0.11 1
  160.4626 0.18 2
  160.9861 9.16 92
  161.2287 0.20 2
  161.4249 0.16 2
  161.5204 0.09 1
  161.6291 0.10 1
  161.9906 2.07 21
  162.1405 0.26 3
  162.5273 0.28 3
  162.9899 6.58 66
  163.1898 0.37 4
  163.3206 0.21 2
  163.9628 1.71 17
  164.1582 0.30 3
  164.9252 19.03 190
  165.3002 0.15 1
  165.9434 6.38 64
  166.9531 14.74 147
  167.2142 0.20 2
  167.9760 6.64 66
  168.1979 0.19 2
  168.3580 0.10 1
  168.9748 18.94 189
  169.4249 0.25 2
  169.6217 0.21 2
  169.9882 7.73 77
  170.9865 14.92 149
  171.2308 0.32 3
  171.5164 0.22 2
  171.9907 4.52 45
  172.2952 0.22 2
  172.3865 0.14 1
  172.9850 10.95 109
  173.2650 0.14 1
  173.4477 0.18 2
  173.6291 0.09 1
  173.9987 2.29 23
  174.3569 0.11 1
  174.9830 6.81 68
  175.4917 0.28 3
  175.9626 2.09 21
  176.1704 0.18 2
  176.3408 0.06 1
  176.4216 0.05 0
  176.9790 3.69 37
  177.2297 0.39 4
  177.3347 0.14 1
  177.9165 9.17 92
  178.2081 0.24 2
  178.9382 15.80 158
  179.1711 0.29 3
  179.5092 0.41 4
  179.9626 8.15 81
  180.2412 0.27 3
  180.9555 15.69 157
  181.2947 0.10 1
  181.9497 6.73 67
  182.2998 0.16 2
  182.9620 15.08 151
  183.3358 0.18 2
  183.5338 0.24 2
  183.7063 0.48 5
  183.9897 3.63 36
  184.1992 0.10 1
  184.9642 8.71 87
  185.3869 0.04 0
  185.9683 1.92 19
  186.2238 0.23 2
  186.9649 6.23 62
  187.3181 0.14 1
  187.5395 0.18 2
  187.6505 0.26 3
  187.9689 1.27 13
  188.2078 0.19 2
  188.9404 6.37 64
  189.2711 0.29 3
  189.5318 0.27 3
  189.9697 2.32 23
  190.3673 0.32 3
  190.9478 10.10 101
  191.3867 0.13 1
  191.9324 6.48 65
  192.1901 0.09 1
  192.2927 0.10 1
  192.9385 11.82 118
  193.3017 0.12 1
  193.4989 0.15 1
  193.9635 6.31 63
  194.1695 0.17 2
  194.9653 14.87 149
  195.2275 0.20 2
  195.4526 0.24 2
  195.9643 4.60 46
  196.2111 0.31 3
  196.4302 0.10 1
  196.5729 0.35 3
  196.9815 12.07 121
  197.3996 0.13 1
  197.5931 0.31 3
  197.9816 3.02 30
  198.3051 0.07 1
  198.5313 0.28 3
  198.6437 0.13 1
  198.9843 7.00 70
  199.5112 0.16 2
  199.9495 2.48 25
  200.3337 0.31 3
  200.4909 0.26 3
  200.9674 5.31 53
  201.4698 0.32 3
  201.9276 4.54 45
  202.1873 0.24 2
  202.9465 8.15 81
  203.2349 0.11 1
  203.3822 0.14 1
  203.6279 0.37 4
  203.9477 1.82 18
  204.3102 0.07 1
  204.6009 0.46 5
  204.9738 7.44 74
  205.3861 0.10 1
  205.9453 4.96 50
  206.9480 9.88 99
  207.3253 0.11 1
  207.4852 0.15 1
  207.6804 0.05 0
  207.9858 4.31 43
  208.4103 0.26 3
  208.9819 11.19 112
  209.2528 0.15 1
  209.4726 0.14 1
  209.9764 3.13 31
  210.2270 0.20 2
  210.9939 5.56 56
  211.2296 0.25 2
  211.4879 0.28 3
  211.9805 1.44 14
  212.3029 0.17 2
  212.4359 0.22 2
  212.9976 5.52 55
  213.3665 0.07 1
  213.4811 0.09 1
  213.7218 0.21 2
  214.0117 1.03 10
  214.1714 0.43 4
  214.3815 0.31 3
  214.5384 0.28 3
  214.9751 7.00 70
  215.3096 0.14 1
  215.4939 0.39 4
  215.9909 2.73 27
  216.2961 0.09 1
  216.5521 0.23 2
  216.9886 5.54 55
  217.3329 0.39 4
  217.4176 0.11 1
  217.5802 0.31 3
  217.9594 2.79 28
  218.2929 0.13 1
  218.9757 5.65 56
  219.5022 0.24 2
  220.0048 3.35 33
  221.0111 7.72 77
  221.2465 0.18 2
  221.4429 0.23 2
  221.6571 0.14 1
  222.0288 3.21 32
  222.4628 0.21 2
  223.0147 5.98 60
  223.2770 0.11 1
  223.5366 0.23 2
  223.6914 0.21 2
  224.0270 1.68 17
  224.4265 0.24 2
  225.0350 4.11 41
  225.2975 0.29 3
  225.5319 0.19 2
  225.9789 1.63 16
  226.6393 0.33 3
  227.0405 3.28 33
  227.3972 0.18 2
  227.5152 0.10 1
  227.6922 0.13 1
  228.0106 1.79 18
  228.1814 0.46 5
  228.3227 0.19 2
  228.5636 0.27 3
  229.0050 4.04 40
  229.4828 0.13 1
  230.0093 1.62 16
  230.4263 0.12 1
  230.6420 0.40 4
  231.0140 4.04 40
  231.4599 0.13 1
  231.7312 0.43 4
  232.0231 2.46 25
  232.3658 0.10 1
  232.5618 0.31 3
  233.0135 4.40 44
  233.3528 0.03 0
  233.6078 0.15 1
  234.0385 2.14 21
  234.3814 0.11 1
  234.5446 0.25 2
  235.0330 4.06 41
  235.4583 0.26 3
  235.6855 0.07 1
  236.0244 1.83 18
  236.2248 0.24 2
  237.0094 4.40 44
  237.3506 0.23 2
  237.5175 0.26 3
  238.0270 0.94 9
  238.4336 0.13 1
  239.0092 4.00 40
  239.2833 0.08 1
  239.5101 0.25 2
  239.9993 1.18 12
  240.4296 0.10 1
  241.0118 3.22 32
  241.3336 0.10 1
  241.5873 0.22 2
  242.0006 1.32 13
  242.2571 0.19 2
  242.3981 0.09 1
  242.5116 0.19 2
  242.7331 0.19 2
  243.0289 3.19 32
  243.3584 0.28 3
  243.5752 0.04 0
  244.0066 1.32 13
  244.2812 0.11 1
  244.4671 0.28 3
  245.0095 3.60 36
  245.3165 0.07 1
  245.4191 0.11 1
  245.6718 0.22 2
  246.0244 1.47 15
  246.4224 0.18 2
  246.5774 0.13 1
  247.0252 4.89 49
  247.3986 0.18 2
  247.7162 0.19 2
  248.0214 1.60 16
  248.3247 0.18 2
  248.5376 0.06 1
  248.7072 0.29 3
  249.0401 3.16 32
  249.3634 0.14 1
  249.9915 1.21 12
  250.4522 0.10 1
  250.7426 0.18 2
  251.0433 2.70 27
  251.3930 0.10 1
  251.6165 0.32 3
  252.0146 1.35 13
  252.5273 0.19 2
  252.6702 0.29 3
  253.0367 3.17 32
  253.4453 0.18 2
  253.6427 0.04 0
  254.0183 0.86 9
  254.3980 0.08 1
  254.5955 0.13 1
  255.0243 3.00 30
  255.3502 0.12 1
  255.9946 1.07 11
  256.4119 0.30 3
  256.6184 0.09 1
  257.0171 2.93 29
  257.3750 0.05 0
  257.5602 0.17 2
  257.6929 0.23 2
  257.8519 0.31 3
  258.0537 0.90 9
  258.3329 0.03 0
  258.6074 0.15 1
  258.7588 0.23 2
  259.0395 2.76 28
  259.3658 0.07 1
  259.6127 0.23 2
  260.0504 1.23 12
  260.2351 0.21 2
  260.5533 0.15 1
  261.0430 3.12 31
  261.3135 0.13 1
  261.6069 0.11 1
  262.0622 1.03 10
  262.2269 0.20 2
  262.5127 0.32 3
  262.6864 0.34 3
  263.0636 2.30 23
  263.4098 0.16 2
  263.5759 0.15 1
  264.0252 0.53 5
  265.0023 1.89 19
  265.5945 0.10 1
  265.6790 0.10 1
  266.0254 1.06 11
  266.4467 0.21 2
  266.6192 0.39 4
  266.7148 0.32 3
  267.0592 2.77 28
  267.3434 0.17 2
  267.6005 0.11 1
  267.7973 0.23 2
  268.0482 0.96 10
  268.3331 0.07 1
  268.5321 0.14 1
  268.7782 0.39 4
  269.0687 2.13 21
  269.3391 0.12 1
  269.5396 0.23 2
  269.6457 0.08 1
  269.7885 0.10 1
  270.0847 1.42 14
  270.6146 0.19 2
  270.7603 0.41 4
  271.0551 1.54 15
  271.3409 0.11 1
  271.4609 0.08 1
  272.0800 0.55 5
  272.2614 0.16 2
  272.5114 0.13 1
  273.0654 2.12 21
  273.3895 0.11 1
  273.5003 0.04 0
  273.8293 0.04 0
  274.0662 0.78 8
  274.2816 0.08 1
  274.4604 0.08 1
  274.6772 0.10 1
  274.8026 0.16 2
  275.0763 2.00 20
  275.4553 0.04 0
  275.7048 0.24 2
  276.0527 0.65 6
  276.2758 0.15 1
  276.3812 0.13 1
  276.6342 0.25 2
  277.0245 1.48 15
  277.5021 0.14 1
  277.6762 0.13 1
  278.0388 0.81 8
  278.2080 0.36 4
  278.3224 0.12 1
  278.4466 0.17 2
  279.0520 1.50 15
  279.3378 0.08 1
  279.6000 0.24 2
  280.0634 0.81 8
  280.4152 0.18 2
  280.6698 0.20 2
  281.0716 1.86 19
  281.4783 0.15 1
  281.7302 0.15 1
  282.0654 0.89 9
  282.3473 0.04 0
  282.6951 0.32 3
  283.0894 2.23 22
  283.3692 0.09 1
  283.5456 0.16 2
  283.6324 0.07 1
  283.7198 0.05 0
  284.0205 0.61 6
  284.1844 0.23 2
  284.5588 0.22 2
  284.6776 0.15 1
  284.7873 0.22 2
  285.0492 1.51 15
  285.7890 0.03 0
  286.0433 0.46 5
  286.3942 0.06 1
  286.6665 0.11 1
  287.0640 1.68 17
  287.3094 0.27 3
  287.4386 0.39 4
  287.6402 0.16 2
  288.0238 0.58 6
  288.2925 0.02 0
  288.4119 0.02 0
  288.6292 0.18 2
  288.7348 0.26 3
  289.0626 1.35 13
  289.4362 0.06 1
  289.5647 0.10 1
  289.7904 0.18 2
  290.0217 0.37 4
  290.1710 0.04 0
  290.3085 0.08 1
  290.4190 0.05 0
  290.5656 0.17 2
  290.7115 0.18 2
  291.0366 1.03 10
  291.3562 0.06 1
  291.5341 0.02 0
  291.6487 0.07 1
  291.9969 0.32 3
  292.1393 0.24 2
  292.5848 0.04 0
  293.0699 0.96 10
  293.4126 0.16 2
  293.5878 0.03 0
  293.7247 0.09 1
  294.0654 0.79 8
  294.1655 0.35 3
  295.0548 0.99 10
  295.2989 0.17 2
  295.3824 0.09 1
  295.6056 0.08 1
  295.7690 0.16 2
  296.0924 0.80 8
  296.4082 0.15 1
  296.6204 0.16 2
  296.9800 0.60 6
  297.1422 0.50 5
  297.5770 0.19 2
  297.8797 0.26 3
  298.0320 0.30 3
  298.2791 0.06 1
  298.6570 0.12 1
  299.0307 1.03 10
  299.3105 0.06 1
  299.5311 0.11 1
  299.7045 0.10 1
  300.0100 0.34 3
  300.1723 0.12 1
  300.3170 0.16 2
  300.4354 0.05 0
  300.5649 0.08 1
  301.0377 1.25 12
  302.0391 0.58 6
  302.1644 0.15 1
  302.4193 0.04 0
  302.7446 0.21 2
  303.0504 0.92 9
  303.3492 0.12 1
  303.6195 0.11 1
  303.7867 0.12 1
  304.0348 0.16 2
  304.1727 0.24 2
  304.4222 0.13 1
  304.5936 0.09 1
  305.0723 1.07 11
  305.6027 0.05 0
  305.8055 0.11 1
  305.9665 0.44 4
  306.0927 0.30 3
  306.1840 0.22 2
  306.4105 0.09 1
  306.6789 0.06 1
  306.8455 0.12 1
  307.0400 1.09 11
  307.1495 0.32 3
  307.3349 0.09 1
  307.4744 0.03 0
  307.7086 0.03 0
  308.0113 0.38 4
  308.2267 0.11 1
  308.5440 0.11 1
  308.6877 0.26 3
  309.0525 0.96 10
  309.2184 0.15 1
  309.4117 0.12 1
  309.8651 0.03 0
  310.0450 0.32 3
  310.2145 0.12 1
  310.4050 0.10 1
  310.5599 0.09 1
  310.6757 0.22 2
  311.0538 0.70 7
  311.3253 0.12 1
  311.5193 0.17 2
  311.9435 0.18 2
  312.1340 0.20 2
  312.2464 0.03 0
  312.5214 0.14 1
  313.0686 0.73 7
  313.5439 0.07 1
  313.8099 0.11 1
  314.1059 0.19 2
  314.3447 0.08 1
  314.4990 0.10 1
  314.6666 0.08 1
  315.0394 1.16 12
  315.4556 0.04 0
  315.5799 0.06 1
  316.0450 0.31 3
  316.4054 0.11 1
  316.4836 0.06 1
  316.6841 0.09 1
  317.0389 0.74 7
  317.6439 0.12 1
  317.8256 0.14 1
  318.1148 0.28 3
  318.2357 0.09 1
  318.4292 0.06 1
  319.0916 0.78 8
  320.0645 0.33 3
  320.3273 0.10 1
  321.0179 0.49 5
  321.2192 0.19 2
  321.3989 0.07 1
  321.5038 0.14 1
  321.6345 0.06 1
  322.0876 0.33 3
  322.9574 0.30 3
  323.1071 0.24 2
  323.4190 0.11 1
  323.6812 0.05 0
  323.9372 0.17 2
  324.1548 0.16 2
  324.6647 0.16 2
  325.0921 0.41 4
  325.3118 0.01 0
  325.6819 0.07 1
  326.0268 0.25 2
  326.1856 0.16 2
  326.6062 0.12 1
  327.0352 0.72 7
  327.2241 0.27 3
  327.4236 0.02 0
  327.6867 0.13 1
  328.0710 0.25 2
  328.6484 0.07 1
  328.8802 0.37 4
  329.1308 0.44 4
  329.6223 0.10 1
  329.7574 0.11 1
  329.9226 0.26 3
  330.1068 0.21 2
  330.5192 0.09 1
  330.6165 0.05 0
  330.7419 0.13 1
  331.0115 0.58 6
  331.1606 0.57 6
  331.4384 0.13 1
  331.5370 0.04 0
  331.8260 0.05 0
  332.0206 0.22 2
  332.2718 0.03 0
  332.4825 0.08 1
  333.0746 0.96 10
  333.1887 0.44 4
  333.6590 0.05 0
  334.1589 0.61 6
  334.3157 0.21 2
  334.5957 0.07 1
  334.7525 0.07 1
  335.1103 0.91 9
  335.5388 0.11 1
  335.7013 0.03 0
  336.0703 0.45 4
  336.2503 0.17 2
  336.4051 0.10 1
  336.5003 0.12 1
  336.6544 0.05 0
  336.9562 0.27 3
  337.1096 0.37 4
  337.2595 0.17 2
  337.7744 0.09 1
  338.1365 0.29 3
  338.2626 0.10 1
  338.4426 0.11 1
  338.6668 0.11 1
  338.7642 0.02 0
  339.0612 0.52 5
  339.7921 0.04 0
  339.8936 0.06 1
  340.0485 0.30 3
  340.3141 0.04 0
  340.4346 0.06 1
  340.6119 0.13 1
  340.7170 0.13 1
  340.8166 0.16 2
  341.0976 0.50 5
  341.4761 0.10 1
  341.9331 0.04 0
  342.0992 0.24 2
  342.2695 0.24 2
  342.6039 0.12 1
  342.7960 0.07 1
  343.1003 0.50 5
  343.2727 0.13 1
  343.3744 0.05 0
  343.8112 0.03 0
  344.1436 0.24 2
  344.5201 0.11 1
  344.6835 0.05 0
  344.8146 0.16 2
  345.1372 0.67 7
  345.7326 0.06 1
  345.8287 0.09 1
  346.1233 0.68 7
  346.2734 0.16 2
  346.6803 0.25 2
  347.1166 0.60 6
  347.3888 0.12 1
  347.5859 0.09 1
  347.7866 0.16 2
  348.1500 0.88 9
  348.4012 0.10 1
  348.6215 0.14 1
  349.1443 0.91 9
  349.3183 0.29 3
  349.4860 0.13 1
  349.8882 0.10 1
  350.0797 0.07 1
  350.2910 0.14 1
  350.8111 0.18 2
  351.1431 0.33 3
  351.6991 0.05 0
  351.9083 0.10 1
  352.1561 0.13 1
  352.4460 0.09 1
  352.5556 0.06 1
  352.8125 0.20 2
  353.0772 0.26 3
  354.0470 0.07 1
  354.1938 0.06 1
  354.3349 0.06 1
  354.5652 0.04 0
  354.6727 0.11 1
  354.7661 0.04 0
  355.0576 0.11 1
  355.1960 0.11 1
  355.3441 0.15 1
  355.7080 0.06 1
  355.9243 0.15 1
  356.1772 0.19 2
  356.5945 0.10 1
  356.8102 0.13 1
  357.0919 0.40 4
  357.2872 0.19 2
  357.5261 0.02 0
  357.7242 0.14 1
  358.0144 0.05 0
  358.2418 0.22 2
  358.4259 0.13 1
  358.5903 0.09 1
  358.8388 0.26 3
  359.1488 0.48 5
  359.8228 0.11 1
  360.1497 0.45 4
  360.2834 0.24 2
  360.6306 0.06 1
  360.7258 0.10 1
  360.8525 0.18 2
  361.1535 0.54 5
  361.4714 0.05 0
  362.1834 0.58 6
  362.3354 0.25 2
  362.7121 0.11 1
  362.8689 0.04 0
  363.1994 1.47 15
  363.8738 0.13 1
  364.1358 0.43 4
  364.3158 0.05 0
  364.6807 0.10 1
  365.0568 0.22 2
  365.2648 0.15 1
  365.8379 0.11 1
  366.0382 0.12 1
  366.3317 0.04 0
  366.5868 0.10 1
  366.9308 0.15 1
  367.1353 0.13 1
  367.5130 0.05 0
  368.0988 0.17 2
  368.3391 0.11 1
  368.5802 0.07 1
  369.1661 0.42 4
  369.9132 0.06 1
  370.1712 0.43 4
  370.6471 0.11 1
  370.8805 0.08 1
  371.1308 0.30 3
  371.7982 0.11 1
  372.0071 0.18 2
  372.1944 0.22 2
  372.3522 0.12 1
  372.5374 0.10 1
  372.6349 0.09 1
  373.1436 0.71 7
  373.3064 0.15 1
  373.4650 0.02 0
  373.8236 0.06 1
  374.0545 0.34 3
  374.2495 0.28 3
  374.9099 0.24 2
  375.0419 0.39 4
  375.2117 0.33 3
  375.3282 0.23 2
  375.5872 0.08 1
  375.7248 0.11 1
  376.1207 0.32 3
  376.4590 0.06 1
  377.1245 0.23 2
  377.6398 0.06 1
  378.0035 0.02 0
  378.2198 0.15 1
  378.6740 0.03 0
  379.0118 0.16 2
  379.1852 0.07 1
  379.3046 0.05 0
  380.0181 0.14 1
  380.7393 0.12 1
  381.0624 0.28 3
  381.2437 0.19 2
  381.8302 0.18 2
  381.9482 0.14 1
  382.1877 0.11 1
  382.4223 0.11 1
  382.6324 0.14 1
  383.0883 0.28 3
  383.2604 0.15 1
  383.7769 0.04 0
  384.0846 0.26 3
  384.1626 0.13 1
  384.5104 0.11 1
  384.6284 0.10 1
  384.8673 0.19 2
  385.1899 0.29 3
  385.6347 0.10 1
  386.0887 0.26 3
  386.2124 0.23 2
  386.8112 0.09 1
  386.9546 0.06 1
  387.1613 0.22 2
  387.4994 0.07 1
  387.9127 0.23 2
  388.2649 0.24 2
  388.4983 0.08 1
  388.7043 0.06 1
  389.0178 0.10 1
  389.2393 0.17 2
  389.5542 0.08 1
  389.8917 0.10 1
  390.1006 0.14 1
  390.3051 0.12 1
  390.5970 0.09 1
  390.7946 0.16 2
  391.1286 0.26 3
  391.2784 0.13 1
  391.9676 0.12 1
  392.0963 0.12 1
  392.2967 0.09 1
  392.4345 0.10 1
  392.5365 0.07 1
  392.9065 0.04 0
  393.0394 0.13 1
  394.0031 0.14 1
  394.1923 0.07 1
  394.2831 0.03 0
  394.4604 0.02 0
  395.0569 0.52 5
  395.2272 0.24 2
  395.5023 0.07 1
  396.0666 0.16 2
  396.1918 0.05 0
  396.5035 0.09 1
  396.7406 0.06 1
  397.0890 0.29 3
  397.2008 0.20 2
  397.3402 0.10 1
  397.8117 0.07 1
  397.9461 0.10 1
  398.2346 0.17 2
  398.6928 0.10 1
  398.8737 0.19 2
  399.1397 0.20 2
  399.3361 0.02 0
  399.7176 0.06 1
  400.1118 0.46 5
  400.3814 0.07 1
  400.8087 0.10 1
  401.1614 0.55 5
  402.1753 0.39 4
  402.5787 0.13 1
  402.6625 0.07 1
  402.8568 0.11 1
  403.1399 0.25 2
  403.2385 0.07 1
  403.3477 0.07 1
  403.7695 0.11 1
  404.0874 0.21 2
  404.2744 0.30 3
  404.9266 0.15 1
  405.0672 0.18 2
  405.3005 0.15 1
  405.4460 0.09 1
  405.9775 0.05 0
  406.1392 0.20 2
  407.5059 0.13 1
  408.2251 0.24 2
  408.4741 0.08 1
  408.8256 0.10 1
  408.9494 0.12 1
  409.0471 0.05 0
  409.2011 0.15 1
  409.5415 0.09 1
  410.1329 0.10 1
  410.2251 0.11 1
  410.3636 0.02 0
  410.5422 0.08 1
  411.0240 0.26 3
  411.2139 0.12 1
  411.3750 0.11 1
  411.9546 0.22 2
  412.1072 0.12 1
  412.2036 0.10 1
  412.3372 0.11 1
  412.7523 0.10 1
  413.1533 0.51 5
  413.5662 0.11 1
  413.7217 0.19 2
  414.2156 0.32 3
  414.6223 0.09 1
  414.7560 0.08 1
  415.1894 0.51 5
  415.7769 0.05 0
  415.9085 0.04 0
  416.1266 0.26 3
  416.2920 0.11 1
  416.4518 0.05 0
  417.0781 0.19 2
  417.7587 0.10 1
  418.1493 0.09 1
  418.2739 0.05 0
  418.5618 0.04 0
  418.7103 0.18 2
  419.0791 0.20 2
  419.2389 0.11 1
  419.7253 0.10 1
  420.1632 0.30 3
  420.5722 0.03 0
  420.6769 0.04 0
  420.9005 0.12 1
  421.0193 0.21 2
  421.2126 0.30 3
  421.4502 0.22 2
  422.0850 0.05 0
  422.1919 0.07 1
  422.6636 0.15 1
  422.7831 0.17 2
  422.9238 0.08 1
  423.0855 0.18 2
  423.2120 0.12 1
  423.5903 0.04 0
  423.8188 0.10 1
  423.9496 0.10 1
  424.1845 0.06 1
  424.3315 0.13 1
  424.6423 0.10 1
  425.3062 0.20 2
  425.3990 0.11 1
  425.6536 0.05 0
  425.8294 0.11 1
  426.1388 0.35 3
  426.3217 0.14 1
  426.9238 0.17 2
  427.1847 0.47 5
  427.3669 0.12 1
  427.4724 0.16 2
  427.6497 0.06 1
  427.9444 0.10 1
  428.2145 0.71 7
  428.3587 0.31 3
  428.5747 0.16 2
  429.0524 0.29 3
  429.1980 0.37 4
  429.5202 0.14 1
  429.6905 0.05 0
  430.1112 0.08 1
  430.2554 0.04 0
  430.5650 0.08 1
  430.7184 0.17 2
  430.9773 0.11 1
  431.1779 0.12 1
  431.5121 0.18 2
  431.9730 0.03 0
  432.3115 0.09 1
  432.6486 0.18 2
  432.8168 0.13 1
  432.9336 0.05 0
  433.1025 0.10 1
  433.3685 0.10 1
  433.9661 0.20 2
  434.1871 0.31 3
  434.3152 0.04 0
  434.6678 0.09 1
  434.8853 0.05 0
  435.0831 0.12 1
  435.2274 0.11 1
  435.6265 0.06 1
  435.8180 0.11 1
  435.8912 0.04 0
  436.3030 0.17 2
  436.3868 0.10 1
  436.6395 0.06 1
  436.7986 0.04 0
  436.9985 0.12 1
  437.1900 0.14 1
  437.3337 0.09 1
  437.4505 0.11 1
  437.6146 0.12 1
  437.7899 0.17 2
  437.9187 0.12 1
  438.2314 0.43 4
  438.3841 0.25 2
  438.4947 0.16 2
  438.8151 0.77 8
  438.9833 0.53 5
  439.1882 0.29 3
  439.3784 0.43 4
  439.6748 0.37 4
  439.9199 0.15 1
  440.0910 0.23 2
  440.3269 0.10 1
  440.6769 0.09 1
  440.7755 0.11 1
  441.0713 0.08 1
  441.2340 0.12 1
  441.7988 0.10 1
  442.0165 0.07 1
  442.1735 0.14 1
  442.4715 0.09 1
  442.6962 0.06 1
  443.0497 0.24 2
  443.2611 0.33 3
  443.5344 0.10 1
  443.7006 0.12 1
  443.8190 0.14 1
  444.0493 0.39 4
  444.1811 0.08 1
  444.3529 0.05 0
  444.4995 0.03 0
  444.6326 0.13 1
  445.0560 0.04 0
  445.1687 0.18 2
  445.2674 0.03 0
  445.5640 0.04 0
  446.0945 0.12 1
  446.2918 0.06 1
  446.3841 0.10 1
  446.6638 0.11 1
  446.9978 0.11 1
  447.1803 0.17 2
  447.4939 0.09 1
  447.9561 0.05 0
  448.6615 0.05 0
  448.7701 0.03 0
  449.0498 0.05 0
  449.2845 0.15 1
  449.5093 0.08 1
  450.0901 0.06 1
  450.4538 0.13 1
  450.6293 0.21 2
  450.7096 0.04 0
  451.0959 0.20 2
  451.3179 0.19 2
  451.7373 0.07 1
  451.8818 0.11 1
  452.0165 0.07 1
  452.1835 0.18 2
  452.8645 0.04 0
  452.9822 0.12 1
  453.2220 0.23 2
  453.3918 0.13 1
  453.5484 0.04 0
  453.7070 0.06 1
  453.9848 0.05 0
  454.2252 0.16 2
  454.3881 0.10 1
  455.1481 0.09 1
  455.3847 0.10 1
  455.6639 0.08 1
  456.0796 0.11 1
  456.2709 0.20 2
  456.5480 0.11 1
  456.6950 0.32 3
  456.8695 0.17 2
  457.1107 0.06 1
  457.6031 0.07 1
  457.9485 0.06 1
  458.2095 0.04 0
  458.3397 0.07 1
  458.8054 0.22 2
  458.9601 0.08 1
  459.1416 0.11 1
  459.3210 0.32 3
  459.6404 0.07 1
  459.9331 0.15 1
  460.0858 0.11 1
  460.3440 0.40 4
  460.6642 0.10 1
  460.8949 0.13 1
  461.2615 0.14 1
  461.6957 0.18 2
  461.9286 0.06 1
  462.3466 0.19 2
  462.5352 0.08 1
  462.6379 0.05 0
  462.9722 0.07 1
  463.1502 0.15 1
  463.3614 0.09 1
  463.6077 0.07 1
  463.9518 0.05 0
  464.1411 0.09 1
  464.5339 0.07 1
  464.7126 0.01 0
  465.0230 0.04 0
  465.2088 0.04 0
  465.6079 0.12 1
  465.7452 0.12 1
  465.9535 0.19 2
  466.1943 0.45 4
  466.3857 0.31 3
  466.4582 0.12 1
  467.0305 0.31 3
  467.2516 0.32 3
  467.4121 0.20 2
  467.5972 0.08 1
  467.8831 0.22 2
  468.0710 0.44 4
  468.2794 0.69 7
  469.1848 0.10 1
  469.8417 0.01 0
  470.0748 0.20 2
  470.2628 0.22 2
  470.5761 0.01 0
  470.7261 0.05 0
  471.2232 0.09 1
  471.3774 0.07 1
  471.5373 0.15 1
  471.7661 0.07 1
  472.1422 0.23 2
  472.2563 0.14 1
  472.3830 0.35 3
  472.6767 0.13 1
  472.8823 0.06 1
  473.0591 0.10 1
  473.2155 0.24 2
  473.3471 0.18 2
  473.7084 0.54 5
  474.2374 8.89 89
  474.5734 0.33 3
  474.7184 0.30 3
  474.9368 0.27 3
  475.1439 0.12 1
  475.3418 0.23 2
  475.5130 0.16 2
  475.7997 0.11 1
  476.0786 0.10 1
  476.2308 0.12 1
  476.6076 0.11 1
  476.7936 0.04 0
  476.9972 0.10 1
  477.1149 0.13 1
  477.2924 0.15 1
  477.5474 0.01 0
  477.9701 0.13 1
  478.1709 0.03 0
  478.3160 0.08 1
  478.6218 0.09 1
  479.1700 0.23 2
  479.4032 0.10 1
  479.5011 0.12 1
  479.7343 0.04 0
  479.8154 0.02 0
  479.9316 0.05 0
  480.0768 0.13 1
  480.2691 0.10 1
  480.6151 0.07 1
  481.0724 0.09 1
  481.2267 0.20 2
  481.6453 0.06 1
  481.7968 0.04 0
  482.1414 0.12 1
  482.2909 0.27 3
  483.1813 0.09 1
  483.3341 0.04 0
  484.0575 0.10 1
  484.3244 0.13 1
  484.7484 0.05 0
  485.2281 0.05 0
  485.5254 0.13 1
  486.0403 0.13 1
  486.2650 0.58 6
  486.8103 0.08 1
  487.2203 0.53 5
  487.6543 0.04 0
  487.8480 0.18 2
  488.2066 0.09 1
  488.6371 0.05 0
  488.7654 0.05 0
  489.2107 0.06 1
  489.8215 0.07 1
  490.5487 0.06 1
  491.1470 0.02 0
  491.3217 0.25 2
  491.6847 0.11 1
  491.8418 0.05 0
  492.0807 0.27 3
  492.1632 0.15 1
  492.3521 0.10 1
  493.0807 0.10 1
  493.3401 0.11 1
  493.4367 0.11 1
  494.2056 0.15 1
  494.3938 0.20 2
  494.7230 0.10 1
  495.1254 0.13 1
  495.2382 0.12 1
  495.3475 0.02 0
  496.0072 0.13 1
  496.1694 0.05 0
  496.3668 0.07 1
  496.7679 0.11 1
  497.0414 0.11 1
  497.1880 0.10 1
  497.3805 0.04 0
  497.5299 0.06 1
  497.6695 0.12 1
  498.0953 0.09 1
  498.2666 0.07 1
  498.4352 0.14 1
  499.3009 0.09 1
  499.5928 0.03 0
  500.4396 0.03 0
  500.6857 0.11 1
  501.0094 0.05 0
  501.1412 0.07 1
  501.7744 0.11 1
  502.0333 0.04 0
  502.8379 0.05 0
  503.0875 0.11 1
  503.2773 0.18 2
  504.3041 0.16 2
  504.7717 0.12 1
  504.9593 0.06 1
  505.1949 0.10 1
  505.4615 0.22 2
  506.0744 0.04 0
  506.3376 0.11 1
  506.9547 0.02 0
  507.1403 0.27 3
  507.2426 0.11 1
  507.4803 0.14 1
  507.7117 0.05 0
  508.2055 0.22 2
  508.3741 0.13 1
  508.5004 0.18 2
  509.2177 0.23 2
  509.4619 0.20 2
  509.9658 0.10 1
  510.2910 0.35 3
  510.8583 0.08 1
  510.9610 0.11 1
  511.3953 0.05 0
  511.5959 0.10 1
  511.7649 0.10 1
  512.4392 0.11 1
  513.5219 0.11 1
  513.6887 0.10 1
  514.9193 0.12 1
  515.0122 0.09 1
  515.1425 0.10 1
  515.8845 0.10 1
  516.1894 0.10 1
  516.7787 0.18 2
  516.9794 0.12 1
  517.0822 0.22 2
  517.2294 0.14 1
  517.4188 0.09 1
  517.5483 0.09 1
  517.6652 0.06 1
  517.7568 0.08 1
  518.1497 0.10 1
  518.5151 0.07 1
  518.6722 0.07 1
  518.9841 0.16 2
  519.1777 0.34 3
  519.3066 0.12 1
  519.6362 0.03 0
  519.8763 0.18 2
  520.2228 0.12 1
  520.3989 0.08 1
  520.6038 0.12 1
  520.7736 0.12 1
  521.0504 0.11 1
  521.3926 0.12 1
  521.5342 0.16 2
  522.2096 0.48 5
  522.3857 0.25 2
  522.6484 0.12 1
  522.8337 0.02 0
  523.1218 0.12 1
  523.2661 0.22 2
  523.4035 0.04 0
  523.4993 0.05 0
  523.6528 0.05 0
  523.8683 0.12 1
  524.1874 0.21 2
  524.3410 0.10 1
  524.7123 0.11 1
  524.8531 0.10 1
  524.9637 0.03 0
  525.1469 0.13 1
  525.4209 0.28 3
  525.7372 0.14 1
  525.9183 0.12 1
  526.0204 0.11 1
  526.1402 0.11 1
  526.4142 0.16 2
  526.5657 0.12 1
  526.9144 0.25 2
  527.0398 0.13 1
  527.1815 0.07 1
  527.3836 0.25 2
  527.4837 0.22 2
  527.6232 0.18 2
  527.7563 0.11 1
  528.1016 0.17 2
  528.3094 0.21 2
  528.6096 0.33 3
  528.8280 0.03 0
  529.0549 0.15 1
  529.1979 0.11 1
  529.4156 0.24 2
  529.8201 0.13 1
  529.9920 0.10 1
  530.1449 0.26 3
  530.4606 0.19 2
  530.6473 0.10 1
  530.7770 0.12 1
  530.9003 0.05 0
  531.0257 0.15 1
  531.1864 0.16 2
  531.4069 0.13 1
  531.6832 0.19 2
  531.7868 0.10 1
  532.1955 0.33 3
  532.5380 0.23 2
  532.8002 0.23 2
  533.1843 0.96 10
  533.6198 0.12 1
  533.8707 0.13 1
  534.1477 0.38 4
  534.2830 0.18 2
  534.4141 0.20 2
  534.6150 0.06 1
  535.0886 0.47 5
  535.2141 0.36 4
  535.2972 0.23 2
  535.3853 0.07 1
  535.6497 0.10 1
  536.2333 0.59 6
  536.4504 0.45 4
  536.7549 0.34 3
  537.2780 2.88 29
  537.9532 0.58 6
  538.3987 0.92 9
  538.7717 0.57 6
  539.0600 0.46 5
  539.3829 0.70 7
  539.5796 0.49 5
  539.8250 0.59 6
  540.3135 0.25 2
  540.5399 0.79 8
  540.8917 0.83 8
  541.5572 1.17 12
  542.4266 0.86 9
  542.7446 0.52 5
  542.9702 0.70 7
  543.2170 1.05 10
  543.3411 0.66 7
  544.1006 1.17 12
  544.4835 1.22 12
  545.1365 1.46 15
  547.9667 22.73 227
  548.9344 1.60 16
  549.3223 1.71 17
  549.8196 0.91 9
  550.2456 1.92 19
  551.1923 6.33 63
  551.6360 0.78 8
  551.9111 0.86 9
  552.2356 0.86 9
  552.4651 0.81 8
  552.7578 0.72 7
  553.0406 0.66 7
  553.2349 0.67 7
  553.6057 0.91 9
  554.0659 0.76 8
  554.3776 0.98 10
  554.6211 1.16 12
  554.9005 0.85 8
  555.3058 1.04 10
  555.5268 0.94 9
  555.6655 0.44 4
  555.9955 0.86 9
  556.1672 0.88 9
  556.4191 0.88 9
  556.7169 0.80 8
  556.9379 0.71 7
  557.4544 1.10 11
  557.9661 1.07 11
  558.7572 1.86 19
  566.2897 99.96 999
  567.3051 26.04 260
  568.1508 12.59 126
  568.9943 7.01 70
  569.7028 3.67 37
  570.3239 1.99 20
  571.1183 1.44 14
  571.4563 0.77 8
  571.7817 1.06 11
  572.2895 0.84 8
  572.8057 0.85 8
  572.9494 0.41 4
  573.1713 0.28 3
  573.4720 0.44 4
  573.8009 0.46 5
//
