ACCESSION: MSBNK-Kyoto_Univ-CA000139
RECORD_TITLE: 7,8-Didehydroastaxanthin; FAB-EBEB; MS2; m/z: 594.37; [M]*+
DATE: 2016.01.19 (Created 2007.03.15, modified 2011.05.10)
AUTHORS: Akimoto N, Graduate School of Pharmaceutical Sciences, Kyoto University and Maoka T, Research Institute for Production Development
LICENSE: CC BY-SA
COMMENT: Profile spectrum of this record is given as a JPEG file.
COMMENT: [Profile] CA000139.jpg
CH$NAME: 7,8-Didehydroastaxanthin
CH$COMPOUND_CLASS: Natural Product; Carotenoid
CH$FORMULA: C40H50O4
CH$EXACT_MASS: 594.37091
CH$SMILES: CC(=C1C=CC(=CC=CC(C)=CC=CC=C(C=CC=C(C#CC(C(C)(C)2)=C(C)C(=O)C(O)C2)C)C)C)C(=O)C(O)CC1(C)C
CH$IUPAC: InChI=1S/C40H50O4/c1-27(17-13-19-29(3)21-23-33-31(5)37(43)35(41)25-39(33,7)8)15-11-12-16-28(2)18-14-20-30(4)22-24-34-32(6)38(44)36(42)26-40(34,9)10/h11-21,23,35-36,41-42H,25-26H2,1-10H3/b12-11+,17-13+,18-14+,23-21+,27-15+,28-16+,29-19+,30-20+/t35-,36-/m0/s1
CH$LINK: CHEMSPIDER 4947693
CH$LINK: PUBCHEM CID:6443726
CH$LINK: INCHIKEY BZQRJBLJDFPOBX-AKKQMVQHSA-N
AC$INSTRUMENT: JMS-HX/HX 110A, JEOL
AC$INSTRUMENT_TYPE: FAB-EBEB
AC$MASS_SPECTROMETRY: MS_TYPE MS2
AC$MASS_SPECTROMETRY: ION_MODE POSITIVE
AC$MASS_SPECTROMETRY: ATOM_GUN_CURRENT 5 mA
AC$MASS_SPECTROMETRY: BOMBARDMENT 6 kV xenon
AC$MASS_SPECTROMETRY: COLLISION_ENERGY 3 kV
AC$MASS_SPECTROMETRY: COLLISION_GAS Ar
AC$MASS_SPECTROMETRY: GAS_PRESSURE adjust to attenuate the intensity of the precursor ion by 30 %
AC$MASS_SPECTROMETRY: IONIZATION FAB
AC$MASS_SPECTROMETRY: MATRIX 1-2 uL m-NBA
AC$MASS_SPECTROMETRY: PROBE_TIP stainless-steel
MS$FOCUSED_ION: BASE_PEAK 594.2877
MS$FOCUSED_ION: PRECURSOR_M/Z 594.37
MS$FOCUSED_ION: PRECURSOR_TYPE [M]+*
PK$SPLASH: splash10-0006-3952160000-fac680b77546677c096e
PK$NUM_PEAK: 1839
PK$PEAK: m/z int. rel.int.
  0.0071 0.01 0
  0.0798 0.01 0
  0.5514 0.02 0
  2.1456 0.01 0
  2.4659 0.01 0
  4.6192 0.01 0
  5.4987 0.01 0
  5.9185 0.01 0
  11.0556 0.01 0
  12.8189 0.01 0
  13.4147 0.01 0
  14.9678 0.09 1
  16.0592 0.01 0
  18.9609 0.07 1
  20.7808 0.01 0
  21.9066 0.02 0
  22.9188 0.42 4
  25.9307 0.21 2
  26.9464 2.05 20
  27.9567 0.49 5
  28.9484 1.66 17
  29.9229 0.10 1
  30.9193 0.35 3
  31.9134 0.07 1
  32.1627 0.01 0
  32.5677 0.01 0
  35.5366 0.03 0
  35.8869 0.01 0
  36.9172 0.46 5
  36.9888 0.09 1
  37.7847 0.04 0
  37.9208 1.30 13
  38.6042 0.01 0
  38.9256 6.49 65
  39.6419 0.10 1
  39.9196 0.97 10
  40.9409 9.42 94
  41.9437 0.73 7
  42.9267 8.62 86
  43.9246 0.40 4
  44.9363 0.29 3
  45.9347 0.07 1
  46.9224 0.06 1
  47.7295 0.01 0
  48.9046 0.24 2
  49.9155 2.87 29
  50.9157 6.38 64
  51.9201 2.36 24
  52.9298 6.41 64
  53.9269 0.69 7
  54.9337 9.01 90
  55.9442 0.96 10
  56.1294 0.01 0
  56.9468 2.64 26
  57.9150 0.17 2
  58.9422 0.69 7
  59.8333 0.15 1
  59.9628 0.08 1
  60.9043 0.51 5
  61.5111 0.09 1
  61.9091 2.31 23
  62.1149 0.05 0
  62.2438 0.02 0
  62.9192 5.81 58
  63.0559 0.13 1
  63.2044 0.03 0
  63.6207 0.02 0
  63.7426 0.11 1
  63.9236 1.31 13
  64.1435 0.12 1
  64.3783 0.07 1
  64.9248 6.19 62
  65.9216 1.47 15
  66.1854 0.05 0
  66.6238 0.08 1
  66.9384 5.39 54
  67.9317 0.73 7
  68.9333 5.70 57
  69.2220 0.07 1
  69.4729 0.05 0
  69.9376 0.70 7
  70.9178 1.82 18
  71.9356 0.11 1
  72.1008 0.04 0
  72.8977 0.51 5
  73.2538 0.02 0
  73.5398 0.05 0
  73.8938 1.70 17
  74.9032 2.58 26
  75.1316 0.12 1
  75.3555 0.05 0
  75.5479 0.06 1
  75.7057 0.08 1
  75.9101 1.83 18
  76.1263 0.06 1
  76.1962 0.04 0
  76.3703 0.03 0
  76.5533 0.09 1
  76.6345 0.09 1
  76.9078 13.11 131
  77.1353 0.08 1
  77.3169 0.03 0
  77.4733 0.05 0
  77.9027 4.23 42
  78.1847 0.15 1
  78.3670 0.16 2
  78.4599 0.08 1
  78.6814 0.13 1
  78.9238 7.81 78
  79.9194 1.68 17
  80.4633 0.04 0
  80.9281 6.81 68
  81.2449 0.06 1
  81.4509 0.10 1
  81.9188 1.31 13
  82.4316 0.08 1
  82.9146 2.76 28
  83.8946 0.44 4
  84.6011 0.06 1
  84.6993 0.08 1
  84.9308 2.89 29
  85.0707 0.22 2
  85.9076 1.17 12
  86.4024 0.12 1
  86.8820 1.10 11
  87.9002 0.79 8
  88.1044 0.02 0
  88.6555 0.13 1
  88.9070 3.22 32
  89.0842 0.17 2
  89.3043 0.13 1
  89.4744 0.09 1
  89.9034 2.06 21
  90.1501 0.23 2
  90.3010 0.08 1
  90.5309 0.21 2
  90.9194 15.85 158
  91.3278 0.01 0
  91.5055 0.03 0
  91.9175 3.20 32
  92.3527 0.15 1
  92.4547 0.10 1
  92.9309 5.94 59
  93.9381 1.13 11
  94.9431 2.30 23
  95.2945 0.04 0
  95.9086 0.38 4
  96.9295 0.99 10
  97.7960 0.31 3
  97.9146 0.29 3
  98.8732 0.40 4
  99.0644 0.04 0
  99.9085 0.42 4
  100.3449 0.15 1
  100.5441 0.10 1
  100.9254 0.60 6
  101.1080 0.15 1
  101.2043 0.03 0
  101.6242 0.07 1
  101.9280 1.53 15
  102.1811 0.08 1
  102.3987 0.24 2
  102.4877 0.06 1
  102.5925 0.22 2
  102.9269 3.71 37
  103.6316 0.10 1
  103.9309 1.56 16
  104.5085 0.15 1
  104.6086 0.06 1
  104.9355 13.56 136
  105.9464 2.68 27
  106.2249 0.07 1
  106.5154 0.03 0
  106.9427 4.90 49
  107.9397 0.79 8
  108.9472 2.93 29
  109.2150 0.06 1
  109.3119 0.03 0
  109.3923 0.02 0
  109.9101 0.67 7
  110.9026 1.05 10
  111.4523 0.10 1
  111.6583 0.03 0
  111.9471 0.45 4
  112.1602 0.09 1
  112.3652 0.03 0
  112.5027 0.10 1
  112.5817 0.04 0
  112.9468 0.69 7
  113.1730 0.02 0
  113.3930 0.11 1
  113.5078 0.06 1
  113.6539 0.11 1
  113.9155 0.95 9
  114.1051 0.24 2
  114.2552 0.18 2
  114.4244 0.12 1
  114.9146 12.53 125
  115.3187 0.09 1
  115.5177 0.11 1
  115.9158 5.28 53
  116.2348 0.16 2
  116.3783 0.14 1
  116.4981 0.12 1
  116.9263 7.85 78
  117.1797 0.03 0
  117.6109 0.05 0
  117.9230 1.99 20
  118.1009 0.11 1
  118.4338 0.03 0
  118.9276 10.27 103
  119.2248 0.06 1
  119.4301 0.04 0
  119.6310 0.03 0
  119.9150 3.15 31
  120.4092 0.11 1
  120.9271 3.98 40
  121.2561 0.10 1
  121.6157 0.08 1
  121.9180 1.17 12
  122.4596 0.11 1
  122.9000 1.70 17
  123.6210 0.04 0
  123.7952 0.36 4
  123.9403 0.97 10
  124.7025 0.14 1
  124.9347 1.26 13
  125.2442 0.11 1
  125.3818 0.09 1
  125.9007 1.53 15
  126.1625 0.06 1
  126.3997 0.13 1
  126.8958 4.45 44
  127.0948 0.26 3
  127.2569 0.13 1
  127.4677 0.14 1
  127.8916 12.77 128
  128.1528 0.24 2
  128.4493 0.09 1
  128.9037 11.32 113
  129.1339 0.22 2
  129.2102 0.12 1
  129.3472 0.25 2
  129.9040 5.04 50
  130.2037 0.13 1
  130.5931 0.13 1
  130.9141 6.68 67
  131.3875 0.18 2
  131.9006 2.53 25
  132.2960 0.14 1
  132.5783 0.09 1
  132.9145 4.33 43
  133.2953 0.20 2
  133.9073 1.77 18
  134.1495 0.05 0
  134.3313 0.11 1
  134.8586 6.03 60
  135.4047 0.08 1
  135.8518 5.01 50
  136.8515 4.50 45
  137.0972 0.03 0
  137.5369 0.02 0
  137.8626 0.89 9
  138.0889 0.01 0
  138.3719 0.10 1
  138.8591 3.06 31
  139.2884 0.05 0
  139.4648 0.09 1
  139.8573 1.76 18
  140.1892 0.33 3
  140.3969 0.17 2
  140.4928 0.08 1
  140.8884 9.16 92
  141.2319 0.11 1
  141.3226 0.11 1
  141.4451 0.32 3
  141.8961 7.51 75
  142.2771 0.06 1
  142.4335 0.11 1
  142.5190 0.10 1
  142.9082 9.90 99
  143.2372 0.10 1
  143.3407 0.10 1
  143.5372 0.15 1
  143.9069 4.75 47
  144.2203 0.14 1
  144.3903 0.13 1
  144.5683 0.17 2
  144.9079 5.73 57
  145.1863 0.11 1
  145.6884 0.12 1
  145.9285 2.07 21
  146.2678 0.04 0
  146.4162 0.04 0
  146.5840 0.13 1
  146.9216 3.10 31
  147.2586 0.01 0
  147.8823 0.57 6
  148.5244 0.18 2
  148.8826 2.00 20
  149.3211 0.23 2
  149.5434 0.08 1
  149.8920 1.30 13
  150.0563 0.12 1
  150.1992 0.08 1
  150.3155 0.06 1
  150.4611 0.09 1
  150.8822 2.48 25
  151.2693 0.25 2
  151.3750 0.13 1
  151.5228 0.12 1
  151.8881 7.78 78
  152.2442 0.44 4
  152.4269 0.31 3
  152.9037 8.31 83
  153.3009 0.04 0
  153.8927 5.09 51
  154.1402 0.07 1
  154.2776 0.12 1
  154.4594 0.21 2
  154.8974 7.87 79
  155.2082 0.12 1
  155.9185 4.71 47
  156.4129 0.19 2
  156.5668 0.18 2
  156.9345 7.31 73
  157.2673 0.12 1
  157.4845 0.05 0
  157.6197 0.11 1
  157.9399 3.04 30
  158.3517 0.12 1
  158.4998 0.08 1
  158.9462 3.78 38
  159.3173 0.17 2
  159.5060 0.04 0
  159.9440 1.18 12
  160.2776 0.08 1
  160.3579 0.06 1
  160.9365 2.17 22
  161.5282 0.06 1
  161.9447 0.80 8
  162.1236 0.03 0
  162.3687 0.08 1
  162.5991 0.28 3
  162.9287 2.57 26
  163.1619 0.15 1
  163.4038 0.06 1
  163.9291 1.94 19
  164.0996 0.19 2
  164.3661 0.06 1
  164.5535 0.19 2
  164.9351 11.74 117
  165.2661 0.13 1
  165.9276 7.51 75
  166.3029 0.13 1
  166.4764 0.19 2
  166.9366 6.53 65
  167.3481 0.14 1
  167.9435 4.29 43
  168.2271 0.13 1
  168.4144 0.11 1
  168.5278 0.03 0
  168.9635 7.22 72
  169.4355 0.19 2
  169.5244 0.13 1
  169.6202 0.08 1
  169.9676 4.16 42
  170.3138 0.10 1
  170.4724 0.15 1
  170.6371 0.26 3
  170.9631 5.12 51
  171.3693 0.14 1
  171.6236 0.12 1
  171.9546 2.78 28
  172.3027 0.10 1
  172.4771 0.11 1
  172.5966 0.21 2
  172.9754 1.98 20
  173.2626 0.18 2
  173.4344 0.02 0
  173.9208 0.83 8
  174.2660 0.07 1
  174.4291 0.05 0
  174.5412 0.07 1
  174.9144 1.07 11
  175.5959 0.13 1
  175.9415 2.30 23
  176.2790 0.03 0
  176.5444 0.21 2
  176.9454 2.15 21
  177.1987 0.60 6
  177.9221 7.03 70
  178.9322 9.42 94
  179.2131 0.19 2
  179.4736 0.10 1
  179.9293 6.19 62
  180.2889 0.12 1
  180.4855 0.06 1
  180.9401 5.95 59
  181.4147 0.19 2
  181.9386 3.91 39
  182.3861 0.27 3
  182.5030 0.06 1
  182.9480 4.50 45
  183.2214 0.07 1
  183.3479 0.21 2
  183.9416 2.41 24
  184.4985 0.19 2
  184.9455 2.51 25
  185.2124 0.11 1
  185.4548 0.08 1
  185.6089 0.14 1
  185.9657 1.55 15
  186.3624 0.12 1
  186.5289 0.13 1
  186.9421 1.91 19
  187.3897 0.10 1
  187.9122 1.68 17
  188.2064 0.08 1
  188.4829 0.27 3
  188.9323 4.21 42
  189.2494 0.05 0
  189.9077 3.33 33
  190.1796 0.31 3
  190.3699 0.33 3
  190.9105 5.41 54
  191.2760 0.25 2
  191.4135 0.23 2
  191.9304 4.70 47
  192.2556 0.16 2
  192.3230 0.07 1
  192.4722 0.13 1
  192.9385 7.28 73
  193.2859 0.14 1
  193.4339 0.24 2
  193.5515 0.12 1
  193.9410 5.26 53
  194.2432 0.12 1
  194.9379 6.71 67
  195.2038 0.24 2
  195.3526 0.11 1
  195.9464 3.04 30
  196.1911 0.30 3
  196.4234 0.24 2
  196.5205 0.14 1
  196.9369 3.78 38
  197.1782 0.17 2
  197.3582 0.06 1
  197.9321 1.92 19
  198.2832 0.20 2
  198.3647 0.05 0
  198.5296 0.08 1
  198.9478 1.15 11
  199.2239 0.11 1
  199.3641 0.12 1
  199.5339 0.23 2
  199.9102 1.23 12
  200.1782 0.24 2
  200.2645 0.10 1
  200.4338 0.19 2
  200.9291 1.48 15
  201.2975 0.26 3
  201.9189 4.07 41
  202.1692 0.14 1
  202.4395 0.29 3
  202.9382 6.20 62
  203.3643 0.29 3
  203.9366 3.33 33
  204.4211 0.07 1
  204.5353 0.12 1
  204.9307 3.87 39
  205.2257 0.12 1
  205.3566 0.11 1
  205.5367 0.11 1
  205.9544 3.99 40
  206.2828 0.08 1
  206.5350 0.11 1
  206.9419 5.19 52
  207.3883 0.23 2
  207.9465 4.07 41
  208.3786 0.11 1
  208.9634 5.01 50
  209.2243 0.24 2
  209.4714 0.13 1
  209.9378 2.80 28
  210.2718 0.11 1
  210.5898 0.10 1
  210.9704 2.86 29
  211.6338 0.19 2
  211.9805 1.48 15
  212.9688 2.32 23
  213.3450 0.32 3
  213.9118 1.14 11
  214.3611 0.20 2
  214.5336 0.33 3
  214.9400 4.95 49
  215.2545 0.17 2
  215.3673 0.18 2
  215.9590 3.99 40
  216.1999 0.32 3
  216.3440 0.21 2
  216.4721 0.18 2
  216.9610 4.68 47
  217.2787 0.24 2
  217.4062 0.22 2
  217.5336 0.19 2
  217.9608 2.45 24
  218.2841 0.16 2
  218.3782 0.13 1
  218.9658 3.90 39
  219.9756 3.13 31
  220.2204 0.08 1
  220.3515 0.04 0
  220.4785 0.14 1
  220.9620 4.10 41
  221.2865 0.05 0
  221.4198 0.10 1
  221.9558 3.16 32
  222.3545 0.09 1
  222.5207 0.07 1
  223.0046 2.99 30
  223.2491 0.25 2
  223.4558 0.15 1
  223.9861 1.31 13
  224.3278 0.10 1
  224.4459 0.16 2
  224.6520 0.36 4
  225.0001 2.63 26
  225.4958 0.15 1
  225.9845 2.80 28
  226.3685 0.26 3
  226.9924 2.71 27
  227.1974 0.33 3
  227.3989 0.14 1
  227.6046 0.25 2
  227.9902 2.98 30
  228.2702 0.20 2
  228.4914 0.13 1
  228.9850 3.17 32
  229.3869 0.05 0
  229.5858 0.13 1
  229.9941 3.42 34
  230.5307 0.11 1
  230.6681 0.13 1
  231.0065 3.83 38
  231.2777 0.16 2
  231.4887 0.17 2
  232.0134 2.51 25
  232.2384 0.24 2
  232.4545 0.18 2
  233.0019 3.48 35
  233.3222 0.14 1
  233.4502 0.17 2
  234.0007 2.91 29
  234.3120 0.26 3
  234.4911 0.11 1
  234.7570 0.41 4
  235.0209 2.95 29
  235.3148 0.08 1
  235.4268 0.10 1
  235.5458 0.14 1
  236.0029 2.86 29
  236.4209 0.02 0
  236.6359 0.26 3
  237.0036 2.41 24
  237.4469 0.16 2
  237.6627 0.34 3
  238.0067 1.50 15
  238.3031 0.17 2
  238.6436 0.12 1
  239.0011 3.12 31
  239.3999 0.29 3
  239.5941 0.14 1
  239.9916 2.52 25
  240.3815 0.23 2
  240.5218 0.07 1
  240.9798 3.03 30
  241.3747 0.09 1
  241.5781 0.12 1
  241.9942 2.15 21
  242.3745 0.12 1
  242.6216 0.12 1
  243.0013 3.55 35
  243.2027 0.24 2
  243.3747 0.04 0
  243.6022 0.19 2
  244.0031 2.41 24
  244.4034 0.22 2
  245.0103 2.59 26
  245.4458 0.22 2
  246.0079 2.17 22
  246.2967 0.22 2
  246.3803 0.10 1
  246.5497 0.05 0
  247.0052 2.38 24
  247.5971 0.20 2
  247.7180 0.18 2
  248.0120 2.08 21
  248.3601 0.17 2
  248.5577 0.22 2
  248.9994 2.13 21
  249.4236 0.21 2
  249.6966 0.35 3
  250.0139 1.30 13
  250.3144 0.30 3
  250.9718 1.69 17
  251.4110 0.22 2
  251.5152 0.12 1
  251.9926 2.14 21
  252.3707 0.24 2
  252.4855 0.10 1
  252.5806 0.13 1
  252.9905 2.33 23
  253.3758 0.06 1
  253.4752 0.11 1
  253.6492 0.30 3
  253.9874 2.12 21
  254.3157 0.22 2
  254.7202 0.14 1
  255.0275 1.94 19
  255.1995 0.19 2
  255.5195 0.17 2
  255.7134 0.35 3
  255.9997 1.58 16
  256.2415 0.22 2
  256.4354 0.12 1
  256.7351 0.32 3
  257.0292 2.22 22
  257.3424 0.18 2
  257.5470 0.23 2
  257.9970 1.83 18
  258.3864 0.09 1
  258.6178 0.06 1
  259.0064 2.36 24
  259.2463 0.16 2
  259.5744 0.09 1
  260.0274 1.72 17
  260.3562 0.17 2
  260.5143 0.15 1
  260.7353 0.23 2
  261.0289 1.95 19
  261.2873 0.29 3
  261.4588 0.24 2
  262.0018 1.34 13
  262.3449 0.17 2
  262.5123 0.06 1
  262.7616 0.11 1
  263.0265 1.91 19
  263.4630 0.12 1
  263.9731 1.81 18
  264.3073 0.18 2
  264.4310 0.04 0
  265.0034 2.20 22
  265.3066 0.10 1
  265.5561 0.38 4
  265.7484 0.12 1
  266.0297 1.47 15
  266.9942 1.97 20
  267.1250 0.83 8
  267.6484 0.11 1
  268.0042 1.52 15
  268.4315 0.07 1
  269.0031 2.05 20
  269.4128 0.11 1
  269.6039 0.22 2
  269.9967 1.76 18
  270.3719 0.08 1
  270.4639 0.10 1
  270.9736 1.89 19
  271.2158 0.13 1
  271.4324 0.14 1
  271.6427 0.08 1
  272.0103 1.19 12
  272.3637 0.21 2
  273.0090 2.06 21
  273.3462 0.11 1
  273.5162 0.10 1
  273.6926 0.03 0
  274.0271 1.51 15
  274.4246 0.11 1
  274.6117 0.24 2
  275.0455 1.62 16
  275.2503 0.33 3
  275.4963 0.21 2
  276.0344 1.11 11
  276.5092 0.15 1
  276.7129 0.25 2
  277.0164 1.72 17
  277.4127 0.13 1
  277.7637 0.35 3
  278.0036 1.25 12
  278.1798 0.22 2
  278.3391 0.13 1
  278.5634 0.34 3
  278.9967 1.19 12
  279.3450 0.19 2
  279.5114 0.10 1
  280.0084 1.36 14
  280.3058 0.14 1
  280.5544 0.09 1
  280.7202 0.27 3
  281.0034 1.20 12
  281.1154 0.48 5
  281.5007 0.11 1
  282.0306 1.31 13
  282.3580 0.10 1
  282.4685 0.01 0
  282.6471 0.27 3
  283.0411 1.80 18
  283.2813 0.13 1
  283.4195 0.13 1
  283.5358 0.07 1
  283.7449 0.26 3
  284.0553 1.47 15
  284.3453 0.09 1
  284.4707 0.10 1
  285.0259 1.34 13
  285.7187 0.33 3
  286.0023 1.38 14
  286.2385 0.13 1
  286.5067 0.11 1
  286.9720 3.58 36
  287.3593 0.25 2
  287.9560 5.01 50
  288.4904 0.18 2
  288.9921 1.85 18
  289.2363 0.13 1
  289.4308 0.12 1
  289.6203 0.27 3
  290.0179 1.25 12
  290.3515 0.22 2
  290.6277 0.17 2
  291.0367 1.53 15
  291.2924 0.24 2
  291.5381 0.10 1
  291.6773 0.11 1
  292.0083 0.86 9
  292.2185 0.23 2
  292.3371 0.07 1
  292.5325 0.13 1
  292.6404 0.07 1
  293.0261 1.21 12
  293.5351 0.24 2
  293.6593 0.13 1
  294.0157 1.07 11
  294.2707 0.11 1
  294.4148 0.16 2
  294.5355 0.12 1
  294.7592 0.26 3
  295.0561 1.54 15
  295.3807 0.24 2
  296.0292 1.47 15
  296.4370 0.27 3
  296.6373 0.13 1
  297.0381 1.81 18
  297.4111 0.13 1
  298.0258 1.34 13
  298.4189 0.23 2
  298.5589 0.12 1
  298.7202 0.14 1
  299.0614 0.73 7
  299.3231 0.09 1
  299.4567 0.11 1
  300.0020 0.99 10
  300.1954 0.15 1
  300.4564 0.17 2
  300.6918 0.10 1
  300.9976 1.41 14
  301.1576 0.45 4
  301.2714 0.24 2
  301.4108 0.19 2
  301.5652 0.05 0
  302.0332 0.72 7
  302.2609 0.31 3
  302.3782 0.12 1
  302.5575 0.20 2
  302.9930 1.09 11
  303.2882 0.12 1
  303.4312 0.17 2
  303.5536 0.11 1
  303.9934 1.39 14
  304.4632 0.23 2
  304.9771 1.24 12
  305.7089 0.15 1
  306.0143 0.99 10
  306.3397 0.12 1
  306.9870 0.85 8
  307.2576 0.16 2
  307.4129 0.06 1
  307.5753 0.12 1
  307.6906 0.13 1
  307.9940 1.11 11
  308.2662 0.18 2
  308.3609 0.12 1
  308.7278 0.06 1
  309.0085 1.00 10
  309.4131 0.08 1
  309.5785 0.16 2
  309.7352 0.29 3
  310.0139 1.30 13
  310.1521 0.59 6
  310.3809 0.01 0
  310.5890 0.26 3
  311.0059 1.06 11
  311.1826 0.39 4
  311.5376 0.08 1
  311.9276 0.64 6
  312.1899 0.05 0
  312.7824 0.44 4
  313.0526 1.38 14
  313.3813 0.14 1
  313.9996 0.92 9
  314.5974 0.14 1
  315.0218 0.98 10
  315.1587 0.50 5
  315.2850 0.19 2
  315.4662 0.05 0
  315.9521 1.23 12
  316.1625 0.20 2
  316.2674 0.04 0
  316.4936 0.25 2
  316.5821 0.12 1
  317.0252 0.98 10
  317.3635 0.12 1
  317.7917 0.39 4
  318.0187 0.89 9
  318.3692 0.23 2
  318.6854 0.15 1
  319.0124 0.85 8
  319.3872 0.15 1
  319.6899 0.26 3
  320.0384 0.91 9
  320.5811 0.12 1
  320.9703 0.99 10
  321.3888 0.22 2
  321.5496 0.25 2
  321.7010 0.17 2
  321.9767 0.94 9
  322.2739 0.18 2
  322.3717 0.04 0
  322.5875 0.11 1
  322.9876 0.90 9
  323.1719 0.34 3
  323.3641 0.18 2
  323.4506 0.13 1
  324.0387 0.76 8
  324.1945 0.32 3
  324.4474 0.18 2
  325.0228 0.65 6
  325.1593 0.43 4
  325.3330 0.10 1
  325.5174 0.13 1
  325.6482 0.03 0
  325.9942 0.74 7
  326.1858 0.31 3
  326.3431 0.20 2
  326.6241 0.19 2
  326.6999 0.10 1
  327.0123 0.94 9
  327.2132 0.21 2
  327.6058 0.12 1
  327.9619 0.52 5
  328.2223 0.22 2
  328.4826 0.05 0
  328.6829 0.33 3
  329.0119 1.04 10
  329.1134 0.52 5
  329.2586 0.13 1
  329.5798 0.11 1
  329.9812 1.12 11
  330.2287 0.24 2
  330.5256 0.21 2
  330.6358 0.32 3
  331.0351 0.85 8
  331.4795 0.12 1
  331.6269 0.25 2
  332.0083 0.89 9
  332.5479 0.12 1
  333.0662 0.76 8
  333.2430 0.32 3
  333.5737 0.11 1
  333.9639 0.80 8
  334.2503 0.25 2
  334.6011 0.06 1
  334.7336 0.09 1
  335.1166 0.71 7
  335.2906 0.16 2
  335.5485 0.03 0
  336.0269 0.96 10
  336.2625 0.22 2
  336.7545 0.28 3
  337.0816 0.71 7
  337.5213 0.12 1
  337.8072 0.24 2
  338.0768 0.59 6
  338.3649 0.18 2
  338.5293 0.11 1
  338.8361 0.17 2
  339.0184 0.39 4
  339.2108 0.14 1
  339.3094 0.07 1
  339.4296 0.06 1
  339.7478 0.30 3
  339.9330 0.39 4
  340.1275 0.80 8
  340.2677 0.13 1
  340.6732 0.12 1
  340.8742 0.52 5
  341.1060 0.57 6
  341.5259 0.24 2
  341.6068 0.09 1
  341.9809 0.41 4
  342.1326 0.22 2
  342.5053 0.08 1
  342.5955 0.04 0
  342.8473 0.36 4
  343.0870 0.58 6
  343.2996 0.20 2
  343.5371 0.12 1
  344.0309 0.63 6
  344.1590 0.28 3
  344.4832 0.06 1
  344.7423 0.21 2
  345.0751 0.75 7
  345.5383 0.08 1
  345.6407 0.13 1
  345.8389 0.29 3
  346.1081 0.58 6
  346.8298 0.38 4
  347.0804 1.02 10
  347.3110 0.19 2
  347.5580 0.14 1
  347.7292 0.13 1
  348.0328 1.03 10
  348.1280 0.48 5
  348.5649 0.12 1
  349.0727 0.69 7
  349.4452 0.22 2
  349.7009 0.16 2
  350.0891 0.56 6
  350.3900 0.13 1
  350.5197 0.17 2
  350.6687 0.17 2
  351.0757 0.83 8
  351.4826 0.06 1
  351.9413 0.81 8
  352.0523 0.39 4
  352.2186 0.33 3
  352.5661 0.13 1
  352.7482 0.26 3
  352.8979 0.09 1
  353.1079 0.42 4
  353.2656 0.24 2
  353.5115 0.12 1
  353.7329 0.25 2
  353.9602 0.36 4
  354.1616 0.23 2
  354.3007 0.11 1
  354.7222 0.13 1
  355.0054 0.62 6
  355.1566 0.19 2
  355.5474 0.21 2
  355.7051 0.05 0
  356.0694 0.59 6
  356.1676 0.27 3
  356.3756 0.15 1
  357.0475 0.61 6
  357.3408 0.15 1
  357.5345 0.10 1
  357.8995 0.38 4
  358.0875 0.12 1
  358.2216 0.10 1
  358.3744 0.13 1
  359.0494 0.74 7
  359.2309 0.42 4
  359.3586 0.10 1
  359.6176 0.13 1
  360.0882 0.62 6
  360.2855 0.31 3
  360.4341 0.12 1
  360.8667 0.31 3
  361.1014 0.80 8
  361.4968 0.10 1
  362.1140 0.82 8
  362.2805 0.45 4
  362.6178 0.05 0
  363.0672 1.04 10
  363.1605 0.59 6
  363.2883 0.40 4
  363.7778 0.08 1
  364.0384 0.52 5
  364.2402 0.21 2
  365.0517 0.40 4
  365.2138 0.25 2
  365.9348 0.40 4
  366.1415 0.21 2
  366.4830 0.12 1
  366.7701 0.24 2
  367.0678 0.69 7
  367.2437 0.26 3
  367.8522 0.13 1
  368.0726 0.40 4
  368.2599 0.29 3
  368.4802 0.12 1
  368.5879 0.04 0
  369.1047 0.59 6
  369.2777 0.33 3
  369.3896 0.12 1
  369.8297 0.12 1
  370.0458 0.33 3
  370.1650 0.12 1
  370.6568 0.12 1
  370.9612 0.62 6
  371.1486 0.46 5
  371.4437 0.11 1
  372.1237 0.63 6
  372.2494 0.32 3
  372.7772 0.11 1
  372.8648 0.11 1
  373.1241 0.53 5
  373.5594 0.24 2
  373.6520 0.12 1
  373.7942 0.05 0
  373.9788 0.62 6
  374.0887 0.33 3
  374.2805 0.28 3
  374.4149 0.13 1
  374.8135 0.37 4
  375.0959 1.18 12
  375.2970 0.14 1
  375.5269 0.12 1
  375.6742 0.18 2
  375.9997 0.65 6
  376.2605 0.49 5
  376.5939 0.13 1
  376.8260 0.34 3
  377.1105 0.35 3
  377.3225 0.25 2
  377.9406 0.12 1
  378.1835 0.41 4
  378.5112 0.08 1
  378.7844 0.12 1
  379.0444 0.38 4
  379.2000 0.21 2
  379.6349 0.11 1
  379.9391 0.14 1
  380.1608 0.13 1
  380.6480 0.11 1
  380.9035 0.36 4
  381.1525 0.33 3
  381.3599 0.07 1
  381.5960 0.06 1
  381.9692 0.26 3
  382.1049 0.22 2
  382.2470 0.12 1
  382.3999 0.05 0
  382.5348 0.12 1
  382.8600 0.02 0
  383.1665 0.48 5
  383.5276 0.03 0
  383.6733 0.14 1
  384.0042 0.39 4
  384.1765 0.12 1
  384.4357 0.13 1
  385.0697 0.50 5
  385.2578 0.36 4
  385.5393 0.12 1
  385.7224 0.21 2
  386.0377 0.65 6
  386.2272 0.23 2
  386.3895 0.13 1
  386.7544 0.07 1
  386.8549 0.07 1
  387.1084 0.44 4
  387.3426 0.15 1
  387.8109 0.10 1
  388.1032 0.79 8
  388.2784 0.30 3
  388.6714 0.12 1
  388.8366 0.22 2
  389.1469 0.69 7
  389.3222 0.29 3
  389.7669 0.14 1
  389.9551 0.16 2
  390.2009 0.33 3
  390.5148 0.08 1
  390.6492 0.24 2
  390.7282 0.10 1
  390.8475 0.12 1
  391.1263 0.45 4
  391.3131 0.23 2
  391.7364 0.18 2
  392.0555 0.30 3
  392.2136 0.12 1
  392.7519 0.06 1
  393.0645 0.45 4
  393.2349 0.18 2
  393.5417 0.10 1
  393.7516 0.03 0
  393.9960 0.10 1
  394.1247 0.25 2
  394.2383 0.08 1
  394.5309 0.13 1
  394.6732 0.15 1
  394.9550 0.14 1
  395.1915 0.32 3
  395.5912 0.11 1
  395.8975 0.05 0
  396.0226 0.12 1
  396.2218 0.19 2
  396.7100 0.09 1
  397.0235 0.24 2
  397.4039 0.12 1
  397.6772 0.15 1
  397.8512 0.13 1
  398.0066 0.25 2
  398.2604 0.38 4
  398.6315 0.12 1
  398.7739 0.08 1
  399.0199 0.10 1
  399.1810 0.29 3
  399.2781 0.16 2
  399.4162 0.10 1
  399.7888 0.19 2
  400.0830 0.32 3
  400.3254 0.15 1
  400.7261 0.13 1
  401.0161 0.59 6
  401.1599 0.43 4
  401.2866 0.32 3
  402.0880 0.43 4
  402.2348 0.25 2
  402.4831 0.16 2
  403.0199 0.49 5
  403.2501 0.18 2
  403.5725 0.11 1
  403.9957 0.36 4
  404.1655 0.27 3
  404.2670 0.09 1
  404.7442 0.13 1
  405.0839 0.28 3
  405.3149 0.07 1
  405.7828 0.10 1
  406.0865 0.40 4
  406.3227 0.09 1
  406.6617 0.09 1
  406.9597 0.18 2
  407.0843 0.19 2
  407.4832 0.10 1
  407.6063 0.04 0
  407.9569 0.38 4
  408.0923 0.33 3
  408.3450 0.20 2
  408.4955 0.13 1
  408.5991 0.11 1
  408.8425 0.21 2
  409.1205 0.58 6
  409.6382 0.21 2
  410.0343 0.32 3
  410.2619 0.21 2
  410.5139 0.13 1
  411.1052 0.54 5
  411.2449 0.25 2
  412.0655 0.39 4
  412.6485 0.11 1
  412.7851 0.11 1
  412.9820 0.27 3
  413.1424 0.35 3
  413.2560 0.13 1
  413.5414 0.09 1
  413.6492 0.09 1
  414.0698 0.60 6
  414.5235 0.25 2
  414.6874 0.06 1
  415.1822 0.27 3
  415.3274 0.14 1
  415.5338 0.17 2
  415.9717 0.67 7
  416.1422 0.51 5
  416.3831 0.11 1
  416.7485 0.26 3
  416.8671 0.11 1
  417.0786 0.54 5
  417.2195 0.32 3
  417.7691 0.12 1
  417.9964 0.31 3
  418.3021 0.14 1
  418.4977 0.12 1
  418.6387 0.13 1
  418.9380 0.13 1
  419.1149 0.24 2
  419.5581 0.18 2
  419.9459 0.25 2
  420.0538 0.21 2
  420.2286 0.21 2
  420.4394 0.11 1
  421.0963 0.42 4
  421.2697 0.12 1
  421.4273 0.20 2
  421.9173 0.27 3
  422.1016 0.47 5
  422.3779 0.28 3
  422.5492 0.11 1
  422.7226 0.07 1
  422.9738 0.18 2
  423.1623 0.32 3
  423.2875 0.13 1
  423.4344 0.03 0
  423.7971 0.29 3
  424.1016 0.24 2
  424.3995 0.11 1
  424.9207 0.32 3
  425.2288 0.44 4
  425.3885 0.25 2
  425.5728 0.11 1
  425.8190 0.15 1
  425.9493 0.47 5
  426.1192 0.77 8
  426.2971 0.12 1
  426.8025 0.14 1
  427.1063 0.40 4
  427.3590 0.14 1
  427.7809 0.12 1
  428.0185 0.43 4
  428.2036 0.51 5
  428.5987 0.04 0
  429.0770 0.37 4
  429.2409 0.38 4
  429.9415 0.13 1
  430.1968 0.24 2
  430.5097 0.13 1
  430.7860 0.11 1
  430.9917 0.19 2
  431.2082 0.23 2
  431.3399 0.09 1
  431.5140 0.11 1
  431.8348 0.06 1
  432.0550 0.21 2
  432.2794 0.30 3
  432.7586 0.20 2
  433.0190 0.22 2
  433.1809 0.41 4
  433.8940 0.08 1
  434.2495 0.13 1
  434.4070 0.06 1
  434.7913 0.18 2
  435.0281 0.23 2
  435.1504 0.22 2
  435.2857 0.12 1
  435.7420 0.07 1
  436.0507 0.17 2
  437.0936 0.36 4
  437.2146 0.10 1
  437.4427 0.14 1
  437.6558 0.11 1
  437.8314 0.11 1
  438.0352 0.31 3
  438.1345 0.28 3
  438.2741 0.14 1
  438.4591 0.36 4
  438.6859 0.24 2
  438.8623 0.11 1
  438.9904 0.41 4
  439.1783 0.37 4
  439.3036 0.16 2
  439.4109 0.17 2
  440.0826 1.21 12
  441.0366 8.04 80
  441.3066 0.92 9
  441.5464 0.15 1
  442.0159 0.34 3
  442.2067 0.13 1
  442.2939 0.05 0
  442.7958 0.13 1
  442.8909 0.13 1
  443.2020 0.32 3
  443.9107 0.13 1
  444.1808 0.22 2
  444.6684 0.12 1
  445.1366 0.26 3
  446.0702 0.36 4
  446.2646 0.30 3
  446.7250 0.11 1
  447.0197 0.26 3
  447.2135 0.10 1
  447.6991 0.11 1
  448.0175 0.22 2
  448.2027 0.24 2
  448.3540 0.19 2
  448.6458 0.15 1
  448.8757 0.11 1
  449.0299 0.13 1
  449.2021 0.15 1
  449.3988 0.24 2
  450.0538 0.14 1
  450.2787 0.36 4
  450.6282 0.06 1
  450.8401 0.11 1
  451.0094 0.25 2
  451.4375 0.12 1
  451.9060 0.22 2
  452.0840 0.11 1
  452.2477 0.26 3
  452.4365 0.16 2
  453.0067 0.18 2
  453.2935 0.12 1
  453.4334 0.13 1
  453.5848 0.11 1
  453.8493 0.26 3
  454.0468 0.12 1
  454.3006 0.19 2
  454.4599 0.10 1
  454.5594 0.10 1
  454.7952 0.10 1
  455.0533 0.32 3
  455.6106 0.08 1
  455.8124 0.14 1
  455.9761 0.43 4
  456.2025 0.41 4
  456.3647 0.11 1
  456.5536 0.22 2
  457.0858 0.22 2
  457.1781 0.27 3
  457.3115 0.08 1
  457.7953 0.14 1
  458.1249 0.22 2
  458.2518 0.15 1
  458.3427 0.12 1
  458.7227 0.10 1
  458.8821 0.20 2
  459.1447 0.25 2
  459.2939 0.19 2
  460.0108 0.25 2
  460.0909 0.13 1
  460.2705 0.15 1
  460.3845 0.12 1
  460.6881 0.13 1
  460.8886 0.14 1
  461.1916 0.24 2
  461.2803 0.10 1
  461.7319 0.08 1
  461.9382 0.23 2
  462.2505 0.13 1
  462.4799 0.14 1
  463.0318 0.10 1
  463.1927 0.18 2
  463.4113 0.17 2
  463.9315 0.34 3
  464.0871 0.17 2
  464.5805 0.10 1
  464.7736 0.14 1
  465.1885 0.31 3
  465.4695 0.16 2
  465.6711 0.13 1
  465.8901 0.22 2
  466.1812 0.30 3
  466.3339 0.16 2
  466.8245 0.13 1
  467.0731 0.16 2
  467.2654 0.02 0
  467.7885 0.15 1
  467.9319 0.11 1
  468.1099 0.13 1
  468.2842 0.11 1
  468.4089 0.11 1
  468.5861 0.13 1
  469.0394 0.17 2
  469.1986 0.24 2
  469.4040 0.13 1
  469.5193 0.18 2
  469.9473 0.22 2
  470.0951 0.31 3
  470.3062 0.10 1
  470.4193 0.06 1
  470.8582 0.26 3
  471.3447 0.17 2
  471.5105 0.03 0
  471.6733 0.17 2
  471.8939 0.14 1
  472.0452 0.21 2
  472.1800 0.12 1
  472.3328 0.14 1
  472.4856 0.24 2
  472.6536 0.23 2
  472.8056 0.11 1
  473.1870 0.38 4
  473.3124 0.20 2
  473.7535 0.20 2
  474.1767 0.15 1
  474.5688 0.12 1
  474.6827 0.23 2
  475.1686 0.32 3
  475.5831 0.01 0
  476.1203 0.16 2
  476.2623 0.22 2
  476.6826 0.18 2
  476.9955 0.15 1
  477.1924 0.20 2
  477.3200 0.08 1
  477.4808 0.33 3
  477.7577 0.13 1
  477.9185 0.13 1
  478.1002 0.20 2
  478.3670 0.31 3
  478.5293 0.08 1
  478.7888 0.07 1
  479.1191 0.38 4
  479.4090 0.30 3
  480.1937 0.59 6
  480.5853 0.21 2
  481.1082 0.12 1
  481.2380 0.04 0
  481.4674 0.13 1
  481.8251 0.11 1
  481.9398 0.15 1
  482.0444 0.29 3
  482.1779 0.12 1
  482.2925 0.43 4
  482.4931 0.17 2
  483.3464 0.24 2
  483.6039 0.16 2
  483.7403 0.10 1
  483.9466 0.12 1
  484.0570 0.13 1
  484.2813 0.19 2
  484.8130 0.08 1
  485.1507 0.23 2
  485.2704 0.14 1
  485.6759 0.10 1
  486.2113 0.39 4
  486.4963 0.26 3
  486.7070 0.11 1
  487.0165 0.26 3
  487.1522 0.15 1
  487.3225 0.22 2
  487.7792 0.09 1
  487.9243 0.06 1
  488.2057 0.46 5
  488.3298 0.14 1
  488.4749 0.10 1
  488.7700 0.11 1
  489.1525 0.59 6
  489.4058 0.20 2
  489.7140 0.22 2
  490.0251 0.20 2
  490.3203 0.16 2
  490.5000 0.13 1
  491.2217 0.22 2
  491.4469 0.10 1
  491.6100 0.09 1
  491.7140 0.22 2
  491.8771 0.10 1
  492.2203 0.20 2
  492.9084 0.11 1
  493.0814 0.12 1
  493.2817 0.10 1
  493.4777 0.17 2
  493.6117 0.13 1
  493.8344 0.17 2
  494.1190 0.30 3
  494.3302 0.29 3
  494.9377 0.08 1
  495.2656 0.18 2
  495.6158 0.13 1
  495.8220 0.14 1
  496.1290 0.11 1
  496.3416 0.01 0
  496.7164 0.10 1
  496.9860 0.12 1
  497.1301 0.02 0
  497.2728 0.08 1
  497.4501 0.10 1
  498.0174 0.16 2
  498.5862 0.29 3
  498.7144 0.13 1
  498.9704 0.10 1
  499.1895 0.21 2
  499.3553 0.02 0
  499.5197 0.13 1
  499.7013 0.16 2
  499.9111 0.22 2
  500.1772 0.30 3
  500.3076 0.07 1
  500.4460 0.08 1
  500.8000 0.13 1
  501.1713 0.58 6
  501.4438 0.21 2
  502.2009 0.90 9
  502.5686 0.15 1
  502.7006 0.10 1
  502.9667 0.25 2
  503.2940 0.28 3
  503.3712 0.16 2
  503.5587 0.10 1
  503.9719 0.18 2
  504.1428 0.55 5
  504.3000 0.17 2
  504.5185 0.18 2
  504.9548 0.25 2
  505.1524 0.15 1
  505.2865 0.38 4
  505.3990 0.25 2
  505.6053 0.16 2
  505.8123 0.11 1
  506.1743 0.41 4
  506.3972 0.13 1
  507.2165 0.48 5
  507.3911 0.32 3
  507.5338 0.17 2
  507.6868 0.13 1
  507.9782 0.21 2
  508.1102 0.13 1
  508.2797 0.13 1
  508.3763 0.14 1
  508.6670 0.16 2
  508.7723 0.10 1
  509.1071 0.27 3
  509.3639 0.15 1
  509.6207 0.12 1
  510.0607 0.06 1
  510.2461 0.23 2
  510.4149 0.15 1
  510.6783 0.06 1
  510.8023 0.12 1
  511.0238 0.10 1
  511.3441 0.14 1
  511.6609 0.19 2
  511.7922 0.07 1
  512.0375 0.30 3
  512.1897 0.11 1
  512.5743 0.12 1
  512.8384 0.18 2
  513.0974 0.25 2
  513.5281 0.16 2
  513.6458 0.15 1
  514.1531 0.21 2
  514.3414 0.37 4
  514.8978 0.30 3
  515.0594 0.11 1
  515.2203 0.20 2
  515.3242 0.20 2
  515.4390 0.15 1
  515.6425 0.11 1
  515.7811 0.19 2
  516.1708 0.24 2
  516.3273 0.11 1
  516.5085 0.11 1
  516.6298 0.24 2
  516.9083 0.13 1
  517.0628 0.11 1
  517.2028 0.25 2
  517.4063 0.37 4
  517.5103 0.15 1
  517.8156 0.12 1
  518.0891 0.38 4
  518.2327 0.56 6
  518.5850 0.18 2
  518.7553 0.22 2
  518.8952 0.12 1
  519.0552 0.41 4
  519.2713 0.25 2
  519.4406 0.15 1
  519.6481 0.17 2
  520.1668 0.57 6
  520.4686 0.39 4
  520.9780 0.21 2
  521.2086 0.31 3
  521.3693 0.38 4
  521.4666 0.12 1
  521.5768 0.15 1
  521.6633 0.12 1
  521.7742 0.19 2
  522.0350 0.41 4
  522.2462 0.35 3
  522.4948 0.37 4
  522.6886 0.11 1
  522.8817 0.08 1
  523.1353 0.33 3
  523.3429 0.32 3
  523.4891 0.29 3
  523.6268 0.19 2
  523.9957 0.12 1
  524.0952 0.12 1
  524.3006 0.10 1
  524.4267 0.35 3
  524.6422 0.14 1
  525.2021 0.27 3
  525.4954 0.13 1
  525.9113 0.18 2
  526.1477 0.11 1
  526.8374 0.29 3
  527.0176 0.15 1
  527.4205 0.11 1
  527.6432 0.12 1
  527.8321 0.14 1
  528.1521 0.10 1
  528.3345 0.13 1
  528.4815 0.13 1
  528.6069 0.14 1
  528.9285 0.15 1
  529.5116 0.12 1
  529.6400 0.04 0
  530.0270 0.14 1
  530.2614 0.33 3
  530.3550 0.17 2
  530.5742 0.36 4
  530.9037 0.07 1
  531.0796 0.13 1
  531.3875 0.27 3
  531.6268 0.13 1
  531.8770 0.17 2
  532.2937 0.26 3
  532.5929 0.18 2
  532.9210 0.12 1
  533.2194 0.42 4
  533.4502 0.15 1
  533.5749 0.11 1
  533.6982 0.22 2
  533.9044 0.36 4
  534.0465 0.16 2
  534.3976 0.48 5
  534.7682 0.18 2
  534.8916 0.07 1
  535.0012 0.09 1
  535.1779 0.11 1
  535.3423 0.32 3
  535.5975 0.17 2
  535.8370 0.15 1
  536.0684 0.13 1
  536.3187 0.39 4
  536.6252 0.18 2
  537.0968 0.36 4
  537.2461 0.36 4
  537.3889 0.19 2
  537.9666 0.29 3
  538.1404 0.18 2
  538.2854 0.23 2
  538.4058 0.50 5
  538.6330 0.34 3
  538.7123 0.15 1
  539.1083 0.14 1
  539.3124 0.09 1
  539.4509 0.11 1
  539.6710 0.15 1
  539.8585 0.30 3
  540.0352 0.10 1
  540.2639 0.10 1
  540.4355 0.18 2
  540.6736 0.05 0
  540.9910 0.18 2
  541.1489 0.09 1
  541.2521 0.06 1
  541.4894 0.05 0
  541.9547 0.10 1
  542.2267 0.14 1
  542.4250 0.13 1
  542.7511 0.18 2
  543.2338 0.15 1
  543.4113 0.25 2
  543.7546 0.11 1
  543.9350 0.38 4
  544.1414 0.15 1
  544.4393 0.11 1
  544.7207 0.26 3
  544.8506 0.12 1
  545.0194 0.14 1
  545.2524 0.29 3
  545.4263 0.20 2
  545.5223 0.13 1
  545.7301 0.32 3
  545.8369 0.19 2
  545.9329 0.16 2
  546.2027 0.34 3
  546.3398 0.17 2
  546.6313 0.11 1
  546.9055 0.25 2
  547.0556 0.50 5
  547.2793 0.29 3
  547.4337 0.33 3
  547.6379 0.12 1
  547.7512 0.12 1
  548.2520 1.05 10
  548.5284 0.69 7
  548.7493 0.19 2
  549.2256 0.45 4
  549.6968 0.10 1
  549.9263 0.29 3
  550.2706 0.81 8
  550.4525 0.09 1
  550.6343 0.15 1
  551.0457 0.25 2
  551.2622 0.45 4
  551.5076 0.16 2
  551.6599 0.16 2
  551.9523 0.13 1
  552.3066 0.29 3
  552.5383 0.11 1
  552.7043 0.20 2
  552.9837 0.26 3
  553.2190 0.22 2
  553.4897 0.12 1
  553.6810 0.15 1
  553.8564 0.20 2
  554.0520 0.18 2
  554.3350 0.15 1
  554.7789 0.22 2
  554.9039 0.12 1
  555.2879 0.41 4
  555.4944 0.29 3
  555.6705 0.20 2
  555.8625 0.21 2
  556.0813 0.29 3
  556.2177 0.15 1
  556.4025 0.06 1
  556.5801 0.26 3
  556.6841 0.14 1
  556.9116 0.26 3
  557.1209 0.11 1
  557.2429 0.29 3
  557.3469 0.33 3
  557.4682 0.04 0
  557.6183 0.31 3
  557.6971 0.07 1
  557.9642 0.40 4
  558.1996 0.38 4
  558.4999 0.68 7
  558.8118 0.24 2
  559.0978 0.28 3
  559.2935 0.34 3
  559.4574 0.36 4
  559.6985 0.20 2
  559.8805 0.11 1
  560.1318 0.65 6
  560.4351 0.52 5
  560.6235 0.35 3
  560.7687 0.11 1
  560.9890 0.34 3
  561.3247 1.17 12
  561.6743 0.63 6
  561.8194 0.19 2
  562.0122 0.23 2
  562.1559 0.34 3
  562.3401 0.57 6
  562.6889 0.11 1
  563.1092 0.59 6
  563.3372 0.30 3
  563.6146 0.31 3
  564.0216 0.67 7
  564.2809 0.95 9
  564.4315 0.44 4
  565.1786 0.86 9
  565.4877 0.70 7
  565.6858 0.38 4
  566.3494 1.22 12
  566.7038 0.41 4
  566.9985 0.34 3
  567.4323 0.54 5
  567.8083 0.47 5
  568.4151 0.69 7
  568.7357 0.47 5
  568.8993 0.43 4
  569.0369 0.26 3
  569.1717 0.22 2
  569.4736 0.64 6
  569.5651 0.29 3
  569.7957 0.41 4
  569.9888 0.61 6
  570.0890 0.27 3
  570.2332 0.34 3
  570.4306 0.76 8
  570.6446 0.51 5
  570.7714 0.45 4
  570.8976 0.32 3
  571.0741 0.47 5
  571.3415 0.49 5
  571.7789 0.97 10
  571.9353 0.58 6
  572.2380 0.73 7
  572.5090 0.89 9
  572.8708 0.55 5
  573.3652 0.73 7
  574.0384 0.97 10
  574.4255 0.52 5
  574.6821 1.00 10
  575.1967 1.72 17
  575.5031 2.47 25
  576.3601 26.54 265
  577.3433 3.72 37
  577.5956 1.91 19
  577.7744 0.47 5
  578.2416 2.06 21
  578.7780 0.77 8
  579.3071 7.33 73
  579.9358 0.54 5
  580.1412 0.56 6
  580.3878 0.64 6
  580.5941 0.28 3
  580.8363 0.41 4
  581.2076 0.47 5
  581.4636 0.34 3
  581.6619 0.57 6
  582.0079 0.49 5
  582.2776 0.49 5
  582.4146 0.27 3
  582.6324 0.47 5
  582.7744 0.39 4
  582.9006 0.20 2
  583.2835 0.47 5
  583.8488 0.69 7
  584.0961 0.23 2
  584.3197 0.45 4
  585.0358 0.61 6
  585.4396 0.61 6
  585.7764 0.70 7
  586.0266 0.51 5
  586.1838 1.33 13
  586.5480 0.53 5
  586.7039 0.92 9
  587.4430 1.03 10
  588.1836 0.96 10
  588.4609 0.96 10
  588.7700 0.89 9
  589.0942 0.87 9
  594.2877 99.97 999
  594.8052 19.81 198
  595.4681 10.35 103
  595.8609 6.98 70
  596.4424 4.49 45
  596.9109 2.91 29
  597.5076 2.02 20
  598.0345 1.63 16
  598.4965 1.18 12
  598.8209 0.85 8
  598.9780 0.79 8
  599.3340 0.79 8
  599.4832 0.52 5
  599.6735 0.94 9
  599.9070 0.69 7
  600.3900 0.56 6
//
