ACCESSION: MSBNK-Kyoto_Univ-CA000149
RECORD_TITLE: Echinenone; FAB-EBEB; MS2; m/z: 550.42; [M]*+
DATE: 2016.01.19 (Created 2007.03.15, modified 2011.05.10)
AUTHORS: Akimoto N, Graduate School of Pharmaceutical Sciences, Kyoto University and Maoka T, Research Institute for Production Development
LICENSE: CC BY-SA
COMMENT: Profile spectrum of this record is given as a JPEG file.
COMMENT: [Profile] CA000149.jpg
CH$NAME: Echinenone
CH$COMPOUND_CLASS: Natural Product; Carotenoid
CH$FORMULA: C40H54O
CH$EXACT_MASS: 550.41747
CH$SMILES: C(C(C)=1)(=O)CCC(C(C=CC(C)=CC=CC(=CC=CC=C(C)C=CC=C(C=CC(=C(C)2)C(C)(C)CCC2)C)C)1)(C)C
CH$IUPAC: InChI=1S/C40H54O/c1-30(18-13-20-32(3)23-25-36-34(5)22-15-28-39(36,7)8)16-11-12-17-31(2)19-14-21-33(4)24-26-37-35(6)38(41)27-29-40(37,9)10/h11-14,16-21,23-26H,15,22,27-29H2,1-10H3/b12-11+,18-13+,19-14+,25-23+,26-24+,30-16+,31-17+,32-20+,33-21+
CH$LINK: CHEMSPIDER 4444648
CH$LINK: KEGG C08592
CH$LINK: PUBCHEM CID:5281236
CH$LINK: INCHIKEY QXNWZXMBUKUYMD-QQGJMDNJSA-N
AC$INSTRUMENT: JMS-HX/HX 110A, JEOL
AC$INSTRUMENT_TYPE: FAB-EBEB
AC$MASS_SPECTROMETRY: MS_TYPE MS2
AC$MASS_SPECTROMETRY: ION_MODE POSITIVE
AC$MASS_SPECTROMETRY: ATOM_GUN_CURRENT 5 mA
AC$MASS_SPECTROMETRY: BOMBARDMENT 6 kV xenon
AC$MASS_SPECTROMETRY: COLLISION_ENERGY 3 kV
AC$MASS_SPECTROMETRY: COLLISION_GAS Ar
AC$MASS_SPECTROMETRY: GAS_PRESSURE adjust to attenuate the intensity of the precursor ion by 30 %
AC$MASS_SPECTROMETRY: IONIZATION FAB
AC$MASS_SPECTROMETRY: MATRIX 1-2 uL m-NBA
AC$MASS_SPECTROMETRY: PROBE_TIP stainless-steel
MS$FOCUSED_ION: BASE_PEAK 550.3798
MS$FOCUSED_ION: PRECURSOR_M/Z 550.42
MS$FOCUSED_ION: PRECURSOR_TYPE [M]+*
PK$SPLASH: splash10-0udi-3920020000-2045bfb085cd59498253
PK$NUM_PEAK: 1778
PK$PEAK: m/z int. rel.int.
  0.0244 0.01 0
  0.3247 0.01 0
  0.3424 0.01 0
  0.4868 0.01 0
  0.7923 0.01 0
  1.3007 0.01 0
  2.5582 0.01 0
  4.6132 0.01 0
  5.4785 0.01 0
  6.2421 0.01 0
  8.6508 0.01 0
  11.9478 0.11 1
  12.9583 0.03 0
  13.9677 0.03 0
  14.0129 0.01 0
  14.9738 0.18 2
  15.2670 0.01 0
  15.9141 0.01 0
  17.0074 0.01 0
  18.3610 0.01 0
  18.7365 0.01 0
  22.9244 0.55 5
  23.2557 0.01 0
  24.9255 0.12 1
  25.1500 0.01 0
  25.9374 0.80 8
  26.0725 0.03 0
  26.7277 0.02 0
  26.9491 5.55 55
  27.9604 0.65 6
  28.9606 3.91 39
  29.6947 0.02 0
  30.9375 0.19 2
  31.2239 0.01 0
  33.4026 0.01 0
  35.0369 0.01 0
  35.8529 0.04 0
  35.9328 0.10 1
  36.9268 1.04 10
  37.3386 0.04 0
  37.7789 0.01 0
  37.9283 1.70 17
  38.9325 11.47 115
  39.1947 0.06 1
  39.4320 0.03 0
  39.6275 0.02 0
  39.7365 0.11 1
  39.9400 1.82 18
  40.2593 0.11 1
  40.9482 26.45 264
  41.2860 0.02 0
  41.9345 0.50 5
  42.1490 0.01 0
  42.9476 11.44 114
  43.7241 0.02 0
  43.9251 0.07 1
  43.9912 0.08 1
  44.9045 0.23 2
  45.0498 0.01 0
  45.8919 0.04 0
  47.8973 0.12 1
  48.6942 0.08 1
  48.9230 0.15 1
  49.0388 0.04 0
  49.5415 0.05 0
  49.6796 0.08 1
  49.9228 3.95 39
  50.6118 0.06 1
  50.9254 7.47 75
  51.1317 0.06 1
  51.9341 2.71 27
  52.5229 0.05 0
  52.9389 13.45 134
  53.9379 0.61 6
  54.7162 0.02 0
  54.9482 35.10 351
  55.1928 0.02 0
  55.9575 1.94 19
  56.9636 3.35 33
  57.9802 0.16 2
  58.0882 0.08 1
  58.9464 0.30 3
  59.9153 0.04 0
  60.4042 0.08 1
  60.9056 0.45 4
  61.9164 2.18 22
  62.9177 5.22 52
  63.3558 0.05 0
  63.5494 0.05 0
  63.9253 1.10 11
  64.0613 0.11 1
  64.1693 0.06 1
  64.3034 0.12 1
  64.5978 0.05 0
  64.9358 10.91 109
  65.1152 0.03 0
  65.2641 0.05 0
  65.3646 0.05 0
  65.4603 0.09 1
  65.9279 1.25 12
  66.1486 0.10 1
  66.3282 0.07 1
  66.6497 0.08 1
  66.9431 15.89 159
  67.2604 0.02 0
  67.9540 0.57 6
  68.9534 42.86 428
  69.2043 0.11 1
  69.9401 0.70 7
  70.9542 0.83 8
  71.8537 0.02 0
  71.9811 0.09 1
  72.8375 0.19 2
  72.9160 0.19 2
  73.5483 0.01 0
  73.8977 1.86 19
  74.1753 0.09 1
  74.9030 2.14 21
  75.4120 0.14 1
  75.8803 1.21 12
  76.3243 0.04 0
  76.4419 0.13 1
  76.6295 0.18 2
  76.9178 26.31 263
  77.1702 0.36 4
  77.3905 0.10 1
  77.5318 0.18 2
  77.9306 4.67 47
  78.1458 0.18 2
  78.2418 0.14 1
  78.3980 0.08 1
  78.6124 0.07 1
  78.9291 24.49 245
  79.2333 0.01 0
  79.9344 2.44 24
  80.4415 0.06 1
  80.6599 0.22 2
  80.9391 24.07 241
  81.1831 0.12 1
  81.6739 0.09 1
  81.9708 0.78 8
  82.3199 0.08 1
  82.9477 6.12 61
  83.3333 0.03 0
  83.8450 0.14 1
  83.9753 0.16 2
  84.3920 0.02 0
  84.4884 0.03 0
  84.7977 0.21 2
  84.9323 0.58 6
  85.0346 0.10 1
  85.1920 0.01 0
  85.8814 0.77 8
  85.9645 0.36 4
  86.3240 0.06 1
  86.9120 1.13 11
  87.4575 0.10 1
  87.5809 0.07 1
  87.9149 0.64 6
  88.0540 0.07 1
  88.1873 0.08 1
  88.3139 0.07 1
  88.4811 0.16 2
  88.5952 0.20 2
  88.9122 2.60 26
  89.0900 0.19 2
  89.2943 0.45 4
  89.4562 0.04 0
  89.5773 0.08 1
  89.9422 1.15 11
  90.0756 0.22 2
  90.2326 0.11 1
  90.3160 0.10 1
  90.4645 0.16 2
  90.9286 48.88 488
  91.2190 0.11 1
  91.2790 0.05 0
  91.3903 0.11 1
  91.4693 0.11 1
  91.6568 0.07 1
  91.9281 5.56 56
  92.1441 0.18 2
  92.2273 0.06 1
  92.3255 0.12 1
  92.5279 0.03 0
  92.9455 30.12 301
  93.3020 0.05 0
  93.6136 0.01 0
  93.9474 1.59 16
  94.3940 0.05 0
  94.5008 0.05 0
  94.6389 0.06 1
  94.9578 21.28 213
  95.2542 0.05 0
  95.4298 0.07 1
  95.5129 0.03 0
  95.6205 0.06 1
  95.7020 0.10 1
  95.9371 0.54 5
  96.1555 0.02 0
  96.2609 0.02 0
  96.9511 3.36 34
  97.8730 0.69 7
  98.6497 0.10 1
  98.9237 0.54 5
  99.3578 0.06 1
  99.5929 0.01 0
  99.9031 0.26 3
  100.0105 0.07 1
  100.1449 0.04 0
  100.3128 0.03 0
  100.5007 0.06 1
  100.6529 0.25 2
  100.7716 0.12 1
  100.9409 1.35 13
  101.1467 0.22 2
  101.2513 0.05 0
  101.5002 0.17 2
  101.9223 2.97 30
  102.2186 0.11 1
  102.4113 0.10 1
  102.6578 0.20 2
  102.9380 8.75 87
  103.3198 0.28 3
  103.6588 0.29 3
  103.9496 4.13 41
  104.1346 0.19 2
  104.3120 0.21 2
  104.4913 0.32 3
  104.9500 54.61 546
  105.1928 0.12 1
  105.3006 0.11 1
  105.4055 0.15 1
  105.5483 0.15 1
  105.9595 5.93 59
  106.2294 0.13 1
  106.3200 0.06 1
  106.9651 21.27 213
  107.1844 0.14 1
  107.3173 0.06 1
  107.4466 0.21 2
  107.6222 0.09 1
  107.9605 1.83 18
  108.3067 0.04 0
  108.9677 10.29 103
  109.4073 0.04 0
  109.6573 0.04 0
  109.9622 0.34 3
  110.5892 0.10 1
  110.6888 0.07 1
  110.9512 2.58 26
  111.9005 0.10 1
  112.3763 0.19 2
  112.4696 0.16 2
  112.8973 1.15 11
  113.2013 0.16 2
  113.3606 0.12 1
  113.5840 0.20 2
  113.7769 0.53 5
  113.9207 0.98 10
  114.0790 0.29 3
  114.1857 0.34 3
  114.2912 0.15 1
  114.4160 0.19 2
  114.9128 25.45 254
  115.2676 0.15 1
  115.4129 0.26 3
  115.5163 0.16 2
  115.9183 9.88 99
  116.1654 0.17 2
  116.3440 0.17 2
  116.9259 24.46 244
  117.1577 0.21 2
  117.3137 0.15 1
  117.3847 0.08 1
  117.5179 0.11 1
  117.9295 3.94 39
  118.2394 0.15 1
  118.4494 0.15 1
  118.9340 47.11 471
  119.2963 0.20 2
  119.4896 0.15 1
  119.5905 0.07 1
  119.9338 5.63 56
  120.2222 0.04 0
  120.3238 0.07 1
  120.4672 0.17 2
  120.9446 17.25 172
  121.2619 0.21 2
  121.4630 0.23 2
  121.6278 0.01 0
  121.9508 1.52 15
  122.1254 0.05 0
  122.3989 0.21 2
  122.5724 0.11 1
  122.6428 0.08 1
  122.9590 6.74 67
  123.2771 0.02 0
  123.4216 0.14 1
  123.5134 0.02 0
  123.7637 0.19 2
  123.9575 0.35 3
  124.3131 0.11 1
  124.8953 0.62 6
  125.2172 0.15 1
  125.4054 0.18 2
  125.8926 1.48 15
  126.1028 0.05 0
  126.2625 0.25 2
  126.3442 0.07 1
  126.9004 8.86 89
  127.1609 0.40 4
  127.8984 26.23 262
  128.1763 0.29 3
  128.3474 0.39 4
  128.9062 32.83 328
  129.3747 0.19 2
  129.5186 0.04 0
  129.9140 11.23 112
  130.2012 0.09 1
  130.3960 0.10 1
  130.9193 28.65 286
  131.3767 0.12 1
  131.6049 0.15 1
  131.9301 6.09 61
  132.1443 0.12 1
  132.3794 0.23 2
  132.9218 28.97 289
  133.2401 0.12 1
  133.3347 0.05 0
  133.4503 0.22 2
  133.9158 2.57 26
  134.1294 0.18 2
  134.5456 0.10 1
  134.9502 6.43 64
  135.2023 0.06 1
  135.3329 0.11 1
  135.9390 0.73 7
  136.2487 0.05 0
  136.3412 0.12 1
  136.5245 0.18 2
  136.9233 5.67 57
  137.1764 0.25 2
  137.2808 0.08 1
  137.4896 0.15 1
  137.6725 0.14 1
  137.9129 0.94 9
  138.1849 0.03 0
  138.4025 0.12 1
  138.5479 0.04 0
  138.9184 5.63 56
  139.2185 0.11 1
  139.4587 0.16 2
  139.8915 1.33 13
  140.2254 0.51 5
  140.4732 0.37 4
  140.9022 21.87 219
  141.3220 0.19 2
  141.4566 0.32 3
  141.5999 0.18 2
  141.9157 19.32 193
  142.1268 0.39 4
  142.3714 0.25 2
  142.9154 30.36 303
  143.3112 0.25 2
  143.4144 0.13 1
  143.9248 9.66 97
  144.1424 0.31 3
  144.3801 0.19 2
  144.5337 0.35 3
  144.9320 29.41 294
  145.1823 0.33 3
  145.3635 0.15 1
  145.5235 0.15 1
  145.9328 3.66 37
  146.3035 0.15 1
  146.4507 0.12 1
  146.9401 14.63 146
  147.2757 0.20 2
  147.4260 0.07 1
  147.5839 0.18 2
  147.9315 2.02 20
  148.4709 0.08 1
  148.6539 0.06 1
  148.9494 2.25 22
  149.1756 0.17 2
  149.2987 0.03 0
  149.5256 0.09 1
  149.6481 0.07 1
  149.9395 0.75 7
  150.1834 0.07 1
  150.8861 2.56 26
  151.2097 0.31 3
  151.4395 0.26 3
  151.5929 0.39 4
  151.9155 10.49 105
  152.2381 0.69 7
  152.4073 0.31 3
  152.9157 12.78 128
  153.3653 0.27 3
  153.9344 7.16 72
  154.1641 0.22 2
  154.3197 0.12 1
  154.9388 21.67 217
  155.2020 0.19 2
  155.3830 0.22 2
  155.9473 13.60 136
  156.2943 0.27 3
  156.9541 25.66 256
  157.2901 0.22 2
  157.4449 0.19 2
  157.5765 0.09 1
  157.9555 5.45 54
  158.4032 0.30 3
  158.5248 0.08 1
  158.9721 16.90 169
  159.3055 0.29 3
  159.5583 0.12 1
  159.9681 2.57 26
  160.3251 0.15 1
  160.6595 0.25 2
  160.9858 7.71 77
  161.2269 0.17 2
  161.3607 0.10 1
  161.5388 0.07 1
  161.7459 0.18 2
  162.0181 1.47 15
  162.3214 0.23 2
  162.5052 0.17 2
  162.9609 2.94 29
  163.2972 0.22 2
  163.4566 0.28 3
  163.5818 0.28 3
  163.9265 1.53 15
  164.1726 0.32 3
  164.9390 18.91 189
  165.3094 0.34 3
  165.4380 0.30 3
  165.9472 7.25 72
  166.4139 0.28 3
  166.9486 14.75 147
  167.2672 0.14 1
  167.4392 0.17 2
  167.9641 6.73 67
  168.2678 0.15 1
  168.4716 0.34 3
  168.9716 19.25 192
  169.2476 0.33 3
  169.4224 0.16 2
  169.5478 0.14 1
  169.9779 6.85 68
  170.2211 0.27 3
  170.3599 0.16 2
  170.5139 0.30 3
  170.9779 14.73 147
  171.2048 0.33 3
  171.4109 0.25 2
  171.9900 3.86 39
  172.3116 0.07 1
  172.5414 0.37 4
  172.9863 9.79 98
  173.3234 0.24 2
  173.6174 0.25 2
  173.9750 1.44 14
  174.3441 0.19 2
  174.5309 0.08 1
  174.9924 6.29 63
  175.2263 0.21 2
  175.4075 0.47 5
  175.4946 0.19 2
  175.9245 2.09 21
  176.2846 0.12 1
  176.4513 0.14 1
  176.9686 4.12 41
  177.3391 0.43 4
  177.9421 10.64 106
  178.3453 0.12 1
  178.4275 0.06 1
  178.9385 15.84 158
  179.2872 0.11 1
  179.4497 0.32 3
  179.5479 0.15 1
  179.9394 7.67 77
  180.2378 0.08 1
  180.3641 0.16 2
  180.9530 16.38 164
  181.2408 0.24 2
  181.3550 0.11 1
  181.9563 5.95 59
  182.3586 0.27 3
  182.5496 0.19 2
  182.9648 14.37 144
  183.3399 0.11 1
  183.4472 0.14 1
  183.5661 0.09 1
  183.9649 3.95 39
  184.3965 0.25 2
  184.9708 9.39 94
  185.3297 0.21 2
  185.4723 0.21 2
  185.5766 0.18 2
  185.9734 2.00 20
  186.1647 0.16 2
  186.5872 0.23 2
  186.9778 5.83 58
  187.2814 0.24 2
  187.5210 0.16 2
  187.6414 0.07 1
  187.9534 1.08 11
  188.3373 0.19 2
  188.9353 6.72 67
  189.4983 0.41 4
  189.9280 3.11 31
  190.2462 0.26 3
  190.3841 0.11 1
  190.9328 7.89 79
  191.3231 0.11 1
  191.5221 0.11 1
  191.9491 5.95 59
  192.3184 0.23 2
  192.4622 0.04 0
  192.9492 12.69 127
  193.3155 0.29 3
  193.5038 0.33 3
  193.9595 5.75 57
  194.2694 0.18 2
  194.9537 15.17 152
  195.4046 0.33 3
  195.9696 5.13 51
  196.4259 0.39 4
  196.9783 11.88 119
  197.2867 0.33 3
  197.4072 0.29 3
  197.9804 1.85 18
  198.1834 0.29 3
  198.5307 0.07 1
  198.9825 5.03 50
  199.2996 0.23 2
  199.3937 0.22 2
  199.9592 1.97 20
  200.2249 0.11 1
  200.2939 0.04 0
  200.4713 0.17 2
  200.6306 0.05 0
  201.0035 4.69 47
  201.9458 4.70 47
  202.1640 0.43 4
  202.2744 0.12 1
  202.4751 0.11 1
  202.9633 7.32 73
  203.4265 0.30 3
  203.5318 0.17 2
  203.9485 2.39 24
  204.1908 0.26 3
  204.3640 0.16 2
  204.9496 6.83 68
  205.2592 0.17 2
  205.4403 0.12 1
  205.9648 5.17 52
  206.2856 0.19 2
  206.4466 0.10 1
  206.9694 10.87 109
  207.2127 0.24 2
  207.4651 0.17 2
  207.9719 4.71 47
  208.2976 0.10 1
  208.4064 0.08 1
  208.9937 10.99 110
  209.3105 0.30 3
  209.5178 0.24 2
  209.9953 3.31 33
  210.3050 0.16 2
  210.3886 0.06 1
  210.5455 0.25 2
  210.9966 6.04 60
  211.4362 0.23 2
  211.6307 0.07 1
  212.0036 1.25 12
  212.2448 0.22 2
  212.4044 0.22 2
  212.5822 0.12 1
  213.0149 4.05 40
  213.3900 0.12 1
  213.5509 0.14 1
  213.9955 1.02 10
  214.1831 0.14 1
  214.9642 6.49 65
  215.2915 0.06 1
  215.5149 0.17 2
  215.9879 3.24 32
  216.2893 0.24 2
  216.5960 0.39 4
  216.9925 4.37 44
  217.2447 0.24 2
  217.5860 0.12 1
  217.9936 2.35 23
  218.3630 0.22 2
  218.6173 0.21 2
  218.9984 5.96 60
  219.3204 0.12 1
  219.4323 0.16 2
  219.5853 0.32 3
  220.0121 3.24 32
  220.1729 0.54 5
  220.3121 0.14 1
  220.5133 0.12 1
  221.0171 6.80 68
  221.3381 0.11 1
  221.4794 0.08 1
  221.5855 0.11 1
  221.7601 0.07 1
  222.0368 2.29 23
  222.3462 0.04 0
  222.4596 0.12 1
  222.5879 0.17 2
  223.0316 5.60 56
  223.4643 0.07 1
  223.9811 1.11 11
  224.3631 0.16 2
  224.5385 0.06 1
  224.6754 0.17 2
  225.0477 3.64 36
  225.3633 0.06 1
  225.5577 0.15 1
  226.0045 1.35 13
  226.4232 0.36 4
  226.7108 0.29 3
  227.0400 2.69 27
  227.3374 0.26 3
  227.6185 0.14 1
  228.0117 1.95 19
  228.4107 0.14 1
  228.5963 0.17 2
  229.0052 4.57 46
  229.3210 0.10 1
  229.4832 0.15 1
  229.6486 0.13 1
  229.9984 2.14 21
  230.1828 0.42 4
  230.6564 0.39 4
  231.0220 4.55 45
  231.2397 0.39 4
  231.4091 0.36 4
  231.6926 0.26 3
  232.0271 1.77 18
  232.2155 0.43 4
  232.3028 0.23 2
  232.5701 0.22 2
  233.0318 5.42 54
  233.4114 0.16 2
  233.5008 0.06 1
  233.9978 1.71 17
  234.3201 0.20 2
  234.4297 0.11 1
  234.6346 0.21 2
  235.0366 4.59 46
  235.2950 0.07 1
  235.4406 0.13 1
  235.6762 0.11 1
  236.0392 0.92 9
  236.3624 0.17 2
  237.0356 4.19 42
  237.4523 0.11 1
  237.7129 0.14 1
  237.8318 0.12 1
  238.0539 0.54 5
  238.2656 0.28 3
  238.4159 0.14 1
  239.0034 3.83 38
  239.3707 0.12 1
  239.5739 0.17 2
  239.9760 0.91 9
  240.1741 0.42 4
  240.3074 0.10 1
  240.5193 0.11 1
  241.0261 3.06 31
  241.5107 0.07 1
  241.6363 0.04 0
  241.9686 1.15 11
  242.1197 0.50 5
  242.2492 0.11 1
  242.5443 0.21 2
  243.0148 3.53 35
  243.2537 0.12 1
  243.4284 0.09 1
  243.9913 1.40 14
  244.3756 0.07 1
  244.4522 0.05 0
  244.6886 0.27 3
  245.0232 2.30 23
  245.2413 0.24 2
  245.6925 0.15 1
  246.0357 1.89 19
  246.2657 0.12 1
  246.3698 0.10 1
  246.4838 0.28 3
  246.6751 0.22 2
  247.0296 3.34 33
  247.5860 0.18 2
  248.0382 1.21 12
  248.2873 0.23 2
  248.3863 0.14 1
  248.6767 0.16 2
  249.0465 3.39 34
  249.4753 0.18 2
  250.0184 1.06 11
  250.3102 0.12 1
  250.6632 0.20 2
  251.0358 1.88 19
  251.4846 0.14 1
  251.5732 0.09 1
  251.7319 0.35 3
  252.0435 1.44 14
  252.5015 0.11 1
  253.0441 4.02 40
  253.4524 0.12 1
  254.0011 1.01 10
  254.6130 0.13 1
  254.7108 0.05 0
  255.0522 2.50 25
  255.1599 1.23 12
  255.3261 0.14 1
  255.4200 0.12 1
  256.0393 1.00 10
  256.3500 0.08 1
  256.4899 0.09 1
  256.7113 0.14 1
  257.0477 2.26 23
  257.4906 0.09 1
  257.6891 0.04 0
  258.0591 1.21 12
  258.3824 0.09 1
  259.0187 2.66 27
  259.3507 0.12 1
  259.4369 0.06 1
  259.5618 0.06 1
  259.8202 0.43 4
  260.0596 1.37 14
  260.5285 0.22 2
  261.0277 3.14 31
  261.3467 0.20 2
  261.4816 0.12 1
  261.5770 0.06 1
  261.6961 0.12 1
  262.0573 0.82 8
  262.2369 0.23 2
  262.4462 0.07 1
  263.0530 2.25 22
  263.5558 0.26 3
  264.0970 0.71 7
  264.3004 0.10 1
  264.4018 0.12 1
  265.0636 2.35 23
  265.5279 0.15 1
  265.6846 0.08 1
  265.8051 0.11 1
  266.0060 0.61 6
  266.1430 0.30 3
  266.2491 0.17 2
  267.0713 2.76 28
  267.5174 0.20 2
  268.0367 1.05 10
  268.4862 0.12 1
  269.0782 2.17 22
  269.1888 1.07 11
  269.7538 0.13 1
  270.0709 0.86 9
  270.2426 0.25 2
  270.4117 0.25 2
  270.4742 0.13 1
  270.6111 0.08 1
  271.0374 1.76 18
  271.5080 0.19 2
  271.6587 0.21 2
  272.0437 0.79 8
  272.3820 0.15 1
  272.7171 0.12 1
  273.0469 1.60 16
  273.5243 0.11 1
  273.7712 0.17 2
  274.0945 0.60 6
  274.3264 0.08 1
  274.5602 0.15 1
  274.7327 0.16 2
  275.0555 1.84 18
  275.5212 0.07 1
  276.0120 0.67 7
  276.5872 0.18 2
  277.0663 1.21 12
  277.4400 0.05 0
  277.5475 0.12 1
  277.6523 0.07 1
  278.0003 0.96 10
  278.1592 0.40 4
  278.4169 0.08 1
  278.5303 0.11 1
  279.0565 2.14 21
  279.3994 0.08 1
  279.5701 0.15 1
  279.7686 0.08 1
  280.0984 0.83 8
  280.3991 0.10 1
  280.6445 0.24 2
  281.0832 1.40 14
  281.5423 0.10 1
  281.6413 0.10 1
  281.7700 0.12 1
  282.0768 0.96 10
  282.4278 0.13 1
  282.6502 0.20 2
  283.0568 2.42 24
  283.2112 0.76 8
  283.3980 0.14 1
  283.8363 0.40 4
  284.0468 0.79 8
  284.1512 0.32 3
  284.3624 0.21 2
  284.5004 0.13 1
  284.6450 0.12 1
  284.9797 0.95 9
  285.1342 0.75 7
  285.6568 0.12 1
  285.9920 0.82 8
  286.1233 0.20 2
  286.2632 0.10 1
  286.3787 0.13 1
  286.4790 0.12 1
  286.7390 0.24 2
  287.0909 1.31 13
  287.8315 0.26 3
  288.1048 0.62 6
  288.3960 0.03 0
  289.0424 0.95 9
  289.2207 0.36 4
  289.7240 0.10 1
  290.0364 0.58 6
  290.1995 0.35 3
  290.5879 0.11 1
  290.7682 0.08 1
  291.0801 1.59 16
  291.3457 0.21 2
  291.4554 0.21 2
  291.5465 0.28 3
  291.7705 0.19 2
  292.0890 0.45 4
  292.5853 0.20 2
  292.7327 0.13 1
  292.8391 0.09 1
  293.0638 1.03 10
  293.2205 0.52 5
  293.4485 0.20 2
  293.5318 0.12 1
  293.6494 0.13 1
  293.7519 0.11 1
  294.0414 0.61 6
  294.2206 0.26 3
  294.6636 0.05 0
  295.0107 0.97 10
  295.1106 0.56 6
  295.9795 0.61 6
  296.1098 0.31 3
  296.4524 0.04 0
  296.9842 0.72 7
  297.1787 0.43 4
  297.5042 0.02 0
  297.6617 0.12 1
  297.7404 0.03 0
  297.9031 0.18 2
  298.0685 0.35 3
  298.6925 0.13 1
  299.0247 0.82 8
  299.1617 0.27 3
  299.4873 0.12 1
  299.6826 0.11 1
  299.8044 0.08 1
  299.9732 0.24 2
  300.1691 0.38 4
  301.0476 1.06 11
  301.2118 0.25 2
  301.5819 0.03 0
  301.7110 0.03 0
  302.0871 0.48 5
  302.2580 0.11 1
  302.4699 0.03 0
  303.0660 1.04 10
  303.5025 0.21 2
  303.8045 0.14 1
  304.0794 0.53 5
  304.3034 0.10 1
  304.5856 0.21 2
  304.6691 0.12 1
  305.0726 0.73 7
  305.4052 0.08 1
  305.6809 0.06 1
  305.9672 0.27 3
  306.1799 0.12 1
  306.2773 0.07 1
  306.3615 0.06 1
  306.6008 0.07 1
  307.0184 0.58 6
  307.4413 0.10 1
  307.8563 0.13 1
  307.9776 0.31 3
  308.1838 0.51 5
  309.0352 0.37 4
  309.1956 0.14 1
  309.8011 0.11 1
  309.9451 0.21 2
  310.0744 0.24 2
  310.2336 0.09 1
  310.4020 0.11 1
  310.5042 0.07 1
  310.9964 0.60 6
  311.1205 0.30 3
  311.5006 0.11 1
  311.6107 0.10 1
  312.0081 0.24 2
  312.1886 0.42 4
  312.6631 0.07 1
  313.0274 0.61 6
  313.2165 0.14 1
  313.2981 0.12 1
  313.4116 0.19 2
  313.6100 0.06 1
  313.7441 0.14 1
  314.0441 0.32 3
  314.2466 0.15 1
  314.5533 0.02 0
  315.0777 0.71 7
  315.2297 0.73 7
  315.7941 0.12 1
  316.0065 0.33 3
  316.2018 0.40 4
  316.3857 0.05 0
  316.5231 0.11 1
  316.6440 0.11 1
  317.1135 1.45 14
  317.5518 0.13 1
  317.7312 0.14 1
  318.0846 0.34 3
  318.3164 0.08 1
  318.4639 0.01 0
  318.6738 0.01 0
  319.0571 0.96 10
  319.2086 0.42 4
  319.4763 0.06 1
  319.7069 0.13 1
  320.0829 0.52 5
  320.3202 0.21 2
  320.6026 0.14 1
  320.7594 0.24 2
  321.0425 0.94 9
  321.2207 0.19 2
  321.3795 0.22 2
  321.4772 0.13 1
  321.8016 0.19 2
  322.0063 0.35 3
  322.1964 0.06 1
  322.3293 0.12 1
  322.9144 0.26 3
  323.0586 0.42 4
  323.7188 0.13 1
  323.8771 0.22 2
  324.0653 0.22 2
  324.2249 0.05 0
  324.3798 0.11 1
  324.5826 0.14 1
  324.8240 0.32 3
  324.9770 0.20 2
  325.1320 0.29 3
  325.2743 0.07 1
  325.8735 0.13 1
  326.0132 0.26 3
  326.1516 0.17 2
  326.8933 0.13 1
  327.1455 0.55 5
  327.3963 0.13 1
  327.7254 0.11 1
  327.9950 0.39 4
  328.1557 0.26 3
  328.2440 0.12 1
  328.5216 0.16 2
  329.1047 0.79 8
  329.3325 0.20 2
  329.4779 0.11 1
  329.7151 0.05 0
  329.8340 0.04 0
  330.1036 0.33 3
  330.2783 0.08 1
  331.1306 0.93 9
  331.4701 0.09 1
  332.0954 0.87 9
  332.2356 0.53 5
  332.4529 0.10 1
  332.5386 0.09 1
  332.7087 0.14 1
  333.1094 1.37 14
  333.4663 0.12 1
  333.6491 0.02 0
  333.9010 0.12 1
  334.1064 0.36 4
  334.2792 0.09 1
  334.7299 0.04 0
  335.0981 0.77 8
  335.2670 0.23 2
  335.7118 0.10 1
  335.8627 0.16 2
  336.1180 0.46 5
  336.2862 0.32 3
  336.4531 0.06 1
  336.5721 0.12 1
  336.8893 0.17 2
  337.0935 0.38 4
  337.2438 0.23 2
  337.5357 0.11 1
  337.8383 0.11 1
  338.0930 0.31 3
  338.7003 0.12 1
  338.7988 0.05 0
  338.9737 0.06 1
  339.0648 0.06 1
  339.1793 0.28 3
  339.2557 0.14 1
  339.3529 0.13 1
  339.5598 0.08 1
  339.7274 0.14 1
  340.1233 0.34 3
  340.5797 0.03 0
  340.7853 0.12 1
  340.9603 0.19 2
  341.1499 0.32 3
  341.2670 0.18 2
  341.3948 0.07 1
  341.6537 0.14 1
  342.0410 0.52 5
  342.1761 0.28 3
  342.3797 0.12 1
  342.5880 0.14 1
  342.8290 0.18 2
  343.1139 0.63 6
  343.2390 0.19 2
  343.3615 0.07 1
  344.1244 0.35 3
  344.2781 0.24 2
  344.9319 0.20 2
  345.1942 0.45 4
  345.4206 0.13 1
  345.5205 0.07 1
  346.1178 0.79 8
  346.3502 0.04 0
  346.6692 0.15 1
  347.1308 1.91 19
  347.4398 0.04 0
  347.5770 0.11 1
  347.7522 0.11 1
  347.9746 0.27 3
  348.2051 0.47 5
  348.8926 0.11 1
  349.1784 0.58 6
  350.0945 0.10 1
  350.2338 0.16 2
  350.3604 0.11 1
  351.0487 0.37 4
  351.1927 0.26 3
  352.1157 0.31 3
  352.2337 0.25 2
  352.6929 0.03 0
  352.9776 0.27 3
  353.1789 0.24 2
  353.2715 0.12 1
  353.4842 0.11 1
  353.6595 0.12 1
  353.7935 0.07 1
  353.9409 0.16 2
  354.1175 0.10 1
  354.2215 0.11 1
  354.3967 0.13 1
  354.6185 0.13 1
  354.9249 0.19 2
  355.1088 0.34 3
  355.2507 0.18 2
  355.6811 0.09 1
  355.8283 0.08 1
  356.0682 0.38 4
  356.2381 0.20 2
  356.3333 0.07 1
  356.8091 0.05 0
  357.1196 0.56 6
  357.5854 0.16 2
  358.1639 0.62 6
  358.3698 0.08 1
  358.6531 0.12 1
  358.8224 0.22 2
  358.9697 0.16 2
  359.1964 0.80 8
  359.3323 0.44 4
  359.5496 0.28 3
  359.8356 0.21 2
  360.0849 0.54 5
  360.2429 0.40 4
  360.3136 0.20 2
  360.6156 0.09 1
  360.7863 0.10 1
  361.1463 0.64 6
  361.4603 0.14 1
  361.6037 0.08 1
  362.1418 0.22 2
  362.3105 0.03 0
  362.7453 0.07 1
  363.0194 0.15 1
  363.1601 0.12 1
  363.8584 0.05 0
  363.9865 0.09 1
  364.2506 0.11 1
  364.4047 0.10 1
  364.5067 0.08 1
  365.0397 0.16 2
  365.1812 0.06 1
  366.1732 0.19 2
  366.4180 0.07 1
  366.5588 0.11 1
  366.8217 0.09 1
  367.1747 0.14 1
  367.5197 0.07 1
  368.0409 0.08 1
  368.2635 0.22 2
  368.4767 0.11 1
  368.6539 0.15 1
  368.7465 0.06 1
  368.8477 0.10 1
  369.2521 0.28 3
  369.7924 0.12 1
  369.9750 0.10 1
  370.1949 0.16 2
  370.7486 0.10 1
  371.1291 0.64 6
  371.2543 0.38 4
  371.5362 0.16 2
  372.0914 0.17 2
  372.2573 0.29 3
  373.1251 0.53 5
  373.2917 0.25 2
  373.6897 0.05 0
  373.9370 0.16 2
  374.1676 0.35 3
  374.3463 0.15 1
  374.5710 0.08 1
  374.7416 0.03 0
  375.1096 0.06 1
  375.2590 0.09 1
  375.7797 0.08 1
  376.0804 0.19 2
  376.2351 0.25 2
  377.0553 0.27 3
  377.2347 0.20 2
  377.6382 0.11 1
  377.8049 0.12 1
  377.9783 0.07 1
  378.1163 0.11 1
  378.2477 0.16 2
  378.3418 0.12 1
  378.4651 0.10 1
  378.8900 0.08 1
  379.0835 0.14 1
  379.2296 0.14 1
  380.0147 0.12 1
  380.1988 0.22 2
  381.0454 0.28 3
  381.2389 0.24 2
  382.0096 0.20 2
  382.3472 0.06 1
  382.6001 0.02 0
  382.7202 0.07 1
  382.8297 0.11 1
  383.1760 0.51 5
  383.4383 0.28 3
  383.7179 0.12 1
  383.9535 0.15 1
  384.1017 0.05 0
  384.2318 0.13 1
  384.3226 0.11 1
  384.5175 0.07 1
  384.7204 0.12 1
  384.9573 0.23 2
  385.1703 0.52 5
  385.4019 0.25 2
  385.7610 0.12 1
  386.1335 0.20 2
  386.2730 0.07 1
  386.8292 0.03 0
  387.1863 0.55 5
  387.3306 0.14 1
  387.4467 0.05 0
  387.5696 0.04 0
  387.6891 0.11 1
  387.9762 0.10 1
  388.1245 0.19 2
  388.2146 0.13 1
  388.4697 0.11 1
  388.8830 0.01 0
  389.0981 0.34 3
  389.7752 0.10 1
  389.9569 0.02 0
  390.0598 0.05 0
  390.1753 0.06 1
  390.2654 0.05 0
  390.3877 0.11 1
  391.1097 0.23 2
  391.8592 0.08 1
  392.1505 0.32 3
  392.3442 0.07 1
  392.7330 0.02 0
  392.9868 0.07 1
  393.2100 0.18 2
  393.4004 0.09 1
  393.5848 0.12 1
  394.0418 0.14 1
  394.8484 0.05 0
  395.2058 0.34 3
  395.2847 0.12 1
  395.6255 0.04 0
  395.7832 0.05 0
  396.0612 0.27 3
  396.2544 0.18 2
  396.3760 0.04 0
  397.1607 0.65 6
  397.3846 0.12 1
  397.6293 0.13 1
  397.8311 0.11 1
  398.2509 0.34 3
  398.4535 0.11 1
  399.1982 0.64 6
  399.4262 0.15 1
  399.5977 0.01 0
  400.1515 0.38 4
  400.3210 0.11 1
  400.5231 0.08 1
  401.1664 0.46 5
  401.3452 0.10 1
  402.0579 0.26 3
  402.6339 0.14 1
  403.0163 0.17 2
  403.0910 0.09 1
  403.2205 0.23 2
  404.1182 0.29 3
  404.3385 0.22 2
  404.4153 0.08 1
  404.9773 0.14 1
  405.1489 0.40 4
  405.2844 0.16 2
  405.4106 0.11 1
  405.7137 0.12 1
  405.8552 0.05 0
  406.1556 0.38 4
  406.8213 0.11 1
  407.0009 0.10 1
  407.1905 0.13 1
  407.3601 0.12 1
  407.7053 0.12 1
  407.8789 0.15 1
  408.0098 0.02 0
  408.1754 0.22 2
  408.2869 0.14 1
  409.0362 0.10 1
  409.1945 0.09 1
  409.6332 0.12 1
  409.7808 0.09 1
  410.4434 0.36 4
  410.9149 0.09 1
  411.1367 0.20 2
  411.3859 0.26 3
  411.4627 0.09 1
  411.7906 0.18 2
  411.9577 0.13 1
  412.2342 1.11 11
  412.3905 0.49 5
  412.8368 0.10 1
  413.1488 0.61 6
  413.3920 0.20 2
  413.4702 0.13 1
  413.7013 0.12 1
  413.9091 0.22 2
  414.2973 0.61 6
  414.4156 0.15 1
  414.7316 0.09 1
  415.0778 0.25 2
  415.2996 0.12 1
  415.3845 0.12 1
  415.9911 0.10 1
  416.1280 0.25 2
  416.6426 0.12 1
  416.8976 0.15 1
  417.1292 0.18 2
  417.2207 0.14 1
  417.5939 0.12 1
  417.6993 0.14 1
  417.9991 0.09 1
  418.1259 0.07 1
  418.3022 0.13 1
  418.4190 0.03 0
  418.6601 0.13 1
  419.0713 0.11 1
  419.2296 0.11 1
  419.3297 0.11 1
  419.6923 0.13 1
  419.9814 0.24 2
  420.1904 0.09 1
  420.2972 0.17 2
  420.7533 0.15 1
  421.0886 0.14 1
  421.1527 0.07 1
  421.2929 0.17 2
  421.4352 0.06 1
  421.6569 0.20 2
  421.9327 0.17 2
  422.0990 0.29 3
  422.1578 0.13 1
  422.3768 0.16 2
  422.6066 0.03 0
  422.8023 0.06 1
  422.9345 0.25 2
  423.2438 0.10 1
  423.3800 0.14 1
  423.6726 0.11 1
  424.0099 0.13 1
  424.3098 0.14 1
  424.4782 0.17 2
  424.5944 0.12 1
  424.7113 0.10 1
  425.1429 0.53 5
  425.2738 0.19 2
  425.4916 0.11 1
  425.6185 0.12 1
  425.8350 0.10 1
  426.0822 0.40 4
  426.2138 0.56 6
  426.3468 0.28 3
  426.4764 0.18 2
  426.6334 0.11 1
  426.8606 0.06 1
  427.1205 0.53 5
  427.3283 0.35 3
  427.4840 0.26 3
  427.5521 0.14 1
  427.6811 0.30 3
  427.8268 0.37 4
  428.1622 0.46 5
  428.4522 0.20 2
  428.5578 0.31 3
  428.6901 0.27 3
  428.9414 0.32 3
  429.3491 0.54 5
  429.6451 0.21 2
  429.8857 0.27 3
  430.0408 0.12 1
  430.2460 0.18 2
  430.5113 0.04 0
  430.8315 0.12 1
  431.0948 0.12 1
  431.2245 0.11 1
  431.3729 0.10 1
  431.6536 0.09 1
  432.0320 0.22 2
  432.3521 0.11 1
  432.6423 0.06 1
  432.7847 0.11 1
  433.0233 0.10 1
  433.2506 0.10 1
  433.3522 0.04 0
  433.7534 0.22 2
  434.0776 0.13 1
  434.3430 0.11 1
  434.7890 0.07 1
  434.9007 0.10 1
  435.0251 0.12 1
  435.1895 0.26 3
  435.4109 0.07 1
  435.5921 0.07 1
  435.8455 0.12 1
  436.0849 0.32 3
  436.3136 0.25 2
  436.4761 0.20 2
  436.6185 0.25 2
  436.9021 0.47 5
  437.1415 0.38 4
  437.3836 0.46 5
  437.6411 0.23 2
  437.8985 0.26 3
  438.1420 0.49 5
  438.3359 0.23 2
  438.4523 0.42 4
  438.5667 0.17 2
  438.7767 0.13 1
  438.9078 0.25 2
  439.0269 0.45 4
  439.1626 0.19 2
  439.3125 0.32 3
  439.5599 0.20 2
  439.6723 0.07 1
  440.0315 0.20 2
  440.2623 0.25 2
  440.3727 0.12 1
  440.5526 0.21 2
  440.9727 0.22 2
  441.2657 0.27 3
  441.6451 0.16 2
  442.2358 0.30 3
  442.4131 0.13 1
  442.6198 0.05 0
  443.2066 0.64 6
  443.7734 0.10 1
  444.1735 0.52 5
  444.3883 0.51 5
  444.6774 0.11 1
  444.8326 0.11 1
  445.0716 0.06 1
  445.4269 0.13 1
  445.9228 0.19 2
  446.9421 0.08 1
  447.1703 0.10 1
  447.4187 0.09 1
  448.1911 0.19 2
  448.8016 0.10 1
  448.9609 0.09 1
  449.2829 0.23 2
  450.0019 0.16 2
  450.2500 0.25 2
  450.3723 0.23 2
  450.4866 0.13 1
  450.7780 0.03 0
  451.1543 0.28 3
  451.3983 0.11 1
  451.5540 0.12 1
  452.2606 0.56 6
  452.7405 0.08 1
  452.9304 0.06 1
  453.0554 0.11 1
  453.2191 0.42 4
  453.5741 0.09 1
  453.7720 0.06 1
  453.9084 0.11 1
  454.0929 0.02 0
  454.2560 0.05 0
  454.3931 0.14 1
  454.4920 0.10 1
  454.7107 0.08 1
  454.9774 0.10 1
  455.0630 0.12 1
  455.1720 0.07 1
  455.4688 0.17 2
  455.6133 0.09 1
  455.8025 0.07 1
  456.0084 0.07 1
  456.1174 0.45 4
  456.3327 0.40 4
  456.5741 0.09 1
  456.8329 0.20 2
  457.0135 0.41 4
  457.0863 0.22 2
  457.2274 0.33 3
  457.4468 0.22 2
  457.6394 0.23 2
  457.8045 0.43 4
  458.3014 16.96 169
  458.7796 0.35 3
  459.0805 0.21 2
  459.4029 0.23 2
  459.5748 0.14 1
  459.6825 0.13 1
  459.9380 0.16 2
  460.0624 0.08 1
  460.3313 0.06 1
  460.6563 0.11 1
  460.9085 0.12 1
  461.0851 0.10 1
  461.2423 0.11 1
  461.3179 0.03 0
  461.4731 0.10 1
  461.5573 0.03 0
  461.7774 0.10 1
  462.1454 0.06 1
  462.2731 0.22 2
  462.8832 0.11 1
  463.1040 0.29 3
  463.2572 0.11 1
  463.4974 0.35 3
  463.5817 0.13 1
  463.8105 0.16 2
  463.9396 0.16 2
  464.1838 0.20 2
  464.6127 0.09 1
  464.7625 0.07 1
  465.2336 0.20 2
  465.6585 0.09 1
  465.8130 0.25 2
  465.9736 0.06 1
  466.0914 0.28 3
  466.2232 0.16 2
  466.3517 0.10 1
  466.9004 0.11 1
  467.2424 0.07 1
  467.4539 0.17 2
  467.6600 0.10 1
  468.2957 0.14 1
  468.8104 0.10 1
  469.0085 0.07 1
  469.2635 0.35 3
  470.2689 0.81 8
  470.6953 0.11 1
  471.0587 0.30 3
  471.3164 0.58 6
  471.5099 0.36 4
  472.2677 0.10 1
  472.4712 0.14 1
  472.9586 0.14 1
  473.3362 0.10 1
  473.6923 0.06 1
  473.8537 0.07 1
  474.2105 0.18 2
  474.3886 0.12 1
  474.7067 0.07 1
  475.1633 0.22 2
  475.3716 0.14 1
  475.5055 0.13 1
  475.6160 0.06 1
  475.7465 0.11 1
  475.9615 0.03 0
  476.2615 0.11 1
  476.3733 0.04 0
  476.7309 0.07 1
  476.8494 0.13 1
  477.2156 0.33 3
  477.9543 0.05 0
  478.2203 0.16 2
  478.3888 0.44 4
  478.4684 0.09 1
  479.0246 0.23 2
  479.1563 0.40 4
  479.3174 0.32 3
  479.5220 0.18 2
  479.9278 0.11 1
  480.1872 0.18 2
  480.4647 0.16 2
  480.7121 0.11 1
  480.8492 0.17 2
  481.1494 0.36 4
  481.3453 0.33 3
  482.2226 0.22 2
  482.4145 0.12 1
  482.5904 0.14 1
  482.8505 0.10 1
  483.0558 0.16 2
  483.5393 0.12 1
  483.8529 0.09 1
  484.3518 0.10 1
  484.6053 0.11 1
  484.7010 0.12 1
  485.4253 0.09 1
  485.5437 0.03 0
  485.9737 0.11 1
  486.3463 0.10 1
  486.6025 0.07 1
  486.8540 0.06 1
  487.0279 0.10 1
  487.3436 0.07 1
  488.2808 0.19 2
  488.4621 0.07 1
  488.6293 0.02 0
  489.3103 0.18 2
  489.9439 0.11 1
  490.0443 0.06 1
  490.1921 0.10 1
  490.3808 0.13 1
  490.6250 0.11 1
  491.0592 0.05 0
  491.1984 0.08 1
  491.4586 0.20 2
  491.6172 0.03 0
  492.0548 0.11 1
  492.1773 0.14 1
  492.3693 0.21 2
  492.8170 0.11 1
  493.0820 0.24 2
  493.2198 0.20 2
  493.3068 0.12 1
  493.4199 0.23 2
  493.7317 0.06 1
  493.8977 0.10 1
  494.3260 0.68 7
  494.5863 0.14 1
  494.6867 0.12 1
  494.9979 0.05 0
  495.1398 0.06 1
  495.3827 0.11 1
  495.7361 0.11 1
  495.8559 0.11 1
  496.1644 0.06 1
  496.4322 0.11 1
  496.8404 0.03 0
  497.3987 0.06 1
  497.5533 0.09 1
  497.9662 0.05 0
  499.2729 0.11 1
  499.7007 0.06 1
  499.7984 0.04 0
  500.3956 0.06 1
  500.6038 0.10 1
  501.0932 0.17 2
  501.9368 0.13 1
  502.1818 0.15 1
  502.5233 0.06 1
  502.9592 0.03 0
  503.1551 0.13 1
  503.3214 0.18 2
  503.4845 0.12 1
  503.5573 0.05 0
  503.9650 0.12 1
  504.0612 0.10 1
  504.1815 0.11 1
  504.4529 0.13 1
  504.6353 0.12 1
  504.7623 0.08 1
  504.9494 0.11 1
  505.1085 0.25 2
  505.2141 0.22 2
  505.3912 0.40 4
  505.5676 0.40 4
  505.8991 0.14 1
  506.0635 0.12 1
  506.1932 0.13 1
  506.3603 0.38 4
  506.5568 0.14 1
  506.8917 0.08 1
  507.0407 0.21 2
  507.3469 0.33 3
  507.8455 0.08 1
  508.2820 0.46 5
  508.6390 0.20 2
  509.1758 0.13 1
  509.3208 0.11 1
  509.4579 0.09 1
  509.8362 0.04 0
  510.2728 0.32 3
  510.4145 0.07 1
  510.7107 0.11 1
  510.8304 0.05 0
  511.4883 0.04 0
  511.6427 0.11 1
  511.7938 0.10 1
  512.0104 0.12 1
  512.2859 0.16 2
  512.3641 0.11 1
  512.8241 0.16 2
  513.0341 0.12 1
  513.3289 0.14 1
  513.5496 0.04 0
  513.8405 0.10 1
  514.3253 0.11 1
  514.7338 0.11 1
  514.9431 0.07 1
  515.0328 0.09 1
  515.6473 0.04 0
  515.7490 0.08 1
  516.2880 0.20 2
  516.3910 0.19 2
  516.6398 0.16 2
  517.1782 0.12 1
  517.3300 0.08 1
  517.4971 0.14 1
  517.6269 0.30 3
  518.1921 0.41 4
  518.4315 0.20 2
  518.6750 0.15 1
  518.9933 0.49 5
  519.3311 1.08 11
  519.4669 0.60 6
  519.5974 0.12 1
  519.7023 0.10 1
  519.7800 0.07 1
  519.9358 0.13 1
  520.2101 0.89 9
  520.4134 0.71 7
  520.5131 0.36 4
  521.3466 2.17 22
  521.8369 0.11 1
  522.0002 0.13 1
  522.3521 0.50 5
  522.5942 0.38 4
  522.6725 0.16 2
  522.8083 0.13 1
  522.9515 0.11 1
  523.0418 0.04 0
  523.3896 0.18 2
  523.8199 0.05 0
  524.0480 0.18 2
  524.3116 0.25 2
  524.6167 0.13 1
  524.8348 0.33 3
  525.1212 0.34 3
  525.3159 0.15 1
  525.4478 0.13 1
  525.6190 0.15 1
  525.8024 0.16 2
  525.9636 0.11 1
  526.1429 0.37 4
  526.4788 0.27 3
  526.7211 0.30 3
  526.9191 0.25 2
  527.0757 0.17 2
  527.3882 0.57 6
  527.9417 0.41 4
  528.0748 0.25 2
  528.2441 0.09 1
  528.4268 0.28 3
  528.6269 0.40 4
  528.9401 0.27 3
  529.0914 0.52 5
  529.2018 0.29 3
  529.4628 0.50 5
  529.8061 0.38 4
  529.9861 0.48 5
  530.1267 0.31 3
  530.4205 0.75 7
  530.6567 0.48 5
  531.0764 0.79 8
  531.4659 0.85 8
  531.6406 0.48 5
  532.3187 2.65 26
  532.5309 1.98 20
  532.6989 1.08 11
  532.8321 0.87 9
  533.3120 1.89 19
  533.5396 1.27 13
  534.3322 2.09 21
  535.3685 17.04 170
  535.8646 1.02 10
  536.4718 0.80 8
  537.0067 0.88 9
  537.2230 0.68 7
  537.4694 0.73 7
  537.8389 0.53 5
  538.1121 0.75 7
  538.5540 0.62 6
  539.0522 0.75 7
  539.4017 0.60 6
  539.5751 0.49 5
  539.6755 0.21 2
  539.8544 0.44 4
  540.2883 0.64 6
  540.6807 0.66 7
  541.0128 0.75 7
  541.5077 0.90 9
  541.7970 0.45 4
  542.0528 0.93 9
  542.3702 0.78 8
  542.7573 0.77 8
  543.0104 0.90 9
  543.6949 1.17 12
  550.3798 99.97 999
  551.2279 30.84 308
  552.1936 13.75 137
  552.8298 7.32 73
  553.7603 3.82 38
  554.7060 2.23 22
  554.9780 1.87 19
  555.3383 1.27 13
  555.6277 1.43 14
  555.9767 0.88 9
  556.3223 0.92 9
  556.8043 0.77 8
  557.0582 0.40 4
  557.4059 0.54 5
  557.6860 0.46 5
  557.8918 0.32 3
  558.0797 0.52 5
  558.2883 0.37 4
  558.5377 0.40 4
  558.7643 0.25 2
//
