ACCESSION: MSBNK-Kyoto_Univ-CA000134
RECORD_TITLE: 3-Hydroxy-4-ketotorulene; FAB-EBEB; MS2; m/z: 564.40; [M]*+
DATE: 2016.01.19 (Created 2007.03.15, modified 2011.05.10)
AUTHORS: Akimoto N, Graduate School of Pharmaceutical Sciences, Kyoto University and Maoka T, Research Institute for Production Development
LICENSE: CC BY-SA
COMMENT: Profile spectrum of this record is given as a JPEG file.
COMMENT: [Profile] CA000134.jpg
CH$NAME: 3-Hydroxy-4-ketotorulene
CH$COMPOUND_CLASS: Natural Product; Carotenoid
CH$FORMULA: C40H52O2
CH$EXACT_MASS: 564.39673
CH$SMILES: CC(=C1C=CC(=CC=CC(C)=CC=CC=C(C)C=CC=C(C=CC=C(C=CC=C(C)C)C)C)C)C(=O)C(O)CC1(C)C
CH$IUPAC: InChI=1S/C40H52O2/c1-30(2)17-13-20-33(5)23-15-25-34(6)24-14-21-31(3)18-11-12-19-32(4)22-16-26-35(7)27-28-37-36(8)39(42)38(41)29-40(37,9)10/h11-28,38,41H,29H2,1-10H3/b12-11+,20-13+,21-14+,22-16+,25-15+,28-27+,31-18+,32-19+,33-23+,34-24+,35-26+/t38-/m0/s1
CH$LINK: CHEMSPIDER 8319951
CH$LINK: PUBCHEM CID:10144442
CH$LINK: INCHIKEY JQSLJBXSPJMQQS-VJYZRFKTSA-N
AC$INSTRUMENT: JMS-HX/HX 110A, JEOL
AC$INSTRUMENT_TYPE: FAB-EBEB
AC$MASS_SPECTROMETRY: MS_TYPE MS2
AC$MASS_SPECTROMETRY: ION_MODE POSITIVE
AC$MASS_SPECTROMETRY: ATOM_GUN_CURRENT 5 mA
AC$MASS_SPECTROMETRY: BOMBARDMENT 6 kV xenon
AC$MASS_SPECTROMETRY: COLLISION_ENERGY 3 kV
AC$MASS_SPECTROMETRY: COLLISION_GAS Ar
AC$MASS_SPECTROMETRY: GAS_PRESSURE adjust to attenuate the intensity of the precursor ion by 30 %
AC$MASS_SPECTROMETRY: IONIZATION FAB
AC$MASS_SPECTROMETRY: MATRIX 1-2 uL m-NBA
AC$MASS_SPECTROMETRY: PROBE_TIP stainless-steel
MS$FOCUSED_ION: BASE_PEAK 564.3002
MS$FOCUSED_ION: PRECURSOR_M/Z 564.40
MS$FOCUSED_ION: PRECURSOR_TYPE [M]+*
PK$SPLASH: splash10-03di-1930020000-ae90700a9ec7232b8c02
PK$NUM_PEAK: 1725
PK$PEAK: m/z int. rel.int.
  0.1384 0.01 0
  1.5158 0.01 0
  8.2489 0.01 0
  11.9648 0.01 0
  12.9779 0.02 0
  13.9782 0.16 2
  14.9749 0.33 3
  19.8363 0.01 0
  22.9288 0.11 1
  23.9703 0.05 0
  24.9445 0.09 1
  25.9617 0.47 5
  26.9638 2.68 27
  27.8489 0.01 0
  27.9501 0.17 2
  28.9692 1.51 15
  29.9587 0.04 0
  30.9578 0.06 1
  35.9401 0.10 1
  36.3283 0.01 0
  36.9489 0.42 4
  37.9556 0.92 9
  38.9553 3.32 33
  39.6113 0.05 0
  39.9789 0.30 3
  40.9692 4.51 45
  41.9681 0.22 2
  42.9759 2.22 22
  43.4666 0.01 0
  43.9922 0.04 0
  44.9751 0.18 2
  48.9353 0.03 0
  48.9880 0.02 0
  49.8116 0.17 2
  49.9521 0.47 5
  50.7789 0.05 0
  50.9548 1.76 18
  51.9654 0.41 4
  52.9638 0.93 9
  54.0004 0.07 1
  54.9819 3.52 35
  56.8196 0.04 0
  57.0044 0.29 3
  58.0075 0.11 1
  58.9770 0.05 0
  59.9462 0.10 1
  60.9407 0.23 2
  61.8345 0.11 1
  61.9559 0.73 7
  62.9416 1.33 13
  63.1494 0.03 0
  63.5889 0.05 0
  63.9666 0.22 2
  64.3160 0.02 0
  64.5143 0.04 0
  64.9492 1.68 17
  65.1426 0.04 0
  65.2871 0.03 0
  65.5512 0.05 0
  65.7503 0.05 0
  65.9626 0.45 4
  66.9669 2.98 30
  67.6793 0.02 0
  67.9545 0.03 0
  68.9848 4.85 48
  69.9375 0.06 1
  70.9615 0.25 2
  71.9538 0.06 1
  72.0380 0.03 0
  72.7854 0.01 0
  72.9610 0.17 2
  73.7028 0.10 1
  73.7976 0.15 1
  73.9211 0.68 7
  74.1773 0.02 0
  74.6725 0.08 1
  74.9159 0.94 9
  75.1239 0.18 2
  75.2358 0.14 1
  75.6173 0.11 1
  75.7176 0.07 1
  75.9378 0.47 5
  76.1967 0.05 0
  76.2866 0.07 1
  76.9227 6.93 69
  77.1527 0.06 1
  77.2742 0.07 1
  77.4753 0.03 0
  77.7124 0.06 1
  77.9346 1.68 17
  78.2928 0.02 0
  78.9456 6.12 61
  79.1995 0.09 1
  79.6436 0.01 0
  79.9753 0.93 9
  80.9566 6.03 60
  81.9621 0.33 3
  82.9732 1.40 14
  84.6719 0.13 1
  84.9612 0.99 10
  85.6088 0.07 1
  85.9166 0.39 4
  86.6215 0.06 1
  86.9008 0.74 7
  87.3903 0.05 0
  87.5607 0.02 0
  87.7427 0.06 1
  87.9466 0.47 5
  88.1184 0.12 1
  88.3936 0.08 1
  88.4640 0.08 1
  88.5436 0.10 1
  88.8993 1.37 14
  89.2142 0.17 2
  89.4102 0.05 0
  89.5959 0.12 1
  89.6694 0.08 1
  89.9484 0.71 7
  90.2201 0.16 2
  90.3807 0.11 1
  90.4537 0.04 0
  90.9265 22.73 227
  91.3201 0.12 1
  91.5020 0.05 0
  91.9486 2.16 22
  92.1708 0.05 0
  92.4020 0.11 1
  92.9584 13.05 130
  93.1508 0.13 1
  93.3393 0.10 1
  93.6656 0.07 1
  93.9703 0.59 6
  94.4290 0.17 2
  94.9700 3.83 38
  95.1948 0.02 0
  95.6922 0.05 0
  95.9009 0.09 1
  96.0563 0.08 1
  96.1548 0.03 0
  96.6585 0.02 0
  96.9910 0.53 5
  97.2997 0.01 0
  97.4761 0.02 0
  97.8522 0.28 3
  98.8800 0.19 2
  99.8437 0.02 0
  100.6345 0.13 1
  100.7582 0.02 0
  100.9335 0.58 6
  101.0941 0.05 0
  101.2416 0.06 1
  101.5694 0.24 2
  101.9111 1.84 18
  102.1099 0.19 2
  102.2584 0.02 0
  102.9107 5.25 52
  103.2271 0.15 1
  103.5252 0.08 1
  103.6918 0.34 3
  103.9592 2.85 28
  104.3107 0.12 1
  104.4931 0.13 1
  104.9470 33.36 333
  105.1989 0.09 1
  105.3607 0.10 1
  105.9528 2.50 25
  106.3283 0.11 1
  106.9745 14.14 141
  107.1836 0.11 1
  107.3659 0.14 1
  107.4891 0.10 1
  107.6207 0.10 1
  107.9622 0.65 6
  108.1286 0.07 1
  108.5615 0.19 2
  108.9870 12.72 127
  109.3659 0.02 0
  109.4895 0.11 1
  109.6791 0.16 2
  109.9546 0.49 5
  110.1756 0.06 1
  110.5271 0.03 0
  110.6094 0.03 0
  110.9425 1.27 13
  111.1680 0.01 0
  111.2727 0.01 0
  111.4839 0.01 0
  111.9102 0.15 1
  112.0294 0.03 0
  112.1722 0.11 1
  112.3024 0.04 0
  112.6556 0.36 4
  112.9150 0.67 7
  113.0960 0.32 3
  113.2951 0.23 2
  113.4322 0.14 1
  113.9165 1.08 11
  114.1993 0.32 3
  114.3130 0.17 2
  114.8936 21.24 212
  115.1762 0.08 1
  115.3706 0.10 1
  115.9182 7.28 73
  116.1388 0.16 2
  116.3431 0.29 3
  116.9115 17.82 178
  117.1737 0.12 1
  117.2940 0.05 0
  117.5065 0.04 0
  117.6450 0.28 3
  117.9276 3.05 30
  118.1537 0.16 2
  118.3763 0.09 1
  118.9415 31.78 318
  119.1929 0.12 1
  119.3720 0.12 1
  119.6540 0.21 2
  119.7930 0.31 3
  119.9667 3.32 33
  120.2526 0.11 1
  120.3557 0.04 0
  120.9481 7.44 74
  121.2442 0.04 0
  121.9504 0.94 9
  122.0806 0.11 1
  122.2035 0.10 1
  122.2861 0.08 1
  122.5851 0.01 0
  122.9413 2.00 20
  123.3110 0.11 1
  123.6264 0.18 2
  123.9144 0.92 9
  124.3270 0.17 2
  124.5698 0.04 0
  124.9324 1.59 16
  125.1804 0.15 1
  125.3903 0.13 1
  125.5254 0.14 1
  125.8970 1.45 14
  126.0980 0.19 2
  126.3451 0.18 2
  126.8912 9.31 93
  127.1570 0.43 4
  127.3792 0.32 3
  127.8791 26.07 261
  128.3782 0.42 4
  128.8967 28.18 282
  129.1416 0.23 2
  129.2563 0.17 2
  129.9106 10.23 102
  130.1366 0.25 2
  130.2472 0.15 1
  130.9159 24.77 248
  131.3438 0.26 3
  131.9335 5.59 56
  132.4201 0.10 1
  132.6313 0.69 7
  132.9473 16.29 163
  133.2702 0.28 3
  133.4624 0.12 1
  133.6454 0.14 1
  133.9487 2.92 29
  134.1739 0.19 2
  134.2738 0.15 1
  134.9452 10.48 105
  135.4320 0.11 1
  135.6404 0.09 1
  135.9247 0.48 5
  136.1886 0.05 0
  136.2633 0.04 0
  136.3847 0.09 1
  136.5528 0.14 1
  136.9246 1.76 18
  137.1863 0.03 0
  137.5141 0.10 1
  137.7142 0.12 1
  137.9269 0.77 8
  138.2312 0.12 1
  138.3136 0.10 1
  138.5232 0.43 4
  138.8821 3.46 35
  139.1106 0.07 1
  139.2287 0.05 0
  139.3230 0.09 1
  139.5678 0.26 3
  139.7178 0.50 5
  139.9077 1.36 14
  140.1215 0.73 7
  140.8913 22.31 223
  141.1722 0.33 3
  141.3687 0.25 2
  141.9109 20.66 206
  142.1915 0.22 2
  142.2792 0.12 1
  142.9140 30.97 309
  143.3078 0.20 2
  143.4608 0.35 3
  143.9320 9.94 99
  144.1698 0.23 2
  144.2941 0.06 1
  144.9359 29.10 291
  145.4423 0.27 3
  145.6007 0.29 3
  145.9540 3.07 31
  146.2835 0.06 1
  146.9611 9.64 96
  147.3508 0.13 1
  147.5938 0.13 1
  147.9630 0.97 10
  148.1772 0.11 1
  148.2414 0.04 0
  148.4217 0.18 2
  148.5395 0.08 1
  148.9619 1.76 18
  149.1026 0.19 2
  149.4633 0.24 2
  149.8975 1.03 10
  150.2011 0.12 1
  150.5572 0.45 4
  150.9197 3.68 37
  151.8961 9.09 91
  152.1693 0.49 5
  152.8974 13.90 139
  153.2215 0.14 1
  153.8882 7.02 70
  154.2677 0.14 1
  154.9401 22.41 224
  155.1633 0.38 4
  155.9581 15.01 150
  156.2189 0.29 3
  156.9559 30.49 305
  157.2595 0.08 1
  157.4857 0.36 4
  157.9788 5.26 53
  158.2794 0.31 3
  158.9815 15.58 156
  159.2945 0.38 4
  159.5401 0.21 2
  159.7603 0.40 4
  159.9895 2.19 22
  160.2671 0.14 1
  160.3977 0.12 1
  160.5690 0.11 1
  160.7072 0.19 2
  160.9939 5.24 52
  161.1959 0.31 3
  161.2889 0.15 1
  161.4718 0.16 2
  161.6127 0.12 1
  161.9812 0.97 10
  162.3958 0.09 1
  162.5941 0.21 2
  162.9610 3.02 30
  163.2214 0.21 2
  163.3816 0.20 2
  163.5674 0.42 4
  163.9793 1.04 10
  164.9254 22.24 222
  165.2495 0.20 2
  165.9388 7.65 76
  166.4608 0.35 3
  166.9594 17.72 177
  167.2308 0.12 1
  167.3172 0.07 1
  167.5419 0.39 4
  167.9850 6.57 66
  168.2251 0.39 4
  168.9801 20.78 208
  169.3240 0.18 2
  169.4192 0.12 1
  169.9850 9.75 97
  170.3937 0.07 1
  170.9919 15.16 151
  171.2978 0.32 3
  171.4515 0.06 1
  171.5814 0.29 3
  171.9925 3.00 30
  172.2653 0.19 2
  172.9828 9.46 95
  173.3591 0.17 2
  173.5789 0.46 5
  173.9662 1.38 14
  174.3055 0.24 2
  175.0003 4.99 50
  175.3520 0.22 2
  175.4650 0.25 2
  175.9066 2.93 29
  176.2830 0.25 2
  176.5714 0.26 3
  176.9838 2.64 26
  177.2737 0.18 2
  177.9126 11.91 119
  178.3345 0.26 3
  178.9436 20.38 204
  179.3452 0.27 3
  179.5183 0.43 4
  179.6586 0.56 6
  179.9650 9.22 92
  180.9503 19.58 196
  181.3505 0.30 3
  181.9615 9.14 91
  182.2245 0.28 3
  182.3354 0.15 1
  182.9758 16.03 160
  183.3867 0.16 2
  183.6061 0.17 2
  183.9849 3.92 39
  184.1818 0.25 2
  184.5323 0.38 4
  184.9915 7.96 80
  185.2724 0.12 1
  185.4358 0.36 4
  185.9779 1.80 18
  186.1712 0.08 1
  186.9798 4.53 45
  187.5399 0.19 2
  187.7314 0.31 3
  188.0083 1.61 16
  188.3331 0.23 2
  188.9097 7.68 77
  189.4232 0.26 3
  189.9264 3.60 36
  190.2094 0.51 5
  190.9040 8.51 85
  191.3564 0.23 2
  191.9302 8.10 81
  192.3777 0.39 4
  192.9512 16.55 165
  193.2023 0.19 2
  193.3931 0.25 2
  193.9610 8.84 88
  194.2084 0.19 2
  194.9604 18.47 185
  195.4346 0.33 3
  195.9869 6.09 61
  196.2397 0.09 1
  196.9822 13.45 134
  197.3964 0.08 1
  197.5311 0.15 1
  197.6833 0.21 2
  197.9910 1.94 19
  198.2681 0.15 1
  198.4510 0.31 3
  198.9918 5.78 58
  199.3668 0.09 1
  199.4957 0.26 3
  199.6487 0.29 3
  199.9685 1.30 13
  200.2348 0.24 2
  200.3795 0.09 1
  200.5058 0.28 3
  200.5977 0.10 1
  200.9984 4.55 45
  201.2890 0.43 4
  201.9108 6.68 67
  202.3053 0.25 2
  202.4820 0.42 4
  202.9326 7.79 78
  203.2555 0.18 2
  203.4525 0.21 2
  203.9530 3.30 33
  204.3159 0.31 3
  204.9393 9.50 95
  205.5746 0.75 7
  205.9652 6.07 61
  206.2533 0.09 1
  206.9734 12.69 127
  207.4479 0.16 2
  207.9846 5.66 57
  208.9754 12.58 126
  209.3045 0.30 3
  209.4746 0.21 2
  209.6474 0.42 4
  210.0079 2.22 22
  210.3562 0.22 2
  210.4419 0.11 1
  210.5643 0.08 1
  211.0089 6.11 61
  211.9120 1.18 12
  212.2729 0.09 1
  212.4001 0.11 1
  212.5311 0.12 1
  212.6844 0.31 3
  212.9898 3.06 31
  213.2238 0.29 3
  213.3437 0.08 1
  213.8013 0.23 2
  214.0137 0.57 6
  214.9273 6.38 64
  215.2165 0.13 1
  215.3648 0.27 3
  215.4868 0.24 2
  215.9737 2.99 30
  216.2881 0.29 3
  216.9793 7.70 77
  217.2189 0.22 2
  217.5269 0.37 4
  217.6228 0.31 3
  217.9801 2.79 28
  218.1942 0.27 3
  218.4497 0.34 3
  219.0095 7.75 77
  219.2178 0.40 4
  219.9711 4.27 43
  220.4806 0.20 2
  221.0139 8.57 86
  221.3151 0.21 2
  221.4466 0.07 1
  221.5920 0.26 3
  222.0190 3.39 34
  222.5217 0.45 4
  223.0403 5.82 58
  223.3648 0.25 2
  223.6183 0.12 1
  223.7401 0.33 3
  224.0449 1.41 14
  224.3722 0.27 3
  224.5843 0.44 4
  225.0342 3.14 31
  225.2885 0.31 3
  225.4934 0.32 3
  225.9955 1.97 20
  226.6532 0.45 4
  227.0395 2.05 20
  227.2815 0.29 3
  227.5888 0.53 5
  227.9937 2.26 23
  228.3121 0.03 0
  228.9823 4.58 46
  229.3488 0.10 1
  229.4646 0.22 2
  229.5521 0.07 1
  229.8048 0.49 5
  230.0351 1.88 19
  230.3234 0.21 2
  230.4103 0.07 1
  230.6090 0.52 5
  231.0126 5.22 52
  231.3582 0.15 1
  231.6170 0.39 4
  231.7197 0.17 2
  232.0280 3.44 34
  232.3678 0.31 3
  233.0325 7.15 71
  233.2901 0.34 3
  234.0355 3.01 30
  234.2530 0.18 2
  234.3895 0.23 2
  234.6525 0.42 4
  235.0395 6.38 64
  235.3870 0.13 1
  236.0504 2.04 20
  236.3051 0.08 1
  236.4984 0.22 2
  236.6316 0.30 3
  236.7530 0.22 2
  237.0565 4.54 45
  237.3383 0.20 2
  237.4683 0.13 1
  237.5521 0.05 0
  237.9870 0.84 8
  238.9515 3.62 36
  239.5822 0.36 4
  240.0121 1.46 15
  240.2189 0.36 4
  240.9496 2.37 24
  241.4260 0.11 1
  241.5046 0.07 1
  241.9904 1.39 14
  242.2845 0.09 1
  242.5146 0.17 2
  242.9966 3.99 40
  243.3378 0.04 0
  243.5183 0.18 2
  244.0090 2.17 22
  244.6295 0.38 4
  245.0245 4.81 48
  245.4778 0.15 1
  245.6545 0.16 2
  246.0344 2.49 25
  246.3806 0.21 2
  247.0049 5.07 51
  247.4194 0.12 1
  247.6001 0.21 2
  248.0339 1.21 12
  248.3505 0.05 0
  249.0289 3.71 37
  249.4854 0.21 2
  249.6630 0.18 2
  250.0480 1.03 10
  250.3105 0.11 1
  250.4901 0.15 1
  250.7188 0.21 2
  251.0675 3.27 33
  251.3314 0.20 2
  251.9745 2.15 21
  252.3771 0.20 2
  252.5363 0.12 1
  253.0006 2.57 26
  253.4803 0.15 1
  253.6203 0.19 2
  253.9885 1.19 12
  254.1564 0.27 3
  254.3136 0.12 1
  254.4384 0.25 2
  254.9786 2.62 26
  255.4824 0.25 2
  256.0188 1.55 15
  256.4331 0.06 1
  256.5958 0.23 2
  257.0121 3.37 34
  257.3974 0.15 1
  257.5249 0.03 0
  257.7674 0.33 3
  258.0370 2.25 22
  258.2224 0.28 3
  258.3998 0.11 1
  258.5400 0.25 2
  259.0397 3.91 39
  259.5746 0.26 3
  259.7761 0.27 3
  260.0419 1.83 18
  260.5332 0.25 2
  261.0518 3.24 32
  261.3018 0.08 1
  261.4381 0.10 1
  261.5911 0.12 1
  261.7520 0.15 1
  262.0520 1.37 14
  262.2642 0.25 2
  262.4477 0.08 1
  263.0345 2.12 21
  263.5322 0.22 2
  263.7151 0.21 2
  264.0771 1.05 10
  264.4086 0.21 2
  264.6861 0.47 5
  265.0383 2.74 27
  265.6075 0.16 2
  266.0050 0.80 8
  266.4424 0.30 3
  266.6595 0.11 1
  266.7688 0.08 1
  267.0399 1.66 17
  267.5627 0.03 0
  267.7133 0.20 2
  267.8479 0.20 2
  268.0604 0.95 9
  268.3002 0.05 0
  268.4402 0.07 1
  268.6587 0.31 3
  269.0426 2.41 24
  269.3098 0.13 1
  269.5591 0.22 2
  269.7017 0.18 2
  270.0503 1.00 10
  270.5516 0.15 1
  271.0350 3.26 33
  271.4211 0.26 3
  271.6156 0.19 2
  272.0727 1.43 14
  272.2943 0.06 1
  272.4720 0.24 2
  273.0663 3.03 30
  273.3878 0.23 2
  273.5449 0.12 1
  273.7232 0.47 5
  273.8477 0.22 2
  274.0641 1.27 13
  274.2545 0.11 1
  274.4056 0.09 1
  274.6254 0.38 4
  274.7452 0.24 2
  275.0715 2.04 20
  275.3945 0.12 1
  275.5350 0.14 1
  275.7268 0.14 1
  276.0692 0.86 9
  276.3576 0.22 2
  276.4942 0.13 1
  277.0698 1.88 19
  277.3097 0.16 2
  277.4343 0.09 1
  277.7295 0.19 2
  278.0747 1.45 14
  278.4619 0.14 1
  278.5819 0.13 1
  278.9911 1.38 14
  279.4491 0.10 1
  280.0378 0.68 7
  280.2485 0.13 1
  280.4352 0.20 2
  281.0454 1.21 12
  281.2862 0.27 3
  281.3883 0.05 0
  281.6344 0.54 5
  282.0893 2.24 22
  282.5684 0.31 3
  283.0354 2.18 22
  283.3323 0.17 2
  283.6367 0.06 1
  284.0538 0.81 8
  284.2206 0.13 1
  284.3261 0.06 1
  284.5070 0.14 1
  284.7874 0.11 1
  285.0811 2.11 21
  285.2840 0.16 2
  285.7187 0.16 2
  286.0726 0.94 9
  286.2375 0.33 3
  286.4138 0.12 1
  286.6642 0.13 1
  287.0469 2.04 20
  287.7895 0.08 1
  287.8715 0.06 1
  288.1231 0.73 7
  288.4200 0.19 2
  288.5208 0.08 1
  289.0166 1.52 15
  289.5186 0.08 1
  289.6994 0.24 2
  289.9711 0.38 4
  290.1086 0.30 3
  290.3276 0.20 2
  290.6207 0.12 1
  291.0747 1.23 12
  291.4587 0.10 1
  291.6350 0.18 2
  291.8093 0.14 1
  292.0757 0.52 5
  292.2300 0.20 2
  292.3456 0.05 0
  292.6635 0.21 2
  293.0516 0.83 8
  293.3402 0.03 0
  293.5399 0.15 1
  293.7524 0.06 1
  294.0096 0.59 6
  294.2028 0.17 2
  294.3057 0.12 1
  294.4781 0.12 1
  294.6872 0.10 1
  295.0481 1.21 12
  295.3161 0.17 2
  295.4464 0.08 1
  295.5915 0.16 2
  296.0741 0.57 6
  296.1991 0.20 2
  296.3802 0.12 1
  296.5735 0.19 2
  296.6724 0.12 1
  296.7780 0.30 3
  297.0468 1.88 19
  297.3196 0.11 1
  297.3925 0.05 0
  297.5048 0.09 1
  297.6633 0.10 1
  297.8378 0.26 3
  298.0144 1.06 11
  298.1782 0.19 2
  298.3200 0.18 2
  298.5414 0.05 0
  298.6537 0.05 0
  299.0571 2.39 24
  299.5139 0.11 1
  299.7234 0.14 1
  300.0639 0.86 9
  300.3489 0.15 1
  300.5122 0.14 1
  300.7557 0.09 1
  301.0207 0.96 10
  301.1545 0.74 7
  301.3386 0.07 1
  301.5246 0.16 2
  301.6966 0.15 1
  302.0594 0.42 4
  302.2408 0.35 3
  302.3619 0.09 1
  302.5420 0.10 1
  303.0073 1.58 16
  303.3126 0.20 2
  303.4652 0.10 1
  303.6366 0.10 1
  303.8796 0.27 3
  304.0999 0.30 3
  304.2948 0.08 1
  304.3658 0.04 0
  304.5721 0.10 1
  305.0221 0.70 7
  305.2914 0.10 1
  305.4441 0.10 1
  305.7267 0.20 2
  305.8265 0.10 1
  305.9384 0.28 3
  306.0750 0.20 2
  306.3531 0.11 1
  306.5400 0.05 0
  307.0063 0.86 9
  307.1215 0.57 6
  307.4076 0.10 1
  307.5336 0.07 1
  307.8291 0.09 1
  308.0831 0.36 4
  308.5348 0.11 1
  309.0382 0.83 8
  309.4216 0.10 1
  309.5295 0.18 2
  309.7776 0.13 1
  310.0665 0.60 6
  310.2784 0.08 1
  310.4976 0.25 2
  310.6149 0.21 2
  310.7437 0.13 1
  311.0629 1.26 13
  311.3043 0.17 2
  311.5255 0.13 1
  311.6396 0.11 1
  311.8374 0.13 1
  312.0809 0.97 10
  312.3404 0.11 1
  312.5168 0.11 1
  312.6000 0.10 1
  312.8120 0.28 3
  313.0327 1.09 11
  313.2104 0.34 3
  313.4828 0.11 1
  313.5606 0.06 1
  313.7290 0.04 0
  314.1068 0.34 3
  314.5670 0.04 0
  315.0294 0.95 9
  315.3253 0.11 1
  315.5508 0.17 2
  315.7233 0.06 1
  315.8851 0.11 1
  316.1562 0.28 3
  316.2408 0.12 1
  316.6456 0.11 1
  317.0430 0.71 7
  317.4411 0.21 2
  317.5942 0.11 1
  317.8560 0.13 1
  318.1441 0.38 4
  318.4503 0.10 1
  318.6296 0.18 2
  318.7780 0.23 2
  319.0305 0.84 8
  319.1729 0.37 4
  319.3952 0.09 1
  319.6443 0.08 1
  319.8076 0.22 2
  320.0380 0.26 3
  320.2281 0.12 1
  320.4571 0.22 2
  320.6781 0.02 0
  321.0046 0.62 6
  321.1276 0.30 3
  321.6100 0.13 1
  322.0138 0.23 2
  322.3411 0.12 1
  322.7557 0.09 1
  323.0910 0.55 5
  323.7961 0.12 1
  324.0388 0.34 3
  324.1987 0.12 1
  324.5221 0.13 1
  325.0115 0.77 8
  325.6065 0.12 1
  325.8593 0.13 1
  326.0275 0.32 3
  326.1714 0.22 2
  326.3502 0.11 1
  326.4921 0.07 1
  326.6515 0.13 1
  327.0718 0.66 7
  327.4364 0.19 2
  327.5272 0.08 1
  327.9469 0.13 1
  328.1702 0.31 3
  328.5429 0.07 1
  328.8140 0.27 3
  329.0892 0.83 8
  329.5588 0.08 1
  330.1207 0.74 7
  330.3427 0.12 1
  330.5917 0.08 1
  331.0678 1.16 12
  331.2481 0.42 4
  332.0396 0.30 3
  332.2407 0.15 1
  332.5084 0.19 2
  332.7922 0.13 1
  332.9530 0.20 2
  333.1205 0.19 2
  333.2469 0.11 1
  333.3869 0.09 1
  333.7804 0.07 1
  334.0536 0.27 3
  334.5454 0.14 1
  335.0722 0.52 5
  335.6166 0.10 1
  335.7216 0.19 2
  335.9215 0.14 1
  336.1355 0.36 4
  336.7116 0.10 1
  337.0912 0.61 6
  337.2629 0.20 2
  337.8122 0.07 1
  338.0040 0.10 1
  338.1488 0.38 4
  338.5191 0.08 1
  338.7056 0.08 1
  338.9621 0.34 3
  339.1311 0.66 7
  339.5822 0.13 1
  339.6705 0.05 0
  339.8132 0.04 0
  340.0893 0.37 4
  340.2159 0.42 4
  340.6012 0.24 2
  341.1023 0.80 8
  341.3145 0.06 1
  341.5408 0.10 1
  341.7610 0.08 1
  342.0237 0.22 2
  342.3997 0.14 1
  342.7520 0.18 2
  342.9481 0.12 1
  343.1273 0.70 7
  343.2674 0.08 1
  343.3988 0.07 1
  343.5862 0.19 2
  343.7431 0.07 1
  344.1043 0.72 7
  344.6596 0.08 1
  345.1583 0.64 6
  345.6322 0.06 1
  345.8297 0.11 1
  345.9591 0.11 1
  346.0797 0.18 2
  346.2233 0.21 2
  346.3130 0.12 1
  346.8631 0.03 0
  347.1078 0.49 5
  347.2419 0.32 3
  348.0976 0.27 3
  348.2951 0.11 1
  348.5594 0.09 1
  348.6437 0.09 1
  348.7253 0.08 1
  348.8420 0.11 1
  349.0686 0.59 6
  349.2379 0.34 3
  349.3701 0.20 2
  349.5157 0.08 1
  349.7592 0.11 1
  349.8577 0.09 1
  350.1511 0.35 3
  350.2428 0.22 2
  350.6387 0.07 1
  350.8371 0.18 2
  351.1055 0.69 7
  351.5872 0.05 0
  351.9704 0.19 2
  352.1404 0.32 3
  352.2781 0.25 2
  352.9562 0.20 2
  353.1998 0.42 4
  353.4859 0.11 1
  353.7740 0.04 0
  353.9124 0.02 0
  354.1756 0.33 3
  354.3092 0.17 2
  354.8721 0.13 1
  355.1333 0.53 5
  355.2623 0.32 3
  355.4668 0.09 1
  355.7672 0.01 0
  356.1459 0.43 4
  356.3214 0.05 0
  357.0776 0.25 2
  357.2383 0.37 4
  357.3402 0.17 2
  357.5259 0.10 1
  357.6995 0.18 2
  357.8817 0.28 3
  357.9933 0.10 1
  358.2536 0.31 3
  358.5737 0.06 1
  358.7963 0.12 1
  359.0061 0.14 1
  359.2166 0.32 3
  359.5597 0.15 1
  359.8657 0.08 1
  360.1873 0.16 2
  360.3009 0.05 0
  360.4489 0.02 0
  360.7402 0.06 1
  360.9171 0.16 2
  361.0706 0.30 3
  361.2610 0.22 2
  362.0502 0.12 1
  362.2359 0.08 1
  362.4619 0.11 1
  362.6430 0.10 1
  362.8482 0.03 0
  363.0151 0.38 4
  363.2008 0.39 4
  363.3549 0.10 1
  363.9364 0.11 1
  364.1040 0.28 3
  364.2507 0.13 1
  364.3490 0.05 0
  364.5637 0.08 1
  364.7151 0.27 3
  364.9178 0.13 1
  365.1661 1.61 16
  365.5337 0.13 1
  365.6750 0.06 1
  366.0823 0.46 5
  366.3065 0.12 1
  366.4398 0.08 1
  366.5125 0.05 0
  366.7529 0.16 2
  367.1475 0.30 3
  367.5292 0.08 1
  368.0841 0.25 2
  368.2592 0.11 1
  368.7919 0.24 2
  369.0175 0.17 2
  369.1738 0.14 1
  369.7139 0.13 1
  370.1356 0.33 3
  370.3255 0.15 1
  370.6906 0.14 1
  370.8624 0.13 1
  371.0531 0.26 3
  372.1772 0.18 2
  372.6937 0.10 1
  372.7685 0.03 0
  372.9081 0.10 1
  373.1165 0.15 1
  373.2453 0.08 1
  373.7861 0.11 1
  374.0700 0.16 2
  374.2103 0.23 2
  374.3250 0.12 1
  374.5199 0.09 1
  374.7040 0.06 1
  375.1127 0.42 4
  375.2787 0.15 1
  375.5451 0.06 1
  376.0854 0.61 6
  376.4962 0.05 0
  376.7148 0.10 1
  377.1122 0.54 5
  377.5939 0.10 1
  378.0797 0.25 2
  378.3024 0.22 2
  378.4508 0.09 1
  378.6188 0.11 1
  378.7052 0.10 1
  379.1040 0.44 4
  379.9847 0.11 1
  380.1325 0.25 2
  380.2297 0.12 1
  380.3613 0.13 1
  381.1187 0.29 3
  381.2584 0.20 2
  381.4420 0.10 1
  381.5648 0.10 1
  381.9773 0.11 1
  382.1414 0.11 1
  382.2359 0.18 2
  382.7091 0.09 1
  383.1135 0.30 3
  383.4572 0.10 1
  383.6186 0.12 1
  384.0041 0.13 1
  384.1135 0.22 2
  384.2675 0.32 3
  384.7017 0.05 0
  384.8516 0.08 1
  385.1494 0.49 5
  385.3385 0.30 3
  385.5769 0.05 0
  385.7268 0.11 1
  385.7977 0.06 1
  386.0166 0.04 0
  386.1760 0.11 1
  386.5096 0.01 0
  386.6521 0.13 1
  386.8183 0.07 1
  387.1277 0.25 2
  387.4654 0.12 1
  387.5863 0.05 0
  387.7235 0.10 1
  387.8944 0.14 1
  388.0984 0.24 2
  388.5666 0.10 1
  388.8497 0.11 1
  389.1496 0.75 7
  389.5584 0.13 1
  389.8152 0.18 2
  390.1091 0.31 3
  390.2206 0.12 1
  390.5071 0.07 1
  390.6862 0.09 1
  390.8261 0.11 1
  390.9241 0.11 1
  391.1491 0.40 4
  391.7715 0.14 1
  392.1217 0.29 3
  392.2386 0.30 3
  392.5143 0.03 0
  392.6536 0.09 1
  392.8726 0.11 1
  393.0957 0.11 1
  393.2586 0.12 1
  393.3836 0.15 1
  393.9981 0.14 1
  394.1921 0.11 1
  394.5734 0.07 1
  395.1116 0.19 2
  395.3212 0.17 2
  395.8682 0.08 1
  396.1853 0.50 5
  396.3611 0.04 0
  396.6938 0.13 1
  396.9873 0.09 1
  397.1361 0.20 2
  397.3058 0.11 1
  397.5479 0.06 1
  398.0099 0.16 2
  398.2588 0.24 2
  398.4164 0.17 2
  398.9203 0.09 1
  399.0312 0.29 3
  399.1387 0.29 3
  399.2612 0.21 2
  399.7949 0.11 1
  400.0479 0.13 1
  400.1940 0.03 0
  400.3090 0.12 1
  400.4464 0.11 1
  401.1472 0.18 2
  401.3827 0.23 2
  401.6324 0.14 1
  401.7034 0.05 0
  401.8631 0.10 1
  402.0924 0.39 4
  402.2826 0.37 4
  402.7996 0.06 1
  402.9789 0.06 1
  403.1589 0.19 2
  403.3307 0.08 1
  403.5442 0.05 0
  403.9278 0.10 1
  404.0372 0.15 1
  404.2061 0.20 2
  405.0572 0.22 2
  405.1787 0.11 1
  405.9806 0.46 5
  406.2001 1.09 11
  406.3103 0.51 5
  406.5954 0.11 1
  406.9433 0.11 1
  407.1622 0.14 1
  407.3088 0.13 1
  407.5432 0.11 1
  407.7662 0.18 2
  407.8872 0.09 1
  408.2230 0.02 0
  408.4352 0.10 1
  408.7595 0.11 1
  408.9075 0.19 2
  409.0663 0.40 4
  409.2670 0.19 2
  410.1584 0.86 9
  410.3456 0.36 4
  410.4477 0.13 1
  410.5335 0.11 1
  410.8208 0.26 3
  411.1810 0.60 6
  412.0199 0.13 1
  412.2328 0.09 1
  412.5580 0.11 1
  413.1765 0.18 2
  413.5416 0.04 0
  413.7856 0.12 1
  414.0514 0.06 1
  414.2150 0.26 3
  414.5875 0.08 1
  415.1447 0.49 5
  415.4395 0.26 3
  415.5761 0.09 1
  415.9588 0.10 1
  416.2402 0.38 4
  416.7629 0.05 0
  417.0287 0.23 2
  417.2424 0.59 6
  417.4846 0.11 1
  417.5860 0.12 1
  417.7199 0.11 1
  417.8173 0.17 2
  418.1210 0.17 2
  418.3232 0.25 2
  418.5478 0.07 1
  418.8082 0.12 1
  418.9090 0.11 1
  419.1674 0.51 5
  419.3474 0.22 2
  419.4773 0.12 1
  419.5807 0.12 1
  419.6457 0.06 1
  419.9285 0.09 1
  420.0123 0.02 0
  420.2865 0.14 1
  420.6696 0.11 1
  420.7999 0.10 1
  420.9992 0.04 0
  421.1046 0.10 1
  421.3127 0.11 1
  421.5464 0.11 1
  421.8302 0.05 0
  422.2193 0.11 1
  422.4653 0.08 1
  422.7828 0.06 1
  422.9774 0.12 1
  423.0862 0.04 0
  423.2876 0.07 1
  423.5504 0.11 1
  424.0464 0.10 1
  424.2532 0.12 1
  424.3836 0.14 1
  425.0797 0.16 2
  425.2061 0.10 1
  425.3345 0.24 2
  425.4487 0.14 1
  425.6109 0.20 2
  425.9245 0.24 2
  426.2158 0.15 1
  426.4220 0.04 0
  426.8370 0.08 1
  426.9586 0.08 1
  427.1479 0.52 5
  427.2797 0.39 4
  427.7502 0.10 1
  427.9226 0.19 2
  428.1632 0.32 3
  428.6710 0.05 0
  428.8129 0.10 1
  429.1564 0.75 7
  429.4998 0.10 1
  429.6222 0.15 1
  429.7094 0.11 1
  430.0840 0.36 4
  430.2273 0.33 3
  430.3538 0.12 1
  430.5721 0.07 1
  430.7263 0.01 0
  430.8589 0.13 1
  431.0746 0.28 3
  431.2815 0.17 2
  431.4749 0.04 0
  431.5878 0.13 1
  431.6663 0.05 0
  431.8671 0.11 1
  431.9719 0.09 1
  432.2201 0.29 3
  432.8450 0.11 1
  433.0655 0.03 0
  433.2000 0.13 1
  434.1118 0.14 1
  434.4540 0.13 1
  434.8991 0.09 1
  435.1467 0.16 2
  435.2590 0.13 1
  435.5451 0.09 1
  435.8441 0.07 1
  436.0613 0.11 1
  436.2751 0.01 0
  436.5842 0.12 1
  437.0612 0.08 1
  437.2899 0.01 0
  437.4320 0.08 1
  437.5544 0.06 1
  438.1661 0.01 0
  438.3386 0.17 2
  438.6309 0.05 0
  438.8475 0.10 1
  438.9645 0.10 1
  439.3096 0.11 1
  439.6771 0.07 1
  439.8165 0.06 1
  439.9485 0.11 1
  440.0818 0.19 2
  440.2828 0.08 1
  440.4181 0.05 0
  440.5961 0.11 1
  440.7477 0.06 1
  440.9264 0.30 3
  441.1964 0.34 3
  441.4387 0.11 1
  441.6113 0.11 1
  441.6932 0.04 0
  441.8570 0.11 1
  442.0804 0.93 9
  442.2442 0.49 5
  442.5264 0.05 0
  442.7776 0.16 2
  442.9982 0.26 3
  443.2778 0.40 4
  443.6251 0.10 1
  444.0387 0.11 1
  444.1984 0.12 1
  444.3839 0.21 2
  445.2187 0.22 2
  445.4204 0.05 0
  445.8585 0.13 1
  446.2072 0.25 2
  446.3507 0.14 1
  447.1856 0.14 1
  447.3184 0.06 1
  447.5161 0.06 1
  447.6996 0.10 1
  448.0904 0.15 1
  448.3524 0.11 1
  448.6199 0.08 1
  448.9796 0.07 1
  449.1963 0.11 1
  449.2823 0.14 1
  449.7090 0.06 1
  449.8776 0.06 1
  450.2617 0.65 6
  450.6234 0.15 1
  450.9553 0.03 0
  451.1585 0.20 2
  451.2912 0.12 1
  451.6367 0.15 1
  452.2145 0.13 1
  452.4232 0.07 1
  452.6041 0.08 1
  452.7362 0.10 1
  452.8568 0.08 1
  453.0674 0.22 2
  453.1345 0.11 1
  453.3032 0.05 0
  453.9353 0.11 1
  454.0979 0.19 2
  454.3737 0.18 2
  454.7305 0.11 1
  455.0914 0.22 2
  455.3205 0.35 3
  455.4225 0.19 2
  455.5996 0.12 1
  456.0160 0.09 1
  456.1788 0.29 3
  456.3600 0.15 1
  456.4566 0.08 1
  456.7689 0.10 1
  456.9392 0.07 1
  457.1346 0.18 2
  457.3103 0.25 2
  457.4266 0.13 1
  457.5746 0.19 2
  457.8565 0.10 1
  458.2405 2.66 27
  458.5291 0.08 1
  458.9199 0.16 2
  459.1166 0.21 2
  459.2106 0.07 1
  459.5797 0.15 1
  460.8265 0.13 1
  460.9550 0.13 1
  461.1659 0.23 2
  461.4148 0.08 1
  461.6839 0.09 1
  461.8401 0.02 0
  462.0883 0.25 2
  462.2816 0.09 1
  462.6123 0.11 1
  462.8964 0.05 0
  463.2960 0.10 1
  463.7403 0.16 2
  463.8553 0.10 1
  464.4850 0.10 1
  465.1038 0.23 2
  465.2797 0.16 2
  465.4907 0.09 1
  465.5983 0.12 1
  465.7728 0.10 1
  465.9081 0.11 1
  466.1069 0.04 0
  466.2591 0.08 1
  466.4458 0.04 0
  466.6318 0.05 0
  466.9586 0.19 2
  467.2555 0.12 1
  467.4294 0.11 1
  468.1208 0.23 2
  468.3041 0.18 2
  468.5639 0.11 1
  468.7980 0.14 1
  468.9184 0.09 1
  469.0125 0.15 1
  469.1917 0.14 1
  469.3088 0.16 2
  469.6383 0.23 2
  470.1106 0.18 2
  470.3488 0.16 2
  470.6674 0.17 2
  470.8346 0.09 1
  470.9334 0.10 1
  471.1046 0.34 3
  471.2650 0.32 3
  471.6466 0.50 5
  472.2184 10.54 105
  472.5967 0.12 1
  472.7618 0.22 2
  472.9568 0.19 2
  473.2031 0.28 3
  473.4014 0.20 2
  473.6193 0.06 1
  473.9807 0.31 3
  474.1675 0.07 1
  474.4389 0.19 2
  474.8268 0.10 1
  474.9730 0.14 1
  475.2545 0.21 2
  475.6458 0.03 0
  475.9348 0.16 2
  476.2022 0.11 1
  476.5068 0.07 1
  476.7146 0.11 1
  477.1222 0.15 1
  477.6990 0.08 1
  477.9921 0.10 1
  478.3563 0.21 2
  478.4653 0.08 1
  478.7118 0.11 1
  478.9007 0.10 1
  479.2263 0.17 2
  479.3590 0.17 2
  479.4911 0.03 0
  480.1871 0.25 2
  480.3524 0.12 1
  480.4390 0.07 1
  480.8500 0.05 0
  481.0498 0.08 1
  481.2089 0.07 1
  481.3701 0.33 3
  482.1575 0.27 3
  482.4986 0.11 1
  482.8526 0.08 1
  483.0488 0.22 2
  483.2512 0.53 5
  483.3920 0.14 1
  483.5524 0.06 1
  484.1500 0.60 6
  484.3131 0.30 3
  484.4011 0.19 2
  484.5521 0.11 1
  484.7294 0.18 2
  485.2336 1.13 11
  485.7941 0.15 1
  486.1231 0.17 2
  486.4406 0.06 1
  486.6058 0.13 1
  486.8197 0.01 0
  487.0208 0.09 1
  487.1189 0.10 1
  487.3856 0.09 1
  487.7147 0.20 2
  487.9252 0.15 1
  488.2644 0.15 1
  488.7444 0.07 1
  488.9753 0.15 1
  489.1967 0.20 2
  489.3246 0.07 1
  490.1974 0.09 1
  490.5996 0.07 1
  490.7012 0.12 1
  491.0120 0.12 1
  491.3052 0.03 0
  491.5077 0.12 1
  491.7955 0.11 1
  492.0054 0.25 2
  492.2404 0.35 3
  492.3325 0.12 1
  492.4354 0.11 1
  492.7686 0.22 2
  492.9210 0.13 1
  493.2549 0.16 2
  493.4567 0.10 1
  493.9423 0.08 1
  494.1902 0.46 5
  494.3988 0.25 2
  495.1127 0.51 5
  495.3328 0.67 7
  495.4521 0.26 3
  495.5740 0.14 1
  496.3069 0.35 3
  496.4437 0.15 1
  496.5358 0.12 1
  498.0031 0.06 1
  498.2396 0.11 1
  498.5566 0.07 1
  498.9828 0.12 1
  499.1691 0.14 1
  499.2477 0.12 1
  499.4625 0.11 1
  500.1163 0.20 2
  500.3209 0.05 0
  500.6156 0.04 0
  500.7552 0.09 1
  501.4003 0.14 1
  501.8834 0.11 1
  502.1552 0.12 1
  502.4506 0.13 1
  502.5814 0.13 1
  502.8491 0.06 1
  503.0368 0.12 1
  503.1534 0.15 1
  503.2455 0.06 1
  503.4474 0.13 1
  504.0750 0.07 1
  504.3224 0.10 1
  504.4084 0.13 1
  504.5928 0.10 1
  505.0049 0.08 1
  505.2217 0.29 3
  505.4054 0.13 1
  505.7104 0.10 1
  505.9361 0.11 1
  506.2588 0.26 3
  506.6255 0.14 1
  506.7746 0.09 1
  507.3141 0.49 5
  507.6544 0.15 1
  507.7724 0.15 1
  507.9947 0.36 4
  508.3318 0.82 8
  508.7187 0.14 1
  509.2935 0.46 5
  509.7473 0.23 2
  509.8988 0.11 1
  509.9962 0.11 1
  510.1694 0.16 2
  510.3669 0.27 3
  510.4737 0.10 1
  510.6104 0.10 1
  510.7125 0.10 1
  510.8789 0.05 0
  511.1048 0.12 1
  511.2394 0.12 1
  511.7467 0.09 1
  511.9543 0.21 2
  512.1843 0.09 1
  512.3135 0.16 2
  512.5381 0.11 1
  513.3851 0.14 1
  513.6475 0.13 1
  514.7110 0.13 1
  515.3314 0.11 1
  515.4146 0.08 1
  515.7624 0.07 1
  516.2901 0.09 1
  516.4829 0.14 1
  516.7123 0.11 1
  516.8997 0.11 1
  517.0344 0.04 0
  517.1711 0.10 1
  517.4762 0.05 0
  517.5892 0.12 1
  518.2449 0.51 5
  518.5927 0.08 1
  518.9182 0.27 3
  519.2708 1.07 11
  519.6843 0.03 0
  520.0801 0.16 2
  520.2635 0.21 2
  521.0262 0.39 4
  521.3152 0.91 9
  522.2932 0.47 5
  522.8401 0.03 0
  523.1515 0.08 1
  523.4466 0.11 1
  523.7586 0.07 1
  523.8777 0.13 1
  524.1614 0.05 0
  524.5289 0.11 1
  524.6535 0.07 1
  525.1097 0.04 0
  525.4821 0.02 0
  526.1685 0.11 1
  526.4901 0.13 1
  526.6464 0.07 1
  526.7954 0.04 0
  526.9687 0.10 1
  527.1237 0.11 1
  527.4365 0.11 1
  527.6484 0.28 3
  527.8286 0.13 1
  528.1522 0.23 2
  528.4656 0.07 1
  528.7771 0.10 1
  529.1522 0.18 2
  529.7122 0.12 1
  529.7947 0.12 1
  530.0223 0.14 1
  530.8626 0.07 1
  531.0217 0.43 4
  531.2817 0.24 2
  531.3651 0.13 1
  531.9169 0.09 1
  532.1465 0.20 2
  532.2400 0.14 1
  532.4709 0.20 2
  532.6856 0.24 2
  532.9646 0.14 1
  533.0601 0.10 1
  533.2321 0.10 1
  533.3859 0.15 1
  533.6845 0.34 3
  533.9277 0.03 0
  534.1782 0.63 6
  534.3584 0.52 5
  534.5582 0.01 0
  534.8210 0.08 1
  535.0201 0.12 1
  535.1921 0.23 2
  535.3202 0.07 1
  535.4529 0.08 1
  536.1140 0.05 0
  536.2400 0.08 1
  536.4574 0.11 1
  536.6600 0.11 1
  536.8733 0.08 1
  537.2744 0.08 1
  537.4620 0.10 1
  537.6672 0.16 2
  537.9646 0.10 1
  538.1198 0.15 1
  538.2477 0.15 1
  538.3941 0.09 1
  538.5167 0.16 2
  538.6536 0.20 2
  538.7430 0.09 1
  538.9205 0.38 4
  538.9882 0.17 2
  539.1454 0.27 3
  539.2260 0.12 1
  539.3933 0.35 3
  539.5992 0.07 1
  539.7856 0.09 1
  539.9001 0.12 1
  540.0430 0.12 1
  540.2002 0.11 1
  540.3838 0.15 1
  540.6304 0.43 4
  540.7693 0.12 1
  540.9807 0.21 2
  541.2070 0.17 2
  541.3594 0.20 2
  541.4725 0.12 1
  541.6595 0.21 2
  541.8195 0.27 3
  541.9827 0.41 4
  542.0884 0.28 3
  542.5668 0.25 2
  542.7830 0.36 4
  543.1454 0.45 4
  543.5676 0.49 5
  543.7092 0.21 2
  543.8448 0.34 3
  543.9654 0.39 4
  544.4086 0.70 7
  544.8165 0.73 7
  545.0428 0.33 3
  545.2102 0.49 5
  545.3918 0.47 5
  546.0939 1.98 20
  546.4449 1.10 11
  547.1329 1.72 17
  547.6276 1.17 12
  548.2342 1.97 20
  549.1716 8.20 82
  549.7545 0.37 4
  550.0731 0.54 5
  550.3300 0.36 4
  550.6201 0.58 6
  550.8763 0.44 4
  551.0994 0.39 4
  551.3888 0.39 4
  551.5323 0.26 3
  551.7649 0.47 5
  551.9042 0.51 5
  552.0171 0.31 3
  552.2409 0.66 7
  552.4194 0.47 5
  552.6710 0.66 7
  552.8772 0.25 2
  553.0388 0.39 4
  553.2349 0.34 3
  553.4499 0.35 3
  553.6555 0.47 5
  554.1072 0.53 5
  554.4196 0.49 5
  554.7104 0.52 5
  554.8828 0.30 3
  555.2561 0.52 5
  555.5233 0.38 4
  555.8005 0.87 9
  556.3320 0.82 8
  556.4612 0.63 6
  556.7919 0.86 9
  557.2187 1.06 11
  557.6901 0.88 9
  558.4963 1.47 15
  564.3002 99.97 999
  564.8286 35.39 354
  565.7325 13.98 140
  566.5370 7.38 74
//
