ACCESSION: MSBNK-Kyoto_Univ-CA000160
RECORD_TITLE: Spirilloxanthin; FAB-EBEB; MS2; m/z: 596.46; [M]*+
DATE: 2016.01.19 (Created 2007.03.15, modified 2011.05.10)
AUTHORS: Akimoto N, Graduate School of Pharmaceutical Sciences, Kyoto University and Maoka T, Research Institute for Production Development
LICENSE: CC BY-SA
COMMENT: Profile spectrum of this record is given as a JPEG file.
COMMENT: [Profile] CA000160.jpg
CH$NAME: Spirilloxanthin
CH$COMPOUND_CLASS: Natural Product; Carotenoid
CH$FORMULA: C42H60O2
CH$EXACT_MASS: 596.45933
CH$SMILES: CC(C=CC=C(C=CC=C(C=CCC(C)(C)OC)C)C)=CC=CC=C(C)C=CC=C(C=CC=C(C=CCC(C)(C)OC)C)C
CH$IUPAC: InChI=1S/C42H60O2/c1-35(23-15-25-37(3)27-17-29-39(5)31-19-33-41(7,8)43-11)21-13-14-22-36(2)24-16-26-38(4)28-18-30-40(6)32-20-34-42(9,10)44-12/h13-32H,33-34H2,1-12H3/b14-13+,23-15+,24-16+,27-17+,28-18+,31-19+,32-20+,35-21+,36-22+,37-25+,38-26+,39-29+,40-30+
CH$LINK: CHEMSPIDER 4518330
CH$LINK: PUBCHEM CID:5366506
CH$LINK: INCHIKEY VAZQBTJCYODOSV-HZUCFJANSA-N
AC$INSTRUMENT: JMS-HX/HX 110A, JEOL
AC$INSTRUMENT_TYPE: FAB-EBEB
AC$MASS_SPECTROMETRY: MS_TYPE MS2
AC$MASS_SPECTROMETRY: ION_MODE POSITIVE
AC$MASS_SPECTROMETRY: ATOM_GUN_CURRENT 5 mA
AC$MASS_SPECTROMETRY: BOMBARDMENT 6 kV xenon
AC$MASS_SPECTROMETRY: COLLISION_ENERGY 3 kV
AC$MASS_SPECTROMETRY: COLLISION_GAS Ar
AC$MASS_SPECTROMETRY: GAS_PRESSURE adjust to attenuate the intensity of the precursor ion by 30 %
AC$MASS_SPECTROMETRY: IONIZATION FAB
AC$MASS_SPECTROMETRY: MATRIX 1-2 uL m-NBA
AC$MASS_SPECTROMETRY: PROBE_TIP stainless-steel
MS$FOCUSED_ION: BASE_PEAK 596.5276
MS$FOCUSED_ION: PRECURSOR_M/Z 596.46
MS$FOCUSED_ION: PRECURSOR_TYPE [M]+*
PK$SPLASH: splash10-0002-3210090000-1ac64aaa7f43b34489d9
PK$NUM_PEAK: 756
PK$PEAK: m/z int. rel.int.
  0.0067 0.06 1
  3.9368 0.01 0
  11.4310 0.01 0
  14.9540 0.01 0
  22.9237 0.04 0
  24.5691 0.01 0
  25.9393 0.06 1
  26.9708 0.15 1
  28.9708 0.23 2
  29.5045 0.01 0
  30.2733 0.01 0
  33.1273 0.01 0
  37.2527 0.07 1
  38.9146 0.03 0
  39.9538 0.07 1
  40.1794 0.01 0
  40.9543 0.34 3
  41.9846 0.18 2
  42.9469 0.43 4
  43.2411 0.01 0
  43.9798 0.04 0
  44.9589 0.29 3
  45.9872 0.10 1
  49.9512 0.16 2
  50.9110 0.04 0
  51.9666 0.05 0
  52.9691 0.18 2
  53.9762 0.08 1
  54.9904 0.57 6
  56.9989 0.05 0
  57.2377 0.06 1
  57.9745 0.05 0
  58.9873 0.11 1
  59.9656 0.03 0
  60.9606 0.05 0
  61.9798 0.05 0
  62.9676 0.12 1
  64.9536 0.18 2
  65.6793 0.11 1
  66.9614 0.28 3
  67.9753 0.02 0
  68.9672 0.11 1
  69.7526 0.04 0
  69.9184 0.03 0
  71.5832 0.01 0
  71.9799 0.14 1
  72.9798 44.07 440
  73.2559 0.06 1
  73.4180 0.09 1
  73.8108 0.08 1
  73.9551 0.17 2
  74.9575 0.13 1
  75.0466 0.04 0
  75.9539 0.14 1
  76.9162 0.32 3
  77.9744 0.13 1
  78.9700 0.57 6
  79.2563 0.06 1
  79.9538 0.14 1
  80.9751 0.59 6
  82.0047 0.06 1
  82.9605 0.11 1
  83.9579 0.08 1
  84.2132 0.10 1
  85.0009 0.18 2
  85.9602 0.07 1
  86.7320 0.04 0
  86.9371 0.03 0
  88.1884 0.03 0
  88.9433 0.09 1
  90.9588 1.01 10
  91.9975 0.14 1
  92.9865 0.74 7
  93.9560 0.12 1
  94.9900 0.30 3
  96.9829 0.01 0
  97.9670 0.13 1
  100.0699 0.06 1
  100.9314 0.12 1
  101.3527 0.02 0
  101.9316 0.12 1
  102.4880 0.11 1
  102.9702 0.10 1
  103.9536 0.16 2
  104.7951 0.03 0
  104.9874 1.11 11
  105.9814 0.24 2
  106.9931 0.29 3
  107.9215 0.11 1
  109.0164 0.07 1
  109.9572 0.10 1
  110.9746 0.17 2
  111.9956 0.06 1
  112.9060 0.04 0
  113.3190 0.03 0
  114.9594 0.86 9
  115.9716 0.36 4
  116.1538 0.09 1
  116.7582 0.08 1
  116.9668 0.37 4
  117.5251 0.14 1
  117.9507 0.26 3
  118.9856 1.15 11
  119.7886 0.08 1
  120.0028 0.09 1
  120.8567 0.04 0
  121.0072 0.08 1
  121.9213 0.05 0
  122.9499 0.07 1
  123.3892 0.02 0
  123.9417 0.03 0
  124.9030 0.06 1
  125.9196 0.15 1
  126.7884 0.08 1
  126.9845 0.21 2
  127.7306 0.10 1
  127.9269 0.89 9
  128.0306 0.25 2
  128.2009 0.08 1
  128.7732 0.11 1
  128.9593 0.55 5
  129.7433 0.08 1
  129.9624 0.46 5
  130.2259 0.05 0
  130.9601 0.56 6
  131.1821 0.12 1
  131.8359 0.05 0
  131.9578 0.22 2
  132.8301 0.05 0
  132.9784 0.30 3
  133.8899 0.08 1
  133.9615 0.06 1
  134.9957 0.28 3
  135.9028 0.11 1
  136.9362 0.31 3
  138.9406 0.15 1
  139.7839 0.04 0
  140.0043 0.10 1
  140.3340 0.03 0
  140.6499 0.03 0
  140.9560 0.64 6
  141.3749 0.07 1
  141.6255 0.05 0
  141.9087 0.71 7
  142.0056 0.29 3
  142.9321 1.01 10
  143.2469 0.03 0
  143.3638 0.04 0
  143.6176 0.10 1
  143.9367 0.44 4
  144.9636 0.78 8
  145.2444 0.06 1
  145.9756 0.12 1
  146.9666 0.28 3
  147.8832 0.07 1
  147.9593 0.04 0
  148.8795 0.04 0
  149.0519 0.12 1
  149.8794 0.02 0
  150.0185 0.17 2
  150.3430 0.03 0
  150.6983 0.09 1
  150.8221 0.07 1
  151.7334 0.09 1
  151.8855 0.31 3
  152.1562 0.10 1
  152.2856 0.06 1
  152.8058 0.14 1
  152.9775 0.46 5
  153.8276 0.13 1
  153.9357 0.16 2
  154.3231 0.13 1
  154.4568 0.04 0
  154.7234 0.11 1
  154.9848 0.68 7
  155.9575 0.60 6
  156.9647 0.59 6
  157.4367 0.11 1
  157.9499 0.29 3
  158.3717 0.12 1
  158.8186 0.05 0
  159.0216 0.18 2
  159.8028 0.13 1
  160.0187 0.13 1
  161.0180 0.03 0
  162.0405 0.05 0
  162.9569 0.18 2
  163.0523 0.13 1
  163.8896 0.05 0
  163.9925 0.07 1
  164.1293 0.10 1
  164.3812 0.06 1
  164.9768 0.64 6
  165.3997 0.06 1
  165.7713 0.09 1
  165.9714 0.42 4
  166.9559 0.34 3
  167.3496 0.06 1
  168.0077 0.43 4
  169.0216 0.63 6
  169.3466 0.06 1
  169.9677 0.20 2
  170.0586 0.18 2
  171.0155 0.37 4
  172.0254 0.22 2
  173.0394 0.20 2
  174.0236 0.07 1
  175.9156 0.16 2
  177.0191 0.10 1
  177.3989 0.08 1
  177.8955 0.23 2
  178.0258 0.17 2
  179.0080 0.26 3
  179.5687 0.11 1
  179.6937 0.05 0
  179.9615 0.19 2
  180.8451 0.23 2
  180.9983 0.50 5
  182.0098 0.17 2
  182.8153 0.07 1
  183.0042 0.30 3
  183.7253 0.10 1
  183.8143 0.04 0
  183.9849 0.28 3
  185.0141 0.13 1
  185.9453 0.18 2
  186.8839 0.01 0
  187.0205 0.06 1
  187.9824 0.10 1
  189.0067 0.18 2
  189.9594 0.07 1
  190.9650 0.30 3
  191.9898 0.34 3
  192.9925 0.42 4
  193.8386 0.07 1
  194.0454 0.15 1
  194.6721 0.06 1
  194.7893 0.12 1
  195.0196 0.56 6
  195.4397 0.11 1
  195.9785 0.19 2
  196.9097 0.14 1
  197.0554 0.26 3
  198.0382 0.16 2
  198.9662 0.11 1
  199.0616 0.06 1
  199.9612 0.11 1
  200.7255 0.08 1
  201.0279 0.10 1
  201.3995 0.12 1
  202.0163 0.31 3
  202.9776 0.17 2
  203.5727 0.13 1
  203.7224 0.11 1
  203.8721 0.17 2
  204.3177 0.11 1
  204.6484 0.12 1
  205.0173 0.25 2
  205.7442 0.09 1
  205.9135 0.11 1
  206.0383 0.18 2
  206.9905 0.39 4
  207.6327 0.02 0
  208.0271 0.40 4
  209.0470 0.53 5
  209.5891 0.02 0
  209.9693 0.03 0
  210.8795 0.05 0
  211.0284 0.37 4
  211.8006 0.09 1
  211.8889 0.09 1
  211.9933 0.25 2
  212.8418 0.10 1
  212.9866 0.18 2
  213.9483 0.01 0
  214.7355 0.03 0
  215.0136 0.07 1
  216.0564 0.25 2
  216.8151 0.09 1
  216.9881 0.05 0
  217.1318 0.03 0
  217.9851 0.18 2
  219.0217 0.10 1
  219.1075 0.07 1
  219.4720 0.07 1
  220.0657 0.30 3
  221.0844 0.24 2
  222.0224 0.15 1
  223.0384 0.28 3
  224.0780 0.13 1
  224.8353 0.18 2
  225.8869 0.02 0
  226.0206 0.05 0
  227.0553 0.05 0
  228.0777 0.16 2
  228.2410 0.12 1
  228.8334 0.02 0
  229.9569 0.03 0
  230.1190 0.01 0
  231.0768 0.24 2
  232.0328 0.10 1
  232.1928 0.05 0
  233.0351 0.13 1
  233.7502 0.12 1
  234.1677 0.07 1
  235.0976 0.14 1
  236.0572 0.13 1
  236.1442 0.04 0
  236.5600 0.01 0
  237.0411 0.15 1
  237.1190 0.09 1
  238.2358 0.16 2
  239.0485 0.07 1
  241.1629 0.11 1
  242.0706 0.16 2
  242.1479 0.11 1
  242.4178 0.02 0
  242.9976 0.11 1
  243.1333 0.22 2
  244.0902 0.17 2
  245.0834 0.24 2
  245.1629 0.18 2
  245.7032 0.11 1
  245.8503 0.11 1
  246.0966 0.10 1
  246.9384 0.10 1
  247.1179 0.25 2
  248.0212 0.04 0
  248.7952 0.03 0
  248.9523 0.04 0
  249.1193 0.11 1
  249.9880 0.12 1
  252.0718 0.11 1
  253.0924 0.02 0
  253.8699 0.11 1
  254.0978 0.05 0
  254.1973 0.02 0
  254.7520 0.11 1
  255.0633 0.11 1
  255.1381 0.07 1
  256.1308 0.11 1
  256.2635 0.07 1
  256.9994 0.19 2
  257.2198 0.04 0
  257.9976 0.10 1
  259.0569 0.11 1
  259.9170 0.11 1
  260.1906 0.11 1
  262.0406 0.04 0
  263.1046 0.17 2
  264.0501 0.02 0
  264.5612 0.11 1
  265.0929 0.11 1
  266.0468 0.09 1
  266.9867 0.01 0
  268.0205 0.08 1
  268.1771 0.08 1
  271.0179 0.17 2
  271.3932 0.12 1
  272.0714 0.19 2
  274.0067 0.06 1
  274.1394 0.13 1
  275.1760 0.17 2
  276.1724 0.09 1
  277.2305 0.02 0
  279.1043 0.13 1
  280.0110 0.11 1
  280.8129 0.01 0
  281.0819 0.13 1
  281.2104 0.11 1
  282.1233 0.10 1
  284.2566 0.06 1
  284.7674 0.11 1
  284.9216 0.08 1
  285.2612 0.17 2
  287.1176 0.14 1
  287.9928 0.12 1
  288.2580 0.10 1
  289.7899 0.14 1
  291.0606 0.10 1
  291.1524 0.13 1
  291.2407 0.13 1
  291.3318 0.11 1
  292.1018 0.06 1
  293.0692 0.14 1
  293.2066 0.12 1
  294.7650 0.10 1
  296.1419 0.09 1
  296.9358 0.08 1
  297.0732 0.12 1
  297.5143 0.05 0
  298.0572 0.10 1
  298.9341 0.07 1
  301.0699 0.14 1
  302.0742 0.05 0
  303.8795 0.11 1
  304.0234 0.13 1
  304.1688 0.10 1
  304.2614 0.12 1
  305.2920 0.01 0
  306.1696 0.01 0
  307.1443 0.05 0
  309.9005 0.08 1
  310.1345 0.08 1
  310.8988 0.07 1
  311.1564 0.08 1
  312.1100 0.11 1
  312.2785 0.12 1
  313.2438 0.12 1
  314.1914 0.09 1
  314.6963 0.08 1
  314.9506 0.14 1
  315.1527 0.12 1
  317.0989 0.18 2
  317.5534 0.10 1
  321.2166 0.09 1
  321.9232 0.05 0
  322.3130 0.02 0
  323.4062 0.01 0
  324.1439 0.11 1
  324.7422 0.07 1
  325.1794 0.16 2
  325.2782 0.11 1
  326.0448 0.12 1
  326.9160 0.05 0
  327.0077 0.03 0
  327.9206 0.14 1
  328.1476 0.10 1
  328.2651 0.12 1
  329.1374 0.11 1
  330.1524 0.10 1
  331.9666 0.17 2
  332.6704 0.01 0
  335.9145 0.03 0
  339.9989 0.12 1
  340.6782 0.10 1
  342.1460 0.10 1
  342.5711 0.05 0
  344.0373 0.11 1
  344.2094 0.12 1
  345.1954 0.02 0
  346.0331 0.14 1
  347.1852 0.10 1
  347.7763 0.14 1
  350.3971 0.13 1
  351.1207 0.07 1
  352.0088 0.08 1
  354.0510 0.14 1
  354.2342 0.05 0
  355.3202 0.12 1
  356.1420 0.09 1
  357.2370 0.13 1
  357.5316 0.02 0
  361.0738 0.05 0
  361.5922 0.11 1
  362.4026 0.03 0
  362.9707 0.12 1
  363.1606 0.10 1
  365.1334 0.12 1
  365.9897 0.12 1
  366.3388 0.12 1
  368.4247 0.07 1
  369.2498 0.11 1
  370.1583 0.10 1
  370.2396 0.04 0
  372.3425 0.10 1
  373.0889 0.04 0
  374.4050 0.20 2
  375.3552 0.01 0
  376.2940 0.10 1
  377.4193 0.14 1
  379.0406 0.12 1
  379.1241 0.04 0
  380.2647 0.16 2
  381.2238 0.10 1
  383.1576 0.13 1
  383.2935 0.14 1
  384.0538 0.05 0
  385.4113 0.11 1
  386.3057 0.10 1
  387.1835 0.05 0
  387.5808 0.01 0
  388.2429 0.12 1
  389.2556 0.11 1
  390.2929 0.07 1
  391.2259 0.11 1
  391.9359 0.05 0
  392.2541 0.18 2
  392.4255 0.13 1
  394.8029 0.12 1
  394.8987 0.04 0
  395.3027 0.10 1
  396.1348 0.11 1
  397.2119 0.10 1
  400.2061 0.09 1
  401.2296 0.01 0
  404.2130 0.15 1
  405.4267 0.03 0
  408.6049 0.06 1
  410.2789 0.09 1
  413.3521 0.10 1
  413.5429 0.01 0
  415.2886 0.10 1
  418.6050 0.09 1
  422.1064 0.07 1
  422.2203 0.06 1
  424.0035 0.12 1
  424.8607 0.01 0
  426.1253 0.18 2
  426.2911 0.12 1
  426.4029 0.10 1
  427.3778 0.11 1
  428.7588 0.02 0
  429.2295 0.04 0
  429.3765 0.10 1
  430.1105 0.09 1
  432.6495 0.12 1
  434.4172 0.07 1
  435.0882 0.09 1
  435.2222 0.12 1
  435.5812 0.11 1
  436.2652 0.10 1
  436.3935 0.11 1
  438.3428 0.09 1
  439.2859 0.08 1
  440.2377 0.04 0
  441.0829 0.14 1
  441.2004 0.19 2
  442.1264 0.10 1
  443.1527 0.01 0
  443.6310 0.15 1
  444.3163 0.03 0
  445.2678 0.15 1
  446.5318 0.10 1
  448.7954 0.06 1
  449.4940 0.14 1
  450.0295 0.09 1
  450.2482 0.24 2
  450.3918 0.28 3
  452.2520 0.10 1
  454.3449 0.10 1
  455.2351 0.23 2
  456.1262 0.02 0
  456.7285 0.01 0
  457.2860 0.17 2
  458.2141 0.01 0
  460.3702 0.07 1
  461.2645 0.14 1
  464.2269 0.08 1
  472.3409 0.11 1
  473.9737 0.07 1
  474.1702 0.11 1
  474.2706 0.01 0
  475.6573 0.04 0
  477.3008 0.12 1
  479.2254 0.11 1
  479.4060 0.12 1
  480.8671 0.10 1
  481.4828 0.11 1
  482.3471 0.11 1
  483.2519 0.21 2
  483.4861 0.14 1
  485.1890 0.11 1
  486.3499 0.14 1
  486.9926 0.08 1
  487.7481 0.09 1
  488.1769 0.11 1
  488.2882 0.13 1
  488.5803 0.09 1
  488.6635 0.07 1
  488.8406 0.08 1
  489.2730 0.01 0
  491.4937 0.12 1
  491.7439 0.13 1
  492.2856 0.31 3
  493.4104 0.04 0
  496.2503 0.16 2
  496.3500 0.05 0
  497.0844 0.10 1
  498.3252 0.12 1
  502.3067 0.13 1
  502.4353 0.01 0
  503.3514 0.15 1
  503.5942 0.13 1
  504.3550 0.70 7
  504.5913 0.53 5
  504.8333 0.08 1
  505.1231 0.13 1
  505.8233 0.03 0
  506.1528 0.03 0
  506.2916 0.12 1
  507.7839 0.02 0
  507.9573 0.16 2
  508.2421 0.28 3
  508.5724 0.11 1
  509.2619 0.12 1
  509.6182 0.13 1
  510.3757 0.12 1
  510.9511 0.11 1
  513.1205 0.07 1
  515.0466 0.01 0
  515.8196 0.03 0
  518.0375 0.01 0
  518.5589 0.03 0
  521.6827 0.07 1
  522.2412 0.10 1
  522.4411 0.09 1
  522.7377 0.11 1
  522.8734 0.04 0
  523.4341 1.70 17
  524.2114 0.16 2
  525.4932 0.07 1
  530.7297 0.01 0
  531.4713 0.15 1
  531.5947 0.11 1
  534.0621 0.07 1
  535.3035 0.11 1
  535.4046 0.12 1
  536.3059 0.15 1
  536.9726 0.05 0
  540.5431 0.01 0
  541.4642 0.01 0
  542.3817 0.10 1
  543.3903 0.12 1
  545.0804 0.10 1
  546.0892 0.06 1
  546.6594 0.01 0
  547.9023 0.03 0
  548.3302 0.11 1
  548.5925 0.03 0
  549.6615 0.13 1
  551.2596 0.10 1
  551.6268 0.09 1
  552.2529 0.15 1
  553.3235 0.12 1
  554.2011 0.04 0
  554.7874 0.11 1
  556.1835 0.10 1
  556.2617 0.06 1
  556.5660 0.18 2
  556.8936 0.07 1
  558.1763 0.06 1
  558.3015 0.09 1
  559.0897 0.08 1
  559.3970 0.10 1
  560.9106 0.09 1
  562.3903 0.01 0
  564.0279 0.10 1
  564.3824 0.50 5
  564.6459 0.10 1
  565.1317 0.22 2
  565.2271 0.12 1
  565.4891 0.17 2
  566.3569 0.48 5
  566.6053 0.49 5
  568.5714 0.02 0
  570.3159 0.10 1
  570.6163 0.10 1
  572.0577 0.14 1
  572.3394 0.03 0
  573.1057 0.07 1
  573.3202 0.20 2
  574.4310 0.11 1
  575.1540 0.15 1
  575.2674 0.08 1
  576.2844 0.09 1
  576.3863 0.11 1
  577.2661 0.13 1
  577.4373 0.15 1
  578.0174 0.08 1
  578.1287 0.16 2
  578.4711 1.10 11
  578.7528 0.40 4
  579.2563 0.21 2
  579.3423 0.10 1
  579.4601 0.18 2
  579.5547 0.11 1
  579.7411 0.12 1
  580.2887 0.09 1
  580.5069 0.34 3
  580.6182 0.24 2
  580.8970 0.08 1
  581.0770 0.11 1
  581.2482 0.14 1
  581.4202 0.25 2
  581.7229 0.24 2
  582.8226 0.10 1
  582.9989 0.05 0
  583.5958 0.10 1
  583.9600 0.05 0
  584.1652 0.12 1
  584.8328 0.07 1
  585.4196 0.20 2
  585.6234 0.04 0
  586.4625 0.11 1
  586.7045 0.18 2
  586.9813 0.13 1
  587.1194 0.01 0
  587.4258 0.10 1
  587.6397 0.13 1
  587.7792 0.13 1
  587.8580 0.07 1
  588.3024 0.15 1
  588.5681 0.05 0
  588.6793 0.16 2
  589.0994 0.19 2
  589.2495 0.03 0
  589.3911 0.03 0
  589.5022 0.01 0
  589.8733 0.11 1
  590.1230 0.12 1
  590.2220 0.12 1
  590.4169 0.11 1
  590.6118 0.19 2
  590.7721 0.08 1
  591.0710 0.20 2
  591.2667 0.06 1
  591.3836 0.09 1
  591.5778 0.17 2
  591.8680 0.11 1
  592.0601 0.09 1
  592.1951 0.12 1
  592.3879 0.20 2
  592.5352 0.22 2
  592.7879 0.26 3
  593.1092 0.58 6
  593.3201 0.19 2
  593.5778 0.23 2
  593.7446 0.18 2
  593.8897 0.17 2
  594.0818 0.35 3
  594.3771 0.57 6
  594.6595 0.61 6
  595.0082 0.83 8
  596.5276 99.97 999
  597.3740 2.16 22
  597.8167 0.73 7
  598.0643 0.97 10
  598.3727 0.58 6
  598.5786 0.69 7
  598.7317 0.35 3
  599.1246 0.26 3
  599.4243 0.30 3
  599.5738 0.16 2
  599.7825 0.16 2
  599.9783 0.19 2
  600.4759 0.13 1
  600.9627 0.24 2
  601.1613 0.11 1
  601.2979 0.11 1
  601.4987 0.11 1
  601.7948 0.10 1
  601.9284 0.17 2
  602.2708 0.05 0
  602.4492 0.04 0
  602.6941 0.09 1
//
