ACCESSION: MSBNK-Kyoto_Univ-CA000030
RECORD_TITLE: beta-Carotene-5,8,5'8'-diepoxide; FAB-EBEB; MS2; m/z: 568.43; [M]+*
DATE: 2016.01.19 (Created 2010.04.01, modified 2011.05.10)
AUTHORS: Akimoto N, Graduate School of Pharmaceutical Sciences, Kyoto University and Maoka T, Research Institute for Production Development
LICENSE: CC BY-SA
COMMENT: Profile spectrum of this record is given as a JPEG file.
COMMENT: [Profile] CA000030.jpg
CH$NAME: beta-Carotene-5,8,5'8'-diepoxide
CH$COMPOUND_CLASS: N/A
CH$FORMULA: C40H56O2
CH$EXACT_MASS: 568.42803
CH$SMILES: C(C=CC=C(C)C=CC=C(C)C(C=4)OC(C43)(CCCC(C)(C)3)C)=C(C)C=CC=C(C)C(C=2)OC(C21)(CCCC(C)(C)1)C
CH$IUPAC: InChI=1S/C40H56O2/c1-29(19-13-21-31(3)33-27-35-37(5,6)23-15-25-39(35,9)41-33)17-11-12-18-30(2)20-14-22-32(4)34-28-36-38(7,8)24-16-26-40(36,10)42-34/h11-14,17-22,27-28,33-34H,15-16,23-26H2,1-10H3/b12-11+,19-13+,20-14+,29-17+,30-18+,31-21+,32-22+/t33?,34?,39-,40-/m1/s1
CH$LINK: INCHIKEY JLFOTJPFBATTLK-IUXASYQSSA-N
SP$SCIENTIFIC_NAME: Capsicum annuum L.
SP$LINEAGE: cellular organisms; Eukaryota; Viridiplantae; Streptophyta; Streptophytina; Embryophyta; Tracheophyta; Euphyllophyta; Spermatophyta; Magnoliophyta; eudicotyledons; core eudicotyledons; asterids; lamiids; Solanales; Solanaceae; Solanoideae; Capsiceae; Capsicum
SP$LINK: NCBI-TAXONOMY 4072
AC$INSTRUMENT: JMS-HX/HX 110A, JEOL
AC$INSTRUMENT_TYPE: FAB-EBEB
AC$MASS_SPECTROMETRY: MS_TYPE MS2
AC$MASS_SPECTROMETRY: ION_MODE POSITIVE
AC$MASS_SPECTROMETRY: ATOM_GUN_CURRENT 5 mA
AC$MASS_SPECTROMETRY: BOMBARDMENT 6 kV xenon
AC$MASS_SPECTROMETRY: COLLISION_ENERGY 3 kV
AC$MASS_SPECTROMETRY: COLLISION_GAS Ar
AC$MASS_SPECTROMETRY: GAS_PRESSURE adjust to attenuate the intensity of the precursor ion by 30 %
AC$MASS_SPECTROMETRY: IONIZATION FAB
AC$MASS_SPECTROMETRY: MATRIX 1-2 uL m-NBA
AC$MASS_SPECTROMETRY: PROBE_TIP stainless-steel
MS$FOCUSED_ION: BASE_PEAK 164.9874
MS$FOCUSED_ION: PRECURSOR_M/Z 568.43
MS$FOCUSED_ION: PRECURSOR_TYPE [M]+*
MS$DATA_PROCESSING: RELATIVE_M/Z normalised by peak(m/z=164.9874).  set 999 for peak(m/z=568.2390,rel=2003).
PK$SPLASH: splash10-014l-4931130000-a46a254d66a6d967f434
PK$NUM_PEAK: 2210
PK$PEAK: m/z int. rel.int.
  0.1918 0.01 0
  0.5354 0.01 0
  0.5685 0.01 0
  4.0496 0.09 2
  8.1354 0.01 0
  8.6782 0.01 0
  12.9658 0.02 0
  13.9691 0.04 1
  14.9696 0.52 10
  22.9131 0.05 1
  23.9437 0.02 0
  24.9470 0.09 2
  25.8345 0.03 1
  25.9402 0.70 14
  26.4297 0.03 1
  26.8176 0.03 1
  26.9494 4.77 96
  27.9556 0.57 11
  28.9595 3.79 76
  29.0936 0.02 0
  29.9496 0.07 1
  31.0382 0.01 0
  35.8914 0.09 2
  36.9299 0.56 11
  37.9295 1.72 34
  38.0609 0.02 0
  38.4217 0.03 1
  38.5629 0.05 1
  38.9368 13.08 262
  39.0868 0.05 1
  39.4319 0.10 2
  39.5210 0.05 1
  39.9513 2.06 41
  40.3314 0.02 0
  40.9546 25.58 513
  41.2472 0.01 0
  41.9503 0.97 19
  42.9337 44.94 901
  43.9357 0.71 14
  44.9369 0.64 13
  45.7406 0.01 0
  47.8231 0.04 1
  48.8476 0.04 1
  48.9402 0.15 3
  49.6254 0.01 0
  49.9238 2.79 56
  50.2087 0.08 2
  50.9295 6.89 138
  51.0535 0.08 2
  51.3539 0.08 2
  51.4694 0.04 1
  51.6306 0.05 1
  51.9351 2.93 59
  52.1052 0.03 1
  52.4802 0.04 1
  52.9406 11.00 220
  53.0608 0.05 1
  53.9372 0.73 15
  54.9482 31.57 633
  55.1296 0.02 0
  55.9601 1.24 25
  56.9577 3.66 73
  57.9634 0.39 8
  58.3905 0.04 1
  58.9520 1.04 21
  59.8790 0.03 1
  59.9485 0.02 0
  60.4169 0.01 0
  60.9154 0.45 9
  61.1422 0.04 1
  61.9164 1.54 31
  62.7246 0.04 1
  62.9273 4.41 88
  63.1208 0.13 3
  63.2790 0.01 0
  63.5216 0.11 2
  63.7173 0.03 1
  63.9253 1.04 21
  64.2711 0.11 2
  64.3235 0.06 1
  64.4467 0.03 1
  64.5020 0.02 0
  64.9335 8.79 176
  65.2449 0.08 2
  65.5825 0.05 1
  65.7377 0.01 0
  65.9379 2.46 49
  66.1130 0.02 0
  66.2988 0.04 1
  66.9434 13.36 268
  67.1225 0.04 1
  67.9408 0.94 19
  68.9511 39.09 783
  69.1349 0.10 2
  69.2621 0.06 1
  69.9576 1.93 39
  70.0874 0.02 0
  70.5749 0.09 2
  70.9363 2.61 52
  71.4377 0.01 0
  71.9068 0.06 1
  72.0473 0.07 1
  72.3043 0.05 1
  72.7966 0.03 1
  72.9352 0.20 4
  73.3962 0.10 2
  73.8978 0.74 15
  74.5690 0.06 1
  74.9201 1.09 22
  75.0504 0.12 2
  75.1848 0.07 1
  75.3343 0.11 2
  75.4647 0.06 1
  75.5981 0.08 2
  75.6915 0.08 2
  75.9144 1.11 22
  76.1479 0.04 1
  76.4241 0.14 3
  76.6527 0.29 6
  76.9188 22.44 450
  77.0796 0.17 3
  77.1979 0.21 4
  77.4539 0.17 3
  77.5782 0.14 3
  77.9175 5.19 104
  78.0881 0.09 2
  78.2337 0.06 1
  78.3606 0.10 2
  78.4764 0.15 3
  78.9279 23.42 469
  79.1078 0.04 1
  79.2403 0.06 1
  79.3418 0.12 2
  79.4433 0.01 0
  79.9324 5.52 111
  80.2664 0.02 0
  80.3317 0.01 0
  80.6448 0.11 2
  80.9423 20.01 401
  81.1061 0.14 3
  81.1804 0.10 2
  81.2530 0.05 1
  81.3845 0.12 2
  81.9307 1.37 27
  82.0849 0.05 1
  82.2759 0.01 0
  82.4552 0.10 2
  82.7299 0.11 2
  82.9479 9.66 194
  83.1274 0.08 2
  83.9452 0.21 4
  84.9315 0.75 15
  85.4853 0.03 1
  85.6994 0.13 3
  85.7842 0.10 2
  85.9161 0.43 9
  86.4892 0.04 1
  86.9038 0.66 13
  87.3938 0.05 1
  87.7157 0.05 1
  87.8147 0.18 4
  87.9167 0.51 10
  88.1622 0.04 1
  88.4331 0.10 2
  88.5797 0.18 4
  88.9207 2.40 48
  89.0879 0.27 5
  89.1656 0.08 2
  89.2703 0.30 6
  89.4461 0.40 8
  89.6028 0.22 4
  89.9439 0.77 15
  90.0712 0.23 5
  90.3246 0.27 5
  90.5195 0.08 2
  90.9279 40.02 802
  91.1534 0.06 1
  91.3076 0.13 3
  91.5018 0.12 2
  91.6429 0.09 2
  91.9293 5.03 101
  92.0904 0.05 1
  92.3020 0.17 3
  92.4135 0.06 1
  92.6343 0.11 2
  92.9402 33.68 675
  93.2305 0.04 1
  93.3526 0.13 3
  93.9539 3.57 72
  94.1717 0.04 1
  94.3129 0.09 2
  94.4049 0.14 3
  94.5139 0.07 1
  94.5863 0.06 1
  94.9416 47.27 947
  95.1287 0.16 3
  95.2477 0.20 4
  95.3752 0.15 3
  95.4508 0.05 1
  95.5405 0.12 2
  95.9374 2.86 57
  96.2491 0.04 1
  96.3628 0.09 2
  96.4337 0.03 1
  96.9482 2.44 49
  97.4584 0.12 2
  97.9157 0.39 8
  98.8132 0.07 1
  98.9668 0.25 5
  99.3388 0.01 0
  99.9259 0.25 5
  100.3042 0.03 1
  100.6888 0.13 3
  100.9368 0.77 15
  101.1732 0.22 4
  101.3040 0.14 3
  101.4763 0.12 2
  101.5745 0.15 3
  101.7037 0.05 1
  101.9336 2.29 46
  102.1568 0.06 1
  102.2341 0.07 1
  102.3918 0.14 3
  102.5997 0.21 4
  102.9440 7.99 160
  103.3281 0.16 3
  103.4483 0.08 2
  103.5643 0.06 1
  103.9432 3.50 70
  104.1865 0.09 2
  104.4019 0.17 3
  104.4908 0.06 1
  104.6336 0.18 4
  104.9518 40.24 806
  105.1563 0.28 6
  105.2938 0.18 4
  105.3640 0.09 2
  105.4275 0.03 1
  105.5127 0.12 2
  105.6173 0.05 1
  105.9509 5.02 101
  106.2001 0.10 2
  106.2574 0.02 0
  106.3664 0.02 0
  106.9633 23.81 477
  107.2470 0.17 3
  107.5327 0.04 1
  107.6336 0.10 2
  107.9506 8.70 174
  108.1568 0.11 2
  108.3033 0.07 1
  108.9508 18.37 368
  109.1667 0.07 1
  109.2635 0.01 0
  109.4640 0.07 1
  109.5383 0.06 1
  109.6901 0.04 1
  109.9357 0.90 18
  110.4517 0.14 3
  110.6932 0.02 0
  110.9674 2.07 41
  111.1509 0.09 2
  111.9299 0.31 6
  112.1200 0.01 0
  112.4362 0.09 2
  112.5957 0.06 1
  112.9385 0.61 12
  113.2489 0.33 7
  113.3432 0.16 3
  113.5909 0.06 1
  113.9129 0.80 16
  114.0431 0.17 3
  114.3615 0.21 4
  114.4698 0.15 3
  114.5511 0.21 4
  114.6096 0.14 3
  114.9195 18.55 372
  115.1483 0.22 4
  115.2825 0.13 3
  115.4824 0.06 1
  115.9259 6.59 132
  116.0672 0.32 6
  116.2648 0.22 4
  116.5287 0.14 3
  116.9217 16.25 326
  117.1992 0.33 7
  117.3149 0.08 2
  117.4458 0.26 5
  117.6166 0.02 0
  117.9241 4.26 85
  118.1076 0.17 3
  118.3153 0.09 2
  118.4470 0.21 4
  118.9361 34.52 692
  119.1111 0.28 6
  119.1948 0.19 4
  119.3387 0.21 4
  119.4795 0.17 3
  119.5747 0.14 3
  119.9414 6.47 130
  120.1903 0.15 3
  120.4805 0.06 1
  120.9316 28.63 574
  121.2189 0.15 3
  121.3760 0.17 3
  121.5490 0.05 1
  121.9238 7.85 157
  122.2707 0.08 2
  122.4700 0.05 1
  122.5847 0.04 1
  122.9352 19.48 390
  123.1672 0.08 2
  123.2539 0.11 2
  123.3667 0.08 2
  123.4930 0.19 4
  123.5664 0.03 1
  123.6620 0.06 1
  123.9262 1.27 25
  124.0819 0.04 1
  124.4848 0.13 3
  124.6451 0.20 4
  124.7543 0.17 3
  124.9441 0.95 19
  125.1294 0.07 1
  125.2611 0.09 2
  125.3711 0.05 1
  125.7471 0.15 3
  125.8988 0.64 13
  126.2475 0.04 1
  126.3384 0.09 2
  126.4530 0.14 3
  126.5638 0.08 2
  126.8943 5.19 104
  127.2698 0.42 8
  127.5044 0.12 2
  127.9007 17.60 353
  128.0842 0.44 9
  128.3101 0.22 4
  128.8975 20.15 404
  129.1184 0.09 2
  129.4166 0.16 3
  129.9013 8.57 172
  130.1090 0.10 2
  130.2035 0.04 1
  130.4416 0.08 2
  130.9101 19.40 389
  131.2379 0.03 1
  131.3306 0.10 2
  131.4840 0.15 3
  131.6186 0.06 1
  131.9125 5.40 108
  132.1749 0.08 2
  132.2568 0.13 3
  132.3361 0.04 1
  132.4464 0.03 1
  132.5186 0.04 1
  132.9199 15.89 318
  133.2020 0.27 5
  133.4015 0.21 4
  133.6004 0.29 6
  133.9085 3.34 67
  134.1223 0.08 2
  134.3221 0.31 6
  134.4811 0.14 3
  134.9079 29.65 594
  135.1862 0.11 2
  135.3249 0.11 2
  135.4836 0.22 4
  135.5536 0.17 3
  135.9154 6.05 121
  136.1689 0.18 4
  136.2552 0.12 2
  136.4511 0.06 1
  136.5432 0.06 1
  136.9222 3.19 64
  137.1916 0.03 1
  137.3351 0.09 2
  137.4501 0.04 1
  137.5845 0.01 0
  137.7099 0.10 2
  137.9132 0.36 7
  138.0712 0.01 0
  138.1960 0.09 2
  138.3825 0.25 5
  138.5308 0.05 1
  138.8898 2.44 49
  139.2105 0.06 1
  139.3198 0.08 2
  139.3914 0.09 2
  139.5151 0.20 4
  139.8888 0.81 16
  140.1330 0.39 8
  140.2737 0.15 3
  140.3584 0.16 3
  140.4770 0.51 10
  140.8908 12.90 259
  141.0883 0.23 5
  141.2018 0.17 3
  141.3127 0.15 3
  141.5116 0.12 2
  141.9017 11.62 233
  142.1615 0.16 3
  142.3423 0.16 3
  142.5682 0.35 7
  142.9156 21.93 439
  143.1992 0.17 3
  143.3599 0.19 4
  143.4952 0.18 4
  143.9136 6.91 138
  144.1059 0.31 6
  144.1929 0.22 4
  144.4205 0.42 8
  144.9243 25.58 513
  145.1607 0.39 8
  145.3807 0.29 6
  145.5680 0.22 4
  145.9138 3.37 68
  146.2100 0.22 4
  146.9259 15.23 305
  147.1810 0.13 3
  147.2867 0.09 2
  147.3359 0.04 1
  147.5399 0.03 1
  147.9239 3.92 79
  148.1714 0.19 4
  148.3053 0.12 2
  148.4544 0.23 5
  148.9280 35.95 720
  149.2461 0.28 6
  149.4512 0.17 3
  149.5393 0.03 1
  149.9266 2.48 50
  150.1627 0.03 1
  150.3732 0.29 6
  150.9168 2.01 40
  151.2342 0.30 6
  151.3599 0.18 4
  151.5107 0.19 4
  151.9086 6.07 122
  152.1103 0.37 7
  152.2704 0.13 3
  152.3864 0.24 5
  152.9132 7.46 149
  153.1744 0.18 4
  153.4362 0.41 8
  153.5821 0.26 5
  153.9147 4.71 94
  154.2249 0.31 6
  154.4230 0.13 3
  154.9349 14.84 297
  155.2164 0.15 3
  155.3234 0.20 4
  155.6175 0.47 9
  155.9494 8.90 178
  156.1670 0.24 5
  156.2404 0.12 2
  156.3171 0.11 2
  156.5533 0.14 3
  156.9496 19.63 393
  157.2818 0.18 4
  157.6175 0.24 5
  157.9526 4.96 99
  158.2937 0.30 6
  158.3925 0.08 2
  158.5614 0.14 3
  158.9565 13.34 267
  159.2521 0.28 6
  159.5260 0.37 7
  159.9638 3.89 78
  160.2736 0.13 3
  160.4767 0.39 8
  160.9660 10.82 217
  161.3007 0.07 1
  161.4880 0.13 3
  161.6726 0.26 5
  161.9730 3.88 78
  162.2886 0.28 6
  162.3578 0.19 4
  162.4881 0.16 3
  162.6908 0.32 6
  162.9847 9.84 197
  163.2308 0.24 5
  163.4204 0.28 6
  163.5615 0.39 8
  163.9834 12.68 254
  164.3308 0.33 7
  164.9874 49.85 999
  165.3758 0.54 11
  165.5304 0.36 7
  165.9716 5.44 109
  166.1889 0.26 5
  166.5316 0.67 13
  166.9685 9.54 191
  167.1866 0.35 7
  167.3441 0.15 3
  167.5042 0.19 4
  167.6657 0.24 5
  167.9630 4.73 95
  168.4468 0.18 4
  168.5765 0.08 2
  168.9773 13.68 274
  169.2562 0.06 1
  169.5046 0.16 3
  169.9756 5.80 116
  170.1975 0.10 2
  170.3954 0.20 4
  170.5633 0.16 3
  170.9873 11.12 223
  171.2253 0.18 4
  171.4634 0.16 3
  171.9677 3.57 72
  172.2419 0.17 3
  172.3594 0.15 3
  172.4255 0.09 2
  172.5603 0.14 3
  172.9815 9.40 188
  173.2192 0.27 5
  173.5238 0.20 4
  173.6927 0.06 1
  173.9860 1.66 33
  174.3261 0.11 2
  174.4625 0.08 2
  174.9738 7.33 147
  175.4954 0.16 3
  175.5924 0.06 1
  175.7335 0.12 2
  175.9784 2.23 45
  176.2909 0.18 4
  176.3738 0.13 3
  176.9910 24.22 485
  177.2019 0.25 5
  177.9607 5.93 119
  178.1985 0.08 2
  178.2776 0.06 1
  178.3929 0.02 0
  178.5390 0.29 6
  178.9585 10.42 209
  179.3997 0.20 4
  179.9584 4.46 89
  180.2267 0.14 3
  180.3609 0.21 4
  180.4575 0.25 5
  180.9575 11.18 224
  181.2495 0.22 4
  181.4046 0.03 1
  181.5476 0.32 6
  181.9734 4.83 97
  182.2118 0.12 2
  182.3885 0.28 6
  182.5195 0.26 5
  182.9637 10.72 215
  183.3166 0.08 2
  183.5344 0.21 4
  183.9715 4.48 90
  184.3871 0.15 3
  184.5304 0.30 6
  184.9711 8.60 172
  185.3298 0.15 3
  185.4738 0.05 1
  185.6037 0.10 2
  185.9760 2.51 50
  186.2514 0.24 5
  186.4353 0.15 3
  186.5255 0.08 2
  186.9762 5.90 118
  187.3091 0.16 3
  187.4256 0.06 1
  187.5308 0.34 7
  187.6656 0.24 5
  187.9722 1.52 30
  188.1812 0.09 2
  188.3323 0.22 4
  188.4530 0.41 8
  188.9540 6.64 133
  189.2812 0.32 6
  189.4580 0.27 5
  189.6118 0.16 3
  189.9512 2.72 55
  190.1558 0.18 4
  190.2928 0.26 5
  190.4177 0.22 4
  190.5419 0.26 5
  190.9821 18.59 373
  191.2070 0.21 4
  191.3644 0.17 3
  191.4914 0.44 9
  191.6501 0.36 7
  191.9900 10.18 204
  192.4157 0.58 12
  192.9517 8.09 162
  193.2857 0.15 3
  193.4446 0.15 3
  193.5251 0.15 3
  193.9525 3.75 75
  194.2732 0.12 2
  194.4173 0.23 5
  194.6108 0.31 6
  194.9634 9.48 190
  195.2328 0.08 2
  195.3208 0.28 6
  195.3905 0.16 3
  195.9552 4.05 81
  196.3880 0.12 2
  196.5017 0.12 2
  196.9719 8.37 168
  197.2138 0.29 6
  197.4090 0.24 5
  197.5404 0.22 4
  197.9661 3.27 66
  198.3573 0.13 3
  198.5512 0.24 5
  198.6889 0.36 7
  198.9764 5.37 108
  199.3814 0.16 3
  199.5965 0.09 2
  199.9805 2.36 47
  200.2588 0.27 5
  200.3592 0.14 3
  200.5289 0.29 6
  200.6308 0.16 3
  200.9811 4.83 97
  201.4225 0.18 4
  201.5399 0.10 2
  201.6479 0.15 3
  201.9448 2.73 55
  202.2824 0.12 2
  202.3558 0.09 2
  202.9694 7.82 157
  203.2474 0.24 5
  203.3256 0.17 3
  203.5051 0.38 8
  203.9728 2.45 49
  204.3414 0.41 8
  205.0040 43.40 870
  205.3285 0.52 10
  205.4898 0.18 4
  205.9928 6.29 126
  206.2440 0.13 3
  206.3822 0.15 3
  206.5272 0.16 3
  206.9630 5.73 115
  207.2129 0.15 3
  207.2967 0.11 2
  207.4329 0.18 4
  207.6134 0.23 5
  207.9690 2.65 53
  208.1905 0.25 5
  208.3540 0.21 4
  208.4460 0.14 3
  208.9749 8.04 161
  209.2701 0.13 3
  209.3533 0.13 3
  209.4896 0.15 3
  209.6444 0.21 4
  209.9738 3.50 70
  210.1661 0.14 3
  210.2793 0.25 5
  210.3769 0.15 3
  210.4730 0.10 2
  210.9765 6.41 128
  211.2556 0.14 3
  211.3914 0.21 4
  211.9763 2.32 46
  212.1565 0.44 9
  212.2432 0.21 4
  212.3545 0.13 3
  212.4562 0.12 2
  212.6221 0.27 5
  212.9916 4.08 82
  213.2566 0.09 2
  213.3775 0.20 4
  213.4758 0.18 4
  213.6589 0.13 3
  213.9827 1.51 30
  214.3257 0.26 5
  214.4139 0.03 1
  214.6100 0.23 5
  214.9880 5.50 110
  215.2293 0.21 4
  215.5164 0.25 5
  215.9622 2.08 42
  216.3596 0.19 4
  216.6195 0.28 6
  217.0019 6.44 129
  217.3037 0.20 4
  217.4884 0.12 2
  217.5781 0.22 4
  218.0243 8.99 180
  218.2283 0.28 6
  218.4001 0.08 2
  218.9827 2.89 58
  219.2868 0.19 4
  219.3710 0.10 2
  219.6128 0.27 5
  219.7182 0.07 1
  220.0005 1.86 37
  220.2861 0.12 2
  220.5191 0.10 2
  221.0002 3.66 73
  221.2387 0.13 3
  221.4114 0.25 5
  221.6246 0.05 1
  221.9913 1.89 38
  222.4350 0.14 3
  223.0063 4.59 92
  223.3053 0.16 3
  223.5448 0.13 3
  223.6950 0.12 2
  224.0298 2.58 52
  224.2858 0.09 2
  224.4327 0.13 3
  224.5171 0.15 3
  224.6111 0.25 5
  225.0223 4.20 84
  225.2969 0.23 5
  225.3635 0.13 3
  225.4466 0.06 1
  225.5949 0.12 2
  226.0309 1.80 36
  226.2733 0.28 6
  226.5921 0.23 5
  226.7397 0.17 3
  227.0482 4.27 86
  227.4604 0.11 2
  228.0061 2.39 48
  228.2302 0.16 3
  228.4288 0.17 3
  228.5470 0.12 2
  229.0175 3.00 60
  229.3316 0.05 1
  229.6087 0.16 3
  229.8468 0.38 8
  230.0183 1.35 27
  230.1802 0.24 5
  230.3092 0.10 2
  230.5013 0.24 5
  230.6022 0.20 4
  231.0524 11.30 226
  231.2892 0.35 7
  231.5260 0.08 2
  231.6324 0.12 2
  231.8411 0.32 6
  232.0677 1.68 34
  232.3492 0.17 3
  232.5840 0.10 2
  232.6692 0.07 1
  233.0236 2.80 56
  233.2633 0.09 2
  233.4165 0.06 1
  233.5182 0.18 4
  233.7215 0.14 3
  234.0389 1.58 32
  234.3296 0.11 2
  234.4664 0.34 7
  235.0237 2.64 53
  235.2630 0.08 2
  235.3826 0.30 6
  235.5063 0.12 2
  235.7188 0.25 5
  236.0233 0.94 19
  236.3410 0.11 2
  236.5480 0.10 2
  236.6801 0.06 1
  237.0281 3.09 62
  237.3253 0.11 2
  237.5014 0.13 3
  237.5634 0.05 1
  237.8255 0.35 7
  238.0484 1.95 39
  238.2617 0.22 4
  238.4118 0.12 2
  239.0305 2.94 59
  239.3748 0.12 2
  239.4815 0.08 2
  240.0474 7.43 149
  240.4641 0.24 5
  240.6948 0.25 5
  241.0447 5.06 101
  241.4236 0.31 6
  241.5538 0.09 2
  241.6689 0.22 4
  242.0231 1.68 34
  242.3683 0.09 2
  242.5316 0.13 3
  242.7164 0.17 3
  243.0403 4.61 92
  243.4877 0.04 1
  243.6042 0.05 1
  243.7594 0.26 5
  244.0297 1.28 26
  244.2379 0.34 7
  244.3896 0.13 3
  244.5331 0.12 2
  244.6848 0.20 4
  245.0145 2.16 43
  245.3208 0.06 1
  245.4133 0.12 2
  245.6113 0.10 2
  246.0232 0.88 18
  246.3972 0.12 2
  246.5690 0.11 2
  247.0246 2.49 50
  247.4035 0.16 3
  247.5665 0.10 2
  247.7391 0.27 5
  248.0325 1.02 20
  248.2908 0.07 1
  248.3826 0.05 1
  248.5560 0.18 4
  249.0304 2.20 44
  249.5243 0.06 1
  250.0238 1.22 24
  250.1047 0.64 13
  250.3120 0.20 4
  250.5310 0.19 4
  250.8151 0.27 5
  251.0493 2.01 40
  251.3611 0.10 2
  251.4986 0.12 2
  251.6438 0.23 5
  251.7482 0.20 4
  252.0524 1.31 26
  252.2404 0.32 6
  252.4216 0.17 3
  252.7342 0.20 4
  253.0495 2.61 52
  253.3988 0.09 2
  253.5856 0.12 2
  254.0594 1.26 25
  254.1507 0.74 15
  254.2829 0.15 3
  254.5111 0.14 3
  254.5851 0.11 2
  255.0638 6.61 132
  255.3426 0.17 3
  255.5820 0.18 4
  256.0643 2.95 59
  256.3155 0.12 2
  256.4449 0.13 3
  256.6104 0.31 6
  257.0748 2.68 54
  257.2237 0.62 12
  257.3026 0.15 3
  257.4341 0.21 4
  257.7906 0.36 7
  258.0842 4.10 82
  258.3619 0.07 1
  258.5309 0.19 4
  258.7054 0.15 3
  259.0580 1.97 39
  259.3087 0.14 3
  259.4611 0.10 2
  259.5802 0.09 2
  259.8338 0.23 5
  260.0285 1.06 21
  260.2065 0.23 5
  260.6923 0.14 3
  260.7872 0.20 4
  261.0568 1.40 28
  261.4630 0.04 1
  261.5995 0.19 4
  261.7236 0.03 1
  262.0106 0.61 12
  262.1492 0.67 13
  262.3718 0.22 4
  262.5652 0.14 3
  262.6810 0.13 3
  263.0659 2.37 47
  263.2046 0.64 13
  263.3661 0.19 4
  263.5368 0.04 1
  263.7684 0.16 3
  264.0757 1.06 21
  264.3774 0.12 2
  264.4878 0.06 1
  264.6605 0.29 6
  264.7556 0.17 3
  265.0837 1.79 36
  265.5299 0.21 4
  265.7298 0.08 2
  266.0948 1.07 21
  266.2239 0.41 8
  266.3079 0.04 1
  266.5779 0.29 6
  266.7133 0.36 7
  267.0819 2.78 56
  267.3700 0.22 4
  267.5436 0.17 3
  267.6894 0.07 1
  268.0832 2.74 55
  268.3922 0.23 5
  268.6735 0.21 4
  269.0805 3.79 76
  269.3507 0.14 3
  269.5480 0.22 4
  269.8899 0.69 14
  270.1101 3.19 64
  270.3325 0.16 3
  270.4283 0.17 3
  270.6139 0.20 4
  270.7536 0.30 6
  271.1143 7.92 159
  271.4854 0.20 4
  271.6196 0.09 2
  271.7162 0.07 1
  272.1284 1.47 29
  272.3436 0.17 3
  272.4782 0.16 3
  272.7592 0.13 3
  272.8466 0.13 3
  273.0450 1.47 29
  273.1345 0.68 14
  273.2664 0.13 3
  273.4856 0.07 1
  273.6161 0.21 4
  273.8028 0.07 1
  274.0255 0.44 9
  274.1123 0.25 5
  274.2233 0.29 6
  274.3163 0.27 5
  274.4378 0.06 1
  274.6204 0.14 3
  275.0799 0.88 18
  275.3236 0.09 2
  275.4333 0.03 1
  275.7054 0.03 1
  276.0533 0.80 16
  276.2200 0.15 3
  276.4707 0.14 3
  276.5929 0.37 7
  276.6922 0.27 5
  276.7825 0.14 3
  276.8547 0.09 2
  277.0930 1.68 34
  277.4944 0.16 3
  277.8036 0.33 7
  277.8835 0.32 6
  278.0023 0.68 14
  278.1280 0.49 10
  278.3246 0.07 1
  278.5588 0.15 3
  278.7318 0.14 3
  279.0827 2.01 40
  279.4038 0.13 3
  279.4976 0.06 1
  279.6602 0.18 4
  279.7589 0.18 4
  279.8284 0.19 4
  280.0988 1.06 21
  280.5097 0.23 5
  280.5792 0.05 1
  280.7252 0.15 3
  281.1069 3.73 75
  281.3725 0.31 6
  281.4990 0.03 1
  281.6026 0.04 1
  282.0804 2.38 48
  282.3398 0.20 4
  282.4365 0.13 3
  282.5742 0.12 2
  283.1167 8.30 166
  283.3574 0.28 6
  283.5717 0.43 9
  283.6712 0.44 9
  284.0956 2.73 55
  284.4094 0.23 5
  284.6265 0.16 3
  284.7671 0.11 2
  285.0984 0.95 19
  285.2898 0.09 2
  285.7004 0.11 2
  285.8995 0.16 3
  286.0659 0.55 11
  286.2023 0.36 7
  286.4063 0.13 3
  286.5246 0.14 3
  286.8017 0.13 3
  287.0935 0.70 14
  287.2975 0.10 2
  287.3824 0.17 3
  287.5482 0.09 2
  287.6888 0.17 3
  287.9145 0.12 2
  288.0754 0.31 6
  288.1882 0.16 3
  288.4513 0.12 2
  288.6342 0.16 3
  288.8019 0.11 2
  289.1031 1.55 31
  289.3431 0.11 2
  289.4677 0.02 0
  289.6179 0.19 4
  290.0973 0.56 11
  290.2289 0.33 7
  290.3729 0.05 1
  290.6144 0.05 1
  290.7710 0.22 4
  291.0960 1.28 26
  291.2769 0.23 5
  291.4767 0.09 2
  291.7572 0.37 7
  291.8895 0.18 4
  292.1025 0.50 10
  292.2515 0.18 4
  292.5077 0.03 1
  292.6518 0.11 2
  293.0842 2.35 47
  293.4261 0.21 4
  293.5591 0.09 2
  293.6873 0.11 2
  293.7924 0.24 5
  294.0689 1.13 23
  294.2437 0.25 5
  294.4151 0.16 3
  294.5377 0.05 1
  294.6463 0.25 5
  295.0970 4.10 82
  295.3980 0.22 4
  295.5380 0.30 6
  296.1059 4.18 84
  296.4571 0.08 2
  296.5428 0.02 0
  296.7957 0.44 9
  297.1094 2.88 58
  297.5331 0.12 2
  297.7095 0.16 3
  297.8370 0.08 2
  298.0880 1.07 21
  298.3369 0.21 4
  298.5704 0.08 2
  298.7649 0.11 2
  298.9894 0.48 10
  299.2139 0.13 3
  299.4559 0.06 1
  299.6219 0.12 2
  299.9154 0.12 2
  300.0431 0.24 5
  300.1414 0.49 10
  300.2844 0.13 3
  300.4357 0.05 1
  300.8821 0.33 7
  301.0391 0.50 10
  301.1451 0.31 6
  301.2462 0.14 3
  301.5057 0.14 3
  301.6292 0.21 4
  301.7304 0.07 1
  301.8420 0.21 4
  302.0052 0.30 6
  302.1364 0.25 5
  302.2236 0.14 3
  302.3855 0.05 1
  302.5879 0.07 1
  302.7309 0.19 4
  303.0282 0.76 15
  303.2019 0.53 11
  303.5167 0.14 3
  303.7121 0.11 2
  303.8950 0.33 7
  304.0681 0.90 18
  304.1762 0.26 5
  304.2691 0.24 5
  304.4073 0.04 1
  304.6021 0.15 3
  305.0949 1.25 25
  305.3916 0.10 2
  305.5648 0.11 2
  305.7540 0.18 4
  305.9439 0.29 6
  306.1534 0.46 9
  306.3790 0.14 3
  306.5179 0.11 2
  307.0703 1.78 36
  307.4440 0.12 2
  307.5334 0.10 2
  307.6955 0.03 1
  308.0999 1.32 26
  308.5051 0.14 3
  309.1011 6.38 128
  309.3652 0.40 8
  309.5259 0.20 4
  309.6328 0.11 2
  310.1017 1.53 31
  310.2583 0.59 12
  310.4134 0.21 4
  310.5036 0.20 4
  310.7007 0.12 2
  310.7664 0.10 2
  311.0914 2.09 42
  311.4430 0.18 4
  311.6262 0.12 2
  311.8764 0.19 4
  312.0016 0.45 9
  312.1631 0.28 6
  312.5427 0.17 3
  312.7252 0.15 3
  312.9692 0.40 8
  313.1084 0.37 7
  313.3762 0.14 3
  313.5482 0.11 2
  313.8825 0.16 3
  314.1735 0.29 6
  314.2742 0.15 3
  314.6750 0.09 2
  315.0772 0.91 18
  315.3808 0.02 0
  315.4725 0.06 1
  315.5690 0.12 2
  315.8467 0.14 3
  316.0566 0.21 4
  316.1966 0.32 6
  316.3974 0.15 3
  316.6654 0.07 1
  317.0461 0.92 18
  317.3323 0.29 6
  317.7158 0.05 1
  317.9272 0.14 3
  318.0721 0.69 14
  318.1764 0.40 8
  318.2821 0.22 4
  318.4669 0.06 1
  318.5453 0.08 2
  318.6720 0.17 3
  319.0682 1.51 30
  319.3496 0.19 4
  319.5652 0.30 6
  319.6829 0.07 1
  320.0666 0.67 13
  320.2325 0.39 8
  320.4811 0.07 1
  320.6961 0.14 3
  321.1177 1.88 38
  321.4559 0.26 5
  321.6002 0.10 2
  322.1038 1.22 24
  322.4366 0.22 4
  322.7252 0.22 4
  323.1042 0.99 20
  323.5526 0.11 2
  323.7095 0.20 4
  324.1264 4.60 92
  324.5181 0.29 6
  324.6800 0.17 3
  324.8265 0.30 6
  324.9302 0.18 4
  325.0977 0.39 8
  325.2911 0.23 5
  325.4762 0.11 2
  325.6942 0.18 4
  325.8981 0.14 3
  326.0867 0.27 5
  326.2248 0.18 4
  326.3390 0.08 2
  326.4295 0.18 4
  326.8445 0.10 2
  327.0849 0.39 8
  327.2287 0.21 4
  327.3289 0.03 1
  327.4853 0.10 2
  327.5484 0.05 1
  328.1227 0.46 9
  328.3814 0.07 1
  328.7945 0.14 3
  329.1318 0.60 12
  329.5056 0.05 1
  329.6038 0.16 3
  329.7672 0.08 2
  329.9005 0.06 1
  330.0857 0.10 2
  330.2435 0.17 3
  330.4035 0.07 1
  330.5501 0.07 1
  330.8370 0.19 4
  331.1127 1.41 28
  331.2488 0.51 10
  331.5260 0.10 2
  331.6458 0.18 4
  331.8230 0.22 4
  331.8966 0.11 2
  332.0493 0.71 14
  332.2413 0.54 11
  332.3317 0.19 4
  332.4242 0.03 1
  332.5447 0.10 2
  332.6302 0.06 1
  333.1227 1.33 27
  333.3589 0.21 4
  333.4311 0.04 1
  333.6175 0.26 5
  333.7682 0.16 3
  333.9259 0.37 7
  334.1487 0.85 17
  334.3541 0.12 2
  334.5504 0.36 7
  334.6639 0.16 3
  335.1392 3.38 68
  335.3543 0.71 14
  335.6824 0.54 11
  336.1395 20.43 409
  336.4740 0.47 9
  336.6486 0.23 5
  337.1492 2.40 48
  337.5524 0.25 5
  337.6429 0.12 2
  337.7726 0.08 2
  338.1275 0.37 7
  338.4908 0.15 3
  338.5939 0.10 2
  338.7952 0.13 3
  339.1115 0.30 6
  339.9000 0.15 3
  339.9989 0.07 1
  340.1596 0.24 5
  340.2543 0.24 5
  340.3609 0.11 2
  340.7826 0.24 5
  341.0401 0.57 11
  341.2373 0.31 6
  341.4822 0.19 4
  341.7116 0.04 1
  341.8218 0.14 3
  341.9102 0.06 1
  342.0695 0.23 5
  342.2043 0.13 3
  342.5124 0.08 2
  342.9566 0.23 5
  343.0942 0.34 7
  343.2423 0.34 7
  343.3427 0.03 1
  343.5680 0.13 3
  343.9190 0.29 6
  344.0692 0.38 8
  344.2272 0.27 5
  344.6077 0.07 1
  344.8337 0.12 2
  345.0970 1.21 24
  345.2726 0.19 4
  345.4853 0.02 0
  345.6279 0.21 4
  346.0997 0.51 10
  346.2992 0.14 3
  346.3870 0.28 6
  346.5281 0.10 2
  346.6819 0.08 2
  347.1349 1.87 37
  347.3934 0.17 3
  347.7670 0.12 2
  348.1147 1.86 37
  348.3192 0.24 5
  348.3936 0.14 3
  348.5320 0.14 3
  348.6409 0.17 3
  348.7905 0.25 5
  349.1530 5.48 110
  349.5542 0.51 10
  349.6280 0.20 4
  350.1493 2.98 60
  350.4669 0.21 4
  350.5351 0.13 3
  350.6349 0.08 2
  350.8071 0.14 3
  350.9244 0.12 2
  351.1620 0.56 11
  351.3215 0.08 2
  351.6328 0.17 3
  352.0805 0.41 8
  352.2155 0.38 8
  352.3392 0.16 3
  352.5416 0.10 2
  352.7560 0.04 1
  353.0020 0.21 4
  353.1363 0.33 7
  353.2200 0.13 3
  353.3121 0.07 1
  353.4196 0.13 3
  353.5476 0.08 2
  353.9919 0.23 5
  354.0910 0.41 8
  354.1965 0.38 8
  354.3055 0.13 3
  354.4377 0.03 1
  354.7955 0.05 1
  355.1689 2.24 45
  355.4312 0.15 3
  355.9959 0.10 2
  356.1331 0.15 3
  356.2632 0.28 6
  356.3750 0.10 2
  356.6690 0.14 3
  357.0650 0.54 11
  357.2239 0.72 14
  357.3154 0.16 3
  357.6910 0.07 1
  357.8746 0.06 1
  358.1342 0.51 10
  358.3692 0.12 2
  358.5182 0.10 2
  358.6776 0.10 2
  358.8278 0.14 3
  359.0784 1.17 23
  359.1592 0.69 14
  359.3221 0.44 9
  359.4751 0.12 2
  359.7194 0.19 4
  359.9027 0.08 2
  360.1758 1.29 26
  360.7439 0.33 7
  361.1785 2.34 47
  361.4672 0.12 2
  361.5381 0.09 2
  361.7144 0.16 3
  361.8499 0.21 4
  361.9665 0.51 10
  362.1779 2.11 42
  362.3436 0.63 13
  362.4469 0.27 5
  362.5143 0.11 2
  362.6021 0.08 2
  362.7166 0.05 1
  363.1753 4.18 84
  363.5153 0.29 6
  363.8279 0.13 3
  364.0386 0.31 6
  364.2353 0.59 12
  364.4018 0.23 5
  364.7004 0.09 2
  364.8283 0.06 1
  365.2217 0.33 7
  365.3770 0.04 1
  365.5204 0.20 4
  365.6068 0.13 3
  365.7762 0.05 1
  365.9546 0.04 1
  366.0530 0.14 3
  366.2104 0.16 3
  366.5049 0.09 2
  366.8345 0.15 3
  367.0573 0.10 2
  367.1718 0.17 3
  367.3279 0.04 1
  367.7819 0.13 3
  368.1143 1.38 28
  368.2578 1.03 21
  368.3969 0.19 4
  368.7006 0.06 1
  368.8742 0.04 1
  369.1477 0.41 8
  369.3291 0.17 3
  369.4163 0.09 2
  369.5590 0.10 2
  369.6918 0.13 3
  369.8986 0.12 2
  370.0321 0.15 3
  370.1854 0.30 6
  370.2888 0.19 4
  370.3984 0.13 3
  370.5349 0.17 3
  370.6544 0.06 1
  370.8773 0.12 2
  371.2000 0.32 6
  371.3414 0.13 3
  371.4434 0.05 1
  371.5735 0.20 4
  371.8329 0.08 2
  372.0728 0.24 5
  372.2648 0.58 12
  372.4800 0.03 1
  372.5939 0.22 4
  372.7486 0.19 4
  372.8168 0.11 2
  373.1571 2.17 43
  373.4335 0.09 2
  373.5762 0.11 2
  373.6697 0.14 3
  373.7893 0.14 3
  374.1662 1.84 37
  374.3533 0.51 10
  374.4567 0.23 5
  374.6339 0.08 2
  375.1712 4.70 94
  375.5475 0.21 4
  375.8008 0.22 4
  376.1946 3.26 65
  376.4338 0.48 10
  376.5956 0.08 2
  376.7504 0.27 5
  376.9931 0.39 8
  377.1809 0.72 14
  377.3554 0.45 9
  377.4834 0.07 1
  377.5671 0.11 2
  377.7402 0.12 2
  378.0807 0.19 4
  378.2771 0.19 4
  378.4846 0.18 4
  378.6570 0.15 3
  378.8153 0.06 1
  379.1411 0.49 10
  379.3438 0.47 9
  379.4986 0.13 3
  379.8210 0.11 2
  379.9631 0.17 3
  380.1003 0.28 6
  380.2925 0.29 6
  380.4515 0.02 0
  380.6190 0.13 3
  380.9921 0.31 6
  381.2208 0.77 15
  381.4545 0.24 5
  381.7016 0.03 1
  382.0226 0.11 2
  382.1620 0.19 4
  382.3098 0.10 2
  382.5512 0.06 1
  382.9680 0.14 3
  383.2503 0.21 4
  383.4615 0.03 1
  383.7749 0.19 4
  384.1255 0.41 8
  384.5705 0.18 4
  385.0522 0.47 9
  385.2381 0.30 6
  385.4036 0.08 2
  385.5797 0.08 2
  385.8149 0.24 5
  386.1691 0.72 14
  386.3706 0.29 6
  386.5276 0.26 5
  386.6129 0.10 2
  386.9002 0.48 10
  387.2031 2.22 44
  387.4285 0.55 11
  387.6356 0.06 1
  387.8850 0.14 3
  388.1815 1.96 39
  388.3598 0.97 19
  388.5246 0.24 5
  388.7071 0.17 3
  389.2024 4.60 92
  389.4765 0.22 4
  389.8590 0.07 1
  390.0909 0.32 6
  390.2635 0.14 3
  390.3678 0.10 2
  390.5742 0.22 4
  390.6553 0.09 2
  390.8181 0.07 1
  391.0844 0.50 10
  391.1909 0.10 2
  391.3093 0.35 7
  391.5298 0.12 2
  391.6919 0.09 2
  391.7962 0.07 1
  391.8893 0.16 3
  391.9731 0.10 2
  392.1134 0.15 3
  392.1867 0.15 3
  392.2649 0.14 3
  392.3784 0.18 4
  392.7999 0.25 5
  393.0036 0.34 7
  393.2785 0.67 13
  393.4498 0.18 4
  393.6909 0.11 2
  393.7938 0.16 3
  393.9207 0.09 2
  394.1321 0.60 12
  394.3098 0.53 11
  394.4522 0.23 5
  394.5981 0.13 3
  394.7137 0.07 1
  394.9436 0.33 7
  395.2016 2.00 40
  395.3321 1.02 20
  395.8912 0.24 5
  396.1965 0.37 7
  396.3897 0.14 3
  396.8551 0.15 3
  397.1851 0.48 10
  397.3544 0.22 4
  397.7860 0.05 1
  397.9884 0.05 1
  398.1125 0.11 2
  398.2804 0.13 3
  398.4052 0.08 2
  398.5886 0.13 3
  398.7353 0.06 1
  398.8982 0.05 1
  399.1119 0.14 3
  399.2847 0.29 6
  399.3581 0.12 2
  399.5739 0.06 1
  399.7136 0.12 2
  399.8716 0.19 4
  399.9591 0.13 3
  400.1587 0.27 5
  400.2646 0.21 4
  400.3718 0.22 4
  400.5277 0.19 4
  400.6815 0.21 4
  400.7922 0.10 2
  400.8917 0.15 3
  401.1915 1.76 35
  401.4265 0.62 12
  401.6516 0.21 4
  401.8068 0.17 3
  402.2301 4.35 87
  403.2364 13.97 280
  404.2314 5.71 114
  404.7576 0.25 5
  404.9630 0.24 5
  405.1924 0.42 8
  405.4154 0.22 4
  405.5554 0.08 2
  405.6539 0.14 3
  405.7827 0.26 5
  405.9480 0.18 4
  406.0500 0.03 1
  406.2358 0.31 6
  406.3224 0.33 7
  406.4553 0.03 1
  406.5595 0.09 2
  406.6467 0.09 2
  406.7185 0.05 1
  406.8613 0.03 1
  407.2568 0.68 14
  407.3814 0.30 6
  407.6685 0.32 6
  407.7262 0.12 2
  408.2315 3.18 64
  408.9149 0.13 3
  409.1950 0.52 10
  409.4646 0.13 3
  409.6652 0.20 4
  409.7891 0.06 1
  410.2360 2.22 44
  410.5049 0.13 3
  410.5986 0.04 1
  410.8323 0.14 3
  411.1054 0.16 3
  411.2279 0.21 4
  411.3229 0.17 3
  412.0516 0.22 4
  412.2347 0.25 5
  412.3431 0.11 2
  412.4297 0.15 3
  412.9043 0.12 2
  413.0662 0.20 4
  413.1570 0.30 6
  413.3225 0.32 6
  413.6366 0.26 5
  413.8598 0.13 3
  414.0394 0.28 6
  414.1436 0.12 2
  414.2661 0.26 5
  414.3795 0.17 3
  414.5274 0.14 3
  414.6436 0.11 2
  414.8457 0.13 3
  415.0901 0.45 9
  415.3091 0.47 9
  415.4084 0.12 2
  415.5028 0.10 2
  415.8557 0.14 3
  415.9965 0.12 2
  416.1641 0.38 8
  416.3001 0.13 3
  416.3916 0.15 3
  416.6494 0.19 4
  417.1989 2.27 45
  417.4708 0.13 3
  417.6793 0.14 3
  417.8378 0.15 3
  417.9526 0.07 1
  418.1731 0.21 4
  418.4254 0.14 3
  419.0566 0.23 5
  419.1870 0.09 2
  419.3342 0.38 8
  419.4448 0.16 3
  419.8929 0.06 1
  420.1008 0.16 3
  420.2192 0.13 3
  420.3742 0.10 2
  421.2338 1.63 33
  421.5677 0.18 4
  421.7458 0.10 2
  422.2319 5.54 111
  422.6235 0.13 3
  422.7242 0.11 2
  422.9708 0.15 3
  423.2195 0.67 13
  423.3808 0.14 3
  423.5512 0.11 2
  423.9091 0.12 2
  424.1479 0.30 6
  424.3283 0.11 2
  424.4149 0.19 4
  424.8750 0.13 3
  425.0913 0.13 3
  425.3245 0.11 2
  425.5246 0.18 4
  425.6444 0.05 1
  425.7522 0.06 1
  426.0397 0.06 1
  426.2123 0.24 5
  426.6978 0.04 1
  426.7888 0.09 2
  426.9600 0.18 4
  427.0777 0.13 3
  427.2172 0.14 3
  427.3152 0.11 2
  427.4857 0.05 1
  427.8994 0.24 5
  428.0664 0.26 5
  428.2405 0.38 8
  428.4315 0.14 3
  428.7416 0.05 1
  429.0362 0.29 6
  429.2279 0.77 15
  429.3900 0.16 3
  429.4711 0.16 3
  430.1330 0.37 7
  430.2789 0.32 6
  430.4107 0.18 4
  430.5609 0.16 3
  430.6750 0.26 5
  431.1305 1.31 26
  431.3603 0.97 19
  431.4907 0.37 7
  431.5506 0.14 3
  432.2112 5.48 110
  432.4629 0.52 10
  432.6970 0.28 6
  432.8979 0.17 3
  433.0862 0.59 12
  433.1567 0.18 4
  433.3020 0.14 3
  433.5699 0.17 3
  433.7377 0.14 3
  433.9859 0.09 2
  434.1072 0.22 4
  434.3138 0.30 6
  434.4119 0.40 8
  434.4859 0.11 2
  434.7334 0.03 1
  435.1340 0.31 6
  435.2680 0.41 8
  435.4224 0.03 1
  435.6404 0.10 2
  435.9979 0.17 3
  436.1524 0.16 3
  436.3992 0.14 3
  436.5212 0.12 2
  436.8104 0.10 2
  436.9197 0.03 1
  437.1384 0.29 6
  437.3056 0.14 3
  437.4805 0.16 3
  437.5990 0.10 2
  437.8586 0.12 2
  437.9877 0.15 3
  438.0427 0.05 1
  438.2458 0.06 1
  438.4145 0.14 3
  438.6762 0.19 4
  438.7961 0.11 2
  438.9160 0.31 6
  439.0092 0.11 2
  439.1643 0.21 4
  439.3104 0.18 4
  439.4924 0.12 2
  439.5848 0.10 2
  439.6744 0.13 3
  439.8070 0.07 1
  440.0667 0.23 5
  440.2417 0.19 4
  440.4392 0.25 5
  440.6848 0.16 3
  440.7722 0.10 2
  440.8731 0.24 5
  441.1328 0.57 11
  441.2838 0.27 5
  441.3431 0.11 2
  441.4616 0.05 1
  441.6853 0.13 3
  441.8088 0.13 3
  441.9619 0.15 3
  442.1976 0.27 5
  442.4728 0.13 3
  442.5603 0.14 3
  442.6605 0.18 4
  442.8539 0.06 1
  442.9992 0.14 3
  443.3239 0.41 8
  443.4601 0.05 1
  443.5786 0.11 2
  443.7960 0.14 3
  443.9711 0.12 2
  444.1193 0.48 10
  444.2160 0.06 1
  444.3515 0.31 6
  444.4948 0.05 1
  444.7347 0.14 3
  445.2274 0.96 19
  445.6036 0.02 0
  445.8006 0.09 2
  445.9114 0.20 4
  446.0822 0.41 8
  446.2312 0.32 6
  446.3476 0.26 5
  446.6265 0.07 1
  446.7430 0.06 1
  446.8305 0.10 2
  446.9943 0.16 3
  447.1305 0.60 12
  447.3176 0.40 8
  447.6296 0.24 5
  447.8386 0.05 1
  447.9664 0.04 1
  448.1599 0.57 11
  448.3060 0.27 5
  448.3823 0.14 3
  448.5877 0.03 1
  448.6929 0.09 2
  448.8405 0.19 4
  448.9238 0.19 4
  449.2090 1.46 29
  449.3828 0.93 19
  449.4978 0.33 7
  449.7160 0.26 5
  449.8403 0.06 1
  450.0345 0.15 3
  450.3840 0.09 2
  450.6679 0.10 2
  450.8105 0.11 2
  450.9151 0.08 2
  451.1460 0.18 4
  451.3437 0.14 3
  451.5436 0.06 1
  451.6862 0.17 3
  452.0168 0.17 3
  452.0704 0.07 1
  452.2534 0.24 5
  452.3996 0.09 2
  452.4949 0.05 1
  452.6658 0.09 2
  452.7647 0.03 1
  452.9681 0.16 3
  453.2139 0.05 1
  453.3587 0.16 3
  453.5042 0.21 4
  453.6370 0.20 4
  453.9266 0.17 3
  454.1258 0.33 7
  454.2523 0.20 4
  454.3137 0.11 2
  454.4500 0.21 4
  454.6952 0.24 5
  455.1331 0.36 7
  455.2737 0.13 3
  455.4362 0.30 6
  455.6827 0.33 7
  455.7555 0.13 3
  456.0491 0.18 4
  456.3813 0.23 5
  456.6217 0.26 5
  456.7839 0.14 3
  456.8692 0.21 4
  457.0209 0.28 6
  457.3114 0.74 15
  457.5068 0.50 10
  457.5921 0.17 3
  457.7226 0.20 4
  457.8996 0.36 7
  458.1443 0.65 13
  458.2776 0.42 8
  458.4391 0.45 9
  458.6140 0.26 5
  458.7431 0.14 3
  458.8524 0.19 4
  458.9526 0.19 4
  459.0683 0.49 10
  459.2940 0.54 11
  459.4294 0.36 7
  459.5973 0.25 5
  459.8181 0.15 3
  459.9041 0.19 4
  460.2385 0.54 11
  460.3929 0.56 11
  460.4995 0.24 5
  460.7548 0.09 2
  460.9142 0.15 3
  461.2762 0.75 15
  461.5103 0.34 7
  462.2335 1.39 28
  462.4790 0.46 9
  462.8049 0.20 4
  462.9073 0.05 1
  463.0815 0.20 4
  463.2685 0.35 7
  463.3793 0.14 3
  463.8605 0.19 4
  464.0115 0.08 2
  464.2295 0.27 5
  464.3763 0.14 3
  464.5872 0.14 3
  464.7778 0.09 2
  465.0142 0.16 3
  465.1292 0.04 1
  465.3381 0.12 2
  465.7227 0.13 3
  466.2117 0.07 1
  466.3268 0.14 3
  466.4016 0.07 1
  466.5512 0.05 1
  466.6479 0.06 1
  466.7537 0.14 3
  466.8532 0.15 3
  467.0043 0.12 2
  467.2696 0.36 7
  467.3882 0.39 8
  467.5011 0.27 5
  467.7270 0.67 13
  467.9790 0.72 14
  468.2832 0.91 18
  468.6008 0.71 14
  469.0370 0.92 18
  469.2445 1.31 26
  469.5855 0.85 17
  469.9625 0.81 16
  470.3521 0.86 17
  470.7482 0.48 10
  471.2254 1.29 26
  471.4068 0.68 14
  471.6038 0.54 11
  471.8163 0.52 10
  472.1729 0.93 19
  472.3882 0.35 7
  472.4913 0.26 5
  472.6636 0.41 8
  472.8959 0.61 12
  473.1818 1.82 36
  473.3365 0.98 20
  473.6521 0.12 2
  473.7333 0.19 4
  473.9070 0.45 9
  474.2318 0.91 18
  474.3914 0.79 16
  474.6266 0.13 3
  474.7989 0.16 3
  475.2762 1.94 39
  475.4662 0.83 17
  476.2727 3.83 77
  476.6965 0.07 1
  476.8491 0.13 3
  476.9239 0.17 3
  477.1344 0.26 5
  477.3131 0.10 2
  477.4748 0.09 2
  477.9756 0.14 3
  478.1578 0.09 2
  478.3083 0.10 2
  478.5287 0.04 1
  478.9476 0.06 1
  479.3128 0.14 3
  479.6617 0.04 1
  479.9839 0.21 4
  480.2417 0.12 2
  480.5328 0.03 1
  481.1163 0.22 4
  481.2265 0.24 5
  481.3586 0.12 2
  481.5353 0.06 1
  481.6363 0.06 1
  481.8009 0.08 2
  482.0072 0.30 6
  482.1450 0.13 3
  482.2708 0.17 3
  482.7569 0.04 1
  483.1978 0.30 6
  483.4563 0.22 4
  483.5488 0.10 2
  483.6519 0.05 1
  483.9843 0.09 2
  484.1453 0.27 5
  484.2448 0.21 4
  484.3818 0.29 6
  484.5498 0.18 4
  484.7567 0.04 1
  484.9106 0.14 3
  485.0920 0.04 1
  485.3935 0.24 5
  485.5354 0.27 5
  485.7062 0.29 6
  485.8954 0.32 6
  485.9901 0.33 7
  486.2668 0.55 11
  486.4257 0.42 8
  486.5380 0.06 1
  486.6651 0.19 4
  486.7399 0.12 2
  486.8557 0.47 9
  487.3316 0.99 20
  487.5780 0.51 10
  488.3011 31.97 641
  488.6203 1.82 36
  488.7291 0.34 7
  489.3187 1.62 32
  489.5913 0.52 10
  489.7481 0.26 5
  489.8971 0.15 3
  490.0256 0.16 3
  490.2114 0.19 4
  490.3872 0.11 2
  490.5567 0.27 5
  490.6839 0.05 1
  490.8272 0.06 1
  490.9325 0.13 3
  491.3252 0.31 6
  491.4375 0.08 2
  491.5561 0.03 1
  491.6543 0.09 2
  491.9467 0.04 1
  492.1614 0.20 4
  492.4934 0.28 6
  493.0147 0.16 3
  493.1179 0.24 5
  493.3255 0.03 1
  493.5438 0.12 2
  493.8780 0.06 1
  494.1259 0.09 2
  494.2877 0.12 2
  494.5469 0.15 3
  494.8196 0.09 2
  495.0146 0.10 2
  495.2223 0.14 3
  495.3792 0.19 4
  495.5982 0.07 1
  495.7564 0.14 3
  496.0489 0.13 3
  496.2807 0.27 5
  496.3859 0.31 6
  496.8000 0.08 2
  497.0833 0.14 3
  497.3122 0.36 7
  497.4952 0.15 3
  497.6040 0.13 3
  498.1213 0.19 4
  498.2654 0.31 6
  498.4392 0.11 2
  498.7325 0.12 2
  498.8448 0.09 2
  498.9487 0.14 3
  499.0985 0.25 5
  499.2229 0.22 4
  499.3572 0.22 4
  499.4632 0.11 2
  500.1642 0.19 4
  500.3134 0.12 2
  500.4010 0.19 4
  501.1678 0.15 3
  501.3204 0.08 2
  501.5353 0.11 2
  501.6823 0.03 1
  502.6174 0.12 2
  504.1053 0.12 2
  504.1774 0.13 3
  504.4595 0.06 1
  505.1685 0.07 1
  505.3035 0.07 1
  505.3643 0.02 0
  506.2049 0.19 4
  506.3958 0.12 2
  506.4651 0.06 1
  506.5626 0.14 3
  506.7634 0.15 3
  506.9769 0.09 2
  507.2831 0.18 4
  507.3955 0.24 5
  507.4966 0.12 2
  507.8770 0.01 0
  508.0014 0.07 1
  508.1754 0.26 5
  508.2644 0.25 5
  508.3535 0.15 3
  508.4638 0.12 2
  509.1328 0.30 6
  509.3406 0.26 5
  509.5103 0.22 4
  509.5874 0.16 3
  509.7270 0.13 3
  509.9673 0.18 4
  510.1872 0.08 2
  510.3317 0.16 3
  511.0084 0.15 3
  511.2050 0.65 13
  511.4165 0.44 9
  511.5018 0.34 7
  511.5892 0.08 2
  512.1404 0.14 3
  512.3209 0.28 6
  512.7150 0.10 2
  512.8439 0.08 2
  513.1231 0.20 4
  513.3705 0.56 11
  513.4826 0.30 6
  513.5574 0.09 2
  514.1312 0.10 2
  514.2158 0.14 3
  514.4513 0.14 3
  514.5535 0.10 2
  514.7467 0.11 2
  514.9920 0.19 4
  515.0527 0.08 2
  515.4609 0.14 3
  515.6294 0.14 3
  515.9875 0.09 2
  516.0969 0.03 1
  516.3337 0.13 3
  516.4995 0.13 3
  516.5763 0.03 1
  516.8492 0.02 0
  516.9860 0.14 3
  517.2835 0.11 2
  517.4062 0.06 1
  517.5903 0.15 3
  517.6763 0.04 1
  517.8258 0.13 3
  518.1036 0.13 3
  518.2877 0.17 3
  518.4978 0.14 3
  518.8723 0.06 1
  518.9717 0.17 3
  519.3193 0.14 3
  519.4562 0.12 2
  519.6691 0.06 1
  519.8574 0.01 0
  520.1353 0.10 2
  520.3617 0.20 4
  520.5295 0.14 3
  520.9379 0.07 1
  521.0902 0.19 4
  521.2645 0.08 2
  521.6827 0.29 6
  521.9380 0.28 6
  522.0798 0.25 5
  522.3422 0.40 8
  522.4550 0.36 7
  522.5855 0.14 3
  522.6560 0.05 1
  522.8021 0.14 3
  522.9911 0.13 3
  523.0905 0.35 7
  523.2577 0.69 14
  523.4185 0.39 8
  523.5194 0.15 3
  523.5864 0.08 2
  523.8354 0.06 1
  524.2135 0.57 11
  524.4068 1.02 20
  524.5507 0.27 5
  524.8498 0.08 2
  525.1030 0.18 4
  525.2314 0.71 14
  525.4283 0.46 9
  525.6978 0.10 2
  525.8649 0.21 4
  525.9715 0.21 4
  526.1168 0.29 6
  526.2988 0.66 13
  526.4244 0.26 5
  526.5958 0.14 3
  526.6932 0.14 3
  526.9789 0.18 4
  527.0989 0.20 4
  527.2365 0.21 4
  527.3966 0.26 5
  527.4996 0.12 2
  527.6139 0.20 4
  527.7917 0.12 2
  527.9724 0.19 4
  528.2687 0.24 5
  528.3491 0.13 3
  528.6525 0.07 1
  528.7336 0.11 2
  528.8557 0.20 4
  529.2255 0.08 2
  529.4280 0.15 3
  529.5952 0.08 2
  529.7441 0.39 8
  530.0136 0.18 4
  530.1957 0.15 3
  530.3417 0.08 2
  530.4109 0.04 1
  530.4984 0.09 2
  531.0009 0.11 2
  531.1060 0.18 4
  531.2111 0.06 1
  531.3466 0.05 1
  531.5619 0.16 3
  531.6430 0.12 2
  531.8660 0.13 3
  531.9296 0.03 1
  532.2895 0.13 3
  532.4687 0.18 4
  532.6762 0.16 3
  532.9825 0.26 5
  533.1476 0.13 3
  533.3361 0.19 4
  533.4688 0.47 9
  533.5810 0.14 3
  533.6946 0.07 1
  533.8301 0.28 6
  534.0595 0.25 5
  534.1922 0.14 3
  534.2917 0.18 4
  534.4689 0.06 1
  534.5790 0.04 1
  534.6757 0.16 3
  534.8373 0.14 3
  535.2022 0.78 16
  535.3632 0.81 16
  535.5784 0.07 1
  535.7662 0.19 4
  535.9307 0.11 2
  536.1128 0.58 12
  536.2003 0.25 5
  536.3535 0.39 8
  536.5102 0.19 4
  536.6260 0.21 4
  536.7601 0.19 4
  536.8674 0.16 3
  537.2740 1.76 35
  537.4371 0.54 11
  537.5662 0.35 7
  537.7978 0.20 4
  538.3110 0.95 19
  538.5800 0.34 7
  538.6852 0.34 7
  538.8977 0.35 7
  539.0601 0.84 17
  539.3467 1.12 22
  539.6644 0.37 7
  539.8211 0.28 6
  539.9609 0.20 4
  540.0739 0.34 7
  540.3351 0.59 12
  540.5787 0.45 9
  540.7538 0.49 10
  540.9240 0.55 11
  541.1273 0.36 7
  541.3292 0.31 6
  541.5375 0.49 10
  541.7056 0.31 6
  541.8263 0.52 10
  542.0728 0.58 12
  542.1913 0.36 7
  542.3665 0.64 13
  542.6044 0.73 15
  542.8361 0.42 8
  543.0881 0.69 14
  543.1990 0.85 17
  543.7237 0.79 16
  544.4384 0.87 17
  544.8860 0.90 18
  545.0259 0.74 15
  545.1883 0.82 16
  545.4030 0.72 14
  545.9475 0.94 19
  546.3359 1.26 25
  546.7908 1.01 20
  547.1382 0.94 19
  547.4073 1.33 27
  547.6051 0.77 15
  547.9703 1.28 26
  548.5114 1.77 35
  549.2650 2.37 47
  550.3790 11.20 224
  550.6898 3.17 64
  551.4033 4.25 85
  551.7841 1.70 34
  552.3492 3.89 78
  553.3590 36.32 728
  554.2379 1.49 30
  554.8113 1.17 23
  555.3044 1.20 24
  555.7057 1.37 27
  556.2623 1.57 31
  556.8641 1.36 27
  557.8976 1.36 27
  558.4183 1.43 29
  559.0123 1.09 22
  559.3834 1.79 36
  559.9535 1.96 39
  560.3627 1.71 34
  561.2687 2.44 49
  561.5150 2.08 42
  568.2390 99.97 999
  569.3381 48.25 967
  570.0157 24.02 481
  570.7795 11.40 228
  571.6866 6.07 122
  572.5175 3.12 63
  573.2376 2.58 52
  573.4826 1.70 34
  573.9373 1.61 32
  574.4160 1.20 24
  574.6511 0.79 16
  574.8057 0.73 15
//
