ACCESSION: MSBNK-Kyoto_Univ-CA000033
RECORD_TITLE: Corbiculaxanthin-3'-acetate; FAB-EBEB; MS2; m/z: 642.43; [M]+*
DATE: 2016.01.19 (Created 2010.04.01, modified 2011.05.10)
AUTHORS: Akimoto N, Graduate School of Pharmaceutical Sciences, Kyoto University and Maoka T, Research Institute for Production Development
LICENSE: CC BY-SA
PUBLICATION: Takashi Maoka, Yasuhiro Fujiwara, Keiji Hashimoto, and Naoshige Akimoto, Structure of New Carotenoids from the Corbicula clam Corbicula japonica, J. Nat. Prod ., 68, 1341-1344 (2005).  Takashi Maoka, Yasuhiro Fujiwara, Keiji Hashimoto, and Naoshige Akimoto, Carotenoids in Three Species of Corbicula Clams, Corbicula japonica, Corbicula sandai, and Corbicula sp. (Chinese Freshwater Corbicula Clam), J. Agric. Food Chem., 53, 8357-8364 (2005).
COMMENT: Profile spectrum of this record is given as a JPEG file.
COMMENT: [Profile] CA000033.jpg
CH$NAME: Corbiculaxanthin-3'-acetate
CH$COMPOUND_CLASS: N/A
CH$FORMULA: C42H58O5
CH$EXACT_MASS: 642.42842
CH$SMILES: CC(O)(C1=C=CC(=CC=CC(C)=CC=CC=C(C)C=CC=C(C)C=CC(=C(C)2)C(CC(O)C2O)(C)C)C)CC(OC(C)=O)CC1(C)C
CH$IUPAC: InChI=1S/C42H58O5/c1-29(18-14-20-31(3)22-24-36-33(5)39(45)37(44)28-40(36,7)8)16-12-13-17-30(2)19-15-21-32(4)23-25-38-41(9,10)26-35(47-34(6)43)27-42(38,11)46/h12-24,35,37,39,44-46H,26-28H2,1-11H3/b13-12+,18-14+,19-15+,24-22+,29-16+,30-17+,31-20+,32-21+/t25?,35-,37-,39+,42+/m0/s1
CH$LINK: CAS 865866-06-4
CH$LINK: NIKKAJI J2.236.912A
CH$LINK: INCHIKEY SCJRNAKKXUSBHB-AVRKXLGXSA-N
AC$INSTRUMENT: JMS-HX/HX 110A, JEOL
AC$INSTRUMENT_TYPE: FAB-EBEB
AC$MASS_SPECTROMETRY: MS_TYPE MS2
AC$MASS_SPECTROMETRY: ION_MODE POSITIVE
AC$MASS_SPECTROMETRY: ATOM_GUN_CURRENT 5 mA
AC$MASS_SPECTROMETRY: BOMBARDMENT 6 kV xenon
AC$MASS_SPECTROMETRY: COLLISION_ENERGY 3 kV
AC$MASS_SPECTROMETRY: COLLISION_GAS Ar
AC$MASS_SPECTROMETRY: GAS_PRESSURE adjust to attenuate the intensity of the precursor ion by 30 %
AC$MASS_SPECTROMETRY: IONIZATION FAB
AC$MASS_SPECTROMETRY: MATRIX 1-2 uL m-NBA
AC$MASS_SPECTROMETRY: PROBE_TIP stainless-steel
MS$FOCUSED_ION: BASE_PEAK 42.9700
MS$FOCUSED_ION: PRECURSOR_M/Z 642.43
MS$FOCUSED_ION: PRECURSOR_TYPE [M]+*
MS$DATA_PROCESSING: RELATIVE_M/Z normalised by peak(m/z=42.9700).  set 999 for peak(m/z=642.4491,rel=2321).
PK$SPLASH: splash10-0006-3930013000-35e6dbaeca4817ddb125
PK$NUM_PEAK: 1804
PK$PEAK: m/z int. rel.int.
  0.0217 0.01 0
  0.7632 0.07 2
  1.2929 0.01 0
  1.7220 0.06 1
  2.4974 0.01 0
  3.4551 0.10 2
  4.0903 0.01 0
  5.3348 0.01 0
  6.0249 0.05 1
  6.4466 0.01 0
  6.7169 0.01 0
  6.8238 0.08 2
  7.7363 0.11 3
  8.7848 0.01 0
  9.8581 0.12 3
  10.2110 0.01 0
  10.2779 0.08 2
  11.7033 0.01 0
  11.9856 0.02 0
  12.9905 0.08 2
  14.0029 0.06 1
  15.0029 0.54 13
  15.1352 0.01 0
  16.6905 0.01 0
  18.9993 0.08 2
  20.2181 0.01 0
  21.4739 0.14 3
  22.9680 0.20 5
  24.9605 0.08 2
  25.2133 0.01 0
  25.9658 0.22 5
  26.9867 2.56 59
  28.0082 0.27 6
  28.3090 0.02 0
  28.9919 2.39 56
  29.9233 0.05 1
  30.9778 0.29 7
  31.3276 0.03 1
  32.6525 0.02 0
  33.5823 0.01 0
  35.9413 0.05 1
  36.9838 0.21 5
  37.3348 0.01 0
  37.5666 0.09 2
  37.7844 0.01 0
  37.9603 0.45 10
  38.5705 0.01 0
  38.9756 4.52 105
  39.7046 0.08 2
  39.9869 0.50 12
  40.9905 7.72 179
  41.5076 0.12 3
  41.9783 0.27 6
  42.2006 0.01 0
  42.9700 43.02 999
  43.9916 0.21 5
  44.9696 0.71 16
  45.6332 0.02 0
  46.2718 0.01 0
  46.9603 0.37 9
  48.9742 0.11 3
  49.9516 1.25 29
  50.9764 3.48 81
  51.9807 1.12 26
  52.7921 0.12 3
  52.9875 5.23 121
  53.3882 0.01 0
  54.0008 0.30 7
  54.1709 0.01 0
  54.9930 11.64 270
  55.5457 0.01 0
  56.0005 0.47 11
  57.0034 3.16 73
  57.3252 0.02 0
  57.9974 0.28 7
  58.9957 1.65 38
  59.9715 0.48 11
  60.2352 0.04 1
  60.9716 0.25 6
  61.9661 0.82 19
  62.9818 2.45 57
  63.1896 0.01 0
  63.5428 0.03 1
  63.9832 0.59 14
  64.1736 0.11 3
  64.4675 0.09 2
  64.7715 0.03 1
  64.9858 3.05 71
  65.2441 0.07 2
  65.5198 0.02 0
  66.0049 0.86 20
  67.0013 7.22 168
  68.0159 0.30 7
  68.9999 8.42 196
  69.4664 0.11 3
  70.0436 0.09 2
  70.9898 2.80 65
  71.3311 0.13 3
  71.9912 0.01 0
  72.5745 0.04 1
  72.7520 0.10 2
  72.9749 0.37 9
  73.9595 0.87 20
  74.9589 1.22 28
  75.2215 0.16 4
  75.3759 0.05 1
  75.4614 0.03 1
  75.6034 0.12 3
  75.9725 0.59 14
  76.3534 0.02 0
  76.5015 0.09 2
  76.6878 0.07 2
  76.9812 11.95 277
  77.2404 0.08 2
  77.3201 0.06 1
  77.5528 0.13 3
  77.7767 0.20 5
  77.9849 1.77 41
  78.1753 0.05 1
  78.3051 0.09 2
  78.4541 0.12 3
  78.6678 0.06 1
  78.9829 10.34 240
  79.9795 1.54 36
  80.6911 0.06 1
  80.9985 9.94 231
  81.9560 0.77 18
  82.2043 0.14 3
  82.5513 0.06 1
  82.9946 5.45 127
  83.3489 0.09 2
  83.9909 0.31 7
  84.9808 4.17 97
  85.3455 0.07 2
  85.9617 0.69 16
  86.9570 2.92 68
  87.9188 0.13 3
  88.0109 0.14 3
  88.2003 0.06 1
  88.3898 0.10 2
  88.7671 0.23 5
  88.9675 1.39 32
  89.2860 0.18 4
  89.4008 0.05 1
  89.5420 0.08 2
  89.7500 0.07 2
  89.8610 0.20 5
  89.9978 0.47 11
  90.1254 0.19 4
  90.3323 0.14 3
  90.4362 0.05 1
  90.5732 0.11 3
  90.9785 20.00 464
  91.2376 0.06 1
  91.3032 0.03 1
  91.6362 0.10 2
  91.9874 2.28 53
  92.1960 0.12 3
  92.5471 0.10 2
  92.6868 0.04 1
  92.9896 14.10 327
  93.1980 0.15 3
  93.3533 0.04 1
  93.9788 1.50 35
  94.9924 10.71 249
  95.3196 0.01 0
  96.0044 0.44 10
  96.9981 2.36 55
  97.3663 0.01 0
  97.8869 0.47 11
  98.0323 0.25 6
  98.9812 0.66 15
  99.2241 0.03 1
  99.8887 0.19 4
  100.0097 0.14 3
  100.6497 0.11 3
  100.7743 0.27 6
  100.9342 0.33 8
  101.0615 0.13 3
  101.4316 0.10 2
  101.5368 0.06 1
  101.6935 0.07 2
  101.9839 1.16 27
  102.6103 0.06 1
  102.9959 4.25 99
  103.4389 0.08 2
  103.5915 0.02 0
  103.6943 0.05 1
  103.9832 1.14 26
  104.2758 0.11 3
  104.9972 24.19 562
  105.3449 0.01 0
  105.6389 0.14 3
  106.0035 2.40 56
  106.3355 0.08 2
  106.6273 0.13 3
  107.0160 13.54 314
  107.3459 0.03 1
  107.6876 0.04 1
  108.0186 1.14 26
  108.3712 0.09 2
  108.6187 0.10 2
  109.0129 8.67 201
  110.0006 0.30 7
  110.4658 0.03 1
  111.0183 2.93 68
  111.1976 0.15 3
  111.4727 0.04 1
  111.5700 0.11 3
  111.8957 0.14 3
  112.0000 0.20 5
  112.0953 0.23 5
  112.2548 0.14 3
  112.6362 0.15 3
  113.0006 0.81 19
  113.2504 0.17 4
  113.4587 0.14 3
  113.5500 0.03 1
  113.9268 0.39 9
  114.1471 0.16 4
  114.3370 0.12 3
  114.5332 0.12 3
  114.9786 10.38 241
  115.2764 0.11 3
  115.5931 0.20 5
  115.9704 3.77 88
  116.2506 0.16 4
  116.5226 0.28 7
  116.9861 10.17 236
  117.3113 0.06 1
  117.5608 0.07 2
  117.9791 1.91 44
  118.3355 0.02 0
  118.5093 0.07 2
  118.9967 22.95 533
  119.4432 0.06 1
  119.6193 0.14 3
  120.0026 2.63 61
  120.3245 0.10 2
  120.4946 0.24 6
  120.6332 0.02 0
  121.0080 13.14 305
  121.6403 0.01 0
  121.9974 1.96 46
  122.5654 0.01 0
  122.9925 3.83 89
  123.8033 0.10 2
  124.0018 0.47 11
  124.1658 0.07 2
  124.6355 0.13 3
  125.0005 5.74 133
  125.4179 0.06 1
  125.7184 0.31 7
  125.9774 0.86 20
  126.3544 0.08 2
  126.5458 0.12 3
  126.7062 0.29 7
  126.9733 5.92 137
  127.2505 0.22 5
  127.4294 0.15 3
  127.5369 0.15 3
  127.9700 12.37 287
  128.3516 0.19 4
  128.5442 0.12 3
  128.9772 14.76 343
  129.3628 0.05 1
  129.5891 0.02 0
  129.9829 5.91 137
  130.4309 0.07 2
  130.5509 0.11 3
  130.9850 14.90 346
  131.2694 0.11 3
  131.4372 0.11 3
  131.5318 0.06 1
  131.9899 3.19 74
  132.2099 0.11 3
  132.4498 0.04 1
  132.5602 0.05 1
  132.9883 13.89 323
  133.4238 0.08 2
  133.5507 0.13 3
  133.6342 0.12 3
  133.9865 1.42 33
  134.3084 0.23 5
  134.6239 0.09 2
  134.9968 5.64 131
  135.6400 0.12 3
  135.9661 1.18 27
  136.4290 0.12 3
  136.9838 4.29 100
  137.9505 0.48 11
  138.2803 0.06 1
  138.6175 0.12 3
  138.9792 2.11 49
  139.4123 0.11 3
  139.9593 0.59 14
  140.1851 0.20 5
  140.3304 0.16 4
  140.9550 10.03 233
  141.4325 0.07 2
  141.9772 11.03 256
  142.4270 0.11 3
  142.6239 0.14 3
  142.9810 18.34 426
  143.3751 0.10 2
  143.4718 0.13 3
  143.9780 6.16 143
  144.2526 0.19 4
  144.4368 0.19 4
  144.9899 18.34 426
  145.3639 0.06 1
  145.5759 0.07 2
  145.9978 2.14 50
  146.2151 0.25 6
  146.9953 8.25 192
  147.3302 0.13 3
  147.5832 0.20 5
  148.0098 1.10 26
  148.2187 0.16 4
  148.3167 0.06 1
  148.4532 0.11 3
  148.9941 8.35 194
  149.2694 0.13 3
  149.4721 0.17 4
  149.9584 0.90 21
  150.4223 0.14 3
  150.5263 0.25 6
  150.9643 1.72 40
  151.3407 0.17 4
  151.5147 0.05 1
  151.9706 4.54 105
  152.2774 0.22 5
  152.4137 0.13 3
  152.5594 0.25 6
  152.9692 6.27 146
  153.4017 0.18 4
  153.5301 0.23 5
  153.6381 0.08 2
  153.9892 3.68 85
  154.3571 0.09 2
  154.9861 12.56 292
  155.4026 0.10 2
  155.9957 9.14 212
  156.2978 0.11 3
  156.4895 0.32 7
  157.0011 19.09 443
  157.5210 0.03 1
  158.0031 3.84 89
  158.2947 0.11 3
  158.4208 0.09 2
  158.6056 0.13 3
  159.0214 11.83 275
  159.5005 0.08 2
  159.6678 0.08 2
  160.0355 1.71 40
  160.6186 0.22 5
  161.0308 4.86 113
  161.3101 0.06 1
  162.0166 1.07 25
  162.3624 0.13 3
  162.5566 0.15 3
  163.0276 2.62 61
  163.3553 0.13 3
  163.6948 0.20 5
  163.8377 0.26 6
  164.0469 1.05 24
  164.3675 0.14 3
  164.9970 8.05 187
  165.3584 0.22 5
  165.5952 0.12 3
  165.9989 2.85 66
  166.2528 0.13 3
  166.3805 0.12 3
  166.5370 0.26 6
  167.0245 8.44 196
  167.2682 0.10 2
  167.5764 0.12 3
  168.0162 3.33 77
  168.2824 0.19 4
  169.0331 11.92 277
  169.4402 0.08 2
  169.6445 0.05 1
  170.0413 3.95 92
  170.5406 0.10 2
  171.0511 9.78 227
  171.3528 0.08 2
  171.5796 0.07 2
  172.0565 2.89 67
  172.3443 0.17 4
  172.5046 0.22 5
  172.5914 0.12 3
  173.0575 6.86 159
  173.4725 0.11 3
  173.6557 0.15 3
  174.0548 1.49 35
  174.4993 0.10 2
  174.6185 0.28 7
  175.0543 4.52 105
  175.2974 0.23 5
  175.4523 0.13 3
  175.6162 0.13 3
  176.0292 1.06 25
  176.1998 0.16 4
  176.3935 0.20 5
  176.5307 0.08 2
  177.0398 1.36 32
  177.3323 0.17 4
  177.5098 0.25 6
  178.0245 4.51 105
  178.4346 0.20 5
  179.0321 7.76 180
  179.3094 0.31 7
  179.6165 0.13 3
  180.0226 3.91 91
  180.3604 0.11 3
  180.4661 0.10 2
  180.6365 0.23 5
  181.0370 8.11 188
  182.0304 4.27 99
  182.3508 0.18 4
  182.5520 0.20 5
  183.0418 13.21 307
  183.5839 0.19 4
  184.0374 2.77 64
  184.3814 0.13 3
  184.5567 0.14 3
  185.0494 6.91 160
  185.5990 0.07 2
  186.0374 1.66 39
  186.3109 0.23 5
  186.4574 0.16 4
  186.6046 0.10 2
  186.8153 0.51 12
  187.0695 3.63 84
  187.4284 0.11 3
  187.7253 0.16 4
  188.0208 0.94 22
  188.1449 0.79 18
  188.3694 0.11 3
  189.0168 3.33 77
  189.3432 0.12 3
  189.5244 0.15 3
  190.0030 1.38 32
  190.4023 0.31 7
  190.5993 0.13 3
  191.0160 4.67 108
  191.3511 0.27 6
  191.4673 0.10 2
  191.5985 0.26 6
  192.0058 3.30 77
  192.3763 0.15 3
  192.5781 0.12 3
  193.0261 7.68 178
  193.5118 0.12 3
  193.6364 0.31 7
  194.0291 4.15 96
  194.3604 0.15 3
  195.0162 9.14 212
  195.4100 0.07 2
  196.0235 3.58 83
  196.5665 0.22 5
  197.0472 9.75 226
  197.4114 0.10 2
  197.5544 0.27 6
  198.0549 1.82 42
  198.4856 0.11 3
  198.5858 0.14 3
  199.0377 4.76 111
  199.3797 0.21 5
  199.9796 0.98 23
  200.3972 0.12 3
  200.5789 0.19 4
  201.0578 1.79 42
  201.3527 0.20 5
  202.0219 2.61 61
  202.4702 0.23 5
  203.0213 2.88 67
  203.4547 0.10 2
  203.7251 0.12 3
  204.0537 1.34 31
  204.2796 0.07 2
  204.4557 0.03 1
  205.0286 3.31 77
  205.5737 0.18 4
  206.0297 3.83 89
  206.4382 0.19 4
  206.5539 0.16 4
  207.0556 7.85 182
  207.3500 0.16 4
  207.5816 0.19 4
  207.6694 0.14 3
  208.0396 3.54 82
  208.3872 0.10 2
  209.0439 7.79 181
  209.4955 0.17 4
  210.0450 1.71 40
  210.3308 0.10 2
  210.4346 0.02 0
  211.0594 5.61 130
  211.3992 0.22 5
  211.6268 0.14 3
  212.0479 0.89 21
  213.0315 2.75 64
  213.3990 0.10 2
  213.5646 0.26 6
  213.7529 0.26 6
  214.0392 0.58 13
  214.2140 0.22 5
  214.5908 0.36 8
  215.0277 3.95 92
  215.3089 0.13 3
  215.6198 0.15 3
  216.0395 1.53 36
  216.4083 0.18 4
  216.5482 0.14 3
  217.0396 3.70 86
  217.3964 0.01 0
  218.0532 1.76 41
  218.2731 0.09 2
  218.4406 0.19 4
  218.6743 0.12 3
  219.0482 4.06 94
  219.3269 0.25 6
  219.5927 0.28 7
  220.0590 2.33 54
  220.5276 0.10 2
  221.0527 6.19 144
  221.4361 0.17 4
  221.6305 0.10 2
  222.0812 2.05 48
  222.4244 0.13 3
  223.0858 4.87 113
  223.5833 0.18 4
  223.7253 0.10 2
  224.0871 1.64 38
  224.2741 0.26 6
  224.3733 0.09 2
  224.6444 0.12 3
  225.0850 2.95 69
  225.3744 0.07 2
  225.5257 0.14 3
  225.6166 0.10 2
  225.7548 0.12 3
  226.0925 1.62 38
  226.3034 0.14 3
  226.4776 0.10 2
  227.0516 1.48 34
  227.4025 0.07 2
  227.5967 0.10 2
  227.7458 0.35 8
  228.0654 1.15 27
  228.4317 0.18 4
  229.0628 2.28 53
  229.2044 0.98 23
  229.4225 0.09 2
  229.5502 0.06 1
  229.7263 0.07 2
  230.0569 1.65 38
  230.3164 0.31 7
  230.5215 0.11 3
  230.7114 0.17 4
  231.0759 3.74 87
  231.3723 0.13 3
  232.1168 1.89 44
  232.3650 0.29 7
  232.6378 0.23 5
  233.0930 4.70 109
  233.4303 0.23 5
  233.6434 0.08 2
  234.0927 1.72 40
  234.4830 0.06 1
  234.7284 0.23 5
  235.1150 4.33 101
  235.5131 0.11 3
  235.7326 0.11 3
  236.0817 0.91 21
  236.2782 0.44 10
  236.5138 0.16 4
  236.6796 0.12 3
  237.1410 3.88 90
  237.4888 0.15 3
  237.5963 0.08 2
  237.7107 0.22 5
  237.8823 0.21 5
  238.0500 0.35 8
  238.2185 0.55 13
  238.3180 0.15 3
  238.4528 0.19 4
  238.5409 0.13 3
  239.1124 2.33 54
  239.4181 0.15 3
  240.0234 0.50 12
  240.5140 0.32 7
  241.1073 1.27 29
  241.4478 0.14 3
  241.7530 0.38 9
  242.0943 0.88 20
  242.7441 0.07 2
  243.0955 2.28 53
  243.3649 0.12 3
  243.6181 0.06 1
  243.7210 0.11 3
  244.1116 1.56 36
  244.3949 0.05 1
  244.5608 0.05 1
  245.1044 3.40 79
  245.6520 0.13 3
  246.0591 1.55 36
  246.5147 0.36 8
  247.1080 3.36 78
  247.5899 0.29 7
  248.1026 1.31 30
  248.4625 0.14 3
  249.1069 2.58 60
  249.3738 0.22 5
  249.5600 0.13 3
  249.6800 0.19 4
  249.7961 0.26 6
  250.1093 1.13 26
  250.6687 0.05 1
  251.1127 2.07 48
  251.4576 0.08 2
  251.6462 0.12 3
  251.8109 0.18 4
  252.1535 1.21 28
  252.4569 0.23 5
  252.6410 0.13 3
  253.1054 1.74 40
  253.4775 0.26 6
  253.6986 0.17 4
  253.8966 0.34 8
  254.1146 0.47 11
  254.3034 0.22 5
  254.8421 0.31 7
  255.1150 1.34 31
  255.3901 0.07 2
  255.5806 0.11 3
  256.0856 0.75 17
  256.5197 0.10 2
  257.0866 1.72 40
  257.6482 0.12 3
  257.8272 0.22 5
  258.1188 0.84 20
  258.6737 0.26 6
  259.1113 2.56 59
  259.6440 0.06 1
  259.8478 0.28 7
  260.1358 0.66 15
  260.4493 0.16 4
  260.5891 0.10 2
  261.1228 3.11 72
  261.6102 0.15 3
  261.8497 0.22 5
  262.1448 0.86 20
  262.3542 0.22 5
  262.5397 0.08 2
  263.1201 2.51 58
  263.5314 0.06 1
  263.7494 0.13 3
  264.0927 0.63 15
  264.4112 0.08 2
  264.5643 0.09 2
  264.7012 0.10 2
  265.1490 1.71 40
  265.4452 0.11 3
  265.5782 0.09 2
  265.7236 0.13 3
  266.0840 0.34 8
  266.6016 0.09 2
  267.0906 0.92 21
  267.5728 0.06 1
  268.1053 0.76 18
  268.4010 0.12 3
  268.5233 0.31 7
  269.1566 1.79 42
  269.5043 0.11 3
  269.7955 0.11 3
  270.0790 0.72 17
  270.2687 0.41 10
  270.5259 0.17 4
  271.0930 1.53 36
  271.5153 0.03 1
  271.7711 0.08 2
  272.1322 0.56 13
  272.7802 0.09 2
  273.1632 1.80 42
  273.6245 0.19 4
  274.1006 0.69 16
  274.3077 0.17 4
  274.4512 0.12 3
  274.6630 0.17 4
  275.1144 1.96 46
  275.2455 0.70 16
  275.5078 0.14 3
  275.6381 0.15 3
  275.8453 0.26 6
  276.1494 0.74 17
  276.4141 0.11 3
  276.5204 0.11 3
  277.1351 1.17 27
  277.3874 0.14 3
  277.7554 0.06 1
  278.1296 0.60 14
  278.3028 0.43 10
  278.6165 0.12 3
  278.7182 0.10 2
  279.1687 1.28 30
  279.4949 0.10 2
  279.7357 0.11 3
  280.1529 0.52 12
  280.3386 0.34 8
  280.5290 0.10 2
  280.6844 0.31 7
  281.1328 0.95 22
  281.3255 0.17 4
  281.5237 0.20 5
  281.7133 0.11 3
  281.9108 0.30 7
  282.0903 0.48 11
  282.2264 0.31 7
  282.3772 0.10 2
  282.6096 0.17 4
  283.1391 0.99 23
  283.4844 0.05 1
  283.6127 0.10 2
  283.8692 0.12 3
  284.0911 0.78 18
  284.2991 0.22 5
  284.4132 0.05 1
  284.6088 0.12 3
  285.1552 1.07 25
  285.4099 0.16 4
  285.6645 0.07 2
  285.8889 0.10 2
  286.1692 0.91 21
  286.3322 0.34 8
  286.5318 0.09 2
  286.7563 0.08 2
  287.1438 1.08 25
  287.3908 0.21 5
  287.5648 0.13 3
  287.7971 0.12 3
  288.2151 0.40 9
  288.5142 0.10 2
  289.1366 1.26 29
  289.4156 0.19 4
  289.7179 0.13 3
  289.8470 0.09 2
  290.1416 0.46 11
  290.5077 0.14 3
  290.7059 0.24 6
  291.1133 0.68 16
  291.3264 0.19 4
  291.6966 0.54 13
  292.1484 0.36 8
  292.3079 0.13 3
  292.4268 0.07 2
  292.5754 0.03 1
  292.7668 0.21 5
  293.1339 0.94 22
  293.3432 0.13 3
  293.5121 0.01 0
  293.8210 0.05 1
  293.9447 0.10 2
  294.1859 0.33 8
  294.3797 0.22 5
  294.7190 0.12 3
  294.8886 0.13 3
  295.1603 0.56 13
  295.9169 0.11 3
  295.9964 0.07 2
  296.1941 0.45 10
  296.3109 0.28 7
  296.4362 0.11 3
  296.7789 0.04 1
  297.1526 0.90 21
  297.6815 0.04 1
  298.1707 0.61 14
  298.6396 0.11 3
  298.9248 0.27 6
  299.1725 1.33 31
  299.4476 0.12 3
  299.9073 0.23 5
  300.1326 0.28 7
  300.3267 0.11 3
  300.6369 0.01 0
  300.7819 0.13 3
  301.1494 0.80 19
  301.5622 0.11 3
  301.9688 0.22 5
  302.1526 0.60 14
  302.2897 0.09 2
  302.7104 0.11 3
  302.8342 0.10 2
  303.1669 0.81 19
  303.4669 0.12 3
  303.7373 0.11 3
  304.1706 0.30 7
  305.0521 0.56 13
  305.2742 0.22 5
  305.8636 0.08 2
  306.0562 0.15 3
  306.2207 0.12 3
  306.6597 0.15 3
  306.8172 0.08 2
  307.0644 0.42 10
  307.2485 0.28 7
  308.1143 0.50 12
  308.3459 0.13 3
  308.4801 0.12 3
  309.1089 0.43 10
  309.3064 0.30 7
  309.3953 0.17 4
  309.8190 0.08 2
  309.9540 0.08 2
  310.2475 0.24 6
  310.5417 0.04 1
  310.6760 0.15 3
  311.1404 0.65 15
  311.4363 0.08 2
  311.9297 0.28 7
  312.2076 0.60 14
  312.4708 0.17 4
  312.6059 0.16 4
  312.8441 0.12 3
  313.1861 1.22 28
  313.6094 0.08 2
  313.7563 0.06 1
  313.8633 0.12 3
  314.1179 0.31 7
  314.2804 0.20 5
  314.3952 0.16 4
  314.7218 0.08 2
  314.8163 0.08 2
  315.1507 1.11 26
  315.3820 0.31 7
  315.7860 0.04 1
  315.9423 0.14 3
  316.1236 0.37 9
  316.6105 0.10 2
  317.1670 0.80 19
  318.1661 0.58 13
  318.5093 0.08 2
  319.1505 0.64 15
  319.2765 0.30 7
  319.5025 0.12 3
  319.6769 0.01 0
  319.8943 0.25 6
  320.0828 0.21 5
  320.2393 0.56 13
  320.6546 0.01 0
  320.9261 0.13 3
  321.1107 0.51 12
  321.2562 0.28 7
  322.0301 0.15 3
  322.1803 0.15 3
  322.4487 0.09 2
  323.0138 0.42 10
  323.1922 0.38 9
  323.3104 0.26 6
  323.7464 0.20 5
  324.0142 0.22 5
  324.1903 0.31 7
  324.2811 0.17 4
  324.7728 0.04 1
  325.1776 0.37 9
  325.6271 0.08 2
  325.7453 0.06 1
  325.9074 0.13 3
  326.1283 0.17 4
  326.2364 0.10 2
  326.5191 0.13 3
  326.8434 0.07 2
  327.1411 0.51 12
  327.8312 0.11 3
  328.1149 0.33 8
  328.5521 0.09 2
  329.1304 0.58 13
  329.2550 0.45 10
  329.3867 0.16 4
  329.8311 0.13 3
  330.0772 0.22 5
  330.1853 0.14 3
  330.3460 0.10 2
  330.6667 0.12 3
  331.1080 0.39 9
  331.4130 0.15 3
  331.7878 0.11 3
  332.2191 0.21 5
  332.3782 0.27 6
  332.9946 0.23 5
  333.2080 0.53 12
  333.7641 0.13 3
  334.1461 0.36 8
  334.3250 0.11 3
  334.4316 0.12 3
  334.7070 0.13 3
  335.0005 0.43 10
  335.1825 0.21 5
  335.3457 0.10 2
  335.5520 0.09 2
  335.8432 0.13 3
  336.0896 0.49 11
  336.6978 0.12 3
  337.1695 0.37 9
  337.3917 0.23 5
  337.8187 0.17 4
  337.9977 0.11 3
  338.1790 0.19 4
  338.3329 0.31 7
  338.7286 0.11 3
  339.0223 0.09 2
  339.1730 0.09 2
  339.3340 0.13 3
  339.6858 0.11 3
  339.9662 0.10 2
  340.1452 0.24 6
  340.3871 0.08 2
  340.5262 0.07 2
  340.7233 0.11 3
  341.1773 0.70 16
  341.3572 0.24 6
  341.9535 0.11 3
  342.2057 0.34 8
  342.7753 0.01 0
  343.1934 0.43 10
  343.4818 0.08 2
  343.7128 0.11 3
  344.1930 0.10 2
  344.3266 0.27 6
  344.6709 0.10 2
  345.0223 0.31 7
  345.1858 0.24 6
  345.5663 0.11 3
  346.0584 0.11 3
  346.2652 0.30 7
  347.1267 0.49 11
  347.2908 0.64 15
  347.4077 0.07 2
  347.7469 0.13 3
  347.9133 0.08 2
  348.2053 0.31 7
  348.3246 0.16 4
  349.1475 0.47 11
  349.3642 0.23 5
  349.9579 0.10 2
  350.2069 0.05 1
  351.0198 0.34 8
  351.1753 0.58 13
  351.3646 0.35 8
  351.9687 0.05 1
  352.1871 0.23 5
  353.1048 0.21 5
  353.2596 0.72 17
  353.3406 0.26 6
  354.0219 0.17 4
  354.2530 0.20 5
  354.4172 0.09 2
  355.0224 0.20 5
  355.3416 0.25 6
  355.4406 0.21 5
  356.0703 0.12 3
  356.2126 0.23 5
  356.4791 0.06 1
  357.1695 0.18 4
  357.3425 0.11 3
  357.4392 0.10 2
  357.5886 0.12 3
  357.9778 0.10 2
  358.1721 0.21 5
  358.3310 0.06 1
  358.7793 0.12 3
  358.9326 0.15 3
  359.2134 0.23 5
  359.4832 0.12 3
  360.1850 0.25 6
  360.3187 0.19 4
  360.4839 0.03 1
  360.7365 0.14 3
  361.1637 0.27 6
  361.3329 0.12 3
  361.6964 0.05 1
  361.8058 0.02 0
  362.1245 0.10 2
  362.3079 0.13 3
  362.7974 0.20 5
  363.1327 0.21 5
  363.2665 0.27 6
  363.5609 0.07 2
  363.7341 0.14 3
  364.2104 0.29 7
  364.2906 0.11 3
  364.4922 0.04 1
  364.7410 0.13 3
  365.2401 1.78 41
  365.7165 0.10 2
  365.8220 0.10 2
  365.9205 0.13 3
  366.1354 0.17 4
  366.3221 0.23 5
  366.7718 0.03 1
  366.9781 0.21 5
  367.2545 0.53 12
  367.4215 0.23 5
  367.7303 0.15 3
  368.0651 0.32 7
  368.2368 0.23 5
  368.9939 0.13 3
  369.2988 0.20 5
  370.0284 0.13 3
  370.1765 0.22 5
  370.3357 0.28 7
  371.0969 0.23 5
  371.1765 0.12 3
  371.3365 0.13 3
  371.4871 0.04 1
  371.6108 0.11 3
  371.7566 0.06 1
  372.2492 0.12 3
  372.9997 0.11 3
  373.2535 0.11 3
  373.3678 0.19 4
  374.2548 0.24 6
  375.1284 0.13 3
  375.3835 0.35 8
  376.1190 0.36 8
  376.3111 0.25 6
  377.2570 0.27 6
  377.3554 0.08 2
  377.5373 0.01 0
  377.8390 0.15 3
  378.0454 0.15 3
  378.2620 0.21 5
  378.4652 0.10 2
  379.1923 0.32 7
  380.0803 0.15 3
  380.2883 0.22 5
  380.8682 0.11 3
  381.1582 0.24 6
  381.3663 0.22 5
  381.4853 0.14 3
  381.6050 0.03 1
  382.1607 0.06 1
  382.3435 0.12 3
  382.4996 0.12 3
  383.1751 0.30 7
  383.3328 0.25 6
  383.5574 0.13 3
  383.7230 0.12 3
  383.8231 0.11 3
  384.2000 0.36 8
  385.2312 0.22 5
  385.3401 0.14 3
  386.0892 0.11 3
  387.1357 0.19 4
  387.2880 0.10 2
  387.9277 0.11 3
  388.1375 0.27 6
  388.5714 0.10 2
  389.3106 0.28 7
  389.4613 0.11 3
  390.0972 0.10 2
  390.2847 0.10 2
  390.3935 0.11 3
  390.9822 0.12 3
  391.1777 0.25 6
  391.3597 0.24 6
  391.7389 0.09 2
  392.2260 0.33 8
  392.4483 0.17 4
  392.7447 0.12 3
  392.9142 0.13 3
  393.1208 0.19 4
  393.3746 0.12 3
  394.0196 0.05 1
  394.3034 0.14 3
  394.9256 0.11 3
  395.2434 0.23 5
  395.8096 0.10 2
  396.2442 0.08 2
  396.3791 0.24 6
  396.9651 0.18 4
  397.1813 0.19 4
  397.3848 0.14 3
  397.8155 0.01 0
  398.0356 0.12 3
  398.3733 0.11 3
  398.4868 0.08 2
  399.0384 0.15 3
  399.2048 0.11 3
  399.3658 0.10 2
  399.7130 0.05 1
  400.1225 0.10 2
  400.2717 0.06 1
  400.4271 0.11 3
  401.1106 0.34 8
  401.2163 0.27 6
  401.4002 0.19 4
  402.1335 0.16 4
  402.2432 0.09 2
  402.3584 0.13 3
  402.4926 0.10 2
  403.0791 0.08 2
  403.4036 0.14 3
  404.0620 0.09 2
  404.1907 0.12 3
  404.3107 0.14 3
  404.8263 0.11 3
  405.0119 0.33 8
  405.2748 0.27 6
  405.4391 0.12 3
  406.2145 0.11 3
  406.3962 0.13 3
  407.2515 0.38 9
  407.3937 0.23 5
  407.6630 0.10 2
  408.4735 0.05 1
  409.0999 0.22 5
  409.6506 0.17 4
  410.1096 0.15 3
  410.3862 0.29 7
  411.2428 0.14 3
  411.3684 0.15 3
  411.5446 0.13 3
  411.8410 0.01 0
  412.1247 0.13 3
  412.2346 0.13 3
  412.5246 0.16 4
  413.3513 0.12 3
  414.1094 0.15 3
  414.3276 0.10 2
  414.4699 0.12 3
  415.1292 0.29 7
  415.2557 0.13 3
  415.7862 0.04 1
  416.0851 0.12 3
  416.5785 0.19 4
  417.1328 0.23 5
  417.3764 0.31 7
  417.6611 0.11 3
  417.8952 0.16 4
  418.1135 0.25 6
  418.2906 0.30 7
  418.4361 0.06 1
  419.1060 0.12 3
  419.2840 0.16 4
  420.0758 0.23 5
  420.1850 0.12 3
  420.4113 0.14 3
  420.8163 0.10 2
  420.9753 0.08 2
  421.2617 0.33 8
  421.5323 0.10 2
  421.7135 0.10 2
  422.1028 0.15 3
  422.2025 0.11 3
  422.3125 0.12 3
  422.9724 0.02 0
  423.3055 0.10 2
  424.1554 0.13 3
  424.7107 0.11 3
  424.9057 0.11 3
  425.3710 0.11 3
  425.4847 0.10 2
  426.1996 0.15 3
  427.1736 0.13 3
  427.3229 0.13 3
  427.4976 0.27 6
  427.8412 0.10 2
  428.0901 0.26 6
  428.7681 0.20 5
  429.2058 0.26 6
  429.5796 0.07 2
  430.2829 0.22 5
  430.5477 0.09 2
  431.5530 0.10 2
  432.2431 0.15 3
  432.9530 0.12 3
  433.3206 0.21 5
  433.4581 0.10 2
  433.8906 0.11 3
  434.1223 0.14 3
  434.3057 0.30 7
  434.5152 0.13 3
  434.9058 0.01 0
  435.7653 0.12 3
  436.0492 0.15 3
  436.5166 0.03 1
  437.3525 0.23 5
  438.2938 0.11 3
  438.5358 0.13 3
  439.3561 0.23 5
  439.6844 0.11 3
  440.1251 0.16 4
  440.4146 0.09 2
  441.1402 0.21 5
  441.3245 0.21 5
  441.4360 0.14 3
  441.9048 0.04 1
  442.4297 0.11 3
  442.6123 0.09 2
  443.1854 0.27 6
  443.3767 0.16 4
  443.5341 0.13 3
  444.0535 0.13 3
  444.1982 0.28 7
  444.3152 0.35 8
  444.4615 0.34 8
  445.1059 0.52 12
  445.2878 0.30 7
  445.5511 0.11 3
  446.1362 0.10 2
  447.1952 0.10 2
  447.4443 0.10 2
  449.3624 0.17 4
  450.2184 0.26 6
  451.1559 0.19 4
  451.2983 0.08 2
  452.8547 0.09 2
  452.9679 0.12 3
  453.5923 0.11 3
  454.1993 0.22 5
  455.1609 0.12 3
  455.3762 0.06 1
  455.6287 0.10 2
  456.1947 0.37 9
  456.2976 0.26 6
  456.8493 0.13 3
  457.2943 0.49 11
  457.5444 0.12 3
  457.7534 0.09 2
  458.0519 0.10 2
  458.3448 0.14 3
  459.0606 0.09 2
  459.1714 0.11 3
  459.3163 0.16 4
  460.1842 0.35 8
  460.3711 0.14 3
  460.5952 0.11 3
  460.7845 0.14 3
  461.0070 0.12 3
  461.1456 0.27 6
  461.2984 0.28 7
  461.4117 0.06 1
  461.9368 0.15 3
  462.1657 0.15 3
  463.2199 0.15 3
  463.3570 0.18 4
  463.5787 0.10 2
  464.2164 0.19 4
  464.6173 0.08 2
  464.9635 0.10 2
  465.1568 0.12 3
  465.2558 0.08 2
  465.3739 0.14 3
  466.0948 0.06 1
  466.2517 0.17 4
  466.8856 0.07 2
  467.2762 0.13 3
  467.8222 0.05 1
  468.1867 0.19 4
  469.4135 0.18 4
  470.2933 0.10 2
  470.4566 0.16 4
  470.8577 0.10 2
  471.0154 0.16 4
  471.1977 0.09 2
  471.4466 0.03 1
  471.6044 0.14 3
  471.9349 0.05 1
  472.0903 0.17 4
  472.2417 0.21 5
  473.1161 0.29 7
  473.3294 0.13 3
  473.9042 0.13 3
  474.2103 0.37 9
  474.4616 0.12 3
  474.9699 0.15 3
  475.0627 0.14 3
  475.3711 0.11 3
  476.0103 0.13 3
  476.1792 0.05 1
  476.4662 0.10 2
  477.0928 0.16 4
  477.2990 0.13 3
  477.5750 0.15 3
  477.7360 0.01 0
  478.3228 0.11 3
  478.5326 0.12 3
  479.0962 0.12 3
  479.2030 0.13 3
  479.5339 0.12 3
  480.1071 0.12 3
  480.3747 0.27 6
  481.0247 0.12 3
  481.2899 0.27 6
  481.4594 0.12 3
  482.0722 0.10 2
  482.3383 0.24 6
  482.6701 0.14 3
  482.9655 0.06 1
  483.2743 0.43 10
  483.5554 0.11 3
  483.9260 0.11 3
  484.1700 0.11 3
  484.3014 0.08 2
  484.5097 0.15 3
  484.8788 0.12 3
  485.3041 0.18 4
  486.0906 0.12 3
  486.3607 0.15 3
  486.5255 0.12 3
  486.6086 0.06 1
  487.1021 0.30 7
  487.2518 0.17 4
  487.4586 0.08 2
  487.9331 0.16 4
  488.1700 0.12 3
  488.3720 0.50 12
  489.1825 0.83 19
  489.7133 0.13 3
  490.0350 0.10 2
  490.2497 0.18 4
  491.2584 0.27 6
  491.3797 0.18 4
  491.5936 0.10 2
  492.2268 0.11 3
  493.2095 0.03 1
  493.3712 0.14 3
  494.3500 0.31 7
  494.6147 0.17 4
  495.1664 0.13 3
  495.4415 0.10 2
  495.6008 0.13 3
  495.9266 0.05 1
  496.7225 0.06 1
  496.9413 0.12 3
  497.0991 0.17 4
  497.3210 0.18 4
  497.5851 0.12 3
  498.2526 0.10 2
  498.3834 0.19 4
  498.4960 0.17 4
  499.1533 0.21 5
  499.3531 0.23 5
  499.5847 0.20 5
  499.7123 0.04 1
  500.0517 0.15 3
  500.2563 0.22 5
  500.3935 0.24 6
  501.2222 0.28 7
  501.5069 0.11 3
  501.9518 0.03 1
  502.2817 0.17 4
  503.0812 0.15 3
  503.2501 0.12 3
  503.4920 0.09 2
  504.2678 0.12 3
  504.4375 0.15 3
  504.8579 0.12 3
  505.2070 0.12 3
  505.4267 0.10 2
  505.6829 0.16 4
  506.0820 0.17 4
  506.2502 0.12 3
  506.4564 0.24 6
  507.1998 0.11 3
  507.4282 0.12 3
  507.6722 0.04 1
  508.0580 0.21 5
  508.2948 0.11 3
  508.5728 0.12 3
  508.6703 0.10 2
  509.1638 0.10 2
  509.3659 0.24 6
  509.5410 0.11 3
  509.7240 0.13 3
  509.8262 0.19 4
  509.9315 0.05 1
  510.1549 0.14 3
  510.2706 0.13 3
  510.6866 0.28 7
  510.8894 0.12 3
  511.0138 0.16 4
  511.1707 0.12 3
  511.3434 0.19 4
  512.0542 0.11 3
  512.4298 0.20 5
  512.6469 0.12 3
  513.0162 0.12 3
  513.4196 0.18 4
  513.6842 0.28 7
  514.0567 0.27 6
  514.4680 0.76 18
  514.6534 0.50 12
  514.8096 0.64 15
  515.1195 0.52 12
  515.4191 0.69 16
  515.5641 0.34 8
  515.7773 0.42 10
  516.0436 0.39 9
  516.1927 0.13 3
  516.4518 0.13 3
  516.6619 0.03 1
  516.8117 0.10 2
  516.9885 0.29 7
  517.3705 0.30 7
  517.6417 0.28 7
  517.8795 0.13 3
  518.1736 0.24 6
  518.4153 0.08 2
  518.6326 0.04 1
  519.2953 0.10 2
  519.4135 0.19 4
  519.7821 0.13 3
  520.2412 0.09 2
  520.6812 0.10 2
  521.2148 0.04 1
  521.4202 0.10 2
  521.5740 0.07 2
  521.7834 0.22 5
  522.0070 0.12 3
  522.2449 0.11 3
  522.5208 0.19 4
  522.7175 0.09 2
  522.9070 0.14 3
  523.1179 0.17 4
  523.4169 0.23 5
  523.6445 0.07 2
  524.1433 0.20 5
  524.3480 0.24 6
  524.5486 0.24 6
  524.9269 0.13 3
  525.2465 0.23 5
  525.4750 0.11 3
  525.6597 0.26 6
  525.9334 0.19 4
  526.1396 0.17 4
  526.2634 0.09 2
  526.5441 0.24 6
  526.6251 0.13 3
  526.7972 0.08 2
  526.9947 0.21 5
  527.1319 0.26 6
  527.3326 0.24 6
  527.6864 0.14 3
  527.8498 0.11 3
  528.1005 0.12 3
  528.2647 0.17 4
  528.5479 0.22 5
  528.9572 0.10 2
  529.0746 0.15 3
  529.2191 0.21 5
  529.4547 0.18 4
  529.7585 0.25 6
  529.8815 0.14 3
  530.1846 0.12 3
  530.2925 0.07 2
  530.4122 0.18 4
  530.6138 0.21 5
  530.9264 0.12 3
  531.1478 0.27 6
  531.3374 0.19 4
  531.5040 0.41 10
  531.6818 0.23 5
  531.9698 0.11 3
  532.2538 0.28 7
  532.3760 0.26 6
  532.6419 0.19 4
  532.8506 0.15 3
  533.1862 0.16 4
  533.7814 0.14 3
  533.9489 0.08 2
  534.1719 0.11 3
  534.3655 0.17 4
  534.5187 0.16 4
  534.7560 0.02 0
  535.0496 0.15 3
  535.2392 0.11 3
  535.3738 0.31 7
  535.6154 0.29 7
  535.8141 0.09 2
  536.1127 0.13 3
  536.2632 0.15 3
  536.4120 0.32 7
  536.5253 0.12 3
  537.0211 0.09 2
  537.1573 0.19 4
  537.3893 0.15 3
  537.7220 0.14 3
  538.1180 0.16 4
  538.4111 0.25 6
  538.9149 0.16 4
  539.1367 0.23 5
  539.3854 0.09 2
  539.5461 0.13 3
  539.6381 0.12 3
  540.2227 0.31 7
  540.3193 0.25 6
  540.5316 0.17 4
  540.6591 0.09 2
  540.7938 0.19 4
  541.1424 0.33 8
  541.3412 0.47 11
  541.5298 0.15 3
  541.7191 0.12 3
  542.2737 0.91 21
  542.4377 0.48 11
  542.7023 0.20 5
  542.8005 0.09 2
  543.0850 0.28 7
  543.3623 0.64 15
  543.5825 0.39 9
  543.7838 0.11 3
  544.0778 0.23 5
  544.3321 0.31 7
  544.4628 0.13 3
  544.7426 0.15 3
  544.9383 0.19 4
  545.2330 0.15 3
  545.4819 0.24 6
  545.7568 0.18 4
  545.8749 0.11 3
  546.0912 0.27 6
  546.2069 0.07 2
  546.4581 0.28 7
  546.6412 0.17 4
  546.7648 0.23 5
  546.9154 0.24 6
  547.1246 0.16 4
  547.3013 0.37 9
  547.5447 0.30 7
  547.7103 0.10 2
  547.8751 0.07 2
  548.0360 0.14 3
  548.2373 0.29 7
  548.4299 0.17 4
  548.6051 0.12 3
  549.0505 0.31 7
  549.1749 0.18 4
  549.3707 0.49 11
  550.3329 2.27 53
  550.6191 0.98 23
  550.7888 0.22 5
  551.0242 0.08 2
  551.2311 0.19 4
  551.9406 0.08 2
  552.0571 0.19 4
  552.4265 0.22 5
  552.6556 0.12 3
  552.8007 0.13 3
  553.2581 0.33 8
  553.6046 0.21 5
  554.4505 0.12 3
  554.5591 0.09 2
  554.6630 0.12 3
  554.7803 0.12 3
  555.3591 0.16 4
  555.6692 0.19 4
  555.9158 0.14 3
  556.2123 0.25 6
  556.3947 0.28 7
  556.6960 0.26 6
  556.9680 0.14 3
  557.6952 0.11 3
  558.3304 0.13 3
  558.4945 0.09 2
  559.1377 0.03 1
  559.6960 0.09 2
  560.0220 0.11 3
  560.3384 0.15 3
  560.5510 0.14 3
  560.7318 0.11 3
  561.1483 0.11 3
  561.3774 0.16 4
  561.5599 0.13 3
  561.6646 0.10 2
  562.2920 0.27 6
  562.4134 0.13 3
  562.5450 0.10 2
  562.8156 0.10 2
  563.0202 0.21 5
  563.2487 0.29 7
  563.3851 0.26 6
  563.6096 0.47 11
  563.8611 0.11 3
  564.3299 0.85 20
  564.6409 0.30 7
  564.7837 0.31 7
  564.9265 0.18 4
  565.3311 0.95 22
  565.5326 0.81 19
  565.6945 0.42 10
  566.0768 0.23 5
  566.3228 0.20 5
  566.9242 0.06 1
  567.3860 0.54 13
  567.5891 0.24 6
  567.7264 0.15 3
  567.9478 0.26 6
  568.3000 0.33 8
  568.6055 0.32 7
  568.8348 0.12 3
  569.3292 0.23 5
  569.6974 0.13 3
  570.1077 0.12 3
  570.2918 0.23 5
  570.4235 0.13 3
  570.5298 0.10 2
  570.6894 0.09 2
  571.1393 0.08 2
  571.3973 0.14 3
  571.5632 0.19 4
  572.0750 0.18 4
  572.4171 0.10 2
  572.5647 0.16 4
  572.8751 0.07 2
  573.0417 0.11 3
  573.3473 0.17 4
  573.4632 0.17 4
  573.9227 0.10 2
  574.0974 0.15 3
  574.5054 0.14 3
  574.9252 0.11 3
  575.5809 0.13 3
  576.3422 0.13 3
  576.4819 0.11 3
  576.9725 0.29 7
  577.3266 0.12 3
  577.7934 0.09 2
  578.2173 0.15 3
  578.4373 0.20 5
  578.9716 0.14 3
  579.2812 0.12 3
  579.8497 0.12 3
  579.9926 0.01 0
  580.2523 0.09 2
  580.4603 0.48 11
  580.7001 0.17 4
  580.9756 0.08 2
  581.1606 0.16 4
  581.4462 0.70 16
  581.6371 0.49 11
  581.8954 0.12 3
  582.4214 2.65 62
  582.7907 0.31 7
  583.4365 4.27 99
  583.8532 0.26 6
  584.1052 0.10 2
  584.3801 0.13 3
  584.5148 0.27 6
  584.6757 0.19 4
  585.3041 0.14 3
  585.6139 0.28 7
  586.1710 0.26 6
  586.7748 0.11 3
  587.3415 0.16 4
  587.4509 0.16 4
  587.6609 0.09 2
  587.9319 0.08 2
  588.0595 0.14 3
  588.2735 0.21 5
  589.9332 0.12 3
  590.6996 0.12 3
  590.8122 0.17 4
  591.0904 0.13 3
  591.2529 0.19 4
  591.3647 0.21 5
  591.6271 0.14 3
  592.1217 0.24 6
  592.2667 0.17 4
  592.5275 0.01 0
  592.7725 0.18 4
  593.0539 0.21 5
  593.6088 0.22 5
  594.1424 0.39 9
  594.5641 0.28 7
  594.7941 0.17 4
  594.9233 0.14 3
  595.2983 0.24 6
  595.6210 0.19 4
  595.7891 0.27 6
  596.1934 0.39 9
  596.4313 0.18 4
  596.5605 0.14 3
  596.7698 0.39 9
  597.1734 0.20 5
  597.4152 0.56 13
  597.5801 0.51 12
  597.7927 0.22 5
  598.0591 0.25 6
  598.4302 1.82 42
  598.7180 1.12 26
  599.3294 3.34 78
  599.5895 1.61 37
  599.8448 0.40 9
  600.1422 0.97 23
  600.3841 1.00 23
  600.6418 0.68 16
  600.8885 0.34 8
  601.1866 0.26 6
  601.4991 0.46 11
  601.7267 0.32 7
  601.8592 0.27 6
  601.9710 0.33 8
  602.2026 0.32 7
  602.5325 0.20 5
  602.8474 0.26 6
  603.2376 0.12 3
  603.3399 0.15 3
  603.5144 0.20 5
  603.7603 0.22 5
  603.9261 0.20 5
  604.0911 0.09 2
  604.2346 0.22 5
  604.3829 0.14 3
  604.8088 0.33 8
  604.9088 0.14 3
  605.4514 0.13 3
  605.6219 0.09 2
  605.9551 0.25 6
  606.4706 1.64 38
  606.7336 0.83 19
  606.9745 0.18 4
  607.1616 0.17 4
  607.3699 0.15 3
  607.6378 0.20 5
  607.8406 0.11 3
  607.9682 0.19 4
  608.0895 0.19 4
  608.3232 0.45 10
  608.5729 0.16 4
  608.7306 0.33 8
  609.1339 0.49 11
  609.4010 0.62 14
  609.6268 0.38 9
  609.7441 0.26 6
  610.3345 0.22 5
  610.4305 0.21 5
  610.7039 0.32 7
  611.0074 0.33 8
  611.3213 0.44 10
  611.6232 0.33 8
  611.7667 0.18 4
  612.0995 0.38 9
  612.4903 0.68 16
  612.9849 0.54 13
  613.2679 0.63 15
  613.6341 0.49 11
  613.9369 0.59 14
  614.3491 1.10 26
  615.0815 0.85 20
  615.2868 0.72 17
  615.4548 0.48 11
  615.7355 0.65 15
  616.0114 0.86 20
  616.2571 0.91 21
  616.8969 1.08 25
  617.3638 0.65 15
  617.5969 0.86 20
  618.0210 1.02 24
  618.4023 0.89 21
  618.6497 0.77 18
  619.1199 1.51 35
  619.7073 1.51 35
  619.9952 0.89 21
  620.4035 1.73 40
  620.6239 1.35 31
  620.9553 1.77 41
  621.7396 2.13 49
  622.6919 1.98 46
  624.4991 38.21 887
  625.5079 2.67 62
  625.8156 1.49 35
  626.5770 1.20 28
  627.4193 3.97 92
  627.8745 1.20 28
  628.2029 0.81 19
  628.7843 0.97 23
  628.9620 0.72 17
  629.1135 0.35 8
  629.3276 0.66 15
  629.4625 0.38 9
  630.1248 0.86 20
  630.5143 0.62 14
  630.9343 0.87 20
  631.2742 0.74 17
  631.5903 0.90 21
  631.9690 0.62 14
  632.4079 0.78 18
  632.6606 0.75 17
  633.0148 0.96 22
  633.6574 1.40 33
  634.1788 1.02 24
  634.8546 1.49 35
  635.3578 1.45 34
  636.2571 1.69 39
  636.9680 1.73 40
  642.4491 99.96 999
  643.3836 21.36 496
  643.9567 12.18 283
  644.6027 6.16 143
  645.7402 3.73 87
  646.3126 2.26 52
//
