ACCESSION: MSBNK-Kyoto_Univ-CA000154
RECORD_TITLE: Lycopene; FAB-EBEB; MS2; m/z: 536.44; [M]*+
DATE: 2016.01.19 (Created 2007.03.15, modified 2011.05.10)
AUTHORS: Akimoto N, Graduate School of Pharmaceutical Sciences, Kyoto University and Maoka T, Research Institute for Production Development
LICENSE: CC BY-SA
COMMENT: Profile spectrum of this record is given as a JPEG file.
COMMENT: [Profile] CA000154.jpg
CH$NAME: Lycopene
CH$COMPOUND_CLASS: Natural Product; Carotenoid
CH$FORMULA: C40H56
CH$EXACT_MASS: 536.43820
CH$SMILES: C(CC(C)=CC=CC(=CC=CC(=CC=CC=C(C=CC=C(C)C=CC=C(CCC=C(C)C)C)C)C)C)C=C(C)C
CH$IUPAC: InChI=1S/C40H56/c1-33(2)19-13-23-37(7)27-17-31-39(9)29-15-25-35(5)21-11-12-22-36(6)26-16-30-40(10)32-18-28-38(8)24-14-20-34(3)4/h11-12,15-22,25-32H,13-14,23-24H2,1-10H3/b12-11+,25-15+,26-16+,31-17+,32-18+,35-21+,36-22+,37-27+,38-28+,39-29+,40-30+
CH$LINK: CHEBI CHEBI:15948
CH$LINK: CHEMSPIDER 394156
CH$LINK: KEGG C05432
CH$LINK: PUBCHEM CID:446925
CH$LINK: INCHIKEY OAIJSZIZWZSQBC-GYZMGTAESA-N
CH$LINK: COMPTOX DTXSID2046593
AC$INSTRUMENT: JMS-HX/HX 110A, JEOL
AC$INSTRUMENT_TYPE: FAB-EBEB
AC$MASS_SPECTROMETRY: MS_TYPE MS2
AC$MASS_SPECTROMETRY: ION_MODE POSITIVE
AC$MASS_SPECTROMETRY: ATOM_GUN_CURRENT 5 mA
AC$MASS_SPECTROMETRY: BOMBARDMENT 6 kV xenon
AC$MASS_SPECTROMETRY: COLLISION_ENERGY 3 kV
AC$MASS_SPECTROMETRY: COLLISION_GAS Ar
AC$MASS_SPECTROMETRY: GAS_PRESSURE adjust to attenuate the intensity of the precursor ion by 30 %
AC$MASS_SPECTROMETRY: IONIZATION FAB
AC$MASS_SPECTROMETRY: MATRIX 1-2 uL m-NBA
AC$MASS_SPECTROMETRY: PROBE_TIP stainless-steel
MS$FOCUSED_ION: BASE_PEAK 536.4565
MS$FOCUSED_ION: PRECURSOR_M/Z 536.44
MS$FOCUSED_ION: PRECURSOR_TYPE [M]+*
PK$SPLASH: splash10-000i-4921150000-cfeead82f9c659ee732d
PK$NUM_PEAK: 1284
PK$PEAK: m/z int. rel.int.
  0.7215 0.10 1
  7.7625 0.03 0
  8.6841 0.01 0
  10.1869 0.01 0
  12.3047 0.03 0
  14.9864 0.02 0
  17.9638 0.04 0
  18.9075 0.01 0
  20.1606 0.12 1
  22.5462 0.01 0
  22.9267 0.15 1
  23.2218 0.01 0
  23.7092 0.01 0
  25.0949 0.01 0
  25.5834 0.05 0
  25.9331 0.16 2
  26.9626 0.73 7
  27.9589 0.32 3
  28.9680 0.82 8
  29.8679 0.01 0
  29.9776 0.08 1
  30.1755 0.09 1
  30.9457 0.14 1
  31.6365 0.12 1
  31.9649 0.05 0
  37.9456 0.29 3
  38.9535 1.73 17
  39.1106 0.02 0
  39.9761 0.29 3
  40.7791 0.10 1
  40.9682 8.43 84
  41.1950 0.05 0
  41.9022 0.05 0
  41.9806 0.20 2
  42.3707 0.11 1
  42.9817 1.65 16
  43.5056 0.03 0
  43.9791 0.22 2
  44.9617 0.02 0
  48.8686 0.02 0
  48.9576 0.01 0
  49.9355 0.39 4
  50.9393 1.11 11
  51.2416 0.04 0
  51.9682 0.54 5
  52.3213 0.05 0
  52.9561 2.44 24
  53.9659 0.21 2
  54.4676 0.04 0
  54.9773 6.88 69
  55.9867 0.12 1
  56.9974 1.00 10
  58.0165 0.15 1
  59.9624 0.06 1
  60.8649 0.05 0
  60.9713 0.06 1
  61.9511 0.46 5
  62.9364 1.19 12
  63.4799 0.09 1
  63.9558 0.08 1
  64.9608 1.89 19
  65.3625 0.02 0
  65.9446 0.14 1
  66.5333 0.02 0
  66.9646 2.91 29
  67.1945 0.08 1
  67.9928 0.26 3
  68.4124 0.07 1
  68.7402 0.04 0
  68.9827 30.12 301
  69.2595 0.03 0
  69.9081 0.14 1
  70.0269 0.25 2
  70.9788 0.38 4
  72.0045 0.06 1
  72.9419 0.08 1
  73.0199 0.10 1
  73.9396 0.32 3
  74.9541 0.24 2
  75.1534 0.06 1
  75.3576 0.11 1
  75.4730 0.03 0
  75.7341 0.07 1
  75.9746 0.46 5
  76.2184 0.05 0
  76.7558 0.06 1
  76.9572 5.08 51
  77.2339 0.09 1
  77.9472 1.38 14
  78.2988 0.12 1
  78.3803 0.05 0
  78.5066 0.10 1
  78.9643 5.86 59
  79.9654 0.75 7
  80.1158 0.02 0
  80.9760 6.67 67
  81.1921 0.05 0
  81.9927 0.30 3
  83.0020 0.88 9
  83.9976 0.15 1
  84.9669 0.33 3
  85.7476 0.04 0
  85.8810 0.08 1
  86.0262 0.10 1
  86.7846 0.13 1
  86.9347 0.10 1
  87.0152 0.15 1
  87.8934 0.13 1
  87.9592 0.08 1
  88.1950 0.07 1
  88.6482 0.08 1
  88.7398 0.05 0
  88.9629 0.77 8
  89.1167 0.13 1
  89.3206 0.01 0
  89.6443 0.02 0
  89.9518 0.14 1
  90.4690 0.02 0
  90.6821 0.19 2
  90.9645 10.47 105
  91.2368 0.01 0
  91.9819 0.93 9
  92.3586 0.06 1
  92.4194 0.02 0
  92.5198 0.09 1
  92.6925 0.12 1
  92.9885 7.81 78
  93.1992 0.05 0
  93.9985 0.59 6
  94.3983 0.10 1
  95.0031 4.19 42
  95.5860 0.11 1
  96.0155 0.23 2
  97.0230 0.39 4
  97.9740 0.05 0
  98.9628 0.16 2
  99.0546 0.03 0
  99.9808 0.02 0
  100.6906 0.08 1
  100.8666 0.09 1
  100.9884 0.34 3
  101.3973 0.08 1
  101.7807 0.06 1
  101.9828 0.46 5
  102.1183 0.13 1
  102.9777 1.70 17
  103.9867 0.76 8
  104.3344 0.11 1
  104.4212 0.05 0
  104.9928 15.93 159
  105.3278 0.08 1
  105.7200 0.06 1
  105.9864 0.78 8
  106.6751 0.09 1
  106.9965 7.92 79
  107.2188 0.03 0
  107.4493 0.09 1
  107.9100 0.16 2
  108.0131 0.09 1
  108.2522 0.14 1
  109.0130 2.10 21
  109.2507 0.13 1
  109.8634 0.12 1
  110.0122 0.12 1
  110.3046 0.05 0
  110.9863 0.14 1
  111.9744 0.34 3
  112.3720 0.01 0
  113.0037 0.15 1
  113.1781 0.12 1
  113.4387 0.14 1
  113.7992 0.21 2
  113.9323 0.21 2
  114.0904 0.15 1
  114.3727 0.11 1
  114.4501 0.12 1
  114.9485 4.75 47
  115.3086 0.23 2
  115.4944 0.05 0
  115.7220 0.02 0
  115.9573 1.80 18
  116.0968 0.12 1
  116.2231 0.05 0
  116.3740 0.05 0
  116.9610 4.67 47
  117.6733 0.11 1
  117.9601 0.72 7
  118.1322 0.12 1
  118.9713 12.55 125
  119.3179 0.14 1
  119.9678 1.15 11
  120.4156 0.14 1
  120.9866 3.39 34
  121.9341 0.05 0
  122.0573 0.10 1
  122.9610 1.49 15
  123.9946 0.10 1
  124.8348 0.06 1
  124.9964 0.22 2
  125.1007 0.12 1
  125.4175 0.06 1
  125.6209 0.01 0
  125.7784 0.13 1
  125.9408 0.51 5
  126.1981 0.10 1
  126.2791 0.13 1
  126.9281 2.13 21
  127.1512 0.10 1
  127.4047 0.30 3
  127.9390 4.79 48
  128.2417 0.18 2
  128.3204 0.12 1
  128.5566 0.25 2
  128.9401 6.52 65
  129.2280 0.05 0
  129.3511 0.06 1
  129.9407 2.98 30
  130.5318 0.12 1
  130.9502 7.52 75
  131.2649 0.07 1
  131.4491 0.11 1
  131.9524 1.90 19
  132.4975 0.20 2
  132.6295 0.12 1
  132.9606 8.74 87
  133.4460 0.04 0
  133.5466 0.06 1
  133.7449 0.14 1
  133.9908 0.69 7
  134.7582 0.12 1
  134.9806 1.07 11
  135.3166 0.14 1
  135.8956 0.13 1
  135.9763 0.08 1
  136.0748 0.12 1
  136.3194 0.04 0
  136.5838 0.05 0
  136.8060 0.21 2
  136.9455 0.59 6
  137.0478 0.28 3
  137.6915 0.01 0
  137.9396 0.30 3
  138.2921 0.12 1
  138.9249 0.91 9
  139.9266 0.35 3
  140.5322 0.12 1
  140.9440 5.27 53
  141.2913 0.10 1
  141.6050 0.07 1
  141.9569 4.64 46
  142.4535 0.16 2
  142.9578 7.91 79
  143.3126 0.07 1
  143.4624 0.07 1
  143.6300 0.07 1
  143.9850 2.62 26
  144.3655 0.07 1
  144.5382 0.09 1
  144.9774 10.09 101
  145.3329 0.11 1
  145.5157 0.15 1
  145.9961 0.54 5
  146.9984 1.37 14
  147.4090 0.20 2
  148.0400 0.16 2
  148.8156 0.20 2
  149.0039 0.18 2
  149.6432 0.09 1
  149.7225 0.12 1
  149.9140 0.35 3
  150.2841 0.11 1
  150.4510 0.11 1
  150.8169 0.16 2
  150.9993 0.44 4
  151.1618 0.06 1
  151.3437 0.07 1
  151.9706 1.73 17
  152.3371 0.13 1
  152.4315 0.18 2
  152.4979 0.09 1
  152.9714 2.69 27
  153.6192 0.09 1
  153.9606 1.36 14
  154.3301 0.11 1
  154.4900 0.06 1
  154.5765 0.14 1
  154.9929 5.54 55
  155.3085 0.13 1
  155.4194 0.08 1
  155.5140 0.26 3
  155.5987 0.17 2
  155.7034 0.12 1
  156.0117 3.58 36
  156.2809 0.10 1
  156.6006 0.12 1
  157.0102 7.09 71
  157.2116 0.26 3
  157.2753 0.12 1
  157.4674 0.11 1
  157.6832 0.11 1
  157.7787 0.10 1
  158.0332 1.46 15
  158.5557 0.12 1
  159.0464 4.14 41
  159.2588 0.12 1
  159.4137 0.11 1
  160.0223 0.29 3
  160.2080 0.12 1
  160.4424 0.11 1
  161.0490 0.59 6
  161.1579 0.19 2
  161.4538 0.06 1
  161.6283 0.11 1
  161.9995 0.20 2
  162.1172 0.05 0
  162.6431 0.07 1
  162.8335 0.12 1
  163.0277 0.42 4
  163.1292 0.26 3
  163.5722 0.09 1
  163.8749 0.14 1
  164.1752 0.09 1
  164.2880 0.11 1
  164.4128 0.10 1
  164.5213 0.12 1
  164.7207 0.11 1
  165.0118 3.75 37
  165.2112 0.11 1
  165.3181 0.10 1
  165.4625 0.12 1
  165.6319 0.11 1
  165.8002 0.23 2
  166.0166 1.63 16
  166.5358 0.13 1
  166.6816 0.10 1
  167.0183 3.51 35
  167.4026 0.11 1
  167.6988 0.19 2
  168.0151 1.81 18
  168.2888 0.11 1
  168.5019 0.19 2
  169.0208 4.78 48
  169.3486 0.07 1
  169.6414 0.16 2
  170.0503 1.98 20
  170.3495 0.11 1
  170.4405 0.13 1
  170.7486 0.16 2
  171.0354 4.65 46
  171.3568 0.13 1
  171.5062 0.11 1
  171.5954 0.08 1
  172.0664 0.63 6
  172.6205 0.04 0
  173.0654 2.87 29
  173.4557 0.07 1
  173.6902 0.13 1
  173.8625 0.09 1
  174.0864 0.29 3
  174.6915 0.23 2
  175.0137 0.35 3
  175.1106 0.18 2
  175.9554 0.25 2
  176.0700 0.30 3
  176.8221 0.20 2
  177.0054 0.73 7
  177.1976 0.15 1
  177.3249 0.16 2
  177.5487 0.21 2
  177.7844 0.14 1
  178.0013 1.62 16
  178.3607 0.20 2
  179.0174 3.25 32
  180.0094 1.82 18
  180.3200 0.13 1
  180.6421 0.05 0
  181.0109 3.24 32
  181.2509 0.13 1
  181.4342 0.11 1
  181.6850 0.16 2
  181.8664 0.37 4
  182.0471 2.19 22
  182.3322 0.07 1
  182.6369 0.10 1
  183.0220 4.59 46
  183.4496 0.07 1
  183.6280 0.11 1
  183.6912 0.06 1
  184.0209 0.96 10
  184.4917 0.11 1
  184.7753 0.23 2
  185.0532 3.28 33
  185.2337 0.14 1
  185.4211 0.10 1
  185.5149 0.11 1
  185.7505 0.20 2
  186.0501 0.52 5
  186.4632 0.11 1
  186.7224 0.13 1
  186.8935 0.27 3
  187.0412 1.33 13
  187.1616 0.22 2
  187.5078 0.13 1
  188.0880 0.16 2
  188.5758 0.05 0
  188.8340 0.37 4
  189.0345 1.20 12
  189.4096 0.10 1
  189.9866 0.47 5
  190.6528 0.06 1
  190.9862 1.16 12
  191.4278 0.04 0
  192.0073 0.79 8
  192.1485 0.13 1
  192.2419 0.12 1
  192.6023 0.10 1
  192.7581 0.31 3
  193.0188 2.43 24
  193.3158 0.11 1
  194.0162 1.64 16
  194.2434 0.13 1
  194.4909 0.03 0
  194.6182 0.11 1
  195.0345 4.10 41
  195.3095 0.05 0
  195.5267 0.11 1
  195.6273 0.12 1
  196.0578 1.39 14
  196.4686 0.14 1
  197.0357 3.24 32
  197.6597 0.05 0
  197.8248 0.13 1
  198.0600 1.84 18
  198.3361 0.04 0
  198.6148 0.15 1
  198.8418 0.27 3
  199.0714 2.11 21
  200.0502 0.43 4
  200.2653 0.09 1
  200.7453 0.07 1
  200.8545 0.13 1
  201.0818 0.22 2
  201.4783 0.12 1
  202.0251 0.80 8
  202.6340 0.04 0
  202.7733 0.21 2
  203.0513 1.14 11
  203.5811 0.11 1
  203.7422 0.10 1
  203.9443 0.29 3
  204.0856 0.11 1
  204.2774 0.14 1
  204.4283 0.11 1
  204.6330 0.18 2
  205.0539 1.10 11
  205.2797 0.07 1
  206.0246 1.11 11
  206.3983 0.04 0
  207.0520 2.36 24
  207.4855 0.10 1
  208.0460 1.15 11
  208.3176 0.04 0
  208.5277 0.05 0
  208.7552 0.12 1
  209.0596 3.55 35
  209.3813 0.19 2
  209.5724 0.04 0
  210.0160 0.79 8
  210.2064 0.04 0
  210.3873 0.03 0
  210.6553 0.10 1
  211.0472 1.36 14
  211.3525 0.12 1
  211.7336 0.17 2
  212.0461 0.38 4
  213.0500 0.65 6
  213.1514 0.34 3
  213.5168 0.12 1
  213.7672 0.03 0
  214.0729 0.22 2
  214.1448 0.14 1
  214.6022 0.04 0
  215.0269 1.22 12
  215.2415 0.19 2
  216.0185 0.52 5
  216.4453 0.15 1
  216.7443 0.16 2
  217.0195 1.23 12
  217.1739 0.27 3
  217.3038 0.05 0
  217.7469 0.12 1
  217.8113 0.05 0
  217.9856 0.12 1
  218.1612 0.11 1
  218.3555 0.11 1
  218.6084 0.12 1
  218.7107 0.13 1
  219.0814 1.91 19
  219.2745 0.11 1
  219.4373 0.11 1
  220.0959 0.75 7
  220.2176 0.22 2
  220.3696 0.19 2
  220.6246 0.12 1
  221.0902 2.03 20
  221.9870 0.38 4
  222.1358 0.41 4
  222.3047 0.20 2
  222.5882 0.06 1
  223.0865 1.08 11
  223.3237 0.12 1
  223.9336 0.19 2
  224.0491 0.19 2
  224.2193 0.11 1
  224.5037 0.09 1
  224.7642 0.04 0
  225.1084 0.96 10
  225.3555 0.10 1
  225.7254 0.05 0
  225.8941 0.12 1
  226.0826 0.55 5
  226.3671 0.08 1
  226.7578 0.11 1
  227.0881 0.52 5
  227.7224 0.12 1
  228.0251 0.42 4
  228.1249 0.27 3
  228.8251 0.22 2
  229.0906 0.52 5
  229.7697 0.03 0
  230.0688 0.56 6
  230.4742 0.16 2
  231.0358 0.85 8
  231.4478 0.11 1
  231.6219 0.10 1
  232.0624 0.67 7
  232.2037 0.12 1
  232.5437 0.07 1
  233.0766 0.87 9
  233.6909 0.38 4
  234.1427 0.47 5
  234.4448 0.14 1
  234.6533 0.10 1
  234.8315 0.17 2
  235.1021 0.88 9
  235.7226 0.05 0
  235.9299 0.07 1
  236.1166 0.29 3
  236.2083 0.09 1
  236.6870 0.06 1
  237.0992 0.96 10
  237.4229 0.11 1
  237.9619 0.18 2
  238.1377 0.41 4
  238.8171 0.11 1
  238.9807 0.23 2
  239.1288 0.63 6
  239.3092 0.09 1
  239.5219 0.13 1
  239.9119 0.13 1
  240.1518 0.23 2
  240.3116 0.15 1
  240.8899 0.16 2
  241.1189 0.47 5
  241.4923 0.13 1
  241.8514 0.10 1
  242.0973 0.23 2
  242.4986 0.09 1
  242.6164 0.19 2
  243.0450 0.72 7
  243.1900 0.31 3
  243.9988 0.27 3
  244.2151 0.10 1
  244.6574 0.11 1
  244.8796 0.11 1
  245.1174 0.66 7
  245.8333 0.07 1
  246.0465 0.52 5
  246.1722 0.33 3
  246.5351 0.10 1
  246.8028 0.13 1
  247.0977 0.87 9
  248.1169 0.24 2
  248.8913 0.11 1
  249.1131 0.67 7
  249.5340 0.13 1
  250.0358 0.27 3
  250.2713 0.27 3
  250.5177 0.15 1
  250.8161 0.11 1
  250.9413 0.42 4
  251.1417 0.51 5
  251.3850 0.06 1
  251.5316 0.14 1
  251.6062 0.09 1
  252.0513 0.39 4
  252.3907 0.13 1
  253.0780 0.58 6
  253.2293 0.40 4
  253.8324 0.06 1
  254.0492 0.17 2
  254.2044 0.09 1
  254.4790 0.05 0
  255.1246 0.60 6
  255.2077 0.28 3
  255.8014 0.12 1
  255.9105 0.12 1
  256.1138 0.20 2
  256.1898 0.09 1
  256.7740 0.11 1
  256.9104 0.12 1
  257.0280 0.21 2
  257.1638 0.56 6
  257.2509 0.14 1
  258.0750 0.37 4
  258.7160 0.13 1
  258.8487 0.19 2
  259.1302 0.35 3
  259.3844 0.13 1
  259.5847 0.11 1
  260.0295 0.23 2
  260.1817 0.26 3
  260.4172 0.07 1
  260.9688 0.11 1
  261.1464 0.68 7
  261.7105 0.05 0
  261.8243 0.14 1
  262.0332 0.29 3
  262.1126 0.11 1
  263.1123 0.71 7
  263.7346 0.10 1
  263.8434 0.17 2
  264.2392 0.22 2
  264.3369 0.08 1
  264.4730 0.03 0
  264.9347 0.09 1
  265.1359 0.54 5
  265.2505 0.44 4
  265.6198 0.10 1
  265.9605 0.12 1
  266.1181 0.18 2
  266.4387 0.19 2
  266.5703 0.12 1
  266.8925 0.09 1
  267.1703 0.81 8
  267.4429 0.11 1
  268.0786 0.31 3
  268.1891 0.14 1
  268.8770 0.02 0
  269.1738 1.02 10
  269.9516 0.06 1
  270.2537 0.25 2
  270.5903 0.04 0
  270.9562 0.08 1
  271.1099 0.26 3
  271.7591 0.10 1
  272.1467 0.28 3
  272.7857 0.11 1
  273.0782 0.36 4
  273.2202 0.16 2
  273.3844 0.09 1
  273.4919 0.08 1
  273.8496 0.03 0
  274.0171 0.09 1
  274.2152 0.13 1
  274.7959 0.09 1
  275.1433 0.44 4
  276.1127 0.15 1
  276.9766 0.37 4
  277.1749 0.55 5
  277.2910 0.24 2
  277.7260 0.13 1
  278.0769 0.16 2
  278.2497 0.11 1
  278.3835 0.08 1
  278.4807 0.10 1
  278.8232 0.16 2
  279.2355 0.24 2
  279.4665 0.10 1
  279.9918 0.20 2
  280.1327 0.12 1
  280.3357 0.10 1
  280.9557 0.18 2
  281.0948 0.24 2
  281.3004 0.15 1
  282.0132 0.11 1
  282.2169 0.24 2
  282.2907 0.14 1
  282.9574 0.10 1
  283.1342 0.30 3
  283.5046 0.01 0
  284.1888 0.17 2
  285.1309 0.27 3
  285.2993 0.11 1
  285.6594 0.08 1
  286.0379 0.19 2
  286.2233 0.17 2
  287.1631 0.53 5
  288.1862 0.27 3
  288.2834 0.09 1
  289.0624 0.28 3
  289.2414 0.04 0
  289.7625 0.02 0
  289.9422 0.11 1
  290.1695 0.15 1
  290.7143 0.09 1
  291.1689 0.45 4
  291.5296 0.08 1
  291.6368 0.06 1
  291.7629 0.11 1
  292.2190 0.09 1
  293.1085 0.09 1
  293.6634 0.13 1
  294.0511 0.16 2
  294.8604 0.06 1
  295.1239 0.28 3
  295.3652 0.04 0
  296.2226 0.10 1
  296.3050 0.12 1
  296.9028 0.11 1
  297.0088 0.11 1
  297.1161 0.20 2
  297.2404 0.03 0
  297.5393 0.12 1
  298.0267 0.12 1
  298.1772 0.10 1
  298.7943 0.01 0
  299.0730 0.26 3
  299.2451 0.35 3
  299.7988 0.06 1
  299.8898 0.11 1
  300.8415 0.06 1
  301.1302 0.24 2
  301.2376 0.24 2
  302.1327 0.06 1
  302.8432 0.02 0
  303.1064 0.24 2
  304.1531 0.11 1
  304.4590 0.12 1
  305.0474 0.15 1
  305.1909 0.30 3
  305.5598 0.14 1
  305.8304 0.01 0
  306.2924 0.13 1
  306.8521 0.11 1
  306.9655 0.13 1
  307.1221 0.17 2
  309.0717 0.22 2
  309.1970 0.11 1
  309.8638 0.04 0
  310.3308 0.08 1
  311.2274 0.14 1
  312.0349 0.01 0
  313.0715 0.23 2
  313.2061 0.22 2
  314.2770 0.16 2
  315.1881 0.56 6
  315.3548 0.04 0
  316.1176 0.30 3
  316.3067 0.11 1
  316.9305 0.08 1
  317.0329 0.09 1
  317.3041 0.12 1
  318.2688 0.13 1
  319.0347 0.12 1
  319.1542 0.09 1
  319.8906 0.11 1
  319.9780 0.07 1
  320.2007 0.13 1
  320.2802 0.11 1
  320.6665 0.10 1
  321.0181 0.15 1
  321.1902 0.43 4
  321.4235 0.04 0
  322.0498 0.14 1
  322.1451 0.10 1
  322.2989 0.08 1
  322.4500 0.12 1
  323.2092 0.17 2
  323.5431 0.01 0
  324.3314 0.01 0
  325.0669 0.10 1
  325.2205 0.12 1
  325.3484 0.11 1
  325.5172 0.01 0
  325.8769 0.06 1
  326.0962 0.10 1
  326.7685 0.03 0
  327.1966 0.25 2
  327.3542 0.11 1
  327.8047 0.11 1
  327.9767 0.12 1
  329.0493 0.09 1
  329.2627 0.17 2
  329.8881 0.01 0
  330.0990 0.09 1
  330.2711 0.04 0
  330.7073 0.08 1
  331.0759 0.43 4
  331.2533 0.37 4
  331.5523 0.03 0
  331.9958 0.10 1
  332.1417 0.15 1
  332.3297 0.14 1
  332.9343 0.04 0
  333.0789 0.21 2
  333.2853 0.16 2
  334.1181 0.10 1
  334.3291 0.20 2
  335.1818 0.13 1
  335.3054 0.08 1
  335.5803 0.07 1
  335.8163 0.11 1
  336.1635 0.09 1
  336.3332 0.11 1
  337.1479 0.08 1
  337.8813 0.10 1
  338.7121 0.10 1
  340.0219 0.12 1
  340.2141 0.12 1
  340.3634 0.13 1
  341.1248 0.15 1
  341.2103 0.09 1
  341.3176 0.12 1
  342.1330 0.17 2
  342.2943 0.12 1
  343.1591 0.19 2
  343.3343 0.12 1
  343.4455 0.11 1
  344.0643 0.22 2
  344.2849 0.24 2
  344.9235 0.11 1
  345.2705 0.20 2
  345.3891 0.12 1
  345.5135 0.26 3
  346.0904 0.30 3
  346.2096 0.11 1
  346.3136 0.17 2
  347.1797 0.25 2
  347.3371 0.17 2
  347.4412 0.09 1
  348.3759 0.09 1
  349.2962 0.13 1
  351.0878 0.14 1
  351.2390 0.10 1
  351.3369 0.10 1
  352.1449 0.11 1
  352.2554 0.12 1
  352.3685 0.11 1
  352.5269 0.03 0
  353.1332 0.07 1
  353.2344 0.13 1
  353.6619 0.07 1
  353.8145 0.04 0
  353.9756 0.07 1
  354.1564 0.17 2
  355.1548 0.21 2
  356.4145 0.14 1
  356.9869 0.09 1
  357.2290 0.35 3
  357.5882 0.08 1
  357.8297 0.09 1
  358.0732 0.11 1
  358.3482 0.11 1
  359.1010 0.20 2
  359.3320 0.40 4
  359.4393 0.11 1
  360.1238 0.05 0
  360.3074 0.05 0
  360.4246 0.11 1
  360.5977 0.11 1
  361.1513 0.13 1
  361.2658 0.11 1
  363.1059 0.16 2
  365.1490 0.15 1
  365.4597 0.14 1
  366.2090 0.11 1
  367.2256 0.14 1
  367.3981 0.22 2
  368.2298 0.21 2
  368.4609 0.11 1
  368.8297 0.05 0
  369.0859 0.15 1
  369.3487 0.09 1
  370.1891 0.10 1
  370.2893 0.07 1
  370.6048 0.04 0
  371.0949 0.12 1
  371.2141 0.11 1
  371.3268 0.12 1
  371.4236 0.11 1
  371.8809 0.10 1
  373.0926 0.14 1
  373.3548 0.05 0
  374.9602 0.04 0
  375.0584 0.08 1
  375.2667 0.35 3
  375.4156 0.05 0
  376.1657 0.13 1
  377.5508 0.10 1
  378.0116 0.14 1
  378.3004 0.10 1
  378.4059 0.11 1
  379.3363 0.13 1
  379.5605 0.07 1
  380.0656 0.21 2
  380.1725 0.31 3
  380.4422 0.31 3
  380.6011 0.14 1
  380.9553 0.12 1
  381.0364 0.09 1
  381.2296 0.44 4
  381.9737 0.13 1
  382.1610 0.16 2
  382.3503 0.19 2
  382.5126 0.11 1
  382.6030 0.11 1
  383.3240 1.03 10
  383.5384 0.20 2
  384.4054 0.12 1
  384.8692 0.15 1
  385.1965 0.26 3
  385.4221 0.19 2
  386.1969 0.07 1
  386.8344 0.16 2
  387.1155 0.09 1
  387.2944 0.25 2
  387.4997 0.18 2
  388.1294 0.10 1
  388.3611 0.18 2
  390.2365 0.12 1
  392.0550 0.19 2
  392.2419 0.25 2
  393.3500 0.01 0
  394.5580 0.02 0
  394.9610 0.14 1
  395.2397 0.15 1
  395.3738 0.04 0
  395.5145 0.13 1
  396.7541 0.10 1
  397.0549 0.12 1
  397.2977 0.53 5
  397.4607 0.07 1
  397.7325 0.12 1
  397.9040 0.19 2
  398.2689 0.96 10
  398.4391 0.56 6
  399.2857 0.49 5
  399.3940 0.45 4
  399.5708 0.05 0
  399.8566 0.22 2
  400.1034 0.13 1
  400.2334 0.14 1
  401.2155 0.15 1
  403.4968 0.13 1
  404.0051 0.16 2
  405.2028 0.08 1
  405.7469 0.01 0
  407.2994 0.04 0
  407.5616 0.02 0
  408.0510 0.15 1
  408.1402 0.11 1
  408.3680 0.14 1
  408.6871 0.11 1
  409.3152 0.15 1
  409.5015 0.07 1
  410.9773 0.18 2
  411.2859 0.13 1
  412.2230 0.35 3
  412.3364 0.30 3
  412.4695 0.31 3
  413.2515 0.20 2
  413.3511 0.08 1
  415.0411 0.15 1
  415.1427 0.17 2
  415.3188 0.13 1
  416.1847 0.12 1
  416.3773 0.22 2
  416.9426 0.08 1
  417.2994 0.12 1
  418.2255 0.13 1
  419.1590 0.12 1
  420.3709 0.09 1
  420.9403 0.09 1
  422.0628 0.09 1
  422.2700 0.13 1
  422.4171 0.12 1
  422.5174 0.09 1
  422.8302 0.02 0
  423.2935 0.15 1
  423.6096 0.11 1
  423.7449 0.04 0
  424.1904 0.12 1
  424.4380 0.08 1
  424.5561 0.12 1
  424.7112 0.10 1
  425.1079 0.16 2
  425.2538 0.22 2
  425.3482 0.16 2
  425.5290 0.17 2
  426.1759 0.22 2
  426.3515 0.21 2
  426.9193 0.10 1
  427.4454 0.15 1
  428.2839 0.08 1
  430.2140 0.08 1
  430.3527 0.17 2
  430.4946 0.17 2
  431.1478 0.10 1
  431.3690 0.14 1
  432.3326 0.14 1
  432.6219 0.12 1
  434.2673 0.04 0
  434.5983 0.09 1
  435.0276 0.12 1
  435.1432 0.11 1
  435.3170 0.19 2
  435.4557 0.11 1
  435.6302 0.14 1
  435.8488 0.10 1
  436.1422 0.14 1
  436.9872 0.07 1
  437.2740 0.25 2
  437.4332 0.12 1
  437.9790 0.14 1
  438.1779 0.10 1
  438.2830 0.12 1
  439.5868 0.10 1
  439.9199 0.10 1
  441.0514 0.01 0
  441.9041 0.15 1
  442.3773 0.20 2
  442.5089 0.26 3
  442.7158 0.04 0
  443.1977 0.15 1
  443.3729 0.13 1
  444.3553 2.95 29
  444.5582 1.38 14
  444.8095 0.26 3
  444.9391 0.14 1
  445.4197 0.11 1
  445.5447 0.11 1
  445.6906 0.10 1
  446.1730 0.05 0
  446.3333 0.10 1
  446.4634 0.06 1
  446.7419 0.13 1
  447.3333 0.07 1
  448.2210 0.12 1
  448.4025 0.11 1
  448.4903 0.05 0
  449.0078 0.12 1
  449.2600 0.12 1
  449.5511 0.07 1
  449.7089 0.09 1
  449.8548 0.11 1
  450.2502 0.43 4
  450.4595 0.11 1
  450.6034 0.14 1
  450.7189 0.09 1
  450.8780 0.20 2
  450.9507 0.11 1
  451.0866 0.13 1
  451.3012 0.39 4
  451.4300 0.14 1
  451.6643 0.20 2
  452.1906 0.29 3
  452.3372 0.41 4
  452.6217 0.12 1
  452.7320 0.09 1
  453.0159 0.11 1
  453.2734 0.51 5
  453.3824 0.24 2
  453.7284 0.06 1
  454.1847 0.14 1
  454.3359 0.21 2
  454.4575 0.21 2
  454.6047 0.28 3
  454.8847 0.03 0
  455.0670 0.13 1
  455.2387 0.15 1
  455.3787 0.19 2
  456.3582 0.17 2
  456.4526 0.14 1
  456.8026 0.01 0
  457.3667 0.76 8
  457.4995 0.44 4
  457.5973 0.26 3
  459.0115 0.11 1
  459.8849 0.05 0
  460.4240 0.15 1
  461.4586 0.18 2
  461.6264 0.10 1
  463.3827 0.10 1
  464.1585 0.13 1
  464.3383 0.21 2
  464.5174 0.12 1
  465.2873 0.11 1
  465.4591 0.26 3
  465.8220 0.07 1
  465.9350 0.12 1
  466.1809 0.56 6
  466.4036 0.53 5
  466.7566 0.03 0
  467.3620 5.79 58
  467.7044 0.37 4
  467.8439 0.16 2
  468.3264 0.14 1
  468.4923 0.26 3
  468.9141 0.16 2
  469.4377 0.25 2
  469.6644 0.11 1
  469.8819 0.12 1
  470.1642 0.09 1
  470.5245 0.10 1
  470.8862 0.14 1
  472.4061 0.12 1
  474.2232 0.10 1
  476.1674 0.22 2
  476.4376 0.11 1
  478.3979 0.06 1
  478.6134 0.11 1
  478.7600 0.12 1
  478.9259 0.14 1
  479.2253 0.12 1
  479.3600 0.13 1
  479.7030 0.13 1
  479.8887 0.14 1
  480.1259 0.30 3
  480.3017 0.11 1
  480.4154 0.11 1
  481.3181 0.61 6
  481.4549 0.58 6
  481.5521 0.19 2
  482.2976 0.12 1
  482.4265 0.22 2
  484.2626 0.11 1
  485.6019 0.18 2
  486.8765 0.16 2
  487.2679 0.11 1
  487.4669 0.13 1
  487.7148 0.08 1
  487.8602 0.12 1
  488.1835 0.17 2
  488.4136 0.11 1
  488.5888 0.01 0
  488.9743 0.05 0
  490.2802 0.15 1
  491.1578 0.14 1
  491.6392 0.05 0
  492.0770 0.09 1
  492.3395 0.27 3
  492.4678 0.16 2
  492.6114 0.14 1
  493.0214 0.06 1
  493.3620 0.20 2
  493.4969 0.19 2
  493.5928 0.11 1
  494.2205 0.19 2
  494.6405 0.06 1
  496.4986 0.12 1
  497.5213 0.11 1
  497.8961 0.08 1
  499.7154 0.04 0
  501.4991 0.14 1
  501.6443 0.01 0
  502.2577 0.09 1
  502.4551 0.12 1
  504.0206 0.15 1
  504.1256 0.12 1
  504.5151 0.04 0
  504.8215 0.09 1
  505.3221 0.13 1
  505.4779 0.09 1
  505.6648 0.01 0
  506.3205 0.36 4
  506.3965 0.16 2
  506.5589 0.51 5
  507.1731 0.10 1
  507.4901 0.16 2
  507.8513 0.05 0
  508.1215 0.11 1
  510.3533 0.07 1
  510.9749 0.14 1
  511.1605 0.16 2
  511.5258 0.08 1
  512.6144 0.04 0
  515.2921 0.08 1
  515.5009 0.12 1
  515.6370 0.24 2
  515.7724 0.14 1
  516.1695 0.11 1
  516.2712 0.06 1
  516.4219 0.11 1
  516.5475 0.05 0
  516.8336 0.12 1
  517.0496 0.11 1
  517.3186 0.15 1
  517.5056 0.23 2
  517.5869 0.12 1
  517.6714 0.11 1
  517.8776 0.26 3
  518.4479 1.13 11
  518.8444 0.12 1
  519.0406 0.14 1
  519.1596 0.31 3
  519.2429 0.11 1
  519.4801 0.17 2
  519.7451 0.31 3
  519.8251 0.17 2
  520.3637 0.85 8
  520.4893 0.54 5
  520.6876 0.22 2
  520.8131 0.13 1
  520.9434 0.05 0
  521.4727 2.18 22
  521.7120 0.76 8
  521.7867 0.31 3
  521.9783 0.11 1
  522.1330 0.11 1
  522.3121 0.18 2
  522.5712 0.11 1
  522.9017 0.26 3
  523.1152 0.17 2
  523.3406 0.22 2
  523.4669 0.05 0
  523.6500 0.02 0
  523.8033 0.20 2
  524.0948 0.13 1
  524.2621 0.13 1
  524.4921 0.08 1
  524.5985 0.17 2
  524.7129 0.12 1
  524.8656 0.12 1
  524.9502 0.09 1
  525.1485 0.11 1
  525.2834 0.13 1
  525.4407 0.10 1
  525.5247 0.08 1
  525.7078 0.11 1
  525.8644 0.14 1
  526.0594 0.11 1
  526.1500 0.15 1
  526.2697 0.15 1
  526.3583 0.17 2
  526.6888 0.13 1
  526.8436 0.04 0
  527.0154 0.13 1
  527.1953 0.16 2
  527.3229 0.17 2
  527.4637 0.32 3
  527.6581 0.14 1
  527.7803 0.11 1
  527.9397 0.10 1
  528.1678 0.13 1
  528.5486 0.19 2
  528.6656 0.04 0
  528.8071 0.14 1
  529.0829 0.26 3
  529.4333 0.18 2
  529.6535 0.41 4
  529.7824 0.32 3
  529.9365 0.23 2
  530.2572 0.24 2
  530.5812 0.26 3
  530.8206 0.49 5
  531.1003 0.36 4
  531.4137 0.32 3
  531.8237 0.56 6
  532.0525 0.47 5
  532.3322 0.82 8
  532.6609 0.64 6
  533.0306 1.17 12
  536.4565 99.97 999
  536.9896 11.50 115
  537.6782 4.80 48
  538.3258 2.87 29
  539.0224 1.97 20
  539.1931 0.93 9
  539.8315 1.20 12
  540.1896 0.78 8
  540.4826 0.73 7
  540.6212 0.40 4
  540.8046 0.21 2
//
