ACCESSION: MSBNK-Kyoto_Univ-CA000186
RECORD_TITLE: 2,6-Cyclolycopene-1,5-diol; FAB-EBEB; MS2; m/z: 570.44; [M]*+
DATE: 2016.01.19 (Created 2007.10.14, modified 2011.05.10)
AUTHORS: Akimoto N, Graduate School of Pharmaceutical Sciences, Kyoto University and Maoka T, Research Institute for Production Development
LICENSE: CC BY-SA
COMMENT: Profile spectrum of this record is given as a JPEG file.
COMMENT: [Profile] CA000186.jpg
CH$NAME: 2,6-Cyclolycopene-1,5-diol
CH$COMPOUND_CLASS: Natural Product
CH$FORMULA: C40H58O2
CH$EXACT_MASS: 570.44368
CH$SMILES: C(C=CC=C(C)C=CC=C(C)C=CC(C(C)(O)1)C(CC1)C(C)(C)O)=C(C=CC=C(C)C=CC=C(CCC=C(C)C)C)C
CH$IUPAC: InChI=1S/C40H58O2/c1-31(2)17-13-20-34(5)23-15-25-35(6)24-14-21-32(3)18-11-12-19-33(4)22-16-26-36(7)27-28-38-37(39(8,9)41)29-30-40(38,10)42/h11-12,14-19,21-28,37-38,41-42H,13,20,29-30H2,1-10H3/b12-11+,21-14+,22-16+,25-15+,28-27+,32-18+,33-19+,34-23+,35-24+,36-26+
CH$LINK: CHEMSPIDER 8069964
CH$LINK: PUBCHEM CID:9894294
CH$LINK: INCHIKEY VDFVQEJGOSCZNZ-HNNISBQLSA-N
AC$INSTRUMENT: JMS-HX/HX 110A, JEOL
AC$INSTRUMENT_TYPE: FAB-EBEB
AC$MASS_SPECTROMETRY: MS_TYPE MS2
AC$MASS_SPECTROMETRY: ION_MODE POSITIVE
AC$MASS_SPECTROMETRY: ATOM_GUN_CURRENT 5 mA
AC$MASS_SPECTROMETRY: BOMBARDMENT 6 kV xenon
AC$MASS_SPECTROMETRY: COLLISION_ENERGY 3 kV
AC$MASS_SPECTROMETRY: COLLISION_GAS Ar
AC$MASS_SPECTROMETRY: GAS_PRESSURE adjust to attenuate the intensity of the precursor ion by 30 %
AC$MASS_SPECTROMETRY: IONIZATION FAB
AC$MASS_SPECTROMETRY: MATRIX 1-2 uL m-NBA
AC$MASS_SPECTROMETRY: PROBE_TIP stainless-steel
MS$FOCUSED_ION: BASE_PEAK 570.4315
MS$FOCUSED_ION: PRECURSOR_M/Z 570.44
MS$FOCUSED_ION: PRECURSOR_TYPE [M]+*
PK$SPLASH: splash10-00xu-4910020000-ba1999350e8c1a2d8638
PK$NUM_PEAK: 1705
PK$PEAK: m/z int. rel.int.
  1.6148 0.01 0
  12.9922 0.03 0
  13.9863 0.06 1
  14.9941 0.26 3
  18.9529 0.02 0
  18.9996 0.01 0
  22.9626 0.03 0
  23.9811 0.02 0
  24.9690 0.02 0
  25.9772 0.39 4
  26.3483 0.01 0
  26.9879 2.39 24
  27.9977 0.23 2
  29.0070 2.07 21
  29.9921 0.03 0
  30.9813 0.86 9
  35.8668 0.01 0
  36.6083 0.01 0
  36.9625 0.22 2
  37.1258 0.03 0
  37.2042 0.02 0
  37.4536 0.01 0
  37.5703 0.03 0
  37.7006 0.02 0
  37.9697 0.53 5
  38.0908 0.01 0
  38.9930 5.12 51
  39.3958 0.01 0
  39.5931 0.02 0
  40.0018 0.63 6
  40.1630 0.01 0
  40.4783 0.01 0
  40.8052 0.08 1
  41.0001 19.21 192
  41.9991 0.33 3
  42.9809 31.71 317
  43.2572 0.01 0
  43.7801 0.02 0
  43.9968 0.16 2
  44.3545 0.01 0
  44.9863 0.57 6
  45.2707 0.01 0
  45.9628 0.01 0
  48.3323 0.01 0
  48.9652 0.14 1
  49.2984 0.02 0
  49.5569 0.01 0
  49.9694 1.16 12
  50.5103 0.01 0
  50.9821 3.38 34
  51.1656 0.03 0
  51.2484 0.02 0
  51.3502 0.01 0
  51.6066 0.01 0
  51.9913 0.99 10
  52.3399 0.01 0
  52.6653 0.02 0
  52.9887 6.93 69
  54.0000 0.47 5
  55.0103 14.04 140
  55.2514 0.01 0
  56.0033 0.16 2
  57.0072 1.71 17
  57.3893 0.02 0
  58.0029 0.76 8
  58.3117 0.01 0
  58.4369 0.01 0
  58.5943 0.01 0
  58.7158 0.01 0
  59.0099 24.45 244
  59.5553 0.01 0
  60.0089 0.10 1
  60.9717 0.46 5
  61.2930 0.01 0
  61.4573 0.01 0
  61.5996 0.01 0
  61.9686 0.55 5
  62.2933 0.01 0
  62.6101 0.03 0
  62.7293 0.01 0
  62.9751 2.37 24
  63.2051 0.06 1
  63.5626 0.02 0
  63.6466 0.01 0
  63.8209 0.05 0
  63.9881 0.38 4
  64.2341 0.03 0
  64.3323 0.01 0
  64.5395 0.01 0
  64.6602 0.02 0
  64.9941 4.16 42
  65.2019 0.01 0
  65.5174 0.03 0
  65.6274 0.02 0
  65.9974 0.83 8
  66.1998 0.02 0
  66.3505 0.01 0
  66.6404 0.03 0
  66.9995 9.12 91
  67.5924 0.01 0
  67.7180 0.01 0
  67.9986 0.44 4
  68.2938 0.05 0
  68.5047 0.01 0
  68.6903 0.03 0
  69.0208 58.63 586
  69.3222 0.07 1
  69.4149 0.02 0
  69.5288 0.02 0
  70.0148 0.29 3
  71.0003 9.16 92
  71.2488 0.01 0
  71.5594 0.01 0
  72.0127 0.07 1
  72.3914 0.01 0
  73.0217 0.22 2
  73.1427 0.02 0
  73.9467 0.44 4
  74.9766 0.59 6
  75.2138 0.11 1
  75.4489 0.08 1
  75.6075 0.04 0
  75.9790 0.46 5
  76.1634 0.08 1
  76.5355 0.10 1
  76.9903 15.01 150
  77.2349 0.12 1
  77.5030 0.05 0
  77.9954 3.12 31
  78.3807 0.08 1
  78.6017 0.05 0
  79.0082 17.12 171
  79.3506 0.01 0
  79.5810 0.06 1
  80.0128 2.29 23
  80.4063 0.02 0
  80.4741 0.01 0
  81.0268 23.99 240
  81.4787 0.06 1
  81.7525 0.03 0
  82.0129 0.92 9
  83.0325 3.51 35
  83.4387 0.02 0
  84.0197 0.20 2
  85.0221 1.37 14
  85.2238 0.02 0
  85.4173 0.02 0
  85.7268 0.01 0
  85.9756 0.14 1
  86.2574 0.01 0
  86.3784 0.04 0
  86.5305 0.02 0
  86.9644 0.42 4
  87.6149 0.01 0
  87.9755 0.24 2
  88.1444 0.01 0
  88.2575 0.01 0
  88.4922 0.05 0
  88.9782 1.18 12
  89.2132 0.17 2
  89.3712 0.15 1
  89.5836 0.15 1
  89.9869 0.57 6
  90.1796 0.11 1
  90.4722 0.19 2
  91.0047 30.45 304
  91.3251 0.08 1
  91.4632 0.02 0
  91.6263 0.02 0
  92.0169 3.34 33
  92.2792 0.02 0
  92.4741 0.05 0
  92.5829 0.09 1
  93.0352 32.03 320
  93.3790 0.07 1
  93.6657 0.08 1
  94.0494 1.38 14
  94.2285 0.03 0
  94.4802 0.03 0
  95.0584 17.49 175
  95.3838 0.03 0
  95.5145 0.02 0
  95.6562 0.02 0
  95.8060 0.01 0
  96.0401 0.33 3
  96.3209 0.01 0
  96.7880 0.02 0
  97.0429 1.99 20
  97.6156 0.01 0
  97.9882 0.14 1
  98.1632 0.01 0
  98.4784 0.02 0
  98.5762 0.01 0
  99.0251 0.42 4
  99.3760 0.01 0
  99.6802 0.01 0
  99.9970 0.05 0
  100.0698 0.03 0
  100.5429 0.02 0
  101.0084 0.47 5
  101.2147 0.04 0
  101.4768 0.05 0
  101.6741 0.06 1
  102.0106 1.36 14
  102.2638 0.07 1
  102.3604 0.05 0
  102.5604 0.09 1
  103.0209 5.46 55
  103.4123 0.08 1
  104.0257 2.33 23
  104.3096 0.07 1
  104.5104 0.05 0
  105.0348 45.29 453
  105.4843 0.14 1
  105.5634 0.06 1
  106.0463 3.28 33
  106.3325 0.05 0
  106.4760 0.06 1
  107.0632 23.83 238
  107.3093 0.06 1
  107.4621 0.04 0
  107.6136 0.01 0
  108.0559 0.96 10
  108.2500 0.01 0
  108.3893 0.01 0
  108.5229 0.03 0
  109.0610 7.60 76
  109.4506 0.07 1
  109.5557 0.02 0
  110.0445 0.17 2
  110.1892 0.04 0
  110.2844 0.02 0
  110.5125 0.02 0
  110.6360 0.01 0
  111.0423 1.04 10
  111.5286 0.01 0
  112.0347 0.04 0
  112.1798 0.01 0
  112.3018 0.02 0
  112.6054 0.11 1
  113.0388 0.68 7
  113.3862 0.13 1
  113.9965 0.26 3
  114.9936 12.87 129
  115.2802 0.11 1
  115.6042 0.18 2
  116.0187 5.31 53
  116.6214 0.19 2
  117.0233 17.39 174
  117.3544 0.09 1
  117.5533 0.04 0
  118.0229 3.50 35
  118.3368 0.03 0
  118.5030 0.06 1
  118.6693 0.08 1
  119.0298 35.92 359
  119.4134 0.10 1
  119.5621 0.06 1
  119.6586 0.03 0
  120.0381 2.73 27
  120.2543 0.03 0
  120.4401 0.04 0
  121.0511 12.81 128
  121.3039 0.07 1
  121.4988 0.04 0
  121.5969 0.02 0
  122.0342 0.57 6
  122.2995 0.01 0
  122.4092 0.01 0
  122.5776 0.03 0
  122.7314 0.04 0
  123.0531 3.24 32
  123.4605 0.01 0
  123.6107 0.01 0
  123.7992 0.02 0
  124.0741 0.23 2
  124.3081 0.01 0
  124.4366 0.01 0
  124.6106 0.04 0
  125.0266 1.48 15
  125.2225 0.05 0
  125.5254 0.04 0
  125.6260 0.02 0
  125.9996 0.56 6
  126.2490 0.15 1
  126.3791 0.09 1
  126.9866 4.64 46
  127.9993 15.11 151
  128.6209 0.40 4
  129.0043 20.70 207
  129.3814 0.09 1
  129.4915 0.07 1
  129.6628 0.10 1
  130.0099 8.81 88
  131.0102 22.18 222
  131.3283 0.10 1
  131.5044 0.08 1
  132.0299 6.60 66
  132.4904 0.14 1
  133.0327 25.07 251
  133.4931 0.12 1
  133.6529 0.10 1
  134.0269 1.39 14
  134.3014 0.13 1
  134.5817 0.07 1
  135.0404 6.24 62
  135.2933 0.06 1
  135.5152 0.02 0
  135.6936 0.01 0
  136.0370 0.26 3
  136.2610 0.02 0
  136.3760 0.02 0
  136.5611 0.02 0
  136.6579 0.01 0
  137.0452 0.87 9
  137.6778 0.02 0
  138.0181 0.20 2
  138.1710 0.06 1
  138.3187 0.02 0
  138.5107 0.13 1
  139.0141 2.76 28
  139.3666 0.03 0
  139.5197 0.10 1
  139.6246 0.05 0
  140.0112 0.63 6
  140.3941 0.18 2
  140.9879 11.42 114
  141.3652 0.15 1
  141.5513 0.12 1
  142.0106 13.56 136
  142.5419 0.22 2
  143.0206 29.64 296
  143.5624 0.15 1
  144.0206 7.85 78
  144.2498 0.16 2
  145.0379 31.96 319
  145.4568 0.15 1
  145.6509 0.10 1
  146.0393 2.02 20
  146.3457 0.08 1
  146.5045 0.04 0
  146.6443 0.07 1
  147.0508 7.06 71
  147.3798 0.08 1
  147.5112 0.05 0
  147.6446 0.02 0
  148.0317 0.47 5
  148.2828 0.01 0
  148.4439 0.03 0
  148.7609 0.09 1
  149.0556 1.07 11
  149.3610 0.06 1
  149.5413 0.04 0
  149.9620 0.25 2
  150.2999 0.06 1
  150.5358 0.12 1
  151.0294 1.34 13
  151.3663 0.12 1
  152.0034 4.78 48
  152.9994 6.59 66
  153.3475 0.08 1
  154.0214 3.55 35
  154.4584 0.08 1
  155.0443 15.90 159
  155.3500 0.14 1
  155.4612 0.08 1
  155.5757 0.10 1
  156.0490 9.82 98
  157.0625 27.67 277
  157.4237 0.14 1
  157.6948 0.11 1
  158.0748 4.22 42
  158.3779 0.11 1
  158.5080 0.16 2
  159.0781 14.81 148
  159.3669 0.16 2
  159.6232 0.21 2
  159.7108 0.07 1
  160.0735 0.72 7
  160.4223 0.06 1
  160.6071 0.07 1
  161.0937 3.57 36
  161.4136 0.04 0
  161.6018 0.06 1
  162.0748 0.20 2
  162.3543 0.03 0
  162.4608 0.02 0
  162.6885 0.14 1
  163.0673 0.93 9
  164.0466 0.59 6
  165.0361 8.99 90
  165.3356 0.10 1
  166.0602 3.48 35
  166.3099 0.12 1
  167.0632 9.05 90
  167.5095 0.05 0
  168.0694 4.38 44
  169.0875 17.42 174
  169.3635 0.17 2
  170.0951 5.36 54
  171.0973 12.93 129
  171.6428 0.18 2
  172.1090 1.88 19
  172.6168 0.10 1
  173.1021 5.65 56
  173.3895 0.09 1
  173.6436 0.07 1
  173.8162 0.09 1
  174.1072 0.40 4
  174.4905 0.04 0
  174.6525 0.08 1
  174.7943 0.06 1
  175.1096 1.90 19
  175.4879 0.04 0
  176.0390 0.71 7
  176.2440 0.08 1
  176.5663 0.11 1
  176.6682 0.05 0
  177.0790 1.24 12
  177.5577 0.21 2
  178.0385 4.21 42
  178.3847 0.10 1
  179.0510 8.57 86
  180.0642 3.68 37
  180.3752 0.11 1
  181.0572 10.33 103
  181.4416 0.11 1
  182.0703 4.18 42
  182.3743 0.08 1
  182.5444 0.10 1
  183.0739 13.73 137
  183.3680 0.13 1
  183.6326 0.13 1
  184.0816 3.11 31
  184.3665 0.11 1
  184.5315 0.08 1
  185.0859 7.83 78
  185.6897 0.13 1
  186.0948 1.13 11
  186.3429 0.08 1
  187.0922 2.52 25
  187.4727 0.03 0
  187.6009 0.07 1
  188.0659 0.42 4
  188.4297 0.06 1
  188.5485 0.06 1
  189.0340 1.85 18
  189.3427 0.17 2
  189.7142 0.09 1
  190.0480 0.85 8
  191.0369 3.40 34
  191.2912 0.06 1
  191.5840 0.08 1
  192.0521 3.32 33
  192.4114 0.07 1
  193.0401 6.86 69
  193.4639 0.07 1
  194.0571 4.01 40
  194.4520 0.10 1
  195.0631 11.04 110
  195.3796 0.13 1
  196.0664 3.19 32
  196.6685 0.15 1
  197.0769 11.70 117
  197.5532 0.13 1
  198.0758 2.25 22
  198.4356 0.11 1
  198.6223 0.13 1
  199.0894 4.32 43
  199.4895 0.08 1
  200.0676 0.81 8
  200.4156 0.12 1
  200.5311 0.12 1
  200.6901 0.13 1
  201.0919 1.35 13
  201.4597 0.11 1
  202.0126 1.81 18
  202.4153 0.04 0
  203.0331 2.49 25
  203.5626 0.11 1
  204.0378 1.25 12
  204.2489 0.11 1
  205.0246 3.20 32
  205.4068 0.12 1
  206.0494 2.56 26
  206.4120 0.09 1
  207.0638 6.26 63
  207.6080 0.07 1
  208.0609 2.52 25
  208.3386 0.08 1
  209.0756 9.23 92
  210.0805 1.80 18
  210.2949 0.13 1
  210.5859 0.17 2
  211.0927 4.69 47
  212.0925 1.08 11
  212.3898 0.07 1
  212.7220 0.13 1
  213.0995 1.73 17
  213.4852 0.07 1
  214.0735 0.36 4
  214.5093 0.08 1
  215.0520 1.99 20
  215.3422 0.09 1
  215.5790 0.06 1
  215.7173 0.06 1
  216.0699 1.02 10
  216.3171 0.08 1
  216.4637 0.09 1
  217.0486 2.20 22
  217.3315 0.08 1
  217.4254 0.06 1
  217.5234 0.05 0
  218.0867 1.19 12
  218.6179 0.09 1
  219.0710 2.98 30
  219.4646 0.09 1
  219.5585 0.04 0
  219.6717 0.06 1
  220.0901 1.60 16
  220.4241 0.18 2
  220.6849 0.16 2
  221.1020 5.30 53
  221.3800 0.08 1
  221.5824 0.10 1
  221.6806 0.08 1
  222.1048 1.38 14
  222.3554 0.09 1
  222.4509 0.05 0
  222.6205 0.10 1
  223.1225 4.67 47
  223.5504 0.12 1
  223.7565 0.08 1
  224.1192 0.97 10
  224.3790 0.10 1
  224.5157 0.07 1
  224.6311 0.07 1
  225.1439 2.32 23
  225.5110 0.13 1
  226.1181 0.46 5
  226.4901 0.16 2
  226.7556 0.10 1
  227.1133 0.84 8
  227.4896 0.06 1
  227.7339 0.11 1
  228.0773 0.53 5
  228.3773 0.11 1
  228.5246 0.05 0
  229.0872 1.78 18
  229.6625 0.05 0
  230.0948 0.77 8
  230.4283 0.07 1
  230.6304 0.03 0
  231.0932 1.94 19
  231.4206 0.08 1
  231.5451 0.07 1
  232.1050 1.20 12
  232.5825 0.06 1
  233.1097 3.09 31
  233.3877 0.04 0
  233.6748 0.07 1
  234.1216 1.13 11
  234.5492 0.11 1
  235.1215 2.94 29
  235.5334 0.03 0
  235.7263 0.06 1
  236.1286 0.89 9
  236.4256 0.07 1
  237.1320 2.18 22
  237.5511 0.04 0
  237.7076 0.05 0
  237.8262 0.05 0
  238.1599 0.51 5
  238.4902 0.07 1
  238.6881 0.06 1
  239.1227 1.28 13
  239.4662 0.05 0
  239.6814 0.05 0
  239.8201 0.03 0
  240.0726 0.35 3
  240.2479 0.17 2
  240.3783 0.04 0
  240.6695 0.04 0
  241.1237 1.10 11
  241.6794 0.49 5
  242.0971 0.41 4
  242.2214 0.17 2
  242.5149 0.06 1
  242.7815 0.09 1
  243.1289 1.40 14
  243.3858 0.08 1
  243.4943 0.04 0
  243.6774 0.12 1
  244.1161 0.54 5
  244.2474 0.19 2
  244.4512 0.07 1
  244.5653 0.02 0
  244.8251 0.08 1
  245.1182 1.75 17
  245.4493 0.03 0
  245.7334 0.08 1
  246.1261 0.78 8
  246.4753 0.13 1
  246.6005 0.03 0
  247.1289 2.50 25
  247.6671 0.07 1
  248.1375 0.81 8
  248.3887 0.05 0
  248.6793 0.12 1
  249.1472 2.36 24
  249.5064 0.06 1
  250.1246 0.56 6
  250.3981 0.06 1
  250.6938 0.03 0
  251.1619 1.21 12
  251.6135 0.09 1
  252.1539 0.58 6
  252.4726 0.06 1
  252.6728 0.02 0
  253.1441 1.05 10
  253.5065 0.03 0
  253.7297 0.04 0
  254.1671 0.23 2
  254.4950 0.02 0
  255.1682 1.00 10
  255.4597 0.05 0
  255.6079 0.03 0
  255.8455 0.03 0
  256.1406 0.46 5
  256.4350 0.07 1
  256.5714 0.01 0
  256.6961 0.02 0
  257.1292 0.85 8
  257.3329 0.15 1
  257.6017 0.06 1
  257.7598 0.02 0
  258.1306 0.53 5
  258.4300 0.10 1
  258.5638 0.03 0
  258.7724 0.04 0
  259.1316 1.20 12
  259.4699 0.03 0
  259.6391 0.07 1
  260.1516 0.48 5
  260.7300 0.05 0
  261.1462 1.49 15
  261.5015 0.05 0
  261.6256 0.03 0
  261.8380 0.06 1
  262.1488 0.56 6
  262.3681 0.09 1
  262.5451 0.04 0
  263.1753 1.68 17
  263.3745 0.16 2
  263.6522 0.03 0
  263.8487 0.05 0
  264.1646 0.47 5
  264.5410 0.08 1
  265.1702 1.17 12
  265.6967 0.04 0
  266.1677 0.50 5
  266.3136 0.17 2
  266.5088 0.06 1
  267.1842 1.10 11
  267.5512 0.04 0
  267.8216 0.06 1
  268.1490 0.36 4
  268.4604 0.03 0
  268.7232 0.07 1
  269.1563 0.78 8
  269.6507 0.13 1
  270.1431 0.39 4
  270.4387 0.02 0
  270.6425 0.07 1
  270.8637 0.15 1
  271.1789 0.79 8
  271.5135 0.05 0
  272.1544 0.29 3
  272.6324 0.04 0
  272.7325 0.02 0
  273.1685 0.98 10
  273.4154 0.12 1
  273.7187 0.08 1
  274.1493 0.36 4
  274.3614 0.07 1
  274.7350 0.04 0
  275.1887 1.15 11
  275.5978 0.03 0
  275.9507 0.12 1
  276.1887 0.35 3
  276.6989 0.02 0
  276.8103 0.01 0
  277.1876 0.72 7
  277.5385 0.03 0
  277.7126 0.06 1
  278.2104 0.44 4
  278.3685 0.14 1
  278.4604 0.07 1
  278.6499 0.04 0
  278.7585 0.02 0
  279.1973 0.51 5
  279.5031 0.03 0
  279.7372 0.02 0
  279.8786 0.05 0
  280.2011 0.22 2
  280.3607 0.09 1
  280.5600 0.02 0
  281.1878 0.74 7
  281.6806 0.09 1
  281.8060 0.06 1
  282.1413 0.22 2
  282.2758 0.10 1
  282.7910 0.03 0
  283.1766 0.61 6
  283.5942 0.03 0
  284.0126 0.09 1
  284.1884 0.10 1
  284.4716 0.03 0
  284.7059 0.04 0
  284.7980 0.01 0
  285.1719 0.98 10
  285.7223 0.02 0
  285.9770 0.08 1
  286.2051 0.19 2
  286.4284 0.02 0
  286.7822 0.03 0
  287.1793 0.73 7
  287.5652 0.02 0
  288.1718 0.22 2
  288.3527 0.09 1
  288.4706 0.03 0
  288.6431 0.03 0
  289.1693 0.65 6
  289.6586 0.02 0
  290.2323 0.25 2
  290.4080 0.09 1
  290.5801 0.06 1
  290.8339 0.06 1
  291.2076 0.63 6
  291.5940 0.08 1
  291.7620 0.02 0
  292.2502 0.31 3
  292.5432 0.03 0
  292.8110 0.02 0
  293.1856 0.36 4
  293.4165 0.05 0
  293.5700 0.04 0
  293.8979 0.04 0
  294.2607 0.15 1
  294.6299 0.02 0
  294.9160 0.05 0
  295.1840 0.50 5
  295.4861 0.04 0
  295.6886 0.01 0
  295.8568 0.03 0
  296.1081 0.12 1
  296.3112 0.13 1
  296.5207 0.01 0
  296.6938 0.02 0
  296.8432 0.04 0
  297.1769 0.41 4
  297.5065 0.03 0
  297.7146 0.03 0
  297.8522 0.05 0
  298.1825 0.23 2
  298.4709 0.01 0
  298.6239 0.04 0
  299.1338 0.32 3
  299.4488 0.03 0
  299.6738 0.06 1
  299.7911 0.02 0
  299.9364 0.02 0
  300.2264 0.17 2
  300.7379 0.03 0
  301.1788 0.70 7
  301.3954 0.05 0
  301.5010 0.01 0
  301.7079 0.01 0
  301.8281 0.01 0
  302.2167 0.12 1
  302.3684 0.06 1
  302.4809 0.03 0
  302.6368 0.01 0
  302.7396 0.01 0
  303.1989 0.57 6
  303.4513 0.04 0
  303.7855 0.05 0
  304.2092 0.17 2
  304.4456 0.02 0
  304.6882 0.01 0
  304.7987 0.03 0
  305.1925 0.24 2
  305.5240 0.04 0
  305.8486 0.01 0
  306.1879 0.17 2
  306.3320 0.09 1
  306.5909 0.03 0
  306.7259 0.02 0
  307.0869 0.20 2
  307.2332 0.26 3
  307.4067 0.09 1
  307.7013 0.02 0
  307.9035 0.02 0
  308.2276 0.09 1
  308.4270 0.11 1
  309.1536 0.26 3
  309.4455 0.02 0
  309.5603 0.02 0
  309.6625 0.01 0
  309.8326 0.03 0
  310.0216 0.05 0
  310.2205 0.10 1
  310.3059 0.05 0
  310.5776 0.01 0
  311.1707 0.23 2
  311.4228 0.03 0
  311.5838 0.02 0
  311.9445 0.03 0
  312.1729 0.16 2
  312.3522 0.02 0
  312.5189 0.02 0
  312.8152 0.02 0
  313.1514 0.32 3
  313.3063 0.16 2
  313.6965 0.05 0
  313.8457 0.03 0
  314.1302 0.15 1
  314.2942 0.10 1
  315.1694 0.42 4
  315.6117 0.05 0
  315.8198 0.05 0
  316.0939 0.16 2
  316.2937 0.21 2
  316.5734 0.02 0
  316.8082 0.03 0
  317.2429 0.46 5
  317.6720 0.06 1
  317.7919 0.02 0
  317.9665 0.05 0
  318.1993 0.22 2
  318.4019 0.02 0
  318.5205 0.01 0
  318.7463 0.02 0
  319.2351 0.62 6
  319.4287 0.10 1
  319.7303 0.02 0
  320.1905 0.09 1
  320.5027 0.04 0
  320.7089 0.02 0
  320.8675 0.02 0
  321.2470 0.36 4
  321.3853 0.17 2
  321.5298 0.04 0
  321.6779 0.05 0
  321.8175 0.04 0
  322.2540 0.09 1
  322.5634 0.05 0
  322.8666 0.01 0
  323.1832 0.14 1
  323.4485 0.04 0
  323.7033 0.02 0
  324.0367 0.06 1
  324.2495 0.04 0
  324.3913 0.04 0
  324.6945 0.03 0
  325.1980 0.30 3
  325.3826 0.06 1
  325.5266 0.02 0
  325.6726 0.02 0
  325.9325 0.03 0
  326.1740 0.09 1
  326.3461 0.04 0
  326.6748 0.04 0
  327.2036 0.33 3
  327.5415 0.04 0
  327.7495 0.02 0
  328.0768 0.08 1
  328.2981 0.12 1
  328.5285 0.03 0
  329.2234 0.49 5
  329.6288 0.03 0
  329.8790 0.02 0
  330.2311 0.23 2
  330.4560 0.05 0
  330.6345 0.01 0
  331.2390 0.40 4
  331.6537 0.04 0
  331.7633 0.02 0
  331.9538 0.06 1
  332.2652 0.39 4
  332.6216 0.03 0
  332.9154 0.02 0
  333.2704 0.57 6
  333.6057 0.03 0
  333.9256 0.02 0
  334.0084 0.01 0
  334.3031 0.21 2
  334.7079 0.01 0
  335.2560 0.30 3
  335.4314 0.07 1
  335.5367 0.05 0
  335.8223 0.02 0
  336.1262 0.11 1
  336.2778 0.09 1
  336.3915 0.02 0
  336.5101 0.03 0
  336.9544 0.06 1
  337.2099 0.20 2
  337.4261 0.03 0
  338.2342 0.08 1
  338.7088 0.02 0
  338.9138 0.02 0
  339.1807 0.13 1
  339.3702 0.08 1
  339.5774 0.03 0
  339.7825 0.10 1
  339.9348 0.02 0
  340.2741 0.17 2
  340.4967 0.03 0
  340.6842 0.02 0
  340.8683 0.02 0
  341.2159 0.31 3
  341.3831 0.12 1
  341.6037 0.13 1
  341.7892 0.05 0
  342.2549 0.21 2
  342.4390 0.05 0
  342.6111 0.02 0
  343.2224 0.60 6
  343.4163 0.07 1
  343.6349 0.04 0
  343.8197 0.03 0
  344.0179 0.04 0
  344.2512 0.23 2
  344.7684 0.02 0
  345.2147 0.41 4
  345.7278 0.02 0
  345.8572 0.05 0
  346.2509 0.38 4
  346.5447 0.02 0
  346.8238 0.02 0
  347.2224 0.35 3
  347.4256 0.17 2
  347.6591 0.02 0
  347.9678 0.04 0
  348.2835 0.33 3
  348.5831 0.04 0
  348.6738 0.01 0
  349.2083 0.24 2
  349.5818 0.05 0
  349.7773 0.04 0
  350.2380 0.09 1
  350.7177 0.02 0
  351.1715 0.12 1
  351.4571 0.05 0
  351.6914 0.04 0
  352.1065 0.07 1
  352.7096 0.06 1
  353.1719 0.14 1
  353.3816 0.02 0
  353.8180 0.02 0
  354.1797 0.10 1
  354.3669 0.04 0
  354.5908 0.07 1
  354.9068 0.06 1
  355.0251 0.05 0
  355.2940 0.38 4
  355.7924 0.03 0
  355.9177 0.04 0
  356.0465 0.04 0
  356.3042 0.23 2
  356.5274 0.02 0
  356.7069 0.05 0
  356.8309 0.05 0
  357.2618 0.50 5
  357.4709 0.05 0
  357.6617 0.02 0
  357.8272 0.02 0
  357.9843 0.01 0
  358.3040 0.26 3
  358.6519 0.03 0
  358.7752 0.02 0
  358.9182 0.06 1
  359.2743 0.36 4
  359.5818 0.04 0
  359.7366 0.03 0
  360.2757 0.15 1
  360.7656 0.03 0
  360.9782 0.03 0
  361.2816 0.21 2
  361.6673 0.02 0
  362.2080 0.20 2
  362.3706 0.10 1
  362.5114 0.02 0
  362.9381 0.06 1
  363.1979 0.22 2
  363.3324 0.16 2
  363.7788 0.03 0
  363.9380 0.06 1
  364.2211 0.09 1
  364.3295 0.09 1
  364.4563 0.03 0
  364.5640 0.01 0
  365.1753 0.09 1
  365.3239 0.10 1
  365.4254 0.03 0
  366.0191 0.07 1
  366.1706 0.08 1
  366.3115 0.03 0
  366.4679 0.05 0
  366.8447 0.03 0
  367.1674 0.11 1
  367.3823 0.08 1
  367.5042 0.03 0
  368.1044 0.03 0
  368.2890 0.02 0
  368.4842 0.03 0
  368.8203 0.01 0
  369.2523 0.12 1
  369.4285 0.06 1
  369.6850 0.03 0
  369.8485 0.02 0
  370.1494 0.09 1
  370.2812 0.05 0
  370.4053 0.07 1
  370.5744 0.03 0
  370.9417 0.07 1
  371.0516 0.08 1
  371.2504 0.20 2
  371.4217 0.12 1
  371.5464 0.03 0
  371.8023 0.03 0
  372.1231 0.01 0
  372.2253 0.01 0
  372.3719 0.05 0
  372.5404 0.04 0
  372.6370 0.03 0
  373.0488 0.11 1
  373.3024 0.19 2
  373.5002 0.06 1
  373.7178 0.02 0
  374.2297 0.16 2
  374.4001 0.05 0
  374.8029 0.05 0
  374.8959 0.03 0
  375.2128 0.22 2
  375.3685 0.09 1
  375.9819 0.02 0
  376.1608 0.04 0
  376.3102 0.12 1
  376.5447 0.05 0
  376.9941 0.02 0
  377.2104 0.09 1
  377.3795 0.06 1
  377.8022 0.01 0
  378.0086 0.02 0
  378.2016 0.07 1
  378.3813 0.11 1
  378.6610 0.02 0
  378.7632 0.02 0
  378.9351 0.02 0
  379.0880 0.03 0
  379.3163 0.13 1
  379.4826 0.04 0
  379.7003 0.02 0
  380.2676 0.30 3
  380.4178 0.07 1
  380.6193 0.02 0
  380.7271 0.03 0
  380.9816 0.05 0
  381.2550 0.13 1
  381.3896 0.10 1
  381.6286 0.04 0
  381.9775 0.11 1
  382.0868 0.06 1
  382.3828 0.06 1
  382.6274 0.04 0
  383.1865 0.20 2
  383.3690 0.22 2
  383.6779 0.01 0
  383.8844 0.05 0
  384.2369 0.17 2
  384.3836 0.15 1
  384.6128 0.03 0
  385.2918 0.29 3
  385.4519 0.08 1
  385.7854 0.01 0
  385.9977 0.01 0
  386.2960 0.16 2
  386.5182 0.02 0
  386.6804 0.05 0
  386.7679 0.02 0
  387.2947 0.27 3
  387.6389 0.02 0
  387.7927 0.05 0
  388.3147 0.19 2
  389.2233 0.08 1
  389.4611 0.06 1
  389.7278 0.06 1
  389.8922 0.03 0
  390.1074 0.02 0
  390.2323 0.04 0
  390.4235 0.01 0
  390.5413 0.01 0
  390.6987 0.02 0
  390.8073 0.03 0
  391.1517 0.07 1
  391.3726 0.08 1
  391.7642 0.02 0
  391.9717 0.01 0
  392.1785 0.01 0
  392.3422 0.01 0
  392.4918 0.01 0
  392.7473 0.03 0
  393.0621 0.04 0
  393.2202 0.04 0
  393.3275 0.07 1
  393.4729 0.05 0
  393.7927 0.03 0
  394.0976 0.09 1
  394.3101 0.05 0
  394.8438 0.09 1
  395.0139 0.05 0
  395.2462 0.13 1
  395.4467 0.10 1
  395.7072 0.01 0
  395.9268 0.02 0
  396.1075 0.04 0
  396.3116 0.10 1
  396.5855 0.05 0
  396.9189 0.06 1
  397.3002 0.22 2
  397.4280 0.11 1
  397.5735 0.03 0
  397.8270 0.03 0
  397.9562 0.01 0
  398.2366 0.08 1
  398.3962 0.12 1
  398.5699 0.02 0
  398.7521 0.01 0
  398.9280 0.02 0
  399.3101 0.25 2
  399.5679 0.08 1
  400.0179 0.01 0
  400.2849 0.15 1
  400.4862 0.07 1
  400.5703 0.03 0
  400.7108 0.02 0
  400.9305 0.02 0
  401.2922 0.30 3
  401.4512 0.11 1
  401.8617 0.02 0
  402.0970 0.04 0
  402.2171 0.08 1
  402.4255 0.11 1
  402.5661 0.03 0
  402.7314 0.03 0
  403.1285 0.06 1
  403.3144 0.11 1
  403.4465 0.07 1
  403.5483 0.04 0
  403.8832 0.02 0
  404.1094 0.16 2
  404.2225 0.06 1
  404.3801 0.07 1
  404.5002 0.04 0
  404.6938 0.04 0
  404.8246 0.03 0
  405.0118 0.02 0
  405.0972 0.01 0
  405.3842 0.03 0
  405.7247 0.09 1
  406.3199 0.08 1
  406.5900 0.08 1
  406.9067 0.03 0
  407.0604 0.02 0
  407.2643 0.04 0
  407.4074 0.04 0
  407.5435 0.01 0
  407.8094 0.03 0
  407.9900 0.03 0
  408.3484 0.11 1
  408.4598 0.05 0
  408.5981 0.02 0
  408.7074 0.03 0
  408.9035 0.02 0
  409.1913 0.10 1
  409.4065 0.23 2
  409.5673 0.05 0
  409.7938 0.06 1
  410.0040 0.04 0
  410.3327 0.12 1
  410.5247 0.04 0
  410.7088 0.02 0
  411.2358 0.36 4
  411.4052 0.22 2
  411.6042 0.02 0
  411.8575 0.14 1
  412.2971 0.91 9
  412.6323 0.08 1
  412.8320 0.02 0
  413.3034 0.32 3
  413.4933 0.14 1
  413.7248 0.04 0
  413.8617 0.01 0
  414.0529 0.07 1
  414.3000 0.27 3
  414.6077 0.05 0
  414.7150 0.03 0
  414.8427 0.02 0
  414.9521 0.02 0
  415.2098 0.21 2
  415.3700 0.19 2
  415.6474 0.02 0
  416.1253 0.14 1
  416.3329 0.12 1
  416.5369 0.04 0
  416.9280 0.07 1
  417.3657 0.42 4
  417.7654 0.02 0
  418.2843 0.06 1
  418.4142 0.08 1
  418.5420 0.08 1
  418.7687 0.04 0
  418.8647 0.01 0
  419.2616 0.13 1
  419.4120 0.09 1
  419.7552 0.03 0
  420.2757 0.08 1
  420.5426 0.05 0
  420.8400 0.05 0
  421.2665 0.08 1
  421.5420 0.01 0
  421.7644 0.04 0
  422.2842 0.14 1
  422.4958 0.05 0
  422.6284 0.03 0
  422.9105 0.05 0
  423.1249 0.02 0
  423.3365 0.13 1
  423.8684 0.03 0
  424.1555 0.11 1
  424.3241 0.08 1
  424.7565 0.14 1
  425.3188 0.36 4
  425.8112 0.01 0
  426.3369 0.38 4
  426.5062 0.19 2
  426.9006 0.12 1
  427.3445 0.37 4
  427.5759 0.16 2
  427.8850 0.08 1
  428.2287 0.12 1
  428.4496 0.06 1
  428.6083 0.05 0
  428.7876 0.03 0
  429.1320 0.12 1
  429.3938 0.14 1
  429.6416 0.06 1
  429.7122 0.03 0
  429.8505 0.03 0
  430.2295 0.07 1
  430.3806 0.08 1
  430.4758 0.04 0
  430.7038 0.11 1
  430.9234 0.03 0
  431.1944 0.07 1
  431.4245 0.09 1
  431.5212 0.04 0
  431.6688 0.02 0
  431.8438 0.03 0
  432.2950 0.08 1
  432.5216 0.05 0
  432.8915 0.08 1
  433.0122 0.01 0
  433.2657 0.19 2
  433.4175 0.12 1
  433.5298 0.07 1
  433.7331 0.04 0
  433.8743 0.04 0
  434.2337 0.23 2
  434.5077 0.13 1
  434.6206 0.04 0
  434.7329 0.03 0
  434.8833 0.03 0
  435.0457 0.06 1
  435.2187 0.10 1
  435.3677 0.08 1
  435.5174 0.04 0
  435.8373 0.05 0
  436.1142 0.05 0
  436.2787 0.05 0
  436.5174 0.08 1
  436.9623 0.04 0
  437.4984 0.10 1
  437.5888 0.05 0
  437.7491 0.08 1
  437.9702 0.07 1
  438.2393 0.10 1
  438.3849 0.09 1
  438.6505 0.10 1
  438.8984 0.05 0
  439.2692 0.17 2
  439.3759 0.08 1
  439.5016 0.16 2
  439.6154 0.04 0
  439.7828 0.10 1
  439.9100 0.09 1
  440.0647 0.02 0
  440.3713 0.10 1
  440.6249 0.10 1
  440.8390 0.17 2
  441.2700 0.29 3
  441.7780 0.19 2
  442.2987 0.68 7
  443.0385 0.77 8
  443.8406 0.35 3
  444.2583 0.23 2
  444.5219 0.15 1
  444.7862 0.15 1
  445.0957 0.08 1
  445.2880 0.14 1
  445.5573 0.08 1
  445.9269 0.10 1
  446.2457 0.28 3
  446.4026 0.16 2
  446.5800 0.07 1
  446.7681 0.08 1
  446.9102 0.11 1
  447.4333 0.17 2
  447.8687 0.11 1
  448.2187 0.14 1
  448.5552 0.13 1
  448.7828 0.12 1
  449.0550 0.10 1
  449.2791 0.09 1
  449.5747 0.09 1
  449.6956 0.03 0
  449.7960 0.01 0
  449.9989 0.12 1
  450.2817 0.07 1
  450.3963 0.04 0
  450.5186 0.02 0
  451.2745 0.21 2
  451.8331 0.10 1
  452.0665 0.04 0
  452.2871 0.13 1
  452.4547 0.04 0
  452.7412 0.05 0
  452.8798 0.03 0
  453.2624 0.26 3
  453.4477 0.11 1
  453.6203 0.01 0
  453.7907 0.04 0
  454.1939 0.18 2
  454.4315 0.11 1
  454.5702 0.10 1
  454.7307 0.15 1
  454.8269 0.05 0
  454.9649 0.11 1
  455.2648 0.18 2
  455.8781 0.21 2
  456.2403 0.23 2
  456.4985 0.24 2
  457.1359 0.43 4
  457.8213 0.30 3
  458.1216 0.29 3
  458.4530 0.16 2
  458.6389 0.15 1
  458.7894 0.04 0
  459.0304 0.13 1
  459.4106 0.20 2
  459.5916 0.18 2
  459.8226 0.13 1
  460.3661 0.22 2
  460.6552 0.15 1
  460.8192 0.02 0
  461.0129 0.04 0
  461.2525 0.12 1
  461.5699 0.07 1
  461.7805 0.07 1
  461.9183 0.02 0
  462.1898 0.08 1
  462.4421 0.09 1
  462.7023 0.14 1
  462.9469 0.09 1
  463.0685 0.06 1
  463.2176 0.09 1
  463.6156 0.17 2
  463.9189 0.18 2
  464.3686 0.47 5
  464.7588 0.27 3
  465.8173 0.81 8
  466.2182 0.53 5
  466.7881 0.21 2
  467.2442 0.43 4
  467.4988 0.29 3
  467.9076 0.14 1
  468.3913 0.36 4
  468.6487 0.13 1
  468.9436 0.09 1
  469.0971 0.10 1
  469.4380 0.29 3
  469.7711 0.08 1
  470.0456 0.11 1
  470.3285 0.25 2
  470.5067 0.17 2
  470.6602 0.09 1
  470.8258 0.12 1
  470.9771 0.09 1
  471.3980 0.21 2
  471.8274 0.07 1
  472.3275 0.18 2
  472.6508 0.07 1
  472.7973 0.03 0
  472.9373 0.09 1
  473.3243 0.16 2
  473.6300 0.16 2
  473.8719 0.09 1
  474.0446 0.08 1
  474.3976 0.12 1
  474.5788 0.08 1
  474.8632 0.15 1
  475.1434 0.13 1
  475.4243 0.07 1
  475.8524 0.16 2
  476.3626 0.57 6
  476.5254 0.24 2
  477.3392 0.23 2
  477.6789 0.29 3
  478.3795 12.15 121
  478.8056 0.31 3
  479.2592 0.20 2
  479.7193 0.08 1
  480.0385 0.09 1
  480.2155 0.12 1
  480.4080 0.20 2
  480.6402 0.12 1
  480.7506 0.05 0
  481.3325 0.18 2
  481.5590 0.17 2
  481.7211 0.09 1
  482.0255 0.10 1
  482.4510 0.30 3
  483.3586 1.53 15
  483.5696 0.92 9
  483.7693 0.19 2
  484.0072 0.16 2
  484.2758 0.17 2
  484.4800 0.17 2
  484.7112 0.15 1
  484.9218 0.12 1
  485.4583 0.26 3
  485.9560 0.15 1
  486.2826 0.63 6
  486.4565 0.57 6
  486.6827 0.16 2
  486.9280 0.11 1
  487.3875 0.28 3
  487.6138 0.13 1
  487.8874 0.11 1
  488.1101 0.14 1
  488.2932 0.09 1
  488.4473 0.10 1
  488.7153 0.02 0
  488.9889 0.15 1
  489.3064 0.10 1
  489.5871 0.05 0
  489.8883 0.04 0
  490.0255 0.03 0
  490.4109 0.24 2
  490.5706 0.09 1
  490.7658 0.03 0
  490.8952 0.01 0
  491.4298 0.80 8
  491.9369 0.05 0
  492.2792 0.05 0
  492.4793 0.02 0
  492.6731 0.01 0
  492.8181 0.06 1
  492.9404 0.02 0
  493.3853 0.26 3
  493.7170 0.05 0
  493.8790 0.14 1
  494.3776 0.48 5
  494.5785 0.28 3
  494.6810 0.07 1
  494.9817 0.07 1
  495.3077 0.13 1
  495.5376 0.13 1
  495.8814 0.07 1
  496.0427 0.06 1
  496.3752 0.27 3
  496.5562 0.20 2
  496.7628 0.07 1
  496.9651 0.16 2
  497.3620 0.21 2
  497.7079 0.08 1
  497.8261 0.08 1
  497.9527 0.09 1
  498.3843 0.41 4
  498.6029 0.20 2
  498.9546 0.07 1
  499.2786 0.11 1
  499.5941 0.09 1
  499.7159 0.08 1
  500.3583 0.89 9
  500.7921 0.11 1
  501.3752 5.80 58
  501.8132 0.13 1
  502.0623 0.22 2
  502.3085 0.24 2
  502.5555 0.17 2
  502.8259 0.03 0
  503.0311 0.08 1
  503.2795 0.07 1
  503.6341 0.10 1
  503.7919 0.10 1
  503.9589 0.04 0
  504.1252 0.03 0
  504.2972 0.02 0
  504.5379 0.04 0
  504.9342 0.06 1
  505.2492 0.05 0
  505.5245 0.07 1
  505.6484 0.05 0
  505.9046 0.02 0
  506.1156 0.05 0
  506.2090 0.02 0
  506.4695 0.01 0
  506.6981 0.03 0
  507.0089 0.04 0
  507.2021 0.06 1
  507.4888 0.03 0
  507.7883 0.05 0
  507.9461 0.04 0
  508.5720 0.11 1
  508.7164 0.05 0
  508.9104 0.07 1
  509.4144 0.25 2
  509.8024 0.08 1
  510.3737 1.72 17
  511.3949 0.55 5
  511.6675 0.10 1
  511.7770 0.06 1
  512.3802 0.45 4
  512.8372 0.05 0
  513.1353 0.04 0
  513.4150 0.15 1
  513.5732 0.06 1
  513.9399 0.12 1
  514.0218 0.04 0
  514.2006 0.18 2
  514.3976 0.26 3
  514.5587 0.13 1
  514.8010 0.07 1
  515.4057 0.36 4
  515.5449 0.16 2
  515.7914 0.06 1
  516.2775 0.20 2
  516.5552 0.06 1
  516.6838 0.04 0
  516.8180 0.02 0
  517.0448 0.02 0
  517.2271 0.01 0
  517.4221 0.01 0
  517.6058 0.03 0
  517.7513 0.02 0
  518.2000 0.02 0
  518.5985 0.01 0
  518.7490 0.03 0
  518.9229 0.03 0
  519.0564 0.02 0
  519.3630 0.07 1
  519.4995 0.03 0
  519.6302 0.05 0
  520.0075 0.02 0
  520.1531 0.03 0
  520.3870 0.06 1
  520.4697 0.03 0
  520.6478 0.04 0
  520.8513 0.04 0
  521.0704 0.02 0
  521.2788 0.12 1
  521.3842 0.05 0
  521.5580 0.02 0
  521.7452 0.05 0
  521.8350 0.03 0
  522.0400 0.03 0
  522.2039 0.12 1
  522.4605 0.10 1
  522.7255 0.05 0
  522.9849 0.04 0
  523.1368 0.07 1
  523.3644 0.03 0
  523.6083 0.10 1
  523.8479 0.07 1
  524.0833 0.04 0
  524.4557 0.08 1
  524.6410 0.05 0
  524.9216 0.06 1
  525.2496 0.09 1
  525.4758 0.09 1
  525.7359 0.07 1
  526.2512 0.23 2
  526.4393 0.07 1
  526.5750 0.14 1
  526.8719 0.12 1
  526.9850 0.05 0
  527.3583 0.18 2
  527.5972 0.12 1
  527.7719 0.09 1
  528.3148 0.24 2
  528.5015 0.19 2
  528.6796 0.16 2
  528.8557 0.13 1
  529.0105 0.09 1
  529.1894 0.06 1
  529.4269 0.06 1
  529.7515 0.11 1
  530.0004 0.08 1
  530.1602 0.03 0
  530.3228 0.05 0
  530.4649 0.05 0
  530.6530 0.17 2
  530.8312 0.05 0
  531.0433 0.06 1
  531.1904 0.06 1
  531.3983 0.09 1
  531.5178 0.06 1
  531.6917 0.09 1
  531.7935 0.08 1
  531.9838 0.04 0
  532.1959 0.07 1
  532.4957 0.03 0
  532.6760 0.05 0
  532.8359 0.09 1
  533.1760 0.10 1
  533.3458 0.21 2
  533.5607 0.06 1
  533.8054 0.06 1
  534.4355 0.54 5
  534.5954 0.29 3
  534.7531 0.13 1
  535.1216 0.13 1
  535.3564 0.08 1
  535.6160 0.05 0
  535.8423 0.11 1
  536.0467 0.08 1
  536.4584 0.13 1
  536.7285 0.05 0
  536.9634 0.08 1
  537.4309 0.60 6
  537.7011 0.20 2
  537.9586 0.14 1
  538.2557 0.07 1
  538.5620 0.06 1
  538.7778 0.02 0
  539.1329 0.08 1
  539.4151 0.05 0
  539.8113 0.14 1
  539.9712 0.10 1
  540.3928 0.99 10
  540.7126 0.28 3
  541.1314 0.30 3
  541.6649 0.43 4
  542.4523 0.34 3
  542.8655 0.37 4
  543.2476 0.29 3
  543.4005 0.23 2
  543.8349 0.41 4
  544.3875 0.38 4
  544.7958 0.37 4
  545.2742 0.47 5
  545.6677 0.31 3
  546.1340 0.50 5
  546.5925 0.44 4
  546.8947 0.38 4
  547.1665 0.40 4
  547.8381 0.60 6
  548.6166 0.77 8
  551.4805 2.21 22
  552.4786 27.00 270
  552.9515 1.59 16
  553.4520 1.14 11
  554.3325 2.05 20
  554.6315 0.94 9
  555.4357 2.07 21
  555.9968 0.79 8
  556.5396 0.60 6
  557.2464 0.64 6
  557.8302 0.60 6
  558.2324 0.61 6
  558.9336 0.65 6
  559.7557 0.79 8
  560.6428 0.69 7
  561.6155 0.78 8
  570.4315 99.97 999
  571.3432 27.93 279
  572.1445 12.11 121
  572.9714 6.07 61
  573.8449 2.82 28
  574.7737 1.65 16
  575.5151 1.04 10
  575.8008 0.71 7
//
