ACCESSION: MSBNK-Kyoto_Univ-CA000117
RECORD_TITLE: 3'-Epigobiusxanthin; FAB-EBEB; MS2; m/z: 582.41; [M]*+
DATE: 2016.01.19 (Created 2007.10.06, modified 2011.05.10)
AUTHORS: Akimoto N, Graduate School of Pharmaceutical Sciences, Kyoto University and Maoka T, Research Institute for Production Development
LICENSE: CC BY-SA
COMMENT: Profile spectrum of this record is given as a JPEG file.
COMMENT: [Profile] CA000117.jpg
CH$NAME: 3'-Epigobiusxanthin
CH$COMPOUND_CLASS: Natural Product; Carotenoid
CH$FORMULA: C40H54O3
CH$EXACT_MASS: 582.40730
CH$SMILES: C(C=C(C)C=CC=C(C#CC(=C2C)C(C)(C)CC(C2)O)C)=CC=C(C)C=CC=C(C)C=CC(O)(C1(C)C)C(=CC(O)C1)C
CH$IUPAC: InChI=1S/C40H54O3/c1-29(17-13-19-31(3)21-22-37-33(5)25-35(41)27-38(37,7)8)15-11-12-16-30(2)18-14-20-32(4)23-24-40(43)34(6)26-36(42)28-39(40,9)10/h11-20,23-24,26,35-36,41-43H,25,27-28H2,1-10H3/b12-11+,17-13+,18-14+,24-23+,29-15+,30-16+,31-19+,32-20+/t35-,36+,40+/m1/s1
CH$LINK: CHEMSPIDER 8850139
CH$LINK: PUBCHEM CID:10674789
CH$LINK: INCHIKEY HBQMPUHSZHRZGF-WOOBQVQJSA-N
AC$INSTRUMENT: JMS-HX/HX 110A, JEOL
AC$INSTRUMENT_TYPE: FAB-EBEB
AC$MASS_SPECTROMETRY: MS_TYPE MS2
AC$MASS_SPECTROMETRY: ION_MODE POSITIVE
AC$MASS_SPECTROMETRY: ATOM_GUN_CURRENT 5 mA
AC$MASS_SPECTROMETRY: BOMBARDMENT 6 kV xenon
AC$MASS_SPECTROMETRY: COLLISION_ENERGY 3 kV
AC$MASS_SPECTROMETRY: COLLISION_GAS Ar
AC$MASS_SPECTROMETRY: GAS_PRESSURE adjust to attenuate the intensity of the precursor ion by 30 %
AC$MASS_SPECTROMETRY: IONIZATION FAB
AC$MASS_SPECTROMETRY: PROBE_TIP stainless-steel
MS$FOCUSED_ION: BASE_PEAK 582.3651
MS$FOCUSED_ION: PRECURSOR_M/Z 582.41
MS$FOCUSED_ION: PRECURSOR_TYPE [M]+*
PK$SPLASH: splash10-069u-3930020000-4828457436e1a0bd4689
PK$NUM_PEAK: 1741
PK$PEAK: m/z int. rel.int.
  2.2274 0.03 0
  11.9725 0.03 0
  12.9781 0.06 1
  13.9922 0.16 2
  14.9796 0.42 4
  15.9969 0.01 0
  18.9959 0.01 0
  22.9459 0.19 2
  24.9766 0.11 1
  25.3911 0.03 0
  25.9729 0.36 4
  26.9747 4.71 47
  27.9712 0.31 3
  28.9826 4.72 47
  29.9636 0.17 2
  30.5411 0.01 0
  30.6896 0.01 0
  30.9703 0.74 7
  35.9328 0.01 0
  36.2779 0.01 0
  36.9640 0.55 5
  37.1702 0.01 0
  37.3879 0.01 0
  37.8043 0.05 0
  37.9790 1.83 18
  38.2689 0.02 0
  38.6277 0.05 0
  38.9735 12.10 121
  39.2033 0.03 0
  39.3082 0.02 0
  39.9916 1.37 14
  40.3898 0.01 0
  40.8168 0.05 0
  40.9976 24.65 246
  41.3039 0.03 0
  41.9895 0.96 10
  42.9829 27.03 270
  43.1593 0.05 0
  43.9676 0.29 3
  44.9907 1.13 11
  46.6697 0.01 0
  46.9625 0.11 1
  47.9465 0.07 1
  48.4416 0.03 0
  48.9611 0.27 3
  49.0979 0.01 0
  49.4051 0.04 0
  49.7024 0.03 0
  49.9684 3.71 37
  50.3008 0.01 0
  50.4733 0.01 0
  50.9734 6.91 69
  51.5362 0.02 0
  51.6824 0.02 0
  51.9769 2.76 28
  52.9876 13.27 133
  53.9901 0.67 7
  54.6986 0.02 0
  54.9909 24.95 249
  55.2513 0.04 0
  55.3677 0.01 0
  55.7646 0.03 0
  55.9899 0.71 7
  56.6618 0.05 0
  57.0108 8.53 85
  57.1646 0.08 1
  57.9790 0.17 2
  58.9900 4.04 40
  59.7399 0.01 0
  59.9701 0.08 1
  60.9650 0.97 10
  61.2523 0.04 0
  61.3704 0.03 0
  61.4846 0.04 0
  61.5622 0.01 0
  61.9646 2.52 25
  62.2341 0.02 0
  62.4338 0.06 1
  62.6911 0.03 0
  62.9716 7.20 72
  63.2356 0.08 1
  63.3529 0.01 0
  63.6011 0.03 0
  63.7588 0.04 0
  63.9811 1.31 13
  64.2507 0.02 0
  64.3809 0.01 0
  64.5234 0.03 0
  64.7307 0.06 1
  64.9786 9.02 90
  65.3451 0.04 0
  65.4420 0.03 0
  65.9824 2.26 23
  66.3927 0.02 0
  66.5047 0.05 0
  66.9895 14.65 146
  67.2204 0.10 1
  67.5474 0.02 0
  67.9955 0.69 7
  68.1737 0.06 1
  68.3366 0.05 0
  68.4865 0.02 0
  68.6422 0.04 0
  68.7431 0.02 0
  68.9869 21.87 219
  69.7236 0.02 0
  69.9803 3.66 37
  70.9869 8.56 86
  71.2350 0.04 0
  71.6931 0.02 0
  72.0075 0.24 2
  72.3946 0.02 0
  72.9651 0.25 2
  73.3882 0.03 0
  73.9571 2.39 24
  74.9687 2.81 28
  75.2113 0.10 1
  75.3210 0.16 2
  75.4103 0.07 1
  75.4769 0.03 0
  75.9649 1.69 17
  76.3300 0.08 1
  76.5397 0.16 2
  76.9782 29.04 290
  77.3880 0.17 2
  77.6124 0.11 1
  77.9906 5.68 57
  78.1784 0.15 1
  78.3286 0.08 1
  78.5932 0.08 1
  78.9949 25.33 253
  79.1880 0.14 1
  79.6625 0.06 1
  80.0057 3.88 39
  80.6290 0.04 0
  81.0111 24.66 246
  81.3081 0.08 1
  81.6059 0.01 0
  81.9837 1.34 13
  82.1671 0.07 1
  82.4472 0.02 0
  82.5557 0.01 0
  82.7095 0.02 0
  82.9984 10.21 102
  83.6867 0.03 0
  84.0044 0.33 3
  84.3416 0.03 0
  84.6077 0.02 0
  85.0006 10.38 104
  85.3350 0.06 1
  85.4618 0.06 1
  85.6180 0.03 0
  85.9590 1.20 12
  86.4111 0.01 0
  86.5985 0.03 0
  86.7329 0.07 1
  86.9632 1.69 17
  87.6696 0.03 0
  87.8285 0.15 1
  87.9905 0.77 8
  88.2047 0.05 0
  88.4001 0.03 0
  88.5121 0.12 1
  88.5999 0.09 1
  88.6902 0.10 1
  88.9804 4.16 42
  89.2557 0.20 2
  89.9934 1.74 17
  90.1879 0.27 3
  90.5090 0.26 3
  91.0003 52.28 522
  91.3067 0.14 1
  91.5287 0.09 1
  91.7080 0.03 0
  92.0119 5.14 51
  92.2037 0.08 1
  92.4163 0.06 1
  92.5801 0.07 1
  93.0174 29.47 294
  93.2788 0.16 2
  93.4447 0.05 0
  93.5923 0.04 0
  94.0196 1.81 18
  94.2306 0.08 1
  94.5323 0.23 2
  94.6464 0.19 2
  95.0245 23.49 235
  95.4994 0.17 2
  95.6408 0.06 1
  95.9950 1.60 16
  96.3059 0.08 1
  96.6181 0.03 0
  97.0009 8.85 88
  97.2044 0.09 1
  97.3858 0.10 1
  97.4932 0.02 0
  97.5796 0.01 0
  97.9996 10.14 101
  98.2029 0.07 1
  98.3414 0.06 1
  98.5003 0.04 0
  98.6017 0.01 0
  98.9960 2.20 22
  99.2548 0.09 1
  99.4295 0.02 0
  99.7754 0.05 0
  99.9962 0.37 4
  100.4325 0.03 0
  100.6046 0.05 0
  101.0028 1.35 13
  101.2808 0.25 2
  101.5203 0.06 1
  101.9984 3.48 35
  102.2407 0.28 3
  102.3597 0.08 1
  102.5673 0.22 2
  103.0064 9.23 92
  103.3547 0.17 2
  103.5576 0.15 1
  104.0182 4.11 41
  104.2533 0.16 2
  105.0269 57.61 576
  105.4548 0.12 1
  105.5808 0.08 1
  105.6812 0.08 1
  106.0312 5.05 50
  106.2816 0.11 1
  106.4360 0.15 1
  107.0310 22.94 229
  107.3670 0.09 1
  107.5145 0.13 1
  108.0186 2.17 22
  108.2719 0.03 0
  108.5164 0.10 1
  108.6811 0.03 0
  109.0491 17.85 178
  109.3065 0.09 1
  109.5024 0.04 0
  110.0058 1.37 14
  110.2132 0.04 0
  110.5689 0.11 1
  110.6749 0.05 0
  110.9993 10.38 104
  111.3207 0.02 0
  111.4692 0.08 1
  112.0077 0.72 7
  112.1715 0.05 0
  112.3398 0.05 0
  112.4936 0.16 2
  112.6778 0.14 1
  112.9969 2.59 26
  113.2852 0.30 3
  113.4753 0.21 2
  113.9909 1.30 13
  114.3272 0.30 3
  114.9908 29.93 299
  115.3645 0.21 2
  115.9961 10.68 107
  116.3176 0.35 3
  116.5519 0.25 2
  117.0061 23.03 230
  117.4320 0.09 1
  117.6215 0.13 1
  118.0133 4.26 43
  118.2399 0.10 1
  118.4953 0.13 1
  119.0180 42.28 423
  119.4669 0.29 3
  120.0211 3.52 35
  120.3207 0.16 2
  120.4418 0.22 2
  120.6263 0.11 1
  121.0198 17.22 172
  121.3930 0.16 2
  121.5553 0.07 1
  121.9897 2.58 26
  122.3602 0.13 1
  122.4791 0.11 1
  122.5472 0.03 0
  122.6551 0.04 0
  123.0060 9.83 98
  123.2934 0.11 1
  123.4594 0.02 0
  123.9960 1.32 13
  124.1731 0.17 2
  124.4893 0.05 0
  124.6026 0.12 1
  125.0099 3.77 38
  125.2040 0.07 1
  125.4438 0.16 2
  125.5825 0.13 1
  125.9806 2.15 21
  126.2027 0.09 1
  126.3667 0.14 1
  126.5424 0.23 2
  126.9733 11.68 117
  127.2570 0.40 4
  127.9782 32.03 320
  128.3963 0.34 3
  128.9896 36.35 363
  129.3558 0.24 2
  129.4925 0.17 2
  129.9919 12.84 128
  130.3708 0.23 2
  130.6292 0.19 2
  130.9987 27.60 276
  131.2300 0.24 2
  131.4749 0.12 1
  131.6491 0.06 1
  132.0061 6.54 65
  132.4107 0.17 2
  133.0127 24.21 242
  133.3735 0.28 3
  133.5038 0.15 1
  133.9971 2.58 26
  134.2214 0.20 2
  134.3284 0.06 1
  134.4464 0.06 1
  134.5468 0.05 0
  134.9996 10.25 102
  135.2418 0.08 1
  135.4142 0.05 0
  135.5154 0.07 1
  135.9844 1.48 15
  136.4769 0.16 2
  136.7079 0.14 1
  137.0057 6.37 64
  137.3213 0.07 1
  137.4720 0.13 1
  137.6443 0.10 1
  137.9935 1.74 17
  138.2301 0.10 1
  138.4248 0.13 1
  138.6327 0.09 1
  138.9790 7.73 77
  139.2737 0.07 1
  139.5251 0.20 2
  139.9867 1.80 18
  140.9790 26.58 266
  141.4018 0.30 3
  141.5249 0.12 1
  141.9934 23.25 232
  142.3555 0.31 3
  142.5254 0.20 2
  142.9983 34.89 349
  143.3087 0.25 2
  144.0116 10.31 103
  144.3170 0.27 3
  145.0166 33.40 334
  145.3072 0.24 2
  145.4921 0.20 2
  145.9910 3.92 39
  146.2435 0.11 1
  147.0185 12.02 120
  147.4870 0.27 3
  148.0127 1.14 11
  148.3512 0.08 1
  148.5115 0.44 4
  149.0151 5.76 58
  149.5668 0.13 1
  149.9993 2.04 20
  150.2494 0.29 3
  150.5395 0.20 2
  151.0002 7.96 80
  151.3324 0.44 4
  151.9782 13.94 139
  153.0017 19.31 193
  153.3125 0.35 3
  153.3883 0.17 2
  153.5854 0.28 3
  154.0128 9.56 96
  154.2419 0.27 3
  154.4064 0.31 3
  154.5743 0.22 2
  155.0168 27.73 277
  155.3408 0.24 2
  155.5548 0.18 2
  156.0377 17.09 171
  156.3113 0.13 1
  157.0442 29.81 298
  157.4442 0.27 3
  157.5378 0.16 2
  157.6707 0.27 3
  158.0369 7.15 71
  158.5168 0.15 1
  159.0538 16.46 164
  159.3441 0.15 1
  159.5515 0.23 2
  160.0521 2.22 22
  160.3809 0.14 1
  160.4753 0.10 1
  161.0406 5.61 56
  161.3649 0.14 1
  161.5935 0.15 1
  161.7698 0.20 2
  162.0480 1.46 15
  162.3042 0.14 1
  162.4430 0.12 1
  163.0287 3.80 38
  163.2468 0.20 2
  164.0243 3.28 33
  164.3178 0.61 6
  165.0253 30.27 302
  165.5430 0.25 2
  166.0406 9.60 96
  167.0514 21.38 214
  167.5847 0.21 2
  168.0595 7.67 77
  168.4995 0.19 2
  169.0676 23.54 235
  169.3612 0.20 2
  169.5130 0.14 1
  170.0783 8.88 89
  170.3331 0.23 2
  170.5557 0.24 2
  171.0716 15.11 151
  171.3757 0.45 4
  172.0838 3.74 37
  172.4023 0.22 2
  172.5060 0.08 1
  172.5916 0.05 0
  173.0799 9.39 94
  173.3548 0.17 2
  173.5260 0.07 1
  173.6878 0.18 2
  174.0632 1.98 20
  174.3990 0.03 0
  174.5575 0.10 1
  174.6891 0.17 2
  175.0628 2.99 30
  175.3158 0.24 2
  176.0299 3.23 32
  176.3257 0.10 1
  176.5148 0.18 2
  177.0470 4.23 42
  177.3085 0.34 3
  178.0135 16.79 168
  179.0306 25.74 257
  180.0457 10.14 101
  180.4174 0.25 2
  181.0466 20.66 206
  181.3827 0.25 2
  181.5487 0.10 1
  181.6842 0.15 1
  182.0516 9.10 91
  182.3973 0.25 2
  183.0551 17.41 174
  183.4988 0.16 2
  184.0634 4.38 44
  185.0601 8.10 81
  185.2883 0.27 3
  185.3949 0.08 1
  185.5845 0.15 1
  186.0472 1.47 15
  186.2789 0.17 2
  186.4006 0.14 1
  187.0465 3.59 36
  187.5804 0.28 3
  188.0328 1.85 18
  188.3499 0.35 3
  188.5962 0.41 4
  189.0169 11.06 111
  189.5684 0.43 4
  190.0112 4.46 45
  190.2735 0.37 4
  191.0231 15.81 158
  191.4096 0.21 2
  192.0280 11.35 113
  192.3322 0.35 3
  192.4175 0.18 2
  193.0268 21.86 218
  193.2998 0.17 2
  193.4670 0.24 2
  194.0377 11.20 112
  195.0335 19.97 200
  195.4503 0.26 3
  196.0524 6.42 64
  196.4161 0.35 3
  196.5289 0.23 2
  197.0528 13.50 135
  197.4167 0.31 3
  197.5706 0.19 2
  198.0523 3.19 32
  198.3274 0.19 2
  198.5211 0.15 1
  199.0544 4.34 43
  199.3208 0.33 3
  199.5673 0.10 1
  200.0098 1.76 18
  200.3709 0.31 3
  201.0500 2.95 29
  201.2988 0.28 3
  201.5196 0.41 4
  201.9940 10.41 104
  202.4488 0.34 3
  203.0175 10.71 107
  203.4882 0.40 4
  204.0188 5.03 50
  204.3374 0.40 4
  205.0234 12.11 121
  205.4994 0.17 2
  206.0292 8.61 86
  206.2972 0.38 4
  207.0396 19.76 197
  207.4528 0.32 3
  208.0443 7.55 75
  208.4302 0.30 3
  209.0523 14.62 146
  209.4563 0.30 3
  209.6731 0.31 3
  210.0559 3.26 33
  210.4622 0.28 3
  211.0525 6.06 61
  211.4555 0.26 3
  211.6925 0.26 3
  212.0578 1.28 13
  212.3838 0.23 2
  213.0311 4.00 40
  213.4870 0.21 2
  214.0408 1.45 14
  214.2706 0.49 5
  215.0165 9.46 95
  215.3084 0.17 2
  215.5694 0.24 2
  216.0216 5.55 55
  216.3081 0.27 3
  217.0416 11.32 113
  217.3608 0.30 3
  217.6088 0.37 4
  218.0400 5.22 52
  218.3621 0.22 2
  219.0410 11.72 117
  219.5305 0.20 2
  220.0499 6.53 65
  220.3688 0.12 1
  220.5549 0.27 3
  221.0753 12.51 125
  221.3265 0.47 5
  221.6629 0.11 1
  222.0796 3.38 34
  222.5206 0.21 2
  223.0913 8.70 87
  223.6281 0.12 1
  224.0715 2.11 21
  224.5961 0.42 4
  225.1035 3.54 35
  225.3912 0.22 2
  225.5555 0.31 3
  226.0443 3.20 32
  226.2995 0.24 2
  227.0605 4.07 41
  227.2991 0.55 5
  227.6315 0.52 5
  228.0479 3.63 36
  228.4984 0.35 3
  229.0663 9.57 96
  229.5003 0.05 0
  230.0593 5.01 50
  230.4475 0.25 2
  230.5550 0.14 1
  231.0821 11.32 113
  231.4920 0.22 2
  232.0831 5.63 56
  233.0811 11.05 110
  233.4532 0.34 3
  234.0912 3.90 39
  234.5690 0.30 3
  235.0928 7.72 77
  235.4485 0.19 2
  236.1134 2.02 20
  236.4268 0.13 1
  237.0997 4.62 46
  237.5426 0.26 3
  238.0905 1.56 16
  238.4091 0.23 2
  239.0553 5.36 54
  239.4887 0.37 4
  240.0775 1.75 17
  240.4930 0.28 3
  240.6294 0.30 3
  241.0547 4.61 46
  241.4238 0.10 1
  242.0623 2.65 26
  242.3966 0.25 2
  243.0633 7.76 78
  244.0765 4.25 42
  244.4919 0.29 3
  245.0768 9.02 90
  245.4819 0.16 2
  246.0823 4.86 49
  246.4659 0.30 3
  246.6047 0.22 2
  247.1070 9.08 91
  247.3714 0.31 3
  247.6324 0.33 3
  248.1090 2.70 27
  248.4622 0.22 2
  248.5871 0.11 1
  249.1254 5.00 50
  249.5806 0.22 2
  250.1183 1.56 16
  250.4151 0.23 2
  250.7127 0.18 2
  251.1206 2.71 27
  251.5343 0.19 2
  252.0765 3.24 32
  252.3742 0.26 3
  252.6251 0.14 1
  253.0970 3.56 36
  253.5220 0.24 2
  254.0968 2.40 24
  254.4982 0.29 3
  255.1116 4.89 49
  255.3747 0.27 3
  255.5356 0.22 2
  256.0918 3.18 32
  257.1132 6.80 68
  257.4222 0.34 3
  257.6172 0.16 2
  258.1094 3.24 32
  259.1241 6.52 65
  259.5221 0.15 1
  259.7291 0.19 2
  260.1160 3.20 32
  260.3531 0.39 4
  261.1208 7.23 72
  261.4819 0.12 1
  262.0909 1.63 16
  262.5459 0.27 3
  263.1138 3.64 36
  263.4632 0.04 0
  263.6733 0.18 2
  264.1209 1.85 18
  264.3997 0.22 2
  264.6183 0.15 1
  265.1038 3.13 31
  265.4871 0.26 3
  265.6644 0.35 3
  266.1038 2.17 22
  266.4227 0.25 2
  266.7353 0.23 2
  267.1251 5.07 51
  267.4925 0.16 2
  267.6313 0.27 3
  268.1214 2.15 21
  268.4279 0.09 1
  268.6018 0.08 1
  269.1160 5.20 52
  269.6071 0.14 1
  269.7684 0.22 2
  270.1248 2.79 28
  270.3845 0.36 4
  270.4911 0.16 2
  270.6638 0.15 1
  271.1178 4.99 50
  271.4407 0.22 2
  271.5916 0.21 2
  272.1245 1.96 20
  272.4278 0.21 2
  273.1356 5.50 55
  273.5120 0.27 3
  274.1020 1.40 14
  275.1004 3.16 32
  275.5469 0.18 2
  276.1037 1.32 13
  276.5187 0.32 3
  276.6037 0.16 2
  277.1354 2.74 27
  277.6474 0.20 2
  278.0696 1.00 10
  278.2235 0.53 5
  278.3640 0.07 1
  278.6823 0.21 2
  279.1117 2.80 28
  279.4153 0.10 1
  279.5369 0.06 1
  280.1069 1.29 13
  280.3347 0.23 2
  281.1389 4.62 46
  281.4420 0.27 3
  281.6663 0.44 4
  282.1333 2.23 22
  282.3780 0.20 2
  282.5264 0.38 4
  282.7346 0.24 2
  283.1447 4.19 42
  283.5028 0.24 2
  283.6534 0.07 1
  283.7554 0.04 0
  284.1403 1.99 20
  285.1353 3.95 39
  285.5619 0.28 3
  286.1391 1.04 10
  286.4440 0.09 1
  286.6876 0.15 1
  287.1460 2.88 29
  287.5291 0.13 1
  288.1474 0.89 9
  288.4236 0.14 1
  288.7814 0.23 2
  289.1731 2.37 24
  289.5627 0.19 2
  290.1271 0.68 7
  290.5260 0.11 1
  290.7198 0.09 1
  291.1455 1.50 15
  291.4601 0.12 1
  291.6008 0.15 1
  292.1292 0.80 8
  292.3558 0.27 3
  292.4790 0.14 1
  292.6000 0.06 1
  293.1525 2.48 25
  293.4995 0.18 2
  293.8382 0.22 2
  294.1648 1.58 16
  294.4817 0.09 1
  295.1527 3.27 33
  295.5069 0.11 1
  295.6168 0.17 2
  296.1676 1.24 12
  296.4198 0.22 2
  297.1292 2.61 26
  297.4758 0.05 0
  297.6322 0.07 1
  298.1177 1.02 10
  298.5124 0.23 2
  299.1417 2.98 30
  299.6203 0.04 0
  300.1321 0.88 9
  300.3733 0.24 2
  301.1729 1.83 18
  301.7081 0.20 2
  302.1327 0.77 8
  302.4931 0.18 2
  302.6271 0.13 1
  302.7167 0.07 1
  303.1188 1.36 14
  303.4229 0.05 0
  303.7354 0.09 1
  304.1573 0.65 6
  304.4968 0.23 2
  304.7367 0.20 2
  305.1255 1.21 12
  305.4636 0.16 2
  305.7460 0.11 1
  306.1413 0.72 7
  306.4865 0.24 2
  306.6863 0.09 1
  307.1551 2.07 21
  307.5357 0.22 2
  307.7016 0.13 1
  308.1437 0.99 10
  308.3287 0.32 3
  308.4347 0.17 2
  308.6140 0.07 1
  309.1141 1.40 14
  309.4977 0.07 1
  309.7139 0.19 2
  309.8735 0.24 2
  310.1328 0.92 9
  310.4380 0.03 0
  310.6281 0.08 1
  311.1361 2.45 24
  311.3552 0.26 3
  311.6019 0.06 1
  311.7142 0.13 1
  312.1270 0.94 9
  312.2782 0.67 7
  312.4769 0.25 2
  312.6797 0.18 2
  313.1314 1.76 18
  313.5153 0.10 1
  313.6907 0.07 1
  314.1714 0.57 6
  314.6304 0.16 2
  315.1509 1.88 19
  315.6353 0.18 2
  315.9543 0.29 3
  316.1340 0.59 6
  316.2430 0.30 3
  316.5924 0.11 1
  316.7856 0.19 2
  317.1570 1.55 15
  317.5136 0.14 1
  317.6664 0.09 1
  318.1285 0.41 4
  318.3712 0.14 1
  318.5474 0.13 1
  318.6592 0.11 1
  319.1242 1.53 15
  319.5255 0.04 0
  319.6862 0.20 2
  319.7790 0.11 1
  320.2037 0.55 5
  320.4840 0.06 1
  320.5768 0.04 0
  321.1404 1.57 16
  321.3932 0.25 2
  321.5426 0.16 2
  321.7366 0.09 1
  321.8931 0.05 0
  322.1856 0.65 6
  322.4809 0.08 1
  323.1672 1.49 15
  323.4930 0.16 2
  323.7190 0.23 2
  323.8423 0.13 1
  324.1873 0.37 4
  324.4926 0.03 0
  324.6443 0.27 3
  325.1488 1.09 11
  325.5201 0.10 1
  325.7993 0.10 1
  326.1558 0.66 7
  326.3996 0.15 1
  326.4945 0.07 1
  326.7752 0.20 2
  327.1807 1.61 16
  327.5365 0.17 2
  327.6514 0.02 0
  327.8272 0.08 1
  328.1455 0.38 4
  328.4255 0.11 1
  328.6290 0.02 0
  328.7297 0.02 0
  329.1807 1.26 13
  329.6026 0.07 1
  329.8260 0.09 1
  330.1863 0.64 6
  330.6175 0.18 2
  331.1793 1.73 17
  331.5284 0.03 0
  331.7397 0.11 1
  332.1526 0.78 8
  332.3130 0.20 2
  332.4478 0.13 1
  332.5699 0.13 1
  333.1957 2.39 24
  333.3802 0.74 7
  333.7740 0.10 1
  334.2126 1.35 13
  334.5022 0.17 2
  334.6112 0.15 1
  335.2018 1.70 17
  335.5772 0.12 1
  335.7337 0.13 1
  335.9236 0.14 1
  336.2175 0.75 7
  336.5582 0.10 1
  336.7807 0.13 1
  337.1674 1.12 11
  337.5316 0.10 1
  337.6528 0.07 1
  337.9270 0.19 2
  338.2005 0.39 4
  338.3592 0.23 2
  338.4740 0.07 1
  338.6348 0.09 1
  338.7666 0.11 1
  339.1989 1.27 13
  339.4463 0.12 1
  339.6638 0.03 0
  339.8531 0.05 0
  340.1912 0.23 2
  340.4549 0.10 1
  340.6923 0.15 1
  341.1971 1.26 13
  341.5657 0.07 1
  342.0096 0.25 2
  342.2166 0.34 3
  342.4357 0.18 2
  342.6122 0.09 1
  343.1682 1.02 10
  343.5576 0.13 1
  343.6632 0.11 1
  343.7732 0.11 1
  344.0994 0.56 6
  344.2845 0.22 2
  344.4987 0.04 0
  344.6895 0.04 0
  345.2024 1.66 17
  345.5011 0.16 2
  345.7749 0.16 2
  346.1878 1.27 13
  346.5036 0.05 0
  347.1947 2.23 22
  348.1513 0.65 6
  348.4324 0.07 1
  348.6148 0.09 1
  349.1976 0.87 9
  349.6448 0.17 2
  349.7229 0.07 1
  349.8606 0.07 1
  350.0139 0.31 3
  350.1872 0.30 3
  350.5549 0.03 0
  350.8091 0.11 1
  351.1656 0.92 9
  351.3161 0.27 3
  351.4652 0.04 0
  351.5959 0.06 1
  351.7074 0.07 1
  352.1768 0.44 4
  352.4608 0.03 0
  352.7691 0.09 1
  352.8834 0.13 1
  353.2130 0.81 8
  353.7159 0.03 0
  354.1414 0.48 5
  354.5456 0.08 1
  354.7133 0.07 1
  354.9158 0.24 2
  355.2170 0.62 6
  355.5126 0.06 1
  355.6909 0.03 0
  355.8025 0.06 1
  356.1422 0.46 5
  356.3411 0.21 2
  356.5380 0.20 2
  357.1939 0.82 8
  357.4988 0.15 1
  357.6396 0.07 1
  357.8052 0.11 1
  358.2245 0.43 4
  358.7953 0.14 1
  359.2141 1.68 17
  359.4764 0.15 1
  359.7793 0.11 1
  360.2279 1.61 16
  360.6702 0.06 1
  360.8892 0.14 1
  361.2405 1.45 14
  361.6651 0.03 0
  362.2621 0.60 6
  362.4184 0.28 3
  362.5527 0.10 1
  362.7609 0.12 1
  363.1802 0.50 5
  363.5626 0.09 1
  363.9009 0.24 2
  364.1554 0.30 3
  364.3601 0.15 1
  364.4894 0.06 1
  364.8250 0.14 1
  365.2273 0.53 5
  365.4726 0.03 0
  365.7826 0.11 1
  366.0684 0.12 1
  366.2675 0.27 3
  366.4616 0.09 1
  366.6877 0.09 1
  366.8050 0.16 2
  366.8768 0.05 0
  367.2373 0.61 6
  367.3838 0.27 3
  367.5026 0.06 1
  367.8532 0.04 0
  367.9741 0.05 0
  368.2401 0.25 2
  368.8155 0.10 1
  369.1697 0.65 6
  369.2885 0.32 3
  369.4186 0.14 1
  369.5211 0.07 1
  369.8291 0.15 1
  370.2040 0.31 3
  370.5021 0.08 1
  371.1637 0.80 8
  371.4142 0.13 1
  371.5038 0.07 1
  371.7066 0.02 0
  371.8383 0.10 1
  372.2360 0.54 5
  372.3727 0.28 3
  372.6111 0.07 1
  372.8388 0.13 1
  373.2195 1.40 14
  373.5697 0.09 1
  374.2537 0.43 4
  374.4174 0.21 2
  374.6708 0.08 1
  375.2083 0.57 6
  375.5863 0.14 1
  375.8362 0.04 0
  376.0419 0.24 2
  376.1884 0.18 2
  376.3484 0.05 0
  376.5332 0.07 1
  376.8326 0.24 2
  377.1810 0.33 3
  377.4128 0.07 1
  378.1858 0.42 4
  378.7427 0.10 1
  379.1673 0.32 3
  379.6801 0.20 2
  379.8551 0.09 1
  380.0806 0.23 2
  380.2919 0.09 1
  380.3858 0.07 1
  380.5067 0.17 2
  380.7308 0.17 2
  380.8568 0.07 1
  381.2260 0.46 5
  381.6251 0.13 1
  381.7859 0.07 1
  382.0044 0.12 1
  382.2256 0.27 3
  382.5259 0.04 0
  383.2788 0.60 6
  383.6247 0.02 0
  383.8460 0.02 0
  384.0311 0.24 2
  384.2268 0.32 3
  384.3399 0.17 2
  384.5051 0.04 0
  384.6709 0.08 1
  384.7634 0.03 0
  384.8930 0.10 1
  385.2225 1.21 12
  385.7543 0.07 1
  386.0419 0.23 2
  386.2811 0.21 2
  386.6114 0.09 1
  386.8563 0.13 1
  387.2472 0.35 3
  387.6495 0.05 0
  388.1729 0.20 2
  388.4285 0.14 1
  388.5631 0.06 1
  389.0409 0.16 2
  389.2524 0.48 5
  389.4112 0.07 1
  389.5202 0.08 1
  389.8991 0.06 1
  390.1405 0.21 2
  390.4105 0.17 2
  390.8257 0.05 0
  391.1883 0.53 5
  391.4312 0.11 1
  391.9748 0.11 1
  392.1258 0.23 2
  392.3666 0.15 1
  392.6402 0.11 1
  392.8896 0.17 2
  393.1731 0.40 4
  393.3947 0.16 2
  394.1579 0.37 4
  394.2804 0.29 3
  394.6595 0.06 1
  394.7871 0.09 1
  394.9282 0.09 1
  395.2510 0.53 5
  395.4613 0.14 1
  395.6138 0.08 1
  395.7285 0.02 0
  396.1448 0.25 2
  396.3437 0.20 2
  396.5240 0.13 1
  396.8383 0.13 1
  397.2211 0.86 9
  397.5013 0.12 1
  397.6310 0.05 0
  397.7351 0.05 0
  398.2641 0.50 5
  398.4801 0.22 2
  398.6455 0.10 1
  399.2658 1.91 19
  399.6551 0.16 2
  400.2562 0.72 7
  400.4502 0.42 4
  400.8096 0.02 0
  401.3003 0.48 5
  401.4393 0.21 2
  401.6326 0.05 0
  401.8038 0.05 0
  402.1105 0.20 2
  402.2824 0.28 3
  402.4100 0.14 1
  402.7061 0.04 0
  403.2767 0.30 3
  403.4286 0.09 1
  403.9915 0.17 2
  404.2069 0.10 1
  404.4188 0.11 1
  404.6378 0.07 1
  404.8676 0.15 1
  405.1936 0.26 3
  405.3428 0.15 1
  405.4633 0.20 2
  405.9065 0.09 1
  406.1348 0.17 2
  406.2390 0.18 2
  406.3175 0.08 1
  406.4809 0.03 0
  406.6814 0.06 1
  406.7884 0.02 0
  407.0853 0.14 1
  407.3536 0.25 2
  407.5099 0.10 1
  407.6519 0.09 1
  408.0630 0.17 2
  408.2336 0.15 1
  408.3711 0.14 1
  408.4879 0.11 1
  408.7171 0.05 0
  408.8225 0.05 0
  408.9187 0.03 0
  409.2719 0.63 6
  409.5325 0.06 1
  409.7084 0.05 0
  409.9933 0.02 0
  410.1835 0.17 2
  410.4007 0.16 2
  410.6920 0.11 1
  410.8245 0.07 1
  411.2469 1.37 14
  411.7042 0.11 1
  411.8445 0.07 1
  412.2164 0.68 7
  412.3695 0.43 4
  412.6488 0.03 0
  412.8739 0.14 1
  413.3078 1.01 10
  413.4845 0.55 5
  413.7759 0.19 2
  414.2561 0.86 9
  414.6580 0.18 2
  414.7506 0.09 1
  415.2822 3.62 36
  415.5943 0.22 2
  415.7440 0.14 1
  415.8616 0.14 1
  415.9920 0.13 1
  416.2008 0.25 2
  416.4196 0.16 2
  416.5522 0.05 0
  416.8543 0.13 1
  417.2136 0.27 3
  417.4538 0.26 3
  418.1972 0.22 2
  418.4838 0.08 1
  418.6720 0.06 1
  418.7675 0.06 1
  419.2601 0.21 2
  419.5531 0.14 1
  420.1848 0.19 2
  420.3680 0.17 2
  420.5954 0.01 0
  420.7922 0.05 0
  420.9134 0.03 0
  421.2050 0.11 1
  421.3983 0.13 1
  421.4824 0.06 1
  421.7341 0.05 0
  422.0208 0.03 0
  422.1798 0.10 1
  422.3339 0.07 1
  422.5406 0.06 1
  422.7282 0.06 1
  423.0192 0.08 1
  423.1590 0.16 2
  423.3230 0.28 3
  423.4129 0.11 1
  423.6354 0.18 2
  424.2031 0.21 2
  424.3650 0.08 1
  424.7131 0.07 1
  424.8015 0.07 1
  425.2457 0.70 7
  425.6631 0.14 1
  425.8582 0.18 2
  426.2764 2.52 25
  426.6048 0.21 2
  426.8206 0.15 1
  427.2701 2.44 24
  427.6135 0.21 2
  427.8343 0.16 2
  428.2881 2.75 27
  428.7099 0.07 1
  429.2115 0.76 8
  429.4524 0.23 2
  429.6761 0.12 1
  430.1664 0.32 3
  430.4720 0.06 1
  430.5868 0.07 1
  430.6801 0.06 1
  430.8348 0.12 1
  431.2709 0.35 3
  431.3643 0.14 1
  431.4947 0.08 1
  431.7135 0.10 1
  432.0285 0.09 1
  432.1653 0.13 1
  432.3920 0.11 1
  432.9009 0.01 0
  433.0670 0.10 1
  433.2986 0.19 2
  433.5474 0.05 0
  433.6244 0.02 0
  433.8532 0.05 0
  434.0079 0.10 1
  434.2103 0.44 4
  434.4064 0.16 2
  434.4912 0.06 1
  434.7243 0.10 1
  434.9980 0.06 1
  435.1692 0.08 1
  435.4230 0.12 1
  435.7452 0.07 1
  436.0439 0.06 1
  436.1858 0.06 1
  436.4054 0.08 1
  436.5202 0.04 0
  436.7477 0.07 1
  436.9637 0.15 1
  437.1420 0.14 1
  437.2910 0.13 1
  437.3930 0.09 1
  437.6083 0.04 0
  437.7495 0.07 1
  437.9413 0.07 1
  438.1011 0.13 1
  438.3150 0.12 1
  438.4847 0.07 1
  438.5768 0.08 1
  438.7137 0.09 1
  439.2699 0.26 3
  439.4832 0.09 1
  439.5973 0.12 1
  439.8869 0.01 0
  440.2142 0.12 1
  440.5388 0.12 1
  440.6807 0.04 0
  440.8427 0.15 1
  441.0994 0.26 3
  441.2999 0.53 5
  441.5909 0.01 0
  441.7372 0.11 1
  442.0075 0.07 1
  442.1887 0.16 2
  442.3885 0.13 1
  442.4933 0.04 0
  442.7081 0.08 1
  442.9763 0.34 3
  443.2667 0.53 5
  443.7711 0.15 1
  444.2356 1.15 11
  444.7122 0.18 2
  444.9149 0.22 2
  445.0932 0.20 2
  445.3508 0.30 3
  445.6142 0.06 1
  445.8354 0.07 1
  445.9824 0.06 1
  446.2222 0.22 2
  446.4027 0.07 1
  446.4912 0.07 1
  446.7196 0.03 0
  446.8566 0.05 0
  447.0136 0.13 1
  447.3312 0.11 1
  447.4868 0.07 1
  447.8387 0.06 1
  448.0200 0.11 1
  448.2291 0.08 1
  448.3568 0.07 1
  448.4739 0.06 1
  448.5731 0.07 1
  448.7758 0.02 0
  449.0042 0.12 1
  449.2798 0.29 3
  449.3769 0.12 1
  449.5710 0.15 1
  449.9244 0.22 2
  450.2156 0.09 1
  450.4334 0.07 1
  450.5783 0.03 0
  450.8096 0.05 0
  451.2437 0.37 4
  451.3386 0.21 2
  451.5928 0.09 1
  451.8441 0.03 0
  451.9962 0.12 1
  452.1668 0.10 1
  452.3575 0.20 2
  452.5717 0.15 1
  452.7166 0.03 0
  453.1229 0.19 2
  453.4300 0.13 1
  453.5785 0.07 1
  453.8063 0.16 2
  454.1891 0.30 3
  454.5497 0.11 1
  454.7697 0.26 3
  455.2003 0.43 4
  455.5031 0.24 2
  455.7209 0.12 1
  455.9695 0.10 1
  456.1602 0.13 1
  456.2731 0.05 0
  456.5516 0.08 1
  456.7859 0.16 2
  457.1373 0.19 2
  457.3930 0.17 2
  457.7309 0.13 1
  457.9824 0.08 1
  458.2260 0.13 1
  458.4053 0.06 1
  458.5703 0.12 1
  458.6760 0.11 1
  458.7517 0.04 0
  458.9354 0.12 1
  459.3047 0.30 3
  459.5319 0.09 1
  459.6462 0.10 1
  460.0435 0.13 1
  460.2635 0.16 2
  460.4812 0.10 1
  460.7145 0.11 1
  460.9843 0.13 1
  461.2212 0.23 2
  461.4439 0.14 1
  461.7165 0.09 1
  461.8307 0.11 1
  461.9670 0.08 1
  462.0898 0.15 1
  462.2767 0.11 1
  462.4602 0.13 1
  462.7921 0.09 1
  462.9798 0.03 0
  463.1418 0.07 1
  463.4244 0.10 1
  463.5729 0.05 0
  464.0447 0.08 1
  464.1996 0.19 2
  464.4138 0.11 1
  464.6672 0.09 1
  464.8714 0.02 0
  464.9670 0.02 0
  465.2319 0.25 2
  465.3811 0.16 2
  465.5060 0.09 1
  465.7373 0.05 0
  465.9986 0.13 1
  466.2942 0.09 1
  466.4055 0.03 0
  466.5312 0.13 1
  466.6840 0.08 1
  467.2638 0.44 4
  467.5165 0.13 1
  467.6807 0.16 2
  467.8700 0.18 2
  468.0027 0.07 1
  468.2256 0.24 2
  468.4198 0.20 2
  468.5840 0.14 1
  468.7939 0.24 2
  468.9353 0.12 1
  469.0953 0.47 5
  469.2202 0.28 3
  469.3624 0.11 1
  469.5173 0.12 1
  469.9437 0.06 1
  470.1715 0.16 2
  470.2964 0.16 2
  470.6050 0.09 1
  470.7207 0.05 0
  470.8342 0.04 0
  471.0499 0.17 2
  471.1306 0.09 1
  471.3470 0.12 1
  471.4592 0.04 0
  471.6649 0.07 1
  472.1891 0.24 2
  472.4277 0.22 2
  472.6156 0.16 2
  472.9213 0.17 2
  473.1220 0.14 1
  473.3585 0.11 1
  473.4499 0.08 1
  473.5835 0.12 1
  473.7220 0.05 0
  473.8149 0.05 0
  473.9535 0.17 2
  474.3028 0.13 1
  474.4493 0.07 1
  474.5943 0.10 1
  474.7436 0.09 1
  474.8658 0.14 1
  475.0994 0.23 2
  475.5088 0.40 4
  475.7574 0.38 4
  476.0146 0.43 4
  476.1518 0.30 3
  476.3904 0.46 5
  476.7177 0.23 2
  477.3500 0.59 6
  477.4515 0.29 3
  477.8116 0.21 2
  478.0374 0.10 1
  478.3412 0.12 1
  478.6570 0.12 1
  478.8107 0.16 2
  479.0086 0.16 2
  479.2344 0.26 3
  479.3309 0.10 1
  479.4717 0.14 1
  479.6382 0.15 1
  479.8176 0.10 1
  480.0456 0.15 1
  480.2986 0.20 2
  480.4694 0.07 1
  480.6752 0.02 0
  480.8697 0.13 1
  481.1534 0.28 3
  481.3178 0.15 1
  481.4672 0.19 2
  481.6423 0.16 2
  481.8382 0.10 1
  482.2148 0.38 4
  482.4386 0.18 2
  482.5658 0.05 0
  482.8811 0.24 2
  482.9868 0.15 1
  483.2235 0.44 4
  483.4744 0.24 2
  483.8147 0.03 0
  483.9762 0.01 0
  484.1342 0.10 1
  484.3930 0.05 0
  484.5989 0.05 0
  484.8127 0.01 0
  485.0815 0.18 2
  485.2724 0.17 2
  485.4948 0.18 2
  485.7943 0.09 1
  485.8916 0.10 1
  486.0053 0.05 0
  486.2226 0.10 1
  486.4400 0.10 1
  486.6609 0.03 0
  486.7832 0.06 1
  487.1343 0.04 0
  487.3488 0.12 1
  487.5669 0.12 1
  487.7693 0.19 2
  487.9752 0.21 2
  488.2452 0.14 1
  488.5015 0.17 2
  488.7278 0.19 2
  488.9862 0.09 1
  489.1404 0.16 2
  489.4396 0.25 2
  490.3142 3.91 39
  490.8376 0.24 2
  490.9932 0.24 2
  491.2660 0.38 4
  491.4116 0.20 2
  491.6073 0.25 2
  491.6944 0.09 1
  491.8472 0.23 2
  492.0943 0.24 2
  492.2442 0.17 2
  492.4170 0.20 2
  492.6077 0.18 2
  493.2711 0.61 6
  493.7967 0.20 2
  493.9396 0.04 0
  494.2017 0.22 2
  494.4073 0.27 3
  494.5609 0.21 2
  494.8166 0.30 3
  495.1394 0.25 2
  495.4230 0.59 6
  495.6501 0.25 2
  495.9465 0.35 3
  496.1944 0.54 5
  496.6508 0.50 5
  497.3237 0.54 5
  497.7523 0.38 4
  498.0059 0.50 5
  498.2302 0.93 9
  498.4917 0.62 6
  498.7646 0.26 3
  498.9225 0.15 1
  499.0811 0.16 2
  499.2354 0.26 3
  499.3675 0.11 1
  499.5147 0.04 0
  499.7033 0.06 1
  499.8148 0.04 0
  500.0848 0.19 2
  500.3363 0.12 1
  500.5642 0.48 5
  500.6571 0.20 2
  500.8893 0.11 1
  501.1730 0.27 3
  501.3209 0.25 2
  501.5024 0.14 1
  501.6875 0.11 1
  501.8511 0.08 1
  502.1769 0.14 1
  502.5342 0.17 2
  502.8086 0.15 1
  502.9644 0.10 1
  503.2417 0.39 4
  503.4174 0.34 3
  503.5154 0.11 1
  503.6176 0.10 1
  503.7919 0.16 2
  503.8734 0.07 1
  504.1342 0.11 1
  504.3386 0.07 1
  504.4844 0.21 2
  504.7910 0.14 1
  505.1548 0.27 3
  505.4271 0.15 1
  505.7066 0.06 1
  505.8095 0.01 0
  505.9331 0.09 1
  506.0489 0.15 1
  506.1661 0.18 2
  506.3913 0.32 3
  506.7487 0.22 2
  506.9810 0.19 2
  507.3884 0.56 6
  507.7515 0.25 2
  507.9460 0.29 3
  508.3456 0.79 8
  508.6065 0.25 2
  508.7108 0.15 1
  509.1419 0.55 5
  509.4315 0.52 5
  509.8582 0.43 4
  510.2965 0.90 9
  511.3103 2.04 20
  511.8709 0.33 3
  512.0947 0.32 3
  512.3714 0.31 3
  512.5266 0.21 2
  512.6581 0.14 1
  513.0986 0.46 5
  513.6292 0.25 2
  513.8795 0.21 2
  514.0060 0.18 2
  514.2692 0.25 2
  514.4201 0.10 1
  514.6431 0.15 1
  514.8864 0.16 2
  515.0419 0.39 4
  515.2295 0.22 2
  515.5548 0.46 5
  515.8337 0.06 1
  516.0320 0.20 2
  516.5949 0.28 3
  516.9866 0.11 1
  517.2648 0.19 2
  517.4246 0.11 1
  517.6544 0.15 1
  517.8499 0.04 0
  517.9747 0.07 1
  518.1281 0.04 0
  518.2936 0.26 3
  518.5898 0.11 1
  518.7896 0.14 1
  519.0978 0.24 2
  519.3004 0.21 2
  519.4288 0.20 2
  519.6615 0.18 2
  520.1381 0.24 2
  520.2937 0.21 2
  520.3993 0.07 1
  520.5178 0.10 1
  520.6555 0.05 0
  520.8553 0.13 1
  521.2292 0.27 3
  521.4398 0.30 3
  521.5975 0.23 2
  521.8558 0.08 1
  522.0613 0.10 1
  522.3917 0.19 2
  522.5352 0.13 1
  522.7336 0.15 1
  522.8892 0.19 2
  523.3566 0.66 7
  523.7428 0.29 3
  523.8976 0.16 2
  524.1154 0.47 5
  524.4451 0.37 4
  524.6628 0.05 0
  524.8212 0.11 1
  525.2360 0.86 9
  525.4686 0.52 5
  526.3102 5.13 51
  526.7122 0.35 3
  526.8513 0.16 2
  527.0405 0.25 2
  527.1569 0.11 1
  527.3168 0.17 2
  527.3939 0.12 1
  527.5645 0.13 1
  527.6823 0.15 1
  527.8029 0.11 1
  527.9429 0.07 1
  528.0678 0.05 0
  528.3998 0.27 3
  528.6032 0.05 0
  528.8795 0.10 1
  529.1380 0.22 2
  529.4885 0.18 2
  529.8341 0.09 1
  530.0004 0.27 3
  530.2368 0.23 2
  530.3760 0.07 1
  530.5838 0.05 0
  530.7288 0.07 1
  531.1136 0.20 2
  531.3799 0.34 3
  531.5006 0.24 2
  531.7277 0.23 2
  531.9398 0.20 2
  532.0947 0.10 1
  532.2011 0.13 1
  532.3561 0.12 1
  532.5988 0.13 1
  532.7567 0.10 1
  532.8802 0.15 1
  533.1959 0.22 2
  533.3251 0.11 1
  533.4794 0.17 2
  533.6450 0.06 1
  533.8071 0.03 0
  533.9185 0.09 1
  534.3013 0.23 2
  534.6699 0.08 1
  534.8876 0.18 2
  535.0491 0.09 1
  535.4211 0.31 3
  536.1868 0.37 4
  536.4990 0.41 4
  536.7404 0.28 3
  536.8882 0.10 1
  537.3561 0.46 5
  537.6053 0.19 2
  537.7418 0.14 1
  538.3040 0.92 9
  538.4825 0.68 7
  538.8318 0.30 3
  539.3076 1.07 11
  539.5905 0.37 4
  539.8577 0.20 2
  540.2484 0.39 4
  540.5149 0.31 3
  540.6471 0.22 2
  540.8286 0.40 4
  541.1043 0.37 4
  541.3365 0.45 4
  541.5187 0.23 2
  541.7037 0.59 6
  541.8831 0.38 4
  542.0374 0.48 5
  542.2045 0.34 3
  542.3896 0.26 3
  542.9798 0.42 4
  543.4971 0.41 4
  543.7808 0.48 5
  544.0701 0.46 5
  544.3160 0.21 2
  544.5739 0.20 2
  544.7804 0.45 4
  545.1091 0.36 4
  545.2928 0.28 3
  545.4678 0.44 4
  545.9374 0.37 4
  546.3733 0.88 9
  546.6570 0.34 3
  546.8242 0.38 4
  547.2337 0.41 4
  547.4681 0.37 4
  547.7204 0.25 2
  547.9377 0.33 3
  548.1928 0.39 4
  548.4423 0.32 3
  548.6488 0.17 2
  549.3414 2.56 26
  549.7388 0.45 4
  549.9733 0.35 3
  550.2999 0.29 3
  550.6451 0.21 2
  550.8289 0.15 1
  551.1384 0.32 3
  551.3978 0.24 2
  551.6301 0.16 2
  552.1785 0.41 4
  552.4422 0.55 5
  552.9305 0.41 4
  553.4559 0.73 7
  554.0657 0.69 7
  554.5362 0.73 7
  555.1153 0.69 7
  555.6265 0.85 8
  556.4108 0.83 8
  557.2896 1.06 11
  557.9374 0.96 10
  558.5145 1.27 13
  558.8223 0.83 8
  559.1856 0.94 9
  559.8909 1.11 11
  560.3549 1.21 12
  561.3444 1.71 17
  562.0547 1.68 17
  563.4297 4.19 42
  564.4215 26.71 267
  567.4062 30.40 304
  568.5231 1.76 18
  569.4108 1.26 13
  570.0444 1.24 12
  572.1613 1.26 13
  573.7428 1.63 16
  574.4843 1.35 13
  575.0322 1.57 16
  582.3651 99.97 999
  583.6006 29.23 292
  584.4128 13.71 137
  585.3243 6.53 65
  586.3593 4.01 40
  587.0781 2.00 20
  587.8156 1.46 15
  588.2610 1.19 12
  589.2518 0.77 8
  589.8194 0.63 6
  590.0942 0.46 5
  590.2335 0.52 5
  590.3884 0.53 5
  590.7054 0.48 5
  591.0781 0.28 3
  591.6570 0.39 4
  592.0754 0.25 2
  592.3382 0.16 2
  592.5374 0.15 1
//
