ACCESSION: MSBNK-Kyoto_Univ-CA000125
RECORD_TITLE: Methyl glucosyl-3,4-dehydro-apo-8'-lycopenate; FAB-EBEB; MS2; m/z: 624.37; [M]*+
DATE: 2016.01.19 (Created 2007.10.06, modified 2012.05.21)
AUTHORS: Akimoto N, Graduate School of Pharmaceutical Sciences, Kyoto University and Maoka T, Research Institute for Production Development
LICENSE: CC BY-SA
CH$NAME: Methyl glucosyl-3,4-dehydro-apo-8'-lycopenate
CH$COMPOUND_CLASS: Natural Product; Carotenoid
CH$FORMULA: C37H52O8
CH$EXACT_MASS: 624.36622
CH$SMILES: C(C(O)1)(C(OC(C)(C)CC=CC(=CC=CC(C)=CC=CC(C)=CC=CC=C(C)C=CC=C(C(=O)OC)C)C)OC(C1O)CO)O
CH$IUPAC: InChI=1S/C37H52O8/c1-26(15-9-10-16-27(2)21-13-23-30(5)35(42)43-8)17-11-18-28(3)19-12-20-29(4)22-14-24-37(6,7)45-36-34(41)33(40)32(39)31(25-38)44-36/h9-23,31-34,36,38-41H,24-25H2,1-8H3/b10-9+,17-11+,19-12+,21-13+,22-14+,26-15+,27-16+,28-18+,29-20+,30-23+/t31-,32-,33+,34-,36+/m1/s1
CH$LINK: INCHIKEY WBEFBIPYSADVHW-SVGLIZBYSA-N
AC$INSTRUMENT: JMS-HX/HX 110A, JEOL
AC$INSTRUMENT_TYPE: FAB-EBEB
AC$MASS_SPECTROMETRY: MS_TYPE MS2
AC$MASS_SPECTROMETRY: ION_MODE POSITIVE
AC$MASS_SPECTROMETRY: ATOM_GUN_CURRENT 5 mA
AC$MASS_SPECTROMETRY: BOMBARDMENT 6 kV xenon
AC$MASS_SPECTROMETRY: COLLISION_ENERGY 3 kV
AC$MASS_SPECTROMETRY: COLLISION_GAS Ar
AC$MASS_SPECTROMETRY: GAS_PRESSURE adjust to attenuate the intensity of the precursor ion by 30 %
AC$MASS_SPECTROMETRY: IONIZATION FAB
AC$MASS_SPECTROMETRY: PROBE_TIP stainless-steel
MS$FOCUSED_ION: BASE_PEAK 624.3145
MS$FOCUSED_ION: PRECURSOR_M/Z 624.37
MS$FOCUSED_ION: PRECURSOR_TYPE [M]+*
PK$SPLASH: splash10-00dl-6921103000-6fee86cac2425184457f
PK$NUM_PEAK: 1672
PK$PEAK: m/z int. rel.int.
  0.6812 0.01 0
  2.6080 0.01 0
  2.8579 0.01 0
  5.0878 0.01 0
  5.2680 0.01 0
  5.3396 0.01 0
  7.0745 0.01 0
  11.9636 0.01 0
  13.9698 0.22 2
  14.9844 0.93 9
  17.9791 0.02 0
  18.9836 0.39 4
  22.9477 2.52 25
  25.9846 0.19 2
  26.9829 1.40 14
  27.9740 0.18 2
  28.6084 0.02 0
  28.9807 2.46 25
  29.9415 0.18 2
  30.9707 2.16 22
  31.4808 0.01 0
  33.0149 0.06 1
  33.7902 0.01 0
  34.9580 0.06 1
  36.9715 0.28 3
  37.6469 0.02 0
  37.7806 0.01 0
  37.9709 0.13 1
  38.9734 4.33 43
  39.1662 0.03 0
  39.3597 0.01 0
  39.9769 0.52 5
  40.9948 6.39 64
  41.9792 0.26 3
  42.9844 8.98 90
  43.1756 0.10 1
  43.3945 0.12 1
  43.5041 0.07 1
  43.9820 0.29 3
  44.5332 0.02 0
  44.9834 8.73 87
  46.9677 0.61 6
  48.9581 0.13 1
  49.9766 0.52 5
  50.9776 2.27 23
  51.9744 0.48 5
  52.5635 0.07 1
  52.9743 5.93 59
  53.9684 0.39 4
  54.9899 7.99 80
  55.9840 0.84 8
  56.3310 0.02 0
  56.9751 12.59 126
  57.9872 0.54 5
  58.9838 22.17 222
  59.9533 1.17 12
  60.5747 0.01 0
  60.9756 15.05 150
  61.9519 0.40 4
  62.9735 1.68 17
  63.7508 0.10 1
  63.9778 0.18 2
  64.2820 0.04 0
  64.9756 2.88 29
  65.9667 0.70 7
  66.9785 3.66 37
  67.9660 0.55 5
  68.6473 0.07 1
  68.9713 17.74 177
  69.9734 0.30 3
  70.9717 4.44 44
  71.1801 0.05 0
  71.9748 0.22 2
  72.9603 25.92 259
  73.8486 0.16 2
  73.9870 0.31 3
  74.9817 1.45 14
  75.3778 0.04 0
  75.7660 0.01 0
  75.9488 0.26 3
  76.0262 0.15 1
  76.3252 0.07 1
  76.7117 0.04 0
  76.9726 7.99 80
  77.1543 0.05 0
  77.5035 0.05 0
  77.9765 1.72 17
  78.1875 0.06 1
  78.4635 0.11 1
  78.9884 7.91 79
  79.9890 1.20 12
  80.4855 0.07 1
  80.9974 10.36 104
  81.9858 0.46 5
  82.5381 0.10 1
  82.9727 3.00 30
  83.5175 0.03 0
  83.8661 0.04 0
  83.9765 0.34 3
  84.0436 0.17 2
  84.4947 0.09 1
  84.6535 0.05 0
  84.9604 41.56 415
  85.2321 0.09 1
  85.9292 0.27 3
  86.0163 0.19 2
  86.1169 0.08 1
  86.5073 0.11 1
  86.9860 35.34 353
  87.2309 0.06 1
  87.6372 0.12 1
  87.9681 0.14 1
  88.5876 0.03 0
  88.7006 0.14 1
  88.9792 2.09 21
  89.3354 0.11 1
  89.5669 0.07 1
  89.7625 0.01 0
  89.9769 0.39 4
  90.2924 0.04 0
  90.4661 0.09 1
  90.9844 28.02 280
  91.2591 0.16 2
  91.3853 0.10 1
  91.5594 0.05 0
  92.0044 2.66 27
  93.0163 13.51 135
  93.5103 0.07 1
  93.9999 0.89 9
  94.4914 0.11 1
  94.6367 0.02 0
  95.0285 3.94 39
  95.2744 0.05 0
  95.4131 0.11 1
  95.9805 0.39 4
  96.1017 0.11 1
  96.7132 0.07 1
  96.9799 10.89 109
  97.3425 0.04 0
  97.6216 0.01 0
  97.9947 0.86 9
  98.3335 0.01 0
  98.4743 0.08 1
  98.6650 0.07 1
  98.9998 6.13 61
  99.3311 0.15 1
  99.4398 0.03 0
  99.9924 0.34 3
  100.6210 0.04 0
  100.9642 5.37 54
  101.2607 0.08 1
  101.3496 0.07 1
  101.5420 0.05 0
  101.7880 0.10 1
  102.0194 0.69 7
  102.4533 0.05 0
  102.6487 0.16 2
  103.0029 8.76 88
  103.2298 0.15 1
  103.3114 0.09 1
  103.4236 0.06 1
  103.5346 0.01 0
  103.7126 0.03 0
  104.0145 1.54 15
  104.2022 0.06 1
  104.3395 0.08 1
  104.6437 0.10 1
  105.0152 18.85 188
  105.3653 0.13 1
  105.5612 0.01 0
  105.6886 0.10 1
  106.0244 1.35 13
  106.5046 0.13 1
  106.7677 0.12 1
  107.0264 4.75 47
  108.0175 0.28 3
  108.3598 0.05 0
  108.5317 0.08 1
  108.7365 0.11 1
  109.0082 5.08 51
  109.4372 0.01 0
  110.0294 0.63 6
  111.0054 1.00 10
  111.3126 0.10 1
  111.9901 1.92 19
  112.3476 0.04 0
  112.4505 0.02 0
  112.5617 0.12 1
  112.9966 1.15 11
  113.2524 0.03 0
  113.4454 0.07 1
  113.5284 0.02 0
  113.6716 0.08 1
  113.9996 0.58 6
  114.1877 0.03 0
  114.4122 0.06 1
  114.9900 14.65 146
  115.3188 0.08 1
  115.4299 0.23 2
  115.5677 0.04 0
  115.6900 0.13 1
  115.9905 3.05 30
  116.2150 0.14 1
  116.5327 0.09 1
  116.6642 0.13 1
  117.0036 10.10 101
  117.4925 0.14 1
  117.7450 0.12 1
  118.0125 2.23 22
  118.4526 0.10 1
  118.5832 0.12 1
  119.0119 18.06 180
  119.3055 0.09 1
  119.4677 0.09 1
  119.5822 0.05 0
  120.0128 1.80 18
  120.4857 0.12 1
  120.6921 0.06 1
  121.0212 3.94 39
  121.2573 0.07 1
  121.9680 0.37 4
  122.0790 0.28 3
  122.1716 0.10 1
  122.6322 0.01 0
  122.7945 0.12 1
  123.0135 0.84 8
  123.3924 0.10 1
  124.0019 0.65 6
  124.9852 3.73 37
  125.2312 0.21 2
  125.4978 0.14 1
  125.9949 0.76 8
  126.3879 0.24 2
  126.5769 0.26 3
  126.9630 27.41 274
  127.2918 0.28 3
  127.9755 8.99 90
  128.2206 0.25 2
  128.4226 0.10 1
  128.5293 0.10 1
  128.9847 12.92 129
  129.5917 0.01 0
  129.9886 4.86 49
  130.6137 0.06 1
  130.9952 12.64 126
  131.2985 0.09 1
  132.0011 3.60 36
  132.2428 0.08 1
  132.3714 0.16 2
  133.0063 6.66 67
  133.3044 0.08 1
  133.7099 0.08 1
  133.9855 0.55 5
  134.1216 0.16 2
  134.6825 0.10 1
  134.7526 0.04 0
  135.0139 2.43 24
  135.2665 0.02 0
  135.4671 0.09 1
  135.6770 0.03 0
  135.9807 0.62 6
  136.9594 0.39 4
  137.2823 0.16 2
  137.9694 0.17 2
  138.0981 0.13 1
  138.5155 0.15 1
  138.9629 2.03 20
  139.1833 0.08 1
  139.4643 0.04 0
  139.9465 0.50 5
  140.1894 0.24 2
  140.3334 0.13 1
  140.4761 0.12 1
  140.6100 0.24 2
  140.9703 7.59 76
  141.4903 0.15 1
  141.5914 0.16 2
  141.9837 7.23 72
  142.4268 0.06 1
  142.6346 0.12 1
  142.9943 17.33 173
  143.2644 0.14 1
  143.4892 0.18 2
  143.5676 0.07 1
  144.0033 5.85 58
  144.4393 0.23 2
  144.9756 44.52 445
  145.2922 0.18 2
  145.4485 0.31 3
  145.6076 0.17 2
  145.9786 2.19 22
  146.2692 0.10 1
  146.5896 0.10 1
  147.0037 8.76 88
  147.3841 0.17 2
  147.6744 0.12 1
  147.9526 0.56 6
  148.0510 0.30 3
  148.4664 0.02 0
  148.5934 0.14 1
  148.9975 0.94 9
  149.6199 0.03 0
  149.9660 0.44 4
  150.3128 0.04 0
  150.9749 1.25 12
  151.1253 0.43 4
  151.4059 0.03 0
  151.5257 0.10 1
  151.9719 4.01 40
  152.3937 0.19 2
  152.4769 0.12 1
  152.9733 4.69 47
  153.2379 0.14 1
  153.4637 0.10 1
  153.5750 0.04 0
  154.0015 2.25 22
  154.1695 0.11 1
  155.0035 8.99 90
  155.2926 0.08 1
  155.5175 0.26 3
  156.0085 6.08 61
  156.2773 0.14 1
  156.5058 0.11 1
  156.6571 0.11 1
  157.0274 15.24 152
  157.3759 0.12 1
  157.5149 0.04 0
  158.0274 3.07 31
  158.2343 0.31 3
  158.6217 0.22 2
  159.0461 9.41 94
  159.3281 0.15 1
  159.4337 0.34 3
  159.5428 0.09 1
  159.6958 0.08 1
  160.0260 1.05 10
  160.4297 0.14 1
  160.8508 0.28 3
  161.0686 0.88 9
  161.3586 0.01 0
  161.6541 0.19 2
  162.0227 0.38 4
  162.3659 0.07 1
  163.0079 6.71 67
  163.3300 0.02 0
  163.6695 0.24 2
  164.0242 0.48 5
  164.2226 0.19 2
  164.3487 0.08 1
  164.4803 0.17 2
  164.5610 0.13 1
  165.0056 6.37 64
  165.2862 0.24 2
  165.4497 0.14 1
  166.0064 2.27 23
  166.3121 0.09 1
  166.4722 0.13 1
  166.6310 0.12 1
  166.7187 0.11 1
  167.0350 6.34 63
  167.3402 0.10 1
  167.6283 0.17 2
  168.0485 2.98 30
  168.3962 0.27 3
  168.5158 0.04 0
  168.6438 0.02 0
  169.0566 8.21 82
  169.3036 0.10 1
  169.4136 0.12 1
  169.7147 0.16 2
  170.0684 3.49 35
  170.3169 0.11 1
  170.5101 0.07 1
  170.6064 0.04 0
  171.0830 7.34 73
  171.3810 0.03 0
  171.4988 0.11 1
  171.6984 0.04 0
  172.0242 1.03 10
  172.2446 0.09 1
  172.6572 0.14 1
  172.8687 0.28 3
  173.0872 2.72 27
  173.3575 0.11 1
  173.5948 0.04 0
  173.7649 0.22 2
  174.0894 0.38 4
  174.4970 0.07 1
  174.7649 0.11 1
  175.0792 0.88 9
  175.7074 0.04 0
  176.0157 0.70 7
  176.2576 0.14 1
  177.0528 1.36 14
  177.2768 0.16 2
  177.4301 0.11 1
  177.5737 0.04 0
  177.7464 0.18 2
  178.0149 3.04 30
  178.2384 0.13 1
  178.3494 0.11 1
  178.5535 0.10 1
  178.6847 0.21 2
  179.0368 5.77 58
  179.3716 0.10 1
  179.6091 0.21 2
  179.7863 0.14 1
  180.0483 2.68 27
  180.2679 0.18 2
  180.4584 0.07 1
  180.6071 0.11 1
  181.0466 7.22 72
  181.3756 0.16 2
  182.0379 2.48 25
  182.3518 0.02 0
  182.5328 0.17 2
  183.0522 8.33 83
  183.3218 0.06 1
  183.5266 0.11 1
  183.6785 0.12 1
  183.8102 0.10 1
  184.0631 1.82 18
  184.4220 0.10 1
  184.7643 0.06 1
  185.0593 5.02 50
  185.5433 0.19 2
  185.6940 0.14 1
  186.0408 0.70 7
  186.4030 0.11 1
  187.0585 2.09 21
  187.3162 0.10 1
  187.9652 0.58 6
  188.1608 0.11 1
  188.4306 0.05 0
  188.6857 0.08 1
  188.8786 0.78 8
  189.0681 1.78 18
  189.4779 0.08 1
  189.7633 0.36 4
  190.0109 0.42 4
  190.2943 0.21 2
  190.5077 0.01 0
  191.0068 2.94 29
  191.4171 0.05 0
  191.5193 0.10 1
  191.6531 0.07 1
  191.7770 0.20 2
  192.0292 1.68 17
  192.2933 0.12 1
  192.5575 0.15 1
  192.6969 0.10 1
  193.0263 3.89 39
  193.3320 0.03 0
  193.5844 0.14 1
  194.0325 2.26 23
  194.4856 0.16 2
  195.0406 8.21 82
  195.3102 0.08 1
  195.4358 0.07 1
  195.5853 0.11 1
  196.0354 2.41 24
  196.4870 0.14 1
  197.0476 6.68 67
  197.5276 0.12 1
  198.0449 1.27 13
  198.2917 0.16 2
  198.5526 0.16 2
  199.0408 2.81 28
  199.6282 0.26 3
  200.0217 0.68 7
  200.1117 0.24 2
  200.2800 0.03 0
  200.4215 0.18 2
  200.6151 0.02 0
  201.0362 1.37 14
  201.3708 0.16 2
  201.5617 0.55 5
  201.7850 0.11 1
  201.9971 1.62 16
  202.2226 0.23 2
  202.4897 0.21 2
  202.9825 1.46 15
  203.9613 0.70 7
  204.2244 0.14 1
  204.3239 0.13 1
  204.5271 0.08 1
  205.0077 2.22 22
  205.4842 0.17 2
  205.6727 0.26 3
  206.0195 1.35 13
  206.1748 0.25 2
  206.5082 0.03 0
  207.0289 4.86 49
  207.3702 0.12 1
  207.5858 0.10 1
  207.6756 0.09 1
  208.0403 2.32 23
  208.2680 0.12 1
  208.4660 0.18 2
  208.5494 0.08 1
  209.0374 6.62 66
  209.5199 0.06 1
  210.0308 1.69 17
  210.2827 0.19 2
  211.0445 5.68 57
  211.3476 0.23 2
  211.6259 0.23 2
  211.7208 0.05 0
  212.0247 0.52 5
  212.1523 0.23 2
  212.4357 0.03 0
  212.6397 0.04 0
  213.0430 1.63 16
  213.3046 0.11 1
  213.7321 0.06 1
  214.0491 0.47 5
  214.3625 0.01 0
  214.7066 0.16 2
  215.0095 1.34 13
  215.4203 0.11 1
  215.5665 0.05 0
  215.9959 0.68 7
  216.3409 0.29 3
  216.5582 0.08 1
  216.6789 0.16 2
  217.0375 2.02 20
  217.5553 0.03 0
  217.7734 0.10 1
  218.0392 0.89 9
  218.3440 0.11 1
  218.6326 0.10 1
  219.0441 2.19 22
  220.0481 1.33 13
  220.2935 0.10 1
  220.4401 0.10 1
  220.5845 0.06 1
  221.0441 2.56 26
  221.3643 0.07 1
  221.5785 0.17 2
  221.6839 0.14 1
  222.0270 1.37 14
  222.3381 0.33 3
  222.5923 2.20 22
  223.0481 2.42 24
  223.4405 0.25 2
  224.0632 0.76 8
  224.1993 0.25 2
  224.3190 0.14 1
  224.4787 0.12 1
  224.5963 0.13 1
  225.0696 2.12 21
  225.3326 0.10 1
  225.5686 0.05 0
  226.0029 0.65 6
  226.1898 0.07 1
  226.2968 0.12 1
  226.5058 0.12 1
  227.0458 0.70 7
  227.2599 0.14 1
  227.4911 0.14 1
  227.6781 0.12 1
  228.0549 1.15 11
  228.1977 0.40 4
  229.0438 1.44 14
  229.7823 0.22 2
  230.0681 0.59 6
  230.6561 0.11 1
  231.0649 1.99 20
  231.5010 0.13 1
  232.0744 1.35 13
  233.0570 2.18 22
  233.3096 0.11 1
  233.5471 0.13 1
  234.0738 0.72 7
  234.3014 0.17 2
  234.8174 0.26 3
  235.0902 2.13 21
  235.4010 0.12 1
  236.0761 0.80 8
  236.5301 0.12 1
  237.0907 1.75 17
  237.3940 0.08 1
  237.5793 0.11 1
  238.1201 0.77 8
  239.0812 1.00 10
  240.0685 0.42 4
  240.1859 0.21 2
  240.5275 0.07 1
  241.0303 0.81 8
  241.1678 0.48 5
  241.3813 0.18 2
  241.6393 0.04 0
  241.9689 0.73 7
  242.1122 0.36 4
  242.3981 0.12 1
  242.7658 0.11 1
  243.0834 1.98 20
  244.0420 0.62 6
  244.3562 0.09 1
  244.7801 0.08 1
  245.0886 2.79 28
  245.4674 0.09 1
  245.5930 0.13 1
  246.0853 1.24 12
  246.8590 0.25 2
  247.0845 2.02 20
  247.3042 0.17 2
  247.5261 0.06 1
  247.6927 0.13 1
  248.0733 0.94 9
  248.6544 0.05 0
  249.0804 1.61 16
  249.6244 0.10 1
  249.8005 0.04 0
  250.1030 0.50 5
  250.4876 0.07 1
  250.8471 0.21 2
  251.1332 1.24 12
  251.3935 0.10 1
  251.6042 0.11 1
  252.0659 0.40 4
  252.2184 0.20 2
  252.6810 0.02 0
  253.1256 0.86 9
  253.5509 0.07 1
  254.0633 0.52 5
  254.4614 0.14 1
  255.0791 0.95 9
  255.3376 0.11 1
  255.7005 0.12 1
  256.0628 0.43 4
  256.3804 0.10 1
  256.5267 0.03 0
  256.6643 0.05 0
  257.0994 2.51 25
  257.6615 0.11 1
  257.8481 0.05 0
  258.0809 0.62 6
  258.2799 0.07 1
  258.3880 0.11 1
  259.0851 1.78 18
  260.0752 0.87 9
  260.2245 0.21 2
  260.6508 0.13 1
  261.1212 1.18 12
  261.3831 0.06 1
  261.6400 0.07 1
  261.9893 0.23 2
  262.1322 0.33 3
  262.2022 0.16 2
  262.4280 0.08 1
  262.6853 0.09 1
  263.1287 0.88 9
  263.2635 0.50 5
  263.3630 0.17 2
  263.5331 0.11 1
  263.8821 0.12 1
  264.2038 0.40 4
  264.9128 0.09 1
  265.1566 0.57 6
  265.3052 0.14 1
  265.5924 0.09 1
  266.0340 0.77 8
  266.1934 0.30 3
  266.3594 0.10 1
  267.0285 0.49 5
  267.3930 0.11 1
  267.4962 0.09 1
  268.0587 0.29 3
  268.2760 0.07 1
  269.0639 0.67 7
  269.1918 0.39 4
  269.5855 0.12 1
  269.9937 0.23 2
  270.1562 0.28 3
  270.7639 0.10 1
  271.1123 0.71 7
  271.8828 0.14 1
  272.1438 0.41 4
  273.1033 0.71 7
  273.4106 0.14 1
  274.0739 0.44 4
  275.0824 0.90 9
  275.5123 0.03 0
  276.0529 0.39 4
  276.1723 0.18 2
  276.5625 0.17 2
  276.7073 0.10 1
  277.0837 0.58 6
  277.3263 0.23 2
  277.7876 0.04 0
  278.0475 0.56 6
  278.2213 0.11 1
  278.3206 0.11 1
  278.8892 0.15 1
  279.1268 0.33 3
  279.2782 0.03 0
  279.5187 0.16 2
  279.8477 0.17 2
  279.9527 0.20 2
  280.0868 0.13 1
  280.2136 0.10 1
  280.5129 0.12 1
  280.7665 0.20 2
  281.0999 0.56 6
  281.2810 0.08 1
  281.6554 0.13 1
  282.1009 0.54 5
  282.2769 0.33 3
  282.3660 0.12 1
  283.0999 0.68 7
  283.2876 0.13 1
  283.4565 0.10 1
  284.1682 0.06 1
  285.1170 0.47 5
  285.4114 0.06 1
  285.9995 0.63 6
  286.1742 0.47 5
  286.6841 0.09 1
  287.0794 0.63 6
  287.2926 0.24 2
  287.6394 0.18 2
  288.0769 0.49 5
  288.6632 0.11 1
  288.8120 0.16 2
  289.0696 0.76 8
  289.3076 0.42 4
  289.5450 0.12 1
  289.7584 0.11 1
  290.1090 0.22 2
  290.2520 0.20 2
  290.7965 0.12 1
  291.1393 0.65 6
  291.4595 0.09 1
  291.9686 0.16 2
  292.0906 0.19 2
  292.2141 0.25 2
  292.2947 0.15 1
  292.8127 0.04 0
  293.1338 0.51 5
  293.3357 0.09 1
  294.0732 0.32 3
  294.2585 0.11 1
  294.8952 0.25 2
  295.0733 0.66 7
  295.2565 0.39 4
  295.7704 0.11 1
  295.9733 0.22 2
  296.1208 0.26 3
  296.2866 0.15 1
  296.4590 0.09 1
  297.1840 0.96 10
  297.7294 0.11 1
  297.8720 0.11 1
  298.1313 0.91 9
  298.6257 0.03 0
  298.8530 0.11 1
  298.9409 0.10 1
  299.1660 0.46 5
  299.3933 0.27 3
  299.6882 0.08 1
  299.9417 0.15 1
  300.1945 0.46 5
  300.6754 0.05 0
  300.9886 0.27 3
  301.1390 0.61 6
  301.2661 0.39 4
  302.0779 0.28 3
  302.2421 0.12 1
  303.0402 0.27 3
  303.1769 0.26 3
  303.4641 0.06 1
  303.8741 0.02 0
  304.0915 0.42 4
  304.2064 0.15 1
  304.7292 0.11 1
  304.9379 0.22 2
  305.1438 0.37 4
  306.0530 0.07 1
  306.2123 0.14 1
  306.9711 0.34 3
  307.1588 0.48 5
  307.4186 0.12 1
  307.7934 0.11 1
  308.0648 0.16 2
  308.3065 0.24 2
  309.1370 0.72 7
  309.2884 0.28 3
  309.8286 0.08 1
  310.1264 0.24 2
  310.2502 0.13 1
  310.6295 0.04 0
  311.1604 0.99 10
  311.6550 0.14 1
  311.9398 0.25 2
  312.1605 0.30 3
  312.6267 0.11 1
  312.9160 0.13 1
  313.0565 0.30 3
  313.1447 0.13 1
  313.3079 0.06 1
  313.4777 0.10 1
  314.0388 0.35 3
  314.2122 0.33 3
  315.0300 0.39 4
  315.1867 0.33 3
  315.6657 0.20 2
  316.1724 0.34 3
  317.0860 0.43 4
  318.0290 0.46 5
  319.0422 0.29 3
  319.2662 0.08 1
  319.3829 0.11 1
  319.9499 0.09 1
  320.1454 0.31 3
  320.2979 0.10 1
  320.9883 0.24 2
  321.1562 0.52 5
  321.8686 0.16 2
  322.1292 0.45 4
  322.5709 0.14 1
  322.9250 0.16 2
  323.0447 0.11 1
  323.1659 0.14 1
  323.3120 0.31 3
  323.4814 0.14 1
  324.1276 0.52 5
  324.4533 0.10 1
  324.5731 0.09 1
  324.7250 0.04 0
  324.8967 0.13 1
  325.1399 0.11 1
  325.2531 0.14 1
  325.7755 0.09 1
  326.0743 0.14 1
  326.2233 0.07 1
  326.7976 0.17 2
  326.8941 0.22 2
  327.0461 0.11 1
  327.2193 0.29 3
  327.4480 0.18 2
  327.7834 0.10 1
  328.0758 0.22 2
  328.4829 0.09 1
  328.5904 0.09 1
  329.1532 0.68 7
  330.1600 0.45 4
  330.2667 0.18 2
  330.6747 0.12 1
  330.8312 0.09 1
  331.1406 0.52 5
  331.2737 0.29 3
  331.4470 0.12 1
  331.6313 0.06 1
  331.9517 0.15 1
  332.1960 0.30 3
  332.3189 0.10 1
  332.9085 0.10 1
  333.1580 0.34 3
  334.1545 0.38 4
  334.3060 0.22 2
  334.5797 0.11 1
  335.0547 0.41 4
  335.2259 0.24 2
  335.7778 0.14 1
  335.9359 0.13 1
  336.1358 0.41 4
  336.3334 0.34 3
  336.9125 0.13 1
  337.0787 0.20 2
  337.3225 0.18 2
  337.5092 0.06 1
  338.0767 0.06 1
  338.9489 0.20 2
  339.1115 0.18 2
  339.2778 0.20 2
  340.0125 0.09 1
  340.1620 0.22 2
  340.2389 0.10 1
  340.3795 0.10 1
  341.1173 0.24 2
  341.2953 0.10 1
  341.5504 0.07 1
  342.1681 0.18 2
  342.8621 0.11 1
  343.1294 0.50 5
  343.3787 0.09 1
  343.7956 0.11 1
  344.1130 0.19 2
  344.3002 0.29 3
  344.6850 0.15 1
  345.1634 0.25 2
  345.4311 0.10 1
  346.0135 0.22 2
  346.1927 0.21 2
  346.3559 0.10 1
  346.9961 0.19 2
  347.1783 0.51 5
  347.3401 0.25 2
  347.5479 0.12 1
  348.0902 0.31 3
  348.1942 0.27 3
  348.2886 0.11 1
  348.3991 0.12 1
  349.2262 0.23 2
  349.3931 0.13 1
  349.7731 0.10 1
  350.0118 0.20 2
  350.2182 0.12 1
  351.1211 0.11 1
  351.2953 0.13 1
  351.8915 0.15 1
  352.1280 0.58 6
  352.2445 0.33 3
  353.0260 0.13 1
  353.3073 0.10 1
  354.1857 0.26 3
  354.3784 0.12 1
  354.9668 0.17 2
  355.1976 0.32 3
  355.4262 0.15 1
  356.0286 0.11 1
  356.2023 0.11 1
  356.8869 0.05 0
  357.1654 0.60 6
  357.5517 0.10 1
  357.7995 0.08 1
  358.1001 0.28 3
  358.2643 0.09 1
  358.7137 0.05 0
  359.0884 0.57 6
  359.2820 0.23 2
  359.4551 0.08 1
  360.0630 0.13 1
  360.2991 0.35 3
  360.5243 0.11 1
  361.1162 0.38 4
  361.7155 0.10 1
  361.9480 0.18 2
  362.3031 0.29 3
  363.0910 0.33 3
  363.2730 0.14 1
  363.4315 0.20 2
  363.6362 0.17 2
  364.0537 0.26 3
  364.2974 0.10 1
  364.9946 0.24 2
  365.0900 0.07 1
  365.2191 0.14 1
  365.5751 0.12 1
  365.8614 0.17 2
  366.1851 0.10 1
  366.3863 0.10 1
  367.0059 0.13 1
  367.1446 0.13 1
  367.3091 0.09 1
  367.7503 0.16 2
  367.9119 0.12 1
  368.0690 0.21 2
  368.7145 0.10 1
  368.8518 0.20 2
  369.1000 0.45 4
  369.3644 0.11 1
  369.8058 0.01 0
  370.0511 0.12 1
  370.2590 0.24 2
  370.4412 0.03 0
  370.5763 0.09 1
  371.0707 0.62 6
  371.2264 0.39 4
  371.7072 0.23 2
  372.0830 0.27 3
  372.1725 0.16 2
  372.3223 0.34 3
  372.8171 0.13 1
  373.1460 0.62 6
  373.4800 0.05 0
  373.7326 0.02 0
  374.0858 0.32 3
  374.2767 0.41 4
  374.4045 0.12 1
  374.5785 0.08 1
  375.2072 0.52 5
  375.6522 0.11 1
  376.1715 0.34 3
  376.3838 0.12 1
  376.7187 0.07 1
  376.9229 0.13 1
  377.0206 0.14 1
  377.1551 0.12 1
  377.2631 0.14 1
  377.3835 0.11 1
  377.5363 0.01 0
  377.8669 0.07 1
  378.0323 0.17 2
  378.1983 0.15 1
  378.4503 0.07 1
  378.8831 0.21 2
  379.1153 0.23 2
  380.1404 0.22 2
  381.0834 0.24 2
  381.1870 0.11 1
  381.5457 0.11 1
  382.2117 0.12 1
  382.3242 0.03 0
  382.9102 0.12 1
  383.0623 0.03 0
  383.4285 0.16 2
  383.8314 0.14 1
  385.1095 0.38 4
  385.2904 0.24 2
  385.4419 0.11 1
  386.0398 0.10 1
  386.3072 0.11 1
  386.9029 0.15 1
  387.2342 0.99 10
  387.4142 0.30 3
  387.6897 0.19 2
  388.1746 2.30 23
  388.4883 0.12 1
  388.6433 0.11 1
  388.8572 0.15 1
  389.1827 1.05 10
  389.4450 0.25 2
  390.2078 6.28 63
  390.6172 0.25 2
  390.7392 0.12 1
  390.9281 0.23 2
  391.1471 0.11 1
  391.3338 0.32 3
  391.5558 0.11 1
  391.9101 0.12 1
  392.0939 0.15 1
  392.2630 0.14 1
  392.7849 0.10 1
  392.9966 0.10 1
  393.1635 0.04 0
  393.7657 0.06 1
  393.9848 0.27 3
  394.1753 0.17 2
  394.4128 0.14 1
  394.8216 0.16 2
  394.9768 0.08 1
  395.0724 0.05 0
  395.4151 0.10 1
  395.7159 0.11 1
  395.8262 0.04 0
  395.9762 0.11 1
  396.1741 0.10 1
  396.6845 0.08 1
  397.0177 0.14 1
  397.2458 0.15 1
  397.3296 0.12 1
  398.1624 0.32 3
  398.8481 0.01 0
  399.1689 0.33 3
  399.3587 0.12 1
  399.6368 0.15 1
  400.1115 0.18 2
  400.3359 0.15 1
  400.5324 0.10 1
  400.7767 0.04 0
  401.0129 0.23 2
  401.2521 0.53 5
  401.5899 0.09 1
  402.1442 0.84 8
  402.3554 0.41 4
  402.5681 0.27 3
  403.2130 8.28 83
  403.6112 0.27 3
  403.7828 0.25 2
  404.1796 0.98 10
  404.5470 0.24 2
  405.0042 0.14 1
  405.6721 0.12 1
  405.9490 0.12 1
  406.1213 0.11 1
  406.3466 0.10 1
  406.8084 0.05 0
  407.0883 0.09 1
  407.2216 0.10 1
  407.4587 0.11 1
  407.5802 0.11 1
  407.8137 0.05 0
  408.1879 0.14 1
  408.4354 0.07 1
  408.7477 0.05 0
  409.1529 0.14 1
  410.0966 0.14 1
  411.0324 0.10 1
  411.3161 0.05 0
  412.1989 0.15 1
  413.0877 0.13 1
  413.2380 0.36 4
  413.3206 0.15 1
  413.4260 0.09 1
  413.8174 0.13 1
  413.9478 0.07 1
  414.1756 0.22 2
  414.8818 0.24 2
  415.0897 0.04 0
  415.2496 0.33 3
  415.3536 0.09 1
  415.5851 0.10 1
  416.1476 0.28 3
  417.1187 0.27 3
  417.2462 0.57 6
  418.0817 0.34 3
  418.1849 0.07 1
  418.3177 0.10 1
  418.8457 0.10 1
  419.0906 0.33 3
  419.2461 0.12 1
  419.4138 0.10 1
  420.1372 0.14 1
  420.2564 0.12 1
  421.0917 0.11 1
  421.4590 0.10 1
  422.0964 0.13 1
  422.9790 0.13 1
  423.2778 0.09 1
  424.0597 0.32 3
  424.9446 0.14 1
  425.1273 0.13 1
  425.2134 0.11 1
  425.3526 0.07 1
  426.0410 0.09 1
  426.2192 0.18 2
  427.0153 0.38 4
  427.1810 0.24 2
  427.4277 0.11 1
  427.7879 0.14 1
  428.0295 0.15 1
  428.1834 0.52 5
  429.1402 0.42 4
  429.3649 0.31 3
  429.5373 0.11 1
  430.1760 0.44 4
  430.6615 0.03 0
  431.2229 0.36 4
  431.6672 0.11 1
  432.1432 0.26 3
  432.4077 0.11 1
  432.7401 0.13 1
  432.9007 0.10 1
  433.2191 0.17 2
  434.1189 0.24 2
  434.3009 0.10 1
  435.2908 0.12 1
  435.8820 0.01 0
  436.1274 0.30 3
  436.6780 0.09 1
  437.1491 0.13 1
  438.0671 0.25 2
  438.2328 0.22 2
  438.3130 0.12 1
  438.7334 0.13 1
  438.9557 0.06 1
  439.3239 0.14 1
  439.8260 0.18 2
  440.1176 0.36 4
  440.3636 0.24 2
  441.1669 0.22 2
  441.6537 0.14 1
  442.0558 0.20 2
  442.1538 0.14 1
  442.3224 0.18 2
  442.6539 0.05 0
  442.8903 0.11 1
  443.0192 0.17 2
  443.2711 1.22 12
  443.4707 0.17 2
  443.5804 0.17 2
  443.7366 0.11 1
  444.2265 3.29 33
  444.5373 0.50 5
  444.7311 0.26 3
  445.2372 3.36 34
  445.5665 0.30 3
  445.7212 0.42 4
  446.1868 3.53 35
  446.8043 0.04 0
  446.9391 0.22 2
  447.1528 0.21 2
  447.3901 0.26 3
  447.7541 0.17 2
  448.0754 0.26 3
  448.2021 0.50 5
  448.3458 0.12 1
  448.4564 0.14 1
  448.7231 0.10 1
  449.1705 0.15 1
  449.2899 0.11 1
  449.9849 0.12 1
  450.2347 0.18 2
  450.4168 0.24 2
  451.3544 0.03 0
  452.0945 0.25 2
  452.2766 0.27 3
  452.4462 0.11 1
  453.1628 0.14 1
  453.9561 0.40 4
  454.1928 0.11 1
  454.3793 0.05 0
  455.0710 0.29 3
  455.4714 0.03 0
  456.0488 0.07 1
  456.2074 0.14 1
  456.3047 0.11 1
  456.9544 0.05 0
  457.2340 0.27 3
  457.6219 0.08 1
  457.9642 0.12 1
  458.3477 0.14 1
  459.1355 0.24 2
  459.5339 0.14 1
  460.0739 0.32 3
  460.3203 0.29 3
  461.1687 0.72 7
  461.3680 0.19 2
  461.5377 0.10 1
  462.2069 1.13 11
  462.4865 0.25 2
  463.1735 0.16 2
  463.2488 0.09 1
  463.8842 0.12 1
  464.1720 0.32 3
  464.9152 0.11 1
  465.0562 0.10 1
  465.2407 0.05 0
  465.3669 0.14 1
  466.2165 0.15 1
  466.3803 0.12 1
  467.0166 0.12 1
  467.2226 0.23 2
  467.7526 0.11 1
  468.0789 0.13 1
  468.3395 0.13 1
  468.8667 0.18 2
  469.1982 0.12 1
  469.8834 0.12 1
  470.0805 0.23 2
  470.2437 0.22 2
  470.4032 0.29 3
  470.7037 0.09 1
  470.8861 0.30 3
  471.0884 0.43 4
  471.2561 0.60 6
  471.4806 0.09 1
  471.9296 0.12 1
  472.0728 0.22 2
  472.1836 0.18 2
  472.3047 0.12 1
  473.3051 0.32 3
  474.0686 0.17 2
  474.3150 0.15 1
  475.2549 0.30 3
  476.0849 0.12 1
  476.2133 0.14 1
  476.5424 0.14 1
  476.8530 0.12 1
  477.1460 0.14 1
  477.4869 0.14 1
  477.9348 0.10 1
  478.1909 0.28 3
  478.5356 0.07 1
  478.9724 0.08 1
  479.2787 0.08 1
  482.1352 0.17 2
  482.4711 0.12 1
  482.6121 0.01 0
  485.0101 0.14 1
  485.0943 0.12 1
  485.2154 0.04 0
  485.3786 0.31 3
  486.0483 0.30 3
  486.3216 0.47 5
  487.0275 0.20 2
  487.1405 0.23 2
  487.4381 0.26 3
  488.0895 0.21 2
  488.2897 0.21 2
  488.5947 0.04 0
  488.8517 0.05 0
  489.1376 0.21 2
  489.2528 0.05 0
  489.4722 0.31 3
  489.7048 0.09 1
  490.2478 4.69 47
  490.9370 0.10 1
  491.2029 0.23 2
  491.5051 0.15 1
  491.6823 0.11 1
  491.9225 0.12 1
  492.0724 0.21 2
  492.1707 0.13 1
  492.3561 0.09 1
  492.4536 0.03 0
  492.6169 0.33 3
  493.5612 0.03 0
  493.8796 0.05 0
  494.0591 0.10 1
  494.2387 0.15 1
  494.3429 0.14 1
  495.0382 0.17 2
  495.2762 0.12 1
  495.4003 0.18 2
  496.0262 0.19 2
  496.1548 0.08 1
  496.4327 0.22 2
  496.7047 0.01 0
  497.0276 0.11 1
  497.2235 0.12 1
  498.1392 0.13 1
  498.5383 0.07 1
  498.9922 0.14 1
  499.3633 0.02 0
  499.5007 0.11 1
  499.8600 0.13 1
  499.9930 0.10 1
  500.2082 0.22 2
  501.0191 0.16 2
  501.3148 0.38 4
  501.4605 0.16 2
  503.1348 0.14 1
  503.2891 0.05 0
  503.6537 0.11 1
  503.7585 0.07 1
  504.0590 0.26 3
  504.3255 0.27 3
  505.2438 0.11 1
  505.3316 0.10 1
  505.4822 0.11 1
  506.1762 0.29 3
  506.4095 0.13 1
  507.2438 0.19 2
  508.0855 0.11 1
  508.2738 0.28 3
  509.0299 0.15 1
  509.1318 0.16 2
  509.2574 0.10 1
  509.4996 0.15 1
  509.9021 0.13 1
  510.0771 0.38 4
  510.2632 0.28 3
  510.5394 0.14 1
  510.9360 0.09 1
  511.0423 0.12 1
  511.5187 0.03 0
  511.7284 0.12 1
  512.0246 0.21 2
  512.1989 0.23 2
  514.3839 0.15 1
  514.5101 0.17 2
  514.9977 0.14 1
  515.2828 0.11 1
  516.1657 0.13 1
  516.9481 0.01 0
  517.1173 0.14 1
  517.2518 0.13 1
  517.3604 0.07 1
  517.9988 0.08 1
  518.2596 0.33 3
  518.5522 0.12 1
  519.0569 0.12 1
  519.1566 0.10 1
  519.2712 0.09 1
  520.0781 0.11 1
  520.1771 0.18 2
  520.4669 0.16 2
  521.1823 0.09 1
  521.2820 0.08 1
  521.4838 0.06 1
  521.7173 0.03 0
  521.8858 0.07 1
  522.0506 0.25 2
  522.1334 0.08 1
  522.2723 0.06 1
  522.4542 0.20 2
  523.2214 0.09 1
  523.8024 0.04 0
  523.9872 0.07 1
  524.2658 0.24 2
  524.6450 0.13 1
  525.4670 0.16 2
  526.2174 0.11 1
  527.0757 0.10 1
  527.6443 0.12 1
  528.2188 0.11 1
  528.3157 0.14 1
  528.8895 0.11 1
  529.3032 0.01 0
  530.0437 0.11 1
  530.3314 0.17 2
  530.5490 0.15 1
  531.2918 0.14 1
  531.4246 0.11 1
  531.5869 0.16 2
  532.2795 1.78 18
  532.8174 0.12 1
  532.9103 0.10 1
  533.0298 0.07 1
  533.2283 0.21 2
  533.4710 0.12 1
  533.5610 0.10 1
  534.2155 0.25 2
  534.3741 0.11 1
  535.4395 0.15 1
  536.0881 0.40 4
  536.2143 0.13 1
  536.3552 0.21 2
  537.2001 0.22 2
  538.2303 0.14 1
  538.3351 0.18 2
  538.8074 0.13 1
  539.2008 0.12 1
  539.9226 0.08 1
  540.3315 0.06 1
  540.6858 0.18 2
  542.1495 0.12 1
  543.2634 0.11 1
  543.3904 0.07 1
  543.6259 0.16 2
  543.8895 0.10 1
  544.1744 0.22 2
  544.5110 0.10 1
  544.6144 0.11 1
  544.8817 0.11 1
  545.2058 0.20 2
  545.2996 0.13 1
  545.4760 0.14 1
  545.6791 0.11 1
  546.0320 0.04 0
  546.1738 0.13 1
  547.1321 0.09 1
  547.8019 0.13 1
  547.9894 0.19 2
  548.1401 0.13 1
  548.4177 0.24 2
  548.6407 0.12 1
  548.7914 0.01 0
  548.9797 0.07 1
  549.1355 0.28 3
  549.3711 0.26 3
  549.7942 0.13 1
  550.2144 0.28 3
  550.4330 0.14 1
  550.9559 0.18 2
  551.2573 0.56 6
  551.3887 0.34 3
  551.8348 0.10 1
  552.0992 0.69 7
  552.2521 0.56 6
  552.3666 0.26 3
  552.8497 0.16 2
  553.2441 0.19 2
  553.3903 0.08 1
  553.6829 0.14 1
  554.0943 0.05 0
  554.2272 0.23 2
  554.3145 0.13 1
  554.5117 0.01 0
  554.7155 0.08 1
  554.9756 0.05 0
  555.1263 0.09 1
  555.4432 0.15 1
  555.5828 0.24 2
  556.0106 0.11 1
  556.1398 0.13 1
  556.2839 0.11 1
  557.3012 0.19 2
  558.1028 0.23 2
  558.3651 0.18 2
  559.9412 0.14 1
  560.3580 0.11 1
  561.1664 0.14 1
  561.4147 0.35 3
  561.9364 0.12 1
  562.1663 0.27 3
  562.2520 0.13 1
  562.3665 0.22 2
  563.1440 0.13 1
  563.3931 0.18 2
  563.5283 0.12 1
  563.7160 0.12 1
  564.2578 0.43 4
  564.4788 0.13 1
  564.7101 0.06 1
  565.1506 1.09 11
  565.3842 0.95 9
  565.6525 0.03 0
  565.9496 0.14 1
  566.2697 1.54 15
  566.5469 0.21 2
  566.8544 0.22 2
  567.0104 0.12 1
  567.1745 0.13 1
  567.3682 0.14 1
  568.2102 0.07 1
  568.3795 0.15 1
  568.6530 0.09 1
  568.8060 0.11 1
  568.9547 0.16 2
  569.2422 0.22 2
  570.2692 0.11 1
  571.7006 0.11 1
  572.0747 0.10 1
  572.6056 0.20 2
  574.2087 0.13 1
  574.3618 0.12 1
  576.1547 0.29 3
  576.4219 0.15 1
  577.1248 0.12 1
  577.2643 0.19 2
  577.9502 0.25 2
  578.1384 0.17 2
  578.4168 0.28 3
  578.6715 0.11 1
  579.2504 0.12 1
  579.4349 0.24 2
  579.8366 0.10 1
  580.2000 0.38 4
  580.4318 0.29 3
  581.2876 0.34 3
  581.5173 0.10 1
  582.1494 0.21 2
  582.4219 0.39 4
  582.9174 0.12 1
  583.0599 0.07 1
  583.1729 0.13 1
  583.3561 0.15 1
  583.8870 0.17 2
  584.3627 0.13 1
  584.6943 0.11 1
  585.0067 0.13 1
  585.3014 0.12 1
  585.4698 0.13 1
  585.6146 0.09 1
  585.7925 0.11 1
  586.8968 0.07 1
  587.2211 0.14 1
  587.4493 0.01 0
  587.6554 0.11 1
  587.8267 0.15 1
  587.9161 0.13 1
  588.0941 0.06 1
  588.2980 0.25 2
  588.5455 0.10 1
  588.7930 0.13 1
  589.2753 0.41 4
  589.4305 0.05 0
  590.0215 0.09 1
  590.4019 0.28 3
  590.5009 0.15 1
  590.6044 0.12 1
  590.8046 0.20 2
  591.0188 0.07 1
  591.2914 0.08 1
  591.5093 0.20 2
  591.7436 0.17 2
  591.9017 0.17 2
  592.1285 0.74 7
  592.2689 0.27 3
  592.5939 0.29 3
  592.9789 0.80 8
  593.2752 1.22 12
  593.5914 0.43 4
  593.8737 0.18 2
  594.1382 0.46 5
  594.3059 0.35 3
  594.4094 0.26 3
  594.5853 0.28 3
  594.7811 0.14 1
  595.1409 0.26 3
  595.4195 0.37 4
  595.7247 0.23 2
  596.0720 0.47 5
  596.2789 0.13 1
  596.4851 0.30 3
  596.8849 0.24 2
  597.1258 0.18 2
  597.4052 0.17 2
  597.6534 0.19 2
  598.0163 0.11 1
  598.2661 0.16 2
  598.7524 0.30 3
  598.9911 0.09 1
  599.1826 0.17 2
  599.5038 0.01 0
  600.0043 0.12 1
  600.3468 0.33 3
  600.7750 0.35 3
  600.9137 0.40 4
  601.1078 0.28 3
  601.3087 0.18 2
  601.5677 0.25 2
  601.7855 0.24 2
  601.8948 0.21 2
  602.0690 0.12 1
  602.3428 0.11 1
  602.5850 0.42 4
  602.6810 0.24 2
  602.7850 0.08 1
  602.9770 0.24 2
  603.1298 0.41 4
  603.2450 0.18 2
  603.5477 0.40 4
  603.7943 0.22 2
  603.9641 0.53 5
  604.1937 0.40 4
  604.5059 0.56 6
  604.7260 0.27 3
  604.9423 0.28 3
  605.1601 0.45 4
  605.3609 0.36 4
  605.6459 0.53 5
  606.3348 4.98 50
  607.1270 1.57 16
  607.3663 1.73 17
  607.5900 0.75 7
  607.7827 0.10 1
  608.2029 1.09 11
  608.6274 0.59 6
  609.2861 1.80 18
  609.4951 1.24 12
  610.1619 0.67 7
  610.5172 0.68 7
  610.9064 0.37 4
  611.4396 0.64 6
  611.8797 0.55 5
  612.1434 0.52 5
  612.3635 0.29 3
  612.5599 0.53 5
  612.7645 0.30 3
  613.1397 0.47 5
  613.4713 0.32 3
  613.7350 0.27 3
  613.9270 0.25 2
  614.2321 0.45 4
  614.7979 0.66 7
  615.0046 0.44 4
  615.3289 0.90 9
  615.5453 0.83 8
  615.7441 0.63 6
  615.9767 0.88 9
  616.3653 1.05 10
  616.6910 0.76 8
  617.2916 0.78 8
  617.8449 1.00 10
  618.4388 1.25 12
  619.5248 1.98 20
  624.3145 99.97 999
  625.0808 26.01 260
  625.9682 12.66 127
  626.6962 7.00 70
  627.3173 5.40 54
  628.1501 3.12 31
  628.8724 2.28 23
  629.1623 1.70 17
  629.7377 1.26 13
  630.2166 0.68 7
  630.4017 1.08 11
  630.7160 0.87 9
  631.0333 0.57 6
  631.1801 0.37 4
  631.4752 0.56 6
  631.8419 0.36 4
  632.0891 0.27 3
  632.5893 0.50 5
  632.9479 0.33 3
  633.0659 0.16 2
  633.2563 0.32 3
//
