ACCESSION: MSBNK-Kyoto_Univ-CA000090
RECORD_TITLE: Oscillaxanthin; FAB-EBEB; MS2; m/z: 892.53; [M]+*
DATE: 2016.01.19 (Created 2010.04.01, modified 2011.05.10)
AUTHORS: Akimoto N, Graduate School of Pharmaceutical Sciences, Kyoto University and Maoka T, Research Institute for Production Development
LICENSE: CC BY-SA
COMMENT: Profile spectrum of this record is given as a JPEG file.
COMMENT: [Profile] CA000090.jpg
CH$NAME: Oscillaxanthin
CH$COMPOUND_CLASS: N/A
CH$FORMULA: C52H76O12
CH$EXACT_MASS: 892.53368
CH$SMILES: C(=CC(C(C)(C)O)OC(C2O)OC(C)C(C2O)O)C(C)=CC=CC(C)=CC=CC(C)=CC=CC=C(C)C=CC=C(C)C=CC=C(C=CC(C(C)(C)O)OC(C1O)OC(C)C(C1O)O)C
CH$IUPAC: InChI=1S/C52H76O12/c1-33(21-15-23-35(3)25-17-27-37(5)29-31-41(51(9,10)59)63-49-47(57)45(55)43(53)39(7)61-49)19-13-14-20-34(2)22-16-24-36(4)26-18-28-38(6)30-32-42(52(11,12)60)64-50-48(58)46(56)44(54)40(8)62-50/h13-32,39-50,53-60H,1-12H3/b14-13+,21-15+,22-16+,25-17+,26-18+,31-29+,32-30+,33-19+,34-20+,35-23+,36-24+,37-27+,38-28+/t39-,40-,41+,42+,43-,44-,45+,46+,47-,48-,49?,50?/m1/s1
CH$LINK: CAS 25217-88-3
CH$LINK: LIPIDBANK VCA1106
CH$LINK: INCHIKEY ZYYNEJWFGGVJQZ-DPNGLLAPSA-N
SP$SCIENTIFIC_NAME: Spirulina
SP$LINEAGE: cellular organisms; Bacteria; Cyanobacteria; Oscillatoriales
SP$LINK: NCBI-TAXONOMY 1155
AC$INSTRUMENT: JMS-HX/HX 110A, JEOL
AC$INSTRUMENT_TYPE: FAB-EBEB
AC$MASS_SPECTROMETRY: MS_TYPE MS2
AC$MASS_SPECTROMETRY: ION_MODE POSITIVE
AC$MASS_SPECTROMETRY: ATOM_GUN_CURRENT 5 mA
AC$MASS_SPECTROMETRY: BOMBARDMENT 6 kV xenon
AC$MASS_SPECTROMETRY: COLLISION_ENERGY 3 kV
AC$MASS_SPECTROMETRY: COLLISION_GAS Ar
AC$MASS_SPECTROMETRY: GAS_PRESSURE adjust to attenuate the intensity of the precursor ion by 30 %
AC$MASS_SPECTROMETRY: IONIZATION FAB
AC$MASS_SPECTROMETRY: MATRIX 1-2 uL m-NBA
AC$MASS_SPECTROMETRY: PROBE_TIP stainless-steel
MS$FOCUSED_ION: BASE_PEAK 85.0774
MS$FOCUSED_ION: PRECURSOR_M/Z 892.53
MS$FOCUSED_ION: PRECURSOR_TYPE [M]+*
MS$DATA_PROCESSING: RELATIVE_M/Z normalised by peak(m/z=85.0774).  set 999 for peak(m/z=892.6477,rel=45186).
PK$SPLASH: splash10-0006-1100000090-55ddf6bc65cd3c92c56e
PK$NUM_PEAK: 988
PK$PEAK: m/z int. rel.int.
  15.0372 0.01 5
  19.0520 0.01 5
  23.0177 0.22 99
  27.0592 0.02 9
  28.0467 0.01 5
  29.0559 0.11 50
  29.9693 0.01 5
  31.0343 0.07 32
  39.0417 0.14 63
  40.0185 0.01 5
  41.0754 0.16 72
  42.0495 0.01 5
  43.0643 0.42 190
  45.0768 0.18 81
  46.0315 0.02 9
  50.0754 0.01 5
  51.0798 0.02 9
  52.1245 0.01 5
  52.3800 0.01 5
  53.0771 0.08 36
  54.1156 0.02 9
  55.0913 0.27 122
  57.0759 0.79 357
  58.1102 0.04 18
  59.0887 1.65 746
  60.0345 0.03 14
  61.0812 0.29 131
  62.0823 0.01 5
  63.0741 0.09 41
  65.0483 0.08 36
  66.0492 0.03 14
  67.1006 0.12 54
  68.1059 0.01 5
  69.0841 0.19 86
  70.1035 0.03 14
  71.0855 1.29 583
  72.1190 0.09 41
  73.0672 1.44 651
  74.0973 0.02 9
  75.0874 1.77 800
  76.0386 0.01 5
  77.0949 0.13 59
  77.5531 0.01 5
  78.0276 0.04 18
  79.0816 0.14 63
  80.0683 0.07 32
  81.1249 0.35 158
  82.0699 0.04 18
  83.1024 0.26 118
  83.6975 0.01 5
  84.1350 0.04 18
  85.0774 2.21 999
  86.0921 0.10 45
  86.6950 0.01 5
  87.0798 0.56 253
  87.5097 0.03 14
  89.1005 0.06 27
  89.5871 0.01 5
  90.1085 0.03 14
  90.4470 0.01 5
  91.1070 0.54 244
  92.0794 0.10 45
  93.1219 0.44 199
  94.1584 0.05 23
  95.1104 0.48 217
  96.0282 0.02 9
  97.1247 0.19 86
  98.1434 0.08 36
  99.1298 0.10 45
  100.1244 0.01 5
  101.0881 0.23 104
  102.1082 0.05 23
  103.0986 0.26 118
  104.1230 0.06 27
  105.1237 0.48 217
  106.1136 0.06 27
  107.1511 0.29 131
  108.1044 0.03 14
  109.1221 0.23 104
  110.0512 0.04 18
  110.6919 0.02 9
  111.0867 0.33 149
  112.0579 0.07 32
  113.1323 0.07 32
  113.9034 0.03 14
  115.1084 0.26 118
  116.0919 0.08 36
  117.1389 0.23 104
  118.1268 0.12 54
  118.5366 0.01 5
  119.1491 0.86 389
  120.1465 0.04 18
  121.1246 0.34 154
  122.0812 0.06 27
  123.1541 0.14 63
  124.0794 0.05 23
  124.3693 0.01 5
  125.0939 0.13 59
  126.0166 0.07 32
  127.0641 0.05 23
  128.1292 0.24 108
  129.1059 1.34 606
  130.1473 0.22 99
  131.1452 0.39 176
  132.1526 0.05 23
  133.1499 0.45 203
  134.1251 0.07 32
  135.1197 0.14 63
  135.5858 0.01 5
  136.0820 0.12 54
  136.4694 0.04 18
  137.0797 0.13 59
  138.0809 0.04 18
  139.0398 0.15 68
  140.1340 0.13 59
  140.4198 0.02 9
  141.1159 0.22 99
  141.5843 0.03 14
  142.1433 0.23 104
  143.1141 0.75 339
  143.5156 0.04 18
  144.1103 0.14 63
  144.4360 0.03 14
  145.1523 0.74 335
  146.1313 0.11 50
  146.5245 0.03 14
  147.1197 0.80 362
  148.0691 0.07 32
  149.1067 0.18 81
  150.0465 0.02 9
  150.5188 0.03 14
  151.1458 0.10 45
  152.1737 0.08 36
  153.0666 0.07 32
  153.4044 0.01 5
  154.1174 0.14 63
  154.5903 0.02 9
  155.1471 0.24 108
  155.6084 0.02 9
  156.1537 0.12 54
  156.5502 0.04 18
  157.1391 0.59 267
  158.0909 0.11 50
  159.1442 0.46 208
  159.5257 0.03 14
  160.2462 0.04 18
  160.6261 0.01 5
  161.1316 0.30 136
  162.0838 0.04 18
  163.1319 0.08 36
  164.0389 0.06 27
  165.0914 0.19 86
  166.1245 0.06 27
  167.1423 0.15 68
  168.1280 0.13 59
  169.1770 0.35 158
  170.0964 0.11 50
  171.1830 0.35 158
  172.1773 0.10 45
  172.6727 0.01 5
  173.1850 0.34 154
  174.1584 0.06 27
  175.1891 0.17 77
  176.2292 0.07 32
  177.1826 0.11 50
  178.1328 0.09 41
  179.1613 0.24 108
  180.1972 0.16 72
  181.1816 0.23 104
  181.6774 0.03 14
  182.1397 0.17 77
  183.2017 0.33 149
  183.6478 0.04 18
  184.2900 0.05 23
  185.2256 0.20 90
  186.2231 0.06 27
  187.2279 0.10 45
  187.6060 0.03 14
  188.1068 0.06 27
  188.5465 0.02 9
  189.1577 0.13 59
  190.1732 0.14 63
  191.2165 0.06 27
  192.2037 0.09 41
  192.6457 0.01 5
  193.2086 0.24 108
  194.2377 0.26 118
  195.1766 0.40 181
  195.5095 0.05 23
  196.2710 0.15 68
  197.2157 0.37 167
  197.6512 0.01 5
  198.1356 0.01 5
  199.2072 0.14 63
  200.2713 0.04 18
  201.2041 0.08 36
  202.1632 0.12 54
  203.1316 0.08 36
  204.1114 0.05 23
  205.2479 0.16 72
  206.1801 0.09 41
  207.2393 0.28 127
  208.1172 0.15 68
  209.1735 0.41 185
  210.1750 0.15 68
  211.2243 0.18 81
  212.1650 0.06 27
  213.2137 0.12 54
  213.5255 0.02 9
  214.1062 0.09 41
  215.1607 0.09 41
  216.1255 0.08 36
  217.2311 0.05 23
  218.2296 0.07 32
  219.2116 0.14 63
  220.1056 0.08 36
  221.1666 0.19 86
  222.1462 0.08 36
  223.2346 0.27 122
  224.2306 0.05 23
  225.1905 0.11 50
  225.5460 0.04 18
  226.3873 0.04 18
  227.1488 0.08 36
  228.1257 0.10 45
  229.1900 0.11 50
  230.1529 0.09 41
  231.1924 0.14 63
  232.2065 0.07 32
  233.1668 0.14 63
  234.1865 0.09 41
  235.1741 0.08 36
  236.0379 0.07 32
  237.1946 0.19 86
  238.2626 0.02 9
  239.1979 0.18 81
  240.0834 0.13 59
  241.1706 0.13 59
  242.2476 0.09 41
  243.2244 0.13 59
  244.1995 0.08 36
  245.1555 0.07 32
  246.2019 0.11 50
  247.2050 0.04 18
  247.9099 0.05 23
  248.2547 0.06 27
  249.1578 0.10 45
  250.3912 0.10 45
  251.2183 0.13 59
  252.2703 0.04 18
  253.1488 0.09 41
  254.1644 0.05 23
  255.2180 0.09 41
  256.1287 0.06 27
  256.4155 0.05 23
  257.2230 0.11 50
  258.2252 0.09 41
  258.6249 0.02 9
  259.2323 0.06 27
  260.2775 0.11 50
  261.2170 0.14 63
  262.2300 0.07 32
  263.3149 0.12 54
  264.0790 0.03 14
  265.3605 0.08 36
  266.1453 0.03 14
  266.7865 0.02 9
  267.3019 0.10 45
  268.3064 0.02 9
  269.2826 0.06 27
  270.3722 0.01 5
  271.3737 0.04 18
  272.3912 0.01 5
  273.1895 0.06 27
  274.2278 0.14 63
  275.1932 0.04 18
  276.3546 0.04 18
  276.8499 0.01 5
  277.4276 0.07 32
  278.2076 0.12 54
  279.2614 0.07 32
  280.1778 0.05 23
  280.6250 0.03 14
  281.2192 0.07 32
  282.2031 0.05 23
  283.3656 0.08 36
  284.2991 0.03 14
  285.2174 0.11 50
  286.3367 0.06 27
  287.3026 0.05 23
  288.3559 0.04 18
  289.1931 0.06 27
  290.2471 0.09 41
  291.2190 0.06 27
  292.3387 0.02 9
  293.2398 0.10 45
  294.2283 0.08 36
  295.3735 0.06 27
  296.1433 0.01 5
  296.6021 0.01 5
  297.2088 0.04 18
  298.2501 0.03 14
  299.2806 0.06 27
  300.1568 0.04 18
  301.1925 0.05 23
  302.1994 0.04 18
  302.5336 0.03 14
  303.1124 0.05 23
  304.0033 0.02 9
  304.3288 0.03 14
  305.3009 0.13 59
  306.2913 0.11 50
  307.3831 0.06 27
  308.1922 0.05 23
  309.2151 0.06 27
  310.1618 0.01 5
  311.1696 0.13 59
  312.3264 0.10 45
  313.2764 0.13 59
  314.2560 0.10 45
  315.1277 0.08 36
  316.1543 0.03 14
  317.1329 0.05 23
  317.4749 0.03 14
  318.2828 0.05 23
  319.3634 0.05 23
  320.2686 0.05 23
  321.0818 0.03 14
  321.4580 0.03 14
  322.2399 0.07 32
  322.6095 0.02 9
  323.2113 0.04 18
  323.5811 0.02 9
  324.1740 0.03 14
  324.4695 0.02 9
  325.2724 0.04 18
  326.1793 0.04 18
  327.3167 0.05 23
  328.2897 0.08 36
  329.2155 0.03 14
  330.3471 0.04 18
  331.4159 0.01 5
  332.3991 0.06 27
  333.4210 0.07 32
  334.2487 0.07 32
  335.2893 0.03 14
  336.3040 0.06 27
  336.7447 0.02 9
  337.1810 0.03 14
  337.7529 0.03 14
  339.2747 0.14 63
  339.6932 0.02 9
  340.6932 0.02 9
  341.3404 0.04 18
  343.3370 0.07 32
  345.2395 0.05 23
  346.1232 0.02 9
  347.3674 0.05 23
  348.3378 0.06 27
  349.1201 0.06 27
  350.1227 0.02 9
  351.2570 0.05 23
  352.4122 0.08 36
  353.3430 0.12 54
  354.2898 0.03 14
  354.6532 0.02 9
  355.4686 0.07 32
  356.2661 0.07 32
  356.5546 0.02 9
  357.2136 0.07 32
  358.2978 0.07 32
  359.2254 0.19 86
  359.6006 0.02 9
  360.3784 0.05 23
  361.3065 0.04 18
  362.3326 0.01 5
  363.2292 0.04 18
  364.2968 0.10 45
  365.2622 0.10 45
  367.3942 0.03 14
  368.2486 0.06 27
  368.9255 0.04 18
  369.3950 0.07 32
  369.7392 0.02 9
  370.3046 0.07 32
  371.3625 0.05 23
  372.3683 0.06 27
  372.9455 0.08 36
  373.3789 0.10 45
  374.2186 0.14 63
  374.9009 0.03 14
  375.3711 0.08 36
  376.1975 0.10 45
  377.1815 0.09 41
  378.2001 0.04 18
  379.3034 0.04 18
  381.2205 0.06 27
  382.2560 0.06 27
  383.3854 0.06 27
  384.3527 0.05 23
  385.2402 0.02 9
  386.3429 0.04 18
  387.0408 0.05 23
  387.3612 0.03 14
  388.0409 0.03 14
  388.3339 0.02 9
  389.1586 0.04 18
  390.4153 0.08 36
  391.2380 0.04 18
  392.1386 0.04 18
  392.4198 0.03 14
  393.1033 0.05 23
  394.2947 0.01 5
  394.9625 0.07 32
  396.1864 0.01 5
  397.4677 0.03 14
  398.5434 0.03 14
  399.3011 0.09 41
  399.8665 0.06 27
  400.3084 0.07 32
  401.0733 0.03 14
  401.5130 0.02 9
  402.3398 0.03 14
  403.4097 0.08 36
  405.4308 0.10 45
  406.4371 0.03 14
  407.4665 0.02 9
  409.5374 0.05 23
  410.2715 0.08 36
  411.1525 0.04 18
  412.1782 0.04 18
  413.2408 0.08 36
  414.3932 0.07 32
  415.3300 0.04 18
  417.4659 0.05 23
  418.3481 0.09 41
  419.4464 0.03 14
  420.0991 0.07 32
  420.3358 0.03 14
  421.4552 0.01 5
  422.5256 0.04 18
  423.2861 0.06 27
  424.2466 0.05 23
  425.4209 0.05 23
  426.1266 0.04 18
  427.3634 0.08 36
  428.2970 0.04 18
  429.3641 0.07 32
  430.2864 0.06 27
  430.7603 0.02 9
  431.3769 0.06 27
  432.4100 0.06 27
  433.3535 0.09 41
  434.2927 0.05 23
  435.2342 0.04 18
  436.4222 0.03 14
  437.3388 0.06 27
  438.4604 0.02 9
  439.4296 0.07 32
  440.4097 0.04 18
  441.3347 0.09 41
  442.3358 0.02 9
  443.4661 0.07 32
  444.3478 0.05 23
  445.4047 0.10 45
  446.0955 0.04 18
  446.3604 0.02 9
  447.3139 0.05 23
  448.2929 0.07 32
  449.5002 0.04 18
  450.3920 0.08 36
  451.2285 0.06 27
  451.6826 0.03 14
  452.4940 0.06 27
  453.3101 0.05 23
  453.6674 0.05 23
  455.3761 0.03 14
  456.3633 0.02 9
  457.1106 0.02 9
  457.5743 0.02 9
  460.4794 0.04 18
  460.9294 0.02 9
  462.2313 0.02 9
  463.3672 0.04 18
  464.4040 0.02 9
  465.1984 0.10 45
  466.1846 0.05 23
  466.9469 0.04 18
  467.4760 0.02 9
  468.4625 0.03 14
  469.4815 0.05 23
  470.4845 0.03 14
  472.9810 0.02 9
  473.5382 0.01 5
  474.1394 0.05 23
  475.6195 0.03 14
  476.8222 0.04 18
  477.2548 0.02 9
  477.6967 0.02 9
  478.3995 0.05 23
  478.8566 0.03 14
  479.5884 0.06 27
  480.5351 0.08 36
  481.4865 0.15 68
  482.2925 0.06 27
  482.7545 0.04 18
  483.4914 0.04 18
  483.8425 0.02 9
  484.5263 0.09 41
  485.4413 0.07 32
  486.0559 0.05 23
  487.3893 0.10 45
  488.3185 0.05 23
  489.3009 0.07 32
  489.8026 0.04 18
  490.4291 0.07 32
  491.3077 0.01 5
  492.3321 0.04 18
  493.6111 0.09 41
  494.5618 0.05 23
  496.3038 0.08 36
  497.4561 0.08 36
  498.4559 0.10 45
  499.2538 0.05 23
  500.2780 0.02 9
  500.9324 0.02 9
  501.5613 0.05 23
  502.2574 0.02 9
  502.6483 0.03 14
  503.1987 0.04 18
  503.5387 0.06 27
  504.4247 0.04 18
  505.4773 0.28 127
  506.5508 0.19 86
  507.2219 0.03 14
  508.4206 0.11 50
  509.4436 0.10 45
  510.2746 0.03 14
  511.1589 0.06 27
  511.4900 0.01 5
  512.2471 0.07 32
  513.2474 0.02 9
  513.5878 0.01 5
  514.2964 0.04 18
  515.3502 0.02 9
  517.0064 0.05 23
  519.4832 0.08 36
  520.3476 0.09 41
  520.8435 0.01 5
  521.3650 0.03 14
  522.5239 0.16 72
  523.4767 0.19 86
  524.5431 0.43 194
  525.5563 0.02 9
  526.1616 0.02 9
  527.4232 0.04 18
  527.7409 0.02 9
  528.4529 0.04 18
  528.6640 0.02 9
  529.4736 0.07 32
  530.6219 0.06 27
  531.4223 0.02 9
  532.0767 0.01 5
  532.6962 0.03 14
  533.3877 0.08 36
  534.4460 0.07 32
  535.4000 0.02 9
  536.3911 0.07 32
  537.0179 0.05 23
  537.4869 0.05 23
  538.6315 0.04 18
  539.5603 0.05 23
  541.4786 0.03 14
  542.4668 0.05 23
  545.5466 0.04 18
  546.6530 0.01 5
  547.5160 0.07 32
  548.3860 0.04 18
  549.2700 0.06 27
  550.2585 0.01 5
  550.5718 0.01 5
  551.4258 0.04 18
  552.3541 0.07 32
  552.8903 0.02 9
  553.5983 0.03 14
  554.3829 0.02 9
  555.3719 0.06 27
  556.4213 0.08 36
  557.4058 0.06 27
  557.7634 0.01 5
  558.3788 0.05 23
  559.3845 0.06 27
  560.4319 0.05 23
  561.2705 0.02 9
  561.7932 0.03 14
  562.0510 0.01 5
  563.2753 0.05 23
  564.3279 0.07 32
  565.5502 0.09 41
  566.8492 0.03 14
  568.3553 0.08 36
  569.5944 0.09 41
  570.1592 0.03 14
  570.5801 0.06 27
  571.4171 0.04 18
  572.2657 0.04 18
  573.4307 0.05 23
  573.8237 0.02 9
  574.3679 0.06 27
  575.5936 0.04 18
  576.4485 0.03 14
  577.4194 0.08 36
  578.4531 0.12 54
  579.4125 0.06 27
  580.2768 0.02 9
  580.6044 0.04 18
  581.4757 0.07 32
  581.7522 0.05 23
  582.5678 0.03 14
  583.5857 0.10 45
  584.3736 0.09 41
  585.4427 0.07 32
  586.4586 0.11 50
  586.8142 0.05 23
  587.5325 0.01 5
  588.4834 0.07 32
  589.4297 0.04 18
  590.4365 0.05 23
  590.9691 0.02 9
  591.5923 0.04 18
  592.0923 0.04 18
  593.5668 0.06 27
  594.3298 0.06 27
  594.7391 0.02 9
  595.4696 0.07 32
  597.5890 0.05 23
  598.3010 0.04 18
  599.1759 0.02 9
  600.4209 0.06 27
  600.9747 0.04 18
  601.6078 0.07 32
  602.6785 0.06 27
  603.5862 0.08 36
  604.2660 0.08 36
  606.3915 0.01 5
  607.8328 0.02 9
  608.6027 0.04 18
  609.4854 0.06 27
  610.4147 0.02 9
  611.3881 0.04 18
  612.3012 0.05 23
  613.3352 0.01 5
  614.3763 0.04 18
  615.3453 0.08 36
  616.4656 0.06 27
  617.6440 0.02 9
  618.2879 0.05 23
  619.2084 0.06 27
  619.8036 0.04 18
  620.1035 0.04 18
  620.5499 0.05 23
  621.4962 0.03 14
  622.4448 0.06 27
  623.3237 0.03 14
  623.6888 0.02 9
  624.0563 0.02 9
  624.5516 0.02 9
  624.9981 0.04 18
  625.3400 0.05 23
  625.9493 0.03 14
  626.6192 0.03 14
  628.4243 0.09 41
  628.7406 0.06 27
  629.4338 0.08 36
  630.0015 0.02 9
  630.4645 0.04 18
  631.0554 0.03 14
  631.5999 0.03 14
  632.3445 0.10 45
  633.5010 0.09 41
  634.6459 0.10 45
  635.2114 0.05 23
  635.7607 0.04 18
  636.5474 0.03 14
  637.4412 0.04 18
  638.3676 0.04 18
  639.1964 0.06 27
  640.0530 0.03 14
  640.5419 0.03 14
  641.6199 0.03 14
  642.4535 0.06 27
  643.3872 0.05 23
  643.8599 0.04 18
  644.5027 0.03 14
  645.4575 0.08 36
  646.7734 0.05 23
  647.2299 0.07 32
  647.7307 0.03 14
  649.2401 0.01 5
  650.2698 0.03 14
  651.2087 0.06 27
  652.6206 0.11 50
  653.1542 0.02 9
  653.5549 0.04 18
  654.5779 0.05 23
  655.6429 0.20 90
  656.4166 0.07 32
  656.6823 0.04 18
  657.1880 0.02 9
  657.5936 0.05 23
  658.5376 0.04 18
  659.8126 0.03 14
  660.6821 0.04 18
  661.7056 0.03 14
  663.5891 0.01 5
  664.4409 0.07 32
  665.5790 0.09 41
  666.6939 0.07 32
  667.7088 0.03 14
  668.4258 0.02 9
  668.8123 0.04 18
  669.6038 0.11 50
  670.5560 0.35 158
  671.4966 0.06 27
  672.3930 0.05 23
  672.7050 0.03 14
  674.5563 0.09 41
  675.4017 0.03 14
  676.5708 0.05 23
  677.6329 0.04 18
  678.1476 0.02 9
  679.1166 0.06 27
  680.1136 0.04 18
  681.3180 0.03 14
  681.5510 0.01 5
  682.6693 0.03 14
  683.5803 0.07 32
  684.3026 0.04 18
  685.4420 0.09 41
  686.5746 0.55 249
  687.5930 0.18 81
  688.5298 0.05 23
  689.5856 0.04 18
  690.5203 0.12 54
  691.1124 0.03 14
  691.7951 0.02 9
  692.1443 0.02 9
  693.5577 0.05 23
  694.4659 0.05 23
  694.9409 0.03 14
  695.3787 0.03 14
  696.7946 0.06 27
  697.8916 0.10 45
  698.5717 0.04 18
  699.3799 0.04 18
  701.7862 0.04 18
  702.3359 0.04 18
  703.4985 0.08 36
  704.1531 0.02 9
  704.5981 0.02 9
  705.4486 0.05 23
  705.9519 0.07 32
  706.3293 0.06 27
  706.7255 0.06 27
  707.2568 0.01 5
  708.7738 0.07 32
  709.4030 0.07 32
  709.7666 0.03 14
  710.5916 0.04 18
  711.3514 0.02 9
  711.7756 0.02 9
  712.4259 0.02 9
  713.1718 0.05 23
  713.5215 0.11 50
  714.0110 0.05 23
  714.7033 0.02 9
  715.9109 0.01 5
  716.6522 0.08 36
  717.6967 0.07 32
  718.7296 0.02 9
  719.2706 0.04 18
  719.6459 0.04 18
  720.7380 0.06 27
  721.3011 0.04 18
  721.5989 0.03 14
  722.5880 0.09 41
  723.3116 0.05 23
  724.3287 0.04 18
  724.9478 0.05 23
  725.5948 0.05 23
  726.6561 0.04 18
  727.4987 0.05 23
  728.5206 0.16 72
  729.6589 0.57 258
  730.5342 0.11 50
  731.6051 0.08 36
  732.7250 0.06 27
  733.5911 0.04 18
  734.5178 0.08 36
  735.6355 0.08 36
  736.5995 0.05 23
  737.3587 0.04 18
  738.4509 0.11 50
  739.5526 0.20 90
  740.2606 0.05 23
  740.7147 0.07 32
  741.5530 0.02 9
  741.8627 0.02 9
  742.9152 0.05 23
  744.6639 0.16 72
  745.0226 0.06 27
  745.3160 0.02 9
  746.6854 0.15 68
  747.8196 0.03 14
  748.2948 0.04 18
  748.8491 0.01 5
  749.5176 0.06 27
  750.1279 0.04 18
  751.3369 0.03 14
  752.4224 0.04 18
  753.4661 0.07 32
  754.4796 0.07 32
  755.3929 0.07 32
  755.7820 0.06 27
  757.2662 0.08 36
  758.0095 0.01 5
  758.5687 0.05 23
  759.5219 0.07 32
  760.0065 0.04 18
  760.7033 0.01 5
  761.5167 0.06 27
  762.0876 0.03 14
  762.5281 0.03 14
  763.1342 0.02 9
  763.5513 0.03 14
  764.5116 0.07 32
  765.5978 0.05 23
  766.5279 0.04 18
  766.9008 0.03 14
  768.6799 0.06 27
  769.6246 0.07 32
  770.2273 0.03 14
  770.7067 0.04 18
  771.0417 0.03 14
  771.7399 0.06 27
  772.8685 0.08 36
  773.5923 0.11 50
  774.7071 0.39 176
  775.6683 0.02 9
  776.2805 0.09 41
  776.8530 0.05 23
  778.4661 0.07 32
  779.2482 0.06 27
  779.7184 0.10 45
  780.6589 0.02 9
  781.1594 0.05 23
  781.5948 0.02 9
  782.4562 0.01 5
  783.1802 0.05 23
  783.7227 0.02 9
  784.3397 0.04 18
  785.6669 0.09 41
  786.4539 0.02 9
  786.9127 0.03 14
  788.3890 0.04 18
  788.8594 0.06 27
  789.5394 0.03 14
  790.4104 0.05 23
  790.9321 0.09 41
  791.5609 0.05 23
  792.3224 0.06 27
  793.0445 0.05 23
  793.7549 0.04 18
  794.7425 0.02 9
  795.3458 0.03 14
  795.9211 0.02 9
  796.3008 0.03 14
  796.7527 0.02 9
  797.2676 0.06 27
  797.5774 0.04 18
  798.4254 0.08 36
  798.8447 0.04 18
  800.4289 0.21 95
  800.7830 0.08 36
  801.2350 0.05 23
  801.6078 0.03 14
  802.5165 0.07 32
  803.0920 0.02 9
  803.8936 0.01 5
  804.2944 0.04 18
  805.0237 0.04 18
  805.4291 0.12 54
  806.1492 0.10 45
  806.4009 0.05 23
  806.7574 0.05 23
  807.6826 0.12 54
  808.9434 0.06 27
  809.5564 0.06 27
  810.5306 0.05 23
  812.0293 0.03 14
  812.8638 0.02 9
  813.5677 0.05 23
  814.3882 0.04 18
  815.5794 0.04 18
  816.5701 0.06 27
  817.5237 0.11 50
  818.5192 0.03 14
  819.7936 0.13 59
  821.3105 0.09 41
  821.8316 0.03 14
  822.3830 0.07 32
  823.2415 0.08 36
  824.2676 0.09 41
  824.9888 0.01 5
  825.5054 0.07 32
  826.7828 0.10 45
  827.7532 0.08 36
  828.4048 0.14 63
  828.9563 0.15 68
  829.3426 0.11 50
  830.2548 0.14 63
  831.4254 0.10 45
  832.6799 0.11 50
  834.4744 1.12 506
  835.4124 0.17 77
  835.8686 0.10 45
  836.7648 0.05 23
  837.6121 0.08 36
  838.1219 0.02 9
  839.3400 0.07 32
  840.8835 0.04 18
  841.4600 0.03 14
  841.7854 0.05 23
  842.6246 0.02 9
  843.3221 0.06 27
  844.0172 0.04 18
  844.4845 0.03 14
  845.2308 0.04 18
  845.7748 0.06 27
  846.6816 0.16 72
  847.5024 0.10 45
  849.1393 0.20 90
  850.2136 0.09 41
  850.9252 0.06 27
  851.2554 0.04 18
  852.3530 0.04 18
  852.6879 0.03 14
  853.7158 0.05 23
  854.4763 0.06 27
  855.0438 0.04 18
  855.3857 0.01 5
  856.1392 0.03 14
  856.9346 0.09 41
  858.7396 0.04 18
  859.4118 0.06 27
  860.6121 0.23 104
  861.6077 0.10 45
  862.6592 0.17 77
  863.7060 0.29 131
  864.8064 0.28 127
  865.6998 0.17 77
  866.8677 0.09 41
  867.7542 0.09 41
  868.6942 0.04 18
  869.8297 0.08 36
  871.3585 0.13 59
  874.6605 1.74 787
  875.6799 0.82 371
  876.6061 0.40 181
  877.6279 0.27 122
  878.8893 0.10 45
  879.7971 0.10 45
  881.3287 0.15 68
  882.4622 0.16 72
  883.3771 0.16 72
  885.0392 0.23 104
  892.6477 99.96 999
  894.1380 2.10 949
  895.0578 0.91 411
  896.7903 0.43 194
  897.9710 0.12 54
  899.1448 0.10 45
  899.7107 0.07 32
  900.2347 0.06 27
  900.5887 0.03 14
  900.9288 0.02 9
  901.9652 0.04 18
  902.2587 0.01 5
//
