ACCESSION: MSBNK-Kyoto_Univ-CA000110
RECORD_TITLE: Parasiloxanthin; FAB-EBEB; MS2; m/z: 570.44; [M]+*
DATE: 2016.01.19 (Created 2010.07.29, modified 2011.05.10)
AUTHORS: Akimoto N, Graduate School of Pharmaceutical Sciences, Kyoto University and Maoka T, Research Institute for Production Development
LICENSE: CC BY-SA
COMMENT: Profile spectrum of this record is given as a JPEG file.
COMMENT: [Profile] CA000110.jpg
CH$NAME: Parasiloxanthin
CH$COMPOUND_CLASS: Natural Product
CH$FORMULA: C40H58O2
CH$EXACT_MASS: 570.44368
CH$SMILES: C(=CC=C(C)C=CC(=C(C)2)C(C)(C)CC(C2)O)C(C)=CC=CC=C(C)C=CC=C(CCC(=C(C)1)C(CC(O)C1)(C)C)C
CH$IUPAC: InChI=1S/C40H58O2/c1-29(17-13-19-31(3)21-23-37-33(5)25-35(41)27-39(37,7)8)15-11-12-16-30(2)18-14-20-32(4)22-24-38-34(6)26-36(42)28-40(38,9)10/h11-21,23,35-36,41-42H,22,24-28H2,1-10H3/b12-11+,17-13+,18-14+,23-21+,29-15+,30-16+,31-19+,32-20+/t35-,36-/m1/s1
CH$LINK: CAS 62994-48-3
CH$LINK: CHEMSPIDER 17220906
CH$LINK: PUBCHEM CID:16061229
CH$LINK: INCHIKEY ZAYHYNGKERKFHJ-DRCJTWAYSA-N
SP$SCIENTIFIC_NAME: Silurus asotus
SP$LINEAGE: cellular organisms; Eukaryota; Fungi/Metazoa group; Metazoa; Eumetazoa; Bilateria; Coelomata; Deuterostomia; Chordata; Craniata; Vertebrata; Gnathostomata; Teleostomi; Euteleostomi; Actinopterygii; Actinopteri; Neopterygii; Teleostei; Elopocephala; Clupeocephala; Otocephala; Ostariophysi; Otophysi; Siluriphysi; Siluriformes; Siluridae; Silurus
SP$LINK: NCBI-TAXONOMY 30991
AC$INSTRUMENT: JMS-HX/HX 110A, JEOL
AC$INSTRUMENT_TYPE: FAB-EBEB
AC$MASS_SPECTROMETRY: MS_TYPE MS2
AC$MASS_SPECTROMETRY: ION_MODE POSITIVE
AC$MASS_SPECTROMETRY: ATOM_GUN_CURRENT 5 mA
AC$MASS_SPECTROMETRY: BOMBARDMENT 6 kV xenon
AC$MASS_SPECTROMETRY: COLLISION_ENERGY 3 kV
AC$MASS_SPECTROMETRY: COLLISION_GAS Ar
AC$MASS_SPECTROMETRY: GAS_PRESSURE adjust to attenuate the intensity of the precursor ion by 30 %
AC$MASS_SPECTROMETRY: IONIZATION FAB
AC$MASS_SPECTROMETRY: MATRIX 1-2 uL m-NBA
AC$MASS_SPECTROMETRY: PROBE_TIP stainless-steel
MS$FOCUSED_ION: BASE_PEAK 570.4825
MS$FOCUSED_ION: PRECURSOR_M/Z 570.44
MS$FOCUSED_ION: PRECURSOR_TYPE [M]+*
PK$SPLASH: splash10-00dl-3910020000-b47e3debab2d0bdde02b
PK$ANNOTATION: m/z InChI
  417.316 InChI=1/C30H41O/c1-23(2)13-11-16-24(3)14-9-10-15-25(4)17-12-18-26(5)19-20-29-27(6)21-28(31)22-30(29,7)8/h9-20,28,31H,1,21-22H2,2-8H3/q+1/b10-9+,16-11+,17-12+,20-19+,23-13-,24-14+,25-15+,26-18+/t28-/m1/s1
  431.331 InChI=1/C31H43O/c1-9-24(2)16-12-17-25(3)14-10-11-15-26(4)18-13-19-27(5)20-21-30-28(6)22-29(32)23-31(30,7)8/h10-21,29,32H,1,9,22-23H2,2-8H3/q+1/b11-10+,17-12+,18-13+,21-20+,24-16+,25-14+,26-15+,27-19+/t29-/m1/s1
  552.433 InChI=1/C40H56O/c1-30(18-13-20-32(3)23-25-37-34(5)22-15-27-39(37,7)8)16-11-12-17-31(2)19-14-21-33(4)24-26-38-35(6)28-36(41)29-40(38,9)10/h11-21,23,25,27,36,41H,22,24,26,28-29H2,1-10H3/q+1/b12-11+,18-13+,19-14+,25-23+,30-16+,31-17+,32-20+,33-21+/t36-/m1/s1
  552.433 InChI=1/C40H56O/c1-30(18-13-20-32(3)23-25-37-34(5)22-15-27-39(37,7)8)16-11-12-17-31(2)19-14-21-33(4)24-26-38-35(6)28-36(41)29-40(38,9)10/h11-21,24,26-27,36,41H,22-23,25,28-29H2,1-10H3/q+1/b12-11+,18-13+,19-14+,26-24+,30-16+,31-17+,32-20+,33-21+/t36-/m1/s1
PK$NUM_PEAK: 1737
PK$PEAK: m/z int. rel.int.
  11.9560 0.04 0
  12.9634 0.01 0
  13.9602 0.07 1
  14.3456 0.03 0
  14.9628 0.30 3
  17.9150 0.01 0
  22.9246 0.20 2
  24.9228 0.03 0
  25.6881 0.03 0
  25.9537 0.26 3
  26.9497 2.70 27
  27.9504 0.26 3
  28.6955 0.02 0
  28.9530 2.77 28
  29.9440 0.03 0
  30.0424 0.01 0
  30.9358 0.44 4
  31.6651 0.01 0
  33.1511 0.01 0
  35.9165 0.01 0
  36.2185 0.01 0
  36.9440 0.26 3
  37.5460 0.01 0
  37.6476 0.04 0
  37.9343 0.78 8
  38.2749 0.01 0
  38.4228 0.01 0
  38.9409 6.05 60
  39.1848 0.02 0
  39.6033 0.01 0
  39.9546 0.77 8
  40.4632 0.01 0
  40.5887 0.04 0
  40.9609 13.94 139
  41.1256 0.03 0
  41.9488 0.30 3
  42.2779 0.02 0
  42.6426 0.03 0
  42.9600 12.76 128
  43.3654 0.01 0
  43.9478 0.21 2
  44.4244 0.01 0
  44.9450 0.48 5
  45.1065 0.02 0
  45.9729 0.01 0
  47.7820 0.02 0
  47.9697 0.01 0
  48.4267 0.01 0
  48.9373 0.16 2
  49.0802 0.04 0
  49.1698 0.02 0
  49.4224 0.02 0
  49.9308 1.59 16
  50.2665 0.02 0
  50.9350 3.44 34
  51.0832 0.03 0
  51.2458 0.01 0
  51.5393 0.02 0
  51.6776 0.02 0
  51.9428 1.30 13
  52.4439 0.01 0
  52.6791 0.01 0
  52.9516 7.41 74
  53.9649 0.35 3
  54.1892 0.04 0
  54.9595 20.48 205
  55.9721 0.31 3
  56.2892 0.02 0
  56.7483 0.02 0
  56.9753 9.02 90
  57.7281 0.02 0
  57.9486 0.10 1
  58.2981 0.02 0
  58.9515 1.87 19
  59.4355 0.01 0
  59.9640 0.07 1
  60.2668 0.04 0
  60.9172 0.26 3
  61.0428 0.04 0
  61.9299 0.94 9
  62.1251 0.01 0
  62.9368 2.77 28
  63.1145 0.06 1
  63.3735 0.02 0
  63.9129 0.52 5
  64.1359 0.03 0
  64.2888 0.02 0
  64.4557 0.06 1
  64.5976 0.02 0
  64.6563 0.01 0
  64.9460 5.61 56
  65.3520 0.05 0
  65.6526 0.02 0
  65.9541 0.82 8
  66.2431 0.04 0
  66.3477 0.03 0
  66.9583 14.76 147
  67.2806 0.03 0
  67.6931 0.01 0
  67.9715 0.63 6
  68.2144 0.02 0
  68.4497 0.03 0
  68.9725 21.65 216
  69.2084 0.04 0
  69.3062 0.01 0
  69.4121 0.02 0
  69.7275 0.02 0
  69.9624 0.28 3
  70.9500 2.78 28
  71.1640 0.02 0
  71.4155 0.01 0
  71.9461 0.06 1
  72.3368 0.03 0
  72.9399 0.11 1
  73.6498 0.02 0
  73.9195 0.63 6
  74.9221 0.64 6
  75.1529 0.18 2
  75.4030 0.03 0
  75.9074 0.59 6
  76.1494 0.09 1
  76.3037 0.09 1
  76.4475 0.11 1
  76.5361 0.09 1
  76.9378 14.10 141
  77.2904 0.10 1
  77.5036 0.05 0
  77.6252 0.04 0
  77.9463 3.27 33
  78.2349 0.15 1
  78.9548 16.83 168
  79.2848 0.05 0
  79.4170 0.04 0
  79.5586 0.03 0
  79.7321 0.03 0
  79.9610 2.14 21
  80.2166 0.04 0
  80.4941 0.05 0
  80.9725 21.11 211
  81.1980 0.09 1
  81.4285 0.02 0
  81.6271 0.04 0
  81.9738 0.80 8
  82.2841 0.04 0
  82.9749 6.45 64
  83.1880 0.04 0
  83.8400 0.06 1
  83.9882 0.10 1
  84.4616 0.02 0
  84.5468 0.03 0
  84.6750 0.02 0
  84.9702 6.61 66
  85.1838 0.05 0
  85.3098 0.06 1
  85.9451 0.37 4
  86.2694 0.02 0
  86.5023 0.04 0
  86.9344 0.52 5
  87.9550 0.25 2
  88.0422 0.12 1
  88.1252 0.05 0
  88.2527 0.01 0
  88.5728 0.16 2
  88.9414 1.41 14
  89.4243 0.27 3
  89.5389 0.17 2
  89.9428 0.56 6
  90.1724 0.19 2
  90.3440 0.12 1
  90.4940 0.14 1
  90.9617 35.47 354
  91.2548 0.09 1
  91.3948 0.12 1
  91.5408 0.04 0
  91.9745 3.80 38
  92.1893 0.13 1
  92.4899 0.12 1
  92.9804 32.88 329
  93.2798 0.15 1
  93.3930 0.14 1
  93.5805 0.03 0
  93.9897 2.17 22
  94.1926 0.02 0
  94.3217 0.05 0
  94.5015 0.09 1
  94.5844 0.06 1
  95.0022 17.75 177
  95.2476 0.04 0
  95.4650 0.06 1
  95.9808 0.64 6
  96.9896 5.06 51
  97.5003 0.04 0
  97.6917 0.01 0
  97.9710 0.39 4
  98.9950 0.37 4
  99.4400 0.01 0
  99.7073 0.02 0
  99.8176 0.02 0
  99.9514 0.06 1
  100.4738 0.05 0
  100.6287 0.06 1
  100.9689 0.47 5
  101.3217 0.10 1
  101.4787 0.08 1
  101.9611 1.46 15
  102.2458 0.11 1
  102.4508 0.08 1
  102.9788 5.86 59
  103.2572 0.16 2
  103.5786 0.09 1
  103.9859 2.55 25
  104.1773 0.07 1
  104.3084 0.07 1
  104.4184 0.04 0
  104.9943 45.63 456
  105.2757 0.22 2
  105.4363 0.02 0
  105.9915 4.43 44
  106.2708 0.06 1
  106.5010 0.12 1
  107.0071 27.57 276
  107.5961 0.10 1
  108.0085 1.75 17
  108.3474 0.07 1
  109.0210 26.33 263
  109.4162 0.18 2
  109.5619 0.06 1
  109.9945 0.74 7
  110.1779 0.08 1
  110.3433 0.03 0
  110.4849 0.02 0
  110.6523 0.02 0
  111.0065 4.86 49
  111.3196 0.05 0
  111.5989 0.04 0
  111.9939 0.18 2
  112.1704 0.05 0
  112.3018 0.01 0
  112.9406 0.40 4
  113.1514 0.14 1
  113.2830 0.09 1
  113.3938 0.08 1
  113.6116 0.14 1
  113.7206 0.09 1
  113.9600 0.37 4
  114.0967 0.20 2
  114.5040 0.29 3
  114.9652 13.85 138
  115.5101 0.15 1
  115.9688 5.50 55
  116.2710 0.12 1
  116.9707 14.88 149
  117.2803 0.15 1
  117.4665 0.23 2
  117.9824 3.45 34
  118.4675 0.13 1
  118.9898 44.62 446
  119.3308 0.20 2
  119.9898 4.97 50
  120.4840 0.13 1
  120.9982 13.65 136
  121.2918 0.09 1
  121.4497 0.07 1
  121.5784 0.05 0
  122.0023 1.23 12
  122.2790 0.02 0
  122.5304 0.03 0
  123.0071 4.59 46
  123.2945 0.05 0
  123.4720 0.02 0
  123.6190 0.05 0
  123.9884 0.31 3
  124.2128 0.12 1
  124.4584 0.04 0
  124.5627 0.03 0
  124.9767 0.71 7
  125.2398 0.02 0
  125.3442 0.02 0
  125.5178 0.05 0
  125.7035 0.11 1
  125.9592 0.54 5
  126.4324 0.10 1
  126.9545 5.11 51
  127.1779 0.37 4
  127.4745 0.24 2
  127.9460 15.34 153
  128.3457 0.30 3
  128.9548 19.75 197
  129.5230 0.16 2
  129.9732 9.10 91
  130.2869 0.12 1
  130.5035 0.23 2
  130.9696 24.20 242
  131.5593 0.12 1
  131.9737 6.04 60
  132.3347 0.15 1
  132.4510 0.10 1
  132.9887 35.02 350
  133.4187 0.22 2
  133.6419 0.16 2
  133.9939 2.31 23
  135.0009 37.87 378
  135.2745 0.40 4
  135.4146 0.13 1
  135.9766 0.83 8
  136.2078 0.12 1
  136.3389 0.08 1
  136.5143 0.10 1
  136.6904 0.12 1
  136.9925 2.99 30
  137.3215 0.11 1
  137.5074 0.03 0
  137.9380 0.42 4
  138.2068 0.16 2
  138.3421 0.11 1
  138.4730 0.11 1
  138.9613 1.95 19
  139.4819 0.08 1
  139.9362 0.85 8
  140.1045 0.39 4
  140.3954 0.38 4
  140.9591 11.49 115
  141.2242 0.11 1
  141.3378 0.07 1
  141.4658 0.05 0
  141.9609 11.64 116
  142.4236 0.21 2
  142.9794 26.26 262
  143.2731 0.19 2
  143.5643 0.12 1
  143.9852 9.10 91
  144.2747 0.21 2
  144.9901 30.70 307
  145.2575 0.22 2
  145.5106 0.12 1
  146.0005 3.09 31
  146.2276 0.13 1
  146.5288 0.11 1
  147.0179 9.27 93
  147.3516 0.13 1
  147.6025 0.13 1
  148.0172 0.94 9
  148.4288 0.10 1
  149.0155 4.33 43
  149.2702 0.09 1
  149.4281 0.08 1
  149.6407 0.09 1
  149.9844 0.51 5
  150.2663 0.07 1
  150.4205 0.10 1
  150.9938 2.70 27
  151.2931 0.17 2
  151.9777 4.62 46
  152.2455 0.22 2
  152.3855 0.14 1
  152.9829 8.53 85
  153.4135 0.16 2
  153.9904 3.89 39
  154.2329 0.21 2
  155.0033 14.93 149
  155.3328 0.13 1
  156.0132 10.06 101
  156.4397 0.14 1
  156.5940 0.07 1
  157.0174 22.72 227
  157.4529 0.29 3
  157.6471 0.21 2
  158.0284 4.55 45
  158.5604 0.24 2
  159.0469 15.61 156
  159.4698 0.18 2
  160.0290 1.65 16
  160.3127 0.04 0
  160.4502 0.08 1
  160.5646 0.04 0
  161.0558 4.19 42
  161.3264 0.16 2
  161.5719 0.06 1
  162.0109 0.48 5
  162.2924 0.02 0
  162.4342 0.04 0
  162.6152 0.10 1
  163.0367 1.53 15
  163.3131 0.21 2
  163.6935 0.15 1
  164.0107 0.74 7
  164.1480 0.38 4
  164.2706 0.16 2
  164.4139 0.09 1
  165.0007 8.87 89
  165.3242 0.10 1
  166.0302 3.55 35
  166.2612 0.18 2
  167.0258 9.12 91
  167.5249 0.10 1
  168.0281 3.36 34
  168.3551 0.11 1
  168.4950 0.08 1
  169.0522 16.01 160
  169.5422 0.18 2
  169.6709 0.12 1
  170.0510 5.31 53
  170.6208 0.20 2
  171.0593 11.18 112
  171.5440 0.27 3
  172.0663 2.19 22
  172.2760 0.17 2
  172.4604 0.17 2
  173.0653 7.26 73
  173.3775 0.08 1
  173.5815 0.15 1
  173.6757 0.08 1
  174.0663 0.94 9
  174.3319 0.12 1
  175.0835 4.73 47
  175.4437 0.21 2
  175.7664 0.18 2
  176.0350 1.06 11
  176.2440 0.06 1
  176.4129 0.06 1
  176.6280 0.17 2
  177.0421 2.07 21
  177.3726 0.17 2
  177.4799 0.20 2
  178.0030 4.31 43
  178.4001 0.16 2
  178.5564 0.28 3
  179.0168 8.76 88
  180.0259 3.84 38
  180.4316 0.20 2
  181.0249 9.63 96
  181.4127 0.15 1
  182.0333 4.41 44
  182.3985 0.22 2
  182.5727 0.12 1
  183.0437 13.99 140
  184.0217 3.03 30
  184.4776 0.16 2
  185.0529 7.40 74
  185.4996 0.15 1
  186.0517 1.26 13
  186.5263 0.40 4
  186.6174 0.15 1
  187.0605 4.27 43
  187.4410 0.14 1
  187.6569 0.21 2
  187.8108 0.13 1
  188.0571 0.43 4
  188.2846 0.08 1
  188.5290 0.15 1
  189.0043 2.35 23
  189.4589 0.13 1
  189.6116 0.13 1
  189.9947 0.86 9
  190.3366 0.16 2
  190.9903 3.76 38
  191.4400 0.07 1
  191.5387 0.02 0
  192.0183 3.25 32
  192.2402 0.28 3
  192.5163 0.13 1
  193.0130 7.07 71
  193.4774 0.17 2
  194.0165 3.74 37
  194.3016 0.10 1
  194.4188 0.11 1
  195.0394 12.09 121
  195.3417 0.13 1
  195.5898 0.11 1
  196.0338 3.41 34
  196.2433 0.27 3
  196.6272 0.17 2
  197.0491 11.00 110
  197.3585 0.19 2
  197.6007 0.14 1
  198.0649 2.16 22
  198.2991 0.16 2
  198.5482 0.09 1
  199.0528 6.06 61
  199.4650 0.14 1
  199.6308 0.09 1
  199.7456 0.11 1
  200.0133 0.70 7
  200.2368 0.18 2
  200.3789 0.06 1
  200.6106 0.11 1
  201.0491 1.77 18
  201.3978 0.16 2
  201.6012 0.16 2
  202.0092 1.85 18
  202.3799 0.13 1
  203.0168 2.85 28
  203.4122 0.07 1
  203.6620 0.14 1
  204.0099 1.25 12
  204.3388 0.01 0
  204.5805 0.06 1
  205.0062 3.20 32
  205.3693 0.02 0
  205.4511 0.01 0
  205.6051 0.04 0
  206.0385 2.56 26
  206.3731 0.08 1
  206.5613 0.22 2
  207.0399 5.60 56
  207.3536 0.11 1
  208.0247 2.67 27
  208.5678 0.34 3
  209.0537 7.83 78
  209.4803 0.18 2
  209.6620 0.16 2
  210.0525 2.54 25
  210.4274 0.18 2
  211.0688 6.19 62
  211.3196 0.20 2
  211.5218 0.05 0
  212.0740 1.11 11
  212.3098 0.10 1
  212.6045 0.17 2
  213.0810 1.99 20
  213.4455 0.05 0
  213.7417 0.12 1
  214.0776 0.69 7
  215.0034 2.38 24
  215.5304 0.19 2
  215.6413 0.13 1
  216.0370 1.19 12
  216.3103 0.06 1
  216.4253 0.12 1
  217.0411 3.10 31
  217.2973 0.09 1
  217.4391 0.13 1
  217.7495 0.12 1
  218.0448 1.14 11
  218.4602 0.07 1
  219.0491 3.25 32
  219.5640 0.02 0
  220.0626 1.41 14
  220.3535 0.14 1
  220.5813 0.06 1
  221.0705 3.98 40
  221.4397 0.11 1
  221.6126 0.11 1
  222.0815 1.46 15
  222.3904 0.12 1
  222.6019 0.21 2
  223.0998 4.10 41
  223.4205 0.16 2
  223.6191 0.13 1
  224.0821 0.86 9
  224.2580 0.20 2
  224.4133 0.12 1
  224.6394 0.11 1
  225.1171 2.86 29
  225.4257 0.17 2
  225.6003 0.13 1
  226.0362 0.65 6
  226.3980 0.03 0
  226.5988 0.07 1
  227.0865 0.94 9
  227.4821 0.14 1
  227.5681 0.08 1
  228.0731 0.85 8
  228.4427 0.08 1
  229.0611 1.75 17
  229.3374 0.08 1
  229.5044 0.05 0
  230.0756 0.69 7
  230.4489 0.17 2
  231.0863 1.76 18
  231.5272 0.04 0
  231.7164 0.11 1
  232.1057 1.17 12
  232.4965 0.10 1
  233.0787 2.30 23
  233.5743 0.08 1
  234.0975 1.20 12
  234.4796 0.13 1
  234.6277 0.14 1
  235.0994 2.62 26
  235.3095 0.19 2
  235.4652 0.08 1
  235.8772 0.19 2
  236.1135 0.90 9
  236.3333 0.17 2
  236.5055 0.07 1
  236.6737 0.09 1
  237.1058 3.04 30
  237.5291 0.07 1
  237.7972 0.10 1
  238.1165 0.75 7
  239.1033 1.57 16
  239.3379 0.19 2
  239.5310 0.12 1
  240.0788 0.43 4
  240.3459 0.10 1
  240.5004 0.09 1
  240.7772 0.18 2
  241.1085 1.03 10
  241.5392 0.08 1
  241.7705 0.06 1
  242.0833 0.53 5
  242.7007 0.14 1
  243.1164 1.09 11
  243.7292 0.07 1
  244.0691 0.73 7
  244.4208 0.09 1
  244.7304 0.06 1
  245.1092 1.55 15
  245.3739 0.07 1
  245.6111 0.05 0
  246.1144 0.86 9
  246.2181 0.38 4
  246.4726 0.03 0
  247.1081 1.80 18
  247.4575 0.08 1
  247.6408 0.04 0
  248.0711 0.55 5
  248.3845 0.03 0
  248.6260 0.09 1
  249.1361 2.60 26
  249.4690 0.06 1
  249.6324 0.04 0
  249.7348 0.04 0
  250.1322 0.66 7
  250.3829 0.10 1
  250.4708 0.05 0
  250.6689 0.05 0
  251.1391 1.81 18
  251.6239 0.11 1
  252.0888 0.71 7
  252.4185 0.08 1
  252.6056 0.14 1
  253.1302 1.10 11
  253.4906 0.06 1
  253.6271 0.04 0
  254.1241 0.54 5
  254.2767 0.21 2
  254.4957 0.08 1
  254.6184 0.05 0
  254.7839 0.07 1
  255.1183 1.40 14
  255.3815 0.01 0
  255.6557 0.04 0
  255.8926 0.12 1
  256.1316 0.36 4
  256.3234 0.21 2
  256.5229 0.02 0
  256.7176 0.06 1
  257.1223 1.25 12
  257.4188 0.06 1
  257.6031 0.08 1
  257.8090 0.11 1
  258.1410 0.61 6
  258.5291 0.12 1
  259.1253 1.38 14
  259.3902 0.09 1
  259.6405 0.05 0
  260.1335 0.49 5
  260.5552 0.07 1
  260.6787 0.04 0
  261.1365 1.48 15
  261.4647 0.12 1
  261.6284 0.06 1
  261.7748 0.07 1
  262.1197 0.47 5
  262.4535 0.13 1
  262.8685 0.25 2
  263.1580 1.65 16
  263.7328 0.07 1
  264.1556 0.67 7
  264.3778 0.13 1
  264.6667 0.11 1
  265.1757 0.99 10
  265.3952 0.08 1
  265.4980 0.14 1
  265.5668 0.06 1
  265.8627 0.07 1
  266.1614 0.34 3
  266.4254 0.03 0
  266.7708 0.17 2
  267.1766 0.95 9
  267.3065 0.47 5
  267.6221 0.08 1
  267.7451 0.05 0
  268.1594 0.42 4
  268.3109 0.16 2
  268.4180 0.04 0
  268.5125 0.03 0
  268.6891 0.05 0
  269.1584 1.05 10
  269.6028 0.05 0
  269.7724 0.18 2
  270.1389 0.62 6
  270.5917 0.05 0
  270.8088 0.10 1
  271.1601 1.41 14
  271.3584 0.32 3
  271.6736 0.08 1
  271.8879 0.09 1
  272.1718 0.33 3
  272.4898 0.08 1
  272.5559 0.03 0
  272.6831 0.03 0
  272.7784 0.05 0
  273.1393 0.78 8
  273.4307 0.06 1
  273.6123 0.09 1
  273.8105 0.04 0
  274.1722 0.23 2
  274.4025 0.13 1
  274.5924 0.09 1
  274.7058 0.13 1
  275.1595 0.79 8
  275.5206 0.01 0
  275.8532 0.15 1
  276.1623 0.39 4
  276.4838 0.08 1
  276.6982 0.19 2
  277.1953 1.18 12
  277.5420 0.14 1
  277.7648 0.04 0
  278.1450 0.37 4
  278.4284 0.06 1
  278.6937 0.06 1
  279.1653 0.77 8
  279.4091 0.12 1
  279.6090 0.03 0
  280.1698 0.51 5
  280.4652 0.08 1
  280.7370 0.06 1
  280.8178 0.05 0
  281.2039 0.60 6
  281.7203 0.07 1
  281.9294 0.07 1
  282.2403 0.81 8
  282.6697 0.10 1
  282.7666 0.04 0
  283.1822 1.31 13
  283.6277 0.02 0
  283.7358 0.04 0
  284.1974 0.46 5
  284.7777 0.12 1
  285.1698 0.84 8
  285.6009 0.08 1
  285.7090 0.07 1
  286.1681 0.43 4
  286.2840 0.19 2
  286.7759 0.07 1
  287.1905 0.64 6
  287.6728 0.03 0
  288.0930 0.37 4
  288.2123 0.28 3
  288.4720 0.01 0
  288.7254 0.04 0
  289.1700 0.73 7
  289.6523 0.13 1
  289.8335 0.08 1
  290.0113 0.07 1
  290.1500 0.26 3
  290.2399 0.12 1
  290.3710 0.14 1
  290.6331 0.09 1
  291.0815 0.31 3
  291.2753 0.33 3
  291.4922 0.03 0
  291.7390 0.04 0
  291.8652 0.04 0
  292.0222 0.06 1
  292.1923 0.12 1
  292.3604 0.05 0
  292.4720 0.02 0
  292.8228 0.03 0
  293.1305 0.32 3
  293.2477 0.13 1
  293.5776 0.01 0
  293.8135 0.07 1
  294.1847 0.11 1
  294.4882 0.04 0
  295.1798 0.68 7
  295.4568 0.04 0
  295.8310 0.05 0
  296.1849 0.22 2
  296.3447 0.14 1
  296.5967 0.07 1
  296.7308 0.04 0
  297.1700 0.48 5
  297.5498 0.12 1
  297.9562 0.06 1
  298.2216 0.24 2
  298.3676 0.05 0
  298.5296 0.02 0
  298.7063 0.01 0
  299.1407 0.40 4
  299.2609 0.16 2
  299.4914 0.03 0
  299.7988 0.06 1
  300.0873 0.24 2
  300.2439 0.24 2
  300.5282 0.05 0
  300.9000 0.09 1
  301.1467 0.74 7
  301.2725 0.45 4
  301.8721 0.12 1
  301.9853 0.07 1
  302.2111 0.33 3
  302.6703 0.13 1
  303.1492 0.40 4
  303.4827 0.05 0
  303.7414 0.06 1
  303.9763 0.10 1
  304.2113 0.17 2
  304.6379 0.05 0
  305.1534 0.30 3
  305.5975 0.03 0
  305.8297 0.07 1
  306.0375 0.06 1
  306.1928 0.09 1
  306.3299 0.05 0
  306.5090 0.02 0
  306.6804 0.06 1
  306.9505 0.09 1
  307.1842 0.29 3
  307.3115 0.11 1
  307.7783 0.04 0
  307.9070 0.05 0
  308.1821 0.20 2
  308.5922 0.04 0
  308.6832 0.06 1
  308.8827 0.03 0
  309.1991 0.48 5
  309.3895 0.15 1
  309.7619 0.04 0
  309.8704 0.06 1
  310.1988 0.40 4
  310.3381 0.12 1
  310.7967 0.10 1
  311.1321 0.39 4
  311.3149 0.18 2
  311.4578 0.08 1
  311.6595 0.03 0
  312.0377 0.09 1
  312.2975 0.08 1
  312.4614 0.08 1
  312.5742 0.02 0
  312.7248 0.08 1
  313.1808 0.40 4
  313.4590 0.10 1
  313.6328 0.03 0
  314.1148 0.28 3
  314.2563 0.22 2
  314.5142 0.03 0
  314.7146 0.02 0
  314.8583 0.04 0
  315.0349 0.16 2
  315.2248 0.38 4
  315.4582 0.04 0
  315.7589 0.04 0
  315.9670 0.12 1
  316.1275 0.13 1
  316.3301 0.18 2
  317.2071 0.69 7
  317.3698 0.27 3
  317.6124 0.10 1
  318.2119 0.15 1
  318.3830 0.17 2
  318.5289 0.07 1
  319.1741 0.25 2
  319.3263 0.09 1
  319.4582 0.03 0
  319.6146 0.02 0
  319.8425 0.05 0
  320.2291 0.30 3
  320.5988 0.02 0
  320.7250 0.06 1
  320.9313 0.06 1
  321.2393 0.35 3
  321.4014 0.12 1
  321.7122 0.08 1
  322.2505 0.23 2
  322.4919 0.03 0
  322.7852 0.04 0
  323.0547 0.35 3
  323.2625 0.36 4
  323.4619 0.04 0
  323.6830 0.03 0
  323.9687 0.07 1
  324.0606 0.06 1
  324.2375 0.18 2
  324.3737 0.10 1
  324.5247 0.09 1
  324.7872 0.08 1
  325.2387 1.07 11
  325.7351 0.04 0
  325.9879 0.13 1
  326.1129 0.08 1
  326.2611 0.10 1
  326.3601 0.06 1
  326.5779 0.03 0
  326.8019 0.07 1
  327.2036 0.16 2
  327.4467 0.04 0
  327.7502 0.08 1
  328.0726 0.16 2
  328.2117 0.20 2
  328.3234 0.10 1
  328.4913 0.09 1
  328.6156 0.04 0
  328.9445 0.05 0
  329.2115 0.26 3
  329.5797 0.04 0
  329.8130 0.04 0
  330.0821 0.08 1
  330.2529 0.13 1
  330.5761 0.07 1
  331.1588 0.50 5
  331.3865 0.06 1
  331.6649 0.02 0
  331.8962 0.09 1
  332.2505 0.16 2
  332.6180 0.02 0
  333.2241 0.42 4
  333.3981 0.09 1
  333.6506 0.09 1
  333.8120 0.04 0
  334.0182 0.01 0
  334.2554 0.20 2
  334.3676 0.11 1
  334.5564 0.07 1
  334.9795 0.16 2
  335.2188 0.31 3
  335.4160 0.14 1
  335.7142 0.03 0
  335.8504 0.05 0
  336.2897 0.26 3
  336.4294 0.10 1
  336.5740 0.08 1
  336.7473 0.02 0
  336.8639 0.08 1
  337.2289 0.63 6
  337.6051 0.05 0
  337.8010 0.02 0
  337.9751 0.12 1
  338.2960 0.50 5
  338.7369 0.07 1
  339.2586 0.35 3
  339.4945 0.05 0
  339.7305 0.04 0
  340.0964 0.05 0
  340.2986 0.11 1
  340.4693 0.02 0
  340.6934 0.07 1
  341.0762 0.09 1
  341.2166 0.12 1
  341.3782 0.07 1
  341.6515 0.07 1
  342.1334 0.20 2
  342.3519 0.05 0
  342.6231 0.04 0
  342.8247 0.06 1
  343.1880 0.26 3
  343.5013 0.08 1
  343.7508 0.02 0
  343.9532 0.04 0
  344.2146 0.17 2
  344.3840 0.09 1
  344.5934 0.05 0
  344.8260 0.03 0
  345.2471 0.26 3
  345.7243 0.08 1
  345.9985 0.06 1
  346.2326 0.15 1
  346.3190 0.05 0
  346.6108 0.04 0
  346.8667 0.05 0
  347.2245 0.36 4
  347.4980 0.08 1
  347.8025 0.04 0
  348.2610 0.27 3
  348.5999 0.06 1
  349.0219 0.16 2
  349.2406 0.36 4
  349.4685 0.15 1
  349.7126 0.06 1
  350.1050 0.12 1
  350.3759 0.16 2
  350.4912 0.08 1
  350.7290 0.09 1
  350.9260 0.12 1
  351.2862 0.54 5
  351.6358 0.05 0
  351.8427 0.06 1
  352.0059 0.03 0
  352.1699 0.22 2
  352.3324 0.14 1
  352.5498 0.01 0
  352.8749 0.06 1
  353.1234 0.12 1
  353.2655 0.17 2
  353.4590 0.05 0
  353.8285 0.04 0
  354.2050 0.09 1
  354.7864 0.01 0
  355.0082 0.09 1
  355.3179 0.15 1
  355.6664 0.03 0
  355.9064 0.12 1
  356.1381 0.15 1
  356.4633 0.10 1
  356.9175 0.07 1
  357.1203 0.26 3
  357.3266 0.24 2
  357.8765 0.05 0
  358.0434 0.13 1
  358.2646 0.17 2
  358.4068 0.15 1
  358.5322 0.03 0
  358.7801 0.08 1
  358.8773 0.03 0
  359.2095 0.27 3
  359.4115 0.06 1
  359.5410 0.03 0
  359.7563 0.06 1
  359.9281 0.08 1
  360.1596 0.28 3
  360.3496 0.18 2
  360.6959 0.03 0
  360.9712 0.13 1
  361.3456 0.34 3
  361.5730 0.10 1
  361.8884 0.02 0
  362.0827 0.07 1
  362.2101 0.24 2
  362.3713 0.17 2
  362.6255 0.04 0
  363.0663 0.13 1
  363.2507 0.16 2
  363.6324 0.02 0
  364.2218 0.28 3
  364.2985 0.15 1
  364.4528 0.11 1
  364.7739 0.06 1
  364.9316 0.04 0
  365.3359 0.25 2
  365.7148 0.01 0
  366.2438 0.15 1
  366.4453 0.04 0
  366.6588 0.05 0
  367.2463 0.15 1
  367.3689 0.05 0
  367.5584 0.10 1
  367.7613 0.04 0
  367.9804 0.02 0
  368.2728 0.08 1
  368.6167 0.01 0
  369.2051 0.12 1
  369.4088 0.13 1
  370.0648 0.07 1
  370.2862 0.14 1
  370.4884 0.05 0
  370.6505 0.03 0
  370.8698 0.06 1
  371.2173 0.32 3
  371.4442 0.09 1
  371.9849 0.06 1
  372.2683 0.18 2
  372.4770 0.14 1
  373.3207 0.27 3
  373.7826 0.02 0
  374.0628 0.05 0
  374.2058 0.12 1
  374.2910 0.05 0
  374.4410 0.07 1
  374.6396 0.01 0
  374.9325 0.05 0
  375.2840 0.36 4
  375.8122 0.05 0
  376.2827 0.45 4
  376.4384 0.14 1
  376.8371 0.05 0
  377.1682 0.17 2
  377.3689 0.22 2
  377.5302 0.05 0
  377.6493 0.07 1
  377.8388 0.03 0
  378.0959 0.05 0
  378.2897 0.12 1
  378.4729 0.05 0
  378.6420 0.01 0
  379.2853 0.06 1
  379.3741 0.02 0
  379.6228 0.04 0
  380.1359 0.02 0
  380.4720 0.11 1
  380.6454 0.07 1
  380.7715 0.03 0
  380.9167 0.06 1
  381.1260 0.04 0
  381.2585 0.11 1
  381.3720 0.02 0
  381.5623 0.03 0
  381.7005 0.07 1
  382.0522 0.06 1
  382.2144 0.08 1
  382.7698 0.02 0
  383.2774 0.28 3
  383.5742 0.05 0
  383.6666 0.04 0
  383.8083 0.08 1
  383.8985 0.06 1
  384.1700 0.09 1
  384.3780 0.05 0
  384.6642 0.12 1
  385.2700 0.26 3
  385.6571 0.10 1
  385.9603 0.09 1
  386.1550 0.17 2
  386.3524 0.28 3
  386.5859 0.04 0
  386.9435 0.11 1
  387.3406 0.68 7
  387.5458 0.35 3
  387.8675 0.09 1
  388.0001 0.03 0
  388.3013 0.24 2
  388.5440 0.10 1
  388.9771 0.02 0
  389.2628 0.05 0
  389.4202 0.07 1
  389.8696 0.05 0
  389.9423 0.02 0
  390.2563 0.14 1
  390.3988 0.03 0
  390.8447 0.05 0
  391.1559 0.08 1
  391.4142 0.07 1
  392.1453 0.08 1
  392.2992 0.06 1
  392.4954 0.11 1
  392.5998 0.10 1
  393.0473 0.06 1
  393.2993 0.10 1
  393.5011 0.13 1
  394.0835 0.04 0
  394.2628 0.01 0
  394.4068 0.04 0
  394.5967 0.07 1
  394.7068 0.03 0
  394.8515 0.03 0
  394.9963 0.03 0
  395.0979 0.03 0
  395.2412 0.09 1
  395.3930 0.11 1
  395.8505 0.01 0
  396.0150 0.05 0
  396.1852 0.06 1
  396.3695 0.02 0
  396.8857 0.08 1
  397.0841 0.09 1
  397.3545 0.05 0
  397.4774 0.12 1
  397.5636 0.05 0
  397.7217 0.07 1
  397.8835 0.06 1
  398.0734 0.07 1
  398.2853 0.19 2
  398.4167 0.07 1
  398.5318 0.02 0
  398.6631 0.06 1
  398.8672 0.03 0
  399.3475 0.66 7
  399.7629 0.10 1
  399.9854 0.17 2
  400.3407 0.41 4
  400.6423 0.09 1
  401.3212 1.53 15
  401.8878 0.22 2
  402.3132 1.51 15
  402.7272 0.06 1
  402.9180 0.09 1
  403.0805 0.05 0
  403.3511 0.41 4
  403.8394 0.11 1
  403.9977 0.20 2
  404.1539 0.26 3
  404.3157 0.17 2
  404.5143 0.13 1
  404.6889 0.05 0
  404.8811 0.06 1
  405.2847 0.36 4
  405.4370 0.18 2
  405.5901 0.07 1
  406.0491 0.07 1
  406.2550 0.07 1
  406.3587 0.04 0
  406.4617 0.04 0
  407.3101 0.10 1
  407.5647 0.09 1
  407.7418 0.03 0
  408.1311 0.01 0
  408.3229 0.13 1
  408.4718 0.04 0
  408.8076 0.03 0
  409.2520 0.08 1
  410.4555 0.06 1
  410.5599 0.08 1
  411.0496 0.04 0
  411.3509 0.07 1
  411.5005 0.09 1
  411.7968 0.03 0
  412.1094 0.06 1
  412.3938 0.13 1
  412.5370 0.06 1
  412.6845 0.01 0
  413.2462 0.22 2
  413.5243 0.16 2
  413.7607 0.09 1
  414.2139 0.27 3
  414.5075 0.22 2
  414.7009 0.14 1
  415.3142 1.04 10
  415.6467 0.36 4
  416.3371 4.08 41
  417.3438 26.98 270
  417.9143 0.47 5
  418.3408 0.57 6
  419.1436 0.40 4
  419.6210 0.14 1
  419.7771 0.08 1
  419.9649 0.06 1
  420.1704 0.11 1
  420.3378 0.13 1
  420.5094 0.03 0
  420.7249 0.06 1
  420.9579 0.07 1
  421.3704 0.01 0
  421.6070 0.05 0
  421.7369 0.02 0
  421.9703 0.05 0
  422.1149 0.10 1
  422.3032 0.13 1
  422.5825 0.06 1
  422.7603 0.04 0
  422.9578 0.02 0
  423.1433 0.13 1
  423.3288 0.14 1
  423.6660 0.06 1
  424.2691 0.11 1
  424.3939 0.13 1
  424.5209 0.11 1
  425.0691 0.09 1
  425.3181 0.35 3
  425.5791 0.09 1
  425.7442 0.01 0
  426.0462 0.12 1
  426.1781 0.08 1
  426.3319 0.14 1
  426.4956 0.09 1
  426.5838 0.06 1
  427.0841 0.11 1
  427.2161 0.04 0
  427.4009 0.09 1
  427.5054 0.04 0
  428.1341 0.03 0
  428.2689 0.06 1
  428.3994 0.10 1
  428.5074 0.05 0
  428.6902 0.03 0
  428.8038 0.03 0
  429.2061 0.24 2
  429.3649 0.03 0
  429.5766 0.08 1
  429.9140 0.06 1
  430.3438 0.57 6
  430.6742 0.05 0
  431.3052 0.69 7
  431.4570 0.31 3
  431.8177 0.02 0
  431.9829 0.06 1
  432.2074 0.14 1
  432.4248 0.22 2
  432.5484 0.04 0
  432.7934 0.08 1
  432.9889 0.03 0
  433.1965 0.12 1
  433.3603 0.16 2
  433.4719 0.08 1
  434.1815 0.09 1
  434.4307 0.01 0
  435.0471 0.05 0
  435.2209 0.06 1
  435.4299 0.06 1
  435.5556 0.03 0
  435.7088 0.01 0
  435.8889 0.02 0
  436.0061 0.11 1
  436.1855 0.09 1
  436.3423 0.07 1
  436.6304 0.05 0
  437.3232 0.06 1
  437.4892 0.04 0
  437.9384 0.06 1
  438.3199 0.14 1
  438.8242 0.03 0
  439.0446 0.11 1
  439.3152 0.07 1
  439.5518 0.04 0
  439.8647 0.05 0
  440.1099 0.10 1
  440.3367 0.05 0
  440.7379 0.01 0
  440.8453 0.02 0
  440.9774 0.03 0
  441.3392 0.11 1
  441.6995 0.07 1
  441.9793 0.12 1
  442.3347 0.10 1
  442.7142 0.06 1
  442.8449 0.05 0
  443.1283 0.07 1
  443.3636 0.19 2
  443.5049 0.02 0
  443.7381 0.04 0
  443.8568 0.07 1
  443.9572 0.03 0
  444.3678 0.08 1
  444.9402 0.01 0
  445.1085 0.02 0
  445.3120 0.13 1
  445.4951 0.02 0
  445.8859 0.03 0
  446.2492 0.15 1
  446.3807 0.06 1
  446.5341 0.05 0
  446.8472 0.02 0
  446.9759 0.02 0
  447.2707 0.25 2
  447.4071 0.06 1
  447.5548 0.11 1
  447.7202 0.03 0
  447.8673 0.05 0
  448.1458 0.05 0
  448.2498 0.08 1
  448.4583 0.15 1
  448.7736 0.04 0
  449.3194 0.08 1
  449.4898 0.07 1
  449.8787 0.04 0
  450.3468 0.03 0
  451.1352 0.01 0
  451.3615 0.07 1
  451.5347 0.02 0
  451.9795 0.04 0
  452.2836 0.05 0
  452.4661 0.02 0
  452.7249 0.04 0
  453.0941 0.06 1
  453.3614 0.05 0
  453.7780 0.03 0
  454.1408 0.06 1
  454.4103 0.06 1
  454.5532 0.07 1
  454.7265 0.07 1
  454.8333 0.05 0
  455.0872 0.04 0
  455.2358 0.11 1
  455.4643 0.07 1
  455.6404 0.15 1
  455.7515 0.05 0
  456.2261 0.17 2
  456.4398 0.09 1
  456.6194 0.09 1
  456.8723 0.19 2
  457.2588 0.25 2
  457.3804 0.24 2
  457.5493 0.24 2
  457.7153 0.14 1
  457.9202 0.02 0
  458.2234 0.26 3
  458.3075 0.13 1
  458.6601 0.11 1
  458.7230 0.04 0
  458.9364 0.16 2
  459.1407 0.10 1
  459.3993 0.11 1
  459.5859 0.09 1
  459.8983 0.09 1
  460.1371 0.05 0
  460.2849 0.06 1
  460.3697 0.02 0
  460.4891 0.04 0
  460.6446 0.09 1
  460.8015 0.04 0
  461.4688 0.03 0
  462.1382 0.03 0
  462.2498 0.05 0
  462.4082 0.04 0
  462.5178 0.03 0
  462.6789 0.07 1
  463.4353 0.06 1
  463.5499 0.07 1
  463.8899 0.02 0
  464.3247 0.21 2
  464.4817 0.23 2
  464.6181 0.07 1
  465.2983 0.08 1
  465.5769 0.03 0
  465.8300 0.13 1
  466.5824 0.06 1
  466.6714 0.05 0
  466.8836 0.05 0
  467.1226 0.02 0
  467.5922 0.07 1
  467.7640 0.07 1
  467.8892 0.11 1
  468.1989 0.08 1
  468.3743 0.07 1
  468.7293 0.01 0
  468.9161 0.07 1
  469.1947 0.07 1
  469.3008 0.09 1
  469.4140 0.11 1
  469.6926 0.06 1
  469.8023 0.05 0
  470.3780 0.60 6
  470.6482 0.17 2
  470.9007 0.08 1
  471.0769 0.04 0
  471.2091 0.08 1
  471.4193 0.09 1
  471.6166 0.17 2
  471.7326 0.05 0
  471.9052 0.02 0
  472.1472 0.02 0
  472.3134 0.06 1
  472.5596 0.07 1
  472.7145 0.05 0
  473.1185 0.13 1
  473.2628 0.09 1
  473.4503 0.07 1
  473.5656 0.07 1
  473.8698 0.05 0
  474.1507 0.04 0
  474.3446 0.05 0
  474.7436 0.07 1
  475.3323 0.04 0
  475.5269 0.10 1
  475.6394 0.04 0
  475.8934 0.04 0
  476.0406 0.08 1
  476.3138 0.13 1
  476.4397 0.15 1
  476.6605 0.05 0
  476.8339 0.05 0
  477.0448 0.05 0
  477.4666 0.31 3
  477.9648 0.38 4
  478.4460 5.22 52
  478.9160 0.34 3
  479.2458 0.08 1
  479.4893 0.08 1
  479.7441 0.07 1
  479.8857 0.12 1
  480.1150 0.07 1
  480.4930 0.06 1
  480.7471 0.10 1
  480.9177 0.06 1
  481.0763 0.12 1
  481.3559 0.08 1
  481.6525 0.07 1
  481.8769 0.02 0
  482.0291 0.07 1
  482.2429 0.04 0
  482.4234 0.06 1
  482.5445 0.04 0
  482.6549 0.08 1
  483.1087 0.08 1
  483.2114 0.06 1
  483.5293 0.07 1
  483.8018 0.02 0
  483.9066 0.02 0
  484.0496 0.06 1
  484.2595 0.16 2
  484.3754 0.05 0
  484.5854 0.14 1
  485.2095 0.06 1
  485.4470 0.21 2
  485.6096 0.05 0
  486.0846 0.03 0
  486.2628 0.04 0
  486.3773 0.07 1
  486.4805 0.06 1
  486.7986 0.01 0
  486.9209 0.03 0
  487.1408 0.04 0
  487.5247 0.10 1
  487.7827 0.03 0
  488.0613 0.06 1
  488.2373 0.08 1
  488.4890 0.01 0
  489.3792 0.10 1
  489.7568 0.03 0
  489.8487 0.03 0
  490.2030 0.08 1
  490.3352 0.02 0
  490.5601 0.16 2
  491.0982 0.05 0
  491.4256 0.96 10
  491.6286 0.56 6
  491.7707 0.15 1
  491.9864 0.06 1
  492.0606 0.02 0
  492.3358 0.04 0
  492.6101 0.04 0
  493.1660 0.03 0
  493.4702 0.10 1
  494.1626 0.06 1
  494.5693 0.06 1
  494.9385 0.02 0
  495.3997 0.03 0
  495.6147 0.05 0
  496.1594 0.02 0
  496.3469 0.13 1
  496.5400 0.17 2
  496.7006 0.08 1
  496.9850 0.12 1
  497.2785 0.08 1
  497.4646 0.09 1
  497.6443 0.07 1
  498.2365 0.15 1
  498.5336 0.28 3
  498.7395 0.08 1
  498.9277 0.01 0
  499.3352 0.04 0
  499.5772 0.12 1
  500.0526 0.03 0
  500.2678 0.05 0
  500.4885 0.14 1
  500.6541 0.11 1
  501.1303 0.01 0
  501.2655 0.06 1
  501.3922 0.07 1
  501.4742 0.02 0
  502.4777 0.15 1
  502.6843 0.10 1
  504.0835 0.11 1
  504.2816 0.03 0
  504.7219 0.06 1
  505.4410 0.11 1
  505.6661 0.05 0
  505.8806 0.09 1
  506.3697 0.07 1
  507.6141 0.07 1
  508.2498 0.02 0
  508.4707 0.13 1
  508.9465 0.03 0
  509.1404 0.07 1
  509.6091 0.05 0
  510.0920 0.03 0
  510.3278 0.09 1
  510.6095 0.10 1
  511.1145 0.05 0
  511.5199 0.09 1
  511.6689 0.04 0
  512.1747 0.18 2
  512.4311 0.19 2
  512.6352 0.05 0
  512.9651 0.02 0
  513.3013 0.07 1
  513.5259 0.05 0
  513.7576 0.02 0
  514.2104 0.09 1
  514.4047 0.13 1
  514.5333 0.19 2
  515.3287 0.07 1
  515.7957 0.09 1
  516.1277 0.04 0
  516.3086 0.06 1
  516.6456 0.06 1
  517.3154 0.03 0
  517.5224 0.07 1
  519.6387 0.10 1
  519.9036 0.04 0
  520.2330 0.02 0
  520.3425 0.02 0
  521.2823 0.04 0
  521.5898 0.09 1
  521.8103 0.08 1
  522.0343 0.08 1
  522.3735 0.13 1
  522.5644 0.05 0
  523.3263 0.14 1
  523.4592 0.08 1
  523.7468 0.08 1
  523.9327 0.08 1
  524.0430 0.06 1
  524.3102 0.22 2
  524.5314 0.19 2
  524.7774 0.14 1
  525.0347 0.09 1
  525.3259 0.20 2
  525.5577 0.21 2
  525.7076 0.04 0
  525.8914 0.10 1
  526.0024 0.04 0
  526.2074 0.23 2
  526.3856 0.18 2
  526.5920 0.29 3
  526.8903 0.02 0
  527.1823 0.05 0
  527.4325 0.11 1
  527.6099 0.04 0
  527.7054 0.06 1
  527.8157 0.04 0
  528.3091 0.03 0
  528.8599 0.05 0
  529.0211 0.09 1
  529.5252 0.03 0
  529.6829 0.02 0
  529.8130 0.07 1
  530.1276 0.06 1
  530.4267 0.02 0
  530.8128 0.05 0
  531.1218 0.03 0
  532.0721 0.08 1
  532.2510 0.07 1
  532.4752 0.06 1
  532.7560 0.04 0
  532.8691 0.04 0
  532.9822 0.02 0
  533.1364 0.04 0
  533.2375 0.10 1
  533.5905 0.08 1
  533.7616 0.02 0
  533.9193 0.07 1
  534.1110 0.02 0
  534.2488 0.11 1
  534.4744 0.27 3
  534.5897 0.10 1
  534.8606 0.07 1
  534.9787 0.06 1
  535.1138 0.05 0
  535.2602 0.03 0
  535.3812 0.03 0
  535.5283 0.13 1
  536.0906 0.05 0
  536.2589 0.04 0
  536.6472 0.24 2
  536.7632 0.12 1
  537.0970 0.05 0
  537.3842 0.22 2
  537.5462 0.27 3
  537.6721 0.10 1
  537.9586 0.05 0
  538.3165 0.06 1
  538.6214 0.11 1
  538.8661 0.08 1
  539.0961 0.06 1
  539.1993 0.04 0
  539.4314 0.29 3
  539.5128 0.16 2
  539.7589 0.16 2
  539.9379 0.06 1
  540.4551 1.00 10
  540.8414 0.08 1
  541.0338 0.10 1
  541.2616 0.32 3
  541.3607 0.12 1
  541.5014 0.18 2
  541.7377 0.19 2
  542.0894 0.23 2
  542.3731 0.28 3
  542.6582 0.29 3
  542.9101 0.17 2
  543.0566 0.02 0
  543.2844 0.28 3
  543.4316 0.23 2
  543.6254 0.12 1
  543.8257 0.15 1
  544.0500 0.12 1
  544.2715 0.12 1
  544.4979 0.19 2
  544.7244 0.13 1
  544.9062 0.10 1
  545.0753 0.08 1
  545.3888 0.23 2
  545.5303 0.14 1
  545.6931 0.11 1
  545.8651 0.09 1
  545.9755 0.06 1
  546.2472 0.34 3
  546.4878 0.25 2
  546.9698 0.15 1
  547.1948 0.20 2
  547.3965 0.16 2
  547.5593 0.08 1
  547.8608 0.17 2
  548.1580 0.18 2
  548.4369 0.29 3
  548.6804 0.23 2
  549.1121 0.43 4
  549.8907 0.38 4
  550.1759 0.31 3
  550.3607 0.31 3
  550.6948 0.35 3
  550.9036 0.44 4
  552.5451 8.62 86
  553.4909 2.19 22
  553.7174 0.94 9
  554.5460 1.53 15
  554.8718 0.56 6
  555.5262 4.07 41
  556.2379 0.46 5
  556.6336 0.64 6
  556.9248 0.55 5
  557.1340 0.33 3
  557.4182 0.31 3
  557.7482 0.36 4
  558.0359 0.34 3
  558.2748 0.27 3
  558.4918 0.35 3
  558.8643 0.44 4
  559.1584 0.25 2
  559.4340 0.40 4
  560.0016 0.60 6
  560.3792 0.43 4
  561.2875 0.83 8
  561.5908 0.47 5
  561.8432 0.39 4
  562.2497 0.62 6
  570.4825 99.97 999
  571.6537 27.82 278
  572.3857 13.60 136
  573.2557 6.51 65
  574.2241 3.60 36
  574.7603 2.38 24
  575.3254 1.51 15
//
