ACCESSION: MSBNK-Kyoto_Univ-CA000146
RECORD_TITLE: Celaxanthin; FAB-EBEB; MS2; m/z: 550.42; [M]*+
DATE: 2016.01.19 (Created 2007.03.15, modified 2011.05.10)
AUTHORS: Akimoto N, Graduate School of Pharmaceutical Sciences, Kyoto University and Maoka T, Research Institute for Production Development
LICENSE: CC BY-SA
COMMENT: Profile spectrum of this record is given as a JPEG file.
COMMENT: [Profile] CA000146.jpg
CH$NAME: Celaxanthin
CH$COMPOUND_CLASS: Natural Product; Carotenoid
CH$FORMULA: C40H54O
CH$EXACT_MASS: 550.41747
CH$SMILES: C(C=CC=C(C=CC=C(C)C=CC(=C(C)1)C(C)(C)CC(C1)O)C)=C(C)C=CC=C(C=CC=C(C=CC=C(C)C)C)C
CH$IUPAC: InChI=1S/C40H54O/c1-31(2)17-13-20-34(5)23-15-25-35(6)24-14-21-32(3)18-11-12-19-33(4)22-16-26-36(7)27-28-39-37(8)29-38(41)30-40(39,9)10/h11-28,38,41H,29-30H2,1-10H3/b12-11+,20-13+,21-14+,22-16+,25-15+,28-27+,32-18+,33-19+,34-23+,35-24+,36-26+/t38-/m1/s1
CH$LINK: CHEMSPIDER 10380675
CH$LINK: INCHIKEY YYAZSYBBIFIQJT-COVUSDHRSA-N
AC$INSTRUMENT: JMS-HX/HX 110A, JEOL
AC$INSTRUMENT_TYPE: FAB-EBEB
AC$MASS_SPECTROMETRY: MS_TYPE MS2
AC$MASS_SPECTROMETRY: ION_MODE POSITIVE
AC$MASS_SPECTROMETRY: ATOM_GUN_CURRENT 5 mA
AC$MASS_SPECTROMETRY: BOMBARDMENT 6 kV xenon
AC$MASS_SPECTROMETRY: COLLISION_ENERGY 3 kV
AC$MASS_SPECTROMETRY: COLLISION_GAS Ar
AC$MASS_SPECTROMETRY: GAS_PRESSURE adjust to attenuate the intensity of the precursor ion by 30 %
AC$MASS_SPECTROMETRY: IONIZATION FAB
AC$MASS_SPECTROMETRY: MATRIX 1-2 uL m-NBA
AC$MASS_SPECTROMETRY: PROBE_TIP stainless-steel
MS$FOCUSED_ION: BASE_PEAK 550.3240
MS$FOCUSED_ION: PRECURSOR_M/Z 550.42
MS$FOCUSED_ION: PRECURSOR_TYPE [M]+*
PK$SPLASH: splash10-0udi-1931130000-5eb365532888c7e93c52
PK$NUM_PEAK: 1642
PK$PEAK: m/z int. rel.int.
  0.0147 0.01 0
  4.7081 0.01 0
  8.1140 0.02 0
  10.8563 0.03 0
  13.5053 0.04 0
  13.9549 0.04 0
  14.9779 0.10 1
  22.9372 0.18 2
  25.9654 0.19 2
  26.9516 0.99 10
  27.9471 0.07 1
  28.9719 0.69 7
  29.9375 0.03 0
  30.9361 0.08 1
  36.9199 0.09 1
  37.9389 0.33 3
  38.9415 1.35 13
  39.9623 0.12 1
  40.9676 2.14 21
  41.9906 0.11 1
  42.9744 1.55 15
  48.8811 0.02 0
  49.7351 0.05 0
  49.9291 0.13 1
  50.9444 0.58 6
  51.9767 0.31 3
  52.8120 0.11 1
  52.9668 0.66 7
  53.9722 0.11 1
  54.9697 2.60 26
  56.9977 0.81 8
  58.9823 0.12 1
  60.7601 0.07 1
  60.9345 0.14 1
  61.9201 0.08 1
  62.7125 0.11 1
  62.9347 0.75 7
  63.1549 0.07 1
  63.8769 0.03 0
  63.9641 0.07 1
  64.7081 0.08 1
  64.8420 0.15 1
  64.9545 1.25 12
  65.9525 0.49 5
  66.9554 2.49 25
  67.9076 0.01 0
  68.9767 5.80 58
  69.9766 0.09 1
  70.2402 0.08 1
  70.5657 0.02 0
  70.7346 0.11 1
  70.9651 0.49 5
  71.9516 0.01 0
  72.8232 0.05 0
  73.7188 0.09 1
  73.8977 0.35 3
  74.6153 0.02 0
  74.7853 0.18 2
  74.9234 0.71 7
  75.0676 0.07 1
  75.5586 0.02 0
  75.6893 0.01 0
  75.7923 0.04 0
  75.9346 0.34 3
  76.1119 0.03 0
  76.6229 0.14 1
  76.9256 5.86 59
  77.1819 0.04 0
  77.3265 0.06 1
  77.4183 0.09 1
  77.9167 1.17 12
  78.9347 6.24 62
  79.4051 0.01 0
  79.7848 0.07 1
  79.9607 1.50 15
  80.4437 0.06 1
  80.9622 6.89 69
  81.5573 0.09 1
  81.8513 0.17 2
  81.9917 0.30 3
  82.9720 1.90 19
  83.2886 0.02 0
  83.9691 0.11 1
  84.6586 0.04 0
  84.9692 2.42 24
  85.6412 0.04 0
  85.7414 0.11 1
  85.9252 0.13 1
  85.9947 0.09 1
  86.6935 0.10 1
  86.9126 0.50 5
  87.8394 0.13 1
  87.9344 0.08 1
  88.0688 0.01 0
  88.5281 0.15 1
  88.9139 1.88 19
  89.1594 0.11 1
  89.5285 0.06 1
  89.7583 0.12 1
  89.9537 0.57 6
  90.1216 0.03 0
  90.3586 0.15 1
  90.9234 17.76 177
  91.2853 0.06 1
  91.6412 0.07 1
  91.9241 1.91 19
  92.2660 0.10 1
  92.4804 0.10 1
  92.9611 9.83 98
  93.1504 0.08 1
  93.9855 0.85 8
  94.4761 0.07 1
  94.9701 6.00 60
  95.2659 0.10 1
  95.9702 0.31 3
  96.9735 0.76 8
  97.3072 0.05 0
  97.6020 0.11 1
  97.9420 0.18 2
  98.6665 0.03 0
  98.7730 0.02 0
  98.9844 0.51 5
  99.9403 0.01 0
  100.6840 0.18 2
  100.9138 0.58 6
  101.1724 0.09 1
  101.9220 1.30 13
  102.0946 0.10 1
  102.3202 0.12 1
  102.4681 0.02 0
  102.5683 0.14 1
  102.9333 3.96 40
  103.3505 0.11 1
  103.9406 2.02 20
  104.2355 0.10 1
  104.4212 0.09 1
  104.9520 24.01 240
  105.2522 0.03 0
  105.7215 0.25 2
  105.9831 2.41 24
  106.4791 0.23 2
  106.9738 12.33 123
  107.3093 0.06 1
  107.6688 0.11 1
  107.9590 1.01 10
  108.2986 0.08 1
  108.4359 0.06 1
  108.9868 9.71 97
  109.1783 0.15 1
  109.3479 0.03 0
  109.5621 0.03 0
  109.8282 0.16 2
  109.9556 0.46 5
  110.2231 0.03 0
  110.9415 0.41 4
  111.1014 0.07 1
  111.2243 0.11 1
  111.4242 0.06 1
  111.7258 0.09 1
  111.9157 0.06 1
  112.3466 0.03 0
  112.8513 0.30 3
  113.1074 0.11 1
  113.2026 0.29 3
  113.2655 0.12 1
  113.3493 0.11 1
  113.4936 0.16 2
  113.6445 0.28 3
  113.9507 0.36 4
  114.2312 0.15 1
  114.9060 11.08 111
  115.1587 0.22 2
  115.4283 0.07 1
  115.9216 3.48 35
  116.1241 0.12 1
  116.2444 0.11 1
  116.4350 0.03 0
  116.9176 11.30 113
  117.4408 0.16 2
  117.6113 0.14 1
  117.9433 2.44 24
  118.1200 0.16 2
  118.3111 0.04 0
  118.9428 22.89 229
  119.1698 0.13 1
  119.3673 0.08 1
  119.4947 0.02 0
  119.6023 0.05 0
  119.9504 2.99 30
  120.2254 0.07 1
  120.3639 0.04 0
  120.9581 6.21 62
  121.2396 0.02 0
  121.4643 0.10 1
  121.6193 0.04 0
  121.9587 0.54 5
  122.3358 0.12 1
  122.7240 0.07 1
  122.9582 1.30 13
  123.9468 0.37 4
  124.5937 0.02 0
  124.8893 0.30 3
  125.0493 0.08 1
  125.1820 0.05 0
  125.3397 0.12 1
  125.4919 0.06 1
  125.6611 0.05 0
  125.9072 0.55 5
  126.1564 0.04 0
  126.5331 0.28 3
  126.9106 4.45 44
  127.2925 0.21 2
  127.8895 13.05 130
  128.1601 0.21 2
  128.5726 0.69 7
  128.9161 15.07 151
  129.2139 0.02 0
  129.9054 5.07 51
  130.9234 14.88 149
  131.1349 0.11 1
  131.2618 0.19 2
  131.4102 0.08 1
  131.9224 2.87 29
  132.3661 0.15 1
  132.9348 10.86 109
  133.2574 0.17 2
  133.4534 0.06 1
  133.6053 0.11 1
  133.9466 2.78 28
  134.1842 0.06 1
  134.4366 0.10 1
  134.6294 0.18 2
  134.9651 6.02 60
  135.4064 0.12 1
  135.5920 0.13 1
  135.6783 0.05 0
  135.9213 1.99 20
  136.1095 0.07 1
  136.2489 0.03 0
  136.3847 0.14 1
  136.5865 0.11 1
  136.7457 0.12 1
  136.9433 0.74 7
  137.5616 0.06 1
  137.7019 0.05 0
  137.9170 0.43 4
  138.4827 0.05 0
  138.6318 0.14 1
  138.9059 2.03 20
  139.4177 0.04 0
  139.8847 0.88 9
  140.1021 0.38 4
  140.3028 0.25 2
  140.8985 11.90 119
  141.1267 0.12 1
  141.3109 0.13 1
  141.4610 0.32 3
  141.9202 12.81 128
  142.3331 0.17 2
  142.4740 0.20 2
  142.9231 17.67 177
  143.2835 0.13 1
  143.3581 0.09 1
  143.4526 0.10 1
  143.6733 0.39 4
  143.9482 5.59 56
  144.2287 0.12 1
  144.9424 19.14 191
  145.2363 0.08 1
  145.4786 0.10 1
  145.6567 0.27 3
  145.9589 1.64 16
  146.2119 0.10 1
  146.6115 0.12 1
  146.9613 4.17 42
  147.3100 0.10 1
  147.4866 0.05 0
  147.7219 0.12 1
  147.9553 0.60 6
  148.9421 2.37 24
  149.2852 0.11 1
  149.6409 0.12 1
  149.9292 0.94 9
  150.2050 0.04 0
  150.9178 1.40 14
  151.1870 0.25 2
  151.3429 0.08 1
  151.8959 4.49 45
  152.2261 0.26 3
  152.3747 0.18 2
  152.5708 0.26 3
  152.9207 5.06 51
  153.4218 0.25 2
  153.9169 2.85 28
  154.3205 0.15 1
  154.5333 0.33 3
  154.9453 12.39 124
  155.3555 0.06 1
  155.4919 0.15 1
  155.6459 0.20 2
  155.9671 8.53 85
  156.2538 0.09 1
  156.6110 0.41 4
  156.9759 17.87 179
  157.3012 0.30 3
  157.5096 0.38 4
  157.9748 3.63 36
  158.2941 0.13 1
  158.5971 0.19 2
  158.9834 9.39 94
  159.2494 0.18 2
  159.3584 0.05 0
  159.4574 0.08 1
  159.6680 0.36 4
  159.9902 2.07 21
  160.1498 0.22 2
  160.4722 0.11 1
  160.5915 0.08 1
  161.0105 1.79 18
  161.2132 0.11 1
  161.3262 0.04 0
  161.6021 0.03 0
  161.9735 0.97 10
  162.3760 0.03 0
  162.6167 0.19 2
  162.7653 0.13 1
  162.9941 0.82 8
  163.2698 0.11 1
  163.4886 0.27 3
  163.6549 0.20 2
  163.9788 1.05 10
  164.1250 0.34 3
  164.5338 0.66 7
  164.9560 10.84 108
  165.1472 0.24 2
  165.3613 0.22 2
  165.5057 0.30 3
  165.6197 0.20 2
  165.9706 3.83 38
  166.2452 0.11 1
  166.4726 0.25 2
  166.9611 8.09 81
  167.2114 0.21 2
  167.3024 0.07 1
  167.5870 0.26 3
  167.9601 3.31 33
  168.2289 0.06 1
  168.3858 0.08 1
  168.5611 0.44 4
  168.9864 11.05 110
  169.2504 0.06 1
  169.3858 0.12 1
  169.6651 0.17 2
  169.9881 4.32 43
  170.3346 0.19 2
  170.4391 0.12 1
  171.0006 8.42 84
  171.2599 0.11 1
  171.4000 0.10 1
  171.6048 0.23 2
  171.7209 0.20 2
  171.9999 1.45 14
  172.3615 0.17 2
  172.5614 0.02 0
  173.0012 5.10 51
  173.3427 0.08 1
  173.5192 0.26 3
  173.5827 0.13 1
  173.7554 0.07 1
  173.9720 0.77 8
  174.2972 0.11 1
  174.4281 0.12 1
  174.6696 0.24 2
  175.0293 3.71 37
  175.3573 0.03 0
  175.5721 0.11 1
  175.6720 0.08 1
  175.9556 0.95 9
  176.3423 0.07 1
  176.9888 1.13 11
  177.1892 0.29 3
  177.3891 0.12 1
  177.4795 0.07 1
  177.6616 0.76 8
  177.9424 5.22 52
  178.1513 0.19 2
  178.3519 0.12 1
  178.5283 0.34 3
  178.9412 9.39 94
  179.2662 0.11 1
  179.4160 0.10 1
  179.5600 0.21 2
  179.9502 4.18 42
  180.2256 0.07 1
  180.9522 9.19 92
  181.2776 0.20 2
  181.3841 0.19 2
  181.5641 0.07 1
  181.9739 3.29 33
  182.3742 0.24 2
  182.9682 9.78 98
  183.3291 0.12 1
  183.5803 0.18 2
  183.9733 2.13 21
  184.1798 0.05 0
  184.3140 0.08 1
  184.4093 0.11 1
  184.6906 0.15 1
  185.0078 4.34 43
  185.3308 0.20 2
  185.4671 0.14 1
  185.6763 0.07 1
  186.0077 1.49 15
  186.2067 0.16 2
  186.4058 0.07 1
  186.5876 0.11 1
  187.0050 2.59 26
  187.2579 0.10 1
  187.3611 0.11 1
  187.5564 0.07 1
  187.6582 0.06 1
  187.9452 0.92 9
  188.3713 0.24 2
  188.5290 0.23 2
  188.9372 3.26 33
  189.3430 0.13 1
  189.4366 0.12 1
  189.5508 0.12 1
  189.9221 1.29 13
  190.1915 0.25 2
  190.2935 0.08 1
  190.5225 0.31 3
  190.9223 3.75 37
  191.2919 0.11 1
  191.4530 0.35 3
  191.6084 0.10 1
  191.9480 3.57 36
  192.2023 0.04 0
  192.3558 0.17 2
  192.5465 0.20 2
  192.6795 0.28 3
  192.9583 7.59 76
  193.2616 0.19 2
  193.4569 0.22 2
  193.5353 0.09 1
  193.6632 0.29 3
  193.9646 4.07 41
  194.2211 0.10 1
  194.4442 0.24 2
  194.5670 0.31 3
  194.9728 12.37 124
  195.2345 0.05 0
  195.3542 0.19 2
  195.4700 0.10 1
  195.6939 0.27 3
  195.9937 1.91 19
  196.1990 0.10 1
  196.3309 0.16 2
  196.4210 0.08 1
  196.5330 0.27 3
  196.9823 8.34 83
  197.2669 0.15 1
  197.3706 0.13 1
  197.5412 0.16 2
  197.6900 0.07 1
  197.9798 1.23 12
  198.2968 0.10 1
  198.4591 0.12 1
  198.5970 0.10 1
  198.9991 3.57 36
  199.5766 0.12 1
  199.7436 0.11 1
  199.9725 0.79 8
  200.1885 0.23 2
  200.3446 0.24 2
  200.5561 0.13 1
  200.6419 0.07 1
  200.7619 0.19 2
  201.0051 1.66 17
  201.3206 0.19 2
  201.6748 0.40 4
  201.9394 2.10 21
  202.2234 0.02 0
  202.4707 0.23 2
  202.9452 3.29 33
  203.1829 0.17 2
  203.4574 0.04 0
  203.5872 0.17 2
  203.9464 1.76 18
  204.1066 0.31 3
  204.3528 0.15 1
  204.6313 0.30 3
  204.9693 4.86 49
  205.3443 0.18 2
  205.6934 0.35 3
  205.9643 3.11 31
  206.3847 0.16 2
  206.6053 0.32 3
  206.9766 6.09 61
  207.3493 0.24 2
  207.9667 2.19 22
  208.3538 0.12 1
  208.9851 7.17 72
  209.2759 0.23 2
  209.4372 0.09 1
  209.6095 0.20 2
  210.0085 1.47 15
  210.2437 0.28 3
  210.5716 0.10 1
  210.9987 2.91 29
  211.2710 0.12 1
  211.3598 0.11 1
  211.6295 0.14 1
  211.9861 0.88 9
  212.2072 0.12 1
  212.4109 0.12 1
  212.6846 0.28 3
  212.8111 0.14 1
  213.0479 1.29 13
  213.3061 0.18 2
  213.4826 0.04 0
  213.6876 0.17 2
  213.9784 0.70 7
  214.3139 0.19 2
  214.6074 0.38 4
  214.9638 3.51 35
  215.2339 0.13 1
  215.6060 0.19 2
  215.9633 1.56 16
  216.2342 0.19 2
  216.3940 0.08 1
  216.5031 0.05 0
  216.9749 4.12 41
  217.4636 0.14 1
  217.6339 0.17 2
  217.9954 1.80 18
  218.2522 0.19 2
  218.3556 0.09 1
  218.5123 0.38 4
  219.0066 4.66 47
  219.2342 0.09 1
  219.3734 0.13 1
  219.5536 0.07 1
  219.9908 2.09 21
  220.3559 0.13 1
  220.5961 0.14 1
  220.7418 0.20 2
  221.0322 5.01 50
  221.5276 0.17 2
  221.6272 0.09 1
  222.0264 1.36 14
  222.4073 0.17 2
  222.6138 0.14 1
  222.7558 0.23 2
  223.0633 2.39 24
  223.5344 0.11 1
  223.7670 0.27 3
  224.0492 0.98 10
  224.2173 0.16 2
  224.4826 0.08 1
  224.6404 0.11 1
  225.0479 1.65 16
  225.3380 0.04 0
  225.4697 0.17 2
  225.5767 0.16 2
  225.7828 0.33 3
  226.0202 0.95 9
  226.3803 0.18 2
  226.5969 0.21 2
  226.6762 0.15 1
  227.0666 0.84 8
  227.2318 0.28 3
  227.3606 0.08 1
  227.4563 0.06 1
  227.5409 0.04 0
  227.6431 0.18 2
  227.7270 0.05 0
  228.0179 1.14 11
  228.3752 0.01 0
  228.6135 0.12 1
  228.9820 2.82 28
  229.5406 0.15 1
  229.6207 0.11 1
  230.0226 1.55 15
  230.4681 0.19 2
  230.9900 3.59 36
  231.2858 0.09 1
  231.9747 1.29 13
  232.2406 0.09 1
  232.4994 0.09 1
  232.6846 0.28 3
  233.0360 3.42 34
  233.4598 0.03 0
  233.7318 0.27 3
  234.0325 1.27 13
  234.4643 0.25 2
  235.0333 3.10 31
  235.4503 0.14 1
  235.5481 0.11 1
  235.6630 0.07 1
  236.0187 0.84 8
  236.3765 0.11 1
  236.6148 0.08 1
  236.7277 0.19 2
  237.0712 1.42 14
  237.3134 0.14 1
  237.3918 0.07 1
  237.4950 0.01 0
  237.7059 0.09 1
  238.0534 0.62 6
  238.4891 0.12 1
  238.7694 0.25 2
  239.0164 2.09 21
  239.1745 0.77 8
  239.4163 0.11 1
  239.6771 0.24 2
  240.0059 0.75 7
  240.1549 0.20 2
  240.3876 0.12 1
  240.5700 0.14 1
  240.9904 1.67 17
  241.5077 0.11 1
  241.9714 1.57 16
  242.3527 0.12 1
  242.5071 0.16 2
  242.9926 1.98 20
  243.3531 0.11 1
  243.9912 1.47 15
  244.3047 0.26 3
  244.4343 0.10 1
  244.6242 0.16 2
  245.0059 2.13 21
  245.4989 0.09 1
  245.6803 0.21 2
  245.8015 0.13 1
  246.0267 1.55 15
  246.3431 0.08 1
  246.6562 0.25 2
  247.0414 2.17 22
  247.3998 0.10 1
  247.5931 0.07 1
  247.7727 0.11 1
  248.0584 0.61 6
  248.3848 0.04 0
  248.5356 0.22 2
  248.7237 0.37 4
  249.0541 2.10 21
  249.3209 0.06 1
  249.4579 0.06 1
  249.6730 0.27 3
  250.0540 0.80 8
  250.2009 0.19 2
  250.4331 0.04 0
  250.6344 0.11 1
  250.7289 0.10 1
  251.0674 1.50 15
  251.3239 0.15 1
  251.5121 0.12 1
  251.6315 0.11 1
  251.7122 0.09 1
  252.0593 0.74 7
  252.2778 0.13 1
  252.4661 0.03 0
  253.0338 1.22 12
  253.2983 0.19 2
  253.5753 0.03 0
  253.8031 0.14 1
  254.0395 0.75 7
  254.2738 0.12 1
  254.6205 0.05 0
  255.0211 1.41 14
  255.2253 0.22 2
  255.4053 0.10 1
  255.6963 0.12 1
  256.0569 0.58 6
  256.1725 0.20 2
  256.5102 0.09 1
  256.6239 0.13 1
  256.7553 0.15 1
  257.0175 2.20 22
  257.2245 0.15 1
  257.4774 0.20 2
  257.6786 0.18 2
  258.0394 0.79 8
  258.3345 0.07 1
  258.4660 0.08 1
  258.7494 0.28 3
  259.0314 2.30 23
  259.3806 0.11 1
  259.5292 0.11 1
  260.0592 1.16 12
  260.2269 0.15 1
  260.3249 0.13 1
  260.6499 0.06 1
  261.0591 2.39 24
  261.2952 0.10 1
  261.7137 0.10 1
  261.8394 0.06 1
  262.0815 0.58 6
  262.3533 0.12 1
  262.5330 0.10 1
  263.0714 1.37 14
  263.2465 0.22 2
  263.5868 0.07 1
  264.0562 0.78 8
  264.3809 0.13 1
  264.4862 0.04 0
  265.0512 1.12 11
  265.3015 0.06 1
  265.5268 0.09 1
  265.5920 0.04 0
  265.7448 0.16 2
  265.9332 0.59 6
  266.0716 0.65 6
  266.6447 0.17 2
  266.7640 0.11 1
  267.0388 1.20 12
  267.3748 0.10 1
  267.5620 0.17 2
  267.6892 0.32 3
  267.8224 0.26 3
  267.9779 0.77 8
  268.1262 0.47 5
  268.3754 0.04 0
  268.5349 0.08 1
  269.0630 1.31 13
  269.3691 0.05 0
  269.5605 0.08 1
  269.8835 0.29 3
  270.0539 0.50 5
  270.4106 0.12 1
  270.5816 0.12 1
  270.8205 0.09 1
  271.0791 1.93 19
  271.2825 0.08 1
  271.4326 0.08 1
  271.6300 0.10 1
  272.0803 0.64 6
  272.3173 0.11 1
  273.0652 1.27 13
  273.2140 0.17 2
  273.3365 0.30 3
  273.4530 0.07 1
  273.6908 0.16 2
  273.8172 0.18 2
  274.0853 0.49 5
  274.2809 0.11 1
  274.6201 0.09 1
  274.7650 0.19 2
  275.0905 1.48 15
  275.5081 0.05 0
  275.9674 0.40 4
  276.1836 0.42 4
  276.4656 0.10 1
  277.0410 0.62 6
  277.4872 0.04 0
  277.6870 0.13 1
  278.0930 0.63 6
  278.4834 0.16 2
  278.7445 0.08 1
  279.0254 0.60 6
  279.1428 0.19 2
  279.2588 0.15 1
  279.6248 0.12 1
  280.0272 0.40 4
  280.1908 0.13 1
  280.5609 0.23 2
  280.6928 0.20 2
  280.7964 0.16 2
  280.9758 0.31 3
  281.1942 0.25 2
  281.4937 0.11 1
  281.6937 0.07 1
  282.0540 0.51 5
  282.7984 0.12 1
  283.0796 1.04 10
  283.5635 0.19 2
  283.7140 0.18 2
  284.0738 0.82 8
  284.2970 0.04 0
  284.5432 0.18 2
  284.7506 0.12 1
  285.0682 1.23 12
  285.2298 0.25 2
  285.6916 0.16 2
  286.0643 0.38 4
  286.2827 0.06 1
  286.6489 0.05 0
  287.0296 0.80 8
  288.0076 0.22 2
  288.1390 0.40 4
  288.5126 0.25 2
  288.7219 0.10 1
  289.0823 0.81 8
  289.2955 0.13 1
  289.5827 0.12 1
  290.0238 0.33 3
  290.1163 0.19 2
  290.3434 0.06 1
  290.9101 0.24 2
  291.1029 0.46 5
  292.0191 0.33 3
  293.0095 0.37 4
  293.1218 0.32 3
  293.8170 0.11 1
  293.9697 0.28 3
  294.1256 0.19 2
  294.4482 0.12 1
  294.6022 0.12 1
  295.0054 0.42 4
  295.2923 0.11 1
  295.4748 0.22 2
  296.0361 0.38 4
  296.1948 0.14 1
  296.3641 0.07 1
  297.0485 0.85 8
  297.1312 0.42 4
  297.3025 0.12 1
  298.0724 0.72 7
  298.2378 0.25 2
  298.4474 0.06 1
  298.7888 0.11 1
  299.0296 0.85 8
  299.4008 0.12 1
  299.7992 0.21 2
  299.8997 0.14 1
  300.1201 0.39 4
  300.2769 0.19 2
  300.3901 0.08 1
  300.4847 0.05 0
  300.6012 0.10 1
  300.7740 0.02 0
  300.9196 0.28 3
  301.1016 0.44 4
  301.5921 0.08 1
  301.7589 0.04 0
  301.9959 0.34 3
  302.1760 0.24 2
  302.9519 0.33 3
  303.0645 0.29 3
  303.1711 0.22 2
  303.6022 0.11 1
  303.7260 0.09 1
  303.8578 0.15 1
  304.1002 0.31 3
  304.2334 0.08 1
  304.4890 0.12 1
  304.6652 0.06 1
  304.8884 0.41 4
  305.0726 0.40 4
  305.6271 0.04 0
  305.9225 0.09 1
  306.0941 0.17 2
  306.2028 0.10 1
  306.3241 0.04 0
  307.0311 0.47 5
  307.9225 0.06 1
  308.0670 0.26 3
  308.6954 0.06 1
  309.0049 0.51 5
  309.1422 0.24 2
  309.2509 0.06 1
  309.3941 0.11 1
  309.8277 0.11 1
  310.0426 0.39 4
  310.1858 0.14 1
  310.3542 0.13 1
  311.0565 0.64 6
  311.7303 0.15 1
  312.0123 0.62 6
  312.1190 0.46 5
  312.5045 0.12 1
  312.6079 0.14 1
  312.7141 0.08 1
  313.0830 0.49 5
  313.3822 0.12 1
  313.6085 0.19 2
  314.0563 0.43 4
  314.2567 0.12 1
  314.4134 0.09 1
  314.6649 0.06 1
  315.0750 0.38 4
  315.3027 0.10 1
  315.7925 0.07 1
  315.9412 0.16 2
  316.1138 0.19 2
  316.2220 0.11 1
  316.2990 0.06 1
  316.7458 0.12 1
  317.0930 0.61 6
  317.3088 0.13 1
  317.4728 0.07 1
  317.5638 0.11 1
  318.0492 0.21 2
  318.2690 0.25 2
  318.6350 0.03 0
  318.7691 0.11 1
  319.0441 0.50 5
  319.1776 0.23 2
  319.4486 0.08 1
  319.9441 0.07 1
  320.1361 0.22 2
  320.4709 0.12 1
  320.7991 0.11 1
  320.9280 0.17 2
  321.0915 0.51 5
  321.3559 0.10 1
  321.4735 0.11 1
  322.1035 0.35 3
  322.1846 0.14 1
  322.5534 0.04 0
  322.9854 0.28 3
  323.1848 0.33 3
  323.7731 0.10 1
  323.9758 0.38 4
  324.1633 0.22 2
  324.3049 0.09 1
  325.0821 0.35 3
  325.2549 0.12 1
  325.7158 0.16 2
  326.0143 0.67 7
  326.2125 0.23 2
  326.6814 0.05 0
  326.8603 0.19 2
  327.0831 0.48 5
  327.2480 0.26 3
  327.4722 0.13 1
  328.1183 0.19 2
  329.0503 0.56 6
  329.2191 0.24 2
  329.3853 0.13 1
  329.7835 0.10 1
  329.9178 0.13 1
  329.9989 0.07 1
  330.1904 0.25 2
  330.7310 0.09 1
  331.0289 0.53 5
  332.0271 0.29 3
  332.1867 0.28 3
  332.2832 0.13 1
  333.0308 0.31 3
  333.1792 0.14 1
  333.3694 0.11 1
  333.6508 0.17 2
  333.8790 0.04 0
  334.1385 0.34 3
  334.3148 0.08 1
  334.4572 0.13 1
  334.8125 0.21 2
  334.9995 0.40 4
  335.1884 0.20 2
  336.1115 0.48 5
  336.2053 0.23 2
  336.6406 0.03 0
  336.8303 0.08 1
  337.0805 0.61 6
  337.9699 0.17 2
  338.1383 0.33 3
  338.7042 0.10 1
  339.1110 0.33 3
  339.7629 0.07 1
  340.0806 0.22 2
  340.4821 0.13 1
  340.6133 0.11 1
  340.8072 0.14 1
  341.0775 0.44 4
  342.0161 0.30 3
  342.2352 0.04 0
  342.4717 0.21 2
  342.8115 0.11 1
  343.0827 0.15 1
  343.2819 0.17 2
  343.6970 0.14 1
  343.9169 0.38 4
  344.1068 0.34 3
  344.2367 0.54 5
  344.3407 0.14 1
  344.7772 0.05 0
  345.0630 0.37 4
  345.3290 0.08 1
  345.5509 0.11 1
  345.9028 0.12 1
  346.1035 0.27 3
  346.3668 0.09 1
  347.0667 0.22 2
  347.2307 0.38 4
  347.6267 0.03 0
  348.0787 0.29 3
  348.2468 0.13 1
  348.4235 0.08 1
  348.9396 0.11 1
  349.0449 0.26 3
  349.1649 0.66 7
  349.2937 0.21 2
  349.4817 0.12 1
  349.6971 0.04 0
  349.9452 0.27 3
  350.1500 0.16 2
  350.2627 0.03 0
  350.4188 0.23 2
  350.7696 0.21 2
  351.2105 0.87 9
  351.5607 0.11 1
  351.9596 0.12 1
  352.1765 0.50 5
  352.6455 0.11 1
  352.9017 0.13 1
  353.0038 0.23 2
  353.1098 0.19 2
  353.2353 0.14 1
  353.6750 0.07 1
  354.1255 0.29 3
  354.2946 0.21 2
  354.6136 0.11 1
  354.8548 0.07 1
  355.1300 0.34 3
  355.3513 0.21 2
  356.1955 0.15 1
  356.5319 0.08 1
  356.6569 0.11 1
  356.8198 0.05 0
  357.1542 0.55 5
  357.3802 0.10 1
  357.4740 0.02 0
  358.1442 0.32 3
  358.3357 0.12 1
  359.0632 0.13 1
  359.1849 0.09 1
  359.3232 0.18 2
  360.2650 0.07 1
  360.5331 0.11 1
  361.0545 0.11 1
  361.2594 0.19 2
  361.5269 0.13 1
  362.1708 0.36 4
  363.0518 0.17 2
  363.2507 0.17 2
  363.8216 0.10 1
  364.0060 0.16 2
  364.1470 0.42 4
  365.0681 0.11 1
  365.2179 0.36 4
  365.3443 0.10 1
  365.7916 0.14 1
  365.9374 0.10 1
  366.1530 0.33 3
  366.2782 0.18 2
  367.1929 0.22 2
  367.3167 0.15 1
  367.4539 0.05 0
  367.5637 0.05 0
  367.9126 0.19 2
  368.1596 0.42 4
  368.4941 0.01 0
  368.9172 0.10 1
  369.1491 0.33 3
  369.3584 0.20 2
  370.0881 0.22 2
  370.2600 0.24 2
  370.9039 0.11 1
  371.1258 0.21 2
  372.0057 0.14 1
  372.0897 0.13 1
  372.2670 0.16 2
  372.5050 0.11 1
  372.6523 0.13 1
  373.0084 0.11 1
  373.2117 0.11 1
  373.6497 0.13 1
  373.8765 0.10 1
  373.9691 0.13 1
  374.2252 0.14 1
  374.3899 0.05 0
  374.5246 0.07 1
  375.1381 0.31 3
  375.8263 0.10 1
  376.0577 0.37 4
  376.2105 0.14 1
  376.7988 0.13 1
  376.9615 0.13 1
  377.6119 0.11 1
  378.1162 0.28 3
  378.2356 0.12 1
  378.5512 0.06 1
  378.9842 0.12 1
  379.1663 0.37 4
  379.4312 0.03 0
  379.8809 0.10 1
  380.0190 0.25 2
  380.2086 0.25 2
  380.3013 0.13 1
  380.5302 0.12 1
  381.2262 0.38 4
  381.5593 0.13 1
  381.7214 0.05 0
  382.0051 0.31 3
  382.2460 0.54 5
  382.5183 0.12 1
  382.8294 0.26 3
  383.1832 0.41 4
  383.3621 0.10 1
  384.1765 0.27 3
  384.3107 0.21 2
  384.4883 0.05 0
  384.5931 0.11 1
  384.8535 0.09 1
  385.0411 0.20 2
  385.2060 0.38 4
  385.3662 0.12 1
  385.4871 0.10 1
  385.6427 0.11 1
  386.0179 0.17 2
  386.2884 0.15 1
  386.4560 0.07 1
  386.6323 0.14 1
  386.8012 0.14 1
  386.9395 0.21 2
  387.0757 0.14 1
  387.2039 0.12 1
  387.5218 0.14 1
  387.7936 0.11 1
  388.1209 0.20 2
  388.2571 0.09 1
  388.5791 0.04 0
  388.7567 0.05 0
  389.1776 0.20 2
  389.6672 0.12 1
  390.0634 0.26 3
  390.2691 0.20 2
  391.0681 0.21 2
  391.6548 0.08 1
  392.1987 0.85 8
  392.3537 0.39 4
  392.5161 0.13 1
  393.1977 0.39 4
  393.4443 0.12 1
  393.6087 0.03 0
  393.7337 0.08 1
  394.0839 0.63 6
  394.2984 0.36 4
  394.4401 0.24 2
  395.2135 0.54 5
  395.4120 0.36 4
  396.2075 0.67 7
  396.4053 0.14 1
  396.6099 0.12 1
  397.2724 4.60 46
  397.5586 0.16 2
  397.6562 0.11 1
  397.7699 0.08 1
  397.8635 0.12 1
  398.0774 0.15 1
  398.1964 0.05 0
  398.3563 0.25 2
  398.4766 0.10 1
  399.0691 0.30 3
  399.2550 0.16 2
  399.5350 0.07 1
  399.7539 0.11 1
  399.9835 0.11 1
  400.1451 0.21 2
  400.3326 0.23 2
  400.5622 0.06 1
  401.0308 0.22 2
  401.1409 0.13 1
  401.3151 0.15 1
  402.0134 0.28 3
  402.1949 0.36 4
  402.8385 0.13 1
  403.0461 0.33 3
  403.2237 0.26 3
  403.3399 0.38 4
  404.0349 0.20 2
  404.2546 0.36 4
  404.5217 0.13 1
  405.0078 0.17 2
  405.1213 0.16 2
  405.3043 0.23 2
  406.0616 0.08 1
  406.2039 0.07 1
  406.3728 0.12 1
  406.9345 0.11 1
  407.0982 0.24 2
  407.7060 0.11 1
  408.1281 0.46 5
  409.1863 0.19 2
  409.3339 0.10 1
  409.9332 0.19 2
  410.1416 0.37 4
  410.2712 0.17 2
  410.7002 0.12 1
  411.2340 0.92 9
  411.3844 0.40 4
  411.7118 0.13 1
  412.2317 0.83 8
  412.4435 0.40 4
  412.9381 0.11 1
  413.2883 1.62 16
  413.8724 0.19 2
  414.1825 0.25 2
  414.3610 0.21 2
  415.2714 0.24 2
  415.3877 0.12 1
  415.5394 0.08 1
  416.1967 0.29 3
  416.7368 0.01 0
  416.9884 0.11 1
  417.1800 0.21 2
  417.3589 0.11 1
  417.6987 0.20 2
  417.9885 0.17 2
  418.2261 0.19 2
  418.4879 0.10 1
  418.6568 0.14 1
  419.1482 0.13 1
  419.8299 0.11 1
  419.9702 0.23 2
  420.1438 0.42 4
  420.3594 0.11 1
  420.6940 0.15 1
  421.0867 0.14 1
  421.2690 0.11 1
  421.3678 0.10 1
  422.0544 0.34 3
  422.2053 0.15 1
  422.3342 0.12 1
  422.5085 0.11 1
  422.6662 0.14 1
  422.8485 0.11 1
  423.2299 0.09 1
  423.3728 0.14 1
  424.0515 0.14 1
  424.2666 0.11 1
  424.3728 0.10 1
  424.9346 0.13 1
  425.0235 0.12 1
  425.3054 0.13 1
  425.9835 0.19 2
  426.1011 0.28 3
  426.2648 0.10 1
  426.6303 0.04 0
  426.8280 0.14 1
  427.1595 0.27 3
  427.3886 0.12 1
  428.1665 0.49 5
  428.5781 0.07 1
  429.0165 0.10 1
  429.1147 0.09 1
  429.2270 0.05 0
  429.3527 0.24 2
  429.4836 0.14 1
  429.8827 0.07 1
  429.9916 0.12 1
  430.1019 0.17 2
  430.2990 0.10 1
  430.4354 0.11 1
  430.8819 0.01 0
  431.1987 0.19 2
  431.3210 0.08 1
  431.6512 0.14 1
  431.7729 0.15 1
  432.0283 0.15 1
  432.2021 0.16 2
  433.0216 0.12 1
  433.1219 0.09 1
  433.5939 0.06 1
  433.9402 0.15 1
  434.0913 0.10 1
  434.1830 0.16 2
  434.4591 0.11 1
  434.9753 0.21 2
  435.1465 0.10 1
  435.3831 0.07 1
  436.0873 0.48 5
  436.2424 0.64 6
  436.3909 0.30 3
  436.8035 0.17 2
  437.1312 0.18 2
  437.3305 0.32 3
  437.4261 0.14 1
  437.9344 0.19 2
  438.2976 0.11 1
  438.4681 0.11 1
  438.8099 0.10 1
  439.2159 0.04 0
  439.4366 0.01 0
  439.9216 0.21 2
  440.1484 0.32 3
  441.2014 0.50 5
  441.3124 0.23 2
  441.9761 0.08 1
  442.2176 0.21 2
  442.6692 0.16 2
  442.8827 0.19 2
  443.0131 0.04 0
  443.3336 0.13 1
  444.2156 1.45 14
  444.9503 0.10 1
  445.1926 0.18 2
  445.4114 0.12 1
  445.7581 0.10 1
  445.9943 0.24 2
  446.1911 0.08 1
  446.3390 0.11 1
  446.4990 0.06 1
  447.0297 0.11 1
  447.7794 0.06 1
  447.9380 0.11 1
  448.0264 0.08 1
  448.2091 0.11 1
  448.3149 0.13 1
  448.4046 0.11 1
  448.5913 0.16 2
  449.1838 0.13 1
  449.3860 0.08 1
  449.8506 0.11 1
  450.0715 0.24 2
  450.2700 0.61 6
  450.5257 0.16 2
  450.7561 0.06 1
  451.1641 0.20 2
  451.3538 0.18 2
  451.8887 0.11 1
  452.3829 0.18 2
  452.8778 0.06 1
  453.0615 0.14 1
  453.4149 0.20 2
  453.9592 0.11 1
  454.1863 0.26 3
  454.3319 0.12 1
  454.9939 0.14 1
  455.1730 0.24 2
  455.2992 0.16 2
  455.9980 0.16 2
  456.2118 0.22 2
  456.4129 0.12 1
  456.5311 0.09 1
  456.6667 0.19 2
  456.7990 0.23 2
  457.1612 0.19 2
  457.3389 0.18 2
  457.5059 0.11 1
  457.6990 0.20 2
  458.2442 6.02 60
  458.7928 0.13 1
  458.9418 0.21 2
  459.1617 0.15 1
  459.3501 0.11 1
  459.6395 0.21 2
  459.9816 0.11 1
  460.1367 0.18 2
  460.2984 0.34 3
  460.4574 0.13 1
  460.8270 0.09 1
  461.5916 0.10 1
  462.1476 0.19 2
  462.7986 0.16 2
  463.0861 0.11 1
  463.2438 0.15 1
  463.5486 0.05 0
  463.8969 0.13 1
  464.2291 0.51 5
  464.4818 0.15 1
  465.1510 0.26 3
  465.3870 0.31 3
  465.9058 0.11 1
  466.2614 0.13 1
  466.4206 0.04 0
  466.9661 0.11 1
  467.2115 0.40 4
  468.0400 0.22 2
  468.2452 0.12 1
  468.3910 0.18 2
  468.7033 0.13 1
  469.1139 0.39 4
  469.3392 0.19 2
  470.0963 0.30 3
  470.3257 0.24 2
  470.7904 0.16 2
  471.1677 0.55 5
  471.3656 0.69 7
  471.4559 0.35 3
  471.7609 0.12 1
  472.1127 0.07 1
  472.3000 0.19 2
  472.7174 0.13 1
  473.9388 0.12 1
  474.1127 0.06 1
  474.2726 0.27 3
  474.4907 0.07 1
  474.6693 0.15 1
  474.9951 0.11 1
  475.2507 0.19 2
  475.6895 0.11 1
  475.9210 0.21 2
  476.2769 0.37 4
  476.3934 0.32 3
  476.7480 0.14 1
  477.1273 0.20 2
  477.7519 0.15 1
  477.8976 0.11 1
  478.0735 0.13 1
  478.1865 0.22 2
  478.2948 0.18 2
  478.3931 0.21 2
  478.6954 0.18 2
  479.1628 0.20 2
  479.5507 0.26 3
  479.9927 0.11 1
  480.4475 0.05 0
  480.9397 0.10 1
  481.2440 0.65 6
  481.5677 0.11 1
  482.1831 0.38 4
  482.3122 0.54 5
  482.8834 0.10 1
  483.0974 0.09 1
  483.1771 0.06 1
  483.5470 0.10 1
  484.3958 0.23 2
  485.1558 0.10 1
  485.4060 0.18 2
  485.9131 0.12 1
  486.2998 0.14 1
  486.9930 0.06 1
  487.1663 0.12 1
  487.8313 0.19 2
  488.1391 0.16 2
  488.2890 0.21 2
  488.5520 0.11 1
  488.9829 0.10 1
  489.1890 0.12 1
  489.6059 0.11 1
  489.8877 0.03 0
  490.0242 0.11 1
  490.2531 0.34 3
  490.4438 0.14 1
  490.6077 0.10 1
  491.0039 0.11 1
  491.3064 0.24 2
  491.4911 0.11 1
  491.6705 0.05 0
  492.0741 0.25 2
  492.1772 0.13 1
  492.3759 0.50 5
  492.5105 0.08 1
  493.1142 0.19 2
  493.3973 0.43 4
  494.2099 0.47 5
  494.4402 0.10 1
  494.9322 0.02 0
  495.3024 0.42 4
  495.5655 0.13 1
  495.8467 0.08 1
  496.1486 0.08 1
  496.3695 0.06 1
  496.9995 0.10 1
  497.1595 0.11 1
  497.3336 0.10 1
  497.6248 0.18 2
  498.3406 0.11 1
  499.1072 0.11 1
  499.4326 0.14 1
  499.7039 0.13 1
  500.0561 0.15 1
  500.2858 0.17 2
  500.4217 0.09 1
  501.1797 0.21 2
  501.3157 0.18 2
  501.4469 0.13 1
  502.1454 0.50 5
  502.3102 0.54 5
  502.5091 0.21 2
  502.8888 0.11 1
  503.1958 0.03 0
  503.7537 0.13 1
  504.1372 0.25 2
  504.3050 0.28 3
  504.4139 0.12 1
  504.5616 0.11 1
  504.7172 0.16 2
  505.0226 0.23 2
  505.2064 0.32 3
  505.3674 0.13 1
  505.9167 0.14 1
  506.3097 0.57 6
  507.0969 0.40 4
  507.2820 0.46 5
  507.4050 0.24 2
  507.8474 0.18 2
  508.1335 0.23 2
  508.3581 0.30 3
  508.5646 0.12 1
  509.1768 0.18 2
  509.3700 0.17 2
  509.5652 0.29 3
  510.1166 0.15 1
  510.3298 0.28 3
  510.4528 0.16 2
  510.9167 0.10 1
  511.0190 0.12 1
  511.3659 0.11 1
  512.0211 0.11 1
  512.3820 0.14 1
  512.7003 0.21 2
  513.2056 0.11 1
  513.3694 0.27 3
  513.6990 0.14 1
  514.2225 0.63 6
  514.4037 0.33 3
  514.6959 0.09 1
  515.0175 0.22 2
  515.1566 0.12 1
  515.3210 0.09 1
  515.7630 0.20 2
  516.0091 0.14 1
  516.2471 0.25 2
  516.4431 0.21 2
  516.5494 0.07 1
  516.6724 0.05 0
  516.7921 0.15 1
  517.0228 0.21 2
  517.1351 0.25 2
  517.3184 0.20 2
  517.9777 0.17 2
  518.1910 0.64 6
  518.3963 0.35 3
  518.6190 0.07 1
  518.8504 0.14 1
  518.9694 0.23 2
  519.2496 0.41 4
  519.4677 0.23 2
  519.8542 0.12 1
  519.9786 0.20 2
  520.2388 0.86 9
  520.5284 0.16 2
  520.7003 0.12 1
  521.0020 0.44 4
  521.1056 0.32 3
  521.2280 0.20 2
  521.3785 0.17 2
  521.5497 0.16 2
  521.7430 0.60 6
  521.8541 0.11 1
  522.1537 0.51 5
  522.2273 0.22 2
  522.3939 0.26 3
  522.6835 0.21 2
  522.8487 0.32 3
  522.9771 0.14 1
  523.0881 0.29 3
  523.1945 0.17 2
  523.3116 0.13 1
  523.4922 0.14 1
  523.7130 0.36 4
  523.9029 0.23 2
  523.9778 0.16 2
  524.1250 0.13 1
  524.3116 0.48 5
  524.4843 0.43 4
  524.9010 0.39 4
  525.0897 0.48 5
  525.2662 0.23 2
  525.4195 0.32 3
  525.6362 0.39 4
  525.7580 0.16 2
  526.0524 0.55 5
  526.3026 0.26 3
  526.5501 0.74 7
  526.8090 0.34 3
  526.9716 0.23 2
  527.1636 0.32 3
  527.3456 0.46 5
  527.7551 0.70 7
  528.2676 0.63 6
  528.4529 0.24 2
  528.7119 0.59 6
  529.0096 0.41 4
  529.1937 0.69 7
  529.3770 0.56 6
  529.5563 0.54 5
  529.8561 0.65 6
  530.3439 0.69 7
  530.9081 0.88 9
  531.2407 0.58 6
  532.1307 6.01 60
  533.2471 1.83 18
  533.5810 0.87 9
  533.9230 0.58 6
  534.2463 1.68 17
  535.1820 6.02 60
  535.7677 0.39 4
  536.1961 0.66 7
  536.4846 0.39 4
  536.6948 0.26 3
  536.9070 0.37 4
  537.3770 0.52 5
  537.7043 0.33 3
  537.7927 0.16 2
  537.8864 0.08 1
  537.9928 0.20 2
  538.2706 0.63 6
  538.6596 0.35 3
  538.9997 0.61 6
  539.3204 0.52 5
  539.6317 0.60 6
  540.0374 0.53 5
  540.1867 0.26 3
  540.3206 0.18 2
  540.4438 0.25 2
  540.8174 0.66 7
  541.0631 0.57 6
  541.2673 0.29 3
  541.4307 0.68 7
  541.5673 0.60 6
  541.7340 0.30 3
  541.9355 0.59 6
  542.1725 0.63 6
  542.2897 0.37 4
  542.5288 0.76 8
  542.8060 0.85 8
  543.0886 0.72 7
  543.3263 0.90 9
  543.6330 1.12 11
  543.8888 0.92 9
  544.4091 1.21 12
  544.7446 2.17 22
  544.9281 1.48 15
  545.2267 1.89 19
  545.9396 2.06 21
  550.3240 99.97 999
  551.0309 20.34 203
  551.8434 9.95 99
  552.6385 4.95 49
  553.4423 2.75 27
  553.8734 1.66 17
  554.3398 1.15 11
  554.5723 1.17 12
  555.0394 0.91 9
  555.3909 0.81 8
  555.5587 0.79 8
  555.7639 1.12 11
//
