ACCESSION: MSBNK-Kyoto_Univ-CA000077
RECORD_TITLE: Lycopene 1,2,1',2'-diepoxide; FAB-EBEB; MS2; m/z: 568.43; [M]+*
DATE: 2016.01.19 (Created 2010.04.01, modified 2011.05.10)
AUTHORS: Akimoto N, Graduate School of Pharmaceutical Sciences, Kyoto University and Maoka T, Research Institute for Production Development
LICENSE: CC BY-SA
PUBLICATION: Prepared from lycopene
COMMENT: Profile spectrum of this record is given as a JPEG file.
COMMENT: [Profile] CA000077.jpg
CH$NAME: Lycopene 1,2,1',2'-diepoxide
CH$COMPOUND_CLASS: N/A
CH$FORMULA: C40H56O2
CH$EXACT_MASS: 568.42803
CH$SMILES: CC(CCC(O2)C2(C)C)=CC=CC(C)=CC=CC(=CC=CC=C(C=CC=C(C=CC=C(C)CCC(O1)C1(C)C)C)C)C
CH$IUPAC: InChI=1S/C40H56O2/c1-31(19-13-21-33(3)23-15-25-35(5)27-29-37-39(7,8)41-37)17-11-12-18-32(2)20-14-22-34(4)24-16-26-36(6)28-30-38-40(9,10)42-38/h11-26,37-38H,27-30H2,1-10H3/b12-11+,19-13+,20-14+,23-15+,24-16+,31-17+,32-18+,33-21+,34-22+,35-25+,36-26+
CH$LINK: INCHIKEY GMJHZCBAXBEVTL-USJAUHPMSA-N
AC$INSTRUMENT: JMS-HX/HX 110A, JEOL
AC$INSTRUMENT_TYPE: FAB-EBEB
AC$MASS_SPECTROMETRY: MS_TYPE MS2
AC$MASS_SPECTROMETRY: ION_MODE POSITIVE
AC$MASS_SPECTROMETRY: ATOM_GUN_CURRENT 5 mA
AC$MASS_SPECTROMETRY: BOMBARDMENT 6 kV xenon
AC$MASS_SPECTROMETRY: COLLISION_ENERGY 3 kV
AC$MASS_SPECTROMETRY: COLLISION_GAS Ar
AC$MASS_SPECTROMETRY: GAS_PRESSURE adjust to attenuate the intensity of the precursor ion by 30 %
AC$MASS_SPECTROMETRY: IONIZATION FAB
AC$MASS_SPECTROMETRY: MATRIX 1-2 uL m-NBA
AC$MASS_SPECTROMETRY: PROBE_TIP stainless-steel
MS$FOCUSED_ION: BASE_PEAK 104.9913
MS$FOCUSED_ION: PRECURSOR_M/Z 568.43
MS$FOCUSED_ION: PRECURSOR_TYPE [M]+*
MS$DATA_PROCESSING: RELATIVE_M/Z normalised by peak(m/z=104.9913).  set 999 for peak(m/z=568.4637,rel=2491).
PK$SPLASH: splash10-014l-3920030000-fdef6d8bb57b2c4ae5a2
PK$NUM_PEAK: 1687
PK$PEAK: m/z int. rel.int.
  0.0081 0.01 0
  2.9697 0.02 0
  7.0454 0.01 0
  11.9529 0.10 2
  12.9736 0.02 0
  13.9699 0.09 2
  14.9750 0.28 7
  22.9273 0.39 10
  24.9204 0.06 1
  25.9620 0.25 6
  26.9622 1.80 45
  27.9634 0.22 5
  28.9679 1.74 43
  30.9447 0.54 13
  35.6636 0.01 0
  35.8993 0.05 1
  36.9402 0.15 4
  37.1938 0.04 1
  37.9485 0.50 12
  38.3721 0.01 0
  38.9508 3.79 94
  39.3790 0.07 2
  39.6486 0.03 1
  39.9461 0.52 13
  40.6046 0.04 1
  40.9660 9.18 229
  41.4905 0.01 0
  41.9684 0.65 16
  42.9715 35.10 875
  43.1859 0.05 1
  43.4152 0.02 0
  43.9614 0.10 2
  44.9549 0.31 8
  48.5124 0.03 1
  48.9314 0.11 3
  49.1115 0.03 1
  49.9454 1.03 26
  50.9392 1.65 41
  51.9604 0.72 18
  52.9672 4.51 112
  53.9647 0.21 5
  54.6472 0.03 1
  54.9813 13.83 345
  55.2335 0.01 0
  55.9931 0.27 7
  56.9888 1.78 44
  57.9731 0.21 5
  58.5010 0.02 0
  58.9800 13.71 342
  59.4081 0.07 2
  59.9757 0.02 0
  60.3673 0.02 0
  60.9032 0.15 4
  61.0458 0.04 1
  61.5226 0.07 2
  61.9499 0.42 10
  62.2585 0.05 1
  62.4183 0.02 0
  62.8078 0.05 1
  62.9569 1.56 39
  63.1792 0.10 2
  63.3384 0.02 0
  63.4933 0.03 1
  63.6150 0.03 1
  63.7189 0.02 0
  63.9620 0.40 10
  64.4215 0.03 1
  64.4962 0.01 0
  64.9628 3.77 94
  65.9660 0.62 15
  66.4117 0.05 1
  66.7394 0.03 1
  66.9815 6.64 165
  67.2203 0.03 1
  67.9980 0.47 12
  68.9895 9.38 234
  69.9675 0.13 3
  70.0785 0.11 3
  70.9745 19.96 497
  71.1562 0.07 2
  71.8642 0.06 1
  71.9845 0.32 8
  72.9842 1.03 26
  73.1464 0.06 1
  73.4193 0.04 1
  73.9104 0.40 10
  74.9395 0.77 19
  75.2875 0.04 1
  75.5663 0.05 1
  75.6887 0.03 1
  75.9446 0.54 13
  76.0375 0.09 2
  76.2966 0.03 1
  76.5798 0.07 2
  76.9512 13.26 330
  77.1947 0.14 3
  77.3288 0.07 2
  77.4244 0.08 2
  77.5819 0.05 1
  77.9585 2.82 70
  78.1466 0.13 3
  78.3173 0.14 3
  78.3881 0.07 2
  78.4998 0.02 0
  78.9693 15.38 383
  79.1956 0.11 3
  79.4724 0.10 2
  79.6132 0.08 2
  79.7488 0.10 2
  79.9720 1.73 43
  80.5854 0.02 0
  80.6766 0.04 1
  80.9853 19.26 480
  81.1727 0.10 2
  81.5396 0.03 1
  81.9777 0.28 7
  82.3543 0.01 0
  82.9900 1.97 49
  83.9534 0.04 1
  84.0277 0.02 0
  84.9723 3.97 99
  85.5188 0.07 2
  85.7335 0.02 0
  85.9347 0.26 6
  86.9491 0.39 10
  87.9523 0.27 7
  88.3358 0.04 1
  88.6494 0.23 6
  88.9561 1.72 43
  89.1666 0.07 2
  89.3309 0.10 2
  89.5104 0.11 3
  89.6266 0.16 4
  89.9195 0.45 11
  90.1359 0.08 2
  90.2910 0.12 3
  90.5227 0.10 2
  90.9624 30.52 761
  91.3602 0.10 2
  91.5859 0.03 1
  91.7051 0.01 0
  91.9763 2.60 65
  92.1344 0.07 2
  92.2350 0.05 1
  92.5466 0.03 1
  92.9817 21.89 545
  93.2719 0.06 1
  93.4815 0.10 2
  93.5769 0.03 1
  93.9812 1.12 28
  94.3968 0.03 1
  94.6014 0.10 2
  95.0041 7.22 180
  95.5438 0.08 2
  95.7360 0.01 0
  95.9687 0.10 2
  96.0420 0.04 1
  96.4575 0.04 1
  96.6770 0.04 1
  96.9909 1.22 30
  97.9478 0.18 4
  98.9773 0.73 18
  99.9682 0.09 2
  100.5312 0.10 2
  100.6237 0.02 0
  100.7217 0.03 1
  100.8444 0.15 4
  100.9850 0.61 15
  101.2954 0.02 0
  101.4226 0.10 2
  101.4874 0.04 1
  101.7833 0.16 4
  101.9687 1.01 25
  102.2902 0.08 2
  102.3743 0.02 0
  102.5865 0.07 2
  102.7226 0.18 4
  102.9733 5.59 139
  103.2446 0.13 3
  103.4900 0.08 2
  103.6462 0.05 1
  103.9799 2.74 68
  104.3000 0.05 1
  104.4764 0.08 2
  104.9913 40.09 999
  105.4315 0.13 3
  105.6685 0.04 1
  105.9997 3.62 90
  106.3179 0.06 1
  106.5154 0.07 2
  107.0113 18.13 452
  107.2521 0.16 4
  107.4008 0.07 2
  107.5447 0.04 1
  107.6331 0.05 1
  107.9920 0.53 13
  108.2413 0.07 2
  108.5331 0.04 1
  108.7103 0.06 1
  109.0092 3.89 97
  109.2040 0.04 1
  109.5969 0.06 1
  109.9332 0.15 4
  110.0395 0.22 5
  110.6238 0.01 0
  110.9976 1.06 26
  111.4945 0.02 0
  111.7540 0.08 2
  111.9629 0.05 1
  112.1768 0.03 1
  112.3946 0.14 3
  112.5572 0.13 3
  112.7493 0.18 4
  112.9485 0.35 9
  113.1508 0.08 2
  113.3758 0.01 0
  113.5022 0.14 3
  113.5839 0.08 2
  113.9400 0.59 15
  114.2056 0.10 2
  114.5084 0.15 4
  114.9551 13.57 338
  115.1555 0.23 6
  115.2507 0.14 3
  115.3528 0.11 3
  115.9660 4.86 121
  116.2154 0.27 7
  116.3556 0.07 2
  116.9653 15.60 389
  117.3244 0.01 0
  117.5047 0.07 2
  117.6458 0.05 1
  117.9913 2.80 70
  118.3465 0.06 1
  118.4884 0.03 1
  118.6481 0.14 3
  118.9865 30.50 760
  119.2180 0.13 3
  119.4552 0.08 2
  119.5484 0.07 2
  119.9794 3.55 88
  120.2600 0.05 1
  120.3928 0.09 2
  120.5084 0.07 2
  120.6437 0.04 1
  120.9971 7.59 189
  121.3055 0.05 1
  121.5065 0.08 2
  121.7731 0.03 1
  121.9889 0.24 6
  122.2226 0.03 1
  122.3207 0.03 1
  122.4353 0.02 0
  122.7240 0.09 2
  122.9936 1.06 26
  123.2269 0.07 2
  123.3991 0.04 1
  123.5292 0.04 1
  123.7896 0.10 2
  124.0110 0.12 3
  124.4612 0.04 1
  124.9845 6.81 170
  125.3105 0.03 1
  125.4941 0.06 1
  125.7090 0.12 3
  125.9631 0.48 12
  126.1519 0.09 2
  126.4163 0.09 2
  126.9447 5.78 144
  127.1902 0.28 7
  127.4203 0.22 5
  127.9456 17.53 437
  128.2100 0.22 5
  128.3878 0.18 4
  128.5104 0.22 5
  128.9536 19.80 493
  129.3886 0.17 4
  129.5686 0.17 4
  129.9602 8.04 200
  130.2818 0.15 4
  130.4903 0.15 4
  130.9693 21.72 541
  131.2585 0.09 2
  131.9758 4.97 124
  132.3840 0.17 4
  132.5007 0.16 4
  132.9841 20.84 519
  133.2862 0.22 5
  133.5775 0.13 3
  133.9671 1.15 29
  134.3284 0.11 3
  134.5987 0.04 1
  134.9848 1.71 43
  135.2172 0.06 1
  135.3105 0.02 0
  135.5151 0.05 1
  135.7030 0.16 4
  135.9427 0.40 10
  136.3186 0.03 1
  136.6617 0.09 2
  136.7635 0.03 1
  136.9704 0.59 15
  137.1443 0.04 1
  137.9785 0.28 7
  138.0675 0.07 2
  138.2617 0.08 2
  138.3878 0.08 2
  138.5067 0.11 3
  138.9435 1.91 48
  139.1626 0.09 2
  139.3415 0.08 2
  139.4924 0.05 1
  139.9544 0.50 12
  140.9409 12.37 308
  141.3547 0.13 3
  141.5562 0.08 2
  141.9617 15.53 387
  142.3571 0.19 5
  142.9628 26.38 657
  143.2814 0.30 7
  143.5642 0.10 2
  143.9759 8.23 205
  144.2785 0.13 3
  144.4439 0.14 3
  144.9861 26.78 667
  145.2079 0.35 9
  145.4442 0.20 5
  145.6150 0.16 4
  145.7970 0.19 5
  145.9967 1.63 41
  146.2783 0.16 4
  146.4146 0.04 1
  146.6105 0.03 1
  147.0090 5.12 128
  147.2981 0.03 1
  147.4967 0.13 3
  147.5807 0.08 2
  147.7368 0.04 1
  147.8227 0.03 1
  148.0222 0.33 8
  148.3687 0.09 2
  148.5039 0.09 2
  148.9760 0.53 13
  149.1704 0.04 1
  149.3241 0.03 1
  149.4305 0.02 0
  149.5783 0.03 1
  149.9326 0.35 9
  150.4579 0.03 1
  150.6519 0.05 1
  150.9677 1.06 26
  151.4132 0.18 4
  151.9543 5.12 128
  152.2441 0.27 7
  152.4358 0.11 3
  152.9551 7.69 192
  153.3078 0.14 3
  153.4423 0.08 2
  153.6144 0.11 3
  153.9752 3.92 98
  154.4272 0.12 3
  154.9869 16.39 408
  155.3753 0.25 6
  156.0003 10.59 264
  156.2204 0.07 2
  156.3354 0.05 1
  156.5311 0.10 2
  157.0039 23.49 585
  157.2744 0.31 8
  157.6476 0.15 4
  158.0150 3.64 91
  158.3977 0.12 3
  158.5348 0.07 2
  158.6169 0.04 1
  159.0243 8.00 199
  159.2906 0.17 4
  159.4961 0.05 1
  159.8229 0.16 4
  160.0371 0.43 11
  160.3183 0.15 4
  160.4370 0.09 2
  160.5949 0.07 2
  161.0275 1.19 30
  161.3427 0.05 1
  161.6548 0.09 2
  161.7397 0.02 0
  162.0273 0.29 7
  162.3362 0.01 0
  162.6152 0.10 2
  163.0386 0.67 17
  163.2180 0.14 3
  163.5697 0.15 4
  164.0087 0.53 13
  164.3813 0.26 6
  164.6188 0.16 4
  165.0022 10.30 257
  165.5043 0.27 7
  166.0098 3.66 91
  166.2550 0.22 5
  166.4163 0.19 5
  166.6275 0.25 6
  167.0089 10.30 257
  167.4803 0.15 4
  167.6863 0.05 1
  168.0209 4.43 110
  168.4567 0.12 3
  169.0311 16.44 410
  169.2935 0.23 6
  169.6205 0.20 5
  170.0388 4.94 123
  170.2747 0.13 3
  170.4266 0.15 4
  170.6105 0.18 4
  171.0425 10.46 261
  171.3846 0.21 5
  171.6254 0.19 5
  172.0463 1.48 37
  172.2271 0.14 3
  172.5842 0.12 3
  172.6816 0.08 2
  173.0428 3.23 80
  173.2885 0.17 4
  173.4641 0.15 4
  173.6304 0.09 2
  174.0359 0.44 11
  174.2691 0.10 2
  174.3914 0.12 3
  174.6019 0.04 1
  174.8218 0.18 4
  175.0605 0.60 15
  175.2912 0.04 1
  175.5641 0.04 1
  175.9895 0.63 16
  176.1915 0.10 2
  176.3970 0.02 0
  176.6192 0.10 2
  177.0074 0.86 21
  177.3007 0.14 3
  177.5136 0.39 10
  177.9979 5.99 149
  178.2927 0.13 3
  178.4588 0.11 3
  178.6190 0.12 3
  179.0064 9.70 242
  179.2994 0.11 3
  179.4757 0.13 3
  179.6186 0.04 1
  180.0156 4.51 112
  181.0060 12.45 310
  181.4867 0.16 4
  181.6405 0.08 2
  182.0192 5.43 135
  182.4196 0.26 6
  183.0230 12.80 319
  183.2851 0.21 5
  183.4370 0.06 1
  184.0260 2.10 52
  184.2339 0.14 3
  184.4296 0.12 3
  184.5816 0.09 2
  185.0412 5.58 139
  185.2800 0.07 2
  185.4544 0.14 3
  185.5829 0.19 5
  185.7310 0.15 4
  186.0367 0.78 19
  186.2777 0.06 1
  186.3895 0.02 0
  187.0166 0.79 20
  187.3454 0.06 1
  187.5415 0.04 1
  187.7822 0.16 4
  188.0033 0.31 8
  188.1347 0.20 5
  188.2486 0.06 1
  188.5069 0.16 4
  188.9803 2.17 54
  189.2029 0.11 3
  189.3358 0.06 1
  189.6327 0.03 1
  189.9748 1.01 25
  190.3555 0.18 4
  190.5357 0.13 3
  190.9888 3.70 92
  191.3703 0.12 3
  191.5075 0.03 1
  191.7378 0.12 3
  192.0087 4.24 106
  192.3006 0.02 0
  192.4824 0.06 1
  193.0083 10.51 262
  193.4755 0.14 3
  193.6304 0.13 3
  194.0179 4.96 124
  194.2872 0.17 4
  194.6525 0.33 8
  195.0173 11.77 293
  195.2887 0.26 6
  195.4458 0.15 4
  195.6184 0.10 2
  196.0104 3.23 80
  196.3077 0.18 4
  196.4500 0.18 4
  197.0387 10.09 251
  197.3226 0.18 4
  197.4689 0.15 4
  197.7014 0.11 3
  198.0153 1.65 41
  198.1088 0.82 20
  198.4831 0.13 3
  198.6377 0.16 4
  199.0547 3.22 80
  199.3749 0.06 1
  199.5730 0.06 1
  199.9170 0.28 7
  200.0439 0.42 10
  200.1898 0.11 3
  200.3167 0.05 1
  200.4369 0.15 4
  200.5719 0.05 1
  200.9935 0.78 19
  201.2359 0.17 4
  201.4770 0.06 1
  201.6529 0.16 4
  201.9857 1.92 48
  202.2948 0.11 3
  202.4321 0.07 2
  202.9832 2.68 67
  203.4338 0.09 2
  203.6487 0.04 1
  204.0002 1.39 35
  204.3232 0.08 2
  205.0102 4.17 104
  205.3429 0.05 1
  205.4994 0.14 3
  206.0065 3.26 81
  206.3277 0.10 2
  206.5122 0.07 2
  207.0257 6.98 174
  207.3975 0.14 3
  207.4908 0.08 2
  207.6400 0.14 3
  208.0344 3.30 82
  208.6028 0.23 6
  209.0499 8.74 218
  209.3975 0.15 4
  209.5325 0.13 3
  210.0644 1.40 35
  210.3372 0.17 4
  210.5528 0.08 2
  210.7908 0.16 4
  211.0733 2.77 69
  211.3292 0.11 3
  211.3926 0.05 1
  211.5264 0.01 0
  211.7229 0.18 4
  212.1038 0.36 9
  212.4158 0.11 3
  212.5701 0.11 3
  212.7388 0.04 1
  213.0652 0.93 23
  213.9149 0.31 8
  214.1082 0.31 8
  214.2422 0.14 3
  214.4191 0.14 3
  215.0014 2.22 55
  215.4574 0.21 5
  215.7240 0.12 3
  216.0311 1.63 41
  216.2889 0.08 2
  216.4346 0.08 2
  216.5570 0.07 2
  217.0304 2.86 71
  217.3184 0.12 3
  217.6722 0.13 3
  218.0609 1.71 43
  218.3710 0.11 3
  218.5873 0.07 2
  219.0542 3.72 93
  219.3651 0.01 0
  219.6370 0.08 2
  220.0645 2.45 61
  220.4920 0.10 2
  220.5598 0.05 1
  221.0792 5.04 126
  221.4198 0.19 5
  221.5946 0.07 2
  221.8037 0.14 3
  222.1150 1.46 36
  222.4743 0.09 2
  222.6094 0.07 2
  223.1032 3.20 80
  223.3769 0.12 3
  223.4887 0.09 2
  223.7014 0.13 3
  224.1021 0.71 18
  224.4397 0.07 2
  224.6627 0.11 3
  225.1206 1.28 32
  225.3396 0.07 2
  225.4597 0.11 3
  225.5764 0.03 1
  226.0475 0.48 12
  226.2604 0.10 2
  226.4863 0.04 1
  226.6945 0.07 2
  227.0579 0.58 14
  227.3478 0.10 2
  227.5450 0.09 2
  227.8721 0.09 2
  228.0989 0.67 17
  228.2975 0.17 4
  228.3910 0.06 1
  228.6335 0.12 3
  229.0660 2.00 50
  229.5206 0.09 2
  230.0788 1.40 35
  230.2866 0.12 3
  230.6145 0.05 1
  231.0645 3.18 79
  231.3219 0.08 2
  231.7411 0.07 2
  232.0994 1.84 46
  232.3691 0.11 3
  232.5277 0.19 5
  232.7096 0.09 2
  233.1010 3.81 95
  233.3413 0.07 2
  233.4594 0.09 2
  233.6380 0.11 3
  233.7918 0.14 3
  234.0927 1.71 43
  234.4059 0.12 3
  234.6299 0.08 2
  234.7109 0.04 1
  235.1108 2.89 72
  235.4771 0.17 4
  235.6008 0.13 3
  235.7238 0.12 3
  236.0764 0.69 17
  236.3026 0.11 3
  236.5123 0.03 1
  236.6903 0.09 2
  237.1297 1.46 36
  237.3773 0.11 3
  237.4873 0.13 3
  237.6304 0.06 1
  237.8931 0.19 5
  238.1215 0.19 5
  238.3973 0.10 2
  238.5810 0.07 2
  239.0613 1.06 26
  239.2602 0.15 4
  239.8032 0.25 6
  240.0331 0.34 8
  240.2961 0.21 5
  240.5370 0.08 2
  240.8042 0.11 3
  241.0831 1.15 29
  241.6071 0.46 11
  241.8358 0.17 4
  242.0459 0.48 12
  242.2767 0.21 5
  242.4716 0.17 4
  242.5619 0.08 2
  243.0580 1.89 47
  243.6845 0.06 1
  244.0739 1.06 26
  244.5227 0.08 2
  245.0667 2.59 65
  245.3591 0.05 1
  245.4756 0.05 1
  245.6474 0.14 3
  246.0826 1.31 33
  246.1923 0.67 17
  246.4055 0.10 2
  246.6035 0.02 0
  247.0823 2.60 65
  247.4915 0.11 3
  247.6703 0.03 1
  247.8083 0.13 3
  248.1237 0.77 19
  248.4392 0.21 5
  248.6698 0.19 5
  248.8072 0.11 3
  249.1144 1.65 41
  249.3568 0.17 4
  249.6731 0.03 1
  249.8022 0.13 3
  250.0764 0.90 22
  250.5303 0.10 2
  251.0912 0.59 15
  251.5742 0.06 1
  252.0476 0.59 15
  252.2536 0.09 2
  252.4658 0.07 2
  252.7900 0.09 2
  253.0921 0.64 16
  253.3106 0.07 2
  253.4288 0.10 2
  253.6847 0.13 3
  254.1024 0.23 6
  254.5643 0.10 2
  255.0773 0.97 24
  255.3747 0.09 2
  255.6313 0.13 3
  256.0995 0.50 12
  256.2310 0.24 6
  256.4503 0.10 2
  256.7574 0.07 2
  257.1048 1.90 47
  257.4888 0.06 1
  257.7954 0.11 3
  258.1013 0.78 19
  258.3816 0.21 5
  258.6239 0.13 3
  258.7617 0.08 2
  259.1078 2.37 59
  259.4734 0.06 1
  259.5911 0.06 1
  259.7199 0.05 1
  260.1043 0.82 20
  260.4520 0.03 1
  260.7235 0.14 3
  261.1135 2.08 52
  261.3830 0.14 3
  261.5493 0.11 3
  261.9546 0.13 3
  262.1861 0.47 12
  262.3441 0.12 3
  262.4557 0.03 1
  262.7398 0.08 2
  263.1418 1.12 28
  263.4517 0.12 3
  263.5904 0.05 1
  263.8212 0.10 2
  264.0521 0.22 5
  264.2483 0.21 5
  264.4099 0.10 2
  264.6179 0.06 1
  264.8142 0.10 2
  265.1270 0.58 14
  265.3302 0.14 3
  265.5882 0.06 1
  265.8477 0.05 1
  266.1147 0.43 11
  266.6136 0.08 2
  266.7857 0.08 2
  267.1223 0.57 14
  267.6025 0.06 1
  267.7733 0.04 1
  267.8649 0.03 1
  268.1196 0.45 11
  268.4063 0.10 2
  269.1318 1.08 27
  269.6387 0.01 0
  269.8658 0.12 3
  270.1575 0.57 14
  270.4388 0.11 3
  270.6250 0.04 1
  270.8202 0.21 5
  271.1523 1.38 34
  271.6650 0.10 2
  272.1361 0.61 15
  272.6230 0.07 2
  272.7464 0.05 1
  273.1216 1.37 34
  273.7041 0.04 1
  274.0503 0.16 4
  274.1924 0.26 6
  274.7370 0.07 2
  275.1499 1.07 27
  275.5620 0.12 3
  276.1256 0.36 9
  276.4677 0.19 5
  276.7551 0.11 3
  277.1237 0.42 10
  277.4570 0.07 2
  277.6507 0.11 3
  277.8694 0.02 0
  278.0576 0.21 5
  278.1534 0.16 4
  278.5499 0.04 1
  278.6721 0.02 0
  278.9409 0.17 4
  279.1264 0.56 14
  279.6105 0.02 0
  279.8954 0.02 0
  280.1600 0.21 5
  280.3706 0.10 2
  280.7576 0.12 3
  281.0765 0.49 12
  281.5199 0.02 0
  281.6645 0.05 1
  281.9397 0.14 3
  282.1406 0.26 6
  282.3547 0.16 4
  282.5730 0.01 0
  282.7475 0.09 2
  283.1326 0.92 23
  283.5679 0.06 1
  283.8196 0.09 2
  283.9010 0.02 0
  284.1312 0.38 9
  284.3391 0.16 4
  284.4539 0.05 1
  285.1682 1.15 29
  285.8534 0.09 2
  286.1992 0.58 14
  286.4970 0.06 1
  287.1157 0.96 24
  287.8924 0.19 5
  288.0330 0.10 2
  288.1075 0.05 1
  288.2419 0.17 4
  289.1143 0.52 13
  289.7773 0.06 1
  289.9255 0.16 4
  290.2025 0.10 2
  290.3444 0.07 2
  290.5073 0.01 0
  290.7856 0.05 1
  290.8935 0.04 1
  291.1664 0.33 8
  291.8444 0.06 1
  291.9801 0.10 2
  292.1207 0.14 3
  292.3122 0.19 5
  293.0670 0.35 9
  293.1860 0.21 5
  293.3803 0.04 1
  293.6603 0.05 1
  293.8964 0.21 5
  294.1053 0.38 9
  294.2404 0.27 7
  294.3944 0.07 2
  294.5532 0.07 2
  294.8569 0.10 2
  295.0784 0.45 11
  295.2387 0.29 7
  295.4965 0.08 2
  295.7048 0.09 2
  295.8539 0.08 2
  296.0608 0.26 6
  296.2037 0.23 6
  296.6636 0.15 4
  296.7695 0.14 3
  296.8985 0.15 4
  297.1772 1.16 29
  297.3620 0.11 3
  298.1245 0.36 9
  298.2905 0.13 3
  298.4424 0.05 1
  298.8566 0.07 2
  299.1076 0.53 13
  300.0978 0.19 5
  300.2248 0.11 3
  300.3950 0.04 1
  300.5582 0.07 2
  301.0632 0.42 10
  301.2257 0.23 6
  301.4120 0.08 2
  302.0727 0.24 6
  302.6197 0.07 2
  302.7844 0.03 1
  303.0063 0.29 7
  303.1975 0.38 9
  303.4802 0.04 1
  304.0853 0.17 4
  304.2521 0.08 2
  304.4930 0.05 1
  304.6619 0.10 2
  305.0780 0.36 9
  305.1876 0.21 5
  305.3768 0.04 1
  306.0464 0.06 1
  306.1777 0.05 1
  307.0661 0.25 6
  307.2211 0.25 6
  307.4502 0.11 3
  307.7701 0.05 1
  307.9525 0.11 3
  308.0943 0.08 2
  308.2249 0.24 6
  308.3150 0.10 2
  309.1046 0.40 10
  309.2471 0.22 5
  309.4442 0.02 0
  309.8578 0.13 3
  309.9536 0.04 1
  310.1723 0.19 5
  310.4582 0.03 1
  310.6762 0.06 1
  311.1390 0.37 9
  311.9814 0.14 3
  312.2352 0.12 3
  312.7120 0.09 2
  312.9393 0.09 2
  313.1106 0.69 17
  313.2533 0.49 12
  313.4680 0.13 3
  313.8918 0.10 2
  314.0666 0.07 2
  314.2065 0.14 3
  314.9144 0.10 2
  315.1235 0.57 14
  315.2809 0.22 5
  315.5818 0.04 1
  316.2290 0.11 3
  317.0988 0.23 6
  317.2527 0.13 3
  317.4186 0.04 1
  318.0507 0.16 4
  318.2144 0.26 6
  318.3201 0.15 4
  319.0657 0.16 4
  319.1742 0.15 4
  319.2960 0.10 2
  319.5039 0.07 2
  320.0536 0.10 2
  320.1642 0.06 1
  320.3778 0.08 2
  320.6943 0.05 1
  320.7966 0.08 2
  321.1264 0.38 9
  321.2903 0.12 3
  321.9788 0.09 2
  322.1519 0.13 3
  322.3942 0.10 2
  322.9512 0.09 2
  323.1950 0.44 11
  323.6238 0.02 0
  324.0176 0.10 2
  324.1851 0.04 1
  324.6952 0.12 3
  324.9174 0.10 2
  325.1522 0.26 6
  326.2022 0.25 6
  326.4545 0.10 2
  326.8752 0.09 2
  327.1528 0.16 4
  327.3708 0.07 2
  327.4732 0.02 0
  327.9115 0.11 3
  328.2088 0.31 8
  329.2018 0.31 8
  329.9846 0.03 1
  330.1719 0.19 5
  330.4687 0.07 2
  330.8342 0.11 3
  330.9822 0.10 2
  331.2173 0.23 6
  331.5666 0.01 0
  331.7437 0.12 3
  331.9006 0.08 2
  332.0560 0.07 2
  332.2031 0.06 1
  332.3641 0.08 2
  332.9202 0.08 2
  333.1737 0.45 11
  333.6780 0.04 1
  333.9232 0.07 2
  334.0646 0.15 4
  334.2118 0.11 3
  334.3645 0.03 1
  334.5081 0.06 1
  335.1834 0.36 9
  335.7558 0.03 1
  336.2821 0.14 3
  336.4706 0.03 1
  336.6415 0.02 0
  336.8076 0.03 1
  336.9667 0.10 2
  337.2099 0.35 9
  337.3143 0.15 4
  337.9690 0.20 5
  338.2528 0.28 7
  338.6300 0.03 1
  339.1789 0.19 5
  339.2995 0.06 1
  339.8989 0.04 1
  340.1030 0.12 3
  340.3014 0.13 3
  341.0125 0.13 3
  341.2242 0.14 3
  342.0126 0.09 2
  342.0890 0.05 1
  342.2279 0.22 5
  342.4026 0.05 1
  342.5912 0.07 2
  343.2394 0.31 8
  343.5018 0.10 2
  344.1087 0.23 6
  344.2862 0.17 4
  344.5079 0.05 1
  344.7570 0.02 0
  344.9556 0.13 3
  345.2110 0.33 8
  345.9247 0.05 1
  346.2623 0.10 2
  346.5080 0.09 2
  346.7164 0.06 1
  346.9965 0.22 5
  347.2190 0.24 6
  347.3643 0.04 1
  347.5237 0.09 2
  348.0607 0.12 3
  348.1499 0.07 2
  348.2861 0.09 2
  348.3942 0.05 1
  349.2599 0.49 12
  350.2332 0.29 7
  350.3962 0.11 3
  350.5388 0.02 0
  350.9854 0.12 3
  351.1744 0.22 5
  351.3430 0.33 8
  351.6162 0.06 1
  352.2365 0.04 1
  352.4739 0.02 0
  352.8940 0.09 2
  353.1610 0.13 3
  353.2812 0.30 7
  353.5229 0.08 2
  353.9044 0.09 2
  354.2803 0.07 2
  355.2565 0.14 3
  356.1871 0.14 3
  356.8689 0.04 1
  357.0974 0.14 3
  357.3034 0.12 3
  357.4236 0.06 1
  358.0936 0.03 1
  358.3341 0.06 1
  359.0972 0.20 5
  359.2082 0.10 2
  359.3839 0.13 3
  360.2924 0.09 2
  360.4132 0.05 1
  360.5580 0.05 1
  361.0352 0.13 3
  361.2727 0.37 9
  362.2082 0.53 13
  362.3755 0.61 15
  363.0314 0.05 1
  363.2001 0.23 6
  363.3119 0.20 5
  363.5200 0.19 5
  364.2040 0.07 2
  364.8164 0.08 2
  365.1955 0.02 0
  365.3973 0.17 4
  365.8361 0.11 3
  366.4107 0.01 0
  367.1949 0.13 3
  367.3630 0.21 5
  368.1832 0.10 2
  368.4984 0.04 1
  369.1196 0.09 2
  369.2997 0.13 3
  370.0688 0.14 3
  370.3108 0.14 3
  370.8935 0.04 1
  371.3235 0.15 4
  372.1645 0.13 3
  372.4341 0.03 1
  372.7218 0.10 2
  373.0471 0.06 1
  373.2959 0.25 6
  373.5355 0.10 2
  373.8924 0.02 0
  374.1658 0.07 2
  374.2536 0.04 1
  374.7013 0.02 0
  374.9444 0.09 2
  375.0442 0.02 0
  375.2635 0.44 11
  375.5833 0.02 0
  375.7098 0.10 2
  375.8890 0.02 0
  376.1716 0.11 3
  376.4429 0.07 2
  376.8520 0.07 2
  376.9989 0.04 1
  377.3568 0.05 1
  378.2138 0.11 3
  378.4071 0.09 2
  379.2333 0.10 2
  380.2178 0.17 4
  380.4034 0.13 3
  380.6102 0.05 1
  380.9176 0.08 2
  381.1616 0.16 4
  381.3206 0.11 3
  382.3468 0.08 2
  382.4910 0.03 1
  382.8188 0.04 1
  382.9856 0.10 2
  383.0960 0.12 3
  383.1819 0.08 2
  383.3957 0.10 2
  383.5772 0.10 2
  383.9002 0.09 2
  384.0817 0.09 2
  384.3125 0.03 1
  384.4265 0.06 1
  385.1463 0.20 5
  385.3553 0.32 8
  385.8556 0.06 1
  386.2392 0.08 2
  386.3616 0.11 3
  386.4820 0.04 1
  386.6727 0.08 2
  387.1147 0.12 3
  387.2309 0.23 6
  387.4357 0.04 1
  387.8960 0.07 2
  388.0143 0.08 2
  388.1684 0.07 2
  388.3951 0.11 3
  388.7126 0.10 2
  389.1681 0.12 3
  391.0304 0.03 1
  391.1966 0.05 1
  391.7248 0.10 2
  392.0938 0.11 3
  392.9474 0.08 2
  393.0995 0.09 2
  393.3982 0.09 2
  393.9391 0.11 3
  394.2308 0.02 0
  394.4703 0.10 2
  395.1621 0.13 3
  395.5150 0.11 3
  396.3429 0.04 1
  396.8545 0.05 1
  397.1631 0.33 8
  397.4020 0.20 5
  397.5810 0.16 4
  397.9531 0.01 0
  398.2829 0.32 8
  399.3739 0.36 9
  399.5713 0.05 1
  399.6996 0.04 1
  399.8948 0.14 3
  400.2451 0.11 3
  400.6096 0.06 1
  401.0022 0.08 2
  401.2962 0.23 6
  401.4633 0.05 1
  401.6628 0.03 1
  401.9138 0.05 1
  402.3016 0.34 8
  403.0010 0.07 2
  403.2852 0.27 7
  403.8839 0.09 2
  404.0651 0.25 6
  404.3585 0.69 17
  405.2096 0.07 2
  405.3996 0.09 2
  405.4933 0.10 2
  406.3696 0.12 3
  406.5406 0.10 2
  407.4551 0.07 2
  408.3281 0.07 2
  408.6647 0.07 2
  409.4554 0.11 3
  409.6406 0.05 1
  409.7237 0.04 1
  410.2772 0.48 12
  410.7202 0.06 1
  411.0603 0.14 3
  411.1540 0.07 2
  411.3589 0.14 3
  411.4872 0.03 1
  411.7421 0.04 1
  412.1774 0.10 2
  412.4619 0.06 1
  413.0297 0.11 3
  413.2312 0.16 4
  413.3847 0.45 11
  413.7151 0.20 5
  413.9293 0.06 1
  414.2731 0.31 8
  414.5619 0.07 2
  414.6655 0.06 1
  415.2623 1.16 29
  415.8753 0.02 0
  416.2910 0.53 13
  416.4496 0.16 4
  416.6095 0.08 2
  416.8970 0.08 2
  417.1669 0.21 5
  417.2550 0.12 3
  417.4016 0.04 1
  417.8456 0.05 1
  417.9971 0.04 1
  418.1402 0.03 1
  418.5067 0.05 1
  418.6237 0.06 1
  419.1290 0.10 2
  419.3130 0.07 2
  419.9418 0.02 0
  420.3245 0.19 5
  420.6982 0.04 1
  421.0584 0.02 0
  421.2105 0.11 3
  421.3584 0.05 1
  421.7020 0.05 1
  422.2745 0.13 3
  422.4886 0.04 1
  422.8280 0.07 2
  423.1499 0.15 4
  423.3710 0.17 4
  423.6098 0.07 2
  424.1732 0.12 3
  424.3190 0.13 3
  424.9043 0.02 0
  425.2586 0.13 3
  426.2997 0.16 4
  426.4089 0.08 2
  426.9641 0.08 2
  427.2311 0.38 9
  427.3481 0.19 5
  428.3591 0.45 11
  428.7607 0.11 3
  428.9059 0.06 1
  429.1504 0.29 7
  429.3230 0.16 4
  429.4132 0.09 2
  429.7839 0.08 2
  429.9897 0.09 2
  430.2983 0.18 4
  431.1870 0.06 1
  431.3724 0.10 2
  431.8855 0.05 1
  432.2449 0.16 4
  432.4515 0.07 2
  432.7299 0.08 2
  433.0823 0.04 1
  433.2438 0.01 0
  434.1849 0.15 4
  434.3195 0.05 1
  434.4288 0.05 1
  434.9216 0.04 1
  435.0696 0.09 2
  435.1902 0.05 1
  435.3827 0.17 4
  435.7549 0.10 2
  435.9975 0.03 1
  436.1054 0.08 2
  436.2527 0.10 2
  436.5440 0.07 2
  436.9226 0.04 1
  437.7307 0.03 1
  437.8605 0.11 3
  438.3690 0.02 0
  438.5100 0.04 1
  438.8824 0.06 1
  438.9910 0.12 3
  439.1906 0.23 6
  439.3479 0.28 7
  439.4692 0.17 4
  439.6921 0.02 0
  440.0264 0.13 3
  440.1647 0.11 3
  440.3241 0.15 4
  440.4623 0.07 2
  440.6422 0.05 1
  441.2601 0.51 13
  441.5479 0.05 1
  441.7934 0.13 3
  442.0982 0.16 4
  442.2816 0.31 8
  442.4517 0.18 4
  442.8813 0.04 1
  443.3159 0.31 8
  443.6285 0.06 1
  443.8267 0.07 2
  444.1316 0.08 2
  444.2910 0.08 2
  444.5069 0.19 5
  445.0383 0.18 4
  445.2986 0.12 3
  445.5372 0.05 1
  445.9077 0.17 4
  446.7821 0.06 1
  447.1540 0.15 4
  447.4914 0.20 5
  448.5699 0.11 3
  448.6574 0.09 2
  449.2016 0.19 5
  449.4381 0.14 3
  450.1222 0.10 2
  450.2436 0.04 1
  451.1635 0.04 1
  451.3626 0.19 5
  451.9070 0.12 3
  452.1032 0.12 3
  452.8969 0.11 3
  453.0289 0.15 4
  453.1652 0.13 3
  453.3431 0.17 4
  453.5232 0.16 4
  453.7308 0.17 4
  453.8812 0.19 5
  453.9631 0.12 3
  454.3840 0.30 7
  454.7188 0.11 3
  455.0726 0.29 7
  455.4625 0.23 6
  455.8608 0.21 5
  456.0674 0.25 6
  456.3015 0.26 6
  456.5674 0.02 0
  456.7817 0.15 4
  456.9496 0.22 5
  457.3021 0.15 4
  457.5807 0.14 3
  457.8903 0.04 1
  458.1258 0.08 2
  458.2774 0.04 1
  458.3867 0.16 4
  458.5412 0.03 1
  458.8557 0.09 2
  459.2549 0.14 3
  459.4834 0.12 3
  459.9560 0.05 1
  460.0646 0.04 1
  460.2191 0.11 3
  460.4187 0.13 3
  460.7827 0.04 1
  460.9082 0.01 0
  461.1438 0.06 1
  461.7617 0.08 2
  461.8387 0.03 1
  462.0122 0.04 1
  462.3776 0.75 19
  462.7762 0.07 2
  462.9420 0.10 2
  463.2834 0.04 1
  463.7752 0.14 3
  464.3241 0.16 4
  464.7347 0.09 2
  464.8977 0.11 3
  465.4016 0.14 3
  465.5652 0.05 1
  466.0966 0.10 2
  466.2384 0.03 1
  466.5412 0.25 6
  466.6498 0.11 3
  466.7458 0.02 0
  467.2307 0.36 9
  467.3908 0.24 6
  467.5793 0.13 3
  467.9435 0.09 2
  468.3817 0.45 11
  468.6407 0.05 1
  468.9838 0.22 5
  469.4143 0.48 12
  469.8774 0.12 3
  470.0284 0.05 1
  470.2726 0.19 5
  470.3941 0.16 4
  470.5741 0.06 1
  470.6800 0.10 2
  471.2037 0.11 3
  471.4890 0.09 2
  471.8808 0.11 3
  472.4434 0.06 1
  472.6305 0.06 1
  473.0351 0.06 1
  473.1600 0.08 2
  473.4255 0.11 3
  473.5554 0.12 3
  473.9833 0.12 3
  474.2339 0.07 2
  474.4557 0.21 5
  474.6788 0.10 2
  475.0763 0.08 2
  475.3178 0.17 4
  475.5911 0.19 5
  475.7055 0.14 3
  476.3849 11.01 274
  476.7683 0.21 5
  476.9025 0.17 4
  477.1786 0.26 6
  477.4449 0.17 4
  477.7097 0.12 3
  477.8298 0.07 2
  477.9499 0.13 3
  478.2741 0.08 2
  478.3885 0.03 1
  478.6265 0.09 2
  478.8674 0.11 3
  478.9903 0.03 1
  479.3519 0.24 6
  479.6373 0.19 5
  479.8902 0.04 1
  480.0244 0.07 2
  480.2540 0.10 2
  480.4412 0.04 1
  480.6185 0.12 3
  480.7753 0.03 1
  481.2564 0.16 4
  481.4697 0.23 6
  482.0137 0.08 2
  482.3860 0.62 15
  482.6637 0.16 4
  482.8198 0.24 6
  483.3998 5.58 139
  483.8159 0.39 10
  483.9725 0.22 5
  484.2271 0.23 6
  484.4380 0.25 6
  484.6235 0.08 2
  484.7667 0.16 4
  485.0439 0.06 1
  485.2251 0.30 7
  485.3528 0.27 7
  485.5305 0.13 3
  485.6737 0.11 3
  485.7944 0.04 1
  485.9411 0.10 2
  486.1675 0.06 1
  486.2896 0.07 2
  486.5576 0.07 2
  486.9837 0.11 3
  487.1601 0.11 3
  487.4331 0.17 4
  487.8077 0.07 2
  488.2507 0.22 5
  488.4469 0.49 12
  488.6261 0.19 5
  489.4029 0.94 23
  491.0370 0.06 1
  491.6926 0.02 0
  491.9332 0.12 3
  492.2430 0.05 1
  492.3524 0.12 3
  493.3679 0.11 3
  493.6149 0.03 1
  494.0144 0.02 0
  494.2572 0.07 2
  494.4181 0.14 3
  494.5981 0.05 1
  494.8021 0.10 2
  495.0491 0.03 1
  495.4126 0.41 10
  495.6568 0.05 1
  495.8488 0.02 0
  496.2900 0.54 13
  496.4876 0.55 14
  496.6895 0.17 4
  496.9359 0.15 4
  497.4025 2.46 61
  497.8698 0.09 2
  498.1692 0.11 3
  498.4205 0.34 8
  498.6273 0.09 2
  498.8801 0.12 3
  499.0580 0.10 2
  499.3164 0.17 4
  499.5063 0.11 3
  499.6207 0.04 1
  499.7365 0.11 3
  499.8290 0.08 2
  500.2992 0.10 2
  500.8168 0.04 1
  501.0477 0.11 3
  502.2361 0.01 0
  502.5750 0.06 1
  502.8384 0.06 1
  503.4472 0.04 1
  505.0214 0.13 3
  505.4084 0.09 2
  506.0915 0.09 2
  506.5922 0.10 2
  506.8719 0.09 2
  507.1799 0.05 1
  507.8764 0.04 1
  508.1597 0.26 6
  508.4281 0.09 2
  508.5567 0.05 1
  509.0251 0.12 3
  509.2526 0.14 3
  509.3607 0.08 2
  509.5486 0.23 6
  509.7567 0.10 2
  509.9456 0.20 5
  510.1191 0.12 3
  510.4223 0.45 11
  510.6388 0.22 5
  510.8214 0.07 2
  511.0562 0.16 4
  511.3030 0.13 3
  511.5371 0.23 6
  511.6754 0.10 2
  512.1514 0.02 0
  512.2720 0.11 3
  512.4067 0.07 2
  512.5809 0.17 4
  513.4328 0.09 2
  514.4703 0.03 1
  515.4817 0.02 0
  515.8280 0.03 1
  515.9995 0.08 2
  516.5687 0.04 1
  516.9948 0.09 2
  517.1873 0.09 2
  517.8300 0.14 3
  518.3323 0.02 0
  518.4889 0.06 1
  518.6172 0.06 1
  519.0272 0.02 0
  519.4850 0.03 1
  519.7997 0.10 2
  520.1736 0.09 2
  520.4206 0.21 5
  521.1085 0.10 2
  521.2983 0.03 1
  521.4437 0.23 6
  522.0540 0.06 1
  522.2050 0.09 2
  522.3878 0.26 6
  522.5515 0.24 6
  522.6312 0.13 3
  522.7892 0.11 3
  522.9233 0.07 2
  523.2818 0.09 2
  523.4794 0.13 3
  523.5775 0.07 2
  523.7793 0.10 2
  524.0419 0.11 3
  524.3763 0.26 6
  524.7208 0.20 5
  524.9995 0.09 2
  525.3058 0.41 10
  525.5542 0.72 18
  525.7942 0.29 7
  526.3983 22.17 552
  526.9728 0.45 11
  527.1747 0.47 12
  527.3653 0.37 9
  527.6603 0.17 4
  527.8340 0.11 3
  528.0570 0.28 7
  528.2469 0.33 8
  528.5102 0.19 5
  528.7241 0.14 3
  528.8215 0.02 0
  528.9542 0.09 2
  529.0919 0.07 2
  529.2782 0.09 2
  529.3735 0.09 2
  529.5676 0.24 6
  529.7653 0.12 3
  529.9912 0.06 1
  530.1225 0.09 2
  530.3089 0.11 3
  530.3971 0.06 1
  530.7021 0.15 4
  530.8835 0.10 2
  531.1334 0.11 3
  531.3092 0.20 5
  531.4215 0.13 3
  531.6276 0.11 3
  531.9150 0.04 1
  532.1642 0.13 3
  532.4678 0.14 3
  532.5779 0.12 3
  533.3073 0.11 3
  533.4196 0.08 2
  533.9174 0.11 3
  534.0430 0.15 4
  534.3650 0.03 1
  534.5662 0.04 1
  534.7562 0.03 1
  535.3289 0.26 6
  535.5110 0.36 9
  535.6050 0.25 6
  536.1508 0.06 1
  536.3492 0.09 2
  536.5201 0.08 2
  537.2949 0.12 3
  537.5039 0.16 4
  537.6734 0.11 3
  537.8027 0.03 1
  537.9142 0.03 1
  538.0901 0.08 2
  538.2737 0.23 6
  538.4079 0.21 5
  538.6028 0.03 1
  538.8536 0.03 1
  539.0789 0.10 2
  539.3190 0.25 6
  539.6022 0.23 6
  539.9250 0.08 2
  540.1475 0.22 5
  540.4463 0.19 5
  540.6772 0.03 1
  540.8602 0.06 1
  541.0071 0.09 2
  541.2261 0.08 2
  541.4387 0.05 1
  541.5913 0.01 0
  541.7269 0.03 1
  541.8449 0.05 1
  542.3535 0.10 2
  542.5605 0.07 2
  542.6785 0.05 1
  543.0274 0.08 2
  543.2782 0.11 3
  543.5021 0.11 3
  543.6576 0.13 3
  543.7982 0.04 1
  543.9938 0.15 4
  544.1351 0.07 2
  544.3824 0.18 4
  544.6290 0.13 3
  544.9257 0.21 5
  545.1348 0.22 5
  545.3192 0.11 3
  545.5849 0.09 2
  545.7693 0.12 3
  546.0109 0.14 3
  546.3105 0.23 6
  546.4348 0.11 3
  546.7372 0.18 4
  546.8305 0.05 1
  546.9789 0.20 5
  547.3138 0.43 11
  547.4664 0.38 9
  547.5865 0.15 4
  547.8409 0.24 6
  548.2169 0.37 9
  548.3871 0.49 12
  548.6295 0.29 7
  548.7758 0.19 5
  548.9482 0.29 7
  549.2457 0.42 10
  549.4677 0.40 10
  549.7913 0.39 10
  550.4902 2.71 68
  550.9390 0.26 6
  551.1545 0.61 15
  551.5051 1.75 44
  551.8959 0.56 14
  552.4726 2.05 51
  552.7758 0.81 20
  552.8663 0.42 10
  553.4971 6.83 170
  554.0033 0.49 12
  554.3861 0.63 16
  554.7217 0.38 9
  554.8740 0.23 6
  555.2646 0.72 18
  555.4803 0.32 8
  555.8548 0.50 12
  556.1650 0.38 9
  556.5422 0.32 8
  556.7982 0.57 14
  557.0338 0.28 7
  557.6197 0.46 11
  558.0322 0.33 8
  558.2579 0.29 7
  558.4885 0.55 14
  558.5886 0.38 9
  558.8608 0.59 15
  559.2903 0.66 16
  560.0674 0.69 17
  560.3735 0.48 12
  560.7762 0.83 21
  561.3898 0.74 18
  561.9717 0.89 22
  563.0339 1.63 41
  568.4637 99.97 999
  569.0732 35.09 874
  569.9150 15.34 382
  570.9021 7.74 193
  571.9323 4.20 105
  572.8030 2.56 64
  573.0543 1.68 42
  573.4544 2.13 53
  573.6365 1.38 34
  574.1968 0.97 24
  574.5673 0.68 17
//
