ACCESSION: MSBNK-Kyoto_Univ-CA000014
RECORD_TITLE: 2,3'-Dihydroxycanthaxanthin; FAB-EBEB; MS2; m/z: 596.39; [M]+*
DATE: 2016.01.19 (Created 2010.04.01, modified 2011.05.10)
AUTHORS: Akimoto N, Graduate School of Pharmaceutical Sciences, Kyoto University and Maoka T, Research Institute for Production Development
LICENSE: CC BY-SA
PUBLICATION: Takashi Maoka and Naoshige Akimoto, Carotenoids and their fatty acid esters of spiny lobster Panulirus japonicus, J. Oleo Sci. 57, 145-152 (2008) .
COMMENT: Profile spectrum of this record is given as a JPEG file.
COMMENT: [Profile] CA000014.jpg
CH$NAME: 2,3'-Dihydroxycanthaxanthin
CH$COMPOUND_CLASS: N/A
CH$FORMULA: C40H52O4
CH$EXACT_MASS: 596.38656
CH$SMILES: CC(=C1C=CC(=CC=CC(C)=CC=CC=C(C=CC=C(C)C=CC(=C(C)2)C(C)(C)C(CC(=O)2)O)C)C)C(=O)C(O)CC1(C)C
CH$IUPAC: InChI=1S/C40H52O4/c1-27(17-13-19-29(3)21-23-33-32(6)38(44)36(42)26-39(33,7)8)15-11-12-16-28(2)18-14-20-30(4)22-24-34-31(5)35(41)25-37(43)40(34,9)10/h11-24,36-37,42-43H,25-26H2,1-10H3/b12-11+,17-13+,18-14+,23-21+,24-22+,27-15+,28-16+,29-19+,30-20+
CH$LINK: INCHIKEY RAWKXKPJGBUIEG-QISQUURKSA-N
AC$INSTRUMENT: JMS-HX/HX 110A, JEOL
AC$INSTRUMENT_TYPE: FAB-EBEB
AC$MASS_SPECTROMETRY: MS_TYPE MS2
AC$MASS_SPECTROMETRY: ION_MODE POSITIVE
AC$MASS_SPECTROMETRY: ATOM_GUN_CURRENT 5 mA
AC$MASS_SPECTROMETRY: BOMBARDMENT 6 kV xenon
AC$MASS_SPECTROMETRY: COLLISION_ENERGY 3 kV
AC$MASS_SPECTROMETRY: COLLISION_GAS Ar
AC$MASS_SPECTROMETRY: GAS_PRESSURE adjust to attenuate the intensity of the precursor ion by 30 %
AC$MASS_SPECTROMETRY: IONIZATION FAB
AC$MASS_SPECTROMETRY: MATRIX 1-2 uL m-NBA
AC$MASS_SPECTROMETRY: PROBE_TIP stainless-steel
MS$FOCUSED_ION: BASE_PEAK 118.9416
MS$FOCUSED_ION: PRECURSOR_M/Z 596.39
MS$FOCUSED_ION: PRECURSOR_TYPE [M]+*
MS$DATA_PROCESSING: RELATIVE_M/Z normalised by peak(m/z=118.9416).  set 999 for peak(m/z=596.9808,rel=1420).  set 999 for peak(m/z=596.3477,rel=4654).
PK$SPLASH: splash10-0002-3931140000-bc4c26f0ba40341468da
PK$NUM_PEAK: 1834
PK$PEAK: m/z int. rel.int.
  9.8304 0.05 2
  10.4086 0.01 0
  12.9618 0.02 1
  13.9793 0.06 3
  14.9809 0.09 4
  18.9688 0.06 3
  19.7655 0.01 0
  22.9302 8.54 398
  23.1742 0.01 0
  24.9567 0.03 1
  25.9568 0.59 27
  26.8063 0.10 5
  26.9597 2.18 101
  27.9638 0.30 14
  28.9656 1.66 77
  29.9327 0.07 3
  30.9495 0.41 19
  31.0968 0.02 1
  35.9012 0.09 4
  36.9427 0.38 18
  37.9408 0.66 31
  38.9448 5.51 257
  39.1097 0.10 5
  39.5377 0.01 0
  39.9521 0.54 25
  40.9645 9.65 449
  41.2933 0.09 4
  41.9694 0.43 20
  42.9516 12.06 561
  43.9485 0.26 12
  44.9558 1.02 47
  45.9374 0.01 0
  47.9068 0.03 1
  47.9644 0.01 0
  48.8608 0.02 1
  48.9647 0.18 8
  49.0901 0.03 1
  49.9376 1.29 60
  50.2931 0.03 1
  50.7461 0.04 2
  50.9410 3.21 149
  51.9392 1.11 52
  52.9394 6.72 313
  53.9527 0.22 10
  54.9591 7.92 369
  55.9464 0.28 13
  56.9588 2.65 123
  57.9539 0.12 6
  58.9643 1.11 52
  59.9358 0.09 4
  60.6792 0.09 4
  60.7887 0.08 4
  60.9160 0.24 11
  61.7437 0.06 3
  61.9451 1.10 51
  62.9379 2.72 127
  63.1431 0.06 3
  63.4255 0.12 6
  63.9400 0.65 30
  64.5667 0.08 4
  64.7197 0.10 5
  64.9417 4.15 193
  65.9397 1.03 48
  66.9381 7.05 328
  67.6461 0.03 1
  67.7719 0.13 6
  67.9382 0.74 34
  68.9553 6.03 281
  69.9308 0.29 13
  70.9340 3.53 164
  71.9611 0.19 9
  72.9336 0.40 19
  73.5718 0.09 4
  73.6839 0.09 4
  73.9210 0.67 31
  74.9392 0.58 27
  75.1310 0.09 4
  75.2506 0.20 9
  75.4613 0.06 3
  75.9185 0.94 44
  76.0773 0.11 5
  76.1873 0.07 3
  76.3904 0.03 1
  76.5607 0.08 4
  76.9350 11.83 551
  77.2201 0.05 2
  77.5284 0.07 3
  77.7324 0.12 6
  77.9341 2.15 100
  78.3065 0.12 6
  78.5560 0.01 0
  78.9440 10.00 466
  79.2955 0.10 5
  79.9319 2.06 96
  80.4740 0.02 1
  80.7239 0.05 2
  80.9537 9.16 426
  81.1884 0.05 2
  81.3880 0.04 2
  81.9246 1.23 57
  82.9342 1.88 88
  83.1300 0.04 2
  83.9027 0.66 31
  84.9359 2.21 103
  85.7348 0.02 1
  85.9060 0.38 18
  86.2245 0.08 4
  86.9283 0.58 27
  87.7945 0.07 3
  87.9393 0.30 14
  88.0914 0.09 4
  88.4634 0.06 3
  88.6175 0.06 3
  88.9248 1.58 74
  89.3763 0.15 7
  89.7318 0.08 4
  89.9383 0.77 36
  90.1261 0.15 7
  90.3292 0.07 3
  90.4191 0.07 3
  90.5275 0.20 9
  90.6291 0.06 3
  90.9329 20.83 970
  91.2351 0.10 5
  91.4504 0.02 1
  91.9372 2.25 105
  92.2598 0.09 4
  92.5759 0.12 6
  92.9482 10.18 474
  93.1539 0.06 3
  93.3246 0.10 5
  93.9424 0.98 46
  94.9530 4.21 196
  95.3334 0.02 1
  95.5500 0.03 1
  95.9222 0.76 35
  96.1986 0.04 2
  96.9313 1.71 80
  97.9252 1.64 76
  98.1050 0.07 3
  98.8089 0.22 10
  98.9486 0.40 19
  99.9016 0.09 4
  100.5937 0.08 4
  100.9222 0.56 26
  101.0700 0.12 6
  101.2353 0.12 6
  101.9343 1.08 50
  102.3547 0.17 8
  102.4778 0.06 3
  102.5782 0.08 4
  102.9477 4.38 204
  103.1960 0.05 2
  103.3469 0.03 1
  103.9555 2.12 99
  104.3063 0.16 7
  104.4582 0.09 4
  104.6038 0.08 4
  104.9545 20.37 948
  105.5459 0.14 7
  105.9541 1.67 78
  106.4416 0.13 6
  106.6358 0.03 1
  106.9663 9.58 446
  107.9709 0.66 31
  108.5645 0.09 4
  108.6519 0.09 4
  108.7285 0.09 4
  108.9724 4.01 187
  109.3489 0.15 7
  109.5067 0.09 4
  109.9267 0.51 24
  110.4150 0.04 2
  110.9424 1.42 66
  111.2044 0.10 5
  111.9146 1.16 54
  112.5389 0.01 0
  112.9119 0.85 40
  113.1645 0.05 2
  113.4109 0.13 6
  113.4875 0.12 6
  113.5775 0.06 3
  113.9045 0.63 29
  114.1102 0.08 4
  114.4445 0.33 15
  114.9223 12.11 564
  115.3269 0.11 5
  115.4453 0.05 2
  115.9258 4.23 197
  116.1758 0.18 8
  116.5144 0.15 7
  116.9385 11.46 533
  117.6347 0.09 4
  117.9348 2.13 99
  118.1206 0.07 3
  118.2518 0.03 1
  118.5381 0.03 1
  118.9416 21.46 999
  119.3660 0.15 7
  119.6708 0.03 1
  119.9416 2.18 101
  120.2408 0.11 5
  120.5563 0.02 1
  120.9352 6.21 289
  121.2368 0.08 4
  121.3499 0.07 3
  121.9290 0.57 27
  122.1716 0.02 1
  122.3883 0.04 2
  122.5371 0.06 3
  122.9469 2.25 105
  123.9040 1.32 61
  124.1180 0.07 3
  124.6649 0.11 5
  124.9402 1.83 85
  125.2221 0.17 8
  125.3000 0.11 5
  125.4742 0.03 1
  125.8953 1.38 64
  126.1555 0.04 2
  126.3083 0.06 3
  126.4853 0.18 8
  126.9116 4.18 195
  127.2860 0.19 9
  127.3792 0.12 6
  127.4639 0.03 1
  127.9057 12.21 568
  128.4079 0.17 8
  128.5122 0.11 5
  128.9103 14.96 696
  129.2048 0.07 3
  129.2897 0.07 3
  129.4209 0.14 7
  129.5771 0.10 5
  129.9110 5.38 250
  130.1894 0.09 4
  130.2921 0.05 2
  130.4510 0.15 7
  130.5589 0.10 5
  130.9168 11.79 549
  131.2290 0.19 9
  131.3311 0.15 7
  131.4837 0.05 2
  131.9134 3.41 159
  132.2476 0.06 3
  132.4935 0.07 3
  132.9172 11.40 531
  133.1685 0.10 5
  133.4257 0.12 6
  133.5997 0.10 5
  133.9189 2.81 131
  134.2631 0.07 3
  134.3728 0.13 6
  134.5956 0.08 4
  134.9283 9.85 459
  135.3453 0.09 4
  135.8758 1.55 72
  136.3736 0.03 1
  136.9168 2.36 110
  137.4185 0.05 2
  137.5374 0.06 3
  137.8934 0.68 32
  138.0448 0.11 5
  138.8837 2.86 133
  139.1199 0.10 5
  139.3422 0.13 6
  139.5255 0.12 6
  139.8956 1.63 76
  140.1777 0.38 18
  140.3029 0.30 14
  140.8954 10.23 476
  141.1321 0.25 12
  141.2952 0.10 5
  141.3655 0.07 3
  141.5134 0.10 5
  141.8929 9.18 427
  142.3018 0.11 5
  142.4997 0.10 5
  142.9062 14.64 682
  143.1872 0.08 4
  143.3786 0.13 6
  143.9165 4.87 227
  144.4088 0.14 7
  144.9153 13.95 649
  145.2455 0.13 6
  145.5093 0.03 1
  145.8997 2.17 101
  146.1183 0.15 7
  146.4710 0.06 3
  146.9325 9.01 419
  147.2581 0.15 7
  147.4510 0.07 3
  147.5658 0.05 2
  147.9123 0.71 33
  148.1594 0.06 3
  148.2569 0.07 3
  148.4427 0.12 6
  148.6291 0.12 6
  148.9278 2.71 126
  149.5028 0.11 5
  149.6667 0.21 10
  149.9015 1.01 47
  150.1631 0.11 5
  150.4282 0.26 12
  150.6083 0.11 5
  150.9203 2.13 99
  151.2546 0.05 2
  151.4797 0.12 6
  151.8986 4.63 216
  152.4531 0.27 13
  152.9153 6.66 310
  153.2502 0.13 6
  153.5556 0.03 1
  153.9182 3.72 173
  154.2030 0.04 2
  154.4381 0.27 13
  154.9308 10.80 503
  155.4519 0.22 10
  155.9281 6.50 303
  156.2713 0.22 10
  156.4369 0.10 5
  156.9466 13.14 612
  157.3447 0.12 6
  157.5427 0.23 11
  157.9444 3.15 147
  158.2316 0.07 3
  158.3522 0.09 4
  158.9437 8.90 414
  159.4417 0.09 4
  159.9493 1.64 76
  160.2026 0.12 6
  160.3430 0.18 8
  160.4741 0.12 6
  160.5741 0.10 5
  160.9646 5.33 248
  161.2998 0.25 12
  161.3688 0.13 6
  161.5452 0.03 1
  161.6751 0.23 11
  161.9557 1.03 48
  162.0781 0.40 19
  162.2493 0.10 5
  162.4421 0.21 10
  162.5483 0.10 5
  162.9564 2.76 128
  163.2536 0.15 7
  163.4568 0.07 3
  163.9668 0.85 40
  164.2480 0.22 10
  164.4052 0.47 22
  164.5069 0.31 14
  164.9495 10.45 486
  165.2377 0.06 3
  165.4181 0.15 7
  165.5436 0.25 12
  165.9568 4.28 199
  166.2065 0.09 4
  166.3035 0.06 3
  166.9635 8.74 407
  167.4348 0.09 4
  167.6013 0.04 2
  167.9628 2.95 137
  168.3271 0.21 10
  168.4359 0.06 3
  168.6439 0.12 6
  168.9785 9.36 436
  169.2724 0.03 1
  169.5105 0.17 8
  169.6310 0.06 3
  169.9917 4.64 216
  170.3112 0.04 2
  170.4516 0.13 6
  170.5948 0.22 10
  170.9898 7.04 328
  171.5147 0.18 8
  171.6179 0.10 5
  171.9888 2.38 111
  172.3917 0.14 7
  172.5215 0.14 7
  172.9898 5.62 262
  173.3365 0.28 13
  173.4576 0.21 10
  173.5718 0.09 4
  173.9671 1.62 75
  174.2222 0.05 2
  174.3760 0.03 1
  174.5223 0.11 5
  174.9831 2.90 135
  175.2242 0.19 9
  175.3985 0.04 2
  175.9482 1.39 65
  176.1819 0.21 10
  176.5383 0.05 2
  176.9725 1.97 92
  177.1887 0.35 16
  177.3005 0.20 9
  177.4035 0.10 5
  177.9532 5.19 242
  178.3954 0.06 3
  178.9510 7.08 330
  179.2071 0.20 9
  179.4024 0.12 6
  179.9536 3.42 159
  180.3458 0.12 6
  180.5221 0.14 7
  180.9657 7.70 358
  181.3370 0.12 6
  181.4683 0.12 6
  181.5791 0.10 5
  181.9587 3.71 173
  182.2269 0.11 5
  182.4349 0.12 6
  182.9674 8.40 391
  183.3610 0.18 8
  183.6158 0.13 6
  183.9685 2.86 133
  184.2288 0.02 1
  184.3830 0.11 5
  184.5241 0.11 5
  184.6379 0.13 6
  184.9703 4.43 206
  185.3391 0.07 3
  185.4543 0.11 5
  185.6181 0.07 3
  185.9343 1.59 74
  186.2148 0.18 8
  186.3987 0.19 9
  186.9723 3.55 165
  187.3224 0.21 10
  187.4020 0.11 5
  187.5963 0.10 5
  187.9369 0.98 46
  188.2611 0.12 6
  188.4706 0.30 14
  188.9556 4.71 219
  189.4243 0.17 8
  189.5879 0.09 4
  189.9647 1.31 61
  190.2920 0.27 13
  190.9331 4.03 188
  191.2785 0.09 4
  191.3734 0.07 3
  191.5269 0.20 9
  191.9461 3.16 147
  192.5520 0.08 4
  192.9418 6.52 304
  193.3461 0.05 2
  193.4839 0.12 6
  193.9601 3.57 166
  194.2365 0.28 13
  194.4095 0.06 3
  194.9508 8.77 408
  195.1963 0.26 12
  195.5088 0.23 11
  195.9614 2.85 133
  196.4258 0.20 9
  196.9656 6.43 299
  197.3288 0.06 3
  197.4621 0.09 4
  197.5815 0.13 6
  197.6920 0.17 8
  197.9856 2.24 104
  198.3034 0.10 5
  198.6738 0.10 5
  198.9744 3.49 162
  199.2716 0.12 6
  199.5765 0.29 13
  199.9582 1.32 61
  200.5378 0.04 2
  200.9564 2.44 114
  201.2616 0.09 4
  201.4754 0.10 5
  201.9385 2.74 128
  202.3615 0.22 10
  202.4751 0.12 6
  202.9627 3.28 153
  203.4621 0.10 5
  203.9139 1.72 80
  204.2653 0.24 11
  204.4546 0.15 7
  204.9593 3.19 148
  205.2228 0.06 3
  205.3615 0.06 3
  205.9559 2.52 117
  206.2897 0.11 5
  206.5596 0.16 7
  206.9719 5.07 236
  207.3280 0.20 9
  207.5071 0.10 5
  207.9814 2.96 138
  208.3391 0.12 6
  208.9789 5.53 257
  209.4778 0.13 6
  209.9887 2.08 97
  210.9601 3.99 186
  211.2828 0.10 5
  211.4004 0.13 6
  211.5576 0.18 8
  211.9994 1.25 58
  212.3293 0.15 7
  212.5408 0.15 7
  212.9870 3.12 145
  213.3985 0.13 6
  213.6221 0.22 10
  213.8456 0.72 34
  213.9800 0.91 42
  214.0650 0.48 22
  214.2552 0.15 7
  214.5108 0.15 7
  214.9700 3.78 176
  215.2599 0.05 2
  215.4300 0.12 6
  215.7464 0.36 17
  215.9981 1.77 82
  216.2498 0.19 9
  216.3941 0.09 4
  216.5894 0.18 8
  216.9716 3.54 165
  217.4648 0.05 2
  217.9741 1.48 69
  218.3481 0.03 1
  218.4570 0.06 3
  218.5610 0.07 3
  218.9973 3.57 166
  219.3373 0.21 10
  219.4847 0.12 6
  219.5496 0.06 3
  219.9840 1.53 71
  220.9984 3.47 162
  221.4128 0.22 10
  221.5582 0.09 4
  221.7112 0.17 8
  222.0034 1.38 64
  222.3313 0.03 1
  222.5669 0.23 11
  223.0110 3.65 170
  223.3691 0.25 12
  223.5720 0.13 6
  223.9855 1.12 52
  224.2625 0.03 1
  224.4207 0.14 7
  225.0009 1.98 92
  225.5260 0.17 8
  225.7591 0.54 25
  226.0371 1.48 69
  226.3264 0.02 1
  226.5365 0.06 3
  227.0093 1.41 66
  227.3975 0.09 4
  227.7450 0.15 7
  228.0015 1.20 56
  228.2938 0.04 2
  228.5041 0.04 2
  228.6850 0.21 10
  229.0089 2.43 113
  229.7109 0.17 8
  230.0370 1.21 56
  230.4053 0.06 3
  231.0158 4.20 196
  231.5969 0.12 6
  232.0230 1.52 71
  232.4918 0.02 1
  233.0374 2.55 119
  233.4865 0.11 5
  233.6266 0.14 7
  234.0316 1.51 70
  234.5145 0.27 13
  235.0360 3.14 146
  235.5093 0.10 5
  235.9868 0.94 44
  236.4413 0.06 3
  236.6216 0.10 5
  237.0278 2.24 104
  237.5421 0.09 4
  237.7309 0.19 9
  238.1064 0.72 34
  238.4096 0.09 4
  238.5465 0.11 5
  239.0260 2.36 110
  239.2387 0.29 13
  239.5049 0.19 9
  239.7465 0.13 6
  240.0218 1.06 49
  240.1932 0.31 14
  240.3814 0.24 11
  240.6217 0.09 4
  240.9969 1.63 76
  241.6307 0.03 1
  242.0004 0.88 41
  242.2099 0.15 7
  242.3069 0.09 4
  243.0248 2.95 137
  243.6865 0.09 4
  244.0185 1.47 68
  244.2077 0.29 13
  244.3527 0.16 7
  244.5546 0.28 13
  245.0091 2.05 95
  245.2202 0.37 17
  245.5855 0.09 4
  245.7854 0.20 9
  246.0564 1.20 56
  246.5499 0.11 5
  247.0378 2.86 133
  247.2540 0.24 11
  247.4371 0.11 5
  247.5399 0.02 1
  248.0104 0.90 42
  248.2471 0.16 7
  248.7347 0.14 7
  249.0687 1.82 85
  249.3167 0.15 7
  249.5606 0.12 6
  249.8883 0.50 23
  250.0815 0.56 26
  250.2549 0.09 4
  250.5785 0.16 7
  251.0431 1.15 54
  251.7434 0.26 12
  252.0270 0.69 32
  252.3980 0.16 7
  253.0175 1.68 78
  253.5665 0.05 2
  253.7034 0.16 7
  254.0436 0.72 34
  254.2977 0.11 5
  254.3867 0.04 2
  254.5957 0.10 5
  255.0419 1.86 87
  255.5206 0.10 5
  256.0475 1.31 61
  256.2856 0.31 14
  257.0309 1.96 91
  257.5453 0.25 12
  257.7672 0.30 14
  258.0435 0.80 37
  258.2739 0.11 5
  258.3877 0.16 7
  259.0053 1.88 88
  259.2789 0.16 7
  259.4648 0.01 0
  259.6676 0.10 5
  260.0310 0.81 38
  260.2064 0.32 15
  260.4595 0.04 2
  261.0513 1.57 73
  261.2104 0.66 31
  262.0168 0.55 26
  262.3330 0.05 2
  262.4130 0.03 1
  262.5375 0.13 6
  263.0399 1.05 49
  263.3322 0.15 7
  263.4794 0.04 2
  263.7044 0.23 11
  263.8396 0.25 12
  263.9748 0.60 28
  264.0966 0.82 38
  264.4024 0.19 9
  264.6176 0.07 3
  264.7486 0.26 12
  265.0035 1.14 53
  265.1982 0.22 10
  265.3526 0.07 3
  265.4581 0.03 1
  265.6620 0.13 6
  265.8462 0.12 6
  266.0870 0.40 19
  266.2081 0.12 6
  266.5254 0.09 4
  266.6395 0.12 6
  266.8053 0.16 7
  267.0908 0.93 43
  267.4613 0.04 2
  267.6052 0.10 5
  267.7433 0.05 2
  268.0226 0.38 18
  268.2274 0.20 9
  268.5627 0.07 3
  268.7356 0.15 7
  269.0532 2.00 93
  269.3793 0.12 6
  269.4807 0.12 6
  269.5863 0.13 6
  269.7685 0.21 10
  270.0075 0.51 24
  270.4004 0.07 3
  270.6422 0.06 3
  271.0366 1.39 65
  271.4402 0.02 1
  271.6849 0.11 5
  272.0588 0.89 41
  272.4207 0.09 4
  272.6627 0.20 9
  273.0658 1.21 56
  273.4796 0.19 9
  274.0375 0.60 28
  274.2590 0.12 6
  274.5374 0.17 8
  275.0486 1.14 53
  275.3043 0.18 8
  275.5464 0.05 2
  275.6729 0.06 3
  275.9562 0.58 27
  276.1260 0.47 22
  276.5231 0.27 13
  276.7312 0.06 3
  277.0708 1.17 54
  277.2771 0.13 6
  277.4111 0.15 7
  277.8833 0.26 12
  278.0407 0.81 38
  278.1287 0.38 18
  278.3535 0.03 1
  279.0549 0.70 33
  279.5643 0.13 6
  279.7296 0.10 5
  280.0403 0.44 20
  280.2425 0.16 7
  280.4852 0.11 5
  281.0501 0.73 34
  281.4752 0.04 2
  281.6221 0.11 5
  281.7101 0.12 6
  282.0289 0.37 17
  282.2468 0.08 4
  282.5578 0.06 3
  283.0385 0.86 40
  283.2032 0.47 22
  283.4965 0.07 3
  283.8217 0.15 7
  284.0916 0.57 27
  284.6158 0.03 1
  285.0499 1.59 74
  285.3945 0.04 2
  285.4875 0.05 2
  285.8265 0.21 10
  286.1235 0.96 45
  286.6345 0.05 2
  287.0389 0.96 45
  287.5792 0.13 6
  287.9531 0.58 27
  288.0854 0.63 29
  288.1856 0.27 13
  288.3413 0.17 8
  288.5169 0.07 3
  289.0965 1.07 50
  289.1961 0.52 24
  289.4976 0.11 5
  289.6185 0.12 6
  289.7828 0.21 10
  289.9856 0.37 17
  290.1833 0.16 7
  290.8236 0.14 7
  291.0811 0.78 36
  291.4184 0.16 7
  292.0461 0.38 18
  292.4105 0.07 3
  293.0860 0.87 40
  293.4956 0.03 1
  293.8518 0.06 3
  294.0580 0.34 16
  294.1739 0.09 4
  294.3709 0.07 3
  295.0444 0.81 38
  295.1703 0.62 29
  295.6248 0.10 5
  296.1014 0.49 23
  296.2614 0.40 19
  296.4692 0.13 6
  297.0911 1.98 92
  297.6781 0.12 6
  297.8667 0.37 17
  297.9607 0.32 15
  298.1422 0.46 21
  298.4689 0.24 11
  299.0633 1.27 59
  299.4484 0.20 9
  299.6371 0.14 7
  300.0472 0.76 35
  300.2131 0.30 14
  300.5642 0.09 4
  301.0648 1.03 48
  301.4837 0.15 7
  301.6610 0.05 2
  301.7992 0.19 9
  302.0243 0.40 19
  302.2587 0.12 6
  303.0795 1.10 51
  303.2405 0.46 21
  303.4037 0.10 5
  303.6695 0.10 5
  304.0387 0.92 43
  304.2119 0.10 5
  304.3843 0.06 3
  304.4820 0.12 6
  305.0494 0.56 26
  305.6297 0.10 5
  305.9833 0.46 21
  306.1216 0.28 13
  306.8176 0.13 6
  307.0807 0.41 19
  307.3304 0.07 3
  307.6406 0.07 3
  308.0322 0.45 21
  308.1913 0.13 6
  308.3589 0.10 5
  308.7470 0.14 7
  309.0595 1.03 48
  309.2393 0.21 10
  309.8294 0.32 15
  310.0663 0.40 19
  310.3119 0.10 5
  311.0284 1.17 54
  311.2311 0.31 14
  311.8029 0.18 8
  312.1114 0.49 23
  312.4769 0.15 7
  313.0267 1.22 57
  313.5587 0.02 1
  313.7023 0.11 5
  314.0280 0.38 18
  314.2265 0.21 10
  314.7279 0.17 8
  315.0794 0.92 43
  315.5359 0.12 6
  315.8824 0.20 9
  316.0932 0.60 28
  316.3897 0.10 5
  316.7099 0.13 6
  316.8585 0.38 18
  317.0686 0.57 27
  317.3224 0.19 9
  317.5832 0.29 13
  317.7226 0.10 5
  318.0392 0.48 22
  318.2987 0.08 4
  318.7984 0.21 10
  319.0787 0.49 23
  319.4197 0.07 3
  319.6428 0.17 8
  319.8223 0.13 6
  320.0797 0.43 20
  320.3014 0.03 1
  320.4580 0.04 2
  320.9780 0.23 11
  321.2154 0.12 6
  321.5158 0.11 5
  321.9529 0.30 14
  322.0953 0.12 6
  322.2333 0.13 6
  322.7392 0.15 7
  323.0804 0.64 30
  323.4583 0.09 4
  323.8490 0.22 10
  324.1481 0.36 17
  324.3428 0.04 2
  324.8016 0.26 12
  325.0005 0.44 20
  325.2060 0.28 13
  325.3055 0.12 6
  325.8037 0.15 7
  326.0135 0.44 20
  326.2061 0.22 10
  326.3407 0.10 5
  326.6235 0.07 3
  326.7581 0.14 7
  327.0495 0.89 41
  327.3001 0.32 15
  327.5028 0.10 5
  328.0793 0.24 11
  328.2863 0.09 4
  329.0893 1.51 70
  329.6387 0.06 3
  330.0621 0.50 23
  330.2914 0.11 5
  330.6511 0.06 3
  331.0036 0.90 42
  331.1606 0.30 14
  331.5332 0.05 2
  331.7396 0.04 2
  331.9869 0.25 12
  332.1166 0.58 27
  332.5230 0.12 6
  332.7108 0.03 1
  332.8578 0.11 5
  333.0779 0.57 27
  333.2563 0.05 2
  333.6449 0.06 3
  333.9589 0.22 10
  334.0887 0.13 6
  334.2199 0.16 7
  334.3031 0.09 4
  334.6473 0.06 3
  334.9771 0.19 9
  335.0739 0.29 13
  335.1808 0.40 19
  335.3192 0.26 12
  335.9969 0.30 14
  336.2523 0.11 5
  336.5378 0.10 5
  336.6447 0.11 5
  336.9811 0.39 18
  337.1152 0.27 13
  337.5282 0.02 1
  337.7918 0.07 3
  337.9308 0.10 5
  338.1615 0.24 11
  338.6873 0.09 4
  339.0929 0.66 31
  339.3580 0.16 7
  339.7407 0.02 1
  339.9442 0.11 5
  340.1104 0.32 15
  340.4537 0.09 4
  340.6021 0.13 6
  341.1095 0.55 26
  341.2471 0.30 14
  341.5410 0.02 1
  341.6937 0.04 2
  341.8278 0.11 5
  342.0765 0.46 21
  342.3590 0.21 10
  342.5103 0.07 3
  343.1061 0.67 31
  343.7062 0.05 2
  344.1193 0.30 14
  344.7318 0.15 7
  345.0201 0.52 24
  345.2453 0.39 18
  345.6664 0.13 6
  346.0049 0.79 37
  346.2036 0.15 7
  346.3651 0.05 2
  346.6800 0.14 7
  346.9046 0.20 9
  347.1220 0.51 24
  347.8374 0.20 9
  348.0878 0.56 26
  348.3533 0.12 6
  348.6461 0.07 3
  348.8040 0.05 2
  349.0897 0.60 28
  349.6416 0.07 3
  350.0292 0.28 13
  350.2252 0.32 15
  350.4765 0.05 2
  350.7816 0.02 1
  351.0271 0.35 16
  351.2087 0.38 18
  351.4680 0.08 4
  351.7645 0.11 5
  351.9354 0.19 9
  352.1558 0.44 20
  352.3950 0.13 6
  352.8531 0.11 5
  353.0240 0.21 10
  353.2187 0.16 7
  353.9161 0.14 7
  354.0942 0.24 11
  354.1934 0.13 6
  354.7091 0.03 1
  354.9189 0.06 3
  355.0618 0.69 32
  355.1940 0.28 13
  355.7810 0.08 4
  356.0605 0.31 14
  356.3666 0.04 2
  356.6145 0.09 4
  357.1010 0.94 44
  357.5804 0.05 2
  357.7392 0.13 6
  358.1072 0.36 17
  358.2768 0.08 4
  358.5542 0.10 5
  358.7993 0.21 10
  359.1142 1.03 48
  360.0056 0.24 11
  360.1322 0.21 10
  360.2666 0.10 5
  360.3601 0.05 2
  360.5535 0.13 6
  360.7599 0.08 4
  361.0619 0.77 36
  361.1805 0.47 22
  361.2999 0.42 20
  361.6307 0.11 5
  361.7968 0.14 7
  362.0773 0.40 19
  362.2981 0.14 7
  362.8361 0.05 2
  363.1511 0.99 46
  363.3345 0.27 13
  363.4381 0.13 6
  363.5791 0.10 5
  364.0797 0.55 26
  364.2675 0.20 9
  364.3740 0.12 6
  365.0429 0.35 16
  365.1872 0.18 8
  366.0179 0.21 10
  366.1873 0.27 13
  366.6368 0.14 7
  367.0906 0.34 16
  367.7075 0.12 6
  367.9294 0.25 12
  368.1241 0.22 10
  368.2383 0.12 6
  368.4416 0.03 1
  368.6649 0.11 5
  368.9099 0.17 8
  369.1469 0.43 20
  370.0176 0.30 14
  371.1772 0.67 31
  371.7916 0.17 8
  372.0050 0.32 15
  372.2472 0.21 10
  372.4168 0.04 2
  372.7589 0.08 4
  373.0478 0.78 36
  373.2390 0.68 32
  373.5739 0.10 5
  373.6860 0.08 4
  374.1648 0.80 37
  374.2899 0.21 10
  374.7737 0.12 6
  375.1482 0.56 26
  375.4264 0.10 5
  375.6429 0.12 6
  375.9844 0.45 21
  376.1289 0.53 25
  376.2885 0.17 8
  376.7307 0.20 9
  377.1644 2.16 101
  377.3549 0.43 20
  377.6383 0.19 9
  378.1093 0.87 40
  378.6473 0.02 1
  378.8574 0.16 7
  379.0559 0.25 12
  379.3580 0.15 7
  379.4630 0.11 5
  379.9686 0.31 14
  380.0736 0.17 8
  381.0604 0.15 7
  381.1790 0.36 17
  381.3639 0.12 6
  381.6308 0.01 0
  381.7984 0.08 4
  381.9804 0.22 10
  382.1660 0.22 10
  382.3286 0.17 8
  382.8257 0.04 2
  382.9854 0.27 13
  383.2242 0.31 14
  384.0330 0.07 3
  384.2532 0.20 9
  384.5475 0.11 5
  385.1599 0.43 20
  385.3348 0.20 9
  385.5276 0.11 5
  385.6860 0.04 2
  385.9991 0.19 9
  386.2121 0.14 7
  386.3229 0.18 8
  387.1299 0.74 34
  387.8339 0.09 4
  388.1650 0.53 25
  388.7252 0.10 5
  388.8130 0.12 6
  389.1694 0.98 46
  389.4877 0.13 6
  389.6864 0.22 10
  389.8391 0.11 5
  390.0947 0.61 28
  390.3172 0.44 20
  391.1742 0.24 11
  391.9550 0.45 21
  392.1084 0.39 18
  392.4181 0.04 2
  392.7970 0.10 5
  392.9497 0.17 8
  393.1529 0.12 6
  393.3625 0.14 7
  393.6291 0.10 5
  393.7458 0.09 4
  393.8380 0.11 5
  393.9814 0.11 5
  394.1391 0.20 9
  394.9295 0.17 8
  395.1342 0.09 4
  395.2984 0.18 8
  396.0493 0.24 11
  396.1877 0.16 7
  396.7685 0.01 0
  397.0186 0.31 14
  397.2154 0.21 10
  397.3768 0.06 3
  397.4979 0.13 6
  398.0421 0.28 13
  398.1300 0.13 6
  398.3254 0.10 5
  398.4169 0.11 5
  398.9050 0.12 6
  399.1270 0.54 25
  399.4089 0.31 14
  400.1450 0.20 9
  401.1191 0.53 25
  401.3938 0.26 12
  401.9455 0.12 6
  402.1618 0.37 17
  402.3039 0.13 6
  402.7056 0.12 6
  403.1715 0.48 22
  403.6042 0.16 7
  404.1452 0.42 20
  404.3912 0.17 8
  404.5968 0.05 2
  404.8060 0.07 3
  404.9582 0.07 3
  405.1732 0.66 31
  405.5108 0.05 2
  405.6428 0.10 5
  406.1811 0.70 33
  406.5274 0.05 2
  406.9286 0.05 2
  407.1847 0.32 15
  407.9532 0.14 7
  408.1661 0.31 14
  408.2780 0.23 11
  408.8604 0.04 2
  409.0682 0.22 10
  409.3309 0.10 5
  409.5800 0.10 5
  409.8918 0.02 1
  410.1234 0.19 9
  410.2584 0.12 6
  410.4432 0.15 7
  411.1218 0.15 7
  411.3694 0.07 3
  412.0002 0.10 5
  412.1859 0.46 21
  413.0099 0.39 18
  413.2258 0.24 11
  413.3928 0.13 6
  413.4958 0.11 5
  413.9326 0.12 6
  414.2141 0.27 13
  414.4459 0.10 5
  414.7914 0.10 5
  414.9239 0.13 6
  415.2550 0.77 36
  416.1643 0.52 24
  416.3378 0.18 8
  416.5192 0.09 4
  417.1334 0.84 39
  417.5820 0.10 5
  417.9168 0.19 9
  418.0911 0.40 19
  418.3186 0.23 11
  418.4101 0.04 2
  418.6672 0.03 1
  418.8933 0.20 9
  419.1800 0.54 25
  419.3506 0.21 10
  420.1299 0.62 29
  420.9799 0.21 10
  421.1038 0.14 7
  421.2695 0.12 6
  421.3876 0.09 4
  421.9387 0.18 8
  422.2060 0.36 17
  422.4300 0.10 5
  422.9062 0.11 5
  423.0979 0.46 21
  423.3486 0.13 6
  423.9661 0.18 8
  424.0411 0.07 3
  424.2882 0.16 7
  424.5145 0.12 6
  424.7206 0.11 5
  425.0016 0.21 10
  425.1710 0.14 7
  425.4830 0.03 1
  425.6279 0.12 6
  425.9731 0.12 6
  426.2311 0.31 14
  426.6794 0.03 1
  426.8416 0.17 8
  427.1501 0.33 15
  427.3670 0.13 6
  427.9206 0.34 16
  428.1412 0.32 15
  428.5218 0.11 5
  428.6162 0.11 5
  429.1468 0.82 38
  429.3766 0.63 29
  429.7643 0.14 7
  430.0496 0.14 7
  430.2651 0.41 19
  430.8553 0.19 9
  430.9778 0.30 14
  431.1969 0.73 34
  431.2934 0.25 12
  431.5601 0.02 1
  431.8606 0.06 3
  432.2073 0.42 20
  432.7529 0.09 4
  432.9612 0.26 12
  433.1320 0.23 11
  433.2849 0.32 15
  433.3944 0.07 3
  433.6230 0.06 3
  434.1535 0.34 16
  434.2746 0.27 13
  434.9292 0.09 4
  435.1433 0.12 6
  435.6877 0.10 5
  435.9407 0.32 15
  436.0799 0.36 17
  436.1909 0.52 24
  436.6733 0.11 5
  436.8817 0.08 4
  437.1377 0.13 6
  437.2761 0.10 5
  438.0470 0.24 11
  438.3354 0.21 10
  438.9305 0.25 12
  439.1353 0.11 5
  439.4396 0.05 2
  439.5514 0.10 5
  439.7007 0.20 9
  440.0354 0.19 9
  440.2424 0.14 7
  440.3932 0.19 9
  440.6262 0.11 5
  440.7286 0.09 4
  441.1376 0.33 15
  441.4348 0.13 6
  441.6057 0.09 4
  442.1656 0.69 32
  442.4967 0.06 3
  442.6049 0.08 4
  442.9043 0.47 22
  443.1944 1.01 47
  443.4144 0.35 16
  443.6843 0.10 5
  443.8510 0.06 3
  443.9628 0.05 2
  444.0999 0.20 9
  444.3467 0.24 11
  445.1274 0.97 45
  445.2999 0.56 26
  446.1768 0.58 27
  446.4871 0.11 5
  446.6321 0.12 6
  446.7368 0.11 5
  447.0926 0.30 14
  447.3257 0.21 10
  447.4622 0.07 3
  447.8310 0.12 6
  448.0396 0.65 30
  448.1768 0.39 18
  448.2655 0.19 9
  448.5074 0.08 4
  448.7643 0.05 2
  448.8856 0.05 2
  449.0798 0.17 8
  449.2855 0.21 10
  449.4010 0.18 8
  449.5837 0.13 6
  449.7165 0.04 2
  449.8681 0.25 12
  450.0175 0.30 14
  450.1865 0.42 20
  450.5583 0.11 5
  450.8882 0.17 8
  451.1150 0.16 7
  451.3359 0.10 5
  451.6334 0.13 6
  451.8023 0.02 1
  452.0161 0.25 12
  452.2811 0.22 10
  452.8429 0.10 5
  453.2473 0.17 8
  453.3701 0.13 6
  453.6683 0.04 2
  453.9947 0.41 19
  454.1392 0.13 6
  454.3443 0.14 7
  454.9459 0.08 4
  455.1294 0.05 2
  455.6718 0.05 2
  455.7729 0.05 2
  456.0221 0.16 7
  456.2229 0.30 14
  456.4685 0.17 8
  456.7416 0.09 4
  456.8839 0.27 13
  456.9438 0.14 7
  457.1649 0.48 22
  457.3535 0.21 10
  457.5427 0.26 12
  457.7522 0.13 6
  458.0918 0.40 19
  458.4003 0.20 9
  458.5187 0.03 1
  458.7788 0.07 3
  459.1950 1.09 51
  459.8121 0.13 6
  459.9327 0.07 3
  460.0303 0.08 4
  460.2658 0.42 20
  460.6148 0.10 5
  460.8858 0.12 6
  461.1951 0.46 21
  461.3476 0.29 13
  462.0681 0.82 38
  462.2517 0.80 37
  462.5429 0.26 12
  462.8096 0.10 5
  463.1652 0.37 17
  463.4059 0.21 10
  463.5324 0.12 6
  463.7492 0.07 3
  463.8808 0.10 5
  464.2075 0.54 25
  464.4597 0.13 6
  464.6584 0.11 5
  464.9117 0.10 5
  465.0271 0.18 8
  465.1238 0.15 7
  465.2969 0.29 13
  465.4708 0.11 5
  465.7118 0.16 7
  465.9370 0.18 8
  466.0813 0.24 11
  466.2992 0.11 5
  466.4810 0.09 4
  466.6528 0.22 10
  467.0424 0.17 8
  467.2950 0.27 13
  467.6588 0.17 8
  468.1315 0.26 12
  468.6042 0.25 12
  468.9831 0.39 18
  469.1296 0.20 9
  469.3512 0.34 16
  469.5179 0.30 14
  469.8752 0.20 9
  469.9914 0.16 7
  470.1589 0.16 7
  470.2679 0.11 5
  470.5841 0.14 7
  470.7227 0.11 5
  471.0901 0.03 1
  471.2879 0.26 12
  471.5586 0.13 6
  471.6597 0.12 6
  471.7492 0.06 3
  471.9383 0.17 8
  472.1845 0.35 16
  472.2755 0.21 10
  472.5455 0.02 1
  472.8090 0.13 6
  473.1389 0.65 30
  473.3541 0.32 15
  473.5021 0.20 9
  473.6833 0.23 11
  473.9295 0.08 4
  474.1454 0.29 13
  474.2610 0.22 10
  474.7838 0.28 13
  475.2740 0.70 33
  475.5022 0.44 20
  475.7449 0.11 5
  476.0193 0.20 9
  476.2980 0.36 17
  476.3854 0.16 7
  477.0174 0.11 5
  477.1632 0.12 6
  477.3163 0.30 14
  477.6580 0.06 3
  477.9440 0.24 11
  478.2134 0.85 40
  478.4568 0.44 20
  478.6952 0.07 3
  478.8382 0.23 11
  479.0289 0.11 5
  479.2867 0.20 9
  479.6840 0.03 1
  479.9939 0.29 13
  480.2085 0.83 39
  480.3934 0.42 20
  480.6564 0.12 6
  480.7972 0.05 2
  481.1584 0.37 17
  481.3954 0.26 12
  481.7169 0.21 10
  481.8629 0.10 5
  482.2133 0.72 34
  482.5890 0.12 6
  482.7299 0.12 6
  482.9112 0.09 4
  483.0702 0.34 16
  483.2183 0.23 11
  483.4669 0.27 13
  483.7515 0.10 5
  483.9748 0.10 5
  484.1663 0.17 8
  484.3376 0.15 7
  484.6086 0.14 7
  484.8008 0.19 9
  484.9612 0.17 8
  485.1028 0.21 10
  485.2922 0.30 14
  485.6109 0.15 7
  485.8038 0.08 4
  485.8992 0.05 2
  486.0691 0.12 6
  486.1970 0.26 12
  486.4817 0.09 4
  486.6292 0.24 11
  486.7903 0.12 6
  487.1430 0.08 4
  487.3787 0.29 13
  487.4806 0.08 4
  487.9872 0.23 11
  488.1672 0.20 9
  488.3248 0.14 7
  488.6660 0.11 5
  488.8684 0.07 3
  489.1944 0.42 20
  489.5385 0.28 13
  489.6896 0.03 1
  489.8211 0.14 7
  489.9411 0.22 10
  490.2729 0.75 35
  490.4587 0.18 8
  491.1853 0.57 27
  491.4022 0.27 13
  491.5844 0.07 3
  491.7485 0.14 7
  491.9365 0.16 7
  492.1310 0.29 13
  492.2828 0.23 11
  492.3783 0.19 9
  492.8596 0.09 4
  493.0388 0.06 3
  493.2519 0.26 12
  494.0761 0.32 15
  494.2336 0.25 12
  494.4713 0.21 10
  494.9286 0.11 5
  495.0955 0.35 16
  495.3318 0.23 11
  495.7530 0.07 3
  496.0420 0.33 15
  496.2638 0.27 13
  496.3765 0.23 11
  496.4719 0.11 5
  496.6438 0.13 6
  497.0998 0.12 6
  497.2219 0.12 6
  497.5716 0.12 6
  497.9539 0.16 7
  498.1555 0.33 15
  498.3680 0.12 6
  498.5645 0.11 5
  498.9612 0.23 11
  499.1101 0.41 19
  499.1867 0.17 8
  499.3471 0.29 13
  499.6731 0.06 3
  499.8660 0.09 4
  500.1566 0.12 6
  500.5179 0.11 5
  501.0376 0.20 9
  501.2913 0.18 8
  501.8182 0.19 9
  501.9917 0.10 5
  502.3119 0.33 15
  502.3842 0.14 7
  502.5685 0.06 3
  502.8706 0.12 6
  503.1193 0.47 22
  503.3159 0.16 7
  503.4338 0.19 9
  503.5820 0.27 13
  503.6694 0.21 10
  503.7844 0.21 10
  504.2933 4.96 231
  504.6938 0.18 8
  504.8261 0.19 9
  504.9635 0.23 11
  505.1992 0.34 16
  505.3322 0.56 26
  505.4370 0.27 13
  505.7378 0.04 2
  505.9185 0.21 10
  506.2309 0.83 39
  506.5685 0.07 3
  506.7558 0.06 3
  506.9973 0.12 6
  507.1889 0.28 13
  507.3429 0.12 6
  507.6509 0.14 7
  507.9069 0.11 5
  508.2446 0.51 24
  508.4847 0.39 18
  508.7624 0.10 5
  509.2585 0.26 12
  509.4638 0.11 5
  509.9194 0.11 5
  510.0366 0.16 7
  510.1841 0.19 9
  510.3230 0.26 12
  510.4915 0.30 14
  510.7772 0.20 9
  511.1309 0.16 7
  511.3514 0.19 9
  511.7912 0.12 6
  512.2143 0.46 21
  512.5781 0.10 5
  512.6534 0.04 2
  512.9709 0.13 6
  513.2263 0.31 14
  514.0545 0.12 6
  514.2535 0.25 12
  514.4437 0.15 7
  515.0615 0.12 6
  515.1708 0.27 13
  515.7076 0.11 5
  515.8950 0.05 2
  516.1359 0.13 6
  516.3630 0.25 12
  516.7429 0.05 2
  517.2877 0.31 14
  517.4512 0.17 8
  517.9498 0.14 7
  518.0793 0.20 9
  518.2276 0.19 9
  518.3398 0.18 8
  518.5048 0.22 10
  518.6661 0.20 9
  518.9975 0.22 10
  519.0814 0.12 6
  519.3079 0.22 10
  519.4201 0.11 5
  519.8259 0.08 4
  520.0876 0.45 21
  520.3517 0.72 34
  520.5609 0.24 11
  520.8854 0.12 6
  521.0737 0.23 11
  521.4235 0.24 11
  521.7460 0.08 4
  522.2769 0.71 33
  522.7206 0.11 5
  522.8281 0.10 5
  523.2877 0.54 25
  523.4615 0.35 16
  523.7162 0.13 6
  524.1931 0.97 45
  524.5437 0.14 7
  524.6772 0.13 6
  524.8179 0.10 5
  525.0120 0.29 13
  525.1945 0.38 18
  525.3532 0.15 7
  525.4708 0.14 7
  525.5841 0.13 6
  525.8467 0.12 6
  525.9673 0.02 1
  526.1534 0.19 9
  526.2551 0.16 7
  526.5366 0.08 4
  527.0179 0.05 2
  527.2582 0.11 5
  527.4436 0.08 4
  527.5952 0.06 3
  527.7207 0.04 2
  528.0079 0.11 5
  528.2634 0.13 6
  528.5470 0.18 8
  528.7642 0.12 6
  529.0847 0.09 4
  529.2586 0.04 2
  529.5668 0.08 4
  529.7363 0.09 4
  529.9673 0.14 7
  530.0893 0.11 5
  530.2105 0.13 6
  530.5187 0.16 7
  530.8724 0.08 4
  531.1633 0.14 7
  531.3560 0.10 5
  531.5566 0.13 6
  531.7097 0.11 5
  531.8944 0.06 3
  532.0561 0.11 5
  532.2330 0.04 2
  532.3968 0.12 6
  532.7859 0.11 5
  533.1064 0.39 18
  533.5648 0.12 6
  534.2022 0.75 35
  534.4368 0.38 18
  535.0635 0.42 20
  535.2418 0.33 15
  535.5046 0.11 5
  535.6706 0.13 6
  535.8323 0.19 9
  536.1464 0.62 29
  536.3716 0.89 41
  536.5615 0.26 12
  536.7117 0.11 5
  536.8287 0.17 8
  537.0554 0.13 6
  537.1876 0.34 16
  537.3334 0.31 14
  537.6035 0.14 7
  537.8352 0.14 7
  538.1739 1.12 52
  538.3226 0.82 38
  538.4396 0.40 19
  538.6909 0.32 15
  538.8021 0.14 7
  538.9711 0.11 5
  539.1732 0.18 8
  539.3068 0.10 5
  539.4968 0.11 5
  539.6874 0.24 11
  540.2471 0.68 32
  540.4745 0.24 11
  540.6515 0.17 8
  541.0126 0.11 5
  541.1909 0.13 6
  541.2855 0.10 5
  541.4127 0.09 4
  541.5578 0.13 6
  541.6401 0.09 4
  542.0396 0.11 5
  542.2403 0.17 8
  542.3610 0.12 6
  542.4606 0.13 6
  542.5928 0.26 12
  542.9489 0.12 6
  543.0991 0.11 5
  543.2948 0.11 5
  543.4479 0.10 5
  543.6523 0.28 13
  543.9138 0.21 10
  544.6882 0.06 3
  544.7914 0.05 2
  544.9200 0.07 3
  545.1078 0.02 1
  545.3101 0.10 5
  545.4221 0.09 4
  545.5947 0.15 7
  545.7724 0.11 5
  545.9957 0.11 5
  546.2579 0.13 6
  546.7180 0.20 9
  546.9355 0.14 7
  547.0626 0.08 4
  547.1912 0.16 7
  547.4571 0.20 9
  547.7158 0.21 10
  547.9216 0.35 16
  548.1370 0.43 20
  548.2424 0.33 15
  548.3327 0.20 9
  548.5936 0.33 15
  548.8926 0.27 13
  549.1181 0.35 16
  549.3305 0.46 21
  549.4800 0.27 13
  550.1838 0.94 44
  550.4136 1.10 51
  550.8320 0.11 5
  551.2843 0.61 28
  551.6008 0.18 8
  552.2483 0.88 41
  552.6898 0.31 14
  552.8394 0.16 7
  553.0374 0.13 6
  553.4132 0.22 10
  553.6149 0.18 8
  553.8396 0.20 9
  554.0268 0.27 13
  554.3665 0.35 16
  554.6223 0.36 17
  554.8558 0.23 11
  555.0617 0.11 5
  555.1752 0.12 6
  555.3386 0.32 15
  555.4852 0.26 12
  555.8040 0.21 10
  556.0613 0.25 12
  556.2442 0.13 6
  556.3699 0.13 6
  556.5253 0.17 8
  556.6981 0.23 11
  556.9330 0.21 10
  557.0443 0.11 5
  557.2062 0.26 12
  557.3891 0.08 4
  557.5344 0.02 1
  557.7614 0.29 13
  557.9941 0.26 12
  558.2688 0.17 8
  558.5312 0.18 8
  558.8001 0.11 5
  558.9599 0.11 5
  559.2802 0.11 5
  559.4637 0.14 7
  559.6951 0.21 10
  559.8968 0.22 10
  560.0717 0.14 7
  560.3349 0.49 23
  560.6053 0.23 11
  560.7202 0.21 10
  560.9313 0.20 9
  561.1128 0.16 7
  561.2429 0.16 7
  561.4194 0.17 8
  561.5495 0.24 11
  561.8618 0.31 14
  562.1886 0.26 12
  562.4120 0.39 18
  562.6166 0.11 5
  562.7360 0.20 9
  562.8343 0.14 7
  563.1279 0.41 19
  563.4055 0.55 26
  563.5732 0.29 13
  563.7128 0.16 7
  564.0302 0.66 31
  564.2757 0.87 40
  564.5919 0.04 2
  564.7925 0.23 11
  565.2452 0.67 31
  565.5707 0.18 8
  565.8986 0.43 20
  566.2458 0.91 42
  566.6869 0.45 21
  567.3475 1.29 60
  567.6053 0.53 25
  567.7786 0.30 14
  568.3851 1.72 80
  568.5453 0.50 23
  569.2609 0.48 22
  569.4450 0.23 11
  569.6422 0.13 6
  570.1108 0.45 21
  570.4091 0.44 20
  570.6148 0.13 6
  570.7961 0.24 11
  570.9246 0.17 8
  571.1304 0.27 13
  571.3456 0.48 22
  571.5659 0.37 17
  571.8670 0.46 21
  572.2570 0.48 22
  572.5812 0.40 19
  572.7704 0.47 22
  572.9351 0.28 13
  573.1258 0.77 36
  573.4667 0.78 36
  573.7541 0.77 36
  574.0900 0.65 30
  574.3846 0.79 37
  574.5688 0.33 15
  574.8476 0.65 30
  575.2802 0.82 38
  575.7540 0.74 34
  576.1744 1.01 47
  576.4706 0.63 29
  576.7025 0.92 43
  577.1777 1.17 54
  577.6011 1.22 57
  578.3559 11.34 528
  579.2033 2.72 127
  579.5948 0.76 35
  580.2097 2.58 120
  580.4553 1.23 57
  581.3729 3.95 184
  581.6857 1.84 86
  581.8692 0.40 19
  582.0982 0.86 40
  582.2897 0.60 28
  582.5079 0.28 13
  582.8128 0.48 22
  583.0252 0.49 23
  583.4227 0.27 13
  583.6409 0.50 23
  583.8807 0.31 14
  584.1098 0.47 22
  584.3295 0.36 17
  584.4313 0.18 8
  584.7349 0.69 32
  585.3859 0.68 32
  585.5875 0.43 20
  585.9286 0.40 19
  586.2090 0.49 23
  586.3181 0.39 18
  586.6043 0.61 28
  586.9541 0.68 32
  587.5655 0.68 32
  587.8719 0.77 36
  588.1892 0.79 37
  588.9080 1.06 49
  589.8227 1.05 49
  596.3477 99.97 999
  596.9808 30.51 999
  597.5828 15.95 743
  598.4509 8.65 403
  599.2372 4.19 195
  599.7736 3.18 148
  600.0837 1.90 88
  600.5954 2.06 96
  600.9785 1.50 70
  601.5077 0.76 35
  601.8467 0.92 43
  602.0708 0.61 28
  602.3404 0.72 34
  602.5515 0.44 20
  602.7416 0.14 7
  602.8826 0.52 24
  603.0612 0.29 13
  603.3228 0.27 13
  603.6005 0.24 11
  603.9294 0.40 19
//
