ACCESSION: MSBNK-Kyoto_Univ-CA000162
RECORD_TITLE: beta,beta-Carotene-2,2'-diol; FAB-EBEB; MS2; m/z: 568.43; [M]*+
DATE: 2016.01.19 (Created 2007.03.15, modified 2011.05.10)
AUTHORS: Akimoto N, Graduate School of Pharmaceutical Sciences, Kyoto University and Maoka T, Research Institute for Production Development
LICENSE: CC BY-SA
COMMENT: Profile spectrum of this record is given as a JPEG file.
COMMENT: [Profile] CA000162.jpg
CH$NAME: beta,beta-Carotene-2,2'-diol
CH$COMPOUND_CLASS: Natural Product; Carotenoid
CH$FORMULA: C40H56O2
CH$EXACT_MASS: 568.42803
CH$SMILES: C(O)(C1)C(C(C=CC(C)=CC=CC(=CC=CC=C(C)C=CC=C(C=CC(=C2C)C(C(O)CC2)(C)C)C)C)=C(C1)C)(C)C
CH$IUPAC: InChI=1S/C40H56O2/c1-29(17-13-19-31(3)21-25-35-33(5)23-27-37(41)39(35,7)8)15-11-12-16-30(2)18-14-20-32(4)22-26-36-34(6)24-28-38(42)40(36,9)10/h11-22,25-26,37-38,41-42H,23-24,27-28H2,1-10H3/b12-11+,17-13+,18-14+,25-21+,26-22+,29-15+,30-16+,31-19+,32-20+
CH$LINK: CHEMSPIDER 9413485
CH$LINK: PUBCHEM CID:11238442
CH$LINK: INCHIKEY YNQCUMWYQVISHF-RIRRTMASSA-N
AC$INSTRUMENT: JMS-HX/HX 110A, JEOL
AC$INSTRUMENT_TYPE: FAB-EBEB
AC$MASS_SPECTROMETRY: MS_TYPE MS2
AC$MASS_SPECTROMETRY: ION_MODE POSITIVE
AC$MASS_SPECTROMETRY: ATOM_GUN_CURRENT 5 mA
AC$MASS_SPECTROMETRY: BOMBARDMENT 6 kV xenon
AC$MASS_SPECTROMETRY: COLLISION_ENERGY 3 kV
AC$MASS_SPECTROMETRY: COLLISION_GAS Ar
AC$MASS_SPECTROMETRY: GAS_PRESSURE adjust to attenuate the intensity of the precursor ion by 30 %
AC$MASS_SPECTROMETRY: IONIZATION FAB
AC$MASS_SPECTROMETRY: MATRIX 1-2 uL m-NBA
AC$MASS_SPECTROMETRY: PROBE_TIP stainless-steel
MS$FOCUSED_ION: BASE_PEAK 568.3415
MS$FOCUSED_ION: PRECURSOR_M/Z 568.43
MS$FOCUSED_ION: PRECURSOR_TYPE [M]+*
PK$SPLASH: splash10-014i-0721190000-bc1032b10b3b83b945b1
PK$NUM_PEAK: 1162
PK$PEAK: m/z int. rel.int.
  0.5211 0.01 0
  2.0981 0.01 0
  6.3255 0.01 0
  18.1933 0.01 0
  19.6224 0.01 0
  20.8294 0.03 0
  22.8119 0.20 2
  24.9802 0.03 0
  25.9735 0.06 1
  26.9762 0.26 3
  28.9407 0.02 0
  29.9973 0.07 1
  36.9663 0.09 1
  38.9719 0.27 3
  40.9917 0.31 3
  41.3541 0.01 0
  41.9413 0.09 1
  42.9752 0.19 2
  43.0250 0.10 1
  44.9668 0.02 0
  49.1942 0.01 0
  50.9689 0.08 1
  53.0068 0.09 1
  54.9984 0.19 2
  56.9996 0.09 1
  61.4631 0.06 1
  62.9707 0.12 1
  64.9856 0.15 1
  66.9887 0.19 2
  67.6472 0.01 0
  68.8726 0.03 0
  69.0047 0.28 3
  70.9013 0.13 1
  72.9293 0.04 0
  73.9321 0.01 0
  74.6910 0.04 0
  75.0521 0.02 0
  76.5214 0.09 1
  76.6546 0.12 1
  76.9427 0.67 7
  77.8104 0.03 0
  77.9669 0.10 1
  78.5006 0.11 1
  78.7020 0.08 1
  78.9643 0.86 9
  79.9511 0.07 1
  80.7434 0.10 1
  80.8335 0.04 0
  80.9902 0.78 8
  81.3893 0.10 1
  82.9873 0.24 2
  83.7042 0.05 0
  83.9138 0.05 0
  85.9868 0.01 0
  86.7416 0.03 0
  86.9426 0.12 1
  88.6213 0.07 1
  88.8154 0.03 0
  88.9664 0.17 2
  89.4249 0.09 1
  89.6821 0.15 1
  89.9449 0.02 0
  90.3242 0.09 1
  90.9413 1.89 19
  91.9279 0.18 2
  92.9513 1.60 16
  93.9903 0.12 1
  94.6584 0.07 1
  94.7887 0.13 1
  95.0080 0.89 9
  96.8090 0.06 1
  96.9748 0.20 2
  97.6342 0.02 0
  98.0020 0.07 1
  98.1253 0.09 1
  98.4743 0.05 0
  98.9797 0.07 1
  99.9445 0.02 0
  100.7305 0.07 1
  100.9469 0.12 1
  101.2449 0.04 0
  101.6016 0.07 1
  101.9488 0.38 4
  102.7650 0.17 2
  102.9668 0.46 5
  103.9780 0.40 4
  104.6700 0.18 2
  104.9712 5.12 51
  105.7241 0.12 1
  105.8660 0.20 2
  106.0253 0.19 2
  106.2003 0.07 1
  106.6300 0.11 1
  106.9863 2.47 25
  107.4773 0.09 1
  108.0030 0.11 1
  109.0065 1.01 10
  110.0072 0.07 1
  110.5714 0.07 1
  110.9596 0.05 0
  112.5672 0.01 0
  112.7549 0.04 0
  112.9408 0.10 1
  113.2569 0.04 0
  113.4939 0.06 1
  113.7586 0.06 1
  113.8976 0.34 3
  113.9593 0.16 2
  114.2116 0.02 0
  114.5856 0.25 2
  114.9295 1.80 18
  115.1905 0.03 0
  115.5385 0.05 0
  115.9227 0.88 9
  116.3419 0.09 1
  116.9224 2.04 20
  117.2163 0.01 0
  117.6078 0.07 1
  117.8413 0.19 2
  117.9685 0.39 4
  118.4295 0.06 1
  118.9573 5.53 55
  119.1798 0.10 1
  119.3129 0.06 1
  119.6409 0.11 1
  119.7925 0.02 0
  119.9791 0.67 7
  120.1404 0.15 1
  120.6593 0.02 0
  120.9739 2.24 22
  121.2193 0.06 1
  121.6187 0.05 0
  121.9560 0.22 2
  122.6852 0.11 1
  122.9745 0.58 6
  123.9031 0.07 1
  125.0470 0.11 1
  125.1633 0.08 1
  125.9225 0.21 2
  126.6439 0.06 1
  126.9277 0.82 8
  127.0405 0.11 1
  127.1501 0.12 1
  127.6026 0.36 4
  127.9208 2.44 24
  128.2486 0.08 1
  128.5073 0.22 2
  128.9189 3.35 33
  129.3262 0.08 1
  129.4599 0.02 0
  129.6887 0.11 1
  129.9292 1.02 10
  130.2360 0.03 0
  130.9375 3.70 37
  131.2441 0.03 0
  131.4818 0.09 1
  131.5649 0.05 0
  131.9432 0.69 7
  132.3101 0.03 0
  132.6313 0.18 2
  132.9643 3.58 36
  133.3019 0.06 1
  133.4730 0.10 1
  133.9330 0.34 3
  134.0893 0.02 0
  134.3860 0.07 1
  134.9693 1.30 13
  135.1888 0.10 1
  135.9629 0.16 2
  136.8875 0.21 2
  137.0121 0.32 3
  137.2548 0.01 0
  137.8242 0.07 1
  137.9787 0.17 2
  138.1645 0.06 1
  138.6597 0.05 0
  138.9171 0.37 4
  139.3815 0.07 1
  139.6977 0.06 1
  139.9059 0.17 2
  140.0876 0.04 0
  140.2334 0.15 1
  140.8860 2.02 20
  141.1688 0.10 1
  141.3220 0.11 1
  141.4654 0.12 1
  141.5599 0.07 1
  141.9212 2.61 26
  142.4529 0.11 1
  142.9458 4.68 47
  143.1717 0.13 1
  143.4140 0.05 0
  143.6538 0.17 2
  143.9420 1.13 11
  144.9464 4.96 50
  145.3946 0.12 1
  145.5792 0.09 1
  145.6735 0.02 0
  145.9668 0.72 7
  146.9601 1.42 14
  147.5876 0.14 1
  147.9602 0.30 3
  148.8188 0.16 2
  149.0027 0.24 2
  149.8477 0.02 0
  149.9910 0.15 1
  150.7788 0.14 1
  150.9459 0.33 3
  151.1664 0.10 1
  151.3052 0.21 2
  151.5317 0.13 1
  151.6265 0.11 1
  151.9274 1.21 12
  152.1006 0.14 1
  152.3246 0.05 0
  152.4689 0.13 1
  152.6922 0.23 2
  152.9453 2.02 20
  153.6284 0.09 1
  153.7142 0.03 0
  153.9503 0.89 9
  154.1806 0.01 0
  154.3812 0.10 1
  154.5858 0.39 4
  154.7291 0.23 2
  154.9661 3.53 35
  155.3492 0.03 0
  155.5460 0.19 2
  155.9709 1.52 15
  156.3008 0.03 0
  156.4230 0.05 0
  156.5963 0.17 2
  156.9832 4.32 43
  157.2921 0.12 1
  157.5072 0.15 1
  157.6084 0.09 1
  158.0036 0.72 7
  158.1552 0.13 1
  159.0037 2.99 30
  159.3549 0.08 1
  159.5803 0.08 1
  159.7069 0.03 0
  159.9821 0.31 3
  160.0835 0.15 1
  160.2381 0.17 2
  160.5804 0.09 1
  160.9944 0.62 6
  161.9916 0.18 2
  162.1165 0.08 1
  162.7650 0.10 1
  162.9604 0.12 1
  163.0548 0.18 2
  163.6432 0.16 2
  163.9080 0.19 2
  164.0051 0.08 1
  164.1954 0.13 1
  164.9447 2.17 22
  165.2444 0.09 1
  165.4635 0.02 0
  165.5813 0.10 1
  165.9830 0.67 7
  166.2522 0.05 0
  166.5948 0.16 2
  166.9968 2.33 23
  167.4336 0.03 0
  167.6124 0.06 1
  167.7349 0.17 2
  168.0149 0.80 8
  168.1646 0.11 1
  168.4879 0.15 1
  168.5844 0.23 2
  169.0077 3.69 37
  169.3818 0.11 1
  169.4704 0.09 1
  169.6775 0.09 1
  170.0078 1.07 11
  170.2597 0.13 1
  170.3636 0.10 1
  170.7101 0.10 1
  171.0167 2.90 29
  171.5041 0.04 0
  171.9957 0.57 6
  172.7250 0.26 3
  173.0334 1.98 20
  173.4039 0.02 0
  173.9596 0.30 3
  174.3671 0.04 0
  174.5342 0.01 0
  174.7794 0.11 1
  175.0562 1.51 15
  175.5570 0.03 0
  175.7790 0.11 1
  175.9235 0.04 0
  176.0726 0.21 2
  176.7244 0.04 0
  176.8817 0.20 2
  177.0349 0.15 1
  177.1789 0.10 1
  177.3168 0.18 2
  177.4567 0.04 0
  177.5632 0.10 1
  177.9617 1.37 14
  178.2068 0.04 0
  178.3180 0.11 1
  178.5700 0.22 2
  178.9788 1.87 19
  179.2100 0.03 0
  179.5197 0.10 1
  179.7598 0.37 4
  179.9805 0.77 8
  180.1682 0.10 1
  180.2883 0.08 1
  180.9774 3.12 31
  181.9643 1.08 11
  182.3739 0.01 0
  182.6346 0.04 0
  182.9994 2.01 20
  183.2192 0.10 1
  183.4800 0.12 1
  183.6675 0.07 1
  183.8551 0.12 1
  184.0191 0.23 2
  184.5202 0.06 1
  184.6836 0.17 2
  184.7865 0.10 1
  185.0260 1.20 12
  185.2649 0.01 0
  185.7575 0.13 1
  186.0154 0.22 2
  186.2470 0.03 0
  186.3715 0.06 1
  186.4968 0.02 0
  186.6773 0.09 1
  187.0289 0.48 5
  187.1858 0.07 1
  187.7768 0.09 1
  187.9796 0.19 2
  188.0720 0.09 1
  188.5985 0.07 1
  188.7468 0.10 1
  188.9815 0.51 5
  189.5245 0.10 1
  189.8517 0.21 2
  189.9961 0.59 6
  190.1985 0.12 1
  190.5806 0.04 0
  190.7304 0.04 0
  190.9593 0.92 9
  191.7292 0.07 1
  191.9845 0.81 8
  192.1656 0.06 1
  192.6447 0.17 2
  192.9772 1.90 19
  193.2381 0.07 1
  193.5444 0.05 0
  194.0043 1.16 12
  194.4054 0.10 1
  194.6171 0.11 1
  194.7145 0.12 1
  195.0069 2.25 22
  195.3263 0.07 1
  195.4901 0.05 0
  195.7284 0.11 1
  195.9931 1.00 10
  196.3608 0.06 1
  196.5450 0.10 1
  196.7204 0.08 1
  197.0130 2.47 25
  197.4202 0.04 0
  197.9780 0.42 4
  198.4308 0.10 1
  198.5555 0.07 1
  198.6898 0.05 0
  199.0302 1.22 12
  199.3198 0.12 1
  199.7261 0.06 1
  199.9669 0.18 2
  200.1040 0.11 1
  200.7942 0.13 1
  201.0108 0.52 5
  201.2029 0.15 1
  201.5580 0.17 2
  201.9336 0.49 5
  202.5089 0.10 1
  202.7494 0.15 1
  203.0049 0.68 7
  203.3026 0.09 1
  203.7838 0.16 2
  203.9803 0.43 4
  204.4230 0.04 0
  204.7351 0.07 1
  204.9834 0.88 9
  205.3453 0.10 1
  205.9584 0.67 7
  206.9883 1.27 13
  207.2437 0.10 1
  207.4371 0.05 0
  207.7238 0.12 1
  207.9765 0.45 4
  208.6306 0.08 1
  209.0150 1.12 11
  209.1976 0.08 1
  210.0362 0.25 2
  210.2899 0.03 0
  210.5797 0.02 0
  210.7993 0.21 2
  211.0477 0.93 9
  212.0432 0.14 1
  212.5832 0.02 0
  212.8952 0.17 2
  213.0481 0.20 2
  213.2748 0.06 1
  213.9968 0.14 1
  214.4757 0.01 0
  215.0272 0.75 7
  216.0143 0.35 3
  216.4061 0.05 0
  216.7405 0.21 2
  217.0264 1.01 10
  217.1660 0.19 2
  217.8426 0.10 1
  218.0336 0.42 4
  218.2026 0.10 1
  218.7789 0.13 1
  219.0233 0.49 5
  219.4451 0.12 1
  219.5650 0.05 0
  219.8327 0.09 1
  220.0293 0.35 3
  220.7246 0.10 1
  221.0645 1.13 11
  221.6806 0.11 1
  221.8334 0.08 1
  222.0514 0.45 4
  223.0497 1.51 15
  223.5291 0.07 1
  224.0834 0.30 3
  224.5281 0.04 0
  224.7387 0.03 0
  225.1025 0.83 8
  225.5219 0.15 1
  225.7292 0.04 0
  226.0087 0.42 4
  226.6652 0.08 1
  227.1034 0.35 3
  227.7320 0.05 0
  228.0192 0.31 3
  228.3010 0.10 1
  228.6492 0.09 1
  229.0084 0.58 6
  229.3278 0.12 1
  229.8420 0.12 1
  229.9750 0.25 2
  230.1183 0.45 4
  230.6135 0.05 0
  231.0017 0.71 7
  231.6569 0.09 1
  231.8278 0.15 1
  232.0158 0.22 2
  232.6822 0.09 1
  233.0495 0.78 8
  233.3110 0.04 0
  233.4380 0.04 0
  233.7106 0.02 0
  234.0403 0.34 3
  234.1605 0.14 1
  234.4730 0.03 0
  234.6811 0.15 1
  235.0699 0.85 8
  235.7323 0.04 0
  236.0883 0.41 4
  236.3948 0.10 1
  236.7220 0.11 1
  236.9956 0.34 3
  237.1194 0.31 3
  237.6667 0.01 0
  237.7946 0.08 1
  237.8840 0.06 1
  238.1082 0.13 1
  238.7046 0.17 2
  239.0073 0.38 4
  239.1119 0.19 2
  239.2261 0.14 1
  239.4208 0.09 1
  240.1159 0.31 3
  240.3885 0.10 1
  240.9193 0.43 4
  241.3943 0.07 1
  241.5224 0.07 1
  241.8213 0.02 0
  242.0486 0.24 2
  242.7911 0.08 1
  243.0343 0.24 2
  243.8260 0.16 2
  244.0383 0.36 4
  244.1176 0.12 1
  244.7359 0.10 1
  244.8607 0.21 2
  245.0854 0.69 7
  245.3819 0.11 1
  245.6750 0.03 0
  245.8074 0.06 1
  245.9288 0.16 2
  246.1274 0.24 2
  246.7295 0.21 2
  247.0786 0.75 7
  247.5409 0.05 0
  248.0798 0.23 2
  248.7266 0.12 1
  249.0545 0.58 6
  249.1429 0.16 2
  249.5903 0.06 1
  250.0156 0.23 2
  250.1848 0.27 3
  251.0372 0.39 4
  251.3840 0.05 0
  251.5615 0.08 1
  251.8041 0.12 1
  252.0701 0.22 2
  252.4972 0.10 1
  253.0978 0.28 3
  253.2389 0.13 1
  253.9178 0.13 1
  254.1570 0.28 3
  254.5159 0.07 1
  254.6189 0.13 1
  254.9052 0.18 2
  255.0214 0.37 4
  255.1120 0.16 2
  255.6038 0.03 0
  255.7815 0.07 1
  256.0596 0.39 4
  256.7321 0.06 1
  257.0269 0.44 4
  257.1161 0.32 3
  258.1080 0.20 2
  258.2900 0.11 1
  259.0274 0.41 4
  259.1506 0.26 3
  260.0966 0.23 2
  260.8669 0.08 1
  261.0769 0.83 8
  262.0782 0.18 2
  262.3929 0.13 1
  262.7283 0.14 1
  263.0694 0.54 5
  264.1198 0.18 2
  264.5907 0.10 1
  264.7932 0.03 0
  265.1178 0.25 2
  265.3703 0.11 1
  265.7339 0.10 1
  265.9538 0.10 1
  266.1231 0.12 1
  266.5672 0.13 1
  266.8080 0.05 0
  267.0155 0.25 2
  267.1272 0.06 1
  267.2334 0.03 0
  268.0442 0.32 3
  268.1559 0.08 1
  268.5510 0.01 0
  268.7128 0.12 1
  269.1127 0.39 4
  270.0100 0.28 3
  270.1364 0.22 2
  270.7790 0.03 0
  271.0882 0.23 2
  272.0659 0.13 1
  273.1182 0.42 4
  273.9229 0.11 1
  274.0651 0.23 2
  274.8643 0.12 1
  275.1211 0.36 4
  275.7665 0.05 0
  275.9810 0.08 1
  276.1580 0.05 0
  277.0529 0.38 4
  278.1333 0.11 1
  278.3452 0.03 0
  278.5799 0.11 1
  278.9106 0.09 1
  279.0842 0.29 3
  279.2558 0.17 2
  279.6705 0.07 1
  279.8616 0.06 1
  280.0860 0.23 2
  280.8657 0.20 2
  281.1041 0.19 2
  281.3293 0.09 1
  282.0598 0.23 2
  282.3233 0.08 1
  282.7885 0.15 1
  282.8719 0.11 1
  283.1278 0.40 4
  283.6660 0.08 1
  284.0952 0.24 2
  284.2426 0.07 1
  284.3456 0.04 0
  284.9006 0.07 1
  285.1358 0.47 5
  285.9248 0.10 1
  286.0528 0.34 3
  287.1580 0.51 5
  287.2505 0.14 1
  287.6285 0.11 1
  287.9460 0.11 1
  288.1736 0.11 1
  288.6049 0.11 1
  289.0813 0.25 2
  289.1787 0.12 1
  289.7296 0.14 1
  290.1289 0.13 1
  290.3411 0.09 1
  290.9819 0.23 2
  291.1496 0.18 2
  291.4231 0.04 0
  291.9784 0.12 1
  293.0141 0.10 1
  293.1415 0.08 1
  294.2506 0.14 1
  294.9464 0.09 1
  295.0933 0.24 2
  295.2068 0.11 1
  295.9361 0.09 1
  296.0364 0.07 1
  296.1869 0.09 1
  296.3652 0.12 1
  296.4941 0.12 1
  297.0062 0.25 2
  297.1546 0.20 2
  298.0257 0.16 2
  298.1658 0.23 2
  298.9973 0.30 3
  299.1172 0.12 1
  300.0995 0.22 2
  300.2975 0.05 0
  301.1176 0.29 3
  301.9740 0.09 1
  302.8334 0.14 1
  303.1516 0.11 1
  304.0230 0.06 1
  305.0210 0.22 2
  305.1816 0.04 0
  305.6960 0.11 1
  306.2608 0.12 1
  306.5316 0.10 1
  306.7390 0.07 1
  307.0009 0.22 2
  307.1664 0.09 1
  307.7487 0.11 1
  308.0371 0.05 0
  308.9577 0.10 1
  309.1302 0.19 2
  310.0964 0.10 1
  310.2383 0.10 1
  311.0230 0.16 2
  312.0133 0.11 1
  312.2055 0.09 1
  313.0583 0.29 3
  313.5330 0.05 0
  313.9148 0.07 1
  314.2413 0.05 0
  315.0791 0.11 1
  315.5981 0.04 0
  316.1331 0.04 0
  316.6403 0.06 1
  317.0349 0.12 1
  317.3148 0.06 1
  318.2601 0.19 2
  318.9676 0.20 2
  319.1027 0.07 1
  319.7845 0.14 1
  320.0540 0.12 1
  320.1834 0.11 1
  320.6854 0.04 0
  320.9024 0.12 1
  322.1341 0.12 1
  323.1314 0.18 2
  324.0778 0.06 1
  324.2074 0.11 1
  324.6698 0.04 0
  325.1392 0.25 2
  325.2135 0.14 1
  326.1427 0.18 2
  327.0692 0.16 2
  327.1870 0.17 2
  327.4169 0.08 1
  327.7169 0.06 1
  328.2455 0.10 1
  328.3661 0.10 1
  329.2354 0.17 2
  329.8644 0.02 0
  330.0657 0.12 1
  330.5019 0.07 1
  331.3015 0.02 0
  332.1189 0.17 2
  332.2654 0.11 1
  333.1416 0.08 1
  334.0860 0.17 2
  334.2809 0.09 1
  334.5719 0.09 1
  335.0993 0.17 2
  335.2508 0.16 2
  335.8406 0.07 1
  336.0938 0.16 2
  336.2642 0.26 3
  337.1494 0.13 1
  338.0152 0.18 2
  338.1022 0.07 1
  338.2839 0.23 2
  341.0511 0.11 1
  341.3164 0.09 1
  342.2179 0.11 1
  342.8280 0.05 0
  343.0766 0.16 2
  343.2107 0.10 1
  344.0239 0.08 1
  344.2009 0.12 1
  344.5450 0.10 1
  345.0339 0.11 1
  345.1905 0.10 1
  345.3219 0.14 1
  345.6710 0.10 1
  345.8691 0.10 1
  346.0173 0.11 1
  346.9594 0.16 2
  347.1934 0.22 2
  347.9172 0.10 1
  348.0753 0.26 3
  348.2770 0.03 0
  349.0676 0.17 2
  349.2391 0.21 2
  350.1585 0.19 2
  351.1167 0.14 1
  352.0033 0.06 1
  352.1341 0.10 1
  352.7417 0.11 1
  352.8725 0.18 2
  354.0625 0.09 1
  354.6667 0.12 1
  354.9931 0.06 1
  355.1858 0.09 1
  357.1812 0.11 1
  357.3388 0.11 1
  358.0869 0.04 0
  359.0944 0.06 1
  359.3012 0.14 1
  359.5697 0.13 1
  360.0408 0.15 1
  360.3093 0.05 0
  360.9978 0.13 1
  361.1296 0.16 2
  361.3106 0.02 0
  361.6023 0.10 1
  361.8856 0.23 2
  362.1535 0.23 2
  362.3267 0.24 2
  363.1339 0.11 1
  363.3002 0.14 1
  363.8234 0.07 1
  364.1826 0.04 0
  364.6989 0.07 1
  366.2930 0.06 1
  366.6487 0.11 1
  368.1239 0.13 1
  369.0202 0.08 1
  369.1494 0.11 1
  369.4962 0.11 1
  371.9023 0.11 1
  372.0940 0.12 1
  372.8652 0.13 1
  373.0402 0.09 1
  374.2048 0.12 1
  374.3651 0.09 1
  374.5956 0.09 1
  374.8705 0.02 0
  375.1601 0.26 3
  375.3225 0.12 1
  376.0558 0.19 2
  376.2632 0.05 0
  376.7616 0.11 1
  376.9655 0.10 1
  377.1758 0.13 1
  378.0091 0.09 1
  379.0710 0.13 1
  380.0677 0.11 1
  380.3645 0.06 1
  383.9444 0.05 0
  384.1274 0.05 0
  384.3540 0.22 2
  385.0952 0.08 1
  385.3992 0.11 1
  388.1124 0.15 1
  390.2207 0.16 2
  390.9997 0.08 1
  391.1258 0.11 1
  391.2209 0.07 1
  392.0612 0.11 1
  394.1832 0.17 2
  395.0217 0.14 1
  395.9822 0.08 1
  396.1598 0.11 1
  396.2507 0.13 1
  396.3994 0.05 0
  397.1571 0.06 1
  397.2741 0.19 2
  397.8655 0.09 1
  398.0890 0.10 1
  398.2927 0.12 1
  400.6093 0.09 1
  401.1283 0.14 1
  401.2990 0.15 1
  401.7912 0.03 0
  402.0422 0.08 1
  402.2482 0.12 1
  402.4266 0.10 1
  403.2130 0.19 2
  403.3801 0.09 1
  403.8231 0.09 1
  404.1285 0.16 2
  404.2780 0.10 1
  405.1218 0.11 1
  405.2964 0.12 1
  406.3145 0.11 1
  407.2905 0.07 1
  408.2082 0.10 1
  409.1259 0.12 1
  410.1155 0.27 3
  410.2226 0.12 1
  410.3698 0.18 2
  410.9101 0.14 1
  412.0479 0.06 1
  412.2565 0.11 1
  413.0041 0.12 1
  413.1231 0.08 1
  413.2169 0.11 1
  414.1118 0.11 1
  415.0604 0.25 2
  415.3557 0.29 3
  415.4565 0.12 1
  415.8004 0.07 1
  416.0591 0.09 1
  416.3058 0.20 2
  417.3328 0.12 1
  419.7933 0.03 0
  420.1953 0.12 1
  420.3976 0.09 1
  420.5380 0.04 0
  421.1465 0.02 0
  421.4035 0.10 1
  422.3492 0.05 0
  422.5365 0.09 1
  422.7245 0.02 0
  423.2126 0.07 1
  423.5232 0.01 0
  424.0768 0.11 1
  424.8614 0.08 1
  426.1533 0.14 1
  426.7909 0.12 1
  428.1366 0.26 3
  428.2606 0.11 1
  428.4388 0.06 1
  429.2513 0.28 3
  430.0913 0.25 2
  430.2125 0.11 1
  430.3274 0.11 1
  431.2098 0.12 1
  435.2166 0.13 1
  435.3463 0.13 1
  435.6234 0.09 1
  436.3137 0.10 1
  438.0470 0.01 0
  438.2593 0.15 1
  438.8609 0.10 1
  439.1889 0.10 1
  440.1150 0.15 1
  441.8051 0.06 1
  442.9304 0.01 0
  443.4730 0.11 1
  444.9950 0.15 1
  445.1933 0.17 2
  445.3443 0.11 1
  445.5384 0.10 1
  445.8665 0.03 0
  446.5645 0.07 1
  447.1934 0.18 2
  448.0784 0.08 1
  449.0399 0.13 1
  449.2170 0.06 1
  450.1086 0.08 1
  450.7476 0.11 1
  452.2310 0.02 0
  452.5967 0.11 1
  453.2562 0.11 1
  454.1785 0.11 1
  454.6905 0.12 1
  455.3346 0.15 1
  455.9017 0.04 0
  456.4421 0.11 1
  459.5551 0.08 1
  460.7581 0.16 2
  460.8997 0.11 1
  460.9801 0.04 0
  461.2500 0.08 1
  461.4981 0.12 1
  461.8308 0.02 0
  462.2438 0.11 1
  462.3566 0.12 1
  462.5201 0.10 1
  463.0608 0.10 1
  465.3885 0.10 1
  465.6142 0.12 1
  466.2706 0.14 1
  468.1815 0.10 1
  468.6983 0.10 1
  469.9135 0.08 1
  471.4390 0.10 1
  472.3588 0.05 0
  472.5691 0.10 1
  473.0621 0.10 1
  473.1821 0.12 1
  474.1732 0.14 1
  475.1567 0.12 1
  475.4008 0.11 1
  475.7515 0.42 4
  476.2751 5.73 57
  476.7012 0.10 1
  477.0279 0.06 1
  477.2862 0.12 1
  477.5967 0.11 1
  477.8571 0.11 1
  478.0017 0.11 1
  478.4294 0.11 1
  479.3193 0.07 1
  479.9552 0.19 2
  480.6208 0.01 0
  482.1412 0.14 1
  482.3021 0.11 1
  482.6685 0.05 0
  483.3568 0.18 2
  484.0898 0.07 1
  484.3438 0.10 1
  486.2255 0.15 1
  487.8401 0.10 1
  488.0906 0.16 2
  488.3665 0.29 3
  488.9261 0.04 0
  489.0440 0.17 2
  489.2755 0.11 1
  489.4682 0.23 2
  491.1409 0.04 0
  491.5263 0.06 1
  492.0663 0.12 1
  492.7200 0.08 1
  493.2276 0.14 1
  494.1256 0.11 1
  495.1500 0.03 0
  495.3992 0.11 1
  495.8314 0.03 0
  496.1293 0.23 2
  496.2726 0.07 1
  497.1016 0.11 1
  497.6785 0.06 1
  498.3805 0.11 1
  498.6700 0.11 1
  499.4087 0.10 1
  501.9041 0.09 1
  502.4077 0.04 0
  505.2518 0.04 0
  505.9738 0.13 1
  506.1137 0.06 1
  506.2656 0.11 1
  506.6217 0.11 1
  506.8754 0.04 0
  507.3092 0.12 1
  508.1671 0.18 2
  508.2999 0.07 1
  509.2313 0.12 1
  509.6558 0.10 1
  510.1747 0.15 1
  510.3171 0.14 1
  511.0962 0.10 1
  511.2407 0.10 1
  513.0732 0.04 0
  514.0992 0.13 1
  516.2064 0.03 0
  517.2635 0.02 0
  518.8590 0.11 1
  519.2858 0.10 1
  519.5425 0.09 1
  519.9312 0.09 1
  520.0588 0.11 1
  520.3262 0.13 1
  520.5985 0.14 1
  520.9653 0.09 1
  521.1283 0.11 1
  521.3654 0.08 1
  521.4733 0.11 1
  521.8514 0.12 1
  522.0292 0.04 0
  522.2084 0.10 1
  522.3523 0.22 2
  524.1592 0.12 1
  524.2947 0.26 3
  524.4485 0.27 3
  524.8979 0.12 1
  525.3058 0.30 3
  525.4716 0.10 1
  526.2302 0.23 2
  526.5054 0.12 1
  526.8589 0.11 1
  527.1462 0.18 2
  527.7488 0.01 0
  528.2323 0.04 0
  528.4017 0.11 1
  529.0220 0.11 1
  529.4758 0.06 1
  530.2889 0.14 1
  530.6157 0.12 1
  531.6166 0.13 1
  531.8940 0.18 2
  532.2181 0.11 1
  532.3486 0.28 3
  532.4997 0.08 1
  533.1414 0.09 1
  534.1213 0.21 2
  534.3917 0.09 1
  534.7947 0.10 1
  534.9282 0.05 0
  535.3398 0.19 2
  536.2308 0.25 2
  536.3805 0.10 1
  536.4871 0.14 1
  536.9658 0.11 1
  537.0972 0.11 1
  537.3591 0.11 1
  537.8202 0.10 1
  538.0574 0.10 1
  538.3533 0.10 1
  538.4380 0.07 1
  538.9543 0.13 1
  539.3024 0.09 1
  539.3991 0.07 1
  539.5566 0.15 1
  539.8214 0.08 1
  539.9450 0.04 0
  540.2437 0.11 1
  540.4005 0.11 1
  540.9033 0.05 0
  541.0778 0.12 1
  541.3963 0.10 1
  541.6943 0.11 1
  541.8356 0.06 1
  542.0651 0.22 2
  542.2572 0.18 2
  542.4825 0.13 1
  542.9042 0.11 1
  542.9692 0.06 1
  543.1867 0.26 3
  543.4078 0.13 1
  543.7369 0.10 1
  543.9813 0.26 3
  544.0894 0.15 1
  544.1798 0.10 1
  544.3437 0.13 1
  544.5697 0.12 1
  544.7145 0.02 0
  545.1906 0.12 1
  545.3538 0.20 2
  545.6808 0.15 1
  545.8158 0.30 3
  546.1111 0.16 2
  546.4332 0.30 3
  546.6790 0.14 1
  546.8776 0.28 3
  547.3707 0.19 2
  547.7310 0.23 2
  547.8602 0.20 2
  548.1188 0.21 2
  548.4487 0.42 4
  548.6339 0.43 4
  548.8211 0.19 2
  549.1249 0.52 5
  549.3588 0.43 4
  549.5580 0.33 3
  550.1967 2.92 29
  550.5903 0.41 4
  550.7585 0.39 4
  550.9238 0.41 4
  551.1238 0.34 3
  551.3245 0.23 2
  551.4375 0.12 1
  551.6417 0.38 4
  552.4034 0.57 6
  552.6501 0.33 3
  553.2813 1.50 15
  553.5823 0.84 8
  553.7105 0.13 1
  553.9897 0.22 2
  554.2864 0.12 1
  554.4274 0.21 2
  554.7594 0.11 1
  555.0103 0.48 5
  555.2585 0.02 0
  555.3712 0.14 1
  555.6130 0.22 2
  555.7188 0.07 1
  555.9028 0.15 1
  556.0895 0.18 2
  556.2750 0.19 2
  556.3864 0.14 1
  556.5421 0.21 2
  556.6733 0.13 1
  556.9891 0.13 1
  557.1978 0.22 2
  557.3874 0.24 2
  557.4889 0.11 1
  557.6235 0.17 2
  557.8273 0.11 1
  558.0529 0.17 2
  558.2017 0.07 1
  558.3758 0.21 2
  558.5542 0.25 2
  558.7466 0.24 2
  558.8961 0.15 1
  559.2148 0.23 2
  559.4736 0.25 2
  559.6526 0.24 2
  559.8804 0.16 2
  560.2145 0.35 3
  560.4332 0.31 3
  560.5537 0.13 1
  560.9077 0.31 3
  561.3089 0.51 5
  561.6036 0.40 4
  561.8300 0.40 4
  562.0852 0.46 5
  562.5450 0.44 4
  562.9512 0.42 4
  563.5992 0.65 6
  564.1084 0.96 10
  564.5075 1.17 12
  564.7628 1.15 11
  565.5844 1.96 20
  568.3415 99.97 999
  568.9149 12.13 121
  569.5992 5.35 53
  570.6396 3.20 32
  571.0981 2.11 21
  571.3775 1.27 13
  571.8304 1.16 12
  572.2361 0.91 9
  572.6241 0.70 7
  572.9197 0.57 6
  573.3825 0.63 6
  573.6986 0.50 5
  573.9208 0.38 4
  574.1409 0.36 4
  574.3286 0.14 1
  574.5170 0.25 2
  574.6624 0.24 2
//
