ACCESSION: MSBNK-Kyoto_Univ-CA000144
RECORD_TITLE: Anhydrorhodovibrin; FAB-EBEB; MS2; m/z: 566.45; [M]*+
DATE: 2016.01.19 (Created 2007.03.15, modified 2011.05.10)
AUTHORS: Akimoto N, Graduate School of Pharmaceutical Sciences, Kyoto University and Maoka T, Research Institute for Production Development
LICENSE: CC BY-SA
COMMENT: Profile spectrum of this record is given as a JPEG file.
COMMENT: [Profile] CA000144.jpg
CH$NAME: Anhydrorhodovibrin
CH$COMPOUND_CLASS: Natural Product; Carotenoid
CH$FORMULA: C41H58O
CH$EXACT_MASS: 566.44877
CH$SMILES: CC(=CCC/C(=C/C=C/C(=C/C=C/C(=C/C=C/C=C(\C)/C=C/C=C(\C)/C=C/C=C(\C)/C=C/CC(C)(C)OC)/C)/C)/C)C
CH$IUPAC: InChI=1S/C41H58O/c1-34(2)20-14-23-37(5)26-17-29-38(6)27-15-24-35(3)21-12-13-22-36(4)25-16-28-39(7)30-18-31-40(8)32-19-33-41(9,10)42-11/h12-13,15-22,24-32H,14,23,33H2,1-11H3/b13-12+,24-15+,25-16+,29-17+,30-18+,32-19+,35-21+,36-22+,37-26+,38-27+,39-28+,40-31+
CH$LINK: CAS 5085-16-5
CH$LINK: CHEMSPIDER 4519643
CH$LINK: PUBCHEM CID:308
CH$LINK: INCHIKEY OCDSWQXGIQUZCF-AGVJHCIFSA-N
AC$INSTRUMENT: JMS-HX/HX 110A, JEOL
AC$INSTRUMENT_TYPE: FAB-EBEB
AC$MASS_SPECTROMETRY: MS_TYPE MS2
AC$MASS_SPECTROMETRY: ION_MODE POSITIVE
AC$MASS_SPECTROMETRY: ATOM_GUN_CURRENT 5 mA
AC$MASS_SPECTROMETRY: BOMBARDMENT 6 kV xenon
AC$MASS_SPECTROMETRY: COLLISION_ENERGY 3 kV
AC$MASS_SPECTROMETRY: COLLISION_GAS Ar
AC$MASS_SPECTROMETRY: GAS_PRESSURE adjust to attenuate the intensity of the precursor ion by 30 %
AC$MASS_SPECTROMETRY: IONIZATION FAB
AC$MASS_SPECTROMETRY: MATRIX 1-2 uL m-NBA
AC$MASS_SPECTROMETRY: PROBE_TIP stainless-steel
MS$FOCUSED_ION: BASE_PEAK 566.3188
MS$FOCUSED_ION: PRECURSOR_M/Z 566.45
MS$FOCUSED_ION: PRECURSOR_TYPE [M]+*
PK$SPLASH: splash10-014i-3931180000-713d743d8e6baa6a82cb
PK$NUM_PEAK: 1266
PK$PEAK: m/z int. rel.int.
  1.8750 0.06 1
  2.8835 0.02 0
  8.8247 0.01 0
  12.7857 0.09 1
  13.9627 0.02 0
  14.9757 0.26 3
  22.9084 0.05 0
  25.9518 0.14 1
  26.9503 0.84 8
  27.9600 0.04 0
  28.9614 0.45 4
  32.9240 0.03 0
  36.9475 0.03 0
  37.9640 0.05 0
  38.9544 0.63 6
  39.9463 0.16 2
  40.9693 1.94 19
  41.9689 0.13 1
  42.9636 0.58 6
  44.8278 0.03 0
  44.9114 0.06 1
  44.9864 0.02 0
  48.9336 0.02 0
  49.7995 0.07 1
  49.9404 0.16 2
  50.9432 0.13 1
  52.9640 0.30 3
  54.9819 0.43 4
  56.0108 0.02 0
  57.0354 0.14 1
  58.9459 0.05 0
  59.8862 0.05 0
  61.7068 0.02 0
  61.9421 0.11 1
  62.9543 0.34 3
  63.9329 0.08 1
  64.7844 0.12 1
  64.9579 0.49 5
  65.9798 0.11 1
  66.7577 0.02 0
  66.9703 0.40 4
  67.9046 0.10 1
  68.7555 0.05 0
  68.9923 2.84 28
  71.0344 0.02 0
  71.8924 0.01 0
  72.1691 0.05 0
  72.4701 0.02 0
  72.9690 33.72 337
  73.2990 0.01 0
  73.9669 0.12 1
  74.9397 0.12 1
  75.7381 0.04 0
  75.9538 0.09 1
  76.6361 0.09 1
  76.9373 1.29 13
  77.1876 0.03 0
  77.3238 0.06 1
  77.9313 0.26 3
  78.7779 0.04 0
  78.9587 1.20 12
  79.9528 0.28 3
  80.7143 0.13 1
  80.9767 1.75 17
  81.9953 0.06 1
  82.9659 0.27 3
  84.6534 0.04 0
  84.8401 0.04 0
  84.9787 0.18 2
  85.9265 0.01 0
  86.9058 0.02 0
  86.9913 0.04 0
  87.6693 0.05 0
  87.8772 0.06 1
  88.5802 0.08 1
  88.9099 0.37 4
  89.1082 0.04 0
  89.2314 0.11 1
  89.6633 0.06 1
  89.9619 0.10 1
  90.1631 0.01 0
  90.9230 3.19 32
  91.1313 0.07 1
  91.6189 0.08 1
  91.7404 0.10 1
  91.9581 0.48 5
  92.2765 0.06 1
  92.6793 0.19 2
  92.9563 3.25 32
  93.9833 0.29 3
  94.4281 0.01 0
  94.9640 0.68 7
  95.9340 0.03 0
  96.9842 0.14 1
  97.7500 0.04 0
  97.9790 0.04 0
  98.6440 0.01 0
  98.8741 0.02 0
  99.0140 0.02 0
  99.4757 0.05 0
  100.9651 0.11 1
  101.1043 0.09 1
  101.1801 0.08 1
  101.3231 0.07 1
  101.5593 0.09 1
  101.9313 0.42 4
  102.3085 0.14 1
  102.5309 0.12 1
  102.7602 0.14 1
  102.9575 0.71 7
  103.2618 0.03 0
  103.6399 0.08 1
  103.7929 0.07 1
  103.9453 0.91 9
  104.4113 0.03 0
  104.9591 7.39 74
  105.1217 0.26 3
  105.6359 0.08 1
  105.9355 0.29 3
  106.1942 0.03 0
  106.6121 0.19 2
  106.7084 0.04 0
  106.9798 2.43 24
  107.9792 0.14 1
  108.9721 0.51 5
  109.5710 0.01 0
  109.9305 0.04 0
  110.9455 0.14 1
  111.0499 0.04 0
  112.2503 0.10 1
  112.6924 0.05 0
  112.8316 0.07 1
  112.9194 0.03 0
  113.0644 0.09 1
  113.2238 0.05 0
  113.4166 0.04 0
  113.5045 0.07 1
  113.8682 0.17 2
  114.0008 0.06 1
  114.1410 0.08 1
  114.2673 0.05 0
  114.4730 0.11 1
  114.9021 2.91 29
  115.2118 0.07 1
  115.3472 0.05 0
  115.6168 0.11 1
  115.9067 0.91 9
  116.9115 3.07 31
  117.2064 0.08 1
  117.9558 0.73 7
  118.4579 0.04 0
  118.9402 6.96 70
  119.9774 0.58 6
  120.3167 0.12 1
  120.4473 0.09 1
  120.7126 0.14 1
  120.9748 1.43 14
  121.2123 0.01 0
  121.7282 0.05 0
  121.8756 0.12 1
  122.0047 0.10 1
  122.2909 0.13 1
  122.7993 0.09 1
  122.9813 0.44 4
  123.2271 0.04 0
  123.9331 0.20 2
  124.9199 0.21 2
  125.1440 0.07 1
  125.6856 0.06 1
  125.9239 0.13 1
  126.1093 0.04 0
  126.8954 1.03 10
  127.0669 0.14 1
  127.1795 0.10 1
  127.3441 0.10 1
  127.5137 0.09 1
  127.9019 3.62 36
  128.2127 0.09 1
  128.8950 4.99 50
  129.3814 0.02 0
  129.5560 0.15 1
  129.6967 0.26 3
  129.9189 1.81 18
  130.1559 0.01 0
  130.5595 0.03 0
  130.9240 5.37 54
  131.3428 0.05 0
  131.9401 1.44 14
  132.3600 0.02 0
  132.9425 4.28 43
  133.1798 0.05 0
  133.4126 0.07 1
  133.5390 0.10 1
  133.9093 0.27 3
  134.9703 0.70 7
  135.5531 0.03 0
  135.9084 0.18 2
  136.9595 0.11 1
  137.5863 0.01 0
  137.8146 0.03 0
  137.9249 0.12 1
  138.4466 0.03 0
  138.9049 0.60 6
  139.4044 0.12 1
  139.8509 0.21 2
  140.0401 0.16 2
  140.1044 0.08 1
  140.2371 0.13 1
  140.3509 0.10 1
  140.5584 0.22 2
  140.9091 2.78 28
  141.1935 0.11 1
  141.3947 0.11 1
  141.5535 0.06 1
  141.9066 3.43 34
  142.0961 0.05 0
  142.1952 0.09 1
  142.3744 0.07 1
  142.9142 6.22 62
  143.2461 0.15 1
  143.3564 0.06 1
  143.6461 0.09 1
  143.9313 1.66 17
  144.1232 0.05 0
  144.4203 0.03 0
  144.5157 0.04 0
  144.9331 7.66 77
  145.2475 0.06 1
  145.4030 0.04 0
  145.6567 0.08 1
  145.9065 0.40 4
  146.6013 0.05 0
  146.7558 0.04 0
  146.9725 0.92 9
  147.1362 0.14 1
  147.5390 0.02 0
  147.8285 0.13 1
  148.0081 0.15 1
  148.4689 0.02 0
  148.5869 0.03 0
  148.7181 0.06 1
  148.9371 0.22 2
  149.5315 0.12 1
  149.7232 0.04 0
  149.9103 0.24 2
  150.8745 0.67 7
  151.1604 0.05 0
  151.5508 0.09 1
  151.7494 0.28 3
  151.9105 1.14 11
  152.1092 0.07 1
  152.2033 0.13 1
  152.3289 0.10 1
  152.4882 0.15 1
  152.6474 0.19 2
  152.9212 1.57 16
  153.3789 0.11 1
  153.6384 0.13 1
  153.9230 1.11 11
  154.1490 0.11 1
  154.5385 0.11 1
  154.9341 3.89 39
  155.5509 0.15 1
  155.9508 2.90 29
  156.3832 0.09 1
  156.5602 0.16 2
  156.6969 0.53 5
  156.9717 5.80 58
  157.4646 0.06 1
  157.9141 0.77 8
  158.4934 0.08 1
  158.5867 0.01 0
  158.7051 0.08 1
  158.9916 2.32 23
  159.4509 0.04 0
  159.6111 0.14 1
  160.0018 0.14 1
  160.8134 0.07 1
  161.0109 0.35 3
  161.3257 0.01 0
  161.7521 0.06 1
  161.9617 0.11 1
  162.1607 0.06 1
  162.5529 0.06 1
  162.7208 0.08 1
  162.9451 0.33 3
  163.0553 0.21 2
  163.2240 0.14 1
  163.4551 0.13 1
  163.6729 0.11 1
  163.7513 0.06 1
  163.9904 0.29 3
  164.0874 0.20 2
  164.2296 0.09 1
  164.5858 0.13 1
  164.9435 3.72 37
  165.2780 0.05 0
  165.7236 0.05 0
  165.9698 1.70 17
  166.1441 0.10 1
  166.4037 0.03 0
  166.5854 0.21 2
  166.9529 2.34 23
  167.3052 0.09 1
  167.9732 0.91 9
  168.2934 0.10 1
  168.9620 3.53 35
  169.3257 0.03 0
  169.4666 0.09 1
  169.5737 0.08 1
  169.6967 0.18 2
  169.9748 1.30 13
  170.1870 0.09 1
  170.5510 0.06 1
  170.7021 0.20 2
  170.9977 2.52 25
  171.2606 0.07 1
  171.4218 0.03 0
  171.5430 0.02 0
  171.7108 0.05 0
  172.0186 0.58 6
  172.4177 0.06 1
  172.6583 0.04 0
  173.0023 1.41 14
  173.3263 0.15 1
  173.4817 0.13 1
  173.9299 0.12 1
  174.0440 0.06 1
  174.4970 0.08 1
  174.9790 0.41 4
  175.1025 0.15 1
  175.5478 0.06 1
  175.6467 0.05 0
  175.7963 0.17 2
  175.8932 0.16 2
  175.9840 0.15 1
  176.3715 0.07 1
  176.4530 0.03 0
  176.7043 0.09 1
  176.9022 0.24 2
  177.0693 0.11 1
  177.2979 0.08 1
  177.4263 0.09 1
  177.9353 1.31 13
  178.1058 0.14 1
  178.4946 0.17 2
  178.9369 3.12 31
  179.4852 0.07 1
  179.7102 0.10 1
  179.9647 1.18 12
  180.2862 0.02 0
  180.4310 0.03 0
  180.6480 0.15 1
  180.9664 3.79 38
  181.6857 0.20 2
  181.9693 1.19 12
  182.2014 0.08 1
  182.3999 0.10 1
  182.6582 0.08 1
  182.9836 3.62 36
  183.2776 0.08 1
  183.5253 0.15 1
  183.6824 0.18 2
  184.0026 0.79 8
  184.4264 0.08 1
  184.6984 0.14 1
  185.0008 1.43 14
  185.2151 0.04 0
  185.7978 0.11 1
  186.0089 0.46 5
  186.7170 0.05 0
  186.9733 0.29 3
  187.0957 0.19 2
  187.3951 0.05 0
  187.9072 0.21 2
  188.0109 0.12 1
  188.1226 0.06 1
  188.3259 0.06 1
  188.9205 0.93 9
  189.2357 0.07 1
  189.6615 0.14 1
  189.8960 0.35 3
  190.0415 0.21 2
  190.2430 0.12 1
  190.4722 0.11 1
  190.5713 0.11 1
  190.9232 1.00 10
  191.2442 0.02 0
  191.6448 0.12 1
  191.9382 0.83 8
  192.2249 0.11 1
  192.4341 0.14 1
  192.6541 0.30 3
  192.9552 2.17 22
  193.3595 0.13 1
  193.5439 0.14 1
  193.9626 1.52 15
  194.2375 0.06 1
  194.5570 0.07 1
  194.9584 2.55 25
  195.9175 0.87 9
  196.5511 0.11 1
  196.7121 0.14 1
  196.9908 3.35 33
  197.3555 0.06 1
  197.5666 0.10 1
  197.9964 0.94 9
  198.4872 0.15 1
  198.7187 0.03 0
  198.9977 1.29 13
  199.3783 0.09 1
  199.6324 0.07 1
  199.8261 0.13 1
  200.0396 0.23 2
  200.1554 0.18 2
  200.5044 0.08 1
  200.9471 0.32 3
  201.5023 0.11 1
  201.9411 0.83 8
  202.4763 0.03 0
  202.6744 0.17 2
  202.9323 1.04 10
  203.1637 0.05 0
  203.6151 0.23 2
  203.9830 0.44 4
  204.4902 0.10 1
  204.5894 0.02 0
  204.9548 0.99 10
  205.5656 0.07 1
  205.7735 0.21 2
  205.9740 0.83 8
  206.2689 0.09 1
  206.4735 0.12 1
  206.5612 0.12 1
  206.7434 0.30 3
  206.9739 1.99 20
  207.8403 0.19 2
  207.9764 0.80 8
  208.2335 0.14 1
  208.4064 0.07 1
  208.9841 2.57 26
  209.5028 0.05 0
  209.7206 0.03 0
  210.0059 0.47 5
  210.3123 0.05 0
  210.5058 0.03 0
  210.9996 1.13 11
  211.2571 0.03 0
  211.5542 0.02 0
  211.8561 0.08 1
  212.0449 0.13 1
  212.3366 0.11 1
  212.6577 0.04 0
  212.7606 0.11 1
  213.0122 0.44 4
  213.7733 0.06 1
  213.9418 0.24 2
  214.0250 0.17 2
  214.2460 0.12 1
  214.4644 0.05 0
  214.6814 0.13 1
  214.7973 0.11 1
  214.9837 0.76 8
  215.2396 0.09 1
  215.4471 0.12 1
  215.5652 0.02 0
  215.9612 0.49 5
  216.7287 0.20 2
  216.9514 0.48 5
  217.1044 0.22 2
  217.5758 0.12 1
  217.7445 0.03 0
  218.0104 0.31 3
  218.4314 0.06 1
  218.6104 0.20 2
  218.9980 1.37 14
  219.4534 0.02 0
  219.6339 0.07 1
  219.9841 0.74 7
  220.2522 0.03 0
  220.5874 0.02 0
  220.7509 0.03 0
  221.0048 1.47 15
  221.7254 0.06 1
  221.8027 0.04 0
  222.0286 0.59 6
  222.1224 0.38 4
  222.6324 0.09 1
  223.0276 1.02 10
  223.5392 0.10 1
  223.6282 0.10 1
  223.7741 0.10 1
  224.0495 0.20 2
  224.1667 0.17 2
  224.6710 0.11 1
  225.0657 0.51 5
  225.4297 0.12 1
  225.6093 0.05 0
  225.9720 0.39 4
  226.1187 0.13 1
  226.2360 0.08 1
  226.6138 0.13 1
  227.1022 0.28 3
  227.4438 0.09 1
  227.5968 0.06 1
  227.8047 0.08 1
  227.9742 0.31 3
  228.1190 0.07 1
  228.5157 0.08 1
  228.9695 0.53 5
  229.8477 0.13 1
  229.9998 0.41 4
  230.1059 0.12 1
  230.6647 0.12 1
  230.9839 0.66 7
  231.6306 0.11 1
  231.8499 0.17 2
  232.0129 0.27 3
  232.2960 0.12 1
  232.6640 0.13 1
  232.7689 0.10 1
  233.0259 0.99 10
  233.4441 0.12 1
  234.0304 0.30 3
  234.3465 0.07 1
  234.6175 0.04 0
  234.8136 0.17 2
  235.0599 0.88 9
  235.6905 0.04 0
  235.8483 0.16 2
  236.0068 0.16 2
  236.1098 0.16 2
  236.3060 0.05 0
  236.4268 0.04 0
  236.5881 0.02 0
  236.8723 0.11 1
  237.0584 0.50 5
  237.9572 0.11 1
  238.3645 0.13 1
  238.6172 0.03 0
  238.9738 0.31 3
  239.1565 0.05 0
  239.3077 0.11 1
  239.9969 0.14 1
  240.0890 0.13 1
  240.3495 0.13 1
  240.5419 0.04 0
  241.0238 0.35 3
  241.1971 0.08 1
  241.3318 0.03 0
  242.0154 0.52 5
  242.9894 0.65 6
  243.1449 0.25 2
  243.4586 0.10 1
  243.6292 0.13 1
  243.9726 0.23 2
  244.1055 0.09 1
  244.3498 0.09 1
  244.5170 0.10 1
  245.0030 0.56 6
  246.0317 0.30 3
  246.6282 0.17 2
  247.0181 0.46 5
  247.3501 0.08 1
  248.0261 0.26 3
  248.4754 0.01 0
  249.0214 0.57 6
  249.4412 0.13 1
  249.7990 0.06 1
  249.9763 0.19 2
  250.1624 0.14 1
  250.9804 0.19 2
  251.1432 0.13 1
  251.6944 0.14 1
  251.9794 0.27 3
  252.1070 0.13 1
  252.5439 0.07 1
  252.9297 0.22 2
  253.0629 0.26 3
  253.8899 0.10 1
  254.0949 0.07 1
  254.2599 0.11 1
  254.7384 0.19 2
  254.8365 0.12 1
  255.0119 0.19 2
  255.8918 0.09 1
  256.0824 0.29 3
  256.2986 0.09 1
  256.9861 0.33 3
  257.8250 0.03 0
  258.0759 0.22 2
  259.0327 0.37 4
  259.1240 0.13 1
  260.0112 0.11 1
  260.1779 0.07 1
  260.5016 0.03 0
  260.6593 0.10 1
  261.0418 0.75 7
  261.3587 0.11 1
  261.5718 0.08 1
  261.9987 0.12 1
  262.1620 0.07 1
  262.4250 0.11 1
  262.8133 0.07 1
  263.0563 0.28 3
  263.2169 0.11 1
  263.7832 0.10 1
  263.9459 0.12 1
  264.1169 0.11 1
  264.6390 0.03 0
  265.0865 0.53 5
  265.9967 0.20 2
  267.1053 0.39 4
  267.9135 0.11 1
  268.0230 0.18 2
  268.6004 0.10 1
  268.8466 0.15 1
  269.0483 0.41 4
  269.1676 0.28 3
  269.7980 0.09 1
  270.0560 0.27 3
  270.9855 0.44 4
  271.1201 0.13 1
  271.7209 0.07 1
  272.0688 0.17 2
  272.9994 0.23 2
  273.1227 0.19 2
  273.7010 0.12 1
  273.8763 0.11 1
  274.0238 0.16 2
  274.6535 0.09 1
  275.0526 0.42 4
  275.2494 0.19 2
  275.8703 0.17 2
  276.0893 0.21 2
  276.6466 0.11 1
  277.0806 0.41 4
  278.0076 0.27 3
  278.0950 0.12 1
  278.8856 0.12 1
  279.0111 0.28 3
  279.1616 0.14 1
  279.3163 0.14 1
  279.4890 0.11 1
  279.7332 0.02 0
  280.0593 0.24 2
  280.2626 0.01 0
  281.0377 0.27 3
  281.1688 0.14 1
  281.2826 0.09 1
  281.8156 0.19 2
  282.0156 0.01 0
  282.1440 0.10 1
  283.0298 0.19 2
  283.1423 0.06 1
  283.3457 0.05 0
  284.0061 0.08 1
  284.1332 0.07 1
  284.3811 0.09 1
  284.9979 0.28 3
  285.1570 0.15 1
  285.5669 0.09 1
  285.8837 0.24 2
  286.0720 0.14 1
  286.5507 0.12 1
  286.7738 0.11 1
  286.9225 0.08 1
  287.1074 0.24 2
  287.2617 0.05 0
  287.5772 0.08 1
  287.9338 0.21 2
  288.0379 0.03 0
  288.6136 0.08 1
  289.0455 0.30 3
  289.6316 0.08 1
  290.0143 0.12 1
  291.1585 0.12 1
  292.0236 0.11 1
  292.6130 0.09 1
  293.1120 0.20 2
  293.2316 0.08 1
  293.9998 0.06 1
  294.2779 0.08 1
  295.0497 0.12 1
  295.2298 0.06 1
  295.3953 0.04 0
  296.0686 0.11 1
  296.9562 0.11 1
  297.1364 0.12 1
  297.2895 0.11 1
  297.5872 0.08 1
  297.7424 0.10 1
  297.9790 0.20 2
  298.1745 0.18 2
  298.6645 0.04 0
  299.0215 0.43 4
  299.9480 0.07 1
  300.1304 0.10 1
  300.6254 0.11 1
  300.9011 0.04 0
  301.1128 0.21 2
  301.5515 0.11 1
  301.8691 0.07 1
  302.0223 0.19 2
  302.1393 0.20 2
  302.6296 0.03 0
  303.0288 0.40 4
  303.1180 0.16 2
  304.0264 0.16 2
  304.2041 0.10 1
  304.9065 0.07 1
  305.0961 0.14 1
  305.2919 0.04 0
  305.6244 0.13 1
  306.1332 0.06 1
  306.6476 0.08 1
  306.7368 0.02 0
  306.9537 0.20 2
  307.0952 0.11 1
  307.1935 0.09 1
  307.9689 0.08 1
  309.0401 0.14 1
  309.9727 0.11 1
  310.4694 0.02 0
  311.0520 0.27 3
  311.1720 0.13 1
  312.0163 0.10 1
  312.5279 0.02 0
  312.8462 0.13 1
  312.9537 0.12 1
  313.0416 0.10 1
  313.9219 0.11 1
  314.0099 0.12 1
  314.5314 0.03 0
  314.9874 0.13 1
  315.7863 0.16 2
  316.0237 0.03 0
  316.1606 0.12 1
  316.3534 0.13 1
  317.1364 0.20 2
  317.9734 0.11 1
  318.1138 0.07 1
  318.8503 0.09 1
  319.0683 0.16 2
  319.1682 0.11 1
  320.1223 0.06 1
  320.8227 0.09 1
  321.0569 0.07 1
  322.0839 0.19 2
  322.3720 0.12 1
  322.9286 0.09 1
  323.1286 0.02 0
  323.5398 0.10 1
  323.8896 0.11 1
  325.8399 0.12 1
  325.9372 0.10 1
  326.6586 0.11 1
  327.0540 0.18 2
  327.4928 0.06 1
  328.1221 0.24 2
  329.0433 0.14 1
  330.9310 0.09 1
  331.0179 0.10 1
  331.1495 0.26 3
  331.2565 0.13 1
  332.1019 0.10 1
  332.2859 0.10 1
  333.2546 0.24 2
  334.9005 0.08 1
  335.0034 0.07 1
  335.1637 0.27 3
  335.8584 0.05 0
  336.0523 0.21 2
  337.1568 0.02 0
  337.9827 0.08 1
  338.1473 0.07 1
  338.8241 0.22 2
  339.0588 0.18 2
  339.9017 0.10 1
  340.1042 0.12 1
  340.9515 0.16 2
  341.2248 0.14 1
  341.9124 0.06 1
  342.0744 0.14 1
  342.8623 0.06 1
  343.0124 0.15 1
  343.4099 0.07 1
  343.6069 0.12 1
  344.0704 0.13 1
  344.3032 0.12 1
  345.1531 0.15 1
  345.9962 0.12 1
  346.1947 0.20 2
  346.8204 0.11 1
  347.0786 0.16 2
  347.5956 0.08 1
  347.9829 0.10 1
  349.0487 0.07 1
  350.0979 0.14 1
  350.5338 0.07 1
  351.1108 0.03 0
  351.9995 0.12 1
  353.0450 0.11 1
  353.2514 0.09 1
  354.2149 0.14 1
  354.4073 0.10 1
  354.7528 0.06 1
  354.8708 0.10 1
  355.0717 0.07 1
  355.2796 0.14 1
  356.1830 0.06 1
  356.3291 0.07 1
  357.0976 0.16 2
  357.2023 0.22 2
  358.0223 0.13 1
  359.2057 0.15 1
  359.9771 0.07 1
  360.2326 0.06 1
  361.1608 0.01 0
  361.2903 0.11 1
  362.0948 0.08 1
  363.0359 0.05 0
  363.8252 0.01 0
  364.2111 0.10 1
  364.9122 0.08 1
  365.1188 0.18 2
  365.2435 0.12 1
  366.8065 0.09 1
  367.2661 0.12 1
  367.3698 0.09 1
  367.9963 0.09 1
  369.0250 0.06 1
  369.1323 0.06 1
  369.3005 0.14 1
  369.5339 0.03 0
  369.7210 0.08 1
  370.0568 0.11 1
  370.1913 0.17 2
  370.9842 0.12 1
  371.1194 0.23 2
  372.0056 0.03 0
  372.3458 0.10 1
  373.0895 0.10 1
  375.1486 0.08 1
  376.1235 0.10 1
  377.0873 0.10 1
  377.8821 0.08 1
  378.1538 0.04 0
  379.1277 0.04 0
  380.0505 0.17 2
  380.2640 0.09 1
  381.0219 0.09 1
  381.1567 0.10 1
  383.6920 0.10 1
  383.8705 0.07 1
  384.0237 0.20 2
  384.1720 0.23 2
  384.2703 0.12 1
  384.4165 0.09 1
  385.1058 0.11 1
  385.2330 0.12 1
  386.1846 0.12 1
  387.0294 0.18 2
  387.1939 0.12 1
  388.0107 0.09 1
  388.6139 0.04 0
  389.7796 0.08 1
  390.0208 0.12 1
  392.1185 0.05 0
  392.9661 0.10 1
  393.2474 0.11 1
  393.3515 0.08 1
  393.9713 0.13 1
  394.8274 0.12 1
  395.0955 0.30 3
  396.0305 0.14 1
  396.1664 0.11 1
  397.0016 0.08 1
  397.1205 0.15 1
  397.9306 0.15 1
  398.1839 0.03 0
  398.9877 0.12 1
  399.2193 0.17 2
  400.1140 0.10 1
  400.3307 0.03 0
  401.0883 0.11 1
  401.1749 0.11 1
  401.3016 0.12 1
  401.5241 0.01 0
  403.2027 0.07 1
  404.0524 0.10 1
  404.4622 0.10 1
  405.5953 0.10 1
  406.0873 0.12 1
  407.2846 0.09 1
  407.7072 0.01 0
  408.0862 0.25 2
  408.2352 0.41 4
  408.3780 0.27 3
  408.9110 0.18 2
  409.0320 0.11 1
  409.1543 0.06 1
  409.2788 0.07 1
  409.8667 0.05 0
  410.1220 0.22 2
  410.2662 0.14 1
  410.9723 0.16 2
  411.1263 0.16 2
  411.5512 0.05 0
  412.2159 0.16 2
  412.8005 0.09 1
  413.2620 0.08 1
  413.4154 0.11 1
  413.5068 0.13 1
  414.8788 0.07 1
  416.5691 0.10 1
  417.0195 0.14 1
  417.1265 0.11 1
  417.2271 0.06 1
  417.8718 0.03 0
  418.2012 0.10 1
  418.3568 0.12 1
  418.9129 0.10 1
  421.3623 0.10 1
  421.4544 0.10 1
  421.9542 0.07 1
  422.1405 0.11 1
  422.3093 0.09 1
  422.7719 0.14 1
  422.8936 0.10 1
  422.9969 0.21 2
  423.1312 0.36 4
  423.2458 0.32 3
  424.2085 0.69 7
  425.2303 0.04 0
  425.3899 0.04 0
  426.1200 0.15 1
  426.6707 0.08 1
  428.3132 0.14 1
  429.4845 0.01 0
  429.9953 0.04 0
  431.1971 0.10 1
  432.3533 0.13 1
  432.7228 0.05 0
  434.3556 0.09 1
  434.7646 0.11 1
  435.2242 0.12 1
  436.9807 0.10 1
  437.1384 0.18 2
  437.3975 0.11 1
  438.0037 0.07 1
  438.3670 0.02 0
  439.2155 0.12 1
  440.0190 0.01 0
  441.2529 0.13 1
  441.5733 0.08 1
  441.7255 0.04 0
  442.0706 0.12 1
  442.2185 0.26 3
  443.3357 0.26 3
  443.4871 0.05 0
  443.9978 0.11 1
  446.3503 0.11 1
  447.2388 0.10 1
  448.0288 0.10 1
  450.0331 0.08 1
  450.1755 0.07 1
  451.0255 0.19 2
  451.1933 0.20 2
  451.3336 0.11 1
  451.6881 0.17 2
  451.9842 0.13 1
  452.4213 0.12 1
  452.5108 0.08 1
  453.2236 0.11 1
  453.3314 0.14 1
  453.6861 0.09 1
  455.8795 0.11 1
  457.0492 0.01 0
  457.7357 0.03 0
  458.4998 0.07 1
  458.8649 0.11 1
  460.0581 0.11 1
  460.1594 0.14 1
  460.3199 0.34 3
  462.0804 0.05 0
  462.2366 0.13 1
  463.0586 0.06 1
  463.5364 0.13 1
  464.9082 0.18 2
  465.1489 0.09 1
  465.2615 0.21 2
  465.9295 0.11 1
  466.0907 0.07 1
  466.2294 0.12 1
  466.3575 0.26 3
  467.0551 0.07 1
  467.3649 0.09 1
  468.2209 0.08 1
  468.5983 0.08 1
  469.2777 0.15 1
  470.4649 0.10 1
  472.1317 0.23 2
  472.2500 0.16 2
  473.0282 0.11 1
  473.1663 0.08 1
  473.3811 0.13 1
  473.5057 0.06 1
  473.7015 0.12 1
  473.9044 0.23 2
  474.2580 3.22 32
  474.7144 0.28 3
  474.8236 0.17 2
  475.4533 0.04 0
  475.9830 0.11 1
  476.1197 0.11 1
  476.2648 0.06 1
  476.8044 0.11 1
  476.8939 0.09 1
  477.0742 0.12 1
  477.2271 0.12 1
  477.3913 0.14 1
  477.4659 0.05 0
  477.9020 0.18 2
  478.1409 0.49 5
  478.2755 0.33 3
  478.6538 0.08 1
  479.1223 0.06 1
  479.2626 0.12 1
  479.4281 0.13 1
  479.7206 0.11 1
  479.9637 0.16 2
  480.1433 0.11 1
  480.7557 0.03 0
  481.0967 0.09 1
  481.3166 0.13 1
  481.9452 0.11 1
  482.0876 0.08 1
  482.2793 0.21 2
  482.4167 0.10 1
  482.7570 0.02 0
  483.0789 0.11 1
  483.2487 0.14 1
  484.3284 0.15 1
  485.0392 0.13 1
  486.9271 0.12 1
  487.2462 0.15 1
  487.4104 0.12 1
  488.2925 0.04 0
  488.7956 0.01 0
  489.4487 0.04 0
  489.9398 0.11 1
  490.2499 0.06 1
  490.3929 0.11 1
  490.6283 0.13 1
  491.1322 0.11 1
  491.5035 0.07 1
  491.9250 0.15 1
  492.1709 0.34 3
  492.5459 0.14 1
  492.7249 0.17 2
  493.2499 3.91 39
  493.6355 0.22 2
  494.1620 0.15 1
  494.8330 0.06 1
  495.0106 0.20 2
  495.3448 0.07 1
  495.6028 0.07 1
  495.7769 0.10 1
  495.9059 0.07 1
  496.1462 0.13 1
  496.3218 0.18 2
  497.2432 1.13 11
  498.3867 0.16 2
  499.9653 0.01 0
  500.2770 0.10 1
  501.1337 0.07 1
  501.3989 0.05 0
  502.9553 0.10 1
  503.5498 0.08 1
  503.8700 0.11 1
  504.0407 0.14 1
  504.8080 0.06 1
  506.0735 0.09 1
  506.2117 0.14 1
  506.4692 0.11 1
  506.7824 0.06 1
  506.9735 0.13 1
  507.1506 0.04 0
  507.5252 0.13 1
  508.4409 0.03 0
  509.4645 0.14 1
  510.2493 0.13 1
  510.4619 0.18 2
  510.5618 0.11 1
  511.2981 0.26 3
  512.2977 0.07 1
  513.0614 0.01 0
  516.2169 0.13 1
  517.0203 0.10 1
  518.1343 0.11 1
  518.4040 0.11 1
  519.3624 0.12 1
  519.9532 0.08 1
  520.8646 0.11 1
  521.1794 0.14 1
  521.8541 0.01 0
  522.2444 0.11 1
  522.4796 0.12 1
  522.6240 0.07 1
  522.8663 0.12 1
  523.0713 0.05 0
  523.3256 0.01 0
  524.0152 0.11 1
  524.2188 0.14 1
  524.3857 0.05 0
  525.2508 0.10 1
  525.9947 0.07 1
  526.4294 0.14 1
  526.6238 0.22 2
  527.2206 0.11 1
  527.3911 0.07 1
  528.1668 0.09 1
  528.4282 0.11 1
  528.7756 0.11 1
  529.4252 0.05 0
  529.7141 0.11 1
  530.0037 0.13 1
  530.3025 0.21 2
  530.6978 0.15 1
  531.3137 0.11 1
  531.4857 0.06 1
  532.3363 0.07 1
  533.3215 0.12 1
  533.6084 0.02 0
  533.8536 0.13 1
  534.0362 0.11 1
  534.3012 0.47 5
  534.5056 0.25 2
  534.9525 0.06 1
  535.0977 0.35 3
  535.2823 0.61 6
  535.4734 0.37 4
  535.7990 0.12 1
  536.2783 1.06 11
  537.1637 0.11 1
  537.4534 0.10 1
  537.7601 0.10 1
  538.2754 0.13 1
  538.9324 0.10 1
  539.8229 0.09 1
  540.3777 0.07 1
  541.2407 0.08 1
  541.7808 0.08 1
  543.1650 0.12 1
  543.6043 0.11 1
  543.9816 0.18 2
  544.2073 0.12 1
  544.6106 0.12 1
  544.7820 0.08 1
  545.0013 0.11 1
  545.1437 0.26 3
  545.3539 0.09 1
  545.5937 0.23 2
  545.7601 0.12 1
  545.9802 0.13 1
  546.1692 0.20 2
  546.4809 0.14 1
  546.6501 0.26 3
  546.9330 0.08 1
  547.1587 0.12 1
  547.2483 0.10 1
  547.5374 0.25 2
  548.0424 0.90 9
  548.2710 0.63 6
  548.4543 0.32 3
  549.0003 0.35 3
  549.3636 0.12 1
  549.4447 0.07 1
  549.6379 0.37 4
  549.7106 0.13 1
  549.8404 0.19 2
  550.0069 0.14 1
  550.2911 0.22 2
  550.5726 0.39 4
  550.7666 0.18 2
  551.1518 0.52 5
  551.4516 0.27 3
  551.8248 0.22 2
  552.1218 0.07 1
  552.3290 0.30 3
  552.4761 0.34 3
  552.6415 0.19 2
  552.9440 0.19 2
  553.1896 0.13 1
  553.4831 0.08 1
  553.6991 0.13 1
  554.0165 0.16 2
  554.1248 0.04 0
  554.2853 0.03 0
  554.5358 0.14 1
  554.8004 0.05 0
  555.2029 0.25 2
  555.3071 0.11 1
  555.4598 0.08 1
  555.5970 0.15 1
  555.8321 0.12 1
  555.9714 0.24 2
  556.1059 0.19 2
  556.1924 0.13 1
  556.4803 0.39 4
  556.7386 0.22 2
  556.9948 0.22 2
  557.1313 0.22 2
  557.3298 0.13 1
  557.5930 0.35 3
  557.7887 0.22 2
  557.9083 0.21 2
  558.1357 0.19 2
  558.2856 0.14 1
  558.4088 0.15 1
  558.6072 0.57 6
  558.9106 0.30 3
  559.2119 0.23 2
  559.4406 0.04 0
  559.5976 0.28 3
  559.8172 0.39 4
  559.9045 0.20 2
  560.1143 0.22 2
  560.2867 0.20 2
  560.6211 0.36 4
  560.9006 0.22 2
  561.0371 0.12 1
  561.3180 0.33 3
  561.5081 0.41 4
  561.7819 0.31 3
  561.9945 0.58 6
  562.3423 0.73 7
  562.5696 0.41 4
  562.8041 0.90 9
  562.9329 0.71 7
  563.2054 1.16 12
  566.3188 99.97 999
  566.8201 9.64 96
  567.5686 4.76 48
  568.2355 2.78 28
  568.7087 2.01 20
  569.2347 1.25 12
  569.8312 0.89 9
  570.6749 0.61 6
  570.9088 0.51 5
  571.2531 0.54 5
  571.6602 0.24 2
  571.8342 0.15 1
  572.0574 0.11 1
  572.2645 0.17 2
  572.3772 0.10 1
  572.4828 0.03 0
  572.6399 0.10 1
  572.7843 0.27 3
  572.9019 0.12 1
  573.0125 0.06 1
  573.2175 0.19 2
  573.5689 0.07 1
  573.7943 0.15 1
  573.9316 0.20 2
//
