ACCESSION: MSBNK-Kyoto_Univ-CA000078
RECORD_TITLE: Mactraxanthin; FAB-EBEB; MS2; m/z: 636.44; [M]+*
DATE: 2016.01.19 (Created 2010.04.01, modified 2011.05.10)
AUTHORS: Akimoto N, Graduate School of Pharmaceutical Sciences, Kyoto University and Maoka T, Research Institute for Production Development
LICENSE: CC BY-SA
PUBLICATION: Takashi Maoka, Yasuhiro Fujiwara, Keiji Hashimoto, and Naoshige Akimoto, Characterizatoin of Fucoxanthin and Fucoxanthinol Esters in the Chinese Surf Clam, Mactra chinensis, J. Agric. Food Chem, 55, 1563 ? 1567 (2007).
COMMENT: Profile spectrum of this record is given as a JPEG file.
COMMENT: [Profile] CA000078.jpg
CH$NAME: Mactraxanthin
CH$COMPOUND_CLASS: N/A
CH$FORMULA: C40H60O6
CH$EXACT_MASS: 636.43899
CH$SMILES: CC(C=CC(C(C)(O)2)(C(C)(C)CC(O)C2)O)=CC=CC(=CC=CC=C(C=CC=C(C)C=CC(C(C)(O)1)(C(C)(C)CC(O)C1)O)C)C
CH$IUPAC: InChI=1S/C40H60O6/c1-29(17-13-19-31(3)21-23-39(45)35(5,6)25-33(41)27-37(39,9)43)15-11-12-16-30(2)18-14-20-32(4)22-24-40(46)36(7,8)26-34(42)28-38(40,10)44/h11-24,33-34,41-46H,25-28H2,1-10H3/b12-11+,17-13+,18-14+,23-21+,24-22+,29-15+,30-16+,31-19+,32-20+/t33-,34-,37+,38+,39+,40+/m0/s1
CH$LINK: CAS 86105-69-3
CH$LINK: INCHIKEY QOXCNWZDKKXAOL-AOXVFRMFSA-N
AC$INSTRUMENT: JMS-HX/HX 110A, JEOL
AC$INSTRUMENT_TYPE: FAB-EBEB
AC$MASS_SPECTROMETRY: MS_TYPE MS2
AC$MASS_SPECTROMETRY: ION_MODE POSITIVE
AC$MASS_SPECTROMETRY: ATOM_GUN_CURRENT 5 mA
AC$MASS_SPECTROMETRY: BOMBARDMENT 6 kV xenon
AC$MASS_SPECTROMETRY: COLLISION_ENERGY 3 kV
AC$MASS_SPECTROMETRY: COLLISION_GAS Ar
AC$MASS_SPECTROMETRY: GAS_PRESSURE adjust to attenuate the intensity of the precursor ion by 30 %
AC$MASS_SPECTROMETRY: IONIZATION FAB
AC$MASS_SPECTROMETRY: MATRIX 1-2 uL m-NBA
AC$MASS_SPECTROMETRY: PROBE_TIP stainless-steel
MS$FOCUSED_ION: BASE_PEAK 42.9800
MS$FOCUSED_ION: PRECURSOR_M/Z 636.44
MS$FOCUSED_ION: PRECURSOR_TYPE [M]+*
MS$DATA_PROCESSING: RELATIVE_M/Z normalised by peak(m/z=42.9800).  set 999 for peak(m/z=636.5712,rel=4165).
PK$SPLASH: splash10-000i-5921117000-6b01587ac415ec6599b3
PK$NUM_PEAK: 1380
PK$PEAK: m/z int. rel.int.
  11.7374 0.01 0
  15.0014 0.10 4
  19.0003 0.06 2
  22.9603 0.71 30
  25.9868 0.23 10
  26.9782 0.33 14
  27.9956 0.08 3
  28.9995 0.87 36
  29.9668 0.03 1
  30.9789 0.38 16
  36.9516 0.16 7
  37.9697 0.18 7
  38.9654 1.44 60
  39.7099 0.06 2
  39.9804 0.19 8
  40.8169 0.11 5
  40.9982 5.58 232
  42.0143 0.41 17
  42.9800 23.98 999
  43.8961 0.06 2
  43.9914 0.26 11
  44.9711 0.39 16
  46.9877 0.09 4
  48.9946 0.02 1
  49.2716 0.06 2
  49.9805 0.68 28
  50.9804 1.26 52
  51.9789 0.43 18
  52.8410 0.07 3
  52.9925 2.81 117
  53.9905 0.11 5
  55.0040 6.02 251
  55.9998 0.36 15
  57.0183 3.82 159
  57.3213 0.08 3
  57.9173 0.09 4
  58.0216 0.24 10
  59.0110 1.72 72
  60.9752 0.73 30
  61.9840 0.16 7
  62.9891 0.75 31
  63.2048 0.07 3
  63.9823 0.16 7
  64.2710 0.03 1
  64.9943 0.97 40
  66.0235 0.50 21
  66.3148 0.04 2
  67.0074 3.40 142
  67.9928 0.33 14
  68.6839 0.07 3
  69.0023 5.26 219
  70.0053 0.47 20
  70.9934 2.47 103
  72.0213 0.11 5
  72.5395 0.01 0
  72.9897 0.46 19
  73.9061 0.08 3
  74.0162 0.17 7
  75.0154 0.39 16
  75.2862 0.13 5
  75.9818 0.38 16
  76.5413 0.07 3
  76.9882 3.99 166
  78.0036 1.50 62
  78.2114 0.06 2
  78.6255 0.10 4
  78.9916 4.00 167
  79.8115 0.04 2
  80.0122 1.19 50
  80.5943 0.04 2
  81.0070 6.45 269
  81.6308 0.08 3
  81.9912 0.72 30
  83.0287 12.26 511
  84.0180 0.41 17
  85.0043 6.14 256
  86.0232 0.42 17
  86.9822 3.60 150
  88.0092 0.15 6
  88.3025 0.09 4
  88.6545 0.12 5
  88.9621 0.74 31
  89.6932 0.12 5
  89.7571 0.04 2
  89.9298 0.22 9
  90.0867 0.04 2
  90.4356 0.10 4
  90.6086 0.10 4
  90.7162 0.07 3
  91.0089 8.69 362
  91.9988 1.53 64
  93.0096 5.59 233
  93.9770 0.47 20
  94.2380 0.13 5
  94.3359 0.12 5
  95.0140 4.56 190
  95.4472 0.10 4
  95.7392 0.10 4
  96.0146 0.80 33
  96.7606 0.06 2
  97.0171 1.95 81
  97.6284 0.09 4
  98.0271 0.52 22
  99.0124 1.22 51
  100.0207 0.14 6
  100.9704 0.24 10
  101.3049 0.09 4
  101.6384 0.05 2
  102.0181 0.42 17
  103.0239 1.72 72
  103.4026 0.10 4
  103.4848 0.10 4
  103.6879 0.02 1
  104.0344 0.80 33
  104.5881 0.10 4
  105.0280 9.98 416
  105.2542 0.11 5
  105.5255 0.11 5
  106.0234 0.97 40
  106.6182 0.09 4
  107.0310 6.10 254
  107.4907 0.13 5
  108.0227 0.94 39
  109.0395 5.57 232
  109.5137 0.11 5
  109.9348 0.11 5
  110.0685 0.20 8
  110.2861 0.08 3
  111.0176 1.64 68
  111.8815 0.11 5
  112.0109 0.14 6
  112.3070 0.01 0
  112.7280 0.06 2
  113.0342 2.62 109
  113.7996 0.05 2
  113.9391 0.23 10
  114.0448 0.14 6
  114.4235 0.10 4
  114.6053 0.03 1
  115.0239 3.34 139
  115.2454 0.20 8
  115.3208 0.08 3
  115.6262 0.17 7
  116.0170 2.08 87
  116.2146 0.07 3
  116.6023 0.27 11
  117.0201 3.30 137
  117.5112 0.04 2
  118.0436 0.92 38
  118.1744 0.04 2
  118.6093 0.08 3
  119.0222 9.20 383
  119.4806 0.06 2
  120.0210 1.44 60
  120.4320 0.15 6
  121.0221 5.34 222
  121.2275 0.12 5
  121.4547 0.05 2
  121.9925 0.83 35
  123.0189 3.37 140
  123.6422 0.10 4
  123.8379 0.13 5
  123.9922 0.45 19
  124.3369 0.03 1
  125.0112 5.97 249
  125.4688 0.05 2
  125.6285 0.02 1
  125.9936 0.56 23
  126.2055 0.07 3
  126.5427 0.07 3
  127.0028 1.27 53
  127.4236 0.05 2
  128.0098 5.15 215
  128.4171 0.23 10
  128.6629 0.10 4
  129.0119 6.41 267
  129.3604 0.09 4
  129.6029 0.12 5
  130.0033 3.12 130
  130.2560 0.12 5
  131.0187 6.37 265
  131.4610 0.02 1
  132.0177 1.80 75
  132.1788 0.14 6
  132.5770 0.10 4
  133.0273 6.97 290
  133.2894 0.18 7
  134.0004 0.76 32
  135.0267 2.55 106
  135.7885 0.17 7
  135.9931 0.51 21
  137.0198 1.23 51
  137.5047 0.02 1
  137.9313 0.18 7
  138.0800 0.11 5
  138.4203 0.11 5
  138.7207 0.13 5
  139.0191 1.17 49
  139.2819 0.10 4
  139.4166 0.12 5
  139.8021 0.10 4
  140.0092 0.52 22
  140.1103 0.22 9
  140.2336 0.16 7
  140.3699 0.14 6
  140.9969 3.42 142
  141.2976 0.11 5
  141.4376 0.12 5
  141.6473 0.01 0
  142.0043 3.39 141
  142.5031 0.10 4
  142.6576 0.06 2
  143.0150 6.26 261
  143.3402 0.13 5
  143.6324 0.22 9
  144.0349 2.41 100
  144.2697 0.07 3
  144.5189 0.12 5
  145.0306 11.28 470
  145.3219 0.05 2
  145.5275 0.17 7
  146.0383 1.87 78
  146.1913 0.23 10
  146.3421 0.09 4
  147.0232 2.80 117
  147.2811 0.08 3
  147.6244 0.13 5
  148.0228 0.75 31
  148.6855 0.10 4
  149.0149 1.60 67
  149.3516 0.11 5
  149.8210 0.10 4
  150.0072 0.34 14
  150.1478 0.12 5
  150.6002 0.14 6
  151.0513 0.98 41
  151.2567 0.16 7
  151.6268 0.14 6
  151.7669 0.11 5
  152.0152 1.46 61
  152.4343 0.04 2
  152.6559 0.13 5
  153.0316 2.72 113
  153.2468 0.15 6
  153.6984 0.14 6
  153.9989 0.89 37
  154.3358 0.11 5
  154.4952 0.14 6
  155.0399 4.62 192
  156.0462 2.18 91
  156.3758 0.05 2
  157.0462 6.56 273
  157.2972 0.19 8
  157.7060 0.05 2
  158.0471 1.94 81
  158.2728 0.20 8
  159.0460 5.75 240
  159.5030 0.06 2
  159.6010 0.04 2
  159.8358 0.31 13
  160.0693 0.86 36
  160.2954 0.13 5
  161.0693 2.01 84
  161.3169 0.14 6
  162.0746 0.64 27
  162.4603 0.06 2
  163.0654 0.86 36
  163.9058 0.25 10
  164.0277 0.32 13
  164.3825 0.05 2
  164.4985 0.07 3
  165.0658 2.46 102
  165.6135 0.05 2
  166.0629 0.98 41
  166.2777 0.05 2
  166.5845 0.18 7
  167.0593 2.48 103
  167.3089 0.13 5
  167.6521 0.01 0
  168.0816 1.34 56
  168.6867 0.14 6
  169.0841 3.54 147
  169.3526 0.11 5
  170.0933 1.57 65
  170.6160 0.05 2
  171.0871 3.65 152
  171.4610 0.03 1
  172.0914 0.83 35
  173.0905 1.68 70
  173.4004 0.10 4
  173.5907 0.03 1
  173.8925 0.13 5
  174.0290 0.24 10
  174.1582 0.42 17
  174.3450 0.11 5
  174.8109 0.09 4
  175.1078 1.21 50
  175.7742 0.16 7
  176.0321 1.10 46
  177.0370 0.62 26
  177.4824 0.14 6
  177.7259 0.08 3
  177.8488 0.21 9
  178.0953 1.05 44
  179.0728 2.28 95
  179.6790 0.10 4
  180.0741 1.13 47
  180.6309 0.09 4
  181.0886 3.98 166
  181.7357 0.11 5
  182.0727 1.40 58
  182.4076 0.06 2
  183.0836 3.39 141
  183.4506 0.06 2
  184.1159 0.91 38
  185.1110 2.49 104
  186.0659 0.69 29
  186.3667 0.10 4
  186.6095 0.09 4
  187.0661 1.39 58
  187.5809 0.15 6
  188.1400 0.21 9
  189.0721 0.68 28
  190.0497 0.60 25
  191.0540 0.78 32
  191.1869 0.27 11
  191.3087 0.14 6
  191.4969 0.18 7
  192.0454 0.82 34
  192.3683 0.05 2
  192.5186 0.10 4
  193.0794 2.38 99
  193.5596 0.25 10
  194.0864 1.18 49
  194.3648 0.14 6
  195.0873 3.34 139
  195.2977 0.17 7
  196.1060 0.93 39
  196.3937 0.13 5
  197.0998 2.44 102
  197.4035 0.04 2
  198.1010 0.89 37
  198.3922 0.05 2
  199.1179 1.86 77
  199.4955 0.11 5
  199.7012 0.09 4
  200.1285 0.54 22
  200.7242 0.03 1
  200.8925 0.14 6
  201.1195 0.94 39
  201.2661 0.22 9
  202.0825 0.51 21
  203.1024 0.78 32
  204.0672 0.58 24
  205.0800 0.76 32
  206.0767 0.82 34
  207.0710 1.60 67
  207.8041 0.17 7
  208.1074 0.67 28
  208.2560 0.35 15
  208.4258 0.12 5
  209.0930 3.09 129
  209.6267 0.11 5
  209.7271 0.09 4
  209.8699 0.15 6
  210.0851 0.72 30
  211.0944 1.15 48
  211.7036 0.01 0
  211.9281 0.19 8
  212.0936 0.62 26
  213.0949 0.86 36
  213.6638 0.13 5
  214.0732 0.31 13
  214.1974 0.22 9
  214.6319 0.07 3
  215.0975 0.80 33
  215.9079 0.18 7
  216.0874 0.41 17
  216.6443 0.04 2
  216.7853 0.09 4
  217.1362 0.90 37
  217.6153 0.10 4
  217.7707 0.12 5
  218.0414 0.16 7
  218.1590 0.17 7
  218.4092 0.04 2
  219.0943 0.92 38
  219.5806 0.10 4
  219.7651 0.13 5
  220.0763 0.54 22
  220.5120 0.18 7
  220.6183 0.05 2
  220.7755 0.11 5
  221.1195 3.15 131
  222.0675 0.42 17
  222.1830 0.32 13
  222.3684 0.12 5
  222.6321 0.12 5
  222.7484 0.13 5
  223.1231 1.28 53
  224.1199 0.52 22
  224.3580 0.08 3
  225.1408 1.66 69
  225.3866 0.11 5
  225.5776 0.08 3
  225.9323 0.11 5
  226.1416 0.53 22
  226.9189 0.09 4
  227.1322 0.60 25
  227.2814 0.22 9
  227.6691 0.09 4
  228.1102 0.58 24
  228.3236 0.11 5
  228.5164 0.12 5
  229.1002 0.43 18
  229.6864 0.10 4
  230.0898 0.11 5
  230.2377 0.18 7
  231.0890 0.42 17
  231.2179 0.29 12
  232.1413 0.66 27
  232.6580 0.10 4
  232.7771 0.12 5
  233.1559 2.18 91
  233.8233 0.03 1
  234.1464 0.61 25
  234.8012 0.17 7
  235.1581 0.68 28
  235.9056 0.06 2
  236.0088 0.07 3
  236.1686 0.24 10
  236.2710 0.17 7
  237.1875 0.76 32
  237.6954 0.03 1
  238.0815 0.16 7
  238.2180 0.07 3
  238.8704 0.13 5
  239.1719 0.69 29
  239.7032 0.04 2
  240.0650 0.36 15
  240.2903 0.30 12
  240.6087 0.16 7
  240.9402 0.15 6
  241.1258 0.34 14
  241.8974 0.11 5
  242.0930 0.54 22
  242.2359 0.28 12
  243.0361 0.32 13
  243.1791 0.70 29
  243.4933 0.06 2
  244.1578 0.42 17
  245.1911 0.51 21
  246.1691 0.87 36
  246.3627 0.08 3
  247.1596 0.72 30
  248.0195 0.15 6
  248.1896 0.19 8
  248.5189 0.18 7
  248.6737 0.09 4
  248.9679 0.11 5
  249.1801 0.61 25
  249.9012 0.14 6
  250.1388 0.43 18
  251.1530 0.80 33
  252.0043 0.13 5
  252.1393 0.25 10
  252.2428 0.07 3
  252.8312 0.12 5
  253.1343 0.62 26
  253.2640 0.13 5
  253.8549 0.15 6
  254.2172 0.56 23
  255.0064 0.13 5
  255.2298 0.29 12
  255.8726 0.13 5
  256.1399 0.32 13
  256.2567 0.13 5
  256.9012 0.10 4
  257.0956 0.39 16
  257.2593 0.22 9
  258.0886 0.30 12
  258.2469 0.21 9
  259.1895 0.46 19
  259.7255 0.01 0
  260.1631 0.29 12
  261.1271 0.29 12
  261.2879 0.23 10
  262.0305 0.10 4
  262.2114 0.23 10
  263.1737 0.57 24
  264.1540 0.15 6
  264.5091 0.14 6
  264.9050 0.13 5
  265.1630 0.36 15
  265.3487 0.16 7
  265.5097 0.13 5
  265.8780 0.07 3
  266.1739 0.26 11
  266.8259 0.09 4
  267.0563 0.48 20
  267.1797 0.30 12
  267.3161 0.15 6
  267.4926 0.12 5
  268.0061 0.04 2
  268.1758 0.31 13
  268.2698 0.14 6
  268.5497 0.11 5
  268.9724 0.13 5
  269.2547 0.13 5
  269.3519 0.10 4
  270.0986 0.47 20
  270.3633 0.14 6
  271.1574 0.41 17
  271.6576 0.11 5
  272.1284 0.30 12
  272.2929 0.12 5
  272.4033 0.11 5
  273.2126 0.42 17
  273.9193 0.09 4
  274.2028 0.32 13
  274.7737 0.12 5
  275.2042 0.54 22
  276.1927 0.10 4
  276.4447 0.13 5
  276.8026 0.11 5
  277.2093 0.29 12
  278.0359 0.13 5
  278.3020 0.07 3
  279.2535 0.42 17
  279.7518 0.13 5
  280.3237 0.09 4
  281.0892 0.27 11
  281.2494 0.16 7
  281.3764 0.11 5
  282.2048 0.14 6
  283.0068 0.09 4
  283.1050 0.06 2
  283.3423 0.24 10
  284.0626 0.12 5
  284.2450 0.15 6
  284.7151 0.12 5
  284.9068 0.15 6
  285.1913 0.42 17
  285.4218 0.10 4
  286.2013 0.50 21
  287.2007 0.45 19
  288.1169 0.07 3
  288.2948 0.13 5
  289.2476 0.39 16
  289.8065 0.08 3
  290.0148 0.11 5
  290.2184 0.24 10
  290.4198 0.12 5
  291.1461 0.49 20
  291.4017 0.10 4
  292.1322 0.22 9
  292.9619 0.10 4
  293.1518 0.19 8
  293.3006 0.09 4
  293.6989 0.11 5
  293.8307 0.10 4
  294.1864 0.12 5
  294.3484 0.11 5
  294.6802 0.14 6
  294.8988 0.13 5
  295.1608 0.21 9
  296.2208 0.38 16
  296.3177 0.21 9
  296.9545 0.26 11
  297.0972 0.14 6
  297.2609 0.39 16
  298.2035 0.23 10
  299.2324 0.60 25
  299.7284 0.13 5
  299.8231 0.03 1
  300.1031 0.20 8
  300.2357 0.07 3
  300.4923 0.13 5
  301.1113 0.14 6
  301.2594 0.31 13
  301.4603 0.11 5
  302.2004 0.28 12
  302.5876 0.04 2
  302.8421 0.10 4
  303.1315 0.35 15
  303.3116 0.14 6
  304.1366 0.18 7
  305.1636 0.23 10
  305.2467 0.12 5
  306.2911 0.17 7
  307.2247 0.28 12
  307.3840 0.08 3
  308.2230 0.10 4
  309.1796 0.19 8
  309.2852 0.20 8
  310.0026 0.09 4
  310.8927 0.10 4
  311.1221 0.37 15
  311.2200 0.25 10
  311.9175 0.10 4
  312.0886 0.10 4
  313.0141 0.30 12
  313.1891 0.18 7
  314.1537 0.31 13
  314.2650 0.10 4
  314.9046 0.11 5
  315.1233 0.11 5
  315.3567 0.06 2
  315.4836 0.11 5
  316.2479 0.10 4
  317.1042 0.24 10
  317.2544 0.19 8
  318.2215 0.10 4
  318.5237 0.14 6
  319.1311 0.29 12
  319.3025 0.24 10
  320.0589 0.20 8
  320.1999 0.37 15
  320.3502 0.28 12
  320.8263 0.19 8
  320.9767 0.10 4
  321.0764 0.07 3
  321.2930 0.17 7
  321.3982 0.17 7
  322.2445 0.22 9
  323.1300 0.27 11
  323.3023 0.10 4
  323.6469 0.08 3
  324.1061 0.13 5
  324.3463 0.14 6
  324.5209 0.12 5
  325.1502 0.23 10
  325.3436 0.14 6
  326.1095 0.06 2
  327.0706 0.22 9
  327.2672 0.14 6
  327.7003 0.11 5
  327.9531 0.11 5
  328.1482 0.24 10
  328.7498 0.09 4
  329.1299 0.61 25
  329.8535 0.13 5
  330.1915 0.73 30
  330.9231 0.12 5
  331.2182 0.18 7
  331.3431 0.07 3
  332.2592 0.14 6
  332.5153 0.07 3
  333.1613 0.16 7
  334.0456 0.15 6
  334.2339 0.11 5
  334.3315 0.10 4
  334.5034 0.10 4
  335.2692 0.37 15
  335.3794 0.06 2
  336.1867 0.12 5
  337.1458 0.14 6
  337.3967 0.07 3
  338.4749 0.01 0
  339.2451 0.09 4
  339.9294 0.21 9
  340.2376 0.09 4
  340.4003 0.14 6
  341.1005 0.21 9
  341.2992 0.18 7
  343.2608 0.11 5
  343.4401 0.13 5
  344.0005 0.12 5
  344.1742 0.07 3
  345.2201 0.23 10
  345.4243 0.07 3
  345.6776 0.08 3
  346.2700 0.30 12
  346.7249 0.12 5
  347.1947 0.40 17
  347.3495 0.24 10
  347.9194 0.10 4
  348.2134 0.23 10
  348.3041 0.16 7
  348.8897 0.09 4
  349.2659 0.15 6
  349.4325 0.26 11
  349.5990 0.09 4
  350.1050 0.27 11
  350.3311 0.08 3
  351.3018 0.13 5
  352.1139 0.20 8
  352.3377 0.26 11
  353.2955 0.26 11
  353.4489 0.20 8
  354.1674 0.16 7
  354.2534 0.12 5
  355.3947 0.08 3
  356.1941 0.11 5
  356.3647 0.12 5
  356.6145 0.01 0
  357.3271 0.19 8
  357.7508 0.12 5
  358.0351 0.16 7
  358.2935 0.17 7
  359.0463 0.16 7
  359.2703 0.29 12
  360.0498 0.10 4
  360.1963 0.11 5
  360.3890 0.27 11
  361.2729 0.28 12
  361.4955 0.12 5
  361.9022 0.15 6
  362.1420 0.13 5
  362.4249 0.27 11
  363.1829 0.25 10
  363.4039 0.23 10
  363.9166 0.14 6
  364.0656 0.19 8
  364.3133 0.19 8
  365.2581 0.10 4
  366.2712 0.20 8
  367.3426 0.19 8
  367.5395 0.14 6
  367.6878 0.12 5
  368.0329 0.12 5
  368.1051 0.06 2
  369.0905 0.10 4
  369.4216 0.17 7
  370.2737 0.03 1
  370.9777 0.11 5
  371.1551 0.11 5
  371.3042 0.17 7
  371.5043 0.05 2
  372.1267 0.15 6
  372.3112 0.20 8
  372.4769 0.10 4
  372.9330 0.13 5
  373.2737 0.12 5
  373.4370 0.12 5
  374.0890 0.25 10
  374.2419 0.10 4
  374.4041 0.36 15
  375.0368 0.17 7
  375.2728 0.21 9
  375.9770 0.09 4
  376.2373 0.25 10
  376.3275 0.10 4
  376.5063 0.10 4
  377.1259 0.14 6
  377.3761 0.19 8
  378.2821 0.22 9
  378.4303 0.13 5
  379.0030 0.17 7
  379.2525 0.11 5
  379.4267 0.12 5
  380.1666 0.27 11
  381.5210 0.18 7
  382.9471 0.08 3
  383.1881 0.14 6
  383.3286 0.27 11
  384.4505 0.09 4
  385.1666 0.27 11
  385.2616 0.12 5
  385.3943 0.31 13
  388.0002 0.15 6
  388.2320 0.12 5
  388.4205 0.18 7
  388.6782 0.04 2
  390.0341 0.16 7
  390.2924 0.10 4
  391.1588 0.24 10
  391.2906 0.11 5
  391.4210 0.05 2
  392.3723 0.22 9
  393.2375 0.22 9
  393.3780 0.25 10
  394.1192 0.26 11
  394.3697 0.12 5
  395.0418 0.16 7
  395.2766 0.04 2
  395.4039 0.01 0
  396.5388 0.14 6
  396.9715 0.11 5
  397.3124 0.24 10
  398.0422 0.15 6
  398.1734 0.13 5
  398.3463 0.27 11
  398.9984 0.04 2
  399.1398 0.12 5
  399.4030 0.11 5
  400.7365 0.13 5
  401.2340 0.12 5
  402.1685 0.15 6
  403.2069 0.29 12
  403.4655 0.49 20
  404.0308 0.12 5
  404.4074 0.13 5
  405.9714 0.13 5
  406.3040 0.26 11
  408.1909 0.22 9
  408.4112 0.01 0
  410.2112 0.12 5
  410.8894 0.11 5
  411.4631 0.22 9
  412.1548 0.20 8
  412.5278 0.12 5
  413.1433 0.17 7
  413.2842 0.11 5
  413.4951 0.04 2
  414.0532 0.11 5
  414.2524 0.13 5
  415.3041 0.16 7
  415.4655 0.13 5
  415.9167 0.11 5
  416.1261 0.18 7
  416.2773 0.03 1
  417.2340 0.08 3
  417.3915 0.08 3
  418.1231 0.08 3
  418.3932 0.22 9
  419.2454 0.13 5
  419.4234 0.19 8
  420.2064 0.05 2
  420.4703 0.13 5
  421.4235 0.11 5
  422.2303 0.25 10
  422.3168 0.11 5
  422.7548 0.13 5
  423.1943 0.10 4
  423.3131 0.13 5
  423.5899 0.04 2
  423.9705 0.10 4
  424.5076 0.12 5
  425.3672 0.18 7
  425.5490 0.08 3
  427.1379 0.01 0
  428.5305 0.18 7
  429.1969 0.14 6
  429.3079 0.12 5
  429.7580 0.06 2
  430.2962 0.13 5
  430.4363 0.10 4
  430.5559 0.12 5
  431.4594 0.26 11
  432.2748 0.05 2
  432.4819 0.24 10
  433.3895 0.40 17
  433.5690 0.10 4
  434.0673 0.16 7
  434.2027 0.16 7
  434.3586 0.11 5
  434.4562 0.13 5
  435.6420 0.10 4
  435.9412 0.05 2
  436.3318 0.24 10
  437.1610 0.17 7
  437.3461 0.28 12
  437.5572 0.05 2
  438.2550 0.24 10
  439.2553 0.11 5
  439.4562 0.06 2
  440.2899 0.25 10
  440.4513 0.07 3
  442.4307 0.18 7
  443.0683 0.13 5
  443.1872 0.11 5
  443.3549 0.11 5
  443.5351 0.07 3
  443.6847 0.04 2
  444.0303 0.12 5
  444.2925 0.28 12
  444.4838 0.13 5
  444.6287 0.13 5
  444.7326 0.10 4
  445.1451 0.15 6
  445.5026 0.08 3
  446.1357 0.16 7
  446.3538 0.23 10
  447.5256 0.26 11
  447.8517 0.03 1
  448.3400 0.10 4
  449.4836 0.13 5
  450.1666 0.13 5
  450.2714 0.18 7
  450.4478 0.58 24
  451.1631 0.13 5
  451.4877 0.10 4
  452.4040 0.14 6
  453.0344 0.09 4
  453.1541 0.10 4
  453.4449 0.26 11
  454.0982 0.12 5
  454.2865 0.14 6
  454.4110 0.03 1
  454.6167 0.13 5
  456.2758 0.10 4
  457.2713 0.20 8
  460.2254 0.25 10
  460.5330 0.15 6
  461.0731 0.13 5
  462.0352 0.11 5
  462.2190 0.40 17
  462.4413 0.19 8
  462.6125 0.20 8
  463.2947 0.12 5
  463.5211 0.01 0
  463.8815 0.14 6
  464.3982 0.27 11
  465.3432 0.34 14
  465.5381 0.07 3
  465.8528 0.14 6
  466.0351 0.12 5
  466.2102 0.22 9
  466.3435 0.22 9
  467.0512 0.10 4
  467.1933 0.11 5
  467.3676 0.23 10
  467.4923 0.11 5
  467.6059 0.12 5
  468.2885 0.22 9
  468.3989 0.11 5
  470.3166 0.07 3
  470.4199 0.05 2
  471.3189 0.34 14
  471.4026 0.15 6
  471.7412 0.01 0
  472.3040 0.17 7
  472.5108 0.20 8
  472.7144 0.11 5
  473.4296 0.11 5
  473.5915 0.20 8
  474.1196 0.15 6
  474.4141 0.12 5
  474.6975 0.13 5
  475.4002 0.24 10
  475.5534 0.12 5
  476.4338 0.16 7
  476.6129 0.17 7
  477.4120 0.47 20
  477.9660 0.12 5
  478.3050 0.23 10
  478.4941 0.10 4
  479.4518 0.19 8
  480.6413 0.25 10
  481.0694 0.10 4
  481.1939 0.18 7
  481.3295 0.21 9
  481.4778 0.09 4
  481.6181 0.08 3
  481.8428 0.15 6
  482.2228 0.25 10
  482.3749 0.36 15
  482.5618 0.38 16
  483.2580 1.43 60
  483.5506 0.32 13
  483.6499 0.13 5
  484.8170 0.04 2
  485.1529 0.19 8
  485.2886 0.11 5
  485.5307 0.13 5
  486.2515 0.10 4
  486.3871 0.17 7
  486.7429 0.12 5
  487.1278 0.14 6
  487.4780 0.11 5
  487.6460 0.12 5
  488.0183 0.12 5
  488.1942 0.08 3
  488.4963 0.14 6
  490.2374 0.15 6
  490.4236 0.13 5
  490.8701 0.14 6
  491.1920 0.26 11
  491.3356 0.16 7
  491.4966 0.23 10
  491.6559 0.22 9
  492.1617 0.12 5
  492.4947 0.15 6
  493.4132 0.30 12
  493.5553 0.14 6
  494.0532 0.11 5
  494.3973 0.17 7
  495.4888 0.20 8
  496.3018 0.19 8
  497.2427 0.17 7
  497.5987 0.13 5
  497.9263 0.10 4
  498.3423 0.33 14
  498.8286 0.13 5
  498.9115 0.08 3
  499.0820 0.15 6
  499.4499 0.38 16
  500.4289 0.28 12
  500.6129 0.04 2
  500.7977 0.19 8
  501.4057 0.11 5
  502.1526 0.12 5
  502.2806 0.14 6
  502.5507 0.08 3
  503.0039 0.11 5
  503.6515 0.11 5
  504.0156 0.13 5
  504.1577 0.11 5
  504.3702 0.14 6
  504.5052 0.13 5
  504.8370 0.11 5
  505.0605 0.17 7
  506.3671 0.22 9
  506.7315 0.11 5
  507.1526 0.06 2
  507.5809 0.10 4
  508.3578 0.15 6
  508.5053 0.16 7
  508.7435 0.15 6
  509.0732 0.41 17
  509.2081 0.35 15
  509.8533 0.01 0
  511.5132 0.23 10
  511.7735 0.12 5
  512.2397 0.01 0
  512.5301 0.18 7
  513.0706 0.09 4
  513.2449 0.10 4
  513.8415 0.14 6
  514.6818 0.17 7
  515.2003 0.01 0
  515.5673 0.12 5
  516.4298 0.11 5
  517.3761 0.15 6
  517.8655 0.13 5
  518.0470 0.10 4
  518.3264 0.14 6
  518.5159 0.27 11
  519.2318 0.08 3
  519.3226 0.05 2
  519.5720 0.10 4
  520.2485 0.36 15
  520.3764 0.19 8
  520.5256 0.16 7
  520.9953 0.03 1
  521.9214 0.15 6
  523.5242 0.15 6
  523.6592 0.11 5
  523.8487 0.10 4
  524.3343 0.13 5
  524.4283 0.09 4
  524.5909 0.19 8
  524.7039 0.18 7
  524.8744 0.11 5
  525.2590 0.10 4
  525.4627 0.12 5
  526.1805 0.13 5
  528.4276 0.05 2
  528.6937 0.14 6
  528.9868 0.13 5
  529.1234 0.19 8
  529.5042 0.10 4
  529.7142 0.05 2
  530.3588 0.13 5
  531.4624 0.15 6
  532.4697 0.14 6
  532.6735 0.15 6
  533.2794 0.16 7
  533.6988 0.09 4
  534.1679 0.15 6
  534.3469 0.27 11
  534.5377 0.40 17
  534.8294 0.06 2
  535.2260 0.13 5
  535.5217 0.08 3
  535.6998 0.17 7
  535.9395 0.17 7
  536.1595 0.11 5
  536.4410 0.24 10
  536.6602 0.09 4
  536.7769 0.12 5
  537.1396 0.16 7
  537.2729 0.09 4
  538.3683 0.13 5
  538.5922 0.15 6
  539.4614 0.17 7
  541.2281 0.09 4
  541.4347 0.18 7
  544.0963 0.14 6
  544.2264 0.20 8
  544.3960 0.36 15
  544.5980 0.78 32
  544.7392 0.13 5
  544.8520 0.17 7
  545.7845 0.17 7
  546.3061 0.13 5
  547.0991 0.04 2
  548.1469 0.09 4
  548.6188 0.09 4
  549.4766 0.10 4
  549.7086 0.13 5
  550.5917 0.27 11
  551.2302 0.12 5
  551.3873 0.19 8
  551.8055 0.12 5
  552.5483 0.13 5
  553.0550 0.09 4
  553.8017 0.13 5
  554.1995 0.11 5
  554.4719 0.08 3
  555.2495 0.15 6
  555.4507 0.42 17
  555.9039 0.17 7
  556.2260 0.08 3
  556.3381 0.26 11
  556.4604 0.07 3
  558.5724 0.10 4
  559.6155 0.23 10
  560.2006 0.17 7
  560.3499 0.14 6
  560.6808 0.16 7
  561.6686 0.25 10
  562.1812 0.12 5
  562.4600 0.30 12
  562.8351 0.14 6
  563.5909 0.17 7
  563.8760 0.12 5
  564.5853 0.28 12
  564.7385 0.27 11
  565.1343 0.17 7
  565.2836 0.08 3
  565.7978 0.14 6
  566.3412 0.09 4
  566.5972 0.11 5
  566.9590 0.08 3
  567.2007 0.11 5
  567.3682 0.24 10
  568.0768 0.03 1
  569.0690 0.14 6
  569.5273 0.14 6
  570.5654 0.14 6
  571.6558 0.11 5
  572.1110 0.10 4
  573.2086 0.05 2
  573.6882 0.11 5
  573.8139 0.18 7
  574.0746 0.11 5
  574.3070 0.12 5
  574.5765 0.13 5
  574.9495 0.05 2
  575.2925 0.17 7
  575.5612 0.10 4
  576.3523 0.23 10
  577.2265 0.14 6
  577.4241 0.24 10
  577.5988 0.22 9
  577.9363 0.12 5
  578.3931 0.38 16
  578.5615 0.21 9
  578.7235 0.14 6
  579.0057 0.13 5
  579.2592 0.12 5
  579.8554 0.10 4
  580.0124 0.07 3
  580.2687 0.04 2
  580.5716 0.15 6
  581.4621 0.30 12
  581.6948 0.16 7
  582.2556 0.11 5
  582.5380 0.30 12
  582.6666 0.21 9
  582.8599 0.12 5
  582.9790 0.13 5
  583.8475 0.16 7
  584.0527 0.36 15
  584.5386 0.11 5
  584.7106 0.45 19
  585.0798 0.21 9
  585.3275 0.51 21
  585.5287 0.19 8
  585.7386 0.38 16
  585.8861 0.18 7
  586.0479 0.18 7
  586.4984 0.12 5
  586.6562 0.14 6
  586.7509 0.07 3
  587.0144 0.21 9
  587.1580 0.12 5
  587.2771 0.13 5
  587.4918 0.16 7
  587.6417 0.24 10
  587.7450 0.08 3
  587.9068 0.12 5
  588.0417 0.45 19
  588.2784 0.32 13
  588.7258 0.25 10
  589.0044 0.27 11
  589.0991 0.13 5
  589.2813 0.03 1
  589.4841 0.22 9
  589.7398 0.34 14
  589.9615 0.47 20
  590.1186 0.17 7
  590.3230 0.58 24
  590.7128 0.51 21
  590.8841 0.44 18
  591.6330 0.43 18
  591.7648 0.23 10
  592.1121 0.48 20
  592.3322 0.41 17
  592.4388 0.32 13
  592.5651 0.39 16
  592.6787 0.14 6
  592.8105 0.12 5
  593.0212 0.72 30
  593.0970 0.33 14
  593.4095 0.29 12
  593.5516 0.45 19
  593.8129 0.40 17
  594.0323 0.22 9
  594.1823 0.16 7
  594.3330 0.20 8
  594.5840 0.53 22
  594.9211 0.43 18
  595.1910 0.33 14
  595.3331 0.36 15
  595.5060 0.19 8
  595.6891 0.30 12
  595.7554 0.12 5
  596.0261 0.34 14
  596.1848 0.13 5
  596.4879 0.21 9
  596.7034 0.43 18
  596.9260 0.29 12
  597.0800 0.46 19
  597.2244 0.55 23
  597.4486 0.19 8
  597.6570 0.22 9
  597.8607 0.34 14
  598.0439 0.08 3
  598.2538 0.32 13
  598.5341 0.12 5
  598.7047 0.33 14
  598.8909 0.24 10
  599.5754 0.67 28
  599.8297 0.11 5
  599.9757 0.29 12
  600.5829 3.15 131
  600.9271 0.66 27
  601.1174 0.22 9
  601.2374 0.20 8
  601.4040 0.17 7
  601.6685 0.30 12
  601.9220 0.23 10
  602.0554 0.11 5
  602.2433 0.11 5
  602.4487 0.16 7
  602.6682 0.32 13
  602.7756 0.11 5
  602.9146 0.06 2
  603.2319 0.13 5
  603.5107 0.26 11
  603.6726 0.31 13
  603.7958 0.16 7
  603.9103 0.10 4
  604.1053 0.06 2
  604.5250 0.31 13
  604.8129 0.22 9
  605.0779 0.11 5
  605.1915 0.13 5
  605.3398 0.35 15
  605.6971 0.53 22
  606.0577 0.13 5
  606.2202 0.37 15
  606.3811 0.23 10
  606.7621 0.42 17
  607.1818 0.23 10
  607.4106 0.10 4
  607.7664 0.40 17
  608.0836 0.48 20
  608.3912 0.40 17
  608.6058 0.14 6
  608.7289 0.51 21
  608.8788 0.24 10
  609.1132 0.38 16
  609.3649 0.31 13
  609.4848 0.37 15
  609.6126 0.34 14
  609.8453 0.44 18
  610.0789 0.29 12
  610.2462 0.30 12
  610.4008 0.66 27
  610.6281 0.82 34
  610.8600 0.47 20
  611.2080 0.67 28
  611.6262 0.48 20
  611.9545 0.34 14
  612.2535 0.63 26
  612.5384 0.49 20
  612.8477 0.45 19
  613.4191 0.64 27
  613.8342 0.38 16
  614.0914 0.43 18
  614.3826 0.49 20
  614.6170 0.75 31
  614.7764 0.53 22
  615.0977 0.80 33
  615.3967 0.63 26
  615.5782 0.43 18
  615.7369 0.78 32
  616.0479 0.85 35
  616.3304 0.68 28
  616.5900 0.72 30
  616.8584 0.96 40
  617.5727 1.87 78
  618.6335 15.80 658
  619.6944 1.20 50
  620.0306 0.89 37
  620.1791 0.48 20
  620.4041 1.43 60
  620.6212 0.93 39
  620.8785 0.74 31
  621.7444 0.94 39
  621.9939 0.44 18
  622.0887 0.19 8
  622.3516 0.40 17
  622.5079 0.48 20
  622.7194 0.68 28
  622.9941 0.28 12
  623.1789 0.15 6
  623.4631 0.57 24
  623.7639 0.29 12
  623.9503 0.36 15
  624.0529 0.36 15
  624.4019 0.49 20
  624.6932 0.42 17
  624.8882 0.14 6
  625.0864 0.37 15
  625.3770 0.27 11
  625.5680 0.29 12
  625.8286 0.38 16
  625.9415 0.16 7
  626.1768 0.69 29
  626.4144 0.78 32
  626.6797 0.51 21
  626.8376 0.16 7
  627.0374 0.44 18
  627.5286 0.56 23
  627.8760 0.70 29
  628.0505 0.51 21
  628.4293 0.48 20
  628.6226 0.55 23
  628.8402 0.46 19
  629.0311 0.43 18
  629.3339 0.71 30
  629.5737 0.33 14
  629.8568 0.63 26
  630.2961 0.74 31
  630.7078 0.56 23
  631.2875 1.44 60
  631.5881 0.42 17
  632.2743 1.26 52
  632.6411 1.64 68
  633.0308 1.67 70
  633.6421 2.31 96
  633.8708 2.41 100
  636.5712 99.97 999
  637.4406 10.49 437
  637.9573 5.11 213
  638.3991 3.52 147
  639.2379 2.00 83
  639.4848 1.81 75
  639.7231 1.10 46
  640.0292 1.19 50
  640.3827 1.06 44
  640.8127 1.51 63
  641.0668 0.73 30
  641.3564 0.44 18
  641.5781 0.24 10
  641.7802 0.29 12
  642.0650 0.52 22
  642.3143 0.21 9
  642.5306 0.40 17
  642.8462 0.42 17
  643.1382 0.31 13
  643.3473 0.18 7
  643.4720 0.11 5
  643.6338 0.13 5
  643.7742 0.18 7
//
