ACCESSION: MSBNK-Kyoto_Univ-CA000121
RECORD_TITLE: Dehydro fucoxanthin acetate; FAB-EBEB; MS2; m/z: 682.42; [M]*+
DATE: 2016.01.19 (Created 2007.10.06, modified 2011.05.10)
AUTHORS: Akimoto N, Graduate School of Pharmaceutical Sciences, Kyoto University and Maoka T, Research Institute for Production Development
LICENSE: CC BY-SA
COMMENT: Profile spectrum of this record is given as a JPEG file.
COMMENT: [Profile] CA000121.jpg
CH$NAME: Dehydro fucoxanthin acetate
CH$COMPOUND_CLASS: Natural Product; Carotenoid
CH$FORMULA: C44H58O6
CH$EXACT_MASS: 682.42334
CH$SMILES: C(C=C(C=CC=C(C(=O)CC(C(C)(C)3)(O2)C(CC(OC(C)=O)C3)2C)C)C)=CC=C(C=CC=C(C)C=C=C(C1=C)C(CC(C1)OC(C)=O)(C)C)C
CH$IUPAC: InChI=1S/C44H58O6/c1-30(19-15-20-32(3)23-24-39-34(5)25-37(48-35(6)45)26-41(39,8)9)17-13-14-18-31(2)21-16-22-33(4)40(47)29-44-42(10,11)27-38(49-36(7)46)28-43(44,12)50-44/h13-23,37-38H,5,25-29H2,1-4,6-12H3/b14-13+,19-15+,21-16+,30-17+,31-18+,32-20+,33-22+/t24?,37-,38+,43-,44+/m1/s1
CH$LINK: INCHIKEY FGAMQNGFFIKHJD-MCBDCWICSA-N
AC$INSTRUMENT: JMS-HX/HX 110A, JEOL
AC$INSTRUMENT_TYPE: FAB-EBEB
AC$MASS_SPECTROMETRY: MS_TYPE MS2
AC$MASS_SPECTROMETRY: ION_MODE POSITIVE
AC$MASS_SPECTROMETRY: ATOM_GUN_CURRENT 5 mA
AC$MASS_SPECTROMETRY: BOMBARDMENT 6 kV xenon
AC$MASS_SPECTROMETRY: COLLISION_ENERGY 3 kV
AC$MASS_SPECTROMETRY: COLLISION_GAS Ar
AC$MASS_SPECTROMETRY: GAS_PRESSURE adjust to attenuate the intensity of the precursor ion by 30 %
AC$MASS_SPECTROMETRY: IONIZATION FAB
AC$MASS_SPECTROMETRY: PROBE_TIP stainless-steel
MS$FOCUSED_ION: BASE_PEAK 682.3963
MS$FOCUSED_ION: PRECURSOR_M/Z 682.42
MS$FOCUSED_ION: PRECURSOR_TYPE [M]+*
PK$SPLASH: splash10-053u-2941004000-8608bd7d238ad3618ad5
PK$NUM_PEAK: 1832
PK$PEAK: m/z int. rel.int.
  1.6069 0.01 0
  14.0017 0.07 1
  14.9969 0.27 3
  22.8617 0.09 1
  24.9601 0.02 0
  25.9953 0.07 1
  26.9886 0.93 9
  27.9688 0.06 1
  28.9994 0.59 6
  30.9748 0.02 0
  32.7989 0.01 0
  36.9929 0.23 2
  37.9837 0.35 3
  38.9919 2.86 29
  39.9906 0.22 2
  40.1154 0.02 0
  41.0112 4.59 46
  42.0043 0.22 2
  42.5487 0.01 0
  42.9858 42.20 422
  43.2239 0.04 0
  43.9647 0.04 0
  45.0027 0.26 3
  46.7348 0.01 0
  48.9800 0.07 1
  49.9832 0.75 7
  50.7810 0.09 1
  50.9839 1.86 19
  51.1847 0.01 0
  51.9950 0.64 6
  52.9938 3.35 33
  54.0074 0.06 1
  55.0143 5.81 58
  56.0341 0.15 1
  57.0185 1.39 14
  58.0364 0.06 1
  58.9929 0.61 6
  60.0397 0.05 0
  60.9957 0.28 3
  61.9881 0.76 8
  62.9776 1.43 14
  63.2539 0.02 0
  63.8368 0.03 0
  63.9976 0.30 3
  64.9943 2.75 27
  65.9991 0.70 7
  66.5249 0.02 0
  67.0077 4.25 42
  67.9908 0.16 2
  68.7025 0.02 0
  69.0057 6.69 67
  69.8001 0.01 0
  70.0163 0.19 2
  70.9989 1.67 17
  72.0042 0.12 1
  72.1247 0.03 0
  73.0146 0.11 1
  73.9615 0.46 5
  74.9838 0.71 7
  75.1710 0.18 2
  75.4274 0.09 1
  75.6574 0.06 1
  75.9811 0.43 4
  76.3724 0.03 0
  76.5533 0.04 0
  76.9926 8.08 81
  77.4192 0.06 1
  77.5206 0.04 0
  77.9915 1.36 14
  78.4998 0.02 0
  78.6130 0.08 1
  79.0057 6.46 65
  79.3372 0.02 0
  80.0152 0.46 5
  80.6321 0.04 0
  80.7251 0.05 0
  81.0192 6.19 62
  81.2724 0.12 1
  82.0270 0.23 2
  82.4524 0.04 0
  83.0284 3.30 33
  83.5122 0.01 0
  84.0233 0.25 2
  84.8046 0.03 0
  85.0190 2.22 22
  85.9930 0.31 3
  86.9882 0.47 5
  87.7334 0.04 0
  88.0006 0.14 1
  88.1687 0.06 1
  88.9681 1.10 11
  89.2113 0.04 0
  89.3322 0.03 0
  89.4214 0.02 0
  89.6891 0.06 1
  89.8039 0.02 0
  90.0047 0.34 3
  90.1681 0.10 1
  90.2575 0.05 0
  90.4190 0.09 1
  91.0093 13.82 138
  91.3823 0.02 0
  92.0326 1.27 13
  92.3335 0.03 0
  92.4853 0.04 0
  92.6268 0.02 0
  93.0314 12.21 122
  93.4133 0.17 2
  94.0382 0.72 7
  94.3356 0.01 0
  94.4812 0.06 1
  95.0265 7.70 77
  95.8154 0.06 1
  96.0347 0.42 4
  96.4130 0.01 0
  96.7875 0.04 0
  97.0361 0.86 9
  97.7198 0.03 0
  97.9899 0.19 2
  99.0104 0.43 4
  100.0290 0.22 2
  101.0059 0.48 5
  101.2254 0.06 1
  101.4194 0.08 1
  101.7160 0.05 0
  102.0169 0.97 10
  102.2191 0.03 0
  102.4085 0.13 1
  102.7278 0.13 1
  103.0208 3.85 38
  103.4704 0.13 1
  103.5711 0.05 0
  104.0283 1.81 18
  104.2835 0.09 1
  105.0379 19.05 190
  105.2944 0.15 1
  105.5223 0.04 0
  105.7489 0.01 0
  106.0474 1.29 13
  106.3439 0.05 0
  107.0532 9.25 92
  107.4971 0.06 1
  107.7671 0.08 1
  108.0350 0.92 9
  108.2895 0.07 1
  108.4748 0.06 1
  108.6515 0.10 1
  109.0758 47.16 471
  109.3712 0.17 2
  109.6725 0.02 0
  110.0427 0.45 4
  110.6253 0.04 0
  111.0375 1.94 19
  111.9724 0.17 2
  112.1419 0.14 1
  112.5078 0.09 1
  113.0141 0.60 6
  113.2818 0.12 1
  113.4808 0.01 0
  113.9726 0.40 4
  114.2125 0.13 1
  114.4772 0.13 1
  115.0092 8.48 85
  115.2758 0.15 1
  115.3953 0.05 0
  115.5833 0.05 0
  116.0201 3.37 34
  116.4060 0.11 1
  116.6090 0.10 1
  117.0282 7.44 74
  117.2416 0.11 1
  117.3790 0.02 0
  117.5370 0.10 1
  118.0454 1.57 16
  118.3412 0.06 1
  118.5690 0.03 0
  119.0402 20.43 204
  119.2668 0.18 2
  119.4883 0.09 1
  120.0293 1.79 18
  120.3252 0.07 1
  120.5303 0.06 1
  121.0471 14.87 149
  121.3016 0.17 2
  121.7308 0.02 0
  122.0158 1.16 12
  123.0309 2.74 27
  123.2804 0.02 0
  124.0189 0.33 3
  124.3426 0.02 0
  124.6236 0.05 0
  125.0328 0.64 6
  125.2607 0.05 0
  125.3659 0.02 0
  125.9919 0.66 7
  126.2951 0.09 1
  126.6088 0.14 1
  127.0006 3.22 32
  127.3577 0.15 1
  127.9967 11.19 112
  128.2866 0.17 2
  128.6124 0.22 2
  129.0120 11.83 118
  129.5162 0.02 0
  130.0192 4.54 45
  130.3764 0.08 1
  130.5905 0.10 1
  131.0174 9.10 91
  131.3310 0.13 1
  131.5379 0.11 1
  131.7269 0.03 0
  132.0304 1.97 20
  132.3624 0.17 2
  132.5800 0.07 1
  133.0336 10.06 101
  133.3390 0.14 1
  133.6259 0.08 1
  133.7803 0.11 1
  134.0089 0.75 7
  134.4377 0.11 1
  134.6268 0.06 1
  135.0417 20.92 209
  135.5335 0.09 1
  136.0099 0.85 8
  136.3196 0.05 0
  136.4970 0.04 0
  136.6963 0.07 1
  137.0319 7.86 79
  137.3563 0.02 0
  137.8308 0.06 1
  138.0086 0.36 4
  138.1291 0.21 2
  138.2452 0.04 0
  138.9857 2.47 25
  140.0199 0.59 6
  140.1664 0.40 4
  140.3349 0.25 2
  140.5602 0.11 1
  140.9874 7.08 71
  141.3293 0.07 1
  141.4238 0.04 0
  142.0056 7.28 73
  142.3080 0.12 1
  142.4491 0.05 0
  142.6386 0.03 0
  143.0126 14.38 144
  143.2478 0.22 2
  143.4991 0.04 0
  143.6335 0.02 0
  144.0200 2.61 26
  145.0188 12.64 126
  145.2652 0.06 1
  145.4638 0.15 1
  145.6495 0.07 1
  145.7857 0.05 0
  146.0171 1.62 16
  146.2859 0.08 1
  146.5769 0.06 1
  147.0227 10.59 106
  147.5977 0.11 1
  148.0348 1.12 11
  148.4974 0.07 1
  148.6646 0.05 0
  149.0244 2.78 28
  149.2941 0.06 1
  149.7321 0.03 0
  150.0035 0.59 6
  150.2322 0.03 0
  150.5574 0.14 1
  151.0312 3.68 37
  151.2984 0.10 1
  151.5060 0.24 2
  151.9903 4.10 41
  152.2754 0.10 1
  152.4840 0.19 2
  152.9956 5.32 53
  153.5005 0.16 2
  153.9920 2.63 26
  154.4129 0.09 1
  155.0286 10.74 107
  155.3592 0.20 2
  155.4585 0.11 1
  155.6308 0.10 1
  156.0286 5.15 51
  156.3665 0.11 1
  156.4712 0.13 1
  156.6483 0.07 1
  157.0404 12.37 124
  157.5143 0.16 2
  158.0293 2.09 21
  158.5014 0.10 1
  159.0315 8.59 86
  159.3396 0.13 1
  159.5968 0.10 1
  160.0301 1.45 14
  160.4374 0.04 0
  160.6322 0.04 0
  161.0452 5.08 51
  161.2934 0.09 1
  161.4250 0.04 0
  161.7693 0.13 1
  161.9040 0.20 2
  162.0704 0.59 6
  162.3817 0.13 1
  162.5807 0.08 1
  163.0611 2.07 21
  163.3060 0.06 1
  163.4385 0.15 1
  163.6432 0.12 1
  164.0588 0.48 5
  164.3319 0.25 2
  165.0171 10.02 100
  166.0066 3.01 30
  166.4029 0.05 0
  166.5560 0.12 1
  167.0435 6.95 69
  167.3562 0.13 1
  167.6597 0.13 1
  168.0628 3.20 32
  168.2465 0.23 2
  168.5066 0.09 1
  168.6919 0.18 2
  169.0619 9.14 91
  169.4570 0.16 2
  169.5856 0.12 1
  170.0729 4.12 41
  170.3310 0.19 2
  170.5549 0.14 1
  171.0862 8.53 85
  171.4078 0.13 1
  171.4906 0.06 1
  172.0786 2.29 23
  172.2793 0.18 2
  172.4473 0.10 1
  172.6833 0.09 1
  173.0960 7.44 74
  173.4142 0.22 2
  173.5347 0.05 0
  173.8530 0.17 2
  174.1135 0.64 6
  174.3717 0.01 0
  174.5494 0.04 0
  175.0833 1.63 16
  175.4796 0.09 1
  175.5940 0.05 0
  176.0343 0.91 9
  176.6015 0.02 0
  177.0585 1.62 16
  177.3008 0.23 2
  178.0584 5.63 56
  178.4073 0.13 1
  178.6858 0.11 1
  179.0669 11.10 111
  179.4293 0.10 1
  180.0683 4.01 40
  180.3457 0.13 1
  180.6050 0.18 2
  181.0760 8.81 88
  181.4155 0.16 2
  181.7473 0.06 1
  182.0806 3.44 34
  182.4282 0.05 0
  182.5279 0.03 0
  182.6393 0.02 0
  183.0867 9.82 98
  183.4911 0.16 2
  183.7417 0.19 2
  184.0755 2.71 27
  184.4417 0.12 1
  184.6468 0.05 0
  185.1028 4.93 49
  185.4535 0.14 1
  186.0844 1.06 11
  186.5715 0.29 3
  186.7069 0.16 2
  187.0927 2.30 23
  187.6006 0.05 0
  188.0725 0.53 5
  188.3365 0.14 1
  189.0452 3.92 39
  189.4103 0.19 2
  189.6453 0.20 2
  190.0461 1.30 13
  190.2371 0.25 2
  190.4746 0.18 2
  191.0343 3.81 38
  191.5895 0.06 1
  192.0398 4.27 43
  192.3780 0.24 2
  192.5432 0.36 4
  193.0562 9.01 90
  193.3931 0.12 1
  194.0733 4.19 42
  194.4017 0.14 1
  194.6059 0.13 1
  195.0706 10.46 105
  195.3707 0.17 2
  195.4728 0.09 1
  195.5861 0.05 0
  196.0700 3.76 38
  196.3901 0.10 1
  196.6921 0.21 2
  197.0678 8.39 84
  197.4713 0.25 2
  197.6236 0.09 1
  198.0804 2.36 24
  198.3089 0.23 2
  198.4978 0.11 1
  199.0842 6.29 63
  199.4637 0.23 2
  200.0704 1.29 13
  200.3032 0.20 2
  200.4954 0.20 2
  200.6329 0.19 2
  200.7338 0.10 1
  201.0763 1.40 14
  201.2448 0.39 4
  201.5659 0.28 3
  202.0152 3.46 35
  202.3810 0.25 2
  203.0310 4.11 41
  203.3334 0.13 1
  203.4949 0.17 2
  203.6709 0.05 0
  204.0307 1.72 17
  204.2847 0.25 2
  205.0406 4.69 47
  205.5728 1.66 17
  206.0686 3.81 38
  206.2934 0.21 2
  206.6259 0.27 3
  207.0582 7.68 77
  207.3781 0.14 1
  208.0491 3.34 33
  208.4243 0.14 1
  208.6191 0.16 2
  209.0654 7.36 74
  209.3417 0.15 1
  209.6053 0.13 1
  209.7331 0.09 1
  210.0854 2.46 25
  210.4003 0.23 2
  210.5010 0.18 2
  210.6265 0.09 1
  211.0589 6.25 62
  211.4075 0.23 2
  211.6826 0.11 1
  212.0777 1.41 14
  212.5546 0.22 2
  213.0659 4.54 45
  213.5526 0.20 2
  214.0282 0.57 6
  215.0022 4.56 46
  215.4429 0.29 3
  216.0353 2.31 23
  216.3119 0.13 1
  216.5131 0.16 2
  217.0456 4.53 45
  217.3055 0.08 1
  218.0509 2.62 26
  218.3944 0.14 1
  219.0591 5.48 55
  219.4004 0.22 2
  219.5538 0.17 2
  220.0454 3.56 36
  220.5508 0.10 1
  221.0651 6.71 67
  222.0347 2.26 23
  222.4192 0.13 1
  222.6540 0.18 2
  223.0885 5.56 56
  223.4385 0.15 1
  223.6904 0.13 1
  224.0510 1.43 14
  224.2893 0.11 1
  224.5478 0.10 1
  225.0954 2.54 25
  226.0250 0.93 9
  226.3748 0.15 1
  226.4892 0.04 0
  227.0688 1.76 18
  227.4404 0.13 1
  227.6815 0.15 1
  228.0203 1.33 13
  228.2687 0.12 1
  228.4301 0.08 1
  228.6616 0.18 2
  229.0432 4.03 40
  229.4484 0.11 1
  229.6946 0.11 1
  230.0724 2.26 23
  230.6093 0.13 1
  231.0673 5.69 57
  231.5140 0.13 1
  232.0788 2.75 27
  233.0835 5.93 59
  233.5630 0.05 0
  234.0984 2.69 27
  234.5481 0.29 3
  235.1121 4.81 48
  235.6252 0.38 4
  235.7992 0.12 1
  236.0972 1.40 14
  236.5457 0.22 2
  237.1118 4.05 40
  237.7437 0.13 1
  238.1139 0.66 7
  238.3214 0.19 2
  238.5451 0.18 2
  238.7915 0.32 3
  239.1149 2.85 28
  239.3938 0.17 2
  239.6127 0.09 1
  240.0417 0.68 7
  240.4561 0.19 2
  240.6784 0.24 2
  241.0719 1.79 18
  241.4873 0.13 1
  241.6724 0.09 1
  241.8201 0.25 2
  242.0831 0.81 8
  242.3063 0.18 2
  242.4797 0.08 1
  242.5623 0.04 0
  243.1029 2.79 28
  243.4733 0.05 0
  243.8203 0.28 3
  244.1041 1.86 19
  244.5614 0.16 2
  245.1170 4.16 42
  245.4415 0.17 2
  245.5787 0.07 1
  246.1142 2.62 26
  246.3528 0.21 2
  247.0972 4.59 46
  247.6339 0.25 2
  248.1171 2.03 20
  248.3737 0.28 3
  248.6288 0.10 1
  249.1366 5.62 56
  249.5299 0.11 1
  250.1305 1.63 16
  250.4354 0.18 2
  250.5630 0.07 1
  250.6841 0.06 1
  251.1370 2.87 29
  251.5184 0.12 1
  252.0553 1.17 12
  252.4694 0.13 1
  253.0943 2.10 21
  253.4166 0.13 1
  253.6046 0.14 1
  253.7308 0.16 2
  254.0914 0.70 7
  254.4276 0.07 1
  254.6556 0.15 1
  255.1117 1.67 17
  255.5067 0.10 1
  255.7030 0.04 0
  256.0875 0.87 9
  256.5764 0.14 1
  257.1086 2.56 26
  257.5708 0.13 1
  258.0958 1.21 12
  258.4048 0.10 1
  258.5875 0.13 1
  259.1193 3.99 40
  259.5557 0.08 1
  260.1137 1.46 15
  260.5405 0.06 1
  261.1363 5.02 50
  261.5061 0.13 1
  261.7086 0.11 1
  262.1437 1.22 12
  262.6068 0.06 1
  263.1426 5.75 57
  263.6139 0.07 1
  264.1385 1.14 11
  264.4368 0.18 2
  264.5275 0.08 1
  265.1356 1.86 19
  265.5018 0.20 2
  265.6776 0.09 1
  265.8084 0.10 1
  266.1396 1.06 11
  266.4855 0.12 1
  267.1275 1.63 16
  267.5701 0.11 1
  268.1158 0.70 7
  268.4579 0.11 1
  268.5675 0.12 1
  269.0946 2.07 21
  269.4769 0.06 1
  269.7013 0.15 1
  270.1180 0.76 8
  270.4378 0.08 1
  270.6104 0.05 0
  271.1216 1.54 15
  271.5224 0.04 0
  271.7769 0.15 1
  272.1107 1.03 10
  272.3955 0.05 0
  272.6393 0.21 2
  273.1443 2.13 21
  273.5234 0.06 1
  273.7321 0.04 0
  274.1169 1.27 13
  274.5075 0.08 1
  274.6198 0.08 1
  275.1529 3.12 31
  275.3864 0.22 2
  275.5469 0.25 2
  276.1573 1.17 12
  276.6899 0.18 2
  277.1497 1.92 19
  277.5997 0.23 2
  277.7087 0.18 2
  277.8875 0.12 1
  278.1867 0.68 7
  278.6049 0.14 1
  279.1281 0.98 10
  279.4168 0.19 2
  279.5816 0.03 0
  279.8277 0.16 2
  280.1657 0.53 5
  280.4406 0.09 1
  281.1134 1.39 14
  281.4622 0.25 2
  281.6805 0.45 4
  282.1706 0.82 8
  282.3356 0.14 1
  282.7141 0.06 1
  283.1386 1.60 16
  283.5254 0.12 1
  283.6896 0.27 3
  284.1422 0.65 6
  284.4683 0.17 2
  284.6926 0.17 2
  285.1453 2.01 20
  285.5586 0.03 0
  285.7575 0.26 3
  286.1257 0.90 9
  286.4577 0.13 1
  286.6920 0.03 0
  287.1590 2.07 21
  287.3752 0.19 2
  287.5043 0.03 0
  288.1638 0.67 7
  288.4155 0.13 1
  288.5561 0.26 3
  288.7247 0.17 2
  289.1615 2.12 21
  289.6460 0.13 1
  290.1647 0.85 8
  290.5429 0.20 2
  290.7353 0.17 2
  291.1555 1.36 14
  291.4614 0.08 1
  292.0544 0.53 5
  292.5232 0.05 0
  292.6993 0.08 1
  293.1386 0.88 9
  293.5171 0.23 2
  293.6916 0.02 0
  293.9171 0.05 0
  294.1672 0.28 3
  294.3212 0.13 1
  294.4306 0.04 0
  294.5854 0.12 1
  295.1303 1.23 12
  295.5222 0.14 1
  295.6770 0.10 1
  296.0797 0.75 7
  296.3226 0.19 2
  296.5161 0.13 1
  297.1643 1.66 17
  297.7204 0.08 1
  298.1504 0.60 6
  298.3803 0.07 1
  298.5105 0.15 1
  298.7042 0.08 1
  298.9151 0.07 1
  299.1986 2.07 21
  299.7632 0.10 1
  300.1515 0.57 6
  300.2892 0.28 3
  300.4540 0.12 1
  300.7921 0.11 1
  301.1656 1.01 10
  301.4353 0.21 2
  301.6192 0.14 1
  301.8179 0.17 2
  302.0711 0.41 4
  302.2716 0.29 3
  303.1518 1.24 12
  303.5750 0.05 0
  304.0206 0.09 1
  304.2913 0.36 4
  304.5009 0.12 1
  305.1803 0.96 10
  305.6822 0.08 1
  306.0504 0.44 4
  306.2948 0.15 1
  306.4806 0.06 1
  306.8555 0.10 1
  307.1700 0.67 7
  307.4577 0.18 2
  307.5971 0.09 1
  307.7636 0.12 1
  308.0967 0.49 5
  308.2691 0.39 4
  308.8150 0.03 0
  309.1762 1.37 14
  309.4385 0.12 1
  309.6489 0.10 1
  309.7867 0.08 1
  310.1521 0.61 6
  310.5283 0.13 1
  311.1612 1.54 15
  311.5557 0.09 1
  311.7265 0.31 3
  312.1788 0.65 6
  312.3356 0.20 2
  312.7575 0.08 1
  313.1760 1.57 16
  313.4766 0.07 1
  313.6070 0.08 1
  313.8118 0.06 1
  314.1867 0.44 4
  314.3759 0.14 1
  314.5121 0.08 1
  314.7624 0.22 2
  315.1803 1.63 16
  315.5537 0.18 2
  315.7115 0.07 1
  315.8676 0.07 1
  316.2105 0.42 4
  316.5402 0.11 1
  316.7947 0.01 0
  317.1360 0.93 9
  317.3351 0.46 5
  317.8467 0.24 2
  318.1674 0.36 4
  318.3931 0.11 1
  318.8304 0.14 1
  319.1603 0.66 7
  319.3778 0.17 2
  319.5002 0.10 1
  319.8938 0.08 1
  320.1526 0.33 3
  320.3213 0.12 1
  320.8060 0.17 2
  321.1476 0.78 8
  321.5265 0.06 1
  321.6249 0.07 1
  322.1478 0.41 4
  322.6939 0.04 0
  322.8048 0.06 1
  323.1606 0.79 8
  323.3891 0.31 3
  323.5885 0.13 1
  323.8376 0.10 1
  324.1679 0.47 5
  324.3790 0.16 2
  324.6091 0.05 0
  325.1481 1.23 12
  325.6383 0.18 2
  326.2287 0.49 5
  326.5028 0.13 1
  326.7488 0.10 1
  327.1679 1.35 13
  327.4487 0.04 0
  327.5937 0.10 1
  327.7362 0.07 1
  328.1239 0.46 5
  328.3203 0.35 3
  328.6119 0.06 1
  328.8241 0.08 1
  329.2061 1.40 14
  329.7406 0.09 1
  329.9743 0.19 2
  330.2653 0.46 5
  330.4998 0.16 2
  330.7154 0.22 2
  331.1879 0.84 8
  331.5453 0.15 1
  331.7235 0.04 0
  332.0204 0.28 3
  332.1638 0.18 2
  332.3670 0.09 1
  332.6000 0.11 1
  333.1424 0.37 4
  333.4087 0.09 1
  333.5273 0.03 0
  333.7131 0.03 0
  334.1594 0.27 3
  334.6870 0.11 1
  334.7858 0.05 0
  335.1508 1.06 11
  335.6869 0.03 0
  336.1467 0.65 6
  336.3882 0.07 1
  336.7235 0.10 1
  337.1468 1.03 10
  337.3286 0.27 3
  337.5262 0.07 1
  337.6690 0.05 0
  338.1763 0.48 5
  338.4594 0.06 1
  338.8571 0.14 1
  339.2342 0.85 8
  339.4476 0.22 2
  339.6943 0.13 1
  340.1794 0.34 3
  340.4236 0.12 1
  340.5016 0.06 1
  340.8214 0.04 0
  341.1870 0.96 10
  341.5417 0.21 2
  342.1575 0.39 4
  342.3461 0.31 3
  342.5970 0.09 1
  342.6893 0.04 0
  343.1339 0.53 5
  343.3251 0.55 5
  344.1314 0.31 3
  344.3517 0.05 0
  344.5071 0.02 0
  344.8588 0.02 0
  345.1964 0.51 5
  345.4184 0.17 2
  345.7219 0.14 1
  346.2117 0.30 3
  346.4246 0.11 1
  346.8163 0.16 2
  347.1100 0.54 5
  347.2830 0.25 2
  347.4102 0.07 1
  347.6040 0.10 1
  347.9909 0.33 3
  348.1906 0.10 1
  348.5167 0.06 1
  348.6523 0.10 1
  348.7654 0.15 1
  349.1998 0.74 7
  349.3404 0.30 3
  349.6450 0.09 1
  349.8289 0.17 2
  350.1318 0.23 2
  350.3141 0.16 2
  350.5796 0.10 1
  351.1881 0.77 8
  351.4820 0.04 0
  352.1863 0.50 5
  352.6301 0.11 1
  353.2138 1.02 10
  353.6801 0.04 0
  354.2195 0.43 4
  354.5419 0.11 1
  354.6367 0.04 0
  355.2400 0.64 6
  355.6207 0.10 1
  355.8185 0.04 0
  355.9740 0.11 1
  356.2325 0.30 3
  356.7263 0.10 1
  357.2027 0.61 6
  357.4488 0.13 1
  357.6717 0.04 0
  357.9818 0.15 1
  358.1282 0.08 1
  358.2696 0.16 2
  358.3527 0.09 1
  359.0555 0.10 1
  359.3391 0.21 2
  359.8141 0.13 1
  360.0029 0.10 1
  360.2042 0.13 1
  360.6934 0.07 1
  360.9330 0.14 1
  361.2225 0.24 2
  361.3923 0.13 1
  361.7967 0.06 1
  362.0064 0.06 1
  362.2444 0.08 1
  362.4707 0.10 1
  362.5923 0.09 1
  363.1066 0.56 6
  363.4687 0.06 1
  364.0006 0.06 1
  364.1779 0.22 2
  364.5575 0.17 2
  364.6857 0.10 1
  364.8814 0.03 0
  365.2061 0.97 10
  365.5025 0.02 0
  365.7981 0.09 1
  366.1704 0.35 3
  366.4435 0.06 1
  367.2131 1.22 12
  367.6995 0.03 0
  367.8195 0.04 0
  368.0261 0.27 3
  368.2102 0.37 4
  368.3710 0.12 1
  368.6817 0.13 1
  368.8242 0.11 1
  368.9150 0.04 0
  369.2566 1.46 15
  369.5474 0.10 1
  369.9332 0.09 1
  370.2582 0.20 2
  370.5282 0.06 1
  371.1883 0.49 5
  371.7709 0.15 1
  372.0477 0.12 1
  372.3111 0.19 2
  372.5303 0.08 1
  372.7446 0.09 1
  373.1790 0.18 2
  373.5408 0.05 0
  374.0103 0.12 1
  374.1729 0.11 1
  374.3597 0.10 1
  375.1828 0.84 8
  375.3596 0.16 2
  375.7975 0.09 1
  375.9961 0.30 3
  376.1112 0.30 3
  376.3055 0.24 2
  376.4540 0.12 1
  376.8945 0.11 1
  377.2516 0.45 4
  377.4527 0.11 1
  377.9625 0.05 0
  378.1861 0.21 2
  378.2921 0.12 1
  378.4306 0.11 1
  378.5574 0.04 0
  378.7686 0.08 1
  379.1983 0.74 7
  379.3928 0.35 3
  380.2458 0.40 4
  380.4612 0.06 1
  380.6849 0.07 1
  380.8828 0.09 1
  381.2350 0.92 9
  381.6007 0.18 2
  381.8462 0.05 0
  382.2603 0.37 4
  382.4666 0.14 1
  382.6160 0.11 1
  382.7012 0.05 0
  383.2264 1.02 10
  383.6013 0.04 0
  383.9517 0.14 1
  384.2513 0.27 3
  384.6735 0.07 1
  385.2635 0.79 8
  385.3596 0.38 4
  385.9814 0.10 1
  386.2343 0.10 1
  386.6750 0.10 1
  387.2193 0.18 2
  387.5591 0.13 1
  387.7779 0.07 1
  388.2755 0.15 1
  388.6437 0.10 1
  389.1832 0.40 4
  389.2892 0.21 2
  389.4688 0.17 2
  389.7060 0.18 2
  390.2155 0.32 3
  390.4410 0.10 1
  390.8820 0.12 1
  391.2278 0.39 4
  391.6664 0.06 1
  392.1602 0.17 2
  392.2905 0.29 3
  392.4718 0.17 2
  392.8896 0.09 1
  393.0132 0.09 1
  393.2689 0.34 3
  393.4653 0.17 2
  393.6926 0.08 1
  393.8764 0.02 0
  394.2115 0.25 2
  394.3595 0.25 2
  394.8609 0.14 1
  395.2137 0.92 9
  395.4861 0.21 2
  396.2861 0.48 5
  396.5286 0.12 1
  396.7250 0.07 1
  396.9474 0.12 1
  397.2317 0.57 6
  397.4700 0.12 1
  397.9341 0.03 0
  398.1347 0.26 3
  398.3421 0.24 2
  398.7076 0.05 0
  399.2389 0.76 8
  399.6790 0.14 1
  399.9981 0.27 3
  400.2603 0.44 4
  400.5728 0.20 2
  400.7699 0.10 1
  401.0731 0.28 3
  401.2369 0.52 5
  401.3923 0.11 1
  401.6086 0.10 1
  402.1442 0.14 1
  402.8536 0.02 0
  403.2363 0.49 5
  403.3867 0.06 1
  403.5321 0.10 1
  404.2692 0.20 2
  404.7782 0.10 1
  405.1644 0.17 2
  406.2068 0.09 1
  406.3832 0.11 1
  406.8146 0.10 1
  406.9157 0.05 0
  407.2159 0.09 1
  407.3773 0.19 2
  408.2628 0.16 2
  408.5320 0.15 1
  408.7637 0.08 1
  409.2144 0.57 6
  409.5222 0.09 1
  410.2566 0.49 5
  410.5819 0.06 1
  411.2687 1.52 15
  411.6494 0.09 1
  412.1020 0.21 2
  412.2886 0.22 2
  412.4935 0.03 0
  413.2190 0.39 4
  413.5027 0.14 1
  414.1738 0.22 2
  414.3420 0.17 2
  415.1974 0.29 3
  415.4284 0.05 0
  415.6360 0.07 1
  416.3031 0.13 1
  416.4094 0.11 1
  416.6204 0.03 0
  417.0858 0.10 1
  417.3445 0.26 3
  418.1257 0.06 1
  418.3451 0.08 1
  418.9991 0.08 1
  419.1389 0.09 1
  419.3692 0.09 1
  420.1505 0.16 2
  420.4655 0.07 1
  421.3139 0.11 1
  421.6071 0.09 1
  421.7520 0.11 1
  422.0637 0.14 1
  422.2580 0.27 3
  422.3443 0.12 1
  422.8637 0.08 1
  423.2726 0.29 3
  423.4469 0.15 1
  423.9161 0.15 1
  424.2990 0.44 4
  424.7875 0.06 1
  424.9861 0.04 0
  425.1077 0.10 1
  425.3650 0.25 2
  425.5611 0.08 1
  426.2022 0.61 6
  426.3900 0.26 3
  426.7680 0.08 1
  426.9624 0.19 2
  427.2575 0.79 8
  427.4268 0.45 4
  427.7722 0.10 1
  428.1394 0.42 4
  428.3138 0.38 4
  428.4722 0.10 1
  428.7506 0.07 1
  428.8671 0.07 1
  429.0465 0.08 1
  429.2880 0.13 1
  429.5949 0.07 1
  429.7140 0.10 1
  430.0552 0.05 0
  430.2900 0.26 3
  431.3710 0.17 2
  431.5219 0.09 1
  431.8692 0.07 1
  432.1577 0.02 0
  432.2953 0.09 1
  432.4077 0.05 0
  433.3069 0.08 1
  433.7115 0.05 0
  434.2622 0.12 1
  435.1805 0.19 2
  435.5330 0.05 0
  435.8477 0.06 1
  436.0294 0.15 1
  436.2689 0.28 3
  437.3481 0.29 3
  437.5717 0.05 0
  437.7777 0.09 1
  438.0080 0.10 1
  438.2349 0.12 1
  438.4401 0.10 1
  438.5799 0.03 0
  438.9719 0.08 1
  439.2382 0.12 1
  439.4568 0.10 1
  440.4811 0.04 0
  440.6713 0.10 1
  440.9946 0.17 2
  441.2032 0.38 4
  441.3682 0.07 1
  441.4855 0.02 0
  441.8726 0.19 2
  442.1524 0.54 5
  442.3643 0.40 4
  442.6283 0.09 1
  442.8427 0.09 1
  443.2793 1.01 10
  443.4603 0.32 3
  443.7401 0.07 1
  443.9781 0.01 0
  444.2471 0.27 3
  444.4264 0.19 2
  444.7080 0.02 0
  445.3005 0.12 1
  446.0800 0.02 0
  446.4094 0.18 2
  447.2107 0.13 1
  448.0029 0.05 0
  448.7088 0.06 1
  449.2781 0.14 1
  449.8667 0.12 1
  450.0864 0.10 1
  450.2189 0.08 1
  450.5149 0.02 0
  451.0641 0.06 1
  451.3476 0.17 2
  451.6570 0.09 1
  452.0247 0.14 1
  452.5614 0.07 1
  453.0220 0.16 2
  453.3076 0.15 1
  453.5622 0.10 1
  454.1619 0.14 1
  454.4141 0.04 0
  455.1813 0.31 3
  455.3899 0.22 2
  455.6287 0.09 1
  456.1388 0.05 0
  456.3156 0.06 1
  456.9398 0.13 1
  457.3118 0.78 8
  458.0030 0.09 1
  458.2117 0.12 1
  458.3801 0.06 1
  458.6483 0.15 1
  459.2860 2.21 22
  459.7494 0.07 1
  460.2179 0.23 2
  460.9278 0.04 0
  461.2321 0.08 1
  461.3251 0.05 0
  462.4970 0.05 0
  462.8969 0.02 0
  463.3035 0.26 3
  463.7151 0.05 0
  464.2626 0.10 1
  464.9334 0.07 1
  465.1539 0.04 0
  465.2898 0.10 1
  465.5984 0.09 1
  466.0219 0.09 1
  466.1090 0.05 0
  466.3958 0.04 0
  467.2865 0.10 1
  468.2091 0.10 1
  468.4968 0.05 0
  468.6839 0.05 0
  469.2451 0.31 3
  469.4531 0.12 1
  470.2123 0.68 7
  470.5102 0.21 2
  470.6704 0.09 1
  471.2233 1.26 13
  471.8912 0.07 1
  472.1580 0.20 2
  472.3653 0.04 0
  472.5558 0.11 1
  472.7194 0.03 0
  472.9015 0.04 0
  473.0828 0.12 1
  473.4084 0.15 1
  474.0529 0.06 1
  474.3768 0.11 1
  475.1935 0.17 2
  475.2984 0.06 1
  475.4998 0.04 0
  476.0631 0.16 2
  476.1789 0.11 1
  477.1250 0.30 3
  477.3617 0.19 2
  477.5598 0.07 1
  478.1148 0.09 1
  478.5699 0.03 0
  478.8965 0.03 0
  479.3507 0.24 2
  479.5421 0.11 1
  480.2097 0.06 1
  480.9647 0.03 0
  481.2754 0.05 0
  481.5021 0.06 1
  481.6348 0.08 1
  481.8616 0.08 1
  482.1992 0.04 0
  482.8006 0.06 1
  483.2491 0.08 1
  483.3995 0.16 2
  483.5641 0.13 1
  483.8363 0.01 0
  484.0690 0.12 1
  484.2479 0.40 4
  484.3571 0.18 2
  485.0199 0.09 1
  485.2451 0.35 3
  485.4047 0.17 2
  486.0289 0.12 1
  486.2297 0.10 1
  486.3835 0.10 1
  486.8708 0.04 0
  487.1540 0.23 2
  489.1405 0.06 1
  489.3061 0.17 2
  490.1878 0.10 1
  490.5789 0.07 1
  490.9030 0.08 1
  491.3857 0.10 1
  491.5150 0.09 1
  492.0313 0.01 0
  492.3965 0.12 1
  493.1270 0.07 1
  493.3411 0.07 1
  493.4796 0.11 1
  494.1085 0.12 1
  494.3185 0.03 0
  495.2800 0.22 2
  495.4664 0.14 1
  495.9879 0.10 1
  496.2592 0.13 1
  496.4675 0.13 1
  496.8538 0.03 0
  497.3040 0.12 1
  497.5770 0.11 1
  498.3624 0.08 1
  499.0772 0.07 1
  499.2133 0.09 1
  500.2920 0.28 3
  500.4533 0.10 1
  501.2641 0.31 3
  501.4775 0.10 1
  501.5783 0.04 0
  501.8901 0.11 1
  502.0691 0.10 1
  502.2111 0.08 1
  502.4346 0.10 1
  502.5295 0.05 0
  502.8371 0.13 1
  503.1883 0.06 1
  503.3883 0.20 2
  503.5589 0.07 1
  503.9858 0.03 0
  504.3640 0.12 1
  504.5204 0.02 0
  505.1692 0.04 0
  505.3524 0.09 1
  505.5272 0.10 1
  505.7138 0.06 1
  505.8155 0.02 0
  506.3140 0.08 1
  506.9973 0.05 0
  507.3126 0.28 3
  507.4025 0.13 1
  507.5505 0.11 1
  507.7422 0.06 1
  508.0793 0.12 1
  508.3802 0.01 0
  509.2033 0.08 1
  509.3067 0.05 0
  509.4665 0.07 1
  509.8322 0.12 1
  510.0626 0.14 1
  510.4014 0.18 2
  511.0547 0.06 1
  511.2768 0.05 0
  511.4231 0.03 0
  511.7376 0.04 0
  511.8721 0.01 0
  512.1782 0.20 2
  512.2917 0.03 0
  512.9031 0.09 1
  513.3279 0.10 1
  513.7786 0.03 0
  514.1731 0.14 1
  514.4280 0.13 1
  514.5314 0.07 1
  514.8998 0.09 1
  515.2051 0.21 2
  515.3330 0.13 1
  515.4920 0.12 1
  516.2146 0.07 1
  516.3525 0.03 0
  516.5797 0.14 1
  516.8674 0.10 1
  517.0861 0.12 1
  517.2594 0.02 0
  518.0738 0.10 1
  518.2168 0.18 2
  518.3237 0.09 1
  519.2139 0.22 2
  519.4074 0.26 3
  519.6705 0.04 0
  520.2198 0.11 1
  520.4114 0.11 1
  521.1851 0.11 1
  521.4540 0.11 1
  521.9186 0.06 1
  522.1589 0.11 1
  522.5420 0.06 1
  522.9058 0.09 1
  523.0814 0.03 0
  523.3621 0.21 2
  523.6376 0.07 1
  523.7839 0.11 1
  524.2141 0.10 1
  524.9216 0.10 1
  525.1452 0.16 2
  525.3200 0.14 1
  526.2075 0.07 1
  526.3983 0.21 2
  526.8000 0.10 1
  527.2396 0.19 2
  527.4043 0.16 2
  527.9783 0.06 1
  528.1129 0.10 1
  528.3246 0.12 1
  528.5818 0.17 2
  529.0248 0.01 0
  529.2947 0.36 4
  529.4847 0.08 1
  529.5822 0.04 0
  529.8453 0.09 1
  530.0387 0.11 1
  530.2842 0.27 3
  530.4246 0.13 1
  530.5910 0.12 1
  530.8373 0.05 0
  530.9819 0.10 1
  531.2341 0.16 2
  531.3199 0.09 1
  531.5427 0.24 2
  531.9118 0.07 1
  532.2178 0.10 1
  533.1158 0.07 1
  533.2521 0.08 1
  533.5489 0.09 1
  533.8903 0.01 0
  534.3461 0.15 1
  535.2972 0.07 1
  535.4578 0.22 2
  535.8262 0.07 1
  536.3350 0.40 4
  536.4772 0.06 1
  536.6917 0.19 2
  537.0634 0.17 2
  537.2745 0.14 1
  537.4427 0.11 1
  537.8911 0.10 1
  538.1484 0.22 2
  538.3074 0.15 1
  538.7019 0.03 0
  538.8424 0.12 1
  539.2218 0.33 3
  539.4615 0.05 0
  540.1665 0.33 3
  540.3406 0.26 3
  540.4904 0.14 1
  540.7268 0.07 1
  541.1104 0.15 1
  541.4142 0.11 1
  541.6270 0.06 1
  542.2168 0.17 2
  542.3456 0.12 1
  542.5105 0.17 2
  542.8538 0.07 1
  543.1011 0.13 1
  543.4285 0.14 1
  543.6742 0.15 1
  544.1420 0.16 2
  544.2405 0.11 1
  544.4231 0.11 1
  544.6057 0.08 1
  544.9348 0.12 1
  545.2419 0.28 3
  545.4894 0.06 1
  545.6257 0.10 1
  545.9699 0.11 1
  546.3259 0.14 1
  546.4926 0.16 2
  546.8351 0.08 1
  546.9647 0.15 1
  547.3115 0.25 2
  547.5328 0.17 2
  548.0993 0.02 0
  548.4093 0.19 2
  548.5042 0.10 1
  548.8711 0.03 0
  549.1138 0.11 1
  549.3749 0.24 2
  549.5361 0.16 2
  549.8628 0.13 1
  550.2390 0.10 1
  550.3893 0.06 1
  550.6740 0.18 2
  550.9914 0.06 1
  551.2089 0.22 2
  551.4692 0.14 1
  551.8010 0.10 1
  551.9891 0.17 2
  552.1243 0.22 2
  552.3460 0.11 1
  552.4771 0.06 1
  552.7013 0.12 1
  553.0624 0.08 1
  553.4009 0.16 2
  553.5580 0.02 0
  554.2853 0.75 7
  554.4718 0.32 3
  554.6852 0.05 0
  554.9598 0.12 1
  555.5226 0.10 1
  555.6697 0.09 1
  555.9158 0.19 2
  556.3182 0.07 1
  556.4341 0.06 1
  556.9037 0.09 1
  557.4053 0.09 1
  557.5884 0.09 1
  558.0480 0.07 1
  558.2043 0.05 0
  558.4563 0.03 0
  558.6109 0.11 1
  558.7865 0.10 1
  558.9924 0.17 2
  559.4335 0.02 0
  559.6646 0.10 1
  560.0326 0.12 1
  560.1578 0.12 1
  560.3048 0.11 1
  560.4687 0.03 0
  560.6771 0.07 1
  560.9973 0.07 1
  561.2611 0.40 4
  561.3947 0.25 2
  561.5426 0.11 1
  561.6998 0.03 0
  561.9132 0.12 1
  562.3527 0.45 4
  562.7048 0.08 1
  562.8318 0.09 1
  563.3032 0.51 5
  563.5067 0.15 1
  563.6310 0.06 1
  564.3009 0.24 2
  564.4833 0.33 3
  564.8741 0.05 0
  565.0918 0.28 3
  565.3019 0.14 1
  565.5364 0.21 2
  565.8391 0.06 1
  566.1728 0.30 3
  566.3459 0.12 1
  566.4527 0.03 0
  566.6696 0.22 2
  566.9352 0.23 2
  567.1916 0.23 2
  567.3665 0.23 2
  567.5665 0.32 3
  567.9810 0.09 1
  568.1491 0.18 2
  568.2702 0.10 1
  568.4391 0.13 1
  568.8292 0.11 1
  569.0344 0.11 1
  569.4346 0.13 1
  570.2173 0.09 1
  570.3721 0.18 2
  570.5503 0.29 3
  570.8303 0.34 3
  571.0161 0.03 0
  571.2129 0.29 3
  571.6072 0.09 1
  571.7947 0.10 1
  572.2169 0.11 1
  572.6096 0.17 2
  572.8719 0.12 1
  572.9956 0.04 0
  573.2428 0.14 1
  573.5136 0.09 1
  573.8239 0.19 2
  574.3891 0.12 1
  574.5480 0.07 1
  574.8811 0.11 1
  575.1157 0.04 0
  575.2873 0.21 2
  575.3748 0.08 1
  575.5236 0.10 1
  575.6498 0.07 1
  575.7608 0.09 1
  576.1452 0.29 3
  576.3773 0.15 1
  576.8677 0.03 0
  577.2488 0.19 2
  577.7341 0.24 2
  577.9755 0.24 2
  578.1539 0.10 1
  578.3751 0.15 1
  578.6670 0.08 1
  578.8613 0.02 0
  579.2458 0.51 5
  579.4965 0.51 5
  579.6899 0.08 1
  579.8288 0.07 1
  580.0719 0.33 3
  580.3420 0.84 8
  580.4908 0.29 3
  580.8341 0.03 0
  580.9805 0.12 1
  581.2649 0.26 3
  581.3860 0.13 1
  581.6326 0.06 1
  581.7664 0.09 1
  581.9211 0.10 1
  582.2535 0.61 6
  582.4622 0.47 5
  582.7424 0.15 1
  582.8535 0.06 1
  583.2506 0.34 3
  583.4240 0.32 3
  583.6234 0.07 1
  583.7563 0.10 1
  583.9196 0.10 1
  584.2822 0.12 1
  584.4194 0.09 1
  584.7021 0.23 2
  584.8183 0.21 2
  585.0438 0.12 1
  585.2609 0.25 2
  585.4705 0.15 1
  586.1698 0.43 4
  586.4391 0.30 3
  586.8743 0.34 3
  587.1595 0.13 1
  587.3472 0.22 2
  587.6317 0.23 2
  587.9962 0.30 3
  588.3379 0.40 4
  588.4759 0.13 1
  588.6594 0.18 2
  588.8505 0.04 0
  589.0693 0.20 2
  589.2461 0.35 3
  589.4683 0.57 6
  590.3395 1.70 17
  590.8657 0.47 5
  591.1687 0.54 5
  591.4002 0.58 6
  591.9634 0.59 6
  592.4205 0.99 10
  592.8348 0.89 9
  593.0528 0.55 5
  593.3601 0.84 8
  593.9191 0.48 5
  594.0513 0.19 2
  594.3115 0.36 4
  594.5456 0.33 3
  594.8689 0.28 3
  595.1367 0.24 2
  595.3707 0.50 5
  595.5358 0.21 2
  595.6334 0.08 1
  595.9218 0.20 2
  596.3420 0.40 4
  596.5395 0.26 3
  596.6883 0.11 1
  596.9337 0.12 1
  597.3069 0.37 4
  597.4196 0.12 1
  597.5557 0.24 2
  597.7642 0.17 2
  597.9727 0.26 3
  598.5745 0.19 2
  598.8570 0.04 0
  599.0948 0.12 1
  599.4244 0.09 1
  599.6934 0.13 1
  599.9860 0.20 2
  600.1272 0.17 2
  600.4896 0.16 2
  600.7872 0.13 1
  601.0941 0.08 1
  601.3572 0.22 2
  601.5110 0.09 1
  601.6464 0.07 1
  601.8818 0.37 4
  602.3627 0.69 7
  602.7529 0.40 4
  603.4163 1.18 12
  604.8281 1.22 12
  605.8767 1.12 11
  606.2072 0.91 9
  607.3745 4.57 46
  608.4224 0.98 10
  608.8884 0.35 3
  609.2845 0.73 7
  609.7563 0.56 6
  610.1929 0.74 7
  610.6656 1.01 10
  611.3865 0.87 9
  611.9955 1.07 11
  612.2798 0.39 4
  612.6979 0.45 4
  613.1388 0.72 7
  613.3196 0.60 6
  613.5400 0.45 4
  613.8379 0.49 5
  614.1677 0.46 5
  614.4772 0.39 4
  614.7036 0.19 2
  614.8954 0.39 4
  615.2059 0.36 4
  615.7199 0.34 3
  616.0211 0.12 1
  616.3156 0.35 3
  616.5916 0.13 1
  616.7498 0.22 2
  616.9197 0.11 1
  617.1411 0.16 2
  617.2942 0.09 1
  617.4827 0.20 2
  617.7999 0.17 2
  618.0330 0.10 1
  618.2341 0.10 1
  618.4318 0.18 2
  618.5673 0.10 1
  618.7936 0.13 1
  618.9376 0.14 1
  619.2304 0.19 2
  619.4913 0.14 1
  619.7008 0.08 1
  619.8994 0.17 2
  620.1199 0.08 1
  620.3379 0.19 2
  620.7334 0.11 1
  621.4042 1.27 13
  621.7059 0.38 4
  622.3994 9.46 95
  623.3904 10.87 109
  623.8839 0.55 5
  624.1764 0.40 4
  624.4118 0.58 6
  624.5404 0.26 3
  624.6329 0.12 1
  624.7556 0.13 1
  624.9465 0.24 2
  625.1415 0.07 1
  625.3483 0.31 3
  625.6274 0.06 1
  625.9838 0.19 2
  626.2268 0.29 3
  626.4185 0.34 3
  626.5707 0.25 2
  626.7220 0.23 2
  626.9263 0.22 2
  627.3105 0.17 2
  627.5610 0.10 1
  628.0235 0.13 1
  628.2673 0.14 1
  628.4658 0.10 1
  628.6591 0.05 0
  628.8046 0.09 1
  628.9719 0.12 1
  629.2552 0.13 1
  629.5378 0.10 1
  629.8018 0.21 2
  630.1003 0.08 1
  630.3005 0.13 1
  630.4568 0.11 1
  630.6074 0.11 1
  630.7781 0.06 1
  631.1027 0.10 1
  631.3322 0.14 1
  631.4836 0.11 1
  631.6013 0.10 1
  631.7477 0.06 1
  631.9554 0.24 2
  632.1362 0.09 1
  632.2388 0.06 1
  632.4641 0.09 1
  632.5709 0.10 1
  632.9124 0.11 1
  633.0806 0.04 0
  633.3690 0.15 1
  633.5844 0.12 1
  633.8181 0.06 1
  634.0326 0.17 2
  634.3622 0.09 1
  634.6945 0.19 2
  634.8745 0.20 2
  635.1268 0.14 1
  635.3203 0.06 1
  635.6163 0.08 1
  635.7315 0.10 1
  636.0360 0.18 2
  636.1252 0.10 1
  636.4347 0.29 3
  636.9108 0.11 1
  637.2009 0.29 3
  637.4592 0.11 1
  637.7393 0.14 1
  638.3904 1.00 10
  639.3889 2.90 29
  639.9828 0.16 2
  640.3900 1.55 15
  640.6390 0.53 5
  640.9730 0.08 1
  641.2153 0.18 2
  641.5812 0.13 1
  641.9851 0.06 1
  642.1921 0.08 1
  642.6497 0.06 1
  643.1773 0.03 0
  643.4028 0.07 1
  643.6711 0.07 1
  644.0498 0.11 1
  644.2534 0.01 0
  644.4243 0.04 0
  644.5984 0.08 1
  644.8500 0.10 1
  644.9366 0.03 0
  645.0486 0.02 0
  645.4357 0.09 1
  645.6166 0.21 2
  646.0204 0.10 1
  646.4538 0.07 1
  646.7822 0.09 1
  648.0733 0.05 0
  648.2195 0.04 0
  648.3816 0.07 1
  648.8655 0.15 1
  649.1016 0.07 1
  649.3653 0.42 4
  649.7039 0.02 0
  650.2113 0.11 1
  650.5684 0.22 2
  650.6608 0.11 1
  650.8632 0.09 1
  651.2262 0.17 2
  651.3480 0.11 1
  651.6379 0.07 1
  652.0059 0.09 1
  652.1462 0.37 4
  652.4100 0.23 2
  652.5528 0.14 1
  653.0712 0.22 2
  653.5023 0.25 2
  653.9072 0.22 2
  654.0736 0.11 1
  654.3736 0.30 3
  654.5282 0.14 1
  654.7223 0.31 3
  654.8660 0.36 4
  655.1996 0.11 1
  655.5979 0.21 2
  655.8575 0.38 4
  656.1769 0.33 3
  656.6029 0.38 4
  656.8995 0.56 6
  657.1340 0.58 6
  657.3071 0.67 7
  657.4920 0.30 3
  657.6920 0.33 3
  657.8323 0.41 4
  658.3231 0.61 6
  658.7257 0.45 4
  659.5687 0.79 8
  660.1191 0.73 7
  660.5529 0.71 7
  660.9714 0.63 6
  661.6531 1.01 10
  662.2431 1.12 11
  662.5751 0.66 7
  663.0526 0.76 8
  663.3384 0.79 8
  664.4320 4.11 41
  664.8151 1.59 16
  665.4390 1.38 14
  666.2116 1.13 11
  666.5786 1.15 11
  667.4041 5.78 58
  668.0197 0.84 8
  668.4891 0.91 9
  668.9779 0.64 6
  669.5414 1.00 10
  670.0143 1.30 13
  670.5493 0.85 8
  671.0692 1.24 12
  671.5051 0.84 8
  672.2166 1.21 12
  672.8490 1.05 10
  673.5663 1.15 11
  682.3963 99.97 999
  683.3845 31.81 318
  684.2450 13.69 137
  685.0669 6.96 70
  685.9997 4.31 43
//
