ACCESSION: MSBNK-Kyoto_Univ-CA000018
RECORD_TITLE: 3,4-Dehydroxy-3'-deoxycapsanthin; FAB-EBEB; MS2; m/z: 550.42; [M]+*
DATE: 2016.01.19 (Created 2010.04.01, modified 2011.05.10)
AUTHORS: Akimoto N, Graduate School of Pharmaceutical Sciences, Kyoto University and Maoka T, Research Institute for Production Development
LICENSE: CC BY-SA
PUBLICATION: Takashi Maoka, Naoshige Akimoto, Yasuhiro Fujiwara, and Keiji Hashimoto, Structure of New Carotenoids with the 6-Oxo-? End Group from the Fruits of Paprika, Capsicum annuum, J. Nat. Prod., 67, 115-117 (2004).
COMMENT: Profile spectrum of this record is given as a JPEG file.
COMMENT: [Profile] CA000018.jpg
CH$NAME: 3,4-Dehydroxy-3'-deoxycapsanthin
CH$COMPOUND_CLASS: N/A
CH$FORMULA: C40H54O
CH$EXACT_MASS: 550.41747
CH$SMILES: C(C(=CC=CC=C(C=CC=C(C=CC(=O)C(C2)(C)C(CC2)(C)C)C)C)C)=CC=C(C=CC(=C1C)C(CC=C1)(C)C)C
CH$IUPAC: InChI=1S/C40H54O/c1-31(19-13-21-33(3)24-26-36-35(5)23-15-28-38(36,6)7)17-11-12-18-32(2)20-14-22-34(4)25-27-37(41)40(10)30-16-29-39(40,8)9/h11-15,17-27H,16,28-30H2,1-10H3/b12-11+,19-13+,20-14+,26-24+,27-25+,31-17+,32-18+,33-21+,34-22+/t40-/m0/s1
CH$LINK: NIKKAJI J1.998.452D
CH$LINK: INCHIKEY ZFQAIKNKCQDPPB-BKGWKKLQSA-N
AC$INSTRUMENT: JMS-HX/HX 110A, JEOL
AC$INSTRUMENT_TYPE: FAB-EBEB
AC$MASS_SPECTROMETRY: MS_TYPE MS2
AC$MASS_SPECTROMETRY: ION_MODE POSITIVE
AC$MASS_SPECTROMETRY: ATOM_GUN_CURRENT 5 mA
AC$MASS_SPECTROMETRY: BOMBARDMENT 6 kV xenon
AC$MASS_SPECTROMETRY: COLLISION_ENERGY 3 kV
AC$MASS_SPECTROMETRY: COLLISION_GAS Ar
AC$MASS_SPECTROMETRY: GAS_PRESSURE adjust to attenuate the intensity of the precursor ion by 30 %
AC$MASS_SPECTROMETRY: IONIZATION FAB
AC$MASS_SPECTROMETRY: MATRIX 1-2 uL m-NBA
AC$MASS_SPECTROMETRY: PROBE_TIP stainless-steel
MS$FOCUSED_ION: BASE_PEAK 68.9738
MS$FOCUSED_ION: PRECURSOR_M/Z 550.42
MS$FOCUSED_ION: PRECURSOR_TYPE [M]+*
MS$DATA_PROCESSING: RELATIVE_M/Z normalised by peak(m/z=68.9738).  set 999 for peak(m/z=550.3937,rel=1352).
PK$SPLASH: splash10-0uxu-3920010000-36a5ce38ac391759016d
PK$NUM_PEAK: 1611
PK$PEAK: m/z int. rel.int.
  0.3125 0.02 0
  2.1054 0.01 0
  2.7220 0.06 1
  3.9256 0.02 0
  5.9703 0.01 0
  11.9592 0.04 1
  13.9814 0.03 0
  14.9713 0.10 1
  22.9175 0.02 0
  23.9541 0.02 0
  24.9403 0.14 2
  25.9554 0.33 4
  26.9581 4.37 59
  27.9647 0.52 7
  28.9675 2.79 38
  30.9426 0.06 1
  31.9426 0.01 0
  36.9280 0.36 5
  37.9401 2.01 27
  38.4995 0.07 1
  38.9421 9.66 131
  39.4039 0.10 1
  39.9604 1.46 20
  40.7030 0.04 1
  40.9624 24.79 335
  41.9579 0.28 4
  42.9628 12.57 170
  43.1266 0.02 0
  43.9942 0.09 1
  44.9438 0.10 1
  45.9598 0.11 1
  46.0759 0.01 0
  46.8805 0.01 0
  48.9407 0.15 2
  49.9322 3.71 50
  50.1269 0.02 0
  50.9415 8.94 121
  51.0997 0.12 2
  51.6110 0.07 1
  51.7513 0.03 0
  51.9465 2.87 39
  52.0668 0.09 1
  52.9550 14.08 190
  53.9593 0.78 11
  54.2740 0.04 1
  54.3280 0.02 0
  54.5397 0.03 0
  54.9694 55.95 756
  55.2857 0.02 0
  55.6656 0.03 0
  55.9640 0.55 7
  56.9873 5.58 75
  57.9767 0.06 1
  58.9795 0.49 7
  59.9429 0.05 1
  60.0680 0.01 0
  60.9356 0.48 6
  61.4239 0.03 0
  61.9322 1.91 26
  62.0815 0.10 1
  62.4305 0.01 0
  62.9378 6.39 86
  63.2700 0.01 0
  63.3724 0.03 0
  63.5751 0.03 0
  63.9369 1.24 17
  64.1491 0.04 1
  64.2524 0.01 0
  64.9549 11.21 152
  65.4037 0.03 0
  65.5481 0.08 1
  65.9577 1.94 26
  66.4265 0.03 0
  66.9639 14.60 197
  67.1603 0.10 1
  67.9613 0.69 9
  68.6126 0.05 1
  68.7144 0.12 2
  68.9738 73.89 999
  69.2708 0.04 1
  69.4808 0.16 2
  69.6556 0.06 1
  69.9741 0.72 10
  70.9719 0.92 12
  71.4415 0.02 0
  72.0300 0.06 1
  72.3115 0.01 0
  72.9051 0.03 0
  73.0034 0.01 0
  73.1154 0.10 1
  73.2243 0.13 2
  73.9154 1.98 27
  74.1237 0.08 1
  74.9333 2.21 30
  75.1213 0.14 2
  75.2169 0.04 1
  75.4405 0.20 3
  75.6198 0.14 2
  75.9445 2.29 31
  76.1974 0.08 1
  76.3677 0.16 2
  76.6270 0.17 2
  76.9416 30.00 406
  77.1780 0.17 2
  77.2987 0.11 1
  77.5058 0.14 2
  77.6061 0.03 0
  77.9477 5.93 80
  78.1279 0.22 3
  78.3964 0.05 1
  78.5784 0.02 0
  78.7226 0.05 1
  78.9574 22.32 302
  79.2601 0.05 1
  79.9621 2.50 34
  80.2241 0.04 1
  80.5790 0.04 1
  80.7032 0.08 1
  80.9725 21.61 292
  81.2538 0.06 1
  81.5269 0.02 0
  81.9665 1.02 14
  82.5777 0.04 1
  82.9795 5.84 79
  83.9753 0.17 2
  84.9760 0.39 5
  85.9234 0.62 8
  86.9198 0.72 10
  87.9266 0.44 6
  88.4806 0.09 1
  88.6869 0.04 1
  88.9439 3.90 53
  89.1098 0.09 1
  89.4078 0.24 3
  89.5463 0.14 2
  89.9636 1.37 19
  90.0988 0.26 4
  90.2571 0.11 1
  90.5340 0.23 3
  90.9569 47.12 637
  91.2689 0.11 1
  91.4425 0.13 2
  91.6342 0.01 0
  91.7190 0.02 0
  91.9616 4.04 55
  92.2656 0.05 1
  92.4796 0.10 1
  92.5808 0.08 1
  92.9801 25.04 339
  93.1938 0.21 3
  93.3391 0.04 1
  93.4590 0.07 1
  93.5453 0.03 0
  93.9886 1.14 15
  94.1185 0.12 2
  94.4533 0.05 1
  94.6553 0.02 0
  94.9882 14.86 201
  95.2613 0.11 1
  95.4852 0.23 3
  95.8378 0.07 1
  95.9863 0.74 10
  96.1039 0.09 1
  96.2047 0.02 0
  96.4651 0.02 0
  96.9771 2.69 36
  97.5042 0.05 1
  97.9243 0.44 6
  98.9447 0.34 5
  99.5114 0.04 1
  99.9712 0.21 3
  100.6565 0.09 1
  100.9592 0.84 11
  101.2392 0.16 2
  101.3539 0.12 2
  101.4610 0.11 1
  101.6069 0.07 1
  101.6841 0.07 1
  101.9602 3.20 43
  102.2171 0.17 2
  102.3385 0.10 1
  102.5967 0.19 3
  102.9648 8.82 119
  103.2358 0.27 4
  103.4460 0.08 1
  103.6084 0.12 2
  103.9748 4.40 59
  104.1286 0.15 2
  104.2776 0.01 0
  104.6616 0.17 2
  104.9766 54.17 732
  105.2579 0.14 2
  105.3735 0.10 1
  105.4499 0.04 1
  105.5768 0.03 0
  105.7031 0.01 0
  105.9879 5.10 69
  106.1448 0.18 2
  106.4462 0.10 1
  106.5848 0.13 2
  106.7229 0.19 3
  106.9872 15.75 213
  107.3235 0.22 3
  107.5169 0.30 4
  107.9669 1.34 18
  108.9891 10.76 145
  109.2604 0.04 1
  109.6926 0.03 0
  109.9535 0.76 10
  110.4118 0.11 1
  110.5102 0.03 0
  111.0113 64.09 867
  111.3366 0.27 4
  111.4948 0.09 1
  111.9961 0.82 11
  112.3411 0.23 3
  112.4840 0.08 1
  112.6204 0.16 2
  112.7496 0.45 6
  112.9376 0.80 11
  113.0902 0.09 1
  113.2561 0.12 2
  113.4375 0.21 3
  113.9133 0.79 11
  114.1933 0.30 4
  114.3121 0.38 5
  114.9458 26.85 363
  115.1781 0.26 4
  115.3019 0.21 3
  115.5001 0.22 3
  115.9485 11.06 150
  116.3623 0.26 4
  116.5043 0.33 4
  116.6806 0.39 5
  116.9527 23.38 316
  117.1479 0.21 3
  117.3256 0.15 2
  117.4979 0.15 2
  117.9560 5.05 68
  118.1472 0.08 1
  118.2425 0.10 1
  118.4422 0.22 3
  118.9649 51.10 691
  119.3237 0.19 3
  119.4481 0.09 1
  119.5986 0.10 1
  119.9777 3.79 51
  120.2643 0.06 1
  120.5420 0.11 1
  120.9627 15.77 213
  121.2341 0.21 3
  121.3298 0.05 1
  121.5382 0.06 1
  121.6927 0.08 1
  121.9491 1.76 24
  122.2008 0.11 1
  122.3688 0.07 1
  122.5763 0.02 0
  122.9636 2.76 37
  123.6985 0.10 1
  123.9787 0.27 4
  124.2487 0.12 2
  124.6075 0.04 1
  124.7517 0.13 2
  124.9538 0.86 12
  125.1638 0.14 2
  125.2752 0.23 3
  125.5913 0.23 3
  125.9246 1.10 15
  126.0727 0.12 2
  126.2184 0.04 1
  126.9253 9.39 127
  127.2329 0.38 5
  127.4538 0.40 5
  127.9278 29.76 402
  128.2089 0.35 5
  128.3879 0.43 6
  128.9340 31.76 429
  129.2815 0.19 3
  129.9420 12.67 171
  130.2531 0.13 2
  130.3420 0.05 1
  130.4026 0.03 0
  130.5448 0.24 3
  130.9469 31.37 424
  131.1756 0.13 2
  131.3265 0.18 2
  131.5148 0.11 1
  131.9463 4.90 66
  132.4872 0.16 2
  132.9609 25.74 348
  133.1987 0.35 5
  133.4877 0.14 2
  133.6624 0.03 0
  133.9626 2.00 27
  134.1714 0.21 3
  134.2607 0.12 2
  134.4868 0.13 2
  134.5824 0.20 3
  134.9645 11.69 158
  135.4418 0.12 2
  135.6942 0.03 0
  135.9441 0.98 13
  136.1379 0.11 1
  136.2805 0.04 1
  136.5337 0.03 0
  136.9439 0.87 12
  137.2127 0.05 1
  137.6806 0.11 1
  137.8866 0.53 7
  138.0399 0.15 2
  138.0969 0.07 1
  138.4712 0.10 1
  138.5628 0.10 1
  138.9224 3.42 46
  139.2587 0.15 2
  139.6316 0.11 1
  139.9576 1.58 21
  140.0772 0.78 11
  140.4697 0.40 5
  140.9312 22.62 306
  141.3072 0.29 4
  141.4940 0.19 3
  141.9417 23.25 314
  142.2082 0.21 3
  142.4958 0.32 4
  142.9464 34.10 461
  143.2567 0.27 4
  143.4109 0.23 3
  143.5820 0.14 2
  143.9603 12.20 165
  144.2024 0.16 2
  144.3654 0.19 3
  144.9626 38.41 519
  145.2735 0.10 1
  145.4299 0.19 3
  145.6137 0.08 1
  145.9610 3.28 44
  146.2104 0.03 0
  146.4187 0.20 3
  146.6221 0.05 1
  146.9771 8.72 118
  147.2255 0.07 1
  147.3529 0.05 1
  147.5570 0.08 1
  147.6869 0.10 1
  147.9642 0.43 6
  148.2303 0.12 2
  148.5478 0.05 1
  148.9816 1.58 21
  149.4112 0.05 1
  149.6195 0.06 1
  149.9643 0.82 11
  150.4131 0.16 2
  150.5696 0.17 2
  150.9409 2.22 30
  151.2836 0.25 3
  151.4603 0.26 4
  151.9416 9.78 132
  152.2294 0.38 5
  152.9501 12.48 169
  153.2588 0.28 4
  153.3887 0.10 1
  153.6248 0.11 1
  153.9745 6.65 90
  154.1742 0.24 3
  154.3645 0.12 2
  154.5027 0.25 3
  154.9709 21.12 286
  155.3914 0.18 2
  155.6411 0.27 4
  155.9876 14.64 198
  156.2185 0.24 3
  156.5017 0.15 2
  156.9926 30.57 413
  157.5537 0.28 4
  157.9953 7.63 103
  158.2789 0.13 2
  158.4818 0.21 3
  158.9957 34.35 464
  159.3684 0.27 4
  159.5999 0.12 2
  160.0126 1.61 22
  160.3667 0.08 1
  160.7114 0.13 2
  161.0152 3.97 54
  161.4264 0.15 2
  161.6160 0.08 1
  161.7499 0.06 1
  161.8460 0.17 2
  161.9932 0.42 6
  162.3599 0.07 1
  162.9860 1.32 18
  163.2612 0.11 1
  163.4105 0.16 2
  163.5820 0.41 6
  163.6548 0.15 2
  164.0016 1.51 20
  164.2409 0.40 5
  164.4987 0.32 4
  164.9845 19.18 259
  165.3310 0.17 2
  165.4800 0.35 5
  165.5814 0.07 1
  165.9852 7.39 100
  166.2484 0.17 2
  166.5574 0.16 2
  166.9992 14.86 201
  167.2926 0.11 1
  168.0073 6.52 88
  168.3307 0.21 3
  168.5269 0.28 4
  169.0187 21.02 284
  169.2625 0.27 4
  169.4430 0.16 2
  169.6273 0.09 1
  170.0188 7.09 96
  170.3895 0.10 1
  170.5352 0.22 3
  171.0246 14.16 191
  171.3068 0.14 2
  171.5008 0.24 3
  171.5928 0.11 1
  171.6905 0.14 2
  172.0064 2.67 36
  172.3662 0.24 3
  172.4417 0.07 1
  173.0390 13.45 182
  173.2727 0.31 4
  173.5134 0.37 5
  173.7414 0.15 2
  174.0171 0.71 10
  174.2598 0.23 3
  174.4765 0.14 2
  174.6169 0.24 3
  175.0384 5.99 81
  175.2984 0.21 3
  175.4141 0.22 3
  175.5515 0.23 3
  175.6768 0.27 4
  175.9573 1.60 22
  176.2022 0.15 2
  176.3931 0.11 1
  176.9671 1.63 22
  177.2364 0.38 5
  177.5058 0.24 3
  177.9726 11.01 149
  178.2751 0.20 3
  178.3612 0.11 1
  178.9774 15.34 207
  179.2514 0.20 3
  179.3758 0.27 4
  179.6129 0.15 2
  179.9943 6.25 85
  180.2060 0.24 3
  180.3170 0.11 1
  180.9870 15.42 208
  181.3686 0.34 5
  181.5991 0.16 2
  182.0007 6.92 94
  182.3698 0.32 4
  182.5390 0.16 2
  182.9990 14.92 202
  183.5314 0.32 4
  184.0159 3.00 41
  184.2883 0.15 2
  184.5754 0.22 3
  185.0142 9.14 124
  185.4236 0.11 1
  185.6047 0.13 2
  185.8083 0.26 4
  186.0201 1.90 26
  186.2794 0.29 4
  186.5054 0.13 2
  187.0260 4.39 59
  187.2450 0.10 1
  187.3956 0.08 1
  187.5275 0.08 1
  188.0036 0.46 6
  188.3939 0.20 3
  188.9574 3.68 50
  189.2241 0.07 1
  189.3967 0.24 3
  189.5705 0.11 1
  189.9662 2.18 29
  190.2902 0.20 3
  190.9699 7.91 107
  191.2202 0.24 3
  191.9702 8.22 111
  192.4513 0.07 1
  192.9930 13.57 183
  193.3053 0.05 1
  193.5585 0.10 1
  193.9976 6.20 84
  194.2053 0.15 2
  194.4985 0.51 7
  195.0022 15.35 208
  195.3251 0.16 2
  195.5046 0.32 4
  196.0188 4.21 57
  196.3162 0.12 2
  196.3954 0.04 1
  196.7005 0.41 6
  197.0161 11.56 156
  197.3625 0.13 2
  197.4856 0.14 2
  197.5745 0.03 0
  198.0048 2.36 32
  198.3669 0.26 4
  198.5293 0.15 2
  199.0327 5.97 81
  199.2365 0.17 2
  199.4621 0.15 2
  200.0109 0.56 8
  200.2141 0.35 5
  200.4921 0.17 2
  200.6901 0.12 2
  201.0263 2.83 38
  201.2302 0.43 6
  201.5361 0.23 3
  201.6407 0.15 2
  201.9789 5.02 68
  202.2094 0.31 4
  202.3676 0.10 1
  202.5801 0.26 4
  202.9773 4.65 63
  203.2298 0.27 4
  203.3345 0.12 2
  203.4501 0.12 2
  203.5884 0.28 4
  203.9845 2.39 32
  204.2772 0.14 2
  204.5241 0.19 3
  205.0128 9.10 123
  205.2935 0.16 2
  205.5741 0.19 3
  205.6317 0.09 1
  205.9958 4.88 66
  206.2927 0.13 2
  206.4629 0.12 2
  206.5683 0.05 1
  207.0064 10.17 137
  207.2213 0.28 4
  207.3895 0.10 1
  207.5772 0.16 2
  208.0142 3.43 46
  208.2946 0.16 2
  208.4234 0.04 1
  208.5976 0.26 4
  209.0329 12.26 166
  209.3704 0.14 2
  209.5226 0.33 4
  209.6049 0.21 3
  210.0242 2.80 38
  210.3605 0.08 1
  210.5576 0.10 1
  210.6418 0.05 1
  211.0418 5.90 80
  211.2649 0.16 2
  211.4977 0.12 2
  211.9672 0.76 10
  212.2708 0.04 1
  212.5393 0.14 2
  212.6399 0.13 2
  213.0188 1.34 18
  213.3913 0.34 5
  213.6204 0.01 0
  213.9904 0.60 8
  214.3436 0.28 4
  214.9884 4.80 65
  215.2937 0.09 1
  215.4431 0.12 2
  215.6516 0.26 4
  216.0070 2.06 28
  216.4833 0.14 2
  217.0078 3.99 54
  217.3426 0.19 3
  217.4987 0.11 1
  217.6280 0.22 3
  217.7249 0.23 3
  218.0312 2.60 35
  218.3869 0.09 1
  219.0303 4.87 66
  219.3048 0.30 4
  219.5879 1.68 23
  219.8260 0.59 8
  220.0551 2.97 40
  220.2680 0.31 4
  220.6403 0.22 3
  221.0596 7.00 95
  221.3656 0.13 2
  221.5336 0.23 3
  221.6522 0.09 1
  222.0501 2.47 33
  222.3999 0.09 1
  223.0717 5.90 80
  223.3728 0.18 2
  223.5044 0.25 3
  223.6902 0.07 1
  224.0448 1.14 15
  224.3857 0.12 2
  224.6433 0.13 2
  224.7248 0.08 1
  225.0848 2.19 30
  225.4004 0.16 2
  225.5544 0.07 1
  225.7070 0.07 1
  226.0175 1.16 16
  226.1604 0.48 6
  226.3811 0.08 1
  226.5203 0.09 1
  227.0548 1.47 20
  227.3920 0.42 6
  227.5600 0.11 1
  227.7345 0.35 5
  228.0165 1.42 19
  228.3949 0.34 5
  228.5636 0.19 3
  229.0365 3.82 52
  229.4229 0.10 1
  229.7168 0.16 2
  230.0459 1.42 19
  230.3112 0.10 1
  230.4181 0.13 2
  230.5902 0.14 2
  231.0472 4.65 63
  231.3628 0.11 1
  231.4756 0.15 2
  231.7390 0.20 3
  232.0482 2.12 29
  232.3313 0.15 2
  232.4957 0.14 2
  232.6444 0.05 1
  233.0606 4.44 60
  233.3099 0.25 3
  233.5305 0.17 2
  233.6767 0.19 3
  233.8352 0.29 4
  234.0689 1.95 26
  234.3887 0.15 2
  234.5572 0.16 2
  234.7139 0.37 5
  235.0677 4.96 67
  235.4700 0.12 2
  235.6861 0.05 1
  235.8102 0.17 2
  236.0872 1.71 23
  236.3119 0.22 3
  236.4699 0.13 2
  236.5666 0.12 2
  236.7228 0.01 0
  237.0860 4.23 57
  237.3860 0.24 3
  237.5605 0.06 1
  237.7578 0.08 1
  238.0899 0.94 13
  238.3847 0.12 2
  238.6148 0.16 2
  238.7880 0.19 3
  239.0613 2.36 32
  239.3327 0.11 1
  239.5688 0.06 1
  239.6688 0.05 1
  239.7885 0.14 2
  240.0841 0.59 8
  240.2961 0.12 2
  240.4334 0.13 2
  240.7828 0.34 5
  241.0674 2.71 37
  241.4567 0.09 1
  241.5791 0.03 0
  241.7623 0.11 1
  242.0490 1.06 14
  242.3920 0.09 1
  242.5236 0.06 1
  243.0394 3.18 43
  243.2837 0.05 1
  243.5908 0.10 1
  243.7604 0.19 3
  244.0538 1.78 24
  244.3472 0.18 2
  244.4258 0.10 1
  244.5542 0.13 2
  244.6885 0.30 4
  245.0593 3.22 44
  245.3240 0.21 3
  245.5088 0.10 1
  245.6366 0.16 2
  246.0566 1.57 21
  246.3758 0.11 1
  246.6662 0.09 1
  246.8222 0.32 4
  247.0786 3.76 51
  247.4241 0.17 2
  247.6385 0.08 1
  247.8031 0.21 3
  248.0883 1.22 16
  248.3041 0.14 2
  248.3861 0.06 1
  248.5009 0.07 1
  248.6701 0.06 1
  249.0879 2.56 35
  249.5327 0.19 3
  250.0668 0.84 11
  250.3707 0.10 1
  250.5092 0.13 2
  250.6450 0.11 1
  251.1137 2.66 36
  251.3927 0.08 1
  251.8061 0.15 2
  252.0870 1.33 18
  252.2728 0.16 2
  252.4073 0.33 4
  252.5576 0.09 1
  252.7401 0.10 1
  253.0513 1.64 22
  253.3894 0.12 2
  253.5535 0.12 2
  254.0454 0.70 9
  254.2240 0.31 4
  254.3678 0.21 3
  254.6686 0.02 0
  255.0621 2.16 29
  255.4267 0.15 2
  255.6356 0.02 0
  255.7979 0.27 4
  256.0798 0.98 13
  256.1724 0.44 6
  256.3223 0.23 3
  256.4754 0.06 1
  256.5917 0.07 1
  257.0787 2.67 36
  257.2154 0.87 12
  257.5658 0.06 1
  257.6657 0.08 1
  257.7841 0.08 1
  258.0963 1.01 14
  259.0755 2.09 28
  259.6839 0.19 3
  259.8674 0.08 1
  260.1312 1.27 17
  260.3200 0.15 2
  260.5799 0.15 2
  260.6911 0.13 2
  261.0944 2.61 35
  261.3978 0.18 2
  261.7065 0.10 1
  262.0724 0.81 11
  262.3614 0.06 1
  262.5536 0.12 2
  263.0869 2.31 31
  263.4221 0.08 1
  263.5314 0.04 1
  263.6927 0.13 2
  263.8567 0.10 1
  264.1227 0.99 13
  264.3756 0.22 3
  264.6253 0.10 1
  265.1108 1.88 25
  265.4540 0.02 0
  265.8375 0.21 3
  266.0997 0.47 6
  266.4424 0.03 0
  266.5281 0.03 0
  267.0844 0.93 13
  267.6321 0.08 1
  267.7482 0.13 2
  268.0778 0.61 8
  268.8414 0.14 2
  269.0814 1.45 20
  269.5009 0.08 1
  269.7821 0.13 2
  270.0995 0.76 10
  270.8464 0.23 3
  271.1072 1.48 20
  271.5137 0.08 1
  271.9143 0.18 2
  272.1357 0.62 8
  272.2977 0.12 2
  272.4078 0.05 1
  272.6463 0.09 1
  272.8236 0.18 2
  273.0865 1.95 26
  273.2849 0.14 2
  273.6125 0.07 1
  273.7852 0.06 1
  274.1201 0.58 8
  274.3100 0.17 2
  274.6119 0.15 2
  275.1137 1.76 24
  275.3273 0.17 2
  275.5206 0.22 3
  275.7164 0.10 1
  276.1069 0.94 13
  276.4419 0.18 2
  276.6128 0.06 1
  276.8991 0.26 4
  277.1293 1.32 18
  277.6703 0.10 1
  278.1316 0.83 11
  279.1136 1.09 15
  279.2463 0.40 5
  279.5176 0.09 1
  280.0609 0.46 6
  280.1830 0.26 4
  280.6129 0.18 2
  281.0698 0.73 10
  281.3584 0.08 1
  281.5889 0.10 1
  281.7474 0.11 1
  281.8557 0.10 1
  282.0816 0.42 6
  282.3471 0.08 1
  282.6920 0.04 1
  282.8406 0.07 1
  283.1300 1.36 18
  283.4888 0.11 1
  283.6388 0.02 0
  284.1020 0.64 9
  284.4139 0.07 1
  284.5871 0.12 2
  284.8409 0.10 1
  285.0906 1.39 19
  285.2609 0.61 8
  285.5803 0.12 2
  285.7942 0.17 2
  286.1321 0.51 7
  286.3037 0.11 1
  286.3981 0.11 1
  286.5163 0.01 0
  286.7229 0.01 0
  287.1171 1.12 15
  287.6037 0.11 1
  288.0916 0.16 2
  288.6794 0.09 1
  289.1173 1.29 17
  289.2131 0.63 9
  289.4595 0.07 1
  289.8156 0.10 1
  290.0217 0.30 4
  290.1829 0.45 6
  290.7339 0.16 2
  291.1581 0.78 11
  291.4132 0.10 1
  291.9254 0.20 3
  292.0999 0.10 1
  292.2579 0.13 2
  292.5765 0.16 2
  292.8217 0.11 1
  293.1172 0.60 8
  293.4776 0.07 1
  293.5688 0.11 1
  294.0760 0.18 2
  294.4079 0.10 1
  294.7002 0.10 1
  295.0871 0.75 10
  296.0813 0.41 6
  296.2096 0.40 5
  296.4564 0.02 0
  296.5861 0.07 1
  296.7356 0.04 1
  297.1557 0.67 9
  297.2953 0.22 3
  297.6487 0.12 2
  298.1034 0.39 5
  298.4270 0.12 2
  299.0803 0.72 10
  299.1683 0.36 5
  299.3577 0.12 2
  299.6900 0.09 1
  299.8906 0.11 1
  300.1322 0.28 4
  300.2481 0.16 2
  300.4547 0.14 2
  300.7057 0.10 1
  301.1089 0.77 10
  301.3268 0.12 2
  301.6825 0.12 2
  301.9639 0.20 3
  302.1414 0.20 3
  302.3097 0.17 2
  302.4323 0.02 0
  302.8171 0.02 0
  303.1172 0.75 10
  303.2802 0.13 2
  303.8175 0.11 1
  303.9845 0.29 4
  304.2032 0.28 4
  304.5690 0.09 1
  304.8294 0.11 1
  305.0945 0.38 5
  305.2178 0.28 4
  305.4524 0.12 2
  306.0278 0.12 2
  306.2638 0.06 1
  306.5548 0.06 1
  306.7000 0.06 1
  306.8067 0.04 1
  307.0308 0.64 9
  307.1395 0.31 4
  307.3126 0.19 3
  307.6223 0.16 2
  307.7449 0.14 2
  307.8510 0.09 1
  308.1408 0.35 5
  308.8597 0.13 2
  309.1211 1.22 16
  309.9668 0.22 3
  310.1346 0.48 6
  311.0907 0.69 9
  311.2161 0.31 4
  311.4570 0.25 3
  311.5818 0.11 1
  311.6654 0.12 2
  311.8539 0.18 2
  312.0569 0.12 2
  312.1313 0.08 1
  312.2381 0.10 1
  312.5002 0.12 2
  312.9118 0.18 2
  313.1209 0.79 11
  313.5304 0.05 1
  314.0337 0.20 3
  314.1611 0.16 2
  314.2906 0.06 1
  314.8151 0.13 2
  314.9659 0.21 3
  315.1598 0.58 8
  315.5515 0.14 2
  315.7853 0.12 2
  316.1519 0.30 4
  316.4189 0.10 1
  316.9888 0.26 4
  317.1542 0.96 13
  317.6930 0.06 1
  318.0099 0.12 2
  318.2371 0.38 5
  319.1129 0.64 9
  319.3422 0.12 2
  319.5987 0.10 1
  319.9941 0.06 1
  320.1390 0.33 4
  321.1281 0.46 6
  322.0735 0.15 2
  322.2330 0.09 1
  322.5549 0.10 1
  323.0968 0.30 4
  323.2172 0.64 9
  323.7073 0.11 1
  324.1103 0.29 4
  324.3185 0.13 2
  325.1167 0.18 2
  325.8246 0.07 1
  326.1067 0.17 2
  326.4407 0.13 2
  326.7508 0.12 2
  327.2046 0.70 9
  327.3756 0.07 1
  328.0217 0.11 1
  328.1811 0.24 3
  328.3305 0.10 1
  328.5371 0.02 0
  328.7165 0.16 2
  329.1403 0.62 8
  329.3868 0.13 2
  330.1163 0.37 5
  330.2498 0.51 7
  330.8239 0.08 1
  331.1848 0.80 11
  331.5789 0.08 1
  331.9032 0.06 1
  332.1431 0.31 4
  332.3286 0.09 1
  332.4482 0.13 2
  332.6842 0.02 0
  332.9388 0.05 1
  333.1728 0.26 4
  333.8874 0.10 1
  333.9958 0.13 2
  334.1055 0.15 2
  334.3860 0.02 0
  334.4885 0.05 1
  334.7065 0.07 1
  335.1574 0.60 8
  335.5278 0.08 1
  335.7719 0.10 1
  336.1582 0.27 4
  336.3671 0.11 1
  337.0455 0.35 5
  337.2830 0.26 4
  337.5591 0.06 1
  338.1232 0.51 7
  338.2736 0.24 3
  339.1165 0.47 6
  339.2290 0.22 3
  339.3182 0.15 2
  340.1274 0.30 4
  340.2239 0.21 3
  340.3570 0.14 2
  341.1736 0.58 8
  341.2901 0.29 4
  341.4944 0.10 1
  342.0549 0.17 2
  342.2427 0.26 4
  342.7826 0.10 1
  343.0416 0.38 5
  343.2473 0.51 7
  343.4524 0.04 1
  343.5829 0.12 2
  343.6921 0.05 1
  344.2634 0.30 4
  344.3766 0.14 2
  344.8028 0.11 1
  345.1285 0.22 3
  345.2803 0.13 2
  345.8831 0.02 0
  345.9957 0.04 1
  346.1656 0.23 3
  346.2815 0.12 2
  346.8044 0.13 2
  347.1555 0.29 4
  347.6851 0.04 1
  348.1389 0.25 3
  348.6939 0.12 2
  349.2277 0.66 9
  349.6162 0.11 1
  349.9914 0.06 1
  350.1947 0.51 7
  350.5086 0.03 0
  351.0352 0.22 3
  351.2145 0.63 9
  351.5052 0.12 2
  351.9572 0.05 1
  352.0665 0.02 0
  352.2645 0.25 3
  352.4085 0.09 1
  352.9252 0.16 2
  353.0592 0.15 2
  353.2139 0.30 4
  353.3180 0.03 0
  354.0068 0.03 0
  354.2434 0.16 2
  355.0210 0.12 2
  355.2414 0.34 5
  355.3300 0.16 2
  355.6009 0.04 1
  355.7195 0.01 0
  355.9811 0.11 1
  356.0970 0.12 2
  356.2914 0.09 1
  356.7795 0.04 1
  357.0379 0.17 2
  357.2470 0.53 7
  358.1321 0.24 3
  358.2827 0.25 3
  358.3706 0.07 1
  358.8502 0.10 1
  359.0007 0.04 1
  359.1586 0.10 1
  359.3551 0.17 2
  359.7562 0.08 1
  360.0979 0.14 2
  360.2771 0.11 1
  361.0933 0.34 5
  361.2892 0.17 2
  361.3885 0.11 1
  362.1968 0.39 5
  363.0092 0.05 1
  363.2859 0.58 8
  363.6724 0.06 1
  363.9711 0.05 1
  364.0684 0.09 1
  364.2650 0.56 8
  365.1703 0.23 3
  365.3370 0.18 2
  365.4777 0.12 2
  365.6683 0.01 0
  365.7970 0.11 1
  366.0297 0.13 2
  366.1884 0.23 3
  366.3098 0.13 2
  367.1760 0.17 2
  367.8949 0.07 1
  368.0409 0.22 3
  368.2616 0.34 5
  369.1376 0.08 1
  369.2629 0.19 3
  370.1837 0.14 2
  370.3170 0.12 2
  370.6191 0.02 0
  371.0672 0.11 1
  371.2626 0.20 3
  372.0829 0.06 1
  372.2196 0.11 1
  372.5704 0.13 2
  373.2288 0.34 5
  373.8471 0.14 2
  374.1113 0.20 3
  374.3294 0.06 1
  374.5256 0.11 1
  374.8798 0.10 1
  375.1654 0.38 5
  375.2942 0.17 2
  375.8560 0.14 2
  376.1983 0.43 6
  376.4005 0.21 3
  377.1619 0.19 3
  377.2700 0.20 3
  377.3894 0.18 2
  377.6397 0.03 0
  378.0728 0.13 2
  378.1977 0.15 2
  378.4046 0.10 1
  379.0460 0.11 1
  379.2643 0.22 3
  379.8337 0.05 1
  380.1061 0.19 3
  380.2530 0.27 4
  380.5040 0.08 1
  380.9539 0.10 1
  381.1656 0.36 5
  381.3345 0.35 5
  381.5308 0.05 1
  382.2673 0.14 2
  382.8323 0.08 1
  383.2664 0.42 6
  384.2141 0.39 5
  384.4933 0.12 2
  384.6937 0.02 0
  384.8540 0.03 0
  385.0250 0.04 1
  385.2220 0.34 5
  385.3349 0.28 4
  385.7264 0.10 1
  386.1813 0.14 2
  386.6369 0.08 1
  387.3558 0.14 2
  387.7467 0.10 1
  387.8710 0.13 2
  388.1911 0.04 1
  389.2202 0.11 1
  389.4514 0.08 1
  390.2956 0.20 3
  391.1137 0.12 2
  391.3022 0.34 5
  391.7641 0.10 1
  392.1839 0.22 3
  392.3103 0.31 4
  392.5469 0.11 1
  393.1359 0.32 4
  393.2061 0.16 2
  393.3813 0.08 1
  394.0399 0.03 0
  394.2552 0.19 3
  394.5287 0.10 1
  394.6370 0.06 1
  394.9794 0.10 1
  395.2415 0.44 6
  395.3974 0.24 3
  396.2273 0.62 8
  396.4407 0.12 2
  397.1851 0.72 10
  397.4085 0.24 3
  397.5202 0.19 3
  397.6674 0.10 1
  398.2179 0.33 4
  398.3865 0.21 3
  398.9190 0.10 1
  399.2314 0.23 3
  399.5685 0.13 2
  400.6090 0.11 1
  401.2856 0.56 8
  401.5407 0.11 1
  401.7218 0.01 0
  402.2495 0.11 1
  402.3664 0.21 3
  402.8921 0.14 2
  403.2489 0.45 6
  403.4520 0.07 1
  403.8401 0.11 1
  403.9932 0.10 1
  404.1061 0.09 1
  404.3105 0.20 3
  404.4001 0.16 2
  404.5598 0.01 0
  404.9306 0.11 1
  405.3008 0.14 2
  405.4698 0.13 2
  406.0492 0.15 2
  406.2524 0.37 5
  406.8806 0.09 1
  407.3177 0.10 1
  407.4928 0.10 1
  408.0950 0.09 1
  408.3664 0.10 1
  408.6659 0.07 1
  408.9132 0.09 1
  409.1766 0.19 3
  409.4038 0.20 3
  409.5382 0.12 2
  409.8197 0.11 1
  410.2616 1.55 21
  410.7249 0.06 1
  411.2939 2.76 37
  411.7064 0.10 1
  411.8462 0.03 0
  412.0949 0.12 2
  412.2079 0.13 2
  412.3838 0.12 2
  412.7362 0.18 2
  413.0064 0.06 1
  413.1221 0.05 1
  413.2959 0.30 4
  413.9500 0.09 1
  414.1112 0.20 3
  414.2262 0.11 1
  414.3633 0.14 2
  414.6262 0.03 0
  414.9526 0.10 1
  415.2047 0.65 9
  415.4034 0.14 2
  416.1848 0.13 2
  416.3223 0.41 6
  416.4992 0.09 1
  416.6594 0.09 1
  416.8517 0.11 1
  417.2269 0.11 1
  417.4853 0.09 1
  417.6007 0.12 2
  417.6922 0.11 1
  417.9306 0.20 3
  418.8040 0.11 1
  419.4497 0.13 2
  420.0387 0.08 1
  420.1215 0.03 0
  420.2444 0.08 1
  420.7325 0.03 0
  420.9296 0.09 1
  421.2074 0.21 3
  421.3269 0.11 1
  421.6135 0.08 1
  422.1245 0.32 4
  422.3582 0.02 0
  422.7042 0.02 0
  422.8338 0.06 1
  422.9561 0.10 1
  423.2433 0.17 2
  423.5493 0.11 1
  423.9441 0.12 2
  424.1238 0.19 3
  424.3322 0.14 2
  424.4491 0.04 1
  424.5333 0.02 0
  424.6850 0.06 1
  424.7925 0.10 1
  425.0417 0.19 3
  425.2702 0.48 6
  425.5468 0.12 2
  425.6918 0.01 0
  426.3099 0.15 2
  426.4683 0.10 1
  426.7610 0.10 1
  426.9040 0.07 1
  427.2601 0.26 4
  427.3978 0.18 2
  427.4914 0.10 1
  427.7393 0.11 1
  427.8155 0.08 1
  428.2946 0.52 7
  428.4497 0.29 4
  428.8360 0.12 2
  429.0144 0.04 1
  429.2958 0.40 5
  429.4115 0.15 2
  429.7269 0.10 1
  429.9950 0.10 1
  430.2216 0.42 6
  430.3386 0.11 1
  430.5525 0.10 1
  431.2283 0.07 1
  431.3513 0.16 2
  432.1889 0.12 2
  433.2112 0.11 1
  433.4954 0.12 2
  433.7916 0.03 0
  434.4816 0.13 2
  434.5766 0.09 1
  434.7170 0.12 2
  434.9497 0.11 1
  435.0661 0.13 2
  435.1657 0.09 1
  435.2573 0.04 1
  435.6051 0.07 1
  435.7174 0.02 0
  435.9187 0.23 3
  436.0692 0.17 2
  436.3086 0.30 4
  436.4624 0.20 3
  436.6042 0.06 1
  436.7708 0.10 1
  436.9908 0.15 2
  437.3105 0.22 3
  437.5754 0.12 2
  437.6630 0.10 1
  437.7894 0.08 1
  438.2784 1.08 15
  438.6021 0.12 2
  438.8329 0.16 2
  439.2644 4.36 59
  439.6891 0.11 1
  439.8718 0.11 1
  440.0437 0.05 1
  440.2270 0.19 3
  440.4424 0.16 2
  440.6458 0.16 2
  440.9683 0.12 2
  441.2848 0.31 4
  441.4333 0.13 2
  441.9505 0.17 2
  442.3540 0.12 2
  443.0392 0.12 2
  443.3316 0.44 6
  443.9921 0.11 1
  444.1454 0.44 6
  444.2826 0.42 6
  444.4291 0.61 8
  444.8541 0.05 1
  444.9532 0.07 1
  445.2865 0.13 2
  445.4330 0.23 3
  446.1780 0.12 2
  446.7376 0.11 1
  447.4592 0.14 2
  448.0463 0.13 2
  449.6209 0.05 1
  449.9965 0.11 1
  450.2982 0.21 3
  450.7854 0.11 1
  450.9505 0.10 1
  451.2574 0.14 2
  451.5067 0.06 1
  451.6664 0.10 1
  451.8315 0.16 2
  452.0254 0.15 2
  452.2514 0.13 2
  452.8945 0.11 1
  453.2682 0.11 1
  453.7623 0.04 1
  453.8773 0.05 1
  454.2149 0.13 2
  454.6769 0.05 1
  454.9444 0.18 2
  455.0614 0.05 1
  455.2780 0.19 3
  455.4405 0.12 2
  455.7227 0.03 0
  456.1332 0.12 2
  456.3820 0.07 1
  456.5619 0.11 1
  456.7057 0.01 0
  457.2794 0.49 7
  457.3798 0.19 3
  457.6680 0.19 3
  457.8526 0.13 2
  458.3308 8.46 114
  458.6445 0.28 4
  458.9481 0.14 2
  459.1508 0.15 2
  459.3976 0.13 2
  459.4671 0.04 1
  459.7267 0.13 2
  459.8772 0.08 1
  461.2418 0.14 2
  461.6799 0.07 1
  462.9344 0.12 2
  463.2287 0.23 3
  463.3659 0.05 1
  464.0256 0.07 1
  464.1480 0.11 1
  464.2872 0.28 4
  464.3481 0.13 2
  464.5321 0.06 1
  464.6934 0.10 1
  464.9992 0.04 1
  465.1364 0.44 6
  465.3224 0.20 3
  466.2291 0.09 1
  466.4633 0.01 0
  467.1386 0.08 1
  467.3728 0.24 3
  468.1967 0.47 6
  468.4999 0.12 2
  469.0902 0.11 1
  469.2368 0.14 2
  469.3961 0.17 2
  470.2911 0.52 7
  470.4009 0.25 3
  470.5415 0.11 1
  470.9177 0.12 2
  471.0984 0.15 2
  471.3890 0.94 13
  471.8435 0.01 0
  472.3510 0.11 1
  472.8324 0.09 1
  473.8708 0.04 1
  474.0262 0.16 2
  474.5337 0.07 1
  474.6636 0.10 1
  474.8625 0.11 1
  475.7283 0.11 1
  476.1549 0.15 2
  477.0583 0.12 2
  477.3281 0.19 3
  477.5268 0.12 2
  478.0307 0.14 2
  478.2769 0.31 4
  478.7126 0.07 1
  478.8297 0.10 1
  479.2024 0.22 3
  479.3390 0.07 1
  479.4213 0.07 1
  479.5993 0.05 1
  479.8355 0.12 2
  479.9754 0.09 1
  480.3020 0.80 11
  480.3843 0.40 5
  480.5202 0.12 2
  480.8669 0.07 1
  481.0851 0.14 2
  481.2811 0.11 1
  481.5301 0.14 2
  481.6774 0.16 2
  481.9304 0.09 1
  482.1580 0.08 1
  482.3179 0.17 2
  483.0201 0.13 2
  483.1921 0.09 1
  483.2979 0.10 1
  483.4418 0.12 2
  484.4071 0.10 1
  484.7834 0.09 1
  490.1353 0.14 2
  490.2250 0.12 2
  490.6852 0.07 1
  491.2464 0.13 2
  491.3864 0.09 1
  491.7380 0.17 2
  492.1264 0.13 2
  492.2684 0.06 1
  492.3729 0.12 2
  492.4687 0.21 3
  492.8512 0.08 1
  493.0434 0.11 1
  493.2999 0.28 4
  493.5377 0.21 3
  493.9390 0.07 1
  494.2444 0.45 6
  494.4414 0.45 6
  494.6068 0.21 3
  494.9257 0.11 1
  495.0965 0.04 1
  495.3598 0.15 2
  496.7205 0.04 1
  497.0280 0.10 1
  497.2364 0.11 1
  497.8025 0.09 1
  498.1483 0.07 1
  499.7839 0.12 2
  501.4673 0.01 0
  502.8284 0.01 0
  503.4850 0.11 1
  504.2748 0.07 1
  504.4919 0.04 1
  505.4661 0.25 3
  506.1183 0.11 1
  506.3361 0.27 4
  506.7404 0.12 2
  507.1013 0.11 1
  507.3151 0.75 10
  507.5129 0.33 4
  507.6225 0.17 2
  507.8323 0.11 1
  508.2654 0.23 3
  508.4960 0.08 1
  508.7974 0.13 2
  510.0632 0.01 0
  510.3419 0.16 2
  510.4883 0.03 0
  510.6407 0.07 1
  511.7175 0.06 1
  512.6727 0.10 1
  513.7905 0.13 2
  514.0137 0.07 1
  514.1802 0.03 0
  514.6769 0.12 2
  514.7845 0.03 0
  515.7466 0.02 0
  516.1879 0.12 2
  516.3103 0.12 2
  516.4534 0.13 2
  517.2965 0.19 3
  517.8849 0.12 2
  518.2433 0.04 1
  519.2765 0.38 5
  519.4878 0.40 5
  519.9639 0.10 1
  520.1967 0.96 13
  520.4140 0.92 12
  520.7785 0.07 1
  521.3704 1.06 14
  521.5811 0.40 5
  522.1984 0.05 1
  522.2839 0.05 1
  522.6151 0.19 3
  522.8284 0.11 1
  522.9869 0.10 1
  523.2966 0.34 5
  523.4330 0.04 1
  523.5515 0.06 1
  523.7187 0.11 1
  523.8351 0.16 2
  523.9889 0.21 3
  524.0906 0.09 1
  524.2036 0.05 1
  524.3401 0.13 2
  524.4879 0.05 1
  524.6371 0.15 2
  524.8498 0.16 2
  525.1254 0.25 3
  525.3876 0.30 4
  525.5909 0.14 2
  525.8124 0.15 2
  526.0225 0.22 3
  526.2164 0.24 3
  526.3884 0.22 3
  526.6225 0.38 5
  526.8453 0.22 3
  527.0955 0.22 3
  527.2487 0.36 5
  527.4862 0.47 6
  527.8254 0.36 5
  527.9686 0.27 4
  528.2770 0.55 7
  528.5192 0.24 3
  528.7895 0.46 6
  529.2906 0.56 8
  529.5054 0.28 4
  529.7476 0.61 8
  530.1331 0.48 6
  530.2983 0.18 2
  530.5358 0.41 6
  530.7560 0.26 4
  531.0223 0.57 8
  531.1963 0.34 5
  531.4666 0.71 10
  531.5958 0.36 5
  531.9036 0.69 9
  532.3654 1.71 23
  532.5748 0.54 7
  532.7421 0.44 6
  533.1985 0.77 10
  533.4876 0.90 12
  534.3135 3.78 51
  534.5852 1.04 14
  534.7746 1.00 14
  535.3957 12.35 167
  535.8348 0.65 9
  536.3080 0.45 6
  536.5871 0.56 8
  536.8635 0.39 5
  537.1119 0.43 6
  537.2424 0.26 4
  537.4398 0.67 9
  537.5389 0.19 3
  537.7170 0.21 3
  538.0470 0.39 5
  538.3683 0.35 5
  538.8289 0.42 6
  539.2070 0.48 6
  539.4781 0.49 7
  539.7734 0.46 6
  539.9970 0.50 7
  540.0994 0.20 3
  540.3184 0.31 4
  540.4756 0.15 2
  540.7682 0.55 7
  541.0333 0.43 6
  541.2650 0.80 11
  541.3627 0.40 5
  541.4919 0.38 5
  541.7691 0.49 7
  542.2244 0.96 13
  542.5297 0.69 9
  543.4263 0.99 13
  543.8809 0.67 9
  544.7186 1.31 18
  545.2931 1.73 23
  545.5134 1.02 14
  545.9491 1.50 20
  550.3937 99.97 999
  550.9285 28.23 382
  551.6005 14.07 190
  552.1882 7.04 95
  552.9945 4.24 57
  553.4344 2.92 39
  553.8343 1.99 27
  554.6995 1.09 15
  555.0065 1.32 18
  555.2806 0.60 8
  555.4966 0.61 8
  555.7166 0.64 9
//
