ACCESSION: MSBNK-Kyoto_Univ-CA000064
RECORD_TITLE: Ipomoeaxanthin C; FAB-EBEB; MS2; m/z: 586.44; [M]+*
DATE: 2016.01.19 (Created 2010.04.01, modified 2011.05.10)
AUTHORS: Akimoto N, Graduate School of Pharmaceutical Sciences, Kyoto University and Maoka T, Research Institute for Production Development
LICENSE: CC BY-SA
PUBLICATION: Takashi Maoka, Naoshige Akimoto, Koji Ishiguro, Masaru Yoshinaga and Makoto Yoshimoto, Carotenoids with a 5,6-Dihydro-5,6-Dihydroxy-beta-End Group, from Yellow Sweet Potato "Benimasari", Ipomoea batatas LAM, Phytochemistr, 68, 1740-1745 (2007).
COMMENT: Profile spectrum of this record is given as a JPEG file.
COMMENT: [Profile] CA000064.jpg
CH$NAME: Ipomoeaxanthin C
CH$COMPOUND_CLASS: N/A
CH$FORMULA: C40H58O3
CH$EXACT_MASS: 586.43860
CH$SMILES: CC(C=CC=C(C)C(C=3)OC(C32)(CCCC(C)(C)2)C)=CC=CC=C(C)C=CC=C(C)C=CC(C1(C)O)(C(CCC1)(C)C)O
CH$IUPAC: InChI=1S/C40H58O3/c1-30(19-13-20-32(3)23-28-40(42)37(7,8)25-16-27-39(40,10)41)17-11-12-18-31(2)21-14-22-33(4)34-29-35-36(5,6)24-15-26-38(35,9)43-34/h11-14,17-23,28-29,34,41-42H,15-16,24-27H2,1-10H3/b12-11+,19-13+,21-14+,28-23+,30-17+,31-18+,32-20+,33-22+/t34?,38-,39-,40+/m1/s1
CH$LINK: NIKKAJI J2.484.867A
CH$LINK: INCHIKEY ZORQKKBTVVCHRR-FOTQGIOVSA-N
AC$INSTRUMENT: JMS-HX/HX 110A, JEOL
AC$INSTRUMENT_TYPE: FAB-EBEB
AC$MASS_SPECTROMETRY: MS_TYPE MS2
AC$MASS_SPECTROMETRY: ION_MODE POSITIVE
AC$MASS_SPECTROMETRY: ATOM_GUN_CURRENT 5 mA
AC$MASS_SPECTROMETRY: BOMBARDMENT 6 kV xenon
AC$MASS_SPECTROMETRY: COLLISION_ENERGY 3 kV
AC$MASS_SPECTROMETRY: COLLISION_GAS Ar
AC$MASS_SPECTROMETRY: GAS_PRESSURE adjust to attenuate the intensity of the precursor ion by 30 %
AC$MASS_SPECTROMETRY: IONIZATION FAB
AC$MASS_SPECTROMETRY: MATRIX 1-2 uL m-NBA
AC$MASS_SPECTROMETRY: PROBE_TIP stainless-steel
MS$FOCUSED_ION: BASE_PEAK 568.4644
MS$FOCUSED_ION: PRECURSOR_M/Z 586.44
MS$FOCUSED_ION: PRECURSOR_TYPE [M]+*
MS$DATA_PROCESSING: RELATIVE_M/Z normalised by peak(m/z=568.4644).  set 999 for peak(m/z=586.5649,rel=1404).
PK$SPLASH: splash10-00kr-4921150000-b8cc020647c35933aff4
PK$NUM_PEAK: 1712
PK$PEAK: m/z int. rel.int.
  6.6120 0.01 0
  11.9659 0.03 0
  12.9707 0.04 1
  13.9742 0.07 1
  14.9807 0.42 6
  21.9409 0.01 0
  22.9319 0.09 1
  24.9524 0.05 1
  25.9563 0.22 3
  26.4204 0.01 0
  26.5105 0.01 0
  26.9673 2.36 33
  27.3926 0.05 1
  27.9735 0.26 4
  28.9819 1.84 26
  29.9816 0.10 1
  30.9652 0.16 2
  31.9587 0.05 1
  36.9479 0.21 3
  37.4390 0.01 0
  37.7325 0.01 0
  37.9601 0.81 11
  38.2560 0.01 0
  38.4585 0.01 0
  38.9595 5.28 74
  39.1482 0.02 0
  39.9680 1.15 16
  40.9775 11.86 167
  41.1721 0.03 0
  41.9805 0.53 7
  42.5106 0.02 0
  42.9588 34.33 482
  43.5158 0.01 0
  43.9603 0.38 5
  44.9741 0.79 11
  46.8824 0.03 0
  48.6786 0.03 0
  48.8897 0.05 1
  48.9766 0.03 0
  49.9604 1.25 18
  50.9569 2.89 41
  51.6850 0.03 0
  51.9651 1.35 19
  52.2907 0.02 0
  52.4798 0.02 0
  52.9709 5.33 75
  53.9899 0.51 7
  54.6055 0.03 0
  54.7372 0.02 0
  54.9773 15.39 216
  55.9909 0.74 10
  56.9857 2.19 31
  57.9691 0.79 11
  58.9818 1.02 14
  59.9905 0.02 0
  60.9795 0.20 3
  61.0943 0.03 0
  61.4800 0.02 0
  61.9567 0.63 9
  62.4348 0.04 1
  62.7849 0.14 2
  62.9602 2.08 29
  63.3285 0.02 0
  63.6782 0.07 1
  63.9674 0.48 7
  64.3254 0.02 0
  64.9687 3.88 55
  65.9729 0.89 13
  66.5100 0.02 0
  66.9783 6.77 95
  67.7273 0.02 0
  67.9847 0.53 7
  68.9875 36.58 514
  69.2295 0.02 0
  69.6637 0.02 0
  69.9751 0.86 12
  70.9691 9.11 128
  71.3004 0.05 1
  71.5132 0.04 1
  71.9654 0.18 3
  72.7871 0.03 0
  72.9883 0.54 8
  73.9571 0.50 7
  74.9506 0.83 12
  75.1328 0.04 1
  75.3390 0.02 0
  75.4904 0.06 1
  75.5822 0.05 1
  75.9474 0.55 8
  76.2912 0.03 0
  76.5369 0.11 2
  76.6719 0.20 3
  76.9560 10.23 144
  77.1899 0.09 1
  77.5315 0.04 1
  77.6622 0.08 1
  77.9649 2.71 38
  78.1458 0.16 2
  78.3687 0.11 2
  78.5038 0.06 1
  78.9697 11.89 167
  79.2577 0.01 0
  79.5162 0.02 0
  79.5884 0.01 0
  79.9746 3.42 48
  80.1217 0.10 1
  80.3215 0.08 1
  80.5310 0.04 1
  80.9795 13.56 190
  81.2750 0.10 1
  81.7781 0.02 0
  81.9682 0.72 10
  82.1029 0.06 1
  82.9858 5.11 72
  83.3506 0.02 0
  83.5278 0.04 1
  83.9842 0.35 5
  84.4256 0.03 0
  84.9738 2.34 33
  85.9810 0.31 4
  86.4977 0.02 0
  86.9643 0.50 7
  87.7866 0.02 0
  87.9585 0.24 3
  88.9509 1.23 17
  89.2217 0.15 2
  89.3742 0.06 1
  89.4975 0.07 1
  89.6331 0.12 2
  89.6975 0.05 1
  89.9658 0.46 6
  90.2762 0.15 2
  90.5107 0.10 1
  90.9691 19.19 270
  91.1942 0.15 2
  91.4030 0.06 1
  91.4976 0.09 1
  91.9705 2.41 34
  92.2567 0.02 0
  92.4188 0.11 2
  92.5437 0.01 0
  92.9804 19.86 279
  93.2764 0.13 2
  93.7334 0.07 1
  93.9925 1.78 25
  94.3273 0.07 1
  94.5277 0.11 2
  94.9834 19.34 272
  95.3453 0.05 1
  95.6021 0.04 1
  95.9793 1.11 16
  96.1779 0.05 1
  96.4667 0.03 0
  96.5772 0.01 0
  96.7581 0.02 0
  96.9928 1.78 25
  97.4973 0.05 1
  97.9998 0.73 10
  98.9903 0.51 7
  100.0170 0.11 2
  100.5271 0.03 0
  100.9461 0.26 4
  101.2228 0.01 0
  101.4671 0.06 1
  101.6617 0.07 1
  101.9637 0.93 13
  102.2534 0.05 1
  102.4220 0.10 1
  102.5444 0.04 1
  102.6869 0.05 1
  102.9857 3.34 47
  103.4086 0.06 1
  103.5783 0.09 1
  103.6835 0.08 1
  103.9960 1.84 26
  104.2084 0.10 1
  104.3294 0.08 1
  104.4009 0.03 0
  104.5376 0.04 1
  104.6191 0.02 0
  104.9962 24.14 339
  105.3975 0.11 2
  105.9977 2.86 40
  106.4626 0.03 0
  106.5733 0.21 3
  106.7106 0.09 1
  107.0097 14.40 202
  107.2334 0.07 1
  107.3443 0.07 1
  107.4695 0.14 2
  107.9940 3.31 47
  108.2804 0.02 0
  108.5020 0.12 2
  109.0174 30.10 423
  109.4184 0.06 1
  109.7175 0.01 0
  110.0053 1.20 17
  110.3129 0.08 1
  110.4822 0.02 0
  110.5934 0.03 0
  110.7357 0.02 0
  111.0113 2.62 37
  111.4460 0.02 0
  111.6112 0.01 0
  111.9874 0.22 3
  112.5317 0.25 4
  112.9941 0.77 11
  113.1946 0.06 1
  113.4943 0.07 1
  113.9262 0.42 6
  114.2218 0.13 2
  114.3483 0.15 2
  114.5334 0.21 3
  114.9660 7.66 108
  115.2321 0.11 2
  115.3181 0.03 0
  115.4703 0.14 2
  115.5977 0.08 1
  115.6704 0.03 0
  115.9827 3.46 49
  116.3908 0.18 3
  116.9823 9.05 127
  117.3617 0.21 3
  117.4294 0.10 1
  117.5374 0.04 1
  117.7010 0.02 0
  117.9816 2.26 32
  118.4230 0.10 1
  118.5804 0.09 1
  118.9792 18.99 267
  119.2962 0.10 1
  119.4128 0.15 2
  119.6737 0.15 2
  119.9834 3.48 49
  120.1726 0.12 2
  120.2829 0.05 1
  120.4382 0.09 1
  120.5819 0.18 3
  120.9838 13.97 196
  121.2382 0.15 2
  121.3988 0.06 1
  121.5139 0.09 1
  121.9729 3.49 49
  122.4103 0.07 1
  122.6047 0.03 0
  122.9852 10.12 142
  123.2448 0.10 1
  123.3511 0.08 1
  123.6379 0.02 0
  123.7700 0.08 1
  123.9912 1.01 14
  124.4292 0.01 0
  124.6912 0.08 1
  124.9753 1.72 24
  125.6078 0.05 1
  125.9549 0.80 11
  126.2854 0.20 3
  126.4536 0.15 2
  126.9837 8.19 115
  127.3522 0.13 2
  127.5012 0.21 3
  127.9548 9.64 135
  128.2278 0.09 1
  128.3420 0.07 1
  128.9532 10.34 145
  129.2564 0.05 1
  129.5032 0.11 2
  129.9651 4.61 65
  130.2375 0.04 1
  130.4599 0.05 1
  130.9660 12.70 178
  131.4392 0.07 1
  131.5961 0.08 1
  131.9779 3.28 46
  132.3135 0.05 1
  132.4373 0.07 1
  132.6133 0.16 2
  132.9786 11.83 166
  133.3407 0.06 1
  133.4778 0.09 1
  133.9544 1.73 24
  134.2085 0.17 2
  134.4384 0.14 2
  134.9607 11.13 156
  135.3237 0.13 2
  135.4159 0.04 1
  135.9689 1.79 25
  136.3594 0.13 2
  136.9747 2.20 31
  137.3770 0.07 1
  137.5110 0.05 1
  137.9930 0.41 6
  138.3281 0.01 0
  138.4589 0.06 1
  138.5773 0.02 0
  138.9619 1.70 24
  139.3994 0.16 2
  139.5145 0.09 1
  139.9516 0.60 8
  140.0925 0.21 3
  140.1761 0.12 2
  140.4409 0.25 4
  140.9423 6.44 90
  141.2501 0.15 2
  141.4637 0.04 1
  141.6675 0.30 4
  141.9631 6.83 96
  142.2745 0.11 2
  142.4501 0.18 3
  142.5181 0.10 1
  142.9678 13.85 195
  143.2829 0.17 2
  143.5281 0.12 2
  143.9663 4.98 70
  144.5820 0.17 2
  144.9837 18.42 259
  145.3061 0.11 2
  145.5259 0.06 1
  145.9710 2.53 36
  146.2964 0.07 1
  146.5416 0.11 2
  146.9859 8.48 119
  147.2923 0.15 2
  147.5597 0.20 3
  147.6612 0.13 2
  147.9712 1.43 20
  148.3822 0.06 1
  148.4991 0.10 1
  148.9827 13.89 195
  149.3103 0.17 2
  149.4220 0.13 2
  149.6859 0.09 1
  149.9879 1.33 19
  150.3132 0.08 1
  150.5647 0.02 0
  150.7583 0.27 4
  151.0120 1.40 20
  151.4355 0.06 1
  151.5227 0.05 1
  151.9724 3.00 42
  152.4290 0.24 3
  152.9678 3.79 53
  153.2459 0.14 2
  153.3420 0.06 1
  153.9780 2.17 30
  154.2892 0.04 1
  154.4835 0.12 2
  154.9952 7.92 111
  155.2846 0.08 1
  155.4811 0.04 1
  156.0033 5.64 79
  156.2314 0.20 3
  157.0070 13.11 184
  157.3163 0.06 1
  157.5506 0.14 2
  157.7033 0.17 2
  158.0182 2.97 42
  158.2440 0.08 1
  158.3626 0.09 1
  158.4692 0.11 2
  158.5717 0.13 2
  159.0142 9.54 134
  159.2858 0.10 1
  159.5541 0.13 2
  160.0224 2.23 31
  160.2540 0.08 1
  160.3923 0.09 1
  160.6259 0.12 2
  161.0316 5.13 72
  161.2929 0.06 1
  161.5442 0.02 0
  162.0267 1.47 21
  162.3824 0.09 1
  162.6662 0.11 2
  163.0314 4.18 59
  163.3120 0.26 4
  163.4695 0.14 2
  164.0249 4.43 62
  164.3131 0.16 2
  164.4895 0.17 2
  165.0434 20.88 293
  165.3561 0.11 2
  165.5475 0.20 3
  165.6884 0.15 2
  166.0404 2.64 37
  166.2852 0.15 2
  166.3972 0.09 1
  166.6556 0.21 3
  167.0287 4.68 66
  167.2616 0.09 1
  167.3575 0.05 1
  167.6012 0.09 1
  168.0348 2.32 33
  168.3394 0.03 0
  168.5293 0.04 1
  169.0463 6.96 98
  169.4105 0.12 2
  169.6012 0.11 2
  170.0514 2.79 39
  170.4350 0.06 1
  170.5692 0.05 1
  170.6812 0.11 2
  171.0576 7.30 103
  171.3585 0.11 2
  171.5400 0.07 1
  171.6777 0.16 2
  172.0523 1.94 27
  172.3386 0.07 1
  172.5338 0.22 3
  173.0444 4.67 66
  173.5296 0.22 3
  173.7310 0.06 1
  174.0832 1.29 18
  174.2725 0.19 3
  174.4591 0.17 2
  174.5592 0.05 1
  175.0429 3.20 45
  175.2980 0.05 1
  175.4144 0.08 1
  175.5991 0.03 0
  175.8286 0.18 3
  176.0601 0.64 9
  176.3221 0.11 2
  176.4278 0.08 1
  177.0611 9.68 136
  177.2955 0.22 3
  177.4046 0.11 2
  178.0031 2.75 39
  178.4391 0.07 1
  178.6507 0.20 3
  179.0285 5.28 74
  179.5775 0.16 2
  180.0200 2.35 33
  180.4125 0.11 2
  180.5374 0.10 1
  180.6012 0.05 1
  181.0346 4.72 66
  181.4674 0.05 1
  181.5870 0.03 0
  182.0342 2.89 41
  182.4054 0.19 3
  182.4931 0.08 1
  182.5910 0.10 1
  183.0508 8.20 115
  183.3440 0.11 2
  183.5202 0.11 2
  183.7332 0.03 0
  184.0598 1.69 24
  184.3614 0.13 2
  184.4989 0.16 2
  184.7039 0.33 5
  185.0546 4.77 67
  185.4905 0.13 2
  186.0697 1.69 24
  186.2653 0.15 2
  186.6259 0.15 2
  187.0643 4.74 67
  187.4006 0.07 1
  187.5718 0.11 2
  188.0330 0.53 7
  188.5653 0.09 1
  189.0172 2.38 33
  189.4166 0.09 1
  189.5580 0.06 1
  190.0095 0.87 12
  190.1974 0.18 3
  190.3409 0.19 3
  190.5233 0.34 5
  191.0489 6.93 97
  191.3298 0.13 2
  191.4659 0.13 2
  192.0486 4.37 61
  192.3324 0.09 1
  192.5637 0.17 2
  193.0296 4.68 66
  193.5601 0.15 2
  194.0325 2.29 32
  194.4133 0.08 1
  194.4927 0.03 0
  195.0312 4.84 68
  195.4642 0.11 2
  195.5931 0.06 1
  196.0482 2.76 39
  196.3883 0.06 1
  196.5007 0.03 0
  197.0446 5.72 80
  197.4129 0.05 1
  197.5296 0.10 1
  198.0326 1.60 22
  198.3414 0.13 2
  198.4430 0.02 0
  198.7643 0.24 3
  199.0643 2.85 40
  199.5080 0.12 2
  200.0328 1.14 16
  200.5337 0.05 1
  200.6464 0.04 1
  201.0513 1.86 26
  201.4534 0.07 1
  201.7017 0.22 3
  202.0393 1.61 23
  202.2553 0.12 2
  202.4073 0.04 1
  203.0314 2.85 40
  203.4436 0.05 1
  204.0349 1.13 16
  204.4060 0.19 3
  205.0789 14.23 200
  205.3689 0.14 2
  205.5991 0.11 2
  206.0608 2.36 33
  206.3020 0.09 1
  206.4433 0.07 1
  206.5302 0.03 0
  207.0390 3.50 49
  207.5776 0.20 3
  207.7721 0.07 1
  208.0549 1.45 20
  208.4068 0.05 1
  209.0548 4.31 61
  209.3737 0.13 2
  209.4862 0.12 2
  210.0531 0.93 13
  210.3321 0.05 1
  210.4696 0.12 2
  210.5932 0.06 1
  211.0712 4.03 57
  211.5694 0.10 1
  211.8030 0.17 2
  212.0733 1.20 17
  212.2827 0.17 2
  213.0537 2.11 30
  213.4638 0.10 1
  213.6547 0.03 0
  214.0788 0.63 9
  214.5639 0.14 2
  215.0573 1.82 26
  215.4699 0.09 1
  215.5883 0.04 1
  215.7587 0.09 1
  216.0800 1.03 14
  216.3258 0.10 1
  216.4699 0.06 1
  217.0705 2.48 35
  217.6685 0.16 2
  218.0864 2.60 37
  218.3581 0.11 2
  218.5980 0.13 2
  219.0931 1.79 25
  219.3455 0.06 1
  219.5786 0.19 3
  220.0739 1.15 16
  220.2203 0.22 3
  220.6137 0.11 2
  221.0821 3.78 53
  221.3341 0.08 1
  221.4889 0.06 1
  221.6382 0.13 2
  221.7492 0.11 2
  222.1075 1.27 18
  222.4235 0.13 2
  222.5999 0.04 1
  223.1111 2.27 32
  223.3772 0.10 1
  223.6037 0.21 3
  224.0873 0.90 13
  224.3660 0.07 1
  224.5224 0.05 1
  224.7122 0.12 2
  225.0987 1.91 27
  225.4540 0.04 1
  225.7517 0.04 1
  226.0646 1.17 16
  226.2545 0.34 5
  226.4973 0.06 1
  226.8612 0.37 5
  227.1499 1.22 17
  227.3573 0.08 1
  227.7352 0.06 1
  228.0972 0.86 12
  228.4258 0.04 1
  228.6200 0.15 2
  229.1158 1.08 15
  229.5184 0.13 2
  229.6431 0.11 2
  230.1015 0.38 5
  230.5418 0.12 2
  231.1329 2.88 40
  231.4311 0.09 1
  231.6154 0.04 1
  231.7273 0.09 1
  231.8260 0.07 1
  232.1369 0.62 9
  232.4144 0.09 1
  232.4867 0.04 1
  233.1198 1.30 18
  233.4440 0.12 2
  234.0919 0.59 8
  234.5026 0.05 1
  235.1201 1.73 24
  235.4487 0.05 1
  235.6194 0.09 1
  236.1521 0.76 11
  236.4970 0.10 1
  236.6321 0.02 0
  237.1226 1.82 26
  237.5170 0.09 1
  237.6752 0.07 1
  238.1262 0.61 9
  238.6183 0.06 1
  239.1399 1.55 22
  239.4209 0.02 0
  239.6044 0.10 1
  239.8638 0.10 1
  240.1358 0.63 9
  240.5698 0.08 1
  241.1259 1.39 20
  241.4797 0.11 2
  241.6849 0.07 1
  241.8894 0.08 1
  242.1624 0.58 8
  242.5359 0.11 2
  242.8207 0.24 3
  243.1364 1.88 26
  243.4702 0.06 1
  243.7391 0.06 1
  244.1338 0.34 5
  244.3629 0.13 2
  244.5816 0.04 1
  244.7884 0.09 1
  245.1175 0.80 11
  245.5984 0.07 1
  245.8038 0.02 0
  246.1037 0.70 10
  246.3834 0.03 0
  246.5190 0.07 1
  246.5903 0.04 1
  247.1245 1.24 17
  247.8036 0.11 2
  248.1184 0.45 6
  248.2905 0.07 1
  248.4395 0.07 1
  249.1294 1.39 20
  249.4380 0.06 1
  249.5892 0.12 2
  249.8083 0.10 1
  250.1072 0.61 9
  250.2262 0.29 4
  250.5944 0.09 1
  251.1595 1.54 22
  251.5258 0.02 0
  251.9208 0.23 3
  252.1842 0.72 10
  252.4742 0.05 1
  252.5947 0.05 1
  252.7866 0.07 1
  253.1370 1.30 18
  253.7915 0.11 2
  253.9184 0.23 3
  254.1413 0.34 5
  254.2794 0.23 3
  254.4427 0.12 2
  254.6649 0.06 1
  254.7834 0.13 2
  255.1557 1.74 24
  255.8485 0.07 1
  256.1754 0.92 13
  256.7443 0.05 1
  257.1406 1.04 15
  257.4766 0.08 1
  257.6947 0.10 1
  258.1542 0.88 12
  258.4966 0.09 1
  258.5998 0.05 1
  258.7472 0.14 2
  259.1394 0.71 10
  259.4230 0.14 2
  259.8083 0.04 1
  259.9270 0.12 2
  260.1362 0.39 5
  260.4170 0.05 1
  260.8130 0.14 2
  261.1255 1.09 15
  261.2954 0.24 3
  261.5160 0.03 0
  261.9388 0.04 1
  262.1881 0.28 4
  262.5640 0.13 2
  263.1570 0.89 13
  263.2856 0.48 7
  263.5273 0.05 1
  263.6841 0.09 1
  263.8267 0.10 1
  264.1585 0.59 8
  264.3040 0.22 3
  264.5795 0.17 2
  264.7278 0.08 1
  264.8256 0.10 1
  265.1609 1.15 16
  265.5751 0.12 2
  265.7403 0.04 1
  266.1482 0.53 7
  266.4282 0.09 1
  266.6842 0.19 3
  267.1822 1.54 22
  267.5178 0.06 1
  267.6691 0.07 1
  267.8274 0.14 2
  268.1989 0.70 10
  268.3805 0.12 2
  268.7894 0.08 1
  269.1822 2.05 29
  269.6975 0.12 2
  270.2072 1.36 19
  270.5966 0.03 0
  270.7417 0.06 1
  271.1960 3.27 46
  271.5052 0.12 2
  272.0032 0.07 1
  272.1371 0.26 4
  272.2949 0.26 4
  272.8677 0.08 1
  273.2116 0.67 9
  273.5358 0.09 1
  273.7585 0.07 1
  274.1765 0.36 5
  274.4951 0.05 1
  274.7503 0.05 1
  275.2154 0.77 11
  275.3983 0.11 2
  275.6270 0.04 1
  275.9169 0.11 2
  276.1794 0.25 4
  276.3328 0.10 1
  276.4475 0.05 1
  276.7079 0.09 1
  276.8663 0.13 2
  277.1802 0.79 11
  277.5019 0.09 1
  277.6885 0.08 1
  278.1257 0.53 7
  278.2574 0.30 4
  278.4813 0.10 1
  278.6552 0.12 2
  278.9031 0.01 0
  279.1974 1.10 15
  279.6679 0.08 1
  279.8898 0.04 1
  280.1758 0.61 9
  280.3506 0.22 3
  280.4978 0.05 1
  281.2080 1.80 25
  281.4702 0.10 1
  281.9522 0.14 2
  282.1975 0.80 11
  282.4836 0.08 1
  283.2034 3.95 55
  283.4840 0.26 4
  283.5975 0.13 2
  283.9028 0.10 1
  284.2202 0.93 13
  285.1772 0.45 6
  285.3994 0.09 1
  285.6541 0.12 2
  285.7712 0.07 1
  286.1973 0.35 5
  287.1859 0.77 11
  287.3976 0.16 2
  287.9277 0.04 1
  288.1585 0.18 3
  288.3230 0.17 2
  288.8977 0.03 0
  289.1815 0.47 7
  289.3990 0.07 1
  289.5720 0.03 0
  289.8488 0.01 0
  290.2676 0.13 2
  291.1858 0.66 9
  291.3893 0.15 2
  291.5566 0.08 1
  291.8967 0.07 1
  292.2220 0.32 4
  292.7265 0.11 2
  293.2113 1.18 17
  293.6984 0.07 1
  294.1960 0.76 11
  294.3492 0.31 4
  294.5624 0.09 1
  294.6761 0.03 0
  295.1831 1.63 23
  295.6152 0.09 1
  295.8815 0.05 1
  296.2445 1.71 24
  296.6386 0.10 1
  296.7735 0.05 1
  296.9162 0.15 2
  297.2172 1.23 17
  297.7258 0.07 1
  297.9131 0.12 2
  298.1625 0.34 5
  298.2918 0.13 2
  298.3929 0.05 1
  299.1971 0.38 5
  299.3179 0.18 3
  299.4550 0.02 0
  299.9378 0.06 1
  300.1350 0.20 3
  300.2990 0.14 2
  300.4560 0.11 2
  300.5521 0.04 1
  300.7975 0.02 0
  300.9679 0.17 2
  301.1673 0.36 5
  301.3285 0.08 1
  301.6488 0.02 0
  302.1898 0.20 3
  302.3659 0.08 1
  302.5222 0.13 2
  302.7210 0.07 1
  303.1503 0.49 7
  303.2784 0.20 3
  303.3901 0.11 2
  304.1627 0.21 3
  304.5809 0.06 1
  304.7458 0.02 0
  305.2114 0.41 6
  305.9539 0.18 3
  306.2349 0.35 5
  306.6426 0.02 0
  306.8932 0.07 1
  307.2054 0.74 10
  307.4072 0.12 2
  307.5063 0.07 1
  307.8512 0.11 2
  308.2060 0.49 7
  308.3348 0.21 3
  308.6337 0.08 1
  309.2102 3.70 52
  309.6402 0.07 1
  309.8293 0.01 0
  309.9788 0.04 1
  310.2041 0.45 6
  310.3394 0.12 2
  310.6136 0.08 1
  310.7758 0.11 2
  311.0281 0.15 2
  311.1882 0.45 6
  311.3122 0.33 5
  311.4709 0.04 1
  311.7466 0.12 2
  311.8848 0.10 1
  312.2392 0.20 3
  313.1606 0.40 6
  313.2627 0.14 2
  313.3988 0.07 1
  313.9284 0.03 0
  314.1794 0.17 2
  314.5276 0.03 0
  314.7488 0.11 2
  314.8459 0.03 0
  315.0261 0.30 4
  315.1970 0.34 5
  315.3062 0.28 4
  315.6672 0.02 0
  315.8303 0.03 0
  315.9956 0.04 1
  316.1601 0.15 2
  316.2786 0.07 1
  316.4751 0.09 1
  316.5978 0.08 1
  316.6836 0.06 1
  316.8319 0.08 1
  317.1320 0.29 4
  317.4044 0.14 2
  317.7343 0.05 1
  317.8841 0.08 1
  318.1161 0.17 2
  318.2310 0.14 2
  318.3325 0.12 2
  318.4943 0.11 2
  319.1692 0.77 11
  319.3630 0.27 4
  319.5142 0.08 1
  319.6895 0.05 1
  319.8598 0.10 1
  320.2183 0.50 7
  320.4937 0.10 1
  320.6968 0.09 1
  320.8920 0.09 1
  321.2293 0.88 12
  321.3911 0.42 6
  321.5722 0.09 1
  322.2284 0.55 8
  322.6104 0.07 1
  322.7198 0.03 0
  322.8775 0.05 1
  323.2354 0.77 11
  324.2228 0.34 5
  325.1927 0.18 3
  325.4399 0.09 1
  325.6197 0.05 1
  325.8279 0.04 1
  326.1086 0.03 0
  326.2287 0.04 1
  326.3858 0.06 1
  326.5180 0.09 1
  327.0269 0.04 1
  327.2302 0.18 3
  327.3141 0.08 1
  327.5678 0.08 1
  328.1607 0.17 2
  328.4565 0.02 0
  328.5645 0.04 1
  328.8546 0.11 2
  329.2102 0.43 6
  329.3673 0.11 2
  329.7001 0.10 1
  330.0877 0.27 4
  330.3999 0.06 1
  330.6859 0.09 1
  330.9967 0.05 1
  331.1923 0.37 5
  331.4213 0.11 2
  331.5273 0.05 1
  331.8048 0.11 2
  332.2437 0.34 5
  332.4138 0.08 1
  332.6301 0.03 0
  332.8421 0.15 2
  333.2071 0.60 8
  333.4142 0.25 4
  333.6967 0.19 3
  333.9842 0.12 2
  334.2291 0.32 4
  334.3984 0.05 1
  334.8141 0.17 2
  335.2412 1.10 15
  335.5356 0.23 3
  335.6607 0.16 2
  335.8163 0.22 3
  336.2592 18.76 264
  336.6879 0.33 5
  336.7981 0.17 2
  337.2844 1.02 14
  337.7814 0.06 1
  338.2123 0.43 6
  338.5245 0.01 0
  338.7015 0.03 0
  338.8537 0.01 0
  339.2250 0.27 4
  339.3751 0.11 2
  340.2265 0.14 2
  340.8909 0.05 1
  341.3071 0.22 3
  341.4580 0.09 1
  341.5953 0.03 0
  342.1695 0.11 2
  342.2812 0.15 2
  342.8975 0.12 2
  343.2740 0.26 4
  343.8847 0.14 2
  344.2968 0.14 2
  344.6513 0.08 1
  345.2415 0.27 4
  345.4736 0.28 4
  345.7826 0.05 1
  346.3864 0.24 3
  346.4604 0.12 2
  346.7296 0.05 1
  346.9903 0.09 1
  347.3271 0.59 8
  347.6377 0.08 1
  347.8684 0.14 2
  348.2715 0.73 10
  349.2909 3.13 44
  349.6856 0.11 2
  350.1402 0.62 9
  350.3568 0.57 8
  351.2575 1.66 23
  351.9366 0.06 1
  352.2631 0.16 2
  352.5318 0.06 1
  353.1505 0.05 1
  353.3123 0.17 2
  353.5183 0.22 3
  353.7600 0.06 1
  353.8748 0.03 0
  354.3232 0.10 1
  355.2865 0.32 4
  355.9811 0.04 1
  356.1750 0.16 2
  356.2984 0.09 1
  356.6878 0.01 0
  356.8847 0.12 2
  357.2934 0.17 2
  358.0017 0.03 0
  358.2407 0.18 3
  358.5004 0.12 2
  358.7458 0.11 2
  358.8564 0.04 1
  359.0662 0.16 2
  359.3252 0.33 5
  359.6469 0.03 0
  360.1971 0.23 3
  360.4026 0.25 4
  360.7159 0.07 1
  360.8123 0.08 1
  360.9636 0.18 3
  361.3176 0.43 6
  361.6045 0.04 1
  361.7015 0.02 0
  361.9214 0.03 0
  362.2961 0.88 12
  362.4482 0.53 7
  362.6409 0.07 1
  363.3362 0.91 13
  363.5114 0.19 3
  363.7679 0.06 1
  364.2310 0.26 4
  364.4255 0.47 7
  364.9819 0.05 1
  365.1479 0.12 2
  365.3460 0.28 4
  365.4344 0.15 2
  366.2239 0.14 2
  366.4028 0.13 2
  366.9231 0.17 2
  367.0685 0.06 1
  367.2987 0.43 6
  367.4398 0.11 2
  368.1270 0.11 2
  368.4164 0.21 3
  369.2676 0.13 2
  369.4351 0.04 1
  370.0633 0.09 1
  370.2808 0.08 1
  370.9703 0.04 1
  371.3005 0.22 3
  371.5258 0.07 1
  371.8618 0.06 1
  372.3004 0.15 2
  372.4787 0.02 0
  373.2683 0.51 7
  373.4381 0.26 4
  373.6229 0.10 1
  374.0787 0.15 2
  374.3498 0.43 6
  374.8314 0.09 1
  375.3116 0.78 11
  375.9060 0.06 1
  376.3228 0.44 6
  376.7088 0.14 2
  377.3147 0.47 7
  377.4239 0.22 3
  377.6236 0.07 1
  377.9076 0.07 1
  378.3486 0.21 3
  378.6605 0.02 0
  379.1222 0.22 3
  379.4005 0.42 6
  379.7174 0.02 0
  380.1613 0.21 3
  380.2549 0.10 1
  380.3598 0.08 1
  380.5018 0.17 2
  380.6960 0.01 0
  381.1764 0.14 2
  381.4591 0.12 2
  381.9595 0.10 1
  382.3208 0.16 2
  382.5614 0.06 1
  383.0955 0.10 1
  383.2404 0.03 0
  383.4318 0.15 2
  384.0238 0.10 1
  384.1130 0.10 1
  384.2202 0.06 1
  384.4437 0.07 1
  385.1236 0.11 2
  385.3850 0.34 5
  385.8607 0.08 1
  386.1643 0.03 0
  386.4014 0.16 2
  386.8236 0.03 0
  387.3280 0.38 5
  387.7838 0.09 1
  388.2010 0.04 1
  388.4175 0.11 2
  388.6640 0.02 0
  388.8412 0.04 1
  389.3043 0.20 3
  389.5137 0.11 2
  390.2340 0.29 4
  390.3862 0.15 2
  390.4677 0.07 1
  390.8465 0.09 1
  391.1431 0.05 1
  391.4483 0.08 1
  392.0731 0.04 1
  392.2482 0.07 1
  392.4598 0.11 2
  392.5728 0.05 1
  392.9659 0.04 1
  393.3484 0.50 7
  393.9461 0.04 1
  394.3058 0.73 10
  394.5532 0.19 3
  395.3619 0.34 5
  395.4942 0.20 3
  395.6072 0.05 1
  396.0549 0.07 1
  396.3624 0.12 2
  396.6156 0.12 2
  396.8145 0.03 0
  397.3344 0.10 1
  397.5333 0.05 1
  398.3566 0.13 2
  399.0663 0.06 1
  399.2058 0.15 2
  399.3997 0.17 2
  399.6308 0.06 1
  399.7632 0.11 2
  399.9857 0.02 0
  400.2225 0.18 3
  400.4572 0.16 2
  400.7484 0.05 1
  401.3295 0.48 7
  401.5463 0.20 3
  401.8934 0.08 1
  402.0415 0.03 0
  402.3171 0.22 3
  402.4903 0.12 2
  402.5941 0.09 1
  402.9770 0.11 2
  403.3957 0.96 13
  403.9032 0.02 0
  404.3406 0.33 5
  404.5439 0.18 3
  404.9770 0.08 1
  405.0779 0.06 1
  405.2820 0.13 2
  405.4574 0.15 2
  405.6177 0.04 1
  406.0072 0.08 1
  406.2714 0.38 5
  406.3688 0.14 2
  406.5178 0.09 1
  406.6022 0.02 0
  406.7548 0.03 0
  406.9051 0.03 0
  407.3026 0.10 1
  407.4866 0.22 3
  407.7566 0.06 1
  408.1906 0.07 1
  408.3409 0.12 2
  408.5128 0.09 1
  408.6009 0.07 1
  408.7907 0.06 1
  409.3878 0.17 2
  409.5256 0.05 1
  409.6812 0.07 1
  410.2517 0.06 1
  410.4024 0.21 3
  411.0208 0.02 0
  411.3092 0.08 1
  411.4556 0.15 2
  411.6077 0.09 1
  412.1198 0.04 1
  412.2390 0.12 2
  412.4926 0.16 2
  412.5840 0.08 1
  412.8511 0.04 1
  413.3789 0.33 5
  413.6082 0.11 2
  414.0339 0.05 1
  414.4054 0.24 3
  414.6589 0.05 1
  415.0154 0.04 1
  415.3098 0.25 4
  415.4976 0.23 3
  415.6812 0.03 0
  415.8156 0.04 1
  416.0756 0.07 1
  416.1856 0.08 1
  416.3550 0.40 6
  416.5922 0.20 3
  416.8916 0.08 1
  417.0766 0.12 2
  417.3932 0.55 8
  417.6476 0.19 3
  417.7462 0.10 1
  418.0713 0.07 1
  418.2049 0.09 1
  418.4258 0.25 4
  418.5858 0.09 1
  419.0318 0.01 0
  419.3348 0.38 5
  419.4499 0.21 3
  419.8008 0.11 2
  420.3740 1.52 21
  421.0388 0.13 2
  421.3555 0.89 13
  421.5392 0.50 7
  421.7129 0.05 1
  421.8923 0.21 3
  422.3942 3.32 47
  422.8689 0.10 1
  423.1034 0.19 3
  423.2064 0.13 2
  423.3394 0.06 1
  423.5181 0.10 1
  424.1717 0.07 1
  424.3068 0.16 2
  424.3747 0.08 1
  424.5135 0.21 3
  424.6879 0.08 1
  424.9354 0.10 1
  425.2000 0.08 1
  425.3601 0.23 3
  425.6183 0.03 0
  425.8021 0.06 1
  426.1676 0.04 1
  426.2762 0.02 0
  426.5114 0.19 3
  426.6308 0.06 1
  426.8174 0.04 1
  426.9739 0.03 0
  427.3013 0.32 4
  427.4593 0.08 1
  428.3908 0.46 6
  428.5689 0.19 3
  428.7541 0.05 1
  429.3782 0.85 12
  429.6564 0.07 1
  429.8773 0.02 0
  429.9889 0.02 0
  430.1891 0.23 3
  430.3586 0.32 4
  430.4980 0.18 3
  430.6267 0.07 1
  431.0394 0.19 3
  431.3819 0.57 8
  431.5965 0.16 2
  432.0363 0.03 0
  432.3174 0.25 4
  432.5134 0.16 2
  432.8774 0.05 1
  433.3731 0.84 12
  433.5905 0.32 4
  433.8645 0.04 1
  434.0941 0.06 1
  434.3381 0.13 2
  435.4197 0.13 2
  435.5936 0.08 1
  435.6959 0.06 1
  436.2046 0.02 0
  436.4536 0.11 2
  437.3244 0.09 1
  437.6808 0.03 0
  437.9877 0.05 1
  438.4815 0.10 1
  438.9524 0.04 1
  439.1592 0.08 1
  439.4935 0.37 5
  439.7225 0.05 1
  439.7991 0.03 0
  440.3924 3.81 54
  440.7646 0.10 1
  440.8391 0.04 1
  440.9787 0.10 1
  441.2972 0.21 3
  441.4876 0.22 3
  442.1412 0.02 0
  442.2944 0.19 3
  442.5120 0.09 1
  442.9995 0.06 1
  443.3661 0.86 12
  443.6632 0.04 1
  444.2897 0.23 3
  444.3764 0.09 1
  444.5675 0.19 3
  444.7201 0.07 1
  444.8962 0.10 1
  444.9900 0.03 0
  445.3173 0.16 2
  445.5922 0.11 2
  446.4630 0.12 2
  446.7108 0.06 1
  446.8398 0.05 1
  447.0854 0.08 1
  447.3088 0.12 2
  447.4449 0.08 1
  448.1497 0.09 1
  448.4104 0.12 2
  448.5458 0.05 1
  448.7464 0.07 1
  448.8860 0.12 2
  449.0057 0.08 1
  449.3904 0.64 9
  449.7714 0.09 1
  450.3517 1.17 16
  450.6289 0.17 2
  450.8861 0.08 1
  451.2465 0.12 2
  451.4994 0.19 3
  451.7939 0.01 0
  451.9924 0.04 1
  452.1364 0.01 0
  452.9310 0.07 1
  453.2972 0.21 3
  453.7350 0.04 1
  454.0389 0.02 0
  454.1657 0.05 1
  454.3843 0.09 1
  454.4782 0.11 2
  454.8558 0.05 1
  454.9827 0.02 0
  455.2722 0.12 2
  455.3998 0.11 2
  455.5088 0.10 1
  455.7231 0.04 1
  455.8557 0.01 0
  456.7344 0.18 3
  456.9315 0.04 1
  457.0684 0.03 0
  457.3630 0.70 10
  457.5208 0.38 5
  457.7996 0.08 1
  457.8985 0.03 0
  458.1322 0.21 3
  458.2870 0.38 5
  458.5265 0.11 2
  458.9674 0.07 1
  459.4585 0.82 12
  459.8220 0.04 1
  460.3339 0.16 2
  460.7097 0.12 2
  461.6452 0.11 2
  462.3595 0.27 4
  462.4633 0.07 1
  462.6143 0.01 0
  463.0875 0.09 1
  463.3130 0.14 2
  463.4991 0.35 5
  464.1176 0.02 0
  464.2579 0.05 1
  464.3524 0.04 1
  464.4934 0.05 1
  465.1757 0.04 1
  465.3275 0.17 2
  465.5594 0.16 2
  465.9984 0.09 1
  466.4451 0.55 8
  466.7623 0.12 2
  467.3352 0.27 4
  467.5980 0.26 4
  467.7304 0.06 1
  467.9632 0.06 1
  468.2389 0.05 1
  468.6012 0.01 0
  469.3682 0.08 1
  469.6483 0.08 1
  470.1016 0.07 1
  470.1947 0.05 1
  470.4955 0.06 1
  470.6474 0.08 1
  470.8515 0.12 2
  471.0922 0.02 0
  471.3286 0.09 1
  471.4590 0.35 5
  471.6488 0.17 2
  471.8486 0.07 1
  472.0119 0.03 0
  472.3737 0.25 4
  472.5019 0.15 2
  472.7985 0.11 2
  473.2541 0.13 2
  473.3802 0.22 3
  473.4984 0.07 1
  473.6732 0.04 1
  473.8437 0.11 2
  474.0637 0.06 1
  474.1869 0.08 1
  474.3940 0.05 1
  474.5938 0.06 1
  474.7414 0.18 3
  475.0481 0.08 1
  475.2659 0.18 3
  475.5260 0.18 3
  475.7395 0.15 2
  475.8269 0.07 1
  476.4625 0.47 7
  476.6538 0.28 4
  476.8824 0.09 1
  477.1139 0.13 2
  477.3361 0.16 2
  477.4894 0.22 3
  477.6879 0.09 1
  477.7925 0.09 1
  478.1208 0.13 2
  478.3322 0.14 2
  478.4426 0.15 2
  478.6103 0.26 4
  478.7550 0.01 0
  478.8769 0.01 0
  479.4123 0.42 6
  479.6287 0.48 7
  480.1684 0.07 1
  480.3849 0.21 3
  480.6745 0.12 2
  481.3612 0.09 1
  481.4809 0.03 0
  481.7633 0.05 1
  482.2967 0.11 2
  482.5791 0.06 1
  483.1814 0.08 1
  483.2925 0.11 2
  483.4882 0.09 1
  483.6352 0.05 1
  483.8338 0.06 1
  484.1062 0.08 1
  484.2682 0.16 2
  484.4576 0.02 0
  484.6906 0.12 2
  484.8304 0.04 1
  485.0591 0.10 1
  485.4004 0.44 6
  485.9669 0.36 5
  486.2258 0.31 4
  486.6202 0.75 11
  487.4205 0.53 7
  487.6937 0.44 6
  488.0810 0.47 7
  488.4159 0.52 7
  488.5802 0.50 7
  488.8678 0.54 8
  489.4515 0.71 10
  489.8872 0.34 5
  490.3394 0.82 12
  490.6346 0.59 8
  490.8869 0.30 4
  491.0925 0.32 4
  491.3957 0.72 10
  491.6028 0.46 6
  491.9074 0.23 3
  492.4291 0.76 11
  492.7294 0.12 2
  493.0054 0.20 3
  493.4870 3.58 50
  493.9099 0.09 1
  494.0016 0.07 1
  494.4790 1.35 19
  494.7113 0.36 5
  495.0295 0.02 0
  495.1779 0.05 1
  495.3285 0.02 0
  495.5055 0.06 1
  495.6776 0.07 1
  496.0059 0.03 0
  496.1436 0.09 1
  496.2747 0.02 0
  496.5608 0.05 1
  496.9171 0.02 0
  497.1680 0.13 2
  497.3293 0.13 2
  497.5186 0.08 1
  497.6892 0.08 1
  498.0047 0.03 0
  498.5016 0.18 3
  498.6679 0.10 1
  498.9189 0.03 0
  499.0917 0.08 1
  499.4488 0.24 3
  499.6926 0.09 1
  499.9894 0.10 1
  500.2225 0.11 2
  500.4232 0.14 2
  500.5810 0.31 4
  500.9360 0.05 1
  501.1231 0.14 2
  501.4645 0.29 4
  501.7779 0.16 2
  502.2132 0.04 1
  502.4341 0.40 6
  502.5854 0.19 3
  502.7411 0.08 1
  502.8852 0.08 1
  502.9698 0.04 1
  503.1606 0.05 1
  503.3342 0.04 1
  503.5200 0.09 1
  503.6713 0.05 1
  503.8055 0.13 2
  504.0766 0.08 1
  504.4811 0.28 4
  504.7523 0.14 2
  504.8979 0.08 1
  505.3010 0.36 5
  505.5743 0.65 9
  506.5198 24.95 351
  507.0614 0.47 7
  507.2379 0.07 1
  507.5801 0.49 7
  507.9230 0.17 2
  508.0715 0.13 2
  508.2158 0.07 1
  508.3643 0.21 3
  508.5149 0.07 1
  508.7725 0.15 2
  509.0581 0.11 2
  509.5194 0.10 1
  509.6830 0.25 4
  509.9012 0.12 2
  510.0389 0.02 0
  510.2434 0.16 2
  510.3647 0.15 2
  510.4845 0.05 1
  510.6316 0.16 2
  510.7730 0.02 0
  511.1088 0.02 0
  511.2925 0.14 2
  511.5882 0.10 1
  512.0468 0.03 0
  512.3445 0.05 1
  512.6417 0.07 1
  513.4031 0.19 3
  513.6558 0.24 3
  513.9780 0.10 1
  514.2623 0.09 1
  514.4187 0.10 1
  514.6053 0.04 1
  514.6965 0.02 0
  515.0281 0.10 1
  515.4229 0.16 2
  515.6805 0.16 2
  516.3771 0.04 1
  516.5453 0.11 2
  517.3824 0.07 1
  517.6400 0.05 1
  518.0135 0.08 1
  518.2203 0.08 1
  518.3799 0.10 1
  518.7419 0.05 1
  519.1406 0.11 2
  519.4683 0.03 0
  519.6085 0.02 0
  520.6248 0.02 0
  521.3369 0.10 1
  523.0732 0.07 1
  523.2199 0.08 1
  523.3581 0.10 1
  523.6780 0.07 1
  524.6794 0.11 2
  525.0396 0.02 0
  525.4697 0.09 1
  526.4312 0.03 0
  526.7419 0.20 3
  526.8443 0.06 1
  527.5158 0.32 4
  527.8351 0.10 1
  528.3965 0.15 2
  528.5232 0.15 2
  528.6335 0.11 2
  528.7989 0.23 3
  528.8984 0.07 1
  529.1612 0.04 1
  529.4103 0.18 3
  529.5621 0.23 3
  529.7827 0.04 1
  530.3248 0.23 3
  530.6234 0.31 4
  530.7773 0.12 2
  531.0301 0.09 1
  531.3108 0.11 2
  531.4483 0.22 3
  531.5930 0.12 2
  532.1644 0.10 1
  532.4079 0.08 1
  532.6249 0.09 1
  532.7431 0.08 1
  533.0518 0.09 1
  534.5049 0.08 1
  535.2391 0.15 2
  535.4727 0.10 1
  535.5636 0.09 1
  535.7040 0.11 2
  536.0299 0.11 2
  536.4927 0.04 1
  537.0070 0.13 2
  537.2297 0.13 2
  537.5801 0.17 2
  538.2606 0.09 1
  538.3760 0.09 1
  538.5765 0.07 1
  538.7148 0.04 1
  539.0308 0.03 0
  539.3503 0.10 1
  539.4886 0.09 1
  539.6082 0.08 1
  539.8976 0.12 2
  540.1470 0.06 1
  540.2960 0.08 1
  540.5139 0.06 1
  540.6241 0.08 1
  541.0691 0.04 1
  541.4768 0.27 4
  541.5764 0.12 2
  541.7806 0.02 0
  542.0228 0.11 2
  542.1876 0.04 1
  542.3202 0.14 2
  542.5466 0.30 4
  542.9386 0.04 1
  543.5363 0.38 5
  543.8530 0.18 3
  543.9655 0.10 1
  544.5452 0.62 9
  544.6463 0.41 6
  544.8190 0.10 1
  545.0641 0.02 0
  545.3981 0.20 3
  545.5364 0.02 0
  545.7743 0.17 2
  545.9657 0.03 0
  546.2796 0.05 1
  546.3914 0.02 0
  546.6760 0.02 0
  546.8953 0.04 1
  547.0135 0.18 3
  547.0988 0.12 2
  548.0471 0.07 1
  548.3604 0.10 1
  548.7661 0.08 1
  548.9603 0.33 5
  549.1036 0.06 1
  549.2793 0.09 1
  549.5546 0.07 1
  549.6857 0.12 2
  549.9194 0.11 2
  550.1251 0.09 1
  550.4857 0.30 4
  550.6621 0.22 3
  550.8987 0.08 1
  550.9904 0.11 2
  551.1101 0.03 0
  551.2779 0.01 0
  551.4392 0.27 4
  551.7045 0.13 2
  551.8773 0.06 1
  551.9991 0.14 2
  552.6336 0.28 4
  552.8975 0.12 2
  553.1104 0.17 2
  553.3334 0.44 6
  553.6474 0.72 10
  553.9084 0.17 2
  554.2109 0.19 3
  554.3938 0.12 2
  554.6369 0.26 4
  554.8376 0.04 1
  555.0284 0.05 1
  555.1409 0.03 0
  555.4730 0.77 11
  555.7411 0.20 3
  556.0222 0.12 2
  556.4109 0.71 10
  556.5873 0.41 6
  556.7314 0.52 7
  557.3022 1.04 15
  557.6335 0.74 10
  558.6347 0.93 13
  559.2120 0.87 12
  559.8661 1.07 15
  560.3041 0.66 9
  560.5756 1.17 16
  561.2629 1.29 18
  561.9561 1.52 21
  563.2186 1.49 21
  563.5602 1.86 26
  568.4644 71.11 999
  569.6234 2.56 36
  570.5368 2.23 31
  571.5821 15.89 223
  572.5743 0.81 11
  573.1819 0.78 11
  573.6319 0.65 9
  573.9507 0.58 8
  574.3190 0.58 8
  574.5369 0.48 7
  574.8672 0.70 10
  575.2842 0.77 11
  575.5594 0.65 9
  576.5655 0.78 11
  578.0575 1.15 16
  578.8021 0.95 13
  579.1461 1.19 17
  579.4658 1.35 19
  580.1316 1.71 24
  586.5649 99.97 999
  587.3977 31.14 437
  588.2814 14.25 200
  589.1780 6.18 87
  589.9901 3.31 47
  590.6718 2.11 30
  591.1477 1.82 26
  591.9133 1.02 14
  592.7190 0.77 11
  592.9835 0.60 8
  593.3011 0.52 7
  593.5369 0.44 6
  593.7678 0.57 8
  593.9492 0.49 7
//
