ACCESSION: MSBNK-Kyoto_Univ-CA000070
RECORD_TITLE: Anhydrolutein-I; FAB-EBEB; MS2; m/z: 550.42; [M]+*
DATE: 2016.01.19 (Created 2010.04.01, modified 2011.05.10)
AUTHORS: Akimoto N, Graduate School of Pharmaceutical Sciences, Kyoto University and Maoka T, Research Institute for Production Development
LICENSE: CC BY-SA
PUBLICATION: Takashi Maoka, Yasuhiro Fujiwara, Keiji Hashimoto, and Naoshige Akimoto, Carotenoids in Three Species of Corbicula Clams, Corbicula japonica, Corbicula sandai, and Corbicula sp. (Chinese Freshwater Corbicula Clam), J. Agric. Food Chem., 53, 8357-8364 (2005).
COMMENT: Profile spectrum of this record is given as a JPEG file.
COMMENT: [Profile] CA000070.jpg
CH$NAME: Anhydrolutein-I
CH$COMPOUND_CLASS: N/A
CH$FORMULA: C40H54O
CH$EXACT_MASS: 550.41747
CH$SMILES: C(=CC=CC=C(C=CC=C(C)C=CC(=C(C)2)C(C)(C)CC(C2)O)C)(C)C=CC=C(C)C=CC(C1(C)C)C(C=CC1)=C
CH$IUPAC: InChI=1S/C40H54O/c1-30(18-13-20-32(3)23-25-37-34(5)22-15-27-39(37,7)8)16-11-12-17-31(2)19-14-21-33(4)24-26-38-35(6)28-36(41)29-40(38,9)10/h11-26,36-37,41H,5,27-29H2,1-4,6-10H3/b12-11+,18-13+,19-14+,25-23+,26-24+,30-16+,31-17+,32-20+,33-21+/t36-,37+/m1/s1
CH$LINK: CAS 92760-20-8
CH$LINK: INCHIKEY UIUSQYGQZRBKCC-NHWXEJKLSA-N
AC$INSTRUMENT: JMS-HX/HX 110A, JEOL
AC$INSTRUMENT_TYPE: FAB-EBEB
AC$MASS_SPECTROMETRY: MS_TYPE MS2
AC$MASS_SPECTROMETRY: ION_MODE POSITIVE
AC$MASS_SPECTROMETRY: ATOM_GUN_CURRENT 5 mA
AC$MASS_SPECTROMETRY: BOMBARDMENT 6 kV xenon
AC$MASS_SPECTROMETRY: COLLISION_ENERGY 3 kV
AC$MASS_SPECTROMETRY: COLLISION_GAS Ar
AC$MASS_SPECTROMETRY: GAS_PRESSURE adjust to attenuate the intensity of the precursor ion by 30 %
AC$MASS_SPECTROMETRY: IONIZATION FAB
AC$MASS_SPECTROMETRY: MATRIX 1-2 uL m-NBA
AC$MASS_SPECTROMETRY: PROBE_TIP stainless-steel
MS$FOCUSED_ION: BASE_PEAK 104.9524
MS$FOCUSED_ION: PRECURSOR_M/Z 550.42
MS$FOCUSED_ION: PRECURSOR_TYPE [M]+*
MS$DATA_PROCESSING: RELATIVE_M/Z normalised by peak(m/z=104.9524).  set 999 for peak(m/z=550.3327,rel=1629).
PK$SPLASH: splash10-0udl-3920020000-d5363d11b377fcfbd35d
PK$NUM_PEAK: 1738
PK$PEAK: m/z int. rel.int.
  0.0568 0.01 0
  0.1941 0.01 0
  0.8693 0.01 0
  1.7979 0.01 0
  2.2834 0.01 0
  3.2688 0.01 0
  3.8698 0.01 0
  6.4200 0.01 0
  7.6366 0.01 0
  12.9650 0.07 1
  13.9736 0.24 4
  14.9799 0.52 8
  22.9328 0.26 4
  24.9344 0.18 3
  25.9499 0.62 10
  26.7113 0.01 0
  26.9547 5.03 82
  27.3834 0.01 0
  27.9607 0.66 11
  28.9644 5.13 84
  29.9609 0.08 1
  30.5463 0.01 0
  30.9526 0.52 8
  33.0962 0.01 0
  35.9488 0.02 0
  36.7918 0.01 0
  36.9278 0.65 11
  37.0521 0.07 1
  37.2933 0.02 0
  37.9405 1.71 28
  38.4677 0.01 0
  38.9396 11.33 185
  39.1635 0.03 0
  39.5342 0.01 0
  39.9530 1.23 20
  40.9583 21.08 343
  41.6927 0.07 1
  41.9710 0.45 7
  42.1434 0.01 0
  42.3862 0.01 0
  42.7129 0.03 0
  42.9581 13.64 222
  43.9321 0.25 4
  44.9514 0.41 7
  47.9200 0.08 1
  48.3941 0.01 0
  48.9274 0.31 5
  49.2795 0.01 0
  49.9300 3.19 52
  50.4972 0.03 0
  50.9340 7.11 116
  51.4261 0.03 0
  51.6068 0.09 1
  51.9452 2.49 41
  52.2257 0.04 1
  52.7016 0.03 0
  52.9483 12.89 210
  53.8663 0.05 1
  53.9650 0.49 8
  54.9543 24.52 399
  55.2577 0.02 0
  55.9357 0.32 5
  56.9725 8.72 142
  57.9755 0.15 2
  58.4959 0.08 1
  58.9566 1.58 26
  59.3535 0.05 1
  59.5787 0.03 0
  60.9177 0.34 6
  61.4538 0.01 0
  61.6507 0.03 0
  61.9273 1.98 32
  62.1510 0.04 1
  62.3342 0.04 1
  62.4462 0.02 0
  62.6417 0.14 2
  62.9275 5.93 97
  63.2803 0.08 1
  63.4017 0.03 0
  63.9269 0.99 16
  64.0487 0.08 1
  64.9421 9.82 160
  65.2241 0.05 1
  65.3796 0.05 1
  65.6096 0.04 1
  65.9404 1.26 21
  66.0857 0.03 0
  66.1827 0.02 0
  66.9485 16.34 266
  67.1734 0.08 1
  67.8367 0.15 2
  67.9463 0.68 11
  68.5255 0.09 1
  68.9542 16.85 275
  69.2317 0.03 0
  69.9239 0.07 1
  70.3787 0.11 2
  70.9394 2.13 35
  71.3892 0.06 1
  72.9402 0.16 3
  73.9168 1.14 19
  74.3219 0.01 0
  74.5928 0.15 2
  74.7408 0.15 2
  74.9220 1.94 32
  75.0872 0.20 3
  75.2857 0.12 2
  75.4788 0.11 2
  75.5613 0.05 1
  75.9296 0.98 16
  76.1170 0.13 2
  76.2230 0.07 1
  76.4538 0.16 3
  76.5737 0.27 4
  76.9232 27.70 451
  77.2285 0.23 4
  77.5564 0.18 3
  77.6594 0.07 1
  77.9292 5.85 95
  78.2270 0.17 3
  78.3537 0.03 0
  78.4536 0.07 1
  78.6637 0.12 2
  78.9375 27.63 450
  79.1853 0.04 1
  79.5218 0.10 2
  79.9404 2.64 43
  80.2680 0.11 2
  80.3258 0.07 1
  80.4645 0.04 1
  80.6066 0.06 1
  80.9471 26.84 437
  81.1772 0.12 2
  81.4367 0.13 2
  81.9527 0.56 9
  82.1067 0.04 1
  82.3696 0.05 1
  82.4758 0.13 2
  82.9548 5.92 96
  83.4130 0.05 1
  83.9375 0.16 3
  84.9413 8.05 131
  85.1385 0.07 1
  85.2625 0.02 0
  85.4934 0.06 1
  85.5833 0.11 2
  85.6533 0.06 1
  85.9158 0.79 13
  86.1762 0.02 0
  86.3016 0.06 1
  86.7728 0.21 3
  86.9229 0.91 15
  87.9314 0.46 7
  88.1054 0.10 2
  88.3843 0.19 3
  88.6319 0.15 2
  88.9250 2.97 48
  89.1918 0.42 7
  89.4945 0.22 4
  89.9439 0.98 16
  90.2908 0.29 5
  90.4756 0.16 3
  90.6299 0.24 4
  90.9341 52.49 855
  91.1907 0.16 3
  91.2905 0.04 1
  91.3879 0.13 2
  91.4710 0.08 1
  91.5409 0.04 1
  91.9387 4.69 76
  92.2201 0.06 1
  92.3281 0.13 2
  92.6185 0.29 5
  92.9524 36.63 597
  93.1614 0.31 5
  93.3947 0.07 1
  93.6918 0.14 2
  93.9567 1.69 28
  94.1962 0.08 1
  94.5223 0.02 0
  94.6279 0.11 2
  94.9688 17.41 284
  95.2495 0.11 2
  95.3204 0.09 1
  95.9505 0.25 4
  96.1281 0.07 1
  96.5278 0.01 0
  96.9575 1.81 29
  97.9250 0.29 5
  98.2208 0.02 0
  98.9307 0.48 8
  99.9700 0.20 3
  100.5448 0.06 1
  100.9226 0.70 11
  101.1949 0.17 3
  101.3655 0.22 4
  101.4620 0.06 1
  101.5932 0.04 1
  101.9347 3.14 51
  102.1373 0.08 1
  102.4190 0.20 3
  102.5569 0.20 3
  102.9450 9.72 158
  103.2561 0.16 3
  103.3842 0.16 3
  103.4639 0.05 1
  103.5661 0.11 2
  103.9466 4.42 72
  104.1257 0.20 3
  104.2351 0.10 2
  104.4073 0.22 4
  104.5504 0.20 3
  104.9524 61.32 999
  105.3208 0.05 1
  105.6242 0.06 1
  105.9661 6.71 109
  106.4908 0.13 2
  106.6478 0.16 3
  106.9697 29.37 478
  107.4366 0.25 4
  107.9490 1.15 19
  108.2157 0.24 4
  108.3328 0.24 4
  108.4927 0.10 2
  108.5777 0.06 1
  108.9714 13.51 220
  109.2112 0.06 1
  109.4345 0.12 2
  109.6381 0.07 1
  109.9348 0.48 8
  110.4129 0.06 1
  110.9624 1.60 26
  111.6952 0.05 1
  111.8123 0.11 2
  111.9719 0.14 2
  112.2218 0.11 2
  112.3881 0.30 5
  112.5927 0.21 3
  112.9357 0.84 14
  113.0919 0.15 2
  113.3776 0.23 4
  113.5598 0.10 2
  113.6515 0.17 3
  113.9506 1.46 24
  114.1821 0.25 4
  114.2949 0.12 2
  114.9275 25.95 423
  115.2266 0.12 2
  115.4087 0.22 4
  115.5662 0.43 7
  115.9377 10.90 178
  116.1398 0.45 7
  116.4214 0.36 6
  116.9391 27.31 445
  117.2385 0.21 3
  117.4965 0.13 2
  117.9432 5.63 92
  118.2684 0.16 3
  118.9469 54.94 895
  119.2073 0.23 4
  119.4581 0.22 4
  119.5922 0.15 2
  119.9496 5.71 93
  120.2587 0.30 5
  120.3525 0.15 2
  120.4808 0.25 4
  120.9555 25.56 416
  121.2165 0.08 1
  121.3317 0.12 2
  121.4607 0.07 1
  121.5880 0.02 0
  121.7705 0.09 1
  121.9676 0.89 14
  122.2078 0.03 0
  122.3479 0.06 1
  122.9513 3.74 61
  123.2519 0.06 1
  123.4682 0.05 1
  123.6463 0.11 2
  123.8080 0.30 5
  123.9600 0.31 5
  124.5853 0.08 1
  124.9243 0.68 11
  125.0984 0.27 4
  125.2653 0.07 1
  125.4188 0.06 1
  125.5102 0.09 1
  125.9032 1.04 17
  126.0611 0.16 3
  126.2684 0.08 1
  126.9120 9.99 163
  127.1715 0.37 6
  127.4084 0.50 8
  127.9160 30.68 500
  128.2222 0.55 9
  128.3610 0.52 8
  128.4392 0.31 5
  128.9163 34.89 568
  129.2124 0.06 1
  129.3593 0.17 3
  129.4714 0.12 2
  129.9227 14.42 235
  130.4588 0.39 6
  130.9340 39.79 648
  131.2781 0.21 3
  131.5125 0.20 3
  131.9464 7.85 128
  132.1626 0.08 1
  132.3481 0.15 2
  132.4752 0.07 1
  132.9447 26.18 427
  133.2847 0.06 1
  133.5208 0.10 2
  133.9330 1.66 27
  134.2200 0.10 2
  134.4411 0.12 2
  134.9543 9.43 154
  135.1898 0.16 3
  135.3137 0.10 2
  135.5345 0.10 2
  135.7466 0.11 2
  135.9477 0.39 6
  136.2267 0.13 2
  136.4359 0.06 1
  136.9293 1.70 28
  137.2616 0.04 1
  137.4797 0.08 1
  137.5984 0.06 1
  137.8995 0.42 7
  138.0194 0.09 1
  138.2383 0.13 2
  138.4103 0.16 3
  138.9232 3.93 64
  139.4340 0.14 2
  139.9333 1.65 27
  140.2660 0.38 6
  140.9189 22.20 362
  141.2979 0.28 5
  141.9210 21.42 349
  142.2644 0.19 3
  142.4066 0.20 3
  142.9304 37.56 612
  143.4563 0.25 4
  143.9495 13.48 220
  144.9465 39.33 641
  145.3164 0.33 5
  145.5058 0.31 5
  145.9557 3.77 61
  146.4095 0.15 2
  146.5124 0.18 3
  146.9609 10.59 173
  147.1886 0.14 2
  147.5181 0.12 2
  147.6992 0.17 3
  147.9670 0.65 11
  148.1644 0.06 1
  148.2574 0.07 1
  148.4592 0.10 2
  148.6135 0.19 3
  148.9766 4.83 79
  149.3673 0.14 2
  149.4805 0.18 3
  149.6537 0.10 2
  149.7638 0.18 3
  149.9508 0.90 15
  150.1285 0.11 2
  150.3012 0.14 2
  150.5021 0.14 2
  150.9465 2.53 41
  151.1682 0.35 6
  151.5427 0.39 6
  151.9343 9.33 152
  152.2321 0.38 6
  152.9274 11.39 186
  153.2486 0.18 3
  153.4425 0.28 5
  153.9527 7.22 118
  154.3621 0.30 5
  154.9613 25.15 410
  155.2372 0.24 4
  155.4465 0.26 4
  155.9664 14.87 242
  156.3601 0.16 3
  156.9730 34.45 561
  157.3733 0.22 4
  157.4973 0.17 3
  157.9778 7.00 114
  158.3709 0.33 5
  158.9854 19.67 320
  159.4355 0.34 6
  159.6689 0.09 1
  160.0051 2.20 36
  160.2505 0.12 2
  160.4121 0.07 1
  160.5737 0.11 2
  161.0099 4.03 66
  161.3168 0.05 1
  161.5328 0.08 1
  161.6503 0.07 1
  161.9984 0.31 5
  162.1077 0.13 2
  162.2884 0.21 3
  162.4673 0.13 2
  162.6348 0.13 2
  162.9838 2.25 37
  163.3374 0.15 2
  163.5550 0.21 3
  163.9289 1.05 17
  164.9620 18.48 301
  165.2236 0.21 3
  165.5233 0.26 4
  165.9833 7.67 125
  166.2313 0.20 3
  166.4208 0.15 2
  166.5308 0.08 1
  166.9840 18.46 301
  167.2647 0.07 1
  167.5170 0.10 2
  167.9951 5.85 95
  168.1837 0.39 6
  168.3501 0.22 4
  168.9937 22.93 374
  169.3015 0.07 1
  169.5022 0.18 3
  169.9931 7.97 130
  170.3973 0.15 2
  170.9969 18.34 299
  171.3171 0.36 6
  171.4781 0.48 8
  171.9925 2.56 42
  172.2983 0.19 3
  172.5058 0.43 7
  173.0174 16.98 277
  173.2885 0.33 5
  173.5628 0.18 3
  173.9858 0.93 15
  174.3174 0.31 5
  174.5506 0.21 3
  175.0070 5.09 83
  175.3948 0.27 4
  175.5817 0.21 3
  175.9748 1.87 30
  176.2063 0.12 2
  176.3189 0.02 0
  176.4468 0.18 3
  176.5518 0.21 3
  176.7548 0.59 10
  176.9966 2.41 39
  177.1889 0.47 8
  177.9504 11.31 184
  178.3046 0.20 3
  178.9583 14.93 243
  179.4803 0.28 5
  179.9623 7.69 125
  180.4726 0.35 6
  180.9664 17.03 277
  181.3927 0.26 4
  181.9819 6.45 105
  182.2820 0.14 2
  182.3931 0.15 2
  182.9814 18.98 309
  183.3360 0.18 3
  183.4440 0.02 0
  183.9943 4.61 75
  184.3063 0.12 2
  184.4438 0.09 1
  184.5813 0.27 4
  184.9893 8.29 135
  185.2702 0.10 2
  185.3936 0.06 1
  185.5190 0.15 2
  185.6662 0.12 2
  185.9887 1.33 22
  186.2646 0.23 4
  186.9906 4.12 67
  187.3064 0.10 2
  187.4281 0.11 2
  187.6933 0.15 2
  188.0149 0.56 9
  188.2546 0.29 5
  188.3661 0.23 4
  188.9520 4.50 73
  189.1796 0.24 4
  189.3008 0.07 1
  189.4707 0.10 2
  189.5804 0.15 2
  189.9524 1.81 29
  190.3476 0.47 8
  190.9476 7.56 123
  191.2711 0.17 3
  191.4495 0.26 4
  191.9587 6.75 110
  192.1931 0.34 6
  192.4687 0.23 4
  192.9582 13.30 217
  193.3219 0.09 1
  193.3958 0.05 1
  193.9550 6.78 110
  194.9601 16.50 269
  195.3950 0.21 3
  195.5693 0.24 4
  195.9657 5.22 85
  196.2946 0.12 2
  196.5180 0.10 2
  196.9899 13.31 217
  197.3557 0.18 3
  197.5502 0.13 2
  197.6873 0.11 2
  198.0172 2.01 33
  198.2594 0.13 2
  198.4115 0.19 3
  198.5404 0.24 4
  198.9999 6.95 113
  199.3409 0.13 2
  199.4975 0.36 6
  199.9915 1.22 20
  200.2778 0.32 5
  200.3913 0.29 5
  200.4739 0.10 2
  200.6371 0.10 2
  201.0132 2.84 46
  201.3972 0.20 3
  201.9483 4.22 69
  202.4073 0.17 3
  202.9575 5.57 91
  203.2953 0.12 2
  203.4368 0.07 1
  203.5744 0.07 1
  203.9685 2.53 41
  204.2522 0.37 6
  204.4183 0.20 3
  204.9586 6.53 106
  205.2463 0.23 4
  205.4067 0.12 2
  205.5741 0.18 3
  205.9751 5.96 97
  206.3050 0.10 2
  206.4014 0.15 2
  206.5055 0.19 3
  206.9688 11.21 183
  207.2386 0.22 4
  207.4075 0.15 2
  207.5629 0.04 1
  207.9784 5.34 87
  208.3863 0.21 3
  208.4698 0.12 2
  208.9924 11.25 183
  209.4070 0.18 3
  209.7724 0.41 7
  210.0251 2.13 35
  210.1974 0.25 4
  210.3828 0.17 3
  211.0083 5.38 88
  211.2793 0.21 3
  211.3940 0.21 3
  211.6093 0.30 5
  211.9899 1.02 17
  212.2663 0.08 1
  212.5361 0.29 5
  212.9915 2.12 35
  213.3335 0.10 2
  213.5113 0.21 3
  213.6950 0.11 2
  213.8066 0.16 3
  214.0779 0.63 10
  214.3681 0.30 5
  214.4921 0.15 2
  214.9661 4.80 78
  215.2967 0.13 2
  215.9463 2.63 43
  216.9574 5.26 86
  217.6146 0.22 4
  218.0014 2.26 37
  218.2297 0.13 2
  218.4612 0.21 3
  218.6042 0.16 3
  219.0166 7.80 127
  219.4096 0.16 3
  219.6288 0.13 2
  220.0336 2.79 45
  220.3421 0.10 2
  220.5549 0.11 2
  221.0223 8.12 132
  221.3329 0.18 3
  221.4045 0.09 1
  221.6279 0.32 5
  222.0447 2.85 46
  222.2329 0.22 4
  222.3267 0.06 1
  222.6192 0.31 5
  223.0414 5.24 85
  223.4864 0.14 2
  223.6565 0.04 1
  223.8149 0.24 4
  224.0424 1.02 17
  224.3396 0.06 1
  224.6363 0.09 1
  225.0588 2.88 47
  225.6731 0.24 4
  226.0338 1.16 19
  226.3485 0.09 1
  226.5242 0.08 1
  227.0052 1.53 25
  227.3744 0.17 3
  227.5567 0.14 2
  227.7103 0.30 5
  228.0164 1.82 30
  228.4860 0.09 1
  228.9934 3.21 52
  229.3771 0.08 1
  229.5016 0.05 1
  229.6234 0.10 2
  230.0073 1.44 23
  230.5515 0.24 4
  230.6356 0.13 2
  231.0091 3.93 64
  231.2791 0.16 3
  231.5281 0.22 4
  232.0153 2.46 40
  232.3942 0.15 2
  232.5788 0.20 3
  233.0322 4.69 76
  233.3513 0.15 2
  233.4465 0.07 1
  233.6019 0.14 2
  233.7630 0.30 5
  234.0652 2.28 37
  234.3152 0.28 5
  234.4973 0.08 1
  234.6135 0.14 2
  235.0320 4.84 79
  235.5838 0.05 1
  235.7496 0.31 5
  236.0631 1.06 17
  236.3146 0.08 1
  236.4113 0.11 2
  237.0515 3.77 61
  237.3227 0.07 1
  237.4782 0.07 1
  237.6037 0.14 2
  238.0624 0.67 11
  238.5056 0.15 2
  238.7632 0.32 5
  239.0469 2.64 43
  239.3058 0.11 2
  239.6387 0.25 4
  239.9362 0.59 10
  240.1070 0.53 9
  240.2345 0.11 2
  240.4235 0.11 2
  240.5753 0.21 3
  241.0189 1.91 31
  241.4173 0.09 1
  241.9939 1.20 20
  242.2707 0.09 1
  242.4592 0.18 3
  243.0052 2.88 47
  243.3293 0.10 2
  243.4308 0.08 1
  243.7411 0.17 3
  244.0267 1.81 29
  244.4766 0.14 2
  245.0177 3.15 51
  245.3060 0.09 1
  245.5491 0.10 2
  245.6513 0.04 1
  246.0294 1.36 22
  246.4377 0.18 3
  246.6881 0.25 4
  247.0440 4.18 68
  247.6315 0.10 2
  248.0596 1.32 22
  248.4558 0.09 1
  249.0572 2.63 43
  249.5486 0.09 1
  249.7336 0.10 2
  250.0663 1.09 18
  250.1877 0.44 7
  250.4331 0.21 3
  250.5722 0.11 2
  250.7566 0.30 5
  251.0888 2.25 37
  251.5568 0.22 4
  252.0252 1.22 20
  252.5115 0.05 1
  252.6047 0.07 1
  253.0444 2.10 34
  253.2157 0.75 12
  253.4869 0.03 0
  253.7094 0.10 2
  254.0180 0.90 15
  254.2563 0.06 1
  254.4822 0.10 2
  254.6142 0.17 3
  255.0325 1.69 28
  255.4128 0.24 4
  255.5455 0.09 1
  256.0020 1.13 18
  256.1841 0.48 8
  256.3634 0.05 1
  256.5309 0.02 0
  256.6571 0.11 2
  257.0389 1.83 30
  257.5298 0.10 2
  258.0215 0.98 16
  258.3397 0.14 2
  258.4192 0.04 1
  258.5126 0.01 0
  259.0392 2.96 48
  259.4489 0.12 2
  259.5331 0.09 1
  259.6343 0.10 2
  260.0539 1.26 21
  260.5071 0.09 1
  260.6249 0.11 2
  261.0598 2.40 39
  261.3861 0.19 3
  261.6111 0.04 1
  261.7151 0.09 1
  262.0816 0.88 14
  262.2330 0.21 3
  263.0577 1.78 29
  263.4679 0.14 2
  263.6516 0.20 3
  263.7576 0.10 2
  264.0835 0.65 11
  264.2191 0.26 4
  264.5287 0.13 2
  265.0641 2.38 39
  265.5127 0.15 2
  265.7202 0.28 5
  266.0226 0.75 12
  266.2136 0.47 8
  266.3876 0.04 1
  266.4963 0.22 4
  266.7513 0.42 7
  267.0643 1.67 27
  267.3391 0.08 1
  267.5757 0.26 4
  267.7643 0.21 3
  268.0286 0.39 6
  268.2890 0.10 2
  268.7518 0.12 2
  269.0715 1.80 29
  269.3929 0.05 1
  269.7267 0.15 2
  269.8775 0.53 9
  270.0638 0.65 11
  270.2831 0.15 2
  270.4326 0.14 2
  270.7658 0.21 3
  271.0720 1.79 29
  271.4916 0.09 1
  271.7511 0.07 1
  272.0851 0.88 14
  272.3025 0.08 1
  272.8078 0.30 5
  273.0846 1.89 31
  273.5314 0.13 2
  273.6237 0.20 3
  273.7858 0.16 3
  274.0758 0.74 12
  274.1951 0.31 5
  274.2999 0.12 2
  274.4838 0.05 1
  274.6077 0.32 5
  274.6934 0.14 2
  275.0830 1.58 26
  275.4608 0.12 2
  275.5643 0.07 1
  275.7918 0.34 6
  276.0938 0.69 11
  276.3675 0.17 3
  276.6017 0.20 3
  276.7711 0.10 2
  277.0838 1.26 21
  277.5818 0.07 1
  277.8378 0.08 1
  277.9962 0.43 7
  278.1149 0.35 6
  278.3016 0.07 1
  278.4527 0.17 3
  278.6797 0.14 2
  279.0789 1.67 27
  279.5687 0.18 3
  279.7244 0.05 1
  280.0663 0.55 9
  280.1660 0.33 5
  280.2914 0.07 1
  280.5912 0.07 1
  280.7324 0.05 1
  281.0612 0.89 14
  281.3082 0.10 2
  281.5399 0.05 1
  281.8146 0.13 2
  282.0728 0.72 12
  282.1911 0.36 6
  282.3608 0.05 1
  282.7406 0.21 3
  283.0768 1.56 25
  283.2961 0.22 4
  283.4560 0.07 1
  283.5901 0.10 2
  283.7202 0.08 1
  283.8385 0.12 2
  284.1167 1.01 16
  284.3228 0.09 1
  284.4708 0.12 2
  284.5706 0.19 3
  284.7827 0.26 4
  285.0873 1.37 22
  285.2965 0.19 3
  285.7500 0.11 2
  285.9051 0.12 2
  286.0985 0.25 4
  286.2813 0.12 2
  286.4338 0.11 2
  286.5922 0.07 1
  286.7540 0.13 2
  287.0847 1.17 19
  287.4182 0.14 2
  287.6730 0.03 0
  287.8553 0.16 3
  288.0811 0.46 7
  288.1888 0.14 2
  288.3004 0.05 1
  288.4846 0.07 1
  288.5923 0.04 1
  289.0811 0.92 15
  289.3803 0.03 0
  289.5032 0.01 0
  289.8328 0.06 1
  290.0502 0.50 8
  290.2173 0.23 4
  290.3078 0.12 2
  290.5668 0.09 1
  290.6996 0.04 1
  291.0730 0.91 15
  291.3168 0.05 1
  291.4503 0.09 1
  291.6208 0.06 1
  291.8238 0.24 4
  292.0352 0.43 7
  292.2587 0.11 2
  292.4953 0.09 1
  293.0083 0.55 9
  293.1888 0.37 6
  293.3726 0.02 0
  293.7435 0.03 0
  293.9015 0.12 2
  294.0774 0.25 4
  294.2050 0.16 3
  294.6025 0.17 3
  294.7863 0.11 2
  295.0661 0.95 15
  295.4021 0.09 1
  295.5847 0.18 3
  296.0424 0.51 8
  296.1681 0.25 4
  296.3507 0.08 1
  297.0653 1.22 20
  297.8620 0.11 2
  298.0930 0.77 13
  298.2525 0.21 3
  298.4113 0.03 0
  298.6033 0.01 0
  299.0679 0.54 9
  299.5359 0.12 2
  299.6379 0.11 2
  299.8571 0.12 2
  300.1232 0.22 4
  300.4755 0.18 3
  300.7509 0.20 3
  301.1337 0.46 7
  301.7304 0.01 0
  302.0742 0.38 6
  302.3603 0.09 1
  302.5180 0.08 1
  302.7280 0.15 2
  303.0970 0.99 16
  303.2957 0.11 2
  303.4527 0.01 0
  303.9788 0.20 3
  304.1081 0.19 3
  304.2048 0.04 1
  304.3069 0.01 0
  304.7707 0.09 1
  305.0909 0.76 12
  305.3924 0.05 1
  305.6887 0.15 2
  305.9923 0.23 4
  306.1593 0.20 3
  307.0729 0.74 12
  307.1989 0.46 7
  307.4522 0.15 2
  307.7181 0.16 3
  308.0278 0.22 4
  308.2287 0.12 2
  308.3216 0.11 2
  309.0286 0.68 11
  309.1672 0.53 9
  309.2786 0.20 3
  310.0833 0.46 7
  310.3925 0.06 1
  310.4900 0.10 2
  310.8330 0.11 2
  311.0825 0.66 11
  311.3844 0.16 3
  311.4946 0.11 2
  312.0168 0.11 2
  312.2180 0.12 2
  312.5691 0.06 1
  312.6587 0.05 1
  312.7861 0.11 2
  312.8910 0.15 2
  313.0695 0.87 14
  313.1844 0.44 7
  313.2607 0.21 3
  313.4180 0.07 1
  313.7320 0.08 1
  314.0421 0.22 4
  314.2260 0.18 3
  314.3322 0.12 2
  314.5620 0.10 2
  315.0912 0.75 12
  315.5540 0.11 2
  315.7791 0.11 2
  315.9897 0.35 6
  316.1783 0.24 4
  316.3410 0.10 2
  316.4905 0.14 2
  316.7854 0.20 3
  317.1335 0.80 13
  317.6802 0.07 1
  317.8357 0.09 1
  318.0848 0.22 4
  318.2503 0.14 2
  318.6237 0.12 2
  318.7699 0.08 1
  319.0762 0.71 12
  319.6232 0.11 2
  319.9787 0.10 2
  320.1156 0.27 4
  320.9970 0.28 5
  321.1220 0.12 2
  321.2696 0.10 2
  321.5136 0.09 1
  321.7496 0.04 1
  322.1206 0.44 7
  322.2416 0.12 2
  322.4983 0.12 2
  322.8022 0.07 1
  323.1114 0.50 8
  323.6520 0.05 1
  324.0571 0.18 3
  324.2054 0.10 2
  324.4315 0.04 1
  325.0608 0.44 7
  325.2458 0.31 5
  325.8013 0.10 2
  326.0953 0.17 3
  326.2177 0.07 1
  326.8319 0.14 2
  327.0968 0.69 11
  327.2352 0.21 3
  327.4508 0.01 0
  327.6491 0.06 1
  327.8517 0.06 1
  328.0502 0.14 2
  328.2196 0.26 4
  328.3843 0.12 2
  328.5723 0.12 2
  328.7795 0.12 2
  329.1329 0.34 6
  329.4744 0.01 0
  329.8424 0.08 1
  330.0829 0.24 4
  330.3341 0.10 2
  330.4995 0.11 2
  331.1128 0.81 13
  331.2497 0.31 5
  331.4225 0.12 2
  331.6245 0.07 1
  331.7388 0.03 0
  331.9541 0.18 3
  332.2466 0.18 3
  332.3569 0.11 2
  332.4633 0.04 1
  332.8614 0.34 6
  333.1013 0.77 13
  333.3726 0.10 2
  333.4856 0.07 1
  333.7189 0.09 1
  333.9030 0.22 4
  334.0620 0.11 2
  334.2627 0.16 3
  334.7434 0.13 2
  335.1158 0.39 6
  335.4961 0.13 2
  335.6870 0.07 1
  336.1186 0.29 5
  336.5981 0.04 1
  337.0517 0.73 12
  337.2306 0.20 3
  337.5433 0.08 1
  337.8167 0.08 1
  337.9284 0.11 2
  338.1340 0.26 4
  338.4733 0.05 1
  338.6083 0.08 1
  338.7321 0.05 1
  338.8206 0.08 1
  338.9669 0.10 2
  339.1799 0.43 7
  339.2863 0.19 3
  339.5192 0.06 1
  339.9917 0.25 4
  340.1474 0.27 4
  340.2545 0.13 2
  340.4149 0.10 2
  340.8635 0.09 1
  341.0764 0.44 7
  341.2268 0.30 5
  341.9264 0.04 1
  342.1554 0.18 3
  342.2706 0.09 1
  342.7026 0.12 2
  342.7871 0.07 1
  343.0967 0.47 8
  343.3091 0.21 3
  343.5821 0.06 1
  344.0368 0.63 10
  344.2106 0.70 11
  344.6208 0.11 2
  344.7460 0.09 1
  344.8632 0.12 2
  345.1076 0.80 13
  345.2655 0.32 5
  346.1253 0.28 5
  346.2758 0.27 4
  346.9386 0.24 4
  347.0692 0.19 3
  347.2357 0.28 5
  347.3903 0.19 3
  347.6528 0.13 2
  348.0132 0.47 8
  348.2897 0.27 4
  348.8481 0.11 2
  349.1433 0.61 10
  349.3625 0.16 3
  349.6124 0.01 0
  350.0583 0.26 4
  350.2689 0.42 7
  351.0720 0.23 4
  351.3040 0.20 3
  351.8266 0.11 2
  351.9073 0.11 2
  352.1666 0.16 3
  352.3806 0.13 2
  352.6199 0.07 1
  352.7386 0.15 2
  353.1173 0.36 6
  353.2120 0.14 2
  353.4720 0.05 1
  353.6887 0.10 2
  354.1115 0.18 3
  354.1922 0.12 2
  354.4027 0.03 0
  354.6631 0.07 1
  355.1654 0.38 6
  355.2714 0.44 7
  355.3906 0.12 2
  355.5851 0.13 2
  356.2001 0.14 2
  356.6312 0.13 2
  356.7978 0.11 2
  357.1743 0.65 11
  357.4108 0.23 4
  357.8280 0.13 2
  357.9846 0.12 2
  358.2312 0.26 4
  358.8184 0.20 3
  358.9184 0.11 2
  359.1030 0.28 5
  359.2610 0.17 3
  359.4210 0.10 2
  360.0136 0.14 2
  360.1076 0.15 2
  360.2176 0.03 0
  360.4916 0.06 1
  360.5843 0.03 0
  360.7789 0.11 2
  361.1983 0.53 9
  361.3263 0.26 4
  361.6104 0.02 0
  362.1298 0.82 13
  362.3125 0.43 7
  362.4759 0.24 4
  362.6800 0.11 2
  363.1788 0.58 9
  363.4402 0.08 1
  363.6690 0.10 2
  363.8364 0.07 1
  363.9445 0.11 2
  364.1759 0.19 3
  364.3080 0.09 1
  364.5014 0.09 1
  364.9937 0.15 2
  365.2038 0.22 4
  365.3639 0.15 2
  365.7349 0.09 1
  365.9317 0.11 2
  366.1024 0.16 3
  366.2759 0.15 2
  367.0012 0.23 4
  367.0980 0.21 3
  367.1940 0.08 1
  367.2721 0.02 0
  367.5564 0.10 2
  368.0075 0.12 2
  368.1389 0.05 1
  368.2862 0.07 1
  368.9526 0.08 1
  369.2025 0.25 4
  369.2939 0.12 2
  369.7311 0.05 1
  369.9177 0.12 2
  370.2496 0.17 3
  370.5363 0.03 0
  371.0876 0.22 4
  371.2489 0.21 3
  372.0916 0.18 3
  372.3809 0.11 2
  372.5136 0.13 2
  372.7009 0.02 0
  372.8376 0.10 2
  373.0043 0.10 2
  373.1570 0.27 4
  373.2970 0.08 1
  373.4024 0.19 3
  373.8212 0.03 0
  373.9485 0.30 5
  374.1212 0.42 7
  374.2133 0.23 4
  374.4727 0.11 2
  375.1336 0.62 10
  375.2810 0.31 5
  375.5538 0.08 1
  376.1515 0.51 8
  376.3910 0.10 2
  376.7011 0.01 0
  376.9326 0.05 1
  377.2422 0.48 8
  377.3923 0.12 2
  377.8380 0.12 2
  378.0067 0.11 2
  378.1408 0.06 1
  378.2769 0.11 2
  378.8148 0.10 2
  378.9409 0.31 5
  379.1110 0.11 2
  379.3993 0.07 1
  380.0893 0.13 2
  380.3062 0.03 0
  380.7714 0.05 1
  381.1398 0.33 5
  381.3040 0.09 1
  381.9314 0.13 2
  382.1317 0.15 2
  382.7692 0.23 4
  383.1530 0.40 7
  383.2605 0.21 3
  383.7646 0.10 2
  383.8734 0.12 2
  384.1452 0.34 6
  384.7381 0.07 1
  384.9344 0.10 2
  385.2122 0.49 8
  385.3210 0.17 3
  386.1317 0.11 2
  386.2453 0.08 1
  386.4089 0.08 1
  386.8898 0.05 1
  387.1442 0.21 3
  387.3253 0.04 1
  387.5924 0.09 1
  387.7380 0.15 2
  387.9190 0.05 1
  388.1502 0.19 3
  388.3813 0.30 5
  389.1161 0.11 2
  389.3459 0.12 2
  389.9720 0.05 1
  390.1610 0.16 3
  390.3274 0.02 0
  391.0677 0.08 1
  391.2027 0.21 3
  391.2963 0.05 1
  391.5014 0.06 1
  392.1650 0.34 6
  392.3388 0.25 4
  392.4337 0.07 1
  392.7725 0.06 1
  393.0786 0.21 3
  393.1595 0.10 2
  393.7824 0.06 1
  393.9228 0.14 2
  394.0638 0.03 0
  395.1668 0.21 3
  395.8427 0.21 3
  396.1395 1.25 20
  396.3180 0.31 5
  396.6530 0.11 2
  397.1866 2.39 39
  397.3437 1.01 16
  397.5175 0.09 1
  397.6506 0.13 2
  397.9128 0.07 1
  398.1622 0.33 5
  398.3561 0.37 6
  398.8911 0.10 2
  399.2650 0.40 7
  399.4054 0.12 2
  399.4970 0.11 2
  399.9129 0.11 2
  400.0237 0.04 1
  400.1198 0.07 1
  400.2079 0.05 1
  400.3415 0.06 1
  401.0064 0.03 0
  401.1640 0.60 10
  401.2902 0.56 9
  401.3983 0.13 2
  401.5813 0.11 2
  401.9699 0.24 4
  402.2236 0.39 6
  402.3906 0.17 3
  402.8166 0.09 1
  403.1352 0.35 6
  403.3375 0.25 4
  403.4417 0.20 3
  403.8738 0.02 0
  404.2318 0.57 9
  404.3773 0.29 5
  404.4682 0.18 3
  404.8963 0.08 1
  405.1528 0.32 5
  405.2964 0.24 4
  405.5723 0.05 1
  405.6831 0.04 1
  405.8602 0.11 2
  406.1855 0.13 2
  406.2903 0.11 2
  406.4807 0.07 1
  406.9711 0.01 0
  407.2650 0.13 2
  407.7775 0.10 2
  408.1496 0.12 2
  408.2492 0.12 2
  408.5813 0.06 1
  408.9127 0.12 2
  409.1586 0.12 2
  409.4165 0.08 1
  409.7613 0.06 1
  409.8763 0.11 2
  410.1790 0.51 8
  410.3019 0.45 7
  410.6267 0.15 2
  410.8760 0.21 3
  411.0718 0.29 5
  411.3111 0.42 7
  411.3940 0.13 2
  411.5424 0.14 2
  412.0209 0.21 3
  412.2515 0.19 3
  412.7382 0.11 2
  413.0035 0.26 4
  413.0851 0.11 2
  413.2181 0.49 8
  413.3592 0.16 3
  413.4915 0.02 0
  413.6259 0.09 1
  413.7509 0.13 2
  414.1440 0.24 4
  414.2831 0.13 2
  414.4489 0.17 3
  414.7490 0.08 1
  414.8085 0.04 1
  415.0292 0.19 3
  415.2906 0.27 4
  416.2603 0.31 5
  416.6569 0.11 2
  416.8766 0.18 3
  417.2145 0.17 3
  417.4663 0.11 2
  417.6687 0.08 1
  418.1328 0.09 1
  418.3860 0.07 1
  418.9777 0.14 2
  419.2215 0.21 3
  419.2997 0.13 2
  419.5228 0.11 2
  419.7519 0.08 1
  419.8514 0.11 2
  420.3203 0.09 1
  420.4727 0.11 2
  420.6196 0.10 2
  420.8561 0.07 1
  421.1714 0.25 4
  421.3084 0.11 2
  421.4046 0.13 2
  421.5549 0.06 1
  422.1302 0.27 4
  422.2698 0.10 2
  422.3987 0.12 2
  422.5718 0.15 2
  422.8384 0.14 2
  423.1418 0.16 3
  423.3262 0.14 2
  423.5500 0.09 1
  423.6375 0.09 1
  423.7993 0.04 1
  423.8901 0.05 1
  424.4889 0.09 1
  424.5785 0.07 1
  424.8745 0.05 1
  425.1124 0.05 1
  425.5582 0.05 1
  425.8496 0.11 2
  425.9666 0.10 2
  426.1103 0.17 3
  426.3375 0.10 2
  426.5988 0.01 0
  426.7526 0.03 0
  427.0333 0.27 4
  427.2158 0.40 7
  427.3201 0.16 3
  427.4965 0.23 4
  427.6382 0.11 2
  428.2071 2.59 42
  428.3702 1.29 21
  428.5320 0.17 3
  428.7727 0.34 6
  429.2454 0.75 12
  429.6559 0.10 2
  430.1747 0.22 4
  430.3485 0.09 1
  430.4950 0.11 2
  430.6280 0.09 1
  431.0693 0.17 3
  431.2077 0.17 3
  431.5314 0.12 2
  431.6424 0.15 2
  431.9573 0.11 2
  432.1312 0.06 1
  432.2763 0.09 1
  432.4542 0.05 1
  432.5532 0.06 1
  433.1009 0.11 2
  433.2935 0.08 1
  434.1603 0.07 1
  434.4834 0.01 0
  434.7670 0.10 2
  434.9663 0.31 5
  435.1309 0.37 6
  435.2566 0.20 3
  435.3670 0.13 2
  435.4780 0.04 1
  435.7101 0.25 4
  436.0700 0.26 4
  436.2574 0.20 3
  436.4393 0.17 3
  436.6674 0.19 3
  436.8380 0.20 3
  436.9671 0.26 4
  437.1745 0.25 4
  437.3967 0.17 3
  437.6482 0.27 4
  437.8657 0.29 5
  438.0824 0.40 7
  438.3039 0.21 3
  438.5662 0.29 5
  438.6478 0.13 2
  438.9027 0.20 3
  439.0794 0.13 2
  439.2587 0.28 5
  439.4534 0.23 4
  439.6140 0.12 2
  439.7586 0.18 3
  440.1949 0.05 1
  440.3722 0.22 4
  440.6841 0.17 3
  440.9163 0.14 2
  441.0100 0.07 1
  441.2342 0.20 3
  441.4182 0.21 3
  442.0052 0.21 3
  442.1009 0.12 2
  442.2060 0.16 3
  442.3586 0.16 3
  442.5567 0.12 2
  442.6959 0.04 1
  443.2983 1.20 20
  443.8640 0.07 1
  444.0788 0.24 4
  444.3004 0.44 7
  444.4470 0.21 3
  444.6599 0.09 1
  445.1178 0.15 2
  445.3501 0.12 2
  445.4291 0.07 1
  447.1478 0.11 2
  447.2429 0.06 1
  447.4344 0.12 2
  448.0109 0.15 2
  448.8647 0.08 1
  449.2604 0.11 2
  449.4908 0.20 3
  449.6047 0.05 1
  450.0875 0.26 4
  450.3664 0.36 6
  450.7288 0.04 1
  450.9401 0.10 2
  451.2102 0.25 4
  451.4322 0.19 3
  451.5458 0.10 2
  451.6642 0.10 2
  451.8735 0.11 2
  452.0727 0.10 2
  452.2927 0.10 2
  452.4933 0.10 2
  452.9180 0.06 1
  453.2985 0.18 3
  453.4135 0.12 2
  453.5412 0.10 2
  454.1378 0.21 3
  454.3083 0.11 2
  454.5939 0.20 3
  455.2065 0.37 6
  455.4767 0.13 2
  455.6787 0.18 3
  455.8513 0.16 3
  456.0680 0.18 3
  456.2867 0.31 5
  456.7857 0.23 4
  456.8988 0.12 2
  457.3102 0.83 14
  457.4567 0.78 13
  457.5517 0.41 7
  458.2862 17.05 278
  458.7866 0.15 2
  458.9505 0.25 4
  459.1238 0.31 5
  459.3232 0.29 5
  459.4998 0.16 3
  459.7862 0.18 3
  459.9327 0.03 0
  460.1582 0.11 2
  460.3315 0.11 2
  460.4425 0.14 2
  460.8754 0.05 1
  461.1966 0.14 2
  461.4696 0.22 4
  461.9534 0.16 3
  462.1863 0.07 1
  462.6032 0.10 2
  463.1935 0.18 3
  463.2684 0.06 1
  463.4331 0.12 2
  463.9571 0.01 0
  464.2944 0.14 2
  464.5294 0.09 1
  464.8433 0.09 1
  464.9805 0.12 2
  465.2174 0.12 2
  465.3459 0.19 3
  465.8988 0.11 2
  466.0461 0.08 1
  466.1331 0.10 2
  466.3312 0.11 2
  466.5407 0.06 1
  466.8527 0.14 2
  467.2537 0.12 2
  467.6112 0.13 2
  467.6955 0.11 2
  468.2458 0.23 4
  468.4326 0.14 2
  468.8765 0.11 2
  469.2782 0.35 6
  469.5540 0.18 3
  469.8165 0.13 2
  470.1794 0.49 8
  470.4211 0.28 5
  470.6200 0.11 2
  471.2387 0.91 15
  471.4517 0.31 5
  472.5392 0.05 1
  472.6805 0.05 1
  473.3188 0.14 2
  473.5505 0.11 2
  473.8813 0.05 1
  474.2430 0.11 2
  474.7366 0.13 2
  474.9764 0.13 2
  475.1901 0.10 2
  475.5230 0.03 0
  475.7869 0.06 1
  476.3717 0.10 2
  476.8426 0.07 1
  477.2705 0.12 2
  477.3902 0.15 2
  477.5473 0.08 1
  477.8022 0.11 2
  478.3238 0.17 3
  478.4776 0.19 3
  478.6495 0.11 2
  478.8087 0.10 2
  479.1592 0.25 4
  479.3076 0.05 1
  479.4040 0.05 1
  479.5204 0.02 0
  480.1110 0.09 1
  480.3872 0.11 2
  481.1371 0.12 2
  481.3699 0.10 2
  481.5358 0.09 1
  481.8770 0.09 1
  482.1004 0.05 1
  482.2890 0.09 1
  482.3894 0.12 2
  482.6175 0.10 2
  482.9206 0.15 2
  483.2156 0.11 2
  483.4203 0.14 2
  483.5775 0.12 2
  484.3390 1.32 22
  484.6936 0.16 3
  484.8555 0.16 3
  485.1954 0.08 1
  485.5480 0.09 1
  485.6571 0.16 3
  487.1038 0.17 3
  487.4257 0.13 2
  487.9658 0.01 0
  488.1559 0.12 2
  488.2255 0.07 1
  488.4885 0.09 1
  489.2621 0.09 1
  489.4931 0.04 1
  490.0359 0.09 1
  490.2775 0.18 3
  490.3592 0.11 2
  490.4944 0.14 2
  491.0205 0.14 2
  491.1222 0.12 2
  491.2729 0.19 3
  491.4475 0.41 7
  491.5861 0.12 2
  492.2816 0.23 4
  492.3653 0.16 3
  492.7924 0.08 1
  492.9370 0.10 2
  493.1245 0.09 1
  493.2751 0.49 8
  493.4713 0.17 3
  493.8997 0.14 2
  494.1173 0.24 4
  494.2425 0.34 6
  494.4139 0.30 5
  495.5052 0.09 1
  496.5966 0.02 0
  496.7600 0.06 1
  496.9288 0.10 2
  497.9533 0.12 2
  498.0872 0.02 0
  498.7536 0.13 2
  498.9156 0.12 2
  499.6584 0.11 2
  499.9712 0.08 1
  500.3516 0.07 1
  501.1660 0.07 1
  501.4788 0.11 2
  501.8887 0.11 2
  502.1285 0.13 2
  502.4916 0.11 2
  502.6497 0.11 2
  503.1337 0.13 2
  503.4665 0.09 1
  503.5828 0.09 1
  504.1763 0.21 3
  504.3394 0.07 1
  504.4483 0.12 2
  505.1394 0.13 2
  505.2664 0.20 3
  505.5405 0.10 2
  506.1942 0.04 1
  506.3901 0.31 5
  506.5378 0.10 2
  506.8166 0.05 1
  506.9549 0.10 2
  507.1762 0.01 0
  507.3788 0.02 0
  507.8220 0.11 2
  508.0646 0.20 3
  508.3661 0.11 2
  508.5119 0.14 2
  509.0668 0.11 2
  509.2627 0.12 2
  509.4693 0.06 1
  509.9206 0.11 2
  510.2281 0.11 2
  510.3251 0.07 1
  510.9703 0.08 1
  511.1448 0.10 2
  511.4096 0.05 1
  511.6115 0.09 1
  511.8609 0.13 2
  512.4246 0.10 2
  513.3588 0.04 1
  513.7413 0.13 2
  513.9955 0.16 3
  514.7538 0.15 2
  514.9659 0.11 2
  515.2635 0.11 2
  515.4447 0.04 1
  515.7009 0.09 1
  515.8727 0.11 2
  516.3630 0.05 1
  516.6693 0.17 3
  516.8586 0.11 2
  516.9918 0.15 2
  517.1897 0.39 6
  517.4044 0.18 3
  517.5897 0.11 2
  517.9857 0.09 1
  518.1509 0.27 4
  518.3115 0.11 2
  518.4499 0.15 2
  518.6780 0.25 4
  519.2499 0.31 5
  519.5543 0.20 3
  519.6948 0.06 1
  519.8159 0.08 1
  520.2808 0.69 11
  520.5980 0.18 3
  520.8983 0.14 2
  521.2308 0.25 4
  521.4583 0.21 3
  521.6590 0.11 2
  521.8437 0.13 2
  522.0370 0.10 2
  522.2418 0.15 2
  522.3461 0.14 2
  522.9711 0.08 1
  523.1216 0.11 2
  523.2554 0.12 2
  523.4802 0.12 2
  523.8870 0.13 2
  524.0062 0.12 2
  524.2297 0.16 3
  524.4739 0.05 1
  524.6505 0.29 5
  525.0982 0.33 5
  525.4589 0.16 3
  525.6717 0.20 3
  525.8309 0.16 3
  526.2104 0.42 7
  526.4152 0.35 6
  526.5617 0.30 5
  526.7424 0.17 3
  526.9197 0.16 3
  527.0315 0.17 3
  527.3012 0.21 3
  527.4110 0.19 3
  527.6639 0.40 7
  527.8902 0.24 4
  528.0327 0.17 3
  528.2757 0.27 4
  528.3747 0.14 2
  528.4604 0.10 2
  528.6398 0.54 9
  528.8285 0.15 2
  529.0507 0.63 10
  529.2870 0.46 7
  529.4503 0.39 6
  529.6517 0.35 6
  529.8151 0.12 2
  529.9717 0.56 9
  530.2435 0.48 8
  530.4597 0.40 7
  530.7180 0.60 10
  531.0359 0.62 10
  531.2522 0.59 10
  531.5186 0.58 9
  531.7911 0.26 4
  532.3500 2.95 48
  532.6693 1.15 19
  533.1406 1.42 23
  533.4465 1.14 19
  534.3021 2.82 46
  535.3861 9.98 163
  535.7838 0.87 14
  535.9177 0.58 9
  536.2397 0.85 14
  536.5497 0.84 14
  536.9548 0.68 11
  537.1825 0.29 5
  537.4946 0.44 7
  537.9191 0.51 8
  538.2840 0.51 8
  538.5190 0.60 10
  538.8987 0.62 10
  539.0535 0.41 7
  539.3635 0.59 10
  539.8115 0.70 11
  540.2214 0.72 12
  540.5502 0.71 12
  541.0491 0.61 10
  541.2862 0.75 12
  541.5112 0.61 10
  541.7476 0.97 16
  542.3149 0.84 14
  542.7777 0.88 14
  542.9324 1.13 18
  543.2071 1.05 17
  543.3946 1.21 20
  543.6907 1.00 16
  544.1776 1.93 31
  550.3327 99.97 999
  550.8977 47.08 767
  551.7034 22.41 365
  552.5968 11.19 182
  553.4307 5.52 90
  553.9008 4.00 65
  554.2164 3.05 50
  554.5180 1.86 30
  554.9286 2.01 33
  555.2449 1.28 21
//
