ACCESSION: MSBNK-Kyoto_Univ-CA000089
RECORD_TITLE: Neoxanthin; FAB-EBEB; MS2; m/z: 600.42; [M]+*
DATE: 2016.01.19 (Created 2010.04.01, modified 2011.05.10)
AUTHORS: Akimoto N, Graduate School of Pharmaceutical Sciences, Kyoto University and Maoka T, Research Institute for Production Development
LICENSE: CC BY-SA
PUBLICATION: Shinichi Takaichi A Takashi Maoka, Mari Mochimaru, Unique Carotenoids in the Terrestrial Cyanobacterium Nostoc commune NIES-24: 2-Hydroxymyxol 20-Fucoside, Nostoxanthin and Canthaxanthin, Curr Microbiol,Curr. Microbiol., 59, 413-419 (2009).
COMMENT: Profile spectrum of this record is given as a JPEG file.
COMMENT: [Profile] CA000089.jpg
CH$NAME: Neoxanthin
CH$COMPOUND_CLASS: N/A
CH$FORMULA: C40H56O4
CH$EXACT_MASS: 600.41786
CH$SMILES: C/C(=C\C=C\C=C(/C)\C=C\C=C(/C)\C=C=C1[C@](C[C@H](CC1(C)C)O)(C)O)/C=C/C=C(\C)/C=C/[C@]23[C@](O2)(C[C@H](CC3(C)C)O)C
CH$IUPAC: InChI=1S/C40H56O4/c1-29(17-13-19-31(3)21-22-35-36(5,6)25-33(41)27-38(35,9)43)15-11-12-16-30(2)18-14-20-32(4)23-24-40-37(7,8)26-34(42)28-39(40,10)44-40/h11-21,23-24,33-34,41-43H,25-28H2,1-10H3/b12-11+,17-13+,18-14+,24-23+,29-15+,30-16+,31-19+,32-20+/t22?,33-,34-,38+,39+,40-/m0/s1
CH$LINK: INCHIKEY PGYAYSRVSAJXTE-CLONMANBSA-N
CH$LINK: CAS 30743-41-0
CH$LINK: LIPIDBANK VCA0059
CH$LINK: PUBCHEM CID:5281247
CH$LINK: COMPTOX DTXSID60415095
AC$INSTRUMENT: JMS-HX/HX 110A, JEOL
AC$INSTRUMENT_TYPE: FAB-EBEB
AC$MASS_SPECTROMETRY: MS_TYPE MS2
AC$MASS_SPECTROMETRY: ION_MODE POSITIVE
AC$MASS_SPECTROMETRY: ATOM_GUN_CURRENT 5 mA
AC$MASS_SPECTROMETRY: BOMBARDMENT 6 kV xenon
AC$MASS_SPECTROMETRY: COLLISION_ENERGY 3 kV
AC$MASS_SPECTROMETRY: COLLISION_GAS Ar
AC$MASS_SPECTROMETRY: GAS_PRESSURE adjust to attenuate the intensity of the precursor ion by 30 %
AC$MASS_SPECTROMETRY: IONIZATION FAB
AC$MASS_SPECTROMETRY: MATRIX 1-2 uL m-NBA
AC$MASS_SPECTROMETRY: PROBE_TIP stainless-steel
MS$FOCUSED_ION: BASE_PEAK 42.9688
MS$FOCUSED_ION: PRECURSOR_M/Z 600.42
MS$FOCUSED_ION: PRECURSOR_TYPE [M]+*
MS$DATA_PROCESSING: RELATIVE_M/Z normalised by peak(m/z=42.9688).  set 999 for peak(m/z=600.4401,rel=1684).
PK$SPLASH: splash10-0udl-3930012000-c687c98fec0b1620d975
PK$NUM_PEAK: 1877
PK$PEAK: m/z int. rel.int.
  0.3396 0.01 0
  1.5357 0.01 0
  2.8927 0.01 0
  6.7458 0.01 0
  6.9566 0.01 0
  10.8943 0.01 0
  12.9746 0.04 1
  13.9836 0.11 2
  14.9973 0.35 6
  15.9150 0.02 0
  17.9923 0.01 0
  18.9894 0.08 1
  22.9670 0.04 1
  24.9737 0.14 2
  25.3673 0.04 1
  25.9793 0.42 7
  26.9858 3.13 53
  27.9853 0.50 8
  28.9873 2.97 50
  29.9563 0.04 1
  30.9720 0.60 10
  35.9453 0.02 0
  36.6970 0.01 0
  36.9696 0.27 5
  37.4155 0.02 0
  37.7073 0.01 0
  37.9693 1.52 26
  38.1219 0.01 0
  38.9717 7.15 120
  39.8160 0.05 1
  39.9788 1.14 19
  40.9888 13.97 235
  41.9800 0.51 9
  42.9688 59.29 999
  43.9761 0.46 8
  44.9928 0.75 13
  46.9421 0.08 1
  48.6774 0.04 1
  48.9419 0.20 3
  49.0670 0.01 0
  49.3636 0.03 1
  49.9610 1.47 25
  50.2018 0.01 0
  50.9717 4.11 69
  51.4336 0.01 0
  51.9835 1.87 32
  52.9852 7.11 120
  53.9789 0.50 8
  54.9959 14.10 238
  55.9836 0.28 5
  57.0118 6.63 112
  57.2806 0.04 1
  57.9936 0.43 7
  58.9994 3.16 53
  60.0106 0.08 1
  60.9808 0.77 13
  61.6659 0.01 0
  61.9728 1.29 22
  62.7389 0.09 2
  62.9662 2.41 41
  63.1330 0.05 1
  63.2280 0.02 0
  63.9745 0.64 11
  64.4306 0.03 1
  64.6358 0.08 1
  64.9815 5.11 86
  65.2086 0.12 2
  65.3504 0.02 0
  65.5745 0.04 1
  65.9874 1.12 19
  66.1638 0.10 2
  66.6034 0.01 0
  66.9952 7.68 129
  67.9949 0.55 9
  68.5880 0.02 0
  68.7012 0.10 2
  68.9903 12.71 214
  69.4059 0.03 1
  69.4889 0.08 1
  69.9693 0.32 5
  70.6246 0.03 1
  70.9841 4.03 68
  71.9986 0.13 2
  72.8691 0.07 1
  72.9875 0.22 4
  73.9529 0.59 10
  74.9665 1.27 21
  75.2009 0.11 2
  75.3820 0.09 2
  75.5149 0.04 1
  75.6744 0.12 2
  75.9718 0.63 11
  76.3880 0.11 2
  76.6087 0.11 2
  76.7061 0.07 1
  76.9720 13.56 228
  77.1517 0.23 4
  77.2812 0.06 1
  77.4244 0.16 3
  77.5020 0.12 2
  77.9748 2.29 39
  78.3461 0.06 1
  78.4678 0.11 2
  78.6026 0.04 1
  78.7202 0.02 0
  78.9824 12.54 211
  79.3513 0.02 0
  79.9704 1.55 26
  80.4897 0.03 1
  80.9876 11.73 198
  81.1851 0.15 3
  81.4953 0.11 2
  81.9718 0.67 11
  82.4557 0.05 1
  82.6341 0.04 1
  82.9835 13.75 232
  83.5651 0.04 1
  83.9780 0.33 6
  84.3456 0.06 1
  84.6083 0.14 2
  84.7207 0.09 2
  84.9777 9.31 157
  85.2869 0.03 1
  85.6612 0.02 0
  85.9497 0.45 8
  86.9638 12.28 207
  87.2326 0.02 0
  87.8768 0.12 2
  87.9682 0.08 1
  88.1298 0.06 1
  88.2634 0.06 1
  88.5886 0.19 3
  88.9783 1.88 32
  89.1500 0.13 2
  89.3647 0.22 4
  89.4852 0.10 2
  89.6272 0.06 1
  89.8788 0.22 4
  90.0172 0.36 6
  90.2728 0.22 4
  90.5193 0.18 3
  90.6776 0.06 1
  90.9759 26.26 442
  91.3605 0.09 2
  91.6666 0.07 1
  91.9841 2.46 41
  92.2039 0.04 1
  92.5594 0.23 4
  92.9873 17.06 287
  93.3237 0.10 2
  93.5522 0.14 2
  93.9854 0.93 16
  94.2291 0.03 1
  94.4618 0.01 0
  94.6067 0.15 3
  94.6804 0.05 1
  94.9963 13.02 219
  95.2869 0.03 1
  95.6323 0.01 0
  95.9978 0.82 14
  96.5307 0.04 1
  96.9952 3.73 63
  97.2522 0.04 1
  97.9193 0.24 4
  98.9790 1.03 17
  100.0065 0.29 5
  100.4906 0.04 1
  100.9364 0.73 12
  101.3059 0.05 1
  101.4007 0.05 1
  101.6437 0.20 3
  101.9792 1.65 28
  102.2364 0.08 1
  102.4276 0.13 2
  102.5962 0.17 3
  102.9852 4.39 74
  103.4193 0.19 3
  103.5510 0.10 2
  103.9817 2.24 38
  104.3087 0.04 1
  104.4804 0.09 2
  104.5770 0.06 1
  104.9941 30.31 511
  105.3349 0.21 4
  105.5943 0.05 1
  105.9976 3.22 54
  106.2231 0.10 2
  106.3726 0.01 0
  106.6832 0.08 1
  107.0086 16.30 275
  107.2853 0.15 3
  107.4390 0.11 2
  107.5221 0.09 2
  107.6219 0.01 0
  108.0049 1.23 21
  108.1755 0.09 2
  108.4655 0.21 4
  108.5335 0.06 1
  109.0060 10.95 185
  109.3098 0.05 1
  110.0247 0.51 9
  110.2774 0.03 1
  110.5105 0.11 2
  110.9923 2.35 40
  111.9685 0.14 2
  112.3281 0.04 1
  112.6055 0.08 1
  112.9994 1.87 32
  113.1926 0.15 3
  113.4377 0.22 4
  113.6804 0.07 1
  113.9929 0.77 13
  114.1589 0.22 4
  114.5422 0.19 3
  114.9740 15.22 256
  115.2345 0.21 4
  115.4740 0.27 5
  115.9668 5.14 87
  116.2586 0.14 2
  116.3840 0.03 1
  116.6034 0.30 5
  116.9824 12.19 205
  117.3133 0.14 2
  117.4183 0.07 1
  117.6296 0.16 3
  117.9828 3.01 51
  118.2176 0.26 4
  118.3130 0.09 2
  118.5311 0.37 6
  118.9913 27.13 457
  119.3265 0.15 3
  119.4615 0.08 1
  119.9909 2.55 43
  120.3020 0.15 3
  120.9887 13.98 236
  121.3495 0.20 3
  121.5160 0.06 1
  121.7377 0.04 1
  121.9938 1.06 18
  122.3019 0.08 1
  122.9809 7.12 120
  123.2361 0.09 2
  123.3472 0.09 2
  123.4759 0.21 4
  123.6780 0.03 1
  123.9583 0.38 6
  124.1852 0.15 3
  124.4182 0.02 0
  124.9813 7.67 129
  125.2320 0.20 3
  125.3389 0.03 1
  125.4933 0.19 3
  125.7221 0.09 2
  125.9894 0.78 13
  126.1661 0.12 2
  126.3090 0.04 1
  126.9708 5.98 101
  127.2614 0.43 7
  127.9594 17.33 292
  128.2393 0.17 3
  128.5134 0.34 6
  128.9676 18.29 308
  129.3644 0.17 3
  129.4974 0.08 1
  129.5930 0.12 2
  129.9725 8.26 139
  130.4046 0.20 3
  130.6073 0.23 4
  130.9793 19.95 336
  131.3148 0.09 2
  131.5092 0.16 3
  131.6695 0.14 2
  131.9796 4.42 74
  132.2787 0.04 1
  132.4259 0.10 2
  132.5311 0.25 4
  132.6456 0.21 4
  132.9876 15.81 266
  133.2522 0.08 1
  133.5392 0.30 5
  133.9851 2.30 39
  134.3837 0.15 3
  134.4727 0.08 1
  134.6619 0.11 2
  134.9811 9.72 164
  135.3558 0.20 3
  135.4931 0.14 2
  135.5960 0.08 1
  135.9578 2.17 37
  136.3164 0.09 2
  136.3904 0.07 1
  136.5589 0.08 1
  136.9574 2.69 45
  137.2439 0.10 2
  137.5271 0.05 1
  137.8978 0.28 5
  138.2375 0.19 3
  138.3455 0.05 1
  138.4946 0.09 2
  138.9598 2.67 45
  139.3232 0.17 3
  139.4279 0.17 3
  139.5765 0.14 2
  139.9965 1.80 30
  140.1160 0.48 8
  140.2727 0.32 5
  140.3902 0.37 6
  140.9634 15.20 256
  141.2810 0.13 2
  141.4611 0.17 3
  141.9691 14.19 239
  142.3084 0.28 5
  142.4421 0.22 4
  142.9680 23.28 392
  143.2743 0.35 6
  143.9772 6.71 113
  144.3799 0.16 3
  144.9829 24.05 405
  145.4801 0.17 3
  145.9896 3.28 55
  146.1914 0.22 4
  146.2896 0.15 3
  146.5288 0.15 3
  146.9900 10.71 180
  147.4194 0.21 4
  147.5772 0.07 1
  147.6783 0.07 1
  148.0048 1.14 19
  148.2170 0.10 2
  148.5109 0.13 2
  148.9932 6.18 104
  149.4348 0.10 2
  149.5132 0.07 1
  149.7364 0.17 3
  149.9778 1.14 19
  150.3789 0.22 4
  150.5869 0.30 5
  150.9781 5.09 86
  151.1815 0.31 5
  151.3487 0.33 6
  151.4447 0.17 3
  151.5770 0.28 5
  151.9586 6.84 115
  152.3544 0.17 3
  152.9628 8.14 137
  153.2722 0.06 1
  153.4391 0.27 5
  153.5588 0.13 2
  153.9828 4.14 70
  154.3780 0.14 2
  154.5767 0.32 5
  154.9957 18.17 306
  155.4209 0.19 3
  155.9933 10.48 177
  156.2962 0.15 3
  156.4439 0.03 1
  157.0114 23.86 402
  157.2983 0.45 8
  157.4280 0.16 3
  157.6204 0.15 3
  158.0223 5.28 89
  158.3027 0.17 3
  158.3906 0.05 1
  158.5312 0.23 4
  159.0112 15.57 262
  159.4846 0.14 2
  160.0036 2.34 39
  160.2844 0.14 2
  160.4950 0.09 2
  161.0313 6.53 110
  161.2813 0.15 3
  161.4412 0.25 4
  161.6452 0.08 1
  162.0112 0.75 13
  162.3102 0.11 2
  162.3997 0.06 1
  162.5604 0.08 1
  163.0319 3.29 55
  163.2986 0.27 5
  163.6149 0.12 2
  164.0107 1.53 26
  164.4521 0.32 5
  165.0011 14.88 251
  165.3362 0.07 1
  165.5000 0.14 2
  166.0148 5.37 90
  166.3740 0.18 3
  167.0307 14.70 248
  167.2866 0.31 5
  167.4541 0.30 5
  167.5937 0.12 2
  168.0317 4.65 78
  168.2919 0.21 4
  168.4050 0.13 2
  168.6033 0.04 1
  169.0403 15.37 259
  169.3239 0.28 5
  169.5346 0.16 3
  169.6622 0.13 2
  170.0462 6.83 115
  170.3219 0.40 7
  171.0487 13.70 231
  171.5028 0.17 3
  171.6158 0.05 1
  172.0381 3.52 59
  172.2697 0.17 3
  172.5320 0.07 1
  173.0480 8.60 145
  173.5321 0.24 4
  174.0225 1.69 28
  174.4612 0.07 1
  175.0468 4.78 81
  175.4483 0.21 4
  175.6853 0.11 2
  175.9988 1.35 23
  176.3705 0.15 3
  176.5735 0.23 4
  177.0233 2.37 40
  177.4041 0.29 5
  178.0087 6.62 112
  178.4432 0.08 1
  178.5910 0.28 5
  179.0113 12.25 206
  179.4386 0.23 4
  179.6139 0.24 4
  180.0174 5.63 95
  180.3764 0.22 4
  181.0275 14.33 241
  181.3744 0.21 4
  181.5733 0.25 4
  182.0267 4.46 75
  182.4905 0.41 7
  182.6010 0.23 4
  183.0423 13.45 227
  183.3169 0.32 5
  184.0428 3.61 61
  184.2750 0.25 4
  184.5203 0.26 4
  184.6536 0.16 3
  185.0398 7.41 125
  185.3911 0.16 3
  185.5747 0.19 3
  185.6496 0.09 2
  186.0341 2.14 36
  186.4895 0.20 3
  187.0413 3.84 65
  187.5039 0.21 4
  187.6960 0.17 3
  188.0327 0.93 16
  188.4232 0.09 2
  188.5989 0.17 3
  189.0357 4.93 83
  189.4623 0.16 3
  190.0304 2.48 42
  190.2517 0.35 6
  190.5469 0.42 7
  191.0181 6.58 111
  191.3658 0.18 3
  191.5411 0.14 2
  192.0188 5.52 93
  192.6305 0.22 4
  193.0242 12.66 213
  193.4657 0.32 5
  194.0206 4.84 82
  194.4256 0.28 5
  195.0272 11.23 189
  195.4934 0.26 4
  196.0358 3.98 67
  196.4074 0.18 3
  197.0374 10.40 175
  197.4376 0.20 3
  197.6419 0.16 3
  198.0464 2.48 42
  198.3180 0.19 3
  198.6222 0.23 4
  199.0470 5.93 100
  199.3853 0.07 1
  199.5989 0.12 2
  200.0468 1.14 19
  200.3562 0.31 5
  200.5123 0.11 2
  200.6357 0.16 3
  201.0472 3.05 51
  201.3199 0.32 5
  201.5087 0.18 3
  201.9995 3.24 55
  202.3203 0.08 1
  202.5411 0.28 5
  203.0106 5.06 85
  203.3948 0.17 3
  203.5171 0.17 3
  203.6227 0.09 2
  204.0369 1.82 31
  204.3198 0.22 4
  205.0227 6.10 103
  205.3808 0.17 3
  205.5074 0.15 3
  205.6020 0.04 1
  206.0320 4.31 73
  206.3326 0.08 1
  207.0341 10.16 171
  207.3167 0.10 2
  207.5305 0.23 4
  208.0514 5.03 85
  208.2659 0.34 6
  208.5536 0.39 7
  209.0574 8.98 151
  209.4811 0.08 1
  210.0513 2.40 40
  210.3790 0.20 3
  211.0324 5.65 95
  211.4922 0.23 4
  212.0699 1.23 21
  212.4510 0.11 2
  212.5522 0.06 1
  212.6576 0.20 3
  213.0444 4.00 67
  213.3586 0.16 3
  213.4968 0.15 3
  213.6009 0.07 1
  213.7406 0.27 5
  214.0828 0.83 14
  214.2694 0.42 7
  215.0373 4.04 68
  215.4462 0.07 1
  215.5678 0.06 1
  215.7460 0.21 4
  216.0299 1.90 32
  216.3641 0.11 2
  216.4802 0.10 2
  217.0370 4.36 73
  217.3378 0.26 4
  217.4826 0.25 4
  217.5820 0.14 2
  218.0515 2.14 36
  218.3441 0.14 2
  218.5261 0.14 2
  218.6633 0.13 2
  219.0630 6.01 101
  219.4194 0.15 3
  219.6253 0.21 4
  220.0603 2.47 42
  220.4764 0.21 4
  221.0741 8.34 141
  221.4295 0.33 6
  222.0737 2.34 39
  222.3977 0.25 4
  222.6459 0.06 1
  223.0962 4.49 76
  223.4140 0.15 3
  223.5823 0.22 4
  223.7584 0.18 3
  224.0812 1.48 25
  224.3879 0.17 3
  224.6069 0.16 3
  225.0941 3.01 51
  225.4304 0.18 3
  225.7014 0.28 5
  226.0680 0.89 15
  226.3328 0.15 3
  226.5267 0.11 2
  227.1175 2.89 49
  227.3719 0.36 6
  228.0642 1.58 27
  228.3559 0.11 2
  228.4867 0.22 4
  228.6597 0.25 4
  228.8108 0.43 7
  229.0949 3.81 64
  229.5028 0.13 2
  229.6801 0.07 1
  230.1057 1.73 29
  230.3555 0.16 3
  230.4969 0.20 3
  230.6285 0.27 5
  231.0810 3.66 62
  231.3914 0.12 2
  231.5800 0.05 1
  232.0912 2.57 43
  232.4693 0.22 4
  233.1152 9.94 167
  233.4903 0.16 3
  233.6244 0.21 4
  234.1120 3.24 55
  234.5589 0.30 5
  235.1141 4.50 76
  235.4712 0.20 3
  235.6891 0.27 5
  235.8220 0.21 4
  236.1109 1.18 20
  236.5223 0.24 4
  236.7467 0.21 4
  237.1258 2.72 46
  237.5296 0.13 2
  237.7435 0.16 3
  238.1312 0.88 15
  238.4556 0.30 5
  239.0834 2.52 42
  239.2214 0.87 15
  239.4559 0.15 3
  239.5748 0.03 1
  240.0769 0.75 13
  240.3931 0.21 4
  240.4973 0.23 4
  240.5924 0.15 3
  241.0778 2.33 39
  241.4864 0.21 4
  241.6386 0.29 5
  242.0649 1.16 20
  242.2813 0.17 3
  242.4223 0.10 2
  242.5555 0.07 1
  243.0863 3.02 51
  243.3873 0.16 3
  243.6348 0.27 5
  244.0854 1.43 24
  244.4409 0.12 2
  244.7005 0.10 2
  245.0885 2.98 50
  245.4582 0.10 2
  245.6120 0.17 3
  246.0990 1.90 32
  246.3143 0.34 6
  246.5154 0.10 2
  246.6270 0.08 1
  247.1042 4.61 78
  247.5158 0.04 1
  247.6535 0.17 3
  248.1104 1.31 22
  248.2418 0.64 11
  248.6713 0.20 3
  249.0888 2.38 40
  249.4124 0.14 2
  249.5848 0.06 1
  249.8208 0.07 1
  250.1297 0.98 17
  250.3466 0.13 2
  250.5184 0.03 1
  250.6852 0.25 4
  251.0988 2.56 43
  251.6390 0.17 3
  252.0937 0.96 16
  252.4481 0.14 2
  253.0953 2.09 35
  253.6083 0.12 2
  253.7328 0.11 2
  254.0881 0.79 13
  254.2303 0.23 4
  254.5404 0.11 2
  254.7237 0.09 2
  255.1222 3.67 62
  255.4571 0.16 3
  255.7998 0.14 2
  256.1334 1.39 23
  256.4492 0.14 2
  256.7581 0.20 3
  257.1179 2.20 37
  257.4884 0.08 1
  257.7421 0.10 2
  258.0936 1.36 23
  258.2261 0.58 10
  258.3607 0.17 3
  258.4933 0.10 2
  258.6584 0.12 2
  259.1134 3.35 56
  259.4189 0.17 3
  259.6465 0.06 1
  260.1059 1.06 18
  260.3512 0.24 4
  260.5072 0.07 1
  260.6901 0.24 4
  261.1369 2.20 37
  261.3901 0.11 2
  261.5901 0.18 3
  261.8164 0.12 2
  262.1299 0.83 14
  262.2484 0.52 9
  262.5003 0.11 2
  263.1375 2.10 35
  263.6506 0.15 3
  264.0836 0.39 7
  264.3058 0.20 3
  264.4159 0.11 2
  264.7773 0.06 1
  265.1117 1.65 28
  265.3829 0.15 3
  265.5122 0.22 4
  265.7217 0.06 1
  266.0797 0.70 12
  266.3482 0.12 2
  266.4320 0.07 1
  266.5577 0.23 4
  267.1105 1.80 30
  267.5254 0.13 2
  267.6825 0.05 1
  267.9980 0.67 11
  268.1544 0.77 13
  268.3178 0.17 3
  268.4657 0.06 1
  268.6548 0.09 2
  269.1048 2.55 43
  269.6309 0.16 3
  270.1464 2.36 40
  270.5255 0.16 3
  271.1045 2.45 41
  271.4075 0.11 2
  271.6259 0.11 2
  272.1276 1.22 21
  272.4471 0.19 3
  272.5517 0.08 1
  273.1317 2.08 35
  273.5061 0.07 1
  273.6869 0.19 3
  274.1333 1.25 21
  274.4551 0.17 3
  275.1330 1.41 24
  275.4920 0.02 0
  275.6672 0.14 2
  276.1053 0.78 13
  276.2399 0.29 5
  276.4244 0.05 1
  276.7058 0.10 2
  277.1790 1.47 25
  277.4516 0.05 1
  277.6123 0.11 2
  277.8029 0.12 2
  277.8847 0.07 1
  278.1684 0.55 9
  278.6485 0.19 3
  278.7487 0.18 3
  279.1279 0.88 15
  279.3278 0.36 6
  279.6650 0.09 2
  279.8919 0.17 3
  280.1339 0.46 8
  280.3174 0.52 9
  280.4256 0.11 2
  280.5174 0.08 1
  280.6120 0.10 2
  280.7700 0.19 3
  281.1337 1.31 22
  281.4048 0.13 2
  281.7494 0.04 1
  282.1281 0.68 11
  282.3965 0.10 2
  282.5282 0.17 3
  282.8094 0.15 3
  283.1569 2.28 38
  283.4916 0.07 1
  283.6034 0.04 1
  283.7388 0.08 1
  284.1362 0.84 14
  284.4282 0.07 1
  284.5664 0.09 2
  285.1392 2.32 39
  285.5418 0.02 0
  286.1432 1.07 18
  286.4547 0.03 1
  287.1104 1.98 33
  287.5175 0.09 2
  287.6850 0.13 2
  288.0850 0.43 7
  288.2889 0.25 4
  288.4679 0.06 1
  289.1639 0.97 16
  289.4164 0.06 1
  289.5376 0.04 1
  290.1497 0.47 8
  290.2780 0.39 7
  290.3794 0.11 2
  290.5149 0.09 2
  290.6248 0.13 2
  290.7204 0.12 2
  291.1257 1.13 19
  291.3454 0.29 5
  291.4453 0.21 4
  291.6758 0.27 5
  291.9570 0.09 2
  292.1447 0.47 8
  292.2532 0.25 4
  292.3617 0.14 2
  292.5302 0.04 1
  293.1084 1.16 20
  293.2983 0.41 7
  293.3947 0.16 3
  293.7631 0.11 2
  294.1491 0.65 11
  294.4380 0.13 2
  294.7704 0.11 2
  295.1343 1.06 18
  295.4276 0.19 3
  296.1483 0.60 10
  296.3560 0.10 2
  296.5273 0.17 3
  297.1261 1.52 26
  297.4459 0.11 2
  297.6115 0.11 2
  297.7393 0.01 0
  298.1170 0.73 12
  298.3305 0.11 2
  298.5447 0.07 1
  299.1410 2.86 48
  299.3667 0.46 8
  299.5417 0.04 1
  299.8459 0.10 2
  300.1417 0.56 9
  300.5674 0.20 3
  300.7310 0.10 2
  300.9375 0.44 7
  301.1868 1.15 19
  301.5269 0.14 2
  301.6699 0.14 2
  301.9257 0.21 4
  302.0429 0.34 6
  302.2766 0.39 7
  302.6182 0.19 3
  302.8519 0.08 1
  303.1736 0.77 13
  303.7155 0.15 3
  303.8248 0.05 1
  304.1158 0.34 6
  304.2703 0.25 4
  305.1090 0.52 9
  305.2506 0.41 7
  305.5653 0.10 2
  305.7341 0.06 1
  305.9429 0.16 3
  306.1232 0.21 4
  306.3593 0.13 2
  306.7076 0.11 2
  306.8128 0.12 2
  307.1905 0.66 11
  308.0950 0.69 12
  308.4270 0.05 1
  309.1141 0.80 13
  309.3703 0.07 1
  309.5507 0.10 2
  309.9495 0.07 1
  310.1599 0.43 7
  310.4499 0.19 3
  310.7277 0.04 1
  311.1222 1.59 27
  311.7503 0.16 3
  312.1463 0.88 15
  312.6219 0.05 1
  313.1484 1.88 32
  313.4120 0.12 2
  313.6571 0.10 2
  313.7523 0.04 1
  313.9179 0.23 4
  314.0440 0.12 2
  314.1880 0.34 6
  314.3191 0.14 2
  314.5771 0.04 1
  314.9117 0.09 2
  315.2099 0.61 10
  315.5317 0.23 4
  315.6987 0.10 2
  316.1789 0.24 4
  316.4757 0.16 3
  317.1654 0.74 12
  317.7741 0.08 1
  318.0029 0.09 2
  318.2008 0.24 4
  318.3442 0.09 2
  318.5866 0.08 1
  318.7264 0.16 3
  319.1073 0.62 10
  319.2644 0.50 8
  320.1517 0.32 5
  320.3519 0.18 3
  320.5377 0.10 2
  321.0263 0.60 10
  321.2315 0.37 6
  321.4439 0.09 2
  321.7805 0.21 4
  322.0381 0.23 4
  322.2836 0.12 2
  322.4372 0.09 2
  322.6230 0.06 1
  322.7451 0.12 2
  322.9539 0.22 4
  323.1794 0.93 16
  323.3409 0.23 4
  323.5447 0.13 2
  323.6919 0.11 2
  323.9927 0.24 4
  324.1528 0.35 6
  324.2641 0.13 2
  324.6676 0.21 4
  324.8816 0.05 1
  325.1818 1.01 17
  325.3893 0.22 4
  325.6758 0.10 2
  325.8396 0.09 2
  326.1757 0.39 7
  326.3064 0.14 2
  326.7985 0.01 0
  327.1612 0.53 9
  328.0040 0.26 4
  328.1951 0.29 5
  328.4782 0.07 1
  328.7829 0.06 1
  329.1946 0.49 8
  330.0808 0.30 5
  330.3310 0.10 2
  330.4417 0.10 2
  330.6020 0.12 2
  330.8953 0.13 2
  331.1835 0.68 11
  331.7760 0.08 1
  332.0327 0.13 2
  332.1808 0.42 7
  332.2872 0.20 3
  332.4475 0.15 3
  332.6561 0.26 4
  332.8236 0.07 1
  333.1293 0.57 10
  333.3875 0.12 2
  333.5917 0.08 1
  334.1909 0.38 6
  334.3772 0.13 2
  334.5563 0.12 2
  334.7261 0.08 1
  335.1261 0.35 6
  335.6304 0.11 2
  335.9261 0.06 1
  336.1492 0.31 5
  336.2643 0.13 2
  336.3982 0.14 2
  336.5716 0.07 1
  336.7925 0.10 2
  337.1992 0.59 10
  337.6224 0.09 2
  337.7440 0.04 1
  337.9930 0.10 2
  338.2392 0.14 2
  338.4899 0.17 3
  338.7126 0.16 3
  338.8995 0.10 2
  339.0533 0.16 3
  339.2961 0.34 6
  339.9976 0.05 1
  340.1815 0.16 3
  340.5021 0.02 0
  340.8515 0.03 1
  341.1074 0.42 7
  341.2224 0.19 3
  341.3647 0.06 1
  341.9204 0.03 1
  342.1599 0.02 0
  342.3130 0.09 2
  342.6445 0.11 2
  343.2233 0.47 8
  343.3355 0.24 4
  343.6390 0.04 1
  343.9303 0.09 2
  344.1431 0.13 2
  344.3352 0.23 4
  344.9595 0.25 4
  345.2120 0.60 10
  345.3537 0.23 4
  345.8185 0.13 2
  346.2177 0.27 5
  346.3882 0.11 2
  347.1783 0.54 9
  347.3755 0.23 4
  347.4957 0.10 2
  347.5806 0.03 1
  348.1556 0.21 4
  348.3557 0.16 3
  349.2309 0.63 11
  349.5174 0.02 0
  349.7269 0.11 2
  349.8450 0.19 3
  350.0444 0.10 2
  350.2006 0.05 1
  350.4461 0.14 2
  350.6614 0.11 2
  351.1064 0.52 9
  351.2612 0.55 9
  351.5427 0.08 1
  351.6868 0.18 3
  352.2117 4.65 78
  352.8016 0.05 1
  353.1660 0.70 12
  353.3771 0.33 6
  353.9973 0.04 1
  354.1039 0.10 2
  354.2992 0.11 2
  354.5362 0.07 1
  355.2379 0.17 3
  356.1949 0.10 2
  356.3369 0.11 2
  356.5710 0.10 2
  356.8154 0.07 1
  357.0201 0.09 2
  357.2694 0.14 2
  357.4251 0.23 4
  357.5462 0.09 2
  357.9787 0.05 1
  358.2108 0.15 3
  358.4054 0.16 3
  358.8409 0.13 2
  358.9728 0.20 3
  359.2331 0.60 10
  360.0471 0.21 4
  360.2173 0.23 4
  360.3571 0.05 1
  360.6218 0.14 2
  360.8006 0.06 1
  361.0480 0.19 3
  361.2845 0.32 5
  361.5211 0.07 1
  362.1104 0.20 3
  362.2907 0.13 2
  362.4184 0.06 1
  362.8879 0.08 1
  363.1743 0.56 9
  363.3778 0.40 7
  363.5156 0.06 1
  363.7594 0.08 1
  363.9557 0.19 3
  364.2205 0.61 10
  364.4167 0.23 4
  364.7205 0.17 3
  364.9247 0.40 7
  365.2429 1.52 26
  365.6802 0.08 1
  366.2087 0.36 6
  366.4718 0.04 1
  366.7168 0.07 1
  366.9590 0.13 2
  367.2033 0.61 10
  367.3554 0.43 7
  367.7071 0.09 2
  367.8592 0.09 2
  368.0524 0.02 0
  368.3516 0.33 6
  368.6370 0.04 1
  368.7617 0.01 0
  368.8987 0.13 2
  369.0393 0.10 2
  369.2570 0.08 1
  369.4156 0.17 3
  369.7141 0.07 1
  369.8857 0.07 1
  370.1288 0.07 1
  370.2297 0.07 1
  370.3227 0.06 1
  371.1744 0.12 2
  371.3958 0.18 3
  371.4895 0.09 2
  372.1646 0.12 2
  372.2750 0.10 2
  372.6198 0.14 2
  373.1283 0.30 5
  373.3187 0.25 4
  374.1303 0.13 2
  374.2487 0.10 2
  375.2833 0.43 7
  375.4356 0.30 5
  375.7733 0.05 1
  375.9321 0.06 1
  376.1356 0.41 7
  376.3304 0.31 5
  376.4430 0.09 2
  377.1987 0.37 6
  377.4001 0.22 4
  377.7307 0.08 1
  377.9096 0.13 2
  378.2417 0.41 7
  378.5449 0.05 1
  379.2206 0.67 11
  379.6091 0.11 2
  379.7932 0.12 2
  379.9528 0.08 1
  380.1571 0.09 2
  380.3600 0.19 3
  380.5165 0.11 2
  380.7184 0.11 2
  381.2175 0.23 4
  381.4165 0.08 1
  381.6105 0.01 0
  381.7909 0.15 3
  382.2164 0.27 5
  383.2414 2.62 44
  383.6238 0.17 3
  383.9001 0.10 2
  384.3301 0.11 2
  384.4881 0.01 0
  384.7796 0.08 1
  385.2190 0.28 5
  386.0359 0.07 1
  386.2408 0.05 1
  386.3606 0.08 1
  386.4682 0.07 1
  386.6508 0.09 2
  386.7662 0.04 1
  386.9344 0.16 3
  387.1747 0.14 2
  387.3905 0.10 2
  387.5205 0.11 2
  388.2004 0.25 4
  388.4524 0.15 3
  388.8963 0.08 1
  389.2263 0.40 7
  389.4508 0.11 2
  390.0869 0.11 2
  390.2031 0.10 2
  390.4334 0.11 2
  390.5497 0.11 2
  390.9028 0.11 2
  391.2306 0.47 8
  391.3888 0.18 3
  391.5845 0.04 1
  392.0496 0.25 4
  392.2280 0.28 5
  392.3255 0.14 2
  392.6216 0.10 2
  393.1257 0.20 3
  393.2875 0.14 2
  393.4060 0.11 2
  393.4876 0.08 1
  393.6790 0.10 2
  394.0655 0.11 2
  394.2829 0.12 2
  394.5336 0.17 3
  394.7027 0.12 2
  394.8284 0.10 2
  394.9541 0.11 2
  395.0646 0.14 2
  395.1448 0.08 1
  395.3095 0.08 1
  395.4562 0.21 4
  396.0256 0.09 2
  396.4208 0.13 2
  396.7785 0.05 1
  396.9180 0.14 2
  397.1218 0.12 2
  397.2128 0.07 1
  397.4159 0.06 1
  397.9008 0.03 1
  398.2868 0.13 2
  398.4299 0.09 2
  399.0284 0.11 2
  399.1910 0.12 2
  399.3681 0.13 2
  400.0440 0.10 2
  400.1502 0.13 2
  400.4206 0.08 1
  400.6961 0.08 1
  400.9614 0.07 1
  401.1841 0.42 7
  401.4046 0.35 6
  401.5709 0.11 2
  401.8290 0.09 2
  402.0069 0.11 2
  402.1942 0.12 2
  402.3786 0.26 4
  402.5153 0.20 3
  402.6902 0.12 2
  402.9173 0.07 1
  403.0309 0.21 4
  403.2471 0.23 4
  403.4322 0.08 1
  403.8531 0.09 2
  404.0810 0.16 3
  404.2704 0.11 2
  404.3753 0.13 2
  404.4939 0.07 1
  404.7413 0.07 1
  405.1362 0.21 4
  405.3033 0.28 5
  405.6122 0.06 1
  406.2032 0.08 1
  406.3313 0.20 3
  406.8775 0.13 2
  407.0562 0.07 1
  407.4838 0.21 4
  407.5851 0.07 1
  407.7059 0.11 2
  408.1893 0.06 1
  408.3803 0.03 1
  409.0251 0.09 2
  409.1770 0.19 3
  409.3029 0.19 3
  410.0006 0.10 2
  410.1172 0.12 2
  410.3147 0.06 1
  410.4522 0.17 3
  411.0682 0.05 1
  411.2448 0.16 3
  411.4214 0.19 3
  411.5387 0.09 2
  412.0867 0.05 1
  412.2626 0.01 0
  412.5616 0.11 2
  412.6854 0.10 2
  413.1326 0.22 4
  413.3081 0.15 3
  413.5278 0.12 2
  414.0748 0.14 2
  414.2901 0.15 3
  414.9817 0.02 0
  415.1826 0.27 5
  415.3076 0.14 2
  415.4644 0.16 3
  415.5634 0.11 2
  415.8106 0.12 2
  416.0961 0.14 2
  416.3606 0.21 4
  416.7740 0.03 1
  417.1673 0.29 5
  417.3653 0.16 3
  417.4918 0.14 2
  417.8908 0.11 2
  418.2834 0.86 14
  418.5190 0.19 3
  418.9340 0.18 3
  419.2637 0.58 10
  419.5804 0.05 1
  419.7358 0.09 2
  420.2427 0.96 16
  420.4871 0.46 8
  420.9810 0.04 1
  421.0909 0.08 1
  421.4648 0.14 2
  422.2089 0.07 1
  422.6357 0.10 2
  422.8613 0.07 1
  423.2569 0.16 3
  423.4356 0.09 2
  424.2660 0.15 3
  424.5698 0.12 2
  424.6516 0.04 1
  424.8881 0.11 2
  425.1232 0.12 2
  425.2932 0.17 3
  425.4097 0.08 1
  425.5812 0.11 2
  425.8575 0.11 2
  426.3192 0.03 1
  427.1787 0.30 5
  427.4175 0.11 2
  427.6035 0.10 2
  428.2729 0.31 5
  429.2368 0.42 7
  429.4171 0.10 2
  429.5343 0.04 1
  430.0178 0.11 2
  430.1892 0.05 1
  430.2970 0.10 2
  430.7879 0.04 1
  430.9130 0.11 2
  431.0396 0.21 4
  431.2297 0.25 4
  431.4004 0.19 3
  431.7627 0.07 1
  432.0353 0.13 2
  432.2161 0.24 4
  432.3716 0.28 5
  432.9204 0.08 1
  433.1136 0.15 3
  433.2864 0.19 3
  433.4868 0.14 2
  434.0060 0.13 2
  434.1695 0.03 1
  434.5088 0.14 2
  434.7438 0.20 3
  435.1012 0.02 0
  435.2350 0.07 1
  435.4491 0.12 2
  436.0604 0.12 2
  436.2586 0.11 2
  436.4785 0.13 2
  437.0703 0.12 2
  437.2006 0.24 4
  437.2896 0.05 1
  438.2736 0.17 3
  438.6094 0.09 2
  438.7881 0.11 2
  439.1246 0.03 1
  439.3127 0.21 4
  439.7252 0.10 2
  440.1616 0.09 2
  440.3114 0.09 2
  440.6472 0.05 1
  440.9056 0.06 1
  441.2538 0.33 6
  441.4058 0.17 3
  442.0876 0.11 2
  442.2845 0.10 2
  442.4973 0.14 2
  442.8940 0.13 2
  443.1966 0.16 3
  443.3465 0.14 2
  443.4456 0.11 2
  443.6317 0.16 3
  443.7888 0.13 2
  444.2492 0.23 4
  444.6344 0.14 2
  445.1188 0.02 0
  445.3469 0.23 4
  445.4700 0.17 3
  445.5959 0.08 1
  445.8183 0.11 2
  446.0196 0.21 4
  446.2484 0.19 3
  446.5018 0.12 2
  446.7118 0.24 4
  447.1963 0.68 11
  447.6250 0.10 2
  447.9357 0.07 1
  448.1950 0.59 10
  448.3551 0.21 4
  448.4782 0.23 4
  448.6861 0.16 3
  448.9236 0.11 2
  449.0287 0.04 1
  449.3220 0.03 1
  449.5473 0.24 4
  449.9109 0.12 2
  450.2427 0.04 1
  450.4723 0.13 2
  450.6476 0.07 1
  451.0997 0.12 2
  451.3257 0.17 3
  451.4938 0.13 2
  452.2639 0.14 2
  452.4661 0.11 2
  452.7856 0.10 2
  453.3449 0.17 3
  453.5065 0.20 3
  453.6761 0.05 1
  453.8203 0.10 2
  454.2732 0.64 11
  454.4739 0.39 7
  454.6652 0.05 1
  455.2334 0.26 4
  455.5312 0.04 1
  455.8980 0.10 2
  456.0668 0.10 2
  456.3336 0.22 4
  456.6314 0.13 2
  457.2715 0.40 7
  457.5266 0.18 3
  457.7513 0.07 1
  458.1297 0.10 2
  458.7096 0.05 1
  459.2483 0.11 2
  459.4636 0.02 0
  459.8029 0.07 1
  460.0537 0.11 2
  460.2828 0.15 3
  460.3720 0.11 2
  461.3015 0.26 4
  461.9730 0.07 1
  462.1942 0.11 2
  462.3414 0.11 2
  462.9208 0.18 3
  463.1021 0.25 4
  463.3929 0.32 5
  464.0978 0.21 4
  464.3422 0.07 1
  464.9906 0.07 1
  465.2343 0.23 4
  465.3751 0.09 2
  465.6181 0.11 2
  466.4242 0.03 1
  466.5313 0.07 1
  466.8998 0.03 1
  467.2198 0.17 3
  467.3016 0.11 2
  467.6079 0.15 3
  467.7324 0.02 0
  468.3652 0.11 2
  468.5665 0.22 4
  468.9966 0.04 1
  469.2204 0.20 3
  469.4470 0.35 6
  469.6643 0.02 0
  469.8221 0.07 1
  469.9908 0.12 2
  470.3544 0.12 2
  470.6593 0.06 1
  471.0264 0.13 2
  471.3219 0.38 6
  471.5573 0.14 2
  471.8028 0.07 1
  472.0063 0.15 3
  472.2968 0.38 6
  472.4214 0.17 3
  472.6560 0.31 5
  472.8871 0.13 2
  473.0182 0.24 4
  473.2848 0.62 10
  473.4485 0.52 9
  473.6882 0.34 6
  473.8940 0.16 3
  474.0309 0.14 2
  474.1967 0.21 4
  474.4916 0.13 2
  474.6089 0.14 2
  474.7683 0.26 4
  474.9197 0.09 2
  475.1849 0.13 2
  475.3957 0.22 4
  475.6246 0.06 1
  476.1571 0.12 2
  476.4194 0.20 3
  476.7128 0.07 1
  476.8411 0.11 2
  477.0679 0.12 2
  477.2439 0.23 4
  477.3961 0.07 1
  477.5722 0.07 1
  477.8816 0.17 3
  478.0888 0.11 2
  478.4178 0.09 2
  478.5859 0.04 1
  478.7258 0.11 2
  478.8794 0.21 4
  479.2338 0.12 2
  479.3765 0.11 2
  479.5280 0.05 1
  479.6693 0.11 2
  480.1708 0.13 2
  480.3071 0.32 5
  480.5056 0.04 1
  480.6789 0.13 2
  480.8296 0.18 3
  481.0695 0.14 2
  481.2507 0.17 3
  481.5102 0.28 5
  481.7487 0.12 2
  482.1299 0.20 3
  482.2430 0.14 2
  482.3822 0.18 3
  482.5489 0.11 2
  482.6982 0.06 1
  482.8352 0.13 2
  483.0462 0.25 4
  483.2491 0.44 7
  483.3811 0.18 3
  483.6022 0.24 4
  483.7537 0.14 2
  483.9784 0.22 4
  484.2278 0.09 2
  484.4163 0.31 5
  484.5968 0.11 2
  484.8078 0.35 6
  484.9492 0.18 3
  485.1739 0.40 7
  485.3218 0.22 4
  485.4523 0.10 2
  485.6039 0.12 2
  485.8438 0.19 3
  486.0911 0.43 7
  486.3014 0.17 3
  486.5464 0.24 4
  486.7618 0.13 2
  486.9757 0.20 3
  487.3201 0.30 5
  487.5602 0.13 2
  487.8451 0.14 2
  487.9459 0.07 1
  488.1055 0.20 3
  488.3564 0.22 4
  488.5174 0.01 0
  488.9735 0.11 2
  489.2469 0.22 4
  489.4449 0.21 4
  489.5551 0.13 2
  489.7814 0.31 5
  489.9729 0.23 4
  490.0860 0.12 2
  490.2949 0.45 8
  490.4879 0.37 6
  490.6322 0.14 2
  490.9781 0.20 3
  491.0920 0.14 2
  491.3495 0.31 5
  491.6934 0.34 6
  491.9639 0.08 1
  492.1866 0.24 4
  492.4550 0.01 0
  492.6269 0.11 2
  493.0121 0.11 2
  493.1601 0.14 2
  493.2428 0.11 2
  493.4162 0.20 3
  493.5838 0.17 3
  493.6781 0.13 2
  493.7920 0.01 0
  494.1153 0.29 5
  494.2964 0.11 2
  494.7021 0.05 1
  495.0867 0.12 2
  495.2982 0.18 3
  495.7444 0.04 1
  495.8763 0.02 0
  496.2414 0.07 1
  496.3878 0.17 3
  496.4856 0.11 2
  496.6971 0.08 1
  496.8811 0.02 0
  497.0180 0.09 2
  497.2832 0.13 2
  497.4230 0.13 2
  497.5476 0.14 2
  497.8077 0.30 5
  498.0671 0.14 2
  498.3468 0.06 1
  498.5815 0.18 3
  498.7533 0.09 2
  498.9054 0.09 2
  499.4054 0.34 6
  499.7025 0.34 6
  499.9547 0.15 3
  500.1844 0.29 5
  500.3047 0.28 5
  500.4837 0.15 3
  500.6525 0.10 2
  500.7837 0.19 3
  501.0337 0.26 4
  501.3011 0.22 4
  501.5258 0.27 5
  501.7504 0.31 5
  501.9700 0.12 2
  502.2215 0.24 4
  502.6875 0.18 3
  503.1651 0.47 8
  503.5609 0.28 5
  503.7109 0.27 5
  504.0755 0.41 7
  504.2009 0.20 3
  504.3676 0.31 5
  504.6612 0.12 2
  504.7851 0.21 4
  504.9983 0.10 2
  505.0997 0.18 3
  505.4209 0.31 5
  505.6434 0.22 4
  505.8159 0.13 2
  506.0226 0.24 4
  506.1610 0.04 1
  506.3386 0.09 2
  506.5438 0.26 4
  506.7439 0.19 3
  506.8439 0.04 1
  507.3869 0.77 13
  507.8640 0.14 2
  508.2765 1.55 26
  508.4738 0.74 12
  509.1415 0.14 2
  509.4156 0.23 4
  509.5679 0.12 2
  509.7767 0.12 2
  509.9087 0.12 2
  510.0987 0.19 3
  510.7644 0.06 1
  511.1879 0.21 4
  511.2995 0.16 3
  511.4685 0.08 1
  511.6861 0.10 2
  512.0182 0.16 3
  512.2822 0.03 1
  512.4178 0.19 3
  512.6840 0.12 2
  512.8718 0.10 2
  513.2787 0.27 5
  513.6138 0.11 2
  513.7618 0.11 2
  513.8995 0.16 3
  514.1019 0.12 2
  514.4058 0.40 7
  514.6488 0.04 1
  514.9143 0.07 1
  515.2204 0.04 1
  515.3249 0.09 2
  515.4366 0.21 4
  515.5200 0.13 2
  516.2302 0.11 2
  516.8584 0.04 1
  517.3285 0.04 1
  517.6978 0.08 1
  518.1795 0.10 2
  518.5916 0.06 1
  518.8608 0.09 2
  519.0153 0.22 4
  519.2802 0.30 5
  519.4528 0.15 3
  519.5906 0.04 1
  519.7583 0.18 3
  520.3699 5.71 96
  521.0489 0.08 1
  521.2060 0.10 2
  521.3718 0.25 4
  521.5550 0.24 4
  521.6434 0.13 2
  521.7635 0.11 2
  521.8837 0.06 1
  522.1060 0.12 2
  522.4608 0.06 1
  522.6353 0.10 2
  522.7939 0.11 2
  523.0278 0.08 1
  523.2045 0.13 2
  523.3051 0.13 2
  523.4435 0.13 2
  523.5825 0.11 2
  523.7947 0.11 2
  523.9301 0.10 2
  525.1243 0.22 4
  525.3929 0.12 2
  525.6761 0.16 3
  525.7739 0.11 2
  525.9079 0.10 2
  526.1194 0.36 6
  526.2889 0.21 4
  526.5293 0.26 4
  526.8132 0.11 2
  526.9791 0.09 2
  527.1530 0.28 5
  527.2847 0.22 4
  527.4622 0.41 7
  527.6868 0.11 2
  528.0547 0.18 3
  528.3024 0.17 3
  528.5524 0.16 3
  528.7298 0.08 1
  528.9305 0.12 2
  529.1050 0.08 1
  529.2405 0.11 2
  529.4057 0.21 4
  529.5215 0.09 2
  529.6194 0.13 2
  530.1866 0.07 1
  530.3047 0.11 2
  530.6807 0.11 2
  530.8604 0.11 2
  531.0176 0.12 2
  531.3066 0.13 2
  531.4812 0.07 1
  531.7131 0.10 2
  531.8768 0.01 0
  532.3376 0.18 3
  532.6904 0.18 3
  533.2976 0.14 2
  533.4708 0.20 3
  533.8976 0.11 2
  534.0548 0.07 1
  534.3273 0.12 2
  534.5222 0.05 1
  534.6135 0.03 1
  534.8389 0.16 3
  535.0795 0.14 2
  535.2911 0.07 1
  535.3990 0.08 1
  535.7896 0.10 2
  536.0461 0.10 2
  536.4549 0.12 2
  536.5585 0.11 2
  536.6955 0.09 2
  536.9028 0.19 3
  537.2738 0.14 2
  537.4594 0.10 2
  537.6659 0.12 2
  537.8718 0.10 2
  538.0479 0.05 1
  538.2030 0.10 2
  538.3363 0.20 3
  538.5023 0.12 2
  538.8850 0.18 3
  539.2460 0.24 4
  539.5294 0.26 4
  539.7316 0.19 3
  539.8969 0.15 3
  540.0999 0.09 2
  540.2586 0.21 4
  540.7058 0.19 3
  540.8320 0.22 4
  541.0944 0.26 4
  541.1777 0.12 2
  541.3466 0.28 5
  541.4778 0.24 4
  541.6112 0.22 4
  541.7548 0.20 3
  542.0774 0.17 3
  542.4029 0.33 6
  542.7864 0.05 1
  543.2685 0.50 8
  543.4468 0.40 7
  543.7448 0.19 3
  544.0297 0.12 2
  544.4039 0.34 6
  544.5250 0.07 1
  544.6243 0.05 1
  544.8215 0.03 1
  545.0485 0.14 2
  545.2232 0.25 4
  545.4864 0.11 2
  545.6466 0.06 1
  546.3840 0.11 2
  546.5958 0.02 0
  546.8220 0.06 1
  546.9076 0.04 1
  547.1317 0.08 1
  547.3840 0.14 2
  547.5008 0.10 2
  547.6828 0.06 1
  547.9612 0.27 5
  548.1288 0.10 2
  548.4130 0.22 4
  548.8924 0.07 1
  549.0229 0.03 1
  549.3145 0.03 1
  549.4755 0.21 4
  549.5850 0.11 2
  549.7199 0.16 3
  549.9534 0.05 1
  550.0876 0.10 2
  550.3857 0.10 2
  550.5823 0.06 1
  550.7614 0.11 2
  551.0464 0.32 5
  551.2263 0.20 3
  551.3351 0.11 2
  551.4816 0.23 4
  551.7427 0.12 2
  551.9807 0.12 2
  552.2389 0.23 4
  552.4659 0.07 1
  552.6277 0.18 3
  552.8192 0.27 5
  552.9352 0.32 5
  553.0034 0.16 3
  553.2167 0.51 9
  553.4786 0.30 5
  553.7318 0.20 3
  553.8848 0.25 4
  554.1481 0.31 5
  554.4224 0.36 6
  554.8271 0.18 3
  555.2080 0.25 4
  555.4481 0.26 4
  555.5881 0.30 5
  555.7296 0.04 1
  555.8936 0.39 7
  556.0350 0.23 4
  556.3557 0.48 8
  556.6750 0.25 4
  556.9209 0.16 3
  557.1023 0.26 4
  557.4368 0.50 8
  557.6008 0.68 11
  557.7792 0.22 4
  558.0216 0.29 5
  558.2719 0.34 6
  558.5280 0.24 4
  558.6899 0.11 2
  558.9721 0.41 7
  559.2399 0.23 4
  559.4750 0.45 8
  559.7711 0.28 5
  560.0504 0.41 7
  560.2710 0.40 7
  560.5083 0.27 5
  560.7195 0.17 3
  560.8864 0.29 5
  561.2536 0.26 4
  561.4728 0.13 2
  561.6223 0.11 2
  562.0403 0.27 5
  562.3190 0.35 6
  562.6775 0.50 8
  562.9518 0.10 2
  563.1340 0.20 3
  563.3677 0.27 5
  563.4852 0.43 7
  563.6870 0.71 12
  563.9360 0.27 5
  564.0862 0.23 4
  564.2299 0.49 8
  564.5217 0.51 9
  564.6749 0.67 11
  564.7939 0.24 4
  564.8962 0.15 3
  565.3049 0.19 3
  565.5306 0.18 3
  565.6451 0.11 2
  565.8581 0.23 4
  565.9559 0.23 4
  566.1760 0.21 4
  566.3383 0.29 5
  566.4672 0.28 5
  566.5628 0.09 2
  566.8279 0.20 3
  567.3914 1.05 18
  567.6196 0.72 12
  568.0339 0.11 2
  568.2975 0.14 2
  568.5410 0.28 5
  568.6532 0.13 2
  568.8930 0.23 4
  569.0444 0.17 3
  569.2088 0.16 3
  569.5399 0.47 8
  570.2548 0.69 12
  570.6540 1.00 17
  570.9148 0.51 9
  571.4401 0.75 13
  571.9907 0.55 9
  572.2268 0.69 12
  572.5333 0.78 13
  572.9962 0.77 13
  573.4556 0.70 12
  573.8237 0.83 14
  574.1526 0.50 8
  574.4664 0.97 16
  574.8699 0.58 10
  575.3547 0.91 15
  576.4271 1.25 21
  576.9061 1.13 19
  577.3569 1.39 23
  578.0605 1.59 27
  580.3007 2.42 41
  582.4433 27.61 465
  583.4936 5.34 90
  585.4386 11.21 189
  586.1708 0.60 10
  586.6551 0.97 16
  587.1350 0.54 9
  587.3555 0.96 16
  588.1102 0.91 15
  588.6924 0.86 14
  589.0811 0.72 12
  589.2834 0.65 11
  589.8351 0.78 13
  590.3103 0.91 15
  590.8339 1.27 21
  591.3699 1.17 20
  592.4644 1.43 24
  600.4401 99.96 999
  601.1343 36.15 609
  601.9401 15.94 269
  602.7206 8.12 137
  603.6757 4.02 68
  604.8498 1.97 33
  605.3064 1.40 24
  605.9869 0.92 16
  606.4276 0.93 16
  606.9291 0.71 12
  607.1923 0.42 7
  607.3677 0.32 5
  607.5315 0.45 8
  607.6417 0.26 4
  607.8323 0.35 6
  608.0584 0.16 3
  608.2839 0.24 4
  608.4564 0.12 2
  608.7645 0.15 3
  609.1182 0.31 5
  609.1929 0.10 2
  609.4741 0.04 1
  609.6213 0.12 2
  609.7844 0.08 1
  610.0279 0.11 2
  610.3077 0.09 2
  610.5310 0.11 2
  610.6216 0.08 1
  610.7275 0.05 1
  610.8674 0.05 1
  611.1494 0.07 1
  611.5546 0.13 2
  611.7330 0.02 0
//
