ACCESSION: MSBNK-Kyoto_Univ-CA000007
RECORD_TITLE: 12'-Apoastaxanthinal; FAB-EBEB; MS2; m/z: 380.24; [M]+*
DATE: 2016.01.19 (Created 2010.04.01, modified 2011.05.10)
AUTHORS: Akimoto N, Graduate School of Pharmaceutical Sciences, Kyoto University and Maoka T, Research Institute for Production Development
LICENSE: CC BY-SA
PUBLICATION: Tsutomu Hayakawa, Aditya Kulkarni, Yukimasa Terada, Takashi Maoka, Hideo Etoh, Reaction of Astaxanthin with peroxynitrite, Biosci. Biotechnol. Biochem., 72, 2716-2722 (2008).
COMMENT: Profile spectrum of this record is given as a JPEG file.
COMMENT: [Profile] CA000007.jpg
CH$NAME: 12'-Apoastaxanthinal
CH$COMPOUND_CLASS: N/A
CH$FORMULA: C25H32O3
CH$EXACT_MASS: 380.23514
CH$SMILES: O=CC(C)=CC=CC=C(C)C=CC=C(C)C=CC(=C(C)1)C(C)(C)CC(O)C(=O)1
CH$IUPAC: InChI=1S/C25H32O3/c1-18(10-7-8-11-20(3)17-26)12-9-13-19(2)14-15-22-21(4)24(28)23(27)16-25(22,5)6/h7-15,17,23,27H,16H2,1-6H3/b8-7+,12-9+,15-14+,18-10+,19-13+,20-11+/t23-/m0/s1
CH$LINK: INCHIKEY GTOIUXBIUCWSNU-MICLCECWSA-N
AC$INSTRUMENT: JMS-HX/HX 110A, JEOL
AC$INSTRUMENT_TYPE: FAB-EBEB
AC$MASS_SPECTROMETRY: MS_TYPE MS2
AC$MASS_SPECTROMETRY: ION_MODE POSITIVE
AC$MASS_SPECTROMETRY: ATOM_GUN_CURRENT 5 mA
AC$MASS_SPECTROMETRY: BOMBARDMENT 6 kV xenon
AC$MASS_SPECTROMETRY: COLLISION_ENERGY 3 kV
AC$MASS_SPECTROMETRY: COLLISION_GAS Ar
AC$MASS_SPECTROMETRY: GAS_PRESSURE adjust to attenuate the intensity of the precursor ion by 30 %
AC$MASS_SPECTROMETRY: IONIZATION FAB
AC$MASS_SPECTROMETRY: MATRIX 1-2 uL m-NBA
AC$MASS_SPECTROMETRY: PROBE_TIP stainless-steel
MS$FOCUSED_ION: BASE_PEAK 90.9594
MS$FOCUSED_ION: PRECURSOR_M/Z 380.24
MS$FOCUSED_ION: PRECURSOR_TYPE [M]+*
MS$DATA_PROCESSING: RELATIVE_M/Z normalised by peak(m/z=90.9594).  set 999 for peak(m/z=380.2157,rel=1323).
PK$SPLASH: splash10-003u-3922000000-9289bf9ef6e8ab9f8122
PK$NUM_PEAK: 1236
PK$PEAK: m/z int. rel.int.
  0.0277 0.01 0
  0.0487 0.01 0
  0.3877 0.03 0
  0.9282 0.01 0
  1.2453 0.01 0
  2.5514 0.01 0
  3.5588 0.01 0
  9.2832 0.01 0
  9.5355 0.01 0
  11.4133 0.01 0
  11.9427 0.04 1
  12.0066 0.01 0
  12.9495 0.14 2
  13.9579 0.13 2
  14.4436 0.01 0
  14.9627 0.58 8
  15.9691 0.01 0
  18.9540 0.08 1
  22.9151 0.23 3
  23.9408 0.03 0
  24.1769 0.01 0
  24.9326 0.28 4
  25.9367 1.10 15
  26.1956 0.01 0
  26.9429 6.42 85
  27.9455 0.76 10
  28.9431 4.64 61
  29.9299 0.23 3
  30.9358 0.68 9
  35.7434 0.02 0
  35.9265 0.07 1
  36.0560 0.02 0
  36.1875 0.02 0
  36.9228 0.98 13
  37.1033 0.02 0
  37.2257 0.01 0
  37.3411 0.01 0
  37.4393 0.01 0
  37.6028 0.03 0
  37.6796 0.03 0
  37.7726 0.01 0
  37.9307 2.41 32
  38.1588 0.01 0
  38.3170 0.05 1
  38.4837 0.02 0
  38.6433 0.02 0
  38.7559 0.04 1
  38.9373 18.65 247
  39.2104 0.02 0
  39.3248 0.01 0
  39.4051 0.01 0
  39.4986 0.02 0
  39.5841 0.01 0
  39.7307 0.01 0
  39.9426 2.48 33
  40.0642 0.01 0
  40.1196 0.01 0
  40.2851 0.02 0
  40.9500 27.67 366
  41.1511 0.02 0
  41.5699 0.01 0
  41.7307 0.01 0
  41.9439 0.71 9
  42.5928 0.01 0
  42.9389 15.75 208
  43.1709 0.02 0
  43.7012 0.01 0
  43.9357 0.30 4
  44.9456 0.93 12
  45.9468 0.03 0
  46.9125 0.11 1
  47.8599 0.03 0
  47.9324 0.03 0
  48.1789 0.01 0
  48.4574 0.02 0
  48.6938 0.03 0
  48.9228 0.60 8
  49.0829 0.02 0
  49.2618 0.04 1
  49.3267 0.04 1
  49.5092 0.04 1
  49.6926 0.01 0
  49.9270 5.96 79
  50.0840 0.03 0
  50.1927 0.02 0
  50.3565 0.01 0
  50.5275 0.01 0
  50.9329 13.40 177
  51.1012 0.01 0
  51.1994 0.01 0
  51.3855 0.01 0
  51.6940 0.04 1
  51.9415 5.22 69
  52.9472 20.77 275
  53.5484 0.04 1
  53.7706 0.03 0
  53.9568 1.84 24
  54.4056 0.02 0
  54.6536 0.02 0
  54.9593 21.62 286
  55.2349 0.01 0
  55.4047 0.03 0
  55.9639 0.37 5
  56.9746 4.22 56
  57.1980 0.01 0
  57.4499 0.05 1
  57.9345 0.38 5
  58.9641 1.12 15
  59.8911 0.09 1
  59.9673 0.05 1
  60.2464 0.02 0
  60.4115 0.01 0
  60.5011 0.02 0
  60.6987 0.01 0
  60.9118 0.91 12
  61.1865 0.04 1
  61.2715 0.03 0
  61.4113 0.01 0
  61.4915 0.03 0
  61.6589 0.02 0
  61.9202 3.29 44
  62.1524 0.03 0
  62.3580 0.02 0
  62.4502 0.03 0
  62.5340 0.03 0
  62.9307 10.19 135
  63.2578 0.07 1
  63.3928 0.02 0
  63.4894 0.08 1
  63.9376 2.34 31
  64.0896 0.07 1
  64.2417 0.05 1
  64.3889 0.08 1
  64.4998 0.03 0
  64.6435 0.03 0
  64.9424 19.37 256
  65.1289 0.03 0
  65.2134 0.01 0
  65.5343 0.02 0
  65.6993 0.03 0
  65.9499 4.29 57
  66.1654 0.02 0
  66.2859 0.02 0
  66.5085 0.03 0
  66.6234 0.02 0
  66.7264 0.02 0
  66.9555 14.21 188
  67.2133 0.08 1
  67.9525 0.79 10
  68.3102 0.01 0
  68.4125 0.03 0
  68.5367 0.02 0
  68.6647 0.04 1
  68.9527 11.89 157
  69.1223 0.06 1
  69.3866 0.15 2
  69.5958 0.02 0
  69.7258 0.02 0
  69.9486 0.60 8
  70.3408 0.02 0
  70.4427 0.13 2
  70.9471 5.75 76
  71.0968 0.06 1
  71.2365 0.01 0
  71.3929 0.03 0
  71.6872 0.01 0
  71.9333 0.13 2
  72.2472 0.01 0
  72.7050 0.01 0
  72.9311 0.49 6
  73.1553 0.02 0
  73.2526 0.01 0
  73.4602 0.01 0
  73.5915 0.02 0
  73.9155 2.85 38
  74.4967 0.03 0
  74.5552 0.03 0
  74.9191 3.65 48
  75.1133 0.11 1
  75.3382 0.08 1
  75.4486 0.13 2
  75.6004 0.10 1
  75.9239 2.86 38
  76.2899 0.13 2
  76.9365 45.85 607
  77.2170 0.12 2
  77.4744 0.11 1
  77.9413 10.89 144
  78.1350 0.12 2
  78.3942 0.07 1
  78.6077 0.14 2
  78.6879 0.08 1
  78.9525 29.91 396
  79.1679 0.07 1
  79.3452 0.09 1
  79.4035 0.03 0
  79.4685 0.03 0
  79.7161 0.02 0
  79.9566 4.53 60
  80.1964 0.05 1
  80.3382 0.08 1
  80.5820 0.06 1
  80.9646 16.52 219
  81.1148 0.12 2
  81.2355 0.06 1
  81.2996 0.06 1
  81.4196 0.06 1
  81.5772 0.03 0
  81.9413 2.32 31
  82.1722 0.12 2
  82.2449 0.02 0
  82.4229 0.12 2
  82.5885 0.05 1
  82.9555 5.06 67
  83.1697 0.01 0
  83.2884 0.01 0
  83.4985 0.05 1
  83.6975 0.04 1
  83.7739 0.02 0
  83.9576 0.53 7
  84.4441 0.07 1
  84.5704 0.01 0
  84.6817 0.03 0
  84.7573 0.04 1
  84.9697 5.00 66
  85.2356 0.05 1
  85.3255 0.02 0
  85.4408 0.01 0
  85.5320 0.04 1
  85.6857 0.01 0
  85.9268 1.03 14
  86.2258 0.01 0
  86.4223 0.04 1
  86.6957 0.02 0
  86.9342 2.33 31
  87.6159 0.03 0
  87.9400 1.25 17
  88.1536 0.03 0
  88.2967 0.02 0
  88.4455 0.07 1
  88.5719 0.09 1
  88.9463 6.07 80
  89.3479 0.25 3
  89.5624 0.15 2
  89.9435 2.52 33
  90.1739 0.17 2
  90.3601 0.23 3
  90.9594 75.49 999
  91.2601 0.14 2
  91.3645 0.07 1
  91.6102 0.07 1
  91.9670 7.20 95
  92.1851 0.02 0
  92.2547 0.02 0
  92.5304 0.07 1
  92.6637 0.10 1
  92.9780 18.95 251
  93.2928 0.09 1
  93.4450 0.08 1
  93.5611 0.06 1
  93.9753 2.94 39
  94.1535 0.02 0
  94.2972 0.04 1
  94.4933 0.21 3
  94.6585 0.07 1
  94.9667 25.45 337
  95.3071 0.07 1
  95.4996 0.07 1
  95.5587 0.03 0
  95.6786 0.04 1
  95.7797 0.06 1
  95.9724 2.29 30
  96.1739 0.01 0
  96.3211 0.05 1
  96.4938 0.10 1
  96.6416 0.02 0
  96.9784 2.44 32
  97.4840 0.07 1
  97.9426 0.91 12
  98.2152 0.05 1
  98.3397 0.02 0
  98.9533 0.64 8
  99.1995 0.02 0
  99.4598 0.01 0
  99.6473 0.02 0
  99.8099 0.03 0
  99.9492 0.41 5
  100.1460 0.01 0
  100.5883 0.12 2
  100.9209 1.40 19
  101.2439 0.14 2
  101.5706 0.03 0
  101.9437 5.32 70
  102.1654 0.11 1
  102.2941 0.08 1
  102.6481 0.18 2
  102.9529 15.61 207
  103.1259 0.19 3
  103.2393 0.10 1
  103.3832 0.04 1
  103.5055 0.10 1
  103.6018 0.07 1
  103.9538 7.12 94
  104.1597 0.06 1
  104.3042 0.09 1
  104.9608 49.72 658
  105.2187 0.13 2
  105.4723 0.14 2
  105.9660 5.75 76
  106.1822 0.06 1
  106.3465 0.09 1
  106.4356 0.09 1
  106.5779 0.08 1
  106.9693 14.70 195
  107.1432 0.10 1
  107.3264 0.09 1
  107.4724 0.16 2
  107.9513 3.54 47
  108.2235 0.15 2
  108.4193 0.08 1
  108.4980 0.06 1
  108.9646 9.28 123
  109.3065 0.10 1
  109.4390 0.11 1
  109.5716 0.03 0
  109.6712 0.02 0
  109.9502 1.18 16
  110.1696 0.03 0
  110.3285 0.04 1
  110.4412 0.13 2
  110.9574 2.56 34
  111.1829 0.04 1
  111.3108 0.01 0
  111.4695 0.06 1
  111.6844 0.01 0
  111.9412 0.30 4
  112.1491 0.11 1
  112.3209 0.08 1
  112.9360 1.59 21
  113.0458 0.27 4
  113.3151 0.29 4
  113.4326 0.12 2
  113.9242 1.62 21
  114.9350 48.94 648
  115.1936 0.24 3
  115.3315 0.18 2
  115.4578 0.12 2
  115.9405 15.02 199
  116.9431 33.68 446
  117.2974 0.18 2
  117.5859 0.09 1
  117.6824 0.05 1
  117.9530 6.57 87
  118.1887 0.09 1
  118.2722 0.09 1
  118.4626 0.12 2
  118.9604 35.35 468
  119.2736 0.15 2
  119.4682 0.17 2
  119.5658 0.07 1
  119.9606 4.69 62
  120.1855 0.07 1
  120.3335 0.02 0
  120.5230 0.09 1
  120.6278 0.03 0
  120.9570 11.67 154
  121.1981 0.08 1
  121.3283 0.04 1
  121.5022 0.03 0
  121.6307 0.04 1
  121.9471 1.88 25
  122.2407 0.08 1
  122.3967 0.08 1
  122.4996 0.06 1
  122.6002 0.03 0
  122.9526 4.29 57
  123.2103 0.02 0
  123.4776 0.17 2
  123.9572 2.06 27
  124.1171 0.03 0
  124.3407 0.03 0
  124.4813 0.08 1
  124.9522 2.68 35
  125.2100 0.10 1
  125.3968 0.19 3
  125.5641 0.16 2
  125.9252 2.20 29
  126.2076 0.13 2
  126.9347 17.18 227
  127.2015 0.42 6
  127.9378 46.84 620
  128.1930 0.43 6
  128.9459 40.57 537
  129.3538 0.13 2
  129.5576 0.07 1
  129.9580 13.68 181
  130.1828 0.12 2
  130.4444 0.15 2
  130.9642 28.33 375
  131.2478 0.23 3
  131.3864 0.17 2
  131.9652 7.55 100
  132.2363 0.06 1
  132.4988 0.19 3
  132.9725 19.65 260
  133.3162 0.17 2
  133.5357 0.11 1
  133.9848 7.22 96
  134.2321 0.12 2
  134.5320 0.10 1
  134.9832 18.01 238
  135.2330 0.26 3
  135.3128 0.14 2
  135.4551 0.09 1
  135.5554 0.09 1
  135.9678 2.72 36
  136.2169 0.08 1
  136.4058 0.04 1
  136.9819 3.88 51
  137.1754 0.09 1
  137.3896 0.01 0
  137.5006 0.02 0
  137.5782 0.05 1
  137.6696 0.06 1
  137.9729 0.78 10
  138.1383 0.12 2
  138.2220 0.11 1
  138.3284 0.09 1
  138.4025 0.07 1
  138.9565 7.24 96
  139.3598 0.07 1
  139.4774 0.03 0
  139.9765 2.06 27
  140.9724 35.12 465
  141.1638 0.46 6
  141.2581 0.17 2
  141.9787 21.52 285
  142.3851 0.19 3
  142.6363 0.26 3
  142.9912 29.29 388
  143.3089 0.27 4
  143.4121 0.18 2
  143.5979 0.17 2
  144.0007 10.46 138
  144.3333 0.13 2
  145.0026 30.36 402
  145.3373 0.15 2
  145.5072 0.14 2
  146.0024 5.24 69
  146.1958 0.21 3
  146.5951 0.24 3
  147.0171 21.74 288
  147.3371 0.11 1
  148.0085 2.88 38
  148.2013 0.05 1
  148.3959 0.08 1
  148.5335 0.13 2
  148.5867 0.07 1
  149.0162 5.26 70
  149.3127 0.23 3
  149.9876 1.99 26
  150.2337 0.18 2
  150.3825 0.13 2
  150.5318 0.12 2
  150.9862 5.78 76
  151.9789 17.10 226
  152.3183 0.32 4
  152.9824 19.86 263
  153.3284 0.19 3
  153.4908 0.15 2
  153.5902 0.19 3
  153.9911 8.96 119
  154.9948 25.28 335
  155.3393 0.10 1
  155.5130 0.25 3
  156.0010 14.00 185
  157.0012 21.29 282
  157.3374 0.11 1
  157.4836 0.14 2
  158.0016 7.94 105
  158.9992 23.31 308
  159.2268 0.16 2
  159.5929 0.13 2
  159.9965 6.87 91
  160.2099 0.07 1
  160.4409 0.19 3
  160.5503 0.09 1
  161.0073 12.93 171
  161.3072 0.24 3
  161.4722 0.12 2
  161.9941 4.40 58
  162.3057 0.20 3
  162.5115 0.17 2
  162.9878 5.06 67
  163.2219 0.16 2
  163.9719 2.08 28
  164.2825 0.47 6
  164.9759 28.71 380
  165.2931 0.22 3
  165.9819 8.75 116
  166.1857 0.28 4
  166.4215 0.24 3
  166.9873 18.50 245
  167.2390 0.13 2
  167.9975 6.87 91
  168.5721 0.25 3
  169.0021 17.72 234
  169.2118 0.31 4
  169.4456 0.17 2
  170.0132 6.56 87
  170.2815 0.20 3
  171.0118 14.29 189
  171.4052 0.19 3
  171.5928 0.14 2
  172.0006 6.30 83
  172.2803 0.15 2
  172.5006 0.13 2
  173.0127 15.22 201
  173.2772 0.11 1
  173.5245 0.14 2
  174.0094 3.16 42
  174.3200 0.14 2
  174.5177 0.14 2
  175.0093 5.23 69
  175.3038 0.14 2
  175.9804 3.21 42
  176.2019 0.23 3
  176.3080 0.20 3
  176.3774 0.07 1
  176.5394 0.24 3
  177.0007 3.93 52
  177.2456 0.32 4
  177.3630 0.31 4
  177.9880 14.78 196
  178.3835 0.20 3
  178.9938 16.85 223
  179.3694 0.07 1
  179.6206 0.14 2
  180.0052 6.37 84
  180.2309 0.17 2
  181.0077 13.56 179
  181.3733 0.14 2
  181.5315 0.09 1
  182.0194 6.15 81
  182.3815 0.17 2
  183.0241 14.88 197
  183.3369 0.19 3
  183.5880 0.21 3
  184.0250 5.28 70
  184.2328 0.12 2
  184.4005 0.11 1
  184.5770 0.18 2
  185.0314 11.32 150
  185.4295 0.18 2
  185.5164 0.09 1
  186.0289 3.33 44
  186.2612 0.21 3
  186.3677 0.16 2
  186.6084 0.15 2
  187.0258 7.47 99
  187.2727 0.23 3
  187.3634 0.11 1
  187.5284 0.06 1
  187.6331 0.06 1
  188.0259 3.28 43
  188.2911 0.23 3
  188.4674 0.20 3
  189.0128 8.55 113
  189.2692 0.19 3
  190.0174 3.40 45
  190.3376 0.28 4
  190.5060 0.30 4
  191.0205 9.98 132
  191.3997 0.20 3
  191.5482 0.25 3
  191.6189 0.15 2
  192.0356 6.37 84
  192.4314 0.18 2
  193.0460 10.85 144
  193.2821 0.17 2
  193.4100 0.12 2
  193.5070 0.07 1
  193.6176 0.13 2
  194.0502 4.43 59
  195.0589 12.53 166
  195.3712 0.24 3
  195.5723 0.10 1
  196.0544 4.16 55
  197.0676 14.63 194
  197.3092 0.18 2
  197.4912 0.10 1
  198.0693 3.49 46
  198.4345 0.15 2
  199.0757 9.71 128
  199.4541 0.23 3
  199.5678 0.09 1
  199.8015 0.28 4
  200.0721 3.22 43
  200.3873 0.29 4
  200.6097 0.17 2
  201.0692 5.56 74
  201.3966 0.20 3
  202.0356 6.17 82
  202.3027 0.22 3
  203.0577 6.72 89
  203.3155 0.15 2
  203.5269 0.10 1
  204.0548 2.66 35
  204.3558 0.12 2
  205.0433 7.05 93
  205.4499 0.14 2
  205.5404 0.12 2
  206.0578 4.48 59
  206.2666 0.24 3
  206.3703 0.16 2
  206.5195 0.09 1
  206.6030 0.09 1
  207.0648 7.86 104
  207.4825 0.18 2
  208.0692 3.82 51
  208.6119 0.26 3
  208.7175 0.15 2
  209.0692 10.28 136
  209.3800 0.20 3
  209.5049 0.15 2
  209.6341 0.14 2
  210.0624 3.77 50
  210.5322 0.23 3
  211.0757 10.93 145
  211.3407 0.33 4
  211.5559 0.23 3
  212.0799 4.18 55
  212.4169 0.22 3
  212.7285 0.21 3
  213.0796 7.99 106
  213.5413 0.18 2
  214.0834 1.69 22
  214.3124 0.15 2
  214.4728 0.16 2
  215.0471 5.21 69
  215.4337 0.12 2
  215.6539 0.12 2
  216.0566 2.42 32
  216.3793 0.18 2
  216.6236 0.17 2
  217.0593 4.11 54
  217.2791 0.13 2
  217.4928 0.09 1
  218.0699 2.84 38
  218.3325 0.21 3
  218.4017 0.08 1
  218.5938 0.17 2
  219.0703 6.35 84
  219.4014 0.15 2
  219.5520 0.14 2
  219.7362 0.14 2
  220.0729 2.85 38
  220.3141 0.14 2
  220.4653 0.17 2
  220.6245 0.16 2
  221.0789 6.42 85
  221.4986 0.15 2
  221.6003 0.11 1
  222.0807 2.35 31
  222.3290 0.15 2
  222.5749 0.11 1
  223.0917 7.59 100
  223.3047 0.22 3
  223.4145 0.14 2
  223.6138 0.23 3
  224.0968 2.77 37
  224.4479 0.14 2
  224.6176 0.16 2
  225.0895 7.33 97
  225.4383 0.19 3
  225.6193 0.14 2
  226.0852 2.91 39
  226.4987 0.12 2
  227.0929 4.21 56
  227.4019 0.17 2
  227.5122 0.05 1
  227.7273 0.26 3
  228.0792 1.94 26
  228.3887 0.11 1
  228.5458 0.11 1
  228.6826 0.15 2
  229.0761 3.58 47
  229.3361 0.07 1
  229.4768 0.06 1
  229.6646 0.09 1
  230.0686 1.86 25
  230.4683 0.09 1
  230.7601 0.25 3
  231.0886 4.34 57
  231.3204 0.10 1
  231.4455 0.09 1
  232.0796 2.24 30
  232.3327 0.14 2
  232.4295 0.11 1
  232.5693 0.08 1
  233.0893 4.15 55
  233.3165 0.21 3
  233.4123 0.04 1
  233.5205 0.09 1
  233.6348 0.09 1
  234.0921 2.01 27
  234.3538 0.06 1
  234.5905 0.22 3
  234.7516 0.12 2
  235.0989 4.90 65
  235.4400 0.11 1
  235.5582 0.11 1
  236.1071 1.97 26
  236.3627 0.08 1
  237.1078 5.13 68
  237.3390 0.14 2
  237.4206 0.09 1
  237.5319 0.11 1
  237.6550 0.07 1
  238.1036 1.42 19
  238.4961 0.16 2
  238.6169 0.06 1
  239.1047 3.70 49
  239.3553 0.15 2
  239.5473 0.16 2
  239.6351 0.07 1
  240.1127 2.01 27
  240.3907 0.23 3
  240.5880 0.13 2
  240.6984 0.04 1
  241.1025 3.10 41
  241.3479 0.09 1
  241.4386 0.07 1
  241.5797 0.12 2
  241.6874 0.03 0
  242.0656 0.94 12
  242.3337 0.14 2
  242.4957 0.05 1
  242.5689 0.04 1
  242.7639 0.22 3
  243.0850 1.73 23
  243.5337 0.12 2
  243.6810 0.10 1
  244.0934 1.27 17
  244.2516 0.27 4
  244.4212 0.13 2
  244.6281 0.15 2
  245.0735 3.03 40
  245.4874 0.10 1
  245.6348 0.10 1
  246.0710 1.41 19
  246.3857 0.09 1
  246.4485 0.06 1
  246.5478 0.05 1
  246.6489 0.07 1
  247.0974 3.05 40
  247.4060 0.14 2
  247.5114 0.14 2
  247.5937 0.07 1
  247.7998 0.09 1
  248.0900 1.77 23
  248.3472 0.08 1
  248.4871 0.07 1
  248.6299 0.21 3
  249.1073 3.93 52
  249.4961 0.13 2
  249.6568 0.10 1
  250.1014 1.41 19
  250.4978 0.18 2
  250.6301 0.09 1
  250.7180 0.17 2
  251.1055 4.27 57
  251.3575 0.10 1
  251.5829 0.19 3
  252.0962 1.20 16
  252.3732 0.17 2
  252.4545 0.08 1
  252.5703 0.07 1
  252.6356 0.04 1
  252.7136 0.05 1
  253.0993 2.30 30
  253.4066 0.05 1
  253.6322 0.09 1
  253.8109 0.07 1
  254.1083 0.66 9
  254.3126 0.18 2
  254.4375 0.10 1
  254.6408 0.01 0
  254.7382 0.03 0
  255.1057 1.37 18
  255.4311 0.13 2
  255.5957 0.13 2
  255.7102 0.05 1
  256.1198 0.84 11
  256.5635 0.07 1
  256.6714 0.05 1
  256.7499 0.07 1
  257.0972 1.27 17
  257.4662 0.14 2
  257.5949 0.06 1
  257.6844 0.09 1
  258.0681 0.80 11
  258.1746 0.35 5
  258.2934 0.11 1
  258.3767 0.06 1
  258.4973 0.05 1
  258.6365 0.09 1
  259.0761 1.89 25
  259.3478 0.10 1
  259.6702 0.22 3
  260.0702 0.80 11
  260.3007 0.27 4
  260.4725 0.14 2
  260.7353 0.18 2
  261.1017 2.47 33
  261.4540 0.20 3
  261.5800 0.08 1
  262.0871 1.47 19
  262.2074 0.58 8
  262.3220 0.23 3
  262.4205 0.05 1
  262.5569 0.11 1
  263.0935 3.67 49
  263.4568 0.12 2
  263.6647 0.12 2
  264.1118 1.45 19
  264.2957 0.23 3
  264.4041 0.15 2
  264.5079 0.13 2
  264.7144 0.15 2
  265.1063 2.82 37
  265.3588 0.09 1
  265.6483 0.12 2
  265.8013 0.21 3
  266.1264 1.19 16
  266.3548 0.08 1
  266.5164 0.09 1
  267.1074 1.99 26
  267.4832 0.09 1
  267.8070 0.13 2
  268.0966 0.72 10
  268.3587 0.10 1
  268.4540 0.13 2
  268.6328 0.06 1
  269.1007 1.86 25
  269.3444 0.15 2
  269.4349 0.09 1
  269.5582 0.06 1
  269.6473 0.09 1
  269.7706 0.20 3
  270.0959 0.48 6
  270.3420 0.12 2
  270.4330 0.15 2
  270.5085 0.03 0
  270.6621 0.08 1
  271.1074 1.78 24
  271.3436 0.13 2
  271.5565 0.09 1
  271.7662 0.14 2
  272.1148 0.70 9
  272.4677 0.15 2
  272.5806 0.05 1
  272.6764 0.06 1
  273.0820 1.42 19
  273.4625 0.17 2
  273.5759 0.13 2
  273.7405 0.07 1
  274.1111 1.10 15
  274.4646 0.09 1
  274.6653 0.17 2
  275.1043 1.87 25
  275.4721 0.13 2
  275.5912 0.09 1
  275.7298 0.16 2
  275.8294 0.07 1
  276.1166 0.96 13
  276.4887 0.07 1
  276.6833 0.22 3
  277.1257 2.84 38
  277.3849 0.16 2
  277.5178 0.11 1
  277.7215 0.17 2
  278.1378 1.02 13
  278.4673 0.16 2
  278.7005 0.15 2
  279.1316 1.55 21
  279.3914 0.14 2
  279.4659 0.09 1
  279.6364 0.07 1
  279.7276 0.07 1
  279.7950 0.04 1
  279.9199 0.11 1
  280.1479 0.65 9
  280.3393 0.17 2
  280.4955 0.13 2
  280.6171 0.03 0
  280.7121 0.01 0
  280.8218 0.07 1
  281.1353 1.35 18
  281.4056 0.07 1
  281.5262 0.11 1
  281.7343 0.09 1
  282.1290 0.49 6
  282.3020 0.11 1
  282.5480 0.11 1
  282.7827 0.08 1
  283.1277 1.01 13
  283.3229 0.17 2
  283.3757 0.09 1
  283.4836 0.06 1
  283.5667 0.10 1
  284.1597 2.02 27
  284.5817 0.12 2
  284.7181 0.06 1
  285.1504 1.68 22
  285.4520 0.13 2
  285.5654 0.12 2
  285.6550 0.04 1
  285.7925 0.10 1
  286.1497 0.45 6
  286.4542 0.18 2
  286.5681 0.03 0
  286.7360 0.11 1
  287.1297 1.08 14
  287.3091 0.21 3
  287.4206 0.06 1
  287.5719 0.11 1
  287.8546 0.16 2
  288.1441 0.62 8
  288.3723 0.09 1
  288.5716 0.06 1
  288.8008 0.13 2
  289.1486 1.64 22
  289.6805 0.14 2
  290.1385 0.65 9
  290.3108 0.18 2
  290.4944 0.19 3
  290.6573 0.15 2
  291.1513 2.68 35
  291.4979 0.10 1
  291.6426 0.08 1
  291.7632 0.14 2
  291.8828 0.13 2
  292.1567 0.97 13
  292.4900 0.06 1
  292.5783 0.08 1
  293.1518 3.71 49
  293.6399 0.26 3
  293.7833 0.11 1
  293.8896 0.12 2
  294.1428 0.53 7
  294.3317 0.17 2
  294.4604 0.16 2
  294.6651 0.08 1
  294.7648 0.07 1
  295.1429 5.01 66
  295.4824 0.09 1
  295.6443 0.14 2
  296.1478 0.91 12
  296.3630 0.18 2
  296.5259 0.12 2
  297.1519 1.64 22
  297.3776 0.07 1
  297.4944 0.23 3
  297.5928 0.10 1
  297.7405 0.08 1
  298.1676 0.67 9
  298.3187 0.31 4
  298.4394 0.02 0
  298.5501 0.06 1
  298.6299 0.03 0
  298.7558 0.06 1
  299.1169 0.39 5
  299.4785 0.09 1
  299.6258 0.10 1
  299.8363 0.08 1
  300.1599 0.78 10
  300.5805 0.13 2
  300.7806 0.08 1
  301.1375 1.10 15
  301.5111 0.07 1
  301.6489 0.06 1
  301.8253 0.04 1
  302.1357 0.35 5
  302.2079 0.15 2
  302.3329 0.08 1
  302.5169 0.09 1
  302.6291 0.10 1
  303.1567 1.27 17
  303.4286 0.27 4
  303.5637 0.03 0
  303.6915 0.11 1
  303.9031 0.16 2
  304.1964 0.76 10
  304.3567 0.27 4
  304.7684 0.39 5
  305.1507 1.79 24
  305.5254 0.23 3
  305.7679 0.18 2
  306.1336 0.95 13
  306.2668 0.44 6
  306.4918 0.13 2
  306.7029 0.10 1
  306.8385 0.09 1
  307.1894 1.67 22
  307.4997 0.09 1
  307.5853 0.10 1
  307.6827 0.12 2
  308.1898 0.84 11
  308.4478 0.17 2
  308.5576 0.14 2
  308.7377 0.08 1
  309.1869 1.00 13
  309.6669 0.16 2
  309.7763 0.07 1
  310.1523 0.51 7
  310.2507 0.35 5
  310.4099 0.11 1
  310.5616 0.20 3
  310.7080 0.08 1
  311.1539 0.56 7
  311.3008 0.31 4
  311.5309 0.10 1
  311.7572 0.15 2
  312.1628 0.36 5
  312.3358 0.07 1
  312.4970 0.09 1
  312.6568 0.17 2
  312.8432 0.06 1
  313.1499 0.41 5
  313.3335 0.19 3
  313.5094 0.09 1
  313.6801 0.08 1
  313.8195 0.06 1
  313.9645 0.19 3
  314.0701 0.20 3
  314.1895 0.22 3
  314.2931 0.11 1
  314.4063 0.03 0
  314.6289 0.10 1
  314.8144 0.13 2
  315.1516 0.38 5
  315.3575 0.20 3
  315.5673 0.16 2
  315.7932 0.11 1
  316.1743 0.42 6
  316.5334 0.16 2
  316.6923 0.22 3
  316.8402 0.16 2
  316.9758 0.25 3
  317.1480 0.91 12
  317.2955 0.61 8
  317.4958 0.29 4
  317.6985 0.14 2
  317.8302 0.15 2
  318.1771 0.54 7
  318.3617 0.32 4
  318.7794 0.24 3
  319.2046 3.25 43
  319.5414 0.16 2
  319.6729 0.15 2
  319.8995 0.22 3
  320.2059 0.53 7
  320.4073 0.16 2
  320.6548 0.25 3
  320.8282 0.15 2
  321.1888 1.08 14
  321.3555 0.35 5
  321.5826 0.27 4
  321.6942 0.19 3
  322.1812 0.38 5
  322.4938 0.24 3
  323.1704 0.72 10
  323.3624 0.29 4
  323.5929 0.16 2
  323.7407 0.20 3
  324.1769 2.29 30
  324.5865 0.26 3
  324.7305 0.23 3
  324.8869 0.25 3
  325.0180 0.22 3
  325.2305 0.35 5
  325.5532 0.34 4
  325.6530 0.18 2
  325.8602 0.23 3
  325.9691 0.15 2
  326.0775 0.28 4
  326.2476 0.20 3
  326.3764 0.19 3
  326.5048 0.07 1
  326.6183 0.13 2
  326.8365 0.15 2
  326.9292 0.11 1
  327.1517 0.23 3
  327.4136 0.24 3
  327.5363 0.04 1
  327.7046 0.11 1
  327.7583 0.04 1
  327.9156 0.12 2
  328.1272 0.38 5
  328.2527 0.17 2
  328.4738 0.18 2
  328.7191 0.16 2
  328.8108 0.09 1
  329.1769 0.72 10
  329.3871 0.12 2
  329.5521 0.13 2
  329.6381 0.09 1
  329.8269 0.07 1
  330.0561 0.10 1
  330.2472 0.05 1
  330.3780 0.08 1
  330.6252 0.01 0
  330.7294 0.09 1
  331.1778 0.58 8
  331.4465 0.04 1
  331.6386 0.08 1
  331.7637 0.02 0
  332.0262 0.22 3
  332.2231 0.34 4
  332.4405 0.13 2
  332.7406 0.07 1
  332.8381 0.08 1
  333.1801 1.20 16
  333.3680 0.34 4
  333.5987 0.20 3
  334.2285 8.42 111
  334.5947 0.39 5
  334.7118 0.20 3
  334.8212 0.26 3
  335.2075 1.71 23
  335.5486 0.19 3
  335.7003 0.19 3
  336.1837 1.26 17
  336.7799 0.25 3
  337.2105 2.32 31
  337.4817 0.29 4
  337.6787 0.29 4
  337.9961 0.52 7
  338.1807 0.45 6
  338.3059 0.28 4
  338.5790 0.32 4
  338.9650 0.35 5
  339.2776 0.22 3
  339.7208 0.30 4
  340.2448 0.24 3
  340.8640 0.30 4
  341.5147 0.46 6
  341.7656 0.31 4
  342.0774 0.27 4
  342.4025 0.33 4
  342.5724 0.31 4
  342.7091 0.52 7
  342.9428 0.42 6
  343.2123 0.35 5
  343.5984 0.27 4
  344.1240 0.40 5
  344.5616 0.13 2
  344.7768 0.17 2
  345.1301 0.49 6
  345.4850 0.32 4
  345.7464 0.26 3
  346.1280 0.36 5
  346.4568 0.22 3
  346.6174 0.13 2
  347.2158 3.66 48
  347.4976 0.31 4
  347.6772 0.26 3
  347.7695 0.24 3
  348.1506 0.45 6
  348.3484 0.33 4
  348.5527 0.12 2
  348.6834 0.25 3
  348.7766 0.16 2
  349.1954 1.00 13
  349.6503 0.12 2
  350.2188 2.01 27
  350.4641 0.25 3
  350.6552 0.15 2
  350.7617 0.16 2
  351.2219 6.04 80
  351.6046 0.24 3
  352.2246 2.09 28
  352.5969 0.09 1
  352.7862 0.15 2
  353.2017 0.27 4
  353.6692 0.32 4
  354.0125 0.53 7
  354.3249 0.42 6
  354.8423 0.47 6
  355.0601 0.52 7
  355.2879 0.49 6
  355.5866 0.52 7
  356.6216 0.60 8
  357.5196 0.85 11
  358.1955 0.79 10
  358.8097 0.83 11
  359.2169 0.91 12
  359.5258 1.13 15
  359.7234 0.81 11
  360.1963 1.03 14
  361.2018 1.56 21
  362.2303 16.23 215
  363.2013 1.35 18
  363.7114 0.43 6
  364.1886 0.97 13
  365.2249 15.95 211
  365.6176 0.73 10
  365.9551 0.30 4
  366.2741 0.45 6
  366.7225 0.44 6
  366.9954 0.34 4
  367.2583 0.59 8
  367.5697 0.63 8
  367.9126 0.56 7
  368.3453 0.62 8
  368.8726 0.90 12
  369.2302 0.90 12
  369.4428 0.89 12
  369.6858 0.76 10
  370.0810 0.89 12
  370.6298 0.99 13
  371.1915 0.79 10
  371.8450 0.85 11
  372.9290 1.18 16
  380.2157 99.97 999
  380.9933 34.28 454
  381.5678 14.59 193
  382.1271 7.20 95
  382.8158 3.64 48
  383.2657 2.35 31
  383.9326 1.29 17
  384.5529 0.94 12
  385.1308 0.54 7
  385.5812 0.39 5
  385.7868 0.36 5
//
