ACCESSION: MSBNK-Kyoto_Univ-CA000098
RECORD_TITLE: Pyrrhoxathinol 5,8-furanoide; FAB-EBEB; MS2; m/z: 570.33; [M]+*
DATE: 2016.01.19 (Created 2010.04.01, modified 2011.05.10)
AUTHORS: Akimoto N, Graduate School of Pharmaceutical Sciences, Kyoto University and Maoka T, Research Institute for Production Development
LICENSE: CC BY-SA
PUBLICATION: Takashi Maoka, Yasuhiro Fujiwara, Keiji Hashimoto, and Naoshige Akimoto, Carotenoids in Three Species of Corbicula Clams, Corbicula japonica, Corbicula sandai, and Corbicula sp. (Chinese Freshwater Corbicula Clam), J. Agric. Food Chem., 53, 8357-8364 (2005).
COMMENT: Profile spectrum of this record is given as a JPEG file.
COMMENT: [Profile] CA000098.jpg
CH$NAME: Pyrrhoxathinol 5,8-furanoide
CH$COMPOUND_CLASS: N/A
CH$FORMULA: C37H46O5
CH$EXACT_MASS: 570.33452
CH$SMILES: C(C4O)C(O1)(C(C(C)(C)C4)=CC1c(c2)c(oc2=CC(C)=CC=CC=CC=C(C)C#CC(C3(C)C)=C(C)CC(C3)O)=O)C
CH$IUPAC: InChI=1S/C37H46O5/c1-24(15-16-31-26(3)18-27(38)21-35(31,4)5)13-11-9-10-12-14-25(2)17-29-19-30(34(40)41-29)32-20-33-36(6,7)22-28(39)23-37(33,8)42-32/h9-14,17,19-20,27-28,32,38-39H,18,21-23H2,1-8H3/b11-9+,12-10+,24-13+,25-14+,29-17-/t27-,28+,32?,37-/m1/s1
CH$LINK: INCHIKEY ZXVDYXHNDNZGKI-RDJWZEDXSA-N
AC$INSTRUMENT: JMS-HX/HX 110A, JEOL
AC$INSTRUMENT_TYPE: FAB-EBEB
AC$MASS_SPECTROMETRY: MS_TYPE MS2
AC$MASS_SPECTROMETRY: ION_MODE POSITIVE
AC$MASS_SPECTROMETRY: ATOM_GUN_CURRENT 5 mA
AC$MASS_SPECTROMETRY: BOMBARDMENT 6 kV xenon
AC$MASS_SPECTROMETRY: COLLISION_ENERGY 3 kV
AC$MASS_SPECTROMETRY: COLLISION_GAS Ar
AC$MASS_SPECTROMETRY: GAS_PRESSURE adjust to attenuate the intensity of the precursor ion by 30 %
AC$MASS_SPECTROMETRY: IONIZATION FAB
AC$MASS_SPECTROMETRY: MATRIX 1-2 uL m-NBA
AC$MASS_SPECTROMETRY: PROBE_TIP stainless-steel
MS$FOCUSED_ION: BASE_PEAK 42.9674
MS$FOCUSED_ION: PRECURSOR_M/Z 570.33
MS$FOCUSED_ION: PRECURSOR_TYPE [M]+*
MS$DATA_PROCESSING: RELATIVE_M/Z normalised by peak(m/z=42.9674).  set 999 for peak(m/z=570.3327,rel=2151).
PK$SPLASH: splash10-00dl-4952140000-93238c85754f7463ba98
PK$NUM_PEAK: 1765
PK$PEAK: m/z int. rel.int.
  0.0629 0.10 2
  0.4418 0.01 0
  1.1176 0.01 0
  3.1667 0.11 2
  3.2145 0.14 3
  4.6062 0.02 0
  4.9794 0.07 2
  5.2072 0.10 2
  5.5489 0.01 0
  13.4061 0.01 0
  13.9897 0.15 3
  14.9979 0.61 13
  15.1446 0.01 0
  15.6290 0.01 0
  16.4037 0.01 0
  18.4761 0.04 1
  18.9966 0.02 0
  19.1672 0.01 0
  20.1786 0.06 1
  22.9517 0.22 5
  24.9655 0.06 1
  25.8807 0.06 1
  25.9781 0.65 14
  26.9818 3.51 76
  27.9926 0.29 6
  28.9881 3.79 82
  29.9538 0.10 2
  30.9723 0.96 21
  32.8741 0.01 0
  35.9502 0.08 2
  36.9547 0.41 9
  37.9654 1.49 32
  38.9721 9.57 206
  39.1091 0.09 2
  39.4903 0.09 2
  39.9781 1.28 28
  40.6881 0.16 3
  40.8065 0.01 0
  40.9868 16.27 350
  41.5818 0.03 1
  41.9768 0.90 19
  42.9674 46.43 999
  43.2334 0.01 0
  43.7323 0.10 2
  43.9662 0.55 12
  44.1086 0.04 1
  44.9685 0.89 19
  47.7247 0.10 2
  47.9041 0.04 1
  48.9629 0.40 9
  49.7270 0.01 0
  49.9633 4.63 100
  50.1562 0.04 1
  50.4992 0.08 2
  50.9666 7.51 162
  51.9746 2.66 57
  52.9803 7.81 168
  53.9905 0.36 8
  54.9927 11.88 256
  55.9957 0.71 15
  57.0043 6.59 142
  57.4907 0.05 1
  57.9163 0.16 3
  58.0135 0.24 5
  58.9987 1.65 36
  59.8342 0.03 1
  59.9943 0.24 5
  60.1425 0.08 2
  60.3149 0.01 0
  60.9685 0.94 20
  61.4442 0.05 1
  61.5710 0.04 1
  61.9695 2.56 55
  62.5885 0.05 1
  62.6683 0.07 2
  62.7830 0.05 1
  62.9788 7.54 162
  63.1730 0.07 2
  63.3836 0.02 0
  63.5693 0.07 2
  63.6811 0.11 2
  63.9845 1.35 29
  64.2058 0.06 1
  64.3274 0.06 1
  64.6757 0.10 2
  64.9860 9.15 197
  66.0021 1.08 23
  66.2414 0.01 0
  66.9873 7.98 172
  67.4143 0.05 1
  67.9892 0.32 7
  68.9766 14.78 318
  69.2618 0.10 2
  69.4301 0.09 2
  69.4921 0.04 1
  69.9824 0.93 20
  70.9860 4.94 106
  72.0058 0.24 5
  72.2940 0.06 1
  72.4825 0.09 2
  72.7436 0.08 2
  72.9917 0.38 8
  73.1414 0.03 1
  73.5357 0.03 1
  73.9617 4.02 86
  74.1853 0.02 0
  74.9707 3.58 77
  75.2983 0.08 2
  75.4741 0.14 3
  75.7040 0.04 1
  75.9684 1.87 40
  76.4804 0.09 2
  76.6073 0.24 5
  76.9704 16.99 366
  77.1926 0.10 2
  77.3210 0.09 2
  77.5078 0.01 0
  77.6656 0.07 2
  77.9748 4.23 91
  78.2392 0.05 1
  78.9717 12.70 273
  79.6533 0.09 2
  79.9803 1.30 28
  80.9918 8.56 184
  81.1794 0.12 3
  81.4540 0.02 0
  81.9677 0.76 16
  82.3814 0.12 3
  82.5135 0.13 3
  82.9829 11.77 253
  83.2832 0.11 2
  83.8012 0.08 2
  84.0129 0.28 6
  84.6552 0.07 2
  84.9789 9.34 201
  85.5846 0.08 2
  85.9747 1.36 29
  86.3282 0.14 3
  86.9527 6.56 141
  87.7800 0.14 3
  87.9704 0.93 20
  88.2949 0.08 2
  88.5156 0.12 3
  88.6384 0.11 2
  88.9664 4.79 103
  89.3828 0.22 5
  89.6800 0.12 3
  89.9588 1.56 34
  90.2982 0.03 1
  90.4752 0.04 1
  90.5683 0.04 1
  90.9771 25.51 549
  91.3034 0.23 5
  91.5771 0.13 3
  91.6771 0.03 1
  91.9820 1.77 38
  92.3303 0.03 1
  92.9868 8.72 188
  93.5062 0.11 2
  93.6796 0.09 2
  93.9907 1.26 27
  94.2105 0.12 3
  94.5682 0.13 3
  94.9939 11.33 244
  95.4963 0.13 3
  95.7285 0.10 2
  95.9785 0.79 17
  96.5046 0.05 1
  96.9872 2.05 44
  97.4555 0.08 2
  97.9630 1.19 26
  98.3788 0.04 1
  98.9665 1.15 25
  99.3948 0.06 1
  99.9714 0.28 6
  100.2760 0.15 3
  100.5697 0.09 2
  100.9876 1.41 30
  101.1729 0.21 5
  101.5555 0.12 3
  101.6829 0.12 3
  101.9903 3.53 76
  102.1729 0.16 3
  102.4050 0.19 4
  102.4750 0.06 1
  102.6317 0.11 2
  102.9943 8.55 184
  103.4129 0.13 3
  103.5519 0.29 6
  103.6171 0.13 3
  103.9945 3.97 85
  104.3244 0.04 1
  104.5034 0.05 1
  104.6502 0.03 1
  105.0016 24.70 531
  105.3620 0.08 2
  105.5643 0.06 1
  106.0136 2.93 63
  106.1888 0.09 2
  106.4613 0.25 5
  106.6815 0.20 4
  107.0005 8.02 173
  107.2560 0.05 1
  107.3657 0.10 2
  107.6401 0.12 3
  107.9945 1.84 40
  108.3241 0.11 2
  108.6989 0.04 1
  109.0027 5.58 120
  109.2422 0.12 3
  109.6507 0.02 0
  109.9650 0.58 12
  110.1316 0.10 2
  110.6855 0.16 3
  110.9909 2.59 56
  111.2049 0.10 2
  111.6882 0.06 1
  111.9262 0.32 7
  112.0525 0.19 4
  112.3919 0.10 2
  112.7101 0.28 6
  112.9762 1.33 29
  113.1499 0.16 3
  113.3734 0.29 6
  113.8344 0.85 18
  114.0140 0.83 18
  114.4698 0.25 5
  114.5815 0.13 3
  114.9765 23.66 509
  115.4248 0.23 5
  115.5726 0.10 2
  115.9707 4.68 101
  116.3836 0.28 6
  116.9892 10.81 233
  117.3806 0.10 2
  117.5263 0.12 3
  117.9909 2.53 54
  118.3441 0.06 1
  118.4666 0.04 1
  118.9813 13.79 297
  119.3186 0.14 3
  119.4297 0.14 3
  119.5301 0.04 1
  119.9719 2.21 48
  120.3567 0.18 4
  120.9836 11.77 253
  121.2434 0.14 3
  121.3128 0.07 2
  121.6486 0.11 2
  121.9686 1.94 42
  122.4904 0.16 3
  122.9639 3.31 71
  123.4921 0.03 1
  123.5893 0.11 2
  123.7797 0.12 3
  123.9414 0.50 11
  124.0648 0.16 3
  124.3277 0.12 3
  124.4658 0.06 1
  124.5803 0.12 3
  124.9880 4.52 97
  125.2538 0.13 3
  125.4529 0.24 5
  125.5304 0.11 2
  125.9726 2.45 53
  126.2412 0.18 4
  126.3361 0.12 3
  126.4862 0.32 7
  126.9642 8.77 189
  127.3057 0.32 7
  127.4451 0.47 10
  127.9687 21.22 457
  128.2791 0.19 4
  128.4231 0.43 9
  128.5910 0.35 8
  128.9731 18.93 407
  129.4957 0.24 5
  129.6290 0.08 2
  129.9723 6.42 138
  130.3563 0.16 3
  130.4607 0.10 2
  130.9817 10.53 227
  131.5231 0.08 2
  131.6696 0.07 2
  131.9717 3.05 66
  132.2152 0.20 4
  132.3250 0.06 1
  132.4562 0.28 6
  132.9733 8.79 189
  133.2080 0.15 3
  133.5502 0.02 0
  133.9643 1.63 35
  134.2194 0.29 6
  134.3547 0.09 2
  134.4829 0.03 1
  134.9610 4.06 87
  135.9489 1.69 36
  136.2182 0.25 5
  136.5001 0.09 2
  136.6501 0.09 2
  136.9821 2.69 58
  137.2368 0.05 1
  137.7290 0.27 6
  137.9852 0.74 16
  138.3379 0.11 2
  138.5292 0.27 6
  138.9790 6.47 139
  139.1985 0.11 2
  139.3920 0.13 3
  139.5230 0.22 5
  139.9785 2.37 51
  140.3247 0.27 6
  140.5289 0.21 5
  140.9803 18.96 408
  141.2623 0.30 6
  141.4268 0.14 3
  141.5685 0.12 3
  141.9708 10.70 230
  142.2700 0.21 5
  142.4236 0.18 4
  142.5001 0.10 2
  142.9819 14.45 311
  143.2631 0.24 5
  143.3900 0.08 2
  143.5641 0.21 5
  143.9639 3.60 77
  144.3246 0.28 6
  144.4386 0.05 1
  144.9744 12.19 262
  145.3178 0.10 2
  145.5263 0.25 5
  145.9761 2.38 51
  146.2063 0.20 4
  146.3212 0.10 2
  146.4235 0.01 0
  146.9853 6.74 145
  147.4154 0.06 1
  147.5954 0.14 3
  147.8227 0.53 11
  148.0192 1.42 31
  148.2505 0.11 2
  148.4471 0.01 0
  148.9679 5.25 113
  149.3337 0.07 2
  149.5660 0.03 1
  149.7246 0.33 7
  149.9965 3.00 65
  150.3336 0.14 3
  150.4634 0.02 0
  150.9825 3.85 83
  151.2040 0.31 7
  151.4459 0.60 13
  151.9853 12.56 270
  152.2393 0.47 10
  152.4273 0.42 9
  152.9943 13.01 280
  153.4182 0.21 5
  153.9982 5.58 120
  154.3703 0.23 5
  154.6268 0.07 2
  155.0037 16.61 357
  155.2643 0.13 3
  155.3675 0.08 2
  155.6037 0.20 4
  156.0200 7.30 157
  156.4715 0.29 6
  156.6040 0.27 6
  157.0173 10.77 232
  157.3625 0.20 4
  157.5295 0.25 5
  158.0161 2.91 63
  158.2608 0.25 5
  158.4823 0.18 4
  158.5858 0.04 1
  159.0178 6.76 145
  159.2713 0.04 1
  159.5833 0.15 3
  160.0096 1.15 25
  160.3630 0.19 4
  161.0016 4.68 101
  161.4743 0.13 3
  161.6066 0.08 2
  161.9950 1.60 34
  162.3157 0.25 5
  162.5946 0.27 6
  163.0119 5.04 108
  163.3482 0.28 6
  164.0116 1.82 39
  164.3755 0.46 10
  164.5734 0.43 9
  165.0201 22.29 480
  165.2582 0.58 12
  165.4729 0.25 5
  166.0460 7.34 158
  166.4745 0.10 2
  167.0474 12.17 262
  167.3232 0.19 4
  167.5490 0.12 3
  168.0348 4.68 101
  168.4733 0.45 10
  169.0326 10.85 233
  169.4467 0.23 5
  169.5867 0.32 7
  170.0424 3.84 83
  170.3046 0.18 4
  170.5195 0.16 3
  171.0476 8.60 185
  171.3207 0.24 5
  171.4710 0.14 3
  171.6854 0.24 5
  172.0448 2.57 55
  172.5521 0.26 6
  173.0274 4.15 89
  173.2695 0.18 4
  173.4441 0.05 1
  173.5765 0.13 3
  174.0394 1.89 41
  174.2288 0.07 2
  174.3888 0.19 4
  174.6010 0.26 6
  175.0368 3.43 74
  175.3723 0.15 3
  175.5344 0.24 5
  176.0000 4.47 96
  176.3196 0.07 2
  176.5401 0.20 4
  177.0100 4.06 87
  178.0221 14.72 317
  178.4449 0.20 4
  179.0275 17.16 369
  179.3840 0.13 3
  180.0289 5.72 123
  180.3151 0.19 4
  180.4723 0.08 2
  181.0369 12.66 272
  181.3441 0.29 6
  182.0106 4.64 100
  182.4647 0.27 6
  182.6599 0.07 2
  183.0442 9.23 199
  183.4689 0.14 3
  184.0561 2.52 54
  184.3687 0.09 2
  184.5998 0.15 3
  185.0331 5.92 127
  185.2487 0.27 6
  185.3754 0.15 3
  185.5109 0.19 4
  185.5986 0.09 2
  185.7307 0.13 3
  186.0308 2.29 49
  186.4024 0.11 2
  186.5022 0.14 3
  187.0257 4.02 86
  187.3503 0.12 3
  187.5237 0.25 5
  188.0307 1.22 26
  188.2852 0.45 10
  189.0275 9.36 201
  189.3592 0.43 9
  189.5092 0.22 5
  190.0053 4.36 94
  190.5096 0.37 8
  191.0235 10.24 220
  191.3834 0.16 3
  192.0146 7.37 159
  192.4518 0.21 5
  193.0368 14.45 311
  193.3699 0.10 2
  194.0120 5.87 126
  194.3440 0.17 4
  194.5372 0.25 5
  195.0299 10.62 229
  195.4448 0.35 8
  195.5770 0.15 3
  196.0381 3.64 78
  196.3712 0.48 10
  196.5645 0.14 3
  197.0354 7.52 162
  197.3951 0.14 3
  197.5294 0.21 5
  198.0433 2.21 48
  198.4589 0.40 9
  199.0288 5.22 112
  199.4119 0.22 5
  199.6912 0.46 10
  199.7863 0.41 9
  200.0351 2.59 56
  200.2043 0.51 11
  200.4212 0.38 8
  200.5333 0.21 5
  201.0242 4.75 102
  201.4343 0.27 6
  202.0214 10.59 228
  202.4521 0.32 7
  202.5984 0.35 8
  203.0231 10.04 216
  203.5256 0.39 8
  204.0424 3.24 70
  204.2175 0.84 18
  204.3530 0.39 8
  205.0254 9.20 198
  205.4234 0.06 1
  205.5788 0.23 5
  206.0478 5.10 110
  206.3989 0.13 3
  206.6069 0.48 10
  207.0345 10.27 221
  207.4212 0.23 5
  207.5515 0.24 5
  208.0490 4.90 105
  208.4707 0.15 3
  208.5485 0.11 2
  209.0509 9.61 207
  209.4258 0.10 2
  209.5528 0.14 3
  209.7413 0.22 5
  210.0766 1.92 41
  210.4162 0.08 2
  210.6471 0.23 5
  211.0489 5.42 117
  211.6394 0.25 5
  211.8561 0.70 15
  212.0824 1.39 30
  212.4468 0.26 6
  212.6164 0.34 7
  213.0425 5.40 116
  213.4180 0.30 6
  213.5747 0.11 2
  214.0311 1.82 39
  214.4944 0.37 8
  215.0482 11.00 237
  215.3344 0.39 8
  215.5090 0.24 5
  216.0438 4.77 103
  216.4130 0.56 12
  216.6329 0.50 11
  217.0618 8.00 172
  217.3668 0.13 3
  217.6012 0.19 4
  218.0700 4.29 92
  218.4972 0.26 6
  219.0684 8.46 182
  219.4250 0.19 4
  220.0829 3.74 80
  220.4953 0.17 4
  221.0787 7.65 165
  221.5544 0.46 10
  221.7295 0.15 3
  222.0907 2.22 48
  222.2109 1.09 23
  222.5659 0.20 4
  223.0983 5.72 123
  223.3704 0.08 2
  223.7098 0.46 10
  224.0768 1.72 37
  224.2562 0.82 18
  224.4603 0.20 4
  225.0949 2.70 58
  225.3004 0.37 8
  225.4641 0.22 5
  226.0659 4.19 90
  226.5502 0.22 5
  226.7407 0.31 7
  227.0992 4.23 91
  227.5156 0.44 9
  228.0979 4.12 89
  228.5426 0.28 6
  228.7106 0.43 9
  229.0954 9.10 196
  229.3756 0.32 7
  229.4951 0.13 3
  229.5850 0.08 2
  229.7347 0.21 5
  230.1139 2.78 60
  231.0895 6.73 145
  231.5760 0.26 6
  232.0826 3.50 75
  232.3583 0.19 4
  233.1119 8.31 179
  233.5321 0.22 5
  233.7322 0.37 8
  234.1133 3.11 67
  234.3906 0.44 9
  234.6307 0.42 9
  235.1104 7.40 159
  235.6445 0.10 2
  236.0871 2.62 56
  236.4437 0.20 4
  237.0876 3.98 86
  237.3872 0.13 3
  237.7406 0.30 6
  238.0961 1.72 37
  238.4323 0.28 6
  238.5515 0.27 6
  238.6955 0.24 5
  239.0918 6.55 141
  239.4088 0.44 9
  240.0803 2.58 56
  240.3823 0.30 6
  240.5567 0.27 6
  241.1008 5.42 117
  241.4733 0.20 4
  241.6050 0.15 3
  242.0845 3.44 74
  242.4605 0.29 6
  243.0858 6.07 131
  243.3860 0.34 7
  243.6511 0.20 4
  243.8616 0.50 11
  244.1233 2.79 60
  244.4851 0.35 8
  245.0859 6.68 144
  245.5086 0.19 4
  245.6826 0.15 3
  246.1165 3.12 67
  246.5359 0.31 7
  247.1032 6.02 130
  247.3631 0.12 3
  247.6140 0.29 6
  248.1055 2.22 48
  248.4028 0.14 3
  248.6711 0.30 6
  249.1040 4.31 93
  249.4249 0.29 6
  249.6863 0.23 5
  250.1187 2.42 52
  250.4542 0.30 6
  251.0846 3.55 76
  251.4244 0.26 6
  251.5088 0.25 5
  251.7123 0.26 6
  252.0978 3.79 82
  252.4343 0.29 6
  252.7361 0.50 11
  253.1004 5.57 120
  253.4521 0.36 8
  254.1073 1.80 39
  254.4405 0.21 5
  254.6013 0.05 1
  255.0910 4.48 96
  255.4728 0.14 3
  256.0742 1.89 41
  256.4173 0.05 1
  256.6862 0.14 3
  257.1035 4.42 95
  257.3835 0.11 2
  257.4910 0.14 3
  257.7156 0.15 3
  258.0977 2.38 51
  258.4347 0.15 3
  258.5422 0.22 5
  259.1005 5.73 123
  259.6360 0.25 5
  260.1009 2.21 48
  260.5374 0.18 4
  261.1293 5.60 120
  261.4993 0.38 8
  261.5812 0.16 3
  261.7346 0.05 1
  262.0393 1.72 37
  262.2198 1.08 23
  262.4872 0.12 3
  263.1156 3.55 76
  264.0900 1.59 34
  264.2463 0.63 14
  264.4846 0.20 4
  265.0842 3.52 76
  265.5116 0.17 4
  265.6269 0.11 2
  265.8549 0.68 15
  266.1183 2.65 57
  266.3101 0.42 9
  266.5041 0.09 2
  266.6264 0.16 3
  267.1235 3.54 76
  267.4809 0.02 0
  267.5956 0.09 2
  267.6755 0.05 1
  268.1025 1.84 40
  268.4649 0.24 5
  268.6130 0.17 4
  268.7605 0.19 4
  269.1215 2.90 62
  269.4630 0.17 4
  270.1289 2.12 46
  270.2653 0.97 21
  270.4880 0.16 3
  270.6341 0.07 2
  271.1282 2.88 62
  271.5347 0.12 3
  271.6482 0.12 3
  272.1467 1.45 31
  272.3528 0.35 8
  272.4976 0.14 3
  273.1353 3.21 69
  273.4522 0.42 9
  274.1089 1.95 42
  274.2736 0.65 14
  274.4300 0.38 8
  274.5857 0.24 5
  275.1460 3.26 70
  275.4081 0.38 8
  276.1514 1.83 39
  276.5206 0.33 7
  276.8009 0.69 15
  277.1389 4.08 88
  277.4269 0.20 4
  277.7232 0.23 5
  278.0968 1.60 34
  278.4078 0.25 5
  278.6284 0.36 8
  279.1301 3.35 72
  279.3333 0.41 9
  279.4314 0.22 5
  279.6138 0.17 4
  280.1274 2.01 43
  280.4219 0.37 8
  280.5388 0.12 3
  281.1097 2.03 44
  281.4920 0.34 7
  281.6445 0.30 6
  282.1229 1.33 29
  282.5206 0.28 6
  282.7498 0.15 3
  283.1426 3.87 83
  283.3767 0.26 6
  283.4958 0.12 3
  284.0727 0.94 20
  284.4002 0.24 5
  284.5626 0.19 4
  284.7026 0.41 9
  285.1340 3.55 76
  285.5410 0.13 3
  285.8540 0.42 9
  286.1559 1.71 37
  286.3476 0.27 6
  287.1417 2.61 56
  287.4276 0.35 8
  287.6284 0.19 4
  287.7819 0.37 8
  288.1320 1.18 25
  288.4528 0.09 2
  288.6146 0.28 6
  288.7805 0.29 6
  289.1610 2.70 58
  289.7283 0.18 4
  290.1660 0.92 20
  290.4113 0.27 6
  290.7529 0.38 8
  291.1489 2.75 59
  291.5171 0.10 2
  292.1209 1.11 24
  292.2820 0.44 9
  292.6035 0.22 5
  292.7863 0.43 9
  293.1552 2.97 64
  293.5508 0.25 5
  294.1633 1.30 28
  294.4926 0.03 1
  295.1143 2.51 54
  295.4584 0.05 1
  295.6628 0.16 3
  295.8401 0.28 6
  296.1347 0.92 20
  296.3894 0.25 5
  296.7908 0.39 8
  297.1350 2.81 60
  297.4624 0.40 9
  297.6984 0.29 6
  298.1279 1.21 26
  298.3897 0.15 3
  298.6048 0.14 3
  299.1314 2.64 57
  299.6232 0.06 1
  300.1289 1.51 32
  300.4727 0.12 3
  300.6285 0.33 7
  300.7207 0.26 6
  301.1518 3.04 65
  301.4474 0.28 6
  301.5599 0.42 9
  301.6759 0.17 4
  302.1483 2.32 50
  302.5313 0.25 5
  303.1136 2.58 56
  303.5764 0.18 4
  303.7987 0.12 3
  304.1462 0.84 18
  304.4385 0.11 2
  304.5392 0.11 2
  304.7070 0.27 6
  305.1301 1.71 37
  305.4448 0.14 3
  305.6407 0.25 5
  306.1205 1.13 24
  306.4388 0.18 4
  307.1293 2.74 59
  307.6106 0.12 3
  307.8765 0.32 7
  308.1396 1.15 25
  308.3559 0.70 15
  308.5371 0.22 5
  309.1215 1.71 37
  309.5289 0.14 3
  309.6388 0.15 3
  310.0882 0.68 15
  310.2926 0.33 7
  310.4529 0.22 5
  310.6140 0.27 6
  310.7820 0.16 3
  311.1454 2.57 55
  311.4955 0.18 4
  312.0502 1.17 25
  312.4333 0.26 6
  312.5880 0.15 3
  313.1029 2.16 46
  313.4671 0.12 3
  313.6016 0.02 0
  313.8622 0.37 8
  314.2174 0.71 15
  314.3604 0.27 6
  314.4339 0.14 3
  314.6540 0.23 5
  315.1129 1.51 32
  315.4927 0.11 2
  315.5894 0.13 3
  315.7990 0.30 6
  316.1649 1.10 24
  316.3807 0.15 3
  316.6681 0.16 3
  317.1083 1.41 30
  317.4112 0.16 3
  317.6103 0.11 2
  317.8592 0.28 6
  318.1614 0.95 20
  318.3823 0.15 3
  318.5877 0.16 3
  318.7686 0.22 5
  319.1662 2.35 51
  319.5478 0.08 2
  319.7918 0.37 8
  319.9195 0.18 4
  320.1692 1.11 24
  320.4217 0.28 6
  320.6448 0.26 6
  321.1583 4.97 107
  321.6901 0.29 6
  322.1567 0.66 14
  322.4907 0.24 5
  322.7679 0.34 7
  323.1525 2.43 52
  323.5427 0.11 2
  323.7125 0.13 3
  323.9070 0.49 11
  324.1611 0.69 15
  324.3836 0.09 2
  324.4924 0.30 6
  324.6258 0.11 2
  324.8315 0.31 7
  325.1277 1.85 40
  325.3461 0.84 18
  325.5785 0.22 5
  325.7315 0.12 3
  325.8319 0.13 3
  326.1219 0.55 12
  326.4435 0.21 5
  326.6978 0.16 3
  326.8501 0.12 3
  327.1711 2.15 46
  327.5651 0.22 5
  327.7175 0.34 7
  327.8875 0.11 2
  328.1994 0.61 13
  329.1667 1.55 33
  329.2876 0.61 13
  329.5307 0.13 3
  329.6965 0.12 3
  330.1968 0.40 9
  330.5011 0.26 6
  330.6332 0.21 5
  330.8510 0.37 8
  331.1715 1.67 36
  331.5061 0.14 3
  331.7029 0.15 3
  331.8891 0.28 6
  332.1769 0.67 14
  332.4070 0.09 2
  332.4912 0.06 1
  332.8034 0.33 7
  333.1852 1.26 27
  333.4532 0.21 5
  333.6715 0.14 3
  333.8456 0.24 5
  334.0035 0.56 12
  334.1817 0.94 20
  334.2772 0.30 6
  334.4695 0.20 4
  335.1483 2.68 58
  335.7169 0.22 5
  335.8475 0.27 6
  336.2069 1.32 28
  336.5011 0.15 3
  336.8333 0.32 7
  337.1963 1.69 36
  337.6942 0.17 4
  337.9393 0.41 9
  338.1760 0.63 14
  338.6156 0.13 3
  338.8060 0.20 4
  339.1663 1.14 25
  339.5611 0.13 3
  339.7304 0.07 2
  340.0479 0.42 9
  340.3030 0.36 8
  340.4252 0.13 3
  340.6177 0.06 1
  340.7266 0.13 3
  341.1335 1.45 31
  341.3295 0.53 11
  341.5347 0.13 3
  341.7420 0.10 2
  342.0758 0.42 9
  342.3696 0.19 4
  342.6472 0.20 4
  343.1729 0.75 16
  343.4203 0.37 8
  343.9771 0.27 6
  344.2295 0.52 11
  344.7898 0.26 6
  345.1006 0.61 13
  345.3235 0.48 10
  345.7587 0.04 1
  346.1476 0.43 9
  346.3361 0.22 5
  347.1681 0.97 21
  347.3903 0.35 8
  347.6766 0.06 1
  347.9509 0.40 9
  348.1760 0.72 15
  348.3687 0.15 3
  348.7501 0.40 9
  348.8809 0.29 6
  349.2094 0.75 16
  349.7526 0.22 5
  350.1277 0.43 9
  350.2832 0.39 8
  350.4500 0.36 8
  350.7884 0.16 3
  351.1664 1.52 33
  351.4915 0.10 2
  351.8462 0.17 4
  352.0799 0.29 6
  352.2777 0.50 11
  352.4529 0.17 4
  353.1590 1.33 29
  353.3125 0.68 15
  353.4617 0.13 3
  353.6419 0.23 5
  354.2003 0.45 10
  354.4200 0.13 3
  354.7621 0.13 3
  355.1804 0.97 21
  355.5381 0.13 3
  355.6473 0.06 1
  355.9135 0.12 3
  356.2213 0.34 7
  356.5495 0.09 2
  356.6946 0.12 3
  356.9489 0.60 13
  357.2468 0.72 15
  357.4370 0.37 8
  357.6004 0.17 4
  357.7998 0.13 3
  358.2739 1.40 30
  358.7896 0.10 2
  359.1747 0.56 12
  359.5420 0.12 3
  359.9015 0.23 5
  360.1351 0.34 7
  360.3237 0.30 6
  360.4560 0.14 3
  360.6066 0.11 2
  360.8500 0.25 5
  361.1308 0.61 13
  361.4243 0.32 7
  361.5411 0.15 3
  361.6734 0.10 2
  362.0246 0.36 8
  362.2295 0.33 7
  362.4258 0.31 7
  362.6708 0.11 2
  363.1241 0.54 12
  363.3888 0.26 6
  363.4726 0.13 3
  363.7344 0.03 1
  364.1653 0.69 15
  364.3181 0.50 11
  364.4997 0.14 3
  364.8645 0.18 4
  365.2102 0.83 18
  365.3489 0.39 8
  365.5510 0.18 4
  366.0468 0.48 10
  366.2115 0.43 9
  366.3707 0.09 2
  366.5292 0.12 3
  366.8637 0.12 3
  367.2109 1.58 34
  367.4159 0.34 7
  367.5230 0.19 4
  367.6420 0.29 6
  368.2288 0.60 13
  368.5986 0.14 3
  368.7705 0.14 3
  369.2235 1.66 36
  369.7914 0.11 2
  369.8865 0.12 3
  370.0175 0.11 2
  370.2712 0.45 10
  370.3924 0.31 7
  370.4819 0.16 3
  370.9597 0.22 5
  371.2613 0.89 19
  371.6482 0.09 2
  372.1239 0.12 3
  372.3276 0.15 3
  372.5658 0.16 3
  372.6716 0.06 1
  372.8379 0.12 3
  373.1959 0.62 13
  373.5155 0.39 8
  373.8126 0.06 1
  373.9808 0.18 4
  374.2512 0.34 7
  374.8764 0.23 5
  375.1017 0.53 11
  375.2200 0.62 13
  375.4186 0.37 8
  375.6953 0.11 2
  376.0537 0.12 3
  376.2573 0.31 7
  376.4383 0.16 3
  377.0679 0.49 11
  377.2193 0.77 17
  377.4419 0.29 6
  377.9610 0.09 2
  378.1237 0.13 3
  378.2836 0.40 9
  378.4717 0.14 3
  378.8500 0.22 5
  379.1931 0.70 15
  379.6136 0.11 2
  379.7581 0.11 2
  380.0096 0.12 3
  380.2252 0.29 6
  380.3189 0.16 3
  380.5641 0.22 5
  380.7847 0.31 7
  380.8854 0.24 5
  381.2117 0.90 19
  381.4640 0.39 8
  381.5824 0.11 2
  382.1285 0.43 9
  382.3223 0.22 5
  382.4414 0.31 7
  383.0116 0.83 18
  383.2069 1.21 26
  383.3824 0.78 17
  383.6573 0.29 6
  383.7701 0.15 3
  383.9103 0.06 1
  384.3051 0.33 7
  384.5624 0.05 1
  384.8437 0.15 3
  384.9501 0.06 1
  385.1891 0.91 20
  385.3450 0.65 14
  385.6841 0.17 4
  386.2051 0.41 9
  386.3300 0.21 5
  386.4745 0.09 2
  386.6057 0.14 3
  386.7192 0.32 7
  386.8468 0.11 2
  387.2184 1.28 28
  387.4018 0.49 11
  387.5809 0.13 3
  387.7748 0.10 2
  388.0083 0.16 3
  388.2311 0.31 7
  388.4167 0.13 3
  388.5563 0.21 5
  389.0169 0.10 2
  389.2440 0.52 11
  389.5156 0.11 2
  389.6418 0.06 1
  390.0439 0.10 2
  390.2520 0.45 10
  390.3762 0.13 3
  390.4785 0.10 2
  390.7882 0.13 3
  391.1783 0.61 13
  391.4732 0.26 6
  391.6729 0.32 7
  391.8881 0.18 4
  392.1174 0.21 5
  392.3072 0.29 6
  392.6600 0.06 1
  392.9522 0.11 2
  393.2401 0.86 19
  393.5901 0.18 4
  394.0877 0.32 7
  394.2697 0.11 2
  394.3904 0.44 9
  394.5401 0.20 4
  394.8859 0.09 2
  395.1795 0.88 19
  395.4527 0.60 13
  395.5960 0.17 4
  395.9864 0.17 4
  396.2497 0.58 12
  396.3937 0.24 5
  396.7742 0.12 3
  397.2924 0.75 16
  397.6172 0.14 3
  398.0380 0.28 6
  398.2399 0.30 6
  398.5012 0.10 2
  398.9517 0.28 6
  399.2935 0.64 14
  399.7539 0.18 4
  399.8987 0.31 7
  399.9898 0.13 3
  400.1035 0.14 3
  400.3041 0.22 5
  400.4333 0.22 5
  400.8274 0.10 2
  400.9948 0.16 3
  401.1778 0.32 7
  401.3635 0.57 12
  401.4885 0.14 3
  401.8509 0.11 2
  401.9731 0.32 7
  402.2677 0.82 18
  402.3864 0.38 8
  402.5057 0.14 3
  402.8596 0.12 3
  402.9981 0.38 8
  403.1656 0.60 13
  403.3153 0.75 16
  403.4969 0.14 3
  403.6559 0.09 2
  403.9180 0.15 3
  404.0452 0.23 5
  404.3101 0.68 15
  404.7630 0.13 3
  405.1633 0.48 10
  405.4870 0.29 6
  405.6605 0.18 4
  405.8530 0.17 4
  406.1245 0.37 8
  406.3114 0.22 5
  406.6408 0.17 4
  406.8770 0.05 1
  407.1923 0.85 18
  407.3842 0.41 9
  407.4780 0.22 5
  407.6875 0.24 5
  408.0726 0.06 1
  408.3449 0.13 3
  408.6553 0.13 3
  408.9685 0.32 7
  409.2585 0.76 16
  409.7086 0.06 1
  409.8497 0.13 3
  409.9831 0.16 3
  410.0854 0.15 3
  410.2582 0.33 7
  410.4967 0.18 4
  410.6611 0.11 2
  411.2475 0.74 16
  411.8007 0.12 3
  412.1903 0.24 5
  412.3709 0.16 3
  412.4598 0.13 3
  412.9122 0.19 4
  413.2715 0.68 15
  413.4296 0.24 5
  413.6561 0.12 3
  413.7796 0.11 2
  413.9116 0.11 2
  414.1643 0.85 18
  414.3697 0.72 15
  414.7460 0.07 2
  414.9408 0.34 7
  415.1801 1.39 30
  415.4328 0.18 4
  415.8091 0.15 3
  416.1826 0.98 21
  416.4699 0.51 11
  416.6641 0.12 3
  417.1901 1.97 42
  417.5975 0.12 3
  417.8213 0.13 3
  418.3629 0.27 6
  418.4653 0.10 2
  418.8396 0.28 6
  419.1955 0.36 8
  419.3961 0.18 4
  419.5740 0.28 6
  419.9370 0.12 3
  420.0281 0.13 3
  420.2287 0.58 12
  420.4950 0.16 3
  420.6574 0.14 3
  421.3327 0.57 12
  421.4994 0.33 7
  422.1367 0.15 3
  422.2475 0.14 3
  422.4395 0.25 5
  422.5326 0.07 2
  422.7930 0.14 3
  423.2369 0.43 9
  423.4662 0.16 3
  423.8029 0.11 2
  424.2271 0.42 9
  424.3689 0.20 4
  424.5115 0.08 2
  424.8926 0.16 3
  425.2561 0.96 21
  425.6451 0.18 4
  425.8836 0.16 3
  426.0693 0.24 5
  426.3298 0.46 10
  426.4801 0.20 4
  426.6079 0.12 3
  426.7971 0.23 5
  427.2292 1.42 31
  427.3958 0.89 19
  427.7551 0.26 6
  428.0961 0.15 3
  428.2508 0.27 6
  428.3199 0.12 3
  428.4407 0.25 5
  428.6045 0.11 2
  428.8665 0.29 6
  429.0084 0.14 3
  429.1425 0.37 8
  429.3395 0.38 8
  429.5048 0.14 3
  429.7435 0.14 3
  430.0873 0.30 6
  430.2222 0.21 5
  430.3529 0.28 6
  430.6693 0.04 1
  431.2350 0.57 12
  431.6029 0.29 6
  431.8367 0.29 6
  432.0401 0.23 5
  432.2280 0.36 8
  432.4137 0.08 2
  432.6609 0.16 3
  433.0141 0.48 10
  433.2840 0.56 12
  433.6449 0.06 1
  433.8788 0.07 2
  434.1352 0.32 7
  434.3323 0.23 5
  434.4835 0.14 3
  434.7144 0.27 6
  434.8416 0.11 2
  435.0670 0.54 12
  435.3432 0.61 13
  435.4782 0.36 8
  435.6838 0.23 5
  435.9636 0.42 9
  436.2066 0.39 8
  436.3253 0.16 3
  436.4751 0.17 4
  436.7111 0.10 2
  436.9245 0.15 3
  437.1711 0.83 18
  437.4029 0.53 11
  437.8008 0.23 5
  437.9866 0.12 3
  438.3202 0.26 6
  438.5647 0.19 4
  438.9145 0.20 4
  439.0870 0.36 8
  439.3167 0.84 18
  439.4658 0.60 13
  439.7782 0.21 5
  439.9818 0.13 3
  440.2715 0.30 6
  440.5034 0.17 4
  440.6235 0.04 1
  440.7423 0.12 3
  440.8511 0.13 3
  441.0279 0.59 13
  441.3459 1.01 22
  441.5609 0.12 3
  441.8627 0.18 4
  442.1582 0.66 14
  442.3243 0.61 13
  442.5046 0.33 7
  442.7280 0.16 3
  443.2243 1.11 24
  443.4548 0.31 7
  443.5630 0.04 1
  443.7814 0.37 8
  444.0346 0.45 10
  444.1823 0.30 6
  444.3499 0.25 5
  444.5677 0.14 3
  444.6914 0.20 4
  444.9828 0.24 5
  445.2253 0.42 9
  445.3971 0.22 5
  445.6856 0.16 3
  446.1481 0.42 9
  446.2606 0.21 5
  446.5024 0.20 4
  446.7521 0.10 2
  446.9989 0.12 3
  447.1637 0.29 6
  447.2945 0.24 5
  447.4162 0.27 6
  447.7253 0.27 6
  447.9120 0.13 3
  448.0428 0.31 7
  448.1602 0.25 5
  448.4043 0.14 3
  448.6731 0.32 7
  448.7622 0.20 4
  448.9532 0.27 6
  449.2587 0.50 11
  449.4059 0.36 8
  449.5502 0.10 2
  449.6810 0.14 3
  450.0305 0.26 6
  450.2646 0.28 6
  450.5222 0.12 3
  450.6240 0.14 3
  450.8618 0.12 3
  451.2502 0.86 19
  451.4440 0.74 16
  451.8572 0.11 2
  451.9626 0.23 5
  452.1607 0.10 2
  452.4409 0.42 9
  453.0268 0.55 12
  453.3509 1.16 25
  453.7089 0.08 2
  453.8136 0.14 3
  453.9920 0.04 1
  454.3401 0.70 15
  454.4774 0.14 3
  454.6784 0.11 2
  454.8383 0.08 2
  455.0471 0.11 2
  455.1512 0.13 3
  455.3783 0.44 9
  455.5383 0.17 4
  455.6267 0.12 3
  455.8511 0.20 4
  456.0542 0.28 6
  456.2375 0.11 2
  456.3840 0.33 7
  456.5651 0.21 5
  456.8257 0.28 6
  457.3372 0.93 20
  457.5964 0.14 3
  457.7215 0.24 5
  458.0676 0.13 3
  458.3008 0.46 10
  458.5678 0.19 4
  458.9175 0.20 4
  459.0673 0.24 5
  459.1620 0.13 3
  459.3146 0.36 8
  459.4658 0.14 3
  459.6778 0.27 6
  459.8325 0.17 4
  460.0607 0.45 10
  460.2169 0.60 13
  460.3342 0.35 8
  460.4818 0.46 10
  460.9023 1.01 22
  461.2923 0.62 13
  461.5291 0.36 8
  461.6753 0.15 3
  461.8513 0.19 4
  462.0216 0.39 8
  462.2216 0.17 4
  462.3382 0.11 2
  462.5983 0.20 4
  462.9474 0.10 2
  463.1848 0.72 15
  463.3877 0.46 10
  463.6973 0.60 13
  463.9149 0.24 5
  464.0782 0.28 6
  464.1991 0.16 3
  464.4620 0.40 9
  464.8013 0.36 8
  465.3491 0.38 8
  465.7965 0.35 8
  466.1535 0.30 6
  466.3281 0.25 5
  466.6908 0.37 8
  466.8923 0.35 8
  466.9821 0.14 3
  467.2316 0.54 12
  467.4578 0.92 20
  467.6105 0.22 5
  467.9753 0.33 7
  468.3536 1.14 25
  468.5579 0.46 10
  468.6895 0.21 5
  468.9489 0.12 3
  469.2254 0.92 20
  469.3859 0.92 20
  469.5584 0.35 8
  469.7387 0.15 3
  470.0987 0.89 19
  470.3546 0.80 17
  470.7535 0.14 3
  471.2640 0.88 19
  471.5971 0.11 2
  471.7810 0.14 3
  472.1551 0.16 3
  472.3192 0.18 4
  472.7287 0.17 4
  473.0399 0.24 5
  473.4013 0.34 7
  473.6779 0.12 3
  473.8073 0.20 4
  474.0266 0.16 3
  474.1815 0.11 2
  474.3251 0.25 5
  474.4743 0.14 3
  474.7091 0.15 3
  474.9242 0.09 2
  475.3458 0.37 8
  475.5750 0.24 5
  475.7497 0.17 4
  475.9528 0.14 3
  476.2513 0.36 8
  476.5357 0.22 5
  476.8250 0.40 9
  477.3125 0.87 19
  477.7059 0.34 7
  477.8438 0.22 5
  478.2075 0.65 14
  478.4608 0.82 18
  478.6624 0.41 9
  478.8917 0.37 8
  479.0417 0.48 10
  479.2752 0.30 6
  479.5611 0.31 7
  479.7012 0.11 2
  479.8484 0.20 4
  480.0041 0.19 4
  480.1378 0.36 8
  480.4209 0.50 11
  480.6218 0.32 7
  480.7676 0.13 3
  480.9396 0.33 7
  481.2842 1.20 26
  481.4031 0.71 15
  481.5503 0.54 12
  481.7258 0.50 11
  481.9388 0.06 1
  482.1186 0.06 1
  482.2460 0.27 6
  482.3741 0.22 5
  482.5256 0.30 6
  482.7853 0.22 5
  483.0146 0.15 3
  483.3622 0.66 14
  483.7769 0.13 3
  484.1532 0.55 12
  484.3695 0.64 14
  484.5822 0.29 6
  485.3483 1.10 24
  485.6176 0.31 7
  485.7851 0.20 4
  485.9173 0.11 2
  486.2085 0.53 11
  486.5167 0.39 8
  486.7506 0.10 2
  487.0009 0.40 9
  487.1592 0.08 2
  487.2977 0.22 5
  487.6462 0.28 6
  488.0067 0.33 7
  488.1842 0.15 3
  488.3291 0.11 2
  488.4613 0.11 2
  488.6741 0.12 3
  488.9915 0.09 2
  489.5231 0.20 4
  489.7140 0.14 3
  489.9325 0.08 2
  490.4882 0.10 2
  490.6423 0.10 2
  490.7604 0.17 4
  490.9470 0.22 5
  491.2362 0.52 11
  491.3373 0.23 5
  491.5516 0.43 9
  491.8245 0.25 5
  491.9384 0.17 4
  492.1816 0.27 6
  492.4630 0.16 3
  492.5776 0.23 5
  492.8003 0.18 4
  492.9064 0.13 3
  493.3505 0.65 14
  493.8002 0.21 5
  494.3179 0.46 10
  494.6269 0.30 6
  495.2238 1.33 29
  495.5534 0.84 18
  495.6588 0.46 10
  496.2791 2.93 63
  496.4976 1.16 25
  496.7021 0.43 9
  496.9935 0.36 8
  497.1745 0.38 8
  497.3592 0.53 11
  497.6117 0.15 3
  498.0757 0.38 8
  498.3785 0.31 7
  498.5928 0.15 3
  498.7244 0.11 2
  498.9012 0.17 4
  499.1453 0.30 6
  499.3412 0.10 2
  499.5662 0.18 4
  499.7891 0.14 3
  499.9879 0.12 3
  500.0961 0.16 3
  500.3402 0.26 6
  500.4590 0.11 2
  500.5913 0.18 4
  500.7151 0.26 6
  500.8581 0.11 2
  500.9649 0.13 3
  501.1234 0.15 3
  501.3080 0.49 11
  501.6045 0.31 7
  501.8033 0.15 3
  502.1592 0.15 3
  502.2781 0.09 2
  502.4239 0.25 5
  502.6326 0.14 3
  502.7005 0.06 1
  503.0444 0.31 7
  503.2928 0.49 11
  503.4456 0.11 2
  503.6126 0.18 4
  503.8589 0.18 4
  504.0287 0.15 3
  504.2233 0.23 5
  504.3309 0.31 7
  504.5686 0.30 6
  504.7519 0.42 9
  504.9720 0.30 6
  505.1511 0.16 3
  505.3181 0.34 7
  505.4525 0.17 4
  505.6019 0.42 9
  505.9487 0.10 2
  506.1001 0.17 4
  506.2728 0.12 3
  506.5021 0.14 3
  507.1519 0.46 10
  507.4102 0.44 9
  507.5624 0.38 8
  507.7839 0.54 12
  507.9163 0.17 4
  508.1690 0.26 6
  508.2914 0.31 7
  508.3679 0.15 3
  508.6715 0.20 4
  508.8889 0.13 3
  509.2173 0.56 12
  509.3851 0.84 18
  509.6066 0.18 4
  510.0080 0.56 12
  510.3095 0.69 15
  510.6168 0.26 6
  510.7870 0.16 3
  511.3430 1.74 37
  511.6969 0.19 4
  511.8699 0.28 6
  512.3503 1.29 28
  512.5417 0.43 9
  512.7155 0.18 4
  512.8130 0.24 5
  513.3231 0.67 14
  513.6396 0.29 6
  513.7435 0.15 3
  513.9759 0.24 5
  514.1928 0.45 10
  514.4881 0.28 6
  514.7170 0.18 4
  515.1819 0.13 3
  515.3268 0.13 3
  515.4964 0.27 6
  515.8793 0.10 2
  516.1677 0.24 5
  516.4899 0.12 3
  516.6608 0.11 2
  516.8396 0.10 2
  516.9407 0.12 3
  517.0375 0.09 2
  517.2007 0.22 5
  517.3766 0.13 3
  517.6713 0.22 5
  517.8077 0.12 3
  518.2918 0.13 3
  518.4452 0.22 5
  518.5922 0.13 3
  519.0275 0.27 6
  519.1476 0.17 4
  519.4417 0.46 10
  519.8042 0.09 2
  519.9399 0.14 3
  520.0297 0.12 3
  520.1929 0.28 6
  520.3272 0.25 5
  520.4982 0.26 6
  520.6155 0.10 2
  520.8912 0.29 6
  521.0474 0.16 3
  521.2531 0.19 4
  521.5422 0.43 9
  521.7599 0.27 6
  521.8921 0.05 1
  522.0949 0.33 7
  522.2625 0.47 10
  522.6385 0.35 8
  522.7382 0.19 4
  522.9623 0.30 6
  523.1524 0.63 14
  523.4677 0.65 14
  523.8261 0.53 11
  524.0247 0.71 15
  524.2524 0.76 16
  524.4694 0.43 9
  524.6285 0.34 7
  524.8292 0.39 8
  525.3602 0.98 21
  525.7816 0.54 12
  525.9215 0.26 6
  526.0311 0.10 2
  526.3875 0.81 17
  526.6469 0.53 11
  526.7275 0.34 7
  526.9743 0.54 12
  527.2691 0.88 19
  527.4586 0.77 17
  527.8659 0.58 12
  528.1105 0.47 10
  528.3510 0.84 18
  528.6111 0.60 13
  528.8148 0.38 8
  528.9824 0.45 10
  529.0948 0.31 7
  529.3848 0.66 14
  529.7985 0.48 10
  530.1725 0.46 10
  530.3479 0.55 12
  530.6223 1.03 22
  530.8974 0.71 15
  531.0261 0.52 11
  531.2375 0.74 16
  531.4327 0.30 6
  531.6082 0.38 8
  531.8239 0.46 10
  532.1223 0.55 12
  532.4328 0.48 10
  532.6393 0.23 5
  532.8452 0.48 10
  533.1988 0.43 9
  533.4598 0.34 7
  533.6670 0.84 18
  533.8304 0.47 10
  534.3680 0.92 20
  534.7910 0.43 9
  535.2217 0.54 12
  535.3774 0.45 10
  535.5549 0.42 9
  535.8506 0.63 14
  536.0833 0.42 9
  536.2708 0.49 11
  536.5382 0.35 8
  537.4197 3.43 74
  537.8434 0.58 12
  538.0345 0.30 6
  538.3082 0.40 9
  538.6287 0.15 3
  538.8523 0.30 6
  539.0427 0.40 9
  539.2960 0.55 12
  539.6646 0.31 7
  540.3537 1.16 25
  540.5447 0.67 14
  541.1476 0.97 21
  541.5248 0.95 20
  541.7788 0.21 5
  542.4412 1.03 22
  542.8806 0.77 17
  543.4022 1.06 23
  543.7093 0.58 12
  543.9435 0.79 17
  544.6718 1.25 27
  545.4567 1.00 22
  545.7978 1.59 34
  546.2239 1.19 26
  546.6138 0.98 21
  546.9755 1.62 35
  548.0543 1.73 37
  548.6624 1.93 42
  549.8863 2.43 52
  550.4625 2.74 59
  551.4714 5.53 119
  552.4774 41.41 891
  553.3907 3.77 81
  554.3405 2.55 55
  555.4307 24.26 522
  555.9224 1.90 41
  556.2079 0.95 20
  556.4531 1.25 27
  556.6919 0.82 18
  557.0777 1.32 28
  557.5900 0.84 18
  558.2613 0.64 14
  558.8075 1.03 22
  559.3312 1.15 25
  559.5594 0.92 20
  560.1806 1.20 26
  560.6866 0.90 19
  561.1149 1.42 31
  561.5085 1.30 28
  561.7100 1.09 23
  562.0768 1.47 32
  562.6203 1.54 33
  562.8217 1.57 34
  563.1921 1.40 30
  563.7688 1.74 37
  570.3327 99.96 999
  571.0214 26.26 565
  571.5778 13.43 289
  572.1782 5.60 120
  572.9093 2.73 59
  573.6978 1.98 43
  574.4226 1.49 32
  574.7727 1.57 34
  575.1340 0.84 18
  575.4148 0.64 14
  575.7925 1.37 29
//
