ACCESSION: MSBNK-Kyoto_Univ-CA000163
RECORD_TITLE: gamma-Carotene; FAB-EBEB; MS2; m/z: 536.44; [M]*+
DATE: 2016.01.19 (Created 2007.03.15, modified 2011.05.10)
AUTHORS: Akimoto N, Graduate School of Pharmaceutical Sciences, Kyoto University and Maoka T, Research Institute for Production Development
LICENSE: CC BY-SA
COMMENT: Profile spectrum of this record is given as a JPEG file.
COMMENT: [Profile] CA000163.jpg
CH$NAME: gamma-Carotene
CH$COMPOUND_CLASS: Natural Product; Carotenoid
CH$FORMULA: C40H56
CH$EXACT_MASS: 536.43820
CH$SMILES: C(=CC(=C(C)1)C(C)(C)CCC1)C(C)=CC=CC(=CC=CC=C(C=CC=C(C)C=CC=C(CCC=C(C)C)C)C)C
CH$IUPAC: InChI=1S/C40H56/c1-32(2)18-13-21-35(5)24-15-26-36(6)25-14-22-33(3)19-11-12-20-34(4)23-16-27-37(7)29-30-39-38(8)28-17-31-40(39,9)10/h11-12,14-16,18-20,22-27,29-30H,13,17,21,28,31H2,1-10H3/b12-11+,22-14+,23-16+,26-15+,30-29+,33-19+,34-20+,35-24+,36-25+,37-27+
CH$LINK: CHEBI CHEBI:27740
CH$LINK: CHEMSPIDER 4444349
CH$LINK: KEGG C05435
CH$LINK: PUBCHEM CID:5280791
CH$LINK: INCHIKEY HRQKOYFGHJYEFS-BXOLYSJBSA-N
CH$LINK: COMPTOX DTXSID70897429
AC$INSTRUMENT: JMS-HX/HX 110A, JEOL
AC$INSTRUMENT_TYPE: FAB-EBEB
AC$MASS_SPECTROMETRY: MS_TYPE MS2
AC$MASS_SPECTROMETRY: ION_MODE POSITIVE
AC$MASS_SPECTROMETRY: ATOM_GUN_CURRENT 5 mA
AC$MASS_SPECTROMETRY: BOMBARDMENT 6 kV xenon
AC$MASS_SPECTROMETRY: COLLISION_ENERGY 3 kV
AC$MASS_SPECTROMETRY: COLLISION_GAS Ar
AC$MASS_SPECTROMETRY: GAS_PRESSURE adjust to attenuate the intensity of the precursor ion by 30 %
AC$MASS_SPECTROMETRY: IONIZATION FAB
AC$MASS_SPECTROMETRY: MATRIX 1-2 uL m-NBA
AC$MASS_SPECTROMETRY: PROBE_TIP stainless-steel
MS$FOCUSED_ION: BASE_PEAK 536.4249
MS$FOCUSED_ION: PRECURSOR_M/Z 536.44
MS$FOCUSED_ION: PRECURSOR_TYPE [M]+*
PK$SPLASH: splash10-000i-1930150000-4634e09eba2fd5438723
PK$NUM_PEAK: 1263
PK$PEAK: m/z int. rel.int.
  6.1300 0.01 0
  7.2247 0.02 0
  13.9551 0.06 1
  14.9686 0.12 1
  22.9135 0.05 0
  24.9369 0.05 0
  25.9406 0.25 2
  26.9514 0.42 4
  27.8859 0.02 0
  27.9618 0.03 0
  28.9488 0.46 5
  35.9495 0.04 0
  36.9381 0.25 2
  37.9240 0.20 2
  38.9435 0.55 5
  39.9567 0.07 1
  40.9553 0.89 9
  41.9982 0.04 0
  42.9275 0.12 1
  42.9905 0.06 1
  47.8852 0.07 1
  48.9347 0.10 1
  49.9328 0.10 1
  50.9436 0.07 1
  51.9396 0.06 1
  52.9430 0.29 3
  54.9682 0.91 9
  55.3417 0.01 0
  56.9745 0.03 0
  58.0478 0.01 0
  59.9952 0.07 1
  61.8697 0.10 1
  61.9749 0.11 1
  62.9287 0.19 2
  64.7820 0.11 1
  64.9537 0.46 5
  65.8979 0.01 0
  66.9678 0.49 5
  67.1709 0.04 0
  67.8918 0.02 0
  67.9985 0.04 0
  68.5265 0.07 1
  68.7140 0.02 0
  68.9764 4.40 44
  69.9642 0.09 1
  71.9693 0.03 0
  73.8804 0.08 1
  74.9055 0.18 2
  75.8932 0.21 2
  76.6190 0.19 2
  76.9240 1.50 15
  77.3292 0.04 0
  77.9197 0.35 3
  78.0083 0.10 1
  78.2325 0.02 0
  78.4918 0.02 0
  78.7813 0.13 1
  78.9472 1.74 17
  79.1648 0.04 0
  79.9581 0.35 3
  80.7392 0.02 0
  80.9618 2.49 25
  82.4116 0.08 1
  82.9700 0.44 4
  85.0275 0.10 1
  85.9188 0.10 1
  86.7216 0.02 0
  86.9594 0.07 1
  87.8209 0.13 1
  87.9180 0.04 0
  87.9862 0.01 0
  88.7006 0.03 0
  88.9004 0.26 3
  88.9983 0.12 1
  89.5548 0.04 0
  89.6733 0.05 0
  89.9277 0.02 0
  90.0235 0.06 1
  90.1337 0.02 0
  90.4414 0.11 1
  90.9202 6.55 65
  91.0861 0.22 2
  91.5850 0.03 0
  91.9281 0.61 6
  92.2869 0.06 1
  92.4510 0.07 1
  92.6133 0.02 0
  92.9495 4.96 50
  93.9526 0.33 3
  94.4664 0.07 1
  94.9652 3.66 37
  95.4513 0.03 0
  96.0031 0.02 0
  96.9882 0.19 2
  97.3256 0.01 0
  98.2976 0.11 1
  98.8739 0.04 0
  100.9443 0.27 3
  101.2126 0.05 0
  101.4121 0.10 1
  101.9106 0.55 5
  102.4710 0.07 1
  102.5727 0.09 1
  102.9090 1.34 13
  103.2192 0.10 1
  103.4306 0.03 0
  103.5167 0.03 0
  103.6403 0.01 0
  103.9432 0.65 6
  104.0698 0.09 1
  104.3038 0.11 1
  104.3906 0.09 1
  104.5109 0.10 1
  104.9446 12.93 129
  105.3348 0.05 0
  105.7212 0.13 1
  105.9606 0.80 8
  106.1372 0.10 1
  106.4513 0.11 1
  106.9636 6.28 63
  107.1353 0.12 1
  107.3522 0.05 0
  107.4822 0.07 1
  107.8388 0.09 1
  107.9878 0.32 3
  108.6310 0.02 0
  108.9552 1.65 16
  109.4655 0.04 0
  109.7465 0.01 0
  110.1747 0.03 0
  110.9142 0.10 1
  111.0029 0.19 2
  112.0348 0.02 0
  112.4337 0.01 0
  112.5487 0.05 0
  112.6578 0.06 1
  112.8755 0.04 0
  112.9734 0.05 0
  113.0844 0.07 1
  113.2096 0.04 0
  113.2992 0.07 1
  113.4120 0.09 1
  113.5349 0.13 1
  113.6561 0.10 1
  113.8794 0.19 2
  114.1718 0.04 0
  114.2788 0.02 0
  114.3787 0.09 1
  114.8855 5.43 54
  115.3283 0.09 1
  115.8864 1.37 14
  116.1242 0.11 1
  116.2732 0.08 1
  116.8965 4.66 47
  117.1168 0.06 1
  117.7504 0.35 3
  117.9481 1.42 14
  118.2984 0.10 1
  118.5998 0.20 2
  118.9342 12.44 124
  119.2916 0.13 1
  119.7180 0.20 2
  119.9432 0.83 8
  120.1788 0.08 1
  120.4180 0.14 1
  120.5223 0.14 1
  120.6111 0.11 1
  120.9572 3.84 38
  121.7533 0.02 0
  121.9876 0.21 2
  122.1432 0.06 1
  122.7685 0.16 2
  122.9676 1.59 16
  123.6218 0.02 0
  123.9283 0.04 0
  124.1163 0.15 1
  124.6641 0.10 1
  124.8788 0.06 1
  125.0567 0.05 0
  125.2057 0.01 0
  125.4561 0.11 1
  125.8098 0.28 3
  125.9771 0.10 1
  126.2712 0.12 1
  126.4059 0.08 1
  126.9076 1.70 17
  127.0757 0.25 2
  127.2619 0.11 1
  127.8651 7.06 71
  128.2986 0.04 0
  128.4427 0.11 1
  128.8850 8.29 83
  129.3147 0.04 0
  129.5373 0.07 1
  129.8970 3.75 37
  130.2435 0.11 1
  130.3715 0.05 0
  130.9132 9.13 91
  131.3397 0.12 1
  131.4861 0.02 0
  131.9080 2.04 20
  132.1647 0.08 1
  132.3892 0.16 2
  132.9369 9.73 97
  133.1678 0.06 1
  133.5524 0.01 0
  133.9433 0.43 4
  134.9581 1.46 15
  135.9503 0.19 2
  136.9899 0.76 8
  137.4098 0.07 1
  137.5757 0.10 1
  137.8849 0.23 2
  138.8740 0.88 9
  139.0935 0.11 1
  139.5897 0.13 1
  139.9622 0.41 4
  140.0825 0.29 3
  140.1752 0.18 2
  140.3557 0.19 2
  140.8753 5.54 55
  141.1001 0.08 1
  141.1886 0.05 0
  141.4425 0.12 1
  141.8931 5.81 58
  142.3144 0.14 1
  142.4928 0.06 1
  142.9046 9.26 93
  143.1644 0.07 1
  143.3158 0.03 0
  143.4236 0.07 1
  143.6964 0.24 2
  143.9330 3.46 35
  144.1271 0.14 1
  144.4803 0.21 2
  144.9335 11.43 114
  145.4245 0.11 1
  145.5893 0.14 1
  145.9355 0.99 10
  146.3368 0.02 0
  146.9552 2.68 27
  147.2172 0.15 1
  147.5874 0.16 2
  147.7692 0.05 0
  147.9133 0.16 2
  148.0246 0.17 2
  148.1848 0.03 0
  148.4323 0.08 1
  148.5944 0.07 1
  148.7175 0.06 1
  148.8079 0.07 1
  149.0028 0.48 5
  149.7075 0.08 1
  149.8983 0.04 0
  150.4529 0.05 0
  150.6649 0.14 1
  150.9191 0.48 5
  151.2589 0.10 1
  151.4214 0.03 0
  151.6001 0.27 3
  151.9109 1.78 18
  152.2585 0.17 2
  152.8875 3.41 34
  153.9084 1.49 15
  154.0819 0.12 1
  154.4966 0.06 1
  154.9277 6.49 65
  155.1586 0.08 1
  155.3863 0.12 1
  155.9410 4.37 44
  156.4741 0.20 2
  156.9564 10.47 105
  157.3066 0.18 2
  157.5124 0.20 2
  157.5903 0.05 0
  157.9732 1.24 12
  158.5402 0.13 1
  158.9752 5.04 50
  159.2842 0.08 1
  159.7856 0.06 1
  160.0061 0.44 4
  161.0054 1.15 11
  161.2767 0.09 1
  161.5262 0.09 1
  161.6225 0.09 1
  161.8952 0.14 1
  162.0548 0.18 2
  162.1987 0.05 0
  162.4722 0.02 0
  162.5929 0.06 1
  162.7137 0.10 1
  162.9566 0.46 5
  163.1138 0.17 2
  163.2879 0.09 1
  163.3699 0.05 0
  163.6104 0.11 1
  163.9080 0.44 4
  164.0702 0.12 1
  164.2275 0.21 2
  164.4362 0.12 1
  164.6970 0.64 6
  164.9518 6.04 60
  165.2968 0.05 0
  165.5744 0.10 1
  165.6757 0.26 3
  165.9671 1.66 17
  166.1767 0.15 1
  166.3287 0.11 1
  166.5314 0.08 1
  166.7173 0.55 5
  166.9620 4.43 44
  167.2299 0.09 1
  167.4183 0.09 1
  167.9424 1.46 15
  168.1967 0.14 1
  168.5081 0.10 1
  168.9656 6.66 67
  169.2195 0.11 1
  169.5066 0.13 1
  169.6960 0.18 2
  169.9788 2.51 25
  170.2893 0.13 1
  170.5127 0.11 1
  170.9795 5.69 57
  171.3091 0.16 2
  171.5307 0.20 2
  171.9992 1.18 12
  172.2127 0.04 0
  172.4112 0.06 1
  172.5708 0.11 1
  172.9943 3.54 35
  173.2168 0.04 0
  173.3790 0.03 0
  173.9562 0.44 4
  174.0801 0.19 2
  174.3883 0.10 1
  175.0080 1.57 16
  175.2705 0.11 1
  175.7508 0.09 1
  175.9680 0.43 4
  176.1173 0.10 1
  176.2980 0.02 0
  176.6211 0.11 1
  176.7182 0.29 3
  177.0092 0.70 7
  177.2222 0.11 1
  177.4939 0.17 2
  177.9074 3.41 34
  178.2611 0.11 1
  178.3481 0.08 1
  178.6086 0.31 3
  178.9391 5.34 53
  179.3208 0.14 1
  179.7310 0.18 2
  179.9627 2.31 23
  180.2708 0.17 2
  180.4027 0.08 1
  180.6774 0.42 4
  180.9585 4.80 48
  181.1688 0.14 1
  181.3407 0.08 1
  181.9593 2.12 21
  182.3309 0.08 1
  182.5535 0.11 1
  182.9651 6.35 63
  183.2004 0.16 2
  183.6976 0.11 1
  183.9861 1.10 11
  184.2639 0.14 1
  184.4322 0.05 0
  184.6304 0.17 2
  184.9925 3.14 31
  185.2540 0.05 0
  185.3774 0.05 0
  185.5168 0.07 1
  185.6029 0.04 0
  185.9899 0.64 6
  186.3042 0.06 1
  186.4651 0.14 1
  186.6438 0.04 0
  186.7617 0.08 1
  187.0120 1.19 12
  187.2941 0.04 0
  187.4158 0.08 1
  187.7202 0.11 1
  188.0607 0.17 2
  188.3125 0.12 1
  188.5143 0.06 1
  188.9184 1.02 10
  189.0263 0.53 5
  189.4610 0.12 1
  189.6184 0.03 0
  189.9066 0.91 9
  190.1206 0.25 2
  190.2235 0.11 1
  190.6343 0.23 2
  190.9424 1.80 18
  191.3401 0.06 1
  191.9495 2.01 20
  192.1364 0.10 1
  192.6469 0.65 6
  192.9540 3.39 34
  193.3406 0.12 1
  193.4596 0.08 1
  193.9437 1.94 19
  194.2975 0.03 0
  194.5018 0.04 0
  194.9530 4.35 43
  195.2586 0.02 0
  195.9775 1.68 17
  196.2877 0.11 1
  196.3865 0.15 1
  196.6604 0.53 5
  196.9962 5.61 56
  197.2530 0.09 1
  197.4729 0.10 1
  197.9733 1.09 11
  198.2169 0.04 0
  198.3342 0.10 1
  198.5242 0.08 1
  198.6122 0.03 0
  199.0274 1.64 16
  199.1914 0.26 3
  199.2743 0.12 1
  199.3770 0.12 1
  199.7809 0.12 1
  199.9685 0.42 4
  200.1517 0.12 1
  200.6393 0.12 1
  201.0058 1.23 12
  201.2823 0.11 1
  201.5978 0.02 0
  201.9178 1.25 12
  202.4090 0.08 1
  202.5387 0.12 1
  202.9765 1.60 16
  203.3964 0.06 1
  203.4891 0.08 1
  203.6630 0.17 2
  203.7876 0.25 2
  203.9858 0.78 8
  204.2672 0.06 1
  204.9272 1.85 18
  205.2727 0.08 1
  205.5363 0.11 1
  205.9830 1.92 19
  206.3439 0.07 1
  206.4630 0.04 0
  206.6314 0.13 1
  206.9867 3.48 35
  207.4317 0.12 1
  207.7020 0.30 3
  208.0005 1.61 16
  208.2228 0.13 1
  208.5015 0.14 1
  209.0038 4.08 41
  209.2083 0.16 2
  209.5211 0.10 1
  209.6531 0.23 2
  209.9980 1.18 12
  210.2500 0.09 1
  210.4392 0.14 1
  210.8092 0.32 3
  211.0267 2.22 22
  211.7054 0.13 1
  212.0198 0.32 3
  212.1469 0.11 1
  212.7175 0.17 2
  213.0307 0.81 8
  213.4391 0.04 0
  213.7672 0.13 1
  213.8988 0.16 2
  214.0633 0.16 2
  214.3819 0.15 1
  214.9523 1.16 12
  215.1322 0.19 2
  215.3379 0.05 0
  215.5911 0.13 1
  215.6958 0.10 1
  215.8302 0.07 1
  216.0050 0.78 8
  216.5225 0.10 1
  216.6794 0.16 2
  216.9996 1.72 17
  217.2047 0.14 1
  217.5977 0.10 1
  217.9631 0.99 10
  218.1779 0.15 1
  218.3066 0.11 1
  218.6734 0.04 0
  218.9919 1.34 13
  219.4270 0.09 1
  219.6987 0.16 2
  219.8030 0.15 1
  220.0090 0.62 6
  220.1732 0.18 2
  220.5422 0.14 1
  221.0084 2.54 25
  221.7570 0.09 1
  221.8588 0.05 0
  222.0508 0.88 9
  222.3272 0.13 1
  222.7822 0.13 1
  223.0575 2.16 22
  223.4223 0.07 1
  223.6480 0.12 1
  223.8066 0.10 1
  223.9994 0.44 4
  224.1593 0.16 2
  224.4432 0.10 1
  224.5963 0.10 1
  224.8413 0.05 0
  225.0825 0.92 9
  225.6132 0.08 1
  225.8114 0.21 2
  225.9587 0.39 4
  226.0906 0.52 5
  226.4439 0.10 1
  226.6891 0.22 2
  227.0438 0.85 8
  227.6959 0.10 1
  227.9631 0.63 6
  228.0784 0.46 5
  228.7810 0.38 4
  228.9846 0.99 10
  229.6662 0.14 1
  229.9735 0.53 5
  230.4865 0.11 1
  230.9964 1.31 13
  231.4844 0.07 1
  231.6804 0.10 1
  231.8151 0.16 2
  232.0654 0.83 8
  232.4652 0.06 1
  233.0006 1.87 19
  233.3322 0.07 1
  233.5367 0.14 1
  233.6496 0.23 2
  233.8696 0.23 2
  234.0426 0.47 5
  235.0333 1.44 14
  235.3890 0.17 2
  235.5227 0.02 0
  235.6641 0.13 1
  235.7570 0.06 1
  236.0612 0.52 5
  236.2252 0.17 2
  236.4765 0.14 1
  237.0488 1.36 14
  237.7568 0.19 2
  238.0347 0.39 4
  238.1827 0.14 1
  238.4354 0.11 1
  238.5207 0.09 1
  238.6273 0.12 1
  238.7592 0.09 1
  239.0578 0.62 6
  239.7140 0.25 2
  239.8188 0.07 1
  239.9746 0.09 1
  240.1252 0.10 1
  240.6905 0.20 2
  240.8218 0.25 2
  241.0469 0.73 7
  241.3153 0.16 2
  241.7436 0.04 0
  242.0393 0.34 3
  242.3939 0.14 1
  242.7142 0.04 0
  243.0411 1.09 11
  243.1900 0.19 2
  243.6354 0.17 2
  243.7357 0.04 0
  243.9060 0.28 3
  244.0296 0.33 3
  244.3204 0.10 1
  244.6772 0.13 1
  245.0386 0.69 7
  245.5555 0.12 1
  245.7077 0.10 1
  246.0472 0.61 6
  246.4327 0.11 1
  247.0392 1.32 13
  247.3866 0.03 0
  247.5325 0.11 1
  247.9441 0.31 3
  248.0763 0.41 4
  248.8194 0.13 1
  249.0800 1.05 10
  249.4341 0.02 0
  249.6520 0.09 1
  249.8939 0.16 2
  250.0632 0.39 4
  250.1728 0.22 2
  251.0571 0.72 7
  251.3205 0.10 1
  251.6988 0.10 1
  252.0084 0.31 3
  252.1563 0.43 4
  252.7042 0.09 1
  252.7827 0.05 0
  253.0878 0.99 10
  253.4092 0.08 1
  253.7553 0.13 1
  254.0858 0.22 2
  254.6333 0.13 1
  254.7580 0.07 1
  255.0152 0.75 7
  255.1724 0.64 6
  255.7194 0.14 1
  255.9787 0.26 3
  256.0820 0.10 1
  257.0308 0.50 5
  257.7588 0.04 0
  258.0240 0.27 3
  258.7750 0.14 1
  259.0553 0.77 8
  259.6530 0.05 0
  259.8624 0.13 1
  260.0849 0.21 2
  260.1733 0.12 1
  260.6841 0.10 1
  261.0601 0.91 9
  261.6288 0.11 1
  261.9901 0.24 2
  262.1131 0.45 4
  262.4255 0.11 1
  262.6188 0.19 2
  262.7021 0.12 1
  263.0713 1.12 11
  263.1637 0.36 4
  263.4853 0.10 1
  263.7061 0.11 1
  264.1111 0.30 3
  265.0607 0.71 7
  265.7812 0.05 0
  265.9037 0.06 1
  266.1604 0.30 3
  266.3239 0.06 1
  266.6002 0.12 1
  266.7820 0.15 1
  266.8912 0.10 1
  267.1025 0.83 8
  267.2527 0.23 2
  267.3607 0.05 0
  267.5011 0.17 2
  268.0786 0.35 3
  268.5592 0.08 1
  269.1167 0.84 8
  269.6990 0.07 1
  270.0035 0.23 2
  270.1902 0.21 2
  270.8482 0.13 1
  271.0818 0.37 4
  271.3474 0.13 1
  271.4086 0.06 1
  271.9482 0.14 1
  272.0973 0.26 3
  272.6703 0.08 1
  273.0388 0.60 6
  273.4921 0.03 0
  273.6686 0.21 2
  274.0900 0.20 2
  274.3232 0.07 1
  274.7746 0.08 1
  274.8574 0.06 1
  275.0450 0.90 9
  275.1740 0.35 3
  275.9807 0.31 3
  276.1143 0.40 4
  276.6030 0.12 1
  277.0652 0.48 5
  277.1714 0.21 2
  277.5540 0.06 1
  278.1206 0.17 2
  278.4068 0.10 1
  278.5268 0.08 1
  278.7309 0.10 1
  279.0276 0.34 3
  279.1496 0.22 2
  279.9713 0.16 2
  280.0894 0.30 3
  280.3895 0.02 0
  280.6739 0.09 1
  280.9773 0.27 3
  281.2069 0.56 6
  281.6807 0.08 1
  282.0663 0.22 2
  282.2079 0.11 1
  282.6339 0.12 1
  282.7708 0.11 1
  283.0863 0.27 3
  284.0787 0.15 1
  284.5861 0.12 1
  284.7915 0.11 1
  285.0276 0.32 3
  286.0948 0.10 1
  286.2932 0.11 1
  286.8471 0.27 3
  287.0657 0.51 5
  287.5995 0.06 1
  287.8847 0.13 1
  288.0622 0.20 2
  288.2097 0.11 1
  288.5002 0.01 0
  289.0616 0.37 4
  289.2588 0.12 1
  289.8124 0.12 1
  289.9090 0.10 1
  290.0520 0.13 1
  290.3263 0.11 1
  290.7227 0.19 2
  290.9147 0.14 1
  291.0753 0.61 6
  291.2229 0.15 1
  291.2856 0.07 1
  291.8193 0.12 1
  292.0544 0.15 1
  292.1550 0.09 1
  292.7365 0.19 2
  292.9390 0.23 2
  293.1154 0.39 4
  293.2056 0.09 1
  293.9113 0.09 1
  294.1603 0.14 1
  294.9655 0.22 2
  295.0583 0.20 2
  295.1884 0.08 1
  296.0664 0.06 1
  296.4685 0.07 1
  296.6045 0.18 2
  296.7261 0.11 1
  296.9046 0.11 1
  297.0871 0.25 2
  297.2192 0.12 1
  297.5213 0.01 0
  298.0157 0.15 1
  298.1544 0.11 1
  298.7673 0.05 0
  299.0061 0.26 3
  299.1480 0.32 3
  299.5236 0.01 0
  300.0470 0.11 1
  300.1818 0.11 1
  300.7517 0.10 1
  301.0934 0.39 4
  301.9737 0.26 3
  302.1131 0.25 2
  303.0401 0.47 5
  303.5567 0.16 2
  303.8304 0.16 2
  304.0105 0.11 1
  304.2502 0.11 1
  304.7099 0.12 1
  305.0655 0.20 2
  305.5286 0.07 1
  305.9603 0.12 1
  306.6351 0.02 0
  307.1121 0.19 2
  307.2300 0.12 1
  307.4187 0.01 0
  309.1200 0.29 3
  309.6005 0.04 0
  309.8726 0.11 1
  310.2423 0.05 0
  310.4954 0.01 0
  311.0770 0.20 2
  311.4901 0.11 1
  312.0049 0.09 1
  312.2561 0.04 0
  312.6844 0.20 2
  312.8818 0.12 1
  313.0746 0.16 2
  313.1842 0.15 1
  313.8749 0.11 1
  314.0797 0.31 3
  315.1248 0.41 4
  315.2141 0.23 2
  315.9012 0.05 0
  316.1224 0.12 1
  316.3291 0.08 1
  316.4203 0.08 1
  316.5713 0.08 1
  316.9776 0.36 4
  317.1168 0.47 5
  317.4095 0.10 1
  317.7089 0.01 0
  318.0851 0.10 1
  318.2190 0.12 1
  318.6031 0.11 1
  318.7633 0.09 1
  319.1409 0.57 6
  320.1457 0.16 2
  321.0895 0.18 2
  321.2445 0.04 0
  321.7037 0.11 1
  321.9875 0.14 1
  322.1130 0.17 2
  322.2043 0.10 1
  323.0585 0.22 2
  324.0291 0.04 0
  324.6573 0.09 1
  325.0047 0.17 2
  326.2152 0.12 1
  326.3387 0.01 0
  326.6048 0.11 1
  326.8827 0.09 1
  327.2236 0.09 1
  327.4812 0.08 1
  327.7965 0.06 1
  328.0725 0.06 1
  328.2236 0.21 2
  328.8926 0.10 1
  329.0878 0.24 2
  330.2097 0.13 1
  330.3937 0.09 1
  330.5824 0.11 1
  331.1411 0.63 6
  331.3896 0.05 0
  332.0274 0.19 2
  332.2003 0.20 2
  332.7112 0.07 1
  332.8901 0.13 1
  333.1709 0.40 4
  333.5010 0.10 1
  334.1015 0.06 1
  334.2863 0.17 2
  334.3757 0.04 0
  334.7822 0.05 0
  335.0598 0.24 2
  335.2552 0.18 2
  336.0709 0.02 0
  336.9026 0.03 0
  337.2105 0.10 1
  337.9778 0.13 1
  338.1976 0.13 1
  338.7854 0.11 1
  339.1086 0.12 1
  339.1921 0.07 1
  339.3277 0.05 0
  340.0663 0.09 1
  341.1098 0.19 2
  341.2369 0.14 1
  342.1041 0.03 0
  342.2628 0.14 1
  342.5367 0.06 1
  342.8463 0.14 1
  343.1051 0.27 3
  343.3382 0.10 1
  343.5753 0.06 1
  344.1207 0.25 2
  344.3328 0.12 1
  345.1622 0.49 5
  345.8322 0.12 1
  346.0273 0.09 1
  346.1966 0.47 5
  346.3126 0.32 3
  346.4246 0.16 2
  347.1046 0.13 1
  347.2944 0.20 2
  348.1123 0.09 1
  348.2889 0.16 2
  349.1333 0.13 1
  351.2050 0.14 1
  352.1716 0.08 1
  352.5473 0.11 1
  353.1193 0.11 1
  353.2947 0.14 1
  353.4109 0.12 1
  354.3871 0.04 0
  355.1656 0.11 1
  355.2694 0.21 2
  356.1406 0.11 1
  356.9134 0.05 0
  357.2249 0.17 2
  357.6784 0.09 1
  357.7835 0.01 0
  358.9811 0.07 1
  359.0751 0.05 0
  359.2637 0.34 3
  360.2512 0.36 4
  360.9001 0.07 1
  361.1177 0.12 1
  361.3301 0.18 2
  361.5800 0.11 1
  364.2034 0.10 1
  365.0707 0.13 1
  365.1906 0.02 0
  366.0543 0.15 1
  366.1557 0.14 1
  366.8760 0.08 1
  367.1275 0.12 1
  367.8605 0.08 1
  368.2339 0.10 1
  369.0611 0.08 1
  369.2949 0.21 2
  370.2375 0.13 1
  371.1308 0.14 1
  371.3614 0.06 1
  371.9615 0.12 1
  373.2254 0.10 1
  373.4026 0.12 1
  373.9074 0.11 1
  374.1658 0.11 1
  375.0483 0.05 0
  375.3317 0.10 1
  375.9276 0.13 1
  376.1899 0.11 1
  377.0694 0.11 1
  377.9845 0.16 2
  378.1902 0.19 2
  378.9768 0.08 1
  379.1892 0.11 1
  379.2676 0.05 0
  380.1613 0.12 1
  380.3809 0.03 0
  381.1440 0.10 1
  381.2290 0.06 1
  382.1829 0.14 1
  382.3979 0.10 1
  382.7350 0.12 1
  383.0589 0.22 2
  383.2153 0.39 4
  384.0294 0.12 1
  384.1733 0.33 3
  384.2861 0.16 2
  384.4464 0.10 1
  385.0363 0.15 1
  385.2290 0.31 3
  385.6653 0.12 1
  385.8474 0.07 1
  386.0850 0.21 2
  386.1912 0.17 2
  386.7595 0.08 1
  387.2023 0.16 2
  387.5904 0.01 0
  387.7891 0.13 1
  388.0908 0.10 1
  388.2386 0.09 1
  388.3350 0.24 2
  389.2803 0.16 2
  391.0716 0.09 1
  391.1964 0.29 3
  391.2868 0.16 2
  391.4163 0.17 2
  391.7286 0.11 1
  392.2444 0.10 1
  392.4233 0.01 0
  393.5639 0.13 1
  394.0923 0.12 1
  394.9438 0.03 0
  395.1598 0.10 1
  396.1158 0.19 2
  396.8411 0.07 1
  396.9736 0.06 1
  397.2592 0.13 1
  397.7379 0.10 1
  398.0531 0.11 1
  398.2417 0.34 3
  399.2369 0.66 7
  399.4335 0.13 1
  399.6017 0.15 1
  399.7138 0.07 1
  400.2546 0.33 3
  400.3569 0.13 1
  400.8701 0.11 1
  401.0356 0.20 2
  401.2191 0.12 1
  402.2970 0.11 1
  402.9535 0.02 0
  404.3233 0.10 1
  405.6623 0.11 1
  405.9197 0.11 1
  406.1619 0.09 1
  407.0655 0.11 1
  407.3170 0.15 1
  407.7005 0.09 1
  408.1256 0.10 1
  408.6227 0.16 2
  409.2023 0.15 1
  410.1675 0.20 2
  410.3346 0.04 0
  410.5135 0.03 0
  410.6740 0.11 1
  410.8734 0.11 1
  410.9903 0.09 1
  411.1745 0.20 2
  411.3706 0.18 2
  412.1439 0.21 2
  412.2771 0.16 2
  413.0071 0.17 2
  413.3058 0.17 2
  414.2252 0.11 1
  415.1043 0.12 1
  416.2765 0.08 1
  416.8787 0.13 1
  418.1592 0.12 1
  419.2512 0.15 1
  421.3358 0.10 1
  421.4262 0.11 1
  422.2386 0.22 2
  422.4142 0.15 1
  423.0557 0.13 1
  423.2782 0.09 1
  424.2868 0.13 1
  424.4030 0.26 3
  424.6301 0.12 1
  425.1318 0.24 2
  426.0045 0.04 0
  426.1874 0.11 1
  426.3235 0.11 1
  426.4040 0.10 1
  426.6179 0.14 1
  426.7394 0.13 1
  426.8285 0.03 0
  427.1257 0.06 1
  428.9548 0.11 1
  429.0796 0.10 1
  429.7037 0.03 0
  429.8569 0.11 1
  430.2327 0.21 2
  430.3780 0.24 2
  430.7717 0.02 0
  431.0293 0.10 1
  433.5612 0.05 0
  434.9758 0.14 1
  435.1463 0.07 1
  435.2956 0.08 1
  435.7172 0.11 1
  436.3376 0.11 1
  436.6330 0.09 1
  436.9211 0.13 1
  437.2066 0.17 2
  437.3983 0.18 2
  438.3764 0.13 1
  438.9699 0.20 2
  439.1906 0.13 1
  439.8536 0.10 1
  440.0558 0.13 1
  440.4749 0.01 0
  441.4209 0.05 0
  441.9703 0.06 1
  442.1798 0.26 3
  442.3101 0.29 3
  442.4278 0.14 1
  443.0413 0.11 1
  443.2516 0.14 1
  443.4539 0.21 2
  443.6773 0.19 2
  443.8942 0.23 2
  444.3247 5.07 51
  444.7624 0.12 1
  444.9052 0.02 0
  445.3119 0.10 1
  445.6681 0.12 1
  445.9524 0.21 2
  446.6562 0.01 0
  447.6721 0.14 1
  448.7599 0.13 1
  448.9044 0.03 0
  449.0977 0.12 1
  449.6579 0.10 1
  450.1145 0.11 1
  450.1989 0.12 1
  450.3138 0.17 2
  450.5038 0.19 2
  450.6371 0.08 1
  450.7908 0.13 1
  450.9564 0.21 2
  451.2118 0.27 3
  451.3491 0.20 2
  451.7806 0.18 2
  451.9126 0.10 1
  452.0499 0.30 3
  452.1099 0.15 1
  452.3607 0.37 4
  452.5356 0.11 1
  452.7362 0.08 1
  453.1625 0.15 1
  453.3486 0.28 3
  454.0740 0.04 0
  454.2740 0.19 2
  454.4383 0.10 1
  455.2291 0.01 0
  456.1987 0.05 0
  456.5849 0.14 1
  457.3243 0.61 6
  457.5388 0.19 2
  458.8613 0.05 0
  459.3756 0.09 1
  460.2610 0.13 1
  461.0568 0.08 1
  461.9007 0.13 1
  463.1733 0.02 0
  464.4435 0.22 2
  464.6938 0.07 1
  464.7968 0.02 0
  465.2249 0.29 3
  465.3808 0.13 1
  465.6067 0.09 1
  465.9284 0.22 2
  466.3148 0.82 8
  466.5031 0.26 3
  466.9107 0.16 2
  467.3018 4.43 44
  467.6281 0.19 2
  467.7530 0.09 1
  467.8640 0.04 0
  468.2208 0.26 3
  468.3397 0.23 2
  468.4606 0.07 1
  468.5610 0.12 1
  468.8398 0.04 0
  468.9489 0.03 0
  469.5072 0.06 1
  469.8151 0.12 1
  470.0530 0.22 2
  470.4680 0.18 2
  470.5433 0.06 1
  470.9464 0.11 1
  472.7799 0.01 0
  474.0513 0.07 1
  474.2144 0.08 1
  475.4424 0.06 1
  477.2867 0.05 0
  477.5569 0.01 0
  477.8952 0.01 0
  479.0250 0.13 1
  479.1591 0.10 1
  480.0663 0.12 1
  480.2903 0.28 3
  480.4899 0.13 1
  480.7410 0.10 1
  481.1923 0.37 4
  481.4110 0.34 3
  481.5617 0.12 1
  482.2298 0.13 1
  483.0546 0.13 1
  489.0004 0.13 1
  489.6364 0.07 1
  489.8685 0.14 1
  490.2367 0.15 1
  491.2199 0.27 3
  492.3196 0.13 1
  493.0927 0.13 1
  493.2745 0.21 2
  493.3817 0.15 1
  493.9577 0.04 0
  494.1858 0.13 1
  494.4404 0.18 2
  494.7837 0.14 1
  495.8770 0.10 1
  497.1860 0.11 1
  498.5719 0.13 1
  498.9606 0.03 0
  501.1425 0.13 1
  502.3769 0.10 1
  502.8548 0.04 0
  503.4040 0.01 0
  504.6140 0.11 1
  505.1032 0.12 1
  505.9826 0.12 1
  506.2546 0.64 6
  506.4652 0.35 3
  506.6224 0.14 1
  507.5732 0.13 1
  508.0743 0.03 0
  508.8172 0.15 1
  509.1566 0.01 0
  509.7635 0.13 1
  510.8795 0.17 2
  511.1873 0.19 2
  511.5135 0.13 1
  512.1686 0.06 1
  512.4137 0.20 2
  512.7941 0.11 1
  513.3641 0.10 1
  513.7974 0.13 1
  514.1534 0.12 1
  514.7908 0.13 1
  515.0458 0.10 1
  515.1753 0.22 2
  515.4329 0.45 4
  515.6020 0.21 2
  515.8577 0.16 2
  516.0037 0.77 8
  516.2243 0.28 3
  516.3484 0.09 1
  516.4720 0.08 1
  516.7548 0.32 3
  517.0633 0.35 3
  517.2430 0.05 0
  517.5508 0.12 1
  517.6929 0.21 2
  517.8679 0.44 4
  518.0826 0.42 4
  518.3819 0.55 5
  518.4632 0.33 3
  518.5729 0.20 2
  518.8444 0.29 3
  519.0697 0.44 4
  519.4179 0.36 4
  519.7740 0.27 3
  519.9095 0.15 1
  520.0621 0.35 3
  520.4328 0.60 6
  521.2627 2.68 27
  521.4583 1.41 14
  521.7616 0.42 4
  521.9367 0.20 2
  522.1653 0.11 1
  522.4033 0.06 1
  522.6306 0.02 0
  522.8308 0.36 4
  523.0489 0.28 3
  523.2993 0.69 7
  523.5498 0.18 2
  523.7401 0.31 3
  523.8743 0.33 3
  523.9866 0.26 3
  524.1486 0.27 3
  524.2655 0.17 2
  524.4525 0.33 3
  524.6674 0.24 2
  524.9291 0.13 1
  525.0507 0.08 1
  525.2648 0.35 3
  525.4194 0.11 1
  525.5510 0.33 3
  525.7360 0.60 6
  525.9687 0.41 4
  526.2370 0.43 4
  526.3824 0.20 2
  526.5034 0.33 3
  526.7189 0.24 2
  526.8597 0.11 1
  526.9892 0.01 0
  527.1584 0.26 3
  527.3746 0.31 3
  527.5444 0.14 1
  527.8789 0.29 3
  528.0818 0.38 4
  528.2305 0.21 2
  528.4170 0.30 3
  528.6437 0.41 4
  528.8956 0.58 6
  529.1454 0.42 4
  529.4627 0.45 4
  529.7278 0.37 4
  529.8706 0.33 3
  530.1906 0.43 4
  530.5456 0.66 7
  530.9171 0.54 5
  531.7673 1.07 11
  532.7101 1.70 17
  536.4249 99.97 999
  537.0551 17.64 176
  537.6226 8.98 90
  538.3586 4.04 40
  539.0616 2.43 24
  539.8196 1.55 15
  540.4390 0.94 9
  540.8823 0.84 8
//
