ACCESSION: MSBNK-Kyoto_Univ-CA000074
RECORD_TITLE: 3'-O-Didehydrolutein; FAB-EBEB; MS2; m/z: 566.41; [M]+*
DATE: 2016.01.19 (Created 2010.04.01, modified 2011.05.10)
AUTHORS: Akimoto N, Graduate School of Pharmaceutical Sciences, Kyoto University and Maoka T, Research Institute for Production Development
LICENSE: CC BY-SA
PUBLICATION: Masahiro Ookubo, Miyuki Tsushima, Takashi Maoka and Takao Matsuno, Carotenoids and their metabolism in the goldfish Carassius auratus, Comp. Biochem. Physiol., 124B, 333-340 (1999).  75 Luteoxanthin  Akimoto, N.; Takashi, M.; Fujiwara, Y.; Hashimoto, K.; Analysis of carotenoids by FAB CID-MS2 (in Japanese). J. Mass Spectrom. Soc. Jpn. 2000, 48, 32-41. doi:10.5702/massspec.48.32
COMMENT: Profile spectrum of this record is given as a JPEG file.
COMMENT: [Profile] CA000074.jpg
CH$NAME: 3'-O-Didehydrolutein
CH$COMPOUND_CLASS: N/A
CH$FORMULA: C40H54O2
CH$EXACT_MASS: 566.41238
CH$SMILES: C(=CC=C(C=CC=C(C)C=CC(=C(C)2)C(C)(C)CC(C2)O)C)C=C(C=CC=C(C)C=CC(C=1C)C(C)(C)CC(C1)=O)C
CH$IUPAC: InChI=1S/C40H54O2/c1-29(17-13-19-31(3)21-23-37-33(5)25-35(41)27-39(37,7)8)15-11-12-16-30(2)18-14-20-32(4)22-24-38-34(6)26-36(42)28-40(38,9)10/h11-25,36-37,42H,26-28H2,1-10H3/b12-11+,17-13+,18-14+,23-21+,24-22+,29-15+,30-16+,31-19+,32-20+/t36-,37+/m1/s1
CH$LINK: CAS 97134-08-2
CH$LINK: INCHIKEY OABQIJAIRYEICK-HRAWYTEHSA-N
AC$INSTRUMENT: JMS-HX/HX 110A, JEOL
AC$INSTRUMENT_TYPE: FAB-EBEB
AC$MASS_SPECTROMETRY: MS_TYPE MS2
AC$MASS_SPECTROMETRY: ION_MODE POSITIVE
AC$MASS_SPECTROMETRY: ATOM_GUN_CURRENT 5 mA
AC$MASS_SPECTROMETRY: BOMBARDMENT 6 kV xenon
AC$MASS_SPECTROMETRY: COLLISION_ENERGY 3 kV
AC$MASS_SPECTROMETRY: COLLISION_GAS Ar
AC$MASS_SPECTROMETRY: GAS_PRESSURE adjust to attenuate the intensity of the precursor ion by 30 %
AC$MASS_SPECTROMETRY: IONIZATION FAB
AC$MASS_SPECTROMETRY: MATRIX 1-2 uL m-NBA
AC$MASS_SPECTROMETRY: PROBE_TIP stainless-steel
MS$FOCUSED_ION: BASE_PEAK 90.9451
MS$FOCUSED_ION: PRECURSOR_M/Z 566.41
MS$FOCUSED_ION: PRECURSOR_TYPE [M]+*
MS$DATA_PROCESSING: RELATIVE_M/Z normalised by peak(m/z=90.9451).  set 999 for peak(m/z=566.3095,rel=2045).
PK$SPLASH: splash10-016u-3910010000-1ac029674b1249d2e4cd
PK$NUM_PEAK: 1631
PK$PEAK: m/z int. rel.int.
  9.6635 0.01 0
  11.9627 0.01 0
  12.9358 0.04 1
  13.9683 0.11 2
  14.9671 0.22 5
  18.9701 0.01 0
  22.9024 0.02 0
  23.6916 0.01 0
  24.2845 0.01 0
  24.8557 0.02 0
  24.9503 0.05 1
  25.9406 0.44 9
  26.2715 0.01 0
  26.9465 3.53 72
  27.1519 0.03 1
  27.9543 0.48 10
  28.9530 3.21 66
  29.9193 0.08 2
  30.9330 0.23 5
  33.5733 0.02 0
  35.0580 0.01 0
  35.9090 0.02 0
  36.1268 0.01 0
  36.3682 0.02 0
  36.4502 0.01 0
  36.9249 0.38 8
  37.0580 0.02 0
  37.2026 0.02 0
  37.3408 0.01 0
  37.4568 0.01 0
  37.9243 1.16 24
  38.2146 0.02 0
  38.3794 0.01 0
  38.4897 0.01 0
  38.6025 0.01 0
  38.9335 9.10 186
  39.2320 0.04 1
  39.5168 0.01 0
  39.6548 0.02 0
  39.9454 1.19 24
  40.9502 15.32 313
  41.9451 0.35 7
  42.9426 7.87 161
  43.9434 0.19 4
  44.9392 0.33 7
  47.8224 0.01 0
  47.9539 0.02 0
  48.1097 0.01 0
  48.2003 0.02 0
  48.4068 0.03 1
  48.5063 0.02 0
  48.9132 0.15 3
  49.2299 0.05 1
  49.9218 3.04 62
  50.4391 0.03 1
  50.5027 0.01 0
  50.9307 6.69 137
  51.1228 0.02 0
  51.3345 0.01 0
  51.5460 0.01 0
  51.9338 2.35 48
  52.4829 0.02 0
  52.9442 10.87 222
  53.4968 0.01 0
  53.9580 0.51 10
  54.2539 0.01 0
  54.9579 17.65 361
  55.1874 0.02 0
  55.9619 0.55 11
  56.5738 0.01 0
  56.9677 5.63 115
  57.4446 0.04 1
  57.7652 0.02 0
  57.9632 0.06 1
  58.1728 0.01 0
  58.5702 0.02 0
  58.9585 1.24 25
  59.6623 0.01 0
  59.8199 0.04 1
  59.9299 0.03 1
  60.3645 0.02 0
  60.5605 0.01 0
  60.9265 0.40 8
  61.0442 0.04 1
  61.1845 0.02 0
  61.3683 0.01 0
  61.5400 0.02 0
  61.9225 1.93 39
  62.2376 0.02 0
  62.3995 0.01 0
  62.5233 0.03 1
  62.9262 5.77 118
  63.1379 0.11 2
  63.3348 0.05 1
  63.5879 0.02 0
  63.9403 1.25 26
  64.1000 0.03 1
  64.2280 0.02 0
  64.3829 0.07 1
  64.9395 9.29 190
  65.1367 0.02 0
  65.2910 0.01 0
  65.3912 0.01 0
  65.9422 1.63 33
  66.2996 0.03 1
  66.9544 10.89 223
  67.9484 0.49 10
  68.4036 0.01 0
  68.9558 11.78 241
  69.1691 0.04 1
  69.3609 0.02 0
  69.4938 0.02 0
  69.6017 0.02 0
  69.9469 0.15 3
  70.2588 0.01 0
  70.4514 0.03 1
  70.5706 0.02 0
  70.9523 2.18 45
  71.3294 0.01 0
  71.8953 0.01 0
  72.1526 0.01 0
  72.3436 0.01 0
  72.6794 0.02 0
  72.9333 0.11 2
  73.2599 0.03 1
  73.4286 0.02 0
  73.5478 0.03 1
  73.9085 1.38 28
  74.2841 0.01 0
  74.9285 2.35 48
  75.1715 0.11 2
  75.3018 0.09 2
  75.5196 0.07 1
  75.9268 1.59 33
  76.2891 0.09 2
  76.9293 26.05 533
  77.3067 0.18 4
  77.9366 5.22 107
  78.9470 20.45 418
  79.2100 0.04 1
  79.3741 0.03 1
  79.5758 0.03 1
  79.9497 2.36 48
  80.2710 0.03 1
  80.4533 0.03 1
  80.9588 16.08 329
  81.2163 0.08 2
  81.4532 0.03 1
  81.6585 0.02 0
  81.9407 0.49 10
  82.3389 0.06 1
  82.4548 0.10 2
  82.9512 7.37 151
  83.3612 0.02 0
  83.5123 0.01 0
  83.9544 0.13 3
  84.3880 0.03 1
  84.9548 5.46 112
  85.4086 0.04 1
  85.5445 0.05 1
  85.9161 0.53 11
  86.9084 1.07 22
  87.2597 0.01 0
  87.9313 0.56 11
  88.1748 0.04 1
  88.3411 0.01 0
  88.9327 3.30 67
  89.2532 0.18 4
  89.9438 1.15 24
  90.1312 0.19 4
  90.4218 0.13 3
  90.9451 48.84 999
  91.1934 0.09 2
  91.9548 3.97 81
  92.1346 0.08 2
  92.3866 0.06 1
  92.9625 23.20 475
  93.2884 0.05 1
  93.4797 0.04 1
  93.7038 0.08 2
  93.9729 1.49 30
  94.3340 0.04 1
  94.4775 0.11 2
  94.9771 10.87 222
  95.2981 0.04 1
  95.4870 0.05 1
  95.9584 0.55 11
  96.2043 0.01 0
  96.3258 0.04 1
  96.5585 0.05 1
  96.9662 1.46 30
  97.3919 0.02 0
  97.6153 0.02 0
  97.9276 0.37 8
  98.4989 0.03 1
  98.6670 0.02 0
  98.9370 0.41 8
  99.2704 0.01 0
  99.9096 0.13 3
  100.1612 0.02 0
  100.9562 0.90 18
  101.2021 0.12 2
  101.4482 0.13 3
  101.9400 2.85 58
  102.3637 0.08 2
  102.9535 8.66 177
  103.2629 0.08 2
  103.3941 0.05 1
  103.9608 3.88 79
  104.2658 0.14 3
  104.9694 47.84 979
  105.4035 0.08 2
  105.9798 4.76 97
  106.4340 0.10 2
  106.9840 17.43 357
  107.2395 0.06 1
  107.4484 0.06 1
  107.5697 0.03 1
  107.9581 2.13 44
  108.3436 0.05 1
  108.5137 0.09 2
  108.9900 11.42 234
  109.2176 0.09 2
  109.3911 0.06 1
  109.5053 0.06 1
  109.9680 0.30 6
  110.1786 0.04 1
  110.3179 0.02 0
  110.4580 0.04 1
  110.5949 0.02 0
  110.9689 1.16 24
  111.2768 0.02 0
  111.5267 0.03 1
  111.6619 0.01 0
  111.7722 0.01 0
  111.9608 0.19 4
  112.2228 0.02 0
  112.4931 0.14 3
  112.9429 0.78 16
  113.1168 0.16 3
  113.9297 0.76 16
  114.1190 0.22 5
  114.9331 25.11 514
  115.9444 8.08 165
  116.9407 22.05 451
  117.4442 0.12 2
  117.9468 4.06 83
  118.1941 0.06 1
  118.9562 38.24 782
  119.9562 3.57 73
  120.1960 0.07 1
  120.4555 0.09 2
  120.9571 14.64 299
  121.3929 0.07 1
  121.5015 0.08 2
  121.9421 1.40 29
  122.2926 0.03 1
  122.4892 0.09 2
  122.9552 4.31 88
  123.2444 0.02 0
  123.5089 0.03 1
  123.6274 0.02 0
  123.7358 0.04 1
  123.9583 0.13 3
  124.2038 0.03 1
  124.4514 0.02 0
  124.9460 0.96 20
  125.1248 0.09 2
  125.2609 0.09 2
  125.3861 0.05 1
  125.9031 1.16 24
  126.2413 0.09 2
  126.9164 7.70 158
  127.9207 24.86 508
  128.9269 28.49 583
  129.3589 0.13 3
  129.9280 10.04 205
  130.3078 0.10 2
  130.9386 24.40 499
  131.2236 0.14 3
  131.5422 0.08 2
  131.9402 4.66 95
  132.1353 0.13 3
  132.3325 0.13 3
  132.9513 19.35 396
  133.2886 0.12 2
  133.9591 1.72 35
  134.1437 0.11 2
  134.2367 0.06 1
  134.3710 0.04 1
  134.9377 13.00 266
  135.4223 0.12 2
  135.9261 0.60 12
  136.1936 0.03 1
  136.2999 0.04 1
  136.9480 7.49 153
  137.3436 0.08 2
  137.6342 0.06 1
  137.9432 0.63 13
  138.3184 0.10 2
  138.9082 3.17 65
  139.3814 0.08 2
  139.9204 1.18 24
  140.1143 0.35 7
  140.9188 19.86 406
  141.9292 16.81 344
  142.3191 0.15 3
  142.9394 27.47 562
  143.2056 0.21 4
  143.9428 8.31 170
  144.2119 0.11 2
  144.4726 0.25 5
  144.9530 27.34 559
  145.3199 0.18 4
  145.4540 0.15 3
  145.5743 0.12 2
  145.9467 3.26 67
  146.3610 0.12 2
  146.9622 9.44 193
  147.2590 0.10 2
  147.4169 0.07 1
  147.5886 0.06 1
  147.9571 0.93 19
  148.1466 0.07 1
  148.5414 0.11 2
  148.9653 4.78 98
  149.2870 0.07 1
  149.9358 0.56 11
  150.3241 0.10 2
  150.9617 3.13 64
  151.1617 0.34 7
  151.9228 7.86 161
  152.4481 0.29 6
  152.9354 10.81 221
  153.3011 0.14 3
  153.9411 5.33 109
  154.9608 18.73 383
  155.9728 10.70 219
  156.9817 21.86 447
  157.3592 0.20 4
  157.9763 5.26 108
  158.4004 0.11 2
  158.9789 23.95 490
  159.4928 0.17 3
  159.9950 1.76 36
  160.5253 0.12 2
  161.0000 5.20 106
  161.3536 0.06 1
  161.5426 0.06 1
  161.9819 0.46 9
  162.9826 1.64 34
  163.3247 0.13 3
  163.9793 1.20 25
  164.9735 17.24 353
  165.9744 5.41 111
  166.9881 12.90 264
  167.3346 0.11 2
  167.4972 0.08 2
  167.9968 5.11 105
  168.2599 0.21 4
  169.0031 15.15 310
  170.0155 5.13 105
  170.3349 0.20 4
  171.0153 10.47 214
  171.3509 0.13 3
  171.5334 0.23 5
  172.0071 3.05 62
  172.3117 0.09 2
  172.5323 0.09 2
  173.0210 7.17 147
  173.2911 0.13 3
  173.5339 0.10 2
  173.9802 0.58 12
  175.0276 3.74 77
  175.3034 0.11 2
  175.9741 1.54 31
  176.1424 0.21 4
  176.9773 2.05 42
  177.9605 8.24 169
  178.2135 0.12 2
  178.3700 0.18 4
  178.9698 12.27 251
  179.2637 0.07 1
  179.4111 0.06 1
  179.9771 4.82 99
  180.9836 12.14 248
  181.3148 0.15 3
  181.9928 4.76 97
  182.9940 11.72 240
  183.2981 0.18 4
  184.0031 2.71 55
  185.0001 5.71 117
  185.3107 0.09 2
  185.5204 0.12 2
  185.9964 0.98 20
  187.0027 2.29 47
  187.2860 0.11 2
  187.9901 0.40 8
  188.2466 0.17 3
  188.9652 4.37 89
  189.4274 0.14 3
  189.9544 1.70 35
  190.2092 0.24 5
  190.5125 0.19 4
  190.9650 6.22 127
  191.3083 0.17 3
  191.9668 4.87 100
  192.3413 0.19 4
  192.9718 9.97 204
  193.3520 0.18 4
  193.9808 4.66 95
  194.3477 0.20 4
  194.9876 11.99 245
  195.3317 0.21 4
  195.9862 3.16 65
  196.9888 8.96 183
  197.4476 0.16 3
  197.6791 0.21 4
  197.9959 1.43 29
  198.5003 0.07 1
  199.0029 3.78 77
  199.2542 0.14 3
  199.9602 0.73 15
  201.0015 2.24 46
  201.9463 3.16 65
  202.4877 0.16 3
  202.9723 4.36 89
  203.3008 0.06 1
  203.9696 1.88 38
  204.9688 4.63 95
  205.3493 0.12 2
  205.9827 3.39 69
  206.4491 0.13 3
  206.9863 6.62 135
  207.3202 0.11 2
  207.5576 0.18 4
  207.9951 2.76 56
  209.0037 7.30 149
  209.3114 0.13 3
  209.4361 0.10 2
  210.0176 1.95 40
  210.4024 0.13 3
  211.0122 4.37 89
  212.0032 0.60 12
  212.2097 0.16 3
  212.3774 0.10 2
  212.9884 1.64 34
  213.3281 0.09 2
  213.5314 0.10 2
  214.0314 0.36 7
  214.9671 3.83 78
  215.3515 0.11 2
  215.5570 0.08 2
  215.9851 1.96 40
  216.2583 0.10 2
  216.3717 0.08 2
  217.0002 4.27 87
  217.3199 0.10 2
  217.4709 0.09 2
  218.0074 1.88 38
  218.2460 0.14 3
  219.0111 4.14 85
  219.3038 0.09 2
  220.0158 1.66 34
  221.0265 4.55 93
  221.5330 0.10 2
  222.0307 1.75 36
  222.4436 0.11 2
  223.0429 3.60 74
  223.3032 0.07 1
  223.6690 0.09 2
  224.0555 0.95 19
  224.2597 0.09 2
  224.5174 0.20 4
  225.0507 2.02 41
  226.0236 1.01 21
  226.3535 0.08 2
  226.5826 0.10 2
  227.0354 1.12 23
  227.3633 0.12 2
  228.0105 1.25 26
  228.5193 0.12 2
  229.0226 2.73 56
  229.4233 0.10 2
  229.6116 0.04 1
  230.0302 1.33 27
  231.0307 2.49 51
  231.5153 0.07 1
  232.0535 1.45 30
  232.3141 0.15 3
  232.5548 0.15 3
  233.0390 3.37 69
  233.3443 0.07 1
  234.0571 1.08 22
  234.3776 0.12 2
  235.0454 2.97 61
  235.4017 0.09 2
  235.6193 0.11 2
  236.0601 0.74 15
  236.4516 0.02 0
  237.0574 1.95 40
  237.5658 0.09 2
  238.0660 0.44 9
  238.2117 0.15 3
  238.5484 0.08 2
  239.0206 1.61 33
  239.3162 0.07 1
  240.0155 0.52 11
  240.2287 0.15 3
  240.3229 0.06 1
  240.5836 0.13 3
  241.0286 1.20 25
  241.5088 0.05 1
  242.0166 0.89 18
  242.3400 0.15 3
  242.5892 0.12 2
  243.0297 1.95 40
  243.3202 0.07 1
  243.4380 0.03 1
  244.0301 0.79 16
  244.3228 0.04 1
  245.0253 2.11 43
  245.4717 0.02 0
  245.6143 0.08 2
  246.0546 1.00 20
  246.3723 0.03 1
  246.5150 0.05 1
  247.0547 2.18 45
  247.3793 0.11 2
  247.6937 0.15 3
  248.0619 0.70 14
  248.3667 0.04 1
  248.5239 0.04 1
  248.6384 0.05 1
  249.0688 1.80 37
  249.4151 0.08 2
  249.6828 0.09 2
  250.0464 0.44 9
  250.2968 0.06 1
  250.5763 0.07 1
  251.0725 1.04 21
  251.3693 0.09 2
  252.0107 0.47 10
  252.3262 0.05 1
  253.0410 0.96 20
  253.5728 0.16 3
  253.7876 0.15 3
  254.0542 0.47 10
  254.3747 0.04 1
  254.5487 0.08 2
  255.0467 1.25 26
  255.3672 0.07 1
  255.6878 0.10 2
  256.0519 0.59 12
  256.3304 0.05 1
  256.5840 0.09 2
  257.0637 1.68 34
  257.4141 0.07 1
  257.5448 0.03 1
  257.6989 0.03 1
  258.0612 0.56 11
  258.4187 0.07 1
  259.0597 1.31 27
  259.5238 0.07 1
  260.0551 0.77 16
  260.3332 0.07 1
  261.0681 1.75 36
  261.5103 0.08 2
  261.6833 0.09 2
  262.0543 0.43 9
  262.1997 0.22 5
  262.3520 0.06 1
  262.6905 0.08 2
  263.0907 1.30 27
  263.5013 0.05 1
  263.8510 0.13 3
  264.0928 0.29 6
  264.2742 0.09 2
  265.0577 0.77 16
  265.5025 0.01 0
  266.0084 0.35 7
  266.4173 0.09 2
  266.6023 0.08 2
  267.0848 0.96 20
  267.4002 0.07 1
  267.5950 0.07 1
  268.0595 0.40 8
  268.3647 0.04 1
  268.5269 0.06 1
  268.6635 0.11 2
  269.0720 1.09 22
  269.3876 0.05 1
  269.6457 0.03 1
  270.0758 0.45 9
  270.4567 0.04 1
  271.0736 0.82 17
  271.4705 0.04 1
  271.6989 0.04 1
  272.0941 0.48 10
  272.3061 0.06 1
  272.5154 0.06 1
  273.0858 0.98 20
  273.4449 0.03 1
  273.7159 0.10 2
  274.0528 0.55 11
  274.4071 0.11 2
  275.0881 0.97 20
  275.4438 0.04 1
  275.6374 0.15 3
  276.0702 0.31 6
  276.3851 0.09 2
  277.0983 0.72 15
  277.4543 0.04 1
  277.6500 0.06 1
  278.1017 0.25 5
  278.5800 0.06 1
  279.0735 0.75 15
  279.4310 0.03 1
  279.5164 0.02 0
  280.0469 0.30 6
  280.4170 0.04 1
  281.0789 0.67 14
  281.5102 0.05 1
  282.0597 0.49 10
  282.4154 0.14 3
  282.6238 0.31 6
  282.7183 0.15 3
  283.1227 1.15 24
  283.5418 0.01 0
  284.0540 0.49 10
  284.3786 0.03 1
  284.5329 0.03 1
  285.0772 0.75 15
  285.7857 0.06 1
  285.9039 0.09 2
  286.1209 0.26 5
  286.4860 0.04 1
  287.0855 0.73 15
  287.4124 0.08 2
  287.5286 0.06 1
  287.7693 0.07 1
  288.0926 0.28 6
  288.4427 0.06 1
  288.6108 0.04 1
  289.0867 0.68 14
  289.4772 0.03 1
  289.6058 0.10 2
  289.7941 0.05 1
  289.9157 0.06 1
  290.1110 0.22 5
  290.2805 0.02 0
  290.4758 0.05 1
  290.6072 0.03 1
  291.0826 0.40 8
  291.3795 0.03 1
  291.5338 0.05 1
  291.7861 0.10 2
  292.0274 0.20 4
  292.1442 0.11 2
  292.2986 0.04 1
  292.7192 0.06 1
  293.0648 0.42 9
  293.2185 0.22 5
  293.4752 0.03 1
  293.6880 0.04 1
  294.0761 0.25 5
  294.4615 0.01 0
  294.6729 0.07 1
  295.1147 0.55 11
  295.4487 0.04 1
  295.5948 0.01 0
  296.1146 0.28 6
  297.0911 0.49 10
  297.2247 0.23 5
  297.5895 0.04 1
  298.0789 0.27 6
  298.4291 0.03 1
  299.0585 0.51 10
  299.4005 0.02 0
  299.8093 0.08 2
  300.0774 0.17 3
  300.3226 0.04 1
  301.0721 0.54 11
  301.4016 0.05 1
  301.5368 0.03 1
  301.6971 0.05 1
  302.0447 0.16 3
  302.2614 0.10 2
  302.7283 0.06 1
  303.0796 0.32 7
  303.3458 0.04 1
  303.6957 0.04 1
  304.0178 0.19 4
  304.3077 0.05 1
  304.4047 0.01 0
  304.7993 0.08 2
  305.0907 0.30 6
  305.5237 0.03 1
  305.6638 0.02 0
  305.7691 0.03 1
  305.9951 0.14 3
  306.1771 0.12 2
  306.3305 0.04 1
  306.5146 0.02 0
  306.7295 0.07 1
  307.1040 0.29 6
  307.5142 0.06 1
  308.1107 0.23 5
  308.4156 0.04 1
  308.4902 0.02 0
  308.7477 0.05 1
  309.1342 0.42 9
  309.4238 0.02 0
  309.6758 0.02 0
  309.7951 0.05 1
  310.1001 0.26 5
  310.3828 0.03 1
  310.5957 0.04 1
  310.7297 0.04 1
  311.0885 0.27 6
  311.2693 0.13 3
  311.4026 0.02 0
  312.0491 0.12 2
  312.3647 0.06 1
  312.5072 0.01 0
  312.6301 0.02 0
  313.0924 0.28 6
  313.3026 0.11 2
  313.5673 0.03 1
  313.8781 0.09 2
  314.1281 0.14 3
  314.3188 0.04 1
  314.4879 0.05 1
  314.7156 0.04 1
  315.1040 0.31 6
  315.4499 0.03 1
  315.8251 0.08 2
  316.0850 0.11 2
  316.5735 0.04 1
  317.0878 0.21 4
  317.4680 0.03 1
  317.6274 0.04 1
  317.7364 0.03 1
  318.0307 0.10 2
  318.2320 0.10 2
  318.5249 0.02 0
  319.1290 0.22 5
  319.5338 0.04 1
  319.6974 0.05 1
  320.0450 0.13 3
  320.2170 0.13 3
  320.6953 0.05 1
  321.1324 0.25 5
  321.4199 0.02 0
  321.5199 0.01 0
  321.7459 0.01 0
  322.0551 0.15 3
  322.1999 0.09 2
  322.6427 0.06 1
  323.0912 0.15 3
  323.2766 0.08 2
  323.4018 0.02 0
  323.8266 0.05 1
  324.1345 0.10 2
  324.4347 0.02 0
  324.6384 0.03 1
  325.1115 0.31 6
  325.5686 0.03 1
  325.7169 0.04 1
  326.1174 0.14 3
  326.2721 0.05 1
  326.4380 0.03 1
  326.7475 0.04 1
  327.1213 0.22 5
  327.4756 0.03 1
  327.6780 0.02 0
  327.9588 0.07 1
  328.1542 0.17 3
  328.3033 0.02 0
  329.0948 0.20 4
  329.5431 0.05 1
  330.0999 0.14 3
  330.3108 0.04 1
  330.6317 0.04 1
  330.7263 0.02 0
  331.1661 0.34 7
  331.2878 0.14 3
  331.4164 0.04 1
  331.6479 0.01 0
  331.8116 0.02 0
  332.1682 0.08 2
  332.3759 0.02 0
  332.7312 0.06 1
  333.1502 0.35 7
  333.6944 0.05 1
  334.1043 0.12 2
  334.2652 0.05 1
  334.3925 0.02 0
  334.5884 0.02 0
  335.1545 0.50 10
  335.4427 0.03 1
  335.6618 0.05 1
  336.1803 0.34 7
  336.4525 0.04 1
  336.5393 0.03 1
  337.1104 0.20 4
  337.3813 0.04 1
  337.5514 0.03 1
  338.1387 0.13 3
  338.2528 0.10 2
  338.3621 0.06 1
  339.1091 0.14 3
  339.4178 0.03 1
  339.6167 0.02 0
  339.7196 0.04 1
  339.8429 0.04 1
  340.0536 0.10 2
  340.1727 0.06 1
  340.3093 0.06 1
  340.5355 0.05 1
  341.1399 0.12 2
  341.3815 0.04 1
  341.6421 0.02 0
  341.9748 0.05 1
  342.1716 0.06 1
  342.4826 0.04 1
  342.8147 0.05 1
  343.1440 0.18 4
  343.3927 0.04 1
  343.5209 0.03 1
  343.8250 0.03 1
  344.0941 0.04 1
  344.3316 0.05 1
  344.5741 0.04 1
  344.6953 0.04 1
  344.7836 0.01 0
  344.9826 0.10 2
  345.1978 0.15 3
  345.6064 0.04 1
  345.7823 0.04 1
  345.9540 0.07 1
  346.1440 0.06 1
  346.2856 0.04 1
  346.5141 0.01 0
  347.1779 0.51 10
  347.3118 0.23 5
  347.5285 0.03 1
  347.6329 0.04 1
  348.1665 0.27 6
  348.4918 0.05 1
  348.7289 0.08 2
  349.1517 0.32 7
  349.6917 0.05 1
  350.1658 0.14 3
  350.3004 0.09 2
  350.5712 0.03 1
  350.7991 0.02 0
  351.1653 0.13 3
  351.3891 0.03 1
  351.5168 0.01 0
  351.7693 0.01 0
  351.9994 0.03 1
  352.2078 0.03 1
  352.5901 0.01 0
  352.7066 0.01 0
  353.1816 0.26 5
  353.4321 0.04 1
  353.6826 0.03 1
  353.8637 0.02 0
  353.9711 0.01 0
  354.1591 0.06 1
  354.6069 0.02 0
  355.1515 0.15 3
  355.2533 0.06 1
  355.3635 0.05 1
  355.7180 0.02 0
  355.8513 0.03 1
  355.9987 0.05 1
  356.1209 0.08 2
  356.2178 0.04 1
  356.7962 0.02 0
  356.9233 0.04 1
  357.0448 0.09 2
  357.2329 0.11 2
  357.6696 0.04 1
  357.8262 0.06 1
  357.9842 0.05 1
  358.2184 0.11 2
  358.4413 0.04 1
  358.5990 0.02 0
  358.7560 0.06 1
  359.1801 0.32 7
  359.6694 0.03 1
  359.7578 0.02 0
  360.1560 0.20 4
  360.3180 0.08 2
  360.4659 0.03 1
  360.6791 0.04 1
  360.8572 0.03 1
  361.1573 0.36 7
  361.3403 0.15 3
  361.6110 0.05 1
  361.7702 0.05 1
  362.1846 0.47 10
  362.7583 0.05 1
  362.8643 0.08 2
  363.2213 0.19 4
  363.5530 0.01 0
  363.7740 0.02 0
  363.8498 0.01 0
  364.1149 0.08 2
  364.3156 0.04 1
  364.6137 0.04 1
  364.7793 0.04 1
  364.9722 0.05 1
  365.2122 0.11 2
  365.4928 0.03 1
  365.7005 0.04 1
  365.7917 0.02 0
  365.9889 0.03 1
  366.2478 0.02 0
  366.5110 0.02 0
  366.6654 0.04 1
  366.9854 0.03 1
  367.2240 0.07 1
  367.5777 0.02 0
  367.7707 0.03 1
  368.0620 0.08 2
  368.5196 0.01 0
  368.7379 0.03 1
  368.8334 0.03 1
  369.1184 0.10 2
  369.3599 0.04 1
  369.4975 0.04 1
  369.8611 0.02 0
  370.1104 0.08 2
  370.3126 0.07 1
  370.5948 0.04 1
  370.7872 0.02 0
  371.2113 0.16 3
  371.6417 0.04 1
  371.7520 0.02 0
  372.1586 0.12 2
  372.3481 0.04 1
  372.5615 0.03 1
  372.7019 0.04 1
  373.1701 0.24 5
  373.4790 0.02 0
  373.6110 0.02 0
  373.7816 0.04 1
  374.1818 0.20 4
  374.3398 0.13 3
  374.5841 0.04 1
  374.7217 0.05 1
  375.2174 0.19 4
  375.3087 0.09 2
  375.6949 0.02 0
  375.9049 0.05 1
  376.1886 0.15 3
  376.4401 0.01 0
  376.7722 0.02 0
  376.9120 0.04 1
  377.1705 0.09 2
  377.3545 0.02 0
  377.8441 0.03 1
  378.1384 0.03 1
  378.4651 0.03 1
  379.1198 0.13 3
  379.3264 0.04 1
  379.7486 0.03 1
  379.8905 0.03 1
  380.0894 0.02 0
  380.2573 0.04 1
  380.3472 0.03 1
  380.9101 0.03 1
  381.0352 0.06 1
  381.2172 0.09 2
  381.4484 0.01 0
  381.5735 0.03 1
  382.0310 0.05 1
  382.1793 0.03 1
  382.3325 0.03 1
  382.5750 0.03 1
  382.7373 0.03 1
  383.1569 0.13 3
  383.8943 0.02 0
  384.1248 0.10 2
  384.2732 0.03 1
  384.4756 0.03 1
  384.7006 0.03 1
  384.9551 0.02 0
  385.1245 0.09 2
  385.3608 0.02 0
  385.6294 0.03 1
  386.1672 0.09 2
  386.4359 0.02 0
  386.5455 0.02 0
  386.7727 0.04 1
  387.1074 0.13 3
  387.3191 0.03 1
  387.4836 0.04 1
  387.7010 0.02 0
  388.1349 0.12 2
  388.2523 0.05 1
  388.4366 0.04 1
  388.5710 0.02 0
  389.0893 0.10 2
  389.2033 0.09 2
  389.3552 0.11 2
  389.6492 0.03 1
  389.8476 0.03 1
  390.0115 0.03 1
  390.1297 0.03 1
  390.2690 0.05 1
  390.4217 0.02 0
  390.5567 0.01 0
  391.1357 0.11 2
  391.2349 0.06 1
  391.5143 0.01 0
  391.7120 0.02 0
  391.9568 0.06 1
  392.0968 0.04 1
  392.2017 0.01 0
  392.4149 0.02 0
  393.0940 0.06 1
  393.2643 0.05 1
  393.3466 0.02 0
  393.5507 0.02 0
  394.0792 0.03 1
  394.2974 0.02 0
  394.5846 0.06 1
  394.8394 0.02 0
  395.1336 0.16 3
  395.3138 0.12 2
  395.4257 0.06 1
  395.8079 0.04 1
  396.1162 0.02 0
  396.3028 0.02 0
  396.7928 0.03 1
  397.2060 0.18 4
  397.3053 0.08 2
  397.5348 0.03 1
  397.9038 0.02 0
  398.1460 0.10 2
  398.3445 0.03 1
  398.4818 0.06 1
  398.7945 0.01 0
  399.1684 0.22 5
  399.3663 0.07 1
  399.6522 0.04 1
  399.7494 0.03 1
  400.0832 0.09 2
  400.2290 0.11 2
  400.3670 0.08 2
  400.6459 0.05 1
  400.8502 0.07 1
  401.2094 0.32 7
  401.4066 0.15 3
  401.5891 0.04 1
  402.2491 0.17 3
  402.5541 0.03 1
  403.2445 0.21 4
  403.3847 0.07 1
  403.6060 0.02 0
  403.9426 0.04 1
  404.0784 0.08 2
  404.2014 0.05 1
  404.4807 0.03 1
  404.7880 0.03 1
  405.1326 0.04 1
  405.3324 0.05 1
  405.6201 0.01 0
  406.0477 0.02 0
  406.1666 0.05 1
  406.2918 0.02 0
  406.6541 0.04 1
  406.8103 0.02 0
  406.9967 0.05 1
  407.3041 0.04 1
  407.4068 0.03 1
  407.8620 0.02 0
  408.0921 0.03 1
  408.3756 0.06 1
  408.6071 0.02 0
  408.7535 0.04 1
  409.2137 0.05 1
  409.3867 0.03 1
  409.5324 0.02 0
  409.6985 0.02 0
  409.8055 0.03 1
  410.0391 0.08 2
  410.2037 0.10 2
  410.3353 0.02 0
  410.4789 0.03 1
  410.6738 0.02 0
  410.9166 0.04 1
  411.2749 0.11 2
  411.4311 0.06 1
  411.6908 0.04 1
  412.1589 0.13 3
  412.3306 0.05 1
  412.4841 0.05 1
  413.1978 0.42 9
  413.5034 0.07 1
  413.7392 0.06 1
  414.0356 0.05 1
  414.1764 0.19 4
  414.3693 0.12 2
  414.7079 0.05 1
  414.8649 0.03 1
  415.1156 0.09 2
  415.2543 0.11 2
  415.4416 0.09 2
  415.8070 0.06 1
  416.0689 0.11 2
  416.3027 0.10 2
  416.5942 0.02 0
  416.8386 0.06 1
  417.1161 0.05 1
  417.2999 0.10 2
  417.6428 0.03 1
  417.7964 0.02 0
  418.2147 0.05 1
  418.3542 0.03 1
  418.5598 0.02 0
  418.7373 0.02 0
  418.8387 0.02 0
  419.0395 0.03 1
  419.1289 0.02 0
  419.2860 0.04 1
  419.3719 0.02 0
  419.6558 0.01 0
  419.7614 0.01 0
  419.9946 0.06 1
  420.1404 0.03 1
  420.2489 0.03 1
  420.4933 0.02 0
  420.9110 0.05 1
  421.2710 0.09 2
  421.8327 0.03 1
  421.9593 0.05 1
  422.1386 0.06 1
  422.2722 0.02 0
  422.5408 0.04 1
  422.8853 0.02 0
  423.0829 0.07 1
  423.2918 0.09 2
  423.5224 0.07 1
  423.6378 0.04 1
  424.0618 0.05 1
  424.2770 0.09 2
  424.5857 0.06 1
  424.8284 0.05 1
  425.1287 0.06 1
  425.4156 0.09 2
  425.7701 0.08 2
  426.2491 0.20 4
  426.5671 0.03 1
  427.2621 0.27 6
  427.7440 0.07 1
  428.2667 0.83 17
  428.6712 0.07 1
  428.8450 0.05 1
  429.2467 0.28 6
  429.6443 0.07 1
  429.9236 0.07 1
  430.0798 0.15 3
  430.3162 0.11 2
  430.4647 0.04 1
  430.9319 0.07 1
  431.2803 0.10 2
  431.6976 0.07 1
  432.1191 0.08 2
  432.4337 0.14 3
  432.9018 0.13 3
  433.0714 0.14 3
  433.2664 0.12 2
  433.5465 0.12 2
  434.0209 0.12 2
  434.3236 0.14 3
  434.4961 0.07 1
  434.6523 0.10 2
  434.8255 0.11 2
  434.9438 0.05 1
  435.1775 0.11 2
  435.3225 0.06 1
  435.6548 0.13 3
  436.1772 0.10 2
  436.4574 0.09 2
  436.6447 0.04 1
  437.3199 0.36 7
  438.8437 1.42 29
  439.7042 0.75 15
  440.3339 0.40 8
  440.9205 0.21 4
  441.3770 0.18 4
  441.7277 0.08 2
  442.2292 0.16 3
  442.8442 0.10 2
  443.2493 0.33 7
  443.3549 0.15 3
  443.5184 0.10 2
  443.9002 0.17 3
  444.1658 0.10 2
  444.3969 0.09 2
  444.7140 0.09 2
  445.0564 0.08 2
  445.4164 0.07 1
  445.5933 0.03 1
  445.8068 0.06 1
  445.9667 0.05 1
  446.0774 0.03 1
  446.2091 0.07 1
  446.3402 0.06 1
  446.6122 0.11 2
  446.8377 0.11 2
  447.0787 0.06 1
  447.2493 0.03 1
  447.4099 0.10 2
  447.6305 0.02 0
  447.8708 0.03 1
  448.0533 0.05 1
  448.1739 0.06 1
  448.5291 0.06 1
  448.7574 0.09 2
  448.9238 0.05 1
  449.1725 0.09 2
  449.3699 0.08 2
  449.5024 0.09 2
  449.6251 0.07 1
  449.7548 0.06 1
  449.8915 0.12 2
  450.2122 0.08 2
  450.4230 0.02 0
  450.5548 0.02 0
  450.6591 0.05 1
  450.8452 0.17 3
  451.2661 0.17 3
  451.6587 0.23 5
  452.0873 0.19 4
  452.4314 0.16 3
  452.6225 0.26 5
  452.9588 0.20 4
  453.2351 0.12 2
  453.3966 0.10 2
  453.5411 0.20 4
  453.8450 0.18 4
  454.1299 0.20 4
  454.3308 0.15 3
  454.5776 0.15 3
  454.7398 0.08 2
  455.1432 0.13 3
  455.2968 0.11 2
  455.5496 0.07 1
  456.2029 0.35 7
  456.5211 0.20 4
  456.7147 0.02 0
  456.8633 0.05 1
  457.0590 0.05 1
  457.3244 0.07 1
  457.6505 0.02 0
  457.8328 0.05 1
  458.1638 0.04 1
  458.3348 0.05 1
  458.4468 0.03 1
  458.7813 0.06 1
  459.2517 0.14 3
  459.5017 0.07 1
  459.6517 0.04 1
  459.9566 0.05 1
  460.2932 0.14 3
  460.4771 0.07 1
  460.6975 0.05 1
  460.8433 0.07 1
  460.9567 0.03 1
  461.0482 0.02 0
  461.2053 0.04 1
  461.5236 0.05 1
  461.8152 0.02 0
  462.2237 0.03 1
  462.6295 0.02 0
  462.9196 0.09 2
  463.0401 0.04 1
  463.2141 0.07 1
  463.5621 0.02 0
  463.7537 0.02 0
  463.9432 0.09 2
  464.1263 0.07 1
  464.3926 0.04 1
  464.6561 0.05 1
  464.8745 0.05 1
  464.9802 0.02 0
  465.1465 0.07 1
  465.2986 0.11 2
  465.6051 0.03 1
  465.7087 0.01 0
  466.2392 0.25 5
  466.3872 0.18 4
  466.5809 0.04 1
  466.7190 0.02 0
  466.8318 0.04 1
  467.1904 0.16 3
  467.4406 0.21 4
  467.6118 0.05 1
  467.8683 0.03 1
  468.1262 0.12 2
  468.2545 0.07 1
  468.5800 0.12 2
  468.7224 0.02 0
  469.1656 0.11 2
  469.3869 0.04 1
  469.4926 0.02 0
  469.6026 0.04 1
  469.6857 0.02 0
  469.8351 0.04 1
  470.2376 0.07 1
  470.5914 0.09 2
  470.7598 0.04 1
  470.9586 0.04 1
  471.2715 0.15 3
  471.4139 0.06 1
  471.5182 0.03 1
  471.9320 0.05 1
  472.2894 0.15 3
  472.4480 0.08 2
  472.5291 0.03 1
  472.7814 0.04 1
  473.2699 0.15 3
  473.5279 0.10 2
  474.2921 3.74 77
  474.9309 0.12 2
  475.3088 0.05 1
  475.5626 0.04 1
  475.8326 0.03 1
  476.1316 0.06 1
  476.4115 0.04 1
  476.7027 0.04 1
  476.8508 0.03 1
  476.9932 0.03 1
  477.2520 0.10 2
  477.4734 0.05 1
  477.6533 0.03 1
  477.8211 0.06 1
  477.9318 0.02 0
  478.1441 0.01 0
  478.2936 0.03 1
  478.5002 0.04 1
  478.8436 0.02 0
  479.0714 0.06 1
  479.2717 0.09 2
  479.4699 0.04 1
  479.6815 0.02 0
  479.9051 0.03 1
  480.1702 0.07 1
  480.3656 0.05 1
  480.6646 0.04 1
  480.8981 0.02 0
  481.2536 0.11 2
  481.5414 0.05 1
  481.8701 0.04 1
  482.0471 0.06 1
  482.2609 0.07 1
  482.4514 0.06 1
  482.5875 0.02 0
  483.0527 0.04 1
  483.1817 0.06 1
  483.3797 0.07 1
  483.5517 0.01 0
  483.6772 0.03 1
  484.2861 0.51 10
  484.6956 0.02 0
  485.1235 0.11 2
  485.3385 0.13 3
  485.5161 0.05 1
  485.6670 0.03 1
  485.8925 0.03 1
  486.2908 0.24 5
  486.5771 0.06 1
  486.7448 0.02 0
  486.8689 0.03 1
  487.3229 0.27 6
  487.7346 0.01 0
  487.9454 0.03 1
  488.2281 0.04 1
  488.3466 0.05 1
  488.7048 0.02 0
  488.9938 0.07 1
  489.1440 0.02 0
  489.2639 0.01 0
  489.9443 0.03 1
  490.0832 0.01 0
  490.2186 0.02 0
  490.5310 0.03 1
  490.8018 0.02 0
  490.9879 0.05 1
  491.2820 0.07 1
  491.4138 0.05 1
  491.9138 0.02 0
  492.1212 0.02 0
  492.3518 0.06 1
  492.5782 0.01 0
  492.7756 0.02 0
  492.9583 0.07 1
  493.2488 0.07 1
  493.3892 0.04 1
  493.5183 0.05 1
  493.6142 0.04 1
  493.8420 0.03 1
  494.2095 0.13 3
  494.3632 0.05 1
  494.4817 0.09 2
  494.6425 0.03 1
  494.8457 0.07 1
  495.1201 0.04 1
  495.3232 0.03 1
  495.5122 0.03 1
  495.6258 0.02 0
  495.8671 0.03 1
  496.0448 0.04 1
  496.2621 0.06 1
  496.5450 0.03 1
  496.7291 0.03 1
  496.9351 0.08 2
  497.1072 0.02 0
  497.2800 0.06 1
  497.5883 0.01 0
  497.7527 0.02 0
  497.9234 0.04 1
  498.1322 0.06 1
  498.3199 0.09 2
  498.4610 0.03 1
  498.6592 0.03 1
  498.7538 0.03 1
  498.9443 0.02 0
  499.1051 0.02 0
  499.3789 0.04 1
  499.5271 0.02 0
  500.0661 0.03 1
  500.2489 0.07 1
  500.5953 0.03 1
  500.9100 0.03 1
  501.4033 0.02 0
  502.0101 0.03 1
  502.5500 0.02 0
  503.0172 0.03 1
  503.1470 0.03 1
  503.3580 0.05 1
  503.6128 0.03 1
  503.7582 0.01 0
  503.8965 0.02 0
  504.2099 0.03 1
  504.4809 0.01 0
  504.8571 0.03 1
  505.2318 0.08 2
  505.3434 0.07 1
  505.5269 0.01 0
  505.8615 0.02 0
  506.1621 0.08 2
  506.3118 0.07 1
  506.4480 0.02 0
  506.5715 0.04 1
  506.7734 0.03 1
  506.9372 0.05 1
  507.1426 0.06 1
  507.3734 0.06 1
  507.7342 0.02 0
  508.0257 0.03 1
  508.2417 0.13 3
  508.5029 0.03 1
  508.8086 0.01 0
  509.1599 0.03 1
  509.4013 0.08 2
  509.5850 0.03 1
  509.8799 0.01 0
  510.2937 0.14 3
  510.5928 0.04 1
  510.7948 0.02 0
  510.9883 0.02 0
  511.1959 0.01 0
  511.4352 0.02 0
  511.6513 0.01 0
  512.1686 0.03 1
  512.4114 0.02 0
  512.6895 0.04 1
  512.9288 0.03 1
  513.0844 0.03 1
  513.3159 0.02 0
  513.4307 0.05 1
  513.5912 0.05 1
  514.1128 0.04 1
  514.3788 0.03 1
  514.5330 0.01 0
  515.0856 0.02 0
  515.4890 0.03 1
  515.5897 0.03 1
  515.7826 0.01 0
  516.0536 0.02 0
  516.2782 0.05 1
  516.6486 0.04 1
  516.9850 0.05 1
  517.0696 0.02 0
  517.3463 0.06 1
  517.6948 0.03 1
  518.0158 0.02 0
  518.2320 0.07 1
  518.6165 0.03 1
  518.7686 0.03 1
  519.0523 0.04 1
  519.2424 0.04 1
  519.5170 0.05 1
  519.7262 0.07 1
  520.1219 0.04 1
  520.3599 0.08 2
  520.5381 0.02 0
  520.7986 0.06 1
  521.0916 0.04 1
  521.3275 0.12 2
  521.5128 0.08 2
  521.6163 0.07 1
  521.7648 0.02 0
  521.9564 0.02 0
  522.1064 0.05 1
  522.3043 0.09 2
  522.4409 0.03 1
  522.6614 0.05 1
  522.7945 0.01 0
  523.2255 0.13 3
  523.5361 0.08 2
  523.6270 0.04 1
  523.7587 0.04 1
  523.8862 0.06 1
  524.0157 0.07 1
  524.1130 0.02 0
  524.2785 0.09 2
  524.3876 0.07 1
  524.5975 0.06 1
  524.9561 0.09 2
  525.0646 0.05 1
  525.2935 0.04 1
  525.4153 0.03 1
  525.6125 0.12 2
  525.8190 0.05 1
  525.9409 0.11 2
  526.1782 0.10 2
  526.3403 0.05 1
  526.5114 0.04 1
  526.7446 0.08 2
  526.8989 0.07 1
  527.0214 0.06 1
  527.1680 0.05 1
  527.3983 0.10 2
  527.6992 0.02 0
  527.8513 0.02 0
  527.9993 0.04 1
  528.1176 0.02 0
  528.3395 0.07 1
  528.5389 0.06 1
  528.7742 0.08 2
  529.0574 0.07 1
  529.4210 0.06 1
  529.5485 0.07 1
  529.8106 0.06 1
  529.9388 0.04 1
  530.1241 0.06 1
  530.3405 0.06 1
  530.5229 0.04 1
  530.6829 0.03 1
  530.8886 0.04 1
  531.1014 0.07 1
  531.2120 0.03 1
  531.3973 0.01 0
  531.5446 0.03 1
  531.7039 0.02 0
  532.1105 0.08 2
  532.3282 0.15 3
  532.5128 0.10 2
  532.6664 0.06 1
  533.2915 0.37 8
  533.5762 0.16 3
  533.7615 0.07 1
  534.0779 0.04 1
  534.2542 0.08 2
  534.4564 0.06 1
  534.5910 0.07 1
  534.7418 0.02 0
  534.8673 0.06 1
  535.0533 0.08 2
  535.2204 0.11 2
  535.4896 0.10 2
  535.6996 0.05 1
  536.3840 0.36 7
  537.1093 0.22 5
  537.4490 0.22 5
  538.2631 0.23 5
  539.1718 0.26 5
  539.6067 0.19 4
  540.0783 0.31 6
  540.3384 0.30 6
  540.5845 0.23 5
  541.3445 0.34 7
  541.9790 0.37 8
  542.6016 0.49 10
  543.6337 0.45 9
  544.6336 0.47 10
  545.6906 0.54 11
  546.1088 0.48 10
  547.3852 1.49 30
  548.3351 12.97 265
  549.2809 0.86 18
  549.7796 0.47 10
  550.2966 1.37 28
  551.3320 3.35 69
  551.7955 0.34 7
  552.5307 0.35 7
  552.9792 0.41 8
  553.5833 0.33 7
  554.1439 0.39 8
  555.1614 0.39 8
  556.7247 0.48 10
  566.3095 99.96 999
  567.1776 13.17 269
  567.7835 6.44 132
  568.4916 3.56 73
  569.2252 1.48 30
  570.2801 0.91 19
  571.4118 0.57 12
  571.8107 0.45 9
  572.3062 0.34 7
  572.8375 0.21 4
  573.5607 0.18 4
  573.8842 0.16 3
//
