ACCESSION: MSBNK-Kyoto_Univ-CA000083
RECORD_TITLE: Mytiloxanthinone; FAB-EBEB; MS2; m/z: 596.39; [M]+*
DATE: 2016.01.19 (Created 2010.04.01, modified 2011.05.10)
AUTHORS: Akimoto N, Graduate School of Pharmaceutical Sciences, Kyoto University and Maoka T, Research Institute for Production Development
LICENSE: CC BY-SA
PUBLICATION: Takao Matsuno, Masahiro Ookubo, Tokuji Nishizawa, Ichiro Shimizu, Carotenoids of sea squirts. I. New marine carotenoids, halocynthiaxanthin and mytiloxanthinone from Halocynthia roretezi, Chem. Phram. Bull., 32, 4309-4315 (1984). doi:10.1248/cpb.32.4309
COMMENT: Profile spectrum of this record is given as a JPEG file.
COMMENT: [Profile] CA000083.jpg
CH$NAME: Mytiloxanthinone
CH$COMPOUND_CLASS: N/A
CH$FORMULA: C40H52O4
CH$EXACT_MASS: 596.38656
CH$SMILES: O=C(C=C(C(=CC=CC(C)=CC=CC=C(C)C=CC=C(C#CC(=C2C)C(C)(C)CC(C2)O)C)C)O)C(C1(C)C)(C)CC(C1)=O
CH$IUPAC: InChI=1S/C40H52O4/c1-28(17-13-18-30(3)21-22-35-32(5)23-33(41)25-38(35,6)7)15-11-12-16-29(2)19-14-20-31(4)36(43)24-37(44)40(10)27-34(42)26-39(40,8)9/h11-20,24,33,41,43H,23,25-27H2,1-10H3/b12-11+,17-13+,19-14+,28-15+,29-16+,30-18+,31-20+,36-24-/t33-,40+/m1/s1
CH$LINK: CAS 83746-66-1
CH$LINK: LIPIDBANK VCA0078
CH$LINK: NIKKAJI J2.403.210H
CH$LINK: INCHIKEY AEOORGIQHLESFZ-WMOUBNDNSA-N
AC$INSTRUMENT: JMS-HX/HX 110A, JEOL
AC$INSTRUMENT_TYPE: FAB-EBEB
AC$MASS_SPECTROMETRY: MS_TYPE MS2
AC$MASS_SPECTROMETRY: ION_MODE POSITIVE
AC$MASS_SPECTROMETRY: ATOM_GUN_CURRENT 5 mA
AC$MASS_SPECTROMETRY: BOMBARDMENT 6 kV xenon
AC$MASS_SPECTROMETRY: COLLISION_ENERGY 3 kV
AC$MASS_SPECTROMETRY: COLLISION_GAS Ar
AC$MASS_SPECTROMETRY: GAS_PRESSURE adjust to attenuate the intensity of the precursor ion by 30 %
AC$MASS_SPECTROMETRY: IONIZATION FAB
AC$MASS_SPECTROMETRY: MATRIX 1-2 uL m-NBA
AC$MASS_SPECTROMETRY: PROBE_TIP stainless-steel
MS$FOCUSED_ION: BASE_PEAK 82.9579
MS$FOCUSED_ION: PRECURSOR_M/Z 596.39
MS$FOCUSED_ION: PRECURSOR_TYPE [M]+*
MS$DATA_PROCESSING: RELATIVE_M/Z normalised by peak(m/z=82.9579).  set 999 for peak(m/z=596.2985,rel=1859).
PK$SPLASH: splash10-0002-3941020000-776acaee9e1e95899214
PK$NUM_PEAK: 1714
PK$PEAK: m/z int. rel.int.
  0.0127 0.02 0
  0.7488 0.01 0
  2.3059 0.02 0
  5.8626 0.01 0
  12.9698 0.01 0
  13.9741 0.11 2
  14.9791 0.12 2
  17.1001 0.02 0
  17.7279 0.01 0
  18.9716 0.01 0
  22.9441 0.04 1
  24.9509 0.09 2
  25.9564 0.43 8
  26.9555 2.51 47
  27.0754 0.03 1
  27.9612 0.32 6
  28.9648 1.91 36
  29.9303 0.04 1
  30.9493 0.30 6
  32.2820 0.01 0
  34.7784 0.01 0
  35.0139 0.02 0
  35.9274 0.03 1
  36.1783 0.05 1
  36.7871 0.01 0
  36.9321 0.39 7
  37.0978 0.03 1
  37.2987 0.03 1
  37.4750 0.03 1
  37.7593 0.02 0
  37.9335 1.15 21
  38.0699 0.02 0
  38.6581 0.02 0
  38.9415 7.71 143
  39.2245 0.01 0
  39.4756 0.01 0
  39.9523 1.15 21
  40.0905 0.01 0
  40.3203 0.01 0
  40.4958 0.01 0
  40.9562 14.79 275
  41.4228 0.02 0
  41.9338 0.50 9
  42.9484 7.30 136
  43.2953 0.03 1
  43.3813 0.01 0
  43.9283 0.27 5
  44.0617 0.02 0
  44.9508 0.29 5
  46.2211 0.02 0
  47.9316 0.05 1
  48.3386 0.01 0
  48.9323 0.23 4
  49.1696 0.03 1
  49.4529 0.01 0
  49.9319 2.40 45
  50.9334 5.35 100
  51.3902 0.01 0
  51.5360 0.03 1
  51.9434 1.59 30
  52.9485 7.32 136
  53.5151 0.01 0
  53.9431 0.47 9
  54.3204 0.04 1
  54.9588 16.27 303
  55.1876 0.01 0
  55.6194 0.02 0
  55.9603 0.91 17
  56.2033 0.02 0
  56.9735 4.13 77
  57.4733 0.02 0
  57.9721 0.07 1
  58.7022 0.01 0
  58.9596 0.74 14
  59.1863 0.03 1
  59.5570 0.04 1
  59.9367 0.05 1
  60.2731 0.01 0
  60.5285 0.01 0
  60.9248 0.48 9
  61.1080 0.01 0
  61.3520 0.01 0
  61.9311 1.70 32
  62.1449 0.06 1
  62.3148 0.01 0
  62.9349 4.66 87
  63.1508 0.03 1
  63.2613 0.02 0
  63.3449 0.02 0
  63.4618 0.01 0
  63.6236 0.01 0
  63.7281 0.01 0
  63.9391 0.97 18
  64.1953 0.06 1
  64.3757 0.03 1
  64.5494 0.03 1
  64.9475 7.15 133
  65.6612 0.03 1
  65.9556 1.83 34
  66.1333 0.02 0
  66.3395 0.02 0
  66.4372 0.05 1
  66.5032 0.02 0
  66.6528 0.01 0
  66.9569 7.35 137
  67.9483 0.58 11
  68.6836 0.04 1
  68.9315 26.21 488
  69.1749 0.03 1
  69.9303 0.26 5
  70.9386 2.53 47
  71.2035 0.03 1
  71.3505 0.03 1
  72.9432 0.18 3
  73.0905 0.02 0
  73.9043 1.56 29
  74.9205 2.51 47
  75.1480 0.05 1
  75.2782 0.05 1
  75.3686 0.03 1
  75.5853 0.06 1
  75.9226 1.47 27
  76.1166 0.02 0
  76.2431 0.13 2
  76.3338 0.02 0
  76.5599 0.01 0
  76.9278 15.45 287
  77.2063 0.11 2
  77.3693 0.08 1
  77.5725 0.08 1
  77.9356 3.04 57
  78.2173 0.09 2
  78.5390 0.07 1
  78.9405 11.31 210
  79.2861 0.03 1
  79.4079 0.04 1
  79.5928 0.02 0
  79.6737 0.02 0
  79.9402 0.81 15
  80.1575 0.02 0
  80.5950 0.01 0
  80.9500 7.92 147
  81.2223 0.04 1
  81.4434 0.06 1
  81.9256 0.92 17
  82.2256 0.01 0
  82.4192 0.04 1
  82.6398 0.06 1
  82.9579 53.71 999
  83.2137 0.06 1
  83.3315 0.04 1
  83.4998 0.01 0
  83.7476 0.06 1
  83.9402 0.37 7
  84.3027 0.01 0
  84.9420 4.95 92
  85.1955 0.03 1
  85.4366 0.05 1
  85.5333 0.02 0
  85.8992 0.74 14
  86.1637 0.05 1
  86.4400 0.01 0
  86.9074 1.27 24
  87.2449 0.01 0
  87.5960 0.01 0
  87.9213 0.60 11
  88.2925 0.06 1
  88.4617 0.06 1
  88.6219 0.08 1
  88.9243 2.94 55
  89.2103 0.14 3
  89.4771 0.11 2
  89.6780 0.09 2
  89.9426 0.86 16
  90.0905 0.11 2
  90.1939 0.13 2
  90.4178 0.13 2
  90.9334 26.96 501
  91.3398 0.03 1
  91.5914 0.04 1
  91.9437 2.35 44
  92.2177 0.04 1
  92.4938 0.04 1
  92.9441 9.43 175
  93.2551 0.03 1
  93.4116 0.05 1
  93.6890 0.04 1
  93.9308 0.94 17
  94.2764 0.01 0
  94.4456 0.08 1
  94.9493 7.64 142
  95.1688 0.05 1
  95.4682 0.08 1
  95.5548 0.06 1
  95.7313 0.10 2
  95.9487 0.74 14
  96.4154 0.03 1
  96.5965 0.03 1
  96.9577 3.54 66
  97.5056 0.04 1
  97.5877 0.02 0
  97.8999 0.56 10
  98.9236 0.79 15
  99.6043 0.02 0
  99.9071 0.24 4
  100.4496 0.02 0
  100.5953 0.03 1
  100.9257 1.08 20
  101.1411 0.11 2
  101.3841 0.08 1
  101.5082 0.09 2
  101.6385 0.04 1
  101.9332 2.33 43
  102.1666 0.09 2
  102.2488 0.02 0
  102.4201 0.12 2
  102.9345 6.14 114
  103.1960 0.08 1
  103.5388 0.07 1
  103.9441 2.22 41
  104.3283 0.13 2
  104.6314 0.14 3
  104.9543 24.12 449
  105.3575 0.09 2
  105.4888 0.02 0
  105.6151 0.02 0
  105.9499 1.73 32
  106.3027 0.05 1
  106.4563 0.07 1
  106.9594 9.87 184
  107.3299 0.09 2
  107.4934 0.03 1
  107.9520 1.19 22
  108.2380 0.01 0
  108.4722 0.19 4
  108.6920 0.02 0
  108.9606 5.70 106
  109.1774 0.10 2
  109.3365 0.08 1
  109.4665 0.03 1
  109.5877 0.05 1
  109.9285 1.14 21
  110.1075 0.08 1
  110.3209 0.06 1
  110.5693 0.15 3
  110.9221 27.55 512
  111.3387 0.04 1
  111.4183 0.02 0
  111.5468 0.07 1
  111.9308 0.40 7
  112.1289 0.03 1
  112.2296 0.05 1
  112.4361 0.14 3
  112.9118 1.19 22
  113.0891 0.15 3
  113.3023 0.24 4
  113.4594 0.14 3
  113.9269 0.97 18
  114.0893 0.21 4
  114.3047 0.14 3
  114.4972 0.29 5
  114.9220 18.98 353
  115.2536 0.20 4
  115.4035 0.22 4
  115.5136 0.08 1
  115.9212 5.10 95
  116.3168 0.18 3
  116.5632 0.20 4
  116.9386 12.40 231
  117.2193 0.16 3
  117.3163 0.07 1
  117.5514 0.10 2
  117.9352 2.15 40
  118.1641 0.09 2
  118.3906 0.09 2
  118.5148 0.08 1
  118.9416 23.85 444
  119.2417 0.08 1
  119.4363 0.18 3
  119.6284 0.07 1
  119.9508 1.25 23
  120.2417 0.04 1
  120.4269 0.03 1
  120.5250 0.03 1
  120.9395 8.72 162
  121.1759 0.05 1
  121.3026 0.06 1
  121.4415 0.12 2
  121.5087 0.06 1
  121.8999 1.39 26
  122.1780 0.02 0
  122.2952 0.01 0
  122.5210 0.02 0
  122.9289 3.28 61
  123.2626 0.03 1
  123.5782 0.03 1
  123.9083 1.02 19
  124.3851 0.09 2
  124.9421 22.71 422
  125.2572 0.21 4
  125.4847 0.10 2
  125.9176 1.49 28
  126.0705 0.18 3
  126.2956 0.15 3
  126.5201 0.11 2
  126.9114 7.46 139
  127.2240 0.27 5
  127.4696 0.31 6
  127.9109 20.45 380
  128.2005 0.27 5
  128.9118 18.82 350
  129.2312 0.12 2
  129.3403 0.06 1
  129.5088 0.11 2
  129.9153 6.33 118
  130.2226 0.06 1
  130.3449 0.14 3
  130.4993 0.12 2
  130.9253 13.20 246
  131.1407 0.23 4
  131.2442 0.11 2
  131.4275 0.04 1
  131.6083 0.09 2
  131.9235 2.79 52
  132.1103 0.14 3
  132.4119 0.14 3
  132.9255 8.64 161
  133.5681 0.08 1
  133.9038 1.07 20
  134.2343 0.09 2
  134.5169 0.04 1
  134.9042 7.53 140
  135.2799 0.08 1
  135.4010 0.15 3
  135.5016 0.03 1
  135.6228 0.13 2
  135.8967 0.77 14
  136.2187 0.05 1
  136.2912 0.03 1
  136.4566 0.11 2
  136.8949 5.87 109
  137.2175 0.03 1
  137.4030 0.07 1
  137.8961 1.53 28
  138.3102 0.10 2
  138.8964 6.05 113
  139.1854 0.07 1
  139.3362 0.11 2
  139.8965 1.23 23
  140.2427 0.22 4
  140.9031 15.80 294
  141.1522 0.19 4
  141.3471 0.21 4
  141.4551 0.13 2
  141.9114 12.87 239
  142.1867 0.12 2
  142.9141 18.68 347
  143.3272 0.09 2
  143.9232 5.41 101
  144.2949 0.17 3
  144.4431 0.10 2
  144.9234 14.09 262
  145.2955 0.11 2
  145.9154 2.67 50
  146.2018 0.06 1
  146.3351 0.10 2
  146.4330 0.06 1
  146.5316 0.03 1
  146.9236 11.65 217
  147.3631 0.18 3
  147.9276 1.12 21
  148.3815 0.16 3
  148.9218 3.07 57
  149.2940 0.12 2
  149.4457 0.04 1
  149.9023 1.18 22
  150.2274 0.12 2
  150.9166 7.25 135
  151.1937 0.29 5
  151.4548 0.32 6
  151.9063 9.89 184
  152.9171 16.01 298
  153.1733 0.31 6
  153.2820 0.14 3
  153.4424 0.19 4
  153.9121 4.42 82
  154.9208 14.82 276
  155.2534 0.26 5
  155.4812 0.10 2
  155.9303 8.37 156
  156.1906 0.15 3
  156.3541 0.15 3
  156.9456 16.75 312
  157.9435 4.33 81
  158.3100 0.14 3
  158.4893 0.16 3
  158.9463 9.94 185
  159.3300 0.15 3
  159.5736 0.13 2
  159.9345 1.56 29
  160.2497 0.10 2
  160.3732 0.05 1
  160.9425 7.34 137
  161.3248 0.10 2
  161.9310 1.48 28
  162.1811 0.13 2
  162.3238 0.16 3
  162.9379 4.02 75
  163.3852 0.19 4
  163.9389 2.80 52
  164.2518 0.35 7
  164.5247 0.45 8
  164.9387 20.07 373
  165.2335 0.20 4
  165.3806 0.17 3
  165.5440 0.23 4
  165.9535 6.42 119
  166.2499 0.20 4
  166.4392 0.12 2
  166.9468 13.33 248
  167.3283 0.12 2
  167.5523 0.07 1
  167.9714 4.20 78
  168.9655 12.82 238
  169.3639 0.24 4
  169.5196 0.12 2
  169.9815 4.88 91
  170.9735 10.14 189
  171.2729 0.15 3
  171.6287 0.33 6
  171.9656 2.52 47
  172.3331 0.17 3
  172.9693 6.27 117
  173.2739 0.07 1
  173.4459 0.10 2
  173.9417 2.04 38
  174.4139 0.21 4
  174.9353 19.19 357
  175.3016 0.14 3
  175.9432 2.25 42
  176.9525 4.59 85
  177.1809 0.52 10
  177.9434 12.13 226
  178.3030 0.11 2
  178.9418 16.08 299
  179.3017 0.05 1
  179.9437 6.15 114
  180.3427 0.20 4
  180.9510 12.68 236
  181.2812 0.30 6
  181.4658 0.22 4
  181.9610 5.02 93
  182.3311 0.22 4
  182.9656 11.42 212
  183.2825 0.13 2
  183.9605 2.47 46
  184.3400 0.11 2
  184.4832 0.10 2
  184.9622 5.39 100
  185.5079 0.19 4
  185.9667 1.38 26
  186.4105 0.12 2
  186.9388 3.36 62
  187.4646 0.16 3
  187.9432 1.42 26
  188.1155 0.39 7
  188.2501 0.21 4
  188.9309 8.40 156
  189.9331 2.61 49
  190.4151 0.34 6
  190.9496 10.49 195
  191.4773 0.17 3
  191.9488 8.13 151
  192.2365 0.27 5
  192.3598 0.18 3
  192.9389 14.74 274
  193.2613 0.19 4
  193.4756 0.13 2
  193.9469 6.42 119
  194.4970 0.38 7
  194.9479 21.19 394
  195.3493 0.19 4
  195.4921 0.20 4
  195.9446 3.40 63
  196.3517 0.10 2
  196.5347 0.18 3
  196.9633 7.94 148
  197.3265 0.17 3
  197.9591 1.75 33
  198.3771 0.21 4
  198.9479 3.71 69
  199.2223 0.16 3
  199.3405 0.11 2
  199.4905 0.12 2
  199.9420 1.60 30
  200.9277 3.59 67
  201.4993 0.24 4
  201.9326 7.57 141
  202.9332 7.97 148
  203.2989 0.21 4
  203.9364 3.40 63
  204.9422 8.63 161
  205.3027 0.08 1
  205.9520 5.11 95
  206.9519 12.76 237
  207.9579 4.65 86
  208.9644 9.03 168
  209.9519 2.18 41
  210.4163 0.11 2
  210.9573 4.74 88
  211.3106 0.28 5
  211.4797 0.13 2
  211.9757 1.22 23
  212.3348 0.15 3
  212.9515 4.02 75
  213.3908 0.21 4
  213.9340 1.10 20
  214.1144 0.37 7
  214.4954 0.88 16
  214.9476 8.56 159
  215.5225 0.16 3
  215.9659 3.09 57
  216.4971 0.32 6
  216.9721 8.16 152
  217.3173 0.17 3
  217.9592 3.74 70
  218.2202 0.17 3
  218.4861 0.20 4
  218.9782 8.40 156
  219.4593 0.21 4
  219.9844 4.46 83
  220.2785 0.24 4
  220.4971 0.21 4
  220.9932 8.24 153
  221.3237 0.21 4
  221.9989 2.82 52
  222.4687 0.21 4
  223.0078 5.08 94
  223.3575 0.16 3
  223.5317 0.19 4
  224.0151 1.66 31
  224.1753 0.48 9
  224.3608 0.15 3
  225.0096 3.50 65
  225.2538 0.27 5
  225.4835 0.28 5
  225.9848 2.41 45
  226.3707 0.24 4
  226.5633 0.18 3
  226.9780 3.16 59
  227.3962 0.24 4
  227.9821 3.24 60
  228.4874 0.27 5
  229.0020 6.17 115
  229.6268 0.15 3
  229.9964 2.55 47
  230.3914 0.18 3
  231.0151 7.69 143
  231.4067 0.12 2
  231.5758 0.17 3
  232.0265 3.66 68
  233.0190 7.52 140
  233.3622 0.23 4
  233.5191 0.13 2
  234.0348 3.38 63
  234.4853 0.36 7
  235.0334 8.97 167
  235.5178 1.14 21
  236.0296 1.61 30
  236.3585 0.13 2
  236.5394 0.11 2
  237.0304 4.25 79
  237.2794 0.26 5
  238.0260 0.97 18
  238.9952 4.65 86
  239.3427 0.28 5
  239.9908 1.26 23
  240.1804 0.46 9
  240.3975 0.31 6
  240.9945 3.41 63
  241.4484 0.24 4
  241.9930 1.77 33
  242.4969 0.27 5
  243.0129 5.54 103
  243.3848 0.15 3
  243.5430 0.24 4
  244.0071 2.61 49
  245.0179 6.87 128
  246.0115 2.77 52
  247.0132 7.70 143
  247.3906 0.17 3
  248.0089 2.34 44
  249.0281 4.27 79
  249.5354 0.21 4
  249.9893 1.17 22
  250.2606 0.12 2
  250.4939 0.29 5
  251.0304 2.27 42
  251.9880 2.33 43
  252.2821 0.22 4
  252.4922 0.27 5
  253.0044 3.17 59
  253.4467 0.16 3
  253.6267 0.13 2
  254.0106 1.35 25
  254.2329 0.28 5
  255.0192 3.79 70
  255.3849 0.13 2
  255.4767 0.07 1
  256.0140 1.84 34
  256.2612 0.24 4
  256.5381 0.19 4
  257.0219 5.54 103
  258.0266 2.55 47
  258.3503 0.06 1
  259.0172 5.40 100
  259.4213 0.21 4
  260.0297 1.79 33
  260.3711 0.23 4
  260.4609 0.11 2
  261.0462 5.94 110
  261.4379 0.21 4
  261.5955 0.18 3
  262.0219 1.03 19
  262.3303 0.05 1
  262.4915 0.22 4
  263.0333 3.67 68
  263.3510 0.10 2
  263.4656 0.15 3
  264.0302 1.26 23
  264.4562 0.20 4
  265.0167 2.22 41
  265.4053 0.17 3
  265.5441 0.12 2
  266.0135 0.99 18
  266.3208 0.21 4
  267.0403 3.39 63
  267.3314 0.13 2
  267.5963 0.06 1
  268.0362 1.34 25
  268.4280 0.25 5
  269.0339 3.40 63
  269.6235 0.26 5
  270.0226 1.55 29
  270.2827 0.24 4
  270.4749 0.19 4
  271.0428 3.54 66
  271.4973 0.15 3
  272.0392 1.68 31
  272.4449 0.14 3
  273.0380 3.56 66
  273.4722 0.14 3
  273.5807 0.06 1
  273.7354 0.17 3
  274.0548 1.15 21
  274.4125 0.08 1
  274.5161 0.07 1
  275.0534 2.92 54
  275.5717 0.06 1
  276.0161 1.23 23
  276.4230 0.13 2
  277.0588 2.29 43
  277.3176 0.15 3
  277.5204 0.10 2
  277.7288 0.21 4
  278.0876 0.81 15
  279.0232 2.53 47
  280.0129 1.06 20
  280.4883 0.11 2
  281.0618 2.81 52
  281.4955 0.18 3
  282.0684 1.50 28
  282.4986 0.16 3
  283.0440 3.31 62
  283.4722 0.09 2
  284.0475 1.41 26
  284.6698 0.15 3
  285.0556 3.02 56
  285.4563 0.11 2
  286.0696 1.44 27
  286.2586 0.20 4
  286.5067 0.19 4
  287.0569 2.46 46
  287.3889 0.11 2
  287.5062 0.08 1
  287.7650 0.17 3
  288.0657 0.93 17
  289.0492 1.54 29
  289.5514 0.17 3
  290.0657 0.58 11
  290.2606 0.16 3
  290.4947 0.10 2
  291.0646 1.05 20
  291.3955 0.10 2
  291.5058 0.03 1
  291.7485 0.17 3
  292.0858 0.60 11
  292.3876 0.14 3
  293.0596 1.56 29
  293.3264 0.09 2
  293.6435 0.17 3
  294.0687 0.93 17
  294.3680 0.06 1
  294.5664 0.24 4
  295.0835 2.29 43
  295.4427 0.03 1
  296.0509 0.99 18
  296.4066 0.16 3
  297.0576 2.08 39
  297.3472 0.13 2
  298.0340 1.28 24
  298.4475 0.12 2
  298.5728 0.07 1
  299.0647 2.95 55
  299.3495 0.18 3
  299.4534 0.11 2
  300.0401 0.79 15
  300.3135 0.07 1
  300.4652 0.05 1
  300.6632 0.11 2
  301.0770 2.32 43
  301.4138 0.14 3
  301.5421 0.12 2
  302.0243 0.36 7
  302.2858 0.12 2
  302.5536 0.07 1
  303.0773 1.18 22
  303.3574 0.08 1
  303.5982 0.12 2
  303.9653 0.38 7
  304.2190 0.20 4
  304.4998 0.09 2
  305.0515 1.26 23
  305.4785 0.08 1
  305.6625 0.14 3
  306.0375 0.42 8
  306.3085 0.03 1
  306.5580 0.09 2
  307.0522 1.86 35
  307.9944 0.46 9
  308.4232 0.10 2
  308.5887 0.11 2
  309.0431 1.18 22
  309.4933 0.07 1
  309.7595 0.20 4
  310.0414 0.56 10
  310.3425 0.02 0
  310.5623 0.05 1
  311.0370 1.49 28
  311.3254 0.20 4
  311.4110 0.11 2
  311.6323 0.13 2
  312.0314 0.77 14
  312.5055 0.12 2
  313.0503 3.47 65
  313.4009 0.12 2
  313.5744 0.06 1
  314.0358 0.71 13
  314.3251 0.06 1
  315.0530 1.68 31
  315.6009 0.07 1
  316.0796 0.48 9
  317.0479 1.27 24
  317.6740 0.09 2
  318.0822 0.37 7
  318.3474 0.08 1
  318.6176 0.04 1
  319.0487 1.13 21
  319.2167 0.32 6
  319.4677 0.14 3
  319.6321 0.07 1
  320.0604 0.65 12
  320.1813 0.32 6
  320.5145 0.08 1
  321.0602 0.88 16
  321.1897 0.47 9
  321.4858 0.08 1
  321.6582 0.06 1
  322.0602 0.41 8
  322.2298 0.22 4
  322.5231 0.12 2
  322.6576 0.06 1
  323.0511 0.86 16
  323.2271 0.40 7
  323.3388 0.19 4
  323.5785 0.12 2
  324.0515 0.78 15
  324.2562 0.13 2
  324.4165 0.02 0
  324.5704 0.20 4
  325.0385 1.03 19
  325.3699 0.06 1
  325.6147 0.18 3
  326.0572 0.38 7
  326.4445 0.05 1
  326.5927 0.15 3
  327.0753 1.52 28
  327.5501 0.13 2
  328.0543 0.52 10
  328.3085 0.16 3
  328.5570 0.15 3
  328.7576 0.13 2
  329.1143 1.24 23
  329.7741 0.18 3
  330.0822 0.58 11
  330.2126 0.27 5
  330.5422 0.07 1
  330.6891 0.08 1
  331.1075 1.60 30
  331.3863 0.10 2
  331.5526 0.11 2
  331.6830 0.09 2
  332.0672 0.62 12
  332.4169 0.12 2
  332.6191 0.07 1
  333.1094 2.07 39
  333.3302 0.22 4
  333.5582 0.08 1
  333.8292 0.11 2
  334.1066 0.62 12
  334.3690 0.12 2
  334.6243 0.02 0
  335.0904 0.90 17
  335.5652 0.13 2
  335.7502 0.06 1
  336.0687 0.33 6
  336.3412 0.10 2
  336.4847 0.04 1
  337.0930 0.81 15
  337.2874 0.22 4
  337.3878 0.09 2
  337.6627 0.06 1
  338.0542 0.39 7
  338.4207 0.01 0
  338.5345 0.02 0
  339.0693 1.15 21
  339.3744 0.04 1
  339.8161 0.12 2
  340.1427 0.33 6
  340.3174 0.16 3
  340.4928 0.05 1
  340.7198 0.20 4
  341.0808 0.87 16
  341.7706 0.14 3
  342.1008 0.32 6
  342.2849 0.10 2
  342.6803 0.12 2
  343.0987 0.51 9
  343.5035 0.09 2
  343.7357 0.09 2
  344.0674 0.25 5
  344.4035 0.06 1
  345.0793 0.84 16
  345.6298 0.12 2
  346.1057 0.94 17
  346.4677 0.09 2
  346.6606 0.09 2
  346.7602 0.05 1
  347.1165 1.60 30
  347.5955 0.09 2
  347.6822 0.03 1
  348.1246 1.06 20
  348.5434 0.13 2
  349.1078 1.56 29
  349.4549 0.05 1
  349.5926 0.02 0
  349.7267 0.05 1
  350.0000 0.26 5
  350.1649 0.18 3
  350.2934 0.07 1
  350.4002 0.09 2
  351.0480 0.53 10
  351.4103 0.10 2
  351.7367 0.08 1
  352.1120 0.31 6
  352.2899 0.13 2
  352.3969 0.03 1
  352.7025 0.13 2
  353.0972 1.08 20
  353.3972 0.05 1
  353.5881 0.04 1
  354.1264 0.31 6
  354.4809 0.04 1
  354.5965 0.03 1
  355.0732 0.73 14
  355.2741 0.38 7
  355.5082 0.07 1
  356.0717 0.29 5
  356.3302 0.06 1
  356.4386 0.10 2
  356.6792 0.11 2
  357.0999 0.82 15
  357.5502 0.07 1
  357.6744 0.07 1
  357.8590 0.11 2
  358.0378 0.12 2
  358.2683 0.12 2
  358.5506 0.10 2
  358.7531 0.07 1
  359.1173 0.51 9
  359.3450 0.09 2
  359.4987 0.08 1
  359.8127 0.08 1
  360.1201 0.74 14
  360.4384 0.08 1
  360.5699 0.05 1
  360.8745 0.19 4
  361.1260 0.33 6
  361.4084 0.04 1
  361.7166 0.01 0
  362.1492 0.19 4
  362.3583 0.08 1
  362.4748 0.06 1
  362.6228 0.06 1
  362.7090 0.02 0
  363.0806 0.22 4
  363.4996 0.04 1
  364.0474 0.03 1
  364.2005 0.23 4
  364.3385 0.04 1
  364.4744 0.03 1
  365.1112 0.41 8
  365.3103 0.11 2
  366.0412 0.18 3
  366.4365 0.08 1
  366.5659 0.08 1
  366.6989 0.07 1
  367.1093 0.83 15
  367.2768 0.47 9
  367.7800 0.13 2
  368.0381 0.16 3
  368.2035 0.31 6
  368.3990 0.07 1
  368.5428 0.02 0
  368.6729 0.01 0
  369.1015 0.45 8
  369.4588 0.09 2
  369.7831 0.13 2
  370.1053 0.22 4
  370.2772 0.11 2
  370.4383 0.03 1
  370.5915 0.03 1
  370.7130 0.05 1
  371.1223 0.74 14
  371.4632 0.03 1
  371.7171 0.06 1
  371.7991 0.04 1
  372.1436 0.63 12
  372.5767 0.08 1
  372.7976 0.05 1
  373.1674 0.81 15
  373.5659 0.12 2
  373.7523 0.04 1
  374.1898 0.42 8
  374.4582 0.07 1
  375.1000 0.28 5
  375.4261 0.03 1
  375.8320 0.04 1
  376.0558 0.22 4
  376.2249 0.02 0
  376.3710 0.06 1
  376.4524 0.03 1
  376.6367 0.08 1
  377.0909 0.34 6
  377.2686 0.27 5
  377.5314 0.04 1
  377.8676 0.05 1
  377.9785 0.05 1
  378.1433 0.07 1
  378.5890 0.07 1
  378.7747 0.08 1
  379.0844 0.60 11
  379.4573 0.09 2
  379.7168 0.06 1
  379.9367 0.05 1
  380.0855 0.13 2
  380.2954 0.08 1
  380.6154 0.07 1
  380.7864 0.02 0
  381.1481 0.34 6
  381.6413 0.04 1
  381.7758 0.03 1
  382.1202 0.10 2
  382.4430 0.09 2
  382.7263 0.08 1
  383.1672 0.61 11
  383.5598 0.03 1
  383.7490 0.06 1
  383.9641 0.12 2
  384.1273 0.12 2
  384.2338 0.07 1
  384.4661 0.09 2
  384.7473 0.07 1
  385.1646 0.52 10
  385.6789 0.11 2
  386.1422 0.45 8
  386.6005 0.12 2
  386.8904 0.08 1
  387.1559 0.25 5
  387.4006 0.05 1
  387.5905 0.08 1
  387.8863 0.06 1
  388.0043 0.03 1
  388.1432 0.03 1
  388.3137 0.15 3
  388.6491 0.06 1
  388.8239 0.04 1
  389.1053 0.30 6
  389.2068 0.08 1
  389.3508 0.03 1
  389.6999 0.01 0
  389.9194 0.07 1
  390.0446 0.03 1
  390.1612 0.07 1
  390.4081 0.01 0
  390.7925 0.03 1
  391.1193 0.55 10
  391.5081 0.03 1
  391.5945 0.03 1
  391.9149 0.08 1
  392.1366 0.18 3
  392.7011 0.12 2
  392.8559 0.10 2
  392.9725 0.10 2
  393.1028 0.22 4
  393.2663 0.23 4
  393.6307 0.08 1
  393.8208 0.03 1
  393.9857 0.07 1
  394.0591 0.03 1
  394.2154 0.03 1
  394.2917 0.02 0
  394.7397 0.08 1
  395.1178 0.34 6
  395.3116 0.17 3
  395.8532 0.09 2
  396.0780 0.09 2
  396.2897 0.12 2
  396.4475 0.08 1
  396.7450 0.08 1
  397.1477 0.38 7
  397.5468 0.06 1
  398.2270 0.11 2
  398.4482 0.08 1
  398.7709 0.08 1
  398.9129 0.27 5
  399.1464 0.49 9
  399.3445 0.11 2
  399.5175 0.04 1
  400.1884 0.52 10
  400.5365 0.08 1
  400.7368 0.04 1
  401.1931 1.84 34
  401.6414 0.04 1
  401.7776 0.03 1
  402.1741 0.29 5
  402.5857 0.03 1
  403.0413 0.21 4
  403.1653 0.12 2
  403.3253 0.10 2
  403.5308 0.04 1
  403.6678 0.03 1
  403.8589 0.08 1
  404.1429 0.11 2
  404.4465 0.06 1
  404.6765 0.03 1
  405.1207 0.26 5
  405.2534 0.15 3
  405.6846 0.08 1
  405.9413 0.05 1
  406.1800 0.07 1
  406.3105 0.07 1
  407.1133 0.37 7
  407.4501 0.06 1
  407.9362 0.04 1
  408.1252 0.09 2
  408.4570 0.02 0
  408.6814 0.05 1
  409.1813 0.36 7
  409.4273 0.08 1
  409.6502 0.04 1
  409.8479 0.10 2
  410.0002 0.08 1
  410.2216 0.22 4
  410.5723 0.06 1
  410.9107 0.18 3
  411.1416 0.20 4
  411.3271 0.15 3
  411.6814 0.08 1
  411.9872 0.07 1
  412.1981 0.27 5
  412.3664 0.11 2
  412.5247 0.03 1
  412.7355 0.02 0
  413.1471 0.48 9
  413.3464 0.25 5
  413.4680 0.07 1
  413.6313 0.03 1
  413.8465 0.02 0
  414.0840 0.13 2
  414.3452 0.10 2
  414.4978 0.08 1
  414.6691 0.05 1
  414.9965 0.24 4
  415.1844 0.46 9
  415.3412 0.19 4
  415.4845 0.05 1
  415.7148 0.06 1
  415.9055 0.08 1
  416.1035 0.16 3
  416.2683 0.03 1
  416.7311 0.01 0
  416.9262 0.10 2
  417.1789 0.15 3
  417.5554 0.04 1
  417.6986 0.06 1
  417.8124 0.06 1
  418.0492 0.03 1
  418.2515 0.06 1
  418.7375 0.03 1
  418.9571 0.03 1
  419.1817 0.12 2
  419.8549 0.11 2
  420.0127 0.04 1
  420.2733 0.02 0
  420.6384 0.06 1
  420.9697 0.05 1
  421.1425 0.13 2
  421.3262 0.05 1
  422.2423 0.08 1
  422.4022 0.07 1
  422.7702 0.03 1
  422.9892 0.18 3
  423.2478 0.20 4
  423.3998 0.08 1
  423.8572 0.08 1
  424.1252 0.21 4
  424.2577 0.11 2
  424.3485 0.06 1
  424.4731 0.04 1
  425.1583 0.45 8
  425.4818 0.10 2
  425.8341 0.06 1
  426.1201 0.31 6
  426.3183 0.24 4
  426.4746 0.07 1
  426.6749 0.02 0
  426.8198 0.05 1
  427.1174 0.42 8
  427.4071 0.06 1
  427.7155 0.04 1
  428.1248 0.47 9
  428.5371 0.07 1
  429.0999 0.56 10
  429.2598 0.21 4
  429.8513 0.11 2
  430.0206 0.10 2
  430.2252 0.05 1
  430.3621 0.03 1
  430.4766 0.04 1
  430.7554 0.03 1
  430.8952 0.05 1
  431.1719 0.18 3
  431.3888 0.05 1
  431.5934 0.08 1
  431.7966 0.03 1
  432.0041 0.13 2
  432.0927 0.07 1
  432.3075 0.06 1
  432.7427 0.10 2
  433.1780 0.44 8
  433.5549 0.04 1
  433.6558 0.05 1
  434.0406 0.09 2
  434.2064 0.14 3
  435.0158 0.13 2
  435.1210 0.09 2
  435.5831 0.04 1
  435.7618 0.04 1
  435.8707 0.05 1
  436.2052 0.08 1
  437.0897 0.32 6
  437.3507 0.02 0
  438.2793 0.05 1
  438.9946 0.06 1
  439.2138 0.27 5
  439.3933 0.03 1
  439.5101 0.02 0
  439.6342 0.04 1
  439.9075 0.05 1
  440.0848 0.07 1
  440.3134 0.10 2
  440.4570 0.01 0
  441.1226 0.23 4
  441.3361 0.10 2
  441.4731 0.05 1
  441.5719 0.05 1
  441.8878 0.03 1
  442.1843 0.23 4
  442.4720 0.03 1
  443.1342 0.84 16
  443.4797 0.05 1
  443.6168 0.05 1
  443.7755 0.01 0
  444.0951 0.19 4
  444.3735 0.20 4
  445.1101 0.16 3
  445.2530 0.15 3
  445.4485 0.07 1
  445.6902 0.07 1
  445.9918 0.09 2
  446.1866 0.07 1
  446.3923 0.13 2
  446.8707 0.02 0
  447.0648 0.10 2
  447.2473 0.20 4
  447.4082 0.04 1
  447.5547 0.07 1
  447.9242 0.07 1
  448.0758 0.05 1
  448.1746 0.02 0
  448.3500 0.04 1
  449.0818 0.20 4
  449.2305 0.16 3
  449.6116 0.04 1
  450.0244 0.07 1
  450.1175 0.02 0
  450.2511 0.12 2
  450.4647 0.09 2
  450.8523 0.04 1
  451.1165 0.25 5
  451.4305 0.06 1
  452.1257 0.04 1
  452.5055 0.04 1
  453.0419 0.28 5
  453.2325 0.22 4
  453.3957 0.06 1
  453.6274 0.04 1
  453.9863 0.19 4
  454.1993 0.18 3
  454.4534 0.05 1
  454.7242 0.02 0
  454.9690 0.20 4
  455.0520 0.11 2
  455.2903 0.09 2
  455.5323 0.04 1
  455.6738 0.02 0
  455.8168 0.03 1
  456.0667 0.23 4
  456.2284 0.26 5
  456.6790 0.04 1
  457.0965 0.21 4
  457.4302 0.07 1
  457.5334 0.03 1
  457.9336 0.19 4
  458.1069 0.08 1
  458.4089 0.10 2
  458.5179 0.05 1
  458.7946 0.05 1
  459.0908 0.09 2
  459.5646 0.06 1
  459.8463 0.10 2
  460.4467 0.14 3
  460.5767 0.05 1
  460.7841 0.06 1
  460.9004 0.06 1
  461.0947 0.10 2
  461.4206 0.13 2
  461.6185 0.07 1
  461.8685 0.02 0
  461.9834 0.07 1
  462.1272 0.06 1
  462.3707 0.11 2
  462.6359 0.09 2
  462.9805 0.10 2
  463.1439 0.14 3
  463.3592 0.07 1
  463.4958 0.03 1
  463.6714 0.08 1
  464.0154 0.12 2
  464.3066 0.04 1
  464.4612 0.05 1
  464.7111 0.11 2
  465.0258 0.10 2
  465.1969 0.15 3
  465.3500 0.07 1
  466.2618 0.07 1
  466.5484 0.02 0
  466.7895 0.14 3
  466.9426 0.07 1
  467.2191 0.04 1
  467.3577 0.08 1
  467.7007 0.08 1
  467.9375 0.03 1
  468.1404 0.13 2
  468.3116 0.18 3
  468.4827 0.18 3
  468.9203 0.18 3
  469.2344 0.16 3
  469.5391 0.07 1
  469.7810 0.08 1
  470.1494 0.23 4
  470.3732 0.09 2
  470.4873 0.05 1
  470.6130 0.09 2
  471.1886 0.98 18
  471.7195 0.14 3
  472.0250 0.08 1
  472.1608 0.09 2
  472.3023 0.02 0
  472.4872 0.05 1
  472.5804 0.04 1
  473.1424 0.28 5
  473.3562 0.18 3
  473.5498 0.01 0
  473.8055 0.05 1
  474.1075 0.04 1
  474.2332 0.03 1
  474.4109 0.06 1
  474.5800 0.03 1
  474.7757 0.02 0
  475.0662 0.09 2
  475.2020 0.06 1
  475.3833 0.16 3
  475.5220 0.03 1
  475.8797 0.05 1
  476.0820 0.03 1
  476.2286 0.08 1
  476.3876 0.08 1
  476.6058 0.08 1
  476.8211 0.02 0
  476.9490 0.06 1
  477.1788 0.16 3
  477.3876 0.10 2
  477.4967 0.06 1
  477.6492 0.16 3
  477.9852 0.07 1
  478.1825 0.09 2
  478.5250 0.08 1
  478.7743 0.09 2
  479.0041 0.08 1
  479.2281 0.14 3
  479.4110 0.14 3
  479.6307 0.10 2
  479.8164 0.11 2
  480.0123 0.02 0
  480.3014 0.22 4
  480.6664 0.26 5
  481.5258 0.59 11
  482.2118 0.43 8
  482.5255 0.36 7
  482.6267 0.17 3
  483.0228 0.25 5
  483.2614 0.27 5
  483.4320 0.12 2
  483.5925 0.04 1
  483.8752 0.13 2
  484.1253 0.19 4
  484.2793 0.09 2
  484.3834 0.06 1
  484.6501 0.12 2
  484.8757 0.03 1
  485.0507 0.04 1
  485.1859 0.08 1
  485.4455 0.19 4
  485.7520 0.01 0
  486.0868 0.12 2
  486.2661 0.10 2
  486.4606 0.04 1
  486.6067 0.08 1
  486.7484 0.09 2
  486.8706 0.09 2
  487.1136 0.09 2
  487.2719 0.03 1
  487.4549 0.04 1
  487.7485 0.09 2
  487.8924 0.11 2
  488.0052 0.04 1
  488.3278 0.14 3
  488.4109 0.09 2
  488.6987 0.05 1
  489.1833 0.21 4
  489.3185 0.13 2
  489.4314 0.11 2
  489.5956 0.13 2
  489.8393 0.15 3
  490.0599 0.22 4
  490.1937 0.19 4
  490.3897 0.16 3
  490.6125 0.04 1
  490.7593 0.01 0
  491.2323 0.51 9
  491.4334 0.20 4
  491.6403 0.02 0
  491.8161 0.08 1
  492.0678 0.17 3
  492.2819 0.02 0
  492.3738 0.02 0
  492.6313 0.13 2
  492.9988 0.11 2
  493.3020 0.16 3
  493.7827 0.04 1
  494.1242 0.11 2
  494.2664 0.11 2
  494.6858 0.09 2
  494.8800 0.08 1
  495.2272 0.25 5
  495.4496 0.07 1
  495.8127 0.10 2
  496.1932 0.36 7
  496.4726 0.24 4
  496.6394 0.12 2
  496.7614 0.08 1
  497.2134 0.27 5
  497.4192 0.11 2
  497.5650 0.17 3
  497.7816 0.04 1
  498.1918 0.26 5
  498.3571 0.10 2
  498.4539 0.08 1
  498.6070 0.03 1
  498.7875 0.13 2
  499.1291 0.27 5
  499.2648 0.27 5
  499.3833 0.10 2
  499.5161 0.07 1
  499.6288 0.07 1
  499.7812 0.10 2
  500.0426 0.08 1
  500.3734 0.16 3
  500.5532 0.08 1
  500.7706 0.07 1
  501.2119 0.19 4
  501.4220 0.12 2
  501.8034 0.09 2
  502.0988 0.15 3
  502.2700 0.19 4
  502.3545 0.08 1
  502.5892 0.05 1
  502.6809 0.03 1
  502.8976 0.05 1
  502.9857 0.04 1
  503.1403 0.22 4
  503.2509 0.22 4
  503.3281 0.10 2
  503.5333 0.11 2
  503.6510 0.02 0
  504.2679 1.20 22
  504.8878 0.10 2
  505.0741 0.08 1
  505.2020 0.10 2
  505.3573 0.10 2
  505.6159 0.07 1
  505.8414 0.07 1
  506.1968 0.07 1
  506.3673 0.12 2
  506.4916 0.05 1
  506.6816 0.08 1
  506.9872 0.07 1
  507.2329 0.19 4
  507.5031 0.03 1
  507.8022 0.05 1
  508.0414 0.03 1
  508.1953 0.07 1
  508.3593 0.05 1
  508.5046 0.04 1
  508.8868 0.08 1
  509.1202 0.19 4
  509.3399 0.25 5
  509.5220 0.10 2
  509.7012 0.11 2
  509.8132 0.04 1
  509.9787 0.03 1
  510.2692 0.16 3
  510.3682 0.09 2
  510.5785 0.05 1
  510.7469 0.04 1
  511.2347 0.36 7
  511.4508 0.23 4
  511.6879 0.05 1
  512.2596 1.11 21
  512.4894 0.33 6
  512.6499 0.07 1
  513.0655 0.06 1
  513.2578 0.29 5
  513.4016 0.16 3
  513.5563 0.11 2
  513.8245 0.03 1
  514.1049 0.10 2
  514.2827 0.05 1
  514.4461 0.07 1
  515.2593 0.21 4
  515.4010 0.10 2
  515.5326 0.02 0
  515.7632 0.09 2
  515.9779 0.03 1
  516.1016 0.18 3
  516.2975 0.42 8
  516.4102 0.08 1
  516.6163 0.04 1
  516.7761 0.10 2
  517.2692 1.72 32
  517.6313 0.08 1
  517.8895 0.03 1
  518.1295 0.20 4
  518.2720 0.09 2
  518.5380 0.13 2
  518.7709 0.10 2
  519.0211 0.21 4
  519.2372 0.21 4
  519.3956 0.08 1
  519.6448 0.05 1
  519.8086 0.11 2
  520.0632 0.15 3
  520.2342 0.16 3
  520.4326 0.18 3
  520.5480 0.06 1
  520.7111 0.12 2
  520.8828 0.15 3
  521.2817 0.38 7
  521.5422 0.18 3
  522.1396 0.30 6
  522.3019 0.33 6
  522.5934 0.22 4
  522.8113 0.16 3
  522.9368 0.10 2
  523.1418 0.23 4
  523.3575 0.27 5
  523.5862 0.15 3
  523.7905 0.09 2
  523.9759 0.23 4
  524.2783 0.35 7
  524.3887 0.09 2
  524.6376 0.12 2
  525.0648 0.26 5
  525.4061 0.21 4
  525.5663 0.28 5
  525.9416 0.18 3
  526.1646 0.20 4
  526.2556 0.09 2
  526.4843 0.17 3
  526.6972 0.09 2
  526.9924 0.21 4
  527.0920 0.10 2
  527.4269 0.17 3
  527.7192 0.14 3
  527.8433 0.08 1
  528.1255 0.18 3
  528.2482 0.16 3
  528.5297 0.11 2
  528.7253 0.12 2
  529.0162 0.06 1
  529.2905 0.16 3
  529.3836 0.12 2
  529.5778 0.05 1
  529.7308 0.08 1
  530.2368 0.08 1
  530.5075 0.23 4
  530.7407 0.08 1
  530.9349 0.10 2
  531.1745 0.07 1
  531.3564 0.05 1
  531.6899 0.06 1
  531.8610 0.04 1
  532.0148 0.05 1
  532.4155 0.04 1
  532.6573 0.07 1
  532.8574 0.03 1
  533.1151 0.14 3
  533.3844 0.11 2
  533.5974 0.08 1
  533.7367 0.06 1
  534.0313 0.08 1
  534.1894 0.04 1
  534.4486 0.05 1
  534.6602 0.06 1
  534.8126 0.01 0
  535.0754 0.14 3
  535.3657 0.20 4
  535.6797 0.09 2
  536.1058 0.19 4
  536.3333 0.23 4
  536.6322 0.10 2
  536.7896 0.17 3
  537.2446 1.63 30
  537.4294 0.76 14
  537.6967 0.13 2
  537.8425 0.16 3
  538.0050 0.12 2
  538.1531 0.09 2
  538.3943 0.15 3
  538.6023 0.06 1
  538.7770 0.10 2
  539.2725 0.57 11
  539.4631 0.18 3
  539.6011 0.08 1
  539.7759 0.04 1
  540.1255 0.20 4
  540.3920 0.19 4
  540.5249 0.05 1
  540.6202 0.05 1
  540.7344 0.03 1
  541.0615 0.15 3
  541.1786 0.12 2
  541.6394 0.06 1
  541.8828 0.03 1
  542.3394 0.06 1
  542.6572 0.05 1
  542.7808 0.02 0
  542.9093 0.03 1
  543.0249 0.04 1
  543.3319 0.04 1
  543.5356 0.08 1
  544.3801 0.09 2
  544.7341 0.06 1
  545.0499 0.09 2
  545.1647 0.04 1
  545.3851 0.08 1
  545.5361 0.07 1
  545.7211 0.08 1
  545.8446 0.03 1
  546.0671 0.13 2
  546.4118 0.09 2
  546.6777 0.05 1
  546.9602 0.03 1
  547.2022 0.25 5
  547.3171 0.16 3
  547.4190 0.11 2
  547.5722 0.16 3
  547.8085 0.10 2
  547.9884 0.19 4
  548.2471 0.25 5
  548.5954 0.25 5
  548.8461 0.23 4
  548.9769 0.31 6
  549.2768 0.29 5
  549.5875 0.26 5
  549.8188 0.33 6
  550.2336 0.41 8
  550.6376 0.18 3
  551.3827 0.37 7
  552.3331 0.56 10
  553.2185 0.64 12
  553.5633 0.39 7
  554.2593 0.50 9
  554.6880 0.59 11
  555.1434 0.54 10
  555.5901 0.54 10
  556.0571 0.56 10
  556.4432 0.50 9
  557.0251 0.66 12
  557.7010 0.54 10
  558.2592 0.39 7
  558.5585 0.52 10
  559.1919 0.43 8
  559.3958 0.32 6
  559.6879 0.42 8
  560.0350 0.47 9
  560.1629 0.50 9
  560.3184 0.38 7
  560.6944 0.31 6
  561.0798 0.22 4
  561.2150 0.25 5
  561.3683 0.10 2
  561.4999 0.33 6
  561.7400 0.13 2
  562.2542 0.21 4
  563.2825 2.09 39
  563.5790 0.69 13
  563.9189 0.18 3
  564.1292 0.12 2
  564.3428 0.17 3
  564.5327 0.09 2
  564.6836 0.09 2
  565.1840 0.25 5
  565.6049 0.29 5
  565.9067 0.34 6
  566.4150 0.61 11
  566.9703 0.53 10
  567.3082 0.83 15
  567.6259 0.64 12
  567.7718 0.39 7
  567.9588 0.39 7
  568.2231 0.70 13
  568.5387 0.59 11
  569.4240 0.84 16
  570.2820 1.08 20
  571.1934 1.17 22
  571.7069 1.02 19
  572.5533 1.32 25
  573.6650 1.58 29
  574.3122 1.67 31
  578.2370 17.21 320
  580.3510 2.41 45
  581.3113 20.84 388
  581.9139 1.14 21
  582.2926 1.20 22
  582.8729 0.92 17
  583.5739 0.97 18
  586.5087 1.29 24
  596.2985 99.97 999
  597.1000 29.17 543
  597.8010 14.01 261
  598.4754 7.52 140
  599.4416 3.34 62
  600.1774 2.33 43
  601.0071 1.25 23
  601.6830 0.75 14
  602.0333 0.72 13
  602.2622 0.65 12
  602.4673 0.48 9
  602.8154 0.27 5
  603.1570 0.32 6
  603.6799 0.19 4
//
