ACCESSION: MSBNK-Kyoto_Univ-CA000148
RECORD_TITLE: Crassostreaxanthin B; FAB-EBEB; MS2; m/z: 598.40; [M]*+
DATE: 2016.01.19 (Created 2007.03.15, modified 2011.05.10)
AUTHORS: Akimoto N, Graduate School of Pharmaceutical Sciences, Kyoto University and Maoka T, Research Institute for Production Development
LICENSE: CC BY-SA
COMMENT: Profile spectrum of this record is given as a JPEG file.
COMMENT: [Profile] CA000148.jpg
CH$NAME: Crassostreaxanthin B
CH$COMPOUND_CLASS: Natural Product; Carotenoid
CH$FORMULA: C40H54O4
CH$EXACT_MASS: 598.40221
CH$SMILES: CC(C)(C=1C#CC(C)=CC=CC(=CC=CC=C(C=CC=C(C(CC(=C(C)CC(O)CC(C)=O)C)=O)C)C)C)CC(CC(C)1)O
CH$IUPAC: InChI=1S/C40H54O4/c1-28(17-13-18-30(3)21-22-38-34(7)24-37(43)27-40(38,9)10)15-11-12-16-29(2)19-14-20-31(4)39(44)25-33(6)32(5)23-36(42)26-35(8)41/h11-20,36-37,42-43H,23-27H2,1-10H3/b12-11+,17-13+,19-14+,28-15+,29-16+,30-18+,31-20+,33-32+/t36-,37+/m0/s1
CH$LINK: CHEMSPIDER 8707001
CH$LINK: PUBCHEM CID:10531609
CH$LINK: INCHIKEY LGLPDUBVWXHHHU-ZCJJJFIZSA-N
AC$INSTRUMENT: JMS-HX/HX 110A, JEOL
AC$INSTRUMENT_TYPE: FAB-EBEB
AC$MASS_SPECTROMETRY: MS_TYPE MS2
AC$MASS_SPECTROMETRY: ION_MODE POSITIVE
AC$MASS_SPECTROMETRY: ATOM_GUN_CURRENT 5 mA
AC$MASS_SPECTROMETRY: BOMBARDMENT 6 kV xenon
AC$MASS_SPECTROMETRY: COLLISION_ENERGY 3 kV
AC$MASS_SPECTROMETRY: COLLISION_GAS Ar
AC$MASS_SPECTROMETRY: GAS_PRESSURE adjust to attenuate the intensity of the precursor ion by 30 %
AC$MASS_SPECTROMETRY: IONIZATION FAB
AC$MASS_SPECTROMETRY: MATRIX 1-2 uL m-NBA
AC$MASS_SPECTROMETRY: PROBE_TIP stainless-steel
MS$FOCUSED_ION: BASE_PEAK 598.4255
MS$FOCUSED_ION: PRECURSOR_M/Z 598.40
MS$FOCUSED_ION: PRECURSOR_TYPE [M]+*
PK$SPLASH: splash10-0002-2941020000-2860d189d98e4317c217
PK$NUM_PEAK: 1787
PK$PEAK: m/z int. rel.int.
  0.1263 0.01 0
  0.1890 0.01 0
  0.2415 0.01 0
  0.6509 0.01 0
  1.4238 0.01 0
  2.1158 0.01 0
  5.6062 0.01 0
  8.9370 0.01 0
  11.9528 0.01 0
  12.8871 0.02 0
  13.9815 0.07 1
  14.9819 0.16 2
  17.6661 0.01 0
  22.1213 0.01 0
  23.9013 0.01 0
  24.9529 0.03 0
  25.9561 0.23 2
  26.9630 1.33 13
  27.5725 0.01 0
  27.9656 0.20 2
  28.1593 0.01 0
  28.9677 0.74 7
  29.9262 0.05 0
  30.9320 0.09 1
  32.5780 0.01 0
  34.8317 0.01 0
  36.8867 0.14 1
  37.2908 0.03 0
  37.3987 0.02 0
  37.4740 0.02 0
  37.9521 0.41 4
  38.2252 0.03 0
  38.9512 2.99 30
  39.9570 0.42 4
  40.9715 6.05 60
  41.1554 0.04 0
  41.3178 0.05 0
  41.9427 0.20 2
  42.9509 19.49 195
  43.9587 0.33 3
  44.9550 0.14 1
  45.0416 0.01 0
  46.4302 0.01 0
  48.9375 0.04 0
  49.0473 0.03 0
  49.6420 0.04 0
  49.9430 0.99 10
  50.9520 2.78 28
  51.9489 0.77 8
  52.9638 4.44 44
  53.9608 0.26 3
  54.9816 8.89 89
  55.9676 0.14 1
  56.4210 0.02 0
  56.9952 3.82 38
  57.1362 0.07 1
  57.9814 0.22 2
  58.4416 0.02 0
  58.6376 0.01 0
  58.9811 0.88 9
  60.9330 0.35 3
  61.6178 0.02 0
  61.9518 0.61 6
  62.2905 0.07 1
  62.9571 3.20 32
  63.2546 0.06 1
  63.4226 0.02 0
  63.9628 0.58 6
  64.1933 0.03 0
  64.9676 5.38 54
  65.3435 0.05 0
  65.9664 0.76 8
  66.0806 0.08 1
  66.5424 0.06 1
  66.9800 6.80 68
  67.9810 0.46 5
  68.5368 0.02 0
  68.9789 8.80 88
  69.5103 0.02 0
  69.9575 0.30 3
  70.9644 2.36 24
  71.9750 0.03 0
  72.9803 0.17 2
  73.2427 0.06 1
  73.9482 1.08 11
  74.3877 0.01 0
  74.7169 0.07 1
  74.9386 1.46 15
  75.0877 0.15 1
  75.1763 0.05 0
  75.3190 0.03 0
  75.5017 0.03 0
  75.7022 0.08 1
  75.9416 0.91 9
  76.0605 0.11 1
  76.4375 0.16 2
  76.6622 0.03 0
  76.9508 15.06 150
  77.2296 0.11 1
  77.4164 0.02 0
  77.5459 0.03 0
  77.7151 0.09 1
  77.9590 3.06 31
  78.1154 0.03 0
  78.2102 0.05 0
  78.3329 0.09 1
  78.3928 0.03 0
  78.9686 12.24 122
  79.9550 0.99 10
  80.1051 0.03 0
  80.3615 0.05 0
  80.7507 0.02 0
  80.9831 9.99 100
  81.3597 0.09 1
  81.9831 1.63 16
  82.4466 0.16 2
  82.5420 0.06 1
  82.9961 12.14 121
  83.7300 0.01 0
  83.9758 0.36 4
  84.9787 6.00 60
  85.5078 0.14 1
  85.9109 0.72 7
  86.9548 11.42 114
  87.2203 0.01 0
  87.7470 0.10 1
  87.9381 0.43 4
  88.1202 0.04 0
  88.3926 0.06 1
  88.5480 0.13 1
  88.9342 3.04 30
  89.1632 0.19 2
  89.2658 0.05 0
  89.3916 0.05 0
  89.5230 0.06 1
  89.6734 0.23 2
  89.9573 0.92 9
  90.1874 0.08 1
  90.4275 0.15 1
  90.9620 35.50 355
  91.3615 0.08 1
  91.5561 0.06 1
  91.9703 2.95 29
  92.2828 0.02 0
  92.6312 0.07 1
  92.9811 18.91 189
  93.3047 0.09 1
  93.9830 1.23 12
  94.2858 0.03 0
  94.5343 0.10 1
  94.9871 12.56 126
  95.2569 0.02 0
  95.3584 0.07 1
  95.9742 0.88 9
  96.7925 0.07 1
  96.9913 2.42 24
  97.5097 0.10 1
  97.7871 0.02 0
  97.9552 0.53 5
  98.9628 0.95 9
  99.9582 0.24 2
  100.3221 0.07 1
  100.4159 0.03 0
  100.5736 0.07 1
  100.9612 1.35 13
  101.1172 0.28 3
  101.4192 0.22 2
  101.7033 0.04 0
  101.9524 3.02 30
  102.3021 0.05 0
  102.5163 0.03 0
  102.6413 0.14 1
  102.9675 7.35 73
  103.2625 0.08 1
  103.4312 0.13 1
  103.7226 0.14 1
  103.9739 3.23 32
  104.1895 0.13 1
  104.3054 0.01 0
  104.4284 0.02 0
  104.6674 0.15 1
  104.9854 33.89 339
  105.3946 0.04 0
  105.6581 0.13 1
  105.9912 2.71 27
  106.5037 0.12 1
  106.6157 0.05 0
  106.9989 15.34 153
  107.1788 0.26 3
  107.4996 0.24 2
  107.9847 1.21 12
  108.2039 0.07 1
  108.3769 0.08 1
  109.0079 15.91 159
  109.2255 0.10 1
  109.3201 0.10 1
  109.6681 0.08 1
  109.9795 0.95 9
  110.3737 0.05 0
  110.5715 0.08 1
  110.9903 8.00 80
  111.6190 0.10 1
  111.9256 0.15 1
  112.0257 0.21 2
  112.2037 0.03 0
  112.5508 0.17 2
  112.6913 0.15 1
  112.9825 2.76 28
  113.2630 0.08 1
  113.4221 0.12 1
  113.5410 0.10 1
  113.9632 0.90 9
  114.1865 0.20 2
  114.4189 0.14 1
  114.9473 22.26 222
  115.1498 0.17 2
  115.4710 0.29 3
  115.9516 8.28 83
  116.2648 0.22 2
  116.4260 0.08 1
  116.6117 0.23 2
  116.9632 18.92 189
  117.2287 0.15 1
  117.4275 0.29 3
  117.5819 0.04 0
  117.9713 3.31 33
  118.3261 0.05 0
  118.4755 0.17 2
  118.5870 0.12 1
  118.9783 40.51 405
  119.2175 0.18 2
  119.3652 0.01 0
  119.6853 0.20 2
  119.9797 2.43 24
  120.2923 0.10 1
  120.4648 0.06 1
  120.9723 14.62 146
  121.3778 0.11 1
  121.5441 0.16 2
  121.9565 2.53 25
  122.3484 0.06 1
  122.4761 0.04 0
  122.9694 5.40 54
  123.4890 0.07 1
  123.9681 0.22 2
  124.5100 0.05 0
  124.7609 0.23 2
  124.9553 0.92 9
  125.1861 0.31 3
  125.5603 0.10 1
  125.9170 1.23 12
  126.1560 0.10 1
  126.2615 0.05 0
  126.3964 0.18 2
  126.5541 0.15 1
  126.9452 9.19 92
  127.1513 0.55 5
  127.9363 25.39 254
  128.2497 0.32 3
  128.9430 23.33 233
  129.1895 0.15 1
  129.3399 0.39 4
  129.5244 0.18 2
  129.9563 9.66 97
  130.3380 0.17 2
  130.4520 0.20 2
  130.9591 20.60 206
  131.3426 0.25 2
  131.9625 4.59 46
  132.1508 0.11 1
  132.4568 0.11 1
  132.6531 0.18 2
  132.9697 13.63 136
  133.4686 0.15 1
  133.9414 1.69 17
  134.5093 0.24 2
  134.9583 15.99 160
  135.2336 0.20 2
  135.4412 0.11 1
  135.9593 0.94 9
  136.1327 0.11 1
  136.2541 0.06 1
  136.3425 0.04 0
  136.4942 0.11 1
  136.9695 7.07 71
  137.2178 0.03 0
  137.5151 0.10 1
  137.6453 0.07 1
  137.9408 0.60 6
  138.0671 0.09 1
  138.1974 0.18 2
  138.3409 0.12 1
  138.4957 0.10 1
  138.9331 5.08 51
  139.2144 0.12 1
  139.3184 0.12 1
  139.4277 0.05 0
  139.5436 0.15 1
  139.9444 1.59 16
  140.1160 0.41 4
  140.4176 0.52 5
  140.5297 0.40 4
  140.6192 0.22 2
  140.9362 21.96 219
  141.1499 0.24 2
  141.2799 0.24 2
  141.4863 0.20 2
  141.9451 16.98 170
  142.3509 0.32 3
  142.9551 25.92 259
  143.4199 0.17 2
  143.9588 7.43 74
  144.1711 0.23 2
  144.2936 0.17 2
  144.9549 20.50 205
  145.3660 0.11 1
  145.4773 0.02 0
  145.6207 0.05 0
  145.9547 2.96 30
  146.1668 0.36 4
  146.4677 0.13 1
  146.5925 0.14 1
  146.9576 41.08 411
  147.2647 0.13 1
  147.4023 0.29 3
  147.5392 0.11 1
  147.7402 0.13 1
  147.9835 2.01 20
  148.1626 0.22 2
  148.4279 0.20 2
  148.6332 0.12 1
  148.9629 5.55 55
  149.2901 0.23 2
  149.4487 0.14 1
  149.9172 0.65 6
  150.1040 0.22 2
  150.2768 0.23 2
  150.9327 4.23 42
  151.3235 0.27 3
  151.9277 10.67 107
  152.2954 0.39 4
  152.9445 15.38 154
  153.2950 0.29 3
  153.5570 0.15 1
  153.9568 7.28 73
  154.3205 0.09 1
  154.5263 0.26 3
  154.9681 27.31 273
  155.2076 0.32 3
  155.3469 0.22 2
  155.4667 0.28 3
  155.6121 0.12 1
  155.9723 14.33 143
  156.2544 0.28 3
  156.9901 23.99 240
  157.2146 0.27 3
  157.4768 0.16 2
  157.9745 6.18 62
  158.2760 0.27 3
  158.4663 0.12 1
  158.9779 17.46 174
  159.2561 0.22 2
  159.4398 0.13 1
  159.6080 0.13 1
  159.9924 3.55 35
  160.2066 0.14 1
  160.3965 0.12 1
  160.5878 0.34 3
  161.0037 7.05 70
  161.2323 0.17 2
  161.3263 0.07 1
  161.4345 0.04 0
  161.5963 0.07 1
  161.6876 0.04 0
  161.9799 0.69 7
  162.3089 0.12 1
  162.6475 0.30 3
  162.9834 2.93 29
  163.2592 0.30 3
  163.3750 0.31 3
  163.9606 1.83 18
  164.3024 0.53 5
  164.9624 26.02 260
  165.4605 0.26 3
  165.9799 8.98 90
  166.2074 0.22 2
  166.3907 0.16 2
  166.9852 17.68 177
  167.4536 0.21 2
  167.9955 7.02 70
  168.3397 0.02 0
  169.0052 19.00 190
  169.5077 0.23 2
  170.0212 7.33 73
  170.4692 0.27 3
  171.0156 14.77 148
  171.3786 0.24 2
  171.6166 0.09 1
  172.0090 4.74 47
  172.2518 0.07 1
  172.4614 0.12 1
  172.6302 0.13 1
  173.0215 14.30 143
  173.3347 0.19 2
  173.4634 0.27 3
  173.7358 0.19 2
  174.0225 1.47 15
  174.3407 0.20 2
  174.5533 0.26 3
  175.0236 3.53 35
  175.3795 0.23 2
  175.5281 0.26 3
  175.6434 0.15 1
  175.9708 3.07 31
  176.2382 0.15 1
  176.9855 2.95 29
  177.1760 0.70 7
  177.3767 0.53 5
  177.9675 14.45 144
  178.5394 0.27 3
  178.9809 21.60 216
  179.2906 0.10 1
  179.5163 0.16 2
  179.9807 9.94 99
  180.2133 0.34 3
  180.3604 0.09 1
  180.9880 18.53 185
  181.4474 0.29 3
  182.0049 7.18 72
  182.2816 0.22 2
  182.5324 0.43 4
  183.0087 16.99 170
  183.3823 0.15 1
  183.5915 0.28 3
  183.9995 4.98 50
  184.4605 0.20 2
  185.0081 8.10 81
  185.4028 0.17 2
  185.6465 0.17 2
  186.0057 1.30 13
  186.2715 0.24 2
  186.5243 0.16 2
  187.0025 3.37 34
  187.2135 0.39 4
  187.4534 0.23 2
  187.9360 1.10 11
  188.3727 0.42 4
  188.9609 8.26 83
  189.2644 0.27 3
  189.6388 0.37 4
  189.9823 3.17 32
  190.1888 0.38 4
  190.9823 15.88 159
  191.4487 0.20 2
  191.9773 9.45 94
  192.2510 0.26 3
  192.4785 0.44 4
  192.9806 19.25 192
  193.4414 0.28 3
  193.9823 9.03 90
  194.2750 0.16 2
  194.5304 0.29 3
  194.9978 19.51 195
  195.2437 0.25 2
  195.3673 0.21 2
  195.5676 0.27 3
  195.9980 6.15 61
  196.3476 0.27 3
  197.0043 12.20 122
  197.3721 0.33 3
  197.5844 0.12 1
  198.0014 3.66 37
  198.2636 0.15 1
  198.5708 0.26 3
  198.9985 6.07 61
  199.3688 0.23 2
  199.5564 0.17 2
  199.9753 2.64 26
  200.9672 3.28 33
  201.4848 0.54 5
  201.9666 8.92 89
  202.1995 0.39 4
  202.9664 9.17 92
  203.2779 0.29 3
  203.4076 0.22 2
  203.9655 3.60 36
  204.2820 0.46 5
  204.4007 0.16 2
  204.9838 11.68 117
  205.2657 0.28 3
  205.5060 0.45 4
  205.9922 10.00 100
  206.2354 0.25 2
  206.5328 0.28 3
  206.9991 18.81 188
  207.4245 0.23 2
  208.0016 6.79 68
  208.2263 0.32 3
  208.4530 0.32 3
  209.0095 14.31 143
  209.4375 0.27 3
  209.6261 0.59 6
  210.0117 4.88 49
  210.2713 0.13 1
  211.0101 9.32 93
  211.2609 0.26 3
  211.4678 0.30 3
  211.6078 0.12 1
  212.0028 1.90 19
  212.3359 0.09 1
  212.5150 0.20 2
  212.6363 0.22 2
  213.0113 5.87 59
  213.4624 0.53 5
  213.9855 1.22 12
  214.1445 0.46 5
  214.5484 6.56 66
  214.9914 10.18 102
  215.4374 0.46 5
  215.9937 4.85 48
  216.2967 0.14 1
  216.4831 0.23 2
  217.0125 11.67 117
  217.3177 0.23 2
  217.5811 0.17 2
  218.0136 4.21 42
  218.3728 0.24 2
  219.0159 12.73 127
  219.2836 0.29 3
  219.4403 0.23 2
  219.6619 0.41 4
  220.0291 7.14 71
  220.2963 0.08 1
  220.5152 0.32 3
  221.0330 12.16 122
  221.3843 0.18 2
  222.0289 3.84 38
  222.5785 0.36 4
  223.0463 10.74 107
  223.5289 0.56 6
  224.0368 2.60 26
  224.3780 0.26 3
  224.6037 0.36 4
  225.0586 4.95 49
  225.4939 0.49 5
  225.7211 0.58 6
  226.0394 3.34 33
  226.3810 0.35 3
  227.0495 3.79 38
  227.3455 0.51 5
  227.6929 0.24 2
  228.0283 4.09 41
  228.3203 0.33 3
  228.4986 0.27 3
  229.0343 8.73 87
  229.5195 0.29 3
  229.6354 0.31 3
  230.0477 4.93 49
  230.4186 0.33 3
  231.0552 12.09 121
  231.4565 0.30 3
  232.0666 5.48 55
  232.5338 0.46 5
  232.7441 0.41 4
  233.0758 12.92 129
  233.5653 0.28 3
  233.6880 0.12 1
  234.0626 3.93 39
  234.4653 0.34 3
  235.0723 9.31 93
  235.4877 0.28 3
  235.6625 0.17 2
  236.0634 2.31 23
  236.3632 0.20 2
  236.5843 0.18 2
  237.0654 5.81 58
  237.4664 0.18 2
  237.7320 0.36 4
  238.0910 1.39 14
  238.5625 0.37 4
  239.0355 6.03 60
  239.4734 0.16 2
  240.0393 2.19 22
  240.4120 0.21 2
  241.0260 4.11 41
  241.3664 0.15 1
  241.4811 0.21 2
  242.0390 3.14 31
  242.4162 0.26 3
  242.6119 0.22 2
  243.0398 7.96 80
  243.4544 0.27 3
  244.0501 3.97 40
  244.2796 0.19 2
  245.0473 9.40 94
  245.3862 0.25 2
  246.0696 4.88 49
  246.3008 0.45 4
  247.0726 10.71 107
  247.6302 0.42 4
  248.0716 3.31 33
  248.3403 0.35 3
  248.4771 0.18 2
  249.0795 8.33 83
  249.4117 0.27 3
  249.7229 0.19 2
  250.0736 2.43 24
  250.4335 0.33 3
  250.6551 0.29 3
  251.0758 2.99 30
  251.4859 0.25 2
  251.7147 0.47 5
  252.0458 3.02 30
  252.5571 0.40 4
  253.0459 5.16 52
  253.3892 0.48 5
  253.5814 0.05 0
  254.0335 2.25 22
  254.2957 0.29 3
  254.4073 0.18 2
  255.0668 6.90 69
  255.3318 0.22 2
  255.5284 0.57 6
  255.6493 0.20 2
  256.0579 3.46 35
  256.4942 0.19 2
  257.0720 7.50 75
  257.3748 0.34 3
  257.5318 0.32 3
  257.6606 0.35 3
  258.0681 3.13 31
  258.3079 0.33 3
  259.0658 8.38 84
  259.3850 0.15 1
  259.5633 0.15 1
  259.6539 0.08 1
  260.0631 3.19 32
  260.5381 0.27 3
  261.0826 6.54 65
  261.3531 0.28 3
  261.5557 0.36 4
  261.6541 0.20 2
  262.0756 1.95 19
  262.5183 0.42 4
  262.6295 0.19 2
  263.0929 6.38 64
  263.3721 0.30 3
  263.4600 0.13 1
  264.0638 1.43 14
  264.5621 0.16 2
  264.6847 0.28 3
  265.0832 3.88 39
  265.5121 0.24 2
  265.6575 0.12 1
  265.8298 0.56 6
  266.0766 2.25 22
  266.3092 0.30 3
  266.4809 0.09 1
  267.0597 5.45 54
  267.4882 0.26 3
  267.6564 0.11 1
  268.0786 2.20 22
  268.5399 0.31 3
  269.0651 5.32 53
  269.4769 0.41 4
  269.6039 0.05 0
  270.0732 2.57 26
  270.3083 0.35 3
  271.0746 5.93 59
  271.3700 0.31 3
  271.6726 0.25 2
  272.1017 3.06 31
  272.4449 0.27 3
  272.6090 0.11 1
  273.0873 5.70 57
  273.5137 0.13 1
  274.1158 1.82 18
  274.4364 0.32 3
  274.6902 0.19 2
  275.1075 4.87 49
  275.3657 0.30 3
  275.4844 0.15 1
  276.0925 2.03 20
  276.3557 0.31 3
  276.5520 0.22 2
  277.0947 3.81 38
  277.5470 0.15 1
  278.0973 1.09 11
  278.3771 0.24 2
  278.5625 0.29 3
  278.7401 0.19 2
  279.1059 3.01 30
  279.3205 0.43 4
  279.4434 0.30 3
  279.5712 0.19 2
  280.0771 1.27 13
  280.4345 0.27 3
  281.1083 5.48 55
  281.4765 0.17 2
  281.7224 0.42 4
  282.1184 3.08 31
  282.4000 0.23 2
  282.6431 0.24 2
  283.0918 5.10 51
  284.0747 2.14 21
  284.3778 0.15 1
  284.5606 0.21 2
  285.0992 5.18 52
  285.4172 0.18 2
  285.6022 0.25 2
  285.8677 0.31 3
  286.1317 1.82 18
  286.3388 0.37 4
  286.5594 0.11 1
  287.1061 3.75 37
  287.3930 0.14 1
  287.5311 0.28 3
  287.7347 0.20 2
  288.1000 1.66 17
  288.4354 0.20 2
  288.5935 0.33 3
  289.1205 2.92 29
  289.4674 0.14 1
  289.7395 0.11 1
  290.0957 1.29 13
  290.2595 0.41 4
  290.4177 0.12 1
  290.5616 0.27 3
  290.6991 0.12 1
  291.1124 2.45 24
  291.5663 0.22 2
  291.7445 0.16 2
  292.1144 0.99 10
  292.5677 0.12 1
  293.1273 2.88 29
  293.4018 0.15 1
  293.5223 0.20 2
  294.1332 1.39 14
  294.5775 0.34 3
  295.1194 3.94 39
  295.5780 0.15 1
  296.0702 1.60 16
  296.4036 0.04 0
  296.6137 0.12 1
  297.1089 4.35 43
  297.5100 0.06 1
  297.7045 0.37 4
  298.1150 1.76 18
  298.3317 0.33 3
  298.5198 0.24 2
  299.1028 4.30 43
  299.4671 0.21 2
  300.0873 1.23 12
  300.4781 0.14 1
  301.1227 3.35 33
  301.4508 0.20 2
  301.6740 0.18 2
  302.0756 0.97 10
  302.4793 0.04 0
  302.6484 0.03 0
  303.1128 2.38 24
  303.4745 0.15 1
  303.7514 0.18 2
  304.0911 0.68 7
  304.4850 0.29 3
  304.5942 0.09 1
  305.0867 1.90 19
  305.3858 0.11 1
  305.5285 0.10 1
  305.7348 0.28 3
  306.1232 0.79 8
  306.4288 0.17 2
  306.6723 0.23 2
  307.1200 3.15 31
  307.3985 0.21 2
  307.5506 0.13 1
  308.0591 0.84 8
  308.5320 0.15 1
  309.0834 2.24 22
  309.4321 0.12 1
  309.6629 0.06 1
  310.1309 1.25 12
  310.3781 0.22 2
  310.5353 0.13 1
  311.0892 3.49 35
  311.4752 0.13 1
  311.6339 0.10 1
  311.7889 0.22 2
  312.0649 1.27 13
  312.3444 0.09 1
  312.5510 0.23 2
  312.7733 0.21 2
  313.1172 2.83 28
  314.0354 1.41 14
  314.4574 0.20 2
  315.1226 4.90 49
  315.5618 0.20 2
  315.7306 0.06 1
  316.1091 1.16 12
  317.1087 1.71 17
  317.5380 0.26 3
  317.6561 0.11 1
  317.8222 0.19 2
  318.1042 0.46 5
  318.4878 0.15 1
  319.1163 1.45 14
  319.5144 0.10 1
  319.6812 0.04 0
  319.8058 0.03 0
  320.0743 0.41 4
  320.2440 0.27 3
  320.4101 0.23 2
  321.0854 1.40 14
  321.4607 0.07 1
  321.6992 0.16 2
  322.1068 0.82 8
  322.2522 0.36 4
  322.5215 0.11 1
  322.5996 0.05 0
  323.0868 2.56 26
  323.2272 1.16 12
  323.3841 0.14 1
  323.6421 0.11 1
  323.7481 0.07 1
  324.1028 0.79 8
  324.3959 0.13 1
  324.5356 0.22 2
  324.7363 0.15 1
  325.1083 2.14 21
  325.4380 0.18 2
  325.7225 0.34 3
  326.1111 1.14 11
  326.3390 0.24 2
  326.4724 0.08 1
  326.5971 0.15 1
  327.1083 3.11 31
  327.4439 0.10 1
  327.6052 0.38 4
  327.6934 0.15 1
  328.0821 1.09 11
  328.2499 0.65 6
  328.4478 0.27 3
  328.6831 0.17 2
  329.1371 3.02 30
  329.4706 0.14 1
  329.6026 0.13 1
  329.8293 0.35 3
  330.1694 0.80 8
  330.4628 0.11 1
  330.6687 0.27 3
  331.1329 1.99 20
  331.2987 1.04 10
  331.4537 0.05 0
  331.6668 0.17 2
  331.8986 0.33 3
  332.1419 0.84 8
  332.4656 0.28 3
  333.1403 3.02 30
  333.4367 0.12 1
  333.6614 0.33 3
  333.7677 0.18 2
  334.1259 1.24 12
  334.2997 0.45 4
  334.4289 0.08 1
  334.6148 0.05 0
  335.1297 1.67 17
  335.6819 0.35 3
  335.8672 0.16 2
  336.1228 0.57 6
  336.3167 0.29 3
  336.4877 0.08 1
  336.7678 0.28 3
  337.1420 2.63 26
  337.5702 0.14 1
  337.6707 0.13 1
  337.8359 0.22 2
  338.1329 0.75 7
  338.7842 0.31 3
  339.1222 2.24 22
  339.5864 0.29 3
  339.7586 0.28 3
  340.0915 1.09 11
  340.2666 0.29 3
  340.5781 0.16 2
  341.1314 1.82 18
  341.5312 0.17 2
  342.1356 1.02 10
  342.5419 0.11 1
  342.7759 0.22 2
  343.1435 1.75 17
  343.4285 0.16 2
  343.5413 0.02 0
  344.0144 0.51 5
  344.2320 0.29 3
  344.3031 0.11 1
  344.4647 0.16 2
  345.1476 1.52 15
  345.4105 0.34 3
  345.5448 0.07 1
  345.6935 0.16 2
  346.1633 1.75 17
  346.5684 0.20 2
  346.7121 0.13 1
  347.1532 1.60 16
  347.4183 0.06 1
  347.6468 0.26 3
  347.9493 0.32 3
  348.2072 1.09 11
  348.4300 0.15 1
  348.7182 0.10 1
  349.1342 1.06 11
  349.4534 0.09 1
  349.6783 0.14 1
  350.0219 0.40 4
  350.2009 0.35 3
  350.3827 0.10 1
  350.6027 0.17 2
  350.7536 0.04 0
  351.0958 1.02 10
  351.2892 0.39 4
  351.4963 0.13 1
  351.8730 0.30 3
  352.1966 0.61 6
  352.3720 0.14 1
  352.4741 0.05 0
  352.6345 0.08 1
  353.1400 1.70 17
  353.3932 0.22 2
  353.5895 0.23 2
  353.8139 0.02 0
  354.1274 0.68 7
  354.3166 0.23 2
  354.6072 0.01 0
  355.1446 2.32 23
  355.4539 0.21 2
  355.6093 0.15 1
  355.8733 0.20 2
  356.1784 0.67 7
  356.7274 0.13 1
  357.1720 1.17 12
  357.2850 0.44 4
  357.5239 0.15 1
  357.7290 0.12 1
  358.0183 0.47 5
  358.2839 0.19 2
  358.5725 0.09 1
  358.9778 0.42 4
  359.2405 0.91 9
  359.5306 0.09 1
  359.7811 0.17 2
  360.2116 0.91 9
  360.5017 0.15 1
  360.5845 0.09 1
  360.9107 0.07 1
  361.1792 0.98 10
  361.3275 0.17 2
  361.6509 0.05 0
  361.7639 0.08 1
  361.8950 0.03 0
  362.0138 0.14 1
  362.2104 0.30 3
  362.4027 0.24 2
  362.6828 0.19 2
  362.7966 0.05 0
  363.1502 0.43 4
  363.3584 0.11 1
  363.5558 0.11 1
  363.8648 0.11 1
  364.1925 0.39 4
  364.7141 0.20 2
  365.1384 0.70 7
  365.7935 0.10 1
  366.0985 0.20 2
  366.2388 0.16 2
  366.3431 0.11 1
  366.4992 0.22 2
  366.6856 0.11 1
  367.1878 1.16 12
  367.5642 0.06 1
  367.9305 0.18 2
  368.2198 0.51 5
  368.7725 0.21 2
  369.2123 1.85 18
  369.5923 0.14 1
  369.7133 0.10 1
  370.1502 0.55 5
  370.3259 0.42 4
  370.8104 0.16 2
  371.2287 1.31 13
  371.6031 0.14 1
  372.2216 2.15 21
  372.6378 0.12 1
  372.9496 0.19 2
  373.2355 1.16 12
  373.4682 0.15 1
  373.6828 0.15 1
  374.1682 0.78 8
  374.3872 0.28 3
  374.7884 0.04 0
  374.9354 0.12 1
  375.0730 0.29 3
  375.2646 0.42 4
  375.5599 0.10 1
  375.6759 0.15 1
  376.1644 0.19 2
  376.2653 0.07 1
  377.1299 0.41 4
  377.2827 0.17 2
  378.0055 0.17 2
  378.0869 0.09 1
  378.2599 0.13 1
  378.7571 0.06 1
  378.8609 0.14 1
  379.1968 0.67 7
  379.5932 0.06 1
  379.9709 0.26 3
  380.2135 0.38 4
  380.4972 0.09 1
  380.6153 0.06 1
  380.7039 0.03 0
  381.2115 1.54 15
  381.5500 0.09 1
  381.6169 0.04 0
  381.8524 0.20 2
  382.1247 0.45 4
  382.2665 0.45 4
  382.4351 0.26 3
  382.7974 0.15 1
  383.2252 1.90 19
  383.5104 0.07 1
  383.7409 0.17 2
  383.8152 0.10 1
  384.0918 0.43 4
  384.3489 0.35 3
  384.7625 0.29 3
  385.2236 1.57 16
  385.6112 0.11 1
  385.9736 0.24 2
  386.2035 0.68 7
  386.4449 0.15 1
  386.6351 0.12 1
  386.8102 0.15 1
  387.0027 0.21 2
  387.2852 0.28 3
  387.6131 0.10 1
  387.8199 0.12 1
  388.0729 0.23 2
  388.2466 0.25 2
  388.4037 0.17 2
  388.5666 0.22 2
  388.6610 0.09 1
  388.9148 0.34 3
  389.0402 0.17 2
  389.2745 0.30 3
  389.5225 0.06 1
  389.6926 0.21 2
  390.0293 0.21 2
  390.3054 0.18 2
  390.4690 0.11 1
  390.6428 0.07 1
  390.7877 0.08 1
  391.1576 0.59 6
  391.4020 0.16 2
  391.5008 0.07 1
  391.6804 0.19 2
  392.1613 0.12 1
  392.3142 0.15 1
  392.4202 0.09 1
  392.7289 0.12 1
  392.8918 0.19 2
  393.2712 0.66 7
  393.5287 0.14 1
  393.8554 0.10 1
  394.2125 0.33 3
  394.4764 0.13 1
  394.6150 0.25 2
  394.7701 0.11 1
  395.2050 1.36 14
  395.5809 0.11 1
  395.8536 0.11 1
  396.2316 0.31 3
  396.4250 0.11 1
  396.5960 0.10 1
  397.2006 0.53 5
  397.4359 0.35 3
  397.5787 0.15 1
  397.6978 0.28 3
  397.8667 0.17 2
  398.2116 0.56 6
  398.5898 0.17 2
  398.7889 0.03 0
  399.2271 2.50 25
  399.4804 0.43 4
  399.6103 0.24 2
  399.7121 0.14 1
  400.2339 1.74 17
  400.6107 0.33 3
  401.2669 5.72 57
  401.6611 0.31 3
  401.8640 0.14 1
  402.1340 0.56 6
  402.3528 0.49 5
  402.4632 0.26 3
  402.7513 0.23 2
  403.1369 0.40 4
  403.3795 0.37 4
  403.6741 0.05 0
  403.8092 0.09 1
  403.9601 0.04 0
  404.2807 0.24 2
  404.5320 0.04 0
  404.6671 0.05 0
  404.8585 0.10 1
  405.0542 0.11 1
  405.1986 0.25 2
  405.3366 0.16 2
  405.4991 0.11 1
  405.6754 0.08 1
  406.1940 0.32 3
  406.3529 0.23 2
  406.5277 0.19 2
  406.6194 0.14 1
  406.8152 0.10 1
  407.0341 0.10 1
  407.1930 0.49 5
  407.3693 0.10 1
  407.6272 0.13 1
  407.8056 0.12 1
  407.9956 0.12 1
  408.1156 0.24 2
  408.2709 0.22 2
  408.5100 0.21 2
  408.6235 0.07 1
  408.7976 0.34 3
  408.9248 0.18 2
  409.3005 1.08 11
  409.6531 0.18 2
  409.9025 0.10 1
  410.0629 0.10 1
  410.3671 0.66 7
  410.5673 0.12 1
  410.7075 0.10 1
  411.2604 2.85 28
  411.6810 0.20 2
  411.7656 0.07 1
  412.0699 0.08 1
  412.2376 0.32 3
  412.5836 0.15 1
  412.7985 0.10 1
  413.2484 2.99 30
  413.6854 0.23 2
  413.9890 0.33 3
  414.2436 1.13 11
  414.3914 0.75 7
  414.5480 0.21 2
  415.2872 1.84 18
  415.5563 0.14 1
  416.0186 0.10 1
  416.1543 0.11 1
  416.2661 0.17 2
  416.4565 0.23 2
  416.5993 0.06 1
  416.7862 0.05 0
  417.2616 1.17 12
  417.5386 0.09 1
  417.6533 0.05 0
  417.9022 0.08 1
  418.0169 0.13 1
  418.2363 0.28 3
  418.3380 0.13 1
  418.8099 0.09 1
  419.1469 0.21 2
  419.3092 0.17 2
  419.4247 0.09 1
  419.8504 0.03 0
  420.0871 0.11 1
  420.3354 0.18 2
  421.1826 0.11 1
  421.6633 0.01 0
  422.1260 0.19 2
  422.2465 0.21 2
  422.4739 0.14 1
  422.6825 0.14 1
  422.8442 0.13 1
  423.1229 0.28 3
  423.2275 0.22 2
  423.9747 0.10 1
  424.1422 0.18 2
  424.3689 0.32 3
  424.5429 0.09 1
  424.8360 0.11 1
  425.1840 0.65 6
  425.3407 0.38 4
  425.4858 0.13 1
  425.7147 0.08 1
  425.9198 0.08 1
  426.0555 0.05 0
  426.2953 0.41 4
  426.7249 0.12 1
  427.2471 1.74 17
  427.5988 0.24 2
  428.2343 2.18 22
  429.2557 15.65 156
  429.6377 0.24 2
  429.8686 0.26 3
  430.2762 0.89 9
  430.7589 0.29 3
  431.0193 0.20 2
  431.1918 0.30 3
  431.3801 0.29 3
  431.7033 0.10 1
  431.8029 0.11 1
  432.0779 0.12 1
  432.2792 0.16 2
  432.3658 0.07 1
  432.6032 0.02 0
  432.8666 0.07 1
  433.2729 0.14 1
  433.5154 0.01 0
  433.6323 0.05 0
  433.9058 0.12 1
  434.1953 0.41 4
  434.2992 0.18 2
  434.4175 0.20 2
  434.8160 0.06 1
  435.2101 0.55 5
  435.3703 0.25 2
  435.5017 0.20 2
  435.9716 0.05 0
  436.0640 0.06 1
  436.2301 0.15 1
  436.4004 0.11 1
  436.5968 0.02 0
  437.0617 0.07 1
  437.2581 0.28 3
  437.3837 0.18 2
  437.7129 0.05 0
  438.3541 0.03 0
  438.9159 0.09 1
  439.2401 0.44 4
  439.4459 0.05 0
  439.7694 0.10 1
  439.9333 0.11 1
  440.2056 0.43 4
  440.3782 0.20 2
  440.5565 0.06 1
  440.9075 0.15 1
  441.2881 0.67 7
  441.5149 0.12 1
  441.8399 0.05 0
  442.1390 0.65 6
  442.2704 0.33 3
  442.4676 0.08 1
  443.2759 0.78 8
  443.5251 0.13 1
  443.7527 0.04 0
  444.0410 0.32 3
  444.2273 0.32 3
  444.3762 0.29 3
  444.7974 0.17 2
  445.2511 1.39 14
  445.4722 0.57 6
  445.7547 0.04 0
  445.9425 0.13 1
  446.0329 0.07 1
  446.3356 0.43 4
  446.5083 0.10 1
  446.7395 0.09 1
  446.9852 0.05 0
  447.1312 0.10 1
  447.2700 0.36 4
  447.4528 0.13 1
  447.5858 0.12 1
  447.8257 0.10 1
  448.0309 0.16 2
  448.1848 0.06 1
  448.3648 0.14 1
  448.5079 0.11 1
  448.6069 0.09 1
  448.8881 0.10 1
  449.1432 0.07 1
  449.3463 0.12 1
  449.6159 0.04 0
  450.1204 0.06 1
  450.9025 0.06 1
  451.0406 0.09 1
  451.2025 0.24 2
  451.3167 0.12 1
  451.7310 0.17 2
  451.9312 0.13 1
  452.1481 0.09 1
  452.3354 0.17 2
  452.5927 0.06 1
  452.7424 0.10 1
  453.2810 0.41 4
  453.9600 0.13 1
  454.0699 0.05 0
  454.2767 0.24 2
  454.5406 0.13 1
  454.9723 0.09 1
  455.0967 0.19 2
  455.2413 0.21 2
  455.3737 0.06 1
  455.4959 0.05 0
  455.7787 0.09 1
  456.0122 0.10 1
  456.2068 0.11 1
  456.3963 0.10 1
  456.6009 0.12 1
  456.9626 0.10 1
  457.1752 0.23 2
  457.3531 0.32 3
  457.5202 0.20 2
  457.8956 0.10 1
  458.0396 0.10 1
  458.2030 0.11 1
  458.4005 0.17 2
  459.0089 0.08 1
  459.1810 0.11 1
  459.3597 0.31 3
  459.5478 0.10 1
  459.7011 0.08 1
  459.9377 0.12 1
  460.0469 0.07 1
  460.3226 0.36 4
  460.4644 0.16 2
  460.7516 0.07 1
  460.9137 0.07 1
  461.1090 0.07 1
  461.2103 0.10 1
  461.5323 0.10 1
  461.8687 0.19 2
  462.3101 0.05 0
  462.5098 0.12 1
  462.6770 0.05 0
  463.1712 0.13 1
  463.3507 0.12 1
  463.5302 0.13 1
  463.8348 0.11 1
  464.0309 0.16 2
  464.2965 0.16 2
  464.6374 0.11 1
  464.7836 0.18 2
  465.1295 0.11 1
  465.3053 0.65 6
  465.4354 0.12 1
  465.6840 0.19 2
  465.9059 0.26 3
  466.1662 0.08 1
  466.4018 0.21 2
  466.5833 0.11 1
  466.8941 0.20 2
  467.2910 0.37 4
  467.3936 0.18 2
  467.5281 0.08 1
  467.8224 0.10 1
  468.0703 0.30 3
  468.3574 0.24 2
  468.5967 0.13 1
  468.7680 0.11 1
  469.0218 0.09 1
  469.1353 0.12 1
  469.3906 0.15 1
  469.7369 0.11 1
  470.0262 0.32 3
  470.2980 0.37 4
  470.6422 0.38 4
  471.0125 0.26 3
  471.3582 0.26 3
  471.5440 0.19 2
  471.7074 0.15 1
  471.9591 0.17 2
  472.3142 0.18 2
  472.5334 0.16 2
  472.6838 0.09 1
  472.7604 0.03 0
  473.0107 0.05 0
  473.1271 0.10 1
  473.3138 0.10 1
  473.4555 0.37 4
  473.5980 0.16 2
  473.7159 0.23 2
  473.8924 0.11 1
  473.9994 0.09 1
  474.1419 0.10 1
  474.3647 0.06 1
  474.5043 0.09 1
  474.7647 0.06 1
  474.9940 0.10 1
  475.2950 0.43 4
  475.4975 0.14 1
  475.7276 0.23 2
  476.0285 0.25 2
  476.2882 0.61 6
  476.4886 0.45 4
  476.6738 0.18 2
  477.0233 0.17 2
  477.2548 0.14 1
  477.3814 0.06 1
  477.6925 0.10 1
  478.0470 0.18 2
  478.2909 0.21 2
  478.5304 0.22 2
  478.9283 0.10 1
  479.2417 0.34 3
  479.3473 0.17 2
  479.5094 0.20 2
  479.6679 0.02 0
  479.8452 0.03 0
  480.1013 0.18 2
  480.2106 0.11 1
  480.3047 0.11 1
  480.4219 0.03 0
  480.6036 0.10 1
  480.7679 0.12 1
  480.9097 0.04 0
  481.3331 0.49 5
  481.4995 0.33 3
  481.6920 0.23 2
  481.8303 0.22 2
  482.4318 0.47 5
  482.5823 0.30 3
  482.8783 0.17 2
  483.1613 0.42 4
  483.4589 0.27 3
  483.7875 0.79 8
  484.1661 0.45 4
  484.5323 0.47 5
  484.8494 0.32 3
  485.2454 0.48 5
  485.5089 0.28 3
  485.6479 0.13 1
  485.8868 0.12 1
  485.9984 0.29 3
  486.2749 0.16 2
  486.7028 0.10 1
  486.9012 0.06 1
  487.1401 0.11 1
  487.2560 0.17 2
  487.4022 0.15 1
  487.5673 0.11 1
  487.7433 0.10 1
  487.9793 0.26 3
  488.2233 0.40 4
  488.4036 0.59 6
  488.8366 0.24 2
  488.9684 0.06 1
  489.1618 0.18 2
  489.3588 0.11 1
  489.5492 0.18 2
  489.6817 0.17 2
  489.8128 0.04 0
  489.9461 0.04 0
  490.1496 0.12 1
  490.2951 0.21 2
  490.7499 0.12 1
  490.8658 0.09 1
  490.9832 0.26 3
  491.0882 0.12 1
  491.3301 0.40 4
  491.4916 0.31 3
  491.5988 0.15 1
  491.8226 0.02 0
  491.9530 0.12 1
  492.2615 0.58 6
  492.5469 0.11 1
  492.9330 0.09 1
  493.3523 0.76 8
  493.7377 0.10 1
  493.9395 0.15 1
  494.3003 0.24 2
  494.6084 0.08 1
  495.0878 0.09 1
  495.3677 0.50 5
  495.5391 0.23 2
  495.6866 0.09 1
  495.8450 0.10 1
  496.3245 0.42 4
  496.5422 0.16 2
  496.8069 0.13 1
  497.2452 0.57 6
  497.5136 0.48 5
  497.6004 0.28 3
  498.0467 0.23 2
  498.3027 0.75 7
  498.3917 0.33 3
  498.6130 0.13 1
  498.7895 0.16 2
  498.9711 0.19 2
  499.2178 0.28 3
  499.3653 0.21 2
  499.5187 0.25 2
  499.7075 0.12 1
  499.8175 0.07 1
  500.1379 0.11 1
  500.3665 0.21 2
  500.6010 0.03 0
  500.7702 0.17 2
  501.1291 0.31 3
  501.3830 0.19 2
  501.5516 0.19 2
  501.7477 0.14 1
  501.9437 0.10 1
  502.1376 0.26 3
  502.4104 0.13 1
  502.9017 0.16 2
  503.0450 0.17 2
  503.2635 0.24 2
  503.4806 0.41 4
  503.7830 0.12 1
  504.0305 0.20 2
  504.2599 0.36 4
  504.5544 0.19 2
  504.7860 0.21 2
  504.9640 0.16 2
  505.2759 0.44 4
  505.3707 0.25 2
  505.6927 0.17 2
  506.3767 2.98 30
  506.8109 0.27 3
  507.2329 0.20 2
  507.4377 0.14 1
  507.9111 0.26 3
  508.2028 0.28 3
  508.4149 0.15 1
  508.6516 0.08 1
  508.9585 0.05 0
  509.3110 0.59 6
  509.4905 0.22 2
  509.7345 0.28 3
  510.1181 0.30 3
  510.3006 0.15 1
  510.4316 0.31 3
  510.5648 0.21 2
  510.8015 0.02 0
  511.3105 1.58 16
  511.5421 0.79 8
  511.9005 0.06 1
  512.0359 0.31 3
  512.3842 1.65 16
  512.8280 0.05 0
  513.0590 0.21 2
  513.2964 0.54 5
  513.5137 0.38 4
  513.7179 0.09 1
  513.8135 0.09 1
  513.9793 0.11 1
  514.3058 0.03 0
  514.4507 0.06 1
  514.5832 0.14 1
  515.1205 0.14 1
  515.4225 0.11 1
  515.5615 0.05 0
  515.9968 0.11 1
  516.0974 0.13 1
  516.1981 0.14 1
  516.3719 0.14 1
  516.7434 0.12 1
  517.2170 0.11 1
  517.3981 0.17 2
  517.5596 0.37 4
  517.7632 0.27 3
  517.8363 0.14 1
  517.9964 0.26 3
  518.3448 1.26 13
  518.5874 0.51 5
  518.9785 0.19 2
  519.3834 2.06 21
  519.5761 0.87 9
  519.8325 0.31 3
  519.9600 0.07 1
  520.3574 0.17 2
  520.4586 0.11 1
  520.6270 0.07 1
  521.0490 0.14 1
  521.3757 0.54 5
  521.6510 0.27 3
  521.9293 0.21 2
  522.0883 0.04 0
  522.2827 0.53 5
  522.4952 0.18 2
  522.7488 0.09 1
  523.3494 0.42 4
  523.4824 0.35 3
  523.5699 0.14 1
  523.7766 0.22 2
  523.8951 0.21 2
  524.0238 0.23 2
  524.2804 0.34 3
  524.5450 0.19 2
  524.7994 0.06 1
  525.2888 0.49 5
  525.5374 0.20 2
  525.6849 0.12 1
  525.8468 0.33 3
  526.0399 0.03 0
  526.1721 0.09 1
  526.4013 0.17 2
  526.6218 0.18 2
  526.7280 0.10 1
  526.8278 0.11 1
  527.0433 0.18 2
  527.2912 0.33 3
  527.4329 0.07 1
  527.7481 0.32 3
  528.2130 0.46 5
  528.4053 0.41 4
  528.5687 0.13 1
  528.7444 0.05 0
  528.9382 0.33 3
  529.0936 0.09 1
  529.2325 0.33 3
  529.4696 0.23 2
  529.6251 0.12 1
  529.8564 0.24 2
  530.3113 0.32 3
  530.6164 0.11 1
  530.8752 0.11 1
  531.1378 0.13 1
  531.4285 0.09 1
  531.6736 0.20 2
  531.8500 0.17 2
  531.9542 0.05 0
  532.0923 0.11 1
  532.2377 0.10 1
  532.4872 0.28 3
  532.6976 0.18 2
  532.8798 0.23 2
  533.2161 0.25 2
  533.5206 0.04 0
  533.6457 0.20 2
  533.8367 0.23 2
  534.2634 0.10 1
  534.4131 0.11 1
  534.6286 0.19 2
  534.8441 0.12 1
  535.0358 0.07 1
  535.2130 0.10 1
  535.3157 0.09 1
  535.4835 0.30 3
  535.6984 0.04 0
  535.8141 0.06 1
  535.9826 0.22 2
  536.2264 0.21 2
  536.6032 0.38 4
  536.8629 0.11 1
  537.0503 0.22 2
  537.4532 0.41 4
  537.9509 0.19 2
  538.3068 0.85 8
  538.4696 0.39 4
  538.6020 0.29 3
  538.7886 0.27 3
  539.3826 1.32 13
  539.6141 0.61 6
  539.7002 0.24 2
  539.7921 0.12 1
  540.3571 2.97 30
  540.5387 1.49 15
  540.6776 0.22 2
  540.8259 0.08 1
  541.0170 0.30 3
  541.3519 0.43 4
  541.6182 0.21 2
  541.7716 0.10 1
  541.8983 0.13 1
  542.2217 0.23 2
  542.5068 0.21 2
  542.8903 0.10 1
  542.9756 0.05 0
  543.1342 0.15 1
  543.3346 0.30 3
  543.4308 0.15 1
  543.6204 0.11 1
  543.8013 0.09 1
  543.9880 0.08 1
  544.4555 0.30 3
  544.6061 0.15 1
  544.8137 0.11 1
  545.3739 0.09 1
  545.5381 0.08 1
  545.8682 0.09 1
  545.9797 0.08 1
  546.7924 0.13 1
  546.9017 0.13 1
  547.1970 0.15 1
  547.5343 0.22 2
  547.8868 0.13 1
  548.1423 0.25 2
  548.3515 0.15 1
  548.5483 0.13 1
  549.1593 0.39 4
  549.2831 0.19 2
  549.3844 0.11 1
  549.6494 0.14 1
  549.8629 0.17 2
  550.0620 0.16 2
  550.4152 0.26 3
  550.6541 0.11 1
  550.8351 0.49 5
  550.9502 0.16 2
  551.1341 0.24 2
  551.4012 0.50 5
  551.5352 0.35 3
  551.7835 0.35 3
  552.0644 0.51 5
  552.2498 0.49 5
  552.4792 0.45 4
  552.6248 0.20 2
  552.7891 0.51 5
  552.9274 0.29 3
  553.1859 0.67 7
  553.3734 0.45 4
  553.6130 0.36 4
  553.7057 0.19 2
  554.2610 0.61 6
  554.5695 0.50 5
  554.8135 0.37 4
  555.4363 2.21 22
  555.8237 0.39 4
  556.4645 0.80 8
  556.9323 0.78 8
  557.1481 0.42 4
  557.5298 1.04 10
  557.7760 0.55 5
  558.0628 0.54 5
  558.7313 0.60 6
  559.5837 0.60 6
  559.8408 0.52 5
  560.1074 0.65 6
  560.3196 0.61 6
  560.4695 0.38 4
  560.7882 0.48 5
  561.0540 0.31 3
  561.3322 0.61 6
  561.7189 0.49 5
  561.9203 0.28 3
  562.0536 0.10 1
  562.4071 0.78 8
  562.7888 0.24 2
  562.9706 0.25 2
  563.1235 0.33 3
  563.3003 0.51 5
  563.4575 0.38 4
  563.7726 0.37 4
  563.9052 0.22 2
  564.2145 0.31 3
  564.3775 0.40 4
  564.4651 0.20 2
  564.6702 0.22 2
  565.3906 2.65 26
  565.8591 0.38 4
  566.1766 0.30 3
  566.3617 0.16 2
  566.6061 0.13 1
  566.7811 0.13 1
  567.1412 0.42 4
  567.3350 0.44 4
  567.8325 0.65 6
  568.3943 1.09 11
  568.7805 0.83 8
  569.1450 0.71 7
  569.4567 0.94 9
  569.7344 0.68 7
  570.5314 1.33 13
  572.3758 1.76 18
  573.1656 1.69 17
  573.8434 2.08 21
  574.7448 2.09 21
  579.4314 5.67 57
  580.4849 32.84 328
  581.5002 4.06 41
  583.4664 40.23 402
  583.9512 2.73 27
  585.0875 1.96 20
  586.0580 2.15 21
  586.7153 2.09 21
  589.5833 3.12 31
  598.4255 99.97 999
  599.5387 47.76 477
  600.4451 21.57 216
  601.3074 9.88 99
  602.4388 5.39 54
  603.0581 2.89 29
  603.8648 1.77 18
  604.6100 1.39 14
  604.9587 1.10 11
//
