ACCESSION: MSBNK-Kyoto_Univ-CA000159
RECORD_TITLE: Rhodopin; FAB-EBEB; MS2; m/z: 554.45; [M]*+
DATE: 2016.01.19 (Created 2007.03.15, modified 2011.05.10)
AUTHORS: Akimoto N, Graduate School of Pharmaceutical Sciences, Kyoto University and Maoka T, Research Institute for Production Development
LICENSE: CC BY-SA
COMMENT: Profile spectrum of this record is given as a JPEG file.
COMMENT: [Profile] CA000159.jpg
CH$NAME: Rhodopin
CH$COMPOUND_CLASS: Natural Product; Carotenoid
CH$FORMULA: C40H58O
CH$EXACT_MASS: 554.44877
CH$SMILES: CC(=CC=CC(=CC=CC=C(C=CC=C(C)C=CC=C(CCC=C(C)C)C)C)C)C=CC=C(C)CCCC(C)(C)O
CH$IUPAC: InChI=1S/C40H58O/c1-33(2)19-13-22-36(5)25-16-28-37(6)26-14-23-34(3)20-11-12-21-35(4)24-15-27-38(7)29-17-30-39(8)31-18-32-40(9,10)41/h11-12,14-17,19-21,23-30,41H,13,18,22,31-32H2,1-10H3/b12-11+,23-14+,24-15+,28-16+,29-17+,34-20+,35-21+,36-25+,37-26+,38-27+,39-30+
CH$LINK: CHEMSPIDER 4517822
CH$LINK: PUBCHEM CID:5365880
CH$LINK: INCHIKEY CNYVJTJLUKKCGM-RGGGOQHISA-N
AC$INSTRUMENT: JMS-HX/HX 110A, JEOL
AC$INSTRUMENT_TYPE: FAB-EBEB
AC$MASS_SPECTROMETRY: MS_TYPE MS2
AC$MASS_SPECTROMETRY: ION_MODE POSITIVE
AC$MASS_SPECTROMETRY: ATOM_GUN_CURRENT 5 mA
AC$MASS_SPECTROMETRY: BOMBARDMENT 6 kV xenon
AC$MASS_SPECTROMETRY: COLLISION_ENERGY 3 kV
AC$MASS_SPECTROMETRY: COLLISION_GAS Ar
AC$MASS_SPECTROMETRY: GAS_PRESSURE adjust to attenuate the intensity of the precursor ion by 30 %
AC$MASS_SPECTROMETRY: IONIZATION FAB
AC$MASS_SPECTROMETRY: MATRIX 1-2 uL m-NBA
AC$MASS_SPECTROMETRY: PROBE_TIP stainless-steel
MS$FOCUSED_ION: BASE_PEAK 554.3457
MS$FOCUSED_ION: PRECURSOR_M/Z 554.45
MS$FOCUSED_ION: PRECURSOR_TYPE [M]+*
PK$SPLASH: splash10-0udl-1920020000-24f8319e34260cd0cccc
PK$NUM_PEAK: 1680
PK$PEAK: m/z int. rel.int.
  0.0019 0.01 0
  0.1718 0.01 0
  0.5307 0.01 0
  2.4745 0.01 0
  6.9304 0.01 0
  11.1474 0.01 0
  12.0831 0.01 0
  12.9630 0.10 1
  13.9700 0.09 1
  14.6840 0.01 0
  14.9783 0.60 6
  15.9971 0.01 0
  20.2597 0.01 0
  22.9160 0.10 1
  24.4470 0.01 0
  24.9336 0.17 2
  25.9588 0.57 6
  26.9577 2.85 28
  27.9584 0.40 4
  28.9626 2.11 21
  29.9520 0.02 0
  30.9399 0.92 9
  34.0775 0.01 0
  34.7989 0.01 0
  35.9267 0.10 1
  36.7846 0.01 0
  36.9370 0.27 3
  37.4342 0.05 0
  37.9414 0.45 4
  38.9467 2.74 27
  39.3061 0.02 0
  39.4878 0.01 0
  39.6572 0.04 0
  39.8148 0.05 0
  39.9493 0.56 6
  40.7974 0.08 1
  40.9638 8.35 83
  41.2738 0.05 0
  41.9669 0.30 3
  42.9653 2.40 24
  43.9243 0.02 0
  44.9440 0.15 1
  47.6209 0.08 1
  48.9045 0.08 1
  49.9343 0.41 4
  50.9463 0.93 9
  51.9403 0.25 2
  52.9571 1.25 12
  53.9626 0.15 1
  54.7426 0.12 1
  54.9760 3.99 40
  55.2327 0.09 1
  55.9693 0.02 0
  56.9924 0.41 4
  58.7936 0.06 1
  58.9673 3.43 34
  59.8004 0.03 0
  60.0011 0.07 1
  60.8128 0.04 0
  60.9386 0.13 1
  61.6843 0.05 0
  61.7618 0.08 1
  61.9429 0.26 3
  62.5519 0.04 0
  62.6689 0.04 0
  62.9524 0.88 9
  63.0781 0.04 0
  63.6873 0.03 0
  63.9326 0.32 3
  64.7265 0.09 1
  64.9488 1.88 19
  65.8123 0.15 1
  65.9577 0.27 3
  66.9657 3.12 31
  67.9931 0.26 3
  68.9761 19.84 198
  69.2351 0.05 0
  69.4219 0.01 0
  69.9697 0.36 4
  70.9454 0.45 4
  72.7580 0.13 1
  73.4138 0.09 1
  73.7703 0.09 1
  73.9325 0.54 5
  74.6223 0.11 1
  74.9260 0.87 9
  75.3352 0.04 0
  75.7599 0.05 0
  75.9309 0.64 6
  76.1341 0.02 0
  76.3208 0.16 2
  76.4314 0.06 1
  76.9266 7.76 78
  77.0909 0.12 1
  77.3489 0.15 1
  77.6155 0.14 1
  77.9381 2.21 22
  78.3572 0.05 0
  78.9420 8.99 90
  79.1902 0.05 0
  79.3320 0.01 0
  79.9442 0.77 8
  80.9657 15.23 152
  81.1707 0.03 0
  81.4380 0.07 1
  81.9787 0.48 5
  82.9769 1.70 17
  83.7972 0.03 0
  83.9050 0.16 2
  84.6425 0.06 1
  84.7057 0.02 0
  84.8798 0.13 1
  84.9828 0.13 1
  85.1536 0.01 0
  85.6807 0.04 0
  85.9032 0.31 3
  86.8943 0.56 6
  87.8436 0.07 1
  87.9669 0.13 1
  88.8986 1.92 19
  89.1849 0.45 4
  89.2740 0.24 2
  89.4006 0.18 2
  89.9009 0.58 6
  90.0927 0.13 1
  90.1965 0.04 0
  90.3579 0.04 0
  90.4969 0.12 1
  90.9233 28.35 283
  91.2474 0.02 0
  91.3635 0.11 1
  91.5363 0.12 1
  91.9291 2.76 28
  92.3749 0.20 2
  92.4461 0.08 1
  92.9539 19.67 197
  93.1917 0.11 1
  93.2834 0.12 1
  93.7320 0.05 0
  93.9782 1.18 12
  94.1729 0.05 0
  94.3856 0.10 1
  94.4816 0.04 0
  94.9796 9.39 94
  95.6373 0.11 1
  95.9767 0.23 2
  96.3647 0.06 1
  96.8040 0.06 1
  96.9600 0.32 3
  97.1371 0.03 0
  97.3752 0.01 0
  97.6812 0.02 0
  97.7907 0.06 1
  97.9113 0.26 3
  98.6873 0.06 1
  98.9337 0.11 1
  99.6953 0.08 1
  99.9304 0.27 3
  100.3145 0.11 1
  100.5622 0.11 1
  100.9173 0.92 9
  101.1217 0.14 1
  101.2254 0.13 1
  101.3038 0.05 0
  101.5013 0.06 1
  101.6205 0.15 1
  101.9125 1.61 16
  102.1262 0.06 1
  102.2537 0.12 1
  102.6241 0.68 7
  102.9403 6.83 68
  103.3466 0.12 1
  103.5987 0.15 1
  103.9451 2.86 29
  104.2680 0.21 2
  104.9440 41.58 416
  105.2806 0.05 0
  105.4979 0.09 1
  105.9643 3.79 38
  106.2592 0.08 1
  106.3316 0.02 0
  106.9662 18.33 183
  107.4256 0.16 2
  107.7562 0.02 0
  107.9817 1.34 13
  108.3007 0.13 1
  108.6288 0.10 1
  108.9929 6.19 62
  109.4419 0.06 1
  109.5833 0.04 0
  109.8315 0.16 2
  109.9736 0.12 1
  110.6706 0.15 1
  110.9671 0.64 6
  111.3769 0.02 0
  112.2816 0.12 1
  112.4110 0.02 0
  112.7239 0.23 2
  112.9194 0.75 7
  113.0568 0.19 2
  113.1425 0.07 1
  113.3754 0.20 2
  113.5849 0.15 1
  113.6701 0.28 3
  113.9782 0.40 4
  114.8908 17.95 179
  115.1338 0.23 2
  115.2987 0.24 2
  115.6142 0.47 5
  115.9178 7.29 73
  116.2553 0.36 4
  116.9102 19.15 191
  117.2433 0.16 2
  117.4256 0.07 1
  117.6032 0.20 2
  117.9215 4.26 43
  118.1143 0.11 1
  118.2974 0.09 1
  118.9416 39.86 398
  119.3102 0.18 2
  119.4052 0.09 1
  119.6287 0.18 2
  119.9594 4.33 43
  120.1758 0.16 2
  120.3158 0.04 0
  120.4098 0.08 1
  120.9551 15.07 151
  121.2506 0.22 2
  121.4680 0.12 1
  121.6848 0.03 0
  121.9563 0.42 4
  122.1641 0.06 1
  122.3672 0.09 1
  122.4431 0.04 0
  122.6426 0.10 1
  122.9729 2.89 29
  123.5499 0.03 0
  123.8239 0.05 0
  124.0256 0.16 2
  124.5661 0.07 1
  124.8058 0.29 3
  124.9851 0.28 3
  125.0937 0.11 1
  125.2072 0.05 0
  125.4214 0.07 1
  125.5245 0.05 0
  125.8896 0.98 10
  126.1358 0.21 2
  126.8808 7.19 72
  127.2000 0.32 3
  127.8793 23.17 232
  128.2449 0.38 4
  128.3674 0.36 4
  128.8950 27.29 273
  129.1935 0.21 2
  129.3861 0.18 2
  129.9131 10.90 109
  130.2563 0.12 1
  130.9214 29.43 294
  131.2090 0.30 3
  131.4297 0.13 1
  131.9291 9.64 96
  132.1451 0.18 2
  132.9373 26.60 266
  133.2965 0.09 1
  133.4561 0.10 1
  133.6335 0.43 4
  133.9498 2.34 23
  134.1663 0.03 0
  134.3792 0.12 1
  134.5132 0.10 1
  134.6188 0.20 2
  134.9708 3.71 37
  135.1580 0.05 0
  135.3749 0.12 1
  135.4664 0.01 0
  135.6933 0.01 0
  135.9307 0.50 5
  136.3204 0.06 1
  136.6774 0.10 1
  136.9640 0.69 7
  137.2470 0.05 0
  137.6168 0.09 1
  137.7048 0.05 0
  137.8702 0.34 3
  137.9830 0.14 1
  138.1795 0.19 2
  138.3047 0.12 1
  138.8635 2.84 28
  139.2711 0.17 2
  139.4257 0.08 1
  139.6771 0.21 2
  139.9348 1.22 12
  140.2124 0.55 5
  140.8873 19.37 194
  141.9086 18.95 189
  142.1930 0.16 2
  142.9191 34.44 344
  143.1876 0.45 4
  143.3222 0.19 2
  143.9218 12.13 121
  144.1557 0.21 2
  144.2386 0.07 1
  144.9393 39.37 393
  145.2752 0.17 2
  145.3620 0.04 0
  145.5462 0.26 3
  145.9522 2.72 27
  146.2952 0.22 2
  146.4240 0.28 3
  146.9629 11.90 119
  147.2512 0.06 1
  147.4158 0.17 2
  147.6310 0.09 1
  147.7950 0.17 2
  147.9733 0.42 4
  148.1605 0.02 0
  148.6652 0.12 1
  148.7961 0.19 2
  149.0073 0.72 7
  149.2216 0.14 1
  149.4202 0.20 2
  149.6766 0.26 3
  149.9080 0.55 5
  150.0760 0.05 0
  150.9092 1.63 16
  151.1942 0.28 3
  151.3612 0.27 3
  151.8881 7.14 71
  152.2939 0.20 2
  152.8948 10.76 108
  153.2445 0.23 2
  153.3866 0.05 0
  153.5350 0.09 1
  153.9358 6.91 69
  154.2121 0.30 3
  154.9337 22.85 228
  155.2411 0.35 3
  155.4376 0.04 0
  155.5996 0.57 6
  155.9607 14.63 146
  156.3163 0.14 1
  156.9552 33.76 337
  157.2985 0.30 3
  157.5143 0.20 2
  157.9606 5.30 53
  158.4014 0.26 3
  158.6693 0.53 5
  158.9922 12.46 125
  159.4099 0.10 1
  159.4694 0.05 0
  159.6262 0.12 1
  160.0037 1.22 12
  160.2478 0.15 1
  160.3573 0.11 1
  160.6337 0.33 3
  161.0223 1.17 12
  161.1920 0.16 2
  161.2888 0.10 1
  161.5003 0.10 1
  161.8005 0.12 1
  161.8904 0.15 1
  162.0608 0.30 3
  162.3921 0.15 1
  162.6982 0.20 2
  162.9353 1.30 13
  163.1337 0.20 2
  163.4057 0.18 2
  163.6220 0.19 2
  163.9417 1.29 13
  164.0254 0.63 6
  164.1789 0.40 4
  164.9241 16.57 166
  165.2529 0.21 2
  165.4994 0.32 3
  165.6461 0.38 4
  165.9599 6.35 63
  166.9561 16.57 166
  167.1951 0.15 1
  167.3511 0.20 2
  167.5520 0.20 2
  167.9668 7.18 72
  168.3594 0.37 4
  168.9826 23.01 230
  169.2359 0.30 3
  169.4917 0.41 4
  169.9953 8.64 86
  170.2513 0.12 1
  170.4044 0.11 1
  170.9904 17.96 179
  171.2713 0.19 2
  171.3985 0.32 3
  171.6319 0.18 2
  172.0045 2.84 28
  172.2870 0.06 1
  172.3761 0.03 0
  172.5389 0.14 1
  173.0118 8.39 84
  173.2932 0.19 2
  173.4453 0.16 2
  173.6644 0.10 1
  173.8083 0.18 2
  174.0286 0.68 7
  174.3612 0.06 1
  174.5587 0.11 1
  175.0137 1.16 12
  175.3005 0.24 2
  175.4153 0.17 2
  175.9075 1.30 13
  176.1308 0.14 1
  176.2220 0.04 0
  176.3336 0.18 2
  176.6175 0.19 2
  176.9468 1.25 12
  177.1880 0.18 2
  177.2940 0.17 2
  177.9158 8.01 80
  178.2256 0.17 2
  178.3437 0.32 3
  178.9302 11.98 120
  179.3788 0.05 0
  179.9529 7.02 70
  180.2938 0.31 3
  180.9533 15.67 157
  181.2271 0.34 3
  181.4089 0.20 2
  181.5170 0.37 4
  181.9626 6.47 65
  182.3416 0.53 5
  182.4946 0.24 2
  182.9846 19.69 197
  183.3754 0.18 2
  183.5318 0.14 1
  183.9849 5.42 54
  184.1984 0.11 1
  184.3356 0.14 1
  184.5613 0.31 3
  184.9941 10.94 109
  185.4066 0.20 2
  185.5054 0.12 1
  185.7383 0.21 2
  186.0110 1.40 14
  186.1882 0.12 1
  186.2934 0.07 1
  186.7479 0.33 3
  187.0118 2.84 28
  187.3355 0.10 1
  187.7228 0.07 1
  187.9811 0.45 4
  188.1668 0.10 1
  188.2388 0.05 0
  188.4110 0.25 2
  188.9097 3.74 37
  189.2923 0.07 1
  189.4685 0.35 3
  189.9418 1.98 20
  190.0910 0.42 4
  190.2126 0.24 2
  190.4088 0.26 3
  190.9230 6.01 60
  191.4791 0.45 4
  191.9433 6.63 66
  192.1829 0.08 1
  192.9468 12.86 129
  193.2110 0.30 3
  193.4540 0.23 2
  193.9638 4.93 49
  194.2327 0.19 2
  194.9549 17.49 175
  195.3490 0.19 2
  195.4161 0.07 1
  195.9813 5.11 51
  196.2447 0.28 3
  196.4221 0.39 4
  196.9903 17.23 172
  197.2428 0.29 3
  197.5463 0.26 3
  197.9991 3.20 32
  198.2640 0.33 3
  198.3984 0.16 2
  198.6051 0.32 3
  199.0104 7.10 71
  199.4221 0.19 2
  199.5728 0.31 3
  199.7512 0.24 2
  200.0041 0.75 7
  200.3138 0.04 0
  200.5266 0.15 1
  200.9821 1.10 11
  201.3328 0.20 2
  201.9211 4.87 49
  202.2169 0.08 1
  202.5096 0.33 3
  202.6844 0.52 5
  202.9538 4.01 40
  203.2368 0.08 1
  203.4823 0.11 1
  203.6119 0.26 3
  203.9494 1.90 19
  204.2339 0.20 2
  204.3441 0.21 2
  204.9371 5.42 54
  205.5336 0.83 8
  205.9668 5.18 52
  206.1763 0.18 2
  206.3534 0.12 1
  206.9639 9.91 99
  207.3014 0.19 2
  207.4837 0.14 1
  207.9868 4.89 49
  208.2634 0.26 3
  208.5341 0.51 5
  209.0024 13.62 136
  209.2947 0.21 2
  209.5578 0.23 2
  210.0158 1.87 19
  210.2355 0.17 2
  210.4064 0.16 2
  210.5149 0.12 1
  211.0076 7.43 74
  211.2852 0.12 1
  211.5512 0.06 1
  211.6442 0.04 0
  212.0279 1.58 16
  212.3004 0.14 1
  212.5268 0.53 5
  212.6699 0.17 2
  213.0167 2.56 26
  213.3707 0.14 1
  213.6596 0.44 4
  213.9792 0.42 4
  214.3165 0.23 2
  214.4017 0.07 1
  214.5476 0.42 4
  214.9363 3.91 39
  215.2717 0.25 2
  215.9512 2.14 21
  216.1668 0.17 2
  216.4223 0.07 1
  216.9671 4.32 43
  217.3015 0.18 2
  217.4553 0.06 1
  217.9704 2.05 20
  218.3382 0.08 1
  218.4739 0.15 1
  218.5984 0.21 2
  218.9957 5.95 59
  219.3950 0.35 3
  220.0064 2.94 29
  220.6911 0.51 5
  221.0319 8.41 84
  221.3453 0.31 3
  221.6346 0.17 2
  222.0186 2.17 22
  222.3799 0.13 1
  223.0325 5.26 53
  223.5214 0.15 1
  223.7325 0.24 2
  223.8364 0.08 1
  224.0587 1.11 11
  224.3561 0.18 2
  224.5385 0.12 1
  224.6516 0.13 1
  225.0701 2.49 25
  225.4207 0.08 1
  225.5476 0.06 1
  225.6803 0.13 1
  226.0081 1.23 12
  226.2148 0.17 2
  226.4451 0.22 2
  226.7101 0.32 3
  227.0162 1.19 12
  227.3399 0.12 1
  227.5259 0.11 1
  227.6159 0.04 0
  227.9776 1.26 13
  228.3079 0.12 1
  228.5175 0.21 2
  228.9961 3.26 33
  229.3840 0.12 1
  229.5212 0.31 3
  229.9987 2.32 23
  230.3424 0.28 3
  231.0010 4.04 40
  231.3991 0.24 2
  231.5429 0.13 1
  232.0123 1.82 18
  232.3516 0.08 1
  232.7106 0.34 3
  233.0166 5.73 57
  233.3463 0.11 1
  233.5785 0.40 4
  234.0351 1.82 18
  234.4205 0.19 2
  234.6195 0.33 3
  234.7379 0.23 2
  235.0592 3.98 40
  235.3054 0.28 3
  235.4402 0.16 2
  235.7282 0.21 2
  236.0595 1.28 13
  236.3974 0.14 1
  236.5742 0.21 2
  237.0366 2.54 25
  237.3948 0.16 2
  237.5265 0.05 0
  237.9969 0.60 6
  238.3409 0.03 0
  238.6712 0.27 3
  239.0054 1.11 11
  239.2702 0.11 1
  239.5370 0.08 1
  239.7068 0.22 2
  239.9592 0.47 5
  240.3388 0.24 2
  240.4831 0.33 3
  240.6208 0.20 2
  241.0005 1.75 17
  241.1835 0.38 4
  241.3449 0.14 1
  241.5121 0.10 1
  241.7024 0.16 2
  241.9786 1.03 10
  242.0986 0.40 4
  242.2391 0.11 1
  242.6085 0.25 2
  243.0186 2.46 25
  243.4597 0.22 2
  243.7761 0.16 2
  244.0158 1.30 13
  244.4977 0.23 2
  245.0086 3.26 33
  245.5071 0.10 1
  245.9971 1.49 15
  246.3822 0.12 1
  247.0353 3.94 39
  247.4895 0.10 1
  247.6748 0.13 1
  248.0370 0.88 9
  248.6741 0.16 2
  249.0535 2.89 29
  249.2883 0.10 1
  249.5895 0.19 2
  249.6882 0.10 1
  249.8230 0.16 2
  250.0690 0.73 7
  250.2670 0.10 1
  250.5308 0.23 2
  250.7433 0.21 2
  251.0736 1.59 16
  251.3428 0.24 2
  251.4599 0.09 1
  251.5830 0.07 1
  251.7699 0.14 1
  252.0351 0.79 8
  252.4439 0.12 1
  252.6585 0.19 2
  253.0331 1.17 12
  253.3840 0.13 1
  253.6092 0.18 2
  254.0135 0.56 6
  254.1584 0.27 3
  254.2954 0.10 1
  254.4021 0.11 1
  254.5404 0.10 1
  254.6899 0.15 1
  255.0318 1.39 14
  255.3309 0.10 1
  255.5535 0.17 2
  256.0247 0.91 9
  256.7588 0.38 4
  257.0356 1.60 16
  257.2182 0.18 2
  257.4470 0.13 1
  257.6592 0.13 1
  257.7680 0.03 0
  258.0318 1.72 17
  258.4795 0.19 2
  258.6325 0.13 1
  259.0203 2.25 22
  259.2709 0.19 2
  259.5782 0.08 1
  260.0750 1.47 15
  260.4267 0.18 2
  260.5098 0.12 1
  260.6563 0.09 1
  261.0542 3.50 35
  261.3749 0.06 1
  261.5294 0.08 1
  261.6759 0.05 0
  262.0449 0.71 7
  262.2627 0.22 2
  262.4356 0.04 0
  262.6680 0.11 1
  263.0549 1.88 19
  263.4069 0.18 2
  263.8243 0.11 1
  264.0818 0.64 6
  264.2305 0.34 3
  264.5627 0.09 1
  264.6843 0.10 1
  265.0476 1.37 14
  265.4651 0.12 1
  265.6680 0.13 1
  266.0665 0.48 5
  266.3837 0.16 2
  267.0129 1.40 14
  267.3758 0.06 1
  267.5887 0.05 0
  267.7725 0.16 2
  268.0211 0.36 4
  268.1950 0.06 1
  268.3967 0.08 1
  268.5964 0.04 0
  268.8120 0.19 2
  269.0745 1.95 19
  269.4085 0.06 1
  269.5144 0.21 2
  269.6275 0.02 0
  269.7889 0.02 0
  270.0490 0.44 4
  270.2761 0.11 1
  270.4972 0.11 1
  270.6239 0.11 1
  271.0623 1.10 11
  271.4333 0.18 2
  272.0480 1.21 12
  272.3795 0.12 1
  272.6768 0.17 2
  272.7923 0.20 2
  273.0618 1.39 14
  273.3399 0.29 3
  273.6444 0.03 0
  273.9609 0.38 4
  274.1214 0.75 7
  274.4247 0.09 1
  274.6289 0.07 1
  274.7531 0.10 1
  275.0796 1.68 17
  275.5402 0.23 2
  275.6592 0.04 0
  275.7967 0.02 0
  276.0869 0.79 8
  276.2541 0.25 2
  276.3705 0.07 1
  276.5681 0.01 0
  276.7056 0.01 0
  277.0871 1.13 11
  277.3774 0.05 0
  277.5678 0.11 1
  278.1048 0.52 5
  278.4937 0.13 1
  278.6750 0.10 1
  279.0487 0.94 9
  279.6845 0.16 2
  279.8605 0.10 1
  280.0603 0.17 2
  280.3124 0.11 1
  280.6168 0.06 1
  281.0344 0.74 7
  281.4018 0.03 0
  281.6460 0.17 2
  281.9942 0.48 5
  282.1273 0.26 3
  282.3683 0.11 1
  282.4828 0.11 1
  283.0423 0.96 10
  283.3634 0.07 1
  283.5753 0.11 1
  284.0919 0.46 5
  284.2568 0.15 1
  284.5642 0.03 0
  284.7112 0.16 2
  285.0716 1.24 12
  285.4757 0.05 0
  285.7865 0.07 1
  286.1095 0.84 8
  286.6410 0.21 2
  286.7859 0.03 0
  287.0904 2.20 22
  287.4890 0.09 1
  287.5757 0.08 1
  287.6876 0.05 0
  287.8134 0.06 1
  287.9921 0.31 3
  288.1358 0.20 2
  288.4470 0.08 1
  288.5695 0.14 1
  289.0689 0.70 7
  289.3709 0.12 1
  289.6477 0.05 0
  289.7590 0.15 1
  290.0955 0.42 4
  290.3632 0.10 1
  290.4711 0.09 1
  290.7898 0.15 1
  291.0694 0.53 5
  291.5876 0.03 0
  292.0435 0.36 4
  292.6413 0.17 2
  292.7978 0.13 1
  293.0304 0.32 3
  293.1995 0.23 2
  293.5057 0.10 1
  293.7020 0.26 3
  293.8220 0.11 1
  293.9917 0.33 3
  294.1044 0.10 1
  294.3033 0.02 0
  294.7171 0.14 1
  295.0480 0.96 10
  295.1833 0.55 5
  295.4810 0.14 1
  295.7205 0.10 1
  295.8710 0.26 3
  296.0873 0.27 3
  296.2345 0.06 1
  296.7168 0.17 2
  296.8123 0.11 1
  297.0770 1.16 12
  297.6231 0.14 1
  297.8042 0.02 0
  298.0226 0.42 4
  298.1340 0.35 3
  298.4944 0.16 2
  299.0472 1.00 10
  300.0277 0.70 7
  300.4678 0.07 1
  300.5960 0.05 0
  300.7812 0.12 1
  301.0515 0.79 8
  302.1034 0.33 3
  302.2249 0.13 1
  302.5045 0.11 1
  302.5822 0.05 0
  302.8327 0.19 2
  303.0851 0.99 10
  303.4618 0.10 1
  303.8849 0.28 3
  304.0843 0.36 4
  304.1999 0.13 1
  304.3288 0.11 1
  304.5899 0.02 0
  304.8737 0.19 2
  305.0936 0.29 3
  305.2265 0.17 2
  305.8812 0.12 1
  306.0633 0.35 3
  306.1550 0.15 1
  306.5107 0.04 0
  306.7699 0.09 1
  306.9807 0.53 5
  307.0997 0.26 3
  307.4933 0.03 0
  307.8443 0.10 1
  307.9667 0.11 1
  308.1515 0.02 0
  308.3922 0.06 1
  308.9116 0.20 2
  309.1311 0.40 4
  309.5934 0.20 2
  309.8095 0.14 1
  310.0024 0.37 4
  310.1315 0.08 1
  310.4788 0.22 2
  310.8194 0.21 2
  311.0862 0.41 4
  311.3377 0.13 1
  311.6690 0.11 1
  311.7509 0.05 0
  311.9206 0.17 2
  312.0224 0.11 1
  312.1522 0.15 1
  312.3045 0.17 2
  312.5674 0.11 1
  313.0353 0.59 6
  313.5758 0.04 0
  313.8334 0.05 0
  314.1137 0.23 2
  314.3560 0.11 1
  315.0864 1.02 10
  315.4726 0.06 1
  315.5805 0.09 1
  315.6850 0.10 1
  315.9641 0.28 3
  316.0932 0.26 3
  316.2284 0.12 1
  316.5268 0.10 1
  316.8691 0.19 2
  317.0703 0.41 4
  317.3261 0.12 1
  317.4660 0.16 2
  317.7045 0.06 1
  318.0182 0.19 2
  318.1895 0.12 1
  318.3647 0.13 1
  318.6012 0.14 1
  318.8730 0.22 2
  319.1149 0.51 5
  319.6200 0.10 1
  319.8473 0.13 1
  320.1225 0.17 2
  320.3151 0.10 1
  320.7590 0.12 1
  321.1123 0.40 4
  321.4756 0.10 1
  321.6382 0.11 1
  321.7689 0.09 1
  321.9836 0.10 1
  322.0909 0.17 2
  323.0697 0.28 3
  323.1997 0.08 1
  323.6439 0.11 1
  324.0580 0.14 1
  324.3495 0.06 1
  324.6036 0.13 1
  324.7236 0.03 0
  324.9491 0.30 3
  325.0805 0.52 5
  325.3393 0.10 1
  325.6055 0.13 1
  325.9063 0.05 0
  326.1432 0.25 2
  326.5402 0.10 1
  326.7537 0.15 1
  327.0172 0.41 4
  327.2014 0.31 3
  327.5291 0.12 1
  327.6245 0.07 1
  328.0209 0.17 2
  328.2411 0.10 1
  328.6175 0.15 1
  328.7856 0.14 1
  329.1430 0.72 7
  329.4951 0.07 1
  329.6959 0.15 1
  330.1201 0.46 5
  330.2829 0.08 1
  330.7432 0.10 1
  331.1381 0.59 6
  331.6385 0.12 1
  332.0769 0.09 1
  332.6481 0.12 1
  332.7802 0.13 1
  333.1579 0.76 8
  333.9048 0.11 1
  334.0249 0.11 1
  334.1524 0.07 1
  334.7565 0.09 1
  334.9041 0.04 0
  335.1350 0.50 5
  335.9475 0.07 1
  336.1752 0.36 4
  336.3215 0.14 1
  336.4890 0.10 1
  336.8563 0.12 1
  337.0607 0.32 3
  337.2283 0.15 1
  337.6844 0.07 1
  337.8220 0.13 1
  338.0731 0.19 2
  338.3123 0.05 0
  338.4111 0.06 1
  338.7070 0.09 1
  338.8393 0.12 1
  339.0924 0.54 5
  339.2087 0.28 3
  339.5868 0.03 0
  339.8313 0.11 1
  340.1721 0.53 5
  340.2823 0.15 1
  340.4273 0.07 1
  340.6852 0.07 1
  341.0848 0.63 6
  341.2385 0.25 2
  341.7069 0.13 1
  341.9321 0.16 2
  342.1700 0.38 4
  343.1760 0.44 4
  343.3170 0.16 2
  343.6472 0.12 1
  343.7522 0.12 1
  344.0256 0.19 2
  344.1199 0.16 2
  344.2523 0.21 2
  344.6367 0.08 1
  345.0038 0.14 1
  345.1849 0.68 7
  345.3093 0.25 2
  345.4410 0.12 1
  346.1552 0.58 6
  346.4207 0.09 1
  346.6167 0.07 1
  347.0226 0.19 2
  347.1571 0.18 2
  347.2748 0.24 2
  347.3818 0.12 1
  348.0534 0.06 1
  348.2414 0.02 0
  349.1525 0.25 2
  349.8651 0.07 1
  350.1394 0.15 1
  350.2170 0.11 1
  350.7417 0.11 1
  350.8889 0.21 2
  351.1874 0.45 4
  351.3493 0.16 2
  351.4403 0.17 2
  351.8941 0.01 0
  352.0253 0.06 1
  352.1578 0.23 2
  352.2924 0.43 4
  352.8158 0.17 2
  353.1572 0.68 7
  353.5810 0.11 1
  353.8923 0.10 1
  354.0724 0.19 2
  354.2733 0.16 2
  354.5243 0.14 1
  354.8772 0.15 1
  355.2318 0.47 5
  355.7633 0.21 2
  355.9754 0.11 1
  356.2375 0.26 3
  356.5997 0.10 1
  356.7137 0.08 1
  356.8245 0.05 0
  357.1193 0.36 4
  357.2173 0.21 2
  357.9098 0.13 1
  358.0679 0.20 2
  358.2633 0.05 0
  358.7490 0.12 1
  358.8445 0.02 0
  359.1887 0.46 5
  360.1963 0.10 1
  360.2784 0.11 1
  360.9718 0.11 1
  361.1139 0.21 2
  361.2347 0.15 1
  362.0483 0.18 2
  362.2446 0.11 1
  363.0737 0.25 2
  363.3467 0.13 1
  363.4936 0.07 1
  363.9703 0.12 1
  364.1913 0.44 4
  364.5492 0.12 1
  364.8844 0.08 1
  365.1695 0.22 2
  365.6750 0.12 1
  365.9101 0.12 1
  366.0069 0.10 1
  366.2447 0.10 1
  366.4771 0.11 1
  366.8471 0.10 1
  366.9673 0.19 2
  367.1236 0.26 3
  367.2445 0.16 2
  368.2138 0.13 1
  368.6447 0.14 1
  369.0869 0.35 3
  369.3296 0.14 1
  370.0216 0.15 1
  370.1346 0.11 1
  370.3031 0.10 1
  370.6562 0.07 1
  370.7712 0.12 1
  371.1557 0.38 4
  371.2300 0.23 2
  371.3336 0.08 1
  371.5149 0.12 1
  371.8860 0.14 1
  372.7027 0.09 1
  373.0057 0.07 1
  373.1642 0.17 2
  373.5609 0.11 1
  374.0573 0.15 1
  374.1577 0.12 1
  374.4279 0.12 1
  374.7317 0.12 1
  375.2047 0.23 2
  375.3138 0.18 2
  375.4168 0.10 1
  375.6678 0.03 0
  376.1750 0.20 2
  376.6287 0.08 1
  376.8341 0.04 0
  376.9854 0.13 1
  377.1386 0.25 2
  377.9190 0.08 1
  378.1191 0.56 6
  378.2249 0.19 2
  378.3547 0.07 1
  378.6419 0.09 1
  379.0743 0.12 1
  379.2464 0.15 1
  379.6460 0.03 0
  379.8636 0.13 1
  380.2037 0.15 1
  380.8156 0.09 1
  381.0266 0.23 2
  381.2053 0.14 1
  381.3379 0.12 1
  381.9781 0.13 1
  382.1810 0.17 2
  382.5654 0.19 2
  383.0643 0.42 4
  383.2692 0.51 5
  383.5720 0.13 1
  383.7970 0.17 2
  383.8834 0.12 1
  384.1205 0.09 1
  384.2967 0.25 2
  384.5184 0.11 1
  384.6256 0.06 1
  385.1595 0.23 2
  385.3243 0.04 0
  385.7209 0.07 1
  385.8683 0.11 1
  386.1001 0.26 3
  386.2709 0.14 1
  386.4129 0.10 1
  387.0173 0.12 1
  387.1647 0.26 3
  387.3188 0.06 1
  387.8395 0.06 1
  388.1155 0.23 2
  388.2797 0.25 2
  389.1382 0.14 1
  389.2160 0.09 1
  390.0571 0.24 2
  390.1798 0.22 2
  391.2134 0.17 2
  391.3783 0.02 0
  391.5754 0.19 2
  391.7631 0.03 0
  391.9079 0.11 1
  392.2318 0.36 4
  392.3176 0.13 1
  393.0926 0.35 3
  393.3112 0.15 1
  393.8490 0.10 1
  394.1883 0.04 0
  394.4585 0.10 1
  394.7295 0.09 1
  395.1875 0.27 3
  395.2794 0.23 2
  395.8287 0.10 1
  396.2311 0.71 7
  396.3539 0.25 2
  396.5906 0.10 1
  397.1937 0.47 5
  397.6720 0.14 1
  398.1805 0.92 9
  398.4985 0.13 1
  398.8560 0.06 1
  399.2003 0.99 10
  399.7135 0.12 1
  399.8826 0.12 1
  400.1450 0.31 3
  400.2450 0.22 2
  400.3960 0.10 1
  400.7125 0.13 1
  400.9395 0.08 1
  401.1290 0.15 1
  401.3788 0.22 2
  401.4933 0.24 2
  402.0473 0.14 1
  402.2462 0.28 3
  402.6843 0.20 2
  402.8953 0.10 1
  403.1471 0.24 2
  404.1487 0.36 4
  404.3061 0.17 2
  404.4890 0.07 1
  404.5988 0.04 0
  404.7342 0.08 1
  405.0196 0.19 2
  405.2555 0.35 3
  405.8799 0.04 0
  406.1969 0.47 5
  406.9581 0.18 2
  407.1163 0.12 1
  407.9359 0.07 1
  408.4801 0.09 1
  408.7033 0.10 1
  408.8193 0.02 0
  409.0539 0.15 1
  409.3180 0.29 3
  409.7175 0.04 0
  409.9333 0.12 1
  410.1753 0.11 1
  410.3530 0.09 1
  410.4797 0.12 1
  410.5715 0.12 1
  410.7197 0.15 1
  411.0026 0.16 2
  411.2131 0.82 8
  411.4431 0.11 1
  411.9171 0.14 1
  412.1061 0.48 5
  412.2771 0.67 7
  412.7981 0.13 1
  412.9027 0.21 2
  413.0475 0.10 1
  413.1971 0.34 3
  413.3788 0.10 1
  414.0742 0.30 3
  414.2358 0.10 1
  414.3243 0.12 1
  414.7643 0.11 1
  414.8589 0.07 1
  415.0674 0.17 2
  415.1687 0.15 1
  415.3169 0.23 2
  416.2613 0.44 4
  416.5746 0.04 0
  417.2297 0.56 6
  417.7796 0.07 1
  418.1668 0.29 3
  418.2854 0.16 2
  418.6786 0.06 1
  418.9955 0.09 1
  419.2025 0.22 2
  419.7559 0.16 2
  420.2805 0.27 3
  420.4761 0.14 1
  420.6557 0.09 1
  420.7703 0.06 1
  421.2420 0.14 1
  421.3191 0.06 1
  422.0287 0.17 2
  422.1888 0.13 1
  422.3403 0.12 1
  422.5500 0.07 1
  423.0366 0.06 1
  423.2631 0.12 1
  423.6096 0.12 1
  423.9320 0.11 1
  424.0479 0.08 1
  424.2785 0.01 0
  425.1660 0.68 7
  425.3403 0.57 6
  425.4421 0.23 2
  425.7056 0.06 1
  425.8618 0.11 1
  426.0414 0.16 2
  426.2158 0.30 3
  426.3853 0.12 1
  426.8627 0.13 1
  427.1831 0.22 2
  427.4775 0.14 1
  427.7316 0.10 1
  427.9924 0.26 3
  428.2016 0.42 4
  428.2941 0.21 2
  428.5000 0.10 1
  428.8715 0.05 0
  429.1202 0.14 1
  429.2778 0.36 4
  430.1999 0.80 8
  431.2360 0.37 4
  431.5499 0.03 0
  431.6713 0.09 1
  431.9034 0.12 1
  432.1093 0.18 2
  432.2253 0.13 1
  432.3535 0.07 1
  432.6680 0.05 0
  433.0967 0.14 1
  433.4368 0.07 1
  433.9432 0.09 1
  434.2431 0.11 1
  434.6825 0.10 1
  434.8295 0.04 0
  435.4125 0.18 2
  435.8365 0.11 1
  436.1660 0.08 1
  436.3968 0.10 1
  436.7679 0.13 1
  437.0953 0.23 2
  437.2429 0.12 1
  437.3470 0.05 0
  437.4946 0.10 1
  437.7120 0.09 1
  438.1985 0.18 2
  438.2918 0.08 1
  438.4032 0.14 1
  439.1119 0.11 1
  439.2911 0.29 3
  439.5770 0.08 1
  439.7616 0.11 1
  439.9858 0.10 1
  440.3106 0.13 1
  440.4912 0.07 1
  440.6342 0.05 0
  440.8282 0.06 1
  441.1577 0.25 2
  441.4665 0.09 1
  442.0412 0.11 1
  442.1506 0.16 2
  442.3513 0.11 1
  442.5769 0.11 1
  442.8004 0.11 1
  443.1677 0.37 4
  443.3469 0.11 1
  443.9942 0.10 1
  444.1432 0.37 4
  444.2923 0.38 4
  444.4742 0.10 1
  444.6360 0.09 1
  445.1631 0.16 2
  445.3169 0.12 1
  445.5990 0.15 1
  445.8414 0.13 1
  446.1960 0.15 1
  446.3732 0.11 1
  446.4592 0.11 1
  446.8850 0.07 1
  447.1402 0.15 1
  447.2772 0.06 1
  447.5143 0.11 1
  447.7419 0.07 1
  447.9038 0.10 1
  448.2437 0.38 4
  448.5936 0.11 1
  449.0604 0.21 2
  449.1524 0.20 2
  449.4171 0.43 4
  449.5830 0.32 3
  449.7503 0.28 3
  449.9753 0.20 2
  450.2997 0.41 4
  450.4966 0.23 2
  450.6732 0.11 1
  450.8291 0.17 2
  451.2685 0.40 4
  451.5577 0.14 1
  451.8398 0.06 1
  452.0435 0.23 2
  452.2352 0.21 2
  452.4865 0.22 2
  452.6125 0.11 1
  452.7016 0.08 1
  452.8095 0.12 1
  453.1580 0.65 6
  453.3852 0.55 5
  453.7036 0.06 1
  453.8349 0.04 0
  454.2317 0.14 1
  454.4120 0.13 1
  454.6734 0.04 0
  454.9133 0.11 1
  455.0521 0.18 2
  455.3638 0.17 2
  455.6084 0.07 1
  456.0763 0.22 2
  456.3371 0.31 3
  456.9277 0.11 1
  457.0383 0.07 1
  457.1945 0.06 1
  457.3735 0.08 1
  457.6732 0.08 1
  457.8032 0.04 0
  458.0922 0.22 2
  458.2390 0.03 0
  458.4174 0.17 2
  458.6701 0.12 1
  458.9182 0.04 0
  459.3031 0.33 3
  459.5378 0.13 1
  459.7999 0.20 2
  460.1922 0.40 4
  460.5724 0.08 1
  460.7327 0.24 2
  460.8105 0.10 1
  460.9345 0.13 1
  461.2960 0.51 5
  461.5917 0.17 2
  461.7855 0.66 7
  462.2986 9.55 95
  462.6486 0.46 5
  462.8793 0.24 2
  463.0718 0.22 2
  463.2187 0.10 1
  463.3931 0.23 2
  463.7774 0.09 1
  463.9921 0.14 1
  464.0994 0.22 2
  464.3643 0.18 2
  464.7353 0.11 1
  464.9043 0.12 1
  465.1612 0.16 2
  465.3101 0.20 2
  465.6086 0.15 1
  465.7046 0.12 1
  465.8736 0.17 2
  466.1044 0.28 3
  466.3452 0.28 3
  466.6854 0.48 5
  467.2576 6.25 62
  467.6038 0.18 2
  467.7340 0.20 2
  468.0480 0.41 4
  468.2969 0.54 5
  468.4150 0.27 3
  468.5814 0.21 2
  468.8337 0.31 3
  469.1068 0.61 6
  469.3087 0.63 6
  469.4349 0.20 2
  469.5852 0.16 2
  470.2562 1.20 12
  470.4589 0.30 3
  470.6468 0.11 1
  471.2548 0.52 5
  471.6420 0.10 1
  471.9594 0.14 1
  472.2010 0.29 3
  472.3433 0.30 3
  472.6138 0.14 1
  473.2602 0.18 2
  473.5025 0.11 1
  473.5911 0.04 0
  474.1804 0.49 5
  474.4422 0.05 0
  475.2819 1.35 13
  475.6673 0.08 1
  476.1741 0.05 0
  476.3050 0.11 1
  476.3923 0.11 1
  478.6535 0.13 1
  478.9467 0.08 1
  479.2688 0.18 2
  479.6801 0.11 1
  480.2351 0.63 6
  480.4901 0.19 2
  480.7061 0.11 1
  480.9296 0.10 1
  481.2095 0.93 9
  481.4115 0.57 6
  481.6269 0.12 1
  482.2712 0.32 3
  482.5323 0.13 1
  483.1310 0.28 3
  483.3639 0.25 2
  483.4719 0.11 1
  483.6545 0.12 1
  483.7753 0.12 1
  484.2754 1.63 16
  484.4667 0.61 6
  485.2574 9.55 95
  485.8140 0.20 2
  486.1362 0.32 3
  486.4148 0.41 4
  486.8418 0.14 1
  487.1076 0.10 1
  487.3648 0.12 1
  487.4655 0.11 1
  487.9536 0.11 1
  488.2087 0.05 0
  488.8466 0.04 0
  488.9513 0.01 0
  489.6866 0.09 1
  489.9384 0.13 1
  490.1277 0.04 0
  490.2741 0.14 1
  490.9503 0.12 1
  491.0867 0.12 1
  491.5675 0.14 1
  491.9651 0.07 1
  492.2236 0.16 2
  492.3083 0.09 1
  492.7186 0.09 1
  492.8650 0.12 1
  493.2868 0.09 1
  493.4110 0.15 1
  493.6663 0.05 0
  494.2587 0.98 10
  494.4105 1.05 10
  494.5448 0.14 1
  494.8081 0.12 1
  495.2656 1.54 15
  495.8963 0.11 1
  496.1664 0.11 1
  496.3612 0.08 1
  496.5043 0.20 2
  496.8032 0.04 0
  497.0014 0.14 1
  497.2164 0.04 0
  497.4582 0.12 1
  498.0441 0.19 2
  498.1845 0.39 4
  498.3121 0.15 1
  498.5406 0.12 1
  498.6541 0.04 0
  498.9316 0.05 0
  499.2608 1.05 10
  499.4147 0.71 7
  499.5235 0.19 2
  499.6599 0.13 1
  500.1451 0.20 2
  500.2290 0.12 1
  500.3607 0.41 4
  501.1496 0.12 1
  502.1683 0.13 1
  503.1327 0.05 0
  503.2678 0.11 1
  505.4485 0.07 1
  505.8548 0.02 0
  506.8540 0.22 2
  507.2925 0.14 1
  507.5179 0.11 1
  508.1624 0.18 2
  508.7747 0.07 1
  508.9537 0.01 0
  509.2307 0.13 1
  509.7398 0.08 1
  509.8759 0.12 1
  510.1529 0.12 1
  510.3193 0.16 2
  511.0410 0.18 2
  511.1792 0.23 2
  511.3569 0.22 2
  512.3121 0.50 5
  512.5154 0.20 2
  512.7951 0.05 0
  513.0339 0.06 1
  513.1319 0.12 1
  513.5995 0.06 1
  513.9409 0.12 1
  514.0268 0.13 1
  514.2811 0.11 1
  514.6628 0.15 1
  515.2961 0.21 2
  515.7081 0.11 1
  516.1321 0.11 1
  516.2583 0.14 1
  516.3770 0.11 1
  516.7226 0.13 1
  516.8789 0.02 0
  517.3251 0.10 1
  519.3033 0.08 1
  519.8362 0.07 1
  520.4153 0.03 0
  520.8275 0.35 3
  520.9321 0.15 1
  521.0288 0.10 1
  521.2368 0.21 2
  521.3932 0.15 1
  521.8704 0.15 1
  522.2852 0.31 3
  523.1497 0.13 1
  523.2893 0.13 1
  523.4410 0.07 1
  523.5343 0.01 0
  523.8975 0.14 1
  524.2465 1.77 18
  524.4164 0.78 8
  524.8372 0.21 2
  525.0635 0.27 3
  525.1575 0.29 3
  525.4011 0.29 3
  525.5898 0.17 2
  525.8771 0.11 1
  526.2752 0.06 1
  526.5591 0.04 0
  526.7384 0.24 2
  526.9506 0.45 4
  527.1063 0.23 2
  527.2131 0.10 1
  527.3339 0.13 1
  527.4199 0.12 1
  527.5736 0.21 2
  527.7374 0.22 2
  527.8227 0.07 1
  527.9926 0.05 0
  528.1436 0.16 2
  528.3074 0.12 1
  528.6747 0.23 2
  528.7902 0.24 2
  528.9480 0.14 1
  529.0742 0.21 2
  529.4173 0.27 3
  529.6859 0.13 1
  529.8450 0.30 3
  530.0162 0.18 2
  530.2056 0.32 3
  530.6253 0.12 1
  530.6971 0.08 1
  530.8986 0.30 3
  531.0450 0.37 4
  531.2477 0.54 5
  531.5291 0.19 2
  531.6682 0.12 1
  531.8763 0.31 3
  532.1396 0.27 3
  532.4236 0.37 4
  532.7292 0.41 4
  532.9918 0.40 4
  533.2147 0.34 3
  533.3316 0.43 4
  533.4975 0.50 5
  533.9125 0.57 6
  534.1382 0.58 6
  534.3148 0.52 5
  534.5331 0.45 4
  535.1597 1.27 13
  536.0665 5.66 57
  536.4010 2.42 24
  536.6469 0.71 7
  536.8221 0.79 8
  537.2984 0.77 8
  538.3376 4.36 44
  538.7675 1.29 13
  539.2640 5.22 52
  539.6120 0.70 7
  539.8646 0.86 9
  540.1326 0.45 4
  540.3530 0.88 9
  540.4981 0.38 4
  540.8394 0.46 5
  540.9382 0.24 2
  541.2150 0.53 5
  541.4582 0.27 3
  541.6309 0.39 4
  541.8210 0.42 4
  542.1025 0.14 1
  542.1966 0.11 1
  542.8517 0.56 6
  543.1460 0.62 6
  543.2952 0.44 4
  543.6231 0.33 3
  543.9060 0.54 5
  544.0659 0.72 7
  544.2218 0.48 5
  544.5981 0.53 5
  544.8427 0.31 3
  545.1686 0.46 5
  545.4482 0.24 2
  545.7136 0.65 6
  545.8433 0.78 8
  546.1424 0.93 9
  546.7599 0.73 7
  547.0255 0.47 5
  547.2828 0.76 8
  547.4797 0.28 3
  547.7726 0.69 7
  548.2285 1.19 12
  548.5569 1.19 12
  549.0657 1.28 13
  550.1364 2.22 22
  554.3457 99.97 999
  554.7722 36.28 363
  555.5333 17.76 177
  556.1730 8.35 83
  557.0576 4.37 44
  558.0428 2.40 24
  558.4324 1.71 17
  558.8449 1.26 13
  559.1830 1.01 10
  559.6793 0.79 8
  559.9100 0.61 6
  560.0817 0.70 7
  560.3997 0.48 5
  560.9188 0.45 4
  561.0107 0.19 2
  561.1261 0.51 5
  561.3240 0.35 3
  561.5024 0.26 3
  561.6513 0.20 2
  561.9022 0.19 2
  562.0974 0.21 2
  562.3315 0.05 0
  562.4771 0.15 1
  562.8098 0.19 2
  562.9896 0.04 0
  563.2512 0.17 2
  563.3807 0.12 1
//
