ACCESSION: MSBNK-Kyoto_Univ-CA000063
RECORD_TITLE: 6-Epiheteroxanthin; FAB-EBEB; MS2; m/z: 600.42; [M]+*
DATE: 2016.01.19 (Created 2010.04.01, modified 2011.05.10)
AUTHORS: Akimoto N, Graduate School of Pharmaceutical Sciences, Kyoto University and Maoka T, Research Institute for Production Development
LICENSE: CC BY-SA
PUBLICATION: Takashi Maoka, Yasuhiro Fujiwara, Keiji Hashimoto, and Naoshige Akimoto, Structure of New Carotenoids from the Corbicula clam Corbicula japonica, J. Nat. Prod ., 68, 1341-1344 (2005).  Takashi Maoka, Yasuhiro Fujiwara, Keiji Hashimoto, and Naoshige Akimoto, Carotenoids in Three Species of Corbicula Clams, Corbicula japonica, Corbicula sandai, and Corbicula sp. (Chinese Freshwater Corbicula Clam), J. Agric. Food Chem., 53, 8357-8364 (2005).
COMMENT: Profile spectrum of this record is given as a JPEG file.
COMMENT: [Profile] CA000063.jpg
CH$NAME: 6-Epiheteroxanthin
CH$COMPOUND_CLASS: N/A
CH$FORMULA: C40H56O4
CH$EXACT_MASS: 600.41786
CH$SMILES: CC(C)(C=1C#CC(C)=CC=CC(=CC=CC=C(C=CC=C(C)C=CC(C(C)(O)2)(C(C)(C)CC(O)C2)O)C)C)CC(CC(C)1)O
CH$IUPAC: InChI=1S/C40H56O4/c1-29(17-13-19-31(3)21-22-36-33(5)25-34(41)26-37(36,6)7)15-11-12-16-30(2)18-14-20-32(4)23-24-40(44)38(8,9)27-35(42)28-39(40,10)43/h11-20,23-24,34-35,41-44H,25-28H2,1-10H3/b12-11+,17-13+,18-14+,24-23+,29-15+,30-16+,31-19+,32-20+/t34-,35+,39-,40+/m1/s1
CH$LINK: CAS 64023-28-5
CH$LINK: NIKKAJI J2.236.913J
CH$LINK: INCHIKEY ZEXQVPRPMQVOFT-GHIQLMQGSA-N
AC$INSTRUMENT: JMS-HX/HX 110A, JEOL
AC$INSTRUMENT_TYPE: FAB-EBEB
AC$MASS_SPECTROMETRY: MS_TYPE MS2
AC$MASS_SPECTROMETRY: ION_MODE POSITIVE
AC$MASS_SPECTROMETRY: ATOM_GUN_CURRENT 5 mA
AC$MASS_SPECTROMETRY: BOMBARDMENT 6 kV xenon
AC$MASS_SPECTROMETRY: COLLISION_ENERGY 3 kV
AC$MASS_SPECTROMETRY: COLLISION_GAS Ar
AC$MASS_SPECTROMETRY: GAS_PRESSURE adjust to attenuate the intensity of the precursor ion by 30 %
AC$MASS_SPECTROMETRY: IONIZATION FAB
AC$MASS_SPECTROMETRY: MATRIX 1-2 uL m-NBA
AC$MASS_SPECTROMETRY: PROBE_TIP stainless-steel
MS$FOCUSED_ION: BASE_PEAK 42.9601
MS$FOCUSED_ION: PRECURSOR_M/Z 600.42
MS$FOCUSED_ION: PRECURSOR_TYPE [M]+*
MS$DATA_PROCESSING: RELATIVE_M/Z normalised by peak(m/z=42.9601).  set 999 for peak(m/z=600.4627,rel=3309).
PK$SPLASH: splash10-0udl-4941122000-2d2f0576be3614a683e5
PK$NUM_PEAK: 1788
PK$PEAK: m/z int. rel.int.
  12.9574 0.02 1
  13.1086 0.01 0
  13.9765 0.10 3
  14.9751 0.40 13
  22.9399 0.12 4
  24.9488 0.13 4
  25.9579 0.40 13
  26.9680 1.54 51
  27.9751 0.19 6
  28.9721 2.50 83
  29.9867 0.04 1
  30.9628 0.61 20
  35.9073 0.08 3
  36.9532 0.15 5
  37.9431 0.80 26
  38.4281 0.08 3
  38.9637 4.58 152
  39.7294 0.02 1
  39.9624 0.50 17
  40.8073 0.04 1
  40.9763 9.11 302
  41.9751 0.47 16
  42.9601 30.18 999
  43.9620 0.25 8
  44.9697 0.54 18
  46.9430 0.13 4
  48.9073 0.05 2
  48.9805 0.04 1
  49.9570 1.27 42
  50.1998 0.06 2
  50.9536 3.14 104
  51.6964 0.04 1
  51.9630 1.50 50
  52.9707 4.54 150
  53.3626 0.06 2
  53.9383 0.31 10
  54.1112 0.01 0
  54.9759 11.33 375
  55.9828 0.51 17
  56.9900 5.38 178
  57.6962 0.03 1
  57.9626 0.49 16
  58.1903 0.02 1
  58.9741 2.03 67
  59.9239 0.11 4
  59.9982 0.02 1
  60.9492 0.51 17
  61.6251 0.01 0
  61.9522 1.03 34
  62.9535 2.75 91
  63.3121 0.02 1
  63.4640 0.10 3
  63.5417 0.05 2
  63.9688 0.65 22
  64.9657 3.42 113
  65.3187 0.08 3
  65.9621 0.59 20
  66.9700 5.31 176
  67.9657 0.47 16
  68.9664 8.39 278
  69.4720 0.11 4
  69.9697 0.81 27
  70.6559 0.06 2
  70.9524 4.17 138
  71.9524 0.06 2
  72.9274 0.28 9
  73.9149 0.81 27
  74.3255 0.03 1
  74.9445 1.72 57
  75.5324 0.09 3
  75.9440 0.58 19
  76.1792 0.11 4
  76.4488 0.02 1
  76.5739 0.04 1
  76.9491 10.35 343
  77.1968 0.07 2
  77.3649 0.10 3
  77.5514 0.01 0
  77.9561 2.96 98
  78.3554 0.02 1
  78.5793 0.13 4
  78.9609 8.81 292
  79.2358 0.02 1
  79.5371 0.02 1
  79.9777 1.24 41
  80.2152 0.08 3
  80.9760 10.65 353
  81.4891 0.09 3
  81.9178 0.38 13
  82.9866 13.23 438
  83.1966 0.07 2
  83.9741 0.25 8
  84.1099 0.08 3
  84.2125 0.03 1
  84.6891 0.02 1
  84.9631 8.25 273
  85.5667 0.07 2
  85.6855 0.05 2
  85.9486 0.36 12
  86.3843 0.06 2
  86.9525 5.35 177
  87.4734 0.11 4
  87.9333 0.33 11
  88.2181 0.02 1
  88.4836 0.02 1
  88.6338 0.13 4
  88.9466 1.47 49
  89.2284 0.20 7
  89.3636 0.11 4
  89.5411 0.19 6
  89.7706 0.09 3
  89.9581 0.53 18
  90.2602 0.16 5
  90.3596 0.13 4
  90.5424 0.11 4
  90.9598 16.79 556
  91.2104 0.12 4
  91.5860 0.10 3
  91.9719 1.81 60
  92.1732 0.08 3
  92.9777 12.22 404
  93.1752 0.22 7
  93.4871 0.11 4
  93.9797 0.74 24
  94.5274 0.03 1
  94.9838 7.59 251
  95.3615 0.03 1
  95.4817 0.09 3
  95.7506 0.13 4
  95.9807 0.60 20
  96.6088 0.11 4
  96.9716 2.96 98
  97.9666 0.70 23
  98.9511 0.85 28
  99.9401 0.13 4
  100.3268 0.01 0
  100.5465 0.10 3
  100.9530 0.67 22
  101.1442 0.19 6
  101.2746 0.18 6
  101.4038 0.02 1
  101.5632 0.10 3
  101.9517 1.49 49
  102.1803 0.07 2
  102.2633 0.03 1
  102.4908 0.03 1
  102.9599 3.09 102
  103.3205 0.17 6
  103.4842 0.20 7
  103.9744 2.25 74
  104.9701 19.49 645
  105.3555 0.22 7
  105.6811 0.10 3
  105.9784 2.26 75
  106.9797 9.07 300
  107.2472 0.20 7
  107.4121 0.04 1
  107.9853 0.91 30
  108.1141 0.16 5
  108.6111 0.02 1
  108.9847 6.37 211
  109.6244 0.06 2
  109.7612 0.03 1
  109.9311 0.53 18
  110.1934 0.06 2
  110.4087 0.15 5
  110.6974 0.11 4
  110.9734 3.09 102
  111.5227 0.01 0
  111.7628 0.08 3
  112.0093 0.19 6
  112.1383 0.13 4
  112.5327 0.12 4
  112.9638 2.60 86
  113.1692 0.11 4
  113.3830 0.06 2
  113.4950 0.05 2
  113.7454 0.12 4
  113.9229 0.29 10
  114.1799 0.11 4
  114.3704 0.17 6
  114.5275 0.13 4
  114.9439 9.98 330
  115.2643 0.05 2
  115.3677 0.03 1
  115.4936 0.21 7
  115.9556 3.78 125
  116.1543 0.12 4
  116.4560 0.16 5
  116.6625 0.15 5
  116.9580 8.75 290
  117.3425 0.03 1
  117.4797 0.10 3
  117.6196 0.10 3
  117.9542 1.61 53
  118.1535 0.13 4
  118.2683 0.03 1
  118.3767 0.11 4
  118.5567 0.05 2
  118.9661 17.21 570
  119.2199 0.11 4
  119.3214 0.18 6
  119.4248 0.11 4
  119.9672 2.09 69
  120.1794 0.16 5
  120.6059 0.01 0
  120.9653 7.45 247
  121.2432 0.04 1
  121.4079 0.06 2
  121.6827 0.06 2
  121.9454 0.92 30
  122.1173 0.06 2
  122.2341 0.07 2
  122.3490 0.11 4
  122.5456 0.07 2
  122.9645 4.68 155
  123.2595 0.10 3
  123.9636 0.45 15
  124.1002 0.12 4
  124.9602 6.74 223
  125.2534 0.14 5
  125.5447 0.10 3
  125.9529 1.49 49
  126.2224 0.14 5
  126.4749 0.18 6
  126.6577 0.21 7
  126.9457 5.02 166
  127.1619 0.39 13
  127.2547 0.22 7
  127.4801 0.07 2
  127.9313 9.98 330
  128.2433 0.15 5
  128.3434 0.10 3
  128.4415 0.12 4
  128.5764 0.16 5
  128.9430 12.52 414
  129.3439 0.11 4
  129.5306 0.04 1
  129.9521 5.48 181
  130.2610 0.11 4
  130.3692 0.10 3
  130.4335 0.04 1
  130.5713 0.10 3
  130.9507 11.60 384
  131.2705 0.09 3
  131.4393 0.17 6
  131.9643 2.98 99
  132.3898 0.21 7
  132.5509 0.13 4
  132.9654 9.72 322
  133.2577 0.08 3
  133.4315 0.13 4
  133.5165 0.06 2
  133.7569 0.14 5
  133.9691 1.24 41
  134.1371 0.05 2
  134.4924 0.06 2
  134.5960 0.14 5
  134.9515 3.46 115
  135.2266 0.16 5
  135.5157 0.05 2
  135.9377 1.17 39
  136.3076 0.03 1
  136.5918 0.03 1
  136.9290 1.58 52
  137.3532 0.08 3
  137.5683 0.12 4
  137.6961 0.21 7
  137.9498 0.82 27
  138.3280 0.01 0
  138.5938 0.10 3
  138.9531 2.87 95
  139.3477 0.08 3
  139.6709 0.14 5
  139.8999 1.01 33
  140.0233 0.49 16
  140.2471 0.26 9
  140.4895 0.12 4
  140.9466 9.36 310
  141.4299 0.13 4
  141.9454 9.45 313
  142.2588 0.07 2
  142.4032 0.07 2
  142.9492 14.25 472
  143.2836 0.29 10
  143.9654 4.12 136
  144.2715 0.15 5
  144.4489 0.16 5
  144.5856 0.16 5
  144.9700 14.37 476
  145.4500 0.14 5
  145.7458 0.26 9
  145.9857 1.77 59
  146.4388 0.10 3
  146.9810 6.45 214
  147.5303 0.17 6
  147.6460 0.09 3
  147.9365 0.50 17
  148.1186 0.08 3
  148.5138 0.20 7
  148.9720 2.72 90
  149.3152 0.11 4
  149.4654 0.06 2
  149.9643 0.69 23
  150.0924 0.19 6
  150.2192 0.04 1
  150.4360 0.18 6
  150.5709 0.12 4
  150.9528 1.68 56
  151.2973 0.34 11
  151.4176 0.11 4
  151.9450 4.82 160
  152.2589 0.29 10
  152.3537 0.14 5
  152.4519 0.12 4
  152.5823 0.11 4
  152.9522 5.45 180
  153.3929 0.18 6
  153.9557 2.32 77
  154.3025 0.24 8
  154.4595 0.14 5
  154.6265 0.10 3
  154.9830 11.54 382
  155.2998 0.31 10
  155.4434 0.07 2
  155.9802 6.06 201
  156.3432 0.19 6
  156.5896 0.13 4
  156.9986 15.19 503
  157.4248 0.10 3
  157.6517 0.04 1
  158.0186 3.09 102
  158.2052 0.27 9
  158.4931 0.12 4
  158.9915 7.02 232
  159.3548 0.16 5
  159.4982 0.09 3
  159.7344 0.16 5
  159.9944 1.61 53
  160.2516 0.12 4
  160.3607 0.19 6
  161.0177 2.21 73
  161.3348 0.08 3
  161.4338 0.05 2
  161.5802 0.06 2
  162.0087 0.76 25
  162.1308 0.30 10
  162.2786 0.07 2
  162.4116 0.10 3
  162.6280 0.22 7
  163.0059 1.39 46
  163.3243 0.08 3
  163.6943 0.38 13
  164.0421 1.05 35
  164.1555 0.57 19
  164.3457 0.23 8
  164.5156 0.30 10
  164.6739 0.18 6
  164.9988 10.99 364
  165.2708 0.15 5
  165.4299 0.04 1
  165.6196 0.12 4
  166.0006 3.42 113
  166.2482 0.24 8
  166.3524 0.08 3
  167.0058 8.13 269
  167.4907 0.36 12
  168.0310 3.45 114
  168.3329 0.18 6
  168.5401 0.19 6
  169.0399 10.61 351
  169.3932 0.11 4
  169.7473 0.18 6
  170.0509 3.67 121
  170.4668 0.04 1
  171.0343 7.63 253
  171.2854 0.19 6
  171.4767 0.03 1
  171.5877 0.05 2
  171.7599 0.04 1
  172.0603 1.59 53
  172.2783 0.26 9
  172.4329 0.19 6
  172.5133 0.05 2
  173.0291 4.61 153
  173.3434 0.05 2
  173.6107 0.13 4
  173.8139 0.05 2
  174.0621 0.70 23
  174.4387 0.07 2
  174.5411 0.10 3
  174.6393 0.05 2
  175.0358 2.43 80
  175.3738 0.19 6
  175.5151 0.22 7
  175.7357 0.20 7
  176.0287 1.33 44
  176.3374 0.14 5
  176.6962 0.24 8
  177.0516 1.44 48
  177.3968 0.41 14
  177.5869 0.23 8
  177.9932 5.42 179
  178.3776 0.09 3
  178.5815 0.12 4
  179.0107 9.28 307
  179.4604 0.13 4
  179.6398 0.26 9
  180.0090 4.20 139
  180.3741 0.20 7
  180.4481 0.09 3
  180.5831 0.11 4
  181.0231 11.03 365
  181.3069 0.27 9
  181.3926 0.12 4
  181.5448 0.16 5
  182.0050 4.00 132
  182.3713 0.24 8
  182.5277 0.12 4
  182.6663 0.26 9
  183.0348 8.94 296
  183.2826 0.30 10
  183.6053 0.25 8
  184.0482 1.77 59
  184.3752 0.19 6
  184.5469 0.08 3
  184.6706 0.26 9
  185.0389 4.19 139
  185.4603 0.09 3
  185.6404 0.07 2
  186.0172 0.79 26
  186.2152 0.14 5
  186.4161 0.11 4
  186.6589 0.05 2
  187.0098 1.51 50
  187.4909 0.28 9
  187.6113 0.28 9
  187.8977 0.63 21
  188.0981 0.69 23
  188.3488 0.08 3
  188.4776 0.11 4
  188.6022 0.18 6
  188.9859 3.56 118
  189.3890 0.16 5
  189.6151 0.11 4
  190.0101 1.77 59
  190.2396 0.26 9
  190.3486 0.23 8
  190.5458 0.26 9
  191.0072 6.50 215
  191.4088 0.22 7
  192.0009 3.65 121
  192.3978 0.16 5
  192.9992 8.36 277
  193.3992 0.22 7
  193.5636 0.06 2
  193.7024 0.12 4
  194.0168 3.85 127
  194.2594 0.28 9
  195.0095 9.10 301
  195.4507 0.22 7
  195.6174 0.35 12
  196.0290 2.44 81
  196.4234 0.20 7
  196.5597 0.31 10
  197.0318 6.39 212
  197.5926 0.18 6
  198.0407 1.90 63
  198.2492 0.26 9
  198.7612 0.18 6
  199.0467 2.06 68
  199.3759 0.05 2
  199.7516 0.23 8
  200.0144 0.76 25
  200.1823 0.28 9
  200.4194 0.05 2
  200.5873 0.15 5
  201.0236 2.29 76
  201.3518 0.13 4
  201.5427 0.12 4
  201.9848 3.13 104
  202.2875 0.26 9
  202.4117 0.18 6
  202.9999 4.31 143
  203.3430 0.12 4
  203.4417 0.10 3
  203.9920 2.43 80
  204.2887 0.20 7
  204.3520 0.09 3
  204.5389 0.14 5
  205.0124 4.89 162
  205.4685 0.38 13
  206.0110 4.57 151
  206.2204 0.25 8
  206.4702 0.17 6
  206.6254 0.20 7
  207.0186 7.05 233
  207.3708 0.25 8
  207.5629 0.09 3
  208.0260 3.08 102
  208.2676 0.28 9
  208.4139 0.10 3
  208.6110 0.19 6
  209.0380 6.92 229
  209.5104 0.27 9
  210.0109 1.13 37
  210.4096 0.10 3
  210.5979 0.09 3
  211.0351 2.63 87
  211.3455 0.33 11
  211.4571 0.10 3
  211.7270 0.11 4
  212.0159 1.03 34
  212.3124 0.02 1
  212.4771 0.15 5
  212.6237 0.10 3
  213.0439 1.53 51
  213.3490 0.18 6
  213.6234 0.07 2
  213.8231 0.33 11
  214.0096 0.63 21
  214.2261 0.24 8
  214.4727 0.14 5
  214.6515 0.29 10
  215.0169 3.98 132
  215.3433 0.11 4
  215.9828 2.40 79
  216.2086 0.18 6
  216.4659 0.30 10
  217.0177 3.84 127
  217.4584 0.05 2
  218.0111 2.51 83
  218.3722 0.21 7
  219.0336 5.80 192
  219.5384 0.16 5
  220.0391 2.88 95
  220.3270 0.22 7
  220.4958 0.07 2
  220.6359 0.33 11
  221.0493 7.05 233
  221.2981 0.48 16
  221.4053 0.20 7
  222.0312 1.60 53
  222.5437 0.10 3
  223.0689 3.12 103
  223.4940 0.29 10
  223.6616 0.23 8
  223.8545 0.34 11
  224.0952 1.14 38
  224.2369 0.34 11
  224.4860 0.21 7
  225.0517 2.60 86
  225.4736 0.17 6
  225.6260 0.12 4
  226.0318 1.18 39
  226.2418 0.21 7
  226.3359 0.10 3
  226.6239 0.13 4
  227.0460 1.61 53
  227.9996 1.35 45
  228.4374 0.14 5
  229.0456 3.45 114
  229.3971 0.08 3
  229.5575 0.08 3
  230.0667 2.55 84
  230.2988 0.18 6
  231.0566 4.70 156
  231.3620 0.11 4
  231.5415 0.21 7
  231.6611 0.13 4
  232.0793 1.48 49
  232.2954 0.19 6
  232.4552 0.08 3
  233.0767 6.88 228
  233.4238 0.12 4
  233.5179 0.05 2
  233.7863 0.26 9
  234.1314 1.70 56
  234.5271 0.11 4
  234.6367 0.12 4
  235.0839 3.88 128
  235.4678 0.29 10
  235.6654 0.15 5
  235.7870 0.18 6
  235.9024 0.18 6
  236.1380 0.80 26
  236.4981 0.03 1
  237.0708 1.71 57
  237.4360 0.25 8
  237.6338 0.08 3
  238.0589 0.54 18
  238.3693 0.21 7
  238.5038 0.14 5
  239.0551 1.63 54
  239.3396 0.18 6
  239.7987 0.34 11
  240.0889 0.55 18
  240.2418 0.30 10
  240.4081 0.26 9
  240.5750 0.15 5
  240.6737 0.22 7
  241.0591 1.88 62
  241.5031 0.09 3
  241.8132 0.41 14
  242.0691 1.04 34
  242.2813 0.30 10
  242.6719 0.15 5
  243.0640 3.82 126
  243.3736 0.10 3
  243.8215 0.34 11
  244.0811 2.08 69
  244.2631 0.14 5
  244.3929 0.09 3
  244.5009 0.10 3
  245.0724 3.94 130
  245.4451 0.19 6
  245.5580 0.12 4
  245.6723 0.20 7
  246.0797 2.36 78
  246.4200 0.15 5
  246.5774 0.19 6
  247.1014 5.23 173
  247.5082 0.22 7
  248.0493 1.06 35
  248.3545 0.19 6
  248.6562 0.16 5
  249.1092 3.30 109
  249.3756 0.13 4
  249.5269 0.10 3
  250.0422 1.03 34
  250.3788 0.17 6
  250.5852 0.11 4
  250.7252 0.06 2
  251.1078 1.76 58
  251.5024 0.17 6
  251.9707 0.88 29
  252.3202 0.13 4
  252.6386 0.14 5
  253.0964 1.71 57
  253.4991 0.02 1
  254.0739 0.99 33
  254.3585 0.03 1
  254.5787 0.05 2
  255.0864 2.16 71
  255.3116 0.24 8
  255.5538 0.06 2
  255.7203 0.35 12
  256.0468 0.78 26
  256.3535 0.10 3
  256.5718 0.18 6
  256.7744 0.26 9
  257.0940 3.33 110
  257.3973 0.18 6
  257.5482 0.08 3
  258.0742 1.59 53
  258.3584 0.11 4
  258.5378 0.10 3
  258.6094 0.06 2
  259.1191 3.16 105
  259.4783 0.20 7
  259.6633 0.24 8
  260.0602 0.85 28
  260.4911 0.15 5
  260.6378 0.13 4
  261.0944 3.32 110
  261.6234 0.39 13
  262.0070 0.88 29
  262.1694 0.66 22
  262.5921 0.09 3
  263.1419 1.57 52
  263.5250 0.07 2
  263.7883 0.17 6
  264.0927 1.06 35
  264.3340 0.15 5
  264.6115 0.14 5
  265.0629 1.32 44
  265.4860 0.11 4
  265.6685 0.18 6
  266.1144 1.10 36
  266.3615 0.21 7
  266.4971 0.04 1
  267.1094 2.20 73
  267.4816 0.21 7
  267.7409 0.14 5
  268.1060 0.82 27
  268.2645 0.33 11
  268.3831 0.12 4
  268.6013 0.14 5
  269.1144 1.91 63
  269.2899 0.68 23
  269.6773 0.14 5
  270.0897 1.36 45
  270.4309 0.15 5
  270.5596 0.12 4
  271.0716 1.66 55
  271.5516 0.06 2
  271.8020 0.25 8
  272.1128 0.97 32
  272.3184 0.13 4
  272.5090 0.31 10
  273.0882 2.45 81
  273.3984 0.10 3
  273.7108 0.25 8
  274.0795 0.89 29
  274.2162 0.72 24
  274.3998 0.08 3
  275.1202 2.13 71
  275.5054 0.09 3
  275.8151 0.19 6
  276.1235 0.94 31
  276.2801 0.42 14
  276.4867 0.22 7
  277.0857 1.32 44
  277.5058 0.12 4
  277.6417 0.11 4
  277.7455 0.19 6
  277.8651 0.15 5
  278.1183 0.37 12
  278.3019 0.33 11
  278.4834 0.12 4
  278.6079 0.16 5
  279.1061 1.46 48
  279.2335 0.71 24
  279.4157 0.10 3
  279.5887 0.10 3
  279.8976 0.11 4
  280.1254 0.52 17
  280.2607 0.27 9
  281.0995 2.37 78
  282.0980 1.04 34
  282.3252 0.25 8
  282.5489 0.24 8
  282.6907 0.12 4
  283.1452 2.56 85
  283.6340 0.48 16
  284.0481 0.83 27
  284.2797 0.57 19
  284.4208 0.14 5
  284.6182 0.12 4
  285.1136 2.29 76
  285.4159 0.14 5
  285.5357 0.07 2
  285.6840 0.19 6
  286.0768 0.96 32
  286.4227 0.19 6
  286.5353 0.10 3
  286.6416 0.10 3
  286.8399 0.16 5
  287.1551 1.69 56
  287.5360 0.18 6
  287.7357 0.08 3
  287.9091 0.29 10
  288.1702 0.49 16
  288.4534 0.04 1
  288.5626 0.07 2
  289.1113 1.05 35
  289.5773 0.08 3
  289.9184 0.21 7
  290.0940 0.55 18
  290.2603 0.23 8
  290.6272 0.54 18
  290.8250 0.35 12
  291.1748 1.31 43
  291.5254 0.11 4
  291.6510 0.14 5
  292.0816 0.53 18
  292.7008 0.08 3
  293.1108 2.10 70
  293.2672 0.66 22
  293.6830 0.24 8
  293.8380 0.17 6
  294.1205 1.34 44
  294.4522 0.11 4
  295.1364 1.80 60
  295.3019 0.47 16
  295.4539 0.03 1
  296.1382 0.78 26
  296.6813 0.27 9
  297.0932 1.01 33
  297.3016 0.26 9
  297.6500 0.08 3
  298.1147 0.99 33
  298.2397 0.44 15
  298.7324 0.20 7
  299.1594 1.76 58
  299.3722 0.43 14
  299.5036 0.30 10
  299.7357 0.21 7
  300.0807 0.68 23
  300.1972 0.40 13
  300.3607 0.10 3
  300.6551 0.16 5
  301.1223 1.46 48
  301.5124 0.06 2
  301.7718 0.14 5
  301.9419 0.26 9
  302.2048 0.30 10
  302.4700 0.12 4
  303.1168 0.83 27
  303.5228 0.15 5
  303.6923 0.10 3
  303.8045 0.11 4
  304.0125 0.17 6
  304.2449 0.13 4
  304.5545 0.10 3
  305.0922 0.78 26
  305.2660 0.40 13
  305.4805 0.06 2
  306.1815 0.45 15
  306.4304 0.04 1
  306.6865 0.17 6
  307.1393 1.20 40
  307.4992 0.20 7
  307.7267 0.05 2
  307.8863 0.20 7
  308.0466 0.30 10
  308.1868 0.31 10
  308.3929 0.11 4
  308.7422 0.19 6
  308.9411 0.33 11
  309.1365 0.84 28
  309.2947 0.38 13
  309.6655 0.09 3
  309.7872 0.13 4
  310.0449 0.49 16
  310.3978 0.11 4
  310.6226 0.15 5
  311.0300 0.65 22
  311.1983 0.59 20
  311.3214 0.30 10
  311.5750 0.07 2
  312.1371 0.68 23
  312.3921 0.09 3
  312.5203 0.10 3
  312.7975 0.14 5
  313.1392 0.83 27
  313.3090 0.58 19
  313.4458 0.03 1
  313.6199 0.10 3
  313.7911 0.14 5
  313.9788 0.25 8
  314.1651 0.16 5
  314.3170 0.19 6
  314.6409 0.12 4
  314.9240 0.39 13
  315.1826 0.84 28
  315.3769 0.35 12
  315.8191 0.04 1
  315.9431 0.08 3
  316.1775 0.30 10
  316.3230 0.13 4
  316.7316 0.23 8
  317.0764 0.53 18
  317.3818 0.12 4
  317.7382 0.16 5
  317.9913 0.17 6
  318.2380 0.28 9
  318.5671 0.13 4
  319.1007 0.79 26
  319.5132 0.13 4
  319.8302 0.08 3
  320.1258 0.34 11
  320.5691 0.14 5
  320.6638 0.07 2
  321.1137 0.52 17
  321.6999 0.10 3
  321.8148 0.16 5
  322.1441 0.27 9
  322.6630 0.20 7
  323.0872 0.60 20
  323.4720 0.20 7
  323.7433 0.16 5
  323.9084 0.18 6
  324.0973 0.25 8
  324.3184 0.12 4
  324.7751 0.12 4
  325.1649 1.01 33
  325.6016 0.07 2
  325.7603 0.01 0
  325.9018 0.10 3
  326.1309 0.13 4
  326.3384 0.15 5
  326.7600 0.10 3
  326.8786 0.16 5
  327.1918 0.65 22
  327.4583 0.10 3
  327.8850 0.16 5
  327.9878 0.21 7
  328.2278 0.26 9
  328.4915 0.14 5
  328.6064 0.15 5
  328.8967 0.19 6
  329.2151 0.69 23
  329.8015 0.09 3
  330.1875 0.40 13
  330.9012 0.30 10
  331.1629 0.75 25
  332.0278 0.34 11
  332.1659 0.16 5
  332.2924 0.11 4
  333.1755 1.35 45
  333.6739 0.10 3
  333.8501 0.06 2
  334.1162 0.94 31
  334.2788 0.50 17
  334.8413 0.16 5
  335.1693 0.46 15
  335.4456 0.26 9
  335.6118 0.21 7
  335.7226 0.11 4
  335.8989 0.12 4
  336.1622 0.29 10
  336.3400 0.13 4
  336.4278 0.09 3
  336.9373 0.12 4
  337.1646 0.50 17
  337.4749 0.12 4
  337.6850 0.16 5
  337.8419 0.01 0
  338.0895 0.14 5
  338.3247 0.10 3
  338.4490 0.13 4
  338.6086 0.04 1
  339.1591 0.41 14
  339.6371 0.10 3
  339.9174 0.05 2
  340.2553 0.31 10
  341.1590 0.54 18
  341.4423 0.13 4
  341.5833 0.17 6
  341.9665 0.05 2
  342.0931 0.11 4
  342.3527 0.09 3
  342.9518 0.04 1
  343.1546 0.42 14
  343.4071 0.26 9
  343.5272 0.11 4
  343.9530 0.21 7
  344.2350 0.13 4
  344.4005 0.11 4
  344.5746 0.04 1
  345.1825 1.18 39
  345.8258 0.13 4
  346.1582 0.39 13
  346.3907 0.10 3
  346.5375 0.15 5
  346.8052 0.10 3
  347.2263 1.29 43
  347.8388 0.02 1
  348.0943 0.43 14
  348.2239 0.48 16
  348.4571 0.21 7
  348.6688 0.16 5
  349.2217 2.50 83
  349.4478 0.48 16
  349.6487 0.09 3
  349.9396 0.13 4
  350.2240 0.32 11
  350.3493 0.06 2
  350.8448 0.11 4
  350.9744 0.21 7
  351.2164 0.31 10
  351.5808 0.12 4
  352.0267 0.19 6
  352.2154 0.42 14
  352.3515 0.14 5
  352.7910 0.14 5
  352.9350 0.28 9
  353.2009 0.32 11
  353.7455 0.05 2
  354.2103 0.10 3
  354.3177 0.11 4
  354.5994 0.10 3
  354.7421 0.10 3
  355.1471 0.44 15
  356.2001 0.10 3
  356.6592 0.08 3
  357.1119 0.44 15
  357.3145 0.37 12
  357.4911 0.24 8
  358.1970 0.31 10
  358.2986 0.15 5
  358.4399 0.06 2
  358.5712 0.07 2
  358.8055 0.07 2
  359.2252 0.82 27
  359.5338 0.12 4
  359.9168 0.21 7
  360.0668 0.20 7
  360.2637 0.41 14
  360.7816 0.08 3
  361.1646 0.66 22
  361.3146 0.85 28
  361.4560 0.28 9
  361.8282 0.05 2
  362.2063 0.42 14
  362.3693 0.36 12
  362.4818 0.17 6
  363.0656 0.14 5
  363.1695 0.18 6
  363.2986 0.30 10
  363.3888 0.16 5
  364.1429 0.23 8
  364.4402 0.08 3
  364.6351 0.13 4
  365.0558 0.11 4
  365.1807 0.36 12
  365.3092 0.28 9
  365.5019 0.08 3
  366.1480 0.09 3
  366.6220 0.11 4
  367.0564 0.15 5
  367.2812 0.11 4
  367.4116 0.17 6
  368.1932 0.13 4
  368.4361 0.12 4
  369.0349 0.09 3
  369.2381 0.46 15
  369.3620 0.15 5
  369.5458 0.03 1
  370.2347 0.08 3
  370.4690 0.01 0
  370.8084 0.06 2
  371.1119 0.46 15
  371.3000 0.43 14
  371.4233 0.15 5
  371.5213 0.15 5
  372.1961 0.29 10
  372.3359 0.25 8
  372.6697 0.07 2
  372.8788 0.13 4
  373.2429 0.46 15
  373.5039 0.14 5
  374.2380 0.40 13
  374.5149 0.13 4
  375.2390 0.48 16
  375.3897 0.22 7
  376.0410 0.18 6
  376.1838 0.10 3
  376.3995 0.04 1
  376.8648 0.07 2
  377.1360 0.36 12
  377.4023 0.18 6
  377.9708 0.03 1
  378.1374 0.11 4
  378.8503 0.13 4
  379.0668 0.11 4
  379.3352 0.18 6
  379.5820 0.12 4
  380.2214 0.12 4
  380.3088 0.08 3
  381.1758 0.47 16
  381.5047 0.10 3
  381.6858 0.11 4
  381.9173 0.02 1
  382.1150 0.06 2
  382.2953 0.20 7
  382.7758 0.06 2
  382.9735 0.11 4
  383.1538 0.63 21
  383.3407 0.43 14
  384.0536 0.09 3
  384.2982 0.32 11
  384.6749 0.11 4
  385.2154 0.29 10
  385.4276 0.21 7
  385.9307 0.14 5
  386.2107 0.36 12
  386.3883 0.40 13
  387.0899 0.19 6
  387.2220 0.29 10
  387.3447 0.11 4
  387.5562 0.14 5
  387.8760 0.11 4
  388.3143 0.11 4
  388.5099 0.10 3
  389.1468 0.11 4
  389.2435 0.11 4
  389.3706 0.08 3
  389.5020 0.14 5
  390.3505 0.14 5
  390.5332 0.10 3
  391.4013 0.12 4
  391.7993 0.10 3
  392.1121 0.10 3
  392.2399 0.04 1
  392.7528 0.01 0
  393.0114 0.10 3
  393.1971 0.12 4
  393.3177 0.10 3
  393.8119 0.11 4
  394.0619 0.22 7
  394.3299 0.35 12
  394.8899 0.15 5
  395.1399 0.19 6
  395.2447 0.11 4
  395.3769 0.12 4
  395.6558 0.11 4
  396.1667 0.18 6
  396.2860 0.20 7
  396.3742 0.15 5
  396.9820 0.22 7
  397.2632 0.38 13
  397.8139 0.12 4
  398.0676 0.22 7
  398.1746 0.13 4
  398.3401 0.35 12
  398.8881 0.10 3
  399.2554 1.06 35
  399.3862 0.41 14
  399.5012 0.11 4
  399.6487 0.25 8
  399.9169 0.03 1
  400.3109 0.52 17
  400.4678 0.23 8
  400.7368 0.10 3
  401.2206 0.54 18
  401.4397 0.19 6
  401.6053 0.04 1
  401.7499 0.12 4
  402.0052 0.10 3
  402.2583 0.33 11
  402.4044 0.11 4
  403.0308 0.20 7
  403.1956 0.19 6
  403.3613 0.07 2
  403.5291 0.05 2
  404.0304 0.12 4
  404.5903 0.10 3
  405.0388 0.10 3
  405.3217 0.14 5
  406.0987 0.12 4
  406.4786 0.11 4
  407.1754 0.14 5
  407.3918 0.14 5
  407.9844 0.04 1
  408.1140 0.12 4
  408.9687 0.10 3
  409.2380 0.15 5
  409.3379 0.11 4
  409.4305 0.11 4
  409.6426 0.04 1
  409.7642 0.11 4
  409.9835 0.19 6
  410.1681 0.24 8
  410.3324 0.09 3
  410.5025 0.10 3
  410.6509 0.24 8
  411.1019 0.40 13
  411.3025 0.25 8
  411.4494 0.34 11
  411.5819 0.15 5
  412.0706 0.09 3
  412.3429 0.28 9
  412.5898 0.11 4
  412.7114 0.12 4
  412.8939 0.21 7
  413.0589 0.31 10
  413.3011 0.79 26
  413.4991 0.18 6
  414.2865 0.78 26
  414.5359 0.33 11
  414.7557 0.12 4
  415.2177 0.39 13
  415.3653 0.18 6
  415.5670 0.12 4
  415.9199 0.14 5
  416.3567 0.09 3
  416.6532 0.03 1
  417.1797 0.14 5
  417.3807 0.05 2
  418.0570 0.11 4
  419.0364 0.09 3
  419.1463 0.13 4
  419.2924 0.22 7
  419.5153 0.12 4
  420.2040 0.25 8
  420.3559 0.10 3
  420.4615 0.11 4
  421.1677 0.13 4
  421.3855 0.11 4
  422.3088 0.11 4
  423.0483 0.14 5
  423.2951 0.05 2
  423.4500 0.13 4
  423.5767 0.05 2
  424.0587 0.20 7
  424.2664 0.11 4
  424.6971 0.10 3
  425.3116 0.47 16
  425.4636 0.03 1
  425.7929 0.16 5
  426.0869 0.38 13
  426.3308 0.55 18
  426.5067 0.29 10
  426.7521 0.14 5
  426.8607 0.10 3
  427.2444 0.41 14
  427.4689 0.40 13
  427.6723 0.09 3
  428.3167 0.48 16
  428.6288 0.19 6
  429.1958 0.37 12
  429.4710 0.13 4
  430.1119 0.13 4
  430.5211 0.17 6
  431.2029 0.06 2
  431.4704 0.08 3
  432.0459 0.26 9
  432.3561 0.20 7
  432.4747 0.02 1
  433.4329 0.10 3
  434.1264 0.12 4
  434.3687 0.11 4
  434.6891 0.14 5
  434.8605 0.11 4
  435.2142 0.13 4
  435.3632 0.22 7
  435.5592 0.19 6
  436.2602 0.15 5
  436.4953 0.14 5
  437.1413 0.17 6
  437.3011 0.14 5
  437.5045 0.27 9
  437.6151 0.12 4
  437.9610 0.10 3
  438.2561 0.10 3
  438.6968 0.12 4
  438.9052 0.07 2
  439.1063 0.17 6
  439.3654 0.42 14
  439.7156 0.17 6
  439.9522 0.11 4
  440.2728 0.11 4
  440.4660 0.08 3
  440.6252 0.16 5
  440.8097 0.13 4
  441.2997 0.96 32
  441.6152 0.21 7
  441.8367 0.13 4
  442.0408 0.14 5
  442.3108 0.11 4
  443.0476 0.18 6
  443.8460 0.10 3
  444.0437 0.12 4
  444.3998 0.32 11
  445.0109 0.20 7
  445.2701 0.12 4
  445.5147 0.03 1
  445.8065 0.14 5
  446.2381 0.52 17
  447.2163 1.72 57
  447.8231 0.10 3
  448.1599 0.10 3
  448.3568 0.23 8
  448.9297 0.13 4
  449.1629 0.13 4
  449.3193 0.17 6
  449.8220 0.08 3
  450.2066 0.15 5
  450.3145 0.09 3
  450.4130 0.12 4
  451.0541 0.06 2
  451.3257 0.10 3
  452.1103 0.11 4
  452.3290 0.22 7
  453.1021 0.16 5
  453.2810 0.20 7
  453.7722 0.04 1
  454.0563 0.20 7
  454.2700 0.06 2
  454.4207 0.22 7
  454.5200 0.12 4
  454.8975 0.14 5
  455.2758 0.30 10
  455.4214 0.15 5
  455.5895 0.08 3
  455.7156 0.05 2
  455.8482 0.07 2
  456.0606 0.20 7
  456.2360 0.45 15
  456.3534 0.21 7
  456.5773 0.19 6
  456.9839 0.10 3
  457.3064 0.82 27
  457.5021 0.45 15
  458.1319 0.11 4
  458.3842 0.14 5
  458.5509 0.13 4
  458.8082 0.08 3
  458.9075 0.11 4
  459.1525 0.12 4
  459.2866 0.16 5
  459.3693 0.10 3
  460.0347 0.17 6
  460.3987 0.13 4
  460.5777 0.14 5
  460.7343 0.04 1
  460.9823 0.05 2
  461.1331 0.11 4
  461.2875 0.09 3
  461.4398 0.28 9
  462.2061 0.15 5
  462.3932 0.20 7
  462.4838 0.11 4
  462.6753 0.09 3
  462.9675 0.01 0
  463.3859 0.14 5
  463.7035 0.12 4
  464.3351 0.13 4
  464.6506 0.15 5
  464.8631 0.04 1
  465.0429 0.12 4
  465.2373 0.11 4
  465.4186 0.30 10
  465.5797 0.11 4
  466.2684 0.04 1
  466.4320 0.11 4
  466.7968 0.04 1
  467.0907 0.22 7
  467.3028 0.18 6
  467.6538 0.10 3
  469.0590 0.21 7
  469.1748 0.14 5
  469.2971 0.21 7
  469.7902 0.20 7
  470.1522 0.21 7
  470.5156 0.14 5
  470.6481 0.12 4
  470.9327 0.11 4
  471.0898 0.22 7
  471.3215 0.21 7
  471.7552 0.12 4
  472.0188 0.10 3
  472.1340 0.21 7
  472.3121 0.31 10
  472.5098 0.17 6
  472.8016 0.35 12
  473.1195 0.34 11
  473.3325 0.44 15
  473.6352 0.38 13
  473.8488 0.25 8
  474.0444 0.13 4
  474.3319 0.12 4
  474.4644 0.13 4
  474.7505 0.11 4
  475.2959 0.11 4
  475.4060 0.10 3
  475.8464 0.11 4
  476.0449 0.13 4
  476.1869 0.15 5
  476.7106 0.11 4
  476.9902 0.12 4
  477.1735 0.12 4
  477.2807 0.12 4
  477.3778 0.10 3
  477.5574 0.12 4
  478.0848 0.12 4
  478.1645 0.05 2
  478.4384 0.20 7
  478.7912 0.18 6
  479.0136 0.12 4
  479.2332 0.21 7
  479.3882 0.20 7
  479.6288 0.13 4
  479.9077 0.03 1
  480.2976 0.12 4
  480.5208 0.16 5
  480.8620 0.10 3
  481.2946 0.25 8
  482.2708 0.08 3
  482.3708 0.14 5
  482.9499 0.11 4
  483.2130 0.18 6
  483.3905 0.05 2
  483.6630 0.26 9
  483.8109 0.10 3
  484.0182 0.12 4
  484.1754 0.14 5
  484.3951 0.22 7
  484.7850 0.20 7
  484.9518 0.28 9
  485.1620 0.27 9
  485.3395 0.25 8
  485.5570 0.06 2
  486.2725 0.30 10
  486.5262 0.13 4
  486.7096 0.11 4
  486.9735 0.18 6
  487.1272 0.25 8
  487.3636 0.29 10
  487.6238 0.22 7
  488.2908 0.25 8
  488.4532 0.34 11
  489.1913 0.07 2
  489.2936 0.14 5
  489.4430 0.13 4
  489.5800 0.01 0
  489.8389 0.09 3
  489.9571 0.02 1
  490.1978 0.19 6
  490.5089 0.10 3
  491.3036 0.17 6
  491.4066 0.21 7
  491.5995 0.11 4
  491.6888 0.09 3
  491.9244 0.15 5
  492.4662 0.14 5
  492.6823 0.04 1
  493.0399 0.25 8
  493.3967 0.21 7
  494.1834 0.11 4
  494.3138 0.15 5
  494.7072 0.01 0
  494.9607 0.20 7
  495.0803 0.17 6
  495.3099 0.35 12
  495.4961 0.24 8
  495.9359 0.14 5
  496.2416 0.10 3
  496.4973 0.22 7
  496.6220 0.10 3
  496.9299 0.11 4
  497.3422 0.21 7
  497.4617 0.09 3
  497.6660 0.13 4
  497.8407 0.06 2
  497.9595 0.16 5
  498.3493 1.08 36
  498.5812 0.33 11
  498.8827 0.25 8
  499.0841 0.42 14
  499.2964 0.37 12
  499.4790 0.12 4
  500.2603 0.52 17
  500.4146 0.22 7
  500.8589 0.13 4
  501.3271 0.15 5
  501.4169 0.14 5
  501.5206 0.07 2
  502.1866 0.38 13
  502.2888 0.12 4
  502.4164 0.41 14
  502.5382 0.16 5
  503.4928 0.24 8
  503.8023 0.14 5
  504.1242 0.03 1
  504.3996 0.13 4
  504.6613 0.02 1
  504.7969 0.04 1
  505.5131 0.11 4
  505.6820 0.12 4
  505.7843 0.11 4
  506.0076 0.05 2
  506.1787 0.10 3
  506.3150 0.06 2
  506.5187 0.17 6
  506.7297 0.11 4
  507.0596 0.12 4
  507.3518 0.31 10
  507.5802 0.21 7
  507.7970 0.14 5
  507.9130 0.06 2
  508.3930 1.17 39
  508.6308 0.40 13
  509.2080 0.23 8
  509.5140 0.12 4
  510.0275 0.18 6
  510.1689 0.11 4
  510.8926 0.12 4
  511.2792 0.22 7
  511.4257 0.17 6
  512.3947 0.15 5
  512.5796 0.09 3
  512.8618 0.18 6
  513.2448 0.20 7
  513.3484 0.15 5
  513.4797 0.26 9
  513.8424 0.17 6
  514.0912 0.28 9
  514.1985 0.16 5
  514.3582 0.10 3
  514.4728 0.03 1
  515.2098 0.06 2
  515.3846 0.16 5
  515.5152 0.13 4
  516.0861 0.19 6
  517.0895 0.07 2
  517.3623 0.11 4
  517.4551 0.14 5
  518.8011 0.13 4
  518.9084 0.10 3
  519.3990 0.11 4
  520.3401 0.45 15
  520.5564 0.47 16
  520.7495 0.14 5
  520.8793 0.15 5
  521.1141 0.10 3
  521.2321 0.11 4
  521.5015 0.18 6
  521.9779 0.12 4
  522.2675 0.06 2
  523.2357 0.03 1
  523.4739 0.12 4
  523.6224 0.08 3
  523.7861 0.15 5
  524.3654 0.12 4
  524.5190 0.11 4
  524.6609 0.13 4
  524.9955 0.09 3
  525.2374 0.23 8
  525.3272 0.22 7
  525.5018 0.07 2
  526.0580 0.11 4
  526.2659 0.23 8
  526.5570 0.26 9
  526.7026 0.14 5
  527.1430 0.14 5
  527.2864 0.11 4
  527.4725 0.26 9
  527.5725 0.12 4
  527.8753 0.04 1
  528.0375 0.21 7
  528.2266 0.16 5
  528.3896 0.11 4
  528.6062 0.06 2
  528.7431 0.09 3
  528.8822 0.11 4
  528.9938 0.16 5
  529.1227 0.05 2
  529.2676 0.12 4
  529.5660 0.13 4
  529.7399 0.11 4
  529.9283 0.14 5
  530.0290 0.11 4
  530.9084 0.19 6
  531.1751 0.09 3
  531.7330 0.13 4
  532.2430 0.13 4
  532.4626 0.05 2
  532.5916 0.11 4
  533.0328 0.12 4
  533.3336 0.07 2
  533.7495 0.09 3
  534.0197 0.11 4
  534.1487 0.02 1
  534.4139 0.13 4
  534.5270 0.10 3
  534.6763 0.15 5
  534.9379 0.08 3
  535.1495 0.15 5
  535.5560 0.12 4
  535.6495 0.06 2
  535.9923 0.08 3
  536.3786 0.05 2
  536.4800 0.02 1
  536.7308 0.11 4
  537.0453 0.01 0
  537.3454 0.19 6
  537.4708 0.11 4
  537.6223 0.12 4
  537.7237 0.07 2
  537.9636 0.06 2
  538.2021 0.12 4
  538.4348 0.24 8
  538.9762 0.20 7
  539.1574 0.12 4
  539.2973 0.27 9
  539.4756 0.12 4
  539.8533 0.12 4
  539.9801 0.18 6
  540.0743 0.09 3
  540.3969 0.29 10
  540.6485 0.12 4
  541.0247 0.30 10
  541.4611 0.54 18
  541.8410 0.13 4
  542.0918 0.26 9
  542.2513 0.37 12
  542.3340 0.18 6
  542.5377 0.37 12
  543.2098 0.39 13
  543.4200 0.16 5
  543.5534 0.18 6
  543.6774 0.02 1
  543.9109 0.13 4
  544.2125 0.12 4
  544.4329 0.15 5
  544.5315 0.11 4
  544.6221 0.11 4
  544.8056 0.15 5
  545.0782 0.20 7
  545.2646 0.13 4
  545.6307 0.09 3
  545.9636 0.13 4
  546.4893 0.10 3
  546.8207 0.12 4
  547.2384 0.13 4
  547.7758 0.07 2
  548.1166 0.11 4
  548.7004 0.12 4
  548.9042 0.08 3
  549.0790 0.14 5
  549.2480 0.32 11
  549.4946 0.44 15
  550.2184 0.12 4
  550.4462 0.08 3
  550.7515 0.10 3
  550.9445 0.15 5
  551.2258 0.11 4
  551.3593 0.17 6
  551.4863 0.12 4
  551.7858 0.14 5
  552.3371 0.22 7
  552.4684 0.08 3
  552.6019 0.12 4
  552.7912 0.06 2
  553.1053 0.14 5
  553.2359 0.14 5
  553.3998 0.33 11
  553.5601 0.30 10
  553.8315 0.11 4
  554.0593 0.21 7
  554.4416 0.16 5
  554.6063 0.24 8
  554.7397 0.11 4
  555.0510 0.19 6
  555.2004 0.05 2
  555.3194 0.11 4
  555.5537 0.22 7
  555.8367 0.24 8
  556.1174 0.26 9
  556.3010 0.35 12
  556.4541 0.37 12
  556.8162 0.28 9
  557.0868 0.33 11
  557.2515 0.25 8
  557.5178 0.21 7
  557.6861 0.12 4
  557.8225 0.14 5
  558.1592 0.17 6
  558.2862 0.13 4
  558.5997 0.24 8
  559.0517 0.25 8
  559.1714 0.13 4
  559.3035 0.48 16
  559.5713 0.20 7
  559.9022 0.16 5
  560.3754 0.33 11
  560.5212 0.26 9
  560.8528 0.14 5
  560.9356 0.11 4
  561.1257 0.21 7
  561.4327 0.23 8
  561.6874 0.24 8
  561.9269 0.29 10
  562.0648 0.24 8
  562.2753 0.27 9
  562.4633 0.29 10
  562.5518 0.13 4
  562.7507 0.23 8
  562.8871 0.33 11
  563.0446 0.19 6
  563.2812 0.28 9
  563.5571 0.38 13
  563.9526 0.29 10
  564.1108 0.38 13
  564.5224 0.73 24
  564.6298 0.30 10
  564.8389 0.22 7
  565.0798 0.37 12
  565.3528 0.16 5
  565.6278 0.66 22
  565.7292 0.20 7
  565.8624 0.23 8
  566.1449 0.11 4
  566.3817 0.35 12
  566.5316 0.42 14
  566.7489 0.22 7
  567.4341 1.47 49
  567.8390 0.17 6
  568.0548 0.15 5
  568.2228 0.28 9
  568.4177 0.21 7
  568.7161 0.16 5
  568.9291 0.28 9
  569.2210 0.25 8
  569.3680 0.28 9
  569.4825 0.20 7
  569.6042 0.26 9
  569.8773 0.25 8
  570.1156 0.12 4
  570.3633 0.36 12
  570.6046 0.28 9
  570.7640 0.11 4
  570.8878 0.09 3
  571.0697 0.30 10
  571.2645 0.23 8
  571.4565 0.30 10
  571.6934 0.31 10
  571.9658 0.24 8
  572.3114 0.49 16
  572.5352 0.47 16
  572.8257 0.46 15
  573.0475 0.28 9
  573.2525 0.48 16
  573.3996 0.38 13
  573.5350 0.23 8
  573.6793 0.42 14
  573.8807 0.57 19
  574.2357 0.47 16
  574.4632 0.63 21
  574.6689 0.70 23
  574.9001 0.51 17
  575.1131 0.68 23
  575.5095 0.85 28
  575.8399 0.70 23
  576.2036 1.02 34
  576.4014 0.79 26
  576.7355 1.04 34
  576.9899 0.71 24
  577.3036 0.79 26
  577.5333 1.11 37
  577.7826 1.25 41
  578.4508 1.32 44
  579.3502 1.48 49
  581.4838 3.46 115
  582.5073 21.22 702
  583.4960 1.71 57
  583.7830 1.55 51
  584.4478 2.24 74
  585.4670 11.98 397
  585.9766 1.27 42
  586.2231 1.12 37
  586.7103 0.96 32
  587.0322 0.75 25
  587.2845 0.58 19
  587.6093 0.38 13
  587.8528 0.62 21
  588.0646 0.62 21
  588.2900 0.33 11
  588.8186 0.69 23
  589.1108 1.11 37
  589.4320 0.53 18
  589.6227 0.84 28
  590.2177 0.91 30
  590.6385 0.72 24
  590.9472 0.73 24
  591.3058 0.59 20
  591.5666 0.90 30
  591.8766 0.72 24
  592.3954 0.88 29
  592.6758 1.03 34
  592.9149 1.14 38
  593.3547 1.38 46
  593.7510 1.03 34
  593.9705 1.15 38
  595.6935 2.08 69
  600.4627 99.97 999
  601.2114 24.41 808
  602.0029 12.35 409
  602.7806 5.65 187
  604.0027 2.84 94
  604.6979 1.62 54
  605.0814 1.42 47
  605.7229 0.85 28
  606.1956 0.55 18
  606.6907 0.54 18
  606.8270 0.50 17
  607.0923 0.26 9
  607.3294 0.45 15
  607.4650 0.15 5
  607.6513 0.49 16
  607.8521 0.29 10
  608.0928 0.26 9
  608.2929 0.28 9
  608.4372 0.24 8
  608.6663 0.04 1
  608.7802 0.08 3
  608.9744 0.18 6
  609.2311 0.13 4
  609.4385 0.19 6
  609.9445 0.14 5
  610.3615 0.11 4
  610.5819 0.05 2
  611.0706 0.08 3
  611.2004 0.12 4
  611.3904 0.11 4
//
