ACCESSION: MSBNK-Kyoto_Univ-CA000073
RECORD_TITLE: 5,6-Dihydroxylutein; FAB-EBEB; MS2; m/z: 602.43; [M]+*
DATE: 2016.01.19 (Created 2010.04.01, modified 2011.05.10)
AUTHORS: Akimoto N, Graduate School of Pharmaceutical Sciences, Kyoto University and Maoka T, Research Institute for Production Development
LICENSE: CC BY-SA
PUBLICATION: Sanae Kishimoto, Takashi Maoka, Masayoshi Nakayama and Akemi Ohmiya, Carotenoid composition in petals of chrysanthemum (Dendranthema grandiflorm (Ramat.) Kitamura), Phytochemistry, 65, 2781-2787 (2004).
COMMENT: Profile spectrum of this record is given as a JPEG file.
COMMENT: [Profile] CA000073.jpg
CH$NAME: 5,6-Dihydroxylutein
CH$COMPOUND_CLASS: N/A
CH$FORMULA: C40H58O4
CH$EXACT_MASS: 602.43351
CH$SMILES: C(O)(C2)C=C(C)C(C2(C)C)C=CC(C)=CC=CC(=CC=CC=C(C=CC=C(C)C=CC(C(C)(O)1)(C(C)(C)CC(O)C1)O)C)C
CH$IUPAC: InChI=1S/C40H58O4/c1-29(17-13-19-31(3)21-22-36-33(5)25-34(41)26-37(36,6)7)15-11-12-16-30(2)18-14-20-32(4)23-24-40(44)38(8,9)27-35(42)28-39(40,10)43/h11-25,34-36,41-44H,26-28H2,1-10H3/b12-11+,17-13+,18-14+,22-21+,24-23+,29-15+,30-16+,31-19+,32-20+/t34-,35-,36-,39-,40+/m0/s1
CH$LINK: INCHIKEY FJRIGPREPNIRNO-VQFXDPJJSA-N
AC$INSTRUMENT: JMS-HX/HX 110A, JEOL
AC$INSTRUMENT_TYPE: FAB-EBEB
AC$MASS_SPECTROMETRY: MS_TYPE MS2
AC$MASS_SPECTROMETRY: ION_MODE POSITIVE
AC$MASS_SPECTROMETRY: ATOM_GUN_CURRENT 5 mA
AC$MASS_SPECTROMETRY: BOMBARDMENT 6 kV xenon
AC$MASS_SPECTROMETRY: COLLISION_ENERGY 3 kV
AC$MASS_SPECTROMETRY: COLLISION_GAS Ar
AC$MASS_SPECTROMETRY: GAS_PRESSURE adjust to attenuate the intensity of the precursor ion by 30 %
AC$MASS_SPECTROMETRY: IONIZATION FAB
AC$MASS_SPECTROMETRY: MATRIX 1-2 uL m-NBA
AC$MASS_SPECTROMETRY: PROBE_TIP stainless-steel
MS$FOCUSED_ION: BASE_PEAK 584.2432
MS$FOCUSED_ION: PRECURSOR_M/Z 602.43
MS$FOCUSED_ION: PRECURSOR_TYPE [M]+*
MS$DATA_PROCESSING: RELATIVE_M/Z normalised by peak(m/z=584.2432).  set 999 for peak(m/z=602.2354,rel=1627).
PK$SPLASH: splash10-0uec-2910011000-846f1dc728585f3ef201
PK$NUM_PEAK: 1675
PK$PEAK: m/z int. rel.int.
  0.1166 0.05 1
  0.6092 0.07 1
  2.2697 0.01 0
  2.7235 0.06 1
  8.4058 0.07 1
  11.9434 0.02 0
  12.9446 0.02 0
  13.9612 0.07 1
  14.9618 0.34 6
  15.4411 0.02 0
  17.9242 0.06 1
  18.9497 0.12 2
  20.3725 0.01 0
  21.9153 0.13 2
  22.8955 0.06 1
  25.9210 0.31 5
  26.9366 1.55 25
  27.0396 0.01 0
  27.1565 0.01 0
  27.9456 0.14 2
  28.9367 0.86 14
  29.9466 0.02 0
  30.9381 0.08 1
  35.7952 0.03 0
  36.9168 0.14 2
  37.9177 0.56 9
  38.2831 0.01 0
  38.9228 2.96 48
  39.3822 0.03 0
  39.5739 0.01 0
  39.9327 0.44 7
  40.2813 0.01 0
  40.9366 5.92 96
  41.8257 0.05 1
  41.9234 0.33 5
  42.6188 0.05 1
  42.9194 20.46 333
  43.9223 0.38 6
  44.9311 0.37 6
  45.1377 0.03 0
  46.8937 0.15 2
  48.8894 0.09 1
  49.1104 0.03 0
  49.2362 0.01 0
  49.9057 1.21 20
  50.9145 2.88 47
  51.3782 0.07 1
  51.9198 0.75 12
  52.4989 0.01 0
  52.9292 4.00 65
  53.1743 0.01 0
  53.9250 0.42 7
  54.4641 0.07 1
  54.9354 8.65 141
  55.6964 0.07 1
  55.9342 0.30 5
  56.9394 3.12 51
  57.9248 0.27 4
  58.9454 1.53 25
  59.9909 0.01 0
  60.9099 0.46 7
  61.8947 0.73 12
  62.5586 0.08 1
  62.7264 0.09 1
  62.9140 2.02 33
  63.4349 0.11 2
  63.7003 0.06 1
  63.9208 0.69 11
  64.3269 0.06 1
  64.5441 0.10 2
  64.9144 4.21 69
  65.5385 0.02 0
  65.9274 0.75 12
  66.9325 6.02 98
  67.9335 0.42 7
  68.9297 8.90 145
  69.4373 0.11 2
  69.8032 0.03 0
  69.9407 0.93 15
  70.9188 4.80 78
  71.9539 0.15 2
  72.9221 0.36 6
  73.6236 0.10 2
  73.8666 0.62 10
  74.1578 0.04 1
  74.3162 0.08 1
  74.5474 0.01 0
  74.8981 0.89 14
  75.0233 0.05 1
  75.1815 0.11 2
  75.3998 0.05 1
  75.4911 0.05 1
  75.8953 0.53 9
  76.0646 0.09 1
  76.2588 0.04 1
  76.5334 0.08 1
  76.9023 14.00 228
  77.1799 0.08 1
  77.2977 0.02 0
  77.5193 0.08 1
  77.9036 2.86 47
  78.0971 0.13 2
  78.1992 0.20 3
  78.2948 0.09 1
  78.5195 0.13 2
  78.6628 0.07 1
  78.9192 13.30 216
  79.1681 0.06 1
  79.6945 0.02 0
  79.9278 3.18 52
  80.4961 0.08 1
  80.6360 0.02 0
  80.9329 16.88 275
  81.1563 0.09 1
  81.3307 0.14 2
  81.5178 0.06 1
  81.9018 2.08 34
  82.4030 0.10 2
  82.6718 0.04 1
  82.9367 16.87 275
  83.9274 0.39 6
  84.9202 7.81 127
  85.2824 0.02 0
  85.8926 0.42 7
  86.9015 6.66 108
  87.7289 0.05 1
  87.9082 0.43 7
  88.3612 0.07 1
  88.4724 0.03 0
  88.6563 0.24 4
  88.8905 1.87 30
  89.1243 0.12 2
  89.2644 0.11 2
  89.5057 0.13 2
  89.6019 0.06 1
  89.9176 0.97 16
  90.0292 0.24 4
  90.1758 0.14 2
  90.3403 0.13 2
  90.5650 0.15 2
  90.9097 31.43 511
  91.3752 0.09 1
  91.4897 0.09 1
  91.9122 3.92 64
  92.1266 0.08 1
  92.2869 0.13 2
  92.3634 0.04 1
  92.4652 0.07 1
  92.6219 0.09 1
  92.9312 22.39 364
  93.2185 0.07 1
  93.6148 0.10 2
  93.9223 1.83 30
  94.1316 0.03 0
  94.2579 0.15 2
  94.4525 0.10 2
  94.9262 15.46 252
  95.3653 0.02 0
  95.9235 1.40 23
  96.9330 4.78 78
  97.0924 0.23 4
  97.2083 0.04 1
  97.5093 0.09 1
  97.9116 0.54 9
  98.1238 0.06 1
  98.9141 1.33 22
  99.5924 0.09 1
  99.8729 0.11 2
  100.4484 0.06 1
  100.6228 0.10 2
  100.8952 0.87 14
  101.1407 0.09 1
  101.2820 0.05 1
  101.6258 0.04 1
  101.9088 2.01 33
  102.1894 0.22 4
  102.6138 0.14 2
  102.9156 5.66 92
  103.3028 0.19 3
  103.4592 0.25 4
  103.5633 0.05 1
  103.9175 3.76 61
  104.1297 0.17 3
  104.2630 0.02 0
  104.3976 0.10 2
  104.9314 37.09 604
  105.1149 0.26 4
  105.2579 0.11 2
  105.6975 0.11 2
  105.9377 4.74 77
  106.4425 0.03 0
  106.5396 0.05 1
  106.9414 19.78 322
  107.1637 0.14 2
  107.3461 0.06 1
  107.4675 0.13 2
  107.5387 0.04 1
  107.9279 2.11 34
  108.4024 0.11 2
  108.5924 0.08 1
  108.9451 11.83 193
  109.2224 0.03 0
  109.4788 0.08 1
  109.7328 0.02 0
  109.9346 1.21 20
  110.0684 0.17 3
  110.3985 0.06 1
  110.9265 3.28 53
  111.9551 0.31 5
  112.1814 0.10 2
  112.2952 0.22 4
  112.8972 2.72 44
  113.1417 0.06 1
  113.2576 0.11 2
  113.5017 0.20 3
  113.5837 0.12 2
  113.7337 0.27 4
  113.8696 0.46 7
  113.9798 0.23 4
  114.2492 0.20 3
  114.5354 0.27 4
  114.8871 15.78 257
  115.1460 0.18 3
  115.2860 0.10 2
  115.4229 0.10 2
  115.4936 0.05 1
  115.8871 6.76 110
  116.2274 0.18 3
  116.4694 0.25 4
  116.9066 18.24 297
  117.2049 0.17 3
  117.3132 0.18 3
  117.4480 0.12 2
  117.5808 0.06 1
  117.9084 4.18 68
  118.1098 0.06 1
  118.2634 0.08 1
  118.4273 0.04 1
  118.5804 0.05 1
  118.9189 34.55 562
  119.2931 0.13 2
  119.5142 0.02 0
  119.6539 0.10 2
  119.9205 4.33 70
  120.1444 0.08 1
  120.3529 0.18 3
  120.4313 0.13 2
  120.5355 0.18 3
  120.9197 17.86 291
  121.3112 0.09 1
  121.6258 0.05 1
  121.9132 2.43 40
  122.5106 0.12 2
  122.9075 20.35 331
  123.2696 0.01 0
  123.8967 0.87 14
  124.0959 0.05 1
  124.1896 0.02 0
  124.9101 8.79 143
  125.3071 0.06 1
  125.8746 1.23 20
  126.0919 0.05 1
  126.2355 0.05 1
  126.4438 0.15 2
  126.8730 6.62 108
  127.2024 0.10 2
  127.4169 0.28 5
  127.8728 18.07 294
  128.2498 0.28 5
  128.4960 0.15 2
  128.8785 22.33 363
  129.1681 0.21 3
  129.4179 0.07 1
  129.6107 0.10 2
  129.8894 9.66 157
  130.1558 0.17 3
  130.2733 0.09 1
  130.3770 0.01 0
  130.5694 0.42 7
  130.8938 23.47 382
  131.1651 0.21 3
  131.2946 0.12 2
  131.4668 0.09 1
  131.6199 0.04 1
  131.9027 7.08 115
  132.0928 0.05 1
  132.2724 0.15 2
  132.3987 0.07 1
  132.9069 20.13 328
  133.2685 0.19 3
  133.4385 0.13 2
  133.9005 2.50 41
  134.1155 0.01 0
  134.2936 0.08 1
  134.4097 0.19 3
  134.5449 0.19 3
  134.8973 9.04 147
  135.2004 0.08 1
  135.4857 0.10 2
  135.8894 1.53 25
  136.1875 0.12 2
  136.3640 0.08 1
  136.4559 0.09 1
  136.8845 3.91 64
  137.2381 0.21 3
  137.4428 0.10 2
  137.9049 3.11 51
  138.1390 0.16 3
  138.2497 0.07 1
  138.4999 0.11 2
  138.8835 4.11 67
  139.2320 0.18 3
  139.4552 0.08 1
  139.8512 0.86 14
  139.9861 0.40 7
  140.3856 0.21 3
  140.8665 13.44 219
  141.1772 0.15 2
  141.4515 0.32 5
  141.8730 13.69 223
  142.1374 0.10 2
  142.4126 0.28 5
  142.8839 25.60 417
  143.1552 0.20 3
  143.3013 0.18 3
  143.5135 0.06 1
  143.8938 10.95 178
  144.1468 0.13 2
  144.2296 0.06 1
  144.4653 0.23 4
  144.9009 32.70 532
  145.2591 0.04 1
  145.4797 0.13 2
  145.5506 0.06 1
  145.9090 5.24 85
  146.1418 0.30 5
  146.2468 0.14 2
  146.5292 0.12 2
  146.9074 11.11 181
  147.1331 0.18 3
  147.3521 0.07 1
  147.6409 0.07 1
  147.9082 1.52 25
  148.5264 0.09 1
  148.9107 3.71 60
  149.2100 0.09 1
  149.3892 0.06 1
  149.4905 0.05 1
  149.8846 1.09 18
  150.0895 0.04 1
  150.3064 0.10 2
  150.5698 0.28 5
  150.9032 2.94 48
  151.1331 0.21 3
  151.3631 0.06 1
  151.5554 0.15 2
  151.8736 4.76 77
  152.0997 0.34 6
  152.2498 0.14 2
  152.3925 0.15 2
  152.8826 8.85 144
  153.1817 0.14 2
  153.3831 0.11 2
  153.5677 0.16 3
  153.8872 4.20 68
  154.1684 0.12 2
  154.3133 0.39 6
  154.4057 0.13 2
  154.5474 0.15 2
  154.8961 14.93 243
  155.1593 0.17 3
  155.6163 0.37 6
  155.9087 9.28 151
  156.2397 0.17 3
  156.4200 0.11 2
  156.9174 23.66 385
  157.2784 0.20 3
  157.4502 0.13 2
  157.5665 0.15 2
  157.9217 5.98 97
  158.3642 0.13 2
  158.9309 17.72 288
  159.4870 0.29 5
  159.7166 0.30 5
  159.9342 2.68 44
  160.4684 0.08 1
  160.9343 6.93 113
  161.3705 0.12 2
  161.6861 0.11 2
  161.9353 0.49 8
  162.3046 0.10 2
  162.5260 0.03 0
  162.9371 2.20 36
  163.1477 0.22 4
  163.3203 0.08 1
  163.4563 0.15 2
  163.8336 0.57 9
  164.0451 0.18 3
  164.3090 0.16 3
  164.5709 0.22 4
  164.9051 13.27 216
  165.2318 0.19 3
  165.3924 0.28 5
  165.9216 4.38 71
  166.2104 0.08 1
  166.5484 0.05 1
  166.9301 9.48 154
  167.1973 0.12 2
  167.6215 0.14 2
  167.9298 4.18 68
  168.2334 0.19 3
  168.4006 0.13 2
  168.5856 0.15 2
  168.9453 14.07 229
  169.2192 0.04 1
  169.3981 0.09 1
  169.9501 6.07 99
  170.1858 0.08 1
  170.3020 0.08 1
  170.5751 0.16 3
  170.9580 12.05 196
  171.4398 0.25 4
  171.6689 0.16 3
  171.9512 2.68 44
  172.3072 0.07 1
  172.5623 0.09 1
  172.9581 8.15 133
  173.4570 0.21 3
  173.9363 1.03 17
  174.1679 0.11 2
  174.2874 0.10 2
  174.4869 0.21 3
  174.9720 4.02 65
  175.2311 0.10 2
  175.3391 0.03 0
  175.5531 0.16 3
  175.9107 1.02 17
  176.1959 0.16 3
  176.6858 0.12 2
  176.9445 1.31 21
  177.2614 0.22 4
  177.6749 0.30 5
  177.9194 5.01 82
  178.2255 0.13 2
  178.4256 0.31 5
  178.9196 9.69 158
  179.2103 0.03 0
  179.9233 4.86 79
  180.2615 0.24 4
  180.3404 0.12 2
  180.4714 0.36 6
  180.5729 0.24 4
  180.9332 14.05 229
  181.3457 0.20 3
  181.9397 5.54 90
  182.1560 0.25 4
  182.2233 0.12 2
  182.4699 0.09 1
  182.9406 12.62 205
  183.2182 0.16 3
  183.3289 0.09 1
  183.4898 0.11 2
  183.6506 0.18 3
  183.9332 3.34 54
  184.1402 0.11 2
  184.2702 0.13 2
  184.3996 0.07 1
  184.5461 0.11 2
  184.9451 8.77 143
  185.2087 0.05 1
  185.2947 0.04 1
  185.4407 0.13 2
  185.9467 1.33 22
  186.2751 0.06 1
  186.5761 0.15 2
  186.9543 2.90 47
  187.1549 0.09 1
  187.2741 0.03 0
  187.3857 0.06 1
  187.5842 0.12 2
  187.7007 0.04 1
  187.9565 0.50 8
  188.1282 0.08 1
  188.4660 0.19 3
  188.6130 0.05 1
  188.9199 2.55 41
  189.3015 0.21 3
  189.4160 0.10 2
  189.5202 0.12 2
  189.8929 1.35 22
  190.2671 0.06 1
  190.5363 0.21 3
  190.9183 5.14 84
  191.2201 0.09 1
  191.3521 0.11 2
  191.9035 3.50 57
  192.2318 0.11 2
  192.3666 0.16 3
  192.9218 7.32 119
  193.1653 0.18 3
  193.3679 0.14 2
  193.9110 3.96 64
  194.1913 0.09 1
  194.3677 0.06 1
  194.5802 0.08 1
  194.9187 10.91 178
  195.1874 0.18 3
  195.3487 0.12 2
  195.9229 2.68 44
  196.1772 0.34 6
  196.3497 0.20 3
  196.5541 0.13 2
  196.9333 10.75 175
  197.3644 0.19 3
  197.6203 0.11 2
  197.9428 2.45 40
  198.3027 0.09 1
  198.4325 0.07 1
  198.5900 0.06 1
  198.9431 4.10 67
  199.3491 0.05 1
  199.4755 0.10 2
  199.9087 1.16 19
  200.1975 0.07 1
  200.6642 0.19 3
  200.9525 1.83 30
  201.2443 0.13 2
  201.3409 0.14 2
  201.8830 2.31 38
  202.1895 0.09 1
  202.3835 0.13 2
  202.6206 0.26 4
  202.9099 2.42 39
  203.2500 0.06 1
  203.5080 0.02 0
  203.9053 0.77 13
  204.0424 0.12 2
  204.2017 0.03 0
  204.6576 0.08 1
  204.9089 2.97 48
  205.2870 0.08 1
  205.4165 0.13 2
  205.6575 0.16 3
  205.9110 3.01 49
  206.2057 0.30 5
  206.9108 5.71 93
  207.2593 0.11 2
  207.4001 0.23 4
  207.5033 0.16 3
  207.9390 3.33 54
  208.2856 0.27 4
  208.4830 0.13 2
  208.9398 9.03 147
  209.2636 0.16 3
  209.3661 0.09 1
  209.5490 0.12 2
  209.6474 0.07 1
  209.9377 1.74 28
  210.1813 0.15 2
  210.3719 0.03 0
  210.5499 0.17 3
  210.9486 4.60 75
  211.3879 0.10 2
  211.5975 0.18 3
  211.9391 1.94 32
  212.1844 0.10 2
  212.4136 0.05 1
  212.6100 0.12 2
  212.9587 3.36 55
  213.1692 0.15 2
  213.5418 0.10 2
  213.6607 0.11 2
  213.9292 0.68 11
  214.1327 0.05 1
  214.3468 0.13 2
  214.5272 0.04 1
  214.9204 2.38 39
  215.2262 0.02 0
  215.6104 0.14 2
  215.9114 1.32 21
  216.4813 0.03 0
  216.9337 2.68 44
  217.9102 1.41 23
  218.3628 0.09 1
  218.6158 0.08 1
  218.9285 3.28 53
  219.4073 0.05 1
  219.7348 0.28 5
  219.9416 1.29 21
  220.5063 0.19 3
  220.6360 0.11 2
  220.9525 6.61 108
  221.2163 0.14 2
  221.4998 0.20 3
  221.9722 1.93 31
  222.2642 0.12 2
  222.5471 0.17 3
  222.9621 5.05 82
  223.5844 0.09 1
  223.6547 0.05 1
  223.7783 0.06 1
  223.9708 0.93 15
  224.1858 0.17 3
  224.9652 4.48 73
  225.4326 0.13 2
  225.9607 0.69 11
  226.4023 0.12 2
  226.6168 0.11 2
  226.9664 1.07 17
  227.3569 0.04 1
  227.4997 0.07 1
  227.9431 1.50 24
  228.2316 0.06 1
  228.5751 0.12 2
  228.9448 1.54 25
  229.2644 0.07 1
  229.4461 0.11 2
  229.9328 0.57 9
  230.3427 0.13 2
  230.4632 0.20 3
  230.6661 0.09 1
  230.9501 1.85 30
  231.3179 0.08 1
  231.5287 0.02 0
  231.9727 1.18 19
  232.3401 0.07 1
  232.4670 0.39 6
  232.9956 4.37 71
  233.2383 0.08 1
  233.3692 0.11 2
  233.9877 1.17 19
  234.1939 0.12 2
  234.5071 0.10 2
  234.9977 3.41 55
  235.4497 0.08 1
  235.9744 0.90 15
  236.6175 0.17 3
  236.9796 1.97 32
  237.3375 0.03 0
  237.5538 0.17 3
  238.0289 0.59 10
  238.4250 0.13 2
  238.6407 0.12 2
  238.9658 1.27 21
  239.1639 0.12 2
  239.2478 0.08 1
  239.4093 0.19 3
  239.7147 0.16 3
  239.8917 0.46 7
  240.0046 0.53 9
  240.1231 0.20 3
  240.4814 0.32 5
  240.9725 1.12 18
  241.2647 0.17 3
  241.4616 0.10 2
  241.9839 0.66 11
  242.3312 0.10 2
  242.9596 1.06 17
  243.1905 0.05 1
  243.4320 0.04 1
  243.9364 0.90 15
  244.6782 0.12 2
  244.9637 1.94 32
  245.1566 0.17 3
  245.2626 0.06 1
  245.5298 0.13 2
  245.7390 0.23 4
  245.9843 1.46 24
  246.4587 0.10 2
  246.9812 3.12 51
  247.3334 0.09 1
  247.7783 0.11 2
  247.9990 0.74 12
  248.1313 0.11 2
  248.7561 0.22 4
  249.0151 2.02 33
  249.2698 0.12 2
  249.3795 0.15 2
  249.4992 0.10 2
  249.6407 0.03 0
  249.9833 0.85 14
  250.3770 0.13 2
  250.5915 0.24 4
  250.9980 1.86 30
  251.2133 0.09 1
  251.5426 0.05 1
  251.9074 0.50 8
  252.0845 0.16 3
  252.6279 0.06 1
  252.9957 1.41 23
  253.9220 0.50 8
  254.0354 0.23 4
  254.3169 0.06 1
  254.5672 0.11 2
  254.9472 0.54 9
  255.2117 0.06 1
  255.4032 0.04 1
  255.6571 0.06 1
  255.9061 0.34 6
  256.0075 0.23 4
  256.1402 0.15 2
  256.3849 0.05 1
  256.6198 0.07 1
  256.7489 0.05 1
  256.9738 0.98 16
  257.2967 0.14 2
  257.6835 0.30 5
  257.9759 0.32 5
  258.2265 0.02 0
  258.3727 0.06 1
  258.5105 0.10 2
  258.7121 0.16 3
  258.9684 1.01 16
  259.3348 0.11 2
  259.9900 0.88 14
  260.1966 0.10 2
  260.9820 1.32 21
  261.3200 0.05 1
  262.0268 0.40 7
  262.4495 0.10 2
  262.6548 0.15 2
  263.0293 1.20 20
  263.2930 0.21 3
  263.9753 0.69 11
  264.1374 0.20 3
  264.2355 0.07 1
  264.4026 0.07 1
  264.9913 0.99 16
  265.1065 0.32 5
  265.2202 0.16 3
  265.8639 0.29 5
  266.0182 0.54 9
  266.1790 0.03 0
  266.5226 0.11 2
  266.7729 0.18 3
  267.0205 0.62 10
  267.2909 0.11 2
  267.5535 0.11 2
  267.9897 0.34 6
  268.1264 0.11 2
  268.5741 0.13 2
  268.7599 0.04 1
  269.0112 0.59 10
  270.0208 0.61 10
  270.5877 0.06 1
  270.9930 0.69 11
  271.3150 0.08 1
  271.8544 0.10 2
  272.0125 0.52 8
  272.4037 0.12 2
  273.0102 1.05 17
  273.4750 0.08 1
  274.0289 0.47 8
  274.3091 0.01 0
  274.9994 1.03 17
  275.2925 0.07 1
  275.4394 0.18 3
  275.6783 0.01 0
  276.0222 0.40 7
  276.2212 0.04 1
  276.3603 0.11 2
  277.0253 1.05 17
  277.4463 0.09 1
  277.6297 0.10 2
  278.0587 0.46 7
  278.2475 0.13 2
  279.0535 0.97 16
  279.3592 0.06 1
  279.5175 0.11 2
  279.6793 0.03 0
  280.0371 0.33 5
  280.6945 0.13 2
  281.0082 0.74 12
  281.5944 0.10 2
  281.9917 0.52 8
  282.6593 0.08 1
  283.0025 0.47 8
  284.0000 0.42 7
  284.3033 0.09 1
  284.6324 0.14 2
  284.7523 0.11 2
  285.0307 0.78 13
  285.4405 0.06 1
  285.7032 0.11 2
  286.0123 0.90 15
  286.5914 0.04 1
  287.0171 0.91 15
  287.6571 0.10 2
  287.9999 0.32 5
  288.3571 0.05 1
  288.6687 0.08 1
  289.0059 1.10 18
  289.1510 0.09 1
  289.3246 0.13 2
  289.7920 0.15 2
  290.0343 0.38 6
  290.3831 0.04 1
  290.5576 0.09 1
  290.8792 0.20 3
  291.0601 0.77 13
  291.3332 0.04 1
  291.4283 0.04 1
  291.7865 0.11 2
  291.9717 0.19 3
  292.1040 0.11 2
  292.3958 0.19 3
  292.6490 0.03 0
  293.0402 0.83 14
  293.3449 0.10 2
  293.5009 0.03 0
  293.9709 0.33 5
  294.1641 0.06 1
  294.7100 0.03 0
  295.0036 0.31 5
  295.2001 0.06 1
  295.6410 0.05 1
  295.9876 0.27 4
  296.1913 0.04 1
  297.0354 0.66 11
  297.2806 0.09 1
  297.6817 0.06 1
  298.0134 0.32 5
  298.1550 0.08 1
  298.2744 0.05 1
  298.7693 0.11 2
  299.0296 1.53 25
  299.4222 0.04 1
  300.0323 0.31 5
  301.0182 0.39 6
  301.1964 0.15 2
  301.3452 0.10 2
  301.7774 0.09 1
  301.9227 0.13 2
  302.1102 0.30 5
  302.7300 0.03 0
  302.9949 0.54 9
  303.1330 0.12 2
  303.8790 0.19 3
  304.0179 0.13 2
  304.7003 0.12 2
  305.0569 0.56 9
  305.8283 0.09 1
  305.9615 0.14 2
  306.1743 0.18 3
  306.4307 0.08 1
  306.8269 0.07 1
  307.0562 0.45 7
  307.2847 0.08 1
  307.8580 0.07 1
  308.0988 0.19 3
  308.7122 0.06 1
  308.9868 0.25 4
  309.9997 0.37 6
  310.0965 0.13 2
  310.4492 0.06 1
  310.6084 0.06 1
  311.0229 0.85 14
  311.1190 0.42 7
  311.4474 0.07 1
  312.0154 0.56 9
  312.1223 0.14 2
  312.7162 0.04 1
  312.8497 0.15 2
  313.0735 0.48 8
  313.4939 0.09 1
  313.8125 0.13 2
  314.0127 0.11 2
  314.7539 0.13 2
  315.0152 0.64 10
  315.2226 0.04 1
  315.4279 0.09 1
  315.8384 0.03 0
  316.0631 0.39 6
  316.2943 0.10 2
  316.4551 0.05 1
  317.0072 0.49 8
  317.1522 0.25 4
  317.3059 0.11 2
  317.4732 0.01 0
  318.0477 0.27 4
  318.8672 0.12 2
  319.0719 0.26 4
  319.7622 0.07 1
  320.0366 0.39 6
  320.1487 0.11 2
  320.2981 0.10 2
  321.0619 0.51 8
  322.0213 0.11 2
  323.0549 0.25 4
  323.5999 0.11 2
  324.0104 0.17 3
  324.4864 0.07 1
  324.9668 0.44 7
  325.1422 0.25 4
  325.3465 0.09 1
  325.7370 0.06 1
  325.9931 0.39 6
  326.9944 0.23 4
  327.9491 0.05 1
  328.0772 0.10 2
  328.1693 0.09 1
  328.8335 0.10 2
  329.0322 0.31 5
  329.1847 0.03 0
  329.6569 0.03 0
  330.0182 0.12 2
  330.7798 0.10 2
  331.0757 0.28 5
  332.0478 0.21 3
  332.2357 0.16 3
  333.0344 0.19 3
  333.1835 0.11 2
  333.8865 0.16 3
  334.1012 0.34 6
  334.8475 0.21 3
  334.9419 0.22 4
  335.0817 0.12 2
  335.2142 0.05 1
  336.0501 0.06 1
  336.2036 0.15 2
  336.4666 0.10 2
  337.0749 0.34 6
  337.2328 0.14 2
  338.0062 0.15 2
  338.1511 0.09 1
  339.0017 0.30 5
  339.6838 0.04 1
  339.9861 0.04 1
  340.9447 0.20 3
  341.1549 0.14 2
  341.3716 0.11 2
  341.8855 0.06 1
  342.0396 0.14 2
  342.2743 0.11 2
  342.6155 0.12 2
  342.7127 0.05 1
  342.9446 0.12 2
  343.0720 0.07 1
  343.8497 0.10 2
  343.9735 0.08 1
  344.1075 0.32 5
  344.1882 0.09 1
  344.6973 0.09 1
  345.0575 0.36 6
  345.2599 0.11 2
  345.9182 0.18 3
  346.1055 0.22 4
  346.7215 0.06 1
  346.9413 0.23 4
  347.1596 0.06 1
  347.2821 0.05 1
  347.9688 0.19 3
  348.1878 0.10 2
  348.3226 0.05 1
  348.7810 0.08 1
  349.1053 0.22 4
  349.5111 0.06 1
  350.1022 0.28 5
  350.3754 0.10 2
  350.7056 0.06 1
  351.0711 1.27 21
  351.9659 0.15 2
  352.2089 0.10 2
  352.3596 0.08 1
  353.0037 0.35 6
  353.1284 0.11 2
  353.3094 0.18 3
  353.5294 0.05 1
  353.8728 0.12 2
  354.2053 0.03 0
  355.0638 0.25 4
  356.0869 0.12 2
  356.8958 0.17 3
  357.0387 0.20 3
  357.1664 0.19 3
  357.3079 0.11 2
  357.9307 0.18 3
  358.7781 0.09 1
  359.0055 0.22 4
  359.1268 0.14 2
  359.7809 0.12 2
  359.9953 0.23 4
  360.1801 0.17 3
  361.1123 0.28 5
  361.3759 0.05 1
  361.7319 0.05 1
  361.9811 0.15 2
  362.1516 0.40 7
  362.8269 0.01 0
  363.1230 0.27 4
  363.6959 0.03 0
  364.0701 0.38 6
  364.3692 0.10 2
  365.1141 0.32 5
  365.7717 0.09 1
  366.1330 0.12 2
  366.5236 0.04 1
  366.8280 0.04 1
  367.0106 0.31 5
  367.1029 0.13 2
  367.6548 0.06 1
  368.0726 0.10 2
  368.2242 0.11 2
  368.6614 0.04 1
  368.8779 0.05 1
  369.0771 0.19 3
  369.1839 0.11 2
  369.4741 0.13 2
  370.1207 0.17 3
  370.7624 0.11 2
  370.9696 0.11 2
  371.1161 0.27 4
  371.6381 0.09 1
  371.8446 0.05 1
  372.0684 0.17 3
  372.2308 0.04 1
  372.9521 0.24 4
  373.0294 0.15 2
  373.3652 0.05 1
  373.7949 0.05 1
  373.9999 0.06 1
  374.1350 0.08 1
  375.0717 0.25 4
  375.2848 0.13 2
  375.7045 0.09 1
  376.0512 0.12 2
  376.1256 0.05 1
  376.9312 0.12 2
  377.0952 0.10 2
  377.3921 0.06 1
  378.1804 0.07 1
  378.8575 0.13 2
  379.0259 0.12 2
  379.1856 0.14 2
  379.6706 0.02 0
  379.8860 0.13 2
  380.0233 0.02 0
  380.5524 0.19 3
  381.0568 0.12 2
  381.2281 0.10 2
  381.6732 0.08 1
  381.9528 0.04 1
  382.0952 0.10 2
  382.2404 0.08 1
  383.0744 0.37 6
  383.2290 0.06 1
  384.2120 0.11 2
  384.9797 0.12 2
  385.0910 0.11 2
  385.2081 0.03 0
  385.3744 0.03 0
  385.6730 0.01 0
  385.9123 0.18 3
  386.0453 0.08 1
  386.4538 0.05 1
  386.9658 0.18 3
  387.1827 0.04 1
  387.4235 0.01 0
  388.0157 0.10 2
  388.1705 0.09 1
  388.6052 0.10 2
  389.0536 0.20 3
  389.1425 0.15 2
  389.2568 0.02 0
  389.9440 0.08 1
  390.1205 0.10 2
  390.9011 0.09 1
  391.1731 0.12 2
  391.8944 0.03 0
  392.1440 0.12 2
  392.3582 0.02 0
  393.0609 0.11 2
  393.1665 0.19 3
  393.2512 0.13 2
  393.8924 0.16 3
  394.9730 0.09 1
  395.1235 0.09 1
  395.2675 0.08 1
  395.4239 0.15 2
  396.0537 0.15 2
  396.4395 0.06 1
  396.7993 0.06 1
  397.0955 0.26 4
  397.2439 0.13 2
  397.7102 0.07 1
  398.1671 0.35 6
  398.5813 0.01 0
  399.0896 0.18 3
  399.1975 0.20 3
  399.5422 0.03 0
  400.1122 0.11 2
  400.9350 0.15 2
  401.1118 0.20 3
  401.2690 0.10 2
  401.7159 0.02 0
  401.8818 0.13 2
  402.1933 0.20 3
  402.6019 0.06 1
  402.9649 0.09 1
  403.1308 0.42 7
  403.2300 0.16 3
  403.9894 0.08 1
  404.3865 0.08 1
  404.7104 0.11 2
  404.8300 0.09 1
  405.0249 0.11 2
  405.1945 0.07 1
  405.9859 0.12 2
  406.2773 0.03 0
  406.9398 0.20 3
  407.1761 0.15 2
  407.8589 0.01 0
  409.1501 0.20 3
  409.5945 0.04 1
  410.0985 0.18 3
  410.2921 0.11 2
  410.4429 0.11 2
  411.0528 0.07 1
  411.2508 0.06 1
  411.6424 0.10 2
  412.2008 0.28 5
  412.3350 0.19 3
  412.9893 0.20 3
  413.1212 0.21 3
  413.2540 0.17 3
  413.3918 0.05 1
  414.2972 0.01 0
  414.8359 0.11 2
  415.1466 0.33 5
  415.6304 0.10 2
  416.1410 0.60 10
  416.5893 0.11 2
  417.0804 0.34 6
  417.4845 0.04 1
  417.8590 0.12 2
  417.9713 0.21 3
  418.5306 0.08 1
  418.9855 0.07 1
  419.9455 0.15 2
  420.0875 0.09 1
  420.1998 0.12 2
  420.5165 0.09 1
  420.9179 0.12 2
  421.1614 0.18 3
  422.2440 0.15 2
  422.6050 0.09 1
  422.8507 0.10 2
  423.0971 0.05 1
  424.2612 0.24 4
  424.8078 0.14 2
  424.9912 0.20 3
  425.6683 0.07 1
  426.8769 0.11 2
  427.0676 0.04 1
  427.2329 0.11 2
  427.3489 0.07 1
  428.1691 0.30 5
  428.3127 0.14 2
  429.0763 0.21 3
  429.1902 0.07 1
  429.3592 0.01 0
  429.6572 0.04 1
  430.1004 0.46 7
  430.2513 0.45 7
  430.6966 0.16 3
  430.9955 0.17 3
  431.1396 0.17 3
  431.4139 0.04 1
  432.1480 0.08 1
  432.2718 0.14 2
  432.4709 0.10 2
  432.9104 0.09 1
  433.1240 0.22 4
  433.4817 0.10 2
  435.1023 0.11 2
  435.9061 0.10 2
  436.1285 0.28 5
  436.6137 0.05 1
  437.1229 0.19 3
  437.4214 0.10 2
  438.2087 0.16 3
  438.5282 0.06 1
  440.1126 0.20 3
  440.3786 0.11 2
  441.0140 0.19 3
  441.2031 0.51 8
  441.8669 0.08 1
  442.0618 0.12 2
  442.3133 0.03 0
  442.9923 0.52 8
  443.1670 0.55 9
  443.2547 0.21 3
  443.5200 0.16 3
  443.7055 0.06 1
  444.1208 0.26 4
  444.2150 0.12 2
  444.8420 0.09 1
  444.9805 0.08 1
  445.1399 0.39 6
  445.4386 0.10 2
  446.0410 0.27 4
  446.2012 0.18 3
  446.3194 0.11 2
  447.0458 0.18 3
  447.1792 0.17 3
  447.3938 0.06 1
  447.9405 0.11 2
  448.1537 0.26 4
  449.0883 0.70 11
  449.2805 0.23 4
  449.6053 0.10 2
  449.9201 0.10 2
  450.1492 0.39 6
  450.4596 0.05 1
  450.9441 0.12 2
  451.0862 0.20 3
  451.5838 0.09 1
  451.9624 0.01 0
  452.4731 0.11 2
  453.2267 0.06 1
  453.8419 0.11 2
  454.0610 0.06 1
  454.7248 0.04 1
  455.0897 0.07 1
  456.0388 0.11 2
  456.1490 0.07 1
  456.3290 0.13 2
  456.5060 0.15 2
  456.9588 0.12 2
  457.2099 0.03 0
  457.5147 0.11 2
  457.7324 0.11 2
  458.1098 0.32 5
  458.3318 0.14 2
  458.7107 0.03 0
  459.1026 0.39 6
  459.2397 0.25 4
  459.5649 0.05 1
  460.0432 0.10 2
  460.1695 0.08 1
  460.4025 0.04 1
  460.9810 0.21 3
  461.1458 0.13 2
  461.2751 0.11 2
  461.5487 0.18 3
  461.7832 0.12 2
  461.9944 0.30 5
  462.2434 0.19 3
  462.4191 0.10 2
  462.6914 0.10 2
  462.9738 0.13 2
  463.1531 0.36 6
  463.6490 0.07 1
  463.7804 0.13 2
  464.1515 1.25 20
  464.9248 0.20 3
  465.1826 0.11 2
  465.9705 0.11 2
  466.1622 0.11 2
  467.0486 0.14 2
  467.2733 0.09 1
  468.0905 0.17 3
  468.4523 0.10 2
  468.5857 0.10 2
  468.9556 0.11 2
  469.2340 0.10 2
  469.8163 0.05 1
  470.1354 0.06 1
  471.6722 0.01 0
  472.0015 0.10 2
  472.3381 0.10 2
  472.7682 0.13 2
  472.9532 0.07 1
  473.0845 0.11 2
  473.7069 0.10 2
  473.8237 0.12 2
  474.2662 0.21 3
  474.6819 0.13 2
  474.8459 0.14 2
  475.0424 0.10 2
  475.3073 0.19 3
  475.4930 0.04 1
  475.6214 0.14 2
  476.0807 0.21 3
  476.1707 0.12 2
  476.7700 0.11 2
  477.1422 0.14 2
  477.9890 0.08 1
  478.1719 0.11 2
  478.8308 0.03 0
  479.7787 0.09 1
  479.9449 0.09 1
  480.2279 0.14 2
  480.3375 0.15 2
  480.5095 0.11 2
  480.9436 0.11 2
  481.0742 0.10 2
  481.2194 0.04 1
  481.4117 0.11 2
  482.0157 0.12 2
  482.1122 0.12 2
  482.6196 0.09 1
  483.1590 0.33 5
  483.3332 0.23 4
  483.4915 0.10 2
  483.6069 0.04 1
  483.9082 0.01 0
  484.5195 0.12 2
  485.1279 0.09 1
  485.6202 0.08 1
  486.1982 0.12 2
  486.4770 0.13 2
  486.9505 0.11 2
  487.0136 0.05 1
  487.2322 0.14 2
  487.3208 0.04 1
  487.6919 0.10 2
  488.1008 0.08 1
  488.2300 0.10 2
  488.5837 0.11 2
  488.9352 0.23 4
  489.0964 0.15 2
  489.4153 0.07 1
  489.7414 0.11 2
  490.0675 0.32 5
  490.2426 0.30 5
  490.3675 0.16 3
  491.0263 0.11 2
  491.1476 0.16 3
  491.2449 0.08 1
  491.9634 0.06 1
  492.1159 0.26 4
  492.2714 0.39 6
  492.4406 0.07 1
  493.1301 0.14 2
  493.2543 0.11 2
  494.8503 0.05 1
  495.1276 0.31 5
  496.0241 0.06 1
  496.1403 0.11 2
  496.8097 0.02 0
  497.0827 0.10 2
  497.2061 0.18 3
  497.3135 0.07 1
  497.7085 0.08 1
  498.0374 0.07 1
  498.1420 0.11 2
  498.2523 0.07 1
  498.3794 0.11 2
  498.6924 0.08 1
  499.1215 0.14 2
  499.3481 0.09 1
  499.5601 0.11 2
  500.1018 0.80 13
  500.3051 0.20 3
  500.6334 0.09 1
  500.9943 0.10 2
  501.1294 0.12 2
  501.3029 0.10 2
  501.7982 0.08 1
  502.0648 0.14 2
  503.2625 0.09 1
  503.4949 0.10 2
  503.8334 0.27 4
  504.1218 0.16 3
  504.2787 0.12 2
  505.3298 0.07 1
  505.9320 0.14 2
  506.1274 0.07 1
  507.1322 0.08 1
  507.8987 0.10 2
  508.2867 0.13 2
  508.3928 0.11 2
  508.6166 0.11 2
  508.8542 0.04 1
  509.0358 0.08 1
  509.2589 0.06 1
  509.4791 0.11 2
  510.1432 0.35 6
  510.4106 0.07 1
  510.6010 0.09 1
  511.2892 0.17 3
  511.4905 0.07 1
  512.1243 0.12 2
  512.4673 0.12 2
  512.6461 0.12 2
  512.9478 0.13 2
  513.2057 0.07 1
  513.3257 0.11 2
  513.4703 0.13 2
  513.6876 0.12 2
  513.9006 0.13 2
  514.2248 0.13 2
  514.4472 0.14 2
  514.7932 0.04 1
  514.9684 0.10 2
  515.4831 0.09 1
  515.6953 0.10 2
  516.1373 0.08 1
  516.3634 0.08 1
  516.6229 0.11 2
  516.9457 0.08 1
  517.1384 0.10 2
  517.2263 0.11 2
  518.0392 0.32 5
  518.1846 0.83 14
  518.2922 0.37 6
  518.3845 0.17 3
  518.5299 0.04 1
  519.2221 0.04 1
  519.5391 0.05 1
  521.2116 0.12 2
  521.6501 0.09 1
  521.9922 0.08 1
  522.2025 0.17 3
  522.3902 0.13 2
  523.0543 0.12 2
  523.1485 0.04 1
  523.3312 0.14 2
  523.7133 0.08 1
  524.0656 0.13 2
  524.4897 0.03 0
  524.7551 0.10 2
  525.1075 0.08 1
  525.8978 0.11 2
  526.0790 0.29 5
  526.2734 0.17 3
  527.2363 0.12 2
  527.4307 0.13 2
  527.6881 0.05 1
  527.8113 0.11 2
  528.1160 0.25 4
  528.3538 0.27 4
  528.6185 0.14 2
  528.8477 0.08 1
  528.9876 0.09 1
  529.1617 0.21 3
  529.4017 0.11 2
  529.5156 0.12 2
  529.6063 0.08 1
  529.8064 0.05 1
  530.0392 0.26 4
  530.1422 0.15 2
  530.2459 0.13 2
  530.5926 0.03 0
  531.1823 0.06 1
  532.0534 0.10 2
  533.1176 0.08 1
  533.3511 0.07 1
  533.4389 0.07 1
  533.5557 0.07 1
  533.7436 0.03 0
  533.9808 0.08 1
  534.2376 0.07 1
  534.4327 0.08 1
  534.8295 0.05 1
  535.1451 0.08 1
  535.4332 0.08 1
  535.7553 0.14 2
  536.2559 0.17 3
  537.0815 0.14 2
  537.7854 0.07 1
  537.9276 0.01 0
  538.5262 0.06 1
  538.9522 0.04 1
  539.2512 0.06 1
  539.5755 0.03 0
  539.9667 0.10 2
  540.2090 0.12 2
  540.3651 0.12 2
  540.5276 0.07 1
  540.7678 0.10 2
  540.9377 0.14 2
  541.2164 0.20 3
  541.3651 0.09 1
  541.7948 0.01 0
  542.0582 0.10 2
  542.2651 0.13 2
  542.4545 0.06 1
  542.6998 0.10 2
  543.0243 0.10 2
  543.2849 0.12 2
  543.5628 0.09 1
  543.8031 0.10 2
  544.1733 0.62 10
  544.4818 0.07 1
  544.8701 0.10 2
  545.1619 0.26 4
  545.3260 0.10 2
  545.4530 0.07 1
  545.7441 0.10 2
  546.0047 0.34 6
  546.2820 0.62 10
  546.6109 0.11 2
  547.4146 0.07 1
  547.9670 0.03 0
  548.0905 0.01 0
  548.3518 0.06 1
  548.4651 0.11 2
  548.9000 0.10 2
  549.0198 0.01 0
  549.3654 0.05 1
  549.8504 0.05 1
  550.3253 0.12 2
  550.4749 0.09 1
  550.6129 0.11 2
  550.7269 0.14 2
  550.8575 0.23 4
  551.1212 0.38 6
  551.4588 0.32 5
  551.7239 0.45 7
  551.8568 0.17 3
  551.9570 0.06 1
  552.0949 0.22 4
  552.2256 0.19 3
  552.4188 0.13 2
  552.5118 0.15 2
  552.7136 0.24 4
  552.9809 0.25 4
  553.2009 0.13 2
  553.4529 0.31 5
  553.8495 0.25 4
  554.1887 0.44 7
  554.4399 0.29 5
  554.6592 0.44 7
  554.8438 0.49 8
  554.9963 0.44 7
  555.1081 0.14 2
  555.2744 0.21 3
  555.4211 0.38 6
  555.6165 0.29 5
  555.8519 0.40 7
  556.0385 0.56 9
  556.3370 0.26 4
  556.7155 0.64 10
  557.0518 0.43 7
  557.3242 0.35 6
  557.5385 0.27 4
  557.6983 0.34 6
  557.8915 0.43 7
  558.1806 0.33 5
  558.3848 0.34 6
  558.4807 0.32 5
  558.6078 0.49 8
  558.8839 0.46 7
  559.1061 0.36 6
  559.3683 0.58 9
  559.5878 0.45 7
  559.8646 0.30 5
  560.0309 0.72 12
  560.1631 0.47 8
  560.4770 0.17 3
  560.9420 0.31 5
  561.1774 0.36 6
  561.5079 0.32 5
  561.7615 0.53 9
  561.9504 0.58 9
  562.2759 0.46 7
  562.5244 0.09 1
  562.7286 0.39 6
  562.9734 0.28 5
  563.0948 0.23 4
  563.2568 0.11 2
  563.3499 0.09 1
  563.6208 0.38 6
  563.7611 0.29 5
  564.0242 0.33 5
  564.3940 0.33 5
  564.5190 0.20 3
  564.7566 0.19 3
  565.1519 0.92 15
  565.3990 0.49 8
  565.6265 0.32 5
  565.9164 0.54 9
  566.2238 1.63 27
  566.4924 0.66 11
  566.7805 0.30 5
  566.9110 0.11 2
  567.2469 0.44 7
  567.5617 0.27 4
  567.7133 0.24 4
  567.9861 0.18 3
  568.1703 0.56 9
  568.2958 0.39 6
  568.4373 0.25 4
  568.5469 0.16 3
  568.6382 0.10 2
  568.7827 0.18 3
  568.9713 0.17 3
  569.2354 0.92 15
  569.4479 0.26 4
  569.7142 0.21 3
  569.8810 0.19 3
  570.1219 0.20 3
  570.4012 0.44 7
  570.6254 0.21 3
  570.8228 0.04 1
  571.4736 0.80 13
  571.8226 0.90 15
  572.1970 1.05 17
  572.5845 1.04 17
  573.0525 1.38 22
  573.7005 1.00 16
  574.2070 1.27 21
  574.4965 0.89 14
  574.8870 1.42 23
  575.1620 1.12 18
  575.5401 1.36 22
  576.2658 1.44 23
  576.8109 1.48 24
  577.7689 1.77 29
  578.9447 1.53 25
  579.9514 2.09 34
  583.2312 4.57 74
  584.2432 61.39 999
  585.0912 2.64 43
  585.9713 1.40 23
  586.5325 0.74 12
  586.8535 1.03 17
  587.1773 1.44 23
  587.4939 1.36 22
  588.1801 0.76 12
  588.4756 0.98 16
  588.6521 0.88 14
  588.9607 0.81 13
  589.4291 1.14 19
  589.7559 1.13 18
  589.9302 0.72 12
  590.5859 1.08 18
  590.8829 0.51 8
  591.0906 0.57 9
  591.5160 1.05 17
  591.8601 0.90 15
  592.0446 0.96 16
  592.4344 0.91 15
  592.7220 0.71 12
  593.3123 1.42 23
  593.8931 0.78 13
  594.1443 1.04 17
  594.5459 1.14 19
  595.1638 1.27 21
  596.0047 1.72 28
  596.3998 1.29 21
  598.3307 1.86 30
  602.2354 99.96 999
  602.8899 15.83 258
  603.5509 6.56 107
  604.2141 3.66 60
  605.1636 2.00 33
  606.0877 1.45 24
  606.3805 0.86 14
  606.6355 0.74 12
  606.8985 0.68 11
  607.5458 0.75 12
  607.6505 0.27 4
  607.7783 0.41 7
  608.1111 0.62 10
  608.2411 0.31 5
  608.3625 0.13 2
  608.5587 0.18 3
  608.8558 0.31 5
  609.0585 0.09 1
  609.3325 0.28 5
  609.5126 0.42 7
  609.7219 0.31 5
  609.9312 0.14 2
  610.2182 0.18 3
  610.4478 0.23 4
  610.6629 0.11 2
  610.9361 0.19 3
  611.1955 0.06 1
  611.5428 0.18 3
  611.9287 0.19 3
  612.2281 0.19 3
  612.5355 0.01 0
//
