ACCESSION: MSBNK-Kyoto_Univ-CA000158
RECORD_TITLE: Phytofluene; FAB-EBEB; MS2; m/z: 542.49; [M]*+
DATE: 2016.01.19 (Created 2007.03.15, modified 2011.05.10)
AUTHORS: Akimoto N, Graduate School of Pharmaceutical Sciences, Kyoto University and Maoka T, Research Institute for Production Development
LICENSE: CC BY-SA
COMMENT: Profile spectrum of this record is given as a JPEG file.
COMMENT: [Profile] CA000158.jpg
CH$NAME: Phytofluene
CH$COMPOUND_CLASS: Natural Product; Carotenoid
CH$FORMULA: C40H62
CH$EXACT_MASS: 542.48515
CH$SMILES: C(C)(C)=CCCC(C)=CCCC(C)=CCCC(=CC=CC=C(C=CC=C(CCC=C(C)CCC=C(C)C)C)C)C
CH$IUPAC: InChI=1S/C40H62/c1-33(2)19-13-23-37(7)27-17-31-39(9)29-15-25-35(5)21-11-12-22-36(6)26-16-30-40(10)32-18-28-38(8)24-14-20-34(3)4/h11-12,15,19-22,25,27-30H,13-14,16-18,23-24,26,31-32H2,1-10H3/b12-11+,25-15+,35-21+,36-22+,37-27+,38-28+,39-29+,40-30+
CH$LINK: CHEBI CHEBI:28129
CH$LINK: CHEMSPIDER 4941340
CH$LINK: KEGG C05414
CH$LINK: PUBCHEM CID:6436722
CH$LINK: INCHIKEY OVSVTCFNLSGAMM-OUOOUFEBSA-N
CH$LINK: COMPTOX DTXSID40894763
AC$INSTRUMENT: JMS-HX/HX 110A, JEOL
AC$INSTRUMENT_TYPE: FAB-EBEB
AC$MASS_SPECTROMETRY: MS_TYPE MS2
AC$MASS_SPECTROMETRY: ION_MODE POSITIVE
AC$MASS_SPECTROMETRY: ATOM_GUN_CURRENT 5 mA
AC$MASS_SPECTROMETRY: BOMBARDMENT 6 kV xenon
AC$MASS_SPECTROMETRY: COLLISION_ENERGY 3 kV
AC$MASS_SPECTROMETRY: COLLISION_GAS Ar
AC$MASS_SPECTROMETRY: GAS_PRESSURE adjust to attenuate the intensity of the precursor ion by 30 %
AC$MASS_SPECTROMETRY: IONIZATION FAB
AC$MASS_SPECTROMETRY: MATRIX 1-2 uL m-NBA
AC$MASS_SPECTROMETRY: PROBE_TIP stainless-steel
MS$FOCUSED_ION: BASE_PEAK 542.3987
MS$FOCUSED_ION: PRECURSOR_M/Z 542.49
MS$FOCUSED_ION: PRECURSOR_TYPE [M]+*
PK$SPLASH: splash10-0006-1921180000-65340d23670e27006c52
PK$NUM_PEAK: 938
PK$PEAK: m/z int. rel.int.
  2.9373 0.01 0
  3.4588 0.01 0
  6.3597 0.11 1
  11.7265 0.11 1
  13.9741 0.02 0
  14.9904 0.08 1
  25.9464 0.12 1
  26.9650 0.50 5
  27.9582 0.08 1
  28.9718 0.19 2
  35.9664 0.06 1
  36.9526 0.03 0
  37.8931 0.05 0
  38.3632 0.04 0
  38.9668 0.39 4
  39.9331 0.10 1
  40.9528 0.55 5
  41.9729 0.06 1
  42.9909 0.11 1
  46.3383 0.09 1
  47.7156 0.01 0
  49.8978 0.03 0
  49.9508 0.01 0
  50.8106 0.02 0
  50.9532 0.06 1
  51.9758 0.04 0
  52.9844 0.12 1
  54.9785 0.23 2
  55.1370 0.01 0
  55.9818 0.05 0
  62.9678 0.07 1
  63.9640 0.04 0
  64.6507 0.01 0
  64.9578 0.01 0
  65.9901 0.12 1
  66.7849 0.05 0
  66.9782 0.37 4
  67.9640 0.05 0
  68.7436 0.17 2
  68.9846 4.49 45
  69.9981 0.09 1
  71.0009 0.08 1
  73.9511 0.05 0
  74.8822 0.03 0
  74.9680 0.03 0
  75.1304 0.02 0
  75.9544 0.08 1
  76.9410 0.55 5
  77.7823 0.03 0
  77.9432 0.08 1
  78.1959 0.01 0
  78.7463 0.13 1
  78.9511 0.76 8
  79.0970 0.04 0
  79.9513 0.33 3
  80.9665 3.63 36
  81.9930 0.09 1
  82.8905 0.04 0
  83.0166 0.47 5
  86.6309 0.02 0
  87.6778 0.03 0
  88.8963 0.29 3
  89.5695 0.04 0
  89.9540 0.07 1
  90.1916 0.04 0
  90.5394 0.09 1
  90.9207 2.85 28
  91.1485 0.06 1
  91.2897 0.01 0
  91.7446 0.03 0
  91.9527 0.33 3
  92.6195 0.07 1
  92.9535 3.01 30
  93.4132 0.02 0
  93.6744 0.04 0
  93.9611 0.43 4
  94.9755 2.19 22
  96.0019 0.17 2
  96.9637 0.11 1
  97.5272 0.09 1
  100.6504 0.05 0
  100.8417 0.08 1
  100.9335 0.04 0
  101.5839 0.04 0
  101.9337 0.20 2
  102.1442 0.03 0
  102.4644 0.02 0
  102.7614 0.08 1
  102.9228 0.55 5
  103.2077 0.10 1
  103.2981 0.04 0
  103.9484 0.29 3
  104.3856 0.04 0
  104.9386 5.23 52
  105.2534 0.04 0
  105.7240 0.06 1
  105.9836 0.63 6
  106.5563 0.09 1
  106.9632 3.40 34
  107.3167 0.07 1
  107.9828 0.66 7
  108.1288 0.10 1
  108.4551 0.08 1
  108.6704 0.08 1
  108.9852 1.95 19
  109.1314 0.11 1
  110.6510 0.01 0
  111.0357 0.16 2
  112.1077 0.01 0
  112.7528 0.02 0
  112.9641 0.06 1
  113.4253 0.04 0
  113.6392 0.04 0
  113.7650 0.04 0
  113.9600 0.05 0
  114.0358 0.04 0
  114.4511 0.10 1
  114.5663 0.09 1
  114.9132 1.77 18
  115.4067 0.02 0
  115.6745 0.15 1
  115.9155 0.60 6
  116.1482 0.02 0
  116.8983 2.06 21
  117.6241 0.06 1
  117.7326 0.11 1
  117.9467 0.86 9
  118.4490 0.04 0
  118.9455 5.61 56
  119.2940 0.09 1
  119.7226 0.44 4
  119.9524 4.19 42
  120.4970 0.07 1
  120.9594 4.06 41
  121.1443 0.07 1
  121.3450 0.07 1
  121.6391 0.02 0
  121.7440 0.05 0
  121.9527 0.31 3
  122.1940 0.03 0
  122.8289 0.10 1
  122.9986 0.64 6
  124.8355 0.11 1
  125.0141 0.05 0
  125.6750 0.09 1
  125.8926 0.11 1
  126.8824 0.59 6
  127.0906 0.02 0
  127.8680 2.19 22
  128.4940 0.06 1
  128.6138 0.25 2
  128.9064 3.94 39
  129.3908 0.05 0
  129.7220 0.19 2
  129.9339 1.63 16
  130.1271 0.16 2
  130.9109 5.04 50
  131.2158 0.02 0
  131.4654 0.11 1
  131.6198 0.11 1
  131.9365 2.02 20
  132.4813 0.04 0
  132.9414 5.80 58
  133.3088 0.02 0
  133.5156 0.07 1
  133.7488 0.07 1
  133.9564 1.16 12
  134.2932 0.04 0
  134.5248 0.04 0
  134.6216 0.05 0
  134.9538 1.24 12
  135.2395 0.12 1
  135.9395 0.40 4
  136.0812 0.05 0
  136.6976 0.11 1
  136.9765 3.33 33
  137.5339 0.01 0
  137.9753 0.02 0
  138.3893 0.01 0
  138.5696 0.10 1
  138.7308 0.06 1
  138.8792 0.35 3
  139.4130 0.06 1
  139.8418 0.17 2
  140.0236 0.12 1
  140.1191 0.09 1
  140.3274 0.16 2
  140.6943 0.25 2
  140.9145 1.67 17
  141.5278 0.07 1
  141.9179 2.24 22
  142.0871 0.11 1
  142.3638 0.15 1
  142.9082 4.46 45
  143.4429 0.03 0
  143.6841 0.20 2
  143.9445 1.89 19
  144.2094 0.07 1
  144.9324 10.32 103
  145.2272 0.05 0
  145.5679 0.11 1
  145.6925 0.03 0
  145.9528 1.18 12
  146.3681 0.01 0
  146.4767 0.07 1
  146.6485 0.12 1
  146.9686 2.01 20
  147.2285 0.10 1
  147.2931 0.04 0
  147.5215 0.06 1
  147.6320 0.07 1
  147.7350 0.10 1
  147.9797 0.46 5
  148.6673 0.17 2
  149.0004 0.72 7
  149.2746 0.02 0
  149.6284 0.01 0
  149.9742 0.13 1
  150.5461 0.04 0
  150.9265 0.25 2
  151.0965 0.03 0
  151.2279 0.05 0
  151.3443 0.02 0
  151.7972 0.22 2
  151.9150 0.22 2
  152.2391 0.03 0
  152.4442 0.12 1
  152.5832 0.11 1
  152.9331 0.68 7
  153.5064 0.09 1
  153.5856 0.04 0
  153.9520 0.91 9
  154.4746 0.05 0
  154.5789 0.18 2
  154.9494 2.37 24
  155.2287 0.02 0
  155.3811 0.10 1
  155.4993 0.04 0
  155.9606 1.87 19
  156.3728 0.08 1
  156.9722 4.68 47
  157.3683 0.06 1
  157.5386 0.17 2
  157.7791 0.18 2
  157.9864 1.60 16
  158.4875 0.17 2
  158.9983 5.38 54
  159.1757 0.15 1
  159.2841 0.04 0
  160.0135 0.37 4
  160.2845 0.02 0
  161.0182 1.08 11
  161.2185 0.10 1
  161.5538 0.09 1
  161.8490 0.04 0
  162.0061 0.10 1
  162.3969 0.10 1
  162.5836 0.02 0
  162.7024 0.06 1
  162.8583 0.06 1
  163.0281 0.25 2
  163.6645 0.06 1
  164.0099 0.17 2
  164.4882 0.06 1
  164.5751 0.02 0
  164.7293 0.23 2
  164.9635 0.84 8
  165.5048 0.06 1
  165.6511 0.03 0
  165.9896 0.28 3
  166.2308 0.09 1
  166.4143 0.02 0
  166.7480 0.30 3
  166.9579 0.95 9
  167.2729 0.01 0
  167.6759 0.04 0
  167.9464 0.40 4
  168.1791 0.05 0
  168.6290 0.23 2
  168.9783 1.90 19
  169.5714 0.10 1
  169.9726 0.92 9
  170.5037 0.09 1
  170.7262 0.05 0
  171.0148 3.45 34
  171.3546 0.04 0
  171.6863 0.11 1
  171.8043 0.14 1
  172.0010 0.63 6
  172.6307 0.12 1
  173.0049 2.06 21
  173.2562 0.04 0
  174.0000 0.51 5
  174.8018 0.08 1
  175.0318 0.48 5
  175.6779 0.03 0
  176.0156 0.10 1
  176.9538 0.35 3
  177.4671 0.17 2
  177.9071 0.25 2
  178.1307 0.16 2
  178.5240 0.03 0
  178.9561 0.56 6
  179.1854 0.05 0
  179.9524 0.17 2
  180.5574 0.10 1
  180.6994 0.08 1
  180.9564 0.63 6
  181.5071 0.01 0
  182.0035 0.55 5
  182.5247 0.12 1
  182.6562 0.15 1
  182.9794 1.98 20
  183.6675 0.10 1
  183.7336 0.06 1
  184.0075 0.90 9
  184.3494 0.11 1
  184.5643 0.17 2
  184.9910 6.65 66
  185.3897 0.10 1
  185.5163 0.04 0
  185.7008 0.08 1
  185.9725 0.62 6
  186.0616 0.45 4
  186.3587 0.06 1
  186.6171 0.14 1
  187.0099 1.63 16
  187.7034 0.03 0
  188.0047 0.32 3
  188.7355 0.10 1
  189.0459 0.30 3
  189.6100 0.06 1
  189.8243 0.10 1
  190.0092 0.22 2
  190.5118 0.04 0
  190.9590 0.38 4
  191.0860 0.09 1
  191.4172 0.12 1
  191.5825 0.10 1
  191.8277 0.10 1
  192.6641 0.09 1
  192.9751 0.22 2
  193.6581 0.10 1
  193.9035 0.14 1
  194.1400 0.10 1
  194.2959 0.07 1
  194.4525 0.09 1
  194.9691 0.93 9
  195.2639 0.06 1
  195.4622 0.02 0
  195.5811 0.06 1
  195.9963 0.41 4
  196.1927 0.02 0
  196.4186 0.01 0
  196.5549 0.11 1
  196.9805 1.03 10
  197.9825 0.65 6
  198.3943 0.09 1
  198.4942 0.10 1
  198.9991 3.32 33
  199.2919 0.17 2
  200.0271 7.27 73
  200.2515 0.20 2
  200.3406 0.06 1
  200.5554 0.11 1
  200.7446 0.18 2
  201.0184 0.85 8
  201.5322 0.11 1
  201.6785 0.10 1
  201.8441 0.07 1
  201.9602 0.21 2
  202.1104 0.11 1
  202.3208 0.04 0
  202.4903 0.10 1
  202.6135 0.10 1
  203.0443 1.30 13
  203.3383 0.03 0
  203.8733 0.10 1
  204.0146 0.12 1
  204.2143 0.04 0
  204.7424 0.08 1
  204.9815 0.31 3
  205.1305 0.18 2
  205.9514 0.16 2
  206.2767 0.10 1
  206.8079 0.09 1
  206.9513 0.15 1
  207.9793 0.37 4
  208.1016 0.13 1
  208.6583 0.09 1
  208.8366 0.14 1
  208.9989 0.80 8
  209.7799 0.11 1
  210.0382 0.37 4
  210.3435 0.05 0
  210.7120 0.07 1
  211.0129 0.63 6
  211.6026 0.03 0
  211.7850 0.10 1
  211.9996 0.61 6
  212.5373 0.21 2
  212.7823 0.19 2
  213.0429 1.15 11
  213.3164 0.08 1
  213.4815 0.01 0
  214.0163 0.46 5
  214.5738 0.02 0
  214.8714 0.04 0
  215.0482 0.17 2
  215.8113 0.09 1
  216.0651 0.11 1
  217.0766 0.23 2
  217.9411 0.09 1
  218.5228 0.05 0
  218.6198 0.07 1
  219.0070 0.12 1
  220.0094 0.19 2
  220.0961 0.10 1
  220.6479 0.06 1
  221.0154 0.36 4
  222.0568 0.22 2
  222.8777 0.03 0
  223.0655 0.44 4
  223.8111 0.03 0
  224.0656 0.23 2
  225.0305 0.96 10
  225.3777 0.04 0
  225.7823 0.10 1
  226.0971 0.76 8
  226.5749 0.10 1
  226.8186 0.10 1
  227.0780 0.62 6
  227.7707 0.02 0
  227.9389 0.10 1
  228.0547 0.09 1
  228.1562 0.03 0
  228.9321 0.23 2
  229.0835 0.15 1
  230.1237 0.04 0
  230.7175 0.03 0
  230.8211 0.13 1
  231.9987 0.01 0
  233.0938 0.05 0
  233.9845 0.10 1
  234.0973 0.09 1
  234.5195 0.07 1
  234.8366 0.12 1
  235.0688 0.11 1
  235.8335 0.02 0
  236.0178 0.12 1
  236.7673 0.02 0
  237.0664 0.33 3
  237.9570 0.03 0
  238.1174 0.28 3
  238.3421 0.08 1
  238.5343 0.06 1
  238.6583 0.08 1
  239.0661 0.67 7
  239.9606 0.09 1
  240.1256 0.15 1
  241.0432 0.23 2
  241.1848 0.14 1
  242.0630 0.07 1
  242.5546 0.07 1
  243.0930 0.27 3
  243.3655 0.16 2
  244.9568 0.07 1
  245.0486 0.10 1
  245.1468 0.03 0
  245.8250 0.06 1
  246.0248 0.24 2
  246.6335 0.02 0
  247.0835 0.07 1
  247.2026 0.08 1
  247.5550 0.10 1
  247.8813 0.10 1
  248.0285 0.07 1
  248.8682 0.06 1
  248.9731 0.11 1
  249.0884 0.09 1
  249.2689 0.03 0
  249.7785 0.08 1
  249.9988 0.03 0
  250.4153 0.01 0
  250.7216 0.02 0
  251.0945 0.51 5
  251.7980 0.06 1
  251.9702 0.12 1
  252.1391 0.12 1
  252.4025 0.11 1
  253.0965 0.78 8
  253.7293 0.11 1
  253.8448 0.11 1
  254.0803 0.36 4
  254.1704 0.17 2
  254.4275 0.10 1
  254.5717 0.19 2
  255.0997 0.53 5
  255.3001 0.05 0
  256.0991 0.43 4
  256.2010 0.14 1
  256.4759 0.03 0
  256.9637 0.16 2
  257.1681 0.21 2
  257.9982 0.09 1
  258.1505 0.08 1
  259.0684 0.18 2
  260.0402 0.03 0
  260.1376 0.07 1
  261.1195 0.02 0
  261.3889 0.11 1
  262.2213 0.04 0
  263.0305 0.17 2
  263.1613 0.11 1
  263.9713 0.13 1
  264.4568 0.04 0
  264.6917 0.08 1
  265.0825 0.20 2
  265.2075 0.02 0
  265.7862 0.08 1
  266.0958 0.14 1
  266.1665 0.05 0
  266.4193 0.02 0
  266.8043 0.10 1
  267.1206 0.91 9
  267.3485 0.01 0
  267.7513 0.10 1
  268.1226 0.47 5
  268.3709 0.11 1
  268.5402 0.17 2
  269.1376 0.23 2
  269.3305 0.04 0
  269.9581 0.10 1
  270.0366 0.02 0
  270.7925 0.11 1
  270.9023 0.10 1
  271.1581 0.05 0
  271.2758 0.06 1
  272.0437 0.04 0
  272.3957 0.09 1
  273.0146 0.11 1
  273.1815 0.06 1
  274.6247 0.11 1
  275.0475 0.05 0
  275.9459 0.10 1
  276.0166 0.05 0
  276.1790 0.07 1
  277.1653 0.17 2
  278.1028 0.24 2
  279.0771 0.22 2
  279.2193 0.05 0
  280.0038 0.10 1
  280.1120 0.10 1
  280.6587 0.08 1
  280.9674 0.11 1
  281.1510 0.35 3
  281.9110 0.06 1
  282.1018 0.28 3
  282.2802 0.09 1
  283.1072 0.08 1
  283.9793 0.08 1
  286.0124 0.04 0
  286.7014 0.08 1
  289.2856 0.10 1
  291.1334 0.13 1
  292.1206 0.09 1
  292.8769 0.10 1
  292.9991 0.18 2
  293.1245 0.14 1
  293.2374 0.09 1
  293.4180 0.09 1
  294.5883 0.07 1
  295.1715 0.15 1
  296.1084 0.06 1
  297.2182 0.09 1
  298.1968 0.07 1
  299.1244 0.11 1
  299.8174 0.04 0
  301.1240 0.09 1
  302.0363 0.02 0
  302.1581 0.02 0
  302.9653 0.04 0
  303.0718 0.10 1
  303.3916 0.01 0
  304.1010 0.10 1
  304.4261 0.06 1
  305.8900 0.11 1
  305.9835 0.06 1
  306.0967 0.20 2
  307.0277 0.44 4
  307.1943 0.17 2
  308.0392 0.08 1
  308.1591 0.10 1
  309.0759 0.14 1
  309.1971 0.11 1
  309.8164 0.08 1
  310.6498 0.11 1
  310.8376 0.01 0
  311.2785 0.09 1
  312.0575 0.09 1
  315.0506 0.08 1
  316.1018 0.11 1
  316.9989 0.12 1
  318.5626 0.11 1
  318.8463 0.11 1
  319.1308 0.13 1
  320.0171 0.02 0
  320.1551 0.13 1
  320.8264 0.09 1
  321.1096 0.30 3
  321.2079 0.14 1
  321.9936 0.03 0
  322.2181 0.28 3
  323.0065 0.24 2
  323.1003 0.10 1
  323.2278 0.25 2
  323.9998 0.18 2
  324.1280 0.10 1
  324.2614 0.13 1
  325.0455 0.09 1
  327.0841 0.10 1
  328.1815 0.11 1
  331.2590 0.09 1
  331.9429 0.08 1
  333.2104 0.20 2
  333.6209 0.05 0
  333.6923 0.03 0
  334.2158 0.29 3
  334.5780 0.03 0
  334.8517 0.11 1
  335.1935 0.54 5
  335.5274 0.02 0
  335.7489 0.13 1
  335.8712 0.10 1
  336.1476 0.75 7
  336.4359 0.25 2
  336.6885 0.24 2
  337.1858 7.47 75
  337.5879 0.12 1
  337.7519 0.19 2
  337.9186 0.22 2
  338.1461 0.29 3
  338.3690 0.11 1
  338.5092 0.07 1
  338.7507 0.10 1
  338.9280 0.14 1
  339.1999 0.80 8
  339.5498 0.05 0
  340.3557 0.13 1
  341.0981 0.04 0
  341.8115 0.04 0
  341.9372 0.05 0
  345.1822 0.08 1
  346.6424 0.11 1
  347.1067 0.07 1
  348.2035 0.10 1
  348.2982 0.12 1
  349.3278 0.10 1
  349.5994 0.07 1
  350.1447 0.09 1
  350.3084 0.20 2
  352.3519 0.11 1
  356.2289 0.01 0
  358.2428 0.04 0
  360.0874 0.08 1
  360.3649 0.02 0
  361.0905 0.11 1
  361.2419 0.15 1
  363.0522 0.04 0
  363.2366 0.09 1
  365.2762 0.14 1
  366.1623 0.16 2
  367.4853 0.04 0
  368.2498 0.09 1
  372.0283 0.10 1
  372.8972 0.07 1
  375.3004 0.13 1
  375.7483 0.11 1
  376.2247 0.09 1
  377.1232 0.11 1
  378.0006 0.05 0
  378.1497 0.10 1
  378.3346 0.05 0
  378.9543 0.06 1
  380.2740 0.11 1
  382.0660 0.11 1
  384.1906 0.11 1
  384.6496 0.03 0
  388.1541 0.21 2
  388.2549 0.05 0
  388.9822 0.09 1
  389.1056 0.07 1
  389.2336 0.14 1
  389.3305 0.08 1
  389.5581 0.06 1
  390.0791 0.06 1
  390.2622 0.25 2
  391.1250 0.14 1
  391.3613 0.08 1
  392.0138 0.05 0
  392.2561 0.18 2
  392.9564 0.11 1
  394.2815 0.07 1
  399.3795 0.01 0
  400.3654 0.17 2
  401.2566 0.07 1
  402.1166 0.08 1
  402.7101 0.13 1
  402.9489 0.13 1
  403.2944 0.35 3
  403.6440 0.05 0
  403.7852 0.04 0
  403.9862 0.18 2
  404.2734 0.29 3
  404.7145 0.15 1
  404.8757 0.32 3
  405.2471 4.91 49
  405.5961 0.04 0
  405.8647 0.11 1
  406.0299 0.10 1
  406.3099 0.17 2
  406.7789 0.03 0
  407.6434 0.01 0
  408.0137 0.09 1
  408.1689 0.21 2
  408.3594 0.17 2
  409.0734 0.03 0
  409.5379 0.08 1
  409.8100 0.03 0
  411.2104 0.10 1
  411.8636 0.08 1
  412.0620 0.11 1
  412.2233 0.09 1
  413.0471 0.06 1
  413.4216 0.10 1
  414.2656 0.05 0
  415.9185 0.03 0
  416.7519 0.10 1
  417.3819 0.08 1
  418.1452 0.09 1
  418.2791 0.09 1
  418.3660 0.11 1
  419.1725 0.16 2
  419.2580 0.11 1
  419.8012 0.01 0
  420.2151 0.12 1
  428.1093 0.11 1
  428.2500 0.07 1
  429.0732 0.19 2
  429.2690 0.18 2
  430.1845 0.15 1
  430.3239 0.05 0
  431.2454 0.22 2
  433.4227 0.10 1
  434.2456 0.12 1
  437.7009 0.01 0
  439.2807 0.10 1
  440.2774 0.09 1
  442.1021 0.06 1
  442.2756 0.12 1
  443.1967 0.07 1
  443.8613 0.10 1
  445.0837 0.05 0
  446.7443 0.09 1
  447.1285 0.04 0
  447.3599 0.09 1
  447.4829 0.11 1
  447.7317 0.09 1
  447.8418 0.04 0
  447.9824 0.13 1
  448.3239 1.60 16
  448.6223 0.06 1
  448.9878 0.11 1
  453.2012 0.09 1
  456.2201 0.10 1
  456.4026 0.09 1
  457.2341 0.35 3
  457.4292 0.12 1
  458.1997 0.10 1
  458.3809 0.10 1
  458.6218 0.04 0
  459.0008 0.03 0
  459.3851 0.23 2
  459.4840 0.17 2
  461.3220 0.04 0
  462.3185 0.11 1
  467.3914 0.10 1
  468.8233 0.01 0
  470.0893 0.11 1
  471.2053 0.04 0
  471.8882 0.11 1
  472.1300 0.07 1
  472.2562 0.13 1
  472.5054 0.23 2
  473.3086 0.41 4
  473.5079 0.18 2
  473.7863 0.10 1
  474.1338 0.12 1
  474.3597 0.10 1
  474.5104 0.10 1
  475.2568 0.10 1
  475.5529 0.01 0
  482.3250 0.09 1
  483.1986 0.05 0
  483.3176 0.13 1
  484.1673 0.10 1
  484.3813 0.10 1
  485.2544 0.25 2
  485.5241 0.01 0
  486.0159 0.09 1
  486.4504 0.10 1
  487.0146 0.11 1
  487.3675 0.06 1
  487.7855 0.12 1
  488.4813 0.10 1
  489.4251 0.08 1
  490.0605 0.07 1
  498.0598 0.08 1
  499.3160 0.13 1
  499.5069 0.05 0
  500.3044 0.08 1
  501.3421 0.05 0
  507.3548 0.01 0
  509.0608 0.10 1
  509.8242 0.01 0
  511.7249 0.07 1
  512.1851 0.09 1
  512.4958 0.10 1
  513.2460 0.13 1
  515.3610 0.11 1
  516.5046 0.05 0
  518.1543 0.06 1
  519.1625 0.12 1
  520.4771 0.09 1
  520.8138 0.11 1
  520.9952 0.01 0
  521.1739 0.21 2
  521.6667 0.13 1
  521.8256 0.17 2
  522.1298 0.01 0
  522.2946 0.14 1
  522.3876 0.16 2
  522.8393 0.22 2
  522.9821 0.10 1
  523.1456 0.11 1
  523.3236 0.14 1
  523.5568 0.17 2
  523.7308 0.16 2
  523.8245 0.14 1
  524.0730 0.22 2
  524.3481 0.26 3
  524.5168 0.31 3
  524.6836 0.12 1
  524.8384 0.13 1
  524.9693 0.10 1
  525.2211 0.18 2
  525.4650 0.12 1
  525.5673 0.24 2
  525.6231 0.12 1
  525.7979 0.22 2
  526.1832 0.22 2
  526.3560 0.16 2
  526.6244 0.28 3
  527.0344 0.69 7
  527.3148 1.12 11
  527.5746 0.23 2
  527.7627 0.10 1
  527.8723 0.12 1
  528.1840 0.07 1
  528.3561 0.12 1
  528.4810 0.10 1
  528.6006 0.07 1
  528.7090 0.04 0
  528.9542 0.15 1
  529.2014 0.23 2
  529.4420 0.18 2
  529.5729 0.05 0
  529.7716 0.22 2
  529.9690 0.30 3
  530.1551 0.19 2
  530.2687 0.03 0
  530.3777 0.01 0
  530.4967 0.10 1
  530.7712 0.27 3
  531.2630 0.21 2
  531.4484 0.07 1
  531.5721 0.11 1
  531.7349 0.09 1
  531.8958 0.04 0
  532.1131 0.14 1
  532.2301 0.08 1
  532.3344 0.11 1
  532.4421 0.19 2
  532.8881 0.07 1
  533.1055 0.31 3
  533.2058 0.12 1
  533.4783 0.09 1
  533.5967 0.24 2
  533.8612 0.23 2
  533.9736 0.15 1
  534.0986 0.16 2
  534.2235 0.18 2
  534.3325 0.18 2
  534.4216 0.07 1
  534.5333 0.08 1
  534.6350 0.08 1
  534.8856 0.15 1
  535.0910 0.32 3
  535.2426 0.11 1
  535.3277 0.10 1
  535.4613 0.18 2
  535.6534 0.35 3
  535.7937 0.20 2
  536.0416 0.09 1
  536.2012 0.24 2
  536.4013 0.29 3
  536.6619 0.39 4
  536.8633 0.18 2
  537.0555 0.40 4
  537.3088 0.28 3
  537.5056 0.33 3
  537.7695 0.47 5
  538.1458 0.40 4
  538.4636 0.90 9
  538.9437 0.91 9
  542.3987 99.97 999
  542.8615 12.00 120
  543.7158 3.85 38
  544.3394 2.30 23
  544.5948 1.31 13
  544.9404 1.36 14
  545.1812 1.03 10
  545.5453 0.50 5
  545.8353 0.67 7
  546.0383 0.28 3
  546.2339 0.29 3
  546.5166 0.41 4
  546.7322 0.22 2
//
