ACCESSION: MSBNK-Kyoto_Univ-CA000138
RECORD_TITLE: 7,8,7',8'-Tetradehydroastaxanthin; FAB-EBEB; MS2; m/z: 592.36; [M]*+
DATE: 2016.01.19 (Created 2007.03.15, modified 2011.05.10)
AUTHORS: Akimoto N, Graduate School of Pharmaceutical Sciences, Kyoto University and Maoka T, Research Institute for Production Development
LICENSE: CC BY-SA
COMMENT: Profile spectrum of this record is given as a JPEG file.
COMMENT: [Profile] CA000138.jpg
CH$NAME: 7,8,7',8'-Tetradehydroastaxanthin
CH$COMPOUND_CLASS: Natural Product; Carotenoid
CH$FORMULA: C40H48O4
CH$EXACT_MASS: 592.35526
CH$SMILES: C(C=CC=C(C=CC=C(C#CC(C(C)(C)2)=C(C)C(=O)C(O)C2)C)C)=C(C=CC=C(C#CC(C(C)(C)1)=C(C)C(=O)C(O)C1)C)C
CH$IUPAC: InChI=1S/C40H48O4/c1-27(17-13-19-29(3)21-23-33-31(5)37(43)35(41)25-39(33,7)8)15-11-12-16-28(2)18-14-20-30(4)22-24-34-32(6)38(44)36(42)26-40(34,9)10/h11-20,35-36,41-42H,25-26H2,1-10H3/b12-11+,17-13+,18-14+,27-15+,28-16+,29-19+,30-20+/t35-,36-/m0/s1
CH$LINK: CHEMSPIDER 10189509
CH$LINK: INCHIKEY NNUVZGQKBVLNIO-JKISVVIKSA-N
AC$INSTRUMENT: JMS-HX/HX 110A, JEOL
AC$INSTRUMENT_TYPE: FAB-EBEB
AC$MASS_SPECTROMETRY: MS_TYPE MS2
AC$MASS_SPECTROMETRY: ION_MODE POSITIVE
AC$MASS_SPECTROMETRY: ATOM_GUN_CURRENT 5 mA
AC$MASS_SPECTROMETRY: BOMBARDMENT 6 kV xenon
AC$MASS_SPECTROMETRY: COLLISION_ENERGY 3 kV
AC$MASS_SPECTROMETRY: COLLISION_GAS Ar
AC$MASS_SPECTROMETRY: GAS_PRESSURE adjust to attenuate the intensity of the precursor ion by 30 %
AC$MASS_SPECTROMETRY: IONIZATION FAB
AC$MASS_SPECTROMETRY: MATRIX 1-2 uL m-NBA
AC$MASS_SPECTROMETRY: PROBE_TIP stainless-steel
MS$FOCUSED_ION: BASE_PEAK 592.2772
MS$FOCUSED_ION: PRECURSOR_M/Z 592.36
MS$FOCUSED_ION: PRECURSOR_TYPE [M]+*
PK$SPLASH: splash10-0006-4952130000-eeec22e905d538587ffa
PK$NUM_PEAK: 1882
PK$PEAK: m/z int. rel.int.
  0.0171 0.01 0
  0.1641 0.01 0
  0.2420 0.01 0
  1.2972 0.01 0
  3.6454 0.15 1
  4.5149 0.02 0
  4.6193 0.01 0
  5.0211 0.04 0
  6.4758 0.01 0
  6.7000 0.01 0
  6.9646 0.01 0
  10.1939 0.02 0
  11.4281 0.01 0
  11.9620 0.05 0
  12.8700 0.01 0
  13.9653 0.03 0
  14.0377 0.01 0
  14.9692 0.68 7
  18.9266 0.02 0
  19.8744 0.01 0
  22.4370 0.08 1
  22.9193 0.83 8
  23.6428 0.01 0
  23.9378 0.11 1
  24.9410 0.13 1
  25.9425 1.15 11
  26.4184 0.01 0
  26.9444 5.32 53
  27.1654 0.07 1
  27.4926 0.01 0
  27.9568 0.36 4
  28.9467 4.32 43
  29.9194 0.29 3
  30.9207 0.99 10
  31.2786 0.01 0
  35.9155 0.10 1
  36.1083 0.05 0
  36.7132 0.11 1
  36.9231 1.17 12
  37.9209 2.38 24
  38.1279 0.12 1
  38.6562 0.03 0
  38.9271 15.37 154
  39.1053 0.05 0
  39.1884 0.02 0
  39.3626 0.03 0
  39.9308 1.24 12
  40.3311 0.02 0
  40.6816 0.06 1
  40.9402 20.15 201
  41.9340 0.62 6
  42.9263 21.74 217
  43.1735 0.01 0
  43.9241 0.36 4
  44.0326 0.07 1
  44.9250 0.90 9
  45.1767 0.01 0
  46.9339 0.05 0
  47.1009 0.01 0
  47.7876 0.06 1
  47.8938 0.14 1
  48.9227 0.64 6
  49.0845 0.06 1
  49.9121 6.32 63
  50.2009 0.06 1
  50.9195 13.51 135
  51.6299 0.04 0
  51.7391 0.03 0
  51.9264 4.01 40
  52.9285 13.63 136
  53.9378 0.64 6
  54.1629 0.01 0
  54.9369 17.28 173
  55.9401 0.35 3
  56.9431 6.07 61
  57.6099 0.08 1
  57.9089 0.26 3
  58.3756 0.05 0
  58.9413 1.13 11
  59.2697 0.01 0
  59.9385 0.12 1
  60.1161 0.08 1
  60.9186 1.95 19
  61.0703 0.10 1
  61.5327 0.04 0
  61.9170 6.04 60
  62.1505 0.09 1
  62.4239 0.02 0
  62.9185 14.90 149
  63.1995 0.15 1
  63.2729 0.04 0
  63.4629 0.09 1
  63.6857 0.17 2
  63.9198 3.10 31
  64.1008 0.15 1
  64.4204 0.11 1
  64.5437 0.15 1
  64.9242 13.20 132
  65.1009 0.09 1
  65.9270 1.99 20
  66.7292 0.10 1
  66.9367 10.50 105
  67.9378 0.47 5
  68.2862 0.10 1
  68.4286 0.08 1
  68.9352 13.06 131
  69.4416 0.04 0
  69.7828 0.11 1
  69.9334 0.53 5
  70.5241 0.01 0
  70.9278 5.07 51
  71.4263 0.10 1
  71.8092 0.06 1
  71.9274 0.10 1
  72.0189 0.07 1
  72.1835 0.01 0
  72.5396 0.03 0
  72.6737 0.06 1
  72.8927 0.46 5
  73.2787 0.11 1
  73.5366 0.05 0
  73.9013 6.12 61
  74.2047 0.04 0
  74.8994 6.21 62
  75.0930 0.11 1
  75.4274 0.11 1
  75.9094 3.21 32
  76.4521 0.24 2
  76.6026 0.04 0
  76.9092 30.39 304
  77.1978 0.26 3
  77.3687 0.15 1
  77.4713 0.09 1
  77.6536 0.18 2
  77.9168 6.32 63
  78.1549 0.05 0
  78.3121 0.06 1
  78.4351 0.23 2
  78.6339 0.10 1
  78.9222 16.26 162
  79.4147 0.12 1
  79.9140 1.01 10
  80.5418 0.05 0
  80.9313 18.64 186
  81.3050 0.22 2
  81.9258 0.86 9
  82.3574 0.06 1
  82.9118 7.82 78
  83.1377 0.09 1
  83.8890 0.19 2
  84.0308 0.07 1
  84.4234 0.09 1
  84.5859 0.10 1
  84.9224 8.12 81
  85.5898 0.09 1
  85.8953 2.84 28
  86.1786 0.07 1
  86.8984 4.51 45
  87.2358 0.01 0
  87.8969 1.74 17
  88.0723 0.17 2
  88.3766 0.19 2
  88.5134 0.18 2
  88.8972 7.63 76
  89.2259 0.31 3
  89.3672 0.17 2
  89.5469 0.20 2
  89.9024 2.68 27
  90.0708 0.36 4
  90.3155 0.36 4
  90.4572 0.12 1
  90.9168 39.26 392
  91.3878 0.11 1
  91.5311 0.06 1
  91.9268 3.11 31
  92.2205 0.11 1
  92.4831 0.11 1
  92.9264 13.86 139
  93.5848 0.03 0
  93.9196 0.96 10
  94.3353 0.10 1
  94.9426 5.02 50
  95.9449 0.33 3
  96.0921 0.01 0
  96.4113 0.17 2
  96.9202 1.36 14
  97.0993 0.10 1
  97.4576 0.11 1
  97.8808 1.80 18
  98.4249 0.04 0
  98.9136 0.97 10
  99.8887 0.47 5
  100.2978 0.07 1
  100.4937 0.11 1
  100.9120 2.32 23
  101.2019 0.20 2
  101.4182 0.10 1
  101.5126 0.07 1
  101.9242 4.55 45
  102.1427 0.05 0
  102.4614 0.11 1
  102.5717 0.13 1
  102.9265 9.16 92
  103.3330 0.12 1
  103.6424 0.08 1
  103.9351 2.88 29
  104.3021 0.03 0
  104.4549 0.06 1
  104.9362 29.34 293
  105.2629 0.16 2
  105.4651 0.11 1
  105.6018 0.02 0
  105.9441 1.62 16
  106.1131 0.12 1
  106.2778 0.06 1
  106.4374 0.08 1
  106.9527 7.68 77
  107.2199 0.14 1
  107.2844 0.07 1
  107.4267 0.16 2
  107.9426 1.00 10
  108.2640 0.18 2
  108.4952 0.02 0
  108.9478 3.96 40
  109.3172 0.03 0
  109.4894 0.10 1
  109.9155 0.95 9
  110.9139 1.98 20
  111.3976 0.10 1
  111.6891 0.07 1
  111.8911 0.35 3
  112.2210 0.12 1
  112.3737 0.11 1
  112.5791 0.25 2
  112.6688 0.15 1
  112.9151 2.08 21
  113.2615 0.37 4
  113.4278 0.21 2
  113.8783 1.52 15
  114.3267 0.42 4
  114.9088 29.33 293
  115.1707 0.17 2
  115.3822 0.22 2
  115.5011 0.03 0
  115.9096 8.77 88
  116.1591 0.17 2
  116.3338 0.28 3
  116.5111 0.36 4
  116.9216 15.86 158
  117.1567 0.16 2
  117.4580 0.21 2
  117.9223 2.30 23
  118.1834 0.14 1
  118.3510 0.16 2
  118.4890 0.12 1
  118.5828 0.10 1
  118.9251 18.22 182
  119.2915 0.20 2
  119.4290 0.14 1
  119.8921 1.10 11
  120.1109 0.13 1
  120.3910 0.21 2
  120.5706 0.16 2
  120.9140 4.84 48
  121.1802 0.12 1
  121.3987 0.01 0
  121.9006 1.25 12
  122.2239 0.05 0
  122.9002 2.19 22
  123.5835 0.06 1
  123.8998 1.26 13
  124.1387 0.12 1
  124.2157 0.06 1
  124.3601 0.03 0
  124.6081 0.24 2
  124.9016 2.70 27
  125.2094 0.10 1
  125.2917 0.11 1
  125.4499 0.21 2
  125.5913 0.11 1
  125.8962 3.09 31
  126.1999 0.15 1
  126.3901 0.21 2
  126.8882 13.73 137
  127.1014 0.38 4
  127.4485 0.65 6
  127.8927 33.68 337
  128.1913 0.26 3
  128.3364 0.21 2
  128.8919 24.72 247
  129.2958 0.08 1
  129.5142 0.20 2
  129.9034 7.89 79
  130.1559 0.10 1
  130.2687 0.18 2
  130.4495 0.15 1
  130.9052 13.24 132
  131.1488 0.12 1
  131.3245 0.35 3
  131.4519 0.11 1
  131.9141 3.70 37
  132.3908 0.34 3
  132.5721 0.09 1
  132.9065 5.98 60
  133.1586 0.34 3
  133.3197 0.10 1
  133.4638 0.28 3
  133.9015 1.58 16
  134.0850 0.13 1
  134.4437 0.18 2
  134.9088 5.03 50
  135.5127 0.03 0
  135.8778 1.25 12
  136.1130 0.11 1
  136.2655 0.13 1
  136.4587 0.20 2
  136.8765 1.87 19
  137.3892 0.15 1
  137.8832 0.99 10
  138.0551 0.30 3
  138.1757 0.13 1
  138.4084 0.20 2
  138.8890 8.67 87
  139.2070 0.13 1
  139.2650 0.06 1
  139.4610 0.10 1
  139.8802 1.92 19
  140.4046 0.57 6
  140.8936 26.22 262
  141.2711 0.13 1
  141.4556 0.14 1
  141.8988 16.35 163
  142.3528 0.26 3
  142.5289 0.19 2
  142.9038 21.36 213
  143.2874 0.29 3
  143.3927 0.20 2
  143.9085 5.95 59
  144.1485 0.19 2
  144.4709 0.19 2
  144.9102 9.33 93
  145.1572 0.12 1
  145.4447 0.33 3
  145.8832 1.63 16
  146.1377 0.11 1
  146.5704 0.05 0
  146.9062 3.57 36
  147.2735 0.10 1
  147.4538 0.04 0
  147.9171 0.89 9
  148.1228 0.12 1
  148.4079 0.07 1
  148.8823 2.91 29
  149.1169 0.18 2
  149.2255 0.13 1
  149.3735 0.11 1
  149.5129 0.16 2
  149.8957 2.49 25
  150.1325 0.16 2
  150.4061 0.40 4
  150.8854 6.09 61
  151.1312 0.60 6
  151.3469 0.20 2
  151.8935 18.87 189
  152.1602 0.49 5
  152.9011 19.16 191
  153.4478 0.31 3
  153.9037 7.92 79
  154.1910 0.11 1
  154.2955 0.15 1
  154.9126 21.38 214
  155.1767 0.20 2
  155.3798 0.20 2
  155.5367 0.09 1
  155.9217 10.77 108
  156.4363 0.31 3
  156.9276 15.21 152
  157.2802 0.20 2
  157.4541 0.37 4
  157.9332 3.58 36
  158.3815 0.16 2
  158.9275 6.84 68
  159.2786 0.21 2
  159.3869 0.14 1
  159.5444 0.20 2
  159.9280 1.64 16
  160.2310 0.15 1
  160.3872 0.13 1
  160.4875 0.15 1
  160.6849 0.25 2
  160.9415 2.47 25
  161.3634 0.05 0
  161.6013 0.16 2
  161.9175 1.31 13
  162.2054 0.28 3
  162.3848 0.21 2
  162.4799 0.19 2
  162.9050 5.39 54
  163.1230 0.47 5
  163.4747 0.32 3
  163.9258 4.24 42
  164.2351 0.73 7
  164.3567 0.53 5
  164.5013 0.72 7
  164.9223 36.33 363
  165.2225 0.29 3
  165.5267 0.53 5
  165.9326 10.63 106
  166.2465 0.09 1
  166.9409 18.10 181
  167.2354 0.19 2
  167.4582 0.33 3
  167.9581 6.92 69
  168.1987 0.44 4
  168.3003 0.14 1
  168.5179 0.10 1
  168.9572 15.99 160
  169.2529 0.17 2
  169.4706 0.19 2
  169.9636 5.17 52
  170.1943 0.13 1
  170.4711 0.45 4
  170.9599 10.15 101
  171.3147 0.21 2
  171.4610 0.19 2
  171.5850 0.11 1
  171.9664 2.88 29
  172.1765 0.31 3
  172.3784 0.17 2
  172.5668 0.20 2
  172.6523 0.10 1
  172.9669 4.09 41
  173.2435 0.16 2
  173.4111 0.10 1
  173.9409 1.54 15
  174.4533 0.16 2
  174.9299 2.13 21
  175.3598 0.35 3
  175.9285 5.99 60
  176.3899 0.24 2
  176.9216 4.83 48
  177.9338 22.03 220
  178.9242 24.99 250
  179.4111 0.20 2
  179.9384 8.72 87
  180.2451 0.15 1
  180.3814 0.23 2
  180.9411 16.73 167
  181.4028 0.19 2
  181.9431 5.22 52
  182.3115 0.30 3
  182.5122 0.22 2
  182.9457 11.03 110
  183.3588 0.22 2
  183.4988 0.27 3
  183.9579 2.59 26
  184.3815 0.30 3
  184.5359 0.12 1
  184.9379 4.07 41
  185.2742 0.25 2
  185.4678 0.29 3
  185.6196 0.24 2
  185.9322 2.66 27
  186.2455 0.37 4
  186.4186 0.06 1
  186.9155 4.35 43
  187.1338 0.19 2
  187.3187 0.14 1
  187.5035 0.16 2
  187.9178 2.31 23
  188.2329 0.56 6
  188.9126 16.30 163
  189.2827 0.39 4
  189.4473 0.17 2
  189.9272 6.73 67
  190.2832 0.41 4
  190.4231 0.53 5
  190.9129 15.55 155
  191.2574 0.11 1
  191.4489 0.18 2
  191.9294 11.62 116
  192.1841 0.39 4
  192.3956 0.30 3
  192.9300 18.35 183
  193.4515 0.29 3
  193.6061 0.22 2
  193.9470 7.93 79
  194.3306 0.35 3
  194.4963 0.12 1
  194.9406 13.83 138
  195.2006 0.35 3
  195.2976 0.18 2
  195.5019 0.30 3
  195.9595 4.17 42
  196.3449 0.12 1
  196.4667 0.16 2
  196.9431 8.29 83
  197.2792 0.15 1
  197.4410 0.34 3
  197.9363 3.74 37
  198.1533 0.28 3
  198.3786 0.41 4
  198.9444 3.36 34
  199.2119 0.23 2
  199.3498 0.21 2
  199.9215 3.25 32
  200.3815 0.13 1
  200.9225 2.96 30
  201.1619 0.61 6
  201.9129 15.23 152
  202.2112 0.45 4
  202.4440 0.32 3
  202.9212 15.58 156
  203.3026 0.14 1
  203.4290 0.16 2
  203.9197 4.98 50
  204.2998 0.51 5
  204.5086 0.49 5
  204.9297 12.41 124
  205.3170 0.31 3
  205.4270 0.12 1
  205.9347 9.29 93
  206.3444 0.20 2
  206.9479 14.17 142
  207.3813 0.15 1
  207.9408 5.30 53
  208.3113 0.36 4
  208.9577 10.92 109
  209.3285 0.49 5
  209.5198 0.26 3
  209.6217 0.28 3
  209.9530 3.13 31
  210.3059 0.29 3
  210.5465 0.43 4
  210.9432 5.57 56
  211.2366 0.27 3
  211.4559 0.12 1
  211.5925 0.23 2
  211.9631 2.08 21
  212.2927 0.23 2
  212.9265 7.00 70
  213.3188 0.20 2
  213.5014 0.33 3
  213.9542 1.90 19
  214.1904 0.38 4
  214.4023 0.40 4
  214.9345 15.85 158
  215.4064 0.28 3
  215.9501 6.11 61
  216.2275 0.35 3
  216.3603 0.25 2
  216.9403 10.55 105
  217.2631 0.15 1
  217.5386 0.21 2
  217.9589 5.41 54
  218.4565 0.38 4
  218.9674 11.25 112
  219.2167 0.31 3
  219.4883 0.44 4
  219.9806 7.08 71
  220.2105 0.44 4
  220.4634 0.37 4
  220.9776 9.90 99
  221.4250 0.25 2
  221.9785 3.83 38
  222.9902 6.61 66
  223.3557 0.16 2
  223.9940 3.67 37
  224.4086 0.12 1
  224.9976 5.08 51
  225.2796 0.39 4
  225.4570 0.16 2
  225.9583 6.13 61
  226.3299 0.26 3
  226.9914 6.18 62
  227.3386 0.60 6
  227.9690 5.97 60
  228.2744 0.30 3
  228.4296 0.36 4
  228.9840 11.69 117
  229.5001 0.39 4
  230.0036 5.06 51
  230.2457 0.47 5
  230.9915 11.43 114
  231.4016 0.14 1
  231.5080 0.22 2
  231.6333 0.23 2
  232.0026 5.09 51
  232.2937 0.32 3
  232.9898 8.65 86
  233.4011 0.48 5
  234.0102 4.39 44
  234.4860 0.21 2
  235.0185 7.91 79
  235.4295 0.33 3
  235.5707 0.12 1
  236.0216 2.53 25
  236.3467 0.10 1
  236.5376 0.49 5
  236.9879 6.33 63
  237.4006 0.34 3
  237.8176 1.01 10
  238.0421 1.69 17
  238.2996 0.32 3
  238.9708 9.41 94
  239.4055 0.31 3
  239.9746 3.08 31
  240.1994 0.62 6
  240.4802 0.43 4
  240.9943 5.98 60
  241.9877 3.27 33
  242.2393 0.33 3
  242.4817 0.32 3
  242.9857 8.78 88
  243.2871 0.14 1
  243.4960 0.45 4
  243.9994 3.80 38
  244.3872 0.23 2
  245.0072 8.96 90
  245.3790 0.58 6
  246.0042 4.04 40
  246.3066 0.27 3
  246.5102 0.48 5
  247.0092 7.95 79
  247.2661 0.24 2
  247.4318 0.29 3
  247.5638 0.48 5
  248.0090 2.80 28
  248.4310 0.28 3
  249.0034 4.89 49
  249.3223 0.34 3
  249.4734 0.17 2
  249.9659 3.01 30
  250.3419 0.18 2
  250.9772 3.56 36
  251.3463 0.26 3
  251.4574 0.27 3
  251.9727 5.28 53
  252.5859 0.46 5
  252.9882 6.22 62
  253.4053 0.35 3
  253.9857 2.38 24
  254.1511 0.52 5
  254.3221 0.18 2
  254.4642 0.29 3
  254.9745 5.67 57
  255.2835 0.21 2
  255.4996 0.33 3
  255.9966 3.29 33
  256.5191 0.23 2
  257.0198 7.18 72
  257.2860 0.16 2
  257.4241 0.15 1
  258.0172 3.12 31
  258.3144 0.21 2
  258.4580 0.12 1
  258.9941 5.38 54
  259.2561 0.30 3
  259.4308 0.47 5
  259.9945 3.19 32
  260.2785 0.17 2
  260.4843 0.36 4
  261.0143 4.71 47
  261.3182 0.42 4
  261.7891 0.46 5
  262.0556 2.37 24
  262.3631 0.27 3
  262.9907 5.93 59
  263.2884 0.13 1
  263.4337 0.28 3
  263.5445 0.13 1
  263.9854 1.82 18
  264.3022 0.46 5
  264.5971 0.46 5
  265.0121 5.02 50
  265.4094 0.21 2
  265.5534 0.28 3
  265.9890 2.40 24
  266.3286 0.12 1
  266.5220 0.21 2
  267.0036 5.08 51
  267.5495 0.31 3
  267.9874 2.48 25
  268.3639 0.30 3
  268.9962 5.78 58
  269.4032 0.23 2
  269.6584 0.39 4
  270.0061 3.27 33
  270.3722 0.28 3
  271.0155 5.57 56
  271.3584 0.12 1
  271.6087 0.14 1
  272.0110 2.72 27
  272.4297 0.06 1
  272.5507 0.14 1
  273.0253 4.70 47
  273.3486 0.16 2
  273.9634 2.07 21
  274.3625 0.59 6
  275.0016 4.28 43
  275.3668 0.27 3
  275.9784 3.87 39
  276.3261 0.06 1
  276.4801 0.30 3
  277.0015 3.07 31
  277.3082 0.12 1
  277.4693 0.19 2
  277.9879 2.30 23
  278.4834 0.21 2
  279.0093 4.33 43
  279.4264 0.17 2
  279.6357 0.49 5
  279.9927 1.91 19
  280.5089 0.40 4
  281.0160 5.64 56
  281.4482 0.28 3
  281.5423 0.18 2
  281.6710 0.38 4
  282.0332 2.03 20
  282.2809 0.30 3
  282.5483 0.30 3
  283.0210 4.35 43
  283.2722 0.27 3
  283.5008 0.07 1
  283.7259 0.47 5
  284.0415 2.19 22
  284.3034 0.24 2
  285.0142 4.28 43
  285.3626 0.09 1
  285.5212 0.10 1
  285.9879 2.03 20
  286.4404 0.28 3
  287.0099 4.20 42
  287.4867 0.28 3
  288.0124 1.99 20
  288.5289 0.41 4
  289.0016 4.91 49
  289.4949 0.12 1
  290.0266 2.47 25
  290.1563 1.11 11
  290.9823 3.82 38
  291.5595 0.43 4
  291.7006 0.17 2
  292.0297 1.77 18
  292.3950 0.21 2
  292.9791 3.47 35
  293.3633 0.14 1
  293.9701 1.35 13
  294.3899 0.27 3
  294.6104 0.34 3
  295.0401 4.55 45
  295.2869 0.34 3
  295.4926 0.34 3
  296.0622 2.41 24
  296.2317 0.45 4
  296.4133 0.11 1
  296.6524 0.37 4
  297.0433 3.31 33
  297.5010 0.22 2
  297.6188 0.30 3
  297.7529 0.34 3
  298.0424 1.69 17
  298.3093 0.16 2
  298.6116 0.40 4
  299.0325 3.45 34
  299.3974 0.26 3
  299.5798 0.14 1
  300.0222 2.22 22
  300.2444 0.55 5
  300.4212 0.20 2
  301.0092 2.92 29
  301.4658 0.20 2
  301.6050 0.15 1
  301.9921 2.27 23
  302.3125 0.34 3
  302.9817 3.18 32
  303.3675 0.24 2
  303.9537 1.62 16
  304.2714 0.11 1
  305.0048 3.09 31
  305.6403 0.37 4
  306.0022 0.96 10
  306.3178 0.26 3
  306.5389 0.09 1
  306.6861 0.24 2
  307.0395 3.64 36
  307.4427 0.14 1
  307.6042 0.21 2
  308.0081 1.80 18
  308.2222 0.44 4
  308.3759 0.14 1
  308.5352 0.24 2
  309.0139 3.14 31
  309.2224 0.30 3
  309.3633 0.14 1
  309.5582 0.19 2
  310.0114 1.17 12
  310.2498 0.36 4
  310.4170 0.17 2
  310.5444 0.24 2
  310.9878 2.56 26
  311.3387 0.30 3
  311.6091 0.30 3
  311.8034 0.79 8
  312.0540 1.15 11
  312.2633 0.28 3
  312.4456 0.24 2
  312.6762 0.54 5
  313.0101 3.51 35
  313.4409 0.31 3
  313.5933 0.29 3
  313.9992 2.06 21
  314.2883 0.32 3
  315.0169 3.33 33
  315.3773 0.28 3
  315.5505 0.14 1
  315.9772 1.57 16
  316.2280 0.23 2
  316.4182 0.34 3
  316.9989 2.92 29
  317.3474 0.12 1
  317.9902 1.63 16
  318.3523 0.12 1
  318.5561 0.25 2
  319.0145 2.50 25
  319.3032 0.19 2
  319.9919 1.13 11
  320.3662 0.11 1
  320.5580 0.29 3
  321.0429 2.20 22
  321.4459 0.34 3
  321.6442 0.23 2
  322.0350 1.37 14
  322.3995 0.23 2
  322.5679 0.31 3
  323.0280 2.03 20
  323.5196 0.12 1
  323.9855 1.48 15
  324.2060 0.26 3
  324.4443 0.28 3
  324.5421 0.12 1
  325.0152 2.31 23
  325.3964 0.27 3
  325.5305 0.11 1
  326.0195 1.22 12
  326.4663 0.14 1
  327.0061 3.13 31
  327.4238 0.14 1
  327.5666 0.27 3
  327.7444 0.17 2
  327.9843 1.10 11
  328.1507 0.44 4
  328.5399 0.32 3
  329.0134 2.22 22
  329.2962 0.36 4
  330.0348 1.66 17
  330.4206 0.06 1
  330.5591 0.16 2
  331.0193 2.36 24
  331.6452 0.24 2
  331.9717 0.91 9
  332.3291 0.19 2
  333.0302 2.92 29
  333.5226 0.27 3
  334.0152 1.13 11
  334.5006 0.25 2
  335.0540 2.15 21
  335.3929 0.16 2
  335.9821 0.62 6
  336.2817 0.13 1
  336.3876 0.15 1
  336.4856 0.06 1
  337.0588 1.70 17
  337.5049 0.05 0
  338.0260 0.53 5
  338.2594 0.27 3
  338.5064 0.39 4
  339.0576 1.50 15
  339.2882 0.32 3
  339.4789 0.20 2
  339.6609 0.14 1
  340.0244 0.86 9
  340.2915 0.04 0
  340.5036 0.22 2
  341.0250 1.90 19
  341.9514 0.67 7
  342.2564 0.11 1
  342.4193 0.24 2
  342.6558 0.24 2
  343.0566 1.72 17
  343.3517 0.12 1
  344.0576 0.87 9
  344.3578 0.18 2
  344.6000 0.11 1
  345.0310 2.38 24
  345.3805 0.13 1
  345.6013 0.13 1
  345.7472 0.30 3
  346.0660 1.08 11
  346.5399 0.26 3
  347.0439 3.67 37
  347.4565 0.20 2
  347.6803 0.26 3
  348.0785 1.32 13
  348.5591 0.24 2
  349.0604 2.47 25
  349.4716 0.25 2
  349.6361 0.28 3
  349.8106 0.14 1
  350.0746 0.87 9
  350.2670 0.25 2
  350.4587 0.25 2
  351.0096 1.39 14
  351.1798 0.56 6
  351.3136 0.32 3
  351.4517 0.06 1
  351.6041 0.21 2
  352.0169 0.84 8
  352.1858 0.54 5
  352.2795 0.27 3
  352.3847 0.10 1
  352.5951 0.28 3
  353.0258 1.24 12
  353.3386 0.12 1
  353.4481 0.16 2
  353.6084 0.08 1
  353.9842 0.71 7
  354.1867 0.45 4
  354.4938 0.23 2
  354.7200 0.22 2
  355.0628 0.87 9
  355.4100 0.13 1
  355.6119 0.20 2
  355.7888 0.36 4
  356.0479 0.69 7
  356.2212 0.24 2
  356.5878 0.27 3
  356.7102 0.48 5
  357.0367 1.85 18
  357.3189 0.13 1
  357.5344 0.15 1
  357.7099 0.14 1
  357.8323 0.21 2
  358.0436 0.80 8
  358.2305 0.62 6
  358.3194 0.18 2
  358.4268 0.11 1
  358.5328 0.12 1
  358.6295 0.15 1
  359.0428 1.82 18
  359.2240 0.95 9
  359.5793 0.40 4
  360.0771 1.54 15
  360.4325 0.14 1
  360.5658 0.29 3
  361.0558 2.48 25
  361.3647 0.13 1
  361.5667 0.21 2
  361.7588 0.21 2
  362.1278 0.96 10
  362.3077 0.28 3
  362.4818 0.08 1
  362.6861 0.12 1
  363.0917 1.47 15
  363.5010 0.13 1
  363.5934 0.08 1
  363.7992 0.15 1
  364.1410 0.67 7
  364.2835 0.30 3
  364.4611 0.22 2
  365.0929 1.12 11
  365.2404 0.37 4
  365.8422 0.19 2
  366.1037 0.60 6
  366.2806 0.16 2
  366.5593 0.10 1
  366.7141 0.10 1
  367.0394 1.39 14
  367.1612 0.67 7
  367.5345 0.15 1
  367.6384 0.20 2
  367.7530 0.16 2
  368.1063 0.63 6
  368.3793 0.21 2
  368.5750 0.10 1
  369.0308 0.56 6
  369.2071 0.58 6
  369.3548 0.30 3
  369.8070 0.23 2
  370.0622 0.60 6
  370.2443 0.31 3
  370.4357 0.13 1
  370.5468 0.09 1
  371.0708 1.38 14
  371.5749 0.14 1
  371.8251 0.10 1
  372.1126 0.70 7
  372.3127 0.15 1
  372.4417 0.11 1
  372.6145 0.25 2
  372.7673 0.25 2
  373.1244 1.56 16
  373.5102 0.14 1
  373.6665 0.11 1
  373.7763 0.33 3
  374.1248 0.97 10
  374.4426 0.17 2
  374.5831 0.21 2
  374.6757 0.20 2
  375.0903 1.41 14
  375.4532 0.11 1
  375.6555 0.14 1
  376.0436 0.63 6
  376.3091 0.37 4
  376.6420 0.19 2
  376.9290 0.55 5
  377.0653 1.36 14
  377.2016 0.95 9
  377.3595 0.21 2
  377.5597 0.06 1
  377.7068 0.06 1
  378.1064 0.53 5
  378.2765 0.16 2
  378.5118 0.13 1
  378.7990 0.20 2
  379.0999 0.66 7
  379.3112 0.23 2
  379.5534 0.20 2
  379.7497 0.14 1
  379.9417 0.40 4
  380.2204 0.27 3
  380.5944 0.28 3
  381.1074 0.69 7
  381.2787 0.46 5
  381.5703 0.16 2
  381.7430 0.32 3
  381.9501 0.28 3
  382.2747 0.20 2
  382.3851 0.25 2
  382.4919 0.14 1
  382.6324 0.28 3
  382.8130 0.49 5
  383.1262 1.32 13
  383.3548 0.19 2
  383.7261 0.53 5
  383.8229 0.21 2
  384.0343 0.45 4
  384.2587 0.22 2
  384.3792 0.11 1
  384.5469 0.09 1
  385.1140 1.74 17
  385.2796 0.80 8
  385.5305 0.15 1
  385.6631 0.12 1
  386.0862 1.04 10
  386.4153 0.27 3
  386.5300 0.15 1
  387.0929 1.26 13
  387.5633 0.28 3
  387.7462 0.22 2
  388.0718 1.02 10
  388.2898 0.49 5
  388.3924 0.15 1
  388.5523 0.14 1
  388.6886 0.23 2
  389.0099 1.00 10
  389.2545 0.41 4
  389.3800 0.34 3
  389.7272 0.29 3
  390.1418 0.74 7
  390.4317 0.13 1
  390.6677 0.12 1
  391.0465 0.56 6
  391.2854 0.25 2
  391.4275 0.27 3
  391.7209 0.15 1
  391.8946 0.13 1
  392.1321 0.48 5
  392.3581 0.14 1
  393.0025 0.71 7
  393.2731 0.36 4
  393.5365 0.28 3
  393.9585 0.21 2
  394.2463 0.14 1
  394.5348 0.16 2
  394.6640 0.04 0
  394.9834 0.66 7
  395.1270 0.41 4
  395.2899 0.10 1
  395.4127 0.13 1
  395.6302 0.15 1
  395.7903 0.21 2
  395.9051 0.15 1
  396.0401 0.17 2
  396.1614 0.14 1
  396.3524 0.25 2
  396.6489 0.15 1
  397.0567 0.89 9
  397.2003 0.83 8
  397.3575 0.14 1
  397.4946 0.12 1
  397.7847 0.15 1
  397.9499 0.24 2
  398.1718 0.67 7
  398.3929 0.25 2
  398.6170 0.20 2
  399.0895 0.91 9
  399.3674 0.08 1
  399.6985 0.04 0
  400.1747 0.99 10
  400.3277 0.12 1
  400.6925 0.26 3
  401.0718 0.89 9
  401.3074 0.53 5
  401.4655 0.26 3
  401.6494 0.11 1
  401.8009 0.32 3
  402.1422 0.38 4
  402.5524 0.39 4
  402.7090 0.13 1
  403.0560 0.38 4
  403.2400 0.23 2
  403.3600 0.14 1
  403.4706 0.11 1
  403.7070 0.11 1
  404.0397 0.37 4
  404.3271 0.10 1
  404.5110 0.13 1
  404.7504 0.31 3
  405.1089 1.15 11
  405.5186 0.23 2
  405.6458 0.14 1
  405.7479 0.18 2
  405.9577 0.18 2
  406.2330 0.18 2
  406.3667 0.22 2
  406.5176 0.07 1
  407.0869 0.51 5
  407.3155 0.17 2
  407.3945 0.06 1
  407.5426 0.10 1
  407.7079 0.10 1
  407.9747 0.21 2
  408.1278 0.30 3
  408.2845 0.16 2
  408.5793 0.08 1
  408.7957 0.34 3
  409.1789 0.44 4
  409.5865 0.15 1
  409.7274 0.07 1
  410.1165 0.33 3
  410.5464 0.25 2
  411.1091 0.66 7
  411.4091 0.24 2
  411.5705 0.14 1
  411.6746 0.01 0
  412.0291 0.44 4
  412.2165 0.36 4
  412.5502 0.13 1
  412.8452 0.25 2
  413.1446 0.88 9
  413.5085 0.27 3
  414.1675 0.58 6
  414.3728 0.39 4
  414.5918 0.29 3
  415.0549 1.35 13
  415.2659 0.74 7
  415.5797 0.12 1
  415.8899 0.25 2
  416.1764 0.65 6
  416.3315 0.19 2
  416.7293 0.23 2
  416.9261 0.48 5
  417.0855 0.78 8
  417.2564 0.77 8
  417.4187 0.29 3
  417.5831 0.18 2
  418.1160 0.24 2
  418.4026 0.17 2
  418.6884 0.11 1
  418.7861 0.08 1
  419.0432 0.54 5
  419.2357 0.47 5
  419.6883 0.06 1
  419.9203 0.15 1
  420.1315 0.13 1
  420.2694 0.30 3
  420.5481 0.13 1
  420.7457 0.32 3
  421.1171 0.60 6
  421.3808 0.12 1
  421.5058 0.06 1
  421.8578 0.19 2
  422.0834 0.27 3
  422.2688 0.16 2
  422.4635 0.17 2
  422.6273 0.24 2
  422.7610 0.29 3
  423.1339 1.04 10
  423.4501 0.18 2
  423.7505 0.24 2
  423.8511 0.10 1
  424.0645 0.38 4
  424.2492 0.17 2
  424.4238 0.13 1
  424.6244 0.16 2
  424.8737 0.32 3
  425.1131 0.81 8
  425.3682 0.42 4
  425.5357 0.13 1
  425.6765 0.18 2
  425.9137 0.13 1
  426.1675 0.22 2
  426.3623 0.11 1
  426.5391 0.25 2
  426.9280 0.44 4
  427.1710 0.58 6
  427.3758 0.30 3
  427.6972 0.24 2
  428.1907 0.46 5
  428.5748 0.41 4
  428.8154 0.15 1
  429.0833 0.57 6
  429.2757 0.15 1
  429.4337 0.22 2
  429.7080 0.19 2
  430.0412 0.27 3
  430.2754 0.22 2
  430.4391 0.14 1
  430.6617 0.25 2
  430.9857 0.52 5
  431.2917 0.30 3
  431.7513 0.08 1
  431.9711 0.08 1
  432.0854 0.26 3
  432.3274 0.24 2
  432.5889 0.26 3
  432.7247 0.16 2
  433.0278 0.64 6
  433.2907 0.23 2
  433.4768 0.13 1
  433.6823 0.06 1
  433.8957 0.15 1
  434.1155 0.22 2
  434.2894 0.19 2
  434.6127 0.12 1
  434.7571 0.11 1
  435.0725 0.68 7
  435.7092 0.12 1
  435.8112 0.05 0
  435.9032 0.05 0
  436.0857 0.17 2
  436.2265 0.46 5
  436.4586 0.13 1
  436.6663 0.12 1
  437.0688 0.92 9
  437.2297 0.34 3
  437.3476 0.13 1
  437.6322 0.07 1
  437.7910 0.16 2
  438.1159 0.78 8
  438.3272 0.36 4
  438.5658 0.20 2
  439.0790 1.58 16
  439.3421 0.69 7
  439.5908 0.14 1
  440.1199 0.36 4
  440.3435 0.47 5
  440.5225 0.10 1
  440.6440 0.03 0
  440.9804 0.37 4
  441.1645 0.85 8
  441.3341 0.44 4
  441.5232 0.12 1
  441.6871 0.01 0
  441.9373 0.18 2
  442.1422 0.37 4
  442.2889 0.39 4
  442.4241 0.15 1
  442.5528 0.17 2
  443.1122 0.58 6
  443.4250 0.28 3
  443.6487 0.06 1
  443.7716 0.12 1
  444.2613 0.16 2
  444.4052 0.24 2
  444.5382 0.14 1
  444.9496 0.69 7
  445.0826 0.15 1
  445.2142 0.57 6
  445.3674 0.18 2
  445.5803 0.14 1
  445.9874 0.06 1
  446.5750 0.19 2
  447.0937 0.78 8
  447.2476 0.34 3
  447.3267 0.12 1
  447.6288 0.19 2
  447.8288 0.15 1
  448.0756 0.16 2
  448.1871 0.08 1
  448.3223 0.17 2
  448.6863 0.24 2
  449.0626 0.60 6
  449.3633 0.28 3
  449.7332 0.11 1
  449.8562 0.13 1
  450.0224 0.26 3
  450.1944 0.32 3
  450.3714 0.14 1
  450.5930 0.22 2
  450.9261 0.30 3
  451.3852 0.01 0
  451.6529 0.11 1
  451.8817 0.26 3
  452.1552 0.35 3
  452.5633 0.21 2
  452.8036 0.18 2
  453.1951 0.41 4
  453.4103 0.23 2
  453.8307 0.07 1
  453.9883 0.27 3
  454.1992 0.34 3
  454.5180 0.18 2
  454.8794 0.24 2
  455.0586 0.55 5
  455.2587 0.20 2
  455.3976 0.09 1
  455.5740 0.15 1
  455.7029 0.10 1
  455.8871 0.26 3
  456.1060 0.14 1
  456.3371 0.11 1
  456.5581 0.17 2
  456.8223 0.12 1
  456.9684 0.53 5
  457.1837 0.60 6
  457.3716 0.13 1
  457.6675 0.11 1
  458.1701 0.38 4
  458.3904 0.25 2
  458.5668 0.07 1
  458.7540 0.13 1
  458.8851 0.14 1
  459.1695 0.64 6
  459.3099 0.20 2
  459.4230 0.14 1
  459.6217 0.10 1
  459.7989 0.13 1
  460.1287 0.50 5
  460.5716 0.20 2
  460.9720 0.36 4
  461.1888 0.71 7
  461.3069 0.25 2
  461.3983 0.20 2
  461.6432 0.12 1
  461.7167 0.07 1
  461.9140 0.13 1
  462.1964 0.21 2
  462.3836 0.11 1
  462.5817 0.21 2
  462.6682 0.05 0
  462.8698 0.11 1
  463.1579 0.68 7
  463.3934 0.25 2
  463.4926 0.12 1
  463.8192 0.46 5
  464.1521 0.54 5
  464.2298 0.26 3
  464.5376 0.21 2
  464.7663 0.15 1
  464.9749 0.52 5
  465.1331 0.58 6
  465.2539 0.43 4
  465.4474 0.34 3
  465.6919 0.14 1
  465.9703 0.10 1
  466.0810 0.15 1
  466.2738 0.09 1
  466.4738 0.15 1
  466.7090 0.18 2
  466.8291 0.18 2
  467.0291 0.23 2
  467.1945 0.15 1
  467.4449 0.47 5
  467.7060 0.19 2
  467.8412 0.30 3
  468.0218 0.32 3
  468.2088 0.34 3
  468.3772 0.13 1
  468.5743 0.13 1
  468.6779 0.24 2
  468.8333 0.10 1
  469.1290 0.53 5
  469.3707 0.32 3
  469.5462 0.29 3
  469.7189 0.17 2
  469.8866 0.11 1
  470.0736 0.13 1
  470.1909 0.18 2
  470.3895 0.33 3
  470.5586 0.28 3
  470.6787 0.38 4
  471.1148 0.52 5
  471.3091 0.38 4
  471.4451 0.35 3
  471.7552 0.12 1
  472.0517 0.23 2
  472.2733 0.11 1
  472.5072 0.11 1
  473.0786 0.45 4
  473.3874 0.26 3
  473.6767 0.11 1
  473.9329 0.18 2
  474.1848 0.64 6
  474.5130 0.31 3
  474.6814 0.22 2
  474.7973 0.38 4
  475.1694 0.92 9
  475.4322 0.34 3
  475.5999 0.22 2
  476.0354 0.46 5
  476.2837 0.12 1
  476.4054 0.14 1
  476.6472 0.15 1
  477.2095 0.66 7
  477.4845 0.44 4
  477.9438 0.82 8
  478.1871 0.75 7
  478.4002 0.38 4
  478.5464 0.20 2
  478.7451 0.10 1
  478.8639 0.11 1
  478.9985 0.15 1
  479.2088 0.33 3
  479.3859 0.33 3
  479.5760 0.23 2
  479.8662 0.14 1
  480.0404 0.19 2
  480.1376 0.05 0
  480.2586 0.15 1
  480.4602 0.18 2
  480.6187 0.16 2
  480.7922 0.11 1
  481.1731 0.32 3
  481.3935 0.25 2
  481.6383 0.15 1
  481.8860 0.20 2
  482.0452 0.07 1
  482.2570 0.10 1
  482.4262 0.23 2
  482.5428 0.23 2
  482.8489 0.27 3
  483.0384 0.32 3
  483.2098 0.49 5
  483.3610 0.21 2
  483.5015 0.22 2
  483.6520 0.25 2
  483.8940 0.27 3
  484.1187 0.34 3
  484.2750 0.25 2
  484.5948 0.32 3
  484.8030 0.26 3
  485.1819 1.32 13
  485.6400 0.38 4
  485.9037 0.15 1
  486.0139 0.10 1
  486.3042 0.45 4
  486.4749 0.23 2
  486.5715 0.08 1
  486.6810 0.13 1
  486.8849 0.44 4
  487.2552 0.87 9
  487.3820 0.31 3
  487.6413 0.06 1
  487.8884 0.19 2
  488.2847 0.47 5
  488.6147 0.23 2
  488.7458 0.16 2
  488.9353 0.16 2
  489.1061 1.19 12
  489.3071 0.88 9
  489.4707 0.28 3
  489.6847 0.16 2
  489.9326 0.21 2
  490.3080 0.60 6
  490.3916 0.25 2
  490.5004 0.06 1
  490.6373 0.06 1
  490.8989 0.22 2
  491.0618 0.53 5
  491.2909 0.41 4
  491.5083 0.14 1
  491.7176 0.14 1
  491.9133 0.05 0
  492.1284 0.47 5
  492.2622 0.29 3
  492.4262 0.12 1
  492.6298 0.10 1
  492.9247 0.28 3
  493.2384 0.50 5
  493.3406 0.24 2
  493.4629 0.23 2
  493.5837 0.15 1
  493.7903 0.18 2
  494.1823 0.17 2
  495.0285 0.20 2
  495.1760 0.17 2
  495.2969 0.21 2
  495.9646 0.11 1
  496.2769 0.12 1
  496.6022 0.14 1
  496.7785 0.18 2
  496.8663 0.11 1
  497.2376 0.35 3
  498.0033 0.26 3
  498.1754 0.08 1
  498.3934 0.15 1
  498.7777 0.20 2
  499.0383 0.32 3
  499.2110 0.48 5
  499.4190 0.20 2
  499.7119 0.28 3
  500.2230 1.74 17
  500.6153 0.33 3
  500.7492 0.16 2
  500.9601 0.81 8
  501.1163 0.79 8
  501.2711 0.26 3
  501.5388 0.09 1
  501.6547 0.20 2
  501.8066 0.26 3
  501.9866 0.28 3
  502.0938 0.12 1
  502.2940 0.36 4
  502.4797 0.39 4
  502.6251 0.18 2
  502.9865 0.79 8
  503.1499 0.77 8
  503.3184 0.32 3
  503.7021 0.24 2
  503.8742 0.15 1
  504.0996 0.37 4
  504.4048 0.49 5
  504.5402 0.18 2
  504.6619 0.19 2
  505.2328 2.08 21
  505.4467 0.76 8
  505.7592 0.10 1
  505.9083 0.15 1
  506.0760 0.48 5
  506.2445 0.26 3
  506.4390 0.13 1
  506.6557 0.10 1
  506.7716 0.07 1
  506.9358 0.13 1
  507.1353 0.49 5
  507.3765 0.30 3
  507.5206 0.11 1
  507.8252 0.22 2
  507.9390 0.42 4
  508.1010 0.19 2
  508.3170 0.15 1
  508.7081 0.19 2
  508.8500 0.16 2
  508.9739 0.25 2
  509.3412 0.25 2
  509.6278 0.16 2
  510.1975 0.23 2
  510.4079 0.24 2
  510.5289 0.11 1
  510.7212 0.13 1
  510.9330 0.08 1
  511.0749 0.34 3
  511.2556 0.33 3
  511.3803 0.18 2
  511.5546 0.13 1
  511.8298 0.11 1
  512.0761 0.14 1
  512.2072 0.29 3
  512.3773 0.27 3
  512.7857 0.30 3
  512.9701 0.20 2
  513.1135 0.46 5
  513.2698 0.61 6
  513.6156 0.26 3
  513.7712 0.21 2
  513.9175 0.23 2
  514.0291 0.10 1
  514.3598 0.26 3
  514.6077 0.18 2
  515.1141 0.66 7
  515.3454 0.32 3
  515.4376 0.21 2
  515.6495 0.13 1
  515.8455 0.33 3
  516.0422 0.31 3
  516.4277 0.47 5
  516.5292 0.26 3
  516.7130 0.04 0
  517.1597 0.59 6
  517.4840 0.53 5
  517.6793 0.21 2
  517.7766 0.15 1
  518.0461 0.36 4
  518.2031 0.42 4
  518.3411 0.88 9
  518.6418 0.44 4
  519.0632 0.55 5
  519.3078 0.66 7
  519.6394 0.35 3
  519.8638 0.68 7
  520.2198 0.60 6
  520.5623 0.22 2
  520.7795 0.22 2
  521.2147 0.75 7
  521.4593 0.33 3
  521.7729 0.43 4
  522.0528 0.25 2
  522.1772 0.11 1
  522.2736 0.06 1
  522.4729 0.22 2
  522.7499 0.29 3
  522.8988 0.16 2
  523.3089 0.13 1
  523.6744 0.26 3
  523.8320 0.19 2
  523.9255 0.15 1
  524.0730 0.17 2
  524.2305 0.16 2
  524.6299 0.27 3
  525.2256 0.44 4
  525.4235 0.27 3
  525.5969 0.15 1
  525.9776 0.12 1
  526.2481 0.22 2
  526.4489 0.13 1
  526.6223 0.26 3
  526.8296 0.13 1
  527.0318 0.10 1
  527.1462 0.16 2
  527.3052 0.33 3
  527.4153 0.23 2
  527.5938 0.19 2
  528.2163 0.08 1
  528.3365 0.14 1
  528.7129 0.17 2
  529.1030 0.42 4
  529.3102 0.65 6
  529.4492 0.19 2
  529.6046 0.17 2
  529.7291 0.08 1
  529.9220 0.10 1
  530.1775 0.37 4
  530.4669 0.20 2
  530.6411 0.21 2
  530.7728 0.11 1
  531.2564 1.14 11
  531.5983 0.23 2
  532.0015 0.48 5
  532.1613 0.46 5
  532.2628 0.21 2
  532.3945 0.09 1
  532.5939 0.31 3
  532.8825 0.18 2
  533.0610 0.32 3
  533.3425 0.49 5
  533.5592 0.17 2
  533.6816 0.07 1
  533.8969 0.30 3
  534.2093 0.42 4
  534.3094 0.24 2
  534.5174 0.21 2
  534.6010 0.12 1
  535.1870 0.63 6
  535.4390 0.16 2
  535.5772 0.18 2
  535.7377 0.16 2
  536.0934 0.40 4
  536.3274 0.29 3
  536.4923 0.08 1
  536.7976 0.06 1
  536.9365 0.09 1
  537.0438 0.11 1
  537.1807 0.22 2
  537.5169 0.11 1
  537.6580 0.10 1
  537.7970 0.12 1
  537.9346 0.13 1
  538.0577 0.14 1
  538.1628 0.29 3
  538.2715 0.14 1
  538.7403 0.08 1
  539.0529 0.42 4
  539.3279 0.22 2
  539.5001 0.36 4
  539.7571 0.26 3
  539.9897 0.05 0
  540.1791 0.25 2
  540.3520 0.11 1
  540.6134 0.29 3
  541.1543 0.33 3
  541.4142 0.29 3
  541.5324 0.14 1
  541.8687 0.41 4
  542.0466 0.29 3
  542.1431 0.20 2
  542.2584 0.13 1
  542.4291 0.11 1
  542.7021 0.35 3
  542.9635 0.41 4
  543.0845 0.46 5
  543.2322 0.39 4
  543.4324 0.40 4
  543.7544 0.23 2
  543.9755 0.20 2
  544.1326 0.12 1
  544.2637 0.40 4
  544.3897 0.16 2
  544.4819 0.06 1
  544.6728 0.30 3
  544.7967 0.31 3
  545.1259 0.38 4
  545.4263 0.48 5
  545.6605 0.25 2
  545.7736 0.07 1
  545.8960 0.44 4
  546.2346 0.90 9
  546.4904 0.56 6
  546.6459 0.24 2
  547.2706 1.50 15
  547.6070 0.27 3
  548.2410 0.92 9
  548.3952 0.51 5
  548.6287 0.43 4
  548.7634 0.13 1
  549.0818 0.73 7
  549.4176 0.78 8
  549.7173 0.36 4
  549.8817 0.41 4
  549.9998 0.22 2
  550.1583 0.28 3
  550.3104 0.19 2
  550.5928 0.36 4
  550.8840 0.18 2
  551.0648 0.43 4
  551.2493 0.29 3
  551.6154 0.24 2
  551.7696 0.25 2
  552.0233 0.56 6
  552.2603 0.48 5
  552.5580 0.52 5
  552.8873 0.36 4
  553.1575 0.14 1
  553.3240 0.14 1
  553.4638 0.13 1
  553.6901 0.24 2
  553.8674 0.39 4
  554.0519 0.19 2
  554.1910 0.30 3
  554.3532 0.61 6
  554.4764 0.33 3
  554.6631 0.43 4
  554.8642 0.37 4
  555.2245 0.56 6
  555.3161 0.30 3
  555.7248 0.44 4
  555.8870 0.39 4
  556.2711 0.28 3
  556.5277 0.23 2
  556.8153 0.41 4
  557.0575 0.52 5
  557.2824 0.83 8
  557.4943 0.50 5
  557.6688 0.24 2
  557.8065 0.24 2
  557.9874 0.42 4
  558.1741 0.35 3
  558.3046 0.23 2
  558.4379 0.14 1
  558.7969 0.68 7
  559.2742 2.65 26
  559.7240 0.55 5
  559.8552 0.29 3
  559.9951 0.15 1
  560.1162 0.26 3
  560.2539 0.43 4
  560.3938 0.23 2
  560.4998 0.31 3
  560.7362 0.28 3
  561.1097 0.89 9
  561.2351 0.45 4
  561.5264 0.25 2
  561.7946 0.19 2
  561.9900 0.36 4
  562.2178 0.72 7
  562.4608 0.67 7
  562.7191 0.38 4
  563.3599 1.68 17
  563.6188 0.60 6
  563.8432 0.40 4
  564.3970 1.65 16
  564.6653 0.85 8
  564.8322 0.35 3
  564.9976 0.36 4
  565.2335 0.38 4
  565.4083 0.13 1
  565.5558 0.23 2
  565.8349 0.39 4
  566.1572 0.53 5
  566.3420 0.11 1
  566.5528 0.41 4
  566.7664 0.27 3
  566.9534 0.37 4
  567.1074 0.10 1
  567.2369 0.38 4
  567.6066 0.43 4
  567.7592 0.33 3
  568.1131 0.53 5
  568.2994 0.25 2
  568.4512 0.30 3
  568.5858 0.35 3
  568.7857 0.53 5
  569.1512 0.43 4
  569.3361 0.61 6
  569.5793 0.51 5
  569.6850 0.59 6
  569.8037 0.44 4
  570.0872 0.78 8
  570.3030 0.56 6
  570.6376 0.71 7
  570.7347 0.32 3
  570.9131 0.76 8
  571.0787 0.58 6
  571.4665 0.74 7
  572.1652 1.09 11
  572.6954 1.28 13
  573.3747 1.60 16
  573.7791 1.15 11
  574.3102 6.03 60
  574.6318 2.01 20
  575.3393 9.88 99
  576.2669 2.46 25
  577.3263 14.92 149
  577.8345 1.05 10
  578.4412 1.00 10
  578.8140 0.85 8
  579.2416 1.08 11
  579.5101 0.61 6
  579.7447 0.51 5
  580.0513 0.66 7
  580.5293 0.68 7
  580.8590 0.38 4
  581.1620 0.81 8
  581.4421 0.67 7
  581.7422 0.71 7
  582.2339 0.71 7
  582.5673 1.06 11
  582.7753 0.78 8
  583.0366 0.70 7
  583.4124 0.86 9
  583.7307 1.07 11
  584.1784 1.00 10
  585.0453 1.27 13
  585.9619 1.23 12
  587.1082 2.15 21
  587.9828 2.66 27
  592.2772 99.97 999
  593.1160 24.85 248
  593.8785 10.65 106
  594.8052 4.89 49
  595.6124 2.60 26
  596.4766 1.49 15
  597.1213 1.05 10
  597.4314 1.37 14
  597.7869 0.95 9
  598.2236 0.87 9
  598.5359 0.79 8
  598.8389 0.56 6
  599.0051 0.40 4
  599.1339 0.79 8
  599.4952 0.53 5
//
