ACCESSION: MSBNK-Kyoto_Univ-CA000120
RECORD_TITLE: Deepoxyneoxanthin; FAB-EBEB; MS2; m/z: 584.42; [M]*+
DATE: 2016.01.19 (Created 2007.10.06, modified 2011.05.10)
AUTHORS: Akimoto N, Graduate School of Pharmaceutical Sciences, Kyoto University and Maoka T, Research Institute for Production Development
LICENSE: CC BY-SA
COMMENT: Profile spectrum of this record is given as a JPEG file.
COMMENT: [Profile] CA000120.jpg
CH$NAME: Deepoxyneoxanthin
CH$COMPOUND_CLASS: Natural Product; Carotenoid
CH$FORMULA: C40H56O3
CH$EXACT_MASS: 584.42295
CH$SMILES: CC1=C(C(C[C@@H](C1)O)(C)C)/C=C/C(=C/C=C/C(=C/C=C/C=C(\C)/C=C/C=C(\C)/C=C=C2[C@](C[C@H](CC2(C)C)O)(C)O)/C)/C
CH$IUPAC: InChI=1S/C40H56O3/c1-29(17-13-19-31(3)21-23-36-33(5)25-34(41)26-38(36,6)7)15-11-12-16-30(2)18-14-20-32(4)22-24-37-39(8,9)27-35(42)28-40(37,10)43/h11-23,34-35,41-43H,25-28H2,1-10H3/b12-11+,17-13+,18-14+,23-21+,29-15+,30-16+,31-19+,32-20+/t24?,34-,35+,40-/m1/s1
CH$LINK: CHEMSPIDER 8730706
CH$LINK: PUBCHEM CID:134733471
CH$LINK: INCHIKEY GRSPARSXNHKGDG-TVDPAJLBSA-N
AC$INSTRUMENT: JMS-HX/HX 110A, JEOL
AC$INSTRUMENT_TYPE: FAB-EBEB
AC$MASS_SPECTROMETRY: MS_TYPE MS2
AC$MASS_SPECTROMETRY: ION_MODE POSITIVE
AC$MASS_SPECTROMETRY: ATOM_GUN_CURRENT 5 mA
AC$MASS_SPECTROMETRY: BOMBARDMENT 6 kV xenon
AC$MASS_SPECTROMETRY: COLLISION_ENERGY 3 kV
AC$MASS_SPECTROMETRY: COLLISION_GAS Ar
AC$MASS_SPECTROMETRY: GAS_PRESSURE adjust to attenuate the intensity of the precursor ion by 30 %
AC$MASS_SPECTROMETRY: IONIZATION FAB
AC$MASS_SPECTROMETRY: PROBE_TIP stainless-steel
MS$FOCUSED_ION: BASE_PEAK 584.3458
MS$FOCUSED_ION: PRECURSOR_M/Z 584.42
MS$FOCUSED_ION: PRECURSOR_TYPE [M]+*
PK$SPLASH: splash10-05o3-3920020000-f95656aad942fbc7753f
PK$NUM_PEAK: 1380
PK$PEAK: m/z int. rel.int.
  11.9620 0.03 0
  12.9751 0.02 0
  13.9760 0.15 1
  14.9955 0.44 4
  16.0049 0.01 0
  18.0232 0.02 0
  18.9686 0.06 1
  22.9396 0.03 0
  24.9623 0.06 1
  25.9701 0.60 6
  26.9817 4.13 41
  27.1105 0.01 0
  27.9925 0.40 4
  28.9955 3.78 38
  29.9759 0.05 0
  30.9769 0.71 7
  35.9650 0.05 0
  36.1974 0.01 0
  36.6931 0.01 0
  36.9600 0.58 6
  37.2666 0.02 0
  37.5032 0.01 0
  37.7273 0.01 0
  37.9736 1.12 11
  38.1515 0.01 0
  38.2676 0.01 0
  38.5705 0.01 0
  38.6662 0.01 0
  38.9827 10.55 105
  39.2044 0.03 0
  39.3702 0.02 0
  39.5858 0.02 0
  39.7135 0.01 0
  39.9830 1.04 10
  40.2839 0.01 0
  40.3755 0.01 0
  40.5725 0.01 0
  41.0023 14.58 146
  41.9800 0.46 5
  42.2197 0.01 0
  42.3693 0.01 0
  42.4892 0.01 0
  42.9830 36.68 367
  43.2936 0.01 0
  43.5006 0.01 0
  43.9788 0.40 4
  44.9935 0.64 6
  45.9577 0.01 0
  46.9739 0.10 1
  47.7236 0.01 0
  47.9633 0.02 0
  48.2396 0.01 0
  48.4811 0.01 0
  48.9677 0.27 3
  49.2275 0.02 0
  49.3276 0.01 0
  49.5838 0.01 0
  49.9716 2.50 25
  50.4491 0.01 0
  50.6092 0.01 0
  50.9647 5.93 59
  51.1744 0.02 0
  51.2983 0.02 0
  51.6604 0.01 0
  51.9778 2.17 22
  52.2035 0.01 0
  52.4407 0.01 0
  52.5596 0.01 0
  52.9909 7.99 80
  53.5145 0.01 0
  53.9850 0.35 3
  54.1987 0.01 0
  54.3580 0.01 0
  54.9941 20.42 204
  55.5395 0.01 0
  56.0068 0.41 4
  56.2320 0.01 0
  56.3864 0.01 0
  57.0101 7.85 78
  57.4444 0.04 0
  57.5256 0.03 0
  57.9801 0.38 4
  58.4663 0.01 0
  58.9859 2.97 30
  59.3485 0.01 0
  59.5217 0.01 0
  59.9722 0.07 1
  60.3331 0.01 0
  60.6348 0.01 0
  60.9641 0.74 7
  61.2273 0.02 0
  61.4114 0.01 0
  61.5474 0.01 0
  61.9673 1.58 16
  62.1925 0.02 0
  62.4191 0.03 0
  62.4904 0.03 0
  62.9650 4.61 46
  63.4540 0.07 1
  63.9575 0.91 9
  64.2138 0.01 0
  64.3603 0.01 0
  64.9709 7.68 77
  65.2423 0.01 0
  65.3720 0.01 0
  65.4729 0.01 0
  65.9867 1.27 13
  66.2112 0.03 0
  66.4789 0.01 0
  66.6370 0.02 0
  66.9930 11.55 115
  67.3740 0.01 0
  67.9907 0.35 3
  68.6642 0.02 0
  69.0036 15.40 154
  69.2999 0.04 0
  69.4728 0.01 0
  69.9956 0.37 4
  70.3360 0.01 0
  70.5756 0.01 0
  70.9899 3.77 38
  71.2624 0.01 0
  71.9554 0.05 0
  72.2987 0.01 0
  72.9704 0.30 3
  73.2268 0.01 0
  73.4729 0.02 0
  73.9488 1.42 14
  74.9618 1.93 19
  75.2759 0.05 0
  75.5535 0.06 1
  75.9735 1.15 11
  76.1802 0.05 0
  76.4193 0.05 0
  76.9796 20.59 206
  77.2351 0.13 1
  77.3897 0.07 1
  77.9835 3.94 39
  78.1921 0.07 1
  78.9940 16.85 168
  79.5279 0.02 0
  79.6581 0.02 0
  80.0010 2.15 21
  80.3158 0.03 0
  81.0103 17.04 170
  81.2285 0.07 1
  81.4105 0.03 0
  81.9916 0.61 6
  82.4561 0.06 1
  83.0054 12.17 122
  83.4837 0.02 0
  83.9939 0.28 3
  84.2690 0.02 0
  84.4201 0.02 0
  84.5479 0.02 0
  84.9963 9.98 100
  85.2806 0.02 0
  85.5362 0.02 0
  85.9509 0.71 7
  86.3455 0.01 0
  86.9717 6.49 65
  87.4272 0.01 0
  87.9626 0.38 4
  88.2532 0.02 0
  88.9698 2.47 25
  89.2690 0.13 1
  89.9983 0.82 8
  90.1808 0.13 1
  90.9976 37.54 375
  91.3593 0.06 1
  92.0085 3.73 37
  92.3374 0.05 0
  92.5184 0.05 0
  92.6873 0.07 1
  93.0174 24.43 244
  93.2606 0.08 1
  93.4034 0.05 0
  93.5629 0.02 0
  94.0249 1.24 12
  94.3295 0.03 0
  94.5376 0.06 1
  95.0272 15.52 155
  95.5253 0.08 1
  96.0147 0.63 6
  96.3549 0.01 0
  96.5589 0.01 0
  97.0192 2.05 20
  97.2260 0.02 0
  97.4453 0.01 0
  97.9701 0.54 5
  98.3469 0.01 0
  98.6391 0.01 0
  99.0059 0.83 8
  99.4219 0.02 0
  99.5063 0.02 0
  99.6496 0.02 0
  99.9886 0.21 2
  100.3247 0.01 0
  100.5894 0.06 1
  100.9931 0.98 10
  101.2296 0.08 1
  101.5142 0.07 1
  101.9915 2.26 23
  103.0018 6.50 65
  103.3286 0.07 1
  103.5837 0.07 1
  104.0185 3.11 31
  105.0245 46.79 468
  105.3500 0.06 1
  106.0292 4.58 46
  107.0313 20.16 201
  107.3089 0.05 0
  107.5262 0.08 1
  108.0310 1.25 12
  108.4814 0.04 0
  109.0443 10.67 107
  109.3625 0.04 0
  109.5138 0.04 0
  109.7011 0.03 0
  110.0171 0.46 5
  110.4678 0.01 0
  111.0118 2.10 21
  111.3057 0.01 0
  111.4240 0.01 0
  111.5568 0.02 0
  111.7093 0.03 0
  112.0220 0.14 1
  113.0123 0.94 9
  113.1987 0.15 1
  113.9819 0.83 8
  114.2322 0.18 2
  114.9855 21.91 219
  115.3431 0.11 1
  115.9907 6.60 66
  116.2258 0.20 2
  117.0006 17.34 173
  117.3107 0.09 1
  118.0107 3.29 33
  118.2529 0.06 1
  119.0147 40.45 404
  119.4935 0.10 1
  120.0144 3.41 34
  120.4901 0.12 1
  121.0245 14.33 143
  121.3313 0.09 1
  121.6364 0.05 0
  122.0071 1.11 11
  122.4025 0.03 0
  122.6038 0.03 0
  123.0175 3.97 40
  123.6240 0.05 0
  123.7148 0.02 0
  124.0125 0.24 2
  124.3426 0.02 0
  125.0179 2.86 29
  125.3019 0.08 1
  125.5137 0.07 1
  125.9691 1.42 14
  126.9706 6.94 69
  127.9806 24.56 245
  128.9854 26.94 269
  129.3773 0.08 1
  129.9843 8.98 90
  130.9956 22.23 222
  131.3026 0.08 1
  132.0061 4.26 43
  132.5408 0.16 2
  133.0087 19.36 193
  133.3386 0.14 1
  133.9969 2.00 20
  134.2305 0.04 0
  134.4943 0.07 1
  135.0090 7.95 79
  135.3678 0.07 1
  135.9865 0.56 6
  136.4756 0.03 0
  136.9867 1.99 20
  137.2332 0.04 0
  137.4154 0.05 0
  137.9782 0.39 4
  138.3838 0.13 1
  138.9643 3.72 37
  139.9823 1.15 11
  140.1901 0.29 3
  140.9771 20.10 201
  141.2708 0.14 1
  141.9848 17.03 170
  142.9897 25.69 257
  144.0035 9.21 92
  145.0098 27.08 271
  145.5163 0.16 2
  146.0045 2.41 24
  146.3347 0.09 1
  146.5731 0.09 1
  147.0214 9.41 94
  147.3083 0.10 1
  147.4998 0.09 1
  147.6124 0.06 1
  148.0168 1.15 11
  148.2588 0.05 0
  148.4956 0.10 1
  149.0171 5.11 51
  149.5223 0.08 1
  149.9899 1.02 10
  150.9987 3.00 30
  151.9833 8.88 89
  152.2415 0.25 2
  152.9867 12.19 122
  153.9977 5.18 52
  155.0103 19.64 196
  155.3474 0.13 1
  156.0285 12.48 125
  157.0309 24.74 247
  157.3719 0.17 2
  158.0462 5.33 53
  159.0510 15.78 158
  159.3678 0.12 1
  160.0332 1.72 17
  160.2960 0.06 1
  160.4649 0.06 1
  161.0538 4.83 48
  162.0423 0.67 7
  163.0390 2.51 25
  164.0413 1.35 13
  165.0181 17.60 176
  165.3526 0.17 2
  166.0367 6.19 62
  167.0440 15.50 155
  167.3810 0.14 1
  168.0541 5.71 57
  169.0641 17.95 179
  169.4839 0.12 1
  170.0687 6.44 64
  170.3306 0.14 1
  171.0761 13.89 139
  171.5295 0.15 1
  172.0775 2.58 26
  173.0654 7.95 79
  174.0318 1.18 12
  174.6239 0.14 1
  175.0812 4.47 45
  175.4975 0.13 1
  176.0246 1.96 20
  177.0424 2.27 23
  178.0237 9.73 97
  179.0266 15.00 150
  180.0328 5.96 60
  180.2830 0.15 1
  181.0405 13.95 139
  181.3919 0.14 1
  182.0433 5.48 55
  183.0543 14.16 142
  183.3355 0.14 1
  184.0551 3.54 35
  185.0538 7.09 71
  185.3537 0.12 1
  186.0578 1.43 14
  186.4846 0.12 1
  187.0503 3.39 34
  188.0324 0.72 7
  188.2886 0.15 1
  189.0111 5.39 54
  189.2974 0.18 2
  190.0101 2.11 21
  191.0145 7.27 73
  192.0160 5.43 54
  192.3842 0.13 1
  193.0264 12.61 126
  193.4207 0.13 1
  194.0236 5.11 51
  194.3901 0.16 2
  195.0337 13.58 136
  196.0403 3.54 35
  197.0482 10.87 109
  197.3859 0.18 2
  197.5914 0.12 1
  198.0566 2.05 20
  198.3712 0.10 1
  199.0484 4.96 50
  199.4907 0.12 1
  200.0298 1.24 12
  200.2740 0.12 1
  201.0309 2.46 25
  202.0010 4.83 48
  202.2571 0.24 2
  202.9956 5.40 54
  204.0154 2.27 23
  204.3853 0.14 1
  205.0145 6.04 60
  205.3502 0.12 1
  206.0244 4.30 43
  207.0348 9.21 92
  208.0210 3.69 37
  209.0475 9.12 91
  209.4307 0.10 1
  209.6093 0.10 1
  210.0346 1.92 19
  211.0602 4.90 49
  211.3865 0.08 1
  212.0399 0.99 10
  213.0367 2.80 28
  214.0292 0.67 7
  215.0186 5.23 52
  215.5024 0.10 1
  216.0196 2.14 21
  217.0362 5.27 53
  217.3475 0.12 1
  218.0381 2.39 24
  218.3800 0.11 1
  219.0397 5.72 57
  219.4669 0.12 1
  220.0521 2.76 28
  220.3438 0.10 1
  221.0588 5.98 60
  221.4795 0.06 1
  222.0749 2.16 22
  222.4278 0.13 1
  223.0728 4.96 50
  223.4758 0.11 1
  224.0960 1.13 11
  224.3750 0.14 1
  225.0829 2.65 26
  226.0369 1.72 17
  227.0420 1.93 19
  227.5735 0.14 1
  228.0537 1.71 17
  229.0499 3.46 35
  229.3822 0.14 1
  230.0624 1.90 19
  231.0690 3.77 38
  231.4323 0.10 1
  232.0798 2.22 22
  233.0987 7.80 78
  233.4435 0.14 1
  234.0866 1.89 19
  234.3133 0.11 1
  235.0930 4.25 42
  235.5605 0.12 1
  236.0776 1.14 11
  236.3963 0.07 1
  237.1014 2.79 28
  237.3799 0.08 1
  238.0958 0.67 7
  239.0786 2.42 24
  240.0583 0.78 8
  240.3741 0.11 1
  241.0698 2.03 20
  242.0656 1.12 11
  243.0770 3.02 30
  243.5264 0.08 1
  244.0589 1.40 14
  244.4274 0.10 1
  245.0850 3.53 35
  245.6059 0.13 1
  246.0836 1.72 17
  246.4272 0.11 1
  247.0937 3.59 36
  247.4927 0.11 1
  248.0881 1.00 10
  248.3544 0.11 1
  249.1115 2.89 29
  250.0709 0.70 7
  250.4451 0.10 1
  251.1131 1.89 19
  252.0585 1.13 11
  252.3930 0.05 0
  253.0972 2.07 21
  253.3548 0.10 1
  253.4998 0.14 1
  254.0614 0.70 7
  255.1162 3.82 38
  255.4552 0.09 1
  256.0872 0.94 9
  256.3704 0.10 1
  257.1099 2.70 27
  257.4984 0.07 1
  258.0963 1.04 10
  258.3904 0.07 1
  258.5676 0.06 1
  259.1180 2.72 27
  259.8024 0.13 1
  260.1268 0.99 10
  261.1176 2.32 23
  261.4373 0.05 0
  261.6742 0.09 1
  262.1481 0.53 5
  263.1213 1.82 18
  264.1390 0.39 4
  264.4841 0.09 1
  265.1036 1.46 15
  266.1037 0.62 6
  267.1026 1.57 16
  268.1187 0.82 8
  268.3779 0.08 1
  268.5858 0.08 1
  269.1224 2.32 23
  269.6030 0.08 1
  270.1335 1.44 14
  270.5193 0.07 1
  270.6802 0.06 1
  271.1181 2.13 21
  271.3979 0.07 1
  272.1367 0.75 7
  272.5319 0.07 1
  273.1310 1.88 19
  274.1158 0.61 6
  275.1371 1.62 16
  275.5005 0.05 0
  276.0926 0.54 5
  276.5251 0.09 1
  277.1272 1.11 11
  277.4817 0.11 1
  278.1107 0.55 5
  278.3788 0.10 1
  278.6166 0.04 0
  279.1176 0.96 10
  279.5737 0.04 0
  280.1031 0.47 5
  280.3586 0.06 1
  280.4769 0.04 0
  280.6128 0.05 0
  281.1282 1.40 14
  281.6486 0.08 1
  282.1050 0.55 5
  283.1355 1.74 17
  284.1142 0.65 6
  285.1467 2.01 20
  285.4794 0.05 0
  286.1302 0.54 5
  286.5201 0.05 0
  287.1455 0.99 10
  287.4982 0.04 0
  287.6174 0.03 0
  287.7556 0.04 0
  288.1619 0.38 4
  289.1453 1.05 10
  289.6858 0.07 1
  290.1114 0.28 3
  290.5207 0.05 0
  290.7677 0.08 1
  291.1503 0.74 7
  291.4667 0.05 0
  291.6915 0.05 0
  292.1270 0.32 3
  292.4970 0.07 1
  293.1490 0.94 9
  293.7665 0.05 0
  294.1381 0.46 5
  294.5280 0.04 0
  294.6289 0.02 0
  295.1465 0.96 10
  295.5605 0.04 0
  296.1432 0.45 4
  296.4105 0.10 1
  297.1682 2.01 20
  297.5662 0.04 0
  298.1315 0.59 6
  298.6008 0.05 0
  299.1620 1.39 14
  299.5001 0.05 0
  300.1228 0.36 4
  300.5507 0.07 1
  301.1389 0.65 6
  301.6517 0.04 0
  302.1171 0.29 3
  302.4937 0.05 0
  303.1556 0.60 6
  303.7364 0.05 0
  304.1392 0.26 3
  304.6318 0.05 0
  305.1265 0.42 4
  305.3167 0.16 2
  305.5096 0.03 0
  306.0780 0.25 2
  306.3658 0.07 1
  307.1541 0.76 8
  307.4773 0.05 0
  307.6555 0.08 1
  308.1174 0.26 3
  308.6033 0.07 1
  309.1480 0.64 6
  310.1293 0.40 4
  310.4406 0.05 0
  311.1242 0.67 7
  312.1406 0.54 5
  312.3813 0.04 0
  313.1466 0.44 4
  313.4376 0.11 1
  313.7498 0.05 0
  314.1606 0.32 3
  314.4693 0.03 0
  314.6945 0.02 0
  315.1514 0.46 5
  315.5275 0.04 0
  316.0886 0.20 2
  316.4421 0.02 0
  316.6348 0.04 0
  317.1364 0.47 5
  317.5212 0.06 1
  318.1541 0.19 2
  318.3525 0.07 1
  318.6091 0.07 1
  318.7154 0.04 0
  319.1393 0.66 7
  319.6808 0.06 1
  320.1480 0.24 2
  320.6032 0.03 0
  321.1372 0.49 5
  321.5492 0.03 0
  321.7173 0.03 0
  322.1719 0.19 2
  322.4180 0.03 0
  322.5854 0.07 1
  323.1550 0.45 4
  323.4331 0.03 0
  323.7616 0.02 0
  324.1554 0.18 2
  324.3853 0.06 1
  324.6705 0.02 0
  325.1524 0.43 4
  325.5938 0.05 0
  326.1360 0.14 1
  326.3149 0.07 1
  327.1604 0.41 4
  327.5424 0.06 1
  327.6460 0.03 0
  327.8405 0.03 0
  328.1856 0.14 1
  328.3568 0.08 1
  329.1713 0.51 5
  329.5001 0.05 0
  329.6372 0.01 0
  330.1408 0.15 1
  330.3951 0.06 1
  330.6323 0.05 0
  331.1665 0.38 4
  331.6561 0.03 0
  332.1783 0.15 1
  332.3609 0.06 1
  332.5983 0.04 0
  333.1867 0.57 6
  333.5165 0.06 1
  334.1782 0.32 3
  334.3772 0.10 1
  334.6786 0.05 0
  335.1983 0.66 7
  335.7502 0.04 0
  336.1865 0.29 3
  336.6781 0.04 0
  336.8044 0.05 0
  337.2116 0.51 5
  337.5402 0.05 0
  338.2321 0.27 3
  338.3513 0.09 1
  338.5592 0.03 0
  338.7232 0.02 0
  339.1902 0.35 3
  339.5763 0.05 0
  339.7310 0.02 0
  340.1421 0.13 1
  340.5034 0.04 0
  341.2119 0.30 3
  341.6032 0.05 0
  341.9227 0.03 0
  342.1720 0.12 1
  342.2920 0.05 0
  342.5505 0.06 1
  342.8907 0.06 1
  343.2010 0.31 3
  343.3189 0.14 1
  343.4610 0.03 0
  343.6002 0.03 0
  343.7210 0.02 0
  344.1571 0.14 1
  344.6572 0.02 0
  345.1894 0.43 4
  345.5666 0.05 0
  345.7016 0.04 0
  346.1699 0.20 2
  346.3056 0.10 1
  346.4172 0.03 0
  347.2003 0.49 5
  347.3958 0.20 2
  347.5998 0.01 0
  347.7803 0.04 0
  348.1890 0.28 3
  348.6227 0.06 1
  349.1807 0.72 7
  349.5070 0.04 0
  350.1946 0.42 4
  350.6063 0.03 0
  351.2015 0.54 5
  351.5891 0.07 1
  351.7271 0.05 0
  352.1794 0.30 3
  352.5941 0.02 0
  353.1788 0.24 2
  353.4228 0.08 1
  353.5103 0.03 0
  353.7536 0.02 0
  354.1791 0.15 1
  354.4722 0.03 0
  354.6793 0.04 0
  355.1895 0.23 2
  355.6947 0.02 0
  355.8613 0.03 0
  356.0620 0.10 1
  356.2413 0.05 0
  356.5744 0.05 0
  356.6925 0.02 0
  356.8250 0.03 0
  357.2136 0.24 2
  358.1696 0.08 1
  358.3746 0.07 1
  358.4700 0.03 0
  358.6473 0.02 0
  359.1970 0.35 3
  359.4768 0.02 0
  359.6014 0.02 0
  360.2451 0.39 4
  361.2266 0.39 4
  361.4523 0.09 1
  361.5613 0.04 0
  361.6689 0.02 0
  362.2316 0.36 4
  362.4799 0.06 1
  362.8970 0.07 1
  363.2351 0.46 5
  363.4828 0.06 1
  363.6829 0.03 0
  364.1691 0.16 2
  364.3528 0.06 1
  365.2135 0.55 5
  365.6201 0.01 0
  366.1997 0.24 2
  366.4127 0.06 1
  366.7452 0.12 1
  367.2345 2.15 21
  367.5522 0.07 1
  367.7224 0.03 0
  367.9760 0.06 1
  368.1555 0.09 1
  368.3962 0.05 0
  369.1905 0.15 1
  369.7405 0.01 0
  370.0647 0.06 1
  370.2471 0.10 1
  370.6817 0.04 0
  371.2083 0.16 2
  371.6808 0.04 0
  371.7649 0.02 0
  372.1804 0.15 1
  372.3322 0.06 1
  372.4947 0.02 0
  372.6051 0.01 0
  372.8097 0.01 0
  373.2124 0.37 4
  373.5724 0.05 0
  373.7150 0.02 0
  373.8254 0.02 0
  374.2703 0.19 2
  374.4749 0.05 0
  374.6995 0.02 0
  375.2114 0.17 2
  375.5344 0.02 0
  375.6613 0.01 0
  376.2096 0.27 3
  376.3914 0.08 1
  376.6445 0.02 0
  377.2192 0.33 3
  377.5532 0.04 0
  377.8004 0.03 0
  378.2370 0.29 3
  378.6893 0.03 0
  379.2300 0.18 2
  379.6596 0.04 0
  380.2146 0.07 1
  380.4903 0.02 0
  380.7668 0.04 0
  381.2263 0.14 1
  381.6033 0.05 0
  381.8085 0.02 0
  382.1050 0.04 0
  382.3266 0.07 1
  382.4806 0.06 1
  383.2268 0.12 1
  383.7435 0.03 0
  384.3067 0.08 1
  384.6888 0.03 0
  384.8705 0.04 0
  385.2134 0.12 1
  385.6476 0.02 0
  385.8651 0.02 0
  386.1917 0.10 1
  386.4761 0.02 0
  387.2413 0.22 2
  387.4680 0.04 0
  387.7347 0.02 0
  388.2354 0.12 1
  388.6270 0.02 0
  388.7725 0.02 0
  389.2154 0.17 2
  389.3923 0.12 1
  389.4850 0.04 0
  389.9537 0.04 0
  390.1448 0.08 1
  390.3032 0.06 1
  390.4280 0.03 0
  390.6471 0.02 0
  390.7569 0.01 0
  391.2321 0.27 3
  391.4033 0.08 1
  391.6773 0.02 0
  391.9506 0.05 0
  392.2716 0.16 2
  392.6049 0.02 0
  392.7633 0.02 0
  393.2814 0.12 1
  393.4919 0.03 0
  393.6411 0.02 0
  393.7117 0.01 0
  394.1820 0.04 0
  394.3391 0.04 0
  394.6217 0.05 0
  395.2177 0.12 1
  395.3819 0.08 1
  395.5410 0.04 0
  395.7673 0.05 0
  395.9522 0.02 0
  396.3484 0.05 0
  396.5576 0.02 0
  396.7525 0.04 0
  397.2694 0.14 1
  397.6585 0.03 0
  398.1883 0.08 1
  398.5739 0.04 0
  398.7888 0.06 1
  399.2673 0.21 2
  399.5372 0.03 0
  399.6651 0.02 0
  399.7858 0.04 0
  400.2386 0.13 1
  400.4378 0.04 0
  400.6264 0.03 0
  400.7471 0.02 0
  401.2978 0.25 2
  401.5714 0.03 0
  401.8721 0.02 0
  402.2586 0.31 3
  402.6393 0.01 0
  403.0123 0.08 1
  403.2459 0.23 2
  403.4367 0.11 1
  403.6553 0.03 0
  403.9189 0.04 0
  404.2283 0.20 2
  404.3577 0.14 1
  404.4799 0.05 0
  404.7078 0.04 0
  405.0915 0.09 1
  405.2566 0.07 1
  405.3945 0.04 0
  405.5668 0.01 0
  405.7325 0.04 0
  405.8062 0.02 0
  405.9605 0.02 0
  406.1549 0.06 1
  406.3779 0.04 0
  406.7531 0.04 0
  406.9525 0.03 0
  407.2663 0.13 1
  407.4665 0.02 0
  407.7660 0.02 0
  407.9440 0.02 0
  408.1548 0.03 0
  408.4408 0.03 0
  408.5866 0.01 0
  408.8674 0.02 0
  409.2968 0.10 1
  409.4294 0.06 1
  409.6413 0.03 0
  409.8117 0.01 0
  410.2497 0.07 1
  410.6100 0.02 0
  410.7862 0.02 0
  411.2299 0.14 1
  411.5517 0.04 0
  411.6673 0.02 0
  411.8749 0.04 0
  412.2395 0.07 1
  412.6683 0.04 0
  413.2812 0.35 3
  413.6780 0.04 0
  414.2639 0.13 1
  414.4937 0.07 1
  414.6514 0.02 0
  414.8883 0.04 0
  415.2495 0.42 4
  415.9640 0.06 1
  416.2759 0.16 2
  416.5264 0.03 0
  416.7413 0.03 0
  416.8948 0.05 0
  417.2082 0.17 2
  417.3224 0.07 1
  417.5937 0.02 0
  418.2626 0.15 1
  418.5403 0.03 0
  418.8645 0.04 0
  419.2222 0.21 2
  419.4707 0.07 1
  419.6121 0.02 0
  419.7706 0.01 0
  419.9505 0.04 0
  420.2347 0.06 1
  420.3654 0.06 1
  420.5775 0.01 0
  420.7325 0.03 0
  421.3031 0.10 1
  421.5280 0.03 0
  421.7159 0.02 0
  421.8351 0.02 0
  422.0815 0.05 0
  422.2780 0.05 0
  422.5165 0.01 0
  422.6580 0.03 0
  422.9051 0.04 0
  423.2751 0.11 1
  423.6973 0.01 0
  423.8623 0.02 0
  423.9687 0.01 0
  424.1580 0.07 1
  424.2773 0.02 0
  424.3952 0.02 0
  424.5809 0.01 0
  425.1889 0.21 2
  425.3847 0.10 1
  425.5583 0.05 0
  425.7575 0.05 0
  425.8831 0.03 0
  426.2491 0.15 1
  426.5494 0.02 0
  426.7699 0.03 0
  427.2708 0.25 2
  427.4063 0.08 1
  428.2512 0.43 4
  428.6579 0.04 0
  429.2531 0.32 3
  429.4507 0.09 1
  429.6492 0.04 0
  429.8940 0.05 0
  430.2565 0.14 1
  430.4771 0.02 0
  430.6284 0.05 0
  431.2108 0.25 2
  431.7062 0.03 0
  431.9453 0.02 0
  432.1859 0.10 1
  432.3558 0.06 1
  432.4850 0.02 0
  432.7377 0.04 0
  433.1967 0.08 1
  433.6908 0.03 0
  433.9914 0.02 0
  434.1977 0.05 0
  434.4440 0.01 0
  434.6011 0.03 0
  434.7575 0.02 0
  434.9717 0.03 0
  435.2245 0.08 1
  435.4215 0.04 0
  435.8607 0.06 1
  436.0150 0.03 0
  436.1185 0.02 0
  436.2670 0.01 0
  436.3856 0.02 0
  436.7348 0.05 0
  437.2733 0.12 1
  437.8011 0.03 0
  438.1154 0.07 1
  438.2832 0.04 0
  438.6003 0.04 0
  438.8018 0.01 0
  439.2261 0.15 1
  439.5289 0.07 1
  439.9326 0.06 1
  440.2583 0.11 1
  440.4891 0.03 0
  440.7812 0.05 0
  440.9456 0.08 1
  441.2707 0.41 4
  441.7315 0.07 1
  442.0709 0.08 1
  442.2659 0.09 1
  442.4381 0.04 0
  442.5525 0.02 0
  442.7032 0.03 0
  442.8468 0.05 0
  443.2584 0.12 1
  443.5571 0.05 0
  444.2303 0.23 2
  444.4297 0.08 1
  444.5941 0.02 0
  444.7449 0.02 0
  445.2430 0.15 1
  445.5024 0.03 0
  445.7176 0.02 0
  446.1872 0.05 0
  446.5782 0.02 0
  447.1393 0.07 1
  447.5532 0.06 1
  447.7998 0.06 1
  447.9128 0.05 0
  448.1966 0.07 1
  448.4539 0.04 0
  448.6412 0.03 0
  449.0445 0.05 0
  449.4034 0.08 1
  449.8217 0.05 0
  450.1999 0.06 1
  450.4165 0.03 0
  450.6646 0.04 0
  451.1874 0.16 2
  452.1549 0.08 1
  452.3437 0.07 1
  452.5425 0.07 1
  452.8007 0.04 0
  453.2928 0.15 1
  453.5552 0.08 1
  453.7977 0.06 1
  453.9586 0.03 0
  454.2812 0.09 1
  454.5273 0.02 0
  455.2039 0.12 1
  455.4207 0.08 1
  456.2755 0.18 2
  457.0582 0.21 2
  457.4624 0.13 1
  457.7336 0.12 1
  458.1207 0.14 1
  458.3890 0.10 1
  458.5915 0.08 1
  459.2305 0.15 1
  459.5654 0.04 0
  459.6899 0.02 0
  460.0055 0.05 0
  460.2652 0.04 0
  460.7347 0.06 1
  461.1444 0.13 1
  461.2867 0.10 1
  461.4390 0.09 1
  461.6898 0.09 1
  461.9901 0.11 1
  462.2982 0.06 1
  462.5226 0.06 1
  462.7843 0.09 1
  463.3391 0.16 2
  463.7308 0.06 1
  464.1133 0.05 0
  464.6317 0.06 1
  464.8455 0.04 0
  465.2888 0.11 1
  465.4297 0.09 1
  465.7328 0.05 0
  466.2169 0.11 1
  466.4179 0.11 1
  466.7168 0.05 0
  467.3039 0.36 4
  467.4755 0.21 2
  467.7366 0.08 1
  467.8696 0.03 0
  468.2908 0.13 1
  468.6427 0.03 0
  469.2879 0.20 2
  469.4373 0.08 1
  469.7556 0.10 1
  470.1076 0.13 1
  470.4080 0.09 1
  470.7092 0.07 1
  471.1119 0.11 1
  471.4159 0.08 1
  471.5654 0.06 1
  471.8251 0.10 1
  472.0762 0.07 1
  472.3266 0.10 1
  472.6707 0.05 0
  472.9033 0.06 1
  473.0142 0.03 0
  473.2696 0.09 1
  473.5093 0.06 1
  473.6910 0.04 0
  473.7633 0.02 0
  473.9879 0.06 1
  474.1876 0.07 1
  474.4874 0.10 1
  474.8867 0.07 1
  475.0541 0.04 0
  475.3181 0.10 1
  475.5658 0.03 0
  475.8899 0.06 1
  476.0796 0.07 1
  476.3272 0.07 1
  476.4724 0.04 0
  476.8546 0.08 1
  477.2804 0.22 2
  477.6963 0.08 1
  478.2302 0.12 1
  478.4893 0.08 1
  478.6675 0.07 1
  478.8178 0.03 0
  478.9467 0.03 0
  479.1385 0.06 1
  479.3210 0.09 1
  479.4756 0.05 0
  479.6725 0.02 0
  479.8751 0.04 0
  480.1714 0.08 1
  480.5150 0.04 0
  480.7785 0.03 0
  481.2137 0.19 2
  481.5044 0.13 1
  481.6326 0.07 1
  481.8638 0.03 0
  482.0700 0.10 1
  482.3077 0.13 1
  482.4738 0.07 1
  482.6378 0.05 0
  482.8790 0.04 0
  483.2513 0.27 3
  483.4805 0.23 2
  483.5900 0.06 1
  484.2939 0.33 3
  484.6212 0.06 1
  484.7944 0.04 0
  485.1890 0.14 1
  485.3394 0.12 1
  485.4568 0.11 1
  485.5886 0.09 1
  485.7805 0.03 0
  485.9588 0.02 0
  486.2546 0.15 1
  486.5010 0.05 0
  486.6843 0.04 0
  486.9844 0.05 0
  487.2487 0.09 1
  487.5008 0.04 0
  488.0057 0.05 0
  488.4040 0.10 1
  488.5866 0.05 0
  488.7063 0.03 0
  489.2562 0.10 1
  489.7853 0.05 0
  490.0692 0.06 1
  490.3689 0.08 1
  490.7794 0.07 1
  491.3887 0.14 1
  492.3278 3.09 31
  492.7691 0.05 0
  493.0409 0.07 1
  493.3234 0.09 1
  493.6310 0.05 0
  493.9250 0.07 1
  494.3084 0.07 1
  494.6203 0.04 0
  494.8170 0.04 0
  495.1468 0.12 1
  495.3228 0.13 1
  495.7155 0.06 1
  495.7928 0.02 0
  495.9803 0.01 0
  496.1541 0.03 0
  496.4260 0.09 1
  496.6227 0.05 0
  496.7508 0.02 0
  497.3089 0.20 2
  497.6086 0.01 0
  497.9535 0.03 0
  498.3127 0.17 2
  498.5052 0.08 1
  498.7907 0.01 0
  499.2208 0.14 1
  499.3488 0.15 1
  499.4440 0.03 0
  499.8591 0.02 0
  500.0680 0.02 0
  500.2455 0.03 0
  500.4387 0.07 1
  500.6140 0.01 0
  500.8960 0.03 0
  501.2982 0.04 0
  501.3884 0.03 0
  501.7004 0.02 0
  502.1205 0.05 0
  502.4884 0.04 0
  502.7683 0.02 0
  503.0760 0.06 1
  503.3301 0.07 1
  503.7553 0.02 0
  504.3280 0.24 2
  504.5964 0.13 1
  504.7704 0.02 0
  505.3244 0.20 2
  505.5320 0.11 1
  505.7110 0.04 0
  505.8406 0.02 0
  506.0732 0.02 0
  506.1885 0.03 0
  506.3288 0.03 0
  506.4612 0.02 0
  506.6646 0.03 0
  506.8400 0.02 0
  506.9703 0.03 0
  507.3748 0.07 1
  507.8602 0.03 0
  508.1158 0.03 0
  508.2855 0.03 0
  508.4996 0.05 0
  509.0545 0.09 1
  509.3853 0.10 1
  509.8200 0.02 0
  510.3141 0.17 2
  510.6549 0.08 1
  510.9686 0.06 1
  511.3424 0.13 1
  511.6919 0.10 1
  511.9419 0.02 0
  512.3436 0.08 1
  512.6638 0.06 1
  513.0577 0.04 0
  513.3234 0.13 1
  513.4989 0.04 0
  513.7990 0.04 0
  513.9830 0.04 0
  514.2323 0.04 0
  514.3763 0.03 0
  514.5009 0.03 0
  514.6435 0.02 0
  514.8004 0.04 0
  515.0203 0.02 0
  515.1320 0.04 0
  515.3325 0.05 0
  515.5826 0.06 1
  515.8391 0.03 0
  516.1671 0.07 1
  516.4786 0.06 1
  517.1211 0.06 1
  517.3483 0.05 0
  517.5984 0.09 1
  517.7735 0.05 0
  518.0115 0.05 0
  518.2673 0.05 0
  518.5582 0.03 0
  518.7947 0.06 1
  519.0770 0.04 0
  519.2307 0.05 0
  519.5001 0.11 1
  519.6745 0.02 0
  519.8611 0.04 0
  520.1376 0.09 1
  520.2363 0.05 0
  520.5822 0.06 1
  521.2677 0.15 1
  521.4278 0.13 1
  521.5822 0.04 0
  521.8702 0.03 0
  522.0497 0.06 1
  522.1290 0.03 0
  522.3220 0.07 1
  522.5736 0.08 1
  522.8210 0.05 0
  523.2778 0.12 1
  523.5015 0.09 1
  523.6824 0.03 0
  523.9225 0.05 0
  524.2128 0.11 1
  524.5789 0.09 1
  524.7011 0.02 0
  525.3016 0.34 3
  525.5211 0.16 2
  525.7342 0.03 0
  526.2983 0.40 4
  526.6172 0.10 1
  526.7438 0.01 0
  527.2936 0.23 2
  527.5961 0.08 1
  527.7319 0.04 0
  527.9658 0.05 0
  528.2282 0.18 2
  528.4005 0.11 1
  528.6844 0.01 0
  528.8804 0.04 0
  529.0363 0.04 0
  529.1378 0.02 0
  529.2930 0.03 0
  529.4410 0.04 0
  529.5225 0.02 0
  529.6649 0.07 1
  529.7800 0.02 0
  529.9537 0.02 0
  530.2084 0.06 1
  530.3750 0.03 0
  530.5101 0.06 1
  530.6081 0.02 0
  530.7204 0.02 0
  530.8763 0.03 0
  531.0472 0.03 0
  531.3491 0.03 0
  531.6588 0.04 0
  531.8275 0.01 0
  531.9935 0.04 0
  532.2016 0.07 1
  532.4849 0.05 0
  532.6093 0.06 1
  533.2566 0.22 2
  533.5541 0.09 1
  533.8260 0.05 0
  533.9454 0.02 0
  534.3568 0.07 1
  534.6543 0.05 0
  535.3511 0.15 1
  535.5778 0.09 1
  535.7695 0.04 0
  536.4413 0.12 1
  536.9235 0.06 1
  537.2269 0.16 2
  537.5466 0.18 2
  538.2779 0.19 2
  539.3683 0.26 3
  539.5007 0.16 2
  540.3257 0.56 6
  540.5876 0.19 2
  540.8981 0.12 1
  541.3719 0.27 3
  541.5873 0.12 1
  541.9036 0.18 2
  542.1541 0.17 2
  542.7416 0.12 1
  543.2447 0.15 1
  543.5668 0.17 2
  543.8552 0.14 1
  544.0978 0.20 2
  544.3569 0.17 2
  544.9188 0.15 1
  545.2001 0.15 1
  545.6703 0.24 2
  545.9874 0.18 2
  546.5722 0.18 2
  547.3074 0.24 2
  547.5958 0.16 2
  548.3647 0.37 4
  548.8915 0.16 2
  549.3232 0.35 3
  549.6082 0.17 2
  550.2604 0.27 3
  551.3508 1.70 17
  551.9250 0.11 1
  552.3525 0.19 2
  552.7034 0.09 1
  553.3364 0.21 2
  554.4520 0.41 4
  555.4474 0.45 4
  556.4866 0.57 6
  566.4183 30.61 306
  567.4119 2.97 30
  569.4033 11.54 115
  569.8582 0.93 9
  570.9449 0.62 6
  584.3458 99.97 999
  585.3789 16.72 167
  586.1460 7.56 76
  586.9439 4.03 40
  587.7812 2.12 21
  588.8659 1.02 10
  589.9507 0.58 6
  590.6615 0.35 3
  591.4903 0.36 4
  591.7943 0.24 2
  592.3778 0.20 2
  592.9600 0.16 2
  593.2410 0.13 1
//
