ACCESSION: MSBNK-Kyoto_Univ-CA000133
RECORD_TITLE: 3,4-Dihydrospirilloxanthin; FAB-EBEB; MS2; m/z: 598.48; [M]*+
DATE: 2016.01.19 (Created 2007.03.15, modified 2011.05.10)
AUTHORS: Akimoto N, Graduate School of Pharmaceutical Sciences, Kyoto University and Maoka T, Research Institute for Production Development
LICENSE: CC BY-SA
COMMENT: Profile spectrum of this record is given as a JPEG file.
COMMENT: [Profile] CA000133.jpg
CH$NAME: 3,4-Dihydrospirilloxanthin
CH$COMPOUND_CLASS: Natural Product; Carotenoid
CH$FORMULA: C42H62O2
CH$EXACT_MASS: 598.47498
CH$SMILES: C(CCCC(C)(C)OC)(=CC=CC(C)=CC=CC(C)=CC=CC=C(C)C=CC=C(C=CC=C(C=CCC(C)(C)OC)C)C)C
CH$IUPAC: InChI=1S/C42H62O2/c1-35(23-15-25-37(3)27-17-29-39(5)31-19-33-41(7,8)43-11)21-13-14-22-36(2)24-16-26-38(4)28-18-30-40(6)32-20-34-42(9,10)44-12/h13-19,21-31H,20,32-34H2,1-12H3/b14-13+,23-15+,24-16+,27-17+,28-18+,31-19+,35-21+,36-22+,37-25+,38-26+,39-29+,40-30+
CH$LINK: CHEMSPIDER 17220952
CH$LINK: PUBCHEM CID:16061284
CH$LINK: INCHIKEY SWAVOVMQOZIPBB-MJNMNOQESA-N
AC$INSTRUMENT: JMS-HX/HX 110A, JEOL
AC$INSTRUMENT_TYPE: FAB-EBEB
AC$MASS_SPECTROMETRY: MS_TYPE MS2
AC$MASS_SPECTROMETRY: ION_MODE POSITIVE
AC$MASS_SPECTROMETRY: ATOM_GUN_CURRENT 5 mA
AC$MASS_SPECTROMETRY: BOMBARDMENT 6 kV xenon
AC$MASS_SPECTROMETRY: COLLISION_ENERGY 3 kV
AC$MASS_SPECTROMETRY: COLLISION_GAS Ar
AC$MASS_SPECTROMETRY: GAS_PRESSURE adjust to attenuate the intensity of the precursor ion by 30 %
AC$MASS_SPECTROMETRY: IONIZATION FAB
AC$MASS_SPECTROMETRY: MATRIX 1-2 uL m-NBA
AC$MASS_SPECTROMETRY: PROBE_TIP stainless-steel
MS$FOCUSED_ION: BASE_PEAK 598.3620
MS$FOCUSED_ION: PRECURSOR_M/Z 598.48
MS$FOCUSED_ION: PRECURSOR_TYPE [M]+*
PK$SPLASH: splash10-0002-4930180000-6ec35e58442a0572c7a3
PK$NUM_PEAK: 1279
PK$PEAK: m/z int. rel.int.
  0.2061 0.01 0
  13.9703 0.09 1
  14.9811 0.19 2
  22.9359 0.08 1
  25.9674 0.18 2
  26.9612 0.61 6
  27.9719 0.06 1
  28.9600 0.39 4
  29.9397 0.02 0
  30.9276 0.04 0
  32.9371 0.07 1
  36.9023 0.08 1
  36.9744 0.01 0
  37.9561 0.09 1
  38.9436 0.68 7
  39.9630 0.24 2
  40.6591 0.05 0
  40.8273 0.03 0
  40.9695 1.26 13
  41.9655 0.31 3
  42.9647 1.46 15
  44.4961 0.01 0
  44.9800 0.30 3
  48.8989 0.09 1
  49.9540 0.31 3
  50.8112 0.01 0
  50.9508 0.26 3
  51.8773 0.05 0
  51.9816 0.09 1
  52.9655 0.56 6
  53.9737 0.03 0
  54.9846 1.17 12
  55.9673 0.11 1
  56.9702 0.12 1
  57.9408 0.01 0
  59.0130 0.06 1
  60.7000 0.05 0
  60.9393 0.02 0
  61.7302 0.03 0
  61.9647 0.19 2
  62.9273 0.26 3
  63.8786 0.08 1
  64.7066 0.09 1
  64.9769 0.52 5
  65.9341 0.09 1
  66.8454 0.03 0
  66.9936 0.74 7
  68.7379 0.03 0
  68.9940 1.14 11
  70.9677 0.03 0
  71.9909 0.05 0
  72.9817 46.52 465
  73.3659 0.03 0
  73.6958 0.10 1
  73.9821 1.50 15
  74.9367 0.09 1
  75.7137 0.01 0
  75.9437 0.20 2
  76.3464 0.07 1
  76.6376 0.02 0
  76.7816 0.18 2
  76.9498 1.44 14
  77.1281 0.05 0
  77.3006 0.05 0
  77.6347 0.11 1
  77.9531 0.22 2
  78.5612 0.01 0
  78.9524 2.42 24
  79.6944 0.06 1
  79.8731 0.13 1
  79.9862 0.23 2
  80.6542 0.02 0
  80.9826 2.67 27
  81.8219 0.08 1
  81.9309 0.06 1
  82.0220 0.07 1
  82.1269 0.02 0
  83.0200 0.11 1
  84.8103 0.05 0
  84.9620 0.19 2
  85.6222 0.06 1
  85.7572 0.06 1
  85.9195 0.16 2
  86.9626 0.06 1
  87.9123 0.11 1
  88.9149 0.31 3
  89.2861 0.01 0
  89.9114 0.23 2
  90.2511 0.02 0
  90.5800 0.12 1
  90.9282 3.54 35
  91.4817 0.04 0
  91.9468 0.51 5
  92.7700 0.20 2
  92.9647 3.35 33
  93.8603 0.10 1
  93.9547 0.04 0
  94.7613 0.09 1
  95.0032 1.65 16
  95.3052 0.06 1
  96.0096 0.11 1
  96.9064 0.10 1
  97.0176 0.13 1
  97.8653 0.07 1
  98.7575 0.05 0
  98.9939 0.23 2
  100.9375 0.33 3
  101.3079 0.10 1
  101.4552 0.10 1
  101.9169 0.26 3
  102.9353 1.15 11
  103.1963 0.10 1
  103.7156 0.08 1
  103.9537 0.51 5
  104.9628 7.40 74
  105.4769 0.05 0
  105.6014 0.01 0
  105.9624 0.49 5
  106.2578 0.05 0
  106.6654 0.04 0
  106.9948 2.30 23
  107.1824 0.11 1
  107.9674 0.05 0
  108.9910 0.66 7
  109.1197 0.15 1
  109.7895 0.02 0
  109.9909 0.15 1
  110.6509 0.08 1
  111.0059 0.25 2
  111.9500 0.06 1
  112.7245 0.12 1
  112.8534 0.13 1
  113.4252 0.04 0
  113.6246 0.05 0
  113.7742 0.09 1
  114.3129 0.04 0
  114.9000 2.92 29
  115.4473 0.11 1
  115.9104 1.03 10
  116.1145 0.09 1
  116.4855 0.15 1
  116.9282 3.18 32
  117.4560 0.05 0
  117.5544 0.02 0
  117.9411 0.48 5
  118.2527 0.01 0
  118.9510 8.27 83
  119.2515 0.06 1
  119.7302 0.21 2
  119.9690 0.52 5
  120.3306 0.07 1
  120.7098 0.19 2
  120.9781 1.96 20
  121.3021 0.10 1
  121.4282 0.05 0
  121.9570 0.11 1
  122.3157 0.03 0
  123.0098 0.40 4
  124.9609 0.26 3
  125.2359 0.07 1
  125.5976 0.09 1
  125.9172 0.17 2
  126.1529 0.12 1
  126.4988 0.03 0
  126.6916 0.11 1
  126.9178 1.15 11
  127.2457 0.09 1
  127.4225 0.09 1
  127.8995 5.36 54
  128.2468 0.12 1
  128.8922 4.58 46
  129.3152 0.07 1
  129.5650 0.05 0
  129.6821 0.11 1
  129.9229 1.80 18
  130.3385 0.01 0
  130.9188 4.78 48
  131.3192 0.15 1
  131.5645 0.15 1
  131.9193 1.12 11
  132.1148 0.02 0
  132.6820 0.20 2
  132.9650 3.10 31
  133.2226 0.05 0
  133.6202 0.08 1
  133.7274 0.15 1
  133.9654 0.58 6
  134.7510 0.02 0
  134.9755 0.56 6
  135.7898 0.11 1
  135.9585 0.25 2
  136.7790 0.03 0
  136.9117 0.12 1
  137.6252 0.02 0
  137.8130 0.19 2
  137.9121 0.07 1
  138.5484 0.07 1
  138.6755 0.09 1
  138.8859 0.32 3
  139.6614 0.03 0
  139.8880 0.49 5
  140.1054 0.02 0
  140.4010 0.19 2
  140.5157 0.29 3
  140.6431 0.11 1
  140.9236 3.58 36
  141.2521 0.05 0
  141.5793 0.17 2
  141.9286 3.41 34
  142.3026 0.10 1
  142.5604 0.13 1
  142.9280 6.94 69
  143.4121 0.05 0
  143.9218 1.79 18
  144.1487 0.15 1
  144.5656 0.38 4
  144.9499 7.77 78
  145.9465 0.71 7
  146.1219 0.03 0
  146.4008 0.04 0
  146.5295 0.08 1
  146.9634 1.64 16
  147.1163 0.12 1
  147.2078 0.08 1
  147.3794 0.06 1
  147.5143 0.01 0
  147.7188 0.10 1
  147.9339 0.14 1
  148.0683 0.14 1
  148.2614 0.12 1
  148.4252 0.05 0
  148.6165 0.08 1
  148.9629 0.36 4
  149.6622 0.14 1
  149.8236 0.23 2
  149.9903 0.12 1
  150.5442 0.05 0
  150.8933 0.30 3
  151.0428 0.34 3
  151.2325 0.06 1
  151.5262 0.10 1
  151.6617 0.10 1
  151.9085 1.17 12
  152.0796 0.14 1
  152.2084 0.12 1
  152.3158 0.03 0
  152.5071 0.04 0
  152.6555 0.17 2
  152.9032 2.06 21
  153.3646 0.07 1
  153.5682 0.08 1
  153.9203 1.11 11
  154.2961 0.01 0
  154.5395 0.18 2
  154.7124 0.12 1
  154.9491 2.62 26
  155.6012 0.15 1
  155.9459 2.69 27
  156.5144 0.15 1
  156.9598 5.28 53
  157.4182 0.15 1
  157.6933 0.10 1
  157.8167 0.21 2
  157.9962 0.98 10
  158.1351 0.11 1
  158.2458 0.11 1
  158.5285 0.04 0
  158.9855 1.86 19
  159.2813 0.09 1
  159.9427 0.16 2
  160.4239 0.04 0
  160.9073 0.09 1
  161.0257 0.17 2
  161.9905 0.15 1
  162.5078 0.06 1
  162.9345 0.43 4
  163.1107 0.13 1
  163.6948 0.16 2
  163.9518 0.31 3
  164.0467 0.12 1
  164.4671 0.13 1
  164.6890 0.19 2
  164.9570 2.52 25
  165.9548 1.08 11
  166.1429 0.10 1
  166.4160 0.03 0
  166.5770 0.06 1
  166.9664 2.02 20
  167.3165 0.10 1
  167.4382 0.05 0
  167.6360 0.11 1
  167.9665 0.77 8
  168.4346 0.10 1
  168.9852 3.62 36
  169.1683 0.21 2
  169.3337 0.04 0
  169.6483 0.12 1
  169.8179 0.20 2
  170.0066 1.10 11
  170.5016 0.15 1
  170.9942 2.08 21
  171.3571 0.04 0
  171.5067 0.11 1
  171.6196 0.11 1
  171.7100 0.16 2
  172.0126 0.51 5
  172.6425 0.13 1
  173.0134 0.77 8
  173.4770 0.02 0
  173.9598 0.05 0
  174.8714 0.04 0
  175.0691 0.22 2
  175.6799 0.06 1
  175.9698 0.33 3
  176.5292 0.12 1
  176.9441 0.29 3
  177.2254 0.17 2
  177.4664 0.14 1
  177.6596 0.18 2
  177.9540 1.62 16
  178.2737 0.05 0
  178.4663 0.10 1
  178.9385 2.11 21
  179.7125 0.13 1
  179.9566 0.69 7
  180.3828 0.04 0
  180.7208 0.29 3
  180.9747 3.38 34
  181.6990 0.14 1
  181.9839 1.57 16
  182.3010 0.09 1
  182.4209 0.11 1
  182.5066 0.09 1
  182.6539 0.16 2
  182.9924 3.22 32
  183.2152 0.23 2
  184.0084 0.84 8
  184.4227 0.08 1
  184.6031 0.16 2
  184.7561 0.08 1
  185.0142 1.06 11
  186.0219 0.45 4
  186.5686 0.12 1
  187.0434 0.45 4
  187.7093 0.18 2
  187.9424 0.16 2
  188.0689 0.06 1
  188.5448 0.08 1
  188.9451 0.63 6
  189.2485 0.07 1
  189.6112 0.06 1
  189.9478 0.51 5
  190.1391 0.11 1
  190.2823 0.04 0
  190.4345 0.03 0
  190.9324 1.66 17
  191.1143 0.12 1
  191.2610 0.05 0
  191.5793 0.08 1
  191.6682 0.10 1
  191.9653 0.87 9
  192.4202 0.12 1
  192.5160 0.13 1
  192.6608 0.12 1
  192.9559 2.12 21
  193.2263 0.09 1
  193.5036 0.11 1
  193.6340 0.12 1
  193.9659 1.72 17
  194.2805 0.10 1
  194.3751 0.10 1
  194.5380 0.11 1
  194.9743 2.94 29
  195.4646 0.12 1
  195.6704 0.03 0
  196.0047 0.74 7
  196.4801 0.10 1
  196.6432 0.10 1
  196.9874 2.83 28
  197.2964 0.10 1
  197.5328 0.05 0
  197.8191 0.09 1
  197.9803 0.71 7
  198.1380 0.11 1
  198.7682 0.08 1
  199.0194 0.52 5
  199.3253 0.05 0
  199.5059 0.18 2
  199.8147 0.08 1
  199.9947 0.33 3
  200.7267 0.10 1
  201.0169 0.32 3
  201.4091 0.09 1
  201.5712 0.03 0
  201.9178 0.73 7
  202.1146 0.04 0
  202.5125 0.07 1
  202.6581 0.05 0
  202.9466 0.86 9
  203.5057 0.17 2
  203.6562 0.15 1
  203.9525 0.59 6
  204.6596 0.09 1
  204.9748 0.69 7
  205.3726 0.08 1
  205.5518 0.10 1
  205.9873 0.65 6
  206.6333 0.07 1
  206.9780 1.58 16
  207.3485 0.13 1
  207.6355 0.08 1
  208.0068 1.02 10
  208.4971 0.10 1
  208.5979 0.05 0
  208.9909 2.54 25
  209.5002 0.12 1
  209.7765 0.08 1
  210.0083 0.52 5
  210.3904 0.10 1
  210.5241 0.07 1
  210.7141 0.11 1
  211.0073 1.13 11
  211.2274 0.04 0
  211.7170 0.07 1
  212.0451 0.55 5
  212.2228 0.07 1
  212.4430 0.11 1
  212.5629 0.21 2
  212.7197 0.13 1
  213.0159 0.80 8
  213.9083 0.11 1
  214.1105 0.21 2
  214.3630 0.02 0
  214.5974 0.10 1
  214.7313 0.08 1
  214.9636 0.41 4
  215.3607 0.05 0
  215.6887 0.15 1
  215.9818 0.66 7
  216.2443 0.11 1
  216.6681 0.06 1
  216.9628 0.71 7
  217.4070 0.10 1
  217.9644 0.36 4
  218.1943 0.06 1
  218.3306 0.11 1
  218.5444 0.17 2
  218.9952 1.23 12
  219.2895 0.13 1
  219.4741 0.04 0
  219.8181 0.09 1
  220.0222 0.44 4
  220.5251 0.13 1
  221.0036 1.09 11
  221.6740 0.11 1
  221.8776 0.12 1
  222.0407 0.39 4
  222.3102 0.05 0
  222.7877 0.20 2
  223.0265 0.89 9
  223.2288 0.08 1
  223.5608 0.02 0
  223.6687 0.07 1
  223.8669 0.04 0
  224.0336 0.27 3
  224.1359 0.11 1
  225.0476 0.60 6
  225.3006 0.05 0
  225.4156 0.09 1
  225.6707 0.11 1
  226.0213 0.14 1
  226.2807 0.06 1
  226.5002 0.03 0
  226.9947 0.30 3
  227.7447 0.13 1
  227.9636 0.28 3
  228.5749 0.02 0
  228.7834 0.14 1
  229.0319 0.62 6
  229.1224 0.19 2
  229.6104 0.13 1
  230.0016 0.33 3
  230.9900 0.92 9
  231.3631 0.12 1
  231.7869 0.10 1
  232.0195 0.59 6
  232.7307 0.11 1
  233.0259 1.28 13
  233.1907 0.13 1
  233.3611 0.04 0
  233.7678 0.05 0
  234.0224 0.40 4
  234.1417 0.10 1
  234.4012 0.14 1
  234.6531 0.11 1
  235.0635 0.58 6
  235.2565 0.10 1
  235.6762 0.10 1
  235.9682 0.16 2
  236.0945 0.04 0
  236.3290 0.13 1
  237.0234 0.47 5
  238.0482 0.03 0
  239.0059 0.41 4
  239.4424 0.10 1
  239.5921 0.04 0
  239.9590 0.28 3
  240.0560 0.10 1
  240.3738 0.02 0
  240.5827 0.05 0
  240.7451 0.20 2
  241.0264 0.67 7
  241.1706 0.13 1
  241.2902 0.04 0
  241.5955 0.10 1
  241.9852 0.46 5
  242.6311 0.01 0
  243.0238 0.44 4
  243.5159 0.10 1
  243.6566 0.03 0
  244.0150 0.63 6
  244.1720 0.15 1
  245.0269 0.86 9
  245.2671 0.12 1
  245.7419 0.05 0
  246.0096 0.28 3
  246.6706 0.12 1
  247.0216 0.81 8
  247.7596 0.06 1
  247.8978 0.17 2
  248.0882 0.26 3
  248.5783 0.09 1
  248.9055 0.20 2
  249.0811 0.35 3
  249.3407 0.13 1
  249.8183 0.03 0
  250.0829 0.05 0
  250.6305 0.03 0
  251.0666 0.17 2
  251.7069 0.11 1
  252.0204 0.20 2
  252.5372 0.11 1
  252.7152 0.08 1
  252.8705 0.11 1
  253.0796 0.18 2
  253.6475 0.12 1
  253.9591 0.20 2
  254.4162 0.05 0
  254.9816 0.16 2
  255.1611 0.12 1
  255.9655 0.13 1
  256.1691 0.07 1
  256.6853 0.04 0
  257.0565 0.55 5
  257.5163 0.05 0
  258.0610 0.22 2
  258.7550 0.11 1
  259.0175 0.71 7
  259.2440 0.02 0
  259.6183 0.07 1
  260.0090 0.33 3
  261.0390 0.48 5
  262.0537 0.22 2
  262.1798 0.12 1
  262.5035 0.11 1
  262.8584 0.12 1
  263.0702 0.35 3
  263.7334 0.07 1
  264.0693 0.17 2
  264.5406 0.12 1
  265.0148 0.32 3
  266.0414 0.36 4
  266.4243 0.09 1
  267.0095 0.31 3
  267.1216 0.21 2
  267.9331 0.06 1
  268.0757 0.02 0
  268.4887 0.08 1
  268.9323 0.09 1
  269.0855 0.25 2
  269.8571 0.12 1
  269.9586 0.07 1
  270.0900 0.06 1
  270.7688 0.09 1
  271.0336 0.39 4
  271.8064 0.11 1
  272.0187 0.20 2
  272.2141 0.06 1
  272.3292 0.11 1
  272.7917 0.11 1
  273.0148 0.40 4
  273.1136 0.19 2
  273.9315 0.07 1
  274.1291 0.13 1
  274.6842 0.23 2
  274.8805 0.07 1
  275.1065 0.40 4
  276.0081 0.23 2
  276.2307 0.06 1
  276.6568 0.12 1
  277.1062 0.27 3
  277.7741 0.01 0
  277.9920 0.21 2
  278.0928 0.24 2
  279.0605 0.26 3
  280.0165 0.31 3
  280.1635 0.09 1
  280.3887 0.12 1
  280.9357 0.15 1
  281.0977 0.16 2
  281.5204 0.10 1
  282.0868 0.25 2
  282.7919 0.02 0
  283.0869 0.18 2
  283.5930 0.03 0
  283.9890 0.05 0
  284.1334 0.06 1
  284.6781 0.08 1
  285.0195 0.20 2
  285.1382 0.11 1
  285.5551 0.02 0
  286.2266 0.19 2
  286.4564 0.03 0
  287.0391 0.47 5
  287.1153 0.21 2
  287.9330 0.07 1
  288.0241 0.09 1
  288.4042 0.04 0
  289.0648 0.27 3
  289.1958 0.15 1
  290.1656 0.10 1
  290.9975 0.17 2
  291.1962 0.11 1
  291.4498 0.11 1
  292.2093 0.13 1
  292.5057 0.12 1
  292.9069 0.10 1
  293.0558 0.10 1
  293.2632 0.05 0
  294.0915 0.10 1
  294.8747 0.13 1
  295.0520 0.29 3
  296.0228 0.12 1
  296.8726 0.08 1
  297.0564 0.13 1
  297.2160 0.01 0
  298.0590 0.06 1
  298.1744 0.04 0
  298.9042 0.12 1
  298.9933 0.14 1
  299.1288 0.20 2
  299.3440 0.11 1
  300.0812 0.08 1
  300.9354 0.37 4
  301.0595 0.22 2
  301.2213 0.16 2
  301.9881 0.11 1
  302.2391 0.11 1
  303.0310 0.22 2
  303.1901 0.11 1
  303.5854 0.09 1
  304.0641 0.15 1
  304.6565 0.10 1
  305.0062 0.21 2
  306.0784 0.11 1
  306.9159 0.09 1
  307.9343 0.13 1
  308.1921 0.12 1
  308.9729 0.10 1
  309.0986 0.12 1
  309.9588 0.10 1
  310.1160 0.02 0
  311.0529 0.08 1
  311.6783 0.11 1
  311.9177 0.10 1
  312.0192 0.10 1
  312.6648 0.05 0
  313.1259 0.23 2
  313.5271 0.10 1
  313.6422 0.11 1
  313.8639 0.06 1
  314.0391 0.12 1
  314.1413 0.16 2
  314.6033 0.07 1
  314.9660 0.05 0
  315.0919 0.11 1
  315.6971 0.05 0
  315.9575 0.20 2
  316.1699 0.07 1
  316.8125 0.13 1
  316.9706 0.15 1
  317.0686 0.21 2
  317.1667 0.06 1
  318.0391 0.12 1
  319.1006 0.12 1
  319.1829 0.06 1
  319.9898 0.10 1
  322.2328 0.05 0
  322.7651 0.01 0
  323.1699 0.06 1
  323.6814 0.12 1
  323.9329 0.16 2
  324.1300 0.10 1
  324.8273 0.09 1
  325.0014 0.29 3
  325.1018 0.12 1
  325.7483 0.13 1
  326.7039 0.11 1
  326.9806 0.10 1
  327.1212 0.12 1
  328.8781 0.03 0
  328.9627 0.02 0
  329.1485 0.08 1
  329.9713 0.11 1
  330.1284 0.15 1
  330.8932 0.05 0
  331.3510 0.03 0
  331.8698 0.04 0
  331.9745 0.10 1
  332.0764 0.05 0
  334.1150 0.10 1
  335.1403 0.17 2
  335.5029 0.11 1
  336.0674 0.09 1
  336.9845 0.15 1
  337.1756 0.15 1
  338.2829 0.10 1
  339.0891 0.05 0
  340.3973 0.03 0
  341.1147 0.26 3
  341.8365 0.14 1
  342.1842 0.16 2
  342.6518 0.05 0
  343.0089 0.13 1
  343.1353 0.11 1
  343.8962 0.11 1
  343.9874 0.11 1
  344.1857 0.16 2
  344.8246 0.10 1
  345.0639 0.08 1
  346.0837 0.20 2
  346.2965 0.09 1
  347.1354 0.14 1
  348.6468 0.14 1
  348.8999 0.07 1
  349.3177 0.08 1
  350.0196 0.11 1
  351.0878 0.13 1
  352.2281 0.15 1
  352.9498 0.08 1
  353.0426 0.08 1
  354.0156 0.10 1
  355.0737 0.17 2
  355.2860 0.07 1
  356.0016 0.06 1
  356.1139 0.09 1
  356.8864 0.05 0
  357.0636 0.11 1
  357.1493 0.05 0
  358.1149 0.04 0
  358.5348 0.05 0
  360.1656 0.09 1
  360.8111 0.05 0
  361.0884 0.15 1
  362.3919 0.12 1
  363.0809 0.10 1
  363.3151 0.13 1
  364.0366 0.07 1
  365.2701 0.10 1
  365.5241 0.04 0
  367.1980 0.08 1
  367.6648 0.12 1
  368.2473 0.04 0
  368.5253 0.09 1
  368.8328 0.10 1
  369.0310 0.08 1
  369.2379 0.20 2
  369.9958 0.13 1
  370.2797 0.20 2
  371.1297 0.15 1
  372.0610 0.21 2
  372.3730 0.11 1
  372.8336 0.11 1
  373.1262 0.08 1
  374.2383 0.29 3
  374.8723 0.15 1
  375.9250 0.03 0
  376.0674 0.08 1
  376.2593 0.13 1
  377.2252 0.13 1
  378.0091 0.09 1
  378.2206 0.28 3
  378.5097 0.05 0
  379.1025 0.14 1
  379.7277 0.13 1
  380.0126 0.12 1
  380.0889 0.07 1
  380.7146 0.07 1
  381.0069 0.12 1
  381.3093 0.10 1
  381.9891 0.05 0
  382.6776 0.09 1
  383.1745 0.10 1
  384.1591 0.04 0
  384.8046 0.08 1
  384.9926 0.06 1
  385.2195 0.16 2
  386.1057 0.09 1
  387.0367 0.12 1
  387.8596 0.01 0
  389.1440 0.07 1
  390.0970 0.08 1
  390.3291 0.07 1
  390.8503 0.11 1
  392.1762 0.04 0
  394.3462 0.10 1
  394.6390 0.09 1
  395.1613 0.11 1
  396.3451 0.09 1
  397.1841 0.12 1
  397.3082 0.12 1
  397.9122 0.10 1
  398.2434 0.05 0
  399.0725 0.15 1
  400.0389 0.06 1
  400.1934 0.12 1
  400.3290 0.05 0
  400.8112 0.06 1
  402.0990 0.13 1
  403.2275 0.09 1
  404.0781 0.08 1
  404.9952 0.07 1
  405.3397 0.13 1
  405.9514 0.11 1
  406.0829 0.09 1
  406.6729 0.09 1
  406.9865 0.08 1
  407.3426 0.02 0
  409.1783 0.12 1
  411.8932 0.13 1
  413.0399 0.08 1
  414.2829 0.07 1
  414.9828 0.12 1
  416.0572 0.10 1
  416.1489 0.13 1
  416.2607 0.06 1
  416.8907 0.02 0
  417.0141 0.02 0
  417.2891 0.06 1
  417.6940 0.13 1
  418.0946 0.06 1
  418.2844 0.20 2
  418.8005 0.11 1
  419.3130 0.15 1
  419.4365 0.09 1
  419.8227 0.11 1
  420.2529 0.07 1
  420.9836 0.11 1
  421.2637 0.21 2
  422.1259 0.19 2
  422.2681 0.20 2
  422.8537 0.05 0
  423.0668 0.21 2
  423.2971 0.14 1
  423.9413 0.14 1
  424.0114 0.07 1
  424.2310 0.45 4
  424.3891 0.11 1
  425.0970 0.10 1
  425.2747 0.10 1
  425.3982 0.11 1
  426.1906 0.06 1
  427.1189 0.10 1
  428.0596 0.14 1
  428.1557 0.11 1
  429.3689 0.10 1
  429.7069 0.10 1
  430.1160 0.12 1
  430.2141 0.15 1
  430.3823 0.03 0
  430.9935 0.16 2
  431.0945 0.13 1
  431.8357 0.08 1
  432.0637 0.08 1
  432.1864 0.18 2
  432.2615 0.07 1
  432.8447 0.11 1
  433.1305 0.08 1
  433.3932 0.11 1
  433.5304 0.07 1
  435.1120 0.11 1
  436.2462 0.10 1
  436.6657 0.04 0
  437.2809 0.16 2
  438.0860 0.10 1
  438.2666 0.15 1
  438.4052 0.07 1
  438.9245 0.08 1
  439.0176 0.07 1
  439.3340 0.23 2
  440.0598 0.21 2
  440.2180 0.20 2
  440.3213 0.12 1
  441.6078 0.12 1
  442.2543 0.20 2
  442.8705 0.11 1
  443.2057 0.12 1
  444.1031 0.08 1
  444.2274 0.12 1
  444.4290 0.09 1
  444.6082 0.11 1
  445.7911 0.04 0
  446.2406 0.08 1
  446.4639 0.09 1
  446.8166 0.10 1
  447.2950 0.10 1
  447.6210 0.08 1
  448.2000 0.10 1
  448.3344 0.11 1
  448.9460 0.09 1
  449.0464 0.11 1
  450.0722 0.14 1
  450.9044 0.13 1
  451.0627 0.12 1
  451.2413 0.12 1
  451.5103 0.08 1
  452.1378 0.06 1
  452.3967 0.11 1
  453.0424 0.23 2
  454.0382 0.12 1
  455.1325 0.26 3
  455.2366 0.09 1
  455.9418 0.13 1
  456.3838 0.05 0
  457.0977 0.22 2
  457.2366 0.11 1
  458.1264 0.20 2
  461.0227 0.12 1
  461.4902 0.12 1
  462.7885 0.14 1
  463.8329 0.02 0
  464.0717 0.10 1
  464.7022 0.12 1
  465.0771 0.11 1
  465.3245 0.01 0
  466.0559 0.10 1
  466.2032 0.12 1
  466.3310 0.11 1
  466.5303 0.01 0
  467.1391 0.09 1
  468.3054 0.13 1
  468.7618 0.10 1
  470.1183 0.14 1
  470.3993 0.10 1
  471.0783 0.12 1
  472.0391 0.11 1
  472.2262 0.04 0
  472.3519 0.07 1
  472.7333 0.15 1
  473.3959 0.04 0
  473.6531 0.08 1
  474.8164 0.08 1
  475.0021 0.11 1
  475.4494 0.11 1
  476.1836 0.17 2
  476.3296 0.13 1
  477.2575 0.24 2
  477.5300 0.11 1
  478.1870 0.07 1
  478.3604 0.16 2
  478.6055 0.06 1
  479.1635 0.14 1
  479.2329 0.07 1
  479.3818 0.09 1
  480.0027 0.13 1
  480.7813 0.04 0
  482.1600 0.12 1
  482.4449 0.09 1
  482.9271 0.10 1
  483.0746 0.06 1
  483.2098 0.13 1
  483.3190 0.10 1
  483.4173 0.13 1
  483.9698 0.12 1
  484.1368 0.11 1
  485.1391 0.13 1
  485.2873 0.03 0
  485.8564 0.11 1
  486.8097 0.11 1
  486.9442 0.02 0
  487.6646 0.06 1
  487.7962 0.10 1
  491.3134 0.04 0
  491.5673 0.12 1
  492.1230 0.11 1
  492.2344 0.34 3
  492.3813 0.37 4
  492.7546 0.07 1
  492.9948 0.03 0
  493.1996 0.13 1
  493.4615 0.26 3
  493.6379 0.07 1
  493.7428 0.08 1
  493.8527 0.14 1
  494.0342 0.23 2
  494.1557 0.43 4
  494.2837 0.41 4
  494.3972 0.09 1
  494.5578 0.07 1
  495.3099 0.12 1
  496.0526 0.17 2
  496.3810 0.01 0
  496.8757 0.11 1
  497.2323 0.97 10
  497.8507 0.06 1
  498.1198 0.24 2
  498.2782 0.11 1
  499.0349 0.03 0
  499.1419 0.08 1
  500.0520 0.02 0
  500.3110 0.08 1
  501.0236 0.14 1
  503.7833 0.16 2
  503.9664 0.09 1
  504.0872 0.10 1
  504.2081 0.05 0
  504.6307 0.10 1
  504.8637 0.01 0
  505.2994 0.03 0
  505.6229 0.11 1
  505.8415 0.47 5
  506.2779 2.62 26
  506.7165 0.14 1
  506.8178 0.12 1
  507.0052 0.28 3
  507.2600 0.11 1
  507.7522 0.12 1
  508.0664 0.15 1
  508.2727 0.12 1
  509.1102 0.14 1
  509.3114 0.13 1
  509.6719 0.13 1
  509.8645 0.15 1
  510.0607 0.30 3
  510.2923 0.58 6
  510.4813 0.25 2
  511.2045 0.09 1
  511.4123 0.06 1
  511.9148 0.08 1
  512.1364 0.06 1
  512.3268 0.20 2
  513.1124 0.07 1
  515.3051 0.08 1
  515.8489 0.11 1
  516.3950 0.10 1
  516.7194 0.07 1
  516.8541 0.15 1
  517.2409 0.09 1
  518.6656 0.06 1
  519.2770 0.23 2
  519.4914 0.20 2
  519.8782 0.10 1
  520.0354 0.13 1
  520.6481 0.05 0
  521.2081 0.17 2
  522.1954 0.11 1
  522.6037 0.07 1
  523.4999 0.03 0
  523.6799 0.11 1
  523.9597 0.12 1
  524.2886 0.58 6
  524.4368 0.25 2
  524.7122 0.09 1
  524.8806 0.25 2
  525.3005 3.30 33
  525.8861 0.15 1
  526.0234 0.19 2
  526.2208 0.30 3
  526.3690 0.18 2
  526.4955 0.03 0
  526.7160 0.12 1
  527.6298 0.03 0
  527.8106 0.12 1
  528.3630 0.10 1
  528.5141 0.13 1
  528.8221 0.01 0
  530.0701 0.12 1
  532.0428 0.07 1
  532.7841 0.05 0
  534.2920 0.22 2
  535.1932 0.05 0
  535.9889 0.08 1
  537.2750 0.13 1
  537.8263 0.04 0
  538.1359 0.07 1
  539.4642 0.15 1
  540.0748 0.12 1
  540.3657 0.07 1
  540.5856 0.09 1
  541.3287 0.11 1
  542.2759 0.11 1
  543.2057 0.07 1
  544.2572 0.06 1
  545.4347 0.12 1
  546.0368 0.05 0
  549.7161 0.09 1
  550.2474 0.14 1
  550.5493 0.01 0
  550.9272 0.23 2
  551.7199 0.12 1
  552.0812 0.22 2
  552.4367 0.18 2
  553.0021 0.15 1
  553.1665 0.05 0
  553.5249 0.10 1
  554.0889 0.12 1
  554.4481 0.14 1
  554.9158 0.16 2
  555.9890 0.15 1
  556.2236 0.28 3
  556.3808 0.09 1
  556.5944 0.05 0
  556.9152 0.11 1
  557.1448 0.18 2
  557.2954 0.11 1
  557.4721 0.19 2
  557.6336 0.10 1
  557.7864 0.11 1
  557.9783 0.15 1
  558.3333 0.17 2
  558.5990 0.06 1
  559.2595 0.11 1
  559.5051 0.08 1
  559.7738 0.09 1
  559.9962 0.12 1
  560.2808 0.12 1
  560.5322 0.08 1
  561.2297 0.12 1
  561.6295 0.13 1
  561.9185 0.11 1
  562.3286 0.13 1
  562.5930 0.11 1
  563.4992 0.10 1
  563.7375 0.06 1
  564.4663 0.10 1
  564.5728 0.10 1
  565.3329 0.01 0
  565.6928 0.14 1
  565.9653 0.48 5
  566.3505 1.16 12
  566.8129 0.19 2
  567.2126 0.46 5
  567.4778 0.39 4
  568.2952 1.80 18
  568.5894 1.04 10
  568.9247 0.09 1
  569.4191 0.08 1
  569.7436 0.13 1
  569.9460 0.14 1
  570.3196 0.22 2
  570.6608 0.04 0
  571.2203 0.21 2
  571.7675 0.13 1
  572.4340 0.17 2
  572.9913 0.06 1
  574.6519 0.11 1
  574.7596 0.12 1
  574.8666 0.10 1
  574.9858 0.12 1
  575.2317 0.13 1
  575.5968 0.11 1
  575.8535 0.08 1
  575.9496 0.01 0
  576.1556 0.14 1
  576.4160 0.29 3
  576.6957 0.20 2
  576.8230 0.13 1
  576.9655 0.34 3
  577.1787 0.09 1
  577.3320 0.24 2
  577.4332 0.14 1
  577.7109 0.11 1
  578.0074 0.13 1
  578.2018 0.16 2
  578.4578 0.13 1
  578.7211 0.10 1
  578.8230 0.08 1
  579.0139 0.12 1
  579.1318 0.10 1
  579.3979 0.11 1
  579.5859 0.09 1
  579.6965 0.26 3
  580.0827 0.80 8
  580.2410 0.84 8
  580.4016 0.26 3
  580.5202 0.36 4
  580.6446 0.21 2
  580.8152 0.22 2
  581.0524 0.26 3
  581.2903 0.31 3
  581.4487 0.20 2
  581.7438 0.09 1
  581.9724 0.17 2
  582.1944 0.47 5
  582.3752 0.24 2
  582.4793 0.11 1
  582.6544 0.21 2
  582.8395 0.28 3
  583.2250 0.61 6
  583.4485 0.29 3
  583.8188 0.16 2
  583.9432 0.12 1
  584.2650 0.32 3
  584.6542 0.21 2
  584.7714 0.13 1
  584.9478 0.13 1
  585.1207 0.18 2
  585.5222 0.19 2
  585.7833 0.27 3
  586.0090 0.02 0
  586.3113 0.20 2
  586.5124 0.12 1
  586.6050 0.12 1
  586.9356 0.13 1
  587.0955 0.10 1
  587.3993 0.25 2
  587.6778 0.18 2
  587.9136 0.14 1
  588.0728 0.23 2
  588.3491 0.28 3
  588.4504 0.22 2
  588.5676 0.15 1
  588.8049 0.20 2
  588.9677 0.23 2
  589.0978 0.18 2
  589.3264 0.25 2
  589.6149 0.23 2
  589.8174 0.11 1
  589.9034 0.07 1
  590.0336 0.14 1
  590.2657 0.19 2
  590.6353 0.20 2
  590.9028 0.60 6
  591.0084 0.25 2
  591.4712 0.28 3
  591.7453 0.34 3
  591.9883 0.36 4
  592.1069 0.36 4
  592.3116 0.30 3
  592.4642 0.22 2
  592.7151 0.50 5
  593.0688 0.63 6
  593.3595 0.40 4
  593.5721 0.41 4
  593.8065 0.62 6
  594.0560 0.52 5
  594.3981 0.87 9
  594.6910 1.22 12
  595.1561 1.03 10
  598.3620 99.97 999
  598.9270 10.25 102
  599.6497 3.73 37
  600.6379 1.86 19
  601.6508 1.11 11
  602.3237 0.88 9
  602.5292 0.54 5
  602.6949 0.42 4
  602.9438 0.21 2
  603.1225 0.42 4
  603.4112 0.16 2
  603.5422 0.13 1
  603.6558 0.23 2
  603.8757 0.25 2
  603.9771 0.13 1
  604.1290 0.09 1
  604.3063 0.14 1
  604.4619 0.29 3
  604.6066 0.18 2
  604.8808 0.27 3
//
