ACCESSION: MSBNK-Kyoto_Univ-CA000151
RECORD_TITLE: Fucoxanthinol; FAB-EBEB; MS2; m/z: 616.41; [M]*+
DATE: 2016.01.19 (Created 2007.03.15, modified 2011.05.10)
AUTHORS: Akimoto N, Graduate School of Pharmaceutical Sciences, Kyoto University and Maoka T, Research Institute for Production Development
LICENSE: CC BY-SA
COMMENT: Profile spectrum of this record is given as a JPEG file.
COMMENT: [Profile] CA000151.jpg
CH$NAME: Fucoxanthinol
CH$COMPOUND_CLASS: Natural Product; Carotenoid
CH$FORMULA: C40H56O5
CH$EXACT_MASS: 616.41277
CH$SMILES: CC(C=CC=C(C)C=C=C(C(C)(O)3)C(C)(C)CC(C3)O)=CC=CC=C(C)C=CC=C(C(=O)CC(O2)(C(C)12)C(C)(C)CC(C1)O)C
CH$IUPAC: InChI=1S/C40H56O5/c1-28(17-13-18-30(3)21-22-35-36(5,6)23-32(41)25-38(35,9)44)15-11-12-16-29(2)19-14-20-31(4)34(43)27-40-37(7,8)24-33(42)26-39(40,10)45-40/h11-21,32-33,41-42,44H,23-27H2,1-10H3/b12-11+,17-13+,19-14+,28-15+,29-16+,30-18+,31-20+/t22?,32-,33-,38+,39+,40-/m0/s1
CH$LINK: CHEMSPIDER 4524973
CH$LINK: PUBCHEM CID:5375507
CH$LINK: INCHIKEY NZEPSBGUXWWWSI-FWFPOGQTSA-N
AC$INSTRUMENT: JMS-HX/HX 110A, JEOL
AC$INSTRUMENT_TYPE: FAB-EBEB
AC$MASS_SPECTROMETRY: MS_TYPE MS2
AC$MASS_SPECTROMETRY: ION_MODE POSITIVE
AC$MASS_SPECTROMETRY: ATOM_GUN_CURRENT 5 mA
AC$MASS_SPECTROMETRY: BOMBARDMENT 6 kV xenon
AC$MASS_SPECTROMETRY: COLLISION_ENERGY 3 kV
AC$MASS_SPECTROMETRY: COLLISION_GAS Ar
AC$MASS_SPECTROMETRY: GAS_PRESSURE adjust to attenuate the intensity of the precursor ion by 30 %
AC$MASS_SPECTROMETRY: IONIZATION FAB
AC$MASS_SPECTROMETRY: MATRIX 1-2 uL m-NBA
AC$MASS_SPECTROMETRY: PROBE_TIP stainless-steel
MS$FOCUSED_ION: BASE_PEAK 616.4932
MS$FOCUSED_ION: PRECURSOR_M/Z 616.41
MS$FOCUSED_ION: PRECURSOR_TYPE [M]+*
PK$SPLASH: splash10-014i-0931012000-1d1bf68f9a2a2c51ae7d
PK$NUM_PEAK: 1715
PK$PEAK: m/z int. rel.int.
  0.0041 0.01 0
  0.0388 0.01 0
  3.2762 0.01 0
  3.8980 0.01 0
  6.9316 0.01 0
  12.9875 0.03 0
  14.0022 0.02 0
  14.9935 0.46 5
  18.9922 0.04 0
  20.3220 0.01 0
  22.9682 0.03 0
  24.9649 0.03 0
  25.9760 0.31 3
  26.9838 1.30 13
  27.0824 0.06 1
  27.9952 0.20 2
  28.9817 1.44 14
  29.9749 0.04 0
  30.9772 0.17 2
  36.9529 0.17 2
  37.9818 0.50 5
  38.6025 0.05 0
  38.8444 0.03 0
  38.9811 1.91 19
  40.0044 0.10 1
  40.9955 1.72 17
  42.0089 0.08 1
  42.9728 5.90 59
  43.9961 0.07 1
  44.9913 0.07 1
  46.8954 0.03 0
  49.2889 0.02 0
  49.9645 0.43 4
  50.9896 0.42 4
  51.9920 0.22 2
  52.9965 0.37 4
  54.0007 0.04 0
  55.0208 0.85 8
  55.2054 0.08 1
  55.5944 0.01 0
  56.8499 0.02 0
  57.0319 0.33 3
  58.9303 0.11 1
  59.9404 0.05 0
  60.9453 0.14 1
  61.9593 0.11 1
  62.9534 0.26 3
  63.7588 0.03 0
  63.8756 0.01 0
  63.9981 0.14 1
  64.9717 0.33 3
  66.0030 0.04 0
  66.8727 0.11 1
  67.0139 1.05 10
  67.9419 0.03 0
  68.7448 0.06 1
  69.0039 1.25 12
  69.3537 0.05 0
  70.0307 0.09 1
  70.8388 0.10 1
  71.0031 0.49 5
  72.9734 0.10 1
  73.9430 0.04 0
  74.6648 0.08 1
  74.7611 0.04 0
  74.9549 0.26 3
  75.1872 0.03 0
  75.2913 0.02 0
  75.6548 0.01 0
  75.8918 0.04 0
  76.0241 0.09 1
  76.6736 0.11 1
  76.9732 1.94 19
  77.4304 0.06 1
  77.5698 0.03 0
  77.7141 0.06 1
  77.9831 0.61 6
  78.7485 0.03 0
  78.9813 1.16 12
  79.9824 0.21 2
  80.9975 1.00 10
  81.3499 0.03 0
  81.4416 0.02 0
  81.9805 0.13 1
  82.7404 0.18 2
  83.0141 6.22 62
  83.6295 0.03 0
  84.7214 0.12 1
  85.0039 2.00 20
  85.7135 0.03 0
  85.9986 0.07 1
  86.5890 0.09 1
  86.9666 1.67 17
  87.3635 0.02 0
  87.9388 0.12 1
  88.6969 0.07 1
  88.9793 0.49 5
  89.0975 0.08 1
  89.2575 0.04 0
  89.3986 0.01 0
  89.8165 0.11 1
  89.9608 0.08 1
  90.1046 0.09 1
  90.3898 0.02 0
  90.9688 8.10 81
  91.5097 0.02 0
  91.6001 0.02 0
  91.9955 0.94 9
  92.9860 5.22 52
  93.1918 0.06 1
  93.3031 0.02 0
  93.6315 0.09 1
  93.7554 0.10 1
  94.0113 0.67 7
  94.9972 5.19 52
  95.9712 0.55 5
  96.8048 0.24 2
  97.0185 1.12 11
  97.4386 0.02 0
  97.5697 0.07 1
  97.9482 0.12 1
  98.3396 0.03 0
  98.5817 0.05 0
  98.7458 0.12 1
  98.9906 0.58 6
  99.6065 0.01 0
  99.9003 0.17 2
  99.9999 0.05 0
  100.1974 0.06 1
  100.5243 0.04 0
  100.6102 0.03 0
  100.7314 0.02 0
  100.9620 0.46 5
  101.2427 0.03 0
  101.3515 0.02 0
  101.4413 0.01 0
  101.6336 0.05 0
  101.8026 0.12 1
  101.9894 0.71 7
  102.2370 0.09 1
  102.9789 2.46 25
  103.1432 0.19 2
  103.3978 0.10 1
  103.9785 1.50 15
  104.2411 0.05 0
  104.9871 15.27 153
  106.0047 1.35 13
  106.6349 0.13 1
  107.0120 7.47 75
  107.2192 0.14 1
  107.5423 0.04 0
  107.6633 0.10 1
  107.9924 1.31 13
  109.0275 30.61 306
  109.4694 0.04 0
  109.6751 0.03 0
  110.0110 0.43 4
  110.1213 0.08 1
  110.9827 3.13 31
  111.3265 0.06 1
  111.5155 0.03 0
  111.6351 0.09 1
  112.0192 0.46 5
  112.3674 0.04 0
  112.5490 0.03 0
  112.6688 0.16 2
  113.0046 1.28 13
  113.1664 0.14 1
  113.7076 0.04 0
  114.0000 0.25 2
  114.2189 0.05 0
  114.9453 10.04 100
  115.1646 0.27 3
  115.3916 0.06 1
  115.6085 0.27 3
  115.9614 2.93 29
  116.1700 0.10 1
  116.3553 0.18 2
  116.9642 8.77 88
  117.3516 0.15 1
  117.4983 0.06 1
  117.9731 1.81 18
  118.3130 0.08 1
  118.4703 0.13 1
  118.9894 16.94 169
  119.3761 0.11 1
  119.6379 0.05 0
  119.9944 1.92 19
  120.3066 0.11 1
  120.9923 8.86 89
  121.4833 0.08 1
  121.9505 1.14 11
  122.1826 0.12 1
  122.3958 0.11 1
  122.5744 0.21 2
  122.9965 3.73 37
  123.9687 0.51 5
  124.5313 0.01 0
  124.6823 0.17 2
  125.0124 3.72 37
  125.1982 0.10 1
  125.4498 0.05 0
  125.9696 0.73 7
  126.1155 0.10 1
  126.2760 0.07 1
  126.9695 5.77 58
  127.2684 0.42 4
  127.9332 13.14 131
  128.2246 0.21 2
  128.3940 0.35 3
  128.9469 14.52 145
  129.2876 0.06 1
  129.4309 0.02 0
  129.9641 5.73 57
  130.4268 0.12 1
  130.9680 11.65 116
  131.2082 0.11 1
  131.3889 0.09 1
  131.6313 0.34 3
  131.9851 2.70 27
  132.3244 0.12 1
  132.9803 11.18 112
  133.3466 0.02 0
  133.5431 0.04 0
  133.9867 2.17 22
  134.2431 0.04 0
  134.4372 0.08 1
  134.9884 13.96 140
  135.2345 0.05 0
  135.3888 0.11 1
  135.5379 0.04 0
  135.6277 0.02 0
  135.9759 1.67 17
  136.4981 0.06 1
  136.6421 0.26 3
  136.9953 5.48 55
  137.1880 0.05 0
  137.5015 0.15 1
  137.6323 0.01 0
  137.9633 0.56 6
  138.2706 0.09 1
  138.9377 3.29 33
  139.3330 0.17 2
  139.5671 0.05 0
  139.9828 0.94 9
  140.9286 12.95 129
  141.2839 0.15 1
  141.9472 10.16 102
  142.2257 0.19 2
  142.4472 0.22 2
  142.9683 18.34 183
  143.5891 0.30 3
  143.9919 5.70 57
  144.2306 0.16 2
  144.9883 18.06 180
  145.2205 0.18 2
  145.4091 0.18 2
  145.9723 3.13 31
  146.2890 0.07 1
  146.9910 15.46 154
  147.2062 0.28 3
  147.4316 0.04 0
  147.9892 1.85 18
  148.3026 0.13 1
  148.5587 0.26 3
  148.9952 5.39 54
  149.3590 0.23 2
  149.5957 0.28 3
  149.6795 0.11 1
  150.0131 0.85 8
  150.2174 0.07 1
  150.4523 0.17 2
  150.9723 3.38 34
  151.3510 0.29 3
  151.9440 6.45 64
  152.2776 0.24 2
  152.3563 0.11 1
  152.9594 8.13 81
  153.2221 0.24 2
  153.5017 0.51 5
  153.9798 4.10 41
  154.2339 0.16 2
  154.3351 0.16 2
  154.9713 14.98 150
  155.3760 0.19 2
  155.9930 8.94 89
  156.2442 0.15 1
  156.3626 0.11 1
  156.9925 17.56 175
  157.3843 0.20 2
  157.6787 0.32 3
  158.0216 4.02 40
  158.3305 0.08 1
  159.0134 15.29 153
  159.3253 0.18 2
  159.5478 0.11 1
  159.7253 0.29 3
  160.0238 2.48 25
  160.3769 0.06 1
  160.5368 0.15 1
  161.0221 8.87 89
  161.2983 0.05 0
  161.4672 0.09 1
  161.5972 0.12 1
  162.0233 0.83 8
  162.3600 0.14 1
  162.5914 0.17 2
  163.0186 2.73 27
  163.3049 0.17 2
  163.9702 1.08 11
  164.2231 0.12 1
  164.9581 11.65 116
  165.3512 0.13 1
  165.4507 0.08 1
  165.9991 4.41 44
  166.2765 0.20 2
  167.0238 15.86 158
  167.2966 0.15 1
  167.4065 0.27 3
  167.6011 0.13 1
  168.0473 3.92 39
  168.2137 0.25 2
  169.0310 13.98 140
  169.3641 0.18 2
  170.0595 5.61 56
  170.2531 0.19 2
  170.4198 0.17 2
  170.5830 0.12 1
  171.0530 11.88 119
  171.3984 0.24 2
  172.0356 4.13 41
  172.5472 0.22 2
  173.0612 7.74 77
  173.3427 0.18 2
  173.6015 0.56 6
  174.0663 1.81 18
  174.5732 0.11 1
  175.0604 4.00 40
  175.4043 0.10 1
  175.5573 0.12 1
  175.7338 0.07 1
  176.0152 1.14 11
  176.4360 0.09 1
  177.0163 1.96 20
  177.9690 5.74 57
  178.3047 0.27 3
  178.9956 11.69 117
  179.3931 0.09 1
  179.5950 0.22 2
  180.0230 5.26 53
  180.3004 0.15 1
  180.5398 0.30 3
  181.0304 11.14 111
  181.5710 0.32 3
  182.0482 5.41 54
  182.2906 0.19 2
  183.0313 11.87 119
  183.4306 0.13 1
  184.0414 3.86 39
  184.2946 0.18 2
  185.0398 9.01 90
  185.3771 0.23 2
  185.5326 0.14 1
  186.0589 2.06 21
  186.5076 0.12 1
  187.0530 4.43 44
  187.4999 0.18 2
  187.8037 0.21 2
  188.0498 0.49 5
  188.2244 0.17 2
  188.4226 0.22 2
  189.0104 4.21 42
  189.3966 0.16 2
  189.9660 1.32 13
  190.3678 0.30 3
  190.6192 0.21 2
  191.0134 5.06 51
  191.4761 0.13 1
  191.6371 0.20 2
  192.0260 3.64 36
  192.3132 0.19 2
  193.0190 9.30 93
  193.9937 3.96 40
  194.2987 0.13 1
  195.0388 11.13 111
  195.2965 0.18 2
  195.4984 0.19 2
  196.0329 3.29 33
  197.0408 12.65 126
  197.4898 0.12 1
  197.5765 0.07 1
  197.6961 0.10 1
  198.0501 3.17 32
  198.4937 0.25 2
  199.0396 6.66 67
  199.3784 0.11 1
  199.5367 0.19 2
  200.0500 1.93 19
  200.2300 0.27 3
  201.0357 2.98 30
  201.3707 0.20 2
  201.9953 3.21 32
  202.4687 0.29 3
  203.0088 3.78 38
  203.2845 0.17 2
  203.5365 0.15 1
  204.0172 1.83 18
  204.3338 0.09 1
  205.0192 4.59 46
  205.6415 0.30 3
  206.0392 3.51 35
  206.3562 0.06 1
  207.0247 7.66 77
  207.5345 0.21 2
  208.0479 4.12 41
  208.5432 0.58 6
  209.0640 8.70 87
  209.3040 0.10 1
  210.0151 2.68 27
  210.4045 0.03 0
  210.6285 0.24 2
  211.0632 10.06 101
  211.3351 0.19 2
  211.6452 0.18 2
  212.0688 1.89 19
  212.2810 0.11 1
  213.0404 5.94 59
  213.4368 0.09 1
  213.5567 0.13 1
  213.8142 0.37 4
  214.0477 0.88 9
  214.6271 0.55 5
  215.0365 4.61 46
  215.5547 0.21 2
  216.0335 2.32 23
  216.4291 0.09 1
  216.6410 0.25 2
  217.0424 3.84 38
  218.0637 2.77 28
  218.3599 0.17 2
  218.5487 0.40 4
  219.0536 4.91 49
  219.6592 0.17 2
  220.0830 3.47 35
  220.3208 0.15 1
  220.5735 0.25 2
  221.0718 6.27 63
  221.5936 0.11 1
  222.0915 2.45 24
  222.2948 0.23 2
  222.5215 0.25 2
  223.0826 5.85 58
  223.5858 0.32 3
  223.7339 0.12 1
  224.1026 1.80 18
  224.4273 0.19 2
  224.5585 0.25 2
  225.0988 5.30 53
  225.3421 0.13 1
  226.0416 1.85 18
  226.4716 0.14 1
  227.0842 3.33 33
  227.5286 0.13 1
  228.0590 1.45 14
  228.5853 0.29 3
  229.0741 4.72 47
  229.4663 0.10 1
  229.6425 0.09 1
  230.0960 1.90 19
  230.3434 0.15 1
  230.4649 0.08 1
  230.7479 0.44 4
  231.0948 3.59 36
  231.4085 0.12 1
  231.6488 0.16 2
  231.8089 0.24 2
  232.1119 2.97 30
  232.3182 0.20 2
  232.5658 0.22 2
  233.1323 10.42 104
  233.3842 0.17 2
  233.5679 0.09 1
  234.1025 1.55 15
  234.5561 0.16 2
  235.1144 4.53 45
  235.5228 0.14 1
  235.7189 0.11 1
  236.1465 1.31 13
  236.4400 0.27 3
  236.6262 0.12 1
  237.1237 4.56 46
  237.4087 0.10 1
  237.5345 0.12 1
  237.6546 0.22 2
  238.1253 0.98 10
  238.3486 0.16 2
  238.4780 0.22 2
  238.7013 0.29 3
  239.1181 4.12 41
  239.5755 0.06 1
  239.8089 0.30 3
  240.1263 0.76 8
  240.3817 0.10 1
  240.4970 0.14 1
  240.7120 0.13 1
  241.0957 2.09 21
  241.5741 0.08 1
  241.6716 0.07 1
  242.0796 0.84 8
  242.4913 0.08 1
  243.0932 3.32 33
  243.4024 0.05 0
  243.5107 0.03 0
  243.6667 0.13 1
  244.0936 1.23 12
  244.4043 0.12 1
  244.6246 0.41 4
  245.1051 3.50 35
  245.5136 0.08 1
  246.0984 2.88 29
  246.4072 0.09 1
  246.5485 0.31 3
  247.0999 3.61 36
  247.4631 0.11 1
  247.6508 0.19 2
  247.8021 0.29 3
  248.1104 0.98 10
  248.5601 0.18 2
  249.1262 3.17 32
  249.4254 0.10 1
  249.6217 0.16 2
  249.8110 0.18 2
  250.1259 1.00 10
  250.4338 0.05 0
  250.6345 0.13 1
  251.1318 2.65 26
  251.3354 0.31 3
  251.5334 0.19 2
  251.7449 0.30 3
  252.1008 1.28 13
  252.3960 0.04 0
  252.8235 0.20 2
  253.1245 1.89 19
  253.3504 0.12 1
  253.7888 0.12 1
  254.0999 0.39 4
  254.3345 0.01 0
  254.5355 0.18 2
  254.7802 0.23 2
  255.1222 2.45 24
  255.4706 0.09 1
  255.5601 0.05 0
  255.6667 0.05 0
  255.8742 0.12 1
  256.1340 0.70 7
  256.4547 0.06 1
  256.5871 0.16 2
  256.8040 0.14 1
  257.1111 3.01 30
  257.4384 0.22 2
  257.5630 0.11 1
  257.7742 0.18 2
  258.0872 1.12 11
  258.4790 0.11 1
  258.6308 0.16 2
  258.7483 0.25 2
  259.1136 3.10 31
  260.0989 0.91 9
  260.4967 0.12 1
  261.1096 2.39 24
  261.4702 0.13 1
  261.6759 0.10 1
  261.8516 0.12 1
  262.1413 1.38 14
  262.8053 0.30 3
  263.1331 2.81 28
  263.3956 0.11 1
  263.5843 0.10 1
  263.8562 0.14 1
  264.1331 0.57 6
  264.2960 0.16 2
  264.5321 0.19 2
  264.6505 0.16 2
  265.1170 2.05 20
  265.3646 0.10 1
  265.4852 0.15 1
  265.5756 0.10 1
  265.7307 0.09 1
  266.0839 0.54 5
  266.5226 0.07 1
  266.8816 0.22 2
  267.1459 1.67 17
  267.3987 0.06 1
  267.7657 0.22 2
  268.1055 0.94 9
  268.3526 0.11 1
  268.4726 0.10 1
  269.1164 1.27 13
  269.4039 0.10 1
  269.6137 0.09 1
  269.7992 0.17 2
  269.9178 0.24 2
  270.1564 1.27 13
  270.5201 0.11 1
  271.1090 2.12 21
  271.4247 0.13 1
  271.6015 0.10 1
  271.8044 0.20 2
  272.1258 0.90 9
  272.6099 0.22 2
  273.1387 2.77 28
  273.6071 0.10 1
  273.9000 0.13 1
  274.1698 0.96 10
  274.4117 0.26 3
  274.5391 0.05 0
  275.1423 2.14 21
  275.5922 0.11 1
  275.8716 0.11 1
  276.1171 0.56 6
  276.2676 0.28 3
  276.4757 0.14 1
  276.6947 0.14 1
  277.1312 1.93 19
  277.5612 0.07 1
  277.7255 0.04 0
  277.8854 0.23 2
  278.1729 0.78 8
  278.3739 0.10 1
  279.1399 1.58 16
  279.4383 0.10 1
  279.6437 0.03 0
  279.8427 0.09 1
  279.9829 0.17 2
  280.2080 0.58 6
  280.3612 0.13 1
  280.5907 0.14 1
  280.7971 0.08 1
  281.1374 1.14 11
  281.4072 0.04 0
  281.8123 0.08 1
  282.1901 0.43 4
  282.4845 0.10 1
  282.6644 0.12 1
  282.8652 0.26 3
  283.1532 1.18 12
  283.4447 0.06 1
  283.8896 0.17 2
  284.1603 0.77 8
  284.3728 0.10 1
  284.5406 0.13 1
  284.8596 0.52 5
  285.1743 4.59 46
  285.6353 0.16 2
  286.1583 1.28 13
  286.5416 0.09 1
  286.8254 0.18 2
  287.1677 2.07 21
  287.4985 0.14 1
  287.6902 0.04 0
  288.1565 0.96 10
  288.4715 0.20 2
  288.7094 0.17 2
  289.1521 1.15 11
  289.5472 0.12 1
  289.7700 0.06 1
  290.1739 0.45 4
  290.5034 0.08 1
  290.6362 0.07 1
  290.9247 0.30 3
  291.1555 1.56 16
  291.7543 0.09 1
  291.9159 0.17 2
  292.1850 0.64 6
  292.4441 0.06 1
  292.5877 0.03 0
  292.8597 0.12 1
  293.1729 1.08 11
  293.8384 0.09 1
  294.1409 0.70 7
  294.5192 0.07 1
  294.7365 0.17 2
  294.9055 0.20 2
  295.1784 1.10 11
  295.5915 0.06 1
  295.7539 0.11 1
  295.8240 0.06 1
  296.0190 0.23 2
  296.1793 0.44 4
  296.3679 0.05 0
  297.1581 1.62 16
  297.4828 0.26 3
  297.6799 0.08 1
  297.9252 0.24 2
  298.1901 1.04 10
  298.4073 0.19 2
  298.7119 0.14 1
  299.1992 3.38 34
  299.5241 0.06 1
  299.7992 0.12 1
  300.1450 0.53 5
  300.6823 0.14 1
  301.1553 1.78 18
  301.4175 0.04 0
  301.7354 0.12 1
  301.9925 0.18 2
  302.2049 0.40 4
  302.7605 0.11 1
  303.1738 2.59 26
  303.3971 0.15 1
  303.6478 0.18 2
  303.7967 0.16 2
  304.1631 0.67 7
  304.7117 0.10 1
  304.8795 0.15 1
  305.1888 1.78 18
  305.6617 0.07 1
  305.8236 0.07 1
  306.1794 0.23 2
  306.5482 0.11 1
  306.7188 0.12 1
  306.8338 0.09 1
  307.1752 0.74 7
  307.7198 0.08 1
  307.9390 0.12 1
  308.0562 0.33 3
  308.1647 0.13 1
  308.5076 0.13 1
  308.7905 0.05 0
  309.1299 1.01 10
  309.6972 0.11 1
  309.7790 0.04 0
  310.1242 1.16 12
  310.3666 0.02 0
  310.5526 0.02 0
  310.7640 0.06 1
  311.1701 1.40 14
  311.8007 0.10 1
  311.8977 0.10 1
  312.1562 0.59 6
  313.1403 1.16 12
  313.5111 0.05 0
  313.6306 0.04 0
  313.9594 0.21 2
  314.0970 0.25 2
  314.2238 0.22 2
  314.3571 0.05 0
  314.5440 0.08 1
  314.8512 0.10 1
  315.1859 0.96 10
  315.5858 0.11 1
  316.0090 0.31 3
  316.2475 0.25 2
  316.5859 0.04 0
  316.6866 0.04 0
  317.1679 1.06 11
  317.5325 0.04 0
  317.8203 0.08 1
  318.1995 0.69 7
  318.5917 0.07 1
  318.9390 0.17 2
  319.1486 0.66 7
  319.4466 0.09 1
  319.6091 0.06 1
  319.7940 0.02 0
  320.1342 0.40 4
  320.2661 0.19 2
  320.8580 0.15 1
  321.1526 0.46 5
  321.3151 0.10 1
  321.5124 0.12 1
  321.8592 0.08 1
  322.1277 0.21 2
  322.3279 0.08 1
  322.5362 0.15 1
  322.6893 0.04 0
  323.1443 0.51 5
  323.2931 0.29 3
  323.4281 0.10 1
  323.6777 0.09 1
  323.8062 0.08 1
  324.0131 0.29 3
  324.1539 0.36 4
  324.2918 0.27 3
  324.4791 0.07 1
  324.6794 0.03 0
  325.1122 0.71 7
  325.2530 0.49 5
  325.6857 0.04 0
  325.8172 0.06 1
  325.9587 0.12 1
  326.2144 0.28 3
  326.6000 0.07 1
  326.8389 0.02 0
  327.1599 1.13 11
  327.4214 0.02 0
  327.5311 0.03 0
  328.0112 0.01 0
  328.1907 0.30 3
  328.4028 0.09 1
  328.6600 0.14 1
  329.1860 0.88 9
  329.4512 0.09 1
  329.7077 0.10 1
  330.0275 0.09 1
  330.1656 0.44 4
  330.2877 0.23 2
  330.5013 0.10 1
  330.7863 0.25 2
  331.1439 0.78 8
  331.6607 0.10 1
  331.8366 0.08 1
  331.9282 0.02 0
  332.1841 0.36 4
  332.7817 0.04 0
  333.1250 0.50 5
  333.2886 0.21 2
  333.4260 0.07 1
  333.8936 0.09 1
  334.2536 0.51 5
  334.3547 0.21 2
  334.7046 0.01 0
  334.9242 0.16 2
  335.1832 0.65 6
  335.3301 0.26 3
  335.7186 0.15 1
  336.0190 0.17 2
  336.1893 0.19 2
  336.3268 0.12 1
  336.8820 0.10 1
  337.1570 0.58 6
  337.7778 0.08 1
  338.1534 0.20 2
  338.3375 0.13 1
  338.6796 0.09 1
  339.1353 0.56 6
  339.4207 0.06 1
  339.6070 0.06 1
  339.7628 0.07 1
  340.1822 0.20 2
  340.5018 0.12 1
  340.7181 0.09 1
  340.8826 0.22 2
  341.1980 0.29 3
  341.5125 0.09 1
  341.8399 0.09 1
  342.1026 0.17 2
  342.3391 0.13 1
  342.5807 0.10 1
  342.7161 0.15 1
  342.8034 0.04 0
  343.2067 0.86 9
  343.6477 0.08 1
  343.7409 0.05 0
  343.8872 0.16 2
  344.2264 0.33 3
  344.5366 0.12 1
  344.8438 0.08 1
  345.1758 0.75 7
  345.6214 0.07 1
  345.8391 0.09 1
  346.2062 0.36 4
  346.3751 0.25 2
  346.6016 0.12 1
  346.7764 0.18 2
  346.8835 0.06 1
  347.1289 0.76 8
  347.2826 0.67 7
  347.4283 0.13 1
  347.7458 0.13 1
  348.1305 0.22 2
  348.3519 0.10 1
  348.5355 0.11 1
  348.7016 0.09 1
  348.9085 0.10 1
  349.2225 0.59 6
  349.3675 0.50 5
  349.7683 0.10 1
  349.9497 0.15 1
  350.0911 0.10 1
  350.2653 0.24 2
  350.4044 0.07 1
  350.5910 0.08 1
  350.8038 0.11 1
  351.2083 0.81 8
  351.3752 0.39 4
  351.8118 0.09 1
  352.1821 0.42 4
  352.3097 0.29 3
  352.5116 0.14 1
  352.8681 0.05 0
  353.1801 0.70 7
  353.3654 0.29 3
  353.5877 0.06 1
  354.1062 0.10 1
  354.2753 0.29 3
  354.6093 0.07 1
  354.7771 0.10 1
  355.0476 0.14 1
  355.2256 0.27 3
  355.3809 0.21 2
  355.6114 0.11 1
  355.9119 0.11 1
  356.0811 0.02 0
  356.2846 0.03 0
  356.4415 0.11 1
  356.8398 0.08 1
  357.0506 0.14 1
  357.2797 0.24 2
  357.6372 0.08 1
  358.1363 0.17 2
  358.3012 0.16 2
  358.5646 0.06 1
  358.9769 0.07 1
  359.2236 0.34 3
  359.4038 0.25 2
  359.8031 0.08 1
  360.0191 0.05 0
  360.1403 0.14 1
  360.2994 0.17 2
  360.6264 0.09 1
  360.8761 0.14 1
  361.2155 0.41 4
  361.7134 0.05 0
  362.0106 0.12 1
  362.2574 0.27 3
  362.4691 0.11 1
  362.7101 0.04 0
  362.8123 0.09 1
  363.0408 0.09 1
  363.2716 0.67 7
  363.6974 0.07 1
  363.8485 0.03 0
  364.2984 0.76 8
  364.5402 0.05 0
  364.7126 0.07 1
  364.9529 0.21 2
  365.3210 0.58 6
  365.6709 0.09 1
  365.8967 0.09 1
  366.2401 0.65 6
  366.5593 0.08 1
  366.6653 0.10 1
  367.1461 0.24 2
  367.3163 0.25 2
  367.5333 0.03 0
  367.6721 0.06 1
  367.7672 0.10 1
  368.2180 0.13 1
  368.4841 0.19 2
  368.8963 0.02 0
  369.2106 0.32 3
  369.3831 0.12 1
  369.5703 0.10 1
  369.8870 0.11 1
  369.9758 0.05 0
  370.1658 0.17 2
  370.4366 0.14 1
  370.7643 0.09 1
  370.8815 0.04 0
  370.9849 0.10 1
  371.1676 0.35 3
  371.3235 0.23 2
  371.5303 0.09 1
  371.8011 0.10 1
  371.9832 0.08 1
  372.2861 0.29 3
  372.4435 0.06 1
  373.2795 0.74 7
  373.4077 0.23 2
  374.1653 0.26 3
  374.2658 0.13 1
  374.4312 0.08 1
  375.0154 0.03 0
  375.2923 0.43 4
  375.4249 0.17 2
  375.8015 0.07 1
  375.9684 0.09 1
  376.1965 0.13 1
  376.4027 0.12 1
  376.5316 0.01 0
  376.8640 0.09 1
  377.2640 0.63 6
  377.4142 0.28 3
  377.8522 0.09 1
  377.9666 0.09 1
  378.2180 0.36 4
  378.3682 0.15 1
  379.3019 0.29 3
  379.7080 0.10 1
  380.1542 0.23 2
  380.2898 0.10 1
  380.4998 0.12 1
  380.7083 0.10 1
  380.9511 0.06 1
  381.2909 0.57 6
  381.7503 0.17 2
  381.8983 0.04 0
  382.1310 0.10 1
  382.3701 0.23 2
  382.5386 0.06 1
  382.9587 0.09 1
  383.0922 0.11 1
  383.3482 0.61 6
  383.6144 0.07 1
  383.8208 0.01 0
  384.0061 0.09 1
  384.2710 0.38 4
  384.7907 0.06 1
  385.2667 0.20 2
  385.7807 0.09 1
  385.9676 0.02 0
  386.1794 0.28 3
  386.3144 0.36 4
  386.5897 0.09 1
  386.9840 0.16 2
  387.2389 0.33 3
  387.3666 0.31 3
  387.5923 0.03 0
  388.1210 0.24 2
  388.2488 0.14 1
  388.3248 0.05 0
  388.6586 0.11 1
  389.0114 0.10 1
  389.2546 0.54 5
  389.5585 0.01 0
  389.9990 0.09 1
  390.2393 0.74 7
  390.5812 0.11 1
  390.8449 0.13 1
  391.2015 0.50 5
  391.5734 0.06 1
  391.9445 0.11 1
  392.2632 0.22 2
  392.3684 0.06 1
  393.1474 0.21 2
  393.3147 0.56 6
  393.4280 0.08 1
  393.6816 0.04 0
  393.7927 0.08 1
  394.0405 0.20 2
  394.3526 0.16 2
  395.2356 0.54 5
  396.1808 0.10 1
  396.3409 0.21 2
  396.6546 0.11 1
  396.7504 0.06 1
  397.3565 0.16 2
  397.7799 0.08 1
  397.9378 0.11 1
  398.2530 0.40 4
  398.5060 0.18 2
  398.7693 0.14 1
  399.2769 1.89 19
  399.7179 0.07 1
  399.8905 0.11 1
  399.9893 0.11 1
  400.2797 0.22 2
  400.8795 0.08 1
  401.2752 0.61 6
  401.6067 0.01 0
  402.1890 0.30 3
  402.3792 0.07 1
  402.8094 0.10 1
  403.1921 0.49 5
  403.3356 0.27 3
  403.9363 0.09 1
  404.2883 0.20 2
  404.6572 0.11 1
  405.2163 0.29 3
  405.3583 0.06 1
  405.5801 0.11 1
  405.7316 0.02 0
  406.0259 0.09 1
  406.2338 0.11 1
  406.3648 0.15 1
  407.2469 0.10 1
  408.3898 0.13 1
  408.8781 0.10 1
  409.1842 0.02 0
  409.3255 0.10 1
  409.4830 0.09 1
  409.8740 0.11 1
  410.2065 0.03 0
  410.4086 0.12 1
  411.1630 0.24 2
  411.4127 0.12 1
  412.1313 0.05 0
  412.3313 0.10 1
  413.2279 0.45 4
  413.4711 0.22 2
  413.9363 0.07 1
  414.2521 0.14 1
  414.8793 0.05 0
  414.9826 0.09 1
  415.1922 0.24 2
  415.3212 0.24 2
  415.4589 0.05 0
  415.7235 0.12 1
  415.9690 0.10 1
  416.0847 0.11 1
  416.2767 0.10 1
  416.5530 0.12 1
  416.6454 0.06 1
  416.8183 0.10 1
  416.9393 0.04 0
  417.1012 0.22 2
  417.3193 0.72 7
  417.4444 0.31 3
  417.6024 0.09 1
  418.3186 0.59 6
  418.6631 0.02 0
  418.8219 0.05 0
  419.3179 1.16 12
  419.5733 0.15 1
  419.9684 0.09 1
  420.1154 0.25 2
  420.3013 0.38 4
  420.4213 0.16 2
  420.5098 0.09 1
  420.8582 0.09 1
  421.0982 0.15 1
  421.3228 0.16 2
  421.7868 0.12 1
  422.1805 0.09 1
  422.3496 0.11 1
  423.2601 0.21 2
  423.3728 0.08 1
  423.6861 0.09 1
  423.9415 0.04 0
  424.8763 0.17 2
  425.1677 0.06 1
  425.2790 0.10 1
  425.3851 0.16 2
  425.7973 0.01 0
  425.9379 0.02 0
  426.1642 0.05 0
  426.3582 0.14 1
  426.8707 0.03 0
  427.1109 0.39 4
  427.2727 0.32 3
  427.4580 0.03 0
  427.6769 0.18 2
  427.9149 0.12 1
  428.1786 0.42 4
  428.3412 0.39 4
  428.8889 0.17 2
  429.0215 0.10 1
  429.1753 0.30 3
  429.4785 0.09 1
  429.7627 0.09 1
  430.1920 0.11 1
  430.4044 0.15 1
  430.6248 0.15 1
  430.8834 0.15 1
  431.2841 0.91 9
  431.5552 0.11 1
  432.3156 0.23 2
  433.3069 1.94 19
  433.4748 1.02 10
  433.6931 0.15 1
  433.8858 0.14 1
  434.0749 0.11 1
  434.3277 0.36 4
  434.9272 0.13 1
  435.3340 1.56 16
  435.6055 0.12 1
  435.7636 0.04 0
  435.9348 0.09 1
  436.2934 0.22 2
  437.0597 0.05 0
  437.2002 0.18 2
  437.6993 0.14 1
  438.4474 0.05 0
  439.1538 0.17 2
  439.3668 0.09 1
  439.5081 0.05 0
  439.7423 0.11 1
  439.9173 0.16 2
  440.0594 0.01 0
  440.2578 0.08 1
  440.3661 0.08 1
  441.0309 0.10 1
  441.2820 0.43 4
  441.4599 0.07 1
  441.7916 0.09 1
  442.2324 0.03 0
  442.4126 0.03 0
  442.5495 0.03 0
  442.6703 0.11 1
  443.2283 0.50 5
  443.4005 0.27 3
  443.6267 0.10 1
  444.2786 0.39 4
  444.6711 0.14 1
  444.8681 0.23 2
  445.2673 0.97 10
  445.6819 0.28 3
  445.9229 0.10 1
  446.3053 2.47 25
  446.7690 0.13 1
  447.3067 3.76 38
  447.7800 0.26 3
  447.9258 0.10 1
  448.1441 0.13 1
  448.3507 0.47 5
  448.5962 0.13 1
  448.7823 0.10 1
  449.3253 0.23 2
  450.0961 0.11 1
  450.1833 0.05 0
  450.5776 0.06 1
  451.1324 0.03 0
  451.3200 0.15 1
  451.6659 0.08 1
  451.7502 0.05 0
  451.9818 0.10 1
  452.1357 0.12 1
  452.4054 0.11 1
  452.6884 0.06 1
  453.2161 0.05 0
  453.4030 0.10 1
  454.0217 0.12 1
  454.7849 0.01 0
  455.2959 0.16 2
  455.4300 0.08 1
  455.6339 0.05 0
  455.9931 0.01 0
  456.2402 0.17 2
  456.7520 0.10 1
  457.3210 0.27 3
  457.7940 0.06 1
  458.3521 0.66 7
  458.5970 0.01 0
  458.9204 0.09 1
  459.1353 0.14 1
  459.3377 0.29 3
  459.4756 0.14 1
  459.7573 0.10 1
  459.9729 0.12 1
  460.0682 0.08 1
  460.3198 0.39 4
  460.4460 0.32 3
  460.6396 0.10 1
  461.3174 0.76 8
  461.6453 0.07 1
  462.0876 0.17 2
  462.2322 0.22 2
  462.3363 0.34 3
  462.4273 0.20 2
  463.2270 0.89 9
  463.4375 0.21 2
  463.6004 0.07 1
  463.6943 0.09 1
  464.2189 0.11 1
  464.4354 0.06 1
  465.2719 0.07 1
  465.3790 0.07 1
  465.5801 0.11 1
  465.8105 0.11 1
  467.1249 0.14 1
  467.4030 0.09 1
  467.5638 0.09 1
  467.7773 0.08 1
  468.3630 0.15 1
  468.6581 0.12 1
  469.4347 0.09 1
  469.5536 0.09 1
  469.8502 0.10 1
  470.2987 0.29 3
  470.5248 0.34 3
  470.6379 0.07 1
  471.3672 0.17 2
  471.4939 0.16 2
  471.8806 0.03 0
  472.1728 0.09 1
  472.3837 0.17 2
  472.8341 0.03 0
  473.3776 0.51 5
  473.6171 0.11 1
  474.2031 0.09 1
  474.5473 0.18 2
  474.6967 0.04 0
  475.2703 0.27 3
  475.6454 0.11 1
  475.8190 0.09 1
  476.0102 0.07 1
  476.3487 0.63 6
  477.0190 0.11 1
  477.1992 0.09 1
  477.3143 0.06 1
  477.4454 0.26 3
  477.6923 0.08 1
  479.2428 0.28 3
  479.3798 0.10 1
  479.4817 0.04 0
  479.7609 0.04 0
  480.1683 0.09 1
  480.3054 0.08 1
  480.7289 0.01 0
  480.9407 0.10 1
  481.5424 0.09 1
  481.7484 0.08 1
  481.9434 0.15 1
  482.8801 0.09 1
  483.2173 0.11 1
  483.4811 0.18 2
  483.6446 0.03 0
  484.3571 0.17 2
  484.4854 0.09 1
  485.3102 0.08 1
  485.4920 0.10 1
  485.6782 0.11 1
  485.9333 0.03 0
  486.0396 0.06 1
  487.0786 0.10 1
  487.2780 0.20 2
  487.3712 0.19 2
  487.4533 0.10 1
  487.8228 0.42 4
  488.1147 0.09 1
  488.3596 0.13 1
  488.6478 0.12 1
  488.8018 0.19 2
  488.9998 0.12 1
  489.1538 0.14 1
  489.3430 0.10 1
  489.5131 0.17 2
  489.6671 0.01 0
  489.9942 0.12 1
  490.7269 0.08 1
  490.8398 0.04 0
  491.2564 0.11 1
  491.4068 0.19 2
  491.7875 0.10 1
  492.6273 0.03 0
  493.3653 0.11 1
  494.0006 0.01 0
  494.2001 0.08 1
  494.5875 0.16 2
  494.7401 0.09 1
  495.1685 0.15 1
  495.4085 0.06 1
  496.2911 0.11 1
  496.4694 0.12 1
  496.6440 0.10 1
  496.7937 0.07 1
  497.2054 0.31 3
  497.3903 0.28 3
  497.4989 0.11 1
  497.7154 0.01 0
  498.2452 0.10 1
  498.6745 0.11 1
  498.8250 0.09 1
  498.9292 0.10 1
  499.1207 0.17 2
  499.3532 0.24 2
  499.4984 0.10 1
  499.6260 0.07 1
  499.9246 0.10 1
  500.0170 0.09 1
  500.3184 0.31 3
  500.4512 0.03 0
  500.9822 0.09 1
  501.1252 0.09 1
  501.3094 0.12 1
  501.4656 0.21 2
  501.7047 0.22 2
  501.8719 0.21 2
  502.0634 0.15 1
  502.2519 0.19 2
  502.4339 0.12 1
  502.6547 0.04 0
  502.8146 0.13 1
  503.1755 0.03 0
  504.1718 0.09 1
  504.6281 0.10 1
  504.9510 0.10 1
  505.2239 0.11 1
  505.4536 0.09 1
  505.6531 0.08 1
  505.7845 0.12 1
  505.9349 0.07 1
  506.5219 0.18 2
  506.9761 0.09 1
  507.3636 0.14 1
  508.0835 0.09 1
  508.2082 0.05 0
  508.3469 0.02 0
  508.4717 0.09 1
  508.7674 0.13 1
  508.8760 0.23 2
  509.2357 0.03 0
  509.4654 0.19 2
  509.8103 0.12 1
  509.9424 0.06 1
  510.0356 0.05 0
  510.4151 0.73 7
  510.9362 0.06 1
  511.2578 0.16 2
  511.4405 0.09 1
  511.6850 0.10 1
  512.0549 0.05 0
  512.4344 0.08 1
  512.7736 0.08 1
  513.5496 0.29 3
  514.0120 0.10 1
  514.1662 0.11 1
  514.3256 0.26 3
  514.4885 0.20 2
  514.8101 0.11 1
  515.3409 0.56 6
  515.5120 0.12 1
  516.0069 0.09 1
  516.2815 0.70 7
  516.5671 0.22 2
  516.6883 0.07 1
  516.9849 0.18 2
  517.2978 0.14 1
  517.5966 0.12 1
  517.7905 0.10 1
  518.0416 0.18 2
  518.1929 0.08 1
  518.3347 0.34 3
  518.4272 0.10 1
  518.5300 0.10 1
  518.6996 0.17 2
  518.7944 0.08 1
  519.2027 0.19 2
  519.5295 0.20 2
  519.7778 0.10 1
  520.1010 0.07 1
  520.2354 0.10 1
  520.4366 0.09 1
  520.8648 0.09 1
  521.2012 0.14 1
  521.4921 0.21 2
  521.8087 0.10 1
  521.9651 0.12 1
  522.4866 0.22 2
  523.2704 0.19 2
  523.4578 0.17 2
  523.5613 0.03 0
  523.6855 0.09 1
  523.8493 0.13 1
  524.3680 1.09 11
  524.6971 0.10 1
  525.0167 0.10 1
  525.3275 0.20 2
  525.4796 0.23 2
  525.9843 0.04 0
  526.4200 0.07 1
  526.5836 0.02 0
  526.8306 0.09 1
  527.1318 0.08 1
  527.3466 0.21 2
  527.5430 0.02 0
  528.3553 0.27 3
  528.5370 0.16 2
  528.9073 0.10 1
  529.0641 0.06 1
  529.2261 0.09 1
  529.3933 0.13 1
  529.5751 0.23 2
  529.9820 0.11 1
  530.0861 0.08 1
  530.3229 0.41 4
  530.6066 0.09 1
  531.1353 0.12 1
  531.2167 0.08 1
  531.3817 0.16 2
  531.5950 0.09 1
  532.2894 0.12 1
  532.5313 0.12 1
  532.6398 0.11 1
  533.3885 0.11 1
  533.5271 0.09 1
  533.7332 0.09 1
  533.8945 0.10 1
  534.4159 0.07 1
  534.8728 0.13 1
  535.2505 0.23 2
  535.5754 0.09 1
  535.8812 0.09 1
  536.1034 0.15 1
  536.4349 1.18 12
  536.7965 0.08 1
  536.9945 0.10 1
  537.3319 0.87 9
  537.5388 0.60 6
  537.6950 0.13 1
  537.8557 0.10 1
  538.2986 0.09 1
  538.5092 0.07 1
  538.6632 0.13 1
  539.1488 0.02 0
  539.3733 0.08 1
  539.5075 0.27 3
  539.6990 0.15 1
  539.9609 0.12 1
  540.2756 0.14 1
  540.4069 0.17 2
  540.7862 0.07 1
  541.3306 0.18 2
  541.6049 0.05 0
  542.0202 0.11 1
  542.3283 0.13 1
  542.4443 0.08 1
  542.9417 0.09 1
  543.2117 0.40 4
  543.3203 0.24 2
  543.5118 0.25 2
  543.6314 0.09 1
  543.9858 0.09 1
  544.4451 0.21 2
  544.5684 0.11 1
  544.7350 0.07 1
  545.0608 0.10 1
  545.3719 0.18 2
  545.5510 0.12 1
  545.8951 0.12 1
  546.3223 0.11 1
  546.8118 0.09 1
  546.9630 0.09 1
  547.3196 0.05 0
  547.4833 0.17 2
  547.6800 0.08 1
  547.9053 0.10 1
  548.2576 0.06 1
  548.5225 0.08 1
  548.8499 0.07 1
  548.9541 0.09 1
  549.0480 0.10 1
  549.3387 0.10 1
  549.7159 0.10 1
  549.9119 0.09 1
  550.0683 0.10 1
  550.2364 0.16 2
  550.4118 0.10 1
  550.5902 0.10 1
  550.8243 0.03 0
  550.9543 0.01 0
  551.5526 0.07 1
  551.7632 0.09 1
  552.3857 0.12 1
  552.7675 0.09 1
  553.0670 0.13 1
  553.4451 0.20 2
  553.7975 0.10 1
  554.1051 0.10 1
  554.2542 0.09 1
  554.4186 0.15 1
  554.5765 0.08 1
  554.7696 0.14 1
  554.8643 0.13 1
  554.9744 0.11 1
  555.2072 0.10 1
  555.4950 0.21 2
  555.7982 0.08 1
  556.3387 0.16 2
  556.5009 0.13 1
  556.9540 0.10 1
  557.3718 0.37 4
  557.5767 0.18 2
  557.8837 0.09 1
  558.3823 0.54 5
  558.6944 0.07 1
  558.8310 0.14 1
  559.1005 0.13 1
  559.3796 0.32 3
  559.6895 0.13 1
  560.4878 0.09 1
  560.6641 0.13 1
  561.2604 0.08 1
  561.8047 0.11 1
  562.0757 0.09 1
  562.2183 0.06 1
  562.3401 0.11 1
  562.7038 0.08 1
  563.0784 0.07 1
  563.3869 0.07 1
  563.9172 0.17 2
  564.3117 0.07 1
  564.6364 0.10 1
  564.7657 0.12 1
  565.1044 0.11 1
  565.2711 0.16 2
  565.4636 0.13 1
  565.7391 0.14 1
  565.8449 0.13 1
  566.3276 0.13 1
  566.4811 0.16 2
  566.7331 0.12 1
  566.8793 0.15 1
  567.1974 0.11 1
  567.4282 0.12 1
  567.6699 0.12 1
  567.9417 0.12 1
  568.1879 0.30 3
  568.3826 0.14 1
  568.7264 0.34 3
  568.9866 0.30 3
  569.2878 0.17 2
  569.4958 0.20 2
  569.7596 0.49 5
  569.9161 0.22 2
  569.9962 0.09 1
  570.3401 0.34 3
  570.4929 0.22 2
  570.7516 0.34 3
  570.8691 0.09 1
  571.0228 0.10 1
  571.2564 0.29 3
  571.4637 0.18 2
  571.6422 0.11 1
  571.9611 0.15 1
  572.0865 0.09 1
  572.4969 0.41 4
  573.0526 0.44 4
  573.1955 0.14 1
  573.3605 0.55 5
  573.5269 0.26 3
  573.6991 0.16 2
  573.8413 0.32 3
  573.9535 0.16 2
  574.2504 0.13 1
  574.4278 0.14 1
  574.7379 0.12 1
  575.0025 0.22 2
  575.1741 0.03 0
  575.3265 0.18 2
  575.5040 0.25 2
  575.7401 0.16 2
  575.9020 0.28 3
  576.0590 0.19 2
  576.2972 0.10 1
  576.4702 0.14 1
  576.6697 0.18 2
  576.9080 0.09 1
  577.0348 0.09 1
  577.2657 0.23 2
  577.5627 0.26 3
  577.7423 0.10 1
  577.9674 0.03 0
  578.2915 0.26 3
  578.4132 0.11 1
  578.5121 0.11 1
  578.7894 0.27 3
  578.9440 0.08 1
  579.0724 0.17 2
  579.2366 0.12 1
  579.4647 0.52 5
  579.7052 0.16 2
  580.1833 0.46 5
  580.5037 0.47 5
  580.7772 0.23 2
  580.8682 0.11 1
  580.9877 0.23 2
  581.2642 0.43 4
  581.4541 0.21 2
  581.6433 0.06 1
  581.7944 0.09 1
  581.9125 0.06 1
  582.0826 0.09 1
  582.3260 0.22 2
  582.5336 0.20 2
  582.7690 0.22 2
  582.9223 0.16 2
  583.3264 1.18 12
  583.6924 0.15 1
  583.8522 0.08 1
  584.1757 0.17 2
  584.4544 0.22 2
  584.6840 0.21 2
  584.9180 0.24 2
  585.0449 0.20 2
  585.3427 0.45 4
  585.6272 0.27 3
  586.4282 1.36 14
  587.3987 0.98 10
  588.5460 1.23 12
  589.4446 1.22 12
  589.8203 1.21 12
  590.1240 1.14 11
  590.4057 0.87 9
  591.0668 1.38 14
  591.5436 1.39 14
  593.8087 1.79 18
  595.1244 2.48 25
  598.2629 39.86 398
  599.3568 3.71 37
  601.2899 7.23 72
  601.9883 1.05 10
  602.3171 1.02 10
  602.7441 1.02 10
  603.5424 1.14 11
  604.4698 1.54 15
  605.2154 1.54 15
  605.4788 1.28 13
  605.7225 1.29 13
  606.2523 1.19 12
  607.0801 1.39 14
  607.6496 1.47 15
  609.3148 2.17 22
  609.8212 1.82 18
  616.4932 99.97 999
  617.7156 24.66 246
  618.6899 11.62 116
  619.7553 5.63 56
  620.4756 3.32 33
  621.6570 2.26 23
  622.2495 1.39 14
  622.9434 1.01 10
  623.2723 0.79 8
  623.8333 0.66 7
//
