ACCESSION: MSBNK-Kyoto_Univ-CA000128
RECORD_TITLE: Sarcinaxanthin; FAB-EBEB; MS2; m/z: 704.55; [M]*+
DATE: 2016.01.19 (Created 2007.10.06, modified 2011.05.10)
AUTHORS: Akimoto N, Graduate School of Pharmaceutical Sciences, Kyoto University and Maoka T, Research Institute for Production Development
LICENSE: CC BY-SA
COMMENT: Profile spectrum of this record is given as a JPEG file.
COMMENT: [Profile] CA000128.jpg
CH$NAME: Sarcinaxanthin
CH$COMPOUND_CLASS: Natural Product; Carotenoid
CH$FORMULA: C50H72O2
CH$EXACT_MASS: 704.55323
CH$SMILES: CC(C=CC=C(C=CC(C(=C)2)C(C)(C)C(CC=C(C)CO)CC2)C)=CC=CC=C(C)C=CC=C(C=CC(C(=C)1)C(C)(C)C(CC=C(C)CO)CC1)C
CH$IUPAC: InChI=1S/C50H72O2/c1-37(19-15-21-39(3)25-33-47-43(7)27-31-45(49(47,9)10)29-23-41(5)35-51)17-13-14-18-38(2)20-16-22-40(4)26-34-48-44(8)28-32-46(50(48,11)12)30-24-42(6)36-52/h13-26,33-34,45-48,51-52H,7-8,27-32,35-36H2,1-6,9-12H3/b14-13+,19-15+,20-16+,33-25+,34-26+,37-17+,38-18+,39-21+,40-22+,41-23+,42-24+/t45-,46-,47+,48+/m0/s1
CH$LINK: CHEMSPIDER 9116771
CH$LINK: PUBCHEM CID:10941542
CH$LINK: INCHIKEY XFXHBQLETDDGGF-XUYZKQIISA-N
AC$INSTRUMENT: JMS-HX/HX 110A, JEOL
AC$INSTRUMENT_TYPE: FAB-EBEB
AC$MASS_SPECTROMETRY: MS_TYPE MS2
AC$MASS_SPECTROMETRY: ION_MODE POSITIVE
AC$MASS_SPECTROMETRY: ATOM_GUN_CURRENT 5 mA
AC$MASS_SPECTROMETRY: BOMBARDMENT 6 kV xenon
AC$MASS_SPECTROMETRY: COLLISION_ENERGY 3 kV
AC$MASS_SPECTROMETRY: COLLISION_GAS Ar
AC$MASS_SPECTROMETRY: GAS_PRESSURE adjust to attenuate the intensity of the precursor ion by 30 %
AC$MASS_SPECTROMETRY: IONIZATION FAB
AC$MASS_SPECTROMETRY: PROBE_TIP stainless-steel
MS$FOCUSED_ION: BASE_PEAK 704.4872
MS$FOCUSED_ION: PRECURSOR_M/Z 704.55
MS$FOCUSED_ION: PRECURSOR_TYPE [M]+*
PK$SPLASH: splash10-1003-5910000200-0348dc0bc4c2a5a59270
PK$NUM_PEAK: 1691
PK$PEAK: m/z int. rel.int.
  11.9667 0.01 0
  12.9876 0.01 0
  13.9815 0.04 0
  14.9998 0.15 1
  22.9648 0.48 5
  23.8718 0.01 0
  24.9718 0.02 0
  25.9747 0.25 2
  26.9888 2.33 23
  27.9944 0.22 2
  28.9989 3.98 40
  29.2441 0.01 0
  29.3662 0.01 0
  29.9863 0.05 0
  30.9796 0.88 9
  32.0180 0.01 0
  32.5788 0.01 0
  35.9109 0.01 0
  36.9600 0.14 1
  37.2046 0.01 0
  37.6067 0.01 0
  37.7089 0.01 0
  37.9924 0.39 4
  38.3943 0.01 0
  38.9815 4.16 42
  39.2449 0.01 0
  39.4980 0.01 0
  39.7204 0.01 0
  40.0042 0.37 4
  40.4283 0.01 0
  40.5972 0.02 0
  41.0029 16.24 162
  41.3874 0.01 0
  41.5119 0.01 0
  42.0106 0.19 2
  42.3583 0.01 0
  42.7065 0.02 0
  42.9831 38.66 386
  43.4453 0.01 0
  43.5708 0.01 0
  44.0005 0.13 1
  45.0032 0.48 5
  45.2537 0.01 0
  45.6356 0.01 0
  45.9966 0.01 0
  47.7367 0.01 0
  48.9728 0.08 1
  49.3134 0.02 0
  49.9698 0.82 8
  50.4188 0.01 0
  50.9905 2.47 25
  51.2008 0.02 0
  51.3058 0.02 0
  51.6868 0.01 0
  51.9980 0.89 9
  52.9955 4.32 43
  53.9929 0.21 2
  55.0028 16.24 162
  56.0142 0.17 2
  56.1724 0.01 0
  56.4316 0.01 0
  57.0238 8.22 82
  57.3564 0.01 0
  57.4806 0.01 0
  58.0067 0.19 2
  59.0158 0.33 3
  59.2302 0.01 0
  59.9256 0.01 0
  60.3937 0.01 0
  60.9804 0.10 1
  61.2310 0.01 0
  61.9806 0.52 5
  62.4356 0.01 0
  62.9818 1.67 17
  63.2938 0.02 0
  63.5731 0.02 0
  63.9879 0.37 4
  64.4059 0.01 0
  64.9945 3.23 32
  65.3503 0.01 0
  65.5634 0.03 0
  65.9986 0.53 5
  66.2503 0.01 0
  66.4862 0.01 0
  67.0116 10.84 108
  67.2767 0.02 0
  67.4980 0.01 0
  68.0101 0.38 4
  68.2081 0.01 0
  68.4732 0.02 0
  68.7028 0.01 0
  69.0291 31.75 317
  69.2748 0.03 0
  69.4249 0.01 0
  69.7155 0.01 0
  70.0090 0.19 2
  70.3743 0.01 0
  71.0067 1.75 17
  71.3010 0.02 0
  72.0200 0.02 0
  72.1295 0.01 0
  72.9909 0.07 1
  73.1564 0.01 0
  73.4519 0.02 0
  73.6316 0.01 0
  73.9548 0.48 5
  74.2172 0.01 0
  74.9700 0.60 6
  75.1700 0.06 1
  75.4890 0.05 0
  75.6586 0.05 0
  75.9768 0.38 4
  76.1702 0.03 0
  76.9933 10.44 104
  77.4024 0.07 1
  77.6599 0.07 1
  77.9999 2.59 26
  78.2296 0.04 0
  78.3867 0.03 0
  79.0031 17.92 179
  79.4115 0.02 0
  79.6180 0.02 0
  79.7405 0.01 0
  80.0048 1.56 16
  80.4058 0.04 0
  81.0106 20.45 204
  81.3556 0.02 0
  82.0168 0.48 5
  82.2850 0.01 0
  82.4667 0.02 0
  82.6526 0.01 0
  83.0316 3.53 35
  83.4411 0.01 0
  84.0056 0.33 3
  84.5051 0.01 0
  85.0135 1.34 13
  85.5206 0.01 0
  85.6399 0.01 0
  85.9712 0.13 1
  86.3726 0.01 0
  86.9689 0.23 2
  87.9660 0.10 1
  88.1626 0.03 0
  88.3502 0.01 0
  88.6110 0.10 1
  88.9868 1.12 11
  89.2069 0.14 1
  89.6705 0.09 1
  90.0069 0.37 4
  90.1584 0.11 1
  90.3156 0.10 1
  91.0053 23.91 239
  91.4613 0.06 1
  92.0190 2.52 25
  92.3286 0.03 0
  93.0212 27.57 276
  93.2866 0.06 1
  93.4965 0.04 0
  93.6565 0.01 0
  94.0211 0.78 8
  94.2053 0.02 0
  94.4567 0.03 0
  95.0447 13.80 138
  95.3638 0.02 0
  95.5189 0.02 0
  96.0262 0.22 2
  96.4540 0.04 0
  96.7167 0.01 0
  97.0364 1.55 15
  97.6153 0.01 0
  97.9934 0.22 2
  99.0344 0.24 2
  99.9770 0.05 0
  100.9918 0.30 3
  101.2713 0.05 0
  101.9967 1.10 11
  103.0003 3.58 36
  103.5432 0.05 0
  104.0226 1.67 17
  104.2303 0.05 0
  105.0362 40.85 408
  105.4035 0.05 0
  105.6220 0.05 0
  106.0347 2.75 27
  107.0504 16.79 168
  107.4359 0.03 0
  108.0442 0.60 6
  108.4247 0.02 0
  108.5593 0.01 0
  109.0604 8.70 87
  109.3643 0.02 0
  109.4628 0.01 0
  109.7290 0.02 0
  110.0443 0.16 2
  110.4270 0.01 0
  110.6104 0.01 0
  111.0578 0.83 8
  111.3820 0.01 0
  111.5928 0.01 0
  112.0238 0.12 1
  112.2037 0.02 0
  112.6104 0.09 1
  113.0146 0.20 2
  113.2409 0.08 1
  113.4336 0.09 1
  113.5700 0.06 1
  114.0497 0.19 2
  115.0110 9.67 97
  116.0168 3.89 39
  116.2392 0.12 1
  117.0162 11.07 111
  117.5254 0.08 1
  118.0328 2.80 28
  119.0275 28.85 288
  119.4022 0.08 1
  120.0403 2.40 24
  120.5588 0.06 1
  121.0465 11.61 116
  121.5161 0.03 0
  121.7071 0.03 0
  122.0544 0.38 4
  122.2211 0.03 0
  122.3692 0.03 0
  123.0587 3.49 35
  123.4098 0.03 0
  123.7230 0.03 0
  124.0229 0.13 1
  124.3028 0.02 0
  124.5544 0.01 0
  125.0214 0.33 3
  125.2860 0.04 0
  125.5695 0.05 0
  125.9855 0.43 4
  126.2341 0.05 0
  126.9968 3.37 34
  127.9870 10.48 105
  128.4812 0.15 1
  129.0021 14.60 146
  129.2954 0.05 0
  130.0021 5.65 56
  131.0163 18.87 189
  131.3754 0.08 1
  132.0222 3.53 35
  132.3395 0.05 0
  133.0318 13.32 133
  133.3374 0.11 1
  133.4638 0.06 1
  134.0315 0.98 10
  134.3867 0.04 0
  135.0401 3.62 36
  135.5491 0.06 1
  135.6591 0.03 0
  136.0152 0.16 2
  136.6396 0.01 0
  137.0417 0.58 6
  137.5436 0.01 0
  137.7179 0.02 0
  138.0056 0.12 1
  138.1853 0.03 0
  138.4846 0.02 0
  138.9715 1.12 11
  139.4160 0.04 0
  139.9921 0.40 4
  140.9795 8.37 84
  141.2837 0.10 1
  141.9965 9.22 92
  143.0014 18.69 187
  144.0125 6.56 66
  145.0164 22.39 224
  145.2793 0.14 1
  145.6553 0.06 1
  146.0261 1.46 15
  146.3463 0.04 0
  147.0278 4.72 47
  147.5472 0.05 0
  148.0484 0.30 3
  148.4210 0.01 0
  149.0370 1.04 10
  149.4146 0.03 0
  149.9980 0.19 2
  150.3637 0.06 1
  150.9780 0.64 6
  151.9829 3.01 30
  152.9820 4.42 44
  153.4832 0.08 1
  153.9962 2.47 25
  154.4303 0.05 0
  155.0122 10.39 104
  155.2928 0.10 1
  155.5269 0.07 1
  156.0130 6.47 65
  157.0327 19.99 200
  157.4355 0.11 1
  158.0309 3.01 30
  158.3701 0.09 1
  159.0520 8.75 87
  159.5524 0.07 1
  160.0530 0.67 7
  160.4382 0.04 0
  161.0605 1.85 18
  161.5110 0.02 0
  162.0196 0.15 1
  162.3109 0.06 1
  162.5058 0.03 0
  163.0533 0.57 6
  164.0143 0.36 4
  165.0108 6.48 65
  165.3146 0.07 1
  166.0168 2.30 23
  166.5684 0.12 1
  167.0308 5.85 58
  167.3359 0.07 1
  168.0465 3.07 31
  169.0490 10.61 106
  169.3579 0.14 1
  170.0674 4.14 41
  170.4278 0.10 1
  171.0732 8.97 90
  171.3787 0.13 1
  172.0824 1.25 12
  172.3502 0.05 0
  173.0908 3.49 35
  173.3889 0.10 1
  173.4972 0.06 1
  174.0929 0.52 5
  174.3232 0.06 1
  175.1078 1.41 14
  176.0349 0.31 3
  176.2552 0.06 1
  176.6865 0.08 1
  177.0792 0.69 7
  177.4560 0.08 1
  178.0458 3.26 33
  178.3235 0.10 1
  179.0516 5.45 54
  180.0638 2.87 29
  181.0585 7.65 76
  182.0779 3.20 32
  182.5859 0.09 1
  183.0742 9.10 91
  183.3498 0.07 1
  184.0840 1.99 20
  185.0859 5.15 51
  185.5338 0.08 1
  186.0892 0.77 8
  186.5375 0.04 0
  187.1006 1.94 19
  188.0050 0.23 2
  189.0480 1.51 15
  189.5180 0.08 1
  190.0320 0.54 5
  190.5007 0.08 1
  191.0310 2.18 22
  192.0491 2.50 25
  192.4449 0.02 0
  193.0416 4.59 46
  193.4816 0.06 1
  194.0571 2.83 28
  195.0606 9.03 90
  195.4347 0.06 1
  195.5589 0.04 0
  196.0623 1.81 18
  197.0727 8.83 88
  197.4490 0.10 1
  198.0693 1.14 11
  199.0859 2.81 28
  199.3751 0.07 1
  200.0758 0.84 8
  200.5139 0.06 1
  201.0849 1.04 10
  201.4404 0.07 1
  202.0206 1.24 12
  203.0059 1.70 17
  204.0362 0.73 7
  204.2497 0.09 1
  204.5923 0.06 1
  205.0365 2.57 26
  206.0382 1.65 16
  207.0437 4.44 44
  208.0564 1.82 18
  208.3771 0.06 1
  209.0623 5.71 57
  209.4059 0.12 1
  210.0673 1.10 11
  210.4677 0.06 1
  211.0680 3.09 31
  211.4896 0.09 1
  212.0563 0.58 6
  212.4498 0.03 0
  212.5956 0.03 0
  213.0768 0.99 10
  214.0460 0.22 2
  214.2446 0.06 1
  215.0141 1.29 13
  215.4967 0.04 0
  216.0192 0.68 7
  216.3925 0.02 0
  217.0233 1.34 13
  217.2783 0.06 1
  218.0239 0.84 8
  219.0486 2.32 23
  219.3201 0.04 0
  220.0421 1.02 10
  221.0582 3.51 35
  221.5570 0.06 1
  222.0585 0.75 7
  222.4395 0.06 1
  223.0691 2.84 28
  223.3892 0.05 0
  224.0810 0.56 6
  224.5326 0.08 1
  225.0951 1.11 11
  225.3626 0.09 1
  226.0486 0.34 3
  226.4728 0.02 0
  227.0719 0.69 7
  227.6098 0.02 0
  228.0524 0.45 4
  228.4330 0.04 0
  229.0301 1.05 10
  230.0312 0.56 6
  230.5774 0.05 0
  231.0426 1.49 15
  231.3927 0.04 0
  231.6021 0.03 0
  232.0677 0.83 8
  232.4473 0.05 0
  233.0760 2.16 22
  233.4059 0.03 0
  234.0782 0.75 7
  235.0809 2.06 21
  235.4636 0.03 0
  235.6595 0.02 0
  236.1046 0.63 6
  237.0968 1.47 15
  237.5258 0.06 1
  237.7555 0.03 0
  238.1042 0.32 3
  238.4940 0.05 0
  239.0997 0.80 8
  239.5004 0.04 0
  240.0686 0.20 2
  240.3701 0.04 0
  240.5795 0.04 0
  241.0955 0.76 8
  241.4784 0.03 0
  241.6699 0.06 1
  242.0866 0.37 4
  243.0633 0.81 8
  244.0759 0.52 5
  244.3581 0.04 0
  245.0947 1.38 14
  245.6797 0.05 0
  246.0980 0.54 5
  246.4934 0.03 0
  247.0952 1.56 16
  247.7350 0.04 0
  248.1232 0.52 5
  248.4819 0.02 0
  248.6308 0.03 0
  249.1220 1.19 12
  249.5302 0.04 0
  250.1122 0.43 4
  250.5008 0.03 0
  251.1514 0.96 10
  252.0822 0.31 3
  252.4901 0.02 0
  253.1173 0.84 8
  253.6457 0.03 0
  254.1239 0.23 2
  254.5849 0.02 0
  255.0996 0.44 4
  256.0765 0.25 2
  256.3884 0.02 0
  256.5733 0.04 0
  257.1066 0.72 7
  257.6176 0.02 0
  258.0933 0.37 4
  258.3749 0.04 0
  259.0970 0.99 10
  259.5357 0.05 0
  259.7729 0.04 0
  260.1423 0.30 3
  260.5217 0.01 0
  260.6862 0.04 0
  261.1294 1.31 13
  261.6478 0.04 0
  262.1267 0.35 3
  262.5031 0.06 1
  262.6454 0.02 0
  263.1476 0.86 9
  263.6772 0.03 0
  264.1275 0.22 2
  265.1475 0.50 5
  265.4944 0.02 0
  265.6187 0.01 0
  265.8348 0.02 0
  266.1488 0.25 2
  266.4561 0.04 0
  266.6492 0.04 0
  267.1380 0.51 5
  268.1442 0.16 2
  268.3979 0.03 0
  268.6093 0.04 0
  269.1284 0.51 5
  269.4634 0.02 0
  269.6467 0.01 0
  270.1054 0.21 2
  270.3949 0.03 0
  271.1251 0.65 6
  271.6271 0.03 0
  272.1194 0.15 1
  272.3850 0.03 0
  273.1511 0.58 6
  273.6595 0.03 0
  274.1406 0.22 2
  274.5786 0.02 0
  275.1487 0.78 8
  276.1289 0.23 2
  276.5556 0.03 0
  276.6677 0.03 0
  277.1460 0.43 4
  277.6044 0.02 0
  278.1186 0.16 2
  278.3088 0.04 0
  278.5464 0.04 0
  279.1579 0.35 3
  279.3947 0.06 1
  280.1112 0.16 2
  280.5152 0.03 0
  280.7604 0.03 0
  281.1379 0.24 2
  281.4663 0.04 0
  281.8007 0.05 0
  282.1408 0.14 1
  282.4203 0.03 0
  282.6158 0.02 0
  283.1324 0.30 3
  283.6017 0.04 0
  284.1086 0.20 2
  285.1299 0.50 5
  285.6512 0.04 0
  285.8277 0.03 0
  286.1050 0.18 2
  286.2707 0.09 1
  286.6505 0.04 0
  287.1603 0.58 6
  287.4469 0.02 0
  287.7160 0.02 0
  287.8468 0.03 0
  288.2135 0.19 2
  288.5402 0.06 1
  289.1636 0.48 5
  289.6380 0.02 0
  289.8414 0.01 0
  290.1566 0.14 1
  290.3675 0.03 0
  290.6411 0.01 0
  291.1865 0.28 3
  292.1559 0.12 1
  292.4479 0.02 0
  292.7440 0.01 0
  293.1800 0.20 2
  293.5594 0.02 0
  293.7329 0.02 0
  294.1665 0.05 0
  294.4276 0.01 0
  294.5986 0.02 0
  294.7320 0.01 0
  295.1491 0.22 2
  295.6631 0.02 0
  296.2038 0.09 1
  296.3615 0.02 0
  296.5092 0.02 0
  296.7780 0.02 0
  297.1369 0.15 1
  297.4408 0.04 0
  297.5651 0.01 0
  297.7847 0.02 0
  298.1329 0.08 1
  298.5571 0.02 0
  298.8251 0.02 0
  299.1659 0.32 3
  299.4941 0.01 0
  299.7113 0.01 0
  300.1891 0.14 1
  300.3621 0.05 0
  300.4941 0.02 0
  300.6270 0.01 0
  301.1526 0.42 4
  301.4793 0.03 0
  301.8011 0.01 0
  302.1655 0.16 2
  302.4472 0.02 0
  302.6788 0.02 0
  302.9020 0.05 0
  303.1788 0.34 3
  303.5442 0.03 0
  304.1898 0.14 1
  304.7042 0.01 0
  305.1836 0.18 2
  305.6370 0.03 0
  306.1993 0.05 0
  306.4621 0.02 0
  307.1627 0.15 1
  307.5728 0.02 0
  307.8792 0.03 0
  308.2309 0.08 1
  308.5691 0.02 0
  309.1595 0.12 1
  309.6587 0.09 1
  309.8790 0.08 1
  310.1965 0.08 1
  310.6609 0.02 0
  311.1669 0.21 2
  311.7901 0.02 0
  311.9390 0.02 0
  312.2000 0.07 1
  312.6752 0.02 0
  313.1923 0.25 2
  314.1347 0.13 1
  314.4921 0.01 0
  314.6754 0.01 0
  315.1811 0.30 3
  315.4523 0.02 0
  315.5846 0.01 0
  315.9070 0.05 0
  316.1716 0.10 1
  316.4111 0.02 0
  316.5786 0.01 0
  316.8215 0.03 0
  317.2161 0.27 3
  317.4950 0.05 0
  317.8175 0.03 0
  318.2264 0.09 1
  318.4895 0.01 0
  319.2101 0.21 2
  319.5697 0.04 0
  320.0223 0.03 0
  320.2361 0.05 0
  320.4046 0.05 0
  320.5798 0.02 0
  320.7097 0.02 0
  320.8137 0.02 0
  321.2111 0.17 2
  321.5457 0.02 0
  321.6807 0.01 0
  322.0153 0.03 0
  322.2568 0.02 0
  322.6879 0.01 0
  323.1879 0.17 2
  323.3556 0.08 1
  323.5914 0.02 0
  324.1971 0.06 1
  324.8122 0.04 0
  325.1983 0.26 3
  325.6859 0.02 0
  326.2349 0.11 1
  326.4641 0.02 0
  327.1441 0.20 2
  327.4867 0.01 0
  327.8386 0.03 0
  328.2047 0.09 1
  328.4349 0.02 0
  328.7036 0.03 0
  329.1740 0.19 2
  329.5496 0.01 0
  330.1780 0.10 1
  331.1788 0.24 2
  331.5999 0.01 0
  331.7470 0.01 0
  332.1589 0.07 1
  332.4363 0.01 0
  332.6002 0.01 0
  332.7162 0.02 0
  333.1904 0.18 2
  333.7328 0.02 0
  333.8824 0.01 0
  334.2298 0.04 0
  334.3879 0.01 0
  335.1550 0.11 1
  335.6706 0.01 0
  336.1864 0.05 0
  336.6357 0.02 0
  337.1591 0.19 2
  337.4225 0.03 0
  337.7406 0.02 0
  338.2069 0.20 2
  338.4855 0.01 0
  338.7094 0.02 0
  339.2508 0.24 2
  339.5555 0.02 0
  340.1551 0.06 1
  340.5349 0.01 0
  340.7193 0.01 0
  340.8439 0.01 0
  341.2297 0.12 1
  341.4352 0.06 1
  341.6416 0.02 0
  342.0956 0.07 1
  342.3408 0.06 1
  343.1833 0.20 2
  343.6013 0.04 0
  343.7285 0.03 0
  344.1617 0.13 1
  345.1714 0.11 1
  345.4496 0.05 0
  345.7691 0.01 0
  346.0237 0.04 0
  346.3188 0.06 1
  347.1798 0.13 1
  347.6445 0.01 0
  347.9506 0.03 0
  348.3268 0.04 0
  348.6499 0.02 0
  348.7756 0.01 0
  349.2336 0.11 1
  349.5315 0.02 0
  349.8074 0.02 0
  350.2386 0.09 1
  350.4191 0.04 0
  351.2192 0.40 4
  351.7610 0.02 0
  351.9611 0.03 0
  352.2422 0.13 1
  352.4600 0.02 0
  353.2333 0.21 2
  354.2204 0.03 0
  354.7111 0.02 0
  355.1638 0.08 1
  355.3268 0.04 0
  355.8421 0.01 0
  356.2569 0.06 1
  356.6700 0.02 0
  357.2522 0.08 1
  357.4389 0.03 0
  357.6282 0.02 0
  358.2430 0.06 1
  358.5719 0.02 0
  359.1816 0.11 1
  359.5020 0.01 0
  359.8225 0.01 0
  360.1996 0.09 1
  360.4568 0.02 0
  360.6045 0.01 0
  361.2152 0.08 1
  361.7923 0.02 0
  362.0952 0.02 0
  362.3357 0.02 0
  362.4615 0.01 0
  362.6429 0.03 0
  363.2125 0.12 1
  363.5088 0.05 0
  364.2676 0.13 1
  364.7462 0.03 0
  365.2486 0.16 2
  365.4968 0.03 0
  365.7400 0.02 0
  366.2778 0.15 1
  367.2119 0.05 0
  367.7837 0.02 0
  367.9974 0.02 0
  368.2280 0.07 1
  368.3615 0.03 0
  368.5101 0.02 0
  368.6596 0.01 0
  369.2122 0.08 1
  369.7664 0.03 0
  369.9566 0.03 0
  370.1484 0.05 0
  370.3858 0.02 0
  371.1768 0.11 1
  371.4803 0.01 0
  371.6721 0.01 0
  372.1624 0.05 0
  372.2630 0.02 0
  372.7778 0.01 0
  373.2073 0.08 1
  373.3764 0.04 0
  373.8491 0.04 0
  373.9818 0.02 0
  374.1442 0.02 0
  374.3496 0.02 0
  374.7480 0.01 0
  375.1167 0.02 0
  375.3273 0.06 1
  375.9946 0.02 0
  376.3398 0.05 0
  376.5741 0.03 0
  376.8820 0.01 0
  377.1646 0.08 1
  377.3490 0.12 1
  377.6595 0.02 0
  377.8423 0.01 0
  378.3018 0.16 2
  378.4727 0.05 0
  378.7325 0.01 0
  379.2064 0.14 1
  379.4366 0.03 0
  379.7913 0.02 0
  380.0350 0.04 0
  380.3161 0.03 0
  380.4371 0.03 0
  380.6479 0.01 0
  380.9179 0.02 0
  381.2422 0.13 1
  381.4225 0.04 0
  381.5732 0.02 0
  381.9128 0.01 0
  382.2472 0.08 1
  382.5182 0.02 0
  382.6681 0.01 0
  383.2549 0.06 1
  383.4684 0.06 1
  383.8994 0.02 0
  384.0926 0.01 0
  384.2552 0.03 0
  384.4322 0.02 0
  385.2293 0.08 1
  385.6165 0.01 0
  385.9410 0.02 0
  386.2511 0.03 0
  386.5544 0.01 0
  386.8214 0.02 0
  387.2298 0.10 1
  387.5120 0.04 0
  388.3193 0.04 0
  388.4793 0.01 0
  389.2330 0.19 2
  389.5735 0.03 0
  390.1825 0.06 1
  390.8068 0.01 0
  391.2583 0.09 1
  391.7455 0.02 0
  392.1471 0.05 0
  392.2674 0.04 0
  393.0631 0.07 1
  393.3089 0.04 0
  393.5936 0.01 0
  393.7546 0.03 0
  393.8716 0.02 0
  394.0538 0.03 0
  394.3674 0.02 0
  394.6082 0.01 0
  394.7862 0.01 0
  394.9302 0.01 0
  395.3295 0.07 1
  395.7593 0.02 0
  396.2256 0.04 0
  396.3901 0.04 0
  396.8276 0.01 0
  397.2660 0.10 1
  397.4822 0.02 0
  397.8604 0.02 0
  397.9648 0.01 0
  398.2234 0.04 0
  398.5669 0.03 0
  398.9596 0.02 0
  399.1708 0.10 1
  399.3565 0.06 1
  399.7170 0.03 0
  400.2769 0.04 0
  400.8190 0.03 0
  401.2322 0.12 1
  401.5835 0.02 0
  402.2844 0.07 1
  402.5823 0.01 0
  402.8352 0.01 0
  403.3155 0.16 2
  403.6336 0.02 0
  404.2524 0.14 1
  404.3999 0.07 1
  404.5685 0.06 1
  404.8322 0.03 0
  405.2815 0.23 2
  406.3134 0.18 2
  406.6805 0.01 0
  406.9942 0.01 0
  407.2215 0.02 0
  407.5336 0.04 0
  407.8567 0.01 0
  408.0365 0.02 0
  408.2876 0.03 0
  408.4937 0.01 0
  408.8499 0.01 0
  409.2342 0.07 1
  409.3656 0.03 0
  409.5370 0.02 0
  409.7610 0.02 0
  410.0612 0.02 0
  410.2971 0.06 1
  410.4795 0.03 0
  410.6501 0.01 0
  411.1506 0.06 1
  411.3551 0.09 1
  411.6665 0.01 0
  411.8430 0.01 0
  412.0535 0.04 0
  412.1740 0.04 0
  412.3547 0.08 1
  412.8444 0.01 0
  413.2908 0.14 1
  413.5064 0.04 0
  413.7916 0.01 0
  414.2440 0.04 0
  414.4079 0.04 0
  414.5097 0.02 0
  415.2194 0.18 2
  415.4206 0.09 1
  415.6320 0.01 0
  416.2832 0.10 1
  416.7536 0.03 0
  417.2445 0.29 3
  417.6937 0.03 0
  418.2372 0.13 1
  418.5710 0.01 0
  418.8895 0.04 0
  419.0186 0.04 0
  419.3134 0.08 1
  419.8494 0.02 0
  420.2529 0.03 0
  420.5740 0.02 0
  420.7337 0.02 0
  421.2724 0.04 0
  421.5919 0.01 0
  421.9980 0.02 0
  422.1357 0.03 0
  422.3022 0.02 0
  422.7900 0.01 0
  423.2642 0.05 0
  423.5226 0.03 0
  423.7427 0.02 0
  423.9059 0.03 0
  424.2977 0.05 0
  424.6148 0.01 0
  425.2455 0.08 1
  425.4402 0.05 0
  425.8270 0.02 0
  426.3124 0.04 0
  426.5641 0.02 0
  427.2553 0.10 1
  427.7196 0.01 0
  427.9901 0.02 0
  428.2911 0.06 1
  428.6619 0.01 0
  429.0905 0.10 1
  429.2734 0.11 1
  429.5183 0.04 0
  429.9436 0.03 0
  430.3153 0.29 3
  431.2791 0.17 2
  432.2618 0.23 2
  433.1254 0.03 0
  433.3926 0.02 0
  433.6998 0.01 0
  434.1781 0.03 0
  434.3993 0.01 0
  434.5440 0.02 0
  435.1185 0.02 0
  435.3449 0.05 0
  435.5952 0.02 0
  435.7314 0.01 0
  436.3374 0.02 0
  437.3028 0.02 0
  437.8136 0.01 0
  438.2461 0.03 0
  438.4207 0.02 0
  438.6003 0.02 0
  438.8859 0.02 0
  439.3277 0.09 1
  439.8825 0.01 0
  440.1111 0.02 0
  440.3728 0.04 0
  440.6473 0.03 0
  440.8997 0.01 0
  441.0543 0.02 0
  441.3262 0.06 1
  442.0342 0.01 0
  442.2738 0.06 1
  442.4532 0.04 0
  442.5789 0.01 0
  442.7243 0.01 0
  443.2810 0.17 2
  443.7885 0.03 0
  444.3351 0.13 1
  444.7279 0.02 0
  444.8766 0.02 0
  445.3085 0.15 1
  445.6716 0.02 0
  446.0874 0.03 0
  446.4198 0.04 0
  446.9020 0.03 0
  447.2285 0.06 1
  447.3637 0.08 1
  447.6963 0.01 0
  448.2312 0.08 1
  449.1710 0.05 0
  449.4330 0.03 0
  449.6193 0.02 0
  450.0956 0.01 0
  450.3355 0.02 0
  450.5976 0.03 0
  451.2714 0.08 1
  451.5215 0.01 0
  452.1605 0.04 0
  452.3017 0.02 0
  452.4591 0.03 0
  452.6761 0.02 0
  453.3024 0.04 0
  453.5219 0.02 0
  453.9866 0.01 0
  454.2862 0.07 1
  454.4811 0.05 0
  454.6760 0.01 0
  454.9917 0.03 0
  455.3228 0.09 1
  455.5322 0.01 0
  456.2030 0.06 1
  456.5009 0.04 0
  456.6431 0.01 0
  456.9104 0.03 0
  457.2566 0.06 1
  457.5448 0.05 0
  457.6629 0.01 0
  458.1143 0.02 0
  458.2946 0.04 0
  458.8310 0.01 0
  459.2688 0.04 0
  459.6837 0.01 0
  459.9252 0.01 0
  460.2883 0.07 1
  460.4439 0.02 0
  460.5612 0.02 0
  460.7253 0.02 0
  461.1777 0.04 0
  461.3895 0.05 0
  461.6404 0.02 0
  462.2569 0.02 0
  462.4262 0.02 0
  462.6686 0.02 0
  462.7825 0.02 0
  463.1168 0.04 0
  463.4094 0.02 0
  463.9189 0.02 0
  464.2473 0.03 0
  464.4293 0.01 0
  464.7832 0.01 0
  464.9167 0.02 0
  465.2315 0.07 1
  465.4067 0.04 0
  465.8500 0.01 0
  466.3843 0.05 0
  467.2828 0.06 1
  467.4990 0.03 0
  467.5875 0.01 0
  468.2453 0.11 1
  468.4759 0.02 0
  469.1823 0.08 1
  469.5253 0.01 0
  470.2785 0.18 2
  470.4879 0.05 0
  470.5833 0.02 0
  470.7943 0.02 0
  471.2779 0.21 2
  471.9129 0.03 0
  472.2969 0.14 1
  472.6953 0.02 0
  472.8681 0.02 0
  473.1414 0.04 0
  473.3279 0.06 1
  473.7170 0.01 0
  474.3412 0.01 0
  474.4663 0.02 0
  474.6418 0.02 0
  475.2200 0.12 1
  475.4133 0.03 0
  475.5623 0.02 0
  475.7684 0.01 0
  476.2121 0.20 2
  476.5264 0.02 0
  477.2129 0.04 0
  477.5409 0.01 0
  478.2308 0.05 0
  478.5315 0.02 0
  478.9898 0.01 0
  479.2710 0.06 1
  479.4329 0.04 0
  479.6169 0.01 0
  479.8673 0.02 0
  480.3223 0.06 1
  480.5328 0.03 0
  480.9085 0.02 0
  481.2834 0.10 1
  481.6797 0.01 0
  482.2702 0.12 1
  482.4364 0.07 1
  482.7227 0.01 0
  483.3022 0.20 2
  484.2031 0.18 2
  484.4247 0.08 1
  484.6626 0.02 0
  484.9737 0.05 0
  485.2891 0.05 0
  485.4902 0.01 0
  486.0759 0.03 0
  486.2003 0.03 0
  486.3751 0.03 0
  486.6488 0.02 0
  486.9702 0.01 0
  487.3453 0.03 0
  487.5431 0.01 0
  487.9745 0.02 0
  488.3480 0.02 0
  488.9790 0.02 0
  489.0694 0.01 0
  489.3167 0.06 1
  489.6484 0.01 0
  490.1942 0.06 1
  490.8415 0.01 0
  491.1212 0.03 0
  491.3737 0.06 1
  491.5118 0.03 0
  492.0594 0.05 0
  492.1925 0.02 0
  492.4458 0.01 0
  492.6173 0.01 0
  493.0395 0.01 0
  493.2289 0.03 0
  493.4618 0.03 0
  493.6648 0.02 0
  493.9966 0.03 0
  494.1340 0.02 0
  494.2995 0.05 0
  494.5102 0.02 0
  494.8686 0.02 0
  495.3054 0.15 1
  495.4402 0.08 1
  495.6347 0.02 0
  496.3232 0.76 8
  497.3374 0.32 3
  498.3610 0.41 4
  498.8307 0.02 0
  499.3225 0.04 0
  499.6873 0.01 0
  500.1826 0.02 0
  500.4213 0.01 0
  500.6975 0.02 0
  501.1426 0.02 0
  501.4026 0.04 0
  501.5526 0.01 0
  501.9457 0.01 0
  502.2441 0.03 0
  502.4385 0.02 0
  502.9663 0.02 0
  503.1104 0.04 0
  503.3065 0.02 0
  503.5163 0.05 0
  504.1815 0.06 1
  504.3742 0.04 0
  504.5806 0.02 0
  505.1912 0.05 0
  505.4223 0.05 0
  505.6790 0.02 0
  506.3272 0.09 1
  506.6531 0.02 0
  506.8117 0.02 0
  507.1478 0.04 0
  507.3525 0.04 0
  507.7278 0.03 0
  508.2679 0.03 0
  508.4496 0.03 0
  509.3018 0.07 1
  509.6234 0.03 0
  510.3452 0.10 1
  510.6046 0.04 0
  510.9041 0.04 0
  511.3470 0.20 2
  511.8009 0.04 0
  512.2250 0.09 1
  512.4640 0.03 0
  513.3063 0.04 0
  513.4573 0.02 0
  513.6741 0.02 0
  513.7714 0.01 0
  514.0129 0.02 0
  514.1828 0.03 0
  514.3612 0.03 0
  514.4866 0.01 0
  515.0414 0.02 0
  515.2864 0.01 0
  515.5203 0.01 0
  515.8592 0.02 0
  516.1434 0.03 0
  516.4200 0.02 0
  517.1721 0.05 0
  517.4385 0.03 0
  517.5810 0.01 0
  518.0890 0.07 1
  518.3452 0.07 1
  518.9667 0.05 0
  519.2237 0.03 0
  519.4781 0.02 0
  519.6387 0.03 0
  519.8957 0.01 0
  520.2330 0.03 0
  520.3705 0.01 0
  520.7923 0.01 0
  521.1552 0.04 0
  521.5079 0.02 0
  521.6198 0.01 0
  521.9623 0.03 0
  522.1271 0.02 0
  522.3243 0.02 0
  522.4875 0.03 0
  523.3160 0.04 0
  523.5286 0.03 0
  523.9386 0.01 0
  524.2103 0.06 1
  524.4853 0.03 0
  524.6476 0.01 0
  525.2524 0.04 0
  525.4412 0.02 0
  526.2643 0.04 0
  526.4886 0.05 0
  526.8954 0.01 0
  527.6844 0.02 0
  527.8396 0.02 0
  528.3028 0.04 0
  528.4563 0.03 0
  529.1882 0.01 0
  529.3537 0.01 0
  529.4791 0.02 0
  529.6788 0.01 0
  529.9057 0.02 0
  530.1070 0.02 0
  530.3484 0.01 0
  531.2750 0.03 0
  531.5292 0.03 0
  531.9183 0.02 0
  532.3091 0.04 0
  532.4559 0.03 0
  532.8032 0.02 0
  533.3638 0.08 1
  533.7103 0.02 0
  534.2470 0.17 2
  535.0211 0.02 0
  535.3198 0.08 1
  535.5656 0.04 0
  535.7507 0.01 0
  536.3184 0.09 1
  536.8799 0.01 0
  537.0780 0.02 0
  537.4510 0.04 0
  537.6243 0.01 0
  537.8975 0.02 0
  538.0630 0.01 0
  538.2585 0.04 0
  538.4557 0.04 0
  539.2991 0.05 0
  539.5544 0.05 0
  539.7806 0.02 0
  540.3424 0.05 0
  540.7206 0.02 0
  541.4490 0.05 0
  542.0560 0.02 0
  542.2542 0.05 0
  542.5078 0.02 0
  542.7136 0.02 0
  543.0919 0.01 0
  543.3224 0.03 0
  543.5786 0.01 0
  544.3395 0.04 0
  544.5214 0.02 0
  545.0159 0.01 0
  545.2379 0.03 0
  545.4830 0.02 0
  545.7393 0.01 0
  545.9443 0.02 0
  546.3713 0.09 1
  546.5926 0.04 0
  546.7292 0.02 0
  547.1597 0.04 0
  547.2998 0.05 0
  547.4706 0.05 0
  547.5629 0.02 0
  547.9089 0.01 0
  548.3394 0.09 1
  548.5923 0.05 0
  549.2108 0.06 1
  549.4884 0.07 1
  549.7977 0.01 0
  550.3163 0.12 1
  550.7076 0.03 0
  550.9879 0.04 0
  551.1733 0.03 0
  551.4236 0.11 1
  551.5868 0.05 0
  551.8141 0.03 0
  552.4191 0.24 2
  552.9651 0.06 1
  553.2924 0.03 0
  553.6086 0.03 0
  553.9615 0.01 0
  554.1521 0.04 0
  554.4580 0.06 1
  554.7571 0.03 0
  555.0879 0.03 0
  555.2993 0.04 0
  555.6037 0.05 0
  555.8740 0.04 0
  556.3505 0.05 0
  556.7120 0.02 0
  556.8885 0.02 0
  557.3336 0.05 0
  557.9356 0.01 0
  558.4139 0.06 1
  558.5870 0.02 0
  558.8054 0.03 0
  559.0185 0.02 0
  559.3622 0.09 1
  559.5797 0.04 0
  559.9574 0.01 0
  560.1987 0.02 0
  560.3872 0.03 0
  560.7036 0.03 0
  561.3262 0.07 1
  561.8788 0.02 0
  562.2328 0.13 1
  562.4196 0.07 1
  562.9348 0.02 0
  563.2103 0.03 0
  563.4559 0.05 0
  563.7963 0.04 0
  564.4062 0.08 1
  565.1049 0.04 0
  565.3071 0.05 0
  565.4990 0.06 1
  565.7327 0.01 0
  565.9605 0.02 0
  566.2122 0.03 0
  566.5219 0.03 0
  566.7932 0.02 0
  566.9314 0.02 0
  567.3051 0.03 0
  567.6984 0.03 0
  567.9706 0.02 0
  568.3298 0.05 0
  568.6874 0.03 0
  569.0944 0.01 0
  569.2787 0.03 0
  569.4476 0.04 0
  569.6149 0.03 0
  570.2984 0.05 0
  570.7379 0.04 0
  571.1313 0.02 0
  571.3805 0.03 0
  571.5836 0.01 0
  571.7705 0.01 0
  572.0325 0.03 0
  572.4985 0.07 1
  572.6453 0.03 0
  572.7947 0.02 0
  573.2155 0.05 0
  573.5287 0.04 0
  573.6995 0.03 0
  574.1262 0.03 0
  574.4301 0.03 0
  574.8560 0.05 0
  575.3989 0.08 1
  576.2859 0.15 1
  576.6649 0.10 1
  577.1191 0.12 1
  577.3027 0.10 1
  577.6177 0.09 1
  577.8627 0.06 1
  578.2734 0.07 1
  578.6285 0.05 0
  578.9061 0.04 0
  579.3483 0.06 1
  579.6899 0.04 0
  580.0331 0.01 0
  580.2346 0.05 0
  580.4532 0.07 1
  580.6804 0.05 0
  580.8682 0.02 0
  581.5787 0.07 1
  581.8708 0.06 1
  582.0484 0.03 0
  582.2491 0.02 0
  582.5352 0.07 1
  583.0006 0.11 1
  583.2577 0.08 1
  583.5762 0.07 1
  583.7334 0.06 1
  583.8572 0.06 1
  584.1570 0.06 1
  584.5029 0.06 1
  584.8805 0.04 0
  585.1154 0.03 0
  585.3929 0.06 1
  585.5886 0.07 1
  585.7372 0.05 0
  586.3846 0.09 1
  586.5333 0.04 0
  586.7930 0.05 0
  587.0031 0.06 1
  587.2073 0.08 1
  587.4644 0.08 1
  587.8420 0.15 1
  588.2170 0.15 1
  589.3174 0.24 2
  590.3367 0.37 4
  591.1279 0.22 2
  592.3626 0.22 2
  592.7138 0.18 2
  593.3709 0.18 2
  593.7145 0.11 1
  593.9554 0.12 1
  594.1785 0.09 1
  594.4169 0.14 1
  594.6110 0.08 1
  595.3776 0.10 1
  595.9434 0.10 1
  596.3578 0.07 1
  596.5408 0.05 0
  597.0416 0.07 1
  597.3784 0.07 1
  597.6810 0.08 1
  597.9426 0.03 0
  598.3802 0.12 1
  598.6939 0.04 0
  599.0204 0.02 0
  599.2914 0.02 0
  599.4761 0.03 0
  599.7958 0.01 0
  600.2087 0.04 0
  600.4583 0.08 1
  600.8533 0.04 0
  601.5133 0.06 1
  602.2084 0.07 1
  602.6599 0.06 1
  602.8685 0.05 0
  603.4035 0.17 2
  604.3629 0.33 3
  604.6624 0.11 1
  604.9526 0.04 0
  605.4144 0.06 1
  605.5859 0.03 0
  606.1578 0.05 0
  606.5522 0.04 0
  607.0610 0.04 0
  607.2018 0.06 1
  607.4332 0.06 1
  607.5860 0.06 1
  607.7567 0.03 0
  607.9514 0.03 0
  608.1093 0.03 0
  608.4380 0.04 0
  608.8264 0.03 0
  609.1082 0.03 0
  609.2533 0.03 0
  609.6691 0.09 1
  609.8945 0.03 0
  610.0806 0.05 0
  610.2846 0.05 0
  610.4861 0.08 1
  610.8011 0.09 1
  611.2119 0.07 1
  612.4423 4.72 47
  613.1152 0.09 1
  613.3013 0.12 1
  613.5156 0.11 1
  613.9572 0.10 1
  614.4200 0.08 1
  614.6557 0.08 1
  615.0178 0.03 0
  615.3953 0.10 1
  615.4901 0.04 0
  615.8590 0.03 0
  616.0785 0.05 0
  616.4697 0.06 1
  616.8284 0.03 0
  617.1281 0.07 1
  617.4433 0.11 1
  617.7021 0.14 1
  618.4384 0.88 9
  619.4471 0.88 9
  619.9230 0.04 0
  620.3851 0.09 1
  620.9267 0.03 0
  621.0420 0.02 0
  621.2684 0.02 0
  621.4059 0.05 0
  621.5870 0.04 0
  621.7391 0.04 0
  621.8818 0.01 0
  622.2859 0.03 0
  622.7455 0.02 0
  622.9172 0.01 0
  623.1018 0.02 0
  623.3632 0.07 1
  623.5981 0.04 0
  623.7280 0.01 0
  623.8562 0.01 0
  624.4030 0.22 2
  624.6653 0.13 1
  624.8755 0.04 0
  625.4608 0.20 2
  625.6958 0.08 1
  626.2581 0.02 0
  626.4930 0.02 0
  626.7075 0.02 0
  626.8716 0.03 0
  627.3236 0.03 0
  627.5450 0.01 0
  627.7800 0.02 0
  628.0338 0.01 0
  628.1979 0.01 0
  628.5431 0.04 0
  628.7346 0.03 0
  629.0217 0.02 0
  629.1567 0.02 0
  629.3353 0.03 0
  629.6548 0.02 0
  629.9399 0.01 0
  630.2762 0.04 0
  630.4759 0.05 0
  630.6586 0.04 0
  631.0461 0.03 0
  631.1964 0.02 0
  631.4661 0.08 1
  631.6744 0.05 0
  631.8101 0.05 0
  632.4247 0.53 5
  632.7944 0.04 0
  633.4064 0.55 5
  633.7206 0.18 2
  633.9511 0.02 0
  634.4907 0.13 1
  635.0952 0.02 0
  635.3129 0.02 0
  635.4255 0.01 0
  635.6920 0.02 0
  635.9540 0.02 0
  636.1505 0.01 0
  636.5714 0.03 0
  636.9009 0.03 0
  637.0768 0.02 0
  637.4978 0.04 0
  637.6746 0.02 0
  637.8735 0.02 0
  637.9913 0.01 0
  638.2082 0.02 0
  638.3918 0.01 0
  638.9520 0.01 0
  639.3892 0.03 0
  639.5992 0.02 0
  640.3525 0.02 0
  640.5754 0.03 0
  640.8298 0.02 0
  641.2355 0.02 0
  641.3909 0.03 0
  641.6420 0.03 0
  641.9666 0.01 0
  642.4397 0.08 1
  642.9385 0.01 0
  643.3254 0.05 0
  643.5159 0.03 0
  643.8285 0.02 0
  644.0334 0.03 0
  644.4272 0.07 1
  644.8441 0.02 0
  645.0892 0.04 0
  645.3420 0.04 0
  645.5760 0.05 0
  645.8349 0.03 0
  646.4576 0.33 3
  646.9402 0.01 0
  647.0735 0.02 0
  647.2239 0.03 0
  647.4759 0.07 1
  647.6613 0.03 0
  648.0816 0.02 0
  648.3721 0.04 0
  648.5685 0.04 0
  648.7163 0.02 0
  648.9214 0.02 0
  649.2392 0.02 0
  649.4263 0.04 0
  649.5980 0.02 0
  649.7945 0.01 0
  650.1038 0.02 0
  650.2661 0.04 0
  650.5216 0.02 0
  650.7283 0.02 0
  650.8745 0.01 0
  651.2589 0.01 0
  651.5905 0.03 0
  651.8767 0.01 0
  652.0741 0.05 0
  652.2407 0.02 0
  652.5406 0.02 0
  652.7004 0.02 0
  653.5549 0.03 0
  653.7548 0.03 0
  654.0317 0.01 0
  654.4479 0.03 0
  655.3375 0.06 1
  655.5303 0.03 0
  655.6941 0.04 0
  656.0950 0.03 0
  656.2921 0.04 0
  656.6418 0.03 0
  656.9156 0.03 0
  657.2492 0.05 0
  657.6348 0.07 1
  658.4538 0.42 4
  658.7610 0.14 1
  659.1653 0.05 0
  659.3795 0.03 0
  659.5860 0.03 0
  659.7984 0.02 0
  659.9366 0.02 0
  660.4665 0.19 2
  660.9127 0.04 0
  661.1678 0.04 0
  661.6047 0.05 0
  662.4426 0.13 1
  662.7490 0.04 0
  662.9009 0.01 0
  663.4146 0.04 0
  663.7994 0.02 0
  663.9420 0.02 0
  664.0921 0.01 0
  664.3712 0.03 0
  664.6724 0.04 0
  664.9020 0.02 0
  665.3441 0.06 1
  665.7776 0.03 0
  666.0046 0.05 0
  666.3732 0.02 0
  666.6677 0.03 0
  666.9221 0.06 1
  667.2506 0.01 0
  667.4938 0.03 0
  667.7798 0.02 0
  668.0802 0.04 0
  668.6128 0.13 1
  668.9116 0.05 0
  669.1010 0.02 0
  669.4919 0.05 0
  669.9153 0.06 1
  670.2994 0.04 0
  670.6844 0.03 0
  671.5244 0.22 2
  672.4949 1.18 12
  673.4979 1.17 12
  673.9277 0.13 1
  674.4419 0.47 5
  674.7873 0.09 1
  675.5489 0.25 2
  676.4853 0.18 2
  676.7139 0.11 1
  676.9987 0.13 1
  677.7049 0.13 1
  678.3813 0.13 1
  678.9417 0.15 1
  679.3229 0.18 2
  680.7022 0.26 3
  681.7071 0.28 3
  681.9391 0.22 2
  682.5414 0.36 4
  683.6768 0.28 3
  685.4411 0.51 5
  686.5349 3.09 31
  687.5153 0.83 8
  688.4701 0.84 8
  689.5213 2.73 27
  690.4685 0.43 4
  691.9867 0.32 3
  693.2241 0.33 3
  695.1171 0.41 4
  704.4872 99.97 999
  705.2479 20.76 207
  706.3055 7.41 74
  707.4646 3.21 32
  708.3448 1.85 18
  709.5978 1.01 10
  710.5933 0.57 6
  711.8378 0.36 4
  712.6260 0.24 2
//
