ACCESSION: MSBNK-Kyoto_Univ-CA000131
RECORD_TITLE: 3,4-Dihydrospheroidene; FAB-EBEB; MS2; m/z: 570.48; [M]*+
DATE: 2016.01.19 (Created 2007.03.15, modified 2011.05.10)
AUTHORS: Akimoto N, Graduate School of Pharmaceutical Sciences, Kyoto University and Maoka T, Research Institute for Production Development
LICENSE: CC BY-SA
COMMENT: Profile spectrum of this record is given as a JPEG file.
COMMENT: [Profile] CA000131.jpg
CH$NAME: 3,4-Dihydrospheroidene
CH$COMPOUND_CLASS: Natural Product; Carotenoid
CH$FORMULA: C41H62O
CH$EXACT_MASS: 570.48007
CH$SMILES: C(C)(=CC=CC(C)=CC=CC(=CC=CC=C(C=CC=C(CCC=C(C)CCC=C(C)C)C)C)C)CCCC(C)(C)OC
CH$IUPAC: InChI=1S/C41H62O/c1-34(2)20-14-23-37(5)26-17-29-38(6)27-15-24-35(3)21-12-13-22-36(4)25-16-28-39(7)30-18-31-40(8)32-19-33-41(9,10)42-11/h12-13,15-16,18,20-22,24-28,30-31H,14,17,19,23,29,32-33H2,1-11H3/b13-12+,24-15+,25-16+,30-18+,35-21+,36-22+,37-26+,38-27+,39-28+,40-31+
CH$LINK: CHEMSPIDER 17220935
CH$LINK: PUBCHEM CID:16061265
CH$LINK: INCHIKEY IUUXWKRRZDDNQG-JLKFYMEISA-N
AC$INSTRUMENT: JMS-HX/HX 110A, JEOL
AC$INSTRUMENT_TYPE: FAB-EBEB
AC$MASS_SPECTROMETRY: MS_TYPE MS2
AC$MASS_SPECTROMETRY: ION_MODE POSITIVE
AC$MASS_SPECTROMETRY: ATOM_GUN_CURRENT 5 mA
AC$MASS_SPECTROMETRY: BOMBARDMENT 6 kV xenon
AC$MASS_SPECTROMETRY: COLLISION_ENERGY 3 kV
AC$MASS_SPECTROMETRY: COLLISION_GAS Ar
AC$MASS_SPECTROMETRY: GAS_PRESSURE adjust to attenuate the intensity of the precursor ion by 30 %
AC$MASS_SPECTROMETRY: IONIZATION FAB
AC$MASS_SPECTROMETRY: MATRIX 1-2 uL m-NBA
AC$MASS_SPECTROMETRY: PROBE_TIP stainless-steel
MS$FOCUSED_ION: BASE_PEAK 570.4473
MS$FOCUSED_ION: PRECURSOR_M/Z 570.48
MS$FOCUSED_ION: PRECURSOR_TYPE [M]+*
PK$SPLASH: splash10-00xr-4910030000-ebc401f6320fa818fc90
PK$NUM_PEAK: 1775
PK$PEAK: m/z int. rel.int.
  2.2695 0.01 0
  12.9734 0.03 0
  13.9802 0.05 0
  14.9874 0.12 1
  23.9183 0.01 0
  24.9610 0.04 0
  25.9696 0.33 3
  26.9647 1.84 18
  27.9714 0.18 2
  28.9776 1.20 12
  30.9579 0.08 1
  32.8971 0.02 0
  35.9210 0.03 0
  36.7873 0.01 0
  36.9460 0.28 3
  37.5447 0.01 0
  37.9518 0.58 6
  38.5280 0.01 0
  38.6900 0.02 0
  38.9569 4.46 45
  39.1041 0.03 0
  39.3414 0.04 0
  39.5841 0.02 0
  39.6670 0.01 0
  39.8078 0.02 0
  39.9740 0.70 7
  40.4157 0.01 0
  40.5954 0.01 0
  40.9750 11.41 114
  41.9803 0.50 5
  42.7969 0.02 0
  42.9764 3.64 36
  43.2706 0.01 0
  44.9672 0.83 8
  47.8433 0.01 0
  47.9565 0.02 0
  48.9359 0.08 1
  49.1746 0.01 0
  49.7645 0.02 0
  49.9524 0.97 10
  50.6532 0.02 0
  50.9551 2.25 22
  51.0950 0.04 0
  51.9631 1.09 11
  52.9668 4.85 48
  53.3082 0.02 0
  53.9780 0.36 4
  54.9818 12.94 129
  55.9811 0.26 3
  56.9887 0.81 8
  57.9855 0.06 1
  58.9875 0.56 6
  59.9388 0.02 0
  60.9448 0.20 2
  61.0605 0.01 0
  61.5146 0.03 0
  61.9489 0.73 7
  62.1484 0.01 0
  62.5368 0.01 0
  62.6531 0.01 0
  62.9569 1.85 18
  63.1734 0.02 0
  63.2667 0.04 0
  63.4739 0.03 0
  63.6380 0.01 0
  63.7359 0.02 0
  63.9508 0.31 3
  64.4141 0.04 0
  64.9622 3.09 31
  65.4100 0.02 0
  65.9725 0.84 8
  66.2056 0.03 0
  66.3805 0.04 0
  66.6309 0.04 0
  66.9767 7.18 72
  67.1746 0.02 0
  67.5387 0.01 0
  67.9791 1.15 11
  68.2457 0.02 0
  68.4525 0.03 0
  68.9891 62.50 625
  69.2522 0.02 0
  69.5724 0.01 0
  69.7773 0.01 0
  69.9995 0.21 2
  70.2920 0.01 0
  70.7494 0.02 0
  70.9791 0.34 3
  71.6307 0.02 0
  71.9908 0.12 1
  72.2618 0.02 0
  72.9812 22.90 229
  73.2404 0.01 0
  73.3943 0.02 0
  73.5990 0.02 0
  73.9529 0.73 7
  74.9398 0.68 7
  75.0737 0.13 1
  75.3555 0.06 1
  75.5493 0.03 0
  75.9467 0.41 4
  76.1461 0.03 0
  76.3561 0.06 1
  76.9526 11.44 114
  77.2886 0.13 1
  77.4912 0.11 1
  77.7272 0.07 1
  77.9569 2.44 24
  78.2231 0.05 0
  78.4239 0.07 1
  78.6407 0.07 1
  78.9690 12.63 126
  79.3240 0.01 0
  79.5589 0.03 0
  79.9734 2.31 23
  80.2665 0.02 0
  80.3813 0.04 0
  80.5863 0.03 0
  80.9825 27.91 279
  81.2533 0.07 1
  81.4140 0.02 0
  81.7531 0.03 0
  81.9873 0.27 3
  82.4520 0.09 1
  82.9985 1.41 14
  83.2026 0.05 0
  83.4864 0.03 0
  83.7365 0.01 0
  83.8815 0.01 0
  84.4641 0.02 0
  84.9795 1.71 17
  85.4765 0.01 0
  85.9526 0.18 2
  86.9491 0.32 3
  87.4462 0.03 0
  87.9703 0.16 2
  88.0880 0.02 0
  88.3844 0.04 0
  88.5721 0.09 1
  88.9615 1.34 13
  89.1868 0.10 1
  89.4103 0.10 1
  89.6268 0.06 1
  89.9671 0.43 4
  90.0981 0.09 1
  90.2847 0.09 1
  90.5524 0.08 1
  90.9685 26.65 266
  91.2469 0.05 0
  91.4049 0.02 0
  91.6418 0.04 0
  91.9764 3.03 30
  92.2305 0.01 0
  92.4016 0.04 0
  92.5589 0.02 0
  92.9841 21.07 211
  93.2662 0.07 1
  93.3623 0.04 0
  93.4603 0.03 0
  94.0038 0.74 7
  94.1955 0.09 1
  94.3008 0.06 1
  94.6603 0.09 1
  95.0072 10.19 102
  95.2720 0.01 0
  95.3709 0.03 0
  95.4942 0.04 0
  95.9908 0.06 1
  96.1412 0.02 0
  96.3938 0.04 0
  96.9985 0.38 4
  97.4274 0.03 0
  97.9322 0.20 2
  98.0844 0.04 0
  98.6869 0.01 0
  98.9851 0.49 5
  99.6576 0.01 0
  99.9471 0.05 0
  100.3545 0.05 0
  100.5365 0.08 1
  100.6561 0.06 1
  100.9437 0.31 3
  101.1752 0.09 1
  101.3568 0.02 0
  101.5428 0.04 0
  101.7320 0.10 1
  101.9694 1.16 12
  102.1265 0.05 0
  102.2125 0.02 0
  102.3976 0.06 1
  102.5096 0.10 1
  102.6093 0.07 1
  102.9723 3.81 38
  103.2215 0.05 0
  103.4075 0.12 1
  103.6215 0.01 0
  103.9864 1.73 17
  104.2037 0.05 0
  104.3522 0.02 0
  104.5659 0.02 0
  104.9862 36.00 360
  105.3141 0.06 1
  105.4834 0.04 0
  105.6608 0.06 1
  105.9946 2.99 30
  106.2352 0.02 0
  106.5239 0.03 0
  107.0048 12.96 130
  107.2565 0.03 0
  107.3562 0.02 0
  107.4926 0.05 0
  107.5992 0.02 0
  107.7738 0.03 0
  108.0077 0.59 6
  108.2198 0.02 0
  109.0104 3.85 38
  109.2035 0.06 1
  109.3311 0.02 0
  109.6219 0.02 0
  109.8239 0.08 1
  109.9585 0.14 1
  110.2289 0.02 0
  110.4055 0.02 0
  110.5759 0.03 0
  111.0140 0.51 5
  112.0361 0.07 1
  112.3452 0.04 0
  112.5632 0.04 0
  112.9493 0.30 3
  113.0474 0.11 1
  113.3714 0.11 1
  113.7239 0.13 1
  113.9544 0.50 5
  114.1232 0.16 2
  114.2209 0.11 1
  114.3677 0.08 1
  114.5247 0.09 1
  114.9554 11.56 116
  115.2602 0.04 0
  115.4395 0.05 0
  115.6200 0.08 1
  115.9611 3.84 38
  116.1608 0.15 1
  116.9582 12.26 123
  117.3152 0.06 1
  117.4241 0.03 0
  117.5647 0.01 0
  117.9663 2.78 28
  118.1698 0.03 0
  118.3162 0.04 0
  118.4519 0.12 1
  118.5363 0.06 1
  118.6415 0.08 1
  118.9765 28.46 284
  119.3060 0.08 1
  119.3980 0.05 0
  119.5740 0.06 1
  119.9799 3.31 33
  120.2990 0.06 1
  120.4930 0.06 1
  120.9892 12.05 120
  121.2470 0.08 1
  121.4062 0.10 1
  121.9611 0.41 4
  122.1593 0.02 0
  122.3556 0.01 0
  122.4717 0.03 0
  122.6388 0.08 1
  123.0018 1.90 19
  123.3293 0.03 0
  123.5221 0.03 0
  123.6543 0.06 1
  123.7329 0.02 0
  123.9757 0.15 1
  124.1335 0.03 0
  124.9444 0.37 4
  125.1920 0.04 0
  125.3789 0.10 1
  125.4859 0.08 1
  125.6427 0.03 0
  125.9239 0.57 6
  126.0950 0.03 0
  126.3097 0.04 0
  126.4853 0.11 1
  126.9400 3.78 38
  127.2499 0.21 2
  127.5002 0.12 1
  127.9368 13.06 131
  128.3795 0.20 2
  128.5575 0.12 1
  128.9439 16.15 161
  129.3459 0.21 2
  129.4824 0.06 1
  129.9471 7.19 72
  130.1712 0.11 1
  130.2646 0.10 1
  130.9554 18.92 189
  131.3178 0.07 1
  131.9552 6.18 62
  132.5641 0.08 1
  132.9679 21.74 217
  133.1908 0.13 1
  133.3130 0.20 2
  133.4300 0.15 1
  133.6156 0.02 0
  133.9785 1.49 15
  134.1972 0.10 1
  134.3421 0.02 0
  134.5040 0.06 1
  134.6464 0.03 0
  134.9779 1.25 12
  135.3831 0.05 0
  135.4876 0.04 0
  135.6323 0.02 0
  135.7758 0.02 0
  135.9647 0.09 1
  136.0887 0.04 0
  136.3232 0.09 1
  136.4628 0.05 0
  136.9930 1.89 19
  137.2876 0.05 0
  137.3519 0.02 0
  137.5763 0.08 1
  137.9491 0.19 2
  138.2751 0.04 0
  138.4164 0.04 0
  138.4873 0.02 0
  138.9386 1.57 16
  139.1973 0.04 0
  139.4090 0.01 0
  139.9605 0.29 3
  140.2175 0.21 2
  140.9398 9.99 100
  141.4321 0.13 1
  141.9502 8.64 86
  142.2534 0.13 1
  142.4038 0.20 2
  142.5064 0.05 0
  142.9583 19.74 197
  143.2063 0.17 2
  143.3057 0.15 1
  143.4261 0.08 1
  143.9688 6.94 69
  144.9757 27.30 273
  145.2635 0.19 2
  145.3684 0.09 1
  145.9698 2.01 20
  146.2461 0.02 0
  146.9926 9.27 93
  147.2244 0.09 1
  147.5437 0.11 1
  147.6561 0.04 0
  147.9834 0.17 2
  148.2930 0.02 0
  148.3983 0.03 0
  148.5739 0.03 0
  148.7429 0.05 0
  149.0067 0.31 3
  149.1969 0.02 0
  149.4404 0.08 1
  149.6985 0.08 1
  149.9435 0.25 2
  150.1951 0.06 1
  150.5410 0.09 1
  150.9212 0.57 6
  151.1850 0.10 1
  151.3392 0.11 1
  151.9573 3.43 34
  152.2404 0.13 1
  152.4437 0.19 2
  152.5315 0.06 1
  152.9606 4.96 50
  153.2823 0.08 1
  153.4785 0.06 1
  153.9708 2.79 28
  154.2392 0.05 0
  154.3893 0.09 1
  154.9812 11.71 117
  155.3280 0.06 1
  155.5007 0.08 1
  155.9972 7.77 78
  156.2588 0.05 0
  156.3860 0.06 1
  156.6118 0.10 1
  157.0101 19.00 190
  157.4535 0.10 1
  157.5298 0.04 0
  158.0198 3.40 34
  158.3668 0.09 1
  158.5300 0.21 2
  159.0271 8.77 88
  159.3265 0.08 1
  159.4149 0.04 0
  159.5862 0.05 0
  160.0419 0.63 6
  160.4233 0.04 0
  161.0435 1.08 11
  161.2776 0.07 1
  161.5224 0.01 0
  161.9662 0.08 1
  162.4194 0.13 1
  162.9973 0.62 6
  163.2451 0.08 1
  163.5062 0.10 1
  164.0187 0.30 3
  164.2253 0.20 2
  165.0002 7.34 73
  165.5019 0.13 1
  166.0131 2.56 26
  166.3008 0.06 1
  166.4157 0.07 1
  166.5786 0.08 1
  167.0241 6.89 69
  167.3401 0.06 1
  168.0358 3.00 30
  168.4042 0.18 2
  169.0360 11.94 119
  169.5353 0.17 2
  170.0415 4.31 43
  170.4145 0.15 1
  170.5726 0.06 1
  171.0405 9.01 90
  171.3402 0.11 1
  171.4417 0.10 1
  171.6514 0.12 1
  172.0442 1.36 14
  172.5640 3.76 38
  173.0485 2.87 29
  173.3180 0.04 0
  173.4657 0.04 0
  173.6530 0.05 0
  174.0295 0.37 4
  174.3928 0.03 0
  174.5347 0.07 1
  174.8332 0.11 1
  175.0688 0.56 6
  175.4116 0.02 0
  175.5415 0.04 0
  175.6312 0.02 0
  175.9902 0.55 5
  176.3238 0.05 0
  176.5034 0.05 0
  177.0402 0.76 8
  177.3231 0.23 2
  177.6202 0.17 2
  177.9937 3.09 31
  178.2808 0.06 1
  179.0055 5.58 56
  179.2458 0.06 1
  179.3559 0.05 0
  179.5674 0.10 1
  180.0153 2.33 23
  180.4708 0.06 1
  181.0198 8.11 81
  181.4217 0.09 1
  182.0241 3.23 32
  182.3988 0.13 1
  183.0298 11.31 113
  183.4074 0.13 1
  183.5959 0.11 1
  184.0281 2.55 25
  184.3217 0.08 1
  185.0384 5.51 55
  185.4178 0.12 1
  185.5270 0.08 1
  185.7015 0.11 1
  186.0554 1.03 10
  186.3932 0.05 0
  186.5065 0.03 0
  187.0474 2.58 26
  187.3679 0.18 2
  187.6223 0.05 0
  188.0367 0.25 2
  188.4552 0.16 2
  188.6564 0.09 1
  188.9900 1.24 12
  189.3230 0.07 1
  189.5168 0.03 0
  189.9979 0.69 7
  190.2426 0.08 1
  190.3561 0.08 1
  190.5812 0.16 2
  190.9929 2.48 25
  191.2701 0.05 0
  191.3959 0.03 0
  192.0000 2.11 21
  192.2591 0.14 1
  192.3782 0.12 1
  192.6374 0.20 2
  193.0096 5.27 53
  193.6115 0.07 1
  194.0097 3.02 30
  194.3525 0.15 1
  194.4778 0.09 1
  195.0232 9.37 94
  195.3967 0.05 0
  196.0359 2.91 29
  196.3133 0.17 2
  196.4286 0.11 1
  196.5602 0.04 0
  197.0411 9.30 93
  197.3281 0.11 1
  197.5554 0.03 0
  198.0481 2.12 21
  198.4364 0.13 1
  199.0564 4.46 45
  199.5767 0.17 2
  200.0298 0.55 5
  200.2493 0.05 0
  200.3383 0.03 0
  200.5524 0.12 1
  200.7428 0.14 1
  201.0575 0.73 7
  201.3227 0.04 0
  201.6185 0.09 1
  201.9939 1.24 12
  202.3047 0.01 0
  202.4245 0.03 0
  202.6381 0.09 1
  203.0144 1.70 17
  203.5058 0.11 1
  203.9967 0.80 8
  204.3739 0.06 1
  204.4829 0.05 0
  205.0087 2.14 21
  205.3364 0.05 0
  206.0246 1.84 18
  206.2966 0.10 1
  207.0199 4.80 48
  207.5055 0.07 1
  207.6296 0.02 0
  208.0389 2.29 23
  208.3084 0.09 1
  208.5431 0.13 1
  209.0509 7.44 74
  209.4229 0.10 1
  210.0504 1.70 17
  210.6104 0.16 2
  211.0606 5.32 53
  212.0145 1.11 11
  212.4206 0.07 1
  213.0585 1.38 14
  213.6104 0.09 1
  213.8006 0.15 1
  214.0626 0.20 2
  214.2925 0.02 0
  214.5395 0.13 1
  214.6442 0.04 0
  215.0254 1.63 16
  215.5846 0.12 1
  216.0208 1.10 11
  216.3700 0.03 0
  216.6042 0.10 1
  217.0235 1.56 16
  218.0547 1.00 10
  218.3268 0.07 1
  218.6133 0.08 1
  219.0452 2.53 25
  219.3538 0.03 0
  219.5047 0.10 1
  219.6109 0.02 0
  220.0691 1.24 12
  220.4183 0.04 0
  221.0626 3.74 37
  221.3179 0.19 2
  221.4236 0.07 1
  222.0887 1.23 12
  222.4430 0.03 0
  223.0768 3.58 36
  223.3660 0.05 0
  223.5288 0.09 1
  223.7315 0.11 1
  224.0826 0.85 8
  224.3911 0.14 1
  224.5485 0.05 0
  225.0997 1.53 15
  225.4936 0.08 1
  225.8490 0.04 0
  226.1028 0.48 5
  226.5333 0.14 1
  226.8242 0.09 1
  227.1097 0.49 5
  227.4393 0.06 1
  227.6388 0.09 1
  227.8150 0.07 1
  228.0717 0.46 5
  228.2602 0.13 1
  228.8185 0.12 1
  229.0808 0.86 9
  229.3960 0.06 1
  229.7243 0.05 0
  230.0752 0.61 6
  230.3170 0.06 1
  230.4462 0.07 1
  230.6165 0.07 1
  230.7203 0.07 1
  231.0845 1.58 16
  231.2982 0.10 1
  231.4528 0.02 0
  231.6665 0.02 0
  232.0927 0.99 10
  232.3333 0.09 1
  232.4963 0.04 0
  233.0773 2.47 25
  233.4218 0.01 0
  233.6736 0.07 1
  234.0911 0.80 8
  234.4482 0.05 0
  234.7028 0.10 1
  235.0943 2.68 27
  235.5651 0.07 1
  235.6752 0.06 1
  236.0896 0.50 5
  236.3127 0.10 1
  236.4718 0.06 1
  236.7045 0.02 0
  237.1039 1.97 20
  237.5075 0.04 0
  237.7231 0.05 0
  238.1406 0.39 4
  238.4417 0.05 0
  238.7125 0.10 1
  239.0936 1.08 11
  239.4603 0.04 0
  239.6313 0.03 0
  240.0449 0.28 3
  240.3876 0.02 0
  240.5262 0.06 1
  240.6406 0.05 0
  240.7682 0.08 1
  241.1020 0.58 6
  241.4613 0.06 1
  241.6207 0.05 0
  242.0505 0.39 4
  242.3913 0.02 0
  243.0655 0.96 10
  243.3078 0.06 1
  243.4873 0.06 1
  244.0761 0.56 6
  244.5947 0.08 1
  245.0863 1.11 11
  245.3371 0.10 1
  246.0534 0.48 5
  246.4099 0.02 0
  246.5571 0.02 0
  247.0816 1.73 17
  247.4078 0.04 0
  247.7790 0.04 0
  248.1005 0.54 5
  248.5174 0.05 0
  248.6626 0.03 0
  249.1093 2.29 23
  249.3341 0.09 1
  249.6169 0.04 0
  250.0783 0.33 3
  250.3357 0.05 0
  250.5675 0.07 1
  251.1086 0.98 10
  251.3909 0.03 0
  251.6422 0.08 1
  252.1218 0.42 4
  252.3164 0.08 1
  252.4576 0.10 1
  252.8772 0.09 1
  253.1590 1.22 12
  253.4852 0.05 0
  253.8405 0.09 1
  254.1161 0.13 1
  254.3281 0.06 1
  254.4154 0.02 0
  254.5775 0.02 0
  255.0858 0.38 4
  255.6176 0.07 1
  256.0776 0.25 2
  256.2362 0.10 1
  256.5223 0.01 0
  256.8147 0.11 1
  257.1085 0.50 5
  257.3538 0.09 1
  257.5936 0.03 0
  257.8583 0.05 0
  258.1384 0.34 3
  258.3851 0.06 1
  258.6063 0.02 0
  259.1006 0.71 7
  259.5693 0.06 1
  260.1380 0.44 4
  260.7123 0.06 1
  261.1029 1.62 16
  261.3777 0.04 0
  261.4776 0.04 0
  261.6073 0.05 0
  261.8467 0.04 0
  262.1229 0.64 6
  262.4928 0.03 0
  262.6073 0.02 0
  262.7698 0.05 0
  263.1300 1.57 16
  263.4626 0.03 0
  263.6382 0.05 0
  264.1312 0.69 7
  264.3839 0.06 1
  264.5159 0.02 0
  265.1403 1.12 11
  265.3903 0.03 0
  265.6668 0.07 1
  265.9238 0.07 1
  266.1601 0.33 3
  266.4206 0.06 1
  266.5811 0.02 0
  267.1273 0.47 5
  267.2628 0.24 2
  267.4394 0.01 0
  267.6375 0.04 0
  267.7487 0.06 1
  267.8446 0.02 0
  268.1588 0.23 2
  268.6190 0.03 0
  268.8638 0.07 1
  269.1343 0.48 5
  269.6447 0.03 0
  269.7887 0.07 1
  270.0551 0.10 1
  270.3215 0.05 0
  270.6755 0.03 0
  271.1354 0.50 5
  271.6050 0.06 1
  271.7581 0.05 0
  272.1346 0.24 2
  272.2856 0.02 0
  273.1248 0.71 7
  274.1430 0.29 3
  274.4030 0.04 0
  274.5456 0.08 1
  274.7055 0.02 0
  275.1296 0.76 8
  275.5468 0.05 0
  276.1339 0.30 3
  276.7140 0.02 0
  277.1453 0.87 9
  277.4792 0.09 1
  277.7680 0.04 0
  278.1737 0.49 5
  278.5321 0.08 1
  278.9789 0.08 1
  279.2114 0.37 4
  279.5859 0.03 0
  279.8219 0.04 0
  280.0148 0.08 1
  280.2062 0.18 2
  280.4367 0.01 0
  280.6115 0.02 0
  280.8489 0.03 0
  281.1575 0.31 3
  281.7759 0.03 0
  282.0943 0.05 0
  282.2977 0.02 0
  282.5025 0.02 0
  282.8592 0.09 1
  283.1616 0.28 3
  283.8793 0.02 0
  284.1330 0.11 1
  284.5916 0.02 0
  285.1284 0.29 3
  285.4818 0.05 0
  285.5892 0.03 0
  285.9378 0.03 0
  286.1372 0.13 1
  287.1149 0.38 4
  287.2642 0.25 2
  287.4664 0.04 0
  287.7496 0.02 0
  287.9338 0.10 1
  288.2107 0.22 2
  288.5009 0.01 0
  289.1408 0.52 5
  289.2879 0.29 3
  289.6893 0.01 0
  290.1827 0.32 3
  290.3688 0.04 0
  290.6553 0.03 0
  291.1642 0.51 5
  291.5497 0.04 0
  291.7917 0.06 1
  291.8956 0.03 0
  292.0225 0.03 0
  292.2149 0.10 1
  292.3370 0.03 0
  292.7456 0.03 0
  293.0888 0.19 2
  293.2415 0.18 2
  293.4375 0.07 1
  293.6266 0.04 0
  294.0535 0.03 0
  294.2921 0.03 0
  294.7595 0.04 0
  294.9688 0.11 1
  295.1384 0.14 1
  295.2424 0.05 0
  295.6087 0.05 0
  295.8125 0.03 0
  296.0526 0.08 1
  296.2418 0.04 0
  296.3123 0.02 0
  296.6194 0.07 1
  296.9593 0.03 0
  297.1597 0.15 1
  297.6588 0.02 0
  298.0778 0.06 1
  298.5505 0.01 0
  298.7956 0.02 0
  299.1308 0.22 2
  299.3732 0.02 0
  299.6176 0.05 0
  299.7538 0.05 0
  300.2163 0.08 1
  300.4846 0.01 0
  300.6277 0.01 0
  300.7780 0.03 0
  301.1455 0.68 7
  301.4676 0.02 0
  301.6555 0.04 0
  302.1622 0.24 2
  302.2747 0.13 1
  302.5054 0.05 0
  302.7640 0.02 0
  303.1561 0.39 4
  303.7664 0.03 0
  303.9419 0.05 0
  304.0992 0.15 1
  304.2858 0.06 1
  304.8138 0.02 0
  305.1529 0.22 2
  305.3487 0.06 1
  306.0998 0.07 1
  306.3817 0.03 0
  306.5391 0.05 0
  306.9644 0.05 0
  307.2121 0.17 2
  307.4380 0.06 1
  307.5927 0.03 0
  307.8411 0.05 0
  308.1042 0.05 0
  308.2427 0.07 1
  308.9558 0.04 0
  309.1056 0.17 2
  309.2007 0.10 1
  309.8720 0.01 0
  310.1037 0.03 0
  310.2493 0.06 1
  310.3676 0.06 1
  310.4593 0.03 0
  311.1608 0.13 1
  311.2630 0.08 1
  311.3933 0.02 0
  311.9135 0.04 0
  312.1089 0.09 1
  312.2259 0.07 1
  313.1728 0.21 2
  313.2687 0.11 1
  313.3843 0.03 0
  313.6281 0.01 0
  314.1892 0.30 3
  314.3966 0.05 0
  314.9690 0.20 2
  315.1960 0.34 3
  316.0881 0.13 1
  316.6481 0.02 0
  317.1360 0.43 4
  317.3883 0.09 1
  317.7220 0.03 0
  317.8847 0.03 0
  318.1714 0.14 1
  318.4365 0.04 0
  318.5578 0.02 0
  318.7303 0.05 0
  318.8214 0.04 0
  319.1026 0.29 3
  319.2912 0.12 1
  319.4203 0.03 0
  319.5142 0.03 0
  319.6889 0.01 0
  320.0508 0.07 1
  320.2955 0.05 0
  321.1317 0.12 1
  321.2783 0.12 1
  321.4221 0.04 0
  321.5568 0.07 1
  322.1967 0.11 1
  322.4212 0.03 0
  322.5215 0.05 0
  322.6036 0.03 0
  322.8197 0.01 0
  323.0043 0.04 0
  323.2211 0.24 2
  323.3805 0.08 1
  323.7257 0.06 1
  324.0198 0.06 1
  324.1946 0.06 1
  324.3251 0.04 0
  325.1352 0.05 0
  325.2897 0.03 0
  325.4525 0.05 0
  325.7699 0.03 0
  325.9496 0.05 0
  326.2178 0.13 1
  326.3969 0.03 0
  326.8702 0.02 0
  327.1981 0.13 1
  327.5535 0.01 0
  327.7895 0.06 1
  328.0121 0.06 1
  328.1940 0.02 0
  328.3521 0.08 1
  328.7279 0.05 0
  328.9330 0.07 1
  329.2281 0.37 4
  329.3665 0.20 2
  329.6068 0.05 0
  329.7866 0.05 0
  329.9594 0.11 1
  330.2546 0.22 2
  330.5251 0.07 1
  330.7275 0.06 1
  330.9067 0.03 0
  331.2335 0.48 5
  331.4492 0.06 1
  331.6720 0.07 1
  331.8695 0.07 1
  332.2233 0.99 10
  332.6829 0.04 0
  332.9587 0.03 0
  333.1559 0.22 2
  333.3117 0.16 2
  333.5321 0.06 1
  333.8086 0.05 0
  334.2094 0.05 0
  334.7625 0.04 0
  335.3459 0.19 2
  336.1189 0.08 1
  336.2952 0.06 1
  336.4707 0.01 0
  336.6561 0.02 0
  336.9061 0.02 0
  337.0543 0.12 1
  337.2748 0.25 2
  338.4653 0.01 0
  339.0750 0.02 0
  339.2190 0.02 0
  339.3532 0.06 1
  339.7396 0.03 0
  340.2293 0.07 1
  340.3530 0.08 1
  340.4970 0.04 0
  340.9243 0.07 1
  341.1491 0.20 2
  341.2918 0.11 1
  341.5687 0.02 0
  342.1063 0.11 1
  342.1956 0.04 0
  342.3305 0.07 1
  343.1775 0.19 2
  343.3498 0.10 1
  343.6872 0.02 0
  344.1997 0.26 3
  344.3980 0.09 1
  344.4992 0.09 1
  344.6666 0.07 1
  344.8234 0.10 1
  345.2199 1.30 13
  345.7157 0.02 0
  345.9668 0.06 1
  346.2600 0.27 3
  346.5442 0.04 0
  346.9993 0.02 0
  347.2504 0.14 1
  347.5240 0.02 0
  347.6724 0.05 0
  347.8434 0.07 1
  347.9566 0.06 1
  348.2507 0.11 1
  348.3246 0.06 1
  348.5842 0.05 0
  349.0703 0.12 1
  349.2962 0.07 1
  349.7008 0.07 1
  350.1216 0.06 1
  351.1083 0.07 1
  351.2948 0.05 0
  351.8241 0.02 0
  352.2493 0.10 1
  352.3901 0.08 1
  352.6759 0.06 1
  352.8160 0.02 0
  353.0370 0.03 0
  353.2834 0.04 0
  354.2361 0.20 2
  354.4396 0.11 1
  354.7107 0.03 0
  354.9692 0.04 0
  355.3706 0.14 1
  355.6903 0.02 0
  355.9397 0.05 0
  356.1475 0.01 0
  356.4898 0.04 0
  356.9603 0.06 1
  357.2527 0.09 1
  357.4781 0.02 0
  357.6141 0.04 0
  357.7867 0.02 0
  358.0241 0.05 0
  358.3038 0.12 1
  358.6047 0.08 1
  359.0027 0.04 0
  359.1735 0.28 3
  359.3436 0.34 3
  359.7499 0.03 0
  359.9130 0.03 0
  360.0325 0.11 1
  360.2681 0.32 3
  360.7855 0.05 0
  361.1715 0.12 1
  361.3290 0.06 1
  361.4612 0.02 0
  361.8276 0.05 0
  362.3212 0.01 0
  362.7861 0.02 0
  362.9331 0.06 1
  363.0829 0.07 1
  363.3382 0.13 1
  363.5429 0.13 1
  363.6582 0.06 1
  363.7609 0.06 1
  363.8721 0.02 0
  364.1105 0.10 1
  364.2948 0.11 1
  364.4369 0.03 0
  364.6951 0.05 0
  365.0827 0.11 1
  365.3092 0.19 2
  365.4739 0.06 1
  366.0846 0.02 0
  366.3569 0.05 0
  366.6918 0.02 0
  367.1809 0.18 2
  367.3737 0.13 1
  367.5074 0.04 0
  367.7678 0.05 0
  368.3076 0.08 1
  368.4238 0.05 0
  368.5702 0.04 0
  368.6729 0.06 1
  368.7475 0.03 0
  369.0206 0.04 0
  369.3895 0.06 1
  369.7274 0.08 1
  370.1660 0.18 2
  370.5609 0.23 2
  370.8559 0.17 2
  371.2431 0.49 5
  371.6832 0.39 4
  371.9543 0.34 3
  372.1945 0.43 4
  372.4008 0.18 2
  372.5951 0.14 1
  372.7275 0.12 1
  372.8663 0.04 0
  373.0311 0.07 1
  373.2303 0.09 1
  373.3873 0.10 1
  373.6055 0.04 0
  374.1849 0.07 1
  374.3567 0.06 1
  374.7672 0.05 0
  375.0227 0.03 0
  375.1227 0.01 0
  375.4001 0.08 1
  375.6445 0.08 1
  375.9649 0.06 1
  376.2282 0.10 1
  376.4008 0.05 0
  376.6585 0.02 0
  377.2593 0.14 1
  377.3572 0.05 0
  377.5079 0.04 0
  378.1812 0.16 2
  378.4384 0.02 0
  378.9821 0.02 0
  379.1569 0.03 0
  379.4654 0.05 0
  379.5584 0.03 0
  379.6690 0.01 0
  379.8719 0.07 1
  380.0100 0.08 1
  380.2390 0.11 1
  380.6617 0.04 0
  380.7935 0.06 1
  381.3678 0.01 0
  382.7582 0.04 0
  383.2614 0.05 0
  383.3629 0.02 0
  383.6540 0.01 0
  383.8591 0.02 0
  384.3505 0.12 1
  384.4668 0.10 1
  384.5930 0.05 0
  384.7847 0.06 1
  385.0589 0.08 1
  385.2761 0.19 2
  385.4424 0.08 1
  385.5496 0.07 1
  385.7992 0.03 0
  386.0918 0.07 1
  386.1651 0.02 0
  386.3513 0.02 0
  386.6016 0.03 0
  386.7165 0.01 0
  387.2665 0.21 2
  387.7834 0.06 1
  388.0655 0.14 1
  388.1988 0.19 2
  388.2877 0.06 1
  388.4548 0.07 1
  388.6897 0.08 1
  388.8928 0.04 0
  389.1220 0.07 1
  389.3378 0.11 1
  389.5417 0.05 0
  389.6461 0.04 0
  389.7857 0.02 0
  389.9402 0.03 0
  390.2407 0.06 1
  390.4820 0.01 0
  390.6104 0.01 0
  391.1451 0.04 0
  391.2664 0.07 1
  391.3680 0.03 0
  391.6249 0.01 0
  392.1907 0.07 1
  392.4892 0.02 0
  392.8928 0.05 0
  393.0770 0.12 1
  393.1729 0.03 0
  393.3882 0.02 0
  393.6803 0.08 1
  393.8285 0.02 0
  393.9746 0.04 0
  394.4743 0.02 0
  395.2655 0.04 0
  396.1167 0.02 0
  396.2240 0.05 0
  396.7323 0.04 0
  396.9052 0.05 0
  396.9970 0.03 0
  397.2300 0.07 1
  397.4926 0.11 1
  397.6720 0.09 1
  397.8428 0.03 0
  398.1563 0.05 0
  398.2912 0.05 0
  398.5665 0.03 0
  398.8920 0.04 0
  399.2338 0.10 1
  399.3757 0.11 1
  399.4760 0.08 1
  399.8927 0.02 0
  400.2564 0.35 3
  400.3680 0.20 2
  400.6420 0.06 1
  400.8546 0.14 1
  401.2981 0.77 8
  401.6096 0.04 0
  402.3110 1.26 13
  402.5703 0.18 2
  402.8140 0.09 1
  403.2696 0.27 3
  403.4088 0.16 2
  403.5861 0.07 1
  403.6900 0.03 0
  403.8327 0.05 0
  403.9570 0.07 1
  404.3824 0.06 1
  404.6042 0.03 0
  405.3696 0.10 1
  405.4804 0.03 0
  406.3723 0.03 0
  407.2975 0.01 0
  407.8056 0.06 1
  407.9319 0.02 0
  408.3427 0.03 0
  408.4662 0.04 0
  408.8015 0.06 1
  409.2709 0.03 0
  410.3467 0.04 0
  410.6411 0.04 0
  411.2468 0.09 1
  411.3732 0.02 0
  411.8406 0.02 0
  411.9804 0.05 0
  412.2911 0.17 2
  412.5015 0.10 1
  412.8765 0.04 0
  413.1942 0.20 2
  413.4223 0.15 1
  413.7599 0.04 0
  413.8743 0.03 0
  414.0162 0.11 1
  414.3446 0.20 2
  414.6631 0.01 0
  414.9662 0.03 0
  415.2409 0.17 2
  415.6725 0.05 0
  416.2905 0.08 1
  416.4586 0.04 0
  416.7730 0.12 1
  417.0435 0.05 0
  417.3028 0.21 2
  417.4830 0.12 1
  417.6363 0.12 1
  417.8256 0.04 0
  418.3068 0.61 6
  418.7441 0.04 0
  418.9610 0.03 0
  419.1426 0.08 1
  419.2974 0.14 1
  419.4712 0.15 1
  419.8075 0.04 0
  420.2103 0.09 1
  420.3912 0.11 1
  420.5714 0.06 1
  420.8477 0.01 0
  421.1064 0.02 0
  421.4605 0.04 0
  421.6414 0.06 1
  421.9250 0.01 0
  422.1909 0.03 0
  422.3151 0.07 1
  422.4709 0.03 0
  422.7192 0.05 0
  423.1360 0.09 1
  423.2891 0.01 0
  423.8802 0.01 0
  424.0241 0.01 0
  424.3500 0.01 0
  424.4798 0.02 0
  424.8029 0.05 0
  425.2360 0.09 1
  425.4279 0.10 1
  425.7256 0.02 0
  425.9986 0.01 0
  426.1468 0.04 0
  426.3126 0.11 1
  426.5320 0.05 0
  426.7952 0.04 0
  426.9159 0.01 0
  427.1995 0.19 2
  427.4034 0.11 1
  427.9891 0.02 0
  428.2333 0.09 1
  428.3800 0.09 1
  428.7632 0.06 1
  428.8952 0.03 0
  429.0349 0.06 1
  429.3010 0.09 1
  429.3963 0.03 0
  429.6172 0.05 0
  429.9058 0.11 1
  430.1486 0.09 1
  430.4387 0.06 1
  430.5940 0.07 1
  430.7980 0.09 1
  430.9991 0.08 1
  431.1827 0.12 1
  431.3789 0.27 3
  431.6888 0.09 1
  432.3135 1.44 14
  433.3181 9.37 94
  433.6457 0.42 4
  433.8723 0.17 2
  434.1837 0.11 1
  434.4831 0.15 1
  434.6660 0.08 1
  434.7740 0.07 1
  434.9957 0.01 0
  435.2895 0.12 1
  435.3799 0.07 1
  435.4745 0.04 0
  435.6044 0.02 0
  435.7598 0.06 1
  436.0684 0.07 1
  436.2110 0.04 0
  436.3431 0.05 0
  436.5027 0.04 0
  436.7244 0.02 0
  436.9935 0.01 0
  437.2562 0.13 1
  437.4059 0.05 0
  437.6355 0.07 1
  438.0508 0.08 1
  438.1228 0.03 0
  438.2578 0.04 0
  438.4301 0.07 1
  438.5975 0.04 0
  439.1576 0.05 0
  439.2615 0.04 0
  439.4487 0.12 1
  439.6486 0.04 0
  439.9163 0.01 0
  440.1028 0.03 0
  440.3762 0.04 0
  440.8304 0.07 1
  441.4133 0.06 1
  441.5702 0.03 0
  441.6804 0.01 0
  441.9898 0.03 0
  442.5912 0.03 0
  443.1840 0.07 1
  443.5097 0.06 1
  443.7599 0.03 0
  444.1592 0.03 0
  444.2927 0.05 0
  444.3917 0.02 0
  444.9846 0.02 0
  445.2327 0.02 0
  445.5444 0.04 0
  445.7797 0.10 1
  445.9932 0.02 0
  446.2865 0.31 3
  446.4547 0.29 3
  446.5714 0.04 0
  446.7686 0.03 0
  446.9530 0.08 1
  447.3114 0.25 2
  447.5666 0.03 0
  447.8607 0.02 0
  448.0424 0.03 0
  448.3046 0.06 1
  448.4481 0.05 0
  448.6489 0.02 0
  449.4315 0.08 1
  449.8176 0.03 0
  449.9936 0.02 0
  450.4193 0.02 0
  450.6045 0.03 0
  451.0401 0.03 0
  451.2996 0.08 1
  451.3865 0.04 0
  451.8752 0.05 0
  452.0187 0.07 1
  452.2988 0.06 1
  452.4635 0.10 1
  452.5555 0.05 0
  452.9077 0.08 1
  453.0187 0.03 0
  453.1007 0.01 0
  453.2931 0.06 1
  453.4352 0.05 0
  453.7959 0.02 0
  453.9522 0.06 1
  454.0916 0.08 1
  454.2514 0.04 0
  454.4396 0.06 1
  454.9623 0.04 0
  455.3428 0.20 2
  455.5699 0.13 1
  455.7573 0.05 0
  455.8818 0.03 0
  456.0254 0.08 1
  456.2758 0.13 1
  456.6456 0.09 1
  456.7974 0.04 0
  457.0474 0.05 0
  457.3037 0.05 0
  457.5649 0.12 1
  457.9547 0.11 1
  458.2040 0.03 0
  458.5387 0.10 1
  458.8622 0.03 0
  458.9900 0.03 0
  459.3353 0.13 1
  459.6510 0.05 0
  459.9511 0.09 1
  460.0881 0.09 1
  460.2831 0.11 1
  460.4829 0.10 1
  460.9675 0.05 0
  461.3560 0.04 0
  461.4859 0.03 0
  461.9620 0.11 1
  462.1570 0.04 0
  462.4515 0.05 0
  462.9177 0.03 0
  463.1113 0.06 1
  463.2462 0.05 0
  463.4398 0.09 1
  463.8311 0.07 1
  464.3928 0.32 3
  464.8004 0.04 0
  464.9764 0.01 0
  465.1643 0.07 1
  465.5621 0.08 1
  466.2008 0.05 0
  466.3669 0.04 0
  466.5782 0.03 0
  466.9428 0.09 1
  467.2898 0.17 2
  467.5131 0.09 1
  467.6975 0.06 1
  467.8388 0.04 0
  468.1201 0.03 0
  468.3286 0.14 1
  468.5173 0.04 0
  468.6763 0.04 0
  468.7993 0.14 1
  469.3731 2.81 28
  469.9789 0.05 0
  470.1732 0.03 0
  470.3520 0.10 1
  470.5280 0.10 1
  470.6312 0.06 1
  470.7408 0.04 0
  470.9458 0.07 1
  471.1260 0.11 1
  471.3324 0.12 1
  471.6378 0.06 1
  471.9206 0.07 1
  472.1496 0.22 2
  472.3475 0.23 2
  472.5179 0.12 1
  472.8403 0.09 1
  473.0545 0.03 0
  473.2192 0.06 1
  473.5041 0.05 0
  473.8406 0.04 0
  474.0174 0.11 1
  474.1666 0.03 0
  474.5328 0.11 1
  474.7852 0.07 1
  474.9323 0.02 0
  475.0786 0.08 1
  475.2787 0.06 1
  475.5962 0.01 0
  475.8699 0.08 1
  476.2708 0.52 5
  476.5027 0.63 6
  476.8924 0.02 0
  477.0119 0.10 1
  477.1385 0.11 1
  477.3294 0.15 1
  477.4242 0.10 1
  477.6582 0.04 0
  477.8739 0.07 1
  478.4079 3.50 35
  478.9235 0.13 1
  479.0883 0.04 0
  479.2990 0.03 0
  479.4051 0.06 1
  479.5282 0.07 1
  479.6251 0.06 1
  479.7673 0.04 0
  479.8988 0.06 1
  479.9752 0.03 0
  480.1315 0.03 0
  480.2596 0.03 0
  480.4449 0.03 0
  480.6677 0.05 0
  480.8389 0.03 0
  481.3093 0.27 3
  481.5632 0.21 2
  481.6439 0.10 1
  481.8377 0.04 0
  482.3499 0.67 7
  482.7736 0.04 0
  483.3686 0.36 4
  483.5412 0.10 1
  483.6841 0.08 1
  484.0626 0.05 0
  484.3552 0.10 1
  484.4641 0.04 0
  484.6189 0.08 1
  485.1751 0.09 1
  485.2776 0.02 0
  485.5865 0.06 1
  485.9950 0.03 0
  486.3287 0.24 2
  486.6439 0.13 1
  486.9705 0.05 0
  487.1041 0.10 1
  487.3091 0.11 1
  487.4625 0.10 1
  487.7644 0.04 0
  488.1970 0.02 0
  488.4183 0.05 0
  488.5484 0.04 0
  489.0199 0.05 0
  489.3798 0.09 1
  489.4781 0.07 1
  489.6393 0.04 0
  490.1759 0.02 0
  490.3725 0.11 1
  490.5061 0.04 0
  490.6058 0.01 0
  491.0605 0.05 0
  491.4140 1.12 11
  491.5851 0.54 5
  491.7881 0.07 1
  491.9111 0.04 0
  491.9981 0.02 0
  492.2138 0.08 1
  493.2654 0.06 1
  493.3877 0.01 0
  494.3078 0.03 0
  494.4655 0.05 0
  494.7357 0.03 0
  495.0709 0.07 1
  495.2881 0.10 1
  495.6629 0.04 0
  496.3370 0.44 4
  496.7048 0.04 0
  496.9878 0.08 1
  497.4179 0.26 3
  497.6223 0.07 1
  497.8621 0.04 0
  498.1635 0.04 0
  498.2703 0.02 0
  498.5476 0.07 1
  498.7733 0.06 1
  499.3060 0.04 0
  499.4886 0.15 1
  499.6768 0.12 1
  499.8515 0.08 1
  500.3694 1.01 10
  500.7147 0.09 1
  500.8265 0.05 0
  501.2871 0.27 3
  501.4527 0.15 1
  501.9041 0.04 0
  502.0244 0.03 0
  502.3817 0.23 2
  502.6443 0.02 0
  502.7568 0.03 0
  502.9337 0.04 0
  504.3377 0.01 0
  506.0151 0.03 0
  507.5921 0.06 1
  507.8115 0.04 0
  507.9042 0.05 0
  508.2228 0.08 1
  508.4337 0.02 0
  508.8188 0.11 1
  508.9979 0.03 0
  509.1395 0.09 1
  509.3413 0.04 0
  509.4779 0.02 0
  509.7384 0.07 1
  509.9204 0.08 1
  510.6305 0.03 0
  510.9434 0.02 0
  511.2281 0.05 0
  511.3369 0.03 0
  511.8688 0.01 0
  512.2001 0.03 0
  512.3549 0.04 0
  512.5081 0.02 0
  512.6339 0.07 1
  512.7589 0.05 0
  513.2881 0.05 0
  514.0928 0.08 1
  514.2602 0.14 1
  514.4467 0.24 2
  514.6368 0.03 0
  515.0840 0.04 0
  515.4762 0.21 2
  516.2937 0.10 1
  516.5156 0.09 1
  516.7849 0.04 0
  517.0286 0.05 0
  517.4441 0.06 1
  517.5593 0.05 0
  518.0554 0.05 0
  518.3890 0.02 0
  518.9600 0.03 0
  519.3720 0.07 1
  519.4667 0.09 1
  519.9671 0.04 0
  520.0688 0.03 0
  520.5820 0.04 0
  520.8131 0.08 1
  520.9651 0.07 1
  521.9857 0.13 1
  522.3455 0.03 0
  522.6318 0.08 1
  522.8177 0.04 0
  523.1789 0.06 1
  523.3740 0.16 2
  523.5627 0.20 2
  523.8095 0.04 0
  524.0442 0.03 0
  524.3970 0.14 1
  524.5807 0.18 2
  524.6635 0.04 0
  524.9215 0.08 1
  525.1703 0.10 1
  525.4016 0.12 1
  525.7310 0.07 1
  525.9254 0.05 0
  526.2379 0.09 1
  526.3468 0.04 0
  526.6056 0.12 1
  526.8283 0.05 0
  527.0206 0.12 1
  527.1988 0.14 1
  527.4625 0.11 1
  527.6605 0.06 1
  527.8599 0.09 1
  528.0303 0.12 1
  528.1923 0.04 0
  528.4397 0.12 1
  528.6299 0.14 1
  528.8145 0.10 1
  529.0005 0.13 1
  529.1851 0.15 1
  529.3066 0.07 1
  529.4326 0.03 0
  529.5916 0.06 1
  529.7698 0.04 0
  529.9092 0.13 1
  530.0845 0.03 0
  530.2394 0.03 0
  530.4572 0.14 1
  530.7054 0.18 2
  530.8851 0.09 1
  531.0463 0.01 0
  531.2408 0.14 1
  531.3348 0.06 1
  531.4926 0.13 1
  531.6234 0.08 1
  531.8610 0.13 1
  531.9820 0.09 1
  532.2486 0.18 2
  532.3660 0.12 1
  532.5160 0.07 1
  532.7444 0.10 1
  532.9361 0.12 1
  533.1356 0.16 2
  533.4177 0.01 0
  533.6710 0.10 1
  533.9836 0.12 1
  534.2382 0.14 1
  534.4016 0.11 1
  534.5021 0.07 1
  534.6245 0.06 1
  534.8062 0.04 0
  534.8982 0.05 0
  535.1840 0.15 1
  535.2858 0.09 1
  535.4563 0.07 1
  535.6537 0.07 1
  535.8567 0.04 0
  535.9444 0.02 0
  536.2740 0.11 1
  536.4092 0.09 1
  536.6426 0.12 1
  536.7410 0.10 1
  536.9532 0.10 1
  537.1258 0.07 1
  537.3890 0.28 3
  537.7307 0.11 1
  538.4551 2.17 22
  538.8959 0.10 1
  539.4372 0.80 8
  539.8716 0.12 1
  540.4172 2.83 28
  540.8806 0.10 1
  541.0787 0.14 1
  541.3200 0.04 0
  541.3979 0.02 0
  541.5804 0.06 1
  541.8033 0.08 1
  542.1083 0.15 1
  542.3036 0.08 1
  542.6022 0.05 0
  542.9058 0.05 0
  543.3495 0.03 0
  543.6581 0.01 0
  543.9136 0.03 0
  544.0969 0.04 0
  544.2051 0.07 1
  545.0303 0.02 0
  545.1946 0.08 1
  545.3942 0.03 0
  545.7820 0.02 0
  545.8973 0.03 0
  546.0347 0.03 0
  546.5096 0.07 1
  547.2585 0.05 0
  547.6082 0.01 0
  547.7709 0.09 1
  547.9904 0.02 0
  548.1921 0.04 0
  548.3974 0.03 0
  548.5920 0.11 1
  548.9792 0.05 0
  549.0784 0.02 0
  549.2525 0.15 1
  549.5789 0.17 2
  549.7877 0.07 1
  549.9703 0.12 1
  550.1516 0.08 1
  550.3880 0.11 1
  550.6663 0.25 2
  550.9303 0.14 1
  551.2623 0.22 2
  551.9165 0.21 2
  552.4235 0.28 3
  552.8051 0.25 2
  553.2745 0.21 2
  553.7432 0.30 3
  554.4109 0.99 10
  554.6581 0.32 3
  555.4391 1.14 11
  555.6417 0.85 8
  555.9164 0.27 3
  556.0591 0.26 3
  556.5252 0.40 4
  557.0365 0.36 4
  557.3042 0.24 2
  557.8028 0.35 3
  558.2266 0.40 4
  558.4434 0.40 4
  558.7972 0.31 3
  559.8157 0.52 5
  560.5045 0.44 4
  560.9353 0.41 4
  561.3358 0.40 4
  561.5287 0.36 4
  561.9313 0.60 6
  562.1482 0.48 5
  562.8878 0.50 5
  563.4177 0.74 7
  564.2322 0.85 8
  570.4473 99.97 999
  571.1774 24.91 249
  571.8212 12.65 126
  572.4919 6.44 64
  573.2248 3.40 34
  573.7393 2.45 24
  574.1415 1.39 14
  574.9784 0.81 8
  575.5099 0.50 5
  575.9778 0.28 3
  576.1687 0.30 3
  576.3914 0.27 3
  576.7562 0.17 2
  576.9633 0.20 2
  577.1640 0.10 1
  577.4277 0.18 2
  577.7415 0.12 1
  578.0198 0.14 1
  578.2036 0.13 1
  578.4840 0.13 1
  578.7589 0.19 2
  579.0740 0.11 1
  579.3679 0.07 1
  579.5976 0.20 2
  579.8434 0.08 1
  579.9678 0.04 0
  580.1656 0.05 0
  580.3176 0.04 0
  580.5670 0.10 1
  580.8094 0.06 1
  580.9401 0.02 0
  581.1493 0.04 0
  581.3337 0.06 1
  581.5945 0.08 1
//
