ACCESSION: MSBNK-Kyoto_Univ-CA000017
RECORD_TITLE: 3'-Deoxycapsanthin; FAB-EBEB; MS2; m/z: 568.00; [M]+*
DATE: 2016.01.19 (Created 2010.04.01, modified 2011.05.10)
AUTHORS: Akimoto N, Graduate School of Pharmaceutical Sciences, Kyoto University and Maoka T, Research Institute for Production Development
LICENSE: CC BY-SA
PUBLICATION: Takashi Maoka, Naoshige Akimoto, Yasuhiro Fujiwara, and Keiji Hashimoto, Structure of New Carotenoids with the 6-Oxo-? End Group from the Fruits of Paprika, Capsicum annuum, J. Nat. Prod., 67, 115-117 (2004).
COMMENT: Profile spectrum of this record is given as a JPEG file.
COMMENT: [Profile] CA000017.jpg
CH$NAME: 3'-Deoxycapsanthin
CH$COMPOUND_CLASS: N/A
CH$FORMULA: C40H56O2
CH$EXACT_MASS: 568.42803
CH$SMILES: C(=CC=C(C)C=CC(=C(C)2)C(C)(C)CC(C2)O)C(C)=CC=CC=C(C=CC=C(C=CC(=O)C(C1)(C)C(CC1)(C)C)C)C
CH$IUPAC: InChI=1S/C40H56O2/c1-30(18-13-20-32(3)22-24-36-34(5)28-35(41)29-38(36,6)7)16-11-12-17-31(2)19-14-21-33(4)23-25-37(42)40(10)27-15-26-39(40,8)9/h11-14,16-25,35,41H,15,26-29H2,1-10H3/b12-11+,18-13+,19-14+,24-22+,25-23+,30-16+,31-17+,32-20+,33-21+/t35-,40+/m1/s1
CH$LINK: CAS 7044-42-0
CH$LINK: NIKKAJI J1.998.453B
CH$LINK: INCHIKEY ZPLDHICCJOHBSS-WCODUNAQSA-N
AC$INSTRUMENT: JMS-HX/HX 110A, JEOL
AC$INSTRUMENT_TYPE: FAB-EBEB
AC$MASS_SPECTROMETRY: MS_TYPE MS2
AC$MASS_SPECTROMETRY: ION_MODE POSITIVE
AC$MASS_SPECTROMETRY: ATOM_GUN_CURRENT 5 mA
AC$MASS_SPECTROMETRY: BOMBARDMENT 6 kV xenon
AC$MASS_SPECTROMETRY: COLLISION_ENERGY 3 kV
AC$MASS_SPECTROMETRY: COLLISION_GAS Ar
AC$MASS_SPECTROMETRY: GAS_PRESSURE adjust to attenuate the intensity of the precursor ion by 30 %
AC$MASS_SPECTROMETRY: IONIZATION FAB
AC$MASS_SPECTROMETRY: MATRIX 1-2 uL m-NBA
AC$MASS_SPECTROMETRY: PROBE_TIP stainless-steel
MS$FOCUSED_ION: BASE_PEAK 111.0224
MS$FOCUSED_ION: PRECURSOR_M/Z 568.00
MS$FOCUSED_ION: PRECURSOR_TYPE [M]+*
MS$DATA_PROCESSING: RELATIVE_M/Z normalised by peak(m/z=111.0224).  set 999 for peak(m/z=568.3665,rel=2095).
PK$SPLASH: splash10-014i-3920020000-ce98a5edb9cae46d4505
PK$NUM_PEAK: 1547
PK$PEAK: m/z int. rel.int.
  0.0056 0.02 0
  0.1304 0.01 0
  0.3641 0.01 0
  1.1307 0.01 0
  1.5184 0.15 3
  3.3107 0.04 1
  7.7405 0.02 0
  8.6130 0.02 0
  12.6924 0.14 3
  12.9691 0.02 0
  13.9723 0.07 1
  14.9748 0.03 1
  22.9226 0.06 1
  25.2672 0.01 0
  25.6945 0.01 0
  25.9562 0.23 5
  26.9580 1.05 22
  27.9561 0.10 2
  28.6272 0.02 0
  28.9686 1.75 37
  30.9600 0.06 1
  36.9090 0.23 5
  37.9484 0.52 11
  38.6646 0.06 1
  38.9462 3.49 73
  39.8262 0.04 1
  39.9554 0.41 9
  40.9671 9.28 195
  41.9518 0.18 4
  42.1765 0.01 0
  42.9643 6.01 126
  43.9557 0.04 1
  44.6122 0.03 1
  44.9557 0.30 6
  47.9847 0.03 1
  48.9168 0.12 3
  49.7143 0.07 1
  49.9463 1.06 22
  50.2000 0.01 0
  50.9439 2.66 56
  51.9566 1.16 24
  52.0899 0.08 2
  52.9593 4.80 101
  53.9306 0.15 3
  54.9744 23.56 494
  55.9785 0.43 9
  56.9904 5.26 110
  57.1521 0.01 0
  57.9796 0.10 2
  58.9691 0.52 11
  60.2230 0.01 0
  60.9621 0.12 3
  61.9379 0.72 15
  62.5979 0.03 1
  62.9441 2.62 55
  63.3074 0.01 0
  63.9439 0.74 16
  64.9583 4.57 96
  65.2726 0.04 1
  65.6657 0.05 1
  65.9590 0.68 14
  66.2689 0.05 1
  66.7062 0.11 2
  66.9714 7.80 163
  67.9843 0.35 7
  68.2563 0.05 1
  68.9817 38.93 816
  69.4087 0.01 0
  69.9918 0.16 3
  70.9712 1.48 31
  71.2530 0.01 0
  72.2861 0.02 0
  73.9223 0.79 17
  74.4230 0.08 2
  74.9256 0.77 16
  75.0455 0.23 5
  75.1301 0.09 2
  75.4100 0.01 0
  75.7366 0.07 1
  75.9351 0.79 17
  76.4204 0.12 3
  76.9472 13.19 276
  77.1942 0.21 4
  77.3219 0.01 0
  77.4433 0.06 1
  77.6522 0.12 3
  77.9506 3.69 77
  78.4207 0.04 1
  78.6466 0.09 2
  78.9641 13.09 274
  79.1482 0.07 1
  79.2215 0.04 1
  79.3804 0.08 2
  79.9747 2.12 44
  80.2128 0.05 1
  80.5164 0.08 2
  80.6507 0.04 1
  80.9806 11.52 241
  81.3538 0.17 4
  81.9851 0.47 10
  82.0690 0.09 2
  82.9894 5.31 111
  83.6656 0.01 0
  83.9727 0.20 4
  84.7435 0.03 1
  84.9716 5.30 111
  85.9456 0.32 7
  86.7873 0.03 1
  86.9340 0.92 19
  87.9350 0.27 6
  88.5037 0.21 4
  88.7327 0.10 2
  88.9420 1.74 36
  89.2134 0.08 2
  89.4043 0.15 3
  89.7230 0.11 2
  89.9527 0.51 11
  90.0516 0.12 3
  90.3376 0.02 0
  90.4402 0.07 1
  90.6250 0.02 0
  90.9585 26.25 550
  91.2015 0.03 1
  91.4006 0.08 2
  91.9612 2.46 52
  92.2666 0.03 1
  92.9770 15.61 327
  93.1586 0.12 3
  93.3281 0.12 3
  93.4934 0.04 1
  93.9695 0.87 18
  94.3253 0.07 1
  94.9916 10.81 227
  95.3457 0.04 1
  95.5922 0.07 1
  96.0006 0.83 17
  96.9891 2.84 60
  97.1556 0.06 1
  97.9158 0.30 6
  98.0146 0.13 3
  98.9690 0.26 5
  99.2401 0.01 0
  99.9296 0.10 2
  100.3120 0.03 1
  100.5184 0.13 3
  100.7712 0.02 0
  100.9574 0.44 9
  101.0795 0.10 2
  101.2103 0.02 0
  101.3418 0.05 1
  101.4628 0.07 1
  101.7160 0.03 1
  101.9544 1.33 28
  102.3142 0.03 1
  102.6488 0.07 1
  102.9595 5.87 123
  103.1422 0.16 3
  103.2766 0.22 5
  103.4476 0.06 1
  103.5852 0.03 1
  103.9765 2.39 50
  104.2842 0.13 3
  104.4065 0.06 1
  104.5679 0.12 3
  104.6809 0.08 2
  104.9841 31.22 654
  105.3719 0.04 1
  105.9941 2.93 61
  106.3067 0.09 2
  106.9993 14.32 300
  107.2320 0.10 2
  107.4617 0.06 1
  107.7681 0.07 1
  107.9781 1.08 23
  108.1514 0.07 1
  108.6864 0.10 2
  109.0034 10.27 215
  109.9943 0.63 13
  110.5072 0.06 1
  111.0224 47.66 999
  111.2642 0.23 5
  111.6164 0.02 0
  112.0008 0.27 6
  112.1087 0.10 2
  112.2035 0.06 1
  112.7201 0.17 4
  112.9582 0.35 7
  113.1636 0.19 4
  113.2742 0.28 6
  113.5861 0.03 1
  113.7974 0.18 4
  113.9604 0.42 9
  114.0724 0.14 3
  114.2908 0.08 2
  114.4400 0.12 3
  114.9471 15.85 332
  115.1286 0.28 6
  115.3026 0.15 3
  115.5290 0.03 1
  115.6349 0.05 1
  115.9536 5.11 107
  116.1852 0.20 4
  116.5882 0.32 7
  116.9610 13.22 277
  117.2315 0.04 1
  117.4390 0.08 2
  117.9635 3.05 64
  118.1307 0.16 3
  118.2845 0.06 1
  118.5176 0.19 4
  118.6766 0.08 2
  118.9726 29.44 617
  119.4425 0.11 2
  119.6252 0.04 1
  119.9635 3.18 67
  120.2759 0.07 1
  120.3838 0.01 0
  120.5153 0.01 0
  120.9678 13.56 284
  121.2520 0.06 1
  121.6318 0.06 1
  121.9519 1.30 27
  122.1180 0.08 2
  122.4823 0.10 2
  122.8079 0.16 3
  122.9832 3.28 69
  123.9904 0.23 5
  124.9535 0.79 17
  125.2885 0.08 2
  125.5469 0.20 4
  125.9173 0.47 10
  126.1208 0.07 1
  126.3756 0.10 2
  126.5216 0.08 2
  126.6183 0.11 2
  126.9303 4.33 91
  127.1449 0.13 3
  127.4187 0.22 5
  127.9298 16.91 354
  128.2128 0.37 8
  128.3764 0.10 2
  128.9357 18.73 393
  129.2801 0.11 2
  129.4086 0.07 1
  129.5089 0.10 2
  129.6098 0.04 1
  129.9480 7.18 150
  130.2040 0.14 3
  130.3372 0.20 4
  130.9519 19.21 403
  131.3667 0.14 3
  131.5484 0.01 0
  131.6870 0.08 2
  131.9590 3.72 78
  132.1492 0.08 2
  132.3736 0.24 5
  132.5258 0.12 3
  132.6239 0.18 4
  132.9653 14.48 304
  133.3158 0.18 4
  133.4127 0.13 3
  133.5063 0.08 2
  133.7931 0.04 1
  133.9779 1.53 32
  134.1589 0.06 1
  134.3858 0.18 4
  134.5752 0.10 2
  134.9594 8.05 169
  135.4717 0.06 1
  135.7199 0.09 2
  135.9552 0.75 16
  136.7108 0.10 2
  136.9711 1.87 39
  137.0853 0.27 6
  137.2586 0.06 1
  137.3839 0.16 3
  137.5307 0.07 1
  137.6859 0.14 3
  137.9770 0.29 6
  138.5184 0.05 1
  138.9326 2.83 59
  139.9465 0.52 11
  140.0754 0.37 8
  140.1803 0.17 4
  140.3125 0.30 6
  140.4056 0.22 5
  140.9308 13.83 290
  141.2718 0.06 1
  141.5985 0.10 2
  141.9436 12.77 268
  142.1851 0.03 1
  142.4631 0.07 1
  142.5943 0.14 3
  142.9522 22.01 461
  143.2860 0.12 3
  143.5356 0.11 2
  143.9618 6.81 143
  144.2482 0.23 5
  144.5341 0.21 4
  144.9653 25.60 537
  145.1610 0.23 5
  145.3345 0.11 2
  145.4654 0.11 2
  145.9501 2.50 52
  146.1505 0.05 1
  146.4723 0.20 4
  146.6342 0.11 2
  146.7286 0.17 4
  146.9699 7.94 166
  147.1797 0.11 2
  147.3687 0.07 1
  147.9717 1.31 27
  148.1214 0.11 2
  148.3807 0.09 2
  148.5206 0.10 2
  148.7412 0.23 5
  148.9928 3.45 72
  149.6487 0.08 2
  149.9630 0.58 12
  150.3984 0.05 1
  150.4938 0.06 1
  150.5951 0.07 1
  150.9617 1.35 28
  151.2836 0.11 2
  151.4186 0.23 5
  151.9428 4.93 103
  152.3138 0.07 1
  152.4785 0.26 5
  152.9532 8.12 170
  153.1774 0.17 4
  153.2592 0.10 2
  153.5191 0.13 3
  153.9645 4.10 86
  154.6636 0.06 1
  154.9720 11.98 251
  155.2284 0.26 5
  155.3969 0.21 4
  155.6400 0.14 3
  155.9838 8.29 174
  156.3647 0.13 3
  156.5432 0.22 5
  156.9938 21.59 453
  157.3187 0.22 5
  157.4948 0.13 3
  157.9953 4.98 104
  158.2364 0.08 2
  158.3404 0.04 1
  158.4802 0.04 1
  158.9898 25.38 532
  159.3033 0.21 4
  159.5042 0.11 2
  160.0116 1.84 39
  160.4236 0.17 4
  160.5517 0.02 0
  161.0004 4.18 88
  161.3662 0.14 3
  161.5017 0.20 4
  161.6784 0.06 1
  161.8770 0.24 5
  162.0026 0.43 9
  162.2923 0.06 1
  162.5588 0.36 8
  162.7050 0.11 2
  163.0116 1.64 34
  163.2323 0.09 2
  163.3594 0.15 3
  163.6986 0.10 2
  164.0054 0.85 18
  164.2070 0.19 4
  164.3528 0.10 2
  164.5125 0.22 5
  164.5984 0.14 3
  164.9826 11.88 249
  165.3090 0.14 3
  165.4149 0.05 1
  165.5515 0.08 2
  165.7347 0.25 5
  165.9966 3.36 70
  166.2519 0.07 1
  166.4812 0.15 3
  166.7620 0.28 6
  167.0101 8.78 184
  167.3923 0.08 2
  167.4583 0.04 1
  167.6877 0.13 3
  168.0142 3.94 83
  168.3155 0.08 2
  169.0129 14.38 301
  169.2552 0.11 2
  169.4563 0.09 2
  170.0271 5.01 105
  170.3482 0.09 2
  170.5601 0.10 2
  171.0226 9.27 194
  171.1979 0.31 6
  171.4620 0.22 5
  171.5560 0.17 4
  172.0022 2.77 58
  172.2850 0.09 2
  172.5212 0.22 5
  172.6627 0.06 1
  173.0305 6.46 135
  173.3142 0.09 2
  173.6047 0.08 2
  173.7810 0.05 1
  174.0034 0.58 12
  174.3228 0.18 4
  174.5513 0.01 0
  175.0452 3.77 79
  175.4136 0.14 3
  175.5078 0.05 1
  175.6710 0.20 4
  176.0021 0.97 20
  176.3105 0.23 5
  176.4282 0.13 3
  176.5667 0.04 1
  177.0178 1.68 35
  177.1778 0.30 6
  177.3070 0.04 1
  177.4516 0.10 2
  177.6793 0.21 4
  177.9813 5.43 114
  178.2968 0.19 4
  178.4275 0.04 1
  178.5333 0.10 2
  178.6231 0.11 2
  178.9843 7.98 167
  179.2846 0.10 2
  179.4703 0.16 3
  179.6218 0.11 2
  179.9967 4.13 87
  180.3113 0.16 3
  180.4508 0.05 1
  180.6145 0.15 3
  180.9943 10.85 227
  181.2594 0.22 5
  181.6300 0.09 2
  181.9986 3.54 74
  182.2813 0.11 2
  183.0062 10.96 230
  183.3671 0.19 4
  183.7374 0.05 1
  184.0191 2.90 61
  184.3271 0.05 1
  184.4300 0.21 4
  185.0078 5.99 126
  185.3409 0.08 2
  185.5380 0.10 2
  185.7231 0.11 2
  186.0119 1.34 28
  186.2509 0.11 2
  186.3970 0.07 1
  186.6428 0.04 1
  187.0280 2.98 62
  187.2456 0.18 4
  187.3312 0.08 2
  187.4605 0.10 2
  187.7853 0.09 2
  188.0482 0.43 9
  188.3131 0.24 5
  188.4364 0.08 2
  188.6259 0.17 4
  188.9698 2.97 62
  189.2206 0.13 3
  189.4351 0.23 5
  189.6861 0.13 3
  189.9789 1.24 26
  190.1490 0.09 2
  190.2927 0.17 4
  190.4142 0.41 9
  190.5971 0.24 5
  190.9873 3.80 80
  191.9780 3.70 78
  192.3131 0.06 1
  192.3922 0.02 0
  192.5591 0.21 4
  192.6909 0.20 4
  192.9902 7.86 165
  193.3790 0.07 1
  193.4952 0.03 1
  193.6656 0.19 4
  194.0051 4.64 97
  194.2594 0.21 4
  194.4245 0.08 2
  194.9941 10.60 222
  195.3494 0.18 4
  195.4455 0.11 2
  195.6851 0.14 3
  196.0107 4.17 87
  196.3154 0.16 3
  197.0124 9.03 189
  197.2806 0.15 3
  197.4222 0.12 3
  197.6770 0.11 2
  198.0199 1.59 33
  198.5459 0.20 4
  199.0090 3.19 67
  199.2417 0.16 3
  199.5801 0.14 3
  200.0598 0.38 8
  200.3033 0.12 3
  200.4187 0.08 2
  200.6834 0.13 3
  201.0350 2.09 44
  201.3649 0.11 2
  201.4613 0.11 2
  201.9740 2.29 48
  202.1839 0.08 2
  202.5473 0.20 4
  202.9897 3.46 73
  203.2431 0.10 2
  203.5653 0.19 4
  203.9956 1.79 38
  204.2907 0.17 4
  204.4341 0.14 3
  204.5899 0.19 4
  204.7279 0.13 3
  205.0163 5.50 115
  205.4238 0.12 3
  206.0042 3.16 66
  206.1689 0.13 3
  206.3479 0.11 2
  206.5521 0.13 3
  206.7087 0.19 4
  207.0150 7.67 161
  207.3405 0.13 3
  207.5108 0.20 4
  208.0141 3.15 66
  208.3901 0.10 2
  208.6089 0.25 5
  209.0164 6.63 139
  209.3033 0.14 3
  209.4546 0.19 4
  209.6066 0.19 4
  210.0137 1.53 32
  210.5258 0.32 7
  210.6485 0.13 3
  211.0339 4.44 93
  211.3409 0.11 2
  211.4357 0.08 2
  211.6650 0.27 6
  212.0226 0.49 10
  212.4942 0.08 2
  213.0179 1.66 35
  213.3429 0.11 2
  213.6413 0.03 1
  214.0211 0.69 14
  214.2090 0.20 4
  214.4494 0.14 3
  214.5772 0.08 2
  214.9961 2.18 46
  215.2818 0.05 1
  215.7418 0.12 3
  216.0023 1.18 25
  216.2320 0.06 1
  216.4474 0.11 2
  216.7100 0.19 4
  217.0226 3.62 76
  217.3783 0.12 3
  217.5883 0.07 1
  218.0317 1.15 24
  218.3643 0.08 2
  218.5272 0.03 1
  218.6723 0.10 2
  219.0214 3.86 81
  219.3110 0.12 3
  219.4904 0.31 6
  219.6315 0.07 1
  219.7438 0.15 3
  220.0259 2.10 44
  220.2814 0.26 5
  220.3965 0.10 2
  221.0480 4.76 100
  221.2878 0.17 4
  221.4619 0.08 2
  221.7045 0.19 4
  222.0486 1.47 31
  222.2392 0.06 1
  222.3619 0.13 3
  223.0489 3.38 71
  223.2725 0.17 4
  223.4295 0.03 1
  223.7155 0.12 3
  224.0531 1.03 22
  224.2170 0.12 3
  224.3556 0.11 2
  224.6815 0.10 2
  224.8346 0.05 1
  225.0638 2.34 49
  225.4262 0.07 1
  225.5765 0.07 1
  226.0200 0.70 15
  226.6305 0.14 3
  227.0412 0.93 19
  227.5468 0.06 1
  227.8257 0.18 4
  228.0635 0.87 18
  228.2779 0.19 4
  228.6198 0.80 17
  229.0360 1.56 33
  229.2753 0.10 2
  229.4961 0.06 1
  229.7265 0.06 1
  230.0517 0.83 17
  230.2753 0.11 2
  231.0609 3.34 70
  231.4747 0.04 1
  231.7300 0.12 3
  232.0553 1.36 29
  232.3505 0.12 3
  232.4487 0.10 2
  232.7542 0.11 2
  233.0488 2.74 57
  233.3421 0.11 2
  233.4547 0.15 3
  233.8923 0.11 2
  234.0846 1.13 24
  234.2715 0.05 1
  234.4556 0.11 2
  234.5882 0.03 1
  234.7208 0.21 4
  235.0658 3.02 63
  235.2836 0.24 5
  235.3785 0.12 3
  235.6534 0.05 1
  235.7572 0.03 1
  236.0659 1.00 21
  236.3636 0.16 3
  236.7067 0.13 3
  237.0657 1.93 40
  237.3428 0.19 4
  237.4880 0.10 2
  237.6558 0.11 2
  237.7824 0.06 1
  237.9262 0.43 9
  238.0720 0.44 9
  238.4704 0.19 4
  238.5860 0.08 2
  238.6789 0.11 2
  239.0663 1.18 25
  239.4834 0.07 1
  239.6059 0.03 1
  239.8317 0.13 3
  240.0390 0.33 7
  240.5437 0.04 1
  241.0305 0.99 21
  241.4148 0.11 2
  241.5416 0.02 0
  241.7028 0.05 1
  242.0376 0.91 19
  242.3690 0.10 2
  242.5027 0.13 3
  242.5964 0.12 3
  243.0333 1.34 28
  243.2449 0.07 1
  243.4096 0.10 2
  243.5895 0.05 1
  243.8266 0.10 2
  244.0479 0.98 21
  244.2410 0.11 2
  244.5499 0.17 4
  244.6726 0.12 3
  245.0567 2.06 43
  245.3223 0.04 1
  246.0631 1.04 22
  246.5233 0.01 0
  246.7766 0.19 4
  247.0754 2.41 51
  247.3017 0.06 1
  247.4957 0.12 3
  247.7331 0.10 2
  248.0603 1.10 23
  248.3531 0.23 5
  248.5436 0.13 3
  249.0670 1.75 37
  249.4966 0.09 2
  249.6686 0.14 3
  249.8192 0.14 3
  250.0685 0.92 19
  250.7124 0.09 2
  250.7843 0.03 1
  251.0883 1.19 25
  251.4650 0.11 2
  252.0490 0.82 17
  252.8025 0.16 3
  253.0694 1.32 28
  253.5984 0.04 1
  254.0653 0.38 8
  255.0694 1.11 23
  255.4394 0.20 4
  255.6040 0.08 2
  256.0612 0.42 9
  256.2916 0.22 5
  256.4639 0.06 1
  256.8458 0.22 5
  257.0929 1.88 39
  257.2679 0.13 3
  257.5171 0.11 2
  258.0708 0.89 19
  258.2439 0.23 5
  258.7119 0.09 2
  258.8303 0.07 1
  259.0858 1.58 33
  259.5532 0.02 0
  259.7616 0.15 3
  260.0775 0.81 17
  260.2686 0.10 2
  260.3628 0.10 2
  260.5901 0.04 1
  260.7972 0.12 3
  261.0902 1.77 37
  261.4949 0.15 3
  261.7201 0.08 2
  262.0846 0.62 13
  262.2198 0.18 4
  262.4575 0.09 2
  262.7694 0.06 1
  263.1014 1.23 26
  263.3323 0.09 2
  263.4280 0.11 2
  263.5750 0.10 2
  263.6651 0.07 1
  263.7885 0.11 2
  264.1311 0.49 10
  264.2087 0.20 4
  264.5922 0.11 2
  265.0798 1.02 21
  265.3531 0.09 2
  265.5730 0.01 0
  266.0566 0.26 5
  266.1940 0.17 4
  266.5153 0.02 0
  267.0781 0.40 8
  267.3786 0.18 4
  267.5542 0.12 3
  267.7756 0.10 2
  267.9901 0.30 6
  268.0880 0.16 3
  268.1984 0.10 2
  268.3268 0.15 3
  268.5178 0.10 2
  268.8025 0.11 2
  269.1080 1.51 32
  269.4066 0.08 2
  270.0928 0.57 12
  270.2262 0.21 4
  270.8298 0.13 3
  271.1078 1.35 28
  271.3440 0.01 0
  271.6873 0.03 1
  272.1077 0.29 6
  272.7599 0.11 2
  273.1173 1.09 23
  273.6489 0.05 1
  274.0431 0.47 10
  274.1528 0.24 5
  274.2819 0.12 3
  274.3937 0.20 4
  275.1136 1.64 34
  275.4018 0.11 2
  275.5712 0.06 1
  276.0809 0.29 6
  276.2740 0.06 1
  276.6491 0.16 3
  277.0797 0.51 11
  277.7773 0.10 2
  278.1295 0.23 5
  278.4506 0.14 3
  278.7161 0.04 1
  278.8564 0.17 4
  279.0782 0.63 13
  279.2192 0.35 7
  280.0089 0.23 5
  280.1876 0.37 8
  280.8975 0.12 3
  281.1110 1.03 22
  281.3050 0.10 2
  281.4183 0.06 1
  281.7056 0.24 5
  282.1256 0.74 16
  282.3768 0.14 3
  283.1503 1.53 32
  283.3361 0.27 6
  283.7613 0.16 3
  284.1495 1.05 22
  284.7940 0.12 3
  285.0829 0.96 20
  285.1921 0.46 10
  285.4852 0.13 3
  286.1556 0.44 9
  286.4077 0.11 2
  286.6737 0.11 2
  286.8993 0.11 2
  287.1124 0.86 18
  287.7664 0.20 4
  287.9370 0.20 4
  288.1794 0.29 6
  288.7297 0.07 1
  289.1067 0.67 14
  289.6250 0.15 3
  290.0925 0.41 9
  290.4571 0.11 2
  291.0570 0.28 6
  291.2616 0.23 5
  291.6722 0.11 2
  292.0850 0.25 5
  292.9121 0.11 2
  293.1265 0.69 14
  294.1070 0.39 8
  294.8237 0.18 4
  295.0933 1.00 21
  295.3217 0.05 1
  295.7300 0.11 2
  295.9599 0.15 3
  296.1285 0.45 9
  296.3250 0.15 3
  296.8783 0.12 3
  297.1626 0.76 16
  297.4616 0.02 0
  297.7160 0.07 1
  298.1767 0.34 7
  298.2604 0.23 5
  299.1325 0.54 11
  299.2510 0.17 4
  300.0710 0.22 5
  300.2105 0.11 2
  301.0481 0.24 5
  301.5517 0.04 1
  301.6515 0.07 1
  301.8050 0.10 2
  302.0889 0.36 8
  302.6338 0.03 1
  303.1320 0.29 6
  303.6686 0.01 0
  304.0637 0.11 2
  304.1837 0.06 1
  304.4601 0.11 2
  304.5508 0.06 1
  304.9836 0.10 2
  305.1624 0.53 11
  305.3006 0.11 2
  305.9792 0.03 1
  306.0804 0.07 1
  306.1908 0.06 1
  306.4352 0.09 2
  307.1398 0.58 12
  307.4170 0.11 2
  307.6636 0.12 3
  308.0966 0.16 3
  308.2573 0.14 3
  308.5465 0.01 0
  308.8336 0.11 2
  309.1389 0.59 12
  309.5630 0.07 1
  310.0920 0.40 8
  310.2283 0.21 4
  310.6308 0.06 1
  311.1249 0.42 9
  311.5730 0.13 3
  311.9980 0.05 1
  312.1693 0.18 4
  312.4678 0.03 1
  313.1054 0.39 8
  314.0712 0.23 5
  314.8566 0.12 3
  315.1392 0.44 9
  316.1507 0.20 4
  316.3180 0.09 2
  316.7189 0.07 1
  316.9960 0.12 3
  317.1114 0.46 10
  317.6237 0.06 1
  318.1297 0.29 6
  318.4355 0.01 0
  319.0914 0.49 10
  319.5093 0.04 1
  320.0211 0.18 4
  320.1891 0.14 3
  320.3425 0.13 3
  320.7493 0.01 0
  321.1281 0.24 5
  321.2962 0.10 2
  321.6653 0.01 0
  322.1458 0.13 3
  322.2872 0.08 2
  322.7285 0.08 2
  323.1264 0.40 8
  323.3618 0.05 1
  324.1983 0.16 3
  324.2866 0.11 2
  325.0708 0.32 7
  325.7695 0.07 1
  326.0645 0.32 7
  326.1522 0.12 3
  326.7725 0.11 2
  326.8651 0.05 1
  327.1076 0.33 7
  328.1382 0.16 3
  328.2827 0.02 0
  328.8037 0.13 3
  329.2336 0.33 7
  329.5211 0.12 3
  329.6894 0.11 2
  329.9973 0.06 1
  330.1502 0.08 2
  330.5879 0.06 1
  330.8110 0.01 0
  331.1449 0.28 6
  331.6153 0.02 0
  332.1285 0.11 2
  332.2651 0.12 3
  332.7826 0.04 1
  333.1425 0.61 13
  333.4472 0.12 3
  333.5908 0.08 2
  334.1266 0.09 2
  334.2169 0.13 3
  335.1830 0.78 16
  335.2845 0.23 5
  335.7631 0.11 2
  335.9564 0.09 2
  336.1968 0.34 7
  336.6606 0.11 2
  336.8527 0.08 2
  337.1911 0.65 14
  337.4147 0.10 2
  337.8268 0.10 2
  338.0034 0.04 1
  338.1843 0.27 6
  338.2887 0.19 4
  338.7829 0.09 2
  339.1411 0.20 4
  339.2673 0.15 3
  340.5146 0.11 2
  340.6962 0.01 0
  341.1541 0.15 3
  341.6927 0.06 1
  342.0546 0.04 1
  342.2004 0.10 2
  343.2175 0.34 7
  343.5416 0.09 2
  344.2390 0.10 2
  345.0824 0.43 9
  345.3167 0.15 3
  345.9925 0.13 3
  346.1364 0.21 4
  346.2852 0.16 3
  346.6628 0.10 2
  346.9007 0.03 1
  347.1471 0.33 7
  348.1593 0.47 10
  348.4689 0.09 2
  349.1780 0.74 16
  349.6366 0.05 1
  349.9666 0.19 4
  350.1379 0.42 9
  350.2636 0.26 5
  350.6941 0.05 1
  350.9645 0.12 3
  351.2054 0.18 4
  351.6823 0.08 2
  351.8973 0.02 0
  352.2317 0.14 3
  352.3932 0.12 3
  353.0388 0.17 4
  353.3128 0.10 2
  353.4203 0.02 0
  354.2754 0.11 2
  354.3907 0.06 1
  354.8390 0.06 1
  355.1580 0.31 6
  355.4061 0.12 3
  355.8348 0.08 2
  356.1806 0.06 1
  356.3219 0.09 2
  357.0241 0.14 3
  357.2392 0.29 6
  358.1222 0.07 1
  358.1989 0.04 1
  358.9965 0.16 3
  359.1502 0.38 8
  359.2822 0.16 3
  359.6914 0.01 0
  360.2067 0.37 8
  361.0723 0.09 2
  361.2520 0.48 10
  361.4409 0.08 2
  361.7892 0.09 2
  362.2098 1.08 23
  362.6943 0.08 2
  363.1143 0.29 6
  363.2547 0.69 14
  363.6572 0.11 2
  363.8166 0.15 3
  364.1790 0.15 3
  364.6560 0.14 3
  365.0444 0.16 3
  365.1779 0.40 8
  365.8945 0.11 2
  366.1783 0.09 2
  367.1726 0.17 4
  368.1156 0.03 1
  368.4010 0.04 1
  368.6104 0.01 0
  369.1361 0.14 3
  369.3329 0.08 2
  370.2601 0.15 3
  370.9104 0.17 4
  371.1593 0.17 4
  371.2760 0.12 3
  373.2642 0.30 6
  373.3830 0.12 3
  374.0444 0.04 1
  374.1998 0.35 7
  374.3566 0.11 2
  374.5379 0.09 2
  374.6483 0.08 2
  374.8213 0.07 1
  374.9492 0.09 2
  375.2227 0.57 12
  375.3521 0.20 4
  375.5039 0.02 0
  376.2036 1.05 22
  377.1740 0.23 5
  377.3484 0.08 2
  377.9399 0.15 3
  378.3499 0.09 2
  378.7839 0.15 3
  379.2411 0.26 5
  379.8110 0.04 1
  380.1465 0.11 2
  380.2690 0.07 1
  380.7896 0.11 2
  380.9226 0.10 2
  381.1611 0.39 8
  381.4763 0.03 1
  382.2004 0.13 3
  382.5114 0.04 1
  383.0991 0.30 6
  383.3053 0.06 1
  384.0337 0.03 1
  384.2132 0.18 4
  384.7207 0.04 1
  385.0523 0.12 3
  385.2994 0.18 4
  385.4437 0.12 3
  385.9055 0.10 2
  386.1350 0.13 3
  386.2272 0.11 2
  386.3596 0.09 2
  386.7539 0.11 2
  386.9701 0.14 3
  387.2200 0.13 3
  387.5608 0.10 2
  388.1749 0.27 6
  388.3058 0.15 3
  388.7234 0.05 1
  388.8538 0.10 2
  389.1207 0.13 3
  390.0391 0.13 3
  390.1363 0.06 1
  390.2842 0.11 2
  390.9922 0.12 3
  391.2028 0.28 6
  391.4465 0.06 1
  391.8051 0.10 2
  392.0073 0.07 1
  392.1983 0.03 1
  392.8634 0.02 0
  395.0993 0.13 3
  395.3221 0.19 4
  396.1608 0.03 1
  396.7903 0.15 3
  397.1575 0.13 3
  397.3768 0.05 1
  397.8336 0.04 1
  398.1170 0.11 2
  398.2763 0.14 3
  398.6747 0.10 2
  399.0441 0.13 3
  399.2239 0.56 12
  399.6456 0.07 1
  399.8113 0.11 2
  399.9855 0.10 2
  400.3148 0.13 3
  400.4361 0.11 2
  401.1921 0.50 10
  401.4890 0.10 2
  402.2613 0.80 17
  402.8263 0.06 1
  403.2333 0.24 5
  403.4753 0.04 1
  404.0128 0.09 2
  404.2139 0.18 4
  404.3986 0.10 2
  404.6233 0.12 3
  405.1127 0.21 4
  405.3444 0.11 2
  406.0170 0.12 3
  406.1219 0.12 3
  406.2649 0.01 0
  406.7227 0.02 0
  407.1721 0.12 3
  407.3630 0.09 2
  407.5603 0.10 2
  409.0341 0.10 2
  409.1954 0.08 2
  409.3511 0.10 2
  410.2311 0.14 3
  410.3967 0.16 3
  411.3163 0.37 8
  412.6462 0.10 2
  413.1910 0.61 13
  413.3842 0.16 3
  414.2399 0.56 12
  415.2148 0.68 14
  415.7330 0.10 2
  416.1850 0.16 3
  416.3485 0.12 3
  416.4797 0.10 2
  416.6461 0.10 2
  417.2038 0.03 1
  417.5945 0.09 2
  417.8180 0.14 3
  418.0726 0.14 3
  418.2404 0.12 3
  418.9266 0.10 2
  419.1847 0.07 1
  419.4492 0.06 1
  419.8145 0.11 2
  420.0332 0.10 2
  420.2102 0.10 2
  421.1572 0.26 5
  421.4691 0.03 1
  422.2498 0.11 2
  423.0151 0.11 2
  423.1510 0.11 2
  423.3580 0.15 3
  423.5678 0.12 3
  424.0037 0.13 3
  424.3473 0.23 5
  425.1262 0.04 1
  425.3255 0.12 3
  425.8959 0.15 3
  426.2044 0.15 3
  426.5551 0.11 2
  427.1299 0.16 3
  427.2919 0.34 7
  427.3757 0.22 5
  427.5356 0.01 0
  428.2738 1.23 26
  428.8437 0.16 3
  429.2897 2.56 54
  429.8406 0.26 5
  430.0294 0.16 3
  430.2746 0.36 8
  431.2575 0.22 5
  431.4788 0.12 3
  431.5908 0.02 0
  431.7930 0.03 1
  432.2187 0.19 4
  432.3645 0.10 2
  432.8790 0.01 0
  433.2398 0.14 3
  433.3709 0.11 2
  434.2561 0.08 2
  434.6078 0.13 3
  434.9356 0.11 2
  435.1111 0.11 2
  435.2859 0.07 1
  435.4128 0.11 2
  435.6327 0.01 0
  436.7430 0.06 1
  437.1004 0.07 1
  437.2570 0.08 2
  437.5051 0.13 3
  437.5806 0.07 1
  437.8111 0.13 3
  438.1721 0.30 6
  438.6149 0.03 1
  439.1557 0.32 7
  439.3461 0.08 2
  439.5175 0.18 4
  439.7755 0.23 5
  439.9081 0.09 2
  440.0759 0.21 4
  440.2142 0.21 4
  440.3714 0.41 9
  440.5632 0.52 11
  440.7424 0.41 9
  441.0047 0.28 6
  441.1718 0.49 10
  441.3496 0.57 12
  441.5717 0.24 5
  441.6529 0.09 2
  441.8405 0.12 3
  442.0062 0.20 4
  442.1762 0.31 6
  442.3151 0.10 2
  442.4068 0.07 1
  442.7926 0.07 1
  443.1136 0.20 4
  443.2144 0.13 3
  443.3887 0.15 3
  444.2838 0.17 4
  444.7163 0.10 2
  445.5354 0.14 3
  445.6927 0.11 2
  446.2614 0.16 3
  446.5062 0.06 1
  446.6741 0.11 2
  447.1906 0.10 2
  447.4087 0.12 3
  447.5632 0.11 2
  447.7573 0.06 1
  448.0847 0.23 5
  448.1687 0.15 3
  448.9979 0.10 2
  449.2308 0.17 4
  449.5011 0.13 3
  449.6253 0.11 2
  449.8173 0.10 2
  449.9732 0.07 1
  450.0713 0.04 1
  450.6734 0.20 4
  450.9988 0.13 3
  451.0983 0.13 3
  451.7936 0.16 3
  452.4240 0.12 3
  453.0268 0.11 2
  453.2817 0.27 6
  453.5274 0.30 6
  453.7279 0.04 1
  453.9376 0.10 2
  454.0540 0.09 2
  454.1960 0.12 3
  454.3231 0.09 2
  454.5391 0.18 4
  454.7438 0.13 3
  454.8780 0.11 2
  455.0114 0.11 2
  455.1647 0.08 2
  455.3426 0.16 3
  455.7253 0.20 4
  456.2900 1.15 24
  456.6925 0.13 3
  456.8484 0.18 4
  457.2530 5.62 118
  457.7775 0.12 3
  458.2457 0.41 9
  458.3768 0.38 8
  458.4833 0.11 2
  458.7477 0.22 5
  459.2624 0.22 5
  459.8117 0.18 4
  460.1050 0.09 2
  460.2708 0.13 3
  460.6036 0.10 2
  460.7933 0.13 3
  461.0853 0.11 2
  461.2715 0.14 3
  461.4118 0.12 3
  461.5415 0.11 2
  462.3173 0.42 9
  463.1884 0.17 4
  463.2885 0.05 1
  463.8789 0.17 4
  464.8862 0.11 2
  465.0583 0.11 2
  465.2467 0.12 3
  465.8569 0.11 2
  466.4495 0.11 2
  467.2432 0.22 5
  467.4704 0.17 4
  467.6602 0.10 2
  467.7752 0.10 2
  467.8613 0.05 1
  468.2974 0.36 8
  468.7003 0.10 2
  469.0044 0.11 2
  469.3572 0.07 1
  469.8964 0.04 1
  470.0678 0.11 2
  470.8921 0.10 2
  471.1335 0.13 3
  471.2626 0.20 4
  472.1900 0.12 3
  472.4208 0.01 0
  473.1669 0.14 3
  473.2735 0.05 1
  473.4104 0.14 3
  473.6208 0.09 2
  473.9208 0.11 2
  474.2484 0.20 4
  474.7990 0.03 1
  474.9458 0.11 2
  475.2303 0.34 7
  475.4675 0.07 1
  475.5903 0.11 2
  475.8007 0.19 4
  475.9200 0.14 3
  476.3175 5.61 118
  476.6388 0.12 3
  476.8287 0.11 2
  477.0278 0.12 3
  477.2735 0.22 5
  477.3900 0.17 4
  477.6393 0.01 0
  478.0502 0.10 2
  478.2352 0.03 1
  479.2040 0.11 2
  480.4985 0.01 0
  481.1645 0.13 3
  481.3573 0.12 3
  482.0290 0.06 1
  482.2875 0.15 3
  483.0737 0.12 3
  483.1931 0.11 2
  483.2876 0.06 1
  484.2771 0.11 2
  485.1339 0.10 2
  486.2710 0.21 4
  487.3094 0.11 2
  487.8049 0.05 1
  488.3661 0.61 13
  488.6485 0.04 1
  488.8144 0.08 2
  489.3256 0.81 17
  489.4562 0.32 7
  490.1198 0.20 4
  491.1302 0.12 3
  492.2523 0.01 0
  493.4182 0.10 2
  494.2826 0.15 3
  494.5171 0.07 1
  494.7282 0.14 3
  495.0023 0.06 1
  495.2000 0.10 2
  495.4416 0.06 1
  495.5482 0.01 0
  496.1338 0.14 3
  496.3704 0.08 2
  497.1114 0.12 3
  497.3430 0.26 5
  497.6892 0.16 3
  498.0381 0.26 5
  498.3165 0.40 8
  498.7778 0.19 4
  498.9940 0.05 1
  499.3302 0.13 3
  500.3172 0.10 2
  500.8662 0.12 3
  502.3655 0.12 3
  502.9259 0.07 1
  503.1407 0.03 1
  503.4114 0.07 1
  503.5146 0.23 5
  505.2502 0.17 4
  506.0269 0.09 2
  506.2686 0.10 2
  507.2751 0.08 2
  508.0591 0.11 2
  508.5100 0.11 2
  508.7843 0.11 2
  509.3640 0.18 4
  510.1605 0.26 5
  510.2993 0.24 5
  510.4128 0.33 7
  510.4776 0.15 3
  510.8878 0.05 1
  511.5037 0.11 2
  512.3417 0.13 3
  513.0824 0.10 2
  513.4384 0.20 4
  513.9754 0.09 2
  514.7050 0.08 2
  515.8533 0.01 0
  516.7775 0.03 1
  517.7538 0.05 1
  518.5160 0.01 0
  518.7656 0.11 2
  518.9059 0.12 3
  520.4768 0.05 1
  520.5776 0.03 1
  520.7307 0.13 3
  521.0332 0.10 2
  521.9830 0.09 2
  522.1375 0.26 5
  522.2101 0.11 2
  522.4287 0.12 3
  523.0549 0.18 4
  523.3815 0.29 6
  523.8159 0.14 3
  524.0677 0.14 3
  524.3597 0.44 9
  524.5635 0.20 4
  524.8237 0.07 1
  525.1404 0.32 7
  525.3894 0.63 13
  525.6046 0.12 3
  526.0256 0.08 2
  526.2231 0.31 6
  526.3438 0.30 6
  526.4827 0.39 8
  526.5786 0.13 3
  526.7514 0.08 2
  526.9525 0.12 3
  527.1190 0.15 3
  527.3976 0.06 1
  527.6931 0.12 3
  527.8963 0.29 6
  528.1622 0.05 1
  528.7217 0.13 3
  528.9721 0.10 2
  529.0850 0.11 2
  529.1816 0.13 3
  529.3544 0.06 1
  529.6698 0.05 1
  530.0092 0.15 3
  530.2674 0.28 6
  530.4896 0.13 3
  530.6427 0.01 0
  530.8600 0.11 2
  531.0590 0.09 2
  531.2198 0.16 3
  531.3624 0.09 2
  531.9656 0.13 3
  532.2154 0.15 3
  532.3727 0.02 0
  532.6254 0.04 1
  533.1129 0.14 3
  533.3134 0.17 4
  533.4248 0.27 6
  533.9216 0.01 0
  534.7084 0.11 2
  534.8983 0.14 3
  535.2624 0.57 12
  535.5439 0.11 2
  535.6407 0.14 3
  536.1530 0.11 2
  536.3026 0.08 2
  536.6880 0.12 3
  537.1637 0.07 1
  537.3726 0.19 4
  537.5441 0.18 4
  537.7445 0.10 2
  537.8772 0.24 5
  538.2054 0.39 8
  538.4052 0.33 7
  538.5308 0.36 8
  538.6720 0.39 8
  539.3390 1.44 30
  539.7124 0.14 3
  540.0187 0.30 6
  540.3188 0.40 8
  540.5659 0.35 7
  540.8263 0.36 8
  541.0424 0.10 2
  541.2040 0.30 6
  541.6656 0.43 9
  541.8979 0.26 5
  541.9805 0.13 3
  542.1443 0.34 7
  542.2891 0.31 6
  542.3992 0.41 9
  542.4916 0.20 4
  542.6088 0.17 4
  542.8312 0.26 5
  543.1412 0.37 8
  543.3650 0.31 6
  543.6876 0.49 10
  544.0837 0.39 8
  544.2793 0.37 8
  544.4494 0.37 8
  544.6401 0.41 9
  544.9514 0.43 9
  545.1498 0.26 5
  545.3864 0.20 4
  545.5311 0.68 14
  545.6935 0.59 12
  545.8560 0.41 9
  546.0240 0.45 9
  546.1892 0.59 12
  546.4575 0.51 11
  546.6553 0.51 11
  547.0013 0.77 16
  547.2894 0.40 8
  547.6298 0.68 14
  547.9023 0.47 10
  548.3465 0.83 17
  548.6184 0.53 11
  548.7943 0.87 18
  549.0026 0.88 18
  549.3514 1.21 25
  550.4009 12.92 271
  550.7576 1.21 25
  551.4003 1.05 22
  551.8071 0.58 12
  552.3369 1.35 28
  552.6003 0.69 14
  552.8080 0.56 12
  552.9153 0.27 6
  553.3751 6.68 140
  553.8397 0.78 16
  554.1675 0.50 10
  554.4080 0.53 11
  554.7422 0.47 10
  554.9799 0.30 6
  555.2993 0.50 10
  555.7632 0.61 13
  556.0354 0.58 12
  556.3267 0.60 13
  556.5911 0.34 7
  557.0967 0.59 12
  557.5452 0.36 8
  557.9606 0.42 9
  558.2088 0.36 8
  558.4570 0.64 13
  558.7187 0.36 8
  559.0967 0.60 13
  559.3407 0.50 10
  559.7596 0.64 13
  560.0848 0.61 13
  560.5947 0.82 17
  560.9523 0.52 11
  561.3212 0.45 9
  561.6478 0.75 16
  561.9221 0.88 18
  562.1599 0.93 19
  562.3531 0.85 18
  562.5760 0.90 19
  562.8588 1.25 26
  563.4218 1.48 31
  563.9564 1.51 32
  568.3665 99.96 999
  569.1750 19.26 404
  569.8292 9.65 202
  570.4191 5.46 114
  571.3731 3.11 65
  571.9080 1.85 39
  572.3328 1.25 26
  572.7012 0.81 17
  572.9933 0.82 17
  573.4260 0.74 16
  573.8931 0.77 16
  574.1966 0.37 8
  574.6349 0.58 12
//
