ACCESSION: MSBNK-Kyoto_Univ-CA000032
RECORD_TITLE: Corbiculaxanthin; FAB-EBEB; MS2; m/z: 600.42; [M]+*
DATE: 2016.01.19 (Created 2010.04.01, modified 2011.05.10)
AUTHORS: Akimoto N, Graduate School of Pharmaceutical Sciences, Kyoto University and Maoka T, Research Institute for Production Development
LICENSE: CC BY-SA
PUBLICATION: Takashi Maoka, Yasuhiro Fujiwara, Keiji Hashimoto, and Naoshige Akimoto, Structure of New Carotenoids from the Corbicula clam Corbicula japonica, J. Nat. Prod ., 68, 1341-1344 (2005).  Takashi Maoka, Yasuhiro Fujiwara, Keiji Hashimoto, and Naoshige Akimoto, Carotenoids in Three Species of Corbicula Clams, Corbicula japonica, Corbicula sandai, and Corbicula sp. (Chinese Freshwater Corbicula Clam), J. Agric. Food Chem., 53, 8357-8364 (2005).
COMMENT: Profile spectrum of this record is given as a JPEG file.
COMMENT: [Profile] CA000032.jpg
CH$NAME: Corbiculaxanthin
CH$COMPOUND_CLASS: N/A
CH$FORMULA: C40H56O4
CH$EXACT_MASS: 600.41786
CH$SMILES: C(O)(C2O)C(=C(C(C2)(C)C)C=CC(C)=CC=CC(C)=CC=CC=C(C)C=CC=C(C)C=C=C(C(C)(O)1)C(C)(C)CC(C1)O)C
CH$IUPAC: InChI=1S/C40H56O4/c1-28(17-13-19-30(3)21-23-34-32(5)37(43)35(42)27-38(34,6)7)15-11-12-16-29(2)18-14-20-31(4)22-24-36-39(8,9)25-33(41)26-40(36,10)44/h11-23,33,35,37,41-44H,25-27H2,1-10H3/b12-11+,17-13+,18-14+,23-21+,28-15+,29-16+,30-19+,31-20+/t24?,33-,35-,37+,40+/m0/s1
CH$LINK: CAS 866025-61-8
CH$LINK: NIKKAJI J2.236.911C
CH$LINK: INCHIKEY UWZLPMMHZRFPKY-AZYYESKLSA-N
AC$INSTRUMENT: JMS-HX/HX 110A, JEOL
AC$INSTRUMENT_TYPE: FAB-EBEB
AC$MASS_SPECTROMETRY: MS_TYPE MS2
AC$MASS_SPECTROMETRY: ION_MODE POSITIVE
AC$MASS_SPECTROMETRY: ATOM_GUN_CURRENT 5 mA
AC$MASS_SPECTROMETRY: BOMBARDMENT 6 kV xenon
AC$MASS_SPECTROMETRY: COLLISION_ENERGY 3 kV
AC$MASS_SPECTROMETRY: COLLISION_GAS Ar
AC$MASS_SPECTROMETRY: GAS_PRESSURE adjust to attenuate the intensity of the precursor ion by 30 %
AC$MASS_SPECTROMETRY: IONIZATION FAB
AC$MASS_SPECTROMETRY: MATRIX 1-2 uL m-NBA
AC$MASS_SPECTROMETRY: PROBE_TIP stainless-steel
MS$FOCUSED_ION: BASE_PEAK 582.3853
MS$FOCUSED_ION: PRECURSOR_M/Z 600.42
MS$FOCUSED_ION: PRECURSOR_TYPE [M]+*
MS$DATA_PROCESSING: RELATIVE_M/Z normalised by peak(m/z=582.3853).  set 999 for peak(m/z=600.3517,rel=5948).
PK$SPLASH: splash10-0udi-3931023000-74db7a8785ec41c4d2a8
PK$NUM_PEAK: 1538
PK$PEAK: m/z int. rel.int.
  1.0117 0.01 1
  1.6365 0.01 1
  1.7276 0.01 1
  3.3676 0.04 2
  3.4119 0.07 4
  9.8813 0.01 1
  12.9857 0.04 2
  13.9822 0.15 9
  14.9791 0.21 12
  16.2036 0.17 10
  18.9629 0.06 4
  20.2863 0.01 1
  22.9365 0.27 16
  25.8594 0.05 3
  25.9675 0.16 10
  26.9760 1.22 73
  27.9702 0.04 2
  28.9723 1.04 62
  29.9541 0.02 1
  30.9531 0.29 17
  33.4596 0.01 1
  35.9449 0.08 5
  36.9596 0.11 7
  37.9443 0.29 17
  38.6059 0.09 5
  38.9518 3.37 201
  39.4358 0.03 2
  39.9631 0.38 23
  40.5779 0.07 4
  40.9690 5.03 299
  41.5102 0.09 5
  41.9750 0.39 23
  42.3989 0.05 3
  42.9527 15.83 942
  43.9508 0.21 12
  44.9602 0.65 39
  46.9514 0.08 5
  47.7499 0.02 1
  48.8875 0.06 4
  48.9885 0.10 6
  49.9384 0.80 48
  50.9468 1.65 98
  51.9595 0.92 55
  52.5042 0.13 8
  52.9643 3.13 186
  53.9412 0.14 8
  54.0172 0.09 5
  54.9737 5.77 343
  55.9917 0.26 15
  56.4435 0.01 1
  56.9822 2.40 143
  57.9925 0.20 12
  58.9696 1.46 87
  59.9390 0.17 10
  60.9585 0.20 12
  61.3490 0.02 1
  61.9432 0.33 20
  62.9539 1.60 95
  63.1993 0.01 1
  63.4125 0.05 3
  63.5863 0.07 4
  63.9565 0.44 26
  64.9628 2.39 142
  65.7255 0.05 3
  65.9579 0.40 24
  66.3003 0.03 2
  66.4381 0.10 6
  66.6535 0.10 6
  66.9712 3.44 205
  67.9679 0.15 9
  68.9736 4.61 274
  69.8706 0.10 6
  69.9820 0.05 3
  70.9633 1.32 79
  71.9306 0.07 4
  72.9263 0.37 22
  73.9441 0.82 49
  74.9460 0.64 38
  75.4096 0.08 5
  75.5443 0.05 3
  75.9317 0.34 20
  76.4848 0.05 3
  76.9466 5.98 356
  77.1961 0.02 1
  77.2966 0.05 3
  77.4789 0.02 1
  77.6862 0.08 5
  77.9398 0.76 45
  78.4559 0.03 2
  78.6406 0.04 2
  78.9592 5.40 321
  79.3168 0.05 3
  79.4638 0.02 1
  79.7510 0.03 2
  79.9901 0.57 34
  80.7281 0.12 7
  80.9619 5.26 313
  81.2431 0.01 1
  81.7164 0.07 4
  81.9580 0.62 37
  82.9636 3.75 223
  83.8098 0.17 10
  83.9690 0.17 10
  84.9408 2.13 127
  85.9255 0.26 15
  86.9455 4.34 258
  87.9329 0.13 8
  88.0426 0.07 4
  88.9270 0.39 23
  89.1721 0.21 12
  89.4454 0.16 10
  89.6510 0.11 7
  89.9627 0.42 25
  90.6622 0.19 11
  90.9532 11.21 667
  91.1853 0.16 10
  91.4441 0.13 8
  91.9564 0.94 56
  92.3819 0.01 1
  92.9670 8.12 483
  93.9725 0.45 27
  94.4482 0.02 1
  94.7299 0.10 6
  94.9715 4.32 257
  95.3712 0.06 4
  95.9804 0.52 31
  96.6177 0.09 5
  96.9672 1.08 64
  97.3045 0.08 5
  97.9393 0.25 15
  98.9533 0.14 8
  99.9896 0.07 4
  100.4336 0.04 2
  100.5627 0.09 5
  100.6849 0.02 1
  100.9759 0.55 33
  101.8410 0.35 21
  101.9767 0.58 35
  102.2426 0.10 6
  102.4150 0.02 1
  102.9726 1.99 118
  103.9792 1.47 87
  104.9745 14.38 856
  105.9919 1.26 75
  106.4442 0.10 6
  106.9820 6.52 388
  107.3761 0.11 7
  107.6314 0.10 6
  107.9529 0.60 36
  108.9901 4.75 283
  109.4738 0.07 4
  109.6016 0.09 5
  109.9910 0.47 28
  110.4201 0.11 7
  110.9732 2.22 132
  111.2965 0.01 1
  111.8938 0.05 3
  111.9979 0.15 9
  112.6573 0.07 4
  112.9578 0.34 20
  113.1612 0.11 7
  113.2559 0.08 5
  113.3974 0.13 8
  113.6118 0.06 4
  113.9641 0.30 18
  114.1922 0.26 15
  114.3037 0.03 2
  114.4403 0.15 9
  114.5147 0.07 4
  114.9470 6.25 372
  115.2942 0.03 2
  115.4753 0.06 4
  115.9655 2.28 136
  116.2483 0.09 5
  116.5937 0.10 6
  116.9663 4.75 283
  117.1440 0.26 15
  117.4067 0.06 4
  117.9622 0.75 45
  118.4007 0.13 8
  118.9680 11.31 673
  119.3652 0.07 4
  119.5565 0.12 7
  119.9779 1.52 90
  120.5330 0.08 5
  120.9654 6.33 377
  121.2102 0.07 4
  121.5834 0.07 4
  121.7455 0.11 7
  121.9698 0.81 48
  122.9491 2.64 157
  123.6683 0.04 2
  123.9511 0.60 36
  124.9637 1.50 89
  125.2796 0.11 7
  125.5070 0.06 4
  125.6627 0.12 7
  125.9203 0.35 21
  126.3194 0.01 1
  126.5909 0.16 10
  126.9381 2.38 142
  127.3202 0.13 8
  127.5273 0.08 5
  127.9273 6.78 403
  128.1850 0.17 10
  128.3380 0.04 2
  128.5421 0.07 4
  128.9440 7.27 433
  129.3493 0.09 5
  129.5963 0.07 4
  129.9423 3.23 192
  130.1947 0.08 5
  130.2970 0.08 5
  130.6033 0.06 4
  130.9485 6.45 384
  131.3831 0.04 2
  131.9454 1.51 90
  132.2740 0.03 2
  132.4680 0.07 4
  132.5910 0.12 7
  132.9673 7.42 441
  133.2199 0.18 11
  133.5603 0.07 4
  133.9515 0.91 54
  134.3047 0.05 3
  134.9527 3.30 196
  135.2252 0.02 1
  135.9288 0.61 36
  136.9614 2.42 144
  137.4397 0.05 3
  137.9362 0.47 28
  138.1422 0.06 4
  138.4005 0.01 1
  138.5436 0.06 4
  138.9227 1.76 105
  139.9395 1.23 73
  140.2952 0.20 12
  140.4008 0.16 10
  140.9315 4.95 295
  141.2464 0.04 2
  141.3707 0.15 9
  141.9538 5.14 306
  142.2791 0.13 8
  142.3796 0.08 5
  142.5187 0.05 3
  142.6365 0.14 8
  142.9447 9.31 554
  143.2450 0.06 4
  143.3409 0.10 6
  143.4901 0.13 8
  143.9566 2.87 171
  144.1586 0.14 8
  144.3232 0.23 14
  144.9609 9.37 558
  145.3259 0.06 4
  145.5008 0.10 6
  145.6971 0.12 7
  145.9769 0.72 43
  146.2314 0.14 8
  146.3343 0.15 9
  146.5629 0.16 10
  146.9659 3.96 236
  147.3565 0.02 1
  147.9901 0.85 51
  148.3743 0.08 5
  148.9684 2.72 162
  149.3248 0.01 1
  149.5949 0.13 8
  150.0093 0.66 39
  150.1300 0.15 9
  150.5755 0.11 7
  150.9318 1.56 93
  151.4078 0.15 9
  151.9357 1.99 118
  152.3672 0.12 7
  152.5480 0.09 5
  152.9507 3.33 198
  153.3819 0.09 5
  153.5272 0.10 6
  153.9566 1.91 114
  154.4939 0.14 8
  154.5928 0.11 7
  154.9640 6.01 358
  155.3832 0.11 7
  155.6387 0.05 3
  155.9711 3.93 234
  156.3697 0.09 5
  156.5390 0.14 8
  156.9871 10.35 616
  157.3591 0.10 6
  157.6339 0.12 7
  157.9764 1.78 106
  158.3528 0.03 2
  158.6731 0.22 13
  158.9936 6.25 372
  159.3094 0.10 6
  159.5096 0.15 9
  159.7917 0.21 12
  159.9690 0.68 40
  160.0624 0.34 20
  160.3041 0.03 2
  160.9805 2.20 131
  161.5428 0.08 5
  161.8228 0.06 4
  162.0376 0.67 40
  162.4417 0.05 3
  162.6683 0.12 7
  163.0190 1.20 71
  163.6142 0.24 14
  163.9835 0.90 54
  164.1594 0.23 14
  164.2667 0.05 3
  164.4059 0.24 14
  164.9678 5.44 324
  165.4857 0.10 6
  166.0012 1.46 87
  166.2311 0.14 8
  166.4046 0.14 8
  166.5910 0.04 2
  167.0027 4.70 280
  167.2798 0.08 5
  167.3990 0.03 2
  168.0092 1.68 100
  168.3301 0.01 1
  168.5229 0.01 1
  169.0089 5.46 325
  169.4187 0.15 9
  169.5947 0.11 7
  170.0251 2.19 130
  170.2278 0.09 5
  170.5730 0.04 2
  171.0289 4.57 272
  171.6832 0.11 7
  172.0245 1.07 64
  172.6567 0.07 4
  173.0248 2.54 151
  173.7217 0.07 4
  174.0368 0.44 26
  175.0291 1.49 89
  175.4101 0.08 5
  175.6484 0.04 2
  175.9947 0.62 37
  176.2605 0.09 5
  176.3644 0.12 7
  176.4587 0.03 2
  176.9993 0.80 48
  177.2256 0.18 11
  177.4738 0.20 12
  177.6264 0.09 5
  177.9930 3.11 185
  178.4439 0.17 10
  178.5294 0.11 7
  178.6656 0.19 11
  178.9730 4.02 239
  179.4078 0.11 7
  179.5331 0.19 11
  179.6844 0.03 2
  180.0016 1.94 115
  180.3421 0.07 4
  180.4984 0.05 3
  180.6114 0.05 3
  180.9919 4.64 276
  181.3950 0.01 1
  181.6055 0.05 3
  181.9992 1.61 96
  182.3443 0.18 11
  183.0128 4.56 271
  183.2537 0.11 7
  183.3801 0.03 2
  183.6644 0.09 5
  184.0249 1.19 71
  184.2297 0.22 13
  184.3835 0.04 2
  184.6234 0.10 6
  184.9979 2.67 159
  185.2976 0.10 6
  185.5458 0.19 11
  185.9880 0.61 36
  186.3477 0.07 4
  187.0021 1.49 89
  187.5342 0.13 8
  187.7263 0.11 7
  187.9769 0.40 24
  188.1615 0.21 12
  188.3709 0.06 4
  188.6140 0.18 11
  189.0102 1.93 115
  189.9945 0.86 51
  190.3676 0.06 4
  190.5573 0.05 3
  190.7276 0.34 20
  190.9622 1.43 85
  191.9836 1.31 78
  192.2493 0.12 7
  192.4068 0.09 5
  192.5960 0.08 5
  192.9883 4.01 239
  193.2757 0.09 5
  194.0026 2.02 120
  194.5107 0.10 6
  194.9968 3.96 236
  195.4166 0.11 7
  195.5819 0.13 8
  195.9901 1.44 86
  196.9944 3.95 235
  197.4196 0.09 5
  198.0132 1.21 72
  198.3914 0.12 7
  198.7469 0.18 11
  199.0166 2.22 132
  199.3139 0.04 2
  199.6211 0.16 10
  199.9948 0.52 31
  200.4658 0.05 3
  200.6052 0.05 3
  201.0118 0.81 48
  201.3012 0.05 3
  201.6989 0.31 18
  201.9960 1.17 70
  202.3529 0.03 2
  202.4709 0.09 5
  202.9703 1.96 117
  203.2927 0.18 11
  203.4705 0.10 6
  203.8187 0.22 13
  204.0327 0.63 37
  204.3212 0.02 1
  204.5916 0.06 4
  204.9831 2.05 122
  205.3176 0.09 5
  205.5102 0.06 4
  205.9770 1.63 97
  206.2191 0.14 8
  206.4689 0.01 1
  207.0132 3.19 190
  207.4135 0.10 6
  207.9998 2.02 120
  208.2757 0.10 6
  208.5264 0.17 10
  208.6888 0.13 8
  209.0218 3.55 211
  209.4567 0.13 8
  210.0087 0.81 48
  210.3427 0.05 3
  210.7005 0.11 7
  211.0192 1.54 92
  211.2319 0.13 8
  211.3449 0.11 7
  211.6331 0.07 4
  212.0155 0.72 43
  212.6318 0.20 12
  213.0004 1.33 79
  213.5792 0.07 4
  213.6854 0.12 7
  213.8782 0.34 20
  214.0123 0.60 36
  214.1038 0.28 17
  214.3944 0.07 4
  214.5775 0.20 12
  214.9821 1.37 82
  215.3448 0.08 5
  215.5272 0.09 5
  215.9844 0.75 45
  216.5061 0.11 7
  217.0174 1.19 71
  218.0011 0.66 39
  218.2937 0.13 8
  218.5317 0.12 7
  219.0217 2.14 127
  219.2969 0.21 12
  219.5322 0.11 7
  220.0323 1.05 62
  220.2824 0.13 8
  221.0153 2.79 166
  221.3713 0.13 8
  221.7786 0.12 7
  222.0821 0.86 51
  222.4839 0.09 5
  222.6235 0.09 5
  223.0527 1.54 92
  223.4708 0.12 7
  223.6350 0.15 9
  223.7612 0.15 9
  224.0307 0.82 49
  224.4904 0.13 8
  224.8610 0.39 23
  225.0667 1.58 94
  225.2934 0.15 9
  225.5722 0.12 7
  225.9950 0.64 38
  226.3440 0.10 6
  226.6637 0.14 8
  226.9046 0.62 37
  227.0936 1.07 64
  227.7352 0.07 4
  228.0480 0.69 41
  228.3749 0.21 12
  228.5331 0.12 7
  229.0345 0.90 54
  229.2292 0.23 14
  229.3917 0.11 7
  229.5570 0.12 7
  230.0543 1.07 64
  230.2063 0.27 16
  230.3611 0.06 4
  230.7474 0.18 11
  231.0451 1.35 80
  232.0531 0.55 33
  232.8153 0.33 20
  233.0822 3.25 193
  234.0818 1.21 72
  234.1893 0.49 29
  234.7282 0.11 7
  235.0733 1.27 76
  235.3552 0.15 9
  235.7130 0.10 6
  235.8817 0.25 15
  236.1180 0.52 31
  236.3416 0.04 2
  236.4865 0.13 8
  236.7797 0.08 5
  237.0885 1.03 61
  237.4754 0.10 6
  237.7772 0.02 1
  238.0066 0.11 7
  238.1664 0.18 11
  238.6048 0.04 2
  238.7491 0.21 12
  239.1109 0.96 57
  239.2904 0.22 13
  239.9903 0.28 17
  240.1276 0.24 14
  240.2558 0.07 4
  240.4924 0.06 4
  241.0658 0.61 36
  241.4899 0.14 8
  242.1051 0.31 18
  242.6915 0.15 9
  243.0609 1.04 62
  243.5671 0.27 16
  243.7131 0.06 4
  244.0417 0.53 32
  244.2512 0.20 12
  244.5799 0.04 2
  245.0532 1.43 85
  245.2741 0.14 8
  245.3792 0.09 5
  245.5563 0.11 7
  246.0242 0.72 43
  246.4095 0.03 2
  247.0639 1.17 70
  247.6253 0.11 7
  247.8477 0.12 7
  248.0108 0.80 48
  248.1578 0.43 26
  248.7511 0.10 6
  249.0937 1.18 70
  249.5473 0.01 1
  249.7240 0.13 8
  250.0505 0.18 11
  250.1933 0.11 7
  250.5389 0.04 2
  251.0387 1.03 61
  251.1836 0.28 17
  251.9261 0.30 18
  252.1255 0.48 29
  252.3929 0.05 3
  252.8265 0.16 10
  253.1095 0.55 33
  253.4364 0.02 1
  253.5687 0.12 7
  253.7569 0.12 7
  254.0520 0.34 20
  254.8115 0.19 11
  255.1038 1.62 96
  255.5605 0.12 7
  256.0604 0.45 27
  256.2835 0.13 8
  257.0067 0.90 54
  257.1647 0.15 9
  257.8328 0.12 7
  258.0432 0.76 45
  258.2162 0.22 13
  258.3954 0.04 2
  259.0865 0.91 54
  259.3941 0.04 2
  259.8365 0.11 7
  260.1073 0.32 19
  260.2377 0.20 12
  260.3547 0.11 7
  260.7646 0.16 10
  261.0631 1.02 61
  261.5752 0.10 6
  261.9874 0.25 15
  262.1839 0.21 12
  262.7260 0.12 7
  263.0736 0.71 42
  263.1936 0.26 15
  264.1120 0.34 20
  264.3541 0.04 2
  264.4975 0.01 1
  265.0520 0.71 42
  265.2246 0.49 29
  265.3957 0.09 5
  265.5243 0.12 7
  265.7537 0.14 8
  266.1038 0.60 36
  266.2288 0.19 11
  266.7325 0.10 6
  267.0572 0.41 24
  267.4409 0.12 7
  267.8786 0.14 8
  268.0897 0.38 23
  268.7927 0.08 5
  269.0877 0.94 56
  269.6238 0.09 5
  270.0881 0.52 31
  270.5276 0.10 6
  270.8008 0.18 11
  271.1273 0.58 35
  271.5932 0.12 7
  271.9739 0.36 21
  272.1389 0.27 16
  272.6627 0.07 4
  272.8790 0.22 13
  273.1089 0.91 54
  273.2143 0.45 27
  273.6264 0.08 5
  273.8478 0.10 6
  273.9980 0.19 11
  274.1262 0.12 7
  274.5149 0.10 6
  274.8994 0.26 15
  275.1309 0.80 48
  275.5425 0.06 4
  276.0048 0.42 25
  276.3952 0.10 6
  276.8184 0.13 8
  277.1191 0.73 43
  277.2994 0.15 9
  277.9821 0.25 15
  278.1464 0.19 11
  278.3683 0.07 4
  278.8121 0.11 7
  279.1016 0.66 39
  279.2787 0.18 11
  279.8322 0.18 11
  280.0115 0.17 10
  280.1972 0.10 6
  280.6227 0.03 2
  280.7551 0.03 2
  280.9593 0.18 11
  281.1194 0.55 33
  281.4767 0.12 7
  282.0654 0.55 33
  282.1829 0.22 13
  282.4064 0.11 7
  282.7325 0.13 8
  283.0722 0.53 32
  283.5023 0.05 3
  284.0892 0.24 14
  284.3784 0.07 4
  284.5173 0.03 2
  285.1285 0.85 51
  285.3473 0.15 9
  285.7185 0.11 7
  285.8596 0.06 4
  286.0698 0.30 18
  286.7412 0.20 12
  286.8574 0.19 11
  287.0869 0.64 38
  287.1831 0.16 10
  287.5731 0.07 4
  287.8269 0.04 2
  287.9716 0.06 4
  288.1513 0.25 15
  288.3481 0.08 5
  288.6797 0.21 12
  289.0826 0.52 31
  289.2766 0.10 6
  289.5933 0.20 12
  289.9135 0.14 8
  290.1154 0.15 9
  290.2424 0.10 6
  290.5648 0.13 8
  290.8210 0.12 7
  290.9023 0.08 5
  291.0215 0.29 17
  291.1785 0.36 21
  291.4111 0.10 6
  291.7429 0.08 5
  292.0862 0.28 17
  292.3353 0.11 7
  293.0463 1.29 77
  294.0635 0.97 58
  294.2218 0.24 14
  294.7968 0.19 11
  295.1307 0.64 38
  295.4176 0.01 1
  295.8114 0.02 1
  295.9271 0.09 5
  296.0526 0.31 18
  296.2075 0.52 31
  296.6978 0.11 7
  296.8242 0.19 11
  297.0669 0.98 58
  297.1932 0.45 27
  298.1770 0.16 10
  298.7282 0.12 7
  299.0896 0.45 27
  299.8802 0.11 7
  300.1445 0.42 25
  301.0732 0.38 23
  301.2633 0.20 12
  301.6927 0.12 7
  301.9814 0.10 6
  302.1029 0.25 15
  302.8948 0.03 2
  303.0421 0.30 18
  303.1743 0.15 9
  304.0829 0.27 16
  304.2495 0.10 6
  304.7872 0.14 8
  304.9624 0.13 8
  305.2041 0.28 17
  305.6039 0.07 4
  306.1068 0.27 16
  306.6196 0.05 3
  306.8178 0.12 7
  306.9609 0.46 27
  307.1734 0.26 15
  308.0492 0.28 17
  308.2431 0.23 14
  308.8400 0.11 7
  309.1212 0.29 17
  309.8349 0.12 7
  310.0096 0.11 7
  310.1542 0.12 7
  310.2466 0.12 7
  310.8902 0.16 10
  311.0585 0.46 27
  311.1702 0.31 18
  311.2855 0.09 5
  311.8899 0.08 5
  312.0296 0.27 16
  312.2989 0.05 3
  312.7594 0.07 4
  313.0997 1.02 61
  313.4049 0.03 2
  313.9866 0.11 7
  314.1113 0.11 7
  314.7097 0.10 6
  315.0988 0.12 7
  315.8434 0.16 10
  315.9381 0.11 7
  316.0800 0.17 10
  316.1940 0.13 8
  316.6736 0.09 5
  316.7961 0.11 7
  317.0456 0.17 10
  317.1926 0.11 7
  318.0652 0.14 8
  318.1807 0.12 7
  318.4518 0.10 6
  318.8125 0.13 8
  319.1302 0.25 15
  319.2651 0.21 12
  320.0219 0.11 7
  320.2514 0.14 8
  320.4387 0.09 5
  320.8218 0.05 3
  321.0715 0.36 21
  321.2416 0.05 3
  321.8609 0.03 2
  322.0848 0.13 8
  322.2190 0.09 5
  322.9913 0.26 15
  323.1291 0.15 9
  323.2569 0.08 5
  324.0918 0.12 7
  324.3653 0.15 9
  324.8091 0.25 15
  325.0597 0.27 16
  325.2090 0.29 17
  325.3412 0.11 7
  325.6191 0.03 2
  326.0579 0.23 14
  326.2152 0.22 13
  326.4680 0.11 7
  326.8603 0.20 12
  327.0966 0.36 21
  327.2596 0.26 15
  327.3746 0.20 12
  327.6260 0.04 2
  328.2935 0.10 6
  328.5637 0.10 6
  329.1407 0.32 19
  329.3039 0.08 5
  329.4742 0.11 7
  330.0858 0.04 2
  330.2770 0.11 7
  330.5595 0.11 7
  330.8327 0.10 6
  331.0268 0.20 12
  331.2238 0.10 6
  331.3331 0.08 5
  331.5121 0.08 5
  331.6365 0.12 7
  331.9780 0.10 6
  332.1103 0.14 8
  332.2426 0.10 6
  332.4274 0.07 4
  332.7201 0.10 6
  333.0408 0.25 15
  333.1818 0.21 12
  333.2782 0.12 7
  333.3997 0.11 7
  333.5220 0.11 7
  333.8248 0.04 2
  333.9636 0.09 5
  334.2154 0.24 14
  334.8671 0.12 7
  334.9836 0.15 9
  335.2146 0.33 20
  336.0528 0.21 12
  336.2291 0.18 11
  336.8163 0.12 7
  337.1236 0.35 21
  337.2366 0.24 14
  338.1111 0.17 10
  338.4030 0.12 7
  338.9764 0.15 9
  339.1805 0.17 10
  339.7266 0.09 5
  340.1284 0.10 6
  341.0197 0.23 14
  341.2238 0.22 13
  341.6286 0.04 2
  342.0412 0.10 6
  342.8861 0.15 9
  343.0702 0.36 21
  343.2737 0.13 8
  344.2136 0.10 6
  344.4740 0.07 4
  345.1106 0.23 14
  345.2480 0.09 5
  345.3854 0.02 1
  345.8221 0.08 5
  346.1127 0.21 12
  346.2659 0.08 5
  347.0567 0.24 14
  347.2323 0.40 24
  347.6173 0.11 7
  347.8454 0.06 4
  348.0376 0.17 10
  348.1376 0.14 8
  348.3262 0.13 8
  349.0056 0.13 8
  349.1395 0.13 8
  349.3209 0.14 8
  349.6715 0.03 2
  349.9062 0.06 4
  350.0350 0.10 6
  350.1833 0.22 13
  350.9926 0.23 14
  351.1841 0.32 19
  351.3613 0.10 6
  352.1001 0.10 6
  352.3104 0.22 13
  352.8808 0.05 3
  353.1596 0.19 11
  353.2575 0.27 16
  353.4211 0.11 7
  354.0276 0.08 5
  355.1962 0.34 20
  355.6760 0.03 2
  356.1012 0.12 7
  356.9847 0.05 3
  357.0885 0.11 7
  357.2759 0.09 5
  358.0976 0.10 6
  359.0153 0.11 7
  359.1696 0.31 18
  359.4695 0.03 2
  360.0312 0.15 9
  360.3059 0.15 9
  360.4040 0.11 7
  361.0033 0.15 9
  361.1605 0.15 9
  361.6127 0.12 7
  362.1464 0.23 14
  362.3672 0.18 11
  363.2631 0.18 11
  364.0711 0.19 11
  364.2190 0.07 4
  364.3821 0.17 10
  364.6577 0.03 2
  364.8294 0.11 7
  365.1808 0.68 40
  366.2310 0.17 10
  367.1773 0.24 14
  367.5932 0.12 7
  367.7129 0.15 9
  368.0315 0.14 8
  368.2557 0.09 5
  369.0119 0.11 7
  369.2044 0.28 17
  369.3140 0.07 4
  370.0984 0.23 14
  370.2672 0.14 8
  370.6436 0.09 5
  372.1855 0.21 12
  373.0179 0.11 7
  373.1326 0.10 6
  373.2220 0.10 6
  374.0654 0.15 9
  374.2515 0.08 5
  374.8677 0.10 6
  375.0351 0.19 11
  375.2653 0.18 11
  376.0179 0.07 4
  376.2366 0.05 3
  376.9930 0.12 7
  377.1979 0.11 7
  377.3055 0.31 18
  377.9955 0.14 8
  378.1652 0.17 10
  378.2901 0.11 7
  379.0993 0.46 27
  379.2242 0.19 11
  379.4473 0.07 4
  380.1845 0.11 7
  380.5374 0.15 9
  380.8958 0.07 4
  382.4487 0.12 7
  383.1433 0.16 10
  383.3431 0.11 7
  384.2074 0.04 2
  385.1259 0.36 21
  386.2480 0.08 5
  387.0203 0.11 7
  387.2808 0.10 6
  388.0027 0.13 8
  388.3975 0.04 2
  389.0912 0.12 7
  389.9258 0.11 7
  390.0558 0.11 7
  390.1771 0.11 7
  390.7540 0.02 1
  391.1483 0.13 8
  391.3130 0.16 10
  391.7087 0.08 5
  392.0922 0.12 7
  392.3175 0.07 4
  393.1828 0.19 11
  393.7274 0.01 1
  394.2656 0.10 6
  395.0625 0.16 10
  395.3536 0.17 10
  396.2900 0.13 8
  397.0509 0.06 4
  398.2962 0.12 7
  399.1483 0.09 5
  399.3847 0.06 4
  401.0091 0.08 5
  401.4126 0.11 7
  401.9635 0.13 8
  402.2036 0.08 5
  402.3764 0.18 11
  403.1870 0.13 8
  403.2536 0.07 4
  405.0617 0.09 5
  405.6636 0.06 4
  406.1794 0.11 7
  406.3537 0.05 3
  406.8934 0.11 7
  407.2327 0.17 10
  407.6220 0.12 7
  408.6857 0.02 1
  408.8586 0.01 1
  409.0887 0.09 5
  409.2125 0.22 13
  411.0342 0.12 7
  411.6791 0.07 4
  412.1157 0.15 9
  413.1983 0.12 7
  413.3305 0.13 8
  414.7822 0.02 1
  415.1363 0.12 7
  415.2382 0.04 2
  416.0375 0.14 8
  416.3295 0.05 3
  417.0697 0.12 7
  417.2244 0.17 10
  417.4477 0.06 4
  417.6826 0.04 2
  417.9299 0.12 7
  418.3044 0.16 10
  419.0179 0.13 8
  419.2984 0.15 9
  420.0084 0.12 7
  420.2210 0.11 7
  421.2283 0.12 7
  421.6774 0.11 7
  422.7796 0.06 4
  423.3257 0.17 10
  423.5680 0.01 1
  424.7760 0.18 11
  425.0842 0.11 7
  425.2520 0.12 7
  425.9530 0.04 2
  426.1252 0.05 3
  427.0753 0.03 2
  427.2279 0.12 7
  427.3799 0.10 6
  428.1390 0.07 4
  428.3279 0.11 7
  428.9785 0.10 6
  429.2918 0.24 14
  429.9324 0.03 2
  430.2688 0.13 8
  430.3816 0.06 4
  431.1531 0.11 7
  431.2760 0.15 9
  431.4908 0.10 6
  431.6296 0.10 6
  431.9868 0.12 7
  432.1206 0.09 5
  432.3585 0.14 8
  433.0911 0.11 7
  433.2625 0.10 6
  433.5591 0.12 7
  433.8686 0.01 1
  434.1919 0.06 4
  434.4805 0.06 4
  436.4460 0.23 14
  436.9987 0.10 6
  437.2455 0.14 8
  440.0596 0.13 8
  441.0048 0.13 8
  441.1604 0.24 14
  441.2784 0.08 5
  441.4962 0.09 5
  442.2570 0.14 8
  442.5538 0.13 8
  442.8086 0.11 7
  443.0526 0.24 14
  443.3204 0.14 8
  443.7620 0.11 7
  444.1711 0.34 20
  444.3542 0.13 8
  445.1268 0.44 26
  446.0753 0.45 27
  446.3049 0.24 14
  446.6974 0.03 2
  447.1116 2.46 146
  447.2752 0.79 47
  447.4606 0.35 21
  448.3493 0.10 6
  449.0779 0.12 7
  449.2054 0.14 8
  449.3119 0.22 13
  449.4821 0.14 8
  449.6943 0.08 5
  449.8102 0.10 6
  450.8642 0.17 10
  451.2764 0.16 10
  451.4010 0.13 8
  451.7169 0.09 5
  452.1668 0.11 7
  452.4632 0.04 2
  453.4993 0.12 7
  454.1660 0.15 9
  454.5189 0.12 7
  454.8602 0.11 7
  454.9964 0.12 7
  455.2131 0.12 7
  455.4530 0.18 11
  456.8656 0.16 10
  457.0359 0.06 4
  457.1721 0.21 12
  457.5179 0.15 9
  457.9992 0.09 5
  458.1884 0.11 7
  459.2744 0.03 2
  459.9696 0.19 11
  460.3872 0.22 13
  460.8788 0.04 2
  461.3480 0.02 1
  461.8650 0.04 2
  462.1739 0.13 8
  462.3501 0.20 12
  462.4581 0.12 7
  462.7881 0.10 6
  463.3820 0.05 3
  463.7424 0.08 5
  464.3277 0.14 8
  465.1342 0.05 3
  465.3366 0.01 1
  466.1766 0.14 8
  466.3923 0.14 8
  466.5414 0.03 2
  466.7065 0.11 7
  466.9324 0.08 5
  467.1040 0.11 7
  467.4508 0.11 7
  467.6441 0.11 7
  467.8019 0.11 7
  468.1227 0.16 10
  468.8351 0.02 1
  469.0220 0.06 4
  469.7968 0.04 2
  470.0242 0.20 12
  470.3211 0.13 8
  470.6223 0.12 7
  470.8896 0.07 4
  470.9881 0.06 4
  471.4711 0.13 8
  471.6044 0.08 5
  471.9404 0.32 19
  472.0317 0.06 4
  472.1425 0.05 3
  472.5626 0.27 16
  472.7770 0.18 11
  473.3043 0.39 23
  473.4463 0.11 7
  473.5846 0.23 14
  473.8230 0.26 15
  474.0432 0.09 5
  474.2127 0.20 12
  474.4402 0.14 8
  474.7104 0.14 8
  474.9016 0.11 7
  475.1472 0.11 7
  475.3870 0.19 11
  475.9521 0.13 8
  476.1789 0.16 10
  476.2781 0.13 8
  476.5252 0.14 8
  476.9019 0.13 8
  477.3309 0.11 7
  477.5345 0.03 2
  477.8635 0.03 2
  478.1251 0.15 9
  478.2990 0.19 11
  478.6808 0.07 4
  479.3794 0.10 6
  480.2317 0.09 5
  480.9333 0.11 7
  481.0724 0.11 7
  481.2007 0.11 7
  481.4182 0.14 8
  482.6149 0.11 7
  483.2006 0.22 13
  483.3861 0.05 3
  483.5065 0.13 8
  483.6392 0.13 8
  483.9552 0.20 12
  484.1277 0.14 8
  484.3387 0.05 3
  484.9926 0.06 4
  485.4023 0.15 9
  485.8185 0.12 7
  485.9388 0.37 22
  486.2607 0.11 7
  486.5167 0.11 7
  487.3143 0.10 6
  487.7552 0.05 3
  487.9851 0.07 4
  488.2113 0.12 7
  488.3528 0.14 8
  488.5681 0.10 6
  488.8814 0.08 5
  490.0534 0.12 7
  490.2652 0.14 8
  490.4168 0.11 7
  490.7533 0.12 7
  490.8512 0.12 7
  491.3096 0.04 2
  491.8544 0.15 9
  493.0890 0.20 12
  493.2290 0.14 8
  493.6121 0.14 8
  494.6514 0.10 6
  494.7738 0.08 5
  495.2671 0.10 6
  495.5011 0.02 1
  496.0726 0.09 5
  496.9224 0.22 13
  497.2904 0.17 10
  497.3861 0.12 7
  497.5114 0.11 7
  498.0519 0.14 8
  498.8496 0.09 5
  499.1301 0.10 6
  499.3511 0.30 18
  500.1634 0.16 10
  500.3895 0.45 27
  500.7692 0.11 7
  501.2344 0.17 10
  501.4098 0.13 8
  501.6033 0.11 7
  502.2758 0.17 10
  502.4164 0.24 14
  503.5833 0.13 8
  503.9291 0.12 7
  504.3517 0.02 1
  505.4339 0.17 10
  505.6420 0.10 6
  505.8217 0.15 9
  506.0102 0.04 2
  506.1871 0.13 8
  507.3666 0.13 8
  507.5037 0.11 7
  507.7016 0.10 6
  508.2874 0.85 51
  508.4556 0.36 21
  508.7326 0.13 8
  508.8733 0.06 4
  508.9806 0.15 9
  509.1517 0.11 7
  509.6020 0.16 10
  509.7644 0.06 4
  510.7847 0.12 7
  511.6766 0.12 7
  511.8812 0.14 8
  512.1089 0.11 7
  512.4171 0.12 7
  512.9073 0.01 1
  513.1489 0.12 7
  513.4702 0.06 4
  513.6080 0.15 9
  513.9315 0.07 4
  514.2049 0.13 8
  514.4327 0.10 6
  515.2139 0.05 3
  515.4881 0.12 7
  516.4855 0.11 7
  517.1892 0.03 2
  518.3776 0.10 6
  518.5038 0.19 11
  518.8020 0.14 8
  519.1960 0.13 8
  519.3832 0.06 4
  519.8497 0.12 7
  519.9825 0.14 8
  520.2749 0.27 16
  520.4019 0.12 7
  520.7422 0.11 7
  521.0185 0.12 7
  521.5413 0.05 3
  523.1480 0.13 8
  523.4435 0.15 9
  523.6759 0.17 10
  524.1220 0.12 7
  524.2770 0.12 7
  525.1801 0.11 7
  525.3770 0.15 9
  525.6848 0.10 6
  526.3809 0.10 6
  526.9675 0.09 5
  527.4086 0.18 11
  527.8599 0.06 4
  528.2112 0.11 7
  528.3438 0.14 8
  528.4567 0.13 8
  528.6900 0.13 8
  529.9584 0.10 6
  530.3170 0.01 1
  530.5952 0.11 7
  530.9755 0.04 2
  531.2552 0.12 7
  531.4841 0.13 8
  531.8507 0.08 5
  532.4630 0.10 6
  533.1172 0.12 7
  533.2281 0.02 1
  533.8527 0.15 9
  534.0381 0.14 8
  534.1447 0.04 2
  534.3128 0.01 1
  534.7903 0.09 5
  535.0077 0.15 9
  535.2903 0.12 7
  535.4193 0.19 11
  536.0802 0.13 8
  536.2628 0.13 8
  536.7441 0.08 5
  536.9426 0.02 1
  537.0833 0.14 8
  537.1999 0.10 6
  537.3550 0.10 6
  537.4746 0.12 7
  537.6217 0.10 6
  537.9218 0.03 2
  538.3892 0.10 6
  538.5871 0.07 4
  538.8350 0.14 8
  539.5192 0.11 7
  539.9135 0.08 5
  540.2224 0.15 9
  540.3514 0.03 2
  540.4797 0.13 8
  540.6398 0.11 7
  541.0414 0.10 6
  541.2060 0.12 7
  541.6366 0.03 2
  542.0353 0.19 11
  542.1919 0.35 21
  542.3622 0.15 9
  542.9350 0.12 7
  543.2163 0.11 7
  543.3743 0.11 7
  544.2480 0.17 10
  544.5119 0.17 10
  545.4922 0.06 4
  546.8996 0.11 7
  547.2760 0.17 10
  547.8554 0.16 10
  548.1027 0.07 4
  548.6444 0.06 4
  549.1535 0.11 7
  549.3036 0.15 9
  549.5306 0.18 11
  549.7453 0.09 5
  549.9825 0.08 5
  550.3240 0.01 1
  551.2060 0.12 7
  551.4686 0.10 6
  551.6187 0.08 5
  551.7979 0.12 7
  552.0996 0.07 4
  552.2295 0.10 6
  552.6378 0.06 4
  552.9280 0.20 12
  553.2370 0.38 23
  553.4155 0.06 4
  553.8159 0.11 7
  553.9813 0.13 8
  554.0974 0.10 6
  554.3280 0.14 8
  554.6958 0.28 17
  554.9250 0.08 5
  555.1072 0.10 6
  555.4031 0.18 11
  555.5954 0.11 7
  555.7050 0.10 6
  555.9291 0.22 13
  556.1511 0.31 18
  556.3347 0.25 15
  556.5110 0.23 14
  556.7744 0.30 18
  556.9376 0.34 20
  557.1306 0.27 16
  557.3214 0.16 10
  557.4687 0.08 5
  557.5993 0.11 7
  557.7829 0.16 10
  558.1979 0.24 14
  558.3590 0.17 10
  558.5498 0.18 11
  558.7022 0.10 6
  558.9235 0.17 10
  559.0889 0.18 11
  559.3052 0.08 5
  559.6767 0.12 7
  559.8429 0.05 3
  559.9481 0.11 7
  560.2144 0.03 2
  560.4379 0.29 17
  560.5983 0.13 8
  560.7100 0.18 11
  561.3516 0.11 7
  561.6019 0.16 10
  561.7594 0.12 7
  561.9002 0.05 3
  562.0881 0.11 7
  562.2580 0.14 8
  562.3901 0.09 5
  562.5599 0.16 10
  562.7624 0.10 6
  562.9663 0.15 9
  563.2980 0.15 9
  563.6290 0.14 8
  563.8547 0.21 12
  564.3265 0.90 54
  564.5805 0.53 32
  565.0262 0.13 8
  565.2011 0.22 13
  565.3927 0.26 15
  565.5676 0.12 7
  565.6828 0.11 7
  566.0457 0.21 12
  566.4360 0.10 6
  566.5766 0.17 10
  566.7533 0.17 10
  566.9742 0.10 6
  567.2371 0.53 32
  567.4334 0.58 35
  567.7000 0.27 16
  567.9282 0.11 7
  568.0447 0.18 11
  568.3395 0.25 15
  568.4874 0.11 7
  568.6518 0.21 12
  568.8111 0.08 5
  569.0031 0.13 8
  569.3058 0.20 12
  569.4797 0.14 8
  569.6318 0.09 5
  569.7644 0.19 11
  570.0252 0.32 19
  570.1534 0.22 13
  570.2874 0.27 16
  570.5403 0.39 23
  570.7685 0.26 15
  570.9633 0.13 8
  571.2299 0.33 20
  571.3843 0.25 15
  571.5386 0.21 12
  571.7255 0.34 20
  571.8327 0.17 10
  572.0008 0.21 12
  572.2580 0.24 14
  572.4978 0.30 18
  572.8101 0.27 16
  572.9897 0.15 9
  573.3542 0.26 15
  573.6976 0.22 13
  573.8918 0.11 7
  574.2040 0.48 29
  574.4946 0.32 19
  574.6982 0.25 15
  574.9648 0.38 23
  575.0612 0.21 12
  575.1909 0.22 13
  575.3511 0.42 25
  575.4989 0.27 16
  575.6315 0.22 13
  575.8706 0.49 29
  576.1627 0.77 46
  576.5504 0.66 39
  576.8605 0.68 40
  577.3011 0.60 36
  577.4822 0.91 54
  577.6228 0.63 37
  577.8439 0.51 30
  578.4178 0.95 57
  578.6983 0.63 37
  578.8599 0.60 36
  579.1215 0.73 43
  579.5941 1.00 59
  579.7042 0.55 33
  579.9456 0.54 32
  580.2978 0.71 42
  582.3853 16.79 999
  582.9753 0.61 36
  583.3856 1.65 98
  583.5009 1.10 65
  583.9191 0.44 26
  584.2729 0.56 33
  584.5034 0.73 43
  585.2392 1.48 88
  585.5618 1.78 106
  585.7909 0.42 25
  585.9780 0.22 13
  586.1157 0.12 7
  586.2324 0.11 7
  586.4130 0.22 13
  586.5282 0.14 8
  586.8204 0.27 16
  587.0807 0.45 27
  587.2423 0.21 12
  587.4308 0.22 13
  587.5787 0.56 33
  587.7296 0.26 15
  587.8333 0.17 10
  588.0348 0.26 15
  588.2762 0.33 20
  588.6061 0.19 11
  588.9244 0.25 15
  589.0571 0.08 5
  589.2319 0.11 7
  589.4153 0.25 15
  589.5502 0.17 10
  589.7946 0.31 18
  590.1553 0.47 28
  590.7449 0.47 28
  591.0237 0.39 23
  591.3721 0.24 14
  591.6944 0.37 22
  591.9030 0.38 23
  592.1985 0.46 27
  592.6165 0.63 37
  593.0735 0.51 30
  593.6132 0.72 43
  593.8088 0.47 28
  594.3275 0.71 42
  594.7701 1.02 61
  595.0555 0.84 50
  595.6749 1.14 68
  600.3517 99.97 999
  601.2046 11.12 662
  601.6061 5.83 347
  602.1669 3.02 180
  603.0220 2.00 119
  603.3699 1.06 63
  603.5344 0.71 42
  603.9229 1.12 67
  604.3047 0.72 43
  604.5744 0.60 36
  604.8425 0.61 36
  605.1179 0.41 24
  605.3441 0.45 27
  605.8448 0.47 28
  606.1123 0.26 15
  606.3356 0.20 12
  606.4486 0.22 13
  606.6958 0.19 11
  606.9226 0.31 18
  607.1843 0.22 13
  607.4242 0.11 7
  607.6243 0.08 5
  607.7337 0.10 6
  607.8461 0.07 4
  608.1541 0.18 11
  608.2962 0.16 10
  608.5485 0.04 2
  608.6557 0.11 7
  608.8442 0.01 1
  609.0768 0.11 7
  609.2965 0.07 4
  609.6343 0.09 5
  609.7372 0.19 11
  610.0388 0.01 1
  610.1816 0.06 4
  610.7499 0.01 1
  611.5234 0.11 7
//
