ACCESSION: MSBNK-Kyoto_Univ-CA000122
RECORD_TITLE: Hydratoperidinin; FAB-EBEB; MS2; m/z: 648.37; [M]*+
DATE: 2016.01.19 (Created 2007.10.06, modified 2011.05.10)
AUTHORS: Akimoto N, Graduate School of Pharmaceutical Sciences, Kyoto University and Maoka T, Research Institute for Production Development
LICENSE: CC BY-SA
COMMENT: Profile spectrum of this record is given as a JPEG file.
COMMENT: [Profile] CA000122.jpg
CH$NAME: Hydratoperidinin
CH$COMPOUND_CLASS: Natural Product; Carotenoid
CH$FORMULA: C39H52O8
CH$EXACT_MASS: 648.36622
CH$SMILES: C/C(=C\C=C\C=C\C=C(/C)\C=C/1\C=C(C(=O)O1)/C=C/[C@]2([C@](C[C@H](CC2(C)C)O)(C)O)O)/C=C=C3[C@](C[C@H](CC3(C)C)OC(=O)C)(C)O
CH$IUPAC: InChI=1S/C39H52O8/c1-26(16-17-33-35(4,5)24-32(46-28(3)40)25-37(33,8)43)14-12-10-11-13-15-27(2)20-31-21-29(34(42)47-31)18-19-39(45)36(6,7)22-30(41)23-38(39,9)44/h10-16,18-21,30,32,41,43-45H,22-25H2,1-9H3/b12-10+,13-11+,19-18+,26-14+,27-15+,31-20-/t17?,30-,32-,37+,38+,39-/m0/s1
CH$LINK: INCHIKEY OUSTUFWOJHCUGD-VSWVFQEASA-N
CH$LINK: CHEMSPIDER 9774684
CH$LINK: PUBCHEM CID:11599926
AC$INSTRUMENT: JMS-HX/HX 110A, JEOL
AC$INSTRUMENT_TYPE: FAB-EBEB
AC$MASS_SPECTROMETRY: MS_TYPE MS2
AC$MASS_SPECTROMETRY: ION_MODE POSITIVE
AC$MASS_SPECTROMETRY: ATOM_GUN_CURRENT 5 mA
AC$MASS_SPECTROMETRY: BOMBARDMENT 6 kV xenon
AC$MASS_SPECTROMETRY: COLLISION_ENERGY 3 kV
AC$MASS_SPECTROMETRY: COLLISION_GAS Ar
AC$MASS_SPECTROMETRY: GAS_PRESSURE adjust to attenuate the intensity of the precursor ion by 30 %
AC$MASS_SPECTROMETRY: IONIZATION FAB
AC$MASS_SPECTROMETRY: PROBE_TIP stainless-steel
MS$FOCUSED_ION: BASE_PEAK 648.4160
MS$FOCUSED_ION: PRECURSOR_M/Z 648.37
MS$FOCUSED_ION: PRECURSOR_TYPE [M]+*
PK$SPLASH: splash10-0002-1321019000-c832a5c5d16aa0a5c0bf
PK$NUM_PEAK: 1364
PK$PEAK: m/z int. rel.int.
  1.0957 0.02 0
  1.6073 0.01 0
  2.1967 0.17 2
  4.6801 0.04 0
  9.3480 0.10 1
  9.6984 0.02 0
  10.4873 0.04 0
  10.5572 0.08 1
  12.9382 0.01 0
  13.9802 0.10 1
  14.9457 0.01 0
  15.2393 0.02 0
  16.8599 0.02 0
  17.1570 0.10 1
  18.0805 0.02 0
  21.7774 0.01 0
  22.8802 0.03 0
  22.9488 0.20 2
  24.7278 0.03 0
  25.9496 0.03 0
  26.9750 0.21 2
  27.9725 0.01 0
  28.9737 0.14 1
  29.9943 0.09 1
  30.2269 0.01 0
  30.9726 0.11 1
  36.9506 0.12 1
  37.3025 0.01 0
  37.9576 0.10 1
  38.9572 0.80 8
  39.8846 0.04 0
  39.9782 0.08 1
  40.5484 0.05 0
  40.9806 1.13 11
  41.6979 0.12 1
  41.9559 0.11 1
  42.1094 0.02 0
  42.9582 9.87 99
  43.9688 0.01 0
  44.9663 0.17 2
  46.9812 0.06 1
  47.8003 0.02 0
  47.9560 0.08 1
  48.9680 0.04 0
  49.4426 0.08 1
  49.9476 0.28 3
  50.2839 0.11 1
  50.9468 0.60 6
  51.3377 0.02 0
  51.9522 0.21 2
  52.9745 0.71 7
  53.9547 0.13 1
  54.9817 1.40 14
  55.9776 0.19 2
  56.9900 0.82 8
  58.0005 0.09 1
  58.9990 0.36 4
  60.8378 0.03 0
  60.9938 0.02 0
  61.9718 0.10 1
  62.9583 0.42 4
  63.9718 0.11 1
  64.9838 0.55 5
  65.9873 0.20 2
  66.9531 0.64 6
  67.9869 0.24 2
  68.9643 1.64 16
  69.6020 0.11 1
  69.8781 0.04 0
  70.9669 0.38 4
  71.8977 0.06 1
  72.8487 0.08 1
  72.9682 0.10 1
  73.8451 0.10 1
  73.9538 0.04 0
  74.9421 0.05 0
  75.8447 0.11 1
  75.9782 0.17 2
  76.9656 1.32 13
  77.2951 0.08 1
  77.8718 0.07 1
  78.0043 0.13 1
  78.2419 0.10 1
  78.9706 0.96 10
  79.8826 0.13 1
  79.9959 0.10 1
  80.9625 0.85 8
  81.9027 0.10 1
  82.9891 2.19 22
  83.6443 0.06 1
  83.9199 0.13 1
  84.9683 1.02 10
  85.8263 0.07 1
  86.0059 0.11 1
  86.9585 0.78 8
  87.9444 0.08 1
  88.2233 0.04 0
  88.9303 0.27 3
  89.9730 0.23 2
  90.3270 0.08 1
  90.5604 0.05 0
  90.9727 2.96 30
  91.3927 0.01 0
  91.7373 0.01 0
  91.9656 0.36 4
  92.9575 1.01 10
  93.8856 0.07 1
  94.0007 0.11 1
  94.6456 0.04 0
  94.9740 0.86 9
  95.8911 0.06 1
  95.9960 0.08 1
  96.8469 0.26 3
  96.9735 0.25 2
  98.0354 0.25 2
  98.9177 0.10 1
  99.0266 0.28 3
  100.8906 0.07 1
  101.0135 0.15 1
  101.3343 0.05 0
  101.9669 0.41 4
  102.9692 0.50 5
  103.8492 0.02 0
  104.0262 0.23 2
  104.3927 0.01 0
  104.6444 0.10 1
  104.9648 1.55 15
  105.4506 0.05 0
  106.0013 0.44 4
  106.1599 0.05 0
  106.9725 1.28 13
  107.9386 0.18 2
  108.1094 0.12 1
  109.0031 1.57 16
  109.2695 0.04 0
  109.9153 0.13 1
  110.0098 0.05 0
  110.0947 0.03 0
  110.8715 0.22 2
  111.0207 0.20 2
  111.8937 0.08 1
  112.8907 0.14 1
  113.0280 0.27 3
  113.3201 0.05 0
  113.5950 0.12 1
  113.9915 0.05 0
  114.3098 0.02 0
  114.5907 0.10 1
  114.9789 1.67 17
  115.8711 0.24 2
  116.0217 0.39 4
  116.9977 1.12 11
  117.4092 0.10 1
  117.9537 0.20 2
  118.4071 0.02 0
  118.9707 1.18 12
  119.6155 0.10 1
  119.7845 0.06 1
  119.9774 0.29 3
  120.9723 1.79 18
  121.8097 0.22 2
  121.9983 0.42 4
  122.9597 0.88 9
  123.9492 0.12 1
  124.1808 0.04 0
  124.9720 1.41 14
  125.3475 0.09 1
  125.8385 0.24 2
  126.0346 0.18 2
  126.3228 0.05 0
  126.5098 0.08 1
  126.6437 0.11 1
  126.9676 0.46 5
  127.6102 0.06 1
  127.9587 1.82 18
  128.5574 0.16 2
  128.9447 1.39 14
  129.9584 0.58 6
  130.1777 0.12 1
  130.9813 2.07 21
  131.9564 0.32 3
  132.8963 0.63 6
  133.0256 0.66 7
  133.9611 0.20 2
  134.2059 0.04 0
  134.7831 0.15 1
  134.9693 0.70 7
  135.8024 0.28 3
  135.9717 0.44 4
  136.5064 0.04 0
  136.9645 0.49 5
  137.9794 0.16 2
  138.1111 0.07 1
  138.9582 0.47 5
  139.5560 0.09 1
  139.8040 0.16 2
  139.9194 0.06 1
  140.2916 0.16 2
  140.9738 1.42 14
  141.9449 0.72 7
  142.9445 1.18 12
  143.3036 0.12 1
  143.7498 0.02 0
  143.9671 0.53 5
  144.9734 1.22 12
  145.3769 0.04 0
  145.7776 0.15 1
  145.9823 0.42 4
  146.9865 0.50 5
  147.9882 0.12 1
  148.9610 1.61 16
  149.6935 0.12 1
  149.9342 0.37 4
  150.4127 0.10 1
  150.5244 0.05 0
  150.9463 0.38 4
  151.1573 0.12 1
  151.4289 0.12 1
  151.9360 0.81 8
  152.3293 0.09 1
  152.7139 0.05 0
  152.9823 0.96 10
  153.2831 0.13 1
  153.5941 0.07 1
  153.9961 0.43 4
  154.5682 0.07 1
  154.9793 1.86 19
  155.4823 0.10 1
  155.7618 0.04 0
  155.9951 0.36 4
  156.1573 0.05 0
  156.4141 0.04 0
  156.9825 1.66 17
  157.4181 0.09 1
  157.9119 0.42 4
  158.0553 0.34 3
  158.9806 1.18 12
  159.3795 0.15 1
  159.6975 0.14 1
  159.7866 0.13 1
  160.0105 0.48 5
  160.9677 0.85 8
  162.0224 0.14 1
  162.4859 0.07 1
  162.9998 0.35 3
  163.4009 0.01 0
  163.8132 0.04 0
  164.0150 0.49 5
  164.6243 0.05 0
  164.9808 0.97 10
  165.2745 0.08 1
  165.4107 0.03 0
  165.5306 0.11 1
  165.9985 0.60 6
  166.4429 0.09 1
  166.6273 0.03 0
  166.9882 1.22 12
  167.9602 0.52 5
  168.5930 0.13 1
  169.0042 1.39 14
  169.8159 0.11 1
  170.0730 0.51 5
  170.4869 0.11 1
  171.0162 1.23 12
  171.7191 0.04 0
  172.0323 0.34 3
  172.7887 0.04 0
  173.0486 0.85 8
  173.5604 0.08 1
  173.8473 0.11 1
  174.0314 0.32 3
  174.1696 0.11 1
  174.3271 0.06 1
  175.0371 1.16 12
  175.2387 0.01 0
  175.7802 0.09 1
  176.0161 0.27 3
  176.2416 0.07 1
  176.9914 0.62 6
  178.0322 0.97 10
  178.5518 0.23 2
  178.6443 0.11 1
  178.9903 1.01 10
  180.0357 0.68 7
  180.6644 0.11 1
  181.0027 1.13 11
  181.7028 0.10 1
  181.9980 0.54 5
  182.3554 0.10 1
  182.5363 0.10 1
  183.0375 1.00 10
  183.7655 0.08 1
  184.0298 0.42 4
  184.3607 0.08 1
  184.9875 0.71 7
  186.0029 0.21 2
  186.5645 0.14 1
  187.0355 0.78 8
  187.2861 0.11 1
  187.4707 0.01 0
  187.8451 0.09 1
  188.0020 0.12 1
  188.1161 0.24 2
  188.6777 0.13 1
  188.9910 0.42 4
  190.0895 0.21 2
  190.9565 0.60 6
  191.0760 0.69 7
  192.0083 0.51 5
  192.9915 0.59 6
  193.9588 0.44 4
  194.9983 0.90 9
  196.0099 0.42 4
  196.4310 0.06 1
  197.0552 1.17 12
  197.2357 0.13 1
  197.4132 0.12 1
  197.5499 0.15 1
  198.0386 0.33 3
  199.0263 0.79 8
  199.6516 0.12 1
  199.7900 0.01 0
  200.0630 0.52 5
  200.4080 0.11 1
  200.6993 0.21 2
  201.0133 0.49 5
  201.9998 0.62 6
  202.9837 0.48 5
  203.6893 0.17 2
  204.0266 0.30 3
  204.6788 0.03 0
  205.0155 0.47 5
  205.2469 0.14 1
  205.4662 0.07 1
  206.0134 0.27 3
  206.6366 0.10 1
  207.0345 0.82 8
  207.5442 0.10 1
  207.6513 0.09 1
  207.7926 0.12 1
  208.0373 0.62 6
  208.8117 0.10 1
  209.0284 0.88 9
  209.2193 0.13 1
  209.4976 0.11 1
  209.8626 0.11 1
  210.0216 0.23 2
  210.3016 0.13 1
  210.7589 0.13 1
  210.9111 0.48 5
  211.0861 0.62 6
  211.2460 0.16 2
  211.3137 0.07 1
  211.8520 0.09 1
  212.0362 0.45 4
  212.2990 0.09 1
  212.6006 0.09 1
  212.8291 0.14 1
  213.0455 0.43 4
  213.2436 0.03 0
  213.6307 0.10 1
  214.0324 0.49 5
  214.5120 0.02 0
  214.7316 0.11 1
  215.0328 0.66 7
  215.5721 0.10 1
  215.8125 0.03 0
  216.0322 0.42 4
  216.5466 0.08 1
  216.8061 0.05 0
  217.0367 0.53 5
  217.3902 0.13 1
  217.6537 0.09 1
  217.8988 0.09 1
  218.0646 0.42 4
  218.1823 0.13 1
  219.0105 0.26 3
  219.1725 0.19 2
  220.0838 0.13 1
  221.0321 0.79 8
  221.2464 0.14 1
  221.3856 0.09 1
  221.9687 0.45 4
  222.1386 0.06 1
  222.8567 0.11 1
  223.0879 0.61 6
  223.5260 0.10 1
  223.7757 0.04 0
  224.0699 0.22 2
  224.8223 0.14 1
  225.0683 0.44 4
  225.4600 0.13 1
  225.9346 0.17 2
  226.1470 0.20 2
  226.8227 0.11 1
  227.0897 0.51 5
  227.5285 0.11 1
  228.0635 0.34 3
  228.2807 0.08 1
  228.5586 0.12 1
  229.0722 0.31 3
  229.1682 0.18 2
  229.3133 0.22 2
  229.7565 0.07 1
  229.8556 0.06 1
  230.1037 0.49 5
  231.0650 0.60 6
  231.8660 0.12 1
  232.1489 0.32 3
  232.5627 0.10 1
  233.0857 0.78 8
  233.7804 0.13 1
  234.0190 0.15 1
  234.2067 0.04 0
  234.8964 0.13 1
  235.1382 0.40 4
  235.3776 0.02 0
  235.8250 0.11 1
  236.1123 0.26 3
  236.7286 0.13 1
  236.8195 0.08 1
  237.1170 0.65 6
  237.6456 0.08 1
  237.8884 0.30 3
  238.0588 0.18 2
  238.2076 0.11 1
  238.6087 0.04 0
  238.7771 0.20 2
  239.1008 0.75 7
  240.0906 0.28 3
  240.2576 0.14 1
  240.6407 0.04 0
  241.0939 0.37 4
  241.2702 0.22 2
  241.7528 0.04 0
  241.9306 0.11 1
  242.0784 0.36 4
  242.1870 0.12 1
  243.0479 0.50 5
  243.4576 0.12 1
  243.8544 0.10 1
  244.1757 0.24 2
  244.3814 0.04 0
  244.8029 0.28 3
  245.0851 0.72 7
  245.7796 0.16 2
  246.0302 0.28 3
  246.6657 0.10 1
  247.0683 0.31 3
  247.2889 0.05 0
  248.1647 0.18 2
  249.0446 0.38 4
  250.0916 0.20 2
  250.3828 0.21 2
  250.5241 0.04 0
  250.7844 0.10 1
  250.9621 0.07 1
  251.0950 0.29 3
  251.2217 0.13 1
  251.7703 0.12 1
  252.0083 0.23 2
  252.1745 0.12 1
  252.7967 0.10 1
  253.0580 0.29 3
  253.3495 0.10 1
  254.0957 0.25 2
  254.6341 0.12 1
  254.8097 0.10 1
  254.9049 0.11 1
  255.1068 0.26 3
  255.9657 0.13 1
  256.1863 0.12 1
  256.4882 0.01 0
  257.0998 0.21 2
  257.6922 0.11 1
  258.0895 0.11 1
  258.2475 0.11 1
  258.8835 0.22 2
  259.0276 0.49 5
  259.1299 0.28 3
  260.1450 0.16 2
  260.7621 0.05 0
  261.1078 0.41 4
  261.3482 0.01 0
  261.8228 0.09 1
  262.0260 0.07 1
  262.1881 0.15 1
  263.0096 0.38 4
  263.1477 0.16 2
  263.2711 0.13 1
  263.9865 0.08 1
  264.1573 0.13 1
  264.8784 0.10 1
  265.0406 0.32 3
  265.2324 0.22 2
  265.8450 0.03 0
  266.0081 0.16 2
  267.0371 0.43 4
  267.2065 0.22 2
  268.0152 0.12 1
  268.5125 0.06 1
  268.8972 0.10 1
  269.1086 0.22 2
  269.6497 0.11 1
  269.9754 0.27 3
  270.1931 0.13 1
  271.0423 0.40 4
  271.1823 0.34 3
  272.0209 0.17 2
  272.3243 0.02 0
  273.0293 0.32 3
  273.1554 0.23 2
  274.0474 0.18 2
  274.1424 0.08 1
  274.6827 0.13 1
  275.0806 0.50 5
  276.1905 0.03 0
  276.4366 0.12 1
  277.0997 0.27 3
  277.7293 0.02 0
  278.0918 0.16 2
  278.2500 0.12 1
  278.5057 0.19 2
  279.0327 0.12 1
  279.2221 0.11 1
  280.1259 0.17 2
  281.0932 0.38 4
  282.2433 0.09 1
  282.8200 0.10 1
  283.1042 0.51 5
  283.2650 0.14 1
  283.5772 0.15 1
  284.1082 0.18 2
  284.4697 0.09 1
  285.0148 0.26 3
  285.1800 0.26 3
  285.6125 0.13 1
  285.9952 0.13 1
  286.2773 0.18 2
  287.0515 0.18 2
  287.1614 0.11 1
  288.0153 0.12 1
  288.5793 0.11 1
  289.0527 0.26 3
  289.3765 0.10 1
  290.0428 0.12 1
  290.2200 0.06 1
  290.8209 0.11 1
  291.3463 0.10 1
  291.5960 0.09 1
  291.8849 0.07 1
  292.0013 0.03 0
  292.1980 0.30 3
  292.8578 0.11 1
  293.0921 0.31 3
  294.1223 0.14 1
  294.4567 0.10 1
  295.0552 0.08 1
  295.2279 0.29 3
  296.0829 0.13 1
  296.8802 0.12 1
  297.1733 0.19 2
  297.4282 0.14 1
  298.0788 0.12 1
  298.2657 0.01 0
  298.3736 0.01 0
  298.9367 0.11 1
  299.0728 0.22 2
  299.2152 0.19 2
  300.0687 0.25 2
  300.8731 0.20 2
  301.1478 0.19 2
  301.2644 0.07 1
  302.0906 0.25 2
  302.3565 0.09 1
  302.7851 0.14 1
  302.9032 0.12 1
  303.1652 0.28 3
  303.9529 0.17 2
  304.1485 0.35 3
  304.8214 0.02 0
  305.0374 0.13 1
  305.2025 0.10 1
  306.0423 0.19 2
  306.2106 0.11 1
  306.7218 0.11 1
  307.0326 0.24 2
  307.1868 0.13 1
  308.1335 0.10 1
  308.6058 0.12 1
  308.9528 0.10 1
  309.0718 0.24 2
  309.2050 0.23 2
  309.5332 0.07 1
  310.0331 0.14 1
  310.6035 0.05 0
  310.9232 0.13 1
  311.1340 0.19 2
  311.9060 0.02 0
  312.1514 0.08 1
  312.6696 0.05 0
  312.9416 0.09 1
  313.1917 0.16 2
  314.0394 0.16 2
  314.1821 0.18 2
  314.8228 0.19 2
  315.0621 0.42 4
  315.2237 0.18 2
  315.5579 0.12 1
  316.0270 0.22 2
  316.1981 0.05 0
  316.9898 0.24 2
  317.1562 0.21 2
  317.4285 0.08 1
  318.0729 0.09 1
  318.9576 0.11 1
  319.1845 0.25 2
  319.8794 0.11 1
  320.0349 0.17 2
  320.1762 0.13 1
  321.0535 0.20 2
  321.2176 0.12 1
  322.8855 0.05 0
  323.0977 0.12 1
  323.2249 0.07 1
  323.5071 0.13 1
  323.8128 0.03 0
  324.2081 0.21 2
  324.9218 0.06 1
  325.0264 0.11 1
  325.1490 0.17 2
  325.8204 0.03 0
  326.1074 0.18 2
  326.2781 0.10 1
  326.8466 0.10 1
  327.0393 0.24 2
  327.2343 0.09 1
  327.8919 0.10 1
  328.0170 0.17 2
  328.2199 0.42 4
  328.3961 0.12 1
  328.9429 0.22 2
  329.1396 0.32 3
  330.2090 0.21 2
  331.0912 0.23 2
  331.7100 0.16 2
  331.9674 0.10 1
  332.0595 0.06 1
  332.2028 0.12 1
  332.7508 0.03 0
  333.0854 0.45 4
  333.4807 0.07 1
  334.4746 0.05 0
  334.7637 0.06 1
  334.9488 0.09 1
  335.1174 0.02 0
  336.3496 0.11 1
  336.8933 0.06 1
  337.0690 0.12 1
  337.1770 0.06 1
  337.9257 0.12 1
  338.1038 0.10 1
  339.1065 0.31 3
  339.3423 0.11 1
  340.0590 0.11 1
  340.2175 0.27 3
  340.3058 0.12 1
  341.1220 0.21 2
  341.3578 0.11 1
  342.3170 0.11 1
  342.5142 0.14 1
  343.0451 0.13 1
  343.2084 0.18 2
  344.2066 0.25 2
  344.3265 0.15 1
  344.8655 0.17 2
  345.0889 0.23 2
  345.2239 0.25 2
  345.9587 0.08 1
  347.1153 0.03 0
  347.3238 0.10 1
  347.8675 0.13 1
  348.1701 0.14 1
  348.3120 0.10 1
  349.0239 0.12 1
  349.2722 0.10 1
  349.8832 0.08 1
  350.0891 0.11 1
  350.1947 0.20 2
  352.1057 0.19 2
  352.2674 0.23 2
  352.3770 0.08 1
  353.0152 0.04 0
  353.1872 0.11 1
  353.4168 0.07 1
  353.5778 0.03 0
  353.9368 0.06 1
  354.0938 0.20 2
  354.2800 0.10 1
  355.0100 0.27 3
  355.1899 0.10 1
  355.9911 0.12 1
  356.2224 0.28 3
  356.5389 0.01 0
  356.9360 0.10 1
  357.1428 0.25 2
  358.1772 0.17 2
  358.2798 0.10 1
  359.0529 0.21 2
  360.1326 0.14 1
  360.4091 0.13 1
  360.9984 0.02 0
  361.1635 0.09 1
  361.8730 0.01 0
  362.0374 0.05 0
  362.2215 0.11 1
  362.2934 0.06 1
  362.7217 0.10 1
  363.1073 0.26 3
  363.3073 0.11 1
  364.9593 0.13 1
  366.1017 0.24 2
  366.5065 0.06 1
  366.8544 0.04 0
  367.0031 0.18 2
  367.2095 0.21 2
  367.3716 0.15 1
  367.9814 0.09 1
  368.0882 0.11 1
  368.9511 0.05 0
  369.0634 0.10 1
  369.1758 0.09 1
  369.5089 0.01 0
  370.1236 0.26 3
  370.2375 0.21 2
  371.0541 0.26 3
  371.2922 0.09 1
  371.4434 0.09 1
  372.2253 0.11 1
  372.9637 0.19 2
  373.1237 0.24 2
  373.2899 0.09 1
  374.0910 0.13 1
  374.2889 0.03 0
  375.0688 0.18 2
  375.9256 0.10 1
  376.0483 0.25 2
  376.3737 0.14 1
  377.1440 0.08 1
  378.1507 0.10 1
  378.4006 0.06 1
  379.4527 0.09 1
  379.6425 0.08 1
  379.8522 0.01 0
  380.8799 0.12 1
  380.9828 0.10 1
  381.3389 0.05 0
  383.4116 0.11 1
  383.6015 0.10 1
  383.7298 0.11 1
  384.0234 0.19 2
  384.1335 0.14 1
  384.9069 0.18 2
  385.1302 0.13 1
  386.2474 0.15 1
  386.4002 0.01 0
  387.1787 0.14 1
  388.2970 0.04 0
  388.7913 0.02 0
  389.0979 0.19 2
  389.3284 0.17 2
  389.4615 0.12 1
  390.1175 0.05 0
  391.0041 0.12 1
  391.1880 0.15 1
  391.4945 0.09 1
  393.3633 0.07 1
  393.8486 0.11 1
  394.2912 0.11 1
  395.2200 0.11 1
  395.3277 0.04 0
  395.4552 0.01 0
  396.1156 0.12 1
  396.4435 0.09 1
  398.1195 0.10 1
  399.1510 0.29 3
  399.8767 0.01 0
  400.9330 0.15 1
  401.1414 0.15 1
  402.0568 0.12 1
  402.1765 0.12 1
  402.3041 0.04 0
  402.9319 0.14 1
  403.1498 0.21 2
  403.3147 0.14 1
  403.5652 0.08 1
  404.1971 0.04 0
  404.6046 0.07 1
  405.1160 0.13 1
  406.3339 0.11 1
  407.2174 0.21 2
  407.9875 0.13 1
  408.1168 0.06 1
  408.3024 0.12 1
  409.2781 0.09 1
  410.7721 0.04 0
  411.2823 0.12 1
  411.6378 0.11 1
  412.4163 0.09 1
  412.9782 0.13 1
  413.1885 0.09 1
  413.3766 0.11 1
  414.1759 0.07 1
  415.0491 0.23 2
  416.1979 0.13 1
  416.4695 0.12 1
  417.1150 0.11 1
  418.3348 0.08 1
  419.1862 0.25 2
  419.4078 0.11 1
  420.0210 0.07 1
  420.1735 0.12 1
  421.1403 0.22 2
  421.4073 0.10 1
  422.4076 0.09 1
  424.4109 0.02 0
  425.1572 0.05 0
  425.3992 0.04 0
  426.3955 0.10 1
  427.4363 0.10 1
  428.2225 0.20 2
  430.1484 0.12 1
  431.0158 0.08 1
  431.3666 0.10 1
  432.3643 0.14 1
  432.5025 0.12 1
  433.1891 0.11 1
  433.4416 0.07 1
  434.9517 0.13 1
  435.6941 0.02 0
  436.1078 0.11 1
  436.3381 0.14 1
  437.0830 0.10 1
  437.2649 0.10 1
  437.9932 0.17 2
  438.9813 0.11 1
  439.3737 0.10 1
  440.0228 0.06 1
  440.2111 0.06 1
  441.2185 0.13 1
  443.0198 0.10 1
  444.0979 0.11 1
  444.4631 0.04 0
  444.8586 0.01 0
  445.1460 0.22 2
  445.4430 0.10 1
  445.7391 0.01 0
  446.0472 0.10 1
  446.9899 0.06 1
  448.1979 0.13 1
  448.9335 0.12 1
  451.1571 0.08 1
  451.9270 0.13 1
  452.2369 0.12 1
  452.4109 0.11 1
  454.1950 0.16 2
  455.1606 0.13 1
  456.2305 0.14 1
  456.8601 0.11 1
  457.1884 0.11 1
  457.6989 0.11 1
  457.9461 0.11 1
  459.0282 0.18 2
  459.4146 0.14 1
  459.8798 0.11 1
  462.3404 0.26 3
  462.4939 0.06 1
  463.2448 0.23 2
  463.6155 0.16 2
  463.9814 0.12 1
  464.8517 0.01 0
  465.2368 0.13 1
  466.1708 0.10 1
  466.9761 0.02 0
  467.3206 0.11 1
  467.5665 0.01 0
  469.1884 0.26 3
  469.9350 0.07 1
  470.1244 0.10 1
  471.1528 0.22 2
  471.2475 0.12 1
  471.6893 0.01 0
  472.1065 0.11 1
  472.3509 0.11 1
  472.4583 0.13 1
  473.2250 0.05 0
  474.1797 0.17 2
  475.0356 0.13 1
  475.3343 0.12 1
  476.2835 0.16 2
  476.7701 0.10 1
  477.1596 0.05 0
  477.9290 0.11 1
  478.5279 0.06 1
  479.3157 0.10 1
  479.9968 0.13 1
  480.3339 0.12 1
  482.2994 0.07 1
  483.1893 0.13 1
  484.0895 0.12 1
  484.2677 0.11 1
  485.0447 0.12 1
  485.6659 0.05 0
  486.1058 0.08 1
  486.4033 0.10 1
  487.1184 0.14 1
  487.3412 0.14 1
  488.2664 0.10 1
  488.3873 0.09 1
  489.0970 0.12 1
  489.4129 0.13 1
  490.2205 0.11 1
  490.3478 0.07 1
  491.3688 0.03 0
  492.1495 0.11 1
  492.3293 0.03 0
  492.5164 0.04 0
  493.0090 0.08 1
  493.2828 0.10 1
  493.4491 0.28 3
  494.3215 0.16 2
  494.4345 0.13 1
  494.6582 0.09 1
  494.9456 0.24 2
  495.2353 0.37 4
  495.5171 0.12 1
  495.6723 0.10 1
  496.0003 0.01 0
  496.2511 0.24 2
  496.4063 0.07 1
  496.9540 0.12 1
  497.1555 0.14 1
  497.2534 0.13 1
  497.4389 0.02 0
  499.4152 0.14 1
  499.5656 0.05 0
  500.2314 0.12 1
  501.1528 0.14 1
  502.1428 0.12 1
  502.2495 0.10 1
  503.2459 0.09 1
  503.3965 0.05 0
  503.9708 0.08 1
  504.1699 0.11 1
  504.4320 0.01 0
  504.8462 0.13 1
  504.9785 0.16 2
  505.2222 0.44 4
  505.3792 0.15 1
  505.5050 0.15 1
  505.9854 0.01 0
  506.3352 0.13 1
  507.2283 0.11 1
  508.4156 0.07 1
  509.0826 0.20 2
  509.3588 0.11 1
  509.5068 0.13 1
  510.2722 0.17 2
  511.3313 0.22 2
  511.4721 0.24 2
  511.7379 0.13 1
  512.2345 0.12 1
  512.4390 0.05 0
  513.1568 0.14 1
  513.9646 0.08 1
  514.3116 0.11 1
  514.5050 0.12 1
  515.8120 0.01 0
  517.0840 0.11 1
  518.2145 0.09 1
  520.2424 0.11 1
  523.1266 0.16 2
  523.3783 0.11 1
  523.7924 0.10 1
  523.8896 0.11 1
  524.4376 0.13 1
  525.3026 0.14 1
  526.4680 0.07 1
  526.7993 0.03 0
  527.0287 0.09 1
  527.1658 0.10 1
  527.2877 0.08 1
  527.4517 0.08 1
  527.6262 0.10 1
  528.2237 0.44 4
  528.5918 0.08 1
  529.1224 0.03 0
  529.2714 0.15 1
  529.4506 0.25 2
  529.8889 0.14 1
  530.2650 0.13 1
  530.3868 0.08 1
  530.6283 0.07 1
  531.1868 0.26 3
  531.7167 0.02 0
  534.2837 0.07 1
  534.6567 0.13 1
  534.8225 0.21 2
  535.1206 0.12 1
  535.2664 0.12 1
  536.7044 0.12 1
  537.1340 0.09 1
  537.4706 0.17 2
  538.2198 0.15 1
  538.4139 0.14 1
  538.7250 0.01 0
  539.3725 0.09 1
  540.5173 0.06 1
  541.0782 0.10 1
  541.2381 0.07 1
  541.3726 0.10 1
  542.3934 0.16 2
  542.7308 0.09 1
  543.0562 0.13 1
  543.3610 0.16 2
  544.4217 0.11 1
  545.2015 0.06 1
  546.0197 0.10 1
  546.2377 0.20 2
  547.2540 0.13 1
  548.1973 0.23 2
  548.6629 0.01 0
  549.3785 0.11 1
  550.3775 0.14 1
  550.9666 0.03 0
  551.2126 0.21 2
  551.6489 0.15 1
  551.9347 0.07 1
  552.1154 0.11 1
  552.4164 0.57 6
  552.6624 0.06 1
  553.0963 0.34 3
  553.3288 0.48 5
  553.5063 0.26 3
  554.2556 0.07 1
  554.4403 0.13 1
  555.0272 0.07 1
  555.3353 0.09 1
  556.7098 0.10 1
  558.1760 0.11 1
  558.4173 0.18 2
  558.8889 0.12 1
  559.1804 0.23 2
  559.3922 0.12 1
  560.1569 0.08 1
  560.3265 0.13 1
  560.5416 0.12 1
  560.9702 0.09 1
  561.0809 0.10 1
  561.2457 0.11 1
  561.3509 0.08 1
  561.4641 0.11 1
  562.2742 0.12 1
  563.2461 0.09 1
  563.4532 0.12 1
  565.0339 0.12 1
  565.4913 0.06 1
  565.6769 0.10 1
  565.7853 0.16 2
  566.2458 0.11 1
  566.8466 0.12 1
  568.0460 0.09 1
  568.3026 0.10 1
  568.5376 0.22 2
  569.0612 0.22 2
  569.1840 0.18 2
  569.3665 0.32 3
  569.7219 0.14 1
  569.9514 0.17 2
  570.4790 0.33 3
  570.6631 0.33 3
  570.8066 0.23 2
  570.8911 0.12 1
  571.3295 0.56 6
  571.5550 0.33 3
  571.6889 0.15 1
  572.0054 0.17 2
  572.6805 0.13 1
  573.4816 0.11 1
  573.7056 0.10 1
  573.9941 0.09 1
  574.0978 0.10 1
  574.2883 0.03 0
  574.4661 0.11 1
  575.3813 0.09 1
  576.0007 0.03 0
  576.2375 0.11 1
  576.4464 0.13 1
  576.7852 0.12 1
  577.3386 0.11 1
  577.5307 0.13 1
  578.2738 0.11 1
  578.5824 0.04 0
  578.7156 0.10 1
  579.0034 0.03 0
  579.5169 0.07 1
  580.0648 0.10 1
  581.5728 0.10 1
  582.4899 0.13 1
  583.1542 0.09 1
  583.9842 0.10 1
  584.5762 0.13 1
  585.3283 0.12 1
  585.4612 0.09 1
  585.7040 0.15 1
  586.8293 0.12 1
  587.1246 0.05 0
  587.5377 0.17 2
  587.6985 0.20 2
  587.8529 0.14 1
  587.9994 0.08 1
  588.1292 0.23 2
  588.2724 0.12 1
  588.5406 0.21 2
  588.6592 0.14 1
  588.9586 0.10 1
  589.4640 0.26 3
  589.9369 0.12 1
  590.2362 0.13 1
  590.9686 0.13 1
  591.2734 0.16 2
  591.7814 0.06 1
  592.2607 0.03 0
  593.1070 0.11 1
  594.3021 0.11 1
  595.0752 0.09 1
  595.2568 0.12 1
  596.3612 0.19 2
  597.1647 0.34 3
  597.2682 0.10 1
  597.4394 0.10 1
  597.7675 0.04 0
  597.9013 0.11 1
  598.1323 0.19 2
  598.3226 0.11 1
  598.6276 0.08 1
  598.9263 0.11 1
  599.3356 0.11 1
  599.5912 0.27 3
  599.8947 0.14 1
  600.1998 0.20 2
  600.4586 0.10 1
  600.6920 0.17 2
  600.8266 0.07 1
  600.9365 0.07 1
  601.0599 0.07 1
  601.2344 0.22 2
  601.3260 0.10 1
  601.4924 0.26 3
  601.5984 0.10 1
  602.0859 0.19 2
  602.4833 0.34 3
  602.6968 0.15 1
  602.9166 0.08 1
  603.0592 0.13 1
  603.2241 0.28 3
  603.3683 0.16 2
  603.5029 0.23 2
  603.6057 0.14 1
  603.7610 0.10 1
  604.0940 0.28 3
  604.3282 0.26 3
  604.5226 0.35 3
  604.7656 0.12 1
  604.9974 0.24 2
  605.3280 0.24 2
  605.4690 0.22 2
  605.6459 0.24 2
  605.9454 0.17 2
  606.1979 0.29 3
  606.4202 0.12 1
  606.5812 0.18 2
  606.7485 0.12 1
  606.8505 0.14 1
  606.9747 0.11 1
  607.1787 0.11 1
  607.2943 0.13 1
  607.5221 0.28 3
  607.7141 0.28 3
  608.0225 0.21 2
  608.4193 0.17 2
  608.5419 0.32 3
  608.6957 0.23 2
  608.8755 0.07 1
  609.1478 0.22 2
  609.3969 0.15 1
  609.6500 0.11 1
  609.9899 0.24 2
  610.2780 0.14 1
  610.5295 0.20 2
  610.6760 0.20 2
  610.9800 0.16 2
  611.0891 0.12 1
  611.3995 0.36 4
  611.5181 0.19 2
  611.7952 0.14 1
  612.0117 0.28 3
  612.3206 1.97 20
  612.5187 2.25 22
  612.7241 0.29 3
  612.9630 0.16 2
  613.1914 0.14 1
  613.3634 0.17 2
  613.5624 0.11 1
  613.7336 0.12 1
  613.9780 0.11 1
  614.2391 0.11 1
  614.7701 0.10 1
  615.3425 0.09 1
  615.4436 0.15 1
  616.1570 0.10 1
  616.5575 0.10 1
  616.6992 0.20 2
  617.0646 0.14 1
  617.4269 0.24 2
  617.5822 0.11 1
  617.9230 0.29 3
  618.2407 0.28 3
  618.4541 0.23 2
  618.7121 0.13 1
  618.8690 0.19 2
  618.9741 0.21 2
  619.1923 0.50 5
  619.6000 0.81 8
  619.7943 0.23 2
  620.1144 0.20 2
  620.3804 0.20 2
  620.6384 0.11 1
  620.8845 0.27 3
  621.0748 0.11 1
  621.4379 0.32 3
  621.6959 0.35 3
  621.9086 0.31 3
  622.0710 0.16 2
  622.4629 0.30 3
  622.7535 0.28 3
  622.8849 0.22 2
  623.0060 0.27 3
  623.1183 0.32 3
  623.2274 0.20 2
  623.5014 0.45 4
  623.6870 0.37 4
  623.8423 0.19 2
  623.9896 0.31 3
  624.1322 0.16 2
  624.3393 0.42 4
  624.5623 0.33 3
  624.8180 0.50 5
  624.9821 0.45 4
  625.2131 0.49 5
  625.4568 0.72 7
  625.6997 0.33 3
  625.9586 0.43 4
  626.2740 0.56 6
  626.4118 0.40 4
  626.6110 0.68 7
  626.9535 1.04 10
  627.2203 0.41 4
  627.4904 0.26 3
  627.7827 0.68 7
  628.0990 0.45 4
  628.3069 0.87 9
  628.5435 0.80 8
  628.8980 0.92 9
  629.1633 1.19 12
  629.4031 0.61 6
  630.4682 22.07 221
  631.4482 0.92 9
  631.8195 0.44 4
  631.9868 0.34 3
  632.2330 0.50 5
  632.4178 0.23 2
  632.5525 0.51 5
  632.7103 0.18 2
  633.0791 0.37 4
  633.1746 0.16 2
  633.5064 0.26 3
  633.8168 0.20 2
  633.9640 0.12 1
  634.0674 0.14 1
  634.3245 0.23 2
  634.7041 0.20 2
  634.9014 0.23 2
  635.0972 0.32 3
  635.2723 0.38 4
  635.5238 0.25 2
  635.6957 0.11 1
  635.8389 0.17 2
  635.9464 0.16 2
  636.0825 0.17 2
  636.2075 0.27 3
  636.5306 0.31 3
  636.7885 0.14 1
  637.1339 0.11 1
  637.2883 0.16 2
  637.5899 0.20 2
  638.0730 0.35 3
  638.2847 0.15 1
  638.4789 0.19 2
  638.7424 0.22 2
  638.9605 0.23 2
  639.0759 0.12 1
  639.4238 0.20 2
  639.5702 0.22 2
  639.6976 0.06 1
  639.9698 0.18 2
  640.1179 0.14 1
  640.3813 0.21 2
  640.6122 0.10 1
  640.9242 0.11 1
  641.0707 0.05 0
  641.2450 0.18 2
  641.3970 0.18 2
  641.6064 0.26 3
  641.8261 0.43 4
  642.1844 0.32 3
  642.5554 0.27 3
  642.9032 0.47 5
  643.3076 0.31 3
  643.5449 0.17 2
  643.7009 0.34 3
  643.9557 0.27 3
  644.0695 0.28 3
  644.3434 0.55 5
  644.5058 0.30 3
  644.6619 0.50 5
  644.9062 0.57 6
  645.5527 0.25 2
  645.7844 0.52 5
  646.3959 1.06 11
  648.4160 99.96 999
  649.0443 4.10 41
  649.3628 2.08 21
  649.7888 1.34 13
  649.9728 0.83 8
  650.2809 0.74 7
  650.5159 0.61 6
  650.6950 0.66 7
  650.8940 0.39 4
  651.0347 0.21 2
  651.2939 0.38 4
  651.3766 0.14 1
  651.5627 0.12 1
  651.8982 0.23 2
  652.1201 0.05 0
  652.3268 0.14 1
  652.7578 0.25 2
  653.0154 0.13 1
  653.2809 0.31 3
  653.7064 0.25 2
  653.9425 0.05 0
  654.3632 0.23 2
  654.5071 0.11 1
  654.7202 0.06 1
//
