ACCESSION: MSBNK-Kyoto_Univ-CA000087
RECORD_TITLE: Myxol 2'-(2,4-di-O-methyl-fucoside); FAB-EBEB; MS2; m/z: 758.51; [M]+*
DATE: 2016.01.19 (Created 2010.04.01, modified 2011.05.10)
AUTHORS: Akimoto N, Graduate School of Pharmaceutical Sciences, Kyoto University and Maoka T, Research Institute for Production Development
LICENSE: CC BY-SA
PUBLICATION: Shinichi Takaichi, Takashi Maoka and Kazumori Masamtoto, Myxoxanthophyll in Synechocystis sp. PCC 6803 is Myxol 2'-Dimethyl-Fucoside, (3R,2'S)-Myxol 2'-(2,4-di-O-Methyl-?-L-Fucoside), not Rhamnoside, Plant Cell Physiol, 42, 756-762 (2001).
COMMENT: Profile spectrum of this record is given as a JPEG file.
COMMENT: [Profile] CA000087.jpg
CH$NAME: Myxol 2'-(2,4-di-O-methyl-fucoside)
CH$COMPOUND_CLASS: N/A
CH$FORMULA: C48H70O7
CH$EXACT_MASS: 758.51215
CH$SMILES: C(C=C(C)C=CC=C(C=CC(C(C)(C)O)OC(C(OC)2)OC(C)C(OC)C2O)C)=CC(=CC=CC=C(C=CC=C(C=CC(C1(C)C)=C(C)CC(O)C1)C)C)C
CH$IUPAC: InChI=1S/C48H70O7/c1-33(19-14-15-20-34(2)22-17-25-36(4)27-29-41-38(6)31-40(49)32-47(41,8)9)21-16-23-35(3)24-18-26-37(5)28-30-42(48(10,11)51)55-46-45(53-13)43(50)44(52-12)39(7)54-46/h14-30,39-40,42-46,49-51H,31-32H2,1-13H3/b15-14+,21-16+,22-17+,24-18+,29-27+,30-28+,33-19+,34-20+,35-23+,36-25+,37-26+/t39?,40-,42+,43?,44?,45?,46?/m1/s1
CH$LINK: INCHIKEY YNIWMLHSONPLJN-YDRVKNNDSA-N
AC$INSTRUMENT: JMS-HX/HX 110A, JEOL
AC$INSTRUMENT_TYPE: FAB-EBEB
AC$MASS_SPECTROMETRY: MS_TYPE MS2
AC$MASS_SPECTROMETRY: ION_MODE POSITIVE
AC$MASS_SPECTROMETRY: ATOM_GUN_CURRENT 5 mA
AC$MASS_SPECTROMETRY: BOMBARDMENT 6 kV xenon
AC$MASS_SPECTROMETRY: COLLISION_ENERGY 3 kV
AC$MASS_SPECTROMETRY: COLLISION_GAS Ar
AC$MASS_SPECTROMETRY: GAS_PRESSURE adjust to attenuate the intensity of the precursor ion by 30 %
AC$MASS_SPECTROMETRY: IONIZATION FAB
AC$MASS_SPECTROMETRY: MATRIX 1-2 uL m-NBA
AC$MASS_SPECTROMETRY: PROBE_TIP stainless-steel
MS$FOCUSED_ION: BASE_PEAK 99.0722
MS$FOCUSED_ION: PRECURSOR_M/Z 758.51
MS$FOCUSED_ION: PRECURSOR_TYPE [M]+*
MS$DATA_PROCESSING: RELATIVE_M/Z normalised by peak(m/z=99.0722).  set 999 for peak(m/z=758.6766,rel=2957).
PK$SPLASH: splash10-0a4i-5910020300-308004c5fe236c226faf
PK$NUM_PEAK: 860
PK$PEAK: m/z int. rel.int.
  0.0471 0.02 1
  0.3949 0.02 1
  5.3349 0.01 0
  10.9129 0.01 0
  11.6159 0.01 0
  14.0253 0.02 1
  15.0242 0.22 7
  16.0346 0.01 0
  18.5142 0.02 1
  22.0431 0.01 0
  22.9946 0.01 0
  25.1787 0.01 0
  25.6311 0.01 0
  26.0191 0.05 1
  27.0226 0.49 14
  27.8129 0.02 1
  28.0268 0.06 2
  29.0273 0.95 28
  30.0064 0.04 1
  31.0151 0.34 10
  32.0355 0.01 0
  33.0330 1.00 30
  35.5230 0.01 0
  36.9842 0.02 1
  38.0272 0.09 3
  39.0270 1.05 31
  40.0347 0.12 4
  40.4533 0.01 0
  41.0453 3.26 96
  42.0298 0.23 7
  43.0325 4.40 130
  43.6735 0.01 0
  44.0226 0.09 3
  45.0389 4.79 142
  46.0472 0.01 0
  47.0338 0.04 1
  48.5565 0.01 0
  50.0123 0.19 6
  51.0263 0.65 19
  52.0388 0.19 6
  53.0410 1.69 50
  53.5738 0.02 1
  54.0481 0.14 4
  55.0570 5.03 149
  56.0520 0.13 4
  57.0556 4.03 119
  58.0332 0.09 3
  59.0621 19.85 587
  60.0329 0.45 13
  61.0507 0.52 15
  62.0344 0.12 4
  62.4739 0.01 0
  63.0360 0.50 15
  63.4218 0.01 0
  64.0409 0.12 4
  65.0538 1.26 37
  66.0624 0.24 7
  66.6451 0.01 0
  67.0696 2.29 68
  68.0603 0.15 4
  69.0643 3.92 116
  69.6108 0.02 1
  70.0378 0.07 2
  71.0592 8.85 262
  72.0664 2.12 63
  73.0762 32.84 971
  74.0485 1.00 30
  75.0583 15.62 462
  76.0146 0.11 3
  77.0519 4.02 119
  78.0462 0.68 20
  78.5011 0.03 1
  79.0613 3.77 112
  80.0814 0.50 15
  81.0799 5.25 155
  82.0611 0.52 15
  83.0693 4.65 138
  83.4937 0.03 1
  84.0394 0.08 2
  85.0554 9.45 280
  86.0618 0.12 4
  86.2743 0.06 2
  87.0616 10.57 313
  88.0596 0.36 11
  89.0734 13.51 400
  90.0594 0.22 7
  91.0708 8.63 255
  92.0785 0.70 21
  93.0873 7.17 212
  94.0907 0.44 13
  95.1000 5.50 163
  96.1070 0.18 5
  97.0870 5.18 153
  98.0858 0.19 6
  99.0722 33.77 999
  100.0902 0.13 4
  101.0839 19.99 591
  102.0915 1.77 52
  103.0930 6.27 185
  104.0952 0.60 18
  105.1013 12.57 372
  106.1046 0.97 29
  106.5448 0.05 1
  107.1201 5.77 171
  108.1176 0.40 12
  109.1205 3.97 117
  110.1086 0.20 6
  111.0833 6.12 181
  112.1297 0.07 2
  113.0897 1.75 52
  113.5004 0.10 3
  114.1050 0.37 11
  115.1025 12.75 377
  116.0950 1.95 58
  117.0980 5.43 161
  118.1096 0.99 29
  119.1146 14.84 439
  120.1109 1.19 35
  121.1245 4.90 145
  122.0933 0.23 7
  123.1225 1.32 39
  124.1014 0.08 2
  125.0854 5.78 171
  125.6762 0.05 1
  126.0641 0.32 9
  127.0913 2.15 64
  128.0818 5.17 153
  129.0948 9.70 287
  130.0989 2.53 75
  131.0958 17.11 506
  132.1064 1.60 47
  133.1134 7.83 232
  134.1024 0.58 17
  135.1175 3.06 91
  136.0741 0.15 4
  136.6164 0.03 1
  137.1133 1.03 30
  138.0654 0.10 3
  139.0755 0.72 21
  140.0853 0.21 6
  141.0822 4.44 131
  142.0875 4.53 134
  143.0871 27.35 809
  144.1022 3.25 96
  145.1150 12.81 379
  146.1276 0.87 26
  147.1182 3.73 110
  148.1190 0.37 11
  149.1263 1.78 53
  150.1188 0.19 6
  151.0961 0.73 22
  152.0854 1.84 54
  153.0903 2.84 84
  154.0945 1.29 38
  155.1053 4.90 145
  156.1064 3.61 107
  157.1104 22.28 659
  158.1209 1.85 55
  159.1271 5.76 170
  160.1471 0.66 20
  161.1336 1.96 58
  162.1247 0.19 6
  163.1260 0.89 26
  164.1247 0.20 6
  165.1024 3.60 106
  166.1158 1.40 41
  167.1193 3.56 105
  168.1311 1.63 48
  169.1402 5.48 162
  170.1577 2.17 64
  171.1632 4.85 143
  172.1936 0.83 25
  173.1734 3.15 93
  174.1504 0.47 14
  175.1485 19.40 574
  176.1328 0.43 13
  177.1789 0.70 21
  178.1409 2.10 62
  179.1388 3.07 91
  180.1469 1.74 51
  181.1577 4.51 133
  182.1694 1.77 52
  183.1788 5.14 152
  184.1797 1.17 35
  185.1907 3.12 92
  186.1654 0.51 15
  187.1910 1.57 46
  188.1617 0.25 7
  189.1685 1.37 41
  190.1425 0.40 12
  191.1321 1.62 48
  192.1505 1.29 38
  193.1547 3.24 96
  194.1392 1.82 54
  195.1654 5.35 158
  196.1607 1.45 43
  197.1697 5.29 156
  198.1870 0.72 21
  199.1844 1.61 48
  200.1880 0.31 9
  201.1868 1.01 30
  202.1449 0.84 25
  203.1131 1.40 41
  204.1251 0.51 15
  205.1378 1.47 43
  206.1738 1.37 41
  207.1559 3.02 89
  208.1687 1.64 49
  209.1653 4.40 130
  210.1624 0.83 25
  211.1772 2.07 61
  212.1605 0.30 9
  213.1765 1.04 31
  214.1667 0.34 10
  215.1537 1.23 36
  216.1299 0.54 16
  217.1635 1.33 39
  218.1485 0.49 14
  219.1606 1.80 53
  220.1505 0.75 22
  221.1771 2.09 62
  222.1795 0.73 22
  223.1768 2.00 59
  224.1728 0.27 8
  225.1979 0.95 28
  226.1969 0.27 8
  227.1735 0.79 23
  228.1736 0.39 12
  229.1417 0.82 24
  230.1638 0.52 15
  231.2094 1.09 32
  232.1485 0.49 14
  233.1818 1.52 45
  234.1773 0.59 17
  235.2136 1.96 58
  236.2025 0.40 12
  237.2303 1.17 35
  238.2183 0.19 6
  239.2106 0.82 24
  240.2206 0.36 11
  241.2043 1.05 31
  241.6329 0.06 2
  242.2307 0.26 8
  243.1845 0.73 22
  244.2369 0.33 10
  245.2090 1.02 30
  246.1796 0.33 10
  247.2276 1.30 38
  248.1914 0.24 7
  249.2211 0.92 27
  250.2629 0.23 7
  251.2450 0.61 18
  252.2621 0.36 11
  253.2488 0.70 21
  254.2725 0.37 11
  254.7913 0.34 10
  255.2273 0.82 24
  256.2461 0.18 5
  257.2171 0.77 23
  258.2832 0.37 11
  259.2492 0.92 27
  260.1693 0.24 7
  261.2405 0.91 27
  262.2928 0.31 9
  263.2314 0.71 21
  263.8373 0.06 2
  264.2362 0.21 6
  265.2840 0.46 14
  266.2314 0.30 9
  267.2723 0.63 19
  268.2477 0.15 4
  268.7132 0.03 1
  269.2855 0.68 20
  270.2557 0.22 7
  271.2341 0.52 15
  271.7099 0.03 1
  272.2828 0.36 11
  272.6616 0.05 1
  273.2755 0.46 14
  274.2512 0.15 4
  274.7430 0.17 5
  275.2777 0.51 15
  276.2112 0.19 6
  276.6120 0.06 2
  277.2599 0.46 14
  278.2213 0.12 4
  279.2727 0.30 9
  280.1976 0.14 4
  281.2805 0.31 9
  282.2917 0.11 3
  283.2720 0.55 16
  283.8120 2.31 68
  285.2962 0.95 28
  286.2932 0.17 5
  287.2866 0.54 16
  287.7668 0.06 2
  288.3428 0.13 4
  289.2822 0.46 14
  290.2629 0.09 3
  291.2439 0.21 6
  291.7209 0.06 2
  292.2780 0.16 5
  293.2969 0.33 10
  294.3102 0.25 7
  295.3042 0.27 8
  296.2907 0.17 5
  297.3030 0.41 12
  298.3411 0.24 7
  299.2992 0.28 8
  299.8361 0.02 1
  300.3486 0.11 3
  301.3405 0.30 9
  302.2682 0.11 3
  302.7831 0.04 1
  303.3019 0.28 8
  304.3124 0.07 2
  305.2997 0.22 7
  305.8189 0.04 1
  306.3147 0.22 7
  307.3496 0.82 24
  308.3319 0.10 3
  309.3478 0.29 9
  310.3031 0.16 5
  311.2686 0.11 3
  312.2696 0.09 3
  313.3043 0.21 6
  314.3157 0.14 4
  314.8461 0.03 1
  315.3412 0.25 7
  316.2824 0.09 3
  317.3281 0.18 5
  318.3541 0.13 4
  318.7724 0.03 1
  319.3478 0.36 11
  320.3241 0.40 12
  321.3321 0.23 7
  322.3501 0.10 3
  323.2426 0.14 4
  323.5257 0.07 2
  324.2710 0.06 2
  325.2879 0.15 4
  326.3444 0.08 2
  327.2535 0.09 3
  328.2023 0.04 1
  329.2320 0.13 4
  329.7715 0.01 0
  330.4096 0.05 1
  330.7228 0.02 1
  331.2823 0.18 5
  331.8753 0.05 1
  332.3069 0.26 8
  333.3218 0.41 12
  334.4356 0.08 2
  335.3250 0.23 7
  336.3150 0.10 3
  337.3645 0.25 7
  338.4044 0.15 4
  339.3636 0.12 4
  340.2697 0.07 2
  341.3853 0.10 3
  341.8653 0.03 1
  342.3551 0.09 3
  342.8391 0.03 1
  343.3191 0.24 7
  344.3763 0.11 3
  345.3981 0.17 5
  345.7796 0.03 1
  346.3371 0.09 3
  347.3732 0.19 6
  348.2829 0.15 4
  349.3274 0.31 9
  350.3542 0.15 4
  351.4388 0.19 6
  351.8544 0.06 2
  352.3889 0.04 1
  353.2758 0.04 1
  353.7590 0.02 1
  354.3135 0.05 1
  355.0999 0.04 1
  355.8051 0.02 1
  356.5124 0.05 1
  356.8354 0.03 1
  357.3129 0.14 4
  358.3574 0.24 7
  359.2812 0.29 9
  359.7868 0.03 1
  360.3479 0.14 4
  361.3276 0.21 6
  362.4225 0.29 9
  363.4165 0.24 7
  364.3948 0.16 5
  365.2939 0.12 4
  365.6691 0.03 1
  366.4255 0.06 2
  367.3846 0.22 7
  368.2387 0.05 1
  368.7719 0.02 1
  369.3388 0.07 2
  370.1715 0.06 2
  370.4828 0.02 1
  370.8833 0.01 0
  371.4069 0.13 4
  372.4104 0.15 4
  373.3586 0.49 14
  374.3923 0.09 3
  374.7713 0.05 1
  375.3607 0.10 3
  376.3055 0.14 4
  376.9070 0.02 1
  377.4113 0.06 2
  378.3762 0.07 2
  379.3573 0.08 2
  380.3882 0.26 8
  381.4391 0.05 1
  382.2677 0.03 1
  382.7863 0.03 1
  383.3428 0.14 4
  384.3466 0.20 6
  385.3347 0.20 6
  386.4104 0.29 9
  387.4167 0.16 5
  388.3755 0.08 2
  388.8131 0.03 1
  389.3980 0.06 2
  390.1820 0.03 1
  390.9800 0.06 2
  391.4398 0.05 1
  392.2319 0.05 1
  393.5160 0.06 2
  393.8605 0.04 1
  394.5076 0.02 1
  395.3560 0.05 1
  396.2404 0.05 1
  397.3699 0.08 2
  398.3799 0.06 2
  398.7941 0.04 1
  399.4810 0.14 4
  400.3493 0.10 3
  401.4248 0.26 8
  402.4587 0.27 8
  403.4450 0.34 10
  404.3756 0.11 3
  405.2884 0.04 1
  405.6372 0.04 1
  405.9800 0.02 1
  406.4904 0.04 1
  407.3576 0.03 1
  408.0375 0.01 0
  408.4662 0.06 2
  409.1942 0.05 1
  409.5332 0.03 1
  410.5066 0.07 2
  411.4662 0.16 5
  412.6274 0.07 2
  413.3976 0.16 5
  414.4753 0.11 3
  415.4380 0.22 7
  415.7948 0.04 1
  416.4865 0.33 10
  417.4615 0.10 3
  417.9680 0.03 1
  418.4984 0.08 2
  419.4417 0.31 9
  420.2516 0.02 1
  420.9677 0.03 1
  421.5383 0.05 1
  422.1767 0.02 1
  422.5738 0.08 2
  422.8192 0.02 1
  423.4518 0.04 1
  423.9747 0.05 1
  424.4358 0.27 8
  425.4238 0.28 8
  426.4340 0.08 2
  426.9471 0.03 1
  427.3904 0.14 4
  428.3888 0.23 7
  429.4133 0.24 7
  430.4860 0.11 3
  431.3710 0.26 8
  432.4379 0.19 6
  433.4410 0.73 22
  434.0565 0.05 1
  434.9120 0.06 2
  435.2418 0.03 1
  435.5816 0.05 1
  436.2013 0.02 1
  436.5372 0.03 1
  436.8991 0.07 2
  437.4909 0.08 2
  438.5087 0.02 1
  439.3706 0.07 2
  440.5247 0.08 2
  441.4489 0.15 4
  442.4952 0.18 5
  443.4577 0.08 2
  444.0960 0.04 1
  444.5563 0.05 1
  445.4630 0.30 9
  446.4738 0.41 12
  447.1465 0.01 0
  447.5749 0.02 1
  448.4779 0.05 1
  449.2809 0.05 1
  449.8115 0.02 1
  450.4844 0.03 1
  451.4505 0.08 2
  452.2301 0.01 0
  453.4735 0.08 2
  454.5293 0.15 4
  455.4591 0.03 1
  456.3791 0.05 1
  457.3431 0.05 1
  458.4594 0.12 4
  458.7234 0.04 1
  459.6797 0.05 1
  459.9438 0.03 1
  460.6862 0.05 1
  461.5507 0.11 3
  461.9830 0.01 0
  462.3653 0.02 1
  463.0277 0.03 1
  463.4701 0.04 1
  463.6783 0.02 1
  464.1927 0.02 1
  464.5531 0.05 1
  465.4620 0.06 2
  466.0747 0.02 1
  466.5613 0.03 1
  467.5245 0.14 4
  468.4758 0.16 5
  469.4893 0.27 8
  470.5361 0.07 2
  470.9442 0.02 1
  471.5565 0.10 3
  472.1428 0.07 2
  472.8852 0.04 1
  473.4275 0.03 1
  473.7558 0.03 1
  474.1520 0.03 1
  474.6664 0.02 1
  475.4871 0.09 3
  475.8375 0.05 1
  476.5401 0.12 4
  477.3169 0.07 2
  478.1959 0.06 2
  478.7266 0.06 2
  479.4615 0.12 4
  480.4008 0.14 4
  481.4143 0.08 2
  482.4059 0.09 3
  483.0269 0.03 1
  483.5518 0.03 1
  484.3893 0.06 2
  485.4914 0.12 4
  485.9022 0.04 1
  486.5615 0.02 1
  487.0004 0.02 1
  487.4414 0.04 1
  487.8923 0.02 1
  488.5077 0.08 2
  489.3998 0.10 3
  490.1776 0.05 1
  490.8613 0.08 2
  491.5751 0.09 3
  492.0464 0.04 1
  492.5637 0.08 2
  493.4922 0.21 6
  494.5031 0.81 24
  495.5180 0.39 12
  496.4047 0.14 4
  497.0748 0.08 2
  497.6245 0.04 1
  498.4692 0.09 3
  499.5708 0.08 2
  500.4117 0.07 2
  501.2948 0.05 1
  501.9892 0.08 2
  502.6416 0.05 1
  503.5048 0.13 4
  504.3901 0.07 2
  504.7595 0.05 1
  505.4382 0.14 4
  506.5747 0.62 18
  507.4884 1.02 30
  508.5367 1.52 45
  509.5350 1.10 33
  510.5099 1.21 36
  511.5708 0.18 5
  512.6339 0.08 2
  514.0018 0.06 2
  514.7702 0.06 2
  515.5145 0.05 1
  515.7934 0.03 1
  516.3953 0.02 1
  517.5150 0.03 1
  518.5143 0.09 3
  519.0482 0.03 1
  519.6743 0.17 5
  520.5996 0.20 6
  521.6354 0.18 5
  522.5709 0.44 13
  523.5325 3.21 95
  524.5344 18.64 551
  525.5404 23.17 685
  526.5264 0.40 12
  527.2595 0.21 6
  528.5389 0.09 3
  529.6316 0.06 2
  530.6039 0.03 1
  531.4798 0.04 1
  532.4040 0.08 2
  532.7717 0.02 1
  533.5473 0.09 3
  533.9673 0.05 1
  534.7169 0.07 2
  535.5228 0.06 2
  536.5176 0.23 7
  537.5468 0.37 11
  538.0251 0.06 2
  538.5599 0.05 1
  539.4907 0.14 4
  540.1762 0.05 1
  540.5904 0.02 1
  540.9965 0.02 1
  541.6915 0.03 1
  542.4805 0.10 3
  543.0307 0.03 1
  544.1049 0.04 1
  545.1733 0.02 1
  545.6954 0.06 2
  546.6032 0.10 3
  547.5472 0.09 3
  548.4672 0.16 5
  548.8007 0.12 4
  549.6685 0.24 7
  550.6107 0.25 7
  551.5751 1.29 38
  552.6179 0.41 12
  553.5463 0.33 10
  554.4767 0.10 3
  554.9028 0.03 1
  555.2726 0.01 0
  555.8011 0.02 1
  556.5690 0.05 1
  557.8674 0.04 1
  558.3539 0.01 0
  559.0997 0.08 2
  559.3792 0.06 2
  559.8738 0.04 1
  560.2638 0.03 1
  561.6390 0.07 2
  562.7470 0.08 2
  563.6500 0.07 2
  564.5288 0.11 3
  565.5927 0.63 19
  566.6487 1.66 49
  567.6183 21.49 636
  568.5980 1.70 50
  569.5817 0.14 4
  570.1833 0.11 3
  570.8976 0.04 1
  571.5811 0.05 1
  572.7474 0.06 2
  573.9258 0.02 1
  574.3594 0.03 1
  575.2307 0.04 1
  576.5298 0.06 2
  577.7888 0.14 4
  579.0720 0.11 3
  580.7349 0.16 5
  581.6207 0.30 9
  582.6049 3.57 106
  583.5993 0.96 28
  584.6058 0.81 24
  585.6465 0.04 1
  586.6611 0.05 1
  587.2177 0.02 1
  587.8928 0.03 1
  588.3289 0.04 1
  589.9989 0.04 1
  590.5516 0.05 1
  591.4560 0.01 0
  591.9806 0.01 0
  593.6088 0.08 2
  594.2842 0.06 2
  594.7084 0.04 1
  595.3758 0.04 1
  596.3871 0.06 2
  597.3481 0.06 2
  597.6055 0.03 1
  598.3917 0.04 1
  599.2765 0.05 1
  599.7611 0.07 2
  600.6399 0.03 1
  600.8692 0.02 1
  601.3539 0.01 0
  601.6877 0.01 0
  602.4862 0.03 1
  602.9870 0.01 0
  603.5381 0.04 1
  604.0772 0.02 1
  604.5901 0.03 1
  605.5638 0.05 1
  606.0928 0.03 1
  606.8996 0.05 1
  607.3362 0.04 1
  608.5977 0.40 12
  609.3079 0.03 1
  609.8392 0.06 2
  612.6001 11.84 350
  613.6547 0.16 5
  614.4779 0.07 2
  615.0999 0.03 1
  615.6514 0.04 1
  616.2110 0.07 2
  616.8330 0.09 3
  617.3725 0.05 1
  618.0026 0.03 1
  618.9972 0.04 1
  619.7341 0.03 1
  620.5193 0.02 1
  621.2885 0.02 1
  621.8532 0.08 2
  622.6472 0.03 1
  623.3506 0.04 1
  623.9637 0.07 2
  624.5467 0.04 1
  624.9708 0.01 0
  625.4915 0.04 1
  625.9760 0.04 1
  626.3801 0.08 2
  627.2787 0.05 1
  627.5984 0.03 1
  628.1956 0.05 1
  628.9355 0.02 1
  629.8947 0.07 2
  630.5079 0.06 2
  631.1856 0.03 1
  631.6944 0.04 1
  632.0403 0.04 1
  632.4787 0.03 1
  632.9795 0.04 1
  633.4883 0.05 1
  634.0233 0.06 2
  634.5945 0.06 2
  635.5178 0.04 1
  636.4631 0.07 2
  637.0002 0.04 1
  637.4971 0.02 1
  638.1227 0.03 1
  638.8469 0.09 3
  639.6034 0.05 1
  640.7441 0.13 4
  641.2331 0.04 1
  641.6938 0.04 1
  642.1446 0.03 1
  642.6215 0.03 1
  643.3157 0.08 2
  644.0341 0.10 3
  644.8652 0.07 2
  646.4933 0.18 5
  647.5258 0.16 5
  649.3503 0.14 4
  650.1083 0.10 3
  650.7456 0.12 4
  651.5479 0.11 3
  651.8676 0.06 2
  652.2295 0.07 2
  652.6095 0.08 2
  653.4380 0.05 1
  653.8984 0.02 1
  654.4213 0.09 3
  654.7953 0.05 1
  655.1372 0.04 1
  656.4866 0.11 3
  657.3133 0.02 1
  657.9770 0.03 1
  658.7574 0.10 3
  659.7510 0.06 2
  660.3505 0.02 1
  660.9177 0.04 1
  662.3661 0.11 3
  666.1747 1.16 34
  667.3619 0.25 7
  668.5673 0.19 6
  669.4307 0.21 6
  670.8334 0.27 8
  672.4052 0.14 4
  672.9910 0.09 3
  673.7900 0.11 3
  674.1342 0.06 2
  674.9189 0.09 3
  675.6741 0.07 2
  676.8694 0.15 4
  677.9662 0.13 4
  678.4785 0.09 3
  678.9426 0.04 1
  679.6859 0.07 2
  680.1841 0.10 3
  680.8492 0.06 2
  688.7327 1.23 36
  700.4374 21.35 632
  702.2387 0.19 6
  703.8069 0.06 2
  704.2714 0.05 1
  704.7720 0.03 1
  705.1400 0.02 1
  705.8679 0.03 1
  706.2661 0.03 1
  706.6923 0.01 0
  707.5449 0.02 1
  708.4841 0.05 1
  709.5580 0.06 2
  709.7953 0.03 1
  710.6379 0.12 4
  711.1589 0.03 1
  711.5510 0.06 2
  712.6512 0.25 7
  713.6791 0.10 3
  714.8256 0.04 1
  715.4653 0.04 1
  715.7328 0.02 1
  716.2236 0.02 1
  716.6280 0.01 0
  717.1430 0.02 1
  718.4627 0.04 1
  719.2947 0.01 0
  719.8589 0.03 1
  720.7104 0.02 1
  721.0939 0.03 1
  721.5739 0.03 1
  722.5016 0.12 4
  722.8571 0.06 2
  723.4536 0.02 1
  723.8472 0.03 1
  724.6907 0.08 2
  725.5905 0.13 4
  726.7173 0.37 11
  727.7336 1.14 34
  728.5130 0.12 4
  729.0312 0.09 3
  729.5174 0.03 1
  730.0276 0.06 2
  730.4856 0.03 1
  730.9276 0.02 1
  731.3816 0.06 2
  731.7030 0.02 1
  732.3961 0.06 2
  733.1274 0.04 1
  733.7301 0.06 2
  734.4213 0.07 2
  735.3455 0.09 3
  736.2235 0.08 2
  740.7468 2.39 71
  742.6942 3.76 111
  743.6690 2.48 73
  758.6766 99.96 999
  761.9304 3.20 95
  762.9219 1.62 48
//
