ACCESSION: MSBNK-Kyoto_Univ-CA000137
RECORD_TITLE: 4-Ketoalloxanthin; FAB-EBEB; MS2; m/z: 578.38; [M]*+
DATE: 2016.01.19 (Created 2007.03.15, modified 2011.05.10)
AUTHORS: Akimoto N, Graduate School of Pharmaceutical Sciences, Kyoto University and Maoka T, Research Institute for Production Development
LICENSE: CC BY-SA
COMMENT: Profile spectrum of this record is given as a JPEG file.
COMMENT: [Profile] CA000137.jpg
CH$NAME: 4-Ketoalloxanthin
CH$COMPOUND_CLASS: Natural Product; Carotenoid
CH$FORMULA: C40H50O3
CH$EXACT_MASS: 578.37600
CH$SMILES: CC(C)(C=1C#CC(C)=CC=CC(=CC=CC=C(C=CC=C(C#CC(C(C)(C)2)=C(C)C(=O)C(O)C2)C)C)C)CC(CC(C)1)O
CH$IUPAC: InChI=1S/C40H50O3/c1-28(17-13-19-30(3)21-23-35-32(5)25-34(41)26-39(35,7)8)15-11-12-16-29(2)18-14-20-31(4)22-24-36-33(6)38(43)37(42)27-40(36,9)10/h11-20,34,37,41-42H,25-27H2,1-10H3/b12-11+,17-13+,18-14+,28-15+,29-16+,30-19+,31-20+/t34-,37+/m1/s1
CH$LINK: CHEMSPIDER 17220896
CH$LINK: PUBCHEM CID:16061219
CH$LINK: INCHIKEY MMOXINAUTUSUTD-RREWOKSTSA-N
AC$INSTRUMENT: JMS-HX/HX 110A, JEOL
AC$INSTRUMENT_TYPE: FAB-EBEB
AC$MASS_SPECTROMETRY: MS_TYPE MS2
AC$MASS_SPECTROMETRY: ION_MODE POSITIVE
AC$MASS_SPECTROMETRY: ATOM_GUN_CURRENT 5 mA
AC$MASS_SPECTROMETRY: BOMBARDMENT 6 kV xenon
AC$MASS_SPECTROMETRY: COLLISION_ENERGY 3 kV
AC$MASS_SPECTROMETRY: COLLISION_GAS Ar
AC$MASS_SPECTROMETRY: GAS_PRESSURE adjust to attenuate the intensity of the precursor ion by 30 %
AC$MASS_SPECTROMETRY: IONIZATION FAB
AC$MASS_SPECTROMETRY: MATRIX 1-2 uL m-NBA
AC$MASS_SPECTROMETRY: PROBE_TIP stainless-steel
MS$FOCUSED_ION: BASE_PEAK 578.4086
MS$FOCUSED_ION: PRECURSOR_M/Z 578.38
MS$FOCUSED_ION: PRECURSOR_TYPE [M]+*
PK$SPLASH: splash10-01t9-2961160000-8282328182533544bd48
PK$NUM_PEAK: 1510
PK$PEAK: m/z int. rel.int.
  1.7607 0.01 0
  3.1729 0.10 1
  11.9572 0.02 0
  12.9787 0.02 0
  13.9788 0.06 1
  14.9861 0.14 1
  15.9915 0.01 0
  18.9854 0.01 0
  22.9485 0.09 1
  24.9655 0.02 0
  25.9706 0.19 2
  26.9743 0.95 9
  27.9816 0.12 1
  28.9793 0.90 9
  29.9689 0.03 0
  30.9596 0.16 2
  31.9775 0.01 0
  35.5610 0.01 0
  35.9608 0.01 0
  36.2422 0.01 0
  36.9600 0.14 1
  37.3359 0.01 0
  37.9650 0.33 3
  38.9706 2.02 20
  39.3066 0.01 0
  39.6149 0.01 0
  39.6980 0.01 0
  39.9824 0.20 2
  40.7078 0.01 0
  40.9879 4.19 42
  41.7229 0.03 0
  41.9844 0.05 0
  42.9806 3.07 31
  43.7066 0.01 0
  43.9786 0.08 1
  44.9817 0.14 1
  48.6131 0.01 0
  48.9658 0.06 1
  49.9686 0.78 8
  50.9690 1.73 17
  51.9790 0.57 6
  52.9845 2.48 25
  54.0015 0.06 1
  54.9967 4.31 43
  55.9942 0.07 1
  56.8298 0.04 0
  57.0060 2.50 25
  57.9988 0.03 0
  58.9920 0.47 5
  59.9661 0.02 0
  60.9600 0.10 1
  61.9521 0.49 5
  62.6902 0.02 0
  62.9661 1.51 15
  63.5122 0.02 0
  63.6215 0.01 0
  63.7527 0.01 0
  63.9711 0.37 4
  64.4192 0.01 0
  64.9825 2.02 20
  65.9862 0.32 3
  66.5310 0.01 0
  66.9972 2.74 27
  67.2417 0.01 0
  67.6298 0.01 0
  67.9980 0.09 1
  68.9973 3.39 34
  69.9809 0.06 1
  70.9869 1.18 12
  71.9025 0.02 0
  72.9597 0.10 1
  73.3250 0.02 0
  73.9539 0.57 6
  74.5817 0.02 0
  74.9583 0.83 8
  75.2399 0.02 0
  75.4012 0.01 0
  75.5829 0.03 0
  75.7088 0.02 0
  75.9601 0.56 6
  76.1165 0.02 0
  76.3541 0.03 0
  76.5043 0.03 0
  76.9727 7.47 75
  77.2115 0.05 0
  77.3463 0.08 1
  77.4470 0.03 0
  77.7068 0.04 0
  77.9767 1.39 14
  78.2068 0.06 1
  78.4225 0.04 0
  78.5013 0.02 0
  78.6189 0.03 0
  78.9860 4.57 46
  79.2134 0.04 0
  79.9978 0.31 3
  80.2388 0.04 0
  80.3144 0.02 0
  80.5450 0.01 0
  80.9995 4.70 47
  81.3467 0.01 0
  81.4978 0.02 0
  81.8176 0.01 0
  81.9886 0.13 1
  82.2743 0.03 0
  82.4948 0.01 0
  82.7232 0.01 0
  82.9970 1.99 20
  83.9700 0.10 1
  84.9946 3.24 32
  85.4025 0.01 0
  85.9302 0.37 4
  86.5595 0.01 0
  86.9563 0.78 8
  87.6536 0.03 0
  87.9803 0.28 3
  88.2126 0.03 0
  88.4190 0.03 0
  88.5996 0.03 0
  88.9670 1.81 18
  89.2301 0.06 1
  89.4854 0.05 0
  89.9676 0.60 6
  90.2052 0.03 0
  90.6584 0.05 0
  90.9838 14.69 147
  91.2694 0.02 0
  91.5138 0.01 0
  91.5996 0.01 0
  91.9903 0.88 9
  92.1474 0.02 0
  92.3509 0.02 0
  92.5898 0.04 0
  93.0058 5.52 55
  93.1883 0.04 0
  93.3306 0.03 0
  93.4247 0.01 0
  93.7192 0.03 0
  94.0072 0.31 3
  94.1472 0.03 0
  94.3282 0.03 0
  94.5117 0.05 0
  94.6897 0.01 0
  95.0173 2.55 25
  95.9761 0.05 0
  96.9928 0.47 5
  97.5072 0.05 0
  97.9636 0.35 3
  98.2971 0.01 0
  98.4988 0.03 0
  98.6135 0.07 1
  98.8024 0.06 1
  98.9697 0.29 3
  99.9704 0.14 1
  100.5734 0.01 0
  100.9774 0.62 6
  101.1436 0.05 0
  101.2781 0.05 0
  101.9727 1.55 15
  102.2324 0.02 0
  102.5351 0.05 0
  102.9886 3.24 32
  103.2836 0.06 1
  103.5153 0.06 1
  103.9933 1.22 12
  104.3089 0.02 0
  104.4343 0.01 0
  104.6515 0.08 1
  105.0055 13.55 135
  105.2104 0.04 0
  105.3917 0.04 0
  105.5061 0.02 0
  105.6180 0.07 1
  106.0046 0.81 8
  106.2023 0.03 0
  106.3520 0.03 0
  107.0179 4.12 41
  107.4234 0.04 0
  107.5317 0.02 0
  107.7133 0.02 0
  107.9958 0.21 2
  108.2395 0.02 0
  108.4213 0.02 0
  108.6759 0.02 0
  109.0223 2.03 20
  109.4561 0.02 0
  109.9575 0.16 2
  110.6198 0.02 0
  110.9900 0.40 4
  111.1839 0.04 0
  111.3439 0.03 0
  111.8286 0.02 0
  111.9781 0.09 1
  112.1825 0.02 0
  112.2897 0.04 0
  112.3863 0.06 1
  112.4784 0.03 0
  112.9691 0.55 5
  113.2642 0.12 1
  113.3621 0.05 0
  113.5669 0.06 1
  113.9755 0.41 4
  114.1154 0.14 1
  114.3496 0.08 1
  114.5402 0.08 1
  114.9665 11.19 112
  115.2378 0.09 1
  115.3829 0.06 1
  115.5370 0.08 1
  115.9773 3.33 33
  116.4472 0.07 1
  116.9815 5.93 59
  117.2937 0.02 0
  117.4393 0.02 0
  117.5500 0.02 0
  117.6919 0.02 0
  117.9853 0.98 10
  118.3348 0.02 0
  118.5227 0.04 0
  118.9950 11.95 119
  119.2889 0.07 1
  119.4177 0.08 1
  119.5224 0.05 0
  119.6627 0.02 0
  119.9844 0.46 5
  120.2169 0.02 0
  120.3752 0.05 0
  120.4992 0.05 0
  121.0034 2.75 27
  121.5279 0.02 0
  121.9496 0.27 3
  122.2659 0.01 0
  122.4344 0.06 1
  122.7413 0.03 0
  122.9810 0.76 8
  123.2555 0.03 0
  123.5922 0.02 0
  123.9998 0.16 2
  124.9589 0.36 4
  125.3016 0.04 0
  125.4501 0.07 1
  125.5614 0.03 0
  125.9539 0.92 9
  126.1876 0.06 1
  126.4085 0.12 1
  126.9567 4.52 45
  127.2687 0.15 1
  127.5015 0.13 1
  127.9550 13.56 136
  128.9655 12.28 123
  129.1897 0.08 1
  129.4548 0.02 0
  129.9702 3.47 35
  130.1818 0.05 0
  130.3902 0.05 0
  130.5915 0.05 0
  130.9800 6.38 64
  131.4471 0.07 1
  131.9800 1.25 12
  132.1571 0.05 0
  132.4808 0.06 1
  132.9774 4.48 45
  133.3521 0.05 0
  133.5340 0.06 1
  133.7933 0.09 1
  133.9818 0.45 4
  134.1956 0.01 0
  134.4349 0.06 1
  134.6223 0.01 0
  134.9710 1.52 15
  135.1949 0.04 0
  135.4462 0.06 1
  135.7524 0.02 0
  135.9801 0.20 2
  136.2992 0.01 0
  136.9598 0.70 7
  137.4472 0.02 0
  137.5668 0.03 0
  137.6897 0.03 0
  137.9420 0.28 3
  138.2650 0.04 0
  138.4639 0.02 0
  138.5731 0.04 0
  138.9435 2.59 26
  139.2132 0.02 0
  139.3586 0.10 1
  139.9664 0.72 7
  140.1742 0.23 2
  140.3741 0.17 2
  140.9583 11.40 114
  141.2549 0.04 0
  141.4800 0.06 1
  141.9736 8.17 82
  142.2225 0.06 1
  142.3440 0.06 1
  142.5444 0.12 1
  142.9821 11.79 118
  143.2635 0.07 1
  143.4417 0.07 1
  143.5837 0.04 0
  143.9817 3.01 30
  144.4016 0.11 1
  144.6248 0.05 0
  144.9936 5.55 55
  145.3197 0.06 1
  145.3974 0.03 0
  145.9518 0.74 7
  146.2914 0.07 1
  146.3923 0.10 1
  146.5585 0.03 0
  147.0065 2.63 26
  147.2369 0.06 1
  147.3709 0.06 1
  147.5815 0.04 0
  147.9990 0.21 2
  148.3320 0.04 0
  148.5282 0.01 0
  148.6664 0.02 0
  149.0108 1.16 12
  149.5016 0.05 0
  149.9542 0.63 6
  150.2395 0.09 1
  150.5011 0.13 1
  150.9707 2.25 22
  151.4272 0.17 2
  151.9728 7.07 71
  152.9798 7.77 78
  153.3834 0.08 1
  153.5355 0.04 0
  153.9851 3.28 33
  154.2336 0.12 1
  154.4715 0.12 1
  155.0026 11.06 111
  155.3970 0.07 1
  155.6298 0.06 1
  156.0190 5.28 53
  156.6068 0.10 1
  157.0310 9.62 96
  157.4754 0.14 1
  158.0272 1.81 18
  158.5380 0.14 1
  159.0376 3.11 31
  159.4787 0.05 0
  159.5889 0.02 0
  160.0369 0.56 6
  160.2132 0.07 1
  160.4289 0.03 0
  160.5224 0.01 0
  161.0336 1.08 11
  161.2976 0.05 0
  161.4326 0.06 1
  161.5309 0.02 0
  161.6426 0.02 0
  161.8031 0.05 0
  162.0411 0.35 3
  162.2498 0.05 0
  162.5476 0.06 1
  163.0060 1.17 12
  163.2336 0.11 1
  163.5014 0.16 2
  163.6816 0.13 1
  164.0179 1.01 10
  164.2919 0.29 3
  164.4547 0.21 2
  165.0191 16.65 166
  165.3644 0.15 1
  165.5770 0.09 1
  166.0292 4.18 42
  166.3285 0.12 1
  166.5218 0.14 1
  167.0394 8.96 90
  167.2664 0.13 1
  167.4645 0.10 1
  167.6022 0.05 0
  168.0484 2.90 29
  168.2728 0.12 1
  168.4651 0.09 1
  169.0601 8.37 84
  169.4755 0.11 1
  170.0655 2.91 29
  170.4202 0.10 1
  170.5899 0.10 1
  171.0676 5.86 59
  171.2931 0.13 1
  171.6488 0.07 1
  172.0570 1.08 11
  172.2981 0.03 0
  172.5413 0.07 1
  172.7368 0.05 0
  173.0720 2.66 27
  173.4894 0.09 1
  174.0360 0.43 4
  174.3009 0.05 0
  174.6628 0.05 0
  175.0457 0.93 9
  175.2664 0.09 1
  175.4912 0.08 1
  175.6622 0.06 1
  176.0163 1.89 19
  176.2493 0.12 1
  177.0294 1.39 14
  177.5854 0.26 3
  178.0196 9.21 92
  179.0226 12.20 122
  179.5341 0.10 1
  180.0438 4.65 46
  180.2849 0.17 2
  181.0441 9.78 98
  181.2887 0.12 1
  181.5279 0.12 1
  182.0477 3.08 31
  182.2729 0.08 1
  183.0588 6.36 64
  183.4600 0.18 2
  184.0556 1.53 15
  184.3507 0.05 0
  185.0584 2.14 21
  185.3172 0.04 0
  185.6173 0.07 1
  185.7854 0.11 1
  186.0544 0.72 7
  186.3005 0.04 0
  186.6205 0.08 1
  187.0246 1.36 14
  188.0238 0.81 8
  188.2926 0.10 1
  188.4921 0.03 0
  189.0060 5.39 54
  189.3618 0.10 1
  190.0071 2.43 24
  191.0170 7.37 74
  191.4045 0.12 1
  191.5548 0.18 2
  191.6357 0.08 1
  192.0281 5.59 56
  192.4805 0.08 1
  193.0364 10.69 107
  193.5217 0.12 1
  194.0385 4.82 48
  195.0398 8.31 83
  195.4187 0.11 1
  195.7083 0.10 1
  196.0512 2.45 24
  196.3757 0.05 0
  196.5742 0.11 1
  196.7487 0.12 1
  197.0618 4.43 44
  197.4827 0.13 1
  198.0470 0.99 10
  198.3657 0.06 1
  198.6770 0.11 1
  199.0621 1.52 15
  199.3981 0.09 1
  199.5675 0.05 0
  200.0026 0.71 7
  200.4003 0.16 2
  201.0427 1.21 12
  201.2443 0.22 2
  201.4542 0.12 1
  202.0088 5.74 57
  202.4999 0.17 2
  203.0226 6.22 62
  203.4462 0.14 1
  204.0301 2.26 23
  204.3279 0.13 1
  204.6162 0.15 1
  205.0381 6.03 60
  205.2949 0.14 1
  205.5457 0.08 1
  205.6594 0.06 1
  206.0527 4.30 43
  207.0515 8.58 86
  207.4149 0.08 1
  208.0555 3.50 35
  208.5659 0.13 1
  209.0648 6.42 64
  209.4437 0.13 1
  210.0616 1.60 16
  211.0547 2.14 21
  211.3996 0.08 1
  211.5673 0.02 0
  211.8002 0.11 1
  212.0744 0.59 6
  212.5267 0.09 1
  213.0389 1.97 20
  213.3030 0.08 1
  213.5045 0.11 1
  213.6991 0.14 1
  214.0554 0.52 5
  215.0243 6.77 68
  215.5735 0.16 2
  216.0445 2.95 29
  216.2807 0.18 2
  216.4590 0.16 2
  217.0548 5.81 58
  217.4303 0.08 1
  218.0566 2.30 23
  218.3695 0.20 2
  219.0672 6.82 68
  219.3637 0.13 1
  219.5726 0.04 0
  220.0685 2.91 29
  220.4838 0.13 1
  221.0889 6.35 63
  221.4768 0.11 1
  221.7101 0.11 1
  222.1077 1.83 18
  223.1049 3.45 34
  223.3563 0.12 1
  224.0865 1.48 15
  224.4797 0.10 1
  224.6767 0.11 1
  225.0983 1.92 19
  225.7143 0.18 2
  226.0662 2.73 27
  226.5047 0.20 2
  227.0719 2.47 25
  227.4635 0.19 2
  228.0697 2.70 27
  228.3140 0.10 1
  228.4428 0.06 1
  229.0797 5.32 53
  229.4640 0.11 1
  229.5844 0.11 1
  230.0998 2.61 26
  230.3830 0.12 1
  231.0947 5.91 59
  232.1080 2.52 25
  232.3935 0.09 1
  233.1071 5.26 53
  233.3762 0.11 1
  233.5712 0.08 1
  233.6923 0.06 1
  234.1136 1.85 18
  234.3550 0.16 2
  234.5176 0.13 1
  235.1073 3.46 35
  235.5689 0.07 1
  235.7316 0.13 1
  236.1207 1.36 14
  236.5161 0.12 1
  237.1269 2.71 27
  237.5931 0.08 1
  237.7296 0.08 1
  238.0981 0.69 7
  239.0801 3.61 36
  239.7325 0.21 2
  240.0812 1.14 11
  240.4799 0.21 2
  241.0750 3.17 32
  241.4482 0.08 1
  241.6570 0.07 1
  242.0920 1.90 19
  243.0886 4.43 44
  243.5142 0.13 1
  244.0974 1.99 20
  244.5432 0.12 1
  245.1058 5.26 53
  245.6698 0.14 1
  246.1048 1.97 20
  246.3494 0.17 2
  247.1153 4.55 45
  247.6053 0.17 2
  248.1087 1.16 12
  248.4418 0.11 1
  248.6226 0.15 1
  249.1247 2.78 28
  249.4329 0.09 1
  249.6757 0.11 1
  250.0910 0.76 8
  250.3819 0.11 1
  250.6922 0.14 1
  251.1223 1.64 16
  251.6702 0.21 2
  252.0816 1.81 18
  252.4165 0.07 1
  253.0774 2.93 29
  253.5698 0.05 0
  253.6938 0.05 0
  254.1020 1.05 10
  254.3138 0.15 1
  254.4866 0.15 1
  254.7131 0.15 1
  255.1040 3.10 31
  255.5605 0.04 0
  255.7048 0.13 1
  256.1040 2.07 21
  256.4357 0.11 1
  257.1047 3.34 33
  257.4616 0.10 1
  257.6846 0.17 2
  258.1203 1.75 17
  258.5861 0.09 1
  259.1209 3.60 36
  259.4822 0.10 1
  259.6517 0.12 1
  260.1281 0.98 10
  261.1314 2.67 27
  261.5278 0.17 2
  262.1336 0.69 7
  262.3870 0.18 2
  262.5797 0.12 1
  262.7836 0.09 1
  263.1152 2.02 20
  263.3931 0.20 2
  263.5307 0.16 2
  264.1257 0.84 8
  265.0869 2.24 22
  265.4593 0.08 1
  266.0818 1.19 12
  266.5291 0.09 1
  267.1107 2.95 29
  267.3987 0.14 1
  267.6637 0.09 1
  268.1202 1.21 12
  268.5111 0.09 1
  269.1217 3.14 31
  269.4574 0.13 1
  269.6400 0.09 1
  270.1423 1.15 11
  270.7860 0.19 2
  271.1387 2.97 30
  271.5685 0.13 1
  272.1193 1.17 12
  272.4637 0.10 1
  273.1380 2.25 22
  273.4804 0.10 1
  273.7241 0.07 1
  274.1221 0.76 8
  274.4109 0.04 0
  274.5683 0.12 1
  274.7109 0.07 1
  275.1530 1.39 14
  275.4313 0.14 1
  275.7384 0.16 2
  276.1134 1.44 14
  277.1147 1.87 19
  278.1324 0.69 7
  278.4866 0.11 1
  279.1125 2.15 21
  279.4353 0.06 1
  279.5620 0.07 1
  279.7336 0.09 1
  280.1405 1.19 12
  281.1281 3.07 31
  281.5786 0.17 2
  281.6662 0.10 1
  282.1216 1.36 14
  282.4993 0.08 1
  282.6598 0.07 1
  282.7853 0.08 1
  283.1385 2.46 25
  283.4911 0.12 1
  283.7140 0.14 1
  284.1192 0.79 8
  284.5286 0.09 1
  284.7881 0.15 1
  285.1239 2.07 21
  285.6162 0.08 1
  285.7621 0.07 1
  286.1381 0.60 6
  286.7645 0.15 1
  287.1433 1.54 15
  287.5194 0.08 1
  287.7327 0.09 1
  288.1573 0.57 6
  289.1118 2.09 21
  289.5378 0.09 1
  290.1233 0.73 7
  290.3603 0.23 2
  290.4984 0.07 1
  290.6884 0.07 1
  291.1345 1.31 13
  291.3890 0.06 1
  291.6570 0.12 1
  292.1409 0.79 8
  292.4061 0.08 1
  292.6285 0.11 1
  293.1393 2.09 21
  293.5322 0.05 0
  294.1609 0.90 9
  294.4669 0.12 1
  294.6880 0.11 1
  295.1365 2.50 25
  295.5128 0.07 1
  295.7227 0.08 1
  296.1432 0.73 7
  296.4326 0.05 0
  296.7043 0.09 1
  297.1481 2.26 23
  297.5849 0.10 1
  298.1272 0.69 7
  298.4152 0.06 1
  299.1388 1.37 14
  299.5779 0.06 1
  300.1049 0.67 7
  300.4085 0.08 1
  300.5428 0.06 1
  300.7002 0.10 1
  301.1381 1.27 13
  301.4368 0.09 1
  301.6273 0.06 1
  302.1096 0.78 8
  302.3789 0.11 1
  303.1144 1.28 13
  303.4006 0.09 1
  303.5089 0.03 0
  303.6566 0.07 1
  304.1060 0.74 7
  304.3282 0.11 1
  305.0999 1.33 13
  306.0821 0.69 7
  306.3805 0.05 0
  307.1433 1.96 20
  307.5016 0.08 1
  308.1083 0.68 7
  308.3899 0.10 1
  308.5870 0.07 1
  309.1221 1.62 16
  309.5347 0.03 0
  309.7368 0.10 1
  310.1347 0.73 7
  310.5573 0.15 1
  310.7678 0.12 1
  311.1447 1.23 12
  311.4173 0.05 0
  311.6117 0.08 1
  312.1267 0.50 5
  312.4980 0.12 1
  313.1223 1.31 13
  313.6169 0.12 1
  314.1180 0.46 5
  314.4613 0.05 0
  314.6065 0.11 1
  315.1324 1.08 11
  315.5589 0.09 1
  316.0982 0.76 8
  317.1179 1.42 14
  317.4810 0.09 1
  317.5960 0.06 1
  318.1137 0.52 5
  318.2950 0.18 2
  318.4368 0.07 1
  318.6597 0.06 1
  319.1493 1.58 16
  319.6537 0.07 1
  320.1596 0.71 7
  320.2845 0.27 3
  320.5513 0.05 0
  321.1533 1.21 12
  321.4617 0.10 1
  322.1499 0.54 5
  322.6920 0.09 1
  323.1665 1.02 10
  323.5908 0.05 0
  323.9008 0.18 2
  324.1585 0.49 5
  324.5674 0.08 1
  325.1783 0.97 10
  325.5195 0.04 0
  325.7490 0.06 1
  326.1368 0.43 4
  326.5501 0.06 1
  327.1492 0.71 7
  327.5619 0.14 1
  328.1731 0.37 4
  328.4904 0.07 1
  329.1562 1.30 13
  329.5464 0.16 2
  330.1606 0.54 5
  330.3331 0.31 3
  330.5898 0.13 1
  331.1582 1.27 13
  331.4757 0.05 0
  331.6574 0.09 1
  332.2019 0.45 4
  332.3985 0.13 1
  332.5810 0.06 1
  332.8221 0.08 1
  333.1885 1.65 16
  333.5040 0.08 1
  334.1715 0.83 8
  334.6157 0.12 1
  334.7895 0.08 1
  335.1977 1.05 10
  335.5460 0.08 1
  335.7960 0.07 1
  336.0722 0.30 3
  336.2326 0.27 3
  336.3611 0.11 1
  336.5131 0.05 0
  336.7504 0.09 1
  337.1871 0.73 7
  337.4951 0.05 0
  337.6188 0.07 1
  337.8661 0.06 1
  338.1997 0.30 3
  338.3615 0.11 1
  338.5516 0.09 1
  339.1432 0.72 7
  339.3870 0.15 1
  339.4881 0.06 1
  339.6910 0.08 1
  340.1646 0.27 3
  340.3845 0.10 1
  340.5414 0.04 0
  340.7585 0.09 1
  341.1897 0.65 6
  341.4563 0.02 0
  342.2086 0.35 3
  342.4915 0.05 0
  342.7284 0.07 1
  343.1888 1.10 11
  343.4810 0.10 1
  343.7200 0.11 1
  344.1720 0.34 3
  344.5441 0.04 0
  345.1992 1.07 11
  345.7532 0.15 1
  346.2047 0.85 8
  346.3858 0.31 3
  346.5196 0.05 0
  346.6958 0.08 1
  347.1862 1.38 14
  347.5493 0.08 1
  347.6880 0.07 1
  348.1998 0.51 5
  348.7172 0.04 0
  349.2177 0.88 9
  349.4818 0.12 1
  349.6963 0.04 0
  349.7749 0.02 0
  350.1735 0.38 4
  350.5254 0.05 0
  350.7456 0.05 0
  351.1847 0.66 7
  351.4134 0.15 1
  351.5119 0.09 1
  352.1649 0.36 4
  352.4475 0.07 1
  352.6501 0.12 1
  352.8512 0.08 1
  353.1941 0.41 4
  353.6474 0.05 0
  353.9308 0.10 1
  354.1823 0.22 2
  354.3871 0.09 1
  354.4926 0.05 0
  354.6761 0.05 0
  355.2040 0.43 4
  355.8262 0.12 1
  355.9474 0.14 1
  356.1714 0.23 2
  356.3308 0.13 1
  356.7362 0.12 1
  356.9006 0.14 1
  357.2338 0.80 8
  357.5747 0.02 0
  357.7130 0.03 0
  357.8285 0.02 0
  358.2460 0.44 4
  358.4147 0.16 2
  358.5849 0.10 1
  358.7749 0.11 1
  359.2393 1.42 14
  359.5612 0.04 0
  359.8321 0.07 1
  360.2504 0.67 7
  360.5227 0.10 1
  360.7078 0.04 0
  361.2330 1.20 12
  361.7226 0.07 1
  361.9250 0.09 1
  362.2243 0.31 3
  362.5837 0.07 1
  362.7663 0.08 1
  363.2178 0.55 5
  363.5865 0.03 0
  363.7068 0.02 0
  364.2440 0.25 2
  364.4691 0.06 1
  364.6807 0.06 1
  364.8294 0.06 1
  365.2230 0.43 4
  365.5033 0.06 1
  365.5833 0.03 0
  365.7624 0.13 1
  366.1907 0.21 2
  366.4987 0.03 0
  367.2067 0.38 4
  367.6203 0.08 1
  367.7399 0.03 0
  368.0381 0.11 1
  368.1591 0.15 1
  368.3419 0.12 1
  368.6266 0.02 0
  369.2144 0.48 5
  369.7131 0.10 1
  370.2096 0.23 2
  370.3775 0.07 1
  370.5171 0.08 1
  371.2191 0.86 9
  371.8178 0.08 1
  372.1940 0.40 4
  372.4668 0.06 1
  372.8233 0.13 1
  373.2293 0.89 9
  373.5170 0.08 1
  373.7197 0.07 1
  374.2307 0.60 6
  374.5355 0.04 0
  374.8240 0.09 1
  375.2329 0.62 6
  375.6821 0.20 2
  376.2411 0.28 3
  376.4700 0.09 1
  376.5579 0.05 0
  376.6932 0.03 0
  376.8817 0.07 1
  377.2276 0.54 5
  377.5748 0.05 0
  377.7314 0.05 0
  377.8725 0.09 1
  378.2247 0.16 2
  378.7946 0.07 1
  379.2291 0.36 4
  379.7757 0.01 0
  379.9182 0.04 0
  380.2088 0.22 2
  380.4655 0.09 1
  380.6143 0.02 0
  381.2298 0.38 4
  381.4276 0.14 1
  381.5120 0.05 0
  381.6800 0.06 1
  381.8006 0.03 0
  381.9871 0.13 1
  382.2962 0.15 1
  382.5898 0.04 0
  382.7487 0.07 1
  382.9699 0.15 1
  383.2231 0.41 4
  383.4203 0.16 2
  383.5600 0.03 0
  383.6898 0.07 1
  383.8452 0.04 0
  383.9927 0.13 1
  384.1736 0.21 2
  384.3573 0.16 2
  384.5317 0.09 1
  384.6154 0.03 0
  384.8375 0.03 0
  385.2276 0.69 7
  385.5738 0.05 0
  385.8008 0.05 0
  386.2088 0.41 4
  386.4004 0.12 1
  386.4954 0.06 1
  386.6068 0.06 1
  387.2170 0.66 7
  387.5654 0.07 1
  387.7223 0.11 1
  387.8670 0.06 1
  388.2034 0.32 3
  388.4681 0.04 0
  388.5923 0.04 0
  388.7669 0.07 1
  389.2076 0.38 4
  389.4120 0.15 1
  389.5980 0.02 0
  389.8294 0.05 0
  389.9777 0.09 1
  390.2844 0.29 3
  390.4079 0.17 2
  391.2200 0.42 4
  391.6828 0.08 1
  391.8561 0.03 0
  392.1528 0.14 1
  392.4446 0.08 1
  392.5526 0.06 1
  392.7918 0.06 1
  393.2548 0.38 4
  393.6077 0.08 1
  393.8108 0.06 1
  394.0992 0.15 1
  394.2192 0.13 1
  394.3569 0.08 1
  394.5167 0.09 1
  394.8171 0.09 1
  395.2483 0.38 4
  395.5125 0.09 1
  395.7937 0.02 0
  396.1858 0.14 1
  396.3570 0.16 2
  396.5509 0.06 1
  396.8230 0.07 1
  397.2279 0.31 3
  397.4553 0.11 1
  397.6848 0.03 0
  397.8780 0.08 1
  398.3711 0.44 4
  398.7150 0.12 1
  399.2365 0.53 5
  399.6728 0.12 1
  399.8242 0.13 1
  400.2505 0.28 3
  400.5924 0.03 0
  400.7423 0.07 1
  400.8184 0.04 0
  401.2733 0.49 5
  401.7054 0.06 1
  401.8120 0.03 0
  402.1724 0.17 2
  402.4809 0.06 1
  402.5882 0.01 0
  403.2358 0.53 5
  403.4647 0.10 1
  403.7989 0.03 0
  404.1920 0.11 1
  404.4344 0.08 1
  405.2735 0.52 5
  405.3915 0.18 2
  405.7606 0.05 0
  406.1076 0.11 1
  406.3678 0.09 1
  406.5556 0.07 1
  406.6985 0.01 0
  407.2417 0.33 3
  407.5379 0.09 1
  407.7445 0.05 0
  407.9193 0.07 1
  408.2857 0.17 2
  408.4526 0.06 1
  408.6927 0.05 0
  408.8504 0.03 0
  409.2510 0.33 3
  409.8108 0.07 1
  409.9876 0.03 0
  410.1965 0.16 2
  410.3542 0.11 1
  410.5346 0.02 0
  410.7201 0.03 0
  410.8217 0.02 0
  411.2501 0.44 4
  411.5264 0.06 1
  411.8326 0.04 0
  412.2085 0.21 2
  412.5567 0.09 1
  412.8601 0.09 1
  413.2452 0.53 5
  413.4265 0.20 2
  413.7093 0.12 1
  414.2849 0.29 3
  414.4285 0.16 2
  414.7036 0.10 1
  415.2672 0.59 6
  415.3908 0.26 3
  415.6631 0.05 0
  415.7889 0.04 0
  415.9325 0.06 1
  416.3127 0.16 2
  416.6803 0.08 1
  416.8068 0.07 1
  417.2490 0.38 4
  417.4146 0.30 3
  417.5724 0.06 1
  417.7587 0.04 0
  418.2237 0.15 1
  418.3730 0.09 1
  418.4868 0.05 0
  418.6695 0.06 1
  419.2917 0.29 3
  419.5590 0.09 1
  419.8207 0.06 1
  420.1613 0.12 1
  420.3768 0.06 1
  420.6299 0.08 1
  420.8362 0.08 1
  421.0147 0.10 1
  421.3091 0.19 2
  421.5104 0.07 1
  421.7636 0.10 1
  421.9592 0.06 1
  422.1725 0.13 1
  422.3767 0.16 2
  422.5104 0.04 0
  422.6498 0.08 1
  422.8170 0.03 0
  423.2722 0.36 4
  423.7289 0.06 1
  423.8833 0.08 1
  424.3143 0.23 2
  424.7303 0.07 1
  424.9170 0.07 1
  425.3096 0.55 5
  425.6298 0.04 0
  425.7619 0.07 1
  425.8520 0.04 0
  426.3519 0.19 2
  426.9455 0.10 1
  427.3211 0.48 5
  427.6804 0.06 1
  427.8387 0.05 0
  427.9289 0.04 0
  428.2755 0.09 1
  428.5226 0.15 1
  428.6909 0.06 1
  428.8265 0.04 0
  429.2434 0.37 4
  429.4764 0.09 1
  429.5829 0.03 0
  429.7789 0.08 1
  430.2648 0.13 1
  430.6270 0.05 0
  430.8046 0.10 1
  431.2876 0.43 4
  431.5661 0.05 0
  431.8566 0.09 1
  432.2452 0.11 1
  432.6928 0.06 1
  433.2675 0.42 4
  433.6313 0.13 1
  433.8487 0.03 0
  434.1585 0.11 1
  434.3156 0.16 2
  434.3951 0.07 1
  434.5216 0.05 0
  434.6147 0.02 0
  434.7945 0.18 2
  435.2151 0.21 2
  435.4845 0.16 2
  435.6209 0.09 1
  435.8568 0.11 1
  436.2385 0.19 2
  436.4836 0.08 1
  436.7359 0.08 1
  436.9925 0.06 1
  437.3358 0.25 2
  437.5732 0.07 1
  437.7885 0.09 1
  437.9158 0.03 0
  438.2577 0.29 3
  438.5697 0.13 1
  438.7588 0.04 0
  439.0737 0.19 2
  439.3147 0.44 4
  439.5372 0.10 1
  439.8564 0.05 0
  440.1749 0.21 2
  440.3974 0.07 1
  440.6235 0.05 0
  440.8304 0.05 0
  441.3160 0.20 2
  441.6928 0.06 1
  442.2638 0.17 2
  442.7175 0.12 1
  442.8263 0.06 1
  443.2799 0.36 4
  443.5879 0.12 1
  443.7962 0.04 0
  443.9591 0.06 1
  444.2187 0.12 1
  444.3943 0.14 1
  444.5608 0.07 1
  444.8773 0.11 1
  445.2834 0.57 6
  445.5721 0.14 1
  445.8986 0.17 2
  446.1227 0.15 1
  446.3852 0.22 2
  446.7721 0.03 0
  447.2651 0.51 5
  447.4266 0.25 2
  447.6912 0.09 1
  447.9473 0.07 1
  448.3500 0.25 2
  448.4581 0.20 2
  448.7327 0.08 1
  449.2464 0.35 3
  449.4969 0.12 1
  449.7822 0.12 1
  450.2753 0.16 2
  450.4603 0.15 1
  450.5507 0.07 1
  450.7400 0.12 1
  451.2153 0.40 4
  451.5846 0.12 1
  451.7597 0.18 2
  452.0330 0.12 1
  452.2870 0.13 1
  452.4771 0.13 1
  452.6827 0.14 1
  453.0279 0.18 2
  453.3375 0.27 3
  453.5788 0.15 1
  454.2087 0.15 1
  454.7874 0.14 1
  455.2473 0.25 2
  455.5085 0.36 4
  455.7904 0.18 2
  456.2446 0.39 4
  456.6106 0.32 3
  457.2947 0.51 5
  457.6102 0.14 1
  457.9448 0.14 1
  458.2374 0.26 3
  458.3514 0.25 2
  458.4902 0.16 2
  458.5750 0.09 1
  458.8306 0.10 1
  459.3391 0.33 3
  459.7819 0.10 1
  460.0932 0.15 1
  460.4109 0.19 2
  460.6654 0.08 1
  460.7926 0.07 1
  461.3243 0.31 3
  461.7636 0.05 0
  461.9257 0.03 0
  462.2413 0.28 3
  462.5221 0.11 1
  462.6103 0.08 1
  462.8143 0.14 1
  462.9259 0.07 1
  463.3553 0.42 4
  463.7044 0.13 1
  463.9277 0.08 1
  464.3244 0.53 5
  464.4815 0.37 4
  464.9138 0.12 1
  465.0226 0.11 1
  465.3512 0.31 3
  465.6199 0.13 1
  465.8624 0.05 0
  466.2941 0.16 2
  466.5600 0.14 1
  466.7592 0.06 1
  467.1090 0.09 1
  467.3814 0.15 1
  467.7861 0.11 1
  468.3728 0.11 1
  468.5656 0.11 1
  468.7491 0.10 1
  469.0592 0.21 2
  469.4497 0.24 2
  469.8729 0.11 1
  470.1916 0.19 2
  470.3545 0.16 2
  470.5366 0.12 1
  470.6767 0.06 1
  470.8325 0.06 1
  471.3305 0.88 9
  471.5425 0.42 4
  471.6776 0.20 2
  471.8192 0.22 2
  471.9231 0.10 1
  472.3307 0.29 3
  472.6644 0.11 1
  472.8245 0.07 1
  472.9767 0.16 2
  473.4008 0.78 8
  473.5374 0.45 4
  473.7082 0.11 1
  473.9935 0.13 1
  474.1963 0.27 3
  474.3827 0.23 2
  474.6424 0.12 1
  474.8502 0.10 1
  475.3725 0.56 6
  475.5576 0.24 2
  475.8401 0.15 1
  476.1511 0.16 2
  476.3838 0.12 1
  476.8641 0.11 1
  477.3232 0.58 6
  477.6684 0.06 1
  478.0727 0.17 2
  478.4093 0.37 4
  478.7979 0.04 0
  478.9787 0.17 2
  479.3603 0.25 2
  479.7632 0.12 1
  479.9767 0.09 1
  480.2615 0.07 1
  480.4608 0.04 0
  480.6437 0.07 1
  480.7278 0.03 0
  481.2489 0.17 2
  481.4866 0.11 1
  481.7821 0.07 1
  482.0768 0.15 1
  482.2876 0.11 1
  482.3922 0.14 1
  482.5097 0.11 1
  482.7661 0.11 1
  482.9163 0.10 1
  483.3549 0.29 3
  483.6354 0.17 2
  483.8896 0.09 1
  484.3418 0.28 3
  484.7299 0.13 1
  485.0247 0.14 1
  485.4213 0.32 3
  485.6129 0.18 2
  486.3443 1.87 19
  486.8106 0.20 2
  486.9117 0.06 1
  487.2646 0.34 3
  487.4574 0.31 3
  487.7690 0.14 1
  488.0208 0.24 2
  488.3560 0.24 2
  488.7018 0.17 2
  489.3528 0.52 5
  489.7278 0.09 1
  489.9833 0.11 1
  490.3690 0.18 2
  490.4672 0.09 1
  491.3517 0.88 9
  491.6236 0.22 2
  491.9225 0.22 2
  492.3338 0.25 2
  492.7815 0.14 1
  493.3545 0.69 7
  493.7345 0.06 1
  493.9573 0.09 1
  494.0976 0.05 0
  494.3168 0.21 2
  494.5972 0.11 1
  495.0891 0.20 2
  495.3667 0.09 1
  495.5732 0.05 0
  495.7881 0.08 1
  495.9675 0.07 1
  496.1783 0.07 1
  496.3149 0.03 0
  496.6211 0.06 1
  496.8909 0.05 0
  497.3066 0.28 3
  497.5573 0.10 1
  497.7473 0.07 1
  497.9652 0.08 1
  498.2030 0.14 1
  498.3839 0.14 1
  498.5782 0.08 1
  498.7192 0.07 1
  498.8943 0.10 1
  499.1350 0.19 2
  499.4355 0.28 3
  499.7367 0.11 1
  499.9254 0.11 1
  500.1796 0.22 2
  500.4146 0.19 2
  500.8504 0.10 1
  501.3738 0.32 3
  501.7242 0.21 2
  501.9485 0.27 3
  502.3829 0.23 2
  502.8637 0.18 2
  502.9983 0.27 3
  503.3380 0.61 6
  503.7205 0.27 3
  504.4192 0.35 3
  504.7497 0.21 2
  505.3231 0.41 4
  505.6536 0.23 2
  505.8296 0.17 2
  506.0283 0.15 1
  506.3902 0.23 2
  507.3341 0.63 6
  507.9033 0.11 1
  508.2025 0.20 2
  508.5061 0.20 2
  508.6849 0.09 1
  508.8651 0.12 1
  509.1074 0.25 2
  509.2257 0.10 1
  509.4309 0.20 2
  509.6353 0.25 2
  510.0643 0.21 2
  510.2652 0.10 1
  510.4662 0.15 1
  510.7191 0.07 1
  511.0804 0.12 1
  511.2044 0.09 1
  511.3376 0.13 1
  511.5657 0.07 1
  511.7923 0.09 1
  512.0110 0.06 1
  512.1856 0.13 1
  512.3275 0.08 1
  512.5128 0.11 1
  512.7821 0.11 1
  513.0786 0.11 1
  513.3760 0.17 2
  513.5808 0.10 1
  513.9847 0.23 2
  514.2428 0.06 1
  514.5052 0.22 2
  514.7093 0.06 1
  514.8345 0.06 1
  515.2206 0.23 2
  515.4794 0.20 2
  515.6544 0.18 2
  515.9033 0.11 1
  516.3791 0.18 2
  516.6934 0.08 1
  516.8655 0.16 2
  517.3207 0.62 6
  517.5312 0.45 4
  517.6799 0.15 1
  517.8655 0.14 1
  518.3997 0.39 4
  518.6187 0.16 2
  518.7240 0.07 1
  518.8648 0.11 1
  519.3954 1.38 14
  519.7347 0.20 2
  520.2270 0.29 3
  520.4518 0.23 2
  520.6702 0.13 1
  520.8680 0.14 1
  521.3211 0.39 4
  521.8604 0.18 2
  522.2836 0.36 4
  522.5447 0.23 2
  522.8066 0.11 1
  522.9958 0.21 2
  523.2028 0.18 2
  523.3473 0.12 1
  523.5138 0.14 1
  523.6176 0.13 1
  523.8652 0.14 1
  524.1883 0.12 1
  524.4238 0.15 1
  524.6159 0.07 1
  524.9297 0.10 1
  525.3737 0.09 1
  525.6818 0.06 1
  525.8860 0.18 2
  525.9942 0.07 1
  526.2141 0.19 2
  526.4069 0.13 1
  526.5336 0.08 1
  526.6973 0.13 1
  527.0837 0.17 2
  527.4587 0.26 3
  527.7220 0.14 1
  527.9334 0.09 1
  528.0216 0.04 0
  528.2892 0.07 1
  528.4778 0.06 1
  528.6301 0.07 1
  528.8870 0.16 2
  529.3440 0.39 4
  529.7603 0.13 1
  529.9098 0.07 1
  530.2571 0.22 2
  530.8465 0.22 2
  531.4416 0.46 5
  531.6594 0.25 2
  531.9498 0.24 2
  532.4175 0.84 8
  533.3785 0.84 8
  533.6113 0.49 5
  533.9452 0.34 3
  534.3781 0.77 8
  534.9177 0.35 3
  535.3862 0.67 7
  537.2053 0.52 5
  538.0826 0.43 4
  538.4578 0.41 4
  538.6345 0.43 4
  539.1194 0.50 5
  539.5040 0.52 5
  539.9398 0.52 5
  540.6220 0.57 6
  541.9973 0.55 5
  542.4994 0.56 6
  542.8655 0.28 3
  543.4332 0.66 7
  543.9055 0.36 4
  544.1398 0.40 4
  544.7168 0.60 6
  545.4334 5.00 50
  545.8138 0.52 5
  546.1529 0.29 3
  546.5839 0.24 2
  547.3319 0.64 6
  547.7316 0.19 2
  548.4333 0.75 7
  548.7861 0.33 3
  549.4373 0.85 8
  549.8234 0.21 2
  550.4854 1.19 12
  550.9150 0.35 3
  554.1483 1.24 12
  560.4961 16.77 168
  561.4858 7.53 75
  563.4432 76.32 763
  564.4260 2.52 25
  564.8875 1.12 11
  565.6299 0.87 9
  567.7349 1.02 10
  578.4086 99.97 999
  579.8133 12.80 128
  580.7889 5.58 56
  581.8551 2.38 24
  582.8815 1.27 13
  584.0992 0.79 8
//
