ACCESSION: MSBNK-Kyoto_Univ-CA000132
RECORD_TITLE: 3,4-Didehydrorhodopin; FAB-EBEB; MS2; m/z: 552.43; [M]*+
DATE: 2016.01.19 (Created 2007.03.15, modified 2011.05.10)
AUTHORS: Akimoto N, Graduate School of Pharmaceutical Sciences, Kyoto University and Maoka T, Research Institute for Production Development
LICENSE: CC BY-SA
COMMENT: Profile spectrum of this record is given as a JPEG file.
COMMENT: [Profile] CA000132.jpg
CH$NAME: 3,4-Didehydrorhodopin
CH$COMPOUND_CLASS: Natural Product; Carotenoid
CH$FORMULA: C40H56O
CH$EXACT_MASS: 552.43312
CH$SMILES: C(C=CC(=CC=CC(C)=CC=CC(=CC=CC=C(C=CC=C(C)C=CC=C(CCC=C(C)C)C)C)C)C)C(C)(C)O
CH$IUPAC: InChI=1S/C40H56O/c1-33(2)19-13-22-36(5)25-16-28-37(6)26-14-23-34(3)20-11-12-21-35(4)24-15-27-38(7)29-17-30-39(8)31-18-32-40(9,10)41/h11-12,14-21,23-31,41H,13,22,32H2,1-10H3/b12-11+,23-14+,24-15+,28-16+,29-17+,31-18+,34-20+,35-21+,36-25+,37-26+,38-27+,39-30+
CH$LINK: CHEMSPIDER 17220920
CH$LINK: PUBCHEM CID:16061249
CH$LINK: INCHIKEY YNXUITAACINYQG-VWQKURAKSA-N
AC$INSTRUMENT: JMS-HX/HX 110A, JEOL
AC$INSTRUMENT_TYPE: FAB-EBEB
AC$MASS_SPECTROMETRY: MS_TYPE MS2
AC$MASS_SPECTROMETRY: ION_MODE POSITIVE
AC$MASS_SPECTROMETRY: ATOM_GUN_CURRENT 5 mA
AC$MASS_SPECTROMETRY: BOMBARDMENT 6 kV xenon
AC$MASS_SPECTROMETRY: COLLISION_ENERGY 3 kV
AC$MASS_SPECTROMETRY: COLLISION_GAS Ar
AC$MASS_SPECTROMETRY: GAS_PRESSURE adjust to attenuate the intensity of the precursor ion by 30 %
AC$MASS_SPECTROMETRY: IONIZATION FAB
AC$MASS_SPECTROMETRY: MATRIX 1-2 uL m-NBA
AC$MASS_SPECTROMETRY: PROBE_TIP stainless-steel
MS$FOCUSED_ION: BASE_PEAK 552.4752
MS$FOCUSED_ION: PRECURSOR_M/Z 552.43
MS$FOCUSED_ION: PRECURSOR_TYPE [M]+*
PK$SPLASH: splash10-0udi-3931280000-8a01f8e048c4e92e70c4
PK$NUM_PEAK: 1246
PK$PEAK: m/z int. rel.int.
  0.0862 0.01 0
  1.1507 0.01 0
  1.5009 0.01 0
  2.4166 0.01 0
  2.7195 0.01 0
  3.0015 0.01 0
  3.9264 0.01 0
  4.3897 0.01 0
  6.1085 0.02 0
  6.3678 0.01 0
  6.6308 0.01 0
  8.8159 0.01 0
  9.5504 0.01 0
  10.3100 0.01 0
  11.4322 0.01 0
  12.9905 0.01 0
  13.9638 0.08 1
  15.4789 0.01 0
  17.1885 0.02 0
  19.3458 0.01 0
  22.9400 0.15 1
  24.5088 0.01 0
  25.8591 0.01 0
  26.9606 0.66 7
  28.9782 0.20 2
  29.2930 0.01 0
  29.9809 0.05 0
  30.9503 0.28 3
  31.2207 0.01 0
  32.1055 0.01 0
  34.2801 0.01 0
  34.9357 0.01 0
  36.9516 0.10 1
  37.9729 0.16 2
  38.9494 1.05 10
  39.9985 0.21 2
  40.5005 0.04 0
  40.9802 2.66 27
  41.9671 0.14 1
  42.5518 0.02 0
  42.9766 1.22 12
  43.2806 0.02 0
  47.1157 0.01 0
  48.7893 0.01 0
  49.8718 0.15 1
  49.9589 0.24 2
  50.9511 0.37 4
  51.9882 0.45 4
  52.5082 0.01 0
  52.9816 0.81 8
  53.9477 0.09 1
  54.0164 0.07 1
  54.9841 1.75 17
  55.9468 0.11 1
  57.0256 0.20 2
  58.0083 0.08 1
  58.9881 12.12 121
  59.2579 0.01 0
  59.9781 0.05 0
  61.8616 0.02 0
  62.9506 0.27 3
  63.7132 0.05 0
  63.8573 0.03 0
  63.9887 0.08 1
  64.3337 0.01 0
  64.9808 0.80 8
  65.9505 0.10 1
  66.9959 0.83 8
  67.9833 0.38 4
  69.0035 7.42 74
  69.3458 0.01 0
  70.0116 0.06 1
  70.1248 0.01 0
  71.0025 0.10 1
  71.2860 0.09 1
  72.0597 0.12 1
  72.9789 0.09 1
  73.9415 0.16 2
  74.9459 0.28 3
  75.4816 0.02 0
  75.9733 0.13 1
  76.9683 2.79 28
  77.6378 0.08 1
  77.7337 0.04 0
  77.9914 0.69 7
  78.6495 0.09 1
  78.9756 2.41 24
  79.9962 0.39 4
  80.6945 0.06 1
  80.9967 3.29 33
  81.2083 0.08 1
  81.3553 0.11 1
  81.9400 0.07 1
  82.1545 0.07 1
  82.6975 0.01 0
  83.0069 0.61 6
  83.9887 0.15 1
  85.0533 0.23 2
  85.8853 0.05 0
  86.0341 0.01 0
  86.9680 0.20 2
  87.9964 0.10 1
  88.9795 0.29 3
  89.4616 0.06 1
  89.9615 0.27 3
  90.7202 0.05 0
  90.9809 6.37 64
  91.2267 0.04 0
  91.9812 0.75 7
  92.7515 0.17 2
  93.0046 4.63 46
  93.4039 0.13 1
  94.0273 0.25 2
  94.3576 0.02 0
  94.8357 0.05 0
  95.0235 3.08 31
  95.5128 0.03 0
  96.0113 0.04 0
  96.1174 0.01 0
  96.4549 0.01 0
  97.0052 0.36 4
  97.3580 0.01 0
  97.9672 0.04 0
  98.2434 0.01 0
  98.9239 0.12 1
  99.8408 0.13 1
  99.9412 0.12 1
  100.9563 0.47 5
  101.0640 0.11 1
  101.6050 0.07 1
  101.9804 0.22 2
  102.1072 0.06 1
  102.7053 0.13 1
  102.9870 1.00 10
  104.0137 0.50 5
  104.6530 0.07 1
  105.0032 9.21 92
  105.9948 0.55 5
  106.7138 0.02 0
  107.0157 3.45 34
  107.2751 0.09 1
  107.9475 0.05 0
  108.0378 0.12 1
  109.0336 0.60 6
  109.8808 0.13 1
  109.9679 0.16 2
  110.9967 0.39 4
  111.9608 0.12 1
  112.7599 0.13 1
  112.8641 0.06 1
  112.9773 0.22 2
  113.1906 0.13 1
  113.6348 0.12 1
  113.7392 0.10 1
  113.8886 0.15 1
  114.0290 0.16 2
  114.3963 0.10 1
  114.9681 4.03 40
  115.9658 1.54 15
  116.9805 2.71 27
  117.9370 0.40 4
  118.3155 0.13 1
  118.9939 5.99 60
  119.4220 0.15 1
  119.9707 0.85 8
  120.1511 0.05 0
  120.3642 0.01 0
  121.0076 1.83 18
  121.9378 0.03 0
  122.9981 0.53 5
  123.9771 0.14 1
  124.3331 0.01 0
  125.9540 0.39 4
  126.3055 0.02 0
  126.6125 0.07 1
  126.7437 0.11 1
  126.9532 1.36 14
  127.0967 0.12 1
  127.5831 0.09 1
  127.9530 3.88 39
  128.3084 0.07 1
  128.3903 0.03 0
  128.5659 0.13 1
  128.9534 4.33 43
  129.2498 0.16 2
  129.5499 0.05 0
  129.9605 1.41 14
  130.1500 0.06 1
  130.9707 4.72 47
  131.2752 0.01 0
  131.5515 0.08 1
  131.9612 1.47 15
  132.3865 0.12 1
  132.9872 5.72 57
  133.9652 0.34 3
  134.1298 0.14 1
  134.9998 0.91 9
  135.4456 0.08 1
  135.9738 0.43 4
  136.1425 0.13 1
  136.4584 0.01 0
  136.6377 0.01 0
  136.9507 0.23 2
  137.1413 0.11 1
  137.9317 0.24 2
  138.9534 0.74 7
  139.1915 0.22 2
  139.3224 0.04 0
  139.6859 0.03 0
  139.9663 0.38 4
  140.6188 0.14 1
  140.9616 2.68 27
  141.1977 0.09 1
  141.3145 0.08 1
  141.6029 0.15 1
  141.6887 0.13 1
  141.9716 3.37 34
  142.6590 0.03 0
  142.9863 5.72 57
  143.2086 0.14 1
  143.5673 0.08 1
  143.6837 0.14 1
  143.9984 2.25 22
  144.2177 0.25 2
  144.4695 0.14 1
  144.9977 8.64 86
  145.3476 0.03 0
  145.5853 0.09 1
  145.7027 0.01 0
  145.9935 0.75 7
  147.0260 1.55 15
  147.3053 0.16 2
  147.7198 0.01 0
  148.0019 0.15 1
  148.5099 0.07 1
  148.9486 0.08 1
  149.0644 0.08 1
  149.7514 0.13 1
  149.9463 0.16 2
  150.7925 0.09 1
  150.9888 0.20 2
  151.2892 0.01 0
  151.5477 0.05 0
  151.7717 0.12 1
  151.9801 1.10 11
  152.2268 0.32 3
  152.9761 1.85 18
  153.9905 0.83 8
  154.6365 0.07 1
  155.0153 3.78 38
  155.2532 0.04 0
  156.0246 2.82 28
  156.2539 0.12 1
  156.4063 0.04 0
  156.5758 0.02 0
  156.7000 0.02 0
  157.0271 4.99 50
  157.3234 0.18 2
  158.0456 0.89 9
  158.3681 0.18 2
  158.7089 0.12 1
  159.0505 3.11 31
  159.7187 0.07 1
  159.8672 0.01 0
  160.0941 0.17 2
  160.4366 0.22 2
  161.0613 0.61 6
  161.7427 0.09 1
  161.9768 0.21 2
  162.0813 0.08 1
  162.4661 0.13 1
  163.0228 0.39 4
  163.3782 0.11 1
  163.7387 0.11 1
  163.8401 0.20 2
  164.0246 0.24 2
  164.1266 0.15 1
  164.2712 0.10 1
  164.4918 0.10 1
  164.7626 0.19 2
  165.0405 2.14 21
  165.7543 0.07 1
  166.0406 0.96 10
  166.2419 0.11 1
  166.7272 0.12 1
  167.0431 1.86 19
  167.4330 0.12 1
  167.8237 0.05 0
  168.0384 1.41 14
  168.3241 0.06 1
  168.4021 0.02 0
  169.0529 3.22 32
  169.3528 0.13 1
  170.0408 1.51 15
  170.6436 0.06 1
  171.0726 2.63 26
  171.6567 0.18 2
  172.0568 0.50 5
  172.6445 0.13 1
  173.0672 0.82 8
  173.3253 0.08 1
  174.0197 0.34 3
  174.1316 0.10 1
  174.2309 0.13 1
  174.9015 0.18 2
  175.0975 0.62 6
  175.8577 0.09 1
  176.0214 0.44 4
  176.9777 0.29 3
  177.1357 0.22 2
  177.2179 0.16 2
  177.3990 0.05 0
  177.5494 0.09 1
  177.7471 0.12 1
  177.8421 0.13 1
  178.0289 1.75 17
  178.4180 0.08 1
  178.7427 0.03 0
  179.0209 2.12 21
  179.6298 0.05 0
  179.8724 0.12 1
  180.0320 1.22 12
  180.4848 0.14 1
  180.7397 0.12 1
  181.0316 2.96 30
  181.2380 0.06 1
  181.4285 0.18 2
  182.0395 1.68 17
  182.6905 0.10 1
  183.0647 3.51 35
  183.2573 0.07 1
  183.3539 0.07 1
  183.8108 0.16 2
  184.0515 0.83 8
  184.6116 0.05 0
  185.0490 1.64 16
  185.7127 0.06 1
  185.8793 0.23 2
  186.0728 0.54 5
  186.9094 0.12 1
  187.0838 0.79 8
  187.8926 0.22 2
  188.0774 0.15 1
  188.6074 0.14 1
  188.7595 0.13 1
  188.9906 0.84 8
  189.2102 0.11 1
  189.5871 0.10 1
  189.9692 0.56 6
  190.0463 0.27 3
  190.5358 0.01 0
  190.8295 0.04 0
  191.0313 1.41 14
  191.3848 0.03 0
  191.9055 0.20 2
  192.0669 0.68 7
  193.0221 1.64 16
  193.5974 0.12 1
  193.7358 0.04 0
  194.0467 1.13 11
  194.5321 0.14 1
  194.8110 0.13 1
  195.0518 2.56 26
  195.2856 0.12 1
  195.7791 0.09 1
  196.0756 0.82 8
  196.8168 0.10 1
  197.0631 1.97 20
  197.3739 0.08 1
  197.7325 0.12 1
  198.0311 0.61 6
  198.2821 0.13 1
  199.0855 0.71 7
  199.5335 0.14 1
  199.6865 0.02 0
  200.0481 0.37 4
  200.6894 0.14 1
  200.9052 0.17 2
  201.0951 0.31 3
  201.2922 0.15 1
  201.6172 0.24 2
  202.0141 0.74 7
  202.3767 0.29 3
  202.4563 0.06 1
  202.5894 0.20 2
  203.0453 0.68 7
  203.3215 0.10 1
  203.4987 0.21 2
  204.0745 0.34 3
  204.1599 0.15 1
  204.6789 0.12 1
  205.0388 1.04 10
  206.0282 0.54 5
  206.3035 0.10 1
  206.3928 0.05 0
  207.0342 1.71 17
  207.8028 0.19 2
  208.0764 0.44 4
  208.2423 0.12 1
  209.0827 2.76 28
  209.4304 0.03 0
  209.6178 0.08 1
  209.7586 0.05 0
  210.0298 0.32 3
  210.5340 0.08 1
  210.8417 0.11 1
  211.1078 1.15 11
  211.6175 0.09 1
  211.7246 0.05 0
  212.1149 0.29 3
  212.5416 0.16 2
  212.8164 0.13 1
  213.1504 0.42 4
  213.3459 0.04 0
  213.5188 0.13 1
  213.9035 0.07 1
  214.1168 0.11 1
  214.2175 0.05 0
  214.7389 0.14 1
  214.8781 0.19 2
  215.0179 0.85 8
  215.1232 0.23 2
  215.6858 0.24 2
  215.8257 0.12 1
  216.0319 0.33 3
  216.2160 0.11 1
  216.6220 0.15 1
  217.0340 0.78 8
  218.0625 0.44 4
  219.0883 0.45 4
  220.0891 0.46 5
  220.2428 0.15 1
  221.1254 1.04 10
  221.4091 0.10 1
  221.7592 0.06 1
  221.8623 0.17 2
  222.0723 0.43 4
  222.2281 0.31 3
  222.8361 0.09 1
  223.1264 1.19 12
  223.4468 0.13 1
  223.5689 0.02 0
  224.1067 0.47 5
  224.4115 0.11 1
  224.9227 0.05 0
  225.1349 0.57 6
  225.5979 0.23 2
  225.8174 0.12 1
  226.1048 0.36 4
  226.6296 0.03 0
  226.7690 0.06 1
  227.0616 0.32 3
  227.4612 0.08 1
  228.0824 0.63 6
  228.1945 0.18 2
  228.2878 0.03 0
  228.7221 0.02 0
  229.0755 0.34 3
  230.0195 0.43 4
  230.3131 0.15 1
  231.0975 0.68 7
  231.9298 0.10 1
  232.0278 0.13 1
  232.1910 0.17 2
  232.6886 0.07 1
  233.0955 0.96 10
  233.3359 0.15 1
  233.7272 0.14 1
  233.8357 0.02 0
  234.1317 0.28 3
  234.2963 0.09 1
  234.8983 0.03 0
  235.1192 0.74 7
  235.4519 0.13 1
  235.8187 0.01 0
  236.1430 0.35 3
  236.2784 0.15 1
  237.0226 0.29 3
  237.1665 1.05 10
  237.8705 0.15 1
  238.0923 0.34 3
  239.0609 0.41 4
  239.2376 0.09 1
  239.5322 0.01 0
  239.9657 0.13 1
  240.1254 0.38 4
  241.0436 0.21 2
  242.0584 0.25 2
  242.2150 0.19 2
  242.6757 0.13 1
  242.8042 0.13 1
  243.0853 0.63 6
  243.6091 0.01 0
  243.9356 0.14 1
  244.0897 0.52 5
  244.1782 0.25 2
  244.3998 0.11 1
  244.6785 0.13 1
  245.0963 0.70 7
  245.2052 0.53 5
  245.5928 0.19 2
  246.0882 0.78 8
  246.2141 0.24 2
  246.7220 0.33 3
  247.1283 0.89 9
  247.2346 0.44 4
  247.5057 0.08 1
  248.0656 0.32 3
  248.2061 0.14 1
  248.6303 0.12 1
  249.1149 0.52 5
  249.3671 0.08 1
  249.9373 0.09 1
  250.1311 0.23 2
  250.4129 0.07 1
  251.1725 0.26 3
  251.8475 0.22 2
  252.0085 0.15 1
  252.1852 0.15 1
  253.1880 0.36 4
  254.1234 0.20 2
  254.5554 0.13 1
  255.0893 0.29 3
  255.5773 0.17 2
  255.6891 0.13 1
  255.9956 0.10 1
  256.1272 0.21 2
  256.6963 0.21 2
  256.9614 0.11 1
  257.1635 0.45 4
  258.0164 0.20 2
  258.1645 0.24 2
  259.1006 0.35 3
  259.2500 0.07 1
  259.4857 0.08 1
  259.9434 0.04 0
  260.1832 0.30 3
  260.4506 0.06 1
  260.8965 0.07 1
  261.1060 0.50 5
  261.2918 0.19 2
  261.9961 0.27 3
  262.1918 0.23 2
  263.1020 0.49 5
  263.3400 0.19 2
  264.1166 0.22 2
  264.4667 0.06 1
  264.9877 0.11 1
  265.1321 0.21 2
  265.2323 0.09 1
  265.4322 0.02 0
  265.9513 0.05 0
  266.0661 0.11 1
  266.2845 0.04 0
  266.4784 0.01 0
  267.1574 0.46 5
  268.1559 0.19 2
  268.8603 0.17 2
  268.9494 0.17 2
  269.1494 0.49 5
  269.2703 0.30 3
  269.4512 0.10 1
  270.1204 0.31 3
  270.2470 0.15 1
  270.6703 0.09 1
  271.1220 0.37 4
  272.0255 0.13 1
  272.1938 0.12 1
  272.3521 0.13 1
  272.7446 0.13 1
  273.1028 0.46 5
  274.1277 0.43 4
  274.7692 0.11 1
  274.8887 0.06 1
  275.1653 0.23 2
  275.8023 0.06 1
  276.1523 0.26 3
  276.5102 0.14 1
  276.9778 0.18 2
  277.2023 0.34 3
  277.3258 0.08 1
  278.1040 0.35 3
  278.2401 0.12 1
  278.6642 0.15 1
  278.9642 0.07 1
  279.1532 0.43 4
  279.6819 0.12 1
  280.0725 0.07 1
  280.2152 0.19 2
  281.1182 0.10 1
  282.0174 0.07 1
  282.3904 0.15 1
  282.9717 0.15 1
  283.1913 0.36 4
  284.1598 0.17 2
  284.3953 0.13 1
  284.9571 0.24 2
  285.1013 0.18 2
  285.1940 0.20 2
  286.1817 0.13 1
  286.8620 0.13 1
  287.0041 0.11 1
  287.1522 0.33 3
  287.9907 0.12 1
  288.1090 0.15 1
  288.3689 0.20 2
  288.9761 0.13 1
  289.1547 0.23 2
  289.2585 0.06 1
  290.1318 0.14 1
  290.3461 0.05 0
  290.9999 0.08 1
  291.1872 0.16 2
  291.9628 0.02 0
  292.1568 0.17 2
  293.0432 0.26 3
  294.1436 0.15 1
  295.1887 0.14 1
  295.2787 0.04 0
  296.0273 0.04 0
  296.1544 0.23 2
  296.2604 0.05 0
  296.4247 0.02 0
  297.0091 0.08 1
  297.1788 0.35 3
  297.9766 0.27 3
  298.0509 0.11 1
  298.2815 0.18 2
  299.1028 0.38 4
  300.0627 0.15 1
  300.8047 0.10 1
  301.0090 0.10 1
  301.1323 0.32 3
  301.2371 0.17 2
  301.3452 0.14 1
  301.7146 0.05 0
  301.8546 0.16 2
  302.1046 0.11 1
  302.3501 0.09 1
  303.1156 0.31 3
  303.2444 0.19 2
  304.1208 0.24 2
  305.1382 0.12 1
  306.1319 0.04 0
  307.0275 0.17 2
  307.1132 0.13 1
  307.2433 0.12 1
  307.4146 0.12 1
  308.1431 0.17 2
  308.2627 0.21 2
  308.8013 0.11 1
  309.0211 0.20 2
  309.2118 0.15 1
  310.1837 0.16 2
  311.0189 0.12 1
  311.1305 0.12 1
  312.1705 0.14 1
  312.2390 0.08 1
  312.3666 0.04 0
  312.5374 0.18 2
  313.0060 0.13 1
  313.1317 0.14 1
  313.2713 0.09 1
  314.2938 0.19 2
  315.1176 0.29 3
  315.2207 0.26 3
  316.0301 0.07 1
  316.2050 0.29 3
  317.0811 0.15 1
  317.2341 0.24 2
  317.6319 0.06 1
  318.1396 0.14 1
  318.2267 0.11 1
  319.1510 0.22 2
  319.3001 0.14 1
  320.0868 0.04 0
  320.4249 0.17 2
  320.8416 0.01 0
  321.2903 0.27 3
  321.4534 0.13 1
  323.0928 0.14 1
  323.2586 0.11 1
  324.1244 0.36 4
  324.3036 0.13 1
  324.5121 0.10 1
  325.8878 0.05 0
  326.1730 0.17 2
  326.5015 0.13 1
  327.1346 0.25 2
  327.2785 0.04 0
  327.8830 0.12 1
  328.1721 0.01 0
  328.4016 0.14 1
  328.9207 0.09 1
  329.0445 0.09 1
  329.2687 0.11 1
  329.6301 0.17 2
  330.0561 0.12 1
  330.1566 0.10 1
  330.2618 0.12 1
  330.3490 0.15 1
  330.7217 0.02 0
  331.2443 0.13 1
  331.3395 0.17 2
  331.8735 0.13 1
  332.1631 0.11 1
  332.3955 0.14 1
  332.6665 0.14 1
  333.0234 0.15 1
  333.2112 0.20 2
  333.9092 0.13 1
  334.1942 0.15 1
  334.7011 0.06 1
  335.1754 0.14 1
  335.9156 0.01 0
  336.7951 0.15 1
  336.9690 0.04 0
  338.1805 0.10 1
  338.2645 0.10 1
  339.0764 0.21 2
  339.2497 0.28 3
  340.1696 0.11 1
  340.2683 0.16 2
  340.4177 0.08 1
  340.5323 0.08 1
  341.2451 0.31 3
  342.2100 0.15 1
  343.0637 0.13 1
  343.2651 0.01 0
  344.1877 0.10 1
  345.2511 0.01 0
  346.1666 0.13 1
  346.6905 0.15 1
  347.4266 0.13 1
  348.0827 0.12 1
  348.3056 0.14 1
  349.3237 0.28 3
  351.2447 0.14 1
  352.0968 0.17 2
  352.2905 0.13 1
  352.3713 0.09 1
  353.1228 0.13 1
  353.3566 0.11 1
  353.5904 0.01 0
  354.1388 0.12 1
  354.2972 0.23 2
  354.9633 0.18 2
  355.2046 0.17 2
  356.2357 0.17 2
  356.7357 0.13 1
  357.2604 0.23 2
  358.2325 0.14 1
  358.4793 0.13 1
  359.1341 0.11 1
  360.1412 0.10 1
  361.2225 0.12 1
  361.8889 0.13 1
  362.1858 0.18 2
  362.2685 0.13 1
  362.3906 0.13 1
  363.1506 0.09 1
  364.3297 0.08 1
  365.2520 0.24 2
  366.4208 0.01 0
  367.2106 0.26 3
  367.3414 0.15 1
  367.5263 0.01 0
  368.1219 0.15 1
  368.2474 0.12 1
  369.1733 0.33 3
  369.4176 0.17 2
  370.1218 0.18 2
  371.0030 0.15 1
  371.1205 0.30 3
  372.1567 0.16 2
  372.3030 0.05 0
  372.4272 0.02 0
  373.3126 0.14 1
  374.2135 0.15 1
  374.3064 0.14 1
  375.0885 0.13 1
  377.1808 0.08 1
  377.3512 0.16 2
  377.5890 0.03 0
  378.2946 0.12 1
  379.1794 0.14 1
  380.0388 0.13 1
  380.1852 0.07 1
  380.3383 0.10 1
  381.0829 0.10 1
  381.2072 0.31 3
  381.4291 0.15 1
  382.0468 0.29 3
  382.1598 0.13 1
  382.3042 0.13 1
  382.4413 0.09 1
  382.7702 0.03 0
  383.2536 0.23 2
  383.7477 0.11 1
  383.9610 0.12 1
  384.4257 0.05 0
  386.1745 0.13 1
  387.1397 0.12 1
  387.3792 0.28 3
  388.1217 0.01 0
  389.0630 0.15 1
  390.1490 0.18 2
  391.3341 0.25 2
  392.3132 0.16 2
  393.2021 0.15 1
  393.3962 0.23 2
  393.6667 0.10 1
  394.1005 0.17 2
  394.2504 0.27 3
  394.3408 0.25 2
  394.4211 0.18 2
  395.1904 0.19 2
  395.3048 0.19 2
  395.3618 0.09 1
  396.1538 0.15 1
  396.2857 0.12 1
  397.1670 0.15 1
  397.3062 0.28 3
  397.4596 0.17 2
  397.7670 0.13 1
  398.0262 0.07 1
  398.2961 0.54 5
  398.8888 0.17 2
  399.2612 1.52 15
  399.5164 0.47 5
  400.3620 0.22 2
  400.6817 0.08 1
  401.3353 0.31 3
  401.6544 0.03 0
  402.0411 0.19 2
  402.1495 0.14 1
  402.3355 0.12 1
  402.5850 0.14 1
  402.9517 0.05 0
  403.0260 0.01 0
  403.1752 0.15 1
  403.2943 0.22 2
  403.4796 0.15 1
  404.1896 0.16 2
  404.2793 0.13 1
  404.5496 0.12 1
  405.1734 0.13 1
  405.4571 0.01 0
  406.3333 0.16 2
  408.2745 0.13 1
  408.5021 0.16 2
  409.2961 0.22 2
  409.7327 0.01 0
  411.2695 0.25 2
  411.7496 0.14 1
  412.1856 0.14 1
  412.2820 0.13 1
  412.3618 0.11 1
  412.7783 0.17 2
  412.9042 0.16 2
  413.3008 0.12 1
  413.4354 0.29 3
  414.3799 0.19 2
  414.5755 0.15 1
  415.0169 0.12 1
  415.2460 0.32 3
  415.4249 0.13 1
  415.6058 0.15 1
  416.3970 0.26 3
  416.6940 0.17 2
  417.1353 0.03 0
  417.2870 0.01 0
  417.4636 0.01 0
  418.2292 0.16 2
  418.8316 0.13 1
  419.3292 0.15 1
  420.0547 0.01 0
  420.9710 0.12 1
  421.4439 0.10 1
  422.1816 0.31 3
  422.3522 0.15 1
  422.7536 0.16 2
  423.1215 0.16 2
  423.3168 0.16 2
  423.5476 0.09 1
  424.0956 0.16 2
  424.2722 0.36 4
  424.4019 0.19 2
  424.5284 0.16 2
  425.1065 0.15 1
  425.3674 0.20 2
  425.7348 0.08 1
  425.9248 0.16 2
  426.0573 0.10 1
  426.2179 0.24 2
  426.4474 0.07 1
  426.8563 0.01 0
  427.1561 0.14 1
  428.2396 0.17 2
  429.1893 0.17 2
  430.4384 0.10 1
  431.4023 0.15 1
  432.2486 0.09 1
  432.5860 0.01 0
  433.8662 0.12 1
  434.1930 0.18 2
  434.3397 0.13 1
  434.8513 0.15 1
  435.1741 0.02 0
  435.3837 0.12 1
  436.1806 0.13 1
  436.5550 0.17 2
  437.0326 0.08 1
  438.0373 0.11 1
  438.3474 0.25 2
  438.5645 0.13 1
  439.0830 0.10 1
  439.1975 0.12 1
  439.3221 0.14 1
  439.6571 0.13 1
  440.0879 0.01 0
  440.3492 0.14 1
  441.2785 0.14 1
  441.4487 0.14 1
  443.3397 0.15 1
  444.4555 0.15 1
  444.6050 0.18 2
  445.5118 0.10 1
  446.1439 0.13 1
  446.3095 0.17 2
  446.4656 0.19 2
  447.1025 0.13 1
  447.1963 0.12 1
  447.3941 0.16 2
  447.7614 0.11 1
  447.8526 0.12 1
  448.0464 0.10 1
  448.3119 0.14 1
  448.5177 0.13 1
  448.8113 0.11 1
  449.4027 0.24 2
  449.5542 0.14 1
  450.1865 0.13 1
  450.2897 0.23 2
  451.2484 0.12 1
  451.3695 0.16 2
  451.5329 0.15 1
  452.4157 0.24 2
  453.0884 0.18 2
  453.9507 0.14 1
  454.2713 0.13 1
  454.4989 0.16 2
  455.0928 0.16 2
  456.4700 0.14 1
  457.3525 0.17 2
  457.8521 0.05 0
  458.3778 0.20 2
  458.5465 0.13 1
  458.7903 0.08 1
  459.1111 0.12 1
  459.3850 0.18 2
  460.3300 1.17 12
  460.5028 1.08 11
  460.8538 0.13 1
  461.0252 0.12 1
  461.1866 0.15 1
  461.3193 0.14 1
  462.2263 0.14 1
  462.4259 0.20 2
  463.9412 0.13 1
  464.0538 0.14 1
  464.2561 0.16 2
  464.4001 0.20 2
  464.6018 0.18 2
  464.9207 0.16 2
  465.2524 0.17 2
  465.4132 0.17 2
  465.9110 0.15 1
  466.0658 0.22 2
  466.1817 0.07 1
  466.2889 0.13 1
  466.3928 0.15 1
  466.5040 0.15 1
  466.9067 0.04 0
  467.0977 0.09 1
  467.2726 0.21 2
  467.4596 0.16 2
  468.0319 0.08 1
  468.2396 0.28 3
  468.3448 0.09 1
  468.4521 0.17 2
  468.6994 0.01 0
  469.3608 0.20 2
  469.4614 0.09 1
  469.9507 0.03 0
  470.2851 0.15 1
  470.4560 0.16 2
  471.2041 0.07 1
  472.4810 0.13 1
  472.6091 0.01 0
  473.1521 0.16 2
  473.4491 0.17 2
  474.2798 0.10 1
  474.8054 0.12 1
  475.2513 0.09 1
  475.3773 0.08 1
  475.5811 0.10 1
  475.7334 0.13 1
  476.0760 0.17 2
  476.9987 0.02 0
  477.4641 0.15 1
  477.5311 0.06 1
  477.8349 0.12 1
  478.2885 0.29 3
  478.4278 0.16 2
  478.5437 0.17 2
  478.7534 0.08 1
  478.8874 0.11 1
  479.2578 0.19 2
  479.4226 0.15 1
  479.8119 0.15 1
  479.9378 0.01 0
  480.4477 0.11 1
  480.9710 0.16 2
  481.1425 0.13 1
  481.2209 0.12 1
  481.3268 0.09 1
  481.4862 0.16 2
  481.9646 0.14 1
  482.2112 0.39 4
  482.4558 0.44 4
  483.4335 1.61 16
  483.6613 0.38 4
  484.1908 0.14 1
  484.6096 0.19 2
  485.2275 0.01 0
  485.6324 0.12 1
  486.3602 0.11 1
  486.5017 0.01 0
  488.0909 0.11 1
  488.2840 0.16 2
  489.9439 0.04 0
  490.0813 0.13 1
  490.3441 0.01 0
  491.4852 0.17 2
  492.0518 0.15 1
  492.2047 0.16 2
  492.5715 0.11 1
  492.7485 0.12 1
  493.4345 1.69 17
  493.7195 0.17 2
  493.8053 0.15 1
  493.9052 0.15 1
  494.0407 0.25 2
  494.4437 0.36 4
  494.6375 0.15 1
  494.7750 0.04 0
  495.1150 0.14 1
  495.2518 0.12 1
  495.4195 0.32 3
  495.5972 0.08 1
  496.2867 0.11 1
  496.4523 0.22 2
  497.4195 0.35 3
  498.6691 0.14 1
  499.0246 0.15 1
  499.5371 0.01 0
  503.7946 0.17 2
  504.2171 0.26 3
  504.5297 0.13 1
  505.3224 0.15 1
  506.0174 0.15 1
  506.2551 0.16 2
  506.4881 0.24 2
  506.7225 0.07 1
  507.2160 0.03 0
  507.5756 0.10 1
  507.9171 0.17 2
  508.1715 0.07 1
  508.3235 0.63 6
  508.5492 0.13 1
  509.0629 0.14 1
  509.1533 0.14 1
  510.0748 0.07 1
  510.3413 0.23 2
  510.6139 0.14 1
  510.8302 0.09 1
  511.3848 0.25 2
  512.1859 0.10 1
  512.5690 0.09 1
  513.8068 0.04 0
  514.3200 0.18 2
  515.5191 0.15 1
  516.1703 0.07 1
  516.3244 0.17 2
  517.3280 0.15 1
  518.1414 0.09 1
  519.0795 0.15 1
  519.5050 0.16 2
  520.2180 0.15 1
  520.3091 0.16 2
  520.6750 0.15 1
  521.0396 0.04 0
  521.2305 0.20 2
  522.1439 0.16 2
  522.2900 0.29 3
  522.5239 0.14 1
  522.9810 0.12 1
  523.1224 0.08 1
  523.4260 0.14 1
  523.7947 0.12 1
  523.9374 0.15 1
  524.1901 0.09 1
  524.2933 0.16 2
  524.4482 0.05 0
  526.1614 0.17 2
  526.7352 0.22 2
  527.6556 0.16 2
  527.9614 0.05 0
  528.0934 0.15 1
  528.1752 0.13 1
  528.3240 0.14 1
  528.4487 0.09 1
  528.8906 0.13 1
  529.1098 0.19 2
  529.2633 0.06 1
  529.4866 0.16 2
  529.7997 0.12 1
  530.1396 0.05 0
  530.3454 0.14 1
  530.7081 0.10 1
  530.8047 0.11 1
  530.9268 0.13 1
  531.4732 0.05 0
  531.8038 0.04 0
  531.9513 0.13 1
  532.3187 0.26 3
  532.4361 0.19 2
  532.6453 0.13 1
  532.7626 0.30 3
  533.0477 0.23 2
  533.2689 0.40 4
  533.4158 0.32 3
  533.6847 0.28 3
  533.9650 0.42 4
  534.3989 2.10 21
  534.9301 0.06 1
  535.1721 0.51 5
  535.4357 0.73 7
  535.6014 0.46 5
  535.6892 0.17 2
  535.8656 0.16 2
  536.0272 0.17 2
  536.3901 1.07 11
  536.6121 0.26 3
  537.4028 0.89 9
  537.7161 0.59 6
  538.1293 0.31 3
  538.2581 0.16 2
  538.7504 0.15 1
  538.9563 0.17 2
  539.1481 0.12 1
  539.3809 0.14 1
  539.6398 0.09 1
  539.8076 0.16 2
  539.9330 0.04 0
  540.1114 0.07 1
  540.2389 0.22 2
  540.5689 0.03 0
  540.7641 0.06 1
  540.8735 0.15 1
  541.0358 0.12 1
  541.3317 0.19 2
  541.7543 0.25 2
  541.8596 0.11 1
  542.0341 0.10 1
  542.5030 0.09 1
  542.6285 0.18 2
  542.8251 0.18 2
  542.9915 0.25 2
  543.2363 0.29 3
  543.5738 0.23 2
  543.8704 0.22 2
  543.9971 0.04 0
  544.1582 0.12 1
  544.2427 0.11 1
  544.3696 0.07 1
  544.4501 0.04 0
  544.5782 0.10 1
  544.8399 0.17 2
  545.1083 0.15 1
  545.3981 0.15 1
  545.4780 0.13 1
  545.6108 0.17 2
  545.8068 0.28 3
  545.9484 0.18 2
  546.0900 0.21 2
  546.3496 0.29 3
  546.5905 0.14 1
  546.9587 0.34 3
  547.2291 0.31 3
  547.4907 0.31 3
  547.7557 0.41 4
  547.9492 0.25 2
  548.1801 0.47 5
  548.4725 0.39 4
  548.7570 0.53 5
  549.0816 0.73 7
  550.0615 1.40 14
  552.4752 99.97 999
  553.1948 6.70 67
  553.5938 3.28 33
  554.1916 2.12 21
  554.7117 1.54 15
  554.8657 0.96 10
  555.5446 0.78 8
  555.6510 0.36 4
  555.8666 0.40 4
  555.9971 0.82 8
  556.1853 0.29 3
  556.3393 0.31 3
  556.6104 0.31 3
  556.8682 0.45 4
  557.0142 0.28 3
  557.1467 0.28 3
  557.3242 0.14 1
  557.4728 0.24 2
  557.6911 0.20 2
  558.0406 0.19 2
  558.1879 0.10 1
  558.3586 0.40 4
  558.5703 0.22 2
  558.7062 0.12 1
  558.8755 0.08 1
  559.0892 0.06 1
  559.3303 0.01 0
  559.5519 0.15 1
  559.8425 0.29 3
  559.9851 0.03 0
  560.2965 0.01 0
  560.7499 0.08 1
  561.2220 0.14 1
  561.5300 0.16 2
  562.1348 0.02 0
  562.3966 0.16 2
  562.5741 0.02 0
//
