ACCESSION: MSBNK-Kyoto_Univ-CA000140
RECORD_TITLE: Adonirubin; FAB-EBEB; MS2; m/z: 580.39; [M]*+
DATE: 2016.01.19 (Created 2007.03.15, modified 2011.05.10)
AUTHORS: Akimoto N, Graduate School of Pharmaceutical Sciences, Kyoto University and Maoka T, Research Institute for Production Development
LICENSE: CC BY-SA
COMMENT: Profile spectrum of this record is given as a JPEG file.
COMMENT: [Profile] CA000140.jpg
CH$NAME: Adonirubin
CH$COMPOUND_CLASS: Natural Product; Carotenoid
CH$FORMULA: C40H52O3
CH$EXACT_MASS: 580.39165
CH$SMILES: CC(=C1C=CC(=CC=CC(C)=CC=CC=C(C)C=CC=C(C=CC(=C2C)C(CCC2=O)(C)C)C)C)C(=O)C(O)CC1(C)C
CH$IUPAC: InChI=1S/C40H52O3/c1-28(17-13-19-30(3)21-23-34-32(5)36(41)25-26-39(34,7)8)15-11-12-16-29(2)18-14-20-31(4)22-24-35-33(6)38(43)37(42)27-40(35,9)10/h11-24,37,42H,25-27H2,1-10H3/b12-11+,17-13+,18-14+,23-21+,24-22+,28-15+,29-16+,30-19+,31-20+/t37-/m0/s1
CH$LINK: CHEMSPIDER 8479157
CH$LINK: PUBCHEM CID:10303691
CH$LINK: INCHIKEY OOUTWVMJGMVRQF-NWYYEFBESA-N
AC$INSTRUMENT: JMS-HX/HX 110A, JEOL
AC$INSTRUMENT_TYPE: FAB-EBEB
AC$MASS_SPECTROMETRY: MS_TYPE MS2
AC$MASS_SPECTROMETRY: ION_MODE POSITIVE
AC$MASS_SPECTROMETRY: ATOM_GUN_CURRENT 5 mA
AC$MASS_SPECTROMETRY: BOMBARDMENT 6 kV xenon
AC$MASS_SPECTROMETRY: COLLISION_ENERGY 3 kV
AC$MASS_SPECTROMETRY: COLLISION_GAS Ar
AC$MASS_SPECTROMETRY: GAS_PRESSURE adjust to attenuate the intensity of the precursor ion by 30 %
AC$MASS_SPECTROMETRY: IONIZATION FAB
AC$MASS_SPECTROMETRY: MATRIX 1-2 uL m-NBA
AC$MASS_SPECTROMETRY: PROBE_TIP stainless-steel
MS$FOCUSED_ION: BASE_PEAK 580.3351
MS$FOCUSED_ION: PRECURSOR_M/Z 580.39
MS$FOCUSED_ION: PRECURSOR_TYPE [M]+*
PK$SPLASH: splash10-001l-3920020000-8e54c91786c95c039d54
PK$NUM_PEAK: 1769
PK$PEAK: m/z int. rel.int.
  0.9386 0.01 0
  2.4148 0.01 0
  4.2602 0.01 0
  4.8752 0.01 0
  5.5218 0.01 0
  8.0345 0.01 0
  11.9603 0.06 1
  12.9643 0.03 0
  13.9671 0.06 1
  14.9765 0.36 4
  15.9687 0.02 0
  21.8139 0.01 0
  22.9272 0.07 1
  24.9480 0.12 1
  25.2426 0.03 0
  25.4915 0.04 0
  25.9463 0.49 5
  26.9550 4.40 44
  27.9627 0.48 5
  28.9621 3.42 34
  29.9380 0.09 1
  30.9327 0.21 2
  32.1420 0.01 0
  35.9533 0.08 1
  36.3499 0.02 0
  36.4719 0.02 0
  36.9266 0.73 7
  37.1239 0.02 0
  37.1777 0.01 0
  37.9345 1.30 13
  38.2609 0.05 0
  38.5347 0.01 0
  38.9392 11.05 110
  39.1304 0.02 0
  39.2404 0.01 0
  39.3136 0.01 0
  39.4043 0.02 0
  39.7397 0.04 0
  39.9482 0.98 10
  40.3560 0.02 0
  40.5421 0.01 0
  40.9562 22.35 223
  41.2012 0.02 0
  41.5829 0.04 0
  41.9504 0.69 7
  42.4805 0.02 0
  42.9423 16.41 164
  43.3330 0.06 1
  43.4893 0.01 0
  43.9434 0.25 2
  44.9447 0.22 2
  46.8804 0.02 0
  47.8718 0.03 0
  48.0701 0.01 0
  48.3742 0.03 0
  48.9219 0.26 3
  49.3000 0.01 0
  49.6413 0.05 0
  49.9244 3.24 32
  50.3792 0.02 0
  50.6235 0.05 0
  50.6976 0.02 0
  50.9308 7.16 72
  51.1049 0.04 0
  51.3224 0.02 0
  51.6478 0.02 0
  51.9389 2.73 27
  52.9453 12.34 123
  53.3483 0.01 0
  53.9519 0.47 5
  54.5806 0.01 0
  54.9500 28.86 288
  55.5221 0.01 0
  55.9656 2.58 26
  56.9664 4.04 40
  57.3588 0.01 0
  57.4442 0.02 0
  57.7028 0.03 0
  57.9340 0.19 2
  58.1146 0.04 0
  58.9520 0.97 10
  59.5513 0.02 0
  59.9556 0.02 0
  60.1098 0.05 0
  60.9351 0.26 3
  61.1160 0.02 0
  61.2140 0.05 0
  61.6404 0.01 0
  61.9346 1.82 18
  62.1210 0.01 0
  62.5453 0.03 0
  62.9359 6.48 65
  63.1443 0.08 1
  63.3054 0.04 0
  63.5079 0.02 0
  63.6207 0.03 0
  63.7185 0.04 0
  63.9370 1.08 11
  64.1904 0.02 0
  64.4032 0.03 0
  64.5237 0.02 0
  64.9439 11.15 111
  65.2023 0.05 0
  65.6174 0.04 0
  65.9453 1.98 20
  66.3978 0.03 0
  66.5062 0.04 0
  66.5864 0.09 1
  66.9512 13.01 130
  67.6663 0.03 0
  67.9553 0.34 3
  68.6059 0.05 0
  68.9614 28.81 288
  69.1571 0.05 0
  69.3825 0.08 1
  69.9399 0.62 6
  70.2295 0.04 0
  70.3745 0.08 1
  70.7048 0.01 0
  70.9441 2.69 27
  71.2917 0.03 0
  71.4746 0.05 0
  71.7088 0.03 0
  71.8263 0.04 0
  71.9703 0.04 0
  72.7724 0.03 0
  72.9348 0.28 3
  73.9128 1.56 16
  74.1908 0.03 0
  74.9284 2.05 20
  75.0873 0.21 2
  75.3412 0.06 1
  75.9016 1.70 17
  76.1288 0.09 1
  76.5736 0.20 2
  76.9271 27.18 272
  77.1497 0.16 2
  77.4598 0.10 1
  77.9276 5.22 52
  78.2055 0.14 1
  78.4290 0.17 2
  78.5984 0.12 1
  78.9423 21.68 217
  79.2169 0.04 0
  79.4593 0.10 1
  79.5378 0.05 0
  79.9441 2.54 25
  80.5348 0.07 1
  80.6787 0.08 1
  80.9535 22.23 222
  81.4130 0.04 0
  81.5448 0.06 1
  81.7662 0.05 0
  81.9409 0.37 4
  82.4796 0.03 0
  82.6171 0.04 0
  82.9440 5.67 57
  83.5547 0.01 0
  83.9482 0.12 1
  84.6107 0.03 0
  84.9358 3.68 37
  85.1515 0.03 0
  85.2510 0.02 0
  85.3631 0.02 0
  85.6354 0.05 0
  85.8995 0.48 5
  86.6821 0.03 0
  86.9199 0.83 8
  87.0776 0.03 0
  87.5217 0.01 0
  87.9283 0.49 5
  88.2127 0.04 0
  88.5003 0.16 2
  88.9254 2.75 27
  89.3594 0.13 1
  89.9273 1.03 10
  90.0710 0.21 2
  90.3071 0.24 2
  90.4746 0.24 2
  90.9352 48.95 489
  91.2265 0.11 1
  91.4364 0.10 1
  91.9375 4.58 46
  92.1637 0.06 1
  92.2764 0.15 1
  92.4625 0.06 1
  92.9483 24.96 249
  93.1963 0.12 1
  93.2837 0.05 0
  93.4225 0.07 1
  93.6811 0.02 0
  93.9589 1.69 17
  94.1750 0.06 1
  94.3563 0.02 0
  94.5805 0.05 0
  94.6926 0.09 1
  94.9617 11.72 117
  95.1924 0.08 1
  95.3212 0.02 0
  95.5158 0.01 0
  95.9341 0.52 5
  96.2783 0.01 0
  96.3792 0.03 0
  96.4893 0.03 0
  96.6099 0.05 0
  96.9546 4.80 48
  97.3464 0.03 0
  97.6960 0.06 1
  97.9237 0.56 6
  98.0625 0.05 0
  98.9329 0.53 5
  99.3035 0.02 0
  99.9263 0.16 2
  100.6492 0.10 1
  100.9403 1.28 13
  101.0843 0.14 1
  101.3719 0.12 1
  101.5670 0.09 1
  101.9357 3.12 31
  102.2742 0.08 1
  102.5668 0.13 1
  102.9430 8.96 90
  103.2416 0.18 2
  103.5329 0.09 1
  103.9460 3.75 37
  104.3607 0.09 1
  104.9590 46.78 468
  105.3638 0.05 0
  105.4721 0.04 0
  105.6099 0.05 0
  105.7007 0.09 1
  105.9600 3.60 36
  106.1355 0.10 1
  106.3192 0.10 1
  106.4452 0.11 1
  106.5776 0.09 1
  106.9685 18.13 181
  107.2765 0.12 1
  107.4889 0.07 1
  107.9679 1.55 15
  108.2276 0.04 0
  108.4335 0.02 0
  108.5773 0.06 1
  108.6652 0.05 0
  108.9755 8.62 86
  109.2156 0.13 1
  109.4457 0.02 0
  109.5885 0.06 1
  109.9465 0.89 9
  110.4426 0.07 1
  110.5075 0.03 0
  110.6738 0.04 0
  110.9537 3.76 38
  111.3043 0.08 1
  111.4425 0.12 1
  111.5415 0.10 1
  111.9430 0.15 1
  112.1438 0.06 1
  112.3441 0.06 1
  112.6253 0.23 2
  112.9598 1.20 12
  113.1496 0.20 2
  113.2736 0.12 1
  113.4173 0.22 2
  113.6401 0.18 2
  113.9124 0.72 7
  114.2444 0.23 2
  114.9267 28.02 280
  115.2040 0.13 1
  115.9382 9.71 97
  116.1746 0.18 2
  116.3767 0.13 1
  116.9359 23.57 236
  117.2529 0.08 1
  117.4573 0.20 2
  117.9402 4.75 47
  118.1308 0.09 1
  118.3176 0.11 1
  118.4739 0.06 1
  118.9466 45.89 459
  119.2090 0.20 2
  119.4453 0.19 2
  119.9456 4.75 47
  120.3241 0.07 1
  120.9441 16.98 170
  121.5083 0.09 1
  121.9254 1.86 19
  122.3037 0.05 0
  122.5814 0.04 0
  122.9427 4.77 48
  123.2496 0.04 0
  123.9435 1.61 16
  124.2675 0.02 0
  124.5022 0.04 0
  124.9314 1.88 19
  125.2268 0.25 2
  125.8993 1.33 13
  126.1101 0.14 1
  126.3970 0.12 1
  126.9072 9.64 96
  127.9164 27.52 275
  128.1536 0.40 4
  128.9153 31.92 319
  129.2311 0.16 2
  129.4194 0.07 1
  129.9271 11.29 113
  130.9323 26.48 265
  131.2534 0.17 2
  131.9369 6.66 67
  132.1401 0.17 2
  132.2668 0.04 0
  132.9270 32.17 322
  133.2164 0.16 2
  133.4017 0.12 1
  133.5318 0.08 1
  133.9327 4.05 40
  134.1651 0.17 2
  134.3773 0.14 1
  134.5590 0.11 1
  134.9388 14.22 142
  135.3495 0.07 1
  135.5333 0.10 1
  135.9332 1.90 19
  136.2845 0.12 1
  136.4954 0.03 0
  136.6234 0.07 1
  136.9298 8.52 85
  137.2435 0.13 1
  137.4384 0.02 0
  137.9269 1.37 14
  138.2390 0.05 0
  138.3463 0.10 1
  138.4124 0.04 0
  138.9133 4.91 49
  139.1569 0.05 0
  139.3535 0.14 1
  139.9184 1.13 11
  140.2141 0.35 3
  140.3755 0.40 4
  140.9096 23.39 234
  141.1839 0.26 3
  141.3389 0.26 3
  141.4617 0.31 3
  141.9169 19.56 195
  142.2132 0.14 1
  142.4334 0.22 2
  142.9298 33.87 338
  143.1883 0.31 3
  143.3173 0.24 2
  143.4475 0.20 2
  143.9287 11.44 114
  144.3370 0.21 2
  144.9365 31.32 313
  145.2351 0.23 2
  145.4441 0.22 2
  145.9341 4.52 45
  146.3676 0.15 1
  146.9413 18.96 189
  147.3653 0.07 1
  147.6184 0.16 2
  147.9382 2.04 20
  148.3217 0.06 1
  148.4381 0.03 0
  148.9408 4.18 42
  149.2842 0.08 1
  149.4557 0.09 1
  149.5278 0.06 1
  149.9118 1.35 13
  150.1271 0.16 2
  150.4100 0.21 2
  150.9308 4.89 49
  151.1257 0.58 6
  151.2928 0.30 3
  151.9170 10.13 101
  152.9272 14.15 141
  153.2972 0.09 1
  153.9345 7.03 70
  154.1851 0.33 3
  154.9353 21.67 217
  155.2480 0.25 2
  155.9523 14.82 148
  156.3772 0.26 3
  156.9602 30.56 305
  157.2555 0.20 2
  157.9643 6.80 68
  158.2739 0.11 1
  158.9666 17.74 177
  159.3045 0.22 2
  159.5169 0.17 2
  159.9658 3.55 35
  160.2658 0.14 1
  160.5827 0.18 2
  160.9772 11.12 111
  161.3075 0.13 1
  161.5531 0.23 2
  161.9827 1.94 19
  162.1828 0.05 0
  162.3495 0.11 1
  162.5751 0.16 2
  162.9709 5.22 52
  163.9418 1.73 17
  164.3696 0.39 4
  164.9484 21.25 212
  165.2094 0.22 2
  165.4295 0.45 4
  165.9618 7.28 73
  166.2868 0.13 1
  166.5426 0.34 3
  166.9666 16.65 166
  167.2837 0.22 2
  167.5553 0.21 2
  167.9822 6.21 62
  168.2182 0.22 2
  168.9842 19.77 198
  169.2734 0.16 2
  169.5016 0.23 2
  169.9823 8.20 82
  170.2093 0.24 2
  170.4678 0.19 2
  170.9878 15.77 158
  171.2640 0.26 3
  171.9927 4.11 41
  172.2295 0.18 2
  172.4716 0.15 1
  172.9876 10.59 106
  173.2743 0.14 1
  173.9637 2.66 27
  174.9822 6.37 64
  175.2363 0.21 2
  175.6097 0.11 1
  175.9664 1.96 20
  176.2483 0.16 2
  176.3670 0.11 1
  176.5019 0.08 1
  176.9796 3.74 37
  177.4459 0.31 3
  177.9428 10.64 106
  178.3264 0.33 3
  178.9492 16.84 168
  179.3500 0.21 2
  179.9692 7.14 71
  180.2647 0.27 3
  180.4642 0.38 4
  180.9682 17.19 172
  181.2903 0.36 4
  181.9719 6.63 66
  182.4635 0.26 3
  182.9742 16.27 163
  183.3949 0.28 3
  183.9771 4.82 48
  184.2246 0.14 1
  184.4517 0.16 2
  184.9787 10.66 107
  185.2595 0.21 2
  185.4488 0.20 2
  185.9659 2.20 22
  186.3712 0.15 1
  186.9728 6.71 67
  187.2153 0.23 2
  187.4218 0.13 1
  187.9823 1.85 18
  188.2406 0.17 2
  188.9483 8.91 89
  189.3611 0.21 2
  189.9454 3.04 30
  190.3060 0.13 1
  190.4727 0.27 3
  190.9492 8.83 88
  191.2263 0.17 2
  191.4313 0.17 2
  191.9482 7.15 71
  192.2800 0.14 1
  192.9491 14.70 147
  193.2108 0.28 3
  193.3138 0.19 2
  193.9669 6.79 68
  194.3503 0.22 2
  194.9649 17.35 173
  195.5593 0.33 3
  195.9675 5.83 58
  196.3472 0.23 2
  196.9769 11.06 111
  197.5603 0.29 3
  197.9731 2.29 23
  198.2260 0.19 2
  198.9780 7.34 73
  199.2140 0.23 2
  199.4233 0.19 2
  199.5683 0.16 2
  199.9699 2.86 29
  200.2395 0.23 2
  200.4290 0.23 2
  200.9827 5.70 57
  201.3107 0.38 4
  201.9373 5.33 53
  202.3510 0.21 2
  202.9635 9.08 91
  203.3048 0.21 2
  203.9615 3.01 30
  204.2406 0.19 2
  204.3702 0.09 1
  204.5005 0.19 2
  204.9710 7.68 77
  205.3538 0.20 2
  205.6063 0.18 2
  205.9700 5.12 51
  206.9785 12.34 123
  207.2662 0.20 2
  207.5815 0.32 3
  207.9799 4.48 45
  208.9818 12.19 122
  209.2828 0.27 3
  209.4664 0.22 2
  209.9779 2.89 29
  210.3789 0.06 1
  210.5309 0.24 2
  210.9904 8.65 86
  211.3379 0.29 3
  211.4563 0.16 2
  211.9752 2.00 20
  212.4626 0.22 2
  212.9921 4.68 47
  213.4652 0.19 2
  213.6409 0.15 1
  213.9846 1.38 14
  214.2086 0.26 3
  214.3650 0.19 2
  214.9770 8.52 85
  215.3726 0.21 2
  215.9697 3.25 32
  216.2014 0.27 3
  216.9933 6.25 62
  217.3190 0.29 3
  217.5398 0.16 2
  217.9718 2.90 29
  218.4329 0.13 1
  219.0060 6.10 61
  219.2636 0.32 3
  219.3803 0.15 1
  219.5267 0.07 1
  220.0068 3.70 37
  221.0080 8.26 83
  222.0014 2.89 29
  222.3028 0.08 1
  222.3920 0.03 0
  223.0249 7.12 71
  223.3680 0.10 1
  223.5174 0.19 2
  224.0447 2.03 20
  224.5617 0.24 2
  225.0331 5.60 56
  225.3537 0.27 3
  225.5136 0.18 2
  226.0122 2.00 20
  226.3661 0.24 2
  227.0284 3.66 37
  227.4269 0.13 1
  227.9993 2.36 24
  228.3799 0.18 2
  229.0310 4.55 45
  229.2667 0.28 3
  229.4422 0.08 1
  229.6239 0.10 1
  230.0207 2.08 21
  230.3987 0.07 1
  231.0248 6.24 62
  231.3819 0.15 1
  232.0395 2.75 27
  232.3614 0.15 1
  233.0427 6.00 60
  233.4036 0.16 2
  234.0277 1.93 19
  234.5196 0.24 2
  235.0359 5.16 52
  235.4843 0.17 2
  236.0500 1.38 14
  236.5257 0.25 2
  237.0541 4.17 42
  237.3295 0.16 2
  237.6083 0.31 3
  238.0211 1.05 10
  238.3715 0.27 3
  238.5256 0.15 1
  239.0225 4.46 45
  239.3570 0.10 1
  239.4646 0.07 1
  239.5952 0.07 1
  240.0124 1.24 12
  240.4103 0.13 1
  241.0152 3.47 35
  241.4445 0.23 2
  241.6744 0.28 3
  242.0170 1.59 16
  242.3380 0.09 1
  243.0114 3.25 32
  243.5036 0.05 0
  244.0167 1.81 18
  244.2865 0.05 0
  244.4541 0.10 1
  245.0223 3.67 37
  245.3513 0.21 2
  245.6476 0.28 3
  246.0428 1.94 19
  247.0150 5.11 51
  247.4271 0.19 2
  247.5399 0.08 1
  248.0349 1.55 15
  248.3566 0.18 2
  248.5759 0.21 2
  249.0607 4.36 44
  249.3581 0.17 2
  250.0102 1.12 11
  250.4861 0.21 2
  250.6526 0.12 1
  251.0499 2.86 29
  251.5915 0.19 2
  252.0153 1.64 16
  252.3249 0.18 2
  252.4379 0.07 1
  253.0160 3.49 35
  253.4407 0.18 2
  253.7246 0.12 1
  254.0525 1.04 10
  254.3469 0.20 2
  255.0301 3.12 31
  255.4823 0.10 1
  255.7601 0.14 1
  256.0442 1.33 13
  256.3408 0.14 1
  257.0255 3.03 30
  257.3969 0.07 1
  257.5260 0.10 1
  258.0259 1.97 20
  258.3680 0.17 2
  258.5175 0.11 1
  259.0573 3.03 30
  259.5987 0.15 1
  260.0276 1.19 12
  260.3532 0.18 2
  260.5007 0.10 1
  261.0513 3.28 33
  261.4861 0.10 1
  262.0530 1.19 12
  262.1753 0.56 6
  262.4326 0.09 1
  263.0304 3.02 30
  263.4018 0.18 2
  263.5612 0.18 2
  263.7347 0.26 3
  264.0501 1.26 13
  264.3048 0.11 1
  264.5042 0.15 1
  265.0464 3.04 30
  265.3781 0.15 1
  265.5817 0.13 1
  266.0702 0.95 9
  266.3397 0.17 2
  267.0607 2.63 26
  267.5999 0.27 3
  268.0452 1.01 10
  268.3351 0.05 0
  268.4857 0.08 1
  268.6384 0.15 1
  269.0545 2.62 26
  269.4608 0.13 1
  270.0550 0.85 8
  270.3248 0.10 1
  270.4768 0.14 1
  270.6730 0.14 1
  271.0438 2.72 27
  271.3494 0.07 1
  271.7027 0.12 1
  272.0567 1.08 11
  272.4031 0.17 2
  272.5861 0.05 0
  272.7032 0.06 1
  273.0714 2.73 27
  273.3189 0.14 1
  273.5195 0.11 1
  273.6991 0.11 1
  274.0757 1.24 12
  274.3041 0.19 2
  274.4825 0.13 1
  275.0706 2.49 25
  275.4787 0.13 1
  276.0213 0.76 8
  276.3932 0.05 0
  276.5703 0.12 1
  277.0732 1.88 19
  277.4066 0.18 2
  277.6791 0.18 2
  278.0911 0.74 7
  278.2753 0.30 3
  278.4820 0.09 1
  278.6397 0.09 1
  279.0798 2.18 22
  279.5143 0.13 1
  280.0820 0.73 7
  280.3554 0.10 1
  280.4865 0.06 1
  280.6057 0.04 0
  281.0768 2.80 28
  281.3678 0.14 1
  281.5600 0.13 1
  282.0151 0.76 8
  282.3833 0.22 2
  283.0658 2.04 20
  283.4005 0.13 1
  283.6130 0.11 1
  283.7000 0.07 1
  284.0768 0.62 6
  284.2599 0.17 2
  284.5231 0.03 0
  285.0593 1.27 13
  285.4145 0.09 1
  286.0673 0.64 6
  286.2751 0.15 1
  286.3994 0.14 1
  286.5356 0.07 1
  287.0573 2.00 20
  287.5046 0.22 2
  288.0489 0.50 5
  288.2835 0.08 1
  288.4092 0.08 1
  288.6207 0.10 1
  289.0668 1.78 18
  289.5628 0.25 2
  289.7343 0.22 2
  290.1390 0.78 8
  290.3372 0.06 1
  290.4945 0.10 1
  290.5816 0.07 1
  291.0669 1.44 14
  291.5227 0.11 1
  291.6688 0.09 1
  292.0383 0.59 6
  292.3783 0.02 0
  292.6073 0.04 0
  292.8040 0.16 2
  293.0809 1.66 17
  293.3394 0.09 1
  293.5552 0.07 1
  293.6648 0.10 1
  293.8539 0.32 3
  294.0710 0.44 4
  294.2046 0.19 2
  294.3662 0.05 0
  294.5229 0.10 1
  295.0733 1.33 13
  295.3496 0.18 2
  295.7243 0.06 1
  296.0710 0.78 8
  296.2285 0.22 2
  296.3543 0.10 1
  296.5519 0.09 1
  297.0611 2.09 21
  297.4676 0.15 1
  297.5801 0.06 1
  297.7391 0.09 1
  298.0634 0.89 9
  298.4341 0.12 1
  298.5347 0.08 1
  298.6663 0.07 1
  299.0722 1.95 19
  299.8821 0.16 2
  300.1144 0.62 6
  300.4663 0.06 1
  300.6465 0.21 2
  301.0526 1.34 13
  301.4200 0.12 1
  301.5834 0.09 1
  301.7404 0.10 1
  301.8981 0.24 2
  302.1191 0.36 4
  302.4240 0.04 0
  302.5874 0.08 1
  303.0536 1.43 14
  303.5388 0.11 1
  303.7839 0.20 2
  304.0656 0.34 3
  304.5341 0.07 1
  305.0617 1.16 12
  305.3224 0.04 0
  305.4711 0.10 1
  305.7275 0.14 1
  306.0186 0.61 6
  306.1341 0.37 4
  306.4026 0.03 0
  307.0587 0.86 9
  307.5324 0.14 1
  307.7072 0.13 1
  307.9984 0.53 5
  308.1062 0.27 3
  308.2423 0.12 1
  308.3932 0.08 1
  309.0538 0.78 8
  309.4149 0.04 0
  309.5128 0.04 0
  309.7421 0.19 2
  310.0693 0.31 3
  310.5002 0.07 1
  311.0462 0.98 10
  311.3904 0.14 1
  311.5795 0.06 1
  312.0952 0.35 3
  312.3506 0.04 0
  312.5087 0.09 1
  313.0344 0.85 8
  313.5912 0.09 1
  314.1149 0.41 4
  314.4438 0.11 1
  315.0594 1.29 13
  315.3221 0.08 1
  315.4837 0.04 0
  316.0436 0.35 3
  316.5464 0.06 1
  316.7590 0.20 2
  317.0895 0.96 10
  317.5563 0.02 0
  317.8050 0.06 1
  318.0932 0.50 5
  318.2013 0.22 2
  318.4012 0.02 0
  318.5177 0.06 1
  318.7106 0.03 0
  319.0617 0.72 7
  319.5853 0.06 1
  319.7464 0.02 0
  320.0185 0.32 3
  320.2071 0.18 2
  320.7082 0.11 1
  321.0404 0.60 6
  321.4998 0.05 0
  321.7924 0.07 1
  322.0717 0.37 4
  322.3127 0.08 1
  322.3912 0.03 0
  322.6217 0.06 1
  323.0092 0.82 8
  323.1541 0.42 4
  323.4589 0.06 1
  323.6222 0.06 1
  323.7940 0.21 2
  324.0670 0.41 4
  324.2184 0.19 2
  324.3846 0.07 1
  324.5755 0.06 1
  325.0614 0.72 7
  325.4936 0.11 1
  325.8841 0.26 3
  326.1346 0.31 3
  326.3482 0.03 0
  326.4565 0.03 0
  326.5598 0.02 0
  327.0826 0.91 9
  327.3770 0.04 0
  327.7549 0.09 1
  328.1045 0.39 4
  328.4774 0.10 1
  328.7061 0.08 1
  329.0911 0.97 10
  329.2844 0.19 2
  329.4316 0.05 0
  329.7261 0.08 1
  329.8471 0.21 2
  330.0638 0.48 5
  330.2280 0.28 3
  330.3661 0.14 1
  330.6755 0.04 0
  331.1173 1.03 10
  331.3616 0.09 1
  331.5854 0.07 1
  332.1059 0.50 5
  332.3432 0.09 1
  332.5450 0.09 1
  332.7519 0.08 1
  333.1209 0.87 9
  333.6607 0.06 1
  333.8328 0.07 1
  334.1451 0.37 4
  334.5523 0.13 1
  335.1448 0.66 7
  335.4043 0.11 1
  335.4998 0.06 1
  335.7339 0.06 1
  335.8958 0.15 1
  336.1306 0.28 3
  336.3258 0.07 1
  336.6235 0.03 0
  336.7516 0.05 0
  337.0359 0.57 6
  337.2948 0.18 2
  337.5204 0.07 1
  337.6789 0.04 0
  338.1564 0.20 2
  338.4422 0.05 0
  338.7033 0.11 1
  338.8002 0.06 1
  339.1427 0.36 4
  339.4569 0.23 2
  339.5885 0.04 0
  339.8298 0.08 1
  340.0867 0.31 3
  340.1886 0.14 1
  340.2728 0.07 1
  340.7470 0.05 0
  341.0924 0.67 7
  341.4449 0.09 1
  341.6049 0.07 1
  341.7103 0.05 0
  341.7946 0.04 0
  342.1344 0.19 2
  342.4077 0.07 1
  342.7680 0.12 1
  343.1192 0.73 7
  343.4406 0.08 1
  344.0092 0.34 3
  344.1183 0.21 2
  344.3711 0.12 1
  344.5128 0.04 0
  344.8379 0.20 2
  345.1006 0.65 6
  345.5121 0.10 1
  345.7260 0.04 0
  346.1390 0.41 4
  346.5088 0.01 0
  347.1358 1.10 11
  347.4249 0.11 1
  347.4964 0.05 0
  347.6403 0.08 1
  348.0619 0.36 4
  348.2284 0.35 3
  348.4864 0.08 1
  349.1454 0.82 8
  349.7075 0.05 0
  350.1441 0.32 3
  350.4929 0.05 0
  350.7062 0.08 1
  351.1217 0.80 8
  351.6569 0.18 2
  351.7845 0.17 2
  352.1029 0.38 4
  352.5014 0.04 0
  352.6156 0.06 1
  352.8347 0.16 2
  353.0850 0.37 4
  353.2758 0.13 1
  353.6006 0.07 1
  353.7935 0.11 1
  353.9864 0.11 1
  354.1715 0.14 1
  354.3957 0.04 0
  354.7539 0.08 1
  355.1369 0.52 5
  355.6569 0.10 1
  355.8705 0.04 0
  356.0691 0.08 1
  356.2749 0.11 1
  356.3891 0.11 1
  356.5906 0.05 0
  356.6992 0.06 1
  357.1093 0.47 5
  357.9793 0.24 2
  358.2213 0.19 2
  358.3781 0.10 1
  358.5939 0.11 1
  358.7131 0.10 1
  359.1525 0.68 7
  359.5748 0.03 0
  359.7424 0.10 1
  360.1179 0.49 5
  360.2393 0.30 3
  360.4970 0.12 1
  361.1580 1.20 12
  361.5795 0.07 1
  361.7561 0.05 0
  362.1634 0.62 6
  362.5600 0.04 0
  363.1432 0.84 8
  363.7401 0.09 1
  364.1701 0.27 3
  364.4071 0.04 0
  364.5619 0.03 0
  364.6939 0.06 1
  364.7911 0.08 1
  365.1708 0.93 9
  365.7117 0.07 1
  365.9304 0.10 1
  366.0638 0.09 1
  366.2207 0.12 1
  366.7070 0.02 0
  367.1152 0.18 2
  367.3431 0.15 1
  367.5150 0.04 0
  367.6229 0.02 0
  367.8153 0.09 1
  368.0809 0.08 1
  368.3060 0.13 1
  368.6667 0.10 1
  368.8102 0.04 0
  369.1333 0.45 4
  369.3002 0.17 2
  369.6368 0.06 1
  370.1326 0.26 3
  370.6547 0.05 0
  371.0063 0.38 4
  371.2137 0.40 4
  371.4802 0.06 1
  371.7615 0.10 1
  372.1387 0.42 4
  372.2403 0.20 2
  372.3888 0.05 0
  372.7711 0.03 0
  373.1591 0.65 6
  373.3196 0.29 3
  373.4611 0.07 1
  373.7545 0.04 0
  374.0338 0.53 5
  374.1838 0.44 4
  374.4034 0.13 1
  374.6472 0.06 1
  375.1759 0.47 5
  375.3337 0.20 2
  375.4915 0.05 0
  376.0862 0.50 5
  376.2360 0.37 4
  376.3282 0.19 2
  376.4886 0.11 1
  377.1733 2.14 21
  377.7098 0.04 0
  378.2045 0.51 5
  378.6154 0.14 1
  379.0228 0.19 2
  379.1577 0.09 1
  379.2769 0.07 1
  379.8860 0.12 1
  380.1231 0.11 1
  380.2871 0.10 1
  380.5959 0.06 1
  380.7464 0.03 0
  381.1596 0.32 3
  381.3740 0.13 1
  381.5970 0.07 1
  381.8966 0.07 1
  382.1586 0.10 1
  382.4839 0.07 1
  382.7196 0.08 1
  382.9120 0.14 1
  383.1890 0.27 3
  383.6478 0.05 0
  383.9561 0.11 1
  384.0434 0.11 1
  384.2345 0.06 1
  384.3623 0.06 1
  384.9220 0.16 2
  385.1749 0.27 3
  385.2815 0.20 2
  385.5145 0.02 0
  385.7397 0.12 1
  385.9137 0.09 1
  386.1361 0.33 3
  386.4991 0.03 0
  386.6419 0.09 1
  387.0632 0.27 3
  387.2494 0.26 3
  387.5507 0.04 0
  387.6807 0.02 0
  388.1490 0.38 4
  388.3956 0.02 0
  388.6500 0.02 0
  389.1631 0.66 7
  389.3600 0.23 2
  389.5632 0.06 1
  389.8120 0.08 1
  390.1688 0.48 5
  390.3230 0.10 1
  390.5128 0.02 0
  390.9500 0.13 1
  391.2279 0.16 2
  391.5805 0.12 1
  391.7519 0.06 1
  391.9083 0.04 0
  392.0824 0.12 1
  392.2666 0.08 1
  392.5936 0.08 1
  392.8425 0.04 0
  393.0821 0.28 3
  393.2271 0.29 3
  393.3715 0.10 1
  393.5770 0.06 1
  393.7974 0.08 1
  394.0065 0.09 1
  394.1672 0.15 1
  394.5029 0.13 1
  394.6138 0.12 1
  394.9175 0.02 0
  395.1216 0.30 3
  395.2823 0.19 2
  395.4502 0.13 1
  395.5960 0.02 0
  395.8833 0.06 1
  396.1515 0.09 1
  396.3407 0.14 1
  396.4723 0.13 1
  396.7347 0.10 1
  396.9318 0.12 1
  397.1416 0.24 2
  397.3365 0.18 2
  397.5244 0.05 0
  397.6645 0.10 1
  398.0942 0.09 1
  398.1931 0.08 1
  398.3781 0.04 0
  398.4962 0.05 0
  398.6748 0.04 0
  399.1401 0.44 4
  399.3287 0.20 2
  399.5912 0.06 1
  399.7890 0.03 0
  399.9015 0.07 1
  400.1541 0.20 2
  400.3712 0.17 2
  400.6081 0.03 0
  401.1668 0.40 4
  401.3839 0.28 3
  401.6038 0.03 0
  402.1924 0.26 3
  402.4223 0.05 0
  402.6551 0.01 0
  402.9669 0.11 1
  403.2374 0.14 1
  403.5314 0.08 1
  403.7684 0.03 0
  404.2070 0.14 1
  404.4796 0.06 1
  404.9033 0.08 1
  405.2023 0.15 1
  405.4935 0.11 1
  406.0995 0.12 1
  406.3046 0.14 1
  406.6208 0.05 0
  407.0046 0.05 0
  407.1122 0.08 1
  407.2411 0.11 1
  407.3899 0.02 0
  407.5145 0.02 0
  407.9520 0.03 0
  408.1439 0.05 0
  408.4005 0.07 1
  408.6941 0.06 1
  408.9009 0.02 0
  409.1796 0.25 2
  409.3118 0.14 1
  409.5144 0.03 0
  409.8400 0.05 0
  409.9801 0.13 1
  410.2374 0.07 1
  410.4088 0.04 0
  410.7323 0.11 1
  411.0010 0.22 2
  411.1532 0.12 1
  411.2790 0.44 4
  411.3857 0.10 1
  411.5542 0.07 1
  411.9645 0.09 1
  412.1437 0.32 3
  412.2895 0.34 3
  412.4715 0.07 1
  412.6365 0.08 1
  412.8690 0.16 2
  413.2502 0.39 4
  413.7758 0.06 1
  414.2217 0.33 3
  414.4920 0.10 1
  414.7061 0.11 1
  415.1997 0.36 4
  415.4771 0.07 1
  415.5931 0.06 1
  415.7467 0.08 1
  416.1864 0.35 3
  416.4702 0.04 0
  417.0565 0.41 4
  417.2272 0.49 5
  417.3866 0.13 1
  417.4670 0.05 0
  417.6349 0.05 0
  418.0298 0.17 2
  418.1891 0.21 2
  418.8545 0.08 1
  418.9854 0.05 0
  419.1491 0.16 2
  419.3903 0.09 1
  419.8095 0.06 1
  420.2201 0.07 1
  421.0841 0.18 2
  421.2578 0.14 1
  421.4179 0.14 1
  421.5753 0.05 0
  421.7105 0.03 0
  421.8642 0.09 1
  422.0771 0.07 1
  422.2999 0.21 2
  422.7241 0.02 0
  422.9818 0.03 0
  423.0722 0.01 0
  423.2730 0.08 1
  423.8205 0.09 1
  424.3160 0.10 1
  424.5879 0.05 0
  424.9470 0.16 2
  425.1696 0.12 1
  425.2997 0.11 1
  425.6994 0.03 0
  426.1567 0.69 7
  426.3096 0.38 4
  426.6119 0.02 0
  426.8324 0.05 0
  427.1503 0.88 9
  427.3872 0.25 2
  427.6432 0.05 0
  427.7692 0.10 1
  428.1881 0.31 3
  428.6427 0.05 0
  428.7693 0.04 0
  428.9408 0.13 1
  429.2545 0.30 3
  429.5697 0.08 1
  429.6857 0.03 0
  430.1310 0.23 2
  430.2847 0.20 2
  430.7358 0.13 1
  430.9543 0.10 1
  431.0731 0.04 0
  431.2474 0.24 2
  431.4246 0.04 0
  431.5641 0.13 1
  431.7840 0.09 1
  431.9604 0.11 1
  432.1028 0.18 2
  432.3312 0.04 0
  432.4664 0.04 0
  432.7390 0.18 2
  432.8621 0.05 0
  433.1767 0.33 3
  433.3539 0.16 2
  433.5695 0.05 0
  433.8250 0.10 1
  434.1368 0.16 2
  434.3489 0.18 2
  434.5767 0.04 0
  434.8222 0.22 2
  435.1176 0.27 3
  435.3597 0.23 2
  435.7071 0.07 1
  435.9427 0.10 1
  436.2538 0.29 3
  436.6596 0.07 1
  437.1665 0.20 2
  437.3224 0.18 2
  437.6072 0.19 2
  437.7923 0.01 0
  437.9646 0.01 0
  438.2145 0.08 1
  438.5378 0.09 1
  438.6838 0.05 0
  438.8440 0.01 0
  439.0697 0.13 1
  439.3104 0.30 3
  439.6394 0.05 0
  440.1557 0.14 1
  440.2953 0.11 1
  440.6442 0.13 1
  440.8159 0.07 1
  441.0438 0.24 2
  441.2988 0.15 1
  441.4832 0.10 1
  441.6470 0.05 0
  441.7916 0.09 1
  441.9512 0.32 3
  442.2154 0.53 5
  442.8017 0.10 1
  443.0182 0.13 1
  443.2084 0.48 5
  443.3103 0.28 3
  443.6828 0.12 1
  443.9172 0.01 0
  444.0832 0.16 2
  444.3560 0.20 2
  444.5748 0.10 1
  444.7194 0.05 0
  444.8192 0.03 0
  445.0343 0.09 1
  445.2274 0.12 1
  445.3799 0.16 2
  445.4746 0.04 0
  445.8765 0.10 1
  446.0361 0.07 1
  446.1579 0.07 1
  446.2897 0.08 1
  446.7607 0.14 1
  446.9838 0.13 1
  447.2075 0.26 3
  447.4783 0.10 1
  447.8995 0.05 0
  448.0406 0.18 2
  448.2002 0.21 2
  448.4062 0.08 1
  448.5487 0.06 1
  448.7853 0.09 1
  448.9963 0.09 1
  449.2023 0.28 3
  449.4781 0.20 2
  449.7254 0.09 1
  449.9157 0.12 1
  450.2151 0.21 2
  450.4795 0.09 1
  450.7076 0.11 1
  451.1204 0.21 2
  451.4283 0.26 3
  451.6785 0.20 2
  452.0121 0.35 3
  452.1647 0.17 2
  452.4114 0.15 1
  452.6588 0.38 4
  452.9781 0.28 3
  453.2933 0.21 2
  453.4238 0.13 1
  453.7546 0.23 2
  453.9457 0.11 1
  454.2979 0.30 3
  454.5995 0.11 1
  454.7243 0.17 2
  454.8348 0.17 2
  454.9732 0.13 1
  455.1828 0.21 2
  455.5172 0.16 2
  455.8282 0.20 2
  455.9530 0.04 0
  456.1427 0.14 1
  456.3202 0.07 1
  456.5285 0.13 1
  456.8523 0.24 2
  457.0983 0.34 3
  457.3237 0.33 3
  457.5569 0.25 2
  457.7267 0.31 3
  458.0298 0.28 3
  458.2659 0.31 3
  458.5747 0.49 5
  458.8279 0.23 2
  459.2053 0.29 3
  459.5484 0.23 2
  459.7650 0.16 2
  459.9531 0.17 2
  460.0570 0.17 2
  460.2044 0.20 2
  460.3398 0.17 2
  460.6802 0.08 1
  460.8198 0.02 0
  461.0876 0.19 2
  461.2044 0.25 2
  461.3069 0.09 1
  461.5242 0.14 1
  462.0135 0.10 1
  462.2956 0.18 2
  462.6382 0.06 1
  462.9253 0.06 1
  463.2287 0.20 2
  463.4845 0.11 1
  463.7730 0.14 1
  464.0351 0.05 0
  464.1933 0.11 1
  464.3094 0.08 1
  464.5267 0.13 1
  464.7953 0.15 1
  465.3902 0.25 2
  465.5583 0.16 2
  465.6588 0.08 1
  465.8355 0.30 3
  466.2031 0.88 9
  466.5067 0.43 4
  466.8636 0.29 3
  467.1415 0.26 3
  467.4686 0.22 2
  467.5926 0.09 1
  467.7636 0.16 2
  467.9233 0.08 1
  468.2660 0.40 4
  468.7129 0.30 3
  468.9017 0.09 1
  469.1120 0.19 2
  469.3243 0.18 2
  469.7776 0.17 2
  469.9622 0.17 2
  470.1333 0.09 1
  470.5039 0.18 2
  470.6985 0.06 1
  470.8995 0.13 1
  471.1269 0.15 1
  471.3200 0.19 2
  471.5210 0.05 0
  471.6707 0.04 0
  471.8910 0.05 0
  472.3458 0.21 2
  472.4356 0.09 1
  472.7528 0.09 1
  473.1720 0.37 4
  473.3666 0.26 3
  473.4850 0.07 1
  473.7024 0.06 1
  473.8607 0.05 0
  474.2000 0.60 6
  474.3441 0.20 2
  474.5323 0.11 1
  474.7169 0.07 1
  474.9009 0.02 0
  475.1612 0.02 0
  475.3679 0.04 0
  475.5234 0.10 1
  475.6154 0.03 0
  476.0325 0.09 1
  476.2050 0.09 1
  476.3690 0.05 0
  476.5516 0.10 1
  476.6835 0.07 1
  477.1820 0.16 2
  477.4330 0.10 1
  477.6298 0.03 0
  477.7518 0.03 0
  478.0541 0.14 1
  478.2759 0.15 1
  478.4999 0.08 1
  478.6896 0.06 1
  478.8044 0.06 1
  478.9806 0.08 1
  479.3029 0.12 1
  479.5554 0.09 1
  479.6239 0.04 0
  479.9591 0.02 0
  480.3700 0.14 1
  480.7238 0.06 1
  480.8436 0.10 1
  481.0669 0.24 2
  481.2566 0.37 4
  481.4613 0.13 1
  481.6754 0.14 1
  482.2418 0.80 8
  482.5357 0.13 1
  482.9245 0.18 2
  483.1328 0.22 2
  483.3846 0.08 1
  483.6358 0.19 2
  483.8320 0.05 0
  483.9989 0.01 0
  484.2529 0.08 1
  484.4884 0.06 1
  484.7838 0.06 1
  485.0370 0.14 1
  485.2861 0.25 2
  485.5444 0.11 1
  485.6264 0.06 1
  485.9033 0.03 0
  486.2665 0.36 4
  486.4264 0.20 2
  486.5941 0.11 1
  487.0244 0.23 2
  487.2570 0.65 6
  487.4388 0.33 3
  488.2830 11.27 113
  488.8187 0.19 2
  488.9783 0.11 1
  489.1963 0.26 3
  489.5782 0.26 3
  489.8204 0.19 2
  489.9686 0.07 1
  490.1389 0.19 2
  490.3170 0.12 1
  490.4617 0.07 1
  490.6028 0.02 0
  490.7545 0.04 0
  491.2575 0.25 2
  491.5305 0.12 1
  491.7015 0.15 1
  491.7984 0.03 0
  492.1105 0.08 1
  492.3250 0.19 2
  492.6036 0.04 0
  493.2307 0.39 4
  493.6533 0.13 1
  493.8286 0.09 1
  494.0638 0.25 2
  494.2733 0.21 2
  494.7238 0.03 0
  494.8606 0.05 0
  494.9860 0.03 0
  495.1856 0.11 1
  495.3403 0.16 2
  495.8584 0.20 2
  496.2804 0.18 2
  496.5406 0.05 0
  496.7658 0.04 0
  497.0352 0.16 2
  497.2035 0.16 2
  497.4002 0.06 1
  498.4360 0.03 0
  498.5415 0.05 0
  498.7347 0.12 1
  498.9286 0.05 0
  499.2202 0.16 2
  499.4170 0.05 0
  499.5260 0.03 0
  499.6479 0.04 0
  500.2297 0.83 8
  500.3894 0.38 4
  500.6818 0.05 0
  500.9684 0.16 2
  501.3156 1.17 12
  501.6258 0.10 1
  501.8554 0.07 1
  501.9795 0.03 0
  502.1342 0.11 1
  502.3310 0.04 0
  502.4451 0.11 1
  502.5699 0.07 1
  503.2038 0.20 2
  503.4135 0.12 1
  503.7023 0.03 0
  503.9120 0.03 0
  504.1815 0.11 1
  504.2914 0.03 0
  504.5196 0.08 1
  504.7242 0.06 1
  504.8576 0.02 0
  505.0273 0.13 1
  505.1985 0.18 2
  505.3896 0.11 1
  505.5630 0.04 0
  505.8047 0.06 1
  506.0986 0.14 1
  506.2983 0.16 2
  506.4588 0.16 2
  506.6935 0.03 0
  506.8946 0.11 1
  507.0872 0.28 3
  507.2020 0.24 2
  507.3090 0.09 1
  507.4517 0.27 3
  507.7377 0.03 0
  508.0637 0.15 1
  508.2185 0.11 1
  508.3640 0.31 3
  508.7014 0.05 0
  509.1045 0.21 2
  509.3028 0.22 2
  509.5182 0.18 2
  509.7073 0.10 1
  510.0476 0.16 2
  510.2980 0.17 2
  510.6433 0.11 1
  510.7839 0.05 0
  510.9615 0.09 1
  511.2655 0.33 3
  511.7086 0.17 2
  511.8527 0.03 0
  512.0860 0.07 1
  512.1937 0.10 1
  512.3607 0.05 0
  512.5184 0.07 1
  512.8295 0.09 1
  512.9586 0.02 0
  513.1492 0.14 1
  513.3597 0.12 1
  513.5217 0.07 1
  513.7728 0.03 0
  513.9981 0.13 1
  514.1633 0.09 1
  514.2830 0.04 0
  514.4846 0.24 2
  514.6683 0.22 2
  514.9404 0.17 2
  515.2274 0.06 1
  515.3877 0.16 2
  515.6106 0.05 0
  515.8756 0.08 1
  516.0594 0.12 1
  516.1762 0.08 1
  516.3927 0.19 2
  516.5658 0.10 1
  516.6719 0.08 1
  516.8144 0.06 1
  517.0338 0.08 1
  517.2104 0.24 2
  517.3202 0.06 1
  517.6265 0.09 1
  517.8039 0.06 1
  517.9178 0.05 0
  518.0525 0.07 1
  518.2541 0.23 2
  518.5205 0.10 1
  518.6716 0.06 1
  518.8953 0.06 1
  519.3106 0.38 4
  519.8043 0.02 0
  519.9839 0.10 1
  520.1285 0.19 2
  520.2703 0.17 2
  520.5510 0.12 1
  520.9977 0.13 1
  521.3469 0.17 2
  521.6804 0.24 2
  522.0366 0.13 1
  522.3829 0.33 3
  522.5482 0.13 1
  522.9003 0.13 1
  523.2045 0.17 2
  523.4561 0.25 2
  523.7825 0.13 1
  524.2984 1.72 17
  524.6590 0.21 2
  524.7951 0.13 1
  525.0104 0.07 1
  525.1949 0.18 2
  525.4037 0.11 1
  525.5677 0.10 1
  525.7059 0.14 1
  525.8641 0.02 0
  526.0466 0.14 1
  526.2305 0.11 1
  526.3595 0.12 1
  526.6923 0.26 3
  526.9860 0.19 2
  527.1093 0.09 1
  527.2062 0.06 1
  527.3074 0.11 1
  527.3688 0.05 0
  527.5905 0.18 2
  527.8984 0.14 1
  528.0623 0.16 2
  528.1721 0.06 1
  528.3146 0.05 0
  528.4865 0.04 0
  528.6639 0.17 2
  528.7830 0.08 1
  529.0809 0.22 2
  529.3176 0.13 1
  529.5093 0.13 1
  529.8287 0.11 1
  530.0946 0.22 2
  530.2778 0.04 0
  530.4867 0.10 1
  531.1212 0.14 1
  531.3707 0.18 2
  531.5668 0.01 0
  531.7166 0.10 1
  532.0181 0.06 1
  532.2548 0.06 1
  532.4737 0.14 1
  532.7197 0.12 1
  532.9129 0.08 1
  533.2723 0.25 2
  533.4384 0.30 3
  533.5824 0.03 0
  533.8184 0.09 1
  534.3011 0.97 10
  534.8110 0.15 1
  535.2959 1.51 15
  535.6125 0.32 3
  536.1624 0.37 4
  536.5040 0.23 2
  536.6494 0.13 1
  536.8591 0.15 1
  537.0224 0.15 1
  537.2742 0.24 2
  537.5159 0.13 1
  537.7199 0.16 2
  537.9253 0.20 2
  538.2648 0.13 1
  538.6100 0.21 2
  538.7383 0.11 1
  539.0001 0.11 1
  539.3517 0.30 3
  539.5272 0.30 3
  539.6534 0.17 2
  539.8568 0.26 3
  539.9994 0.13 1
  540.1342 0.16 2
  540.2633 0.39 4
  540.6564 0.20 2
  540.9352 0.16 2
  541.1664 0.20 2
  541.4852 0.19 2
  541.7170 0.22 2
  541.8540 0.13 1
  541.9532 0.12 1
  542.2271 0.22 2
  542.4041 0.20 2
  542.6238 0.20 2
  542.9120 0.18 2
  543.2494 0.16 2
  543.5926 0.23 2
  543.9414 0.22 2
  544.0599 0.22 2
  544.2325 0.28 3
  544.4658 0.08 1
  544.7134 0.20 2
  544.8824 0.16 2
  545.0694 0.28 3
  545.1885 0.13 1
  545.3948 0.20 2
  545.6045 0.18 2
  545.7722 0.13 1
  545.9784 0.23 2
  546.1525 0.32 3
  546.4072 0.37 4
  546.6548 0.30 3
  546.9509 0.23 2
  547.3405 1.11 11
  547.6552 0.50 5
  547.9778 0.23 2
  548.1655 0.14 1
  548.3853 0.14 1
  548.6064 0.07 1
  549.0261 0.19 2
  549.2794 0.39 4
  549.5577 0.19 2
  549.7540 0.20 2
  550.0280 0.23 2
  550.3264 0.79 8
  550.5897 0.29 3
  551.3419 2.60 26
  551.5610 1.25 12
  552.3683 2.98 30
  552.6302 1.26 13
  552.8508 0.38 4
  553.0813 0.30 3
  553.3183 0.40 4
  553.6916 0.30 3
  554.2106 0.41 4
  554.5339 0.36 4
  554.8858 0.50 5
  555.1243 0.33 3
  555.5119 0.60 6
  556.1122 0.53 5
  556.7441 0.48 5
  557.0032 0.64 6
  557.4144 0.66 7
  557.7964 0.86 9
  558.2586 0.77 8
  558.6125 0.77 8
  559.0562 1.04 10
  559.4643 0.77 8
  560.0505 0.94 9
  562.3966 10.61 106
  562.6602 5.26 53
  563.3127 2.32 23
  563.6560 1.62 16
  564.3441 2.24 22
  565.3785 15.25 152
  566.4415 1.14 11
  567.0050 0.93 9
  567.4517 1.13 11
  568.3167 1.04 10
  569.3619 1.03 10
  572.2708 1.77 18
  580.3351 99.96 999
  581.5093 36.86 368
  582.5257 15.08 151
  583.3240 7.42 74
  584.2791 4.00 40
//
