ACCESSION: MSBNK-Kyoto_Univ-CA000071
RECORD_TITLE: Anhydrolutein-II; FAB-EBEB; MS2; m/z: 550.42; [M]+*
DATE: 2016.01.19 (Created 2010.04.01, modified 2011.05.10)
AUTHORS: Akimoto N, Graduate School of Pharmaceutical Sciences, Kyoto University and Maoka T, Research Institute for Production Development
LICENSE: CC BY-SA
PUBLICATION: Khachik, F.; Englert, G.; Beecher, G. R.; Smith Jr. J. C. Isolation, structural elucidation, and partial synthesis of lutein dehydration products in extracts from human plasma. J. Chromatogr. B., 1995, 670, 219-233 doi:10.1016/0378-4347(95)00169-7
COMMENT: Profile spectrum of this record is given as a JPEG file.
COMMENT: [Profile] CA000071.jpg
CH$NAME: Anhydrolutein-II
CH$COMPOUND_CLASS: N/A
CH$FORMULA: C40H54O
CH$EXACT_MASS: 550.41747
CH$SMILES: C(=CC=CC=C(C=CC=C(C)C=CC(=C(C)2)C(C)(C)CC(C2)O)C)(C)C=CC=C(C=CC(C(C)(C)1)C(C)=CC=C1)C
CH$IUPAC: InChI=1S/C40H54O/c1-30(18-13-20-32(3)23-25-37-34(5)22-15-27-39(37,7)8)16-11-12-17-31(2)19-14-21-33(4)24-26-38-35(6)28-36(41)29-40(38,9)10/h11-27,36-37,41H,28-29H2,1-10H3/b12-11+,18-13+,19-14+,25-23+,26-24+,30-16+,31-17+,32-20+,33-21+/t36-,37+/m1/s1
CH$LINK: INCHIKEY HBHHQQIZEXNSHZ-NHWXEJKLSA-N
AC$INSTRUMENT: JMS-HX/HX 110A, JEOL
AC$INSTRUMENT_TYPE: FAB-EBEB
AC$MASS_SPECTROMETRY: MS_TYPE MS2
AC$MASS_SPECTROMETRY: ION_MODE POSITIVE
AC$MASS_SPECTROMETRY: ATOM_GUN_CURRENT 5 mA
AC$MASS_SPECTROMETRY: BOMBARDMENT 6 kV xenon
AC$MASS_SPECTROMETRY: COLLISION_ENERGY 3 kV
AC$MASS_SPECTROMETRY: COLLISION_GAS Ar
AC$MASS_SPECTROMETRY: GAS_PRESSURE adjust to attenuate the intensity of the precursor ion by 30 %
AC$MASS_SPECTROMETRY: IONIZATION FAB
AC$MASS_SPECTROMETRY: MATRIX 1-2 uL m-NBA
AC$MASS_SPECTROMETRY: PROBE_TIP stainless-steel
MS$FOCUSED_ION: BASE_PEAK 104.9618
MS$FOCUSED_ION: PRECURSOR_M/Z 550.42
MS$FOCUSED_ION: PRECURSOR_TYPE [M]+*
MS$DATA_PROCESSING: RELATIVE_M/Z normalised by peak(m/z=104.9618).  set 999 for peak(m/z=550.2919,rel=1550).
PK$SPLASH: splash10-0udl-3910010000-0a63acc07590866db1f6
PK$NUM_PEAK: 1666
PK$PEAK: m/z int. rel.int.
  11.9639 0.01 0
  12.9693 0.04 1
  13.9366 0.07 1
  14.9777 0.19 3
  16.8063 0.01 0
  18.9841 0.01 0
  22.9225 0.01 0
  23.9465 0.02 0
  24.9486 0.04 1
  25.0264 0.01 0
  25.9523 0.46 7
  26.9572 3.82 59
  27.9607 0.27 4
  28.9690 4.05 63
  29.9263 0.04 1
  30.9398 0.29 4
  33.2760 0.01 0
  35.0173 0.01 0
  35.8037 0.01 0
  35.8980 0.02 0
  36.1935 0.01 0
  36.3106 0.01 0
  36.4352 0.01 0
  36.9291 0.40 6
  37.6103 0.01 0
  37.9382 1.08 17
  38.2877 0.01 0
  38.6958 0.01 0
  38.9433 9.26 144
  39.2291 0.01 0
  39.5458 0.02 0
  39.6891 0.01 0
  39.9577 0.98 15
  40.1708 0.02 0
  40.9611 18.71 290
  41.1731 0.02 0
  41.5792 0.02 0
  41.9478 0.26 4
  42.4141 0.01 0
  42.9624 10.92 169
  43.9427 0.18 3
  44.9457 0.32 5
  47.9240 0.01 0
  48.0071 0.01 0
  48.2054 0.01 0
  48.9161 0.18 3
  49.0205 0.02 0
  49.1536 0.02 0
  49.2403 0.01 0
  49.3618 0.01 0
  49.4903 0.01 0
  49.5632 0.01 0
  49.9315 2.76 43
  50.0988 0.01 0
  50.7299 0.01 0
  50.9380 5.67 88
  51.1222 0.02 0
  51.3804 0.02 0
  51.4431 0.01 0
  51.6093 0.01 0
  51.9462 1.85 29
  52.0776 0.02 0
  52.9503 10.78 167
  53.8124 0.03 0
  53.9579 0.30 5
  54.4886 0.02 0
  54.5605 0.01 0
  54.9609 23.17 359
  55.1569 0.03 0
  55.2828 0.01 0
  55.4734 0.01 0
  55.5892 0.02 0
  55.9702 0.33 5
  56.9746 7.07 110
  57.1931 0.02 0
  57.4180 0.04 1
  57.4977 0.02 0
  57.6588 0.01 0
  57.9719 0.11 2
  58.9618 1.27 20
  59.9081 0.03 0
  60.4446 0.02 0
  60.6367 0.01 0
  60.9209 0.28 4
  61.1052 0.02 0
  61.2524 0.01 0
  61.5075 0.01 0
  61.9257 1.46 23
  62.3268 0.01 0
  62.9349 4.36 68
  63.1187 0.04 1
  63.2718 0.03 0
  63.3646 0.03 0
  63.5524 0.01 0
  63.7064 0.02 0
  63.9423 1.03 16
  64.3184 0.01 0
  64.6807 0.03 0
  64.9410 8.05 125
  65.1941 0.04 1
  65.3128 0.04 1
  65.4256 0.04 1
  65.5791 0.02 0
  65.6465 0.01 0
  65.9479 1.35 21
  66.2079 0.02 0
  66.4928 0.01 0
  66.9517 13.19 204
  67.7353 0.01 0
  67.9501 0.24 4
  68.5801 0.01 0
  68.9602 15.12 234
  69.1927 0.04 1
  69.2615 0.02 0
  69.4422 0.02 0
  69.9674 0.13 2
  70.9454 1.76 27
  71.3296 0.01 0
  71.7023 0.03 0
  71.9534 0.03 0
  72.3450 0.02 0
  72.5824 0.01 0
  72.8930 0.08 1
  73.0665 0.01 0
  73.2445 0.01 0
  73.4815 0.03 0
  73.9102 1.21 19
  74.2486 0.02 0
  74.9208 1.58 24
  75.0568 0.15 2
  75.2791 0.08 1
  75.4462 0.06 1
  75.9197 1.13 18
  76.1736 0.10 2
  76.2984 0.02 0
  76.9277 24.20 375
  77.1428 0.22 3
  77.2769 0.12 2
  77.6622 0.11 2
  77.9359 4.76 74
  78.1244 0.08 1
  78.2990 0.05 1
  78.5374 0.05 1
  78.9414 26.86 416
  79.2648 0.03 0
  79.3571 0.03 0
  79.4881 0.02 0
  79.9527 2.35 36
  80.1013 0.03 0
  80.3656 0.01 0
  80.6273 0.09 1
  80.9528 23.09 358
  81.3443 0.05 1
  81.4637 0.02 0
  81.9465 0.54 8
  82.1101 0.03 0
  82.4001 0.01 0
  82.4966 0.05 1
  82.9588 4.59 71
  83.2053 0.01 0
  83.3989 0.03 0
  83.9528 0.15 2
  84.3378 0.01 0
  84.6545 0.03 0
  84.9453 6.03 93
  85.2392 0.02 0
  85.3569 0.02 0
  85.9061 0.52 8
  86.1129 0.03 0
  86.3683 0.04 1
  86.9138 0.79 12
  87.6001 0.01 0
  87.7019 0.02 0
  87.9159 0.36 6
  88.0842 0.05 1
  88.3213 0.02 0
  88.5070 0.15 2
  88.9365 2.17 34
  89.2217 0.21 3
  89.4365 0.20 3
  89.9290 0.69 11
  90.1263 0.19 3
  90.3564 0.11 2
  90.5182 0.13 2
  90.9410 52.48 814
  91.2328 0.08 1
  91.4543 0.05 1
  91.5755 0.10 2
  91.9491 4.89 76
  92.1686 0.07 1
  92.4958 0.12 2
  92.9634 35.33 548
  93.3316 0.13 2
  93.4097 0.07 1
  93.5180 0.04 1
  93.6437 0.01 0
  93.9619 1.52 24
  94.2594 0.03 0
  94.4712 0.04 1
  94.9729 15.35 238
  95.4100 0.06 1
  95.5600 0.05 1
  95.9546 0.34 5
  96.2300 0.02 0
  96.5062 0.04 1
  96.9645 1.16 18
  97.2562 0.03 0
  97.4273 0.05 1
  97.5009 0.01 0
  97.9233 0.28 4
  98.9360 0.21 3
  99.9419 0.07 1
  100.1255 0.01 0
  100.4332 0.03 0
  100.5771 0.02 0
  100.9268 0.75 12
  101.2119 0.10 2
  101.3672 0.07 1
  101.4690 0.04 1
  101.9453 2.53 39
  102.2133 0.06 1
  102.4933 0.10 2
  102.9515 8.08 125
  103.1368 0.16 2
  103.3116 0.11 2
  103.4633 0.08 1
  103.5755 0.05 1
  103.9561 3.96 61
  104.1589 0.07 1
  104.2890 0.06 1
  104.9618 64.44 999
  105.3575 0.08 1
  105.5264 0.08 1
  105.6201 0.05 1
  105.9732 5.30 82
  106.2598 0.05 1
  106.4084 0.06 1
  106.9745 25.94 402
  107.3755 0.06 1
  107.5458 0.05 1
  107.9638 1.07 17
  108.2044 0.03 0
  108.3149 0.02 0
  108.9857 11.53 179
  109.4047 0.05 1
  109.6167 0.07 1
  109.9557 0.19 3
  110.2555 0.01 0
  110.5042 0.05 1
  110.9654 1.11 17
  111.3511 0.01 0
  111.9521 0.11 2
  112.2152 0.04 1
  112.5927 0.15 2
  112.9446 0.50 8
  113.3848 0.17 3
  113.9338 0.78 12
  114.1563 0.13 2
  114.9329 22.77 353
  115.4417 0.16 2
  115.9407 8.86 137
  116.9440 23.90 371
  117.3386 0.12 2
  117.9462 3.98 62
  118.2587 0.06 1
  118.9542 54.45 844
  119.1988 0.18 3
  119.4290 0.13 2
  119.5300 0.05 1
  119.9605 4.87 75
  120.2962 0.08 1
  120.4869 0.19 3
  120.9652 25.76 399
  121.3068 0.14 2
  121.5704 0.05 1
  121.9518 0.76 12
  122.3315 0.01 0
  122.4310 0.02 0
  122.5973 0.07 1
  122.9634 2.33 36
  123.1772 0.02 0
  123.2981 0.01 0
  123.4858 0.05 1
  123.7374 0.06 1
  123.9679 0.11 2
  124.1576 0.06 1
  124.5427 0.03 0
  124.9584 0.58 9
  125.2214 0.07 1
  125.4474 0.07 1
  125.5613 0.03 0
  125.9172 0.87 13
  126.1428 0.09 1
  126.3941 0.10 2
  126.9206 8.09 125
  127.9215 25.62 397
  128.2638 0.27 4
  128.9242 31.94 495
  129.3710 0.12 2
  129.9306 12.42 193
  130.2186 0.06 1
  130.9376 36.00 558
  131.3799 0.12 2
  131.9403 4.83 75
  132.9484 22.90 355
  133.2527 0.08 1
  133.4230 0.10 2
  133.6463 0.14 2
  133.9638 1.57 24
  134.2976 0.09 1
  134.4257 0.05 1
  134.9543 7.95 123
  135.3624 0.07 1
  135.5795 0.07 1
  135.9564 0.19 3
  136.1082 0.04 1
  136.3396 0.03 0
  136.4223 0.02 0
  136.9447 1.68 26
  137.1479 0.04 1
  137.2493 0.01 0
  137.4872 0.03 0
  137.7783 0.04 1
  137.9644 0.27 4
  138.3280 0.02 0
  138.5087 0.07 1
  138.9208 2.89 45
  139.2080 0.08 1
  139.2903 0.03 0
  139.5027 0.13 2
  139.9035 0.93 14
  140.0981 0.39 6
  140.9251 21.93 340
  141.2700 0.17 3
  141.9335 20.41 316
  142.1824 0.22 3
  142.9409 36.78 570
  143.2679 0.24 4
  143.5191 0.20 3
  143.9464 10.24 159
  144.2288 0.19 3
  144.4914 0.20 3
  144.9558 37.92 588
  145.2784 0.19 3
  145.4809 0.17 3
  145.9644 2.88 45
  146.2175 0.09 1
  146.9727 8.67 134
  147.2604 0.13 2
  147.4969 0.09 1
  147.9558 0.64 10
  148.3399 0.10 2
  148.4405 0.05 1
  148.9697 3.09 48
  149.4242 0.07 1
  149.9145 0.48 7
  150.2117 0.08 1
  150.9465 2.07 32
  151.9231 7.72 120
  152.3925 0.33 5
  152.9425 10.99 170
  153.3151 0.13 2
  153.9590 6.20 96
  154.2120 0.12 2
  154.9613 22.61 351
  155.2925 0.15 2
  155.5125 0.09 1
  155.9740 13.82 214
  156.3633 0.20 3
  156.9805 30.64 475
  157.9797 5.55 86
  158.9955 15.27 237
  159.4053 0.12 2
  159.6664 0.09 1
  160.0108 1.55 24
  160.2253 0.05 1
  160.4071 0.08 1
  161.0137 3.44 53
  161.3490 0.07 1
  161.9630 0.42 7
  162.3409 0.11 2
  162.4610 0.06 1
  162.9933 1.44 22
  163.9821 0.86 13
  164.2029 0.23 4
  164.9728 16.60 257
  165.2185 0.25 4
  165.3231 0.15 2
  165.9763 5.63 87
  166.2269 0.20 3
  166.3305 0.08 1
  166.9827 14.41 223
  167.3519 0.10 2
  167.9869 5.51 85
  168.2305 0.16 2
  168.9950 19.97 310
  169.2919 0.13 2
  169.4901 0.12 2
  169.9988 6.95 108
  170.2864 0.14 2
  171.0077 14.95 232
  171.2657 0.16 2
  171.4946 0.20 3
  172.0154 2.00 31
  172.2222 0.18 3
  172.4760 0.20 3
  173.0130 14.08 218
  173.5025 0.14 2
  173.9909 0.76 12
  175.0159 4.27 66
  175.2702 0.10 2
  175.4425 0.14 2
  175.9601 1.17 18
  176.3457 0.09 1
  176.9731 1.74 27
  177.9555 8.29 129
  178.5256 0.17 3
  178.9666 14.29 222
  179.3592 0.16 2
  179.4886 0.15 2
  179.9693 6.26 97
  180.5096 0.24 4
  180.9734 15.24 236
  181.3359 0.18 3
  181.9851 6.14 95
  182.9852 15.51 240
  183.4127 0.15 2
  183.9886 3.01 47
  184.2769 0.10 2
  184.4323 0.17 3
  184.9957 6.83 106
  185.2215 0.18 3
  185.3284 0.10 2
  185.9766 1.36 21
  186.3350 0.09 1
  186.9977 3.08 48
  187.2961 0.07 1
  187.5921 0.11 2
  187.9650 0.45 7
  188.2379 0.17 3
  188.3552 0.13 2
  188.9475 3.68 57
  189.2841 0.11 2
  189.9453 1.75 27
  190.1884 0.20 3
  190.4746 0.16 2
  190.9469 6.32 98
  191.9645 5.60 87
  192.2406 0.11 2
  192.9633 11.59 180
  193.3161 0.12 2
  193.9647 5.44 84
  194.2636 0.21 3
  194.4707 0.12 2
  194.9730 14.05 218
  195.2708 0.14 2
  195.4747 0.12 2
  195.9799 4.28 66
  196.2296 0.10 2
  196.5334 0.20 3
  196.9899 10.75 167
  197.6506 0.21 3
  197.9978 1.30 20
  198.3065 0.10 2
  198.9979 5.03 78
  199.2596 0.13 2
  199.5336 0.11 2
  199.9786 0.73 11
  200.2578 0.10 2
  200.9977 1.75 27
  201.9400 3.53 55
  202.2459 0.15 2
  202.9491 4.22 65
  203.2818 0.05 1
  203.3741 0.03 0
  203.9627 2.00 31
  204.1688 0.13 2
  204.3808 0.13 2
  204.9606 5.60 87
  205.2592 0.11 2
  205.4746 0.15 2
  205.9699 4.14 64
  206.2422 0.11 2
  206.5029 0.18 3
  206.9804 9.71 151
  207.9959 3.65 57
  208.2193 0.12 2
  208.9950 9.85 153
  209.3428 0.12 2
  209.5553 0.10 2
  209.9927 1.37 21
  211.0109 4.37 68
  211.3687 0.10 2
  211.6320 0.08 1
  212.0178 0.90 14
  212.9974 1.50 23
  213.3887 0.09 1
  213.6171 0.14 2
  214.0078 0.52 8
  214.9661 3.71 58
  215.4110 0.09 1
  215.9710 2.13 33
  216.4518 0.13 2
  216.9977 4.64 72
  217.4033 0.06 1
  217.6133 0.07 1
  217.9962 1.65 26
  218.3253 0.06 1
  218.4859 0.04 1
  218.9971 5.06 78
  219.3894 0.12 2
  220.0128 2.60 40
  220.3915 0.11 2
  221.0243 6.66 103
  221.3856 0.12 2
  222.0277 2.20 34
  222.4622 0.14 2
  223.0472 4.73 73
  223.4193 0.08 1
  223.5855 0.09 1
  224.0333 1.04 16
  224.3814 0.07 1
  225.0484 2.26 35
  226.0175 0.95 15
  226.3465 0.12 2
  226.5776 0.17 3
  227.0241 1.19 18
  227.3535 0.08 1
  227.5612 0.14 2
  227.9975 1.44 22
  228.2398 0.12 2
  228.5036 0.08 1
  229.0032 2.98 46
  229.2977 0.05 1
  229.6319 0.09 1
  230.0105 1.61 25
  230.3142 0.09 1
  230.5254 0.17 3
  231.0170 3.26 51
  231.3234 0.05 1
  232.0296 1.65 26
  232.5051 0.03 0
  233.0329 4.03 62
  233.3604 0.08 1
  234.0280 1.19 18
  234.3707 0.11 2
  235.0398 3.66 57
  235.3820 0.11 2
  235.5413 0.11 2
  236.0272 0.85 13
  236.3571 0.09 1
  237.0495 2.73 42
  237.3436 0.07 1
  237.4841 0.09 1
  238.0193 0.40 6
  238.2703 0.12 2
  238.4866 0.10 2
  239.0214 1.82 28
  239.4863 0.04 1
  240.0291 0.59 9
  240.3496 0.08 1
  240.5112 0.07 1
  241.0117 1.47 23
  241.5331 0.08 1
  241.7046 0.10 2
  242.0227 0.92 14
  242.3479 0.05 1
  243.0189 2.22 34
  243.3934 0.08 1
  243.4733 0.05 1
  243.7326 0.18 3
  244.0221 1.13 18
  244.2762 0.13 2
  244.4013 0.06 1
  244.5467 0.09 1
  244.6437 0.05 1
  245.0387 2.59 40
  245.4685 0.12 2
  245.5615 0.03 0
  246.0405 1.14 18
  246.3420 0.04 1
  247.0316 2.66 41
  247.4151 0.10 2
  247.5082 0.04 1
  248.0623 0.86 13
  248.2511 0.09 1
  249.0631 2.15 33
  249.3551 0.15 2
  249.4725 0.08 1
  249.5853 0.05 1
  250.0512 0.56 9
  250.2789 0.08 1
  251.0671 1.81 28
  251.7083 0.12 2
  252.0515 0.83 13
  252.2680 0.07 1
  252.4780 0.06 1
  253.0228 1.06 16
  253.5177 0.07 1
  253.7376 0.03 0
  254.0094 0.43 7
  254.1460 0.18 3
  254.3121 0.12 2
  254.4467 0.12 2
  255.0345 1.48 23
  255.3517 0.08 1
  255.5843 0.06 1
  255.7596 0.07 1
  256.0316 0.68 11
  256.3516 0.01 0
  256.5034 0.10 2
  256.5842 0.04 1
  256.7800 0.11 2
  257.0501 1.91 30
  257.4385 0.09 1
  257.7001 0.08 1
  258.0320 1.01 16
  258.3462 0.03 0
  258.4830 0.04 1
  258.6802 0.08 1
  259.0543 1.85 29
  259.3358 0.06 1
  260.0263 0.71 11
  260.3289 0.02 0
  260.6440 0.17 3
  261.0571 1.90 29
  261.5374 0.04 1
  262.0731 0.45 7
  262.3995 0.07 1
  262.5726 0.06 1
  263.0610 1.47 23
  263.4659 0.06 1
  264.0862 0.48 7
  264.2837 0.09 1
  264.5115 0.12 2
  265.0832 1.57 24
  265.3783 0.07 1
  265.5937 0.07 1
  266.0469 0.55 9
  266.2519 0.13 2
  266.3876 0.05 1
  266.5839 0.06 1
  267.0531 1.29 20
  268.0477 0.54 8
  268.2982 0.03 0
  268.4465 0.01 0
  268.5494 0.01 0
  269.0676 1.22 19
  269.4700 0.04 1
  269.6286 0.02 0
  270.0691 0.59 9
  270.3963 0.04 1
  271.0760 1.35 21
  271.4079 0.07 1
  271.5423 0.05 1
  271.6918 0.03 0
  272.0640 0.56 9
  272.2307 0.05 1
  272.3928 0.06 1
  272.6141 0.04 1
  273.0688 1.29 20
  273.5815 0.05 1
  274.0626 0.56 9
  274.1885 0.24 4
  274.3875 0.12 2
  274.5569 0.12 2
  275.0646 1.25 19
  275.6395 0.07 1
  276.0925 0.50 8
  276.3748 0.04 1
  276.6069 0.05 1
  277.0811 0.83 13
  277.4255 0.02 0
  277.5693 0.04 1
  278.0648 0.32 5
  278.2693 0.07 1
  278.5629 0.03 0
  279.0578 0.80 12
  279.4888 0.03 0
  279.6974 0.03 0
  280.0531 0.35 5
  280.5027 0.04 1
  281.0361 1.00 16
  281.5241 0.05 1
  281.7763 0.03 0
  282.0649 0.54 8
  282.2842 0.04 1
  282.4566 0.08 1
  282.6237 0.08 1
  283.0834 1.20 19
  283.5756 0.06 1
  283.7520 0.04 1
  284.0909 0.51 8
  284.4900 0.12 2
  284.7662 0.05 1
  285.0992 1.22 19
  285.4404 0.07 1
  285.5869 0.02 0
  286.0509 0.29 4
  286.3407 0.02 0
  286.5209 0.06 1
  286.6140 0.05 1
  287.0656 0.73 11
  287.4413 0.05 1
  287.6288 0.06 1
  287.8058 0.06 1
  288.0924 0.39 6
  288.3876 0.05 1
  288.5560 0.04 1
  288.6821 0.02 0
  289.0619 0.77 12
  289.5626 0.04 1
  290.0587 0.28 4
  290.4274 0.07 1
  290.7102 0.06 1
  291.0882 0.54 8
  291.3723 0.06 1
  291.6156 0.02 0
  292.0835 0.32 5
  292.2805 0.05 1
  292.5779 0.10 2
  293.0605 0.62 10
  293.3514 0.02 0
  293.4255 0.01 0
  293.6073 0.03 0
  293.7898 0.03 0
  294.0239 0.22 3
  294.1488 0.14 2
  294.3274 0.02 0
  294.5793 0.08 1
  294.6475 0.05 1
  295.0621 0.52 8
  295.3994 0.03 0
  295.6277 0.03 0
  295.8268 0.06 1
  296.0596 0.39 6
  296.2323 0.12 2
  296.5638 0.03 0
  297.0818 0.95 15
  297.3445 0.02 0
  297.4921 0.06 1
  297.6277 0.02 0
  297.7303 0.02 0
  298.0936 0.28 4
  298.3438 0.05 1
  298.5721 0.01 0
  298.7025 0.03 0
  299.0567 0.48 7
  299.4525 0.03 0
  300.0080 0.22 3
  300.1556 0.13 2
  300.5907 0.03 0
  301.0767 0.59 9
  301.3562 0.05 1
  301.5794 0.02 0
  302.0430 0.28 4
  302.2305 0.06 1
  302.4782 0.06 1
  302.6326 0.04 1
  303.0844 0.57 9
  303.4004 0.03 0
  303.5475 0.01 0
  304.0550 0.30 5
  304.3638 0.03 0
  304.5567 0.02 0
  305.0902 0.35 5
  305.7126 0.05 1
  305.8405 0.07 1
  306.0440 0.18 3
  306.1640 0.09 1
  306.3416 0.02 0
  306.5180 0.05 1
  306.6797 0.06 1
  307.0676 0.41 6
  307.3322 0.11 2
  307.4681 0.05 1
  307.7267 0.02 0
  308.1021 0.16 2
  308.6956 0.06 1
  309.0724 0.46 7
  309.3615 0.03 0
  309.4697 0.04 1
  309.5685 0.05 1
  310.0793 0.31 5
  311.0646 0.39 6
  311.2265 0.17 3
  311.5530 0.06 1
  311.8085 0.06 1
  312.0819 0.17 3
  312.3786 0.02 0
  312.4994 0.04 1
  313.0848 0.46 7
  313.4539 0.03 0
  313.6457 0.03 0
  313.9385 0.11 2
  314.1291 0.10 2
  314.5746 0.03 0
  314.7658 0.03 0
  315.1204 0.45 7
  315.3913 0.04 1
  315.5999 0.05 1
  316.1278 0.13 2
  316.3205 0.06 1
  316.4015 0.02 0
  316.6413 0.06 1
  317.0936 0.61 9
  317.5553 0.07 1
  317.7500 0.04 1
  318.1088 0.17 3
  318.5745 0.07 1
  319.0942 0.43 7
  319.3573 0.04 1
  319.4856 0.03 0
  319.6989 0.06 1
  319.8631 0.06 1
  320.1210 0.13 2
  320.3144 0.04 1
  320.4314 0.03 0
  321.0808 0.32 5
  321.2423 0.14 2
  321.3534 0.06 1
  321.6339 0.06 1
  322.0687 0.08 1
  322.2622 0.05 1
  322.3719 0.04 1
  323.1027 0.17 3
  323.3308 0.08 1
  323.5423 0.01 0
  323.6939 0.02 0
  324.0391 0.13 2
  324.2061 0.05 1
  324.4495 0.03 0
  324.6198 0.02 0
  325.1147 0.29 4
  326.1133 0.15 2
  326.2803 0.09 1
  326.4287 0.05 1
  326.5504 0.02 0
  326.9597 0.27 4
  327.1587 0.36 6
  327.4089 0.07 1
  327.6039 0.02 0
  327.7368 0.05 1
  327.8510 0.04 1
  328.0695 0.20 3
  328.2767 0.12 2
  328.3876 0.01 0
  328.5504 0.06 1
  328.7516 0.02 0
  329.1296 0.38 6
  329.4272 0.04 1
  329.6438 0.02 0
  329.8012 0.04 1
  330.0477 0.15 2
  330.1866 0.17 3
  330.3959 0.06 1
  330.6968 0.10 2
  331.1553 0.60 9
  331.7122 0.05 1
  332.1436 0.17 3
  332.3290 0.05 1
  332.5889 0.04 1
  333.1073 0.18 3
  333.3280 0.08 1
  333.8651 0.07 1
  334.0533 0.11 2
  334.1470 0.08 1
  334.3119 0.05 1
  334.4735 0.03 0
  334.6756 0.02 0
  335.1011 0.33 5
  335.4257 0.05 1
  335.6584 0.02 0
  336.1485 0.32 5
  336.4817 0.02 0
  336.7271 0.02 0
  337.1322 0.39 6
  337.6271 0.05 1
  337.7488 0.05 1
  338.0934 0.18 3
  338.2917 0.08 1
  338.4473 0.04 1
  338.5671 0.02 0
  338.9164 0.07 1
  339.1432 0.26 4
  339.4560 0.05 1
  339.6190 0.04 1
  339.8819 0.06 1
  340.1068 0.12 2
  340.2718 0.04 1
  340.7357 0.02 0
  341.0904 0.24 4
  341.2581 0.12 2
  341.6961 0.03 0
  341.8645 0.08 1
  342.0755 0.19 3
  342.2419 0.12 2
  342.3318 0.03 0
  342.4483 0.03 0
  343.1340 0.47 7
  343.3810 0.03 0
  343.5275 0.04 1
  344.1361 0.39 6
  344.4384 0.05 1
  344.5296 0.04 1
  344.6801 0.01 0
  345.1569 0.40 6
  345.3214 0.09 1
  345.5785 0.03 0
  346.1420 0.21 3
  346.3931 0.07 1
  346.5663 0.03 0
  346.8680 0.05 1
  347.1651 0.41 6
  347.5775 0.04 1
  347.7127 0.03 0
  347.8653 0.07 1
  348.1358 0.28 4
  348.2664 0.14 2
  348.4563 0.04 1
  348.7661 0.03 0
  348.8714 0.06 1
  349.1526 0.38 6
  349.3592 0.07 1
  349.7684 0.03 0
  350.1669 0.24 4
  350.7907 0.03 0
  351.2140 0.22 3
  351.8733 0.10 2
  351.9906 0.05 1
  352.2479 0.10 2
  352.5406 0.01 0
  352.6659 0.02 0
  352.9513 0.12 2
  353.1293 0.09 1
  353.3627 0.07 1
  353.8481 0.04 1
  354.0141 0.10 2
  354.1635 0.07 1
  354.3427 0.05 1
  354.4500 0.02 0
  354.6638 0.04 1
  354.7597 0.04 1
  355.1388 0.17 3
  355.3280 0.09 1
  355.4785 0.02 0
  355.6318 0.03 0
  356.0089 0.06 1
  356.1388 0.06 1
  356.2967 0.02 0
  356.7372 0.02 0
  357.1543 0.31 5
  357.3582 0.14 2
  357.5874 0.06 1
  358.1719 0.31 5
  358.3279 0.09 1
  358.4625 0.10 2
  358.8871 0.03 0
  359.2697 0.20 3
  359.4470 0.06 1
  359.7449 0.01 0
  360.1682 0.11 2
  360.2856 0.04 1
  360.5489 0.06 1
  360.8176 0.04 1
  361.1483 0.29 4
  361.4397 0.02 0
  361.7464 0.06 1
  361.8511 0.06 1
  362.1618 0.43 7
  362.6019 0.06 1
  362.7967 0.03 0
  363.1614 0.20 3
  363.3989 0.04 1
  363.6370 0.01 0
  363.8611 0.01 0
  364.1932 0.26 4
  364.3273 0.14 2
  364.4574 0.03 0
  365.1671 0.15 2
  365.4520 0.04 1
  365.5814 0.04 1
  365.6695 0.02 0
  365.7515 0.02 0
  366.1271 0.05 1
  366.3460 0.07 1
  366.6356 0.02 0
  366.7803 0.01 0
  367.0085 0.11 2
  367.1833 0.14 2
  367.3088 0.06 1
  367.4329 0.11 2
  367.6338 0.03 0
  367.8200 0.02 0
  368.1003 0.09 1
  368.2736 0.09 1
  368.3609 0.03 0
  368.5868 0.06 1
  369.1686 0.20 3
  369.2659 0.10 2
  369.3565 0.02 0
  369.5031 0.07 1
  369.6664 0.06 1
  369.8217 0.03 0
  370.0130 0.03 0
  370.1730 0.06 1
  370.2863 0.04 1
  370.8682 0.03 0
  371.0149 0.09 1
  371.2082 0.10 2
  371.4655 0.04 1
  371.6702 0.04 1
  371.7589 0.03 0
  371.9629 0.08 1
  372.1182 0.06 1
  372.2482 0.09 1
  372.5036 0.04 1
  372.7096 0.04 1
  373.1503 0.29 4
  373.5824 0.03 0
  373.6965 0.03 0
  374.1386 0.25 4
  374.3173 0.17 3
  374.4527 0.04 1
  374.6915 0.03 0
  375.1790 0.33 5
  375.4391 0.04 1
  375.6072 0.02 0
  375.8080 0.03 0
  376.1815 0.37 6
  376.4103 0.03 0
  376.5497 0.04 1
  376.7712 0.03 0
  377.1555 0.24 4
  377.5964 0.03 0
  377.7679 0.02 0
  377.9887 0.06 1
  378.1349 0.04 1
  378.3090 0.03 0
  378.4371 0.04 1
  378.5499 0.01 0
  378.9976 0.09 1
  379.1671 0.09 1
  379.3326 0.11 2
  379.6822 0.04 1
  379.9698 0.03 0
  380.2341 0.08 1
  380.5905 0.05 1
  380.8301 0.02 0
  381.1758 0.31 5
  381.2653 0.12 2
  381.3727 0.07 1
  381.5243 0.02 0
  381.9675 0.05 1
  382.1010 0.05 1
  382.2118 0.07 1
  382.2845 0.03 0
  382.5602 0.04 1
  382.7125 0.02 0
  382.9294 0.12 2
  383.2091 0.23 4
  383.4955 0.02 0
  383.6438 0.02 0
  384.1038 0.25 4
  384.2854 0.18 3
  384.7448 0.02 0
  385.0005 0.19 3
  385.1841 0.29 4
  385.3691 0.11 2
  385.6382 0.04 1
  385.7885 0.03 0
  385.8860 0.02 0
  386.0817 0.11 2
  386.2733 0.08 1
  387.0861 0.09 1
  387.3299 0.07 1
  387.6198 0.01 0
  388.1682 0.15 2
  388.3265 0.06 1
  388.8970 0.03 0
  389.0827 0.03 0
  389.2524 0.04 1
  389.3794 0.03 0
  389.7455 0.02 0
  390.0622 0.13 2
  390.2339 0.06 1
  390.4577 0.07 1
  390.6682 0.02 0
  391.0270 0.10 2
  391.1954 0.12 2
  391.5388 0.03 0
  392.2205 0.22 3
  392.3655 0.10 2
  392.5520 0.02 0
  392.8400 0.02 0
  392.9576 0.03 0
  393.1354 0.04 1
  393.6868 0.01 0
  393.8887 0.02 0
  394.1293 0.02 0
  394.3332 0.04 1
  394.4749 0.04 1
  394.8727 0.03 0
  395.1407 0.17 3
  395.2350 0.09 1
  395.3841 0.12 2
  395.6388 0.02 0
  396.1389 0.15 2
  396.3374 0.11 2
  396.5554 0.03 0
  396.7480 0.04 1
  396.9158 0.10 2
  397.1338 0.44 7
  397.2862 0.37 6
  397.6519 0.05 1
  397.7804 0.02 0
  397.8960 0.02 0
  398.1375 0.15 2
  398.2766 0.07 1
  398.8604 0.09 1
  399.1125 0.14 2
  399.3064 0.05 1
  399.5711 0.03 0
  399.6899 0.02 0
  399.8334 0.02 0
  400.0751 0.02 0
  400.2801 0.03 0
  400.4289 0.04 1
  400.5444 0.02 0
  400.9797 0.03 0
  401.1700 0.16 2
  401.3636 0.09 1
  401.5620 0.01 0
  401.9071 0.04 1
  402.1823 0.23 4
  402.4039 0.07 1
  402.6537 0.02 0
  403.1665 0.28 4
  403.4597 0.02 0
  403.6808 0.05 1
  404.2164 0.27 4
  404.7313 0.02 0
  404.9097 0.05 1
  405.1534 0.28 4
  405.2690 0.15 2
  405.5389 0.03 0
  405.7018 0.02 0
  406.0045 0.02 0
  406.1487 0.03 0
  406.3004 0.06 1
  406.4260 0.06 1
  406.6010 0.04 1
  406.8749 0.01 0
  407.1181 0.06 1
  407.2924 0.07 1
  407.5363 0.07 1
  407.6993 0.03 0
  408.0100 0.02 0
  408.1503 0.04 1
  408.2766 0.09 1
  408.4777 0.07 1
  408.6454 0.02 0
  408.9608 0.05 1
  409.2040 0.06 1
  409.4339 0.05 1
  409.7486 0.04 1
  409.9464 0.06 1
  410.2071 0.37 6
  410.4710 0.09 1
  410.7464 0.02 0
  410.9034 0.03 0
  411.2129 0.09 1
  411.4140 0.03 0
  411.6687 0.02 0
  412.1352 0.10 2
  412.3565 0.06 1
  412.5102 0.04 1
  412.6853 0.02 0
  412.8017 0.02 0
  413.1506 0.22 3
  413.3358 0.13 2
  413.8198 0.03 0
  414.1614 0.24 4
  414.3171 0.10 2
  414.7531 0.09 1
  414.9102 0.07 1
  415.2485 0.15 2
  415.6517 0.03 0
  416.1281 0.18 3
  416.4152 0.20 3
  416.7958 0.02 0
  416.9902 0.05 1
  417.1097 0.03 0
  417.2953 0.08 1
  417.4182 0.04 1
  417.5364 0.02 0
  417.6834 0.02 0
  417.8564 0.03 0
  417.9652 0.03 0
  418.3011 0.06 1
  418.5830 0.08 1
  419.1133 0.08 1
  419.2877 0.04 1
  419.4840 0.10 2
  419.6664 0.04 1
  419.8474 0.05 1
  419.9870 0.06 1
  420.0832 0.03 0
  420.2195 0.05 1
  420.4106 0.02 0
  420.5315 0.04 1
  420.6430 0.02 0
  420.7746 0.05 1
  420.9229 0.03 0
  421.1120 0.05 1
  421.3612 0.05 1
  421.5075 0.06 1
  421.7894 0.11 2
  421.9311 0.03 0
  422.3005 0.05 1
  422.4783 0.04 1
  422.5705 0.01 0
  422.7195 0.04 1
  423.0582 0.15 2
  423.3536 0.04 1
  423.6529 0.03 0
  423.8013 0.03 0
  423.9810 0.09 1
  424.1862 0.05 1
  424.3058 0.04 1
  424.4936 0.04 1
  424.7729 0.04 1
  425.1846 0.07 1
  425.5448 0.03 0
  425.7313 0.02 0
  425.8429 0.03 0
  425.9933 0.06 1
  426.1851 0.06 1
  426.3328 0.05 1
  426.5013 0.07 1
  426.5895 0.04 1
  426.7359 0.02 0
  427.2278 0.34 5
  427.4845 0.09 1
  427.6075 0.05 1
  428.1964 1.55 24
  428.6864 0.07 1
  429.1645 0.57 9
  429.7047 0.03 0
  429.8264 0.03 0
  430.0236 0.18 3
  430.1907 0.12 2
  430.3873 0.04 1
  430.5672 0.05 1
  430.6554 0.04 1
  430.7464 0.02 0
  430.9182 0.05 1
  431.0252 0.05 1
  431.1556 0.01 0
  431.3094 0.08 1
  431.4404 0.03 0
  431.9861 0.05 1
  432.1285 0.03 0
  432.3098 0.04 1
  432.6903 0.05 1
  433.1123 0.06 1
  433.2862 0.01 0
  433.6360 0.01 0
  433.8667 0.03 0
  433.9677 0.04 1
  434.1128 0.03 0
  434.3001 0.03 0
  434.5463 0.04 1
  434.7382 0.01 0
  435.0706 0.05 1
  435.2586 0.05 1
  435.4098 0.12 2
  435.6018 0.06 1
  435.7951 0.04 1
  436.1182 0.11 2
  436.4634 0.10 2
  436.6193 0.14 2
  436.8367 0.06 1
  436.9792 0.05 1
  437.1029 0.11 2
  437.3826 0.18 3
  437.9988 0.13 2
  438.1741 0.06 1
  438.3728 0.07 1
  438.6505 0.12 2
  438.8874 0.09 1
  439.0868 0.05 1
  439.3624 0.11 2
  439.5217 0.14 2
  439.6722 0.12 2
  439.8804 0.03 0
  440.1507 0.07 1
  440.4144 0.06 1
  440.6573 0.05 1
  440.8935 0.07 1
  441.1740 0.16 2
  441.3279 0.06 1
  441.6705 0.09 1
  441.8332 0.05 1
  442.2287 0.19 3
  442.5252 0.07 1
  442.7093 0.03 0
  443.2287 0.86 13
  443.5828 0.04 1
  444.1625 0.35 5
  444.3279 0.27 4
  444.6298 0.01 0
  444.8239 0.03 0
  444.9725 0.03 0
  445.1600 0.04 1
  445.3333 0.03 0
  445.6186 0.04 1
  445.8502 0.03 0
  446.0263 0.04 1
  446.1408 0.01 0
  446.4996 0.06 1
  446.7715 0.02 0
  446.9636 0.02 0
  447.1839 0.04 1
  447.4243 0.01 0
  448.1234 0.07 1
  448.2774 0.04 1
  448.4990 0.03 0
  448.7187 0.02 0
  448.9135 0.02 0
  449.1084 0.03 0
  449.2946 0.19 3
  449.5035 0.03 0
  449.8779 0.07 1
  450.1049 0.14 2
  450.3383 0.15 2
  450.6512 0.02 0
  450.8585 0.05 1
  451.0129 0.03 0
  451.2349 0.05 1
  451.4208 0.03 0
  451.6789 0.07 1
  452.0152 0.02 0
  452.2586 0.07 1
  452.3917 0.02 0
  452.5549 0.05 1
  452.7555 0.05 1
  453.1273 0.09 1
  453.4015 0.06 1
  453.7171 0.04 1
  453.9666 0.03 0
  454.1137 0.06 1
  454.3551 0.16 2
  454.5972 0.07 1
  454.8179 0.04 1
  454.9698 0.05 1
  455.2279 0.10 2
  455.4279 0.16 2
  455.5543 0.10 2
  455.7917 0.07 1
  456.0326 0.10 2
  456.3389 0.15 2
  456.5944 0.09 1
  457.2827 0.25 4
  458.2588 12.01 186
  458.7251 0.18 3
  459.2248 0.12 2
  459.5553 0.15 2
  459.7199 0.07 1
  460.1354 0.05 1
  460.4532 0.05 1
  461.0949 0.06 1
  461.1752 0.04 1
  461.4228 0.06 1
  461.7018 0.03 0
  461.8899 0.03 0
  462.0103 0.02 0
  462.1174 0.02 0
  462.3884 0.04 1
  463.1908 0.15 2
  463.3856 0.07 1
  463.6492 0.04 1
  463.7623 0.01 0
  464.1465 0.01 0
  464.3252 0.08 1
  465.2033 0.16 2
  465.4222 0.08 1
  465.5996 0.01 0
  465.7181 0.03 0
  465.8091 0.01 0
  465.9303 0.03 0
  466.1425 0.05 1
  466.4082 0.03 0
  466.7931 0.02 0
  467.0495 0.04 1
  467.2925 0.05 1
  467.4786 0.07 1
  467.6774 0.06 1
  467.8461 0.03 0
  467.9753 0.06 1
  468.1521 0.14 2
  468.3442 0.07 1
  468.4868 0.02 0
  468.6750 0.04 1
  469.1550 0.20 3
  469.3324 0.13 2
  469.5708 0.01 0
  469.7971 0.03 0
  470.1071 0.22 3
  470.3073 0.25 4
  470.5685 0.12 2
  470.7687 0.03 0
  471.2568 0.43 7
  471.4939 0.12 2
  471.6820 0.03 0
  471.8401 0.04 1
  472.5144 0.03 0
  472.9631 0.01 0
  473.1118 0.03 0
  473.2652 0.05 1
  474.0575 0.11 2
  474.1693 0.02 0
  474.4660 0.03 0
  474.7688 0.01 0
  475.2176 0.07 1
  475.3401 0.10 2
  475.4573 0.07 1
  475.9108 0.02 0
  476.3087 0.09 1
  476.4059 0.01 0
  476.5485 0.02 0
  476.8279 0.03 0
  477.1808 0.05 1
  477.5072 0.03 0
  478.1038 0.03 0
  478.2549 0.08 1
  478.3532 0.06 1
  478.4522 0.02 0
  478.5599 0.02 0
  478.7866 0.03 0
  479.2602 0.06 1
  479.4669 0.03 0
  479.5638 0.02 0
  479.7157 0.04 1
  479.8588 0.02 0
  480.1551 0.07 1
  480.4467 0.11 2
  481.1063 0.05 1
  481.3003 0.12 2
  481.5732 0.02 0
  481.7485 0.02 0
  481.9057 0.03 0
  482.0341 0.02 0
  482.2496 0.09 1
  482.4329 0.09 1
  482.5566 0.03 0
  482.8195 0.02 0
  482.9641 0.05 1
  483.2678 0.07 1
  483.4277 0.08 1
  483.5575 0.06 1
  483.7375 0.05 1
  483.8740 0.15 2
  484.3135 1.11 17
  484.8702 0.02 0
  484.9826 0.01 0
  485.2663 0.07 1
  485.5253 0.03 0
  485.7642 0.02 0
  486.0278 0.02 0
  486.3470 0.01 0
  486.6320 0.04 1
  487.1145 0.02 0
  487.2624 0.08 1
  487.5268 0.09 1
  487.9390 0.02 0
  488.5032 0.03 0
  488.8586 0.03 0
  489.2119 0.02 0
  489.4301 0.06 1
  489.6758 0.08 1
  490.3103 0.06 1
  490.5426 0.02 0
  491.1751 0.14 2
  491.4543 0.08 1
  491.9456 0.02 0
  492.2107 0.10 2
  492.4035 0.08 1
  492.6806 0.02 0
  492.9832 0.03 0
  493.2530 0.22 3
  493.5081 0.10 2
  493.7196 0.03 0
  494.3275 0.14 2
  494.7031 0.05 1
  495.3419 0.04 1
  495.5903 0.01 0
  495.7838 0.02 0
  495.9418 0.01 0
  496.3040 0.04 1
  496.4895 0.05 1
  496.6040 0.04 1
  496.8069 0.02 0
  496.9810 0.06 1
  497.3239 0.02 0
  498.0163 0.01 0
  498.2580 0.05 1
  498.4188 0.04 1
  498.5935 0.02 0
  499.0088 0.02 0
  499.8292 0.04 1
  500.2169 0.04 1
  500.9711 0.06 1
  501.4005 0.08 1
  502.0602 0.05 1
  502.2926 0.07 1
  502.8634 0.02 0
  503.0622 0.01 0
  503.3288 0.05 1
  503.6136 0.03 0
  503.7760 0.05 1
  503.8956 0.08 1
  504.2244 0.04 1
  504.3788 0.04 1
  504.5479 0.02 0
  504.6669 0.03 0
  504.7839 0.04 1
  505.2110 0.08 1
  505.2992 0.06 1
  505.4857 0.10 2
  505.8600 0.06 1
  505.9917 0.03 0
  506.1394 0.07 1
  506.3313 0.13 2
  506.5605 0.06 1
  506.6474 0.02 0
  507.1093 0.07 1
  507.3012 0.05 1
  507.4369 0.05 1
  507.5586 0.05 1
  507.9403 0.04 1
  508.1175 0.06 1
  508.3387 0.03 0
  508.4818 0.03 0
  508.7111 0.05 1
  508.9953 0.02 0
  509.2480 0.10 2
  509.3784 0.08 1
  509.5154 0.05 1
  509.6097 0.02 0
  509.7140 0.02 0
  509.8731 0.02 0
  510.0255 0.06 1
  510.1185 0.06 1
  510.3077 0.03 0
  510.9569 0.04 1
  511.3822 0.06 1
  511.5921 0.03 0
  511.9245 0.03 0
  512.0308 0.06 1
  512.1117 0.02 0
  512.2842 0.02 0
  512.5323 0.02 0
  513.0913 0.06 1
  513.5795 0.05 1
  513.6558 0.02 0
  514.1098 0.04 1
  514.4355 0.07 1
  514.5399 0.06 1
  514.9144 0.03 0
  515.0682 0.01 0
  515.2802 0.15 2
  515.5677 0.03 0
  515.6995 0.05 1
  516.0400 0.04 1
  516.5222 0.01 0
  516.8586 0.02 0
  517.2151 0.13 2
  517.4238 0.09 1
  517.9041 0.04 1
  518.2532 0.10 2
  518.4305 0.10 2
  519.0801 0.10 2
  519.2667 0.17 3
  519.5737 0.10 2
  519.7316 0.07 1
  519.9343 0.07 1
  520.1009 0.34 5
  520.3310 0.37 6
  520.5150 0.17 3
  520.6060 0.07 1
  520.8314 0.04 1
  520.9606 0.04 1
  521.2502 0.11 2
  521.5419 0.13 2
  521.7620 0.05 1
  521.9307 0.03 0
  522.0758 0.06 1
  522.3026 0.05 1
  522.4365 0.03 0
  522.6927 0.04 1
  522.8439 0.03 0
  523.0547 0.02 0
  523.6636 0.08 1
  523.8897 0.09 1
  524.0269 0.05 1
  524.2310 0.06 1
  524.5314 0.09 1
  524.6706 0.06 1
  524.7790 0.05 1
  524.8928 0.06 1
  525.0327 0.07 1
  525.2481 0.14 2
  525.3913 0.07 1
  525.5740 0.08 1
  525.8216 0.09 1
  526.0625 0.05 1
  526.4346 0.12 2
  526.5804 0.07 1
  526.7477 0.11 2
  526.8943 0.10 2
  527.0549 0.08 1
  527.4156 0.15 2
  527.7269 0.18 3
  528.0629 0.14 2
  528.2570 0.16 2
  528.4711 0.13 2
  528.6378 0.12 2
  528.7455 0.07 1
  529.0487 0.24 4
  529.2836 0.12 2
  529.7214 0.23 4
  530.1611 0.24 4
  530.4697 0.19 3
  530.9061 0.32 5
  531.4282 0.31 5
  532.3507 1.99 31
  532.6613 0.60 9
  533.3569 1.11 17
  534.3189 1.40 22
  535.3593 6.22 96
  535.8795 0.42 7
  536.3301 0.58 9
  536.8136 0.24 4
  537.2147 0.27 4
  537.4718 0.33 5
  537.5769 0.16 2
  537.7263 0.18 3
  537.9914 0.26 4
  539.0997 0.29 4
  539.6234 0.41 6
  539.8818 0.22 3
  540.5127 0.26 4
  540.8549 0.28 4
  541.1014 0.37 6
  541.5534 0.50 8
  541.7403 0.28 4
  543.2767 0.59 9
  550.2919 99.97 999
  550.8843 39.59 614
  551.6098 17.28 268
  552.4758 7.72 120
  553.3063 3.99 62
  554.0352 2.11 33
  554.7855 1.03 16
  555.3005 0.71 11
//
