ACCESSION: MSBNK-Kyoto_Univ-CA000147
RECORD_TITLE: Crassostreaxanthin A acetate; FAB-EBEB; MS2; m/z: 640.41; [M]*+
DATE: 2016.01.19 (Created 2007.03.15, modified 2011.05.10)
AUTHORS: Akimoto N, Graduate School of Pharmaceutical Sciences, Kyoto University and Maoka T, Research Institute for Production Development
LICENSE: CC BY-SA
COMMENT: Profile spectrum of this record is given as a JPEG file.
COMMENT: [Profile] CA000147.jpg
CH$NAME: Crassostreaxanthin A acetate
CH$COMPOUND_CLASS: Natural Product; Carotenoid
CH$FORMULA: C42H56O5
CH$EXACT_MASS: 640.41277
CH$SMILES: CC(=O)CC(O1)CC(C)C1(CC(=O)C(C)=CC=CC(=CC=CC=C(C=CC=C(C#CC(=C2C)C(CC(C2)OC(C)=O)(C)C)C)C)C)C
CH$IUPAC: InChI=1S/C42H56O5/c1-29(18-14-19-31(3)22-23-39-33(5)24-38(46-36(8)44)27-41(39,9)10)16-12-13-17-30(2)20-15-21-32(4)40(45)28-42(11)34(6)25-37(47-42)26-35(7)43/h12-21,34,37-38H,24-28H2,1-11H3/b13-12+,18-14+,20-15+,29-16+,30-17+,31-19+,32-21+/t34-,37-,38-,42+/m1/s1
CH$LINK: INCHIKEY MWUUKEUNFHLTHL-OJRHICASSA-N
AC$INSTRUMENT: JMS-HX/HX 110A, JEOL
AC$INSTRUMENT_TYPE: FAB-EBEB
AC$MASS_SPECTROMETRY: MS_TYPE MS2
AC$MASS_SPECTROMETRY: ION_MODE POSITIVE
AC$MASS_SPECTROMETRY: ATOM_GUN_CURRENT 5 mA
AC$MASS_SPECTROMETRY: BOMBARDMENT 6 kV xenon
AC$MASS_SPECTROMETRY: COLLISION_ENERGY 3 kV
AC$MASS_SPECTROMETRY: COLLISION_GAS Ar
AC$MASS_SPECTROMETRY: GAS_PRESSURE adjust to attenuate the intensity of the precursor ion by 30 %
AC$MASS_SPECTROMETRY: IONIZATION FAB
AC$MASS_SPECTROMETRY: MATRIX 1-2 uL m-NBA
AC$MASS_SPECTROMETRY: PROBE_TIP stainless-steel
MS$FOCUSED_ION: BASE_PEAK 640.4928
MS$FOCUSED_ION: PRECURSOR_M/Z 640.41
MS$FOCUSED_ION: PRECURSOR_TYPE [M]+*
PK$SPLASH: splash10-0f6x-1920005000-c82bf53efb2092a170fe
PK$NUM_PEAK: 1594
PK$PEAK: m/z int. rel.int.
  11.2423 0.01 0
  12.1060 0.01 0
  12.5829 0.01 0
  12.9770 0.03 0
  13.9721 0.05 0
  14.9776 0.08 1
  25.9656 0.03 0
  26.9669 0.25 2
  27.9770 0.04 0
  28.9743 0.11 1
  29.9543 0.01 0
  30.9122 0.01 0
  36.9310 0.03 0
  37.6180 0.01 0
  37.9719 0.05 0
  38.9555 0.39 4
  39.9618 0.04 0
  40.9762 0.84 8
  41.9497 0.05 0
  42.6322 0.01 0
  42.9506 15.21 152
  43.1405 0.03 0
  43.2881 0.01 0
  43.9544 0.03 0
  44.9450 0.04 0
  45.3554 0.06 1
  48.8916 0.01 0
  49.9511 0.19 2
  50.9551 0.38 4
  51.9778 0.20 2
  52.1132 0.01 0
  52.9596 0.53 5
  53.9862 0.06 1
  54.9733 0.89 9
  55.9512 0.06 1
  56.9782 0.20 2
  57.9757 0.09 1
  58.9878 0.03 0
  60.9599 0.09 1
  61.9438 0.11 1
  62.9561 0.25 2
  63.9638 0.06 1
  64.9637 0.32 3
  65.0829 0.03 0
  65.8157 0.01 0
  65.9653 0.09 1
  66.9761 0.71 7
  67.9799 0.08 1
  68.9840 1.22 12
  70.0118 0.02 0
  70.9751 0.31 3
  71.9881 0.02 0
  72.8794 0.02 0
  73.9402 0.10 1
  74.9393 0.23 2
  75.1434 0.01 0
  75.6509 0.02 0
  75.9462 0.14 1
  76.0983 0.02 0
  76.1783 0.01 0
  76.5592 0.02 0
  76.6722 0.01 0
  76.9545 1.42 14
  77.2822 0.01 0
  77.5421 0.02 0
  77.7914 0.03 0
  77.9611 0.33 3
  78.1934 0.01 0
  78.7047 0.02 0
  78.9626 1.06 11
  79.4597 0.02 0
  79.9833 0.11 1
  80.9724 0.75 7
  81.3061 0.02 0
  81.5286 0.01 0
  81.8404 0.03 0
  81.9683 0.06 1
  82.4589 0.01 0
  82.9827 0.36 4
  83.9747 0.03 0
  84.9662 0.36 4
  85.9468 0.07 1
  86.9503 0.15 1
  87.9348 0.05 0
  88.1332 0.02 0
  88.2667 0.02 0
  88.5777 0.02 0
  88.9522 0.45 4
  89.1182 0.02 0
  89.2526 0.03 0
  89.4207 0.02 0
  89.5315 0.01 0
  89.9492 0.10 1
  90.1823 0.01 0
  90.3223 0.02 0
  90.4142 0.03 0
  90.9652 3.33 33
  91.1432 0.04 0
  91.3320 0.02 0
  91.4393 0.01 0
  91.9764 0.14 1
  92.1835 0.01 0
  92.3913 0.01 0
  92.9756 1.29 13
  93.1718 0.01 0
  93.9678 0.07 1
  94.5422 0.02 0
  94.9897 2.71 27
  95.4892 0.01 0
  95.7281 0.01 0
  95.9739 1.67 17
  96.5366 0.02 0
  96.9831 4.11 41
  97.2784 0.01 0
  97.9286 0.06 1
  98.9623 0.10 1
  99.9638 0.05 0
  100.7585 0.02 0
  100.9459 0.07 1
  101.2741 0.05 0
  101.9537 0.33 3
  102.3423 0.02 0
  102.4482 0.02 0
  102.5894 0.01 0
  102.9649 0.82 8
  103.2157 0.01 0
  103.4013 0.03 0
  103.9762 0.23 2
  104.3535 0.02 0
  104.5586 0.03 0
  104.9827 4.06 41
  105.2460 0.02 0
  105.4057 0.02 0
  105.6072 0.04 0
  105.7383 0.03 0
  105.9884 0.32 3
  106.9899 0.85 8
  107.3783 0.01 0
  107.5894 0.01 0
  107.9734 0.15 1
  108.9999 1.09 11
  109.6963 0.01 0
  109.9917 0.10 1
  110.3237 0.02 0
  110.6008 0.01 0
  110.9923 1.43 14
  111.3759 0.01 0
  111.6487 0.02 0
  112.0141 0.11 1
  112.0941 0.05 0
  112.1748 0.03 0
  112.4873 0.05 0
  113.0072 42.83 428
  113.2698 0.02 0
  113.4820 0.01 0
  113.9647 0.16 2
  114.1467 0.02 0
  114.3025 0.02 0
  114.9515 2.71 27
  115.2621 0.04 0
  115.3446 0.02 0
  115.5908 0.02 0
  115.9607 1.01 10
  116.2218 0.03 0
  116.3024 0.01 0
  116.5574 0.02 0
  116.9584 1.54 15
  117.4774 0.02 0
  117.9717 0.38 4
  118.3416 0.04 0
  118.4336 0.01 0
  118.5891 0.03 0
  118.9754 4.32 43
  119.3306 0.02 0
  119.9681 0.31 3
  120.6210 0.03 0
  120.9792 1.37 14
  121.2248 0.02 0
  121.3908 0.01 0
  121.9645 0.18 2
  122.9673 0.18 2
  123.8382 0.02 0
  123.9872 0.03 0
  124.9726 0.21 2
  125.2803 0.03 0
  125.5395 0.03 0
  125.9073 0.16 2
  126.1519 0.02 0
  126.2528 0.02 0
  126.4615 0.01 0
  126.5920 0.01 0
  126.9343 0.93 9
  127.3240 0.04 0
  127.9373 3.33 33
  128.3467 0.02 0
  128.9502 3.15 31
  129.1817 0.03 0
  129.3106 0.04 0
  129.5585 0.05 0
  129.9560 1.01 10
  130.1729 0.04 0
  130.6041 0.05 0
  130.9582 1.87 19
  131.2720 0.03 0
  131.3920 0.01 0
  131.5873 0.02 0
  131.9731 0.21 2
  132.1046 0.04 0
  132.2339 0.01 0
  132.9737 1.54 15
  133.3644 0.01 0
  133.6692 0.01 0
  133.9805 0.14 1
  134.9573 0.94 9
  135.5625 0.02 0
  136.0116 0.08 1
  136.1174 0.05 0
  136.2724 0.01 0
  136.4618 0.03 0
  136.9658 0.46 5
  137.1604 0.01 0
  137.4001 0.06 1
  137.6183 0.04 0
  137.7565 0.03 0
  137.8588 0.04 0
  137.9519 0.01 0
  138.3365 0.02 0
  138.5543 0.02 0
  138.9313 0.79 8
  139.3616 0.02 0
  139.5029 0.06 1
  139.9056 0.19 2
  140.0830 0.07 1
  140.2223 0.02 0
  140.3602 0.05 0
  140.9323 2.81 28
  141.2378 0.06 1
  141.3148 0.04 0
  141.9371 2.46 25
  142.3157 0.03 0
  142.9488 3.00 30
  143.2277 0.03 0
  143.3516 0.04 0
  143.9530 0.75 7
  144.2589 0.03 0
  144.4978 0.02 0
  144.9569 1.89 19
  145.4459 0.02 0
  145.6013 0.03 0
  145.9330 0.25 2
  146.2309 0.01 0
  146.9492 2.16 22
  147.4552 0.02 0
  147.9462 0.14 1
  148.4194 0.03 0
  148.9501 0.28 3
  149.3745 0.02 0
  149.5740 0.02 0
  149.7257 0.05 0
  149.9282 0.14 1
  150.2571 0.07 1
  150.4023 0.06 1
  150.5977 0.05 0
  150.9305 0.31 3
  151.2059 0.12 1
  151.5033 0.07 1
  151.9258 1.29 13
  152.2736 0.11 1
  152.4482 0.01 0
  152.9476 2.68 27
  153.2695 0.08 1
  153.5048 0.04 0
  153.9399 0.77 8
  154.3409 0.13 1
  154.9812 67.99 679
  155.4249 0.14 1
  155.6359 0.09 1
  155.9579 1.56 16
  156.2413 0.03 0
  156.5401 0.07 1
  156.9750 2.50 25
  157.4159 0.09 1
  157.5980 0.04 0
  157.9733 0.55 5
  158.3685 0.03 0
  158.9637 1.27 13
  159.3842 0.03 0
  159.6883 0.02 0
  159.9771 0.20 2
  160.3231 0.03 0
  160.6333 0.02 0
  160.9965 0.72 7
  161.3348 0.04 0
  161.5594 0.03 0
  161.9265 0.10 1
  162.2335 0.01 0
  162.4039 0.02 0
  162.9763 0.27 3
  163.0800 0.13 1
  163.2969 0.06 1
  163.5182 0.04 0
  163.9271 0.17 2
  164.3598 0.07 1
  164.5150 0.03 0
  164.9575 3.31 33
  165.5393 0.04 0
  165.9600 0.95 9
  166.4383 0.02 0
  166.9715 1.78 18
  167.3278 0.01 0
  167.5093 0.02 0
  167.9919 0.73 7
  168.2171 0.06 1
  168.4984 0.03 0
  168.9911 2.04 20
  169.3739 0.03 0
  169.5549 0.09 1
  170.0103 0.75 7
  170.3771 0.02 0
  170.6123 0.02 0
  171.0156 1.45 14
  171.3153 0.03 0
  171.5611 0.05 0
  171.7350 0.02 0
  172.0113 0.28 3
  172.3201 0.03 0
  173.0203 1.69 17
  173.4414 0.04 0
  173.6092 0.02 0
  173.9642 0.10 1
  174.9992 0.19 2
  175.5885 0.04 0
  175.9669 0.21 2
  176.2833 0.04 0
  176.4240 0.04 0
  176.5270 0.02 0
  176.9888 0.29 3
  177.1326 0.12 1
  177.3268 0.08 1
  177.9825 1.86 19
  178.2777 0.09 1
  178.9754 2.63 26
  179.3592 0.06 1
  179.9839 0.95 9
  180.2811 0.05 0
  180.9894 2.17 22
  181.1983 0.08 1
  181.3760 0.02 0
  181.9927 0.75 7
  182.3327 0.03 0
  182.5307 0.06 1
  182.6691 0.03 0
  183.0004 1.58 16
  183.2662 0.06 1
  183.5060 0.02 0
  183.6848 0.06 1
  183.9946 0.34 3
  184.5237 0.03 0
  184.9956 0.61 6
  185.3609 0.02 0
  185.5287 0.01 0
  185.7242 0.03 0
  186.0173 0.23 2
  186.2800 0.04 0
  186.6374 0.02 0
  187.0002 0.27 3
  187.3773 0.02 0
  187.5005 0.01 0
  187.7500 0.02 0
  187.9756 0.10 1
  188.2991 0.04 0
  188.5457 0.04 0
  188.9642 0.88 9
  189.3171 0.03 0
  189.4390 0.03 0
  189.9565 0.44 4
  190.1458 0.10 1
  190.3456 0.05 0
  190.5820 0.09 1
  190.9645 1.61 16
  191.2639 0.01 0
  191.5724 0.09 1
  191.9663 1.25 12
  192.3461 0.02 0
  192.5529 0.05 0
  192.9845 2.49 25
  193.3915 0.03 0
  193.9884 0.93 9
  194.3327 0.03 0
  194.4579 0.04 0
  194.9929 1.83 18
  195.2316 0.06 1
  195.3441 0.04 0
  195.5243 0.04 0
  195.7780 0.09 1
  195.9988 0.44 4
  196.2594 0.06 1
  196.5170 0.03 0
  197.0098 1.14 11
  197.3930 0.07 1
  197.4960 0.04 0
  197.9613 0.25 2
  198.2222 0.04 0
  198.4417 0.04 0
  199.0126 1.55 15
  199.4016 0.03 0
  199.9509 0.12 1
  200.4485 0.03 0
  200.9892 0.17 2
  201.2332 0.05 0
  201.3718 0.04 0
  201.5067 0.04 0
  201.9678 1.09 11
  202.3356 0.04 0
  202.4863 0.04 0
  202.9469 1.30 13
  203.5080 0.03 0
  203.9606 0.48 5
  204.3507 0.03 0
  204.9794 1.19 12
  205.5433 1.47 15
  205.9926 1.15 11
  206.3454 0.04 0
  206.5237 0.02 0
  206.9952 2.22 22
  207.3186 0.03 0
  207.4630 0.02 0
  207.5961 0.03 0
  208.0141 0.70 7
  208.3650 0.02 0
  208.9989 0.95 9
  209.3325 0.02 0
  209.5141 0.01 0
  210.0030 0.23 2
  210.1900 0.03 0
  210.3301 0.02 0
  210.5837 0.01 0
  210.9987 0.74 7
  211.4546 0.04 0
  211.6387 0.05 0
  211.9940 0.13 1
  212.2252 0.03 0
  212.5192 0.07 1
  212.6572 0.02 0
  212.9991 0.42 4
  213.4146 0.08 1
  213.6845 0.09 1
  213.9909 0.12 1
  214.1320 0.05 0
  214.2602 0.03 0
  214.4742 0.03 0
  214.9628 1.29 13
  215.3210 0.02 0
  215.9906 0.62 6
  216.1994 0.09 1
  216.3680 0.08 1
  216.6627 0.07 1
  216.9962 1.27 13
  217.2940 0.02 0
  217.3927 0.02 0
  217.9954 0.69 7
  218.3997 0.06 1
  219.0141 1.63 16
  219.3996 0.02 0
  220.0082 0.90 9
  220.3232 0.05 0
  221.0264 1.67 17
  221.3628 0.05 0
  221.4496 0.03 0
  221.6163 0.02 0
  222.0214 0.42 4
  222.4967 0.05 0
  222.7046 0.06 1
  223.0421 0.79 8
  223.5900 0.02 0
  223.7858 0.03 0
  224.0160 0.15 1
  224.4391 0.04 0
  224.6198 0.03 0
  225.0552 0.43 4
  225.3000 0.03 0
  225.4632 0.03 0
  225.9789 0.40 4
  226.1163 0.20 2
  226.4169 0.01 0
  226.6977 0.09 1
  227.0045 0.37 4
  227.2954 0.06 1
  227.5152 0.04 0
  227.9917 0.43 4
  228.3369 0.04 0
  228.6791 0.06 1
  229.0251 1.04 10
  229.6073 0.06 1
  230.0201 0.57 6
  230.3166 0.05 0
  230.4496 0.02 0
  231.0330 1.43 14
  231.3939 0.03 0
  231.6892 0.06 1
  232.0563 0.84 8
  232.4855 0.04 0
  232.6501 0.02 0
  233.0595 1.56 16
  233.3059 0.03 0
  233.6044 0.02 0
  234.0791 0.71 7
  234.5592 0.07 1
  235.0670 0.97 10
  235.4684 0.04 0
  236.0186 0.33 3
  236.4209 0.01 0
  236.6401 0.03 0
  237.0924 0.62 6
  237.6027 0.06 1
  238.1181 0.35 3
  238.3758 0.04 0
  238.6695 0.02 0
  239.0734 0.73 7
  239.3855 0.03 0
  239.5477 0.06 1
  240.0321 0.17 2
  240.2143 0.03 0
  240.4163 0.05 0
  241.0165 0.55 5
  241.4016 0.04 0
  241.5333 0.02 0
  242.0265 0.24 2
  242.3383 0.03 0
  242.5252 0.02 0
  243.0446 0.90 9
  243.3105 0.02 0
  243.5504 0.09 1
  244.0501 0.48 5
  244.2877 0.06 1
  244.4640 0.11 1
  245.0575 1.32 13
  245.4402 0.04 0
  245.6449 0.06 1
  246.0645 0.70 7
  247.0658 1.29 13
  247.3820 0.02 0
  247.7043 0.05 0
  248.0659 0.57 6
  248.3661 0.04 0
  248.6164 0.02 0
  249.0918 1.01 10
  249.5357 0.04 0
  249.7800 0.03 0
  250.0235 0.22 2
  250.1387 0.13 1
  250.4914 0.03 0
  250.6128 0.02 0
  251.0816 0.63 6
  251.4551 0.04 0
  251.6473 0.01 0
  252.0602 0.39 4
  252.3546 0.02 0
  252.6192 0.05 0
  252.7260 0.02 0
  253.0437 0.52 5
  253.1652 0.21 2
  253.6275 0.01 0
  254.0306 0.11 1
  254.4353 0.02 0
  254.6223 0.04 0
  255.0526 0.47 5
  255.3289 0.02 0
  255.5059 0.04 0
  255.6637 0.04 0
  256.0471 0.49 5
  256.2781 0.01 0
  257.0151 0.71 7
  257.5612 0.04 0
  257.7338 0.05 0
  258.0520 0.31 3
  258.3725 0.05 0
  259.0700 1.03 10
  259.4692 0.02 0
  260.0736 0.37 4
  260.3906 0.05 0
  261.0677 0.95 9
  261.6115 0.14 1
  261.8313 0.04 0
  262.1098 0.20 2
  262.3783 0.03 0
  263.0937 0.84 8
  263.3839 0.08 1
  263.6124 0.04 0
  263.8756 0.10 1
  264.1219 0.28 3
  264.3620 0.05 0
  264.5728 0.04 0
  265.0462 0.41 4
  265.4362 0.05 0
  265.7150 0.05 0
  266.0378 0.20 2
  266.4380 0.04 0
  266.7470 0.03 0
  267.0553 0.38 4
  267.3381 0.02 0
  267.5592 0.02 0
  268.0886 0.27 3
  268.3243 0.07 1
  268.4898 0.04 0
  268.6722 0.07 1
  269.0526 0.61 6
  269.5104 0.04 0
  269.8422 0.07 1
  270.1105 0.28 3
  270.2652 0.06 1
  270.6319 0.02 0
  271.0752 0.54 5
  271.5425 0.01 0
  272.0641 0.29 3
  272.3838 0.02 0
  273.0688 0.62 6
  273.4598 0.01 0
  274.0862 0.29 3
  274.4084 0.04 0
  274.5045 0.03 0
  275.1086 0.64 6
  275.4875 0.03 0
  275.7028 0.05 0
  276.1189 0.16 2
  276.4498 0.03 0
  277.0993 0.37 4
  277.3737 0.05 0
  277.7621 0.05 0
  278.1133 0.21 2
  278.4917 0.10 1
  278.6537 0.04 0
  278.7716 0.03 0
  279.0966 0.26 3
  279.3579 0.03 0
  279.5014 0.02 0
  280.0638 0.15 1
  280.2625 0.02 0
  280.6162 0.04 0
  281.0787 0.30 3
  281.4373 0.02 0
  281.5855 0.07 1
  281.7221 0.02 0
  282.0745 0.18 2
  282.1971 0.09 1
  282.4844 0.02 0
  282.6878 0.06 1
  283.0729 0.48 5
  283.4991 0.02 0
  283.6611 0.04 0
  283.8363 0.03 0
  284.0998 0.18 2
  284.5238 0.06 1
  284.6424 0.02 0
  285.0982 0.53 5
  285.3432 0.04 0
  285.5193 0.01 0
  286.1078 0.17 2
  286.3886 0.03 0
  287.1030 0.53 5
  287.2542 0.16 2
  287.6623 0.04 0
  288.0829 0.12 1
  288.2357 0.09 1
  288.4530 0.05 0
  288.7091 0.04 0
  289.1282 0.39 4
  289.5443 0.03 0
  290.1055 0.26 3
  290.2670 0.09 1
  290.5388 0.04 0
  290.6684 0.11 1
  291.0831 0.23 2
  291.5203 0.01 0
  291.7106 0.03 0
  292.0796 0.07 1
  292.4144 0.02 0
  293.0709 0.28 3
  293.3693 0.01 0
  293.6311 0.02 0
  294.0539 0.14 1
  295.0612 0.28 3
  295.7097 0.01 0
  296.0914 0.13 1
  296.4515 0.02 0
  297.0721 0.44 4
  297.3793 0.02 0
  298.1059 0.17 2
  298.4467 0.06 1
  298.6179 0.01 0
  299.1182 0.43 4
  299.4466 0.01 0
  299.8140 0.03 0
  299.9673 0.07 1
  300.1759 0.14 1
  300.4352 0.02 0
  300.6451 0.05 0
  301.1332 0.33 3
  301.4015 0.02 0
  301.8547 0.06 1
  302.1579 0.08 1
  302.4425 0.06 1
  302.5677 0.02 0
  303.0919 0.15 1
  303.3797 0.03 0
  303.7857 0.05 0
  303.9459 0.02 0
  304.1435 0.11 1
  304.4920 0.06 1
  304.6640 0.04 0
  304.8733 0.02 0
  305.0305 0.17 2
  305.1853 0.16 2
  305.4615 0.02 0
  305.6826 0.03 0
  305.8755 0.04 0
  306.1254 0.08 1
  306.2359 0.05 0
  306.3472 0.03 0
  306.4546 0.04 0
  307.0812 0.15 1
  307.6908 0.02 0
  308.0638 0.10 1
  308.2016 0.07 1
  308.3901 0.01 0
  309.0474 0.28 3
  309.2561 0.14 1
  309.4999 0.01 0
  310.0685 0.10 1
  310.4277 0.05 0
  310.6754 0.03 0
  311.0907 0.26 3
  311.5435 0.01 0
  312.1288 0.12 1
  312.3766 0.04 0
  312.5161 0.02 0
  313.1343 0.43 4
  313.4079 0.02 0
  313.8633 0.07 1
  314.1393 0.16 2
  314.3951 0.09 1
  315.1507 0.30 3
  315.4198 0.03 0
  315.5423 0.02 0
  315.9526 0.06 1
  316.1367 0.15 1
  316.5252 0.01 0
  317.1353 0.20 2
  317.6316 0.02 0
  317.7970 0.02 0
  318.0475 0.02 0
  318.1888 0.02 0
  318.4682 0.03 0
  318.8421 0.02 0
  319.0833 0.14 1
  319.2738 0.02 0
  319.5595 0.02 0
  319.8788 0.06 1
  320.0318 0.02 0
  320.2247 0.11 1
  321.0969 0.19 2
  321.2117 0.09 1
  321.7647 0.05 0
  322.0998 0.15 1
  322.2701 0.05 0
  322.3825 0.03 0
  322.7520 0.05 0
  323.0974 0.20 2
  323.3388 0.05 0
  323.5419 0.01 0
  324.0936 0.08 1
  324.4836 0.07 1
  325.0689 0.26 3
  325.4472 0.04 0
  325.8099 0.03 0
  326.1492 0.13 1
  326.3243 0.04 0
  326.7090 0.02 0
  326.8146 0.02 0
  327.1586 0.16 2
  327.3588 0.03 0
  327.5222 0.01 0
  328.1080 0.14 1
  328.2621 0.12 1
  328.4467 0.02 0
  329.1209 0.19 2
  329.7577 0.03 0
  330.1411 0.18 2
  330.4220 0.02 0
  330.6121 0.04 0
  331.1325 0.19 2
  331.7946 0.04 0
  332.0959 0.02 0
  332.3441 0.02 0
  332.5742 0.02 0
  333.0110 0.07 1
  333.1480 0.08 1
  333.3359 0.01 0
  334.1197 0.07 1
  334.8887 0.01 0
  335.1777 0.11 1
  335.4041 0.03 0
  335.8184 0.05 0
  336.1497 0.07 1
  336.4490 0.02 0
  336.8172 0.02 0
  337.0750 0.22 2
  337.2536 0.07 1
  337.4009 0.02 0
  337.7888 0.04 0
  338.1179 0.16 2
  338.4149 0.04 0
  338.5128 0.02 0
  339.1305 0.14 1
  339.5365 0.05 0
  339.8579 0.02 0
  340.0907 0.05 0
  340.2522 0.02 0
  340.4090 0.03 0
  341.1201 0.29 3
  341.2463 0.11 1
  341.4730 0.03 0
  341.6384 0.05 0
  341.9435 0.02 0
  342.2485 0.13 1
  342.6242 0.02 0
  342.9348 0.04 0
  343.1450 0.18 2
  343.8847 0.02 0
  344.0346 0.03 0
  344.1374 0.02 0
  344.2660 0.02 0
  345.1165 0.06 1
  345.3112 0.03 0
  345.4916 0.02 0
  345.8503 0.01 0
  346.1955 0.03 0
  346.3217 0.02 0
  346.9204 0.01 0
  347.1681 0.09 1
  347.5184 0.01 0
  347.9339 0.01 0
  348.1079 0.05 0
  348.2231 0.04 0
  348.4834 0.03 0
  348.7962 0.02 0
  349.0651 0.09 1
  349.2235 0.08 1
  350.1151 0.11 1
  350.4883 0.01 0
  351.1370 0.21 2
  351.8374 0.03 0
  351.9935 0.04 0
  352.2171 0.09 1
  352.6015 0.01 0
  352.7757 0.02 0
  353.1742 0.41 4
  353.4747 0.02 0
  353.6654 0.02 0
  353.9048 0.05 0
  354.2108 0.09 1
  354.9862 0.07 1
  355.2099 0.16 2
  355.4744 0.06 1
  356.1902 0.15 1
  356.3033 0.07 1
  356.6283 0.02 0
  356.7853 0.03 0
  357.0562 0.07 1
  357.3483 0.06 1
  357.8163 0.02 0
  357.9749 0.03 0
  358.1751 0.03 0
  358.6471 0.02 0
  358.7539 0.02 0
  358.8623 0.02 0
  359.0107 0.02 0
  359.1976 0.05 0
  360.4646 0.03 0
  360.8943 0.01 0
  361.1175 0.06 1
  361.4553 0.02 0
  362.2254 0.03 0
  362.4870 0.02 0
  362.5947 0.01 0
  362.8627 0.09 1
  363.1771 0.06 1
  363.3523 0.04 0
  363.6934 0.04 0
  364.0943 0.03 0
  364.2822 0.04 0
  364.4700 0.02 0
  364.8552 0.01 0
  365.0887 0.16 2
  365.4488 0.02 0
  365.7185 0.04 0
  365.8380 0.05 0
  366.0471 0.05 0
  366.2555 0.03 0
  366.4544 0.02 0
  366.8036 0.04 0
  367.1968 0.23 2
  367.5719 0.05 0
  367.7096 0.02 0
  368.1949 0.12 1
  368.3451 0.06 1
  368.6479 0.02 0
  368.8454 0.03 0
  369.2112 0.13 1
  369.3551 0.05 0
  369.8673 0.03 0
  370.1497 0.02 0
  370.4149 0.03 0
  371.1255 0.04 0
  371.2474 0.06 1
  371.7629 0.06 1
  372.5838 0.03 0
  372.7310 0.02 0
  373.1135 0.05 0
  373.3103 0.05 0
  374.1007 0.04 0
  374.2991 0.05 0
  374.7957 0.01 0
  375.0449 0.05 0
  375.2249 0.11 1
  375.3570 0.03 0
  375.5771 0.01 0
  376.2116 0.06 1
  376.9799 0.05 0
  377.1064 0.03 0
  377.2567 0.04 0
  377.3267 0.02 0
  377.8717 0.03 0
  378.1288 0.03 0
  378.2783 0.04 0
  378.6393 0.03 0
  379.0696 0.11 1
  379.2599 0.16 2
  379.5030 0.02 0
  379.7886 0.01 0
  380.0372 0.05 0
  380.2716 0.07 1
  380.3794 0.02 0
  380.5297 0.03 0
  381.2379 0.27 3
  381.3874 0.21 2
  381.6888 0.02 0
  381.8359 0.03 0
  382.2144 0.17 2
  382.5465 0.05 0
  382.6788 0.02 0
  382.8425 0.03 0
  383.2455 0.28 3
  383.5469 0.02 0
  384.0310 0.03 0
  384.3144 0.08 1
  384.6986 0.01 0
  385.0474 0.06 1
  385.2725 0.09 1
  385.9977 0.02 0
  386.3993 0.02 0
  386.9796 0.02 0
  387.1608 0.01 0
  387.3222 0.02 0
  387.5939 0.04 0
  388.2760 0.06 1
  388.8605 0.02 0
  389.1590 0.06 1
  389.3639 0.05 0
  390.1377 0.13 1
  390.2998 0.10 1
  390.6642 0.02 0
  390.8302 0.02 0
  391.0576 0.03 0
  391.2277 0.05 0
  391.6598 0.03 0
  392.0659 0.02 0
  392.6232 0.02 0
  392.8468 0.02 0
  393.2310 0.07 1
  393.4412 0.02 0
  393.7884 0.04 0
  394.0128 0.02 0
  394.3325 0.04 0
  394.4915 0.02 0
  394.6332 0.01 0
  394.8364 0.02 0
  395.1419 0.21 2
  395.3262 0.12 1
  395.5648 0.01 0
  396.1665 0.10 1
  396.3587 0.09 1
  396.5083 0.02 0
  396.6635 0.03 0
  397.1101 0.06 1
  397.3456 0.07 1
  398.2019 0.01 0
  398.9826 0.02 0
  399.3577 0.03 0
  400.1353 0.03 0
  400.7989 0.03 0
  401.0684 0.02 0
  401.3095 0.09 1
  401.9937 0.03 0
  402.2230 0.06 1
  402.3350 0.02 0
  402.7212 0.02 0
  403.0081 0.01 0
  403.1587 0.02 0
  403.6782 0.04 0
  404.1961 0.02 0
  404.4603 0.02 0
  404.9570 0.03 0
  405.1407 0.02 0
  407.0388 0.05 0
  407.2147 0.03 0
  407.7345 0.01 0
  408.1730 0.04 0
  408.6613 0.02 0
  409.0052 0.05 0
  409.2900 0.15 1
  409.6024 0.03 0
  410.1760 0.10 1
  410.3638 0.04 0
  410.6928 0.03 0
  411.2491 0.47 5
  411.5908 0.02 0
  412.2277 0.06 1
  412.7414 0.02 0
  412.9901 0.03 0
  413.1566 0.03 0
  413.3121 0.05 0
  413.6467 0.04 0
  413.7430 0.02 0
  414.1535 0.05 0
  414.3508 0.08 1
  414.8916 0.02 0
  415.0992 0.03 0
  415.2397 0.01 0
  415.3984 0.06 1
  415.5374 0.01 0
  416.1493 0.02 0
  416.3000 0.03 0
  417.2587 0.02 0
  417.4948 0.06 1
  417.6843 0.01 0
  418.3413 0.03 0
  419.1698 0.01 0
  420.1611 0.03 0
  420.5529 0.02 0
  420.6873 0.03 0
  421.0317 0.02 0
  421.2663 0.08 1
  421.6661 0.02 0
  422.5439 0.03 0
  422.9050 0.02 0
  423.3015 0.04 0
  423.4237 0.03 0
  424.1443 0.02 0
  424.2838 0.02 0
  424.4620 0.03 0
  424.8885 0.06 1
  425.2851 0.20 2
  425.6139 0.04 0
  425.8512 0.02 0
  426.0073 0.03 0
  426.2857 0.11 1
  426.4300 0.05 0
  426.6279 0.06 1
  426.9150 0.02 0
  427.1303 0.04 0
  427.3432 0.10 1
  427.5285 0.02 0
  427.9457 0.02 0
  428.2297 0.03 0
  428.8362 0.02 0
  429.0681 0.03 0
  429.2724 0.04 0
  429.4239 0.02 0
  430.3484 0.05 0
  431.2967 0.02 0
  431.7094 0.01 0
  431.8530 0.02 0
  432.0613 0.05 0
  432.6444 0.03 0
  433.2694 0.02 0
  434.0112 0.02 0
  434.9860 0.03 0
  435.1123 0.04 0
  435.2678 0.10 1
  435.5125 0.01 0
  436.0824 0.02 0
  436.2324 0.01 0
  437.2705 0.04 0
  438.1074 0.03 0
  438.4966 0.04 0
  438.9688 0.02 0
  439.0580 0.01 0
  439.2665 0.04 0
  439.3921 0.04 0
  439.5263 0.01 0
  440.2323 0.02 0
  440.8705 0.01 0
  441.1307 0.03 0
  441.3453 0.02 0
  441.9282 0.05 0
  442.2895 0.09 1
  442.7447 0.01 0
  443.2795 0.57 6
  443.7687 0.02 0
  443.9305 0.07 1
  444.2137 0.12 1
  444.3305 0.07 1
  444.5656 0.04 0
  445.1866 0.06 1
  445.8960 0.02 0
  446.2385 0.04 0
  446.8572 0.02 0
  447.0222 0.03 0
  447.2834 0.04 0
  447.6607 0.01 0
  448.6892 0.02 0
  450.2072 0.04 0
  451.1846 0.04 0
  451.4523 0.04 0
  451.6284 0.02 0
  451.8266 0.02 0
  452.8642 0.03 0
  453.1753 0.15 1
  453.3964 0.10 1
  453.8900 0.03 0
  453.9966 0.01 0
  454.3449 0.02 0
  455.1237 0.05 0
  455.3291 0.05 0
  456.0218 0.02 0
  456.1340 0.02 0
  456.3275 0.01 0
  456.6079 0.05 0
  456.7881 0.03 0
  457.2636 0.48 5
  457.6666 0.03 0
  458.1872 0.02 0
  459.2412 0.03 0
  459.4277 0.03 0
  459.9105 0.03 0
  460.2567 0.08 1
  464.6853 0.02 0
  464.8394 0.03 0
  465.3375 0.06 1
  465.8917 0.03 0
  466.7022 0.02 0
  467.1648 0.04 0
  467.9800 0.10 1
  468.2529 0.11 1
  468.5107 0.10 1
  468.9188 0.04 0
  469.1877 0.05 0
  469.3719 0.02 0
  469.6519 0.05 0
  469.8718 0.01 0
  470.3044 0.11 1
  470.3978 0.06 1
  470.7213 0.01 0
  471.2267 0.53 5
  471.5186 0.06 1
  472.0384 0.02 0
  472.2994 0.08 1
  472.7859 0.02 0
  472.9885 0.01 0
  473.2282 0.02 0
  473.4268 0.03 0
  474.1879 0.05 0
  474.3636 0.02 0
  474.6975 0.02 0
  474.8494 0.03 0
  475.2015 0.05 0
  476.7122 0.03 0
  477.3382 0.02 0
  478.1607 0.03 0
  478.3734 0.02 0
  478.6153 0.01 0
  479.1449 0.01 0
  479.3133 0.04 0
  480.3261 0.02 0
  481.3318 0.01 0
  481.4962 0.02 0
  482.4807 0.04 0
  483.0295 0.01 0
  483.2422 0.07 1
  483.4708 0.01 0
  484.2806 0.27 3
  484.5764 0.03 0
  484.7947 0.02 0
  484.9845 0.02 0
  485.2471 0.16 2
  485.4251 0.11 1
  485.5722 0.03 0
  486.3047 0.46 5
  486.5926 0.06 1
  486.7587 0.01 0
  487.2579 0.02 0
  487.4565 0.01 0
  487.9359 0.02 0
  488.0672 0.03 0
  490.7106 0.01 0
  491.4181 0.02 0
  493.6388 0.01 0
  494.2640 0.04 0
  494.5316 0.03 0
  494.8601 0.03 0
  495.7197 0.02 0
  495.9224 0.03 0
  496.0870 0.03 0
  496.2620 0.05 0
  496.4227 0.06 1
  496.9381 0.01 0
  497.5144 0.03 0
  498.3426 0.03 0
  498.5667 0.02 0
  499.0402 0.02 0
  499.5287 0.04 0
  500.1100 0.04 0
  500.2668 0.02 0
  500.4481 0.03 0
  500.9953 0.01 0
  502.9872 0.02 0
  506.9310 0.02 0
  507.1944 0.02 0
  507.4285 0.02 0
  507.7963 0.02 0
  508.3096 0.05 0
  508.4345 0.03 0
  509.0246 0.02 0
  509.1615 0.04 0
  509.3806 0.05 0
  509.8022 0.02 0
  510.2982 0.05 0
  510.8662 0.02 0
  511.3187 0.03 0
  511.7871 0.02 0
  512.0070 0.03 0
  512.2515 0.01 0
  512.4437 0.06 1
  512.7460 0.02 0
  512.8488 0.02 0
  513.4438 0.06 1
  514.1243 0.03 0
  514.2660 0.07 1
  514.6237 0.02 0
  515.1008 0.01 0
  515.4293 0.01 0
  515.6033 0.04 0
  516.1233 0.01 0
  516.8870 0.01 0
  517.5985 0.03 0
  518.0156 0.02 0
  518.1589 0.02 0
  518.3267 0.01 0
  518.6077 0.01 0
  519.1736 0.02 0
  519.3177 0.02 0
  519.4428 0.01 0
  520.4553 0.01 0
  521.2564 0.06 1
  521.4266 0.01 0
  522.1431 0.02 0
  522.9135 0.01 0
  523.1978 0.03 0
  523.3918 0.01 0
  523.5596 0.04 0
  524.1028 0.01 0
  524.4797 0.03 0
  524.9470 0.02 0
  525.0839 0.06 1
  525.2321 0.02 0
  525.4110 0.02 0
  525.6692 0.02 0
  525.8093 0.02 0
  526.1087 0.01 0
  526.3946 0.02 0
  526.8563 0.04 0
  527.0773 0.02 0
  527.2689 0.02 0
  527.4820 0.04 0
  527.6657 0.05 0
  528.3374 1.43 14
  528.7881 0.03 0
  528.9734 0.01 0
  529.2348 0.06 1
  529.4503 0.02 0
  529.8091 0.01 0
  529.9224 0.01 0
  530.1877 0.05 0
  530.4135 0.03 0
  530.5609 0.02 0
  530.6647 0.01 0
  531.3127 0.02 0
  531.5979 0.02 0
  532.3204 0.02 0
  533.1832 0.04 0
  533.3908 0.11 1
  533.5588 0.02 0
  534.2466 0.03 0
  534.5990 0.04 0
  534.8717 0.01 0
  535.4583 0.05 0
  535.8290 0.01 0
  536.3911 0.02 0
  536.5436 0.02 0
  537.0030 0.03 0
  537.3113 0.04 0
  537.5912 0.06 1
  537.7968 0.04 0
  538.1770 0.03 0
  538.4127 0.07 1
  538.5858 0.01 0
  539.1677 0.02 0
  539.2863 0.04 0
  539.4010 0.04 0
  539.5504 0.05 0
  539.7623 0.02 0
  540.0684 0.05 0
  540.4131 0.12 1
  540.6464 0.04 0
  540.8156 0.02 0
  541.1469 0.07 1
  541.4174 0.05 0
  541.6475 0.02 0
  541.8760 0.04 0
  542.1584 0.03 0
  542.8638 0.05 0
  543.1556 0.02 0
  543.5812 0.03 0
  544.2471 0.04 0
  544.5967 0.03 0
  544.7399 0.02 0
  545.0223 0.06 1
  545.2437 0.05 0
  545.4533 0.03 0
  545.8093 0.02 0
  546.1296 0.04 0
  546.6439 0.06 1
  546.8361 0.02 0
  547.1430 0.06 1
  547.5037 0.03 0
  547.7252 0.05 0
  548.0480 0.08 1
  548.4041 0.17 2
  548.5916 0.12 1
  549.0694 0.04 0
  549.2023 0.03 0
  549.4341 0.10 1
  549.6082 0.06 1
  549.7530 0.06 1
  550.0703 0.08 1
  550.2720 0.06 1
  550.5775 0.05 0
  550.6716 0.03 0
  550.9556 0.10 1
  551.1021 0.08 1
  551.3813 0.11 1
  551.5071 0.03 0
  551.6741 0.09 1
  551.8260 0.04 0
  552.0983 0.02 0
  552.4631 0.08 1
  552.6039 0.05 0
  552.7234 0.02 0
  552.8690 0.07 1
  553.0360 0.03 0
  553.2861 0.03 0
  553.4301 0.06 1
  553.7221 0.01 0
  554.2500 0.06 1
  554.3869 0.06 1
  554.5333 0.11 1
  554.9655 0.01 0
  555.3968 0.02 0
  555.6619 0.06 1
  556.0371 0.01 0
  556.4993 0.03 0
  556.6411 0.01 0
  557.5125 0.01 0
  557.8909 0.01 0
  559.1306 0.01 0
  559.3784 0.04 0
  559.6523 0.03 0
  559.7679 0.02 0
  560.0355 0.02 0
  560.5137 0.05 0
  560.6696 0.07 1
  560.8462 0.04 0
  561.0464 0.03 0
  561.4431 0.19 2
  561.7131 0.03 0
  561.9491 0.04 0
  562.1510 0.03 0
  562.3568 0.04 0
  562.6807 0.04 0
  562.8929 0.02 0
  563.1415 0.06 1
  563.2318 0.02 0
  563.3616 0.03 0
  563.5184 0.07 1
  563.7964 0.05 0
  564.2786 0.13 1
  564.4069 0.09 1
  564.6777 0.07 1
  564.8852 0.04 0
  565.4261 0.42 4
  565.9377 0.07 1
  566.2339 0.07 1
  566.5364 0.09 1
  566.6758 0.04 0
  566.8865 0.10 1
  567.1613 0.06 1
  567.4409 0.07 1
  567.5573 0.03 0
  567.8060 0.09 1
  568.1188 0.09 1
  568.2218 0.06 1
  568.4285 0.04 0
  568.6868 0.05 0
  569.0551 0.07 1
  569.2848 0.11 1
  569.4694 0.08 1
  569.6801 0.09 1
  570.0524 0.06 1
  570.3138 0.03 0
  570.4960 0.04 0
  570.8540 0.07 1
  571.2588 0.03 0
  571.5543 0.04 0
  571.6945 0.04 0
  571.8339 0.02 0
  572.0613 0.06 1
  572.2340 0.03 0
  572.4725 0.03 0
  572.7141 0.06 1
  572.9796 0.02 0
  573.9033 0.05 0
  574.3082 0.01 0
  574.6639 0.02 0
  574.9437 0.02 0
  575.1774 0.03 0
  575.7281 0.02 0
  576.4388 0.01 0
  577.2115 0.02 0
  577.7281 0.03 0
  577.8502 0.03 0
  577.9667 0.05 0
  578.1965 0.01 0
  578.5341 0.01 0
  579.3806 0.23 2
  579.5755 0.13 1
  580.4426 1.33 13
  581.4039 0.82 8
  581.9000 0.03 0
  582.1768 0.05 0
  582.3651 0.14 1
  582.5312 0.09 1
  582.8817 0.02 0
  583.0613 0.02 0
  583.3596 0.09 1
  583.4814 0.02 0
  583.6910 0.02 0
  583.8730 0.01 0
  584.4419 0.01 0
  585.1603 0.02 0
  585.5116 0.01 0
  585.6564 0.04 0
  586.8528 0.02 0
  589.0559 0.02 0
  589.6360 0.01 0
  591.9818 0.04 0
  592.3530 0.02 0
  593.7810 0.03 0
  594.2441 0.01 0
  594.3905 0.03 0
  594.8718 0.02 0
  594.9739 0.02 0
  595.2233 0.03 0
  595.5004 0.03 0
  595.6642 0.01 0
  595.9785 0.02 0
  596.1550 0.22 2
  596.4321 0.28 3
  596.6554 0.11 1
  597.4597 0.93 9
  598.3979 0.28 3
  598.6284 0.16 2
  599.0519 0.05 0
  599.5040 0.02 0
  599.8683 0.04 0
  600.6047 0.02 0
  601.0433 0.02 0
  601.2627 0.03 0
  602.8631 0.04 0
  603.0057 0.03 0
  603.1237 0.04 0
  605.6935 0.05 0
  607.3288 0.02 0
  607.8652 0.04 0
  608.6778 0.02 0
  608.8099 0.05 0
  609.3187 0.03 0
  609.8543 0.03 0
  610.2563 0.07 1
  610.4739 0.03 0
  610.6884 0.04 0
  611.1243 0.02 0
  611.3127 0.06 1
  611.5912 0.07 1
  611.7463 0.03 0
  612.4268 0.01 0
  612.9436 0.03 0
  613.1153 0.04 0
  613.4556 0.05 0
  614.4836 0.02 0
  614.6791 0.02 0
  615.1097 0.01 0
  615.3487 0.02 0
  615.5687 0.10 1
  615.7349 0.04 0
  615.8893 0.01 0
  616.0998 0.01 0
  616.4441 0.03 0
  616.9420 0.09 1
  617.2649 0.03 0
  617.3820 0.02 0
  617.5815 0.04 0
  617.7936 0.04 0
  618.0643 0.05 0
  618.2931 0.06 1
  618.5891 0.06 1
  618.8052 0.02 0
  619.0166 0.09 1
  619.2010 0.07 1
  619.3522 0.07 1
  619.5992 0.11 1
  619.7900 0.10 1
  620.0861 0.09 1
  620.4193 0.08 1
  620.7114 0.08 1
  621.3772 0.15 1
  621.6828 0.11 1
  621.9061 0.16 2
  622.5259 0.29 3
  622.9487 0.09 1
  623.4800 0.16 2
  623.8284 0.05 0
  624.4372 0.25 2
  624.5988 0.11 1
  624.7365 0.08 1
  625.4958 0.77 8
  625.7144 0.39 4
  625.8553 0.14 1
  626.0034 0.07 1
  626.3851 0.12 1
  626.5981 0.06 1
  626.7675 0.02 0
  627.0201 0.08 1
  627.4651 0.10 1
  627.7407 0.06 1
  628.0163 0.07 1
  628.2309 0.11 1
  628.4289 0.09 1
  628.8914 0.13 1
  629.1733 0.10 1
  629.3903 0.07 1
  629.5709 0.10 1
  629.7816 0.12 1
  630.0132 0.12 1
  630.4899 0.11 1
  630.7310 0.05 0
  631.0204 0.13 1
  631.1587 0.08 1
  631.5983 0.14 1
  632.1643 0.18 2
  632.5485 0.12 1
  632.8244 0.12 1
  633.1731 0.17 2
  633.3668 0.14 1
  633.9637 0.28 3
  634.3384 0.29 3
  634.9299 0.27 3
  635.8589 0.57 6
  640.4928 99.97 999
  641.0923 10.53 105
  641.9077 4.93 49
  643.0909 2.41 24
  644.1428 1.46 15
  645.0952 0.78 8
//
