ACCESSION: MSBNK-Kyoto_Univ-CA000150
RECORD_TITLE: Fritschiellaxanthin; FAB-EBEB; MS2; m/z: 582.41; [M]*+
DATE: 2016.01.19 (Created 2007.03.15, modified 2011.05.10)
AUTHORS: Akimoto N, Graduate School of Pharmaceutical Sciences, Kyoto University and Maoka T, Research Institute for Production Development
LICENSE: CC BY-SA
COMMENT: Profile spectrum of this record is given as a JPEG file.
COMMENT: [Profile] CA000150.jpg
CH$NAME: Fritschiellaxanthin
CH$COMPOUND_CLASS: Natural Product; Carotenoid
CH$FORMULA: C40H54O3
CH$EXACT_MASS: 582.40730
CH$SMILES: CC(=C1C=CC(=CC=CC(C)=CC=CC=C(C)C=CC=C(C)C=CC(C2(C)C)C(C)=CC(O)C2)C)C(=O)C(O)CC1(C)C
CH$IUPAC: InChI=1S/C40H54O3/c1-28(17-13-19-30(3)21-23-35-32(5)25-34(41)26-39(35,7)8)15-11-12-16-29(2)18-14-20-31(4)22-24-36-33(6)38(43)37(42)27-40(36,9)10/h11-25,34-35,37,41-42H,26-27H2,1-10H3/b12-11+,17-13+,18-14+,23-21+,24-22+,28-15+,29-16+,30-19+,31-20+/t34-,35-,37-/m0/s1
CH$LINK: CHEMSPIDER 4475911
CH$LINK: PUBCHEM CID:5316963
CH$LINK: INCHIKEY JKMGDISLOMKFOX-HZYGIUPKSA-N
AC$INSTRUMENT: JMS-HX/HX 110A, JEOL
AC$INSTRUMENT_TYPE: FAB-EBEB
AC$MASS_SPECTROMETRY: MS_TYPE MS2
AC$MASS_SPECTROMETRY: ION_MODE POSITIVE
AC$MASS_SPECTROMETRY: ATOM_GUN_CURRENT 5 mA
AC$MASS_SPECTROMETRY: BOMBARDMENT 6 kV xenon
AC$MASS_SPECTROMETRY: COLLISION_ENERGY 3 kV
AC$MASS_SPECTROMETRY: COLLISION_GAS Ar
AC$MASS_SPECTROMETRY: GAS_PRESSURE adjust to attenuate the intensity of the precursor ion by 30 %
AC$MASS_SPECTROMETRY: IONIZATION FAB
AC$MASS_SPECTROMETRY: MATRIX 1-2 uL m-NBA
AC$MASS_SPECTROMETRY: PROBE_TIP stainless-steel
MS$FOCUSED_ION: BASE_PEAK 582.3452
MS$FOCUSED_ION: PRECURSOR_M/Z 582.41
MS$FOCUSED_ION: PRECURSOR_TYPE [M]+*
PK$SPLASH: splash10-0f7o-4920020000-3b62254020b4bbefd118
PK$NUM_PEAK: 1749
PK$PEAK: m/z int. rel.int.
  6.4525 0.01 0
  11.1736 0.01 0
  11.9581 0.06 1
  12.9497 0.05 0
  13.9662 0.22 2
  14.9678 0.67 7
  22.9162 0.08 1
  24.9309 0.04 0
  25.9402 0.84 8
  26.9463 5.52 55
  27.4454 0.08 1
  27.9397 0.21 2
  28.3280 0.01 0
  28.9524 4.71 47
  29.9406 0.22 2
  30.9393 0.71 7
  33.5019 0.01 0
  34.2524 0.01 0
  35.9441 0.02 0
  36.0667 0.04 0
  36.1955 0.04 0
  36.9170 0.87 9
  37.2168 0.03 0
  37.9201 1.92 19
  38.2423 0.01 0
  38.9258 13.64 136
  39.3023 0.04 0
  39.5549 0.07 1
  39.6678 0.01 0
  39.9407 1.88 19
  40.2826 0.03 0
  40.5177 0.10 1
  40.9428 22.12 221
  41.2914 0.02 0
  41.4261 0.01 0
  41.9450 0.63 6
  42.4206 0.02 0
  42.9324 18.37 184
  43.9256 0.33 3
  44.9365 0.72 7
  45.9280 0.03 0
  46.5382 0.01 0
  46.8970 0.09 1
  47.3539 0.01 0
  48.1538 0.02 0
  48.9193 0.42 4
  49.2070 0.11 1
  49.5145 0.02 0
  49.9094 4.47 45
  50.4473 0.01 0
  50.6531 0.03 0
  50.9202 10.56 106
  51.9273 3.60 36
  52.5108 0.02 0
  52.9328 15.73 157
  53.2070 0.03 0
  53.9379 1.23 12
  54.9415 27.95 279
  55.2785 0.01 0
  55.9530 0.72 7
  56.3870 0.05 0
  56.7395 0.11 1
  56.9480 6.74 67
  57.9113 0.23 2
  58.9415 3.72 37
  59.9095 0.06 1
  60.3319 0.01 0
  60.9183 0.82 8
  61.0462 0.09 1
  61.3864 0.04 0
  61.7589 0.11 1
  61.9181 3.15 31
  62.9135 7.38 74
  63.1861 0.07 1
  63.3697 0.08 1
  63.5932 0.02 0
  63.9231 1.56 16
  64.3286 0.06 1
  64.4968 0.13 1
  64.6820 0.06 1
  64.9280 11.97 120
  65.2811 0.01 0
  65.7080 0.02 0
  65.9335 2.12 21
  66.9374 14.96 149
  67.2303 0.02 0
  67.5787 0.04 0
  67.9275 0.62 6
  68.5023 0.06 1
  68.9350 15.21 152
  69.4370 0.11 1
  69.5474 0.01 0
  69.9371 0.51 5
  70.9192 7.56 76
  71.9508 0.14 1
  72.1816 0.08 1
  72.8953 0.58 6
  73.0932 0.01 0
  73.6779 0.08 1
  73.9025 2.52 25
  74.5650 0.02 0
  74.9067 3.35 33
  75.0873 0.12 1
  75.2557 0.15 1
  75.3461 0.10 1
  75.4943 0.14 1
  75.6203 0.11 1
  75.8983 1.73 17
  76.1859 0.18 2
  76.5598 0.24 2
  76.9124 30.40 304
  77.2478 0.24 2
  77.3921 0.08 1
  77.5242 0.09 1
  77.6205 0.16 2
  77.6793 0.06 1
  77.9208 6.62 66
  78.3031 0.03 0
  78.4650 0.14 1
  78.9223 26.16 261
  79.2367 0.04 0
  79.4847 0.10 1
  79.9285 3.86 39
  80.1249 0.14 1
  80.2432 0.07 1
  80.9317 27.25 272
  81.1975 0.13 1
  81.4528 0.09 1
  81.5413 0.02 0
  81.6393 0.02 0
  81.9110 2.33 23
  82.9204 6.29 63
  83.9434 0.40 4
  84.2604 0.05 0
  84.5748 0.05 0
  84.9254 5.25 52
  85.2594 0.10 1
  85.7452 0.10 1
  85.9075 0.71 7
  86.6637 0.08 1
  86.9029 1.23 12
  87.0668 0.04 0
  87.6109 0.04 0
  87.9159 0.56 6
  88.3378 0.10 1
  88.9012 4.11 41
  89.2871 0.10 1
  89.4344 0.37 4
  89.9052 1.27 13
  90.1791 0.34 3
  90.4391 0.18 2
  90.9196 50.90 509
  91.3530 0.17 2
  91.6619 0.10 1
  91.9266 6.30 63
  92.2158 0.11 1
  92.3623 0.04 0
  92.5283 0.07 1
  92.9341 28.93 289
  93.1952 0.11 1
  93.2985 0.17 2
  93.6088 0.06 1
  93.9346 2.09 21
  94.3257 0.16 2
  94.4838 0.12 1
  94.5593 0.06 1
  94.9323 23.61 236
  95.2025 0.15 1
  95.3204 0.11 1
  95.6947 0.06 1
  95.9339 1.30 13
  96.3961 0.08 1
  96.6794 0.04 0
  96.9314 4.21 42
  97.4575 0.03 0
  97.9292 0.50 5
  98.6351 0.09 1
  98.9099 0.70 7
  99.7350 0.13 1
  99.9408 0.18 2
  100.4627 0.11 1
  100.9062 0.93 9
  101.0659 0.15 1
  101.2928 0.18 2
  101.3967 0.20 2
  101.5989 0.05 0
  101.9263 3.24 32
  102.4769 0.09 1
  102.9271 10.61 106
  103.3415 0.06 1
  103.5201 0.12 1
  103.9368 4.61 46
  104.2243 0.14 1
  104.4107 0.11 1
  104.5458 0.28 3
  104.9377 49.09 491
  105.2683 0.04 0
  105.3868 0.19 2
  105.6644 0.16 2
  105.9485 4.80 48
  106.2127 0.08 1
  106.3589 0.14 1
  106.9455 20.30 203
  107.3594 0.09 1
  107.5075 0.07 1
  107.9538 2.56 26
  108.1352 0.08 1
  108.2684 0.07 1
  108.4029 0.07 1
  108.5386 0.05 0
  108.6417 0.04 0
  108.9524 13.22 132
  109.2122 0.09 1
  109.4482 0.01 0
  109.6019 0.05 0
  109.9237 1.15 11
  110.1386 0.05 0
  110.9301 3.55 35
  111.1460 0.10 1
  111.2994 0.07 1
  111.5003 0.14 1
  111.7005 0.01 0
  111.9230 0.12 1
  112.2334 0.07 1
  112.6042 0.23 2
  112.9276 1.12 11
  113.1499 0.12 1
  113.3919 0.50 5
  113.5877 0.14 1
  113.9320 1.02 10
  114.0341 0.49 5
  114.2688 0.19 2
  114.4649 0.26 3
  114.9137 26.21 262
  115.3776 0.22 2
  115.5899 0.16 2
  115.9149 9.19 92
  116.1700 0.20 2
  116.3851 0.30 3
  116.9175 23.27 233
  117.2425 0.09 1
  117.3496 0.06 1
  117.4611 0.11 1
  117.5211 0.05 0
  117.9306 5.35 53
  118.2075 0.08 1
  118.3084 0.05 0
  118.4131 0.14 1
  118.9292 41.76 417
  119.3338 0.23 2
  119.6094 0.22 2
  119.9216 4.14 41
  120.1898 0.21 2
  120.4510 0.27 3
  120.9315 18.46 184
  121.2064 0.14 1
  121.3340 0.13 1
  121.5071 0.10 1
  121.6515 0.06 1
  121.9171 1.89 19
  122.2560 0.05 0
  122.3748 0.05 0
  122.9188 20.74 207
  123.4607 0.05 0
  123.5829 0.05 0
  123.9232 1.73 17
  124.1060 0.13 1
  124.2045 0.04 0
  124.4189 0.18 2
  124.9007 1.85 18
  125.1636 0.04 0
  125.2913 0.06 1
  125.4582 0.16 2
  125.8968 1.62 16
  126.1169 0.11 1
  126.9007 8.07 81
  127.8936 26.56 265
  128.2229 0.23 2
  128.5116 0.62 6
  128.9034 29.29 293
  129.2292 0.23 2
  129.3731 0.07 1
  129.9124 11.80 118
  130.3892 0.28 3
  130.9117 27.47 275
  131.4359 0.19 2
  131.9187 7.14 71
  132.2237 0.27 3
  132.3134 0.09 1
  132.9159 23.28 233
  133.1808 0.18 2
  133.3241 0.04 0
  133.4100 0.06 1
  133.9032 2.84 28
  134.1827 0.06 1
  134.3170 0.19 2
  134.5518 0.04 0
  134.9138 13.25 132
  135.2387 0.15 1
  135.4077 0.10 1
  135.5755 0.14 1
  135.6676 0.15 1
  135.9197 1.22 12
  136.2073 0.06 1
  136.3576 0.07 1
  136.9129 5.33 53
  137.2027 0.08 1
  137.8954 2.84 28
  138.1928 0.09 1
  138.4149 0.09 1
  138.5368 0.09 1
  138.8987 4.57 46
  139.1754 0.11 1
  139.8978 1.10 11
  140.1446 0.39 4
  140.4408 0.30 3
  140.8914 20.15 201
  141.1366 0.14 1
  141.2194 0.06 1
  141.3923 0.38 4
  141.9045 17.48 175
  142.1473 0.51 5
  142.3302 0.25 2
  142.4309 0.13 1
  142.9075 31.20 312
  143.1788 0.23 2
  143.3633 0.33 3
  143.4707 0.22 2
  143.9083 11.09 111
  144.3823 0.20 2
  144.5215 0.08 1
  144.9153 32.21 322
  145.2070 0.18 2
  145.4671 0.17 2
  145.9234 4.41 44
  146.2497 0.24 2
  146.3640 0.18 2
  146.4704 0.16 2
  146.9258 13.84 138
  147.2234 0.14 1
  147.3854 0.12 1
  147.4628 0.06 1
  147.8975 1.38 14
  148.2252 0.03 0
  148.9245 2.54 25
  149.3710 0.17 2
  149.4393 0.06 1
  149.8987 1.13 11
  150.3132 0.24 2
  150.9110 4.09 41
  151.1599 0.25 2
  151.2641 0.26 3
  151.4308 0.51 5
  151.8924 8.50 85
  152.2053 0.24 2
  152.4339 0.39 4
  152.9099 11.88 119
  153.2324 0.12 1
  153.4765 0.20 2
  153.9203 5.74 57
  154.3656 0.13 1
  154.9224 20.41 204
  155.5254 0.22 2
  155.9286 13.33 133
  156.1727 0.13 1
  156.3227 0.26 3
  156.4495 0.20 2
  156.5975 0.32 3
  156.9418 24.34 243
  157.3489 0.27 3
  157.9439 5.77 58
  158.1710 0.28 3
  158.5464 0.16 2
  158.9514 13.90 139
  159.4770 0.40 4
  159.5793 0.10 1
  159.9438 2.68 27
  160.3225 0.10 1
  160.9605 9.64 96
  161.2270 0.09 1
  161.4440 0.18 2
  161.5679 0.32 3
  161.9378 1.31 13
  162.3533 0.12 1
  162.9346 3.02 30
  163.4766 0.17 2
  163.9316 1.22 12
  164.1611 0.36 4
  164.3404 0.45 4
  164.9280 17.96 179
  165.3284 0.18 2
  165.4709 0.14 1
  165.9407 6.89 69
  166.2257 0.19 2
  166.5095 0.16 2
  166.9460 13.47 135
  167.2831 0.06 1
  167.5362 0.09 1
  167.9448 5.67 57
  168.3327 0.08 1
  168.5374 0.14 1
  168.9628 16.02 160
  169.2490 0.16 2
  169.5004 0.19 2
  169.9682 6.71 67
  170.3293 0.13 1
  170.5365 0.25 2
  170.9717 11.36 114
  171.4575 0.28 3
  171.5565 0.15 1
  171.9712 3.10 31
  172.3732 0.26 3
  172.5517 0.19 2
  172.9633 8.17 82
  173.2079 0.14 1
  173.4343 0.13 1
  173.6561 0.16 2
  173.9683 1.30 13
  174.2508 0.05 0
  174.4740 0.19 2
  174.9645 3.57 36
  175.2088 0.08 1
  175.3404 0.17 2
  175.4835 0.04 0
  175.9229 2.20 22
  176.3558 0.14 1
  176.5388 0.18 2
  176.9408 2.65 26
  177.2854 0.30 3
  177.9242 8.64 86
  178.9367 13.37 134
  179.2283 0.17 2
  179.3508 0.05 0
  179.9451 5.45 54
  180.2119 0.21 2
  180.4862 0.15 1
  180.9515 13.51 135
  181.3079 0.18 2
  181.5776 0.29 3
  181.9640 6.54 65
  182.2094 0.18 2
  182.9622 12.40 124
  183.1881 0.33 3
  183.3075 0.17 2
  183.4290 0.15 1
  183.9502 2.54 25
  184.1627 0.24 2
  184.5571 0.23 2
  184.9802 7.75 77
  185.2615 0.18 2
  185.3756 0.09 1
  185.6066 0.19 2
  185.9647 1.56 16
  186.3814 0.23 2
  186.5357 0.17 2
  186.9491 3.78 38
  187.3287 0.26 3
  187.5382 0.19 2
  187.9879 1.28 13
  188.1744 0.45 4
  188.4099 0.22 2
  188.9259 5.26 53
  189.4924 0.29 3
  189.9298 2.05 20
  190.4292 0.33 3
  190.9302 7.00 70
  191.2404 0.12 1
  191.5083 0.21 2
  191.9482 5.29 53
  192.2279 0.22 2
  192.9361 10.36 104
  193.3484 0.19 2
  193.5505 0.14 1
  193.9451 5.99 60
  194.1780 0.18 2
  194.3904 0.23 2
  194.9437 12.29 123
  195.4105 0.21 2
  195.9388 4.69 47
  196.3894 0.24 2
  196.9584 10.33 103
  197.3476 0.20 2
  197.4872 0.04 0
  197.9491 2.21 22
  198.4590 0.24 2
  198.9753 3.93 39
  199.2965 0.17 2
  199.5019 0.06 1
  199.6033 0.10 1
  199.9150 1.27 13
  200.2274 0.12 1
  200.3316 0.06 1
  200.4310 0.13 1
  200.9574 3.10 31
  201.2014 0.24 2
  201.9049 3.75 37
  202.3892 0.26 3
  202.5703 0.34 3
  202.9429 4.80 48
  203.2997 0.18 2
  203.5084 0.12 1
  203.6745 0.43 4
  203.9587 1.91 19
  204.2443 0.22 2
  204.4263 0.12 1
  204.9400 5.77 58
  205.3193 0.24 2
  205.4855 0.10 1
  205.9631 4.05 40
  206.3082 0.20 2
  206.4209 0.28 3
  206.5831 0.10 1
  206.9571 8.72 87
  207.2851 0.34 3
  207.5155 0.16 2
  207.9640 3.89 39
  208.3466 0.15 1
  208.5392 0.12 1
  208.9659 8.68 87
  209.3603 0.23 2
  209.4691 0.12 1
  209.6226 0.20 2
  209.9814 2.45 24
  210.2217 0.25 2
  210.3932 0.25 2
  210.9643 6.04 60
  211.2481 0.13 1
  211.3728 0.20 2
  211.5589 0.19 2
  211.9455 1.25 12
  212.1758 0.09 1
  212.3543 0.16 2
  212.6714 0.35 3
  212.9714 2.36 24
  213.6377 0.09 1
  213.9633 0.50 5
  214.3290 0.31 3
  214.5601 0.25 2
  214.9618 4.98 50
  215.4409 0.16 2
  215.9629 2.12 21
  216.3054 0.32 3
  216.4684 0.12 1
  216.9499 3.55 35
  217.3382 0.17 2
  217.4702 0.10 1
  217.7120 0.33 3
  217.9740 2.53 25
  218.3251 0.25 2
  218.4164 0.13 1
  218.9681 5.05 50
  219.2751 0.12 1
  219.5511 0.04 0
  219.9986 2.28 23
  220.3715 0.10 1
  221.0026 5.69 57
  221.2352 0.22 2
  221.3854 0.03 0
  221.4809 0.04 0
  221.9863 2.17 22
  222.4489 0.42 4
  223.0092 4.95 49
  223.3556 0.16 2
  223.6147 0.03 0
  224.0228 1.16 12
  224.3173 0.24 2
  225.0015 3.29 33
  225.3031 0.07 1
  225.4459 0.03 0
  225.9945 1.53 15
  226.3073 0.16 2
  226.4842 0.09 1
  226.9747 2.39 24
  227.3258 0.11 1
  227.5694 0.10 1
  227.9657 1.57 16
  228.5051 0.16 2
  229.0070 2.52 25
  229.3425 0.14 1
  229.4467 0.04 0
  230.0079 1.21 12
  230.2795 0.19 2
  230.4579 0.10 1
  230.6269 0.21 2
  231.0011 3.79 38
  231.2589 0.13 1
  231.5056 0.14 1
  232.0310 2.39 24
  232.2903 0.11 1
  232.4983 0.18 2
  233.0239 4.29 43
  233.5628 0.21 2
  234.0116 1.07 11
  235.0220 3.76 38
  235.3593 0.10 1
  235.5474 0.13 1
  236.0354 1.13 11
  236.2910 0.07 1
  236.5479 0.14 1
  237.0354 2.68 27
  237.2910 0.17 2
  237.5571 0.04 0
  237.6752 0.05 0
  238.0337 0.83 8
  238.2901 0.25 2
  238.4722 0.06 1
  238.6924 0.42 4
  239.0288 2.43 24
  239.4772 0.10 1
  239.6475 0.15 1
  239.7831 0.14 1
  240.0404 0.68 7
  240.2643 0.16 2
  240.4597 0.07 1
  240.6092 0.11 1
  240.9952 1.57 16
  241.3590 0.13 1
  241.6178 0.11 1
  241.7806 0.28 3
  242.0109 1.06 11
  242.1891 0.21 2
  242.3171 0.13 1
  242.4841 0.15 1
  242.9943 2.83 28
  243.4906 0.03 0
  243.6459 0.16 2
  244.0288 1.29 13
  244.3686 0.15 1
  244.5114 0.12 1
  245.0066 2.66 27
  245.3298 0.12 1
  245.4615 0.09 1
  245.5472 0.03 0
  246.0273 1.45 14
  246.1645 0.47 5
  246.2802 0.11 1
  246.5485 0.09 1
  247.0169 2.90 29
  247.2845 0.14 1
  247.5007 0.15 1
  247.7203 0.16 2
  248.0250 0.90 9
  248.3925 0.16 2
  248.5570 0.14 1
  249.0285 2.69 27
  249.4422 0.13 1
  249.5859 0.12 1
  249.7575 0.14 1
  250.0303 0.79 8
  250.3464 0.06 1
  250.5990 0.24 2
  251.0241 1.61 16
  251.3019 0.21 2
  251.3821 0.11 1
  251.5671 0.16 2
  252.0244 0.98 10
  252.3135 0.09 1
  252.6703 0.06 1
  253.0237 1.63 16
  253.3366 0.11 1
  253.4666 0.07 1
  253.6370 0.02 0
  254.0429 0.69 7
  254.2623 0.06 1
  255.0338 1.50 15
  255.2868 0.08 1
  255.7006 0.18 2
  256.0026 0.96 10
  256.2011 0.14 1
  256.3472 0.17 2
  256.4409 0.06 1
  256.5548 0.09 1
  256.7044 0.29 3
  257.0336 2.39 24
  257.2168 0.28 3
  257.3041 0.17 2
  257.4936 0.12 1
  257.6348 0.24 2
  258.0299 0.89 9
  259.0334 1.72 17
  259.3063 0.11 1
  259.4686 0.15 1
  259.5525 0.06 1
  260.0352 1.20 12
  260.2535 0.11 1
  260.6111 0.13 1
  261.0303 2.41 24
  261.3362 0.02 0
  261.5714 0.14 1
  261.7464 0.06 1
  262.0229 0.78 8
  262.1321 0.46 5
  262.3352 0.06 1
  262.5775 0.04 0
  263.0522 1.62 16
  263.4732 0.26 3
  263.6672 0.12 1
  264.0356 0.65 6
  264.1884 0.40 4
  264.3551 0.08 1
  264.7012 0.10 1
  265.0333 1.51 15
  265.1616 0.60 6
  265.4258 0.09 1
  265.5708 0.11 1
  265.7902 0.20 2
  266.0264 0.95 9
  266.4259 0.06 1
  266.5409 0.21 2
  266.7449 0.22 2
  267.0169 1.19 12
  267.1670 0.39 4
  267.3241 0.12 1
  267.5667 0.08 1
  267.7637 0.26 3
  268.0471 0.54 5
  268.3767 0.09 1
  268.4966 0.05 0
  268.7379 0.13 1
  269.0263 0.94 9
  269.4276 0.08 1
  269.6886 0.10 1
  269.8921 0.24 2
  270.1005 0.62 6
  270.3517 0.11 1
  270.5384 0.13 1
  270.6781 0.17 2
  271.0473 1.08 11
  271.3800 0.11 1
  271.4951 0.07 1
  272.0406 0.45 4
  272.3180 0.07 1
  272.5602 0.09 1
  272.6747 0.06 1
  273.0441 1.54 15
  273.2703 0.14 1
  273.4957 0.10 1
  274.1069 0.65 6
  274.2221 0.30 3
  274.3183 0.12 1
  275.0793 1.48 15
  275.3906 0.03 0
  275.5224 0.09 1
  275.6164 0.10 1
  275.9838 0.73 7
  276.1549 0.27 3
  276.3001 0.11 1
  276.5827 0.02 0
  277.0407 1.30 13
  277.2449 0.23 2
  277.3234 0.13 1
  277.4034 0.06 1
  277.7037 0.08 1
  277.8489 0.30 3
  278.0699 0.48 5
  278.5063 0.09 1
  279.0608 0.89 9
  279.2888 0.12 1
  279.5963 0.17 2
  279.7247 0.10 1
  280.0673 0.29 3
  280.3685 0.07 1
  280.5777 0.11 1
  281.0088 0.81 8
  281.9161 0.51 5
  282.0637 0.59 6
  282.7570 0.21 2
  283.0857 1.18 12
  283.4335 0.12 1
  283.8087 0.27 3
  283.9598 0.27 3
  284.1116 0.33 3
  284.3069 0.11 1
  284.5037 0.10 1
  285.0238 1.40 14
  285.2748 0.14 1
  286.0122 0.34 3
  286.1929 0.15 1
  286.4102 0.12 1
  286.6085 0.02 0
  287.0388 0.89 9
  288.0376 0.46 5
  288.2057 0.22 2
  288.3126 0.12 1
  288.4864 0.13 1
  288.7193 0.15 1
  289.0429 1.04 10
  289.2758 0.08 1
  289.4264 0.13 1
  289.5537 0.06 1
  290.0224 0.47 5
  290.4229 0.04 0
  290.8360 0.10 1
  291.0540 0.69 7
  291.8095 0.25 2
  292.0128 0.32 3
  292.1788 0.19 2
  292.6819 0.10 1
  293.0485 0.73 7
  293.3419 0.12 1
  293.4595 0.03 0
  293.7143 0.08 1
  293.9212 0.29 3
  294.1232 0.31 3
  294.2984 0.05 0
  294.5061 0.09 1
  294.7349 0.08 1
  295.0242 0.69 7
  295.2530 0.08 1
  295.5086 0.06 1
  295.6135 0.01 0
  296.0276 0.36 4
  296.3430 0.02 0
  296.4803 0.12 1
  296.7064 0.22 2
  297.0607 1.65 16
  297.6869 0.19 2
  297.8926 0.23 2
  298.0391 0.48 5
  298.1695 0.28 3
  299.0403 1.20 12
  299.1672 0.58 6
  299.3236 0.09 1
  299.5287 0.07 1
  299.8733 0.09 1
  300.0495 0.56 6
  300.1912 0.15 1
  300.3343 0.11 1
  300.6487 0.09 1
  301.0758 0.96 10
  301.1760 0.45 4
  301.4608 0.05 0
  301.8810 0.09 1
  302.0135 0.26 3
  302.1412 0.27 3
  302.3274 0.11 1
  302.6151 0.04 0
  303.0460 0.56 6
  303.6025 0.02 0
  303.9996 0.36 4
  304.1343 0.32 3
  304.3665 0.02 0
  304.7023 0.04 0
  304.8138 0.08 1
  305.0367 0.46 5
  305.2110 0.04 0
  305.7148 0.15 1
  306.0825 0.35 3
  306.4601 0.04 0
  306.6161 0.07 1
  307.0650 0.62 6
  307.4554 0.05 0
  307.6297 0.07 1
  308.0971 0.39 4
  308.4883 0.08 1
  309.0122 0.99 10
  309.1930 0.44 4
  309.8131 0.08 1
  310.1006 0.40 4
  310.2030 0.12 1
  310.5378 0.08 1
  310.9955 0.88 9
  311.1100 0.44 4
  311.2372 0.29 3
  311.5070 0.11 1
  312.0363 0.40 4
  312.4928 0.09 1
  313.0037 0.69 7
  313.4024 0.09 1
  313.6180 0.15 1
  313.9742 0.48 5
  314.5666 0.12 1
  314.7985 0.11 1
  315.0644 0.49 5
  315.1548 0.25 2
  315.4377 0.08 1
  315.7135 0.11 1
  315.9044 0.12 1
  316.1788 0.20 2
  316.5190 0.14 1
  316.6929 0.11 1
  317.0395 0.52 5
  317.2135 0.23 2
  317.6068 0.11 1
  317.6924 0.05 0
  317.8954 0.14 1
  317.9726 0.09 1
  318.1232 0.33 3
  318.2414 0.09 1
  318.4190 0.01 0
  319.0643 0.65 6
  319.2129 0.21 2
  319.6941 0.16 2
  319.8575 0.05 0
  320.0607 0.09 1
  320.2199 0.07 1
  320.3211 0.05 0
  320.4612 0.08 1
  320.8265 0.05 0
  321.0671 0.57 6
  321.2243 0.25 2
  321.9507 0.08 1
  322.1524 0.25 2
  322.2459 0.09 1
  322.4378 0.10 1
  322.7536 0.19 2
  323.0708 0.58 6
  323.5262 0.09 1
  323.6912 0.18 2
  323.9284 0.25 2
  324.0715 0.43 4
  324.2386 0.11 1
  324.9420 0.52 5
  325.0703 0.29 3
  325.1744 0.32 3
  325.4967 0.10 1
  326.0416 0.28 3
  326.2711 0.05 0
  326.6616 0.08 1
  327.0648 0.37 4
  327.3915 0.04 0
  327.6544 0.03 0
  327.9379 0.12 1
  328.1491 0.33 3
  328.7928 0.15 1
  329.1033 0.36 4
  329.3784 0.10 1
  329.6478 0.11 1
  329.9895 0.22 2
  330.1937 0.18 2
  330.6192 0.16 2
  331.0624 0.46 5
  331.4255 0.10 1
  331.7255 0.05 0
  332.0816 0.29 3
  332.2993 0.10 1
  333.0484 0.37 4
  333.1733 0.26 3
  334.0963 0.29 3
  334.2241 0.11 1
  334.7769 0.19 2
  335.1402 0.34 3
  335.9915 0.20 2
  336.2160 0.22 2
  337.0852 0.70 7
  337.2517 0.26 3
  337.7242 0.12 1
  337.8277 0.05 0
  338.0211 0.32 3
  338.1961 0.11 1
  338.4023 0.07 1
  339.0493 0.29 3
  339.2364 0.16 2
  339.7098 0.08 1
  339.8515 0.10 1
  340.1138 0.21 2
  340.3774 0.13 1
  340.4951 0.04 0
  341.0573 0.14 1
  341.2564 0.06 1
  341.6478 0.04 0
  342.1256 0.22 2
  342.5383 0.10 1
  342.7496 0.07 1
  343.1226 0.25 2
  343.2198 0.13 1
  343.5034 0.02 0
  343.7460 0.04 0
  343.9651 0.07 1
  344.2112 0.12 1
  344.4212 0.06 1
  344.7489 0.08 1
  345.0439 0.11 1
  345.2014 0.21 2
  345.2858 0.07 1
  345.7477 0.06 1
  345.8924 0.16 2
  346.0222 0.18 2
  346.3011 0.22 2
  346.7466 0.15 1
  347.0177 0.40 4
  347.1624 0.43 4
  347.4009 0.03 0
  347.5102 0.04 0
  348.0928 0.22 2
  348.2014 0.28 3
  348.2908 0.09 1
  349.0936 0.42 4
  349.3108 0.15 1
  349.8134 0.11 1
  350.0625 0.19 2
  350.2911 0.11 1
  350.5105 0.13 1
  351.0778 0.46 5
  351.2226 0.29 3
  351.3966 0.04 0
  352.1472 0.57 6
  352.4888 0.10 1
  352.8972 0.09 1
  353.1266 0.20 2
  353.4426 0.15 1
  353.7893 0.13 1
  353.9967 0.17 2
  354.1721 0.05 0
  354.4669 0.06 1
  355.0524 0.19 2
  355.2207 0.09 1
  355.5106 0.10 1
  356.0556 0.13 1
  356.2951 0.17 2
  356.5019 0.22 2
  356.5715 0.08 1
  356.7712 0.07 1
  356.9062 0.13 1
  357.1514 0.30 3
  357.2680 0.09 1
  357.5437 0.11 1
  357.9183 0.08 1
  358.1187 0.21 2
  358.2609 0.05 0
  359.0769 0.27 3
  359.2888 0.05 0
  359.7943 0.06 1
  360.0964 0.38 4
  360.3894 0.10 1
  360.7534 0.10 1
  360.8494 0.13 1
  361.1076 0.46 5
  361.3166 0.09 1
  361.4503 0.12 1
  361.6445 0.08 1
  362.0659 0.28 3
  362.2159 0.27 3
  362.3189 0.23 2
  362.5385 0.06 1
  362.7439 0.10 1
  363.2022 0.52 5
  363.8000 0.07 1
  364.0843 0.56 6
  364.3011 0.14 1
  364.5904 0.02 0
  364.8143 0.15 1
  365.1633 0.39 4
  365.7982 0.05 0
  365.9482 0.09 1
  366.1857 0.14 1
  366.3058 0.11 1
  366.7609 0.03 0
  367.1485 0.32 3
  367.3703 0.04 0
  367.7138 0.12 1
  367.9122 0.05 0
  368.0402 0.10 1
  368.2571 0.14 1
  368.4435 0.09 1
  368.7294 0.11 1
  368.9826 0.13 1
  369.2287 0.21 2
  369.3361 0.15 1
  369.9237 0.11 1
  370.0952 0.20 2
  370.2538 0.23 2
  370.3306 0.14 1
  370.7198 0.03 0
  370.9133 0.08 1
  371.1744 0.21 2
  371.3594 0.10 1
  372.2438 0.13 1
  372.4289 0.08 1
  372.9249 0.10 1
  373.0309 0.18 2
  373.1526 0.12 1
  373.3099 0.23 2
  373.7433 0.06 1
  374.0060 0.18 2
  374.1811 0.14 1
  374.6437 0.11 1
  374.8552 0.11 1
  375.0232 0.29 3
  375.2303 0.45 4
  375.8333 0.07 1
  376.0099 0.32 3
  376.2331 0.17 2
  376.9282 0.09 1
  377.0895 0.20 2
  377.2615 0.25 2
  377.4200 0.12 1
  377.4989 0.06 1
  378.0895 0.22 2
  378.2715 0.22 2
  379.0819 0.22 2
  379.2603 0.27 3
  379.6948 0.05 0
  380.0552 0.10 1
  380.1697 0.18 2
  380.2849 0.11 1
  380.4491 0.03 0
  380.5494 0.05 0
  380.7563 0.11 1
  380.9625 0.06 1
  381.1360 0.20 2
  381.2420 0.11 1
  381.7305 0.11 1
  381.8365 0.12 1
  382.0576 0.36 4
  382.2283 0.16 2
  382.3585 0.16 2
  383.0569 0.27 3
  383.6388 0.10 1
  383.9646 0.20 2
  384.1012 0.14 1
  384.3537 0.09 1
  384.5415 0.07 1
  384.8638 0.11 1
  385.0281 0.17 2
  385.1420 0.21 2
  385.5660 0.07 1
  385.8207 0.05 0
  386.0804 0.12 1
  386.3309 0.10 1
  386.6874 0.06 1
  387.0453 0.13 1
  387.2275 0.25 2
  387.3407 0.12 1
  387.4460 0.09 1
  387.7086 0.10 1
  388.0794 0.12 1
  388.4111 0.12 1
  388.6175 0.14 1
  388.7769 0.02 0
  389.0275 0.22 2
  389.1898 0.34 3
  389.8717 0.17 2
  390.1109 0.48 5
  390.4120 0.22 2
  390.6719 0.19 2
  391.0706 0.31 3
  391.2529 0.19 2
  391.4971 0.03 0
  392.0076 0.14 1
  392.1764 0.13 1
  392.3017 0.06 1
  392.6421 0.11 1
  392.7418 0.07 1
  392.8799 0.10 1
  393.0387 0.13 1
  393.2745 0.26 3
  393.6348 0.10 1
  393.8207 0.04 0
  394.2730 0.13 1
  394.4439 0.09 1
  394.7039 0.01 0
  395.0672 0.13 1
  395.2581 0.19 2
  395.5238 0.10 1
  396.0780 0.10 1
  396.2690 0.09 1
  396.5867 0.08 1
  396.9394 0.19 2
  397.2536 0.19 2
  397.7894 0.10 1
  398.2825 0.17 2
  398.8975 0.03 0
  399.1447 0.49 5
  399.8845 0.11 1
  400.1026 0.12 1
  400.3143 0.17 2
  401.0663 0.14 1
  401.3457 0.16 2
  401.4640 0.12 1
  401.8925 0.13 1
  402.1028 0.24 2
  402.3509 0.10 1
  402.7544 0.03 0
  403.0952 0.20 2
  403.3119 0.12 1
  403.7583 0.11 1
  404.0663 0.14 1
  404.1861 0.12 1
  404.8243 0.06 1
  405.1238 0.12 1
  405.2065 0.11 1
  405.3520 0.04 0
  405.6808 0.12 1
  406.0859 0.04 0
  406.4083 0.03 0
  406.6679 0.06 1
  407.1158 0.10 1
  407.2885 0.06 1
  408.1345 0.11 1
  409.2446 0.10 1
  409.4767 0.10 1
  410.0791 0.22 2
  410.2293 0.12 1
  410.3853 0.13 1
  410.5384 0.11 1
  410.8026 0.11 1
  410.8880 0.09 1
  411.2049 0.40 4
  411.9378 0.33 3
  412.1158 0.10 1
  412.2974 0.20 2
  412.8074 0.12 1
  413.1764 0.23 2
  413.4349 0.02 0
  413.6757 0.07 1
  414.1822 0.35 3
  414.3973 0.07 1
  414.6687 0.06 1
  414.8041 0.07 1
  414.9266 0.20 2
  415.1582 0.22 2
  415.3142 0.04 0
  415.5493 0.03 0
  415.7196 0.08 1
  415.9889 0.23 2
  416.2668 0.31 3
  417.2060 0.36 4
  417.3357 0.11 1
  417.8858 0.09 1
  418.2756 0.10 1
  418.9741 0.11 1
  419.2178 0.26 3
  419.4231 0.11 1
  419.7781 0.15 1
  419.8871 0.13 1
  420.3184 0.12 1
  420.8601 0.02 0
  421.0184 0.12 1
  421.2850 0.14 1
  421.4675 0.01 0
  421.6828 0.06 1
  421.9879 0.08 1
  422.1270 0.06 1
  422.3487 0.04 0
  422.5284 0.08 1
  422.6888 0.16 2
  423.2841 0.17 2
  423.6870 0.11 1
  424.1078 0.13 1
  424.2853 0.18 2
  424.7667 0.06 1
  425.1168 0.07 1
  425.2692 0.09 1
  425.4509 0.14 1
  426.1931 0.18 2
  426.3149 0.07 1
  426.5999 0.08 1
  427.1762 0.46 5
  427.3386 0.16 2
  427.4334 0.12 1
  427.9050 0.19 2
  428.1173 0.28 3
  428.2798 0.34 3
  428.4066 0.12 1
  428.4821 0.05 0
  429.1541 1.16 12
  429.3450 0.47 5
  429.5260 0.15 1
  429.8025 0.11 1
  430.0099 0.23 2
  430.1688 0.21 2
  430.3541 0.17 2
  430.4774 0.07 1
  430.6876 0.11 1
  431.1295 0.18 2
  431.3247 0.11 1
  431.9655 0.08 1
  432.2413 0.17 2
  433.0525 0.17 2
  433.2243 0.02 0
  433.8159 0.08 1
  433.9564 0.10 1
  434.0826 0.21 2
  434.2087 0.10 1
  434.4761 0.02 0
  435.0557 0.13 1
  435.2068 0.18 2
  435.3345 0.03 0
  435.9384 0.02 0
  436.2229 0.10 1
  436.3056 0.08 1
  436.4981 0.03 0
  436.6022 0.01 0
  437.1606 0.32 3
  437.3303 0.10 1
  437.6191 0.06 1
  437.7667 0.03 0
  438.2873 0.10 1
  438.7437 0.11 1
  438.9763 0.02 0
  439.1125 0.04 0
  439.7415 0.10 1
  439.8478 0.07 1
  440.0233 0.04 0
  440.2401 0.19 2
  440.4263 0.07 1
  441.0576 0.14 1
  441.2766 0.29 3
  441.5320 0.08 1
  441.8423 0.33 3
  442.1184 0.70 7
  442.4059 0.42 4
  442.6841 0.31 3
  442.9132 0.26 3
  443.1857 0.91 9
  443.4576 0.41 4
  443.7194 0.19 2
  444.1918 8.01 80
  444.7726 0.20 2
  445.1544 0.91 9
  445.6761 0.04 0
  445.8773 0.11 1
  446.0529 0.10 1
  446.2527 0.12 1
  446.4989 0.19 2
  446.9607 0.10 1
  447.0521 0.11 1
  447.4410 0.09 1
  448.3618 0.10 1
  448.4425 0.07 1
  449.0000 0.09 1
  449.1620 0.23 2
  449.4312 0.09 1
  449.6960 0.08 1
  449.8302 0.07 1
  450.1015 0.04 0
  450.2350 0.13 1
  450.4977 0.11 1
  450.9568 0.13 1
  451.2646 0.10 1
  451.3588 0.11 1
  451.8243 0.09 1
  452.1221 0.09 1
  452.9818 0.22 2
  453.2068 0.13 1
  453.3467 0.13 1
  453.7438 0.11 1
  454.2187 0.14 1
  454.4708 0.33 3
  454.6536 0.15 1
  454.9543 0.33 3
  455.2207 0.22 2
  455.4850 0.12 1
  455.7607 0.19 2
  456.1207 0.15 1
  456.2328 0.14 1
  456.4678 0.09 1
  456.6857 0.11 1
  456.8400 0.18 2
  457.1707 0.19 2
  457.3357 0.12 1
  458.0951 0.30 3
  458.2987 0.04 0
  458.8210 0.13 1
  459.0696 0.11 1
  460.2049 0.30 3
  460.4083 0.19 2
  460.7750 0.04 0
  460.9333 0.13 1
  461.2387 0.13 1
  461.4662 0.13 1
  461.7480 0.06 1
  462.0284 0.04 0
  462.2424 0.07 1
  462.8432 0.10 1
  463.1264 0.10 1
  463.2720 0.13 1
  463.4083 0.16 2
  464.0426 0.12 1
  464.1881 0.07 1
  464.4101 0.11 1
  465.2292 0.08 1
  466.0877 0.12 1
  466.5152 0.08 1
  466.7900 0.06 1
  466.9235 0.10 1
  467.1433 0.15 1
  467.4224 0.20 2
  467.8463 0.02 0
  468.0904 0.35 3
  468.2467 0.31 3
  468.4537 0.33 3
  468.6686 0.13 1
  468.9563 0.05 0
  469.3232 0.19 2
  469.7137 0.14 1
  470.2655 0.21 2
  470.6131 0.15 1
  470.7581 0.06 1
  470.9601 0.15 1
  471.1015 0.07 1
  471.2921 0.17 2
  471.9689 0.23 2
  472.2160 0.24 2
  472.5094 0.13 1
  472.6693 0.10 1
  472.8600 0.08 1
  473.0135 0.14 1
  473.2506 0.14 1
  473.9818 0.11 1
  474.0925 0.08 1
  474.3874 0.10 1
  474.8280 0.07 1
  475.1001 0.04 0
  476.2378 0.19 2
  476.6292 0.12 1
  477.0299 0.11 1
  477.8256 0.08 1
  478.7135 0.10 1
  478.9307 0.04 0
  479.0657 0.10 1
  479.2257 0.12 1
  480.2209 0.08 1
  480.3859 0.12 1
  480.9339 0.13 1
  481.1946 0.21 2
  481.4176 0.17 2
  481.9199 0.10 1
  482.1585 0.32 3
  482.5301 0.12 1
  483.1646 0.28 3
  483.5283 0.09 1
  483.6848 0.09 1
  484.1379 0.09 1
  484.2487 0.08 1
  484.4402 0.05 0
  484.7232 0.06 1
  484.8447 0.03 0
  484.9998 0.03 0
  485.1863 0.05 0
  485.5865 0.06 1
  486.2097 0.06 1
  486.6043 0.11 1
  486.7651 0.10 1
  487.1161 0.20 2
  487.3991 0.06 1
  487.6264 0.12 1
  487.9846 0.17 2
  488.1609 0.20 2
  488.4592 0.04 0
  489.1057 0.01 0
  489.2933 0.10 1
  489.4417 0.10 1
  489.5631 0.05 0
  490.2125 1.81 18
  490.4294 0.71 7
  490.6457 0.13 1
  491.0624 0.10 1
  491.2094 0.12 1
  491.3936 0.01 0
  491.5713 0.07 1
  491.9724 0.03 0
  492.1494 0.01 0
  492.3029 0.01 0
  492.9003 0.04 0
  493.0145 0.12 1
  493.1487 0.15 1
  493.2593 0.19 2
  494.1173 0.13 1
  494.3307 0.12 1
  494.7883 0.06 1
  494.9404 0.08 1
  495.0439 0.09 1
  495.1517 0.05 0
  495.4315 0.10 1
  495.6728 0.11 1
  496.3439 0.28 3
  496.9865 0.13 1
  497.1214 0.08 1
  497.2271 0.11 1
  497.8733 0.06 1
  498.2552 1.10 11
  498.4366 0.54 5
  499.2871 0.09 1
  499.9262 0.07 1
  500.3261 0.10 1
  500.5782 0.11 1
  500.8588 0.10 1
  501.2945 0.07 1
  501.4402 0.08 1
  502.2487 0.25 2
  502.3908 0.11 1
  502.9022 0.05 0
  503.0000 0.09 1
  503.1014 0.10 1
  503.2971 0.37 4
  503.4022 0.24 2
  503.9286 0.04 0
  504.1236 0.13 1
  504.8715 0.10 1
  504.9751 0.06 1
  505.1729 0.09 1
  505.3301 0.08 1
  505.5108 0.05 0
  505.6766 0.11 1
  506.1895 0.09 1
  506.5703 0.05 0
  507.1283 0.27 3
  507.2497 0.09 1
  507.3698 0.11 1
  507.5148 0.13 1
  507.8384 0.07 1
  508.0750 0.35 3
  508.1793 0.26 3
  508.3686 0.30 3
  508.5136 0.15 1
  508.9624 0.08 1
  509.2332 0.21 2
  509.5040 0.12 1
  509.6305 0.11 1
  509.9006 0.11 1
  510.1443 0.11 1
  510.3651 0.25 2
  510.9010 0.04 0
  511.2619 0.11 1
  511.3655 0.11 1
  511.4913 0.09 1
  511.7000 0.04 0
  511.8422 0.05 0
  512.0737 0.21 2
  512.1852 0.12 1
  512.3446 0.09 1
  512.5955 0.16 2
  512.8763 0.12 1
  513.0621 0.07 1
  513.1901 0.14 1
  513.2880 0.14 1
  513.5381 0.11 1
  514.0249 0.10 1
  514.5367 0.05 0
  515.1497 0.08 1
  515.2588 0.15 1
  515.4065 0.04 0
  515.6669 0.07 1
  516.1898 0.10 1
  516.5045 0.04 0
  516.6593 0.13 1
  516.9482 0.10 1
  517.0453 0.12 1
  517.2529 0.11 1
  517.5390 0.03 0
  518.9369 0.11 1
  519.0425 0.07 1
  519.1859 0.16 2
  519.3693 0.12 1
  519.8924 0.12 1
  520.0865 0.07 1
  520.2485 0.05 0
  521.3054 0.03 0
  521.5737 0.08 1
  521.9855 0.13 1
  522.1397 0.08 1
  522.2875 0.10 1
  522.4830 0.14 1
  522.6643 0.13 1
  522.7800 0.07 1
  522.9398 0.02 0
  523.4709 0.05 0
  523.6771 0.12 1
  524.0762 0.14 1
  524.2781 0.07 1
  524.3781 0.07 1
  524.5887 0.12 1
  525.0270 0.19 2
  525.3139 0.40 4
  525.6980 0.11 1
  525.8408 0.08 1
  526.2177 1.30 13
  526.5996 0.11 1
  526.6896 0.10 1
  527.2157 0.12 1
  527.3585 0.11 1
  527.4613 0.05 0
  527.6013 0.10 1
  527.7926 0.13 1
  528.3038 0.09 1
  528.4316 0.03 0
  528.5472 0.10 1
  529.0714 0.16 2
  530.3452 0.02 0
  530.6237 0.11 1
  531.1821 0.10 1
  532.2682 0.07 1
  532.5175 0.02 0
  532.7639 0.03 0
  533.0388 0.01 0
  533.2823 0.13 1
  533.8294 0.09 1
  534.1879 0.02 0
  534.3386 0.09 1
  535.0357 0.04 0
  535.2543 0.11 1
  535.3329 0.06 1
  535.4728 0.07 1
  535.5771 0.07 1
  535.8157 0.11 1
  536.0928 0.11 1
  536.2500 0.32 3
  536.4564 0.20 2
  536.5986 0.10 1
  536.8586 0.07 1
  537.2700 1.06 11
  537.7244 0.04 0
  538.1866 0.28 3
  538.3837 0.14 1
  538.5695 0.10 1
  538.7288 0.12 1
  539.0710 0.09 1
  539.3789 0.16 2
  539.7554 0.10 1
  540.2798 0.07 1
  540.7435 0.12 1
  541.2322 0.05 0
  541.4180 0.02 0
  541.5809 0.11 1
  542.4940 0.01 0
  543.0764 0.23 2
  543.3372 0.06 1
  543.5388 0.15 1
  544.0654 0.16 2
  544.1533 0.13 1
  544.4627 0.12 1
  544.5671 0.19 2
  544.8350 0.12 1
  545.0009 0.11 1
  545.1395 0.04 0
  545.4968 0.15 1
  546.0178 0.07 1
  546.1071 0.08 1
  546.2787 0.24 2
  546.4995 0.17 2
  546.6653 0.26 3
  546.9777 0.10 1
  547.0806 0.11 1
  547.2170 0.11 1
  547.4129 0.22 2
  547.6316 0.11 1
  547.8253 0.09 1
  547.9411 0.06 1
  548.2613 0.32 3
  548.5837 0.13 1
  548.9797 0.24 2
  549.4171 0.51 5
  549.7867 0.12 1
  549.9254 0.07 1
  550.2113 0.08 1
  550.4315 0.22 2
  550.6209 0.10 1
  551.0341 0.05 0
  551.1821 0.10 1
  551.3944 0.08 1
  551.6575 0.11 1
  551.8798 0.27 3
  551.9634 0.08 1
  552.1407 0.13 1
  552.4503 0.40 4
  552.7320 0.09 1
  552.8177 0.03 0
  553.0701 0.32 3
  553.2610 0.10 1
  553.3619 0.11 1
  553.4834 0.18 2
  553.6528 0.21 2
  553.8644 0.28 3
  554.1383 0.26 3
  554.5015 0.31 3
  554.7260 0.16 2
  554.9612 0.32 3
  555.1000 0.12 1
  555.3960 0.26 3
  555.6670 0.22 2
  555.7642 0.10 1
  555.9094 0.21 2
  556.0524 0.46 5
  556.1483 0.14 1
  556.3835 0.28 3
  556.8762 0.47 5
  557.1865 0.47 5
  557.3710 0.16 2
  557.5377 0.36 4
  557.9731 0.46 5
  558.3507 0.27 3
  558.6267 0.43 4
  558.9084 0.36 4
  559.0376 0.17 2
  559.1296 0.04 0
  559.3243 0.28 3
  559.5462 0.35 3
  559.7638 0.27 3
  559.9015 0.20 2
  560.0377 0.51 5
  560.1868 0.43 4
  560.3673 0.23 2
  560.5813 0.44 4
  560.7932 0.32 3
  561.1199 0.43 4
  561.5038 0.56 6
  561.7435 0.48 5
  561.9803 0.75 7
  562.2593 0.48 5
  562.4505 0.64 6
  562.6196 0.65 6
  562.7809 0.69 7
  563.1340 1.19 12
  563.4037 1.37 14
  564.3877 17.40 174
  565.3210 1.35 13
  565.5914 0.98 10
  565.7663 0.47 5
  565.9989 0.85 8
  566.2844 0.89 9
  566.4899 0.84 8
  566.8253 0.88 9
  567.3691 2.04 20
  567.8958 0.36 4
  568.1612 0.24 2
  568.4545 0.25 2
  568.8878 0.40 4
  569.0776 0.42 4
  569.4723 0.37 4
  569.7663 0.38 4
  570.2209 0.32 3
  570.4744 0.29 3
  570.6528 0.20 2
  570.9904 0.30 3
  571.4008 0.25 2
  571.7106 0.53 5
  572.0233 0.58 6
  572.3587 0.45 4
  572.6835 0.36 4
  572.9747 0.40 4
  573.2567 0.42 4
  573.4373 0.53 5
  573.6915 0.44 4
  574.0977 0.48 5
  574.6487 0.60 6
  574.9700 0.52 5
  575.1442 0.44 4
  575.6375 0.61 6
  576.0973 0.97 10
  576.6756 0.83 8
  577.3339 1.12 11
  582.3452 99.97 999
  582.9531 24.90 249
  583.7335 11.42 114
  584.4169 6.41 64
  585.2224 3.85 38
  585.5976 2.24 22
//
