ACCESSION: MSBNK-Kyoto_Univ-CA000031
RECORD_TITLE: beta-Carotene-3,4,3'4'-tetrol; FAB-EBEB; MS2; m/z: 600.42; [M]+*
DATE: 2016.01.19 (Created 2010.04.01, modified 2011.05.10)
AUTHORS: Akimoto N, Graduate School of Pharmaceutical Sciences, Kyoto University and Maoka T, Research Institute for Production Development
LICENSE: CC BY-SA
PUBLICATION: Masahiro Ookubo, Miyuki Tsushima, Takashi Maoka and Takao Matsuno, Carotenoids and their metabolism in the goldfish Carassius auratus, Comp. Biochem. Physiol., 124B, 333-340 (1999).
COMMENT: Profile spectrum of this record is given as a JPEG file.
COMMENT: [Profile] CA000031.jpg
CH$NAME: beta-Carotene-3,4,3'4'-tetrol
CH$COMPOUND_CLASS: N/A
CH$FORMULA: C40H56O4
CH$EXACT_MASS: 600.41786
CH$SMILES: C(O)(C2O)C(=C(C(C2)(C)C)C=CC(C)=CC=CC(C)=CC=CC=C(C)C=CC=C(C)C=CC(C1(C)C)=C(C(O)C(C1)O)C)C
CH$IUPAC: InChI=1S/C40H56O4/c1-27(17-13-19-29(3)21-23-33-31(5)37(43)35(41)25-39(33,7)8)15-11-12-16-28(2)18-14-20-30(4)22-24-34-32(6)38(44)36(42)26-40(34,9)10/h11-24,35-38,41-44H,25-26H2,1-10H3/b12-11+,17-13+,18-14+,23-21+,24-22+,27-15+,28-16+,29-19+,30-20+/t35-,36-,37+,38+/m0/s1
CH$LINK: INCHIKEY BHCRLQHBUDRLQM-MMWWBHQNSA-N
AC$INSTRUMENT: JMS-HX/HX 110A, JEOL
AC$INSTRUMENT_TYPE: FAB-EBEB
AC$MASS_SPECTROMETRY: MS_TYPE MS2
AC$MASS_SPECTROMETRY: ION_MODE POSITIVE
AC$MASS_SPECTROMETRY: ATOM_GUN_CURRENT 5 mA
AC$MASS_SPECTROMETRY: BOMBARDMENT 6 kV xenon
AC$MASS_SPECTROMETRY: COLLISION_ENERGY 3 kV
AC$MASS_SPECTROMETRY: COLLISION_GAS Ar
AC$MASS_SPECTROMETRY: GAS_PRESSURE adjust to attenuate the intensity of the precursor ion by 30 %
AC$MASS_SPECTROMETRY: IONIZATION FAB
AC$MASS_SPECTROMETRY: MATRIX 1-2 uL m-NBA
AC$MASS_SPECTROMETRY: PROBE_TIP stainless-steel
MS$FOCUSED_ION: BASE_PEAK 104.9902
MS$FOCUSED_ION: PRECURSOR_M/Z 600.42
MS$FOCUSED_ION: PRECURSOR_TYPE [M]+*
MS$DATA_PROCESSING: RELATIVE_M/Z normalised by peak(m/z=104.9902).  set 999 for peak(m/z=601.1617,rel=1136).  set 999 for peak(m/z=600.3658,rel=6649).
PK$SPLASH: splash10-0udi-3931123000-87d02937e4bcec57a815
PK$NUM_PEAK: 1653
PK$PEAK: m/z int. rel.int.
  0.0008 0.01 1
  0.0143 0.01 1
  0.7239 0.01 1
  1.1940 0.01 1
  1.5362 0.01 1
  3.1679 0.01 1
  3.7949 0.01 1
  5.2452 0.01 1
  5.6652 0.01 1
  5.9170 0.01 1
  6.4377 0.01 1
  7.2236 0.01 1
  7.6279 0.01 1
  9.2470 0.01 1
  10.7292 0.01 1
  12.0705 0.01 1
  13.0950 0.01 1
  14.7909 0.01 1
  15.2776 0.01 1
  16.0066 0.04 3
  16.0953 0.01 1
  18.9662 0.06 4
  22.9529 0.13 9
  24.9695 0.01 1
  25.9617 0.13 9
  26.1881 0.01 1
  26.9717 1.25 83
  28.0013 0.06 4
  28.2047 0.01 1
  28.9759 1.15 76
  29.1431 0.01 1
  30.5220 0.01 1
  30.9603 0.70 47
  35.9799 0.12 8
  36.5217 0.01 1
  36.9787 0.18 12
  37.9558 0.35 23
  38.0243 0.16 11
  38.9610 2.35 156
  39.9562 0.54 36
  40.9827 6.23 414
  41.9660 0.26 17
  42.9664 6.96 463
  43.9465 0.23 15
  44.9621 0.78 52
  46.9470 0.30 20
  48.4136 0.01 1
  48.9237 0.07 5
  49.0021 0.02 1
  49.3132 0.01 1
  49.9529 0.74 49
  50.9626 1.95 130
  51.9575 0.80 53
  52.9731 3.24 215
  53.8895 0.25 17
  54.0026 0.17 11
  54.9771 7.62 507
  55.2767 0.01 1
  55.7050 0.04 3
  56.0100 0.13 9
  56.1843 0.01 1
  56.9855 1.99 132
  57.2750 0.01 1
  58.0212 0.10 7
  59.0070 0.97 65
  59.9407 0.23 15
  60.9259 0.08 5
  61.9655 0.45 30
  62.9610 1.29 86
  63.0997 0.15 10
  63.5901 0.01 1
  63.9410 0.26 17
  64.0047 0.17 11
  64.2157 0.01 1
  64.4404 0.15 10
  64.9782 2.07 138
  65.1957 0.06 4
  65.3794 0.13 9
  65.8880 0.28 19
  66.0023 0.56 37
  66.3242 0.13 9
  66.9871 4.50 299
  67.9821 0.15 10
  68.9842 5.96 396
  69.9890 0.11 7
  70.1391 0.02 1
  70.9656 1.35 90
  71.9723 0.11 7
  72.8636 0.13 9
  72.9937 0.38 25
  73.9642 0.71 47
  74.9502 0.60 40
  75.1134 0.12 8
  75.2368 0.12 8
  75.3756 0.13 9
  75.7280 0.10 7
  75.8551 0.14 9
  75.9847 0.22 15
  76.4864 0.02 1
  76.6759 0.13 9
  76.9618 6.37 424
  77.2325 0.07 5
  77.4650 0.12 8
  77.6817 0.08 5
  77.7457 0.02 1
  77.9679 1.50 100
  78.1559 0.13 9
  78.2923 0.14 9
  78.4009 0.07 5
  78.6396 0.07 5
  78.9802 6.17 410
  79.8172 0.08 5
  79.9865 0.92 61
  80.3380 0.05 3
  80.9822 7.48 498
  81.5059 0.13 9
  81.8757 0.38 25
  81.9800 0.20 13
  82.9771 2.43 162
  83.8268 0.12 8
  84.0005 0.09 6
  84.9808 1.84 122
  85.9909 0.08 5
  86.9465 1.23 82
  87.9752 0.22 15
  88.2008 0.04 3
  88.9735 1.58 105
  89.2162 0.08 5
  89.3195 0.16 11
  89.4400 0.04 3
  89.5801 0.07 5
  89.9695 0.83 55
  90.3849 0.18 12
  90.6462 0.08 5
  90.9696 12.56 835
  91.3289 0.09 6
  91.5084 0.12 8
  91.7464 0.16 11
  91.9826 1.53 102
  92.1291 0.10 7
  92.2110 0.04 3
  92.3724 0.08 5
  92.6417 0.11 7
  92.9820 9.22 613
  93.5981 0.09 6
  93.9775 0.66 44
  94.6544 0.06 4
  94.9876 5.19 345
  95.3277 0.06 4
  95.8343 0.19 13
  96.0062 0.35 23
  96.8182 0.34 23
  97.0116 1.85 123
  97.3190 0.05 3
  97.4977 0.10 7
  98.0035 0.26 17
  98.9719 0.44 29
  99.9510 0.09 6
  100.0656 0.03 2
  100.3736 0.05 3
  100.8004 0.04 3
  101.0406 0.25 17
  101.3405 0.08 5
  101.5846 0.04 3
  101.7831 0.04 3
  102.0181 0.66 44
  102.3261 0.05 3
  102.5009 0.13 9
  102.9861 2.70 180
  103.8154 0.20 13
  104.0153 1.34 89
  104.2248 0.08 5
  104.9902 15.02 999
  105.2463 0.17 11
  105.5834 0.06 4
  106.0030 1.85 123
  106.3717 0.17 11
  106.4521 0.08 5
  106.9955 8.64 575
  108.0093 1.21 80
  108.9989 4.91 327
  109.3590 0.15 10
  109.8859 0.24 16
  110.0811 0.15 10
  111.0061 2.09 139
  111.6728 0.13 9
  112.0639 0.13 9
  112.6897 0.08 5
  112.9798 0.78 52
  113.2860 0.05 3
  113.5272 0.15 10
  113.8465 0.23 15
  114.0462 0.46 31
  114.2941 0.08 5
  114.4472 0.19 13
  114.5490 0.07 5
  114.9811 6.93 461
  115.2781 0.08 5
  115.4064 0.03 2
  115.5347 0.12 8
  115.7273 0.07 5
  115.9822 2.63 175
  116.3009 0.37 25
  116.5284 0.29 19
  116.9798 5.23 348
  117.1992 0.26 17
  117.4585 0.13 9
  117.9621 1.47 98
  118.4274 0.06 4
  118.9756 13.91 925
  119.3906 0.15 10
  119.5778 0.08 5
  119.9796 1.88 125
  120.4398 0.13 9
  120.5407 0.09 6
  120.9702 6.98 464
  121.5574 0.06 4
  121.9726 1.35 90
  122.9733 3.60 239
  123.1777 0.15 10
  123.7518 0.28 19
  123.9928 0.78 52
  124.1605 0.11 7
  124.6527 0.13 9
  124.9644 1.20 80
  125.9242 0.59 39
  126.3283 0.14 9
  126.5480 0.11 7
  126.9479 2.75 183
  127.2886 0.12 8
  127.3858 0.08 5
  127.5373 0.14 9
  127.9494 6.17 410
  128.2285 0.24 16
  128.4252 0.17 11
  128.9563 8.54 568
  129.2219 0.14 9
  129.5564 0.13 9
  129.9460 2.96 197
  130.1838 0.23 15
  130.3549 0.04 3
  130.9574 8.12 540
  131.2539 0.22 15
  131.3385 0.15 10
  131.5059 0.13 9
  131.9733 2.41 160
  132.3543 0.16 11
  132.5599 0.13 9
  132.9662 9.25 615
  133.3410 0.12 8
  133.5068 0.11 7
  133.9583 1.14 76
  134.5213 0.23 15
  134.9588 5.14 342
  135.2745 0.18 12
  135.9209 0.93 62
  136.4034 0.02 1
  136.9561 2.44 162
  137.4028 0.12 8
  137.9325 0.43 29
  138.0550 0.16 11
  138.4147 0.15 10
  138.9550 1.54 102
  139.2209 0.12 8
  139.6654 0.03 2
  139.9223 0.73 49
  140.2994 0.21 14
  140.4594 0.24 16
  140.9338 4.91 327
  141.3771 0.10 7
  141.4842 0.14 9
  141.9484 4.75 316
  142.4501 0.10 7
  142.9501 7.53 501
  143.5384 0.13 9
  143.9496 4.04 269
  144.3730 0.16 11
  144.4724 0.23 15
  144.9722 10.57 703
  145.9577 1.26 84
  146.2163 0.15 10
  146.4322 0.07 5
  146.5732 0.12 8
  146.9711 5.23 348
  147.2312 0.16 11
  147.5263 0.13 9
  147.7337 0.09 6
  147.9693 0.74 49
  148.4314 0.10 7
  148.9968 2.53 168
  149.2494 0.07 5
  149.3842 0.12 8
  149.7180 0.02 1
  149.9736 0.61 41
  150.1587 0.21 14
  150.4573 0.16 11
  150.6009 0.27 18
  150.9715 1.98 132
  151.4489 0.10 7
  151.7056 0.68 45
  151.9730 2.33 155
  152.3407 0.30 20
  152.6748 0.33 22
  152.9775 2.86 190
  153.2594 0.06 4
  153.5097 0.16 11
  153.9715 1.58 105
  154.1937 0.13 9
  154.4665 0.14 9
  154.5951 0.07 5
  154.9913 5.49 365
  155.2529 0.14 9
  155.3863 0.22 15
  156.0020 3.96 263
  156.2557 0.08 5
  156.5404 0.26 17
  157.0008 7.39 492
  157.2898 0.13 9
  157.4039 0.12 8
  157.6160 0.09 6
  157.7464 0.31 21
  158.0390 2.29 152
  158.2586 0.27 18
  159.0240 5.34 355
  159.3541 0.11 7
  159.5023 0.16 11
  159.7303 0.13 9
  160.0322 1.26 84
  160.4947 0.04 3
  161.0271 3.04 202
  161.2961 0.24 16
  162.0112 0.59 39
  162.1272 0.34 23
  162.4439 0.13 9
  162.9996 1.09 72
  163.2799 0.07 5
  163.4292 0.12 8
  163.5277 0.25 17
  163.6119 0.13 9
  164.0112 1.10 73
  164.2972 0.09 6
  164.5037 0.13 9
  165.0209 6.39 425
  165.5621 0.07 5
  166.0172 1.32 88
  166.2464 0.14 9
  166.4111 0.26 17
  167.0210 3.48 231
  167.4589 0.06 4
  168.0454 1.75 116
  168.3126 0.06 4
  169.0611 4.76 317
  169.6525 0.04 3
  170.0380 1.87 124
  170.5212 0.15 10
  171.0498 5.08 338
  172.0362 1.39 92
  172.2160 0.34 23
  172.7146 0.19 13
  173.0778 3.76 250
  173.4506 0.17 11
  173.5624 0.11 7
  174.0745 0.92 61
  174.2150 0.25 17
  174.3221 0.10 7
  174.5732 0.18 12
  174.7089 0.24 16
  175.0870 2.62 174
  175.2870 0.25 17
  175.4979 0.15 10
  175.6276 0.11 7
  175.8345 0.30 20
  176.0414 0.46 31
  176.1801 0.21 14
  177.0451 1.17 78
  177.6904 0.34 23
  178.0501 2.47 164
  178.4810 0.03 2
  179.0230 5.44 362
  179.4022 0.11 7
  179.6384 0.06 4
  179.7966 0.41 27
  180.0664 1.83 122
  180.7549 0.70 47
  181.0516 4.31 287
  181.3579 0.11 7
  181.5691 0.13 9
  182.0271 1.58 105
  182.3303 0.14 9
  183.0493 5.06 337
  183.3369 0.17 11
  183.7213 0.12 8
  184.0886 1.47 98
  184.2219 0.48 32
  184.5447 0.11 7
  185.0504 2.85 190
  185.4476 0.21 14
  185.6723 0.12 8
  186.0126 0.74 49
  186.4534 0.07 5
  186.7939 0.39 26
  187.0767 1.77 118
  187.3953 0.14 9
  187.9982 0.51 34
  188.2165 0.16 11
  188.3900 0.12 8
  188.6648 0.25 17
  189.0443 2.42 161
  189.8119 0.42 28
  190.1076 0.80 53
  190.4075 0.10 7
  190.6799 0.12 8
  191.0467 2.48 165
  191.4641 0.18 12
  192.0147 1.56 104
  192.3446 0.17 11
  192.7209 0.33 22
  193.0336 2.64 176
  193.5855 0.08 5
  194.0366 1.65 110
  194.1423 0.73 49
  194.2619 0.13 9
  194.4457 0.09 6
  194.6095 0.20 13
  195.0506 4.77 317
  195.3548 0.09 6
  195.5180 0.22 15
  195.6466 0.22 15
  196.0056 1.10 73
  196.1591 0.44 29
  196.6829 0.35 23
  197.0539 3.80 253
  197.4422 0.28 19
  197.6520 0.10 7
  197.8549 0.37 25
  198.0779 0.86 57
  198.4131 0.11 7
  198.6417 0.14 9
  198.8461 0.36 24
  199.1101 1.85 123
  199.8330 0.16 11
  200.0264 0.78 52
  200.1263 0.44 29
  201.0708 1.24 82
  201.7543 0.27 18
  202.0589 0.88 59
  202.6754 0.27 18
  203.0448 1.22 81
  203.3851 0.01 1
  203.8040 0.07 5
  204.0777 0.67 45
  204.4342 0.16 11
  205.0528 2.07 138
  206.0374 1.52 101
  206.4471 0.14 9
  206.7693 0.57 38
  207.0664 3.80 253
  207.4798 0.22 15
  207.6253 0.05 3
  207.8286 0.53 35
  208.0820 1.20 80
  208.3347 0.24 16
  208.7394 0.44 29
  209.0647 2.64 176
  209.5050 0.15 10
  209.7516 0.26 17
  210.0611 1.06 71
  210.6661 0.07 5
  210.8000 0.38 25
  211.0831 2.00 133
  211.3425 0.17 11
  211.4855 0.10 7
  211.7582 0.29 19
  212.0986 0.91 61
  213.0909 1.57 104
  213.9964 0.36 24
  214.1396 0.49 33
  214.3631 0.12 8
  214.5956 0.13 9
  214.8087 0.47 31
  215.0770 1.56 104
  215.6325 0.12 8
  215.8212 0.15 10
  216.1057 0.82 55
  216.3923 0.13 9
  216.6069 0.16 11
  217.0656 1.03 69
  217.4391 0.11 7
  217.5726 0.13 9
  217.7286 0.06 4
  217.8378 0.19 13
  217.9343 0.26 17
  218.1225 0.72 48
  218.6109 0.11 7
  218.6879 0.08 5
  219.0882 1.48 98
  219.4705 0.14 9
  219.6028 0.17 11
  220.0579 1.00 67
  220.3107 0.14 9
  220.7338 0.16 11
  221.0833 2.40 160
  221.2809 0.49 33
  221.4610 0.08 5
  221.8016 0.29 19
  222.1436 0.56 37
  222.5312 0.08 5
  222.8573 0.77 51
  223.1356 1.35 90
  224.0762 0.56 37
  224.2116 0.18 12
  224.4817 0.14 9
  225.0648 0.74 49
  225.3456 0.15 10
  225.4396 0.13 9
  225.7801 0.09 6
  226.0307 0.71 47
  226.1494 0.48 32
  226.7372 0.22 15
  227.0806 0.65 43
  227.3216 0.14 9
  227.4424 0.20 13
  227.7839 0.15 10
  228.0094 0.54 36
  228.1464 0.84 56
  228.2680 0.18 12
  228.8184 0.13 9
  229.1094 1.30 86
  229.6177 0.05 3
  230.1353 0.56 37
  230.6502 0.13 9
  230.9780 0.69 46
  231.1582 0.99 66
  231.5410 0.15 10
  231.9569 0.21 14
  232.1491 0.88 59
  232.2983 0.34 23
  232.5996 0.07 5
  232.8048 0.20 13
  232.9227 0.57 38
  233.1861 1.57 104
  233.6264 0.18 12
  233.7431 0.18 12
  234.0894 1.07 71
  234.4224 0.12 8
  234.7997 0.43 29
  235.1230 1.24 82
  235.7781 0.03 2
  236.1149 0.92 61
  236.3265 0.17 11
  237.1015 1.19 79
  237.3498 0.15 10
  237.6643 0.11 7
  238.0695 0.69 46
  238.6916 0.15 10
  239.1054 1.40 93
  239.5658 0.16 11
  239.6644 0.13 9
  240.0833 0.56 37
  240.2340 0.23 15
  240.6164 0.01 1
  240.8968 0.40 27
  241.1426 0.83 55
  241.6773 0.16 11
  241.9183 0.40 27
  242.1424 0.62 41
  242.8704 0.41 27
  243.0636 0.67 45
  243.1834 0.28 19
  243.5627 0.15 10
  243.6819 0.20 13
  244.0584 0.56 37
  244.2503 0.33 22
  244.6445 0.15 10
  245.0833 1.04 69
  245.3231 0.23 15
  245.5468 0.17 11
  245.7472 0.15 10
  245.8968 0.23 15
  246.1134 0.84 56
  246.2285 0.28 19
  246.5263 0.25 17
  246.6985 0.07 5
  247.1291 0.94 63
  247.8027 0.17 11
  248.1290 0.63 42
  248.3324 0.28 19
  248.4404 0.35 23
  248.6954 0.16 11
  249.1094 0.98 65
  249.3856 0.16 11
  250.0873 0.23 15
  250.9467 0.13 9
  251.1426 0.99 66
  251.3030 0.13 9
  251.8376 0.16 11
  251.9104 0.09 6
  252.1105 0.91 61
  252.2244 0.28 19
  252.5384 0.14 9
  253.0802 0.83 55
  253.2260 0.40 27
  253.3710 0.17 11
  253.5988 0.14 9
  253.7135 0.18 12
  254.1734 0.65 43
  254.2647 0.21 14
  254.3772 0.04 3
  254.4940 0.12 8
  254.9236 0.35 23
  255.0624 0.66 44
  255.1919 0.34 23
  256.1279 0.59 39
  256.3567 0.11 7
  256.6216 0.26 17
  256.7682 0.13 9
  256.9098 0.22 15
  257.1294 0.94 63
  257.2817 0.19 13
  257.5821 0.10 7
  257.6954 0.05 3
  257.9087 0.13 9
  258.0703 0.47 31
  258.2587 0.38 25
  258.7704 0.14 9
  259.1516 1.02 68
  259.5412 0.02 1
  259.7764 0.16 11
  259.9358 0.28 19
  260.1759 0.49 33
  260.2631 0.27 18
  260.3616 0.14 9
  260.6237 0.02 1
  261.1326 0.98 65
  261.3941 0.10 7
  261.5465 0.11 7
  261.6656 0.12 8
  262.0292 0.28 19
  262.3163 0.33 22
  262.8921 0.27 18
  263.1878 0.75 50
  263.2914 0.34 23
  263.6204 0.14 9
  264.0212 0.41 27
  264.1489 0.27 18
  264.3333 0.09 6
  264.8896 0.22 15
  265.0783 0.42 28
  265.2791 0.35 23
  265.8313 0.12 8
  266.1436 0.40 27
  266.2870 0.17 11
  266.8009 0.16 11
  266.9202 0.13 9
  267.1481 0.79 53
  267.5450 0.11 7
  267.6608 0.12 8
  267.7957 0.13 9
  267.9044 0.12 8
  268.2112 0.31 21
  268.9279 0.26 17
  269.0735 0.64 43
  269.2306 0.29 19
  269.3407 0.14 9
  269.8807 0.36 24
  270.1465 0.36 24
  270.2580 0.14 9
  271.1664 0.44 29
  272.0210 0.42 28
  272.1667 0.39 26
  272.3111 0.14 9
  272.6190 0.07 5
  273.0856 0.91 61
  273.2399 0.58 39
  273.4305 0.13 9
  273.9562 0.26 17
  274.1661 0.43 29
  274.3156 0.22 15
  274.7275 0.14 9
  275.0869 1.23 82
  275.2050 0.60 40
  275.8342 0.11 7
  275.9823 0.27 18
  276.1432 0.50 33
  276.8181 0.12 8
  277.0566 0.51 34
  277.2232 0.75 50
  277.4040 0.13 9
  277.5135 0.11 7
  277.9323 0.17 11
  278.1755 0.34 23
  278.7822 0.15 10
  279.1428 0.47 31
  279.5013 0.14 9
  280.0869 0.48 32
  280.3495 0.15 10
  281.1180 0.48 32
  281.3244 0.27 18
  282.1317 0.29 19
  282.5667 0.18 12
  282.9924 0.29 19
  283.2096 0.48 32
  283.3278 0.15 10
  283.8905 0.13 9
  284.0500 0.21 14
  284.2430 0.54 36
  284.8628 0.13 9
  285.0609 0.51 34
  285.2746 0.29 19
  285.3807 0.15 10
  285.8083 0.16 11
  285.9914 0.13 9
  286.1076 0.24 16
  286.4098 0.15 10
  286.8459 0.06 4
  287.0933 0.51 34
  287.2993 0.27 18
  287.7363 0.12 8
  287.8711 0.16 11
  288.0008 0.50 33
  288.2568 0.22 15
  288.8308 0.17 11
  289.1368 0.59 39
  289.8564 0.16 11
  290.1960 0.35 23
  290.3822 0.12 8
  290.4871 0.08 5
  290.7910 0.30 20
  291.1200 0.46 31
  291.2755 0.39 26
  291.4097 0.14 9
  291.7286 0.12 8
  291.8871 0.28 19
  292.1090 0.54 36
  292.2639 0.38 25
  292.3467 0.17 11
  292.5823 0.16 11
  293.1369 1.98 132
  294.0720 1.58 105
  294.8444 0.17 11
  295.1012 0.87 58
  295.2617 0.15 10
  295.3694 0.13 9
  295.8580 0.14 9
  296.0521 0.33 22
  296.2661 0.40 27
  296.5637 0.16 11
  296.9883 0.27 18
  297.2373 0.22 15
  297.4043 0.10 7
  297.8290 0.23 15
  298.1366 0.24 16
  298.3179 0.13 9
  299.0989 0.66 44
  299.2482 0.50 33
  299.7544 0.08 5
  300.1443 0.29 19
  300.7078 0.18 12
  300.8071 0.13 9
  300.9657 0.07 5
  301.1407 0.78 52
  301.2914 0.39 26
  301.9322 0.21 14
  302.2051 0.33 22
  302.4001 0.09 6
  302.9697 0.35 23
  303.1941 0.35 23
  303.8659 0.12 8
  304.0181 0.35 23
  304.9224 0.09 6
  305.1340 0.37 25
  305.2277 0.22 15
  305.9777 0.21 14
  306.1357 0.46 31
  306.2502 0.14 9
  306.5041 0.11 7
  306.8981 0.05 3
  307.2014 0.70 47
  308.0419 0.31 21
  308.2136 0.32 21
  308.5835 0.13 9
  308.9563 0.23 15
  309.1924 0.43 29
  309.2940 0.19 13
  309.9968 0.27 18
  310.1765 0.32 21
  310.2445 0.17 11
  311.1285 0.51 34
  311.3211 0.14 9
  311.5129 0.11 7
  311.8330 0.13 9
  312.0342 0.48 32
  312.1781 0.30 20
  312.4022 0.19 13
  312.6063 0.13 9
  313.1456 0.70 47
  314.0416 0.28 19
  314.2150 0.30 20
  315.0754 0.33 22
  315.2287 0.12 8
  315.3620 0.13 9
  315.4537 0.07 5
  316.0492 0.16 11
  316.3867 0.13 9
  316.5236 0.11 7
  316.9335 0.16 11
  317.1249 0.28 19
  317.3815 0.11 7
  318.2525 0.44 29
  318.3909 0.13 9
  318.7336 0.01 1
  318.9014 0.20 13
  319.1552 0.18 12
  319.3030 0.32 21
  319.7232 0.15 10
  319.8523 0.23 15
  320.1908 0.11 7
  320.3414 0.15 10
  320.4483 0.14 9
  321.0530 0.28 19
  321.1914 0.45 30
  321.3299 0.11 7
  321.5831 0.12 8
  322.1621 0.21 14
  323.0612 0.25 17
  323.3246 0.03 2
  324.0380 0.37 25
  324.3065 0.17 11
  324.5907 0.15 10
  325.1205 0.21 14
  325.8722 0.07 5
  326.0898 0.40 27
  326.5206 0.01 1
  326.8143 0.15 10
  327.1648 0.59 39
  327.4126 0.18 12
  327.8831 0.12 8
  328.0317 0.27 18
  328.2077 0.28 19
  329.0705 0.19 13
  329.3759 0.13 9
  329.8400 0.14 9
  330.0757 0.11 7
  330.3215 0.14 9
  331.1250 0.31 21
  331.3758 0.21 14
  331.9408 0.12 8
  332.1967 0.16 11
  332.2873 0.14 9
  332.8236 0.17 11
  333.0256 0.19 13
  333.2104 0.29 19
  333.2902 0.20 13
  334.0093 0.13 9
  334.1631 0.15 10
  334.4393 0.05 3
  335.1441 0.35 23
  335.2937 0.19 13
  335.7706 0.13 9
  336.3598 0.12 8
  336.8311 0.14 9
  337.1764 0.29 19
  337.7715 0.12 8
  338.0161 0.23 15
  338.1032 0.09 6
  338.2313 0.09 6
  339.1361 0.29 19
  339.7852 0.14 9
  340.0886 0.20 13
  340.3172 0.16 11
  340.5200 0.01 1
  341.1549 0.20 13
  341.2972 0.13 9
  341.7366 0.05 3
  342.1407 0.25 17
  342.3889 0.11 7
  342.9132 0.32 21
  343.0031 0.19 13
  343.1743 0.20 13
  343.3145 0.16 11
  343.4685 0.06 4
  344.1907 0.35 23
  344.4051 0.14 9
  345.0994 0.17 11
  345.2318 0.37 25
  345.4959 0.14 9
  346.1896 0.22 15
  346.3558 0.13 9
  347.1936 0.27 18
  347.4902 0.15 10
  348.1503 0.23 15
  348.2914 0.17 11
  349.2417 0.08 5
  350.1692 0.28 19
  350.4558 0.10 7
  350.7460 0.20 13
  350.9196 0.14 9
  351.0161 0.21 14
  351.1320 0.39 26
  351.2206 0.30 20
  351.3640 0.14 9
  352.0547 0.25 17
  352.3141 0.21 14
  352.4070 0.15 10
  353.0734 0.56 37
  353.2377 0.48 32
  353.4012 0.12 8
  354.1052 0.13 9
  354.2003 0.08 5
  354.3862 0.13 9
  354.9145 0.14 9
  355.0593 0.52 35
  355.2878 0.32 21
  355.3757 0.16 11
  356.2190 0.16 11
  356.3300 0.15 10
  356.9925 0.19 13
  357.2434 0.13 9
  357.5375 0.08 5
  358.3646 0.31 21
  359.0986 0.25 17
  359.2768 0.29 19
  359.4131 0.16 11
  360.1494 0.30 20
  360.3218 0.26 17
  360.9320 0.13 9
  361.1759 0.13 9
  361.3108 0.26 17
  361.6036 0.13 9
  362.2414 0.25 17
  362.3814 0.24 16
  362.9529 0.16 11
  363.2906 0.41 27
  363.4767 0.14 9
  364.2417 0.13 9
  365.0305 0.17 11
  365.2478 0.31 21
  365.5199 0.27 18
  365.8008 0.08 5
  366.1737 0.12 8
  366.3399 0.22 15
  366.4486 0.15 10
  366.9761 0.19 13
  367.1459 0.28 19
  367.7836 0.13 9
  367.8930 0.11 7
  368.0025 0.12 8
  368.2162 0.17 11
  368.8684 0.11 7
  369.0124 0.15 10
  369.2788 0.27 18
  369.4465 0.03 2
  370.2364 0.18 12
  370.4675 0.09 6
  371.2272 0.15 10
  371.3986 0.22 15
  372.1065 0.21 14
  372.2398 0.07 5
  372.8535 0.25 17
  373.0840 0.25 17
  373.3462 0.24 16
  374.1523 0.16 11
  374.4657 0.13 9
  374.6083 0.01 1
  375.1624 0.30 20
  375.4420 0.02 1
  376.1266 0.13 9
  376.3283 0.13 9
  376.8638 0.14 9
  377.0375 0.13 9
  377.4937 0.18 12
  378.1525 0.30 20
  378.3695 0.22 15
  378.4740 0.32 21
  379.1531 0.63 42
  379.4883 0.12 8
  379.6989 0.06 4
  380.2519 0.32 21
  380.4559 0.17 11
  380.6145 0.06 4
  380.8863 0.12 8
  381.1163 0.16 11
  381.2216 0.33 22
  381.9577 0.09 6
  382.2995 0.26 17
  382.5007 0.14 9
  383.0970 0.13 9
  383.9026 0.10 7
  384.0072 0.15 10
  384.3967 0.15 10
  384.5503 0.09 6
  385.1389 0.19 13
  385.3380 0.16 11
  385.8523 0.07 5
  386.3184 0.14 9
  386.4713 0.01 1
  387.0125 0.26 17
  387.1928 0.22 15
  387.3191 0.12 8
  387.9570 0.28 19
  388.1157 0.19 13
  388.2435 0.10 7
  388.3994 0.18 12
  389.0835 0.12 8
  389.2964 0.28 19
  389.3953 0.15 10
  389.9019 0.08 5
  390.0528 0.27 18
  390.1741 0.30 20
  390.2816 0.15 10
  391.0750 0.16 11
  391.3428 0.11 7
  391.6518 0.04 3
  392.2366 0.14 9
  392.5810 0.13 9
  393.2193 0.19 13
  393.5883 0.16 11
  394.2368 0.11 7
  394.3624 0.09 6
  394.5834 0.12 8
  395.1049 0.14 9
  395.2154 0.13 9
  395.3121 0.12 8
  395.4833 0.13 9
  396.1435 0.18 12
  396.6138 0.11 7
  397.2993 0.17 11
  397.6924 0.16 11
  398.2429 0.11 7
  398.8911 0.06 4
  399.0558 0.15 10
  399.3159 0.31 21
  399.9374 0.16 11
  400.2735 0.13 9
  400.9030 0.15 10
  401.1451 0.40 27
  401.2636 0.14 9
  401.3916 0.15 10
  401.6193 0.05 3
  402.0197 0.13 9
  402.4947 0.23 15
  403.0260 0.16 11
  403.2393 0.13 9
  404.0750 0.16 11
  404.9875 0.12 8
  406.0998 0.14 9
  406.2538 0.16 11
  406.8599 0.04 3
  407.1687 0.26 17
  407.3076 0.04 3
  407.5239 0.16 11
  407.9108 0.15 10
  408.3195 0.14 9
  409.0010 0.13 9
  409.1602 0.12 8
  409.2896 0.12 8
  409.5168 0.15 10
  410.0920 0.11 7
  410.4653 0.15 10
  411.0732 0.13 9
  411.2237 0.31 21
  411.3894 0.38 25
  411.4769 0.11 7
  412.5132 0.16 11
  412.7412 0.16 11
  412.8288 0.16 11
  412.9344 0.15 10
  413.1919 0.17 11
  413.3278 0.25 17
  414.0629 0.13 9
  414.3326 0.07 5
  414.6832 0.21 14
  415.3548 0.28 19
  415.4676 0.17 11
  416.2008 0.17 11
  416.3280 0.12 8
  416.5182 0.05 3
  417.0078 0.12 8
  417.1733 0.29 19
  417.3317 0.12 8
  417.4922 0.19 13
  417.9587 0.20 13
  418.1330 0.18 12
  418.3283 0.23 15
  418.4512 0.13 9
  418.9720 0.27 18
  419.2056 0.48 32
  419.3503 0.36 24
  419.7965 0.15 10
  420.1206 0.09 6
  420.2978 0.15 10
  420.4230 0.27 18
  420.5554 0.25 17
  420.9742 0.12 8
  421.1869 0.13 9
  421.4510 0.25 17
  422.0356 0.07 5
  422.1918 0.16 11
  423.2569 0.18 12
  423.4197 0.07 5
  424.1817 0.13 9
  424.3185 0.15 10
  424.4756 0.28 19
  424.5769 0.14 9
  425.0429 0.04 3
  425.2716 0.16 11
  425.7696 0.01 1
  426.2517 0.20 13
  426.3776 0.18 12
  427.0718 0.12 8
  427.3491 0.13 9
  427.4794 0.04 3
  428.2228 0.15 10
  428.3995 0.12 8
  429.0656 0.34 23
  429.1851 0.21 14
  429.3038 0.20 13
  429.5145 0.25 17
  430.2528 0.08 5
  430.3555 0.08 5
  431.0898 0.27 18
  431.2778 0.24 16
  431.9652 0.12 8
  432.4134 0.32 21
  432.4828 0.16 11
  433.0699 0.14 9
  433.3055 0.15 10
  433.5413 0.08 5
  433.6953 0.21 14
  434.0777 0.16 11
  434.2303 0.24 16
  434.6764 0.09 6
  434.9924 0.24 16
  435.4386 0.15 10
  435.6085 0.22 15
  436.2731 0.22 15
  437.2097 0.13 9
  437.2994 0.17 11
  438.0646 0.15 10
  438.3301 0.15 10
  438.4495 0.28 19
  438.5876 0.15 10
  439.1627 0.13 9
  440.3774 0.08 5
  441.2912 0.07 5
  441.7998 0.09 6
  442.0965 0.24 16
  442.2267 0.13 9
  442.3570 0.17 11
  443.0915 0.47 31
  443.3672 0.24 16
  443.4714 0.07 5
  444.1380 0.55 37
  444.4492 0.36 24
  444.8683 0.11 7
  444.9739 0.06 4
  445.1295 0.28 19
  445.2606 0.12 8
  445.7658 0.19 13
  446.1364 1.20 80
  446.3275 0.20 13
  446.5758 0.15 10
  446.7336 0.03 2
  447.1738 2.22 148
  447.6624 0.21 14
  447.8601 0.15 10
  448.1758 0.25 17
  448.5645 0.19 13
  448.9830 0.06 4
  449.3009 0.48 32
  450.0257 0.21 14
  450.1597 0.16 11
  450.3139 0.14 9
  450.9758 0.22 15
  451.1192 0.19 13
  451.3220 0.08 5
  452.4156 0.08 5
  452.9777 0.06 4
  453.2964 0.21 14
  454.2576 0.22 15
  454.5438 0.12 8
  455.2559 0.11 7
  456.4890 0.15 10
  457.2635 0.16 11
  457.4331 0.16 11
  458.2295 0.28 19
  459.1679 0.24 16
  459.3506 0.14 9
  459.6636 0.14 9
  460.0891 0.13 9
  460.1702 0.05 3
  460.3311 0.12 8
  460.8624 0.08 5
  461.0545 0.10 7
  461.1820 0.28 19
  461.5466 0.20 13
  461.9736 0.15 10
  462.2230 0.28 19
  462.8884 0.19 13
  463.0392 0.21 14
  463.1617 0.24 16
  463.3299 0.21 14
  463.4633 0.05 3
  464.1796 0.22 15
  464.4798 0.17 11
  464.6074 0.19 13
  464.8343 0.08 5
  464.9960 0.20 13
  465.3020 0.19 13
  465.5144 0.12 8
  466.9854 0.06 4
  467.4181 0.29 19
  468.0564 0.26 17
  468.3762 0.12 8
  468.5448 0.17 11
  468.6975 0.15 10
  469.4365 0.13 9
  469.5465 0.16 11
  469.8099 0.04 3
  470.0966 0.13 9
  470.5837 0.17 11
  471.0578 0.25 17
  471.2844 0.33 22
  471.4269 0.11 7
  471.6456 0.27 18
  471.8816 0.06 4
  472.2211 0.46 31
  472.7336 1.07 71
  473.0797 1.10 73
  473.2947 1.35 90
  473.6791 0.68 45
  473.8102 0.54 36
  474.0607 0.50 33
  474.1808 0.18 12
  474.3394 0.16 11
  474.5494 0.42 28
  474.7499 0.17 11
  475.1272 0.23 15
  475.3466 0.30 20
  475.5088 0.10 7
  475.8375 0.14 9
  476.0656 0.18 12
  476.4176 0.30 20
  476.6022 0.13 9
  477.0389 0.37 25
  477.1360 0.23 15
  477.8870 0.10 7
  478.1448 0.28 19
  478.3700 0.15 10
  478.5345 0.25 17
  478.8473 0.15 10
  479.1609 0.15 10
  479.2631 0.08 5
  479.4985 0.23 15
  480.2938 0.23 15
  481.0609 0.01 1
  481.5050 0.12 8
  481.6977 0.12 8
  482.1875 0.33 22
  482.9344 0.12 8
  483.1460 0.11 7
  483.2619 0.37 25
  483.3684 0.13 9
  483.9379 0.29 19
  484.0821 0.23 15
  484.3277 0.20 13
  484.4314 0.19 13
  484.5270 0.15 10
  484.6995 0.09 6
  484.9357 0.17 11
  485.1415 0.15 10
  485.2886 0.25 17
  485.3784 0.17 11
  485.5321 0.14 9
  485.6698 0.14 9
  485.8292 0.16 11
  485.9567 0.21 14
  486.1198 0.16 11
  486.2155 0.11 7
  486.4894 0.07 5
  486.7263 0.04 3
  487.1460 0.14 9
  487.3873 0.23 15
  487.6750 0.28 19
  487.9606 0.04 3
  488.3310 0.18 12
  488.6775 0.16 11
  488.8616 0.32 21
  489.0877 0.18 12
  489.3835 0.23 15
  489.6640 0.33 22
  489.7684 0.17 11
  490.1786 0.09 6
  490.2845 0.17 11
  490.4998 0.39 26
  490.6847 0.28 19
  490.8666 0.17 11
  491.1878 0.18 12
  491.5517 0.31 21
  491.8504 0.18 12
  492.2035 0.22 15
  492.7712 0.12 8
  493.1054 0.22 15
  493.2338 0.22 15
  493.3730 0.16 11
  493.4796 0.16 11
  494.4164 0.18 12
  495.0629 0.18 12
  495.2692 0.16 11
  495.5552 0.19 13
  496.3248 0.20 13
  496.5391 0.10 7
  497.3406 0.17 11
  497.7287 0.13 9
  498.2610 0.30 20
  498.6954 0.13 9
  499.1039 0.15 10
  499.2733 0.15 10
  499.5478 0.21 14
  500.3755 0.20 13
  501.1968 0.10 7
  501.7972 0.14 9
  502.4238 0.18 12
  502.5346 0.15 10
  502.6353 0.16 11
  503.5204 0.09 6
  504.0811 0.17 11
  504.3383 0.13 9
  504.4332 0.09 6
  505.1671 0.17 11
  505.9118 0.01 1
  506.3219 0.26 17
  506.6755 0.16 11
  507.4688 0.17 11
  507.5942 0.12 8
  507.7217 0.15 10
  508.3934 5.10 339
  508.5934 2.24 149
  508.8456 0.36 24
  508.9500 0.20 13
  509.3188 0.09 6
  509.6992 0.28 19
  510.2399 0.18 12
  510.7718 0.04 3
  513.4963 0.12 8
  514.2959 0.15 10
  514.5170 0.14 9
  515.1397 0.15 10
  515.4268 0.20 13
  515.6399 0.12 8
  515.9139 0.13 9
  516.1213 0.06 4
  516.3968 0.33 22
  516.5128 0.05 3
  517.1146 0.18 12
  517.4039 0.12 8
  517.5742 0.14 9
  518.0057 0.17 11
  518.6851 0.11 7
  520.1650 0.27 18
  520.4254 0.12 8
  520.5545 0.15 10
  520.6603 0.14 9
  521.0518 0.21 14
  521.1966 0.16 11
  521.4848 0.46 31
  522.1321 0.12 8
  522.3638 0.27 18
  523.3718 0.12 8
  523.4942 0.22 15
  523.8143 0.11 7
  524.3719 0.12 8
  524.6283 0.22 15
  525.3692 0.11 7
  525.5648 0.16 11
  525.8639 0.12 8
  526.0225 0.07 5
  526.3238 0.37 25
  526.5208 0.17 11
  527.5595 0.08 5
  527.8912 0.13 9
  528.0506 0.13 9
  528.2469 0.13 9
  528.6663 0.12 8
  528.9727 0.14 9
  529.3893 0.16 11
  529.7131 0.14 9
  529.9442 0.16 11
  530.3934 0.16 11
  530.9810 0.15 10
  531.4243 0.06 4
  532.5691 0.07 5
  532.6705 0.13 9
  533.0618 0.03 2
  533.2698 0.16 11
  533.3727 0.13 9
  534.3190 0.21 14
  534.4980 0.15 10
  534.7806 0.15 10
  535.1132 0.31 21
  535.1981 0.18 12
  535.4096 0.15 10
  535.9713 0.22 15
  536.0720 0.07 5
  536.4373 0.36 24
  537.2055 0.17 11
  537.4860 0.03 2
  537.8020 0.12 8
  538.1985 0.16 11
  538.3333 0.11 7
  538.5253 0.16 11
  538.7153 0.16 11
  539.3256 0.31 21
  540.0910 0.17 11
  540.3063 0.29 19
  540.5571 0.01 1
  540.7507 0.26 17
  541.3654 0.31 21
  542.3180 0.10 7
  542.4645 0.28 19
  542.8458 0.13 9
  543.0851 0.15 10
  543.3163 0.20 13
  543.4258 0.17 11
  543.5556 0.10 7
  543.6919 0.15 10
  544.3133 0.19 13
  544.4322 0.16 11
  546.6111 0.16 11
  547.1238 0.13 9
  547.3682 0.31 21
  547.5974 0.12 8
  547.8679 0.12 8
  548.6678 0.07 5
  548.8237 0.20 13
  549.2378 0.13 9
  549.6483 0.22 15
  550.0291 0.06 4
  550.2322 0.22 15
  550.5129 0.31 21
  551.2889 0.11 7
  551.7169 0.03 2
  552.0847 0.14 9
  552.2196 0.22 15
  552.4771 0.51 34
  552.8326 0.14 9
  552.9225 0.17 11
  553.0451 0.13 9
  553.1677 0.16 11
  553.3614 0.41 27
  553.5551 0.23 15
  554.0476 0.13 9
  554.4024 0.28 19
  554.5330 0.11 7
  554.6788 0.16 11
  555.0140 0.06 4
  555.2330 0.17 11
  555.3535 0.09 6
  555.4855 0.24 16
  555.6720 0.21 14
  555.9927 0.19 13
  556.3351 0.35 23
  556.5912 0.34 23
  556.8691 0.27 18
  556.9808 0.15 10
  557.1448 0.16 11
  557.3037 0.22 15
  557.8733 0.06 4
  558.0184 0.24 16
  558.1396 0.17 11
  558.2898 0.19 13
  558.5474 0.26 17
  558.6751 0.12 8
  558.7484 0.05 3
  559.0321 0.25 17
  559.1569 0.05 3
  559.3507 0.14 9
  559.5263 0.23 15
  559.7418 0.23 15
  559.8717 0.17 11
  560.0284 0.12 8
  560.3303 0.13 9
  560.5590 0.28 19
  560.6990 0.35 23
  560.8702 0.19 13
  561.0786 0.12 8
  561.2092 0.24 16
  561.4755 0.23 15
  562.0075 0.11 7
  562.3588 0.32 21
  562.4655 0.13 9
  562.6469 0.13 9
  562.7529 0.14 9
  563.0149 0.10 7
  563.3618 0.23 15
  563.4562 0.17 11
  563.5853 0.20 13
  563.7015 0.15 10
  563.8800 0.18 12
  564.0579 0.35 23
  564.3104 0.52 35
  564.5405 0.65 43
  564.7111 0.24 16
  565.1132 0.24 16
  565.2940 0.35 23
  565.6219 0.29 19
  565.7544 0.18 12
  566.0541 0.45 30
  566.2640 0.12 8
  566.3638 0.24 16
  566.5491 0.18 12
  566.7815 0.08 5
  566.9769 0.21 14
  567.1796 0.41 27
  567.3084 0.47 31
  567.3801 0.19 13
  567.5603 0.45 30
  567.6609 0.28 19
  567.8195 0.09 6
  567.9672 0.16 11
  568.2067 0.09 6
  568.4087 0.27 18
  568.5317 0.29 19
  569.0790 0.13 9
  569.2433 0.33 22
  569.4822 0.45 30
  569.6647 0.29 19
  569.8920 0.34 23
  570.1331 0.53 35
  570.3264 0.17 11
  570.4364 0.34 23
  570.5855 0.41 27
  570.6702 0.19 13
  571.2154 0.26 17
  571.5368 0.33 22
  571.8026 0.19 13
  571.9517 0.16 11
  572.1030 0.33 22
  572.2065 0.32 21
  572.4744 0.37 25
  572.7322 0.34 23
  572.8263 0.16 11
  573.0182 0.18 12
  573.1050 0.14 9
  573.3085 0.19 13
  573.4678 0.15 10
  573.6756 0.35 23
  573.8407 0.22 15
  573.9681 0.38 25
  574.0818 0.22 15
  574.3570 0.44 29
  574.4873 0.21 14
  574.6683 0.18 12
  574.7827 0.12 8
  574.9688 0.33 22
  575.2817 0.23 15
  575.4728 0.09 6
  575.6205 0.37 25
  575.8298 0.31 21
  576.1108 0.38 25
  576.2556 0.31 21
  576.3440 0.16 11
  576.4482 0.22 15
  576.6257 0.45 30
  576.8726 0.39 26
  577.0030 0.40 27
  577.1746 0.75 50
  577.5193 0.39 26
  577.6960 0.16 11
  578.0567 0.57 38
  578.3964 0.56 37
  578.5441 0.31 21
  578.7274 0.47 31
  578.9388 0.74 49
  579.1959 0.57 38
  579.4038 0.44 29
  579.6290 0.47 31
  579.8978 0.44 29
  580.1491 0.35 23
  580.2881 0.70 47
  580.4910 0.63 42
  580.7220 0.45 30
  580.8850 0.38 25
  581.1711 1.28 85
  581.5833 1.63 108
  582.5517 11.56 769
  582.9799 2.04 136
  583.5478 1.99 132
  583.9607 0.50 33
  584.1150 0.45 30
  584.4019 0.82 55
  584.6945 0.49 33
  584.8445 0.28 19
  585.3632 1.48 98
  585.6936 0.43 29
  585.8037 0.52 35
  585.9653 0.50 33
  586.2007 0.40 27
  586.4362 0.40 27
  586.7130 0.43 29
  586.9477 0.35 23
  587.0680 0.19 13
  587.3527 0.28 19
  587.6035 0.36 24
  587.7274 0.24 16
  588.0215 0.31 21
  588.1787 0.35 23
  588.5258 0.36 24
  588.6758 0.60 40
  588.8910 0.33 22
  588.9838 0.07 5
  589.2801 0.78 52
  589.6047 0.24 16
  589.7286 0.13 9
  589.9387 0.21 14
  590.1754 0.39 26
  590.3491 0.49 33
  590.4389 0.14 9
  590.7690 0.29 19
  590.9283 0.56 37
  591.1469 0.57 38
  591.3431 0.66 44
  591.4553 0.38 25
  591.6174 0.22 15
  591.7535 0.35 23
  592.0554 0.90 60
  592.2842 0.54 36
  592.5999 0.26 17
  592.9437 0.42 28
  593.0610 0.53 35
  593.1928 0.26 17
  593.5729 0.47 31
  593.8444 0.37 25
  594.0840 0.45 30
  594.2998 0.54 36
  594.6654 0.86 57
  595.1339 1.16 77
  595.4293 1.22 81
  595.9007 1.28 85
  596.6516 1.98 132
  600.3658 99.97 999
  601.1617 17.08 999
  601.7028 8.32 553
  602.6696 3.73 248
  603.0927 2.51 167
  603.4208 2.37 158
  603.7720 1.94 129
  604.4638 1.09 72
  604.7760 0.88 59
  605.0541 0.70 47
  605.3077 0.83 55
  605.5511 0.83 55
  605.8785 0.50 33
//
