ACCESSION: MSBNK-Kyoto_Univ-CA000058
RECORD_TITLE: Fcoxanthin acetate; FAB-EBEB; MS2; m/z: 700.43; [M]+*
DATE: 2016.01.19 (Created 2010.04.01, modified 2011.05.10)
AUTHORS: Akimoto N, Graduate School of Pharmaceutical Sciences, Kyoto University and Maoka T, Research Institute for Production Development
LICENSE: CC BY-SA
PUBLICATION: Takao Matsuno, Masahiro Ookubo, Tokuji Nishizawa, Ichiro Shimizu, Carotenoids of sea squirts. I. New marine carotenoids, halocynthiaxanthin and mytiloxanthinone from Halocynthia roretezi, Chem. Phram. Bull., 32, 4309-4315 (1984). doi:10.1248/cpb.32.4309
COMMENT: Profile spectrum of this record is given as a JPEG file.
COMMENT: [Profile] CA000058.jpg
CH$NAME: Fcoxanthin acetate
CH$COMPOUND_CLASS: N/A
CH$FORMULA: C44H60O7
CH$EXACT_MASS: 700.43390
CH$SMILES: C(=CC=C(C=C=C(C3(C)O)C(CC(OC(C)=O)C3)(C)C)C)C(C)=CC=CC=C(C=CC=C(C(=O)CC(C(C)(C)2)(O1)C(CC(OC(C)=O)C2)1C)C)C
CH$IUPAC: InChI=1S/C44H60O7/c1-30(19-15-20-32(3)23-24-39-40(7,8)25-36(49-34(5)45)27-42(39,11)48)17-13-14-18-31(2)21-16-22-33(4)38(47)29-44-41(9,10)26-37(50-35(6)46)28-43(44,12)51-44/h13-23,36-37,48H,25-29H2,1-12H3/b14-13+,19-15+,21-16+,30-17+,31-18+,32-20+,33-22+/t24?,36-,37-,42+,43+,44-/m0/s1
CH$LINK: INCHIKEY OKMNTAQZMKYJIR-YMJNCGNJSA-N
AC$INSTRUMENT: JMS-HX/HX 110A, JEOL
AC$INSTRUMENT_TYPE: FAB-EBEB
AC$MASS_SPECTROMETRY: MS_TYPE MS2
AC$MASS_SPECTROMETRY: ION_MODE POSITIVE
AC$MASS_SPECTROMETRY: ATOM_GUN_CURRENT 5 mA
AC$MASS_SPECTROMETRY: BOMBARDMENT 6 kV xenon
AC$MASS_SPECTROMETRY: COLLISION_ENERGY 3 kV
AC$MASS_SPECTROMETRY: COLLISION_GAS Ar
AC$MASS_SPECTROMETRY: GAS_PRESSURE adjust to attenuate the intensity of the precursor ion by 30 %
AC$MASS_SPECTROMETRY: IONIZATION FAB
AC$MASS_SPECTROMETRY: MATRIX 1-2 uL m-NBA
AC$MASS_SPECTROMETRY: PROBE_TIP stainless-steel
MS$FOCUSED_ION: BASE_PEAK 109.0062
MS$FOCUSED_ION: PRECURSOR_M/Z 700.43
MS$FOCUSED_ION: PRECURSOR_TYPE [M]+*
MS$DATA_PROCESSING: RELATIVE_M/Z normalised by peak(m/z=109.0062).  set 999 for peak(m/z=700.5203,rel=2157).
PK$SPLASH: splash10-0udi-2931002200-4f79144c0acd24a6e28a
PK$NUM_PEAK: 1796
PK$PEAK: m/z int. rel.int.
  0.0653 0.10 2
  9.0546 0.01 0
  10.2086 0.04 1
  11.9424 0.02 0
  12.4725 0.01 0
  13.9790 0.05 1
  14.9775 0.20 4
  15.9988 0.04 1
  21.8672 0.09 2
  22.9360 0.06 1
  24.7017 0.04 1
  24.9460 0.03 1
  25.9642 0.10 2
  26.9669 0.83 18
  27.9746 0.07 2
  28.9800 0.74 16
  30.0484 0.01 0
  30.9481 0.07 2
  35.9852 0.20 4
  36.0910 0.01 0
  36.9588 0.15 3
  37.9482 0.34 7
  38.9643 2.42 52
  39.9546 0.19 4
  40.9756 4.27 92
  41.9538 0.24 5
  42.2609 0.03 1
  42.9526 45.43 980
  43.9039 0.04 1
  44.2743 0.13 3
  44.9644 0.35 8
  48.9790 0.04 1
  49.9551 0.56 12
  50.9546 1.31 28
  51.6914 0.01 0
  51.9688 0.71 15
  52.9623 2.61 56
  53.9882 0.14 3
  54.9764 4.31 93
  55.9898 0.13 3
  56.9823 1.01 22
  57.3225 0.01 0
  57.9634 0.17 4
  58.9551 0.54 12
  60.0025 0.05 1
  60.9322 0.22 5
  61.9407 0.33 7
  62.9431 1.08 23
  63.0834 0.09 2
  63.1805 0.04 1
  63.5342 0.01 0
  63.9538 0.22 5
  64.9673 1.92 41
  65.9764 0.86 19
  66.9776 4.75 102
  67.4236 0.01 0
  67.9825 0.24 5
  68.9707 6.94 150
  69.9772 0.15 3
  70.9720 1.73 37
  71.2658 0.09 2
  71.5625 0.04 1
  71.8484 0.02 0
  72.9653 0.05 1
  73.9158 0.31 7
  74.9427 0.68 15
  75.1863 0.02 0
  75.3594 0.08 2
  75.5079 0.04 1
  75.9715 0.28 6
  76.1691 0.08 2
  76.4023 0.01 0
  76.6364 0.05 1
  76.9564 5.68 123
  77.3035 0.04 1
  77.3927 0.01 0
  77.9620 1.56 34
  78.2121 0.03 1
  78.6759 0.05 1
  78.9671 5.18 112
  79.2139 0.02 0
  79.7049 0.01 0
  79.9720 0.60 13
  80.4940 0.08 2
  80.6425 0.04 1
  80.9789 4.60 99
  81.1805 0.08 2
  81.4870 0.08 2
  81.9597 0.53 11
  82.9715 3.72 80
  83.9611 0.33 7
  84.5788 0.02 0
  84.9591 2.03 44
  85.3330 0.05 1
  85.9360 0.13 3
  86.9460 1.22 26
  87.8127 0.08 2
  87.9969 0.17 4
  88.2049 0.01 0
  88.5107 0.06 1
  88.6648 0.07 2
  88.9461 0.52 11
  89.1622 0.05 1
  89.4202 0.08 2
  89.5906 0.02 0
  89.9450 0.29 6
  90.1520 0.17 4
  90.4546 0.10 2
  90.9676 14.19 306
  91.2100 0.10 2
  91.5268 0.07 2
  91.9579 1.19 26
  92.4821 0.01 0
  92.6153 0.05 1
  92.9718 8.69 187
  93.3525 0.03 1
  93.9602 0.82 18
  94.4454 0.02 0
  94.9694 8.29 179
  95.2348 0.01 0
  95.9464 0.79 17
  96.5225 0.02 0
  96.9498 1.13 24
  97.2009 0.01 0
  97.9762 0.19 4
  98.9496 0.44 9
  99.9695 0.10 2
  100.2400 0.04 1
  100.6436 0.10 2
  100.8223 0.05 1
  100.9831 0.27 6
  101.1376 0.03 1
  101.5513 0.08 2
  101.6645 0.13 3
  101.9919 0.67 14
  102.1489 0.06 1
  102.4307 0.06 1
  102.5864 0.01 0
  102.9741 3.21 69
  103.3240 0.09 2
  103.9534 0.93 20
  104.3227 0.08 2
  104.5612 0.09 2
  104.9830 14.56 314
  105.2471 0.29 6
  105.3640 0.07 2
  105.9823 1.52 33
  106.2838 0.06 1
  106.9952 8.95 193
  107.3430 0.06 1
  107.4822 0.05 1
  107.6540 0.04 1
  107.9906 0.91 20
  108.1474 0.06 1
  108.3987 0.03 1
  108.5599 0.05 1
  109.0062 46.31 999
  109.3524 0.10 2
  109.6640 0.08 2
  109.9917 0.26 6
  110.9864 1.93 42
  111.6415 0.03 1
  111.8276 0.13 3
  112.0296 0.19 4
  112.3156 0.04 1
  112.9568 0.61 13
  113.2535 0.10 2
  113.3405 0.05 1
  113.5270 0.10 2
  113.5950 0.05 1
  114.0627 0.28 6
  114.4413 0.15 3
  114.9595 7.55 163
  115.3601 0.09 2
  115.5384 0.11 2
  115.9651 2.74 59
  116.2590 0.06 1
  116.4060 0.13 3
  116.5575 0.20 4
  116.9673 7.15 154
  117.3766 0.14 3
  117.9771 1.52 33
  118.4343 0.04 1
  118.5937 0.08 2
  118.9717 17.66 381
  119.4164 0.15 3
  119.5952 0.08 2
  119.9827 1.86 40
  120.2180 0.07 2
  120.3319 0.02 0
  120.9710 8.46 182
  121.4438 0.10 2
  121.5358 0.08 2
  121.9512 1.24 27
  122.9605 3.59 77
  123.3196 0.02 0
  123.9580 0.29 6
  124.5344 0.08 2
  124.9570 4.54 98
  125.4829 0.15 3
  125.9315 0.33 7
  126.1212 0.06 1
  126.3161 0.01 0
  126.5777 0.13 3
  126.9463 2.84 61
  127.3375 0.27 6
  127.4460 0.11 2
  127.9506 9.26 200
  128.4414 0.16 3
  128.9452 10.79 233
  129.3061 0.03 1
  129.5590 0.08 2
  129.9480 4.12 89
  130.2823 0.17 4
  130.5650 0.10 2
  130.9560 9.05 195
  131.3096 0.07 2
  131.4587 0.11 2
  131.9301 2.03 44
  132.3121 0.07 2
  132.4824 0.21 5
  132.9545 10.46 226
  133.3521 0.07 2
  133.9554 1.44 31
  134.2622 0.04 1
  134.4292 0.04 1
  134.9539 17.92 387
  135.3867 0.13 3
  135.5638 0.10 2
  135.9500 0.59 13
  136.2561 0.05 1
  136.4683 0.07 2
  136.9451 7.94 171
  137.3609 0.14 3
  137.9552 0.80 17
  138.2150 0.10 2
  138.2841 0.04 1
  138.9568 1.59 34
  139.1438 0.17 4
  139.3082 0.01 0
  139.5410 0.11 2
  139.9878 0.96 21
  140.1789 0.26 6
  140.9294 8.42 182
  141.3441 0.05 1
  141.5470 0.06 1
  141.9400 6.40 138
  142.4425 0.10 2
  142.9359 13.17 284
  143.3783 0.02 0
  143.9306 3.54 76
  144.2654 0.05 1
  144.9371 11.18 241
  145.3845 0.04 1
  145.5434 0.18 4
  145.9457 2.62 57
  146.3958 0.23 5
  146.9339 10.39 224
  147.4261 0.09 2
  147.9201 1.20 26
  148.3451 0.05 1
  148.9476 9.01 194
  149.5959 0.28 6
  149.9793 0.57 12
  150.1290 0.23 5
  150.3111 0.07 2
  150.9489 3.87 83
  151.3212 0.06 1
  151.4634 0.14 3
  151.9380 3.44 74
  152.3587 0.07 2
  152.5034 0.07 2
  152.9600 4.90 106
  153.4477 0.52 11
  153.9559 2.42 52
  154.3078 0.18 4
  154.4163 0.14 3
  154.9545 10.82 233
  155.2974 0.09 2
  155.5054 0.08 2
  155.9611 6.42 138
  156.3230 0.23 5
  156.9625 13.27 286
  157.2291 0.28 6
  157.9665 3.07 66
  158.2575 0.18 4
  158.3891 0.08 2
  158.9630 11.74 253
  159.3525 0.07 2
  159.4841 0.07 2
  159.9736 1.43 31
  160.1881 0.24 5
  160.4423 0.03 1
  160.9612 6.04 130
  161.3678 0.10 2
  161.9715 0.60 13
  162.9868 1.88 41
  163.3238 0.14 3
  163.5194 0.06 1
  163.9936 0.69 15
  164.1478 0.29 6
  164.3873 0.25 5
  164.9685 8.15 176
  165.3618 0.20 4
  165.9811 2.63 57
  166.4815 0.10 2
  166.9892 5.54 120
  167.4178 0.09 2
  167.9809 2.72 59
  168.3981 0.26 6
  169.0034 8.82 190
  170.0079 4.60 99
  170.3314 0.09 2
  170.5487 0.18 4
  171.0157 9.05 195
  171.4190 0.11 2
  172.0196 2.60 56
  172.5069 0.63 14
  173.0268 6.94 150
  173.4703 0.38 8
  174.0332 0.95 20
  174.1975 0.21 5
  175.0200 3.34 72
  175.3259 0.19 4
  176.0250 0.88 19
  176.3715 0.11 2
  177.0213 1.16 25
  177.3625 0.21 5
  178.0167 3.76 81
  178.3128 0.21 5
  179.0149 7.16 154
  179.3507 0.08 2
  179.5372 0.14 3
  180.0282 3.57 77
  180.4908 0.13 3
  181.0137 8.52 184
  181.3358 0.20 4
  181.6018 0.10 2
  182.0112 3.01 65
  182.3969 0.05 1
  183.0268 8.62 186
  183.5698 0.19 4
  184.0376 2.83 61
  184.4017 0.15 3
  185.0501 7.63 165
  185.3684 0.19 4
  185.6098 0.19 4
  186.0299 1.55 33
  186.3246 0.14 3
  186.5606 0.10 2
  187.0160 2.53 55
  187.5901 0.16 3
  187.8525 0.40 9
  188.0736 0.73 16
  188.3823 0.11 2
  189.0039 3.15 68
  189.4028 0.12 3
  189.5732 0.19 4
  189.7325 0.14 3
  190.0670 0.83 18
  191.0010 3.77 81
  192.0034 2.17 47
  192.3385 0.15 3
  192.5045 0.08 2
  193.0097 6.78 146
  193.9991 3.19 69
  194.4809 0.16 3
  195.0252 8.84 191
  195.4298 0.12 3
  196.0384 2.49 54
  196.3832 0.10 2
  197.0170 8.93 193
  197.4517 0.14 3
  198.0179 2.23 48
  198.3985 0.07 2
  199.0339 4.63 100
  199.4508 0.30 6
  199.6785 0.18 4
  200.0450 1.77 38
  200.4998 0.18 4
  201.0101 2.23 48
  201.5102 0.17 4
  202.0120 2.30 50
  202.4104 0.11 2
  203.0041 2.54 55
  203.5297 0.04 1
  203.7741 0.20 4
  204.0579 0.99 21
  205.0231 3.18 69
  205.3465 0.15 3
  205.5381 0.17 4
  206.0202 2.54 55
  207.0043 6.04 130
  208.0421 2.94 63
  209.0233 6.91 149
  209.4427 0.23 5
  210.0414 2.66 57
  210.3465 0.15 3
  211.0302 6.43 139
  211.4461 0.06 1
  212.0285 1.48 32
  212.3945 0.08 2
  213.0168 4.39 95
  213.5739 0.17 4
  214.0462 0.89 19
  214.6084 0.93 20
  215.0494 4.95 107
  215.5901 0.19 4
  216.0054 1.26 27
  216.7562 0.46 10
  217.0624 2.96 64
  217.4416 0.23 5
  217.5777 0.27 6
  218.0357 1.45 31
  218.3762 0.07 2
  219.0322 3.54 76
  219.4451 0.26 6
  220.0544 2.09 45
  220.3141 0.21 5
  221.0511 5.86 126
  221.5107 0.04 1
  222.0476 2.20 47
  223.0454 5.03 109
  223.4551 0.09 2
  224.0202 1.63 35
  225.0369 4.69 101
  225.4332 0.09 2
  226.0224 1.39 30
  226.4441 0.03 1
  226.6501 0.15 3
  227.0646 1.81 39
  227.3537 0.16 3
  227.4987 0.11 2
  228.0446 1.56 34
  228.3664 0.11 2
  228.4895 0.18 4
  229.0707 2.86 62
  229.2394 0.63 14
  229.4734 0.19 4
  230.0467 1.30 28
  230.3135 0.23 5
  230.4326 0.10 2
  231.0461 2.72 59
  231.4795 0.13 3
  232.0525 1.46 31
  232.4093 0.11 2
  233.0479 4.08 88
  233.5585 0.10 2
  234.0831 1.75 38
  235.0827 4.40 95
  235.5701 0.06 1
  236.0616 1.55 33
  236.4739 0.16 3
  237.0990 3.38 73
  237.4926 0.12 3
  237.6629 0.07 2
  238.1008 0.77 17
  238.4783 0.02 0
  238.7526 0.39 8
  239.0991 2.16 47
  239.3898 0.05 1
  239.5283 0.13 3
  239.8413 0.31 7
  240.1182 0.58 13
  240.4632 0.17 4
  240.6583 0.21 5
  241.0887 1.25 27
  241.4133 0.05 1
  241.5593 0.08 2
  241.6962 0.06 1
  242.1120 0.71 15
  242.3047 0.28 6
  242.4319 0.20 4
  242.5672 0.04 1
  243.0751 2.14 46
  243.4353 0.13 3
  244.1001 1.10 24
  245.0921 2.51 54
  245.4542 0.06 1
  245.7261 0.09 2
  246.1022 1.20 26
  246.3283 0.23 5
  246.5283 0.08 2
  247.1118 3.78 82
  247.4315 0.08 2
  248.1137 1.34 29
  248.3860 0.09 2
  249.0955 3.97 86
  249.5739 0.10 2
  250.1343 1.03 22
  250.5061 0.15 3
  251.1243 2.92 63
  251.4840 0.08 2
  251.6326 0.06 1
  252.0942 0.80 17
  252.5230 0.22 5
  252.7645 0.12 3
  253.1269 1.75 38
  253.6824 0.17 4
  254.1436 0.50 11
  254.4650 0.10 2
  254.5883 0.02 0
  255.1228 2.05 44
  255.5431 0.13 3
  255.7347 0.09 2
  256.1271 0.87 19
  257.0750 1.71 37
  257.6141 0.14 3
  257.7310 0.12 3
  258.1353 0.77 17
  258.6400 0.08 2
  259.1251 1.99 43
  259.4010 0.23 5
  259.5600 0.09 2
  259.6621 0.07 2
  260.0963 0.83 18
  260.4292 0.15 3
  261.1314 2.57 55
  261.4199 0.16 3
  261.6714 0.18 4
  261.8437 0.21 5
  262.1380 1.01 22
  262.2807 0.43 9
  262.7070 0.16 3
  263.1417 2.63 57
  263.6532 0.07 2
  263.8396 0.11 2
  264.1392 0.65 14
  264.4948 0.05 1
  265.1295 2.55 55
  265.6232 0.11 2
  266.1013 0.56 12
  266.3589 0.16 3
  266.4820 0.09 2
  266.6042 0.09 2
  266.7917 0.15 3
  267.1329 1.06 23
  267.5022 0.15 3
  267.6013 0.12 3
  268.1243 0.57 12
  269.1145 1.34 29
  269.4923 0.08 2
  269.6882 0.06 1
  270.1314 0.96 21
  270.4945 0.04 1
  271.1165 1.62 35
  272.1209 0.79 17
  272.4246 0.08 2
  272.6719 0.11 2
  273.1342 2.24 48
  273.6008 0.05 1
  274.1336 0.81 17
  274.4679 0.07 2
  275.1291 2.89 62
  275.6365 0.09 2
  276.1358 0.61 13
  276.4893 0.10 2
  277.1345 1.72 37
  277.6787 0.07 2
  277.8858 0.18 4
  278.2072 0.44 9
  278.4724 0.14 3
  278.6862 0.10 2
  279.1478 1.18 25
  279.4611 0.15 3
  279.6824 0.08 2
  279.8067 0.05 1
  279.9783 0.25 5
  280.1972 0.65 14
  281.1549 3.33 72
  281.5024 0.19 4
  281.8458 0.23 5
  282.1627 0.23 5
  282.4680 0.11 2
  283.1335 0.99 21
  283.4190 0.10 2
  283.5700 0.12 3
  283.6928 0.07 2
  283.9062 0.09 2
  284.1901 0.42 9
  284.4756 0.07 2
  285.1050 1.43 31
  285.5825 0.06 1
  286.1049 0.45 10
  286.4446 0.04 1
  287.1275 2.15 46
  287.6286 0.10 2
  288.1646 0.59 13
  288.3500 0.21 5
  288.5486 0.12 3
  289.1189 1.40 30
  289.5596 0.05 1
  290.0485 0.26 6
  290.4444 0.02 0
  290.6141 0.11 2
  290.7355 0.03 1
  291.1223 1.12 24
  291.3145 0.23 5
  291.7097 0.02 0
  291.8644 0.06 1
  292.2220 0.28 6
  293.1336 0.76 16
  293.4045 0.13 3
  293.5616 0.05 1
  293.7228 0.05 1
  294.1717 0.61 13
  294.3139 0.33 7
  294.5259 0.11 2
  294.8377 0.11 2
  295.1711 0.74 16
  295.3283 0.28 6
  295.6028 0.11 2
  295.8423 0.11 2
  296.1350 0.38 8
  296.2823 0.16 3
  296.4079 0.07 2
  296.6716 0.14 3
  297.1358 0.68 15
  297.8140 0.09 2
  298.1477 0.48 10
  298.4374 0.14 3
  299.1624 1.16 25
  299.6578 0.16 3
  299.9925 0.15 3
  300.2274 0.36 8
  300.4522 0.10 2
  300.6529 0.06 1
  301.1519 1.33 29
  301.8658 0.25 5
  302.1065 0.54 12
  302.2649 0.53 11
  302.6357 0.14 3
  303.1415 1.88 41
  303.3574 0.43 9
  303.5224 0.10 2
  304.1618 0.28 6
  304.3293 0.10 2
  304.6261 0.07 2
  304.8654 0.17 4
  305.1047 0.91 20
  305.2732 0.50 11
  305.5300 0.08 2
  306.1339 0.23 5
  306.4667 0.11 2
  306.7679 0.12 3
  307.1875 0.99 21
  307.3610 0.31 7
  307.6564 0.07 2
  308.0386 0.18 4
  308.3365 0.15 3
  308.5427 0.05 1
  309.1428 0.50 11
  309.3064 0.38 8
  309.6520 0.11 2
  310.1926 0.33 7
  310.4811 0.14 3
  311.1600 0.95 20
  311.2959 0.43 9
  311.5770 0.01 0
  311.8715 0.10 2
  312.1977 0.37 8
  312.3604 0.08 2
  312.4972 0.13 3
  313.1681 1.05 23
  313.5311 0.11 2
  313.7506 0.09 2
  314.0904 0.36 8
  314.3533 0.14 3
  314.6288 0.10 2
  315.1472 0.91 20
  315.3735 0.45 10
  315.6206 0.11 2
  315.8294 0.15 3
  316.2094 0.34 7
  316.7080 0.08 2
  317.1657 0.71 15
  317.5542 0.05 1
  317.7589 0.10 2
  317.9268 0.10 2
  318.2410 0.30 6
  319.1134 0.43 9
  319.3340 0.13 3
  319.4828 0.09 2
  319.6525 0.08 2
  319.8322 0.07 2
  320.0654 0.08 2
  320.4850 0.15 3
  320.6690 0.11 2
  320.8111 0.09 2
  321.1389 0.41 9
  321.3362 0.26 6
  321.6682 0.05 1
  322.0579 0.17 4
  322.3172 0.13 3
  322.5020 0.10 2
  323.1360 0.62 13
  323.6221 0.01 0
  323.7920 0.06 1
  324.0948 0.19 4
  324.2848 0.13 3
  325.1183 0.48 10
  325.3275 0.17 4
  325.6071 0.09 2
  325.7452 0.07 2
  325.8724 0.10 2
  325.9796 0.08 2
  326.2935 0.32 7
  326.4409 0.14 3
  326.7690 0.15 3
  327.1567 1.03 22
  327.4431 0.25 5
  327.8869 0.19 4
  328.2328 0.54 12
  328.6005 0.13 3
  329.1492 1.25 27
  329.3787 0.35 8
  329.5681 0.15 3
  329.7322 0.11 2
  329.9702 0.15 3
  330.1839 0.38 8
  330.3674 0.07 2
  330.7947 0.24 5
  331.1383 0.68 15
  331.5993 0.13 3
  331.9321 0.05 1
  332.1894 0.26 6
  332.3495 0.16 3
  332.8861 0.18 4
  333.2114 0.61 13
  333.9283 0.11 2
  334.1313 0.46 10
  334.2454 0.29 6
  334.6052 0.11 2
  335.1218 0.33 7
  335.3005 0.17 4
  335.6000 0.08 2
  335.7628 0.03 1
  335.9968 0.11 2
  336.1747 0.12 3
  336.3341 0.10 2
  336.5254 0.05 1
  337.1950 0.41 9
  337.5945 0.09 2
  337.7330 0.10 2
  337.9428 0.05 1
  338.3071 0.17 4
  339.1902 0.43 9
  339.4841 0.04 1
  339.8687 0.18 4
  340.0383 0.13 3
  340.2978 0.10 2
  340.5404 0.11 2
  340.7168 0.08 2
  340.8629 0.11 2
  341.2090 0.86 19
  341.7558 0.07 2
  341.8978 0.16 3
  342.1489 0.32 7
  342.6253 0.05 1
  343.1740 1.15 25
  343.5680 0.07 2
  343.9143 0.12 3
  344.2134 0.23 5
  344.3883 0.13 3
  345.2061 1.21 26
  345.4659 0.33 7
  345.6331 0.10 2
  345.7946 0.18 4
  345.9484 0.06 1
  346.2015 0.73 16
  346.4975 0.04 1
  347.2181 1.18 25
  347.5419 0.05 1
  347.6933 0.04 1
  347.8901 0.19 4
  348.0019 0.06 1
  348.2189 0.20 4
  348.3804 0.11 2
  348.6261 0.12 3
  348.8002 0.05 1
  348.9037 0.03 1
  349.1998 0.24 5
  349.3865 0.13 3
  349.8114 0.11 2
  350.0352 0.04 1
  350.4198 0.10 2
  350.6495 0.10 2
  350.9416 0.13 3
  351.2134 0.25 5
  351.8169 0.09 2
  352.2664 0.16 3
  352.4642 0.16 3
  353.2151 0.43 9
  353.4509 0.11 2
  353.8416 0.02 0
  354.1128 0.31 7
  354.3359 0.24 5
  354.5279 0.07 2
  355.1907 0.54 12
  355.3483 0.44 9
  355.5993 0.13 3
  355.7913 0.04 1
  355.9952 0.12 3
  356.1771 0.24 5
  356.3886 0.19 4
  356.6809 0.11 2
  357.2008 0.76 16
  357.6764 0.11 2
  358.2462 0.33 7
  358.6569 0.15 3
  358.8286 0.13 3
  359.2310 0.55 12
  359.5231 0.09 2
  359.7395 0.08 2
  360.2632 0.47 10
  360.7810 0.15 3
  361.0016 0.17 4
  361.1624 0.13 3
  361.3730 0.47 10
  361.6509 0.05 1
  362.0156 0.05 1
  362.2270 0.02 0
  362.3676 0.07 2
  362.4679 0.03 1
  362.6995 0.04 1
  363.2310 0.30 6
  364.0584 0.03 1
  364.3019 0.24 5
  364.7990 0.01 0
  365.0872 0.18 4
  365.4690 0.09 2
  365.6729 0.06 1
  365.9755 0.17 4
  366.1188 0.21 5
  366.4197 0.11 2
  366.5773 0.06 1
  367.2433 0.32 7
  367.4372 0.15 3
  367.6530 0.09 2
  367.9194 0.11 2
  368.0273 0.06 1
  368.4565 0.05 1
  368.7500 0.12 3
  369.1725 0.77 17
  369.3158 0.26 6
  370.2486 0.15 3
  370.5936 0.02 0
  370.8163 0.05 1
  371.2221 0.61 13
  371.8270 0.08 2
  372.2143 0.27 6
  372.4775 0.08 2
  372.6227 0.16 3
  372.8674 0.16 3
  373.0125 0.07 2
  373.1805 0.44 9
  373.4379 0.03 1
  373.8303 0.13 3
  374.0540 0.06 1
  374.3409 0.11 2
  374.4287 0.06 1
  375.2898 0.28 6
  375.5338 0.08 2
  375.7305 0.04 1
  375.9483 0.10 2
  376.1779 0.04 1
  376.3578 0.05 1
  376.7023 0.10 2
  377.2554 0.33 7
  377.8153 0.07 2
  378.1169 0.22 5
  378.2790 0.12 3
  378.4344 0.19 4
  379.0587 0.18 4
  379.2454 0.11 2
  379.4675 0.14 3
  379.6171 0.09 2
  380.2177 0.14 3
  380.3073 0.07 2
  380.8912 0.05 1
  381.0948 0.18 4
  381.2824 0.47 10
  381.5554 0.10 2
  381.6635 0.02 0
  381.8300 0.17 4
  381.9467 0.06 1
  382.2129 0.09 2
  382.4124 0.02 0
  382.7614 0.07 2
  383.1308 0.25 5
  383.3802 0.31 7
  383.9796 0.25 5
  384.2788 0.19 4
  384.7320 0.09 2
  384.9671 0.09 2
  385.3172 0.66 14
  385.4618 0.29 6
  385.8076 0.09 2
  385.9911 0.08 2
  386.3345 0.32 7
  386.5967 0.06 1
  386.7032 0.09 2
  387.3046 0.31 7
  387.5744 0.08 2
  388.3603 0.12 3
  388.5501 0.02 0
  389.2138 0.42 9
  389.3969 0.17 4
  389.5402 0.05 1
  390.0733 0.04 1
  390.1838 0.04 1
  390.3432 0.04 1
  391.0502 0.09 2
  391.2535 0.20 4
  391.8576 0.02 0
  392.2424 0.24 5
  392.4685 0.04 1
  392.7369 0.12 3
  393.2314 0.58 13
  393.5099 0.14 3
  393.8922 0.19 4
  394.2679 0.23 5
  394.4105 0.19 4
  394.8140 0.26 6
  395.0132 0.13 3
  395.1694 0.16 3
  395.3737 0.18 4
  395.6691 0.02 0
  396.1647 0.19 4
  396.3716 0.01 0
  396.7144 0.10 2
  396.8757 0.09 2
  397.1864 0.15 3
  397.4448 0.20 4
  397.8367 0.03 1
  398.2319 0.24 5
  398.3417 0.13 3
  398.8544 0.04 1
  399.0444 0.28 6
  399.3384 0.42 9
  399.5132 0.12 3
  399.8782 0.12 3
  400.3631 0.05 1
  400.5540 0.08 2
  400.7441 0.07 2
  401.2299 0.47 10
  401.4268 0.28 6
  401.7150 0.04 1
  402.3192 0.17 4
  403.0501 0.24 5
  403.2698 0.24 5
  404.0886 0.13 3
  404.3396 0.07 2
  405.0343 0.03 1
  405.2482 0.22 5
  405.5660 0.08 2
  405.9320 0.11 2
  406.2684 0.31 7
  406.4671 0.22 5
  406.7292 0.07 2
  407.1865 0.16 3
  407.4072 0.21 5
  407.8494 0.03 1
  408.1200 0.11 2
  408.3559 0.04 1
  408.5343 0.11 2
  409.3165 0.30 6
  409.6963 0.10 2
  410.0591 0.12 3
  410.3171 0.12 3
  410.7789 0.04 1
  411.2628 0.39 8
  411.4319 0.24 5
  411.5766 0.06 1
  411.7898 0.12 3
  411.9945 0.03 1
  412.2619 0.23 5
  412.6071 0.03 1
  413.2044 0.53 11
  413.4651 0.46 10
  413.7528 0.10 2
  414.0109 0.09 2
  414.2647 0.11 2
  415.0611 0.09 2
  415.3345 0.06 1
  415.5656 0.12 3
  415.8110 0.10 2
  416.2182 0.10 2
  416.3621 0.11 2
  416.6550 0.06 1
  417.0749 0.08 2
  417.2925 0.29 6
  417.6709 0.11 2
  417.9080 0.06 1
  418.2289 0.17 4
  418.4059 0.11 2
  418.6464 0.10 2
  419.0689 0.10 2
  419.1773 0.14 3
  419.4203 0.13 3
  420.1411 0.07 2
  420.4155 0.05 1
  420.8517 0.14 3
  420.9965 0.14 3
  421.2371 0.21 5
  421.4802 0.11 2
  422.3976 0.11 2
  423.2703 0.29 6
  423.5744 0.09 2
  423.8100 0.07 2
  424.3116 0.52 11
  424.5328 0.20 4
  424.7701 0.02 0
  424.9743 0.06 1
  425.3667 0.31 7
  425.8642 0.10 2
  426.2134 0.18 4
  426.8288 0.07 2
  427.0619 0.05 1
  427.2747 0.44 9
  427.4485 0.30 6
  427.8316 0.05 1
  427.9546 0.06 1
  428.3285 0.37 8
  428.4615 0.14 3
  428.6422 0.09 2
  429.0779 0.23 5
  429.3103 0.35 8
  429.5486 0.05 1
  429.7682 0.07 2
  430.3067 0.20 4
  430.4449 0.09 2
  431.3566 0.16 3
  432.1183 0.57 12
  432.3167 0.31 7
  432.7256 0.10 2
  432.9954 0.10 2
  433.2651 0.14 3
  433.5095 0.12 3
  433.8861 0.04 1
  434.3018 0.11 2
  434.5878 0.07 2
  434.9569 0.11 2
  435.0876 0.03 1
  435.3396 0.12 3
  435.5831 0.09 2
  435.8674 0.02 0
  436.1720 0.15 3
  436.4173 0.08 2
  436.5947 0.11 2
  436.9673 0.05 1
  437.2965 0.42 9
  437.4909 0.14 3
  437.9040 0.03 1
  438.3347 0.11 2
  438.8951 0.06 1
  439.0435 0.02 0
  439.3190 0.21 5
  439.6642 0.06 1
  439.7947 0.10 2
  440.0525 0.10 2
  440.3730 0.18 4
  440.6648 0.07 2
  440.9200 0.14 3
  441.2940 2.27 49
  441.6426 0.22 5
  441.9929 0.05 1
  442.1676 0.17 4
  442.3567 0.30 6
  442.5527 0.16 3
  442.7664 0.05 1
  443.1753 0.14 3
  443.4832 0.32 7
  443.7793 0.19 4
  444.1898 0.06 1
  444.3638 0.17 4
  444.6047 0.13 3
  444.8041 0.04 1
  445.1231 0.13 3
  445.3683 0.21 5
  445.6466 0.10 2
  446.0378 0.08 2
  446.2304 0.10 2
  446.4349 0.14 3
  447.2607 0.11 2
  448.0202 0.10 2
  448.2783 0.20 4
  449.2782 0.10 2
  449.4828 0.05 1
  449.7128 0.03 1
  450.2519 0.22 5
  450.7485 0.05 1
  451.0550 0.09 2
  451.3768 0.25 5
  451.5067 0.11 2
  451.9975 0.01 0
  452.4365 0.15 3
  453.3239 0.05 1
  453.5506 0.04 1
  453.9872 0.10 2
  454.4025 0.09 2
  454.6310 0.01 0
  455.2408 0.07 2
  455.4727 0.12 3
  457.1527 0.11 2
  457.3020 0.09 2
  458.3824 0.10 2
  458.7013 0.05 1
  459.3221 0.78 17
  459.5435 0.27 6
  459.9328 0.10 2
  460.3043 0.54 12
  460.4528 0.32 7
  461.3681 0.43 9
  461.8797 0.11 2
  462.2241 0.24 5
  462.3624 0.10 2
  462.6229 0.04 1
  463.2440 0.05 1
  463.5020 0.06 1
  464.2928 0.06 1
  464.4956 0.09 2
  464.8445 0.02 0
  465.0693 0.07 2
  465.4648 0.16 3
  466.0284 0.06 1
  466.2754 0.11 2
  466.5504 0.10 2
  467.0172 0.09 2
  468.4859 0.06 1
  469.2720 0.15 3
  469.5378 0.06 1
  469.8053 0.04 1
  469.9827 0.05 1
  470.4413 0.29 6
  471.0815 0.05 1
  471.2531 0.22 5
  471.3915 0.10 2
  471.5401 0.08 2
  471.8577 0.01 0
  472.1643 0.08 2
  472.3919 0.11 2
  472.9729 0.18 4
  473.3058 0.37 8
  473.5887 0.09 2
  473.7441 0.07 2
  473.9403 0.09 2
  474.1535 0.20 4
  474.2860 0.11 2
  474.4432 0.14 3
  474.5519 0.08 2
  474.7575 0.17 4
  475.0659 0.61 13
  475.3284 1.10 24
  475.6903 0.08 2
  476.0319 0.10 2
  476.3003 0.32 7
  476.4898 0.16 3
  476.6003 0.08 2
  476.9716 0.42 9
  477.3199 1.05 23
  477.5239 0.40 9
  477.8323 0.14 3
  478.3014 0.08 2
  478.4535 0.09 2
  479.2056 0.09 2
  479.3918 0.02 0
  479.7938 0.09 2
  480.3641 0.03 1
  480.4916 0.04 1
  480.9497 0.04 1
  481.2540 0.21 5
  481.8924 0.03 1
  482.0973 0.07 2
  482.4135 0.18 4
  482.6065 0.02 0
  482.9993 0.06 1
  483.4286 0.12 3
  483.6140 0.06 1
  483.8274 0.08 2
  484.3069 0.11 2
  484.6836 0.05 1
  484.9200 0.11 2
  485.1113 0.05 1
  485.3443 0.28 6
  485.5952 0.09 2
  485.7823 0.04 1
  486.0927 0.14 3
  486.4023 0.37 8
  486.5655 0.06 1
  486.8028 0.07 2
  487.1617 0.39 8
  487.4824 0.46 10
  487.7299 0.05 1
  488.3355 2.57 55
  488.5966 0.48 10
  488.9913 0.52 11
  489.3716 1.53 33
  489.9509 0.16 3
  490.1814 0.17 4
  490.4077 0.15 3
  490.7591 0.04 1
  491.0126 0.12 3
  491.3343 0.37 8
  491.5385 0.23 5
  491.7963 0.09 2
  491.9307 0.16 3
  492.1238 0.06 1
  492.3493 0.04 1
  492.7493 0.03 1
  493.4598 0.15 3
  494.1006 0.01 0
  494.6679 0.04 1
  495.2369 0.09 2
  495.8000 0.04 1
  496.4421 0.07 2
  496.9356 0.05 1
  497.2040 0.12 3
  497.3908 0.20 4
  497.7060 0.08 2
  498.0432 0.05 1
  498.1723 0.07 2
  498.4620 0.13 3
  499.3421 0.06 1
  499.4823 0.08 2
  499.7007 0.10 2
  500.2733 0.06 1
  500.5282 0.13 3
  501.2547 0.19 4
  501.4756 0.36 8
  501.5784 0.16 3
  502.2744 0.45 10
  502.4783 0.32 7
  502.6135 0.18 4
  502.9347 0.04 1
  503.3545 0.79 17
  503.5993 0.45 10
  504.1432 0.21 5
  504.4211 0.22 5
  504.6132 0.06 1
  504.9388 0.10 2
  505.2703 0.20 4
  505.5185 0.23 5
  507.4958 0.04 1
  508.1980 0.09 2
  508.3018 0.07 2
  508.8408 0.07 2
  509.2489 0.19 4
  510.4547 0.06 1
  511.0245 0.02 0
  511.2405 0.16 3
  511.4897 0.06 1
  512.2313 0.05 1
  512.3512 0.07 2
  512.7365 0.07 2
  512.9406 0.05 1
  513.1337 0.10 2
  513.4169 0.26 6
  513.5547 0.08 2
  514.0761 0.13 3
  514.4113 0.11 2
  514.7336 0.10 2
  515.2968 1.27 27
  515.5163 0.85 18
  515.7094 0.10 2
  515.8719 0.12 3
  516.3160 0.10 2
  516.7507 0.03 1
  517.1072 0.10 2
  517.2808 0.11 2
  517.6509 0.07 2
  518.1419 0.17 4
  518.4006 0.35 8
  519.0234 0.12 3
  519.2711 0.17 4
  519.5842 0.10 2
  520.0616 0.18 4
  521.0651 0.09 2
  521.4506 0.10 2
  521.7111 0.07 2
  522.0464 0.02 0
  522.8755 0.05 1
  523.2253 0.11 2
  523.3709 0.06 1
  523.5369 0.08 2
  523.9719 0.05 1
  524.1294 0.02 0
  524.3465 0.10 2
  525.2397 0.03 1
  525.4411 0.15 3
  525.9332 0.04 1
  526.0999 0.16 3
  526.3531 0.09 2
  527.5093 0.17 4
  528.0814 0.05 1
  528.2727 0.24 5
  528.3900 0.11 2
  528.5388 0.19 4
  529.3609 0.15 3
  529.5276 0.17 4
  529.8337 0.06 1
  530.1619 0.06 1
  530.5989 0.08 2
  531.2596 0.09 2
  531.7953 0.05 1
  532.1653 0.03 1
  532.4025 0.04 1
  532.5386 0.04 1
  532.9766 0.09 2
  533.1892 0.10 2
  533.5328 0.05 1
  534.3901 0.10 2
  534.5509 0.01 0
  534.9089 0.07 2
  535.1003 0.08 2
  535.2722 0.08 2
  535.5630 0.09 2
  536.0896 0.10 2
  536.4954 0.08 2
  537.1794 0.08 2
  537.3555 0.08 2
  537.5043 0.09 2
  538.3007 0.16 3
  538.4180 0.13 3
  538.6844 0.07 2
  538.9005 0.03 1
  539.3098 0.12 3
  539.7990 0.17 4
  540.1198 0.06 1
  540.3044 0.09 2
  540.5146 0.07 2
  541.0175 0.09 2
  541.2166 0.21 5
  541.3604 0.16 3
  541.5383 0.20 4
  541.7715 0.10 2
  541.8727 0.03 1
  542.3672 0.93 20
  543.1272 0.06 1
  543.3765 0.14 3
  543.6072 0.13 3
  543.7757 0.03 1
  544.1298 0.04 1
  544.5851 0.03 1
  545.1316 0.06 1
  545.2627 0.08 2
  545.9701 0.07 2
  546.3514 0.17 4
  546.6486 0.10 2
  547.2291 0.52 11
  547.4752 0.40 9
  547.6506 0.12 3
  548.4492 0.09 2
  549.0051 0.03 1
  549.2086 0.06 1
  550.1257 0.03 1
  550.4373 0.01 0
  550.6528 0.09 2
  550.8299 0.08 2
  551.1398 0.04 1
  551.4345 0.15 3
  551.8279 0.05 1
  551.9650 0.04 1
  552.4965 0.03 1
  552.7647 0.03 1
  553.3149 0.22 5
  554.1533 0.13 3
  554.4322 0.15 3
  554.7171 0.08 2
  554.9739 0.09 2
  555.2860 0.23 5
  555.4587 0.26 6
  555.6041 0.20 4
  555.9639 0.08 2
  556.1561 0.20 4
  556.4554 0.25 5
  556.6306 0.17 4
  557.3732 1.17 25
  557.7168 0.41 9
  557.8673 0.15 3
  558.3011 0.23 5
  558.4917 0.55 12
  558.7809 0.10 2
  559.0803 0.07 2
  559.2249 0.04 1
  559.4257 0.02 0
  559.7021 0.09 2
  559.7941 0.07 2
  559.9719 0.06 1
  560.1871 0.08 2
  560.7401 0.08 2
  561.1058 0.09 2
  561.2088 0.10 2
  561.5508 0.10 2
  562.0060 0.08 2
  562.1838 0.10 2
  562.3063 0.08 2
  562.3957 0.05 1
  562.8832 0.10 2
  563.1487 0.08 2
  563.2916 0.06 1
  563.4023 0.05 1
  563.6465 0.14 3
  564.0345 0.07 2
  564.4455 0.03 1
  565.2267 0.19 4
  565.5041 0.06 1
  565.7126 0.20 4
  566.1645 0.08 2
  566.5373 0.07 2
  567.4360 0.16 3
  567.6037 0.17 4
  568.1774 0.03 1
  568.3502 0.24 5
  568.4693 0.05 1
  568.7204 0.05 1
  568.9477 0.07 2
  569.0703 0.11 2
  569.3316 0.18 4
  569.6270 0.18 4
  570.2722 0.07 2
  570.7881 0.10 2
  570.9158 0.18 4
  571.1644 0.12 3
  571.3389 0.15 3
  571.6931 0.01 0
  572.2694 1.03 22
  572.5146 0.62 13
  572.7292 0.16 3
  572.9276 0.13 3
  573.3039 0.12 3
  573.4197 0.05 1
  573.7986 0.09 2
  573.9390 0.07 2
  574.1579 0.06 1
  574.2830 0.05 1
  574.4720 0.10 2
  574.7957 0.11 2
  575.1890 0.09 2
  575.4105 0.07 2
  576.4766 0.13 3
  576.8582 0.10 2
  577.5045 0.11 2
  577.8427 0.07 2
  578.1007 0.06 1
  578.6509 0.20 4
  579.2565 0.29 6
  579.5963 0.25 5
  579.7318 0.10 2
  580.2360 0.11 2
  580.4924 0.11 2
  581.3663 0.44 9
  581.9465 0.12 3
  582.0862 0.05 1
  582.2191 0.13 3
  582.4627 0.12 3
  582.7217 0.12 3
  582.8495 0.11 2
  583.0847 0.16 3
  583.3522 0.26 6
  583.5916 0.35 8
  583.7483 0.14 3
  583.9255 0.09 2
  584.1147 0.17 4
  584.3677 0.19 4
  584.5228 0.04 1
  584.7392 0.15 3
  585.2427 0.31 7
  585.6014 0.22 5
  585.8332 0.11 2
  585.9704 0.14 3
  586.2772 0.16 3
  586.5226 0.16 3
  586.7228 0.19 4
  586.9733 0.26 6
  587.0798 0.13 3
  587.2375 0.11 2
  587.4283 0.11 2
  587.5571 0.06 1
  587.7778 0.14 3
  587.9099 0.08 2
  588.2686 0.11 2
  588.4493 0.16 3
  588.6121 0.07 2
  588.9930 0.07 2
  589.5001 0.07 2
  589.6782 0.11 2
  589.7941 0.10 2
  590.0345 0.11 2
  590.5561 0.17 4
  590.7751 0.06 1
  590.9439 0.08 2
  591.4502 0.11 2
  591.6820 0.30 6
  591.8099 0.10 2
  592.0102 0.12 3
  592.2787 0.09 2
  592.5651 0.12 3
  592.8856 0.22 5
  593.0587 0.15 3
  593.1976 0.17 4
  593.3178 0.19 4
  593.4977 0.03 1
  593.6417 0.09 2
  593.8071 0.16 3
  594.3817 1.19 26
  594.5070 0.66 14
  594.6562 0.27 6
  594.7917 0.23 5
  595.0176 0.10 2
  595.3459 0.13 3
  595.5863 0.02 0
  595.9197 0.05 1
  596.1004 0.05 1
  596.3784 0.21 5
  596.5779 0.15 3
  596.8720 0.06 1
  597.5362 0.44 9
  597.8124 0.10 2
  598.1262 0.14 3
  598.3931 0.23 5
  598.6293 0.29 6
  598.8118 0.28 6
  598.9721 0.06 1
  599.2654 0.23 5
  599.5630 0.26 6
  600.4031 1.31 28
  600.6827 0.68 15
  601.4366 0.84 18
  601.9380 0.05 1
  602.1234 0.06 1
  602.3547 0.04 1
  602.5018 0.05 1
  602.8708 0.14 3
  603.3207 0.20 4
  603.6499 0.05 1
  603.9297 0.24 5
  604.2631 0.25 5
  604.4187 0.16 3
  604.6075 0.27 6
  604.7989 0.27 6
  605.0234 0.16 3
  605.2156 0.08 2
  605.4113 0.29 6
  605.7268 0.16 3
  605.9760 0.16 3
  606.2567 0.29 6
  606.6021 0.31 7
  607.0844 0.18 4
  607.5989 0.47 10
  607.9460 0.20 4
  608.4437 1.43 31
  608.7576 0.59 13
  609.0383 0.10 2
  609.3250 0.17 4
  609.4288 0.06 1
  609.7554 0.15 3
  610.0150 0.19 4
  610.1681 0.10 2
  610.3314 0.13 3
  610.4701 0.08 2
  610.6487 0.17 4
  610.9363 0.08 2
  611.2664 0.18 4
  611.5897 0.11 2
  612.0620 0.03 1
  612.4219 0.13 3
  612.6354 0.34 7
  612.9400 0.12 3
  613.4957 0.43 9
  613.7390 0.10 2
  614.4036 0.37 8
  614.7763 0.07 2
  615.2520 0.04 1
  615.5235 0.10 2
  616.6579 0.08 2
  617.1523 0.10 2
  617.4494 0.12 3
  617.9745 0.09 2
  618.4316 0.06 1
  619.1244 0.08 2
  619.5542 0.09 2
  619.8649 0.28 6
  620.0820 0.30 6
  620.4437 0.70 15
  620.9715 0.16 3
  621.5069 1.58 34
  621.7665 0.70 15
  621.9019 0.39 8
  622.5497 0.67 14
  622.8826 0.21 5
  623.3253 1.07 23
  623.6284 1.00 22
  623.8965 0.47 10
  624.1136 0.14 3
  624.3690 0.38 8
  624.6747 0.06 1
  624.8083 0.16 3
  624.9786 0.16 3
  625.5831 0.47 10
  625.9152 0.23 5
  626.1707 0.11 2
  626.5377 0.35 8
  626.6943 0.23 5
  626.8859 0.02 0
  627.0766 0.06 1
  627.3210 0.28 6
  627.4717 0.27 6
  627.7050 0.19 4
  627.8625 0.10 2
  628.3740 0.22 5
  628.6020 0.03 1
  628.7313 0.10 2
  629.0384 0.08 2
  629.3948 0.32 7
  629.6254 0.22 5
  629.7990 0.11 2
  629.9461 0.06 1
  630.1843 0.12 3
  630.3307 0.11 2
  630.6667 0.08 2
  631.0436 0.16 3
  631.4537 0.11 2
  631.7574 0.08 2
  631.9276 0.03 1
  632.0621 0.06 1
  632.2875 0.07 2
  632.6313 0.24 5
  632.7742 0.08 2
  633.2618 0.09 2
  633.4609 0.07 2
  633.7161 0.20 4
  633.9689 0.04 1
  634.4420 0.06 1
  634.9747 0.19 4
  635.5031 0.08 2
  635.6401 0.04 1
  636.0172 0.09 2
  636.1508 0.18 4
  636.2725 0.10 2
  636.4392 0.12 3
  636.5729 0.16 3
  636.7422 0.13 3
  637.0630 0.15 3
  637.2817 0.19 4
  637.4418 0.07 2
  637.8877 0.05 1
  638.0801 0.18 4
  638.1865 0.08 2
  638.6342 0.11 2
  638.8954 0.34 7
  639.0784 0.21 5
  639.4998 1.01 22
  640.4658 3.84 83
  640.8216 1.06 23
  641.4481 8.80 190
  642.0652 0.29 6
  642.4304 0.60 13
  642.6679 0.20 4
  642.9225 0.22 5
  643.1617 0.20 4
  643.3949 0.10 2
  643.5729 0.15 3
  643.7176 0.15 3
  644.2905 0.07 2
  644.4454 0.10 2
  644.6217 0.06 1
  644.8873 0.08 2
  645.0338 0.07 2
  645.2559 0.11 2
  645.5208 0.10 2
  645.7140 0.08 2
  645.8715 0.20 4
  646.2001 0.10 2
  646.4896 0.18 4
  646.6489 0.09 2
  646.8464 0.07 2
  647.0269 0.13 3
  647.3283 0.02 0
  647.6033 0.13 3
  647.8008 0.09 2
  648.7239 0.05 1
  649.1036 0.11 2
  649.2144 0.07 2
  649.5788 0.12 3
  649.8905 0.04 1
  650.0855 0.18 4
  650.5820 0.05 1
  650.8570 0.11 2
  650.9916 0.11 2
  651.0997 0.05 1
  651.3297 0.10 2
  651.5212 0.07 2
  651.9318 0.04 1
  652.2401 0.13 3
  652.5109 0.13 3
  652.6982 0.09 2
  653.0627 0.11 2
  653.3617 0.12 3
  653.5381 0.12 3
  653.6479 0.12 3
  653.8558 0.18 4
  653.9921 0.19 4
  654.1591 0.19 4
  654.3423 0.08 2
  654.7044 0.03 1
  655.2088 0.08 2
  655.5181 0.20 4
  655.6339 0.06 1
  656.4306 1.49 32
  656.7731 0.87 19
  657.4650 4.85 105
  657.6832 2.69 58
  658.5191 1.54 33
  658.9153 0.33 7
  659.0227 0.13 3
  659.2468 0.04 1
  659.4019 0.13 3
  659.5443 0.07 2
  659.7496 0.16 3
  659.9192 0.06 1
  660.1007 0.06 1
  660.3853 0.14 3
  660.6537 0.04 1
  660.8285 0.07 2
  660.9810 0.06 1
  661.1719 0.03 1
  661.4549 0.05 1
  661.5870 0.12 3
  661.7906 0.10 2
  662.2398 0.09 2
  662.3583 0.12 3
  662.8569 0.09 2
  663.0145 0.10 2
  663.4645 0.18 4
  663.5617 0.07 2
  663.7484 0.14 3
  664.0288 0.10 2
  664.6067 0.27 6
  664.8939 0.12 3
  665.0312 0.07 2
  665.2630 0.20 4
  665.5759 0.06 1
  665.7480 0.17 4
  666.1111 0.15 3
  666.3021 0.10 2
  666.4555 0.13 3
  666.7351 0.09 2
  666.9874 0.12 3
  667.1170 0.10 2
  667.4111 0.36 8
  667.8774 0.59 13
  668.0948 0.29 6
  668.2713 0.21 5
  668.4460 0.25 5
  668.7137 0.17 4
  669.0598 0.20 4
  669.5526 0.41 9
  669.7453 0.23 5
  670.6746 0.71 15
  671.1742 0.55 12
  671.5707 0.65 14
  672.0192 0.41 9
  672.3064 0.54 12
  672.6191 0.75 16
  672.9191 0.56 12
  674.2636 0.76 16
  675.4356 0.72 16
  676.0339 0.77 17
  676.3391 0.76 16
  676.9485 0.92 20
  677.3132 0.80 17
  678.2286 1.11 24
  679.2512 1.38 30
  679.8828 1.11 24
  680.5816 1.72 37
  682.6381 30.03 648
  683.7017 3.62 78
  684.6012 1.44 31
  685.6113 7.81 168
  686.1326 0.70 15
  686.6801 0.89 19
  687.4573 0.70 15
  687.8187 0.73 16
  688.2073 0.67 14
  688.6257 0.43 9
  689.0969 0.72 16
  689.4965 0.69 15
  689.8316 0.44 9
  691.8770 1.07 23
  693.1960 1.69 36
  700.5203 99.97 999
  702.1057 20.87 450
  703.3045 8.47 183
  704.5594 4.56 98
  705.4839 2.78 60
//
