ACCESSION: MSBNK-Kyoto_Univ-CA000141
RECORD_TITLE: Adonixanthin; FAB-EBEB; MS2; m/z: 582.41; [M]*+
DATE: 2016.01.19 (Created 2007.03.15, modified 2011.05.10)
AUTHORS: Akimoto N, Graduate School of Pharmaceutical Sciences, Kyoto University and Maoka T, Research Institute for Production Development
LICENSE: CC BY-SA
COMMENT: Profile spectrum of this record is given as a JPEG file.
COMMENT: [Profile] CA000141.jpg
CH$NAME: Adonixanthin
CH$COMPOUND_CLASS: Natural Product; Carotenoid
CH$FORMULA: C40H54O3
CH$EXACT_MASS: 582.40730
CH$SMILES: CC(=C1C=CC(=CC=CC(C)=CC=CC=C(C=CC=C(C)C=CC(=C(C)2)C(C)(C)CC(C2)O)C)C)C(=O)C(O)CC1(C)C
CH$IUPAC: InChI=1S/C40H54O3/c1-28(17-13-19-30(3)21-23-35-32(5)25-34(41)26-39(35,7)8)15-11-12-16-29(2)18-14-20-31(4)22-24-36-33(6)38(43)37(42)27-40(36,9)10/h11-24,34,37,41-42H,25-27H2,1-10H3/b12-11+,17-13+,18-14+,23-21+,24-22+,28-15+,29-16+,30-19+,31-20+/t34-,37+/m1/s1
CH$LINK: CHEMSPIDER 8479212
CH$LINK: PUBCHEM CID:10303746
CH$LINK: INCHIKEY YECXHLPYMXGEBI-ZNQVSPAOSA-N
AC$INSTRUMENT: JMS-HX/HX 110A, JEOL
AC$INSTRUMENT_TYPE: FAB-EBEB
AC$MASS_SPECTROMETRY: MS_TYPE MS2
AC$MASS_SPECTROMETRY: ION_MODE POSITIVE
AC$MASS_SPECTROMETRY: ATOM_GUN_CURRENT 5 mA
AC$MASS_SPECTROMETRY: BOMBARDMENT 6 kV xenon
AC$MASS_SPECTROMETRY: COLLISION_ENERGY 3 kV
AC$MASS_SPECTROMETRY: COLLISION_GAS Ar
AC$MASS_SPECTROMETRY: GAS_PRESSURE adjust to attenuate the intensity of the precursor ion by 30 %
AC$MASS_SPECTROMETRY: IONIZATION FAB
AC$MASS_SPECTROMETRY: MATRIX 1-2 uL m-NBA
AC$MASS_SPECTROMETRY: PROBE_TIP stainless-steel
MS$FOCUSED_ION: BASE_PEAK 582.3187
MS$FOCUSED_ION: PRECURSOR_M/Z 582.41
MS$FOCUSED_ION: PRECURSOR_TYPE [M]+*
PK$SPLASH: splash10-001l-2920030000-c012b3623cebe46ea6ed
PK$NUM_PEAK: 1864
PK$PEAK: m/z int. rel.int.
  0.0216 0.01 0
  0.1387 0.01 0
  0.4079 0.01 0
  0.8079 0.01 0
  1.2434 0.01 0
  1.9181 0.01 0
  3.7139 0.01 0
  4.3834 0.01 0
  5.1805 0.01 0
  5.4777 0.01 0
  6.1523 0.01 0
  7.0587 0.01 0
  7.9327 0.01 0
  8.1914 0.01 0
  8.6880 0.01 0
  10.5886 0.01 0
  14.1431 0.01 0
  14.9873 0.13 1
  18.0216 0.01 0
  24.6251 0.02 0
  25.3968 0.01 0
  25.9577 0.17 2
  26.8150 0.02 0
  26.9629 1.55 15
  27.9684 0.13 1
  28.9739 1.78 18
  29.9551 0.06 1
  30.9417 0.21 2
  32.4917 0.01 0
  33.6228 0.12 1
  36.5062 0.01 0
  36.9528 0.26 3
  37.3172 0.07 1
  37.5173 0.01 0
  37.9478 0.53 5
  38.0707 0.09 1
  38.9540 3.37 34
  39.1803 0.06 1
  39.3647 0.02 0
  39.4521 0.01 0
  39.5494 0.10 1
  39.6569 0.04 0
  39.9738 0.44 4
  40.0851 0.01 0
  40.5906 0.02 0
  40.9750 7.69 77
  41.9623 0.20 2
  42.9675 5.22 52
  43.9944 0.04 0
  44.9832 0.10 1
  46.9448 0.03 0
  48.9468 0.19 2
  49.3683 0.03 0
  49.9499 1.44 14
  50.4453 0.06 1
  50.9563 3.63 36
  51.1885 0.03 0
  51.2770 0.06 1
  51.9629 1.22 12
  52.9661 5.29 53
  53.9733 0.33 3
  54.3374 0.04 0
  54.9773 10.84 108
  55.9584 0.24 2
  56.1563 0.01 0
  56.9922 4.85 48
  57.3064 0.04 0
  57.9429 0.08 1
  58.9823 0.91 9
  59.9171 0.08 1
  60.7023 0.02 0
  60.9473 0.07 1
  61.0674 0.10 1
  61.9459 0.82 8
  62.1158 0.07 1
  62.9594 2.54 25
  63.1116 0.03 0
  63.3070 0.05 0
  63.9604 0.54 5
  64.0954 0.06 1
  64.5618 0.01 0
  64.7723 0.02 0
  64.9684 5.09 51
  65.6827 0.01 0
  65.9720 1.20 12
  66.3872 0.05 0
  66.9774 6.74 67
  67.1797 0.07 1
  67.9877 0.49 5
  68.9813 8.12 81
  69.2411 0.01 0
  69.9860 0.29 3
  70.1992 0.01 0
  70.5841 0.01 0
  70.9708 2.16 22
  71.7064 0.03 0
  71.9866 0.03 0
  72.9649 0.14 1
  73.9342 0.64 6
  74.2531 0.07 1
  74.9450 1.09 11
  75.0860 0.13 1
  75.2131 0.03 0
  75.3566 0.07 1
  75.4406 0.05 0
  75.9550 0.55 5
  76.0591 0.07 1
  76.1368 0.02 0
  76.2837 0.02 0
  76.5078 0.02 0
  76.6723 0.17 2
  76.9560 15.31 153
  77.2228 0.18 2
  77.3895 0.14 1
  77.6185 0.17 2
  77.7384 0.03 0
  77.9576 3.65 36
  78.2088 0.12 1
  78.3754 0.03 0
  78.4555 0.02 0
  78.9682 13.46 135
  79.6537 0.02 0
  79.9812 1.68 17
  80.9854 14.35 143
  81.1616 0.16 2
  81.3219 0.01 0
  81.5708 0.04 0
  81.9828 0.55 5
  82.3703 0.10 1
  82.9807 3.52 35
  83.2426 0.04 0
  83.3674 0.01 0
  83.9884 0.42 4
  84.0709 0.07 1
  84.9826 6.52 65
  85.2424 0.03 0
  85.9344 0.57 6
  86.4933 0.10 1
  86.9566 0.93 9
  87.6962 0.12 1
  87.9590 0.28 3
  88.3381 0.06 1
  88.6091 0.13 1
  88.9409 1.36 14
  89.1730 0.31 3
  89.3688 0.06 1
  89.4992 0.23 2
  89.9331 0.76 8
  90.3243 0.22 2
  90.4525 0.04 0
  90.5942 0.10 1
  90.9671 30.36 303
  91.3258 0.17 2
  91.5000 0.16 2
  91.6664 0.06 1
  91.9719 2.55 25
  92.4493 0.05 0
  92.5861 0.04 0
  92.7199 0.05 0
  92.9876 18.28 183
  93.1846 0.22 2
  93.4128 0.09 1
  93.7000 0.03 0
  93.9928 1.07 11
  94.1540 0.12 1
  94.4280 0.13 1
  94.6591 0.05 0
  95.0026 10.92 109
  95.4170 0.03 0
  95.6702 0.03 0
  95.8558 0.08 1
  96.0169 0.53 5
  96.3337 0.05 0
  96.8312 0.16 2
  96.9933 1.81 18
  97.2176 0.05 0
  97.9612 0.27 3
  98.5018 0.01 0
  98.9638 0.41 4
  99.9777 0.04 0
  100.2214 0.04 0
  100.5969 0.10 1
  100.9719 0.61 6
  101.2690 0.06 1
  101.3945 0.05 0
  101.9799 1.68 17
  102.1947 0.05 0
  102.3797 0.09 1
  102.5311 0.09 1
  102.7149 0.20 2
  102.9774 6.48 65
  103.2425 0.06 1
  103.4460 0.13 1
  103.5739 0.03 0
  103.9855 2.32 23
  104.1224 0.16 2
  104.3136 0.19 2
  104.4274 0.07 1
  104.9874 35.33 353
  105.4708 0.13 1
  105.5836 0.02 0
  105.9935 3.68 37
  106.1748 0.07 1
  106.4270 0.04 0
  106.6185 0.07 1
  107.0034 17.14 171
  107.4629 0.05 0
  107.7164 0.07 1
  107.9995 0.87 9
  108.3719 0.10 1
  108.5152 0.10 1
  108.6453 0.08 1
  109.0094 9.68 97
  109.4549 0.10 1
  109.5606 0.13 1
  109.8194 0.08 1
  110.0090 0.41 4
  110.2138 0.06 1
  110.6684 0.04 0
  110.9851 1.78 18
  111.5388 0.01 0
  111.8092 0.02 0
  112.0083 0.21 2
  112.1740 0.03 0
  112.4174 0.04 0
  112.5459 0.11 1
  112.9674 0.92 9
  113.3271 0.21 2
  113.5279 0.09 1
  113.5983 0.04 0
  113.9513 0.48 5
  114.1207 0.17 2
  114.2900 0.15 1
  114.4594 0.06 1
  114.9534 15.96 159
  115.2621 0.11 1
  115.4254 0.21 2
  115.5093 0.12 1
  115.6282 0.12 1
  115.9569 5.72 57
  116.2617 0.12 1
  116.4297 0.16 2
  116.9633 14.58 146
  117.4062 0.17 2
  117.6007 0.06 1
  117.9731 2.77 28
  118.3478 0.17 2
  118.6408 0.18 2
  118.9755 33.73 337
  119.3322 0.08 1
  119.4869 0.04 0
  119.6103 0.04 0
  119.9839 3.72 37
  120.2904 0.05 0
  120.4210 0.06 1
  120.6452 0.06 1
  120.9815 11.43 114
  121.2391 0.01 0
  121.4731 0.03 0
  121.7855 0.06 1
  121.9754 1.31 13
  122.1179 0.09 1
  122.2148 0.05 0
  122.4395 0.31 3
  122.7439 0.03 0
  122.9758 3.25 32
  123.4257 0.08 1
  123.5492 0.09 1
  123.7299 0.12 1
  123.9602 0.92 9
  124.3734 0.05 0
  124.9466 1.51 15
  125.3429 0.04 0
  125.6847 0.10 1
  125.9465 0.35 3
  126.2092 0.10 1
  126.3653 0.04 0
  126.5054 0.10 1
  126.9374 5.42 54
  127.1229 0.38 4
  127.3051 0.38 4
  127.5462 0.24 2
  127.9380 16.63 166
  128.2854 0.20 2
  128.4479 0.23 2
  128.9470 20.20 202
  129.2839 0.12 1
  129.4348 0.20 2
  129.5340 0.09 1
  129.6377 0.06 1
  129.9554 8.25 82
  130.1635 0.13 1
  130.4509 0.17 2
  130.9526 18.74 187
  131.2020 0.21 2
  131.3208 0.12 1
  131.5287 0.09 1
  131.6320 0.04 0
  131.9563 4.69 47
  132.3685 0.21 2
  132.5396 0.18 2
  132.9612 18.03 180
  133.2274 0.17 2
  133.4605 0.14 1
  133.6526 0.06 1
  133.9614 2.37 24
  134.2221 0.05 0
  134.3472 0.16 2
  134.9654 11.70 117
  135.2975 0.11 1
  135.4509 0.05 0
  135.9674 1.07 11
  136.2533 0.09 1
  136.4698 0.01 0
  136.9561 2.83 28
  137.1499 0.11 1
  137.2867 0.05 0
  137.5094 0.07 1
  137.9484 0.44 4
  138.0717 0.11 1
  138.1556 0.04 0
  138.5686 0.04 0
  138.9275 2.82 28
  139.1420 0.19 2
  139.2785 0.13 1
  139.4558 0.06 1
  139.6475 0.24 2
  139.9535 0.93 9
  140.2058 0.27 3
  140.3201 0.10 1
  140.5199 0.34 3
  140.9380 14.25 142
  141.1734 0.10 1
  141.3313 0.03 0
  141.4766 0.11 1
  141.9452 13.83 138
  142.2138 0.11 1
  142.4271 0.18 2
  142.5476 0.15 1
  142.9515 21.06 210
  143.2190 0.22 2
  143.4398 0.12 1
  143.5447 0.10 1
  143.9654 8.48 85
  144.3282 0.31 3
  144.4503 0.12 1
  144.5632 0.27 3
  144.9705 24.22 242
  145.2214 0.17 2
  145.4077 0.26 3
  145.5451 0.16 2
  145.9819 3.99 40
  146.2404 0.15 1
  146.4982 0.12 1
  146.9837 9.56 96
  147.2074 0.12 1
  147.2901 0.09 1
  147.5654 0.19 2
  147.9706 1.60 16
  148.2634 0.08 1
  148.4317 0.12 1
  148.6020 0.10 1
  148.7511 0.18 2
  148.9937 4.25 42
  149.2575 0.07 1
  149.3510 0.06 1
  149.4677 0.05 0
  149.6488 0.07 1
  149.9553 0.55 5
  150.2619 0.09 1
  150.4404 0.27 3
  150.5493 0.11 1
  150.6781 0.14 1
  150.9616 2.35 23
  151.2027 0.28 3
  151.5243 0.24 2
  151.9590 5.45 54
  152.3233 0.23 2
  152.5381 0.25 2
  152.6099 0.15 1
  152.9618 9.03 90
  153.3259 0.14 1
  153.5468 0.12 1
  153.9783 4.37 44
  154.2108 0.09 1
  154.2987 0.06 1
  154.4692 0.18 2
  154.9797 16.11 161
  155.2377 0.20 2
  155.5191 0.29 3
  155.9993 10.34 103
  156.2943 0.12 1
  157.0025 20.70 207
  157.3425 0.11 1
  157.5161 0.15 1
  158.0153 4.66 47
  158.3568 0.13 1
  158.5581 0.19 2
  159.0189 11.73 117
  159.3085 0.04 0
  159.5240 0.02 0
  159.6418 0.08 1
  160.0159 2.83 28
  160.3300 0.19 2
  160.4672 0.12 1
  161.0266 5.96 60
  161.3301 0.12 1
  161.5151 0.06 1
  161.6123 0.04 0
  162.0025 1.27 13
  162.3083 0.04 0
  162.4935 0.09 1
  162.9933 2.25 22
  163.5525 0.21 2
  164.0017 1.06 11
  164.3147 0.14 1
  164.5398 0.15 1
  164.9982 12.63 126
  165.4136 0.13 1
  166.0034 4.59 46
  166.2860 0.23 2
  166.5303 0.14 1
  167.0250 10.27 103
  167.3226 0.12 1
  168.0170 4.14 41
  168.3600 0.15 1
  168.4894 0.13 1
  169.0387 13.76 138
  169.3981 0.14 1
  170.0333 5.97 60
  170.3056 0.11 1
  170.5228 0.22 2
  171.0346 11.10 111
  171.3926 0.11 1
  171.5501 0.15 1
  171.6625 0.11 1
  172.0401 2.49 25
  172.3128 0.10 1
  172.5256 0.10 1
  173.0416 8.56 86
  173.3387 0.14 1
  173.5732 0.24 2
  174.0256 1.06 11
  174.3290 0.05 0
  175.0392 4.57 46
  175.3564 0.07 1
  175.4913 0.10 1
  175.6648 0.16 2
  176.0043 1.14 11
  176.3156 0.04 0
  176.5236 0.08 1
  177.0147 1.94 19
  177.2971 0.25 2
  177.9805 5.94 59
  178.3943 0.28 3
  178.5768 0.28 3
  178.9996 9.87 99
  179.3014 0.13 1
  179.3812 0.06 1
  179.4861 0.12 1
  180.0113 4.41 44
  180.2381 0.26 3
  180.3905 0.10 1
  181.0129 11.65 116
  181.2737 0.09 1
  181.4926 0.16 2
  181.6647 0.08 1
  182.0287 5.39 54
  182.4368 0.21 2
  183.0315 12.19 122
  183.3083 0.07 1
  183.5607 0.20 2
  184.0323 3.04 30
  184.2719 0.18 2
  184.5258 0.06 1
  185.0263 7.37 74
  185.3211 0.16 2
  185.5011 0.05 0
  186.0324 1.62 16
  186.2214 0.16 2
  186.3389 0.12 1
  186.6775 0.12 1
  187.0317 3.74 37
  187.2548 0.16 2
  187.4595 0.06 1
  187.9813 1.28 13
  188.2092 0.26 3
  188.3555 0.05 0
  189.0015 4.11 41
  189.4120 0.09 1
  189.5053 0.10 1
  190.0005 1.80 18
  190.1967 0.27 3
  190.4359 0.12 1
  190.6730 0.26 3
  191.0001 4.99 50
  191.3137 0.10 1
  191.5285 0.08 1
  192.0031 4.26 43
  192.4778 0.15 1
  193.0059 8.68 87
  193.2639 0.11 1
  193.5000 0.16 2
  193.6366 0.10 1
  194.0216 4.75 47
  194.2463 0.20 2
  194.5140 0.22 2
  195.0147 12.07 121
  195.3269 0.24 2
  195.4670 0.14 1
  195.5449 0.07 1
  196.0220 3.57 36
  196.3782 0.23 2
  197.0333 8.66 87
  197.2480 0.49 5
  197.4245 0.20 2
  197.6195 0.10 1
  197.9945 1.62 16
  198.4455 0.24 2
  198.7474 0.15 1
  199.0472 3.94 39
  199.3725 0.09 1
  199.6129 0.08 1
  200.0122 1.05 10
  200.2732 0.19 2
  200.4301 0.15 1
  201.0284 3.12 31
  201.2258 0.36 4
  201.3246 0.14 1
  201.5597 0.32 3
  201.9869 2.71 27
  202.2948 0.05 0
  203.0124 4.58 46
  203.2903 0.18 2
  203.5998 0.27 3
  203.9863 1.58 16
  204.2567 0.17 2
  204.4325 0.13 1
  204.5019 0.05 0
  204.6502 0.16 2
  205.0183 4.69 47
  205.3432 0.14 1
  205.4407 0.11 1
  206.0193 3.90 39
  206.2763 0.14 1
  206.4619 0.23 2
  206.6158 0.14 1
  207.0276 7.62 76
  207.4477 0.14 1
  207.5784 0.05 0
  208.0220 3.21 32
  208.2848 0.12 1
  208.4320 0.18 2
  208.5621 0.09 1
  209.0307 7.41 74
  209.3308 0.12 1
  209.5104 0.11 1
  209.6398 0.05 0
  210.0440 2.51 25
  210.2974 0.28 3
  210.5577 0.13 1
  211.0516 5.09 51
  211.4890 0.10 1
  211.7275 0.16 2
  212.0576 1.03 10
  212.2954 0.15 1
  212.4008 0.13 1
  213.0206 2.31 23
  213.3923 0.15 1
  213.5723 0.07 1
  214.0186 0.51 5
  214.2124 0.19 2
  214.4574 0.18 2
  214.6271 0.20 2
  215.0246 3.64 36
  215.3711 0.05 0
  215.5312 0.10 1
  216.0124 1.56 16
  216.1271 0.67 7
  216.2762 0.05 0
  216.3591 0.03 0
  216.5179 0.15 1
  217.0325 3.40 34
  217.2570 0.18 2
  217.3855 0.07 1
  217.6218 0.14 1
  218.0247 1.82 18
  218.2507 0.19 2
  218.4076 0.12 1
  219.0422 3.83 38
  219.5020 0.19 2
  220.0325 2.94 29
  220.4047 0.10 1
  220.4849 0.08 1
  221.0447 5.06 51
  221.4371 0.14 1
  221.5091 0.08 1
  221.7590 0.08 1
  222.0844 1.91 19
  222.3315 0.14 1
  222.5150 0.17 2
  222.6667 0.21 2
  223.0614 4.53 45
  223.5096 0.13 1
  224.0500 1.33 13
  224.4609 0.06 1
  224.6155 0.08 1
  225.0819 2.08 21
  225.3426 0.11 1
  225.4903 0.14 1
  226.0069 0.95 9
  226.4243 0.27 3
  226.6248 0.10 1
  226.7545 0.10 1
  227.0715 1.72 17
  227.2048 0.61 6
  227.3831 0.06 1
  227.5579 0.05 0
  227.7196 0.21 2
  228.0208 1.18 12
  228.1992 0.35 3
  228.5726 0.20 2
  229.0656 2.81 28
  229.3593 0.13 1
  229.5350 0.07 1
  229.7496 0.02 0
  230.0587 1.50 15
  230.5195 0.04 0
  230.6477 0.10 1
  231.0600 3.08 31
  231.5847 0.28 3
  232.0852 1.80 18
  232.4159 0.11 1
  232.5601 0.10 1
  233.0837 4.17 42
  233.3126 0.29 3
  233.4825 0.07 1
  234.0778 1.46 15
  234.3484 0.08 1
  234.5135 0.09 1
  235.0639 3.36 34
  235.3380 0.10 1
  235.5102 0.12 1
  235.6837 0.10 1
  235.8198 0.15 1
  236.1107 1.05 10
  236.3670 0.20 2
  236.4572 0.09 1
  236.5815 0.10 1
  237.0872 3.26 33
  237.3678 0.16 2
  237.4658 0.08 1
  237.5936 0.05 0
  237.8382 0.05 0
  238.1001 0.62 6
  238.4121 0.25 2
  238.6519 0.25 2
  239.0696 1.97 20
  239.3963 0.05 0
  239.6035 0.07 1
  239.7280 0.17 2
  240.0311 0.63 6
  240.1501 0.34 3
  240.2801 0.09 1
  240.4282 0.05 0
  240.6146 0.23 2
  240.7794 0.22 2
  241.0883 1.31 13
  241.4438 0.08 1
  241.6268 0.11 1
  242.0686 1.10 11
  242.3497 0.08 1
  242.5217 0.08 1
  243.0639 1.49 15
  243.4106 0.11 1
  243.6396 0.27 3
  244.0901 0.99 10
  244.7532 0.31 3
  245.0791 2.70 27
  245.5592 0.23 2
  245.7124 0.12 1
  246.0936 1.16 12
  246.5117 0.10 1
  246.7341 0.11 1
  247.0833 3.48 35
  247.5044 0.04 0
  247.7540 0.20 2
  248.1005 0.95 9
  248.3279 0.12 1
  248.5713 0.16 2
  249.0958 2.31 23
  249.4683 0.23 2
  249.6030 0.08 1
  249.7523 0.11 1
  250.0809 0.93 9
  250.7027 0.10 1
  251.0796 1.40 14
  251.5571 0.12 1
  252.0500 0.80 8
  252.2113 0.40 4
  252.3370 0.20 2
  252.5437 0.09 1
  252.6925 0.10 1
  252.8433 0.30 3
  253.0899 1.21 12
  253.2890 0.27 3
  253.4908 0.04 0
  253.8954 0.16 2
  254.1049 0.48 5
  254.2363 0.26 3
  254.4012 0.11 1
  254.5647 0.08 1
  255.0735 1.68 17
  255.5111 0.07 1
  255.6341 0.04 0
  255.8362 0.36 4
  256.0599 0.70 7
  256.3954 0.10 1
  256.4989 0.04 0
  256.6750 0.16 2
  257.0881 2.16 22
  257.3761 0.15 1
  257.5753 0.08 1
  257.7501 0.02 0
  258.0871 1.01 10
  258.5766 0.08 1
  258.7171 0.03 0
  259.1053 2.06 21
  259.4473 0.18 2
  259.6838 0.12 1
  260.0874 0.63 6
  260.3925 0.29 3
  260.5940 0.14 1
  261.0895 2.16 22
  261.4219 0.08 1
  261.6424 0.07 1
  261.7684 0.19 2
  262.0904 0.80 8
  262.2899 0.15 1
  262.4601 0.18 2
  262.6470 0.07 1
  262.7926 0.23 2
  263.1042 1.72 17
  263.2317 0.65 6
  263.3851 0.11 1
  263.5952 0.12 1
  264.1240 0.70 7
  264.6578 0.08 1
  264.7545 0.06 1
  265.0880 1.53 15
  265.4664 0.05 0
  265.8042 0.06 1
  266.1336 0.89 9
  266.6046 0.05 0
  267.0708 1.23 12
  267.4564 0.06 1
  267.7699 0.07 1
  267.8884 0.15 1
  268.1233 0.38 4
  268.3632 0.12 1
  268.7377 0.12 1
  269.1010 1.66 17
  269.3550 0.12 1
  269.5206 0.11 1
  269.6595 0.09 1
  269.7710 0.11 1
  269.9429 0.40 4
  270.1296 0.56 6
  270.4811 0.10 1
  270.5808 0.06 1
  271.0854 1.53 15
  271.5550 0.09 1
  272.1321 1.14 11
  272.2746 0.13 1
  272.4839 0.03 0
  273.1011 1.34 13
  273.7191 0.06 1
  274.1153 0.59 6
  274.6363 0.08 1
  275.1070 1.63 16
  275.4213 0.09 1
  275.5357 0.07 1
  275.7104 0.12 1
  276.0858 1.07 11
  276.4977 0.03 0
  277.1181 0.83 8
  277.4620 0.07 1
  278.0840 0.50 5
  278.3129 0.14 1
  278.5102 0.03 0
  278.6548 0.05 0
  278.7981 0.10 1
  278.9280 0.30 3
  279.0860 0.84 8
  279.2560 0.39 4
  279.4898 0.19 2
  279.7953 0.20 2
  280.0869 0.33 3
  280.4367 0.10 1
  280.5027 0.04 0
  280.7655 0.04 0
  280.8680 0.06 1
  281.0823 0.95 9
  281.2018 0.50 5
  281.5292 0.10 1
  281.7056 0.10 1
  281.8089 0.11 1
  281.9396 0.22 2
  282.1167 0.51 5
  282.6558 0.18 2
  283.1155 1.64 16
  283.5732 0.14 1
  283.7202 0.13 1
  283.8066 0.07 1
  284.1280 0.55 5
  284.6413 0.11 1
  285.1280 1.50 15
  285.5922 0.02 0
  286.0305 0.52 5
  286.2007 0.37 4
  286.5912 0.21 2
  287.1006 1.11 11
  287.4553 0.19 2
  287.6664 0.07 1
  288.1457 0.36 4
  288.3801 0.10 1
  288.6842 0.28 3
  289.0946 1.21 12
  289.3587 0.08 1
  289.5685 0.04 0
  289.8846 0.10 1
  290.0360 0.23 2
  290.2564 0.14 1
  290.6079 0.14 1
  290.7107 0.08 1
  291.0878 0.90 9
  291.2433 0.48 5
  291.4761 0.08 1
  291.6463 0.09 1
  291.7434 0.12 1
  291.8743 0.06 1
  292.0790 0.26 3
  292.2148 0.18 2
  292.3703 0.07 1
  292.6356 0.10 1
  292.7812 0.09 1
  292.9142 0.09 1
  293.0620 0.50 5
  293.1753 0.38 4
  293.3949 0.05 0
  293.8875 0.11 1
  294.0072 0.19 2
  294.1811 0.26 3
  294.3359 0.05 0
  294.7414 0.03 0
  295.1378 0.69 7
  295.7687 0.10 1
  296.0785 0.40 4
  296.2693 0.22 2
  296.4032 0.16 2
  296.5201 0.11 1
  297.1040 1.48 15
  297.4850 0.16 2
  297.5858 0.05 0
  297.8598 0.10 1
  298.1600 0.39 4
  298.3699 0.05 0
  298.5172 0.07 1
  298.6779 0.08 1
  299.0999 0.97 10
  299.6905 0.01 0
  299.9971 0.28 3
  300.1839 0.63 6
  300.6040 0.05 0
  301.1208 0.88 9
  301.8188 0.13 1
  302.0501 0.24 2
  302.3202 0.12 1
  302.5910 0.05 0
  302.7588 0.14 1
  302.8547 0.10 1
  303.1418 0.77 8
  303.5453 0.09 1
  304.1583 0.23 2
  304.3156 0.08 1
  304.5498 0.11 1
  304.7192 0.13 1
  304.9012 0.07 1
  305.1235 0.50 5
  305.2787 0.25 2
  305.9971 0.23 2
  306.2060 0.15 1
  306.3655 0.09 1
  307.0587 0.54 5
  307.2528 0.36 4
  307.8748 0.16 2
  308.1100 0.18 2
  308.2250 0.08 1
  308.4305 0.05 0
  308.7977 0.13 1
  309.1423 0.44 4
  309.7702 0.10 1
  309.9009 0.09 1
  310.1283 0.54 5
  310.4886 0.11 1
  310.8722 0.10 1
  311.1223 0.89 9
  311.5392 0.02 0
  312.1087 0.40 4
  312.3278 0.10 1
  312.6465 0.11 1
  312.8218 0.15 1
  313.0508 0.44 4
  313.2282 0.26 3
  313.3957 0.09 1
  314.0262 0.28 3
  314.2468 0.13 1
  314.3783 0.04 0
  314.5225 0.08 1
  314.7841 0.11 1
  315.0238 0.36 4
  315.1999 0.46 5
  315.7069 0.16 2
  315.8009 0.11 1
  316.1383 0.38 4
  316.5676 0.05 0
  316.8321 0.14 1
  317.0698 0.40 4
  317.2898 0.16 2
  317.6046 0.10 1
  317.7347 0.08 1
  317.9314 0.09 1
  318.1946 0.28 3
  319.1329 0.31 3
  319.3572 0.08 1
  319.5341 0.08 1
  319.9878 0.09 1
  320.1208 0.03 0
  320.2921 0.14 1
  320.6326 0.07 1
  320.8025 0.06 1
  321.1444 0.52 5
  321.3093 0.13 1
  321.6088 0.02 0
  321.7794 0.10 1
  322.1313 0.26 3
  322.3019 0.10 1
  323.1290 0.48 5
  323.5596 0.05 0
  323.7926 0.01 0
  324.1425 0.36 4
  324.3820 0.01 0
  324.8842 0.12 1
  325.1499 0.43 4
  325.3964 0.01 0
  325.6352 0.11 1
  326.1680 0.25 2
  326.4989 0.04 0
  326.9815 0.26 3
  327.1948 0.41 4
  327.3416 0.11 1
  327.4769 0.09 1
  327.5754 0.11 1
  328.1644 0.38 4
  328.6323 0.10 1
  328.7500 0.12 1
  328.8691 0.13 1
  329.1505 0.61 6
  329.2668 0.35 3
  329.3987 0.06 1
  329.8801 0.01 0
  330.1120 0.22 2
  330.2198 0.07 1
  330.3041 0.03 0
  331.1537 0.35 3
  332.1318 0.17 2
  332.4106 0.08 1
  332.7632 0.07 1
  333.2080 0.41 4
  333.3981 0.12 1
  334.0651 0.30 3
  334.2312 0.26 3
  334.5213 0.09 1
  335.0399 0.35 3
  335.1603 0.58 6
  335.2737 0.21 2
  335.5890 0.08 1
  335.6953 0.08 1
  335.8717 0.07 1
  336.1658 0.17 2
  336.3571 0.07 1
  336.4861 0.04 0
  336.7533 0.11 1
  337.2196 0.48 5
  337.3472 0.28 3
  337.5556 0.17 2
  337.8122 0.05 0
  338.1652 0.32 3
  338.3785 0.08 1
  338.7238 0.07 1
  339.1421 0.42 4
  339.3257 0.02 0
  339.4951 0.04 0
  339.6660 0.02 0
  340.0865 0.15 1
  340.2701 0.08 1
  340.8297 0.13 1
  340.9885 0.22 2
  341.2339 0.17 2
  341.6240 0.07 1
  341.9382 0.05 0
  342.1510 0.24 2
  342.7050 0.04 0
  342.9313 0.12 1
  343.1151 0.27 3
  343.2257 0.17 2
  343.3272 0.16 2
  343.4209 0.05 0
  343.8380 0.08 1
  344.1275 0.23 2
  344.3184 0.12 1
  344.8244 0.10 1
  344.9883 0.05 0
  345.2509 0.26 3
  345.4893 0.05 0
  345.6540 0.07 1
  346.1884 0.16 2
  346.7698 0.04 0
  347.1908 0.31 3
  347.7119 0.16 2
  347.8943 0.07 1
  348.2053 0.73 7
  348.3275 0.23 2
  348.6569 0.11 1
  348.9552 0.14 1
  349.2030 0.56 6
  349.3564 0.37 4
  349.8258 0.15 1
  350.1419 0.37 4
  350.5013 0.08 1
  351.1043 0.54 5
  351.2833 0.60 6
  351.5021 0.07 1
  351.7529 0.11 1
  351.9973 0.17 2
  352.2218 0.38 4
  352.3532 0.12 1
  352.4577 0.04 0
  352.7064 0.06 1
  352.8819 0.05 0
  353.1988 0.19 2
  353.3380 0.08 1
  353.7964 0.05 0
  354.1560 0.05 0
  354.3116 0.05 0
  354.6961 0.10 1
  355.0018 0.07 1
  355.2505 0.28 3
  355.4446 0.06 1
  355.5875 0.09 1
  355.9578 0.18 2
  356.1697 0.15 1
  356.3339 0.10 1
  356.4348 0.11 1
  356.5401 0.05 0
  356.8045 0.05 0
  356.9724 0.06 1
  357.2866 0.19 2
  357.6762 0.07 1
  358.1392 0.12 1
  359.2422 0.60 6
  359.5879 0.05 0
  360.1163 0.23 2
  360.3397 0.24 2
  360.9707 0.12 1
  361.2218 0.55 5
  361.5754 0.14 1
  361.7156 0.07 1
  361.9044 0.13 1
  362.2203 0.76 8
  362.4162 0.11 1
  362.7342 0.02 0
  363.2205 1.09 11
  363.6769 0.07 1
  364.0085 0.17 2
  364.2456 0.45 4
  364.3926 0.18 2
  364.6013 0.09 1
  364.7071 0.05 0
  365.2461 0.51 5
  365.3696 0.13 1
  365.9100 0.06 1
  366.0840 0.12 1
  366.3227 0.17 2
  366.7737 0.04 0
  367.1245 0.14 1
  367.2474 0.10 1
  367.5067 0.09 1
  367.7787 0.12 1
  367.9315 0.09 1
  368.1573 0.15 1
  368.4351 0.13 1
  368.6731 0.06 1
  368.9779 0.10 1
  369.0959 0.11 1
  369.2543 0.25 2
  369.3950 0.11 1
  369.6721 0.06 1
  369.9087 0.05 0
  370.0671 0.04 0
  370.1957 0.08 1
  370.2775 0.06 1
  371.1437 0.11 1
  371.4294 0.05 0
  371.9348 0.11 1
  372.1721 0.19 2
  372.3015 0.10 1
  373.2192 0.31 3
  373.3671 0.27 3
  373.7410 0.11 1
  373.8704 0.01 0
  374.2230 0.43 4
  374.4754 0.10 1
  374.6432 0.13 1
  375.1673 0.49 5
  375.4432 0.15 1
  375.6295 0.06 1
  375.9630 0.23 2
  376.1919 0.41 4
  376.3682 0.28 3
  376.7634 0.11 1
  376.9944 0.23 2
  377.2113 0.63 6
  377.3890 0.17 2
  377.5532 0.04 0
  377.7011 0.02 0
  378.1248 0.44 4
  378.3076 0.37 4
  378.4526 0.16 2
  378.6147 0.02 0
  379.1964 0.75 7
  379.4310 0.17 2
  379.5412 0.10 1
  379.9594 0.12 1
  380.2773 0.15 1
  380.3583 0.11 1
  381.0617 0.15 1
  381.2339 0.11 1
  381.3633 0.12 1
  381.5411 0.05 0
  383.1979 0.15 1
  384.0759 0.10 1
  384.2844 0.11 1
  384.6451 0.08 1
  384.8045 0.07 1
  384.9433 0.04 0
  385.4194 0.10 1
  386.2179 0.10 1
  386.4983 0.06 1
  386.8470 0.12 1
  387.0485 0.24 2
  387.2841 0.17 2
  387.7589 0.16 2
  388.1333 0.46 5
  388.2935 0.11 1
  388.4458 0.13 1
  388.6068 0.08 1
  389.2005 0.51 5
  389.3372 0.19 2
  390.1567 0.35 3
  390.9408 0.05 0
  391.1352 0.16 2
  391.3189 0.29 3
  391.5710 0.11 1
  392.1422 0.10 1
  392.6999 0.05 0
  393.0881 0.17 2
  393.2975 0.09 1
  393.9707 0.10 1
  394.1018 0.01 0
  394.3112 0.07 1
  394.5641 0.07 1
  394.9774 0.09 1
  395.2395 0.17 2
  395.4476 0.02 0
  395.7832 0.04 0
  395.9991 0.11 1
  396.3226 0.09 1
  396.6832 0.10 1
  397.0616 0.10 1
  397.2112 0.07 1
  397.6395 0.02 0
  397.9795 0.01 0
  398.3565 0.07 1
  398.6124 0.10 1
  398.7250 0.14 1
  398.8640 0.09 1
  399.1313 0.27 3
  399.2775 0.21 2
  400.1899 0.10 1
  400.4088 0.10 1
  401.2508 0.25 2
  401.4262 0.12 1
  401.6280 0.05 0
  401.8918 0.03 0
  402.2105 0.32 3
  402.4280 0.23 2
  402.8174 0.09 1
  403.0448 0.12 1
  403.1632 0.33 3
  403.2752 0.19 2
  403.3607 0.09 1
  403.6681 0.05 0
  403.9734 0.03 0
  404.1567 0.07 1
  404.3571 0.19 2
  404.4805 0.12 1
  404.8235 0.07 1
  405.1973 0.31 3
  405.4156 0.08 1
  405.7922 0.12 1
  406.6205 0.04 0
  407.1056 0.14 1
  407.3910 0.18 2
  407.5551 0.07 1
  408.1751 0.10 1
  408.7858 0.03 0
  409.0138 0.10 1
  409.2668 0.10 1
  409.6024 0.11 1
  409.6772 0.04 0
  409.8155 0.09 1
  410.1953 0.19 2
  410.3835 0.12 1
  411.0327 0.05 0
  411.2793 0.38 4
  411.5067 0.11 1
  412.2444 0.09 1
  412.7733 0.09 1
  412.8817 0.20 2
  413.1098 0.09 1
  413.3928 0.11 1
  414.0886 0.08 1
  414.2889 0.53 5
  414.8907 0.10 1
  414.9926 0.05 0
  415.2251 0.25 2
  415.4183 0.07 1
  416.0180 0.10 1
  416.2583 0.36 4
  416.5528 0.11 1
  416.9058 0.09 1
  417.1461 0.49 5
  417.3365 0.25 2
  417.4863 0.06 1
  417.7210 0.12 1
  418.2117 0.16 2
  418.3821 0.13 1
  418.9249 0.12 1
  419.0583 0.06 1
  419.3244 0.11 1
  419.4093 0.10 1
  419.8651 0.09 1
  420.0342 0.03 0
  420.1761 0.05 0
  420.4123 0.04 0
  420.6991 0.09 1
  421.0372 0.07 1
  421.2006 0.20 2
  422.1381 0.07 1
  422.2623 0.04 0
  422.4842 0.12 1
  423.4897 0.07 1
  423.6445 0.07 1
  424.0805 0.21 2
  424.2790 0.28 3
  424.4188 0.21 2
  424.4930 0.09 1
  425.0119 0.07 1
  425.1837 0.11 1
  425.3767 0.10 1
  425.4886 0.05 0
  425.7229 0.06 1
  425.8661 0.03 0
  426.0477 0.21 2
  426.3169 0.08 1
  427.1909 0.60 6
  427.5492 0.08 1
  428.2559 0.70 7
  429.1927 1.33 13
  429.3694 0.26 3
  429.9630 0.04 0
  430.2715 0.52 5
  430.4903 0.17 2
  430.6021 0.10 1
  430.6933 0.02 0
  430.9534 0.09 1
  431.2891 0.21 2
  431.6318 0.12 1
  431.8912 0.03 0
  432.0708 0.04 0
  432.2219 0.12 1
  432.3737 0.07 1
  433.2140 0.21 2
  433.6659 0.21 2
  433.7807 0.10 1
  434.1114 0.10 1
  434.2540 0.08 1
  434.3937 0.11 1
  434.6125 0.04 0
  434.9233 0.02 0
  435.2006 0.11 1
  435.4451 0.08 1
  435.5428 0.11 1
  435.6804 0.05 0
  436.0832 0.08 1
  436.2593 0.11 1
  436.7306 0.06 1
  437.0407 0.08 1
  437.2411 0.30 3
  437.3694 0.11 1
  437.5092 0.07 1
  437.6846 0.09 1
  437.8785 0.11 1
  438.2622 0.14 1
  438.6109 0.05 0
  438.9410 0.20 2
  439.2320 0.18 2
  439.8510 0.04 0
  439.9994 0.06 1
  440.1498 0.14 1
  440.3667 0.17 2
  440.7097 0.10 1
  440.8895 0.06 1
  441.1334 0.11 1
  441.3203 0.14 1
  441.5129 0.08 1
  441.6334 0.10 1
  441.7761 0.15 1
  442.2497 0.38 4
  442.4174 0.16 2
  442.6278 0.12 1
  442.8090 0.08 1
  443.1486 0.26 3
  443.3783 0.16 2
  443.5031 0.05 0
  443.7935 0.08 1
  443.9804 0.14 1
  444.0739 0.08 1
  444.2893 0.30 3
  444.4749 0.10 1
  444.8851 0.06 1
  445.2262 0.17 2
  445.3318 0.06 1
  445.5437 0.04 0
  445.8241 0.05 0
  446.0246 0.10 1
  446.1866 0.28 3
  446.3650 0.12 1
  446.7675 0.08 1
  447.0629 0.11 1
  447.3156 0.20 2
  447.4248 0.11 1
  447.5782 0.06 1
  447.7973 0.11 1
  448.2784 0.16 2
  448.3604 0.07 1
  448.5296 0.08 1
  448.7080 0.05 0
  449.0135 0.17 2
  449.2747 0.20 2
  449.4239 0.08 1
  449.6737 0.05 0
  449.8451 0.12 1
  450.0071 0.10 1
  450.2626 0.31 3
  450.4768 0.08 1
  450.7888 0.11 1
  451.1878 0.19 2
  451.3506 0.14 1
  451.4477 0.18 2
  451.5176 0.08 1
  451.7133 0.14 1
  451.9189 0.24 2
  452.1202 0.29 3
  452.2223 0.09 1
  452.3801 0.06 1
  452.5493 0.17 2
  452.8285 0.11 1
  452.9234 0.11 1
  453.0634 0.06 1
  453.3390 0.39 4
  453.5446 0.09 1
  453.6874 0.15 1
  454.0730 0.64 6
  454.6136 0.91 9
  455.2320 1.07 11
  455.4370 0.57 6
  455.5934 0.48 5
  455.8741 0.31 3
  456.1069 0.62 6
  456.2312 0.28 3
  456.3840 0.49 5
  456.4868 0.12 1
  456.6090 0.18 2
  456.7140 0.10 1
  456.9475 0.08 1
  457.5904 0.10 1
  457.7504 0.15 1
  458.0061 0.11 1
  458.1396 0.07 1
  458.3297 0.18 2
  458.4718 0.07 1
  458.5968 0.08 1
  458.7476 0.04 0
  458.9662 0.04 0
  459.2047 0.25 2
  459.3476 0.17 2
  459.5905 0.23 2
  459.7477 0.13 1
  459.8577 0.06 1
  460.2299 0.30 3
  460.5309 0.29 3
  460.8725 0.28 3
  461.0650 0.18 2
  461.2911 0.23 2
  461.6398 0.07 1
  461.7268 0.05 0
  461.8852 0.09 1
  462.1890 0.09 1
  462.3387 0.21 2
  462.4443 0.15 1
  462.7146 0.12 1
  462.9449 0.10 1
  463.0505 0.11 1
  463.3458 0.11 1
  463.5726 0.24 2
  463.9599 0.11 1
  464.0912 0.10 1
  464.6076 0.11 1
  464.9386 0.09 1
  465.0363 0.03 0
  465.2888 0.24 2
  465.5578 0.11 1
  465.6769 0.10 1
  466.0307 0.20 2
  466.1513 0.14 1
  466.3018 0.24 2
  466.5280 0.15 1
  466.6735 0.09 1
  466.8647 0.24 2
  467.1936 0.23 2
  467.4690 0.34 3
  467.6053 0.35 3
  468.2496 0.93 9
  468.5778 0.45 4
  468.8069 0.31 3
  468.9289 0.44 4
  469.1408 0.26 3
  469.3955 0.40 4
  469.6881 0.22 2
  469.8794 0.27 3
  470.2319 0.55 5
  470.4638 0.39 4
  470.6051 0.26 3
  470.7750 0.16 2
  471.1739 0.40 4
  471.3038 0.20 2
  471.5815 0.10 1
  471.7063 0.20 2
  472.0204 0.04 0
  472.2438 0.26 3
  472.3851 0.33 3
  472.5200 0.10 1
  472.7727 0.12 1
  472.9625 0.11 1
  473.2666 0.16 2
  473.4058 0.09 1
  473.5900 0.15 1
  473.7755 0.05 0
  474.1189 0.03 0
  474.6429 0.14 1
  474.7564 0.11 1
  474.8542 0.12 1
  475.3282 0.58 6
  475.5474 0.18 2
  475.8879 0.17 2
  476.1835 0.68 7
  476.3556 0.50 5
  476.5976 0.15 1
  476.7275 0.07 1
  477.2266 0.11 1
  477.3816 0.10 1
  477.9207 0.10 1
  478.1663 0.15 1
  479.2374 0.20 2
  479.3310 0.09 1
  479.8023 0.11 1
  480.0858 0.08 1
  480.4958 0.08 1
  480.6786 0.03 0
  481.0536 0.16 2
  481.2457 0.12 1
  481.4371 0.18 2
  481.5864 0.06 1
  481.8842 0.12 1
  482.0714 0.25 2
  482.2892 0.45 4
  482.5028 0.16 2
  482.7535 0.10 1
  482.9771 0.10 1
  483.1506 0.09 1
  483.3428 0.20 2
  483.4935 0.09 1
  483.8764 0.15 1
  484.0693 0.13 1
  484.3107 0.15 1
  484.5515 0.29 3
  484.8123 0.12 1
  485.3224 0.16 2
  485.6146 0.08 1
  485.8117 0.10 1
  486.1118 0.16 2
  486.2440 0.11 1
  486.4583 0.04 0
  486.5641 0.04 0
  486.7934 0.11 1
  487.2457 0.29 3
  487.4715 0.21 2
  487.6723 0.22 2
  487.8595 0.14 1
  487.9374 0.05 0
  488.1959 0.32 3
  488.4208 0.35 3
  488.5785 0.12 1
  488.8326 0.12 1
  488.9661 0.17 2
  489.0725 0.15 1
  489.2581 0.20 2
  490.3018 12.27 123
  490.9058 0.30 3
  491.1656 0.21 2
  491.3948 0.12 1
  491.5655 0.27 3
  491.6819 0.13 1
  492.0167 0.08 1
  492.2259 0.11 1
  492.5365 0.13 1
  492.7193 0.12 1
  492.8814 0.14 1
  493.0913 0.20 2
  493.2170 0.02 0
  493.3698 0.02 0
  493.5591 0.06 1
  493.8104 0.06 1
  493.9325 0.11 1
  494.0646 0.08 1
  494.3638 0.08 1
  494.5852 0.06 1
  494.7616 0.02 0
  495.1501 0.13 1
  495.3536 0.13 1
  495.6307 0.15 1
  495.8564 0.02 0
  496.0778 0.08 1
  496.2614 0.18 2
  496.4692 0.09 1
  497.0113 0.11 1
  497.1455 0.03 0
  497.3013 0.22 2
  497.4741 0.11 1
  497.6555 0.10 1
  498.5463 0.09 1
  498.6548 0.12 1
  499.3392 0.01 0
  499.5078 0.06 1
  499.6756 0.10 1
  500.0378 0.12 1
  500.2757 0.09 1
  500.9265 0.10 1
  501.0894 0.09 1
  501.3102 0.25 2
  502.0540 0.17 2
  502.3262 0.55 5
  502.4069 0.29 3
  502.5119 0.33 3
  502.7177 0.08 1
  503.0507 0.22 2
  503.3408 0.66 7
  503.5230 0.38 4
  504.1754 0.09 1
  504.2869 0.15 1
  504.4369 0.07 1
  504.9457 0.07 1
  505.1658 0.07 1
  505.2666 0.02 0
  505.5453 0.06 1
  505.8469 0.10 1
  506.0077 0.05 0
  506.2307 0.16 2
  506.3322 0.11 1
  506.4736 0.10 1
  506.9096 0.19 2
  507.5650 0.18 2
  507.8959 0.10 1
  508.1947 0.09 1
  508.4377 0.08 1
  508.7508 0.12 1
  509.0825 0.10 1
  509.3012 0.01 0
  509.5621 0.35 3
  509.6543 0.08 1
  510.3263 0.17 2
  510.4228 0.14 1
  510.5457 0.07 1
  510.8760 0.06 1
  511.0555 0.12 1
  511.2170 0.06 1
  511.7711 0.09 1
  512.0485 0.17 2
  512.2773 0.09 1
  512.6354 0.07 1
  512.8528 0.08 1
  512.9679 0.11 1
  513.1517 0.12 1
  513.4420 0.09 1
  513.6229 0.07 1
  514.1305 0.19 2
  514.4630 0.10 1
  515.0355 0.03 0
  515.2773 0.09 1
  515.4450 0.06 1
  515.7269 0.02 0
  516.1827 0.03 0
  516.3426 0.05 0
  516.5823 0.09 1
  516.7621 0.08 1
  517.2095 0.15 1
  517.4443 0.10 1
  517.5513 0.08 1
  517.7026 0.13 1
  518.3840 0.12 1
  518.5332 0.06 1
  518.6473 0.17 2
  518.8029 0.11 1
  518.9999 0.04 0
  519.4438 0.13 1
  519.7228 0.03 0
  520.1681 0.08 1
  520.2745 0.05 0
  520.6206 0.01 0
  520.8796 0.22 2
  521.0709 0.15 1
  521.2351 0.06 1
  521.3664 0.04 0
  521.5834 0.09 1
  521.7175 0.07 1
  522.1144 0.11 1
  522.2307 0.16 2
  522.3978 0.12 1
  522.6669 0.12 1
  523.0801 0.11 1
  523.3678 0.25 2
  523.5562 0.12 1
  523.7333 0.02 0
  523.9988 0.08 1
  524.2786 0.21 2
  524.4071 0.24 2
  524.5627 0.12 1
  524.6691 0.13 1
  525.0895 0.14 1
  525.4815 0.21 2
  525.6843 0.11 1
  525.9213 0.08 1
  526.2061 0.24 2
  526.4210 0.23 2
  526.6766 0.11 1
  527.0143 0.11 1
  527.0935 0.06 1
  527.2920 0.10 1
  527.4427 0.12 1
  527.6576 0.02 0
  527.7697 0.01 0
  527.9796 0.11 1
  528.7521 0.02 0
  529.2948 0.12 1
  530.3352 0.20 2
  531.0493 0.12 1
  531.3200 0.11 1
  531.4893 0.04 0
  531.9641 0.11 1
  533.0026 0.08 1
  533.1861 0.12 1
  533.3711 0.09 1
  533.5604 0.05 0
  534.1282 0.16 2
  534.2496 0.11 1
  534.3710 0.10 1
  534.5796 0.10 1
  534.8667 0.11 1
  535.2881 0.13 1
  535.4496 0.10 1
  535.5839 0.24 2
  535.6639 0.12 1
  535.8560 0.21 2
  535.9418 0.12 1
  536.3032 0.37 4
  536.5425 0.24 2
  536.7232 0.35 3
  536.8147 0.19 2
  537.2961 1.43 14
  537.5569 0.44 4
  537.7669 0.21 2
  537.8784 0.08 1
  537.9877 0.21 2
  538.1427 0.23 2
  538.4942 0.32 3
  538.7443 0.28 3
  539.0572 0.11 1
  539.2915 0.12 1
  539.4487 0.12 1
  539.5716 0.30 3
  539.7252 0.13 1
  539.8581 0.09 1
  539.9738 0.06 1
  540.1896 0.20 2
  540.2739 0.12 1
  540.4690 0.29 3
  540.9277 0.21 2
  541.0535 0.11 1
  541.2742 0.20 2
  541.5343 0.24 2
  541.6929 0.17 2
  541.8887 0.18 2
  542.0881 0.13 1
  542.3332 0.17 2
  542.5304 0.11 1
  542.6555 0.19 2
  542.7998 0.12 1
  542.9913 0.19 2
  543.2536 0.28 3
  543.4215 0.11 1
  543.6523 0.10 1
  543.7631 0.14 1
  543.8639 0.14 1
  544.0254 0.13 1
  544.2355 0.14 1
  544.3234 0.06 1
  544.5027 0.13 1
  544.6478 0.14 1
  544.8208 0.19 2
  545.0409 0.32 3
  545.1831 0.12 1
  545.3790 0.05 0
  545.5598 0.07 1
  545.6498 0.03 0
  545.8521 0.19 2
  545.9557 0.12 1
  546.4139 0.36 4
  546.5082 0.18 2
  546.9349 0.16 2
  547.5803 0.23 2
  547.8248 0.04 0
  547.9399 0.28 3
  548.1679 0.04 0
  548.4066 0.14 1
  548.5518 0.04 0
  548.7769 0.19 2
  548.9506 0.38 4
  549.0571 0.30 3
  549.4146 0.91 9
  549.6483 0.34 3
  549.8163 0.15 1
  549.9457 0.08 1
  550.1859 0.22 2
  550.3052 0.08 1
  550.5862 0.16 2
  550.8557 0.03 0
  551.1738 0.20 2
  551.3376 0.32 3
  551.5764 0.21 2
  551.8895 0.27 3
  552.4379 0.68 7
  552.7181 0.31 3
  552.9798 0.27 3
  553.2686 0.40 4
  553.4853 0.38 4
  553.7698 0.45 4
  554.3455 0.46 5
  554.7394 0.55 5
  554.8353 0.22 2
  555.0626 0.22 2
  555.4137 0.49 5
  555.9014 0.74 7
  556.2061 0.56 6
  556.4620 0.45 4
  556.6966 0.61 6
  556.9390 0.55 5
  557.1400 0.40 4
  557.4203 0.59 6
  558.0640 0.95 9
  558.4587 0.71 7
  558.6830 0.42 4
  558.9855 0.87 9
  559.4540 0.93 9
  560.0018 0.88 9
  560.7109 1.21 12
  561.2052 0.90 9
  561.5361 1.21 12
  562.2145 1.05 10
  562.7767 1.29 13
  563.3438 2.08 21
  563.6484 1.76 18
  564.4610 13.99 140
  564.9212 1.51 15
  565.3964 1.65 16
  566.3588 1.84 18
  567.4063 8.35 83
  568.0677 1.05 10
  568.4295 1.02 10
  568.8227 0.87 9
  569.0660 0.67 7
  569.4157 0.55 5
  569.8924 0.96 10
  570.1864 0.92 9
  570.4212 0.87 9
  570.7523 0.60 6
  571.1784 0.69 7
  571.4417 0.78 8
  571.6687 0.76 8
  571.9799 0.74 7
  572.5844 1.03 10
  573.2025 0.96 10
  573.6878 0.95 9
  574.1360 1.17 12
  574.9918 1.35 13
  575.7970 1.31 13
  576.2396 1.69 17
  582.3187 99.97 999
  583.2666 31.05 310
  583.9310 15.86 158
  584.6411 8.73 87
  585.3884 4.74 47
  585.9765 3.01 30
  586.6838 1.69 17
  587.1913 1.69 17
  587.7652 1.10 11
  588.2699 0.81 8
  588.6118 0.71 7
  589.0515 0.47 5
  589.4941 0.44 4
  589.7383 0.60 6
  590.0317 0.17 2
  590.1680 0.30 3
  590.3251 0.24 2
  590.5607 0.29 3
  590.7656 0.25 2
  590.9354 0.18 2
  591.2510 0.27 3
  591.4138 0.10 1
  591.7571 0.15 1
  592.0170 0.10 1
  592.1920 0.14 1
  592.5018 0.17 2
//
