ACCESSION: MSBNK-Kyoto_Univ-CA000118
RECORD_TITLE: 4-Keto-4'-hydroxy-diatoxanthin; FAB-EBEB; MS2; m/z: 596.39; [M]*+
DATE: 2016.01.19 (Created 2007.10.06, modified 2011.05.10)
AUTHORS: Akimoto N, Graduate School of Pharmaceutical Sciences, Kyoto University and Maoka T, Research Institute for Production Development
LICENSE: CC BY-SA
COMMENT: Profile spectrum of this record is given as a JPEG file.
COMMENT: [Profile] CA000118.jpg
CH$NAME: 4-Keto-4'-hydroxy-diatoxanthin
CH$COMPOUND_CLASS: Natural Product; Carotenoid
CH$FORMULA: C40H52O4
CH$EXACT_MASS: 596.38656
CH$SMILES: CC1=C(C(C[C@@H]([C@H]1O)O)(C)C)/C=C/C(=C/C=C/C(=C/C=C/C=C(\C)/C=C/C=C(\C)/C#CC2=C(C(=O)[C@H](CC2(C)C)O)C)/C)/C
CH$IUPAC: InChI=1S/C40H52O4/c1-27(17-13-19-29(3)21-23-33-31(5)37(43)35(41)25-39(33,7)8)15-11-12-16-28(2)18-14-20-30(4)22-24-34-32(6)38(44)36(42)26-40(34,9)10/h11-21,23,35-37,41-43H,25-26H2,1-10H3/b12-11+,17-13+,18-14+,23-21+,27-15+,28-16+,29-19+,30-20+/t35-,36-,37-/m0/s1
CH$LINK: CHEMSPIDER 2159
CH$LINK: PUBCHEM CID:46210737
CH$LINK: INCHIKEY XYFWHTIDWHJZGK-LHCXJEIMSA-N
AC$INSTRUMENT: JMS-HX/HX 110A, JEOL
AC$INSTRUMENT_TYPE: FAB-EBEB
AC$MASS_SPECTROMETRY: MS_TYPE MS2
AC$MASS_SPECTROMETRY: ION_MODE POSITIVE
AC$MASS_SPECTROMETRY: ATOM_GUN_CURRENT 5 mA
AC$MASS_SPECTROMETRY: BOMBARDMENT 6 kV xenon
AC$MASS_SPECTROMETRY: COLLISION_ENERGY 3 kV
AC$MASS_SPECTROMETRY: COLLISION_GAS Ar
AC$MASS_SPECTROMETRY: GAS_PRESSURE adjust to attenuate the intensity of the precursor ion by 30 %
AC$MASS_SPECTROMETRY: IONIZATION FAB
AC$MASS_SPECTROMETRY: PROBE_TIP stainless-steel
MS$FOCUSED_ION: BASE_PEAK 596.2972
MS$FOCUSED_ION: PRECURSOR_M/Z 596.39
MS$FOCUSED_ION: PRECURSOR_TYPE [M]+*
PK$SPLASH: splash10-002b-2941020000-ff5b26fddaecadda3526
PK$NUM_PEAK: 1797
PK$PEAK: m/z int. rel.int.
  0.5874 0.01 0
  1.6569 0.01 0
  1.7302 0.01 0
  2.4889 0.01 0
  4.4452 0.01 0
  13.9799 0.13 1
  14.9968 0.52 5
  18.0154 0.06 1
  18.9721 0.10 1
  22.9477 0.07 1
  23.9582 0.06 1
  24.0325 0.01 0
  24.9650 0.06 1
  25.9725 0.38 4
  26.9769 4.30 43
  27.9877 0.35 3
  28.6346 0.01 0
  28.9868 4.21 42
  29.9516 0.34 3
  30.7398 0.01 0
  30.9623 0.91 9
  35.1478 0.01 0
  35.9474 0.06 1
  36.2735 0.01 0
  36.9573 0.50 5
  37.4049 0.01 0
  37.9811 1.29 13
  38.4362 0.05 0
  38.6921 0.01 0
  38.9714 8.56 86
  39.8402 0.07 1
  39.9853 0.91 9
  40.5312 0.01 0
  40.9975 16.29 163
  41.2022 0.02 0
  41.9821 0.39 4
  42.6887 0.06 1
  42.9843 17.82 178
  43.9965 0.16 2
  44.9821 0.90 9
  45.1541 0.01 0
  45.9970 0.03 0
  46.9664 0.39 4
  47.8040 0.03 0
  47.9612 0.02 0
  48.8334 0.01 0
  48.9660 0.13 1
  49.0548 0.07 1
  49.4844 0.03 0
  49.9661 2.93 29
  50.9759 5.03 50
  51.8211 0.07 1
  51.9784 1.29 13
  52.9819 8.89 89
  53.2933 0.03 0
  53.9990 0.31 3
  54.1630 0.05 0
  54.6140 0.05 0
  54.9941 16.78 168
  56.0080 0.53 5
  56.6175 0.04 0
  56.9950 5.86 59
  57.5040 0.04 0
  57.9342 0.11 1
  58.0340 0.08 1
  58.9950 1.81 18
  59.2996 0.04 0
  59.9665 0.92 9
  60.7505 0.03 0
  60.9595 0.45 4
  61.9536 1.37 14
  62.6421 0.01 0
  62.9576 5.51 55
  63.4602 0.04 0
  63.5619 0.04 0
  63.6874 0.04 0
  63.9672 1.55 15
  64.2766 0.03 0
  64.5204 0.03 0
  64.7283 0.04 0
  64.9787 7.30 73
  65.6335 0.01 0
  65.9938 1.61 16
  66.3138 0.08 1
  67.0011 9.57 96
  68.0003 0.35 3
  69.0010 11.80 118
  69.4444 0.01 0
  69.7864 0.01 0
  69.9876 0.47 5
  70.9829 3.96 40
  71.5007 0.06 1
  71.6318 0.03 0
  71.9829 0.24 2
  72.9741 1.14 11
  73.9535 1.46 15
  74.9619 2.60 26
  75.1807 0.05 0
  75.2970 0.04 0
  75.4127 0.07 1
  75.5995 0.12 1
  75.9712 1.17 12
  76.1007 0.12 1
  76.3274 0.12 1
  76.4223 0.05 0
  76.6210 0.09 1
  76.9732 19.55 195
  77.1362 0.25 2
  77.4038 0.12 1
  77.5345 0.12 1
  77.9818 3.44 34
  78.1826 0.10 1
  78.5384 0.08 1
  78.9948 15.10 151
  79.2248 0.09 1
  79.7423 0.04 0
  80.0019 1.74 17
  80.2844 0.06 1
  80.3697 0.04 0
  80.5659 0.03 0
  81.0090 17.28 173
  81.2236 0.14 1
  81.4592 0.06 1
  81.9860 0.47 5
  82.6487 0.03 0
  83.0036 6.78 68
  83.4467 0.01 0
  83.9819 0.29 3
  84.9960 5.94 59
  85.4615 0.06 1
  85.5419 0.01 0
  85.9535 0.85 8
  86.9711 3.28 33
  87.8190 0.12 1
  87.9749 0.65 6
  88.1740 0.06 1
  88.4414 0.07 1
  88.6944 0.21 2
  88.9696 3.38 34
  89.2241 0.16 2
  89.5088 0.17 2
  89.6995 0.11 1
  89.9979 1.23 12
  90.2243 0.21 2
  90.4601 0.15 1
  90.9945 38.67 386
  91.3454 0.11 1
  91.5228 0.02 0
  91.6579 0.11 1
  92.0075 3.27 33
  92.5063 0.21 2
  92.6288 0.07 1
  93.0143 22.22 222
  93.2615 0.17 2
  93.3478 0.08 1
  93.4933 0.07 1
  93.6481 0.03 0
  94.0074 1.80 18
  94.4244 0.02 0
  94.5425 0.12 1
  94.6383 0.08 1
  95.0228 12.15 121
  95.4565 0.19 2
  96.0002 0.46 5
  96.5104 0.04 0
  96.7381 0.10 1
  97.0224 3.23 32
  97.2727 0.05 0
  97.9809 0.82 8
  98.9956 0.70 7
  99.3486 0.08 1
  99.8162 0.04 0
  100.0048 0.27 3
  100.3398 0.02 0
  100.4724 0.13 1
  100.9836 1.52 15
  101.2322 0.12 1
  101.4295 0.10 1
  101.9906 2.75 27
  102.3113 0.07 1
  102.5423 0.11 1
  102.9959 8.08 81
  103.2788 0.17 2
  103.4373 0.11 1
  103.5461 0.05 0
  104.0087 3.94 39
  104.3394 0.08 1
  104.4951 0.08 1
  105.0134 39.08 391
  105.3189 0.22 2
  105.4521 0.05 0
  105.5468 0.08 1
  106.0232 3.23 32
  106.2786 0.09 1
  106.4493 0.08 1
  106.5581 0.11 1
  106.6334 0.08 1
  107.0360 17.88 179
  107.3470 0.21 2
  107.5390 0.01 0
  107.7025 0.12 1
  108.0235 2.22 22
  108.3445 0.04 0
  108.5104 0.10 1
  108.7467 0.05 0
  109.0407 12.59 126
  109.4466 0.04 0
  109.6293 0.09 1
  109.6877 0.04 0
  110.0147 0.59 6
  110.4854 0.04 0
  111.0150 3.62 36
  111.5540 0.04 0
  112.0024 0.44 4
  112.2650 0.11 1
  112.4326 0.04 0
  112.9423 0.74 7
  113.3853 0.18 2
  113.9903 1.59 16
  114.1770 0.17 2
  114.5096 0.34 3
  114.9876 24.21 242
  115.3962 0.32 3
  115.9987 8.29 83
  116.2097 0.22 2
  116.4933 0.30 3
  116.9959 19.11 191
  117.3165 0.22 2
  118.0095 2.77 28
  118.4341 0.24 2
  119.0207 35.49 355
  119.4093 0.21 2
  119.6955 0.11 1
  120.0154 4.58 46
  120.2910 0.07 1
  120.4084 0.06 1
  121.0135 15.26 152
  121.3405 0.11 1
  121.4123 0.06 1
  121.5597 0.11 1
  121.9982 1.75 17
  122.2331 0.12 1
  122.3502 0.06 1
  122.5302 0.05 0
  122.7128 0.07 1
  123.0088 5.54 55
  123.3724 0.02 0
  123.4690 0.06 1
  123.6680 0.02 0
  124.0014 1.40 14
  124.2733 0.08 1
  124.3428 0.05 0
  124.4460 0.01 0
  125.0025 3.02 30
  125.2911 0.05 0
  125.4523 0.08 1
  125.6597 0.16 2
  125.9673 1.66 17
  126.4260 0.14 1
  126.6174 0.29 3
  126.9646 9.80 98
  127.2043 0.47 5
  127.9690 26.65 266
  128.1927 0.34 3
  128.4485 0.22 2
  128.9787 27.04 270
  129.3445 0.17 2
  129.5340 0.20 2
  129.6137 0.09 1
  129.9916 9.76 98
  130.4580 0.16 2
  130.9888 20.21 202
  131.2711 0.18 2
  131.4866 0.07 1
  131.6478 0.06 1
  132.0004 5.57 56
  132.3657 0.04 0
  132.4785 0.03 0
  132.5795 0.06 1
  133.0074 21.89 219
  133.3527 0.26 3
  133.5274 0.04 0
  133.6384 0.04 0
  133.9853 1.82 18
  134.4651 0.17 2
  135.0018 10.24 102
  135.6159 0.15 1
  135.9847 3.02 30
  136.3076 0.06 1
  136.4980 0.07 1
  136.9709 12.79 128
  137.2350 0.19 2
  137.4099 0.06 1
  137.9595 1.69 17
  138.2509 0.11 1
  138.4552 0.17 2
  138.9690 6.03 60
  139.2939 0.23 2
  139.4288 0.07 1
  139.9611 1.87 19
  140.1035 0.50 5
  140.2969 0.31 3
  140.9702 22.77 228
  141.3177 0.23 2
  141.9758 17.12 171
  142.3701 0.20 2
  142.9884 27.09 271
  143.2602 0.17 2
  143.4091 0.09 1
  143.4928 0.06 1
  144.0015 8.92 89
  144.2316 0.24 2
  144.4592 0.30 3
  144.9990 24.51 245
  145.3752 0.27 3
  145.5258 0.11 1
  145.7116 0.06 1
  146.0068 3.62 36
  146.2455 0.14 1
  146.5141 0.14 1
  146.6328 0.10 1
  147.0077 11.62 116
  147.3680 0.08 1
  147.5382 0.13 1
  147.9956 1.93 19
  148.3756 0.19 2
  148.5861 0.19 2
  149.0225 5.74 57
  149.2110 0.31 3
  149.3407 0.11 1
  149.5534 0.22 2
  149.9855 1.65 16
  150.3402 0.20 2
  150.5524 0.13 1
  150.9776 4.59 46
  151.2938 0.46 5
  151.9780 12.66 127
  152.4930 0.36 4
  152.9868 14.90 149
  153.3364 0.12 1
  153.5371 0.29 3
  153.9957 7.88 79
  154.2691 0.10 1
  154.4237 0.12 1
  154.5621 0.09 1
  155.0084 22.23 222
  155.3412 0.25 2
  156.0105 12.10 121
  156.2480 0.25 2
  156.3497 0.27 3
  156.4782 0.29 3
  157.0303 23.09 231
  157.4385 0.27 3
  158.0269 5.76 58
  158.5170 0.28 3
  159.0289 13.71 137
  159.2563 0.28 3
  159.5249 0.29 3
  159.7389 0.10 1
  160.0380 2.62 26
  160.4391 0.08 1
  160.6101 0.26 3
  161.0479 7.22 72
  161.2635 0.17 2
  161.4981 0.14 1
  161.6293 0.14 1
  161.7063 0.10 1
  162.0397 1.45 14
  162.4328 0.25 2
  162.8016 0.50 5
  163.0507 4.82 48
  163.3066 0.25 2
  163.5199 0.26 3
  164.0083 2.74 27
  164.2569 0.34 3
  165.0161 27.39 274
  165.5464 0.26 3
  166.0247 8.99 90
  166.4754 0.21 2
  167.0396 18.08 181
  167.3921 0.38 4
  167.6978 0.37 4
  168.0573 6.12 61
  168.3781 0.25 2
  169.0547 17.56 175
  169.3262 0.25 2
  169.5173 0.19 2
  170.0642 6.83 68
  170.4916 0.19 2
  171.0616 14.50 145
  171.3392 0.38 4
  171.5850 0.17 2
  172.0584 3.81 38
  173.0559 9.07 91
  173.4121 0.19 2
  173.5692 0.15 1
  174.0541 2.28 23
  174.3092 0.14 1
  174.5215 0.17 2
  175.0564 4.52 45
  175.4302 0.15 1
  175.6427 0.31 3
  176.0207 3.15 31
  176.4056 0.14 1
  177.0299 3.84 38
  177.3006 0.63 6
  178.0091 14.38 144
  178.3427 0.32 3
  178.5126 0.19 2
  179.0279 20.66 206
  179.3017 0.27 3
  179.5509 0.21 2
  180.0440 8.02 80
  180.2681 0.27 3
  180.3945 0.24 2
  180.5243 0.28 3
  181.0383 18.54 185
  181.5052 0.28 3
  182.0414 6.63 66
  182.4922 0.21 2
  183.0465 13.94 139
  183.5113 0.13 1
  183.6489 0.11 1
  184.0544 4.13 41
  184.2592 0.37 4
  184.3914 0.10 1
  185.0478 7.08 71
  185.5112 0.23 2
  185.6428 0.10 1
  186.0528 2.80 28
  186.3086 0.19 2
  186.5830 0.14 1
  187.0510 5.03 50
  187.3852 0.27 3
  187.5561 0.16 2
  187.9996 1.54 15
  188.5346 0.36 4
  189.0154 11.05 110
  189.4861 0.35 3
  190.0037 3.87 39
  190.9946 9.76 98
  191.3957 0.31 3
  192.0178 9.12 91
  192.2553 0.26 3
  193.0189 17.84 178
  193.3516 0.24 2
  193.5527 0.17 2
  193.6857 0.06 1
  194.0268 7.71 77
  194.3824 0.27 3
  195.0263 17.17 172
  195.3959 0.29 3
  196.0154 4.69 47
  196.5957 0.19 2
  197.0436 13.71 137
  197.3280 0.34 3
  197.4758 0.13 1
  197.6733 0.25 2
  198.0269 2.62 26
  198.4399 0.20 2
  198.5954 0.22 2
  199.0425 5.65 56
  199.3286 0.12 1
  199.5643 0.18 2
  200.0123 1.71 17
  200.2377 0.29 3
  200.4590 0.13 1
  201.0242 3.82 38
  201.2760 0.56 6
  201.4178 0.34 3
  201.9826 8.64 86
  202.9962 10.68 107
  203.4166 0.14 1
  203.5081 0.14 1
  203.6563 0.20 2
  204.0180 3.55 35
  204.4082 0.27 3
  205.0140 9.78 98
  205.2733 0.43 4
  205.3988 0.21 2
  205.7074 0.33 3
  206.0251 7.53 75
  206.3407 0.09 1
  206.5350 0.21 2
  207.0242 15.06 150
  208.0238 6.63 66
  209.0295 12.62 126
  209.4985 0.39 4
  210.0399 3.67 37
  210.2852 0.30 3
  210.6544 0.23 2
  211.0410 7.13 71
  211.3345 0.18 2
  211.6078 0.15 1
  212.0385 1.98 20
  212.3397 0.22 2
  213.0246 4.72 47
  213.3343 0.34 3
  213.4944 0.10 1
  213.6866 0.50 5
  214.0076 1.27 13
  214.3057 0.33 3
  214.9981 9.63 96
  215.3019 0.26 3
  215.5647 0.06 1
  216.0121 4.72 47
  216.4757 0.26 3
  217.0147 9.09 91
  217.5301 0.26 3
  218.0275 4.57 46
  218.3115 0.28 3
  218.4071 0.13 1
  218.6102 0.21 2
  219.0339 11.12 111
  219.4876 0.13 1
  220.0476 5.65 56
  220.3388 0.19 2
  221.0416 10.46 105
  221.3651 0.20 2
  221.6593 0.20 2
  222.0590 4.23 42
  222.2345 0.58 6
  223.0700 9.13 91
  223.3966 0.21 2
  223.6749 0.47 5
  224.0701 3.29 33
  224.4487 0.27 3
  225.0729 4.41 44
  225.4578 0.23 2
  226.0326 4.11 41
  226.3232 0.36 4
  226.4863 0.40 4
  226.6229 0.28 3
  227.0649 4.53 45
  227.3486 0.49 5
  227.5020 0.24 2
  228.0338 4.31 43
  228.2945 0.32 3
  229.0424 7.84 78
  229.4266 0.13 1
  229.6040 0.14 1
  230.0500 3.91 39
  230.3488 0.13 1
  230.5087 0.14 1
  231.0616 8.87 89
  231.3289 0.30 3
  231.6903 0.23 2
  232.0651 4.75 47
  232.4815 0.35 3
  232.6083 0.21 2
  233.0806 9.17 92
  233.4325 0.16 2
  234.0670 3.31 33
  234.2914 0.40 4
  234.4351 0.24 2
  234.5684 0.19 2
  235.0944 7.76 78
  235.3483 0.28 3
  235.4409 0.12 1
  235.5974 0.15 1
  236.0843 2.78 28
  236.3910 0.26 3
  236.6072 0.16 2
  236.7286 0.10 1
  237.0852 5.78 58
  237.4137 0.26 3
  238.0667 2.25 22
  238.3399 0.31 3
  239.0620 7.16 72
  240.0429 2.19 22
  240.3760 0.28 3
  241.0628 5.03 50
  241.3454 0.36 4
  241.5058 0.16 2
  241.6492 0.12 1
  242.0472 2.91 29
  242.3159 0.23 2
  242.4939 0.31 3
  242.6409 0.18 2
  243.0735 6.22 62
  243.3458 0.34 3
  243.6153 0.30 3
  244.0728 4.28 43
  244.4296 0.23 2
  244.5873 0.09 1
  245.0766 6.90 69
  245.5364 0.14 1
  246.0765 4.29 43
  247.0874 6.69 67
  247.4094 0.33 3
  247.7032 0.22 2
  248.0831 2.10 21
  248.4510 0.18 2
  249.0968 4.99 50
  249.4155 0.21 2
  249.5523 0.10 1
  250.0699 2.17 22
  250.4529 0.35 3
  251.1083 3.96 40
  251.3778 0.22 2
  251.5246 0.23 2
  252.0553 2.76 28
  252.4012 0.12 1
  252.6207 0.13 1
  253.0767 4.49 45
  253.4538 0.15 1
  254.0625 1.90 19
  254.2235 0.58 6
  255.0655 4.34 43
  255.4915 0.21 2
  256.0851 2.50 25
  256.3819 0.14 1
  256.5551 0.31 3
  256.6639 0.20 2
  257.0881 6.85 68
  257.4352 0.07 1
  257.5314 0.08 1
  257.6487 0.07 1
  258.0794 2.47 25
  258.3552 0.25 2
  258.4894 0.26 3
  258.6540 0.26 3
  259.1004 5.56 56
  259.4218 0.23 2
  260.1008 2.38 24
  260.4131 0.15 1
  260.6414 0.21 2
  261.1071 5.15 51
  261.4005 0.26 3
  261.5384 0.16 2
  261.7243 0.30 3
  262.1138 1.38 14
  262.3726 0.25 2
  263.0911 4.23 42
  263.5841 0.28 3
  264.0992 1.20 12
  264.4303 0.32 3
  265.0883 3.09 31
  265.3962 0.16 2
  265.7798 0.36 4
  266.0856 1.43 14
  266.3624 0.13 1
  267.0868 3.95 39
  267.3856 0.31 3
  267.4840 0.14 1
  267.6257 0.09 1
  267.7333 0.06 1
  268.0917 1.65 16
  268.4679 0.18 2
  268.6705 0.20 2
  269.0998 4.07 41
  269.3521 0.23 2
  270.0777 1.57 16
  270.4690 0.13 1
  270.6441 0.11 1
  271.1042 5.13 51
  271.5572 0.10 1
  272.0904 2.16 22
  272.5493 0.06 1
  273.0990 4.76 48
  273.6147 0.26 3
  274.1021 2.03 20
  274.4037 0.30 3
  274.5229 0.17 2
  275.1240 3.46 35
  275.6748 0.18 2
  276.0816 1.97 20
  276.4437 0.15 1
  277.1037 2.94 29
  277.4947 0.21 2
  277.6756 0.19 2
  278.1220 1.59 16
  278.4165 0.21 2
  278.5741 0.16 2
  279.0958 2.71 27
  279.6943 0.19 2
  280.0912 1.33 13
  280.3702 0.38 4
  280.6181 0.32 3
  281.0989 3.34 33
  281.4299 0.15 1
  281.5371 0.05 0
  281.7581 0.29 3
  282.1275 0.91 9
  282.5453 0.30 3
  283.1109 3.89 39
  283.5394 0.17 2
  284.1173 1.75 17
  284.3938 0.18 2
  285.1296 3.97 40
  285.5086 0.21 2
  285.8030 0.18 2
  286.1166 2.02 20
  286.2503 0.76 8
  286.4431 0.13 1
  286.5881 0.09 1
  286.7254 0.24 2
  287.1316 3.74 37
  287.4816 0.26 3
  287.6253 0.04 0
  287.8430 0.33 3
  288.1177 1.40 14
  288.4870 0.09 1
  289.0947 3.70 37
  289.4271 0.14 1
  289.5602 0.10 1
  289.6805 0.16 2
  290.0856 4.98 50
  290.3882 0.15 1
  290.4921 0.13 1
  290.7420 0.36 4
  291.1258 2.56 26
  291.5196 0.17 2
  291.7432 0.15 1
  292.1548 1.02 10
  292.5559 0.05 0
  293.1208 2.57 26
  293.4900 0.31 3
  293.6066 0.14 1
  293.7780 0.05 0
  294.1002 0.86 9
  294.5476 0.06 1
  295.1238 3.70 37
  295.5194 0.11 1
  295.6297 0.07 1
  296.1264 1.11 11
  296.3206 0.25 2
  296.4964 0.15 1
  296.7106 0.15 1
  297.1341 3.32 33
  297.5641 0.22 2
  298.1029 1.24 12
  298.4354 0.13 1
  298.6213 0.14 1
  299.1190 2.86 29
  299.6503 0.19 2
  299.7984 0.25 2
  300.1274 1.36 14
  300.4750 0.28 3
  301.1255 2.10 21
  301.2629 1.07 11
  301.4539 0.12 1
  301.6306 0.06 1
  302.1044 1.12 11
  302.3439 0.14 1
  302.4728 0.14 1
  302.5669 0.05 0
  303.1071 2.41 24
  303.4279 0.27 3
  303.5398 0.08 1
  303.6489 0.06 1
  303.7480 0.06 1
  304.1037 0.90 9
  304.2562 0.35 3
  304.5093 0.06 1
  304.6576 0.20 2
  305.0969 1.81 18
  305.4463 0.12 1
  305.5846 0.19 2
  306.0739 0.49 5
  306.5161 0.16 2
  307.0931 1.96 20
  307.2480 0.61 6
  307.4834 0.13 1
  307.6325 0.04 0
  308.1205 0.96 10
  308.2725 0.51 5
  308.4966 0.07 1
  308.6500 0.08 1
  309.1210 2.53 25
  309.6449 0.27 3
  310.1252 1.09 11
  310.3944 0.16 2
  310.5721 0.25 2
  311.1126 2.05 20
  312.1259 0.70 7
  312.5036 0.05 0
  312.7250 0.20 2
  313.1236 2.09 21
  313.4850 0.10 1
  313.6636 0.11 1
  314.0944 0.68 7
  314.3824 0.36 4
  314.5445 0.08 1
  315.0969 1.88 19
  315.5263 0.09 1
  315.7136 0.16 2
  316.1195 0.95 9
  316.4305 0.13 1
  316.6721 0.06 1
  317.1188 1.74 17
  317.9303 0.34 3
  318.1677 0.73 7
  318.2799 0.31 3
  318.4529 0.10 1
  318.5623 0.07 1
  318.7533 0.23 2
  319.1151 1.45 14
  319.4062 0.15 1
  319.5664 0.12 1
  319.7188 0.05 0
  319.8368 0.05 0
  319.9841 0.45 4
  320.1551 0.67 7
  320.3075 0.08 1
  320.4899 0.20 2
  320.5965 0.08 1
  321.1165 2.12 21
  321.6203 0.26 3
  321.7219 0.21 2
  322.0939 0.91 9
  322.2507 0.30 3
  322.3666 0.04 0
  322.5605 0.03 0
  322.7144 0.45 4
  323.1374 1.66 17
  323.5947 0.06 1
  324.0994 0.69 7
  324.3736 0.14 1
  324.5361 0.05 0
  324.7279 0.02 0
  325.1310 1.48 15
  325.4518 0.45 4
  326.0397 1.00 10
  326.5926 0.21 2
  326.7043 0.08 1
  327.1384 1.61 16
  327.6892 0.12 1
  327.8088 0.09 1
  328.1198 0.45 4
  328.3282 0.09 1
  328.5195 0.03 0
  328.7223 0.18 2
  329.1371 1.26 13
  329.5098 0.07 1
  329.6674 0.11 1
  330.1003 0.67 7
  330.4400 0.15 1
  330.7697 0.24 2
  331.1324 0.98 10
  331.4513 0.09 1
  331.7238 0.20 2
  331.8241 0.06 1
  332.1446 0.55 5
  332.5604 0.17 2
  332.6278 0.09 1
  333.1347 1.45 14
  333.3836 0.18 2
  333.5650 0.07 1
  333.7371 0.12 1
  333.8906 0.16 2
  334.1796 0.54 5
  334.5267 0.04 0
  334.7089 0.11 1
  335.1472 1.14 11
  335.6802 0.14 1
  335.8108 0.18 2
  336.1479 0.56 6
  336.4321 0.08 1
  336.6380 0.03 0
  337.1467 1.39 14
  337.4859 0.15 1
  338.1374 0.93 9
  338.3537 0.25 2
  338.6773 0.06 1
  339.1500 1.19 12
  339.7666 0.11 1
  340.1054 0.38 4
  340.2795 0.28 3
  340.3590 0.13 1
  340.5237 0.12 1
  341.1455 1.59 16
  341.2795 0.55 5
  341.4063 0.18 2
  341.5073 0.05 0
  341.7423 0.19 2
  342.1350 0.51 5
  342.4624 0.16 2
  342.5807 0.12 1
  342.7068 0.14 1
  343.1468 1.13 11
  343.2937 0.49 5
  343.6936 0.21 2
  344.0463 0.25 2
  344.2498 0.45 4
  344.6068 0.16 2
  345.1158 1.40 14
  345.3065 0.51 5
  345.5359 0.14 1
  345.7954 0.08 1
  346.1338 0.57 6
  346.2916 0.27 3
  346.4106 0.12 1
  346.5726 0.06 1
  346.8394 0.28 3
  347.1556 1.30 13
  347.7100 0.15 1
  348.1848 0.71 7
  348.3289 0.28 3
  348.5284 0.08 1
  349.1510 1.77 18
  349.4114 0.16 2
  349.6675 0.27 3
  349.7974 0.04 0
  350.0901 0.47 5
  350.2386 0.35 3
  350.3391 0.19 2
  350.4438 0.08 1
  350.5808 0.06 1
  351.1090 0.92 9
  351.3630 0.14 1
  351.6874 0.09 1
  352.1194 0.68 7
  352.2996 0.11 1
  352.4079 0.06 1
  352.6628 0.09 1
  353.1638 1.27 13
  353.5822 0.13 1
  353.8637 0.26 3
  354.1788 0.71 7
  354.3899 0.20 2
  355.1280 1.22 12
  355.3391 0.31 3
  355.5739 0.09 1
  355.7003 0.06 1
  356.1312 0.28 3
  356.6627 0.10 1
  357.0735 1.04 10
  357.2243 0.55 5
  357.4743 0.09 1
  357.5985 0.03 0
  357.8284 0.14 1
  358.0288 0.24 2
  358.1783 0.64 6
  358.3277 0.07 1
  358.5999 0.18 2
  359.1395 1.52 15
  359.5605 0.06 1
  359.7948 0.15 1
  360.0959 0.60 6
  360.2418 0.69 7
  360.6054 0.24 2
  360.7606 0.22 2
  361.1861 2.50 25
  361.3967 0.36 4
  361.6022 0.06 1
  362.1492 0.56 6
  362.3318 0.20 2
  362.5065 0.16 2
  362.7451 0.10 1
  363.2088 1.46 15
  363.5898 0.07 1
  363.7976 0.16 2
  364.2211 0.45 4
  364.5526 0.08 1
  364.7489 0.20 2
  365.1852 0.82 8
  365.3145 0.32 3
  365.4798 0.16 2
  365.7571 0.07 1
  366.0410 0.26 3
  366.2637 0.44 4
  366.3852 0.19 2
  366.5756 0.05 0
  366.7258 0.10 1
  366.8516 0.04 0
  367.1994 1.07 11
  367.6486 0.11 1
  367.8405 0.04 0
  367.9843 0.17 2
  368.2308 0.18 2
  368.4896 0.06 1
  369.1646 0.70 7
  369.5945 0.12 1
  369.7872 0.04 0
  370.1287 0.30 3
  370.3560 0.10 1
  370.4976 0.03 0
  370.6184 0.04 0
  370.7421 0.14 1
  370.9290 0.07 1
  371.1663 0.72 7
  371.4116 0.12 1
  371.7977 0.13 1
  371.9013 0.06 1
  372.1436 0.36 4
  372.3177 0.18 2
  372.4760 0.19 2
  372.6478 0.17 2
  372.7342 0.07 1
  373.1765 0.83 8
  373.6685 0.04 0
  373.7800 0.05 0
  374.1512 0.64 6
  374.3369 0.57 6
  374.6483 0.05 0
  374.7822 0.12 1
  375.1930 1.30 13
  375.4751 0.11 1
  375.7132 0.15 1
  375.8535 0.13 1
  376.2126 0.75 7
  376.5062 0.04 0
  377.1805 1.25 12
  377.8290 0.17 2
  378.1227 0.67 7
  378.2350 0.33 3
  378.3523 0.14 1
  378.6712 0.06 1
  378.8029 0.06 1
  379.2118 0.64 6
  380.0720 0.19 2
  380.3121 0.32 3
  380.4602 0.14 1
  380.6803 0.08 1
  381.1383 0.48 5
  381.3174 0.27 3
  381.5043 0.13 1
  381.7618 0.12 1
  381.8409 0.04 0
  381.9890 0.18 2
  382.1998 0.32 3
  382.5133 0.11 1
  382.7270 0.08 1
  383.0470 0.36 4
  383.1722 0.45 4
  383.3232 0.50 5
  383.6030 0.06 1
  383.7843 0.05 0
  383.9778 0.09 1
  384.3238 0.08 1
  384.4677 0.06 1
  385.1792 0.56 6
  385.3526 0.29 3
  385.5152 0.11 1
  385.6181 0.18 2
  385.8527 0.05 0
  386.1808 0.30 3
  386.3225 0.15 1
  386.5579 0.09 1
  386.6838 0.17 2
  387.1573 1.05 10
  387.4754 0.11 1
  387.7366 0.03 0
  388.1339 0.54 5
  388.4074 0.13 1
  388.5377 0.08 1
  388.7695 0.05 0
  389.1726 0.88 9
  389.4101 0.11 1
  389.6959 0.06 1
  389.8492 0.09 1
  389.9493 0.08 1
  390.1876 0.31 3
  390.3431 0.16 2
  390.5281 0.11 1
  390.6592 0.19 2
  390.8053 0.12 1
  391.1913 0.71 7
  391.3849 0.17 2
  391.8155 0.17 2
  392.1792 0.31 3
  392.4679 0.08 1
  392.7243 0.11 1
  393.1802 0.42 4
  393.6490 0.08 1
  393.8773 0.10 1
  394.0891 0.33 3
  394.2627 0.12 1
  394.4312 0.08 1
  394.5739 0.09 1
  395.1545 0.58 6
  395.7884 0.07 1
  395.9764 0.13 1
  396.1911 0.32 3
  396.3057 0.06 1
  396.5002 0.05 0
  396.6133 0.08 1
  396.9498 0.21 2
  397.2114 0.58 6
  397.4456 0.09 1
  397.5817 0.01 0
  397.7749 0.15 1
  398.1373 0.34 3
  398.3096 0.37 4
  398.6404 0.17 2
  398.7715 0.06 1
  399.1801 0.40 4
  399.4079 0.14 1
  399.6061 0.13 1
  399.7589 0.01 0
  399.9643 0.11 1
  400.2807 0.25 2
  400.7197 0.17 2
  401.1861 0.52 5
  401.3959 0.31 3
  401.6511 0.08 1
  401.9236 0.09 1
  402.2279 0.20 2
  402.3922 0.06 1
  402.7939 0.07 1
  402.9042 0.04 0
  403.1234 0.26 3
  403.3087 0.27 3
  404.0839 0.20 2
  404.3305 0.15 1
  404.4697 0.06 1
  404.5937 0.22 2
  405.0769 0.26 3
  405.3178 0.25 2
  405.5616 0.10 1
  405.9020 0.07 1
  406.0693 0.08 1
  406.7394 0.02 0
  406.9313 0.21 2
  407.1513 0.35 3
  407.4175 0.08 1
  407.8915 0.07 1
  408.1707 0.22 2
  408.5033 0.12 1
  408.7241 0.02 0
  408.8590 0.10 1
  409.1426 0.59 6
  409.3612 0.14 1
  409.6708 0.14 1
  409.8916 0.05 0
  410.0972 0.26 3
  410.2711 0.24 2
  410.4241 0.09 1
  410.9091 0.10 1
  411.0729 0.31 3
  411.3428 0.34 3
  411.7355 0.02 0
  412.0643 0.38 4
  412.2854 0.38 4
  412.3805 0.20 2
  412.5137 0.12 1
  412.7621 0.04 0
  413.2014 0.91 9
  413.4305 0.28 3
  413.6861 0.14 1
  414.0189 0.47 5
  414.2926 0.45 4
  414.5022 0.04 0
  414.7658 0.05 0
  415.2182 1.05 10
  415.4934 0.13 1
  415.6540 0.11 1
  415.7887 0.15 1
  415.8990 0.12 1
  416.2361 0.50 5
  416.5034 0.13 1
  416.8016 0.12 1
  417.1612 0.54 5
  417.4746 0.13 1
  417.8983 0.13 1
  418.2218 0.38 4
  418.4906 0.19 2
  418.7327 0.13 1
  418.8747 0.14 1
  419.1593 0.56 6
  419.2955 0.26 3
  419.3777 0.15 1
  419.6097 0.11 1
  420.0760 0.29 3
  420.3412 0.06 1
  420.4328 0.05 0
  420.8040 0.10 1
  421.1024 0.28 3
  421.3417 0.11 1
  421.4895 0.04 0
  421.7627 0.09 1
  421.9068 0.10 1
  422.1108 0.11 1
  422.2312 0.11 1
  422.5751 0.12 1
  423.1677 0.45 4
  423.3414 0.35 3
  423.4676 0.03 0
  423.6435 0.04 0
  423.8440 0.11 1
  424.0660 0.25 2
  424.2485 0.20 2
  424.3883 0.05 0
  424.6551 0.03 0
  425.2457 0.62 6
  425.4411 0.27 3
  425.6394 0.06 1
  425.8349 0.05 0
  426.2308 0.35 3
  426.4587 0.09 1
  426.6455 0.07 1
  426.7371 0.07 1
  427.1150 0.54 5
  427.3436 0.62 6
  427.5391 0.15 1
  427.6112 0.09 1
  428.0303 0.39 4
  428.3109 0.54 5
  428.7249 0.09 1
  429.0358 0.31 3
  429.2389 0.31 3
  429.4341 0.29 3
  429.5904 0.07 1
  429.7547 0.03 0
  430.0587 0.11 1
  430.2827 0.25 2
  430.4916 0.09 1
  430.7308 0.08 1
  431.2192 0.65 6
  431.5564 0.13 1
  431.7041 0.17 2
  431.9440 0.23 2
  432.1846 0.24 2
  433.0637 0.27 3
  433.3065 0.41 4
  434.0502 0.02 0
  434.1749 0.06 1
  434.2751 0.06 1
  434.4768 0.09 1
  434.7248 0.09 1
  435.1874 0.30 3
  435.4195 0.11 1
  435.6422 0.10 1
  436.0941 0.14 1
  436.2556 0.11 1
  436.5021 0.10 1
  436.9101 0.08 1
  437.1437 0.22 2
  437.3924 0.09 1
  437.9128 0.12 1
  438.0527 0.11 1
  438.3216 0.17 2
  438.5819 0.06 1
  439.1522 0.61 6
  439.2733 0.38 4
  439.3822 0.26 3
  439.5862 0.11 1
  440.1926 0.52 5
  440.3570 0.21 2
  440.9454 0.54 5
  441.1733 0.62 6
  441.3226 0.26 3
  441.4805 0.06 1
  441.6125 0.20 2
  442.1368 0.93 9
  442.3690 0.41 4
  442.6423 0.08 1
  443.1068 7.74 77
  443.5071 0.11 1
  443.6658 0.10 1
  443.8411 0.12 1
  443.9695 0.10 1
  444.1137 0.34 3
  444.3222 0.33 3
  444.5718 0.04 0
  444.7406 0.05 0
  444.9065 0.18 2
  445.1641 0.42 4
  445.3437 0.14 1
  445.5551 0.09 1
  445.6770 0.06 1
  445.8573 0.11 1
  446.1798 0.34 3
  446.4150 0.12 1
  446.5572 0.03 0
  447.1293 0.37 4
  447.3285 0.17 2
  447.4424 0.11 1
  447.6640 0.20 2
  448.0883 0.23 2
  448.2679 0.24 2
  448.4808 0.10 1
  448.6959 0.20 2
  448.7889 0.08 1
  449.1216 0.38 4
  449.2443 0.17 2
  449.6492 0.10 1
  450.0028 0.21 2
  450.2301 0.20 2
  450.3831 0.28 3
  450.5975 0.07 1
  450.7837 0.16 2
  451.1345 0.37 4
  451.3077 0.14 1
  451.4066 0.22 2
  451.6152 0.11 1
  451.7415 0.12 1
  452.0317 0.09 1
  452.2266 0.20 2
  452.3515 0.14 1
  452.5016 0.14 1
  452.9059 0.05 0
  453.0986 0.26 3
  453.4307 0.33 3
  453.5838 0.17 2
  453.8184 0.15 1
  453.9462 0.07 1
  454.0978 0.22 2
  454.4010 0.14 1
  454.7317 0.08 1
  454.8436 0.05 0
  454.9541 0.09 1
  455.2256 0.44 4
  455.5953 0.09 1
  455.7758 0.15 1
  455.9022 0.11 1
  456.2495 0.28 3
  456.5730 0.15 1
  456.7203 0.22 2
  456.9189 0.11 1
  457.1110 0.37 4
  457.3601 0.23 2
  457.5038 0.13 1
  457.7494 0.07 1
  458.1943 0.31 3
  458.6890 0.05 0
  458.9071 0.22 2
  459.1209 0.36 4
  459.7450 0.09 1
  460.0310 0.16 2
  460.2549 0.19 2
  460.4103 0.25 2
  460.6068 0.12 1
  460.7751 0.03 0
  461.0987 0.31 3
  461.3104 0.20 2
  461.6853 0.27 3
  461.7922 0.12 1
  461.9909 0.21 2
  462.2994 0.28 3
  462.6281 0.18 2
  463.0118 0.31 3
  463.1787 0.41 4
  463.3933 0.35 3
  463.6418 0.04 0
  463.7408 0.06 1
  463.8788 0.06 1
  464.1252 0.18 2
  464.3897 0.08 1
  464.6274 0.12 1
  464.8821 0.08 1
  465.1773 0.46 5
  465.4401 0.31 3
  465.6342 0.07 1
  465.8573 0.07 1
  466.0060 0.21 2
  466.1741 0.19 2
  466.3322 0.04 0
  466.5177 0.11 1
  466.8483 0.13 1
  466.9530 0.05 0
  467.1212 0.26 3
  467.3883 0.36 4
  468.2856 0.92 9
  468.4047 0.46 5
  468.6646 0.61 6
  469.2126 0.94 9
  469.5079 0.50 5
  469.7419 0.58 6
  469.9873 0.52 5
  470.1079 0.30 3
  470.2624 0.34 3
  470.4985 0.24 2
  470.7383 0.16 2
  470.8466 0.23 2
  471.1701 0.31 3
  471.4972 0.27 3
  471.7341 0.22 2
  471.8958 0.11 1
  472.1146 0.20 2
  472.2620 0.23 2
  472.3789 0.21 2
  472.5212 0.20 2
  473.0137 0.22 2
  473.3257 0.30 3
  473.5554 0.10 1
  473.7627 0.18 2
  473.9541 0.35 3
  474.2639 0.31 3
  474.3867 0.19 2
  474.5225 0.16 2
  474.7782 0.15 1
  474.9249 0.18 2
  475.1249 0.35 3
  475.3777 0.27 3
  475.5598 0.18 2
  475.7852 0.13 1
  475.9369 0.10 1
  476.1059 0.12 1
  476.3067 0.11 1
  476.4382 0.26 3
  476.6592 0.13 1
  476.9200 0.21 2
  477.2372 0.32 3
  477.4337 0.09 1
  477.5565 0.05 0
  478.0023 0.23 2
  478.1967 0.25 2
  478.3354 0.23 2
  478.4806 0.07 1
  478.6887 0.10 1
  478.8585 0.16 2
  479.1063 0.37 4
  479.3346 0.53 5
  479.5984 0.16 2
  479.7003 0.14 1
  479.9893 0.33 3
  480.2697 0.51 5
  480.5312 0.14 1
  480.7242 0.08 1
  480.9085 0.23 2
  481.2199 0.30 3
  481.4165 0.24 2
  481.6203 0.31 3
  481.7865 0.15 1
  482.2397 0.93 9
  482.4709 0.33 3
  482.5952 0.30 3
  482.6942 0.05 0
  482.8316 0.10 1
  482.9956 0.26 3
  483.2385 0.38 4
  483.3527 0.22 2
  483.5320 0.18 2
  483.7415 0.10 1
  483.9555 0.11 1
  484.0632 0.03 0
  484.2779 0.33 3
  484.3936 0.29 3
  484.5605 0.14 1
  484.7145 0.26 3
  484.8757 0.03 0
  485.1179 0.21 2
  485.3369 0.31 3
  485.4742 0.20 2
  485.6015 0.06 1
  485.8169 0.13 1
  486.1032 0.14 1
  486.3193 0.40 4
  486.5030 0.16 2
  486.6476 0.13 1
  486.8767 0.20 2
  487.0387 0.19 2
  487.2418 0.17 2
  487.3994 0.20 2
  487.4804 0.11 1
  487.7089 0.11 1
  487.8629 0.05 0
  488.2136 0.08 1
  488.3712 0.09 1
  488.5303 0.10 1
  488.6901 0.08 1
  488.8050 0.11 1
  488.9019 0.10 1
  489.2685 0.59 6
  489.4811 0.15 1
  489.6952 0.16 2
  489.8535 0.18 2
  490.0553 0.17 2
  490.3915 0.24 2
  490.6157 0.04 0
  490.7951 0.16 2
  491.1407 0.24 2
  491.3172 0.27 3
  491.4488 0.29 3
  491.6788 0.12 1
  491.9949 0.29 3
  492.2646 0.13 1
  492.5279 0.22 2
  492.7043 0.07 1
  493.1484 0.29 3
  493.3022 0.23 2
  493.5766 0.11 1
  493.7513 0.11 1
  494.0178 0.38 4
  494.2517 0.23 2
  494.4207 0.21 2
  494.5803 0.10 1
  494.9211 0.15 1
  495.3046 0.42 4
  495.4909 0.14 1
  495.6715 0.10 1
  495.8109 0.01 0
  496.0542 0.08 1
  496.2731 0.28 3
  496.6017 0.11 1
  496.7989 0.14 1
  497.0054 0.07 1
  497.2134 0.24 2
  497.4503 0.18 2
  497.7790 0.04 0
  497.8938 0.04 0
  498.1589 0.20 2
  498.4355 0.09 1
  498.6075 0.08 1
  499.2049 0.47 5
  499.4757 0.15 1
  499.6173 0.04 0
  499.9113 0.06 1
  500.2242 0.12 1
  500.4611 0.30 3
  500.8317 0.16 2
  501.0976 0.23 2
  501.4155 0.39 4
  501.7651 0.02 0
  501.9450 0.12 1
  502.0455 0.08 1
  502.1878 0.31 3
  502.3121 0.09 1
  502.5548 0.21 2
  502.6661 0.14 1
  502.8482 0.14 1
  503.2369 0.40 4
  503.5267 0.12 1
  503.7210 0.39 4
  504.2832 3.82 38
  504.4798 1.82 18
  504.6438 0.47 5
  504.8426 0.34 3
  505.2046 0.56 6
  505.4720 0.44 4
  505.6519 0.17 2
  505.7451 0.12 1
  505.9807 0.23 2
  506.1224 0.10 1
  506.2749 0.15 1
  506.4650 0.09 1
  506.6500 0.11 1
  506.8379 0.06 1
  507.1335 0.76 8
  507.3135 0.27 3
  507.6705 0.12 1
  507.9799 0.29 3
  508.1700 0.25 2
  508.3817 0.19 2
  508.5205 0.24 2
  508.6954 0.23 2
  508.7656 0.12 1
  509.2723 1.12 11
  509.4703 0.43 4
  509.7783 0.21 2
  509.9352 0.10 1
  510.0812 0.10 1
  510.3436 0.11 1
  510.5503 0.10 1
  510.9320 0.20 2
  511.0116 0.09 1
  511.1663 0.21 2
  511.3680 0.37 4
  511.5863 0.08 1
  512.0996 0.10 1
  512.3671 0.13 1
  512.5609 0.18 2
  512.7583 0.07 1
  512.8920 0.07 1
  513.2507 0.13 1
  513.7590 0.21 2
  513.8327 0.11 1
  514.2919 0.30 3
  514.4503 0.19 2
  514.7554 0.11 1
  514.8335 0.04 0
  515.0663 0.25 2
  515.2218 0.13 1
  515.4706 0.14 1
  516.1460 0.37 4
  516.3391 0.39 4
  516.5842 0.13 1
  516.6913 0.02 0
  517.2395 0.86 9
  517.4326 0.54 5
  517.6018 0.01 0
  517.9454 0.21 2
  518.0611 0.09 1
  518.2527 0.10 1
  518.3779 0.17 2
  518.6136 0.20 2
  518.8835 0.11 1
  519.1569 0.68 7
  519.3688 0.19 2
  519.5582 0.11 1
  519.8079 0.25 2
  520.0792 0.34 3
  520.3231 0.53 5
  520.5504 0.24 2
  520.8931 0.13 1
  521.2748 0.48 5
  521.5974 0.30 3
  521.8261 0.21 2
  522.1588 0.54 5
  522.3746 0.52 5
  522.4742 0.20 2
  522.5997 0.17 2
  522.8270 0.15 1
  523.0248 0.22 2
  523.2427 0.41 4
  523.5112 0.31 3
  523.8677 0.25 2
  524.1448 0.51 5
  524.3275 0.59 6
  524.6587 0.31 3
  524.7749 0.14 1
  525.2715 0.42 4
  525.6353 0.11 1
  525.8207 0.15 1
  525.9601 0.16 2
  526.0618 0.08 1
  526.3477 0.20 2
  526.4523 0.08 1
  526.6797 0.10 1
  526.8450 0.20 2
  527.1035 0.18 2
  527.3972 0.11 1
  527.6752 0.29 3
  528.2772 0.13 1
  528.5414 0.25 2
  528.7378 0.31 3
  528.9796 0.30 3
  529.1738 0.14 1
  529.4099 0.41 4
  529.6481 0.25 2
  529.7846 0.16 2
  530.1535 0.35 3
  530.3600 0.21 2
  530.4561 0.20 2
  530.6690 0.23 2
  530.9246 0.19 2
  531.2878 0.52 5
  531.6351 0.15 1
  531.8835 0.24 2
  532.0813 0.23 2
  532.3297 0.24 2
  532.6431 0.09 1
  532.9131 0.11 1
  533.1644 0.55 5
  533.4294 0.38 4
  533.6042 0.10 1
  533.8533 0.10 1
  534.0216 0.17 2
  534.2520 0.44 4
  534.4628 0.27 3
  534.5806 0.13 1
  534.8037 0.11 1
  535.1821 0.41 4
  535.4565 0.57 6
  535.5411 0.27 3
  536.1550 0.42 4
  536.4250 0.47 5
  536.6049 0.30 3
  536.7790 0.22 2
  537.0925 0.12 1
  537.2939 0.36 4
  537.5396 0.38 4
  537.7274 0.37 4
  538.1051 0.44 4
  538.4294 0.33 3
  538.8520 0.19 2
  539.2839 0.51 5
  539.5642 0.16 2
  539.7181 0.31 3
  539.8763 0.26 3
  540.0576 0.37 4
  540.3026 0.26 3
  540.5626 0.11 1
  540.7606 0.12 1
  540.9282 0.18 2
  541.0798 0.14 1
  541.3139 0.21 2
  541.5560 0.31 3
  541.8088 0.28 3
  542.0118 0.40 4
  542.2531 0.42 4
  542.3962 0.05 0
  542.9106 0.22 2
  543.0941 0.14 1
  543.3289 0.22 2
  543.5240 0.25 2
  543.7068 0.34 3
  543.9120 0.14 1
  544.1830 0.19 2
  544.4142 0.29 3
  544.6476 0.11 1
  544.8239 0.30 3
  544.9475 0.13 1
  545.3355 0.61 6
  545.6874 0.15 1
  545.8710 0.30 3
  546.2121 0.40 4
  546.5012 0.19 2
  546.7180 0.18 2
  547.0178 0.43 4
  547.4117 0.36 4
  547.5411 0.11 1
  547.7261 0.23 2
  547.9313 0.22 2
  548.0781 0.39 4
  548.3122 0.43 4
  548.5211 0.15 1
  548.7921 0.23 2
  549.1947 0.43 4
  549.4325 0.26 3
  550.2651 0.88 9
  551.2597 1.26 13
  551.5619 0.58 6
  552.2269 0.80 8
  552.5862 0.38 4
  552.7409 0.19 2
  553.2744 0.79 8
  553.5014 0.44 4
  553.6026 0.29 3
  553.7978 0.34 3
  554.0038 0.22 2
  554.2757 0.33 3
  554.4333 0.29 3
  554.6401 0.34 3
  554.9821 0.26 3
  555.5134 0.41 4
  555.6559 0.19 2
  555.8381 0.41 4
  556.0615 0.51 5
  556.2292 0.26 3
  556.6725 0.44 4
  557.0803 0.37 4
  557.3731 0.49 5
  557.8308 0.43 4
  558.1266 0.38 4
  558.3739 0.59 6
  558.4961 0.19 2
  558.8034 0.36 4
  559.2604 0.80 8
  559.5135 0.62 6
  559.6437 0.31 3
  559.7934 0.19 2
  560.1044 0.87 9
  560.3647 1.17 12
  560.5839 0.77 8
  561.0504 0.50 5
  561.3056 0.72 7
  561.4583 0.53 5
  561.7425 0.31 3
  561.9544 0.27 3
  562.3348 0.53 5
  562.7254 0.18 2
  562.8259 0.10 1
  563.2903 2.11 21
  563.6057 0.53 5
  564.0598 0.58 6
  564.3515 0.16 2
  564.4952 0.13 1
  564.6757 0.05 0
  564.8237 0.48 5
  565.1559 0.69 7
  565.5523 0.28 3
  565.7733 0.39 4
  566.3242 1.00 10
  566.8001 0.57 6
  567.3258 1.26 13
  568.3708 2.75 27
  568.8511 0.57 6
  569.5263 0.84 8
  570.1742 0.78 8
  570.6682 1.06 11
  571.0705 0.92 9
  571.5840 1.09 11
  571.9156 0.57 6
  572.2183 0.55 5
  572.3931 0.75 7
  572.8546 1.06 11
  573.3170 0.82 8
  573.9280 1.09 11
  574.4691 1.61 16
  578.3120 31.97 319
  579.3828 6.24 62
  580.2831 2.88 29
  581.3447 13.95 139
  581.8513 1.63 16
  582.9858 1.39 14
  583.7736 1.25 12
  584.4884 1.07 11
  584.9025 1.02 10
  585.9354 1.66 17
  586.6921 1.62 16
  596.2972 99.97 999
  597.2830 34.99 350
  598.1078 16.10 161
  598.8683 9.37 94
  600.0457 4.53 45
  601.0345 2.32 23
  601.8406 1.66 17
  602.4200 1.34 13
  602.9603 1.10 11
  603.1604 0.49 5
  603.3663 0.76 8
  603.5859 0.61 6
  603.8120 0.75 7
  603.9702 0.38 4
//
