ACCESSION: MSBNK-Kyoto_Univ-CA000145
RECORD_TITLE: Asteroidenone; FAB-EBEB; MS2; m/z: 566.41; [M]*+
DATE: 2016.01.19 (Created 2007.03.15, modified 2011.05.10)
AUTHORS: Akimoto N, Graduate School of Pharmaceutical Sciences, Kyoto University and Maoka T, Research Institute for Production Development
LICENSE: CC BY-SA
COMMENT: Profile spectrum of this record is given as a JPEG file.
COMMENT: [Profile] CA000145.jpg
CH$NAME: Asteroidenone
CH$NAME: 3'-Hydroxyechinenone
CH$COMPOUND_CLASS: Natural Product; Carotenoid
CH$FORMULA: C40H54O2
CH$EXACT_MASS: 566.41238
CH$SMILES: C(C(C)=1)(=O)CCC(C(C=CC(C)=CC=CC(=CC=CC=C(C=CC=C(C)C=CC(=C(C)2)C(C)(C)CC(C2)O)C)C)1)(C)C
CH$IUPAC: InChI=1S/C40H54O2/c1-29(17-13-19-31(3)21-23-36-33(5)27-35(41)28-40(36,9)10)15-11-12-16-30(2)18-14-20-32(4)22-24-37-34(6)38(42)25-26-39(37,7)8/h11-24,35,41H,25-28H2,1-10H3/b12-11+,17-13+,18-14+,23-21+,24-22+,29-15+,30-16+,31-19+,32-20+/t35-/m1/s1
CH$LINK: CHEMSPIDER 4905357
CH$LINK: PUBCHEM CID:6386523
CH$LINK: INCHIKEY ZRCXVNZZDQGBQT-BANQPSJHSA-N
AC$INSTRUMENT: JMS-HX/HX 110A, JEOL
AC$INSTRUMENT_TYPE: FAB-EBEB
AC$MASS_SPECTROMETRY: MS_TYPE MS2
AC$MASS_SPECTROMETRY: ION_MODE POSITIVE
AC$MASS_SPECTROMETRY: ATOM_GUN_CURRENT 5 mA
AC$MASS_SPECTROMETRY: BOMBARDMENT 6 kV xenon
AC$MASS_SPECTROMETRY: COLLISION_ENERGY 3 kV
AC$MASS_SPECTROMETRY: COLLISION_GAS Ar
AC$MASS_SPECTROMETRY: GAS_PRESSURE adjust to attenuate the intensity of the precursor ion by 30 %
AC$MASS_SPECTROMETRY: IONIZATION FAB
AC$MASS_SPECTROMETRY: MATRIX 1-2 uL m-NBA
AC$MASS_SPECTROMETRY: PROBE_TIP stainless-steel
MS$FOCUSED_ION: BASE_PEAK 566.3022
MS$FOCUSED_ION: PRECURSOR_M/Z 566.41
MS$FOCUSED_ION: PRECURSOR_TYPE [M]+*
PK$SPLASH: splash10-014l-3920020000-65da31354179a89cd1a8
PK$NUM_PEAK: 1711
PK$PEAK: m/z int. rel.int.
  0.3488 0.01 0
  0.3957 0.01 0
  2.6634 0.01 0
  7.9532 0.01 0
  10.1741 0.02 0
  12.9603 0.01 0
  13.9634 0.12 1
  14.9735 0.37 4
  15.9660 0.03 0
  20.9508 0.02 0
  21.0750 0.02 0
  22.9172 0.14 1
  24.9408 0.13 1
  25.9476 1.07 11
  26.9527 4.31 43
  27.9477 0.55 5
  28.9627 3.64 36
  29.9459 0.05 0
  30.9447 0.34 3
  31.9338 0.01 0
  35.0799 0.02 0
  35.9208 0.13 1
  36.3285 0.02 0
  36.9320 0.64 6
  37.6141 0.03 0
  37.9330 1.68 17
  38.2935 0.01 0
  38.5346 0.04 0
  38.7109 0.03 0
  38.9394 11.35 113
  39.3827 0.02 0
  39.6730 0.01 0
  39.9509 1.47 15
  40.9540 20.52 205
  41.4458 0.03 0
  41.9522 0.75 7
  42.3572 0.01 0
  42.9471 13.38 134
  43.3142 0.04 0
  43.9307 0.29 3
  44.8397 0.04 0
  44.9484 0.35 3
  47.9063 0.03 0
  48.5822 0.01 0
  48.9199 0.35 3
  49.0218 0.05 0
  49.3329 0.07 1
  49.6904 0.04 0
  49.9279 3.26 33
  50.5802 0.04 0
  50.7129 0.04 0
  50.9335 8.12 81
  51.2177 0.03 0
  51.6395 0.03 0
  51.9407 2.78 28
  52.9498 11.57 116
  53.9549 0.56 6
  54.4998 0.03 0
  54.9557 26.59 266
  55.2387 0.02 0
  55.7437 0.03 0
  55.9655 2.10 21
  56.2617 0.01 0
  56.6760 0.01 0
  56.9738 8.16 82
  57.4512 0.02 0
  57.9415 0.07 1
  58.1896 0.01 0
  58.9584 1.54 15
  59.2682 0.01 0
  59.7829 0.02 0
  60.4541 0.06 1
  60.9210 0.47 5
  61.2956 0.02 0
  61.4722 0.03 0
  61.9276 1.95 19
  62.0716 0.05 0
  62.2785 0.01 0
  62.9337 6.42 64
  63.1237 0.04 0
  63.3537 0.10 1
  63.4402 0.05 0
  63.5251 0.04 0
  63.9401 1.41 14
  64.4543 0.05 0
  64.9433 10.71 107
  65.2304 0.02 0
  65.4959 0.03 0
  65.5905 0.01 0
  65.9421 1.86 19
  66.5688 0.07 1
  66.9533 14.35 143
  67.1491 0.05 0
  67.2583 0.01 0
  67.6686 0.01 0
  67.9570 0.40 4
  68.3978 0.02 0
  68.6077 0.08 1
  68.9684 25.44 254
  69.5039 0.04 0
  69.9369 0.46 5
  70.9521 2.30 23
  71.0948 0.04 0
  71.1850 0.04 0
  71.8225 0.02 0
  71.9639 0.07 1
  72.9396 0.13 1
  73.5428 0.04 0
  73.9109 1.27 13
  74.9246 2.39 24
  75.1600 0.04 0
  75.3411 0.09 1
  75.5502 0.05 0
  75.9206 1.54 15
  76.1341 0.02 0
  76.2676 0.03 0
  76.9296 26.75 267
  77.1898 0.22 2
  77.4105 0.09 1
  77.9242 5.34 53
  78.2079 0.11 1
  78.4270 0.17 2
  78.9434 22.09 221
  79.1998 0.09 1
  79.4594 0.04 0
  79.9509 3.02 30
  80.2046 0.04 0
  80.4384 0.17 2
  80.5401 0.08 1
  80.9555 21.10 211
  81.2363 0.08 1
  81.6802 0.06 1
  81.9350 0.45 4
  82.4394 0.15 1
  82.9510 6.03 60
  83.1067 0.12 1
  83.2612 0.01 0
  83.4479 0.03 0
  83.9210 0.14 1
  84.0409 0.07 1
  84.5677 0.03 0
  84.9483 6.42 64
  85.1167 0.06 1
  85.3697 0.03 0
  85.5014 0.04 0
  85.9085 0.73 7
  86.9039 1.13 11
  87.4453 0.03 0
  87.9203 0.67 7
  88.1073 0.09 1
  88.1781 0.06 1
  88.5129 0.21 2
  88.9254 3.21 32
  89.2001 0.24 2
  89.5519 0.19 2
  89.9329 1.31 13
  90.2462 0.21 2
  90.9356 47.00 470
  91.2598 0.11 1
  91.4852 0.16 2
  91.6641 0.02 0
  91.9435 4.56 46
  92.1366 0.06 1
  92.2564 0.06 1
  92.3775 0.02 0
  92.9538 27.58 276
  93.3602 0.07 1
  93.7026 0.04 0
  93.9668 2.05 20
  94.2050 0.07 1
  94.4610 0.14 1
  94.5911 0.04 0
  94.9758 15.31 153
  95.2254 0.03 0
  95.7734 0.04 0
  95.9545 0.81 8
  96.5082 0.02 0
  96.9604 4.39 44
  97.1939 0.06 1
  97.3989 0.01 0
  97.6908 0.10 1
  97.9168 0.28 3
  98.9389 0.28 3
  99.4013 0.03 0
  99.7147 0.02 0
  99.9232 0.24 2
  100.3827 0.04 0
  100.9210 0.79 8
  101.1231 0.14 1
  101.2532 0.15 1
  101.3512 0.10 1
  101.5239 0.08 1
  101.9330 2.81 28
  102.2257 0.10 1
  102.3524 0.06 1
  102.5056 0.12 1
  102.9483 8.99 90
  103.1778 0.21 2
  103.3641 0.13 1
  103.9388 4.23 42
  104.3038 0.19 2
  104.9615 52.13 521
  105.3148 0.11 1
  105.5782 0.11 1
  105.9636 5.34 53
  106.1764 0.06 1
  106.4856 0.14 1
  106.9777 22.17 222
  107.2331 0.11 1
  107.3220 0.07 1
  107.5347 0.09 1
  107.9684 1.79 18
  108.2785 0.02 0
  108.4466 0.04 0
  108.9845 10.05 100
  109.2202 0.08 1
  109.4617 0.08 1
  109.9336 0.50 5
  110.1541 0.02 0
  110.9574 3.42 34
  111.3291 0.03 0
  111.9202 0.25 2
  112.0706 0.08 1
  112.4937 0.18 2
  112.9354 0.85 8
  113.1858 0.19 2
  113.3082 0.12 1
  113.6028 0.28 3
  113.9295 1.07 11
  114.0659 0.35 3
  114.9188 26.16 261
  115.4031 0.25 2
  115.9324 9.23 92
  116.9386 24.65 246
  117.1855 0.21 2
  117.2866 0.16 2
  117.4578 0.10 1
  117.9343 5.15 51
  118.2568 0.08 1
  118.3492 0.07 1
  118.9486 49.35 493
  119.2500 0.21 2
  119.3932 0.20 2
  119.5402 0.21 2
  119.9541 5.76 58
  120.1590 0.10 1
  120.4692 0.15 1
  120.9560 18.14 181
  121.2469 0.11 1
  121.3536 0.06 1
  121.5322 0.14 1
  121.6447 0.07 1
  121.9517 1.43 14
  122.2296 0.04 0
  122.4924 0.07 1
  122.9551 4.08 41
  123.2340 0.05 0
  123.3334 0.05 0
  123.4175 0.03 0
  123.5532 0.07 1
  123.9554 0.55 5
  124.1358 0.06 1
  124.4445 0.07 1
  124.9365 1.01 10
  125.0795 0.19 2
  125.1587 0.06 1
  125.3043 0.12 1
  125.5036 0.12 1
  125.9049 1.64 16
  126.9116 9.12 91
  127.4999 0.37 4
  127.9119 28.51 285
  128.3028 0.26 3
  128.9153 30.83 308
  129.3395 0.12 1
  129.9239 12.19 122
  130.3499 0.24 2
  130.9298 30.74 307
  131.2997 0.18 2
  131.5004 0.16 2
  131.9337 6.29 63
  132.3878 0.20 2
  132.5527 0.24 2
  132.9349 31.42 314
  133.3250 0.18 2
  133.4676 0.13 1
  133.9438 3.76 38
  134.2401 0.10 1
  134.5229 0.06 1
  134.9409 10.19 102
  135.1808 0.17 2
  135.4207 0.13 1
  135.9344 0.98 10
  136.0561 0.26 3
  136.2218 0.06 1
  136.4129 0.19 2
  136.9388 8.14 81
  137.2680 0.10 1
  137.4275 0.03 0
  137.9281 1.08 11
  138.1363 0.05 0
  138.2285 0.03 0
  138.4335 0.13 1
  138.9204 5.22 52
  139.3036 0.16 2
  139.9319 1.60 16
  140.1159 0.36 4
  140.3240 0.20 2
  140.9075 24.51 245
  141.1639 0.22 2
  141.9192 20.76 207
  142.4091 0.23 2
  142.9293 35.11 351
  143.2834 0.24 2
  143.4817 0.10 1
  143.9372 11.19 112
  144.1650 0.32 3
  144.9389 33.16 331
  145.4441 0.39 4
  145.9358 4.89 49
  146.2144 0.18 2
  146.4381 0.12 1
  146.9434 15.82 158
  147.2282 0.09 1
  147.3552 0.13 1
  147.5583 0.13 1
  147.9441 2.14 21
  148.1977 0.14 1
  148.5124 0.16 2
  148.9576 4.96 50
  149.2528 0.15 1
  149.5133 0.15 1
  149.9110 0.91 9
  150.2071 0.04 0
  150.4179 0.27 3
  150.5269 0.14 1
  150.9250 2.67 27
  151.2490 0.33 3
  151.9209 10.60 106
  152.2807 0.42 4
  152.9157 13.54 135
  153.3489 0.25 2
  153.9292 6.84 68
  154.1651 0.28 3
  154.4353 0.19 2
  154.9456 23.64 236
  155.2206 0.17 2
  155.9529 16.71 167
  156.1767 0.17 2
  156.3192 0.28 3
  156.4487 0.17 2
  156.9638 30.05 300
  157.2914 0.21 2
  157.9728 6.89 69
  158.1705 0.33 3
  158.3233 0.16 2
  158.9735 17.13 171
  159.3196 0.16 2
  159.4996 0.18 2
  159.9770 3.58 36
  160.2584 0.06 1
  160.4227 0.15 1
  160.9773 7.33 73
  161.2258 0.14 1
  161.4221 0.06 1
  161.9605 1.70 17
  162.2703 0.06 1
  162.4448 0.08 1
  162.9770 4.77 48
  163.2419 0.25 2
  163.9551 1.65 16
  164.1272 0.47 5
  164.4082 0.24 2
  164.9513 22.83 228
  165.2505 0.31 3
  165.3888 0.15 1
  165.5424 0.32 3
  165.9602 7.06 71
  166.2929 0.31 3
  166.9658 16.25 162
  167.3461 0.17 2
  167.6652 0.26 3
  167.9828 7.53 75
  168.2592 0.19 2
  168.5416 0.19 2
  168.9823 21.89 219
  169.4305 0.42 4
  169.5675 0.27 3
  169.9912 8.42 84
  170.9876 16.83 168
  171.3232 0.17 2
  171.5257 0.11 1
  171.9993 4.26 43
  172.2145 0.12 1
  172.4251 0.13 1
  172.6351 0.14 1
  172.9944 10.97 110
  173.3365 0.20 2
  173.5239 0.19 2
  173.9788 1.97 20
  174.3212 0.07 1
  174.4526 0.10 1
  175.0007 6.74 67
  175.5182 0.17 2
  175.9591 2.40 24
  176.9422 2.76 28
  177.9326 11.03 110
  178.3929 0.23 2
  178.9504 15.60 156
  179.2155 0.13 1
  179.5510 0.11 1
  179.9643 7.74 77
  180.1907 0.18 2
  180.9593 16.81 168
  181.3394 0.07 1
  181.9704 6.56 66
  182.3555 0.27 3
  182.4554 0.21 2
  182.9721 18.84 188
  183.3527 0.20 2
  183.5346 0.19 2
  183.9785 4.49 45
  184.3163 0.21 2
  184.4822 0.12 1
  184.9753 8.83 88
  185.3362 0.29 3
  185.6582 0.16 2
  185.9809 1.84 18
  186.3104 0.05 0
  186.4610 0.19 2
  186.6346 0.10 1
  186.9891 6.09 61
  187.3282 0.27 3
  187.4769 0.15 1
  187.9696 1.14 11
  188.1614 0.32 3
  188.9426 6.83 68
  189.2962 0.27 3
  189.9559 2.98 30
  190.2262 0.23 2
  190.4351 0.05 0
  190.9496 8.95 89
  191.2955 0.25 2
  191.4014 0.15 1
  191.9505 6.84 68
  192.2164 0.19 2
  192.4256 0.24 2
  192.9514 13.00 130
  193.4456 0.26 3
  193.9657 7.04 70
  194.2048 0.26 3
  194.9656 18.28 183
  195.9763 5.78 58
  196.9767 12.60 126
  197.2744 0.07 1
  197.4740 0.23 2
  197.9789 2.76 28
  198.2721 0.11 1
  198.4698 0.17 2
  198.9858 5.33 53
  199.3082 0.28 3
  199.5372 0.19 2
  199.9600 2.71 27
  200.2188 0.14 1
  200.5164 0.20 2
  200.9882 4.88 49
  201.9336 5.44 54
  202.3012 0.21 2
  202.5516 0.37 4
  202.9737 7.39 74
  203.3158 0.23 2
  203.9519 3.11 31
  204.2392 0.13 1
  204.3519 0.16 2
  204.9578 8.28 83
  205.2879 0.23 2
  205.9634 5.85 58
  206.3604 0.25 2
  206.9716 12.20 122
  207.3035 0.05 0
  207.9797 4.89 49
  208.2096 0.28 3
  208.4458 0.31 3
  208.9888 12.46 125
  209.4381 0.23 2
  209.9897 3.12 31
  210.5481 0.27 3
  210.9991 6.14 61
  211.5088 0.15 1
  211.6233 0.20 2
  212.0056 1.48 15
  212.3697 0.09 1
  212.5367 0.11 1
  212.9874 4.03 40
  213.3734 0.10 1
  213.5542 0.18 2
  214.0132 1.36 14
  214.4220 0.24 2
  214.9850 7.82 78
  215.2983 0.15 1
  215.9694 3.31 33
  216.2248 0.21 2
  216.3710 0.15 1
  216.4809 0.16 2
  216.9830 6.18 62
  217.5295 0.22 2
  217.6430 0.13 1
  217.9963 2.58 26
  218.4624 0.20 2
  218.9977 6.98 70
  219.3437 0.09 1
  220.0154 3.29 33
  220.2541 0.28 3
  220.5168 0.14 1
  221.0225 6.89 69
  221.4865 0.12 1
  222.0177 2.74 27
  222.3600 0.06 1
  222.6408 0.17 2
  223.0407 6.54 65
  223.4825 0.12 1
  224.0080 1.35 13
  224.5541 0.44 4
  225.0510 3.99 40
  225.2615 0.27 3
  225.5048 0.24 2
  225.9964 2.14 21
  226.3764 0.10 1
  227.0095 2.59 26
  227.3868 0.08 1
  227.5377 0.13 1
  227.6859 0.25 2
  228.0256 1.60 16
  228.3576 0.17 2
  228.5349 0.21 2
  229.0092 4.13 41
  229.3885 0.08 1
  229.4878 0.05 0
  230.0096 2.15 21
  230.2404 0.19 2
  230.3958 0.14 1
  231.0178 4.39 44
  231.4913 0.21 2
  231.5892 0.11 1
  232.0086 2.34 23
  232.3390 0.10 1
  233.0238 5.81 58
  233.4222 0.21 2
  233.6553 0.17 2
  234.0456 2.04 20
  234.5161 0.26 3
  234.6828 0.22 2
  235.0382 5.16 52
  235.2770 0.17 2
  235.3826 0.07 1
  235.5364 0.14 1
  236.0470 1.26 13
  236.2886 0.23 2
  236.6236 0.23 2
  237.0472 3.69 37
  237.4276 0.18 2
  237.6481 0.16 2
  238.0299 0.90 9
  238.3905 0.16 2
  239.0020 3.88 39
  239.5291 0.16 2
  239.7290 0.28 3
  240.0432 0.82 8
  240.4061 0.21 2
  241.0145 3.09 31
  241.4113 0.09 1
  241.5798 0.13 1
  241.9911 2.05 20
  242.3983 0.21 2
  243.0264 3.50 35
  243.3065 0.11 1
  244.0160 2.06 21
  244.2721 0.09 1
  245.0142 4.02 40
  245.3227 0.18 2
  245.5093 0.18 2
  245.6836 0.24 2
  246.0245 1.34 13
  246.2545 0.10 1
  246.4660 0.08 1
  246.6534 0.18 2
  247.0413 4.29 43
  247.3748 0.12 1
  247.4940 0.03 0
  247.6966 0.11 1
  248.0467 1.29 13
  248.3320 0.17 2
  248.5540 0.21 2
  249.0545 4.02 40
  249.3772 0.07 1
  249.5351 0.06 1
  249.7268 0.23 2
  250.0799 1.01 10
  250.3661 0.20 2
  250.5923 0.20 2
  251.0511 2.32 23
  251.3257 0.15 1
  251.5023 0.18 2
  252.0357 0.95 9
  252.3421 0.03 0
  252.4574 0.07 1
  253.0393 2.53 25
  253.3762 0.18 2
  254.0100 0.87 9
  254.1688 0.41 4
  254.4056 0.06 1
  254.6134 0.06 1
  255.0393 2.77 28
  255.3894 0.09 1
  256.0441 0.87 9
  256.3101 0.17 2
  256.4827 0.10 1
  256.6520 0.17 2
  257.0430 3.32 33
  257.5515 0.03 0
  258.0435 1.09 11
  258.3304 0.04 0
  258.4638 0.06 1
  258.5909 0.11 1
  259.0493 3.26 33
  259.3839 0.12 1
  259.4751 0.07 1
  260.0615 1.67 17
  260.3616 0.07 1
  260.5829 0.24 2
  261.0533 3.70 37
  261.4123 0.11 1
  262.0176 0.77 8
  262.3546 0.19 2
  262.4792 0.17 2
  263.0536 2.16 22
  263.4751 0.20 2
  263.6309 0.12 1
  263.8828 0.25 2
  264.0476 0.83 8
  264.1978 0.37 4
  264.4229 0.10 1
  265.0502 2.18 22
  265.4457 0.21 2
  265.6735 0.03 0
  266.0420 0.86 9
  266.2492 0.14 1
  266.6260 0.26 3
  267.0619 2.09 21
  267.5462 0.11 1
  268.0341 1.02 10
  268.5068 0.07 1
  268.6469 0.11 1
  269.0684 2.62 26
  269.3713 0.07 1
  269.6376 0.15 1
  270.0842 0.93 9
  270.6501 0.22 2
  271.0656 1.59 16
  271.4575 0.08 1
  271.6400 0.08 1
  271.7628 0.15 1
  272.0828 0.91 9
  272.6407 0.08 1
  273.0673 1.70 17
  273.4904 0.12 1
  273.7826 0.34 3
  274.1227 0.71 7
  274.4648 0.15 1
  274.6962 0.19 2
  275.0793 1.75 17
  275.3391 0.18 2
  275.6073 0.52 5
  276.0625 0.78 8
  276.4215 0.11 1
  277.0827 1.70 17
  277.3752 0.24 2
  278.0519 0.51 5
  278.3396 0.15 1
  278.4513 0.09 1
  279.0656 1.44 14
  279.3958 0.22 2
  280.0547 0.81 8
  280.2337 0.17 2
  281.0739 1.89 19
  281.3917 0.15 1
  281.5984 0.13 1
  281.6928 0.07 1
  282.0558 1.10 11
  282.3834 0.06 1
  282.5694 0.40 4
  283.0880 3.82 38
  283.6621 0.13 1
  284.0634 1.34 13
  284.1939 0.37 4
  284.5432 0.09 1
  285.0704 1.69 17
  285.4440 0.07 1
  285.6941 0.11 1
  286.0651 0.63 6
  286.2735 0.07 1
  286.6042 0.12 1
  287.0940 1.67 17
  287.4880 0.10 1
  288.0224 0.49 5
  288.5343 0.13 1
  288.6461 0.04 0
  289.0698 1.32 13
  289.4185 0.04 0
  289.5227 0.10 1
  289.8124 0.12 1
  290.0778 0.56 6
  290.4968 0.06 1
  290.6705 0.07 1
  291.0374 0.95 9
  291.3703 0.06 1
  291.5448 0.04 0
  291.6747 0.04 0
  291.8513 0.13 1
  292.0848 0.57 6
  292.3601 0.03 0
  292.6021 0.11 1
  293.0595 1.26 13
  293.4037 0.03 0
  293.5851 0.04 0
  293.7103 0.02 0
  294.0476 0.42 4
  294.4614 0.09 1
  295.0602 1.17 12
  295.3719 0.05 0
  295.5826 0.17 2
  295.9041 0.34 3
  296.0954 0.53 5
  296.4217 0.16 2
  296.7439 0.13 1
  297.0688 1.20 12
  297.4279 0.05 0
  297.5727 0.13 1
  298.0299 0.41 4
  298.4065 0.04 0
  299.0595 1.15 11
  299.3185 0.07 1
  299.4884 0.14 1
  299.6617 0.11 1
  300.0573 0.42 4
  300.1505 0.21 2
  300.5043 0.10 1
  300.6596 0.10 1
  301.0461 0.78 8
  301.4320 0.11 1
  301.6020 0.03 0
  302.0311 0.62 6
  302.2129 0.11 1
  302.4832 0.07 1
  302.5689 0.04 0
  302.7703 0.16 2
  303.0678 0.80 8
  303.2768 0.13 1
  303.4113 0.08 1
  303.7800 0.05 0
  304.0225 0.32 3
  304.1842 0.20 2
  304.3668 0.03 0
  304.7648 0.19 2
  305.0394 0.88 9
  305.1551 0.35 3
  305.4298 0.05 0
  305.6598 0.04 0
  306.0049 0.32 3
  306.2566 0.04 0
  306.4170 0.05 0
  306.6004 0.04 0
  306.7231 0.02 0
  307.0718 1.13 11
  307.4219 0.03 0
  307.7204 0.05 0
  308.0328 0.33 3
  308.4416 0.07 1
  308.6013 0.05 0
  309.0436 0.67 7
  309.1880 0.34 3
  309.3129 0.15 1
  309.5034 0.03 0
  310.0323 0.31 3
  310.2451 0.20 2
  310.5117 0.12 1
  310.6792 0.04 0
  311.0609 0.94 9
  311.4392 0.04 0
  311.7163 0.05 0
  312.0318 0.32 3
  312.1651 0.29 3
  312.4074 0.06 1
  312.5889 0.06 1
  312.9121 0.51 5
  313.0867 0.62 6
  313.4148 0.02 0
  313.5775 0.05 0
  314.0587 0.30 3
  314.2926 0.11 1
  314.6718 0.21 2
  315.0650 0.95 9
  315.3368 0.18 2
  315.5261 0.13 1
  315.7028 0.03 0
  315.9256 0.21 2
  316.1506 0.52 5
  316.4146 0.07 1
  316.6194 0.04 0
  317.0882 0.63 6
  317.3509 0.10 1
  317.4683 0.05 0
  317.7457 0.06 1
  317.8645 0.11 1
  318.1126 0.44 4
  318.4774 0.15 1
  318.6054 0.04 0
  319.0541 0.99 10
  319.2002 0.40 4
  319.3239 0.11 1
  319.4504 0.04 0
  319.6287 0.05 0
  319.7489 0.03 0
  320.0426 0.27 3
  320.2104 0.11 1
  320.3145 0.05 0
  320.9934 0.51 5
  321.1613 0.74 7
  321.3941 0.11 1
  321.7130 0.06 1
  322.0914 0.28 3
  322.4110 0.02 0
  323.0475 0.38 4
  323.2553 0.08 1
  323.7191 0.07 1
  324.0374 0.15 1
  324.5440 0.11 1
  324.7294 0.02 0
  325.0688 0.37 4
  325.7616 0.09 1
  325.8701 0.08 1
  326.1003 0.26 3
  326.3488 0.08 1
  326.7849 0.12 1
  327.1026 0.65 6
  327.4456 0.04 0
  327.7061 0.15 1
  327.7880 0.09 1
  328.0638 0.20 2
  328.3432 0.01 0
  328.6429 0.08 1
  328.7220 0.03 0
  329.0840 0.60 6
  329.7563 0.09 1
  330.0694 0.28 3
  330.3012 0.04 0
  330.4742 0.05 0
  330.6920 0.14 1
  330.7817 0.13 1
  331.1137 1.16 12
  331.3269 0.14 1
  331.5240 0.07 1
  331.7617 0.04 0
  332.1120 0.21 2
  332.2602 0.15 1
  332.5594 0.05 0
  332.6993 0.05 0
  333.1307 1.20 12
  333.6244 0.08 1
  333.8867 0.19 2
  334.0426 0.51 5
  334.2112 0.36 4
  334.3902 0.06 1
  334.5553 0.07 1
  334.7189 0.07 1
  335.1198 1.04 10
  335.5576 0.12 1
  335.6675 0.05 0
  335.7787 0.11 1
  335.9179 0.17 2
  336.0837 0.64 6
  336.2348 0.33 3
  336.3314 0.09 1
  336.4888 0.13 1
  336.5994 0.07 1
  336.7141 0.09 1
  337.1059 0.40 4
  337.6700 0.09 1
  338.2508 0.17 2
  338.4741 0.16 2
  338.6196 0.12 1
  338.7673 0.06 1
  339.1208 0.27 3
  339.2965 0.10 1
  339.4203 0.09 1
  339.5352 0.06 1
  339.8166 0.02 0
  340.0112 0.17 2
  340.2156 0.13 1
  340.4970 0.04 0
  341.1048 0.41 4
  341.5893 0.03 0
  341.8694 0.12 1
  342.0501 0.28 3
  342.1936 0.11 1
  342.4948 0.06 1
  342.6706 0.05 0
  343.0516 0.52 5
  343.3037 0.11 1
  343.4088 0.04 0
  343.5783 0.15 1
  343.6672 0.05 0
  343.9439 0.10 1
  344.1247 0.37 4
  344.2620 0.12 1
  344.4189 0.06 1
  344.7979 0.02 0
  345.1097 0.56 6
  345.4333 0.11 1
  345.6478 0.12 1
  345.7325 0.03 0
  345.9967 0.15 1
  346.1733 0.26 3
  346.3373 0.04 0
  346.4536 0.10 1
  346.6491 0.07 1
  347.1060 1.19 12
  347.3759 0.16 2
  347.5833 0.08 1
  347.8889 0.15 1
  348.1651 0.91 9
  348.5661 0.11 1
  349.1311 0.72 7
  349.5041 0.08 1
  350.1077 0.41 4
  350.4352 0.15 1
  351.0999 0.47 5
  351.3187 0.08 1
  351.7395 0.05 0
  351.8391 0.02 0
  352.0004 0.13 1
  352.1519 0.09 1
  352.2578 0.07 1
  352.3862 0.02 0
  352.8302 0.06 1
  353.1746 0.36 4
  353.6874 0.06 1
  353.9484 0.11 1
  354.1069 0.23 2
  354.2585 0.03 0
  354.5714 0.05 0
  354.7454 0.02 0
  355.1439 0.40 4
  355.4688 0.02 0
  355.7460 0.07 1
  355.8288 0.04 0
  356.2057 0.26 3
  356.4190 0.06 1
  356.5727 0.03 0
  356.7636 0.05 0
  357.1342 0.38 4
  357.3665 0.07 1
  357.6164 0.10 1
  357.7898 0.08 1
  357.8775 0.03 0
  358.1350 0.26 3
  358.3497 0.04 0
  358.5966 0.03 0
  359.0995 0.67 7
  359.4741 0.04 0
  359.6081 0.04 0
  360.1406 0.35 3
  360.3433 0.19 2
  360.5391 0.08 1
  360.6590 0.05 0
  360.8513 0.08 1
  361.1888 0.83 8
  361.5207 0.05 0
  361.8400 0.07 1
  362.1607 0.72 7
  362.5754 0.07 1
  362.7488 0.02 0
  363.1783 1.27 13
  363.6331 0.09 1
  363.9195 0.08 1
  364.1954 0.22 2
  364.4383 0.05 0
  364.7668 0.03 0
  365.0820 0.26 3
  365.2899 0.04 0
  365.4366 0.08 1
  365.6697 0.07 1
  366.0032 0.11 1
  366.1738 0.27 3
  366.2454 0.12 1
  366.4350 0.05 0
  366.9287 0.05 0
  367.1541 0.33 3
  367.6780 0.03 0
  367.9364 0.11 1
  368.0249 0.04 0
  368.2813 0.14 1
  368.8474 0.02 0
  369.1326 0.24 2
  369.2485 0.07 1
  369.3609 0.11 1
  369.5035 0.05 0
  370.2306 0.18 2
  370.6205 0.07 1
  370.7540 0.09 1
  370.8158 0.04 0
  371.1833 0.38 4
  371.3456 0.20 2
  371.6224 0.08 1
  371.7616 0.05 0
  371.9794 0.03 0
  372.2035 0.28 3
  372.3676 0.11 1
  372.5528 0.03 0
  372.6615 0.05 0
  372.7660 0.08 1
  373.1539 0.68 7
  373.6976 0.07 1
  373.8148 0.08 1
  374.1424 0.54 5
  374.7612 0.03 0
  375.1577 0.62 6
  375.8215 0.05 0
  376.1948 0.55 5
  376.5492 0.06 1
  376.7787 0.04 0
  376.9163 0.07 1
  377.1472 0.29 3
  377.4321 0.08 1
  377.5606 0.01 0
  377.8540 0.06 1
  378.1074 0.09 1
  378.2934 0.08 1
  378.6521 0.02 0
  378.8802 0.07 1
  379.0585 0.18 2
  379.1786 0.20 2
  379.2769 0.07 1
  379.5921 0.10 1
  379.8006 0.03 0
  379.9551 0.07 1
  380.1762 0.12 1
  380.4002 0.08 1
  380.9865 0.27 3
  381.1508 0.24 2
  381.3299 0.17 2
  381.4760 0.07 1
  381.6066 0.03 0
  381.7091 0.10 1
  382.0504 0.16 2
  382.2232 0.04 0
  383.1707 0.37 4
  383.3505 0.09 1
  383.6834 0.02 0
  383.7944 0.03 0
  384.1042 0.18 2
  384.2657 0.07 1
  384.4020 0.01 0
  384.9879 0.25 2
  385.1980 0.48 5
  385.3645 0.11 1
  385.5429 0.10 1
  385.6455 0.09 1
  385.9005 0.10 1
  386.1099 0.18 2
  386.2947 0.14 1
  386.8259 0.07 1
  386.9320 0.03 0
  387.0656 0.03 0
  387.2033 0.07 1
  387.3509 0.23 2
  387.4717 0.07 1
  387.6678 0.08 1
  387.9039 0.07 1
  388.1267 0.40 4
  388.2595 0.13 1
  388.3636 0.07 1
  388.8583 0.04 0
  389.0186 0.04 0
  389.2330 0.29 3
  389.5458 0.10 1
  389.9050 0.10 1
  390.1974 0.17 2
  390.4730 0.06 1
  390.7703 0.04 0
  391.1978 0.13 1
  391.3054 0.07 1
  391.5788 0.04 0
  391.8509 0.05 0
  392.0155 0.12 1
  392.1526 0.09 1
  392.3291 0.05 0
  392.4345 0.03 0
  392.7896 0.03 0
  393.0948 0.12 1
  393.2664 0.06 1
  393.9408 0.05 0
  394.1293 0.08 1
  394.3719 0.07 1
  394.6258 0.04 0
  395.0893 0.35 3
  395.3622 0.25 2
  395.5078 0.06 1
  395.6605 0.04 0
  395.9932 0.09 1
  396.1479 0.10 1
  396.3091 0.09 1
  396.4561 0.09 1
  396.6706 0.05 0
  397.1335 0.22 2
  397.2707 0.21 2
  397.5782 0.05 0
  397.6732 0.04 0
  397.9651 0.10 1
  398.1009 0.15 1
  398.2283 0.13 1
  398.4323 0.07 1
  398.7412 0.13 1
  398.9369 0.08 1
  399.2148 0.29 3
  399.7567 0.05 0
  399.8594 0.05 0
  400.1388 0.28 3
  400.3506 0.22 2
  400.9080 0.17 2
  401.0938 0.37 4
  401.2297 0.66 7
  401.3353 0.30 3
  401.6731 0.09 1
  402.1757 0.48 5
  402.3721 0.23 2
  402.9894 0.25 2
  403.2379 0.23 2
  403.4245 0.09 1
  403.6245 0.04 0
  403.7723 0.05 0
  404.1309 0.27 3
  404.3241 0.05 0
  405.0675 0.09 1
  405.1814 0.06 1
  405.3254 0.08 1
  405.5447 0.07 1
  406.1694 0.15 1
  406.3086 0.01 0
  406.7106 0.03 0
  406.8553 0.03 0
  407.2180 0.17 2
  407.3677 0.07 1
  408.3026 0.20 2
  408.6049 0.08 1
  408.7771 0.01 0
  408.9106 0.01 0
  409.1201 0.30 3
  409.2277 0.08 1
  409.4119 0.13 1
  409.8168 0.11 1
  409.9223 0.09 1
  410.0910 0.13 1
  410.6907 0.06 1
  410.7962 0.03 0
  411.1457 0.45 4
  411.3018 0.25 2
  411.4466 0.03 0
  411.6491 0.10 1
  412.0879 0.47 5
  412.2729 0.15 1
  412.3593 0.04 0
  412.5605 0.06 1
  413.1322 2.26 23
  413.6731 0.02 0
  414.2386 0.39 4
  414.6887 0.21 2
  414.7928 0.16 2
  415.1917 0.26 3
  415.5117 0.05 0
  416.2637 0.51 5
  416.3615 0.24 2
  416.5916 0.03 0
  416.8153 0.10 1
  416.9884 0.08 1
  417.1298 0.19 2
  417.3648 0.15 1
  417.5927 0.15 1
  417.7553 0.15 1
  417.9073 0.08 1
  418.0311 0.05 0
  418.2746 0.22 2
  418.4251 0.07 1
  418.6496 0.19 2
  419.0282 0.14 1
  419.1570 0.23 2
  419.2689 0.13 1
  419.3835 0.15 1
  419.5581 0.04 0
  419.7108 0.01 0
  419.8340 0.04 0
  419.9599 0.02 0
  420.1619 0.06 1
  420.4089 0.16 2
  420.7606 0.06 1
  420.9054 0.09 1
  421.1852 0.30 3
  421.3454 0.13 1
  421.6048 0.01 0
  421.8143 0.15 1
  421.9690 0.09 1
  422.2115 0.09 1
  422.3050 0.04 0
  422.4203 0.05 0
  422.7233 0.03 0
  422.9090 0.05 0
  423.2408 0.21 2
  423.4925 0.04 0
  423.7007 0.08 1
  423.9102 0.04 0
  424.1535 0.07 1
  424.2878 0.05 0
  424.5009 0.08 1
  424.6598 0.05 0
  425.0002 0.04 0
  425.2027 0.13 1
  425.4523 0.09 1
  425.6049 0.09 1
  425.8152 0.04 0
  426.2393 0.56 6
  426.5881 0.11 1
  426.8041 0.11 1
  427.2219 0.28 3
  427.5039 0.14 1
  427.6467 0.10 1
  427.9365 0.13 1
  428.1890 0.61 6
  428.3832 0.26 3
  428.6554 0.03 0
  428.7722 0.04 0
  428.9509 0.19 2
  429.2576 0.35 3
  429.4089 0.12 1
  429.6530 0.06 1
  429.8289 0.03 0
  429.9485 0.19 2
  430.0871 0.21 2
  430.2883 0.21 2
  430.4726 0.09 1
  430.5782 0.05 0
  430.8364 0.04 0
  431.1418 0.38 4
  431.2515 0.14 1
  431.4886 0.08 1
  431.8729 0.11 1
  432.1501 0.16 2
  432.3253 0.09 1
  432.4640 0.12 1
  432.7412 0.11 1
  433.1396 0.12 1
  433.3021 0.12 1
  433.4555 0.11 1
  433.7082 0.13 1
  434.0503 0.08 1
  434.2705 0.07 1
  434.6689 0.20 2
  435.0180 0.26 3
  435.1313 0.17 2
  435.2658 0.19 2
  435.4390 0.18 2
  435.6332 0.08 1
  435.7318 0.13 1
  435.9388 0.12 1
  436.1323 0.24 2
  436.4097 0.30 3
  436.5744 0.15 1
  436.6969 0.19 2
  437.1123 0.37 4
  437.6072 0.63 6
  438.3972 1.72 17
  439.2097 1.94 19
  439.5871 1.14 11
  439.9033 0.78 8
  440.1413 0.50 5
  440.3758 0.46 5
  440.6251 0.47 5
  440.9399 0.19 2
  441.1688 0.17 2
  441.3470 0.21 2
  441.5061 0.12 1
  441.7357 0.08 1
  442.1407 0.16 2
  442.3802 0.09 1
  442.5541 0.17 2
  442.7056 0.13 1
  442.9774 0.11 1
  443.1099 0.17 2
  443.2768 0.27 3
  443.3958 0.06 1
  443.5593 0.10 1
  443.6530 0.06 1
  443.9192 0.29 3
  444.1045 0.24 2
  444.2200 0.22 2
  444.3891 0.26 3
  444.6399 0.17 2
  444.8533 0.25 2
  445.1055 0.26 3
  445.3359 0.20 2
  445.5614 0.24 2
  445.7410 0.08 1
  445.9707 0.16 2
  446.1736 0.10 1
  446.5745 0.13 1
  446.7028 0.03 0
  447.1523 0.18 2
  447.2855 0.19 2
  447.4377 0.11 1
  447.6589 0.06 1
  447.9577 0.08 1
  448.2466 0.10 1
  448.4052 0.10 1
  448.5609 0.04 0
  448.7730 0.02 0
  448.9175 0.09 1
  449.0429 0.12 1
  449.2036 0.09 1
  449.3791 0.09 1
  449.5940 0.08 1
  449.7068 0.09 1
  449.8773 0.04 0
  450.0233 0.03 0
  450.2114 0.18 2
  450.6971 0.20 2
  451.1453 0.32 3
  451.7071 0.25 2
  451.8636 0.18 2
  452.1681 0.31 3
  452.4268 0.34 3
  452.7525 0.12 1
  453.0457 0.33 3
  453.1747 0.27 3
  453.3157 0.37 4
  453.5216 0.22 2
  453.7768 0.16 2
  454.1624 0.27 3
  454.5685 0.19 2
  454.6962 0.12 1
  455.2813 0.40 4
  455.5101 0.10 1
  455.6044 0.05 0
  455.7839 0.10 1
  456.1648 0.32 3
  456.4492 0.14 1
  456.7103 0.08 1
  456.9349 0.01 0
  457.0623 0.05 0
  457.2341 0.26 3
  457.4397 0.11 1
  457.7030 0.09 1
  457.9388 0.08 1
  458.2036 0.11 1
  458.4690 0.06 1
  458.6042 0.03 0
  458.8907 0.09 1
  459.3062 0.23 2
  459.6287 0.04 0
  459.7378 0.11 1
  459.8308 0.03 0
  460.0301 0.17 2
  460.2610 0.47 5
  460.5117 0.03 0
  460.6575 0.09 1
  460.8413 0.08 1
  460.9941 0.02 0
  461.2680 0.21 2
  461.4279 0.05 0
  461.5413 0.04 0
  461.7272 0.01 0
  462.1188 0.01 0
  462.2547 0.03 0
  462.5146 0.11 1
  462.8160 0.06 1
  462.9844 0.01 0
  463.2436 0.17 2
  463.3844 0.03 0
  463.5112 0.05 0
  463.6514 0.02 0
  464.0001 0.05 0
  464.1557 0.11 1
  464.3424 0.06 1
  464.8193 0.10 1
  464.9383 0.11 1
  465.2074 0.26 3
  465.4575 0.17 2
  465.6090 0.07 1
  466.2458 0.40 4
  466.6122 0.08 1
  466.8630 0.02 0
  466.9807 0.08 1
  467.2244 0.19 2
  467.4753 0.08 1
  467.7042 0.06 1
  468.2721 1.04 10
  468.7985 0.10 1
  469.0550 0.10 1
  469.2727 0.09 1
  469.4566 0.09 1
  469.6180 0.04 0
  469.8618 0.06 1
  470.0211 0.17 2
  470.2656 0.23 2
  470.4157 0.07 1
  470.6687 0.10 1
  470.8689 0.04 0
  470.9753 0.04 0
  471.1888 0.15 1
  471.4383 0.24 2
  471.5821 0.10 1
  471.7301 0.22 2
  472.0882 0.24 2
  472.3369 0.14 1
  472.6739 0.16 2
  472.8508 0.24 2
  473.0524 0.25 2
  473.2427 0.31 3
  473.5874 0.37 4
  473.8094 0.67 7
  474.2768 13.22 132
  474.9458 0.24 2
  475.2489 0.12 1
  475.4068 0.15 1
  475.7720 0.17 2
  475.9920 0.16 2
  476.1746 0.05 0
  476.4650 0.08 1
  476.5722 0.11 1
  476.7689 0.10 1
  476.9008 0.02 0
  477.1172 0.05 0
  477.3167 0.09 1
  477.5198 0.08 1
  477.7208 0.01 0
  477.9690 0.04 0
  478.1311 0.08 1
  478.3067 0.18 2
  478.4054 0.09 1
  478.6015 0.09 1
  478.9984 0.16 2
  479.1515 0.18 2
  479.3560 0.13 1
  479.7340 0.12 1
  479.9152 0.03 0
  480.1098 0.07 1
  480.3828 0.14 1
  480.6141 0.09 1
  480.9173 0.07 1
  481.1261 0.15 1
  481.5027 0.05 0
  481.7898 0.01 0
  482.0571 0.14 1
  482.3463 0.14 1
  482.4683 0.09 1
  482.6714 0.03 0
  482.9622 0.05 0
  483.2164 0.14 1
  483.3698 0.07 1
  483.4522 0.04 0
  483.6078 0.02 0
  483.8839 0.06 1
  484.1141 0.06 1
  484.3535 0.04 0
  484.4810 0.03 0
  485.1513 0.15 1
  485.3809 0.42 4
  485.5492 0.16 2
  486.2541 0.50 5
  486.7725 0.03 0
  486.9443 0.13 1
  487.2169 0.54 5
  487.4000 0.44 4
  487.5810 0.05 0
  488.3677 0.07 1
  488.6523 0.05 0
  489.0657 0.03 0
  489.5179 0.09 1
  490.0519 0.05 0
  490.2273 0.05 0
  490.4837 0.05 0
  490.7148 0.07 1
  491.0613 0.09 1
  491.3615 0.11 1
  491.7567 0.02 0
  492.2653 0.17 2
  492.4281 0.07 1
  492.6775 0.19 2
  492.9938 0.07 1
  493.1749 0.10 1
  493.3905 0.27 3
  493.5596 0.06 1
  493.6998 0.07 1
  493.9824 0.20 2
  494.2705 0.08 1
  494.4770 0.16 2
  494.6313 0.10 1
  494.8878 0.08 1
  495.1147 0.22 2
  495.2183 0.13 1
  495.3599 0.18 2
  495.7792 0.06 1
  495.9258 0.07 1
  496.4515 0.09 1
  496.7122 0.06 1
  497.1344 0.03 0
  497.3641 0.10 1
  497.6193 0.15 1
  497.8208 0.06 1
  498.4791 0.09 1
  498.6821 0.07 1
  498.8097 0.16 2
  498.9704 0.08 1
  499.0824 0.10 1
  499.1670 0.06 1
  499.2932 0.04 0
  499.4362 0.14 1
  499.5166 0.08 1
  499.6660 0.05 0
  499.7760 0.08 1
  499.9783 0.11 1
  500.3329 0.10 1
  500.4992 0.02 0
  501.2422 0.07 1
  501.4199 0.04 0
  501.8456 0.12 1
  502.0663 0.02 0
  502.6134 0.08 1
  502.7544 0.05 0
  503.0575 0.06 1
  503.2556 0.08 1
  503.6963 0.08 1
  504.3893 0.12 1
  504.5008 0.07 1
  504.6685 0.04 0
  504.8998 0.04 0
  505.2143 0.07 1
  505.5083 0.14 1
  505.6395 0.05 0
  505.9046 0.03 0
  506.0175 0.11 1
  506.1803 0.12 1
  506.3192 0.11 1
  506.5393 0.12 1
  506.7304 0.13 1
  507.1493 0.20 2
  507.2860 0.04 0
  507.5555 0.06 1
  507.8876 0.04 0
  508.2205 0.16 2
  508.4497 0.10 1
  508.9186 0.16 2
  509.1847 0.19 2
  509.3655 0.25 2
  509.5099 0.23 2
  509.8013 0.02 0
  509.9568 0.03 0
  510.3145 0.30 3
  510.5404 0.03 0
  510.6819 0.10 1
  511.0247 0.10 1
  511.2303 0.09 1
  511.3951 0.09 1
  511.5887 0.04 0
  512.1350 0.10 1
  512.6166 0.04 0
  513.0488 0.03 0
  513.4656 0.02 0
  513.6480 0.06 1
  513.7980 0.04 0
  513.9431 0.06 1
  514.4092 0.12 1
  514.6359 0.04 0
  514.7380 0.09 1
  515.1196 0.09 1
  515.7752 0.05 0
  515.8816 0.03 0
  516.2189 0.06 1
  516.8759 0.07 1
  516.9435 0.03 0
  517.1343 0.05 0
  517.2808 0.08 1
  517.8147 0.07 1
  518.2626 0.06 1
  518.4175 0.11 1
  518.6161 0.04 0
  518.9317 0.21 2
  519.2043 0.23 2
  519.3212 0.08 1
  519.4803 0.06 1
  519.8029 0.23 2
  520.2150 0.29 3
  520.3333 0.12 1
  520.5552 0.12 1
  521.1716 0.25 2
  521.4026 0.34 3
  521.5358 0.27 3
  521.7280 0.19 2
  521.9352 0.45 4
  522.2451 0.53 5
  522.4402 0.20 2
  522.6459 0.05 0
  522.8848 0.15 1
  523.2300 0.20 2
  523.4371 0.15 1
  523.6230 0.25 2
  523.7809 0.25 2
  523.9000 0.13 1
  524.0021 0.06 1
  524.3389 0.25 2
  524.6700 0.20 2
  524.7545 0.09 1
  525.0709 0.26 3
  525.5303 0.27 3
  525.6895 0.21 2
  525.9974 0.23 2
  526.2341 0.10 1
  526.3779 0.23 2
  526.5118 0.11 1
  526.6379 0.24 2
  526.7457 0.19 2
  526.9289 0.21 2
  527.0198 0.08 1
  527.1551 0.15 1
  527.2749 0.15 1
  527.5244 0.39 4
  527.8442 0.21 2
  528.1938 0.10 1
  528.4150 0.23 2
  528.5426 0.08 1
  528.6765 0.11 1
  528.8463 0.07 1
  529.1028 0.27 3
  529.4319 0.19 2
  529.5941 0.24 2
  529.7399 0.23 2
  530.0063 0.36 4
  530.1797 0.14 1
  530.4088 0.29 3
  530.7203 0.20 2
  530.9331 0.06 1
  531.1622 0.27 3
  531.2644 0.12 1
  531.4032 0.23 2
  531.6386 0.16 2
  532.1686 0.37 4
  532.3639 0.35 3
  532.4872 0.24 2
  532.6169 0.11 1
  533.2845 1.34 13
  533.5178 0.99 10
  533.8498 0.04 0
  534.2170 0.24 2
  534.4842 0.28 3
  534.7359 0.15 1
  535.2864 0.85 8
  535.4860 0.38 4
  535.5931 0.25 2
  535.8596 0.24 2
  536.2325 0.48 5
  536.5928 0.74 7
  537.3387 4.38 44
  537.7921 0.54 5
  538.5366 0.78 8
  538.7968 0.67 7
  539.0605 0.40 4
  540.0427 0.89 9
  540.6414 0.84 8
  541.9044 1.05 10
  542.5144 0.83 8
  542.9142 0.90 9
  543.6809 0.96 10
  544.1823 1.10 11
  544.7981 1.26 13
  545.8920 1.47 15
  547.3155 3.61 36
  548.3553 25.12 251
  549.3902 2.13 21
  549.7028 1.01 10
  550.3469 3.25 32
  551.3685 11.96 120
  552.3124 0.99 10
  552.9437 1.15 11
  553.2471 0.98 10
  553.8665 0.90 9
  554.0712 1.02 10
  554.4380 0.95 9
  555.0137 0.84 8
  555.6423 1.01 10
  556.6503 1.02 10
  558.3976 1.48 15
  566.3022 99.97 999
  567.3650 30.24 302
  568.0651 14.88 149
  568.8180 7.71 77
  569.7513 3.74 37
  570.5846 1.85 18
  571.7631 1.51 15
  571.9702 0.93 9
  572.3386 0.77 8
  573.1241 0.55 5
  573.4299 0.56 6
  573.7617 0.50 5
//
