ACCESSION: MSBNK-Kyoto_Univ-CA000084
RECORD_TITLE: Myxol; FAB-EBEB; MS2; m/z: 584.42; [M]+*
DATE: 2016.01.19 (Created 2010.04.01, modified 2011.05.10)
AUTHORS: Akimoto N, Graduate School of Pharmaceutical Sciences, Kyoto University and Maoka T, Research Institute for Production Development
LICENSE: CC BY-SA
PUBLICATION: Shinichi Takaichi, Takashi Maoka and Kazumori Masamtoto, Myxoxanthophyll in Synechocystis sp. PCC 6803 is Myxol 2'-Dimethyl-Fucoside, (3R,2'S)-Myxol 2'-(2,4-di-O-Methyl-?-L-Fucoside), not Rhamnoside, Plant Cell Physiol, 42, 756-762 (2001).  Shinichi Takaichi, Mari Mochimura, and Takashi Maoka, Presence of Free Myxol and 4-Hydroxymyxol and Absence of Myxol Glucosides in Anabaena variabilis ATCC 29413, and Proposal of a Biosynthetic Pathway of Carotenoids, Plant Cell Physiol., 47, 211-216 (2006).
COMMENT: Profile spectrum of this record is given as a JPEG file.
COMMENT: [Profile] CA000084.jpg
CH$NAME: Myxol
CH$COMPOUND_CLASS: N/A
CH$FORMULA: C40H56O3
CH$EXACT_MASS: 584.42295
CH$SMILES: C(=CC=C(C)C=CC(=C(C)1)C(C)(C)CC(C1)O)C(=CC=CC=C(C=CC=C(C=CC=C(C=CC(O)C(C)(C)O)C)C)C)C
CH$IUPAC: InChI=1S/C40H56O3/c1-30(18-13-20-32(3)21-15-23-34(5)25-27-38(42)40(9,10)43)16-11-12-17-31(2)19-14-22-33(4)24-26-37-35(6)28-36(41)29-39(37,7)8/h11-27,36,38,41-43H,28-29H2,1-10H3/b12-11+,18-13+,19-14+,21-15+,26-24+,27-25+,30-16+,31-17+,32-20+,33-22+,34-23+/t36-,38+/m1/s1
CH$LINK: CAS 31894-69-6
CH$LINK: LIPIDBANK VCA1101
CH$LINK: INCHIKEY JJPMVSRTRMLHST-XDLIQHAKSA-N
AC$INSTRUMENT: JMS-HX/HX 110A, JEOL
AC$INSTRUMENT_TYPE: FAB-EBEB
AC$MASS_SPECTROMETRY: MS_TYPE MS2
AC$MASS_SPECTROMETRY: ION_MODE POSITIVE
AC$MASS_SPECTROMETRY: ATOM_GUN_CURRENT 5 mA
AC$MASS_SPECTROMETRY: BOMBARDMENT 6 kV xenon
AC$MASS_SPECTROMETRY: COLLISION_ENERGY 3 kV
AC$MASS_SPECTROMETRY: COLLISION_GAS Ar
AC$MASS_SPECTROMETRY: GAS_PRESSURE adjust to attenuate the intensity of the precursor ion by 30 %
AC$MASS_SPECTROMETRY: IONIZATION FAB
AC$MASS_SPECTROMETRY: MATRIX 1-2 uL m-NBA
AC$MASS_SPECTROMETRY: PROBE_TIP stainless-steel
MS$FOCUSED_ION: BASE_PEAK 58.9775
MS$FOCUSED_ION: PRECURSOR_M/Z 584.42
MS$FOCUSED_ION: PRECURSOR_TYPE [M]+*
MS$DATA_PROCESSING: RELATIVE_M/Z normalised by peak(m/z=58.9775).  set 999 for peak(m/z=584.3979,rel=1643).
PK$SPLASH: splash10-053u-4920030000-d375969984898f920cbd
PK$NUM_PEAK: 1744
PK$PEAK: m/z int. rel.int.
  0.0118 0.01 0
  0.0925 0.01 0
  0.2751 0.01 0
  6.6336 0.01 0
  8.0737 0.01 0
  8.6957 0.01 0
  9.4211 0.02 0
  13.9413 0.09 1
  14.9911 0.24 4
  18.9602 0.06 1
  19.6725 0.01 0
  22.9352 0.09 1
  23.9616 0.12 2
  24.9721 0.03 0
  25.9690 0.54 9
  26.9723 2.86 47
  27.9780 0.32 5
  28.9728 2.53 42
  29.9651 0.06 1
  30.9590 1.77 29
  34.4603 0.01 0
  36.0375 0.01 0
  36.4762 0.01 0
  36.9515 0.50 8
  37.2861 0.10 2
  37.9582 0.86 14
  38.2298 0.06 1
  38.3907 0.09 1
  38.6623 0.02 0
  38.9559 6.40 105
  39.9656 0.77 13
  40.9751 12.03 198
  41.9739 0.52 9
  42.9694 11.16 183
  43.9632 0.35 6
  44.9833 0.27 4
  46.8855 0.06 1
  47.9679 0.10 2
  48.9604 0.14 2
  49.9506 1.92 32
  50.7751 0.03 0
  50.9578 3.98 65
  51.2641 0.10 2
  51.5682 0.05 1
  51.9767 0.95 16
  52.9690 6.55 108
  53.9710 0.44 7
  54.9816 14.07 231
  55.9910 0.44 7
  56.3209 0.01 0
  56.5102 0.06 1
  56.9866 6.31 104
  57.4652 0.05 1
  57.5966 0.05 1
  57.9925 0.11 2
  58.9775 60.77 999
  59.4932 0.08 1
  60.0056 0.30 5
  60.9377 0.11 2
  61.9570 1.18 19
  62.3045 0.07 1
  62.6258 0.06 1
  62.9536 3.02 50
  63.2249 0.02 0
  63.6633 0.02 0
  63.9483 0.70 12
  64.1837 0.05 1
  64.5990 0.11 2
  64.6659 0.09 1
  64.9661 5.20 85
  65.9825 1.29 21
  66.1611 0.12 2
  66.4869 0.02 0
  66.6811 0.03 0
  66.9809 8.07 133
  67.9769 0.34 6
  68.9862 8.95 147
  69.4529 0.02 0
  69.9736 0.39 6
  70.9702 3.34 55
  72.1095 0.03 0
  72.9524 0.09 1
  73.9447 1.11 18
  74.9577 1.36 22
  75.2068 0.04 1
  75.3568 0.13 2
  75.4532 0.12 2
  75.7793 0.05 1
  75.9431 0.54 9
  76.1584 0.20 3
  76.2767 0.23 4
  76.4507 0.12 2
  76.5432 0.09 1
  76.6634 0.10 2
  76.9538 15.14 249
  77.2215 0.17 3
  77.3860 0.11 2
  77.5411 0.12 2
  77.7058 0.14 2
  77.9553 3.02 50
  78.1584 0.16 3
  78.2857 0.13 2
  78.4760 0.04 1
  78.6630 0.13 2
  78.9669 13.79 227
  79.3828 0.10 2
  79.9626 2.51 41
  80.3347 0.06 1
  80.5463 0.08 1
  80.6472 0.10 2
  80.9778 19.84 326
  81.7572 0.07 1
  81.9424 0.97 16
  82.1246 0.06 1
  82.4727 0.21 3
  82.9776 5.53 91
  83.8888 0.11 2
  84.0097 0.42 7
  84.3464 0.08 1
  84.9654 3.83 63
  85.2219 0.01 0
  85.3342 0.05 1
  85.5566 0.02 0
  85.9585 0.39 6
  86.9366 0.69 11
  87.9491 0.47 8
  88.0387 0.23 4
  88.4794 0.13 2
  88.6393 0.07 1
  88.9642 2.10 35
  89.1353 0.23 4
  89.2257 0.08 1
  89.3865 0.12 2
  89.6136 0.15 2
  89.7357 0.13 2
  89.9326 0.49 8
  90.1010 0.09 1
  90.3200 0.14 2
  90.4325 0.12 2
  90.5196 0.10 2
  90.6151 0.23 4
  90.9653 27.98 460
  91.4220 0.22 4
  91.5623 0.08 1
  91.6788 0.10 2
  91.9566 2.75 45
  92.2988 0.06 1
  92.9777 23.93 393
  93.2275 0.09 1
  93.3892 0.09 1
  93.9840 1.81 30
  94.3749 0.11 2
  94.6192 0.07 1
  94.9854 15.20 250
  95.2706 0.07 1
  95.7080 0.05 1
  95.9980 0.90 15
  96.7451 0.06 1
  96.9808 6.20 102
  97.5372 0.02 0
  97.9767 0.30 5
  98.9747 0.28 5
  100.0287 0.03 0
  100.5450 0.04 1
  100.7247 0.10 2
  100.9511 0.76 12
  101.2069 0.10 2
  101.5873 0.14 2
  101.9556 1.26 21
  102.3117 0.08 1
  102.5095 0.10 2
  102.5937 0.15 2
  102.6786 0.16 3
  102.9777 5.49 90
  103.4207 0.14 2
  103.5376 0.10 2
  103.6533 0.06 1
  103.9792 1.78 29
  104.1926 0.12 2
  104.2840 0.08 1
  104.3798 0.07 1
  104.5182 0.23 4
  104.9870 34.94 574
  105.3476 0.08 1
  105.4862 0.01 0
  105.6507 0.04 1
  105.9790 3.05 50
  106.2378 0.05 1
  106.3591 0.01 0
  106.5427 0.24 4
  106.6709 0.13 2
  107.0012 15.66 257
  107.3962 0.12 2
  107.4798 0.14 2
  107.9877 1.35 22
  108.9942 6.92 114
  109.9810 0.40 7
  110.5417 0.03 0
  110.9916 1.36 22
  111.8968 0.13 2
  112.4263 0.06 1
  112.5239 0.01 0
  112.6386 0.10 2
  112.7616 0.09 1
  112.9765 0.80 13
  113.1135 0.16 3
  113.2506 0.16 3
  113.3857 0.14 2
  113.5488 0.04 1
  113.8079 0.32 5
  113.9908 0.62 10
  114.1299 0.14 2
  114.3377 0.16 3
  114.4985 0.18 3
  114.6587 0.12 2
  114.9634 14.82 244
  115.2402 0.14 2
  115.5120 0.11 2
  115.6603 0.15 2
  115.9642 5.70 94
  116.2108 0.12 2
  116.4378 0.22 4
  116.6578 0.14 2
  116.9787 13.93 229
  117.2659 0.15 2
  117.3757 0.22 4
  117.6286 0.11 2
  117.9839 3.96 65
  118.2939 0.01 0
  118.5964 0.11 2
  118.9790 31.55 519
  119.4996 0.08 1
  119.6648 0.16 3
  119.9744 4.34 71
  120.2455 0.11 2
  120.4424 0.15 2
  120.5900 0.07 1
  120.9801 12.86 211
  121.2645 0.10 2
  121.4784 0.11 2
  121.6460 0.07 1
  121.9725 1.15 19
  122.4110 0.03 0
  122.5236 0.12 2
  122.6181 0.09 1
  122.9914 3.68 60
  123.5973 0.06 1
  123.9646 0.37 6
  124.5965 0.11 2
  124.7540 0.20 3
  124.9818 0.77 13
  125.2710 0.09 1
  125.5067 0.14 2
  125.6759 0.12 2
  125.9757 0.82 13
  126.3493 0.11 2
  126.9522 5.65 93
  127.1982 0.34 6
  127.4811 0.26 4
  127.9559 15.05 247
  128.3058 0.33 5
  128.4802 0.28 5
  128.9576 18.40 302
  129.3923 0.07 1
  129.9618 7.99 131
  130.1977 0.13 2
  130.3276 0.13 2
  130.5272 0.14 2
  130.9699 21.67 356
  131.4156 0.11 2
  131.6688 0.18 3
  131.9728 4.35 72
  132.3421 0.07 1
  132.9743 17.60 289
  133.3564 0.29 5
  133.5430 0.15 2
  133.9874 2.13 35
  134.2896 0.12 2
  134.5352 0.17 3
  134.9821 7.86 129
  135.3298 0.11 2
  135.6476 0.06 1
  135.8347 0.42 7
  135.9720 0.64 11
  136.5489 0.03 0
  136.9832 1.61 26
  137.1805 0.11 2
  137.6539 0.12 2
  137.9523 0.51 8
  138.1426 0.04 1
  138.5022 0.23 4
  138.9461 2.58 42
  139.3783 0.19 3
  139.6543 0.23 4
  140.0244 0.62 10
  140.1704 0.42 7
  140.2612 0.25 4
  140.4453 0.30 5
  140.6433 0.28 5
  140.9605 11.44 188
  141.2252 0.18 3
  141.3575 0.16 3
  141.4866 0.10 2
  141.9668 12.06 198
  142.3813 0.21 3
  142.5006 0.16 3
  142.5817 0.10 2
  142.9635 20.42 336
  143.3191 0.27 4
  143.6127 0.17 3
  143.9705 7.32 120
  144.3383 0.26 4
  144.5537 0.20 3
  144.9799 26.38 434
  145.2754 0.11 2
  145.4235 0.27 4
  145.5339 0.10 2
  145.6715 0.13 2
  145.9857 3.25 53
  146.3278 0.26 4
  146.5290 0.21 3
  146.9905 8.21 135
  147.4489 0.11 2
  147.6112 0.08 1
  147.9824 1.14 19
  148.4790 0.05 1
  148.6601 0.24 4
  148.9739 4.09 67
  149.3568 0.04 1
  149.5108 0.15 2
  149.7379 0.11 2
  149.9803 0.89 15
  150.1497 0.18 3
  150.3257 0.05 1
  150.4154 0.05 1
  150.5629 0.17 3
  150.7550 0.51 8
  150.9804 1.76 29
  151.2383 0.23 4
  151.4033 0.14 2
  151.5749 0.24 4
  151.9601 5.33 88
  152.3121 0.40 7
  152.4439 0.17 3
  152.5677 0.14 2
  152.9740 6.97 115
  153.3830 0.15 2
  153.5909 0.14 2
  153.9808 4.16 68
  154.2468 0.13 2
  154.5082 0.15 2
  154.6496 0.20 3
  154.9892 13.33 219
  155.3162 0.22 4
  155.4717 0.11 2
  155.9972 9.30 153
  156.3505 0.09 1
  156.5135 0.13 2
  157.0101 21.76 358
  157.2634 0.35 6
  157.4975 0.39 6
  157.6399 0.26 4
  158.0199 4.87 80
  158.5311 0.22 4
  159.0178 12.36 203
  159.3185 0.19 3
  159.4584 0.23 4
  159.5294 0.10 2
  160.0246 2.01 33
  160.2042 0.16 3
  160.5313 0.26 4
  161.0114 4.01 66
  161.3589 0.13 2
  161.6045 0.06 1
  161.7414 0.26 4
  161.9911 0.41 7
  162.1555 0.25 4
  162.3851 0.16 3
  162.6222 0.11 2
  163.0151 2.38 39
  163.3363 0.17 3
  163.4855 0.09 1
  163.6179 0.05 1
  163.9762 0.64 11
  164.1624 0.26 4
  164.4099 0.30 5
  164.9992 10.21 168
  165.3908 0.14 2
  165.5813 0.12 2
  166.0102 3.21 53
  166.2244 0.18 3
  166.3712 0.11 2
  166.5841 0.42 7
  167.0227 8.98 148
  167.3752 0.12 2
  167.5714 0.07 1
  168.0320 3.91 64
  168.4907 0.27 4
  169.0379 13.57 223
  169.3165 0.31 5
  169.5049 0.23 4
  169.6557 0.11 2
  170.0307 4.78 79
  170.5944 0.30 5
  171.0324 10.07 166
  171.3410 0.11 2
  171.6127 0.17 3
  172.0415 2.07 34
  172.3160 0.31 5
  172.4394 0.13 2
  172.6047 0.18 3
  173.0494 5.68 93
  173.2930 0.22 4
  173.5623 0.16 3
  173.6542 0.12 2
  173.7899 0.12 2
  174.0579 0.82 13
  174.3443 0.15 2
  174.4592 0.11 2
  174.5787 0.19 3
  174.7125 0.07 1
  175.0625 2.96 49
  175.2747 0.16 3
  175.6303 0.08 1
  176.0042 0.81 13
  176.4655 0.03 0
  177.0149 1.76 29
  177.2349 0.13 2
  177.3858 0.09 1
  177.9951 5.73 94
  178.3033 0.10 2
  178.5295 0.11 2
  179.0092 8.10 133
  179.2851 0.21 3
  180.0247 4.00 66
  180.3075 0.13 2
  180.4750 0.39 6
  180.5781 0.26 4
  181.0198 11.34 186
  181.4243 0.22 4
  181.7345 0.31 5
  182.0386 4.37 72
  182.5262 0.22 4
  183.0323 11.38 187
  183.3211 0.13 2
  183.4298 0.10 2
  183.5698 0.29 5
  183.6745 0.31 5
  184.0341 2.70 44
  184.4945 0.26 4
  184.6223 0.18 3
  185.0488 6.32 104
  185.3414 0.15 2
  185.6306 0.20 3
  185.7599 0.19 3
  186.0607 0.97 16
  186.4611 0.17 3
  187.0331 2.67 44
  187.5366 0.07 1
  187.7198 0.06 1
  188.0708 0.64 11
  188.5030 0.13 2
  189.0144 3.16 52
  189.2845 0.14 2
  189.5826 0.27 4
  189.9987 1.00 16
  190.2669 0.16 3
  190.4772 0.26 4
  190.6246 0.35 6
  191.0049 4.14 68
  191.3087 0.07 1
  191.4713 0.08 1
  192.0163 3.26 54
  192.2363 0.24 4
  192.3949 0.21 3
  192.5869 0.13 2
  193.0093 7.95 131
  193.2896 0.10 2
  193.4659 0.19 3
  193.5487 0.12 2
  194.0308 3.87 64
  194.3441 0.12 2
  194.5267 0.18 3
  194.6335 0.15 2
  195.0215 12.31 202
  195.2829 0.25 4
  195.4684 0.09 1
  195.6197 0.11 2
  195.7984 0.53 9
  196.0428 2.67 44
  196.3263 0.28 5
  197.0271 9.12 150
  197.4416 0.19 3
  197.6849 0.33 5
  198.0619 1.65 27
  198.6227 0.18 3
  199.0280 2.73 45
  199.4842 0.10 2
  199.6035 0.19 3
  199.7497 0.20 3
  200.0536 0.79 13
  200.1792 0.26 4
  200.3165 0.07 1
  200.4476 0.10 2
  200.5993 0.09 1
  200.7153 0.13 2
  201.0606 1.50 25
  201.3703 0.26 4
  201.5036 0.17 3
  201.6732 0.37 6
  202.0235 2.66 44
  202.4350 0.05 1
  202.5896 0.12 2
  203.0006 3.09 51
  203.3086 0.08 1
  203.4997 0.14 2
  204.0099 1.13 19
  204.4184 0.15 2
  205.0169 3.76 62
  205.4056 0.13 2
  205.5460 0.14 2
  206.0409 3.48 57
  207.0352 7.08 116
  207.3892 0.21 3
  208.0430 2.88 47
  208.3318 0.14 2
  208.5626 0.16 3
  209.0396 8.63 142
  209.4009 0.09 1
  209.5581 0.02 0
  209.7374 0.19 3
  210.0381 1.33 22
  210.3354 0.12 2
  210.6169 0.16 3
  211.0495 2.82 46
  211.4857 0.26 4
  211.6500 0.15 2
  212.0069 0.98 16
  212.1291 0.36 6
  212.5558 0.24 4
  213.0517 1.69 28
  213.2375 0.26 4
  213.3833 0.16 3
  213.4904 0.11 2
  213.8420 0.22 4
  214.0266 0.66 11
  214.4170 0.11 2
  214.5449 0.16 3
  215.0392 3.31 54
  215.5467 0.09 1
  216.0287 1.49 24
  216.3732 0.20 3
  217.0485 3.41 56
  217.4679 0.07 1
  217.6486 0.19 3
  218.0452 1.86 31
  218.3311 0.13 2
  218.5070 0.11 2
  218.7044 0.11 2
  219.0742 3.87 64
  220.0718 2.01 33
  220.2464 0.18 3
  220.5292 0.09 1
  221.0712 5.10 84
  221.3673 0.17 3
  222.0898 1.37 23
  222.3125 0.20 3
  222.4685 0.19 3
  222.6191 0.28 5
  223.1096 3.52 58
  223.7681 0.15 2
  224.0457 0.83 14
  224.1887 0.55 9
  224.2672 0.21 3
  224.4019 0.06 1
  224.5261 0.08 1
  224.7094 0.16 3
  224.8413 0.09 1
  225.1260 2.20 36
  225.3510 0.14 2
  225.4927 0.14 2
  225.7379 0.13 2
  226.0852 0.82 13
  226.6591 0.15 2
  227.0928 1.33 22
  228.0993 1.05 17
  228.2454 0.30 5
  228.4046 0.09 1
  228.5200 0.15 2
  229.0806 2.15 35
  229.5675 0.09 1
  229.6788 0.08 1
  230.0935 1.29 21
  230.6828 0.19 3
  231.0965 2.44 40
  231.3908 0.11 2
  232.0850 1.30 21
  232.4107 0.11 2
  233.0878 3.20 53
  233.6610 0.11 2
  233.8673 0.23 4
  234.0897 1.30 21
  234.2036 0.59 10
  234.3829 0.10 2
  234.5657 0.14 2
  234.8389 0.33 5
  235.1280 2.56 42
  235.3637 0.14 2
  235.5639 0.17 3
  235.8268 0.10 2
  236.1286 0.47 8
  236.3587 0.11 2
  236.5563 0.05 1
  236.6940 0.10 2
  237.1030 2.12 35
  237.4425 0.04 1
  237.8252 0.27 4
  237.9233 0.12 2
  238.0834 0.45 7
  238.1843 0.35 6
  238.3715 0.06 1
  238.5010 0.01 0
  238.6639 0.17 3
  239.1045 1.67 27
  239.4171 0.10 2
  239.5264 0.03 0
  239.7284 0.23 4
  240.1232 0.91 15
  240.3698 0.10 2
  240.5864 0.13 2
  240.7014 0.03 0
  241.0831 1.37 23
  241.4378 0.11 2
  241.6252 0.05 1
  242.0858 0.76 12
  242.4448 0.16 3
  242.5974 0.09 1
  242.7313 0.16 3
  243.1084 1.98 33
  243.3148 0.21 3
  243.5066 0.05 1
  243.6816 0.06 1
  244.0819 0.76 12
  244.2423 0.17 3
  244.3888 0.12 2
  244.6936 0.08 1
  245.1003 2.04 34
  246.1017 1.16 19
  246.5254 0.13 2
  246.8081 0.13 2
  247.1034 2.17 36
  247.4078 0.16 3
  247.5098 0.03 0
  247.7353 0.07 1
  247.8205 0.03 0
  248.1460 0.74 12
  248.4966 0.06 1
  248.7096 0.30 5
  249.1267 1.99 33
  249.4223 0.27 4
  249.5250 0.11 2
  249.6808 0.13 2
  250.1497 0.72 12
  250.2182 0.34 6
  250.4649 0.13 2
  250.8046 0.04 1
  251.1346 1.10 18
  251.4898 0.10 2
  251.6960 0.13 2
  252.0702 1.04 17
  252.4248 0.03 0
  252.6689 0.12 2
  253.0732 0.98 16
  253.1956 0.58 10
  253.8904 0.11 2
  254.1115 0.56 9
  254.4593 0.15 2
  254.5846 0.13 2
  254.6826 0.14 2
  255.1124 1.22 20
  255.6956 0.28 5
  256.0849 0.45 7
  256.2627 0.13 2
  256.3650 0.08 1
  256.6360 0.11 2
  256.7985 0.13 2
  257.0989 1.21 20
  257.2565 0.29 5
  257.7335 0.13 2
  258.0915 0.66 11
  258.5637 0.12 2
  259.0934 1.86 31
  259.4523 0.11 2
  259.6289 0.05 1
  260.0474 0.72 12
  260.2724 0.14 2
  260.5430 0.08 1
  260.7520 0.07 1
  261.1180 1.57 26
  261.3101 0.41 7
  261.6032 0.12 2
  261.7744 0.11 2
  262.0879 0.37 6
  262.2927 0.30 5
  262.6835 1.14 19
  263.1423 1.50 25
  263.5002 0.13 2
  263.7598 0.17 3
  264.0644 0.60 10
  264.8309 0.11 2
  265.1160 0.71 12
  265.6552 0.13 2
  266.0871 0.52 9
  266.2430 0.12 2
  266.7978 0.13 2
  267.1273 0.91 15
  267.6071 0.11 2
  267.7153 0.11 2
  267.9275 0.07 1
  268.0926 0.29 5
  268.2725 0.13 2
  268.7637 0.06 1
  269.1313 1.08 18
  269.3457 0.34 6
  269.5952 0.04 1
  270.1162 0.82 13
  270.2624 0.29 5
  270.8095 0.06 1
  271.1372 1.54 25
  271.3468 0.23 4
  271.9130 0.19 3
  272.1747 0.93 15
  272.3407 0.12 2
  272.5433 0.12 2
  272.8325 0.26 4
  273.1372 1.12 18
  273.6530 0.04 1
  273.8543 0.07 1
  274.1527 0.57 9
  274.3224 0.14 2
  274.8045 0.12 2
  275.1431 0.75 12
  275.4002 0.07 1
  275.7697 0.19 3
  276.1569 0.51 8
  276.2665 0.24 4
  277.1154 0.60 10
  277.2925 0.33 5
  277.5709 0.07 1
  278.0672 0.36 6
  278.3653 0.13 2
  278.7147 0.05 1
  278.8757 0.14 2
  279.1268 0.98 16
  279.4974 0.08 1
  279.8645 0.14 2
  280.0952 0.28 5
  280.2458 0.14 2
  280.6136 0.08 1
  281.1300 0.82 13
  281.5170 0.13 2
  281.9420 0.12 2
  282.1356 0.39 6
  282.3587 0.12 2
  282.6205 0.10 2
  283.1238 1.11 18
  284.1094 0.64 11
  284.3185 0.20 3
  284.5270 0.10 2
  284.7910 0.16 3
  285.1495 1.41 23
  285.5038 0.08 1
  285.8983 0.16 3
  286.1617 0.40 7
  286.3371 0.11 2
  286.5767 0.11 2
  286.7112 0.12 2
  286.8888 0.19 3
  287.1573 0.90 15
  287.4553 0.12 2
  287.6393 0.01 0
  288.1411 0.59 10
  288.3920 0.10 2
  288.8770 0.08 1
  289.1321 0.66 11
  289.3112 0.36 6
  289.9500 0.22 4
  290.1743 0.13 2
  290.2934 0.14 2
  290.4161 0.11 2
  291.1602 0.40 7
  291.2708 0.29 5
  291.4483 0.11 2
  291.6210 0.06 1
  292.1735 0.37 6
  292.3342 0.34 6
  292.9269 0.08 1
  293.1454 0.60 10
  293.2660 0.28 5
  293.4633 0.12 2
  293.6840 0.11 2
  294.1197 0.44 7
  294.5562 0.05 1
  294.8926 0.26 4
  295.1394 0.75 12
  295.3080 0.27 4
  295.4525 0.14 2
  295.6190 0.13 2
  296.0090 0.27 4
  296.2320 0.28 5
  296.3611 0.14 2
  296.6672 0.12 2
  297.1893 0.69 11
  297.3918 0.41 7
  297.8547 0.14 2
  298.0869 0.22 4
  298.2506 0.28 5
  299.1237 0.42 7
  299.3129 0.25 4
  300.0655 0.27 4
  300.1876 0.13 2
  300.3888 0.14 2
  300.5308 0.11 2
  300.6882 0.09 1
  301.1826 0.49 8
  301.9185 0.11 2
  302.0901 0.36 6
  302.2872 0.21 3
  302.7082 0.05 1
  302.9081 0.10 2
  303.0763 0.51 8
  303.1964 0.36 6
  303.3582 0.15 2
  303.7185 0.07 1
  304.0853 0.48 8
  304.1927 0.15 2
  304.3185 0.05 1
  304.8132 0.04 1
  304.9468 0.22 4
  305.1793 0.45 7
  305.4486 0.11 2
  305.9152 0.22 4
  306.0658 0.20 3
  306.2128 0.18 3
  306.6717 0.11 2
  307.0980 0.56 9
  307.5562 0.12 2
  307.6623 0.08 1
  308.0443 0.26 4
  308.1715 0.11 2
  308.4467 0.11 2
  308.9022 0.21 3
  309.1067 0.40 7
  309.2630 0.26 4
  309.4391 0.11 2
  309.6316 0.08 1
  310.1516 0.40 7
  310.3986 0.11 2
  310.4941 0.12 2
  310.6285 0.12 2
  310.7375 0.12 2
  310.8437 0.08 1
  311.1501 0.48 8
  312.0539 0.24 4
  312.2394 0.12 2
  312.5940 0.05 1
  312.6981 0.13 2
  313.1498 0.47 8
  313.4252 0.04 1
  313.7700 0.14 2
  314.1666 0.17 3
  314.4923 0.03 0
  314.8507 0.09 1
  315.1729 0.34 6
  315.3734 0.12 2
  315.5703 0.10 2
  315.6922 0.12 2
  315.9153 0.10 2
  316.1767 0.16 3
  316.2950 0.19 3
  316.6563 0.11 2
  316.7619 0.12 2
  317.0000 0.11 2
  317.1884 0.44 7
  317.5363 0.16 3
  317.7801 0.14 2
  317.9148 0.14 2
  318.2195 0.25 4
  319.1111 0.56 9
  319.3267 0.28 5
  319.9243 0.12 2
  320.0824 0.43 7
  320.2114 0.33 5
  320.3206 0.17 3
  320.8708 0.14 2
  321.1190 0.32 5
  321.2814 0.08 1
  321.8062 0.13 2
  321.9303 0.02 0
  322.2047 0.14 2
  323.2028 0.41 7
  323.7405 0.12 2
  324.2705 0.18 3
  324.8282 0.11 2
  324.9333 0.10 2
  325.0397 0.12 2
  325.2122 0.18 3
  325.3427 0.11 2
  325.8353 0.12 2
  326.1774 0.25 4
  327.1321 0.31 5
  327.6028 0.06 1
  327.9557 0.07 1
  328.1850 0.28 5
  328.3916 0.10 2
  328.6523 0.10 2
  329.0059 0.18 3
  329.2076 0.15 2
  329.8070 0.04 1
  329.9818 0.13 2
  330.1771 0.12 2
  330.2943 0.15 2
  331.1815 0.26 4
  331.6540 0.10 2
  331.9602 0.06 1
  332.1911 0.08 1
  332.8783 0.04 1
  333.1668 0.40 7
  333.4653 0.09 1
  333.6878 0.05 1
  334.3851 0.04 1
  335.0409 0.14 2
  335.2488 0.51 8
  335.7598 0.04 1
  336.1601 0.30 5
  336.3850 0.10 2
  336.9046 0.04 1
  337.1112 0.48 8
  337.2545 0.19 3
  338.0745 0.12 2
  338.3187 0.41 7
  338.5133 0.11 2
  338.6297 0.11 2
  338.7632 0.11 2
  339.0181 0.10 2
  339.1992 0.25 4
  339.6572 0.06 1
  339.8518 0.10 2
  340.0492 0.10 2
  340.2218 0.11 2
  340.4398 0.04 1
  341.1203 0.27 4
  341.2432 0.28 5
  341.4818 0.07 1
  342.1248 0.19 3
  342.3983 0.04 1
  342.9816 0.11 2
  343.1664 0.26 4
  343.3447 0.12 2
  343.5735 0.07 1
  343.9267 0.12 2
  344.1371 0.06 1
  344.3311 0.17 3
  345.0823 0.24 4
  345.1904 0.31 5
  345.3496 0.04 1
  345.7427 0.10 2
  346.0427 0.11 2
  346.3590 0.17 3
  347.2029 0.41 7
  348.1992 0.21 3
  348.2824 0.13 2
  349.0505 0.25 4
  349.2738 0.54 9
  349.4530 0.08 1
  350.2099 0.36 6
  350.3813 0.21 3
  350.5663 0.10 2
  351.1575 0.42 7
  351.2977 0.51 8
  352.0967 0.18 3
  352.2675 0.26 4
  352.8247 0.07 1
  353.0062 0.12 2
  353.1635 0.28 5
  353.3115 0.28 5
  353.9969 0.20 3
  354.0709 0.08 1
  354.3357 0.06 1
  354.7507 0.06 1
  355.3387 0.20 3
  355.5025 0.12 2
  355.6107 0.11 2
  355.7303 0.12 2
  356.0678 0.01 0
  356.2636 0.12 2
  357.1465 0.21 3
  357.3232 0.22 4
  357.7077 0.08 1
  357.9057 0.13 2
  358.0489 0.10 2
  358.2640 0.31 5
  358.4976 0.11 2
  358.7533 0.07 1
  359.0546 0.03 0
  359.2548 0.39 6
  359.4863 0.19 3
  360.2557 0.37 6
  360.4317 0.12 2
  360.5713 0.07 1
  360.9960 0.10 2
  361.2617 0.37 6
  361.4413 0.25 4
  362.2842 0.68 11
  362.4842 0.12 2
  363.1830 0.21 3
  363.4172 0.31 5
  363.8777 0.11 2
  364.2137 0.16 3
  364.5048 0.10 2
  365.2864 0.53 9
  365.4039 0.22 4
  365.8154 0.06 1
  366.2810 0.33 5
  366.7403 0.11 2
  367.2088 0.17 3
  367.4211 0.29 5
  367.8918 0.03 0
  369.1040 0.18 3
  369.2628 0.11 2
  369.8049 0.09 1
  369.9552 0.03 0
  370.1312 0.12 2
  370.3492 0.09 1
  370.8094 0.11 2
  370.9355 0.14 2
  371.2269 0.21 3
  371.4043 0.11 2
  372.1012 0.11 2
  372.2409 0.29 5
  372.5045 0.14 2
  373.2044 0.52 9
  373.4232 0.12 2
  373.5579 0.01 0
  373.8658 0.07 1
  374.1559 0.13 2
  374.4317 0.23 4
  374.5094 0.13 2
  374.9065 0.11 2
  375.3427 0.36 6
  375.7006 0.10 2
  375.8924 0.07 1
  376.1063 0.13 2
  376.2981 0.41 7
  376.6110 0.04 1
  376.8467 0.13 2
  377.3466 0.27 4
  377.8188 0.20 3
  378.0495 0.14 2
  378.2040 0.19 3
  378.3472 0.15 2
  379.1115 0.18 3
  379.3280 0.24 4
  379.7825 0.12 2
  379.9890 0.10 2
  380.1208 0.10 2
  380.3353 0.11 2
  380.7698 0.14 2
  381.0477 0.12 2
  381.2287 0.41 7
  381.5977 0.09 1
  382.4037 0.04 1
  382.5797 0.11 2
  383.0237 0.11 2
  383.1890 0.31 5
  383.3322 0.18 3
  384.0635 0.09 1
  384.1896 0.06 1
  385.0913 0.35 6
  385.2973 0.25 4
  385.9054 0.09 1
  386.1314 0.23 4
  386.3182 0.18 3
  387.3371 0.15 2
  387.7121 0.01 0
  388.1107 0.36 6
  388.2070 0.29 5
  388.3004 0.15 2
  388.4673 0.09 1
  389.3452 0.16 3
  389.4686 0.04 1
  390.0007 0.07 1
  390.3438 0.09 1
  391.2019 0.09 1
  391.3239 0.15 2
  391.5465 0.05 1
  392.2992 0.13 2
  392.4989 0.02 0
  392.7472 0.06 1
  392.9235 0.11 2
  393.2759 0.09 1
  394.2736 0.13 2
  394.6018 0.07 1
  395.1942 0.19 3
  396.0778 0.11 2
  396.2484 0.13 2
  397.2721 0.10 2
  397.4891 0.03 0
  397.9824 0.04 1
  398.1067 0.13 2
  398.2002 0.05 1
  398.3473 0.12 2
  398.4444 0.03 0
  398.9784 0.10 2
  399.1419 0.21 3
  399.2919 0.11 2
  399.4619 0.21 3
  399.8982 0.05 1
  400.2602 0.28 5
  401.0444 0.08 1
  401.2029 0.29 5
  401.3243 0.29 5
  401.4643 0.20 3
  401.8129 0.14 2
  402.0286 0.13 2
  402.2465 0.76 12
  402.3936 0.13 2
  402.9001 0.16 3
  403.2451 0.35 6
  403.4908 0.14 2
  403.6101 0.04 1
  403.8016 0.11 2
  404.1617 0.12 2
  404.3524 0.24 4
  404.8054 0.11 2
  405.1913 0.21 3
  405.2770 0.19 3
  405.7565 0.12 2
  406.0959 0.21 3
  408.2650 0.10 2
  409.2319 0.07 1
  409.4231 0.01 0
  410.1422 0.07 1
  410.2514 0.12 2
  410.4997 0.13 2
  411.0298 0.10 2
  411.3895 0.24 4
  411.9153 0.11 2
  412.0017 0.06 1
  412.1594 0.12 2
  412.6104 0.09 1
  413.0979 0.19 3
  413.2977 0.15 2
  413.4433 0.15 2
  414.1349 0.46 8
  414.3840 0.27 4
  414.4804 0.13 2
  414.7002 0.10 2
  414.9500 0.10 2
  415.2684 0.65 11
  415.8203 0.09 1
  416.0623 0.06 1
  416.3328 0.38 6
  416.4435 0.16 3
  416.8126 0.08 1
  418.0593 0.18 3
  418.3870 0.40 7
  418.4641 0.14 2
  419.0661 0.20 3
  419.2125 0.41 7
  419.4460 0.23 4
  420.0024 0.07 1
  420.4309 0.07 1
  420.6059 0.01 0
  421.3888 0.08 1
  421.5695 0.05 1
  421.6716 0.13 2
  422.3003 0.14 2
  422.4567 0.18 3
  423.2018 0.18 3
  423.8605 0.06 1
  424.1756 0.17 3
  424.3042 0.13 2
  424.4729 0.12 2
  425.0538 0.08 1
  425.2710 0.19 3
  425.3868 0.15 2
  425.5497 0.08 1
  425.9496 0.16 3
  426.2708 0.44 7
  426.5799 0.03 0
  427.0989 0.29 5
  427.3959 0.42 7
  427.6072 0.10 2
  427.7536 0.10 2
  428.3170 0.74 12
  428.6011 0.08 1
  428.9846 0.13 2
  429.2880 0.64 11
  429.5244 0.08 1
  430.2157 0.45 7
  430.4078 0.09 1
  430.7763 0.04 1
  431.2105 0.51 8
  431.4098 0.25 4
  431.8154 0.08 1
  432.2890 0.31 5
  432.5004 0.15 2
  432.7533 0.17 3
  432.9162 0.12 2
  433.3883 0.26 4
  434.0013 0.11 2
  434.2206 0.15 2
  434.9715 0.13 2
  435.1879 0.10 2
  435.4052 0.04 1
  435.7831 0.11 2
  435.8824 0.12 2
  436.2354 0.12 2
  437.2487 0.09 1
  437.4138 0.07 1
  437.7153 0.11 2
  438.1513 0.11 2
  438.3378 0.10 2
  438.4886 0.14 2
  439.2584 0.14 2
  439.4377 0.07 1
  439.5164 0.05 1
  439.6915 0.11 2
  439.8387 0.02 0
  440.1003 0.09 1
  440.2183 0.11 2
  440.3949 0.12 2
  440.9296 0.08 1
  441.4021 0.54 9
  441.5987 0.14 2
  441.7381 0.13 2
  442.2006 0.56 9
  442.4201 0.29 5
  443.0829 0.10 2
  443.2080 0.15 2
  443.3324 0.03 0
  443.5362 0.13 2
  444.2370 0.13 2
  444.4901 0.12 2
  444.7532 0.21 3
  445.0915 0.14 2
  445.3446 0.28 5
  445.5685 0.11 2
  446.3445 0.27 4
  447.3408 0.04 1
  447.4574 0.11 2
  447.9344 0.16 3
  448.3436 0.09 1
  448.5811 0.12 2
  448.7034 0.10 2
  449.3122 0.14 2
  449.5290 0.14 2
  449.6277 0.13 2
  450.0605 0.13 2
  450.3488 0.12 2
  451.0221 0.16 3
  451.3018 0.18 3
  451.4936 0.13 2
  451.6768 0.08 1
  451.9251 0.13 2
  452.1455 0.21 3
  452.3701 0.17 3
  452.7315 0.09 1
  452.9219 0.14 2
  453.0600 0.06 1
  453.2911 0.30 5
  453.5280 0.07 1
  453.8236 0.11 2
  453.9424 0.11 2
  454.2286 0.11 2
  454.3446 0.17 3
  454.4792 0.21 3
  454.6530 0.09 1
  454.7411 0.08 1
  454.9859 0.13 2
  455.1727 0.15 2
  455.3860 0.02 0
  455.5678 0.13 2
  455.9343 0.24 4
  456.4002 0.14 2
  456.5370 0.14 2
  456.7510 0.12 2
  456.8484 0.08 1
  457.1705 0.24 4
  457.3881 0.13 2
  458.0646 0.08 1
  459.3340 0.13 2
  459.6605 0.11 2
  460.1130 0.14 2
  460.3021 0.21 3
  460.5219 0.12 2
  461.0865 0.17 3
  461.3245 0.12 2
  461.5039 0.13 2
  462.1200 0.12 2
  462.4688 0.10 2
  462.6917 0.10 2
  463.1020 0.10 2
  463.3200 0.12 2
  464.0434 0.05 1
  464.2379 0.11 2
  465.3981 0.21 3
  465.5490 0.04 1
  466.1216 0.08 1
  466.3654 0.12 2
  467.2663 0.16 3
  467.4007 0.14 2
  467.6352 0.13 2
  468.0886 0.11 2
  468.2545 0.59 10
  468.4318 0.21 3
  468.7643 0.23 4
  469.0725 0.13 2
  469.3114 0.43 7
  469.4930 0.24 4
  469.6189 0.33 5
  469.7834 0.15 2
  469.9271 0.20 3
  470.0237 0.22 4
  470.1545 0.13 2
  470.3705 0.15 2
  470.6909 0.14 2
  471.0128 0.16 3
  471.1594 0.16 3
  471.4083 0.11 2
  471.6887 0.11 2
  471.9026 0.18 3
  472.0628 0.22 4
  472.2466 0.12 2
  472.5127 0.11 2
  472.6987 0.11 2
  472.9483 0.21 3
  473.1050 0.28 5
  473.2001 0.13 2
  473.3310 0.14 2
  473.4798 0.13 2
  473.6722 0.10 2
  474.0092 0.10 2
  474.2889 0.14 2
  474.5758 0.14 2
  474.8591 0.09 1
  475.3091 0.14 2
  475.4522 0.09 1
  475.8865 0.10 2
  476.1248 0.08 1
  476.4067 0.10 2
  477.1043 0.13 2
  478.3001 0.85 14
  478.5319 0.36 6
  478.7660 0.13 2
  479.0257 0.29 5
  479.1259 0.15 2
  479.4401 0.06 1
  479.6068 0.25 4
  480.0971 0.19 3
  480.3920 0.08 1
  480.6017 0.15 2
  480.7570 0.10 2
  480.9095 0.11 2
  481.0261 0.08 1
  481.2831 0.13 2
  481.4184 0.12 2
  482.1678 0.13 2
  482.3754 0.17 3
  482.6353 0.07 1
  482.8472 0.11 2
  482.9710 0.06 1
  483.1242 0.13 2
  483.8673 0.11 2
  483.9761 0.10 2
  484.3248 0.12 2
  484.9362 0.08 1
  485.0429 0.11 2
  485.2849 0.16 3
  486.5580 0.14 2
  486.7864 0.13 2
  486.9890 0.04 1
  487.1251 0.06 1
  487.4917 0.12 2
  487.7044 0.10 2
  488.0789 0.18 3
  488.2150 0.12 2
  488.5981 0.12 2
  489.0109 0.12 2
  489.1239 0.14 2
  489.3570 0.06 1
  489.5579 0.25 4
  489.8654 0.39 6
  490.1357 0.24 4
  490.3631 0.32 5
  490.6298 0.29 5
  490.8815 0.22 4
  491.0124 0.26 4
  491.1254 0.24 4
  491.3264 0.28 5
  491.4830 0.23 4
  491.5667 0.05 1
  491.7469 0.11 2
  491.8363 0.09 1
  492.3784 5.84 96
  492.9720 0.30 5
  493.3217 0.26 4
  493.5435 0.42 7
  493.7187 0.02 0
  493.9677 0.18 3
  494.1937 0.62 10
  494.3868 0.86 14
  494.5663 0.38 6
  494.9047 0.20 3
  495.1372 0.21 3
  495.4183 0.89 15
  495.6236 0.21 3
  495.7917 0.25 4
  495.9269 0.12 2
  496.2653 0.43 7
  496.5293 0.11 2
  496.7325 0.17 3
  496.8655 0.14 2
  497.0952 0.25 4
  497.2705 0.18 3
  497.4536 0.13 2
  497.7384 0.07 1
  497.8822 0.25 4
  498.1054 0.10 2
  498.2549 0.06 1
  498.4167 0.12 2
  498.7558 0.20 3
  498.9511 0.08 1
  499.2288 0.02 0
  499.5672 0.03 0
  500.2492 0.14 2
  501.0428 0.12 2
  501.3176 0.05 1
  501.6904 0.06 1
  502.2701 0.17 3
  502.4261 0.02 0
  502.6988 0.15 2
  502.9486 0.20 3
  503.6128 0.14 2
  503.8612 0.14 2
  503.9614 0.14 2
  504.1103 0.05 1
  504.4309 0.19 3
  504.6034 0.09 1
  504.7158 0.15 2
  504.9785 0.07 1
  505.1174 0.31 5
  505.4173 0.61 10
  505.6793 0.21 3
  506.1145 0.11 2
  506.3243 0.20 3
  506.4875 0.13 2
  506.6350 0.12 2
  506.8483 0.15 2
  507.0173 0.25 4
  507.1619 0.31 5
  507.4561 0.44 7
  507.6609 0.24 4
  507.8363 0.06 1
  508.0016 0.38 6
  508.2737 0.74 12
  508.3983 0.58 10
  508.5436 0.16 3
  508.7849 0.41 7
  509.0685 0.57 9
  509.4064 1.47 24
  509.7408 0.33 5
  509.9950 0.30 5
  510.1740 0.84 14
  510.3881 1.01 17
  510.5707 0.48 8
  510.7863 0.22 4
  510.9044 0.04 1
  511.1156 0.28 5
  511.3441 0.31 5
  511.5926 0.56 9
  511.7694 0.29 5
  512.0974 0.19 3
  512.3030 0.27 4
  512.3989 0.12 2
  512.6331 0.13 2
  512.7993 0.29 5
  512.9876 0.17 3
  513.1573 0.16 3
  513.3693 0.35 6
  513.5298 0.24 4
  513.7024 0.22 4
  513.8513 0.05 1
  514.2689 0.21 3
  514.4265 0.09 1
  514.5769 0.47 8
  514.7689 0.45 7
  514.9293 0.11 2
  515.0955 0.27 4
  515.2473 0.32 5
  515.3697 0.11 2
  515.4769 0.31 5
  515.7028 0.33 5
  515.8871 0.20 3
  516.0601 0.13 2
  516.3188 0.19 3
  516.6069 0.30 5
  516.7913 0.17 3
  516.8914 0.14 2
  517.0479 0.13 2
  517.7655 0.18 3
  517.9971 0.19 3
  518.3202 0.28 5
  518.9028 0.14 2
  519.0930 0.08 1
  519.2845 0.10 2
  519.4619 0.12 2
  519.6791 0.07 1
  519.8436 0.04 1
  520.2368 0.16 3
  520.3369 0.06 1
  520.6965 0.11 2
  520.8109 0.17 3
  520.9982 0.20 3
  521.1462 0.10 2
  521.3464 0.03 0
  521.5587 0.03 0
  521.7889 0.07 1
  521.9519 0.10 2
  522.1135 0.16 3
  522.2665 0.20 3
  522.3530 0.05 1
  522.5018 0.16 3
  522.6348 0.03 0
  522.7813 0.06 1
  522.9472 0.12 2
  523.2625 0.78 13
  523.4549 0.33 5
  523.6601 0.47 8
  524.3737 6.29 103
  525.3806 10.88 179
  525.8640 0.43 7
  526.3868 2.74 45
  526.7566 0.36 6
  527.0412 0.07 1
  527.1528 0.12 2
  527.3709 0.23 4
  527.5526 0.27 4
  527.6813 0.07 1
  527.8466 0.09 1
  528.0576 0.31 5
  528.3250 0.21 3
  528.5031 0.12 2
  528.8193 0.06 1
  529.0589 0.13 2
  529.2263 0.10 2
  529.3472 0.02 0
  529.6097 0.06 1
  529.7742 0.03 0
  530.3514 0.14 2
  532.8804 0.23 4
  533.2345 0.01 0
  533.5393 0.19 3
  533.7089 0.13 2
  533.8326 0.12 2
  534.2405 0.07 1
  534.4372 0.15 2
  534.6268 0.10 2
  534.9939 0.14 2
  535.2272 0.09 1
  536.8358 0.08 1
  537.3710 0.05 1
  537.5320 0.16 3
  537.6709 0.12 2
  538.1138 0.12 2
  538.3687 0.13 2
  538.5253 0.24 4
  538.7143 0.10 2
  538.8274 0.13 2
  538.9977 0.13 2
  539.2153 0.26 4
  539.4121 0.14 2
  539.6976 0.14 2
  540.1887 0.20 3
  540.3912 0.24 4
  541.0454 0.11 2
  541.3553 0.13 2
  541.5715 0.13 2
  541.7182 0.11 2
  542.1126 0.19 3
  542.3159 0.26 4
  543.0611 0.02 0
  543.8715 0.03 0
  544.1965 0.08 1
  544.5122 0.11 2
  544.7756 0.10 2
  545.8688 0.19 3
  546.2548 0.12 2
  546.5383 0.12 2
  546.8605 0.15 2
  547.0667 0.20 3
  547.4741 0.10 2
  548.2954 0.45 7
  548.5825 0.30 5
  548.8181 0.11 2
  549.1002 0.14 2
  549.2900 0.11 2
  549.5464 0.12 2
  550.2396 0.30 5
  550.3455 0.32 5
  550.5761 0.09 1
  551.4183 1.90 31
  551.6912 0.37 6
  551.9734 0.08 1
  552.0980 0.03 0
  552.2763 0.51 8
  552.4424 0.32 5
  552.5435 0.20 3
  552.6229 0.11 2
  552.7755 0.13 2
  553.0598 0.19 3
  553.2124 0.01 0
  553.5347 0.16 3
  553.7116 0.14 2
  553.9515 0.09 1
  554.2180 0.12 2
  554.4107 0.25 4
  554.6851 0.10 2
  554.9150 0.13 2
  555.0747 0.11 2
  555.4185 0.14 2
  555.5969 0.11 2
  555.7408 0.07 1
  555.9078 0.05 1
  556.0202 0.06 1
  556.1678 0.11 2
  556.4264 0.08 1
  556.9185 0.12 2
  557.1664 0.14 2
  557.4401 0.04 1
  557.5432 0.03 0
  557.6765 0.07 1
  557.9186 0.26 4
  558.0841 0.12 2
  558.2804 0.13 2
  558.3585 0.08 1
  558.5197 0.16 3
  558.6372 0.04 1
  558.9123 0.15 2
  559.1630 0.17 3
  559.3565 0.04 1
  559.5853 0.11 2
  559.8992 0.29 5
  560.0750 0.12 2
  560.2166 0.26 4
  560.3596 0.17 3
  560.5468 0.07 1
  560.7728 0.26 4
  561.0723 0.24 4
  561.2818 0.23 4
  561.5070 0.20 3
  561.7658 0.33 5
  562.0161 0.18 3
  562.1962 0.19 3
  562.3449 0.11 2
  562.5487 0.14 2
  562.8168 0.27 4
  562.9355 0.21 3
  563.1264 0.26 4
  563.3066 0.30 5
  563.8564 0.43 7
  564.2211 0.51 8
  564.5292 0.68 11
  564.8360 0.50 8
  564.9855 0.30 5
  565.5840 0.62 10
  565.8064 0.38 6
  566.5193 6.10 100
  567.0707 0.75 12
  567.3725 1.46 24
  567.6450 0.80 13
  568.4002 2.22 36
  568.7835 0.38 6
  568.9552 0.61 10
  569.4487 2.01 33
  569.7326 0.83 14
  570.0452 0.15 2
  570.2562 0.27 4
  570.5266 0.44 7
  570.6746 0.34 6
  570.9193 0.34 6
  571.1832 0.16 3
  571.3655 0.29 5
  571.5501 0.34 6
  571.8290 0.30 5
  571.9871 0.49 8
  572.2196 0.45 7
  572.4857 0.65 11
  572.6259 0.25 4
  572.9714 0.27 4
  573.2483 0.40 7
  573.5430 0.21 3
  573.7648 0.48 8
  573.9100 0.37 6
  574.1089 0.37 6
  574.3735 0.36 6
  574.8801 0.53 9
  575.2299 0.39 6
  575.4288 0.30 5
  575.6849 0.29 5
  575.8215 0.45 7
  575.9360 0.45 7
  576.1635 0.40 7
  576.5892 0.40 7
  576.8447 0.51 8
  577.1108 0.53 9
  577.3741 0.39 6
  577.7891 0.80 13
  578.4130 0.85 14
  580.0781 1.91 31
  584.3979 99.97 999
  585.4017 18.34 301
  586.1667 7.99 131
  586.9545 4.28 70
  587.5745 2.89 48
  588.2386 1.26 21
  588.5182 1.14 19
  589.0009 0.82 13
  589.2111 1.12 18
  589.7789 0.72 12
  590.0885 0.43 7
  590.3259 0.28 5
  590.5197 0.24 4
  590.7621 0.10 2
  590.9001 0.23 4
  591.3063 0.15 2
  591.6209 0.02 0
  591.8419 0.08 1
  592.1637 0.22 4
  592.5062 0.19 3
  592.6221 0.24 4
  592.8581 0.06 1
  593.0791 0.36 6
//
