ACCESSION: MSBNK-BGC_Munich-RP023001
RECORD_TITLE: D(+)-Raffinose; LC-ESI-QTOF; MS2; CE: 10; R=; [M+H]+
DATE: 2017.10.25
AUTHORS: BGC, Helmholtz Zentrum Muenchen
LICENSE: CC BY
COPYRIGHT: Copyright (C) 2017
COMMENT: CONFIDENCE standard compound
COMMENT: INTERNAL_ID 230
CH$NAME: D(+)-Raffinose
CH$NAME: RAFFINOSE
CH$NAME: (2S,3R,4S,5R,6R)-2-[[(2R,3S,4S,5R,6R)-6-[(2S,3S,4S,5R)-3,4-dihydroxy-2,5-bis(hydroxymethyl)oxolan-2-yl]oxy-3,4,5-trihydroxyoxan-2-yl]methoxy]-6-(hydroxymethyl)oxane-3,4,5-triol
CH$COMPOUND_CLASS: N/A; Metabolomics Standard
CH$FORMULA: C18H32O16
CH$EXACT_MASS: 504.16903
CH$SMILES: C([C@@H]1[C@@H]([C@@H]([C@H]([C@H](O1)OC[C@@H]2[C@H]([C@@H]([C@H]([C@H](O2)O[C@]3([C@H]([C@@H]([C@H](O3)CO)O)O)CO)O)O)O)O)O)O)O
CH$IUPAC: InChI=1S/C18H32O16/c19-1-5-8(22)11(25)13(27)16(31-5)30-3-7-9(23)12(26)14(28)17(32-7)34-18(4-21)15(29)10(24)6(2-20)33-18/h5-17,19-29H,1-4H2/t5-,6-,7-,8+,9-,10-,11+,12+,13-,14-,15+,16+,17-,18+/m1/s1
CH$LINK: CAS 512-69-6
CH$LINK: CHEBI CHEBI:16634
CH$LINK: KEGG C00492
CH$LINK: PUBCHEM CID:439242
CH$LINK: INCHIKEY MUPFEKGTMRGPLJ-ZQSKZDJDSA-N
CH$LINK: CHEMSPIDER 388379
CH$LINK: COMPTOX DTXSID8041111
AC$INSTRUMENT: maXis plus UHR-ToF-MS, Bruker Daltonics
AC$INSTRUMENT_TYPE: LC-ESI-QTOF
AC$MASS_SPECTROMETRY: MS_TYPE MS2
AC$MASS_SPECTROMETRY: ION_MODE POSITIVE
AC$MASS_SPECTROMETRY: IONIZATION ESI
AC$MASS_SPECTROMETRY: FRAGMENTATION_MODE CID
AC$MASS_SPECTROMETRY: COLLISION_ENERGY 10
AC$CHROMATOGRAPHY: COLUMN_NAME BEH C18 1.7um, 2.1x100mm, Waters
AC$CHROMATOGRAPHY: FLOW_GRADIENT 95/5 at 0 min, 95/5 at 1.12 min, 0.5/99.5 at 6.41 min, 0.5/99.5 at 10.01 min
AC$CHROMATOGRAPHY: FLOW_RATE 400 uL/min
AC$CHROMATOGRAPHY: RETENTION_TIME 0.590 min
AC$CHROMATOGRAPHY: SOLVENT A Water with 0.1% formic acid
AC$CHROMATOGRAPHY: SOLVENT B ACN with 0.1% formic acid
MS$FOCUSED_ION: BASE_PEAK 325.1129
MS$FOCUSED_ION: PRECURSOR_M/Z 505.1763
MS$FOCUSED_ION: PRECURSOR_TYPE [M+H]+
MS$DATA_PROCESSING: REANALYZE Peaks with additional N2/O included
MS$DATA_PROCESSING: WHOLE RMassBank 2.4.0
PK$SPLASH: splash10-004l-0229100000-0e86b420bc16a12fcb5a
PK$NUM_PEAK: 14
PK$PEAK: m/z int. rel.int.
  152.0458 122 516
  152.2499 54 228
  272.0874 86 364
  276.1521 40 169
  291.1357 42 177
  319.1403 70 296
  325.1108 236 999
  326.1175 56 237
  327.1258 38 160
  328.11 70 296
  343.1227 186 787
  487.1648 60 253
  488.1639 64 270
  505.1723 58 245
//
