ACCESSION: MSBNK-BGC_Munich-RP020301
RECORD_TITLE: C8-homoserine lactone; LC-ESI-QTOF; MS2; CE: 10; R=; [M+H]+
DATE: 2017.10.25
AUTHORS: BGC, Helmholtz Zentrum Muenchen
LICENSE: CC BY
COPYRIGHT: Copyright (C) 2017
COMMENT: CONFIDENCE standard compound
COMMENT: INTERNAL_ID 203
CH$NAME: C8-homoserine lactone
CH$NAME: N-Octanoyl-DL-homoserine lactone
CH$NAME: N-(2-oxooxolan-3-yl)octanamide
CH$COMPOUND_CLASS: N/A; Metabolomics Standard
CH$FORMULA: C12H21NO3
CH$EXACT_MASS: 227.15214
CH$SMILES: CCCCCCCC(=O)NC1CCOC1=O
CH$IUPAC: InChI=1S/C12H21NO3/c1-2-3-4-5-6-7-11(14)13-10-8-9-16-12(10)15/h10H,2-9H2,1H3,(H,13,14)
CH$LINK: CAS 106983-30-6
CH$LINK: PUBCHEM CID:3474204
CH$LINK: INCHIKEY JKEJEOJPJVRHMQ-UHFFFAOYSA-N
CH$LINK: CHEMSPIDER 2715466
AC$INSTRUMENT: maXis plus UHR-ToF-MS, Bruker Daltonics
AC$INSTRUMENT_TYPE: LC-ESI-QTOF
AC$MASS_SPECTROMETRY: MS_TYPE MS2
AC$MASS_SPECTROMETRY: ION_MODE POSITIVE
AC$MASS_SPECTROMETRY: IONIZATION ESI
AC$MASS_SPECTROMETRY: FRAGMENTATION_MODE CID
AC$MASS_SPECTROMETRY: COLLISION_ENERGY 10
AC$CHROMATOGRAPHY: COLUMN_NAME BEH C18 1.7um, 2.1x100mm, Waters
AC$CHROMATOGRAPHY: FLOW_GRADIENT 95/5 at 0 min, 95/5 at 1.12 min, 0.5/99.5 at 6.41 min, 0.5/99.5 at 10.01 min
AC$CHROMATOGRAPHY: FLOW_RATE 400 uL/min
AC$CHROMATOGRAPHY: RETENTION_TIME 4.396 min
AC$CHROMATOGRAPHY: SOLVENT A Water with 0.1% formic acid
AC$CHROMATOGRAPHY: SOLVENT B ACN with 0.1% formic acid
MS$FOCUSED_ION: BASE_PEAK 228.159
MS$FOCUSED_ION: PRECURSOR_M/Z 228.1594
MS$FOCUSED_ION: PRECURSOR_TYPE [M+H]+
MS$DATA_PROCESSING: REANALYZE Peaks with additional N2/O included
MS$DATA_PROCESSING: WHOLE RMassBank 2.4.0
PK$SPLASH: splash10-0fb9-0960000000-69b00246dda251181c49
PK$NUM_PEAK: 10
PK$PEAK: m/z int. rel.int.
  83.0851 798 3
  84.0436 1298 4
  102.0547 265196 999
  109.101 7194 27
  127.1119 92856 349
  200.1644 22244 83
  210.1488 32204 121
  211.1521 3124 11
  228.1593 223902 843
  230.1644 1836 6
//
