ACCESSION: MSBNK-BGC_Munich-RP030601
RECORD_TITLE: N6-Isopentenyladenosine; LC-ESI-QTOF; MS2; CE: 10; R=; [M+H]+
DATE: 2017.10.27
AUTHORS: BGC, Helmholtz Zentrum Muenchen
LICENSE: CC BY
COPYRIGHT: Copyright (C) 2017
COMMENT: CONFIDENCE standard compound
COMMENT: INTERNAL_ID 306
CH$NAME: N6-Isopentenyladenosine
CH$NAME: Riboprine
CH$NAME: (2R,3S,4R,5R)-2-(hydroxymethyl)-5-[6-(3-methylbut-2-enylamino)purin-9-yl]oxolane-3,4-diol
CH$COMPOUND_CLASS: N/A; Metabolomics Standard
CH$FORMULA: C15H21N5O4
CH$EXACT_MASS: 335.1594
CH$SMILES: CC(=CCNc1c2c(ncn1)n(cn2)[C@H]3[C@@H]([C@@H]([C@H](O3)CO)O)O)C
CH$IUPAC: InChI=1S/C15H21N5O4/c1-8(2)3-4-16-13-10-14(18-6-17-13)20(7-19-10)15-12(23)11(22)9(5-21)24-15/h3,6-7,9,11-12,15,21-23H,4-5H2,1-2H3,(H,16,17,18)/t9-,11-,12-,15-/m1/s1
CH$LINK: CAS 7724-76-7
CH$LINK: CHEBI CHEBI:62881
CH$LINK: KEGG D05726
CH$LINK: PUBCHEM CID:24405
CH$LINK: INCHIKEY USVMJSALORZVDV-SDBHATRESA-N
CH$LINK: CHEMSPIDER 22815
CH$LINK: COMPTOX DTXSID1057828
AC$INSTRUMENT: maXis plus UHR-ToF-MS, Bruker Daltonics
AC$INSTRUMENT_TYPE: LC-ESI-QTOF
AC$MASS_SPECTROMETRY: MS_TYPE MS2
AC$MASS_SPECTROMETRY: ION_MODE POSITIVE
AC$MASS_SPECTROMETRY: IONIZATION ESI
AC$MASS_SPECTROMETRY: FRAGMENTATION_MODE CID
AC$MASS_SPECTROMETRY: COLLISION_ENERGY 10
AC$CHROMATOGRAPHY: COLUMN_NAME BEH C18 1.7um, 2.1x100mm, Waters
AC$CHROMATOGRAPHY: FLOW_GRADIENT 95/5 at 0 min, 95/5 at 1.12 min, 0.5/99.5 at 6.41 min, 0.5/99.5 at 10.01 min
AC$CHROMATOGRAPHY: FLOW_RATE 400 uL/min
AC$CHROMATOGRAPHY: RETENTION_TIME 3.145 min
AC$CHROMATOGRAPHY: SOLVENT A Water with 0.1% formic acid
AC$CHROMATOGRAPHY: SOLVENT B ACN with 0.1% formic acid
MS$FOCUSED_ION: BASE_PEAK 336.167
MS$FOCUSED_ION: PRECURSOR_M/Z 336.1666
MS$FOCUSED_ION: PRECURSOR_TYPE [M+H]+
MS$DATA_PROCESSING: REANALYZE Peaks with additional N2/O included
MS$DATA_PROCESSING: WHOLE RMassBank 2.4.0
PK$SPLASH: splash10-000i-0009000000-8e512b572a4d34207c70
PK$NUM_PEAK: 7
PK$PEAK: m/z int. rel.int.
  136.062 2680 2
  148.0614 10346 7
  204.1242 130050 100
  205.127 9196 7
  280.1047 2078 1
  336.1669 1294858 999
  338.1726 25568 19
//
