ACCESSION: MSBNK-BGC_Munich-RP023002
RECORD_TITLE: D(+)-Raffinose; LC-ESI-QTOF; MS2; CE: 20; R=; [M+H]+
DATE: 2017.10.25
AUTHORS: BGC, Helmholtz Zentrum Muenchen
LICENSE: CC BY
COPYRIGHT: Copyright (C) 2017
COMMENT: CONFIDENCE standard compound
COMMENT: INTERNAL_ID 230
CH$NAME: D(+)-Raffinose
CH$NAME: RAFFINOSE
CH$NAME: (2S,3R,4S,5R,6R)-2-[[(2R,3S,4S,5R,6R)-6-[(2S,3S,4S,5R)-3,4-dihydroxy-2,5-bis(hydroxymethyl)oxolan-2-yl]oxy-3,4,5-trihydroxyoxan-2-yl]methoxy]-6-(hydroxymethyl)oxane-3,4,5-triol
CH$COMPOUND_CLASS: N/A; Metabolomics Standard
CH$FORMULA: C18H32O16
CH$EXACT_MASS: 504.16903
CH$SMILES: C([C@@H]1[C@@H]([C@@H]([C@H]([C@H](O1)OC[C@@H]2[C@H]([C@@H]([C@H]([C@H](O2)O[C@]3([C@H]([C@@H]([C@H](O3)CO)O)O)CO)O)O)O)O)O)O)O
CH$IUPAC: InChI=1S/C18H32O16/c19-1-5-8(22)11(25)13(27)16(31-5)30-3-7-9(23)12(26)14(28)17(32-7)34-18(4-21)15(29)10(24)6(2-20)33-18/h5-17,19-29H,1-4H2/t5-,6-,7-,8+,9-,10-,11+,12+,13-,14-,15+,16+,17-,18+/m1/s1
CH$LINK: CAS 512-69-6
CH$LINK: CHEBI CHEBI:16634
CH$LINK: KEGG C00492
CH$LINK: PUBCHEM CID:439242
CH$LINK: INCHIKEY MUPFEKGTMRGPLJ-ZQSKZDJDSA-N
CH$LINK: CHEMSPIDER 388379
CH$LINK: COMPTOX DTXSID8041111
AC$INSTRUMENT: maXis plus UHR-ToF-MS, Bruker Daltonics
AC$INSTRUMENT_TYPE: LC-ESI-QTOF
AC$MASS_SPECTROMETRY: MS_TYPE MS2
AC$MASS_SPECTROMETRY: ION_MODE POSITIVE
AC$MASS_SPECTROMETRY: IONIZATION ESI
AC$MASS_SPECTROMETRY: FRAGMENTATION_MODE CID
AC$MASS_SPECTROMETRY: COLLISION_ENERGY 20
AC$CHROMATOGRAPHY: COLUMN_NAME BEH C18 1.7um, 2.1x100mm, Waters
AC$CHROMATOGRAPHY: FLOW_GRADIENT 95/5 at 0 min, 95/5 at 1.12 min, 0.5/99.5 at 6.41 min, 0.5/99.5 at 10.01 min
AC$CHROMATOGRAPHY: FLOW_RATE 400 uL/min
AC$CHROMATOGRAPHY: RETENTION_TIME 0.590 min
AC$CHROMATOGRAPHY: SOLVENT A Water with 0.1% formic acid
AC$CHROMATOGRAPHY: SOLVENT B ACN with 0.1% formic acid
MS$FOCUSED_ION: BASE_PEAK 325.1129
MS$FOCUSED_ION: PRECURSOR_M/Z 505.1763
MS$FOCUSED_ION: PRECURSOR_TYPE [M+H]+
MS$DATA_PROCESSING: REANALYZE Peaks with additional N2/O included
MS$DATA_PROCESSING: WHOLE RMassBank 2.4.0
PK$SPLASH: splash10-06vi-1529000000-ca7b5ce31b75cedc69b3
PK$NUM_PEAK: 8
PK$PEAK: m/z int. rel.int.
  85.028 42 216
  163.0595 116 597
  190.2027 36 185
  205.0839 38 195
  255.2576 42 216
  307.0953 38 195
  325.1147 194 999
  326.1143 38 195
//
