ACCESSION: MSBNK-BGC_Munich-RP009612
RECORD_TITLE: dhas#18; LC-ESI-QTOF; MS2; CE: 20; R=; [M-H]-
DATE: 2017.11.29
AUTHORS: BGC, Helmholtz Zentrum Muenchen
LICENSE: CC BY
COPYRIGHT: Copyright (C) 2017
COMMENT: CONFIDENCE standard compound
COMMENT: INTERNAL_ID 96
CH$NAME: dhas#18
CH$COMPOUND_CLASS: N/A; Metabolomics Standard
CH$FORMULA: C17H32O8
CH$EXACT_MASS: 364.2097
CH$SMILES: CC(C[C@H](O)CCCC[C@@H](O)CC(O)=O)O[C@@H]1OC(C)[C@H](O)CC1O
CH$IUPAC: InChI=1S/C17H32O8/c1-10(24-17-15(21)9-14(20)11(2)25-17)7-12(18)5-3-4-6-13(19)8-16(22)23/h10-15,17-21H,3-9H2,1-2H3,(H,22,23)/t10?,11?,12-,13-,14-,15?,17-/m1/s1
CH$LINK: INCHIKEY KOPWGKUEIMDQOP-YSEGPLCXSA-N
CH$LINK: PUBCHEM CID:137628431
AC$INSTRUMENT: maXis plus UHR-ToF-MS, Bruker Daltonics
AC$INSTRUMENT_TYPE: LC-ESI-QTOF
AC$MASS_SPECTROMETRY: MS_TYPE MS2
AC$MASS_SPECTROMETRY: ION_MODE NEGATIVE
AC$MASS_SPECTROMETRY: IONIZATION ESI
AC$MASS_SPECTROMETRY: FRAGMENTATION_MODE CID
AC$MASS_SPECTROMETRY: COLLISION_ENERGY 20
AC$CHROMATOGRAPHY: COLUMN_NAME BEH C18 1.7um, 2.1x100mm, Waters
AC$CHROMATOGRAPHY: FLOW_GRADIENT 95/5 at 0 min, 95/5 at 1.12 min, 0.5/99.5 at 6.41 min, 0.5/99.5 at 10.01 min
AC$CHROMATOGRAPHY: FLOW_RATE 400 uL/min
AC$CHROMATOGRAPHY: RETENTION_TIME 2.778 min
AC$CHROMATOGRAPHY: SOLVENT A Water with 0.1% formic acid
AC$CHROMATOGRAPHY: SOLVENT B ACN with 0.1% formic acid
MS$FOCUSED_ION: BASE_PEAK 363.2042
MS$FOCUSED_ION: PRECURSOR_M/Z 363.2024
MS$FOCUSED_ION: PRECURSOR_TYPE [M-H]-
MS$DATA_PROCESSING: REANALYZE Peaks with additional N2/O included
MS$DATA_PROCESSING: WHOLE RMassBank 2.4.0
PK$SPLASH: splash10-03di-0009000000-fd555f1430869ab62df1
PK$NUM_PEAK: 5
PK$PEAK: m/z int. rel.int.
  147.0697 70 1
  233.1492 74 1
  303.1833 92 1
  346.199 68 1
  363.2045 60828 999
//
