ACCESSION: MSBNK-BGC_Munich-RP008101
RECORD_TITLE: 3?-Hydroxy-12 Ketolithocholic Acid; LC-ESI-QTOF; MS2; CE: 10; R=; [M+H]+
DATE: 2017.10.21
AUTHORS: BGC, Helmholtz Zentrum Muenchen
LICENSE: CC BY
COPYRIGHT: Copyright (C) 2017
COMMENT: CONFIDENCE standard compound
COMMENT: INTERNAL_ID 81
CH$NAME: 3?-Hydroxy-12 Ketolithocholic Acid
CH$NAME: 12-Ketolithocholic acid
CH$NAME: (4R)-4-[(3R,5R,8R,9S,10S,13R,14S,17R)-3-hydroxy-10,13-dimethyl-12-oxo-1,2,3,4,5,6,7,8,9,11,14,15,16,17-tetradecahydrocyclopenta[a]phenanthren-17-yl]pentanoic acid
CH$COMPOUND_CLASS: N/A; Metabolomics Standard
CH$FORMULA: C24H38O4
CH$EXACT_MASS: 390.2770
CH$SMILES: C[C@H](CCC(=O)O)[C@H]1CC[C@@H]2[C@@]1(C(=O)C[C@H]3[C@H]2CC[C@H]4[C@@]3(CC[C@H](C4)O)C)C
CH$IUPAC: InChI=1S/C24H38O4/c1-14(4-9-22(27)28)18-7-8-19-17-6-5-15-12-16(25)10-11-23(15,2)20(17)13-21(26)24(18,19)3/h14-20,25H,4-13H2,1-3H3,(H,27,28)/t14-,15-,16-,17+,18-,19+,20+,23+,24-/m1/s1
CH$LINK: CAS 5130-29-0
CH$LINK: LIPIDMAPS LMST04010155
CH$LINK: PUBCHEM CID:3080612
CH$LINK: INCHIKEY CVNYHSDFZXHMMJ-VPUMZWJWSA-N
CH$LINK: CHEMSPIDER 2338365
CH$LINK: COMPTOX DTXSID80199300
AC$INSTRUMENT: maXis plus UHR-ToF-MS, Bruker Daltonics
AC$INSTRUMENT_TYPE: LC-ESI-QTOF
AC$MASS_SPECTROMETRY: MS_TYPE MS2
AC$MASS_SPECTROMETRY: ION_MODE POSITIVE
AC$MASS_SPECTROMETRY: IONIZATION ESI
AC$MASS_SPECTROMETRY: FRAGMENTATION_MODE CID
AC$MASS_SPECTROMETRY: COLLISION_ENERGY 10
AC$CHROMATOGRAPHY: COLUMN_NAME BEH C18 1.7um, 2.1x100mm, Waters
AC$CHROMATOGRAPHY: FLOW_GRADIENT 95/5 at 0 min, 95/5 at 1.12 min, 0.5/99.5 at 6.41 min, 0.5/99.5 at 10.01 min
AC$CHROMATOGRAPHY: FLOW_RATE 400 uL/min
AC$CHROMATOGRAPHY: RETENTION_TIME 5.054 min
AC$CHROMATOGRAPHY: SOLVENT A Water with 0.1% formic acid
AC$CHROMATOGRAPHY: SOLVENT B ACN with 0.1% formic acid
MS$FOCUSED_ION: BASE_PEAK 391.2841
MS$FOCUSED_ION: PRECURSOR_M/Z 391.2843
MS$FOCUSED_ION: PRECURSOR_TYPE [M+H]+
MS$DATA_PROCESSING: REANALYZE Peaks with additional N2/O included
MS$DATA_PROCESSING: WHOLE RMassBank 2.4.0
PK$SPLASH: splash10-006x-0009000000-792949ba134a8bbc9fcf
PK$NUM_PEAK: 14
PK$PEAK: m/z int. rel.int.
  309.2577 19674 43
  310.2614 2004 4
  319.2423 650 1
  327.2689 644 1
  337.2529 11186 24
  338.2551 1442 3
  355.2632 65498 145
  356.2665 10752 23
  373.2737 312094 693
  374.2773 78122 173
  375.2804 7466 16
  376.2822 572 1
  391.2843 449556 999
  393.2911 11504 25
//
