ACCESSION: MSBNK-BGC_Munich-RP017003
RECORD_TITLE: Salicylic acid; LC-ESI-QTOF; MS2; CE: 40; R=; [M+H]+
DATE: 2017.10.24
AUTHORS: BGC, Helmholtz Zentrum Muenchen
LICENSE: CC BY
COPYRIGHT: Copyright (C) 2017
COMMENT: CONFIDENCE standard compound
COMMENT: INTERNAL_ID 170
CH$NAME: Salicylic acid
CH$COMPOUND_CLASS: N/A; Metabolomics Standard
CH$FORMULA: C7H6O3
CH$EXACT_MASS: 138.0317
CH$SMILES: c1ccc(c(c1)C(=O)O)O
CH$IUPAC: InChI=1S/C7H6O3/c8-6-4-2-1-3-5(6)7(9)10/h1-4,8H,(H,9,10)
CH$LINK: CAS 63-36-5
CH$LINK: CHEBI CHEBI:16914
CH$LINK: KEGG C00805
CH$LINK: PUBCHEM CID:338
CH$LINK: INCHIKEY YGSDEFSMJLZEOE-UHFFFAOYSA-N
CH$LINK: CHEMSPIDER 331
CH$LINK: COMPTOX DTXSID7026368
AC$INSTRUMENT: maXis plus UHR-ToF-MS, Bruker Daltonics
AC$INSTRUMENT_TYPE: LC-ESI-QTOF
AC$MASS_SPECTROMETRY: MS_TYPE MS2
AC$MASS_SPECTROMETRY: ION_MODE POSITIVE
AC$MASS_SPECTROMETRY: IONIZATION ESI
AC$MASS_SPECTROMETRY: FRAGMENTATION_MODE CID
AC$MASS_SPECTROMETRY: COLLISION_ENERGY 40
AC$CHROMATOGRAPHY: COLUMN_NAME BEH C18 1.7um, 2.1x100mm, Waters
AC$CHROMATOGRAPHY: FLOW_GRADIENT 95/5 at 0 min, 95/5 at 1.12 min, 0.5/99.5 at 6.41 min, 0.5/99.5 at 10.01 min
AC$CHROMATOGRAPHY: FLOW_RATE 400 uL/min
AC$CHROMATOGRAPHY: RETENTION_TIME 3.612 min
AC$CHROMATOGRAPHY: SOLVENT A Water with 0.1% formic acid
AC$CHROMATOGRAPHY: SOLVENT B ACN with 0.1% formic acid
MS$FOCUSED_ION: BASE_PEAK 329.9821
MS$FOCUSED_ION: PRECURSOR_M/Z 139.039
MS$FOCUSED_ION: PRECURSOR_TYPE [M+H]+
MS$DATA_PROCESSING: REANALYZE Peaks with additional N2/O included
MS$DATA_PROCESSING: WHOLE RMassBank 2.4.0
PK$SPLASH: splash10-03k9-9600000000-0d5c951034fbb4b67ebb
PK$NUM_PEAK: 6
PK$PEAK: m/z int. rel.int.
  63.0223 580 999
  75.0233 78 134
  93.034 270 465
  111.044 178 306
  121.0293 226 389
  121.0387 284 489
//
