ACCESSION: MSBNK-BGC_Munich-RP020002
RECORD_TITLE: Diethylphthalate; LC-ESI-QTOF; MS2; CE: 20; R=; [M+H]+
DATE: 2017.10.25
AUTHORS: BGC, Helmholtz Zentrum Muenchen
LICENSE: CC BY
COPYRIGHT: Copyright (C) 2017
COMMENT: CONFIDENCE standard compound
COMMENT: INTERNAL_ID 200
CH$NAME: Diethylphthalate
CH$NAME: DIETHYL PHTHALATE
CH$NAME: diethyl benzene-1,2-dicarboxylate
CH$COMPOUND_CLASS: N/A; Metabolomics Standard
CH$FORMULA: C12H14O4
CH$EXACT_MASS: 222.08921
CH$SMILES: CCOC(=O)c1ccccc1C(=O)OCC
CH$IUPAC: InChI=1S/C12H14O4/c1-3-15-11(13)9-7-5-6-8-10(9)12(14)16-4-2/h5-8H,3-4H2,1-2H3
CH$LINK: CAS 84-66-2
CH$LINK: CHEBI CHEBI:34698
CH$LINK: KEGG D03804
CH$LINK: PUBCHEM CID:6781
CH$LINK: INCHIKEY FLKPEMZONWLCSK-UHFFFAOYSA-N
CH$LINK: CHEMSPIDER 13837303
CH$LINK: COMPTOX DTXSID7021780
AC$INSTRUMENT: maXis plus UHR-ToF-MS, Bruker Daltonics
AC$INSTRUMENT_TYPE: LC-ESI-QTOF
AC$MASS_SPECTROMETRY: MS_TYPE MS2
AC$MASS_SPECTROMETRY: ION_MODE POSITIVE
AC$MASS_SPECTROMETRY: IONIZATION ESI
AC$MASS_SPECTROMETRY: FRAGMENTATION_MODE CID
AC$MASS_SPECTROMETRY: COLLISION_ENERGY 20
AC$CHROMATOGRAPHY: COLUMN_NAME BEH C18 1.7um, 2.1x100mm, Waters
AC$CHROMATOGRAPHY: FLOW_GRADIENT 95/5 at 0 min, 95/5 at 1.12 min, 0.5/99.5 at 6.41 min, 0.5/99.5 at 10.01 min
AC$CHROMATOGRAPHY: FLOW_RATE 400 uL/min
AC$CHROMATOGRAPHY: RETENTION_TIME 4.816 min
AC$CHROMATOGRAPHY: SOLVENT A Water with 0.1% formic acid
AC$CHROMATOGRAPHY: SOLVENT B ACN with 0.1% formic acid
MS$FOCUSED_ION: BASE_PEAK 149.0237
MS$FOCUSED_ION: PRECURSOR_M/Z 223.0965
MS$FOCUSED_ION: PRECURSOR_TYPE [M+H]+
MS$DATA_PROCESSING: REANALYZE Peaks with additional N2/O included
MS$DATA_PROCESSING: WHOLE RMassBank 2.4.0
PK$SPLASH: splash10-0002-0900000000-34d479f9e8f4f4140c8e
PK$NUM_PEAK: 8
PK$PEAK: m/z int. rel.int.
  93.0331 3132 1
  121.0284 23280 7
  149.024 2942974 999
  150.0266 536212 182
  151.0283 36828 12
  167.0335 8152 2
  177.0541 185402 62
  178.0576 18384 6
//
