ACCESSION: MSBNK-BGC_Munich-RP012503
RECORD_TITLE: Xanthine; LC-ESI-QTOF; MS2; CE: 40; R=; [M+H]+
DATE: 2017.10.22
AUTHORS: BGC, Helmholtz Zentrum Muenchen
LICENSE: CC BY
COPYRIGHT: Copyright (C) 2017
COMMENT: CONFIDENCE standard compound
COMMENT: INTERNAL_ID 125
CH$NAME: Xanthine
CH$NAME: 3,7-dihydropurine-2,6-dione
CH$COMPOUND_CLASS: N/A; Metabolomics Standard
CH$FORMULA: C5H4N4O2
CH$EXACT_MASS: 152.0334
CH$SMILES: O=C1NC2=C(NC=N2)C(=O)N1
CH$IUPAC: InChI=1S/C5H4N4O2/c10-4-2-3(7-1-6-2)8-5(11)9-4/h1H,(H3,6,7,8,9,10,11)
CH$LINK: CAS 69-89-6
CH$LINK: CHEBI CHEBI:17712
CH$LINK: KEGG C00385
CH$LINK: PUBCHEM CID:1188
CH$LINK: INCHIKEY LRFVTYWOQMYALW-UHFFFAOYSA-N
CH$LINK: CHEMSPIDER 1151
CH$LINK: COMPTOX DTXSID4035120
AC$INSTRUMENT: maXis plus UHR-ToF-MS, Bruker Daltonics
AC$INSTRUMENT_TYPE: LC-ESI-QTOF
AC$MASS_SPECTROMETRY: MS_TYPE MS2
AC$MASS_SPECTROMETRY: ION_MODE POSITIVE
AC$MASS_SPECTROMETRY: IONIZATION ESI
AC$MASS_SPECTROMETRY: FRAGMENTATION_MODE CID
AC$MASS_SPECTROMETRY: COLLISION_ENERGY 40
AC$CHROMATOGRAPHY: COLUMN_NAME BEH C18 1.7um, 2.1x100mm, Waters
AC$CHROMATOGRAPHY: FLOW_GRADIENT 95/5 at 0 min, 95/5 at 1.12 min, 0.5/99.5 at 6.41 min, 0.5/99.5 at 10.01 min
AC$CHROMATOGRAPHY: FLOW_RATE 400 uL/min
AC$CHROMATOGRAPHY: RETENTION_TIME 0.698 min
AC$CHROMATOGRAPHY: SOLVENT A Water with 0.1% formic acid
AC$CHROMATOGRAPHY: SOLVENT B ACN with 0.1% formic acid
MS$FOCUSED_ION: BASE_PEAK 153.0403
MS$FOCUSED_ION: PRECURSOR_M/Z 153.0407
MS$FOCUSED_ION: PRECURSOR_TYPE [M+H]+
MS$DATA_PROCESSING: REANALYZE Peaks with additional N2/O included
MS$DATA_PROCESSING: WHOLE RMassBank 2.4.0
PK$SPLASH: splash10-001i-9100000000-e5a46810496d3c20ddba
PK$NUM_PEAK: 17
PK$PEAK: m/z int. rel.int.
  53.9975 130 16
  56.0116 214 26
  65.0128 754 94
  65.9973 38 4
  68.0121 154 19
  69.0082 278 34
  69.9922 170 21
  80.0245 104 12
  81.008 7998 999
  82.0395 3176 396
  83.0237 264 32
  83.0373 98 12
  93.0086 594 74
  107.0323 44 5
  108.0197 196 24
  110.0344 1268 158
  136.0143 58 7
//
