ACCESSION: MSBNK-BGC_Munich-RP011901
RECORD_TITLE: 4-Hydroxybenzoic acid; LC-ESI-QTOF; MS2; CE: 10; R=; [M+H]+
DATE: 2017.10.22
AUTHORS: BGC, Helmholtz Zentrum Muenchen
LICENSE: CC BY
COPYRIGHT: Copyright (C) 2017
COMMENT: CONFIDENCE standard compound
COMMENT: INTERNAL_ID 119
CH$NAME: 4-Hydroxybenzoic acid
CH$COMPOUND_CLASS: N/A; Metabolomics Standard
CH$FORMULA: C7H6O3
CH$EXACT_MASS: 138.0317
CH$SMILES: OC(=O)C1=CC=C(O)C=C1
CH$IUPAC: InChI=1S/C7H6O3/c8-6-3-1-5(2-4-6)7(9)10/h1-4,8H,(H,9,10)
CH$LINK: CAS 99-96-7
CH$LINK: CHEBI CHEBI:30763
CH$LINK: KEGG C00156
CH$LINK: PUBCHEM CID:135
CH$LINK: INCHIKEY FJKROLUGYXJWQN-UHFFFAOYSA-N
CH$LINK: CHEMSPIDER 132
CH$LINK: COMPTOX DTXSID3026647
AC$INSTRUMENT: maXis plus UHR-ToF-MS, Bruker Daltonics
AC$INSTRUMENT_TYPE: LC-ESI-QTOF
AC$MASS_SPECTROMETRY: MS_TYPE MS2
AC$MASS_SPECTROMETRY: ION_MODE POSITIVE
AC$MASS_SPECTROMETRY: IONIZATION ESI
AC$MASS_SPECTROMETRY: FRAGMENTATION_MODE CID
AC$MASS_SPECTROMETRY: COLLISION_ENERGY 10
AC$CHROMATOGRAPHY: COLUMN_NAME BEH C18 1.7um, 2.1x100mm, Waters
AC$CHROMATOGRAPHY: FLOW_GRADIENT 95/5 at 0 min, 95/5 at 1.12 min, 0.5/99.5 at 6.41 min, 0.5/99.5 at 10.01 min
AC$CHROMATOGRAPHY: FLOW_RATE 400 uL/min
AC$CHROMATOGRAPHY: RETENTION_TIME 2.548 min
AC$CHROMATOGRAPHY: SOLVENT A Water with 0.1% formic acid
AC$CHROMATOGRAPHY: SOLVENT B ACN with 0.1% formic acid
MS$FOCUSED_ION: BASE_PEAK 468.0135
MS$FOCUSED_ION: PRECURSOR_M/Z 139.039
MS$FOCUSED_ION: PRECURSOR_TYPE [M+H]+
MS$DATA_PROCESSING: REANALYZE Peaks with additional N2/O included
MS$DATA_PROCESSING: WHOLE RMassBank 2.4.0
PK$SPLASH: splash10-000b-9700000000-f0d9091dad981608ac2e
PK$NUM_PEAK: 8
PK$PEAK: m/z int. rel.int.
  77.039 250 41
  94.0411 50 8
  95.0488 5974 999
  110.0464 86 14
  111.0405 86 14
  120.0439 38 6
  121.0279 436 72
  139.0381 4314 721
//
