ACCESSION: MSBNK-BGC_Munich-RP031513
RECORD_TITLE: Pseudouridine; LC-ESI-QTOF; MS2; CE: 40; R=; [M-H]-
DATE: 2017.11.29
AUTHORS: BGC, Helmholtz Zentrum Muenchen
LICENSE: CC BY
COPYRIGHT: Copyright (C) 2017
COMMENT: CONFIDENCE standard compound
COMMENT: INTERNAL_ID 315
CH$NAME: Pseudouridine
CH$NAME: 5-[(2S,3R,4S,5R)-3,4-dihydroxy-5-(hydroxymethyl)oxolan-2-yl]-1H-pyrimidine-2,4-dione
CH$COMPOUND_CLASS: N/A; Metabolomics Standard
CH$FORMULA: C9H12N2O6
CH$EXACT_MASS: 244.0695
CH$SMILES: c1c(c(nc(n1)O)O)[C@H]2[C@@H]([C@@H]([C@H](O2)CO)O)O
CH$IUPAC: InChI=1S/C9H12N2O6/c12-2-4-5(13)6(14)7(17-4)3-1-10-9(16)11-8(3)15/h1,4-7,12-14H,2H2,(H2,10,11,15,16)/t4-,5-,6-,7+/m1/s1
CH$LINK: CAS 1445-07-4
CH$LINK: CHEBI CHEBI:17802
CH$LINK: KEGG C02067
CH$LINK: PUBCHEM CID:15047
CH$LINK: INCHIKEY PTJWIQPHWPFNBW-GBNDHIKLSA-N
CH$LINK: CHEMSPIDER 14319
AC$INSTRUMENT: maXis plus UHR-ToF-MS, Bruker Daltonics
AC$INSTRUMENT_TYPE: LC-ESI-QTOF
AC$MASS_SPECTROMETRY: MS_TYPE MS2
AC$MASS_SPECTROMETRY: ION_MODE NEGATIVE
AC$MASS_SPECTROMETRY: IONIZATION ESI
AC$MASS_SPECTROMETRY: FRAGMENTATION_MODE CID
AC$MASS_SPECTROMETRY: COLLISION_ENERGY 40
AC$CHROMATOGRAPHY: COLUMN_NAME BEH C18 1.7um, 2.1x100mm, Waters
AC$CHROMATOGRAPHY: FLOW_GRADIENT 95/5 at 0 min, 95/5 at 1.12 min, 0.5/99.5 at 6.41 min, 0.5/99.5 at 10.01 min
AC$CHROMATOGRAPHY: FLOW_RATE 400 uL/min
AC$CHROMATOGRAPHY: RETENTION_TIME 0.643 min
AC$CHROMATOGRAPHY: SOLVENT A Water with 0.1% formic acid
AC$CHROMATOGRAPHY: SOLVENT B ACN with 0.1% formic acid
MS$FOCUSED_ION: BASE_PEAK 243.0623
MS$FOCUSED_ION: PRECURSOR_M/Z 243.0623
MS$FOCUSED_ION: PRECURSOR_TYPE [M-H]-
MS$DATA_PROCESSING: REANALYZE Peaks with additional N2/O included
MS$DATA_PROCESSING: WHOLE RMassBank 2.4.0
PK$SPLASH: splash10-001i-9100000000-4a1c7ff36b6f0663e827
PK$NUM_PEAK: 9
PK$PEAK: m/z int. rel.int.
  67.0195 50 158
  68.0139 38 120
  78.0346 64 202
  79.0195 74 233
  82.0307 316 999
  83.0139 112 354
  96.0454 50 158
  110.0239 64 202
  153.0303 72 227
//
