ACCESSION: MSBNK-BGC_Munich-RP026201
RECORD_TITLE: 1-heptadecanoyl-2-hydroxy-sn-glycero-3-phosphocholine; LC-ESI-QTOF; MS2; CE: 10; R=; [M+H]+
DATE: 2017.10.27
AUTHORS: BGC, Helmholtz Zentrum Muenchen
LICENSE: CC BY
COPYRIGHT: Copyright (C) 2017
COMMENT: CONFIDENCE standard compound
COMMENT: INTERNAL_ID 262
CH$NAME: 1-heptadecanoyl-2-hydroxy-sn-glycero-3-phosphocholine
CH$NAME: 1-heptadecanoyl-sn-glycero-3-phosphocholine
CH$NAME: [(2R)-3-heptadecanoyloxy-2-hydroxypropyl] 2-(trimethylazaniumyl)ethyl phosphate
CH$COMPOUND_CLASS: N/A; Metabolomics Standard
CH$FORMULA: C25H52NO7P
CH$EXACT_MASS: 509.3481
CH$SMILES: [H][C@@](O)(COC(=O)CCCCCCCCCCCCCCCC)COP([O-])(=O)OCC[N+](C)(C)C
CH$IUPAC: InChI=1S/C25H52NO7P/c1-5-6-7-8-9-10-11-12-13-14-15-16-17-18-19-25(28)31-22-24(27)23-33-34(29,30)32-21-20-26(2,3)4/h24,27H,5-23H2,1-4H3/t24-/m1/s1
CH$LINK: CAS 50930-23-9
CH$LINK: CHEBI CHEBI:74340
CH$LINK: LIPIDMAPS LMGP01050024
CH$LINK: PUBCHEM CID:24779463
CH$LINK: INCHIKEY SRRQPVVYXBTRQK-XMMPIXPASA-N
CH$LINK: CHEMSPIDER 24694752
CH$LINK: COMPTOX DTXSID40647291
AC$INSTRUMENT: maXis plus UHR-ToF-MS, Bruker Daltonics
AC$INSTRUMENT_TYPE: LC-ESI-QTOF
AC$MASS_SPECTROMETRY: MS_TYPE MS2
AC$MASS_SPECTROMETRY: ION_MODE POSITIVE
AC$MASS_SPECTROMETRY: IONIZATION ESI
AC$MASS_SPECTROMETRY: FRAGMENTATION_MODE CID
AC$MASS_SPECTROMETRY: COLLISION_ENERGY 10
AC$CHROMATOGRAPHY: COLUMN_NAME BEH C18 1.7um, 2.1x100mm, Waters
AC$CHROMATOGRAPHY: FLOW_GRADIENT 95/5 at 0 min, 95/5 at 1.12 min, 0.5/99.5 at 6.41 min, 0.5/99.5 at 10.01 min
AC$CHROMATOGRAPHY: FLOW_RATE 400 uL/min
AC$CHROMATOGRAPHY: RETENTION_TIME 6.291 min
AC$CHROMATOGRAPHY: SOLVENT A Water with 0.1% formic acid
AC$CHROMATOGRAPHY: SOLVENT B ACN with 0.1% formic acid
MS$FOCUSED_ION: BASE_PEAK 510.3549
MS$FOCUSED_ION: PRECURSOR_M/Z 510.3554
MS$FOCUSED_ION: PRECURSOR_TYPE [M+H]+
MS$DATA_PROCESSING: REANALYZE Peaks with additional N2/O included
MS$DATA_PROCESSING: WHOLE RMassBank 2.4.0
PK$SPLASH: splash10-03di-0000090000-e375900072bd3d054932
PK$NUM_PEAK: 9
PK$PEAK: m/z int. rel.int.
  104.1068 2008 4
  184.0726 594 1
  492.345 2296 5
  493.347 484 1
  509.2665 646 1
  509.3253 736 1
  509.3496 924 2
  510.3554 453278 999
  512.3609 23456 51
//
