ACCESSION: MSBNK-BGC_Munich-RP029313
RECORD_TITLE: Sulfocholic acid; LC-ESI-QTOF; MS2; CE: 40; R=; [M-H]-
DATE: 2017.11.29
AUTHORS: BGC, Helmholtz Zentrum Muenchen
LICENSE: CC BY
COPYRIGHT: Copyright (C) 2017
COMMENT: CONFIDENCE standard compound
COMMENT: INTERNAL_ID 293
CH$NAME: Sulfocholic acid
CH$NAME: 7-Sulfocholic acid
CH$NAME: (4R)-4-[(3R,5S,7R,8R,9S,10S,12S,13R,14S,17R)-3,12-dihydroxy-10,13-dimethyl-7-sulfooxy-2,3,4,5,6,7,8,9,11,12,14,15,16,17-tetradecahydro-1H-cyclopenta[a]phenanthren-17-yl]pentanoic acid
CH$COMPOUND_CLASS: N/A; Metabolomics Standard
CH$FORMULA: C24H40O8S
CH$EXACT_MASS: 488.2444
CH$SMILES: C[C@H](CCC(=O)O)[C@H]1CC[C@@H]2[C@@]1([C@H](C[C@H]3[C@H]2[C@@H](C[C@H]4[C@@]3(CC[C@H](C4)O)C)OS(=O)(=O)O)O)C
CH$IUPAC: InChI=1S/C24H40O8S/c1-13(4-7-21(27)28)16-5-6-17-22-18(12-20(26)24(16,17)3)23(2)9-8-15(25)10-14(23)11-19(22)32-33(29,30)31/h13-20,22,25-26H,4-12H2,1-3H3,(H,27,28)(H,29,30,31)/t13-,14+,15-,16-,17+,18+,19-,20+,22+,23+,24-/m1/s1
CH$LINK: LIPIDMAPS LMST04010444
CH$LINK: PUBCHEM CID:459070
CH$LINK: INCHIKEY RRVLNNMINXAIKC-OELDTZBJSA-N
CH$LINK: CHEMSPIDER 404001
AC$INSTRUMENT: maXis plus UHR-ToF-MS, Bruker Daltonics
AC$INSTRUMENT_TYPE: LC-ESI-QTOF
AC$MASS_SPECTROMETRY: MS_TYPE MS2
AC$MASS_SPECTROMETRY: ION_MODE NEGATIVE
AC$MASS_SPECTROMETRY: IONIZATION ESI
AC$MASS_SPECTROMETRY: FRAGMENTATION_MODE CID
AC$MASS_SPECTROMETRY: COLLISION_ENERGY 40
AC$CHROMATOGRAPHY: COLUMN_NAME BEH C18 1.7um, 2.1x100mm, Waters
AC$CHROMATOGRAPHY: FLOW_GRADIENT 95/5 at 0 min, 95/5 at 1.12 min, 0.5/99.5 at 6.41 min, 0.5/99.5 at 10.01 min
AC$CHROMATOGRAPHY: FLOW_RATE 400 uL/min
AC$CHROMATOGRAPHY: RETENTION_TIME 4.049 min
AC$CHROMATOGRAPHY: SOLVENT A Water with 0.1% formic acid
AC$CHROMATOGRAPHY: SOLVENT B ACN with 0.1% formic acid
MS$FOCUSED_ION: BASE_PEAK 487.2364
MS$FOCUSED_ION: PRECURSOR_M/Z 487.2371
MS$FOCUSED_ION: PRECURSOR_TYPE [M-H]-
MS$DATA_PROCESSING: REANALYZE Peaks with additional N2/O included
MS$DATA_PROCESSING: WHOLE RMassBank 2.4.0
PK$SPLASH: splash10-000i-2000900000-5cc3a69f98064980353e
PK$NUM_PEAK: 3
PK$PEAK: m/z int. rel.int.
  79.9578 356 2
  96.9603 54244 326
  487.2367 166180 999
//
