ACCESSION: MSBNK-BGC_Munich-RP010711
RECORD_TITLE: delta4-Dafachronic acid; LC-ESI-QTOF; MS2; CE: 10; R=; [M-H]-
DATE: 2017.11.29
AUTHORS: BGC, Helmholtz Zentrum Muenchen
LICENSE: CC BY
COPYRIGHT: Copyright (C) 2017
COMMENT: CONFIDENCE standard compound
COMMENT: INTERNAL_ID 107
CH$NAME: delta4-Dafachronic acid
CH$NAME: 3-Oxocholest-4-en-26-oic acid
CH$NAME: (6R)-6-[(8S,9S,10R,13R,14S,17R)-10,13-dimethyl-3-oxo-1,2,6,7,8,9,11,12,14,15,16,17-dodecahydrocyclopenta[a]phenanthren-17-yl]-2-methylheptanoic acid
CH$COMPOUND_CLASS: N/A; Metabolomics Standard
CH$FORMULA: C27H42O3
CH$EXACT_MASS: 414.3134
CH$SMILES: C[C@H](CCCC(C)C(O)=O)[C@H]1CC[C@H]2[C@@H]3CCC4=CC(=O)CC[C@]4(C)[C@H]3CC[C@]12C
CH$IUPAC: InChI=1S/C27H42O3/c1-17(6-5-7-18(2)25(29)30)22-10-11-23-21-9-8-19-16-20(28)12-14-26(19,3)24(21)13-15-27(22,23)4/h16-18,21-24H,5-15H2,1-4H3,(H,29,30)/t17-,18?,21+,22-,23+,24+,26+,27-/m1/s1
CH$LINK: CHEBI CHEBI:78686
CH$LINK: PUBCHEM CID:22216313
CH$LINK: INCHIKEY PSXQJZDFWDKBIP-NNWQCNCGSA-N
CH$LINK: CHEMSPIDER 20045556
AC$INSTRUMENT: maXis plus UHR-ToF-MS, Bruker Daltonics
AC$INSTRUMENT_TYPE: LC-ESI-QTOF
AC$MASS_SPECTROMETRY: MS_TYPE MS2
AC$MASS_SPECTROMETRY: ION_MODE NEGATIVE
AC$MASS_SPECTROMETRY: IONIZATION ESI
AC$MASS_SPECTROMETRY: FRAGMENTATION_MODE CID
AC$MASS_SPECTROMETRY: COLLISION_ENERGY 10
AC$CHROMATOGRAPHY: COLUMN_NAME BEH C18 1.7um, 2.1x100mm, Waters
AC$CHROMATOGRAPHY: FLOW_GRADIENT 95/5 at 0 min, 95/5 at 1.12 min, 0.5/99.5 at 6.41 min, 0.5/99.5 at 10.01 min
AC$CHROMATOGRAPHY: FLOW_RATE 400 uL/min
AC$CHROMATOGRAPHY: RETENTION_TIME 6.726 min
AC$CHROMATOGRAPHY: SOLVENT A Water with 0.1% formic acid
AC$CHROMATOGRAPHY: SOLVENT B ACN with 0.1% formic acid
MS$FOCUSED_ION: BASE_PEAK 827.5914
MS$FOCUSED_ION: PRECURSOR_M/Z 413.3061
MS$FOCUSED_ION: PRECURSOR_TYPE [M-H]-
MS$DATA_PROCESSING: REANALYZE Peaks with additional N2/O included
MS$DATA_PROCESSING: WHOLE RMassBank 2.4.0
PK$SPLASH: splash10-03di-0000900000-96b880f440ed39fe3ef5
PK$NUM_PEAK: 4
PK$PEAK: m/z int. rel.int.
  117.067 30 5
  254.2625 28 4
  321.0119 30 5
  413.3049 5948 999
//
