ACCESSION: MSBNK-BGC_Munich-RP021412
RECORD_TITLE: 3-hydroxy-C6-homoserine lactone; LC-ESI-QTOF; MS2; CE: 20; R=; [M-H]-
DATE: 2017.11.29
AUTHORS: BGC, Helmholtz Zentrum Muenchen
LICENSE: CC BY
COPYRIGHT: Copyright (C) 2017
COMMENT: CONFIDENCE standard compound
COMMENT: INTERNAL_ID 214
CH$NAME: 3-hydroxy-C6-homoserine lactone
CH$NAME: 3OH-C6-HSL RS/RS
CH$NAME: 3-hydroxy-N-(2-oxooxolan-3-yl)hexanamide
CH$COMPOUND_CLASS: N/A; Metabolomics Standard
CH$FORMULA: C10H17NO4
CH$EXACT_MASS: 215.1158
CH$SMILES: CCCC(O)CC(=O)NC1CCOC1=O
CH$IUPAC: InChI=1S/C10H17NO4/c1-2-3-7(12)6-9(13)11-8-4-5-15-10(8)14/h7-8,12H,2-6H2,1H3,(H,11,13)
CH$LINK: CAS 192883-16-2
CH$LINK: PUBCHEM CID:11579405
CH$LINK: INCHIKEY CRCIHGGZGGATGM-UHFFFAOYSA-N
CH$LINK: CHEMSPIDER 9754171
AC$INSTRUMENT: maXis plus UHR-ToF-MS, Bruker Daltonics
AC$INSTRUMENT_TYPE: LC-ESI-QTOF
AC$MASS_SPECTROMETRY: MS_TYPE MS2
AC$MASS_SPECTROMETRY: ION_MODE NEGATIVE
AC$MASS_SPECTROMETRY: IONIZATION ESI
AC$MASS_SPECTROMETRY: FRAGMENTATION_MODE CID
AC$MASS_SPECTROMETRY: COLLISION_ENERGY 20
AC$CHROMATOGRAPHY: COLUMN_NAME BEH C18 1.7um, 2.1x100mm, Waters
AC$CHROMATOGRAPHY: FLOW_GRADIENT 95/5 at 0 min, 95/5 at 1.12 min, 0.5/99.5 at 6.41 min, 0.5/99.5 at 10.01 min
AC$CHROMATOGRAPHY: FLOW_RATE 400 uL/min
AC$CHROMATOGRAPHY: RETENTION_TIME 2.640 min
AC$CHROMATOGRAPHY: SOLVENT A Water with 0.1% formic acid
AC$CHROMATOGRAPHY: SOLVENT B ACN with 0.1% formic acid
MS$FOCUSED_ION: BASE_PEAK 214.1092
MS$FOCUSED_ION: PRECURSOR_M/Z 214.1085
MS$FOCUSED_ION: PRECURSOR_TYPE [M-H]-
MS$DATA_PROCESSING: REANALYZE Peaks with additional N2/O included
MS$DATA_PROCESSING: WHOLE RMassBank 2.4.0
PK$SPLASH: splash10-03e9-6900000000-19b1ba7ae923349923e8
PK$NUM_PEAK: 10
PK$PEAK: m/z int. rel.int.
  57.0348 58 29
  68.0502 98 49
  69.0338 64 32
  84.0458 1462 738
  97.0299 78 39
  112.041 1978 999
  113.0433 120 60
  140.0361 52 26
  142.0506 446 225
  143.0557 30 15
//
