ACCESSION: MSBNK-BGC_Munich-RP002901
RECORD_TITLE: Pentadecanoyl Ethanolamide; LC-ESI-QTOF; MS2; CE: 10; R=; [M+H]+
DATE: 2017.10.20
AUTHORS: BGC, Helmholtz Zentrum Muenchen
LICENSE: CC BY
COPYRIGHT: Copyright (C) 2017
COMMENT: CONFIDENCE standard compound
COMMENT: INTERNAL_ID 29
CH$NAME: Pentadecanoyl Ethanolamide
CH$NAME: Pentadecanoyl-EA
CH$NAME: N-(2-hydroxyethyl)pentadecanamide
CH$COMPOUND_CLASS: N/A; Metabolomics Standard
CH$FORMULA: C17H35NO2
CH$EXACT_MASS: 285.26678
CH$SMILES: O=C(CCCCCCCCCCCCCC)NCCO
CH$IUPAC: InChI=1S/C17H35NO2/c1-2-3-4-5-6-7-8-9-10-11-12-13-14-17(20)18-15-16-19/h19H,2-16H2,1H3,(H,18,20)
CH$LINK: CAS 72623-73-5
CH$LINK: LIPIDMAPS LMFA08040045
CH$LINK: PUBCHEM CID:14455157
CH$LINK: INCHIKEY UHPXXKLAACDXGS-UHFFFAOYSA-N
CH$LINK: CHEMSPIDER 13538073
CH$LINK: COMPTOX DTXSID60880380
AC$INSTRUMENT: maXis plus UHR-ToF-MS, Bruker Daltonics
AC$INSTRUMENT_TYPE: LC-ESI-QTOF
AC$MASS_SPECTROMETRY: MS_TYPE MS2
AC$MASS_SPECTROMETRY: ION_MODE POSITIVE
AC$MASS_SPECTROMETRY: IONIZATION ESI
AC$MASS_SPECTROMETRY: FRAGMENTATION_MODE CID
AC$MASS_SPECTROMETRY: COLLISION_ENERGY 10
AC$CHROMATOGRAPHY: COLUMN_NAME BEH C18 1.7um, 2.1x100mm, Waters
AC$CHROMATOGRAPHY: FLOW_GRADIENT 95/5 at 0 min, 95/5 at 1.12 min, 0.5/99.5 at 6.41 min, 0.5/99.5 at 10.01 min
AC$CHROMATOGRAPHY: FLOW_RATE 400 uL/min
AC$CHROMATOGRAPHY: RETENTION_TIME 6.414 min
AC$CHROMATOGRAPHY: SOLVENT A Water with 0.1% formic acid
AC$CHROMATOGRAPHY: SOLVENT B ACN with 0.1% formic acid
MS$FOCUSED_ION: BASE_PEAK 286.2736
MS$FOCUSED_ION: PRECURSOR_M/Z 286.2741
MS$FOCUSED_ION: PRECURSOR_TYPE [M+H]+
MS$DATA_PROCESSING: REANALYZE Peaks with additional N2/O included
MS$DATA_PROCESSING: WHOLE RMassBank 2.4.0
PK$SPLASH: splash10-000i-2090000000-7a3e23b89de7993901c3
PK$NUM_PEAK: 5
PK$PEAK: m/z int. rel.int.
  62.0595 162408 309
  225.2219 984 1
  268.2635 1846 3
  269.2472 16820 32
  286.2736 524230 999
//
