ACCESSION: MSBNK-BGC_Munich-RP023111
RECORD_TITLE: D(+)-Melezitose; LC-ESI-QTOF; MS2; CE: 10; R=; [M-H]-
DATE: 2017.11.29
AUTHORS: BGC, Helmholtz Zentrum Muenchen
LICENSE: CC BY
COPYRIGHT: Copyright (C) 2017
COMMENT: CONFIDENCE standard compound
COMMENT: INTERNAL_ID 231
CH$NAME: D(+)-Melezitose
CH$NAME: Melezitose
CH$NAME: (2R,3R,4S,5S,6R)-2-[(2S,3S,4R,5R)-4-hydroxy-2,5-bis(hydroxymethyl)-2-[(2R,3R,4S,5S,6R)-3,4,5-trihydroxy-6-(hydroxymethyl)oxan-2-yl]oxyoxolan-3-yl]oxy-6-(hydroxymethyl)oxane-3,4,5-triol
CH$COMPOUND_CLASS: N/A; Metabolomics Standard
CH$FORMULA: C18H32O16
CH$EXACT_MASS: 504.1690
CH$SMILES: O1[C@H](CO)[C@@H](O)[C@H](O)[C@@H](O)[C@H]1O[C@@]3(O[C@@H]([C@@H](O)[C@@H]3O[C@H]2O[C@H](CO)[C@@H](O)[C@H](O)[C@H]2O)CO)CO
CH$IUPAC: InChI=1S/C18H32O16/c19-1-5-8(23)11(26)13(28)16(30-5)32-15-10(25)7(3-21)33-18(15,4-22)34-17-14(29)12(27)9(24)6(2-20)31-17/h5-17,19-29H,1-4H2/t5-,6-,7-,8-,9-,10-,11+,12+,13-,14-,15+,16-,17-,18+/m1/s1
CH$LINK: CAS 597-12-6
CH$LINK: CHEBI CHEBI:6731
CH$LINK: KEGG C08243
CH$LINK: PUBCHEM CID:92817
CH$LINK: INCHIKEY QWIZNVHXZXRPDR-WSCXOGSTSA-N
CH$LINK: CHEMSPIDER 83787
CH$LINK: COMPTOX DTXSID20883458
AC$INSTRUMENT: maXis plus UHR-ToF-MS, Bruker Daltonics
AC$INSTRUMENT_TYPE: LC-ESI-QTOF
AC$MASS_SPECTROMETRY: MS_TYPE MS2
AC$MASS_SPECTROMETRY: ION_MODE NEGATIVE
AC$MASS_SPECTROMETRY: IONIZATION ESI
AC$MASS_SPECTROMETRY: FRAGMENTATION_MODE CID
AC$MASS_SPECTROMETRY: COLLISION_ENERGY 10
AC$CHROMATOGRAPHY: COLUMN_NAME BEH C18 1.7um, 2.1x100mm, Waters
AC$CHROMATOGRAPHY: FLOW_GRADIENT 95/5 at 0 min, 95/5 at 1.12 min, 0.5/99.5 at 6.41 min, 0.5/99.5 at 10.01 min
AC$CHROMATOGRAPHY: FLOW_RATE 400 uL/min
AC$CHROMATOGRAPHY: RETENTION_TIME 0.603 min
AC$CHROMATOGRAPHY: SOLVENT A Water with 0.1% formic acid
AC$CHROMATOGRAPHY: SOLVENT B ACN with 0.1% formic acid
MS$FOCUSED_ION: BASE_PEAK 549.1677
MS$FOCUSED_ION: PRECURSOR_M/Z 503.1618
MS$FOCUSED_ION: PRECURSOR_TYPE [M-H]-
MS$DATA_PROCESSING: REANALYZE Peaks with additional N2/O included
MS$DATA_PROCESSING: WHOLE RMassBank 2.4.0
PK$SPLASH: splash10-0udi-0000190000-bbca7ddd9d4fcf5a76d4
PK$NUM_PEAK: 2
PK$PEAK: m/z int. rel.int.
  411.9417 28 199
  503.1627 140 999
//
