ACCESSION: MSBNK-BGC_Munich-RP030802
RECORD_TITLE: N6-Threonylcarbamoyladenosine; LC-ESI-QTOF; MS2; CE: 20; R=; [M+H]+
DATE: 2017.10.27
AUTHORS: BGC, Helmholtz Zentrum Muenchen
LICENSE: CC BY
COPYRIGHT: Copyright (C) 2017
COMMENT: CONFIDENCE standard compound
COMMENT: INTERNAL_ID 308
CH$NAME: N6-Threonylcarbamoyladenosine
CH$NAME: t(6)a
CH$NAME: (2S,3R)-2-[[9-[(2R,3R,4S,5R)-3,4-dihydroxy-5-(hydroxymethyl)oxolan-2-yl]purin-6-yl]carbamoylamino]-3-hydroxybutanoic acid
CH$COMPOUND_CLASS: N/A; Metabolomics Standard
CH$FORMULA: C15H20N6O8
CH$EXACT_MASS: 412.1343
CH$SMILES: C[C@H]([C@@H](C(=O)O)NC(=O)Nc1c2c(ncn1)n(cn2)[C@H]3[C@@H]([C@@H]([C@H](O3)CO)O)O)O
CH$IUPAC: InChI=1S/C15H20N6O8/c1-5(23)7(14(26)27)19-15(28)20-11-8-12(17-3-16-11)21(4-18-8)13-10(25)9(24)6(2-22)29-13/h3-7,9-10,13,22-25H,2H2,1H3,(H,26,27)(H2,16,17,19,20,28)/t5-,6-,7+,9-,10-,13-/m1/s1
CH$LINK: CAS 28874-45-5
CH$LINK: CHEBI CHEBI:21440
CH$LINK: PUBCHEM CID:161466
CH$LINK: INCHIKEY UNUYMBPXEFMLNW-DWVDDHQFSA-N
CH$LINK: CHEMSPIDER 141829
CH$LINK: COMPTOX DTXSID70947655
AC$INSTRUMENT: maXis plus UHR-ToF-MS, Bruker Daltonics
AC$INSTRUMENT_TYPE: LC-ESI-QTOF
AC$MASS_SPECTROMETRY: MS_TYPE MS2
AC$MASS_SPECTROMETRY: ION_MODE POSITIVE
AC$MASS_SPECTROMETRY: IONIZATION ESI
AC$MASS_SPECTROMETRY: FRAGMENTATION_MODE CID
AC$MASS_SPECTROMETRY: COLLISION_ENERGY 20
AC$CHROMATOGRAPHY: COLUMN_NAME BEH C18 1.7um, 2.1x100mm, Waters
AC$CHROMATOGRAPHY: FLOW_GRADIENT 95/5 at 0 min, 95/5 at 1.12 min, 0.5/99.5 at 6.41 min, 0.5/99.5 at 10.01 min
AC$CHROMATOGRAPHY: FLOW_RATE 400 uL/min
AC$CHROMATOGRAPHY: RETENTION_TIME 2.441 min
AC$CHROMATOGRAPHY: SOLVENT A Water with 0.1% formic acid
AC$CHROMATOGRAPHY: SOLVENT B ACN with 0.1% formic acid
MS$FOCUSED_ION: BASE_PEAK 413.1411
MS$FOCUSED_ION: PRECURSOR_M/Z 413.1415
MS$FOCUSED_ION: PRECURSOR_TYPE [M+H]+
MS$DATA_PROCESSING: REANALYZE Peaks with additional N2/O included
MS$DATA_PROCESSING: WHOLE RMassBank 2.4.0
PK$SPLASH: splash10-001i-0190000000-432a15f29f5de93f416c
PK$NUM_PEAK: 13
PK$PEAK: m/z int. rel.int.
  74.0596 1002 2
  120.0655 12088 34
  136.0617 10536 30
  162.0404 51752 147
  163.0437 1474 4
  263.0907 432 1
  268.1037 11892 33
  269.1073 1040 2
  281.0987 350192 999
  282.1017 50306 143
  283.1036 3036 8
  294.0827 2342 6
  413.1406 3748 10
//
