ACCESSION: MSBNK-BGC_Munich-RP020803
RECORD_TITLE: 3-oxo-C6-homoserine lactone; LC-ESI-QTOF; MS2; CE: 40; R=; [M+H]+
DATE: 2017.10.25
AUTHORS: BGC, Helmholtz Zentrum Muenchen
LICENSE: CC BY
COPYRIGHT: Copyright (C) 2017
COMMENT: CONFIDENCE standard compound
COMMENT: INTERNAL_ID 208
CH$NAME: 3-oxo-C6-homoserine lactone
CH$NAME: Autoinducer 1
CH$NAME: 3-oxo-N-(2-oxooxolan-3-yl)hexanamide
CH$COMPOUND_CLASS: N/A; Metabolomics Standard
CH$FORMULA: C10H15NO4
CH$EXACT_MASS: 213.10011
CH$SMILES: CCCC(=O)CC(=O)NC1CCOC1=O
CH$IUPAC: InChI=1S/C10H15NO4/c1-2-3-7(12)6-9(13)11-8-4-5-15-10(8)14/h8H,2-6H2,1H3,(H,11,13)
CH$LINK: CAS 81244-91-9
CH$LINK: CHEBI CHEBI:29640
CH$LINK: KEGG C11839
CH$LINK: LIPIDMAPS LMFA08030003
CH$LINK: PUBCHEM CID:119133
CH$LINK: INCHIKEY YRYOXRMDHALAFL-UHFFFAOYSA-N
CH$LINK: CHEMSPIDER 106440
CH$LINK: COMPTOX DTXSID20998213
AC$INSTRUMENT: maXis plus UHR-ToF-MS, Bruker Daltonics
AC$INSTRUMENT_TYPE: LC-ESI-QTOF
AC$MASS_SPECTROMETRY: MS_TYPE MS2
AC$MASS_SPECTROMETRY: ION_MODE POSITIVE
AC$MASS_SPECTROMETRY: IONIZATION ESI
AC$MASS_SPECTROMETRY: FRAGMENTATION_MODE CID
AC$MASS_SPECTROMETRY: COLLISION_ENERGY 40
AC$CHROMATOGRAPHY: COLUMN_NAME BEH C18 1.7um, 2.1x100mm, Waters
AC$CHROMATOGRAPHY: FLOW_GRADIENT 95/5 at 0 min, 95/5 at 1.12 min, 0.5/99.5 at 6.41 min, 0.5/99.5 at 10.01 min
AC$CHROMATOGRAPHY: FLOW_RATE 400 uL/min
AC$CHROMATOGRAPHY: RETENTION_TIME 2.750 min
AC$CHROMATOGRAPHY: SOLVENT A Water with 0.1% formic acid
AC$CHROMATOGRAPHY: SOLVENT B ACN with 0.1% formic acid
MS$FOCUSED_ION: BASE_PEAK 214.1072
MS$FOCUSED_ION: PRECURSOR_M/Z 214.1074
MS$FOCUSED_ION: PRECURSOR_TYPE [M+H]+
MS$DATA_PROCESSING: REANALYZE Peaks with additional N2/O included
MS$DATA_PROCESSING: WHOLE RMassBank 2.4.0
PK$SPLASH: splash10-00di-9000000000-6382f284fe3fd8836c88
PK$NUM_PEAK: 22
PK$PEAK: m/z int. rel.int.
  57.0318 324 16
  66.0919 112 5
  68.0574 124 6
  68.1193 60 2
  69.0334 298 14
  70.0282 412 20
  71.0121 2942 147
  71.0483 18296 914
  73.0164 104 5
  73.0523 100 4
  74.023 19990 999
  74.0594 15646 781
  75.0806 42 2
  84.0437 4552 227
  85.028 1142 57
  86.0476 94 4
  95.0471 72 3
  97.0251 48 2
  98.0595 282 14
  102.0546 3474 173
  113.0598 876 43
  114.0632 216 10
//
