ACCESSION: MSBNK-BGC_Munich-RP005903
RECORD_TITLE: Taurocholic acid; LC-ESI-QTOF; MS2; CE: 40; R=; [M+H]+
DATE: 2017.10.21
AUTHORS: BGC, Helmholtz Zentrum Muenchen
LICENSE: CC BY
COPYRIGHT: Copyright (C) 2017
COMMENT: CONFIDENCE standard compound
COMMENT: INTERNAL_ID 59
CH$NAME: Taurocholic acid
CH$NAME: 2-[[(4R)-4-[(3R,5S,7R,8R,9S,10S,12S,13R,14S,17R)-3,7,12-trihydroxy-10,13-dimethyl-2,3,4,5,6,7,8,9,11,12,14,15,16,17-tetradecahydro-1H-cyclopenta[a]phenanthren-17-yl]pentanoyl]amino]ethanesulfonic acid
CH$COMPOUND_CLASS: N/A; Metabolomics Standard
CH$FORMULA: C26H45NO7S
CH$EXACT_MASS: 515.2917
CH$SMILES: C[C@H](CC/C(=N/CCS(=O)(=O)O)/O)[C@H]1CC[C@@H]2[C@@]1([C@H](C[C@H]3[C@H]2[C@@H](C[C@H]4[C@@]3(CC[C@H](C4)O)C)O)O)C
CH$IUPAC: InChI=1S/C26H45NO7S/c1-15(4-7-23(31)27-10-11-35(32,33)34)18-5-6-19-24-20(14-22(30)26(18,19)3)25(2)9-8-17(28)12-16(25)13-21(24)29/h15-22,24,28-30H,4-14H2,1-3H3,(H,27,31)(H,32,33,34)/t15-,16+,17-,18-,19+,20+,21-,22+,24+,25+,26-/m1/s1
CH$LINK: CAS 81-24-3
CH$LINK: CHEBI CHEBI:28865
CH$LINK: LIPIDMAPS LMST05040001
CH$LINK: PUBCHEM CID:6675
CH$LINK: INCHIKEY WBWWGRHZICKQGZ-HZAMXZRMSA-N
CH$LINK: CHEMSPIDER 6423
CH$LINK: COMPTOX DTXSID00883259
AC$INSTRUMENT: maXis plus UHR-ToF-MS, Bruker Daltonics
AC$INSTRUMENT_TYPE: LC-ESI-QTOF
AC$MASS_SPECTROMETRY: MS_TYPE MS2
AC$MASS_SPECTROMETRY: ION_MODE POSITIVE
AC$MASS_SPECTROMETRY: IONIZATION ESI
AC$MASS_SPECTROMETRY: FRAGMENTATION_MODE CID
AC$MASS_SPECTROMETRY: COLLISION_ENERGY 40
AC$CHROMATOGRAPHY: COLUMN_NAME BEH C18 1.7um, 2.1x100mm, Waters
AC$CHROMATOGRAPHY: FLOW_GRADIENT 95/5 at 0 min, 95/5 at 1.12 min, 0.5/99.5 at 6.41 min, 0.5/99.5 at 10.01 min
AC$CHROMATOGRAPHY: FLOW_RATE 400 uL/min
AC$CHROMATOGRAPHY: RETENTION_TIME 3.915 min
AC$CHROMATOGRAPHY: SOLVENT A Water with 0.1% formic acid
AC$CHROMATOGRAPHY: SOLVENT B ACN with 0.1% formic acid
MS$FOCUSED_ION: BASE_PEAK 516.2982
MS$FOCUSED_ION: PRECURSOR_M/Z 516.299
MS$FOCUSED_ION: PRECURSOR_TYPE [M+H]+
MS$DATA_PROCESSING: REANALYZE Peaks with additional N2/O included
MS$DATA_PROCESSING: WHOLE RMassBank 2.4.0
PK$SPLASH: splash10-01p9-0596200000-c977d47ffb92bc4dc5fb
PK$NUM_PEAK: 1001
PK$PEAK: m/z int. rel.int.
  49.0651 62 2
  49.2766 100 4
  49.9822 58 2
  55.193 42 1
  57.0365 50 2
  58.1933 48 2
  60.0081 46 1
  61.0763 112 4
  62.0346 44 1
  63.174 108 4
  64.015 68 2
  65.0139 50 2
  65.0426 64 2
  66.1025 70 2
  66.1309 68 2
  67.0538 506 21
  69.0321 56 2
  69.0694 270 11
  69.2455 42 1
  70.2534 58 2
  71.147 46 1
  75.0081 48 2
  76.2038 76 3
  77.0841 38 1
  77.1201 38 1
  77.9881 36 1
  78.0098 94 4
  78.0669 54 2
  78.108 78 3
  79.0536 366 15
  79.1195 40 1
  79.246 46 1
  79.263 40 1
  80.0364 40 1
  80.1426 60 2
  80.2492 66 2
  82.0143 68 2
  82.0992 58 2
  83.0368 56 2
  83.0474 176 7
  83.0693 42 1
  83.0854 404 17
  84.0833 92 3
  84.1953 46 1
  85.0641 1094 46
  85.1825 58 2
  85.9934 72 3
  86.1751 40 1
  87.0474 66 2
  88.2637 98 4
  89.0168 114 4
  89.1541 60 2
  90.0711 38 1
  91.0544 156 6
  91.2994 54 2
  91.3453 66 2
  92.1779 36 1
  93.0302 80 3
  93.0694 670 28
  93.0993 40 1
  93.1155 58 2
  94.1714 40 1
  95.0852 644 27
  96.0941 36 1
  96.1881 56 2
  96.268 40 1
  97.065 116 4
  97.9911 38 1
  98.1 94 4
  99.0801 48 2
  99.195 52 2
  100.0258 60 2
  100.1022 48 2
  101.1407 54 2
  101.1942 36 1
  102.1443 42 1
  102.2054 40 1
  103.1484 48 2
  104.2354 42 1
  105.0696 494 21
  105.0818 54 2
  105.0992 46 1
  105.1189 48 2
  105.2431 38 1
  106.2169 72 3
  106.3322 64 2
  107.0847 1134 48
  107.1464 72 3
  107.9863 40 1
  108.0155 174 7
  108.0899 176 7
  108.1362 42 1
  109.0064 52 2
  109.0529 56 2
  109.0667 152 6
  109.1011 592 25
  109.1326 76 3
  109.2917 54 2
  109.3317 70 2
  109.9699 58 2
  110.0091 64 2
  110.0963 42 1
  111.0344 36 1
  111.0794 104 4
  111.2955 92 3
  111.9897 130 5
  112.2637 66 2
  113.2269 56 2
  113.9787 64 2
  113.9991 56 2
  114.1015 52 2
  115.0758 48 2
  116.0608 92 3
  116.2595 78 3
  116.2737 36 1
  117.1925 62 2
  118.0707 152 6
  118.9678 36 1
  119.0479 48 2
  119.0852 412 17
  120.0156 80 3
  120.1121 48 2
  120.1376 70 2
  120.1927 68 2
  120.2348 58 2
  121.0201 74 3
  121.0664 52 2
  121.1 286 12
  121.9902 54 2
  121.9961 66 2
  122.0452 60 2
  122.0727 60 2
  122.1049 92 3
  122.9769 84 3
  123.0826 136 5
  123.118 102 4
  123.2774 44 1
  123.9841 44 1
  124.0122 52 2
  124.024 40 1
  124.0808 44 1
  124.9967 46 1
  125.0945 190 8
  125.161 52 2
  125.2834 40 1
  126.0217 3712 158
  127.0058 74 3
  127.0179 60 2
  127.027 100 4
  127.0543 42 1
  128.0191 134 5
  128.0954 90 3
  128.1083 50 2
  128.1488 42 1
  129.0213 50 2
  129.07 104 4
  129.9805 38 1
  130.1923 36 1
  130.3151 38 1
  130.346 54 2
  131.0661 40 1
  131.2258 36 1
  131.2502 48 2
  131.9873 108 4
  132.2558 52 2
  132.2875 36 1
  132.9754 36 1
  133.0997 164 6
  133.1318 46 1
  133.1599 78 3
  133.2985 42 1
  133.995 44 1
  134.0116 112 4
  134.0464 40 1
  134.0917 150 6
  134.1689 42 1
  134.1781 52 2
  134.2687 38 1
  135.0103 48 2
  135.0461 48 2
  135.0573 36 1
  135.0802 94 4
  135.1115 180 7
  135.1778 58 2
  135.2962 96 4
  135.999 52 2
  136.1271 76 3
  136.2105 108 4
  136.3153 54 2
  137.0081 48 2
  137.0909 38 1
  137.11 54 2
  137.1199 92 3
  137.1561 38 1
  137.174 40 1
  137.2465 62 2
  138.0533 54 2
  138.07 62 2
  138.0832 70 2
  138.1298 36 1
  138.1495 62 2
  138.1594 142 6
  138.1709 44 1
  138.297 44 1
  139.0353 100 4
  139.0754 44 1
  139.2175 50 2
  140.119 36 1
  140.2557 38 1
  141.0693 44 1
  141.0871 64 2
  141.1206 38 1
  141.2115 56 2
  141.2828 36 1
  141.299 86 3
  142.0416 42 1
  142.1796 94 4
  142.2771 38 1
  142.9957 44 1
  143.086 194 8
  143.1351 60 2
  143.2027 44 1
  143.2307 90 3
  143.2469 56 2
  143.2625 126 5
  143.3542 58 2
  144.1929 68 2
  144.2173 102 4
  145.0383 60 2
  145.0613 38 1
  145.1011 360 15
  145.1296 50 2
  145.1668 38 1
  146.015 44 1
  146.1029 56 2
  146.1503 46 1
  146.3396 62 2
  147.0033 36 1
  147.1154 496 21
  147.2668 58 2
  147.2946 42 1
  147.9886 60 2
  148.1212 82 3
  148.1461 42 1
  148.1679 46 1
  149.0961 124 5
  149.1302 216 9
  149.1818 112 4
  149.2928 74 3
  149.3131 38 1
  149.3213 58 2
  150.0174 84 3
  150.0982 70 2
  150.1347 50 2
  150.1492 36 1
  151.0118 40 1
  151.0407 46 1
  151.0541 42 1
  151.1112 98 4
  151.1535 50 2
  151.208 64 2
  152.1061 46 1
  152.2961 36 1
  152.9943 44 1
  153.0205 80 3
  153.0819 66 2
  153.1611 36 1
  153.1797 42 1
  153.2519 48 2
  153.2824 50 2
  154.1058 46 1
  154.971 50 2
  155.0308 44 1
  155.0846 68 2
  155.1147 38 1
  155.1685 38 1
  155.2861 56 2
  156.0395 36 1
  156.0661 56 2
  156.0919 104 4
  156.1078 54 2
  156.1385 40 1
  156.34 36 1
  156.9678 66 2
  156.9999 66 2
  157.0137 52 2
  157.0485 90 3
  157.0997 976 41
  157.1438 104 4
  157.9791 42 1
  157.9948 38 1
  158.05 44 1
  158.1058 88 3
  158.2357 56 2
  158.3381 36 1
  158.981 118 5
  159.1162 1874 79
  159.1403 126 5
  159.9937 100 4
  160.0109 90 3
  160.027 42 1
  160.1196 192 8
  160.1658 36 1
  160.1906 92 3
  160.2318 46 1
  160.2664 42 1
  161.0964 52 2
  161.1162 38 1
  161.1319 338 14
  161.1746 130 5
  161.2301 46 1
  161.2837 42 1
  161.3256 50 2
  162.1452 40 1
  162.1854 50 2
  162.2314 44 1
  163.1118 142 6
  163.1974 54 2
  163.2665 40 1
  163.3005 66 2
  163.9969 36 1
  164.0193 46 1
  164.0376 208 8
  164.3121 60 2
  164.9793 48 2
  165.042 80 3
  165.1382 36 1
  166.0028 36 1
  166.029 50 2
  167.0859 58 2
  167.1341 92 3
  167.1916 40 1
  167.2227 70 2
  167.9873 116 4
  168.0518 68 2
  168.066 70 2
  168.0866 94 4
  168.2754 38 1
  168.3483 68 2
  169.0316 46 1
  169.1027 360 15
  169.1492 36 1
  170.0621 60 2
  170.0839 38 1
  170.1029 60 2
  170.133 86 3
  171.0661 68 2
  171.0825 60 2
  171.1167 810 34
  171.1684 124 5
  171.2227 54 2
  172.0261 88 3
  172.1207 50 2
  172.3131 66 2
  173.0048 68 2
  173.0641 114 4
  173.0768 40 1
  173.0927 44 1
  173.1329 514 21
  173.2886 104 4
  173.9497 48 2
  174.1014 42 1
  174.942 62 2
  175.0425 46 1
  175.097 44 1
  175.1107 334 14
  175.1473 664 28
  175.2548 60 2
  175.2674 40 1
  175.2757 50 2
  175.3343 48 2
  175.9768 68 2
  176.0139 50 2
  176.1175 60 2
  176.1481 70 2
  176.1695 46 1
  176.2023 52 2
  176.9721 44 1
  177.0223 40 1
  177.1126 40 1
  177.1266 300 12
  177.1629 74 3
  177.9912 66 2
  178.1776 98 4
  178.1959 38 1
  179.0845 40 1
  179.3032 38 1
  180.0169 38 1
  180.0355 218 9
  180.2284 36 1
  180.2908 76 3
  181.1013 122 5
  181.1772 36 1
  181.272 64 2
  181.3006 60 2
  182.0127 50 2
  182.0672 78 3
  182.2434 40 1
  182.2859 78 3
  183.0663 58 2
  183.0978 66 2
  183.1161 1092 46
  183.1521 80 3
  183.9563 50 2
  184.0073 88 3
  184.125 84 3
  184.1491 40 1
  184.2227 44 1
  184.2707 64 2
  184.3198 60 2
  185.0976 394 16
  185.1319 1334 56
  185.9728 42 1
  185.9871 36 1
  186.0968 62 2
  186.1342 220 9
  186.1819 92 3
  187.013 36 1
  187.0335 108 4
  187.1117 244 10
  187.1465 644 27
  187.2062 86 3
  188.1145 68 2
  188.1532 52 2
  188.3308 46 1
  189.1281 354 15
  189.163 374 15
  189.2708 96 4
  189.9597 76 3
  190.0104 46 1
  190.1379 50 2
  190.1934 36 1
  191.1423 88 3
  191.2025 36 1
  191.2207 106 4
  191.9358 54 2
  191.9802 44 1
  192.0249 78 3
  192.1015 42 1
  192.1603 76 3
  192.1979 48 2
  192.245 46 1
  192.3104 60 2
  192.9857 58 2
  193.1215 56 2
  193.221 54 2
  193.2875 44 1
  193.3032 44 1
  194.0238 68 2
  194.0472 120 5
  194.1113 50 2
  194.1369 98 4
  195.0232 54 2
  195.0898 66 2
  195.1166 420 17
  195.1942 54 2
  195.2998 52 2
  196.0735 42 1
  196.1193 70 2
  196.1465 38 1
  196.2111 50 2
  196.2192 64 2
  197.1324 588 25
  197.1938 56 2
  198.0465 82 3
  198.1333 52 2
  198.1463 54 2
  198.2013 42 1
  198.3265 120 5
  199.1476 3352 142
  199.9488 76 3
  199.9813 50 2
  200.1499 614 26
  200.9773 48 2
  201.04 60 2
  201.0993 116 4
  201.1262 72 3
  201.1638 592 25
  201.2195 46 1
  201.9383 56 2
  201.9815 38 1
  202.001 42 1
  202.0464 78 3
  202.1024 64 2
  202.1333 74 3
  202.1686 106 4
  202.2805 54 2
  202.3304 42 1
  203.0617 48 2
  203.118 68 2
  203.1431 184 7
  203.1771 186 7
  203.314 52 2
  203.963 48 2
  204.1454 90 3
  204.2354 50 2
  204.2574 90 3
  205.1549 78 3
  205.2447 36 1
  206.0493 86 3
  206.2142 58 2
  206.3169 68 2
  207.0904 74 3
  207.12 108 4
  207.1647 82 3
  207.1898 38 1
  207.2415 40 1
  208.0633 5492 234
  209.1322 6210 264
  210.0685 188 8
  210.0883 92 3
  210.1358 1394 59
  210.1975 112 4
  211.1473 1396 59
  211.2717 70 2
  212.0426 56 2
  212.1499 154 6
  212.2636 94 4
  212.3051 92 3
  212.3428 38 1
  213.163 4398 187
  214.0455 46 1
  214.1086 60 2
  214.168 614 26
  215.039 96 4
  215.09 52 2
  215.1427 274 11
  215.1601 42 1
  215.1792 474 20
  215.2064 62 2
  215.3142 36 1
  215.9486 36 1
  215.9704 36 1
  216.0635 116 4
  216.1447 86 3
  216.1817 116 4
  216.2277 52 2
  217.1566 100 4
  218.1601 76 3
  218.2639 38 1
  218.3254 42 1
  219.1444 36 1
  220.0071 44 1
  220.1054 46 1
  220.1597 112 4
  221.017 46 1
  221.1308 110 4
  221.2595 46 1
  222.0121 64 2
  222.0792 234 9
  222.1075 62 2
  222.2223 50 2
  222.2611 40 1
  222.9709 52 2
  222.9914 72 3
  223.0154 60 2
  223.0689 44 1
  223.0853 48 2
  223.147 844 35
  223.2691 74 3
  224.0675 36 1
  224.1498 134 5
  224.1712 60 2
  225.1264 94 4
  225.1639 1332 56
  226.1048 38 1
  226.1663 334 14
  226.228 36 1
  227.1427 8540 363
  227.1788 3108 132
  228.0717 126 5
  228.0932 66 2
  228.147 1294 55
  228.1818 630 26
  229.1584 1400 59
  229.1904 146 6
  230.1279 48 2
  230.1386 46 1
  230.1603 186 7
  231.0072 106 4
  231.1735 244 10
  232.0898 56 2
  232.1509 40 1
  232.1797 56 2
  232.962 40 1
  233.2532 38 1
  233.9352 86 3
  234.0491 44 1
  234.0807 336 14
  234.1343 84 3
  234.2536 62 2
  234.9994 84 3
  235.0813 72 3
  235.1467 228 9
  235.3435 52 2
  236.0041 108 4
  236.0983 82 3
  236.1266 36 1
  236.2625 64 2
  237.1123 70 2
  237.164 928 39
  238.154 54 2
  238.1664 134 5
  238.3326 58 2
  238.9702 44 1
  239.1336 36 1
  239.1788 566 24
  240.1773 100 4
  240.2017 40 1
  240.2864 36 1
  241.0176 104 4
  241.1601 1300 55
  241.1951 1766 75
  241.9479 36 1
  242.0514 70 2
  242.0644 40 1
  242.1609 192 8
  242.1985 486 20
  242.2503 64 2
  243.1407 64 2
  243.1744 786 33
  243.9604 38 1
  244.1758 210 8
  245.1479 38 1
  245.1892 122 5
  246.0805 126 5
  246.1919 64 2
  246.2634 56 2
  247.2502 44 1
  247.3277 38 1
  248.0958 856 36
  248.22 136 5
  248.2849 66 2
  248.9888 38 1
  249.0268 40 1
  249.0976 104 4
  249.1617 226 9
  249.2561 38 1
  250.1122 218 9
  250.1698 94 4
  250.2677 46 1
  251.1777 358 15
  252.083 60 2
  252.1799 94 4
  252.2699 38 1
  252.2891 38 1
  253.1597 138 5
  253.1941 480 20
  253.2934 70 2
  254.1006 42 1
  254.1997 60 2
  255.1732 766 32
  255.2091 160 6
  255.2708 104 4
  256.1768 140 5
  256.1972 38 1
  256.2175 74 3
  257.0165 44 1
  257.074 42 1
  257.1892 114 4
  257.2153 60 2
  258.1131 68 2
  259.1149 38 1
  259.164 46 1
  259.9369 46 1
  260.0137 68 2
  260.0945 320 13
  260.1674 36 1
  261.0968 42 1
  261.1395 54 2
  261.1613 72 3
  261.2165 60 2
  261.9864 52 2
  262.0516 40 1
  262.1118 440 18
  262.2129 58 2
  262.267 38 1
  263.117 154 6
  263.1802 566 24
  263.3547 74 3
  264.1782 122 5
  264.2867 44 1
  265.1163 54 2
  265.1934 190 8
  266.0199 52 2
  266.1487 36 1
  267.0285 44 1
  267.176 140 5
  267.1981 66 2
  267.2118 92 3
  267.2334 56 2
  268.1755 56 2
  268.2123 64 2
  268.2249 68 2
  268.2571 60 2
  268.9507 48 2
  269.1879 106 4
  270.9526 40 1
  271.0904 54 2
  271.1666 60 2
  271.2021 54 2
  271.2779 76 3
  271.291 54 2
  272.3289 40 1
  273.0224 62 2
  273.3362 76 3
  273.9445 38 1
  273.9897 80 3
  274.0204 40 1
  274.1119 552 23
  275.1092 72 3
  276.1012 98 4
  276.1311 110 4
  277.1283 44 1
  277.1951 588 25
  278.0214 66 2
  278.1985 132 5
  278.9632 50 2
  279.1435 44 1
  279.18 38 1
  279.2094 318 13
  279.239 62 2
  279.9474 42 1
  280.1308 66 2
  280.2152 118 5
  281.04 40 1
  281.0658 50 2
  281.1888 470 20
  281.2266 270 11
  282.0134 62 2
  282.1111 76 3
  282.196 70 2
  282.2302 90 3
  283.0683 74 3
  283.1858 42 1
  283.208 168 7
  283.2448 62 2
  284.0194 84 3
  284.0307 46 1
  284.1572 64 2
  284.2172 68 2
  284.245 62 2
  284.2792 54 2
  285.1028 42 1
  285.2546 60 2
  286.1057 162 6
  286.2931 54 2
  286.3441 38 1
  287.2052 46 1
  287.2334 64 2
  287.9766 44 1
  288.1281 220 9
  289.1299 116 4
  290.0967 36 1
  290.1247 50 2
  290.1986 44 1
  290.3051 70 2
  290.9629 50 2
  291.2098 210 8
  292.0243 50 2
  292.0612 54 2
  292.133 80 3
  292.2146 74 3
  292.3393 38 1
  292.9496 46 1
  293.0496 50 2
  293.1014 74 3
  293.1271 46 1
  293.2262 902 38
  293.2686 50 2
  293.3119 82 3
  293.3402 48 2
  294.0067 40 1
  294.0728 128 5
  294.2297 194 8
  295.2051 1094 46
  295.2415 1928 82
  295.9526 54 2
  296.0082 88 3
  296.0866 38 1
  296.2095 210 8
  296.246 410 17
  296.3427 64 2
  297.0759 46 1
  297.2459 64 2
  299.1378 64 2
  300.006 36 1
  300.0193 36 1
  300.1252 442 18
  300.1476 76 3
  300.9917 36 1
  301.1288 80 3
  302.0201 36 1
  302.1401 128 5
  302.2228 74 3
  302.3418 70 2
  303.1288 60 2
  303.1472 98 4
  304.3566 54 2
  305.0687 38 1
  305.0817 38 1
  305.2036 52 2
  305.9576 52 2
  307.0504 42 1
  307.2421 48 2
  307.3119 58 2
  308.2194 36 1
  308.3259 40 1
  308.9616 76 3
  309.0141 66 2
  309.1217 96 4
  309.2241 106 4
  309.2558 1314 55
  309.9634 44 1
  309.9874 40 1
  310.078 54 2
  310.136 56 2
  310.1919 50 2
  310.2398 54 2
  310.2605 306 13
  311.1125 36 1
  311.2502 40 1
  311.9867 40 1
  312.159 44 1
  312.206 52 2
  312.2206 36 1
  312.2939 40 1
  313.3208 56 2
  314.0029 54 2
  314.1222 38 1
  314.1459 240 10
  314.2299 60 2
  315.1857 40 1
  316.1391 68 2
  316.1556 198 8
  316.2914 52 2
  317.022 56 2
  317.3511 80 3
  318.1679 62 2
  319.242 12946 551
  320.2455 3004 127
  320.9907 52 2
  321.1484 76 3
  321.2501 452 19
  321.3397 62 2
  321.964 38 1
  322.0921 50 2
  323.1293 52 2
  323.2077 50 2
  324.0115 96 4
  324.1232 40 1
  326.1376 36 1
  326.3545 42 1
  327.1369 40 1
  327.269 42 1
  327.2934 44 1
  328.1573 226 9
  328.241 42 1
  328.3032 40 1
  329.1547 110 4
  330.1783 54 2
  330.9773 40 1
  332.2615 82 3
  334.072 42 1
  336.2394 36 1
  336.2504 36 1
  336.3314 64 2
  337.2523 23446 999
  338.256 5456 232
  339.1635 42 1
  339.2426 38 1
  339.2588 350 14
  340.0009 54 2
  340.1139 60 2
  340.1333 58 2
  340.1567 120 5
  340.1901 46 1
  340.2644 56 2
  341.16 70 2
  342.1751 256 10
  344.1879 188 8
  344.9866 100 4
  345.1568 36 1
  345.2705 36 1
  347.0678 76 3
  347.2877 50 2
  349.098 48 2
  351.9778 66 2
  352.1576 558 23
  352.1945 36 1
  353.1581 58 2
  353.2433 38 1
  354.0033 66 2
  354.1472 56 2
  354.1719 452 19
  354.3255 38 1
  355.1773 50 2
  355.2662 332 14
  356.026 66 2
  356.1788 146 6
  356.1908 154 6
  356.2645 126 5
  357.1862 48 2
  358.1992 44 1
  358.2758 48 2
  358.9828 64 2
  361.0054 40 1
  361.1028 52 2
  362.2802 38 1
  365.08 50 2
  366.1743 192 8
  367.0277 38 1
  367.1741 126 5
  368.1872 618 26
  368.2259 42 1
  368.2645 46 1
  369.1294 46 1
  369.1936 62 2
  370.1797 80 3
  370.1905 58 2
  372.9561 36 1
  374.0344 44 1
  377.0356 134 5
  377.2801 46 1
  377.9698 64 2
  380.1914 46 1
  380.207 40 1
  382.0279 58 2
  382.1981 60 2
  383.0667 52 2
  383.209 44 1
  384.2225 54 2
  385.2253 72 3
  387.1936 60 2
  388.1956 50 2
  390.1493 36 1
  392.1946 82 3
  392.2389 94 4
  394.1819 56 2
  394.2072 46 1
  398.3486 40 1
  400.1421 58 2
  400.181 40 1
  404.2209 48 2
  406.2007 86 3
  407.3261 36 1
  407.9392 50 2
  408.2244 212 9
  409.2241 92 3
  410.216 40 1
  410.262 40 1
  417.1971 44 1
  417.2374 60 2
  420.2196 108 4
  423.2229 42 1
  428.1354 64 2
  429.2866 36 1
  431.1444 40 1
  433.2789 64 2
  434.247 66 2
  436.1922 40 1
  436.9868 38 1
  441.9394 36 1
  441.9955 38 1
  443.9574 38 1
  444.2585 230 9
  445.1386 38 1
  445.1871 38 1
  445.2149 38 1
  445.2616 78 3
  446.1042 42 1
  448.9383 46 1
  453.1892 50 2
  457.1861 38 1
  459.0271 40 1
  461.202 46 1
  462.2674 15528 661
  463.2704 3962 168
  463.9981 62 2
  464.16 54 2
  464.2113 124 5
  464.2685 1006 42
  465.1033 66 2
  465.188 62 2
  465.2685 158 6
  466.214 48 2
  466.271 38 1
  466.2979 40 1
  467.0624 40 1
  467.2188 36 1
  472.1892 36 1
  480.2818 132 5
  480.3157 70 2
  480.9799 54 2
  485.0247 54 2
  490.9815 62 2
  498.2782 36 1
  501.9376 38 1
  502.2449 36 1
  519.2658 82 3
  521.1833 38 1
//
