ACCESSION: MSBNK-BGC_Munich-RP017511
RECORD_TITLE: Shikimic acid; LC-ESI-QTOF; MS2; CE: 10; R=; [M-H]-
DATE: 2017.11.29
AUTHORS: BGC, Helmholtz Zentrum Muenchen
LICENSE: CC BY
COPYRIGHT: Copyright (C) 2017
COMMENT: CONFIDENCE standard compound
COMMENT: INTERNAL_ID 175
CH$NAME: Shikimic acid
CH$NAME: (3R,4S,5R)-3,4,5-trihydroxycyclohexene-1-carboxylic acid
CH$COMPOUND_CLASS: N/A; Metabolomics Standard
CH$FORMULA: C7H10O5
CH$EXACT_MASS: 174.0528
CH$SMILES: C1[C@H]([C@@H]([C@@H](C=C1C(=O)O)O)O)O
CH$IUPAC: InChI=1S/C7H10O5/c8-4-1-3(7(11)12)2-5(9)6(4)10/h1,4-6,8-10H,2H2,(H,11,12)/t4-,5-,6-/m1/s1
CH$LINK: CAS 138-59-0
CH$LINK: CHEBI CHEBI:16119
CH$LINK: KEGG C00493
CH$LINK: PUBCHEM CID:8742
CH$LINK: INCHIKEY JXOHGGNKMLTUBP-HSUXUTPPSA-N
CH$LINK: CHEMSPIDER 8412
CH$LINK: COMPTOX DTXSID4032039
AC$INSTRUMENT: maXis plus UHR-ToF-MS, Bruker Daltonics
AC$INSTRUMENT_TYPE: LC-ESI-QTOF
AC$MASS_SPECTROMETRY: MS_TYPE MS2
AC$MASS_SPECTROMETRY: ION_MODE NEGATIVE
AC$MASS_SPECTROMETRY: IONIZATION ESI
AC$MASS_SPECTROMETRY: FRAGMENTATION_MODE CID
AC$MASS_SPECTROMETRY: COLLISION_ENERGY 10
AC$CHROMATOGRAPHY: COLUMN_NAME BEH C18 1.7um, 2.1x100mm, Waters
AC$CHROMATOGRAPHY: FLOW_GRADIENT 95/5 at 0 min, 95/5 at 1.12 min, 0.5/99.5 at 6.41 min, 0.5/99.5 at 10.01 min
AC$CHROMATOGRAPHY: FLOW_RATE 400 uL/min
AC$CHROMATOGRAPHY: RETENTION_TIME 0.656 min
AC$CHROMATOGRAPHY: SOLVENT A Water with 0.1% formic acid
AC$CHROMATOGRAPHY: SOLVENT B ACN with 0.1% formic acid
MS$FOCUSED_ION: BASE_PEAK 173.0462
MS$FOCUSED_ION: PRECURSOR_M/Z 173.0455
MS$FOCUSED_ION: PRECURSOR_TYPE [M-H]-
MS$DATA_PROCESSING: REANALYZE Peaks with additional N2/O included
MS$DATA_PROCESSING: WHOLE RMassBank 2.4.0
PK$SPLASH: splash10-00di-8900000000-92f84ce74e04e86efd5b
PK$NUM_PEAK: 16
PK$PEAK: m/z int. rel.int.
  59.014 38 9
  65.0403 34 8
  71.0135 74 18
  73.0295 1770 434
  81.0346 40 9
  83.0506 106 26
  85.0297 300 73
  93.0349 2100 515
  99.0097 194 47
  101.0249 40 9
  111.0458 400 98
  129.0193 58 14
  143.0355 80 19
  155.0358 484 118
  156.0387 66 16
  173.0458 4070 999
//
