ACCESSION: MSBNK-BGC_Munich-RP026302
RECORD_TITLE: 1-tridecanoyl-2-hydroxy-sn-glycero-3-phosphocholine; LC-ESI-QTOF; MS2; CE: 20; R=; [M+H]+
DATE: 2017.10.27
AUTHORS: BGC, Helmholtz Zentrum Muenchen
LICENSE: CC BY
COPYRIGHT: Copyright (C) 2017
COMMENT: CONFIDENCE standard compound
COMMENT: INTERNAL_ID 263
CH$NAME: 1-tridecanoyl-2-hydroxy-sn-glycero-3-phosphocholine
CH$NAME: 1-tridecanoyl-sn-glycero-3-phosphocholine
CH$NAME: [(2R)-2-hydroxy-3-tridecanoyloxypropyl] 2-(trimethylazaniumyl)ethyl phosphate
CH$COMPOUND_CLASS: N/A; Metabolomics Standard
CH$FORMULA: C21H44NO7P
CH$EXACT_MASS: 453.2855
CH$SMILES: [H][C@@](O)(COC(=O)CCCCCCCCCCCC)COP([O-])(=O)OCC[N+](C)(C)C
CH$IUPAC: InChI=1S/C21H44NO7P/c1-5-6-7-8-9-10-11-12-13-14-15-21(24)27-18-20(23)19-29-30(25,26)28-17-16-22(2,3)4/h20,23H,5-19H2,1-4H3/t20-/m1/s1
CH$LINK: LIPIDMAPS LMGP01050001
CH$LINK: PUBCHEM CID:24779450
CH$LINK: INCHIKEY WNRCJJWBAXNAPE-HXUWFJFHSA-N
CH$LINK: CHEMSPIDER 24686170
AC$INSTRUMENT: maXis plus UHR-ToF-MS, Bruker Daltonics
AC$INSTRUMENT_TYPE: LC-ESI-QTOF
AC$MASS_SPECTROMETRY: MS_TYPE MS2
AC$MASS_SPECTROMETRY: ION_MODE POSITIVE
AC$MASS_SPECTROMETRY: IONIZATION ESI
AC$MASS_SPECTROMETRY: FRAGMENTATION_MODE CID
AC$MASS_SPECTROMETRY: COLLISION_ENERGY 20
AC$CHROMATOGRAPHY: COLUMN_NAME BEH C18 1.7um, 2.1x100mm, Waters
AC$CHROMATOGRAPHY: FLOW_GRADIENT 95/5 at 0 min, 95/5 at 1.12 min, 0.5/99.5 at 6.41 min, 0.5/99.5 at 10.01 min
AC$CHROMATOGRAPHY: FLOW_RATE 400 uL/min
AC$CHROMATOGRAPHY: RETENTION_TIME 5.077 min
AC$CHROMATOGRAPHY: SOLVENT A Water with 0.1% formic acid
AC$CHROMATOGRAPHY: SOLVENT B ACN with 0.1% formic acid
MS$FOCUSED_ION: BASE_PEAK 454.2923
MS$FOCUSED_ION: PRECURSOR_M/Z 454.2928
MS$FOCUSED_ION: PRECURSOR_TYPE [M+H]+
MS$DATA_PROCESSING: REANALYZE Peaks with additional N2/O included
MS$DATA_PROCESSING: WHOLE RMassBank 2.4.0
PK$SPLASH: splash10-0udi-0500900000-ee0f457ac2874a0e4a0f
PK$NUM_PEAK: 13
PK$PEAK: m/z int. rel.int.
  86.0958 6364 13
  104.1065 231744 505
  184.0725 122948 268
  185.0764 3768 8
  186.0774 532 1
  258.1102 1700 3
  271.227 1456 3
  377.208 752 1
  436.2824 66616 145
  437.2854 13822 30
  438.2893 1330 2
  454.2926 458178 999
  456.2991 16554 36
//
