ACCESSION: MSBNK-BGC_Munich-RP006501
RECORD_TITLE: ?-Tauromuricholic acid; LC-ESI-QTOF; MS2; CE: 10; R=; [M+H]+
DATE: 2017.10.21
AUTHORS: BGC, Helmholtz Zentrum Muenchen
LICENSE: CC BY
COPYRIGHT: Copyright (C) 2017
COMMENT: CONFIDENCE standard compound
COMMENT: INTERNAL_ID 65
CH$NAME: ?-Tauromuricholic acid
CH$NAME: 2-[[(4R)-4-[(3R,5R,6S,7S,8S,9S,10R,13R,14S)-3,6,7-trihydroxy-10,13-dimethyl-2,3,4,5,6,7,8,9,11,12,14,15,16,17-tetradecahydro-1H-cyclopenta[a]phenanthren-17-yl]pentanoyl]amino]ethanesulfonic acid
CH$COMPOUND_CLASS: N/A; Metabolomics Standard
CH$FORMULA: C26H45NO7S
CH$EXACT_MASS: 515.2917
CH$SMILES: O=S(=O)(O)CCNC(=O)CC[C@H](C1CC[C@@H]2[C@]1(C)CC[C@H]4[C@H]2[C@H](O)[C@@H](O)[C@@H]3C[C@H](O)CC[C@@]34C)C
CH$IUPAC: InChI=1S/C26H45NO7S/c1-15(4-7-21(29)27-12-13-35(32,33)34)17-5-6-18-22-19(9-11-25(17,18)2)26(3)10-8-16(28)14-20(26)23(30)24(22)31/h15-20,22-24,28,30-31H,4-14H2,1-3H3,(H,27,29)(H,32,33,34)/t15-,16-,17?,18+,19+,20+,22+,23+,24+,25-,26-/m1/s1
CH$LINK: PUBCHEM CID:10436568
CH$LINK: INCHIKEY XSOLDPYUICCHJX-HTWZWKQOSA-N
CH$LINK: CHEMSPIDER 8611992
AC$INSTRUMENT: maXis plus UHR-ToF-MS, Bruker Daltonics
AC$INSTRUMENT_TYPE: LC-ESI-QTOF
AC$MASS_SPECTROMETRY: MS_TYPE MS2
AC$MASS_SPECTROMETRY: ION_MODE POSITIVE
AC$MASS_SPECTROMETRY: IONIZATION ESI
AC$MASS_SPECTROMETRY: FRAGMENTATION_MODE CID
AC$MASS_SPECTROMETRY: COLLISION_ENERGY 10
AC$CHROMATOGRAPHY: COLUMN_NAME BEH C18 1.7um, 2.1x100mm, Waters
AC$CHROMATOGRAPHY: FLOW_GRADIENT 95/5 at 0 min, 95/5 at 1.12 min, 0.5/99.5 at 6.41 min, 0.5/99.5 at 10.01 min
AC$CHROMATOGRAPHY: FLOW_RATE 400 uL/min
AC$CHROMATOGRAPHY: RETENTION_TIME 3.549 min
AC$CHROMATOGRAPHY: SOLVENT A Water with 0.1% formic acid
AC$CHROMATOGRAPHY: SOLVENT B ACN with 0.1% formic acid
MS$FOCUSED_ION: BASE_PEAK 516.2985
MS$FOCUSED_ION: PRECURSOR_M/Z 516.299
MS$FOCUSED_ION: PRECURSOR_TYPE [M+H]+
MS$DATA_PROCESSING: REANALYZE Peaks with additional N2/O included
MS$DATA_PROCESSING: WHOLE RMassBank 2.4.0
PK$SPLASH: splash10-001i-0000920000-d8d5637a7f4eee4a279a
PK$NUM_PEAK: 25
PK$PEAK: m/z int. rel.int.
  337.2517 142 1
  355.2636 200 1
  427.3388 150 1
  462.2676 1902 13
  463.2506 146 1
  463.2719 412 2
  479.1868 144 1
  479.2358 150 1
  479.2472 174 1
  479.2703 288 2
  479.2893 140 1
  479.3184 296 2
  480.2777 138068 999
  481.2807 40900 295
  482.2795 8756 63
  483.2785 1208 8
  498.2881 12262 88
  499.292 3122 22
  500.2906 882 6
  501.296 250 1
  514.2908 142 1
  515.2771 248 1
  516.2988 53140 384
  518.3015 3048 22
  519.3002 522 3
//
