ACCESSION: MSBNK-BGC_Munich-RP018811
RECORD_TITLE: 2-Hydroxyphenanzine-1-Carboxylic acid; LC-ESI-QTOF; MS2; CE: 10; R=; [M-H]-
DATE: 2017.11.29
AUTHORS: BGC, Helmholtz Zentrum Muenchen
LICENSE: CC BY
COPYRIGHT: Copyright (C) 2017
COMMENT: CONFIDENCE standard compound
COMMENT: INTERNAL_ID 188
CH$NAME: 2-Hydroxyphenanzine-1-Carboxylic acid
CH$NAME: 2-Hydroxyphenazine-1-carboxylic acid
CH$NAME: 2-oxo-10H-phenazine-1-carboxylic acid
CH$COMPOUND_CLASS: N/A; Metabolomics Standard
CH$FORMULA: C13H8N2O3
CH$EXACT_MASS: 240.0535
CH$SMILES: C1=CC=C2C(=C1)NC3=C(C(=O)C=CC3=N2)C(=O)O
CH$IUPAC: InChI=1S/C13H8N2O3/c16-10-6-5-9-12(11(10)13(17)18)15-8-4-2-1-3-7(8)14-9/h1-6,15H,(H,17,18)
CH$LINK: CAS 4075-25-6
CH$LINK: PUBCHEM CID:77692
CH$LINK: INCHIKEY GVQIFYBFFGQRGS-UHFFFAOYSA-N
CH$LINK: CHEMSPIDER 70093
CH$LINK: COMPTOX DTXSID00961167
AC$INSTRUMENT: maXis plus UHR-ToF-MS, Bruker Daltonics
AC$INSTRUMENT_TYPE: LC-ESI-QTOF
AC$MASS_SPECTROMETRY: MS_TYPE MS2
AC$MASS_SPECTROMETRY: ION_MODE NEGATIVE
AC$MASS_SPECTROMETRY: IONIZATION ESI
AC$MASS_SPECTROMETRY: FRAGMENTATION_MODE CID
AC$MASS_SPECTROMETRY: COLLISION_ENERGY 10
AC$CHROMATOGRAPHY: COLUMN_NAME BEH C18 1.7um, 2.1x100mm, Waters
AC$CHROMATOGRAPHY: FLOW_GRADIENT 95/5 at 0 min, 95/5 at 1.12 min, 0.5/99.5 at 6.41 min, 0.5/99.5 at 10.01 min
AC$CHROMATOGRAPHY: FLOW_RATE 400 uL/min
AC$CHROMATOGRAPHY: RETENTION_TIME 4.245 min
AC$CHROMATOGRAPHY: SOLVENT A Water with 0.1% formic acid
AC$CHROMATOGRAPHY: SOLVENT B ACN with 0.1% formic acid
MS$FOCUSED_ION: BASE_PEAK 68.9959
MS$FOCUSED_ION: PRECURSOR_M/Z 239.0462
MS$FOCUSED_ION: PRECURSOR_TYPE [M-H]-
MS$DATA_PROCESSING: REANALYZE Peaks with additional N2/O included
MS$DATA_PROCESSING: WHOLE RMassBank 2.4.0
PK$SPLASH: splash10-000i-0290000000-aad246f4e26f15049a2c
PK$NUM_PEAK: 2
PK$PEAK: m/z int. rel.int.
  195.0582 144 250
  239.0478 574 999
//
