ACCESSION: MSBNK-BGC_Munich-RP017101
RECORD_TITLE: Isoquercetin; LC-ESI-QTOF; MS2; CE: 10; R=; [M+H]+
DATE: 2017.10.24
AUTHORS: BGC, Helmholtz Zentrum Muenchen
LICENSE: CC BY
COPYRIGHT: Copyright (C) 2017
COMMENT: CONFIDENCE standard compound
COMMENT: INTERNAL_ID 171
CH$NAME: Isoquercetin
CH$NAME: Isoquercitrin
CH$NAME: 2-(3,4-dihydroxyphenyl)-5,7-dihydroxy-3-[(2S,3R,4S,5S,6R)-3,4,5-trihydroxy-6-(hydroxymethyl)oxan-2-yl]oxychromen-4-one
CH$COMPOUND_CLASS: N/A; Metabolomics Standard
CH$FORMULA: C21H20O12
CH$EXACT_MASS: 464.0955
CH$SMILES: C1=CC(=C(C=C1C2=C(C(=O)C3=C(C=C(C=C3O2)O)O)O[C@H]4[C@@H]([C@H]([C@@H]([C@H](O4)CO)O)O)O)O)O
CH$IUPAC: InChI=1S/C21H20O12/c22-6-13-15(27)17(29)18(30)21(32-13)33-20-16(28)14-11(26)4-8(23)5-12(14)31-19(20)7-1-2-9(24)10(25)3-7/h1-5,13,15,17-18,21-27,29-30H,6H2/t13-,15-,17+,18-,21+/m1/s1
CH$LINK: CAS 482-35-9
CH$LINK: CHEBI CHEBI:68352
CH$LINK: KEGG C05623
CH$LINK: PUBCHEM CID:5280804
CH$LINK: INCHIKEY OVSQVDMCBVZWGM-QSOFNFLRSA-N
CH$LINK: CHEMSPIDER 4444361
AC$INSTRUMENT: maXis plus UHR-ToF-MS, Bruker Daltonics
AC$INSTRUMENT_TYPE: LC-ESI-QTOF
AC$MASS_SPECTROMETRY: MS_TYPE MS2
AC$MASS_SPECTROMETRY: ION_MODE POSITIVE
AC$MASS_SPECTROMETRY: IONIZATION ESI
AC$MASS_SPECTROMETRY: FRAGMENTATION_MODE CID
AC$MASS_SPECTROMETRY: COLLISION_ENERGY 10
AC$CHROMATOGRAPHY: COLUMN_NAME BEH C18 1.7um, 2.1x100mm, Waters
AC$CHROMATOGRAPHY: FLOW_GRADIENT 95/5 at 0 min, 95/5 at 1.12 min, 0.5/99.5 at 6.41 min, 0.5/99.5 at 10.01 min
AC$CHROMATOGRAPHY: FLOW_RATE 400 uL/min
AC$CHROMATOGRAPHY: RETENTION_TIME 3.034 min
AC$CHROMATOGRAPHY: SOLVENT A Water with 0.1% formic acid
AC$CHROMATOGRAPHY: SOLVENT B ACN with 0.1% formic acid
MS$FOCUSED_ION: BASE_PEAK 465.1025
MS$FOCUSED_ION: PRECURSOR_M/Z 465.1028
MS$FOCUSED_ION: PRECURSOR_TYPE [M+H]+
MS$DATA_PROCESSING: REANALYZE Peaks with additional N2/O included
MS$DATA_PROCESSING: WHOLE RMassBank 2.4.0
PK$SPLASH: splash10-0udi-0009300000-3b7e8786832b420dd3c1
PK$NUM_PEAK: 10
PK$PEAK: m/z int. rel.int.
  261.0915 176 1
  268.0631 252 1
  291.9864 188 1
  301.034 4598 27
  302.0393 420 2
  303.0495 169034 999
  304.053 29328 173
  305.0544 3160 18
  465.1028 71244 421
  467.1081 2498 14
//
