ACCESSION: MSBNK-BGC_Munich-RP021811
RECORD_TITLE: 3-hydroxy-C14 homoserine lactone; LC-ESI-QTOF; MS2; CE: 10; R=; [M-H]-
DATE: 2017.11.29
AUTHORS: BGC, Helmholtz Zentrum Muenchen
LICENSE: CC BY
COPYRIGHT: Copyright (C) 2017
COMMENT: CONFIDENCE standard compound
COMMENT: INTERNAL_ID 218
CH$NAME: 3-hydroxy-C14 homoserine lactone
CH$NAME: N-(3-Hydroxytetradecanoyl)-DL-homoserine lactone
CH$NAME: 3-hydroxy-N-(2-oxooxolan-3-yl)tetradecanamide
CH$COMPOUND_CLASS: N/A; Metabolomics Standard
CH$FORMULA: C18H33NO4
CH$EXACT_MASS: 327.2410
CH$SMILES: CCCCCCCCCCCC(O)CC(=O)NC1CCOC1=O
CH$IUPAC: InChI=1S/C18H33NO4/c1-2-3-4-5-6-7-8-9-10-11-15(20)14-17(21)19-16-12-13-23-18(16)22/h15-16,20H,2-14H2,1H3,(H,19,21)
CH$LINK: CAS 172670-99-4
CH$LINK: PUBCHEM CID:11681427
CH$LINK: INCHIKEY IKQUESGRCDRZTI-UHFFFAOYSA-N
CH$LINK: CHEMSPIDER 9856155
CH$LINK: COMPTOX DTXSID30470555
AC$INSTRUMENT: maXis plus UHR-ToF-MS, Bruker Daltonics
AC$INSTRUMENT_TYPE: LC-ESI-QTOF
AC$MASS_SPECTROMETRY: MS_TYPE MS2
AC$MASS_SPECTROMETRY: ION_MODE NEGATIVE
AC$MASS_SPECTROMETRY: IONIZATION ESI
AC$MASS_SPECTROMETRY: FRAGMENTATION_MODE CID
AC$MASS_SPECTROMETRY: COLLISION_ENERGY 10
AC$CHROMATOGRAPHY: COLUMN_NAME BEH C18 1.7um, 2.1x100mm, Waters
AC$CHROMATOGRAPHY: FLOW_GRADIENT 95/5 at 0 min, 95/5 at 1.12 min, 0.5/99.5 at 6.41 min, 0.5/99.5 at 10.01 min
AC$CHROMATOGRAPHY: FLOW_RATE 400 uL/min
AC$CHROMATOGRAPHY: RETENTION_TIME 5.740 min
AC$CHROMATOGRAPHY: SOLVENT A Water with 0.1% formic acid
AC$CHROMATOGRAPHY: SOLVENT B ACN with 0.1% formic acid
MS$FOCUSED_ION: BASE_PEAK 326.2329
MS$FOCUSED_ION: PRECURSOR_M/Z 326.2337
MS$FOCUSED_ION: PRECURSOR_TYPE [M-H]-
MS$DATA_PROCESSING: REANALYZE Peaks with additional N2/O included
MS$DATA_PROCESSING: WHOLE RMassBank 2.4.0
PK$SPLASH: splash10-004i-0009000000-00afdabbe9ac131ab05d
PK$NUM_PEAK: 4
PK$PEAK: m/z int. rel.int.
  113.0441 40 7
  131.092 34 6
  142.0522 404 74
  326.2334 5396 999
//
