ACCESSION: MSBNK-BGC_Munich-RP016211
RECORD_TITLE: Lipoic acid reduced; LC-ESI-QTOF; MS2; CE: 10; R=; [M-H]-
DATE: 2017.11.29
AUTHORS: BGC, Helmholtz Zentrum Muenchen
LICENSE: CC BY
COPYRIGHT: Copyright (C) 2017
COMMENT: CONFIDENCE standard compound
COMMENT: INTERNAL_ID 162
CH$NAME: Lipoic acid reduced
CH$NAME: Dihydrolipoic acid
CH$NAME: 6,8-bis(sulfanyl)octanoic acid
CH$COMPOUND_CLASS: N/A; Metabolomics Standard
CH$FORMULA: C8H16O2S2
CH$EXACT_MASS: 208.0592
CH$SMILES: OC(=O)CCCCC(S)CCS
CH$IUPAC: InChI=1S/C8H16O2S2/c9-8(10)4-2-1-3-7(12)5-6-11/h7,11-12H,1-6H2,(H,9,10)
CH$LINK: CAS 462-20-4
CH$LINK: CHEBI CHEBI:18047
CH$LINK: KEGG C02147
CH$LINK: PUBCHEM CID:421
CH$LINK: INCHIKEY IZFHEQBZOYJLPK-UHFFFAOYSA-N
CH$LINK: CHEMSPIDER 408
AC$INSTRUMENT: maXis plus UHR-ToF-MS, Bruker Daltonics
AC$INSTRUMENT_TYPE: LC-ESI-QTOF
AC$MASS_SPECTROMETRY: MS_TYPE MS2
AC$MASS_SPECTROMETRY: ION_MODE NEGATIVE
AC$MASS_SPECTROMETRY: IONIZATION ESI
AC$MASS_SPECTROMETRY: FRAGMENTATION_MODE CID
AC$MASS_SPECTROMETRY: COLLISION_ENERGY 10
AC$CHROMATOGRAPHY: COLUMN_NAME BEH C18 1.7um, 2.1x100mm, Waters
AC$CHROMATOGRAPHY: FLOW_GRADIENT 95/5 at 0 min, 95/5 at 1.12 min, 0.5/99.5 at 6.41 min, 0.5/99.5 at 10.01 min
AC$CHROMATOGRAPHY: FLOW_RATE 400 uL/min
AC$CHROMATOGRAPHY: RETENTION_TIME 4.395 min
AC$CHROMATOGRAPHY: SOLVENT A Water with 0.1% formic acid
AC$CHROMATOGRAPHY: SOLVENT B ACN with 0.1% formic acid
MS$FOCUSED_ION: BASE_PEAK 207.0525
MS$FOCUSED_ION: PRECURSOR_M/Z 207.0519
MS$FOCUSED_ION: PRECURSOR_TYPE [M-H]-
MS$DATA_PROCESSING: REANALYZE Peaks with additional N2/O included
MS$DATA_PROCESSING: WHOLE RMassBank 2.4.0
PK$SPLASH: splash10-0ab9-0790000000-5d8b551d532156567db3
PK$NUM_PEAK: 5
PK$PEAK: m/z int. rel.int.
  129.0748 94 6
  139.0771 96 6
  173.0652 11768 761
  175.0605 164 10
  207.053 15446 999
//
