ACCESSION: MSBNK-BGC_Munich-RP025102
RECORD_TITLE: Oleoyl-L-Carnitine; LC-ESI-QTOF; MS2; CE: 20; R=; [M+H]+
DATE: 2017.10.27
AUTHORS: BGC, Helmholtz Zentrum Muenchen
LICENSE: CC BY
COPYRIGHT: Copyright (C) 2017
COMMENT: CONFIDENCE standard compound
COMMENT: INTERNAL_ID 251
CH$NAME: Oleoyl-L-Carnitine
CH$NAME: (3R)-3-[(Z)-octadec-9-enoyl]oxy-4-(trimethylazaniumyl)butanoate
CH$COMPOUND_CLASS: N/A; Metabolomics Standard
CH$FORMULA: C25H47NO4
CH$EXACT_MASS: 425.3505
CH$SMILES: CCCCCCCC/C=C\CCCCCCCC(=O)O[C@H](CC(=O)[O-])C[N+](C)(C)C
CH$IUPAC: InChI=1S/C25H47NO4/c1-5-6-7-8-9-10-11-12-13-14-15-16-17-18-19-20-25(29)30-23(21-24(27)28)22-26(2,3)4/h12-13,23H,5-11,14-22H2,1-4H3/b13-12-/t23-/m1/s1
CH$LINK: CAS 13962-05-5
CH$LINK: CHEBI CHEBI:84651
CH$LINK: PUBCHEM CID:46907933
CH$LINK: INCHIKEY IPOLTUVFXFHAHI-WHIOSMTNSA-N
CH$LINK: CHEMSPIDER 21403150
AC$INSTRUMENT: maXis plus UHR-ToF-MS, Bruker Daltonics
AC$INSTRUMENT_TYPE: LC-ESI-QTOF
AC$MASS_SPECTROMETRY: MS_TYPE MS2
AC$MASS_SPECTROMETRY: ION_MODE POSITIVE
AC$MASS_SPECTROMETRY: IONIZATION ESI
AC$MASS_SPECTROMETRY: FRAGMENTATION_MODE CID
AC$MASS_SPECTROMETRY: COLLISION_ENERGY 20
AC$CHROMATOGRAPHY: COLUMN_NAME BEH C18 1.7um, 2.1x100mm, Waters
AC$CHROMATOGRAPHY: FLOW_GRADIENT 95/5 at 0 min, 95/5 at 1.12 min, 0.5/99.5 at 6.41 min, 0.5/99.5 at 10.01 min
AC$CHROMATOGRAPHY: FLOW_RATE 400 uL/min
AC$CHROMATOGRAPHY: RETENTION_TIME 5.863 min
AC$CHROMATOGRAPHY: SOLVENT A Water with 0.1% formic acid
AC$CHROMATOGRAPHY: SOLVENT B ACN with 0.1% formic acid
MS$FOCUSED_ION: BASE_PEAK 426.3579
MS$FOCUSED_ION: PRECURSOR_M/Z 426.3578
MS$FOCUSED_ION: PRECURSOR_TYPE [M+H]+
MS$DATA_PROCESSING: REANALYZE Peaks with additional N2/O included
MS$DATA_PROCESSING: WHOLE RMassBank 2.4.0
PK$SPLASH: splash10-004i-1000900000-9d622f83b84ab7f9eaac
PK$NUM_PEAK: 16
PK$PEAK: m/z int. rel.int.
  60.0802 8624 30
  71.0851 366 1
  81.0701 344 1
  85.028 30608 107
  241.141 360 1
  247.2426 588 2
  255.1591 806 2
  265.2533 1354 4
  269.1743 882 3
  283.1916 850 2
  297.2056 556 1
  311.221 660 2
  367.2847 8518 29
  368.2887 1866 6
  426.3578 283970 999
  428.3645 10502 36
//
