ACCESSION: MSBNK-BGC_Munich-RP011001
RECORD_TITLE: Inosine; LC-ESI-QTOF; MS2; CE: 10; R=; [M+H]+
DATE: 2017.10.22
AUTHORS: BGC, Helmholtz Zentrum Muenchen
LICENSE: CC BY
COPYRIGHT: Copyright (C) 2017
COMMENT: CONFIDENCE standard compound
COMMENT: INTERNAL_ID 110
CH$NAME: Inosine
CH$NAME: 9-[(2R,3R,4S,5R)-3,4-dihydroxy-5-(hydroxymethyl)oxolan-2-yl]-3H-purin-6-one
CH$COMPOUND_CLASS: N/A; Metabolomics Standard
CH$FORMULA: C10H12N4O5
CH$EXACT_MASS: 268.0808
CH$SMILES: OC[C@H]1O[C@H]([C@H](O)[C@@H]1O)N1C=NC2=C(O)N=CN=C12
CH$IUPAC: InChI=1S/C10H12N4O5/c15-1-4-6(16)7(17)10(19-4)14-3-13-5-8(14)11-2-12-9(5)18/h2-4,6-7,10,15-17H,1H2,(H,11,12,18)/t4-,6-,7-,10-/m1/s1
CH$LINK: CAS 58-63-9
CH$LINK: CHEBI CHEBI:17596
CH$LINK: KEGG C00294
CH$LINK: INCHIKEY UGQMRVRMYYASKQ-KQYNXXCUSA-N
CH$LINK: CHEMSPIDER 5799
CH$LINK: COMPTOX DTXSID2045993
CH$LINK: PUBCHEM CID:135398641
AC$INSTRUMENT: maXis plus UHR-ToF-MS, Bruker Daltonics
AC$INSTRUMENT_TYPE: LC-ESI-QTOF
AC$MASS_SPECTROMETRY: MS_TYPE MS2
AC$MASS_SPECTROMETRY: ION_MODE POSITIVE
AC$MASS_SPECTROMETRY: IONIZATION ESI
AC$MASS_SPECTROMETRY: FRAGMENTATION_MODE CID
AC$MASS_SPECTROMETRY: COLLISION_ENERGY 10
AC$CHROMATOGRAPHY: COLUMN_NAME BEH C18 1.7um, 2.1x100mm, Waters
AC$CHROMATOGRAPHY: FLOW_GRADIENT 95/5 at 0 min, 95/5 at 1.12 min, 0.5/99.5 at 6.41 min, 0.5/99.5 at 10.01 min
AC$CHROMATOGRAPHY: FLOW_RATE 400 uL/min
AC$CHROMATOGRAPHY: RETENTION_TIME 0.724 min
AC$CHROMATOGRAPHY: SOLVENT A Water with 0.1% formic acid
AC$CHROMATOGRAPHY: SOLVENT B ACN with 0.1% formic acid
MS$FOCUSED_ION: BASE_PEAK 269.0877
MS$FOCUSED_ION: PRECURSOR_M/Z 269.088
MS$FOCUSED_ION: PRECURSOR_TYPE [M+H]+
MS$DATA_PROCESSING: REANALYZE Peaks with additional N2/O included
MS$DATA_PROCESSING: WHOLE RMassBank 2.4.0
PK$SPLASH: splash10-000i-0910000000-5b07972acad816b24597
PK$NUM_PEAK: 19
PK$PEAK: m/z int. rel.int.
  69.0338 60 2
  75.0787 40 1
  81.0417 36 1
  84.0524 54 2
  85.029 76 3
  97.0249 56 2
  108.0661 36 1
  114.0071 40 1
  117.0564 40 1
  117.1022 68 2
  118.1086 44 1
  120.0801 40 1
  133.0484 88 3
  137.0451 23852 999
  138.0484 1374 57
  139.0474 148 6
  149.0976 38 1
  268.0459 68 2
  269.0875 5430 227
//
