ACCESSION: MSBNK-BGC_Munich-RP031711
RECORD_TITLE: Guanosine; LC-ESI-QTOF; MS2; CE: 10; R=; [M-H]-
DATE: 2017.11.29
AUTHORS: BGC, Helmholtz Zentrum Muenchen
LICENSE: CC BY
COPYRIGHT: Copyright (C) 2017
COMMENT: CONFIDENCE standard compound
COMMENT: INTERNAL_ID 317
CH$NAME: Guanosine
CH$COMPOUND_CLASS: N/A; Metabolomics Standard
CH$FORMULA: C10H13N5O5
CH$EXACT_MASS: 283.091669
CH$SMILES: C1=NC2=C(N1[C@H]3[C@@H]([C@@H]([C@H](O3)CO)O)O)N=C(NC2=O)N
CH$IUPAC: InChI=1S/C10H13N5O5/c11-10-13-7-4(8(19)14-10)12-2-15(7)9-6(18)5(17)3(1-16)20-9/h2-3,5-6,9,16-18H,1H2,(H3,11,13,14,19)/t3-,5-,6-,9-/m1/s1
CH$LINK: CAS 118-00-3
CH$LINK: CHEBI CHEBI:16750
CH$LINK: CHEMSPIDER 6544
CH$LINK: COMPTOX DTXSID00893055
CH$LINK: INCHIKEY NYHBQMYGNKIUIF-UUOKFMHZSA-N
CH$LINK: KAPPAVIEW KPC00589
CH$LINK: KEGG C00387
CH$LINK: KNAPSACK C00019679
CH$LINK: NIKKAJI J10.076E
CH$LINK: PUBCHEM CID:135398635
AC$INSTRUMENT: maXis plus UHR-ToF-MS, Bruker Daltonics
AC$INSTRUMENT_TYPE: LC-ESI-QTOF
AC$MASS_SPECTROMETRY: MS_TYPE MS2
AC$MASS_SPECTROMETRY: ION_MODE NEGATIVE
AC$MASS_SPECTROMETRY: IONIZATION ESI
AC$MASS_SPECTROMETRY: FRAGMENTATION_MODE CID
AC$MASS_SPECTROMETRY: COLLISION_ENERGY 10
AC$CHROMATOGRAPHY: COLUMN_NAME BEH C18 1.7um, 2.1x100mm, Waters
AC$CHROMATOGRAPHY: FLOW_GRADIENT 95/5 at 0 min, 95/5 at 1.12 min, 0.5/99.5 at 6.41 min, 0.5/99.5 at 10.01 min
AC$CHROMATOGRAPHY: FLOW_RATE 400 uL/min
AC$CHROMATOGRAPHY: RETENTION_TIME 0.714 min
AC$CHROMATOGRAPHY: SOLVENT A Water with 0.1% formic acid
AC$CHROMATOGRAPHY: SOLVENT B ACN with 0.1% formic acid
MS$FOCUSED_ION: BASE_PEAK 282.0842
MS$FOCUSED_ION: PRECURSOR_M/Z 282.0844
MS$FOCUSED_ION: PRECURSOR_TYPE [M-H]-
MS$DATA_PROCESSING: REANALYZE Peaks with additional N2/O included
MS$DATA_PROCESSING: WHOLE RMassBank 2.4.0
PK$SPLASH: splash10-001i-0090000000-1dcdd8edb5641311bb28
PK$NUM_PEAK: 3
PK$PEAK: m/z int. rel.int.
  150.0425 650 36
  282.084 17692 999
  293.0486 32 1
//
