ACCESSION: MSBNK-BGC_Munich-RP023212
RECORD_TITLE: Gentiobiose; LC-ESI-QTOF; MS2; CE: 20; R=; [M-H]-
DATE: 2017.11.29
AUTHORS: BGC, Helmholtz Zentrum Muenchen
LICENSE: CC BY
COPYRIGHT: Copyright (C) 2017
COMMENT: CONFIDENCE standard compound
COMMENT: INTERNAL_ID 232
CH$NAME: Gentiobiose
CH$NAME: (2R,3R,4S,5S,6R)-6-[[(2R,3R,4S,5S,6R)-3,4,5-trihydroxy-6-(hydroxymethyl)oxan-2-yl]oxymethyl]oxane-2,3,4,5-tetrol
CH$COMPOUND_CLASS: N/A; Metabolomics Standard
CH$FORMULA: C12H22O11
CH$EXACT_MASS: 342.1162
CH$SMILES: O(C[C@H]1O[C@@H](O)[C@H](O)[C@@H](O)[C@@H]1O)[C@@H]2O[C@@H]([C@@H](O)[C@H](O)[C@H]2O)CO
CH$IUPAC: InChI=1S/C12H22O11/c13-1-3-5(14)8(17)10(19)12(23-3)21-2-4-6(15)7(16)9(18)11(20)22-4/h3-20H,1-2H2/t3-,4-,5-,6-,7+,8+,9-,10-,11-,12-/m1/s1
CH$LINK: CAS 554-91-6
CH$LINK: CHEBI CHEBI:71422
CH$LINK: KEGG C08240
CH$LINK: PUBCHEM CID:441422
CH$LINK: INCHIKEY DLRVVLDZNNYCBX-LIZSDCNHSA-N
CH$LINK: CHEMSPIDER 390156
AC$INSTRUMENT: maXis plus UHR-ToF-MS, Bruker Daltonics
AC$INSTRUMENT_TYPE: LC-ESI-QTOF
AC$MASS_SPECTROMETRY: MS_TYPE MS2
AC$MASS_SPECTROMETRY: ION_MODE NEGATIVE
AC$MASS_SPECTROMETRY: IONIZATION ESI
AC$MASS_SPECTROMETRY: FRAGMENTATION_MODE CID
AC$MASS_SPECTROMETRY: COLLISION_ENERGY 20
AC$CHROMATOGRAPHY: COLUMN_NAME BEH C18 1.7um, 2.1x100mm, Waters
AC$CHROMATOGRAPHY: FLOW_GRADIENT 95/5 at 0 min, 95/5 at 1.12 min, 0.5/99.5 at 6.41 min, 0.5/99.5 at 10.01 min
AC$CHROMATOGRAPHY: FLOW_RATE 400 uL/min
AC$CHROMATOGRAPHY: RETENTION_TIME 0.578 min
AC$CHROMATOGRAPHY: SOLVENT A Water with 0.1% formic acid
AC$CHROMATOGRAPHY: SOLVENT B ACN with 0.1% formic acid
MS$FOCUSED_ION: BASE_PEAK 341.1094
MS$FOCUSED_ION: PRECURSOR_M/Z 341.1089
MS$FOCUSED_ION: PRECURSOR_TYPE [M-H]-
MS$DATA_PROCESSING: REANALYZE Peaks with additional N2/O included
MS$DATA_PROCESSING: WHOLE RMassBank 2.4.0
PK$SPLASH: splash10-000i-9200000000-d3e42e80374b997e55ff
PK$NUM_PEAK: 3
PK$PEAK: m/z int. rel.int.
  59.0142 48 315
  89.0243 152 999
  179.0564 54 354
//
