ACCESSION: MSBNK-BGC_Munich-RP021201
RECORD_TITLE: 3-oxo-C14 homoserine lactone; LC-ESI-QTOF; MS2; CE: 10; R=; [M+H]+
DATE: 2017.10.25
AUTHORS: BGC, Helmholtz Zentrum Muenchen
LICENSE: CC BY
COPYRIGHT: Copyright (C) 2017
COMMENT: CONFIDENCE standard compound
COMMENT: INTERNAL_ID 212
CH$NAME: 3-oxo-C14 homoserine lactone
CH$NAME: N-(3-Oxotetradecanoyl)-DL-homoserine lactone
CH$NAME: 3-oxo-N-(2-oxooxolan-3-yl)tetradecanamide
CH$COMPOUND_CLASS: N/A; Metabolomics Standard
CH$FORMULA: C18H31NO4
CH$EXACT_MASS: 325.22531
CH$SMILES: CCCCCCCCCCCC(=O)CC(=O)NC1CCOC1=O
CH$IUPAC: InChI=1S/C18H31NO4/c1-2-3-4-5-6-7-8-9-10-11-15(20)14-17(21)19-16-12-13-23-18(16)22/h16H,2-14H2,1H3,(H,19,21)
CH$LINK: CAS 177158-19-9
CH$LINK: PUBCHEM CID:11688418
CH$LINK: INCHIKEY YQFJJDSGBAAUPW-UHFFFAOYSA-N
CH$LINK: CHEMSPIDER 9863145
AC$INSTRUMENT: maXis plus UHR-ToF-MS, Bruker Daltonics
AC$INSTRUMENT_TYPE: LC-ESI-QTOF
AC$MASS_SPECTROMETRY: MS_TYPE MS2
AC$MASS_SPECTROMETRY: ION_MODE POSITIVE
AC$MASS_SPECTROMETRY: IONIZATION ESI
AC$MASS_SPECTROMETRY: FRAGMENTATION_MODE CID
AC$MASS_SPECTROMETRY: COLLISION_ENERGY 10
AC$CHROMATOGRAPHY: COLUMN_NAME BEH C18 1.7um, 2.1x100mm, Waters
AC$CHROMATOGRAPHY: FLOW_GRADIENT 95/5 at 0 min, 95/5 at 1.12 min, 0.5/99.5 at 6.41 min, 0.5/99.5 at 10.01 min
AC$CHROMATOGRAPHY: FLOW_RATE 400 uL/min
AC$CHROMATOGRAPHY: RETENTION_TIME 5.928 min
AC$CHROMATOGRAPHY: SOLVENT A Water with 0.1% formic acid
AC$CHROMATOGRAPHY: SOLVENT B ACN with 0.1% formic acid
MS$FOCUSED_ION: BASE_PEAK 326.2322
MS$FOCUSED_ION: PRECURSOR_M/Z 326.2326
MS$FOCUSED_ION: PRECURSOR_TYPE [M+H]+
MS$DATA_PROCESSING: REANALYZE Peaks with additional N2/O included
MS$DATA_PROCESSING: WHOLE RMassBank 2.4.0
PK$SPLASH: splash10-004i-0129000000-921640b4f57db9a6eca8
PK$NUM_PEAK: 19
PK$PEAK: m/z int. rel.int.
  74.023 426 2
  74.0593 1942 9
  84.0438 218 1
  98.0598 1036 5
  102.0548 32666 165
  183.1735 562 2
  225.1845 30838 155
  226.188 3496 17
  268.2272 2634 13
  269.2307 312 1
  280.2262 1182 5
  281.2287 228 1
  284.2218 1988 10
  285.2244 454 2
  298.2372 7644 38
  300.2429 224 1
  308.2229 1312 6
  326.2322 197746 999
  328.2384 3796 19
//
