ACCESSION: MSBNK-BGC_Munich-RP010812
RECORD_TITLE: delta7-Dafachronic acid; LC-ESI-QTOF; MS2; CE: 20; R=; [M-H]-
DATE: 2017.11.29
AUTHORS: BGC, Helmholtz Zentrum Muenchen
LICENSE: CC BY
COPYRIGHT: Copyright (C) 2017
COMMENT: CONFIDENCE standard compound
COMMENT: INTERNAL_ID 108
CH$NAME: delta7-Dafachronic acid
CH$NAME: Delta(7)-dafachronic acid
CH$NAME: (6R)-6-[(5S,9R,10S,13R,14R,17R)-10,13-dimethyl-3-oxo-1,2,4,5,6,9,11,12,14,15,16,17-dodecahydrocyclopenta[a]phenanthren-17-yl]-2-methylheptanoic acid
CH$COMPOUND_CLASS: N/A; Metabolomics Standard
CH$FORMULA: C27H42O3
CH$EXACT_MASS: 414.3134
CH$SMILES: C[C@H](CCCC(C)C(O)=O)[C@H]1CC[C@H]2C3=CC[C@H]4CC(=O)CC[C@]4(C)[C@H]3CC[C@]12C
CH$IUPAC: InChI=1S/C27H42O3/c1-17(6-5-7-18(2)25(29)30)22-10-11-23-21-9-8-19-16-20(28)12-14-26(19,3)24(21)13-15-27(22,23)4/h9,17-19,22-24H,5-8,10-16H2,1-4H3,(H,29,30)/t17-,18?,19+,22-,23+,24+,26+,27-/m1/s1
CH$LINK: CHEBI CHEBI:78699
CH$LINK: PUBCHEM CID:86289629
CH$LINK: INCHIKEY SQTAVUCHOVVOFD-GAMFLDECSA-N
CH$LINK: CHEMSPIDER 31150586
AC$INSTRUMENT: maXis plus UHR-ToF-MS, Bruker Daltonics
AC$INSTRUMENT_TYPE: LC-ESI-QTOF
AC$MASS_SPECTROMETRY: MS_TYPE MS2
AC$MASS_SPECTROMETRY: ION_MODE NEGATIVE
AC$MASS_SPECTROMETRY: IONIZATION ESI
AC$MASS_SPECTROMETRY: FRAGMENTATION_MODE CID
AC$MASS_SPECTROMETRY: COLLISION_ENERGY 20
AC$CHROMATOGRAPHY: COLUMN_NAME BEH C18 1.7um, 2.1x100mm, Waters
AC$CHROMATOGRAPHY: FLOW_GRADIENT 95/5 at 0 min, 95/5 at 1.12 min, 0.5/99.5 at 6.41 min, 0.5/99.5 at 10.01 min
AC$CHROMATOGRAPHY: FLOW_RATE 400 uL/min
AC$CHROMATOGRAPHY: RETENTION_TIME 6.824 min
AC$CHROMATOGRAPHY: SOLVENT A Water with 0.1% formic acid
AC$CHROMATOGRAPHY: SOLVENT B ACN with 0.1% formic acid
MS$FOCUSED_ION: BASE_PEAK 827.5924
MS$FOCUSED_ION: PRECURSOR_M/Z 413.3061
MS$FOCUSED_ION: PRECURSOR_TYPE [M-H]-
MS$DATA_PROCESSING: REANALYZE Peaks with additional N2/O included
MS$DATA_PROCESSING: WHOLE RMassBank 2.4.0
PK$SPLASH: splash10-03di-0000900000-52b64b9c10ab2babded0
PK$NUM_PEAK: 7
PK$PEAK: m/z int. rel.int.
  97.2906 42 15
  268.0218 30 11
  316.0976 38 14
  320.2145 30 11
  344.0142 34 12
  348.0073 30 11
  413.3057 2672 999
//
