ACCESSION: MSBNK-BGC_Munich-RP015311
RECORD_TITLE: Suberic acid; LC-ESI-QTOF; MS2; CE: 10; R=; [M-H]-
DATE: 2017.11.29
AUTHORS: BGC, Helmholtz Zentrum Muenchen
LICENSE: CC BY
COPYRIGHT: Copyright (C) 2017
COMMENT: CONFIDENCE standard compound
COMMENT: INTERNAL_ID 153
CH$NAME: Suberic acid
CH$NAME: Octanedioic acid
CH$COMPOUND_CLASS: N/A; Metabolomics Standard
CH$FORMULA: C8H14O4
CH$EXACT_MASS: 174.0892
CH$SMILES: OC(=O)CCCCCCC(O)=O
CH$IUPAC: InChI=1S/C8H14O4/c9-7(10)5-3-1-2-4-6-8(11)12/h1-6H2,(H,9,10)(H,11,12)
CH$LINK: CAS 505-48-6
CH$LINK: CHEBI CHEBI:9300
CH$LINK: KEGG C08278
CH$LINK: LIPIDMAPS LMFA01170001
CH$LINK: PUBCHEM CID:10457
CH$LINK: INCHIKEY TYFQFVWCELRYAO-UHFFFAOYSA-N
CH$LINK: CHEMSPIDER 10025
CH$LINK: COMPTOX DTXSID8021644
AC$INSTRUMENT: maXis plus UHR-ToF-MS, Bruker Daltonics
AC$INSTRUMENT_TYPE: LC-ESI-QTOF
AC$MASS_SPECTROMETRY: MS_TYPE MS2
AC$MASS_SPECTROMETRY: ION_MODE NEGATIVE
AC$MASS_SPECTROMETRY: IONIZATION ESI
AC$MASS_SPECTROMETRY: FRAGMENTATION_MODE CID
AC$MASS_SPECTROMETRY: COLLISION_ENERGY 10
AC$CHROMATOGRAPHY: COLUMN_NAME BEH C18 1.7um, 2.1x100mm, Waters
AC$CHROMATOGRAPHY: FLOW_GRADIENT 95/5 at 0 min, 95/5 at 1.12 min, 0.5/99.5 at 6.41 min, 0.5/99.5 at 10.01 min
AC$CHROMATOGRAPHY: FLOW_RATE 400 uL/min
AC$CHROMATOGRAPHY: RETENTION_TIME 3.095 min
AC$CHROMATOGRAPHY: SOLVENT A Water with 0.1% formic acid
AC$CHROMATOGRAPHY: SOLVENT B ACN with 0.1% formic acid
MS$FOCUSED_ION: BASE_PEAK 173.0825
MS$FOCUSED_ION: PRECURSOR_M/Z 173.0819
MS$FOCUSED_ION: PRECURSOR_TYPE [M-H]-
MS$DATA_PROCESSING: REANALYZE Peaks with additional N2/O included
MS$DATA_PROCESSING: WHOLE RMassBank 2.4.0
PK$SPLASH: splash10-00di-0900000000-92cabb7fcd795c152ed6
PK$NUM_PEAK: 5
PK$PEAK: m/z int. rel.int.
  83.0504 156 3
  111.082 5924 122
  112.0862 210 4
  129.092 54 1
  173.0828 48310 999
//
