ACCESSION: MSBNK-BGC_Munich-RP026803
RECORD_TITLE: 5?-CHOLANIC ACID-3?_ 6?_7?-TRIOL N-(2-SULPHOETHYL)-AMIDE SODIUM SALT; LC-ESI-QTOF; MS2; CE: 40; R=; [M+H]+
DATE: 2017.10.27
AUTHORS: BGC, Helmholtz Zentrum Muenchen
LICENSE: CC BY
COPYRIGHT: Copyright (C) 2017
COMMENT: CONFIDENCE standard compound
COMMENT: INTERNAL_ID 268
CH$NAME: 5?-CHOLANIC ACID-3?_ 6?_7?-TRIOL N-(2-SULPHOETHYL)-AMIDE SODIUM SALT
CH$NAME: Taurohyocholate
CH$NAME: 2-[[(4R)-4-[(3R,5R,6R,7S,8S,9S,10R,13R,14S,17R)-3,6,7-trihydroxy-10,13-dimethyl-2,3,4,5,6,7,8,9,11,12,14,15,16,17-tetradecahydro-1H-cyclopenta[a]phenanthren-17-yl]pentanoyl]amino]ethanesulfonic acid
CH$COMPOUND_CLASS: N/A; Metabolomics Standard
CH$FORMULA: C26H45NO7S
CH$EXACT_MASS: 515.2917
CH$SMILES: C[C@H](CCC(=O)NCCS(=O)(=O)O)[C@H]1CC[C@@H]2[C@@]1(CC[C@H]3[C@H]2[C@@H]([C@@H]([C@H]4[C@@]3(CC[C@H](C4)O)C)O)O)C
CH$IUPAC: InChI=1S/C26H45NO7S/c1-15(4-7-21(29)27-12-13-35(32,33)34)17-5-6-18-22-19(9-11-25(17,18)2)26(3)10-8-16(28)14-20(26)23(30)24(22)31/h15-20,22-24,28,30-31H,4-14H2,1-3H3,(H,27,29)(H,32,33,34)/t15-,16-,17-,18+,19+,20+,22+,23-,24+,25-,26-/m1/s1
CH$LINK: CHEBI CHEBI:52022
CH$LINK: KEGG C15516
CH$LINK: LIPIDMAPS LMST05040010
CH$LINK: PUBCHEM CID:11954195
CH$LINK: INCHIKEY XSOLDPYUICCHJX-QZEPYOAJSA-N
CH$LINK: CHEMSPIDER 10128490
AC$INSTRUMENT: maXis plus UHR-ToF-MS, Bruker Daltonics
AC$INSTRUMENT_TYPE: LC-ESI-QTOF
AC$MASS_SPECTROMETRY: MS_TYPE MS2
AC$MASS_SPECTROMETRY: ION_MODE POSITIVE
AC$MASS_SPECTROMETRY: IONIZATION ESI
AC$MASS_SPECTROMETRY: FRAGMENTATION_MODE CID
AC$MASS_SPECTROMETRY: COLLISION_ENERGY 40
AC$CHROMATOGRAPHY: COLUMN_NAME BEH C18 1.7um, 2.1x100mm, Waters
AC$CHROMATOGRAPHY: FLOW_GRADIENT 95/5 at 0 min, 95/5 at 1.12 min, 0.5/99.5 at 6.41 min, 0.5/99.5 at 10.01 min
AC$CHROMATOGRAPHY: FLOW_RATE 400 uL/min
AC$CHROMATOGRAPHY: RETENTION_TIME 3.710 min
AC$CHROMATOGRAPHY: SOLVENT A Water with 0.1% formic acid
AC$CHROMATOGRAPHY: SOLVENT B ACN with 0.1% formic acid
MS$FOCUSED_ION: BASE_PEAK 516.2988
MS$FOCUSED_ION: PRECURSOR_M/Z 516.299
MS$FOCUSED_ION: PRECURSOR_TYPE [M+H]+
MS$DATA_PROCESSING: REANALYZE Peaks with additional N2/O included
MS$DATA_PROCESSING: WHOLE RMassBank 2.4.0
PK$SPLASH: splash10-0a4r-0759100000-91f74011e5f3930820c2
PK$NUM_PEAK: 1046
PK$PEAK: m/z int. rel.int.
  47.2373 44 1
  52.0051 40 1
  52.2759 46 1
  54.2918 78 3
  55.0538 124 5
  56.0621 66 2
  56.1559 56 2
  59.1824 44 1
  60.0034 98 4
  62.0718 126 5
  62.1662 48 2
  64.0268 36 1
  67.1698 40 1
  68.0576 70 2
  70.1592 36 1
  70.2867 50 2
  71.2735 62 2
  73.1095 104 4
  73.2532 40 1
  74.0641 70 2
  75.0228 44 1
  75.9613 40 1
  76.2036 50 2
  77.0386 98 4
  77.1206 40 1
  77.136 62 2
  77.1532 70 2
  78.0557 58 2
  79.0535 500 21
  80.0527 74 3
  82.0325 82 3
  83.0483 116 4
  83.0852 420 17
  84.0686 66 2
  84.2808 42 1
  85.064 1916 82
  85.9989 64 2
  87.0349 46 1
  87.1778 38 1
  87.2561 62 2
  88.1283 38 1
  88.2995 36 1
  89.0939 64 2
  89.1163 52 2
  89.2714 64 2
  90.0576 48 2
  90.102 38 1
  91.0543 182 7
  91.066 68 2
  92.12 64 2
  92.9968 84 3
  93.1518 46 1
  93.2127 52 2
  93.2423 38 1
  94.0734 72 3
  95.0853 1362 58
  95.2589 76 3
  95.9911 36 1
  97.0562 68 2
  97.0642 210 8
  97.2028 42 1
  99.1001 104 4
  99.1823 40 1
  99.1974 68 2
  100.1485 46 1
  100.3159 46 1
  101.0592 42 1
  102.1243 46 1
  102.2218 76 3
  102.2956 36 1
  103.992 50 2
  104.9791 36 1
  105.0419 46 1
  105.0688 708 30
  105.1733 64 2
  106.0323 46 1
  106.1359 48 2
  107.0766 74 3
  107.0847 650 27
  107.1415 80 3
  107.1661 36 1
  107.2099 38 1
  107.264 54 2
  107.2731 84 3
  108.0107 1078 46
  108.9936 60 2
  109.0157 60 2
  109.1005 624 26
  109.3098 42 1
  110.0279 36 1
  110.0873 60 2
  110.1031 90 3
  110.1173 54 2
  110.1569 54 2
  110.2096 54 2
  110.3532 64 2
  111.0139 80 3
  111.0654 42 1
  111.0782 56 2
  111.9465 44 1
  111.9856 102 4
  112.0558 70 2
  112.1126 48 2
  112.1707 48 2
  112.9923 112 4
  113.0975 38 1
  113.9934 42 1
  114.0512 80 3
  114.1451 94 4
  114.1531 64 2
  115.1158 68 2
  115.2719 74 3
  116.0129 76 3
  116.0624 50 2
  117.0356 52 2
  117.0985 106 4
  117.2087 62 2
  118.0012 54 2
  118.1095 46 1
  119.04 48 2
  119.0463 62 2
  119.0759 46 1
  119.0847 588 25
  119.2017 66 2
  120.0655 36 1
  120.0852 64 2
  121.0838 54 2
  121.1009 522 22
  121.1613 74 3
  121.2168 68 2
  121.2897 60 2
  121.9685 84 3
  122.0117 76 3
  122.1016 70 2
  122.11 62 2
  122.172 60 2
  122.2114 52 2
  123.0037 44 1
  123.0803 238 10
  123.1289 58 2
  123.1367 38 1
  123.2025 40 1
  124.1183 130 5
  124.1317 38 1
  124.144 58 2
  124.2039 38 1
  124.9699 40 1
  125.0011 44 1
  125.0076 66 2
  125.0749 74 3
  125.0944 170 7
  125.1923 36 1
  126.0219 14422 617
  126.9856 52 2
  127.0252 426 18
  127.1933 38 1
  127.2108 82 3
  127.2637 56 2
  127.9984 46 1
  128.0178 512 21
  128.2528 50 2
  129.071 112 4
  129.1518 80 3
  129.2131 42 1
  129.2436 48 2
  129.3144 40 1
  130.0032 58 2
  130.1388 46 1
  130.2342 84 3
  131.0836 188 8
  131.1539 66 2
  131.2406 48 2
  132.0777 36 1
  132.0923 78 3
  132.1145 74 3
  132.1904 60 2
  132.2678 72 3
  133.0171 52 2
  133.0332 40 1
  133.0554 48 2
  133.0999 84 3
  133.1504 48 2
  134.0744 40 1
  134.1046 74 3
  134.1668 104 4
  134.3402 54 2
  135.0461 40 1
  135.0781 56 2
  135.1166 122 5
  135.2365 40 1
  135.2957 40 1
  135.9568 48 2
  135.9846 40 1
  136.0589 52 2
  136.1163 36 1
  136.1343 60 2
  136.1706 80 3
  136.1943 40 1
  137.0959 210 8
  137.2489 54 2
  137.978 38 1
  138.0321 56 2
  138.0708 84 3
  138.0895 58 2
  139.017 58 2
  139.0674 58 2
  139.1075 72 3
  140.0905 66 2
  140.113 72 3
  140.1846 56 2
  141.1293 38 1
  141.3364 62 2
  142.0782 56 2
  142.1335 68 2
  142.16 42 1
  143.0076 38 1
  143.044 36 1
  143.0834 118 5
  143.1084 64 2
  143.9996 90 3
  144.0739 42 1
  144.0936 114 4
  144.1046 98 4
  144.2856 36 1
  144.3459 44 1
  144.3637 64 2
  144.9936 56 2
  145.088 38 1
  145.101 416 17
  146.1021 238 10
  146.2277 86 3
  147.0844 80 3
  147.101 62 2
  147.1171 1056 45
  147.9749 68 2
  148.046 42 1
  148.0562 52 2
  148.12 106 4
  148.1689 78 3
  148.1764 82 3
  148.2749 58 2
  148.9712 44 1
  148.9859 38 1
  148.9986 82 3
  149.0973 66 2
  149.1323 384 16
  149.188 54 2
  149.2679 38 1
  149.2827 90 3
  149.2934 38 1
  150.0682 94 4
  150.9993 48 2
  151.1123 252 10
  151.1395 78 3
  151.1493 48 2
  151.1776 58 2
  152.0714 68 2
  152.1016 64 2
  152.1387 72 3
  152.3017 42 1
  152.334 48 2
  154.0762 36 1
  154.1173 42 1
  155.0863 172 7
  155.1522 38 1
  155.1819 48 2
  155.9739 44 1
  156.0385 36 1
  156.0616 50 2
  156.0761 48 2
  156.0905 72 3
  156.1098 56 2
  156.1814 38 1
  156.294 48 2
  157.0851 56 2
  157.1007 572 24
  157.1193 50 2
  157.1503 56 2
  157.1818 94 4
  157.197 36 1
  157.2174 60 2
  158.1074 88 3
  158.1336 68 2
  158.1866 38 1
  159.1167 4526 193
  159.9455 48 2
  160.0033 48 2
  160.0873 48 2
  160.0987 38 1
  160.12 268 11
  160.1454 38 1
  160.18 38 1
  160.3333 48 2
  161.132 3012 128
  162.0641 78 3
  162.0775 62 2
  162.1042 46 1
  162.1372 402 17
  162.165 40 1
  162.3148 36 1
  162.9561 44 1
  163.0457 44 1
  163.0699 74 3
  163.1117 576 24
  163.1466 156 6
  163.3439 48 2
  163.9617 64 2
  163.9978 40 1
  164.091 48 2
  164.1134 80 3
  164.1513 88 3
  164.9648 56 2
  165.023 46 1
  165.0342 116 4
  165.0627 92 3
  165.0991 84 3
  165.1255 196 8
  166.133 56 2
  166.2016 86 3
  166.3138 48 2
  167.0567 86 3
  167.0845 94 4
  167.1036 46 1
  167.1257 46 1
  167.1799 70 2
  167.1984 56 2
  167.3314 44 1
  167.971 56 2
  168.0244 80 3
  168.0719 46 1
  168.1343 38 1
  169.046 62 2
  169.0992 118 5
  169.9406 58 2
  170.0356 42 1
  170.1078 86 3
  170.207 36 1
  170.2152 74 3
  170.2314 44 1
  170.2592 110 4
  170.9884 58 2
  171.0583 42 1
  171.0779 46 1
  171.1181 486 20
  172.0527 52 2
  172.1202 192 8
  172.2235 48 2
  172.2455 38 1
  172.3328 38 1
  173.0963 132 5
  173.1315 1978 84
  173.9495 52 2
  174.0084 52 2
  174.0304 54 2
  174.0759 56 2
  174.1355 188 8
  174.241 106 4
  174.2631 36 1
  175.0529 52 2
  175.1118 776 33
  175.1471 978 41
  175.1731 62 2
  175.2457 52 2
  175.3122 72 3
  176.0888 40 1
  176.1173 124 5
  176.1406 42 1
  176.1517 116 4
  176.2038 58 2
  176.9895 40 1
  177.0575 42 1
  177.1261 644 27
  177.1596 74 3
  177.2072 44 1
  177.2889 120 5
  178.0184 58 2
  178.0263 56 2
  178.1117 50 2
  178.1316 228 9
  178.1806 58 2
  178.3451 78 3
  179.0203 56 2
  179.0406 44 1
  179.0768 48 2
  179.0904 38 1
  179.1331 56 2
  179.1484 70 2
  179.1996 78 3
  179.2574 44 1
  180.0281 80 3
  180.0446 52 2
  180.0888 40 1
  180.1358 36 1
  180.1439 52 2
  180.2569 74 3
  180.2945 38 1
  181.0143 100 4
  181.0339 40 1
  181.0998 196 8
  181.1253 80 3
  181.1419 38 1
  181.2562 70 2
  181.9789 36 1
  182.0646 42 1
  182.0752 48 2
  182.0826 38 1
  182.1724 56 2
  182.2171 38 1
  182.2271 40 1
  183.0795 40 1
  183.1169 224 9
  183.2089 38 1
  183.2918 54 2
  183.3022 38 1
  183.9687 76 3
  184.0577 36 1
  184.0704 42 1
  184.1298 40 1
  184.1961 50 2
  184.2292 70 2
  184.274 78 3
  185.0937 108 4
  185.1325 1784 76
  185.9582 36 1
  185.9909 66 2
  186.0649 38 1
  186.1057 46 1
  186.1354 252 10
  186.1768 62 2
  186.3204 58 2
  186.9765 76 3
  187.0011 74 3
  187.0433 56 2
  187.0577 60 2
  187.0698 42 1
  187.1127 198 8
  187.1478 496 21
  187.2161 40 1
  187.9541 48 2
  188.0506 40 1
  188.0905 38 1
  188.1203 98 4
  188.1516 36 1
  189.1272 988 42
  189.1626 358 15
  189.2452 68 2
  189.3394 70 2
  190.005 62 2
  190.0266 94 4
  190.064 48 2
  190.1093 82 3
  190.1308 124 5
  190.1627 44 1
  190.2272 36 1
  190.2388 36 1
  190.2528 70 2
  190.965 64 2
  191.0778 58 2
  191.1028 48 2
  191.142 708 30
  191.1725 36 1
  191.234 56 2
  191.245 44 1
  191.2797 40 1
  191.9987 38 1
  192.1485 106 4
  192.2074 56 2
  192.2296 38 1
  192.2739 94 4
  192.2915 48 2
  192.9715 44 1
  193.102 38 1
  193.1617 68 2
  193.2187 38 1
  193.3159 82 3
  194.004 54 2
  194.023 44 1
  194.0514 60 2
  194.1648 72 3
  194.9946 62 2
  195.0792 60 2
  195.0909 66 2
  195.1177 234 10
  196.0155 64 2
  196.1192 62 2
  196.1408 78 3
  196.2039 44 1
  197.0696 52 2
  197.1082 42 1
  197.132 718 30
  197.2205 44 1
  197.3293 44 1
  198.0705 44 1
  198.1407 98 4
  199.1472 3632 155
  200.0044 40 1
  200.1204 68 2
  200.1306 72 3
  200.1523 482 20
  201.0148 62 2
  201.1247 232 9
  201.1438 58 2
  201.1633 442 18
  201.2128 118 5
  201.284 48 2
  201.2999 42 1
  201.3236 42 1
  201.352 162 6
  202.0144 68 2
  202.0362 90 3
  202.1267 78 3
  202.1648 98 4
  202.1831 44 1
  202.2378 134 5
  202.3283 36 1
  203.099 52 2
  203.1153 58 2
  203.1419 482 20
  203.1814 110 4
  203.329 44 1
  203.9559 54 2
  204.0085 40 1
  204.0408 38 1
  204.1466 44 1
  204.1854 74 3
  205.002 52 2
  205.1594 110 4
  206.0457 118 5
  206.2838 42 1
  206.9633 54 2
  207.1145 52 2
  208.0641 3524 150
  209.0142 52 2
  209.1317 992 42
  209.1684 82 3
  209.2517 88 3
  209.2615 104 4
  209.2905 70 2
  210.0335 42 1
  210.0572 90 3
  210.0723 98 4
  210.1 44 1
  210.1346 274 11
  210.2535 40 1
  210.2682 40 1
  210.9657 80 3
  211.1481 1230 52
  212.0282 38 1
  212.0541 60 2
  212.1125 52 2
  212.1505 328 14
  213.128 324 13
  213.1629 2762 118
  214.0279 36 1
  214.1285 158 6
  214.1665 478 20
  214.1958 38 1
  214.961 48 2
  215.0925 38 1
  215.1438 402 17
  215.1787 504 21
  215.2821 38 1
  216.1496 82 3
  216.1881 48 2
  216.991 44 1
  217.0201 36 1
  217.14 44 1
  217.1593 352 15
  217.1938 80 3
  218.1658 62 2
  218.3108 142 6
  218.3239 42 1
  219.116 52 2
  219.2073 36 1
  219.2989 74 3
  220.0965 50 2
  220.1767 40 1
  220.2098 80 3
  220.3094 124 5
  221.1292 50 2
  221.1512 56 2
  221.2076 48 2
  222.0779 128 5
  222.1167 50 2
  222.3497 36 1
  223.0012 62 2
  223.1486 1026 43
  223.976 108 4
  223.9969 52 2
  224.1048 36 1
  224.1367 48 2
  224.1489 188 8
  225.1634 1098 46
  225.9633 36 1
  226.1662 120 5
  226.317 38 1
  227.1421 1920 82
  227.1781 1042 44
  228.1273 46 1
  228.1458 262 11
  228.1812 242 10
  228.2419 44 1
  229.0041 56 2
  229.0997 90 3
  229.1595 610 26
  229.194 94 4
  229.2523 64 2
  229.2843 92 3
  229.9938 52 2
  230.0281 36 1
  230.1045 70 2
  230.1618 198 8
  230.1914 36 1
  230.2022 84 3
  230.2238 40 1
  230.32 38 1
  230.9965 52 2
  231.098 40 1
  231.1733 186 7
  231.1966 44 1
  232.1589 48 2
  232.2325 38 1
  232.3589 40 1
  232.9651 44 1
  233.1878 118 5
  233.2879 54 2
  233.3218 36 1
  234.0103 116 4
  234.0231 42 1
  234.0834 88 3
  234.1126 42 1
  234.2301 66 2
  234.2783 36 1
  235.1466 118 5
  235.1637 100 4
  236.0692 88 3
  236.0842 38 1
  236.0945 100 4
  236.1321 72 3
  236.1465 124 5
  237.0968 48 2
  237.1638 630 26
  238.1658 164 7
  239.1377 56 2
  239.1444 88 3
  239.1791 962 41
  239.9678 46 1
  240.0969 50 2
  240.1127 42 1
  240.1832 160 6
  240.2856 52 2
  241.0142 42 1
  241.0871 76 3
  241.1225 66 2
  241.158 780 33
  241.1942 788 33
  241.2769 62 2
  241.2851 62 2
  242.0586 44 1
  242.0792 54 2
  242.1622 170 7
  242.1944 144 6
  243.1317 62 2
  243.1468 52 2
  243.1735 292 12
  243.2109 80 3
  243.2283 42 1
  244.1781 46 1
  245.0706 86 3
  245.1947 102 4
  245.2455 36 1
  246.1533 44 1
  246.1964 54 2
  246.331 36 1
  247.1372 36 1
  247.1955 36 1
  247.9873 36 1
  248.0936 152 6
  248.1512 36 1
  248.1778 36 1
  248.2083 40 1
  248.2473 54 2
  248.3381 44 1
  249.1635 210 8
  249.2255 58 2
  250.0181 48 2
  250.0933 42 1
  250.1097 100 4
  250.1711 48 2
  250.9728 58 2
  251.0966 72 3
  251.1627 66 2
  251.1784 392 16
  252.0299 40 1
  252.1123 98 4
  252.1536 72 3
  252.1858 258 11
  252.9763 36 1
  253.084 76 3
  253.1363 58 2
  253.1547 56 2
  253.1947 430 18
  253.2797 48 2
  254.1532 58 2
  254.1727 70 2
  254.2012 326 13
  255.1721 508 21
  255.2096 356 15
  256.0969 36 1
  256.1786 78 3
  256.2131 40 1
  257.0944 52 2
  257.1062 36 1
  257.1887 368 15
  257.9938 36 1
  258.0824 56 2
  258.0928 48 2
  258.1809 40 1
  258.1927 84 3
  259.1686 100 4
  259.2075 48 2
  259.2323 48 2
  259.2594 60 2
  260.0957 130 5
  260.1642 80 3
  260.9715 60 2
  261.0907 46 1
  261.1476 38 1
  261.2206 56 2
  261.2503 38 1
  261.9386 80 3
  262.1086 316 13
  263.1793 692 29
  263.256 42 1
  263.2746 64 2
  263.9812 38 1
  264.1267 72 3
  264.1852 160 6
  264.345 42 1
  264.9802 42 1
  264.9957 70 2
  265.1941 186 7
  266.1714 40 1
  266.3396 80 3
  266.9572 52 2
  267.1741 252 10
  267.2148 100 4
  268.1396 72 3
  268.1761 88 3
  269.0082 36 1
  269.0853 40 1
  269.1895 368 15
  269.2255 50 2
  270.1934 332 14
  270.9819 40 1
  271.1235 80 3
  271.2043 238 10
  271.3016 60 2
  272.2107 106 4
  272.2477 48 2
  272.9735 44 1
  273.1638 36 1
  273.1893 148 6
  273.3047 58 2
  274.0861 52 2
  274.1117 130 5
  274.1804 66 2
  274.293 94 4
  275.0617 56 2
  275.1124 36 1
  275.1943 44 1
  275.2827 70 2
  276.1257 206 8
  276.3467 56 2
  276.9862 86 3
  277.1958 404 17
  277.2326 38 1
  277.2469 64 2
  277.3132 36 1
  278.0205 46 1
  278.048 62 2
  278.0684 102 4
  278.1987 58 2
  279.2094 246 10
  279.9867 40 1
  280.0944 38 1
  280.2349 40 1
  280.3343 44 1
  281.1899 394 16
  281.215 144 6
  281.2208 146 6
  281.2597 36 1
  281.3429 58 2
  281.9345 40 1
  282.192 128 5
  282.2301 50 2
  282.9516 36 1
  283.0994 50 2
  283.1398 40 1
  283.2117 80 3
  283.2437 90 3
  283.3282 50 2
  284.0461 38 1
  284.0891 62 2
  284.2689 62 2
  285.2897 36 1
  285.31 38 1
  286.0827 84 3
  286.112 102 4
  287.1146 56 2
  287.1944 44 1
  287.2743 48 2
  288.1274 690 29
  288.1722 42 1
  289.1346 112 4
  289.2148 88 3
  289.2389 46 1
  289.3331 64 2
  290.122 78 3
  290.1483 154 6
  290.2113 42 1
  290.9934 46 1
  291.1022 36 1
  291.1824 36 1
  291.2123 170 7
  291.2506 130 5
  291.9403 54 2
  292.2612 66 2
  293.1862 36 1
  293.2258 348 14
  293.945 78 3
  293.9834 42 1
  294.0694 70 2
  294.1059 72 3
  294.1427 72 3
  294.2305 202 8
  294.9699 66 2
  295.151 60 2
  295.2051 410 17
  295.2414 834 35
  295.9495 46 1
  295.9722 46 1
  296.2455 372 15
  297.1263 56 2
  297.2227 64 2
  297.2546 40 1
  297.9623 38 1
  298.1122 54 2
  299.0835 44 1
  299.2386 52 2
  300.0084 76 3
  300.1275 748 32
  300.2068 64 2
  300.2975 60 2
  300.335 46 1
  301.0199 42 1
  301.0402 56 2
  301.129 96 4
  302.0901 44 1
  302.139 428 18
  302.1997 74 3
  303.1434 116 4
  304.1335 106 4
  304.1573 80 3
  304.2203 58 2
  304.3031 42 1
  305.2176 82 3
  305.2708 48 2
  305.9582 124 5
  306.234 48 2
  306.2576 98 4
  307.1128 62 2
  307.2447 160 6
  308.0865 48 2
  308.2455 78 3
  309.2206 188 8
  309.2573 2578 110
  310.1451 74 3
  310.1537 120 5
  310.2226 56 2
  310.261 420 17
  311.0176 48 2
  311.1301 78 3
  311.146 60 2
  311.2385 100 4
  311.2637 84 3
  311.9877 54 2
  312.0117 38 1
  312.0283 56 2
  312.0562 92 3
  312.1209 50 2
  313.2389 40 1
  313.2547 86 3
  314.1424 888 38
  315.1438 194 8
  315.2641 78 3
  315.3161 36 1
  315.9608 80 3
  316.0045 50 2
  316.1299 40 1
  316.156 136 5
  317.1596 82 3
  317.2301 78 3
  317.306 36 1
  318.0773 36 1
  318.19 42 1
  318.2009 62 2
  318.2788 62 2
  318.2896 56 2
  319.2417 9776 418
  320.2451 2468 105
  320.9796 122 5
  321.0407 38 1
  321.2516 134 5
  321.276 46 1
  321.3508 52 2
  322.0338 50 2
  322.2769 70 2
  323.3441 50 2
  324.9427 120 5
  325.2302 42 1
  325.2512 472 20
  326.1423 114 4
  326.2255 60 2
  326.2544 136 5
  326.2918 38 1
  326.9714 36 1
  327.2682 442 18
  328.1589 74 3
  328.2685 78 3
  329.1657 36 1
  329.285 44 1
  330.1789 54 2
  330.2489 64 2
  330.9688 52 2
  333.1359 38 1
  333.2215 40 1
  334.1004 42 1
  334.9874 64 2
  336.1512 60 2
  336.2521 78 3
  336.3379 76 3
  337.2524 20294 868
  338.2555 4328 185
  339.259 516 22
  340.0494 38 1
  340.1625 110 4
  341.1895 60 2
  342.1755 374 16
  342.1974 50 2
  342.3078 40 1
  342.9839 92 3
  343.1686 106 4
  346.013 40 1
  346.9477 52 2
  347.0761 40 1
  348.3646 36 1
  349.0978 56 2
  349.1146 108 4
  352.1571 134 5
  353.1038 36 1
  353.1623 52 2
  353.1877 54 2
  353.3262 38 1
  354.1739 136 5
  354.2814 60 2
  355.2631 23340 999
  356.267 4358 186
  357.0049 36 1
  357.1834 48 2
  357.1968 60 2
  357.2718 382 16
  358.2014 38 1
  358.2764 94 4
  359.1363 54 2
  360.166 68 2
  361.9424 52 2
  362.067 50 2
  362.2528 74 3
  364.2583 38 1
  366.1699 196 8
  367.1763 40 1
  368.0162 82 3
  368.1818 120 5
  368.3632 38 1
  369.1022 42 1
  369.1948 72 3
  373.0825 48 2
  373.2663 136 5
  375.2578 64 2
  377.2328 40 1
  377.9796 62 2
  378.1659 42 1
  379.2845 52 2
  382.1999 220 9
  383.2067 48 2
  384.1492 46 1
  386.2793 48 2
  389.024 68 2
  391.0427 38 1
  394.1051 66 2
  394.1242 68 2
  394.2037 122 5
  395.2415 42 1
  396.2368 44 1
  397.2293 48 2
  398.0063 36 1
  406.2287 50 2
  408.2136 54 2
  417.1916 36 1
  419.2823 36 1
  420.2211 48 2
  422.0653 68 2
  422.1248 42 1
  424.2378 72 3
  426.2633 50 2
  428.1079 40 1
  433.051 36 1
  435.9788 56 2
  437.1985 68 2
  444.2512 124 5
  445.2061 38 1
  450.2676 336 14
  451.2646 48 2
  452.1315 38 1
  452.2928 48 2
  453.2892 36 1
  454.991 46 1
  460.1253 52 2
  462.2668 6822 291
  463.2697 1578 67
  463.9852 42 1
  464.1244 40 1
  464.2673 338 14
  464.3441 68 2
  465.2645 42 1
  470.0849 42 1
  474.9616 40 1
  480.277 1854 79
  481.2792 452 19
  481.3105 50 2
  482.2761 92 3
  484.0829 58 2
  498.2857 62 2
  509.128 60 2
  521.1223 66 2
//
