ACCESSION: MSBNK-BGC_Munich-RP009802
RECORD_TITLE: ascr#7; LC-ESI-QTOF; MS2; CE: 20; R=; [M+H]+
DATE: 2017.10.22
AUTHORS: BGC, Helmholtz Zentrum Muenchen
LICENSE: CC BY
COPYRIGHT: Copyright (C) 2017
COMMENT: CONFIDENCE standard compound
COMMENT: INTERNAL_ID 98
CH$NAME: ascr#7
CH$NAME: (E,6R)-6-[(2R,3R,5R,6S)-3,5-dihydroxy-6-methyloxan-2-yl]oxyhept-2-enoic acid
CH$COMPOUND_CLASS: N/A; Metabolomics Standard
CH$FORMULA: C13H22O6
CH$EXACT_MASS: 274.1416
CH$SMILES: C[C@H](CC\C=C\C(O)=O)O[C@@H]1O[C@@H](C)[C@H](O)C[C@H]1O
CH$IUPAC: InChI=1S/C13H22O6/c1-8(5-3-4-6-12(16)17)18-13-11(15)7-10(14)9(2)19-13/h4,6,8-11,13-15H,3,5,7H2,1-2H3,(H,16,17)/b6-4+/t8-,9+,10-,11-,13-/m1/s1
CH$LINK: CHEBI CHEBI:78830
CH$LINK: PUBCHEM CID:86289656
CH$LINK: INCHIKEY GGHOMCWJOMBZEK-LHYQPRBASA-N
CH$LINK: CHEMSPIDER 31150600
AC$INSTRUMENT: maXis plus UHR-ToF-MS, Bruker Daltonics
AC$INSTRUMENT_TYPE: LC-ESI-QTOF
AC$MASS_SPECTROMETRY: MS_TYPE MS2
AC$MASS_SPECTROMETRY: ION_MODE POSITIVE
AC$MASS_SPECTROMETRY: IONIZATION ESI
AC$MASS_SPECTROMETRY: FRAGMENTATION_MODE CID
AC$MASS_SPECTROMETRY: COLLISION_ENERGY 20
AC$CHROMATOGRAPHY: COLUMN_NAME BEH C18 1.7um, 2.1x100mm, Waters
AC$CHROMATOGRAPHY: FLOW_GRADIENT 95/5 at 0 min, 95/5 at 1.12 min, 0.5/99.5 at 6.41 min, 0.5/99.5 at 10.01 min
AC$CHROMATOGRAPHY: FLOW_RATE 400 uL/min
AC$CHROMATOGRAPHY: RETENTION_TIME 2.926 min
AC$CHROMATOGRAPHY: SOLVENT A Water with 0.1% formic acid
AC$CHROMATOGRAPHY: SOLVENT B ACN with 0.1% formic acid
MS$FOCUSED_ION: BASE_PEAK 275.1487
MS$FOCUSED_ION: PRECURSOR_M/Z 275.1489
MS$FOCUSED_ION: PRECURSOR_TYPE [M+H]+
MS$DATA_PROCESSING: REANALYZE Peaks with additional N2/O included
MS$DATA_PROCESSING: WHOLE RMassBank 2.4.0
PK$SPLASH: splash10-01qi-9600000000-5967594bb2e31b3b9842
PK$NUM_PEAK: 28
PK$PEAK: m/z int. rel.int.
  55.0175 412 26
  59.0489 138 8
  68.0585 86 5
  68.9972 44 2
  69.0329 158 10
  71.0485 3088 198
  81.0691 5404 347
  83.0487 8572 551
  85.0643 15522 999
  86.0146 68 4
  89.1319 68 4
  91.0606 36 2
  95.0487 2136 137
  99.0401 48 3
  109.0643 5048 324
  110.0684 444 28
  113.0594 11924 767
  114.0629 534 34
  115.0603 44 2
  127.075 4682 301
  131.0692 2036 131
  145.0879 74 4
  159.0549 62 3
  181.0485 38 2
  181.0766 44 2
  191.1269 46 2
  257.1356 152 9
  258.1418 160 10
//
