ACCESSION: MSBNK-BGC_Munich-RP029901
RECORD_TITLE: N-Oleoyl-Phenylalanine; LC-ESI-QTOF; MS2; CE: 10; R=; [M+H]+
DATE: 2017.10.27
AUTHORS: BGC, Helmholtz Zentrum Muenchen
LICENSE: CC BY
COPYRIGHT: Copyright (C) 2017
COMMENT: CONFIDENCE standard compound
COMMENT: INTERNAL_ID 299
CH$NAME: N-Oleoyl-Phenylalanine
CH$NAME: N-oleoyl phenylalanine
CH$NAME: (2S)-2-[[(Z)-octadec-9-enoyl]amino]-3-phenylpropanoic acid
CH$COMPOUND_CLASS: N/A; Metabolomics Standard
CH$FORMULA: C27H43NO3
CH$EXACT_MASS: 429.3243
CH$SMILES: CCCCCCCC/C=C\CCCCCCCC(=O)N[C@@H](CC1=CC=CC=C1)C(=O)O
CH$IUPAC: InChI=1S/C27H43NO3/c1-2-3-4-5-6-7-8-9-10-11-12-13-14-15-19-22-26(29)28-25(27(30)31)23-24-20-17-16-18-21-24/h9-10,16-18,20-21,25H,2-8,11-15,19,22-23H2,1H3,(H,28,29)(H,30,31)/b10-9-/t25-/m0/s1
CH$LINK: CHEBI CHEBI:134021
CH$LINK: LIPIDMAPS LMFA08020092
CH$LINK: PUBCHEM CID:52922059
CH$LINK: INCHIKEY UWKNPULCJWBBDD-JRUKXMRZSA-N
CH$LINK: CHEMSPIDER 58827530
AC$INSTRUMENT: maXis plus UHR-ToF-MS, Bruker Daltonics
AC$INSTRUMENT_TYPE: LC-ESI-QTOF
AC$MASS_SPECTROMETRY: MS_TYPE MS2
AC$MASS_SPECTROMETRY: ION_MODE POSITIVE
AC$MASS_SPECTROMETRY: IONIZATION ESI
AC$MASS_SPECTROMETRY: FRAGMENTATION_MODE CID
AC$MASS_SPECTROMETRY: COLLISION_ENERGY 10
AC$CHROMATOGRAPHY: COLUMN_NAME BEH C18 1.7um, 2.1x100mm, Waters
AC$CHROMATOGRAPHY: FLOW_GRADIENT 95/5 at 0 min, 95/5 at 1.12 min, 0.5/99.5 at 6.41 min, 0.5/99.5 at 10.01 min
AC$CHROMATOGRAPHY: FLOW_RATE 400 uL/min
AC$CHROMATOGRAPHY: RETENTION_TIME 7.193 min
AC$CHROMATOGRAPHY: SOLVENT A Water with 0.1% formic acid
AC$CHROMATOGRAPHY: SOLVENT B ACN with 0.1% formic acid
MS$FOCUSED_ION: BASE_PEAK 430.3314
MS$FOCUSED_ION: PRECURSOR_M/Z 430.3316
MS$FOCUSED_ION: PRECURSOR_TYPE [M+H]+
MS$DATA_PROCESSING: REANALYZE Peaks with additional N2/O included
MS$DATA_PROCESSING: WHOLE RMassBank 2.4.0
PK$SPLASH: splash10-001i-0000900000-1fc0c5a973edb90fc0ff
PK$NUM_PEAK: 10
PK$PEAK: m/z int. rel.int.
  120.0812 960 5
  166.0857 17828 97
  167.0899 954 5
  361.1983 192 1
  384.3267 1614 8
  385.3318 380 2
  412.3221 1346 7
  413.3223 266 1
  429.3198 348 1
  430.332 183580 999
//
