ACCESSION: MSBNK-BGC_Munich-RP010213
RECORD_TITLE: ascr#17; LC-ESI-QTOF; MS2; CE: 40; R=; [M-H]-
DATE: 2017.11.29
AUTHORS: BGC, Helmholtz Zentrum Muenchen
LICENSE: CC BY
COPYRIGHT: Copyright (C) 2017
COMMENT: CONFIDENCE standard compound
COMMENT: INTERNAL_ID 102
CH$NAME: ascr#17
CH$NAME: (E)-10-(3,5-dihydroxy-6-methyloxan-2-yl)oxyundec-2-enoic acid
CH$COMPOUND_CLASS: N/A; Metabolomics Standard
CH$FORMULA: C17H30O6
CH$EXACT_MASS: 330.2042
CH$SMILES: CC(CCCCCC\C=C\C(O)=O)OC1OC(C)C(O)CC1O
CH$IUPAC: InChI=1S/C17H30O6/c1-12(9-7-5-3-4-6-8-10-16(20)21)22-17-15(19)11-14(18)13(2)23-17/h8,10,12-15,17-19H,3-7,9,11H2,1-2H3,(H,20,21)/b10-8+
CH$LINK: CHEBI CHEBI:78952
CH$LINK: PUBCHEM CID:86289688
CH$LINK: INCHIKEY NEVPBIQTDNVVMK-CSKARUKUSA-N
AC$INSTRUMENT: maXis plus UHR-ToF-MS, Bruker Daltonics
AC$INSTRUMENT_TYPE: LC-ESI-QTOF
AC$MASS_SPECTROMETRY: MS_TYPE MS2
AC$MASS_SPECTROMETRY: ION_MODE NEGATIVE
AC$MASS_SPECTROMETRY: IONIZATION ESI
AC$MASS_SPECTROMETRY: FRAGMENTATION_MODE CID
AC$MASS_SPECTROMETRY: COLLISION_ENERGY 40
AC$CHROMATOGRAPHY: COLUMN_NAME BEH C18 1.7um, 2.1x100mm, Waters
AC$CHROMATOGRAPHY: FLOW_GRADIENT 95/5 at 0 min, 95/5 at 1.12 min, 0.5/99.5 at 6.41 min, 0.5/99.5 at 10.01 min
AC$CHROMATOGRAPHY: FLOW_RATE 400 uL/min
AC$CHROMATOGRAPHY: RETENTION_TIME 3.956 min
AC$CHROMATOGRAPHY: SOLVENT A Water with 0.1% formic acid
AC$CHROMATOGRAPHY: SOLVENT B ACN with 0.1% formic acid
MS$FOCUSED_ION: BASE_PEAK 329.1994
MS$FOCUSED_ION: PRECURSOR_M/Z 329.197
MS$FOCUSED_ION: PRECURSOR_TYPE [M-H]-
MS$DATA_PROCESSING: REANALYZE Peaks with additional N2/O included
MS$DATA_PROCESSING: WHOLE RMassBank 2.4.0
PK$SPLASH: splash10-001i-9000000000-3f08f5bae6ed9aa3995f
PK$NUM_PEAK: 15
PK$PEAK: m/z int. rel.int.
  80.0225 50 3
  81.0306 2292 150
  83.0464 15198 999
  87.0333 34 2
  97.0248 56 3
  109.0306 68 4
  111.0451 1002 65
  112.0489 128 8
  126.0347 60 3
  128.0515 30 1
  140.1161 48 3
  147.9655 36 2
  199.1071 28 1
  199.1384 316 20
  292.191 28 1
//
