ACCESSION: MSBNK-BGC_Munich-RP012602
RECORD_TITLE: Xanthosine; LC-ESI-QTOF; MS2; CE: 20; R=; [M+H]+
DATE: 2017.10.22
AUTHORS: BGC, Helmholtz Zentrum Muenchen
LICENSE: CC BY
COPYRIGHT: Copyright (C) 2017
COMMENT: CONFIDENCE standard compound
COMMENT: INTERNAL_ID 126
CH$NAME: Xanthosine
CH$NAME: 9-[(2R,3R,4S,5R)-3,4-dihydroxy-5-(hydroxymethyl)oxolan-2-yl]-3H-purine-2,6-dione
CH$COMPOUND_CLASS: N/A; Metabolomics Standard
CH$FORMULA: C10H12N4O6
CH$EXACT_MASS: 284.0757
CH$SMILES: OC[C@H]1O[C@H]([C@H](O)[C@@H]1O)N1C=NC2=C1NC(=O)NC2=O
CH$IUPAC: InChI=1S/C10H12N4O6/c15-1-3-5(16)6(17)9(20-3)14-2-11-4-7(14)12-10(19)13-8(4)18/h2-3,5-6,9,15-17H,1H2,(H2,12,13,18,19)/t3-,5-,6-,9-/m1/s1
CH$LINK: CAS 146-80-5
CH$LINK: CHEBI CHEBI:18107
CH$LINK: KEGG C01762
CH$LINK: PUBCHEM CID:64959
CH$LINK: INCHIKEY UBORTCNDUKBEOP-UUOKFMHZSA-N
CH$LINK: CHEMSPIDER 58484
AC$INSTRUMENT: maXis plus UHR-ToF-MS, Bruker Daltonics
AC$INSTRUMENT_TYPE: LC-ESI-QTOF
AC$MASS_SPECTROMETRY: MS_TYPE MS2
AC$MASS_SPECTROMETRY: ION_MODE POSITIVE
AC$MASS_SPECTROMETRY: IONIZATION ESI
AC$MASS_SPECTROMETRY: FRAGMENTATION_MODE CID
AC$MASS_SPECTROMETRY: COLLISION_ENERGY 20
AC$CHROMATOGRAPHY: COLUMN_NAME BEH C18 1.7um, 2.1x100mm, Waters
AC$CHROMATOGRAPHY: FLOW_GRADIENT 95/5 at 0 min, 95/5 at 1.12 min, 0.5/99.5 at 6.41 min, 0.5/99.5 at 10.01 min
AC$CHROMATOGRAPHY: FLOW_RATE 400 uL/min
AC$CHROMATOGRAPHY: RETENTION_TIME 0.725 min
AC$CHROMATOGRAPHY: SOLVENT A Water with 0.1% formic acid
AC$CHROMATOGRAPHY: SOLVENT B ACN with 0.1% formic acid
MS$FOCUSED_ION: BASE_PEAK 153.0404
MS$FOCUSED_ION: PRECURSOR_M/Z 285.083
MS$FOCUSED_ION: PRECURSOR_TYPE [M+H]+
MS$DATA_PROCESSING: REANALYZE Peaks with additional N2/O included
MS$DATA_PROCESSING: WHOLE RMassBank 2.4.0
PK$SPLASH: splash10-0udi-1900000000-8c93a2ffeff6d92f0259
PK$NUM_PEAK: 22
PK$PEAK: m/z int. rel.int.
  61.0278 184 19
  69.0327 466 48
  71.0114 104 10
  73.0277 658 68
  85.0276 380 39
  87.0435 110 11
  97.0278 310 32
  103.0355 72 7
  115.0389 216 22
  119.0583 60 6
  131.0469 38 3
  133.049 212 22
  135.0552 44 4
  136.0158 40 4
  149.982 56 5
  150.0881 52 5
  153.0401 9534 999
  154.0264 108 11
  154.0361 226 23
  154.045 656 68
  155.046 60 6
  157.0298 36 3
//
