ACCESSION: MSBNK-BGC_Munich-RP021513
RECORD_TITLE: 3-hydroxy-C8-homoserine lactone; LC-ESI-QTOF; MS2; CE: 40; R=; [M-H]-
DATE: 2017.11.29
AUTHORS: BGC, Helmholtz Zentrum Muenchen
LICENSE: CC BY
COPYRIGHT: Copyright (C) 2017
COMMENT: CONFIDENCE standard compound
COMMENT: INTERNAL_ID 215
CH$NAME: 3-hydroxy-C8-homoserine lactone
CH$NAME: 3-hydroxy-N-(2-oxooxolan-3-yl)octanamide
CH$COMPOUND_CLASS: N/A; Metabolomics Standard
CH$FORMULA: C12H21NO4
CH$EXACT_MASS: 243.1471
CH$SMILES: CCCCCC(O)CC(=O)NC1CCOC1=O
CH$IUPAC: InChI=1S/C12H21NO4/c1-2-3-4-5-9(14)8-11(15)13-10-6-7-17-12(10)16/h9-10,14H,2-8H2,1H3,(H,13,15)
CH$LINK: CAS 853799-77-6
CH$LINK: PUBCHEM CID:11586792
CH$LINK: INCHIKEY XCZVBYOXRSFQBH-UHFFFAOYSA-N
CH$LINK: CHEMSPIDER 9761556
CH$LINK: COMPTOX DTXSID20469014
AC$INSTRUMENT: maXis plus UHR-ToF-MS, Bruker Daltonics
AC$INSTRUMENT_TYPE: LC-ESI-QTOF
AC$MASS_SPECTROMETRY: MS_TYPE MS2
AC$MASS_SPECTROMETRY: ION_MODE NEGATIVE
AC$MASS_SPECTROMETRY: IONIZATION ESI
AC$MASS_SPECTROMETRY: FRAGMENTATION_MODE CID
AC$MASS_SPECTROMETRY: COLLISION_ENERGY 40
AC$CHROMATOGRAPHY: COLUMN_NAME BEH C18 1.7um, 2.1x100mm, Waters
AC$CHROMATOGRAPHY: FLOW_GRADIENT 95/5 at 0 min, 95/5 at 1.12 min, 0.5/99.5 at 6.41 min, 0.5/99.5 at 10.01 min
AC$CHROMATOGRAPHY: FLOW_RATE 400 uL/min
AC$CHROMATOGRAPHY: RETENTION_TIME 3.592 min
AC$CHROMATOGRAPHY: SOLVENT A Water with 0.1% formic acid
AC$CHROMATOGRAPHY: SOLVENT B ACN with 0.1% formic acid
MS$FOCUSED_ION: BASE_PEAK 242.1377
MS$FOCUSED_ION: PRECURSOR_M/Z 242.1398
MS$FOCUSED_ION: PRECURSOR_TYPE [M-H]-
MS$DATA_PROCESSING: REANALYZE Peaks with additional N2/O included
MS$DATA_PROCESSING: WHOLE RMassBank 2.4.0
PK$SPLASH: splash10-03xr-6900000000-f6dce3f9cc5eb40b5df5
PK$NUM_PEAK: 6
PK$PEAK: m/z int. rel.int.
  68.0595 132 74
  69.043 1078 611
  80.0274 28 15
  85.0525 90 51
  112.041 1760 999
  124.0395 142 80
//
