ACCESSION: MSBNK-BGC_Munich-RP014701
RECORD_TITLE: D-sphingosine; LC-ESI-QTOF; MS2; CE: 10; R=; [M+H]+
DATE: 2017.10.24
AUTHORS: BGC, Helmholtz Zentrum Muenchen
LICENSE: CC BY
COPYRIGHT: Copyright (C) 2017
COMMENT: CONFIDENCE standard compound
COMMENT: INTERNAL_ID 147
CH$NAME: D-sphingosine
CH$NAME: sphingosine
CH$NAME: (E,2S,3R)-2-aminooctadec-4-ene-1,3-diol
CH$COMPOUND_CLASS: N/A; Metabolomics Standard
CH$FORMULA: C18H37NO2
CH$EXACT_MASS: 299.2824
CH$SMILES: CCCCCCCCCCCCC/C=C/[C@H]([C@H](CO)N)O
CH$IUPAC: InChI=1S/C18H37NO2/c1-2-3-4-5-6-7-8-9-10-11-12-13-14-15-18(21)17(19)16-20/h14-15,17-18,20-21H,2-13,16,19H2,1H3/b15-14+/t17-,18+/m0/s1
CH$LINK: CAS 123-78-4
CH$LINK: CHEBI CHEBI:16393
CH$LINK: KEGG C00319
CH$LINK: LIPIDMAPS LMSP01010001
CH$LINK: PUBCHEM CID:5280335
CH$LINK: INCHIKEY WWUZIQQURGPMPG-KRWOKUGFSA-N
CH$LINK: CHEMSPIDER 4444047
CH$LINK: COMPTOX DTXSID90861763
AC$INSTRUMENT: maXis plus UHR-ToF-MS, Bruker Daltonics
AC$INSTRUMENT_TYPE: LC-ESI-QTOF
AC$MASS_SPECTROMETRY: MS_TYPE MS2
AC$MASS_SPECTROMETRY: ION_MODE POSITIVE
AC$MASS_SPECTROMETRY: IONIZATION ESI
AC$MASS_SPECTROMETRY: FRAGMENTATION_MODE CID
AC$MASS_SPECTROMETRY: COLLISION_ENERGY 10
AC$CHROMATOGRAPHY: COLUMN_NAME BEH C18 1.7um, 2.1x100mm, Waters
AC$CHROMATOGRAPHY: FLOW_GRADIENT 95/5 at 0 min, 95/5 at 1.12 min, 0.5/99.5 at 6.41 min, 0.5/99.5 at 10.01 min
AC$CHROMATOGRAPHY: FLOW_RATE 400 uL/min
AC$CHROMATOGRAPHY: RETENTION_TIME 5.325 min
AC$CHROMATOGRAPHY: SOLVENT A Water with 0.1% formic acid
AC$CHROMATOGRAPHY: SOLVENT B ACN with 0.1% formic acid
MS$FOCUSED_ION: BASE_PEAK 282.2787
MS$FOCUSED_ION: PRECURSOR_M/Z 300.2897
MS$FOCUSED_ION: PRECURSOR_TYPE [M+H]+
MS$DATA_PROCESSING: REANALYZE Peaks with additional N2/O included
MS$DATA_PROCESSING: WHOLE RMassBank 2.4.0
PK$SPLASH: splash10-001i-0091000000-2e051223b493d6c58b1d
PK$NUM_PEAK: 19
PK$PEAK: m/z int. rel.int.
  81.0692 2328 2
  83.0849 1482 1
  93.0694 1276 1
  95.0846 2778 2
  97.1006 1394 1
  109.1004 1486 1
  121.1012 1902 1
  135.1168 1246 1
  211.205 15744 13
  247.242 2054 1
  252.2681 16086 14
  253.2711 1988 1
  264.2679 5968 5
  265.2521 6636 5
  266.2572 1286 1
  282.2787 1147410 999
  283.2821 244922 213
  300.2892 301676 262
  302.295 4814 4
//
