ACCESSION: MSBNK-BGC_Munich-RP005201
RECORD_TITLE: Glycochenodeoxycholate; LC-ESI-QTOF; MS2; CE: 10; R=; [M+H]+
DATE: 2017.10.21
AUTHORS: BGC, Helmholtz Zentrum Muenchen
LICENSE: CC BY
COPYRIGHT: Copyright (C) 2017
COMMENT: CONFIDENCE standard compound
COMMENT: INTERNAL_ID 52
CH$NAME: Glycochenodeoxycholate
CH$NAME: GLYCOCHENODEOXYCHOLIC ACID
CH$NAME: 2-[[(4R)-4-[(3R,5S,7R,8R,9S,10S,13R,14S,17R)-3,7-dihydroxy-10,13-dimethyl-2,3,4,5,6,7,8,9,11,12,14,15,16,17-tetradecahydro-1H-cyclopenta[a]phenanthren-17-yl]pentanoyl]amino]acetic acid
CH$COMPOUND_CLASS: N/A; Metabolomics Standard
CH$FORMULA: C26H43NO5
CH$EXACT_MASS: 449.3141
CH$SMILES: C[C@H](CC/C(=N/CC(=O)O)/O)[C@H]1CC[C@@H]2[C@@]1(CC[C@H]3[C@H]2[C@@H](C[C@H]4[C@@]3(CC[C@H](C4)O)C)O)C
CH$IUPAC: InChI=1S/C26H43NO5/c1-15(4-7-22(30)27-14-23(31)32)18-5-6-19-24-20(9-11-26(18,19)3)25(2)10-8-17(28)12-16(25)13-21(24)29/h15-21,24,28-29H,4-14H2,1-3H3,(H,27,30)(H,31,32)/t15-,16+,17-,18-,19+,20+,21-,24+,25+,26-/m1/s1
CH$LINK: CAS 640-79-9
CH$LINK: CHEBI CHEBI:36274
CH$LINK: KEGG C05466
CH$LINK: LIPIDMAPS LMST05030008
CH$LINK: PUBCHEM CID:12544
CH$LINK: INCHIKEY GHCZAUBVMUEKKP-GYPHWSFCSA-N
CH$LINK: CHEMSPIDER 12027
AC$INSTRUMENT: maXis plus UHR-ToF-MS, Bruker Daltonics
AC$INSTRUMENT_TYPE: LC-ESI-QTOF
AC$MASS_SPECTROMETRY: MS_TYPE MS2
AC$MASS_SPECTROMETRY: ION_MODE POSITIVE
AC$MASS_SPECTROMETRY: IONIZATION ESI
AC$MASS_SPECTROMETRY: FRAGMENTATION_MODE CID
AC$MASS_SPECTROMETRY: COLLISION_ENERGY 10
AC$CHROMATOGRAPHY: COLUMN_NAME BEH C18 1.7um, 2.1x100mm, Waters
AC$CHROMATOGRAPHY: FLOW_GRADIENT 95/5 at 0 min, 95/5 at 1.12 min, 0.5/99.5 at 6.41 min, 0.5/99.5 at 10.01 min
AC$CHROMATOGRAPHY: FLOW_RATE 400 uL/min
AC$CHROMATOGRAPHY: RETENTION_TIME 4.724 min
AC$CHROMATOGRAPHY: SOLVENT A Water with 0.1% formic acid
AC$CHROMATOGRAPHY: SOLVENT B ACN with 0.1% formic acid
MS$FOCUSED_ION: BASE_PEAK 450.3209
MS$FOCUSED_ION: PRECURSOR_M/Z 450.3214
MS$FOCUSED_ION: PRECURSOR_TYPE [M+H]+
MS$DATA_PROCESSING: REANALYZE Peaks with additional N2/O included
MS$DATA_PROCESSING: WHOLE RMassBank 2.4.0
PK$SPLASH: splash10-0f89-0000900000-fe2363d427f771a62312
PK$NUM_PEAK: 16
PK$PEAK: m/z int. rel.int.
  330.3148 210 1
  339.268 856 4
  361.1084 202 1
  401.0658 224 1
  414.3003 110468 548
  414.3208 5830 28
  415.3039 26564 131
  416.3064 3196 15
  417.3121 228 1
  431.3154 222 1
  432.3108 201282 999
  433.3139 68512 340
  434.3179 7766 38
  435.3195 368 1
  450.3213 156346 775
  452.3279 6500 32
//
