ACCESSION: MSBNK-BGC_Munich-RP015513
RECORD_TITLE: 2-Hydroxyphenylacetic acid; LC-ESI-QTOF; MS2; CE: 40; R=; [M-H]-
DATE: 2017.11.29
AUTHORS: BGC, Helmholtz Zentrum Muenchen
LICENSE: CC BY
COPYRIGHT: Copyright (C) 2017
COMMENT: CONFIDENCE standard compound
COMMENT: INTERNAL_ID 155
CH$NAME: 2-Hydroxyphenylacetic acid
CH$NAME: 2-(2-hydroxyphenyl)acetic acid
CH$COMPOUND_CLASS: N/A; Metabolomics Standard
CH$FORMULA: C8H8O3
CH$EXACT_MASS: 152.0473
CH$SMILES: OC(=O)Cc1ccccc1O
CH$IUPAC: InChI=1S/C8H8O3/c9-7-4-2-1-3-6(7)5-8(10)11/h1-4,9H,5H2,(H,10,11)
CH$LINK: CAS 614-75-5
CH$LINK: CHEBI CHEBI:28478
CH$LINK: KEGG C05852
CH$LINK: PUBCHEM CID:11970
CH$LINK: INCHIKEY CCVYRRGZDBSHFU-UHFFFAOYSA-N
CH$LINK: CHEMSPIDER 11476
CH$LINK: COMPTOX DTXSID1060633
AC$INSTRUMENT: maXis plus UHR-ToF-MS, Bruker Daltonics
AC$INSTRUMENT_TYPE: LC-ESI-QTOF
AC$MASS_SPECTROMETRY: MS_TYPE MS2
AC$MASS_SPECTROMETRY: ION_MODE NEGATIVE
AC$MASS_SPECTROMETRY: IONIZATION ESI
AC$MASS_SPECTROMETRY: FRAGMENTATION_MODE CID
AC$MASS_SPECTROMETRY: COLLISION_ENERGY 40
AC$CHROMATOGRAPHY: COLUMN_NAME BEH C18 1.7um, 2.1x100mm, Waters
AC$CHROMATOGRAPHY: FLOW_GRADIENT 95/5 at 0 min, 95/5 at 1.12 min, 0.5/99.5 at 6.41 min, 0.5/99.5 at 10.01 min
AC$CHROMATOGRAPHY: FLOW_RATE 400 uL/min
AC$CHROMATOGRAPHY: RETENTION_TIME 3.029 min
AC$CHROMATOGRAPHY: SOLVENT A Water with 0.1% formic acid
AC$CHROMATOGRAPHY: SOLVENT B ACN with 0.1% formic acid
MS$FOCUSED_ION: BASE_PEAK 107.0502
MS$FOCUSED_ION: PRECURSOR_M/Z 151.0401
MS$FOCUSED_ION: PRECURSOR_TYPE [M-H]-
MS$DATA_PROCESSING: REANALYZE Peaks with additional N2/O included
MS$DATA_PROCESSING: WHOLE RMassBank 2.4.0
PK$SPLASH: splash10-0a4i-1900000000-bd8c8286e031da5cb96c
PK$NUM_PEAK: 6
PK$PEAK: m/z int. rel.int.
  64.0317 92 34
  79.0561 204 76
  92.0275 134 50
  106.0425 760 284
  107.0503 2672 999
  121.0302 36 13
//
