ACCESSION: MSBNK-BGC_Munich-RP001511
RECORD_TITLE: L-Asparagine; LC-ESI-QTOF; MS2; CE: 10; R=; [M-H]-
DATE: 2017.10.20
AUTHORS: BGC, Helmholtz Zentrum Muenchen
LICENSE: CC BY
COPYRIGHT: Copyright (C) 2017
COMMENT: CONFIDENCE standard compound
COMMENT: INTERNAL_ID 15
CH$NAME: L-Asparagine
CH$NAME: (2S)-2,4-diamino-4-oxobutanoic acid
CH$COMPOUND_CLASS: N/A; Metabolomics Standard
CH$FORMULA: C4H8N2O3
CH$EXACT_MASS: 132.05349
CH$SMILES: C([C@@H](C(=O)O)N)C(=N)O
CH$IUPAC: InChI=1S/C4H8N2O3/c5-2(4(8)9)1-3(6)7/h2H,1,5H2,(H2,6,7)(H,8,9)/t2-/m0/s1
CH$LINK: CAS 70-47-3
CH$LINK: CHEBI CHEBI:17196
CH$LINK: KEGG C00152
CH$LINK: PUBCHEM CID:6267
CH$LINK: INCHIKEY DCXYFEDJOCDNAF-REOHCLBHSA-N
CH$LINK: CHEMSPIDER 6031
CH$LINK: COMPTOX DTXSID10883220
AC$INSTRUMENT: maXis plus UHR-ToF-MS, Bruker Daltonics
AC$INSTRUMENT_TYPE: LC-ESI-QTOF
AC$MASS_SPECTROMETRY: MS_TYPE MS2
AC$MASS_SPECTROMETRY: ION_MODE NEGATIVE
AC$MASS_SPECTROMETRY: IONIZATION ESI
AC$MASS_SPECTROMETRY: FRAGMENTATION_MODE CID
AC$MASS_SPECTROMETRY: COLLISION_ENERGY 10
AC$CHROMATOGRAPHY: COLUMN_NAME BEH C18 1.7um, 2.1x100mm, Waters
AC$CHROMATOGRAPHY: FLOW_GRADIENT 95/5 at 0 min, 95/5 at 1.12 min, 0.5/99.5 at 6.41 min, 0.5/99.5 at 10.01 min
AC$CHROMATOGRAPHY: FLOW_RATE 400 uL/min
AC$CHROMATOGRAPHY: RETENTION_TIME 0.573 min
AC$CHROMATOGRAPHY: SOLVENT A Water with 0.1% formic acid
AC$CHROMATOGRAPHY: SOLVENT B ACN with 0.1% formic acid
MS$FOCUSED_ION: BASE_PEAK 69.0045
MS$FOCUSED_ION: PRECURSOR_M/Z 131.0462
MS$FOCUSED_ION: PRECURSOR_TYPE [M-H]-
MS$DATA_PROCESSING: REANALYZE Peaks with additional N2/O included
MS$DATA_PROCESSING: WHOLE RMassBank 2.4.0
PK$SPLASH: splash10-03e9-0900000000-31332f52696958b2083f
PK$NUM_PEAK: 3
PK$PEAK: m/z int. rel.int.
  113.0366 494 999
  114.0201 426 861
  131.0466 480 970
//
