ACCESSION: MSBNK-BGC_Munich-RP032202
RECORD_TITLE: 5-Methylcytidine; LC-ESI-QTOF; MS2; CE: 20; R=; [M+H]+
DATE: 2017.10.27
AUTHORS: BGC, Helmholtz Zentrum Muenchen
LICENSE: CC BY
COPYRIGHT: Copyright (C) 2017
COMMENT: CONFIDENCE standard compound
COMMENT: INTERNAL_ID 322
CH$NAME: 5-Methylcytidine
CH$NAME: 4-amino-1-[(2R,3R,4S,5R)-3,4-dihydroxy-5-(hydroxymethyl)oxolan-2-yl]-5-methylpyrimidin-2-one
CH$COMPOUND_CLASS: N/A; Metabolomics Standard
CH$FORMULA: C10H15N3O5
CH$EXACT_MASS: 257.1012
CH$SMILES: Cc1cn(c(=O)nc1N)[C@H]2[C@@H]([C@@H]([C@H](O2)CO)O)O
CH$IUPAC: InChI=1S/C10H15N3O5/c1-4-2-13(10(17)12-8(4)11)9-7(16)6(15)5(3-14)18-9/h2,5-7,9,14-16H,3H2,1H3,(H2,11,12,17)/t5-,6-,7-,9-/m1/s1
CH$LINK: CAS 2140-61-6
CH$LINK: CHEBI CHEBI:20607
CH$LINK: PUBCHEM CID:92918
CH$LINK: INCHIKEY ZAYHVCMSTBRABG-JXOAFFINSA-N
CH$LINK: CHEMSPIDER 83877
AC$INSTRUMENT: maXis plus UHR-ToF-MS, Bruker Daltonics
AC$INSTRUMENT_TYPE: LC-ESI-QTOF
AC$MASS_SPECTROMETRY: MS_TYPE MS2
AC$MASS_SPECTROMETRY: ION_MODE POSITIVE
AC$MASS_SPECTROMETRY: IONIZATION ESI
AC$MASS_SPECTROMETRY: FRAGMENTATION_MODE CID
AC$MASS_SPECTROMETRY: COLLISION_ENERGY 20
AC$CHROMATOGRAPHY: COLUMN_NAME BEH C18 1.7um, 2.1x100mm, Waters
AC$CHROMATOGRAPHY: FLOW_GRADIENT 95/5 at 0 min, 95/5 at 1.12 min, 0.5/99.5 at 6.41 min, 0.5/99.5 at 10.01 min
AC$CHROMATOGRAPHY: FLOW_RATE 400 uL/min
AC$CHROMATOGRAPHY: RETENTION_TIME 0.657 min
AC$CHROMATOGRAPHY: SOLVENT A Water with 0.1% formic acid
AC$CHROMATOGRAPHY: SOLVENT B ACN with 0.1% formic acid
MS$FOCUSED_ION: BASE_PEAK 126.0663
MS$FOCUSED_ION: PRECURSOR_M/Z 258.1084
MS$FOCUSED_ION: PRECURSOR_TYPE [M+H]+
MS$DATA_PROCESSING: REANALYZE Peaks with additional N2/O included
MS$DATA_PROCESSING: WHOLE RMassBank 2.4.0
PK$SPLASH: splash10-004i-0900000000-733b926f96fff30fd74d
PK$NUM_PEAK: 14
PK$PEAK: m/z int. rel.int.
  57.0326 296 2
  61.0274 198 1
  69.0323 326 2
  73.028 580 4
  83.06 760 6
  85.0277 638 5
  87.043 138 1
  103.0397 262 2
  109.0393 674 5
  115.0387 266 2
  126.0663 123752 999
  127.0691 6684 53
  128.0707 416 3
  133.0483 280 2
//
