ACCESSION: MSBNK-BGC_Munich-RP022711
RECORD_TITLE: D-Ribose; LC-ESI-QTOF; MS2; CE: 10; R=; [M-H]-
DATE: 2017.11.29
AUTHORS: BGC, Helmholtz Zentrum Muenchen
LICENSE: CC BY
COPYRIGHT: Copyright (C) 2017
COMMENT: CONFIDENCE standard compound
COMMENT: INTERNAL_ID 227
CH$NAME: D-Ribose
CH$NAME: (2R,3R,4R)-2,3,4,5-tetrahydroxypentanal
CH$COMPOUND_CLASS: N/A; Metabolomics Standard
CH$FORMULA: C5H10O5
CH$EXACT_MASS: 150.0528
CH$SMILES: C([C@H]([C@H]([C@H](C=O)O)O)O)O
CH$IUPAC: InChI=1S/C5H10O5/c6-1-3(8)5(10)4(9)2-7/h1,3-5,7-10H,2H2/t3-,4+,5-/m0/s1
CH$LINK: CAS 50-69-1
CH$LINK: CHEBI CHEBI:47014
CH$LINK: PUBCHEM CID:5311110
CH$LINK: INCHIKEY PYMYPHUHKUWMLA-LMVFSUKVSA-N
CH$LINK: CHEMSPIDER 4470639
CH$LINK: COMPTOX DTXSID6043917
AC$INSTRUMENT: maXis plus UHR-ToF-MS, Bruker Daltonics
AC$INSTRUMENT_TYPE: LC-ESI-QTOF
AC$MASS_SPECTROMETRY: MS_TYPE MS2
AC$MASS_SPECTROMETRY: ION_MODE NEGATIVE
AC$MASS_SPECTROMETRY: IONIZATION ESI
AC$MASS_SPECTROMETRY: FRAGMENTATION_MODE CID
AC$MASS_SPECTROMETRY: COLLISION_ENERGY 10
AC$CHROMATOGRAPHY: COLUMN_NAME BEH C18 1.7um, 2.1x100mm, Waters
AC$CHROMATOGRAPHY: FLOW_GRADIENT 95/5 at 0 min, 95/5 at 1.12 min, 0.5/99.5 at 6.41 min, 0.5/99.5 at 10.01 min
AC$CHROMATOGRAPHY: FLOW_RATE 400 uL/min
AC$CHROMATOGRAPHY: RETENTION_TIME 0.616 min
AC$CHROMATOGRAPHY: SOLVENT A Water with 0.1% formic acid
AC$CHROMATOGRAPHY: SOLVENT B ACN with 0.1% formic acid
MS$FOCUSED_ION: BASE_PEAK 89.0247
MS$FOCUSED_ION: PRECURSOR_M/Z 149.0455
MS$FOCUSED_ION: PRECURSOR_TYPE [M-H]-
MS$DATA_PROCESSING: REANALYZE Peaks with additional N2/O included
MS$DATA_PROCESSING: WHOLE RMassBank 2.4.0
PK$SPLASH: splash10-0600-9400000000-ea23101aa7c763a651e6
PK$NUM_PEAK: 3
PK$PEAK: m/z int. rel.int.
  59.0135 42 912
  71.0137 46 999
  167.0306 40 868
//
