ACCESSION: MSBNK-BGC_Munich-RP007401
RECORD_TITLE: Glycohyocholic acid; LC-ESI-QTOF; MS2; CE: 10; R=; [M+H]+
DATE: 2017.10.21
AUTHORS: BGC, Helmholtz Zentrum Muenchen
LICENSE: CC BY
COPYRIGHT: Copyright (C) 2017
COMMENT: CONFIDENCE standard compound
COMMENT: INTERNAL_ID 74
CH$NAME: Glycohyocholic acid
CH$NAME: AM022340
CH$NAME: 2-[4-(3,6,7-trihydroxy-10,13-dimethyl-2,3,4,5,6,7,8,9,11,12,14,15,16,17-tetradecahydro-1H-cyclopenta[a]phenanthren-17-yl)pentanoylamino]acetic acid
CH$COMPOUND_CLASS: N/A; Metabolomics Standard
CH$FORMULA: C26H43NO6
CH$EXACT_MASS: 465.3090
CH$SMILES: CC(CCC(=O)NCC(=O)O)C1CCC2C1(CCC3C2C(C(C4C3(CCC(C4)O)C)O)O)C
CH$IUPAC: InChI=1S/C26H43NO6/c1-14(4-7-20(29)27-13-21(30)31)16-5-6-17-22-18(9-11-25(16,17)2)26(3)10-8-15(28)12-19(26)23(32)24(22)33/h14-19,22-24,28,32-33H,4-13H2,1-3H3,(H,27,29)(H,30,31)
CH$LINK: CAS 32747-08-3
CH$LINK: PUBCHEM CID:13955647
CH$LINK: INCHIKEY ZQYUKJFJPJDMMR-UHFFFAOYSA-N
AC$INSTRUMENT: maXis plus UHR-ToF-MS, Bruker Daltonics
AC$INSTRUMENT_TYPE: LC-ESI-QTOF
AC$MASS_SPECTROMETRY: MS_TYPE MS2
AC$MASS_SPECTROMETRY: ION_MODE POSITIVE
AC$MASS_SPECTROMETRY: IONIZATION ESI
AC$MASS_SPECTROMETRY: FRAGMENTATION_MODE CID
AC$MASS_SPECTROMETRY: COLLISION_ENERGY 10
AC$CHROMATOGRAPHY: COLUMN_NAME BEH C18 1.7um, 2.1x100mm, Waters
AC$CHROMATOGRAPHY: FLOW_GRADIENT 95/5 at 0 min, 95/5 at 1.12 min, 0.5/99.5 at 6.41 min, 0.5/99.5 at 10.01 min
AC$CHROMATOGRAPHY: FLOW_RATE 400 uL/min
AC$CHROMATOGRAPHY: RETENTION_TIME 4.069 min
AC$CHROMATOGRAPHY: SOLVENT A Water with 0.1% formic acid
AC$CHROMATOGRAPHY: SOLVENT B ACN with 0.1% formic acid
MS$FOCUSED_ION: BASE_PEAK 466.3164
MS$FOCUSED_ION: PRECURSOR_M/Z 466.3163
MS$FOCUSED_ION: PRECURSOR_TYPE [M+H]+
MS$DATA_PROCESSING: REANALYZE Peaks with additional N2/O included
MS$DATA_PROCESSING: WHOLE RMassBank 2.4.0
PK$SPLASH: splash10-014j-0000900000-d94325f6fbcb3298a08a
PK$NUM_PEAK: 14
PK$PEAK: m/z int. rel.int.
  76.0386 496 1
  337.2558 770 2
  355.2641 624 2
  412.2848 8628 31
  413.2878 1560 5
  430.2956 97706 361
  431.299 23464 86
  432.3016 3284 12
  448.3063 121692 450
  449.3096 35026 129
  450.3132 4128 15
  451.3077 356 1
  466.3165 269724 999
  468.3232 15328 56
//
