ACCESSION: MSBNK-BGC_Munich-RP021312
RECORD_TITLE: 3-hydroxy-C4-homoserine lactone; LC-ESI-QTOF; MS2; CE: 20; R=; [M-H]-
DATE: 2017.11.29
AUTHORS: BGC, Helmholtz Zentrum Muenchen
LICENSE: CC BY
COPYRIGHT: Copyright (C) 2017
COMMENT: CONFIDENCE standard compound
COMMENT: INTERNAL_ID 213
CH$NAME: 3-hydroxy-C4-homoserine lactone
CH$NAME: 3-hydroxy-N-(2-oxooxolan-3-yl)butanamide
CH$COMPOUND_CLASS: N/A; Metabolomics Standard
CH$FORMULA: C8H13NO4
CH$EXACT_MASS: 187.0845
CH$SMILES: CC(O)CC(=O)NC1CCOC1=O
CH$IUPAC: InChI=1S/C8H13NO4/c1-5(10)4-7(11)9-6-2-3-13-8(6)12/h5-6,10H,2-4H2,1H3,(H,9,11)
CH$LINK: CAS 126049-72-7
CH$LINK: PUBCHEM CID:130846
CH$LINK: INCHIKEY FIXDIFPJOFIIEC-UHFFFAOYSA-N
CH$LINK: CHEMSPIDER 115719
CH$LINK: COMPTOX DTXSID00925385
AC$INSTRUMENT: maXis plus UHR-ToF-MS, Bruker Daltonics
AC$INSTRUMENT_TYPE: LC-ESI-QTOF
AC$MASS_SPECTROMETRY: MS_TYPE MS2
AC$MASS_SPECTROMETRY: ION_MODE NEGATIVE
AC$MASS_SPECTROMETRY: IONIZATION ESI
AC$MASS_SPECTROMETRY: FRAGMENTATION_MODE CID
AC$MASS_SPECTROMETRY: COLLISION_ENERGY 20
AC$CHROMATOGRAPHY: COLUMN_NAME BEH C18 1.7um, 2.1x100mm, Waters
AC$CHROMATOGRAPHY: FLOW_GRADIENT 95/5 at 0 min, 95/5 at 1.12 min, 0.5/99.5 at 6.41 min, 0.5/99.5 at 10.01 min
AC$CHROMATOGRAPHY: FLOW_RATE 400 uL/min
AC$CHROMATOGRAPHY: RETENTION_TIME 0.903 min
AC$CHROMATOGRAPHY: SOLVENT A Water with 0.1% formic acid
AC$CHROMATOGRAPHY: SOLVENT B ACN with 0.1% formic acid
MS$FOCUSED_ION: BASE_PEAK 186.0781
MS$FOCUSED_ION: PRECURSOR_M/Z 186.0772
MS$FOCUSED_ION: PRECURSOR_TYPE [M-H]-
MS$DATA_PROCESSING: REANALYZE Peaks with additional N2/O included
MS$DATA_PROCESSING: WHOLE RMassBank 2.4.0
PK$SPLASH: splash10-01q9-9500000000-3e1509c8e5db3e663359
PK$NUM_PEAK: 5
PK$PEAK: m/z int. rel.int.
  68.0511 28 36
  80.0502 44 57
  84.0457 764 999
  112.0408 396 517
  142.0514 134 175
//
