ACCESSION: MSBNK-BGC_Munich-RP019001
RECORD_TITLE: Phenanzine-1-carboxylic acid; LC-ESI-QTOF; MS2; CE: 10; R=; [M+H]+
DATE: 2017.10.25
AUTHORS: BGC, Helmholtz Zentrum Muenchen
LICENSE: CC BY
COPYRIGHT: Copyright (C) 2017
COMMENT: CONFIDENCE standard compound
COMMENT: INTERNAL_ID 190
CH$NAME: Phenanzine-1-carboxylic acid
CH$NAME: phenazine-1-carboxylic acid
CH$COMPOUND_CLASS: N/A; Metabolomics Standard
CH$FORMULA: C13H8N2O2
CH$EXACT_MASS: 224.05858
CH$SMILES: c1ccc2c(c1)nc3cccc(c3n2)C(=O)O
CH$IUPAC: InChI=1S/C13H8N2O2/c16-13(17)8-4-3-7-11-12(8)15-10-6-2-1-5-9(10)14-11/h1-7H,(H,16,17)
CH$LINK: CAS 2538-68-3
CH$LINK: CHEBI CHEBI:62412
CH$LINK: PUBCHEM CID:95069
CH$LINK: INCHIKEY JGCSKOVQDXEQHI-UHFFFAOYSA-N
CH$LINK: CHEMSPIDER 85784
CH$LINK: COMPTOX DTXSID30180026
AC$INSTRUMENT: maXis plus UHR-ToF-MS, Bruker Daltonics
AC$INSTRUMENT_TYPE: LC-ESI-QTOF
AC$MASS_SPECTROMETRY: MS_TYPE MS2
AC$MASS_SPECTROMETRY: ION_MODE POSITIVE
AC$MASS_SPECTROMETRY: IONIZATION ESI
AC$MASS_SPECTROMETRY: FRAGMENTATION_MODE CID
AC$MASS_SPECTROMETRY: COLLISION_ENERGY 10
AC$CHROMATOGRAPHY: COLUMN_NAME BEH C18 1.7um, 2.1x100mm, Waters
AC$CHROMATOGRAPHY: FLOW_GRADIENT 95/5 at 0 min, 95/5 at 1.12 min, 0.5/99.5 at 6.41 min, 0.5/99.5 at 10.01 min
AC$CHROMATOGRAPHY: FLOW_RATE 400 uL/min
AC$CHROMATOGRAPHY: RETENTION_TIME 4.344 min
AC$CHROMATOGRAPHY: SOLVENT A Water with 0.1% formic acid
AC$CHROMATOGRAPHY: SOLVENT B ACN with 0.1% formic acid
MS$FOCUSED_ION: BASE_PEAK 79.0203
MS$FOCUSED_ION: PRECURSOR_M/Z 225.0659
MS$FOCUSED_ION: PRECURSOR_TYPE [M+H]+
MS$DATA_PROCESSING: REANALYZE Peaks with additional N2/O included
MS$DATA_PROCESSING: WHOLE RMassBank 2.4.0
PK$SPLASH: splash10-056r-0090000000-29124260d2fddbbd7d57
PK$NUM_PEAK: 5
PK$PEAK: m/z int. rel.int.
  179.0598 2518 10
  180.066 336 1
  207.0549 129950 517
  208.0584 15274 60
  225.0653 250980 999
//
