ACCESSION: MSBNK-BGC_Munich-RP029411
RECORD_TITLE: DL-4-Hydroxyphenyllactic acid; LC-ESI-QTOF; MS2; CE: 10; R=; [M-H]-
DATE: 2017.11.29
AUTHORS: BGC, Helmholtz Zentrum Muenchen
LICENSE: CC BY
COPYRIGHT: Copyright (C) 2017
COMMENT: CONFIDENCE standard compound
COMMENT: INTERNAL_ID 294
CH$NAME: DL-4-Hydroxyphenyllactic acid
CH$NAME: 2-hydroxy-2-(4-hydroxyphenyl)propanoic acid
CH$COMPOUND_CLASS: N/A; Metabolomics Standard
CH$FORMULA: C9H10O4
CH$EXACT_MASS: 182.0579
CH$SMILES: CC(c1ccc(cc1)O)(C(=O)O)O
CH$IUPAC: InChI=1S/C9H10O4/c1-9(13,8(11)12)6-2-4-7(10)5-3-6/h2-5,10,13H,1H3,(H,11,12)
CH$LINK: CAS 23508-35-2
CH$LINK: PUBCHEM CID:22056978
CH$LINK: INCHIKEY HXIPUYVSSGKLFF-UHFFFAOYSA-N
CH$LINK: CHEMSPIDER 10807549
AC$INSTRUMENT: maXis plus UHR-ToF-MS, Bruker Daltonics
AC$INSTRUMENT_TYPE: LC-ESI-QTOF
AC$MASS_SPECTROMETRY: MS_TYPE MS2
AC$MASS_SPECTROMETRY: ION_MODE NEGATIVE
AC$MASS_SPECTROMETRY: IONIZATION ESI
AC$MASS_SPECTROMETRY: FRAGMENTATION_MODE CID
AC$MASS_SPECTROMETRY: COLLISION_ENERGY 10
AC$CHROMATOGRAPHY: COLUMN_NAME BEH C18 1.7um, 2.1x100mm, Waters
AC$CHROMATOGRAPHY: FLOW_GRADIENT 95/5 at 0 min, 95/5 at 1.12 min, 0.5/99.5 at 6.41 min, 0.5/99.5 at 10.01 min
AC$CHROMATOGRAPHY: FLOW_RATE 400 uL/min
AC$CHROMATOGRAPHY: RETENTION_TIME 2.354 min
AC$CHROMATOGRAPHY: SOLVENT A Water with 0.1% formic acid
AC$CHROMATOGRAPHY: SOLVENT B ACN with 0.1% formic acid
MS$FOCUSED_ION: BASE_PEAK 181.0506
MS$FOCUSED_ION: PRECURSOR_M/Z 181.0506
MS$FOCUSED_ION: PRECURSOR_TYPE [M-H]-
MS$DATA_PROCESSING: REANALYZE Peaks with additional N2/O included
MS$DATA_PROCESSING: WHOLE RMassBank 2.4.0
PK$SPLASH: splash10-001i-0900000000-e46b1516c9bc474ebda0
PK$NUM_PEAK: 10
PK$PEAK: m/z int. rel.int.
  72.9938 938 36
  74.0032 32 1
  93.0354 72 2
  100.0057 38 1
  135.0462 192 7
  136.0481 30 1
  137.0491 28 1
  163.0401 4868 190
  164.0436 298 11
  181.0507 25574 999
//
