ACCESSION: MSBNK-BGC_Munich-RP015603
RECORD_TITLE: 3-Hydroxyphenylacetic acid; LC-ESI-QTOF; MS2; CE: 40; R=; [M+H]+
DATE: 2017.10.24
AUTHORS: BGC, Helmholtz Zentrum Muenchen
LICENSE: CC BY
COPYRIGHT: Copyright (C) 2017
COMMENT: CONFIDENCE standard compound
COMMENT: INTERNAL_ID 156
CH$NAME: 3-Hydroxyphenylacetic acid
CH$NAME: 2-(3-hydroxyphenyl)acetic acid
CH$COMPOUND_CLASS: N/A; Metabolomics Standard
CH$FORMULA: C8H8O3
CH$EXACT_MASS: 152.0473
CH$SMILES: OC(=O)Cc1cccc(O)c1
CH$IUPAC: InChI=1S/C8H8O3/c9-7-3-1-2-6(4-7)5-8(10)11/h1-4,9H,5H2,(H,10,11)
CH$LINK: CAS 621-37-4
CH$LINK: CHEBI CHEBI:17445
CH$LINK: KEGG C05593
CH$LINK: PUBCHEM CID:12122
CH$LINK: INCHIKEY FVMDYYGIDFPZAX-UHFFFAOYSA-N
CH$LINK: CHEMSPIDER 11624
CH$LINK: COMPTOX DTXSID90211148
AC$INSTRUMENT: maXis plus UHR-ToF-MS, Bruker Daltonics
AC$INSTRUMENT_TYPE: LC-ESI-QTOF
AC$MASS_SPECTROMETRY: MS_TYPE MS2
AC$MASS_SPECTROMETRY: ION_MODE POSITIVE
AC$MASS_SPECTROMETRY: IONIZATION ESI
AC$MASS_SPECTROMETRY: FRAGMENTATION_MODE CID
AC$MASS_SPECTROMETRY: COLLISION_ENERGY 40
AC$CHROMATOGRAPHY: COLUMN_NAME BEH C18 1.7um, 2.1x100mm, Waters
AC$CHROMATOGRAPHY: FLOW_GRADIENT 95/5 at 0 min, 95/5 at 1.12 min, 0.5/99.5 at 6.41 min, 0.5/99.5 at 10.01 min
AC$CHROMATOGRAPHY: FLOW_RATE 400 uL/min
AC$CHROMATOGRAPHY: RETENTION_TIME 2.843 min
AC$CHROMATOGRAPHY: SOLVENT A Water with 0.1% formic acid
AC$CHROMATOGRAPHY: SOLVENT B ACN with 0.1% formic acid
MS$FOCUSED_ION: BASE_PEAK 107.0489
MS$FOCUSED_ION: PRECURSOR_M/Z 153.0546
MS$FOCUSED_ION: PRECURSOR_TYPE [M+H]+
MS$DATA_PROCESSING: REANALYZE Peaks with additional N2/O included
MS$DATA_PROCESSING: WHOLE RMassBank 2.4.0
PK$SPLASH: splash10-052b-9600000000-17540945d3efb5ed0aee
PK$NUM_PEAK: 7
PK$PEAK: m/z int. rel.int.
  68.0251 46 17
  80.0579 194 75
  81.0335 222 86
  95.049 2574 999
  96.0523 182 70
  105.0444 1078 418
  107.0487 1360 527
//
