ACCESSION: MSBNK-BGC_Munich-RP015501
RECORD_TITLE: 2-Hydroxyphenylacetic acid; LC-ESI-QTOF; MS2; CE: 10; R=; [M+H]+
DATE: 2017.10.24
AUTHORS: BGC, Helmholtz Zentrum Muenchen
LICENSE: CC BY
COPYRIGHT: Copyright (C) 2017
COMMENT: CONFIDENCE standard compound
COMMENT: INTERNAL_ID 155
CH$NAME: 2-Hydroxyphenylacetic acid
CH$NAME: 2-(2-hydroxyphenyl)acetic acid
CH$COMPOUND_CLASS: N/A; Metabolomics Standard
CH$FORMULA: C8H8O3
CH$EXACT_MASS: 152.0473
CH$SMILES: OC(=O)Cc1ccccc1O
CH$IUPAC: InChI=1S/C8H8O3/c9-7-4-2-1-3-6(7)5-8(10)11/h1-4,9H,5H2,(H,10,11)
CH$LINK: CAS 614-75-5
CH$LINK: CHEBI CHEBI:28478
CH$LINK: KEGG C05852
CH$LINK: PUBCHEM CID:11970
CH$LINK: INCHIKEY CCVYRRGZDBSHFU-UHFFFAOYSA-N
CH$LINK: CHEMSPIDER 11476
CH$LINK: COMPTOX DTXSID1060633
AC$INSTRUMENT: maXis plus UHR-ToF-MS, Bruker Daltonics
AC$INSTRUMENT_TYPE: LC-ESI-QTOF
AC$MASS_SPECTROMETRY: MS_TYPE MS2
AC$MASS_SPECTROMETRY: ION_MODE POSITIVE
AC$MASS_SPECTROMETRY: IONIZATION ESI
AC$MASS_SPECTROMETRY: FRAGMENTATION_MODE CID
AC$MASS_SPECTROMETRY: COLLISION_ENERGY 10
AC$CHROMATOGRAPHY: COLUMN_NAME BEH C18 1.7um, 2.1x100mm, Waters
AC$CHROMATOGRAPHY: FLOW_GRADIENT 95/5 at 0 min, 95/5 at 1.12 min, 0.5/99.5 at 6.41 min, 0.5/99.5 at 10.01 min
AC$CHROMATOGRAPHY: FLOW_RATE 400 uL/min
AC$CHROMATOGRAPHY: RETENTION_TIME 3.019 min
AC$CHROMATOGRAPHY: SOLVENT A Water with 0.1% formic acid
AC$CHROMATOGRAPHY: SOLVENT B ACN with 0.1% formic acid
MS$FOCUSED_ION: BASE_PEAK 107.0489
MS$FOCUSED_ION: PRECURSOR_M/Z 153.0546
MS$FOCUSED_ION: PRECURSOR_TYPE [M+H]+
MS$DATA_PROCESSING: REANALYZE Peaks with additional N2/O included
MS$DATA_PROCESSING: WHOLE RMassBank 2.4.0
PK$SPLASH: splash10-0a4i-0900000000-12058e875f67b8a31926
PK$NUM_PEAK: 8
PK$PEAK: m/z int. rel.int.
  77.0379 134 5
  79.0535 408 16
  107.0489 24600 999
  108.0523 1356 55
  129.0181 38 1
  135.0438 1634 66
  153.0536 1724 70
  180.0169 36 1
//
