ACCESSION: MSBNK-BGC_Munich-RP000603
RECORD_TITLE: L-Leucine; LC-ESI-QTOF; MS2; CE: 40; R=; [M+H]+
DATE: 2017.10.20
AUTHORS: BGC, Helmholtz Zentrum Muenchen
LICENSE: CC BY
COPYRIGHT: Copyright (C) 2017
COMMENT: CONFIDENCE standard compound
COMMENT: INTERNAL_ID 6
CH$NAME: L-Leucine
CH$NAME: (2S)-2-amino-4-methylpentanoic acid
CH$COMPOUND_CLASS: N/A; Metabolomics Standard
CH$FORMULA: C6H13NO2
CH$EXACT_MASS: 131.09463
CH$SMILES: CC(C)C[C@@H](C(=O)O)N
CH$IUPAC: InChI=1S/C6H13NO2/c1-4(2)3-5(7)6(8)9/h4-5H,3,7H2,1-2H3,(H,8,9)/t5-/m0/s1
CH$LINK: CAS 61-90-5
CH$LINK: CHEBI CHEBI:15603
CH$LINK: KEGG D00030
CH$LINK: PUBCHEM CID:6106
CH$LINK: INCHIKEY ROHFNLRQFUQHCH-YFKPBYRVSA-N
CH$LINK: CHEMSPIDER 5880
CH$LINK: COMPTOX DTXSID9023203
AC$INSTRUMENT: maXis plus UHR-ToF-MS, Bruker Daltonics
AC$INSTRUMENT_TYPE: LC-ESI-QTOF
AC$MASS_SPECTROMETRY: MS_TYPE MS2
AC$MASS_SPECTROMETRY: ION_MODE POSITIVE
AC$MASS_SPECTROMETRY: IONIZATION ESI
AC$MASS_SPECTROMETRY: FRAGMENTATION_MODE CID
AC$MASS_SPECTROMETRY: COLLISION_ENERGY 40
AC$CHROMATOGRAPHY: COLUMN_NAME BEH C18 1.7um, 2.1x100mm, Waters
AC$CHROMATOGRAPHY: FLOW_GRADIENT 95/5 at 0 min, 95/5 at 1.12 min, 0.5/99.5 at 6.41 min, 0.5/99.5 at 10.01 min
AC$CHROMATOGRAPHY: FLOW_RATE 400 uL/min
AC$CHROMATOGRAPHY: RETENTION_TIME 0.844 min
AC$CHROMATOGRAPHY: SOLVENT A Water with 0.1% formic acid
AC$CHROMATOGRAPHY: SOLVENT B ACN with 0.1% formic acid
MS$FOCUSED_ION: BASE_PEAK 86.0959
MS$FOCUSED_ION: PRECURSOR_M/Z 132.1019
MS$FOCUSED_ION: PRECURSOR_TYPE [M+H]+
MS$DATA_PROCESSING: REANALYZE Peaks with additional N2/O included
MS$DATA_PROCESSING: WHOLE RMassBank 2.4.0
PK$SPLASH: splash10-000i-9000000000-1c011c725b743da5d9c2
PK$NUM_PEAK: 5
PK$PEAK: m/z int. rel.int.
  55.0178 134 356
  59.0494 40 106
  73.0275 78 207
  75.0314 154 409
  86.0968 376 999
//
