ACCESSION: MSBNK-Keio_Univ-KO009018
RECORD_TITLE: Kynurenine; LC-ESI-IT; MS4; m/z: 209/192/174; [M+H]+
DATE: 2011.12.05 (Created 2008.05.12)
AUTHORS: Ojima Y, Kakazu Y, Horai H, Soga T, Institute for Advanced Biosciences, Keio Univ.
LICENSE: CC BY-NC-SA
COMMENT: KEIO_ID K004
COMMENT: [MS3] KO009017
CH$NAME: Kynurenine
CH$NAME: 3-Anthraniloyl-L-alanine
CH$NAME: L-Kynurenine
CH$COMPOUND_CLASS: N/A
CH$FORMULA: C10H12N2O3
CH$EXACT_MASS: 208.08479
CH$SMILES: OC(=O)[C@@H](N)CC(=O)c(c1)c(N)ccc1
CH$IUPAC: InChI=1S/C10H12N2O3/c11-7-4-2-1-3-6(7)9(13)5-8(12)10(14)15/h1-4,8H,5,11-12H2,(H,14,15)/t8-/m0/s1
CH$LINK: CAS 343-65-7
CH$LINK: CHEBI CHEBI:16946
CH$LINK: KEGG C00328
CH$LINK: NIKKAJI J5.688J
CH$LINK: PUBCHEM CID:161166
CH$LINK: INCHIKEY YGPSJZOEDVAXAB-QMMMGPOBSA-N
AC$INSTRUMENT: LC/MSD Trap XCT, Agilent Technologies
AC$INSTRUMENT_TYPE: LC-ESI-IT
AC$MASS_SPECTROMETRY: MS_TYPE MS4
AC$MASS_SPECTROMETRY: ION_MODE POSITIVE
AC$MASS_SPECTROMETRY: COLLISION_ENERGY 0.65/0.65/0.55
MS$FOCUSED_ION: PRECURSOR_M/Z 209/192/174
MS$FOCUSED_ION: PRECURSOR_TYPE [M+H]+
MS$DATA_PROCESSING: WHOLE LC/MSD Trap Control and Data Analysis
PK$SPLASH: splash10-004j-0900000000-62a4a4e9fd573d659bae
PK$NUM_PEAK: 8
PK$PEAK: m/z int. rel.int.
  102.3 5.32 43
  105.2 1.10 9
  118.0 4.06 33
  132.1 33.20 270
  146.0 109.16 889
  147.0 7.69 63
  173.9 20.21 165
  175.1 122.62 999
//
