ACCESSION: MSBNK-Keio_Univ-KO003489
RECORD_TITLE: Muramic acid; LC-ESI-QQ; MS2; CE:30 V; [M+H]+
DATE: 2016.01.19 (Created 2007.07.07, modified 2011.05.10)
AUTHORS: Kakazu Y, Horai H, Institute for Advanced Biosciences, Keio Univ.
LICENSE: CC BY-NC-SA
COMMENT: KEIO_ID M082
CH$NAME: Muramate
CH$NAME: Muramic acid
CH$NAME: 2-Amino-3-O-D-1-carboxyethyl-2-deoxy-D-glucose
CH$NAME: 3-O-alpha-Carboxyethyl-D-glucosamine
CH$COMPOUND_CLASS: N/A
CH$FORMULA: C9H17NO7
CH$EXACT_MASS: 251.10050
CH$SMILES: OCC(O1)C(O)C(OC(C)C(O)=O)C(N)C(O)1
CH$IUPAC: InChI=1S/C9H17NO7/c1-3(8(13)14)16-7-5(10)9(15)17-4(2-11)6(7)12/h3-7,9,11-12,15H,2,10H2,1H3,(H,13,14)/t3-,4-,5-,6-,7-,9?/m1/s1
CH$LINK: CAS 1114-41-6
CH$LINK: CHEBI CHEBI:28118
CH$LINK: KEGG C06470
CH$LINK: NIKKAJI J15.184J
CH$LINK: PUBCHEM CID:441038
CH$LINK: INCHIKEY MSFSPUZXLOGKHJ-PGYHGBPZSA-N
AC$INSTRUMENT: API3000, Applied Biosystems
AC$INSTRUMENT_TYPE: LC-ESI-QQ
AC$MASS_SPECTROMETRY: MS_TYPE MS2
AC$MASS_SPECTROMETRY: ION_MODE POSITIVE
AC$MASS_SPECTROMETRY: COLLISION_ENERGY 30 V
MS$FOCUSED_ION: PRECURSOR_M/Z 252
MS$FOCUSED_ION: PRECURSOR_TYPE [M+H]+
PK$SPLASH: splash10-0a4i-1900000000-e8d9ef8ffc3d04ac297b
PK$NUM_PEAK: 69
PK$PEAK: m/z int. rel.int.
  36.000 84158.5 1
  43.200 173267.5 3
  45.300 14851.5 1
  55.100 49505.0 1
  56.000 49505.0 1
  57.300 1410892.5 23
  59.000 84158.5 1
  67.800 138614.0 2
  69.000 222772.5 4
  70.000 148515.0 2
  70.900 1811883.0 29
  72.100 589109.5 10
  73.200 118812.0 2
  77.000 138614.0 2
  79.000 3252478.5 52
  80.000 103960.5 2
  81.100 173267.5 3
  83.000 103960.5 2
  84.000 638614.5 10
  85.300 118812.0 2
  86.200 49505.0 1
  87.000 64356.5 1
  88.700 59406.0 1
  89.200 54455.5 1
  91.200 94059.5 2
  95.100 79208.0 1
  96.000 262376.5 4
  96.800 207921.0 3
  98.000 405941.0 7
  98.400 128713.0 2
  101.000 594060.0 10
  101.800 14851.5 1
  102.900 361386.5 6
  105.100 61891151.0 999
  105.600 787129.5 13
  107.100 54455.5 1
  109.300 128713.0 2
  111.100 232673.5 4
  112.300 34653.5 1
  113.000 153465.5 2
  113.900 133663.5 2
  119.000 29703.0 1
  120.900 69307.0 1
  122.300 247525.0 4
  123.200 4311885.5 70
  124.400 24752.5 1
  126.100 935644.5 15
  126.900 59406.0 1
  128.700 24752.5 1
  129.400 24752.5 1
  131.100 64356.5 1
  133.100 54455.5 1
  134.800 54455.5 1
  142.100 24752.5 1
  144.100 257426.0 4
  144.500 29703.0 1
  148.200 49505.0 1
  152.100 24752.5 1
  165.200 34653.5 1
  175.200 54455.5 1
  176.300 39604.0 1
  179.400 267327.0 4
  199.700 19802.0 1
  207.400 29703.0 1
  216.300 158416.0 3
  217.200 44554.5 1
  218.100 24752.5 1
  219.500 14851.5 1
  235.100 500000.5 8
//
