ACCESSION: MSBNK-Keio_Univ-KO002771
RECORD_TITLE: Dihydrostreptomycin; LC-ESI-QQ; MS2; CE:10 V; [M+2H]++
DATE: 2016.01.19 (Created 2007.07.07, modified 2011.05.10)
AUTHORS: Kakazu Y, Horai H, Institute for Advanced Biosciences, Keio Univ.
LICENSE: CC BY-NC-SA
COMMENT: KEIO_ID D108
CH$NAME: Dihydrostreptomycine
CH$NAME: Dihydrostreptomycin
CH$COMPOUND_CLASS: N/A
CH$FORMULA: C21H41N7O12
CH$EXACT_MASS: 583.28132
CH$SMILES: NC(=N)NC(C(O)1)C(O)C(NC(N)=N)C(OC(O2)C(OC(O3)C(NC)C(O)C(O)C(CO)3)C(O)(CO)C(C)2)C(O)1
CH$IUPAC: InChI=1S/C21H41N7O12/c1-5-21(36,4-30)16(40-17-9(26-2)13(34)10(31)6(3-29)38-17)18(37-5)39-15-8(28-20(24)25)11(32)7(27-19(22)23)12(33)14(15)35/h5-18,26,29-36H,3-4H2,1-2H3,(H4,22,23,27)(H4,24,25,28)/t5-,6-,7+,8-,9-,10-,11+,12-,13-,14+,15+,16-,17-,18-,21+/m0/s1
CH$LINK: CAS 128-46-1
CH$LINK: KEGG C01023
CH$LINK: NIKKAJI J10.276H
CH$LINK: PUBCHEM CID:439369
CH$LINK: INCHIKEY ASXBYYWOLISCLQ-HZYVHMACSA-N
CH$LINK: COMPTOX DTXSID0022937
AC$INSTRUMENT: API3000, Applied Biosystems
AC$INSTRUMENT_TYPE: LC-ESI-QQ
AC$MASS_SPECTROMETRY: MS_TYPE MS2
AC$MASS_SPECTROMETRY: ION_MODE POSITIVE
AC$MASS_SPECTROMETRY: COLLISION_ENERGY 10 V
MS$FOCUSED_ION: PRECURSOR_M/Z 292.5
MS$FOCUSED_ION: PRECURSOR_TYPE [M+2H]++
PK$SPLASH: splash10-0006-0090000000-094483dbe63a6b4a3a35
PK$NUM_PEAK: 22
PK$PEAK: m/z int. rel.int.
  78.400 49505.0 14
  82.000 24752.5 7
  90.500 29703.0 9
  96.400 34653.5 10
  106.000 24752.5 7
  106.900 49505.0 14
  110.100 39604.0 12
  151.000 29703.0 9
  163.500 29703.0 9
  164.700 39604.0 12
  176.200 153465.5 45
  185.100 54455.5 16
  232.200 29703.0 9
  234.100 24752.5 7
  243.100 272277.5 79
  244.400 44554.5 13
  257.400 44554.5 13
  261.400 396040.0 115
  263.000 24752.5 7
  275.500 222772.5 65
  293.000 3430696.5 999
  409.800 475248.0 138
//
