ACCESSION: MSBNK-Keio_Univ-KO002086
RECORD_TITLE: N-Acetyl-L-glutamic acid; LC-ESI-QQ; MS2; CE:40 V; [M+H]+
DATE: 2016.01.19 (Created 2007.07.07, modified 2011.05.10)
AUTHORS: Kakazu Y, Horai H, Institute for Advanced Biosciences, Keio Univ.
LICENSE: CC BY-NC-SA
COMMENT: KEIO_ID A031
CH$NAME: N-Acetylglutamate
CH$NAME: N-Acetyl-L-glutamate
CH$NAME: N-Acetyl-L-glutamic acid
CH$COMPOUND_CLASS: N/A
CH$FORMULA: C7H11NO5
CH$EXACT_MASS: 189.06372
CH$SMILES: CC(=O)NC(CCC(O)=O)C(O)=O
CH$IUPAC: InChI=1S/C7H11NO5/c1-4(9)8-5(7(12)13)2-3-6(10)11/h5H,2-3H2,1H3,(H,8,9)(H,10,11)(H,12,13)/t5-/m0/s1
CH$LINK: CAS 1188-37-0
CH$LINK: CHEBI CHEBI:17533
CH$LINK: CHEMPDB NLG
CH$LINK: KEGG C00624
CH$LINK: NIKKAJI J37.497K
CH$LINK: PUBCHEM CID:70914
CH$LINK: INCHIKEY RFMMMVDNIPUKGG-YFKPBYRVSA-N
CH$LINK: COMPTOX DTXSID3046534
AC$INSTRUMENT: API3000, Applied Biosystems
AC$INSTRUMENT_TYPE: LC-ESI-QQ
AC$MASS_SPECTROMETRY: MS_TYPE MS2
AC$MASS_SPECTROMETRY: ION_MODE POSITIVE
AC$MASS_SPECTROMETRY: COLLISION_ENERGY 40 V
MS$FOCUSED_ION: PRECURSOR_M/Z 190
MS$FOCUSED_ION: PRECURSOR_TYPE [M+H]+
PK$SPLASH: splash10-001i-9000000000-2ce098bb9e1b35433878
PK$NUM_PEAK: 12
PK$PEAK: m/z int. rel.int.
  41.100 49505.0 6
  43.200 287129.0 35
  56.300 381188.5 46
  67.300 49505.0 6
  80.700 44554.5 5
  84.200 8282186.5 999
  85.000 168317.0 20
  90.800 24752.5 3
  94.800 34653.5 4
  97.900 14851.5 2
  102.100 217822.0 26
  130.100 168317.0 20
//
