ACCESSION: MSBNK-Keio_Univ-KO009145
RECORD_TITLE: Pyridoxamine 5'-phosphate; LC-ESI-IT; MS3; m/z: 249/151; [M+H]+
DATE: 2011.12.05 (Created 2008.05.12)
AUTHORS: Ojima Y, Kakazu Y, Horai H, Soga T, Institute for Advanced Biosciences, Keio Univ.
LICENSE: CC BY-NC-SA
COMMENT: KEIO_ID P113
COMMENT: [MS2] KO009143
CH$NAME: Pyridoxamine 5'-phospate
CH$NAME: Pyridoxamine phosphate
CH$NAME: Pyridoxamine 5-phosphate
CH$NAME: Pyridoxamine 5'-phosphate
CH$COMPOUND_CLASS: N/A
CH$FORMULA: C8H13N2O5P
CH$EXACT_MASS: 248.05621
CH$SMILES: NCc(c(O)1)c(cnc(C)1)COP(O)(O)=O
CH$IUPAC: InChI=1S/C8H13N2O5P/c1-5-8(11)7(2-9)6(3-10-5)4-15-16(12,13)14/h3,11H,2,4,9H2,1H3,(H2,12,13,14)
CH$LINK: CAS 529-96-4
CH$LINK: CHEBI CHEBI:18335
CH$LINK: CHEMPDB PMP
CH$LINK: KEGG C00647
CH$LINK: NIKKAJI J11.364F
CH$LINK: PUBCHEM CID:1053
CH$LINK: INCHIKEY ZMJGSOSNSPKHNH-UHFFFAOYSA-N
CH$LINK: COMPTOX DTXSID3046825
AC$INSTRUMENT: LC/MSD Trap XCT, Agilent Technologies
AC$INSTRUMENT_TYPE: LC-ESI-IT
AC$MASS_SPECTROMETRY: MS_TYPE MS3
AC$MASS_SPECTROMETRY: ION_MODE POSITIVE
AC$MASS_SPECTROMETRY: COLLISION_ENERGY 0.70/0.50
MS$FOCUSED_ION: PRECURSOR_M/Z 249/151
MS$FOCUSED_ION: PRECURSOR_TYPE [M+H]+
MS$DATA_PROCESSING: WHOLE LC/MSD Trap Control and Data Analysis
PK$SPLASH: splash10-0ue9-0900000000-d4b06ad45b45e8e62d77
PK$NUM_PEAK: 11
PK$PEAK: m/z int. rel.int.
  91.2 6.37 62
  95.2 3.92 38
  96.0 1.15 11
  106.0 29.68 291
  122.0 3.30 32
  123.0 18.68 183
  124.1 19.46 191
  134.0 64.17 629
  151.1 19.52 191
  152.0 101.92 999
  174.4 5.44 53
//
