ACCESSION: MSBNK-Keio_Univ-KO000178
RECORD_TITLE: N-Acetyl-alpha-D-glucosamine 1-phosphate; LC-ESI-QQ; MS2; CE:30 V; [M-H]-
DATE: 2016.01.19 (Created 2007.07.07, modified 2011.05.10)
AUTHORS: Kakazu Y, Horai H, Institute for Advanced Biosciences, Keio Univ.
LICENSE: CC BY-NC-SA
COMMENT: KEIO_ID A122
CH$NAME: N-Acetylglucosamine 1-phosphate
CH$NAME: N-Acetyl-alpha-D-glucosamine 1-phosphate
CH$COMPOUND_CLASS: N/A
CH$FORMULA: C8H16NO9P
CH$EXACT_MASS: 301.05627
CH$SMILES: OC[C@@H](O1)[C@@H](O)[C@H](O)[C@@H](NC(C)=O)[C@H]1OP(O)(O)=O
CH$IUPAC: InChI=1S/C8H16NO9P/c1-3(11)9-5-7(13)6(12)4(2-10)17-8(5)18-19(14,15)16/h4-8,10,12-13H,2H2,1H3,(H,9,11)(H2,14,15,16)/t4-,5-,6-,7-,8-/m1/s1
CH$LINK: CHEBI CHEBI:16446
CH$LINK: KEGG C04501
CH$LINK: PUBCHEM CID:440364
CH$LINK: INCHIKEY FZLJPEPAYPUMMR-FMDGEEDCSA-N
CH$LINK: COMPTOX DTXSID00179902
AC$INSTRUMENT: API3000, Applied Biosystems
AC$INSTRUMENT_TYPE: LC-ESI-QQ
AC$MASS_SPECTROMETRY: MS_TYPE MS2
AC$MASS_SPECTROMETRY: ION_MODE NEGATIVE
AC$MASS_SPECTROMETRY: COLLISION_ENERGY 30 V
MS$FOCUSED_ION: PRECURSOR_M/Z 300
MS$FOCUSED_ION: PRECURSOR_TYPE [M-H]-
PK$SPLASH: splash10-004i-9000000000-115417d4136892cfa18f
PK$NUM_PEAK: 14
PK$PEAK: m/z int. rel.int.
  59.700 34653.5 1
  79.000 24945569.5 999
  95.600 14851.5 1
  96.900 1762378.0 71
  110.300 74257.5 3
  141.400 14851.5 1
  165.900 24752.5 1
  180.300 24752.5 1
  198.900 84158.5 3
  258.100 44554.5 2
  264.100 24752.5 1
  300.500 945545.5 38
  329.000 19802.0 1
  375.000 24752.5 1
//
