ACCESSION: MSBNK-Keio_Univ-KO003425
RECORD_TITLE: Methotrexate; LC-ESI-QQ; MS2; CE:40 V; [M+H]+
DATE: 2016.01.19 (Created 2007.07.07, modified 2012.05.21)
AUTHORS: Kakazu Y, Horai H, Institute for Advanced Biosciences, Keio Univ.
LICENSE: CC BY-NC-SA
COMMENT: KEIO_ID M048
CH$NAME: Methotrexate
CH$COMPOUND_CLASS: N/A
CH$FORMULA: C20H22N8O5
CH$EXACT_MASS: 454.17132
CH$SMILES: OC(=O)CCC(C(O)=O)NC(=O)c(c3)ccc(c3)N(C)Cc(c2)nc(c(N)1)c(n2)nc(N)n1
CH$IUPAC: InChI=1S/C20H22N8O5/c1-28(9-11-8-23-17-15(24-11)16(21)26-20(22)27-17)12-4-2-10(3-5-12)18(31)25-13(19(32)33)6-7-14(29)30/h2-5,8,13H,6-7,9H2,1H3,(H,25,31)(H,29,30)(H,32,33)(H4,21,22,23,26,27)
CH$LINK: CAS 59-05-2
CH$LINK: KEGG C01937
CH$LINK: NIKKAJI J2.334E
CH$LINK: PUBCHEM CID:126941
CH$LINK: INCHIKEY FBOZXECLQNJBKD-UHFFFAOYSA-N
CH$LINK: COMPTOX DTXSID40859034
AC$INSTRUMENT: API3000, Applied Biosystems
AC$INSTRUMENT_TYPE: LC-ESI-QQ
AC$MASS_SPECTROMETRY: MS_TYPE MS2
AC$MASS_SPECTROMETRY: ION_MODE POSITIVE
AC$MASS_SPECTROMETRY: COLLISION_ENERGY 40 V
MS$FOCUSED_ION: PRECURSOR_M/Z 455
MS$FOCUSED_ION: PRECURSOR_TYPE [M+H]+
PK$SPLASH: splash10-03di-0900000000-676de48c7559155ac677
PK$NUM_PEAK: 12
PK$PEAK: m/z int. rel.int.
  112.200 14995064.5 999
  117.000 89109.0 6
  119.800 29703.0 2
  133.900 400990.5 27
  146.700 14851.5 1
  175.300 391089.5 26
  176.000 44554.5 3
  203.100 29703.0 2
  245.100 59406.0 4
  273.400 14851.5 1
  308.600 450495.5 30
  455.400 54455.5 4
//
