ACCESSION: MSBNK-Keio_Univ-KO000300
RECORD_TITLE: Dapsone; LC-ESI-QQ; MS2; CE:10 V; [M-H]-
DATE: 2016.01.19 (Created 2007.07.07, modified 2011.05.10)
AUTHORS: Kakazu Y, Horai H, Institute for Advanced Biosciences, Keio Univ.
LICENSE: CC BY-NC-SA
COMMENT: KEIO_ID A220
CH$NAME: 4-Aminophenylsulfone
CH$NAME: 4,4'-Sulfonylbisbenzenamine
CH$NAME: Dapsone
CH$NAME: Diaphenylsulfone
CH$COMPOUND_CLASS: N/A
CH$FORMULA: C12H12N2O2S
CH$EXACT_MASS: 248.06195
CH$SMILES: Nc(c2)ccc(c2)S(=O)(=O)c(c1)ccc(N)c1
CH$IUPAC: InChI=1S/C12H12N2O2S/c13-9-1-5-11(6-2-9)17(15,16)12-7-3-10(14)4-8-12/h1-8H,13-14H2
CH$LINK: CAS 80-08-0
CH$LINK: KEGG C07666
CH$LINK: NIKKAJI J4.247A
CH$LINK: PUBCHEM SID:9868
CH$LINK: INCHIKEY MQJKPEGWNLWLTK-UHFFFAOYSA-N
CH$LINK: COMPTOX DTXSID4020371
AC$INSTRUMENT: API3000, Applied Biosystems
AC$INSTRUMENT_TYPE: LC-ESI-QQ
AC$MASS_SPECTROMETRY: MS_TYPE MS2
AC$MASS_SPECTROMETRY: ION_MODE NEGATIVE
AC$MASS_SPECTROMETRY: COLLISION_ENERGY 10 V
MS$FOCUSED_ION: PRECURSOR_M/Z 247
MS$FOCUSED_ION: PRECURSOR_TYPE [M-H]-
PK$SPLASH: splash10-0002-0190000000-7de0f1aeb77cf9b122f5
PK$NUM_PEAK: 20
PK$PEAK: m/z int. rel.int.
  89.500 24752.5 1
  94.700 99010.0 6
  110.500 24752.5 1
  134.700 29703.0 2
  143.100 24752.5 1
  165.200 1752477.0 100
  171.000 34653.5 2
  181.000 99010.0 6
  187.300 99010.0 6
  201.300 24752.5 1
  203.300 178218.0 10
  209.200 54455.5 3
  211.100 405941.0 23
  214.700 34653.5 2
  247.200 17504968.0 999
  248.100 29703.0 2
  269.200 74257.5 4
  313.700 49505.0 3
  314.400 24752.5 1
  377.500 24752.5 1
//
