ACCESSION: MSBNK-Keio_Univ-KO000689
RECORD_TITLE: 1,5-Diphenylcarbohydrazide; LC-ESI-QQ; MS2; CE:10 V; [M-H]-
DATE: 2016.01.19 (Created 2007.07.07, modified 2011.05.10)
AUTHORS: Kakazu Y, Horai H, Institute for Advanced Biosciences, Keio Univ.
LICENSE: CC BY-NC-SA
COMMENT: KEIO_ID D166
CH$NAME: 1,5-Diphenylcarbohydrazide
CH$NAME: Diphenylcarbazide
CH$COMPOUND_CLASS: Non-Natural Product
CH$FORMULA: C13H14N4O
CH$EXACT_MASS: 242.11676
CH$SMILES: O=C(NNc(c2)cccc2)NNc(c1)cccc1
CH$IUPAC: InChI=1S/C13H14N4O/c18-13(16-14-11-7-3-1-4-8-11)17-15-12-9-5-2-6-10-12/h1-10,14-15H,(H2,16,17,18)
CH$LINK: CAS 140-22-7
CH$LINK: KEGG C11232
CH$LINK: NIKKAJI J5.651K
CH$LINK: PUBCHEM SID:13411
CH$LINK: INCHIKEY KSPIHGBHKVISFI-UHFFFAOYSA-N
CH$LINK: COMPTOX DTXSID7059690
AC$INSTRUMENT: API3000, Applied Biosystems
AC$INSTRUMENT_TYPE: LC-ESI-QQ
AC$MASS_SPECTROMETRY: MS_TYPE MS2
AC$MASS_SPECTROMETRY: ION_MODE NEGATIVE
AC$MASS_SPECTROMETRY: COLLISION_ENERGY 10 V
MS$FOCUSED_ION: PRECURSOR_M/Z 241
MS$FOCUSED_ION: PRECURSOR_TYPE [M-H]-
PK$SPLASH: splash10-0006-0190000000-e8193bb31e78ea4455ab
PK$NUM_PEAK: 20
PK$PEAK: m/z int. rel.int.
  34.800 14851.5 1
  41.900 168317.0 1
  59.300 84158.5 1
  76.900 3207924.0 26
  91.900 4613866.0 38
  94.900 44554.5 1
  105.400 64356.5 1
  119.000 19802.0 1
  130.600 19802.0 1
  131.100 108911.0 1
  133.200 1955447.5 16
  144.500 39604.0 1
  148.000 980199.0 8
  149.100 14227737.0 116
  153.100 44554.5 1
  165.400 24752.5 1
  181.000 89109.0 1
  197.100 84158.5 1
  222.700 34653.5 1
  241.100 122678340.5 999
//
