ACCESSION: MSBNK-Keio_Univ-KO000207
RECORD_TITLE: 5-Aminoimidazole-4-carboxamide-1-beta-D-ribofuranosyl 5'-monophosphate; LC-ESI-QQ; MS2; CE:30 V; [M-H]-
DATE: 2016.01.19 (Created 2007.07.07, modified 2011.05.10)
AUTHORS: Kakazu Y, Horai H, Institute for Advanced Biosciences, Keio Univ.
LICENSE: CC BY-NC-SA
COMMENT: KEIO_ID A133
CH$NAME: 5-Aminoimidazole-4-carboxamide-1-ribofuranosyl 5'-monophosphate
CH$NAME: 5-Aminoimidazole-4-carboxamide ribotide
CH$NAME: 5'-Phosphoribosyl-5-amino-4-imidazolecarboxamide
CH$NAME: 1-(5'-Phosphoribosyl)-5-amino-4-imidazolecarboxamide
CH$NAME: 5'-Phospho-ribosyl-5-amino-4-imidazole carboxamide
CH$NAME: 5-Amino-1-(5-phospho-D-ribosyl)imidazole-4-carboxamide
CH$NAME: 5-Phosphoribosyl-4-carbamoyl-5-aminoimidazole
CH$NAME: AICAR
CH$NAME: 5-Aminoimidazole-4-carboxamide-1-beta-D-ribofuranosyl 5'-monophosphate
CH$COMPOUND_CLASS: N/A
CH$FORMULA: C9H15N4O8P
CH$EXACT_MASS: 338.06275
CH$SMILES: NC(=O)c(n2)c(N)n(c2)[C@H](O1)[C@H](O)[C@H](O)[C@@H](COP(O)(O)=O)1
CH$IUPAC: InChI=1S/C9H15N4O8P/c10-7-4(8(11)16)12-2-13(7)9-6(15)5(14)3(21-9)1-20-22(17,18)19/h2-3,5-6,9,14-15H,1,10H2,(H2,11,16)(H2,17,18,19)/t3-,5-,6-,9-/m1/s1
CH$LINK: CAS 3031-94-5
CH$LINK: CHEBI CHEBI:18406
CH$LINK: KEGG C04677
CH$LINK: NIKKAJI J7.665A
CH$LINK: PUBCHEM CID:65110
CH$LINK: INCHIKEY NOTGFIUVDGNKRI-UUOKFMHZSA-N
CH$LINK: COMPTOX DTXSID10904363
AC$INSTRUMENT: API3000, Applied Biosystems
AC$INSTRUMENT_TYPE: LC-ESI-QQ
AC$MASS_SPECTROMETRY: MS_TYPE MS2
AC$MASS_SPECTROMETRY: ION_MODE NEGATIVE
AC$MASS_SPECTROMETRY: COLLISION_ENERGY 30 V
MS$FOCUSED_ION: PRECURSOR_M/Z 337
MS$FOCUSED_ION: PRECURSOR_TYPE [M-H]-
PK$SPLASH: splash10-004j-9300000000-5c28ca5957750fa338e3
PK$NUM_PEAK: 18
PK$PEAK: m/z int. rel.int.
  59.000 138614.0 75
  79.100 1851487.0 999
  97.000 1485150.0 801
  101.200 19802.0 11
  101.800 34653.5 19
  108.000 34653.5 19
  114.300 14851.5 8
  125.100 544555.0 294
  130.200 257426.0 139
  139.400 54455.5 29
  151.200 351485.5 190
  167.500 19802.0 11
  168.300 79208.0 43
  211.200 79208.0 43
  212.100 14851.5 8
  255.200 44554.5 24
  294.200 24752.5 13
  337.100 356436.0 192
//
