ACCESSION: MSBNK-Keio_Univ-KO003378
RECORD_TITLE: Metronidazole; LC-ESI-QQ; MS2; CE:20 V; [M+H]+
DATE: 2016.01.19 (Created 2007.09.04, modified 2011.05.10)
AUTHORS: Kakazu Y, Horai H, Institute for Advanced Biosciences, Keio Univ.
LICENSE: CC BY-NC-SA
COMMENT: KEIO_ID M033
CH$NAME: Metronidazole
CH$COMPOUND_CLASS: N/A
CH$FORMULA: C6H9N3O3
CH$EXACT_MASS: 171.06439
CH$SMILES: OCCn(c(C)1)c(cn1)[N+1]([O-1])=O
CH$IUPAC: InChI=1S/C6H9N3O3/c1-5-7-4-6(9(11)12)8(5)2-3-10/h4,10H,2-3H2,1H3
CH$LINK: KEGG D00409
CH$LINK: INCHIKEY VAOCPAMSLUNLGC-UHFFFAOYSA-N
CH$LINK: COMPTOX DTXSID2020892
AC$INSTRUMENT: API3000, Applied Biosystems
AC$INSTRUMENT_TYPE: LC-ESI-QQ
AC$MASS_SPECTROMETRY: MS_TYPE MS2
AC$MASS_SPECTROMETRY: ION_MODE POSITIVE
AC$MASS_SPECTROMETRY: COLLISION_ENERGY 20 V
MS$FOCUSED_ION: PRECURSOR_M/Z 172
MS$FOCUSED_ION: PRECURSOR_TYPE [M+H]+
PK$SPLASH: splash10-004i-1900000000-2a218e19a8fadb9c66d6
PK$NUM_PEAK: 34
PK$PEAK: m/z int. rel.int.
  36.000 34653.5 2
  45.100 148515.0 10
  50.100 202970.5 14
  56.000 84158.5 6
  57.000 79208.0 5
  60.200 89109.0 6
  67.200 113861.5 8
  69.100 94059.5 6
  71.200 163366.5 11
  71.800 34653.5 2
  73.300 29703.0 2
  81.200 1054456.5 71
  82.000 1009902.0 68
  84.800 54455.5 4
  86.100 59406.0 4
  90.900 212871.5 14
  92.800 44554.5 3
  94.900 554456.0 37
  97.400 118812.0 8
  97.900 69307.0 5
  99.200 123762.5 8
  99.400 24752.5 2
  109.100 841585.0 57
  111.100 173267.5 12
  112.900 24752.5 2
  118.900 198020.0 13
  122.900 103960.5 7
  128.100 14816846.5 999
  137.300 4123766.5 278
  138.000 118812.0 8
  140.300 173267.5 12
  153.900 123762.5 8
  155.300 386139.0 26
  172.300 3613865.0 244
//
