ACCESSION: MSBNK-Keio_Univ-KO004159
RECORD_TITLE: 3,3',5-Triiodothyronine; LC-ESI-QQ; MS2; CE:30 V; [M+H]+
DATE: 2016.01.19 (Created 2007.07.07, modified 2011.05.10)
AUTHORS: Kakazu Y, Horai H, Institute for Advanced Biosciences, Keio Univ.
LICENSE: CC BY-NC-SA
COMMENT: KEIO_ID T040
CH$NAME: 3,3',5-Triiodothyronine
CH$NAME: L-3,5,3'-Triiodothyronine
CH$NAME: 3,5,3'-Triiodo-L-thyronine
CH$NAME: Triiodothyronine
CH$NAME: 3,3'5-Triiodo-L-thyronine
CH$NAME: Liothyronine
CH$NAME: 3,5,3'-Triiodothyronine
CH$COMPOUND_CLASS: N/A
CH$FORMULA: C15H12I3NO4
CH$EXACT_MASS: 650.79004
CH$SMILES: OC(=O)[C@@H](N)Cc(c1)cc(I)c(Oc(c2)cc(I)c(O)c2)c(I)1
CH$IUPAC: InChI=1S/C15H12I3NO4/c16-9-6-8(1-2-13(9)20)23-14-10(17)3-7(4-11(14)18)5-12(19)15(21)22/h1-4,6,12,20H,5,19H2,(H,21,22)/t12-/m0/s1
CH$LINK: CAS 6893-02-3
CH$LINK: CHEBI CHEBI:18258
CH$LINK: CHEMPDB T3
CH$LINK: KEGG C02465
CH$LINK: NIKKAJI J85.948F
CH$LINK: PUBCHEM CID:5920
CH$LINK: INCHIKEY AUYYCJSJGJYCDS-LBPRGKRZSA-N
CH$LINK: COMPTOX DTXSID8023216
AC$INSTRUMENT: API3000, Applied Biosystems
AC$INSTRUMENT_TYPE: LC-ESI-QQ
AC$MASS_SPECTROMETRY: MS_TYPE MS2
AC$MASS_SPECTROMETRY: ION_MODE POSITIVE
AC$MASS_SPECTROMETRY: COLLISION_ENERGY 30 V
MS$FOCUSED_ION: PRECURSOR_M/Z 652
MS$FOCUSED_ION: PRECURSOR_TYPE [M+H]+
PK$SPLASH: splash10-0a4i-0000019000-6f798ae76702a3053339
PK$NUM_PEAK: 13
PK$PEAK: m/z int. rel.int.
  203.200 24752.5 5
  287.500 24752.5 5
  450.100 44554.5 8
  479.400 39604.0 7
  508.200 1183169.5 216
  588.700 19802.0 4
  592.800 193069.5 35
  605.300 158416.0 29
  606.200 5470302.5 999
  635.100 257426.0 47
  651.900 678218.5 124
  652.400 198020.0 36
  715.000 9901.0 2
//
