ACCESSION: MSBNK-Keio_Univ-KO000391
RECORD_TITLE: L-Citrulline; LC-ESI-QQ; MS2; CE:10 V; [M-H]-
DATE: 2016.01.19 (Created 2007.07.07, modified 2011.05.10)
AUTHORS: Kakazu Y, Horai H, Institute for Advanced Biosciences, Keio Univ.
LICENSE: CC BY-NC-SA
COMMENT: KEIO_ID C013
CH$NAME: Citrulline
CH$NAME: 2-Amino-5-ureidovaleric acid
CH$NAME: L-Citrulline
CH$COMPOUND_CLASS: N/A
CH$FORMULA: C6H13N3O3
CH$EXACT_MASS: 175.09569
CH$SMILES: NC(=O)NCCC[C@H](N)C(O)=O
CH$IUPAC: InChI=1S/C6H13N3O3/c7-4(5(10)11)2-1-3-9-6(8)12/h4H,1-3,7H2,(H,10,11)(H3,8,9,12)/t4-/m0/s1
CH$LINK: CAS 372-75-8
CH$LINK: CHEBI CHEBI:16349
CH$LINK: KEGG C00327
CH$LINK: NIKKAJI J5.711H
CH$LINK: PUBCHEM SID:3621
CH$LINK: INCHIKEY RHGKLRLOHDJJDR-BYPYZUCNSA-N
CH$LINK: COMPTOX DTXSID80883373
AC$INSTRUMENT: API3000, Applied Biosystems
AC$INSTRUMENT_TYPE: LC-ESI-QQ
AC$MASS_SPECTROMETRY: MS_TYPE MS2
AC$MASS_SPECTROMETRY: ION_MODE NEGATIVE
AC$MASS_SPECTROMETRY: COLLISION_ENERGY 10 V
MS$FOCUSED_ION: PRECURSOR_M/Z 174
MS$FOCUSED_ION: PRECURSOR_TYPE [M-H]-
PK$SPLASH: splash10-00e9-0900000000-46229b4f77feabb3f857
PK$NUM_PEAK: 7
PK$PEAK: m/z int. rel.int.
  131.000 31222803.5 663
  132.000 955446.5 20
  138.300 14851.5 1
  140.900 39604.0 1
  145.700 14851.5 1
  157.000 232673.5 5
  174.300 47059453.0 999
//
