ACCESSION: MSBNK-Keio_Univ-KO001786
RECORD_TITLE: Succinic acid; LC-ESI-QQ; MS2; CE:30 V; [M-H]-
DATE: 2016.01.19 (Created 2007.07.07, modified 2011.05.10)
AUTHORS: Kakazu Y, Horai H, Institute for Advanced Biosciences, Keio Univ.
LICENSE: CC BY-NC-SA
COMMENT: KEIO_ID S004
CH$NAME: Succinate
CH$NAME: Succinic acid
CH$NAME: Ethylenesuccinic acid
CH$NAME: Butanedionic acid
CH$COMPOUND_CLASS: N/A
CH$FORMULA: C4H6O4
CH$EXACT_MASS: 118.02661
CH$SMILES: OC(=O)CCC(O)=O
CH$IUPAC: InChI=1S/C4H6O4/c5-3(6)1-2-4(7)8/h1-2H2,(H,5,6)(H,7,8)
CH$LINK: CAS 110-15-6
CH$LINK: CHEBI CHEBI:15741
CH$LINK: CHEMPDB SIN
CH$LINK: KEGG C00042
CH$LINK: NIKKAJI J2.879G
CH$LINK: PUBCHEM SID:3344
CH$LINK: INCHIKEY KDYFGRWQOYBRFD-UHFFFAOYSA-N
CH$LINK: COMPTOX DTXSID6023602
AC$INSTRUMENT: API3000, Applied Biosystems
AC$INSTRUMENT_TYPE: LC-ESI-QQ
AC$MASS_SPECTROMETRY: MS_TYPE MS2
AC$MASS_SPECTROMETRY: ION_MODE NEGATIVE
AC$MASS_SPECTROMETRY: COLLISION_ENERGY 30 V
MS$FOCUSED_ION: PRECURSOR_M/Z 117
MS$FOCUSED_ION: PRECURSOR_TYPE [M-H]-
PK$SPLASH: splash10-00di-9000000000-fdec6c7458176f3cbeb8
PK$NUM_PEAK: 6
PK$PEAK: m/z int. rel.int.
  55.000 118812.0 43
  59.200 54455.5 20
  72.400 24752.5 9
  73.000 2742577.0 999
  98.700 89109.0 32
  117.100 39604.0 14
//
