ACCESSION: MSBNK-Keio_Univ-KO004177
RECORD_TITLE: Trimethylamine N-oxide; LC-ESI-QQ; MS2; CE:20 V; [M+H]+
DATE: 2016.01.19 (Created 2007.07.07, modified 2011.05.10)
AUTHORS: Kakazu Y, Horai H, Institute for Advanced Biosciences, Keio Univ.
LICENSE: CC BY-NC-SA
COMMENT: KEIO_ID T051
CH$NAME: Trimethylamine N-oxide
CH$NAME: (CH3)3NO
CH$COMPOUND_CLASS: N/A
CH$FORMULA: C3H9NO
CH$EXACT_MASS: 75.06841
CH$SMILES: C[N+1](C)(C)[O-1]
CH$IUPAC: InChI=1S/C3H9NO/c1-4(2,3)5/h1-3H3
CH$LINK: CAS 1184-78-7
CH$LINK: CHEBI CHEBI:15724
CH$LINK: KEGG C01104
CH$LINK: NIKKAJI J7.304K
CH$LINK: PUBCHEM CID:1145
CH$LINK: INCHIKEY UYPYRKYUKCHHIB-UHFFFAOYSA-N
CH$LINK: COMPTOX DTXSID8049678
AC$INSTRUMENT: API3000, Applied Biosystems
AC$INSTRUMENT_TYPE: LC-ESI-QQ
AC$MASS_SPECTROMETRY: MS_TYPE MS2
AC$MASS_SPECTROMETRY: ION_MODE POSITIVE
AC$MASS_SPECTROMETRY: COLLISION_ENERGY 20 V
MS$FOCUSED_ION: PRECURSOR_M/Z 76
MS$FOCUSED_ION: PRECURSOR_TYPE [M+H]+
PK$SPLASH: splash10-0a4i-9000000000-d155aab0cf63bd6365ca
PK$NUM_PEAK: 8
PK$PEAK: m/z int. rel.int.
  44.700 89109.0 2
  58.100 33544588.0 930
  59.100 36019838.0 999
  60.300 49505.0 1
  61.300 64356.5 2
  76.100 11519813.5 319
  92.000 24752.5 1
  124.800 69307.0 2
//
