ACCESSION: MSBNK-Keio_Univ-KO003730
RECORD_TITLE: Picolinic acid; LC-ESI-QQ; MS2; CE:30 V; [M+H]+
DATE: 2016.01.19 (Created 2007.07.07, modified 2011.05.10)
AUTHORS: Kakazu Y, Horai H, Institute for Advanced Biosciences, Keio Univ.
LICENSE: CC BY-NC-SA
COMMENT: KEIO_ID P045
CH$NAME: 2-Picolate
CH$NAME: Picolinic acid
CH$NAME: 2-Pyridinecarboxylic acid
CH$COMPOUND_CLASS: N/A
CH$FORMULA: C6H5NO2
CH$EXACT_MASS: 123.03203
CH$SMILES: OC(=O)c(c1)nccc1
CH$IUPAC: InChI=1S/C6H5NO2/c8-6(9)5-3-1-2-4-7-5/h1-4H,(H,8,9)
CH$LINK: CAS 98-98-6
CH$LINK: CHEBI CHEBI:28747
CH$LINK: KEGG C10164
CH$LINK: NIKKAJI J45.682I
CH$LINK: PUBCHEM SID:12350
CH$LINK: INCHIKEY SIOXPEMLGUPBBT-UHFFFAOYSA-N
CH$LINK: COMPTOX DTXSID7031903
AC$INSTRUMENT: API3000, Applied Biosystems
AC$INSTRUMENT_TYPE: LC-ESI-QQ
AC$MASS_SPECTROMETRY: MS_TYPE MS2
AC$MASS_SPECTROMETRY: ION_MODE POSITIVE
AC$MASS_SPECTROMETRY: COLLISION_ENERGY 30 V
MS$FOCUSED_ION: PRECURSOR_M/Z 124
MS$FOCUSED_ION: PRECURSOR_TYPE [M+H]+
PK$SPLASH: splash10-004i-9000000000-927c599edd5deaf854f0
PK$NUM_PEAK: 7
PK$PEAK: m/z int. rel.int.
  45.100 410891.5 34
  51.200 99010.0 8
  78.000 12252487.5 999
  80.800 44554.5 4
  96.200 2217824.0 181
  106.400 237624.0 19
  124.200 54455.5 4
//
