ACCESSION: MSBNK-Keio_Univ-KO003576
RECORD_TITLE: Methoxamine; LC-ESI-QQ; MS2; CE:50 V; [M+H]+
DATE: 2016.01.19 (Created 2007.07.07, modified 2011.05.10)
AUTHORS: Kakazu Y, Horai H, Institute for Advanced Biosciences, Keio Univ.
LICENSE: CC BY-NC-SA
COMMENT: KEIO_ID M169
CH$NAME: Methoxamine
CH$COMPOUND_CLASS: N/A
CH$FORMULA: C11H17NO3
CH$EXACT_MASS: 211.12084
CH$SMILES: COc(c1)cc(C(O)C(C)N)c(OC)c1
CH$IUPAC: InChI=1S/C11H17NO3/c1-7(12)11(13)9-6-8(14-2)4-5-10(9)15-3/h4-7,11,13H,12H2,1-3H3
CH$LINK: CAS 390-28-3
CH$LINK: KEGG C07513
CH$LINK: NIKKAJI J5.717G
CH$LINK: PUBCHEM SID:9716
CH$LINK: INCHIKEY WJAJPNHVVFWKKL-UHFFFAOYSA-N
CH$LINK: COMPTOX DTXSID0023290
AC$INSTRUMENT: API3000, Applied Biosystems
AC$INSTRUMENT_TYPE: LC-ESI-QQ
AC$MASS_SPECTROMETRY: MS_TYPE MS2
AC$MASS_SPECTROMETRY: ION_MODE POSITIVE
AC$MASS_SPECTROMETRY: COLLISION_ENERGY 50 V
MS$FOCUSED_ION: PRECURSOR_M/Z 212
MS$FOCUSED_ION: PRECURSOR_TYPE [M+H]+
PK$SPLASH: splash10-01bd-4900000000-5bd9da97330739f95161
PK$NUM_PEAK: 80
PK$PEAK: m/z int. rel.int.
  39.100 34653.5 2
  41.200 316832.0 15
  42.200 2341586.5 109
  43.100 1202971.5 56
  45.000 133663.5 6
  50.900 44554.5 2
  53.200 64356.5 3
  55.200 6851492.0 319
  56.300 1990101.0 93
  57.200 356436.0 17
  65.100 1757427.5 82
  67.000 3975251.5 185
  68.900 292079.5 14
  73.900 69307.0 3
  74.800 19802.0 1
  77.100 11212882.5 522
  77.900 4079212.0 190
  79.100 6178224.0 288
  80.000 772278.0 36
  81.000 1757427.5 82
  82.000 316832.0 15
  83.100 435644.0 20
  85.200 64356.5 3
  88.900 277228.0 13
  90.000 381188.5 18
  91.100 21108932.0 983
  92.100 787129.5 37
  93.000 2747527.5 128
  94.200 2366339.0 110
  95.100 6495056.0 302
  96.000 163366.5 8
  100.800 79208.0 4
  102.100 440594.5 21
  103.200 6861393.0 319
  104.100 4039608.0 188
  105.100 4430697.5 206
  106.300 1445546.0 67
  107.200 1727724.5 80
  108.300 2029705.0 94
  109.400 3341587.5 156
  110.300 410891.5 19
  114.100 59406.0 3
  115.300 2094061.5 97
  116.200 376238.0 18
  117.300 1430694.5 67
  118.200 17277245.0 804
  119.400 13262389.5 617
  120.200 1410892.5 66
  121.300 3663370.0 171
  122.100 445545.0 21
  123.200 21460417.5 999
  124.300 113861.5 5
  127.000 202970.5 9
  127.900 252475.5 12
  128.400 163366.5 8
  130.200 5975253.5 278
  131.200 5391094.5 251
  131.900 6386145.0 297
  133.000 752476.0 35
  134.100 400990.5 19
  135.300 688119.5 32
  136.200 4668321.5 217
  137.100 1732675.0 81
  138.000 2336636.0 109
  141.200 34653.5 2
  144.300 54455.5 3
  145.200 356436.0 17
  146.300 4673272.0 218
  147.000 13811895.0 643
  148.100 1475249.0 69
  148.900 891090.0 41
  149.900 118812.0 6
  152.000 34653.5 2
  160.100 39604.0 2
  161.300 3089112.0 144
  162.400 4772282.0 222
  163.800 346535.0 16
  164.300 1178219.0 55
  178.200 69307.0 3
  179.200 39604.0 2
//
