ACCESSION: MSBNK-Keio_Univ-KO001614
RECORD_TITLE: Phenyl phosphate; LC-ESI-QQ; MS2; CE:50 V; [M-H]-
DATE: 2016.01.19 (Created 2007.07.07, modified 2011.05.10)
AUTHORS: Kakazu Y, Horai H, Institute for Advanced Biosciences, Keio Univ.
LICENSE: CC BY-NC-SA
COMMENT: KEIO_ID P033
CH$NAME: Phenyl phosphate
CH$NAME: Phenolic phosphate
CH$NAME: Phenylphosphate
CH$COMPOUND_CLASS: N/A
CH$FORMULA: C6H7O4P
CH$EXACT_MASS: 174.00820
CH$SMILES: c(c1)ccc(c1)OP(O)(O)=O
CH$IUPAC: InChI=1S/C6H7O4P/c7-11(8,9)10-6-4-2-1-3-5-6/h1-5H,(H2,7,8,9)
CH$LINK: CAS 701-64-4
CH$LINK: KEGG C02734
CH$LINK: NIKKAJI J32.914B
CH$LINK: PUBCHEM CID:12793
CH$LINK: INCHIKEY CMPQUABWPXYYSH-UHFFFAOYSA-N
CH$LINK: COMPTOX DTXSID6044981
AC$INSTRUMENT: API3000, Applied Biosystems
AC$INSTRUMENT_TYPE: LC-ESI-QQ
AC$MASS_SPECTROMETRY: MS_TYPE MS2
AC$MASS_SPECTROMETRY: ION_MODE NEGATIVE
AC$MASS_SPECTROMETRY: COLLISION_ENERGY 50 V
MS$FOCUSED_ION: PRECURSOR_M/Z 173
MS$FOCUSED_ION: PRECURSOR_TYPE [M-H]-
PK$SPLASH: splash10-004i-9000000000-b7d118daff9fa001d2cd
PK$NUM_PEAK: 3
PK$PEAK: m/z int. rel.int.
  63.000 212871.5 4
  79.000 54430747.5 999
  93.000 297030.0 5
//
