ACCESSION: MSBNK-Keio_Univ-KO000778
RECORD_TITLE: N-Formylaspartic acid; LC-ESI-QQ; MS2; CE:50 V; [M-H]-
DATE: 2016.01.19 (Created 2007.07.07, modified 2011.05.10)
AUTHORS: Kakazu Y, Horai H, Institute for Advanced Biosciences, Keio Univ.
LICENSE: CC BY-NC-SA
COMMENT: KEIO_ID F022
CH$NAME: N-Formylaspartate
CH$NAME: N-Formyl-L-aspartate
CH$NAME: N-Formylaspartic acid
CH$COMPOUND_CLASS: N/A
CH$FORMULA: C5H7NO5
CH$EXACT_MASS: 161.03242
CH$SMILES: O=CN[C@@H](CC(O)=O)C(O)=O
CH$IUPAC: InChI=1S/C5H7NO5/c7-2-6-3(5(10)11)1-4(8)9/h2-3H,1H2,(H,6,7)(H,8,9)(H,10,11)/t3-/m0/s1
CH$LINK: CAS 19427-28-2
CH$LINK: CHEBI CHEBI:16923
CH$LINK: KEGG C01044
CH$LINK: NIKKAJI J242.809A
CH$LINK: PUBCHEM CID:88052
CH$LINK: INCHIKEY MQUUQXIFCBBFDP-VKHMYHEASA-N
CH$LINK: COMPTOX DTXSID30941154
AC$INSTRUMENT: API3000, Applied Biosystems
AC$INSTRUMENT_TYPE: LC-ESI-QQ
AC$MASS_SPECTROMETRY: MS_TYPE MS2
AC$MASS_SPECTROMETRY: ION_MODE NEGATIVE
AC$MASS_SPECTROMETRY: COLLISION_ENERGY 50 V
MS$FOCUSED_ION: PRECURSOR_M/Z 160
MS$FOCUSED_ION: PRECURSOR_TYPE [M-H]-
PK$SPLASH: splash10-0006-9000000000-cbc5321fe77cd24a9b50
PK$NUM_PEAK: 8
PK$PEAK: m/z int. rel.int.
  42.000 826733.5 348
  44.200 2371289.5 999
  45.000 183168.5 77
  52.000 29703.0 13
  58.800 14851.5 6
  62.700 14851.5 6
  71.000 69307.0 29
  78.900 663367.0 279
//
