ACCESSION: MSBNK-Keio_Univ-KO000955
RECORD_TITLE: TRH; LC-ESI-QQ; MS2; CE:30 V; [M-H]-
DATE: 2016.01.19 (Created 2007.07.07, modified 2011.05.10)
AUTHORS: Kakazu Y, Horai H, Institute for Advanced Biosciences, Keio Univ.
LICENSE: CC BY-NC-SA
COMMENT: KEIO_ID G117
CH$NAME: TRH
CH$NAME: Protirelin
CH$NAME: Thyrotropin releasing hormone
CH$COMPOUND_CLASS: N/A
CH$FORMULA: C16H22N6O4
CH$EXACT_MASS: 362.17025
CH$SMILES: C1C[C@H](N(C1)C(=O)[C@H](CC2=CN=CN2)NC(=O)[C@@H]3CCC(=O)N3)C(=O)N
CH$IUPAC: InChI=1S/C16H22N6O4/c17-14(24)12-2-1-5-22(12)16(26)11(6-9-7-18-8-19-9)21-15(25)10-3-4-13(23)20-10/h7-8,10-12H,1-6H2,(H2,17,24)(H,18,19)(H,20,23)(H,21,25)/t10-,11-,12-/m0/s1
CH$LINK: CAS 24305-27-9
CH$LINK: KEGG C03958
CH$LINK: NIKKAJI J3.473H
CH$LINK: PUBCHEM CID:638678
CH$LINK: INCHIKEY XNSAINXGIQZQOO-SRVKXCTJSA-N
CH$LINK: COMPTOX DTXSID0023533
AC$INSTRUMENT: API3000, Applied Biosystems
AC$INSTRUMENT_TYPE: LC-ESI-QQ
AC$MASS_SPECTROMETRY: MS_TYPE MS2
AC$MASS_SPECTROMETRY: ION_MODE NEGATIVE
AC$MASS_SPECTROMETRY: COLLISION_ENERGY 30 V
MS$FOCUSED_ION: PRECURSOR_M/Z 361
MS$FOCUSED_ION: PRECURSOR_TYPE [M-H]-
PK$SPLASH: splash10-0002-9520000000-e479a9a6a0063ad690c7
PK$NUM_PEAK: 22
PK$PEAK: m/z int. rel.int.
  45.000 2257428.0 999
  59.200 79208.0 35
  76.800 14851.5 7
  85.300 163366.5 72
  108.300 99010.0 44
  110.900 69307.0 31
  113.300 168317.0 74
  117.500 34653.5 15
  128.800 148515.0 66
  132.600 54455.5 24
  151.000 173267.5 77
  157.100 301980.5 134
  159.900 9901.0 4
  167.000 153465.5 68
  176.900 59406.0 26
  179.500 54455.5 24
  181.200 44554.5 20
  189.100 29703.0 13
  195.300 44554.5 20
  203.100 381188.5 169
  247.100 44554.5 20
  263.100 133663.5 59
//
