ACCESSION: MSBNK-Keio_Univ-KO003529
RECORD_TITLE: Muscimol; LC-ESI-QQ; MS2; CE:30 V; [M+H]+
DATE: 2016.01.19 (Created 2007.07.07, modified 2011.05.10)
AUTHORS: Kakazu Y, Horai H, Institute for Advanced Biosciences, Keio Univ.
LICENSE: CC BY-NC-SA
COMMENT: KEIO_ID M115
CH$NAME: Muscimol
CH$COMPOUND_CLASS: N/A
CH$FORMULA: C4H6N2O2
CH$EXACT_MASS: 114.04293
CH$SMILES: NCC(O1)=CC(=O)N1
CH$IUPAC: InChI=1S/C4H6N2O2/c5-2-3-1-4(7)6-8-3/h1H,2,5H2,(H,6,7)
CH$LINK: CAS 2763-96-4
CH$LINK: KEGG C08311
CH$LINK: NIKKAJI J7.909J
CH$LINK: PUBCHEM SID:10509
CH$LINK: INCHIKEY ZJQHPWUVQPJPQT-UHFFFAOYSA-N
CH$LINK: COMPTOX DTXSID5041069
AC$INSTRUMENT: API3000, Applied Biosystems
AC$INSTRUMENT_TYPE: LC-ESI-QQ
AC$MASS_SPECTROMETRY: MS_TYPE MS2
AC$MASS_SPECTROMETRY: ION_MODE POSITIVE
AC$MASS_SPECTROMETRY: COLLISION_ENERGY 30 V
MS$FOCUSED_ION: PRECURSOR_M/Z 115
MS$FOCUSED_ION: PRECURSOR_TYPE [M+H]+
PK$SPLASH: splash10-00kb-9000000000-6b5110dcd6fa6b4422e8
PK$NUM_PEAK: 8
PK$PEAK: m/z int. rel.int.
  40.400 94059.5 37
  67.000 801981.0 312
  67.900 1173268.5 457
  68.900 44554.5 17
  70.100 24752.5 10
  85.900 44554.5 17
  96.900 34653.5 14
  97.900 2564359.0 999
//
