ACCESSION: MSBNK-Keio_Univ-KO003448
RECORD_TITLE: N-Methylaniline; LC-ESI-QQ; MS2; CE:20 V; [M+H]+
DATE: 2016.01.19 (Created 2007.07.07, modified 2011.05.10)
AUTHORS: Kakazu Y, Horai H, Institute for Advanced Biosciences, Keio Univ.
LICENSE: CC BY-NC-SA
COMMENT: KEIO_ID M066
CH$NAME: N-Methylaniline
CH$NAME: N-Methylbenzenamine
CH$COMPOUND_CLASS: N/A
CH$FORMULA: C7H9N
CH$EXACT_MASS: 107.07350
CH$SMILES: CNc(c1)cccc1
CH$IUPAC: InChI=1S/C7H9N/c1-8-7-5-3-2-4-6-7/h2-6,8H,1H3
CH$LINK: CAS 100-61-8
CH$LINK: CHEBI CHEBI:15733
CH$LINK: KEGG C02299
CH$LINK: NIKKAJI J3.591B
CH$LINK: PUBCHEM CID:7515
CH$LINK: INCHIKEY AFBPFSWMIHJQDM-UHFFFAOYSA-N
CH$LINK: COMPTOX DTXSID9021841
AC$INSTRUMENT: API3000, Applied Biosystems
AC$INSTRUMENT_TYPE: LC-ESI-QQ
AC$MASS_SPECTROMETRY: MS_TYPE MS2
AC$MASS_SPECTROMETRY: ION_MODE POSITIVE
AC$MASS_SPECTROMETRY: COLLISION_ENERGY 20 V
MS$FOCUSED_ION: PRECURSOR_M/Z 108
MS$FOCUSED_ION: PRECURSOR_TYPE [M+H]+
PK$SPLASH: splash10-052f-9200000000-06b4aa473264c33e50c7
PK$NUM_PEAK: 9
PK$PEAK: m/z int. rel.int.
  45.000 74257.5 9
  55.200 1806932.5 225
  73.100 1153466.5 144
  78.000 14851.5 2
  91.000 99010.0 12
  91.900 34653.5 4
  93.000 8029711.0 999
  108.200 3495053.0 435
  169.400 9901.0 1
//
