ACCESSION: MSBNK-Keio_Univ-KO001660
RECORD_TITLE: Prostaglandin F2a; LC-ESI-QQ; MS2; CE:50 V; [M-H]-
DATE: 2016.01.19 (Created 2007.07.07, modified 2012.10.22)
AUTHORS: Kakazu Y, Horai H, Institute for Advanced Biosciences, Keio Univ.
LICENSE: CC BY-NC-SA
COMMENT: KEIO_ID P066
CH$NAME: Prostaglandin F2a
CH$NAME: Dinoprost
CH$NAME: PGF2a
CH$NAME: (5Z,13E,15S)-9alpha,11alpha,15-Trihydroxyprosta-5,13-diene-1-oic acid
CH$NAME: 9a,11a-PGF2
CH$COMPOUND_CLASS: N/A
CH$FORMULA: C20H34O5
CH$EXACT_MASS: 354.24062
CH$SMILES: CCCCC[C@@H](/C=C/[C@H]1[C@@H](C[C@@H]([C@@H]1C/C=C\CCCC(=O)O)O)O)O
CH$IUPAC: InChI=1S/C20H34O5/c1-2-3-6-9-15(21)12-13-17-16(18(22)14-19(17)23)10-7-4-5-8-11-20(24)25/h4,7,12-13,15-19,21-23H,2-3,5-6,8-11,14H2,1H3,(H,24,25)/b7-4-,13-12+/t15-,16+,17+,18-,19+/m0/s1
CH$LINK: CAS 551-11-1
CH$LINK: CAYMAN 16010
CH$LINK: CHEBI CHEBI:15553
CH$LINK: COMPTOX DTXSID9022946
CH$LINK: INCHIKEY PXGPLTODNUVGFL-YNNPMVKQSA-N
CH$LINK: KEGG C00639
CH$LINK: LIPIDBANK XPR1501
CH$LINK: NIKKAJI J9.246K
CH$LINK: PUBCHEM CID:5280363
AC$INSTRUMENT: API3000, Applied Biosystems
AC$INSTRUMENT_TYPE: LC-ESI-QQ
AC$MASS_SPECTROMETRY: MS_TYPE MS2
AC$MASS_SPECTROMETRY: ION_MODE NEGATIVE
AC$MASS_SPECTROMETRY: COLLISION_ENERGY 50 V
MS$FOCUSED_ION: PRECURSOR_M/Z 353
MS$FOCUSED_ION: PRECURSOR_TYPE [M-H]-
PK$SPLASH: splash10-0006-9700000000-32e8c42c1a30644feff4
PK$NUM_PEAK: 61
PK$PEAK: m/z int. rel.int.
  43.200 1430694.5 999
  57.400 89109.0 62
  59.300 554456.0 387
  64.800 24752.5 17
  67.300 79208.0 55
  69.300 198020.0 138
  70.900 207921.0 145
  81.000 207921.0 145
  83.400 841585.0 588
  85.200 34653.5 24
  90.900 64356.5 45
  92.600 69307.0 48
  95.300 74257.5 52
  97.100 539604.5 377
  99.400 188119.0 131
  104.900 44554.5 31
  106.800 69307.0 48
  107.300 54455.5 38
  109.000 113861.5 80
  110.900 366337.0 256
  113.300 267327.0 187
  115.000 34653.5 24
  118.100 19802.0 14
  118.700 64356.5 45
  120.100 24752.5 17
  121.000 54455.5 38
  123.200 74257.5 52
  125.000 64356.5 45
  126.900 64356.5 45
  129.400 24752.5 17
  133.700 34653.5 24
  134.900 113861.5 80
  137.200 183168.5 128
  139.200 69307.0 48
  147.500 34653.5 24
  149.000 64356.5 45
  153.000 44554.5 31
  161.000 49505.0 35
  162.800 79208.0 55
  165.400 346535.0 242
  167.200 49505.0 35
  171.200 69307.0 48
  173.100 34653.5 24
  175.000 74257.5 52
  175.700 9901.0 7
  177.600 24752.5 17
  180.000 64356.5 45
  181.100 74257.5 52
  187.000 59406.0 41
  191.100 103960.5 73
  193.100 787129.5 550
  205.900 19802.0 14
  218.600 34653.5 24
  219.400 69307.0 48
  229.200 89109.0 62
  231.900 14851.5 10
  233.600 14851.5 10
  247.300 64356.5 45
  255.000 29703.0 21
  263.600 34653.5 24
  291.100 19802.0 14
//
