ACCESSION: MSBNK-Keio_Univ-KO000098
RECORD_TITLE: 1-Amino-1-cyclopentanecarboxylic acid; LC-ESI-QQ; MS2; CE:10 V; [M-H]-
DATE: 2016.01.19 (Created 2007.07.07, modified 2011.05.10)
AUTHORS: Kakazu Y, Horai H, Institute for Advanced Biosciences, Keio Univ.
LICENSE: CC BY-NC-SA
COMMENT: KEIO_ID A050
CH$NAME: 1-Amino-1-cyclopentanecarboxylate
CH$NAME: 1-Aminocyclopentanecarboxylic acid
CH$NAME: 1-Aminocyclopentanecarboxylate
CH$NAME: 1-Amino-1-cyclopentanecarboxylic acid
CH$COMPOUND_CLASS: Non-Natural Product
CH$FORMULA: C6H11NO2
CH$EXACT_MASS: 129.07898
CH$SMILES: OC(=O)C(N)(C1)CCC1
CH$IUPAC: InChI=1S/C6H11NO2/c7-6(5(8)9)3-1-2-4-6/h1-4,7H2,(H,8,9)
CH$LINK: CAS 52-52-8
CH$LINK: KEGG C03969
CH$LINK: NIKKAJI J4.131I
CH$LINK: PUBCHEM CID:2901
CH$LINK: INCHIKEY NILQLFBWTXNUOE-UHFFFAOYSA-N
CH$LINK: COMPTOX DTXSID5024475
AC$INSTRUMENT: API3000, Applied Biosystems
AC$INSTRUMENT_TYPE: LC-ESI-QQ
AC$MASS_SPECTROMETRY: MS_TYPE MS2
AC$MASS_SPECTROMETRY: ION_MODE NEGATIVE
AC$MASS_SPECTROMETRY: COLLISION_ENERGY 10 V
MS$FOCUSED_ION: PRECURSOR_M/Z 128
MS$FOCUSED_ION: PRECURSOR_TYPE [M-H]-
PK$SPLASH: splash10-004i-0900000000-ff6cd44aca7edab8662d
PK$NUM_PEAK: 3
PK$PEAK: m/z int. rel.int.
  45.900 84158.5 1
  83.000 14851.5 1
  128.100 61613923.0 999
//
