ACCESSION: MSBNK-Keio_Univ-KO009035
RECORD_TITLE: Lidocaine; LC-ESI-IT; MS3; m/z: 235/86; [M+H]+
DATE: 2011.12.05 (Created 2008.05.12)
AUTHORS: Ojima Y, Kakazu Y, Horai H, Soga T, Institute for Advanced Biosciences, Keio Univ.
LICENSE: CC BY-NC-SA
COMMENT: KEIO_ID L034
COMMENT: [MS2] KO009034
CH$NAME: Lidocaine
CH$COMPOUND_CLASS: N/A
CH$FORMULA: C14H22N2O
CH$EXACT_MASS: 234.17321
CH$SMILES: CCN(CC)CC(=O)Nc(c(C)1)c(C)ccc1
CH$IUPAC: InChI=1S/C14H22N2O/c1-5-16(6-2)10-13(17)15-14-11(3)8-7-9-12(14)4/h7-9H,5-6,10H2,1-4H3,(H,15,17)
CH$LINK: KEGG C07073
CH$LINK: INCHIKEY NNJVILVZKWQKPM-UHFFFAOYSA-N
CH$LINK: COMPTOX DTXSID1045166
AC$INSTRUMENT: LC/MSD Trap XCT, Agilent Technologies
AC$INSTRUMENT_TYPE: LC-ESI-IT
AC$MASS_SPECTROMETRY: MS_TYPE MS3
AC$MASS_SPECTROMETRY: ION_MODE POSITIVE
AC$MASS_SPECTROMETRY: COLLISION_ENERGY 0.70/0.50
MS$FOCUSED_ION: PRECURSOR_M/Z 235/86
MS$FOCUSED_ION: PRECURSOR_TYPE [M+H]+
MS$DATA_PROCESSING: WHOLE LC/MSD Trap Control and Data Analysis
PK$SPLASH: splash10-0a4i-9000000000-d4e0664c5644155c2810
PK$NUM_PEAK: 3
PK$PEAK: m/z int. rel.int.
  56.3 2.91 70
  58.2 41.81 999
  86.1 9.90 237
//
