ACCESSION: MSBNK-Keio_Univ-KO003160
RECORD_TITLE: Hydroxyurea; LC-ESI-QQ; MS2; CE:30 V; [M+H]+
DATE: 2016.01.19 (Created 2007.07.07, modified 2011.05.10)
AUTHORS: Kakazu Y, Horai H, Institute for Advanced Biosciences, Keio Univ.
LICENSE: CC BY-NC-SA
COMMENT: KEIO_ID H104
CH$NAME: Hydroxyurea
CH$NAME: Hydroxycarbamide
CH$COMPOUND_CLASS: N/A
CH$FORMULA: CH4N2O2
CH$EXACT_MASS: 76.02728
CH$SMILES: NC(=O)NO
CH$IUPAC: InChI=1S/CH4N2O2/c2-1(4)3-5/h5H,(H3,2,3,4)
CH$LINK: CAS 127-07-1
CH$LINK: CHEBI CHEBI:5816
CH$LINK: KEGG C07044
CH$LINK: NIKKAJI J2.937H
CH$LINK: PUBCHEM CID:3657
CH$LINK: INCHIKEY VSNHCAURESNICA-UHFFFAOYSA-N
CH$LINK: COMPTOX DTXSID6025438
AC$INSTRUMENT: API3000, Applied Biosystems
AC$INSTRUMENT_TYPE: LC-ESI-QQ
AC$MASS_SPECTROMETRY: MS_TYPE MS2
AC$MASS_SPECTROMETRY: ION_MODE POSITIVE
AC$MASS_SPECTROMETRY: COLLISION_ENERGY 30 V
MS$FOCUSED_ION: PRECURSOR_M/Z 77
MS$FOCUSED_ION: PRECURSOR_TYPE [M+H]+
PK$SPLASH: splash10-01ox-9000000000-b5fb6577ca88b375ebea
PK$NUM_PEAK: 3
PK$PEAK: m/z int. rel.int.
  40.400 19802.0 95
  43.000 207921.0 999
  60.200 133663.5 642
//
