ACCESSION: MSBNK-Keio_Univ-KO000962
RECORD_TITLE: L-Histidine; LC-ESI-QQ; MS2; CE:50 V; [M-H]-
DATE: 2016.01.19 (Created 2007.07.07, modified 2011.05.10)
AUTHORS: Kakazu Y, Horai H, Institute for Advanced Biosciences, Keio Univ.
LICENSE: CC BY-NC-SA
COMMENT: KEIO_ID H002
CH$NAME: His
CH$NAME: (S)-alpha-Amino-1H-imidazole-4-propionic acid
CH$NAME: L-Histidine
CH$COMPOUND_CLASS: N/A
CH$FORMULA: C6H9N3O2
CH$EXACT_MASS: 155.06948
CH$SMILES: C1=C(NC=N1)C[C@@H](C(=O)O)N
CH$IUPAC: InChI=1S/C6H9N3O2/c7-5(6(10)11)1-4-2-8-3-9-4/h2-3,5H,1,7H2,(H,8,9)(H,10,11)/t5-/m0/s1
CH$LINK: CAS 71-00-1
CH$LINK: CHEBI CHEBI:15971
CH$LINK: CHEMPDB HIS
CH$LINK: KEGG C00135
CH$LINK: NIKKAJI J4.881J
CH$LINK: PUBCHEM CID:6274
CH$LINK: INCHIKEY HNDVDQJCIGZPNO-YFKPBYRVSA-N
CH$LINK: COMPTOX DTXSID9023126
AC$INSTRUMENT: API3000, Applied Biosystems
AC$INSTRUMENT_TYPE: LC-ESI-QQ
AC$MASS_SPECTROMETRY: MS_TYPE MS2
AC$MASS_SPECTROMETRY: ION_MODE NEGATIVE
AC$MASS_SPECTROMETRY: COLLISION_ENERGY 50 V
MS$FOCUSED_ION: PRECURSOR_M/Z 154
MS$FOCUSED_ION: PRECURSOR_TYPE [M-H]-
PK$SPLASH: splash10-014i-9000000000-08d0188684283d1b2372
PK$NUM_PEAK: 8
PK$PEAK: m/z int. rel.int.
  40.200 54455.5 92
  44.900 24752.5 42
  65.300 69307.0 118
  65.800 103960.5 176
  66.900 589109.5 999
  80.200 128713.0 218
  81.400 74257.5 126
  93.200 366337.0 621
//
