ACCESSION: MSBNK-Keio_Univ-KO004243
RECORD_TITLE: Terbutaline; LC-ESI-QQ; MS2; CE:30 V; [M+H]+
DATE: 2016.01.19 (Created 2007.07.07, modified 2012.10.22)
AUTHORS: Kakazu Y, Horai H, Institute for Advanced Biosciences, Keio Univ.
LICENSE: CC BY-NC-SA
COMMENT: KEIO_ID T126
CH$NAME: Terbutaline
CH$COMPOUND_CLASS: N/A
CH$FORMULA: C12H19NO3
CH$EXACT_MASS: 225.13649
CH$SMILES: CC(C)(C)NCC(O)c(c1)cc(O)cc(O)1
CH$IUPAC: InChI=1S/C12H19NO3/c1-12(2,3)13-7-11(16)8-4-9(14)6-10(15)5-8/h4-6,11,13-16H,7H2,1-3H3
CH$LINK: KEGG C07812
CH$LINK: PUBCHEM SID:10014
CH$LINK: INCHIKEY XWTYSIMOBUGWOL-UHFFFAOYSA-N
CH$LINK: COMPTOX DTXSID7021310
AC$INSTRUMENT: API3000, Applied Biosystems
AC$INSTRUMENT_TYPE: LC-ESI-QQ
AC$MASS_SPECTROMETRY: MS_TYPE MS2
AC$MASS_SPECTROMETRY: ION_MODE POSITIVE
AC$MASS_SPECTROMETRY: COLLISION_ENERGY 30 V
MS$FOCUSED_ION: PRECURSOR_M/Z 226
MS$FOCUSED_ION: PRECURSOR_TYPE [M+H]+
PK$SPLASH: splash10-0udi-0900000000-82b70479a4e38921e06b
PK$NUM_PEAK: 52
PK$PEAK: m/z int. rel.int.
  41.100 44554.5 1
  57.400 5074262.5 103
  58.800 19802.0 1
  67.100 29703.0 1
  69.300 237624.0 5
  69.800 79208.0 2
  74.000 99010.0 2
  74.700 29703.0 1
  77.600 39604.0 1
  79.000 202970.5 4
  80.800 366337.0 7
  81.900 143564.5 3
  82.500 34653.5 1
  84.100 480198.5 10
  86.000 133663.5 3
  86.900 39604.0 1
  90.200 19802.0 1
  91.200 321782.5 7
  91.800 341584.5 7
  92.900 69307.0 1
  95.900 44554.5 1
  97.300 64356.5 1
  103.300 19802.0 1
  105.200 59406.0 1
  106.300 237624.0 5
  107.000 11133674.5 226
  108.000 311881.5 6
  109.200 1698021.5 34
  110.100 1826734.5 37
  115.400 44554.5 1
  117.200 29703.0 1
  119.400 64356.5 1
  120.900 39604.0 1
  123.000 108911.0 2
  124.000 193069.5 4
  125.100 18198038.0 369
  134.000 534654.0 11
  135.100 2990102.0 61
  137.100 74257.5 2
  142.000 29703.0 1
  143.900 14851.5 1
  148.800 34653.5 1
  152.200 49252524.5 999
  152.900 49505.0 1
  161.700 29703.0 1
  162.900 9901.0 1
  166.100 74257.5 2
  170.300 232673.5 5
  191.300 84158.5 2
  208.200 34653.5 1
  209.200 331683.5 7
  226.100 361386.5 7
//
