ACCESSION: MSBNK-Keio_Univ-KO000144
RECORD_TITLE: N-Acetylhistidine; LC-ESI-QQ; MS2; CE:20 V; [M-H]-
DATE: 2016.01.19 (Created 2007.07.07, modified 2011.05.10)
AUTHORS: Kakazu Y, Horai H, Institute for Advanced Biosciences, Keio Univ.
LICENSE: CC BY-NC-SA
COMMENT: KEIO_ID A073
CH$NAME: N-Acetylhistidine
CH$NAME: N-Acetyl-L-histidine
CH$COMPOUND_CLASS: N/A
CH$FORMULA: C8H11N3O3
CH$EXACT_MASS: 197.08004
CH$SMILES: CC(=O)N[C@@H](CC1=CN=CN1)C(=O)O
CH$IUPAC: InChI=1S/C8H11N3O3/c1-5(12)11-7(8(13)14)2-6-3-9-4-10-6/h3-4,7H,2H2,1H3,(H,9,10)(H,11,12)(H,13,14)/t7-/m0/s1
CH$LINK: CAS 2497-02-1
CH$LINK: CHEBI CHEBI:16437
CH$LINK: KEGG C02997
CH$LINK: NIKKAJI J125.811G
CH$LINK: PUBCHEM CID:75619
CH$LINK: INCHIKEY KBOJOGQFRVVWBH-ZETCQYMHSA-N
AC$INSTRUMENT: API3000, Applied Biosystems
AC$INSTRUMENT_TYPE: LC-ESI-QQ
AC$MASS_SPECTROMETRY: MS_TYPE MS2
AC$MASS_SPECTROMETRY: ION_MODE NEGATIVE
AC$MASS_SPECTROMETRY: COLLISION_ENERGY 20 V
MS$FOCUSED_ION: PRECURSOR_M/Z 196
MS$FOCUSED_ION: PRECURSOR_TYPE [M-H]-
PK$SPLASH: splash10-0ik9-0900000000-f57a50d410d73c7b3c0d
PK$NUM_PEAK: 19
PK$PEAK: m/z int. rel.int.
  58.800 396040.0 16
  67.000 202970.5 8
  73.800 49505.0 2
  80.900 183168.5 7
  93.000 405941.0 17
  98.000 544555.0 22
  107.000 148515.0 6
  108.400 59406.0 2
  110.100 24430717.5 999
  114.900 24752.5 1
  125.300 29703.0 1
  131.700 29703.0 1
  134.000 4698024.5 192
  136.200 262376.5 11
  137.000 856436.5 35
  151.800 1311882.5 54
  154.000 15455461.0 632
  178.100 465347.0 19
  196.200 9351494.5 382
//
