ACCESSION: MSBNK-Keio_Univ-KO003916
RECORD_TITLE: Pendimethalin; LC-ESI-QQ; MS2; CE:50 V; [M+H]+
DATE: 2016.01.19 (Created 2007.07.07, modified 2011.05.10)
AUTHORS: Kakazu Y, Horai H, Institute for Advanced Biosciences, Keio Univ.
LICENSE: CC BY-NC-SA
COMMENT: KEIO_ID P183
CH$NAME: Prowl (TM)
CH$NAME: Pendimethalin
CH$COMPOUND_CLASS: N/A
CH$FORMULA: C13H19N3O4
CH$EXACT_MASS: 281.13756
CH$SMILES: CCC(CC)Nc(c([N+1]([O-1])=O)1)c([N+1]([O-1])=O)c(C)c(C)c1
CH$IUPAC: InChI=1S/C13H19N3O4/c1-5-10(6-2)14-12-11(15(17)18)7-8(3)9(4)13(12)16(19)20/h7,10,14H,5-6H2,1-4H3
CH$LINK: CAS 40487-42-1
CH$LINK: KEGG C11019
CH$LINK: NIKKAJI J1.892I
CH$LINK: PUBCHEM SID:13202
CH$LINK: INCHIKEY CHIFOSRWCNZCFN-UHFFFAOYSA-N
CH$LINK: COMPTOX DTXSID7024245
AC$INSTRUMENT: API3000, Applied Biosystems
AC$INSTRUMENT_TYPE: LC-ESI-QQ
AC$MASS_SPECTROMETRY: MS_TYPE MS2
AC$MASS_SPECTROMETRY: ION_MODE POSITIVE
AC$MASS_SPECTROMETRY: COLLISION_ENERGY 50 V
MS$FOCUSED_ION: PRECURSOR_M/Z 282
MS$FOCUSED_ION: PRECURSOR_TYPE [M+H]+
PK$SPLASH: splash10-00kf-9600000000-de7889529d379f26a7d7
PK$NUM_PEAK: 72
PK$PEAK: m/z int. rel.int.
  41.300 292079.5 91
  41.900 29703.0 9
  43.100 3212874.5 999
  53.100 376238.0 117
  54.200 94059.5 29
  55.100 143564.5 45
  56.100 34653.5 11
  60.200 24752.5 8
  62.800 123762.5 38
  63.900 292079.5 91
  65.100 1396041.0 434
  66.200 905941.5 282
  67.000 579208.5 180
  68.200 227723.0 71
  70.000 94059.5 29
  70.900 227723.0 71
  76.000 222772.5 69
  77.200 881189.0 274
  78.100 1500001.5 466
  79.300 524753.0 163
  80.000 841585.0 262
  81.000 341584.5 106
  82.300 99010.0 31
  83.000 39604.0 12
  89.200 212871.5 66
  90.000 608911.5 189
  91.000 2638616.5 820
  91.900 2460398.5 765
  93.100 698020.5 217
  94.300 326733.0 102
  95.200 99010.0 31
  95.900 301980.5 94
  98.300 79208.0 25
  102.100 198020.0 62
  103.200 1084159.5 337
  104.100 742575.0 231
  105.100 896040.5 279
  106.200 524753.0 163
  107.100 227723.0 71
  108.000 94059.5 29
  109.200 163366.5 51
  110.300 64356.5 20
  114.700 24752.5 8
  116.200 108911.0 34
  117.000 752476.0 234
  118.200 811882.0 252
  119.000 1891091.0 588
  120.100 886139.5 276
  120.900 153465.5 48
  122.300 158416.0 49
  123.900 39604.0 12
  126.100 59406.0 18
  129.100 396040.0 123
  130.200 267327.0 83
  131.100 534654.0 166
  131.900 173267.5 54
  133.200 207921.0 65
  134.300 44554.5 14
  134.800 74257.5 23
  136.000 128713.0 40
  140.000 39604.0 12
  141.900 14851.5 5
  145.100 69307.0 22
  147.200 435644.0 135
  148.300 1559407.5 485
  149.300 207921.0 65
  160.000 108911.0 34
  164.200 128713.0 40
  176.300 94059.5 29
  177.500 133663.5 42
  178.000 232673.5 72
  194.500 79208.0 25
//
