ACCESSION: MSBNK-Keio_Univ-KO000484
RECORD_TITLE: 2-Chlorobenzoic acid; LC-ESI-QQ; MS2; CE:40 V; [M-H]-
DATE: 2016.01.19 (Created 2007.07.07, modified 2011.05.10)
AUTHORS: Kakazu Y, Horai H, Institute for Advanced Biosciences, Keio Univ.
LICENSE: CC BY-NC-SA
COMMENT: KEIO_ID C088
CH$NAME: 2-Chlorobenzoate
CH$NAME: o-Chlorobenzoic acid
CH$NAME: 2-Chlorobenzoic acid
CH$COMPOUND_CLASS: N/A
CH$FORMULA: C7H5ClO2
CH$EXACT_MASS: 155.99781
CH$SMILES: OC(=O)c(c1)c(Cl)ccc1
CH$IUPAC: InChI=1S/C7H5ClO2/c8-6-4-2-1-3-5(6)7(9)10/h1-4H,(H,9,10)
CH$LINK: CAS 118-91-2
CH$LINK: CHEBI CHEBI:30793
CH$LINK: KEGG C02357
CH$LINK: NIKKAJI J26.900J
CH$LINK: PUBCHEM SID:5404
CH$LINK: INCHIKEY IKCLCGXPQILATA-UHFFFAOYSA-N
CH$LINK: COMPTOX DTXSID4024771
AC$INSTRUMENT: API3000, Applied Biosystems
AC$INSTRUMENT_TYPE: LC-ESI-QQ
AC$MASS_SPECTROMETRY: MS_TYPE MS2
AC$MASS_SPECTROMETRY: ION_MODE NEGATIVE
AC$MASS_SPECTROMETRY: COLLISION_ENERGY 40 V
MS$FOCUSED_ION: PRECURSOR_M/Z 155
MS$FOCUSED_ION: PRECURSOR_TYPE [M-H]-
PK$SPLASH: splash10-000i-9000000000-674c52933a3d596f8cec
PK$NUM_PEAK: 9
PK$PEAK: m/z int. rel.int.
  35.200 2801983.0 999
  56.800 64356.5 23
  59.000 222772.5 79
  76.600 19802.0 7
  79.700 232673.5 83
  79.900 316832.0 113
  82.000 49505.0 18
  95.200 108911.0 39
  97.000 1143565.5 408
//
