ACCESSION: MSBNK-Keio_Univ-KO003820
RECORD_TITLE: L-5-Oxoproline; LC-ESI-QQ; MS2; CE:30 V; [M+H]+
DATE: 2016.01.19 (Created 2007.07.07, modified 2011.05.10)
AUTHORS: Kakazu Y, Horai H, Institute for Advanced Biosciences, Keio Univ.
LICENSE: CC BY-NC-SA
COMMENT: KEIO_ID P073
CH$NAME: L-5-Oxoproline(2)
CH$NAME: Pyroglutamate
CH$NAME: 5-Pyrrolidone-2-carboxylic acid
CH$NAME: Pyroglutamic acid
CH$NAME: 5-Oxoproline
CH$NAME: L-5-Oxoproline
CH$COMPOUND_CLASS: N/A
CH$FORMULA: C5H7NO3
CH$EXACT_MASS: 129.04259
CH$SMILES: O=C(C1)NC(C1)C(O)=O
CH$IUPAC: InChI=1S/C5H7NO3/c7-4-2-1-3(6-4)5(8)9/h3H,1-2H2,(H,6,7)(H,8,9)/t3-/m0/s1
CH$LINK: CAS 98-79-3
CH$LINK: KEGG C01879
CH$LINK: NIKKAJI J4.959J
CH$LINK: PUBCHEM CID:7405
CH$LINK: INCHIKEY ODHCTXKNWHHXJC-VKHMYHEASA-N
CH$LINK: COMPTOX DTXSID6046260
AC$INSTRUMENT: API3000, Applied Biosystems
AC$INSTRUMENT_TYPE: LC-ESI-QQ
AC$MASS_SPECTROMETRY: MS_TYPE MS2
AC$MASS_SPECTROMETRY: ION_MODE POSITIVE
AC$MASS_SPECTROMETRY: COLLISION_ENERGY 30 V
MS$FOCUSED_ION: PRECURSOR_M/Z 130
MS$FOCUSED_ION: PRECURSOR_TYPE [M+H]+
PK$SPLASH: splash10-014i-9000000000-356215339a43217dea66
PK$NUM_PEAK: 9
PK$PEAK: m/z int. rel.int.
  41.300 19802.0 85
  43.200 29703.0 128
  66.900 232673.5 999
  69.200 123762.5 531
  71.100 54455.5 234
  77.900 79208.0 340
  84.100 153465.5 659
  95.100 99010.0 425
  113.000 34653.5 149
//
