ACCESSION: MSBNK-Keio_Univ-KO003800
RECORD_TITLE: Psychosine; LC-ESI-QQ; MS2; CE:30 V; [M+H]+
DATE: 2016.01.19 (Created 2007.07.07, modified 2011.05.10)
AUTHORS: Kakazu Y, Horai H, Institute for Advanced Biosciences, Keio Univ.
LICENSE: CC BY-NC-SA
COMMENT: KEIO_ID P067
CH$NAME: Psychosine
CH$NAME: O-Galactosylsphingosine
CH$NAME: Galactosylsphingosine
CH$COMPOUND_CLASS: N/A
CH$FORMULA: C24H47NO7
CH$EXACT_MASS: 461.33525
CH$SMILES: CCCCCCCCCCCCCC=C[C@@H](O)[C@@H](N)CO[C@H](O1)[C@H](O)[C@@H](O)[C@@H](O)[C@@H](CO)1
CH$IUPAC: InChI=1S/C24H47NO7/c1-2-3-4-5-6-7-8-9-10-11-12-13-14-15-19(27)18(25)17-31-24-23(30)22(29)21(28)20(16-26)32-24/h14-15,18-24,26-30H,2-13,16-17,25H2,1H3/b15-14+/t18-,19+,20+,21-,22-,23+,24+/m0/s1
CH$LINK: CAS 2238-90-6
CH$LINK: CHEBI CHEBI:16874
CH$LINK: KEGG C01747
CH$LINK: NIKKAJI J39.570F
CH$LINK: PUBCHEM CID:5280458
CH$LINK: INCHIKEY HHJTWTPUPVQKNA-PIIMIWFASA-N
AC$INSTRUMENT: API3000, Applied Biosystems
AC$INSTRUMENT_TYPE: LC-ESI-QQ
AC$MASS_SPECTROMETRY: MS_TYPE MS2
AC$MASS_SPECTROMETRY: ION_MODE POSITIVE
AC$MASS_SPECTROMETRY: COLLISION_ENERGY 30 V
MS$FOCUSED_ION: PRECURSOR_M/Z 462
MS$FOCUSED_ION: PRECURSOR_TYPE [M+H]+
PK$SPLASH: splash10-001i-0090000000-b38f23eca4495d579da4
PK$NUM_PEAK: 65
PK$PEAK: m/z int. rel.int.
  61.100 59406.0 2
  73.000 178218.0 7
  82.900 39604.0 1
  84.900 267327.0 10
  90.900 430693.5 16
  93.100 54455.5 2
  94.000 34653.5 1
  95.300 143564.5 5
  96.900 321782.5 12
  98.800 74257.5 3
  102.700 14851.5 1
  107.000 84158.5 3
  109.100 173267.5 7
  112.000 44554.5 2
  121.000 163366.5 6
  123.100 69307.0 3
  127.000 103960.5 4
  135.200 128713.0 5
  137.100 29703.0 1
  144.200 29703.0 1
  145.100 183168.5 7
  147.100 89109.0 3
  147.900 14851.5 1
  149.300 148515.0 6
  163.400 64356.5 2
  165.100 54455.5 2
  172.900 9901.0 1
  184.300 14851.5 1
  191.400 19802.0 1
  207.100 44554.5 2
  208.800 9901.0 1
  211.300 410891.5 16
  212.500 69307.0 3
  213.800 29703.0 1
  223.400 34653.5 1
  234.500 19802.0 1
  236.200 14851.5 1
  238.500 29703.0 1
  247.800 138614.0 5
  250.400 19802.0 1
  252.400 856436.5 32
  262.200 34653.5 1
  264.600 8960405.0 339
  265.400 168317.0 6
  266.400 618812.5 23
  276.500 39604.0 1
  282.700 26420818.5 999
  300.800 806931.5 31
  318.400 89109.0 3
  324.800 237624.0 9
  325.600 24752.5 1
  333.200 9901.0 1
  341.400 1277229.0 48
  341.900 19802.0 1
  353.000 9901.0 1
  359.200 103960.5 4
  359.900 14851.5 1
  378.700 79208.0 3
  396.800 232673.5 9
  408.900 158416.0 6
  414.900 247525.0 9
  426.700 495050.0 19
  429.400 173267.5 7
  444.800 1113862.5 42
  462.900 495050.0 19
//
