ACCESSION: MSBNK-Keio_Univ-KO004176
RECORD_TITLE: Trimethylamine N-oxide; LC-ESI-QQ; MS2; CE:10 V; [M+H]+
DATE: 2016.01.19 (Created 2007.07.07, modified 2011.05.10)
AUTHORS: Kakazu Y, Horai H, Institute for Advanced Biosciences, Keio Univ.
LICENSE: CC BY-NC-SA
COMMENT: KEIO_ID T051
CH$NAME: Trimethylamine N-oxide
CH$NAME: (CH3)3NO
CH$COMPOUND_CLASS: N/A
CH$FORMULA: C3H9NO
CH$EXACT_MASS: 75.06841
CH$SMILES: C[N+1](C)(C)[O-1]
CH$IUPAC: InChI=1S/C3H9NO/c1-4(2,3)5/h1-3H3
CH$LINK: CAS 1184-78-7
CH$LINK: CHEBI CHEBI:15724
CH$LINK: KEGG C01104
CH$LINK: NIKKAJI J7.304K
CH$LINK: PUBCHEM SID:4338
CH$LINK: INCHIKEY UYPYRKYUKCHHIB-UHFFFAOYSA-N
CH$LINK: COMPTOX DTXSID8049678
AC$INSTRUMENT: API3000, Applied Biosystems
AC$INSTRUMENT_TYPE: LC-ESI-QQ
AC$MASS_SPECTROMETRY: MS_TYPE MS2
AC$MASS_SPECTROMETRY: ION_MODE POSITIVE
AC$MASS_SPECTROMETRY: COLLISION_ENERGY 10 V
MS$FOCUSED_ION: PRECURSOR_M/Z 76
MS$FOCUSED_ION: PRECURSOR_TYPE [M+H]+
PK$SPLASH: splash10-004i-9000000000-0e637352d88abe7c2b0a
PK$NUM_PEAK: 6
PK$PEAK: m/z int. rel.int.
  16.100 9901.0 1
  29.500 79208.0 1
  41.100 19802.0 1
  58.100 2653468.0 12
  59.100 9485158.0 44
  76.200 213495263.0 999
//
