ACCESSION: MSBNK-Keio_Univ-KO000669
RECORD_TITLE: Na,Na-Dimethylhistidine; LC-ESI-QQ; MS2; CE:10 V; [M-H]-
DATE: 2016.01.19 (Created 2007.07.07, modified 2011.05.10)
AUTHORS: Kakazu Y, Horai H, Institute for Advanced Biosciences, Keio Univ.
LICENSE: CC BY-NC-SA
COMMENT: KEIO_ID D131
CH$NAME: Na,Na-Dimethylhistidine
CH$NAME: Nalpha,Nalpha-Dimethyl-L-histidine
CH$COMPOUND_CLASS: N/A
CH$FORMULA: C8H13N3O2
CH$EXACT_MASS: 183.10078
CH$SMILES: CN(C)[C@@H](CC1=CN=CN1)C(=O)O
CH$IUPAC: InChI=1S/C8H13N3O2/c1-11(2)7(8(12)13)3-6-4-9-5-10-6/h4-5,7H,3H2,1-2H3,(H,9,10)(H,12,13)/t7-/m0/s1
CH$LINK: CHEBI CHEBI:16029
CH$LINK: KEGG C04259
CH$LINK: PUBCHEM CID:440274
CH$LINK: INCHIKEY IMOBSLOLPCWZKQ-ZETCQYMHSA-N
CH$LINK: COMPTOX DTXSID60947821
AC$INSTRUMENT: API3000, Applied Biosystems
AC$INSTRUMENT_TYPE: LC-ESI-QQ
AC$MASS_SPECTROMETRY: MS_TYPE MS2
AC$MASS_SPECTROMETRY: ION_MODE NEGATIVE
AC$MASS_SPECTROMETRY: COLLISION_ENERGY 10 V
MS$FOCUSED_ION: PRECURSOR_M/Z 182
MS$FOCUSED_ION: PRECURSOR_TYPE [M-H]-
PK$SPLASH: splash10-001i-0900000000-29a68bb8d4ae65cdd800
PK$NUM_PEAK: 5
PK$PEAK: m/z int. rel.int.
  113.900 14851.5 1
  137.000 950496.0 40
  137.800 84158.5 4
  148.900 64356.5 3
  182.200 23727746.5 999
//
