ACCESSION: MSBNK-Keio_Univ-KO001334
RECORD_TITLE: Malonic acid; LC-ESI-QQ; MS2; CE:20 V; [M-H]-
DATE: 2016.01.19 (Created 2007.07.07, modified 2011.05.10)
AUTHORS: Kakazu Y, Horai H, Institute for Advanced Biosciences, Keio Univ.
LICENSE: CC BY-NC-SA
COMMENT: KEIO_ID M012
CH$NAME: Malonate
CH$NAME: Malonic acid
CH$NAME: Propanedioic acid
CH$COMPOUND_CLASS: N/A
CH$FORMULA: C3H4O4
CH$EXACT_MASS: 104.01096
CH$SMILES: OC(=O)CC(O)=O
CH$IUPAC: InChI=1S/C3H4O4/c4-2(5)1-3(6)7/h1H2,(H,4,5)(H,6,7)
CH$LINK: CAS 141-82-2
CH$LINK: CHEBI CHEBI:30794
CH$LINK: CHEMPDB MLA
CH$LINK: KEGG C00383
CH$LINK: NIKKAJI J2.541K
CH$LINK: PUBCHEM SID:3673
CH$LINK: INCHIKEY OFOBLEOULBTSOW-UHFFFAOYSA-N
CH$LINK: COMPTOX DTXSID7021659
AC$INSTRUMENT: API3000, Applied Biosystems
AC$INSTRUMENT_TYPE: LC-ESI-QQ
AC$MASS_SPECTROMETRY: MS_TYPE MS2
AC$MASS_SPECTROMETRY: ION_MODE NEGATIVE
AC$MASS_SPECTROMETRY: COLLISION_ENERGY 20 V
MS$FOCUSED_ION: PRECURSOR_M/Z 103
MS$FOCUSED_ION: PRECURSOR_TYPE [M-H]-
PK$SPLASH: splash10-0a4i-9000000000-4c03aa889e6a98ab532f
PK$NUM_PEAK: 7
PK$PEAK: m/z int. rel.int.
  30.700 14851.5 1
  41.100 376238.0 18
  43.000 49505.0 2
  57.500 331683.5 16
  59.000 20396060.0 999
  74.800 34653.5 2
  103.100 886139.5 43
//
