ACCESSION: MSBNK-Keio_Univ-KO001251
RECORD_TITLE: Isonicotinic acid hydrazide; LC-ESI-QQ; MS2; CE:10 V; [M-H]-
DATE: 2016.01.19 (Created 2007.07.07, modified 2011.05.10)
AUTHORS: Kakazu Y, Horai H, Institute for Advanced Biosciences, Keio Univ.
LICENSE: CC BY-NC-SA
COMMENT: KEIO_ID I066
CH$NAME: Isonicotinate hydrazide
CH$NAME: Isoniazid
CH$NAME: Isonicotinic acid hydrazide
CH$COMPOUND_CLASS: N/A
CH$FORMULA: C6H7N3O
CH$EXACT_MASS: 137.05891
CH$SMILES: NNC(=O)c(c1)ccnc1
CH$IUPAC: InChI=1S/C6H7N3O/c7-9-6(10)5-1-3-8-4-2-5/h1-4H,7H2,(H,9,10)
CH$LINK: CAS 54-85-3
CH$LINK: CHEBI CHEBI:6030
CH$LINK: KEGG C07054
CH$LINK: NIKKAJI J1.371D
CH$LINK: PUBCHEM SID:9266
CH$LINK: INCHIKEY QRXWMOHMRWLFEY-UHFFFAOYSA-N
CH$LINK: COMPTOX DTXSID8020755
AC$INSTRUMENT: API3000, Applied Biosystems
AC$INSTRUMENT_TYPE: LC-ESI-QQ
AC$MASS_SPECTROMETRY: MS_TYPE MS2
AC$MASS_SPECTROMETRY: ION_MODE NEGATIVE
AC$MASS_SPECTROMETRY: COLLISION_ENERGY 10 V
MS$FOCUSED_ION: PRECURSOR_M/Z 136
MS$FOCUSED_ION: PRECURSOR_TYPE [M-H]-
PK$SPLASH: splash10-000i-0900000000-3cf8f43d0df46334dcd9
PK$NUM_PEAK: 9
PK$PEAK: m/z int. rel.int.
  57.000 1420793.5 6
  58.900 128713.0 1
  60.000 24752.5 1
  75.800 99010.0 1
  78.000 64356.5 1
  91.800 163366.5 1
  108.000 49505.0 1
  120.100 29703.0 1
  136.100 218861605.0 999
//
