ACCESSION: MSBNK-Keio_Univ-KO004146
RECORD_TITLE: Tryptamine; LC-ESI-QQ; MS2; CE:50 V; [M+H]+
DATE: 2016.01.19 (Created 2007.07.07, modified 2011.05.10)
AUTHORS: Kakazu Y, Horai H, Institute for Advanced Biosciences, Keio Univ.
LICENSE: CC BY-NC-SA
COMMENT: KEIO_ID T031
CH$NAME: Tryptamine
CH$NAME: 3-(2-Aminoethyl)indole
CH$COMPOUND_CLASS: N/A
CH$FORMULA: C10H12N2
CH$EXACT_MASS: 160.10005
CH$SMILES: C1=CC=C2C(=C1)C(=CN2)CCN
CH$IUPAC: InChI=1S/C10H12N2/c11-6-5-8-7-12-10-4-2-1-3-9(8)10/h1-4,7,12H,5-6,11H2
CH$LINK: CAS 61-54-1
CH$LINK: CHEBI CHEBI:16765
CH$LINK: KEGG C00398
CH$LINK: NIKKAJI J4.816J
CH$LINK: PUBCHEM SID:3688
CH$LINK: INCHIKEY APJYDQYYACXCRM-UHFFFAOYSA-N
CH$LINK: COMPTOX DTXSID2075340
AC$INSTRUMENT: API3000, Applied Biosystems
AC$INSTRUMENT_TYPE: LC-ESI-QQ
AC$MASS_SPECTROMETRY: MS_TYPE MS2
AC$MASS_SPECTROMETRY: ION_MODE POSITIVE
AC$MASS_SPECTROMETRY: COLLISION_ENERGY 50 V
MS$FOCUSED_ION: PRECURSOR_M/Z 161
MS$FOCUSED_ION: PRECURSOR_TYPE [M+H]+
PK$SPLASH: splash10-014l-7900000000-b62047ba50e6464b146c
PK$NUM_PEAK: 47
PK$PEAK: m/z int. rel.int.
  38.900 123762.5 8
  40.900 39604.0 2
  42.100 54455.5 3
  51.200 188119.0 11
  54.300 49505.0 3
  55.500 24752.5 2
  59.800 9901.0 1
  62.900 118812.0 7
  65.000 1841586.0 112
  66.200 183168.5 11
  66.900 420792.5 26
  67.900 39604.0 2
  71.900 247525.0 15
  75.100 232673.5 14
  76.600 361386.5 22
  77.000 6534660.0 399
  78.000 519802.5 32
  79.200 103960.5 6
  79.700 34653.5 2
  81.200 113861.5 7
  89.000 3886142.5 237
  90.200 5183173.5 316
  91.100 16376254.0 999
  93.400 84158.5 5
  95.100 405941.0 25
  101.200 896040.5 55
  101.900 866337.5 53
  103.200 732674.0 45
  104.900 54455.5 3
  114.400 118812.0 7
  115.300 14509915.5 885
  116.200 2876240.5 175
  117.200 12529715.5 764
  118.300 183168.5 11
  119.000 59406.0 4
  126.100 772278.0 47
  127.100 2089111.0 127
  128.300 1504952.0 92
  129.000 420792.5 26
  130.100 108911.0 7
  140.200 34653.5 2
  141.300 183168.5 11
  142.100 2475250.0 151
  142.900 5019807.0 306
  144.200 425743.0 26
  145.100 188119.0 11
  155.600 64356.5 4
//
