ACCESSION: MSBNK-Keio_Univ-KO000951
RECORD_TITLE: Glucose 1-phosphate; LC-ESI-QQ; MS2; CE:40 V; [M-H]-
DATE: 2016.01.19 (Created 2007.07.07, modified 2011.05.10)
AUTHORS: Kakazu Y, Horai H, Institute for Advanced Biosciences, Keio Univ.
LICENSE: CC BY-NC-SA
COMMENT: KEIO_ID G115
CH$NAME: Glucose 1-phosphate(2)
CH$NAME: D-Glucose alpha-1-phosphate
CH$NAME: D-Glucose 1-phosphate
CH$NAME: alpha-D-Glucose 1-phosphate
CH$NAME: Cori ester
CH$NAME: Glucose 1-phosphate
CH$COMPOUND_CLASS: N/A
CH$FORMULA: C6H13O9P
CH$EXACT_MASS: 260.02972
CH$SMILES: OCC(O1)C(O)C(O)C(O)C1OP(O)(O)=O
CH$IUPAC: InChI=1S/C6H13O9P/c7-1-2-3(8)4(9)5(10)6(14-2)15-16(11,12)13/h2-10H,1H2,(H2,11,12,13)/t2-,3-,4+,5-,6-/m1/s1
CH$LINK: CAS 59-56-3
CH$LINK: CHEBI CHEBI:16077
CH$LINK: KEGG C00103
CH$LINK: NIKKAJI J40.065C
CH$LINK: PUBCHEM CID:65533
CH$LINK: INCHIKEY HXXFSFRBOHSIMQ-VFUOTHLCSA-N
CH$LINK: COMPTOX DTXSID90889321
AC$INSTRUMENT: API3000, Applied Biosystems
AC$INSTRUMENT_TYPE: LC-ESI-QQ
AC$MASS_SPECTROMETRY: MS_TYPE MS2
AC$MASS_SPECTROMETRY: ION_MODE NEGATIVE
AC$MASS_SPECTROMETRY: COLLISION_ENERGY 40 V
MS$FOCUSED_ION: PRECURSOR_M/Z 259
MS$FOCUSED_ION: PRECURSOR_TYPE [M-H]-
PK$SPLASH: splash10-004i-9000000000-41baf1958afa8e1bca49
PK$NUM_PEAK: 6
PK$PEAK: m/z int. rel.int.
  59.100 84158.5 2
  78.900 39678257.5 999
  86.900 49505.0 1
  92.700 14851.5 1
  97.100 3415845.0 86
  124.800 222772.5 6
//
