ACCESSION: MSBNK-Keio_Univ-KO000797
RECORD_TITLE: 3-Fluorobenzoic acid; LC-ESI-QQ; MS2; CE:40 V; [M-H]-
DATE: 2016.01.19 (Created 2007.07.07, modified 2011.05.10)
AUTHORS: Kakazu Y, Horai H, Institute for Advanced Biosciences, Keio Univ.
LICENSE: CC BY-NC-SA
COMMENT: KEIO_ID F032
CH$NAME: 3-Fluorobenzoate
CH$NAME: 3-Fluorobenzoic acid
CH$COMPOUND_CLASS: N/A
CH$FORMULA: C7H5FO2
CH$EXACT_MASS: 140.02736
CH$SMILES: OC(=O)c(c1)cc(F)cc1
CH$IUPAC: InChI=1S/C7H5FO2/c8-6-3-1-2-5(4-6)7(9)10/h1-4H,(H,9,10)
CH$LINK: CAS 455-38-9
CH$LINK: KEGG C02364
CH$LINK: NIKKAJI J47.806G
CH$LINK: PUBCHEM CID:9968
CH$LINK: INCHIKEY MXNBDFWNYRNIBH-UHFFFAOYSA-N
CH$LINK: COMPTOX DTXSID4060020
AC$INSTRUMENT: API3000, Applied Biosystems
AC$INSTRUMENT_TYPE: LC-ESI-QQ
AC$MASS_SPECTROMETRY: MS_TYPE MS2
AC$MASS_SPECTROMETRY: ION_MODE NEGATIVE
AC$MASS_SPECTROMETRY: COLLISION_ENERGY 40 V
MS$FOCUSED_ION: PRECURSOR_M/Z 139
MS$FOCUSED_ION: PRECURSOR_TYPE [M-H]-
PK$SPLASH: splash10-004i-9000000000-2506333df35d2077d954
PK$NUM_PEAK: 5
PK$PEAK: m/z int. rel.int.
  49.200 222772.5 22
  75.000 10183178.5 999
  76.800 19802.0 2
  79.000 396040.0 39
  95.400 732674.0 72
//
