ACCESSION: MSBNK-Keio_Univ-KO003801
RECORD_TITLE: Psychosine; LC-ESI-QQ; MS2; CE:40 V; [M+H]+
DATE: 2016.01.19 (Created 2007.07.07, modified 2011.05.10)
AUTHORS: Kakazu Y, Horai H, Institute for Advanced Biosciences, Keio Univ.
LICENSE: CC BY-NC-SA
COMMENT: KEIO_ID P067
CH$NAME: Psychosine
CH$NAME: O-Galactosylsphingosine
CH$NAME: Galactosylsphingosine
CH$COMPOUND_CLASS: N/A
CH$FORMULA: C24H47NO7
CH$EXACT_MASS: 461.33525
CH$SMILES: CCCCCCCCCCCCCC=C[C@@H](O)[C@@H](N)CO[C@H](O1)[C@H](O)[C@@H](O)[C@@H](O)[C@@H](CO)1
CH$IUPAC: InChI=1S/C24H47NO7/c1-2-3-4-5-6-7-8-9-10-11-12-13-14-15-19(27)18(25)17-31-24-23(30)22(29)21(28)20(16-26)32-24/h14-15,18-24,26-30H,2-13,16-17,25H2,1H3/b15-14+/t18-,19+,20+,21-,22-,23+,24+/m0/s1
CH$LINK: CAS 2238-90-6
CH$LINK: CHEBI CHEBI:16874
CH$LINK: KEGG C01747
CH$LINK: NIKKAJI J39.570F
CH$LINK: PUBCHEM CID:5280458
CH$LINK: INCHIKEY HHJTWTPUPVQKNA-PIIMIWFASA-N
AC$INSTRUMENT: API3000, Applied Biosystems
AC$INSTRUMENT_TYPE: LC-ESI-QQ
AC$MASS_SPECTROMETRY: MS_TYPE MS2
AC$MASS_SPECTROMETRY: ION_MODE POSITIVE
AC$MASS_SPECTROMETRY: COLLISION_ENERGY 40 V
MS$FOCUSED_ION: PRECURSOR_M/Z 462
MS$FOCUSED_ION: PRECURSOR_TYPE [M+H]+
PK$SPLASH: splash10-001i-3190000000-1fd13b9e7440022c75a0
PK$NUM_PEAK: 72
PK$PEAK: m/z int. rel.int.
  56.000 84158.5 8
  57.200 94059.5 9
  61.100 594060.0 54
  67.000 118812.0 11
  69.300 237624.0 22
  70.200 49505.0 5
  71.100 89109.0 8
  73.000 787129.5 72
  79.000 158416.0 14
  80.900 549505.5 50
  82.300 232673.5 21
  83.200 331683.5 30
  84.500 24752.5 2
  85.100 920793.0 84
  86.100 49505.0 5
  90.900 965347.5 88
  93.000 400990.5 37
  94.100 34653.5 3
  95.000 623763.0 57
  96.100 287129.0 26
  96.900 905941.5 83
  99.000 74257.5 7
  101.000 24752.5 2
  102.600 34653.5 3
  107.200 405941.0 37
  109.400 579208.5 53
  110.400 94059.5 9
  111.300 237624.0 22
  115.300 79208.0 7
  117.300 29703.0 3
  121.000 321782.5 29
  123.400 123762.5 11
  124.400 29703.0 3
  127.200 158416.0 14
  133.100 24752.5 2
  134.000 59406.0 5
  135.000 292079.5 27
  145.000 94059.5 9
  146.900 262376.5 24
  148.900 306931.0 28
  151.200 24752.5 2
  153.400 24752.5 2
  165.300 84158.5 8
  166.200 24752.5 2
  174.400 19802.0 2
  184.400 39604.0 4
  193.400 59406.0 5
  197.100 14851.5 1
  207.500 94059.5 9
  211.300 198020.0 18
  223.000 39604.0 4
  236.500 24752.5 2
  247.300 44554.5 4
  252.600 1787130.5 163
  260.300 14851.5 1
  264.600 3975251.5 364
  264.900 74257.5 7
  266.600 178218.0 16
  276.300 89109.0 8
  282.700 10920803.0 999
  289.200 39604.0 4
  306.500 39604.0 4
  318.400 54455.5 5
  324.500 133663.5 12
  325.500 84158.5 8
  341.400 297030.0 27
  342.200 29703.0 3
  344.900 24752.5 2
  348.600 24752.5 2
  396.500 108911.0 10
  409.000 74257.5 7
  426.600 69307.0 6
//
