ACCESSION: MSBNK-Keio_Univ-KO003067
RECORD_TITLE: Hydroxyproline; LC-ESI-QQ; MS2; CE:50 V; [M+H]+
DATE: 2016.01.19 (Created 2007.07.07, modified 2011.05.10)
AUTHORS: Kakazu Y, Horai H, Institute for Advanced Biosciences, Keio Univ.
LICENSE: CC BY-NC-SA
COMMENT: KEIO_ID H004
CH$NAME: Hydroxyproline
CH$NAME: 4-Hydroxy-L-proline
CH$NAME: L-Hydroxyproline
CH$COMPOUND_CLASS: N/A
CH$FORMULA: C5H9NO3
CH$EXACT_MASS: 131.05824
CH$SMILES: OC(C1)CC(N1)C(O)=O
CH$IUPAC: InChI=1S/C5H9NO3/c7-3-1-4(5(8)9)6-2-3/h3-4,6-7H,1-2H2,(H,8,9)/t3?,4-/m0/s1
CH$LINK: CAS 51-35-4
CH$LINK: CHEBI CHEBI:18240
CH$LINK: KEGG C01015
CH$LINK: NIKKAJI J148.015D
CH$LINK: PUBCHEM CID:440015
CH$LINK: INCHIKEY PMMYEEVYMWASQN-BKLSDQPFSA-N
AC$INSTRUMENT: API3000, Applied Biosystems
AC$INSTRUMENT_TYPE: LC-ESI-QQ
AC$MASS_SPECTROMETRY: MS_TYPE MS2
AC$MASS_SPECTROMETRY: ION_MODE POSITIVE
AC$MASS_SPECTROMETRY: COLLISION_ENERGY 50 V
MS$FOCUSED_ION: PRECURSOR_M/Z 132
MS$FOCUSED_ION: PRECURSOR_TYPE [M+H]+
PK$SPLASH: splash10-014i-9000000000-1c34470907bfbc038d07
PK$NUM_PEAK: 6
PK$PEAK: m/z int. rel.int.
  39.200 108911.0 48
  40.900 405941.0 180
  43.900 24752.5 11
  58.100 247525.0 110
  68.000 2252477.5 999
  86.000 128713.0 57
//
