ACCESSION: MSBNK-Keio_Univ-KO003273
RECORD_TITLE: Ketamine; LC-ESI-QQ; MS2; CE:20 V; [M+H]+
DATE: 2016.01.19 (Created 2007.07.07, modified 2011.05.10)
AUTHORS: Kakazu Y, Horai H, Institute for Advanced Biosciences, Keio Univ.
LICENSE: CC BY-NC-SA
COMMENT: KEIO_ID K005
CH$NAME: Ketamine
CH$COMPOUND_CLASS: N/A
CH$FORMULA: C13H16ClNO
CH$EXACT_MASS: 237.09204
CH$SMILES: CNC(C2)(C(=O)CCC2)c(c1)c(Cl)ccc1
CH$IUPAC: InChI=1S/C13H16ClNO/c1-15-13(9-5-4-8-12(13)16)10-6-2-3-7-11(10)14/h2-3,6-7,15H,4-5,8-9H2,1H3
CH$LINK: CAS 6740-88-1
CH$LINK: KEGG C07525
CH$LINK: NIKKAJI J244.885H
CH$LINK: PUBCHEM SID:9728
CH$LINK: INCHIKEY YQEZLKZALYSWHR-UHFFFAOYSA-N
CH$LINK: COMPTOX DTXSID8023187
AC$INSTRUMENT: API3000, Applied Biosystems
AC$INSTRUMENT_TYPE: LC-ESI-QQ
AC$MASS_SPECTROMETRY: MS_TYPE MS2
AC$MASS_SPECTROMETRY: ION_MODE POSITIVE
AC$MASS_SPECTROMETRY: COLLISION_ENERGY 20 V
MS$FOCUSED_ION: PRECURSOR_M/Z 238
MS$FOCUSED_ION: PRECURSOR_TYPE [M+H]+
PK$SPLASH: splash10-05br-0390000000-9177663a5915fac51aa7
PK$NUM_PEAK: 81
PK$PEAK: m/z int. rel.int.
  32.000 460396.5 1
  42.300 9901.0 1
  55.400 29703.0 1
  57.200 257426.0 1
  58.300 39604.0 1
  66.900 2277230.0 7
  69.200 79208.0 1
  70.000 39604.0 1
  81.000 54455.5 1
  87.000 232673.5 1
  89.100 54455.5 1
  90.100 331683.5 1
  91.100 584159.0 2
  95.000 316832.0 1
  99.200 247525.0 1
  100.900 39604.0 1
  103.000 29703.0 1
  104.100 381188.5 1
  104.900 79208.0 1
  108.200 39604.0 1
  109.100 79208.0 1
  111.000 49505.0 1
  115.100 74257.5 1
  116.100 94059.5 1
  117.300 217822.0 1
  118.900 64356.5 1
  120.800 24752.5 1
  125.000 109440703.5 316
  126.200 198020.0 1
  127.300 267327.0 1
  128.100 128713.0 1
  129.000 178218.0 1
  131.600 24752.5 1
  133.200 64356.5 1
  137.200 84158.5 1
  139.000 722773.0 2
  141.100 2029705.0 6
  142.400 153465.5 1
  142.900 391089.5 1
  144.300 188119.0 1
  147.000 44554.5 1
  147.900 59406.0 1
  149.300 490099.5 1
  151.200 1980200.0 6
  152.200 13698033.5 39
  153.100 831684.0 2
  154.200 1202971.5 3
  155.000 89109.0 1
  156.400 158416.0 1
  157.100 138614.0 1
  161.200 59406.0 1
  163.200 15480213.5 45
  165.100 5618817.5 16
  167.900 19802.0 1
  171.200 94059.5 1
  172.000 212871.5 1
  175.300 193069.5 1
  177.000 400990.5 1
  179.200 125826858.5 363
  181.500 24752.5 1
  184.200 336634.0 1
  185.200 1297031.0 4
  189.200 14811896.0 43
  191.200 1247526.0 4
  192.100 841585.0 2
  193.300 193069.5 1
  202.100 158416.0 1
  203.100 782179.0 2
  205.300 44554.5 1
  206.100 990100.0 3
  207.100 226757652.5 654
  209.100 168317.0 1
  211.300 24752.5 1
  218.400 59406.0 1
  220.300 197876435.5 571
  221.400 1831685.0 5
  225.200 99010.0 1
  236.600 19802.0 1
  238.300 346500346.5 999
  247.400 113861.5 1
  259.200 19802.0 1
//
