ACCESSION: MSBNK-Keio_Univ-KO002028
RECORD_TITLE: GABA; LC-ESI-QQ; MS2; CE:10 V; [M+H]+
DATE: 2016.01.19 (Created 2007.07.07, modified 2011.05.10)
AUTHORS: Kakazu Y, Horai H, Institute for Advanced Biosciences, Keio Univ.
LICENSE: CC BY-NC-SA
COMMENT: KEIO_ID A002
CH$NAME: GABA
CH$NAME: 4-Aminobutanoate
CH$NAME: 4-Aminobutyrate
CH$NAME: gamma-Aminobutyric acid
CH$NAME: 4-Aminobutanoic acid
CH$NAME: 4-Aminobutylate
CH$NAME: 4-Aminobutyric acid
CH$COMPOUND_CLASS: N/A
CH$FORMULA: C4H9NO2
CH$EXACT_MASS: 103.06333
CH$SMILES: NCCCC(O)=O
CH$IUPAC: InChI=1S/C4H9NO2/c5-3-1-2-4(6)7/h1-3,5H2,(H,6,7)
CH$LINK: CAS 56-12-2
CH$LINK: CHEBI CHEBI:30566
CH$LINK: KEGG C00334
CH$LINK: NIKKAJI J1.375G
CH$LINK: PUBCHEM SID:3628
CH$LINK: INCHIKEY BTCSSZJGUNDROE-UHFFFAOYSA-N
CH$LINK: COMPTOX DTXSID6035106
AC$INSTRUMENT: API3000, Applied Biosystems
AC$INSTRUMENT_TYPE: LC-ESI-QQ
AC$MASS_SPECTROMETRY: MS_TYPE MS2
AC$MASS_SPECTROMETRY: ION_MODE POSITIVE
AC$MASS_SPECTROMETRY: COLLISION_ENERGY 10 V
MS$FOCUSED_ION: PRECURSOR_M/Z 104
MS$FOCUSED_ION: PRECURSOR_TYPE [M+H]+
PK$SPLASH: splash10-0udi-5900000000-c8c55b5a6abccc85a5e2
PK$NUM_PEAK: 9
PK$PEAK: m/z int. rel.int.
  36.200 475248.0 12
  50.100 5113866.5 133
  54.200 19802.0 1
  67.800 64356.5 2
  68.800 207921.0 5
  76.300 34653.5 1
  86.200 5351490.5 140
  87.200 13608924.5 355
  104.000 38277266.0 999
//
