ACCESSION: MSBNK-Keio_Univ-KO001917
RECORD_TITLE: 3,3',5-Triiodothyronine; LC-ESI-QQ; MS2; CE:50 V; [M-H]-
DATE: 2016.01.19 (Created 2007.07.07, modified 2011.05.10)
AUTHORS: Kakazu Y, Horai H, Institute for Advanced Biosciences, Keio Univ.
LICENSE: CC BY-NC-SA
COMMENT: KEIO_ID T040
CH$NAME: 3,3',5-Triiodothyronine
CH$NAME: L-3,5,3'-Triiodothyronine
CH$NAME: 3,5,3'-Triiodo-L-thyronine
CH$NAME: Triiodothyronine
CH$NAME: 3,3'5-Triiodo-L-thyronine
CH$NAME: Liothyronine
CH$NAME: 3,5,3'-Triiodothyronine
CH$COMPOUND_CLASS: N/A
CH$FORMULA: C15H12I3NO4
CH$EXACT_MASS: 650.79004
CH$SMILES: OC(=O)[C@@H](N)Cc(c1)cc(I)c(Oc(c2)cc(I)c(O)c2)c(I)1
CH$IUPAC: InChI=1S/C15H12I3NO4/c16-9-6-8(1-2-13(9)20)23-14-10(17)3-7(4-11(14)18)5-12(19)15(21)22/h1-4,6,12,20H,5,19H2,(H,21,22)/t12-/m0/s1
CH$LINK: CAS 6893-02-3
CH$LINK: CHEBI CHEBI:18258
CH$LINK: CHEMPDB T3
CH$LINK: KEGG C02465
CH$LINK: NIKKAJI J85.948F
CH$LINK: PUBCHEM CID:5920
CH$LINK: INCHIKEY AUYYCJSJGJYCDS-LBPRGKRZSA-N
CH$LINK: COMPTOX DTXSID8023216
AC$INSTRUMENT: API3000, Applied Biosystems
AC$INSTRUMENT_TYPE: LC-ESI-QQ
AC$MASS_SPECTROMETRY: MS_TYPE MS2
AC$MASS_SPECTROMETRY: ION_MODE NEGATIVE
AC$MASS_SPECTROMETRY: COLLISION_ENERGY 50 V
MS$FOCUSED_ION: PRECURSOR_M/Z 650
MS$FOCUSED_ION: PRECURSOR_TYPE [M-H]-
PK$SPLASH: splash10-004i-0900000000-ac3c4a198bb017dc7ccc
PK$NUM_PEAK: 17
PK$PEAK: m/z int. rel.int.
  71.900 1267328.0 78
  127.000 16198036.0 999
  253.900 14851.5 1
  260.700 34653.5 2
  268.600 14851.5 1
  351.000 44554.5 3
  370.600 14851.5 1
  384.900 19802.0 1
  435.500 14851.5 1
  449.100 811882.0 50
  450.000 29703.0 2
  462.000 108911.0 7
  462.800 44554.5 3
  477.100 24752.5 2
  505.900 207921.0 13
  577.200 19802.0 1
  633.100 113861.5 7
//
