ACCESSION: MSBNK-Keio_Univ-KO008809
RECORD_TITLE: N1-Acetylspermine; LC-ESI-IT; MS3; m/z: 245/129; [M+H]+
DATE: 2011.12.05 (Created 2008.05.12)
AUTHORS: Ojima Y, Kakazu Y, Horai H, Soga T, Institute for Advanced Biosciences, Keio Univ.
LICENSE: CC BY-NC-SA
COMMENT: KEIO_ID A111
COMMENT: [MS2] KO008807
CH$NAME: N1-Acetylspermine
CH$COMPOUND_CLASS: N/A
CH$FORMULA: C12H28N4O
CH$EXACT_MASS: 244.22631
CH$SMILES: NCCCNCCCCNCCCNC(C)=O
CH$IUPAC: InChI=1S/C12H28N4O/c1-12(17)16-11-5-10-15-8-3-2-7-14-9-4-6-13/h14-15H,2-11,13H2,1H3,(H,16,17)
CH$LINK: CAS 77928-70-2
CH$LINK: CHEBI CHEBI:17312
CH$LINK: KEGG C02567
CH$LINK: PUBCHEM CID:916
CH$LINK: INCHIKEY GUNURVWAJRRUAV-UHFFFAOYSA-N
CH$LINK: COMPTOX DTXSID40180274
AC$INSTRUMENT: LC/MSD Trap XCT, Agilent Technologies
AC$INSTRUMENT_TYPE: LC-ESI-IT
AC$MASS_SPECTROMETRY: MS_TYPE MS3
AC$MASS_SPECTROMETRY: ION_MODE POSITIVE
AC$MASS_SPECTROMETRY: COLLISION_ENERGY 0.65/0.60
MS$FOCUSED_ION: PRECURSOR_M/Z 245/129
MS$FOCUSED_ION: PRECURSOR_TYPE [M+H]+
MS$DATA_PROCESSING: WHOLE LC/MSD Trap Control and Data Analysis
PK$SPLASH: splash10-03di-0900000000-2b9ff6380c30a974293f
PK$NUM_PEAK: 11
PK$PEAK: m/z int. rel.int.
  58.3 1008.45 16
  59.2 16.55 1
  67.2 28.77 1
  72.2 1858.21 29
  73.1 21.86 1
  84.1 439.57 7
  112.1 62994.05 999
  113.2 1147.95 18
  118.4 22.00 1
  129.2 178.23 3
  130.0 53.82 1
//
