ACCESSION: MSBNK-Keio_Univ-KO001557
RECORD_TITLE: 4-Oxohexanoic acid; LC-ESI-QQ; MS2; CE:50 V; [M-H]-
DATE: 2016.01.19 (Created 2007.07.07, modified 2011.05.10)
AUTHORS: Kakazu Y, Horai H, Institute for Advanced Biosciences, Keio Univ.
LICENSE: CC BY-NC-SA
COMMENT: KEIO_ID O014
CH$NAME: 4-Oxohexanoate
CH$NAME: 4-keto-n-caproic acid
CH$NAME: 4-oxo-hexanoic acid
CH$NAME: 4-Oxohexanoic acid
CH$COMPOUND_CLASS: N/A
CH$FORMULA: C6H10O3
CH$EXACT_MASS: 130.06299
CH$SMILES: CCC(=O)CCC(O)=O
CH$IUPAC: InChI=1S/C6H10O3/c1-2-5(7)3-4-6(8)9/h2-4H2,1H3,(H,8,9)
CH$LINK: PUBCHEM CID:3799774
CH$LINK: INCHIKEY CLJBDOUIEHLLEN-UHFFFAOYSA-N
CH$LINK: COMPTOX DTXSID20912252
AC$INSTRUMENT: API3000, Applied Biosystems
AC$INSTRUMENT_TYPE: LC-ESI-QQ
AC$MASS_SPECTROMETRY: MS_TYPE MS2
AC$MASS_SPECTROMETRY: ION_MODE NEGATIVE
AC$MASS_SPECTROMETRY: COLLISION_ENERGY 50 V
MS$FOCUSED_ION: PRECURSOR_M/Z 129
MS$FOCUSED_ION: PRECURSOR_TYPE [M-H]-
PK$SPLASH: splash10-0zfr-9000000000-a859c0c7905d47d9d948
PK$NUM_PEAK: 2
PK$PEAK: m/z int. rel.int.
  54.800 103960.5 999
  57.300 54455.5 523
//
