ACCESSION: MSBNK-Keio_Univ-KO008993
RECORD_TITLE: L-Homocarnosine; LC-ESI-IT; MS4; m/z: 241/156/110; [M+H]+
DATE: 2011.12.05 (Created 2008.05.12)
AUTHORS: Ojima Y, Kakazu Y, Horai H, Soga T, Institute for Advanced Biosciences, Keio Univ.
LICENSE: CC BY-NC-SA
COMMENT: KEIO_ID H013
COMMENT: [MS3] KO008992
CH$NAME: Homocarnosine
CH$NAME: L-Homocarnosine
CH$NAME: N-(4-Amino-1-oxobutyryl)histidine
CH$NAME: gamma-Aminobutyryl histidine
CH$COMPOUND_CLASS: N/A
CH$FORMULA: C10H16N4O3
CH$EXACT_MASS: 240.12224
CH$SMILES: C1=C(NC=N1)C[C@@H](C(=O)O)NC(=O)CCCN
CH$IUPAC: InChI=1S/C10H16N4O3/c11-3-1-2-9(15)14-8(10(16)17)4-7-5-12-6-13-7/h5-6,8H,1-4,11H2,(H,12,13)(H,14,15)(H,16,17)/t8-/m0/s1
CH$LINK: CAS 3650-73-5
CH$LINK: KEGG C00884
CH$LINK: NIKKAJI J14.557B
CH$LINK: PUBCHEM CID:10243361
CH$LINK: INCHIKEY CCLQKVKJOGVQLU-QMMMGPOBSA-N
CH$LINK: COMPTOX DTXSID50942461
AC$INSTRUMENT: LC/MSD Trap XCT, Agilent Technologies
AC$INSTRUMENT_TYPE: LC-ESI-IT
AC$MASS_SPECTROMETRY: MS_TYPE MS4
AC$MASS_SPECTROMETRY: ION_MODE POSITIVE
AC$MASS_SPECTROMETRY: COLLISION_ENERGY 0.50/0.55/0.55
MS$FOCUSED_ION: PRECURSOR_M/Z 241/156/110
MS$FOCUSED_ION: PRECURSOR_TYPE [M+H]+
MS$DATA_PROCESSING: WHOLE LC/MSD Trap Control and Data Analysis
PK$SPLASH: splash10-000x-9000000000-4d0f7d4f8b69c1f19577
PK$NUM_PEAK: 5
PK$PEAK: m/z int. rel.int.
  83.2 117.47 884
  93.1 132.82 999
  94.1 9.40 71
  110.2 5.30 40
  138.2 4.01 30
//
