ACCESSION: MSBNK-Keio_Univ-KO003500
RECORD_TITLE: Nw-Methyltryptamine; LC-ESI-QQ; MS2; CE:40 V; [M+H]+
DATE: 2016.01.19 (Created 2007.07.07, modified 2011.05.10)
AUTHORS: Kakazu Y, Horai H, Institute for Advanced Biosciences, Keio Univ.
LICENSE: CC BY-NC-SA
COMMENT: KEIO_ID M101
CH$NAME: Nw-Methyltryptamine
CH$NAME: 2-(1H-indol-3-yl)-N-methyl-ethanamine
CH$NAME: 1H-Indole-3-ethanamine, N-methyl-
CH$NAME: N.omega.-methyltryptamine
CH$COMPOUND_CLASS: N/A
CH$FORMULA: C11H14N2
CH$EXACT_MASS: 174.11570
CH$SMILES: CNCCC1=CNC2=CC=CC=C21
CH$IUPAC: InChI=1S/C11H14N2/c1-12-7-6-9-8-13-11-5-3-2-4-10(9)11/h2-5,8,12-13H,6-7H2,1H3
CH$LINK: CAS 61-49-4
CH$LINK: NIKKAJI J213.548E
CH$LINK: PUBCHEM SID:10404885
CH$LINK: INCHIKEY NCIKQJBVUNUXLW-UHFFFAOYSA-N
CH$LINK: COMPTOX DTXSID70209846
AC$INSTRUMENT: API3000, Applied Biosystems
AC$INSTRUMENT_TYPE: LC-ESI-QQ
AC$MASS_SPECTROMETRY: MS_TYPE MS2
AC$MASS_SPECTROMETRY: ION_MODE POSITIVE
AC$MASS_SPECTROMETRY: COLLISION_ENERGY 40 V
MS$FOCUSED_ION: PRECURSOR_M/Z 175
MS$FOCUSED_ION: PRECURSOR_TYPE [M+H]+
PK$SPLASH: splash10-00kf-1900000000-d53eab471c68809fb7c8
PK$NUM_PEAK: 55
PK$PEAK: m/z int. rel.int.
  41.100 79208.0 1
  43.100 39604.0 1
  44.100 21802002.0 215
  56.000 79208.0 1
  57.300 49505.0 1
  57.900 64356.5 1
  65.100 381188.5 4
  66.200 1559407.5 15
  67.000 797030.5 8
  68.900 84158.5 1
  70.100 49505.0 1
  75.100 118812.0 1
  76.900 6608917.5 65
  78.100 495050.0 5
  78.900 658416.5 7
  79.900 64356.5 1
  84.100 108911.0 1
  88.200 49505.0 1
  89.000 831684.0 8
  90.300 707921.5 7
  91.000 25143589.5 248
  92.200 94059.5 1
  93.200 475248.0 5
  95.200 495050.0 5
  101.300 797030.5 8
  101.900 891090.0 9
  103.000 7787136.5 77
  104.100 1128714.0 11
  105.000 3123765.5 31
  106.200 435644.0 4
  109.800 9901.0 1
  115.300 44604005.0 440
  116.200 7668324.5 76
  117.200 101168418.0 999
  118.100 4267331.0 42
  122.900 44554.5 1
  125.500 64356.5 1
  126.300 633664.0 6
  127.200 28202998.5 278
  128.000 10801991.0 107
  129.100 1891091.0 19
  130.200 2435646.0 24
  131.100 1574259.0 16
  131.900 10376248.0 102
  134.000 326733.0 3
  140.000 64356.5 1
  141.000 128713.0 1
  142.000 4688123.5 46
  142.900 56034709.5 553
  144.200 52351537.5 517
  145.200 3188122.0 31
  146.100 475248.0 5
  157.400 19802.0 1
  160.300 44554.5 1
  183.500 9901.0 1
//
