ACCESSION: MSBNK-Keio_Univ-KO001041
RECORD_TITLE: 8-Hydroxyoctanoic acid; LC-ESI-QQ; MS2; CE:50 V; [M-H]-
DATE: 2016.01.19 (Created 2007.07.07, modified 2011.05.10)
AUTHORS: Kakazu Y, Horai H, Institute for Advanced Biosciences, Keio Univ.
LICENSE: CC BY-NC-SA
COMMENT: KEIO_ID H034
CH$NAME: 8-Hydroxyoctanoate
CH$NAME: 8-hydroxy-octanoic acid
CH$NAME: 8-hydroxy caprylic acid
CH$NAME: 8-Hydroxyoctanoic acid
CH$NAME: Octanoic acid, 8-hydroxy-
CH$COMPOUND_CLASS: N/A
CH$FORMULA: C8H16O3
CH$EXACT_MASS: 160.10994
CH$SMILES: OCCCCCCCC(O)=O
CH$IUPAC: InChI=1S/C8H16O3/c9-7-5-3-1-2-4-6-8(10)11/h9H,1-7H2,(H,10,11)
CH$LINK: CAS 764-89-6
CH$LINK: NIKKAJI J129.296J
CH$LINK: PUBCHEM SID:10535208
CH$LINK: INCHIKEY KDMSVYIHKLZKET-UHFFFAOYSA-N
CH$LINK: COMPTOX DTXSID40227234
AC$INSTRUMENT: API3000, Applied Biosystems
AC$INSTRUMENT_TYPE: LC-ESI-QQ
AC$MASS_SPECTROMETRY: MS_TYPE MS2
AC$MASS_SPECTROMETRY: ION_MODE NEGATIVE
AC$MASS_SPECTROMETRY: COLLISION_ENERGY 50 V
MS$FOCUSED_ION: PRECURSOR_M/Z 159
MS$FOCUSED_ION: PRECURSOR_TYPE [M-H]-
PK$SPLASH: splash10-0a4l-9000000000-e5d2a89c4e9a22e7eb4a
PK$NUM_PEAK: 2
PK$PEAK: m/z int. rel.int.
  41.200 34653.5 538
  55.300 64356.5 999
//
