ACCESSION: MSBNK-Keio_Univ-KO002596
RECORD_TITLE: Canavanine; LC-ESI-QQ; MS2; CE:50 V; [M+H]+
DATE: 2016.01.19 (Created 2007.07.07, modified 2011.05.10)
AUTHORS: Kakazu Y, Horai H, Institute for Advanced Biosciences, Keio Univ.
LICENSE: CC BY-NC-SA
COMMENT: KEIO_ID C094
CH$NAME: Canavanine
CH$NAME: L-Canavanine
CH$NAME: 2-Amino-4-(guanidinooxy)butyric acid
CH$COMPOUND_CLASS: N/A
CH$FORMULA: C5H12N4O3
CH$EXACT_MASS: 176.09094
CH$SMILES: NC(=N)NOCCC(N)C(O)=O
CH$IUPAC: InChI=1S/C5H12N4O3/c6-3(4(10)11)1-2-12-9-5(7)8/h3H,1-2,6H2,(H,10,11)(H4,7,8,9)/t3-/m0/s1
CH$LINK: CAS 543-38-4
CH$LINK: KEGG C00308
CH$LINK: NIKKAJI J9.236C
CH$LINK: PUBCHEM CID:439202
CH$LINK: INCHIKEY FSBIGDSBMBYOPN-VKHMYHEASA-N
CH$LINK: COMPTOX DTXSID5045041
AC$INSTRUMENT: API3000, Applied Biosystems
AC$INSTRUMENT_TYPE: LC-ESI-QQ
AC$MASS_SPECTROMETRY: MS_TYPE MS2
AC$MASS_SPECTROMETRY: ION_MODE POSITIVE
AC$MASS_SPECTROMETRY: COLLISION_ENERGY 50 V
MS$FOCUSED_ION: PRECURSOR_M/Z 177
MS$FOCUSED_ION: PRECURSOR_TYPE [M+H]+
PK$SPLASH: splash10-0ab9-9000000000-c1e347b18ad0b5e0667e
PK$NUM_PEAK: 10
PK$PEAK: m/z int. rel.int.
  43.000 173267.5 158
  56.200 1094060.5 999
  58.300 757426.5 692
  59.100 668317.5 610
  72.100 1084159.5 990
  73.000 49505.0 45
  73.900 371287.5 339
  76.000 970298.0 886
  85.200 29703.0 27
  89.400 9901.0 9
//
