ACCESSION: MSBNK-Keio_Univ-KO000988
RECORD_TITLE: 6-Hydroxynicotinic acid; LC-ESI-QQ; MS2; CE:10 V; [M-H]-
DATE: 2016.01.19 (Created 2007.07.07, modified 2011.05.10)
AUTHORS: Kakazu Y, Horai H, Institute for Advanced Biosciences, Keio Univ.
LICENSE: CC BY-NC-SA
COMMENT: KEIO_ID H015
CH$NAME: 6-Hydroxynicotinate
CH$NAME: 6-Hydroxynicotinic acid
CH$COMPOUND_CLASS: N/A
CH$FORMULA: C6H5NO3
CH$EXACT_MASS: 139.02694
CH$SMILES: O=C(C=1)NC=C(C1)C(O)=O
CH$IUPAC: InChI=1S/C6H5NO3/c8-5-2-1-4(3-7-5)6(9)10/h1-3H,(H,7,8)(H,9,10)
CH$LINK: CAS 5006-66-6
CH$LINK: CHEBI CHEBI:16168
CH$LINK: KEGG C01020
CH$LINK: NIKKAJI J208I
CH$LINK: PUBCHEM CID:72924
CH$LINK: INCHIKEY BLHCMGRVFXRYRN-UHFFFAOYSA-N
CH$LINK: COMPTOX DTXSID0057754
AC$INSTRUMENT: API3000, Applied Biosystems
AC$INSTRUMENT_TYPE: LC-ESI-QQ
AC$MASS_SPECTROMETRY: MS_TYPE MS2
AC$MASS_SPECTROMETRY: ION_MODE NEGATIVE
AC$MASS_SPECTROMETRY: COLLISION_ENERGY 10 V
MS$FOCUSED_ION: PRECURSOR_M/Z 138
MS$FOCUSED_ION: PRECURSOR_TYPE [M-H]-
PK$SPLASH: splash10-000i-1900000000-c2874566b889f07322c6
PK$NUM_PEAK: 5
PK$PEAK: m/z int. rel.int.
  94.100 1480199.5 152
  108.100 69307.0 7
  122.900 108911.0 11
  137.100 1638615.5 168
  138.200 9757435.5 999
//
