ACCESSION: MSBNK-Keio_Univ-KO002209
RECORD_TITLE: Amidopyrine; LC-ESI-QQ; MS2; CE:20 V; [M+H]+
DATE: 2016.01.19 (Created 2007.07.07, modified 2011.05.10)
AUTHORS: Kakazu Y, Horai H, Institute for Advanced Biosciences, Keio Univ.
LICENSE: CC BY-NC-SA
COMMENT: KEIO_ID A069
CH$NAME: Aminopyrine
CH$NAME: 4-Dimethylaminoantipyrine
CH$NAME: Amidopyrine
CH$COMPOUND_CLASS: N/A
CH$FORMULA: C13H17N3O
CH$EXACT_MASS: 231.13716
CH$SMILES: CN(C)C(=C(C)1)C(=O)N(c(c2)cccc2)N(C)1
CH$IUPAC: InChI=1S/C13H17N3O/c1-10-12(14(2)3)13(17)16(15(10)4)11-8-6-5-7-9-11/h5-9H,1-4H3
CH$LINK: CAS 58-15-1
CH$LINK: KEGG C07539
CH$LINK: NIKKAJI J2.331K
CH$LINK: PUBCHEM CID:6009
CH$LINK: INCHIKEY RMMXTBMQSGEXHJ-UHFFFAOYSA-N
CH$LINK: COMPTOX DTXSID7020504
AC$INSTRUMENT: API3000, Applied Biosystems
AC$INSTRUMENT_TYPE: LC-ESI-QQ
AC$MASS_SPECTROMETRY: MS_TYPE MS2
AC$MASS_SPECTROMETRY: ION_MODE POSITIVE
AC$MASS_SPECTROMETRY: COLLISION_ENERGY 20 V
MS$FOCUSED_ION: PRECURSOR_M/Z 232
MS$FOCUSED_ION: PRECURSOR_TYPE [M+H]+
PK$SPLASH: splash10-03di-3910000000-f7ee26001f3fbe463bae
PK$NUM_PEAK: 95
PK$PEAK: m/z int. rel.int.
  42.600 24752.5 1
  44.100 69307.0 1
  56.300 7450502.5 17
  57.300 84158.5 1
  58.100 6539610.5 15
  68.400 455446.0 1
  70.000 14574272.0 34
  70.800 217822.0 1
  72.200 27653493.0 65
  73.600 24752.5 1
  78.300 74257.5 1
  80.300 94059.5 1
  80.500 24752.5 1
  82.300 4886143.5 11
  83.200 227723.0 1
  84.100 14618826.5 34
  85.300 554456.0 1
  87.000 7341591.5 17
  89.200 89109.0 1
  91.100 19802.0 1
  94.900 54455.5 1
  95.900 707921.5 2
  97.100 19628732.5 46
  98.000 114262490.5 268
  99.000 38504989.0 90
  100.000 435644.0 1
  101.000 222772.5 1
  102.700 29703.0 1
  105.100 39604.0 1
  106.000 9564366.0 22
  109.300 346535.0 1
  111.200 204718026.5 479
  113.200 426589535.5 999
  115.100 475248.0 1
  117.000 44554.5 1
  118.300 13554469.0 32
  120.300 133663.5 1
  123.100 128713.0 1
  124.200 64356.5 1
  124.900 44554.5 1
  127.100 4341588.5 10
  128.900 554456.0 1
  130.400 29703.0 1
  131.900 1094060.5 3
  133.100 841585.0 2
  134.200 376238.0 1
  136.900 44554.5 1
  139.100 14217836.0 33
  140.100 123762.5 1
  141.000 59406.0 1
  141.900 94059.5 1
  143.100 420792.5 1
  144.100 435644.0 1
  145.200 89109.0 1
  146.100 3445548.0 8
  147.000 1222773.5 3
  148.400 113861.5 1
  149.300 11163377.5 26
  153.500 14851.5 1
  155.200 54455.5 1
  157.100 29703.0 1
  158.200 762377.0 2
  159.000 15242589.5 36
  160.200 118812.0 1
  161.100 599010.5 1
  162.100 44554.5 1
  163.100 252475.5 1
  168.200 64356.5 1
  170.200 84158.5 1
  171.100 44554.5 1
  171.300 14851.5 1
  172.400 108911.0 1
  173.200 688119.5 2
  175.200 5613867.0 13
  177.300 13009914.0 30
  179.000 24752.5 1
  182.900 44554.5 1
  185.100 193069.5 1
  185.500 54455.5 1
  187.100 20460416.5 48
  188.300 7787136.5 18
  189.500 658416.5 2
  191.400 113861.5 1
  197.200 183168.5 1
  199.400 74257.5 1
  200.500 133663.5 1
  201.400 1683170.0 4
  202.600 292079.5 1
  204.400 2267329.0 5
  214.200 1158417.0 3
  215.400 480198.5 1
  216.200 648515.5 2
  217.500 5212876.5 12
  230.000 29703.0 1
  232.400 104589213.5 245
//
