ACCESSION: MSBNK-Keio_Univ-KO004091
RECORD_TITLE: L-Threonine; LC-ESI-QQ; MS2; CE:50 V; [M+H]+
DATE: 2016.01.19 (Created 2007.07.07, modified 2011.05.10)
AUTHORS: Kakazu Y, Horai H, Institute for Advanced Biosciences, Keio Univ.
LICENSE: CC BY-NC-SA
COMMENT: KEIO_ID T010
CH$NAME: Thr
CH$NAME: 2-Amino-3-hydroxybutyric acid
CH$NAME: L-Threonine
CH$COMPOUND_CLASS: N/A
CH$FORMULA: C4H9NO3
CH$EXACT_MASS: 119.05824
CH$SMILES: C[C@H]([C@@H](C(=O)O)N)O
CH$IUPAC: InChI=1S/C4H9NO3/c1-2(6)3(5)4(7)8/h2-3,6H,5H2,1H3,(H,7,8)/t2-,3+/m1/s1
CH$LINK: CAS 72-19-5
CH$LINK: CHEBI CHEBI:16857
CH$LINK: CHEMPDB THR
CH$LINK: KEGG C00188
CH$LINK: NIKKAJI J21.883I
CH$LINK: PUBCHEM CID:6288
CH$LINK: INCHIKEY AYFVYJQAPQTCCC-GBXIJSLDSA-N
CH$LINK: COMPTOX DTXSID2046412
AC$INSTRUMENT: API3000, Applied Biosystems
AC$INSTRUMENT_TYPE: LC-ESI-QQ
AC$MASS_SPECTROMETRY: MS_TYPE MS2
AC$MASS_SPECTROMETRY: ION_MODE POSITIVE
AC$MASS_SPECTROMETRY: COLLISION_ENERGY 50 V
MS$FOCUSED_ION: PRECURSOR_M/Z 120
MS$FOCUSED_ION: PRECURSOR_TYPE [M+H]+
PK$SPLASH: splash10-0a4i-9000000000-b63cc65df0fddbb42eb6
PK$NUM_PEAK: 4
PK$PEAK: m/z int. rel.int.
  41.800 14851.5 67
  43.200 69307.0 311
  56.200 222772.5 999
  69.900 103960.5 466
//
