ACCESSION: MSBNK-Keio_Univ-KO000283
RECORD_TITLE: 2-Amino-2-methylbutanoic acid; LC-ESI-QQ; MS2; CE:10 V; [M-H]-
DATE: 2016.01.19 (Created 2007.07.07, modified 2011.05.10)
AUTHORS: Kakazu Y, Horai H, Institute for Advanced Biosciences, Keio Univ.
LICENSE: CC BY-NC-SA
COMMENT: KEIO_ID A189
CH$NAME: 2-Amino-2-methylbutanoate
CH$NAME: 2-Amino-2-methylbutanoic acid
CH$COMPOUND_CLASS: N/A
CH$FORMULA: C5H11NO2
CH$EXACT_MASS: 117.07898
CH$SMILES: CCC(C)(N)C(O)=O
CH$IUPAC: InChI=1S/C5H11NO2/c1-3-5(2,6)4(7)8/h3,6H2,1-2H3,(H,7,8)
CH$LINK: KEGG C03571
CH$LINK: PUBCHEM CID:94744
CH$LINK: INCHIKEY GCHPUFAZSONQIV-UHFFFAOYSA-N
AC$INSTRUMENT: API3000, Applied Biosystems
AC$INSTRUMENT_TYPE: LC-ESI-QQ
AC$MASS_SPECTROMETRY: MS_TYPE MS2
AC$MASS_SPECTROMETRY: ION_MODE NEGATIVE
AC$MASS_SPECTROMETRY: COLLISION_ENERGY 10 V
MS$FOCUSED_ION: PRECURSOR_M/Z 116
MS$FOCUSED_ION: PRECURSOR_TYPE [M-H]-
PK$SPLASH: splash10-014i-0900000000-6cda28a534afa2b96631
PK$NUM_PEAK: 2
PK$PEAK: m/z int. rel.int.
  59.000 143564.5 7
  116.200 21084179.5 999
//
