ACCESSION: MSBNK-Keio_Univ-KO002634
RECORD_TITLE: Cimetidine; LC-ESI-QQ; MS2; CE:30 V; [M+H]+
DATE: 2016.01.19 (Created 2007.07.07, modified 2011.05.10)
AUTHORS: Kakazu Y, Horai H, Institute for Advanced Biosciences, Keio Univ.
LICENSE: CC BY-NC-SA
COMMENT: KEIO_ID C208
CH$NAME: Cimetidine
CH$COMPOUND_CLASS: N/A
CH$FORMULA: C10H16N6S
CH$EXACT_MASS: 252.11572
CH$SMILES: CC1=C(N=CN1)CSCCNC(=NC)NC#N
CH$IUPAC: InChI=1S/C10H16N6S/c1-8-9(16-7-15-8)5-17-4-3-13-10(12-2)14-6-11/h7H,3-5H2,1-2H3,(H,15,16)(H2,12,13,14)
CH$LINK: CHEBI CHEBI:3699
CH$LINK: KEGG C06952
CH$LINK: INCHIKEY AQIXAKUUQRKLND-UHFFFAOYSA-N
CH$LINK: COMPTOX DTXSID4020329
AC$INSTRUMENT: API3000, Applied Biosystems
AC$INSTRUMENT_TYPE: LC-ESI-QQ
AC$MASS_SPECTROMETRY: MS_TYPE MS2
AC$MASS_SPECTROMETRY: ION_MODE POSITIVE
AC$MASS_SPECTROMETRY: COLLISION_ENERGY 30 V
MS$FOCUSED_ION: PRECURSOR_M/Z 253
MS$FOCUSED_ION: PRECURSOR_TYPE [M+H]+
PK$SPLASH: splash10-00kb-9700000000-6b130a82094066468edc
PK$NUM_PEAK: 59
PK$PEAK: m/z int. rel.int.
  42.800 29703.0 1
  44.100 24752.5 1
  54.000 74257.5 1
  57.100 1806932.5 7
  59.100 34653.5 1
  60.600 158416.0 1
  61.100 1405942.0 5
  68.200 450495.5 2
  70.000 39604.0 1
  71.100 193069.5 1
  72.100 108911.0 1
  73.900 89109.0 1
  75.700 24752.5 1
  76.200 44554.5 1
  77.400 84158.5 1
  78.100 4391093.5 16
  79.200 202970.5 1
  80.300 84158.5 1
  82.100 6806937.5 25
  83.100 564357.0 2
  84.300 153465.5 1
  86.000 69307.0 1
  88.100 69307.0 1
  90.000 29703.0 1
  95.100 273430966.5 999
  96.200 133663.5 1
  97.800 133663.5 1
  99.000 60227783.0 220
  100.000 524753.0 2
  102.200 34653.5 1
  102.900 11044565.5 40
  106.300 29703.0 1
  112.100 29703.0 1
  115.300 232673.5 1
  117.100 181445726.0 663
  118.300 173267.5 1
  120.900 153465.5 1
  123.200 500000.5 2
  124.100 292079.5 1
  124.900 965347.5 4
  128.000 5955451.5 22
  129.400 227723.0 1
  131.000 262376.5 1
  131.900 1410892.5 5
  133.300 34653.5 1
  134.400 39604.0 1
  140.000 198020.0 1
  141.100 29703.0 1
  142.300 440594.5 2
  155.200 990100.0 4
  159.100 91549596.5 334
  165.400 24752.5 1
  170.100 19802.0 1
  170.800 44554.5 1
  172.200 732674.0 3
  180.500 29703.0 1
  211.400 311881.5 1
  236.600 24752.5 1
  253.200 311881.5 1
//
