ACCESSION: MSBNK-Keio_Univ-KO002614
RECORD_TITLE: Ciprofloxacin; LC-ESI-QQ; MS2; CE:30 V; [M+H]+
DATE: 2016.01.19 (Created 2007.07.07, modified 2011.05.10)
AUTHORS: Kakazu Y, Horai H, Institute for Advanced Biosciences, Keio Univ.
LICENSE: CC BY-NC-SA
COMMENT: KEIO_ID C133
CH$NAME: Ciprofloxacin
CH$COMPOUND_CLASS: N/A
CH$FORMULA: C17H18FN3O3
CH$EXACT_MASS: 331.13322
CH$SMILES: OC(=O)C(=C1)C(=O)c(c3)c(cc(N(C4)CCNC4)c(F)3)N1C(C2)C2
CH$IUPAC: InChI=1S/C17H18FN3O3/c18-13-7-11-14(8-15(13)20-5-3-19-4-6-20)21(10-1-2-10)9-12(16(11)22)17(23)24/h7-10,19H,1-6H2,(H,23,24)
CH$LINK: CAS 85721-33-1
CH$LINK: KEGG C05349
CH$LINK: NIKKAJI J21.732H
CH$LINK: PUBCHEM CID:2764
CH$LINK: INCHIKEY MYSWGUAQZAJSOK-UHFFFAOYSA-N
CH$LINK: COMPTOX DTXSID8022824
AC$INSTRUMENT: API3000, Applied Biosystems
AC$INSTRUMENT_TYPE: LC-ESI-QQ
AC$MASS_SPECTROMETRY: MS_TYPE MS2
AC$MASS_SPECTROMETRY: ION_MODE POSITIVE
AC$MASS_SPECTROMETRY: COLLISION_ENERGY 30 V
MS$FOCUSED_ION: PRECURSOR_M/Z 332
MS$FOCUSED_ION: PRECURSOR_TYPE [M+H]+
PK$SPLASH: splash10-03dr-0296000000-de128c8d0e1eade700b6
PK$NUM_PEAK: 77
PK$PEAK: m/z int. rel.int.
  69.900 59406.0 9
  72.700 24752.5 4
  81.400 118812.0 17
  85.200 39604.0 6
  86.400 34653.5 5
  90.700 14851.5 2
  93.100 29703.0 4
  94.900 44554.5 6
  97.200 108911.0 16
  100.400 19802.0 3
  104.200 39604.0 6
  106.800 49505.0 7
  111.300 99010.0 14
  117.900 14851.5 2
  121.200 366337.0 53
  129.100 19802.0 3
  129.700 39604.0 6
  131.600 24752.5 4
  132.900 24752.5 4
  134.500 24752.5 4
  139.000 742575.0 106
  144.300 247525.0 35
  144.500 59406.0 9
  148.800 128713.0 18
  151.200 29703.0 4
  157.100 158416.0 23
  157.600 34653.5 5
  159.100 34653.5 5
  167.100 29703.0 4
  168.100 29703.0 4
  170.100 74257.5 11
  171.200 14851.5 2
  175.700 29703.0 4
  178.200 14851.5 2
  185.200 876238.5 126
  189.700 14851.5 2
  191.200 118812.0 17
  192.100 59406.0 9
  193.700 14851.5 2
  196.500 29703.0 4
  198.300 74257.5 11
  198.900 29703.0 4
  201.100 19802.0 3
  202.000 29703.0 4
  203.500 351485.5 50
  204.100 415842.0 60
  205.400 301980.5 43
  206.300 34653.5 5
  210.200 34653.5 5
  212.300 64356.5 9
  213.100 24752.5 4
  215.500 29703.0 4
  217.600 103960.5 15
  218.500 69307.0 10
  219.300 74257.5 11
  223.200 74257.5 11
  225.500 44554.5 6
  226.300 39604.0 6
  227.000 103960.5 15
  228.600 14851.5 2
  229.800 34653.5 5
  231.300 767327.5 110
  232.600 59406.0 9
  238.100 24752.5 4
  240.500 113861.5 16
  243.800 29703.0 4
  245.500 3445548.0 494
  246.400 34653.5 5
  252.400 19802.0 3
  257.000 14851.5 2
  268.400 554456.0 79
  271.300 94059.5 13
  282.000 29703.0 4
  286.700 193069.5 28
  288.400 3490102.5 500
  314.600 6970304.0 999
  332.600 1257427.0 180
//
