ACCESSION: MSBNK-Keio_Univ-KO002582
RECORD_TITLE: Thiamine pyrophosphate; LC-ESI-QQ; MS2; CE:10 V; [M+H]+
DATE: 2016.01.19 (Created 2007.07.07, modified 2011.05.10)
AUTHORS: Kakazu Y, Horai H, Institute for Advanced Biosciences, Keio Univ.
LICENSE: CC BY-NC-SA
COMMENT: KEIO_ID C077
CH$NAME: Cocarboxylase
CH$NAME: Thiamine diphosphate
CH$NAME: ThPP
CH$NAME: Thiamin diphosphate
CH$NAME: Thiamin pyrophosphate
CH$NAME: TPP
CH$NAME: Thiamine pyrophosphate
CH$COMPOUND_CLASS: N/A
CH$FORMULA: [C12H19N4O7P2S]+
CH$EXACT_MASS: 425.04497
CH$SMILES: Cc(n2)nc(N)c(c2)C[n+1](c1)c(C)c(CCOP(O)(=O)OP(O)(O)=O)s1
CH$IUPAC: InChI=1S/C12H18N4O7P2S/c1-8-11(3-4-22-25(20,21)23-24(17,18)19)26-7-16(8)6-10-5-14-9(2)15-12(10)13/h5,7H,3-4,6H2,1-2H3,(H4-,13,14,15,17,18,19,20,21)/p+1
CH$LINK: CAS 154-87-0
CH$LINK: CHEBI CHEBI:18290
CH$LINK: KEGG C00068
CH$LINK: NIKKAJI J237.475G
CH$LINK: PUBCHEM CID:1132
CH$LINK: INCHIKEY AYEKOFBPNLCAJY-UHFFFAOYSA-O
CH$LINK: COMPTOX DTXSID2048404
AC$INSTRUMENT: API3000, Applied Biosystems
AC$INSTRUMENT_TYPE: LC-ESI-QQ
AC$MASS_SPECTROMETRY: MS_TYPE MS2
AC$MASS_SPECTROMETRY: ION_MODE POSITIVE
AC$MASS_SPECTROMETRY: COLLISION_ENERGY 10 V
MS$FOCUSED_ION: PRECURSOR_M/Z 426
MS$FOCUSED_ION: PRECURSOR_TYPE [M+H]+
PK$SPLASH: splash10-004i-0001900000-59ea8d394aed62700202
PK$NUM_PEAK: 13
PK$PEAK: m/z int. rel.int.
  121.900 14851.5 3
  162.900 24752.5 5
  254.800 29703.0 6
  302.100 44554.5 9
  304.300 29703.0 6
  308.100 306931.0 64
  321.400 49505.0 10
  327.700 24752.5 5
  334.900 44554.5 9
  365.000 39604.0 8
  388.900 24752.5 5
  408.100 44554.5 9
  425.300 4792084.0 999
//
