ACCESSION: MSBNK-Keio_Univ-KO009319
RECORD_TITLE: trans-Zeatin; LC-ESI-IT; MS3; m/z: 220/185; [M+H]+
DATE: 2011.12.05 (Created 2008.05.12)
AUTHORS: Ojima Y, Kakazu Y, Horai H, Soga T, Institute for Advanced Biosciences, Keio Univ.
LICENSE: CC BY-NC-SA
COMMENT: KEIO_ID Z002
COMMENT: [MS2] KO009317
CH$NAME: trans-Zeatin
CH$NAME: N6-(4-Hydroxyisopentenyl)adenine
CH$NAME: Zeatin
CH$NAME: (E)-2-Methyl-4-(1H-purin-6-ylamino)but-2-en-1-ol
CH$COMPOUND_CLASS: N/A
CH$FORMULA: C10H13N5O
CH$EXACT_MASS: 219.11201
CH$SMILES: C/C(=C\CNC1=NC=NC2=C1NC=N2)/CO
CH$IUPAC: InChI=1S/C10H13N5O/c1-7(4-16)2-3-11-9-8-10(13-5-12-8)15-6-14-9/h2,5-6,16H,3-4H2,1H3,(H2,11,12,13,14,15)/b7-2+
CH$LINK: CAS 1637-39-4
CH$LINK: CHEBI CHEBI:16522
CH$LINK: KEGG C00371
CH$LINK: NIKKAJI J7.540J
CH$LINK: PUBCHEM CID:449093
CH$LINK: INCHIKEY UZKQTCBAMSWPJD-FARCUNLSSA-N
CH$LINK: COMPTOX DTXSID9040631
AC$INSTRUMENT: LC/MSD Trap XCT, Agilent Technologies
AC$INSTRUMENT_TYPE: LC-ESI-IT
AC$MASS_SPECTROMETRY: MS_TYPE MS3
AC$MASS_SPECTROMETRY: ION_MODE POSITIVE
AC$MASS_SPECTROMETRY: COLLISION_ENERGY 0.70/0.70
MS$FOCUSED_ION: PRECURSOR_M/Z 220/185
MS$FOCUSED_ION: PRECURSOR_TYPE [M+H]+
MS$DATA_PROCESSING: WHOLE LC/MSD Trap Control and Data Analysis
PK$SPLASH: splash10-000i-0900000000-b8aca1a6c66d947d5e55
PK$NUM_PEAK: 4
PK$PEAK: m/z int. rel.int.
  158.1 16.10 263
  159.1 11.92 195
  186.1 61.06 999
  221.2 1.08 18
//
