ACCESSION: MSBNK-Keio_Univ-KO000789
RECORD_TITLE: Formiminoaspartate; LC-ESI-QQ; MS2; CE:10 V; [M-H]-
DATE: 2016.01.19 (Created 2007.07.07, modified 2012.10.22)
AUTHORS: Kakazu Y, Horai H, Institute for Advanced Biosciences, Keio Univ.
LICENSE: CC BY-NC-SA
COMMENT: KEIO_ID F025
CH$NAME: Formiminoaspartate
CH$NAME: N-Formimidoyl-L-aspartate
CH$NAME: N-Formimino-L-aspartate
CH$NAME: Formiminoaspartic acid
CH$COMPOUND_CLASS: N/A
CH$FORMULA: C5H8N2O4
CH$EXACT_MASS: 160.04841
CH$SMILES: N=CN[C@@H](CC(O)=O)C(O)=O
CH$IUPAC: InChI=1S/C5H8N2O4/c6-2-7-3(5(10)11)1-4(8)9/h2-3H,1H2,(H2,6,7)(H,8,9)(H,10,11)/t3-/m0/s1
CH$LINK: CHEBI CHEBI:18387
CH$LINK: KEGG C03409
CH$LINK: PUBCHEM CID:440000
CH$LINK: INCHIKEY XTPIFIMCFHNJOH-VKHMYHEASA-N
AC$INSTRUMENT: API3000, Applied Biosystems
AC$INSTRUMENT_TYPE: LC-ESI-QQ
AC$MASS_SPECTROMETRY: MS_TYPE MS2
AC$MASS_SPECTROMETRY: ION_MODE NEGATIVE
AC$MASS_SPECTROMETRY: COLLISION_ENERGY 10 V
MS$FOCUSED_ION: PRECURSOR_M/Z 159
MS$FOCUSED_ION: PRECURSOR_TYPE [M-H]-
PK$SPLASH: splash10-0a4i-0900000000-2b2631db78581a004087
PK$NUM_PEAK: 15
PK$PEAK: m/z int. rel.int.
  71.200 24752.5 1
  88.100 113861.5 2
  97.300 1173268.5 22
  99.100 757426.5 14
  110.700 24752.5 1
  114.000 44554.5 1
  115.100 4039608.0 75
  115.900 113861.5 2
  116.500 9901.0 1
  119.000 29703.0 1
  127.000 39604.0 1
  131.800 1514853.0 28
  141.200 1985150.5 37
  157.600 19802.0 1
  159.000 53747578.5 999
//
