ACCESSION: MSBNK-Keio_Univ-KO009172
RECORD_TITLE: Propranolol; LC-ESI-IT; MS3; m/z: 260/218; [M+H]+
DATE: 2011.12.05 (Created 2008.05.12)
AUTHORS: Ojima Y, Kakazu Y, Horai H, Soga T, Institute for Advanced Biosciences, Keio Univ.
LICENSE: CC BY-NC-SA
COMMENT: KEIO_ID P192
COMMENT: [MS2] KO009171
CH$NAME: Propranolol
CH$COMPOUND_CLASS: N/A
CH$FORMULA: C16H21NO2
CH$EXACT_MASS: 259.15723
CH$SMILES: CC(C)NCC(O)COc(c1)c(c2)c(ccc2)cc1
CH$IUPAC: InChI=1S/C16H21NO2/c1-12(2)17-10-14(18)11-19-16-9-5-7-13-6-3-4-8-15(13)16/h3-9,12,14,17-18H,10-11H2,1-2H3
CH$LINK: CAS 525-66-6
CH$LINK: KEGG C07407
CH$LINK: NIKKAJI J6.653B
CH$LINK: PUBCHEM SID:9611
CH$LINK: INCHIKEY AQHHHDLHHXJYJD-UHFFFAOYSA-N
CH$LINK: COMPTOX DTXSID6023525
AC$INSTRUMENT: LC/MSD Trap XCT, Agilent Technologies
AC$INSTRUMENT_TYPE: LC-ESI-IT
AC$MASS_SPECTROMETRY: MS_TYPE MS3
AC$MASS_SPECTROMETRY: ION_MODE POSITIVE
AC$MASS_SPECTROMETRY: COLLISION_ENERGY 0.80/0.70
MS$FOCUSED_ION: PRECURSOR_M/Z 260/218
MS$FOCUSED_ION: PRECURSOR_TYPE [M+H]+
MS$DATA_PROCESSING: WHOLE LC/MSD Trap Control and Data Analysis
PK$SPLASH: splash10-00di-9500000000-122203085c028de6cbe4
PK$NUM_PEAK: 13
PK$PEAK: m/z int. rel.int.
  74.1 996.14 999
  89.8 1.39 1
  129.1 3.46 3
  141.2 12.77 13
  145.0 4.00 4
  153.2 20.09 20
  155.1 23.23 23
  157.1 156.16 157
  165.1 26.46 27
  170.7 10.38 10
  183.1 346.53 348
  201.1 13.85 14
  218.2 2.15 2
//
