ACCESSION: MSBNK-Keio_Univ-KO003888
RECORD_TITLE: Phosphoramidon; LC-ESI-QQ; MS2; CE:10 V; [M+H]+
DATE: 2016.01.19 (Created 2007.07.07, modified 2011.05.10)
AUTHORS: Kakazu Y, Horai H, Institute for Advanced Biosciences, Keio Univ.
LICENSE: CC BY-NC-SA
COMMENT: KEIO_ID P122
CH$NAME: Phosphoramidon
CH$COMPOUND_CLASS: N/A
CH$FORMULA: C23H34N3O10P
CH$EXACT_MASS: 543.19818
CH$SMILES: C[C@H]1[C@@H]([C@H]([C@H]([C@@H](O1)OP(=O)(N[C@@H](CC(C)C)C(=O)N[C@@H](CC2=CNC3=CC=CC=C32)C(=O)O)O)O)O)O
CH$IUPAC: InChI=1S/C23H34N3O10P/c1-11(2)8-16(26-37(33,34)36-23-20(29)19(28)18(27)12(3)35-23)21(30)25-17(22(31)32)9-13-10-24-15-7-5-4-6-14(13)15/h4-7,10-12,16-20,23-24,27-29H,8-9H2,1-3H3,(H,25,30)(H,31,32)(H2,26,33,34)/t12-,16-,17-,18-,19+,20+,23-/m0/s1
CH$LINK: CAS 36357-77-4
CH$LINK: KEGG C00563
CH$LINK: NIKKAJI J18.388A
CH$LINK: PUBCHEM CID:445114
CH$LINK: INCHIKEY ZPHBZEQOLSRPAK-XLCYBJAPSA-N
AC$INSTRUMENT: API3000, Applied Biosystems
AC$INSTRUMENT_TYPE: LC-ESI-QQ
AC$MASS_SPECTROMETRY: MS_TYPE MS2
AC$MASS_SPECTROMETRY: ION_MODE POSITIVE
AC$MASS_SPECTROMETRY: COLLISION_ENERGY 10 V
MS$FOCUSED_ION: PRECURSOR_M/Z 544
MS$FOCUSED_ION: PRECURSOR_TYPE [M+H]+
PK$SPLASH: splash10-014m-0009030000-a5b6407e17e402eec55c
PK$NUM_PEAK: 7
PK$PEAK: m/z int. rel.int.
  365.400 242574.5 999
  382.200 14851.5 61
  391.700 44554.5 183
  398.300 158416.0 652
  507.900 24752.5 102
  527.500 19802.0 82
  544.600 133663.5 550
//
