ACCESSION: MSBNK-Keio_Univ-KO003892
RECORD_TITLE: Paromomycin; LC-ESI-QQ; MS2; CE:10 V; [M+H]+
DATE: 2016.01.19 (Created 2007.07.07, modified 2011.05.10)
AUTHORS: Kakazu Y, Horai H, Institute for Advanced Biosciences, Keio Univ.
LICENSE: CC BY-NC-SA
COMMENT: KEIO_ID P126
CH$NAME: Paromomycin
CH$NAME: Zygomycin A1
CH$NAME: Catenulin
CH$NAME: Monomycin A
CH$NAME: Hydroxymycin
CH$NAME: Aminosidin
CH$COMPOUND_CLASS: N/A
CH$FORMULA: C23H45N5O14
CH$EXACT_MASS: 615.29630
CH$SMILES: OCC(O1)C(O)C(O)C(N)C1OC(C(N)4)C(C(O)C(N)C4)OC(O3)C(O)C(C(CO)3)OC([H])(O2)C(N)C(O)C(O)C(CN)2
CH$IUPAC: InChI=1S/C23H45N5O14/c24-2-7-13(32)15(34)10(27)21(37-7)41-19-9(4-30)39-23(17(19)36)42-20-12(31)5(25)1-6(26)18(20)40-22-11(28)16(35)14(33)8(3-29)38-22/h5-23,29-36H,1-4,24-28H2/t5-,6+,7+,8-,9-,10-,11-,12+,13-,14-,15-,16-,17-,18-,19-,20-,21-,22-,23-/m1/s1
CH$LINK: CAS 7542-37-2
CH$LINK: KEGG C00832
CH$LINK: NIKKAJI J8.952D
CH$LINK: PUBCHEM CID:165580
CH$LINK: INCHIKEY UOZODPSAJZTQNH-IRIMDDDUSA-N
AC$INSTRUMENT: API3000, Applied Biosystems
AC$INSTRUMENT_TYPE: LC-ESI-QQ
AC$MASS_SPECTROMETRY: MS_TYPE MS2
AC$MASS_SPECTROMETRY: ION_MODE POSITIVE
AC$MASS_SPECTROMETRY: COLLISION_ENERGY 10 V
MS$FOCUSED_ION: PRECURSOR_M/Z 616
MS$FOCUSED_ION: PRECURSOR_TYPE [M+H]+
PK$SPLASH: splash10-014i-0000009000-197b35855ba5e1d377c7
PK$NUM_PEAK: 12
PK$PEAK: m/z int. rel.int.
  173.200 24752.5 2
  226.200 193069.5 12
  324.200 29703.0 2
  420.200 19802.0 1
  424.900 19802.0 1
  436.600 69307.0 4
  498.700 24752.5 2
  510.300 34653.5 2
  526.500 49505.0 3
  556.200 49505.0 3
  563.800 24752.5 2
  616.600 16158432.0 999
//
