ACCESSION: MSBNK-Keio_Univ-KO004265
RECORD_TITLE: Verapamil; LC-ESI-QQ; MS2; CE:50 V; [M+H]+
DATE: 2016.01.19 (Created 2007.07.07, modified 2011.05.10)
AUTHORS: Kakazu Y, Horai H, Institute for Advanced Biosciences, Keio Univ.
LICENSE: CC BY-NC-SA
COMMENT: KEIO_ID V021
CH$NAME: Verapamil
CH$COMPOUND_CLASS: N/A
CH$FORMULA: C27H38N2O4
CH$EXACT_MASS: 454.28316
CH$SMILES: c(c2OC)(OC)ccc(c2)C(CCCN(C)CCc(c1)cc(OC)c(OC)c1)(C(C)C)C#N
CH$IUPAC: InChI=1S/C27H38N2O4/c1-20(2)27(19-28,22-10-12-24(31-5)26(18-22)33-7)14-8-15-29(3)16-13-21-9-11-23(30-4)25(17-21)32-6/h9-12,17-18,20H,8,13-16H2,1-7H3
CH$LINK: CAS 52-53-9
CH$LINK: KEGG C07188
CH$LINK: NIKKAJI J4.132G
CH$LINK: PUBCHEM CID:2520
CH$LINK: INCHIKEY SGTNSNPWRIOYBX-UHFFFAOYSA-N
CH$LINK: COMPTOX DTXSID9041152
AC$INSTRUMENT: API3000, Applied Biosystems
AC$INSTRUMENT_TYPE: LC-ESI-QQ
AC$MASS_SPECTROMETRY: MS_TYPE MS2
AC$MASS_SPECTROMETRY: ION_MODE POSITIVE
AC$MASS_SPECTROMETRY: COLLISION_ENERGY 50 V
MS$FOCUSED_ION: PRECURSOR_M/Z 455
MS$FOCUSED_ION: PRECURSOR_TYPE [M+H]+
PK$SPLASH: splash10-014i-0900000000-2411d65dfe09741dde81
PK$NUM_PEAK: 77
PK$PEAK: m/z int. rel.int.
  44.200 34653.5 1
  57.900 569307.5 19
  70.000 59406.0 2
  72.900 14851.5 1
  79.100 405941.0 14
  79.800 54455.5 2
  80.800 74257.5 3
  84.300 237624.0 8
  86.400 168317.0 6
  90.200 39604.0 1
  91.100 168317.0 6
  93.300 64356.5 2
  95.300 153465.5 5
  96.300 440594.5 15
  103.300 564357.0 19
  105.100 2856438.5 97
  107.000 445545.0 15
  108.200 103960.5 4
  109.100 94059.5 3
  109.900 138614.0 5
  115.300 79208.0 3
  116.900 64356.5 2
  118.100 351485.5 12
  119.300 193069.5 7
  120.200 450495.5 15
  121.200 351485.5 12
  122.200 460396.5 16
  123.100 158416.0 5
  123.800 69307.0 2
  131.000 118812.0 4
  132.200 44554.5 2
  133.100 1806932.5 62
  134.100 1371288.5 47
  135.000 2138616.0 73
  136.000 193069.5 7
  137.200 272277.5 9
  138.100 173267.5 6
  139.200 207921.0 7
  145.400 19802.0 1
  146.800 29703.0 1
  148.900 202970.5 7
  150.400 13396053.0 457
  151.200 1227724.0 42
  152.400 118812.0 4
  163.200 128713.0 4
  164.200 99010.0 3
  165.200 29272306.5 999
  175.500 79208.0 3
  175.900 44554.5 2
  177.400 1143565.5 39
  179.400 64356.5 2
  186.100 64356.5 2
  187.000 59406.0 2
  190.200 89109.0 3
  191.400 183168.5 6
  194.400 44554.5 2
  197.100 69307.0 2
  201.300 99010.0 3
  202.300 89109.0 3
  203.200 148515.0 5
  204.600 103960.5 4
  212.000 29703.0 1
  213.100 39604.0 1
  214.500 69307.0 2
  216.400 94059.5 3
  217.400 217822.0 7
  218.600 569307.5 19
  228.300 108911.0 4
  229.300 44554.5 2
  233.300 128713.0 4
  243.200 143564.5 5
  245.400 232673.5 8
  260.400 1396041.0 48
  261.500 282178.5 10
  261.800 19802.0 1
  303.600 1069308.0 36
  455.300 14851.5 1
//
