ACCESSION: MSBNK-Keio_Univ-KO003609
RECORD_TITLE: Neomycin B; LC-ESI-QQ; MS2; CE:30 V; [M+2H]++
DATE: 2016.01.19 (Created 2007.07.07, modified 2012.10.22)
AUTHORS: Kakazu Y, Horai H, Institute for Advanced Biosciences, Keio Univ.
LICENSE: CC BY-NC-SA
COMMENT: KEIO_ID N022
CH$NAME: Neomycin
CH$NAME: Fradiomycin B
CH$NAME: Streptothricin B
CH$NAME: Neomycin B
CH$COMPOUND_CLASS: N/A
CH$FORMULA: C23H46N6O13
CH$EXACT_MASS: 614.31229
CH$SMILES: NC[C@H](O1)[C@@H](O)[C@H](O)[C@@H](N)[C@H]1O[C@H]([C@@H](CO)4)[C@@H](O)[C@@H](O4)O[C@H]([C@@H](O)3)[C@@H]([C@@H](N)C[C@@H](N)3)O[C@@H](O2)[C@H](N)[C@@H](O)[C@H](O)[C@@H](CN)2
CH$IUPAC: InChI=1S/C23H46N6O13/c24-2-7-13(32)15(34)10(28)21(37-7)40-18-6(27)1-5(26)12(31)20(18)42-23-17(36)19(9(4-30)39-23)41-22-11(29)16(35)14(33)8(3-25)38-22/h5-23,30-36H,1-4,24-29H2
CH$LINK: CAS 119-04-0
CH$LINK: KEGG C01737
CH$LINK: NIKKAJI J4.458J
CH$LINK: PUBCHEM SID:4872
CH$LINK: INCHIKEY PGBHMTALBVVCIT-UHFFFAOYSA-N
AC$INSTRUMENT: API3000, Applied Biosystems
AC$INSTRUMENT_TYPE: LC-ESI-QQ
AC$MASS_SPECTROMETRY: MS_TYPE MS2
AC$MASS_SPECTROMETRY: ION_MODE POSITIVE
AC$MASS_SPECTROMETRY: COLLISION_ENERGY 30 V
MS$FOCUSED_ION: PRECURSOR_M/Z 308
MS$FOCUSED_ION: PRECURSOR_TYPE [M+2H]++
PK$SPLASH: splash10-03di-3900000000-9a81e583dc728139105d
PK$NUM_PEAK: 85
PK$PEAK: m/z int. rel.int.
  40.400 19802.0 3
  42.600 14851.5 2
  44.000 59406.0 9
  50.200 34653.5 5
  56.200 103960.5 16
  56.500 69307.0 10
  60.100 128713.0 19
  68.200 326733.0 49
  68.900 118812.0 18
  69.900 103960.5 16
  70.900 89109.0 13
  71.700 267327.0 40
  73.000 519802.5 78
  73.600 39604.0 6
  78.100 69307.0 10
  80.000 2613864.0 393
  81.300 64356.5 10
  82.200 217822.0 33
  83.000 242574.5 36
  84.300 673268.0 101
  85.000 212871.5 32
  86.300 361386.5 54
  88.300 19802.0 3
  89.700 29703.0 4
  95.100 118812.0 18
  96.000 1099011.0 165
  97.100 896040.5 135
  98.000 1584160.0 238
  101.100 108911.0 16
  101.900 391089.5 59
  104.900 118812.0 18
  106.000 54455.5 8
  107.200 99010.0 15
  108.100 960397.0 144
  109.400 277228.0 42
  110.500 59406.0 9
  111.900 49505.0 7
  114.200 6648521.5 999
  115.100 99010.0 15
  119.300 24752.5 4
  119.800 59406.0 9
  121.200 207921.0 31
  122.100 34653.5 5
  124.000 24752.5 4
  125.000 1772279.0 266
  126.300 673268.0 101
  128.200 74257.5 11
  132.900 44554.5 7
  134.000 247525.0 37
  134.700 29703.0 4
  138.200 39604.0 6
  138.600 14851.5 2
  143.100 722773.0 109
  144.000 599010.5 90
  145.100 257426.0 39
  146.100 84158.5 13
  148.400 59406.0 9
  155.000 34653.5 5
  161.100 3475251.0 522
  161.700 133663.5 20
  163.300 5742580.0 863
  164.200 39604.0 6
  165.500 34653.5 5
  166.900 113861.5 17
  168.700 19802.0 3
  173.200 193069.5 29
  173.600 34653.5 5
  185.100 59406.0 9
  186.800 193069.5 29
  193.300 108911.0 16
  197.300 24752.5 4
  203.600 980199.0 147
  205.100 178218.0 27
  223.300 44554.5 7
  239.200 74257.5 11
  241.300 391089.5 59
  245.400 19802.0 3
  257.200 138614.0 21
  259.300 326733.0 49
  262.900 24752.5 4
  270.500 44554.5 7
  271.200 14851.5 2
  277.200 89109.0 13
  295.600 188119.0 28
  420.700 44554.5 7
//
