ACCESSION: MSBNK-Keio_Univ-KO003488
RECORD_TITLE: Muramic acid; LC-ESI-QQ; MS2; CE:20 V; [M+H]+
DATE: 2016.01.19 (Created 2007.07.07, modified 2011.05.10)
AUTHORS: Kakazu Y, Horai H, Institute for Advanced Biosciences, Keio Univ.
LICENSE: CC BY-NC-SA
COMMENT: KEIO_ID M082
CH$NAME: Muramate
CH$NAME: Muramic acid
CH$NAME: 2-Amino-3-O-D-1-carboxyethyl-2-deoxy-D-glucose
CH$NAME: 3-O-alpha-Carboxyethyl-D-glucosamine
CH$COMPOUND_CLASS: N/A
CH$FORMULA: C9H17NO7
CH$EXACT_MASS: 251.10050
CH$SMILES: OCC(O1)C(O)C(OC(C)C(O)=O)C(N)C(O)1
CH$IUPAC: InChI=1S/C9H17NO7/c1-3(8(13)14)16-7-5(10)9(15)17-4(2-11)6(7)12/h3-7,9,11-12,15H,2,10H2,1H3,(H,13,14)/t3-,4-,5-,6-,7-,9?/m1/s1
CH$LINK: CAS 1114-41-6
CH$LINK: CHEBI CHEBI:28118
CH$LINK: KEGG C06470
CH$LINK: NIKKAJI J15.184J
CH$LINK: PUBCHEM CID:441038
CH$LINK: INCHIKEY MSFSPUZXLOGKHJ-PGYHGBPZSA-N
AC$INSTRUMENT: API3000, Applied Biosystems
AC$INSTRUMENT_TYPE: LC-ESI-QQ
AC$MASS_SPECTROMETRY: MS_TYPE MS2
AC$MASS_SPECTROMETRY: ION_MODE POSITIVE
AC$MASS_SPECTROMETRY: COLLISION_ENERGY 20 V
MS$FOCUSED_ION: PRECURSOR_M/Z 252
MS$FOCUSED_ION: PRECURSOR_TYPE [M+H]+
PK$SPLASH: splash10-0a4i-0900000000-65d0d3dd67abeba43a67
PK$NUM_PEAK: 70
PK$PEAK: m/z int. rel.int.
  45.900 34653.5 1
  54.200 396040.0 7
  57.200 1123763.5 21
  68.200 19802.0 1
  71.000 2826735.5 52
  76.200 14851.5 1
  77.900 64356.5 1
  79.100 356436.0 7
  81.000 59406.0 1
  83.300 64356.5 1
  83.900 559406.5 10
  86.800 69307.0 1
  88.700 44554.5 1
  89.500 34653.5 1
  91.300 158416.0 3
  94.300 19802.0 1
  96.100 168317.0 3
  97.400 89109.0 2
  98.100 173267.5 3
  98.900 247525.0 5
  101.200 1400991.5 26
  102.700 34653.5 1
  105.100 54658470.5 999
  109.000 44554.5 1
  111.300 400990.5 7
  113.400 435644.0 8
  115.200 34653.5 1
  116.000 34653.5 1
  117.200 44554.5 1
  119.200 24752.5 1
  122.300 7742582.0 142
  123.100 10475258.0 191
  126.200 905941.5 17
  129.200 277228.0 5
  130.900 202970.5 4
  134.900 69307.0 1
  141.300 54455.5 1
  144.300 1128714.0 21
  146.200 34653.5 1
  148.000 44554.5 1
  149.700 39604.0 1
  152.400 39604.0 1
  157.100 44554.5 1
  159.200 24752.5 1
  160.200 252475.5 5
  161.000 113861.5 2
  165.600 29703.0 1
  166.500 9901.0 1
  167.800 29703.0 1
  170.000 19802.0 1
  171.400 99010.0 2
  175.300 143564.5 3
  176.100 148515.0 3
  178.900 44554.5 1
  179.200 49505.0 1
  184.200 89109.0 2
  185.900 34653.5 1
  189.500 133663.5 2
  198.100 99010.0 2
  199.300 158416.0 3
  202.200 19802.0 1
  207.300 39604.0 1
  216.200 1866338.5 34
  217.500 460396.5 8
  220.500 851486.0 16
  222.900 29703.0 1
  234.200 1237625.0 23
  235.500 1841586.0 34
  238.300 24752.5 1
  252.600 514852.0 9
//
