ACCESSION: MSBNK-Keio_Univ-KO002615
RECORD_TITLE: Ciprofloxacin; LC-ESI-QQ; MS2; CE:40 V; [M+H]+
DATE: 2016.01.19 (Created 2007.07.07, modified 2011.05.10)
AUTHORS: Kakazu Y, Horai H, Institute for Advanced Biosciences, Keio Univ.
LICENSE: CC BY-NC-SA
COMMENT: KEIO_ID C133
CH$NAME: Ciprofloxacin
CH$COMPOUND_CLASS: N/A
CH$FORMULA: C17H18FN3O3
CH$EXACT_MASS: 331.13322
CH$SMILES: OC(=O)C(=C1)C(=O)c(c3)c(cc(N(C4)CCNC4)c(F)3)N1C(C2)C2
CH$IUPAC: InChI=1S/C17H18FN3O3/c18-13-7-11-14(8-15(13)20-5-3-19-4-6-20)21(10-1-2-10)9-12(16(11)22)17(23)24/h7-10,19H,1-6H2,(H,23,24)
CH$LINK: CAS 85721-33-1
CH$LINK: KEGG C05349
CH$LINK: NIKKAJI J21.732H
CH$LINK: PUBCHEM CID:2764
CH$LINK: INCHIKEY MYSWGUAQZAJSOK-UHFFFAOYSA-N
CH$LINK: COMPTOX DTXSID8022824
AC$INSTRUMENT: API3000, Applied Biosystems
AC$INSTRUMENT_TYPE: LC-ESI-QQ
AC$MASS_SPECTROMETRY: MS_TYPE MS2
AC$MASS_SPECTROMETRY: ION_MODE POSITIVE
AC$MASS_SPECTROMETRY: COLLISION_ENERGY 40 V
MS$FOCUSED_ION: PRECURSOR_M/Z 332
MS$FOCUSED_ION: PRECURSOR_TYPE [M+H]+
PK$SPLASH: splash10-0gx1-1292000000-2d8ff05ee839372800db
PK$NUM_PEAK: 87
PK$PEAK: m/z int. rel.int.
  40.800 14851.5 4
  44.100 118812.0 35
  55.400 24752.5 7
  55.900 14851.5 4
  66.400 64356.5 19
  69.100 163366.5 48
  69.800 138614.0 41
  73.100 44554.5 13
  79.300 79208.0 23
  81.300 193069.5 57
  86.400 34653.5 10
  92.700 153465.5 45
  95.000 99010.0 29
  97.200 183168.5 54
  98.800 54455.5 16
  107.300 79208.0 23
  109.600 29703.0 9
  111.100 79208.0 23
  114.400 24752.5 7
  115.900 39604.0 12
  116.800 24752.5 7
  121.200 425743.0 125
  124.700 29703.0 9
  130.000 34653.5 10
  130.800 94059.5 28
  132.100 54455.5 16
  132.400 24752.5 7
  135.200 123762.5 36
  137.400 19802.0 6
  139.100 277228.0 81
  144.100 138614.0 41
  146.800 9901.0 3
  147.900 24752.5 7
  149.500 34653.5 10
  156.000 44554.5 13
  160.300 29703.0 9
  163.300 113861.5 33
  169.900 29703.0 9
  174.500 24752.5 7
  176.300 99010.0 29
  182.200 44554.5 13
  184.200 84158.5 25
  185.500 29703.0 9
  187.000 79208.0 23
  187.800 64356.5 19
  189.200 292079.5 86
  190.500 29703.0 9
  191.300 222772.5 65
  193.800 29703.0 9
  197.300 99010.0 29
  198.300 94059.5 28
  199.500 39604.0 12
  201.800 74257.5 22
  202.300 148515.0 43
  203.200 955446.5 280
  204.200 1064357.5 312
  205.400 806931.5 236
  207.400 49505.0 14
  211.600 24752.5 7
  212.400 123762.5 36
  213.200 64356.5 19
  215.500 128713.0 38
  217.400 341584.5 100
  218.000 64356.5 19
  219.500 54455.5 16
  224.200 54455.5 16
  225.400 64356.5 19
  226.400 69307.0 20
  226.900 59406.0 17
  229.500 84158.5 25
  230.300 74257.5 22
  231.200 3410894.5 999
  237.900 59406.0 17
  239.200 39604.0 12
  240.400 84158.5 25
  245.400 2252477.5 660
  252.600 34653.5 10
  253.200 24752.5 7
  259.300 14851.5 4
  266.500 69307.0 20
  268.400 118812.0 35
  271.700 39604.0 12
  273.300 94059.5 28
  286.300 99010.0 29
  288.500 168317.0 49
  294.500 257426.0 75
  314.500 2554458.0 748
//
