ACCESSION: MSBNK-Keio_Univ-KO003574
RECORD_TITLE: Methoxamine; LC-ESI-QQ; MS2; CE:30 V; [M+H]+
DATE: 2016.01.19 (Created 2007.07.07, modified 2011.05.10)
AUTHORS: Kakazu Y, Horai H, Institute for Advanced Biosciences, Keio Univ.
LICENSE: CC BY-NC-SA
COMMENT: KEIO_ID M169
CH$NAME: Methoxamine
CH$COMPOUND_CLASS: N/A
CH$FORMULA: C11H17NO3
CH$EXACT_MASS: 211.12084
CH$SMILES: COc(c1)cc(C(O)C(C)N)c(OC)c1
CH$IUPAC: InChI=1S/C11H17NO3/c1-7(12)11(13)9-6-8(14-2)4-5-10(9)15-3/h4-7,11,13H,12H2,1-3H3
CH$LINK: CAS 390-28-3
CH$LINK: KEGG C07513
CH$LINK: NIKKAJI J5.717G
CH$LINK: PUBCHEM SID:9716
CH$LINK: INCHIKEY WJAJPNHVVFWKKL-UHFFFAOYSA-N
CH$LINK: COMPTOX DTXSID0023290
AC$INSTRUMENT: API3000, Applied Biosystems
AC$INSTRUMENT_TYPE: LC-ESI-QQ
AC$MASS_SPECTROMETRY: MS_TYPE MS2
AC$MASS_SPECTROMETRY: ION_MODE POSITIVE
AC$MASS_SPECTROMETRY: COLLISION_ENERGY 30 V
MS$FOCUSED_ION: PRECURSOR_M/Z 212
MS$FOCUSED_ION: PRECURSOR_TYPE [M+H]+
PK$SPLASH: splash10-03dj-0900000000-bd56a39cbf83b4b15579
PK$NUM_PEAK: 91
PK$PEAK: m/z int. rel.int.
  41.200 138614.0 1
  42.200 376238.0 2
  42.800 495050.0 3
  44.100 69307.0 1
  45.000 108911.0 1
  55.100 282178.5 2
  56.200 4816836.5 28
  57.100 559406.5 3
  65.100 24752.5 1
  67.000 133663.5 1
  69.300 316832.0 2
  71.100 64356.5 1
  74.100 841585.0 5
  74.900 69307.0 1
  77.100 782179.0 5
  77.900 99010.0 1
  79.100 1188120.0 7
  80.200 69307.0 1
  81.000 712872.0 4
  83.100 153465.5 1
  85.300 143564.5 1
  89.000 148515.0 1
  89.900 14851.5 1
  91.200 6292085.5 37
  92.000 49505.0 1
  93.200 2158418.0 13
  93.900 430693.5 3
  95.100 579208.5 3
  98.400 14851.5 1
  102.900 1742576.0 10
  104.400 252475.5 1
  105.100 7207928.0 42
  106.200 752476.0 4
  107.200 3306934.0 19
  108.000 1054456.5 6
  109.200 3470300.5 20
  110.200 628713.5 4
  111.100 113861.5 1
  112.700 84158.5 1
  115.300 1133664.5 7
  115.900 188119.0 1
  117.200 4455450.0 26
  118.200 1811883.0 11
  119.100 11480209.5 67
  120.200 1663368.0 10
  121.300 30965377.5 181
  122.200 816832.5 5
  123.100 15668332.5 92
  124.100 1168318.0 7
  125.200 193069.5 1
  126.900 341584.5 2
  128.300 242574.5 1
  129.100 316832.0 2
  130.000 9316841.0 54
  131.000 29802010.0 174
  132.100 5485154.0 32
  133.200 841585.0 5
  134.200 1980200.0 12
  135.100 21376259.0 125
  136.100 11212882.5 66
  137.100 15346550.0 90
  138.200 56703027.0 332
  138.900 272277.5 2
  141.000 69307.0 1
  144.100 990100.0 6
  145.300 1351486.5 8
  146.100 6707927.5 39
  147.000 109302089.5 639
  148.200 6381194.5 37
  149.400 5772283.0 34
  150.200 693070.0 4
  151.200 658416.5 4
  152.400 252475.5 1
  153.200 4341588.5 25
  156.200 34653.5 1
  159.000 554456.0 3
  160.100 138614.0 1
  161.000 4480202.5 26
  162.200 170861557.0 999
  163.100 9930703.0 58
  164.200 35980234.0 210
  165.400 1019803.0 6
  166.100 24752.5 1
  167.100 59406.0 1
  175.200 198020.0 1
  177.100 3148518.0 18
  178.200 777228.5 5
  179.200 84450579.5 494
  180.200 2450497.5 14
  194.400 46272323.5 271
  195.500 227723.0 1
//
