ACCESSION: MSBNK-Keio_Univ-KO000210
RECORD_TITLE: 5-Aminopentanoic acid; LC-ESI-QQ; MS2; CE:10 V; [M-H]-
DATE: 2016.01.19 (Created 2007.07.07, modified 2011.05.10)
AUTHORS: Kakazu Y, Horai H, Institute for Advanced Biosciences, Keio Univ.
LICENSE: CC BY-NC-SA
COMMENT: KEIO_ID A135
CH$NAME: 5-Aminopentanoate
CH$NAME: 5-Aminovaleric acid
CH$NAME: 5-Aminopentanoic acid
CH$COMPOUND_CLASS: N/A
CH$FORMULA: C5H11NO2
CH$EXACT_MASS: 117.07898
CH$SMILES: NCCCCC(O)=O
CH$IUPAC: InChI=1S/C5H11NO2/c6-4-2-1-3-5(7)8/h1-4,6H2,(H,7,8)
CH$LINK: CAS 660-88-8
CH$LINK: CHEBI CHEBI:15887
CH$LINK: KEGG C00431
CH$LINK: NIKKAJI J38.132B
CH$LINK: PUBCHEM SID:3720
CH$LINK: INCHIKEY JJMDCOVWQOJGCB-UHFFFAOYSA-N
CH$LINK: COMPTOX DTXSID70216212
AC$INSTRUMENT: API3000, Applied Biosystems
AC$INSTRUMENT_TYPE: LC-ESI-QQ
AC$MASS_SPECTROMETRY: MS_TYPE MS2
AC$MASS_SPECTROMETRY: ION_MODE NEGATIVE
AC$MASS_SPECTROMETRY: COLLISION_ENERGY 10 V
MS$FOCUSED_ION: PRECURSOR_M/Z 116
MS$FOCUSED_ION: PRECURSOR_TYPE [M-H]-
PK$SPLASH: splash10-014i-0900000000-7ac1f98cc9b9752a76d6
PK$NUM_PEAK: 6
PK$PEAK: m/z int. rel.int.
  58.400 79208.0 1
  98.000 118812.0 2
  100.900 14851.5 1
  115.200 44554.5 1
  116.000 68495118.0 999
  133.900 34653.5 1
//
