ACCESSION: MSBNK-Keio_Univ-KO000449
RECORD_TITLE: Carbazole; LC-ESI-QQ; MS2; CE:40 V; [M-H]-
DATE: 2016.01.19 (Created 2007.07.07, modified 2011.05.10)
AUTHORS: Kakazu Y, Horai H, Institute for Advanced Biosciences, Keio Univ.
LICENSE: CC BY-NC-SA
COMMENT: KEIO_ID C040
CH$NAME: Carbazole
CH$COMPOUND_CLASS: N/A
CH$FORMULA: C12H9N
CH$EXACT_MASS: 167.07350
CH$SMILES: C1=CC=C2C(=C1)C3=CC=CC=C3N2
CH$IUPAC: InChI=1S/C12H9N/c1-3-7-11-9(5-1)10-6-2-4-8-12(10)13-11/h1-8,13H
CH$LINK: CAS 86-74-8
CH$LINK: KEGG C08060
CH$LINK: NIKKAJI J3.896B
CH$LINK: PUBCHEM SID:10260
CH$LINK: INCHIKEY UJOBWOGCFQCDNV-UHFFFAOYSA-N
CH$LINK: COMPTOX DTXSID4020248
AC$INSTRUMENT: API3000, Applied Biosystems
AC$INSTRUMENT_TYPE: LC-ESI-QQ
AC$MASS_SPECTROMETRY: MS_TYPE MS2
AC$MASS_SPECTROMETRY: ION_MODE NEGATIVE
AC$MASS_SPECTROMETRY: COLLISION_ENERGY 40 V
MS$FOCUSED_ION: PRECURSOR_M/Z 166
MS$FOCUSED_ION: PRECURSOR_TYPE [M-H]-
PK$SPLASH: splash10-014i-0900000000-570e0710549621003367
PK$NUM_PEAK: 7
PK$PEAK: m/z int. rel.int.
  90.100 69307.0 4
  115.300 29703.0 2
  116.300 247525.0 15
  139.900 460396.5 28
  164.000 237624.0 14
  165.300 1846536.5 112
  166.300 16430709.5 999
//
