ACCESSION: MSBNK-Keio_Univ-KO000780
RECORD_TITLE: 4-Fluorobenzoic acid; LC-ESI-QQ; MS2; CE:20 V; [M-H]-
DATE: 2016.01.19 (Created 2007.07.07, modified 2011.05.10)
AUTHORS: Kakazu Y, Horai H, Institute for Advanced Biosciences, Keio Univ.
LICENSE: CC BY-NC-SA
COMMENT: KEIO_ID F023
CH$NAME: 4-Fluorobenzoate
CH$NAME: 4-Fluorobenzoic acid
CH$COMPOUND_CLASS: N/A
CH$FORMULA: C7H5FO2
CH$EXACT_MASS: 140.02736
CH$SMILES: OC(=O)c(c1)ccc(F)c1
CH$IUPAC: InChI=1S/C7H5FO2/c8-6-3-1-5(2-4-6)7(9)10/h1-4H,(H,9,10)
CH$LINK: CAS 456-22-4
CH$LINK: KEGG C02371
CH$LINK: NIKKAJI J43.545G
CH$LINK: PUBCHEM SID:5413
CH$LINK: INCHIKEY BBYDXOIZLAWGSL-UHFFFAOYSA-N
CH$LINK: COMPTOX DTXSID9060023
AC$INSTRUMENT: API3000, Applied Biosystems
AC$INSTRUMENT_TYPE: LC-ESI-QQ
AC$MASS_SPECTROMETRY: MS_TYPE MS2
AC$MASS_SPECTROMETRY: ION_MODE NEGATIVE
AC$MASS_SPECTROMETRY: COLLISION_ENERGY 20 V
MS$FOCUSED_ION: PRECURSOR_M/Z 139
MS$FOCUSED_ION: PRECURSOR_TYPE [M-H]-
PK$SPLASH: splash10-0002-9000000000-66427c15ee99e13aa652
PK$NUM_PEAK: 8
PK$PEAK: m/z int. rel.int.
  75.100 19802.0 1
  77.200 59406.0 2
  79.100 1168318.0 30
  93.400 44554.5 1
  95.200 38420830.5 999
  110.900 29703.0 1
  120.900 24752.5 1
  139.300 3678221.5 96
//
