ACCESSION: MSBNK-Keio_Univ-KO001475
RECORD_TITLE: cis,cis-Muconic acid; LC-ESI-QQ; MS2; CE:40 V; [M-H]-
DATE: 2016.01.19 (Created 2007.07.07, modified 2011.05.10)
AUTHORS: Kakazu Y, Horai H, Institute for Advanced Biosciences, Keio Univ.
LICENSE: CC BY-NC-SA
COMMENT: KEIO_ID M105
CH$NAME: cis,cis-Muconic acid
CH$NAME: cis,cis-Muconate
CH$NAME: cis,cis-2,4-Hexadienedioic acid
CH$NAME: cis,cis-Hexadienedioate
CH$COMPOUND_CLASS: N/A
CH$FORMULA: C6H6O4
CH$EXACT_MASS: 142.02661
CH$SMILES: OC(=O)C=CC=CC(O)=O
CH$IUPAC: InChI=1S/C6H6O4/c7-5(8)3-1-2-4-6(9)10/h1-4H,(H,7,8)(H,9,10)/b3-1-,4-2-
CH$LINK: CAS 505-70-4
CH$LINK: CHEBI CHEBI:16508
CH$LINK: KEGG C02480
CH$LINK: NIKKAJI J73.682A
CH$LINK: PUBCHEM CID:5280518
CH$LINK: INCHIKEY TXXHDPDFNKHHGW-CCAGOZQPSA-N
AC$INSTRUMENT: API3000, Applied Biosystems
AC$INSTRUMENT_TYPE: LC-ESI-QQ
AC$MASS_SPECTROMETRY: MS_TYPE MS2
AC$MASS_SPECTROMETRY: ION_MODE NEGATIVE
AC$MASS_SPECTROMETRY: COLLISION_ENERGY 40 V
MS$FOCUSED_ION: PRECURSOR_M/Z 141
MS$FOCUSED_ION: PRECURSOR_TYPE [M-H]-
PK$SPLASH: splash10-0a4i-9000000000-6d6fa71ac1d98156ceb5
PK$NUM_PEAK: 2
PK$PEAK: m/z int. rel.int.
  41.100 29703.0 3
  59.100 8648523.5 999
//
