ACCESSION: MSBNK-Keio_Univ-KO003912
RECORD_TITLE: Pendimethalin; LC-ESI-QQ; MS2; CE:10 V; [M+H]+
DATE: 2016.01.19 (Created 2007.07.07, modified 2011.05.10)
AUTHORS: Kakazu Y, Horai H, Institute for Advanced Biosciences, Keio Univ.
LICENSE: CC BY-NC-SA
COMMENT: KEIO_ID P183
CH$NAME: Prowl (TM)
CH$NAME: Pendimethalin
CH$COMPOUND_CLASS: N/A
CH$FORMULA: C13H19N3O4
CH$EXACT_MASS: 281.13756
CH$SMILES: CCC(CC)Nc(c([N+1]([O-1])=O)1)c([N+1]([O-1])=O)c(C)c(C)c1
CH$IUPAC: InChI=1S/C13H19N3O4/c1-5-10(6-2)14-12-11(15(17)18)7-8(3)9(4)13(12)16(19)20/h7,10,14H,5-6H2,1-4H3
CH$LINK: CAS 40487-42-1
CH$LINK: KEGG C11019
CH$LINK: NIKKAJI J1.892I
CH$LINK: PUBCHEM SID:13202
CH$LINK: INCHIKEY CHIFOSRWCNZCFN-UHFFFAOYSA-N
CH$LINK: COMPTOX DTXSID7024245
AC$INSTRUMENT: API3000, Applied Biosystems
AC$INSTRUMENT_TYPE: LC-ESI-QQ
AC$MASS_SPECTROMETRY: MS_TYPE MS2
AC$MASS_SPECTROMETRY: ION_MODE POSITIVE
AC$MASS_SPECTROMETRY: COLLISION_ENERGY 10 V
MS$FOCUSED_ION: PRECURSOR_M/Z 282
MS$FOCUSED_ION: PRECURSOR_TYPE [M+H]+
PK$SPLASH: splash10-03e9-0090000000-4c5dfe2488c8464f8a8d
PK$NUM_PEAK: 49
PK$PEAK: m/z int. rel.int.
  71.200 173267.5 1
  76.300 242574.5 2
  78.300 49505.0 1
  82.200 163366.5 1
  85.300 34653.5 1
  110.200 94059.5 1
  114.200 34653.5 1
  115.400 34653.5 1
  119.200 39604.0 1
  124.000 29703.0 1
  127.100 539604.5 4
  130.800 24752.5 1
  132.200 202970.5 1
  133.000 217822.0 2
  139.200 79208.0 1
  140.100 331683.5 2
  141.900 39604.0 1
  146.400 14851.5 1
  149.900 455446.0 3
  151.300 311881.5 2
  155.900 24752.5 1
  160.100 311881.5 2
  165.000 29703.0 1
  166.100 19802.0 1
  171.300 29703.0 1
  176.000 89109.0 1
  185.200 29703.0 1
  190.100 44554.5 1
  191.500 89109.0 1
  194.200 480198.5 3
  197.100 9901.0 1
  202.200 24752.5 1
  204.900 69307.0 1
  206.200 19802.0 1
  212.200 142683311.0 999
  218.500 49505.0 1
  219.100 44554.5 1
  220.100 54455.5 1
  222.100 188119.0 1
  224.100 14851.5 1
  229.200 49505.0 1
  230.200 430693.5 3
  233.400 29703.0 1
  236.300 133663.5 1
  247.200 54455.5 1
  250.300 148515.0 1
  264.100 39604.0 1
  265.400 1024753.5 7
  282.500 121613983.0 851
//
