ACCESSION: MSBNK-Keio_Univ-KO001927
RECORD_TITLE: Tartronic acid; LC-ESI-QQ; MS2; CE:50 V; [M-H]-
DATE: 2016.01.19 (Created 2007.07.07, modified 2011.05.10)
AUTHORS: Kakazu Y, Horai H, Institute for Advanced Biosciences, Keio Univ.
LICENSE: CC BY-NC-SA
COMMENT: KEIO_ID T050
CH$NAME: Tartronate
CH$NAME: Hydroxymalonic acid
CH$NAME: Tartronic acid
CH$NAME: Hydroxymalonate
CH$COMPOUND_CLASS: N/A
CH$FORMULA: C3H4O5
CH$EXACT_MASS: 120.00587
CH$SMILES: OC(C(O)=O)C(O)=O
CH$IUPAC: InChI=1S/C3H4O5/c4-1(2(5)6)3(7)8/h1,4H,(H,5,6)(H,7,8)
CH$LINK: CAS 80-69-3
CH$LINK: CHEBI CHEBI:16513
CH$LINK: KEGG C02287
CH$LINK: NIKKAJI J4.253F
CH$LINK: PUBCHEM SID:5343
CH$LINK: INCHIKEY ROBFUDYVXSDBQM-UHFFFAOYSA-N
CH$LINK: COMPTOX DTXSID6075358
AC$INSTRUMENT: API3000, Applied Biosystems
AC$INSTRUMENT_TYPE: LC-ESI-QQ
AC$MASS_SPECTROMETRY: MS_TYPE MS2
AC$MASS_SPECTROMETRY: ION_MODE NEGATIVE
AC$MASS_SPECTROMETRY: COLLISION_ENERGY 50 V
MS$FOCUSED_ION: PRECURSOR_M/Z 119
MS$FOCUSED_ION: PRECURSOR_TYPE [M-H]-
PK$SPLASH: splash10-0a4i-9000000000-c80ff83bde053c84f6d6
PK$NUM_PEAK: 7
PK$PEAK: m/z int. rel.int.
  28.900 19802.0 32
  36.900 14851.5 24
  42.300 34653.5 56
  57.000 49505.0 80
  59.300 618812.5 999
  79.800 158416.0 256
  96.100 138614.0 224
//
