ACCESSION: MSBNK-Keio_Univ-KO000860
RECORD_TITLE: Glyceric acid; LC-ESI-QQ; MS2; CE:30 V; [M-H]-
DATE: 2016.01.19 (Created 2007.07.07, modified 2011.05.10)
AUTHORS: Kakazu Y, Horai H, Institute for Advanced Biosciences, Keio Univ.
LICENSE: CC BY-NC-SA
COMMENT: KEIO_ID G027
CH$NAME: Glycerate
CH$NAME: Glyceric acid
CH$NAME: D-Glycerate
CH$NAME: (R)-Glycerate
CH$COMPOUND_CLASS: N/A
CH$FORMULA: C3H6O4
CH$EXACT_MASS: 106.02661
CH$SMILES: OC[C@@H](O)C(O)=O
CH$IUPAC: InChI=1S/C3H6O4/c4-1-2(5)3(6)7/h2,4-5H,1H2,(H,6,7)/t2-/m1/s1
CH$LINK: CAS 473-81-4
CH$LINK: CHEBI CHEBI:32398
CH$LINK: KEGG C00258
CH$LINK: NIKKAJI J5.966H
CH$LINK: PUBCHEM CID:439194
CH$LINK: INCHIKEY RBNPOMFGQQGHHO-UWTATZPHSA-N
AC$INSTRUMENT: API3000, Applied Biosystems
AC$INSTRUMENT_TYPE: LC-ESI-QQ
AC$MASS_SPECTROMETRY: MS_TYPE MS2
AC$MASS_SPECTROMETRY: ION_MODE NEGATIVE
AC$MASS_SPECTROMETRY: COLLISION_ENERGY 30 V
MS$FOCUSED_ION: PRECURSOR_M/Z 105
MS$FOCUSED_ION: PRECURSOR_TYPE [M-H]-
PK$SPLASH: splash10-0a4i-9000000000-e2f8962c5a4a4bde459a
PK$NUM_PEAK: 9
PK$PEAK: m/z int. rel.int.
  41.000 118812.0 116
  43.100 381188.5 372
  45.100 767327.5 748
  47.100 74257.5 72
  57.100 1024753.5 999
  59.200 836634.5 816
  72.700 103960.5 101
  75.100 351485.5 343
  105.100 158416.0 154
//
