ACCESSION: MSBNK-Keio_Univ-KO001435
RECORD_TITLE: N-Methylglutamic acid; LC-ESI-QQ; MS2; CE:40 V; [M-H]-
DATE: 2016.01.19 (Created 2007.07.07, modified 2011.05.10)
AUTHORS: Kakazu Y, Horai H, Institute for Advanced Biosciences, Keio Univ.
LICENSE: CC BY-NC-SA
COMMENT: KEIO_ID M067
CH$NAME: N-Methylglutamate
CH$NAME: N-Methyl-L-glutamate
CH$NAME: N-Methyl-L-glutamic acid
CH$NAME: N-Methylglutamic acid
CH$COMPOUND_CLASS: N/A
CH$FORMULA: C6H11NO4
CH$EXACT_MASS: 161.06881
CH$SMILES: CN[C@@H](CCC(O)=O)C(O)=O
CH$IUPAC: InChI=1S/C6H11NO4/c1-7-4(6(10)11)2-3-5(8)9/h4,7H,2-3H2,1H3,(H,8,9)(H,10,11)/t4-/m0/s1
CH$LINK: CHEBI CHEBI:16440
CH$LINK: KEGG C01046
CH$LINK: PUBCHEM CID:439377
CH$LINK: INCHIKEY XLBVNMSMFQMKEY-BYPYZUCNSA-N
AC$INSTRUMENT: API3000, Applied Biosystems
AC$INSTRUMENT_TYPE: LC-ESI-QQ
AC$MASS_SPECTROMETRY: MS_TYPE MS2
AC$MASS_SPECTROMETRY: ION_MODE NEGATIVE
AC$MASS_SPECTROMETRY: COLLISION_ENERGY 40 V
MS$FOCUSED_ION: PRECURSOR_M/Z 160
MS$FOCUSED_ION: PRECURSOR_TYPE [M-H]-
PK$SPLASH: splash10-066r-9700000000-3a6a7edac0b0847066f1
PK$NUM_PEAK: 6
PK$PEAK: m/z int. rel.int.
  44.100 24752.5 192
  56.900 14851.5 115
  59.100 59406.0 461
  70.800 24752.5 192
  88.100 24752.5 192
  116.200 128713.0 999
//
