ACCESSION: MSBNK-Keio_Univ-KO009247
RECORD_TITLE: Sisomicin; LC-ESI-IT; MS4; m/z: 448/322/205; [M+H]+
DATE: 2011.12.05 (Created 2008.05.12)
AUTHORS: Ojima Y, Kakazu Y, Horai H, Soga T, Institute for Advanced Biosciences, Keio Univ.
LICENSE: CC BY-NC-SA
COMMENT: KEIO_ID S047
COMMENT: [MS3] KO009246
CH$NAME: Sisomicin
CH$NAME: Antibiotic 6640
CH$NAME: Dehydrogentamicin Cla
CH$NAME: Rickamicin
CH$COMPOUND_CLASS: N/A
CH$FORMULA: C19H37N5O7
CH$EXACT_MASS: 447.26930
CH$SMILES: NCC(=C3)O[C@@H]([C@H](N)C3)O[C@H]([C@@H](N)1)[C@H](O)[C@@H](O[C@@H](O2)[C@H](O)[C@@H](NC)[C@](C)(O)C2)[C@H](N)C1
CH$IUPAC: InChI=1S/C19H37N5O7/c1-19(27)7-28-18(13(26)16(19)24-2)31-15-11(23)5-10(22)14(12(15)25)30-17-9(21)4-3-8(6-20)29-17/h3,9-18,24-27H,4-7,20-23H2,1-2H3/t9-,10+,11-,12+,13-,14-,15+,16-,17-,18-,19+/m1/s1
CH$LINK: CAS 32385-11-8
CH$LINK: CHEBI CHEBI:9169
CH$LINK: KEGG C00494
CH$LINK: NIKKAJI J342.544D
CH$LINK: PUBCHEM CID:36119
CH$LINK: INCHIKEY URWAJWIAIPFPJE-YFMIWBNJSA-N
AC$INSTRUMENT: LC/MSD Trap XCT, Agilent Technologies
AC$INSTRUMENT_TYPE: LC-ESI-IT
AC$MASS_SPECTROMETRY: MS_TYPE MS4
AC$MASS_SPECTROMETRY: ION_MODE POSITIVE
AC$MASS_SPECTROMETRY: COLLISION_ENERGY 0.50/0.70/0.50
MS$FOCUSED_ION: PRECURSOR_M/Z 448/322/205
MS$FOCUSED_ION: PRECURSOR_TYPE [M+H]+
MS$DATA_PROCESSING: WHOLE LC/MSD Trap Control and Data Analysis
PK$SPLASH: splash10-052r-1930000000-116e03fa6fb4a665c363
PK$NUM_PEAK: 7
PK$PEAK: m/z int. rel.int.
  68.2 4.80 81
  69.2 3.38 57
  83.2 2.97 50
  151.1 1.30 22
  169.1 19.27 323
  187.1 59.52 999
  205.1 34.85 585
//
