ACCESSION: MSBNK-Keio_Univ-KO001626
RECORD_TITLE: Palmitoleic acid; LC-ESI-QQ; MS2; CE:10 V; [M-H]-
DATE: 2016.01.19 (Created 2007.07.07, modified 2011.05.10)
AUTHORS: Kakazu Y, Horai H, Institute for Advanced Biosciences, Keio Univ.
LICENSE: CC BY-NC-SA
COMMENT: KEIO_ID P044
CH$NAME: Palmitoleate
CH$NAME: (9Z)-Hexadecenoic acid
CH$NAME: cis-9-Hexadecenoic acid
CH$NAME: Palmitoleic acid
CH$COMPOUND_CLASS: N/A
CH$FORMULA: C16H30O2
CH$EXACT_MASS: 254.22458
CH$SMILES: CCCCCCC=CCCCCCCCC(O)=O
CH$IUPAC: InChI=1S/C16H30O2/c1-2-3-4-5-6-7-8-9-10-11-12-13-14-15-16(17)18/h7-8H,2-6,9-15H2,1H3,(H,17,18)/b8-7-
CH$LINK: CAS 373-49-9
CH$LINK: CHEBI CHEBI:28716
CH$LINK: CHEMPDB PAM
CH$LINK: KEGG C08362
CH$LINK: NIKKAJI J12.503B
CH$LINK: PUBCHEM CID:445638
CH$LINK: INCHIKEY SECPZKHBENQXJG-FPLPWBNLSA-N
CH$LINK: COMPTOX DTXSID0041197
AC$INSTRUMENT: API3000, Applied Biosystems
AC$INSTRUMENT_TYPE: LC-ESI-QQ
AC$MASS_SPECTROMETRY: MS_TYPE MS2
AC$MASS_SPECTROMETRY: ION_MODE NEGATIVE
AC$MASS_SPECTROMETRY: COLLISION_ENERGY 10 V
MS$FOCUSED_ION: PRECURSOR_M/Z 253
MS$FOCUSED_ION: PRECURSOR_TYPE [M-H]-
PK$SPLASH: splash10-0udi-0090000000-35027c88ff732ff74b4c
PK$NUM_PEAK: 13
PK$PEAK: m/z int. rel.int.
  46.100 84158.5 1
  58.800 29703.0 1
  102.800 39604.0 1
  114.900 113861.5 1
  137.000 39604.0 1
  143.600 14851.5 1
  155.000 24752.5 1
  209.300 24752.5 1
  216.800 128713.0 1
  220.100 69307.0 1
  253.300 532406473.0 999
  271.400 84158.5 1
  397.700 19802.0 1
//
