ACCESSION: MSBNK-Keio_Univ-KO000427
RECORD_TITLE: 1-Hexanoic acid; LC-ESI-QQ; MS2; CE:20 V; [M-H]-
DATE: 2016.01.19 (Created 2007.07.07, modified 2011.05.10)
AUTHORS: Kakazu Y, Horai H, Institute for Advanced Biosciences, Keio Univ.
LICENSE: CC BY-NC-SA
COMMENT: KEIO_ID C035
CH$NAME: Hexanoate
CH$NAME: n-Caproic acid
CH$NAME: Hexylic acid
CH$NAME: Hexanoic acid
CH$NAME: 1-Hexanoic acid
CH$COMPOUND_CLASS: N/A
CH$FORMULA: C6H12O2
CH$EXACT_MASS: 116.08373
CH$SMILES: CCCCCC(O)=O
CH$IUPAC: InChI=1S/C6H12O2/c1-2-3-4-5-6(7)8/h2-5H2,1H3,(H,7,8)
CH$LINK: CAS 142-62-1
CH$LINK: CHEBI CHEBI:30776
CH$LINK: KEGG C01585
CH$LINK: NIKKAJI J2.546A
CH$LINK: PUBCHEM CID:8892
CH$LINK: INCHIKEY FUZZWVXGSFPDMH-UHFFFAOYSA-N
CH$LINK: COMPTOX DTXSID7021607
AC$INSTRUMENT: API3000, Applied Biosystems
AC$INSTRUMENT_TYPE: LC-ESI-QQ
AC$MASS_SPECTROMETRY: MS_TYPE MS2
AC$MASS_SPECTROMETRY: ION_MODE NEGATIVE
AC$MASS_SPECTROMETRY: COLLISION_ENERGY 20 V
MS$FOCUSED_ION: PRECURSOR_M/Z 115
MS$FOCUSED_ION: PRECURSOR_TYPE [M-H]-
PK$SPLASH: splash10-014i-0900000000-5013166dd3b692762812
PK$NUM_PEAK: 6
PK$PEAK: m/z int. rel.int.
  43.000 64356.5 2
  59.400 89109.0 2
  69.400 34653.5 1
  71.000 806931.5 21
  96.900 306931.0 8
  115.100 38272315.5 999
//
