ACCESSION: MSBNK-Keio_Univ-KO002714
RECORD_TITLE: 2-Deoxystreptamine; LC-ESI-QQ; MS2; CE:40 V; [M+H]+
DATE: 2016.01.19 (Created 2007.07.07, modified 2011.05.10)
AUTHORS: Kakazu Y, Horai H, Institute for Advanced Biosciences, Keio Univ.
LICENSE: CC BY-NC-SA
COMMENT: KEIO_ID D061
CH$NAME: 2-Deoxystreptamine
CH$COMPOUND_CLASS: N/A
CH$FORMULA: C6H14N2O3
CH$EXACT_MASS: 162.10044
CH$SMILES: N[C@H](C1)[C@H](O)[C@@H](O)[C@H](O)[C@@H](N)1
CH$IUPAC: InChI=1S/C6H14N2O3/c7-2-1-3(8)5(10)6(11)4(2)9/h2-6,9-11H,1,7-8H2/t2-,3+,4+,5-,6-
CH$LINK: CAS 2037-48-1
CH$LINK: KEGG C02627
CH$LINK: PUBCHEM CID:203443
CH$LINK: INCHIKEY DTFAJAKTSMLKAT-JDCCYXBGSA-N
AC$INSTRUMENT: API3000, Applied Biosystems
AC$INSTRUMENT_TYPE: LC-ESI-QQ
AC$MASS_SPECTROMETRY: MS_TYPE MS2
AC$MASS_SPECTROMETRY: ION_MODE POSITIVE
AC$MASS_SPECTROMETRY: COLLISION_ENERGY 40 V
MS$FOCUSED_ION: PRECURSOR_M/Z 163
MS$FOCUSED_ION: PRECURSOR_TYPE [M+H]+
PK$SPLASH: splash10-004i-1900000000-8967a55b0c836664cb73
PK$NUM_PEAK: 34
PK$PEAK: m/z int. rel.int.
  55.300 84158.5 2
  56.000 103960.5 3
  57.100 79208.0 2
  60.100 123762.5 3
  64.900 79208.0 2
  67.000 64356.5 2
  67.900 366337.0 9
  68.900 138614.0 4
  71.700 19802.0 1
  75.100 188119.0 5
  77.100 2900993.0 75
  80.000 84158.5 2
  82.100 193069.5 5
  83.300 54455.5 1
  84.200 178218.0 5
  85.100 94059.5 2
  86.000 19802.0 1
  91.200 2074259.5 54
  93.500 14851.5 1
  95.300 227723.0 6
  98.200 14851.5 1
  101.000 7059413.0 183
  102.300 435644.0 11
  110.200 217822.0 6
  114.100 29703.0 1
  116.900 143564.5 4
  118.000 84158.5 2
  119.200 787129.5 20
  120.300 94059.5 2
  127.000 84158.5 2
  128.000 38564395.0 999
  129.300 173267.5 4
  130.200 79208.0 2
  146.100 4222776.5 109
//
