ACCESSION: MSBNK-Keio_Univ-KO001659
RECORD_TITLE: Prostaglandin F2a; LC-ESI-QQ; MS2; CE:40 V; [M-H]-
DATE: 2016.01.19 (Created 2007.07.07, modified 2012.10.22)
AUTHORS: Kakazu Y, Horai H, Institute for Advanced Biosciences, Keio Univ.
LICENSE: CC BY-NC-SA
COMMENT: KEIO_ID P066
CH$NAME: Prostaglandin F2a
CH$NAME: Dinoprost
CH$NAME: PGF2a
CH$NAME: (5Z,13E,15S)-9alpha,11alpha,15-Trihydroxyprosta-5,13-diene-1-oic acid
CH$NAME: 9a,11a-PGF2
CH$COMPOUND_CLASS: N/A
CH$FORMULA: C20H34O5
CH$EXACT_MASS: 354.24062
CH$SMILES: CCCCC[C@@H](/C=C/[C@H]1[C@@H](C[C@@H]([C@@H]1C/C=C\CCCC(=O)O)O)O)O
CH$IUPAC: InChI=1S/C20H34O5/c1-2-3-6-9-15(21)12-13-17-16(18(22)14-19(17)23)10-7-4-5-8-11-20(24)25/h4,7,12-13,15-19,21-23H,2-3,5-6,8-11,14H2,1H3,(H,24,25)/b7-4-,13-12+/t15-,16+,17+,18-,19+/m0/s1
CH$LINK: CAS 551-11-1
CH$LINK: CAYMAN 16010
CH$LINK: CHEBI CHEBI:15553
CH$LINK: COMPTOX DTXSID9022946
CH$LINK: INCHIKEY PXGPLTODNUVGFL-YNNPMVKQSA-N
CH$LINK: KEGG C00639
CH$LINK: LIPIDBANK XPR1501
CH$LINK: NIKKAJI J9.246K
CH$LINK: PUBCHEM CID:5280363
AC$INSTRUMENT: API3000, Applied Biosystems
AC$INSTRUMENT_TYPE: LC-ESI-QQ
AC$MASS_SPECTROMETRY: MS_TYPE MS2
AC$MASS_SPECTROMETRY: ION_MODE NEGATIVE
AC$MASS_SPECTROMETRY: COLLISION_ENERGY 40 V
MS$FOCUSED_ION: PRECURSOR_M/Z 353
MS$FOCUSED_ION: PRECURSOR_TYPE [M-H]-
PK$SPLASH: splash10-0006-2930000000-cd974d0610f6f3279559
PK$NUM_PEAK: 92
PK$PEAK: m/z int. rel.int.
  43.100 960397.0 200
  44.900 24752.5 5
  57.500 19802.0 4
  59.300 366337.0 76
  67.000 44554.5 9
  68.800 158416.0 33
  70.900 277228.0 58
  80.200 39604.0 8
  81.100 138614.0 29
  82.400 39604.0 8
  83.200 811882.0 169
  84.900 143564.5 30
  86.600 29703.0 6
  93.100 94059.5 20
  95.400 153465.5 32
  97.100 688119.5 143
  99.300 316832.0 66
  104.900 24752.5 5
  106.800 24752.5 5
  108.000 59406.0 12
  108.900 173267.5 36
  111.300 900991.0 188
  113.100 569307.5 119
  114.900 44554.5 9
  119.000 207921.0 43
  120.200 39604.0 8
  121.100 79208.0 16
  123.200 232673.5 48
  125.200 301980.5 63
  125.600 39604.0 8
  126.900 173267.5 36
  128.900 59406.0 12
  134.000 34653.5 7
  135.200 232673.5 48
  137.300 410891.5 86
  139.300 133663.5 28
  140.900 14851.5 3
  147.100 311881.5 65
  147.900 74257.5 15
  148.900 64356.5 13
  149.900 54455.5 11
  151.000 94059.5 20
  153.200 99010.0 21
  154.700 34653.5 7
  159.400 24752.5 5
  160.800 24752.5 5
  163.500 198020.0 41
  165.500 1321783.5 275
  167.100 128713.0 27
  169.100 64356.5 13
  170.900 554456.0 115
  172.900 262376.5 55
  175.100 103960.5 22
  177.100 74257.5 15
  179.300 113861.5 24
  180.200 247525.0 52
  181.100 534654.0 111
  183.100 123762.5 26
  185.100 29703.0 6
  185.700 9901.0 2
  189.400 59406.0 12
  191.500 504951.0 105
  193.500 4797034.5 999
  195.500 24752.5 5
  199.200 39604.0 8
  201.200 79208.0 16
  204.800 29703.0 6
  207.000 49505.0 10
  209.200 311881.5 65
  211.300 158416.0 33
  217.500 217822.0 45
  219.700 361386.5 75
  221.100 39604.0 8
  227.200 94059.5 20
  229.200 420792.5 88
  231.400 59406.0 12
  232.600 39604.0 8
  235.100 59406.0 12
  238.100 39604.0 8
  238.600 24752.5 5
  245.300 123762.5 26
  247.200 1569308.5 327
  255.200 227723.0 47
  263.600 490099.5 102
  273.500 272277.5 57
  281.300 217822.0 45
  289.100 39604.0 8
  291.500 445545.0 93
  299.100 44554.5 9
  299.600 44554.5 9
  309.500 292079.5 61
  353.400 54455.5 11
//
