ACCESSION: MSBNK-Keio_Univ-KO003660
RECORD_TITLE: Orotidine 5'-monophosphate; LC-ESI-QQ; MS2; CE:40 V; [M+H]+
DATE: 2016.01.19 (Created 2007.07.07, modified 2011.05.10)
AUTHORS: Kakazu Y, Horai H, Institute for Advanced Biosciences, Keio Univ.
LICENSE: CC BY-NC-SA
COMMENT: KEIO_ID O015
CH$NAME: Orotidine 5'-monophosphate
CH$NAME: Orotidine 5'-phosphate
CH$NAME: Orotidylic acid
CH$COMPOUND_CLASS: N/A
CH$FORMULA: C10H13N2O11P
CH$EXACT_MASS: 368.02570
CH$SMILES: OC(=O)C(=C2)N(C(=O)NC(=O)2)[C@H](O1)[C@H](O)[C@H](O)[C@@H](COP(O)(O)=O)1
CH$IUPAC: InChI=1S/C10H13N2O11P/c13-5-1-3(9(16)17)12(10(18)11-5)8-7(15)6(14)4(23-8)2-22-24(19,20)21/h1,4,6-8,14-15H,2H2,(H,16,17)(H,11,13,18)(H2,19,20,21)/t4-,6-,7-,8-/m1/s1
CH$LINK: CAS 2149-82-8
CH$LINK: CHEBI CHEBI:15842
CH$LINK: KEGG C01103
CH$LINK: NIKKAJI J13.801K
CH$LINK: PUBCHEM CID:160617
CH$LINK: INCHIKEY KYOBSHFOBAOFBF-XVFCMESISA-N
AC$INSTRUMENT: API3000, Applied Biosystems
AC$INSTRUMENT_TYPE: LC-ESI-QQ
AC$MASS_SPECTROMETRY: MS_TYPE MS2
AC$MASS_SPECTROMETRY: ION_MODE POSITIVE
AC$MASS_SPECTROMETRY: COLLISION_ENERGY 40 V
MS$FOCUSED_ION: PRECURSOR_M/Z 369
MS$FOCUSED_ION: PRECURSOR_TYPE [M+H]+
PK$SPLASH: splash10-0ab9-1900000000-c0bff94247e9d478e3d0
PK$NUM_PEAK: 12
PK$PEAK: m/z int. rel.int.
  73.100 24752.5 278
  74.900 29703.0 333
  105.000 89109.0 999
  106.400 29703.0 333
  109.000 14851.5 167
  130.000 29703.0 333
  134.900 14851.5 167
  166.000 29703.0 333
  167.900 14851.5 167
  174.900 59406.0 666
  184.600 19802.0 222
  200.900 14851.5 167
//
