ACCESSION: MSBNK-Keio_Univ-KO003738
RECORD_TITLE: Phenylethylamine; LC-ESI-QQ; MS2; CE:10 V; [M+H]+
DATE: 2016.01.19 (Created 2007.07.07, modified 2011.05.10)
AUTHORS: Kakazu Y, Horai H, Institute for Advanced Biosciences, Keio Univ.
LICENSE: CC BY-NC-SA
COMMENT: KEIO_ID P047
CH$NAME: Phenylethylamine
CH$NAME: beta-Phenylethylamine
CH$NAME: Phenethylamine
CH$NAME: 2-Phenylethylamine
CH$COMPOUND_CLASS: N/A
CH$FORMULA: C8H11N
CH$EXACT_MASS: 121.08915
CH$SMILES: NCCc(c1)cccc1
CH$IUPAC: InChI=1S/C8H11N/c9-7-6-8-4-2-1-3-5-8/h1-5H,6-7,9H2
CH$LINK: CAS 64-04-0
CH$LINK: CHEBI CHEBI:18397
CH$LINK: KEGG C05332
CH$LINK: NIKKAJI J4.833J
CH$LINK: PUBCHEM CID:1001
CH$LINK: INCHIKEY BHHGXPLMPWCGHP-UHFFFAOYSA-N
CH$LINK: COMPTOX DTXSID5058773
AC$INSTRUMENT: API3000, Applied Biosystems
AC$INSTRUMENT_TYPE: LC-ESI-QQ
AC$MASS_SPECTROMETRY: MS_TYPE MS2
AC$MASS_SPECTROMETRY: ION_MODE POSITIVE
AC$MASS_SPECTROMETRY: COLLISION_ENERGY 10 V
MS$FOCUSED_ION: PRECURSOR_M/Z 122
MS$FOCUSED_ION: PRECURSOR_TYPE [M+H]+
PK$SPLASH: splash10-0ab9-0900000000-5ad03d29c0ff6167539c
PK$NUM_PEAK: 12
PK$PEAK: m/z int. rel.int.
  64.200 64356.5 1
  68.700 54455.5 1
  77.100 108911.0 1
  78.800 272277.5 1
  80.800 663367.0 2
  87.000 69307.0 1
  102.800 663367.0 2
  105.000 363351848.5 999
  106.700 19802.0 1
  122.200 294752770.0 810
  140.200 173267.5 1
  162.900 14851.5 1
//
