ACCESSION: MSBNK-Keio_Univ-KO002056
RECORD_TITLE: L-Alanine; LC-ESI-QQ; MS2; CE:40 V; [M+H]+
DATE: 2016.01.19 (Created 2007.07.07, modified 2011.05.10)
AUTHORS: Kakazu Y, Horai H, Institute for Advanced Biosciences, Keio Univ.
LICENSE: CC BY-NC-SA
COMMENT: KEIO_ID A015
CH$NAME: L-Ala
CH$NAME: L-Alanine
CH$NAME: L-2-Aminopropionic acid
CH$NAME: L-alpha-Alanine
CH$COMPOUND_CLASS: N/A
CH$FORMULA: C3H7NO2
CH$EXACT_MASS: 89.04768
CH$SMILES: CC(N)C(O)=O
CH$IUPAC: InChI=1S/C3H7NO2/c1-2(4)3(5)6/h2H,4H2,1H3,(H,5,6)/t2-/m0/s1
CH$LINK: CAS 56-41-7
CH$LINK: CHEBI CHEBI:16977
CH$LINK: CHEMPDB ALA
CH$LINK: KEGG C00041
CH$LINK: NIKKAJI J9.168E
CH$LINK: PUBCHEM SID:3343
CH$LINK: INCHIKEY QNAYBMKLOCPYGJ-REOHCLBHSA-N
CH$LINK: COMPTOX DTXSID20873899
AC$INSTRUMENT: API3000, Applied Biosystems
AC$INSTRUMENT_TYPE: LC-ESI-QQ
AC$MASS_SPECTROMETRY: MS_TYPE MS2
AC$MASS_SPECTROMETRY: ION_MODE POSITIVE
AC$MASS_SPECTROMETRY: COLLISION_ENERGY 40 V
MS$FOCUSED_ION: PRECURSOR_M/Z 90
MS$FOCUSED_ION: PRECURSOR_TYPE [M+H]+
PK$SPLASH: splash10-0006-9000000000-32477244247613182214
PK$NUM_PEAK: 3
PK$PEAK: m/z int. rel.int.
  44.100 504951.0 999
  78.900 89109.0 176
  682.900 14851.5 29
//
