ACCESSION: MSBNK-Keio_Univ-KO001608
RECORD_TITLE: D-(+)-Pantothenic acid; LC-ESI-QQ; MS2; CE:40 V; [M-H]-
DATE: 2016.01.19 (Created 2007.07.07, modified 2011.05.10)
AUTHORS: Kakazu Y, Horai H, Institute for Advanced Biosciences, Keio Univ.
LICENSE: CC BY-NC-SA
COMMENT: KEIO_ID P032
CH$NAME: Pantothenate
CH$NAME: (R)-Pantothenate
CH$NAME: Pantothenic acid
CH$NAME: D-(+)-Pantothenic acid
CH$COMPOUND_CLASS: N/A
CH$FORMULA: C9H17NO5
CH$EXACT_MASS: 219.11067
CH$SMILES: OCC(C)(C)[C@@H](O)C(=O)NCCC(O)=O
CH$IUPAC: InChI=1S/C9H17NO5/c1-9(2,5-11)7(14)8(15)10-4-3-6(12)13/h7,11,14H,3-5H2,1-2H3,(H,10,15)(H,12,13)/t7-/m0/s1
CH$LINK: CAS 79-83-4
CH$LINK: CHEBI CHEBI:7916
CH$LINK: KEGG C00864
CH$LINK: NIKKAJI J4.242K
CH$LINK: PUBCHEM SID:4121
CH$LINK: INCHIKEY GHOKWGTUZJEAQD-ZETCQYMHSA-N
CH$LINK: COMPTOX DTXSID9023417
AC$INSTRUMENT: API3000, Applied Biosystems
AC$INSTRUMENT_TYPE: LC-ESI-QQ
AC$MASS_SPECTROMETRY: MS_TYPE MS2
AC$MASS_SPECTROMETRY: ION_MODE NEGATIVE
AC$MASS_SPECTROMETRY: COLLISION_ENERGY 40 V
MS$FOCUSED_ION: PRECURSOR_M/Z 218
MS$FOCUSED_ION: PRECURSOR_TYPE [M-H]-
PK$SPLASH: splash10-00di-9000000000-a56de6ea4cc94ead9287
PK$NUM_PEAK: 19
PK$PEAK: m/z int. rel.int.
  42.100 193069.5 9
  44.100 5683174.0 271
  46.100 84158.5 4
  59.200 1029704.0 49
  69.000 24752.5 1
  70.900 20975268.5 999
  72.300 920793.0 44
  78.700 44554.5 2
  86.000 24752.5 1
  88.200 8801989.0 419
  92.500 39604.0 2
  98.000 415842.0 20
  99.000 6014857.5 286
  101.100 188119.0 9
  114.300 148515.0 7
  116.100 767327.5 37
  124.300 89109.0 4
  129.000 153465.5 7
  146.100 1475249.0 70
//
