ACCESSION: MSBNK-Keio_Univ-KO009302
RECORD_TITLE: Trehalose 6-phosphate; LC-ESI-IT; MS3; m/z: 423/261; [M+H]+
DATE: 2011.12.05 (Created 2008.05.12)
AUTHORS: Ojima Y, Kakazu Y, Horai H, Soga T, Institute for Advanced Biosciences, Keio Univ.
LICENSE: CC BY-NC-SA
COMMENT: KEIO_ID T065
COMMENT: [MS2] KO009301
CH$NAME: Trehalose 6-phosphate
CH$NAME: alpha,alpha'-Trehalose 6-phosphate
CH$COMPOUND_CLASS: N/A
CH$FORMULA: C12H23O14P
CH$EXACT_MASS: 422.08254
CH$SMILES: OCC(O1)C(O)C(O)C(O)C1OC(O2)C(O)C(O)C(O)C(COP(O)(O)=O)2
CH$IUPAC: InChI=1S/C12H23O14P/c13-1-3-5(14)7(16)9(18)11(24-3)26-12-10(19)8(17)6(15)4(25-12)2-23-27(20,21)22/h3-19H,1-2H2,(H2,20,21,22)/t3-,4-,5-,6-,7+,8+,9-,10-,11-,12-/m1/s1
CH$LINK: CAS 4484-88-2
CH$LINK: CHEBI CHEBI:18283
CH$LINK: KEGG C00689
CH$LINK: PUBCHEM CID:122336
CH$LINK: INCHIKEY LABSPYBHMPDTEL-LIZSDCNHSA-N
AC$INSTRUMENT: LC/MSD Trap XCT, Agilent Technologies
AC$INSTRUMENT_TYPE: LC-ESI-IT
AC$MASS_SPECTROMETRY: MS_TYPE MS3
AC$MASS_SPECTROMETRY: ION_MODE POSITIVE
AC$MASS_SPECTROMETRY: COLLISION_ENERGY 0.50/0.30
MS$FOCUSED_ION: PRECURSOR_M/Z 423/261
MS$FOCUSED_ION: PRECURSOR_TYPE [M+H]+
MS$DATA_PROCESSING: WHOLE LC/MSD Trap Control and Data Analysis
PK$SPLASH: splash10-01ox-0090000000-f1a2aa1461e0ebae77cb
PK$NUM_PEAK: 6
PK$PEAK: m/z int. rel.int.
  241.7 3.13 25
  243.0 124.75 999
  261.0 87.53 701
  262.4 1.83 15
  266.9 2.50 20
  390.9 4.67 37
//
