ACCESSION: MSBNK-Keio_Univ-KO000565
RECORD_TITLE: 2-Deoxyribose 5-phosphate; LC-ESI-QQ; MS2; CE:20 V; [M-H]-
DATE: 2016.01.19 (Created 2007.07.07, modified 2011.05.10)
AUTHORS: Kakazu Y, Horai H, Institute for Advanced Biosciences, Keio Univ.
LICENSE: CC BY-NC-SA
COMMENT: KEIO_ID D026
CH$NAME: 2-Deoxyribose 5'-phosphate
CH$NAME: 2-Deoxy-D-ribose 5-phosphate
CH$NAME: 2-Deoxyribose 5-phosphate
CH$COMPOUND_CLASS: N/A
CH$FORMULA: C5H11O7P
CH$EXACT_MASS: 214.02424
CH$SMILES: OC(C1)O[C@H](COP(O)(O)=O)[C@@H](O)1
CH$IUPAC: InChI=1S/C5H11O7P/c6-3-1-5(7)12-4(3)2-11-13(8,9)10/h3-7H,1-2H2,(H2,8,9,10)/t3-,4+,5?/m0/s1
CH$LINK: CHEBI CHEBI:16132
CH$LINK: KEGG C00673
CH$LINK: PUBCHEM CID:439288
CH$LINK: INCHIKEY KKZFLSZAWCYPOC-PYHARJCCSA-N
AC$INSTRUMENT: API3000, Applied Biosystems
AC$INSTRUMENT_TYPE: LC-ESI-QQ
AC$MASS_SPECTROMETRY: MS_TYPE MS2
AC$MASS_SPECTROMETRY: ION_MODE NEGATIVE
AC$MASS_SPECTROMETRY: COLLISION_ENERGY 20 V
MS$FOCUSED_ION: PRECURSOR_M/Z 213
MS$FOCUSED_ION: PRECURSOR_TYPE [M-H]-
PK$SPLASH: splash10-0002-9000000000-992773de4a03b21fa361
PK$NUM_PEAK: 15
PK$PEAK: m/z int. rel.int.
  58.600 24752.5 1
  59.100 99010.0 2
  79.000 7554463.0 141
  92.900 74257.5 1
  96.900 53505004.0 999
  131.400 54455.5 1
  150.800 39604.0 1
  153.100 14851.5 1
  164.800 64356.5 1
  168.900 59406.0 1
  169.400 188119.0 4
  176.900 306931.0 6
  185.500 59406.0 1
  195.100 1500001.5 28
  213.100 6183174.5 115
//
