ACCESSION: MSBNK-Keio_Univ-KO002061
RECORD_TITLE: L-Asparagine; LC-ESI-QQ; MS2; CE:40 V; [M+H]+
DATE: 2016.01.19 (Created 2007.07.07, modified 2011.05.10)
AUTHORS: Kakazu Y, Horai H, Institute for Advanced Biosciences, Keio Univ.
LICENSE: CC BY-NC-SA
COMMENT: KEIO_ID A016
CH$NAME: Asn
CH$NAME: 2-Aminosuccinamic acid
CH$NAME: L-Asparagine
CH$COMPOUND_CLASS: N/A
CH$FORMULA: C4H8N2O3
CH$EXACT_MASS: 132.05349
CH$SMILES: NC(=O)C[C@@H](N)C(O)=O
CH$IUPAC: InChI=1S/C4H8N2O3/c5-2(4(8)9)1-3(6)7/h2H,1,5H2,(H2,6,7)(H,8,9)/t2-/m0/s1
CH$LINK: CAS 70-47-3
CH$LINK: CHEBI CHEBI:17196
CH$LINK: CHEMPDB ASN
CH$LINK: KEGG C00152
CH$LINK: NIKKAJI J9.178B
CH$LINK: PUBCHEM SID:3452
CH$LINK: INCHIKEY DCXYFEDJOCDNAF-REOHCLBHSA-N
CH$LINK: COMPTOX DTXSID10883220
AC$INSTRUMENT: API3000, Applied Biosystems
AC$INSTRUMENT_TYPE: LC-ESI-QQ
AC$MASS_SPECTROMETRY: MS_TYPE MS2
AC$MASS_SPECTROMETRY: ION_MODE POSITIVE
AC$MASS_SPECTROMETRY: COLLISION_ENERGY 40 V
MS$FOCUSED_ION: PRECURSOR_M/Z 133
MS$FOCUSED_ION: PRECURSOR_TYPE [M+H]+
PK$SPLASH: splash10-00di-9000000000-fea0e8fe2daca327892e
PK$NUM_PEAK: 10
PK$PEAK: m/z int. rel.int.
  41.000 29703.0 26
  43.000 257426.0 229
  43.900 267327.0 238
  46.200 113861.5 101
  52.700 14851.5 13
  60.100 74257.5 66
  70.100 341584.5 304
  74.000 1123763.5 999
  117.900 19802.0 18
  154.700 19802.0 18
//
