ACCESSION: MSBNK-Keio_Univ-KO003010
RECORD_TITLE: N-Glycolylneuraminic acid; LC-ESI-QQ; MS2; CE:20 V; [M+H]+
DATE: 2016.01.19 (Created 2007.07.07, modified 2011.05.10)
AUTHORS: Kakazu Y, Horai H, Institute for Advanced Biosciences, Keio Univ.
LICENSE: CC BY-NC-SA
COMMENT: KEIO_ID G062
CH$NAME: N-Glycolylneuraminate
CH$NAME: N-Glycoloyl-neuraminate
CH$NAME: NeuNGc
CH$NAME: N-Glycolylneuraminic acid
CH$COMPOUND_CLASS: N/A
CH$FORMULA: C11H19NO10
CH$EXACT_MASS: 325.10090
CH$SMILES: OCC(=O)N[C@H]([C@@H](O)1)[C@H]([C@H](O)[C@H](O)CO)O[C@@](O)(C(O)=O)C1
CH$IUPAC: InChI=1S/C11H19NO10/c13-2-5(16)8(18)9-7(12-6(17)3-14)4(15)1-11(21,22-9)10(19)20/h4-5,7-9,13-16,18,21H,1-3H2,(H,12,17)(H,19,20)/t4-,5+,7+,8+,9+,11-/m0/s1
CH$LINK: KEGG C03410
CH$LINK: PUBCHEM CID:440001
CH$LINK: INCHIKEY FDJKUWYYUZCUJX-AJKRCSPLSA-N
AC$INSTRUMENT: API3000, Applied Biosystems
AC$INSTRUMENT_TYPE: LC-ESI-QQ
AC$MASS_SPECTROMETRY: MS_TYPE MS2
AC$MASS_SPECTROMETRY: ION_MODE POSITIVE
AC$MASS_SPECTROMETRY: COLLISION_ENERGY 20 V
MS$FOCUSED_ION: PRECURSOR_M/Z 326
MS$FOCUSED_ION: PRECURSOR_TYPE [M+H]+
PK$SPLASH: splash10-0udi-0930000000-e28be357d409e7f8cadb
PK$NUM_PEAK: 65
PK$PEAK: m/z int. rel.int.
  45.700 14851.5 9
  56.800 9901.0 6
  76.100 14851.5 9
  78.000 84158.5 51
  82.200 113861.5 69
  85.200 34653.5 21
  89.400 44554.5 27
  99.200 44554.5 27
  100.100 1648516.5 999
  102.800 39604.0 24
  103.800 14851.5 9
  105.300 103960.5 63
  110.300 24752.5 15
  115.200 29703.0 18
  117.100 163366.5 99
  120.600 74257.5 45
  121.200 29703.0 18
  122.100 168317.0 102
  123.400 54455.5 33
  129.300 34653.5 21
  131.000 54455.5 33
  131.700 24752.5 15
  135.000 123762.5 75
  140.800 19802.0 12
  142.800 19802.0 12
  143.200 14851.5 9
  149.300 34653.5 21
  150.500 19802.0 12
  151.500 24752.5 15
  154.000 39604.0 24
  163.100 19802.0 12
  165.000 14851.5 9
  167.000 94059.5 57
  175.200 123762.5 75
  177.700 14851.5 9
  179.100 153465.5 93
  183.400 178218.0 108
  185.300 99010.0 60
  188.000 34653.5 21
  189.300 29703.0 18
  193.100 39604.0 24
  196.300 44554.5 27
  197.400 118812.0 72
  197.900 24752.5 15
  204.000 14851.5 9
  214.200 39604.0 24
  214.400 24752.5 15
  215.200 64356.5 39
  221.200 19802.0 12
  232.200 84158.5 51
  236.900 24752.5 15
  241.000 39604.0 24
  248.100 89109.0 54
  249.400 44554.5 27
  251.000 14851.5 9
  254.100 34653.5 21
  259.100 49505.0 30
  272.200 118812.0 72
  273.600 29703.0 18
  277.700 396040.0 240
  290.600 420792.5 255
  291.700 113861.5 69
  309.300 188119.0 114
  309.800 24752.5 15
  326.400 153465.5 93
//
