ACCESSION: MSBNK-Keio_Univ-KO001369
RECORD_TITLE: Minoxidil; LC-ESI-QQ; MS2; CE:10 V; [M-H]-
DATE: 2016.01.19 (Created 2007.07.07, modified 2011.05.10)
AUTHORS: Kakazu Y, Horai H, Institute for Advanced Biosciences, Keio Univ.
LICENSE: CC BY-NC-SA
COMMENT: KEIO_ID M035
CH$NAME: Minoxidil
CH$COMPOUND_CLASS: N/A
CH$FORMULA: C9H15N5O
CH$EXACT_MASS: 209.12766
CH$SMILES: Nc(c1)n(=O)c(N)nc1N(C2)CCCC2
CH$IUPAC: InChI=1S/C9H15N5O/c10-7-6-8(12-9(11)14(7)15)13-4-2-1-3-5-13/h6H,1-5,10H2,(H2,11,12)
CH$LINK: KEGG C07226
CH$LINK: INCHIKEY ZFMITUMMTDLWHR-UHFFFAOYSA-N
CH$LINK: COMPTOX DTXSID9040685
AC$INSTRUMENT: API3000, Applied Biosystems
AC$INSTRUMENT_TYPE: LC-ESI-QQ
AC$MASS_SPECTROMETRY: MS_TYPE MS2
AC$MASS_SPECTROMETRY: ION_MODE NEGATIVE
AC$MASS_SPECTROMETRY: COLLISION_ENERGY 10 V
MS$FOCUSED_ION: PRECURSOR_M/Z 208
MS$FOCUSED_ION: PRECURSOR_TYPE [M-H]-
PK$SPLASH: splash10-0a4i-0090000000-674539ce0a58d8d1138e
PK$NUM_PEAK: 8
PK$PEAK: m/z int. rel.int.
  58.600 64356.5 8
  81.900 39604.0 5
  117.900 89109.0 11
  124.400 39604.0 5
  138.200 84158.5 11
  167.600 29703.0 4
  189.800 34653.5 4
  208.200 8000008.0 999
//
