ACCESSION: MSBNK-Keio_Univ-KO004183
RECORD_TITLE: Tryptophanamide; LC-ESI-QQ; MS2; CE:30 V; [M+H]+
DATE: 2016.01.19 (Created 2007.07.07, modified 2011.05.10)
AUTHORS: Kakazu Y, Horai H, Institute for Advanced Biosciences, Keio Univ.
LICENSE: CC BY-NC-SA
COMMENT: KEIO_ID T054
CH$NAME: Tryptophanamide
CH$NAME: L-Tryptophanamide
CH$COMPOUND_CLASS: N/A
CH$FORMULA: C11H13N3O
CH$EXACT_MASS: 203.10586
CH$SMILES: C1=CC=C2C(=C1)C(=CN2)C[C@@H](C(=O)N)N
CH$IUPAC: InChI=1S/C11H13N3O/c12-9(11(13)15)5-7-6-14-10-4-2-1-3-8(7)10/h1-4,6,9,14H,5,12H2,(H2,13,15)/t9-/m0/s1
CH$LINK: KEGG C00977
CH$LINK: PUBCHEM CID:439356
CH$LINK: INCHIKEY JLSKPBDKNIXMBS-VIFPVBQESA-N
AC$INSTRUMENT: API3000, Applied Biosystems
AC$INSTRUMENT_TYPE: LC-ESI-QQ
AC$MASS_SPECTROMETRY: MS_TYPE MS2
AC$MASS_SPECTROMETRY: ION_MODE POSITIVE
AC$MASS_SPECTROMETRY: COLLISION_ENERGY 30 V
MS$FOCUSED_ION: PRECURSOR_M/Z 204
MS$FOCUSED_ION: PRECURSOR_TYPE [M+H]+
PK$SPLASH: splash10-053u-0900000000-b48a776aacc284b4a776
PK$NUM_PEAK: 63
PK$PEAK: m/z int. rel.int.
  40.800 9901.0 1
  43.100 39604.0 1
  43.900 79208.0 2
  46.100 108911.0 3
  55.100 222772.5 7
  57.000 64356.5 2
  57.300 44554.5 1
  66.600 74257.5 2
  68.700 89109.0 3
  69.900 24752.5 1
  70.800 54455.5 2
  72.200 24752.5 1
  73.000 1148516.0 34
  74.800 49505.0 1
  79.800 24752.5 1
  81.100 118812.0 3
  82.800 19802.0 1
  84.700 89109.0 3
  86.300 24752.5 1
  91.000 108911.0 3
  91.800 29703.0 1
  93.200 113861.5 3
  95.400 19802.0 1
  96.200 9901.0 1
  98.000 242574.5 7
  98.700 212871.5 6
  102.900 74257.5 2
  104.100 34653.5 1
  105.000 143564.5 4
  105.700 59406.0 2
  107.300 44554.5 1
  108.700 34653.5 1
  109.100 99010.0 3
  113.200 871288.0 26
  114.000 143564.5 4
  115.300 2108913.0 62
  115.900 138614.0 4
  116.900 4594064.0 135
  118.000 3282181.5 97
  123.200 64356.5 2
  126.200 495050.0 15
  127.100 514852.0 15
  127.800 103960.5 3
  130.200 10648525.5 314
  132.100 33915875.5 999
  133.000 198020.0 6
  133.900 148515.0 4
  135.800 44554.5 1
  139.600 79208.0 2
  142.300 10742585.0 316
  143.300 1455447.0 43
  144.100 25094084.5 739
  145.200 11579219.5 341
  146.200 94059.5 3
  157.300 79208.0 2
  158.200 311881.5 9
  159.100 33920826.0 999
  160.200 584159.0 17
  169.300 301980.5 9
  170.100 5960402.0 176
  172.000 24752.5 1
  187.100 1292080.5 38
  204.400 44554.5 1
//
