ACCESSION: MSBNK-Keio_Univ-KO002329
RECORD_TITLE: L-Anserine; LC-ESI-QQ; MS2; CE:20 V; [M+H]+
DATE: 2016.01.19 (Created 2007.07.07, modified 2011.05.10)
AUTHORS: Kakazu Y, Horai H, Institute for Advanced Biosciences, Keio Univ.
LICENSE: CC BY-NC-SA
COMMENT: KEIO_ID A140
CH$NAME: Anserine
CH$NAME: beta-Alanyl-N(pi)-methyl-L-histidine
CH$NAME: L-Anserine
CH$COMPOUND_CLASS: N/A
CH$FORMULA: C10H16N4O3
CH$EXACT_MASS: 240.12224
CH$SMILES: NCCC(=O)N[C@H](C(O)=O)Cc(c1)n(C)cn1
CH$IUPAC: InChI=1S/C10H16N4O3/c1-14-6-12-5-7(14)4-8(10(16)17)13-9(15)2-3-11/h5-6,8H,2-4,11H2,1H3,(H,13,15)(H,16,17)/t8-/m0/s1
CH$LINK: CAS 584-85-0
CH$LINK: CHEBI CHEBI:18323
CH$LINK: KEGG C01262
CH$LINK: NIKKAJI J28.566H
CH$LINK: PUBCHEM CID:112072
CH$LINK: INCHIKEY MYYIAHXIVFADCU-QMMMGPOBSA-N
CH$LINK: COMPTOX DTXSID30973950
AC$INSTRUMENT: API3000, Applied Biosystems
AC$INSTRUMENT_TYPE: LC-ESI-QQ
AC$MASS_SPECTROMETRY: MS_TYPE MS2
AC$MASS_SPECTROMETRY: ION_MODE POSITIVE
AC$MASS_SPECTROMETRY: COLLISION_ENERGY 20 V
MS$FOCUSED_ION: PRECURSOR_M/Z 241
MS$FOCUSED_ION: PRECURSOR_TYPE [M+H]+
PK$SPLASH: splash10-0006-0690000000-65defef60d9fd6e60fe8
PK$NUM_PEAK: 73
PK$PEAK: m/z int. rel.int.
  58.800 89109.0 1
  67.800 39604.0 1
  71.100 34653.5 1
  71.800 371287.5 2
  83.200 381188.5 2
  84.300 94059.5 1
  85.000 39604.0 1
  89.200 1089110.0 5
  90.100 198020.0 1
  94.900 1836635.5 9
  96.000 1410892.5 7
  97.100 1455447.0 7
  99.000 138614.0 1
  100.600 59406.0 1
  102.000 108911.0 1
  104.200 79208.0 1
  105.100 54455.5 1
  107.100 19802.0 1
  108.100 39604.0 1
  109.100 37851523.0 181
  110.000 792080.0 4
  110.900 64356.5 1
  112.000 905941.5 4
  115.100 188119.0 1
  119.100 29703.0 1
  121.300 29703.0 1
  122.300 297030.0 1
  123.100 108911.0 1
  124.100 6836640.5 33
  124.900 168317.0 1
  126.100 14920807.0 71
  133.000 84158.5 1
  134.100 188119.0 1
  135.200 222772.5 1
  135.900 871288.0 4
  138.000 247525.0 1
  138.800 69307.0 1
  140.300 123762.5 1
  144.300 54455.5 1
  146.400 29703.0 1
  148.400 133663.5 1
  149.400 168317.0 1
  150.300 5173272.5 25
  151.100 356436.0 2
  152.200 549505.5 3
  153.200 9366346.0 45
  154.200 445545.0 2
  156.100 500000.5 2
  158.800 34653.5 1
  162.100 257426.0 1
  162.900 74257.5 1
  164.400 69307.0 1
  166.000 287129.0 1
  168.200 8643573.0 41
  170.400 45351530.5 216
  175.200 24752.5 1
  177.300 128713.0 1
  178.300 331683.5 2
  179.200 4202974.5 20
  180.100 6881195.0 33
  188.300 123762.5 1
  191.800 44554.5 1
  194.400 3004953.5 14
  195.200 361386.5 2
  197.500 17881206.0 85
  198.000 361386.5 2
  203.900 64356.5 1
  206.100 584159.0 3
  210.000 237624.0 1
  212.300 7712879.0 37
  223.400 1613863.0 8
  224.300 17272294.5 82
  241.300 209366546.0 999
//
