ACCESSION: MSBNK-Keio_Univ-KO004025
RECORD_TITLE: Sanguinarine; LC-ESI-QQ; MS2; CE:40 V; [M+H]+
DATE: 2016.01.19 (Created 2007.07.07, modified 2012.10.22)
AUTHORS: Kakazu Y, Horai H, Institute for Advanced Biosciences, Keio Univ.
LICENSE: CC BY-NC-SA
COMMENT: KEIO_ID S042
CH$NAME: Sanguinarine
CH$COMPOUND_CLASS: N/A
CH$FORMULA: [C20H14NO4]+
CH$EXACT_MASS: 332.09228
CH$SMILES: C[n+1](c1)c(c54)c(ccc(cc(O6)c(OC6)c5)4)c(c2)c1c(O3)c(OC3)c2
CH$IUPAC: InChI=1S/C20H14NO4/c1-21-8-15-12(4-5-16-20(15)25-10-22-16)13-3-2-11-6-17-18(24-9-23-17)7-14(11)19(13)21/h2-8H,9-10H2,1H3/q+1
CH$LINK: CAS 2447-54-3
CH$LINK: CHEBI CHEBI:17183
CH$LINK: KEGG C06162
CH$LINK: NIKKAJI J7.576K
CH$LINK: PUBCHEM SID:8418
CH$LINK: INCHIKEY INVGWHRKADIJHF-UHFFFAOYSA-N
CH$LINK: COMPTOX DTXSID0045204
AC$INSTRUMENT: API3000, Applied Biosystems
AC$INSTRUMENT_TYPE: LC-ESI-QQ
AC$MASS_SPECTROMETRY: MS_TYPE MS2
AC$MASS_SPECTROMETRY: ION_MODE POSITIVE
AC$MASS_SPECTROMETRY: COLLISION_ENERGY 40 V
MS$FOCUSED_ION: PRECURSOR_M/Z 333
MS$FOCUSED_ION: PRECURSOR_TYPE [M+H]+
PK$SPLASH: splash10-001i-0049000000-b15f0155462f7f9e3ab5
PK$NUM_PEAK: 63
PK$PEAK: m/z int. rel.int.
  56.900 34653.5 4
  69.000 168317.0 17
  73.300 34653.5 4
  75.100 34653.5 4
  80.800 153465.5 16
  90.800 14851.5 2
  92.800 84158.5 9
  98.400 14851.5 2
  102.300 44554.5 5
  105.400 24752.5 3
  107.100 59406.0 6
  109.100 24752.5 3
  111.500 39604.0 4
  121.200 247525.0 26
  130.800 39604.0 4
  135.300 44554.5 5
  139.200 133663.5 14
  150.000 64356.5 7
  201.500 19802.0 2
  204.100 29703.0 3
  205.300 44554.5 5
  206.400 19802.0 2
  207.400 69307.0 7
  215.100 24752.5 3
  216.400 148515.0 15
  217.300 39604.0 4
  218.400 301980.5 31
  228.200 64356.5 7
  230.400 19802.0 2
  231.200 39604.0 4
  233.400 79208.0 8
  244.400 569307.5 59
  245.300 69307.0 7
  246.400 1628714.5 169
  247.700 217822.0 23
  248.200 306931.0 32
  255.900 44554.5 5
  257.300 44554.5 5
  258.200 49505.0 5
  259.100 103960.5 11
  260.100 103960.5 11
  261.200 232673.5 24
  263.500 19802.0 2
  272.200 79208.0 8
  272.700 103960.5 11
  274.600 4391093.5 455
  275.400 480198.5 50
  276.700 584159.0 61
  286.300 49505.0 5
  287.000 79208.0 8
  289.300 534654.0 55
  290.500 99010.0 10
  300.900 14851.5 2
  302.000 118812.0 12
  302.600 1069308.0 111
  303.600 262376.5 27
  304.700 3900994.0 405
  314.300 49505.0 5
  316.500 212871.5 22
  317.400 3673271.0 381
  330.500 1346536.0 140
  331.700 89109.0 9
  332.600 9633673.0 999
//
