ACCESSION: MSBNK-Keio_Univ-KO001658
RECORD_TITLE: Prostaglandin F2a; LC-ESI-QQ; MS2; CE:30 V; [M-H]-
DATE: 2016.01.19 (Created 2007.07.07, modified 2012.10.22)
AUTHORS: Kakazu Y, Horai H, Institute for Advanced Biosciences, Keio Univ.
LICENSE: CC BY-NC-SA
COMMENT: KEIO_ID P066
CH$NAME: Prostaglandin F2a
CH$NAME: Dinoprost
CH$NAME: PGF2a
CH$NAME: (5Z,13E,15S)-9alpha,11alpha,15-Trihydroxyprosta-5,13-diene-1-oic acid
CH$NAME: 9a,11a-PGF2
CH$COMPOUND_CLASS: N/A
CH$FORMULA: C20H34O5
CH$EXACT_MASS: 354.24062
CH$SMILES: CCCCC[C@@H](/C=C/[C@H]1[C@@H](C[C@@H]([C@@H]1C/C=C\CCCC(=O)O)O)O)O
CH$IUPAC: InChI=1S/C20H34O5/c1-2-3-6-9-15(21)12-13-17-16(18(22)14-19(17)23)10-7-4-5-8-11-20(24)25/h4,7,12-13,15-19,21-23H,2-3,5-6,8-11,14H2,1H3,(H,24,25)/b7-4-,13-12+/t15-,16+,17+,18-,19+/m0/s1
CH$LINK: CAS 551-11-1
CH$LINK: CAYMAN 16010
CH$LINK: CHEBI CHEBI:15553
CH$LINK: COMPTOX DTXSID9022946
CH$LINK: INCHIKEY PXGPLTODNUVGFL-YNNPMVKQSA-N
CH$LINK: KEGG C00639
CH$LINK: LIPIDBANK XPR1501
CH$LINK: NIKKAJI J9.246K
CH$LINK: PUBCHEM CID:5280363
AC$INSTRUMENT: API3000, Applied Biosystems
AC$INSTRUMENT_TYPE: LC-ESI-QQ
AC$MASS_SPECTROMETRY: MS_TYPE MS2
AC$MASS_SPECTROMETRY: ION_MODE NEGATIVE
AC$MASS_SPECTROMETRY: COLLISION_ENERGY 30 V
MS$FOCUSED_ION: PRECURSOR_M/Z 353
MS$FOCUSED_ION: PRECURSOR_TYPE [M-H]-
PK$SPLASH: splash10-0pbc-0796000000-d5962a3a708504e86ccd
PK$NUM_PEAK: 85
PK$PEAK: m/z int. rel.int.
  43.200 232673.5 32
  59.400 79208.0 11
  69.300 24752.5 3
  71.200 113861.5 16
  83.100 153465.5 21
  95.400 99010.0 14
  96.800 678218.5 93
  99.200 198020.0 27
  107.200 39604.0 5
  108.100 54455.5 7
  109.400 188119.0 26
  111.100 945545.5 130
  113.300 435644.0 60
  119.200 183168.5 25
  119.800 24752.5 3
  121.200 74257.5 10
  122.900 178218.0 24
  125.000 232673.5 32
  127.300 39604.0 5
  129.200 128713.0 18
  132.600 19802.0 3
  135.200 232673.5 32
  137.300 361386.5 50
  139.300 79208.0 11
  145.100 49505.0 7
  147.100 133663.5 18
  147.600 64356.5 9
  148.700 24752.5 3
  149.100 34653.5 5
  151.000 34653.5 5
  153.000 34653.5 5
  159.400 14851.5 2
  163.100 113861.5 16
  165.500 1564358.0 215
  167.000 64356.5 9
  169.000 19802.0 3
  171.300 1460397.5 201
  173.100 623763.0 86
  175.200 39604.0 5
  175.500 39604.0 5
  177.100 54455.5 7
  179.400 183168.5 25
  180.400 59406.0 8
  181.300 702971.0 97
  183.600 143564.5 20
  185.300 173267.5 24
  187.300 34653.5 5
  189.400 34653.5 5
  190.100 29703.0 4
  191.100 1133664.5 156
  193.200 5262381.5 723
  195.100 34653.5 5
  197.300 19802.0 3
  199.600 39604.0 5
  201.500 123762.5 17
  203.000 49505.0 7
  207.400 89109.0 12
  209.200 1797031.5 247
  211.200 519802.5 71
  217.200 920793.0 127
  219.400 752476.0 103
  221.200 450495.5 62
  226.700 24752.5 3
  229.100 534654.0 73
  235.100 1148516.0 158
  237.100 202970.5 28
  245.700 84158.5 12
  247.400 3143567.5 432
  253.200 79208.0 11
  255.500 985149.5 135
  261.100 54455.5 7
  263.700 826733.5 114
  265.200 272277.5 37
  273.500 1688120.5 232
  279.500 29703.0 4
  279.800 14851.5 2
  281.300 445545.0 61
  289.300 188119.0 26
  291.300 3698023.5 508
  299.400 846535.5 116
  307.200 34653.5 5
  309.700 7267334.0 999
  317.500 737624.5 101
  335.600 678218.5 93
  353.700 5549510.5 763
//
