ACCESSION: MSBNK-Keio_Univ-KO002662
RECORD_TITLE: N,N-Dimethylglycine; LC-ESI-QQ; MS2; CE:10 V; [M+H]+
DATE: 2016.01.19 (Created 2007.07.07, modified 2011.05.10)
AUTHORS: Kakazu Y, Horai H, Institute for Advanced Biosciences, Keio Univ.
LICENSE: CC BY-NC-SA
COMMENT: KEIO_ID D036
CH$NAME: N,N-Dimethylglycine
CH$NAME: Dimethylglycine
CH$COMPOUND_CLASS: N/A
CH$FORMULA: C4H9NO2
CH$EXACT_MASS: 103.06333
CH$SMILES: CN(C)CC(O)=O
CH$IUPAC: InChI=1S/C4H9NO2/c1-5(2)3-4(6)7/h3H2,1-2H3,(H,6,7)
CH$LINK: CAS 1118-68-9
CH$LINK: CHEBI CHEBI:17724
CH$LINK: CHEMPDB DMG
CH$LINK: KEGG C01026
CH$LINK: NIKKAJI J135.420E
CH$LINK: PUBCHEM SID:4271
CH$LINK: INCHIKEY FFDGPVCHZBVARC-UHFFFAOYSA-N
CH$LINK: COMPTOX DTXSID6074336
AC$INSTRUMENT: API3000, Applied Biosystems
AC$INSTRUMENT_TYPE: LC-ESI-QQ
AC$MASS_SPECTROMETRY: MS_TYPE MS2
AC$MASS_SPECTROMETRY: ION_MODE POSITIVE
AC$MASS_SPECTROMETRY: COLLISION_ENERGY 10 V
MS$FOCUSED_ION: PRECURSOR_M/Z 104
MS$FOCUSED_ION: PRECURSOR_TYPE [M+H]+
PK$SPLASH: splash10-0udi-2900000000-39eb87f9d7bffb116792
PK$NUM_PEAK: 8
PK$PEAK: m/z int. rel.int.
  36.200 282178.5 2
  40.100 14851.5 1
  50.000 2816834.5 19
  58.100 7900998.0 54
  68.800 44554.5 1
  86.200 34138648.0 234
  87.200 475248.0 3
  104.000 146034799.5 999
//
