ACCESSION: MSBNK-Keio_Univ-KO002264
RECORD_TITLE: N1-Acetylspermine; LC-ESI-QQ; MS2; CE:20 V; [M+H]+
DATE: 2016.01.19 (Created 2007.07.07, modified 2011.05.10)
AUTHORS: Kakazu Y, Horai H, Institute for Advanced Biosciences, Keio Univ.
LICENSE: CC BY-NC-SA
COMMENT: KEIO_ID A111
CH$NAME: N1-Acetylspermine
CH$COMPOUND_CLASS: N/A
CH$FORMULA: C12H28N4O
CH$EXACT_MASS: 244.22631
CH$SMILES: NCCCNCCCCNCCCNC(C)=O
CH$IUPAC: InChI=1S/C12H28N4O/c1-12(17)16-11-5-10-15-8-3-2-7-14-9-4-6-13/h14-15H,2-11,13H2,1H3,(H,16,17)
CH$LINK: CAS 77928-70-2
CH$LINK: CHEBI CHEBI:17312
CH$LINK: KEGG C02567
CH$LINK: PUBCHEM SID:5564
CH$LINK: INCHIKEY GUNURVWAJRRUAV-UHFFFAOYSA-N
CH$LINK: COMPTOX DTXSID40180274
AC$INSTRUMENT: API3000, Applied Biosystems
AC$INSTRUMENT_TYPE: LC-ESI-QQ
AC$MASS_SPECTROMETRY: MS_TYPE MS2
AC$MASS_SPECTROMETRY: ION_MODE POSITIVE
AC$MASS_SPECTROMETRY: COLLISION_ENERGY 20 V
MS$FOCUSED_ION: PRECURSOR_M/Z 245
MS$FOCUSED_ION: PRECURSOR_TYPE [M+H]+
PK$SPLASH: splash10-00ba-0920000000-661cc70e5955c3a4423e
PK$NUM_PEAK: 55
PK$PEAK: m/z int. rel.int.
  54.900 9901.0 1
  58.100 118812.0 1
  69.000 356436.0 4
  72.000 831684.0 9
  82.400 103960.5 1
  83.400 59406.0 1
  84.200 1054456.5 12
  86.200 138614.0 2
  95.300 24752.5 1
  97.800 49505.0 1
  99.100 1341585.5 15
  100.000 27797057.5 310
  104.900 44554.5 1
  105.300 19802.0 1
  106.900 24752.5 1
  107.500 19802.0 1
  108.900 173267.5 2
  110.100 292079.5 3
  112.300 30995080.5 346
  113.900 183168.5 2
  117.000 64356.5 1
  118.200 292079.5 3
  119.900 128713.0 1
  121.000 301980.5 3
  123.200 44554.5 1
  127.000 1891091.0 21
  129.200 89534743.0 999
  130.300 113861.5 1
  135.200 34653.5 1
  136.000 99010.0 1
  142.300 366337.0 4
  146.300 123762.5 1
  148.400 24752.5 1
  150.600 54455.5 1
  152.900 54455.5 1
  153.900 59406.0 1
  160.200 925743.5 10
  163.100 544555.0 6
  171.200 57802038.0 645
  172.700 24752.5 1
  188.100 49505.0 1
  195.400 29703.0 1
  203.500 69307.0 1
  206.100 39604.0 1
  208.900 24752.5 1
  210.100 133663.5 1
  227.500 6485155.0 72
  228.300 316832.0 4
  245.500 49173316.5 549
  254.300 178218.0 2
  255.100 39604.0 1
  271.600 237624.0 3
  272.500 44554.5 1
  289.700 59406.0 1
  322.400 19802.0 1
//
