ACCESSION: MSBNK-Keio_Univ-KO000599
RECORD_TITLE: 3,5-Dinitrosalicylic acid; LC-ESI-QQ; MS2; CE:10 V; [M-H]-
DATE: 2016.01.19 (Created 2007.07.07, modified 2011.05.10)
AUTHORS: Kakazu Y, Horai H, Institute for Advanced Biosciences, Keio Univ.
LICENSE: CC BY-NC-SA
COMMENT: KEIO_ID D050
CH$NAME: 3,5-Dinitrosalicylate
CH$NAME: 3,5-Dinitrosalicylic acid
CH$COMPOUND_CLASS: N/A
CH$FORMULA: C7H4N2O7
CH$EXACT_MASS: 228.00185
CH$SMILES: OC(=O)c(c1)c(O)c([N+1]([O-1])=O)cc([N+1]([O-1])=O)1
CH$IUPAC: InChI=1S/C7H4N2O7/c10-6-4(7(11)12)1-3(8(13)14)2-5(6)9(15)16/h1-2,10H,(H,11,12)
CH$LINK: CAS 609-99-4
CH$LINK: KEGG C11319
CH$LINK: NIKKAJI J208.324H
CH$LINK: PUBCHEM CID:11873
CH$LINK: INCHIKEY LWFUFLREGJMOIZ-UHFFFAOYSA-N
CH$LINK: COMPTOX DTXSID9060576
AC$INSTRUMENT: API3000, Applied Biosystems
AC$INSTRUMENT_TYPE: LC-ESI-QQ
AC$MASS_SPECTROMETRY: MS_TYPE MS2
AC$MASS_SPECTROMETRY: ION_MODE NEGATIVE
AC$MASS_SPECTROMETRY: COLLISION_ENERGY 10 V
MS$FOCUSED_ION: PRECURSOR_M/Z 227
MS$FOCUSED_ION: PRECURSOR_TYPE [M-H]-
PK$SPLASH: splash10-004i-0090000000-7abf1aa7947d30588a92
PK$NUM_PEAK: 12
PK$PEAK: m/z int. rel.int.
  58.800 84158.5 1
  137.400 59406.0 1
  152.900 133663.5 1
  165.000 59406.0 1
  167.400 79208.0 1
  180.300 311881.5 1
  181.200 54455.5 1
  183.100 9901000.0 23
  193.100 39604.0 1
  226.400 1787130.5 4
  227.000 422163788.5 999
  227.500 67940662.0 161
//
