ACCESSION: MSBNK-Keio_Univ-KO002711
RECORD_TITLE: 2-Deoxystreptamine; LC-ESI-QQ; MS2; CE:10 V; [M+H]+
DATE: 2016.01.19 (Created 2007.07.07, modified 2011.05.10)
AUTHORS: Kakazu Y, Horai H, Institute for Advanced Biosciences, Keio Univ.
LICENSE: CC BY-NC-SA
COMMENT: KEIO_ID D061
CH$NAME: 2-Deoxystreptamine
CH$COMPOUND_CLASS: N/A
CH$FORMULA: C6H14N2O3
CH$EXACT_MASS: 162.10044
CH$SMILES: N[C@H](C1)[C@H](O)[C@@H](O)[C@H](O)[C@@H](N)1
CH$IUPAC: InChI=1S/C6H14N2O3/c7-2-1-3(8)5(10)6(11)4(2)9/h2-6,9-11H,1,7-8H2/t2-,3+,4+,5-,6-
CH$LINK: CAS 2037-48-1
CH$LINK: KEGG C02627
CH$LINK: PUBCHEM CID:203443
CH$LINK: INCHIKEY DTFAJAKTSMLKAT-JDCCYXBGSA-N
AC$INSTRUMENT: API3000, Applied Biosystems
AC$INSTRUMENT_TYPE: LC-ESI-QQ
AC$MASS_SPECTROMETRY: MS_TYPE MS2
AC$MASS_SPECTROMETRY: ION_MODE POSITIVE
AC$MASS_SPECTROMETRY: COLLISION_ENERGY 10 V
MS$FOCUSED_ION: PRECURSOR_M/Z 163
MS$FOCUSED_ION: PRECURSOR_TYPE [M+H]+
PK$SPLASH: splash10-0002-0900000000-2910d46e532b88ccb648
PK$NUM_PEAK: 35
PK$PEAK: m/z int. rel.int.
  40.600 19802.0 1
  54.000 19802.0 1
  55.300 188119.0 1
  59.200 435644.0 2
  60.600 9901.0 1
  62.800 29703.0 1
  67.100 89109.0 1
  70.500 44554.5 1
  71.200 14851.5 1
  72.800 826733.5 4
  77.000 188119.0 1
  81.100 297030.0 2
  84.100 19802.0 1
  85.100 79208.0 1
  89.100 39604.0 1
  90.700 99010.0 1
  91.000 183168.5 1
  99.000 643565.0 3
  101.500 34653.5 1
  103.200 44554.5 1
  103.800 24752.5 1
  104.300 49505.0 1
  107.100 54455.5 1
  109.400 84158.5 1
  110.200 64356.5 1
  113.200 287129.0 2
  114.000 440594.5 2
  117.900 128713.0 1
  127.100 1044555.5 6
  128.300 633664.0 3
  131.200 123762.5 1
  144.800 188119.0 1
  146.100 184257610.0 999
  163.200 11678229.5 63
  164.400 69307.0 1
//
