ACCESSION: MSBNK-Keio_Univ-KO003708
RECORD_TITLE: Piperidine; LC-ESI-QQ; MS2; CE:40 V; [M+H]+
DATE: 2016.01.19 (Created 2007.07.07, modified 2011.05.10)
AUTHORS: Kakazu Y, Horai H, Institute for Advanced Biosciences, Keio Univ.
LICENSE: CC BY-NC-SA
COMMENT: KEIO_ID P034
CH$NAME: Piperidine
CH$NAME: Azacyclohexane
CH$NAME: Hexahydropyridine
CH$COMPOUND_CLASS: N/A
CH$FORMULA: C5H11N
CH$EXACT_MASS: 85.08915
CH$SMILES: C(C1)CCNC1
CH$IUPAC: InChI=1S/C5H11N/c1-2-4-6-5-3-1/h6H,1-5H2
CH$LINK: CAS 110-89-4
CH$LINK: CHEBI CHEBI:18049
CH$LINK: KEGG C01746
CH$LINK: NIKKAJI J2.884C
CH$LINK: PUBCHEM CID:8082
CH$LINK: INCHIKEY NQRYJNQNLNOLGT-UHFFFAOYSA-N
CH$LINK: COMPTOX DTXSID6021165
AC$INSTRUMENT: API3000, Applied Biosystems
AC$INSTRUMENT_TYPE: LC-ESI-QQ
AC$MASS_SPECTROMETRY: MS_TYPE MS2
AC$MASS_SPECTROMETRY: ION_MODE POSITIVE
AC$MASS_SPECTROMETRY: COLLISION_ENERGY 40 V
MS$FOCUSED_ION: PRECURSOR_M/Z 86
MS$FOCUSED_ION: PRECURSOR_TYPE [M+H]+
PK$SPLASH: splash10-000f-9000000000-7936721ae1a323f2cd83
PK$NUM_PEAK: 11
PK$PEAK: m/z int. rel.int.
  30.300 366337.0 120
  39.100 930694.0 306
  41.100 3039607.0 999
  43.100 143564.5 47
  44.200 297030.0 98
  56.300 49505.0 16
  57.900 19802.0 7
  65.100 44554.5 15
  67.200 133663.5 44
  69.100 846535.5 278
  86.200 1549506.5 509
//
