ACCESSION: MSBNK-Keio_Univ-KO000396
RECORD_TITLE: L-Cysteine Sulfinic acid; LC-ESI-QQ; MS2; CE:10 V; [M-H]-
DATE: 2016.01.19 (Created 2007.07.07, modified 2011.05.10)
AUTHORS: Kakazu Y, Horai H, Institute for Advanced Biosciences, Keio Univ.
LICENSE: CC BY-NC-SA
COMMENT: KEIO_ID C015
CH$NAME: Cysteine sulfinate
CH$NAME: L-Cysteinesulfinic acid
CH$NAME: 3-Sulfinoalanine
CH$NAME: 3-Sulfino-L-alanine
CH$NAME: 3-Sulphino-L-alanine
CH$NAME: L-Cysteine Sulfinic acid
CH$COMPOUND_CLASS: N/A
CH$FORMULA: C3H7NO4S
CH$EXACT_MASS: 153.00958
CH$SMILES: N[C@H](C(O)=O)CS(O)=O
CH$IUPAC: InChI=1S/C3H7NO4S/c4-2(3(5)6)1-9(7)8/h2H,1,4H2,(H,5,6)(H,7,8)/t2-/m0/s1
CH$LINK: CAS 1115-65-7
CH$LINK: CHEBI CHEBI:16345
CH$LINK: KEGG C00606
CH$LINK: NIKKAJI J36.785K
CH$LINK: PUBCHEM CID:1549098
CH$LINK: INCHIKEY ADVPTQAUNPRNPO-REOHCLBHSA-N
CH$LINK: COMPTOX DTXSID20862546
AC$INSTRUMENT: API3000, Applied Biosystems
AC$INSTRUMENT_TYPE: LC-ESI-QQ
AC$MASS_SPECTROMETRY: MS_TYPE MS2
AC$MASS_SPECTROMETRY: ION_MODE NEGATIVE
AC$MASS_SPECTROMETRY: COLLISION_ENERGY 10 V
MS$FOCUSED_ION: PRECURSOR_M/Z 152
MS$FOCUSED_ION: PRECURSOR_TYPE [M-H]-
PK$SPLASH: splash10-0udi-2900000000-9b7727f6206fcc55e671
PK$NUM_PEAK: 9
PK$PEAK: m/z int. rel.int.
  35.000 54455.5 1
  59.200 301980.5 7
  59.800 94059.5 2
  64.800 14851.5 1
  88.200 11891101.0 266
  92.400 99010.0 2
  101.700 39604.0 1
  121.700 59406.0 1
  152.300 44608955.5 999
//
