ACCESSION: MSBNK-Keio_Univ-KO001529
RECORD_TITLE: 2-Oxoglutaric acid; LC-ESI-QQ; MS2; CE:20 V; [M-H]-
DATE: 2016.01.19 (Created 2007.07.07, modified 2011.05.10)
AUTHORS: Kakazu Y, Horai H, Institute for Advanced Biosciences, Keio Univ.
LICENSE: CC BY-NC-SA
COMMENT: KEIO_ID O002
CH$NAME: 2-Oxoglutarate
CH$NAME: 2-Ketoglutaric acid
CH$NAME: alpha-Ketoglutaric acid
CH$NAME: Oxoglutaric acid
CH$NAME: 2-Oxoglutaric acid
CH$COMPOUND_CLASS: N/A
CH$FORMULA: C5H6O5
CH$EXACT_MASS: 146.02152
CH$SMILES: OC(=O)CCC(=O)C(O)=O
CH$IUPAC: InChI=1S/C5H6O5/c6-3(5(9)10)1-2-4(7)8/h1-2H2,(H,7,8)(H,9,10)
CH$LINK: CAS 328-50-7
CH$LINK: CHEBI CHEBI:30915
CH$LINK: CHEMPDB AKG
CH$LINK: KEGG C00026
CH$LINK: NIKKAJI J11.847H
CH$LINK: PUBCHEM SID:3328
CH$LINK: INCHIKEY KPGXRSRHYNQIFN-UHFFFAOYSA-N
CH$LINK: COMPTOX DTXSID5033179
AC$INSTRUMENT: API3000, Applied Biosystems
AC$INSTRUMENT_TYPE: LC-ESI-QQ
AC$MASS_SPECTROMETRY: MS_TYPE MS2
AC$MASS_SPECTROMETRY: ION_MODE NEGATIVE
AC$MASS_SPECTROMETRY: COLLISION_ENERGY 20 V
MS$FOCUSED_ION: PRECURSOR_M/Z 145
MS$FOCUSED_ION: PRECURSOR_TYPE [M-H]-
PK$SPLASH: splash10-0zfr-6900000000-b6d8379db3e3f1480b14
PK$NUM_PEAK: 7
PK$PEAK: m/z int. rel.int.
  57.000 965347.5 552
  69.500 19802.0 11
  73.400 168317.0 96
  83.400 118812.0 68
  99.000 123762.5 71
  100.800 1747526.5 999
  144.600 217822.0 125
//
