ACCESSION: MSBNK-Keio_Univ-KO003913
RECORD_TITLE: Pendimethalin; LC-ESI-QQ; MS2; CE:20 V; [M+H]+
DATE: 2016.01.19 (Created 2007.07.07, modified 2011.05.10)
AUTHORS: Kakazu Y, Horai H, Institute for Advanced Biosciences, Keio Univ.
LICENSE: CC BY-NC-SA
COMMENT: KEIO_ID P183
CH$NAME: Prowl (TM)
CH$NAME: Pendimethalin
CH$COMPOUND_CLASS: N/A
CH$FORMULA: C13H19N3O4
CH$EXACT_MASS: 281.13756
CH$SMILES: CCC(CC)Nc(c([N+1]([O-1])=O)1)c([N+1]([O-1])=O)c(C)c(C)c1
CH$IUPAC: InChI=1S/C13H19N3O4/c1-5-10(6-2)14-12-11(15(17)18)7-8(3)9(4)13(12)16(19)20/h7,10,14H,5-6H2,1-4H3
CH$LINK: CAS 40487-42-1
CH$LINK: KEGG C11019
CH$LINK: NIKKAJI J1.892I
CH$LINK: PUBCHEM CID:38479
CH$LINK: INCHIKEY CHIFOSRWCNZCFN-UHFFFAOYSA-N
CH$LINK: COMPTOX DTXSID7024245
AC$INSTRUMENT: API3000, Applied Biosystems
AC$INSTRUMENT_TYPE: LC-ESI-QQ
AC$MASS_SPECTROMETRY: MS_TYPE MS2
AC$MASS_SPECTROMETRY: ION_MODE POSITIVE
AC$MASS_SPECTROMETRY: COLLISION_ENERGY 20 V
MS$FOCUSED_ION: PRECURSOR_M/Z 282
MS$FOCUSED_ION: PRECURSOR_TYPE [M+H]+
PK$SPLASH: splash10-03di-0190000000-6d9ee1ba64ccb451189d
PK$NUM_PEAK: 77
PK$PEAK: m/z int. rel.int.
  43.000 519802.5 4
  57.500 24752.5 1
  67.900 138614.0 1
  71.000 5698025.5 41
  73.000 29703.0 1
  76.200 316832.0 2
  78.000 400990.5 3
  79.800 361386.5 3
  81.100 108911.0 1
  82.500 44554.5 1
  84.900 212871.5 2
  91.200 519802.5 4
  92.100 44554.5 1
  92.900 148515.0 1
  94.100 84158.5 1
  95.300 54455.5 1
  97.000 29703.0 1
  103.200 257426.0 2
  105.200 118812.0 1
  106.000 94059.5 1
  106.800 272277.5 2
  108.100 356436.0 3
  109.300 69307.0 1
  114.100 64356.5 1
  115.000 84158.5 1
  117.200 94059.5 1
  118.100 2306933.0 16
  119.000 252475.5 2
  119.900 163366.5 1
  121.100 193069.5 1
  122.500 54455.5 1
  123.000 84158.5 1
  124.000 89109.0 1
  127.100 74257.5 1
  127.300 34653.5 1
  129.900 34653.5 1
  130.800 128713.0 1
  131.800 138614.0 1
  133.000 247525.0 2
  134.000 128713.0 1
  135.100 326733.0 2
  136.000 400990.5 3
  136.900 19802.0 1
  139.100 123762.5 1
  140.400 306931.0 2
  144.900 89109.0 1
  147.200 326733.0 2
  148.200 509901.5 4
  149.100 762377.0 5
  150.300 282178.5 2
  151.100 123762.5 1
  151.600 14851.5 1
  159.900 207921.0 1
  161.200 29703.0 1
  162.500 29703.0 1
  164.200 415842.0 3
  165.400 74257.5 1
  166.300 331683.5 2
  176.300 79208.0 1
  177.000 361386.5 3
  178.300 183168.5 1
  185.100 24752.5 1
  189.500 29703.0 1
  191.200 113861.5 1
  194.200 12405953.0 88
  195.400 1960398.0 14
  201.600 14851.5 1
  203.900 19802.0 1
  205.100 29703.0 1
  211.500 113861.5 1
  212.200 140178358.0 999
  218.400 14851.5 1
  219.600 39604.0 1
  230.200 158416.0 1
  236.500 29703.0 1
  245.900 14851.5 1
  282.300 495050.0 4
//
