ACCESSION: MSBNK-Keio_Univ-KO002479
RECORD_TITLE: Na-Benzenolarginine ethylester; LC-ESI-QQ; MS2; CE:20 V; [M+H]+
DATE: 2016.01.19 (Created 2007.07.07, modified 2011.05.10)
AUTHORS: Kakazu Y, Horai H, Institute for Advanced Biosciences, Keio Univ.
LICENSE: CC BY-NC-SA
COMMENT: KEIO_ID B026
CH$NAME: Na-Benzenolarginine ethylester
CH$NAME: Bz-Arg-OEt
CH$COMPOUND_CLASS: N/A
CH$FORMULA: C15H22N4O3
CH$EXACT_MASS: 306.16919
CH$SMILES: CCOC(=O)C(CCCNC(N)=N)NC(=O)c(c1)cccc1
CH$IUPAC: InChI=1S/C15H22N4O3/c1-2-22-14(21)12(9-6-10-18-15(16)17)19-13(20)11-7-4-3-5-8-11/h3-5,7-8,12H,2,6,9-10H2,1H3,(H,19,20)(H4,16,17,18)
CH$LINK: KEGG C01670
CH$LINK: PUBCHEM CID:439543
CH$LINK: INCHIKEY YQDHCCVUYCIGSW-UHFFFAOYSA-N
AC$INSTRUMENT: API3000, Applied Biosystems
AC$INSTRUMENT_TYPE: LC-ESI-QQ
AC$MASS_SPECTROMETRY: MS_TYPE MS2
AC$MASS_SPECTROMETRY: ION_MODE POSITIVE
AC$MASS_SPECTROMETRY: COLLISION_ENERGY 20 V
MS$FOCUSED_ION: PRECURSOR_M/Z 307
MS$FOCUSED_ION: PRECURSOR_TYPE [M+H]+
PK$SPLASH: splash10-0a4i-0039000000-7f46a55cb0158b7b061e
PK$NUM_PEAK: 79
PK$PEAK: m/z int. rel.int.
  69.900 202970.5 1
  70.800 74257.5 1
  73.200 19802.0 1
  77.000 34653.5 1
  77.300 14851.5 1
  95.200 514852.0 1
  96.900 89109.0 1
  98.000 465347.0 1
  105.000 5995055.5 10
  106.900 14851.5 1
  112.100 1247526.0 2
  113.300 2103962.5 3
  114.200 579208.5 1
  115.300 64356.5 1
  116.200 59406.0 1
  117.500 59406.0 1
  121.200 29703.0 1
  122.200 2821785.0 5
  123.400 212871.5 1
  123.900 84158.5 1
  125.800 99010.0 1
  127.200 123762.5 1
  130.100 128713.0 1
  138.300 29703.0 1
  141.000 455446.0 1
  141.900 2227725.0 4
  142.700 44554.5 1
  144.100 2064358.5 3
  145.100 282178.5 1
  149.900 158416.0 1
  157.400 84158.5 1
  158.300 99010.0 1
  158.800 113861.5 1
  160.400 44554.5 1
  164.400 143564.5 1
  169.200 252475.5 1
  169.900 905941.5 1
  172.900 74257.5 1
  173.400 331683.5 1
  174.300 3589112.5 6
  175.300 39604.0 1
  178.300 2990102.0 5
  184.300 217822.0 1
  186.200 396040.0 1
  187.100 9000009.0 15
  191.400 24752.5 1
  192.300 430693.5 1
  195.000 14851.5 1
  199.000 99010.0 1
  200.300 153465.5 1
  201.300 3965350.5 7
  202.300 2683171.0 4
  206.400 19802.0 1
  211.100 44554.5 1
  216.400 3376241.0 6
  219.300 9737633.5 16
  220.300 1935645.5 3
  226.100 24752.5 1
  227.500 331683.5 1
  229.100 14851.5 1
  230.300 148515.0 1
  233.200 287129.0 1
  244.300 9836643.5 16
  245.500 69307.0 1
  247.500 37455483.0 62
  248.500 54262430.5 89
  251.800 14851.5 1
  261.300 4564361.0 7
  262.400 2044556.5 3
  265.500 3782182.0 6
  269.400 138614.0 1
  271.300 24752.5 1
  272.400 306931.0 1
  273.500 13178231.0 22
  279.500 2500002.5 4
  290.400 82158498.0 135
  306.900 1034654.5 2
  307.600 608134271.5 999
  308.400 49505.0 1
//
