ACCESSION: MSBNK-Keio_Univ-KO002116
RECORD_TITLE: 2-Aminobenzimidazole; LC-ESI-QQ; MS2; CE:40 V; [M+H]+
DATE: 2016.01.19 (Created 2007.07.07, modified 2011.05.10)
AUTHORS: Kakazu Y, Horai H, Institute for Advanced Biosciences, Keio Univ.
LICENSE: CC BY-NC-SA
COMMENT: KEIO_ID A042
CH$NAME: 2-Aminobenzimidazole
CH$COMPOUND_CLASS: N/A
CH$FORMULA: C7H7N3
CH$EXACT_MASS: 133.06400
CH$SMILES: C1=CC=C2C(=C1)NC(=N2)N
CH$IUPAC: InChI=1S/C7H7N3/c8-7-9-5-3-1-2-4-6(5)10-7/h1-4H,(H3,8,9,10)
CH$LINK: CAS 934-32-7
CH$LINK: KEGG C10901
CH$LINK: NIKKAJI J3.655B
CH$LINK: PUBCHEM CID:13624
CH$LINK: INCHIKEY JWYUFVNJZUSCSM-UHFFFAOYSA-N
CH$LINK: COMPTOX DTXSID1024465
AC$INSTRUMENT: API3000, Applied Biosystems
AC$INSTRUMENT_TYPE: LC-ESI-QQ
AC$MASS_SPECTROMETRY: MS_TYPE MS2
AC$MASS_SPECTROMETRY: ION_MODE POSITIVE
AC$MASS_SPECTROMETRY: COLLISION_ENERGY 40 V
MS$FOCUSED_ION: PRECURSOR_M/Z 134
MS$FOCUSED_ION: PRECURSOR_TYPE [M+H]+
PK$SPLASH: splash10-00kf-9100000000-f60ffa670aee80bb9085
PK$NUM_PEAK: 48
PK$PEAK: m/z int. rel.int.
  39.200 163366.5 3
  41.000 54455.5 1
  42.300 74257.5 1
  43.100 287129.0 4
  44.100 232673.5 4
  45.100 54455.5 1
  53.100 202970.5 3
  56.100 1113862.5 17
  57.200 1074258.5 16
  58.100 435644.0 7
  58.900 89109.0 1
  60.100 133663.5 2
  61.000 54455.5 1
  61.400 39604.0 1
  63.300 99010.0 2
  65.100 64178282.0 984
  65.900 1391090.5 21
  67.000 178218.0 3
  69.800 638614.5 10
  70.800 59406.0 1
  73.500 108911.0 2
  74.200 14851.5 1
  76.100 188119.0 3
  77.100 118812.0 2
  78.000 217822.0 3
  79.200 351485.5 5
  80.000 17643582.0 271
  84.300 24752.5 1
  85.200 29703.0 1
  88.100 272277.5 4
  90.200 2044556.5 31
  92.100 65133728.5 999
  93.100 16435660.0 252
  98.900 19802.0 1
  105.000 405941.0 6
  106.300 569307.5 9
  107.200 9707930.5 149
  108.200 84158.5 1
  110.000 108911.0 2
  115.700 54455.5 1
  117.000 2470299.5 38
  118.200 282178.5 4
  124.900 29703.0 1
  131.900 94059.5 1
  132.700 455446.0 7
  133.000 2079210.0 32
  134.200 15886154.5 244
  135.100 143564.5 2
//
