ACCESSION: MSBNK-Keio_Univ-KO001090
RECORD_TITLE: 5-Hydroxylysine; LC-ESI-QQ; MS2; CE:50 V; [M-H]-
DATE: 2016.01.19 (Created 2007.07.07, modified 2011.05.10)
AUTHORS: Kakazu Y, Horai H, Institute for Advanced Biosciences, Keio Univ.
LICENSE: CC BY-NC-SA
COMMENT: KEIO_ID H064
CH$NAME: 5-Hydroxylysine
CH$NAME: Procollagen 5-hydroxy-L-lysine
CH$NAME: 5-Hydroxy-L-lysine
CH$NAME: Procollagen L-erythro-5-hydroxy-L-lysine
CH$COMPOUND_CLASS: N/A
CH$FORMULA: C6H14N2O3
CH$EXACT_MASS: 162.10044
CH$SMILES: C(C[C@@H](C(=O)O)N)[C@H](CN)O
CH$IUPAC: InChI=1S/C6H14N2O3/c7-3-4(9)1-2-5(8)6(10)11/h4-5,9H,1-3,7-8H2,(H,10,11)/t4-,5+/m1/s1
CH$LINK: CAS 1190-94-9
CH$LINK: CHEBI CHEBI:18040
CH$LINK: KEGG C01211
CH$LINK: NIKKAJI J38.540I
CH$LINK: PUBCHEM CID:3032849
CH$LINK: INCHIKEY YSMODUONRAFBET-UHNVWZDZSA-N
AC$INSTRUMENT: API3000, Applied Biosystems
AC$INSTRUMENT_TYPE: LC-ESI-QQ
AC$MASS_SPECTROMETRY: MS_TYPE MS2
AC$MASS_SPECTROMETRY: ION_MODE NEGATIVE
AC$MASS_SPECTROMETRY: COLLISION_ENERGY 50 V
MS$FOCUSED_ION: PRECURSOR_M/Z 161
MS$FOCUSED_ION: PRECURSOR_TYPE [M-H]-
PK$SPLASH: splash10-002f-9000000000-f92360367bdf60118708
PK$NUM_PEAK: 2
PK$PEAK: m/z int. rel.int.
  44.700 29703.0 999
  79.000 24752.5 833
//
