ACCESSION: MSBNK-Keio_Univ-KO000240
RECORD_TITLE: N-Acetyl-D-glucosamine 6-phosphate; LC-ESI-QQ; MS2; CE:30 V; [M-H]-
DATE: 2016.01.19 (Created 2007.07.07, modified 2011.05.10)
AUTHORS: Kakazu Y, Horai H, Institute for Advanced Biosciences, Keio Univ.
LICENSE: CC BY-NC-SA
COMMENT: KEIO_ID A144
CH$NAME: N-Acetylglucosamine 6-phosphate
CH$NAME: N-Acetyl-D-glucosamine 6-phosphate
CH$COMPOUND_CLASS: N/A
CH$FORMULA: C8H16NO9P
CH$EXACT_MASS: 301.05627
CH$SMILES: CC(=O)NC(C(O)1)C(O)C(O)C(O1)COP(O)(O)=O
CH$IUPAC: InChI=1S/C8H16NO9P/c1-3(10)9-5-7(12)6(11)4(18-8(5)13)2-17-19(14,15)16/h4-8,11-13H,2H2,1H3,(H,9,10)(H2,14,15,16)/t4-,5-,6-,7-,8?/m1/s1
CH$LINK: CHEBI CHEBI:15784
CH$LINK: KEGG C00357
CH$LINK: PUBCHEM CID:440996
CH$LINK: INCHIKEY BRGMHAYQAZFZDJ-RTRLPJTCSA-N
AC$INSTRUMENT: API3000, Applied Biosystems
AC$INSTRUMENT_TYPE: LC-ESI-QQ
AC$MASS_SPECTROMETRY: MS_TYPE MS2
AC$MASS_SPECTROMETRY: ION_MODE NEGATIVE
AC$MASS_SPECTROMETRY: COLLISION_ENERGY 30 V
MS$FOCUSED_ION: PRECURSOR_M/Z 300
MS$FOCUSED_ION: PRECURSOR_TYPE [M-H]-
PK$SPLASH: splash10-0002-9000000000-e7ac8ef113fa566a7265
PK$NUM_PEAK: 8
PK$PEAK: m/z int. rel.int.
  59.700 9901.0 4
  78.700 212871.5 93
  82.900 24752.5 11
  96.900 2297032.0 999
  99.800 39604.0 17
  138.900 193069.5 84
  199.200 74257.5 32
  282.500 29703.0 13
//
