ACCESSION: MSBNK-Keio_Univ-KO000947
RECORD_TITLE: 2-Guanidinobenzimidazole; LC-ESI-QQ; MS2; CE:50 V; [M-H]-
DATE: 2016.01.19 (Created 2007.07.07, modified 2011.05.10)
AUTHORS: Kakazu Y, Horai H, Institute for Advanced Biosciences, Keio Univ.
LICENSE: CC BY-NC-SA
COMMENT: KEIO_ID G101
CH$NAME: 2-Guanidinobenzimidazole
CH$NAME: 2-Benzimidazolylguanidine
CH$COMPOUND_CLASS: N/A
CH$FORMULA: C8H9N5
CH$EXACT_MASS: 175.08580
CH$SMILES: C1=CC=C2C(=C1)NC(=N2)N=C(N)N
CH$IUPAC: InChI=1S/C8H9N5/c9-7(10)13-8-11-5-3-1-2-4-6(5)12-8/h1-4H,(H5,9,10,11,12,13)
CH$LINK: CAS 5418-95-1
CH$LINK: KEGG C10898
CH$LINK: NIKKAJI J217.997K
CH$LINK: PUBCHEM CID:36149
CH$LINK: INCHIKEY JJWCTKUQWXYIIU-UHFFFAOYSA-N
CH$LINK: COMPTOX DTXSID6063858
AC$INSTRUMENT: API3000, Applied Biosystems
AC$INSTRUMENT_TYPE: LC-ESI-QQ
AC$MASS_SPECTROMETRY: MS_TYPE MS2
AC$MASS_SPECTROMETRY: ION_MODE NEGATIVE
AC$MASS_SPECTROMETRY: COLLISION_ENERGY 50 V
MS$FOCUSED_ION: PRECURSOR_M/Z 174
MS$FOCUSED_ION: PRECURSOR_TYPE [M-H]-
PK$SPLASH: splash10-001i-2900000000-d790f686c0dda20e10b5
PK$NUM_PEAK: 7
PK$PEAK: m/z int. rel.int.
  26.100 113861.5 9
  40.500 103960.5 8
  41.200 3292082.5 262
  65.800 49505.0 4
  115.400 59406.0 5
  131.000 1029704.0 82
  131.900 12529715.5 999
//
