ACCESSION: MSBNK-Keio_Univ-KO004009
RECORD_TITLE: Semicarbazide; LC-ESI-QQ; MS2; CE:30 V; [M+H]+
DATE: 2016.01.19 (Created 2007.07.07, modified 2011.05.10)
AUTHORS: Kakazu Y, Horai H, Institute for Advanced Biosciences, Keio Univ.
LICENSE: CC BY-NC-SA
COMMENT: KEIO_ID S034
CH$NAME: Semicarbazide
CH$NAME: Carbamoylhydrazine
CH$NAME: Aminourea
CH$NAME: Hydrazinecarboxamide
CH$COMPOUND_CLASS: N/A
CH$FORMULA: CH5N3O
CH$EXACT_MASS: 75.04326
CH$SMILES: NC(=O)NN
CH$IUPAC: InChI=1S/CH5N3O/c2-1(5)4-3/h3H2,(H3,2,4,5)
CH$LINK: CAS 57-56-7
CH$LINK: KEGG C02077
CH$LINK: NIKKAJI J4.582I
CH$LINK: PUBCHEM CID:5196
CH$LINK: INCHIKEY DUIOPKIIICUYRZ-UHFFFAOYSA-N
CH$LINK: COMPTOX DTXSID7043823
AC$INSTRUMENT: API3000, Applied Biosystems
AC$INSTRUMENT_TYPE: LC-ESI-QQ
AC$MASS_SPECTROMETRY: MS_TYPE MS2
AC$MASS_SPECTROMETRY: ION_MODE POSITIVE
AC$MASS_SPECTROMETRY: COLLISION_ENERGY 30 V
MS$FOCUSED_ION: PRECURSOR_M/Z 76
MS$FOCUSED_ION: PRECURSOR_TYPE [M+H]+
PK$SPLASH: splash10-0c0u-9000000000-8f8f49b481ade342247e
PK$NUM_PEAK: 10
PK$PEAK: m/z int. rel.int.
  14.300 79208.0 727
  20.800 54455.5 500
  26.600 44554.5 409
  33.400 49505.0 454
  40.200 29703.0 272
  43.700 44554.5 409
  46.500 29703.0 272
  59.700 108911.0 999
  85.800 29703.0 272
  131.900 44554.5 409
//
