ACCESSION: MSBNK-Keio_Univ-KO001106
RECORD_TITLE: trans-4-Hydroxy-3-methoxycinnamate; LC-ESI-QQ; MS2; CE:10 V; [M-H]-
DATE: 2016.01.19 (Created 2007.07.07, modified 2012.10.22)
AUTHORS: Kakazu Y, Horai H, Institute for Advanced Biosciences, Keio Univ.
LICENSE: CC BY-NC-SA
COMMENT: KEIO_ID H074
CH$NAME: trans-4-Hydroxy-3-methoxycinnamate
CH$NAME: Ferulate
CH$NAME: 3-Methoxy-4-hydroxy-trans-cinnamate
CH$NAME: 4-Hydroxy-3-methoxycinnamic acid
CH$NAME: Ferulic acid
CH$COMPOUND_CLASS: N/A
CH$FORMULA: C10H10O4
CH$EXACT_MASS: 194.05791
CH$SMILES: COc(c1)c(O)ccc(C=CC(O)=O)1
CH$IUPAC: InChI=1S/C10H10O4/c1-14-9-6-7(2-4-8(9)11)3-5-10(12)13/h2-6,11H,1H3,(H,12,13)/b5-3+
CH$LINK: CAS 1135-24-6
CH$LINK: CHEBI CHEBI:17620
CH$LINK: KEGG C01494
CH$LINK: NIKKAJI J7.273G
CH$LINK: PUBCHEM CID:445858
CH$LINK: INCHIKEY KSEBMYQBYZTDHS-HWKANZROSA-N
CH$LINK: COMPTOX DTXSID70892035
AC$INSTRUMENT: API3000, Applied Biosystems
AC$INSTRUMENT_TYPE: LC-ESI-QQ
AC$MASS_SPECTROMETRY: MS_TYPE MS2
AC$MASS_SPECTROMETRY: ION_MODE NEGATIVE
AC$MASS_SPECTROMETRY: COLLISION_ENERGY 10 V
MS$FOCUSED_ION: PRECURSOR_M/Z 193
MS$FOCUSED_ION: PRECURSOR_TYPE [M-H]-
PK$SPLASH: splash10-0006-0900000000-c173873ef0d975be6c34
PK$NUM_PEAK: 16
PK$PEAK: m/z int. rel.int.
  46.200 44554.5 1
  59.200 752476.0 21
  94.900 193069.5 5
  96.800 970298.0 27
  101.200 24752.5 1
  116.900 64356.5 2
  118.700 49505.0 1
  129.400 44554.5 1
  132.800 39604.0 1
  134.000 1143565.5 31
  146.000 584159.0 16
  146.900 49505.0 1
  149.300 1133664.5 31
  156.800 29703.0 1
  178.400 702971.0 19
  193.400 36361422.5 999
//
