ACCESSION: MSBNK-Keio_Univ-KO000043
RECORD_TITLE: Acetate; LC-ESI-QQ; MS2; CE:20 V; [M-H]-
DATE: 2016.01.19 (Created 2007.07.07, modified 2011.05.10)
AUTHORS: Kakazu Y, Horai H, Institute for Advanced Biosciences, Keio Univ.
LICENSE: CC BY-NC-SA
COMMENT: KEIO_ID A029
CH$NAME: Acetate
CH$NAME: Glacial acetic acid
CH$NAME: Ethanoic acid
CH$NAME: Acetic acid
CH$COMPOUND_CLASS: N/A
CH$FORMULA: C2H4O2
CH$EXACT_MASS: 60.02113
CH$SMILES: CC(O)=O
CH$IUPAC: InChI=1S/C2H4O2/c1-2(3)4/h1H3,(H,3,4)
CH$LINK: CAS 64-19-7
CH$LINK: CHEBI CHEBI:30089
CH$LINK: CHEMPDB ACT
CH$LINK: KEGG C00033
CH$LINK: NIKKAJI J2.355H
CH$LINK: PUBCHEM SID:3335
CH$LINK: INCHIKEY QTBSBXVTEAMEQO-UHFFFAOYSA-N
CH$LINK: COMPTOX DTXSID5024394
AC$INSTRUMENT: API3000, Applied Biosystems
AC$INSTRUMENT_TYPE: LC-ESI-QQ
AC$MASS_SPECTROMETRY: MS_TYPE MS2
AC$MASS_SPECTROMETRY: ION_MODE NEGATIVE
AC$MASS_SPECTROMETRY: COLLISION_ENERGY 20 V
MS$FOCUSED_ION: PRECURSOR_M/Z 59
MS$FOCUSED_ION: PRECURSOR_TYPE [M-H]-
PK$SPLASH: splash10-0a4i-9000000000-42ec023f024176a1c692
PK$NUM_PEAK: 6
PK$PEAK: m/z int. rel.int.
  32.200 351485.5 1
  41.100 247525.0 1
  56.900 44554.5 1
  57.800 173267.5 1
  59.100 236866573.5 999
  60.600 9901.0 1
//
