ACCESSION: MSBNK-Keio_Univ-KO002728
RECORD_TITLE: 2'-Deoxyadenosine; LC-ESI-QQ; MS2; CE:30 V; [M+H]+
DATE: 2016.01.19 (Created 2007.07.07, modified 2011.05.10)
AUTHORS: Kakazu Y, Horai H, Institute for Advanced Biosciences, Keio Univ.
LICENSE: CC BY-NC-SA
COMMENT: KEIO_ID D069
CH$NAME: 2'-Deoxyadenosine
CH$NAME: Deoxyadenosine
CH$COMPOUND_CLASS: Natural Product
CH$FORMULA: C10H13N5O3
CH$EXACT_MASS: 251.10184
CH$SMILES: OC[C@@H](O1)[C@@H](O)C[C@@H]1n(c3)c(n2)c(n3)c(N)nc2
CH$IUPAC: InChI=1S/C10H13N5O3/c11-9-8-10(13-3-12-9)15(4-14-8)7-1-5(17)6(2-16)18-7/h3-7,16-17H,1-2H2,(H2,11,12,13)/t5-,6+,7+/m0/s1
CH$LINK: CAS 958-09-8
CH$LINK: CHEBI CHEBI:17256
CH$LINK: KEGG C00559
CH$LINK: NIKKAJI J80.042B
CH$LINK: PUBCHEM CID:13730
CH$LINK: INCHIKEY OLXZPDWKRNYJJZ-RRKCRQDMSA-N
CH$LINK: COMPTOX DTXSID10883624
AC$INSTRUMENT: API3000, Applied Biosystems
AC$INSTRUMENT_TYPE: LC-ESI-QQ
AC$MASS_SPECTROMETRY: MS_TYPE MS2
AC$MASS_SPECTROMETRY: ION_MODE POSITIVE
AC$MASS_SPECTROMETRY: COLLISION_ENERGY 30 V
MS$FOCUSED_ION: PRECURSOR_M/Z 252
MS$FOCUSED_ION: PRECURSOR_TYPE [M+H]+
PK$SPLASH: splash10-000i-2900000000-1b8d5c847c2b1955056e
PK$NUM_PEAK: 51
PK$PEAK: m/z int. rel.int.
  36.000 173267.5 8
  42.800 143564.5 7
  55.400 49505.0 2
  57.300 1470298.5 68
  59.300 99010.0 5
  60.800 19802.0 1
  68.800 480198.5 22
  71.000 2207923.0 102
  72.800 683169.0 32
  76.200 29703.0 1
  77.400 34653.5 2
  79.100 2831686.0 131
  80.900 193069.5 9
  83.400 306931.0 14
  85.300 44554.5 2
  87.300 19802.0 1
  88.900 94059.5 4
  91.000 89109.0 4
  93.200 29703.0 1
  95.000 118812.0 6
  97.000 39604.0 2
  99.100 836634.5 39
  100.200 569307.5 26
  101.100 633664.0 29
  102.400 19802.0 1
  105.100 1039605.0 48
  107.000 59406.0 3
  109.200 108911.0 5
  111.200 267327.0 12
  112.900 49505.0 2
  117.000 995050.5 46
  119.400 173267.5 8
  121.000 54455.5 3
  122.500 54455.5 3
  123.200 4371291.5 203
  128.900 64356.5 3
  130.200 1371288.5 64
  133.200 49505.0 2
  136.200 21529724.5 999
  150.900 9901.0 1
  158.000 69307.0 3
  161.100 49505.0 2
  163.000 14851.5 1
  166.300 252475.5 12
  175.200 227723.0 11
  179.200 222772.5 10
  189.000 64356.5 3
  191.200 14851.5 1
  207.100 24752.5 1
  217.500 74257.5 3
  235.300 435644.0 20
//
