ACCESSION: MSBNK-Keio_Univ-KO000848
RECORD_TITLE: L-Glutamic acid; LC-ESI-QQ; MS2; CE:10 V; [M-H]-
DATE: 2016.01.19 (Created 2007.07.07, modified 2011.05.10)
AUTHORS: Kakazu Y, Horai H, Institute for Advanced Biosciences, Keio Univ.
LICENSE: CC BY-NC-SA
COMMENT: KEIO_ID G019
CH$NAME: L-Glu
CH$NAME: L-Glutamic acid
CH$NAME: L-Glutamate
CH$NAME: L-Glutaminic acid
CH$COMPOUND_CLASS: N/A
CH$FORMULA: C5H9NO4
CH$EXACT_MASS: 147.05316
CH$SMILES: OC(=O)CC[C@H](N)C(O)=O
CH$IUPAC: InChI=1S/C5H9NO4/c6-3(5(9)10)1-2-4(7)8/h3H,1-2,6H2,(H,7,8)(H,9,10)/t3-/m0/s1
CH$LINK: CAS 56-86-0
CH$LINK: CHEBI CHEBI:16015
CH$LINK: CHEMPDB GLU
CH$LINK: KEGG C00025
CH$LINK: NIKKAJI J9.171E
CH$LINK: PUBCHEM CID:33032
CH$LINK: INCHIKEY WHUUTDBJXJRKMK-VKHMYHEASA-N
CH$LINK: COMPTOX DTXSID5020659
AC$INSTRUMENT: API3000, Applied Biosystems
AC$INSTRUMENT_TYPE: LC-ESI-QQ
AC$MASS_SPECTROMETRY: MS_TYPE MS2
AC$MASS_SPECTROMETRY: ION_MODE NEGATIVE
AC$MASS_SPECTROMETRY: COLLISION_ENERGY 10 V
MS$FOCUSED_ION: PRECURSOR_M/Z 146
MS$FOCUSED_ION: PRECURSOR_TYPE [M-H]-
PK$SPLASH: splash10-0002-0900000000-b548959edce39d319cf4
PK$NUM_PEAK: 8
PK$PEAK: m/z int. rel.int.
  72.700 29703.0 1
  73.800 19802.0 1
  85.200 19802.0 1
  85.800 19802.0 1
  102.000 2618814.5 40
  123.900 9901.0 1
  127.900 6297036.0 97
  146.100 65173332.5 999
//
