ACCESSION: MSBNK-Keio_Univ-KO003423
RECORD_TITLE: Methotrexate; LC-ESI-QQ; MS2; CE:20 V; [M+H]+
DATE: 2016.01.19 (Created 2007.07.07, modified 2012.05.21)
AUTHORS: Kakazu Y, Horai H, Institute for Advanced Biosciences, Keio Univ.
LICENSE: CC BY-NC-SA
COMMENT: KEIO_ID M048
CH$NAME: Methotrexate
CH$COMPOUND_CLASS: N/A
CH$FORMULA: C20H22N8O5
CH$EXACT_MASS: 454.17132
CH$SMILES: OC(=O)CCC(C(O)=O)NC(=O)c(c3)ccc(c3)N(C)Cc(c2)nc(c(N)1)c(n2)nc(N)n1
CH$IUPAC: InChI=1S/C20H22N8O5/c1-28(9-11-8-23-17-15(24-11)16(21)26-20(22)27-17)12-4-2-10(3-5-12)18(31)25-13(19(32)33)6-7-14(29)30/h2-5,8,13H,6-7,9H2,1H3,(H,25,31)(H,29,30)(H,32,33)(H4,21,22,23,26,27)
CH$LINK: CAS 59-05-2
CH$LINK: KEGG C01937
CH$LINK: NIKKAJI J2.334E
CH$LINK: PUBCHEM CID:126941
CH$LINK: INCHIKEY FBOZXECLQNJBKD-UHFFFAOYSA-N
CH$LINK: COMPTOX DTXSID40859034
AC$INSTRUMENT: API3000, Applied Biosystems
AC$INSTRUMENT_TYPE: LC-ESI-QQ
AC$MASS_SPECTROMETRY: MS_TYPE MS2
AC$MASS_SPECTROMETRY: ION_MODE POSITIVE
AC$MASS_SPECTROMETRY: COLLISION_ENERGY 20 V
MS$FOCUSED_ION: PRECURSOR_M/Z 455
MS$FOCUSED_ION: PRECURSOR_TYPE [M+H]+
PK$SPLASH: splash10-03fr-0961100000-3b268fd0cb37c515ba4d
PK$NUM_PEAK: 16
PK$PEAK: m/z int. rel.int.
  112.100 9702980.0 999
  120.200 19802.0 2
  142.000 49505.0 5
  199.000 64356.5 7
  203.300 39604.0 4
  211.800 14851.5 2
  228.300 6950502.0 716
  239.300 202970.5 21
  308.500 1252476.5 129
  326.400 29703.0 3
  329.800 44554.5 5
  339.800 29703.0 3
  344.300 69307.0 7
  393.100 9901.0 1
  424.000 54455.5 6
  455.600 1504952.0 155
//
