ACCESSION: MSBNK-Keio_Univ-KO001457
RECORD_TITLE: alpha-D-(+)-mannose 1-phosphate; LC-ESI-QQ; MS2; CE:10 V; [M-H]-
DATE: 2016.01.19 (Created 2010.02.10, modified 2011.05.10)
AUTHORS: Kakazu Y, Horai H, Institute for Advanced Biosciences, Keio Univ.
LICENSE: CC BY-NC-SA
COMMENT: KEIO_ID M080
CH$NAME: Mannose 1-phosphate
CH$NAME: alpha-D-(+)-mannose 1-phosphate
CH$COMPOUND_CLASS: N/A
CH$FORMULA: C6H13O9P
CH$EXACT_MASS: 260.02972
CH$SMILES: OC[C@@H](O1)[C@@H](O)[C@H](O)[C@H](O)[C@H]1OP(O)(O)=O
CH$IUPAC: InChI=1S/C6H13O9P/c7-1-2-3(8)4(9)5(10)6(14-2)15-16(11,12)13/h2-10H,1H2,(H2,11,12,13)/t2-,3-,4+,5+,6-/m1/s1
CH$LINK: KEGG C00636
CH$LINK: INCHIKEY HXXFSFRBOHSIMQ-RWOPYEJCSA-N
AC$INSTRUMENT: API3000, Applied Biosystems
AC$INSTRUMENT_TYPE: LC-ESI-QQ
AC$MASS_SPECTROMETRY: MS_TYPE MS2
AC$MASS_SPECTROMETRY: ION_MODE NEGATIVE
AC$MASS_SPECTROMETRY: COLLISION_ENERGY 10 V
MS$FOCUSED_ION: PRECURSOR_M/Z 259
MS$FOCUSED_ION: PRECURSOR_TYPE [M-H]-
PK$SPLASH: splash10-0a4i-0090000000-370fdaaca74887f476c9
PK$NUM_PEAK: 14
PK$PEAK: m/z int. rel.int.
  58.800 252475.5 2
  79.300 84158.5 1
  97.100 1866338.5 15
  104.700 361386.5 3
  106.300 113861.5 1
  114.900 14851.5 1
  120.900 14851.5 1
  190.600 49505.0 1
  199.200 1222773.5 10
  213.200 29703.0 1
  215.200 54455.5 1
  222.600 64356.5 1
  227.200 39604.0 1
  259.200 124544679.0 999
//
