ACCESSION: MSBNK-Keio_Univ-KO000504
RECORD_TITLE: Citramalic acid; LC-ESI-QQ; MS2; CE:50 V; [M-H]-
DATE: 2016.01.19 (Created 2007.07.07, modified 2011.05.10)
AUTHORS: Kakazu Y, Horai H, Institute for Advanced Biosciences, Keio Univ.
LICENSE: CC BY-NC-SA
COMMENT: KEIO_ID C101
CH$NAME: S-Citramalic acid
CH$NAME: (2S)-2-Hydroxy-2-methylbutanedioate
CH$NAME: L-(+)-2-Methylmalic acid
CH$NAME: L-alpha-Hydroxypyrotartaric acid
CH$NAME: L-Citramalic acid
CH$NAME: (S)-2-Hydroxy-2-methylsuccinic acid
CH$NAME: (S)-2-Methylmalate
CH$NAME: (S)-2-Methylmalic acid
CH$NAME: S-alpha-Hydroxypyrotartaric acid
CH$NAME: (S)-(+)-Citramailc acid
CH$COMPOUND_CLASS: N/A
CH$FORMULA: C5H8O5
CH$EXACT_MASS: 148.03717
CH$SMILES: C[C@](CC(=O)O)(C(=O)O)O
CH$IUPAC: InChI=1S/C5H8O5/c1-5(10,4(8)9)2-3(6)7/h10H,2H2,1H3,(H,6,7)(H,8,9)/t5-/m0/s1
CH$LINK: CAS 6236-09-5
CH$LINK: CHEBI CHEBI:29003
CH$LINK: CHEMSPIDER 390304
CH$LINK: INCHIKEY XFTRTWQBIOMVPK-YFKPBYRVSA-N
CH$LINK: KEGG C02614
CH$LINK: KNAPSACK C00001181
CH$LINK: PUBCHEM CID:441696
AC$INSTRUMENT: API3000, Applied Biosystems
AC$INSTRUMENT_TYPE: LC-ESI-QQ
AC$MASS_SPECTROMETRY: MS_TYPE MS2
AC$MASS_SPECTROMETRY: ION_MODE NEGATIVE
AC$MASS_SPECTROMETRY: COLLISION_ENERGY 50 V
MS$FOCUSED_ION: PRECURSOR_M/Z 147
MS$FOCUSED_ION: PRECURSOR_TYPE [M-H]-
PK$SPLASH: splash10-0a4i-9000000000-38c7893b7f63c929c17b
PK$NUM_PEAK: 3
PK$PEAK: m/z int. rel.int.
  41.200 158416.0 492
  57.200 321782.5 999
  84.800 39604.0 123
//
