ACCESSION: MSBNK-Keio_Univ-KO001971
RECORD_TITLE: 2,4,5-Trichlorophenoxyacetate; LC-ESI-QQ; MS2; CE:40 V; [M-H]-
DATE: 2016.01.19 (Created 2007.07.07, modified 2011.05.10)
AUTHORS: Kakazu Y, Horai H, Institute for Advanced Biosciences, Keio Univ.
LICENSE: CC BY-NC-SA
COMMENT: KEIO_ID T113
CH$NAME: 2,4,5-Trichlorophenoxyacetate
CH$NAME: 2,4,5-Trichlorophenoxyacetic acid
CH$COMPOUND_CLASS: N/A
CH$FORMULA: C8H5Cl3O3
CH$EXACT_MASS: 253.93043
CH$SMILES: OC(=O)COc(c1)c(Cl)cc(Cl)c(Cl)1
CH$IUPAC: InChI=1S/C8H5Cl3O3/c9-4-1-6(11)7(2-5(4)10)14-3-8(12)13/h1-2H,3H2,(H,12,13)
CH$LINK: CAS 93-76-5
CH$LINK: KEGG C07100
CH$LINK: NIKKAJI J3.941A
CH$LINK: PUBCHEM SID:9311
CH$LINK: INCHIKEY SMYMJHWAQXWPDB-UHFFFAOYSA-N
CH$LINK: COMPTOX DTXSID5021388
AC$INSTRUMENT: API3000, Applied Biosystems
AC$INSTRUMENT_TYPE: LC-ESI-QQ
AC$MASS_SPECTROMETRY: MS_TYPE MS2
AC$MASS_SPECTROMETRY: ION_MODE NEGATIVE
AC$MASS_SPECTROMETRY: COLLISION_ENERGY 40 V
MS$FOCUSED_ION: PRECURSOR_M/Z 253
MS$FOCUSED_ION: PRECURSOR_TYPE [M-H]-
PK$SPLASH: splash10-0a4j-0900000000-3408c2bc37f7d47ea64d
PK$NUM_PEAK: 10
PK$PEAK: m/z int. rel.int.
  35.000 207921.0 27
  45.700 9901.0 1
  78.800 34653.5 4
  92.700 39604.0 5
  94.700 24752.5 3
  96.900 64356.5 8
  123.000 89109.0 12
  132.600 34653.5 4
  159.000 7707928.5 999
  195.000 5113866.5 663
//
