ACCESSION: MSBNK-Keio_Univ-KO002462
RECORD_TITLE: 6-Benzylaminopurine; LC-ESI-QQ; MS2; CE:50 V; [M+H]+
DATE: 2016.01.19 (Created 2007.07.07, modified 2011.05.10)
AUTHORS: Kakazu Y, Horai H, Institute for Advanced Biosciences, Keio Univ.
LICENSE: CC BY-NC-SA
COMMENT: KEIO_ID B015
CH$NAME: 6-Benzylaminopurine
CH$NAME: N-Benzyladenine
CH$NAME: N6-Benzyladenine
CH$COMPOUND_CLASS: N/A
CH$FORMULA: C12H11N5
CH$EXACT_MASS: 225.10145
CH$SMILES: C1=CC=C(C=C1)CNC2=NC=NC3=C2NC=N3
CH$IUPAC: InChI=1S/C12H11N5/c1-2-4-9(5-3-1)6-13-11-10-12(15-7-14-10)17-8-16-11/h1-5,7-8H,6H2,(H2,13,14,15,16,17)
CH$LINK: CAS 1214-39-7
CH$LINK: KEGG C11263
CH$LINK: NIKKAJI J1.764G
CH$LINK: PUBCHEM CID:62389
CH$LINK: INCHIKEY NWBJYWHLCVSVIJ-UHFFFAOYSA-N
CH$LINK: COMPTOX DTXSID7032630
AC$INSTRUMENT: API3000, Applied Biosystems
AC$INSTRUMENT_TYPE: LC-ESI-QQ
AC$MASS_SPECTROMETRY: MS_TYPE MS2
AC$MASS_SPECTROMETRY: ION_MODE POSITIVE
AC$MASS_SPECTROMETRY: COLLISION_ENERGY 50 V
MS$FOCUSED_ION: PRECURSOR_M/Z 226
MS$FOCUSED_ION: PRECURSOR_TYPE [M+H]+
PK$SPLASH: splash10-0006-9000000000-abe81a4ac3253400d818
PK$NUM_PEAK: 12
PK$PEAK: m/z int. rel.int.
  65.200 1217823.0 55
  66.900 49505.0 2
  73.700 9901.0 1
  76.800 19802.0 1
  79.100 49505.0 2
  81.100 54455.5 2
  86.300 14851.5 1
  91.000 22202992.5 999
  92.200 34653.5 2
  115.500 19802.0 1
  134.000 133663.5 6
  135.000 64356.5 3
//
