ACCESSION: MSBNK-Keio_Univ-KO004182
RECORD_TITLE: Tryptophanamide; LC-ESI-QQ; MS2; CE:20 V; [M+H]+
DATE: 2016.01.19 (Created 2007.07.07, modified 2011.05.10)
AUTHORS: Kakazu Y, Horai H, Institute for Advanced Biosciences, Keio Univ.
LICENSE: CC BY-NC-SA
COMMENT: KEIO_ID T054
CH$NAME: Tryptophanamide
CH$NAME: L-Tryptophanamide
CH$COMPOUND_CLASS: N/A
CH$FORMULA: C11H13N3O
CH$EXACT_MASS: 203.10586
CH$SMILES: C1=CC=C2C(=C1)C(=CN2)C[C@@H](C(=O)N)N
CH$IUPAC: InChI=1S/C11H13N3O/c12-9(11(13)15)5-7-6-14-10-4-2-1-3-8(7)10/h1-4,6,9,14H,5,12H2,(H2,13,15)/t9-/m0/s1
CH$LINK: KEGG C00977
CH$LINK: PUBCHEM CID:439356
CH$LINK: INCHIKEY JLSKPBDKNIXMBS-VIFPVBQESA-N
AC$INSTRUMENT: API3000, Applied Biosystems
AC$INSTRUMENT_TYPE: LC-ESI-QQ
AC$MASS_SPECTROMETRY: MS_TYPE MS2
AC$MASS_SPECTROMETRY: ION_MODE POSITIVE
AC$MASS_SPECTROMETRY: COLLISION_ENERGY 20 V
MS$FOCUSED_ION: PRECURSOR_M/Z 204
MS$FOCUSED_ION: PRECURSOR_TYPE [M+H]+
PK$SPLASH: splash10-0udi-0390010000-e6e21a2545913d0bce2f
PK$NUM_PEAK: 6
PK$PEAK: m/z int. rel.int.
  143.000 59406.0 343
  160.300 39604.0 228
  204.600 173267.5 999
  204.900 89109.0 514
  376.000 19802.0 114
  501.500 39604.0 228
//
