ACCESSION: MSBNK-Keio_Univ-KO000032
RECORD_TITLE: L-Aspartic acid; LC-ESI-QQ; MS2; CE:40 V; [M-H]-
DATE: 2016.01.19 (Created 2007.07.07, modified 2011.05.10)
AUTHORS: Kakazu Y, Horai H, Institute for Advanced Biosciences, Keio Univ.
LICENSE: CC BY-NC-SA
COMMENT: KEIO_ID A017
CH$NAME: Asp
CH$NAME: L-Aspartic acid
CH$NAME: L-Aspartate
CH$NAME: 2-Aminosuccinic acid
CH$COMPOUND_CLASS: N/A
CH$FORMULA: C4H7NO4
CH$EXACT_MASS: 133.03751
CH$SMILES: OC(=O)CC(N)C(O)=O
CH$IUPAC: InChI=1S/C4H7NO4/c5-2(4(8)9)1-3(6)7/h2H,1,5H2,(H,6,7)(H,8,9)/t2-/m0/s1
CH$LINK: CAS 56-84-8
CH$LINK: CHEBI CHEBI:17053
CH$LINK: CHEMPDB ASP
CH$LINK: KEGG C00049
CH$LINK: NIKKAJI J9.169C
CH$LINK: PUBCHEM CID:5960
CH$LINK: INCHIKEY CKLJMWTZIZZHCS-REOHCLBHSA-N
CH$LINK: COMPTOX DTXSID7022621
AC$INSTRUMENT: API3000, Applied Biosystems
AC$INSTRUMENT_TYPE: LC-ESI-QQ
AC$MASS_SPECTROMETRY: MS_TYPE MS2
AC$MASS_SPECTROMETRY: ION_MODE NEGATIVE
AC$MASS_SPECTROMETRY: COLLISION_ENERGY 40 V
MS$FOCUSED_ION: PRECURSOR_M/Z 132
MS$FOCUSED_ION: PRECURSOR_TYPE [M-H]-
PK$SPLASH: splash10-00di-9000000000-ef4738829a28310574c5
PK$NUM_PEAK: 5
PK$PEAK: m/z int. rel.int.
  42.200 64356.5 260
  45.100 19802.0 80
  71.300 247525.0 999
  72.100 69307.0 280
  88.100 133663.5 539
//
