ACCESSION: MSBNK-Keio_Univ-KO003939
RECORD_TITLE: Pentamidine; LC-ESI-QQ; MS2; CE:30 V; [M+H]+
DATE: 2016.01.19 (Created 2007.07.07, modified 2011.05.10)
AUTHORS: Kakazu Y, Horai H, Institute for Advanced Biosciences, Keio Univ.
LICENSE: CC BY-NC-SA
COMMENT: KEIO_ID P209
CH$NAME: Pentamidine
CH$COMPOUND_CLASS: N/A
CH$FORMULA: C19H24N4O2
CH$EXACT_MASS: 340.18993
CH$SMILES: NC(=N)c(c1)ccc(OCCCCCOc(c2)ccc(C(N)=N)c2)c1
CH$IUPAC: InChI=1S/C19H24N4O2/c20-18(21)14-4-8-16(9-5-14)24-12-2-1-3-13-25-17-10-6-15(7-11-17)19(22)23/h4-11H,1-3,12-13H2,(H3,20,21)(H3,22,23)
CH$LINK: KEGG C08004
CH$LINK: PUBCHEM SID:10204
CH$LINK: INCHIKEY XDRYMKDFEDOLFX-UHFFFAOYSA-N
CH$LINK: COMPTOX DTXSID7023431
AC$INSTRUMENT: API3000, Applied Biosystems
AC$INSTRUMENT_TYPE: LC-ESI-QQ
AC$MASS_SPECTROMETRY: MS_TYPE MS2
AC$MASS_SPECTROMETRY: ION_MODE POSITIVE
AC$MASS_SPECTROMETRY: COLLISION_ENERGY 30 V
MS$FOCUSED_ION: PRECURSOR_M/Z 341
MS$FOCUSED_ION: PRECURSOR_TYPE [M+H]+
PK$SPLASH: splash10-00di-0209000000-58a168dde59140860009
PK$NUM_PEAK: 10
PK$PEAK: m/z int. rel.int.
  120.300 371287.5 92
  137.200 569307.5 141
  149.000 64356.5 16
  177.400 133663.5 33
  188.200 103960.5 26
  197.500 74257.5 18
  205.000 64356.5 16
  307.600 133663.5 33
  324.800 4024756.5 999
  341.600 762377.0 189
//
