ACCESSION: MSBNK-Keio_Univ-KO001689
RECORD_TITLE: Puromycin; LC-ESI-QQ; MS2; CE:40 V; [M-H]-
DATE: 2016.01.19 (Created 2007.07.07, modified 2011.05.10)
AUTHORS: Kakazu Y, Horai H, Institute for Advanced Biosciences, Keio Univ.
LICENSE: CC BY-NC-SA
COMMENT: KEIO_ID P075
CH$NAME: Puromycin
CH$COMPOUND_CLASS: N/A
CH$FORMULA: C22H29N7O5
CH$EXACT_MASS: 471.22302
CH$SMILES: COc(c4)ccc(c4)CC(N)C(=O)NC(C(CO)3)C(O)C(O3)n(c2)c(n1)c(n2)c(N(C)C)nc1
CH$IUPAC: InChI=1S/C22H29N7O5/c1-28(2)19-17-20(25-10-24-19)29(11-26-17)22-18(31)16(15(9-30)34-22)27-21(32)14(23)8-12-4-6-13(33-3)7-5-12/h4-7,10-11,14-16,18,22,30-31H,8-9,23H2,1-3H3,(H,27,32)/t14-,15+,16+,18+,22+/m0/s1
CH$LINK: CAS 53-79-2
CH$LINK: CHEBI CHEBI:17939
CH$LINK: KEGG C01610
CH$LINK: NIKKAJI J2.310H
CH$LINK: PUBCHEM CID:439530
CH$LINK: INCHIKEY RXWNCPJZOCPEPQ-NVWDDTSBSA-N
CH$LINK: COMPTOX DTXSID8036788
AC$INSTRUMENT: API3000, Applied Biosystems
AC$INSTRUMENT_TYPE: LC-ESI-QQ
AC$MASS_SPECTROMETRY: MS_TYPE MS2
AC$MASS_SPECTROMETRY: ION_MODE NEGATIVE
AC$MASS_SPECTROMETRY: COLLISION_ENERGY 40 V
MS$FOCUSED_ION: PRECURSOR_M/Z 470
MS$FOCUSED_ION: PRECURSOR_TYPE [M-H]-
PK$SPLASH: splash10-03di-0900000000-571b6483dc540c02d098
PK$NUM_PEAK: 13
PK$PEAK: m/z int. rel.int.
  70.800 44554.5 1
  85.500 34653.5 1
  92.600 212871.5 4
  112.100 29703.0 1
  136.600 19802.0 1
  147.200 351485.5 7
  162.200 53311934.5 999
  167.700 9901.0 1
  192.900 118812.0 2
  219.000 14851.5 1
  249.200 74257.5 1
  259.100 64356.5 1
  307.500 14851.5 1
//
