ACCESSION: MSBNK-Keio_Univ-KO001394
RECORD_TITLE: 7-Methylguanine; LC-ESI-QQ; MS2; CE:10 V; [M-H]-
DATE: 2016.01.19 (Created 2007.07.07, modified 2011.05.10)
AUTHORS: Kakazu Y, Horai H, Institute for Advanced Biosciences, Keio Univ.
LICENSE: CC BY-NC-SA
COMMENT: KEIO_ID M043
CH$NAME: 7-Methylguanine
CH$COMPOUND_CLASS: N/A
CH$FORMULA: C6H7N5O
CH$EXACT_MASS: 165.06506
CH$SMILES: NC(N1)=Nc(n2)c(n(C)c2)C(=O)1
CH$IUPAC: InChI=1S/C6H7N5O/c1-11-2-8-4-3(11)5(12)10-6(7)9-4/h2H,1H3,(H3,7,9,10,12)
CH$LINK: CAS 578-76-7
CH$LINK: KEGG C02242
CH$LINK: NIKKAJI J101.566D
CH$LINK: PUBCHEM CID:135398679
CH$LINK: INCHIKEY FZWGECJQACGGTI-UHFFFAOYSA-N
CH$LINK: COMPTOX DTXSID9020873
AC$INSTRUMENT: API3000, Applied Biosystems
AC$INSTRUMENT_TYPE: LC-ESI-QQ
AC$MASS_SPECTROMETRY: MS_TYPE MS2
AC$MASS_SPECTROMETRY: ION_MODE NEGATIVE
AC$MASS_SPECTROMETRY: COLLISION_ENERGY 10 V
MS$FOCUSED_ION: PRECURSOR_M/Z 164
MS$FOCUSED_ION: PRECURSOR_TYPE [M-H]-
PK$SPLASH: splash10-03di-0900000000-6d69b62500523e3dc3d0
PK$NUM_PEAK: 4
PK$PEAK: m/z int. rel.int.
  118.200 123762.5 10
  147.500 24752.5 2
  164.000 11945556.5 999
  165.200 123762.5 10
//
