ACCESSION: MSBNK-Keio_Univ-KO001540
RECORD_TITLE: Octopine; LC-ESI-QQ; MS2; CE:10 V; [M-H]-
DATE: 2016.01.19 (Created 2007.07.07, modified 2011.05.10)
AUTHORS: Kakazu Y, Horai H, Institute for Advanced Biosciences, Keio Univ.
LICENSE: CC BY-NC-SA
COMMENT: KEIO_ID O009
CH$NAME: Octopine
CH$NAME: D-Octopine
CH$NAME: L-Arginine, N2-[(1R)-1-carboxyethyl]-
CH$NAME: D-(+)-Octopine
CH$NAME: N2-(D-1-Carboxyethyl)-L-arginine
CH$NAME: L-Arginine, N2-(1-carboxyethyl)-, (R)-
CH$NAME: Arginine, N2-(1-carboxyethyl)-, L-
CH$NAME: N2-(1-Carboxyethyl)-L-arginine
CH$COMPOUND_CLASS: N/A
CH$FORMULA: C9H18N4O4
CH$EXACT_MASS: 246.13281
CH$SMILES: NC(=N)NCCC[C@@H](C(O)=O)N[C@@H](C)C(O)=O
CH$IUPAC: InChI=1S/C9H18N4O4/c1-5(7(14)15)13-6(8(16)17)3-2-4-12-9(10)11/h5-6,13H,2-4H2,1H3,(H,14,15)(H,16,17)(H4,10,11,12)/t5-,6-/m0/s1
CH$LINK: CAS 34522-32-2
CH$LINK: CHEBI CHEBI:15805
CH$LINK: KEGG C04137
CH$LINK: NIKKAJI J18.376H
CH$LINK: PUBCHEM CID:108172
CH$LINK: INCHIKEY IMXSCCDUAFEIOE-WDSKDSINSA-N
CH$LINK: COMPTOX DTXSID50487423
AC$INSTRUMENT: API3000, Applied Biosystems
AC$INSTRUMENT_TYPE: LC-ESI-QQ
AC$MASS_SPECTROMETRY: MS_TYPE MS2
AC$MASS_SPECTROMETRY: ION_MODE NEGATIVE
AC$MASS_SPECTROMETRY: COLLISION_ENERGY 10 V
MS$FOCUSED_ION: PRECURSOR_M/Z 245
MS$FOCUSED_ION: PRECURSOR_TYPE [M-H]-
PK$SPLASH: splash10-0002-0190000000-8fa3645974fcce9c8fa8
PK$NUM_PEAK: 13
PK$PEAK: m/z int. rel.int.
  59.200 242574.5 29
  115.100 29703.0 4
  134.700 14851.5 2
  142.700 9901.0 1
  149.200 19802.0 2
  155.400 19802.0 2
  163.100 24752.5 3
  185.200 1356437.0 164
  199.100 103960.5 13
  209.000 306931.0 37
  212.200 59406.0 7
  245.300 8277236.0 999
  455.200 14851.5 2
//
