ACCESSION: MSBNK-Keio_Univ-KO001968
RECORD_TITLE: 2,4,5-Trichlorophenoxyacetate; LC-ESI-QQ; MS2; CE:10 V; [M-H]-
DATE: 2016.01.19 (Created 2007.07.07, modified 2011.05.10)
AUTHORS: Kakazu Y, Horai H, Institute for Advanced Biosciences, Keio Univ.
LICENSE: CC BY-NC-SA
COMMENT: KEIO_ID T113
CH$NAME: 2,4,5-Trichlorophenoxyacetate
CH$NAME: 2,4,5-Trichlorophenoxyacetic acid
CH$COMPOUND_CLASS: N/A
CH$FORMULA: C8H5Cl3O3
CH$EXACT_MASS: 253.93043
CH$SMILES: OC(=O)COc(c1)c(Cl)cc(Cl)c(Cl)1
CH$IUPAC: InChI=1S/C8H5Cl3O3/c9-4-1-6(11)7(2-5(4)10)14-3-8(12)13/h1-2H,3H2,(H,12,13)
CH$LINK: CAS 93-76-5
CH$LINK: KEGG C07100
CH$LINK: NIKKAJI J3.941A
CH$LINK: PUBCHEM CID:1480
CH$LINK: INCHIKEY SMYMJHWAQXWPDB-UHFFFAOYSA-N
CH$LINK: COMPTOX DTXSID5021388
AC$INSTRUMENT: API3000, Applied Biosystems
AC$INSTRUMENT_TYPE: LC-ESI-QQ
AC$MASS_SPECTROMETRY: MS_TYPE MS2
AC$MASS_SPECTROMETRY: ION_MODE NEGATIVE
AC$MASS_SPECTROMETRY: COLLISION_ENERGY 10 V
MS$FOCUSED_ION: PRECURSOR_M/Z 253
MS$FOCUSED_ION: PRECURSOR_TYPE [M-H]-
PK$SPLASH: splash10-0udj-0590000000-9d51586ad79a829fa213
PK$NUM_PEAK: 7
PK$PEAK: m/z int. rel.int.
  93.100 287129.0 7
  195.300 24232697.5 569
  206.400 24752.5 1
  208.700 34653.5 1
  217.000 108911.0 3
  220.300 24752.5 1
  253.000 42554498.0 999
//
