ACCESSION: MSBNK-Keio_Univ-KO002307
RECORD_TITLE: 5-Aminoimidazole-4-carboxamide-1-beta-D-ribofuranosyl 5'-monophosphate; LC-ESI-QQ; MS2; CE:50 V; [M+H]+
DATE: 2016.01.19 (Created 2007.07.07, modified 2011.05.10)
AUTHORS: Kakazu Y, Horai H, Institute for Advanced Biosciences, Keio Univ.
LICENSE: CC BY-NC-SA
COMMENT: KEIO_ID A133
CH$NAME: 5-Aminoimidazole-4-carboxamide-1-ribofuranosyl 5'-monophosphate
CH$NAME: 5'-Phosphoribosyl-5-amino-4-imidazolecarboxamide
CH$NAME: 5'-Phospho-ribosyl-5-amino-4-imidazole carboxamide
CH$NAME: 5-Aminoimidazole-4-carboxamide ribotide
CH$NAME: 5-Phosphoribosyl-4-carbamoyl-5-aminoimidazole
CH$NAME: AICAR
CH$NAME: 5-Amino-1-(5-phospho-D-ribosyl)imidazole-4-carboxamide
CH$NAME: 1-(5'-Phosphoribosyl)-5-amino-4-imidazolecarboxamide
CH$NAME: 5-Aminoimidazole-4-carboxamide-1-beta-D-ribofuranosyl 5'-monophosphate
CH$COMPOUND_CLASS: N/A
CH$FORMULA: C9H15N4O8P
CH$EXACT_MASS: 338.06275
CH$SMILES: NC(=O)c(n2)c(N)n(c2)[C@H](O1)[C@H](O)[C@H](O)[C@@H](COP(O)(O)=O)1
CH$IUPAC: InChI=1S/C9H15N4O8P/c10-7-4(8(11)16)12-2-13(7)9-6(15)5(14)3(21-9)1-20-22(17,18)19/h2-3,5-6,9,14-15H,1,10H2,(H2,11,16)(H2,17,18,19)/t3-,5-,6-,9-/m1/s1
CH$LINK: CAS 3031-94-5
CH$LINK: CHEBI CHEBI:18406
CH$LINK: KEGG C04677
CH$LINK: NIKKAJI J7.665A
CH$LINK: PUBCHEM CID:65110
CH$LINK: INCHIKEY NOTGFIUVDGNKRI-UUOKFMHZSA-N
CH$LINK: COMPTOX DTXSID10904363
AC$INSTRUMENT: API3000, Applied Biosystems
AC$INSTRUMENT_TYPE: LC-ESI-QQ
AC$MASS_SPECTROMETRY: MS_TYPE MS2
AC$MASS_SPECTROMETRY: ION_MODE POSITIVE
AC$MASS_SPECTROMETRY: COLLISION_ENERGY 50 V
MS$FOCUSED_ION: PRECURSOR_M/Z 339
MS$FOCUSED_ION: PRECURSOR_TYPE [M+H]+
PK$SPLASH: splash10-03di-5900000000-e2c302b537e2a87761ca
PK$NUM_PEAK: 7
PK$PEAK: m/z int. rel.int.
  69.200 94059.5 102
  81.000 54455.5 59
  82.500 24752.5 27
  85.800 64356.5 70
  97.000 371287.5 403
  110.200 920793.0 999
  128.100 153465.5 167
//
