ACCESSION: MSBNK-Keio_Univ-KO000679
RECORD_TITLE: Diethyl phosphate; LC-ESI-QQ; MS2; CE:10 V; [M-H]-
DATE: 2016.01.19 (Created 2007.07.07, modified 2012.05.21)
AUTHORS: Kakazu Y, Horai H, Institute for Advanced Biosciences, Keio Univ.
LICENSE: CC BY-NC-SA
COMMENT: KEIO_ID D141
CH$NAME: Diethyl phosphate
CH$NAME: O,O-Diethylphosphoric acid
CH$NAME: Diethylphosphoric acid
CH$COMPOUND_CLASS: N/A
CH$FORMULA: C4H11O4P
CH$EXACT_MASS: 154.03950
CH$SMILES: CCOP(O)(=O)OCC
CH$IUPAC: InChI=1S/C4H11O4P/c1-3-7-9(5,6)8-4-2/h3-4H2,1-2H3,(H,5,6)
CH$LINK: CAS 598-02-7
CH$LINK: KEGG C06608
CH$LINK: NIKKAJI J1.649G
CH$LINK: PUBCHEM SID:8834
CH$LINK: INCHIKEY UCQFCFPECQILOL-UHFFFAOYSA-N
CH$LINK: COMPTOX DTXSID1044699
AC$INSTRUMENT: API3000, Applied Biosystems
AC$INSTRUMENT_TYPE: LC-ESI-QQ
AC$MASS_SPECTROMETRY: MS_TYPE MS2
AC$MASS_SPECTROMETRY: ION_MODE NEGATIVE
AC$MASS_SPECTROMETRY: COLLISION_ENERGY 10 V
MS$FOCUSED_ION: PRECURSOR_M/Z 153
MS$FOCUSED_ION: PRECURSOR_TYPE [M-H]-
PK$SPLASH: splash10-0udi-0900000000-66ba682d35b3d8da27cb
PK$NUM_PEAK: 9
PK$PEAK: m/z int. rel.int.
  59.200 282178.5 1
  79.100 5183173.5 10
  93.100 54455.5 1
  96.900 34653.5 1
  123.200 19802.0 1
  125.000 78292157.5 144
  151.600 64356.5 1
  152.900 543876781.5 999
  170.800 74257.5 1
//
