ACCESSION: MSBNK-Keio_Univ-KO001965
RECORD_TITLE: Triadimefon; LC-ESI-QQ; MS2; CE:30 V; [M-H]-
DATE: 2016.01.19 (Created 2007.07.07, modified 2011.05.10)
AUTHORS: Kakazu Y, Horai H, Institute for Advanced Biosciences, Keio Univ.
LICENSE: CC BY-NC-SA
COMMENT: KEIO_ID T112
CH$NAME: Triadimefon
CH$COMPOUND_CLASS: N/A
CH$FORMULA: C14H16ClN3O2
CH$EXACT_MASS: 293.09310
CH$SMILES: Clc(c2)ccc(c2)OC(n(c1)ncn1)C(=O)C(C)(C)C
CH$IUPAC: InChI=1S/C14H16ClN3O2/c1-14(2,3)12(19)13(18-9-16-8-17-18)20-11-6-4-10(15)5-7-11/h4-9,13H,1-3H3
CH$LINK: CAS 43121-43-3
CH$LINK: KEGG C11156
CH$LINK: NIKKAJI J1.896A
CH$LINK: PUBCHEM SID:13338
CH$LINK: INCHIKEY WURBVZBTWMNKQT-UHFFFAOYSA-N
CH$LINK: COMPTOX DTXSID3023897
AC$INSTRUMENT: API3000, Applied Biosystems
AC$INSTRUMENT_TYPE: LC-ESI-QQ
AC$MASS_SPECTROMETRY: MS_TYPE MS2
AC$MASS_SPECTROMETRY: ION_MODE NEGATIVE
AC$MASS_SPECTROMETRY: COLLISION_ENERGY 30 V
MS$FOCUSED_ION: PRECURSOR_M/Z 292
MS$FOCUSED_ION: PRECURSOR_TYPE [M-H]-
PK$SPLASH: splash10-014i-9000000000-1c7a89a8998a0954a2c3
PK$NUM_PEAK: 37
PK$PEAK: m/z int. rel.int.
  42.300 29703.0 1
  59.000 69307.0 1
  66.100 24752.5 1
  67.500 5801986.0 33
  68.000 173282351.5 999
  74.300 222772.5 1
  79.300 49505.0 1
  86.900 138614.0 1
  89.100 54455.5 1
  95.100 94059.5 1
  95.400 24752.5 1
  96.900 24752.5 1
  100.700 69307.0 1
  111.000 2113863.5 12
  115.000 24752.5 1
  124.900 24752.5 1
  127.000 7797037.5 45
  131.000 1183169.5 7
  134.000 39604.0 1
  141.900 19802.0 1
  144.500 59406.0 1
  146.400 54455.5 1
  148.900 54455.5 1
  152.200 4960401.0 29
  164.100 148515.0 1
  172.700 44554.5 1
  178.200 356436.0 2
  180.700 103960.5 1
  181.000 366337.0 2
  187.900 44554.5 1
  190.100 9901.0 1
  207.100 24752.5 1
  209.000 69307.0 1
  211.300 569307.5 3
  234.700 49505.0 1
  237.300 39604.0 1
  247.500 128713.0 1
//
