ACCESSION: MSBNK-Keio_Univ-KO004080
RECORD_TITLE: Taurine; LC-ESI-QQ; MS2; CE:40 V; [M+H]+
DATE: 2016.01.19 (Created 2007.07.07, modified 2011.05.10)
AUTHORS: Kakazu Y, Horai H, Institute for Advanced Biosciences, Keio Univ.
LICENSE: CC BY-NC-SA
COMMENT: KEIO_ID T004
CH$NAME: Taurine
CH$NAME: 2-Aminoethanesulfonic acid
CH$NAME: Aminoethylsulfonic acid
CH$COMPOUND_CLASS: N/A
CH$FORMULA: C2H7NO3S
CH$EXACT_MASS: 125.01466
CH$SMILES: NCCS(O)(=O)=O
CH$IUPAC: InChI=1S/C2H7NO3S/c3-1-2-7(4,5)6/h1-3H2,(H,4,5,6)
CH$LINK: CAS 107-35-7
CH$LINK: CHEBI CHEBI:15891
CH$LINK: CHEMPDB TAU
CH$LINK: KEGG C00245
CH$LINK: NIKKAJI J5.056C
CH$LINK: PUBCHEM CID:1123
CH$LINK: INCHIKEY XOAAWQZATWQOTB-UHFFFAOYSA-N
CH$LINK: COMPTOX DTXSID3021304
AC$INSTRUMENT: API3000, Applied Biosystems
AC$INSTRUMENT_TYPE: LC-ESI-QQ
AC$MASS_SPECTROMETRY: MS_TYPE MS2
AC$MASS_SPECTROMETRY: ION_MODE POSITIVE
AC$MASS_SPECTROMETRY: COLLISION_ENERGY 40 V
MS$FOCUSED_ION: PRECURSOR_M/Z 126
MS$FOCUSED_ION: PRECURSOR_TYPE [M+H]+
PK$SPLASH: splash10-03di-3090000000-bf77c1393db9a517e6c0
PK$NUM_PEAK: 2
PK$PEAK: m/z int. rel.int.
  94.300 19802.0 363
  262.500 54455.5 999
//
