ACCESSION: MSBNK-Keio_Univ-KO000672
RECORD_TITLE: Na,Na-Dimethylhistidine; LC-ESI-QQ; MS2; CE:40 V; [M-H]-
DATE: 2016.01.19 (Created 2007.07.07, modified 2011.05.10)
AUTHORS: Kakazu Y, Horai H, Institute for Advanced Biosciences, Keio Univ.
LICENSE: CC BY-NC-SA
COMMENT: KEIO_ID D131
CH$NAME: Na,Na-Dimethylhistidine
CH$NAME: Nalpha,Nalpha-Dimethyl-L-histidine
CH$COMPOUND_CLASS: N/A
CH$FORMULA: C8H13N3O2
CH$EXACT_MASS: 183.10078
CH$SMILES: CN(C)[C@@H](CC1=CN=CN1)C(=O)O
CH$IUPAC: InChI=1S/C8H13N3O2/c1-11(2)7(8(12)13)3-6-4-9-5-10-6/h4-5,7H,3H2,1-2H3,(H,9,10)(H,12,13)/t7-/m0/s1
CH$LINK: CHEBI CHEBI:16029
CH$LINK: KEGG C04259
CH$LINK: PUBCHEM CID:440274
CH$LINK: INCHIKEY IMOBSLOLPCWZKQ-ZETCQYMHSA-N
CH$LINK: COMPTOX DTXSID60947821
AC$INSTRUMENT: API3000, Applied Biosystems
AC$INSTRUMENT_TYPE: LC-ESI-QQ
AC$MASS_SPECTROMETRY: MS_TYPE MS2
AC$MASS_SPECTROMETRY: ION_MODE NEGATIVE
AC$MASS_SPECTROMETRY: COLLISION_ENERGY 40 V
MS$FOCUSED_ION: PRECURSOR_M/Z 182
MS$FOCUSED_ION: PRECURSOR_TYPE [M-H]-
PK$SPLASH: splash10-000x-9000000000-873cbd90f6f49ce6feb5
PK$NUM_PEAK: 9
PK$PEAK: m/z int. rel.int.
  40.300 34653.5 25
  66.000 222772.5 162
  66.900 158416.0 115
  80.100 891090.0 647
  81.200 158416.0 115
  86.300 64356.5 47
  93.100 1376239.0 999
  121.400 29703.0 22
  137.700 24752.5 18
//
