ACCESSION: MSBNK-Keio_Univ-KO003765
RECORD_TITLE: Propylthiouracil; LC-ESI-QQ; MS2; CE:30 V; [M+H]+
DATE: 2016.01.19 (Created 2007.07.07, modified 2011.05.10)
AUTHORS: Kakazu Y, Horai H, Institute for Advanced Biosciences, Keio Univ.
LICENSE: CC BY-NC-SA
COMMENT: KEIO_ID P055
CH$NAME: Propylthiouracil
CH$COMPOUND_CLASS: N/A
CH$FORMULA: C7H10N2OS
CH$EXACT_MASS: 170.05138
CH$SMILES: CCCC(=C1)NC(=S)NC(=O)1
CH$IUPAC: InChI=1S/C7H10N2OS/c1-2-3-5-4-6(10)9-7(11)8-5/h4H,2-3H2,1H3,(H2,8,9,10,11)
CH$LINK: CAS 51-52-5
CH$LINK: KEGG C07569
CH$LINK: NIKKAJI J1.363C
CH$LINK: PUBCHEM CID:657298
CH$LINK: INCHIKEY KNAHARQHSZJURB-UHFFFAOYSA-N
CH$LINK: COMPTOX DTXSID5021209
AC$INSTRUMENT: API3000, Applied Biosystems
AC$INSTRUMENT_TYPE: LC-ESI-QQ
AC$MASS_SPECTROMETRY: MS_TYPE MS2
AC$MASS_SPECTROMETRY: ION_MODE POSITIVE
AC$MASS_SPECTROMETRY: COLLISION_ENERGY 30 V
MS$FOCUSED_ION: PRECURSOR_M/Z 171
MS$FOCUSED_ION: PRECURSOR_TYPE [M+H]+
PK$SPLASH: splash10-0ik9-5900000000-41be31a4c739b4ea29a4
PK$NUM_PEAK: 51
PK$PEAK: m/z int. rel.int.
  41.100 54455.5 6
  43.800 39604.0 4
  46.200 79208.0 8
  55.400 108911.0 11
  60.000 752476.0 79
  63.100 257426.0 27
  65.100 69307.0 7
  66.000 24752.5 3
  67.200 1272278.5 133
  68.100 123762.5 13
  69.000 460396.5 48
  70.100 2123764.5 223
  71.000 99010.0 10
  71.900 361386.5 38
  76.900 292079.5 31
  78.000 79208.0 8
  79.900 74257.5 8
  81.000 99010.0 10
  82.200 193069.5 20
  82.900 158416.0 17
  84.100 529703.5 56
  84.900 163366.5 17
  86.100 1900992.0 199
  87.000 29703.0 3
  88.700 39604.0 4
  91.900 301980.5 32
  93.100 217822.0 23
  94.100 94059.5 10
  95.100 1014852.5 106
  95.800 247525.0 26
  97.900 118812.0 12
  98.700 168317.0 18
  108.200 39604.0 4
  109.000 113861.5 12
  110.200 103960.5 11
  111.200 54455.5 6
  112.100 9524762.0 999
  113.800 59406.0 6
  120.000 84158.5 9
  126.100 178218.0 19
  128.200 49505.0 5
  128.800 336634.0 35
  129.400 29703.0 3
  135.000 168317.0 18
  135.800 74257.5 8
  137.100 306931.0 32
  141.900 178218.0 19
  143.200 84158.5 9
  153.000 217822.0 23
  154.000 5846540.5 613
  171.200 2297032.0 241
//
