ACCESSION: MSBNK-Keio_Univ-KO003390
RECORD_TITLE: Minoxidil; LC-ESI-QQ; MS2; CE:40 V; [M+H]+
DATE: 2016.01.19 (Created 2007.07.07, modified 2011.05.10)
AUTHORS: Kakazu Y, Horai H, Institute for Advanced Biosciences, Keio Univ.
LICENSE: CC BY-NC-SA
COMMENT: KEIO_ID M035
CH$NAME: Minoxidil
CH$COMPOUND_CLASS: N/A
CH$FORMULA: C9H15N5O
CH$EXACT_MASS: 209.12766
CH$SMILES: Nc(c1)n(=O)c(N)nc1N(C2)CCCC2
CH$IUPAC: InChI=1S/C9H15N5O/c10-7-6-8(12-9(11)14(7)15)13-4-2-1-3-5-13/h6H,1-5,10H2,(H2,11,12)
CH$LINK: KEGG C07226
CH$LINK: INCHIKEY ZFMITUMMTDLWHR-UHFFFAOYSA-N
CH$LINK: COMPTOX DTXSID9040685
AC$INSTRUMENT: API3000, Applied Biosystems
AC$INSTRUMENT_TYPE: LC-ESI-QQ
AC$MASS_SPECTROMETRY: MS_TYPE MS2
AC$MASS_SPECTROMETRY: ION_MODE POSITIVE
AC$MASS_SPECTROMETRY: COLLISION_ENERGY 40 V
MS$FOCUSED_ION: PRECURSOR_M/Z 210
MS$FOCUSED_ION: PRECURSOR_TYPE [M+H]+
PK$SPLASH: splash10-03di-3900000000-f5138ae7a1ba6d04c54a
PK$NUM_PEAK: 85
PK$PEAK: m/z int. rel.int.
  40.900 74257.5 1
  43.100 74257.5 1
  44.800 237624.0 2
  55.400 108911.0 1
  56.200 544555.0 4
  57.900 183168.5 1
  59.200 267327.0 2
  60.200 188119.0 2
  66.600 74257.5 1
  67.000 945545.5 8
  68.100 6450501.5 52
  69.300 2014853.5 16
  70.100 301980.5 2
  70.900 49505.0 1
  71.900 54455.5 1
  73.100 89109.0 1
  77.200 34653.5 1
  78.200 123762.5 1
  79.100 99010.0 1
  80.000 143564.5 1
  81.200 8123770.5 65
  82.300 376238.0 3
  83.300 14376252.0 116
  84.200 100480298.5 808
  85.100 198020.0 2
  86.300 306931.0 2
  88.900 39604.0 1
  91.300 79208.0 1
  93.000 445545.0 4
  94.300 257426.0 2
  95.200 1534655.0 12
  95.900 252475.5 2
  97.200 485149.0 4
  98.100 2103962.5 17
  99.900 188119.0 2
  105.300 1846536.5 15
  106.000 138614.0 1
  106.900 148515.0 1
  108.200 2059408.0 17
  109.200 2212873.5 18
  110.300 112495162.0 905
  111.300 3465350.0 28
  112.400 138614.0 1
  113.400 64356.5 1
  118.400 29703.0 1
  119.100 633664.0 5
  120.100 2024754.5 16
  121.000 163366.5 1
  122.200 10153475.5 82
  123.100 2935646.5 24
  124.300 5529708.5 44
  125.200 4653470.0 37
  126.100 202970.5 2
  130.000 99010.0 1
  133.200 247525.0 2
  133.900 99010.0 1
  135.300 217822.0 2
  136.200 732674.0 6
  137.200 29103989.5 234
  138.300 10158426.0 82
  139.300 1247526.0 10
  141.400 207921.0 2
  144.000 19802.0 1
  145.200 301980.5 2
  146.000 267327.0 2
  147.200 10871298.0 87
  147.900 247525.0 2
  149.400 3752479.0 30
  150.200 21831705.0 176
  151.400 2707923.5 22
  152.300 2391091.5 19
  161.100 440594.5 4
  162.100 4054459.5 33
  163.300 1168318.0 9
  164.300 124242698.5 999
  165.500 871288.0 7
  166.400 89109.0 1
  168.400 128713.0 1
  175.200 965347.5 8
  176.300 262376.5 2
  177.300 232673.5 2
  178.200 5287134.0 43
  192.400 4143568.5 33
  193.500 1193070.5 10
  209.500 29703.0 1
//
