ACCESSION: MSBNK-Keio_Univ-KO001205
RECORD_TITLE: Indole-3-ethanol; LC-ESI-QQ; MS2; CE:50 V; [M-H]-
DATE: 2016.01.19 (Created 2007.07.07, modified 2011.05.10)
AUTHORS: Kakazu Y, Horai H, Institute for Advanced Biosciences, Keio Univ.
LICENSE: CC BY-NC-SA
COMMENT: KEIO_ID I021
CH$NAME: Indole-3-ethanol
CH$NAME: Tryptophol
CH$COMPOUND_CLASS: N/A
CH$FORMULA: C10H11NO
CH$EXACT_MASS: 161.08406
CH$SMILES: C1=CC=C2C(=C1)C(=CN2)CCO
CH$IUPAC: InChI=1S/C10H11NO/c12-6-5-8-7-11-10-4-2-1-3-9(8)10/h1-4,7,11-12H,5-6H2
CH$LINK: CAS 526-55-6
CH$LINK: CHEBI CHEBI:17890
CH$LINK: KEGG C00955
CH$LINK: NIKKAJI J6.661C
CH$LINK: PUBCHEM CID:10685
CH$LINK: INCHIKEY MBBOMCVGYCRMEA-UHFFFAOYSA-N
CH$LINK: COMPTOX DTXSID2060173
AC$INSTRUMENT: API3000, Applied Biosystems
AC$INSTRUMENT_TYPE: LC-ESI-QQ
AC$MASS_SPECTROMETRY: MS_TYPE MS2
AC$MASS_SPECTROMETRY: ION_MODE NEGATIVE
AC$MASS_SPECTROMETRY: COLLISION_ENERGY 50 V
MS$FOCUSED_ION: PRECURSOR_M/Z 160
MS$FOCUSED_ION: PRECURSOR_TYPE [M-H]-
PK$SPLASH: splash10-014i-0900000000-d00c24bc728f46156c60
PK$NUM_PEAK: 7
PK$PEAK: m/z int. rel.int.
  41.100 34653.5 146
  116.200 237624.0 999
  127.600 34653.5 146
  128.300 14851.5 62
  129.900 39604.0 167
  140.000 54455.5 229
  141.900 24752.5 104
//
