ACCESSION: MSBNK-Keio_Univ-KO002419
RECORD_TITLE: L-2-Aminobutyric acid; LC-ESI-QQ; MS2; CE:20 V; [M+H]+
DATE: 2016.01.19 (Created 2007.07.07, modified 2011.05.10)
AUTHORS: Kakazu Y, Horai H, Institute for Advanced Biosciences, Keio Univ.
LICENSE: CC BY-NC-SA
COMMENT: KEIO_ID A240
CH$NAME: (S)-2-Aminobutyrate
CH$NAME: (S)-2-Aminobutanoic acid
CH$NAME: (S)-2-Aminobutanoate
CH$NAME: (S)-2-Aminobutyric acid
CH$NAME: L-2-Aminobutyric acid
CH$COMPOUND_CLASS: Natural Product
CH$FORMULA: C4H9NO2
CH$EXACT_MASS: 103.06333
CH$SMILES: CC[C@H](N)C(O)=O
CH$IUPAC: InChI=1S/C4H9NO2/c1-2-3(5)4(6)7/h3H,2,5H2,1H3,(H,6,7)/t3-/m0/s1
CH$LINK: KEGG C02356
CH$LINK: PUBCHEM CID:80283
CH$LINK: INCHIKEY QWCKQJZIFLGMSD-VKHMYHEASA-N
CH$LINK: COMPTOX DTXSID10883684
AC$INSTRUMENT: API3000, Applied Biosystems
AC$INSTRUMENT_TYPE: LC-ESI-QQ
AC$MASS_SPECTROMETRY: MS_TYPE MS2
AC$MASS_SPECTROMETRY: ION_MODE POSITIVE
AC$MASS_SPECTROMETRY: COLLISION_ENERGY 20 V
MS$FOCUSED_ION: PRECURSOR_M/Z 104
MS$FOCUSED_ION: PRECURSOR_TYPE [M+H]+
PK$SPLASH: splash10-0a4i-9000000000-8d75ea4bc446938a682e
PK$NUM_PEAK: 8
PK$PEAK: m/z int. rel.int.
  41.100 168317.0 10
  44.300 24752.5 1
  45.900 79208.0 4
  58.100 17628730.5 999
  69.800 19802.0 1
  86.300 287129.0 16
  87.000 301980.5 17
  104.000 297030.0 17
//
