ACCESSION: MSBNK-Keio_Univ-KO003088
RECORD_TITLE: 2-Hydroxypyridine; LC-ESI-QQ; MS2; CE:10 V; [M+H]+
DATE: 2016.01.19 (Created 2007.07.07, modified 2011.05.10)
AUTHORS: Kakazu Y, Horai H, Institute for Advanced Biosciences, Keio Univ.
LICENSE: CC BY-NC-SA
COMMENT: KEIO_ID H021
CH$NAME: 2-Hydroxypyridine
CH$NAME: 2-Pyridone
CH$NAME: 2-Pyridinol
CH$COMPOUND_CLASS: N/A
CH$FORMULA: C5H5NO
CH$EXACT_MASS: 95.03711
CH$SMILES: Oc(c1)nccc1
CH$IUPAC: InChI=1S/C5H5NO/c7-5-3-1-2-4-6-5/h1-4H,(H,6,7)
CH$LINK: CAS 142-08-5
CH$LINK: CHEBI CHEBI:16540
CH$LINK: KEGG C02502
CH$LINK: NIKKAJI J13.556I
CH$LINK: PUBCHEM CID:8871
CH$LINK: INCHIKEY UBQKCCHYAOITMY-UHFFFAOYSA-N
CH$LINK: COMPTOX DTXSID2051716
AC$INSTRUMENT: API3000, Applied Biosystems
AC$INSTRUMENT_TYPE: LC-ESI-QQ
AC$MASS_SPECTROMETRY: MS_TYPE MS2
AC$MASS_SPECTROMETRY: ION_MODE POSITIVE
AC$MASS_SPECTROMETRY: COLLISION_ENERGY 10 V
MS$FOCUSED_ION: PRECURSOR_M/Z 96
MS$FOCUSED_ION: PRECURSOR_TYPE [M+H]+
PK$SPLASH: splash10-0002-9000000000-a20818a6a8c5a2948508
PK$NUM_PEAK: 8
PK$PEAK: m/z int. rel.int.
  46.100 49505.0 1
  49.900 54455.5 1
  61.000 311881.5 3
  64.000 702971.0 6
  78.100 1475249.0 12
  78.900 237624.0 2
  95.300 183168.5 1
  96.000 123153588.5 999
//
