ACCESSION: MSBNK-Keio_Univ-KO001159
RECORD_TITLE: 4-Hydroxyquinoline; LC-ESI-QQ; MS2; CE:50 V; [M-H]-
DATE: 2016.01.19 (Created 2007.07.07, modified 2011.05.10)
AUTHORS: Kakazu Y, Horai H, Institute for Advanced Biosciences, Keio Univ.
LICENSE: CC BY-NC-SA
COMMENT: KEIO_ID H139
CH$NAME: 4-Hydroxyquinoline
CH$NAME: Quinolin-4-ol
CH$COMPOUND_CLASS: N/A
CH$FORMULA: C9H7NO
CH$EXACT_MASS: 145.05276
CH$SMILES: Oc(c1)c(c2)c(ccc2)nc1
CH$IUPAC: InChI=1S/C9H7NO/c11-9-5-6-10-8-4-2-1-3-7(8)9/h1-6H,(H,10,11)
CH$LINK: CAS 611-36-9
CH$LINK: CHEBI CHEBI:15815
CH$LINK: KEGG C06343
CH$LINK: NIKKAJI J7.017C
CH$LINK: PUBCHEM CID:69141
CH$LINK: INCHIKEY PMZDQRJGMBOQBF-UHFFFAOYSA-N
CH$LINK: COMPTOX DTXSID50209980
AC$INSTRUMENT: API3000, Applied Biosystems
AC$INSTRUMENT_TYPE: LC-ESI-QQ
AC$MASS_SPECTROMETRY: MS_TYPE MS2
AC$MASS_SPECTROMETRY: ION_MODE NEGATIVE
AC$MASS_SPECTROMETRY: COLLISION_ENERGY 50 V
MS$FOCUSED_ION: PRECURSOR_M/Z 144
MS$FOCUSED_ION: PRECURSOR_TYPE [M-H]-
PK$SPLASH: splash10-014i-9000000000-9b99073557d73122de3c
PK$NUM_PEAK: 2
PK$PEAK: m/z int. rel.int.
  66.100 133663.5 999
  92.700 24752.5 185
//
