ACCESSION: MSBNK-Keio_Univ-KO001374
RECORD_TITLE: Milrinone; LC-ESI-QQ; MS2; CE:10 V; [M-H]-
DATE: 2016.01.19 (Created 2007.07.07, modified 2011.05.10)
AUTHORS: Kakazu Y, Horai H, Institute for Advanced Biosciences, Keio Univ.
LICENSE: CC BY-NC-SA
COMMENT: KEIO_ID M037
CH$NAME: Milrinone
CH$COMPOUND_CLASS: N/A
CH$FORMULA: C12H9N3O
CH$EXACT_MASS: 211.07456
CH$SMILES: N#CC(C(=O)2)=CC(=C(C)N2)c(c1)ccnc1
CH$IUPAC: InChI=1S/C12H9N3O/c1-8-11(9-2-4-14-5-3-9)6-10(7-13)12(16)15-8/h2-6H,1H3,(H,15,16)
CH$LINK: CAS 78415-72-2
CH$LINK: KEGG C07224
CH$LINK: NIKKAJI J23.655A
CH$LINK: PUBCHEM CID:4197
CH$LINK: INCHIKEY PZRHRDRVRGEVNW-UHFFFAOYSA-N
CH$LINK: COMPTOX DTXSID5023324
AC$INSTRUMENT: API3000, Applied Biosystems
AC$INSTRUMENT_TYPE: LC-ESI-QQ
AC$MASS_SPECTROMETRY: MS_TYPE MS2
AC$MASS_SPECTROMETRY: ION_MODE NEGATIVE
AC$MASS_SPECTROMETRY: COLLISION_ENERGY 10 V
MS$FOCUSED_ION: PRECURSOR_M/Z 210
MS$FOCUSED_ION: PRECURSOR_TYPE [M-H]-
PK$SPLASH: splash10-03di-0090000000-1894d0a48fc2ccb74718
PK$NUM_PEAK: 12
PK$PEAK: m/z int. rel.int.
  87.000 24752.5 1
  127.900 351485.5 6
  134.200 49505.0 1
  137.400 54455.5 1
  150.400 29703.0 1
  166.600 29703.0 1
  172.400 34653.5 1
  173.300 14851.5 1
  177.200 237624.0 4
  178.400 722773.0 12
  210.100 59544614.0 999
  210.500 10316842.0 173
//
