ACCESSION: MSBNK-Keio_Univ-KO003377
RECORD_TITLE: Metronidazole; LC-ESI-QQ; MS2; CE:10 V; [M+H]+
DATE: 2016.01.19 (Created 2007.09.04, modified 2011.05.10)
AUTHORS: Kakazu Y, Horai H, Institute for Advanced Biosciences, Keio Univ.
LICENSE: CC BY-NC-SA
COMMENT: KEIO_ID M033
CH$NAME: Metronidazole
CH$COMPOUND_CLASS: N/A
CH$FORMULA: C6H9N3O3
CH$EXACT_MASS: 171.06439
CH$SMILES: OCCn(c(C)1)c(cn1)[N+1]([O-1])=O
CH$IUPAC: InChI=1S/C6H9N3O3/c1-5-7-4-6(9(11)12)8(5)2-3-10/h4,10H,2-3H2,1H3
CH$LINK: KEGG D00409
CH$LINK: INCHIKEY VAOCPAMSLUNLGC-UHFFFAOYSA-N
CH$LINK: COMPTOX DTXSID2020892
AC$INSTRUMENT: API3000, Applied Biosystems
AC$INSTRUMENT_TYPE: LC-ESI-QQ
AC$MASS_SPECTROMETRY: MS_TYPE MS2
AC$MASS_SPECTROMETRY: ION_MODE POSITIVE
AC$MASS_SPECTROMETRY: COLLISION_ENERGY 10 V
MS$FOCUSED_ION: PRECURSOR_M/Z 172
MS$FOCUSED_ION: PRECURSOR_TYPE [M+H]+
PK$SPLASH: splash10-00di-0900000000-ec181c008a10dac8040b
PK$NUM_PEAK: 33
PK$PEAK: m/z int. rel.int.
  50.100 693070.0 20
  64.000 44554.5 1
  68.100 618812.5 18
  75.800 64356.5 2
  80.900 381188.5 11
  82.100 975248.5 29
  84.200 29703.0 1
  84.700 29703.0 1
  90.800 24752.5 1
  93.100 69307.0 2
  95.100 74257.5 2
  96.800 39604.0 1
  99.100 49505.0 1
  100.100 39604.0 1
  100.300 24752.5 1
  105.300 39604.0 1
  108.200 232673.5 7
  108.900 212871.5 6
  112.800 9901.0 1
  114.000 44554.5 1
  117.900 89109.0 3
  119.400 158416.0 5
  121.900 242574.5 7
  123.200 262376.5 8
  128.000 1579209.5 47
  130.800 44554.5 1
  135.700 34653.5 1
  136.300 39604.0 1
  137.300 2074259.5 61
  140.100 584159.0 17
  154.100 4396044.0 130
  155.100 4930698.0 146
  172.200 33826766.5 999
//
