ACCESSION: MSBNK-Keio_Univ-KO000733
RECORD_TITLE: 3-Ethoxybenzoic acid; LC-ESI-QQ; MS2; CE:50 V; [M-H]-
DATE: 2016.01.19 (Created 2007.07.07, modified 2011.05.10)
AUTHORS: Kakazu Y, Horai H, Institute for Advanced Biosciences, Keio Univ.
LICENSE: CC BY-NC-SA
COMMENT: KEIO_ID E026
CH$NAME: 3-Ethoxybenzoate
CH$NAME: 3-Ethoxybenzoic acid
CH$COMPOUND_CLASS: N/A
CH$FORMULA: C9H10O3
CH$EXACT_MASS: 166.06299
CH$SMILES: CCOc(c1)cc(cc1)C(O)=O
CH$IUPAC: InChI=1S/C9H10O3/c1-2-12-8-5-3-4-7(6-8)9(10)11/h3-6H,2H2,1H3,(H,10,11)
CH$LINK: CAS 621-51-2
CH$LINK: CHEBI CHEBI:27990
CH$LINK: KEGG C02363
CH$LINK: NIKKAJI J100.252J
CH$LINK: PUBCHEM CID:12126
CH$LINK: INCHIKEY DTFQMPQJMDEWKJ-UHFFFAOYSA-N
CH$LINK: COMPTOX DTXSID80211152
AC$INSTRUMENT: API3000, Applied Biosystems
AC$INSTRUMENT_TYPE: LC-ESI-QQ
AC$MASS_SPECTROMETRY: MS_TYPE MS2
AC$MASS_SPECTROMETRY: ION_MODE NEGATIVE
AC$MASS_SPECTROMETRY: COLLISION_ENERGY 50 V
MS$FOCUSED_ION: PRECURSOR_M/Z 165
MS$FOCUSED_ION: PRECURSOR_TYPE [M-H]-
PK$SPLASH: splash10-0006-9000000000-94d422fc2b3e6ae9a4f5
PK$NUM_PEAK: 4
PK$PEAK: m/z int. rel.int.
  59.100 24752.5 23
  74.900 133663.5 126
  78.600 19802.0 19
  92.200 1059407.0 999
//
