ACCESSION: MSBNK-Keio_Univ-KO004010
RECORD_TITLE: Semicarbazide; LC-ESI-QQ; MS2; CE:40 V; [M+H]+
DATE: 2016.01.19 (Created 2007.07.07, modified 2011.05.10)
AUTHORS: Kakazu Y, Horai H, Institute for Advanced Biosciences, Keio Univ.
LICENSE: CC BY-NC-SA
COMMENT: KEIO_ID S034
CH$NAME: Semicarbazide
CH$NAME: Carbamoylhydrazine
CH$NAME: Aminourea
CH$NAME: Hydrazinecarboxamide
CH$COMPOUND_CLASS: N/A
CH$FORMULA: CH5N3O
CH$EXACT_MASS: 75.04326
CH$SMILES: NC(=O)NN
CH$IUPAC: InChI=1S/CH5N3O/c2-1(5)4-3/h3H2,(H3,2,4,5)
CH$LINK: CAS 57-56-7
CH$LINK: KEGG C02077
CH$LINK: NIKKAJI J4.582I
CH$LINK: PUBCHEM SID:5163
CH$LINK: INCHIKEY DUIOPKIIICUYRZ-UHFFFAOYSA-N
CH$LINK: COMPTOX DTXSID7043823
AC$INSTRUMENT: API3000, Applied Biosystems
AC$INSTRUMENT_TYPE: LC-ESI-QQ
AC$MASS_SPECTROMETRY: MS_TYPE MS2
AC$MASS_SPECTROMETRY: ION_MODE POSITIVE
AC$MASS_SPECTROMETRY: COLLISION_ENERGY 40 V
MS$FOCUSED_ION: PRECURSOR_M/Z 76
MS$FOCUSED_ION: PRECURSOR_TYPE [M+H]+
PK$SPLASH: splash10-00xr-9000000000-fb6b15e586c2983bf9d5
PK$NUM_PEAK: 7
PK$PEAK: m/z int. rel.int.
  19.300 39604.0 571
  23.100 69307.0 999
  29.700 24752.5 357
  31.400 29703.0 428
  40.100 24752.5 357
  65.400 19802.0 285
  102.800 9901.0 143
//
