ACCESSION: MSBNK-Keio_Univ-KO001364
RECORD_TITLE: Maleic acid; LC-ESI-QQ; MS2; CE:40 V; [M-H]-
DATE: 2016.01.19 (Created 2007.07.07, modified 2011.05.10)
AUTHORS: Kakazu Y, Horai H, Institute for Advanced Biosciences, Keio Univ.
LICENSE: CC BY-NC-SA
COMMENT: KEIO_ID M026
CH$NAME: Maleate
CH$NAME: cis-Butenedioic acid
CH$NAME: Maleic acid
CH$COMPOUND_CLASS: N/A
CH$FORMULA: C4H4O4
CH$EXACT_MASS: 116.01096
CH$SMILES: C(=C\C(=O)O)\C(=O)O
CH$IUPAC: InChI=1S/C4H4O4/c5-3(6)1-2-4(7)8/h1-2H,(H,5,6)(H,7,8)/b2-1-
CH$LINK: CAS 110-16-7
CH$LINK: CHEBI CHEBI:18300
CH$LINK: CHEMPDB MAE
CH$LINK: KEGG C01384
CH$LINK: NIKKAJI J2.446E
CH$LINK: PUBCHEM CID:444266
CH$LINK: INCHIKEY VZCYOOQTPOCHFL-UPHRSURJSA-N
CH$LINK: COMPTOX DTXSID8021517
AC$INSTRUMENT: API3000, Applied Biosystems
AC$INSTRUMENT_TYPE: LC-ESI-QQ
AC$MASS_SPECTROMETRY: MS_TYPE MS2
AC$MASS_SPECTROMETRY: ION_MODE NEGATIVE
AC$MASS_SPECTROMETRY: COLLISION_ENERGY 40 V
MS$FOCUSED_ION: PRECURSOR_M/Z 115
MS$FOCUSED_ION: PRECURSOR_TYPE [M-H]-
PK$SPLASH: splash10-00di-9000000000-f344fe84d76f2bf06f91
PK$NUM_PEAK: 2
PK$PEAK: m/z int. rel.int.
  27.300 84158.5 274
  70.900 306931.0 999
//
