ACCESSION: MSBNK-Keio_Univ-KO000809
RECORD_TITLE: D-Glucose 6-phosphate; LC-ESI-QQ; MS2; CE:10 V; [M-H]-
DATE: 2016.01.19 (Created 2007.07.07, modified 2011.05.10)
AUTHORS: Kakazu Y, Horai H, Institute for Advanced Biosciences, Keio Univ.
LICENSE: CC BY-NC-SA
COMMENT: KEIO_ID G003
CH$NAME: Glucose 6-phosphate
CH$NAME: D-Glucose 6-phosphate
CH$NAME: Robison ester
CH$COMPOUND_CLASS: N/A
CH$FORMULA: C6H13O9P
CH$EXACT_MASS: 260.02972
CH$SMILES: OC(O1)[C@H](O)[C@@H](O)[C@H](O)[C@H]1COP(O)(O)=O
CH$IUPAC: InChI=1S/C6H13O9P/c7-3-2(1-14-16(11,12)13)15-6(10)5(9)4(3)8/h2-10H,1H2,(H2,11,12,13)/t2-,3-,4+,5-,6?/m1/s1
CH$LINK: CAS 56-73-5
CH$LINK: CHEBI CHEBI:15954
CH$LINK: KEGG C00092
CH$LINK: NIKKAJI J40.066A J166.116G
CH$LINK: PUBCHEM CID:5958
CH$LINK: INCHIKEY NBSCHQHZLSJFNQ-GASJEMHNSA-N
AC$INSTRUMENT: API3000, Applied Biosystems
AC$INSTRUMENT_TYPE: LC-ESI-QQ
AC$MASS_SPECTROMETRY: MS_TYPE MS2
AC$MASS_SPECTROMETRY: ION_MODE NEGATIVE
AC$MASS_SPECTROMETRY: COLLISION_ENERGY 10 V
MS$FOCUSED_ION: PRECURSOR_M/Z 259
MS$FOCUSED_ION: PRECURSOR_TYPE [M-H]-
PK$SPLASH: splash10-0a4i-0090000000-d6e539d78b38c01dafea
PK$NUM_PEAK: 22
PK$PEAK: m/z int. rel.int.
  59.100 420792.5 3
  78.800 54455.5 1
  86.700 19802.0 1
  93.300 24752.5 1
  96.900 13371300.5 107
  114.700 14851.5 1
  138.700 351485.5 3
  141.200 64356.5 1
  142.000 54455.5 1
  143.300 74257.5 1
  158.600 9901.0 1
  161.100 905941.5 7
  169.100 1029704.0 8
  183.500 89109.0 1
  199.200 3361389.5 27
  212.600 34653.5 1
  215.400 69307.0 1
  221.100 19802.0 1
  222.800 217822.0 2
  227.100 29703.0 1
  241.600 158416.0 1
  259.100 124935768.5 999
//
