ACCESSION: MSBNK-Keio_Univ-KO003514
RECORD_TITLE: N6-Methyl-2'-deoxyadenosine; LC-ESI-QQ; MS2; CE:30 V; [M+H]+
DATE: 2016.01.19 (Created 2007.07.07, modified 2011.05.10)
AUTHORS: Kakazu Y, Horai H, Institute for Advanced Biosciences, Keio Univ.
LICENSE: CC BY-NC-SA
COMMENT: KEIO_ID M110
CH$NAME: N6-Methyl-2'-deoxyadenosine
CH$COMPOUND_CLASS: N/A
CH$FORMULA: C11H15N5O3
CH$EXACT_MASS: 265.11749
CH$SMILES: OCC(O1)C(O)CC1n(c3)c(n2)c(n3)c(NC)nc2
CH$IUPAC: InChI=1S/C11H15N5O3/c1-12-10-9-11(14-4-13-10)16(5-15-9)8-2-6(18)7(3-17)19-8/h4-8,17-18H,2-3H2,1H3,(H,12,13,14)/t6-,7+,8+/m0/s1
CH$LINK: CAS 2002-35-9
CH$LINK: KEGG C03795
CH$LINK: PUBCHEM CID:168948
CH$LINK: INCHIKEY DYSDOYRQWBDGQQ-XLPZGREQSA-N
CH$LINK: COMPTOX DTXSID60173840
AC$INSTRUMENT: API3000, Applied Biosystems
AC$INSTRUMENT_TYPE: LC-ESI-QQ
AC$MASS_SPECTROMETRY: MS_TYPE MS2
AC$MASS_SPECTROMETRY: ION_MODE POSITIVE
AC$MASS_SPECTROMETRY: COLLISION_ENERGY 30 V
MS$FOCUSED_ION: PRECURSOR_M/Z 266
MS$FOCUSED_ION: PRECURSOR_TYPE [M+H]+
PK$SPLASH: splash10-0udi-1900000000-18e10ecfe4e4b8a08ab2
PK$NUM_PEAK: 40
PK$PEAK: m/z int. rel.int.
  43.000 485149.0 3
  44.900 524753.0 3
  53.300 79208.0 1
  55.000 128713.0 1
  57.300 722773.0 4
  60.000 24752.5 1
  69.100 2252477.5 12
  71.100 5074262.5 28
  73.000 8886147.5 49
  74.900 346535.0 2
  79.000 188119.0 1
  81.100 2405943.0 13
  84.300 89109.0 1
  85.000 282178.5 2
  87.100 49505.0 1
  89.000 54455.5 1
  91.400 44554.5 1
  93.000 54455.5 1
  94.100 386139.0 2
  96.300 34653.5 1
  98.900 14009915.0 77
  101.300 94059.5 1
  102.700 9901.0 1
  109.200 64356.5 1
  111.200 94059.5 1
  116.500 222772.5 1
  117.000 22717844.5 125
  123.300 900991.0 5
  128.200 34653.5 1
  133.100 94059.5 1
  134.200 29703.0 1
  136.800 34653.5 1
  147.800 39604.0 1
  148.400 74257.5 1
  150.200 182064538.5 999
  175.500 14851.5 1
  181.400 29703.0 1
  203.700 9901.0 1
  209.000 34653.5 1
  266.400 198020.0 1
//
