ACCESSION: MSBNK-Keio_Univ-KO001957
RECORD_TITLE: Taurolithocholic acid; LC-ESI-QQ; MS2; CE:50 V; [M-H]-
DATE: 2016.01.19 (Created 2010.02.10, modified 2012.10.22)
AUTHORS: Kakazu Y, Horai H, Institute for Advanced Biosciences, Keio Univ.
LICENSE: CC BY-NC-SA
COMMENT: KEIO_ID T072
CH$NAME: Taurolithocholic acid
CH$COMPOUND_CLASS: N/A
CH$FORMULA: C26H45NO5S
CH$EXACT_MASS: 483.30184
CH$SMILES: C(C4O)CC(C1([H])2)(C([H])(C4)CCC1(C([H])(C3)C(C)(C([H])(C(C)CCC(=O)NCCS(O)(=O)=O)C3)CC2)[H])C
CH$IUPAC: InChI=1S/C26H45NO5S/c1-17(4-9-24(29)27-14-15-33(30,31)32)21-7-8-22-20-6-5-18-16-19(28)10-12-25(18,2)23(20)11-13-26(21,22)3/h17-23,28H,4-16H2,1-3H3,(H,27,29)(H,30,31,32)/t17-,18-,19-,20+,21-,22+,23+,25+,26-/m1/s1
CH$LINK: KEGG C03642
CH$LINK: INCHIKEY QBYUNVOYXHFVKC-GBURMNQMSA-N
CH$LINK: COMPTOX DTXSID20965925
AC$INSTRUMENT: API3000, Applied Biosystems
AC$INSTRUMENT_TYPE: LC-ESI-QQ
AC$MASS_SPECTROMETRY: MS_TYPE MS2
AC$MASS_SPECTROMETRY: ION_MODE NEGATIVE
AC$MASS_SPECTROMETRY: COLLISION_ENERGY 50 V
MS$FOCUSED_ION: PRECURSOR_M/Z 482
MS$FOCUSED_ION: PRECURSOR_TYPE [M-H]-
PK$SPLASH: splash10-001i-0000900000-d19ccabdc3657936c20c
PK$NUM_PEAK: 14
PK$PEAK: m/z int. rel.int.
  78.700 59406.0 2
  79.600 29703.0 1
  80.300 14851.5 1
  92.600 14851.5 1
  97.300 99010.0 3
  107.200 113861.5 3
  124.300 212871.5 6
  130.700 14851.5 1
  136.500 19802.0 1
  189.400 14851.5 1
  416.700 29703.0 1
  418.600 29703.0 1
  481.700 282178.5 8
  482.600 35292114.5 999
//
