ACCESSION: MSBNK-Keio_Univ-KO003177
RECORD_TITLE: Isopropanolamine; LC-ESI-QQ; MS2; CE:10 V; [M+H]+
DATE: 2016.01.19 (Created 2007.07.07, modified 2011.05.10)
AUTHORS: Kakazu Y, Horai H, Institute for Advanced Biosciences, Keio Univ.
LICENSE: CC BY-NC-SA
COMMENT: KEIO_ID I011
CH$NAME: Isopropanolamine
CH$NAME: (R)-1-Aminopropan-2-ol
CH$NAME: (R)-1-Amino-2-propanol
CH$COMPOUND_CLASS: N/A
CH$FORMULA: C3H9NO
CH$EXACT_MASS: 75.06841
CH$SMILES: NC[C@@H](C)O
CH$IUPAC: InChI=1S/C3H9NO/c1-3(5)2-4/h3,5H,2,4H2,1H3/t3-/m1/s1
CH$LINK: CAS 2799-16-8
CH$LINK: CHEBI CHEBI:15675
CH$LINK: KEGG C03194
CH$LINK: NIKKAJI J9.255J
CH$LINK: PUBCHEM CID:439938
CH$LINK: INCHIKEY HXKKHQJGJAFBHI-GSVOUGTGSA-N
AC$INSTRUMENT: API3000, Applied Biosystems
AC$INSTRUMENT_TYPE: LC-ESI-QQ
AC$MASS_SPECTROMETRY: MS_TYPE MS2
AC$MASS_SPECTROMETRY: ION_MODE POSITIVE
AC$MASS_SPECTROMETRY: COLLISION_ENERGY 10 V
MS$FOCUSED_ION: PRECURSOR_M/Z 76
MS$FOCUSED_ION: PRECURSOR_TYPE [M+H]+
PK$SPLASH: splash10-004i-9000000000-3103a154ecdae59632d2
PK$NUM_PEAK: 5
PK$PEAK: m/z int. rel.int.
  41.100 405941.0 4
  42.900 14851.5 1
  58.100 50252525.5 439
  59.200 777228.5 7
  76.100 114396154.0 999
//
