ACCESSION: MSBNK-Keio_Univ-KO000569
RECORD_TITLE: Dichloroacetic acid; LC-ESI-QQ; MS2; CE:10 V; [M-H]-
DATE: 2016.01.19 (Created 2007.07.07, modified 2011.05.10)
AUTHORS: Kakazu Y, Horai H, Institute for Advanced Biosciences, Keio Univ.
LICENSE: CC BY-NC-SA
COMMENT: KEIO_ID D034
CH$NAME: Dichloroacetate
CH$NAME: Dichloroacetic acid
CH$COMPOUND_CLASS: N/A
CH$FORMULA: C2H2Cl2O2
CH$EXACT_MASS: 127.94318
CH$SMILES: OC(=O)C(Cl)Cl
CH$IUPAC: InChI=1S/C2H2Cl2O2/c3-1(4)2(5)6/h1H,(H,5,6)
CH$LINK: CAS 79-43-6
CH$LINK: KEGG C11149
CH$LINK: NIKKAJI J2.834G
CH$LINK: PUBCHEM SID:13331
CH$LINK: INCHIKEY JXTHNDFMNIQAHM-UHFFFAOYSA-N
CH$LINK: COMPTOX DTXSID2020428
AC$INSTRUMENT: API3000, Applied Biosystems
AC$INSTRUMENT_TYPE: LC-ESI-QQ
AC$MASS_SPECTROMETRY: MS_TYPE MS2
AC$MASS_SPECTROMETRY: ION_MODE NEGATIVE
AC$MASS_SPECTROMETRY: COLLISION_ENERGY 10 V
MS$FOCUSED_ION: PRECURSOR_M/Z 127
MS$FOCUSED_ION: PRECURSOR_TYPE [M-H]-
PK$SPLASH: splash10-0059-6900000000-9d33b2f109bd8208b818
PK$NUM_PEAK: 10
PK$PEAK: m/z int. rel.int.
  35.000 44554.5 1
  45.000 163366.5 4
  59.100 153465.5 4
  68.900 103960.5 2
  70.800 321782.5 7
  82.900 27846562.5 644
  89.200 252475.5 6
  91.000 44554.5 1
  93.900 49505.0 1
  126.800 43173310.5 999
//
