ACCESSION: MSBNK-Keio_Univ-KO002581
RECORD_TITLE: Chlorogenic acid; LC-ESI-QQ; MS2; CE:50 V; [M+H]+
DATE: 2016.01.19 (Created 2007.07.07, modified 2011.05.10)
AUTHORS: Kakazu Y, Horai H, Institute for Advanced Biosciences, Keio Univ.
LICENSE: CC BY-NC-SA
COMMENT: KEIO_ID C063
CH$NAME: Chlorogenate
CH$NAME: Chlorogenic acid
CH$COMPOUND_CLASS: N/A
CH$FORMULA: C16H18O9
CH$EXACT_MASS: 354.09508
CH$SMILES: C1[C@H]([C@H]([C@@H](C[C@@]1(C(=O)O)O)OC(=O)/C=C/C2=CC(=C(C=C2)O)O)O)O
CH$IUPAC: InChI=1S/C16H18O9/c17-9-3-1-8(5-10(9)18)2-4-13(20)25-12-7-16(24,15(22)23)6-11(19)14(12)21/h1-5,11-12,14,17-19,21,24H,6-7H2,(H,22,23)/b4-2+/t11-,12-,14-,16+/m1/s1
CH$LINK: CAS 327-97-9
CH$LINK: CHEBI CHEBI:16112
CH$LINK: CHEMBL CHEMBL284616
CH$LINK: CHEMSPIDER 1405788
CH$LINK: INCHIKEY CWVRJTMFETXNAD-JUHZACGLSA-N
CH$LINK: KEGG C00852
CH$LINK: NIKKAJI J108.009A
CH$LINK: PUBCHEM CID:1794427
AC$INSTRUMENT: API3000, Applied Biosystems
AC$INSTRUMENT_TYPE: LC-ESI-QQ
AC$MASS_SPECTROMETRY: MS_TYPE MS2
AC$MASS_SPECTROMETRY: ION_MODE POSITIVE
AC$MASS_SPECTROMETRY: COLLISION_ENERGY 50 V
MS$FOCUSED_ION: PRECURSOR_M/Z 355
MS$FOCUSED_ION: PRECURSOR_TYPE [M+H]+
PK$SPLASH: splash10-00li-2900000000-2e3ac9f64136b977e2f7
PK$NUM_PEAK: 10
PK$PEAK: m/z int. rel.int.
  68.900 19802.0 60
  84.400 173267.5 522
  88.900 108911.0 328
  117.200 267327.0 805
  130.100 69307.0 209
  135.200 331683.5 999
  145.400 193069.5 582
  146.900 19802.0 60
  163.400 202970.5 611
  180.900 9901.0 30
//
