ACCESSION: MSBNK-Keio_Univ-KO009170
RECORD_TITLE: Prazosin; LC-ESI-IT; MS3; m/z: 384/231; [M+H]+
DATE: 2011.12.05 (Created 2008.05.12)
AUTHORS: Ojima Y, Kakazu Y, Horai H, Soga T, Institute for Advanced Biosciences, Keio Univ.
LICENSE: CC BY-NC-SA
COMMENT: KEIO_ID P191
COMMENT: [MS2] KO009165
CH$NAME: Prazosin
CH$COMPOUND_CLASS: N/A
CH$FORMULA: C19H21N5O4
CH$EXACT_MASS: 383.15935
CH$SMILES: COc(c1)c(OC)cc(c(N)4)c1nc(n4)N(C3)CCN(C3)C(=O)c(c2)occ2
CH$IUPAC: InChI=1S/C19H21N5O4/c1-26-15-10-12-13(11-16(15)27-2)21-19(22-17(12)20)24-7-5-23(6-8-24)18(25)14-4-3-9-28-14/h3-4,9-11H,5-8H2,1-2H3,(H2,20,21,22)
CH$LINK: CAS 19216-56-9
CH$LINK: KEGG C07368
CH$LINK: NIKKAJI J10.000E
CH$LINK: PUBCHEM CID:4893
CH$LINK: INCHIKEY IENZQIKPVFGBNW-UHFFFAOYSA-N
CH$LINK: COMPTOX DTXSID4049082
AC$INSTRUMENT: LC/MSD Trap XCT, Agilent Technologies
AC$INSTRUMENT_TYPE: LC-ESI-IT
AC$MASS_SPECTROMETRY: MS_TYPE MS3
AC$MASS_SPECTROMETRY: ION_MODE POSITIVE
AC$MASS_SPECTROMETRY: COLLISION_ENERGY 1.00/0.70
MS$FOCUSED_ION: PRECURSOR_M/Z 384/231
MS$FOCUSED_ION: PRECURSOR_TYPE [M+H]+
MS$DATA_PROCESSING: WHOLE LC/MSD Trap Control and Data Analysis
PK$SPLASH: splash10-001i-0290000000-f2792ecb732abcd8286f
PK$NUM_PEAK: 14
PK$PEAK: m/z int. rel.int.
  156.9 28.00 136
  161.1 5.92 29
  185.1 30.59 149
  187.1 3.39 17
  188.1 3.50 17
  189.0 10.75 52
  203.1 0.92 4
  204.2 22.48 110
  206.2 1.82 9
  212.0 3.17 15
  213.2 16.72 81
  229.0 1.08 5
  231.1 205.08 999
  248.0 7.25 35
//
