ACCESSION: MSBNK-Keio_Univ-KO000558
RECORD_TITLE: Glycerone phosphate; LC-ESI-QQ; MS2; CE:50 V; [M-H]-
DATE: 2016.01.19 (Created 2007.07.07, modified 2011.05.10)
AUTHORS: Kakazu Y, Horai H, Institute for Advanced Biosciences, Keio Univ.
LICENSE: CC BY-NC-SA
COMMENT: KEIO_ID D014
CH$NAME: Dihydroxyacetone phosphate
CH$NAME: Glycerone phosphate
CH$COMPOUND_CLASS: N/A
CH$FORMULA: C3H7O6P
CH$EXACT_MASS: 169.99802
CH$SMILES: OCC(=O)COP(O)(O)=O
CH$IUPAC: InChI=1S/C3H7O6P/c4-1-3(5)2-9-10(6,7)8/h4H,1-2H2,(H2,6,7,8)
CH$LINK: CHEBI CHEBI:16108
CH$LINK: KEGG C00111
CH$LINK: PUBCHEM SID:3411
CH$LINK: INCHIKEY GNGACRATGGDKBX-UHFFFAOYSA-N
CH$LINK: COMPTOX DTXSID6058768
AC$INSTRUMENT: API3000, Applied Biosystems
AC$INSTRUMENT_TYPE: LC-ESI-QQ
AC$MASS_SPECTROMETRY: MS_TYPE MS2
AC$MASS_SPECTROMETRY: ION_MODE NEGATIVE
AC$MASS_SPECTROMETRY: COLLISION_ENERGY 50 V
MS$FOCUSED_ION: PRECURSOR_M/Z 169
MS$FOCUSED_ION: PRECURSOR_TYPE [M-H]-
PK$SPLASH: splash10-004i-9000000000-517dcdb0a35f00b4b491
PK$NUM_PEAK: 2
PK$PEAK: m/z int. rel.int.
  69.400 44554.5 9
  79.100 4955450.5 999
//
