ACCESSION: MSBNK-Keio_Univ-KO004172
RECORD_TITLE: Tolmetin; LC-ESI-QQ; MS2; CE:20 V; [M+H]+
DATE: 2016.01.19 (Created 2007.07.07, modified 2011.05.10)
AUTHORS: Kakazu Y, Horai H, Institute for Advanced Biosciences, Keio Univ.
LICENSE: CC BY-NC-SA
COMMENT: KEIO_ID T044
CH$NAME: Tolmetin
CH$COMPOUND_CLASS: N/A
CH$FORMULA: C15H15NO3
CH$EXACT_MASS: 257.10519
CH$SMILES: OC(=O)Cc(c2)n(C)c(c2)C(=O)c(c1)ccc(C)c1
CH$IUPAC: InChI=1S/C15H15NO3/c1-10-3-5-11(6-4-10)15(19)13-8-7-12(16(13)2)9-14(17)18/h3-8H,9H2,1-2H3,(H,17,18)
CH$LINK: CAS 26171-23-3
CH$LINK: KEGG C07149
CH$LINK: NIKKAJI J20.519B
CH$LINK: PUBCHEM SID:9358
CH$LINK: INCHIKEY UPSPUYADGBWSHF-UHFFFAOYSA-N
CH$LINK: COMPTOX DTXSID2043951
AC$INSTRUMENT: API3000, Applied Biosystems
AC$INSTRUMENT_TYPE: LC-ESI-QQ
AC$MASS_SPECTROMETRY: MS_TYPE MS2
AC$MASS_SPECTROMETRY: ION_MODE POSITIVE
AC$MASS_SPECTROMETRY: COLLISION_ENERGY 20 V
MS$FOCUSED_ION: PRECURSOR_M/Z 258
MS$FOCUSED_ION: PRECURSOR_TYPE [M+H]+
PK$SPLASH: splash10-014i-0910000000-7cb6eb9d5a42f35eb4bc
PK$NUM_PEAK: 44
PK$PEAK: m/z int. rel.int.
  68.900 24752.5 1
  71.000 34653.5 1
  72.900 59406.0 1
  78.000 59406.0 1
  83.300 69307.0 1
  84.700 29703.0 1
  85.300 34653.5 1
  87.000 594060.0 4
  89.300 44554.5 1
  91.100 673268.0 5
  94.100 2287131.0 16
  96.900 84158.5 1
  98.700 79208.0 1
  104.600 84158.5 1
  106.800 44554.5 1
  109.400 212871.5 1
  111.200 89109.0 1
  119.100 142188261.0 999
  121.300 19802.0 1
  122.200 74257.5 1
  125.100 44554.5 1
  126.200 24752.5 1
  126.700 14851.5 1
  134.900 39604.0 1
  137.100 34653.5 1
  141.700 29703.0 1
  153.100 24752.5 1
  165.100 24752.5 1
  166.300 1118813.0 8
  167.800 29703.0 1
  170.100 34653.5 1
  185.500 29703.0 1
  191.200 9901.0 1
  194.000 54455.5 1
  196.100 44554.5 1
  198.000 24752.5 1
  198.900 19802.0 1
  205.100 113861.5 1
  212.300 252475.5 2
  223.400 316832.0 2
  225.500 39604.0 1
  240.500 64356.5 1
  241.500 193069.5 1
  258.400 18079226.0 127
//
