ACCESSION: MSBNK-Keio_Univ-KO003694
RECORD_TITLE: 2-Phosphoglycerate; LC-ESI-QQ; MS2; CE:50 V; [M+H]+
DATE: 2016.01.19 (Created 2007.07.07, modified 2012.05.21)
AUTHORS: Kakazu Y, Horai H, Institute for Advanced Biosciences, Keio Univ.
LICENSE: CC BY-NC-SA
COMMENT: KEIO_ID P029
CH$NAME: 2-Phosphoglycerate
CH$NAME: 2-Phospho-D-glycerate
CH$NAME: D-Glycerate 2-phosphate
CH$COMPOUND_CLASS: N/A
CH$FORMULA: C3H7O7P
CH$EXACT_MASS: 185.99294
CH$SMILES: OC[C@H](C(O)=O)OP(O)(O)=O
CH$IUPAC: InChI=1S/C3H7O7P/c4-1-2(3(5)6)10-11(7,8)9/h2,4H,1H2,(H,5,6)(H2,7,8,9)/t2-/m1/s1
CH$LINK: CHEBI CHEBI:17835
CH$LINK: KEGG C00631
CH$LINK: PUBCHEM CID:439278
CH$LINK: INCHIKEY GXIURPTVHJPJLF-UWTATZPHSA-N
AC$INSTRUMENT: API3000, Applied Biosystems
AC$INSTRUMENT_TYPE: LC-ESI-QQ
AC$MASS_SPECTROMETRY: MS_TYPE MS2
AC$MASS_SPECTROMETRY: ION_MODE POSITIVE
AC$MASS_SPECTROMETRY: COLLISION_ENERGY 50 V
MS$FOCUSED_ION: PRECURSOR_M/Z 187
MS$FOCUSED_ION: PRECURSOR_TYPE [M+H]+
PK$SPLASH: splash10-001m-9000000000-39cdf9729f381069e45f
PK$NUM_PEAK: 3
PK$PEAK: m/z int. rel.int.
  43.800 24752.5 500
  80.700 49505.0 999
  98.800 39604.0 799
//
