ACCESSION: MSBNK-Keio_Univ-KO004013
RECORD_TITLE: Scopolamine; LC-ESI-QQ; MS2; CE:20 V; [M+H]+
DATE: 2016.01.19 (Created 2007.07.07, modified 2011.05.10)
AUTHORS: Kakazu Y, Horai H, Institute for Advanced Biosciences, Keio Univ.
LICENSE: CC BY-NC-SA
COMMENT: KEIO_ID S040
CH$NAME: Scopolamine
CH$COMPOUND_CLASS: N/A
CH$FORMULA: C17H21NO4
CH$EXACT_MASS: 303.14706
CH$SMILES: OCC(c(c4)cccc4)C(=O)OC(C2)CC(N(C)3)C(O1)C1C23
CH$IUPAC: InChI=1S/C17H21NO4/c1-18-13-7-11(8-14(18)16-15(13)22-16)21-17(20)12(9-19)10-5-3-2-4-6-10/h2-6,11-16,19H,7-9H2,1H3/t11-,12-,13-,14+,15-,16+/m1/s1
CH$LINK: CAS 51-34-3
CH$LINK: CHEBI CHEBI:16794
CH$LINK: KEGG C01851
CH$LINK: NIKKAJI J47.151H
CH$LINK: PUBCHEM CID:153311
CH$LINK: INCHIKEY STECJAGHUSJQJN-FWXGHANASA-N
CH$LINK: COMPTOX DTXSID6023573
AC$INSTRUMENT: API3000, Applied Biosystems
AC$INSTRUMENT_TYPE: LC-ESI-QQ
AC$MASS_SPECTROMETRY: MS_TYPE MS2
AC$MASS_SPECTROMETRY: ION_MODE POSITIVE
AC$MASS_SPECTROMETRY: COLLISION_ENERGY 20 V
MS$FOCUSED_ION: PRECURSOR_M/Z 304
MS$FOCUSED_ION: PRECURSOR_TYPE [M+H]+
PK$SPLASH: splash10-0udi-0809000000-a686e4c768aedb57cf8e
PK$NUM_PEAK: 61
PK$PEAK: m/z int. rel.int.
  57.100 19802.0 1
  68.800 435644.0 1
  71.000 138614.0 1
  71.900 19802.0 1
  73.800 153465.5 1
  78.900 163366.5 1
  81.200 391089.5 1
  82.200 292079.5 1
  83.300 311881.5 1
  84.000 549505.5 1
  88.100 44554.5 1
  88.900 44554.5 1
  91.100 59406.0 1
  92.900 198020.0 1
  94.300 485149.0 1
  96.000 232673.5 1
  96.300 257426.0 1
  96.900 242574.5 1
  97.900 3891093.0 10
  100.000 39604.0 1
  103.100 1346536.0 4
  106.900 326733.0 1
  107.900 94059.5 1
  109.200 84158.5 1
  110.100 11529714.5 31
  111.200 9064365.5 24
  113.300 311881.5 1
  114.200 49505.0 1
  115.400 34653.5 1
  120.300 757426.5 2
  121.300 31653497.0 85
  124.500 29703.0 1
  127.200 84158.5 1
  128.900 19802.0 1
  131.200 173267.5 1
  136.100 49505.0 1
  138.200 140569447.5 379
  138.900 143564.5 1
  149.400 178218.0 1
  153.900 306931.0 1
  156.300 167490266.5 451
  168.500 24752.5 1
  173.300 29703.0 1
  175.100 69307.0 1
  185.900 34653.5 1
  191.300 34653.5 1
  192.500 19802.0 1
  194.000 183168.5 1
  196.300 44554.5 1
  199.300 2935646.5 8
  212.000 49505.0 1
  214.200 29703.0 1
  228.200 79208.0 1
  268.300 24752.5 1
  269.000 14851.5 1
  274.400 599010.5 2
  276.300 44554.5 1
  286.600 1094060.5 3
  287.000 108911.0 1
  302.600 29703.0 1
  304.600 370866707.5 999
//
