ACCESSION: MSBNK-Keio_Univ-KO009192
RECORD_TITLE: Phenazopyridine; LC-ESI-IT; MS3; m/z: 214/108; [M+H]+
DATE: 2011.12.05 (Created 2008.05.12)
AUTHORS: Ojima Y, Kakazu Y, Horai H, Soga T, Institute for Advanced Biosciences, Keio Univ.
LICENSE: CC BY-NC-SA
COMMENT: KEIO_ID P036
COMMENT: [MS2] KO009187
CH$NAME: Phenazopyridine
CH$NAME: 3-(Phenylazo)-2,6-pyridinediamine
CH$COMPOUND_CLASS: N/A
CH$FORMULA: C11H11N5
CH$EXACT_MASS: 213.10145
CH$SMILES: Nc(c2)nc(N)c(c2)N=Nc(c1)cccc1
CH$IUPAC: InChI=1S/C11H11N5/c12-10-7-6-9(11(13)14-10)16-15-8-4-2-1-3-5-8/h1-7H,(H4,12,13,14)/b16-15+
CH$LINK: CAS 94-78-0
CH$LINK: KEGG C07429
CH$LINK: NIKKAJI J4.703A
CH$LINK: PUBCHEM CID:4756
CH$LINK: INCHIKEY QPFYXYFORQJZEC-FOCLMDBBSA-N
AC$INSTRUMENT: LC/MSD Trap XCT, Agilent Technologies
AC$INSTRUMENT_TYPE: LC-ESI-IT
AC$MASS_SPECTROMETRY: MS_TYPE MS3
AC$MASS_SPECTROMETRY: ION_MODE POSITIVE
AC$MASS_SPECTROMETRY: COLLISION_ENERGY 0.80/0.45
MS$FOCUSED_ION: PRECURSOR_M/Z 214/108
MS$FOCUSED_ION: PRECURSOR_TYPE [M+H]+
MS$DATA_PROCESSING: WHOLE LC/MSD Trap Control and Data Analysis
PK$SPLASH: splash10-0a59-5900000000-1216a263d0350fc37c03
PK$NUM_PEAK: 4
PK$PEAK: m/z int. rel.int.
  80.0 3.14 19
  81.1 103.49 638
  108.0 162.15 999
  174.0 1.69 10
//
