ACCESSION: MSBNK-Keio_Univ-KO000026
RECORD_TITLE: L-Asparagine; LC-ESI-QQ; MS2; CE:30 V; [M-H]-
DATE: 2016.01.19 (Created 2007.07.07, modified 2011.05.10)
AUTHORS: Kakazu Y, Horai H, Institute for Advanced Biosciences, Keio Univ.
LICENSE: CC BY-NC-SA
COMMENT: KEIO_ID A016
CH$NAME: Asn
CH$NAME: L-Asparagine
CH$NAME: 2-Aminosuccinamic acid
CH$COMPOUND_CLASS: N/A
CH$FORMULA: C4H8N2O3
CH$EXACT_MASS: 132.05349
CH$SMILES: NC(=O)C[C@@H](N)C(O)=O
CH$IUPAC: InChI=1S/C4H8N2O3/c5-2(4(8)9)1-3(6)7/h2H,1,5H2,(H2,6,7)(H,8,9)/t2-/m0/s1
CH$LINK: CAS 70-47-3
CH$LINK: CHEBI CHEBI:17196
CH$LINK: CHEMPDB ASN
CH$LINK: KEGG C00152
CH$LINK: NIKKAJI J9.178B
CH$LINK: PUBCHEM SID:3452
CH$LINK: INCHIKEY DCXYFEDJOCDNAF-REOHCLBHSA-N
CH$LINK: COMPTOX DTXSID10883220
AC$INSTRUMENT: API3000, Applied Biosystems
AC$INSTRUMENT_TYPE: LC-ESI-QQ
AC$MASS_SPECTROMETRY: MS_TYPE MS2
AC$MASS_SPECTROMETRY: ION_MODE NEGATIVE
AC$MASS_SPECTROMETRY: COLLISION_ENERGY 30 V
MS$FOCUSED_ION: PRECURSOR_M/Z 131
MS$FOCUSED_ION: PRECURSOR_TYPE [M-H]-
PK$SPLASH: splash10-00dl-9100000000-2ea95ead344d62e230a4
PK$NUM_PEAK: 14
PK$PEAK: m/z int. rel.int.
  41.400 74257.5 46
  41.900 1623764.0 999
  58.100 772278.0 475
  59.600 14851.5 9
  70.100 1391090.5 856
  71.200 465347.0 286
  71.900 900991.0 554
  72.500 44554.5 27
  84.800 24752.5 15
  95.000 133663.5 82
  95.900 108911.0 67
  96.500 49505.0 30
  113.000 336634.0 207
  113.900 470297.5 289
//
