ACCESSION: MSBNK-Keio_Univ-KO002966
RECORD_TITLE: Gly-Gly; LC-ESI-QQ; MS2; CE:30 V; [M+H]+
DATE: 2016.01.19 (Created 2007.07.07, modified 2011.05.10)
AUTHORS: Kakazu Y, Horai H, Institute for Advanced Biosciences, Keio Univ.
LICENSE: CC BY-NC-SA
COMMENT: KEIO_ID G037
CH$NAME: Gly-Gly
CH$NAME: Glycylglycine
CH$COMPOUND_CLASS: N/A
CH$FORMULA: C4H8N2O3
CH$EXACT_MASS: 132.05349
CH$SMILES: NCC(=O)NCC(O)=O
CH$IUPAC: InChI=1S/C4H8N2O3/c5-1-3(7)6-2-4(8)9/h1-2,5H2,(H,6,7)(H,8,9)
CH$LINK: CAS 556-50-3
CH$LINK: CHEBI CHEBI:17201
CH$LINK: KEGG C02037
CH$LINK: NIKKAJI J2.659J
CH$LINK: PUBCHEM CID:11163
CH$LINK: INCHIKEY YMAWOPBAYDPSLA-UHFFFAOYSA-N
CH$LINK: COMPTOX DTXSID90862194
AC$INSTRUMENT: API3000, Applied Biosystems
AC$INSTRUMENT_TYPE: LC-ESI-QQ
AC$MASS_SPECTROMETRY: MS_TYPE MS2
AC$MASS_SPECTROMETRY: ION_MODE POSITIVE
AC$MASS_SPECTROMETRY: COLLISION_ENERGY 30 V
MS$FOCUSED_ION: PRECURSOR_M/Z 133
MS$FOCUSED_ION: PRECURSOR_TYPE [M+H]+
PK$SPLASH: splash10-004i-9000000000-414da3e4ba078845db83
PK$NUM_PEAK: 10
PK$PEAK: m/z int. rel.int.
  30.000 108911.0 83
  45.000 49505.0 38
  56.000 19802.0 15
  69.700 89109.0 68
  71.100 24752.5 19
  72.200 14851.5 11
  73.700 34653.5 26
  76.000 1316833.0 999
  88.600 316832.0 240
  116.200 24752.5 19
//
