ACCESSION: MSBNK-Keio_Univ-KO001575
RECORD_TITLE: Phosphoenolpyruvic acid; LC-ESI-QQ; MS2; CE:50 V; [M-H]-
DATE: 2016.01.19 (Created 2007.07.07, modified 2011.05.10)
AUTHORS: Kakazu Y, Horai H, Institute for Advanced Biosciences, Keio Univ.
LICENSE: CC BY-NC-SA
COMMENT: KEIO_ID P007
CH$NAME: Phosphoenolpyruvate
CH$NAME: PEP
CH$NAME: Phosphoenolpyruvic acid
CH$COMPOUND_CLASS: N/A
CH$FORMULA: C3H5O6P
CH$EXACT_MASS: 167.98237
CH$SMILES: C=C(C(O)=O)OP(O)(O)=O
CH$IUPAC: InChI=1S/C3H5O6P/c1-2(3(4)5)9-10(6,7)8/h1H2,(H,4,5)(H2,6,7,8)
CH$LINK: CAS 138-08-9
CH$LINK: CHEBI CHEBI:26055
CH$LINK: CHEMPDB PEP
CH$LINK: KEGG C00074
CH$LINK: NIKKAJI J9.706C
CH$LINK: PUBCHEM CID:1005
CH$LINK: INCHIKEY DTBNBXWJWCWCIK-UHFFFAOYSA-N
CH$LINK: COMPTOX DTXSID80861797
AC$INSTRUMENT: API3000, Applied Biosystems
AC$INSTRUMENT_TYPE: LC-ESI-QQ
AC$MASS_SPECTROMETRY: MS_TYPE MS2
AC$MASS_SPECTROMETRY: ION_MODE NEGATIVE
AC$MASS_SPECTROMETRY: COLLISION_ENERGY 50 V
MS$FOCUSED_ION: PRECURSOR_M/Z 167
MS$FOCUSED_ION: PRECURSOR_TYPE [M-H]-
PK$SPLASH: splash10-004i-9000000000-9d0421620a7aaa9ef33f
PK$NUM_PEAK: 2
PK$PEAK: m/z int. rel.int.
  62.800 198020.0 6
  79.000 31153496.5 999
//
