ACCESSION: MSBNK-Keio_Univ-KO003601
RECORD_TITLE: Norleucine; LC-ESI-QQ; MS2; CE:50 V; [M+H]+
DATE: 2016.01.19 (Created 2007.07.07, modified 2011.05.10)
AUTHORS: Kakazu Y, Horai H, Institute for Advanced Biosciences, Keio Univ.
LICENSE: CC BY-NC-SA
COMMENT: KEIO_ID N014
CH$NAME: Norleucine
CH$NAME: L-Aminohexanoate
CH$NAME: L-Norleucine
CH$NAME: L-Aminohexanoic acid
CH$NAME: L-2-Aminohexanoate
CH$NAME: (S)-2-Aminohexanoic acid
CH$NAME: L-2-Aminohexanoic acid
CH$COMPOUND_CLASS: N/A
CH$FORMULA: C6H13NO2
CH$EXACT_MASS: 131.09463
CH$SMILES: CCCC[C@H](N)C(O)=O
CH$IUPAC: InChI=1S/C6H13NO2/c1-2-3-4-5(7)6(8)9/h5H,2-4,7H2,1H3,(H,8,9)/t5-/m0/s1
CH$LINK: CAS 327-57-1
CH$LINK: CHEBI CHEBI:18347
CH$LINK: CHEMPDB NLE
CH$LINK: KEGG C01933
CH$LINK: NIKKAJI J9.189H
CH$LINK: PUBCHEM CID:21236
CH$LINK: INCHIKEY LRQKBLKVPFOOQJ-YFKPBYRVSA-N
CH$LINK: COMPTOX DTXSID70883362
AC$INSTRUMENT: API3000, Applied Biosystems
AC$INSTRUMENT_TYPE: LC-ESI-QQ
AC$MASS_SPECTROMETRY: MS_TYPE MS2
AC$MASS_SPECTROMETRY: ION_MODE POSITIVE
AC$MASS_SPECTROMETRY: COLLISION_ENERGY 50 V
MS$FOCUSED_ION: PRECURSOR_M/Z 132
MS$FOCUSED_ION: PRECURSOR_TYPE [M+H]+
PK$SPLASH: splash10-0006-9000000000-219a42048a733f3d5a23
PK$NUM_PEAK: 6
PK$PEAK: m/z int. rel.int.
  39.300 99010.0 127
  41.100 777228.5 999
  43.100 237624.0 305
  44.200 94059.5 121
  55.000 143564.5 185
  69.100 49505.0 64
//
