ACCESSION: MSBNK-Keio_Univ-KO000697
RECORD_TITLE: Daminozide; LC-ESI-QQ; MS2; CE:40 V; [M-H]-
DATE: 2016.01.19 (Created 2007.07.07, modified 2011.05.10)
AUTHORS: Kakazu Y, Horai H, Institute for Advanced Biosciences, Keio Univ.
LICENSE: CC BY-NC-SA
COMMENT: KEIO_ID D173
CH$NAME: Daminozide
CH$COMPOUND_CLASS: N/A
CH$FORMULA: C6H12N2O3
CH$EXACT_MASS: 160.08479
CH$SMILES: CN(C)NC(=O)CCC(O)=O
CH$IUPAC: InChI=1S/C6H12N2O3/c1-8(2)7-5(9)3-4-6(10)11/h3-4H2,1-2H3,(H,7,9)(H,10,11)
CH$LINK: CAS 1596-84-5
CH$LINK: KEGG C10996
CH$LINK: NIKKAJI J1.772H
CH$LINK: PUBCHEM SID:13179
CH$LINK: INCHIKEY NOQGZXFMHARMLW-UHFFFAOYSA-N
CH$LINK: COMPTOX DTXSID9020370
AC$INSTRUMENT: API3000, Applied Biosystems
AC$INSTRUMENT_TYPE: LC-ESI-QQ
AC$MASS_SPECTROMETRY: MS_TYPE MS2
AC$MASS_SPECTROMETRY: ION_MODE NEGATIVE
AC$MASS_SPECTROMETRY: COLLISION_ENERGY 40 V
MS$FOCUSED_ION: PRECURSOR_M/Z 159
MS$FOCUSED_ION: PRECURSOR_TYPE [M-H]-
PK$SPLASH: splash10-0006-9000000000-722284640879fb1ca659
PK$NUM_PEAK: 8
PK$PEAK: m/z int. rel.int.
  42.000 7539611.5 999
  52.200 64356.5 9
  53.900 59406.0 8
  55.200 54455.5 7
  59.100 74257.5 10
  70.900 54455.5 7
  71.900 386139.0 51
  97.300 94059.5 12
//
