ACCESSION: MSBNK-Keio_Univ-KO001467
RECORD_TITLE: 6-Methylmercaptopurine; LC-ESI-QQ; MS2; CE:10 V; [M-H]-
DATE: 2016.01.19 (Created 2010.02.10, modified 2011.05.10)
AUTHORS: Kakazu Y, Horai H, Institute for Advanced Biosciences, Keio Univ.
LICENSE: CC BY-NC-SA
COMMENT: KEIO_ID M104
CH$NAME: 6-Methylmercaptopurine
CH$NAME: Thiopurine S-methylether
CH$COMPOUND_CLASS: N/A
CH$FORMULA: C6H6N4S
CH$EXACT_MASS: 166.03132
CH$SMILES: CSC1=NC=NC2=C1NC=N2
CH$IUPAC: InChI=1S/C6H6N4S/c1-11-6-4-5(8-2-7-4)9-3-10-6/h2-3H,1H3,(H,7,8,9,10)
CH$LINK: CHEBI CHEBI:28279
CH$LINK: KEGG C16614
CH$LINK: PUBCHEM SID:6346
CH$LINK: INCHIKEY UIJIQXGRFSPYQW-UHFFFAOYSA-N
AC$INSTRUMENT: API3000, Applied Biosystems
AC$INSTRUMENT_TYPE: LC-ESI-QQ
AC$MASS_SPECTROMETRY: MS_TYPE MS2
AC$MASS_SPECTROMETRY: ION_MODE NEGATIVE
AC$MASS_SPECTROMETRY: COLLISION_ENERGY 10 V
MS$FOCUSED_ION: PRECURSOR_M/Z 165
MS$FOCUSED_ION: PRECURSOR_TYPE [M-H]-
PK$SPLASH: splash10-014i-0900000000-9b9c0619fdaf556fabe9
PK$NUM_PEAK: 15
PK$PEAK: m/z int. rel.int.
  35.400 173267.5 1
  59.100 272277.5 1
  85.200 2900993.0 6
  100.700 54455.5 1
  103.000 49505.0 1
  105.200 19802.0 1
  119.400 138614.0 1
  120.800 123762.5 1
  128.900 2267329.0 5
  135.100 24752.5 1
  136.800 39604.0 1
  148.900 34653.5 1
  150.100 3891093.0 8
  163.900 84158.5 1
  165.200 475238099.0 999
//
