ACCESSION: MSBNK-Keio_Univ-KO002290
RECORD_TITLE: beta-Ala-Lys; LC-ESI-QQ; MS2; CE:30 V; [M+H]+
DATE: 2016.01.19 (Created 2007.07.07, modified 2011.05.10)
AUTHORS: Kakazu Y, Horai H, Institute for Advanced Biosciences, Keio Univ.
LICENSE: CC BY-NC-SA
COMMENT: KEIO_ID A127
CH$NAME: b-Ala-Lys
CH$NAME: beta-Alanyl-L-lysine
CH$NAME: beta-Ala-Lys
CH$COMPOUND_CLASS: N/A
CH$FORMULA: C9H19N3O3
CH$EXACT_MASS: 217.14264
CH$SMILES: NCCCC[C@@H](C(O)=O)NC(=O)CCN
CH$IUPAC: InChI=1S/C9H19N3O3/c10-5-2-1-3-7(9(14)15)12-8(13)4-6-11/h7H,1-6,10-11H2,(H,12,13)(H,14,15)/t7-/m0/s1
CH$LINK: KEGG C05341
CH$LINK: PUBCHEM CID:440638
CH$LINK: INCHIKEY PLDCWKCPEXNWJH-ZETCQYMHSA-N
AC$INSTRUMENT: API3000, Applied Biosystems
AC$INSTRUMENT_TYPE: LC-ESI-QQ
AC$MASS_SPECTROMETRY: MS_TYPE MS2
AC$MASS_SPECTROMETRY: ION_MODE POSITIVE
AC$MASS_SPECTROMETRY: COLLISION_ENERGY 30 V
MS$FOCUSED_ION: PRECURSOR_M/Z 218
MS$FOCUSED_ION: PRECURSOR_TYPE [M+H]+
PK$SPLASH: splash10-001i-9400000000-6198555ac3c0ce37cc5b
PK$NUM_PEAK: 49
PK$PEAK: m/z int. rel.int.
  55.400 118812.0 2
  59.300 24752.5 1
  67.100 89109.0 2
  69.100 400990.5 8
  69.900 242574.5 5
  72.200 430693.5 9
  74.000 64356.5 1
  81.200 49505.0 1
  83.100 123762.5 3
  84.100 49034702.5 999
  85.300 500000.5 10
  87.900 34653.5 1
  89.100 257426.0 5
  89.900 24752.5 1
  95.300 89109.0 2
  97.800 29703.0 1
  99.000 178218.0 4
  101.200 910892.0 19
  101.900 292079.5 6
  104.700 29703.0 1
  109.300 54455.5 1
  111.400 326733.0 7
  112.300 782179.0 16
  113.000 173267.5 4
  119.700 24752.5 1
  123.600 34653.5 1
  126.200 321782.5 7
  127.400 24752.5 1
  129.100 8990108.0 183
  130.200 8925751.5 182
  131.300 14851.5 1
  136.800 64356.5 1
  137.900 277228.0 6
  141.200 321782.5 7
  143.300 39604.0 1
  147.100 910892.0 19
  150.300 49505.0 1
  153.000 188119.0 4
  157.900 24752.5 1
  161.900 14851.5 1
  165.000 410891.5 8
  166.400 19802.0 1
  174.300 24752.5 1
  183.300 84158.5 2
  184.300 34653.5 1
  189.400 49505.0 1
  189.900 34653.5 1
  201.100 272277.5 6
  218.300 138614.0 3
//
