ACCESSION: MSBNK-Keio_Univ-KO004227
RECORD_TITLE: Triadimefon; LC-ESI-QQ; MS2; CE:20 V; [M+H]+
DATE: 2016.01.19 (Created 2007.07.07, modified 2011.05.10)
AUTHORS: Kakazu Y, Horai H, Institute for Advanced Biosciences, Keio Univ.
LICENSE: CC BY-NC-SA
COMMENT: KEIO_ID T112
CH$NAME: Triadimefon
CH$COMPOUND_CLASS: N/A
CH$FORMULA: C14H16ClN3O2
CH$EXACT_MASS: 293.09310
CH$SMILES: Clc(c2)ccc(c2)OC(n(c1)ncn1)C(=O)C(C)(C)C
CH$IUPAC: InChI=1S/C14H16ClN3O2/c1-14(2,3)12(19)13(18-9-16-8-17-18)20-11-6-4-10(15)5-7-11/h4-9,13H,1-3H3
CH$LINK: CAS 43121-43-3
CH$LINK: KEGG C11156
CH$LINK: NIKKAJI J1.896A
CH$LINK: PUBCHEM CID:39385
CH$LINK: INCHIKEY WURBVZBTWMNKQT-UHFFFAOYSA-N
CH$LINK: COMPTOX DTXSID3023897
AC$INSTRUMENT: API3000, Applied Biosystems
AC$INSTRUMENT_TYPE: LC-ESI-QQ
AC$MASS_SPECTROMETRY: MS_TYPE MS2
AC$MASS_SPECTROMETRY: ION_MODE POSITIVE
AC$MASS_SPECTROMETRY: COLLISION_ENERGY 20 V
MS$FOCUSED_ION: PRECURSOR_M/Z 294
MS$FOCUSED_ION: PRECURSOR_TYPE [M+H]+
PK$SPLASH: splash10-0002-0950000000-2d606f4f98be0d0038b6
PK$NUM_PEAK: 68
PK$PEAK: m/z int. rel.int.
  57.100 1831685.0 8
  69.100 19792099.0 88
  69.900 158416.0 1
  76.000 747525.5 3
  83.000 183168.5 1
  85.100 495050.0 2
  86.900 282178.5 1
  90.800 9901.0 1
  97.200 346535.0 2
  99.100 24752.5 1
  100.800 59406.0 1
  103.100 831684.0 4
  104.900 84158.5 1
  107.400 49505.0 1
  109.900 163366.5 1
  111.200 89109.0 1
  115.300 31445576.0 140
  116.900 113861.5 1
  119.200 69307.0 1
  121.200 89109.0 1
  125.100 89109.0 1
  127.000 277228.0 1
  128.900 7094066.5 32
  133.000 3415845.0 15
  135.300 54455.5 1
  139.000 29703.0 1
  141.100 10485159.0 47
  143.100 39604.0 1
  146.900 14851.5 1
  153.200 79208.0 1
  155.100 4509905.5 20
  157.000 193069.5 1
  161.200 846535.5 4
  162.200 346535.0 2
  164.400 24752.5 1
  166.100 79208.0 1
  167.300 1648516.5 7
  169.300 420792.5 2
  171.500 267327.0 1
  179.200 168317.0 1
  179.500 14851.5 1
  181.000 188119.0 1
  183.100 69307.0 1
  185.400 29703.0 1
  190.000 608911.5 3
  194.500 19802.0 1
  197.300 224866561.5 999
  199.300 39604.0 1
  199.600 14851.5 1
  203.100 500000.5 2
  204.000 138614.0 1
  207.400 153465.5 1
  213.200 173267.5 1
  217.300 49505.0 1
  221.300 193069.5 1
  222.400 173267.5 1
  224.700 400990.5 2
  225.300 87307018.0 388
  227.200 29703.0 1
  231.100 287129.0 1
  231.700 29703.0 1
  238.100 74257.5 1
  241.300 123762.5 1
  244.300 24752.5 1
  260.100 29703.0 1
  277.200 29703.0 1
  294.500 92589201.5 411
  312.500 49505.0 1
//
