ACCESSION: MSBNK-Keio_Univ-KO001033
RECORD_TITLE: Heptanoic acid; LC-ESI-QQ; MS2; CE:10 V; [M-H]-
DATE: 2016.01.19 (Created 2007.07.07, modified 2011.05.10)
AUTHORS: Kakazu Y, Horai H, Institute for Advanced Biosciences, Keio Univ.
LICENSE: CC BY-NC-SA
COMMENT: KEIO_ID H031
CH$NAME: Heptanoate
CH$NAME: Heptanoic acid
CH$NAME: Heptansaeure
CH$NAME: Heptoic acid
CH$NAME: Oenanthsaeure
CH$NAME: n-Heptanoic acid
CH$NAME: Heptylic acid
CH$NAME: Enanthic acid
CH$COMPOUND_CLASS: N/A
CH$FORMULA: C7H14O2
CH$EXACT_MASS: 130.09938
CH$SMILES: CCCCCCC(O)=O
CH$IUPAC: InChI=1S/C7H14O2/c1-2-3-4-5-6-7(8)9/h2-6H2,1H3,(H,8,9)
CH$LINK: CAS 111-14-8
CH$LINK: CHEBI CHEBI:24519
CH$LINK: CHEMPDB SHV
CH$LINK: NIKKAJI J1.985B
CH$LINK: PUBCHEM SID:8146856
CH$LINK: INCHIKEY MNWFXJYAOYHMED-UHFFFAOYSA-N
CH$LINK: COMPTOX DTXSID2021600
AC$INSTRUMENT: API3000, Applied Biosystems
AC$INSTRUMENT_TYPE: LC-ESI-QQ
AC$MASS_SPECTROMETRY: MS_TYPE MS2
AC$MASS_SPECTROMETRY: ION_MODE NEGATIVE
AC$MASS_SPECTROMETRY: COLLISION_ENERGY 10 V
MS$FOCUSED_ION: PRECURSOR_M/Z 129
MS$FOCUSED_ION: PRECURSOR_TYPE [M-H]-
PK$SPLASH: splash10-004i-0900000000-38e4cc872df89a4f1b5d
PK$NUM_PEAK: 9
PK$PEAK: m/z int. rel.int.
  83.200 44554.5 1
  85.400 722773.0 2
  92.900 84158.5 1
  111.200 371287.5 1
  127.400 49505.0 1
  128.500 13049518.0 36
  129.000 365950861.0 999
  146.000 14851.5 1
  146.900 267327.0 1
//
