ACCESSION: MSBNK-Keio_Univ-KO000553
RECORD_TITLE: 2-Deoxyribose 1-phosphate; LC-ESI-QQ; MS2; CE:50 V; [M-H]-
DATE: 2016.01.19 (Created 2007.07.07, modified 2011.05.10)
AUTHORS: Kakazu Y, Horai H, Institute for Advanced Biosciences, Keio Univ.
LICENSE: CC BY-NC-SA
COMMENT: KEIO_ID D013
CH$NAME: 2-Deoxyribose 1-phosphate
CH$NAME: 2-Deoxy-alpha-D-ribose 1-phosphate
CH$NAME: 2-Deoxy-D-ribose 1-phosphate
CH$COMPOUND_CLASS: N/A
CH$FORMULA: C5H11O7P
CH$EXACT_MASS: 214.02424
CH$SMILES: OCC(O1)C(O)CC1OP(O)(O)=O
CH$IUPAC: InChI=1S/C5H11O7P/c6-2-4-3(7)1-5(11-4)12-13(8,9)10/h3-7H,1-2H2,(H2,8,9,10)/t3-,4+,5+/m0/s1
CH$LINK: CHEBI CHEBI:28542
CH$LINK: KEGG C00672
CH$LINK: PUBCHEM CID:5460448
CH$LINK: INCHIKEY KBDKAJNTYKVSEK-VPENINKCSA-N
AC$INSTRUMENT: API3000, Applied Biosystems
AC$INSTRUMENT_TYPE: LC-ESI-QQ
AC$MASS_SPECTROMETRY: MS_TYPE MS2
AC$MASS_SPECTROMETRY: ION_MODE NEGATIVE
AC$MASS_SPECTROMETRY: COLLISION_ENERGY 50 V
MS$FOCUSED_ION: PRECURSOR_M/Z 213
MS$FOCUSED_ION: PRECURSOR_TYPE [M-H]-
PK$SPLASH: splash10-004i-9000000000-a3815f0e4bdd2647067b
PK$NUM_PEAK: 4
PK$PEAK: m/z int. rel.int.
  63.700 34653.5 7
  78.900 5301985.5 999
  92.900 54455.5 10
  97.100 24752.5 5
//
