ACCESSION: MSBNK-Keio_Univ-KO000946
RECORD_TITLE: 2-Guanidinobenzimidazole; LC-ESI-QQ; MS2; CE:40 V; [M-H]-
DATE: 2016.01.19 (Created 2007.07.07, modified 2011.05.10)
AUTHORS: Kakazu Y, Horai H, Institute for Advanced Biosciences, Keio Univ.
LICENSE: CC BY-NC-SA
COMMENT: KEIO_ID G101
CH$NAME: 2-Guanidinobenzimidazole
CH$NAME: 2-Benzimidazolylguanidine
CH$COMPOUND_CLASS: N/A
CH$FORMULA: C8H9N5
CH$EXACT_MASS: 175.08580
CH$SMILES: C1=CC=C2C(=C1)NC(=N2)N=C(N)N
CH$IUPAC: InChI=1S/C8H9N5/c9-7(10)13-8-11-5-3-1-2-4-6(5)12-8/h1-4H,(H5,9,10,11,12,13)
CH$LINK: CAS 5418-95-1
CH$LINK: KEGG C10898
CH$LINK: NIKKAJI J217.997K
CH$LINK: PUBCHEM CID:36149
CH$LINK: INCHIKEY JJWCTKUQWXYIIU-UHFFFAOYSA-N
CH$LINK: COMPTOX DTXSID6063858
AC$INSTRUMENT: API3000, Applied Biosystems
AC$INSTRUMENT_TYPE: LC-ESI-QQ
AC$MASS_SPECTROMETRY: MS_TYPE MS2
AC$MASS_SPECTROMETRY: ION_MODE NEGATIVE
AC$MASS_SPECTROMETRY: COLLISION_ENERGY 40 V
MS$FOCUSED_ION: PRECURSOR_M/Z 174
MS$FOCUSED_ION: PRECURSOR_TYPE [M-H]-
PK$SPLASH: splash10-001i-0900000000-b126f0ee939c80f3e080
PK$NUM_PEAK: 11
PK$PEAK: m/z int. rel.int.
  26.000 39604.0 1
  41.100 4495054.0 43
  42.200 79208.0 1
  65.600 14851.5 1
  89.900 29703.0 1
  104.900 44554.5 1
  115.200 79208.0 1
  130.400 59406.0 1
  130.900 841585.0 8
  132.100 105351590.5 999
  157.000 297030.0 3
//
