ACCESSION: MSBNK-Keio_Univ-KO003893
RECORD_TITLE: Paromomycin; LC-ESI-QQ; MS2; CE:20 V; [M+H]+
DATE: 2016.01.19 (Created 2007.07.07, modified 2011.05.10)
AUTHORS: Kakazu Y, Horai H, Institute for Advanced Biosciences, Keio Univ.
LICENSE: CC BY-NC-SA
COMMENT: KEIO_ID P126
CH$NAME: Paromomycin
CH$NAME: Zygomycin A1
CH$NAME: Catenulin
CH$NAME: Monomycin A
CH$NAME: Hydroxymycin
CH$NAME: Aminosidin
CH$COMPOUND_CLASS: N/A
CH$FORMULA: C23H45N5O14
CH$EXACT_MASS: 615.29630
CH$SMILES: OCC(O1)C(O)C(O)C(N)C1OC(C(N)4)C(C(O)C(N)C4)OC(O3)C(O)C(C(CO)3)OC([H])(O2)C(N)C(O)C(O)C(CN)2
CH$IUPAC: InChI=1S/C23H45N5O14/c24-2-7-13(32)15(34)10(27)21(37-7)41-19-9(4-30)39-23(17(19)36)42-20-12(31)5(25)1-6(26)18(20)40-22-11(28)16(35)14(33)8(3-29)38-22/h5-23,29-36H,1-4,24-28H2/t5-,6+,7+,8-,9-,10-,11-,12+,13-,14-,15-,16-,17-,18-,19-,20-,21-,22-,23-/m1/s1
CH$LINK: CAS 7542-37-2
CH$LINK: KEGG C00832
CH$LINK: NIKKAJI J8.952D
CH$LINK: PUBCHEM CID:165580
CH$LINK: INCHIKEY UOZODPSAJZTQNH-IRIMDDDUSA-N
AC$INSTRUMENT: API3000, Applied Biosystems
AC$INSTRUMENT_TYPE: LC-ESI-QQ
AC$MASS_SPECTROMETRY: MS_TYPE MS2
AC$MASS_SPECTROMETRY: ION_MODE POSITIVE
AC$MASS_SPECTROMETRY: COLLISION_ENERGY 20 V
MS$FOCUSED_ION: PRECURSOR_M/Z 616
MS$FOCUSED_ION: PRECURSOR_TYPE [M+H]+
PK$SPLASH: splash10-014i-0000009000-d5f0818eb49277054148
PK$NUM_PEAK: 18
PK$PEAK: m/z int. rel.int.
  153.800 64356.5 6
  161.000 24752.5 2
  163.200 74257.5 7
  163.600 19802.0 2
  203.400 49505.0 5
  226.400 222772.5 21
  230.200 59406.0 6
  235.600 9901.0 1
  278.700 24752.5 2
  289.100 34653.5 3
  293.200 292079.5 28
  324.600 257426.0 25
  391.000 19802.0 2
  425.100 39604.0 4
  455.700 89109.0 9
  456.600 74257.5 7
  496.100 29703.0 3
  616.600 10391099.5 999
//
