ACCESSION: MSBNK-Keio_Univ-KO001480
RECORD_TITLE: Methionine sulfoximine; LC-ESI-QQ; MS2; CE:40 V; [M-H]-
DATE: 2016.01.19 (Created 2007.07.07, modified 2011.05.10)
AUTHORS: Kakazu Y, Horai H, Institute for Advanced Biosciences, Keio Univ.
LICENSE: CC BY-NC-SA
COMMENT: KEIO_ID M114
CH$NAME: Methionine sulfoximine
CH$NAME: 2S,5S-Methionine sulfoximine
CH$COMPOUND_CLASS: N/A
CH$FORMULA: C5H12N2O3S
CH$EXACT_MASS: 180.05686
CH$SMILES: NC(CCS(C)(=N)=O)C(O)=O
CH$IUPAC: InChI=1S/C5H12N2O3S/c1-11(7,10)3-2-4(6)5(8)9/h4,7H,2-3,6H2,1H3,(H,8,9)/t4-,11?/m0/s1
CH$LINK: KEGG C03829
CH$LINK: PUBCHEM CID:24755525
CH$LINK: INCHIKEY SXTAYKAGBXMACB-DPVSGNNYSA-N
CH$LINK: COMPTOX DTXSID30936181
AC$INSTRUMENT: API3000, Applied Biosystems
AC$INSTRUMENT_TYPE: LC-ESI-QQ
AC$MASS_SPECTROMETRY: MS_TYPE MS2
AC$MASS_SPECTROMETRY: ION_MODE NEGATIVE
AC$MASS_SPECTROMETRY: COLLISION_ENERGY 40 V
MS$FOCUSED_ION: PRECURSOR_M/Z 179
MS$FOCUSED_ION: PRECURSOR_TYPE [M-H]-
PK$SPLASH: splash10-03di-9000000000-3fd80c87ef6b25ce7dc1
PK$NUM_PEAK: 6
PK$PEAK: m/z int. rel.int.
  48.800 14851.5 3
  61.200 277228.0 52
  62.100 3252478.5 607
  63.100 5351490.5 999
  78.100 3722776.0 695
  92.200 29703.0 6
//
