ACCESSION: MSBNK-Keio_Univ-KO004021
RECORD_TITLE: Serotonin; LC-ESI-QQ; MS2; CE:50 V; [M+H]+
DATE: 2016.01.19 (Created 2007.07.07, modified 2011.05.10)
AUTHORS: Kakazu Y, Horai H, Institute for Advanced Biosciences, Keio Univ.
LICENSE: CC BY-NC-SA
COMMENT: KEIO_ID S041
CH$NAME: Serotonin
CH$NAME: 3-(2-Aminoethyl)-1H-indol-5-ol
CH$NAME: 5-Hydroxytryptamine
CH$NAME: Enteramine
CH$COMPOUND_CLASS: N/A
CH$FORMULA: C10H12N2O
CH$EXACT_MASS: 176.09496
CH$SMILES: C1=CC2=C(C=C1O)C(=CN2)CCN
CH$IUPAC: InChI=1S/C10H12N2O/c11-4-3-7-6-12-10-2-1-8(13)5-9(7)10/h1-2,5-6,12-13H,3-4,11H2
CH$LINK: CAS 50-67-9
CH$LINK: CHEBI CHEBI:28790
CH$LINK: KEGG C00780
CH$LINK: NIKKAJI J4.107F
CH$LINK: PUBCHEM SID:4041
CH$LINK: INCHIKEY QZAYGJVTTNCVMB-UHFFFAOYSA-N
CH$LINK: COMPTOX DTXSID8075330
AC$INSTRUMENT: API3000, Applied Biosystems
AC$INSTRUMENT_TYPE: LC-ESI-QQ
AC$MASS_SPECTROMETRY: MS_TYPE MS2
AC$MASS_SPECTROMETRY: ION_MODE POSITIVE
AC$MASS_SPECTROMETRY: COLLISION_ENERGY 50 V
MS$FOCUSED_ION: PRECURSOR_M/Z 177
MS$FOCUSED_ION: PRECURSOR_TYPE [M+H]+
PK$SPLASH: splash10-014i-4900000000-d242a2269e10d5bc922e
PK$NUM_PEAK: 45
PK$PEAK: m/z int. rel.int.
  39.500 24752.5 7
  51.300 24752.5 7
  54.200 24752.5 7
  55.200 84158.5 24
  64.900 608911.5 174
  67.000 410891.5 117
  74.600 39604.0 11
  77.100 1876239.5 535
  78.000 410891.5 117
  79.200 1103961.5 315
  79.900 108911.0 31
  81.000 49505.0 14
  89.000 1034654.5 295
  89.900 747525.5 213
  91.000 455446.0 130
  91.900 64356.5 18
  93.200 123762.5 35
  94.000 282178.5 80
  95.300 193069.5 55
  102.100 79208.0 23
  103.200 1079209.0 308
  104.100 603961.0 172
  105.100 1188120.0 339
  106.300 168317.0 48
  106.900 148515.0 42
  107.400 94059.5 27
  111.500 14851.5 4
  114.000 99010.0 28
  115.300 3504954.0 999
  116.200 490099.5 140
  117.200 2608913.5 744
  118.100 79208.0 23
  128.200 94059.5 27
  130.200 1321783.5 377
  131.000 485149.0 138
  132.100 173267.5 49
  133.000 574258.0 164
  140.200 148515.0 42
  141.000 202970.5 58
  142.200 267327.0 76
  143.300 311881.5 89
  144.200 108911.0 31
  145.200 49505.0 14
  158.200 262376.5 75
  159.200 306931.0 87
//
