ACCESSION: MSBNK-Keio_Univ-KO001037
RECORD_TITLE: 8-Hydroxyoctanoic acid; LC-ESI-QQ; MS2; CE:10 V; [M-H]-
DATE: 2016.01.19 (Created 2007.07.07, modified 2011.05.10)
AUTHORS: Kakazu Y, Horai H, Institute for Advanced Biosciences, Keio Univ.
LICENSE: CC BY-NC-SA
COMMENT: KEIO_ID H034
CH$NAME: 8-Hydroxyoctanoate
CH$NAME: 8-hydroxy-octanoic acid
CH$NAME: 8-hydroxy caprylic acid
CH$NAME: 8-Hydroxyoctanoic acid
CH$NAME: Octanoic acid, 8-hydroxy-
CH$COMPOUND_CLASS: N/A
CH$FORMULA: C8H16O3
CH$EXACT_MASS: 160.10994
CH$SMILES: OCCCCCCCC(O)=O
CH$IUPAC: InChI=1S/C8H16O3/c9-7-5-3-1-2-4-6-8(10)11/h9H,1-7H2,(H,10,11)
CH$LINK: CAS 764-89-6
CH$LINK: NIKKAJI J129.296J
CH$LINK: PUBCHEM SID:10535208
CH$LINK: INCHIKEY KDMSVYIHKLZKET-UHFFFAOYSA-N
CH$LINK: COMPTOX DTXSID40227234
AC$INSTRUMENT: API3000, Applied Biosystems
AC$INSTRUMENT_TYPE: LC-ESI-QQ
AC$MASS_SPECTROMETRY: MS_TYPE MS2
AC$MASS_SPECTROMETRY: ION_MODE NEGATIVE
AC$MASS_SPECTROMETRY: COLLISION_ENERGY 10 V
MS$FOCUSED_ION: PRECURSOR_M/Z 159
MS$FOCUSED_ION: PRECURSOR_TYPE [M-H]-
PK$SPLASH: splash10-0a4i-0900000000-40d51af7a4fd64a6b14b
PK$NUM_PEAK: 15
PK$PEAK: m/z int. rel.int.
  34.900 168317.0 1
  96.900 39604.0 1
  99.000 29703.0 1
  111.000 29703.0 1
  113.500 1039605.0 2
  115.200 64356.5 1
  120.800 39604.0 1
  123.100 74257.5 1
  127.300 44554.5 1
  138.800 19802.0 1
  141.300 465347.0 1
  157.300 237624.0 1
  158.200 430693.5 1
  159.100 581203551.5 999
  176.900 19802.0 1
//
