ACCESSION: MSBNK-Keio_Univ-KO003573
RECORD_TITLE: Methoxamine; LC-ESI-QQ; MS2; CE:20 V; [M+H]+
DATE: 2016.01.19 (Created 2007.07.07, modified 2011.05.10)
AUTHORS: Kakazu Y, Horai H, Institute for Advanced Biosciences, Keio Univ.
LICENSE: CC BY-NC-SA
COMMENT: KEIO_ID M169
CH$NAME: Methoxamine
CH$COMPOUND_CLASS: N/A
CH$FORMULA: C11H17NO3
CH$EXACT_MASS: 211.12084
CH$SMILES: COc(c1)cc(C(O)C(C)N)c(OC)c1
CH$IUPAC: InChI=1S/C11H17NO3/c1-7(12)11(13)9-6-8(14-2)4-5-10(9)15-3/h4-7,11,13H,12H2,1-3H3
CH$LINK: CAS 390-28-3
CH$LINK: KEGG C07513
CH$LINK: NIKKAJI J5.717G
CH$LINK: PUBCHEM CID:6082
CH$LINK: INCHIKEY WJAJPNHVVFWKKL-UHFFFAOYSA-N
CH$LINK: COMPTOX DTXSID0023290
AC$INSTRUMENT: API3000, Applied Biosystems
AC$INSTRUMENT_TYPE: LC-ESI-QQ
AC$MASS_SPECTROMETRY: MS_TYPE MS2
AC$MASS_SPECTROMETRY: ION_MODE POSITIVE
AC$MASS_SPECTROMETRY: COLLISION_ENERGY 20 V
MS$FOCUSED_ION: PRECURSOR_M/Z 212
MS$FOCUSED_ION: PRECURSOR_TYPE [M+H]+
PK$SPLASH: splash10-0006-0900000000-1b92cefe5d27ce45aad1
PK$NUM_PEAK: 68
PK$PEAK: m/z int. rel.int.
  40.900 19802.0 1
  50.100 173267.5 1
  56.100 346535.0 1
  57.100 89109.0 1
  68.800 59406.0 1
  69.300 138614.0 1
  74.000 792080.0 1
  81.100 252475.5 1
  83.100 94059.5 1
  84.800 29703.0 1
  88.900 232673.5 1
  91.300 232673.5 1
  93.000 267327.0 1
  95.300 485149.0 1
  98.700 39604.0 1
  104.600 74257.5 1
  104.900 331683.5 1
  107.000 920793.0 1
  108.400 34653.5 1
  109.100 529703.5 1
  111.000 34653.5 1
  112.300 19802.0 1
  113.100 222772.5 1
  115.700 34653.5 1
  117.200 702971.0 1
  118.000 64356.5 1
  119.000 732674.0 1
  121.300 9821792.0 14
  123.000 856436.5 1
  124.300 267327.0 1
  126.700 54455.5 1
  129.100 94059.5 1
  130.000 1915843.5 3
  131.000 6024758.5 9
  132.100 826733.5 1
  132.900 282178.5 1
  134.100 326733.0 1
  135.100 7386146.0 11
  135.900 301980.5 1
  137.100 5188124.0 7
  138.200 5247530.0 8
  144.100 356436.0 1
  145.200 376238.0 1
  146.500 846535.5 1
  147.000 30826763.5 44
  148.300 737624.5 1
  149.300 5668322.5 8
  150.300 133663.5 1
  151.200 178218.0 1
  151.900 74257.5 1
  153.200 2915844.5 4
  159.000 782179.0 1
  160.300 19802.0 1
  161.600 633664.0 1
  162.200 105980304.0 152
  163.200 23608934.5 34
  164.300 2831686.0 4
  165.300 3168320.0 5
  166.200 39604.0 1
  167.300 54455.5 1
  170.100 34653.5 1
  175.100 103960.5 1
  177.300 8400998.5 12
  179.200 87901078.0 126
  180.200 3004953.5 4
  194.300 694906635.5 999
  195.200 9049514.0 13
  212.300 5797035.5 8
//
