ACCESSION: MSBNK-Keio_Univ-KO003081
RECORD_TITLE: 6-Hydroxynicotinic acid; LC-ESI-QQ; MS2; CE:40 V; [M+H]+
DATE: 2016.01.19 (Created 2007.07.07, modified 2011.05.10)
AUTHORS: Kakazu Y, Horai H, Institute for Advanced Biosciences, Keio Univ.
LICENSE: CC BY-NC-SA
COMMENT: KEIO_ID H015
CH$NAME: 6-Hydroxynicotinate
CH$NAME: 6-Hydroxynicotinic acid
CH$COMPOUND_CLASS: N/A
CH$FORMULA: C6H5NO3
CH$EXACT_MASS: 139.02694
CH$SMILES: O=C(C=1)NC=C(C1)C(O)=O
CH$IUPAC: InChI=1S/C6H5NO3/c8-5-2-1-4(3-7-5)6(9)10/h1-3H,(H,7,8)(H,9,10)
CH$LINK: CAS 5006-66-6
CH$LINK: CHEBI CHEBI:16168
CH$LINK: KEGG C01020
CH$LINK: NIKKAJI J208I
CH$LINK: PUBCHEM CID:72924
CH$LINK: INCHIKEY BLHCMGRVFXRYRN-UHFFFAOYSA-N
CH$LINK: COMPTOX DTXSID0057754
AC$INSTRUMENT: API3000, Applied Biosystems
AC$INSTRUMENT_TYPE: LC-ESI-QQ
AC$MASS_SPECTROMETRY: MS_TYPE MS2
AC$MASS_SPECTROMETRY: ION_MODE POSITIVE
AC$MASS_SPECTROMETRY: COLLISION_ENERGY 40 V
MS$FOCUSED_ION: PRECURSOR_M/Z 140
MS$FOCUSED_ION: PRECURSOR_TYPE [M+H]+
PK$SPLASH: splash10-0a4i-9000000000-b9b83bf3dff7e6c924fa
PK$NUM_PEAK: 12
PK$PEAK: m/z int. rel.int.
  41.300 44554.5 93
  42.200 14851.5 31
  44.600 19802.0 41
  51.000 39604.0 82
  56.600 9901.0 21
  58.200 480198.5 999
  70.900 24752.5 51
  72.700 29703.0 62
  75.300 24752.5 51
  77.400 89109.0 185
  79.900 69307.0 144
  94.200 44554.5 93
//
