ACCESSION: MSBNK-Keio_Univ-KO001431
RECORD_TITLE: Mucic acid; LC-ESI-QQ; MS2; CE:50 V; [M-H]-
DATE: 2016.01.19 (Created 2007.07.07, modified 2011.05.10)
AUTHORS: Kakazu Y, Horai H, Institute for Advanced Biosciences, Keio Univ.
LICENSE: CC BY-NC-SA
COMMENT: KEIO_ID M065
CH$NAME: Mucate
CH$NAME: Galactaric acid
CH$NAME: Galactarate
CH$NAME: Mucic acid
CH$COMPOUND_CLASS: N/A
CH$FORMULA: C6H10O8
CH$EXACT_MASS: 210.03757
CH$SMILES: OC(=O)C(O)C(O)C(O)C(O)C(O)=O
CH$IUPAC: InChI=1S/C6H10O8/c7-1(3(9)5(11)12)2(8)4(10)6(13)14/h1-4,7-10H,(H,11,12)(H,13,14)/t1-,2+,3+,4-
CH$LINK: CAS 526-99-8
CH$LINK: CHEBI CHEBI:30852
CH$LINK: KEGG C00879
CH$LINK: NIKKAJI J6.665F
CH$LINK: PUBCHEM CID:3037582
CH$LINK: INCHIKEY DSLZVSRJTYRBFB-DUHBMQHGSA-N
CH$LINK: COMPTOX DTXSID7048740
AC$INSTRUMENT: API3000, Applied Biosystems
AC$INSTRUMENT_TYPE: LC-ESI-QQ
AC$MASS_SPECTROMETRY: MS_TYPE MS2
AC$MASS_SPECTROMETRY: ION_MODE NEGATIVE
AC$MASS_SPECTROMETRY: COLLISION_ENERGY 50 V
MS$FOCUSED_ION: PRECURSOR_M/Z 209
MS$FOCUSED_ION: PRECURSOR_TYPE [M-H]-
PK$SPLASH: splash10-05fr-9000000000-f2f36dc0c7eca0f78710
PK$NUM_PEAK: 7
PK$PEAK: m/z int. rel.int.
  42.900 29703.0 182
  55.300 54455.5 333
  57.300 34653.5 212
  59.000 158416.0 969
  71.200 163366.5 999
  73.000 94059.5 575
  75.000 44554.5 272
//
