ACCESSION: MSBNK-Keio_Univ-KO003766
RECORD_TITLE: Propylthiouracil; LC-ESI-QQ; MS2; CE:40 V; [M+H]+
DATE: 2016.01.19 (Created 2007.07.07, modified 2011.05.10)
AUTHORS: Kakazu Y, Horai H, Institute for Advanced Biosciences, Keio Univ.
LICENSE: CC BY-NC-SA
COMMENT: KEIO_ID P055
CH$NAME: Propylthiouracil
CH$COMPOUND_CLASS: N/A
CH$FORMULA: C7H10N2OS
CH$EXACT_MASS: 170.05138
CH$SMILES: CCCC(=C1)NC(=S)NC(=O)1
CH$IUPAC: InChI=1S/C7H10N2OS/c1-2-3-5-4-6(10)9-7(11)8-5/h4H,2-3H2,1H3,(H2,8,9,10,11)
CH$LINK: CAS 51-52-5
CH$LINK: KEGG C07569
CH$LINK: NIKKAJI J1.363C
CH$LINK: PUBCHEM CID:657298
CH$LINK: INCHIKEY KNAHARQHSZJURB-UHFFFAOYSA-N
CH$LINK: COMPTOX DTXSID5021209
AC$INSTRUMENT: API3000, Applied Biosystems
AC$INSTRUMENT_TYPE: LC-ESI-QQ
AC$MASS_SPECTROMETRY: MS_TYPE MS2
AC$MASS_SPECTROMETRY: ION_MODE POSITIVE
AC$MASS_SPECTROMETRY: COLLISION_ENERGY 40 V
MS$FOCUSED_ION: PRECURSOR_M/Z 171
MS$FOCUSED_ION: PRECURSOR_TYPE [M+H]+
PK$SPLASH: splash10-03xr-9200000000-8eb9b68ae97914399fc0
PK$NUM_PEAK: 44
PK$PEAK: m/z int. rel.int.
  41.200 202970.5 105
  43.000 242574.5 125
  44.200 118812.0 61
  46.700 34653.5 18
  53.900 44554.5 23
  55.300 277228.0 143
  56.400 148515.0 77
  57.400 44554.5 23
  60.100 1816833.5 938
  63.300 19802.0 10
  65.100 529703.5 273
  66.900 1896041.5 979
  68.200 183168.5 95
  69.000 658416.5 340
  70.300 1599011.5 825
  71.800 311881.5 161
  77.000 59406.0 31
  80.200 74257.5 38
  81.000 202970.5 105
  82.200 158416.0 82
  83.100 425743.0 220
  84.100 232673.5 120
  85.100 118812.0 61
  86.100 1732675.0 894
  91.900 277228.0 143
  93.000 148515.0 77
  95.100 405941.0 210
  95.900 108911.0 56
  96.300 59406.0 31
  97.000 44554.5 23
  97.700 99010.0 51
  98.500 64356.5 33
  109.300 39604.0 20
  110.000 54455.5 28
  112.000 1935645.5 999
  114.000 232673.5 120
  120.100 39604.0 20
  125.300 54455.5 28
  127.200 14851.5 8
  135.100 54455.5 28
  141.900 59406.0 31
  153.800 445545.0 230
  171.000 44554.5 23
  416.400 103960.5 54
//
