ACCESSION: MSBNK-Keio_Univ-KO002851
RECORD_TITLE: Ethanolamine; LC-ESI-QQ; MS2; CE:30 V; [M+H]+
DATE: 2016.01.19 (Created 2007.07.07, modified 2011.05.10)
AUTHORS: Kakazu Y, Horai H, Institute for Advanced Biosciences, Keio Univ.
LICENSE: CC BY-NC-SA
COMMENT: KEIO_ID E023
CH$NAME: Ethanolamine
CH$NAME: Aminoethanol
CH$NAME: 2-Hydroxyethylamine
CH$COMPOUND_CLASS: N/A
CH$FORMULA: C2H7NO
CH$EXACT_MASS: 61.05276
CH$SMILES: NCCO
CH$IUPAC: InChI=1S/C2H7NO/c3-1-2-4/h4H,1-3H2
CH$LINK: CAS 141-43-5
CH$LINK: CHEBI CHEBI:16000
CH$LINK: KEGG C00189
CH$LINK: NIKKAJI J2.536D
CH$LINK: PUBCHEM SID:3489
CH$LINK: INCHIKEY HZAXFHJVJLSVMW-UHFFFAOYSA-N
CH$LINK: COMPTOX DTXSID6022000
AC$INSTRUMENT: API3000, Applied Biosystems
AC$INSTRUMENT_TYPE: LC-ESI-QQ
AC$MASS_SPECTROMETRY: MS_TYPE MS2
AC$MASS_SPECTROMETRY: ION_MODE POSITIVE
AC$MASS_SPECTROMETRY: COLLISION_ENERGY 30 V
MS$FOCUSED_ION: PRECURSOR_M/Z 62
MS$FOCUSED_ION: PRECURSOR_TYPE [M+H]+
PK$SPLASH: splash10-0007-9000000000-e477e52f411d933a30b7
PK$NUM_PEAK: 5
PK$PEAK: m/z int. rel.int.
  42.000 69307.0 103
  43.300 49505.0 73
  44.200 673268.0 999
  45.000 509901.5 757
  61.900 44554.5 66
//
