ACCESSION: MSBNK-Keio_Univ-KO003640
RECORD_TITLE: D-Ornithine; LC-ESI-QQ; MS2; CE:40 V; [M+H]+
DATE: 2016.01.19 (Created 2007.07.07, modified 2011.05.10)
AUTHORS: Kakazu Y, Horai H, Institute for Advanced Biosciences, Keio Univ.
LICENSE: CC BY-NC-SA
COMMENT: KEIO_ID O005
CH$NAME: D-Ornithine
CH$COMPOUND_CLASS: N/A
CH$FORMULA: C5H12N2O2
CH$EXACT_MASS: 132.08988
CH$SMILES: NCCC[C@@H](N)C(O)=O
CH$IUPAC: InChI=1S/C5H12N2O2/c6-3-1-2-4(7)5(8)9/h4H,1-3,6-7H2,(H,8,9)/t4-/m1/s1
CH$LINK: CAS 348-66-3
CH$LINK: CHEBI CHEBI:16176
CH$LINK: KEGG C00515
CH$LINK: NIKKAJI J9.191J
CH$LINK: PUBCHEM CID:71082
CH$LINK: INCHIKEY AHLPHDHHMVZTML-SCSAIBSYSA-N
CH$LINK: COMPTOX DTXSID30883368
AC$INSTRUMENT: API3000, Applied Biosystems
AC$INSTRUMENT_TYPE: LC-ESI-QQ
AC$MASS_SPECTROMETRY: MS_TYPE MS2
AC$MASS_SPECTROMETRY: ION_MODE POSITIVE
AC$MASS_SPECTROMETRY: COLLISION_ENERGY 40 V
MS$FOCUSED_ION: PRECURSOR_M/Z 133
MS$FOCUSED_ION: PRECURSOR_TYPE [M+H]+
PK$SPLASH: splash10-00di-9000000000-b4769e364cb748464ebe
PK$NUM_PEAK: 5
PK$PEAK: m/z int. rel.int.
  42.200 24752.5 7
  67.800 34653.5 10
  70.100 3311884.5 999
  87.600 24752.5 7
  106.400 9901.0 3
//
