ACCESSION: MSBNK-Keio_Univ-KO000275
RECORD_TITLE: 8-Anilino-1-naphthalene sulfonic acid; LC-ESI-QQ; MS2; CE:30 V; [M-H]-
DATE: 2016.01.19 (Created 2007.07.07, modified 2011.05.10)
AUTHORS: Kakazu Y, Horai H, Institute for Advanced Biosciences, Keio Univ.
LICENSE: CC BY-NC-SA
COMMENT: KEIO_ID A177
CH$NAME: 8-Anilino-1-naphthalene sulfonate
CH$NAME: 1-Anilino-8-naphthalenesulfonate
CH$NAME: 8-Anilino-1-naphthalene sulfonic acid
CH$NAME: ANS
CH$COMPOUND_CLASS: N/A
CH$FORMULA: C16H13NO3S
CH$EXACT_MASS: 299.06161
CH$SMILES: c(c3)ccc(c3)Nc(c2)c(c(cc2)1)c(ccc1)S(O)(=O)=O
CH$IUPAC: InChI=1S/C16H13NO3S/c18-21(19,20)15-11-5-7-12-6-4-10-14(16(12)15)17-13-8-2-1-3-9-13/h1-11,17H,(H,18,19,20)
CH$LINK: CAS 82-76-8
CH$LINK: KEGG C11326
CH$LINK: NIKKAJI J4.618C
CH$LINK: PUBCHEM SID:13501
CH$LINK: INCHIKEY FWEOQOXTVHGIFQ-UHFFFAOYSA-N
CH$LINK: COMPTOX DTXSID7058882
AC$INSTRUMENT: API3000, Applied Biosystems
AC$INSTRUMENT_TYPE: LC-ESI-QQ
AC$MASS_SPECTROMETRY: MS_TYPE MS2
AC$MASS_SPECTROMETRY: ION_MODE NEGATIVE
AC$MASS_SPECTROMETRY: COLLISION_ENERGY 30 V
MS$FOCUSED_ION: PRECURSOR_M/Z 298
MS$FOCUSED_ION: PRECURSOR_TYPE [M-H]-
PK$SPLASH: splash10-0002-1090000000-219da52d66dd8e9128c8
PK$NUM_PEAK: 9
PK$PEAK: m/z int. rel.int.
  59.100 64356.5 32
  80.000 49505.0 25
  96.900 153465.5 77
  118.700 39604.0 20
  162.400 9901.0 5
  205.500 29703.0 15
  218.500 103960.5 52
  233.900 212871.5 107
  298.400 1980200.0 999
//
