ACCESSION: MSBNK-Keio_Univ-KO000132
RECORD_TITLE: N-Acetylmethionine; LC-ESI-QQ; MS2; CE:50 V; [M-H]-
DATE: 2016.01.19 (Created 2007.07.07, modified 2011.05.10)
AUTHORS: Kakazu Y, Horai H, Institute for Advanced Biosciences, Keio Univ.
LICENSE: CC BY-NC-SA
COMMENT: KEIO_ID A065
CH$NAME: N-Acetylmethionine
CH$COMPOUND_CLASS: N/A
CH$FORMULA: C7H13NO3S
CH$EXACT_MASS: 191.06161
CH$SMILES: CSCC[C@H](NC(C)=O)C(O)=O
CH$IUPAC: InChI=1S/C7H13NO3S/c1-5(9)8-6(7(10)11)3-4-12-2/h6H,3-4H2,1-2H3,(H,8,9)(H,10,11)/t6-/m0/s1
CH$LINK: CAS 65-82-7
CH$LINK: KEGG C02712
CH$LINK: NIKKAJI J4.840B
CH$LINK: PUBCHEM CID:448580
CH$LINK: INCHIKEY XUYPXLNMDZIRQH-LURJTMIESA-N
CH$LINK: COMPTOX DTXSID00883214
AC$INSTRUMENT: API3000, Applied Biosystems
AC$INSTRUMENT_TYPE: LC-ESI-QQ
AC$MASS_SPECTROMETRY: MS_TYPE MS2
AC$MASS_SPECTROMETRY: ION_MODE NEGATIVE
AC$MASS_SPECTROMETRY: COLLISION_ENERGY 50 V
MS$FOCUSED_ION: PRECURSOR_M/Z 190
MS$FOCUSED_ION: PRECURSOR_TYPE [M-H]-
PK$SPLASH: splash10-0002-9000000000-275fc8f00e0ba4f1dbea
PK$NUM_PEAK: 10
PK$PEAK: m/z int. rel.int.
  41.000 44554.5 6
  42.300 118812.0 17
  45.200 19802.0 3
  46.100 94059.5 14
  47.100 6866343.5 999
  56.200 19802.0 3
  57.400 173267.5 25
  57.600 19802.0 3
  71.900 24752.5 4
  84.000 311881.5 45
//
