ACCESSION: MSBNK-Keio_Univ-KO002385
RECORD_TITLE: Dapsone; LC-ESI-QQ; MS2; CE:30 V; [M+H]+
DATE: 2016.01.19 (Created 2007.07.07, modified 2011.05.10)
AUTHORS: Kakazu Y, Horai H, Institute for Advanced Biosciences, Keio Univ.
LICENSE: CC BY-NC-SA
COMMENT: KEIO_ID A220
CH$NAME: 4-Aminophenylsulfone
CH$NAME: 4,4'-Sulfonylbisbenzenamine
CH$NAME: Dapsone
CH$NAME: Diaphenylsulfone
CH$COMPOUND_CLASS: N/A
CH$FORMULA: C12H12N2O2S
CH$EXACT_MASS: 248.06195
CH$SMILES: Nc(c2)ccc(c2)S(=O)(=O)c(c1)ccc(N)c1
CH$IUPAC: InChI=1S/C12H12N2O2S/c13-9-1-5-11(6-2-9)17(15,16)12-7-3-10(14)4-8-12/h1-8H,13-14H2
CH$LINK: CAS 80-08-0
CH$LINK: KEGG C07666
CH$LINK: NIKKAJI J4.247A
CH$LINK: PUBCHEM CID:2955
CH$LINK: INCHIKEY MQJKPEGWNLWLTK-UHFFFAOYSA-N
CH$LINK: COMPTOX DTXSID4020371
AC$INSTRUMENT: API3000, Applied Biosystems
AC$INSTRUMENT_TYPE: LC-ESI-QQ
AC$MASS_SPECTROMETRY: MS_TYPE MS2
AC$MASS_SPECTROMETRY: ION_MODE POSITIVE
AC$MASS_SPECTROMETRY: COLLISION_ENERGY 30 V
MS$FOCUSED_ION: PRECURSOR_M/Z 249
MS$FOCUSED_ION: PRECURSOR_TYPE [M+H]+
PK$SPLASH: splash10-0a4l-8900000000-5da3a6d058cb14fc8300
PK$NUM_PEAK: 19
PK$PEAK: m/z int. rel.int.
  62.900 24752.5 11
  64.600 49505.0 21
  70.600 29703.0 13
  73.900 39604.0 17
  82.900 39604.0 17
  84.100 14851.5 6
  91.900 2316834.0 999
  93.000 321782.5 139
  94.700 19802.0 9
  98.900 34653.5 15
  102.400 44554.5 19
  104.900 34653.5 15
  108.000 2079210.0 897
  109.900 44554.5 19
  114.800 9901.0 4
  128.700 54455.5 23
  137.400 44554.5 19
  156.200 594060.0 256
  249.500 24752.5 11
//
