ACCESSION: MSBNK-Keio_Univ-KO003744
RECORD_TITLE: DL-Pipecolic acid; LC-ESI-QQ; MS2; CE:20 V; [M+H]+
DATE: 2016.01.19 (Created 2007.07.07, modified 2011.05.10)
AUTHORS: Kakazu Y, Horai H, Institute for Advanced Biosciences, Keio Univ.
LICENSE: CC BY-NC-SA
COMMENT: KEIO_ID P048
CH$NAME: Pipecolate
CH$NAME: Pipecolic acid
CH$NAME: 2-Piperidinecarboxylic acid
CH$NAME: L-Pipecolate
CH$NAME: Pipecolinic acid
CH$NAME: DL-Pipecolic acid
CH$COMPOUND_CLASS: N/A
CH$FORMULA: C6H11NO2
CH$EXACT_MASS: 129.07898
CH$SMILES: OC(=O)C([H])(C1)NCCC1
CH$IUPAC: InChI=1S/C6H11NO2/c8-6(9)5-3-1-2-4-7-5/h5,7H,1-4H2,(H,8,9)/t5-/m0/s1
CH$LINK: CAS 3105-95-1
CH$LINK: CHEBI CHEBI:30913
CH$LINK: KEGG C00408
CH$LINK: NIKKAJI J215.717I
CH$LINK: PUBCHEM CID:439227
CH$LINK: INCHIKEY HXEACLLIILLPRG-YFKPBYRVSA-N
AC$INSTRUMENT: API3000, Applied Biosystems
AC$INSTRUMENT_TYPE: LC-ESI-QQ
AC$MASS_SPECTROMETRY: MS_TYPE MS2
AC$MASS_SPECTROMETRY: ION_MODE POSITIVE
AC$MASS_SPECTROMETRY: COLLISION_ENERGY 20 V
MS$FOCUSED_ION: PRECURSOR_M/Z 130
MS$FOCUSED_ION: PRECURSOR_TYPE [M+H]+
PK$SPLASH: splash10-001i-9100000000-a4a80ec7473a69829795
PK$NUM_PEAK: 17
PK$PEAK: m/z int. rel.int.
  56.000 207921.0 2
  60.300 44554.5 1
  67.000 222772.5 2
  68.900 39604.0 1
  69.900 49505.0 1
  71.100 232673.5 2
  80.700 69307.0 1
  81.300 84158.5 1
  82.400 24752.5 1
  84.100 134727857.5 999
  95.000 356436.0 3
  102.300 29703.0 1
  102.900 39604.0 1
  104.300 44554.5 1
  112.200 306931.0 2
  113.100 1282179.5 10
  130.200 26059432.0 193
//
