ACCESSION: MSBNK-Keio_Univ-KO000875
RECORD_TITLE: Glutaric acid; LC-ESI-QQ; MS2; CE:30 V; [M-H]-
DATE: 2016.01.19 (Created 2007.07.07, modified 2011.05.10)
AUTHORS: Kakazu Y, Horai H, Institute for Advanced Biosciences, Keio Univ.
LICENSE: CC BY-NC-SA
COMMENT: KEIO_ID G036
CH$NAME: Glutarate
CH$NAME: Pentanedioic acid
CH$NAME: 1,3-Propanedicarboxylic acid
CH$NAME: Glutaric acid
CH$COMPOUND_CLASS: N/A
CH$FORMULA: C5H8O4
CH$EXACT_MASS: 132.04226
CH$SMILES: OC(=O)CCCC(O)=O
CH$IUPAC: InChI=1S/C5H8O4/c6-4(7)2-1-3-5(8)9/h1-3H2,(H,6,7)(H,8,9)
CH$LINK: CAS 110-94-1
CH$LINK: CHEBI CHEBI:17859
CH$LINK: CHEMPDB GUA
CH$LINK: KEGG C00489
CH$LINK: NIKKAJI J40.077G
CH$LINK: PUBCHEM SID:3772
CH$LINK: INCHIKEY JFCQEDHGNNZCLN-UHFFFAOYSA-N
CH$LINK: COMPTOX DTXSID2021654
AC$INSTRUMENT: API3000, Applied Biosystems
AC$INSTRUMENT_TYPE: LC-ESI-QQ
AC$MASS_SPECTROMETRY: MS_TYPE MS2
AC$MASS_SPECTROMETRY: ION_MODE NEGATIVE
AC$MASS_SPECTROMETRY: COLLISION_ENERGY 30 V
MS$FOCUSED_ION: PRECURSOR_M/Z 131
MS$FOCUSED_ION: PRECURSOR_TYPE [M-H]-
PK$SPLASH: splash10-000i-9000000000-8884b857c9582288f35a
PK$NUM_PEAK: 9
PK$PEAK: m/z int. rel.int.
  41.000 287129.0 59
  59.000 594060.0 123
  69.200 1425744.0 294
  71.000 227723.0 47
  78.600 14851.5 3
  87.100 4836638.5 999
  88.700 39604.0 8
  113.200 103960.5 21
  130.700 44554.5 9
//
