ACCESSION: MSBNK-Keio_Univ-KO003767
RECORD_TITLE: Propylthiouracil; LC-ESI-QQ; MS2; CE:50 V; [M+H]+
DATE: 2016.01.19 (Created 2007.07.07, modified 2011.05.10)
AUTHORS: Kakazu Y, Horai H, Institute for Advanced Biosciences, Keio Univ.
LICENSE: CC BY-NC-SA
COMMENT: KEIO_ID P055
CH$NAME: Propylthiouracil
CH$COMPOUND_CLASS: N/A
CH$FORMULA: C7H10N2OS
CH$EXACT_MASS: 170.05138
CH$SMILES: CCCC(=C1)NC(=S)NC(=O)1
CH$IUPAC: InChI=1S/C7H10N2OS/c1-2-3-5-4-6(10)9-7(11)8-5/h4H,2-3H2,1H3,(H2,8,9,10,11)
CH$LINK: CAS 51-52-5
CH$LINK: KEGG C07569
CH$LINK: NIKKAJI J1.363C
CH$LINK: PUBCHEM CID:657298
CH$LINK: INCHIKEY KNAHARQHSZJURB-UHFFFAOYSA-N
CH$LINK: COMPTOX DTXSID5021209
AC$INSTRUMENT: API3000, Applied Biosystems
AC$INSTRUMENT_TYPE: LC-ESI-QQ
AC$MASS_SPECTROMETRY: MS_TYPE MS2
AC$MASS_SPECTROMETRY: ION_MODE POSITIVE
AC$MASS_SPECTROMETRY: COLLISION_ENERGY 50 V
MS$FOCUSED_ION: PRECURSOR_M/Z 171
MS$FOCUSED_ION: PRECURSOR_TYPE [M+H]+
PK$SPLASH: splash10-00di-1900000000-b867c06c7c74b627274c
PK$NUM_PEAK: 33
PK$PEAK: m/z int. rel.int.
  41.300 217822.0 10
  42.300 44554.5 2
  43.300 108911.0 5
  44.000 143564.5 7
  54.400 54455.5 2
  55.200 173267.5 8
  55.900 79208.0 4
  60.000 970298.0 44
  61.000 14851.5 1
  62.900 89109.0 4
  64.900 207921.0 9
  66.900 410891.5 19
  69.000 217822.0 10
  69.700 193069.5 9
  72.000 188119.0 9
  76.800 64356.5 3
  77.300 44554.5 2
  81.100 123762.5 6
  83.100 128713.0 6
  84.200 123762.5 6
  86.100 514852.0 23
  97.300 9901.0 1
  106.700 74257.5 3
  111.400 44554.5 2
  111.900 173267.5 8
  113.700 69307.0 3
  121.100 420792.5 19
  134.800 34653.5 2
  136.600 14851.5 1
  139.000 54455.5 2
  153.100 59406.0 3
  154.200 227723.0 10
  171.200 22054477.5 999
//
