ACCESSION: MSBNK-Keio_Univ-KO003720
RECORD_TITLE: Piperacillin; LC-ESI-QQ; MS2; CE:30 V; [M+H]+
DATE: 2016.01.19 (Created 2007.07.07, modified 2011.05.10)
AUTHORS: Kakazu Y, Horai H, Institute for Advanced Biosciences, Keio Univ.
LICENSE: CC BY-NC-SA
COMMENT: KEIO_ID P039
CH$NAME: Piperacillin
CH$NAME: Pipracil
CH$NAME: Piperacillin sodium
CH$COMPOUND_CLASS: N/A
CH$FORMULA: C23H27N5O7S
CH$EXACT_MASS: 517.16312
CH$SMILES: CCN(C4)C(=O)C(=O)N(C4)C(=O)NC(c(c3)cccc3)C(=O)NC(C(=O)1)C(S2)N1C(C(O)=O)C(C)(C)2
CH$IUPAC: InChI=1S/C23H27N5O7S/c1-4-26-10-11-27(19(32)18(26)31)22(35)25-13(12-8-6-5-7-9-12)16(29)24-14-17(30)28-15(21(33)34)23(2,3)36-20(14)28/h5-9,13-15,20H,4,10-11H2,1-3H3,(H,24,29)(H,25,35)(H,33,34)/t13-,14-,15+,20-/m1/s1
CH$LINK: CAS 59703-84-3
CH$LINK: KEGG C07361
CH$LINK: NIKKAJI J18.443H
CH$LINK: PUBCHEM CID:23666879
CH$LINK: INCHIKEY IVBHGBMCVLDMKU-GXNBUGAJSA-N
CH$LINK: COMPTOX DTXSID2023482
AC$INSTRUMENT: API3000, Applied Biosystems
AC$INSTRUMENT_TYPE: LC-ESI-QQ
AC$MASS_SPECTROMETRY: MS_TYPE MS2
AC$MASS_SPECTROMETRY: ION_MODE POSITIVE
AC$MASS_SPECTROMETRY: COLLISION_ENERGY 30 V
MS$FOCUSED_ION: PRECURSOR_M/Z 518
MS$FOCUSED_ION: PRECURSOR_TYPE [M+H]+
PK$SPLASH: splash10-0udl-0890000000-1d19bc9caab1a3f5b623
PK$NUM_PEAK: 7
PK$PEAK: m/z int. rel.int.
  142.700 64356.5 928
  164.800 34653.5 500
  166.000 19802.0 285
  187.300 24752.5 357
  204.100 59406.0 856
  204.600 69307.0 999
  211.200 19802.0 285
//
