ACCESSION: MSBNK-Keio_Univ-KO001507
RECORD_TITLE: Norvaline; LC-ESI-QQ; MS2; CE:10 V; [M-H]-
DATE: 2016.01.19 (Created 2007.07.07, modified 2011.05.10)
AUTHORS: Kakazu Y, Horai H, Institute for Advanced Biosciences, Keio Univ.
LICENSE: CC BY-NC-SA
COMMENT: KEIO_ID N009
CH$NAME: Norvaline
CH$NAME: (S)-2-Aminopentanoic acid
CH$NAME: L-2-Aminopentanoic acid
CH$NAME: L-2-Aminovaleric acid
CH$NAME: L-Norvaline
CH$COMPOUND_CLASS: N/A
CH$FORMULA: C5H11NO2
CH$EXACT_MASS: 117.07898
CH$SMILES: CCC[C@H](N)C(O)=O
CH$IUPAC: InChI=1S/C5H11NO2/c1-2-3-4(6)5(7)8/h4H,2-3,6H2,1H3,(H,7,8)/t4-/m0/s1
CH$LINK: CAS 6600-40-4
CH$LINK: CHEBI CHEBI:18314
CH$LINK: KEGG C01826
CH$LINK: NIKKAJI J9.213D
CH$LINK: PUBCHEM CID:65098
CH$LINK: INCHIKEY SNDPXSYFESPGGJ-BYPYZUCNSA-N
AC$INSTRUMENT: API3000, Applied Biosystems
AC$INSTRUMENT_TYPE: LC-ESI-QQ
AC$MASS_SPECTROMETRY: MS_TYPE MS2
AC$MASS_SPECTROMETRY: ION_MODE NEGATIVE
AC$MASS_SPECTROMETRY: COLLISION_ENERGY 10 V
MS$FOCUSED_ION: PRECURSOR_M/Z 116
MS$FOCUSED_ION: PRECURSOR_TYPE [M-H]-
PK$SPLASH: splash10-014i-0900000000-aa4cfcf519f06eec7d88
PK$NUM_PEAK: 7
PK$PEAK: m/z int. rel.int.
  59.300 351485.5 2
  68.000 14851.5 1
  70.300 113861.5 1
  71.800 29703.0 1
  98.200 39604.0 1
  116.200 180658596.5 999
  133.800 39604.0 1
//
