ACCESSION: MSBNK-Keio_Univ-KO002208
RECORD_TITLE: Amidopyrine; LC-ESI-QQ; MS2; CE:10 V; [M+H]+
DATE: 2016.01.19 (Created 2007.07.07, modified 2011.05.10)
AUTHORS: Kakazu Y, Horai H, Institute for Advanced Biosciences, Keio Univ.
LICENSE: CC BY-NC-SA
COMMENT: KEIO_ID A069
CH$NAME: Aminopyrine
CH$NAME: 4-Dimethylaminoantipyrine
CH$NAME: Amidopyrine
CH$COMPOUND_CLASS: N/A
CH$FORMULA: C13H17N3O
CH$EXACT_MASS: 231.13716
CH$SMILES: CN(C)C(=C(C)1)C(=O)N(c(c2)cccc2)N(C)1
CH$IUPAC: InChI=1S/C13H17N3O/c1-10-12(14(2)3)13(17)16(15(10)4)11-8-6-5-7-9-11/h5-9H,1-4H3
CH$LINK: CAS 58-15-1
CH$LINK: KEGG C07539
CH$LINK: NIKKAJI J2.331K
CH$LINK: PUBCHEM SID:9742
CH$LINK: INCHIKEY RMMXTBMQSGEXHJ-UHFFFAOYSA-N
CH$LINK: COMPTOX DTXSID7020504
AC$INSTRUMENT: API3000, Applied Biosystems
AC$INSTRUMENT_TYPE: LC-ESI-QQ
AC$MASS_SPECTROMETRY: MS_TYPE MS2
AC$MASS_SPECTROMETRY: ION_MODE POSITIVE
AC$MASS_SPECTROMETRY: COLLISION_ENERGY 10 V
MS$FOCUSED_ION: PRECURSOR_M/Z 232
MS$FOCUSED_ION: PRECURSOR_TYPE [M+H]+
PK$SPLASH: splash10-001i-0090000000-2527cae3cd95916624e4
PK$NUM_PEAK: 56
PK$PEAK: m/z int. rel.int.
  56.000 39604.0 1
  63.700 14851.5 1
  69.800 49505.0 1
  72.200 386139.0 1
  77.800 74257.5 1
  82.300 113861.5 1
  84.000 257426.0 1
  84.500 59406.0 1
  87.000 980199.0 1
  89.100 19802.0 1
  96.900 430693.5 1
  98.000 2440596.5 2
  99.000 1737625.5 1
  100.000 163366.5 1
  103.200 44554.5 1
  105.900 306931.0 1
  111.300 12564369.0 9
  113.300 60203030.5 43
  117.900 935644.5 1
  127.100 1316833.0 1
  128.300 54455.5 1
  129.500 19802.0 1
  131.800 118812.0 1
  132.300 24752.5 1
  133.100 39604.0 1
  139.200 8727731.5 6
  142.900 212871.5 1
  144.100 24752.5 1
  146.000 1049506.0 1
  147.200 425743.0 1
  149.300 1782180.0 1
  154.500 29703.0 1
  156.400 34653.5 1
  157.800 69307.0 1
  159.100 2366339.0 2
  161.000 128713.0 1
  162.800 34653.5 1
  163.900 14851.5 1
  168.500 128713.0 1
  169.700 24752.5 1
  172.200 54455.5 1
  175.100 1668318.5 1
  177.200 1123763.5 1
  183.300 79208.0 1
  187.300 11980210.0 9
  188.200 2702973.0 2
  189.400 440594.5 1
  190.900 34653.5 1
  197.100 247525.0 1
  200.300 410891.5 1
  201.100 391089.5 1
  204.200 1856437.5 1
  214.300 148515.0 1
  215.300 6737630.5 5
  217.300 801981.0 1
  232.300 1390570697.5 999
//
