ACCESSION: MSBNK-Keio_Univ-KO001357
RECORD_TITLE: Methanesulfonic acid; LC-ESI-QQ; MS2; CE:20 V; [M-H]-
DATE: 2016.01.19 (Created 2007.07.07, modified 2011.05.10)
AUTHORS: Kakazu Y, Horai H, Institute for Advanced Biosciences, Keio Univ.
LICENSE: CC BY-NC-SA
COMMENT: KEIO_ID M021
CH$NAME: Methanesulfonate
CH$NAME: Methanesulfonic acid
CH$COMPOUND_CLASS: N/A
CH$FORMULA: CH4O3S
CH$EXACT_MASS: 95.98811
CH$SMILES: CS(O)(=O)=O
CH$IUPAC: InChI=1S/CH4O3S/c1-5(2,3)4/h1H3,(H,2,3,4)
CH$LINK: CAS 75-75-2
CH$LINK: KEGG C11145
CH$LINK: NIKKAJI J1.465F
CH$LINK: PUBCHEM SID:13327
CH$LINK: INCHIKEY AFVFQIVMOAPDHO-UHFFFAOYSA-N
CH$LINK: COMPTOX DTXSID4026422
AC$INSTRUMENT: API3000, Applied Biosystems
AC$INSTRUMENT_TYPE: LC-ESI-QQ
AC$MASS_SPECTROMETRY: MS_TYPE MS2
AC$MASS_SPECTROMETRY: ION_MODE NEGATIVE
AC$MASS_SPECTROMETRY: COLLISION_ENERGY 20 V
MS$FOCUSED_ION: PRECURSOR_M/Z 95
MS$FOCUSED_ION: PRECURSOR_TYPE [M-H]-
PK$SPLASH: splash10-000t-9000000000-762ad1a40de4d4bbfc1e
PK$NUM_PEAK: 6
PK$PEAK: m/z int. rel.int.
  64.800 84158.5 2
  76.900 99010.0 2
  78.600 19802.0 1
  79.200 64356.5 1
  80.000 38767365.5 720
  95.000 53767380.5 999
//
