ACCESSION: MSBNK-Keio_Univ-KO002908
RECORD_TITLE: N-Formyl-L-Methionine; LC-ESI-QQ; MS2; CE:50 V; [M+H]+
DATE: 2016.01.19 (Created 2010.02.10, modified 2011.05.10)
AUTHORS: Kakazu Y, Horai H, Institute for Advanced Biosciences, Keio Univ.
LICENSE: CC BY-NC-SA
COMMENT: KEIO_ID F034
CH$NAME: N-Formylmethionine
CH$NAME: N-Formyl-L-Methionine
CH$COMPOUND_CLASS: N/A
CH$FORMULA: C6H11NO3S
CH$EXACT_MASS: 177.04596
CH$SMILES: [H]C(=O)N[C@@H](CCSC)C(O)=O
CH$IUPAC: InChI=1S/C6H11NO3S/c1-11-3-2-5(6(9)10)7-4-8/h4-5H,2-3H2,1H3,(H,7,8)(H,9,10)/t5-/m0/s1
CH$LINK: KEGG C03145
CH$LINK: INCHIKEY PYUSHNKNPOHWEZ-YFKPBYRVSA-N
CH$LINK: COMPTOX DTXSID80863357
AC$INSTRUMENT: API3000, Applied Biosystems
AC$INSTRUMENT_TYPE: LC-ESI-QQ
AC$MASS_SPECTROMETRY: MS_TYPE MS2
AC$MASS_SPECTROMETRY: ION_MODE POSITIVE
AC$MASS_SPECTROMETRY: COLLISION_ENERGY 50 V
MS$FOCUSED_ION: PRECURSOR_M/Z 178
MS$FOCUSED_ION: PRECURSOR_TYPE [M+H]+
PK$SPLASH: splash10-03di-9100000000-61580bdacfbf4ccd3b72
PK$NUM_PEAK: 10
PK$PEAK: m/z int. rel.int.
  42.900 19802.0 129
  54.300 29703.0 193
  57.000 14851.5 97
  58.800 59406.0 387
  61.200 153465.5 999
  84.000 74257.5 483
  86.800 24752.5 161
  102.800 14851.5 97
  109.400 14851.5 97
  115.100 44554.5 290
//
