ACCESSION: MSBNK-Keio_Univ-KO008849
RECORD_TITLE: Argininosuccinic acid; LC-ESI-IT; MS3; m/z: 291/133; [M+H]+
DATE: 2011.12.05 (Created 2008.05.12)
AUTHORS: Ojima Y, Kakazu Y, Horai H, Soga T, Institute for Advanced Biosciences, Keio Univ.
LICENSE: CC BY-NC-SA
COMMENT: KEIO_ID A039
COMMENT: [MS2] KO008844
CH$NAME: Argininosuccinate
CH$NAME: L-Argininosuccinate
CH$NAME: L-Argininosuccinic acid
CH$NAME: L-Arginosuccinic acid
CH$NAME: N(omega)-(L-Arginino)succinate
CH$NAME: N-(L-Arginino)succinate
CH$NAME: Argininosuccinic acid
CH$COMPOUND_CLASS: N/A
CH$FORMULA: C10H18N4O6
CH$EXACT_MASS: 290.12263
CH$SMILES: OC(=O)CC(C(O)=O)NC(=N)NCCCC(N)C(O)=O
CH$IUPAC: InChI=1S/C10H18N4O6/c11-5(8(17)18)2-1-3-13-10(12)14-6(9(19)20)4-7(15)16/h5-6H,1-4,11H2,(H,15,16)(H,17,18)(H,19,20)(H3,12,13,14)/t5-,6-/m0/s1
CH$LINK: CHEBI CHEBI:15682
CH$LINK: KEGG C03406
CH$LINK: PUBCHEM CID:16950
CH$LINK: INCHIKEY KDZOASGQNOPSCU-WDSKDSINSA-N
CH$LINK: COMPTOX DTXSID80178574
AC$INSTRUMENT: LC/MSD Trap XCT, Agilent Technologies
AC$INSTRUMENT_TYPE: LC-ESI-IT
AC$MASS_SPECTROMETRY: MS_TYPE MS3
AC$MASS_SPECTROMETRY: ION_MODE POSITIVE
AC$MASS_SPECTROMETRY: COLLISION_ENERGY 0.70/0.55
MS$FOCUSED_ION: PRECURSOR_M/Z 291/133
MS$FOCUSED_ION: PRECURSOR_TYPE [M+H]+
MS$DATA_PROCESSING: WHOLE LC/MSD Trap Control and Data Analysis
PK$SPLASH: splash10-014i-0900000000-25c094a4a18cfe463b6b
PK$NUM_PEAK: 12
PK$PEAK: m/z int. rel.int.
  70.2 143.00 31
  87.0 4.08 1
  88.1 15.92 3
  91.1 24.08 5
  97.2 7.38 2
  104.9 1.92 1
  115.1 4557.82 999
  116.1 2641.73 579
  117.1 3.23 1
  133.1 55.08 12
  134.0 19.62 4
  187.6 1.69 1
//
