ACCESSION: MSBNK-Keio_Univ-KO001460
RECORD_TITLE: alpha-D-(+)-mannose 1-phosphate; LC-ESI-QQ; MS2; CE:40 V; [M-H]-
DATE: 2016.01.19 (Created 2010.02.10, modified 2011.05.10)
AUTHORS: Kakazu Y, Horai H, Institute for Advanced Biosciences, Keio Univ.
LICENSE: CC BY-NC-SA
COMMENT: KEIO_ID M080
CH$NAME: Mannose 1-phosphate
CH$NAME: alpha-D-(+)-mannose 1-phosphate
CH$COMPOUND_CLASS: N/A
CH$FORMULA: C6H13O9P
CH$EXACT_MASS: 260.02972
CH$SMILES: OC[C@@H](O1)[C@@H](O)[C@H](O)[C@H](O)[C@H]1OP(O)(O)=O
CH$IUPAC: InChI=1S/C6H13O9P/c7-1-2-3(8)4(9)5(10)6(14-2)15-16(11,12)13/h2-10H,1H2,(H2,11,12,13)/t2-,3-,4+,5+,6-/m1/s1
CH$LINK: KEGG C00636
CH$LINK: INCHIKEY HXXFSFRBOHSIMQ-RWOPYEJCSA-N
AC$INSTRUMENT: API3000, Applied Biosystems
AC$INSTRUMENT_TYPE: LC-ESI-QQ
AC$MASS_SPECTROMETRY: MS_TYPE MS2
AC$MASS_SPECTROMETRY: ION_MODE NEGATIVE
AC$MASS_SPECTROMETRY: COLLISION_ENERGY 40 V
MS$FOCUSED_ION: PRECURSOR_M/Z 259
MS$FOCUSED_ION: PRECURSOR_TYPE [M-H]-
PK$SPLASH: splash10-004j-9000000000-84f8aa670e1f4e822a2f
PK$NUM_PEAK: 10
PK$PEAK: m/z int. rel.int.
  47.100 24752.5 1
  58.800 128713.0 5
  72.800 34653.5 1
  74.400 19802.0 1
  79.000 26227749.0 999
  83.000 34653.5 1
  97.100 16787145.5 639
  105.000 64356.5 2
  106.200 34653.5 1
  108.800 14851.5 1
//
