ACCESSION: MSBNK-Keio_Univ-KO009256
RECORD_TITLE: Propiconazole; LC-ESI-IT; MS3; m/z: 342/273; [M+H]+
DATE: 2011.12.05 (Created 2008.05.12)
AUTHORS: Ojima Y, Kakazu Y, Horai H, Soga T, Institute for Advanced Biosciences, Keio Univ.
LICENSE: CC BY-NC-SA
COMMENT: KEIO_ID T108
COMMENT: [MS2] KO009255
CH$NAME: Tilt(TM)
CH$NAME: Tilt (TM)
CH$NAME: Propiconazole
CH$COMPOUND_CLASS: N/A
CH$FORMULA: C15H17Cl2N3O2
CH$EXACT_MASS: 341.06978
CH$SMILES: CCCC(C3)OC(O3)(Cn(c2)ncn2)c(c1)c(Cl)cc(Cl)c1
CH$IUPAC: InChI=1S/C15H17Cl2N3O2/c1-2-3-12-7-21-15(22-12,8-20-10-18-9-19-20)13-5-4-11(16)6-14(13)17/h4-6,9-10,12H,2-3,7-8H2,1H3
CH$LINK: CAS 60207-90-1
CH$LINK: KEGG C11121
CH$LINK: NIKKAJI J18.426H
CH$LINK: PUBCHEM SID:13303
CH$LINK: INCHIKEY STJLVHWMYQXCPB-UHFFFAOYSA-N
CH$LINK: COMPTOX DTXSID8024280
AC$INSTRUMENT: LC/MSD Trap XCT, Agilent Technologies
AC$INSTRUMENT_TYPE: LC-ESI-IT
AC$MASS_SPECTROMETRY: MS_TYPE MS3
AC$MASS_SPECTROMETRY: ION_MODE POSITIVE
AC$MASS_SPECTROMETRY: COLLISION_ENERGY 1.00/0.55
MS$FOCUSED_ION: PRECURSOR_M/Z 342/273
MS$FOCUSED_ION: PRECURSOR_TYPE [M+H]+
MS$DATA_PROCESSING: WHOLE LC/MSD Trap Control and Data Analysis
PK$SPLASH: splash10-05fr-0290000000-ad1ce7133bc3c8b338e0
PK$NUM_PEAK: 5
PK$PEAK: m/z int. rel.int.
  87.2 3.31 105
  159.0 14.66 464
  204.2 13.25 419
  205.0 6.83 216
  273.1 31.56 999
//
