ACCESSION: MSBNK-Keio_Univ-KO000473
RECORD_TITLE: Thiamine pyrophosphate; LC-ESI-QQ; MS2; CE:30 V; [M-2H]-
DATE: 2016.01.19 (Created 2007.07.07, modified 2012.10.22)
AUTHORS: Kakazu Y, Horai H, Institute for Advanced Biosciences, Keio Univ.
LICENSE: CC BY-NC-SA
COMMENT: KEIO_ID C077
CH$NAME: Cocarboxylase
CH$NAME: Thiamin pyrophosphate
CH$NAME: TPP
CH$NAME: Thiamine diphosphate
CH$NAME: ThPP
CH$NAME: Thiamin diphosphate
CH$NAME: Thiamine pyrophosphate
CH$COMPOUND_CLASS: N/A
CH$FORMULA: [C12H19N4O7P2S]+
CH$EXACT_MASS: 425.04497
CH$SMILES: Cc(n2)nc(N)c(c2)C[n+1](c1)c(C)c(CCOP(O)(=O)OP(O)(O)=O)s1
CH$IUPAC: InChI=1S/C12H18N4O7P2S/c1-8-11(3-4-22-25(20,21)23-24(17,18)19)26-7-16(8)6-10-5-14-9(2)15-12(10)13/h5,7H,3-4,6H2,1-2H3,(H4-,13,14,15,17,18,19,20,21)/p+1
CH$LINK: CAS 154-87-0
CH$LINK: CHEBI CHEBI:18290
CH$LINK: KEGG C00068
CH$LINK: NIKKAJI J237.475G
CH$LINK: PUBCHEM SID:3368
CH$LINK: INCHIKEY AYEKOFBPNLCAJY-UHFFFAOYSA-O
CH$LINK: COMPTOX DTXSID2048404
AC$INSTRUMENT: API3000, Applied Biosystems
AC$INSTRUMENT_TYPE: LC-ESI-QQ
AC$MASS_SPECTROMETRY: MS_TYPE MS2
AC$MASS_SPECTROMETRY: ION_MODE NEGATIVE
AC$MASS_SPECTROMETRY: COLLISION_ENERGY 30 V
MS$FOCUSED_ION: PRECURSOR_M/Z 423
MS$FOCUSED_ION: PRECURSOR_TYPE [M-2H]-
PK$SPLASH: splash10-0udi-0409000000-088cf88d5056ce245770
PK$NUM_PEAK: 9
PK$PEAK: m/z int. rel.int.
  79.000 529703.5 75
  116.300 74257.5 11
  132.100 29703.0 4
  159.000 792080.0 113
  176.900 2683171.0 381
  243.000 34653.5 5
  259.100 54455.5 8
  284.200 653466.0 93
  302.400 7029710.0 999
//
