ACCESSION: MSBNK-Keio_Univ-KO000185
RECORD_TITLE: beta-Ala-Lys; LC-ESI-QQ; MS2; CE:50 V; [M-H]-
DATE: 2016.01.19 (Created 2007.07.07, modified 2011.05.10)
AUTHORS: Kakazu Y, Horai H, Institute for Advanced Biosciences, Keio Univ.
LICENSE: CC BY-NC-SA
COMMENT: KEIO_ID A127
CH$NAME: b-Ala-Lys
CH$NAME: beta-Alanyl-L-lysine
CH$NAME: beta-Ala-Lys
CH$COMPOUND_CLASS: N/A
CH$FORMULA: C9H19N3O3
CH$EXACT_MASS: 217.14264
CH$SMILES: NCCCC[C@@H](C(O)=O)NC(=O)CCN
CH$IUPAC: InChI=1S/C9H19N3O3/c10-5-2-1-3-7(9(14)15)12-8(13)4-6-11/h7H,1-6,10-11H2,(H,12,13)(H,14,15)/t7-/m0/s1
CH$LINK: KEGG C05341
CH$LINK: PUBCHEM CID:440638
CH$LINK: INCHIKEY PLDCWKCPEXNWJH-ZETCQYMHSA-N
AC$INSTRUMENT: API3000, Applied Biosystems
AC$INSTRUMENT_TYPE: LC-ESI-QQ
AC$MASS_SPECTROMETRY: MS_TYPE MS2
AC$MASS_SPECTROMETRY: ION_MODE NEGATIVE
AC$MASS_SPECTROMETRY: COLLISION_ENERGY 50 V
MS$FOCUSED_ION: PRECURSOR_M/Z 216
MS$FOCUSED_ION: PRECURSOR_TYPE [M-H]-
PK$SPLASH: splash10-052f-9100000000-fe3091a4fed02242560c
PK$NUM_PEAK: 9
PK$PEAK: m/z int. rel.int.
  41.300 103960.5 269
  41.900 143564.5 371
  58.200 386139.0 999
  67.700 39604.0 102
  70.800 19802.0 51
  78.900 39604.0 102
  86.800 9901.0 26
  97.000 133663.5 346
  144.900 188119.0 487
//
