ACCESSION: MSBNK-Keio_Univ-KO004054
RECORD_TITLE: Synephrine; LC-ESI-QQ; MS2; CE:30 V; [M+H]+
DATE: 2016.01.19 (Created 2007.07.07, modified 2011.05.10)
AUTHORS: Kakazu Y, Horai H, Institute for Advanced Biosciences, Keio Univ.
LICENSE: CC BY-NC-SA
COMMENT: KEIO_ID S058
CH$NAME: Synephrine
CH$NAME: (-)-Sympatol
CH$COMPOUND_CLASS: N/A
CH$FORMULA: C9H13NO2
CH$EXACT_MASS: 167.09463
CH$SMILES: CNCC(O)c(c1)ccc(O)c1
CH$IUPAC: InChI=1S/C9H13NO2/c1-10-6-9(12)7-2-4-8(11)5-3-7/h2-5,9-12H,6H2,1H3/t9-/m0/s1
CH$LINK: CAS 614-35-7
CH$LINK: CHEBI CHEBI:119
CH$LINK: KEGG C01869
CH$LINK: PUBCHEM CID:854067
CH$LINK: INCHIKEY YRCWQPVGYLYSOX-VIFPVBQESA-N
CH$LINK: COMPTOX DTXSID70904723
AC$INSTRUMENT: API3000, Applied Biosystems
AC$INSTRUMENT_TYPE: LC-ESI-QQ
AC$MASS_SPECTROMETRY: MS_TYPE MS2
AC$MASS_SPECTROMETRY: ION_MODE POSITIVE
AC$MASS_SPECTROMETRY: COLLISION_ENERGY 30 V
MS$FOCUSED_ION: PRECURSOR_M/Z 168
MS$FOCUSED_ION: PRECURSOR_TYPE [M+H]+
PK$SPLASH: splash10-052o-5900000000-82521f9cf8edbc11a2de
PK$NUM_PEAK: 51
PK$PEAK: m/z int. rel.int.
  42.100 79208.0 17
  43.000 19802.0 4
  43.900 19802.0 4
  45.200 529703.5 111
  57.200 89109.0 19
  62.800 19802.0 4
  67.300 34653.5 7
  68.900 123762.5 26
  73.900 24752.5 5
  77.100 133663.5 28
  78.800 49505.0 10
  79.300 19802.0 4
  80.200 24752.5 5
  80.900 242574.5 51
  82.100 123762.5 26
  83.100 49505.0 10
  86.400 287129.0 60
  87.100 64356.5 14
  89.000 242574.5 51
  90.900 4752480.0 999
  93.100 227723.0 48
  94.300 99010.0 21
  94.900 74257.5 16
  95.300 24752.5 5
  102.800 252475.5 53
  104.900 128713.0 27
  106.100 128713.0 27
  106.900 2029705.0 427
  108.200 396040.0 83
  109.300 1123763.5 236
  110.100 39604.0 8
  110.500 19802.0 4
  117.000 405941.0 85
  118.100 331683.5 70
  119.300 955446.5 201
  120.400 198020.0 42
  121.200 524753.0 110
  122.100 24752.5 5
  123.100 188119.0 40
  130.000 24752.5 5
  131.000 54455.5 11
  131.900 108911.0 23
  133.100 99010.0 21
  134.000 430693.5 91
  135.000 3450498.5 725
  136.000 252475.5 53
  142.800 54455.5 11
  145.500 9901.0 2
  150.000 1440595.5 303
  151.300 232673.5 49
  159.000 94059.5 20
//
