ACCESSION: MSBNK-Keio_Univ-KO009273
RECORD_TITLE: Thymidine; LC-ESI-IT; MS3; m/z: 243/127; [M+H]+
DATE: 2011.12.05 (Created 2008.05.12)
AUTHORS: Ojima Y, Kakazu Y, Horai H, Soga T, Institute for Advanced Biosciences, Keio Univ.
LICENSE: CC BY-NC-SA
COMMENT: KEIO_ID T014
COMMENT: [MS2] KO009272
CH$NAME: Thymidine
CH$NAME: Deoxythymidine
CH$COMPOUND_CLASS: N/A
CH$FORMULA: C10H14N2O5
CH$EXACT_MASS: 242.09027
CH$SMILES: OC[C@@H](O1)[C@@H](O)C[C@@H]1N(C=2)C(=O)NC(=O)C(C)2
CH$IUPAC: InChI=1S/C10H14N2O5/c1-5-3-12(10(16)11-9(5)15)8-2-6(14)7(4-13)17-8/h3,6-8,13-14H,2,4H2,1H3,(H,11,15,16)/t6-,7+,8+/m0/s1
CH$LINK: CAS 50-89-5
CH$LINK: CHEBI CHEBI:17748
CH$LINK: KEGG C00214
CH$LINK: NIKKAJI J4.548I
CH$LINK: PUBCHEM SID:3514
CH$LINK: INCHIKEY IQFYYKKMVGJFEH-XLPZGREQSA-N
CH$LINK: COMPTOX DTXSID5023661
AC$INSTRUMENT: LC/MSD Trap XCT, Agilent Technologies
AC$INSTRUMENT_TYPE: LC-ESI-IT
AC$MASS_SPECTROMETRY: MS_TYPE MS3
AC$MASS_SPECTROMETRY: ION_MODE POSITIVE
AC$MASS_SPECTROMETRY: COLLISION_ENERGY 0.60/0.60
MS$FOCUSED_ION: PRECURSOR_M/Z 243/127
MS$FOCUSED_ION: PRECURSOR_TYPE [M+H]+
MS$DATA_PROCESSING: WHOLE LC/MSD Trap Control and Data Analysis
PK$SPLASH: splash10-08i0-2900000000-ec21970768da0fbf8ce5
PK$NUM_PEAK: 12
PK$PEAK: m/z int. rel.int.
  57.3 18.43 212
  71.1 3.60 41
  74.2 2.23 26
  84.1 29.41 338
  85.2 2.46 28
  109.1 41.51 477
  110.1 86.92 999
  127.1 53.28 612
  159.1 4.28 49
  161.1 2.15 25
  171.2 3.66 42
  174.1 2.14 25
//
