ACCESSION: MSBNK-Keio_Univ-KO001188
RECORD_TITLE: Isoguvacine; LC-ESI-QQ; MS2; CE:10 V; [M-H]-
DATE: 2016.01.19 (Created 2007.07.07, modified 2011.05.10)
AUTHORS: Kakazu Y, Horai H, Institute for Advanced Biosciences, Keio Univ.
LICENSE: CC BY-NC-SA
COMMENT: KEIO_ID I015
CH$NAME: Isoguvacine
CH$NAME: 2,3,4,5-Tetrahydropyridine-2-carboxylate
CH$NAME: delta1-Piperideine-6-L-carboxylate
CH$COMPOUND_CLASS: N/A
CH$FORMULA: C6H9NO2
CH$EXACT_MASS: 127.06333
CH$SMILES: OC(=O)C(C1)N=CCC1
CH$IUPAC: InChI=1S/C6H9NO2/c8-6(9)5-3-1-2-4-7-5/h4-5H,1-3H2,(H,8,9)
CH$LINK: CAS 3038-89-9
CH$LINK: CHEBI CHEBI:16987
CH$LINK: KEGG C00450
CH$LINK: PUBCHEM CID:24771808
CH$LINK: INCHIKEY CSDPVAKVEWETFG-UHFFFAOYSA-N
CH$LINK: COMPTOX DTXSID50952722
AC$INSTRUMENT: API3000, Applied Biosystems
AC$INSTRUMENT_TYPE: LC-ESI-QQ
AC$MASS_SPECTROMETRY: MS_TYPE MS2
AC$MASS_SPECTROMETRY: ION_MODE NEGATIVE
AC$MASS_SPECTROMETRY: COLLISION_ENERGY 10 V
MS$FOCUSED_ION: PRECURSOR_M/Z 126
MS$FOCUSED_ION: PRECURSOR_TYPE [M-H]-
PK$SPLASH: splash10-004i-0900000000-3008ef509a77fafa98b6
PK$NUM_PEAK: 7
PK$PEAK: m/z int. rel.int.
  69.200 1886140.5 37
  81.600 44554.5 1
  92.600 168317.0 3
  97.100 252475.5 5
  98.100 44554.5 1
  125.900 50717872.5 999
  144.500 19802.0 1
//
