ACCESSION: MSBNK-Keio_Univ-KO003611
RECORD_TITLE: Neomycin B; LC-ESI-QQ; MS2; CE:50 V; [M+2H]++
DATE: 2016.01.19 (Created 2007.07.07, modified 2012.10.22)
AUTHORS: Kakazu Y, Horai H, Institute for Advanced Biosciences, Keio Univ.
LICENSE: CC BY-NC-SA
COMMENT: KEIO_ID N022
CH$NAME: Neomycin
CH$NAME: Fradiomycin B
CH$NAME: Streptothricin B
CH$NAME: Neomycin B
CH$COMPOUND_CLASS: N/A
CH$FORMULA: C23H46N6O13
CH$EXACT_MASS: 614.31229
CH$SMILES: NC[C@H](O1)[C@@H](O)[C@H](O)[C@@H](N)[C@H]1O[C@H]([C@@H](CO)4)[C@@H](O)[C@@H](O4)O[C@H]([C@@H](O)3)[C@@H]([C@@H](N)C[C@@H](N)3)O[C@@H](O2)[C@H](N)[C@@H](O)[C@H](O)[C@@H](CN)2
CH$IUPAC: InChI=1S/C23H46N6O13/c24-2-7-13(32)15(34)10(28)21(37-7)40-18-6(27)1-5(26)12(31)20(18)42-23-17(36)19(9(4-30)39-23)41-22-11(29)16(35)14(33)8(3-25)38-22/h5-23,30-36H,1-4,24-29H2
CH$LINK: CAS 119-04-0
CH$LINK: KEGG C01737
CH$LINK: NIKKAJI J4.458J
CH$LINK: PUBCHEM SID:4872
CH$LINK: INCHIKEY PGBHMTALBVVCIT-UHFFFAOYSA-N
AC$INSTRUMENT: API3000, Applied Biosystems
AC$INSTRUMENT_TYPE: LC-ESI-QQ
AC$MASS_SPECTROMETRY: MS_TYPE MS2
AC$MASS_SPECTROMETRY: ION_MODE POSITIVE
AC$MASS_SPECTROMETRY: COLLISION_ENERGY 50 V
MS$FOCUSED_ION: PRECURSOR_M/Z 308
MS$FOCUSED_ION: PRECURSOR_TYPE [M+2H]++
PK$SPLASH: splash10-00ls-9300000000-f83cb82f2e1de5f1094a
PK$NUM_PEAK: 51
PK$PEAK: m/z int. rel.int.
  43.200 44554.5 26
  44.200 89109.0 52
  54.800 39604.0 23
  55.200 79208.0 46
  56.200 123762.5 72
  57.100 89109.0 52
  60.100 232673.5 135
  64.800 14851.5 9
  66.700 24752.5 14
  68.000 876238.5 508
  69.100 490099.5 284
  69.900 237624.0 138
  70.900 123762.5 72
  71.900 316832.0 184
  73.300 178218.0 103
  78.200 49505.0 29
  80.200 1722774.0 999
  80.800 118812.0 69
  82.100 202970.5 118
  83.100 217822.0 126
  84.300 896040.5 520
  85.100 232673.5 135
  86.400 242574.5 141
  94.900 64356.5 37
  96.300 767327.5 445
  97.300 579208.5 336
  98.100 480198.5 278
  98.900 19802.0 11
  102.100 470297.5 273
  105.300 44554.5 26
  107.100 64356.5 37
  108.000 381188.5 221
  109.200 108911.0 63
  110.100 128713.0 75
  110.600 29703.0 17
  112.400 29703.0 17
  114.300 925743.5 537
  123.100 19802.0 11
  124.900 242574.5 141
  126.200 59406.0 34
  133.900 94059.5 55
  138.200 14851.5 9
  143.200 24752.5 14
  144.000 113861.5 66
  145.500 89109.0 52
  153.900 19802.0 11
  155.700 19802.0 11
  161.000 84158.5 49
  163.000 222772.5 129
  163.700 24752.5 14
  174.000 19802.0 11
//
