ACCESSION: MSBNK-Keio_Univ-KO001782
RECORD_TITLE: L-Serine; LC-ESI-QQ; MS2; CE:30 V; [M-H]-
DATE: 2016.01.19 (Created 2007.07.07, modified 2011.05.10)
AUTHORS: Kakazu Y, Horai H, Institute for Advanced Biosciences, Keio Univ.
LICENSE: CC BY-NC-SA
COMMENT: KEIO_ID S002
CH$NAME: Ser
CH$NAME: L-2-Amino-3-hydroxypropionic acid
CH$NAME: L-Serine
CH$NAME: L-3-Hydroxy-alanine
CH$COMPOUND_CLASS: N/A
CH$FORMULA: C3H7NO3
CH$EXACT_MASS: 105.04259
CH$SMILES: OC[C@H](N)C(O)=O
CH$IUPAC: InChI=1S/C3H7NO3/c4-2(1-5)3(6)7/h2,5H,1,4H2,(H,6,7)/t2-/m0/s1
CH$LINK: CAS 56-45-1
CH$LINK: CHEBI CHEBI:17115
CH$LINK: CHEMPDB SER
CH$LINK: KEGG C00065
CH$LINK: NIKKAJI J1.195I
CH$LINK: PUBCHEM CID:5951
CH$LINK: INCHIKEY MTCFGRXMJLQNBG-REOHCLBHSA-N
CH$LINK: COMPTOX DTXSID60883230
AC$INSTRUMENT: API3000, Applied Biosystems
AC$INSTRUMENT_TYPE: LC-ESI-QQ
AC$MASS_SPECTROMETRY: MS_TYPE MS2
AC$MASS_SPECTROMETRY: ION_MODE NEGATIVE
AC$MASS_SPECTROMETRY: COLLISION_ENERGY 30 V
MS$FOCUSED_ION: PRECURSOR_M/Z 104
MS$FOCUSED_ION: PRECURSOR_TYPE [M-H]-
PK$SPLASH: splash10-00di-9000000000-929aea63ace0e20c6d43
PK$NUM_PEAK: 3
PK$PEAK: m/z int. rel.int.
  42.900 19802.0 33
  55.800 69307.0 116
  74.100 599010.5 999
//
