ACCESSION: MSBNK-Keio_Univ-KO002632
RECORD_TITLE: Cimetidine; LC-ESI-QQ; MS2; CE:10 V; [M+H]+
DATE: 2016.01.19 (Created 2007.07.07, modified 2011.05.10)
AUTHORS: Kakazu Y, Horai H, Institute for Advanced Biosciences, Keio Univ.
LICENSE: CC BY-NC-SA
COMMENT: KEIO_ID C208
CH$NAME: Cimetidine
CH$COMPOUND_CLASS: N/A
CH$FORMULA: C10H16N6S
CH$EXACT_MASS: 252.11572
CH$SMILES: CC1=C(N=CN1)CSCCNC(=NC)NC#N
CH$IUPAC: InChI=1S/C10H16N6S/c1-8-9(16-7-15-8)5-17-4-3-13-10(12-2)14-6-11/h7H,3-5H2,1-2H3,(H,15,16)(H2,12,13,14)
CH$LINK: CHEBI CHEBI:3699
CH$LINK: KEGG C06952
CH$LINK: INCHIKEY AQIXAKUUQRKLND-UHFFFAOYSA-N
CH$LINK: COMPTOX DTXSID4020329
AC$INSTRUMENT: API3000, Applied Biosystems
AC$INSTRUMENT_TYPE: LC-ESI-QQ
AC$MASS_SPECTROMETRY: MS_TYPE MS2
AC$MASS_SPECTROMETRY: ION_MODE POSITIVE
AC$MASS_SPECTROMETRY: COLLISION_ENERGY 10 V
MS$FOCUSED_ION: PRECURSOR_M/Z 253
MS$FOCUSED_ION: PRECURSOR_TYPE [M+H]+
PK$SPLASH: splash10-0udi-0090000000-b6ea3493555e798b637d
PK$NUM_PEAK: 44
PK$PEAK: m/z int. rel.int.
  71.300 118812.0 1
  73.300 29703.0 1
  76.700 24752.5 1
  91.000 34653.5 1
  94.900 1900992.0 2
  98.900 178218.0 1
  100.900 19802.0 1
  102.800 277228.0 1
  104.600 14851.5 1
  108.900 19802.0 1
  113.400 470297.5 1
  113.900 425743.0 1
  117.000 16420808.5 16
  121.100 128713.0 1
  123.100 955446.5 1
  124.200 653466.0 1
  127.600 94059.5 1
  128.700 29703.0 1
  131.600 44554.5 1
  134.800 19802.0 1
  137.300 34653.5 1
  140.300 405941.0 1
  142.300 34653.5 1
  145.100 39604.0 1
  155.100 292079.5 1
  156.700 24752.5 1
  159.100 24702995.0 25
  160.800 39604.0 1
  170.900 39604.0 1
  172.200 2678220.5 3
  180.200 24752.5 1
  182.800 39604.0 1
  193.400 856436.5 1
  197.400 529703.5 1
  207.300 44554.5 1
  208.700 14851.5 1
  211.400 9752485.0 10
  217.800 49505.0 1
  221.100 554456.0 1
  222.300 1207922.0 1
  235.300 217822.0 1
  236.300 1762378.0 2
  236.800 24752.5 1
  253.200 1006382194.5 999
//
