ACCESSION: MSBNK-Keio_Univ-KO000448
RECORD_TITLE: Carbazole; LC-ESI-QQ; MS2; CE:30 V; [M-H]-
DATE: 2016.01.19 (Created 2007.07.07, modified 2011.05.10)
AUTHORS: Kakazu Y, Horai H, Institute for Advanced Biosciences, Keio Univ.
LICENSE: CC BY-NC-SA
COMMENT: KEIO_ID C040
CH$NAME: Carbazole
CH$COMPOUND_CLASS: N/A
CH$FORMULA: C12H9N
CH$EXACT_MASS: 167.07350
CH$SMILES: C1=CC=C2C(=C1)C3=CC=CC=C3N2
CH$IUPAC: InChI=1S/C12H9N/c1-3-7-11-9(5-1)10-6-2-4-8-12(10)13-11/h1-8,13H
CH$LINK: CAS 86-74-8
CH$LINK: KEGG C08060
CH$LINK: NIKKAJI J3.896B
CH$LINK: PUBCHEM SID:10260
CH$LINK: INCHIKEY UJOBWOGCFQCDNV-UHFFFAOYSA-N
CH$LINK: COMPTOX DTXSID4020248
AC$INSTRUMENT: API3000, Applied Biosystems
AC$INSTRUMENT_TYPE: LC-ESI-QQ
AC$MASS_SPECTROMETRY: MS_TYPE MS2
AC$MASS_SPECTROMETRY: ION_MODE NEGATIVE
AC$MASS_SPECTROMETRY: COLLISION_ENERGY 30 V
MS$FOCUSED_ION: PRECURSOR_M/Z 166
MS$FOCUSED_ION: PRECURSOR_TYPE [M-H]-
PK$SPLASH: splash10-014i-0900000000-2e0ee0ac796cf07f5e08
PK$NUM_PEAK: 6
PK$PEAK: m/z int. rel.int.
  122.300 44554.5 1
  150.000 99010.0 2
  150.800 29703.0 1
  164.200 39604.0 1
  165.300 455446.0 11
  166.100 41277269.0 999
//
