ACCESSION: MSBNK-Keio_Univ-KO009264
RECORD_TITLE: Trifluoperazine; LC-ESI-IT; MS3; m/z: 408/141; [M+H]+
DATE: 2011.12.05 (Created 2008.05.12)
AUTHORS: Ojima Y, Kakazu Y, Horai H, Soga T, Institute for Advanced Biosciences, Keio Univ.
LICENSE: CC BY-NC-SA
COMMENT: KEIO_ID T122
COMMENT: [MS2] KO009263
CH$NAME: Trifluoperazine
CH$COMPOUND_CLASS: N/A
CH$FORMULA: C21H24F3N3S
CH$EXACT_MASS: 407.16430
CH$SMILES: CN(C4)CCN(C4)CCCN(c21)c(c3)c(ccc(C(F)(F)F)3)Sc(cccc2)1
CH$IUPAC: InChI=1S/C21H24F3N3S/c1-25-11-13-26(14-12-25)9-4-10-27-17-5-2-3-6-19(17)28-20-8-7-16(15-18(20)27)21(22,23)24/h2-3,5-8,15H,4,9-14H2,1H3
CH$LINK: CAS 117-89-5
CH$LINK: KEGG C07168
CH$LINK: NIKKAJI J5.293K
CH$LINK: PUBCHEM SID:9377
CH$LINK: INCHIKEY ZEWQUBUPAILYHI-UHFFFAOYSA-N
CH$LINK: COMPTOX DTXSID1046928
AC$INSTRUMENT: LC/MSD Trap XCT, Agilent Technologies
AC$INSTRUMENT_TYPE: LC-ESI-IT
AC$MASS_SPECTROMETRY: MS_TYPE MS3
AC$MASS_SPECTROMETRY: ION_MODE POSITIVE
AC$MASS_SPECTROMETRY: COLLISION_ENERGY 0.70/0.40
MS$FOCUSED_ION: PRECURSOR_M/Z 408/141
MS$FOCUSED_ION: PRECURSOR_TYPE [M+H]+
MS$DATA_PROCESSING: WHOLE LC/MSD Trap Control and Data Analysis
PK$SPLASH: splash10-01ox-0900000000-5d88fdd52bec0119da2a
PK$NUM_PEAK: 2
PK$PEAK: m/z int. rel.int.
  113.1 25.82 601
  141.0 42.93 999
//
