ACCESSION: MSBNK-Keio_Univ-KO003305
RECORD_TITLE: Lumazine; LC-ESI-QQ; MS2; CE:40 V; [M+H]+
DATE: 2016.01.19 (Created 2007.07.07, modified 2011.05.10)
AUTHORS: Kakazu Y, Horai H, Institute for Advanced Biosciences, Keio Univ.
LICENSE: CC BY-NC-SA
COMMENT: KEIO_ID L024
CH$NAME: Lumazine
CH$NAME: 2,4-Dihydroxypteridine
CH$COMPOUND_CLASS: N/A
CH$FORMULA: C6H4N4O2
CH$EXACT_MASS: 164.03343
CH$SMILES: Oc(n1)nc(n2)c(ncc2)c(O)1
CH$IUPAC: InChI=1S/C6H4N4O2/c11-5-3-4(8-2-1-7-3)9-6(12)10-5/h1-2H,(H2,8,9,10,11,12)
CH$LINK: CAS 487-21-8
CH$LINK: CHEBI CHEBI:16489
CH$LINK: KEGG C03212
CH$LINK: NIKKAJI J6.019D
CH$LINK: PUBCHEM CID:10250
CH$LINK: INCHIKEY UYEUUXMDVNYCAM-UHFFFAOYSA-N
CH$LINK: COMPTOX DTXSID0060068
AC$INSTRUMENT: API3000, Applied Biosystems
AC$INSTRUMENT_TYPE: LC-ESI-QQ
AC$MASS_SPECTROMETRY: MS_TYPE MS2
AC$MASS_SPECTROMETRY: ION_MODE POSITIVE
AC$MASS_SPECTROMETRY: COLLISION_ENERGY 40 V
MS$FOCUSED_ION: PRECURSOR_M/Z 165
MS$FOCUSED_ION: PRECURSOR_TYPE [M+H]+
PK$SPLASH: splash10-0fe0-9200000000-f82b3a533812e79aeb42
PK$NUM_PEAK: 8
PK$PEAK: m/z int. rel.int.
  23.300 14851.5 176
  56.100 24752.5 294
  69.800 14851.5 176
  73.100 39604.0 470
  88.100 84158.5 999
  91.800 39604.0 470
  101.900 34653.5 411
  104.900 24752.5 294
//
