ACCESSION: MSBNK-Keio_Univ-KO004218
RECORD_TITLE: Timolol; LC-ESI-QQ; MS2; CE:30 V; [M+H]+
DATE: 2016.01.19 (Created 2007.07.07, modified 2011.05.10)
AUTHORS: Kakazu Y, Horai H, Institute for Advanced Biosciences, Keio Univ.
LICENSE: CC BY-NC-SA
COMMENT: KEIO_ID T098
CH$NAME: Timolol
CH$COMPOUND_CLASS: N/A
CH$FORMULA: C13H24N4O3S
CH$EXACT_MASS: 316.15691
CH$SMILES: CC(C)(C)NC[C@@H](COC1=NSN=C1N2CCOCC2)O
CH$IUPAC: InChI=1S/C13H24N4O3S/c1-13(2,3)14-8-10(18)9-20-12-11(15-21-16-12)17-4-6-19-7-5-17/h10,14,18H,4-9H2,1-3H3/t10-/m0/s1
CH$LINK: KEGG C07683
CH$LINK: PUBCHEM CID:33624
CH$LINK: INCHIKEY BLJRIMJGRPQVNF-JTQLQIEISA-N
CH$LINK: COMPTOX DTXSID4023674
AC$INSTRUMENT: API3000, Applied Biosystems
AC$INSTRUMENT_TYPE: LC-ESI-QQ
AC$MASS_SPECTROMETRY: MS_TYPE MS2
AC$MASS_SPECTROMETRY: ION_MODE POSITIVE
AC$MASS_SPECTROMETRY: COLLISION_ENERGY 30 V
MS$FOCUSED_ION: PRECURSOR_M/Z 317
MS$FOCUSED_ION: PRECURSOR_TYPE [M+H]+
PK$SPLASH: splash10-01vx-4390000000-df83be04a7e7c18de424
PK$NUM_PEAK: 83
PK$PEAK: m/z int. rel.int.
  56.200 3252478.5 15
  57.200 20821803.0 95
  71.200 69307.0 1
  72.000 113861.5 1
  73.200 59406.0 1
  74.000 191242765.5 875
  74.900 148515.0 1
  80.700 29703.0 1
  85.000 108911.0 1
  86.000 1638615.5 7
  88.000 148515.0 1
  95.300 24752.5 1
  97.300 64356.5 1
  97.900 74257.5 1
  99.000 64356.5 1
  100.100 376238.0 2
  102.200 24752.5 1
  103.300 99010.0 1
  104.000 222772.5 1
  104.700 14851.5 1
  111.300 39604.0 1
  112.300 168317.0 1
  113.300 3351488.5 15
  113.900 69307.0 1
  114.400 69307.0 1
  115.900 123762.5 1
  116.900 54455.5 1
  118.300 326733.0 1
  119.800 99010.0 1
  124.300 24752.5 1
  125.000 19802.0 1
  125.300 34653.5 1
  126.700 89109.0 1
  127.800 173267.5 1
  129.500 84158.5 1
  130.200 10064366.5 46
  131.800 227723.0 1
  143.000 39604.0 1
  144.200 4039608.0 18
  145.100 1915843.5 9
  149.100 54455.5 1
  152.900 143564.5 1
  153.500 49505.0 1
  155.100 49505.0 1
  156.000 54455.5 1
  157.400 54455.5 1
  158.300 2811884.0 13
  159.200 787129.5 4
  161.100 44554.5 1
  165.800 99010.0 1
  167.000 123762.5 1
  168.100 103960.5 1
  170.100 287129.0 1
  171.100 64356.5 1
  172.200 2108913.0 10
  173.300 123762.5 1
  175.000 831684.0 4
  179.800 133663.5 1
  181.300 64356.5 1
  182.300 217822.0 1
  182.800 84158.5 1
  185.000 54455.5 1
  186.200 301980.5 1
  188.200 118658534.5 543
  189.000 29703.0 1
  193.500 99010.0 1
  197.400 475248.0 2
  200.300 2579210.5 12
  204.500 14851.5 1
  209.100 420792.5 2
  211.300 217822.0 1
  212.400 9901.0 1
  214.200 881189.0 4
  226.100 415842.0 2
  232.400 801981.0 4
  240.100 39604.0 1
  243.400 16128729.0 74
  244.300 218322000.5 999
  259.500 19802.0 1
  261.200 198906139.5 910
  282.600 44554.5 1
  299.800 103960.5 1
  317.500 23148538.0 106
//
