ACCESSION: MSBNK-Keio_Univ-KO004015
RECORD_TITLE: Scopolamine; LC-ESI-QQ; MS2; CE:40 V; [M+H]+
DATE: 2016.01.19 (Created 2007.07.07, modified 2011.05.10)
AUTHORS: Kakazu Y, Horai H, Institute for Advanced Biosciences, Keio Univ.
LICENSE: CC BY-NC-SA
COMMENT: KEIO_ID S040
CH$NAME: Scopolamine
CH$COMPOUND_CLASS: N/A
CH$FORMULA: C17H21NO4
CH$EXACT_MASS: 303.14706
CH$SMILES: OCC(c(c4)cccc4)C(=O)OC(C2)CC(N(C)3)C(O1)C1C23
CH$IUPAC: InChI=1S/C17H21NO4/c1-18-13-7-11(8-14(18)16-15(13)22-16)21-17(20)12(9-19)10-5-3-2-4-6-10/h2-6,11-16,19H,7-9H2,1H3/t11-,12-,13-,14+,15-,16+/m1/s1
CH$LINK: CAS 51-34-3
CH$LINK: CHEBI CHEBI:16794
CH$LINK: KEGG C01851
CH$LINK: NIKKAJI J47.151H
CH$LINK: PUBCHEM CID:153311
CH$LINK: INCHIKEY STECJAGHUSJQJN-FWXGHANASA-N
CH$LINK: COMPTOX DTXSID6023573
AC$INSTRUMENT: API3000, Applied Biosystems
AC$INSTRUMENT_TYPE: LC-ESI-QQ
AC$MASS_SPECTROMETRY: MS_TYPE MS2
AC$MASS_SPECTROMETRY: ION_MODE POSITIVE
AC$MASS_SPECTROMETRY: COLLISION_ENERGY 40 V
MS$FOCUSED_ION: PRECURSOR_M/Z 304
MS$FOCUSED_ION: PRECURSOR_TYPE [M+H]+
PK$SPLASH: splash10-000i-3900000000-5eedeba4bedea55de9ad
PK$NUM_PEAK: 71
PK$PEAK: m/z int. rel.int.
  42.200 554456.0 3
  43.000 158416.0 1
  43.900 707921.5 4
  55.100 643565.0 4
  56.200 108911.0 1
  57.200 519802.5 3
  57.900 222772.5 1
  59.800 133663.5 1
  64.900 39604.0 1
  67.200 2064358.5 13
  68.000 836634.5 5
  69.100 5163371.5 32
  70.000 5301985.5 33
  71.100 297030.0 2
  72.000 1490100.5 9
  73.000 1252476.5 8
  74.000 1678219.5 10
  76.800 1262377.5 8
  77.900 44554.5 1
  79.000 20811902.0 128
  79.800 410891.5 3
  81.200 9103969.5 56
  82.000 7361393.5 45
  83.100 5188124.0 32
  84.100 11198031.0 69
  86.300 594060.0 4
  91.000 4623767.0 28
  92.000 54455.5 1
  93.100 4990104.0 31
  94.100 4846539.5 30
  95.100 3252478.5 20
  96.000 11217833.0 69
  97.100 8356444.0 51
  98.000 20861407.0 128
  100.100 94059.5 1
  102.000 217822.0 1
  102.900 74613936.0 460
  105.200 133663.5 1
  107.200 2688121.5 17
  108.200 3103963.5 19
  109.400 1594061.0 10
  110.200 39792119.0 245
  111.300 1059407.0 7
  112.400 118812.0 1
  113.100 326733.0 2
  114.300 975248.5 6
  115.300 777228.5 5
  118.300 103960.5 1
  119.000 49505.0 1
  120.200 3396043.0 21
  121.300 42618854.5 263
  123.200 673268.0 4
  124.900 79208.0 1
  126.100 49505.0 1
  127.900 128713.0 1
  130.800 24752.5 1
  135.800 232673.5 1
  136.500 34653.5 1
  138.200 162183330.5 999
  139.000 490099.5 3
  153.000 44554.5 1
  154.200 396040.0 2
  156.200 28148543.0 173
  169.100 19802.0 1
  194.200 74257.5 1
  228.500 262376.5 2
  230.600 19802.0 1
  273.300 19802.0 1
  274.400 272277.5 2
  286.600 14851.5 1
  304.700 2772280.0 17
//
