ACCESSION: MSBNK-Keio_Univ-KO000262
RECORD_TITLE: Acetoacetamide; LC-ESI-QQ; MS2; CE:50 V; [M-H]-
DATE: 2016.01.19 (Created 2007.07.07, modified 2011.05.10)
AUTHORS: Kakazu Y, Horai H, Institute for Advanced Biosciences, Keio Univ.
LICENSE: CC BY-NC-SA
COMMENT: KEIO_ID A165
CH$NAME: Acetoacetamide
CH$NAME: AAA
CH$COMPOUND_CLASS: N/A
CH$FORMULA: C4H7NO2
CH$EXACT_MASS: 101.04768
CH$SMILES: CC(=O)CC(N)=O
CH$IUPAC: InChI=1S/C4H7NO2/c1-3(6)2-4(5)7/h2H2,1H3,(H2,5,7)
CH$LINK: CAS 5977-14-0
CH$LINK: CHEBI CHEBI:28515
CH$LINK: KEGG C11106
CH$LINK: NIKKAJI J26.750C
CH$LINK: PUBCHEM CID:80077
CH$LINK: INCHIKEY GCPWJFKTWGFEHH-UHFFFAOYSA-N
CH$LINK: COMPTOX DTXSID1040164
AC$INSTRUMENT: API3000, Applied Biosystems
AC$INSTRUMENT_TYPE: LC-ESI-QQ
AC$MASS_SPECTROMETRY: MS_TYPE MS2
AC$MASS_SPECTROMETRY: ION_MODE NEGATIVE
AC$MASS_SPECTROMETRY: COLLISION_ENERGY 50 V
MS$FOCUSED_ION: PRECURSOR_M/Z 100
MS$FOCUSED_ION: PRECURSOR_TYPE [M-H]-
PK$SPLASH: splash10-000t-9000000000-01d2c7c75ab3756b3df7
PK$NUM_PEAK: 6
PK$PEAK: m/z int. rel.int.
  32.100 79208.0 615
  32.600 14851.5 115
  40.000 19802.0 154
  46.300 128713.0 999
  66.300 24752.5 192
  283.900 14851.5 115
//
