ACCESSION: MSBNK-Keio_Univ-KO002283
RECORD_TITLE: 9-Amino-1,2,3,4-tetrahydroacridine; LC-ESI-QQ; MS2; CE:10 V; [M+H]+
DATE: 2016.01.19 (Created 2007.07.07, modified 2011.05.10)
AUTHORS: Kakazu Y, Horai H, Institute for Advanced Biosciences, Keio Univ.
LICENSE: CC BY-NC-SA
COMMENT: KEIO_ID A123
CH$NAME: 9-Amino-1,2,3,4-tetrahydroacridine
CH$NAME: Tacrine
CH$COMPOUND_CLASS: N/A
CH$FORMULA: C13H14N2
CH$EXACT_MASS: 198.11570
CH$SMILES: Nc(c21)c(c3)c(ccc3)nc(CCCC2)1
CH$IUPAC: InChI=1S/C13H14N2/c14-13-9-5-1-3-7-11(9)15-12-8-4-2-6-10(12)13/h1,3,5,7H,2,4,6,8H2,(H2,14,15)
CH$LINK: CAS 321-64-2
CH$LINK: KEGG C01453
CH$LINK: NIKKAJI J5.670G
CH$LINK: PUBCHEM SID:4630
CH$LINK: INCHIKEY YLJREFDVOIBQDA-UHFFFAOYSA-N
CH$LINK: COMPTOX DTXSID1037272
AC$INSTRUMENT: API3000, Applied Biosystems
AC$INSTRUMENT_TYPE: LC-ESI-QQ
AC$MASS_SPECTROMETRY: MS_TYPE MS2
AC$MASS_SPECTROMETRY: ION_MODE POSITIVE
AC$MASS_SPECTROMETRY: COLLISION_ENERGY 10 V
MS$FOCUSED_ION: PRECURSOR_M/Z 199
MS$FOCUSED_ION: PRECURSOR_TYPE [M+H]+
PK$SPLASH: splash10-0002-0900000000-453e4e963f034e9de4cf
PK$NUM_PEAK: 30
PK$PEAK: m/z int. rel.int.
  39.100 69307.0 1
  58.800 34653.5 1
  89.200 118812.0 1
  90.900 49505.0 1
  96.900 54455.5 1
  104.900 44554.5 1
  106.600 138614.0 1
  111.500 242574.5 1
  120.800 876238.5 1
  123.100 851486.0 1
  134.700 39604.0 1
  136.900 64356.5 1
  138.900 301980.5 1
  144.000 89109.0 1
  146.200 29703.0 1
  149.000 267327.0 1
  156.800 59406.0 1
  157.900 69307.0 1
  163.000 64356.5 1
  164.400 19802.0 1
  167.100 886139.5 1
  170.000 24752.5 1
  171.400 732674.0 1
  180.300 19802.0 1
  181.100 153465.5 1
  182.200 351485.5 1
  183.300 138614.0 1
  185.200 118812.0 1
  197.300 326733.0 1
  199.300 1513486662.0 999
//
