ACCESSION: MSBNK-Keio_Univ-KO004215
RECORD_TITLE: Trehalose 6-phosphate; LC-ESI-QQ; MS2; CE:50 V; [M+H]+
DATE: 2016.01.19 (Created 2007.07.07, modified 2011.05.10)
AUTHORS: Kakazu Y, Horai H, Institute for Advanced Biosciences, Keio Univ.
LICENSE: CC BY-NC-SA
COMMENT: KEIO_ID T065
CH$NAME: Trehalose 6-phosphate
CH$NAME: alpha,alpha'-Trehalose 6-phosphate
CH$COMPOUND_CLASS: N/A
CH$FORMULA: C12H23O14P
CH$EXACT_MASS: 422.08254
CH$SMILES: OCC(O1)C(O)C(O)C(O)C1OC(O2)C(O)C(O)C(O)C(COP(O)(O)=O)2
CH$IUPAC: InChI=1S/C12H23O14P/c13-1-3-5(14)7(16)9(18)11(24-3)26-12-10(19)8(17)6(15)4(25-12)2-23-27(20,21)22/h3-19H,1-2H2,(H2,20,21,22)/t3-,4-,5-,6-,7+,8+,9-,10-,11-,12-/m1/s1
CH$LINK: CAS 4484-88-2
CH$LINK: CHEBI CHEBI:18283
CH$LINK: KEGG C00689
CH$LINK: PUBCHEM CID:122336
CH$LINK: INCHIKEY LABSPYBHMPDTEL-LIZSDCNHSA-N
AC$INSTRUMENT: API3000, Applied Biosystems
AC$INSTRUMENT_TYPE: LC-ESI-QQ
AC$MASS_SPECTROMETRY: MS_TYPE MS2
AC$MASS_SPECTROMETRY: ION_MODE POSITIVE
AC$MASS_SPECTROMETRY: COLLISION_ENERGY 50 V
MS$FOCUSED_ION: PRECURSOR_M/Z 423
MS$FOCUSED_ION: PRECURSOR_TYPE [M+H]+
PK$SPLASH: splash10-003r-7900000000-6d514ff26629cdefdae4
PK$NUM_PEAK: 13
PK$PEAK: m/z int. rel.int.
  69.800 49505.0 86
  72.100 34653.5 60
  74.000 99010.0 172
  82.200 500000.5 870
  84.100 138614.0 241
  98.500 24752.5 43
  100.100 287129.0 500
  101.800 19802.0 34
  103.700 9901.0 17
  117.000 34653.5 60
  127.300 34653.5 60
  128.200 574258.0 999
  145.300 69307.0 121
//
