ACCESSION: MSBNK-Keio_Univ-KO002981
RECORD_TITLE: Glu-Glu; LC-ESI-QQ; MS2; CE:30 V; [M+H]+
DATE: 2016.01.19 (Created 2007.07.07, modified 2012.10.22)
AUTHORS: Kakazu Y, Horai H, Institute for Advanced Biosciences, Keio Univ.
LICENSE: CC BY-NC-SA
COMMENT: KEIO_ID G043
CH$NAME: Glu-Glu
CH$COMPOUND_CLASS: N/A
CH$FORMULA: C10H16N2O7
CH$EXACT_MASS: 276.09575
CH$SMILES: OC(=O)CCC(N)C(=O)NC(CCC(O)=O)C(O)=O
CH$IUPAC: InChI=1S/C10H16N2O7/c11-5(1-3-7(13)14)9(17)12-6(10(18)19)2-4-8(15)16/h5-6H,1-4,11H2,(H,12,17)(H,13,14)(H,15,16)(H,18,19)/t5-,6-/m0/s1
CH$LINK: CAS 3929-61-1
CH$LINK: KEGG C01425
CH$LINK: NIKKAJI J364.668H
CH$LINK: PUBCHEM CID:439500
CH$LINK: INCHIKEY KOSRFJWDECSPRO-WDSKDSINSA-N
AC$INSTRUMENT: API3000, Applied Biosystems
AC$INSTRUMENT_TYPE: LC-ESI-QQ
AC$MASS_SPECTROMETRY: MS_TYPE MS2
AC$MASS_SPECTROMETRY: ION_MODE POSITIVE
AC$MASS_SPECTROMETRY: COLLISION_ENERGY 30 V
MS$FOCUSED_ION: PRECURSOR_M/Z 277
MS$FOCUSED_ION: PRECURSOR_TYPE [M+H]+
PK$SPLASH: splash10-001i-9800000000-9a9c87e0d1734d5415f2
PK$NUM_PEAK: 39
PK$PEAK: m/z int. rel.int.
  55.000 24752.5 2
  57.200 49505.0 4
  58.800 19802.0 1
  69.200 262376.5 19
  71.200 74257.5 5
  72.000 24752.5 2
  73.600 24752.5 2
  83.300 69307.0 5
  84.300 13940608.0 999
  84.900 272277.5 20
  89.100 44554.5 3
  96.800 39604.0 3
  102.000 3881192.0 278
  105.000 202970.5 15
  105.900 59406.0 4
  111.500 198020.0 14
  112.200 39604.0 3
  112.600 19802.0 1
  113.100 34653.5 2
  123.300 44554.5 3
  129.100 465347.0 33
  130.100 4861391.0 348
  135.900 14851.5 1
  148.200 2757428.5 198
  148.900 54455.5 4
  150.400 19802.0 1
  156.400 19802.0 1
  165.900 24752.5 2
  166.900 415842.0 30
  167.800 74257.5 5
  171.300 39604.0 3
  175.300 9901.0 1
  176.600 29703.0 2
  190.200 89109.0 6
  195.400 435644.0 31
  204.700 24752.5 2
  213.200 232673.5 17
  241.200 564357.0 40
  259.000 39604.0 3
//
