ACCESSION: MSBNK-Keio_Univ-KO003618
RECORD_TITLE: Neostigmine; LC-ESI-QQ; MS2; CE:20 V; [M+H]+
DATE: 2016.01.19 (Created 2007.07.07, modified 2011.05.10)
AUTHORS: Kakazu Y, Horai H, Institute for Advanced Biosciences, Keio Univ.
LICENSE: CC BY-NC-SA
COMMENT: KEIO_ID N063
CH$NAME: Neostigmine
CH$NAME: Neostigmine bromide
CH$NAME: Neo proserine
CH$COMPOUND_CLASS: N/A
CH$FORMULA: [C12H19N2O2]+
CH$EXACT_MASS: 223.14465
CH$SMILES: CN(C)C(=O)Oc(c1)cc(cc1)[N+1](C)(C)C
CH$IUPAC: InChI=1S/C12H19N2O2/c1-13(2)12(15)16-11-8-6-7-10(9-11)14(3,4)5/h6-9H,1-5H3/q+1
CH$LINK: CAS 114-80-7
CH$LINK: KEGG C08197
CH$LINK: NIKKAJI J139.050C
CH$LINK: PUBCHEM SID:10396
CH$LINK: INCHIKEY ALWKGYPQUAPLQC-UHFFFAOYSA-N
CH$LINK: COMPTOX DTXSID1023360
AC$INSTRUMENT: API3000, Applied Biosystems
AC$INSTRUMENT_TYPE: LC-ESI-QQ
AC$MASS_SPECTROMETRY: MS_TYPE MS2
AC$MASS_SPECTROMETRY: ION_MODE POSITIVE
AC$MASS_SPECTROMETRY: COLLISION_ENERGY 20 V
MS$FOCUSED_ION: PRECURSOR_M/Z 224
MS$FOCUSED_ION: PRECURSOR_TYPE [M+H]+
PK$SPLASH: splash10-00di-0090000000-33ad4a0e0807f82bab39
PK$NUM_PEAK: 52
PK$PEAK: m/z int. rel.int.
  55.800 19802.0 1
  71.800 4183172.5 4
  80.700 103960.5 1
  82.800 39604.0 1
  87.100 89109.0 1
  88.100 386139.0 1
  88.700 84158.5 1
  91.200 54455.5 1
  96.900 29703.0 1
  98.900 173267.5 1
  100.800 24752.5 1
  102.300 44554.5 1
  104.900 371287.5 1
  106.100 19802.0 1
  116.200 19802.0 1
  117.000 44554.5 1
  118.100 74257.5 1
  119.100 74257.5 1
  120.800 54455.5 1
  124.000 19802.0 1
  124.800 39604.0 1
  126.600 19802.0 1
  128.300 19802.0 1
  129.700 24752.5 1
  131.200 39604.0 1
  134.100 2747527.5 2
  135.000 797030.5 1
  136.000 178218.0 1
  137.200 64356.5 1
  146.400 133663.5 1
  147.300 39604.0 1
  149.300 3935647.5 3
  150.000 183168.5 1
  151.100 638614.5 1
  152.200 257426.0 1
  158.700 44554.5 1
  162.200 49505.0 1
  163.300 178218.0 1
  164.300 425743.0 1
  164.700 34653.5 1
  166.100 767327.5 1
  177.000 1074258.5 1
  178.400 465347.0 1
  179.100 227723.0 1
  186.800 14851.5 1
  188.200 39604.0 1
  191.200 99010.0 1
  206.100 173267.5 1
  207.100 2113863.5 2
  208.200 191257617.0 166
  222.200 69307.0 1
  223.300 1151689270.5 999
//
