ACCESSION: MSBNK-Keio_Univ-KO003516
RECORD_TITLE: N6-Methyl-2'-deoxyadenosine; LC-ESI-QQ; MS2; CE:50 V; [M+H]+
DATE: 2016.01.19 (Created 2007.07.07, modified 2011.05.10)
AUTHORS: Kakazu Y, Horai H, Institute for Advanced Biosciences, Keio Univ.
LICENSE: CC BY-NC-SA
COMMENT: KEIO_ID M110
CH$NAME: N6-Methyl-2'-deoxyadenosine
CH$COMPOUND_CLASS: N/A
CH$FORMULA: C11H15N5O3
CH$EXACT_MASS: 265.11749
CH$SMILES: OCC(O1)C(O)CC1n(c3)c(n2)c(n3)c(NC)nc2
CH$IUPAC: InChI=1S/C11H15N5O3/c1-12-10-9-11(14-4-13-10)16(5-15-9)8-2-6(18)7(3-17)19-8/h4-8,17-18H,2-3H2,1H3,(H,12,13,14)/t6-,7+,8+/m0/s1
CH$LINK: CAS 2002-35-9
CH$LINK: KEGG C03795
CH$LINK: PUBCHEM CID:168948
CH$LINK: INCHIKEY DYSDOYRQWBDGQQ-XLPZGREQSA-N
CH$LINK: COMPTOX DTXSID60173840
AC$INSTRUMENT: API3000, Applied Biosystems
AC$INSTRUMENT_TYPE: LC-ESI-QQ
AC$MASS_SPECTROMETRY: MS_TYPE MS2
AC$MASS_SPECTROMETRY: ION_MODE POSITIVE
AC$MASS_SPECTROMETRY: COLLISION_ENERGY 50 V
MS$FOCUSED_ION: PRECURSOR_M/Z 266
MS$FOCUSED_ION: PRECURSOR_TYPE [M+H]+
PK$SPLASH: splash10-0udi-5900000000-d906a4365e7c133947e1
PK$NUM_PEAK: 36
PK$PEAK: m/z int. rel.int.
  41.200 475248.0 17
  43.100 1663368.0 60
  45.100 1915843.5 69
  53.300 277228.0 10
  55.200 183168.5 7
  57.300 980199.0 35
  59.000 34653.5 1
  69.100 3217825.0 116
  71.100 1995051.5 72
  73.200 4995054.5 180
  75.200 84158.5 3
  76.800 89109.0 3
  78.900 257426.0 9
  81.100 1193070.5 43
  82.000 826733.5 30
  83.500 24752.5 1
  92.100 29703.0 1
  93.000 64356.5 2
  94.200 6282184.5 226
  96.100 1915843.5 69
  98.900 638614.5 23
  100.800 24752.5 1
  106.200 1381189.5 50
  108.100 1207922.0 43
  109.100 856436.5 31
  113.400 14851.5 1
  117.200 198020.0 7
  119.200 643565.0 23
  121.300 445545.0 16
  122.200 79208.0 3
  123.200 5757431.5 207
  133.200 1871289.0 67
  135.000 1237625.0 45
  148.300 861387.0 31
  149.300 118812.0 4
  150.300 27747552.5 999
//
