ACCESSION: MSBNK-Keio_Univ-KO002081
RECORD_TITLE: beta-Alanine; LC-ESI-QQ; MS2; CE:40 V; [M+H]+
DATE: 2016.01.19 (Created 2007.07.07, modified 2011.05.10)
AUTHORS: Kakazu Y, Horai H, Institute for Advanced Biosciences, Keio Univ.
LICENSE: CC BY-NC-SA
COMMENT: KEIO_ID A021
CH$NAME: b-Ala
CH$NAME: 3-Aminopropanoate
CH$NAME: 3-Aminopropionic acid
CH$NAME: beta-Alanine
CH$COMPOUND_CLASS: N/A
CH$FORMULA: C3H7NO2
CH$EXACT_MASS: 89.04768
CH$SMILES: NCCC(O)=O
CH$IUPAC: InChI=1S/C3H7NO2/c4-2-1-3(5)6/h1-2,4H2,(H,5,6)
CH$LINK: CAS 107-95-9
CH$LINK: CHEBI CHEBI:16958
CH$LINK: CHEMPDB BAL
CH$LINK: KEGG C00099
CH$LINK: NIKKAJI J4.070C
CH$LINK: PUBCHEM SID:3399
CH$LINK: INCHIKEY UCMIRNVEIXFBKS-UHFFFAOYSA-N
CH$LINK: COMPTOX DTXSID0030823
AC$INSTRUMENT: API3000, Applied Biosystems
AC$INSTRUMENT_TYPE: LC-ESI-QQ
AC$MASS_SPECTROMETRY: MS_TYPE MS2
AC$MASS_SPECTROMETRY: ION_MODE POSITIVE
AC$MASS_SPECTROMETRY: COLLISION_ENERGY 40 V
MS$FOCUSED_ION: PRECURSOR_M/Z 90
MS$FOCUSED_ION: PRECURSOR_TYPE [M+H]+
PK$SPLASH: splash10-1004-9000100000-ccb09493216d97165c8d
PK$NUM_PEAK: 8
PK$PEAK: m/z int. rel.int.
  16.400 44554.5 642
  30.200 34653.5 500
  44.200 69307.0 999
  50.600 44554.5 642
  53.200 29703.0 428
  55.800 39604.0 571
  61.000 14851.5 214
  499.700 39604.0 571
//
