ACCESSION: MSBNK-Keio_Univ-KO004185
RECORD_TITLE: Tryptophanamide; LC-ESI-QQ; MS2; CE:50 V; [M+H]+
DATE: 2016.01.19 (Created 2007.07.07, modified 2011.05.10)
AUTHORS: Kakazu Y, Horai H, Institute for Advanced Biosciences, Keio Univ.
LICENSE: CC BY-NC-SA
COMMENT: KEIO_ID T054
CH$NAME: Tryptophanamide
CH$NAME: L-Tryptophanamide
CH$COMPOUND_CLASS: N/A
CH$FORMULA: C11H13N3O
CH$EXACT_MASS: 203.10586
CH$SMILES: C1=CC=C2C(=C1)C(=CN2)C[C@@H](C(=O)N)N
CH$IUPAC: InChI=1S/C11H13N3O/c12-9(11(13)15)5-7-6-14-10-4-2-1-3-8(7)10/h1-4,6,9,14H,5,12H2,(H2,13,15)/t9-/m0/s1
CH$LINK: KEGG C00977
CH$LINK: PUBCHEM CID:439356
CH$LINK: INCHIKEY JLSKPBDKNIXMBS-VIFPVBQESA-N
AC$INSTRUMENT: API3000, Applied Biosystems
AC$INSTRUMENT_TYPE: LC-ESI-QQ
AC$MASS_SPECTROMETRY: MS_TYPE MS2
AC$MASS_SPECTROMETRY: ION_MODE POSITIVE
AC$MASS_SPECTROMETRY: COLLISION_ENERGY 50 V
MS$FOCUSED_ION: PRECURSOR_M/Z 204
MS$FOCUSED_ION: PRECURSOR_TYPE [M+H]+
PK$SPLASH: splash10-014i-1900000000-0ebd5371de6edfb45259
PK$NUM_PEAK: 54
PK$PEAK: m/z int. rel.int.
  44.000 158416.0 10
  44.400 39604.0 3
  54.200 64356.5 4
  55.100 113861.5 8
  56.900 39604.0 3
  65.100 108911.0 7
  65.800 133663.5 9
  66.900 84158.5 6
  69.100 24752.5 2
  71.900 34653.5 2
  73.100 198020.0 13
  77.200 1405942.0 93
  78.300 39604.0 3
  79.100 257426.0 17
  80.000 99010.0 7
  81.000 133663.5 9
  85.200 49505.0 3
  86.300 24752.5 2
  89.100 277228.0 18
  90.100 564357.0 37
  91.000 2465349.0 163
  92.300 133663.5 9
  94.900 99010.0 7
  98.100 54455.5 4
  98.800 69307.0 5
  101.000 69307.0 5
  102.100 153465.5 10
  103.200 1792081.0 119
  104.100 198020.0 13
  105.000 1153466.5 76
  106.100 202970.5 13
  112.200 193069.5 13
  113.200 574258.0 38
  115.300 9613871.0 637
  116.300 1475249.0 98
  117.200 15084173.5 999
  118.300 2049507.0 136
  125.900 108911.0 7
  127.100 896040.5 59
  128.000 529703.5 35
  129.200 242574.5 16
  130.100 8594068.0 569
  131.300 465347.0 31
  132.200 3564360.0 236
  140.100 509901.5 34
  141.200 217822.0 14
  142.000 1698021.5 112
  143.100 1955447.5 130
  144.200 752476.0 50
  157.400 118812.0 8
  158.000 405941.0 27
  159.200 103960.5 7
  159.500 9901.0 1
  169.900 64356.5 4
//
