ACCESSION: MSBNK-Keio_Univ-KO002646
RECORD_TITLE: 2,3-Diphosphoglycerate; LC-ESI-QQ; MS2; CE:50 V; [M+H]+
DATE: 2016.01.19 (Created 2007.07.07, modified 2012.05.21)
AUTHORS: Kakazu Y, Horai H, Institute for Advanced Biosciences, Keio Univ.
LICENSE: CC BY-NC-SA
COMMENT: KEIO_ID D017
CH$NAME: 2,3-Diphosphoglycerate
CH$NAME: 2,3-Disphospho-D-glycerate
CH$NAME: D-Greenwald ester
CH$NAME: 2,3-Bisphospho-D-glycerate
CH$NAME: DPG
CH$COMPOUND_CLASS: N/A
CH$FORMULA: C3H8O10P2
CH$EXACT_MASS: 265.95927
CH$SMILES: OC(=O)[C@@H](COP(O)(O)=O)OP(O)(O)=O
CH$IUPAC: InChI=1S/C3H8O10P2/c4-3(5)2(13-15(9,10)11)1-12-14(6,7)8/h2H,1H2,(H,4,5)(H2,6,7,8)(H2,9,10,11)/t2-/m1/s1
CH$LINK: CHEBI CHEBI:17720
CH$LINK: KEGG C01159
CH$LINK: PUBCHEM CID:186004
CH$LINK: INCHIKEY XOHUEYCVLUUEJJ-UWTATZPHSA-N
AC$INSTRUMENT: API3000, Applied Biosystems
AC$INSTRUMENT_TYPE: LC-ESI-QQ
AC$MASS_SPECTROMETRY: MS_TYPE MS2
AC$MASS_SPECTROMETRY: ION_MODE POSITIVE
AC$MASS_SPECTROMETRY: COLLISION_ENERGY 50 V
MS$FOCUSED_ION: PRECURSOR_M/Z 267
MS$FOCUSED_ION: PRECURSOR_TYPE [M+H]+
PK$SPLASH: splash10-014i-9100000000-1d6a9786ab78002b7ac2
PK$NUM_PEAK: 2
PK$PEAK: m/z int. rel.int.
  69.100 74257.5 999
  129.200 14851.5 200
//
