ACCESSION: MSBNK-Keio_Univ-KO003733
RECORD_TITLE: Piperazine; LC-ESI-QQ; MS2; CE:10 V; [M+H]+
DATE: 2016.01.19 (Created 2007.07.07, modified 2011.05.10)
AUTHORS: Kakazu Y, Horai H, Institute for Advanced Biosciences, Keio Univ.
LICENSE: CC BY-NC-SA
COMMENT: KEIO_ID P046
CH$NAME: Piperazine
CH$NAME: Diethylenediamine
CH$COMPOUND_CLASS: N/A
CH$FORMULA: C4H10N2
CH$EXACT_MASS: 86.08440
CH$SMILES: C(C1)NCCN1
CH$IUPAC: InChI=1S/C4H10N2/c1-2-6-4-3-5-1/h5-6H,1-4H2
CH$LINK: CAS 110-85-0
CH$LINK: CHEBI CHEBI:28568
CH$LINK: KEGG C07973
CH$LINK: NIKKAJI J1.981J
CH$LINK: PUBCHEM SID:10174
CH$LINK: INCHIKEY GLUUGHFHXGJENI-UHFFFAOYSA-N
CH$LINK: COMPTOX DTXSID1021164
AC$INSTRUMENT: API3000, Applied Biosystems
AC$INSTRUMENT_TYPE: LC-ESI-QQ
AC$MASS_SPECTROMETRY: MS_TYPE MS2
AC$MASS_SPECTROMETRY: ION_MODE POSITIVE
AC$MASS_SPECTROMETRY: COLLISION_ENERGY 10 V
MS$FOCUSED_ION: PRECURSOR_M/Z 87
MS$FOCUSED_ION: PRECURSOR_TYPE [M+H]+
PK$SPLASH: splash10-000i-9000000000-66908ddfe69d5ab2d477
PK$NUM_PEAK: 13
PK$PEAK: m/z int. rel.int.
  23.400 19802.0 1
  32.900 24752.5 1
  41.100 792080.0 3
  44.100 361386.5 1
  46.200 89109.0 1
  51.200 163366.5 1
  53.500 24752.5 1
  55.100 7059413.0 23
  69.300 470297.5 2
  70.000 341584.5 1
  85.000 465347.0 2
  86.100 198020.0 1
  87.000 309074566.5 999
//
