ACCESSION: MSBNK-Keio_Univ-KO002141
RECORD_TITLE: 2-Aminoisobutyric acid; LC-ESI-QQ; MS2; CE:40 V; [M+H]+
DATE: 2016.01.19 (Created 2007.07.07, modified 2011.05.10)
AUTHORS: Kakazu Y, Horai H, Institute for Advanced Biosciences, Keio Univ.
LICENSE: CC BY-NC-SA
COMMENT: KEIO_ID A048
CH$NAME: a-Aminoisobutyrate
CH$NAME: 2-Amino-2-methylpropanoate
CH$NAME: 2-Aminoisobutyric acid
CH$COMPOUND_CLASS: N/A
CH$FORMULA: C4H9NO2
CH$EXACT_MASS: 103.06333
CH$SMILES: OC(=O)C(C)(C)N
CH$IUPAC: InChI=1S/C4H9NO2/c1-4(2,5)3(6)7/h5H2,1-2H3,(H,6,7)
CH$LINK: CAS 62-57-7
CH$LINK: KEGG C03665
CH$LINK: NIKKAJI J38.908K
CH$LINK: PUBCHEM CID:6119
CH$LINK: INCHIKEY FUOOLUPWFVMBKG-UHFFFAOYSA-N
CH$LINK: COMPTOX DTXSID0058772
AC$INSTRUMENT: API3000, Applied Biosystems
AC$INSTRUMENT_TYPE: LC-ESI-QQ
AC$MASS_SPECTROMETRY: MS_TYPE MS2
AC$MASS_SPECTROMETRY: ION_MODE POSITIVE
AC$MASS_SPECTROMETRY: COLLISION_ENERGY 40 V
MS$FOCUSED_ION: PRECURSOR_M/Z 104
MS$FOCUSED_ION: PRECURSOR_TYPE [M+H]+
PK$SPLASH: splash10-0a4i-9000000000-bf285168a5a5d41ab049
PK$NUM_PEAK: 6
PK$PEAK: m/z int. rel.int.
  38.900 49505.0 38
  41.000 198020.0 151
  43.300 118812.0 90
  45.100 158416.0 121
  58.300 1311882.5 999
  59.100 242574.5 185
//
