ACCESSION: MSBNK-Keio_Univ-KO001210
RECORD_TITLE: 3-Indoleacetonitrile; LC-ESI-QQ; MS2; CE:50 V; [M-H]-
DATE: 2016.01.19 (Created 2007.07.07, modified 2011.05.10)
AUTHORS: Kakazu Y, Horai H, Institute for Advanced Biosciences, Keio Univ.
LICENSE: CC BY-NC-SA
COMMENT: KEIO_ID I022
CH$NAME: 3-Indoleacetonitrile
CH$NAME: (Indole-3-yl)acetonitrile
CH$NAME: Indole-3-acetonitrile
CH$NAME: Indol-3-ylacetonitrile
CH$COMPOUND_CLASS: N/A
CH$FORMULA: C10H8N2
CH$EXACT_MASS: 156.06875
CH$SMILES: C1=CC=C2C(=C1)C(=CN2)CC#N
CH$IUPAC: InChI=1S/C10H8N2/c11-6-5-8-7-12-10-4-2-1-3-9(8)10/h1-4,7,12H,5H2
CH$LINK: CAS 771-51-7
CH$LINK: CHEBI CHEBI:17566
CH$LINK: KEGG C02938
CH$LINK: NIKKAJI J1.733G
CH$LINK: PUBCHEM CID:351795
CH$LINK: INCHIKEY DMCPFOBLJMLSNX-UHFFFAOYSA-N
CH$LINK: COMPTOX DTXSID5061118
AC$INSTRUMENT: API3000, Applied Biosystems
AC$INSTRUMENT_TYPE: LC-ESI-QQ
AC$MASS_SPECTROMETRY: MS_TYPE MS2
AC$MASS_SPECTROMETRY: ION_MODE NEGATIVE
AC$MASS_SPECTROMETRY: COLLISION_ENERGY 50 V
MS$FOCUSED_ION: PRECURSOR_M/Z 155
MS$FOCUSED_ION: PRECURSOR_TYPE [M-H]-
PK$SPLASH: splash10-004i-9000000000-e95beea8400e01e0632a
PK$NUM_PEAK: 7
PK$PEAK: m/z int. rel.int.
  26.000 386139.0 999
  35.200 34653.5 90
  41.200 14851.5 38
  42.300 24752.5 64
  76.700 24752.5 64
  78.800 64356.5 167
  79.400 24752.5 64
//
