ACCESSION: MSBNK-Keio_Univ-KO003297
RECORD_TITLE: S-Lactoylglutathione; LC-ESI-QQ; MS2; CE:10 V; [M+H]+
DATE: 2016.01.19 (Created 2007.07.07, modified 2011.05.10)
AUTHORS: Kakazu Y, Horai H, Institute for Advanced Biosciences, Keio Univ.
LICENSE: CC BY-NC-SA
COMMENT: KEIO_ID L016
CH$NAME: S-Lactoylglutathione
CH$NAME: (R)-S-Lactoylglutathione
CH$COMPOUND_CLASS: N/A
CH$FORMULA: C13H21N3O8S
CH$EXACT_MASS: 379.10494
CH$SMILES: OC(=O)CNC(=O)[C@@H](NC(=O)CC[C@H](N)C(O)=O)CSC(=O)[C@@H](C)O
CH$IUPAC: InChI=1S/C13H21N3O8S/c1-6(17)13(24)25-5-8(11(21)15-4-10(19)20)16-9(18)3-2-7(14)12(22)23/h6-8,17H,2-5,14H2,1H3,(H,15,21)(H,16,18)(H,19,20)(H,22,23)/t6-,7+,8+/m1/s1
CH$LINK: CAS 25138-66-3
CH$LINK: CHEBI CHEBI:15694
CH$LINK: KEGG C03451
CH$LINK: NIKKAJI J410.799C
CH$LINK: PUBCHEM CID:440018
CH$LINK: INCHIKEY VDYDCVUWILIYQF-CSMHCCOUSA-N
AC$INSTRUMENT: API3000, Applied Biosystems
AC$INSTRUMENT_TYPE: LC-ESI-QQ
AC$MASS_SPECTROMETRY: MS_TYPE MS2
AC$MASS_SPECTROMETRY: ION_MODE POSITIVE
AC$MASS_SPECTROMETRY: COLLISION_ENERGY 10 V
MS$FOCUSED_ION: PRECURSOR_M/Z 380
MS$FOCUSED_ION: PRECURSOR_TYPE [M+H]+
PK$SPLASH: splash10-001i-0019000000-99436ad12d519791de4e
PK$NUM_PEAK: 22
PK$PEAK: m/z int. rel.int.
  131.800 24752.5 11
  133.900 79208.0 35
  146.800 24752.5 11
  164.000 39604.0 18
  168.000 94059.5 42
  197.700 24752.5 11
  199.900 24752.5 11
  212.800 69307.0 31
  217.500 69307.0 31
  219.200 24752.5 11
  225.200 34653.5 15
  233.000 49505.0 22
  234.000 79208.0 35
  247.600 54455.5 24
  251.500 59406.0 26
  254.900 19802.0 9
  272.400 44554.5 20
  304.700 24752.5 11
  319.900 24752.5 11
  347.400 24752.5 11
  363.500 549505.5 245
  380.300 2242576.5 999
//
