ACCESSION: MSBNK-Keio_Univ-KO000243
RECORD_TITLE: N-Acetyl-L-Leucine; LC-ESI-QQ; MS2; CE:10 V; [M-H]-
DATE: 2016.01.19 (Created 2007.07.07, modified 2011.05.10)
AUTHORS: Kakazu Y, Horai H, Institute for Advanced Biosciences, Keio Univ.
LICENSE: CC BY-NC-SA
COMMENT: KEIO_ID A145
CH$NAME: N-Acetylleucine
CH$NAME: N-Acetyl-L-Leucine
CH$COMPOUND_CLASS: N/A
CH$FORMULA: C8H15NO3
CH$EXACT_MASS: 173.10519
CH$SMILES: CC(C)C[C@H](NC(C)=O)C(O)=O
CH$IUPAC: InChI=1S/C8H15NO3/c1-5(2)4-7(8(11)12)9-6(3)10/h5,7H,4H2,1-3H3,(H,9,10)(H,11,12)/t7-/m0/s1
CH$LINK: CAS 1188-21-2
CH$LINK: CHEBI CHEBI:17786
CH$LINK: KEGG C02710
CH$LINK: NIKKAJI J23.189D
CH$LINK: PUBCHEM CID:70912
CH$LINK: INCHIKEY WXNXCEHXYPACJF-ZETCQYMHSA-N
CH$LINK: COMPTOX DTXSID6045870
AC$INSTRUMENT: API3000, Applied Biosystems
AC$INSTRUMENT_TYPE: LC-ESI-QQ
AC$MASS_SPECTROMETRY: MS_TYPE MS2
AC$MASS_SPECTROMETRY: ION_MODE NEGATIVE
AC$MASS_SPECTROMETRY: COLLISION_ENERGY 10 V
MS$FOCUSED_ION: PRECURSOR_M/Z 172
MS$FOCUSED_ION: PRECURSOR_TYPE [M-H]-
PK$SPLASH: splash10-00di-0900000000-467d952fc32fb0bb8af3
PK$NUM_PEAK: 9
PK$PEAK: m/z int. rel.int.
  35.100 252475.5 1
  58.800 49505.0 1
  104.400 227723.0 1
  110.900 64356.5 1
  112.100 1173268.5 2
  127.900 1009902.0 2
  130.000 80445625.0 130
  171.000 54455.5 1
  172.200 616550121.5 999
//
