ACCESSION: MSBNK-Keio_Univ-KO003499
RECORD_TITLE: Nw-Methyltryptamine; LC-ESI-QQ; MS2; CE:30 V; [M+H]+
DATE: 2016.01.19 (Created 2007.07.07, modified 2011.05.10)
AUTHORS: Kakazu Y, Horai H, Institute for Advanced Biosciences, Keio Univ.
LICENSE: CC BY-NC-SA
COMMENT: KEIO_ID M101
CH$NAME: Nw-Methyltryptamine
CH$NAME: 2-(1H-indol-3-yl)-N-methyl-ethanamine
CH$NAME: 1H-Indole-3-ethanamine, N-methyl-
CH$NAME: N.omega.-methyltryptamine
CH$COMPOUND_CLASS: N/A
CH$FORMULA: C11H14N2
CH$EXACT_MASS: 174.11570
CH$SMILES: CNCCC1=CNC2=CC=CC=C21
CH$IUPAC: InChI=1S/C11H14N2/c1-12-7-6-9-8-13-11-5-3-2-4-10(9)11/h2-5,8,12-13H,6-7H2,1H3
CH$LINK: CAS 61-49-4
CH$LINK: NIKKAJI J213.548E
CH$LINK: PUBCHEM SID:10404885
CH$LINK: INCHIKEY NCIKQJBVUNUXLW-UHFFFAOYSA-N
CH$LINK: COMPTOX DTXSID70209846
AC$INSTRUMENT: API3000, Applied Biosystems
AC$INSTRUMENT_TYPE: LC-ESI-QQ
AC$MASS_SPECTROMETRY: MS_TYPE MS2
AC$MASS_SPECTROMETRY: ION_MODE POSITIVE
AC$MASS_SPECTROMETRY: COLLISION_ENERGY 30 V
MS$FOCUSED_ION: PRECURSOR_M/Z 175
MS$FOCUSED_ION: PRECURSOR_TYPE [M+H]+
PK$SPLASH: splash10-0006-0900000000-aeca37a42c6e04d4325c
PK$NUM_PEAK: 53
PK$PEAK: m/z int. rel.int.
  42.900 123762.5 1
  44.000 26940621.0 94
  45.800 24752.5 1
  57.400 94059.5 1
  58.300 74257.5 1
  60.900 64356.5 1
  66.000 386139.0 1
  67.000 69307.0 1
  68.900 356436.0 1
  69.800 44554.5 1
  74.000 74257.5 1
  74.800 178218.0 1
  77.200 559406.5 2
  77.800 79208.0 1
  78.900 44554.5 1
  84.200 138614.0 1
  85.100 19802.0 1
  86.100 39604.0 1
  88.200 168317.0 1
  90.200 19802.0 1
  91.000 3222775.5 11
  92.500 44554.5 1
  95.000 49505.0 1
  101.000 49505.0 1
  101.800 242574.5 1
  102.900 2079210.0 7
  104.100 485149.0 2
  105.200 1683170.0 6
  105.600 69307.0 1
  112.400 34653.5 1
  115.300 11985160.5 42
  116.200 1524754.0 5
  117.200 77653543.0 271
  118.300 4470301.5 16
  123.100 287129.0 1
  126.300 84158.5 1
  127.000 17910909.0 63
  128.000 5163371.5 18
  128.800 544555.0 2
  130.200 1480199.5 5
  131.100 762377.0 3
  132.100 58227781.0 203
  133.900 99010.0 1
  140.000 29703.0 1
  142.400 1702972.0 6
  143.300 35960432.0 126
  144.100 286148801.0 999
  145.100 3396043.0 12
  146.000 405941.0 1
  155.200 108911.0 1
  157.100 103960.5 1
  158.300 89109.0 1
  224.600 44554.5 1
//
