ACCESSION: MSBNK-Keio_Univ-KO002231
RECORD_TITLE: D-2-Aminobutyric acid; LC-ESI-QQ; MS2; CE:40 V; [M+H]+
DATE: 2016.01.19 (Created 2007.07.07, modified 2011.05.10)
AUTHORS: Kakazu Y, Horai H, Institute for Advanced Biosciences, Keio Univ.
LICENSE: CC BY-NC-SA
CH$NAME: D-2-Aminobutyrate
CH$NAME: (R)-2-Aminobutanoic acid
CH$NAME: D-2-Aminobutanoic acid
CH$NAME: D-2-Aminobutyric acid
CH$COMPOUND_CLASS: N/A
CH$FORMULA: C4H9NO2
CH$EXACT_MASS: 103.06333
CH$SMILES: CCC(N)C(O)=O
CH$IUPAC: InChI=1S/C4H9NO2/c1-2-3(5)4(6)7/h3H,2,5H2,1H3,(H,6,7)/t3-/m1/s1
CH$LINK: CAS 2623-91-8
CH$LINK: CHEBI CHEBI:28797
CH$LINK: HMDB HMDB00650
CH$LINK: KEGG C02261
CH$LINK: LIPIDMAPS LMFA01100043
CH$LINK: NIKKAJI J1.815E
CH$LINK: PUBCHEM CID:439691
CH$LINK: INCHIKEY QWCKQJZIFLGMSD-GSVOUGTGSA-N
AC$INSTRUMENT: API3000, Applied Biosystems
AC$INSTRUMENT_TYPE: LC-ESI-QQ
AC$MASS_SPECTROMETRY: MS_TYPE MS2
AC$MASS_SPECTROMETRY: ION_MODE POSITIVE
AC$MASS_SPECTROMETRY: COLLISION_ENERGY 40 V
MS$FOCUSED_ION: PRECURSOR_M/Z 104
MS$FOCUSED_ION: PRECURSOR_TYPE [M+H]+
PK$SPLASH: splash10-0a4l-9000000000-da87cbb3df36c3786e14
PK$NUM_PEAK: 7
PK$PEAK: m/z int. rel.int.
  40.800 445545.0 348
  43.100 613862.0 480
  43.800 69307.0 54
  44.800 198020.0 155
  54.200 9901.0 8
  58.300 1277229.0 999
  60.100 69307.0 54
//
