ACCESSION: MSBNK-Keio_Univ-KO003405
RECORD_TITLE: 5-Methoxytryptamine; LC-ESI-QQ; MS2; CE:40 V; [M+H]+
DATE: 2016.01.19 (Created 2007.07.07, modified 2011.05.10)
AUTHORS: Kakazu Y, Horai H, Institute for Advanced Biosciences, Keio Univ.
LICENSE: CC BY-NC-SA
COMMENT: KEIO_ID M040
CH$NAME: 5-Methoxytryptamine
CH$COMPOUND_CLASS: N/A
CH$FORMULA: C11H14N2O
CH$EXACT_MASS: 190.11061
CH$SMILES: COC1=CC2=C(C=C1)NC=C2CCN
CH$IUPAC: InChI=1S/C11H14N2O/c1-14-9-2-3-11-10(6-9)8(4-5-12)7-13-11/h2-3,6-7,13H,4-5,12H2,1H3
CH$LINK: CAS 608-07-1
CH$LINK: KEGG C05659
CH$LINK: NIKKAJI J7.009B
CH$LINK: PUBCHEM SID:7970
CH$LINK: INCHIKEY JTEJPPKMYBDEMY-UHFFFAOYSA-N
CH$LINK: COMPTOX DTXSID60209638
AC$INSTRUMENT: API3000, Applied Biosystems
AC$INSTRUMENT_TYPE: LC-ESI-QQ
AC$MASS_SPECTROMETRY: MS_TYPE MS2
AC$MASS_SPECTROMETRY: ION_MODE POSITIVE
AC$MASS_SPECTROMETRY: COLLISION_ENERGY 40 V
MS$FOCUSED_ION: PRECURSOR_M/Z 191
MS$FOCUSED_ION: PRECURSOR_TYPE [M+H]+
PK$SPLASH: splash10-001i-0900000000-7c7e9b21613e34ccfce1
PK$NUM_PEAK: 54
PK$PEAK: m/z int. rel.int.
  61.900 64356.5 2
  65.000 59406.0 1
  66.300 49505.0 1
  69.900 34653.5 1
  77.300 559406.5 13
  77.900 772278.0 19
  79.200 173267.5 4
  88.700 133663.5 3
  90.100 400990.5 10
  90.900 3514855.0 84
  92.700 44554.5 1
  95.200 44554.5 1
  101.700 74257.5 2
  103.000 965347.5 23
  104.100 1732675.0 42
  105.200 3222775.5 77
  106.000 173267.5 4
  107.100 495050.0 12
  108.200 430693.5 10
  114.100 217822.0 5
  115.300 6608917.5 159
  116.200 1975249.5 47
  117.100 4534658.0 109
  118.100 514852.0 12
  118.500 282178.5 7
  121.200 272277.5 7
  127.100 811882.0 19
  128.200 564357.0 14
  129.000 376238.0 9
  130.100 40767367.5 979
  131.000 41613903.0 999
  131.900 1831685.0 44
  133.100 509901.5 12
  134.000 128713.0 3
  134.900 14851.5 1
  140.100 237624.0 6
  141.200 445545.0 11
  142.100 3450498.5 83
  143.300 19356455.0 465
  144.100 1232674.5 30
  145.100 193069.5 5
  146.200 371287.5 9
  147.000 1029704.0 25
  148.400 29703.0 1
  153.900 34653.5 1
  155.300 29703.0 1
  156.300 54455.5 1
  157.400 79208.0 2
  158.200 3311884.5 80
  159.100 21752497.0 522
  162.400 69307.0 2
  172.300 84158.5 2
  173.200 559406.5 13
  174.100 2529705.5 61
//
