ACCESSION: MSBNK-Keio_Univ-KO004019
RECORD_TITLE: Serotonin; LC-ESI-QQ; MS2; CE:30 V; [M+H]+
DATE: 2016.01.19 (Created 2007.07.07, modified 2011.05.10)
AUTHORS: Kakazu Y, Horai H, Institute for Advanced Biosciences, Keio Univ.
LICENSE: CC BY-NC-SA
COMMENT: KEIO_ID S041
CH$NAME: Serotonin
CH$NAME: 3-(2-Aminoethyl)-1H-indol-5-ol
CH$NAME: 5-Hydroxytryptamine
CH$NAME: Enteramine
CH$COMPOUND_CLASS: N/A
CH$FORMULA: C10H12N2O
CH$EXACT_MASS: 176.09496
CH$SMILES: C1=CC2=C(C=C1O)C(=CN2)CCN
CH$IUPAC: InChI=1S/C10H12N2O/c11-4-3-7-6-12-10-2-1-8(13)5-9(7)10/h1-2,5-6,12-13H,3-4,11H2
CH$LINK: CAS 50-67-9
CH$LINK: CHEBI CHEBI:28790
CH$LINK: KEGG C00780
CH$LINK: NIKKAJI J4.107F
CH$LINK: PUBCHEM CID:5202
CH$LINK: INCHIKEY QZAYGJVTTNCVMB-UHFFFAOYSA-N
CH$LINK: COMPTOX DTXSID8075330
AC$INSTRUMENT: API3000, Applied Biosystems
AC$INSTRUMENT_TYPE: LC-ESI-QQ
AC$MASS_SPECTROMETRY: MS_TYPE MS2
AC$MASS_SPECTROMETRY: ION_MODE POSITIVE
AC$MASS_SPECTROMETRY: COLLISION_ENERGY 30 V
MS$FOCUSED_ION: PRECURSOR_M/Z 177
MS$FOCUSED_ION: PRECURSOR_TYPE [M+H]+
PK$SPLASH: splash10-03xr-0900000000-a0b7d8a671909c6f4ad1
PK$NUM_PEAK: 48
PK$PEAK: m/z int. rel.int.
  54.700 29703.0 1
  67.300 643565.0 27
  71.900 29703.0 1
  76.900 89109.0 4
  79.000 173267.5 7
  79.300 49505.0 2
  80.700 54455.5 2
  82.200 64356.5 3
  84.400 29703.0 1
  86.800 39604.0 2
  91.000 262376.5 11
  91.400 34653.5 1
  93.100 89109.0 4
  94.200 153465.5 6
  95.300 39604.0 2
  99.800 103960.5 4
  103.000 257426.0 11
  104.100 74257.5 3
  105.000 2163368.5 91
  106.700 178218.0 7
  107.200 202970.5 9
  115.300 8747533.5 367
  115.900 272277.5 11
  117.200 6212877.5 261
  118.000 168317.0 7
  118.500 29703.0 1
  119.200 34653.5 1
  120.400 14851.5 1
  123.900 14851.5 1
  128.100 79208.0 3
  129.900 504951.0 21
  131.000 920793.0 39
  132.100 6876244.5 289
  133.100 1801982.0 76
  134.200 138614.0 6
  140.200 74257.5 3
  140.400 49505.0 2
  141.100 79208.0 3
  142.300 3084161.5 129
  142.900 1445546.0 61
  143.700 198020.0 8
  145.300 108911.0 5
  148.100 138614.0 6
  149.500 39604.0 2
  158.200 39604.0 2
  159.100 1549506.5 65
  160.100 23806954.5 999
  170.300 19802.0 1
//
