ACCESSION: MSBNK-Keio_Univ-KO003836
RECORD_TITLE: 4-Pyridoxic acid; LC-ESI-QQ; MS2; CE:40 V; [M+H]+
DATE: 2016.01.19 (Created 2007.07.07, modified 2011.05.10)
AUTHORS: Kakazu Y, Horai H, Institute for Advanced Biosciences, Keio Univ.
LICENSE: CC BY-NC-SA
COMMENT: KEIO_ID P079
CH$NAME: 4-Pyridoxate
CH$NAME: 4-Pyridoxic acid
CH$COMPOUND_CLASS: N/A
CH$FORMULA: C8H9NO4
CH$EXACT_MASS: 183.05316
CH$SMILES: OCc(c1)c(C(O)=O)c(O)c(C)n1
CH$IUPAC: InChI=1S/C8H9NO4/c1-4-7(11)6(8(12)13)5(3-10)2-9-4/h2,10-11H,3H2,1H3,(H,12,13)
CH$LINK: CAS 82-82-6
CH$LINK: CHEBI CHEBI:17405
CH$LINK: KEGG C00847
CH$LINK: NIKKAJI J41.097G
CH$LINK: PUBCHEM SID:4104
CH$LINK: INCHIKEY HXACOUQIXZGNBF-UHFFFAOYSA-N
CH$LINK: COMPTOX DTXSID20861650
AC$INSTRUMENT: API3000, Applied Biosystems
AC$INSTRUMENT_TYPE: LC-ESI-QQ
AC$MASS_SPECTROMETRY: MS_TYPE MS2
AC$MASS_SPECTROMETRY: ION_MODE POSITIVE
AC$MASS_SPECTROMETRY: COLLISION_ENERGY 40 V
MS$FOCUSED_ION: PRECURSOR_M/Z 184
MS$FOCUSED_ION: PRECURSOR_TYPE [M+H]+
PK$SPLASH: splash10-0002-6900000000-d3f955b006cc32330edd
PK$NUM_PEAK: 58
PK$PEAK: m/z int. rel.int.
  41.100 74257.5 3
  45.200 188119.0 8
  51.100 84158.5 3
  53.200 262376.5 11
  55.000 128713.0 5
  55.400 84158.5 3
  56.300 29703.0 1
  57.100 108911.0 4
  58.100 44554.5 2
  58.400 29703.0 1
  62.900 351485.5 14
  65.200 9737633.5 399
  65.900 168317.0 7
  67.200 1311882.5 54
  68.000 188119.0 8
  68.900 257426.0 11
  71.700 9901.0 1
  73.100 94059.5 4
  75.200 282178.5 12
  76.600 178218.0 7
  77.100 1782180.0 73
  77.800 336634.0 14
  79.200 1306932.0 54
  80.100 1019803.0 42
  81.200 321782.5 13
  82.100 1529704.5 63
  83.100 84158.5 3
  84.100 465347.0 19
  89.900 59406.0 2
  90.800 143564.5 6
  92.300 8569315.5 352
  93.000 732674.0 30
  94.100 524753.0 22
  95.100 381188.5 16
  96.000 1559407.5 64
  96.800 113861.5 5
  102.200 628713.5 26
  102.900 118812.0 5
  104.000 1207922.0 50
  105.200 782179.0 32
  105.900 143564.5 6
  107.100 158416.0 6
  107.900 346535.0 14
  109.200 1366338.0 56
  110.100 3138617.0 129
  111.100 34653.5 1
  112.300 84158.5 3
  120.300 4415846.0 181
  121.300 371287.5 15
  122.200 1514853.0 62
  130.200 608911.5 25
  133.100 34653.5 1
  136.100 420792.5 17
  137.300 89109.0 4
  138.000 1707922.5 70
  146.900 44554.5 2
  148.300 24351509.5 999
  166.400 356436.0 15
//
