ACCESSION: MSBNK-Keio_Univ-KO001609
RECORD_TITLE: D-(+)-Pantothenic acid; LC-ESI-QQ; MS2; CE:50 V; [M-H]-
DATE: 2016.01.19 (Created 2007.07.07, modified 2011.05.10)
AUTHORS: Kakazu Y, Horai H, Institute for Advanced Biosciences, Keio Univ.
LICENSE: CC BY-NC-SA
COMMENT: KEIO_ID P032
CH$NAME: Pantothenate
CH$NAME: (R)-Pantothenate
CH$NAME: Pantothenic acid
CH$NAME: D-(+)-Pantothenic acid
CH$COMPOUND_CLASS: N/A
CH$FORMULA: C9H17NO5
CH$EXACT_MASS: 219.11067
CH$SMILES: OCC(C)(C)[C@@H](O)C(=O)NCCC(O)=O
CH$IUPAC: InChI=1S/C9H17NO5/c1-9(2,5-11)7(14)8(15)10-4-3-6(12)13/h7,11,14H,3-5H2,1-2H3,(H,10,15)(H,12,13)/t7-/m0/s1
CH$LINK: CAS 79-83-4
CH$LINK: CHEBI CHEBI:7916
CH$LINK: KEGG C00864
CH$LINK: NIKKAJI J4.242K
CH$LINK: PUBCHEM CID:6613
CH$LINK: INCHIKEY GHOKWGTUZJEAQD-ZETCQYMHSA-N
CH$LINK: COMPTOX DTXSID9023417
AC$INSTRUMENT: API3000, Applied Biosystems
AC$INSTRUMENT_TYPE: LC-ESI-QQ
AC$MASS_SPECTROMETRY: MS_TYPE MS2
AC$MASS_SPECTROMETRY: ION_MODE NEGATIVE
AC$MASS_SPECTROMETRY: COLLISION_ENERGY 50 V
MS$FOCUSED_ION: PRECURSOR_M/Z 218
MS$FOCUSED_ION: PRECURSOR_TYPE [M-H]-
PK$SPLASH: splash10-00di-9000000000-958b1047fc59d5fa55ab
PK$NUM_PEAK: 14
PK$PEAK: m/z int. rel.int.
  42.000 440594.5 36
  44.100 5485154.0 447
  59.200 633664.0 52
  70.300 49505.0 4
  71.000 12272289.5 999
  71.900 504951.0 41
  74.100 39604.0 3
  79.000 24752.5 2
  80.100 54455.5 4
  88.100 1623764.0 132
  97.900 94059.5 8
  99.000 1722774.0 140
  116.000 29703.0 2
  146.100 39604.0 3
//
