ACCESSION: MSBNK-Keio_Univ-KO002603
RECORD_TITLE: Cytosine arabinoside; LC-ESI-QQ; MS2; CE:20 V; [M+H]+
DATE: 2016.01.19 (Created 2007.07.07, modified 2011.05.10)
AUTHORS: Kakazu Y, Horai H, Institute for Advanced Biosciences, Keio Univ.
LICENSE: CC BY-NC-SA
COMMENT: KEIO_ID C119
CH$NAME: Cytosine arabinoside
CH$NAME: Cytosine-1-beta-D-arabinofuranoside
CH$NAME: Cytarabine
CH$COMPOUND_CLASS: N/A
CH$FORMULA: C9H13N3O5
CH$EXACT_MASS: 243.08552
CH$SMILES: OCC(O1)C(O)C(O)C1N(C=2)C(=O)N=C(N)C2
CH$IUPAC: InChI=1S/C9H13N3O5/c10-5-1-2-12(9(16)11-5)8-7(15)6(14)4(3-13)17-8/h1-2,4,6-8,13-15H,3H2,(H2,10,11,16)/t4-,6-,7+,8-/m1/s1
CH$LINK: CAS 147-94-4
CH$LINK: KEGG C02961
CH$LINK: NIKKAJI J2.958K
CH$LINK: PUBCHEM SID:5877
CH$LINK: INCHIKEY UHDGCWIWMRVCDJ-CCXZUQQUSA-N
CH$LINK: COMPTOX DTXSID3022877
AC$INSTRUMENT: API3000, Applied Biosystems
AC$INSTRUMENT_TYPE: LC-ESI-QQ
AC$MASS_SPECTROMETRY: MS_TYPE MS2
AC$MASS_SPECTROMETRY: ION_MODE POSITIVE
AC$MASS_SPECTROMETRY: COLLISION_ENERGY 20 V
MS$FOCUSED_ION: PRECURSOR_M/Z 244
MS$FOCUSED_ION: PRECURSOR_TYPE [M+H]+
PK$SPLASH: splash10-03di-0900000000-855a7f8775ed4351b290
PK$NUM_PEAK: 61
PK$PEAK: m/z int. rel.int.
  50.200 564357.0 3
  54.200 14851.5 1
  55.400 34653.5 1
  57.400 84158.5 1
  68.100 183168.5 1
  69.200 202970.5 1
  71.000 69307.0 1
  73.100 118812.0 1
  81.200 118812.0 1
  82.400 103960.5 1
  83.300 544555.0 3
  84.900 232673.5 1
  91.700 19802.0 1
  93.300 94059.5 1
  94.000 34653.5 1
  95.200 549505.5 3
  97.100 400990.5 2
  99.200 24752.5 1
  101.000 29703.0 1
  101.600 24752.5 1
  102.600 29703.0 1
  104.900 39604.0 1
  106.400 1400991.5 9
  107.200 118812.0 1
  109.300 346535.0 2
  111.400 207921.0 1
  112.200 161792241.0 999
  113.200 34653.5 1
  115.300 113861.5 1
  119.200 34653.5 1
  121.400 222772.5 1
  123.600 69307.0 1
  125.000 128713.0 1
  127.400 54455.5 1
  133.000 193069.5 1
  135.100 1084159.5 7
  138.900 89109.0 1
  141.000 39604.0 1
  142.900 14851.5 1
  149.000 425743.0 3
  151.100 123762.5 1
  152.300 1227724.0 8
  153.300 970298.0 6
  157.300 29703.0 1
  161.900 29703.0 1
  163.000 49505.0 1
  167.000 84158.5 1
  168.000 79208.0 1
  174.400 1633665.0 10
  177.200 297030.0 2
  180.700 19802.0 1
  182.900 9901.0 1
  185.100 9901.0 1
  191.400 376238.0 2
  195.400 113861.5 1
  198.300 24752.5 1
  199.500 19802.0 1
  209.200 707921.5 4
  226.100 94059.5 1
  227.200 539604.5 3
  244.400 910892.0 6
//
