ACCESSION: MSBNK-Keio_Univ-KO003875
RECORD_TITLE: Picolinamide; LC-ESI-QQ; MS2; CE:30 V; [M+H]+
DATE: 2016.01.19 (Created 2007.07.07, modified 2011.05.10)
AUTHORS: Kakazu Y, Horai H, Institute for Advanced Biosciences, Keio Univ.
LICENSE: CC BY-NC-SA
COMMENT: KEIO_ID P099
CH$NAME: Picolinamide
CH$COMPOUND_CLASS: N/A
CH$FORMULA: C6H6N2O
CH$EXACT_MASS: 122.04801
CH$SMILES: NC(=O)c(c1)nccc1
CH$IUPAC: InChI=1S/C6H6N2O/c7-6(9)5-3-1-2-4-8-5/h1-4H,(H2,7,9)
CH$LINK: CAS 1452-77-3
CH$LINK: CHEBI CHEBI:8200
CH$LINK: KEGG C01950
CH$LINK: NIKKAJI J27.993E
CH$LINK: PUBCHEM CID:15070
CH$LINK: INCHIKEY IBBMAWULFFBRKK-UHFFFAOYSA-N
CH$LINK: COMPTOX DTXSID4061703
AC$INSTRUMENT: API3000, Applied Biosystems
AC$INSTRUMENT_TYPE: LC-ESI-QQ
AC$MASS_SPECTROMETRY: MS_TYPE MS2
AC$MASS_SPECTROMETRY: ION_MODE POSITIVE
AC$MASS_SPECTROMETRY: COLLISION_ENERGY 30 V
MS$FOCUSED_ION: PRECURSOR_M/Z 123
MS$FOCUSED_ION: PRECURSOR_TYPE [M+H]+
PK$SPLASH: splash10-004i-9000000000-c8d4c79a355bc8412e48
PK$NUM_PEAK: 11
PK$PEAK: m/z int. rel.int.
  51.100 623763.0 4
  68.000 79208.0 1
  74.000 29703.0 1
  78.100 139995189.5 999
  80.200 633664.0 5
  96.000 23465370.0 167
  97.700 24752.5 1
  105.500 356436.0 3
  106.100 3752479.0 27
  123.300 267327.0 2
  124.000 623763.0 4
//
