ACCESSION: MSBNK-Keio_Univ-KO000938
RECORD_TITLE: Ganciclovir; LC-ESI-QQ; MS2; CE:10 V; [M-H]-
DATE: 2016.01.19 (Created 2007.07.07, modified 2011.05.10)
AUTHORS: Kakazu Y, Horai H, Institute for Advanced Biosciences, Keio Univ.
LICENSE: CC BY-NC-SA
COMMENT: KEIO_ID G088
CH$NAME: Ganciclovir
CH$COMPOUND_CLASS: N/A
CH$FORMULA: C9H13N5O4
CH$EXACT_MASS: 255.09675
CH$SMILES: OCC(CO)OCn(c2)c(N=1)c(n2)C(=O)NC(N)1
CH$IUPAC: InChI=1S/C9H13N5O4/c10-9-12-7-6(8(17)13-9)11-3-14(7)4-18-5(1-15)2-16/h3,5,15-16H,1-2,4H2,(H3,10,12,13,17)
CH$LINK: KEGG C07019
CH$LINK: INCHIKEY IRSCQMHQWWYFCW-UHFFFAOYSA-N
CH$LINK: COMPTOX DTXSID8041032
AC$INSTRUMENT: API3000, Applied Biosystems
AC$INSTRUMENT_TYPE: LC-ESI-QQ
AC$MASS_SPECTROMETRY: MS_TYPE MS2
AC$MASS_SPECTROMETRY: ION_MODE NEGATIVE
AC$MASS_SPECTROMETRY: COLLISION_ENERGY 10 V
MS$FOCUSED_ION: PRECURSOR_M/Z 254
MS$FOCUSED_ION: PRECURSOR_TYPE [M-H]-
PK$SPLASH: splash10-0gb9-0090000000-b4bf1558f31e6cd80503
PK$NUM_PEAK: 11
PK$PEAK: m/z int. rel.int.
  36.800 9901.0 1
  88.200 153465.5 2
  151.100 143564.5 2
  166.600 14851.5 1
  173.700 19802.0 1
  186.500 24752.5 1
  194.500 19802.0 1
  218.300 88079296.0 999
  221.900 54455.5 1
  236.000 14851.5 1
  254.100 44282222.5 502
//
