ACCESSION: MSBNK-Keio_Univ-KO003572
RECORD_TITLE: Methoxamine; LC-ESI-QQ; MS2; CE:10 V; [M+H]+
DATE: 2016.01.19 (Created 2007.07.07, modified 2011.05.10)
AUTHORS: Kakazu Y, Horai H, Institute for Advanced Biosciences, Keio Univ.
LICENSE: CC BY-NC-SA
COMMENT: KEIO_ID M169
CH$NAME: Methoxamine
CH$COMPOUND_CLASS: N/A
CH$FORMULA: C11H17NO3
CH$EXACT_MASS: 211.12084
CH$SMILES: COc(c1)cc(C(O)C(C)N)c(OC)c1
CH$IUPAC: InChI=1S/C11H17NO3/c1-7(12)11(13)9-6-8(14-2)4-5-10(9)15-3/h4-7,11,13H,12H2,1-3H3
CH$LINK: CAS 390-28-3
CH$LINK: KEGG C07513
CH$LINK: NIKKAJI J5.717G
CH$LINK: PUBCHEM SID:9716
CH$LINK: INCHIKEY WJAJPNHVVFWKKL-UHFFFAOYSA-N
CH$LINK: COMPTOX DTXSID0023290
AC$INSTRUMENT: API3000, Applied Biosystems
AC$INSTRUMENT_TYPE: LC-ESI-QQ
AC$MASS_SPECTROMETRY: MS_TYPE MS2
AC$MASS_SPECTROMETRY: ION_MODE POSITIVE
AC$MASS_SPECTROMETRY: COLLISION_ENERGY 10 V
MS$FOCUSED_ION: PRECURSOR_M/Z 212
MS$FOCUSED_ION: PRECURSOR_TYPE [M+H]+
PK$SPLASH: splash10-03dl-0690000000-5602a5d1ca570bcf9aa6
PK$NUM_PEAK: 50
PK$PEAK: m/z int. rel.int.
  50.200 183168.5 1
  53.900 34653.5 1
  68.200 618812.5 1
  74.000 267327.0 1
  80.900 89109.0 1
  84.800 24752.5 1
  86.000 84158.5 1
  88.900 29703.0 1
  94.900 306931.0 1
  99.000 24752.5 1
  105.100 34653.5 1
  106.600 44554.5 1
  106.900 118812.0 1
  112.400 39604.0 1
  117.800 19802.0 1
  119.300 64356.5 1
  121.000 435644.0 1
  122.300 59406.0 1
  123.200 118812.0 1
  129.900 74257.5 1
  131.200 168317.0 1
  132.500 34653.5 1
  134.000 34653.5 1
  135.200 331683.5 1
  135.500 59406.0 1
  137.000 232673.5 1
  138.200 321782.5 1
  139.300 44554.5 1
  143.800 113861.5 1
  145.000 54455.5 1
  146.300 103960.5 1
  147.100 1094060.5 1
  148.300 143564.5 1
  148.500 74257.5 1
  149.300 143564.5 1
  152.000 148515.0 1
  153.000 316832.0 1
  159.000 54455.5 1
  162.200 4079212.0 4
  163.100 2064358.5 2
  164.100 222772.5 1
  164.800 69307.0 1
  175.800 49505.0 1
  177.300 4064360.5 4
  179.200 2955448.5 3
  180.000 306931.0 1
  180.500 34653.5 1
  194.300 655560061.5 687
  195.200 17594077.0 18
  212.200 953317785.0 999
//
