ACCESSION: MSBNK-Keio_Univ-KO001549
RECORD_TITLE: Orcinol; LC-ESI-QQ; MS2; CE:20 V; [M-H]-
DATE: 2016.01.19 (Created 2007.07.07, modified 2011.05.10)
AUTHORS: Kakazu Y, Horai H, Institute for Advanced Biosciences, Keio Univ.
LICENSE: CC BY-NC-SA
COMMENT: KEIO_ID O013
CH$NAME: Orcinol
CH$NAME: 5-Methyl-1,3-benzenediol
CH$NAME: 3,5-Dihydroxytoluene
CH$NAME: 5-Methylresorcinol
CH$NAME: 3,5-Toluenediol
CH$COMPOUND_CLASS: N/A
CH$FORMULA: C7H8O2
CH$EXACT_MASS: 124.05243
CH$SMILES: Cc(c1)cc(O)cc(O)1
CH$IUPAC: InChI=1S/C7H8O2/c1-5-2-6(8)4-7(9)3-5/h2-4,8-9H,1H3
CH$LINK: CAS 504-15-4
CH$LINK: CHEBI CHEBI:16536
CH$LINK: KEGG C00727
CH$LINK: NIKKAJI J6.215D
CH$LINK: PUBCHEM CID:10436
CH$LINK: INCHIKEY OIPPWFOQEKKFEE-UHFFFAOYSA-N
CH$LINK: COMPTOX DTXSID2060123
AC$INSTRUMENT: API3000, Applied Biosystems
AC$INSTRUMENT_TYPE: LC-ESI-QQ
AC$MASS_SPECTROMETRY: MS_TYPE MS2
AC$MASS_SPECTROMETRY: ION_MODE NEGATIVE
AC$MASS_SPECTROMETRY: COLLISION_ENERGY 20 V
MS$FOCUSED_ION: PRECURSOR_M/Z 123
MS$FOCUSED_ION: PRECURSOR_TYPE [M-H]-
PK$SPLASH: splash10-00di-8900000000-12164bc00f7236170245
PK$NUM_PEAK: 10
PK$PEAK: m/z int. rel.int.
  41.100 3257429.0 78
  58.800 608911.5 15
  77.200 594060.0 14
  79.300 20351505.5 490
  81.200 16702987.0 402
  82.900 24752.5 1
  94.700 34653.5 1
  107.900 64356.5 2
  121.100 99010.0 2
  123.000 41514893.0 999
//
