ACCESSION: MSBNK-Keio_Univ-KO003501
RECORD_TITLE: Nw-Methyltryptamine; LC-ESI-QQ; MS2; CE:50 V; [M+H]+
DATE: 2016.01.19 (Created 2007.07.07, modified 2011.05.10)
AUTHORS: Kakazu Y, Horai H, Institute for Advanced Biosciences, Keio Univ.
LICENSE: CC BY-NC-SA
COMMENT: KEIO_ID M101
CH$NAME: Nw-Methyltryptamine
CH$NAME: 2-(1H-indol-3-yl)-N-methyl-ethanamine
CH$NAME: 1H-Indole-3-ethanamine, N-methyl-
CH$NAME: N.omega.-methyltryptamine
CH$COMPOUND_CLASS: N/A
CH$FORMULA: C11H14N2
CH$EXACT_MASS: 174.11570
CH$SMILES: CNCCC1=CNC2=CC=CC=C21
CH$IUPAC: InChI=1S/C11H14N2/c1-12-7-6-9-8-13-11-5-3-2-4-10(9)11/h2-5,8,12-13H,6-7H2,1H3
CH$LINK: CAS 61-49-4
CH$LINK: NIKKAJI J213.548E
CH$LINK: PUBCHEM SID:10404885
CH$LINK: INCHIKEY NCIKQJBVUNUXLW-UHFFFAOYSA-N
CH$LINK: COMPTOX DTXSID70209846
AC$INSTRUMENT: API3000, Applied Biosystems
AC$INSTRUMENT_TYPE: LC-ESI-QQ
AC$MASS_SPECTROMETRY: MS_TYPE MS2
AC$MASS_SPECTROMETRY: ION_MODE POSITIVE
AC$MASS_SPECTROMETRY: COLLISION_ENERGY 50 V
MS$FOCUSED_ION: PRECURSOR_M/Z 175
MS$FOCUSED_ION: PRECURSOR_TYPE [M+H]+
PK$SPLASH: splash10-00kf-5900000000-f4083668545bda855210
PK$NUM_PEAK: 57
PK$PEAK: m/z int. rel.int.
  38.100 19802.0 1
  38.900 217822.0 6
  40.800 44554.5 1
  42.100 133663.5 4
  43.200 54455.5 2
  44.000 10282188.5 290
  51.200 59406.0 2
  54.400 49505.0 1
  56.800 24752.5 1
  58.200 44554.5 1
  62.800 39604.0 1
  64.400 24752.5 1
  65.100 1727724.5 49
  66.200 866337.5 24
  67.000 871288.0 25
  68.700 24752.5 1
  75.200 183168.5 5
  77.000 13504964.0 381
  77.800 945545.5 27
  79.200 930694.0 26
  79.900 59406.0 2
  88.700 554456.0 16
  89.000 3450498.5 97
  90.200 5831689.0 165
  91.000 32198052.0 908
  92.200 74257.5 2
  93.000 727723.5 21
  95.100 480198.5 14
  101.100 1900992.0 54
  102.300 1321783.5 37
  102.900 2841587.0 80
  104.100 623763.0 18
  105.200 1000001.0 28
  106.100 321782.5 9
  113.000 39604.0 1
  114.400 188119.0 5
  115.300 30069337.0 848
  116.200 5935649.5 167
  117.100 35410926.5 999
  118.300 1054456.5 30
  125.100 59406.0 2
  126.200 1237625.0 35
  127.100 7955453.5 224
  128.100 3841588.0 108
  129.200 1178219.0 33
  130.200 1198021.0 34
  131.000 579208.5 16
  132.000 549505.5 16
  133.400 19802.0 1
  134.300 49505.0 1
  140.300 113861.5 3
  141.400 222772.5 6
  142.200 4975252.5 140
  143.200 18886157.5 533
  144.100 2856438.5 81
  145.200 485149.0 14
  146.100 153465.5 4
//
