ACCESSION: MSBNK-Keio_Univ-KO002162
RECORD_TITLE: 6-Aminohexanoic acid; LC-ESI-QQ; MS2; CE:50 V; [M+H]+
DATE: 2016.01.19 (Created 2007.07.07, modified 2011.05.10)
AUTHORS: Kakazu Y, Horai H, Institute for Advanced Biosciences, Keio Univ.
LICENSE: CC BY-NC-SA
COMMENT: KEIO_ID A053
CH$NAME: 6-Aminohexanoate
CH$NAME: Epsilcapramine
CH$NAME: 6-Aminohexanoic acid
CH$NAME: 6-Aminocaproic acid
CH$COMPOUND_CLASS: N/A
CH$FORMULA: C6H13NO2
CH$EXACT_MASS: 131.09463
CH$SMILES: NCCCCCC(O)=O
CH$IUPAC: InChI=1S/C6H13NO2/c7-5-3-1-2-4-6(8)9/h1-5,7H2,(H,8,9)
CH$LINK: CAS 60-32-2
CH$LINK: CHEBI CHEBI:32396
CH$LINK: KEGG C02378
CH$LINK: NIKKAJI J1.398F
CH$LINK: PUBCHEM SID:5420
CH$LINK: INCHIKEY SLXKOJJOQWFEFD-UHFFFAOYSA-N
CH$LINK: COMPTOX DTXSID0020070
AC$INSTRUMENT: API3000, Applied Biosystems
AC$INSTRUMENT_TYPE: LC-ESI-QQ
AC$MASS_SPECTROMETRY: MS_TYPE MS2
AC$MASS_SPECTROMETRY: ION_MODE POSITIVE
AC$MASS_SPECTROMETRY: COLLISION_ENERGY 50 V
MS$FOCUSED_ION: PRECURSOR_M/Z 132
MS$FOCUSED_ION: PRECURSOR_TYPE [M+H]+
PK$SPLASH: splash10-052f-9000000000-dd2777a39a8decd7066d
PK$NUM_PEAK: 16
PK$PEAK: m/z int. rel.int.
  29.800 9901.0 7
  39.100 267327.0 197
  41.100 1356437.0 999
  43.100 143564.5 106
  44.200 118812.0 88
  45.100 89109.0 66
  53.200 94059.5 69
  55.200 856436.5 631
  55.900 14851.5 11
  67.000 183168.5 135
  68.200 24752.5 18
  69.100 138614.0 102
  72.800 64356.5 47
  77.100 618812.5 456
  79.100 94059.5 69
  80.400 29703.0 22
//
