ACCESSION: MSBNK-Keio_Univ-KO002289
RECORD_TITLE: beta-Ala-Lys; LC-ESI-QQ; MS2; CE:20 V; [M+H]+
DATE: 2016.01.19 (Created 2007.07.07, modified 2011.05.10)
AUTHORS: Kakazu Y, Horai H, Institute for Advanced Biosciences, Keio Univ.
LICENSE: CC BY-NC-SA
COMMENT: KEIO_ID A127
CH$NAME: b-Ala-Lys
CH$NAME: beta-Alanyl-L-lysine
CH$NAME: beta-Ala-Lys
CH$COMPOUND_CLASS: N/A
CH$FORMULA: C9H19N3O3
CH$EXACT_MASS: 217.14264
CH$SMILES: NCCCC[C@@H](C(O)=O)NC(=O)CCN
CH$IUPAC: InChI=1S/C9H19N3O3/c10-5-2-1-3-7(9(14)15)12-8(13)4-6-11/h7H,1-6,10-11H2,(H,12,13)(H,14,15)/t7-/m0/s1
CH$LINK: KEGG C05341
CH$LINK: PUBCHEM CID:440638
CH$LINK: INCHIKEY PLDCWKCPEXNWJH-ZETCQYMHSA-N
AC$INSTRUMENT: API3000, Applied Biosystems
AC$INSTRUMENT_TYPE: LC-ESI-QQ
AC$MASS_SPECTROMETRY: MS_TYPE MS2
AC$MASS_SPECTROMETRY: ION_MODE POSITIVE
AC$MASS_SPECTROMETRY: COLLISION_ENERGY 20 V
MS$FOCUSED_ION: PRECURSOR_M/Z 218
MS$FOCUSED_ION: PRECURSOR_TYPE [M+H]+
PK$SPLASH: splash10-0fc0-2930000000-933854950963fd87a8ca
PK$NUM_PEAK: 50
PK$PEAK: m/z int. rel.int.
  49.600 29703.0 1
  57.400 49505.0 2
  69.100 202970.5 7
  70.000 158416.0 6
  71.200 143564.5 5
  72.100 222772.5 8
  77.200 24752.5 1
  84.300 17485166.0 636
  84.900 173267.5 6
  87.800 34653.5 1
  88.900 480198.5 17
  89.800 99010.0 4
  95.400 89109.0 3
  98.300 49505.0 2
  99.100 178218.0 6
  101.100 6910898.0 251
  102.100 133663.5 5
  102.300 29703.0 1
  107.400 29703.0 1
  109.300 59406.0 2
  111.200 366337.0 13
  112.200 584159.0 21
  113.300 39604.0 1
  113.900 103960.5 4
  121.800 19802.0 1
  125.900 306931.0 11
  127.000 133663.5 5
  129.100 27465374.0 999
  130.100 9366346.0 341
  138.100 272277.5 10
  141.100 465347.0 17
  143.100 54455.5 2
  145.200 74257.5 3
  147.200 5445550.0 198
  150.300 148515.0 5
  150.600 44554.5 2
  153.100 821783.0 30
  155.100 500000.5 18
  156.200 24752.5 1
  165.200 1366338.0 50
  168.000 44554.5 2
  171.200 1495051.0 54
  172.300 405941.0 15
  182.200 460396.5 17
  183.200 1455447.0 53
  184.200 257426.0 9
  189.500 900991.0 33
  200.400 3767330.5 137
  201.300 8638622.5 314
  218.500 11599021.5 422
//
