ACCESSION: MSBNK-Keio_Univ-KO003663
RECORD_TITLE: Oleandomycin; LC-ESI-QQ; MS2; CE:30 V; [M+H]+
DATE: 2016.01.19 (Created 2007.07.07, modified 2011.05.10)
AUTHORS: Kakazu Y, Horai H, Institute for Advanced Biosciences, Keio Univ.
LICENSE: CC BY-NC-SA
COMMENT: KEIO_ID O016
CH$NAME: Oleandomycin
CH$NAME: Romicil
CH$NAME: Matromycin
CH$NAME: Amimycin
CH$NAME: Landomycin
CH$COMPOUND_CLASS: N/A
CH$FORMULA: C35H61NO12
CH$EXACT_MASS: 687.41938
CH$SMILES: [C@H](C4)(N(C)C)[C@@H](C(O[C@H]4C)O[C@H]([C@@H](C)2)[C@H](C[C@](C(=O)[C@H](C)[C@@H](O)[C@H]([C@H](OC([C@H](C)[C@H]2O[C@H](O3)C[C@H](OC)[C@@H]([C@@H]3C)O)=O)C)C)(C1)O1)C)O
CH$IUPAC: InChI=1S/C35H61NO12/c1-16-14-35(15-43-35)32(40)19(4)27(37)18(3)22(7)46-33(41)21(6)31(47-26-13-25(42-11)28(38)23(8)45-26)20(5)30(16)48-34-29(39)24(36(9)10)12-17(2)44-34/h16-31,34,37-39H,12-15H2,1-11H3
CH$LINK: CAS 3922-90-5
CH$LINK: CHEBI CHEBI:16869
CH$LINK: KEGG C01946
CH$LINK: NIKKAJI J10.660G
CH$LINK: PUBCHEM CID:72493
CH$LINK: INCHIKEY RZPAKFUAFGMUPI-UHFFFAOYSA-N
AC$INSTRUMENT: API3000, Applied Biosystems
AC$INSTRUMENT_TYPE: LC-ESI-QQ
AC$MASS_SPECTROMETRY: MS_TYPE MS2
AC$MASS_SPECTROMETRY: ION_MODE POSITIVE
AC$MASS_SPECTROMETRY: COLLISION_ENERGY 30 V
MS$FOCUSED_ION: PRECURSOR_M/Z 688
MS$FOCUSED_ION: PRECURSOR_TYPE [M+H]+
PK$SPLASH: splash10-0a4l-0900040000-f5533f6af9ce2d6a17b2
PK$NUM_PEAK: 17
PK$PEAK: m/z int. rel.int.
  68.800 29703.0 2
  86.800 14851.5 1
  98.400 59406.0 3
  113.100 306931.0 16
  114.000 19802.0 1
  116.200 702971.0 37
  145.000 801981.0 42
  158.200 19019821.0 999
  223.000 24752.5 1
  250.100 19802.0 1
  267.600 54455.5 3
  271.400 44554.5 2
  302.500 163366.5 9
  543.000 24752.5 1
  544.700 10401000.5 546
  688.600 747525.5 39
  689.200 19802.0 1
//
