ACCESSION: MSBNK-Keio_Univ-KO001544
RECORD_TITLE: Octopine; LC-ESI-QQ; MS2; CE:50 V; [M-H]-
DATE: 2016.01.19 (Created 2007.07.07, modified 2011.05.10)
AUTHORS: Kakazu Y, Horai H, Institute for Advanced Biosciences, Keio Univ.
LICENSE: CC BY-NC-SA
COMMENT: KEIO_ID O009
CH$NAME: Octopine
CH$NAME: D-Octopine
CH$NAME: L-Arginine, N2-[(1R)-1-carboxyethyl]-
CH$NAME: D-(+)-Octopine
CH$NAME: N2-(D-1-Carboxyethyl)-L-arginine
CH$NAME: L-Arginine, N2-(1-carboxyethyl)-, (R)-
CH$NAME: Arginine, N2-(1-carboxyethyl)-, L-
CH$NAME: N2-(1-Carboxyethyl)-L-arginine
CH$COMPOUND_CLASS: N/A
CH$FORMULA: C9H18N4O4
CH$EXACT_MASS: 246.13281
CH$SMILES: NC(=N)NCCC[C@@H](C(O)=O)N[C@@H](C)C(O)=O
CH$IUPAC: InChI=1S/C9H18N4O4/c1-5(7(14)15)13-6(8(16)17)3-2-4-12-9(10)11/h5-6,13H,2-4H2,1H3,(H,14,15)(H,16,17)(H4,10,11,12)/t5-,6-/m0/s1
CH$LINK: CAS 34522-32-2
CH$LINK: CHEBI CHEBI:15805
CH$LINK: KEGG C04137
CH$LINK: NIKKAJI J18.376H
CH$LINK: PUBCHEM CID:108172
CH$LINK: INCHIKEY IMXSCCDUAFEIOE-WDSKDSINSA-N
CH$LINK: COMPTOX DTXSID50487423
AC$INSTRUMENT: API3000, Applied Biosystems
AC$INSTRUMENT_TYPE: LC-ESI-QQ
AC$MASS_SPECTROMETRY: MS_TYPE MS2
AC$MASS_SPECTROMETRY: ION_MODE NEGATIVE
AC$MASS_SPECTROMETRY: COLLISION_ENERGY 50 V
MS$FOCUSED_ION: PRECURSOR_M/Z 245
MS$FOCUSED_ION: PRECURSOR_TYPE [M-H]-
PK$SPLASH: splash10-053r-9500000000-1f9a2f689adbda22c319
PK$NUM_PEAK: 5
PK$PEAK: m/z int. rel.int.
  40.900 44554.5 391
  58.400 24752.5 217
  59.100 74257.5 652
  88.200 29703.0 261
  130.900 113861.5 999
//
