ACCESSION: MSBNK-Keio_Univ-KO001285
RECORD_TITLE: Lauric acid; LC-ESI-QQ; MS2; CE:10 V; [M-H]-
DATE: 2016.01.19 (Created 2007.07.07, modified 2011.05.10)
AUTHORS: Kakazu Y, Horai H, Institute for Advanced Biosciences, Keio Univ.
LICENSE: CC BY-NC-SA
COMMENT: KEIO_ID L013
CH$NAME: Laurate
CH$NAME: Dodecanoic acid
CH$NAME: Lauric acid
CH$NAME: Dodecylcarboxylate
CH$NAME: Dodecanoate
CH$COMPOUND_CLASS: N/A
CH$FORMULA: C12H24O2
CH$EXACT_MASS: 200.17763
CH$SMILES: CCCCCCCCCCCC(O)=O
CH$IUPAC: InChI=1S/C12H24O2/c1-2-3-4-5-6-7-8-9-10-11-12(13)14/h2-11H2,1H3,(H,13,14)
CH$LINK: CAS 143-07-7
CH$LINK: CHEBI CHEBI:30805
CH$LINK: CHEMPDB DAO
CH$LINK: KEGG C02679
CH$LINK: NIKKAJI J2.548H
CH$LINK: PUBCHEM SID:5649
CH$LINK: INCHIKEY POULHZVOKOAJMA-UHFFFAOYSA-N
CH$LINK: COMPTOX DTXSID5021590
AC$INSTRUMENT: API3000, Applied Biosystems
AC$INSTRUMENT_TYPE: LC-ESI-QQ
AC$MASS_SPECTROMETRY: MS_TYPE MS2
AC$MASS_SPECTROMETRY: ION_MODE NEGATIVE
AC$MASS_SPECTROMETRY: COLLISION_ENERGY 10 V
MS$FOCUSED_ION: PRECURSOR_M/Z 199
MS$FOCUSED_ION: PRECURSOR_TYPE [M-H]-
PK$SPLASH: splash10-0002-0900000000-f22d8298d64e6f382279
PK$NUM_PEAK: 17
PK$PEAK: m/z int. rel.int.
  94.900 34653.5 1
  97.000 54455.5 1
  116.900 173267.5 1
  130.500 29703.0 1
  137.100 202970.5 1
  138.800 480198.5 1
  154.600 49505.0 1
  161.300 138614.0 1
  163.300 29703.0 1
  180.700 14851.5 1
  197.700 44554.5 1
  199.300 916208837.0 999
  217.400 524753.0 1
  385.300 24752.5 1
  399.000 19802.0 1
  416.000 44554.5 1
  419.700 19802.0 1
//
