ACCESSION: MSBNK-Keio_Univ-KO003194
RECORD_TITLE: Isonicotinic acid; LC-ESI-QQ; MS2; CE:30 V; [M+H]+
DATE: 2016.01.19 (Created 2007.07.07, modified 2011.05.10)
AUTHORS: Kakazu Y, Horai H, Institute for Advanced Biosciences, Keio Univ.
LICENSE: CC BY-NC-SA
COMMENT: KEIO_ID I017
CH$NAME: Isonicotinate
CH$NAME: Isonicotinic acid
CH$COMPOUND_CLASS: N/A
CH$FORMULA: C6H5NO2
CH$EXACT_MASS: 123.03203
CH$SMILES: OC(=O)c(c1)ccnc1
CH$IUPAC: InChI=1S/C6H5NO2/c8-6(9)5-1-3-7-4-2-5/h1-4H,(H,8,9)
CH$LINK: CAS 55-22-1
CH$LINK: CHEBI CHEBI:6032
CH$LINK: KEGG C07446
CH$LINK: NIKKAJI J4.559D
CH$LINK: PUBCHEM CID:5922
CH$LINK: INCHIKEY TWBYWOBDOCUKOW-UHFFFAOYSA-N
CH$LINK: COMPTOX DTXSID8020757
AC$INSTRUMENT: API3000, Applied Biosystems
AC$INSTRUMENT_TYPE: LC-ESI-QQ
AC$MASS_SPECTROMETRY: MS_TYPE MS2
AC$MASS_SPECTROMETRY: ION_MODE POSITIVE
AC$MASS_SPECTROMETRY: COLLISION_ENERGY 30 V
MS$FOCUSED_ION: PRECURSOR_M/Z 124
MS$FOCUSED_ION: PRECURSOR_TYPE [M+H]+
PK$SPLASH: splash10-001j-9100000000-b7a02f2f133138354546
PK$NUM_PEAK: 8
PK$PEAK: m/z int. rel.int.
  44.900 376238.0 334
  53.300 49505.0 44
  77.900 94059.5 84
  78.800 143564.5 128
  80.100 1123763.5 999
  95.900 564357.0 502
  106.500 19802.0 18
  124.100 475248.0 422
//
