ACCESSION: MSBNK-Keio_Univ-KO004246
RECORD_TITLE: Uridine; LC-ESI-QQ; MS2; CE:10 V; [M+H]+
DATE: 2016.01.19 (Created 2007.07.07, modified 2011.05.10)
AUTHORS: Kakazu Y, Horai H, Institute for Advanced Biosciences, Keio Univ.
LICENSE: CC BY-NC-SA
COMMENT: KEIO_ID U006
CH$NAME: Uridine
CH$COMPOUND_CLASS: N/A
CH$FORMULA: C9H12N2O6
CH$EXACT_MASS: 244.06954
CH$SMILES: OC[C@@H](O1)[C@@H](O)[C@@H](O)[C@@H]1N(C=2)C(=O)NC(=O)C2
CH$IUPAC: InChI=1S/C9H12N2O6/c12-3-4-6(14)7(15)8(17-4)11-2-1-5(13)10-9(11)16/h1-2,4,6-8,12,14-15H,3H2,(H,10,13,16)/t4-,6-,7-,8-/m1/s1
CH$LINK: CAS 58-96-8
CH$LINK: CHEBI CHEBI:16704
CH$LINK: KEGG C00299
CH$LINK: NIKKAJI J4.593D
CH$LINK: PUBCHEM CID:6029
CH$LINK: INCHIKEY DRTQHJPVMGBUCF-XVFCMESISA-N
CH$LINK: COMPTOX DTXSID40891555
AC$INSTRUMENT: API3000, Applied Biosystems
AC$INSTRUMENT_TYPE: LC-ESI-QQ
AC$MASS_SPECTROMETRY: MS_TYPE MS2
AC$MASS_SPECTROMETRY: ION_MODE POSITIVE
AC$MASS_SPECTROMETRY: COLLISION_ENERGY 10 V
MS$FOCUSED_ION: PRECURSOR_M/Z 245
MS$FOCUSED_ION: PRECURSOR_TYPE [M+H]+
PK$SPLASH: splash10-03dj-3960000000-3466ccfdf88139ddf140
PK$NUM_PEAK: 37
PK$PEAK: m/z int. rel.int.
  80.800 113861.5 17
  85.200 19802.0 3
  92.100 3103963.5 454
  96.000 34653.5 5
  97.100 24752.5 4
  105.300 69307.0 10
  113.000 6836640.5 999
  115.400 39604.0 6
  121.200 24752.5 4
  125.200 19802.0 3
  133.200 143564.5 21
  136.500 24752.5 4
  138.900 24752.5 4
  141.400 74257.5 11
  148.900 34653.5 5
  153.000 44554.5 7
  154.100 381188.5 56
  155.300 103960.5 15
  155.900 49505.0 7
  156.700 24752.5 4
  163.200 34653.5 5
  168.500 29703.0 4
  172.700 19802.0 3
  177.100 34653.5 5
  180.900 207921.0 30
  185.200 39604.0 6
  186.800 44554.5 7
  192.200 391089.5 57
  196.100 14851.5 2
  209.100 158416.0 23
  210.000 198020.0 29
  213.400 198020.0 29
  227.100 163366.5 24
  228.500 1475249.0 216
  231.300 94059.5 14
  245.200 4084162.5 597
  263.200 19802.0 3
//
