ACCESSION: MSBNK-Keio_Univ-KO001958
RECORD_TITLE: Terephthalic acid; LC-ESI-QQ; MS2; CE:10 V; [M-H]-
DATE: 2016.01.19 (Created 2007.07.07, modified 2011.05.10)
AUTHORS: Kakazu Y, Horai H, Institute for Advanced Biosciences, Keio Univ.
LICENSE: CC BY-NC-SA
COMMENT: KEIO_ID T100
CH$NAME: Terephthalate
CH$NAME: Terephthalic acid
CH$NAME: 1,4-Benzenedicarboxylic acid
CH$COMPOUND_CLASS: N/A
CH$FORMULA: C8H6O4
CH$EXACT_MASS: 166.02661
CH$SMILES: OC(=O)c(c1)ccc(c1)C(O)=O
CH$IUPAC: InChI=1S/C8H6O4/c9-7(10)5-1-2-6(4-3-5)8(11)12/h1-4H,(H,9,10)(H,11,12)
CH$LINK: CAS 100-21-0
CH$LINK: CHEBI CHEBI:30043
CH$LINK: KEGG C06337
CH$LINK: NIKKAJI J3.588B
CH$LINK: PUBCHEM CID:7489
CH$LINK: INCHIKEY KKEYFWRCBNTPAC-UHFFFAOYSA-N
CH$LINK: COMPTOX DTXSID6026080
AC$INSTRUMENT: API3000, Applied Biosystems
AC$INSTRUMENT_TYPE: LC-ESI-QQ
AC$MASS_SPECTROMETRY: MS_TYPE MS2
AC$MASS_SPECTROMETRY: ION_MODE NEGATIVE
AC$MASS_SPECTROMETRY: COLLISION_ENERGY 10 V
MS$FOCUSED_ION: PRECURSOR_M/Z 165
MS$FOCUSED_ION: PRECURSOR_TYPE [M-H]-
PK$SPLASH: splash10-014i-0900000000-b445c3bf5a9a7a5579fc
PK$NUM_PEAK: 13
PK$PEAK: m/z int. rel.int.
  59.000 386139.0 17
  91.800 34653.5 2
  97.200 292079.5 13
  100.900 29703.0 1
  105.000 34653.5 2
  120.800 3430696.5 149
  128.800 287129.0 12
  129.100 341584.5 15
  132.500 19802.0 1
  133.100 79208.0 3
  135.200 14851.5 1
  149.800 39604.0 2
  165.200 23000023.0 999
//
