ACCESSION: MSBNK-Keio_Univ-KO001750
RECORD_TITLE: Ribose 5-phosphate; LC-ESI-QQ; MS2; CE:10 V; [M-H]-
DATE: 2016.01.19 (Created 2007.07.07, modified 2011.05.10)
AUTHORS: Kakazu Y, Horai H, Institute for Advanced Biosciences, Keio Univ.
LICENSE: CC BY-NC-SA
COMMENT: KEIO_ID R002
CH$NAME: Ribose 5-phosphate
CH$NAME: alpha-D-Ribose 5-phosphate
CH$COMPOUND_CLASS: N/A
CH$FORMULA: C5H11O8P
CH$EXACT_MASS: 230.01915
CH$SMILES: O[C@@H](O1)[C@H](O)[C@H](O)[C@H]1COP(O)(O)=O
CH$IUPAC: InChI=1S/C5H11O8P/c6-3-2(1-12-14(9,10)11)13-5(8)4(3)7/h2-8H,1H2,(H2,9,10,11)/t2-,3-,4-,5+/m1/s1
CH$LINK: KEGG C03736
CH$LINK: PUBCHEM CID:440101
CH$LINK: INCHIKEY KTVPXOYAKDPRHY-AIHAYLRMSA-N
AC$INSTRUMENT: API3000, Applied Biosystems
AC$INSTRUMENT_TYPE: LC-ESI-QQ
AC$MASS_SPECTROMETRY: MS_TYPE MS2
AC$MASS_SPECTROMETRY: ION_MODE NEGATIVE
AC$MASS_SPECTROMETRY: COLLISION_ENERGY 10 V
MS$FOCUSED_ION: PRECURSOR_M/Z 229
MS$FOCUSED_ION: PRECURSOR_TYPE [M-H]-
PK$SPLASH: splash10-004i-1290000000-9fa3cbc5abea7eb3b58f
PK$NUM_PEAK: 60
PK$PEAK: m/z int. rel.int.
  44.700 19802.0 1
  59.100 638614.5 8
  67.100 103960.5 1
  71.000 74257.5 1
  74.700 99010.0 1
  77.100 44554.5 1
  79.000 247525.0 3
  85.200 163366.5 2
  89.100 44554.5 1
  91.100 44554.5 1
  91.900 29703.0 1
  92.900 262376.5 3
  95.000 39604.0 1
  97.200 9381197.5 115
  99.200 173267.5 2
  100.800 34653.5 1
  102.700 24752.5 1
  103.100 64356.5 1
  107.100 529703.5 6
  111.200 153465.5 2
  112.800 44554.5 1
  115.000 178218.0 2
  119.000 1346536.0 16
  120.800 950496.0 12
  122.900 54455.5 1
  124.800 84158.5 1
  127.200 59406.0 1
  128.700 74257.5 1
  130.100 19802.0 1
  131.300 34653.5 1
  132.900 34653.5 1
  135.200 49505.0 1
  137.200 5797035.5 71
  139.100 1113862.5 14
  141.400 128713.0 2
  143.200 217822.0 3
  147.100 4425747.0 54
  148.900 24752.5 1
  150.900 54455.5 1
  156.600 108911.0 1
  157.100 539604.5 7
  160.700 153465.5 2
  165.200 2326735.0 28
  167.000 103960.5 1
  167.500 54455.5 1
  169.100 1970299.0 24
  171.200 39604.0 1
  172.900 14851.5 1
  175.500 217822.0 3
  179.100 326733.0 4
  181.100 391089.5 5
  183.400 143564.5 2
  185.100 128713.0 2
  193.300 534654.0 7
  196.300 103960.5 1
  197.100 247525.0 3
  211.000 237624.0 3
  220.200 24752.5 1
  227.800 29703.0 1
  229.100 81836715.5 999
//
