ACCESSION: MSBNK-Keio_Univ-KO003930
RECORD_TITLE: Propranolol; LC-ESI-QQ; MS2; CE:40 V; [M+H]+
DATE: 2016.01.19 (Created 2007.07.07, modified 2011.05.10)
AUTHORS: Kakazu Y, Horai H, Institute for Advanced Biosciences, Keio Univ.
LICENSE: CC BY-NC-SA
COMMENT: KEIO_ID P192
CH$NAME: Propranolol
CH$COMPOUND_CLASS: N/A
CH$FORMULA: C16H21NO2
CH$EXACT_MASS: 259.15723
CH$SMILES: CC(C)NCC(O)COc(c1)c(c2)c(ccc2)cc1
CH$IUPAC: InChI=1S/C16H21NO2/c1-12(2)17-10-14(18)11-19-16-9-5-7-13-6-3-4-8-15(13)16/h3-9,12,14,17-18H,10-11H2,1-2H3
CH$LINK: CAS 525-66-6
CH$LINK: KEGG C07407
CH$LINK: NIKKAJI J6.653B
CH$LINK: PUBCHEM SID:9611
CH$LINK: INCHIKEY AQHHHDLHHXJYJD-UHFFFAOYSA-N
CH$LINK: COMPTOX DTXSID6023525
AC$INSTRUMENT: API3000, Applied Biosystems
AC$INSTRUMENT_TYPE: LC-ESI-QQ
AC$MASS_SPECTROMETRY: MS_TYPE MS2
AC$MASS_SPECTROMETRY: ION_MODE POSITIVE
AC$MASS_SPECTROMETRY: COLLISION_ENERGY 40 V
MS$FOCUSED_ION: PRECURSOR_M/Z 260
MS$FOCUSED_ION: PRECURSOR_TYPE [M+H]+
PK$SPLASH: splash10-0ab9-9700000000-264398d3bc59c8ced5ed
PK$NUM_PEAK: 52
PK$PEAK: m/z int. rel.int.
  30.000 99010.0 12
  41.200 94059.5 11
  42.200 24752.5 3
  43.200 707921.5 85
  43.800 183168.5 22
  55.300 94059.5 11
  56.300 6965353.5 836
  57.100 143564.5 17
  58.300 3524756.0 423
  60.200 148515.0 18
  67.200 34653.5 4
  69.400 19802.0 2
  70.000 74257.5 9
  71.200 128713.0 15
  72.100 7212878.5 866
  74.000 8321790.5 999
  75.100 79208.0 10
  76.800 54455.5 7
  80.800 64356.5 8
  83.200 39604.0 5
  84.000 628713.5 75
  85.900 108911.0 13
  91.100 133663.5 16
  94.900 79208.0 10
  95.900 39604.0 5
  98.100 1777229.5 213
  100.000 1787130.5 215
  102.000 103960.5 12
  105.000 34653.5 4
  106.700 14851.5 2
  113.100 19802.0 2
  115.300 500000.5 60
  116.300 2579210.5 310
  117.100 336634.0 40
  126.800 777228.5 93
  128.300 549505.5 66
  129.100 3371290.5 405
  141.100 742575.0 89
  143.300 252475.5 30
  145.100 980199.0 118
  152.600 128713.0 15
  152.900 1821784.0 219
  154.200 485149.0 58
  155.300 4173271.5 501
  157.000 2782181.0 334
  165.300 1693071.0 203
  168.300 495050.0 59
  169.300 69307.0 8
  171.200 143564.5 17
  181.000 74257.5 9
  182.200 64356.5 8
  183.200 886139.5 106
//
