ACCESSION: MSBNK-Keio_Univ-KO009209
RECORD_TITLE: Protopine; LC-ESI-IT; MS4; m/z: 354/149/119; [M+H]+
DATE: 2011.12.05 (Created 2008.05.12)
AUTHORS: Ojima Y, Kakazu Y, Horai H, Soga T, Institute for Advanced Biosciences, Keio Univ.
LICENSE: CC BY-NC-SA
COMMENT: KEIO_ID P070
COMMENT: [MS3] KO009207
CH$NAME: Protopine
CH$COMPOUND_CLASS: N/A
CH$FORMULA: C20H19NO5
CH$EXACT_MASS: 353.12632
CH$SMILES: CN(C5)Cc(c1CC(=O)c(c3)c(C5)cc(O4)c(OC4)3)c(O2)c(OC2)cc1
CH$IUPAC: InChI=1S/C20H19NO5/c1-21-5-4-13-7-18-19(25-10-24-18)8-14(13)16(22)6-12-2-3-17-20(15(12)9-21)26-11-23-17/h2-3,7-8H,4-6,9-11H2,1H3
CH$LINK: CAS 130-86-9
CH$LINK: CHEBI CHEBI:16415
CH$LINK: KEGG C05189
CH$LINK: NIKKAJI J40.085H
CH$LINK: PUBCHEM CID:4970
CH$LINK: INCHIKEY GPTFURBXHJWNHR-UHFFFAOYSA-N
CH$LINK: COMPTOX DTXSID90156282
AC$INSTRUMENT: LC/MSD Trap XCT, Agilent Technologies
AC$INSTRUMENT_TYPE: LC-ESI-IT
AC$MASS_SPECTROMETRY: MS_TYPE MS4
AC$MASS_SPECTROMETRY: ION_MODE POSITIVE
AC$MASS_SPECTROMETRY: COLLISION_ENERGY 1.00/0.45/0.45
MS$FOCUSED_ION: PRECURSOR_M/Z 354/149/119
MS$FOCUSED_ION: PRECURSOR_TYPE [M+H]+
MS$DATA_PROCESSING: WHOLE LC/MSD Trap Control and Data Analysis
PK$SPLASH: splash10-00kf-9800000000-e47a12261e9ab54ce922
PK$NUM_PEAK: 4
PK$PEAK: m/z int. rel.int.
  91.1 134.91 999
  119.1 108.59 804
  119.9 11.00 81
  137.1 2.90 21
//
