ACCESSION: MSBNK-Keio_Univ-KO004014
RECORD_TITLE: Scopolamine; LC-ESI-QQ; MS2; CE:30 V; [M+H]+
DATE: 2016.01.19 (Created 2007.07.07, modified 2011.05.10)
AUTHORS: Kakazu Y, Horai H, Institute for Advanced Biosciences, Keio Univ.
LICENSE: CC BY-NC-SA
COMMENT: KEIO_ID S040
CH$NAME: Scopolamine
CH$COMPOUND_CLASS: N/A
CH$FORMULA: C17H21NO4
CH$EXACT_MASS: 303.14706
CH$SMILES: OCC(c(c4)cccc4)C(=O)OC(C2)CC(N(C)3)C(O1)C1C23
CH$IUPAC: InChI=1S/C17H21NO4/c1-18-13-7-11(8-14(18)16-15(13)22-16)21-17(20)12(9-19)10-5-3-2-4-6-10/h2-6,11-16,19H,7-9H2,1H3/t11-,12-,13-,14+,15-,16+/m1/s1
CH$LINK: CAS 51-34-3
CH$LINK: CHEBI CHEBI:16794
CH$LINK: KEGG C01851
CH$LINK: NIKKAJI J47.151H
CH$LINK: PUBCHEM CID:153311
CH$LINK: INCHIKEY STECJAGHUSJQJN-FWXGHANASA-N
CH$LINK: COMPTOX DTXSID6023573
AC$INSTRUMENT: API3000, Applied Biosystems
AC$INSTRUMENT_TYPE: LC-ESI-QQ
AC$MASS_SPECTROMETRY: MS_TYPE MS2
AC$MASS_SPECTROMETRY: ION_MODE POSITIVE
AC$MASS_SPECTROMETRY: COLLISION_ENERGY 30 V
MS$FOCUSED_ION: PRECURSOR_M/Z 304
MS$FOCUSED_ION: PRECURSOR_TYPE [M+H]+
PK$SPLASH: splash10-000i-1901000000-f66f538c7db471e86fd5
PK$NUM_PEAK: 85
PK$PEAK: m/z int. rel.int.
  42.000 138614.0 1
  43.200 79208.0 1
  44.200 267327.0 1
  50.100 14851.5 1
  54.900 123762.5 1
  56.100 19802.0 1
  57.200 94059.5 1
  58.400 9901.0 1
  60.000 49505.0 1
  67.200 410891.5 2
  69.200 3495053.0 14
  70.000 886139.5 4
  71.000 440594.5 2
  71.900 455446.0 2
  73.200 212871.5 1
  73.900 1386140.0 6
  77.300 103960.5 1
  77.500 29703.0 1
  79.000 6569313.5 27
  81.100 3623766.0 15
  82.200 3158419.0 13
  83.300 3173270.5 13
  84.100 7059413.0 29
  84.900 44554.5 1
  86.100 202970.5 1
  88.400 59406.0 1
  88.900 59406.0 1
  91.200 1430694.5 6
  93.100 1965348.5 8
  94.100 2554458.0 10
  95.200 940595.0 4
  96.200 5039609.0 21
  97.100 2500002.5 10
  98.100 24356460.0 100
  98.900 49505.0 1
  101.800 54455.5 1
  103.100 21539625.5 88
  105.100 44554.5 1
  107.000 2029705.0 8
  108.000 1198021.0 5
  109.200 559406.5 2
  110.200 36712908.0 150
  111.100 4549509.5 19
  112.400 128713.0 1
  113.200 386139.0 2
  114.100 851486.0 3
  115.300 460396.5 2
  117.900 34653.5 1
  120.300 2920795.0 12
  121.000 88401078.5 362
  122.100 29703.0 1
  123.100 143564.5 1
  125.100 113861.5 1
  125.300 39604.0 1
  126.200 34653.5 1
  128.000 79208.0 1
  131.200 103960.5 1
  136.200 148515.0 1
  138.200 244168561.0 999
  139.100 1009902.0 4
  140.700 29703.0 1
  143.000 29703.0 1
  149.400 44554.5 1
  154.100 391089.5 2
  155.400 118812.0 1
  156.300 111128824.0 455
  158.000 24752.5 1
  161.300 19802.0 1
  162.400 19802.0 1
  166.300 34653.5 1
  174.500 39604.0 1
  183.900 54455.5 1
  185.300 29703.0 1
  194.200 113861.5 1
  199.000 99010.0 1
  228.400 420792.5 2
  234.800 19802.0 1
  256.300 59406.0 1
  258.200 14851.5 1
  273.700 49505.0 1
  274.500 1029704.0 4
  286.300 118812.0 1
  287.700 19802.0 1
  302.700 14851.5 1
  304.600 66361452.5 272
//
