ACCESSION: MSBNK-Keio_Univ-KO002345
RECORD_TITLE: Aniline; LC-ESI-QQ; MS2; CE:30 V; [M+H]+
DATE: 2016.01.19 (Created 2007.07.07, modified 2011.05.10)
AUTHORS: Kakazu Y, Horai H, Institute for Advanced Biosciences, Keio Univ.
LICENSE: CC BY-NC-SA
COMMENT: KEIO_ID A162
CH$NAME: Aniline(2)
CH$NAME: Benzenamine
CH$NAME: Phenylamine
CH$NAME: Arylamine
CH$NAME: Aniline
CH$COMPOUND_CLASS: N/A
CH$FORMULA: C6H7N
CH$EXACT_MASS: 93.05785
CH$SMILES: Nc(c1)cccc1
CH$IUPAC: InChI=1S/C6H7N/c7-6-4-2-1-3-5-6/h1-5H,7H2
CH$LINK: CAS 62-53-3
CH$LINK: CHEBI CHEBI:17296
CH$LINK: CHEMPDB ANL
CH$LINK: KEGG C00292
CH$LINK: NIKKAJI J2.349C
CH$LINK: PUBCHEM CID:6115
CH$LINK: INCHIKEY PAYRUJLWNCNPSJ-UHFFFAOYSA-N
CH$LINK: COMPTOX DTXSID8020090
AC$INSTRUMENT: API3000, Applied Biosystems
AC$INSTRUMENT_TYPE: LC-ESI-QQ
AC$MASS_SPECTROMETRY: MS_TYPE MS2
AC$MASS_SPECTROMETRY: ION_MODE POSITIVE
AC$MASS_SPECTROMETRY: COLLISION_ENERGY 30 V
MS$FOCUSED_ION: PRECURSOR_M/Z 94
MS$FOCUSED_ION: PRECURSOR_TYPE [M+H]+
PK$SPLASH: splash10-0006-9000000000-0bea53746f5bc30ab770
PK$NUM_PEAK: 7
PK$PEAK: m/z int. rel.int.
  44.000 1366338.0 999
  45.000 445545.0 326
  51.000 34653.5 25
  61.900 381188.5 279
  76.900 762377.0 557
  93.100 44554.5 33
  94.100 212871.5 156
//
