ACCESSION: MSBNK-Keio_Univ-KO000266
RECORD_TITLE: Ne-Acetyllysine; LC-ESI-QQ; MS2; CE:40 V; [M-H]-
DATE: 2016.01.19 (Created 2007.07.07, modified 2011.05.10)
AUTHORS: Kakazu Y, Horai H, Institute for Advanced Biosciences, Keio Univ.
LICENSE: CC BY-NC-SA
COMMENT: KEIO_ID A174
CH$NAME: Ne-Acetyllysine
CH$NAME: N6-Acetyl-L-lysine
CH$COMPOUND_CLASS: N/A
CH$FORMULA: C8H16N2O3
CH$EXACT_MASS: 188.11609
CH$SMILES: CC(=O)NCCCC[C@H](N)C(O)=O
CH$IUPAC: InChI=1S/C8H16N2O3/c1-6(11)10-5-3-2-4-7(9)8(12)13/h7H,2-5,9H2,1H3,(H,10,11)(H,12,13)/t7-/m0/s1
CH$LINK: CAS 692-04-6
CH$LINK: CHEBI CHEBI:17752
CH$LINK: CHEMPDB ALY
CH$LINK: KEGG C02727
CH$LINK: NIKKAJI J206.006J
CH$LINK: PUBCHEM CID:92832
CH$LINK: INCHIKEY DTERQYGMUDWYAZ-ZETCQYMHSA-N
AC$INSTRUMENT: API3000, Applied Biosystems
AC$INSTRUMENT_TYPE: LC-ESI-QQ
AC$MASS_SPECTROMETRY: MS_TYPE MS2
AC$MASS_SPECTROMETRY: ION_MODE NEGATIVE
AC$MASS_SPECTROMETRY: COLLISION_ENERGY 40 V
MS$FOCUSED_ION: PRECURSOR_M/Z 187
MS$FOCUSED_ION: PRECURSOR_TYPE [M-H]-
PK$SPLASH: splash10-0a4j-9400000000-8531cdbb4e8108dbec95
PK$NUM_PEAK: 12
PK$PEAK: m/z int. rel.int.
  41.100 19802.0 33
  42.000 148515.0 246
  44.800 138614.0 229
  58.300 603961.0 999
  67.500 19802.0 33
  72.300 59406.0 98
  73.800 14851.5 25
  97.000 89109.0 147
  111.200 49505.0 82
  113.800 19802.0 33
  139.100 34653.5 57
  145.300 435644.0 721
//
