ACCESSION: MSBNK-Keio_Univ-KO001143
RECORD_TITLE: 2-(4-Hydroxyphenyl)propionic acid; LC-ESI-QQ; MS2; CE:40 V; [M-H]-
DATE: 2016.01.19 (Created 2007.07.07, modified 2011.05.10)
AUTHORS: Kakazu Y, Horai H, Institute for Advanced Biosciences, Keio Univ.
LICENSE: CC BY-NC-SA
COMMENT: KEIO_ID H099
CH$NAME: 2-(4-Hydroxyphenyl)propionate
CH$NAME: 4-Hydroxyhydratropate
CH$NAME: 2-(4-Hydroxyphenyl)propionic acid
CH$COMPOUND_CLASS: N/A
CH$FORMULA: C9H10O3
CH$EXACT_MASS: 166.06299
CH$SMILES: OC(=O)C(C)c(c1)ccc(O)c1
CH$IUPAC: InChI=1S/C9H10O3/c1-6(9(11)12)7-2-4-8(10)5-3-7/h2-6,10H,1H3,(H,11,12)
CH$LINK: KEGG C03080
CH$LINK: PUBCHEM CID:102526
CH$LINK: INCHIKEY ZHMMPVANGNPCBW-UHFFFAOYSA-N
CH$LINK: COMPTOX DTXSID90917911
AC$INSTRUMENT: API3000, Applied Biosystems
AC$INSTRUMENT_TYPE: LC-ESI-QQ
AC$MASS_SPECTROMETRY: MS_TYPE MS2
AC$MASS_SPECTROMETRY: ION_MODE NEGATIVE
AC$MASS_SPECTROMETRY: COLLISION_ENERGY 40 V
MS$FOCUSED_ION: PRECURSOR_M/Z 165
MS$FOCUSED_ION: PRECURSOR_TYPE [M-H]-
PK$SPLASH: splash10-00kf-9700000000-b25269bd8454951950fb
PK$NUM_PEAK: 9
PK$PEAK: m/z int. rel.int.
  59.000 39604.0 24
  64.800 24752.5 15
  75.100 99010.0 59
  91.000 89109.0 54
  92.000 19802.0 12
  93.000 1663368.0 999
  106.200 54455.5 33
  119.000 1618813.5 972
  150.200 39604.0 24
//
