ACCESSION: MSBNK-Keio_Univ-KO003619
RECORD_TITLE: Neostigmine; LC-ESI-QQ; MS2; CE:30 V; [M+H]+
DATE: 2016.01.19 (Created 2007.07.07, modified 2011.05.10)
AUTHORS: Kakazu Y, Horai H, Institute for Advanced Biosciences, Keio Univ.
LICENSE: CC BY-NC-SA
COMMENT: KEIO_ID N063
CH$NAME: Neostigmine
CH$NAME: Neostigmine bromide
CH$NAME: Neo proserine
CH$COMPOUND_CLASS: N/A
CH$FORMULA: [C12H19N2O2]+
CH$EXACT_MASS: 223.14465
CH$SMILES: CN(C)C(=O)Oc(c1)cc(cc1)[N+1](C)(C)C
CH$IUPAC: InChI=1S/C12H19N2O2/c1-13(2)12(15)16-11-8-6-7-10(9-11)14(3,4)5/h6-9H,1-5H3/q+1
CH$LINK: CAS 114-80-7
CH$LINK: KEGG C08197
CH$LINK: NIKKAJI J139.050C
CH$LINK: PUBCHEM SID:10396
CH$LINK: INCHIKEY ALWKGYPQUAPLQC-UHFFFAOYSA-N
CH$LINK: COMPTOX DTXSID1023360
AC$INSTRUMENT: API3000, Applied Biosystems
AC$INSTRUMENT_TYPE: LC-ESI-QQ
AC$MASS_SPECTROMETRY: MS_TYPE MS2
AC$MASS_SPECTROMETRY: ION_MODE POSITIVE
AC$MASS_SPECTROMETRY: COLLISION_ENERGY 30 V
MS$FOCUSED_ION: PRECURSOR_M/Z 224
MS$FOCUSED_ION: PRECURSOR_TYPE [M+H]+
PK$SPLASH: splash10-0ab9-2090000000-285ee2bce4f4c2097510
PK$NUM_PEAK: 64
PK$PEAK: m/z int. rel.int.
  44.400 24752.5 1
  55.400 19802.0 1
  56.000 54455.5 1
  58.300 331683.5 1
  66.800 14851.5 1
  69.800 34653.5 1
  72.000 241737865.5 315
  80.900 118812.0 1
  84.900 64356.5 1
  87.000 34653.5 1
  88.000 648515.5 1
  89.000 29703.0 1
  90.300 84158.5 1
  90.700 158416.0 1
  91.800 54455.5 1
  93.300 202970.5 1
  95.000 89109.0 1
  98.600 54455.5 1
  99.000 118812.0 1
  100.900 19802.0 1
  104.100 39604.0 1
  105.000 84158.5 1
  106.900 123762.5 1
  108.200 623763.0 1
  109.100 217822.0 1
  110.300 54455.5 1
  115.100 54455.5 1
  115.900 49505.0 1
  116.900 39604.0 1
  117.400 74257.5 1
  118.000 158416.0 1
  119.000 821783.0 1
  119.900 420792.5 1
  120.800 410891.5 1
  122.300 529703.5 1
  123.200 173267.5 1
  131.900 54455.5 1
  133.000 128713.0 1
  134.200 8247533.0 11
  135.200 22579230.5 29
  136.100 4173271.5 5
  137.200 2445547.0 3
  137.800 138614.0 1
  138.600 24752.5 1
  146.000 59406.0 1
  146.400 44554.5 1
  149.300 3900994.0 5
  150.100 2351487.5 3
  151.300 25524778.0 33
  152.300 5480203.5 7
  152.800 44554.5 1
  163.300 2133665.5 3
  164.300 11470308.5 15
  165.300 247525.0 1
  166.300 6069313.0 8
  178.300 1470298.5 2
  179.100 717822.5 1
  180.000 153465.5 1
  180.800 19802.0 1
  191.500 123762.5 1
  193.300 292079.5 1
  207.200 12500012.5 16
  208.200 765629478.5 999
  223.400 279822062.0 365
//
