ACCESSION: MSBNK-Keio_Univ-KO004012
RECORD_TITLE: Scopolamine; LC-ESI-QQ; MS2; CE:10 V; [M+H]+
DATE: 2016.01.19 (Created 2007.07.07, modified 2011.05.10)
AUTHORS: Kakazu Y, Horai H, Institute for Advanced Biosciences, Keio Univ.
LICENSE: CC BY-NC-SA
COMMENT: KEIO_ID S040
CH$NAME: Scopolamine
CH$COMPOUND_CLASS: N/A
CH$FORMULA: C17H21NO4
CH$EXACT_MASS: 303.14706
CH$SMILES: OCC(c(c4)cccc4)C(=O)OC(C2)CC(N(C)3)C(O1)C1C23
CH$IUPAC: InChI=1S/C17H21NO4/c1-18-13-7-11(8-14(18)16-15(13)22-16)21-17(20)12(9-19)10-5-3-2-4-6-10/h2-6,11-16,19H,7-9H2,1H3/t11-,12-,13-,14+,15-,16+/m1/s1
CH$LINK: CAS 51-34-3
CH$LINK: CHEBI CHEBI:16794
CH$LINK: KEGG C01851
CH$LINK: NIKKAJI J47.151H
CH$LINK: PUBCHEM CID:153311
CH$LINK: INCHIKEY STECJAGHUSJQJN-FWXGHANASA-N
CH$LINK: COMPTOX DTXSID6023573
AC$INSTRUMENT: API3000, Applied Biosystems
AC$INSTRUMENT_TYPE: LC-ESI-QQ
AC$MASS_SPECTROMETRY: MS_TYPE MS2
AC$MASS_SPECTROMETRY: ION_MODE POSITIVE
AC$MASS_SPECTROMETRY: COLLISION_ENERGY 10 V
MS$FOCUSED_ION: PRECURSOR_M/Z 304
MS$FOCUSED_ION: PRECURSOR_TYPE [M+H]+
PK$SPLASH: splash10-0udi-0009000000-9733effdc3262b114ed6
PK$NUM_PEAK: 37
PK$PEAK: m/z int. rel.int.
  77.800 39604.0 1
  87.900 19802.0 1
  88.400 19802.0 1
  96.200 9901.0 1
  103.000 39604.0 1
  109.900 257426.0 1
  111.100 1237625.0 1
  113.000 84158.5 1
  114.000 14851.5 1
  120.900 727723.5 1
  138.200 6198026.0 6
  141.900 19802.0 1
  153.800 123762.5 1
  156.300 14128727.0 15
  174.900 89109.0 1
  177.500 79208.0 1
  184.900 24752.5 1
  187.100 29703.0 1
  194.000 103960.5 1
  196.200 34653.5 1
  199.500 5267332.0 5
  212.200 39604.0 1
  213.900 39604.0 1
  227.000 34653.5 1
  242.000 19802.0 1
  244.300 29703.0 1
  249.800 29703.0 1
  254.300 445545.0 1
  269.400 64356.5 1
  272.200 103960.5 1
  274.300 39604.0 1
  286.500 465347.0 1
  287.400 5084163.5 5
  290.000 14851.5 1
  304.400 967208888.0 999
  474.500 24752.5 1
  582.400 24752.5 1
//
