ACCESSION: MSBNK-Keio_Univ-KO003608
RECORD_TITLE: Neomycin B; LC-ESI-QQ; MS2; CE:20 V; [M+2H]++
DATE: 2016.01.19 (Created 2007.07.07, modified 2012.10.22)
AUTHORS: Kakazu Y, Horai H, Institute for Advanced Biosciences, Keio Univ.
LICENSE: CC BY-NC-SA
COMMENT: KEIO_ID N022
CH$NAME: Neomycin
CH$NAME: Fradiomycin B
CH$NAME: Streptothricin B
CH$NAME: Neomycin B
CH$COMPOUND_CLASS: N/A
CH$FORMULA: C23H46N6O13
CH$EXACT_MASS: 614.31229
CH$SMILES: NC[C@H](O1)[C@@H](O)[C@H](O)[C@@H](N)[C@H]1O[C@H]([C@@H](CO)4)[C@@H](O)[C@@H](O4)O[C@H]([C@@H](O)3)[C@@H]([C@@H](N)C[C@@H](N)3)O[C@@H](O2)[C@H](N)[C@@H](O)[C@H](O)[C@@H](CN)2
CH$IUPAC: InChI=1S/C23H46N6O13/c24-2-7-13(32)15(34)10(28)21(37-7)40-18-6(27)1-5(26)12(31)20(18)42-23-17(36)19(9(4-30)39-23)41-22-11(29)16(35)14(33)8(3-25)38-22/h5-23,30-36H,1-4,24-29H2
CH$LINK: CAS 119-04-0
CH$LINK: KEGG C01737
CH$LINK: NIKKAJI J4.458J
CH$LINK: PUBCHEM SID:4872
CH$LINK: INCHIKEY PGBHMTALBVVCIT-UHFFFAOYSA-N
AC$INSTRUMENT: API3000, Applied Biosystems
AC$INSTRUMENT_TYPE: LC-ESI-QQ
AC$MASS_SPECTROMETRY: MS_TYPE MS2
AC$MASS_SPECTROMETRY: ION_MODE POSITIVE
AC$MASS_SPECTROMETRY: COLLISION_ENERGY 20 V
MS$FOCUSED_ION: PRECURSOR_M/Z 308
MS$FOCUSED_ION: PRECURSOR_TYPE [M+2H]++
PK$SPLASH: splash10-03di-2920000000-ee64ff668d43af4dc2e3
PK$NUM_PEAK: 90
PK$PEAK: m/z int. rel.int.
  39.800 19802.0 2
  56.200 24752.5 3
  59.800 19802.0 2
  68.300 74257.5 9
  72.900 410891.5 50
  73.300 94059.5 11
  77.700 14851.5 2
  80.200 1737625.5 211
  80.800 29703.0 4
  82.200 326733.0 40
  83.100 79208.0 10
  84.100 346535.0 42
  85.300 128713.0 16
  86.000 202970.5 25
  90.400 44554.5 5
  95.200 24752.5 3
  96.300 455446.0 55
  97.100 490099.5 59
  98.000 1826734.5 222
  100.200 39604.0 5
  101.200 133663.5 16
  105.100 143564.5 17
  106.800 74257.5 9
  108.000 594060.0 72
  109.000 222772.5 27
  112.000 39604.0 5
  112.900 39604.0 5
  114.000 5599015.5 679
  115.400 84158.5 10
  116.200 14851.5 2
  120.800 628713.5 76
  123.300 54455.5 7
  125.000 1965348.5 238
  126.200 732674.0 89
  127.400 14851.5 2
  128.900 24752.5 3
  132.000 113861.5 14
  133.900 198020.0 24
  134.300 123762.5 15
  135.700 24752.5 3
  137.900 227723.0 28
  143.100 1717823.5 208
  144.000 475248.0 58
  145.100 34653.5 4
  146.600 69307.0 8
  148.900 24752.5 3
  151.100 59406.0 7
  156.100 29703.0 4
  161.200 8232681.5 999
  161.900 84158.5 10
  163.300 4628717.5 562
  171.100 74257.5 9
  175.300 24752.5 3
  179.000 153465.5 19
  186.900 59406.0 7
  188.100 29703.0 4
  189.000 44554.5 5
  190.300 19802.0 2
  193.300 1212872.5 147
  202.400 39604.0 5
  203.100 1123763.5 136
  205.600 64356.5 8
  209.100 14851.5 2
  211.200 89109.0 11
  221.500 34653.5 4
  222.800 9901.0 1
  239.300 19802.0 2
  241.500 163366.5 20
  245.700 54455.5 7
  248.400 128713.0 16
  252.500 29703.0 4
  257.700 193069.5 23
  259.600 252475.5 31
  270.400 49505.0 6
  273.900 84158.5 10
  275.600 133663.5 16
  276.300 34653.5 4
  277.600 292079.5 35
  288.400 103960.5 13
  291.500 84158.5 10
  293.400 1940596.0 235
  295.400 1965348.5 238
  306.500 19802.0 2
  308.800 74257.5 9
  323.700 158416.0 19
  402.500 29703.0 4
  420.700 257426.0 31
  438.700 64356.5 8
  455.500 1539605.5 187
  456.600 29703.0 4
//
