ACCESSION: MSBNK-Keio_Univ-KO004035
RECORD_TITLE: Sisomicin; LC-ESI-QQ; MS2; CE:40 V; [M+H]+
DATE: 2016.01.19 (Created 2007.07.07, modified 2011.05.10)
AUTHORS: Kakazu Y, Horai H, Institute for Advanced Biosciences, Keio Univ.
LICENSE: CC BY-NC-SA
COMMENT: KEIO_ID S047
CH$NAME: Sisomicin
CH$NAME: Antibiotic 6640
CH$NAME: Dehydrogentamicin Cla
CH$NAME: Rickamicin
CH$COMPOUND_CLASS: N/A
CH$FORMULA: C19H37N5O7
CH$EXACT_MASS: 447.26930
CH$SMILES: NCC(=C3)O[C@@H]([C@H](N)C3)O[C@H]([C@@H](N)1)[C@H](O)[C@@H](O[C@@H](O2)[C@H](O)[C@@H](NC)[C@](C)(O)C2)[C@H](N)C1
CH$IUPAC: InChI=1S/C19H37N5O7/c1-19(27)7-28-18(13(26)16(19)24-2)31-15-11(23)5-10(22)14(12(15)25)30-17-9(21)4-3-8(6-20)29-17/h3,9-18,24-27H,4-7,20-23H2,1-2H3/t9-,10+,11-,12+,13-,14-,15+,16-,17-,18-,19+/m1/s1
CH$LINK: CAS 32385-11-8
CH$LINK: CHEBI CHEBI:9169
CH$LINK: KEGG C00494
CH$LINK: NIKKAJI J342.544D
CH$LINK: PUBCHEM CID:36119
CH$LINK: INCHIKEY URWAJWIAIPFPJE-YFMIWBNJSA-N
AC$INSTRUMENT: API3000, Applied Biosystems
AC$INSTRUMENT_TYPE: LC-ESI-QQ
AC$MASS_SPECTROMETRY: MS_TYPE MS2
AC$MASS_SPECTROMETRY: ION_MODE POSITIVE
AC$MASS_SPECTROMETRY: COLLISION_ENERGY 40 V
MS$FOCUSED_ION: PRECURSOR_M/Z 448
MS$FOCUSED_ION: PRECURSOR_TYPE [M+H]+
PK$SPLASH: splash10-03di-0920000000-eea6c730484f1d2fcc1d
PK$NUM_PEAK: 76
PK$PEAK: m/z int. rel.int.
  68.900 14851.5 5
  71.000 69307.0 23
  71.800 183168.5 60
  73.100 49505.0 16
  80.200 74257.5 24
  82.100 183168.5 60
  84.100 465347.0 152
  86.300 450495.5 147
  87.800 34653.5 11
  88.400 54455.5 18
  94.100 54455.5 18
  95.800 79208.0 26
  98.200 34653.5 11
  98.900 193069.5 63
  100.000 589109.5 192
  100.500 108911.0 36
  102.100 227723.0 74
  108.200 24752.5 8
  109.300 2628715.5 857
  110.000 519802.5 169
  111.300 108911.0 36
  112.000 3064359.5 999
  114.200 693070.0 226
  118.300 1866338.5 608
  120.500 34653.5 11
  121.400 89109.0 29
  123.000 39604.0 13
  123.300 39604.0 13
  124.300 163366.5 53
  126.300 54455.5 18
  127.100 638614.5 208
  128.500 24752.5 8
  134.300 34653.5 11
  135.300 39604.0 13
  137.700 24752.5 8
  141.000 64356.5 21
  142.300 1579209.5 515
  143.200 74257.5 24
  145.300 316832.0 103
  148.400 34653.5 11
  151.200 287129.0 94
  156.800 14851.5 5
  158.200 24752.5 8
  160.100 2905943.5 947
  163.300 2524755.0 823
  165.300 39604.0 13
  169.100 89109.0 29
  173.300 722773.0 236
  175.300 237624.0 77
  175.700 19802.0 6
  185.200 24752.5 8
  187.100 237624.0 77
  199.400 128713.0 42
  201.500 173267.5 56
  205.500 262376.5 86
  209.500 24752.5 8
  213.800 24752.5 8
  215.400 168317.0 55
  219.400 94059.5 31
  225.400 99010.0 32
  226.100 89109.0 29
  227.500 29703.0 10
  228.900 59406.0 19
  237.000 173267.5 56
  252.500 34653.5 11
  254.400 2732676.0 891
  256.100 24752.5 8
  266.400 24752.5 8
  267.700 34653.5 11
  271.600 891090.0 291
  272.700 193069.5 63
  278.500 163366.5 53
  295.600 222772.5 73
  296.600 153465.5 50
  313.600 44554.5 15
  314.000 19802.0 6
//
