ACCESSION: MSBNK-Keio_Univ-KO009115
RECORD_TITLE: Ketamine; LC-ESI-IT; MS3; m/z: 238/220; [M+H]+
DATE: 2011.12.05 (Created 2008.05.12)
AUTHORS: Ojima Y, Kakazu Y, Horai H, Soga T, Institute for Advanced Biosciences, Keio Univ.
LICENSE: CC BY-NC-SA
COMMENT: KEIO_ID K005
COMMENT: [MS2] KO009114
CH$NAME: Ketamine
CH$COMPOUND_CLASS: N/A
CH$FORMULA: C13H16ClNO
CH$EXACT_MASS: 237.09204
CH$SMILES: CNC(C2)(C(=O)CCC2)c(c1)c(Cl)ccc1
CH$IUPAC: InChI=1S/C13H16ClNO/c1-15-13(9-5-4-8-12(13)16)10-6-2-3-7-11(10)14/h2-3,6-7,15H,4-5,8-9H2,1H3
CH$LINK: CAS 6740-88-1
CH$LINK: KEGG C07525
CH$LINK: NIKKAJI J244.885H
CH$LINK: PUBCHEM SID:9728
CH$LINK: INCHIKEY YQEZLKZALYSWHR-UHFFFAOYSA-N
CH$LINK: COMPTOX DTXSID8023187
AC$INSTRUMENT: LC/MSD Trap XCT, Agilent Technologies
AC$INSTRUMENT_TYPE: LC-ESI-IT
AC$MASS_SPECTROMETRY: MS_TYPE MS3
AC$MASS_SPECTROMETRY: ION_MODE POSITIVE
AC$MASS_SPECTROMETRY: COLLISION_ENERGY 0.70/0.65
MS$FOCUSED_ION: PRECURSOR_M/Z 238/220
MS$FOCUSED_ION: PRECURSOR_TYPE [M+H]+
MS$DATA_PROCESSING: WHOLE LC/MSD Trap Control and Data Analysis
PK$SPLASH: splash10-00di-0590000000-6d5dead00806bc645985
PK$NUM_PEAK: 13
PK$PEAK: m/z int. rel.int.
  125.0 5.85 61
  148.9 6.08 64
  151.9 3.08 32
  153.0 2.23 23
  154.1 6.23 65
  155.1 3.23 34
  157.1 2.38 25
  163.1 33.43 350
  164.1 2.69 28
  189.1 2.07 22
  190.9 6.69 70
  220.1 26.71 280
  221.1 95.39 999
//
