ACCESSION: MSBNK-Keio_Univ-KO000331
RECORD_TITLE: Benzimidazole; LC-ESI-QQ; MS2; CE:10 V; [M-H]-
DATE: 2016.01.19 (Created 2007.07.07, modified 2011.05.10)
AUTHORS: Kakazu Y, Horai H, Institute for Advanced Biosciences, Keio Univ.
LICENSE: CC BY-NC-SA
COMMENT: KEIO_ID B007
CH$NAME: Benzimidazole
CH$COMPOUND_CLASS: N/A
CH$FORMULA: C7H6N2
CH$EXACT_MASS: 118.05310
CH$SMILES: C1=CC=C2C(=C1)NC=N2
CH$IUPAC: InChI=1S/C7H6N2/c1-2-4-7-6(3-1)8-5-9-7/h1-5H,(H,8,9)
CH$LINK: CAS 51-17-2
CH$LINK: CHEBI CHEBI:3028
CH$LINK: CHEMPDB BZI
CH$LINK: KEGG C02009
CH$LINK: NIKKAJI J2.303E
CH$LINK: PUBCHEM CID:5798
CH$LINK: INCHIKEY HYZJCKYKOHLVJF-UHFFFAOYSA-N
CH$LINK: COMPTOX DTXSID8024573
AC$INSTRUMENT: API3000, Applied Biosystems
AC$INSTRUMENT_TYPE: LC-ESI-QQ
AC$MASS_SPECTROMETRY: MS_TYPE MS2
AC$MASS_SPECTROMETRY: ION_MODE NEGATIVE
AC$MASS_SPECTROMETRY: COLLISION_ENERGY 10 V
MS$FOCUSED_ION: PRECURSOR_M/Z 117
MS$FOCUSED_ION: PRECURSOR_TYPE [M-H]-
PK$SPLASH: splash10-014i-0900000000-a748760e317519d35edb
PK$NUM_PEAK: 7
PK$PEAK: m/z int. rel.int.
  59.100 49505.0 1
  73.000 3891093.0 12
  74.700 39604.0 1
  88.800 39604.0 1
  98.900 900991.0 3
  116.600 25158441.0 79
  117.000 318544873.0 999
//
