ACCESSION: MSBNK-Keio_Univ-KO009215
RECORD_TITLE: Puromycin; LC-ESI-IT; MS3; m/z: 472/150; [M+H]+
DATE: 2011.12.05 (Created 2008.05.12)
AUTHORS: Ojima Y, Kakazu Y, Horai H, Soga T, Institute for Advanced Biosciences, Keio Univ.
LICENSE: CC BY-NC-SA
COMMENT: KEIO_ID P075
COMMENT: [MS2] KO009213
CH$NAME: Puromycin
CH$COMPOUND_CLASS: N/A
CH$FORMULA: C22H29N7O5
CH$EXACT_MASS: 471.22302
CH$SMILES: COc(c4)ccc(c4)CC(N)C(=O)NC(C(CO)3)C(O)C(O3)n(c2)c(n1)c(n2)c(N(C)C)nc1
CH$IUPAC: InChI=1S/C22H29N7O5/c1-28(2)19-17-20(25-10-24-19)29(11-26-17)22-18(31)16(15(9-30)34-22)27-21(32)14(23)8-12-4-6-13(33-3)7-5-12/h4-7,10-11,14-16,18,22,30-31H,8-9,23H2,1-3H3,(H,27,32)/t14-,15+,16+,18+,22+/m0/s1
CH$LINK: CAS 53-79-2
CH$LINK: CHEBI CHEBI:17939
CH$LINK: KEGG C01610
CH$LINK: NIKKAJI J2.310H
CH$LINK: PUBCHEM CID:439530
CH$LINK: INCHIKEY RXWNCPJZOCPEPQ-NVWDDTSBSA-N
CH$LINK: COMPTOX DTXSID8036788
AC$INSTRUMENT: LC/MSD Trap XCT, Agilent Technologies
AC$INSTRUMENT_TYPE: LC-ESI-IT
AC$MASS_SPECTROMETRY: MS_TYPE MS3
AC$MASS_SPECTROMETRY: ION_MODE POSITIVE
AC$MASS_SPECTROMETRY: COLLISION_ENERGY 0.70/0.50
MS$FOCUSED_ION: PRECURSOR_M/Z 472/150
MS$FOCUSED_ION: PRECURSOR_TYPE [M+H]+
MS$DATA_PROCESSING: WHOLE LC/MSD Trap Control and Data Analysis
PK$SPLASH: splash10-00xr-0900000000-9100159b1a36c2984a3b
PK$NUM_PEAK: 9
PK$PEAK: m/z int. rel.int.
  91.1 18.80 96
  105.2 2.33 12
  118.1 166.82 851
  121.1 195.94 999
  123.1 11.03 56
  135.0 1.83 9
  151.1 1.92 10
  174.1 2.49 13
  228.9 11.00 56
//
