ACCESSION: MSBNK-Keio_Univ-KO002318
RECORD_TITLE: Allocryptopine; LC-ESI-QQ; MS2; CE:10 V; [M+H]+
DATE: 2016.01.19 (Created 2007.07.07, modified 2011.05.10)
AUTHORS: Kakazu Y, Horai H, Institute for Advanced Biosciences, Keio Univ.
LICENSE: CC BY-NC-SA
COMMENT: KEIO_ID A137
CH$NAME: Allocryptopine
CH$COMPOUND_CLASS: N/A
CH$FORMULA: C21H23NO5
CH$EXACT_MASS: 369.15762
CH$SMILES: COc(c4)c(OC)c(C3)c(c4)CC(=O)c(c1)c(CCN(C)3)cc(O2)c(OC2)1
CH$IUPAC: InChI=1S/C21H23NO5/c1-22-7-6-14-9-19-20(27-12-26-19)10-15(14)17(23)8-13-4-5-18(24-2)21(25-3)16(13)11-22/h4-5,9-10H,6-8,11-12H2,1-3H3
CH$LINK: CAS 24240-04-8 485-91-6
CH$LINK: CHEBI CHEBI:17390
CH$LINK: KEGG C02134
CH$LINK: PUBCHEM CID:98570
CH$LINK: INCHIKEY HYBRYAPKQCZIAE-UHFFFAOYSA-N
AC$INSTRUMENT: API3000, Applied Biosystems
AC$INSTRUMENT_TYPE: LC-ESI-QQ
AC$MASS_SPECTROMETRY: MS_TYPE MS2
AC$MASS_SPECTROMETRY: ION_MODE POSITIVE
AC$MASS_SPECTROMETRY: COLLISION_ENERGY 10 V
MS$FOCUSED_ION: PRECURSOR_M/Z 370
MS$FOCUSED_ION: PRECURSOR_TYPE [M+H]+
PK$SPLASH: splash10-00di-0009000000-b018f30bac92269a98eb
PK$NUM_PEAK: 42
PK$PEAK: m/z int. rel.int.
  82.100 287129.0 1
  85.800 19802.0 1
  90.300 128713.0 1
  100.100 1262377.5 3
  117.800 89109.0 1
  122.300 326733.0 1
  131.300 29703.0 1
  134.700 34653.5 1
  152.400 59406.0 1
  153.000 54455.5 1
  154.100 133663.5 1
  180.000 19802.0 1
  188.200 242574.5 1
  189.900 64356.5 1
  206.000 29703.0 1
  209.500 9901.0 1
  210.900 24752.5 1
  212.400 39604.0 1
  232.600 99010.0 1
  234.100 54455.5 1
  237.100 99010.0 1
  238.300 29703.0 1
  252.600 44554.5 1
  253.200 267327.0 1
  260.700 34653.5 1
  262.900 19802.0 1
  270.200 54455.5 1
  271.300 94059.5 1
  289.900 34653.5 1
  295.500 212871.5 1
  298.600 24752.5 1
  306.500 29703.0 1
  310.600 69307.0 1
  321.500 49505.0 1
  334.400 29703.0 1
  335.800 24752.5 1
  338.300 79208.0 1
  338.600 24752.5 1
  352.500 227723.0 1
  353.500 247525.0 1
  370.400 410876648.5 999
  371.200 9901.0 1
//
