ACCESSION: MSBNK-Keio_Univ-KO004155
RECORD_TITLE: Trimethoprim; LC-ESI-QQ; MS2; CE:40 V; [M+H]+
DATE: 2016.01.19 (Created 2007.07.07, modified 2011.05.10)
AUTHORS: Kakazu Y, Horai H, Institute for Advanced Biosciences, Keio Univ.
LICENSE: CC BY-NC-SA
COMMENT: KEIO_ID T033
CH$NAME: Trimethoprim
CH$COMPOUND_CLASS: N/A
CH$FORMULA: C14H18N4O3
CH$EXACT_MASS: 290.13789
CH$SMILES: COc(c1)c(OC)c(OC)cc(Cc(c2)c(N)nc(N)n2)1
CH$IUPAC: InChI=1S/C14H18N4O3/c1-19-10-5-8(6-11(20-2)12(10)21-3)4-9-7-17-14(16)18-13(9)15/h5-7H,4H2,1-3H3,(H4,15,16,17,18)
CH$LINK: CAS 738-70-5
CH$LINK: KEGG C01965
CH$LINK: NIKKAJI J9.454D
CH$LINK: PUBCHEM SID:5066
CH$LINK: INCHIKEY IEDVJHCEMCRBQM-UHFFFAOYSA-N
CH$LINK: COMPTOX DTXSID3023712
AC$INSTRUMENT: API3000, Applied Biosystems
AC$INSTRUMENT_TYPE: LC-ESI-QQ
AC$MASS_SPECTROMETRY: MS_TYPE MS2
AC$MASS_SPECTROMETRY: ION_MODE POSITIVE
AC$MASS_SPECTROMETRY: COLLISION_ENERGY 40 V
MS$FOCUSED_ION: PRECURSOR_M/Z 291
MS$FOCUSED_ION: PRECURSOR_TYPE [M+H]+
PK$SPLASH: splash10-03n9-0590000000-15246e14a33089adf87d
PK$NUM_PEAK: 77
PK$PEAK: m/z int. rel.int.
  67.800 44554.5 6
  69.300 19802.0 3
  74.900 24752.5 3
  81.100 886139.5 112
  83.200 39604.0 5
  91.700 39604.0 5
  96.800 64356.5 8
  98.700 14851.5 2
  106.000 84158.5 11
  109.200 69307.0 9
  110.200 4673272.0 591
  111.300 638614.5 81
  120.100 153465.5 19
  123.100 7905948.5 999
  124.100 509901.5 64
  130.400 14851.5 2
  135.100 74257.5 9
  137.400 84158.5 11
  143.000 44554.5 6
  144.900 39604.0 5
  146.200 39604.0 5
  147.900 143564.5 18
  149.400 163366.5 21
  151.100 237624.0 30
  156.200 34653.5 4
  156.600 14851.5 2
  158.100 39604.0 5
  160.000 79208.0 10
  160.900 94059.5 12
  161.500 19802.0 3
  165.200 44554.5 6
  166.900 19802.0 3
  168.800 14851.5 2
  171.000 69307.0 9
  173.200 54455.5 7
  174.300 193069.5 24
  175.100 54455.5 7
  175.900 44554.5 6
  181.100 341584.5 43
  186.200 89109.0 11
  187.100 559406.5 71
  188.100 54455.5 7
  190.100 74257.5 9
  191.200 193069.5 24
  196.200 24752.5 3
  199.500 133663.5 17
  200.400 257426.0 33
  201.200 1584160.0 200
  202.400 559406.5 71
  203.000 64356.5 8
  212.100 54455.5 7
  213.400 153465.5 19
  214.400 64356.5 8
  215.100 331683.5 42
  216.300 103960.5 13
  217.200 153465.5 19
  217.700 128713.0 16
  219.100 69307.0 9
  227.300 29703.0 4
  228.300 44554.5 6
  229.300 2658418.5 336
  230.400 5970303.0 754
  231.400 89109.0 11
  232.300 648515.5 82
  233.300 1465348.0 185
  240.500 44554.5 6
  241.500 49505.0 6
  244.400 118812.0 15
  245.300 1118813.0 141
  246.500 470297.5 59
  247.300 633664.0 80
  257.400 2836636.5 358
  258.300 108911.0 14
  259.400 539604.5 68
  261.400 5326738.0 673
  275.500 3866340.5 489
  291.400 277228.0 35
//
