ACCESSION: MSBNK-Keio_Univ-KO001332
RECORD_TITLE: DL-threo-beta-Methylaspartic acid; LC-ESI-QQ; MS2; CE:50 V; [M-H]-
DATE: 2016.01.19 (Created 2007.07.07, modified 2011.05.10)
AUTHORS: Kakazu Y, Horai H, Institute for Advanced Biosciences, Keio Univ.
LICENSE: CC BY-NC-SA
COMMENT: KEIO_ID M009
CH$NAME: threo-b-methylaspartate
CH$NAME: L-threo-3-Methylaspartate
CH$NAME: DL-threo-beta-Methylaspartic acid
CH$COMPOUND_CLASS: N/A
CH$FORMULA: C5H9NO4
CH$EXACT_MASS: 147.05316
CH$SMILES: OC(=O)[C@@H](C)[C@H](N)C(O)=O
CH$IUPAC: InChI=1S/C5H9NO4/c1-2(4(7)8)3(6)5(9)10/h2-3H,6H2,1H3,(H,7,8)(H,9,10)/t2-,3-/m0/s1
CH$LINK: KEGG C03618
CH$LINK: PUBCHEM CID:440064
CH$LINK: INCHIKEY LXRUAYBIUSUULX-HRFVKAFMSA-N
AC$INSTRUMENT: API3000, Applied Biosystems
AC$INSTRUMENT_TYPE: LC-ESI-QQ
AC$MASS_SPECTROMETRY: MS_TYPE MS2
AC$MASS_SPECTROMETRY: ION_MODE NEGATIVE
AC$MASS_SPECTROMETRY: COLLISION_ENERGY 50 V
MS$FOCUSED_ION: PRECURSOR_M/Z 146
MS$FOCUSED_ION: PRECURSOR_TYPE [M-H]-
PK$SPLASH: splash10-004o-9000000000-c837a7bb234f01f16b52
PK$NUM_PEAK: 3
PK$PEAK: m/z int. rel.int.
  42.300 94059.5 999
  62.900 39604.0 421
  78.600 94059.5 999
//
