ACCESSION: MSBNK-Keio_Univ-KO003837
RECORD_TITLE: 4-Pyridoxic acid; LC-ESI-QQ; MS2; CE:50 V; [M+H]+
DATE: 2016.01.19 (Created 2007.07.07, modified 2011.05.10)
AUTHORS: Kakazu Y, Horai H, Institute for Advanced Biosciences, Keio Univ.
LICENSE: CC BY-NC-SA
COMMENT: KEIO_ID P079
CH$NAME: 4-Pyridoxate
CH$NAME: 4-Pyridoxic acid
CH$COMPOUND_CLASS: N/A
CH$FORMULA: C8H9NO4
CH$EXACT_MASS: 183.05316
CH$SMILES: OCc(c1)c(C(O)=O)c(O)c(C)n1
CH$IUPAC: InChI=1S/C8H9NO4/c1-4-7(11)6(8(12)13)5(3-10)2-9-4/h2,10-11H,3H2,1H3,(H,12,13)
CH$LINK: CAS 82-82-6
CH$LINK: CHEBI CHEBI:17405
CH$LINK: KEGG C00847
CH$LINK: NIKKAJI J41.097G
CH$LINK: PUBCHEM SID:4104
CH$LINK: INCHIKEY HXACOUQIXZGNBF-UHFFFAOYSA-N
CH$LINK: COMPTOX DTXSID20861650
AC$INSTRUMENT: API3000, Applied Biosystems
AC$INSTRUMENT_TYPE: LC-ESI-QQ
AC$MASS_SPECTROMETRY: MS_TYPE MS2
AC$MASS_SPECTROMETRY: ION_MODE POSITIVE
AC$MASS_SPECTROMETRY: COLLISION_ENERGY 50 V
MS$FOCUSED_ION: PRECURSOR_M/Z 184
MS$FOCUSED_ION: PRECURSOR_TYPE [M+H]+
PK$SPLASH: splash10-014i-9200000000-8f0fa7a53eb7325318ba
PK$NUM_PEAK: 49
PK$PEAK: m/z int. rel.int.
  39.100 202970.5 22
  40.900 128713.0 14
  43.800 29703.0 3
  45.000 59406.0 7
  51.000 212871.5 23
  52.000 29703.0 3
  53.200 589109.5 65
  54.000 54455.5 6
  55.200 143564.5 16
  56.000 39604.0 4
  57.000 34653.5 4
  58.000 44554.5 5
  63.100 816832.5 90
  65.200 9099019.0 999
  66.100 232673.5 26
  67.000 1717823.5 189
  68.000 301980.5 33
  69.200 94059.5 10
  75.200 554456.0 61
  77.100 1306932.0 143
  77.900 237624.0 26
  79.300 915842.5 101
  80.000 1074258.5 118
  81.000 202970.5 22
  82.100 628713.5 69
  84.200 133663.5 15
  90.900 188119.0 21
  92.100 2143566.5 235
  93.000 247525.0 27
  94.100 316832.0 35
  95.400 356436.0 39
  96.100 589109.5 65
  102.100 188119.0 21
  103.100 64356.5 7
  104.000 297030.0 33
  105.000 123762.5 14
  106.200 54455.5 6
  107.000 44554.5 5
  108.000 242574.5 27
  108.900 465347.0 51
  110.200 554456.0 61
  120.400 772278.0 85
  122.200 603961.0 66
  130.200 74257.5 8
  136.200 79208.0 9
  138.300 89109.0 10
  146.300 19802.0 2
  148.000 1386140.0 152
  166.600 14851.5 2
//
