ACCESSION: MSBNK-Keio_Univ-KO002142
RECORD_TITLE: 2-Aminoisobutyric acid; LC-ESI-QQ; MS2; CE:50 V; [M+H]+
DATE: 2016.01.19 (Created 2007.07.07, modified 2011.05.10)
AUTHORS: Kakazu Y, Horai H, Institute for Advanced Biosciences, Keio Univ.
LICENSE: CC BY-NC-SA
COMMENT: KEIO_ID A048
CH$NAME: a-Aminoisobutyrate
CH$NAME: 2-Amino-2-methylpropanoate
CH$NAME: 2-Aminoisobutyric acid
CH$COMPOUND_CLASS: N/A
CH$FORMULA: C4H9NO2
CH$EXACT_MASS: 103.06333
CH$SMILES: OC(=O)C(C)(C)N
CH$IUPAC: InChI=1S/C4H9NO2/c1-4(2,5)3(6)7/h5H2,1-2H3,(H,6,7)
CH$LINK: CAS 62-57-7
CH$LINK: KEGG C03665
CH$LINK: NIKKAJI J38.908K
CH$LINK: PUBCHEM SID:6443
CH$LINK: INCHIKEY FUOOLUPWFVMBKG-UHFFFAOYSA-N
CH$LINK: COMPTOX DTXSID0058772
AC$INSTRUMENT: API3000, Applied Biosystems
AC$INSTRUMENT_TYPE: LC-ESI-QQ
AC$MASS_SPECTROMETRY: MS_TYPE MS2
AC$MASS_SPECTROMETRY: ION_MODE POSITIVE
AC$MASS_SPECTROMETRY: COLLISION_ENERGY 50 V
MS$FOCUSED_ION: PRECURSOR_M/Z 104
MS$FOCUSED_ION: PRECURSOR_TYPE [M+H]+
PK$SPLASH: splash10-0a4l-9000000000-b7fd609f2bf6e6145d54
PK$NUM_PEAK: 4
PK$PEAK: m/z int. rel.int.
  38.900 44554.5 187
  43.000 79208.0 333
  44.700 44554.5 187
  58.200 237624.0 999
//
