ACCESSION: MSBNK-Keio_Univ-KO004156
RECORD_TITLE: Trimethoprim; LC-ESI-QQ; MS2; CE:50 V; [M+H]+
DATE: 2016.01.19 (Created 2007.07.07, modified 2011.05.10)
AUTHORS: Kakazu Y, Horai H, Institute for Advanced Biosciences, Keio Univ.
LICENSE: CC BY-NC-SA
COMMENT: KEIO_ID T033
CH$NAME: Trimethoprim
CH$COMPOUND_CLASS: N/A
CH$FORMULA: C14H18N4O3
CH$EXACT_MASS: 290.13789
CH$SMILES: COc(c1)c(OC)c(OC)cc(Cc(c2)c(N)nc(N)n2)1
CH$IUPAC: InChI=1S/C14H18N4O3/c1-19-10-5-8(6-11(20-2)12(10)21-3)4-9-7-17-14(16)18-13(9)15/h5-7H,4H2,1-3H3,(H4,15,16,17,18)
CH$LINK: CAS 738-70-5
CH$LINK: KEGG C01965
CH$LINK: NIKKAJI J9.454D
CH$LINK: PUBCHEM CID:5578
CH$LINK: INCHIKEY IEDVJHCEMCRBQM-UHFFFAOYSA-N
CH$LINK: COMPTOX DTXSID3023712
AC$INSTRUMENT: API3000, Applied Biosystems
AC$INSTRUMENT_TYPE: LC-ESI-QQ
AC$MASS_SPECTROMETRY: MS_TYPE MS2
AC$MASS_SPECTROMETRY: ION_MODE POSITIVE
AC$MASS_SPECTROMETRY: COLLISION_ENERGY 50 V
MS$FOCUSED_ION: PRECURSOR_M/Z 291
MS$FOCUSED_ION: PRECURSOR_TYPE [M+H]+
PK$SPLASH: splash10-0230-1950000000-83b1288780d0f8f7b8a4
PK$NUM_PEAK: 83
PK$PEAK: m/z int. rel.int.
  59.800 9901.0 2
  68.100 198020.0 48
  77.000 49505.0 12
  78.600 9901.0 2
  81.000 1792081.0 437
  83.200 168317.0 41
  85.100 14851.5 4
  91.100 24752.5 6
  94.200 29703.0 7
  94.900 19802.0 5
  96.900 44554.5 11
  103.200 14851.5 4
  106.100 183168.5 45
  109.100 168317.0 41
  110.300 3138617.0 765
  111.300 490099.5 119
  114.200 24752.5 6
  117.900 49505.0 12
  120.000 103960.5 25
  121.400 24752.5 6
  123.300 4099014.0 999
  124.200 272277.5 66
  131.200 64356.5 16
  132.400 24752.5 6
  135.100 188119.0 46
  136.300 29703.0 7
  137.100 227723.0 56
  142.000 79208.0 19
  146.300 143564.5 35
  147.200 84158.5 21
  148.100 153465.5 37
  149.000 316832.0 77
  151.200 242574.5 59
  154.300 19802.0 5
  154.900 29703.0 7
  155.900 69307.0 17
  157.200 39604.0 10
  158.300 39604.0 10
  159.200 74257.5 18
  160.300 94059.5 23
  161.400 198020.0 48
  162.000 173267.5 42
  162.900 34653.5 8
  170.100 153465.5 37
  172.400 74257.5 18
  174.400 321782.5 78
  175.500 138614.0 34
  177.200 19802.0 5
  180.900 39604.0 10
  184.300 84158.5 21
  185.300 123762.5 30
  186.100 163366.5 40
  187.300 504951.0 123
  189.300 103960.5 25
  190.300 188119.0 46
  191.600 133663.5 33
  197.400 44554.5 11
  198.200 59406.0 14
  199.500 103960.5 25
  201.200 960397.0 234
  203.300 94059.5 23
  212.100 39604.0 10
  212.400 49505.0 12
  213.200 118812.0 29
  215.400 252475.5 62
  216.500 103960.5 25
  217.100 143564.5 35
  218.400 59406.0 14
  226.900 29703.0 7
  228.700 74257.5 18
  229.200 1099011.0 268
  230.100 277228.0 68
  231.300 504951.0 123
  232.300 772278.0 188
  233.500 658416.5 160
  243.300 69307.0 17
  245.500 549505.5 134
  247.200 44554.5 11
  255.100 118812.0 29
  257.400 792080.0 193
  259.300 396040.0 97
  261.300 514852.0 125
  275.600 366337.0 89
//
