ACCESSION: MSBNK-Keio_Univ-KO004264
RECORD_TITLE: Verapamil; LC-ESI-QQ; MS2; CE:40 V; [M+H]+
DATE: 2016.01.19 (Created 2007.07.07, modified 2011.05.10)
AUTHORS: Kakazu Y, Horai H, Institute for Advanced Biosciences, Keio Univ.
LICENSE: CC BY-NC-SA
COMMENT: KEIO_ID V021
CH$NAME: Verapamil
CH$COMPOUND_CLASS: N/A
CH$FORMULA: C27H38N2O4
CH$EXACT_MASS: 454.28316
CH$SMILES: c(c2OC)(OC)ccc(c2)C(CCCN(C)CCc(c1)cc(OC)c(OC)c1)(C(C)C)C#N
CH$IUPAC: InChI=1S/C27H38N2O4/c1-20(2)27(19-28,22-10-12-24(31-5)26(18-22)33-7)14-8-15-29(3)16-13-21-9-11-23(30-4)25(17-21)32-6/h9-12,17-18,20H,8,13-16H2,1-7H3
CH$LINK: CAS 52-53-9
CH$LINK: KEGG C07188
CH$LINK: NIKKAJI J4.132G
CH$LINK: PUBCHEM CID:2520
CH$LINK: INCHIKEY SGTNSNPWRIOYBX-UHFFFAOYSA-N
CH$LINK: COMPTOX DTXSID9041152
AC$INSTRUMENT: API3000, Applied Biosystems
AC$INSTRUMENT_TYPE: LC-ESI-QQ
AC$MASS_SPECTROMETRY: MS_TYPE MS2
AC$MASS_SPECTROMETRY: ION_MODE POSITIVE
AC$MASS_SPECTROMETRY: COLLISION_ENERGY 40 V
MS$FOCUSED_ION: PRECURSOR_M/Z 455
MS$FOCUSED_ION: PRECURSOR_TYPE [M+H]+
PK$SPLASH: splash10-014i-0901000000-81d1159b3102cff76218
PK$NUM_PEAK: 72
PK$PEAK: m/z int. rel.int.
  63.000 24752.5 1
  69.600 24752.5 1
  78.800 79208.0 1
  80.900 14851.5 1
  83.900 24752.5 1
  86.300 133663.5 2
  91.200 39604.0 1
  93.800 9901.0 1
  95.100 89109.0 1
  96.200 247525.0 3
  102.800 133663.5 2
  105.300 1118813.0 13
  107.000 188119.0 2
  108.800 49505.0 1
  110.300 158416.0 2
  113.900 29703.0 1
  118.100 128713.0 1
  119.100 108911.0 1
  120.000 163366.5 2
  121.400 148515.0 2
  122.100 376238.0 4
  123.200 123762.5 1
  124.000 34653.5 1
  124.300 19802.0 1
  133.000 1163367.5 13
  133.900 544555.0 6
  135.100 1227724.0 14
  136.300 64356.5 1
  137.200 341584.5 4
  139.300 188119.0 2
  148.900 138614.0 2
  150.200 11742586.0 133
  151.300 985149.5 11
  152.300 94059.5 1
  153.300 14851.5 1
  156.300 24752.5 1
  163.100 138614.0 2
  165.400 88064444.5 999
  175.000 108911.0 1
  177.300 970298.0 11
  177.700 54455.5 1
  178.500 19802.0 1
  179.500 24752.5 1
  185.500 24752.5 1
  188.000 34653.5 1
  189.900 84158.5 1
  191.100 84158.5 1
  194.300 113861.5 1
  197.400 39604.0 1
  202.000 79208.0 1
  202.500 14851.5 1
  203.500 59406.0 1
  208.000 19802.0 1
  212.200 59406.0 1
  217.200 163366.5 2
  218.300 445545.0 5
  219.500 44554.5 1
  226.600 19802.0 1
  229.100 54455.5 1
  229.500 29703.0 1
  233.000 84158.5 1
  233.500 212871.5 2
  239.500 44554.5 1
  243.400 321782.5 4
  245.400 108911.0 1
  260.600 5440599.5 62
  261.400 1500001.5 17
  291.300 34653.5 1
  303.600 13737637.5 156
  317.400 39604.0 1
  423.800 9901.0 1
  455.600 2306933.0 26
//
