ACCESSION: MSBNK-Keio_Univ-KO003620
RECORD_TITLE: Neostigmine; LC-ESI-QQ; MS2; CE:40 V; [M+H]+
DATE: 2016.01.19 (Created 2007.07.07, modified 2011.05.10)
AUTHORS: Kakazu Y, Horai H, Institute for Advanced Biosciences, Keio Univ.
LICENSE: CC BY-NC-SA
COMMENT: KEIO_ID N063
CH$NAME: Neostigmine
CH$NAME: Neostigmine bromide
CH$NAME: Neo proserine
CH$COMPOUND_CLASS: N/A
CH$FORMULA: [C12H19N2O2]+
CH$EXACT_MASS: 223.14465
CH$SMILES: CN(C)C(=O)Oc(c1)cc(cc1)[N+1](C)(C)C
CH$IUPAC: InChI=1S/C12H19N2O2/c1-13(2)12(15)16-11-8-6-7-10(9-11)14(3,4)5/h6-9H,1-5H3/q+1
CH$LINK: CAS 114-80-7
CH$LINK: KEGG C08197
CH$LINK: NIKKAJI J139.050C
CH$LINK: PUBCHEM SID:10396
CH$LINK: INCHIKEY ALWKGYPQUAPLQC-UHFFFAOYSA-N
CH$LINK: COMPTOX DTXSID1023360
AC$INSTRUMENT: API3000, Applied Biosystems
AC$INSTRUMENT_TYPE: LC-ESI-QQ
AC$MASS_SPECTROMETRY: MS_TYPE MS2
AC$MASS_SPECTROMETRY: ION_MODE POSITIVE
AC$MASS_SPECTROMETRY: COLLISION_ENERGY 40 V
MS$FOCUSED_ION: PRECURSOR_M/Z 224
MS$FOCUSED_ION: PRECURSOR_TYPE [M+H]+
PK$SPLASH: splash10-00di-9110000000-a2386202e9dc8c7c753f
PK$NUM_PEAK: 65
PK$PEAK: m/z int. rel.int.
  43.300 24752.5 1
  44.000 128713.0 1
  56.000 346535.0 1
  57.000 24752.5 1
  58.100 1589110.5 2
  60.200 39604.0 1
  65.100 59406.0 1
  68.800 9901.0 1
  70.300 34653.5 1
  72.000 737426480.0 999
  73.900 49505.0 1
  76.900 94059.5 1
  79.000 69307.0 1
  79.400 44554.5 1
  80.800 34653.5 1
  83.100 44554.5 1
  83.800 14851.5 1
  86.700 24752.5 1
  88.100 321782.5 1
  90.000 153465.5 1
  90.900 584159.0 1
  92.300 509901.5 1
  93.100 480198.5 1
  94.100 183168.5 1
  95.000 99010.0 1
  95.500 44554.5 1
  98.700 94059.5 1
  103.700 74257.5 1
  105.700 54455.5 1
  107.000 876238.5 1
  108.200 3242577.5 4
  109.100 638614.5 1
  110.000 39604.0 1
  111.100 54455.5 1
  117.100 59406.0 1
  118.200 554456.0 1
  119.200 891090.0 1
  120.000 2410893.5 3
  121.300 1524754.0 2
  122.200 4519806.5 6
  123.300 500000.5 1
  124.500 39604.0 1
  132.500 24752.5 1
  134.000 4826737.5 7
  135.100 14901005.0 20
  136.200 6386145.0 9
  137.200 7356443.0 10
  138.400 39604.0 1
  146.300 34653.5 1
  148.100 74257.5 1
  149.400 2148517.0 3
  150.300 23267350.0 32
  151.200 37148552.0 50
  152.300 7574265.0 10
  163.400 2108913.0 3
  164.300 5504956.0 7
  165.100 123762.5 1
  166.300 1430694.5 2
  178.300 301980.5 1
  179.000 232673.5 1
  191.400 59406.0 1
  193.200 128713.0 1
  207.400 4178222.0 6
  208.200 82371369.5 112
  223.400 5603966.0 8
//
