ACCESSION: MSBNK-Keio_Univ-KO003102
RECORD_TITLE: Harmaline; LC-ESI-QQ; MS2; CE:50 V; [M+H]+
DATE: 2016.01.19 (Created 2007.07.07, modified 2011.05.10)
AUTHORS: Kakazu Y, Horai H, Institute for Advanced Biosciences, Keio Univ.
LICENSE: CC BY-NC-SA
COMMENT: KEIO_ID H027
CH$NAME: Harmaline
CH$COMPOUND_CLASS: N/A
CH$FORMULA: C13H14N2O
CH$EXACT_MASS: 214.11061
CH$SMILES: COc(c3)cc(=N1)c(c3)=C(C2)C(=C(C)NC2)1
CH$IUPAC: InChI=1S/C13H14N2O/c1-8-13-11(5-6-14-8)10-4-3-9(16-2)7-12(10)15-13/h3-4,7,14H,5-6H2,1-2H3
CH$LINK: CAS 304-21-2
CH$LINK: KEGG C06536
CH$LINK: NIKKAJI J11.607F
CH$LINK: PUBCHEM SID:8766
CH$LINK: INCHIKEY QJOZJXNKVMFAET-UHFFFAOYSA-N
AC$INSTRUMENT: API3000, Applied Biosystems
AC$INSTRUMENT_TYPE: LC-ESI-QQ
AC$MASS_SPECTROMETRY: MS_TYPE MS2
AC$MASS_SPECTROMETRY: ION_MODE POSITIVE
AC$MASS_SPECTROMETRY: COLLISION_ENERGY 50 V
MS$FOCUSED_ION: PRECURSOR_M/Z 215
MS$FOCUSED_ION: PRECURSOR_TYPE [M+H]+
PK$SPLASH: splash10-00di-0900000000-6fe1aecf6a4cc1d6f8b2
PK$NUM_PEAK: 69
PK$PEAK: m/z int. rel.int.
  39.600 34653.5 4
  41.100 79208.0 9
  42.200 306931.0 36
  54.200 39604.0 5
  55.100 292079.5 34
  56.200 74257.5 9
  57.300 29703.0 3
  64.900 29703.0 3
  67.100 103960.5 12
  68.200 1450496.5 170
  69.200 128713.0 15
  71.200 29703.0 3
  72.800 44554.5 5
  76.800 49505.0 6
  78.700 24752.5 3
  79.100 89109.0 10
  80.800 44554.5 5
  82.900 59406.0 7
  90.800 59406.0 7
  93.200 103960.5 12
  94.200 108911.0 13
  95.000 99010.0 12
  96.900 29703.0 3
  102.000 123762.5 15
  102.800 183168.5 22
  105.000 79208.0 9
  108.000 24752.5 3
  115.400 386139.0 45
  116.200 237624.0 28
  117.100 455446.0 54
  117.900 133663.5 16
  119.800 39604.0 5
  127.100 74257.5 9
  127.900 158416.0 19
  129.000 589109.5 69
  130.000 2277230.0 268
  131.000 5574263.0 655
  132.000 128713.0 15
  141.200 163366.5 19
  142.400 475248.0 56
  143.100 1698021.5 200
  144.200 1000001.0 118
  145.200 594060.0 70
  146.400 108911.0 13
  146.900 49505.0 6
  154.200 1019803.0 120
  155.100 856436.5 101
  156.300 569307.5 67
  157.100 2915844.5 343
  158.300 732674.0 86
  159.100 1856437.5 218
  160.400 44554.5 5
  166.300 79208.0 9
  167.300 237624.0 28
  169.200 99010.0 12
  170.300 420792.5 49
  171.400 8500008.5 999
  172.300 6519808.5 766
  173.400 173267.5 20
  174.200 1212872.5 143
  182.000 158416.0 19
  183.300 212871.5 25
  184.200 158416.0 19
  185.300 900991.0 106
  198.000 89109.0 10
  199.400 1282179.5 151
  200.400 935644.5 110
  213.100 74257.5 9
  215.200 49505.0 6
//
