ACCESSION: MSBNK-Keio_Univ-KO002317
RECORD_TITLE: 5-Amino-4-imidazolecarboxamide; LC-ESI-QQ; MS2; CE:50 V; [M+H]+
DATE: 2016.01.19 (Created 2010.01.13, modified 2011.05.10)
AUTHORS: Kakazu Y, Horai H, Institute for Advanced Biosciences, Keio Univ.
LICENSE: CC BY-NC-SA
COMMENT: KEIO_ID A136
CH$NAME: 5-Amino-4-imidazolecarboxamide
CH$NAME: 5-Amino-4-imidazolecarboxyamide
CH$COMPOUND_CLASS: N/A
CH$FORMULA: C4H6N4O
CH$EXACT_MASS: 126.05416
CH$SMILES: C1=NC(=C(N1)C(=O)N)N
CH$IUPAC: InChI=1S/C4H6N4O/c5-3-2(4(6)9)7-1-8-3/h1H,5H2,(H2,6,9)(H,7,8)
CH$LINK: KEGG C04051
CH$LINK: PUBCHEM CID:9679
CH$LINK: INCHIKEY DVNYTAVYBRSTGK-UHFFFAOYSA-N
CH$LINK: COMPTOX DTXSID8059891
AC$INSTRUMENT: API3000, Applied Biosystems
AC$INSTRUMENT_TYPE: LC-ESI-QQ
AC$MASS_SPECTROMETRY: MS_TYPE MS2
AC$MASS_SPECTROMETRY: ION_MODE POSITIVE
AC$MASS_SPECTROMETRY: COLLISION_ENERGY 50 V
MS$FOCUSED_ION: PRECURSOR_M/Z 127
MS$FOCUSED_ION: PRECURSOR_TYPE [M+H]+
PK$SPLASH: splash10-0a4i-9000000000-2475e395f0201d1ae8dc
PK$NUM_PEAK: 6
PK$PEAK: m/z int. rel.int.
  43.000 113861.5 86
  55.100 1326734.0 999
  64.700 24752.5 19
  67.900 39604.0 30
  82.300 128713.0 97
  110.400 74257.5 56
//
