ACCESSION: MSBNK-Keio_Univ-KO004046
RECORD_TITLE: D-Sorbitol 6-phosphate; LC-ESI-QQ; MS2; CE:50 V; [M+H]+
DATE: 2016.01.19 (Created 2007.07.07, modified 2011.05.10)
AUTHORS: Kakazu Y, Horai H, Institute for Advanced Biosciences, Keio Univ.
LICENSE: CC BY-NC-SA
COMMENT: KEIO_ID S049
CH$NAME: Sorbitol 6-phosphate
CH$NAME: D-Sorbitol 6-phosphate
CH$COMPOUND_CLASS: N/A
CH$FORMULA: C6H15O9P
CH$EXACT_MASS: 262.04537
CH$SMILES: OC[C@H](O)[C@@H](O)[C@H](O)[C@H](O)COP(O)(O)=O
CH$IUPAC: InChI=1S/C6H15O9P/c7-1-3(8)5(10)6(11)4(9)2-15-16(12,13)14/h3-11H,1-2H2,(H2,12,13,14)/t3-,4+,5+,6+/m0/s1
CH$LINK: CAS 20479-58-7
CH$LINK: CHEBI CHEBI:17044
CH$LINK: KEGG C01096
CH$LINK: PUBCHEM CID:152306
CH$LINK: INCHIKEY GACTWZZMVMUKNG-SLPGGIOYSA-N
AC$INSTRUMENT: API3000, Applied Biosystems
AC$INSTRUMENT_TYPE: LC-ESI-QQ
AC$MASS_SPECTROMETRY: MS_TYPE MS2
AC$MASS_SPECTROMETRY: ION_MODE POSITIVE
AC$MASS_SPECTROMETRY: COLLISION_ENERGY 50 V
MS$FOCUSED_ION: PRECURSOR_M/Z 263
MS$FOCUSED_ION: PRECURSOR_TYPE [M+H]+
PK$SPLASH: splash10-015a-9000000000-a2657279865dce2fb3e6
PK$NUM_PEAK: 3
PK$PEAK: m/z int. rel.int.
  68.700 39604.0 999
  84.400 29703.0 749
  95.600 24752.5 624
//
