ACCESSION: MSBNK-Keio_Univ-KO002286
RECORD_TITLE: 9-Amino-1,2,3,4-tetrahydroacridine; LC-ESI-QQ; MS2; CE:40 V; [M+H]+
DATE: 2016.01.19 (Created 2007.07.07, modified 2011.05.10)
AUTHORS: Kakazu Y, Horai H, Institute for Advanced Biosciences, Keio Univ.
LICENSE: CC BY-NC-SA
COMMENT: KEIO_ID A123
CH$NAME: 9-Amino-1,2,3,4-tetrahydroacridine
CH$NAME: Tacrine
CH$COMPOUND_CLASS: N/A
CH$FORMULA: C13H14N2
CH$EXACT_MASS: 198.11570
CH$SMILES: Nc(c21)c(c3)c(ccc3)nc(CCCC2)1
CH$IUPAC: InChI=1S/C13H14N2/c14-13-9-5-1-3-7-11(9)15-12-8-4-2-6-10(12)13/h1,3,5,7H,2,4,6,8H2,(H2,14,15)
CH$LINK: CAS 321-64-2
CH$LINK: KEGG C01453
CH$LINK: NIKKAJI J5.670G
CH$LINK: PUBCHEM CID:1935
CH$LINK: INCHIKEY YLJREFDVOIBQDA-UHFFFAOYSA-N
CH$LINK: COMPTOX DTXSID1037272
AC$INSTRUMENT: API3000, Applied Biosystems
AC$INSTRUMENT_TYPE: LC-ESI-QQ
AC$MASS_SPECTROMETRY: MS_TYPE MS2
AC$MASS_SPECTROMETRY: ION_MODE POSITIVE
AC$MASS_SPECTROMETRY: COLLISION_ENERGY 40 V
MS$FOCUSED_ION: PRECURSOR_M/Z 199
MS$FOCUSED_ION: PRECURSOR_TYPE [M+H]+
PK$SPLASH: splash10-006t-0900000000-3c9902ca237f9c26a2fb
PK$NUM_PEAK: 70
PK$PEAK: m/z int. rel.int.
  39.000 103960.5 1
  40.900 44554.5 1
  55.400 59406.0 1
  67.000 64356.5 1
  69.000 64356.5 1
  76.900 138614.0 1
  78.600 29703.0 1
  79.100 153465.5 1
  80.200 143564.5 1
  81.300 113861.5 1
  82.000 128713.0 1
  82.500 49505.0 1
  88.700 24752.5 1
  91.200 138614.0 1
  93.200 138614.0 1
  96.300 64356.5 1
  96.900 19802.0 1
  102.900 242574.5 1
  103.300 217822.0 1
  104.200 103960.5 1
  106.400 202970.5 1
  115.100 311881.5 1
  116.200 1267328.0 6
  117.200 1539605.5 7
  118.100 1009902.0 5
  119.300 59406.0 1
  123.200 74257.5 1
  127.100 549505.5 3
  128.000 925743.5 4
  129.100 544555.0 2
  130.000 3509904.5 16
  131.100 737624.5 3
  133.100 39604.0 1
  140.200 1198021.0 5
  141.100 123762.5 1
  142.000 1267328.0 6
  143.300 1856437.5 8
  144.200 37287166.0 170
  145.200 361386.5 2
  145.500 148515.0 1
  152.700 24752.5 1
  153.900 896040.5 4
  155.300 425743.0 2
  156.300 1504952.0 7
  157.200 10658426.5 49
  158.000 14925757.5 68
  159.100 153465.5 1
  160.800 89109.0 1
  164.800 34653.5 1
  165.300 227723.0 1
  166.100 128713.0 1
  167.300 3638617.5 17
  168.300 955446.5 4
  169.300 1178219.0 5
  170.300 3242577.5 15
  171.200 130752606.0 597
  172.200 1465348.0 7
  173.400 39604.0 1
  175.300 94059.5 1
  179.000 29703.0 1
  180.200 1945546.5 9
  181.100 1371288.5 6
  182.300 10594070.0 48
  183.100 16514868.0 75
  184.300 1569308.5 7
  195.300 3425746.0 16
  196.600 396040.0 2
  197.200 26722799.0 122
  198.400 2277230.0 10
  199.400 218896258.5 999
//
