ACCESSION: MSBNK-Keio_Univ-KO003835
RECORD_TITLE: 4-Pyridoxic acid; LC-ESI-QQ; MS2; CE:30 V; [M+H]+
DATE: 2016.01.19 (Created 2007.07.07, modified 2011.05.10)
AUTHORS: Kakazu Y, Horai H, Institute for Advanced Biosciences, Keio Univ.
LICENSE: CC BY-NC-SA
COMMENT: KEIO_ID P079
CH$NAME: 4-Pyridoxate
CH$NAME: 4-Pyridoxic acid
CH$COMPOUND_CLASS: N/A
CH$FORMULA: C8H9NO4
CH$EXACT_MASS: 183.05316
CH$SMILES: OCc(c1)c(C(O)=O)c(O)c(C)n1
CH$IUPAC: InChI=1S/C8H9NO4/c1-4-7(11)6(8(12)13)5(3-10)2-9-4/h2,10-11H,3H2,1H3,(H,12,13)
CH$LINK: CAS 82-82-6
CH$LINK: CHEBI CHEBI:17405
CH$LINK: KEGG C00847
CH$LINK: NIKKAJI J41.097G
CH$LINK: PUBCHEM SID:4104
CH$LINK: INCHIKEY HXACOUQIXZGNBF-UHFFFAOYSA-N
CH$LINK: COMPTOX DTXSID20861650
AC$INSTRUMENT: API3000, Applied Biosystems
AC$INSTRUMENT_TYPE: LC-ESI-QQ
AC$MASS_SPECTROMETRY: MS_TYPE MS2
AC$MASS_SPECTROMETRY: ION_MODE POSITIVE
AC$MASS_SPECTROMETRY: COLLISION_ENERGY 30 V
MS$FOCUSED_ION: PRECURSOR_M/Z 184
MS$FOCUSED_ION: PRECURSOR_TYPE [M+H]+
PK$SPLASH: splash10-0002-0900000000-2a37bda24c0b0f98132b
PK$NUM_PEAK: 62
PK$PEAK: m/z int. rel.int.
  44.900 153465.5 2
  55.000 54455.5 1
  59.100 59406.0 1
  62.400 39604.0 1
  65.200 886139.5 9
  67.200 257426.0 3
  68.300 49505.0 1
  69.100 183168.5 2
  70.000 24752.5 1
  72.700 44554.5 1
  73.100 222772.5 2
  74.700 44554.5 1
  76.900 227723.0 2
  78.900 242574.5 3
  79.300 153465.5 2
  80.200 193069.5 2
  81.200 173267.5 2
  82.100 529703.5 6
  83.100 148515.0 2
  83.900 341584.5 4
  85.000 99010.0 1
  89.100 79208.0 1
  91.100 54455.5 1
  91.900 3084161.5 32
  93.100 366337.0 4
  94.100 168317.0 2
  95.000 143564.5 1
  96.400 366337.0 4
  97.000 222772.5 2
  98.900 29703.0 1
  102.100 1415843.0 15
  104.000 534654.0 6
  105.200 1232674.5 13
  105.800 103960.5 1
  107.000 282178.5 3
  107.400 79208.0 1
  109.300 831684.0 9
  110.100 2232675.5 23
  111.500 138614.0 1
  112.800 94059.5 1
  119.500 49505.0 1
  120.100 2841587.0 30
  121.200 534654.0 6
  122.200 767327.5 8
  122.900 69307.0 1
  123.500 34653.5 1
  125.200 34653.5 1
  130.200 336634.0 4
  133.000 44554.5 1
  135.900 425743.0 4
  137.400 84158.5 1
  138.100 6668323.5 69
  139.300 44554.5 1
  146.100 84158.5 1
  148.200 95965442.5 999
  148.900 138614.0 1
  151.100 178218.0 2
  153.800 14851.5 1
  164.300 49505.0 1
  166.100 13287142.0 138
  167.300 564357.0 6
  184.000 128713.0 1
//
