ACCESSION: MSBNK-Keio_Univ-KO003725
RECORD_TITLE: Pyridine; LC-ESI-QQ; MS2; CE:30 V; [M+H]+
DATE: 2016.01.19 (Created 2007.07.07, modified 2011.05.10)
AUTHORS: Kakazu Y, Horai H, Institute for Advanced Biosciences, Keio Univ.
LICENSE: CC BY-NC-SA
COMMENT: KEIO_ID P041
CH$NAME: Pyridine
CH$NAME: Azabenzene
CH$COMPOUND_CLASS: N/A
CH$FORMULA: C5H5N
CH$EXACT_MASS: 79.04220
CH$SMILES: c(c1)ccnc1
CH$IUPAC: InChI=1S/C5H5N/c1-2-4-6-5-3-1/h1-5H
CH$LINK: CAS 110-86-1
CH$LINK: CHEBI CHEBI:16227
CH$LINK: KEGG C00747
CH$LINK: NIKKAJI J2.883E
CH$LINK: PUBCHEM CID:1049
CH$LINK: INCHIKEY JUJWROOIHBZHMG-UHFFFAOYSA-N
CH$LINK: COMPTOX DTXSID9021924
AC$INSTRUMENT: API3000, Applied Biosystems
AC$INSTRUMENT_TYPE: LC-ESI-QQ
AC$MASS_SPECTROMETRY: MS_TYPE MS2
AC$MASS_SPECTROMETRY: ION_MODE POSITIVE
AC$MASS_SPECTROMETRY: COLLISION_ENERGY 30 V
MS$FOCUSED_ION: PRECURSOR_M/Z 80
MS$FOCUSED_ION: PRECURSOR_TYPE [M+H]+
PK$SPLASH: splash10-001i-9000000000-c85235c3074032fc5647
PK$NUM_PEAK: 5
PK$PEAK: m/z int. rel.int.
  38.800 44554.5 18
  50.500 19802.0 8
  53.100 356436.0 146
  78.300 79208.0 32
  80.200 2435646.0 999
//
