ACCESSION: MSBNK-Keio_Univ-KO002319
RECORD_TITLE: Allocryptopine; LC-ESI-QQ; MS2; CE:20 V; [M+H]+
DATE: 2016.01.19 (Created 2007.07.07, modified 2011.05.10)
AUTHORS: Kakazu Y, Horai H, Institute for Advanced Biosciences, Keio Univ.
LICENSE: CC BY-NC-SA
COMMENT: KEIO_ID A137
CH$NAME: Allocryptopine
CH$COMPOUND_CLASS: N/A
CH$FORMULA: C21H23NO5
CH$EXACT_MASS: 369.15762
CH$SMILES: COc(c4)c(OC)c(C3)c(c4)CC(=O)c(c1)c(CCN(C)3)cc(O2)c(OC2)1
CH$IUPAC: InChI=1S/C21H23NO5/c1-22-7-6-14-9-19-20(27-12-26-19)10-15(14)17(23)8-13-4-5-18(24-2)21(25-3)16(13)11-22/h4-5,9-10H,6-8,11-12H2,1-3H3
CH$LINK: CAS 24240-04-8 485-91-6
CH$LINK: CHEBI CHEBI:17390
CH$LINK: KEGG C02134
CH$LINK: PUBCHEM CID:98570
CH$LINK: INCHIKEY HYBRYAPKQCZIAE-UHFFFAOYSA-N
AC$INSTRUMENT: API3000, Applied Biosystems
AC$INSTRUMENT_TYPE: LC-ESI-QQ
AC$MASS_SPECTROMETRY: MS_TYPE MS2
AC$MASS_SPECTROMETRY: ION_MODE POSITIVE
AC$MASS_SPECTROMETRY: COLLISION_ENERGY 20 V
MS$FOCUSED_ION: PRECURSOR_M/Z 370
MS$FOCUSED_ION: PRECURSOR_TYPE [M+H]+
PK$SPLASH: splash10-00di-0009000000-e67e760ed9e2e1916e91
PK$NUM_PEAK: 72
PK$PEAK: m/z int. rel.int.
  62.700 9901.0 1
  68.100 59406.0 1
  76.100 54455.5 1
  82.200 212871.5 1
  86.100 54455.5 1
  89.900 69307.0 1
  100.100 1153466.5 4
  105.300 94059.5 1
  118.100 39604.0 1
  120.600 34653.5 1
  122.300 272277.5 1
  128.700 29703.0 1
  133.100 301980.5 1
  135.200 79208.0 1
  136.000 54455.5 1
  148.900 311881.5 1
  151.400 44554.5 1
  153.000 49505.0 1
  154.000 49505.0 1
  161.100 49505.0 1
  162.500 14851.5 1
  165.400 188119.0 1
  168.100 44554.5 1
  178.000 158416.0 1
  178.600 29703.0 1
  181.100 475248.0 2
  186.800 24752.5 1
  188.300 2871290.0 11
  189.400 509901.5 2
  190.200 371287.5 1
  191.200 148515.0 1
  192.100 153465.5 1
  197.300 24752.5 1
  204.100 153465.5 1
  206.200 1153466.5 4
  209.100 24752.5 1
  217.700 44554.5 1
  222.400 94059.5 1
  236.900 34653.5 1
  241.000 39604.0 1
  252.600 64356.5 1
  253.400 34653.5 1
  259.100 64356.5 1
  260.200 480198.5 2
  263.800 34653.5 1
  265.500 14851.5 1
  269.400 89109.0 1
  277.200 29703.0 1
  278.900 14851.5 1
  280.700 29703.0 1
  281.700 19802.0 1
  290.200 440594.5 2
  291.300 44554.5 1
  291.700 44554.5 1
  299.500 94059.5 1
  306.300 113861.5 1
  309.200 118812.0 1
  311.400 89109.0 1
  317.600 24752.5 1
  321.600 663367.0 3
  322.700 103960.5 1
  323.500 79208.0 1
  324.600 29703.0 1
  327.300 74257.5 1
  334.000 34653.5 1
  336.400 54455.5 1
  337.500 103960.5 1
  339.400 415842.0 2
  340.100 79208.0 1
  350.100 39604.0 1
  352.700 3762380.0 15
  370.400 258970556.0 999
//
