ACCESSION: MSBNK-Keio_Univ-KO001340
RECORD_TITLE: Methylmalonic acid; LC-ESI-QQ; MS2; CE:30 V; [M-H]-
DATE: 2016.01.19 (Created 2007.07.07, modified 2011.05.10)
AUTHORS: Kakazu Y, Horai H, Institute for Advanced Biosciences, Keio Univ.
LICENSE: CC BY-NC-SA
COMMENT: KEIO_ID M014
CH$NAME: Methylmalonate
CH$NAME: Methylmalonic acid
CH$COMPOUND_CLASS: N/A
CH$FORMULA: C4H6O4
CH$EXACT_MASS: 118.02661
CH$SMILES: OC(=O)C(C)C(O)=O
CH$IUPAC: InChI=1S/C4H6O4/c1-2(3(5)6)4(7)8/h2H,1H3,(H,5,6)(H,7,8)
CH$LINK: CAS 516-05-2
CH$LINK: CHEBI CHEBI:30860
CH$LINK: CHEMPDB DXX
CH$LINK: KEGG C02170
CH$LINK: NIKKAJI J6.302I
CH$LINK: PUBCHEM SID:5245
CH$LINK: INCHIKEY ZIYVHBGGAOATLY-UHFFFAOYSA-N
CH$LINK: COMPTOX DTXSID00199549
AC$INSTRUMENT: API3000, Applied Biosystems
AC$INSTRUMENT_TYPE: LC-ESI-QQ
AC$MASS_SPECTROMETRY: MS_TYPE MS2
AC$MASS_SPECTROMETRY: ION_MODE NEGATIVE
AC$MASS_SPECTROMETRY: COLLISION_ENERGY 30 V
MS$FOCUSED_ION: PRECURSOR_M/Z 117
MS$FOCUSED_ION: PRECURSOR_TYPE [M-H]-
PK$SPLASH: splash10-0ab9-9000000000-26a654fb133b28a816a0
PK$NUM_PEAK: 3
PK$PEAK: m/z int. rel.int.
  55.200 1277229.0 999
  59.200 59406.0 46
  73.100 1138615.0 891
//
