ACCESSION: MSBNK-Keio_Univ-KO003226
RECORD_TITLE: Imidazole; LC-ESI-QQ; MS2; CE:50 V; [M+H]+
DATE: 2016.01.19 (Created 2007.07.07, modified 2011.05.10)
AUTHORS: Kakazu Y, Horai H, Institute for Advanced Biosciences, Keio Univ.
LICENSE: CC BY-NC-SA
COMMENT: KEIO_ID I046
CH$NAME: Imidazole
CH$NAME: Glyoxaline
CH$NAME: 1,3-Diazole
CH$COMPOUND_CLASS: N/A
CH$FORMULA: C3H4N2
CH$EXACT_MASS: 68.03745
CH$SMILES: C1=CN=CN1
CH$IUPAC: InChI=1S/C3H4N2/c1-2-5-3-4-1/h1-3H,(H,4,5)
CH$LINK: CAS 288-32-4
CH$LINK: CHEBI CHEBI:16069
CH$LINK: CHEMPDB IMD
CH$LINK: KEGG C01589
CH$LINK: NIKKAJI J2.566F
CH$LINK: PUBCHEM SID:4744
CH$LINK: INCHIKEY RAXXELZNTBOGNW-UHFFFAOYSA-N
CH$LINK: COMPTOX DTXSID2029616
AC$INSTRUMENT: API3000, Applied Biosystems
AC$INSTRUMENT_TYPE: LC-ESI-QQ
AC$MASS_SPECTROMETRY: MS_TYPE MS2
AC$MASS_SPECTROMETRY: ION_MODE POSITIVE
AC$MASS_SPECTROMETRY: COLLISION_ENERGY 50 V
MS$FOCUSED_ION: PRECURSOR_M/Z 69
MS$FOCUSED_ION: PRECURSOR_TYPE [M+H]+
PK$SPLASH: splash10-014l-9000000000-36c1868da6ae549e0d51
PK$NUM_PEAK: 5
PK$PEAK: m/z int. rel.int.
  40.100 34653.5 155
  42.200 99010.0 444
  67.200 44554.5 200
  68.800 222772.5 999
  71.100 14851.5 67
//
