ACCESSION: MSBNK-Keio_Univ-KO004008
RECORD_TITLE: Semicarbazide; LC-ESI-QQ; MS2; CE:20 V; [M+H]+
DATE: 2016.01.19 (Created 2007.07.07, modified 2011.05.10)
AUTHORS: Kakazu Y, Horai H, Institute for Advanced Biosciences, Keio Univ.
LICENSE: CC BY-NC-SA
COMMENT: KEIO_ID S034
CH$NAME: Semicarbazide
CH$NAME: Carbamoylhydrazine
CH$NAME: Aminourea
CH$NAME: Hydrazinecarboxamide
CH$COMPOUND_CLASS: N/A
CH$FORMULA: CH5N3O
CH$EXACT_MASS: 75.04326
CH$SMILES: NC(=O)NN
CH$IUPAC: InChI=1S/CH5N3O/c2-1(5)4-3/h3H2,(H3,2,4,5)
CH$LINK: CAS 57-56-7
CH$LINK: KEGG C02077
CH$LINK: NIKKAJI J4.582I
CH$LINK: PUBCHEM SID:5163
CH$LINK: INCHIKEY DUIOPKIIICUYRZ-UHFFFAOYSA-N
CH$LINK: COMPTOX DTXSID7043823
AC$INSTRUMENT: API3000, Applied Biosystems
AC$INSTRUMENT_TYPE: LC-ESI-QQ
AC$MASS_SPECTROMETRY: MS_TYPE MS2
AC$MASS_SPECTROMETRY: ION_MODE POSITIVE
AC$MASS_SPECTROMETRY: COLLISION_ENERGY 20 V
MS$FOCUSED_ION: PRECURSOR_M/Z 76
MS$FOCUSED_ION: PRECURSOR_TYPE [M+H]+
PK$SPLASH: splash10-0pdi-9000000000-855d12b5e6cd42908909
PK$NUM_PEAK: 9
PK$PEAK: m/z int. rel.int.
  29.900 143564.5 852
  31.600 24752.5 147
  37.800 19802.0 118
  50.000 113861.5 676
  54.800 39604.0 235
  59.000 168317.0 999
  76.200 44554.5 264
  95.900 24752.5 147
  255.000 39604.0 235
//
