ACCESSION: MSBNK-Keio_Univ-KO001973
RECORD_TITLE: Uracil; LC-ESI-QQ; MS2; CE:10 V; [M-H]-
DATE: 2016.01.19 (Created 2007.07.07, modified 2011.05.10)
AUTHORS: Kakazu Y, Horai H, Institute for Advanced Biosciences, Keio Univ.
LICENSE: CC BY-NC-SA
COMMENT: KEIO_ID U004
CH$NAME: Uracil
CH$COMPOUND_CLASS: N/A
CH$FORMULA: C4H4N2O2
CH$EXACT_MASS: 112.02728
CH$SMILES: O=C(C=1)NC(=O)NC1
CH$IUPAC: InChI=1S/C4H4N2O2/c7-3-1-2-5-4(8)6-3/h1-2H,(H2,5,6,7,8)
CH$LINK: CAS 66-22-8
CH$LINK: CHEBI CHEBI:17568
CH$LINK: CHEMPDB URA
CH$LINK: KEGG C00106
CH$LINK: NIKKAJI J4.842I
CH$LINK: PUBCHEM CID:1174
CH$LINK: INCHIKEY ISAKRJDGNUQOIC-UHFFFAOYSA-N
CH$LINK: COMPTOX DTXSID4021424
AC$INSTRUMENT: API3000, Applied Biosystems
AC$INSTRUMENT_TYPE: LC-ESI-QQ
AC$MASS_SPECTROMETRY: MS_TYPE MS2
AC$MASS_SPECTROMETRY: ION_MODE NEGATIVE
AC$MASS_SPECTROMETRY: COLLISION_ENERGY 10 V
MS$FOCUSED_ION: PRECURSOR_M/Z 111
MS$FOCUSED_ION: PRECURSOR_TYPE [M-H]-
PK$SPLASH: splash10-03di-0900000000-309fe212c929f3c6a930
PK$NUM_PEAK: 3
PK$PEAK: m/z int. rel.int.
  42.000 59406.0 4
  67.000 178218.0 13
  111.200 13886152.5 999
//
