ACCESSION: MSBNK-Keio_Univ-KO003621
RECORD_TITLE: Neostigmine; LC-ESI-QQ; MS2; CE:50 V; [M+H]+
DATE: 2016.01.19 (Created 2007.07.07, modified 2011.05.10)
AUTHORS: Kakazu Y, Horai H, Institute for Advanced Biosciences, Keio Univ.
LICENSE: CC BY-NC-SA
COMMENT: KEIO_ID N063
CH$NAME: Neostigmine
CH$NAME: Neostigmine bromide
CH$NAME: Neo proserine
CH$COMPOUND_CLASS: N/A
CH$FORMULA: [C12H19N2O2]+
CH$EXACT_MASS: 223.14465
CH$SMILES: CN(C)C(=O)Oc(c1)cc(cc1)[N+1](C)(C)C
CH$IUPAC: InChI=1S/C12H19N2O2/c1-13(2)12(15)16-11-8-6-7-10(9-11)14(3,4)5/h6-9H,1-5H3/q+1
CH$LINK: CAS 114-80-7
CH$LINK: KEGG C08197
CH$LINK: NIKKAJI J139.050C
CH$LINK: PUBCHEM SID:10396
CH$LINK: INCHIKEY ALWKGYPQUAPLQC-UHFFFAOYSA-N
CH$LINK: COMPTOX DTXSID1023360
AC$INSTRUMENT: API3000, Applied Biosystems
AC$INSTRUMENT_TYPE: LC-ESI-QQ
AC$MASS_SPECTROMETRY: MS_TYPE MS2
AC$MASS_SPECTROMETRY: ION_MODE POSITIVE
AC$MASS_SPECTROMETRY: COLLISION_ENERGY 50 V
MS$FOCUSED_ION: PRECURSOR_M/Z 224
MS$FOCUSED_ION: PRECURSOR_TYPE [M+H]+
PK$SPLASH: splash10-00di-9100000000-b80120a3f55bb762fe51
PK$NUM_PEAK: 60
PK$PEAK: m/z int. rel.int.
  42.200 74257.5 1
  44.100 574258.0 1
  56.200 1544556.0 3
  57.100 14851.5 1
  58.200 1500001.5 3
  59.000 64356.5 1
  60.000 19802.0 1
  65.200 410891.5 1
  66.800 84158.5 1
  67.700 39604.0 1
  68.100 84158.5 1
  69.700 24752.5 1
  70.400 34653.5 1
  72.100 561847096.5 999
  76.100 24752.5 1
  77.300 202970.5 1
  77.900 331683.5 1
  79.200 361386.5 1
  79.800 79208.0 1
  81.000 113861.5 1
  88.100 94059.5 1
  90.100 99010.0 1
  91.000 658416.5 1
  92.000 638614.5 1
  93.100 460396.5 1
  94.200 237624.0 1
  95.300 138614.0 1
  98.800 34653.5 1
  101.100 19802.0 1
  103.200 34653.5 1
  106.300 450495.5 1
  107.000 1846536.5 3
  108.200 5123767.5 9
  109.100 475248.0 1
  110.400 49505.0 1
  116.900 108911.0 1
  118.000 524753.0 1
  119.100 366337.0 1
  120.100 2574260.0 5
  121.300 1009902.0 2
  122.200 3965350.5 7
  123.000 133663.5 1
  128.100 24752.5 1
  134.100 1643566.0 3
  135.200 3480201.5 6
  136.200 4856440.5 9
  137.100 5381193.5 10
  147.400 24752.5 1
  148.400 74257.5 1
  149.100 217822.0 1
  150.300 24410915.5 43
  151.400 5495055.0 10
  152.100 1069308.0 2
  161.400 29703.0 1
  163.200 366337.0 1
  164.300 514852.0 1
  178.200 49505.0 1
  207.500 287129.0 1
  208.200 702971.0 1
  223.400 34653.5 1
//
