ACCESSION: MSBNK-Keio_Univ-KO001646
RECORD_TITLE: (R)-(-)-Phenylephrine; LC-ESI-QQ; MS2; CE:10 V; [M-H]-
DATE: 2016.01.19 (Created 2007.07.07, modified 2011.05.10)
AUTHORS: Kakazu Y, Horai H, Institute for Advanced Biosciences, Keio Univ.
LICENSE: CC BY-NC-SA
COMMENT: KEIO_ID P059
CH$NAME: Phenylephrine
CH$NAME: (R)-(-)-Phenylephrine
CH$COMPOUND_CLASS: N/A
CH$FORMULA: C9H13NO2
CH$EXACT_MASS: 167.09463
CH$SMILES: CNC[C@H](O)c(c1)cc(O)cc1
CH$IUPAC: InChI=1S/C9H13NO2/c1-10-6-9(12)7-3-2-4-8(11)5-7/h2-5,9-12H,6H2,1H3/t9-/m0/s1
CH$LINK: CAS 59-42-7
CH$LINK: KEGG C07441
CH$LINK: NIKKAJI J8.601K
CH$LINK: PUBCHEM SID:9645
CH$LINK: INCHIKEY SONNWYBIRXJNDC-VIFPVBQESA-N
CH$LINK: COMPTOX DTXSID9023465
AC$INSTRUMENT: API3000, Applied Biosystems
AC$INSTRUMENT_TYPE: LC-ESI-QQ
AC$MASS_SPECTROMETRY: MS_TYPE MS2
AC$MASS_SPECTROMETRY: ION_MODE NEGATIVE
AC$MASS_SPECTROMETRY: COLLISION_ENERGY 10 V
MS$FOCUSED_ION: PRECURSOR_M/Z 166
MS$FOCUSED_ION: PRECURSOR_TYPE [M-H]-
PK$SPLASH: splash10-014i-0900000000-edfcbc18ccdb6872b791
PK$NUM_PEAK: 11
PK$PEAK: m/z int. rel.int.
  89.700 34653.5 1
  96.500 14851.5 1
  121.000 267327.0 3
  122.100 920793.0 10
  122.900 841585.0 9
  128.100 34653.5 1
  130.200 306931.0 3
  133.100 39604.0 1
  147.700 39604.0 1
  151.300 29703.0 1
  166.100 90519892.5 999
//
