ACCESSION: MSBNK-Keio_Univ-KO002115
RECORD_TITLE: 2-Aminobenzimidazole; LC-ESI-QQ; MS2; CE:30 V; [M+H]+
DATE: 2016.01.19 (Created 2007.07.07, modified 2011.05.10)
AUTHORS: Kakazu Y, Horai H, Institute for Advanced Biosciences, Keio Univ.
LICENSE: CC BY-NC-SA
COMMENT: KEIO_ID A042
CH$NAME: 2-Aminobenzimidazole
CH$COMPOUND_CLASS: N/A
CH$FORMULA: C7H7N3
CH$EXACT_MASS: 133.06400
CH$SMILES: C1=CC=C2C(=C1)NC(=N2)N
CH$IUPAC: InChI=1S/C7H7N3/c8-7-9-5-3-1-2-4-6(5)10-7/h1-4H,(H3,8,9,10)
CH$LINK: CAS 934-32-7
CH$LINK: KEGG C10901
CH$LINK: NIKKAJI J3.655B
CH$LINK: PUBCHEM CID:13624
CH$LINK: INCHIKEY JWYUFVNJZUSCSM-UHFFFAOYSA-N
CH$LINK: COMPTOX DTXSID1024465
AC$INSTRUMENT: API3000, Applied Biosystems
AC$INSTRUMENT_TYPE: LC-ESI-QQ
AC$MASS_SPECTROMETRY: MS_TYPE MS2
AC$MASS_SPECTROMETRY: ION_MODE POSITIVE
AC$MASS_SPECTROMETRY: COLLISION_ENERGY 30 V
MS$FOCUSED_ION: PRECURSOR_M/Z 134
MS$FOCUSED_ION: PRECURSOR_TYPE [M+H]+
PK$SPLASH: splash10-001l-7900000000-11d5e4cefb3b9d3f9ef1
PK$NUM_PEAK: 51
PK$PEAK: m/z int. rel.int.
  40.600 64356.5 1
  43.100 272277.5 2
  44.300 237624.0 2
  54.700 24752.5 1
  56.200 990100.0 6
  57.000 2292081.5 14
  58.100 1386140.0 9
  59.100 118812.0 1
  60.200 84158.5 1
  61.200 79208.0 1
  65.100 14633678.0 92
  66.200 128713.0 1
  67.300 54455.5 1
  70.100 1500001.5 9
  70.800 292079.5 2
  72.200 153465.5 1
  73.300 64356.5 1
  73.900 247525.0 2
  75.700 232673.5 1
  78.300 29703.0 1
  79.000 480198.5 3
  80.200 6732680.0 43
  81.200 24752.5 1
  83.000 34653.5 1
  84.400 183168.5 1
  85.000 524753.0 3
  86.700 59406.0 1
  88.100 792080.0 5
  89.300 54455.5 1
  89.800 792080.0 5
  91.900 119331802.5 754
  93.100 18891108.0 119
  98.100 29703.0 1
  99.300 74257.5 1
  102.600 74257.5 1
  103.800 34653.5 1
  105.000 202970.5 1
  105.900 193069.5 1
  106.900 22415864.0 142
  108.000 282178.5 2
  110.200 153465.5 1
  116.200 742575.0 5
  117.300 5707926.5 36
  118.100 311881.5 2
  120.000 34653.5 1
  121.200 39604.0 1
  131.200 44554.5 1
  133.000 3678221.5 23
  134.100 158074415.5 999
  135.300 326733.0 2
  149.400 39604.0 1
//
