ACCESSION: MSBNK-Keio_Univ-KO001923
RECORD_TITLE: Tartronic acid; LC-ESI-QQ; MS2; CE:10 V; [M-H]-
DATE: 2016.01.19 (Created 2007.07.07, modified 2011.05.10)
AUTHORS: Kakazu Y, Horai H, Institute for Advanced Biosciences, Keio Univ.
LICENSE: CC BY-NC-SA
COMMENT: KEIO_ID T050
CH$NAME: Tartronate
CH$NAME: Hydroxymalonic acid
CH$NAME: Tartronic acid
CH$NAME: Hydroxymalonate
CH$COMPOUND_CLASS: N/A
CH$FORMULA: C3H4O5
CH$EXACT_MASS: 120.00587
CH$SMILES: OC(C(O)=O)C(O)=O
CH$IUPAC: InChI=1S/C3H4O5/c4-1(2(5)6)3(7)8/h1,4H,(H,5,6)(H,7,8)
CH$LINK: CAS 80-69-3
CH$LINK: CHEBI CHEBI:16513
CH$LINK: KEGG C02287
CH$LINK: NIKKAJI J4.253F
CH$LINK: PUBCHEM SID:5343
CH$LINK: INCHIKEY ROBFUDYVXSDBQM-UHFFFAOYSA-N
CH$LINK: COMPTOX DTXSID6075358
AC$INSTRUMENT: API3000, Applied Biosystems
AC$INSTRUMENT_TYPE: LC-ESI-QQ
AC$MASS_SPECTROMETRY: MS_TYPE MS2
AC$MASS_SPECTROMETRY: ION_MODE NEGATIVE
AC$MASS_SPECTROMETRY: COLLISION_ENERGY 10 V
MS$FOCUSED_ION: PRECURSOR_M/Z 119
MS$FOCUSED_ION: PRECURSOR_TYPE [M-H]-
PK$SPLASH: splash10-066r-8900000000-16ebb5f175ac6ca39ab2
PK$NUM_PEAK: 11
PK$PEAK: m/z int. rel.int.
  36.900 34653.5 1
  41.700 29703.0 1
  47.000 94059.5 1
  57.000 925743.5 9
  59.000 70252545.5 718
  72.800 450495.5 5
  75.200 25297055.0 259
  95.200 34653.5 1
  95.400 14851.5 1
  117.500 39604.0 1
  118.900 97722870.0 999
//
