ACCESSION: MSBNK-Keio_Univ-KO002285
RECORD_TITLE: 9-Amino-1,2,3,4-tetrahydroacridine; LC-ESI-QQ; MS2; CE:30 V; [M+H]+
DATE: 2016.01.19 (Created 2007.07.07, modified 2011.05.10)
AUTHORS: Kakazu Y, Horai H, Institute for Advanced Biosciences, Keio Univ.
LICENSE: CC BY-NC-SA
COMMENT: KEIO_ID A123
CH$NAME: 9-Amino-1,2,3,4-tetrahydroacridine
CH$NAME: Tacrine
CH$COMPOUND_CLASS: N/A
CH$FORMULA: C13H14N2
CH$EXACT_MASS: 198.11570
CH$SMILES: Nc(c21)c(c3)c(ccc3)nc(CCCC2)1
CH$IUPAC: InChI=1S/C13H14N2/c14-13-9-5-1-3-7-11(9)15-12-8-4-2-6-10(12)13/h1,3,5,7H,2,4,6,8H2,(H2,14,15)
CH$LINK: CAS 321-64-2
CH$LINK: KEGG C01453
CH$LINK: NIKKAJI J5.670G
CH$LINK: PUBCHEM CID:1935
CH$LINK: INCHIKEY YLJREFDVOIBQDA-UHFFFAOYSA-N
CH$LINK: COMPTOX DTXSID1037272
AC$INSTRUMENT: API3000, Applied Biosystems
AC$INSTRUMENT_TYPE: LC-ESI-QQ
AC$MASS_SPECTROMETRY: MS_TYPE MS2
AC$MASS_SPECTROMETRY: ION_MODE POSITIVE
AC$MASS_SPECTROMETRY: COLLISION_ENERGY 30 V
MS$FOCUSED_ION: PRECURSOR_M/Z 199
MS$FOCUSED_ION: PRECURSOR_TYPE [M+H]+
PK$SPLASH: splash10-0002-0900000000-af483bfb98e7e2b87b39
PK$NUM_PEAK: 53
PK$PEAK: m/z int. rel.int.
  39.000 128713.0 1
  55.000 34653.5 1
  69.200 118812.0 1
  71.700 34653.5 1
  74.000 49505.0 1
  77.000 69307.0 1
  77.700 34653.5 1
  80.300 44554.5 1
  82.300 54455.5 1
  83.300 34653.5 1
  90.800 19802.0 1
  99.000 29703.0 1
  100.100 14851.5 1
  105.800 54455.5 1
  116.400 54455.5 1
  117.100 64356.5 1
  118.200 99010.0 1
  119.200 19802.0 1
  120.700 29703.0 1
  123.000 371287.5 1
  127.100 34653.5 1
  128.000 29703.0 1
  128.900 54455.5 1
  130.000 272277.5 1
  130.900 74257.5 1
  140.100 69307.0 1
  142.200 99010.0 1
  142.900 207921.0 1
  144.300 2371289.5 3
  154.100 84158.5 1
  154.700 34653.5 1
  156.100 232673.5 1
  157.200 1970299.0 3
  158.100 3034656.5 4
  165.300 49505.0 1
  167.200 425743.0 1
  168.500 49505.0 1
  169.100 143564.5 1
  170.100 316832.0 1
  171.200 35113896.5 50
  172.200 262376.5 1
  175.300 34653.5 1
  180.200 217822.0 1
  181.200 108911.0 1
  182.300 1762378.0 2
  183.100 2460398.5 3
  184.200 465347.0 1
  195.400 455446.0 1
  196.200 89109.0 1
  197.300 8519810.5 12
  198.500 1806932.5 3
  199.400 706921499.0 999
  200.100 257426.0 1
//
