ACCESSION: MSBNK-Keio_Univ-KO001312
RECORD_TITLE: L-Methionine; LC-ESI-QQ; MS2; CE:30 V; [M-H]-
DATE: 2016.01.19 (Created 2007.07.07, modified 2011.05.10)
AUTHORS: Kakazu Y, Horai H, Institute for Advanced Biosciences, Keio Univ.
LICENSE: CC BY-NC-SA
COMMENT: KEIO_ID M003
CH$NAME: Met
CH$NAME: L-2-Amino-4methylthiobutyric acid
CH$NAME: L-Methionine
CH$COMPOUND_CLASS: N/A
CH$FORMULA: C5H11NO2S
CH$EXACT_MASS: 149.05105
CH$SMILES: N[C@@H](CCSC)C(O)=O
CH$IUPAC: InChI=1S/C5H11NO2S/c1-9-3-2-4(6)5(7)8/h4H,2-3,6H2,1H3,(H,7,8)/t4-/m0/s1
CH$LINK: CAS 63-68-3
CH$LINK: CHEBI CHEBI:16643
CH$LINK: CHEMPDB MET
CH$LINK: KEGG C00073
CH$LINK: NIKKAJI J9.174J
CH$LINK: PUBCHEM CID:6137
CH$LINK: INCHIKEY FFEARJCKVFRZRR-BYPYZUCNSA-N
CH$LINK: COMPTOX DTXSID5040548
AC$INSTRUMENT: API3000, Applied Biosystems
AC$INSTRUMENT_TYPE: LC-ESI-QQ
AC$MASS_SPECTROMETRY: MS_TYPE MS2
AC$MASS_SPECTROMETRY: ION_MODE NEGATIVE
AC$MASS_SPECTROMETRY: COLLISION_ENERGY 30 V
MS$FOCUSED_ION: PRECURSOR_M/Z 148
MS$FOCUSED_ION: PRECURSOR_TYPE [M-H]-
PK$SPLASH: splash10-0002-9000000000-e7b819fd2d0ac3862860
PK$NUM_PEAK: 2
PK$PEAK: m/z int. rel.int.
  36.700 9901.0 2
  46.900 5227728.0 999
//
