ACCESSION: MSBNK-Keio_Univ-KO000375
RECORD_TITLE: Bentazon; LC-ESI-QQ; MS2; CE:50 V; [M-H]-
DATE: 2016.01.19 (Created 2007.07.07, modified 2011.05.10)
AUTHORS: Kakazu Y, Horai H, Institute for Advanced Biosciences, Keio Univ.
LICENSE: CC BY-NC-SA
COMMENT: KEIO_ID B072
CH$NAME: Bentazon
CH$NAME: Bentazone
CH$COMPOUND_CLASS: N/A
CH$FORMULA: C10H12N2O3S
CH$EXACT_MASS: 240.05686
CH$SMILES: CC(C)N(C(=O)1)S(=O)(=O)Nc(c2)c(ccc2)1
CH$IUPAC: InChI=1S/C10H12N2O3S/c1-7(2)12-10(13)8-5-3-4-6-9(8)11-16(12,14)15/h3-7,11H,1-2H3
CH$LINK: CAS 25057-89-0
CH$LINK: KEGG C10965
CH$LINK: NIKKAJI J1.875I
CH$LINK: PUBCHEM SID:13148
CH$LINK: INCHIKEY ZOMSMJKLGFBRBS-UHFFFAOYSA-N
CH$LINK: COMPTOX DTXSID0023901
AC$INSTRUMENT: API3000, Applied Biosystems
AC$INSTRUMENT_TYPE: LC-ESI-QQ
AC$MASS_SPECTROMETRY: MS_TYPE MS2
AC$MASS_SPECTROMETRY: ION_MODE NEGATIVE
AC$MASS_SPECTROMETRY: COLLISION_ENERGY 50 V
MS$FOCUSED_ION: PRECURSOR_M/Z 239
MS$FOCUSED_ION: PRECURSOR_TYPE [M-H]-
PK$SPLASH: splash10-001i-2900000000-ef88075e0c8a2fa2a659
PK$NUM_PEAK: 62
PK$PEAK: m/z int. rel.int.
  34.900 14851.5 1
  40.400 64356.5 1
  42.000 2504953.0 32
  50.300 74257.5 1
  51.800 19802.0 1
  57.200 9901.0 1
  59.400 34653.5 1
  61.800 49505.0 1
  64.100 128713.0 2
  65.800 69307.0 1
  68.900 133663.5 2
  74.900 113861.5 1
  76.100 29257455.0 379
  77.100 5554461.0 72
  78.000 975248.5 13
  78.700 727723.5 9
  80.100 9054464.5 117
  81.100 1039605.0 13
  82.900 376238.0 5
  88.200 44554.5 1
  89.800 777228.5 10
  91.000 460396.5 6
  92.000 316832.0 4
  93.000 64356.5 1
  95.200 19802.0 1
  97.100 138614.0 2
  102.400 19802.0 1
  102.800 44554.5 1
  104.100 1252476.5 16
  105.000 17346552.0 225
  106.100 287129.0 4
  107.300 133663.5 2
  114.000 420792.5 5
  115.100 1891091.0 25
  116.200 6381194.5 83
  117.200 21668338.5 281
  117.900 158416.0 2
  119.400 39604.0 1
  120.400 64356.5 1
  123.000 39604.0 1
  129.500 34653.5 1
  130.200 346535.0 4
  132.100 77064433.5 999
  133.100 26222798.5 340
  133.700 103960.5 1
  134.300 39604.0 1
  135.200 94059.5 1
  143.100 24752.5 1
  145.100 1811883.0 23
  147.200 108911.0 1
  148.000 24752.5 1
  154.200 242574.5 3
  157.500 34653.5 1
  159.300 544555.0 7
  159.500 59406.0 1
  168.000 955446.5 12
  169.100 34653.5 1
  175.100 371287.5 5
  195.400 638614.5 8
  196.100 1064357.5 14
  197.300 2128715.0 28
  239.100 59406.0 1
//
