ACCESSION: MSBNK-Keio_Univ-KO000916
RECORD_TITLE: Galactosamine 1-phosphate; LC-ESI-QQ; MS2; CE:40 V; [M-H]-
DATE: 2016.01.19 (Created 2007.07.07, modified 2011.05.10)
AUTHORS: Kakazu Y, Horai H, Institute for Advanced Biosciences, Keio Univ.
LICENSE: CC BY-NC-SA
COMMENT: KEIO_ID G065
CH$NAME: Galactosamine 1-phosphate
CH$NAME: D-Galactosamine 1-phosphate
CH$COMPOUND_CLASS: N/A
CH$FORMULA: C6H14NO8P
CH$EXACT_MASS: 259.04570
CH$SMILES: OCC(O1)C(O)C(O)C(N)C1OP(O)(O)=O
CH$IUPAC: InChI=1S/C6H14NO8P/c7-3-5(10)4(9)2(1-8)14-6(3)15-16(11,12)13/h2-6,8-10H,1,7H2,(H2,11,12,13)/t2-,3-,4+,5-,6?/m1/s1
CH$LINK: KEGG C03783
CH$LINK: PUBCHEM CID:3036672
CH$LINK: INCHIKEY YMJBYRVFGYXULK-GASJEMHNSA-N
CH$LINK: COMPTOX DTXSID30949296
AC$INSTRUMENT: API3000, Applied Biosystems
AC$INSTRUMENT_TYPE: LC-ESI-QQ
AC$MASS_SPECTROMETRY: MS_TYPE MS2
AC$MASS_SPECTROMETRY: ION_MODE NEGATIVE
AC$MASS_SPECTROMETRY: COLLISION_ENERGY 40 V
MS$FOCUSED_ION: PRECURSOR_M/Z 258
MS$FOCUSED_ION: PRECURSOR_TYPE [M-H]-
PK$SPLASH: splash10-004i-9000000000-cf1540c8ca8c9c3312c3
PK$NUM_PEAK: 5
PK$PEAK: m/z int. rel.int.
  37.200 391089.5 22
  59.100 148515.0 8
  79.000 17633681.0 999
  96.900 3975251.5 225
  99.900 29703.0 2
//
