ACCESSION: MSBNK-Keio_Univ-KO001642
RECORD_TITLE: Propylthiouracil; LC-ESI-QQ; MS2; CE:20 V; [M-H]-
DATE: 2016.01.19 (Created 2007.07.07, modified 2011.05.10)
AUTHORS: Kakazu Y, Horai H, Institute for Advanced Biosciences, Keio Univ.
LICENSE: CC BY-NC-SA
COMMENT: KEIO_ID P055
CH$NAME: Propylthiouracil
CH$COMPOUND_CLASS: N/A
CH$FORMULA: C7H10N2OS
CH$EXACT_MASS: 170.05138
CH$SMILES: CCCC(=C1)NC(=S)NC(=O)1
CH$IUPAC: InChI=1S/C7H10N2OS/c1-2-3-5-4-6(10)9-7(11)8-5/h4H,2-3H2,1H3,(H2,8,9,10,11)
CH$LINK: CAS 51-52-5
CH$LINK: KEGG C07569
CH$LINK: NIKKAJI J1.363C
CH$LINK: PUBCHEM CID:657298
CH$LINK: INCHIKEY KNAHARQHSZJURB-UHFFFAOYSA-N
CH$LINK: COMPTOX DTXSID5021209
AC$INSTRUMENT: API3000, Applied Biosystems
AC$INSTRUMENT_TYPE: LC-ESI-QQ
AC$MASS_SPECTROMETRY: MS_TYPE MS2
AC$MASS_SPECTROMETRY: ION_MODE NEGATIVE
AC$MASS_SPECTROMETRY: COLLISION_ENERGY 20 V
MS$FOCUSED_ION: PRECURSOR_M/Z 169
MS$FOCUSED_ION: PRECURSOR_TYPE [M-H]-
PK$SPLASH: splash10-066r-7900000000-e5e5c265147935fdd8d2
PK$NUM_PEAK: 14
PK$PEAK: m/z int. rel.int.
  58.000 16257442.0 881
  70.900 39604.0 2
  81.300 29703.0 2
  87.300 113861.5 6
  97.300 69307.0 4
  107.300 29703.0 2
  115.100 44554.5 2
  124.900 603961.0 33
  127.500 39604.0 2
  132.700 29703.0 2
  135.200 262376.5 14
  140.800 39604.0 2
  154.100 29703.0 2
  169.100 18435662.0 999
//
