ACCESSION: MSBNK-Keio_Univ-KO001690
RECORD_TITLE: Puromycin; LC-ESI-QQ; MS2; CE:50 V; [M-H]-
DATE: 2016.01.19 (Created 2007.07.07, modified 2011.05.10)
AUTHORS: Kakazu Y, Horai H, Institute for Advanced Biosciences, Keio Univ.
LICENSE: CC BY-NC-SA
COMMENT: KEIO_ID P075
CH$NAME: Puromycin
CH$COMPOUND_CLASS: N/A
CH$FORMULA: C22H29N7O5
CH$EXACT_MASS: 471.22302
CH$SMILES: COc(c4)ccc(c4)CC(N)C(=O)NC(C(CO)3)C(O)C(O3)n(c2)c(n1)c(n2)c(N(C)C)nc1
CH$IUPAC: InChI=1S/C22H29N7O5/c1-28(2)19-17-20(25-10-24-19)29(11-26-17)22-18(31)16(15(9-30)34-22)27-21(32)14(23)8-12-4-6-13(33-3)7-5-12/h4-7,10-11,14-16,18,22,30-31H,8-9,23H2,1-3H3,(H,27,32)/t14-,15+,16+,18+,22+/m0/s1
CH$LINK: CAS 53-79-2
CH$LINK: CHEBI CHEBI:17939
CH$LINK: KEGG C01610
CH$LINK: NIKKAJI J2.310H
CH$LINK: PUBCHEM CID:439530
CH$LINK: INCHIKEY RXWNCPJZOCPEPQ-NVWDDTSBSA-N
CH$LINK: COMPTOX DTXSID8036788
AC$INSTRUMENT: API3000, Applied Biosystems
AC$INSTRUMENT_TYPE: LC-ESI-QQ
AC$MASS_SPECTROMETRY: MS_TYPE MS2
AC$MASS_SPECTROMETRY: ION_MODE NEGATIVE
AC$MASS_SPECTROMETRY: COLLISION_ENERGY 50 V
MS$FOCUSED_ION: PRECURSOR_M/Z 470
MS$FOCUSED_ION: PRECURSOR_TYPE [M-H]-
PK$SPLASH: splash10-03di-0900000000-08775f201fb11e558b53
PK$NUM_PEAK: 6
PK$PEAK: m/z int. rel.int.
  93.000 138614.0 3
  147.300 1039605.0 25
  160.700 19802.0 1
  162.100 41242615.5 999
  176.100 24752.5 1
  194.200 59406.0 1
//
