ACCESSION: MSBNK-Keio_Univ-KO003203
RECORD_TITLE: 3-Indoleacetonitrile; LC-ESI-QQ; MS2; CE:20 V; [M+H]+
DATE: 2016.01.19 (Created 2007.07.07, modified 2011.05.10)
AUTHORS: Kakazu Y, Horai H, Institute for Advanced Biosciences, Keio Univ.
LICENSE: CC BY-NC-SA
COMMENT: KEIO_ID I022
CH$NAME: 3-Indoleacetonitrile
CH$NAME: Indol-3-ylacetonitrile
CH$NAME: (Indole-3-yl)acetonitrile
CH$NAME: Indole-3-acetonitrile
CH$COMPOUND_CLASS: N/A
CH$FORMULA: C10H8N2
CH$EXACT_MASS: 156.06875
CH$SMILES: C1=CC=C2C(=C1)C(=CN2)CC#N
CH$IUPAC: InChI=1S/C10H8N2/c11-6-5-8-7-12-10-4-2-1-3-9(8)10/h1-4,7,12H,5H2
CH$LINK: CAS 771-51-7
CH$LINK: CHEBI CHEBI:17566
CH$LINK: KEGG C02938
CH$LINK: NIKKAJI J1.733G
CH$LINK: PUBCHEM CID:351795
CH$LINK: INCHIKEY DMCPFOBLJMLSNX-UHFFFAOYSA-N
CH$LINK: COMPTOX DTXSID5061118
AC$INSTRUMENT: API3000, Applied Biosystems
AC$INSTRUMENT_TYPE: LC-ESI-QQ
AC$MASS_SPECTROMETRY: MS_TYPE MS2
AC$MASS_SPECTROMETRY: ION_MODE POSITIVE
AC$MASS_SPECTROMETRY: COLLISION_ENERGY 20 V
MS$FOCUSED_ION: PRECURSOR_M/Z 157
MS$FOCUSED_ION: PRECURSOR_TYPE [M+H]+
PK$SPLASH: splash10-02ai-5900000000-bac26e180028ec3a808f
PK$NUM_PEAK: 13
PK$PEAK: m/z int. rel.int.
  62.900 509901.5 757
  68.800 99010.0 147
  69.300 14851.5 22
  77.100 247525.0 367
  81.000 74257.5 110
  84.000 14851.5 22
  95.000 19802.0 29
  111.800 34653.5 51
  117.000 311881.5 463
  120.600 29703.0 44
  130.000 673268.0 999
  140.200 341584.5 507
  157.000 326733.0 485
//
