ACCESSION: MSBNK-Keio_Univ-KO003266
RECORD_TITLE: Kanamycin; LC-ESI-QQ; MS2; CE:50 V; [M+2H]++
DATE: 2016.01.19 (Created 2007.07.07, modified 2012.10.22)
AUTHORS: Kakazu Y, Horai H, Institute for Advanced Biosciences, Keio Univ.
LICENSE: CC BY-NC-SA
COMMENT: KEIO_ID K002
CH$NAME: Kanamycin
CH$COMPOUND_CLASS: N/A
CH$FORMULA: C18H36N4O11
CH$EXACT_MASS: 484.23806
CH$SMILES: C1[C@H]([C@@H]([C@H]([C@@H]([C@H]1N)O[C@@H]2[C@@H]([C@H]([C@@H]([C@H](O2)CN)O)O)O)O)O[C@@H]3[C@@H]([C@H]([C@@H]([C@H](O3)CO)O)N)O)N
CH$IUPAC: InChI=1S/C18H36N4O11/c19-2-6-10(25)12(27)13(28)18(30-6)33-16-5(21)1-4(20)15(14(16)29)32-17-11(26)8(22)9(24)7(3-23)31-17/h4-18,23-29H,1-3,19-22H2/t4-,5+,6-,7-,8+,9-,10-,11-,12+,13-,14-,15+,16-,17-,18-/m1/s1
CH$LINK: CAS 59-01-8
CH$LINK: KEGG C08046
CH$LINK: NIKKAJI J203.663K
CH$LINK: PUBCHEM CID:6032
CH$LINK: INCHIKEY SBUJHOSQTJFQJX-NOAMYHISSA-N
CH$LINK: COMPTOX DTXSID3023184
AC$INSTRUMENT: API3000, Applied Biosystems
AC$INSTRUMENT_TYPE: LC-ESI-QQ
AC$MASS_SPECTROMETRY: MS_TYPE MS2
AC$MASS_SPECTROMETRY: ION_MODE POSITIVE
AC$MASS_SPECTROMETRY: COLLISION_ENERGY 50 V
MS$FOCUSED_ION: PRECURSOR_M/Z 243
MS$FOCUSED_ION: PRECURSOR_TYPE [M+2H]++
PK$SPLASH: splash10-0a4i-3900000000-7db8e8708377275ab0e2
PK$NUM_PEAK: 14
PK$PEAK: m/z int. rel.int.
  55.000 24752.5 25
  56.800 19802.0 20
  68.300 89109.0 91
  69.100 74257.5 76
  72.000 14851.5 15
  84.300 34653.5 35
  85.400 103960.5 106
  92.200 143564.5 147
  117.000 34653.5 35
  118.300 69307.0 71
  132.200 94059.5 96
  134.100 84158.5 86
  159.100 975248.5 999
  184.300 54455.5 56
//
