ACCESSION: MSBNK-Keio_Univ-KO009020
RECORD_TITLE: Kynurenine; LC-ESI-IT; MS4; m/z: 209/192/150; [M+H]+
DATE: 2011.12.05 (Created 2008.05.12)
AUTHORS: Ojima Y, Kakazu Y, Horai H, Soga T, Institute for Advanced Biosciences, Keio Univ.
LICENSE: CC BY-NC-SA
COMMENT: KEIO_ID K004
COMMENT: [MS3] KO009017
CH$NAME: Kynurenine
CH$NAME: 3-Anthraniloyl-L-alanine
CH$NAME: L-Kynurenine
CH$COMPOUND_CLASS: N/A
CH$FORMULA: C10H12N2O3
CH$EXACT_MASS: 208.08479
CH$SMILES: OC(=O)[C@@H](N)CC(=O)c(c1)c(N)ccc1
CH$IUPAC: InChI=1S/C10H12N2O3/c11-7-4-2-1-3-6(7)9(13)5-8(12)10(14)15/h1-4,8H,5,11-12H2,(H,14,15)/t8-/m0/s1
CH$LINK: CAS 343-65-7
CH$LINK: CHEBI CHEBI:16946
CH$LINK: KEGG C00328
CH$LINK: NIKKAJI J5.688J
CH$LINK: PUBCHEM CID:161166
CH$LINK: INCHIKEY YGPSJZOEDVAXAB-QMMMGPOBSA-N
AC$INSTRUMENT: LC/MSD Trap XCT, Agilent Technologies
AC$INSTRUMENT_TYPE: LC-ESI-IT
AC$MASS_SPECTROMETRY: MS_TYPE MS4
AC$MASS_SPECTROMETRY: ION_MODE POSITIVE
AC$MASS_SPECTROMETRY: COLLISION_ENERGY 0.65/0.60/0.70
MS$FOCUSED_ION: PRECURSOR_M/Z 209/192/150
MS$FOCUSED_ION: PRECURSOR_TYPE [M+H]+
MS$DATA_PROCESSING: WHOLE LC/MSD Trap Control and Data Analysis
PK$SPLASH: splash10-0udi-0900000000-dc4fee4751d629575157
PK$NUM_PEAK: 8
PK$PEAK: m/z int. rel.int.
  77.2 11.80 6
  104.1 1856.27 999
  105.0 110.06 59
  132.0 4.20 2
  150.1 93.28 50
  151.1 3.50 2
  187.1 15.60 8
  213.0 1.50 1
//
