ACCESSION: MSBNK-Keio_Univ-KO004045
RECORD_TITLE: D-Sorbitol 6-phosphate; LC-ESI-QQ; MS2; CE:40 V; [M+H]+
DATE: 2016.01.19 (Created 2007.07.07, modified 2011.05.10)
AUTHORS: Kakazu Y, Horai H, Institute for Advanced Biosciences, Keio Univ.
LICENSE: CC BY-NC-SA
COMMENT: KEIO_ID S049
CH$NAME: Sorbitol 6-phosphate
CH$NAME: D-Sorbitol 6-phosphate
CH$COMPOUND_CLASS: N/A
CH$FORMULA: C6H15O9P
CH$EXACT_MASS: 262.04537
CH$SMILES: OC[C@H](O)[C@@H](O)[C@H](O)[C@H](O)COP(O)(O)=O
CH$IUPAC: InChI=1S/C6H15O9P/c7-1-3(8)5(10)6(11)4(9)2-15-16(12,13)14/h3-11H,1-2H2,(H2,12,13,14)/t3-,4+,5+,6+/m0/s1
CH$LINK: CAS 20479-58-7
CH$LINK: CHEBI CHEBI:17044
CH$LINK: KEGG C01096
CH$LINK: PUBCHEM CID:152306
CH$LINK: INCHIKEY GACTWZZMVMUKNG-SLPGGIOYSA-N
AC$INSTRUMENT: API3000, Applied Biosystems
AC$INSTRUMENT_TYPE: LC-ESI-QQ
AC$MASS_SPECTROMETRY: MS_TYPE MS2
AC$MASS_SPECTROMETRY: ION_MODE POSITIVE
AC$MASS_SPECTROMETRY: COLLISION_ENERGY 40 V
MS$FOCUSED_ION: PRECURSOR_M/Z 263
MS$FOCUSED_ION: PRECURSOR_TYPE [M+H]+
PK$SPLASH: splash10-03z9-9200000000-bf128ce9c60e1c7690e6
PK$NUM_PEAK: 10
PK$PEAK: m/z int. rel.int.
  58.900 9901.0 91
  63.100 103960.5 954
  69.300 84158.5 772
  70.800 24752.5 227
  83.000 108911.0 999
  84.900 29703.0 272
  92.300 19802.0 182
  109.000 39604.0 363
  114.300 34653.5 318
  195.100 49505.0 454
//
