ACCESSION: MSBNK-Keio_Univ-KO001216
RECORD_TITLE: 3-Indolebutyric acid; LC-ESI-QQ; MS2; CE:10 V; [M-H]-
DATE: 2016.01.19 (Created 2007.07.07, modified 2011.05.10)
AUTHORS: Kakazu Y, Horai H, Institute for Advanced Biosciences, Keio Univ.
LICENSE: CC BY-NC-SA
COMMENT: KEIO_ID I025
CH$NAME: 3-Indolebutyrate
CH$NAME: Indolebutyric acid
CH$NAME: 3-Indolebutyric acid
CH$COMPOUND_CLASS: N/A
CH$FORMULA: C12H13NO2
CH$EXACT_MASS: 203.09463
CH$SMILES: C1=CC=C2C(=C1)C(=CN2)CCCC(=O)O
CH$IUPAC: InChI=1S/C12H13NO2/c14-12(15)7-3-4-9-8-13-11-6-2-1-5-10(9)11/h1-2,5-6,8,13H,3-4,7H2,(H,14,15)
CH$LINK: CAS 133-32-4
CH$LINK: CHEBI CHEBI:33070
CH$LINK: CHEMPDB 3IB
CH$LINK: KEGG C11284
CH$LINK: NIKKAJI J2.525I
CH$LINK: PUBCHEM SID:13461
CH$LINK: INCHIKEY JTEDVYBZBROSJT-UHFFFAOYSA-N
CH$LINK: COMPTOX DTXSID8032623
AC$INSTRUMENT: API3000, Applied Biosystems
AC$INSTRUMENT_TYPE: LC-ESI-QQ
AC$MASS_SPECTROMETRY: MS_TYPE MS2
AC$MASS_SPECTROMETRY: ION_MODE NEGATIVE
AC$MASS_SPECTROMETRY: COLLISION_ENERGY 10 V
MS$FOCUSED_ION: PRECURSOR_M/Z 202
MS$FOCUSED_ION: PRECURSOR_TYPE [M-H]-
PK$SPLASH: splash10-0udi-0090000000-d6f784c6fec287fbd7c4
PK$NUM_PEAK: 6
PK$PEAK: m/z int. rel.int.
  59.200 678218.5 19
  116.300 64356.5 2
  141.900 178218.0 5
  158.400 138614.0 4
  169.100 69307.0 2
  202.100 36376274.0 999
//
