ACCESSION: MSBNK-Keio_Univ-KO000431
RECORD_TITLE: Citraconic acid; LC-ESI-QQ; MS2; CE:20 V; [M-H]-
DATE: 2016.01.19 (Created 2007.07.07, modified 2011.05.10)
AUTHORS: Kakazu Y, Horai H, Institute for Advanced Biosciences, Keio Univ.
LICENSE: CC BY-NC-SA
COMMENT: KEIO_ID C036
CH$NAME: Citraconate
CH$NAME: 2-Methylmaleate
CH$NAME: Methylmaleic acid
CH$NAME: Citraconic acid
CH$COMPOUND_CLASS: N/A
CH$FORMULA: C5H6O4
CH$EXACT_MASS: 130.02661
CH$SMILES: OC(=O)C=C(C)C(O)=O
CH$IUPAC: InChI=1S/C5H6O4/c1-3(5(8)9)2-4(6)7/h2H,1H3,(H,6,7)(H,8,9)/b3-2-
CH$LINK: CAS 498-23-7
CH$LINK: CHEBI CHEBI:30719
CH$LINK: KEGG C02226
CH$LINK: NIKKAJI J6.106I
CH$LINK: PUBCHEM CID:643798
CH$LINK: INCHIKEY HNEGQIOMVPPMNR-IHWYPQMZSA-N
AC$INSTRUMENT: API3000, Applied Biosystems
AC$INSTRUMENT_TYPE: LC-ESI-QQ
AC$MASS_SPECTROMETRY: MS_TYPE MS2
AC$MASS_SPECTROMETRY: ION_MODE NEGATIVE
AC$MASS_SPECTROMETRY: COLLISION_ENERGY 20 V
MS$FOCUSED_ION: PRECURSOR_M/Z 129
MS$FOCUSED_ION: PRECURSOR_TYPE [M-H]-
PK$SPLASH: splash10-000i-9000000000-1786e7db899e12344315
PK$NUM_PEAK: 12
PK$PEAK: m/z int. rel.int.
  41.100 3207924.0 30
  45.500 24752.5 1
  57.100 54455.5 1
  59.100 64356.5 1
  80.100 34653.5 1
  81.100 69307.0 1
  81.700 14851.5 1
  83.200 341584.5 3
  85.100 105599115.5 999
  96.400 19802.0 1
  110.900 242574.5 2
  129.100 8940603.0 85
//
