ACCESSION: MSBNK-Keio_Univ-KO009271
RECORD_TITLE: Terbutaline; LC-ESI-IT; MS4; m/z: 226/152/125; [M+H]+
DATE: 2012.10.22 (Created 2008.05.12)
AUTHORS: Ojima Y, Kakazu Y, Horai H, Soga T, Institute for Advanced Biosciences, Keio Univ.
LICENSE: CC BY-NC-SA
COMMENT: KEIO_ID T126
COMMENT: [MS3] KO009270
CH$NAME: Terbutaline
CH$COMPOUND_CLASS: N/A
CH$FORMULA: C12H19NO3
CH$EXACT_MASS: 225.13649
CH$SMILES: CC(C)(C)NCC(O)c(c1)cc(O)cc(O)1
CH$IUPAC: InChI=1S/C12H19NO3/c1-12(2,3)13-7-11(16)8-4-9(14)6-10(15)5-8/h4-6,11,13-16H,7H2,1-3H3
CH$LINK: KEGG C07812
CH$LINK: PUBCHEM SID:10014
CH$LINK: INCHIKEY XWTYSIMOBUGWOL-UHFFFAOYSA-N
CH$LINK: COMPTOX DTXSID7021310
AC$INSTRUMENT: LC/MSD Trap XCT, Agilent Technologies
AC$INSTRUMENT_TYPE: LC-ESI-IT
AC$MASS_SPECTROMETRY: MS_TYPE MS4
AC$MASS_SPECTROMETRY: ION_MODE POSITIVE
AC$MASS_SPECTROMETRY: COLLISION_ENERGY 0.60/0.60/0.55
MS$FOCUSED_ION: PRECURSOR_M/Z 226/152/125
MS$FOCUSED_ION: PRECURSOR_TYPE [M+H]+
MS$DATA_PROCESSING: WHOLE LC/MSD Trap Control and Data Analysis
PK$SPLASH: splash10-004i-0900000000-00e4888eabd88ec688f0
PK$NUM_PEAK: 4
PK$PEAK: m/z int. rel.int.
  107.1 46.19 458
  110.0 2.64 26
  125.1 100.81 999
  128.2 1.36 13
//
