ACCESSION: MSBNK-Keio_Univ-KO001254
RECORD_TITLE: Isonicotinic acid hydrazide; LC-ESI-QQ; MS2; CE:40 V; [M-H]-
DATE: 2016.01.19 (Created 2007.07.07, modified 2011.05.10)
AUTHORS: Kakazu Y, Horai H, Institute for Advanced Biosciences, Keio Univ.
LICENSE: CC BY-NC-SA
COMMENT: KEIO_ID I066
CH$NAME: Isonicotinate hydrazide
CH$NAME: Isoniazid
CH$NAME: Isonicotinic acid hydrazide
CH$COMPOUND_CLASS: N/A
CH$FORMULA: C6H7N3O
CH$EXACT_MASS: 137.05891
CH$SMILES: NNC(=O)c(c1)ccnc1
CH$IUPAC: InChI=1S/C6H7N3O/c7-9-6(10)5-1-3-8-4-2-5/h1-4H,7H2,(H,9,10)
CH$LINK: CAS 54-85-3
CH$LINK: CHEBI CHEBI:6030
CH$LINK: KEGG C07054
CH$LINK: NIKKAJI J1.371D
CH$LINK: PUBCHEM SID:9266
CH$LINK: INCHIKEY QRXWMOHMRWLFEY-UHFFFAOYSA-N
CH$LINK: COMPTOX DTXSID8020755
AC$INSTRUMENT: API3000, Applied Biosystems
AC$INSTRUMENT_TYPE: LC-ESI-QQ
AC$MASS_SPECTROMETRY: MS_TYPE MS2
AC$MASS_SPECTROMETRY: ION_MODE NEGATIVE
AC$MASS_SPECTROMETRY: COLLISION_ENERGY 40 V
MS$FOCUSED_ION: PRECURSOR_M/Z 136
MS$FOCUSED_ION: PRECURSOR_TYPE [M-H]-
PK$SPLASH: splash10-002f-9000000000-17100430370d37f834ce
PK$NUM_PEAK: 4
PK$PEAK: m/z int. rel.int.
  42.200 2975250.5 999
  56.900 272277.5 91
  78.000 1905942.5 640
  93.500 54455.5 18
//
