ACCESSION: MSBNK-Keio_Univ-KO003085
RECORD_TITLE: Hypotaurine; LC-ESI-QQ; MS2; CE:30 V; [M+H]+
DATE: 2016.01.19 (Created 2007.07.07, modified 2011.05.10)
AUTHORS: Kakazu Y, Horai H, Institute for Advanced Biosciences, Keio Univ.
LICENSE: CC BY-NC-SA
COMMENT: KEIO_ID H017
CH$NAME: Hypotaurine
CH$NAME: 2-Aminoethanesulfinic acid
CH$COMPOUND_CLASS: N/A
CH$FORMULA: C2H7NO2S
CH$EXACT_MASS: 109.01975
CH$SMILES: NCCS(O)=O
CH$IUPAC: InChI=1S/C2H7NO2S/c3-1-2-6(4)5/h1-3H2,(H,4,5)
CH$LINK: CAS 300-84-5
CH$LINK: CHEBI CHEBI:16668
CH$LINK: KEGG C00519
CH$LINK: NIKKAJI J11.604A
CH$LINK: PUBCHEM CID:107812
CH$LINK: INCHIKEY VVIUBCNYACGLLV-UHFFFAOYSA-N
CH$LINK: COMPTOX DTXSID8075380
AC$INSTRUMENT: API3000, Applied Biosystems
AC$INSTRUMENT_TYPE: LC-ESI-QQ
AC$MASS_SPECTROMETRY: MS_TYPE MS2
AC$MASS_SPECTROMETRY: ION_MODE POSITIVE
AC$MASS_SPECTROMETRY: COLLISION_ENERGY 30 V
MS$FOCUSED_ION: PRECURSOR_M/Z 110
MS$FOCUSED_ION: PRECURSOR_TYPE [M+H]+
PK$SPLASH: splash10-014i-9000000000-6efe1a9b61e6af3e4d54
PK$NUM_PEAK: 7
PK$PEAK: m/z int. rel.int.
  28.900 19802.0 10
  44.600 29703.0 15
  45.200 193069.5 100
  61.000 163366.5 85
  64.700 44554.5 23
  69.000 1925744.5 999
  92.300 49505.0 26
//
