ACCESSION: MSBNK-Keio_Univ-KO000791
RECORD_TITLE: Formiminoaspartate; LC-ESI-QQ; MS2; CE:30 V; [M-H]-
DATE: 2016.01.19 (Created 2007.07.07, modified 2012.10.22)
AUTHORS: Kakazu Y, Horai H, Institute for Advanced Biosciences, Keio Univ.
LICENSE: CC BY-NC-SA
COMMENT: KEIO_ID F025
CH$NAME: Formiminoaspartate
CH$NAME: N-Formimidoyl-L-aspartate
CH$NAME: N-Formimino-L-aspartate
CH$NAME: Formiminoaspartic acid
CH$COMPOUND_CLASS: N/A
CH$FORMULA: C5H8N2O4
CH$EXACT_MASS: 160.04841
CH$SMILES: N=CN[C@@H](CC(O)=O)C(O)=O
CH$IUPAC: InChI=1S/C5H8N2O4/c6-2-7-3(5(10)11)1-4(8)9/h2-3H,1H2,(H2,6,7)(H,8,9)(H,10,11)/t3-/m0/s1
CH$LINK: CHEBI CHEBI:18387
CH$LINK: KEGG C03409
CH$LINK: PUBCHEM CID:440000
CH$LINK: INCHIKEY XTPIFIMCFHNJOH-VKHMYHEASA-N
AC$INSTRUMENT: API3000, Applied Biosystems
AC$INSTRUMENT_TYPE: LC-ESI-QQ
AC$MASS_SPECTROMETRY: MS_TYPE MS2
AC$MASS_SPECTROMETRY: ION_MODE NEGATIVE
AC$MASS_SPECTROMETRY: COLLISION_ENERGY 30 V
MS$FOCUSED_ION: PRECURSOR_M/Z 159
MS$FOCUSED_ION: PRECURSOR_TYPE [M-H]-
PK$SPLASH: splash10-0006-9000000000-b960b314f34206334de6
PK$NUM_PEAK: 18
PK$PEAK: m/z int. rel.int.
  34.800 14851.5 7
  41.100 74257.5 36
  42.200 99010.0 47
  43.100 2084160.5 999
  43.800 54455.5 26
  58.000 39604.0 19
  59.200 841585.0 403
  68.700 69307.0 33
  70.000 99010.0 47
  71.200 292079.5 140
  78.900 118812.0 57
  82.900 29703.0 14
  88.200 975248.5 467
  94.900 232673.5 112
  97.000 1014852.5 486
  112.900 39604.0 19
  115.100 371287.5 178
  131.800 64356.5 31
//
