ACCESSION: MSBNK-Keio_Univ-KO009102
RECORD_TITLE: 1,5-Diphenylcarbohydrazide; LC-ESI-IT; MS3; m/z: 243/150; [M+H]+
DATE: 2011.12.05 (Created 2008.05.12)
AUTHORS: Ojima Y, Kakazu Y, Horai H, Soga T, Institute for Advanced Biosciences, Keio Univ.
LICENSE: CC BY-NC-SA
COMMENT: KEIO_ID D166
COMMENT: [MS2] KO009100
CH$NAME: 1,5-Diphenylcarbohydrazide
CH$NAME: Diphenylcarbazide
CH$COMPOUND_CLASS: Non-Natural Product
CH$FORMULA: C13H14N4O
CH$EXACT_MASS: 242.11676
CH$SMILES: O=C(NNc(c2)cccc2)NNc(c1)cccc1
CH$IUPAC: InChI=1S/C13H14N4O/c18-13(16-14-11-7-3-1-4-8-11)17-15-12-9-5-2-6-10-12/h1-10,14-15H,(H2,16,17,18)
CH$LINK: CAS 140-22-7
CH$LINK: KEGG C11232
CH$LINK: NIKKAJI J5.651K
CH$LINK: PUBCHEM SID:13411
CH$LINK: INCHIKEY KSPIHGBHKVISFI-UHFFFAOYSA-N
CH$LINK: COMPTOX DTXSID7059690
AC$INSTRUMENT: LC/MSD Trap XCT, Agilent Technologies
AC$INSTRUMENT_TYPE: LC-ESI-IT
AC$MASS_SPECTROMETRY: MS_TYPE MS3
AC$MASS_SPECTROMETRY: ION_MODE POSITIVE
AC$MASS_SPECTROMETRY: COLLISION_ENERGY 0.60/0.40
MS$FOCUSED_ION: PRECURSOR_M/Z 243/150
MS$FOCUSED_ION: PRECURSOR_TYPE [M+H]+
MS$DATA_PROCESSING: WHOLE LC/MSD Trap Control and Data Analysis
PK$SPLASH: splash10-0pb9-0900000000-ffe6ad501e06acbdab61
PK$NUM_PEAK: 8
PK$PEAK: m/z int. rel.int.
  95.3 1.38 4
  105.1 9.84 26
  107.1 375.24 999
  108.1 3.15 8
  109.1 12.38 33
  133.0 9.31 25
  150.1 373.35 994
  151.0 27.59 73
//
