ACCESSION: MSBNK-Keio_Univ-KO003898
RECORD_TITLE: Paromomycin; LC-ESI-QQ; MS2; CE:20 V; [M+2H]++
DATE: 2016.01.19 (Created 2007.07.07, modified 2011.05.10)
AUTHORS: Kakazu Y, Horai H, Institute for Advanced Biosciences, Keio Univ.
LICENSE: CC BY-NC-SA
COMMENT: KEIO_ID P126
CH$NAME: Paromomycin
CH$NAME: Zygomycin A1
CH$NAME: Catenulin
CH$NAME: Monomycin A
CH$NAME: Hydroxymycin
CH$NAME: Aminosidin
CH$COMPOUND_CLASS: N/A
CH$FORMULA: C23H45N5O14
CH$EXACT_MASS: 615.29630
CH$SMILES: OCC(O1)C(O)C(O)C(N)C1OC(C(N)4)C(C(O)C(N)C4)OC(O3)C(O)C(C(CO)3)OC([H])(O2)C(N)C(O)C(O)C(CN)2
CH$IUPAC: InChI=1S/C23H45N5O14/c24-2-7-13(32)15(34)10(27)21(37-7)41-19-9(4-30)39-23(17(19)36)42-20-12(31)5(25)1-6(26)18(20)40-22-11(28)16(35)14(33)8(3-29)38-22/h5-23,29-36H,1-4,24-28H2/t5-,6+,7+,8-,9-,10-,11-,12+,13-,14-,15-,16-,17-,18-,19-,20-,21-,22-,23-/m1/s1
CH$LINK: CAS 7542-37-2
CH$LINK: KEGG C00832
CH$LINK: NIKKAJI J8.952D
CH$LINK: PUBCHEM CID:165580
CH$LINK: INCHIKEY UOZODPSAJZTQNH-IRIMDDDUSA-N
AC$INSTRUMENT: API3000, Applied Biosystems
AC$INSTRUMENT_TYPE: LC-ESI-QQ
AC$MASS_SPECTROMETRY: MS_TYPE MS2
AC$MASS_SPECTROMETRY: ION_MODE POSITIVE
AC$MASS_SPECTROMETRY: COLLISION_ENERGY 20 V
MS$FOCUSED_ION: PRECURSOR_M/Z 308.5
MS$FOCUSED_ION: PRECURSOR_TYPE [M+2H]++
PK$SPLASH: splash10-03di-2920100000-1bfa548160577995c0eb
PK$NUM_PEAK: 70
PK$PEAK: m/z int. rel.int.
  60.200 277228.0 45
  68.100 89109.0 15
  69.800 74257.5 12
  72.200 1079209.0 176
  80.000 331683.5 54
  81.900 59406.0 10
  84.000 1752477.0 286
  85.300 554456.0 91
  86.100 133663.5 22
  89.900 64356.5 11
  95.900 485149.0 79
  97.000 400990.5 65
  98.100 762377.0 124
  101.200 29703.0 5
  102.000 292079.5 48
  107.000 24752.5 4
  108.100 594060.0 97
  109.100 69307.0 11
  113.900 1386140.0 226
  115.300 113861.5 19
  125.000 2371289.5 387
  125.900 1103961.5 180
  127.100 321782.5 53
  128.800 34653.5 6
  132.300 44554.5 7
  143.100 366337.0 60
  144.100 2415844.0 394
  145.100 232673.5 38
  158.200 14851.5 2
  161.100 5707926.5 932
  162.200 6118818.0 999
  163.200 4202974.5 686
  179.200 74257.5 12
  181.100 34653.5 6
  185.200 44554.5 7
  187.200 267327.0 44
  188.800 123762.5 20
  203.100 1430694.5 234
  205.000 69307.0 11
  207.400 24752.5 4
  223.600 24752.5 4
  228.500 44554.5 7
  228.800 64356.5 11
  240.700 34653.5 6
  248.500 24752.5 4
  257.500 94059.5 15
  259.500 183168.5 30
  271.500 69307.0 11
  273.300 44554.5 7
  275.600 217822.0 36
  277.500 361386.5 59
  288.400 24752.5 4
  289.400 227723.0 37
  289.900 14851.5 2
  293.600 1891091.0 309
  294.200 59406.0 10
  295.400 2227725.0 364
  307.600 896040.5 146
  308.600 19802.0 3
  309.200 79208.0 13
  319.500 475248.0 78
  324.600 460396.5 75
  360.800 39604.0 6
  402.400 14851.5 2
  420.500 44554.5 7
  421.600 158416.0 26
  438.200 29703.0 5
  439.700 460396.5 75
  455.700 1366338.0 223
  456.500 1044555.5 171
//
