ACCESSION: MSBNK-Keio_Univ-KO001420
RECORD_TITLE: (S)-Mandelic acid; LC-ESI-QQ; MS2; CE:40 V; [M-H]-
DATE: 2016.01.19 (Created 2007.07.07, modified 2011.05.10)
AUTHORS: Kakazu Y, Horai H, Institute for Advanced Biosciences, Keio Univ.
LICENSE: CC BY-NC-SA
COMMENT: KEIO_ID M057
CH$NAME: (S)-Mandelate
CH$NAME: (S)-Mandelic acid
CH$NAME: (S)-2-Hydroxy-2-phenylacetic acid
CH$NAME: (S)-2-Hydroxy-2-phenylacetate
CH$COMPOUND_CLASS: Non-Natural Product
CH$FORMULA: C8H8O3
CH$EXACT_MASS: 152.04734
CH$SMILES: OC(=O)[C@@H](O)c(c1)cccc1
CH$IUPAC: InChI=1S/C8H8O3/c9-7(8(10)11)6-4-2-1-3-5-6/h1-5,7,9H,(H,10,11)/t7-/m0/s1
CH$LINK: CAS 90-64-2 611-72-3
CH$LINK: CHEBI CHEBI:32800
CH$LINK: CHEMPDB SMN
CH$LINK: KEGG C01984
CH$LINK: PUBCHEM CID:439616
CH$LINK: INCHIKEY IWYDHOAUDWTVEP-ZETCQYMHSA-N
AC$INSTRUMENT: API3000, Applied Biosystems
AC$INSTRUMENT_TYPE: LC-ESI-QQ
AC$MASS_SPECTROMETRY: MS_TYPE MS2
AC$MASS_SPECTROMETRY: ION_MODE NEGATIVE
AC$MASS_SPECTROMETRY: COLLISION_ENERGY 40 V
MS$FOCUSED_ION: PRECURSOR_M/Z 151
MS$FOCUSED_ION: PRECURSOR_TYPE [M-H]-
PK$SPLASH: splash10-0a4l-9100000000-817dbc1408c9336f23cc
PK$NUM_PEAK: 6
PK$PEAK: m/z int. rel.int.
  44.800 9901.0 39
  59.100 252475.5 999
  77.100 74257.5 294
  91.900 168317.0 666
  104.800 24752.5 98
  107.800 49505.0 196
//
