ACCESSION: MSBNK-Keio_Univ-KO003404
RECORD_TITLE: 5-Methoxytryptamine; LC-ESI-QQ; MS2; CE:30 V; [M+H]+
DATE: 2016.01.19 (Created 2007.07.07, modified 2011.05.10)
AUTHORS: Kakazu Y, Horai H, Institute for Advanced Biosciences, Keio Univ.
LICENSE: CC BY-NC-SA
COMMENT: KEIO_ID M040
CH$NAME: 5-Methoxytryptamine
CH$COMPOUND_CLASS: N/A
CH$FORMULA: C11H14N2O
CH$EXACT_MASS: 190.11061
CH$SMILES: COC1=CC2=C(C=C1)NC=C2CCN
CH$IUPAC: InChI=1S/C11H14N2O/c1-14-9-2-3-11-10(6-9)8(4-5-12)7-13-11/h2-3,6-7,13H,4-5,12H2,1H3
CH$LINK: CAS 608-07-1
CH$LINK: KEGG C05659
CH$LINK: NIKKAJI J7.009B
CH$LINK: PUBCHEM CID:1833
CH$LINK: INCHIKEY JTEJPPKMYBDEMY-UHFFFAOYSA-N
CH$LINK: COMPTOX DTXSID60209638
AC$INSTRUMENT: API3000, Applied Biosystems
AC$INSTRUMENT_TYPE: LC-ESI-QQ
AC$MASS_SPECTROMETRY: MS_TYPE MS2
AC$MASS_SPECTROMETRY: ION_MODE POSITIVE
AC$MASS_SPECTROMETRY: COLLISION_ENERGY 30 V
MS$FOCUSED_ION: PRECURSOR_M/Z 191
MS$FOCUSED_ION: PRECURSOR_TYPE [M+H]+
PK$SPLASH: splash10-05fr-0900000000-22d3b9e8cbdb136bcb64
PK$NUM_PEAK: 58
PK$PEAK: m/z int. rel.int.
  62.200 163366.5 2
  67.800 34653.5 1
  69.700 34653.5 1
  71.000 29703.0 1
  77.800 39604.0 1
  79.600 29703.0 1
  81.000 128713.0 2
  81.300 69307.0 1
  83.400 19802.0 1
  88.200 24752.5 1
  90.300 19802.0 1
  91.100 2000002.0 28
  94.900 44554.5 1
  96.200 29703.0 1
  102.800 227723.0 3
  104.200 198020.0 3
  105.100 371287.5 5
  106.000 178218.0 3
  106.900 430693.5 6
  107.900 202970.5 3
  108.500 29703.0 1
  114.100 64356.5 1
  115.100 3435647.0 49
  116.400 509901.5 7
  117.100 5707926.5 81
  118.000 1108912.0 16
  119.000 351485.5 5
  121.400 227723.0 3
  127.000 980199.0 14
  128.000 425743.0 6
  129.100 772278.0 11
  130.100 6143570.5 88
  131.000 23846558.5 340
  132.100 1173268.5 17
  133.100 331683.5 5
  133.800 123762.5 2
  134.500 24752.5 1
  135.000 19802.0 1
  140.100 158416.0 2
  140.900 49505.0 1
  142.200 6202976.5 88
  143.200 29514881.0 420
  144.200 4920797.0 70
  145.200 618812.5 9
  146.100 1183169.5 17
  147.100 3326736.0 47
  148.300 188119.0 3
  153.700 19802.0 1
  155.900 74257.5 1
  156.200 99010.0 1
  157.300 158416.0 2
  158.100 2153467.5 31
  159.100 67272344.5 958
  160.300 198020.0 3
  162.300 717822.5 10
  172.900 207921.0 3
  173.700 2559408.5 36
  174.200 70128783.0 999
//
