ACCESSION: MSBNK-Keio_Univ-KO002327
RECORD_TITLE: N-Acetyl-beta-alanine; LC-ESI-QQ; MS2; CE:50 V; [M+H]+
DATE: 2016.01.19 (Created 2007.07.07, modified 2011.05.10)
AUTHORS: Kakazu Y, Horai H, Institute for Advanced Biosciences, Keio Univ.
LICENSE: CC BY-NC-SA
COMMENT: KEIO_ID A138
CH$NAME: N-Acetyl-b-alanine
CH$NAME: N-Acetyl-beta-alanine
CH$COMPOUND_CLASS: N/A
CH$FORMULA: C5H9NO3
CH$EXACT_MASS: 131.05824
CH$SMILES: CC(=O)NCCC(O)=O
CH$IUPAC: InChI=1S/C5H9NO3/c1-4(7)6-3-2-5(8)9/h2-3H2,1H3,(H,6,7)(H,8,9)
CH$LINK: CAS 3025-95-4
CH$LINK: CHEBI CHEBI:16682
CH$LINK: KEGG C01073
CH$LINK: NIKKAJI J135.888J
CH$LINK: PUBCHEM CID:76406
CH$LINK: INCHIKEY LJLLAWRMBZNPMO-UHFFFAOYSA-N
CH$LINK: COMPTOX DTXSID90184343
AC$INSTRUMENT: API3000, Applied Biosystems
AC$INSTRUMENT_TYPE: LC-ESI-QQ
AC$MASS_SPECTROMETRY: MS_TYPE MS2
AC$MASS_SPECTROMETRY: ION_MODE POSITIVE
AC$MASS_SPECTROMETRY: COLLISION_ENERGY 50 V
MS$FOCUSED_ION: PRECURSOR_M/Z 132
MS$FOCUSED_ION: PRECURSOR_TYPE [M+H]+
PK$SPLASH: splash10-052f-9000000000-82a4ec08a6d87274a72f
PK$NUM_PEAK: 5
PK$PEAK: m/z int. rel.int.
  40.900 44554.5 231
  43.200 193069.5 999
  44.200 19802.0 102
  55.100 173267.5 897
  72.700 19802.0 102
//
