ACCESSION: MSBNK-Keio_Univ-KO002849
RECORD_TITLE: Ethanolamine; LC-ESI-QQ; MS2; CE:10 V; [M+H]+
DATE: 2016.01.19 (Created 2007.07.07, modified 2011.05.10)
AUTHORS: Kakazu Y, Horai H, Institute for Advanced Biosciences, Keio Univ.
LICENSE: CC BY-NC-SA
COMMENT: KEIO_ID E023
CH$NAME: Ethanolamine
CH$NAME: Aminoethanol
CH$NAME: 2-Hydroxyethylamine
CH$COMPOUND_CLASS: N/A
CH$FORMULA: C2H7NO
CH$EXACT_MASS: 61.05276
CH$SMILES: NCCO
CH$IUPAC: InChI=1S/C2H7NO/c3-1-2-4/h4H,1-3H2
CH$LINK: CAS 141-43-5
CH$LINK: CHEBI CHEBI:16000
CH$LINK: KEGG C00189
CH$LINK: NIKKAJI J2.536D
CH$LINK: PUBCHEM SID:3489
CH$LINK: INCHIKEY HZAXFHJVJLSVMW-UHFFFAOYSA-N
CH$LINK: COMPTOX DTXSID6022000
AC$INSTRUMENT: API3000, Applied Biosystems
AC$INSTRUMENT_TYPE: LC-ESI-QQ
AC$MASS_SPECTROMETRY: MS_TYPE MS2
AC$MASS_SPECTROMETRY: ION_MODE POSITIVE
AC$MASS_SPECTROMETRY: COLLISION_ENERGY 10 V
MS$FOCUSED_ION: PRECURSOR_M/Z 62
MS$FOCUSED_ION: PRECURSOR_TYPE [M+H]+
PK$SPLASH: splash10-03di-9000000000-ae5b80bd3c5c11914ea6
PK$NUM_PEAK: 3
PK$PEAK: m/z int. rel.int.
  44.000 4688123.5 145
  44.700 361386.5 11
  62.000 32217854.0 999
//
