ACCESSION: MSBNK-Keio_Univ-KO003135
RECORD_TITLE: 5-Hydroxylysine; LC-ESI-QQ; MS2; CE:30 V; [M+H]+
DATE: 2016.01.19 (Created 2007.07.07, modified 2011.05.10)
AUTHORS: Kakazu Y, Horai H, Institute for Advanced Biosciences, Keio Univ.
LICENSE: CC BY-NC-SA
COMMENT: KEIO_ID H064
CH$NAME: 5-Hydroxylysine
CH$NAME: 5-Hydroxy-L-lysine
CH$NAME: Procollagen 5-hydroxy-L-lysine
CH$NAME: Procollagen L-erythro-5-hydroxy-L-lysine
CH$COMPOUND_CLASS: N/A
CH$FORMULA: C6H14N2O3
CH$EXACT_MASS: 162.10044
CH$SMILES: C(C[C@@H](C(=O)O)N)[C@H](CN)O
CH$IUPAC: InChI=1S/C6H14N2O3/c7-3-4(9)1-2-5(8)6(10)11/h4-5,9H,1-3,7-8H2,(H,10,11)/t4-,5+/m1/s1
CH$LINK: CAS 1190-94-9
CH$LINK: CHEBI CHEBI:18040
CH$LINK: KEGG C01211
CH$LINK: NIKKAJI J38.540I
CH$LINK: PUBCHEM CID:3032849
CH$LINK: INCHIKEY YSMODUONRAFBET-UHNVWZDZSA-N
AC$INSTRUMENT: API3000, Applied Biosystems
AC$INSTRUMENT_TYPE: LC-ESI-QQ
AC$MASS_SPECTROMETRY: MS_TYPE MS2
AC$MASS_SPECTROMETRY: ION_MODE POSITIVE
AC$MASS_SPECTROMETRY: COLLISION_ENERGY 30 V
MS$FOCUSED_ION: PRECURSOR_M/Z 163
MS$FOCUSED_ION: PRECURSOR_TYPE [M+H]+
PK$SPLASH: splash10-0159-9800000000-a1abb141c005e09a4ce9
PK$NUM_PEAK: 34
PK$PEAK: m/z int. rel.int.
  44.000 69307.0 2
  46.200 311881.5 8
  54.000 44554.5 1
  55.200 5762382.0 157
  56.300 4772282.0 130
  57.100 79208.0 2
  58.200 1148516.0 31
  59.100 3737627.5 102
  64.900 54455.5 1
  67.000 480198.5 13
  70.000 623763.0 17
  72.000 123762.5 3
  73.900 4628717.5 126
  79.800 287129.0 8
  82.300 21272298.5 578
  83.000 539604.5 15
  84.000 2905943.5 79
  84.900 29703.0 1
  86.000 39604.0 1
  87.900 19802.0 1
  98.900 351485.5 10
  100.000 3306934.0 90
  102.100 54455.5 1
  105.900 49505.0 1
  108.700 9901.0 1
  110.100 153465.5 4
  111.000 24752.5 1
  114.000 207921.0 6
  117.100 118812.0 3
  118.300 36772314.0 999
  128.200 1821784.0 49
  130.000 118812.0 3
  132.100 54455.5 1
  146.000 202970.5 6
//
