ACCESSION: MSBNK-Keio_Univ-KO009299
RECORD_TITLE: Thiamine monophosphate; LC-ESI-IT; MS3; m/z: 345/122; [M+H]+
DATE: 2011.12.05 (Created 2008.05.12)
AUTHORS: Ojima Y, Kakazu Y, Horai H, Soga T, Institute for Advanced Biosciences, Keio Univ.
LICENSE: CC BY-NC-SA
COMMENT: KEIO_ID T057
COMMENT: [MS2] KO009297
CH$NAME: Thiamine monophosphate
CH$NAME: Thiamin phosphate
CH$NAME: Thiamine phosphate
CH$NAME: Thiamin monophosphate
CH$NAME: TMP
CH$COMPOUND_CLASS: N/A
CH$FORMULA: [C12H18N4O4PS]+
CH$EXACT_MASS: 345.07864
CH$SMILES: Cc(n2)nc(N)c(c2)C[n+1](c1)c(C)c(CCOP(O)(O)=O)s1
CH$IUPAC: InChI=1S/C12H17N4O4PS/c1-8-11(3-4-20-21(17,18)19)22-7-16(8)6-10-5-14-9(2)15-12(10)13/h5,7H,3-4,6H2,1-2H3,(H3-,13,14,15,17,18,19)/p+1
CH$LINK: CAS 532-40-1
CH$LINK: CHEBI CHEBI:18338
CH$LINK: KEGG C01081
CH$LINK: NIKKAJI J244.613H
CH$LINK: PUBCHEM SID:4319
CH$LINK: INCHIKEY HZSAJDVWZRBGIF-UHFFFAOYSA-O
CH$LINK: COMPTOX DTXSID6048389
AC$INSTRUMENT: LC/MSD Trap XCT, Agilent Technologies
AC$INSTRUMENT_TYPE: LC-ESI-IT
AC$MASS_SPECTROMETRY: MS_TYPE MS3
AC$MASS_SPECTROMETRY: ION_MODE POSITIVE
AC$MASS_SPECTROMETRY: COLLISION_ENERGY 0.80/0.60
MS$FOCUSED_ION: PRECURSOR_M/Z 345/122
MS$FOCUSED_ION: PRECURSOR_TYPE [M+H]+
MS$DATA_PROCESSING: WHOLE LC/MSD Trap Control and Data Analysis
PK$SPLASH: splash10-001i-9100000000-d3538efc82c97417472b
PK$NUM_PEAK: 10
PK$PEAK: m/z int. rel.int.
  80.1 10.73 74
  81.1 145.33 999
  95.1 6.91 47
  122.1 24.33 167
  167.1 1.75 12
  341.8 5.01 34
  342.7 3.16 22
  343.9 3.70 25
  382.1 1.22 8
  388.6 2.46 17
//
