ACCESSION: MSBNK-Keio_Univ-KO001389
RECORD_TITLE: 3-Methylguanine; LC-ESI-QQ; MS2; CE:10 V; [M-H]-
DATE: 2016.01.19 (Created 2007.07.07, modified 2011.05.10)
AUTHORS: Kakazu Y, Horai H, Institute for Advanced Biosciences, Keio Univ.
LICENSE: CC BY-NC-SA
COMMENT: KEIO_ID M042
CH$NAME: 3-Methylguanine
CH$NAME: 2-Amino-3,7-dihydro-3-methyl-6H-purin-6-one
CH$COMPOUND_CLASS: N/A
CH$FORMULA: C6H7N5O
CH$EXACT_MASS: 165.06506
CH$SMILES: CN1C2=C(C(=O)N=C1N)NC=N2
CH$IUPAC: InChI=1S/C6H7N5O/c1-11-4-3(8-2-9-4)5(12)10-6(11)7/h2H,1H3,(H,8,9)(H2,7,10,12)
CH$LINK: CAS 2958-98-7
CH$LINK: KEGG C02230
CH$LINK: NIKKAJI J101.565F
CH$LINK: PUBCHEM CID:76292
CH$LINK: INCHIKEY XHBSBNYEHDQRCP-UHFFFAOYSA-N
CH$LINK: COMPTOX DTXSID90183755
AC$INSTRUMENT: API3000, Applied Biosystems
AC$INSTRUMENT_TYPE: LC-ESI-QQ
AC$MASS_SPECTROMETRY: MS_TYPE MS2
AC$MASS_SPECTROMETRY: ION_MODE NEGATIVE
AC$MASS_SPECTROMETRY: COLLISION_ENERGY 10 V
MS$FOCUSED_ION: PRECURSOR_M/Z 164
MS$FOCUSED_ION: PRECURSOR_TYPE [M-H]-
PK$SPLASH: splash10-03di-0900000000-c4ba0ed5b3ac83a6d773
PK$NUM_PEAK: 5
PK$PEAK: m/z int. rel.int.
  93.500 9901.0 1
  118.300 193069.5 12
  120.500 24752.5 2
  122.400 222772.5 14
  164.200 15990115.0 999
//
