ACCESSION: MSBNK-Keio_Univ-KO003813
RECORD_TITLE: Palmatine; LC-ESI-QQ; MS2; CE:10 V; [M+H]+
DATE: 2016.01.19 (Created 2007.07.07, modified 2011.05.10)
AUTHORS: Kakazu Y, Horai H, Institute for Advanced Biosciences, Keio Univ.
LICENSE: CC BY-NC-SA
COMMENT: KEIO_ID P071
CH$NAME: Palmatine
CH$NAME: 5,6-Dihydro-2,3,9,10-tetramethoxydibenzo[a,g]quinolizinium
CH$COMPOUND_CLASS: N/A
CH$FORMULA: [C21H22NO4]+
CH$EXACT_MASS: 352.15488
CH$SMILES: COc(c4)c(OC)cc(c34)c(c1)[n+1](CC3)cc(c(OC)2)c(ccc(OC)2)1
CH$IUPAC: InChI=1S/C21H22NO4/c1-23-18-6-5-13-9-17-15-11-20(25-3)19(24-2)10-14(15)7-8-22(17)12-16(13)21(18)26-4/h5-6,9-12H,7-8H2,1-4H3/q+1
CH$LINK: CAS 3486-67-7
CH$LINK: CHEBI CHEBI:16096
CH$LINK: KEGG C05315
CH$LINK: NIKKAJI J12.970D
CH$LINK: PUBCHEM CID:19009
CH$LINK: INCHIKEY QUCQEUCGKKTEBI-UHFFFAOYSA-N
CH$LINK: COMPTOX DTXSID9048065
AC$INSTRUMENT: API3000, Applied Biosystems
AC$INSTRUMENT_TYPE: LC-ESI-QQ
AC$MASS_SPECTROMETRY: MS_TYPE MS2
AC$MASS_SPECTROMETRY: ION_MODE POSITIVE
AC$MASS_SPECTROMETRY: COLLISION_ENERGY 10 V
MS$FOCUSED_ION: PRECURSOR_M/Z 353
MS$FOCUSED_ION: PRECURSOR_TYPE [M+H]+
PK$SPLASH: splash10-0udi-0009000000-a0c6a58b1f97c2863be2
PK$NUM_PEAK: 17
PK$PEAK: m/z int. rel.int.
  118.200 44554.5 1
  173.300 89109.0 1
  200.400 14851.5 1
  217.000 14851.5 1
  232.900 29703.0 1
  235.200 118812.0 1
  262.100 34653.5 1
  292.400 49505.0 1
  307.900 49505.0 1
  308.500 69307.0 1
  311.600 59406.0 1
  314.000 9901.0 1
  318.000 19802.0 1
  335.700 89109.0 1
  336.500 118812.0 1
  337.200 272277.5 1
  352.500 325267652.0 999
//
