ACCESSION: MSBNK-Keio_Univ-KO000117
RECORD_TITLE: 1-Aminoethylphosphonic acid; LC-ESI-QQ; MS2; CE:50 V; [M-H]-
DATE: 2016.01.19 (Created 2007.07.07, modified 2011.05.10)
AUTHORS: Kakazu Y, Horai H, Institute for Advanced Biosciences, Keio Univ.
LICENSE: CC BY-NC-SA
COMMENT: KEIO_ID A057
CH$NAME: 1-Aminoethylphosphonate
CH$NAME: D-(1-Aminoethyl)phosphonic acid
CH$NAME: D-(1-Aminoethyl)phosphonate
CH$NAME: 1-Aminoethylphosphonic acid
CH$COMPOUND_CLASS: Non-Natural Product
CH$FORMULA: C2H8NO3P
CH$EXACT_MASS: 125.02418
CH$SMILES: CC(N)P(O)(O)=O
CH$IUPAC: InChI=1S/C2H8NO3P/c1-2(3)7(4,5)6/h2H,3H2,1H3,(H2,4,5,6)/t2-/m1/s1
CH$LINK: CAS 6323-97-3
CH$LINK: KEGG C03782
CH$LINK: NIKKAJI J81.190D
CH$LINK: PUBCHEM CID:185992
CH$LINK: INCHIKEY UIQSKEDQPSEGAU-UWTATZPHSA-N
CH$LINK: COMPTOX DTXSID10976121
AC$INSTRUMENT: API3000, Applied Biosystems
AC$INSTRUMENT_TYPE: LC-ESI-QQ
AC$MASS_SPECTROMETRY: MS_TYPE MS2
AC$MASS_SPECTROMETRY: ION_MODE NEGATIVE
AC$MASS_SPECTROMETRY: COLLISION_ENERGY 50 V
MS$FOCUSED_ION: PRECURSOR_M/Z 124
MS$FOCUSED_ION: PRECURSOR_TYPE [M-H]-
PK$SPLASH: splash10-01t9-9000000000-959e308bdea07c8ef709
PK$NUM_PEAK: 3
PK$PEAK: m/z int. rel.int.
  62.900 6222778.5 872
  79.000 7128720.0 999
  80.000 153465.5 22
//
