ACCESSION: MSBNK-Keio_Univ-KO004184
RECORD_TITLE: Tryptophanamide; LC-ESI-QQ; MS2; CE:40 V; [M+H]+
DATE: 2016.01.19 (Created 2007.07.07, modified 2011.05.10)
AUTHORS: Kakazu Y, Horai H, Institute for Advanced Biosciences, Keio Univ.
LICENSE: CC BY-NC-SA
COMMENT: KEIO_ID T054
CH$NAME: Tryptophanamide
CH$NAME: L-Tryptophanamide
CH$COMPOUND_CLASS: N/A
CH$FORMULA: C11H13N3O
CH$EXACT_MASS: 203.10586
CH$SMILES: C1=CC=C2C(=C1)C(=CN2)C[C@@H](C(=O)N)N
CH$IUPAC: InChI=1S/C11H13N3O/c12-9(11(13)15)5-7-6-14-10-4-2-1-3-8(7)10/h1-4,6,9,14H,5,12H2,(H2,13,15)/t9-/m0/s1
CH$LINK: KEGG C00977
CH$LINK: PUBCHEM CID:439356
CH$LINK: INCHIKEY JLSKPBDKNIXMBS-VIFPVBQESA-N
AC$INSTRUMENT: API3000, Applied Biosystems
AC$INSTRUMENT_TYPE: LC-ESI-QQ
AC$MASS_SPECTROMETRY: MS_TYPE MS2
AC$MASS_SPECTROMETRY: ION_MODE POSITIVE
AC$MASS_SPECTROMETRY: COLLISION_ENERGY 40 V
MS$FOCUSED_ION: PRECURSOR_M/Z 204
MS$FOCUSED_ION: PRECURSOR_TYPE [M+H]+
PK$SPLASH: splash10-00lu-0900000000-a374b7c91ac54103fc7e
PK$NUM_PEAK: 60
PK$PEAK: m/z int. rel.int.
  44.000 202970.5 9
  44.400 29703.0 1
  54.000 24752.5 1
  55.200 217822.0 10
  65.100 69307.0 3
  67.100 79208.0 4
  68.400 29703.0 1
  69.200 69307.0 3
  69.900 29703.0 1
  71.200 34653.5 2
  73.100 940595.0 42
  76.900 297030.0 13
  79.300 108911.0 5
  79.800 128713.0 6
  80.900 232673.5 10
  83.400 9901.0 1
  84.800 69307.0 3
  87.400 14851.5 1
  90.000 29703.0 1
  90.900 1346536.0 60
  91.700 173267.5 8
  92.900 341584.5 15
  95.400 59406.0 3
  97.700 133663.5 6
  98.800 163366.5 7
  102.100 49505.0 2
  102.800 618812.5 28
  103.800 108911.0 5
  104.900 1202971.5 54
  105.900 247525.0 11
  106.900 24752.5 1
  108.500 79208.0 4
  113.100 1396041.0 62
  114.000 94059.5 4
  115.300 12103972.5 540
  116.100 1044555.5 47
  117.100 18321800.5 818
  118.200 6490105.5 290
  119.000 123762.5 6
  126.000 331683.5 15
  127.100 1559407.5 70
  128.100 569307.5 25
  129.200 148515.0 7
  130.100 15356451.0 686
  131.100 440594.5 20
  132.100 22376260.0 999
  133.000 103960.5 5
  140.000 653466.0 29
  142.100 9801990.0 438
  143.300 3534657.0 158
  144.200 7361393.5 329
  145.000 2361388.5 105
  146.100 74257.5 3
  154.900 59406.0 3
  157.100 143564.5 6
  157.900 896040.5 40
  159.200 3534657.0 158
  160.100 267327.0 12
  169.000 69307.0 3
  170.300 1089110.0 49
//
