ACCESSION: MSBNK-Keio_Univ-KO000328
RECORD_TITLE: Butanoic acid; LC-ESI-QQ; MS2; CE:10 V; [M-H]-
DATE: 2016.01.19 (Created 2007.07.07, modified 2011.05.10)
AUTHORS: Kakazu Y, Horai H, Institute for Advanced Biosciences, Keio Univ.
LICENSE: CC BY-NC-SA
COMMENT: KEIO_ID B006
CH$NAME: Butanoate
CH$NAME: Butyrate
CH$NAME: Butanoic acid
CH$NAME: Butyric acid
CH$COMPOUND_CLASS: N/A
CH$FORMULA: C4H8O2
CH$EXACT_MASS: 88.05243
CH$SMILES: CCCC(O)=O
CH$IUPAC: InChI=1S/C4H8O2/c1-2-3-4(5)6/h2-3H2,1H3,(H,5,6)
CH$LINK: CAS 107-92-6
CH$LINK: CHEBI CHEBI:30772
CH$LINK: CHEMPDB BUA
CH$LINK: KEGG C00246
CH$LINK: NIKKAJI J4.068A
CH$LINK: PUBCHEM SID:3545
CH$LINK: INCHIKEY FERIUCNNQQJTOY-UHFFFAOYSA-N
CH$LINK: COMPTOX DTXSID8021515
AC$INSTRUMENT: API3000, Applied Biosystems
AC$INSTRUMENT_TYPE: LC-ESI-QQ
AC$MASS_SPECTROMETRY: MS_TYPE MS2
AC$MASS_SPECTROMETRY: ION_MODE NEGATIVE
AC$MASS_SPECTROMETRY: COLLISION_ENERGY 10 V
MS$FOCUSED_ION: PRECURSOR_M/Z 87
MS$FOCUSED_ION: PRECURSOR_TYPE [M-H]-
PK$SPLASH: splash10-000i-9000000000-9ae015043b014b3c93d9
PK$NUM_PEAK: 6
PK$PEAK: m/z int. rel.int.
  42.200 19802.0 1
  43.100 128713.0 1
  57.900 34653.5 1
  84.900 14851.5 1
  87.100 201856637.5 999
  104.900 19802.0 1
//
