ACCESSION: MSBNK-Keio_Univ-KO000361
RECORD_TITLE: Benzoylformic acid; LC-ESI-QQ; MS2; CE:10 V; [M-H]-
DATE: 2016.01.19 (Created 2007.07.07, modified 2011.05.10)
AUTHORS: Kakazu Y, Horai H, Institute for Advanced Biosciences, Keio Univ.
LICENSE: CC BY-NC-SA
COMMENT: KEIO_ID B041
CH$NAME: Benzoylformate
CH$NAME: Phenylglyoxylic acid
CH$NAME: Benzoylformic acid
CH$NAME: alpha-Oxo-benzeneacetic acid
CH$NAME: Phenylglyoxylate
CH$COMPOUND_CLASS: N/A
CH$FORMULA: C8H6O3
CH$EXACT_MASS: 150.03169
CH$SMILES: OC(=O)C(=O)c(c1)cccc1
CH$IUPAC: InChI=1S/C8H6O3/c9-7(8(10)11)6-4-2-1-3-5-6/h1-5H,(H,10,11)
CH$LINK: CAS 611-73-4
CH$LINK: CHEBI CHEBI:18280
CH$LINK: KEGG C02137
CH$LINK: NIKKAJI J2.992K
CH$LINK: PUBCHEM CID:11915
CH$LINK: INCHIKEY FAQJJMHZNSSFSM-UHFFFAOYSA-N
CH$LINK: COMPTOX DTXSID80209993
AC$INSTRUMENT: API3000, Applied Biosystems
AC$INSTRUMENT_TYPE: LC-ESI-QQ
AC$MASS_SPECTROMETRY: MS_TYPE MS2
AC$MASS_SPECTROMETRY: ION_MODE NEGATIVE
AC$MASS_SPECTROMETRY: COLLISION_ENERGY 10 V
MS$FOCUSED_ION: PRECURSOR_M/Z 149
MS$FOCUSED_ION: PRECURSOR_TYPE [M-H]-
PK$SPLASH: splash10-0002-0900000000-22fd9c3f15b7011e1779
PK$NUM_PEAK: 16
PK$PEAK: m/z int. rel.int.
  59.100 792080.0 4
  77.200 24059430.0 109
  86.700 49505.0 1
  93.300 44554.5 1
  95.200 54455.5 1
  96.700 29703.0 1
  103.200 19802.0 1
  105.000 20955466.5 95
  107.400 39604.0 1
  116.100 44554.5 1
  121.000 1722774.0 8
  123.100 74257.5 1
  130.900 24752.5 1
  148.100 143564.5 1
  148.900 220218042.0 999
  166.700 19802.0 1
//
