ACCESSION: MSBNK-Keio_Univ-KO009085
RECORD_TITLE: Z-Gly-Pro; LC-ESI-IT; MS4; m/z: 307/263/120; [M+H]+
DATE: 2011.12.05 (Created 2008.05.12)
AUTHORS: Ojima Y, Kakazu Y, Horai H, Soga T, Institute for Advanced Biosciences, Keio Univ.
LICENSE: CC BY-NC-SA
COMMENT: KEIO_ID Z003
COMMENT: [MS3] KO009084
CH$NAME: Z-Gly-Pro
CH$NAME: Z-Gly-Pro-OH
CH$COMPOUND_CLASS: N/A
CH$FORMULA: C15H18N2O5
CH$EXACT_MASS: 306.12157
CH$SMILES: O=C(OCc(c2)cccc2)NCC(=O)N(C1)C(CC1)C(O)=O
CH$IUPAC: InChI=1S/C15H18N2O5/c18-13(17-8-4-7-12(17)14(19)20)9-16-15(21)22-10-11-5-2-1-3-6-11/h1-3,5-6,12H,4,7-10H2,(H,16,21)(H,19,20)
CH$LINK: CAS 1160-54-9
CH$LINK: KEGG C01632
CH$LINK: NIKKAJI J203.419K
CH$LINK: PUBCHEM CID:439540
CH$LINK: INCHIKEY ZTUKZKYDJMGJDC-UHFFFAOYSA-N
AC$INSTRUMENT: LC/MSD Trap XCT, Agilent Technologies
AC$INSTRUMENT_TYPE: LC-ESI-IT
AC$MASS_SPECTROMETRY: MS_TYPE MS4
AC$MASS_SPECTROMETRY: ION_MODE POSITIVE
AC$MASS_SPECTROMETRY: COLLISION_ENERGY 0.70/0.80/0.50
MS$FOCUSED_ION: PRECURSOR_M/Z 307/263/120
MS$FOCUSED_ION: PRECURSOR_TYPE [M+H]+
MS$DATA_PROCESSING: WHOLE LC/MSD Trap Control and Data Analysis
PK$SPLASH: splash10-0006-9000000000-025acd9057b17673b705
PK$NUM_PEAK: 2
PK$PEAK: m/z int. rel.int.
  91.1 472.62 999
  120.1 31.98 68
//
