ACCESSION: MSBNK-Keio_Univ-KO002065
RECORD_TITLE: L-Aspartic acid; LC-ESI-QQ; MS2; CE:30 V; [M+H]+
DATE: 2016.01.19 (Created 2007.07.07, modified 2011.05.10)
AUTHORS: Kakazu Y, Horai H, Institute for Advanced Biosciences, Keio Univ.
LICENSE: CC BY-NC-SA
COMMENT: KEIO_ID A017
CH$NAME: Asp
CH$NAME: L-Aspartate
CH$NAME: L-Aspartic acid
CH$NAME: 2-Aminosuccinic acid
CH$COMPOUND_CLASS: N/A
CH$FORMULA: C4H7NO4
CH$EXACT_MASS: 133.03751
CH$SMILES: OC(=O)CC(N)C(O)=O
CH$IUPAC: InChI=1S/C4H7NO4/c5-2(4(8)9)1-3(6)7/h2H,1,5H2,(H,6,7)(H,8,9)/t2-/m0/s1
CH$LINK: CAS 56-84-8
CH$LINK: CHEBI CHEBI:17053
CH$LINK: CHEMPDB ASP
CH$LINK: KEGG C00049
CH$LINK: NIKKAJI J9.169C
CH$LINK: PUBCHEM SID:3351
CH$LINK: INCHIKEY CKLJMWTZIZZHCS-REOHCLBHSA-N
CH$LINK: COMPTOX DTXSID7022621
AC$INSTRUMENT: API3000, Applied Biosystems
AC$INSTRUMENT_TYPE: LC-ESI-QQ
AC$MASS_SPECTROMETRY: MS_TYPE MS2
AC$MASS_SPECTROMETRY: ION_MODE POSITIVE
AC$MASS_SPECTROMETRY: COLLISION_ENERGY 30 V
MS$FOCUSED_ION: PRECURSOR_M/Z 134
MS$FOCUSED_ION: PRECURSOR_TYPE [M+H]+
PK$SPLASH: splash10-00di-9000000000-836341c418f94179fa14
PK$NUM_PEAK: 15
PK$PEAK: m/z int. rel.int.
  41.600 54455.5 14
  43.000 430693.5 112
  46.000 227723.0 59
  55.000 34653.5 9
  57.200 84158.5 22
  70.200 1396041.0 362
  71.000 267327.0 69
  72.100 252475.5 65
  74.000 3856439.5 999
  74.900 99010.0 26
  77.100 34653.5 9
  88.200 579208.5 150
  88.900 34653.5 9
  99.200 74257.5 19
  101.700 24752.5 6
//
