ACCESSION: MSBNK-Keio_Univ-KO003129
RECORD_TITLE: Histamine; LC-ESI-QQ; MS2; CE:20 V; [M+H]+
DATE: 2016.01.19 (Created 2007.07.07, modified 2011.05.10)
AUTHORS: Kakazu Y, Horai H, Institute for Advanced Biosciences, Keio Univ.
LICENSE: CC BY-NC-SA
COMMENT: KEIO_ID H058
CH$NAME: Histamine
CH$NAME: 2-(4-Imidazolyl)ethylamine
CH$NAME: 1H-Imidazole-4-ethanamine
CH$COMPOUND_CLASS: N/A
CH$FORMULA: C5H9N3
CH$EXACT_MASS: 111.07965
CH$SMILES: C1=C(NC=N1)CCN
CH$IUPAC: InChI=1S/C5H9N3/c6-2-1-5-3-7-4-8-5/h3-4H,1-2,6H2,(H,7,8)
CH$LINK: CAS 51-45-6
CH$LINK: CHEBI CHEBI:18295
CH$LINK: CHEMPDB HSM
CH$LINK: KEGG C00388
CH$LINK: NIKKAJI J4.117C
CH$LINK: PUBCHEM SID:3678
CH$LINK: INCHIKEY NTYJJOPFIAHURM-UHFFFAOYSA-N
CH$LINK: COMPTOX DTXSID4023125
AC$INSTRUMENT: API3000, Applied Biosystems
AC$INSTRUMENT_TYPE: LC-ESI-QQ
AC$MASS_SPECTROMETRY: MS_TYPE MS2
AC$MASS_SPECTROMETRY: ION_MODE POSITIVE
AC$MASS_SPECTROMETRY: COLLISION_ENERGY 20 V
MS$FOCUSED_ION: PRECURSOR_M/Z 112
MS$FOCUSED_ION: PRECURSOR_TYPE [M+H]+
PK$SPLASH: splash10-0002-9100000000-37450d9969c24ad44ad7
PK$NUM_PEAK: 11
PK$PEAK: m/z int. rel.int.
  41.300 19802.0 1
  67.200 143564.5 1
  68.000 5074262.5 32
  77.700 54455.5 1
  79.900 277228.0 2
  82.100 603961.0 4
  83.100 13034666.5 81
  86.000 108911.0 1
  95.100 160049665.0 999
  110.000 34653.5 1
  112.100 27559433.5 172
//
