ACCESSION: MSBNK-Keio_Univ-KO001972
RECORD_TITLE: 2,4,5-Trichlorophenoxyacetate; LC-ESI-QQ; MS2; CE:50 V; [M-H]-
DATE: 2016.01.19 (Created 2007.07.07, modified 2011.05.10)
AUTHORS: Kakazu Y, Horai H, Institute for Advanced Biosciences, Keio Univ.
LICENSE: CC BY-NC-SA
COMMENT: KEIO_ID T113
CH$NAME: 2,4,5-Trichlorophenoxyacetate
CH$NAME: 2,4,5-Trichlorophenoxyacetic acid
CH$COMPOUND_CLASS: N/A
CH$FORMULA: C8H5Cl3O3
CH$EXACT_MASS: 253.93043
CH$SMILES: OC(=O)COc(c1)c(Cl)cc(Cl)c(Cl)1
CH$IUPAC: InChI=1S/C8H5Cl3O3/c9-4-1-6(11)7(2-5(4)10)14-3-8(12)13/h1-2H,3H2,(H,12,13)
CH$LINK: CAS 93-76-5
CH$LINK: KEGG C07100
CH$LINK: NIKKAJI J3.941A
CH$LINK: PUBCHEM SID:9311
CH$LINK: INCHIKEY SMYMJHWAQXWPDB-UHFFFAOYSA-N
CH$LINK: COMPTOX DTXSID5021388
AC$INSTRUMENT: API3000, Applied Biosystems
AC$INSTRUMENT_TYPE: LC-ESI-QQ
AC$MASS_SPECTROMETRY: MS_TYPE MS2
AC$MASS_SPECTROMETRY: ION_MODE NEGATIVE
AC$MASS_SPECTROMETRY: COLLISION_ENERGY 50 V
MS$FOCUSED_ION: PRECURSOR_M/Z 253
MS$FOCUSED_ION: PRECURSOR_TYPE [M-H]-
PK$SPLASH: splash10-0a4i-1900000000-be70485f8a7b4292a8fd
PK$NUM_PEAK: 8
PK$PEAK: m/z int. rel.int.
  35.200 267327.0 100
  58.900 44554.5 17
  78.300 19802.0 7
  95.000 69307.0 26
  96.800 34653.5 13
  123.100 321782.5 120
  158.800 2668319.5 999
  195.300 391089.5 146
//
