ACCESSION: MSBNK-Keio_Univ-KO003074
RECORD_TITLE: Hypoxanthine; LC-ESI-QQ; MS2; CE:20 V; [M+H]+
DATE: 2016.01.19 (Created 2007.07.07, modified 2011.05.10)
AUTHORS: Kakazu Y, Horai H, Institute for Advanced Biosciences, Keio Univ.
LICENSE: CC BY-NC-SA
COMMENT: KEIO_ID H014
CH$NAME: Hypoxanthine
CH$NAME: Purine-6-ol
CH$COMPOUND_CLASS: N/A
CH$FORMULA: C5H4N4O
CH$EXACT_MASS: 136.03851
CH$SMILES: C1=NC2=C(N1)C(=O)N=CN2
CH$IUPAC: InChI=1S/C5H4N4O/c10-5-3-4(7-1-6-3)8-2-9-5/h1-2H,(H2,6,7,8,9,10)
CH$LINK: CAS 68-94-0
CH$LINK: CHEBI CHEBI:17368
CH$LINK: CHEMPDB HPA
CH$LINK: KEGG C00262
CH$LINK: NIKKAJI J1.934H
CH$LINK: PUBCHEM CID:135398638
CH$LINK: INCHIKEY FDGQSTZJBFJUBT-UHFFFAOYSA-N
CH$LINK: COMPTOX DTXSID8045983
AC$INSTRUMENT: API3000, Applied Biosystems
AC$INSTRUMENT_TYPE: LC-ESI-QQ
AC$MASS_SPECTROMETRY: MS_TYPE MS2
AC$MASS_SPECTROMETRY: ION_MODE POSITIVE
AC$MASS_SPECTROMETRY: COLLISION_ENERGY 20 V
MS$FOCUSED_ION: PRECURSOR_M/Z 137
MS$FOCUSED_ION: PRECURSOR_TYPE [M+H]+
PK$SPLASH: splash10-014i-9000000000-f295755f591e27bb9f07
PK$NUM_PEAK: 19
PK$PEAK: m/z int. rel.int.
  54.800 29703.0 1
  56.200 19802.0 1
  57.200 49505.0 1
  61.800 34653.5 1
  69.100 60594120.0 999
  69.800 64356.5 1
  73.900 762377.0 13
  80.700 24752.5 1
  83.100 49505.0 1
  84.100 133663.5 2
  86.000 9901.0 1
  88.500 39604.0 1
  92.800 14851.5 1
  93.800 24752.5 1
  100.900 14851.5 1
  102.000 202970.5 3
  119.400 84158.5 1
  120.200 316832.0 5
  137.400 529703.5 9
//
