ACCESSION: MSBNK-Keio_Univ-KO001406
RECORD_TITLE: 4-Methylpentanoic acid; LC-ESI-QQ; MS2; CE:30 V; [M-H]-
DATE: 2016.01.19 (Created 2007.07.07, modified 2011.05.10)
AUTHORS: Kakazu Y, Horai H, Institute for Advanced Biosciences, Keio Univ.
LICENSE: CC BY-NC-SA
COMMENT: KEIO_ID M052
CH$NAME: 4-Methylpentanoate
CH$NAME: Alpha-chloroisocaproic acid
CH$NAME: 4-Methylpentanoic acid
CH$NAME: Valeric acid, 4-methyl-
CH$NAME: 4-methyl-pentanoic acid
CH$NAME: 4-methyl valeric acid
CH$NAME: 4MV
CH$NAME: Pentanoic acid, 4-methyl-
CH$NAME: HRI
CH$NAME: Isocaproic acid
CH$COMPOUND_CLASS: N/A
CH$FORMULA: C6H12O2
CH$EXACT_MASS: 116.08373
CH$SMILES: CC(C)CCC(O)=O
CH$IUPAC: InChI=1S/C6H12O2/c1-5(2)3-4-6(7)8/h5H,3-4H2,1-2H3,(H,7,8)
CH$LINK: PUBCHEM SID:833386
CH$LINK: INCHIKEY FGKJLKRYENPLQH-UHFFFAOYSA-N
CH$LINK: COMPTOX DTXSID8060951
AC$INSTRUMENT: API3000, Applied Biosystems
AC$INSTRUMENT_TYPE: LC-ESI-QQ
AC$MASS_SPECTROMETRY: MS_TYPE MS2
AC$MASS_SPECTROMETRY: ION_MODE NEGATIVE
AC$MASS_SPECTROMETRY: COLLISION_ENERGY 30 V
MS$FOCUSED_ION: PRECURSOR_M/Z 115
MS$FOCUSED_ION: PRECURSOR_TYPE [M-H]-
PK$SPLASH: splash10-03di-4900000000-853711a3867735db4fa2
PK$NUM_PEAK: 3
PK$PEAK: m/z int. rel.int.
  58.800 14851.5 200
  69.300 19802.0 266
  114.800 74257.5 999
//
