ACCESSION: MSBNK-Keio_Univ-KO003899
RECORD_TITLE: Paromomycin; LC-ESI-QQ; MS2; CE:30 V; [M+2H]++
DATE: 2016.01.19 (Created 2007.07.07, modified 2011.05.10)
AUTHORS: Kakazu Y, Horai H, Institute for Advanced Biosciences, Keio Univ.
LICENSE: CC BY-NC-SA
COMMENT: KEIO_ID P126
CH$NAME: Paromomycin
CH$NAME: Zygomycin A1
CH$NAME: Catenulin
CH$NAME: Monomycin A
CH$NAME: Hydroxymycin
CH$NAME: Aminosidin
CH$COMPOUND_CLASS: N/A
CH$FORMULA: C23H45N5O14
CH$EXACT_MASS: 615.29630
CH$SMILES: OCC(O1)C(O)C(O)C(N)C1OC(C(N)4)C(C(O)C(N)C4)OC(O3)C(O)C(C(CO)3)OC([H])(O2)C(N)C(O)C(O)C(CN)2
CH$IUPAC: InChI=1S/C23H45N5O14/c24-2-7-13(32)15(34)10(27)21(37-7)41-19-9(4-30)39-23(17(19)36)42-20-12(31)5(25)1-6(26)18(20)40-22-11(28)16(35)14(33)8(3-29)38-22/h5-23,29-36H,1-4,24-28H2/t5-,6+,7+,8-,9-,10-,11-,12+,13-,14-,15-,16-,17-,18-,19-,20-,21-,22-,23-/m1/s1
CH$LINK: CAS 7542-37-2
CH$LINK: KEGG C00832
CH$LINK: NIKKAJI J8.952D
CH$LINK: PUBCHEM CID:165580
CH$LINK: INCHIKEY UOZODPSAJZTQNH-IRIMDDDUSA-N
AC$INSTRUMENT: API3000, Applied Biosystems
AC$INSTRUMENT_TYPE: LC-ESI-QQ
AC$MASS_SPECTROMETRY: MS_TYPE MS2
AC$MASS_SPECTROMETRY: ION_MODE POSITIVE
AC$MASS_SPECTROMETRY: COLLISION_ENERGY 30 V
MS$FOCUSED_ION: PRECURSOR_M/Z 308.5
MS$FOCUSED_ION: PRECURSOR_TYPE [M+2H]++
PK$SPLASH: splash10-03di-5910000000-66e35d1f73ed80f0bfe4
PK$NUM_PEAK: 97
PK$PEAK: m/z int. rel.int.
  44.100 44554.5 7
  56.100 123762.5 19
  56.500 49505.0 8
  60.000 1019803.0 158
  67.900 326733.0 51
  69.200 217822.0 34
  70.000 217822.0 34
  72.100 2767329.5 429
  73.000 158416.0 25
  77.800 29703.0 5
  80.100 1108912.0 172
  80.800 237624.0 37
  82.300 133663.5 21
  83.000 49505.0 8
  84.100 3014854.5 468
  85.100 960397.0 149
  85.900 306931.0 48
  87.700 39604.0 6
  90.100 89109.0 14
  94.000 24752.5 4
  95.300 44554.5 7
  96.000 891090.0 138
  96.900 985149.5 153
  97.900 1000001.0 155
  99.100 143564.5 22
  99.800 29703.0 5
  102.000 732674.0 114
  107.200 44554.5 7
  107.900 1183169.5 184
  109.000 153465.5 24
  110.200 153465.5 24
  112.100 24752.5 4
  114.000 1777229.5 276
  115.100 123762.5 19
  116.100 59406.0 9
  117.000 24752.5 4
  122.300 59406.0 9
  122.900 49505.0 8
  125.100 2193071.5 340
  126.100 1113862.5 173
  127.200 346535.0 54
  128.200 69307.0 11
  128.700 39604.0 6
  131.100 14851.5 2
  132.100 69307.0 11
  132.800 84158.5 13
  143.300 257426.0 40
  144.200 1252476.5 194
  145.100 287129.0 45
  145.600 69307.0 11
  147.700 19802.0 3
  151.500 29703.0 5
  156.100 44554.5 7
  157.900 34653.5 5
  161.100 2905943.5 451
  162.100 955446.5 148
  163.300 6440600.5 999
  167.400 123762.5 19
  168.900 138614.0 22
  169.600 14851.5 2
  173.500 34653.5 5
  175.600 24752.5 4
  181.900 9901.0 2
  185.000 113861.5 18
  186.200 69307.0 11
  187.100 608911.5 94
  187.600 34653.5 5
  189.200 59406.0 9
  190.500 24752.5 4
  194.200 44554.5 7
  197.300 29703.0 5
  198.600 54455.5 8
  199.500 9901.0 2
  203.100 1148516.0 178
  204.900 74257.5 12
  205.300 193069.5 30
  205.700 29703.0 5
  211.200 49505.0 8
  215.900 29703.0 5
  221.600 39604.0 6
  222.300 34653.5 5
  228.300 118812.0 18
  229.300 138614.0 22
  241.400 331683.5 51
  255.000 19802.0 3
  257.200 222772.5 35
  258.600 19802.0 3
  259.300 272277.5 42
  271.600 123762.5 19
  275.800 49505.0 8
  277.200 44554.5 7
  289.500 475248.0 74
  293.500 133663.5 21
  295.400 361386.5 56
  307.200 371287.5 58
  319.400 108911.0 17
  324.800 24752.5 4
//
