ACCESSION: MSBNK-Keio_Univ-KO000655
RECORD_TITLE: 2-Deoxyglucose 6-phosphate; LC-ESI-QQ; MS2; CE:20 V; [M-H]-
DATE: 2016.01.19 (Created 2007.07.07, modified 2011.05.10)
AUTHORS: Kakazu Y, Horai H, Institute for Advanced Biosciences, Keio Univ.
LICENSE: CC BY-NC-SA
COMMENT: KEIO_ID D101
CH$NAME: 2-Deoxyglucose 6-phosphate
CH$NAME: 2-Deoxy-D-glucose 6-phosphate
CH$COMPOUND_CLASS: N/A
CH$FORMULA: C6H13O8P
CH$EXACT_MASS: 244.03480
CH$SMILES: OC(C1)O[C@H](COP(O)(O)=O)[C@@H](O)[C@H](O)1
CH$IUPAC: InChI=1S/C6H13O8P/c7-3-1-5(8)14-4(6(3)9)2-13-15(10,11)12/h3-9H,1-2H2,(H2,10,11,12)/t3-,4-,5?,6+/m1/s1
CH$LINK: CHEBI CHEBI:16043
CH$LINK: KEGG C06369
CH$LINK: PUBCHEM CID:440992
CH$LINK: INCHIKEY UQJFZAAGZAYVKZ-CERMHHMHSA-N
AC$INSTRUMENT: API3000, Applied Biosystems
AC$INSTRUMENT_TYPE: LC-ESI-QQ
AC$MASS_SPECTROMETRY: MS_TYPE MS2
AC$MASS_SPECTROMETRY: ION_MODE NEGATIVE
AC$MASS_SPECTROMETRY: COLLISION_ENERGY 20 V
MS$FOCUSED_ION: PRECURSOR_M/Z 243
MS$FOCUSED_ION: PRECURSOR_TYPE [M-H]-
PK$SPLASH: splash10-0002-9130000000-76127528fe83f059f27e
PK$NUM_PEAK: 23
PK$PEAK: m/z int. rel.int.
  59.300 133663.5 5
  78.900 4915846.5 185
  84.900 267327.0 10
  96.900 26564383.0 999
  104.800 69307.0 3
  121.100 123762.5 5
  127.000 29703.0 1
  132.600 9901.0 1
  139.100 2559408.5 96
  144.800 39604.0 1
  160.700 44554.5 2
  168.400 9901.0 1
  171.200 118812.0 4
  181.000 39604.0 1
  182.800 19802.0 1
  188.800 69307.0 3
  189.900 49505.0 2
  190.400 34653.5 1
  195.000 14851.5 1
  199.200 970298.0 36
  207.400 356436.0 13
  225.000 2574260.0 97
  243.200 9920802.0 373
//
