ACCESSION: MSBNK-Keio_Univ-KO009033
RECORD_TITLE: DL-Thioctamide; LC-ESI-IT; MS3; m/z: 206/161; [M+H]+
DATE: 2011.12.05 (Created 2008.05.12)
AUTHORS: Ojima Y, Kakazu Y, Horai H, Soga T, Institute for Advanced Biosciences, Keio Univ.
LICENSE: CC BY-NC-SA
COMMENT: KEIO_ID L031
COMMENT: [MS2] KO009031
CH$NAME: a-Lipoamide
CH$NAME: Lipoamide
CH$NAME: Thioctic acid amide
CH$NAME: DL-Thioctamide
CH$COMPOUND_CLASS: N/A
CH$FORMULA: C8H15NOS2
CH$EXACT_MASS: 205.05951
CH$SMILES: NC(=O)CCCCC(C1)SSC1
CH$IUPAC: InChI=1S/C8H15NOS2/c9-8(10)4-2-1-3-7-5-6-11-12-7/h7H,1-6H2,(H2,9,10)
CH$LINK: CAS 940-69-2
CH$LINK: CHEBI CHEBI:17460
CH$LINK: KEGG C00248
CH$LINK: PUBCHEM CID:863
CH$LINK: INCHIKEY FCCDDURTIIUXBY-UHFFFAOYSA-N
CH$LINK: COMPTOX DTXSID2046541
AC$INSTRUMENT: LC/MSD Trap XCT, Agilent Technologies
AC$INSTRUMENT_TYPE: LC-ESI-IT
AC$MASS_SPECTROMETRY: MS_TYPE MS3
AC$MASS_SPECTROMETRY: ION_MODE POSITIVE
AC$MASS_SPECTROMETRY: COLLISION_ENERGY 1.20/0.40
MS$FOCUSED_ION: PRECURSOR_M/Z 206/161
MS$FOCUSED_ION: PRECURSOR_TYPE [M+H]+
MS$DATA_PROCESSING: WHOLE LC/MSD Trap Control and Data Analysis
PK$SPLASH: splash10-0udi-0900000000-e20b6c58bb1e33cff62f
PK$NUM_PEAK: 6
PK$PEAK: m/z int. rel.int.
  59.2 2.38 9
  67.2 5.85 23
  101.1 252.35 999
  126.9 8.59 34
  161.0 24.45 97
  187.1 2.46 10
//
