ACCESSION: MSBNK-Keio_Univ-KO001567
RECORD_TITLE: L-(-)-Phenylalanine; LC-ESI-QQ; MS2; CE:40 V; [M-H]-
DATE: 2016.01.19 (Created 2007.07.07, modified 2011.05.10)
AUTHORS: Kakazu Y, Horai H, Institute for Advanced Biosciences, Keio Univ.
LICENSE: CC BY-NC-SA
COMMENT: KEIO_ID P002
CH$NAME: Phe
CH$NAME: (S)-alpha-Amino-beta-phenylpropionic acid
CH$NAME: L-Phenylalanine
CH$NAME: L-(-)-Phenylalanine
CH$COMPOUND_CLASS: N/A
CH$FORMULA: C9H11NO2
CH$EXACT_MASS: 165.07898
CH$SMILES: C1=CC=C(C=C1)C[C@@H](C(=O)O)N
CH$IUPAC: InChI=1S/C9H11NO2/c10-8(9(11)12)6-7-4-2-1-3-5-7/h1-5,8H,6,10H2,(H,11,12)/t8-/m0/s1
CH$LINK: CAS 63-91-2
CH$LINK: CHEBI CHEBI:17295
CH$LINK: CHEMPDB PHE
CH$LINK: KEGG C00079
CH$LINK: NIKKAJI J9.175H
CH$LINK: PUBCHEM CID:6140
CH$LINK: INCHIKEY COLNVLDHVKWLRT-QMMMGPOBSA-N
CH$LINK: COMPTOX DTXSID4040763
AC$INSTRUMENT: API3000, Applied Biosystems
AC$INSTRUMENT_TYPE: LC-ESI-QQ
AC$MASS_SPECTROMETRY: MS_TYPE MS2
AC$MASS_SPECTROMETRY: ION_MODE NEGATIVE
AC$MASS_SPECTROMETRY: COLLISION_ENERGY 40 V
MS$FOCUSED_ION: PRECURSOR_M/Z 164
MS$FOCUSED_ION: PRECURSOR_TYPE [M-H]-
PK$SPLASH: splash10-0006-9000000000-38c044a112152626962e
PK$NUM_PEAK: 11
PK$PEAK: m/z int. rel.int.
  42.300 257426.0 34
  45.000 163366.5 21
  65.000 148515.0 19
  71.900 1534655.0 200
  77.100 797030.5 104
  90.900 143564.5 19
  92.200 7668324.5 999
  100.800 29703.0 4
  103.000 1044555.5 136
  116.400 34653.5 5
  118.400 59406.0 8
//
