ACCESSION: MSBNK-Keio_Univ-KO002214
RECORD_TITLE: Acyclovir; LC-ESI-QQ; MS2; CE:20 V; [M+H]+
DATE: 2016.01.19 (Created 2007.07.07, modified 2011.05.10)
AUTHORS: Kakazu Y, Horai H, Institute for Advanced Biosciences, Keio Univ.
LICENSE: CC BY-NC-SA
COMMENT: KEIO_ID A071
CH$NAME: Acyclovir
CH$NAME: Aciclovir
CH$COMPOUND_CLASS: N/A
CH$FORMULA: C8H11N5O3
CH$EXACT_MASS: 225.08619
CH$SMILES: OCCOCn(c2)c(N1)c(n2)C(=O)N=C(N)1
CH$IUPAC: InChI=1S/C8H11N5O3/c9-8-11-6-5(7(15)12-8)10-3-13(6)4-16-2-1-14/h3,14H,1-2,4H2,(H3,9,11,12,15)
CH$LINK: CAS 59277-89-3
CH$LINK: KEGG C06810
CH$LINK: NIKKAJI J11.247J
CH$LINK: PUBCHEM CID:135398513
CH$LINK: INCHIKEY MKUXAQIIEYXACX-UHFFFAOYSA-N
CH$LINK: COMPTOX DTXSID1022556
AC$INSTRUMENT: API3000, Applied Biosystems
AC$INSTRUMENT_TYPE: LC-ESI-QQ
AC$MASS_SPECTROMETRY: MS_TYPE MS2
AC$MASS_SPECTROMETRY: ION_MODE POSITIVE
AC$MASS_SPECTROMETRY: COLLISION_ENERGY 20 V
MS$FOCUSED_ION: PRECURSOR_M/Z 226
MS$FOCUSED_ION: PRECURSOR_TYPE [M+H]+
PK$SPLASH: splash10-0udi-0900000000-201a17a51960fdc3bcef
PK$NUM_PEAK: 60
PK$PEAK: m/z int. rel.int.
  35.800 39604.0 1
  45.000 970298.0 6
  50.100 1103961.5 7
  62.800 222772.5 1
  64.000 49505.0 1
  68.000 94059.5 1
  72.700 54455.5 1
  75.100 3524756.0 22
  77.000 108911.0 1
  80.800 59406.0 1
  82.000 59406.0 1
  88.700 34653.5 1
  89.100 39604.0 1
  93.400 29703.0 1
  95.200 64356.5 1
  96.900 24752.5 1
  98.800 34653.5 1
  99.900 44554.5 1
  101.000 29703.0 1
  101.300 19802.0 1
  103.100 14851.5 1
  104.900 391089.5 2
  106.200 341584.5 2
  107.100 34653.5 1
  107.300 24752.5 1
  108.100 44554.5 1
  108.900 84158.5 1
  110.000 168317.0 1
  111.100 39604.0 1
  112.800 19802.0 1
  115.300 44554.5 1
  120.800 113861.5 1
  122.200 336634.0 2
  122.600 29703.0 1
  127.900 34653.5 1
  131.000 44554.5 1
  133.200 79208.0 1
  134.900 1212872.5 7
  136.000 39604.0 1
  137.300 54455.5 1
  140.300 108911.0 1
  145.000 14851.5 1
  146.600 24752.5 1
  149.500 123762.5 1
  151.000 64356.5 1
  152.200 162515014.0 999
  153.100 282178.5 2
  163.200 59406.0 1
  164.100 1366338.0 8
  167.000 29703.0 1
  170.000 34653.5 1
  173.000 34653.5 1
  176.000 24752.5 1
  177.200 108911.0 1
  181.500 39604.0 1
  191.300 341584.5 2
  193.800 19802.0 1
  196.400 39604.0 1
  209.400 1420793.5 9
  226.200 2549507.5 16
//
