ACCESSION: MSBNK-Keio_Univ-KO001928
RECORD_TITLE: Tryptophanamide; LC-ESI-QQ; MS2; CE:10 V; [M-H]-
DATE: 2016.01.19 (Created 2007.07.07, modified 2011.05.10)
AUTHORS: Kakazu Y, Horai H, Institute for Advanced Biosciences, Keio Univ.
LICENSE: CC BY-NC-SA
COMMENT: KEIO_ID T054
CH$NAME: Tryptophanamide
CH$NAME: L-Tryptophanamide
CH$COMPOUND_CLASS: N/A
CH$FORMULA: C11H13N3O
CH$EXACT_MASS: 203.10586
CH$SMILES: C1=CC=C2C(=C1)C(=CN2)C[C@@H](C(=O)N)N
CH$IUPAC: InChI=1S/C11H13N3O/c12-9(11(13)15)5-7-6-14-10-4-2-1-3-8(7)10/h1-4,6,9,14H,5,12H2,(H2,13,15)/t9-/m0/s1
CH$LINK: KEGG C00977
CH$LINK: PUBCHEM CID:439356
CH$LINK: INCHIKEY JLSKPBDKNIXMBS-VIFPVBQESA-N
AC$INSTRUMENT: API3000, Applied Biosystems
AC$INSTRUMENT_TYPE: LC-ESI-QQ
AC$MASS_SPECTROMETRY: MS_TYPE MS2
AC$MASS_SPECTROMETRY: ION_MODE NEGATIVE
AC$MASS_SPECTROMETRY: COLLISION_ENERGY 10 V
MS$FOCUSED_ION: PRECURSOR_M/Z 202
MS$FOCUSED_ION: PRECURSOR_TYPE [M-H]-
PK$SPLASH: splash10-0udi-0090000000-a4eb07a9b4901e0b4875
PK$NUM_PEAK: 7
PK$PEAK: m/z int. rel.int.
  59.000 831684.0 9
  129.300 69307.0 1
  129.800 198020.0 2
  141.900 430693.5 5
  144.300 19802.0 1
  169.600 24752.5 1
  202.200 91856527.5 999
//
