ACCESSION: MSBNK-Keio_Univ-KO001633
RECORD_TITLE: DL-Pipecolic acid; LC-ESI-QQ; MS2; CE:30 V; [M-H]-
DATE: 2016.01.19 (Created 2007.07.07, modified 2011.05.10)
AUTHORS: Kakazu Y, Horai H, Institute for Advanced Biosciences, Keio Univ.
LICENSE: CC BY-NC-SA
COMMENT: KEIO_ID P048
CH$NAME: Pipecolate
CH$NAME: Pipecolic acid
CH$NAME: L-Pipecolate
CH$NAME: 2-Piperidinecarboxylic acid
CH$NAME: Pipecolinic acid
CH$NAME: DL-Pipecolic acid
CH$COMPOUND_CLASS: N/A
CH$FORMULA: C6H11NO2
CH$EXACT_MASS: 129.07898
CH$SMILES: OC(=O)C([H])(C1)NCCC1
CH$IUPAC: InChI=1S/C6H11NO2/c8-6(9)5-3-1-2-4-7-5/h5,7H,1-4H2,(H,8,9)/t5-/m0/s1
CH$LINK: CAS 3105-95-1
CH$LINK: CHEBI CHEBI:30913
CH$LINK: KEGG C00408
CH$LINK: NIKKAJI J215.717I
CH$LINK: PUBCHEM CID:439227
CH$LINK: INCHIKEY HXEACLLIILLPRG-YFKPBYRVSA-N
AC$INSTRUMENT: API3000, Applied Biosystems
AC$INSTRUMENT_TYPE: LC-ESI-QQ
AC$MASS_SPECTROMETRY: MS_TYPE MS2
AC$MASS_SPECTROMETRY: ION_MODE NEGATIVE
AC$MASS_SPECTROMETRY: COLLISION_ENERGY 30 V
MS$FOCUSED_ION: PRECURSOR_M/Z 128
MS$FOCUSED_ION: PRECURSOR_TYPE [M-H]-
PK$SPLASH: splash10-004i-1900000000-b668d1df137fa1685b6d
PK$NUM_PEAK: 5
PK$PEAK: m/z int. rel.int.
  45.300 54455.5 67
  58.600 34653.5 43
  80.500 9901.0 12
  81.900 59406.0 74
  128.200 806931.5 999
//
