ACCESSION: MSBNK-Keio_Univ-KO003871
RECORD_TITLE: Pyrazinamide; LC-ESI-QQ; MS2; CE:40 V; [M+H]+
DATE: 2016.01.19 (Created 2007.07.07, modified 2011.05.10)
AUTHORS: Kakazu Y, Horai H, Institute for Advanced Biosciences, Keio Univ.
LICENSE: CC BY-NC-SA
COMMENT: KEIO_ID P098
CH$NAME: Pyrazinamide
CH$NAME: Pyrazinoic acid amide
CH$COMPOUND_CLASS: N/A
CH$FORMULA: C5H5N3O
CH$EXACT_MASS: 123.04326
CH$SMILES: NC(=O)c(c1)nccn1
CH$IUPAC: InChI=1S/C5H5N3O/c6-5(9)4-3-7-1-2-8-4/h1-3H,(H2,6,9)
CH$LINK: CAS 98-96-4
CH$LINK: KEGG C01956
CH$LINK: NIKKAJI J3.990J
CH$LINK: PUBCHEM CID:1046
CH$LINK: INCHIKEY IPEHBUMCGVEMRF-UHFFFAOYSA-N
CH$LINK: COMPTOX DTXSID9021215
AC$INSTRUMENT: API3000, Applied Biosystems
AC$INSTRUMENT_TYPE: LC-ESI-QQ
AC$MASS_SPECTROMETRY: MS_TYPE MS2
AC$MASS_SPECTROMETRY: ION_MODE POSITIVE
AC$MASS_SPECTROMETRY: COLLISION_ENERGY 40 V
MS$FOCUSED_ION: PRECURSOR_M/Z 124
MS$FOCUSED_ION: PRECURSOR_TYPE [M+H]+
PK$SPLASH: splash10-000t-9000000000-9c4235602fdfd2d2cdeb
PK$NUM_PEAK: 6
PK$PEAK: m/z int. rel.int.
  45.100 207921.0 999
  51.900 29703.0 143
  53.800 29703.0 143
  79.200 69307.0 333
  81.000 29703.0 143
  83.200 128713.0 618
//
