ACCESSION: MSBNK-Keio_Univ-KO003363
RECORD_TITLE: 5-Methylcytosine; LC-ESI-QQ; MS2; CE:20 V; [M+H]+
DATE: 2016.01.19 (Created 2007.07.07, modified 2011.05.10)
AUTHORS: Kakazu Y, Horai H, Institute for Advanced Biosciences, Keio Univ.
LICENSE: CC BY-NC-SA
COMMENT: KEIO_ID M029
CH$NAME: 5-Methylcytosine
CH$COMPOUND_CLASS: N/A
CH$FORMULA: C5H7N3O
CH$EXACT_MASS: 125.05891
CH$SMILES: CC(=C1)C(N)=NC(=O)N1
CH$IUPAC: InChI=1S/C5H7N3O/c1-3-2-7-5(9)8-4(3)6/h2H,1H3,(H3,6,7,8,9)
CH$LINK: CAS 554-01-8
CH$LINK: KEGG C02376
CH$LINK: NIKKAJI J9.416A
CH$LINK: PUBCHEM CID:65040
CH$LINK: INCHIKEY LRSASMSXMSNRBT-UHFFFAOYSA-N
CH$LINK: COMPTOX DTXSID50203948
AC$INSTRUMENT: API3000, Applied Biosystems
AC$INSTRUMENT_TYPE: LC-ESI-QQ
AC$MASS_SPECTROMETRY: MS_TYPE MS2
AC$MASS_SPECTROMETRY: ION_MODE POSITIVE
AC$MASS_SPECTROMETRY: COLLISION_ENERGY 20 V
MS$FOCUSED_ION: PRECURSOR_M/Z 126
MS$FOCUSED_ION: PRECURSOR_TYPE [M+H]+
PK$SPLASH: splash10-004i-0900000000-17d0aa6deb42e4974069
PK$NUM_PEAK: 11
PK$PEAK: m/z int. rel.int.
  55.200 49505.0 4
  71.000 29703.0 3
  73.000 44554.5 4
  81.000 173267.5 16
  82.000 49505.0 4
  83.100 816832.5 73
  90.700 44554.5 4
  94.100 54455.5 5
  108.000 1153466.5 103
  109.200 1935645.5 174
  126.200 11133674.5 999
//
