ACCESSION: MSBNK-Keio_Univ-KO000292
RECORD_TITLE: Hydroxyatrazine; LC-ESI-QQ; MS2; CE:10 V; [M-H]-
DATE: 2016.01.19 (Created 2007.07.07, modified 2011.05.10)
AUTHORS: Kakazu Y, Horai H, Institute for Advanced Biosciences, Keio Univ.
LICENSE: CC BY-NC-SA
COMMENT: KEIO_ID A196
CH$NAME: Hydroxyatrazine
CH$NAME: 4-(Ethylamino)-2-hydroxy-6-(isopropylamino)-1,3,5-triazine
CH$COMPOUND_CLASS: N/A
CH$FORMULA: C8H15N5O
CH$EXACT_MASS: 197.12766
CH$SMILES: CCNC(=N1)NC(NC(C)C)=NC(=O)1
CH$IUPAC: InChI=1S/C8H15N5O/c1-4-9-6-11-7(10-5(2)3)13-8(14)12-6/h5H,4H2,1-3H3,(H3,9,10,11,12,13,14)
CH$LINK: CAS 2163-68-0
CH$LINK: CHEBI CHEBI:18316
CH$LINK: KEGG C06552
CH$LINK: NIKKAJI J9.489G
CH$LINK: PUBCHEM CID:135398733
CH$LINK: INCHIKEY NFMIMWNQWAWNDW-UHFFFAOYSA-N
CH$LINK: COMPTOX DTXSID6037807
AC$INSTRUMENT: API3000, Applied Biosystems
AC$INSTRUMENT_TYPE: LC-ESI-QQ
AC$MASS_SPECTROMETRY: MS_TYPE MS2
AC$MASS_SPECTROMETRY: ION_MODE NEGATIVE
AC$MASS_SPECTROMETRY: COLLISION_ENERGY 10 V
MS$FOCUSED_ION: PRECURSOR_M/Z 196
MS$FOCUSED_ION: PRECURSOR_TYPE [M-H]-
PK$SPLASH: splash10-0002-0900000000-29939040c55a2bee838f
PK$NUM_PEAK: 8
PK$PEAK: m/z int. rel.int.
  113.700 54455.5 16
  135.700 34653.5 10
  136.100 14851.5 4
  137.200 9901.0 3
  152.000 64356.5 18
  152.800 54455.5 16
  163.600 19802.0 6
  196.200 3490102.5 999
//
