ACCESSION: MSBNK-Keio_Univ-KO000933
RECORD_TITLE: Glycyrrhetinic acid; LC-ESI-QQ; MS2; CE:10 V; [M-H]-
DATE: 2016.01.19 (Created 2007.07.07, modified 2011.05.10)
AUTHORS: Kakazu Y, Horai H, Institute for Advanced Biosciences, Keio Univ.
LICENSE: CC BY-NC-SA
COMMENT: KEIO_ID G075
CH$NAME: Glycyrrhetinate
CH$NAME: Glycyrrhetinic acid
CH$NAME: Enoxolone
CH$COMPOUND_CLASS: N/A
CH$FORMULA: C30H46O4
CH$EXACT_MASS: 470.33961
CH$SMILES: C(C1(C)C(O)=O)C(C=52)([H])C(CCC2(C(C3([H])C(=O)C5)(C)CCC(C(C)(C)4)([H])C(C)3CCC(O)4)C)(C)CC1
CH$IUPAC: InChI=1S/C30H46O4/c1-25(2)21-8-11-30(7)23(28(21,5)10-9-22(25)32)20(31)16-18-19-17-27(4,24(33)34)13-12-26(19,3)14-15-29(18,30)6/h16,19,21-23,32H,8-15,17H2,1-7H3,(H,33,34)/t19-,21-,22-,23+,26+,27-,28-,29+,30+/m0/s1
CH$LINK: CAS 1449-05-4 471-53-4
CH$LINK: CHEBI CHEBI:30853
CH$LINK: KEGG C02283
CH$LINK: PUBCHEM CID:10114
CH$LINK: INCHIKEY MPDGHEJMBKOTSU-YKLVYJNSSA-N
CH$LINK: COMPTOX DTXSID9020669
AC$INSTRUMENT: API3000, Applied Biosystems
AC$INSTRUMENT_TYPE: LC-ESI-QQ
AC$MASS_SPECTROMETRY: MS_TYPE MS2
AC$MASS_SPECTROMETRY: ION_MODE NEGATIVE
AC$MASS_SPECTROMETRY: COLLISION_ENERGY 10 V
MS$FOCUSED_ION: PRECURSOR_M/Z 469
MS$FOCUSED_ION: PRECURSOR_TYPE [M-H]-
PK$SPLASH: splash10-014i-0000900000-84865ea36583c793b08e
PK$NUM_PEAK: 6
PK$PEAK: m/z int. rel.int.
  295.300 34653.5 15
  369.600 29703.0 13
  371.200 19802.0 9
  431.300 9901.0 4
  433.400 84158.5 37
  469.700 2252477.5 999
//
