ACCESSION: MSBNK-Keio_Univ-KO001741
RECORD_TITLE: Quisqualic acid; LC-ESI-QQ; MS2; CE:20 V; [M-H]-
DATE: 2016.01.19 (Created 2007.07.07, modified 2011.05.10)
AUTHORS: Kakazu Y, Horai H, Institute for Advanced Biosciences, Keio Univ.
LICENSE: CC BY-NC-SA
COMMENT: KEIO_ID Q003
CH$NAME: Quisqualate
CH$NAME: Quisqualic acid
CH$COMPOUND_CLASS: N/A
CH$FORMULA: C5H7N3O5
CH$EXACT_MASS: 189.03857
CH$SMILES: N[C@H](C(O)=O)CN(O1)C(=O)NC(=O)1
CH$IUPAC: InChI=1S/C5H7N3O5/c6-2(3(9)10)1-8-4(11)7-5(12)13-8/h2H,1,6H2,(H,9,10)(H,7,11,12)/t2-/m0/s1
CH$LINK: CAS 52809-07-1
CH$LINK: KEGG C08296
CH$LINK: NIKKAJI J9.726H
CH$LINK: PUBCHEM SID:10494
CH$LINK: INCHIKEY ASNFTDCKZKHJSW-REOHCLBHSA-N
CH$LINK: COMPTOX DTXSID20896927
AC$INSTRUMENT: API3000, Applied Biosystems
AC$INSTRUMENT_TYPE: LC-ESI-QQ
AC$MASS_SPECTROMETRY: MS_TYPE MS2
AC$MASS_SPECTROMETRY: ION_MODE NEGATIVE
AC$MASS_SPECTROMETRY: COLLISION_ENERGY 20 V
MS$FOCUSED_ION: PRECURSOR_M/Z 188
MS$FOCUSED_ION: PRECURSOR_TYPE [M-H]-
PK$SPLASH: splash10-0pb9-1900000000-073fd3e062cb304aba00
PK$NUM_PEAK: 5
PK$PEAK: m/z int. rel.int.
  57.300 39604.0 296
  101.100 133663.5 999
  124.400 14851.5 111
  155.200 99010.0 740
  188.100 49505.0 370
//
