ACCESSION: MSBNK-Keio_Univ-KO003195
RECORD_TITLE: Isonicotinic acid; LC-ESI-QQ; MS2; CE:40 V; [M+H]+
DATE: 2016.01.19 (Created 2007.07.07, modified 2011.05.10)
AUTHORS: Kakazu Y, Horai H, Institute for Advanced Biosciences, Keio Univ.
LICENSE: CC BY-NC-SA
COMMENT: KEIO_ID I017
CH$NAME: Isonicotinate
CH$NAME: Isonicotinic acid
CH$COMPOUND_CLASS: N/A
CH$FORMULA: C6H5NO2
CH$EXACT_MASS: 123.03203
CH$SMILES: OC(=O)c(c1)ccnc1
CH$IUPAC: InChI=1S/C6H5NO2/c8-6(9)5-1-3-7-4-2-5/h1-4H,(H,8,9)
CH$LINK: CAS 55-22-1
CH$LINK: CHEBI CHEBI:6032
CH$LINK: KEGG C07446
CH$LINK: NIKKAJI J4.559D
CH$LINK: PUBCHEM SID:9649
CH$LINK: INCHIKEY TWBYWOBDOCUKOW-UHFFFAOYSA-N
CH$LINK: COMPTOX DTXSID8020757
AC$INSTRUMENT: API3000, Applied Biosystems
AC$INSTRUMENT_TYPE: LC-ESI-QQ
AC$MASS_SPECTROMETRY: MS_TYPE MS2
AC$MASS_SPECTROMETRY: ION_MODE POSITIVE
AC$MASS_SPECTROMETRY: COLLISION_ENERGY 40 V
MS$FOCUSED_ION: PRECURSOR_M/Z 124
MS$FOCUSED_ION: PRECURSOR_TYPE [M+H]+
PK$SPLASH: splash10-003r-9000000000-ee099e60544c0326fdb7
PK$NUM_PEAK: 9
PK$PEAK: m/z int. rel.int.
  27.800 34653.5 82
  40.900 9901.0 24
  44.800 178218.0 423
  53.000 84158.5 200
  77.900 163366.5 388
  79.300 158416.0 376
  80.000 420792.5 999
  96.100 198020.0 470
  123.800 34653.5 82
//
