ACCESSION: MSBNK-Keio_Univ-KO003288
RECORD_TITLE: Leupeptin; LC-ESI-QQ; MS2; CE:20 V; [M+H]+
DATE: 2016.01.19 (Created 2007.07.07, modified 2012.10.22)
AUTHORS: Kakazu Y, Horai H, Institute for Advanced Biosciences, Keio Univ.
LICENSE: CC BY-NC-SA
COMMENT: KEIO_ID L006
CH$NAME: Leupeptin
CH$COMPOUND_CLASS: N/A
CH$FORMULA: C20H38N6O4
CH$EXACT_MASS: 426.29545
CH$SMILES: NC(=N)NCCC[C@@H](C=O)NC(=O)[C@H](CC(C)C)NC(=O)[C@H](CC(C)C)NC(C)=O
CH$IUPAC: InChI=1S/C20H38N6O4/c1-12(2)9-16(24-14(5)28)19(30)26-17(10-13(3)4)18(29)25-15(11-27)7-6-8-23-20(21)22/h11-13,15-17H,6-10H2,1-5H3,(H,24,28)(H,25,29)(H,26,30)(H4,21,22,23)
CH$LINK: CAS 24365-47-7
CH$LINK: KEGG C01591
CH$LINK: NIKKAJI J93.946C
CH$LINK: PUBCHEM CID:5284408
CH$LINK: INCHIKEY GDBQQVLCIARPGH-UHFFFAOYSA-N
AC$INSTRUMENT: API3000, Applied Biosystems
AC$INSTRUMENT_TYPE: LC-ESI-QQ
AC$MASS_SPECTROMETRY: MS_TYPE MS2
AC$MASS_SPECTROMETRY: ION_MODE POSITIVE
AC$MASS_SPECTROMETRY: COLLISION_ENERGY 20 V
MS$FOCUSED_ION: PRECURSOR_M/Z 427
MS$FOCUSED_ION: PRECURSOR_TYPE [M+H]+
PK$SPLASH: splash10-0a4i-0001900000-ca3d2cb5ca30e57ff805
PK$NUM_PEAK: 12
PK$PEAK: m/z int. rel.int.
  106.100 29703.0 3
  140.900 39604.0 3
  174.000 49505.0 4
  187.100 54455.5 5
  191.300 128713.0 11
  212.200 34653.5 3
  269.300 14851.5 1
  307.700 24752.5 2
  367.500 2292081.5 195
  391.600 24752.5 2
  409.900 11742586.0 999
  427.600 5801986.0 494
//
