ACCESSION: MSBNK-Keio_Univ-KO003240
RECORD_TITLE: beta-Imidazolelactic acid; LC-ESI-QQ; MS2; CE:40 V; [M+H]+
DATE: 2016.01.19 (Created 2007.07.07, modified 2011.05.10)
AUTHORS: Kakazu Y, Horai H, Institute for Advanced Biosciences, Keio Univ.
LICENSE: CC BY-NC-SA
COMMENT: KEIO_ID I053
CH$NAME: b-Imidazolelactate
CH$NAME: (S)-3-(Imidazol-5-yl)lactate
CH$NAME: beta-Imidazolelactic acid
CH$COMPOUND_CLASS: N/A
CH$FORMULA: C6H8N2O3
CH$EXACT_MASS: 156.05349
CH$SMILES: C1=C(NC=N1)C[C@H](C(=O)O)O
CH$IUPAC: InChI=1S/C6H8N2O3/c9-5(6(10)11)1-4-2-7-3-8-4/h2-3,5,9H,1H2,(H,7,8)(H,10,11)/t5-/m1/s1
CH$LINK: CHEBI CHEBI:16373
CH$LINK: KEGG C03817
CH$LINK: PUBCHEM CID:440129
CH$LINK: INCHIKEY ACZFBYCNAVEFLC-RXMQYKEDSA-N
AC$INSTRUMENT: API3000, Applied Biosystems
AC$INSTRUMENT_TYPE: LC-ESI-QQ
AC$MASS_SPECTROMETRY: MS_TYPE MS2
AC$MASS_SPECTROMETRY: ION_MODE POSITIVE
AC$MASS_SPECTROMETRY: COLLISION_ENERGY 40 V
MS$FOCUSED_ION: PRECURSOR_M/Z 157
MS$FOCUSED_ION: PRECURSOR_TYPE [M+H]+
PK$SPLASH: splash10-001i-9000000000-e509c889abee3fd34969
PK$NUM_PEAK: 14
PK$PEAK: m/z int. rel.int.
  54.400 19802.0 6
  55.200 49505.0 16
  55.900 99010.0 32
  65.800 34653.5 11
  67.700 29703.0 10
  68.900 39604.0 13
  69.300 24752.5 8
  81.200 504951.0 165
  82.100 3059409.0 999
  83.400 1569308.5 512
  84.000 29703.0 10
  95.100 64356.5 21
  97.800 9901.0 3
  111.100 440594.5 144
//
