ACCESSION: MSBNK-Keio_Univ-KO000758
RECORD_TITLE: Fructose 1-phosphate; LC-ESI-QQ; MS2; CE:50 V; [M-H]-
DATE: 2016.01.19 (Created 2007.07.07, modified 2012.10.22)
AUTHORS: Kakazu Y, Horai H, Institute for Advanced Biosciences, Keio Univ.
LICENSE: CC BY-NC-SA
COMMENT: KEIO_ID F009
CH$NAME: Fructose 1-phosphate
CH$NAME: D-Fructose 1-phosphate
CH$COMPOUND_CLASS: N/A
CH$FORMULA: C6H13O9P
CH$EXACT_MASS: 260.02972
CH$SMILES: OCC(O1)C(O)C(O)C(O)1COP(O)(O)=O
CH$IUPAC: InChI=1S/C6H13O9P/c7-1-3-4(8)5(9)6(10,15-3)2-14-16(11,12)13/h3-5,7-10H,1-2H2,(H2,11,12,13)/t3-,4-,5+,6?/m1/s1
CH$LINK: CAS 15978-08-2
CH$LINK: CHEBI CHEBI:18105
CH$LINK: KEGG C01094
CH$LINK: NIKKAJI J219.923H
CH$LINK: PUBCHEM CID:439394
CH$LINK: INCHIKEY RHKKZBWRNHGJEZ-VRPWFDPXSA-N
AC$INSTRUMENT: API3000, Applied Biosystems
AC$INSTRUMENT_TYPE: LC-ESI-QQ
AC$MASS_SPECTROMETRY: MS_TYPE MS2
AC$MASS_SPECTROMETRY: ION_MODE NEGATIVE
AC$MASS_SPECTROMETRY: COLLISION_ENERGY 50 V
MS$FOCUSED_ION: PRECURSOR_M/Z 259
MS$FOCUSED_ION: PRECURSOR_TYPE [M-H]-
PK$SPLASH: splash10-004i-9000000000-514d734cdf592923b9f0
PK$NUM_PEAK: 5
PK$PEAK: m/z int. rel.int.
  59.200 103960.5 9
  72.900 74257.5 6
  79.000 11663378.0 999
  97.100 4465351.0 382
  100.900 19802.0 2
//
