ACCESSION: MSBNK-Keio_Univ-KO008907
RECORD_TITLE: Ciprofloxacin; LC-ESI-IT; MS4; m/z: 332/288/268; [M+H]+
DATE: 2011.12.05 (Created 2008.05.12)
AUTHORS: Ojima Y, Kakazu Y, Horai H, Soga T, Institute for Advanced Biosciences, Keio Univ.
LICENSE: CC BY-NC-SA
COMMENT: KEIO_ID C133
COMMENT: [MS3] KO008906
CH$NAME: Ciprofloxacin
CH$COMPOUND_CLASS: N/A
CH$FORMULA: C17H18FN3O3
CH$EXACT_MASS: 331.13322
CH$SMILES: OC(=O)C(=C1)C(=O)c(c3)c(cc(N(C4)CCNC4)c(F)3)N1C(C2)C2
CH$IUPAC: InChI=1S/C17H18FN3O3/c18-13-7-11-14(8-15(13)20-5-3-19-4-6-20)21(10-1-2-10)9-12(16(11)22)17(23)24/h7-10,19H,1-6H2,(H,23,24)
CH$LINK: CAS 85721-33-1
CH$LINK: KEGG C05349
CH$LINK: NIKKAJI J21.732H
CH$LINK: PUBCHEM CID:2764
CH$LINK: INCHIKEY MYSWGUAQZAJSOK-UHFFFAOYSA-N
CH$LINK: COMPTOX DTXSID8022824
AC$INSTRUMENT: LC/MSD Trap XCT, Agilent Technologies
AC$INSTRUMENT_TYPE: LC-ESI-IT
AC$MASS_SPECTROMETRY: MS_TYPE MS4
AC$MASS_SPECTROMETRY: ION_MODE POSITIVE
AC$MASS_SPECTROMETRY: COLLISION_ENERGY 0.80/1.00/0.80
MS$FOCUSED_ION: PRECURSOR_M/Z 332/288/268
MS$FOCUSED_ION: PRECURSOR_TYPE [M+H]+
MS$DATA_PROCESSING: WHOLE LC/MSD Trap Control and Data Analysis
PK$SPLASH: splash10-03di-0090000000-a72b6f811250ad22c376
PK$NUM_PEAK: 5
PK$PEAK: m/z int. rel.int.
  211.9 17.70 999
  213.1 2.20 124
  225.0 3.15 178
  226.0 3.10 175
  268.1 4.65 262
//
