ACCESSION: MSBNK-Keio_Univ-KO001075
RECORD_TITLE: Homovanillic acid; LC-ESI-QQ; MS2; CE:50 V; [M-H]-
DATE: 2016.01.19 (Created 2007.07.07, modified 2011.05.10)
AUTHORS: Kakazu Y, Horai H, Institute for Advanced Biosciences, Keio Univ.
LICENSE: CC BY-NC-SA
COMMENT: KEIO_ID H059
CH$NAME: Homovanillate
CH$NAME: Homovanillic acid
CH$COMPOUND_CLASS: N/A
CH$FORMULA: C9H10O4
CH$EXACT_MASS: 182.05791
CH$SMILES: COc(c1)c(O)ccc(CC(O)=O)1
CH$IUPAC: InChI=1S/C9H10O4/c1-13-8-4-6(5-9(11)12)2-3-7(8)10/h2-4,10H,5H2,1H3,(H,11,12)
CH$LINK: CAS 306-08-1
CH$LINK: KEGG C05582
CH$LINK: NIKKAJI J61.262F
CH$LINK: PUBCHEM SID:7908
CH$LINK: INCHIKEY QRMZSPFSDQBLIX-UHFFFAOYSA-N
CH$LINK: COMPTOX DTXSID5059791
AC$INSTRUMENT: API3000, Applied Biosystems
AC$INSTRUMENT_TYPE: LC-ESI-QQ
AC$MASS_SPECTROMETRY: MS_TYPE MS2
AC$MASS_SPECTROMETRY: ION_MODE NEGATIVE
AC$MASS_SPECTROMETRY: COLLISION_ENERGY 50 V
MS$FOCUSED_ION: PRECURSOR_M/Z 181
MS$FOCUSED_ION: PRECURSOR_TYPE [M-H]-
PK$SPLASH: splash10-014i-9000000000-7b87b58730add4511c8a
PK$NUM_PEAK: 8
PK$PEAK: m/z int. rel.int.
  40.900 74257.5 76
  49.100 99010.0 101
  59.200 188119.0 192
  67.100 980199.0 999
  78.800 54455.5 56
  93.000 212871.5 217
  106.400 14851.5 15
  120.800 94059.5 96
//
