ACCESSION: MSBNK-Keio_Univ-KO009131
RECORD_TITLE: Nalidixic acid; LC-ESI-IT; MS3; m/z: 233/205; [M+H]+
DATE: 2011.12.05 (Created 2008.05.12)
AUTHORS: Ojima Y, Kakazu Y, Horai H, Soga T, Institute for Advanced Biosciences, Keio Univ.
LICENSE: CC BY-NC-SA
COMMENT: KEIO_ID N067
COMMENT: [MS2] KO009130
CH$NAME: Nalidixate
CH$NAME: Nalidixic acid
CH$COMPOUND_CLASS: N/A
CH$FORMULA: C12H12N2O3
CH$EXACT_MASS: 232.08479
CH$SMILES: CCN(C=1)c(n2)c(ccc(C)2)C(=O)C(C(O)=O)1
CH$IUPAC: InChI=1S/C12H12N2O3/c1-3-14-6-9(12(16)17)10(15)8-5-4-7(2)13-11(8)14/h4-6H,3H2,1-2H3,(H,16,17)
CH$LINK: CAS 389-08-2
CH$LINK: KEGG C05079
CH$LINK: NIKKAJI J2.039G
CH$LINK: PUBCHEM CID:4421
CH$LINK: INCHIKEY MHWLWQUZZRMNGJ-UHFFFAOYSA-N
CH$LINK: COMPTOX DTXSID3020912
AC$INSTRUMENT: LC/MSD Trap XCT, Agilent Technologies
AC$INSTRUMENT_TYPE: LC-ESI-IT
AC$MASS_SPECTROMETRY: MS_TYPE MS3
AC$MASS_SPECTROMETRY: ION_MODE POSITIVE
AC$MASS_SPECTROMETRY: COLLISION_ENERGY 0.50/0.80
MS$FOCUSED_ION: PRECURSOR_M/Z 233/205
MS$FOCUSED_ION: PRECURSOR_TYPE [M+H]+
MS$DATA_PROCESSING: WHOLE LC/MSD Trap Control and Data Analysis
PK$SPLASH: splash10-0a4r-1690000000-c6c0ce18d4e8d2019999
PK$NUM_PEAK: 6
PK$PEAK: m/z int. rel.int.
  91.0 14.62 220
  145.1 6.41 96
  186.9 34.54 519
  188.1 33.10 497
  205.0 66.48 999
  206.1 32.92 495
//
