ACCESSION: MSBNK-Keio_Univ-KO003091
RECORD_TITLE: 2-Hydroxypyridine; LC-ESI-QQ; MS2; CE:40 V; [M+H]+
DATE: 2016.01.19 (Created 2007.07.07, modified 2011.05.10)
AUTHORS: Kakazu Y, Horai H, Institute for Advanced Biosciences, Keio Univ.
LICENSE: CC BY-NC-SA
COMMENT: KEIO_ID H021
CH$NAME: 2-Hydroxypyridine
CH$NAME: 2-Pyridone
CH$NAME: 2-Pyridinol
CH$COMPOUND_CLASS: N/A
CH$FORMULA: C5H5NO
CH$EXACT_MASS: 95.03711
CH$SMILES: Oc(c1)nccc1
CH$IUPAC: InChI=1S/C5H5NO/c7-5-3-1-2-4-6-5/h1-4H,(H,6,7)
CH$LINK: CAS 142-08-5
CH$LINK: CHEBI CHEBI:16540
CH$LINK: KEGG C02502
CH$LINK: NIKKAJI J13.556I
CH$LINK: PUBCHEM CID:8871
CH$LINK: INCHIKEY UBQKCCHYAOITMY-UHFFFAOYSA-N
CH$LINK: COMPTOX DTXSID2051716
AC$INSTRUMENT: API3000, Applied Biosystems
AC$INSTRUMENT_TYPE: LC-ESI-QQ
AC$MASS_SPECTROMETRY: MS_TYPE MS2
AC$MASS_SPECTROMETRY: ION_MODE POSITIVE
AC$MASS_SPECTROMETRY: COLLISION_ENERGY 40 V
MS$FOCUSED_ION: PRECURSOR_M/Z 96
MS$FOCUSED_ION: PRECURSOR_TYPE [M+H]+
PK$SPLASH: splash10-004i-9000000000-4dcaf228edc375029273
PK$NUM_PEAK: 8
PK$PEAK: m/z int. rel.int.
  39.200 24752.5 2
  40.700 24752.5 2
  51.100 2920795.0 277
  51.900 108911.0 10
  66.900 24752.5 2
  78.000 10519812.5 999
  91.000 9901.0 1
  96.300 623763.0 59
//
