ACCESSION: MSBNK-Keio_Univ-KO000717
RECORD_TITLE: Ectoine; LC-ESI-QQ; MS2; CE:40 V; [M-H]-
DATE: 2016.01.19 (Created 2007.07.07, modified 2011.05.10)
AUTHORS: Kakazu Y, Horai H, Institute for Advanced Biosciences, Keio Univ.
LICENSE: CC BY-NC-SA
COMMENT: KEIO_ID E011
CH$NAME: Ectoine
CH$COMPOUND_CLASS: N/A
CH$FORMULA: C6H10N2O2
CH$EXACT_MASS: 142.07423
CH$SMILES: CC(N1)=NC(CC1)C(O)=O
CH$IUPAC: InChI=1S/C6H10N2O2/c1-4-7-3-2-5(8-4)6(9)10/h5H,2-3H2,1H3,(H,7,8)(H,9,10)
CH$LINK: KEGG C06231
CH$LINK: PUBCHEM CID:126041
CH$LINK: INCHIKEY WQXNXVUDBPYKBA-UHFFFAOYSA-N
CH$LINK: COMPTOX DTXSID50869280
AC$INSTRUMENT: API3000, Applied Biosystems
AC$INSTRUMENT_TYPE: LC-ESI-QQ
AC$MASS_SPECTROMETRY: MS_TYPE MS2
AC$MASS_SPECTROMETRY: ION_MODE NEGATIVE
AC$MASS_SPECTROMETRY: COLLISION_ENERGY 40 V
MS$FOCUSED_ION: PRECURSOR_M/Z 141
MS$FOCUSED_ION: PRECURSOR_TYPE [M-H]-
PK$SPLASH: splash10-0a4i-9000000000-4b235a1ec78a6bd0a35d
PK$NUM_PEAK: 2
PK$PEAK: m/z int. rel.int.
  44.600 14851.5 5
  59.100 2910894.0 999
//
