ACCESSION: MSBNK-Keio_Univ-KO000562
RECORD_TITLE: 2,3-Diphosphoglycerate; LC-ESI-QQ; MS2; CE:40 V; [M-H]-
DATE: 2016.01.19 (Created 2007.07.07, modified 2012.05.21)
AUTHORS: Kakazu Y, Horai H, Institute for Advanced Biosciences, Keio Univ.
LICENSE: CC BY-NC-SA
COMMENT: KEIO_ID D017
CH$NAME: 2,3-Diphosphoglycerate
CH$NAME: D-Greenwald ester
CH$NAME: 2,3-Bisphospho-D-glycerate
CH$NAME: 2,3-Disphospho-D-glycerate
CH$NAME: DPG
CH$COMPOUND_CLASS: N/A
CH$FORMULA: C3H8O10P2
CH$EXACT_MASS: 265.95927
CH$SMILES: OC(=O)[C@@H](COP(O)(O)=O)OP(O)(O)=O
CH$IUPAC: InChI=1S/C3H8O10P2/c4-3(5)2(13-15(9,10)11)1-12-14(6,7)8/h2H,1H2,(H,4,5)(H2,6,7,8)(H2,9,10,11)/t2-/m1/s1
CH$LINK: CHEBI CHEBI:17720
CH$LINK: KEGG C01159
CH$LINK: PUBCHEM CID:186004
CH$LINK: INCHIKEY XOHUEYCVLUUEJJ-UWTATZPHSA-N
AC$INSTRUMENT: API3000, Applied Biosystems
AC$INSTRUMENT_TYPE: LC-ESI-QQ
AC$MASS_SPECTROMETRY: MS_TYPE MS2
AC$MASS_SPECTROMETRY: ION_MODE NEGATIVE
AC$MASS_SPECTROMETRY: COLLISION_ENERGY 40 V
MS$FOCUSED_ION: PRECURSOR_M/Z 265
MS$FOCUSED_ION: PRECURSOR_TYPE [M-H]-
PK$SPLASH: splash10-056r-9330000000-70ae76c58e470fe3b594
PK$NUM_PEAK: 17
PK$PEAK: m/z int. rel.int.
  59.200 7019809.0 235
  76.800 9901.0 1
  79.100 29871317.0 999
  97.100 2846537.5 95
  98.700 14851.5 1
  122.900 2217824.0 74
  137.100 4529707.5 151
  139.000 118812.0 4
  148.900 2227725.0 75
  158.800 1594061.0 53
  167.000 2886141.5 97
  176.900 519802.5 17
  178.400 24752.5 1
  184.800 74257.5 2
  189.700 425743.0 14
  190.600 44554.5 1
  205.500 14014865.5 469
//
