ACCESSION: MSBNK-Keio_Univ-KO001546
RECORD_TITLE: Oxamic acid; LC-ESI-QQ; MS2; CE:20 V; [M-H]-
DATE: 2016.01.19 (Created 2007.07.07, modified 2011.05.10)
AUTHORS: Kakazu Y, Horai H, Institute for Advanced Biosciences, Keio Univ.
LICENSE: CC BY-NC-SA
COMMENT: KEIO_ID O011
CH$NAME: Oxamate
CH$NAME: Oxamic acid
CH$NAME: Oxalic monoamide
CH$COMPOUND_CLASS: N/A
CH$FORMULA: C2H3NO3
CH$EXACT_MASS: 89.01129
CH$SMILES: NC(=O)C(O)=O
CH$IUPAC: InChI=1S/C2H3NO3/c3-1(4)2(5)6/h(H2,3,4)(H,5,6)
CH$LINK: CAS 471-47-6
CH$LINK: CHEBI CHEBI:18058
CH$LINK: KEGG C01444
CH$LINK: NIKKAJI J5.942K
CH$LINK: PUBCHEM SID:4622
CH$LINK: INCHIKEY SOWBFZRMHSNYGE-UHFFFAOYSA-N
CH$LINK: COMPTOX DTXSID6060052
AC$INSTRUMENT: API3000, Applied Biosystems
AC$INSTRUMENT_TYPE: LC-ESI-QQ
AC$MASS_SPECTROMETRY: MS_TYPE MS2
AC$MASS_SPECTROMETRY: ION_MODE NEGATIVE
AC$MASS_SPECTROMETRY: COLLISION_ENERGY 20 V
MS$FOCUSED_ION: PRECURSOR_M/Z 88
MS$FOCUSED_ION: PRECURSOR_TYPE [M-H]-
PK$SPLASH: splash10-000f-9000000000-b870b26a5ebffe4dffa5
PK$NUM_PEAK: 4
PK$PEAK: m/z int. rel.int.
  41.900 118812.0 208
  44.300 539604.5 947
  60.300 19802.0 35
  88.000 569307.5 999
//
