ACCESSION: MSBNK-Keio_Univ-KO002276
RECORD_TITLE: 2-Aminophenol; LC-ESI-QQ; MS2; CE:40 V; [M+H]+
DATE: 2016.01.19 (Created 2007.07.07, modified 2011.05.10)
AUTHORS: Kakazu Y, Horai H, Institute for Advanced Biosciences, Keio Univ.
LICENSE: CC BY-NC-SA
COMMENT: KEIO_ID A114
CH$NAME: 2-Aminophenol
CH$NAME: o-Aminophenol
CH$NAME: 2-Hydroxyaniline
CH$NAME: 2-Aminobenzenol
CH$COMPOUND_CLASS: N/A
CH$FORMULA: C6H7NO
CH$EXACT_MASS: 109.05276
CH$SMILES: Nc(c1)c(O)ccc1
CH$IUPAC: InChI=1S/C6H7NO/c7-5-3-1-2-4-6(5)8/h1-4,8H,7H2
CH$LINK: CAS 95-55-6
CH$LINK: CHEBI CHEBI:18112
CH$LINK: CHEMPDB 2AF
CH$LINK: KEGG C01987
CH$LINK: NIKKAJI J3.955A
CH$LINK: PUBCHEM SID:5084
CH$LINK: INCHIKEY CDAWCLOXVUBKRW-UHFFFAOYSA-N
CH$LINK: COMPTOX DTXSID8024498
AC$INSTRUMENT: API3000, Applied Biosystems
AC$INSTRUMENT_TYPE: LC-ESI-QQ
AC$MASS_SPECTROMETRY: MS_TYPE MS2
AC$MASS_SPECTROMETRY: ION_MODE POSITIVE
AC$MASS_SPECTROMETRY: COLLISION_ENERGY 40 V
MS$FOCUSED_ION: PRECURSOR_M/Z 110
MS$FOCUSED_ION: PRECURSOR_TYPE [M+H]+
PK$SPLASH: splash10-014i-9000000000-9bb70b310c6146ff4a8a
PK$NUM_PEAK: 5
PK$PEAK: m/z int. rel.int.
  59.800 19802.0 36
  60.900 29703.0 54
  65.200 544555.0 999
  69.900 29703.0 54
  91.900 108911.0 200
//
