ACCESSION: MSBNK-Keio_Univ-KO000441
RECORD_TITLE: 2-Coumaric acid; LC-ESI-QQ; MS2; CE:10 V; [M-H]-
DATE: 2016.01.19 (Created 2007.07.07, modified 2011.05.10)
AUTHORS: Kakazu Y, Horai H, Institute for Advanced Biosciences, Keio Univ.
LICENSE: CC BY-NC-SA
COMMENT: KEIO_ID C039
CH$NAME: o-Coumarate
CH$NAME: trans-2-Hydroxycinnamate
CH$NAME: trans-2-Hydroxycinnamic acid
CH$NAME: 2-Coumaric acid
CH$COMPOUND_CLASS: N/A
CH$FORMULA: C9H8O3
CH$EXACT_MASS: 164.04734
CH$SMILES: OC(=O)C=Cc(c1)c(O)ccc1
CH$IUPAC: InChI=1S/C9H8O3/c10-8-4-2-1-3-7(8)5-6-9(11)12/h1-6,10H,(H,11,12)/b6-5+
CH$LINK: CAS 614-60-8
CH$LINK: CHEBI CHEBI:18125
CH$LINK: KEGG C01772
CH$LINK: NIKKAJI J55.415D
CH$LINK: PUBCHEM CID:637540
CH$LINK: INCHIKEY PMOWTIHVNWZYFI-AATRIKPKSA-N
CH$LINK: COMPTOX DTXSID10883240
AC$INSTRUMENT: API3000, Applied Biosystems
AC$INSTRUMENT_TYPE: LC-ESI-QQ
AC$MASS_SPECTROMETRY: MS_TYPE MS2
AC$MASS_SPECTROMETRY: ION_MODE NEGATIVE
AC$MASS_SPECTROMETRY: COLLISION_ENERGY 10 V
MS$FOCUSED_ION: PRECURSOR_M/Z 163
MS$FOCUSED_ION: PRECURSOR_TYPE [M-H]-
PK$SPLASH: splash10-03di-0900000000-d368e3c354c7b05a949f
PK$NUM_PEAK: 8
PK$PEAK: m/z int. rel.int.
  59.100 49505.0 1
  88.500 14851.5 1
  91.000 29703.0 1
  118.500 475248.0 10
  118.900 15490114.5 319
  141.400 19802.0 1
  162.200 69307.0 1
  163.100 48584207.0 999
//
