ACCESSION: MSBNK-Keio_Univ-KO001149
RECORD_TITLE: beta-Hydroxypropionic acid; LC-ESI-QQ; MS2; CE:50 V; [M-H]-
DATE: 2016.01.19 (Created 2007.07.07, modified 2011.05.10)
AUTHORS: Kakazu Y, Horai H, Institute for Advanced Biosciences, Keio Univ.
LICENSE: CC BY-NC-SA
COMMENT: KEIO_ID H110
CH$NAME: b-Hydroxypropionate
CH$NAME: 3-Hydroxypropanoic acid
CH$NAME: 3-Hydroxypropionic acid
CH$NAME: 3-Hydroxypropionate
CH$NAME: Hydracrylic acid
CH$NAME: 3-Hydroxypropanoate
CH$NAME: beta-Hydroxypropionic acid
CH$COMPOUND_CLASS: N/A
CH$FORMULA: C3H6O3
CH$EXACT_MASS: 90.03169
CH$SMILES: OCCC(O)=O
CH$IUPAC: InChI=1S/C3H6O3/c4-2-1-3(5)6/h4H,1-2H2,(H,5,6)
CH$LINK: CAS 503-66-2
CH$LINK: CHEBI CHEBI:16510
CH$LINK: KEGG C01013
CH$LINK: NIKKAJI J6.213H
CH$LINK: PUBCHEM CID:68152
CH$LINK: INCHIKEY ALRHLSYJTWAHJZ-UHFFFAOYSA-N
CH$LINK: COMPTOX DTXSID50198305
AC$INSTRUMENT: API3000, Applied Biosystems
AC$INSTRUMENT_TYPE: LC-ESI-QQ
AC$MASS_SPECTROMETRY: MS_TYPE MS2
AC$MASS_SPECTROMETRY: ION_MODE NEGATIVE
AC$MASS_SPECTROMETRY: COLLISION_ENERGY 50 V
MS$FOCUSED_ION: PRECURSOR_M/Z 89
MS$FOCUSED_ION: PRECURSOR_TYPE [M-H]-
PK$SPLASH: splash10-0006-9000000000-be05ae87088e43aa060d
PK$NUM_PEAK: 2
PK$PEAK: m/z int. rel.int.
  40.100 14851.5 200
  41.400 74257.5 999
//
