ACCESSION: MSBNK-Keio_Univ-KO000155
RECORD_TITLE: D-2-Aminobutyric acid; LC-ESI-QQ; MS2; CE:30 V; [M-H]-
DATE: 2016.01.19 (Created 2007.07.07, modified 2011.05.10)
AUTHORS: Kakazu Y, Horai H, Institute for Advanced Biosciences, Keio Univ.
LICENSE: CC BY-NC-SA
CH$NAME: D-2-Aminobutyrate
CH$NAME: (R)-2-Aminobutanoic acid
CH$NAME: D-2-Aminobutanoic acid
CH$NAME: D-2-Aminobutyric acid
CH$COMPOUND_CLASS: N/A
CH$FORMULA: C4H9NO2
CH$EXACT_MASS: 103.06333
CH$SMILES: CCC(N)C(O)=O
CH$IUPAC: InChI=1S/C4H9NO2/c1-2-3(5)4(6)7/h3H,2,5H2,1H3,(H,6,7)/t3-/m1/s1
CH$LINK: CAS 2623-91-8
CH$LINK: CHEBI CHEBI:28797
CH$LINK: HMDB HMDB00650
CH$LINK: KEGG C02261
CH$LINK: LIPIDMAPS LMFA01100043
CH$LINK: NIKKAJI J1.815E
CH$LINK: PUBCHEM CID:439691
CH$LINK: INCHIKEY QWCKQJZIFLGMSD-GSVOUGTGSA-N
AC$INSTRUMENT: API3000, Applied Biosystems
AC$INSTRUMENT_TYPE: LC-ESI-QQ
AC$MASS_SPECTROMETRY: MS_TYPE MS2
AC$MASS_SPECTROMETRY: ION_MODE NEGATIVE
AC$MASS_SPECTROMETRY: COLLISION_ENERGY 30 V
MS$FOCUSED_ION: PRECURSOR_M/Z 102
MS$FOCUSED_ION: PRECURSOR_TYPE [M-H]-
PK$SPLASH: splash10-0udi-0900000000-4b7a0e5c50e7e0b22d32
PK$NUM_PEAK: 2
PK$PEAK: m/z int. rel.int.
  41.700 9901.0 80
  101.900 123762.5 999
//
