ACCESSION: MSBNK-Keio_Univ-KO001904
RECORD_TITLE: Theophylline; LC-ESI-QQ; MS2; CE:10 V; [M-H]-
DATE: 2016.01.19 (Created 2007.07.07, modified 2011.05.10)
AUTHORS: Kakazu Y, Horai H, Institute for Advanced Biosciences, Keio Univ.
LICENSE: CC BY-NC-SA
COMMENT: KEIO_ID T029
CH$NAME: Theophylline
CH$NAME: 1,3-Dimethylxanthine
CH$COMPOUND_CLASS: N/A
CH$FORMULA: C7H8N4O2
CH$EXACT_MASS: 180.06473
CH$SMILES: CN1C2=C(C(=O)N(C1=O)C)NC=N2
CH$IUPAC: InChI=1S/C7H8N4O2/c1-10-5-4(8-3-9-5)6(12)11(2)7(10)13/h3H,1-2H3,(H,8,9)
CH$LINK: CAS 58-55-9
CH$LINK: CHEBI CHEBI:28177
CH$LINK: CHEMPDB TEP
CH$LINK: KEGG C07130
CH$LINK: NIKKAJI J2.333G
CH$LINK: PUBCHEM CID:2153
CH$LINK: INCHIKEY ZFXYFBGIUFBOJW-UHFFFAOYSA-N
CH$LINK: COMPTOX DTXSID5021336
AC$INSTRUMENT: API3000, Applied Biosystems
AC$INSTRUMENT_TYPE: LC-ESI-QQ
AC$MASS_SPECTROMETRY: MS_TYPE MS2
AC$MASS_SPECTROMETRY: ION_MODE NEGATIVE
AC$MASS_SPECTROMETRY: COLLISION_ENERGY 10 V
MS$FOCUSED_ION: PRECURSOR_M/Z 179
MS$FOCUSED_ION: PRECURSOR_TYPE [M-H]-
PK$SPLASH: splash10-004i-0900000000-556e382f583d610ef1f0
PK$NUM_PEAK: 9
PK$PEAK: m/z int. rel.int.
  34.900 9901.0 1
  59.100 84158.5 1
  97.000 69307.0 1
  115.200 59406.0 1
  122.400 44554.5 1
  135.100 34653.5 1
  144.900 24752.5 1
  163.800 272277.5 3
  179.200 100237724.0 999
//
