ACCESSION: MSBNK-Keio_Univ-KO000268
RECORD_TITLE: 3-Amino-3-(4-hydroxyphenyl)propionic acid; LC-ESI-QQ; MS2; CE:10 V; [M-H]-
DATE: 2016.01.19 (Created 2007.07.07, modified 2011.05.10)
AUTHORS: Kakazu Y, Horai H, Institute for Advanced Biosciences, Keio Univ.
LICENSE: CC BY-NC-SA
COMMENT: KEIO_ID A176
CH$NAME: 3-Amino-3-(4-hydroxyphenyl)propionate
CH$NAME: 3-Amino-3-(4-hydroxyphenyl)propanoate
CH$NAME: beta-Tyrosine
CH$NAME: 3-Amino-3-(4-hydroxyphenyl)propionic acid
CH$COMPOUND_CLASS: N/A
CH$FORMULA: C9H11NO3
CH$EXACT_MASS: 181.07389
CH$SMILES: OC(=O)CC(N)c(c1)ccc(O)c1
CH$IUPAC: InChI=1S/C9H11NO3/c10-8(5-9(12)13)6-1-3-7(11)4-2-6/h1-4,8,11H,5,10H2,(H,12,13)
CH$LINK: CHEBI CHEBI:16939
CH$LINK: KEGG C04368
CH$LINK: PUBCHEM CID:440311
CH$LINK: INCHIKEY JYPHNHPXFNEZBR-UHFFFAOYSA-N
AC$INSTRUMENT: API3000, Applied Biosystems
AC$INSTRUMENT_TYPE: LC-ESI-QQ
AC$MASS_SPECTROMETRY: MS_TYPE MS2
AC$MASS_SPECTROMETRY: ION_MODE NEGATIVE
AC$MASS_SPECTROMETRY: COLLISION_ENERGY 10 V
MS$FOCUSED_ION: PRECURSOR_M/Z 180
MS$FOCUSED_ION: PRECURSOR_TYPE [M-H]-
PK$SPLASH: splash10-001i-0900000000-2be9f40006dda890b6ef
PK$NUM_PEAK: 8
PK$PEAK: m/z int. rel.int.
  95.200 44554.5 2
  97.100 108911.0 4
  97.400 54455.5 2
  119.100 410891.5 16
  134.000 64356.5 2
  136.200 445545.0 17
  148.000 1400991.5 54
  180.100 25737649.5 999
//
