ACCESSION: MSBNK-Keio_Univ-KO003355
RECORD_TITLE: alpha-Methylserine; LC-ESI-QQ; MS2; CE:40 V; [M+H]+
DATE: 2016.01.19 (Created 2007.07.07, modified 2011.05.10)
AUTHORS: Kakazu Y, Horai H, Institute for Advanced Biosciences, Keio Univ.
LICENSE: CC BY-NC-SA
COMMENT: KEIO_ID M025
CH$NAME: a-Methylserine
CH$NAME: 2-Methylserine
CH$NAME: alpha-Methylserine
CH$COMPOUND_CLASS: N/A
CH$FORMULA: C4H9NO3
CH$EXACT_MASS: 119.05824
CH$SMILES: OCC(C)(N)C(O)=O
CH$IUPAC: InChI=1S/C4H9NO3/c1-4(5,2-6)3(7)8/h6H,2,5H2,1H3,(H,7,8)
CH$LINK: CHEBI CHEBI:17799
CH$LINK: KEGG C02115
CH$LINK: PUBCHEM CID:439656
CH$LINK: INCHIKEY CDUUKBXTEOFITR-UHFFFAOYSA-N
AC$INSTRUMENT: API3000, Applied Biosystems
AC$INSTRUMENT_TYPE: LC-ESI-QQ
AC$MASS_SPECTROMETRY: MS_TYPE MS2
AC$MASS_SPECTROMETRY: ION_MODE POSITIVE
AC$MASS_SPECTROMETRY: COLLISION_ENERGY 40 V
MS$FOCUSED_ION: PRECURSOR_M/Z 120
MS$FOCUSED_ION: PRECURSOR_TYPE [M+H]+
PK$SPLASH: splash10-0a4i-9000000000-b9a0a406f5fcbb2b481f
PK$NUM_PEAK: 8
PK$PEAK: m/z int. rel.int.
  43.900 24752.5 54
  56.200 460396.5 999
  57.200 292079.5 634
  64.900 14851.5 32
  69.200 24752.5 54
  70.400 9901.0 21
  74.000 252475.5 548
  88.600 14851.5 32
//
