ACCESSION: MSBNK-Keio_Univ-KO002357
RECORD_TITLE: Ne-Acetyllysine; LC-ESI-QQ; MS2; CE:50 V; [M+H]+
DATE: 2016.01.19 (Created 2007.07.07, modified 2011.05.10)
AUTHORS: Kakazu Y, Horai H, Institute for Advanced Biosciences, Keio Univ.
LICENSE: CC BY-NC-SA
COMMENT: KEIO_ID A174
CH$NAME: Ne-Acetyllysine
CH$NAME: N6-Acetyl-L-lysine
CH$COMPOUND_CLASS: N/A
CH$FORMULA: C8H16N2O3
CH$EXACT_MASS: 188.11609
CH$SMILES: CC(=O)NCCCC[C@H](N)C(O)=O
CH$IUPAC: InChI=1S/C8H16N2O3/c1-6(11)10-5-3-2-4-7(9)8(12)13/h7H,2-5,9H2,1H3,(H,10,11)(H,12,13)/t7-/m0/s1
CH$LINK: CAS 692-04-6
CH$LINK: CHEBI CHEBI:17752
CH$LINK: CHEMPDB ALY
CH$LINK: KEGG C02727
CH$LINK: NIKKAJI J206.006J
CH$LINK: PUBCHEM CID:92832
CH$LINK: INCHIKEY DTERQYGMUDWYAZ-ZETCQYMHSA-N
AC$INSTRUMENT: API3000, Applied Biosystems
AC$INSTRUMENT_TYPE: LC-ESI-QQ
AC$MASS_SPECTROMETRY: MS_TYPE MS2
AC$MASS_SPECTROMETRY: ION_MODE POSITIVE
AC$MASS_SPECTROMETRY: COLLISION_ENERGY 50 V
MS$FOCUSED_ION: PRECURSOR_M/Z 189
MS$FOCUSED_ION: PRECURSOR_TYPE [M+H]+
PK$SPLASH: splash10-001i-9000000000-1400569a447d5f66c3a8
PK$NUM_PEAK: 14
PK$PEAK: m/z int. rel.int.
  41.100 69307.0 2
  41.900 69307.0 2
  43.000 663367.0 21
  55.100 425743.0 14
  56.300 3069310.0 98
  57.300 64356.5 2
  65.200 69307.0 2
  66.900 1123763.5 36
  68.300 59406.0 2
  68.900 267327.0 9
  73.900 64356.5 2
  80.300 24752.5 1
  82.000 237624.0 8
  84.200 31331714.5 999
//
