ACCESSION: MSBNK-Keio_Univ-KO003645
RECORD_TITLE: Octylamine; LC-ESI-QQ; MS2; CE:40 V; [M+H]+
DATE: 2016.01.19 (Created 2007.07.07, modified 2011.05.10)
AUTHORS: Kakazu Y, Horai H, Institute for Advanced Biosciences, Keio Univ.
LICENSE: CC BY-NC-SA
COMMENT: KEIO_ID O007
CH$NAME: Octylamine
CH$NAME: Monoctylamine
CH$NAME: N-Octylamine
CH$COMPOUND_CLASS: N/A
CH$FORMULA: C8H19N
CH$EXACT_MASS: 129.15175
CH$SMILES: CCCCCCCCN
CH$IUPAC: InChI=1S/C8H19N/c1-2-3-4-5-6-7-8-9/h2-9H2,1H3
CH$LINK: CAS 111-86-4
CH$LINK: KEGG C01740
CH$LINK: NIKKAJI J5.115B
CH$LINK: PUBCHEM SID:4875
CH$LINK: INCHIKEY IOQPZZOEVPZRBK-UHFFFAOYSA-N
CH$LINK: COMPTOX DTXSID8021939
AC$INSTRUMENT: API3000, Applied Biosystems
AC$INSTRUMENT_TYPE: LC-ESI-QQ
AC$MASS_SPECTROMETRY: MS_TYPE MS2
AC$MASS_SPECTROMETRY: ION_MODE POSITIVE
AC$MASS_SPECTROMETRY: COLLISION_ENERGY 40 V
MS$FOCUSED_ION: PRECURSOR_M/Z 130
MS$FOCUSED_ION: PRECURSOR_TYPE [M+H]+
PK$SPLASH: splash10-0006-9000000000-b505c336f920e3cb8531
PK$NUM_PEAK: 10
PK$PEAK: m/z int. rel.int.
  28.900 14851.5 9
  39.000 44554.5 26
  41.000 1475249.0 876
  43.200 1683170.0 999
  55.000 163366.5 97
  57.200 336634.0 200
  65.000 39604.0 24
  66.900 74257.5 44
  69.800 24752.5 15
  102.900 34653.5 21
//
