ACCESSION: MSBNK-Keio_Univ-KO003550
RECORD_TITLE: 4,4'-Methylene bis(o-chloroaniline); LC-ESI-QQ; MS2; CE:40 V; [M+H]+
DATE: 2016.01.19 (Created 2007.07.07, modified 2011.05.10)
AUTHORS: Kakazu Y, Horai H, Institute for Advanced Biosciences, Keio Univ.
LICENSE: CC BY-NC-SA
COMMENT: KEIO_ID M142
CH$NAME: 4,4'-Methylene bis(o-chloroaniline)
CH$NAME: Methylenebis(chloroaniline)
CH$NAME: 4,4'-Methylene-bis-(2-chloroaniline)
CH$COMPOUND_CLASS: N/A
CH$FORMULA: C13H12Cl2N2
CH$EXACT_MASS: 266.03775
CH$SMILES: Nc(c2)c(Cl)cc(c2)Cc(c1)cc(Cl)c(N)c1
CH$IUPAC: InChI=1S/C13H12Cl2N2/c14-10-6-8(1-3-12(10)16)5-9-2-4-13(17)11(15)7-9/h1-4,6-7H,5,16-17H2
CH$LINK: CAS 101-14-4
CH$LINK: KEGG C10999
CH$LINK: NIKKAJI J3.595E
CH$LINK: PUBCHEM SID:13182
CH$LINK: INCHIKEY IBOFVQJTBBUKMU-UHFFFAOYSA-N
CH$LINK: COMPTOX DTXSID5020865
AC$INSTRUMENT: API3000, Applied Biosystems
AC$INSTRUMENT_TYPE: LC-ESI-QQ
AC$MASS_SPECTROMETRY: MS_TYPE MS2
AC$MASS_SPECTROMETRY: ION_MODE POSITIVE
AC$MASS_SPECTROMETRY: COLLISION_ENERGY 40 V
MS$FOCUSED_ION: PRECURSOR_M/Z 267
MS$FOCUSED_ION: PRECURSOR_TYPE [M+H]+
PK$SPLASH: splash10-0f6w-0910000000-b035b6877ff4815d406b
PK$NUM_PEAK: 59
PK$PEAK: m/z int. rel.int.
  38.600 14851.5 5
  42.800 19802.0 6
  57.000 49505.0 15
  58.200 19802.0 6
  65.000 74257.5 23
  69.000 29703.0 9
  71.100 24752.5 8
  76.900 123762.5 38
  78.400 39604.0 12
  79.800 59406.0 18
  84.200 29703.0 9
  91.900 138614.0 42
  94.300 19802.0 6
  98.700 9901.0 3
  104.100 2188121.0 665
  106.400 34653.5 11
  112.800 69307.0 21
  115.200 39604.0 12
  117.400 99010.0 30
  117.800 19802.0 6
  121.200 64356.5 20
  123.200 14851.5 5
  127.200 44554.5 14
  128.900 19802.0 6
  130.200 34653.5 11
  138.900 14851.5 5
  140.000 2777230.5 844
  141.200 217822.0 66
  142.700 99010.0 30
  151.100 282178.5 86
  152.300 173267.5 53
  153.300 188119.0 57
  154.100 79208.0 24
  155.900 44554.5 14
  164.300 79208.0 24
  165.000 14851.5 5
  166.700 49505.0 15
  167.400 415842.0 126
  168.100 1108912.0 337
  169.000 148515.0 45
  178.300 361386.5 110
  179.200 386139.0 117
  180.300 871288.0 265
  182.000 24752.5 8
  186.900 19802.0 6
  190.100 94059.5 29
  192.500 44554.5 14
  193.300 89109.0 27
  194.500 277228.0 84
  195.200 3287132.0 999
  196.200 1024753.5 311
  197.100 44554.5 14
  202.500 14851.5 5
  214.200 544555.0 165
  216.000 64356.5 20
  216.300 94059.5 29
  229.400 34653.5 11
  231.000 1173268.5 357
  267.200 143564.5 44
//
