ACCESSION: MSBNK-Keio_Univ-KO001443
RECORD_TITLE: 6-Methylaminopurine; LC-ESI-QQ; MS2; CE:20 V; [M-H]-
DATE: 2016.01.19 (Created 2007.07.07, modified 2011.05.10)
AUTHORS: Kakazu Y, Horai H, Institute for Advanced Biosciences, Keio Univ.
LICENSE: CC BY-NC-SA
COMMENT: KEIO_ID M072
CH$NAME: 6-Methylaminopurine
CH$NAME: N6-Methyladenine
CH$COMPOUND_CLASS: N/A
CH$FORMULA: C6H7N5
CH$EXACT_MASS: 149.07015
CH$SMILES: CNC1=NC=NC2=C1NC=N2
CH$IUPAC: InChI=1S/C6H7N5/c1-7-5-4-6(10-2-8-4)11-3-9-5/h2-3H,1H3,(H2,7,8,9,10,11)
CH$LINK: CAS 443-72-1
CH$LINK: KEGG C08434
CH$LINK: NIKKAJI J128.125I
CH$LINK: PUBCHEM SID:10629
CH$LINK: INCHIKEY CKOMXBHMKXXTNW-UHFFFAOYSA-N
CH$LINK: COMPTOX DTXSID1020857
AC$INSTRUMENT: API3000, Applied Biosystems
AC$INSTRUMENT_TYPE: LC-ESI-QQ
AC$MASS_SPECTROMETRY: MS_TYPE MS2
AC$MASS_SPECTROMETRY: ION_MODE NEGATIVE
AC$MASS_SPECTROMETRY: COLLISION_ENERGY 20 V
MS$FOCUSED_ION: PRECURSOR_M/Z 148
MS$FOCUSED_ION: PRECURSOR_TYPE [M-H]-
PK$SPLASH: splash10-0002-0900000000-306d0a3a86a82c8e9c2d
PK$NUM_PEAK: 14
PK$PEAK: m/z int. rel.int.
  64.600 14851.5 1
  72.800 24752.5 1
  86.400 34653.5 1
  87.900 24752.5 1
  92.100 534654.0 12
  106.400 113861.5 3
  115.100 44554.5 1
  116.900 44554.5 1
  120.200 24752.5 1
  132.200 440594.5 10
  133.000 14638628.5 323
  146.000 886139.5 20
  146.700 29703.0 1
  148.000 45302025.5 999
//
