ACCESSION: MSBNK-Keio_Univ-KO002135
RECORD_TITLE: 3-Amino-1,2-propanediol; LC-ESI-QQ; MS2; CE:30 V; [M+H]+
DATE: 2016.01.19 (Created 2007.07.07, modified 2011.05.10)
AUTHORS: Kakazu Y, Horai H, Institute for Advanced Biosciences, Keio Univ.
LICENSE: CC BY-NC-SA
COMMENT: KEIO_ID A046
CH$NAME: 3-Amino-1,2-propanediol
CH$NAME: 3-Aminopropane-1,2-diol
CH$COMPOUND_CLASS: N/A
CH$FORMULA: C3H9NO2
CH$EXACT_MASS: 91.06333
CH$SMILES: NCC(O)CO
CH$IUPAC: InChI=1S/C3H9NO2/c4-1-3(6)2-5/h3,5-6H,1-2,4H2
CH$LINK: KEGG C06057
CH$LINK: PUBCHEM CID:440902
CH$LINK: INCHIKEY KQIGMPWTAHJUMN-UHFFFAOYSA-N
CH$LINK: COMPTOX DTXSID30862294
AC$INSTRUMENT: API3000, Applied Biosystems
AC$INSTRUMENT_TYPE: LC-ESI-QQ
AC$MASS_SPECTROMETRY: MS_TYPE MS2
AC$MASS_SPECTROMETRY: ION_MODE POSITIVE
AC$MASS_SPECTROMETRY: COLLISION_ENERGY 30 V
MS$FOCUSED_ION: PRECURSOR_M/Z 92
MS$FOCUSED_ION: PRECURSOR_TYPE [M+H]+
PK$SPLASH: splash10-0a4l-9000000000-3d290fca06fe8b788476
PK$NUM_PEAK: 7
PK$PEAK: m/z int. rel.int.
  30.400 158416.0 107
  44.100 965347.5 652
  45.100 94059.5 63
  56.000 1480199.5 999
  57.000 178218.0 120
  74.200 371287.5 251
  91.700 103960.5 70
//
