ACCESSION: MSBNK-Keio_Univ-KO002392
RECORD_TITLE: 2-Amino-2-methyl-1,3-propanediol; LC-ESI-QQ; MS2; CE:50 V; [M+H]+
DATE: 2016.01.19 (Created 2007.07.07, modified 2011.05.10)
AUTHORS: Kakazu Y, Horai H, Institute for Advanced Biosciences, Keio Univ.
LICENSE: CC BY-NC-SA
COMMENT: KEIO_ID A224
CH$NAME: 2-Amino-2-methyl-1,3-propanediol
CH$NAME: 2-Amino-2-methyl-1,3-propandiol
CH$NAME: Aminomethyl propanediol
CH$COMPOUND_CLASS: N/A
CH$FORMULA: C4H11NO2
CH$EXACT_MASS: 105.07898
CH$SMILES: OCC(C)(N)CO
CH$IUPAC: InChI=1S/C4H11NO2/c1-4(5,2-6)3-7/h6-7H,2-3,5H2,1H3
CH$LINK: CAS 115-69-5
CH$LINK: CHEBI CHEBI:991
CH$LINK: KEGG C11260
CH$LINK: NIKKAJI J35.183K
CH$LINK: PUBCHEM SID:13437
CH$LINK: INCHIKEY UXFQFBNBSPQBJW-UHFFFAOYSA-N
CH$LINK: COMPTOX DTXSID7059430
AC$INSTRUMENT: API3000, Applied Biosystems
AC$INSTRUMENT_TYPE: LC-ESI-QQ
AC$MASS_SPECTROMETRY: MS_TYPE MS2
AC$MASS_SPECTROMETRY: ION_MODE POSITIVE
AC$MASS_SPECTROMETRY: COLLISION_ENERGY 50 V
MS$FOCUSED_ION: PRECURSOR_M/Z 106
MS$FOCUSED_ION: PRECURSOR_TYPE [M+H]+
PK$SPLASH: splash10-000i-9900000000-3a9abfc824c2e4152c8c
PK$NUM_PEAK: 4
PK$PEAK: m/z int. rel.int.
  28.200 14851.5 214
  38.600 24752.5 357
  40.500 29703.0 428
  185.200 69307.0 999
//
