ACCESSION: MSBNK-Keio_Univ-KO002308
RECORD_TITLE: 5-Aminopentanoic acid; LC-ESI-QQ; MS2; CE:10 V; [M+H]+
DATE: 2016.01.19 (Created 2007.07.07, modified 2011.05.10)
AUTHORS: Kakazu Y, Horai H, Institute for Advanced Biosciences, Keio Univ.
LICENSE: CC BY-NC-SA
COMMENT: KEIO_ID A135
CH$NAME: 5-Aminopentanoate
CH$NAME: 5-Aminovaleric acid
CH$NAME: 5-Aminopentanoic acid
CH$COMPOUND_CLASS: N/A
CH$FORMULA: C5H11NO2
CH$EXACT_MASS: 117.07898
CH$SMILES: NCCCCC(O)=O
CH$IUPAC: InChI=1S/C5H11NO2/c6-4-2-1-3-5(7)8/h1-4,6H2,(H,7,8)
CH$LINK: CAS 660-88-8
CH$LINK: CHEBI CHEBI:15887
CH$LINK: KEGG C00431
CH$LINK: NIKKAJI J38.132B
CH$LINK: PUBCHEM SID:3720
CH$LINK: INCHIKEY JJMDCOVWQOJGCB-UHFFFAOYSA-N
CH$LINK: COMPTOX DTXSID70216212
AC$INSTRUMENT: API3000, Applied Biosystems
AC$INSTRUMENT_TYPE: LC-ESI-QQ
AC$MASS_SPECTROMETRY: MS_TYPE MS2
AC$MASS_SPECTROMETRY: ION_MODE POSITIVE
AC$MASS_SPECTROMETRY: COLLISION_ENERGY 10 V
MS$FOCUSED_ION: PRECURSOR_M/Z 118
MS$FOCUSED_ION: PRECURSOR_TYPE [M+H]+
PK$SPLASH: splash10-0gb9-0900000000-969dd1eb59619aa0cf7a
PK$NUM_PEAK: 16
PK$PEAK: m/z int. rel.int.
  55.200 212871.5 1
  56.300 628713.5 3
  57.100 49505.0 1
  59.200 183168.5 1
  60.100 49505.0 1
  71.700 99010.0 1
  73.800 29703.0 1
  82.200 495050.0 3
  83.200 2990102.0 16
  88.900 54455.5 1
  90.200 99010.0 1
  100.000 23168340.0 125
  101.000 79208000.0 428
  118.200 184807115.5 999
  119.000 79208.0 1
  217.100 9901.0 1
//
