ACCESSION: MSBNK-Keio_Univ-KO000320
RECORD_TITLE: Benzoic acid; LC-ESI-QQ; MS2; CE:20 V; [M-H]-
DATE: 2016.01.19 (Created 2007.07.07, modified 2011.05.10)
AUTHORS: Kakazu Y, Horai H, Institute for Advanced Biosciences, Keio Univ.
LICENSE: CC BY-NC-SA
COMMENT: KEIO_ID B002
CH$NAME: Benzoate
CH$NAME: Benzoic acid
CH$NAME: Dracylic acid
CH$NAME: Phenylformic acid
CH$NAME: Benzenecarboxylic acid
CH$COMPOUND_CLASS: N/A
CH$FORMULA: C7H6O2
CH$EXACT_MASS: 122.03678
CH$SMILES: OC(=O)c(c1)cccc1
CH$IUPAC: InChI=1S/C7H6O2/c8-7(9)6-4-2-1-3-5-6/h1-5H,(H,8,9)
CH$LINK: CAS 65-85-0
CH$LINK: CHEBI CHEBI:30746
CH$LINK: CHEMPDB BEZ
CH$LINK: KEGG C00180
CH$LINK: NIKKAJI J2.358B
CH$LINK: PUBCHEM SID:3480
CH$LINK: INCHIKEY WPYMKLBDIGXBTP-UHFFFAOYSA-N
CH$LINK: COMPTOX DTXSID6020143
AC$INSTRUMENT: API3000, Applied Biosystems
AC$INSTRUMENT_TYPE: LC-ESI-QQ
AC$MASS_SPECTROMETRY: MS_TYPE MS2
AC$MASS_SPECTROMETRY: ION_MODE NEGATIVE
AC$MASS_SPECTROMETRY: COLLISION_ENERGY 20 V
MS$FOCUSED_ION: PRECURSOR_M/Z 121
MS$FOCUSED_ION: PRECURSOR_TYPE [M-H]-
PK$SPLASH: splash10-00b9-9400000000-11baabb3c0bb283b1c6e
PK$NUM_PEAK: 5
PK$PEAK: m/z int. rel.int.
  59.100 138614.0 33
  77.100 4212875.5 999
  92.800 386139.0 92
  105.900 19802.0 5
  121.200 2425745.0 575
//
