ACCESSION: MSBNK-Keio_Univ-KO002483
RECORD_TITLE: Bekanamycin; LC-ESI-QQ; MS2; CE:10 V; [M+H]+
DATE: 2016.01.19 (Created 2007.07.07, modified 2011.05.10)
AUTHORS: Kakazu Y, Horai H, Institute for Advanced Biosciences, Keio Univ.
LICENSE: CC BY-NC-SA
COMMENT: KEIO_ID B028
CH$NAME: Bekanamycin
CH$NAME: Kanamycin B
CH$NAME: Nebramycin factor 5
CH$COMPOUND_CLASS: N/A
CH$FORMULA: C18H37N5O10
CH$EXACT_MASS: 483.25404
CH$SMILES: NCC(O1)C(O)C(O)C(N)C1OC(C(N)3)C(O)C(C(N)C3)OC([H])(O2)C(O)C(N)C(O)C(CO)2
CH$IUPAC: InChI=1S/C18H37N5O10/c19-2-6-11(26)12(27)9(23)17(30-6)32-15-4(20)1-5(21)16(14(15)29)33-18-13(28)8(22)10(25)7(3-24)31-18/h4-18,24-29H,1-3,19-23H2/t4-,5+,6+,7+,8-,9+,10+,11+,12+,13+,14-,15+,16-,17+,18+/m0/s1
CH$LINK: CAS 4696-76-8
CH$LINK: CHEBI CHEBI:28098
CH$LINK: KEGG C00825
CH$LINK: NIKKAJI J8.763G
CH$LINK: PUBCHEM CID:439318
CH$LINK: INCHIKEY SKKLOUVUUNMCJE-FQSMHNGLSA-N
CH$LINK: COMPTOX DTXSID8023185
AC$INSTRUMENT: API3000, Applied Biosystems
AC$INSTRUMENT_TYPE: LC-ESI-QQ
AC$MASS_SPECTROMETRY: MS_TYPE MS2
AC$MASS_SPECTROMETRY: ION_MODE POSITIVE
AC$MASS_SPECTROMETRY: COLLISION_ENERGY 10 V
MS$FOCUSED_ION: PRECURSOR_M/Z 484
MS$FOCUSED_ION: PRECURSOR_TYPE [M+H]+
PK$SPLASH: splash10-001i-0000900000-0d2b41c52c1bd5dd2d7d
PK$NUM_PEAK: 19
PK$PEAK: m/z int. rel.int.
  185.900 64356.5 4
  205.600 34653.5 2
  227.600 14851.5 1
  233.300 118812.0 7
  234.300 128713.0 8
  234.500 44554.5 3
  242.700 74257.5 4
  250.400 49505.0 3
  251.600 138614.0 8
  252.500 79208.0 5
  324.800 351485.5 21
  351.500 316832.0 18
  365.100 103960.5 6
  375.500 19802.0 1
  424.200 14851.5 1
  467.600 470297.5 27
  484.600 17118829.0 999
  506.700 19802.0 1
  582.700 39604.0 2
//
