ACCESSION: MSBNK-Keio_Univ-KO009203
RECORD_TITLE: Protopine; LC-ESI-IT; MS3; m/z: 354/247; [M+H]+
DATE: 2011.12.05 (Created 2008.05.12)
AUTHORS: Ojima Y, Kakazu Y, Horai H, Soga T, Institute for Advanced Biosciences, Keio Univ.
LICENSE: CC BY-NC-SA
COMMENT: KEIO_ID P070
COMMENT: [MS2] KO009201
CH$NAME: Protopine
CH$COMPOUND_CLASS: N/A
CH$FORMULA: C20H19NO5
CH$EXACT_MASS: 353.12632
CH$SMILES: CN(C5)Cc(c1CC(=O)c(c3)c(C5)cc(O4)c(OC4)3)c(O2)c(OC2)cc1
CH$IUPAC: InChI=1S/C20H19NO5/c1-21-5-4-13-7-18-19(25-10-24-18)8-14(13)16(22)6-12-2-3-17-20(15(12)9-21)26-11-23-17/h2-3,7-8H,4-6,9-11H2,1H3
CH$LINK: CAS 130-86-9
CH$LINK: CHEBI CHEBI:16415
CH$LINK: KEGG C05189
CH$LINK: NIKKAJI J40.085H
CH$LINK: PUBCHEM SID:7594
CH$LINK: INCHIKEY GPTFURBXHJWNHR-UHFFFAOYSA-N
CH$LINK: COMPTOX DTXSID90156282
AC$INSTRUMENT: LC/MSD Trap XCT, Agilent Technologies
AC$INSTRUMENT_TYPE: LC-ESI-IT
AC$MASS_SPECTROMETRY: MS_TYPE MS3
AC$MASS_SPECTROMETRY: ION_MODE POSITIVE
AC$MASS_SPECTROMETRY: COLLISION_ENERGY 1.00/0.80
MS$FOCUSED_ION: PRECURSOR_M/Z 354/247
MS$FOCUSED_ION: PRECURSOR_TYPE [M+H]+
MS$DATA_PROCESSING: WHOLE LC/MSD Trap Control and Data Analysis
PK$SPLASH: splash10-014i-0190000000-f6dab1e9d3bf4b393dbb
PK$NUM_PEAK: 18
PK$PEAK: m/z int. rel.int.
  177.0 1.42 1
  189.1 341.39 171
  190.1 61.33 31
  191.1 50.33 25
  205.1 14.25 7
  206.1 5.25 3
  217.1 1990.35 999
  218.1 346.55 174
  219.1 102.82 52
  220.0 14.17 7
  228.9 2.75 1
  232.1 10.58 5
  233.1 14.67 7
  246.1 16.91 8
  247.1 104.57 52
  292.9 2.00 1
  320.1 5.25 3
  391.0 6.67 3
//
