ACCESSION: MSBNK-Keio_Univ-KO001881
RECORD_TITLE: Thymidine; LC-ESI-QQ; MS2; CE:10 V; [M-H]-
DATE: 2016.01.19 (Created 2007.07.07, modified 2011.05.10)
AUTHORS: Kakazu Y, Horai H, Institute for Advanced Biosciences, Keio Univ.
LICENSE: CC BY-NC-SA
COMMENT: KEIO_ID T014
CH$NAME: Thymidine
CH$NAME: Deoxythymidine
CH$COMPOUND_CLASS: N/A
CH$FORMULA: C10H14N2O5
CH$EXACT_MASS: 242.09027
CH$SMILES: OC[C@@H](O1)[C@@H](O)C[C@@H]1N(C=2)C(=O)NC(=O)C(C)2
CH$IUPAC: InChI=1S/C10H14N2O5/c1-5-3-12(10(16)11-9(5)15)8-2-6(14)7(4-13)17-8/h3,6-8,13-14H,2,4H2,1H3,(H,11,15,16)/t6-,7+,8+/m0/s1
CH$LINK: CAS 50-89-5
CH$LINK: CHEBI CHEBI:17748
CH$LINK: KEGG C00214
CH$LINK: NIKKAJI J4.548I
CH$LINK: PUBCHEM SID:3514
CH$LINK: INCHIKEY IQFYYKKMVGJFEH-XLPZGREQSA-N
CH$LINK: COMPTOX DTXSID5023661
AC$INSTRUMENT: API3000, Applied Biosystems
AC$INSTRUMENT_TYPE: LC-ESI-QQ
AC$MASS_SPECTROMETRY: MS_TYPE MS2
AC$MASS_SPECTROMETRY: ION_MODE NEGATIVE
AC$MASS_SPECTROMETRY: COLLISION_ENERGY 10 V
MS$FOCUSED_ION: PRECURSOR_M/Z 241
MS$FOCUSED_ION: PRECURSOR_TYPE [M-H]-
PK$SPLASH: splash10-0006-0090000000-435be9f03e969dbabb79
PK$NUM_PEAK: 18
PK$PEAK: m/z int. rel.int.
  35.000 34653.5 1
  41.800 49505.0 1
  58.300 24752.5 1
  58.900 24752.5 1
  97.200 34653.5 1
  108.900 29703.0 1
  125.200 4183172.5 44
  126.800 34653.5 1
  140.600 89109.0 1
  142.900 89109.0 1
  151.400 470297.5 5
  161.300 19802.0 1
  177.100 24752.5 1
  180.900 29703.0 1
  188.400 39604.0 1
  197.100 207921.0 2
  241.200 94346629.0 999
  242.100 84158.5 1
//
