ACCESSION: MSBNK-Keio_Univ-KO001530
RECORD_TITLE: 2-Oxoglutaric acid; LC-ESI-QQ; MS2; CE:30 V; [M-H]-
DATE: 2016.01.19 (Created 2007.07.07, modified 2011.05.10)
AUTHORS: Kakazu Y, Horai H, Institute for Advanced Biosciences, Keio Univ.
LICENSE: CC BY-NC-SA
COMMENT: KEIO_ID O002
CH$NAME: 2-Oxoglutarate
CH$NAME: 2-Ketoglutaric acid
CH$NAME: alpha-Ketoglutaric acid
CH$NAME: Oxoglutaric acid
CH$NAME: 2-Oxoglutaric acid
CH$COMPOUND_CLASS: N/A
CH$FORMULA: C5H6O5
CH$EXACT_MASS: 146.02152
CH$SMILES: OC(=O)CCC(=O)C(O)=O
CH$IUPAC: InChI=1S/C5H6O5/c6-3(5(9)10)1-2-4(7)8/h1-2H2,(H,7,8)(H,9,10)
CH$LINK: CAS 328-50-7
CH$LINK: CHEBI CHEBI:30915
CH$LINK: CHEMPDB AKG
CH$LINK: KEGG C00026
CH$LINK: NIKKAJI J11.847H
CH$LINK: PUBCHEM SID:3328
CH$LINK: INCHIKEY KPGXRSRHYNQIFN-UHFFFAOYSA-N
CH$LINK: COMPTOX DTXSID5033179
AC$INSTRUMENT: API3000, Applied Biosystems
AC$INSTRUMENT_TYPE: LC-ESI-QQ
AC$MASS_SPECTROMETRY: MS_TYPE MS2
AC$MASS_SPECTROMETRY: ION_MODE NEGATIVE
AC$MASS_SPECTROMETRY: COLLISION_ENERGY 30 V
MS$FOCUSED_ION: PRECURSOR_M/Z 145
MS$FOCUSED_ION: PRECURSOR_TYPE [M-H]-
PK$SPLASH: splash10-0a4i-9300000000-4fde39bb93cde5a27f23
PK$NUM_PEAK: 2
PK$PEAK: m/z int. rel.int.
  56.800 138614.0 999
  100.700 59406.0 428
//
