ACCESSION: MSBNK-Keio_Univ-KO001636
RECORD_TITLE: Pyridoxine; LC-ESI-QQ; MS2; CE:10 V; [M-H]-
DATE: 2016.01.19 (Created 2007.07.07, modified 2011.05.10)
AUTHORS: Kakazu Y, Horai H, Institute for Advanced Biosciences, Keio Univ.
LICENSE: CC BY-NC-SA
COMMENT: KEIO_ID P053
CH$NAME: Pyridoxine
CH$NAME: Pyridoxol
CH$COMPOUND_CLASS: N/A
CH$FORMULA: C8H11NO3
CH$EXACT_MASS: 169.07389
CH$SMILES: OCc(c1)c(CO)c(O)c(C)n1
CH$IUPAC: InChI=1S/C8H11NO3/c1-5-8(12)7(4-11)6(3-10)2-9-5/h2,10-12H,3-4H2,1H3
CH$LINK: CAS 65-23-6
CH$LINK: CHEBI CHEBI:16709
CH$LINK: KEGG C00314
CH$LINK: NIKKAJI J2.356F
CH$LINK: PUBCHEM CID:1054
CH$LINK: INCHIKEY LXNHXLLTXMVWPM-UHFFFAOYSA-N
CH$LINK: COMPTOX DTXSID4023541
AC$INSTRUMENT: API3000, Applied Biosystems
AC$INSTRUMENT_TYPE: LC-ESI-QQ
AC$MASS_SPECTROMETRY: MS_TYPE MS2
AC$MASS_SPECTROMETRY: ION_MODE NEGATIVE
AC$MASS_SPECTROMETRY: COLLISION_ENERGY 10 V
MS$FOCUSED_ION: PRECURSOR_M/Z 168
MS$FOCUSED_ION: PRECURSOR_TYPE [M-H]-
PK$SPLASH: splash10-014i-0900000000-479d4492cc8d634fa366
PK$NUM_PEAK: 11
PK$PEAK: m/z int. rel.int.
  107.400 34653.5 1
  120.700 79208.0 1
  122.400 267327.0 3
  122.900 19802.0 1
  135.400 44554.5 1
  137.700 405941.0 4
  149.300 19802.0 1
  150.300 8569315.5 86
  153.300 24752.5 1
  166.400 3455449.0 34
  168.200 100069407.0 999
//
