ACCESSION: MSBNK-Keio_Univ-KO001760
RECORD_TITLE: Ribostamycin; LC-ESI-QQ; MS2; CE:10 V; [M-H]-
DATE: 2016.01.19 (Created 2007.07.07, modified 2011.05.10)
AUTHORS: Kakazu Y, Horai H, Institute for Advanced Biosciences, Keio Univ.
LICENSE: CC BY-NC-SA
COMMENT: KEIO_ID R016
CH$NAME: Ribostamycin
CH$NAME: Vistamycin
CH$COMPOUND_CLASS: N/A
CH$FORMULA: C17H34N4O10
CH$EXACT_MASS: 454.22749
CH$SMILES: NC[C@@H](O1)[C@@H](O)[C@H](O)[C@@H](N)[C@H]1O[C@H]([C@@H](N)2)[C@H](O[C@H](O3)[C@H](O)[C@H](O)[C@@H](CO)3)[C@@H](O)[C@H](N)C2
CH$IUPAC: InChI=1S/C17H34N4O10/c18-2-6-10(24)12(26)8(21)16(28-6)30-14-5(20)1-4(19)9(23)15(14)31-17-13(27)11(25)7(3-22)29-17/h4-17,22-27H,1-3,18-21H2/t4-,5+,6-,7-,8-,9+,10-,11-,12-,13-,14-,15-,16-,17-/m1/s1
CH$LINK: CAS 25546-65-0
CH$LINK: CHEBI CHEBI:10003
CH$LINK: KEGG C01759
CH$LINK: NIKKAJI J20.066B
CH$LINK: PUBCHEM CID:33042
CH$LINK: INCHIKEY NSKGQURZWSPSBC-DLBSIDPUSA-N
AC$INSTRUMENT: API3000, Applied Biosystems
AC$INSTRUMENT_TYPE: LC-ESI-QQ
AC$MASS_SPECTROMETRY: MS_TYPE MS2
AC$MASS_SPECTROMETRY: ION_MODE NEGATIVE
AC$MASS_SPECTROMETRY: COLLISION_ENERGY 10 V
MS$FOCUSED_ION: PRECURSOR_M/Z 453
MS$FOCUSED_ION: PRECURSOR_TYPE [M-H]-
PK$SPLASH: splash10-0udi-1011900000-3c0ad3b00498bcee144c
PK$NUM_PEAK: 12
PK$PEAK: m/z int. rel.int.
  96.800 410891.5 123
  156.700 19802.0 6
  274.900 19802.0 6
  287.000 366337.0 109
  288.200 158416.0 47
  297.100 34653.5 10
  306.100 346535.0 103
  309.200 19802.0 6
  393.300 207921.0 62
  409.700 9901.0 3
  435.200 14851.5 4
  453.400 3346538.0 999
//
