ACCESSION: MSBNK-Keio_Univ-KO001169
RECORD_TITLE: Indole-3-pyruvic acid; LC-ESI-QQ; MS2; CE:50 V; [M-H]-
DATE: 2016.01.19 (Created 2007.07.07, modified 2012.10.22)
AUTHORS: Kakazu Y, Horai H, Institute for Advanced Biosciences, Keio Univ.
LICENSE: CC BY-NC-SA
COMMENT: KEIO_ID I002
CH$NAME: Indole-3-pyruvate
CH$NAME: Indolepyruvic acid
CH$NAME: (Indol-3-yl)pyruvate
CH$NAME: Indolepyruvate
CH$NAME: 3-(Indol-3-yl)pyruvate
CH$NAME: Indole-3-pyruvic acid
CH$COMPOUND_CLASS: N/A
CH$FORMULA: C11H9NO3
CH$EXACT_MASS: 203.05824
CH$SMILES: C1=CC=C2C(=C1)C(=CN2)CC(=O)C(=O)O
CH$IUPAC: InChI=1S/C11H9NO3/c13-10(11(14)15)5-7-6-12-9-4-2-1-3-8(7)9/h1-4,6,12H,5H2,(H,14,15)
CH$LINK: CAS 35656-49-6
CH$LINK: CHEBI CHEBI:29750
CH$LINK: KEGG C00331
CH$LINK: PUBCHEM SID:3625
CH$LINK: INCHIKEY RSTKLPZEZYGQPY-UHFFFAOYSA-N
CH$LINK: COMPTOX DTXSID3042053
AC$INSTRUMENT: API3000, Applied Biosystems
AC$INSTRUMENT_TYPE: LC-ESI-QQ
AC$MASS_SPECTROMETRY: MS_TYPE MS2
AC$MASS_SPECTROMETRY: ION_MODE NEGATIVE
AC$MASS_SPECTROMETRY: COLLISION_ENERGY 50 V
MS$FOCUSED_ION: PRECURSOR_M/Z 202
MS$FOCUSED_ION: PRECURSOR_TYPE [M-H]-
PK$SPLASH: splash10-014i-4900000000-95c91da39b950494114a
PK$NUM_PEAK: 7
PK$PEAK: m/z int. rel.int.
  65.800 460396.5 650
  78.700 19802.0 28
  114.000 183168.5 258
  115.100 707921.5 999
  125.600 9901.0 14
  142.000 69307.0 98
  143.700 89109.0 126
//
