ACCESSION: MSBNK-Keio_Univ-KO009005
RECORD_TITLE: 3-Hydroxy-DL-kynurenine; LC-ESI-IT; MS4; m/z: 225/208/162; [M+H]+
DATE: 2011.12.05 (Created 2008.05.12)
AUTHORS: Ojima Y, Kakazu Y, Horai H, Soga T, Institute for Advanced Biosciences, Keio Univ.
LICENSE: CC BY-NC-SA
COMMENT: KEIO_ID H050
COMMENT: [MS3] KO009001
CH$NAME: 3-Hydroxykynurenine
CH$NAME: 3-Hydroxy-DL-kynurenine
CH$COMPOUND_CLASS: N/A
CH$FORMULA: C10H12N2O4
CH$EXACT_MASS: 224.07971
CH$SMILES: OC(=O)C(N)CC(=O)c(c1)c(N)c(O)cc1
CH$IUPAC: InChI=1S/C10H12N2O4/c11-6(10(15)16)4-8(14)5-2-1-3-7(13)9(5)12/h1-3,6,13H,4,11-12H2,(H,15,16)
CH$LINK: CAS 2147-61-7
CH$LINK: CHEBI CHEBI:1547
CH$LINK: KEGG C02794
CH$LINK: NIKKAJI J257.323G
CH$LINK: PUBCHEM CID:89
CH$LINK: INCHIKEY VCKPUUFAIGNJHC-UHFFFAOYSA-N
AC$INSTRUMENT: LC/MSD Trap XCT, Agilent Technologies
AC$INSTRUMENT_TYPE: LC-ESI-IT
AC$MASS_SPECTROMETRY: MS_TYPE MS4
AC$MASS_SPECTROMETRY: ION_MODE POSITIVE
AC$MASS_SPECTROMETRY: COLLISION_ENERGY 0.60/0.50/0.50
MS$FOCUSED_ION: PRECURSOR_M/Z 225/208/162
MS$FOCUSED_ION: PRECURSOR_TYPE [M+H]+
MS$DATA_PROCESSING: WHOLE LC/MSD Trap Control and Data Analysis
PK$SPLASH: splash10-01qa-0900000000-301763df64398d3bd889
PK$NUM_PEAK: 5
PK$PEAK: m/z int. rel.int.
  134.1 7.24 377
  145.1 17.22 897
  162.0 11.59 604
  162.9 7.62 397
  180.0 19.17 999
//
