ACCESSION: MSBNK-Keio_Univ-KO000028
RECORD_TITLE: L-Asparagine; LC-ESI-QQ; MS2; CE:50 V; [M-H]-
DATE: 2016.01.19 (Created 2007.07.07, modified 2011.05.10)
AUTHORS: Kakazu Y, Horai H, Institute for Advanced Biosciences, Keio Univ.
LICENSE: CC BY-NC-SA
COMMENT: KEIO_ID A016
CH$NAME: Asn
CH$NAME: L-Asparagine
CH$NAME: 2-Aminosuccinamic acid
CH$COMPOUND_CLASS: N/A
CH$FORMULA: C4H8N2O3
CH$EXACT_MASS: 132.05349
CH$SMILES: NC(=O)C[C@@H](N)C(O)=O
CH$IUPAC: InChI=1S/C4H8N2O3/c5-2(4(8)9)1-3(6)7/h2H,1,5H2,(H2,6,7)(H,8,9)/t2-/m0/s1
CH$LINK: CAS 70-47-3
CH$LINK: CHEBI CHEBI:17196
CH$LINK: CHEMPDB ASN
CH$LINK: KEGG C00152
CH$LINK: NIKKAJI J9.178B
CH$LINK: PUBCHEM CID:6267
CH$LINK: INCHIKEY DCXYFEDJOCDNAF-REOHCLBHSA-N
CH$LINK: COMPTOX DTXSID10883220
AC$INSTRUMENT: API3000, Applied Biosystems
AC$INSTRUMENT_TYPE: LC-ESI-QQ
AC$MASS_SPECTROMETRY: MS_TYPE MS2
AC$MASS_SPECTROMETRY: ION_MODE NEGATIVE
AC$MASS_SPECTROMETRY: COLLISION_ENERGY 50 V
MS$FOCUSED_ION: PRECURSOR_M/Z 131
MS$FOCUSED_ION: PRECURSOR_TYPE [M-H]-
PK$SPLASH: splash10-0006-9000000000-fd60db4d5e35794c45ae
PK$NUM_PEAK: 4
PK$PEAK: m/z int. rel.int.
  41.200 64356.5 81
  42.000 792080.0 999
  57.900 34653.5 44
  71.200 29703.0 37
//
