ACCESSION: MSBNK-Keio_Univ-KO003607
RECORD_TITLE: Neomycin B; LC-ESI-QQ; MS2; CE:10 V; [M+2H]++
DATE: 2016.01.19 (Created 2007.07.07, modified 2012.10.22)
AUTHORS: Kakazu Y, Horai H, Institute for Advanced Biosciences, Keio Univ.
LICENSE: CC BY-NC-SA
COMMENT: KEIO_ID N022
CH$NAME: Neomycin
CH$NAME: Fradiomycin B
CH$NAME: Streptothricin B
CH$NAME: Neomycin B
CH$COMPOUND_CLASS: N/A
CH$FORMULA: C23H46N6O13
CH$EXACT_MASS: 614.31229
CH$SMILES: NC[C@H](O1)[C@@H](O)[C@H](O)[C@@H](N)[C@H]1O[C@H]([C@@H](CO)4)[C@@H](O)[C@@H](O4)O[C@H]([C@@H](O)3)[C@@H]([C@@H](N)C[C@@H](N)3)O[C@@H](O2)[C@H](N)[C@@H](O)[C@H](O)[C@@H](CN)2
CH$IUPAC: InChI=1S/C23H46N6O13/c24-2-7-13(32)15(34)10(28)21(37-7)40-18-6(27)1-5(26)12(31)20(18)42-23-17(36)19(9(4-30)39-23)41-22-11(29)16(35)14(33)8(3-25)38-22/h5-23,30-36H,1-4,24-29H2
CH$LINK: CAS 119-04-0
CH$LINK: KEGG C01737
CH$LINK: NIKKAJI J4.458J
CH$LINK: PUBCHEM CID:8378
CH$LINK: INCHIKEY PGBHMTALBVVCIT-UHFFFAOYSA-N
AC$INSTRUMENT: API3000, Applied Biosystems
AC$INSTRUMENT_TYPE: LC-ESI-QQ
AC$MASS_SPECTROMETRY: MS_TYPE MS2
AC$MASS_SPECTROMETRY: ION_MODE POSITIVE
AC$MASS_SPECTROMETRY: COLLISION_ENERGY 10 V
MS$FOCUSED_ION: PRECURSOR_M/Z 308
MS$FOCUSED_ION: PRECURSOR_TYPE [M+2H]++
PK$SPLASH: splash10-0a4i-0209100000-fddde97aedd47a0673e9
PK$NUM_PEAK: 64
PK$PEAK: m/z int. rel.int.
  72.900 29703.0 1
  73.800 19802.0 1
  78.100 29703.0 1
  80.300 133663.5 3
  82.100 178218.0 4
  84.100 39604.0 1
  84.800 29703.0 1
  95.800 59406.0 1
  97.300 24752.5 1
  98.100 193069.5 4
  100.900 39604.0 1
  110.200 94059.5 2
  114.200 772278.0 18
  121.000 113861.5 3
  125.100 301980.5 7
  126.000 113861.5 3
  128.000 39604.0 1
  129.200 29703.0 1
  131.900 29703.0 1
  134.100 435644.0 10
  136.000 94059.5 2
  138.000 1168318.0 27
  143.100 732674.0 17
  144.200 49505.0 1
  146.300 128713.0 3
  151.900 34653.5 1
  161.200 5381193.5 123
  161.700 49505.0 1
  162.900 193069.5 4
  164.900 19802.0 1
  168.600 9901.0 1
  170.900 94059.5 2
  173.100 123762.5 3
  175.100 44554.5 1
  179.500 74257.5 2
  187.100 252475.5 6
  188.100 222772.5 5
  190.200 64356.5 1
  193.300 2113863.5 48
  201.600 59406.0 1
  203.300 64356.5 1
  207.900 24752.5 1
  210.000 128713.0 3
  211.100 212871.5 5
  211.700 39604.0 1
  216.400 44554.5 1
  231.400 34653.5 1
  232.200 19802.0 1
  244.300 34653.5 1
  248.400 430693.5 10
  258.400 49505.0 1
  259.300 44554.5 1
  273.200 178218.0 4
  276.200 94059.5 2
  276.500 153465.5 3
  277.500 49505.0 1
  291.300 950496.0 22
  293.500 628713.5 14
  295.600 430693.5 10
  300.100 79208.0 2
  308.500 43806974.5 999
  420.200 74257.5 2
  438.600 89109.0 2
  455.400 6579214.5 150
//
