ACCESSION: MSBNK-Keio_Univ-KO008838
RECORD_TITLE: DAMGO; LC-ESI-IT; MS4; m/z: 514/453/290; [M+H]+
DATE: 2011.12.05 (Created 2008.05.12)
AUTHORS: Ojima Y, Kakazu Y, Horai H, Soga T, Institute for Advanced Biosciences, Keio Univ.
LICENSE: CC BY-NC-SA
COMMENT: KEIO_ID A226
COMMENT: [MS3] KO008837
CH$NAME: DAMGO
CH$NAME: (D-Ala(2)-mephe(4)-gly-ol(5))enkephalin
CH$NAME: Tyr-D-Ala-Gly-MePhe-Gly-ol
CH$COMPOUND_CLASS: N/A
CH$FORMULA: C26H35N5O6
CH$EXACT_MASS: 513.25873
CH$SMILES: N(C(Cc(c2)cccc2)C(=O)NCCO)(C)C(=O)CNC(=O)C(C)NC(=O)C(N)Cc(c1)ccc(O)c1
CH$IUPAC: InChI=1S/C26H35N5O6/c1-17(30-25(36)21(27)14-19-8-10-20(33)11-9-19)24(35)29-16-23(34)31(2)22(26(37)28-12-13-32)15-18-6-4-3-5-7-18/h3-11,17,21-22,32-33H,12-16,27H2,1-2H3,(H,28,37)(H,29,35)(H,30,36)/t17-,21+,22+/m1/s1
CH$LINK: CAS 78123-71-4
CH$LINK: KEGG C11318
CH$LINK: PUBCHEM CID:5462471
CH$LINK: INCHIKEY HPZJMUBDEAMBFI-WTNAPCKOSA-N
CH$LINK: COMPTOX DTXSID30228775
AC$INSTRUMENT: LC/MSD Trap XCT, Agilent Technologies
AC$INSTRUMENT_TYPE: LC-ESI-IT
AC$MASS_SPECTROMETRY: MS_TYPE MS4
AC$MASS_SPECTROMETRY: ION_MODE POSITIVE
AC$MASS_SPECTROMETRY: COLLISION_ENERGY 0.75/0.65/0.50
MS$FOCUSED_ION: PRECURSOR_M/Z 514/453/290
MS$FOCUSED_ION: PRECURSOR_TYPE [M+H]+
MS$DATA_PROCESSING: WHOLE LC/MSD Trap Control and Data Analysis
PK$SPLASH: splash10-001i-0930000000-e5a8877b0d02167d753c
PK$NUM_PEAK: 9
PK$PEAK: m/z int. rel.int.
  103.0 1.10 2
  118.1 1.60 3
  119.0 15.78 32
  134.1 488.09 999
  135.1 17.78 36
  261.6 8.49 17
  273.2 5.30 11
  289.4 6.20 13
  290.2 200.86 411
//
