ACCESSION: MSBNK-Keio_Univ-KO003505
RECORD_TITLE: 5-Methoxy-N,N-dimethyltryptamine; LC-ESI-QQ; MS2; CE:40 V; [M+H]+
DATE: 2016.01.19 (Created 2007.07.07, modified 2011.05.10)
AUTHORS: Kakazu Y, Horai H, Institute for Advanced Biosciences, Keio Univ.
LICENSE: CC BY-NC-SA
COMMENT: KEIO_ID M103
CH$NAME: 5-Methoxy-N,N-dimethyltryptamine
CH$NAME: Indole, 3-(2-(N,N-dimethylamino)ethyl)-5-methoxy-
CH$COMPOUND_CLASS: N/A
CH$FORMULA: C13H18N2O
CH$EXACT_MASS: 218.14191
CH$SMILES: CN(C)CCC1=CNC2=C1C=C(C=C2)OC
CH$IUPAC: InChI=1S/C13H18N2O/c1-15(2)7-6-10-9-14-13-5-4-11(16-3)8-12(10)13/h4-5,8-9,14H,6-7H2,1-3H3
CH$LINK: CAS 1019-45-0
CH$LINK: KEGG C08309
CH$LINK: NIKKAJI J21.248B
CH$LINK: PUBCHEM SID:10507
CH$LINK: INCHIKEY ZSTKHSQDNIGFLM-UHFFFAOYSA-N
CH$LINK: COMPTOX DTXSID70144324
AC$INSTRUMENT: API3000, Applied Biosystems
AC$INSTRUMENT_TYPE: LC-ESI-QQ
AC$MASS_SPECTROMETRY: MS_TYPE MS2
AC$MASS_SPECTROMETRY: ION_MODE POSITIVE
AC$MASS_SPECTROMETRY: COLLISION_ENERGY 40 V
MS$FOCUSED_ION: PRECURSOR_M/Z 219
MS$FOCUSED_ION: PRECURSOR_TYPE [M+H]+
PK$SPLASH: splash10-0a4i-8900000000-57e4ec6d746c4ef2bd66
PK$NUM_PEAK: 63
PK$PEAK: m/z int. rel.int.
  42.100 59406.0 1
  43.200 64356.5 1
  46.200 99010.0 1
  56.300 331683.5 1
  58.100 226406167.0 999
  66.600 24752.5 1
  69.000 79208.0 1
  72.200 212871.5 1
  74.300 14851.5 1
  77.000 237624.0 1
  77.900 173267.5 1
  79.000 108911.0 1
  80.000 64356.5 1
  81.100 123762.5 1
  83.300 133663.5 1
  88.200 24752.5 1
  89.900 49505.0 1
  91.000 3589112.5 16
  93.000 69307.0 1
  93.300 24752.5 1
  95.300 54455.5 1
  95.500 14851.5 1
  101.300 29703.0 1
  102.500 34653.5 1
  102.900 311881.5 1
  104.100 544555.0 2
  105.000 1356437.0 6
  106.200 133663.5 1
  107.000 668317.5 3
  108.000 455446.0 2
  113.900 118812.0 1
  115.300 6717828.5 30
  116.200 1272278.5 6
  117.200 7094066.5 31
  118.000 1084159.5 5
  119.200 504951.0 2
  120.800 331683.5 1
  127.100 1237625.0 5
  127.900 569307.5 3
  129.200 995050.5 4
  130.200 16356452.0 72
  131.000 43391132.5 191
  132.100 1792081.0 8
  133.000 1648516.5 7
  134.100 207921.0 1
  140.100 212871.5 1
  142.100 6257432.0 28
  142.900 34782213.0 153
  144.100 4618816.5 20
  145.300 539604.5 2
  146.200 970298.0 4
  147.000 2683171.0 12
  148.300 871288.0 4
  156.000 108911.0 1
  156.900 232673.5 1
  158.200 3549508.5 16
  159.100 65049570.0 287
  160.200 227723.0 1
  162.000 64356.5 1
  170.400 14851.5 1
  172.200 143564.5 1
  173.700 1767328.5 8
  174.100 30658446.5 135
//
