ACCESSION: MSBNK-Keio_Univ-KO009139
RECORD_TITLE: Octopine; LC-ESI-IT; MS3; m/z: 247/188; [M+H]+
DATE: 2011.12.05 (Created 2008.05.12)
AUTHORS: Ojima Y, Kakazu Y, Horai H, Soga T, Institute for Advanced Biosciences, Keio Univ.
LICENSE: CC BY-NC-SA
COMMENT: KEIO_ID O009
COMMENT: [MS2] KO009138
CH$NAME: Octopine
CH$NAME: L-Arginine, N2-[(1R)-1-carboxyethyl]-
CH$NAME: D-(+)-Octopine
CH$NAME: Arginine, N2-(1-carboxyethyl)-, L-
CH$NAME: D-Octopine
CH$NAME: N2-(D-1-Carboxyethyl)-L-arginine
CH$NAME: L-Arginine, N2-(1-carboxyethyl)-, (R)-
CH$NAME: N2-(1-Carboxyethyl)-L-arginine
CH$COMPOUND_CLASS: N/A
CH$FORMULA: C9H18N4O4
CH$EXACT_MASS: 246.13281
CH$SMILES: NC(=N)NCCC[C@@H](C(O)=O)N[C@@H](C)C(O)=O
CH$IUPAC: InChI=1S/C9H18N4O4/c1-5(7(14)15)13-6(8(16)17)3-2-4-12-9(10)11/h5-6,13H,2-4H2,1H3,(H,14,15)(H,16,17)(H4,10,11,12)/t5-,6-/m0/s1
CH$LINK: CAS 34522-32-2
CH$LINK: CHEBI CHEBI:15805
CH$LINK: KEGG C04137
CH$LINK: NIKKAJI J18.376H
CH$LINK: PUBCHEM CID:108172
CH$LINK: INCHIKEY IMXSCCDUAFEIOE-WDSKDSINSA-N
CH$LINK: COMPTOX DTXSID50487423
AC$INSTRUMENT: LC/MSD Trap XCT, Agilent Technologies
AC$INSTRUMENT_TYPE: LC-ESI-IT
AC$MASS_SPECTROMETRY: MS_TYPE MS3
AC$MASS_SPECTROMETRY: ION_MODE POSITIVE
AC$MASS_SPECTROMETRY: COLLISION_ENERGY 0.60/0.60
MS$FOCUSED_ION: PRECURSOR_M/Z 247/188
MS$FOCUSED_ION: PRECURSOR_TYPE [M+H]+
MS$DATA_PROCESSING: WHOLE LC/MSD Trap Control and Data Analysis
PK$SPLASH: splash10-0006-0900000000-91b0944f49b0a535b093
PK$NUM_PEAK: 20
PK$PEAK: m/z int. rel.int.
  70.2 24.77 11
  96.2 2.00 1
  98.1 2.54 1
  104.9 11.00 5
  114.1 43.07 19
  131.0 12.69 6
  133.0 3.23 1
  141.1 205.66 93
  142.1 2214.53 999
  143.1 56.92 26
  144.1 5.15 2
  145.1 10.92 5
  147.1 9.61 4
  159.1 1.92 1
  160.9 2.08 1
  165.1 2.00 1
  170.9 4.69 2
  172.0 1.08 1
  188.1 2.54 1
  189.1 21.61 10
//
