ACCESSION: MSBNK-Keio_Univ-KO003989
RECORD_TITLE: Sarcosine; LC-ESI-QQ; MS2; CE:30 V; [M+H]+
DATE: 2016.01.19 (Created 2007.07.07, modified 2011.05.10)
AUTHORS: Kakazu Y, Horai H, Institute for Advanced Biosciences, Keio Univ.
LICENSE: CC BY-NC-SA
COMMENT: KEIO_ID S014
CH$NAME: Sarcosine
CH$NAME: N-Methylglycine
CH$COMPOUND_CLASS: N/A
CH$FORMULA: C3H7NO2
CH$EXACT_MASS: 89.04768
CH$SMILES: CNCC(O)=O
CH$IUPAC: InChI=1S/C3H7NO2/c1-4-2-3(5)6/h4H,2H2,1H3,(H,5,6)
CH$LINK: CAS 107-97-1
CH$LINK: CHEBI CHEBI:15611
CH$LINK: KEGG C00213
CH$LINK: NIKKAJI J5.067I
CH$LINK: PUBCHEM CID:1088
CH$LINK: INCHIKEY FSYKKLYZXJSNPZ-UHFFFAOYSA-N
CH$LINK: COMPTOX DTXSID1047025
AC$INSTRUMENT: API3000, Applied Biosystems
AC$INSTRUMENT_TYPE: LC-ESI-QQ
AC$MASS_SPECTROMETRY: MS_TYPE MS2
AC$MASS_SPECTROMETRY: ION_MODE POSITIVE
AC$MASS_SPECTROMETRY: COLLISION_ENERGY 30 V
MS$FOCUSED_ION: PRECURSOR_M/Z 90
MS$FOCUSED_ION: PRECURSOR_TYPE [M+H]+
PK$SPLASH: splash10-0006-9000000000-5701e8afc0a34aa34653
PK$NUM_PEAK: 11
PK$PEAK: m/z int. rel.int.
  17.400 148515.0 41
  26.500 9901.0 3
  27.700 34653.5 10
  29.700 79208.0 22
  34.900 44554.5 12
  42.100 34653.5 10
  44.000 3628716.5 999
  55.900 89109.0 25
  58.400 14851.5 4
  72.800 94059.5 26
  483.100 14851.5 4
//
