ACCESSION: MSBNK-Keio_Univ-KO002586
RECORD_TITLE: Thiamine pyrophosphate; LC-ESI-QQ; MS2; CE:50 V; [M+H]+
DATE: 2016.01.19 (Created 2007.07.07, modified 2011.05.10)
AUTHORS: Kakazu Y, Horai H, Institute for Advanced Biosciences, Keio Univ.
LICENSE: CC BY-NC-SA
COMMENT: KEIO_ID C077
CH$NAME: Cocarboxylase
CH$NAME: Thiamine diphosphate
CH$NAME: ThPP
CH$NAME: Thiamin diphosphate
CH$NAME: Thiamin pyrophosphate
CH$NAME: TPP
CH$NAME: Thiamine pyrophosphate
CH$COMPOUND_CLASS: N/A
CH$FORMULA: [C12H19N4O7P2S]+
CH$EXACT_MASS: 425.04497
CH$SMILES: Cc(n2)nc(N)c(c2)C[n+1](c1)c(C)c(CCOP(O)(=O)OP(O)(O)=O)s1
CH$IUPAC: InChI=1S/C12H18N4O7P2S/c1-8-11(3-4-22-25(20,21)23-24(17,18)19)26-7-16(8)6-10-5-14-9(2)15-12(10)13/h5,7H,3-4,6H2,1-2H3,(H4-,13,14,15,17,18,19,20,21)/p+1
CH$LINK: CAS 154-87-0
CH$LINK: CHEBI CHEBI:18290
CH$LINK: KEGG C00068
CH$LINK: NIKKAJI J237.475G
CH$LINK: PUBCHEM SID:3368
CH$LINK: INCHIKEY AYEKOFBPNLCAJY-UHFFFAOYSA-O
CH$LINK: COMPTOX DTXSID2048404
AC$INSTRUMENT: API3000, Applied Biosystems
AC$INSTRUMENT_TYPE: LC-ESI-QQ
AC$MASS_SPECTROMETRY: MS_TYPE MS2
AC$MASS_SPECTROMETRY: ION_MODE POSITIVE
AC$MASS_SPECTROMETRY: COLLISION_ENERGY 50 V
MS$FOCUSED_ION: PRECURSOR_M/Z 426
MS$FOCUSED_ION: PRECURSOR_TYPE [M+H]+
PK$SPLASH: splash10-00di-2900000000-d632b8688f17a7a01de0
PK$NUM_PEAK: 7
PK$PEAK: m/z int. rel.int.
  67.800 14851.5 6
  79.900 64356.5 27
  80.900 623763.0 263
  122.200 2366339.0 999
  126.000 767327.5 324
  141.800 19802.0 8
  224.200 138614.0 59
//
