ACCESSION: MSBNK-Keio_Univ-KO000001
RECORD_TITLE: GABA; LC-ESI-QQ; MS2; CE:10 V; [M-H]-
DATE: 2016.01.19 (Created 2007.07.07, modified 2011.05.10)
AUTHORS: Kakazu Y, Horai H, Institute for Advanced Biosciences, Keio Univ.
LICENSE: CC BY-NC-SA
COMMENT: KEIO_ID A002
CH$NAME: GABA
CH$NAME: gamma-Aminobutyric acid
CH$NAME: 4-Aminobutanoate
CH$NAME: 4-Aminobutanoic acid
CH$NAME: 4-Aminobutylate
CH$NAME: 4-Aminobutyric acid
CH$NAME: 4-Aminobutyrate
CH$COMPOUND_CLASS: N/A
CH$FORMULA: C4H9NO2
CH$EXACT_MASS: 103.06333
CH$SMILES: NCCCC(O)=O
CH$IUPAC: InChI=1S/C4H9NO2/c5-3-1-2-4(6)7/h1-3,5H2,(H,6,7)
CH$LINK: CAS 56-12-2
CH$LINK: CHEBI CHEBI:30566
CH$LINK: KEGG C00334
CH$LINK: NIKKAJI J1.375G
CH$LINK: PUBCHEM SID:3628
CH$LINK: INCHIKEY BTCSSZJGUNDROE-UHFFFAOYSA-N
CH$LINK: COMPTOX DTXSID6035106
AC$INSTRUMENT: API3000, Applied Biosystems
AC$INSTRUMENT_TYPE: LC-ESI-QQ
AC$MASS_SPECTROMETRY: MS_TYPE MS2
AC$MASS_SPECTROMETRY: ION_MODE NEGATIVE
AC$MASS_SPECTROMETRY: COLLISION_ENERGY 10 V
MS$FOCUSED_ION: PRECURSOR_M/Z 102
MS$FOCUSED_ION: PRECURSOR_TYPE [M-H]-
PK$SPLASH: splash10-0udi-0900000000-1d00adad47e42c60c340
PK$NUM_PEAK: 5
PK$PEAK: m/z int. rel.int.
  58.500 39604.0 1
  73.200 14851.5 1
  83.900 975248.5 16
  101.300 103960.5 2
  102.000 59396099.0 999
//
