ACCESSION: MSBNK-RIKEN_ReSpect-PT204270
RECORD_TITLE: myricetin-3-O-rhamnoside, Myricetin 3-O-alpha-L-rhamnopyranoside, Myricetrin, 3-((6-Deoxy-alpha-L-mannopyranosyl)oxy)-5,7-dihydroxy-2-(3,4,5-trihydroxyphenyl)-4H-benzopyran-4-one, 5,7-dihydroxy-3-[(2S,3R,4R,5R,6S)-3,4,5-trihydroxy-6-methyloxan-2-yl]oxy-2-(3,4,5-trihydroxyphenyl)chromen-4-one, Myrc-3-Rha, Myricitrin, Myricitroside, Myricitrine, Myricetol 3-rhamnoside; LC-ESI-QTOF; MS2
DATE: 2008.07.28
AUTHORS: Matsuda F, Suzuki M, Sawada Y, Plant Science Center, RIKEN.
LICENSE: CC BY-NC
COPYRIGHT: Copyright(C) 2009 Plant Science Center, RIKEN
COMMENT: Build 1 2009/06/24
COMMENT: Acquisition and generation of the data is financially supported in part by CREST/JST.
CH$NAME: myricetin-3-O-rhamnoside
CH$NAME: Myricetin 3-O-alpha-L-rhamnopyranoside
CH$NAME: Myricetrin
CH$NAME: 3-((6-Deoxy-alpha-L-mannopyranosyl)oxy)-5,7-dihydroxy-2-(3,4,5-trihydroxyphenyl)-4H-benzopyran-4-one
CH$NAME: 5,7-dihydroxy-3-[(2S,3R,4R,5R,6S)-3,4,5-trihydroxy-6-methyloxan-2-yl]oxy-2-(3,4,5-trihydroxyphenyl)chromen-4-one
CH$NAME: Myrc-3-Rha
CH$NAME: Myricitrin
CH$NAME: Myricitroside
CH$NAME: Myricitrine
CH$NAME: Myricetol 3-rhamnoside
CH$COMPOUND_CLASS: CLASS1 Flavonoid CLASS2 Flavonol CLASS3 Myricetin glycoside
CH$FORMULA: C21H20O12
CH$EXACT_MASS: 464.379
CH$SMILES: CC1C(C(C(C(O1)OC2=C(OC3=CC(=CC(=C3C2=O)O)O)C4=CC(=C(C(=C4)O)O)O)O)O)O
CH$IUPAC: InChI=1S/C21H20O12/c1-6-14(26)17(29)18(30)21(31-6)33-20-16(28)13-9(23)4-8(22)5-12(13)32-19(20)7-2-10(24)15(27)11(25)3-7/h2-6,14,17-18,21-27,29-30H,1H3
CH$LINK: CAS 17912-87-7
CH$LINK: INCHIKEY DCYOADKBABEMIQ-UHFFFAOYSA-N
AC$INSTRUMENT: Q-Tof Premier, Waters
AC$INSTRUMENT_TYPE: LC-ESI-QTOF
AC$MASS_SPECTROMETRY: MS_TYPE MS2
AC$MASS_SPECTROMETRY: ION_MODE NEGATIVE
AC$MASS_SPECTROMETRY: IONIZATION ESI
AC$MASS_SPECTROMETRY: COLLISION_ENERGY Ramp 5-45 V
AC$MASS_SPECTROMETRY: CAPILLARY_VOLTAGE 3.0 kV
AC$CHROMATOGRAPHY: SOLVENT CH3CN/H2O
MS$FOCUSED_ION: ION_TYPE [M-H]-
MS$FOCUSED_ION: PRECURSOR_M/Z 463.08767
PK$SPLASH: splash10-02t9-0189500000-7698cce10f4e9c393351
PK$NUM_PEAK: 14
PK$PEAK: m/z int. rel.int.
  124.0176 153.5 40
  137.0254 144.1 37
  151.0051 336.5 87
  179.0003 317.9 83
  214.0292 381.9 99
  242.0248 303.3 79
  243.0329 280.2 73
  259.0279 420.2 109
  270.0205 330.7 86
  271.0272 1815.0 471
  287.0227 1147.0 298
  316.024 3847.0 999
  317.0337 882.9 229
  463.0877 3019.0 784
//
