ACCESSION: MSBNK-RIKEN_ReSpect-PS004503
RECORD_TITLE: 1,3,7-Trimethyl-2,6-dioxopurine, Methyltheobromine, Caffeine,Anhydrous, 1,3,7-Trimethylxanthine, Guaranine; LC-ESI-QQ; MS2
DATE: 2009.02.09
AUTHORS: Sawada Y, Matsuda F, and Hirai MY. Plant Science Center, RIKEN
LICENSE: CC BY-NC
COPYRIGHT: Copyright(C) 2008 Plant Science Center, RIKEN
PUBLICATION: Sawada, Y.; Akiyama, K.; Sakata, A.; Kuwahara, A.; Otsuki, H.; Sakurai, T.; Saito, K.; Hirai, M. Y. Widely Targeted Metabolomics Based on Large-Scale MS/MS Data for Elucidating Metabolite Accumulation Patterns in Plants. Plant and Cell Physiology 2008, 50 (1), 37–47. DOI:10.1093/pcp/pcn183
COMMENT: Build 5
COMMENT: Data acquisition and generation is financially supported in part by CREST/JST.
COMMENT: Source compound Nacalai-T, 06712-42.
COMMENT: PRIMe compound in-house ID 45
COMMENT: This spectra was automatically generated from the raw data without manual curation of data quality.
COMMENT: The spectral data and services are available to the research and academic community only.
COMMENT: All users must cite follwing literature in publication(s).
CH$NAME: 1,3,7-Trimethyl-2,6-dioxopurine
CH$NAME: Methyltheobromine
CH$NAME: Caffeine,Anhydrous
CH$NAME: 1,3,7-Trimethylxanthine
CH$NAME: Guaranine
CH$COMPOUND_CLASS: CLASS1 Alkaloid CLASS2 Xanthine CLASS3 Caffeine
CH$FORMULA: C8H10N4O2
CH$EXACT_MASS: 194.194
CH$SMILES: CN1C=NC2=C1C(=O)N(C(=O)N2C)C
CH$IUPAC: InChI=1S/C8H10N4O2/c1-10-4-9-6-5(10)7(13)12(3)8(14)11(6)2/h4H,1-3H3
CH$LINK: KEGG C07481
CH$LINK: PUBCHEM CID:2519
CH$LINK: INCHIKEY RYYVLZVUVIJVGH-UHFFFAOYSA-N
CH$LINK: COMPTOX DTXSID0020232
AC$INSTRUMENT: TQD, Waters
AC$INSTRUMENT_TYPE: LC-ESI-QQ
AC$MASS_SPECTROMETRY: MS_TYPE MS2
AC$MASS_SPECTROMETRY: ION_MODE POSITIVE
AC$MASS_SPECTROMETRY: IONIZATION ESI
AC$MASS_SPECTROMETRY: COLLISION_ENERGY 30
MS$FOCUSED_ION: ION_TYPE [M+H]+
MS$FOCUSED_ION: PRECURSOR_M/Z 195.21
PK$SPLASH: splash10-000i-1900000000-75d3c6a99e57ed9061c6
PK$NUM_PEAK: 12
PK$PEAK: m/z int. rel.int.
  41.0 9894.0 64
  42.0 27355.0 177
  69.0 15799.0 102
  83.0 8892.0 57
  109.0 8010.0 52
  110.0 27108.0 175
  137.0 53142.0 343
  138.0 154675.0 999
  192.0 7191.0 46
  193.0 18119.0 117
  194.0 22999.0 149
  195.0 81844.0 529
//
