ACCESSION: MSBNK-RIKEN_ReSpect-PS085704
RECORD_TITLE: Naringenin; LC-ESI-QQ; MS2
DATE: 2009.02.09
AUTHORS: Sawada Y, Matsuda F, and Hirai MY. Plant Science Center, RIKEN
LICENSE: CC BY-NC
COPYRIGHT: Copyright(C) 2008 Plant Science Center, RIKEN
PUBLICATION: Sawada, Y.; Akiyama, K.; Sakata, A.; Kuwahara, A.; Otsuki, H.; Sakurai, T.; Saito, K.; Hirai, M. Y. Widely Targeted Metabolomics Based on Large-Scale MS/MS Data for Elucidating Metabolite Accumulation Patterns in Plants. Plant and Cell Physiology 2008, 50 (1), 37–47. DOI:10.1093/pcp/pcn183
COMMENT: Build 5
COMMENT: Data acquisition and generation is financially supported in part by CREST/JST.
COMMENT: Source compound EXTRASYNTHESE S.A, 89.
COMMENT: PRIMe compound in-house ID S0300
COMMENT: This spectra was automatically generated from the raw data without manual curation of data quality.
COMMENT: The spectral data and services are available to the research and academic community only.
COMMENT: All users must cite follwing literature in publication(s).
CH$NAME: Naringenin
CH$NAME: 2,3-Dihydro-5,7-dihydroxy-2-(4-hydroxyphenyl)-4H-1-benzopyran-4-one
CH$NAME: naringetol
CH$NAME: pelargidanon
CH$NAME: Salipurol
CH$NAME: Asahina
CH$NAME: 4',5,7-trihydroxyflavanone
CH$NAME: Nari
CH$COMPOUND_CLASS: CLASS1 Flavonoid CLASS2 Chalcone CLASS3 Naringenin
CH$FORMULA: C15H12O5
CH$EXACT_MASS: 272.256
CH$SMILES: C1[C@H](OC2=CC(=CC(=C2C1=O)O)O)C3=CC=C(C=C3)O
CH$IUPAC: InChI=1S/C15H12O5/c16-9-3-1-8(2-4-9)13-7-12(19)15-11(18)5-10(17)6-14(15)20-13/h1-6,13,16-18H,7H2/t13-/m0/s1
CH$LINK: CAS 480-41-1
CH$LINK: KEGG C00509
CH$LINK: PUBCHEM CID:439246
CH$LINK: INCHIKEY FTVWIRXFELQLPI-ZDUSSCGKSA-N
AC$INSTRUMENT: TQD, Waters
AC$INSTRUMENT_TYPE: LC-ESI-QQ
AC$MASS_SPECTROMETRY: MS_TYPE MS2
AC$MASS_SPECTROMETRY: ION_MODE POSITIVE
AC$MASS_SPECTROMETRY: IONIZATION ESI
AC$MASS_SPECTROMETRY: COLLISION_ENERGY 40
MS$FOCUSED_ION: ION_TYPE [M+H]+
MS$FOCUSED_ION: PRECURSOR_M/Z 273.27
PK$SPLASH: splash10-0udi-0900000000-726080966018448bd62c
PK$NUM_PEAK: 9
PK$PEAK: m/z int. rel.int.
  91.0 6490.0 60
  107.0 4135.0 38
  119.0 22458.0 209
  146.0 9938.0 92
  147.0 38123.0 354
  151.0 3271.0 30
  152.0 35004.0 325
  153.0 107565.0 999
  273.0 7485.0 70
//
