ACCESSION: MSBNK-RIKEN_ReSpect-PM000408
RECORD_TITLE: Orientin; LC-ESI-QQ; MS2
DATE: 2006.04.20
AUTHORS: Sanchez-Rabaneda F, et al.
LICENSE: CC BY-NC
COPYRIGHT: Copyright(C) 2012 Plant Science Center, RIKEN
PUBLICATION: Sánchez-Rabaneda, F.; Jáuregui, O.; Casals, I.; Andrés-Lacueva, C.; Izquierdo-Pulido, M.; Lamuela-Raventós, R. M. Liquid Chromatographic/Electrospray Ionization Tandem Mass Spectrometric Study of the Phenolic Composition of Cocoa (Theobroma Cacao). Journal of Mass Spectrometry 2003, 38 (1), 35–42. DOI:10.1002/jms.395
COMMENT: 726
CH$NAME: Orientin
CH$COMPOUND_CLASS: CLASS1 Flavonoid CLASS2 Flavone CLASS3 Luteolin glycoside
CH$FORMULA: C21H20O11
CH$EXACT_MASS: 448.38
CH$SMILES: O=c1cc(-c2ccc(O)c(O)c2)oc2c([C@@H]3O[C@H](CO)[C@@H](O)[C@H](O)[C@H]3O)c(O)cc(O)c12
CH$IUPAC: InChI=1S/C21H20O11/c22-6-14-17(28)18(29)19(30)21(32-14)16-11(26)4-10(25)15-12(27)5-13(31-20(15)16)7-1-2-8(23)9(24)3-7/h1-5,14,17-19,21-26,28-30H,6H2/t14-,17-,18+,19-,21+/m1/s1
CH$LINK: CAS 28608-75-5
CH$LINK: INCHIKEY PLAPMLGJVGLZOV-VPRICQMDSA-N
CH$LINK: PUBCHEM CID:5281675
CH$LINK: COMPTOX DTXSID60182790
SP$SAMPLE: Theobroma cacao
AC$INSTRUMENT: Agilent (Waldbronn, Germany) Model 1100; API 3000 triple-quadrupole mass spectrometer (Perkin-Elmer Sciex, Concord, ON, Canada)
AC$INSTRUMENT_TYPE: LC-ESI-QQ
AC$MASS_SPECTROMETRY: MS_TYPE MS2
AC$MASS_SPECTROMETRY: ION_MODE NEGATIVE
AC$MASS_SPECTROMETRY: IONIZATION ESI
AC$MASS_SPECTROMETRY: COLLISION_ENERGY -30
AC$CHROMATOGRAPHY: SOLVENT H2O/NH3CN/HCOOH
MS$FOCUSED_ION: ION_TYPE [M-H]-
MS$FOCUSED_ION: PRECURSOR_M/Z 447
PK$SPLASH: splash10-056r-0019100000-d6b0da8ace5fdd2b031e
PK$NUM_PEAK: 4
PK$PEAK: m/z int. rel.int.
  285.0 20.0 200
  327.0 100.0 999
  357.0 70.0 699
  447.0 30.0 300
//
