ACCESSION: MSBNK-RIKEN_ReSpect-PS040705
RECORD_TITLE: Naringenin; LC-ESI-QQ; MS2
DATE: 2009.02.09
AUTHORS: Sawada Y, Matsuda F, and Hirai MY. Plant Science Center, RIKEN
LICENSE: CC BY-NC
COPYRIGHT: Copyright(C) 2008 Plant Science Center, RIKEN
PUBLICATION: Sawada, Y.; Akiyama, K.; Sakata, A.; Kuwahara, A.; Otsuki, H.; Sakurai, T.; Saito, K.; Hirai, M. Y. Widely Targeted Metabolomics Based on Large-Scale MS/MS Data for Elucidating Metabolite Accumulation Patterns in Plants. Plant and Cell Physiology 2008, 50 (1), 37–47. DOI:10.1093/pcp/pcn183
COMMENT: Build 5
COMMENT: Data acquisition and generation is financially supported in part by CREST/JST.
COMMENT: Source compound EXTRASYNTHESE S.A, 1128 S.
COMMENT: PRIMe compound in-house ID H0015
COMMENT: This spectra was automatically generated from the raw data without manual curation of data quality.
COMMENT: The spectral data and services are available to the research and academic community only.
COMMENT: All users must cite follwing literature in publication(s).
CH$NAME: Naringenin
CH$NAME: 2,3-Dihydro-5,7-dihydroxy-2-(4-hydroxyphenyl)-4H-1-benzopyran-4-one
CH$NAME: naringetol
CH$NAME: pelargidanon
CH$NAME: Salipurol
CH$NAME: Asahina
CH$NAME: 4',5,7-trihydroxyflavanone
CH$NAME: Nari
CH$COMPOUND_CLASS: CLASS1 Flavonoid CLASS2 Chalcone CLASS3 Naringenin
CH$FORMULA: C15H12O5
CH$EXACT_MASS: 272.256
CH$SMILES: C1[C@H](OC2=CC(=CC(=C2C1=O)O)O)C3=CC=C(C=C3)O
CH$IUPAC: InChI=1S/C15H12O5/c16-9-3-1-8(2-4-9)13-7-12(19)15-11(18)5-10(17)6-14(15)20-13/h1-6,13,16-18H,7H2/t13-/m0/s1
CH$LINK: CAS 480-41-1
CH$LINK: KEGG C00509
CH$LINK: PUBCHEM CID:439246
CH$LINK: INCHIKEY FTVWIRXFELQLPI-ZDUSSCGKSA-N
AC$INSTRUMENT: TQD, Waters
AC$INSTRUMENT_TYPE: LC-ESI-QQ
AC$MASS_SPECTROMETRY: MS_TYPE MS2
AC$MASS_SPECTROMETRY: ION_MODE POSITIVE
AC$MASS_SPECTROMETRY: IONIZATION ESI
AC$MASS_SPECTROMETRY: COLLISION_ENERGY 50
MS$FOCUSED_ION: ION_TYPE [M+H]+
MS$FOCUSED_ION: PRECURSOR_M/Z 273.28
PK$SPLASH: splash10-0udi-3900000000-14d6c3694a50a0a33ced
PK$NUM_PEAK: 17
PK$PEAK: m/z int. rel.int.
  41.0 3110.0 59
  43.0 2400.0 45
  66.0 2163.0 41
  67.0 5046.0 96
  68.0 2738.0 52
  69.0 9725.0 184
  90.0 1600.0 30
  91.0 11734.0 222
  97.0 1785.0 34
  118.0 2358.0 45
  119.0 17513.0 332
  146.0 4235.0 80
  147.0 11936.0 226
  150.0 1670.0 32
  151.0 2337.0 44
  152.0 23068.0 437
  153.0 52733.0 999
//
