ACCESSION: MSBNK-RIKEN_ReSpect-PS064408
RECORD_TITLE: Kri-Gibb, Ceku-Gib, Gibberellic acid, Gibberelin A3, GA3, gibberamine, Gibrescol, Berelex; LC-ESI-QQ; MS2
DATE: 2009.02.09
AUTHORS: Sawada Y, Matsuda F, and Hirai MY. Plant Science Center, RIKEN
LICENSE: CC BY-NC
COPYRIGHT: Copyright(C) 2008 Plant Science Center, RIKEN
PUBLICATION: Sawada, Y.; Akiyama, K.; Sakata, A.; Kuwahara, A.; Otsuki, H.; Sakurai, T.; Saito, K.; Hirai, M. Y. Widely Targeted Metabolomics Based on Large-Scale MS/MS Data for Elucidating Metabolite Accumulation Patterns in Plants. Plant and Cell Physiology 2008, 50 (1), 37–47. DOI:10.1093/pcp/pcn183
COMMENT: Build 5
COMMENT: Data acquisition and generation is financially supported in part by CREST/JST.
COMMENT: Source compound Wako, 075-02811.
COMMENT: PRIMe compound in-house ID S0031
COMMENT: This spectra was automatically generated from the raw data without manual curation of data quality.
COMMENT: The spectral data and services are available to the research and academic community only.
COMMENT: All users must cite follwing literature in publication(s).
CH$NAME: Kri-Gibb
CH$NAME: Ceku-Gib
CH$NAME: Gibberellic acid
CH$NAME: Gibberelin A3
CH$NAME: GA3
CH$NAME: gibberamine
CH$NAME: Gibrescol
CH$NAME: Berelex
CH$COMPOUND_CLASS: CLASS1 Terpenoid CLASS2 Diterpenoid CLASS3 Gibberellin
CH$FORMULA: C19H22O6
CH$EXACT_MASS: 346.379
CH$SMILES: CC12C(C=CC3(C1C(C45C3CCC(C4)(C(=C)C5)O)C(=O)O)OC2=O)O
CH$IUPAC: InChI=1S/C19H22O6/c1-9-7-17-8-18(9,24)5-3-10(17)19-6-4-11(20)16(2,15(23)25-19)13(19)12(17)14(21)22/h4,6,10-13,20,24H,1,3,5,7-8H2,2H3,(H,21,22)
CH$LINK: KEGG C01699
CH$LINK: PUBCHEM CID:439551
CH$LINK: INCHIKEY IXORZMNAPKEEDV-UHFFFAOYSA-N
AC$INSTRUMENT: TQD, Waters
AC$INSTRUMENT_TYPE: LC-ESI-QQ
AC$MASS_SPECTROMETRY: MS_TYPE MS2
AC$MASS_SPECTROMETRY: ION_MODE NEGATIVE
AC$MASS_SPECTROMETRY: IONIZATION ESI
AC$MASS_SPECTROMETRY: COLLISION_ENERGY 20
MS$FOCUSED_ION: ION_TYPE [M-H]-
MS$FOCUSED_ION: PRECURSOR_M/Z 345.37
PK$SPLASH: splash10-0002-0029000000-70ed6a6f5266be92b39b
PK$NUM_PEAK: 5
PK$PEAK: m/z int. rel.int.
  143.0 8786.0 63
  239.0 50942.0 365
  344.0 22260.0 160
  345.0 139279.0 999
  346.0 8032.0 58
//
