ACCESSION: MSBNK-RIKEN_ReSpect-PS088001
RECORD_TITLE: 4-Isopropyltropolon, 2-Hydroxy-4-isopropyl-2,4,6-cycloheptatrien-1-one, Hinokitiol, beta-Thujaplicin, beta.-Thujaplicine; LC-ESI-QQ; MS2
DATE: 2009.02.09
AUTHORS: Sawada Y, Matsuda F, and Hirai MY. Plant Science Center, RIKEN
LICENSE: CC BY-NC
COPYRIGHT: Copyright(C) 2008 Plant Science Center, RIKEN
PUBLICATION: Sawada, Y.; Akiyama, K.; Sakata, A.; Kuwahara, A.; Otsuki, H.; Sakurai, T.; Saito, K.; Hirai, M. Y. Widely Targeted Metabolomics Based on Large-Scale MS/MS Data for Elucidating Metabolite Accumulation Patterns in Plants. Plant and Cell Physiology 2008, 50 (1), 37–47. DOI:10.1093/pcp/pcn183
COMMENT: Build 5
COMMENT: Data acquisition and generation is financially supported in part by CREST/JST.
COMMENT: Source compound Wako, 085-06251.
COMMENT: PRIMe compound in-house ID S0323
COMMENT: This spectra was automatically generated from the raw data without manual curation of data quality.
COMMENT: The spectral data and services are available to the research and academic community only.
COMMENT: All users must cite follwing literature in publication(s).
CH$NAME: 4-Isopropyltropolon
CH$NAME: 2-Hydroxy-4-isopropyl-2,4,6-cycloheptatrien-1-one
CH$NAME: Hinokitiol
CH$NAME: beta-Thujaplicin
CH$NAME: beta.-Thujaplicine
CH$COMPOUND_CLASS: CLASS1 Terpenoid CLASS2 Monoterpenoid CLASS3 Hinokitiol
CH$FORMULA: C10H12O2
CH$EXACT_MASS: 164.204
CH$SMILES: CC(C)C1=CC(=O)C(=CC=C1)O
CH$IUPAC: InChI=1S/C10H12O2/c1-7(2)8-4-3-5-9(11)10(12)6-8/h3-7H,1-2H3,(H,11,12)
CH$LINK: CAS 499-44-5
CH$LINK: KEGG C09904
CH$LINK: PUBCHEM CID:3611
CH$LINK: INCHIKEY FUWUEFKEXZQKKA-UHFFFAOYSA-N
AC$INSTRUMENT: TQD, Waters
AC$INSTRUMENT_TYPE: LC-ESI-QQ
AC$MASS_SPECTROMETRY: MS_TYPE MS2
AC$MASS_SPECTROMETRY: ION_MODE POSITIVE
AC$MASS_SPECTROMETRY: IONIZATION ESI
AC$MASS_SPECTROMETRY: COLLISION_ENERGY 10
MS$FOCUSED_ION: ION_TYPE [M+H]+
MS$FOCUSED_ION: PRECURSOR_M/Z 165.18
PK$SPLASH: splash10-014i-0900000000-03b8c846dad8f0abf40b
PK$NUM_PEAK: 2
PK$PEAK: m/z int. rel.int.
  164.0 924504.0 84
  165.0 11023890.0 999
//
