ACCESSION: MSBNK-RIKEN_ReSpect-PM007911
RECORD_TITLE: Ginsenoside Rd, Gypenoside VIII; LC-ESI-QTOF; MS2
DATE: 2008.07.07
AUTHORS: Dan M, et al.
LICENSE: CC BY-NC
COPYRIGHT: Copyright(C) 2012 Plant Science Center, RIKEN
PUBLICATION: Dan, M.; Su, M.; Gao, X.; Zhao, T.; Zhao, A.; Xie, G.; Qiu, Y.; Zhou, M.; Liu, Z.; Jia, W. Metabolite Profiling of Panax Notoginseng Using UPLC–ESI-MS. Phytochemistry 2008, 69 (11), 2237–44. DOI:10.1016/j.phytochem.2008.04.015
COMMENT: N/D
CH$NAME: Ginsenoside Rd
CH$NAME: Gypenoside VIII
CH$COMPOUND_CLASS: CLASS1 Terpenoid CLASS2 Triterpenoid CLASS3 Ginsenoside
CH$FORMULA: C48H82O18
CH$EXACT_MASS: 947.166
CH$SMILES: CC(=CCC[C@@](C)([C@H]1CC[C@@]2([C@@H]1[C@@H](C[C@H]3[C@]2(CC[C@@H]4[C@@]3(CC[C@@H](C4(C)C)O[C@H]5[C@@H]([C@H]([C@@H]([C@H](O5)CO)O)O)O[C@H]6[C@@H]([C@H]([C@@H]([C@H](O6)CO)O)O)O)C)C)O)C)O[C@H]7[C@@H]([C@H]([C@@H]([C@H](O7)CO)O)O)O)C
CH$IUPAC: InChI=1S/C48H82O18/c1-22(2)10-9-14-48(8,66-42-39(60)36(57)33(54)26(20-50)62-42)23-11-16-47(7)31(23)24(52)18-29-45(5)15-13-30(44(3,4)28(45)12-17-46(29,47)6)64-43-40(37(58)34(55)27(21-51)63-43)65-41-38(59)35(56)32(53)25(19-49)61-41/h10,23-43,49-60H,9,11-21H2,1-8H3/t23-,24+,25+,26+,27+,28-,29+,30-,31-,32+,33+,34+,35-,36-,37-,38+,39+,40+,41-,42-,43-,45-,46+,47+,48-/m0/s1
CH$LINK: CAS 52705-93-8
CH$LINK: INCHIKEY RLDVZILFNVRJTL-IWFVLDDISA-N
CH$LINK: PUBCHEM CID:11679800
SP$SAMPLE: Panax notoginseng
AC$INSTRUMENT: ACQUITY UPLC system (Waters Co., MA, USA)
AC$INSTRUMENT_TYPE: LC-ESI-QTOF
AC$MASS_SPECTROMETRY: MS_TYPE MS2
AC$MASS_SPECTROMETRY: ION_MODE POSITIVE
AC$MASS_SPECTROMETRY: IONIZATION ESI
AC$MASS_SPECTROMETRY: COLLISION_ENERGY 6->10V
AC$CHROMATOGRAPHY: SOLVENT H2O/CH3CN/HCOOH
MS$FOCUSED_ION: ION_TYPE [M+H]+
MS$FOCUSED_ION: PRECURSOR_M/Z 947.5557
PK$SPLASH: splash10-01w0-0000406903-de7e06c1dafea4deefae
PK$NUM_PEAK: 5
PK$PEAK: m/z int. rel.int.
  461.3921 57.0 569
  623.4514 76.0 759
  767.5037 9.0 90
  785.5032 100.0 999
  929.5521 43.0 430
//
