ACCESSION: MSBNK-RIKEN_ReSpect-PS081406
RECORD_TITLE: Phosphocholine,1-Decanoyl-2-Hydroxy-sn-Glycero-3- , 1-decanoyl-sn-glycero-3-phosphocholine, 1-Decanoyl-2-Hydroxy-sn-Glycero-3-Phosphocholine, 10:0 LysoPC, 1-Decanoyllysolecithin, 1-Capryl-2-lysophosphatidylcholine; LC-ESI-QQ; MS2
DATE: 2009.02.09
AUTHORS: Sawada Y, Matsuda F, and Hirai MY. Plant Science Center, RIKEN
LICENSE: CC BY-NC
COPYRIGHT: Copyright(C) 2008 Plant Science Center, RIKEN
PUBLICATION: Sawada, Y.; Akiyama, K.; Sakata, A.; Kuwahara, A.; Otsuki, H.; Sakurai, T.; Saito, K.; Hirai, M. Y. Widely Targeted Metabolomics Based on Large-Scale MS/MS Data for Elucidating Metabolite Accumulation Patterns in Plants. Plant and Cell Physiology 2008, 50 (1), 37–47. DOI:10.1093/pcp/pcn183
COMMENT: Build 5
COMMENT: Data acquisition and generation is financially supported in part by CREST/JST.
COMMENT: Source compound Avanti, 855375P.
COMMENT: PRIMe compound in-house ID S0251
COMMENT: This spectra was automatically generated from the raw data without manual curation of data quality.
COMMENT: The spectral data and services are available to the research and academic community only.
COMMENT: All users must cite follwing literature in publication(s).
CH$NAME: Phosphocholine,1-Decanoyl-2-Hydroxy-sn-Glycero-3-
CH$NAME: 1-decanoyl-sn-glycero-3-phosphocholine
CH$NAME: 1-Decanoyl-2-Hydroxy-sn-Glycero-3-Phosphocholine
CH$NAME: 10:0 LysoPC
CH$NAME: 1-Decanoyllysolecithin
CH$NAME: 1-Capryl-2-lysophosphatidylcholine
CH$COMPOUND_CLASS: CLASS1 Other CLASS2 Phospholipid CLASS3 Phosphocholine
CH$FORMULA: C18H38NO7P
CH$EXACT_MASS: 411.478
CH$SMILES: CCCCCCCCCC(=O)OCC(COP(=O)([O-])OCC[N+](C)(C)C)O
CH$IUPAC: InChI=1S/C18H38NO7P/c1-5-6-7-8-9-10-11-12-18(21)24-15-17(20)16-26-27(22,23)25-14-13-19(2,3)4/h17,20H,5-16H2,1-4H3
CH$LINK: CAS 22248-63-1
CH$LINK: PUBCHEM CID:22851442
CH$LINK: INCHIKEY SECPDKKEUKDCPG-UHFFFAOYSA-N
AC$INSTRUMENT: TQD, Waters
AC$INSTRUMENT_TYPE: LC-ESI-QQ
AC$MASS_SPECTROMETRY: MS_TYPE MS2
AC$MASS_SPECTROMETRY: ION_MODE POSITIVE
AC$MASS_SPECTROMETRY: IONIZATION ESI
AC$MASS_SPECTROMETRY: COLLISION_ENERGY 60
MS$FOCUSED_ION: ION_TYPE [M+H]+
MS$FOCUSED_ION: PRECURSOR_M/Z 412.5
PK$SPLASH: splash10-0f79-9800000000-47f712cbb259ad3d5c71
PK$NUM_PEAK: 20
PK$PEAK: m/z int. rel.int.
  42.0 7138.0 64
  43.0 26494.0 238
  45.0 6507.0 58
  57.0 23644.0 212
  59.0 8146.0 73
  60.0 33679.0 302
  70.0 5064.0 45
  71.0 23651.0 212
  81.0 4144.0 37
  85.0 24557.0 221
  86.0 103462.0 929
  95.0 3748.0 34
  103.0 14415.0 129
  104.0 111227.0 999
  124.0 19410.0 174
  125.0 48702.0 437
  166.0 4336.0 39
  182.0 3551.0 32
  183.0 13037.0 117
  184.0 39946.0 359
//
