ACCESSION: MSBNK-RIKEN_ReSpect-PS042502
RECORD_TITLE: Lutl-6-C-Glc, Isoorientin, Homoorientin, luteolin-6-C-glucoside, luteolin- 6-C-beta-D-glucopyranoside; LC-ESI-QQ; MS2
DATE: 2009.02.09
AUTHORS: Sawada Y, Matsuda F, and Hirai MY. Plant Science Center, RIKEN
LICENSE: CC BY-NC
COPYRIGHT: Copyright(C) 2008 Plant Science Center, RIKEN
PUBLICATION: Sawada, Y.; Akiyama, K.; Sakata, A.; Kuwahara, A.; Otsuki, H.; Sakurai, T.; Saito, K.; Hirai, M. Y. Widely Targeted Metabolomics Based on Large-Scale MS/MS Data for Elucidating Metabolite Accumulation Patterns in Plants. Plant and Cell Physiology 2008, 50 (1), 37–47. DOI:10.1093/pcp/pcn183
COMMENT: Build 5
COMMENT: Data acquisition and generation is financially supported in part by CREST/JST.
COMMENT: Source compound EXTRASYNTHESE S.A, 1055 S.
COMMENT: PRIMe compound in-house ID H0033
COMMENT: This spectra was automatically generated from the raw data without manual curation of data quality.
COMMENT: The spectral data and services are available to the research and academic community only.
COMMENT: All users must cite follwing literature in publication(s).
CH$NAME: Lutl-6-C-Glc
CH$NAME: Isoorientin
CH$NAME: Homoorientin
CH$NAME: luteolin-6-C-glucoside
CH$NAME: luteolin- 6-C-beta-D-glucopyranoside
CH$COMPOUND_CLASS: CLASS1 Flavonoid CLASS2 Flavone CLASS3 Luteolin glycoside
CH$FORMULA: C21H20O11
CH$EXACT_MASS: 448.38
CH$SMILES: C1=CC(=C(C=C1C2=CC(=O)C3=C(C(=C(C=C3O2)O)C4C(C(C(C(O4)CO)O)O)O)O)O)O
CH$IUPAC: InChI=1S/C21H20O11/c22-6-14-17(27)19(29)20(30)21(32-14)16-11(26)5-13-15(18(16)28)10(25)4-12(31-13)7-1-2-8(23)9(24)3-7/h1-5,14,17,19-24,26-30H,6H2
CH$LINK: CAS 4261-42-1
CH$LINK: KEGG C01821
CH$LINK: PUBCHEM CID:114776
CH$LINK: INCHIKEY ODBRNZZJSYPIDI-UHFFFAOYSA-N
AC$INSTRUMENT: TQD, Waters
AC$INSTRUMENT_TYPE: LC-ESI-QQ
AC$MASS_SPECTROMETRY: MS_TYPE MS2
AC$MASS_SPECTROMETRY: ION_MODE POSITIVE
AC$MASS_SPECTROMETRY: IONIZATION ESI
AC$MASS_SPECTROMETRY: COLLISION_ENERGY 20
MS$FOCUSED_ION: ION_TYPE [M+H]+
MS$FOCUSED_ION: PRECURSOR_M/Z 449.41
PK$SPLASH: splash10-0002-0003900000-695958704860cf75d764
PK$NUM_PEAK: 17
PK$PEAK: m/z int. rel.int.
  328.0 3733.0 55
  329.0 16784.0 245
  330.0 3383.0 49
  352.0 5225.0 76
  353.0 14773.0 216
  382.0 4113.0 60
  383.0 12678.0 185
  395.0 2702.0 40
  412.0 4614.0 67
  413.0 11585.0 169
  430.0 5810.0 85
  431.0 15038.0 220
  432.0 4056.0 59
  447.0 2213.0 32
  448.0 45774.0 670
  449.0 68299.0 999
  450.0 28250.0 413
//
