ACCESSION: MSBNK-RIKEN_ReSpect-PS107503
RECORD_TITLE: 4MSOB, 4-(Methylsulfinyl)butylglucosinolate, 4-methylsulfinylbutyl glucosinolate, glucoraphanin; LC-ESI-QQ; MS2
DATE: 2009.02.09
AUTHORS: Sawada Y, Matsuda F, and Hirai MY. Plant Science Center, RIKEN
LICENSE: CC BY-NC
COPYRIGHT: Copyright(C) 2008 Plant Science Center, RIKEN
PUBLICATION: Sawada, Y.; Akiyama, K.; Sakata, A.; Kuwahara, A.; Otsuki, H.; Sakurai, T.; Saito, K.; Hirai, M. Y. Widely Targeted Metabolomics Based on Large-Scale MS/MS Data for Elucidating Metabolite Accumulation Patterns in Plants. Plant and Cell Physiology 2008, 50 (1), 37–47. DOI:10.1093/pcp/pcn183
COMMENT: Build 5
COMMENT: Data acquisition and generation is financially supported in part by CREST/JST.
COMMENT: Source compound KVL/C2 BIOENGNEERING, 11-JS 12-05-02.
COMMENT: PRIMe compound in-house ID T0117
COMMENT: This spectra was automatically generated from the raw data without manual curation of data quality.
COMMENT: The spectral data and services are available to the research and academic community only.
COMMENT: All users must cite follwing literature in publication(s).
CH$NAME: 4MSOB
CH$NAME: 4-(Methylsulfinyl)butylglucosinolate
CH$NAME: 4-methylsulfinylbutyl glucosinolate
CH$NAME: glucoraphanin
CH$COMPOUND_CLASS: CLASS1 Glucosinolate CLASS2 Aliphatic glucosinolate
CH$FORMULA: C12H23NO10S3
CH$EXACT_MASS: 437.508
CH$SMILES: CS(=O)CCCCC(=NOS(=O)(=O)O)SC1C(C(C(C(O1)CO)O)O)O
CH$IUPAC: InChI=1S/C12H23NO10S3/c1-25(18)5-3-2-4-8(13-23-26(19,20)21)24-12-11(17)10(16)9(15)7(6-14)22-12/h7,9-12,14-17H,2-6H2,1H3,(H,19,20,21)
CH$LINK: CAS 21414-41-5
CH$LINK: KEGG C08419
CH$LINK: PUBCHEM CID:9548634
CH$LINK: INCHIKEY GMMLNKINDDUDCF-UHFFFAOYSA-N
AC$INSTRUMENT: TQD, Waters
AC$INSTRUMENT_TYPE: LC-ESI-QQ
AC$MASS_SPECTROMETRY: MS_TYPE MS2
AC$MASS_SPECTROMETRY: ION_MODE POSITIVE
AC$MASS_SPECTROMETRY: IONIZATION ESI
AC$MASS_SPECTROMETRY: COLLISION_ENERGY 30
MS$FOCUSED_ION: ION_TYPE [M+H]+
MS$FOCUSED_ION: PRECURSOR_M/Z 438.38
PK$SPLASH: splash10-0002-0900000000-4626338e007138d6aa67
PK$NUM_PEAK: 4
PK$PEAK: m/z int. rel.int.
  87.0 5032.0 52
  130.0 5745.0 59
  131.0 7960.0 82
  196.0 97090.0 999
//
