ACCESSION: MSBNK-RIKEN_ReSpect-PS003303
RECORD_TITLE: 4-Methylumbelliferone, Cholestil, beta-Methylumbelliferone, 7-Hydroxy-4-methylcoumarin, 4-MU, Hymecromone; LC-ESI-QQ; MS2
DATE: 2009.02.09
AUTHORS: Sawada Y, Matsuda F, and Hirai MY. Plant Science Center, RIKEN
LICENSE: CC BY-NC
COPYRIGHT: Copyright(C) 2008 Plant Science Center, RIKEN
PUBLICATION: Sawada, Y.; Akiyama, K.; Sakata, A.; Kuwahara, A.; Otsuki, H.; Sakurai, T.; Saito, K.; Hirai, M. Y. Widely Targeted Metabolomics Based on Large-Scale MS/MS Data for Elucidating Metabolite Accumulation Patterns in Plants. Plant and Cell Physiology 2008, 50 (1), 37–47. DOI:10.1093/pcp/pcn183
COMMENT: Build 5
COMMENT: Data acquisition and generation is financially supported in part by CREST/JST.
COMMENT: Source compound SIGMA, M1381.
COMMENT: PRIMe compound in-house ID 33
COMMENT: This spectra was automatically generated from the raw data without manual curation of data quality.
COMMENT: The spectral data and services are available to the research and academic community only.
COMMENT: All users must cite follwing literature in publication(s).
CH$NAME: 4-Methylumbelliferone
CH$NAME: Cholestil
CH$NAME: beta-Methylumbelliferone
CH$NAME: 7-Hydroxy-4-methylcoumarin
CH$NAME: 4-MU
CH$NAME: Hymecromone
CH$COMPOUND_CLASS: CLASS1 Phenylpropanoid CLASS2 Coumarin CLASS3 Cholestil
CH$FORMULA: C10H8O3
CH$EXACT_MASS: 176.171
CH$SMILES: CC1=CC(=O)OC2=C1C=CC(=C2)O
CH$IUPAC: InChI=1S/C10H8O3/c1-6-4-10(12)13-9-5-7(11)2-3-8(6)9/h2-5,11H,1H3
CH$LINK: CAS 90-33-5
CH$LINK: KEGG C03081
CH$LINK: PUBCHEM CID:5280567
CH$LINK: INCHIKEY HSHNITRMYYLLCV-UHFFFAOYSA-N
CH$LINK: COMPTOX DTXSID8025670
AC$INSTRUMENT: TQD, Waters
AC$INSTRUMENT_TYPE: LC-ESI-QQ
AC$MASS_SPECTROMETRY: MS_TYPE MS2
AC$MASS_SPECTROMETRY: ION_MODE POSITIVE
AC$MASS_SPECTROMETRY: IONIZATION ESI
AC$MASS_SPECTROMETRY: COLLISION_ENERGY 30
MS$FOCUSED_ION: ION_TYPE [M+H]+
MS$FOCUSED_ION: PRECURSOR_M/Z 177.17
PK$SPLASH: splash10-004i-2900000000-8d9afcaf2dab8394d82e
PK$NUM_PEAK: 19
PK$PEAK: m/z int. rel.int.
  55.0 3725.0 65
  69.0 9486.0 166
  77.0 6878.0 120
  79.0 6202.0 108
  81.0 3604.0 63
  91.0 5595.0 98
  93.0 6042.0 105
  103.0 12106.0 211
  104.0 2589.0 45
  105.0 15005.0 262
  115.0 1717.0 30
  120.0 5995.0 105
  121.0 23401.0 409
  174.0 2154.0 38
  175.0 9092.0 159
  176.0 24089.0 421
  177.0 57223.0 999
  178.0 2981.0 52
  179.0 2134.0 37
//
