ACCESSION: MSBNK-RIKEN_ReSpect-PS097707
RECORD_TITLE: D-2-Aminoadipate, (R)-2-Aminohexanedioic acid, D-Homoglutamic acid, D-2-Aminoadipic acid, D-Ho-Glu, D-Aad, D-alpha-Aminoadipic Acid, D-2-Aminohexanedioate; LC-ESI-QQ; MS2
DATE: 2009.02.09
AUTHORS: Sawada Y, Matsuda F, and Hirai MY. Plant Science Center, RIKEN
LICENSE: CC BY-NC
COPYRIGHT: Copyright(C) 2008 Plant Science Center, RIKEN
PUBLICATION: Sawada, Y.; Akiyama, K.; Sakata, A.; Kuwahara, A.; Otsuki, H.; Sakurai, T.; Saito, K.; Hirai, M. Y. Widely Targeted Metabolomics Based on Large-Scale MS/MS Data for Elucidating Metabolite Accumulation Patterns in Plants. Plant and Cell Physiology 2008, 50 (1), 37–47. DOI:10.1093/pcp/pcn183
COMMENT: Build 5
COMMENT: Data acquisition and generation is financially supported in part by CREST/JST.
COMMENT: Source compound SIGMA, A7400.
COMMENT: PRIMe compound in-house ID N0035
COMMENT: This spectra was automatically generated from the raw data without manual curation of data quality.
COMMENT: The spectral data and services are available to the research and academic community only.
COMMENT: All users must cite follwing literature in publication(s).
CH$NAME: D-2-Aminoadipate
CH$NAME: (R)-2-Aminohexanedioic acid
CH$NAME: D-Homoglutamic acid
CH$NAME: D-2-Aminoadipic acid
CH$NAME: D-Ho-Glu
CH$NAME: D-Aad
CH$NAME: D-alpha-Aminoadipic Acid
CH$NAME: D-2-Aminohexanedioate
CH$COMPOUND_CLASS: CLASS1 Other CLASS2 Carboxylic acid CLASS3 Adipic acid
CH$FORMULA: C6H11NO4
CH$EXACT_MASS: 161.157
CH$SMILES: C(CC(C(=O)O)N)CC(=O)O
CH$IUPAC: InChI=1S/C6H11NO4/c7-4(6(10)11)2-1-3-5(8)9/h4H,1-3,7H2,(H,8,9)(H,10,11)
CH$LINK: CAS 7620-28-2
CH$LINK: PUBCHEM CID:165627
CH$LINK: INCHIKEY OYIFNHCXNCRBQI-UHFFFAOYSA-N
AC$INSTRUMENT: TQD, Waters
AC$INSTRUMENT_TYPE: LC-ESI-QQ
AC$MASS_SPECTROMETRY: MS_TYPE MS2
AC$MASS_SPECTROMETRY: ION_MODE NEGATIVE
AC$MASS_SPECTROMETRY: IONIZATION ESI
AC$MASS_SPECTROMETRY: COLLISION_ENERGY 10
MS$FOCUSED_ION: ION_TYPE [M-H]-
MS$FOCUSED_ION: PRECURSOR_M/Z 160.94
PK$SPLASH: splash10-03di-0900000000-49ac33a0862bbf8ec8f6
PK$NUM_PEAK: 2
PK$PEAK: m/z int. rel.int.
  160.0 47907.0 705
  161.0 67905.0 999
//
