ACCESSION: MSBNK-RIKEN_ReSpect-PS052004
RECORD_TITLE: 1,2-dipalmitoylphosphatidylglycerol , (16:0/16:0)PG, LHG, DPPG, 1,2-Dipalmitoyl-sn-glycero-3-phospho-rac-glycerol, 1,2-Dipalmitoyl-sn-glycero-3-phospho-rac-(1-glycerol) sodium salt; LC-ESI-QQ; MS2
DATE: 2009.02.09
AUTHORS: Sawada Y, Matsuda F, and Hirai MY. Plant Science Center, RIKEN
LICENSE: CC BY-NC
COPYRIGHT: Copyright(C) 2008 Plant Science Center, RIKEN
PUBLICATION: Sawada, Y.; Akiyama, K.; Sakata, A.; Kuwahara, A.; Otsuki, H.; Sakurai, T.; Saito, K.; Hirai, M. Y. Widely Targeted Metabolomics Based on Large-Scale MS/MS Data for Elucidating Metabolite Accumulation Patterns in Plants. Plant and Cell Physiology 2008, 50 (1), 37–47. DOI:10.1093/pcp/pcn183
COMMENT: Build 5
COMMENT: Data acquisition and generation is financially supported in part by CREST/JST.
COMMENT: Source compound Avanti, 840455p.
COMMENT: PRIMe compound in-house ID T0028
COMMENT: This spectra was automatically generated from the raw data without manual curation of data quality.
COMMENT: The spectral data and services are available to the research and academic community only.
COMMENT: All users must cite follwing literature in publication(s).
CH$NAME: 1,2-dipalmitoylphosphatidylglycerol
CH$NAME: (16:0/16:0)PG
CH$NAME: LHG
CH$NAME: DPPG
CH$NAME: 1,2-Dipalmitoyl-sn-glycero-3-phospho-rac-glycerol
CH$NAME: 1,2-Dipalmitoyl-sn-glycero-3-phospho-rac-(1-glycerol) sodium salt
CH$COMPOUND_CLASS: CLASS1 Other CLASS2 Phospholipid CLASS3 Phosphatidylglycerol
CH$FORMULA: C38H75O10P
CH$EXACT_MASS: 722.984
CH$SMILES: CCCCCCCCCCCCCCCC(=O)OCC(COP(=O)(O)OCC(CO)O)OC(=O)CCCCCCCCCCCCCCC
CH$IUPAC: InChI=1S/C38H75O10P/c1-3-5-7-9-11-13-15-17-19-21-23-25-27-29-37(41)45-33-36(34-47-49(43,44)46-32-35(40)31-39)48-38(42)30-28-26-24-22-20-18-16-14-12-10-8-6-4-2/h35-36,39-40H,3-34H2,1-2H3,(H,43,44)
CH$LINK: CAS 4537-77-3
CH$LINK: PUBCHEM CID:9547104
CH$LINK: INCHIKEY BIABMEZBCHDPBV-UHFFFAOYSA-N
AC$INSTRUMENT: TQD, Waters
AC$INSTRUMENT_TYPE: LC-ESI-QQ
AC$MASS_SPECTROMETRY: MS_TYPE MS2
AC$MASS_SPECTROMETRY: ION_MODE POSITIVE
AC$MASS_SPECTROMETRY: IONIZATION ESI
AC$MASS_SPECTROMETRY: COLLISION_ENERGY 40
MS$FOCUSED_ION: ION_TYPE [M+H]+
MS$FOCUSED_ION: PRECURSOR_M/Z 723.99
PK$SPLASH: splash10-0udi-0200090000-0093803fe0f0ca4f219c
PK$NUM_PEAK: 12
PK$PEAK: m/z int. rel.int.
  56.0 1941.0 34
  70.0 2092.0 37
  71.0 2077.0 36
  84.0 2594.0 45
  105.0 36364.0 636
  109.0 2965.0 52
  239.0 4100.0 72
  549.0 1791.0 31
  550.0 8569.0 150
  551.0 50523.0 883
  552.0 57145.0 999
  553.0 13120.0 229
//
