ACCESSION: MSBNK-RIKEN_ReSpect-PS021201
RECORD_TITLE: DL-2,3-Diaminopropionic acid monohydrochloride, DL-Dap, DL-3-Aminoalanine Hydrochloride, DL-2,3-Diaminopropionate; LC-ESI-QQ; MS2
DATE: 2009.02.09
AUTHORS: Sawada Y, Matsuda F, and Hirai MY. Plant Science Center, RIKEN
LICENSE: CC BY-NC
COPYRIGHT: Copyright(C) 2008 Plant Science Center, RIKEN
PUBLICATION: Sawada, Y.; Akiyama, K.; Sakata, A.; Kuwahara, A.; Otsuki, H.; Sakurai, T.; Saito, K.; Hirai, M. Y. Widely Targeted Metabolomics Based on Large-Scale MS/MS Data for Elucidating Metabolite Accumulation Patterns in Plants. Plant and Cell Physiology 2008, 50 (1), 37–47. DOI:10.1093/pcp/pcn183
COMMENT: Build 5
COMMENT: Data acquisition and generation is financially supported in part by CREST/JST.
COMMENT: Source compound SIGMA, D1502.
COMMENT: PRIMe compound in-house ID 212
COMMENT: This spectra was automatically generated from the raw data without manual curation of data quality.
COMMENT: The spectral data and services are available to the research and academic community only.
COMMENT: All users must cite follwing literature in publication(s).
CH$NAME: DL-2,3-Diaminopropionic acid monohydrochloride
CH$NAME: DL-Dap
CH$NAME: DL-3-Aminoalanine Hydrochloride
CH$NAME: DL-2,3-Diaminopropionate
CH$COMPOUND_CLASS: CLASS1 Other CLASS2 Other CLASS3 Alanine
CH$FORMULA: C3H8N2O2
CH$EXACT_MASS: 104.109
CH$SMILES: C(C(C(=O)O)N)N
CH$IUPAC: InChI=1S/C3H8N2O2/c4-1-2(5)3(6)7/h2H,1,4-5H2,(H,6,7)
CH$LINK: CAS 515-94-6
CH$LINK: KEGG C06393
CH$LINK: PUBCHEM CID:364
CH$LINK: INCHIKEY PECYZEOJVXMISF-UHFFFAOYSA-N
AC$INSTRUMENT: TQD, Waters
AC$INSTRUMENT_TYPE: LC-ESI-QQ
AC$MASS_SPECTROMETRY: MS_TYPE MS2
AC$MASS_SPECTROMETRY: ION_MODE POSITIVE
AC$MASS_SPECTROMETRY: IONIZATION ESI
AC$MASS_SPECTROMETRY: COLLISION_ENERGY 10
MS$FOCUSED_ION: ION_TYPE [M+H]+
MS$FOCUSED_ION: PRECURSOR_M/Z 105.08
PK$SPLASH: splash10-0a4r-6900000000-ca7ac9c164bf50021f61
PK$NUM_PEAK: 5
PK$PEAK: m/z int. rel.int.
  59.0 39358.0 113
  87.0 42617.0 122
  88.0 198450.0 568
  104.0 70409.0 201
  105.0 349177.0 999
//
