ACCESSION: MSBNK-RIKEN_ReSpect-PS050810
RECORD_TITLE: 4-(Methylthio)butylglucosinolate, Glucoerucin, 4MTB, 4-methylthiobutyl glucosinolate; LC-ESI-QQ; MS2
DATE: 2009.02.09
AUTHORS: Sawada Y, Matsuda F, and Hirai MY. Plant Science Center, RIKEN
LICENSE: CC BY-NC
COPYRIGHT: Copyright(C) 2008 Plant Science Center, RIKEN
PUBLICATION: Sawada, Y.; Akiyama, K.; Sakata, A.; Kuwahara, A.; Otsuki, H.; Sakurai, T.; Saito, K.; Hirai, M. Y. Widely Targeted Metabolomics Based on Large-Scale MS/MS Data for Elucidating Metabolite Accumulation Patterns in Plants. Plant and Cell Physiology 2008, 50 (1), 37–47. DOI:10.1093/pcp/pcn183
COMMENT: Build 5
COMMENT: Data acquisition and generation is financially supported in part by CREST/JST.
COMMENT: Source compound Dr. Jonathan Gershenzon, -.
COMMENT: PRIMe compound in-house ID T0016
COMMENT: This spectra was automatically generated from the raw data without manual curation of data quality.
COMMENT: The spectral data and services are available to the research and academic community only.
COMMENT: All users must cite follwing literature in publication(s).
CH$NAME: 4-(Methylthio)butylglucosinolate
CH$NAME: Glucoerucin
CH$NAME: 4MTB
CH$NAME: 4-methylthiobutyl glucosinolate
CH$COMPOUND_CLASS: CLASS1 Glucosinolate CLASS2 Aliphatic glucosinolate
CH$FORMULA: C12H23NO9S3
CH$EXACT_MASS: 421.509
CH$SMILES: CSCCCCC(=NOS(=O)(=O)O)SC1C(C(C(C(O1)CO)O)O)O
CH$IUPAC: InChI=1S/C12H23NO9S3/c1-23-5-3-2-4-8(13-22-25(18,19)20)24-12-11(17)10(16)9(15)7(6-14)21-12/h7,9-12,14-17H,2-6H2,1H3,(H,18,19,20)
CH$LINK: CAS 21973-56-8
CH$LINK: KEGG C08409
CH$LINK: PUBCHEM CID:9548895
CH$LINK: INCHIKEY GKUMMDFLKGFCKH-UHFFFAOYSA-N
AC$INSTRUMENT: TQD, Waters
AC$INSTRUMENT_TYPE: LC-ESI-QQ
AC$MASS_SPECTROMETRY: MS_TYPE MS2
AC$MASS_SPECTROMETRY: ION_MODE NEGATIVE
AC$MASS_SPECTROMETRY: IONIZATION ESI
AC$MASS_SPECTROMETRY: COLLISION_ENERGY 40
MS$FOCUSED_ION: ION_TYPE [M-H]-
MS$FOCUSED_ION: PRECURSOR_M/Z 420.32
PK$SPLASH: splash10-0002-9000100000-70ce7b08fab8f3339077
PK$NUM_PEAK: 9
PK$PEAK: m/z int. rel.int.
  74.0 6926.0 162
  75.0 24534.0 572
  95.0 5168.0 121
  96.0 39513.0 922
  97.0 42816.0 999
  416.0 1366.0 32
  418.0 1825.0 43
  419.0 3352.0 78
  420.0 19279.0 450
//
