ACCESSION: MSBNK-RIKEN_ReSpect-PS007203
RECORD_TITLE: Phenyl styryl ketone, 1,3-Diphenyl-2-propenone, Chalcone, Benzalacetophenone; LC-ESI-QQ; MS2
DATE: 2009.02.09
AUTHORS: Sawada Y, Matsuda F, and Hirai MY. Plant Science Center, RIKEN
LICENSE: CC BY-NC
COPYRIGHT: Copyright(C) 2008 Plant Science Center, RIKEN
PUBLICATION: Sawada, Y.; Akiyama, K.; Sakata, A.; Kuwahara, A.; Otsuki, H.; Sakurai, T.; Saito, K.; Hirai, M. Y. Widely Targeted Metabolomics Based on Large-Scale MS/MS Data for Elucidating Metabolite Accumulation Patterns in Plants. Plant and Cell Physiology 2008, 50 (1), 37–47. DOI:10.1093/pcp/pcn183
COMMENT: Build 5
COMMENT: Data acquisition and generation is financially supported in part by CREST/JST.
COMMENT: Source compound WAKO, 029-00572.
COMMENT: PRIMe compound in-house ID 72
COMMENT: This spectra was automatically generated from the raw data without manual curation of data quality.
COMMENT: The spectral data and services are available to the research and academic community only.
COMMENT: All users must cite follwing literature in publication(s).
CH$NAME: Phenyl styryl ketone
CH$NAME: 1,3-Diphenyl-2-propenone
CH$NAME: Chalcone
CH$NAME: Benzalacetophenone
CH$COMPOUND_CLASS: CLASS1 Flavonoid CLASS2 Chalcone CLASS3 Chalcone
CH$FORMULA: C15H12O
CH$EXACT_MASS: 208.26
CH$SMILES: C1=CC=C(C=C1)C=CC(=O)C2=CC=CC=C2
CH$IUPAC: InChI=1S/C15H12O/c16-15(14-9-5-2-6-10-14)12-11-13-7-3-1-4-8-13/h1-12H
CH$LINK: CAS 94-41-7
CH$LINK: KEGG C01484
CH$LINK: PUBCHEM CID:637760
CH$LINK: INCHIKEY DQFBYFPFKXHELB-UHFFFAOYSA-N
CH$LINK: COMPTOX DTXSID8022531
AC$INSTRUMENT: TQD, Waters
AC$INSTRUMENT_TYPE: LC-ESI-QQ
AC$MASS_SPECTROMETRY: MS_TYPE MS2
AC$MASS_SPECTROMETRY: ION_MODE POSITIVE
AC$MASS_SPECTROMETRY: IONIZATION ESI
AC$MASS_SPECTROMETRY: COLLISION_ENERGY 30
MS$FOCUSED_ION: ION_TYPE [M+H]+
MS$FOCUSED_ION: PRECURSOR_M/Z 209.24
PK$SPLASH: splash10-0f89-0900000000-d1daa1bbc7d6ca62b3bd
PK$NUM_PEAK: 10
PK$PEAK: m/z int. rel.int.
  77.0 11403.0 89
  102.0 12309.0 97
  103.0 68862.0 540
  104.0 21038.0 165
  105.0 49490.0 388
  130.0 20230.0 159
  131.0 127352.0 999
  191.0 3968.0 31
  208.0 9694.0 76
  209.0 16433.0 129
//
