ACCESSION: MSBNK-RIKEN_ReSpect-PS080003
RECORD_TITLE: L-beta-Homoisoleucine hydrochloride, (3R,4S)-3-Amino-4-methylhexanoic acid hydrochloride; LC-ESI-QQ; MS2
DATE: 2009.02.09
AUTHORS: Sawada Y, Matsuda F, and Hirai MY. Plant Science Center, RIKEN
LICENSE: CC BY-NC
COPYRIGHT: Copyright(C) 2008 Plant Science Center, RIKEN
PUBLICATION: Sawada, Y.; Akiyama, K.; Sakata, A.; Kuwahara, A.; Otsuki, H.; Sakurai, T.; Saito, K.; Hirai, M. Y. Widely Targeted Metabolomics Based on Large-Scale MS/MS Data for Elucidating Metabolite Accumulation Patterns in Plants. Plant and Cell Physiology 2008, 50 (1), 37–47. DOI:10.1093/pcp/pcn183
COMMENT: Build 5
COMMENT: Data acquisition and generation is financially supported in part by CREST/JST.
COMMENT: Source compound Fluka, 3669.
COMMENT: PRIMe compound in-house ID S0231
COMMENT: This spectra was automatically generated from the raw data without manual curation of data quality.
COMMENT: The spectral data and services are available to the research and academic community only.
COMMENT: All users must cite follwing literature in publication(s).
CH$NAME: L-beta-Homoisoleucine hydrochloride
CH$NAME: (3R,4S)-3-Amino-4-methylhexanoic acid hydrochloride
CH$COMPOUND_CLASS: CLASS1 Amino acid CLASS2 Isoleucine
CH$FORMULA: C7H15NO2
CH$EXACT_MASS: 145.202
CH$SMILES: CCC(C)C(CC(=O)O)N
CH$IUPAC: InChI=1S/C7H15NO2/c1-3-5(2)6(8)4-7(9)10/h5-6H,3-4,8H2,1-2H3,(H,9,10)
CH$LINK: CAS 219310-10-8
CH$LINK: PUBCHEM CID:16211048
CH$LINK: INCHIKEY JHEDYGILOIBOTL-UHFFFAOYSA-N
AC$INSTRUMENT: TQD, Waters
AC$INSTRUMENT_TYPE: LC-ESI-QQ
AC$MASS_SPECTROMETRY: MS_TYPE MS2
AC$MASS_SPECTROMETRY: ION_MODE POSITIVE
AC$MASS_SPECTROMETRY: IONIZATION ESI
AC$MASS_SPECTROMETRY: COLLISION_ENERGY 30
MS$FOCUSED_ION: ION_TYPE [M+H]+
MS$FOCUSED_ION: PRECURSOR_M/Z 146.18
PK$SPLASH: splash10-05n0-9000000000-366503444fe9758c2563
PK$NUM_PEAK: 16
PK$PEAK: m/z int. rel.int.
  30.0 11664.0 161
  40.0 5717.0 79
  41.0 21909.0 302
  43.0 7404.0 102
  44.0 13551.0 187
  45.0 6517.0 90
  54.0 20577.0 283
  55.0 48184.0 663
  68.0 12147.0 167
  69.0 66582.0 916
  82.0 4811.0 66
  83.0 24629.0 339
  85.0 14310.0 197
  86.0 72579.0 999
  87.0 4391.0 60
  146.0 5631.0 78
//
