ACCESSION: MSBNK-RIKEN_ReSpect-PM000324
RECORD_TITLE: Isorhamnetin-3-O-rutinoside; LC-ESI-QQ; MS2
DATE: 2006.04.19
AUTHORS: Parejo I, et al.
LICENSE: CC BY-NC
COPYRIGHT: Copyright(C) 2012 Plant Science Center, RIKEN
PUBLICATION: Parejo, I.; Jauregui, O.; Sánchez-Rabaneda, F.; Viladomat, F.; Bastida, J.; Codina, C. Separation and Characterization of Phenolic Compounds in Fennel (Foeniculum Vulgare) Using Liquid Chromatography-Negative Electrospray Ionization Tandem Mass Spectrometry. Journal of Agricultural and Food Chemistry 2004, 52 (12), 3679–87. DOI:10.1021/jf030813h
COMMENT: 725
CH$NAME: Isorhamnetin-3-O-rutinoside
CH$COMPOUND_CLASS: CLASS1 Flavonoid CLASS2 Flavonol CLASS3 Isorhamnetin glycoside
CH$FORMULA: C28H32O16
CH$EXACT_MASS: 624.548
CH$SMILES: COc1cc(-c2oc3cc(O)cc(O)c3c(=O)c2O[C@@H]2O[C@H](CO[C@@H]3O[C@@H](C)[C@H](O)[C@@H](O)[C@H]3O)[C@@H](O)[C@H](O)[C@H]2O)ccc1O
CH$IUPAC: InChI=1S/C28H32O16/c1-9-18(32)21(35)23(37)27(41-9)40-8-16-19(33)22(36)24(38)28(43-16)44-26-20(34)17-13(31)6-11(29)7-15(17)42-25(26)10-3-4-12(30)14(5-10)39-2/h3-7,9,16,18-19,21-24,27-33,35-38H,8H2,1-2H3/t9-,16+,18-,19+,21+,22-,23+,24+,27+,28-/m0/s1
CH$LINK: CAS 604-80-8
CH$LINK: INCHIKEY UIDGLYUNOUKLBM-GEBJFKNCSA-N
CH$LINK: PUBCHEM CID:5481663
CH$LINK: COMPTOX DTXSID00209157
SP$SAMPLE: Foeniculum vulgare
AC$INSTRUMENT: API 3000 triple-quadrupole mass spectrometer (PerkinElmer Sciex, Concord, ON, Canada)
AC$INSTRUMENT_TYPE: LC-ESI-QQ
AC$MASS_SPECTROMETRY: MS_TYPE MS2
AC$MASS_SPECTROMETRY: ION_MODE NEGATIVE
AC$MASS_SPECTROMETRY: IONIZATION ESI
AC$MASS_SPECTROMETRY: COLLISION_ENERGY 35
AC$CHROMATOGRAPHY: SOLVENT H2O/NH3CN/HCOOH
MS$FOCUSED_ION: ION_TYPE [M-H]-
MS$FOCUSED_ION: PRECURSOR_M/Z 623
PK$SPLASH: splash10-0v4i-0449000000-edee83221343cce610bb
PK$NUM_PEAK: 4
PK$PEAK: m/z int. rel.int.
  151.0 100.0 999
  271.0 100.0 999
  300.0 100.0 999
  315.0 100.0 999
//
