ACCESSION: MSBNK-RIKEN_ReSpect-PT208430
RECORD_TITLE: 1-[2,4-dihydroxy-6-[3,4,5-trihydroxy-6-(hydroxymethyl)oxan-2-yl]oxyphenyl]-3-phenylpropan-1-one, Depz-pl, 4-deoxyphloridzin; LC-ESI-QTOF; MS2
DATE: 2008.07.28
AUTHORS: Matsuda F, Suzuki M, Sawada Y, Plant Science Center, RIKEN.
LICENSE: CC BY-NC
COPYRIGHT: Copyright(C) 2009 Plant Science Center, RIKEN
COMMENT: Build 1 2009/06/24
COMMENT: Acquisition and generation of the data is financially supported in part by CREST/JST.
CH$NAME: 1-[2,4-dihydroxy-6-[3,4,5-trihydroxy-6-(hydroxymethyl)oxan-2-yl]oxyphenyl]-3-phenylpropan-1-one
CH$NAME: Depz-pl
CH$NAME: 4-deoxyphloridzin
CH$COMPOUND_CLASS: CLASS1 Flavonoid CLASS2 Other CLASS3 Phloridzin
CH$FORMULA: C21H24O9
CH$EXACT_MASS: 420.414
CH$SMILES: C1=CC=C(C=C1)CCC(=O)C2=C(C=C(C=C2OC3C(C(C(C(O3)CO)O)O)O)O)O
CH$IUPAC: InChI=1S/C21H24O9/c22-10-16-18(26)19(27)20(28)21(30-16)29-15-9-12(23)8-14(25)17(15)13(24)7-6-11-4-2-1-3-5-11/h1-5,8-9,16,18-23,25-28H,6-7,10H2
CH$LINK: INCHIKEY NLGUKXQDDTZCDG-UHFFFAOYSA-N
AC$INSTRUMENT: Q-Tof Premier, Waters
AC$INSTRUMENT_TYPE: LC-ESI-QTOF
AC$MASS_SPECTROMETRY: MS_TYPE MS2
AC$MASS_SPECTROMETRY: ION_MODE NEGATIVE
AC$MASS_SPECTROMETRY: IONIZATION ESI
AC$MASS_SPECTROMETRY: COLLISION_ENERGY Ramp 5-45 V
AC$MASS_SPECTROMETRY: CAPILLARY_VOLTAGE 3.0 kV
AC$CHROMATOGRAPHY: SOLVENT CH3CN/H2O
MS$FOCUSED_ION: ION_TYPE [M-H]-
MS$FOCUSED_ION: PRECURSOR_M/Z 419.13423
PK$SPLASH: splash10-0zfr-1950000000-701ab4380c477a60077b
PK$NUM_PEAK: 11
PK$PEAK: m/z int. rel.int.
  83.0146 197.1 59
  91.0192 173.4 52
  93.0349 333.2 99
  109.0295 342.6 102
  133.0296 115.1 34
  135.0086 410.6 122
  151.0396 3361.0 999
  163.0398 703.0 209
  239.072 100.9 30
  257.0807 2843.0 845
  419.1342 156.2 46
//
