ACCESSION: MSBNK-RIKEN_ReSpect-PM019112
RECORD_TITLE: Glabridin, 1,3-Benzenediol, 4-[(3R)-3,4-dihydro-8,8-dimethyl-2H,8H-benzo[1,2-b:3,4-b']dipyran-3-yl]-; LC-ESI-QIT; MS2
DATE: 2009.11.18
AUTHORS: F. Matsuda and M. Suzuki.
LICENSE: CC BY-NC
COPYRIGHT: Copyright(C) 2012 Plant Science Center, RIKEN
PUBLICATION: Simons, R.; Vincken, J.-P.; Bakx, E. J.; Verbruggen, M. A.; Gruppen, H. A Rapid Screening Method for Prenylated Flavonoids with Ultra-High-Performance Liquid Chromatography/Electrospray Ionisation Mass Spectrometry in Licorice Root Extracts. Rapid Communications in Mass Spectrometry 2009, 23 (19), 3083–93. DOI:10.1002/rcm.4215
COMMENT: Obtained from extract mixture
COMMENT: N/D
CH$NAME: Glabridin
CH$NAME: 1,3-Benzenediol, 4-[(3R)-3,4-dihydro-8,8-dimethyl-2H,8H-benzo[1,2-b:3,4-b']dipyran-3-yl]-
CH$COMPOUND_CLASS: CLASS1 Flavonoid CLASS2 Isoflavane
CH$FORMULA: C20H20O4
CH$EXACT_MASS: 324.376
CH$SMILES: CC1(C)C=Cc2c(ccc3c2OC[C@@H](c2ccc(O)cc2O)C3)O1
CH$IUPAC: InChI=1S/C20H20O4/c1-20(2)8-7-16-18(24-20)6-3-12-9-13(11-23-19(12)16)15-5-4-14(21)10-17(15)22/h3-8,10,13,21-22H,9,11H2,1-2H3/t13-/m0/s1
CH$LINK: CAS 59870-68-7
CH$LINK: INCHIKEY LBQIJVLKGVZRIW-ZDUSSCGKSA-N
CH$LINK: PUBCHEM CID:124052
CH$LINK: COMPTOX DTXSID00208589
SP$SAMPLE: Glycyrrhiza glabra
AC$INSTRUMENT: Thermo Scientific LTQ-XL (San Jose, CA, USA)
AC$INSTRUMENT_TYPE: LC-ESI-QIT
AC$MASS_SPECTROMETRY: MS_TYPE MS2
AC$MASS_SPECTROMETRY: ION_MODE NEGATIVE
AC$MASS_SPECTROMETRY: IONIZATION ESI
AC$MASS_SPECTROMETRY: COLLISION_ENERGY 35%
AC$CHROMATOGRAPHY: SOLVENT H2O/CH3CN/CH3COOH
MS$FOCUSED_ION: ION_TYPE [M-H]-
MS$FOCUSED_ION: PRECURSOR_M/Z 323
PK$SPLASH: splash10-0f79-0950000000-a468dc5fe93831e80c1f
PK$NUM_PEAK: 5
PK$PEAK: m/z int. rel.int.
  121.0 35.0 350
  135.0 100.0 999
  147.0 28.0 280
  201.0 71.0 709
  213.0 37.0 370
//
