ACCESSION: MSBNK-RIKEN_ReSpect-PS096703
RECORD_TITLE: 3-Methyl-L-histidine, N-pros-Methyl-L-histidine, 3-(1-Methylimidazol-5-yl)-L-alanine, 3-Me-His; LC-ESI-QQ; MS2
DATE: 2009.02.09
AUTHORS: Sawada Y, Matsuda F, and Hirai MY. Plant Science Center, RIKEN
LICENSE: CC BY-NC
COPYRIGHT: Copyright(C) 2008 Plant Science Center, RIKEN
PUBLICATION: Sawada, Y.; Akiyama, K.; Sakata, A.; Kuwahara, A.; Otsuki, H.; Sakurai, T.; Saito, K.; Hirai, M. Y. Widely Targeted Metabolomics Based on Large-Scale MS/MS Data for Elucidating Metabolite Accumulation Patterns in Plants. Plant and Cell Physiology 2008, 50 (1), 37–47. DOI:10.1093/pcp/pcn183
COMMENT: Build 5
COMMENT: Data acquisition and generation is financially supported in part by CREST/JST.
COMMENT: Source compound SIGMA, M9005.
COMMENT: PRIMe compound in-house ID N0025
COMMENT: This spectra was automatically generated from the raw data without manual curation of data quality.
COMMENT: The spectral data and services are available to the research and academic community only.
COMMENT: All users must cite follwing literature in publication(s).
CH$NAME: 3-Methyl-L-histidine
CH$NAME: N-pros-Methyl-L-histidine
CH$NAME: 3-(1-Methylimidazol-5-yl)-L-alanine
CH$NAME: 3-Me-His
CH$COMPOUND_CLASS: CLASS1 Amino acid CLASS2 Histidine
CH$FORMULA: C7H11N3O2
CH$EXACT_MASS: 169.184
CH$SMILES: CN1C=NC=C1C[C@@H](C(=O)O)N 
CH$IUPAC: InChI=1S/C7H11N3O2/c1-10-4-9-3-5(10)2-6(8)7(11)12/h3-4,6H,2,8H2,1H3,(H,11,12)/t6-/m0/s1
CH$LINK: CAS 368-16-1
CH$LINK: KEGG C01152
CH$LINK: PUBCHEM CID:64969
CH$LINK: INCHIKEY JDHILDINMRGULE-LURJTMIESA-N
AC$INSTRUMENT: TQD, Waters
AC$INSTRUMENT_TYPE: LC-ESI-QQ
AC$MASS_SPECTROMETRY: MS_TYPE MS2
AC$MASS_SPECTROMETRY: ION_MODE POSITIVE
AC$MASS_SPECTROMETRY: IONIZATION ESI
AC$MASS_SPECTROMETRY: COLLISION_ENERGY 30
MS$FOCUSED_ION: ION_TYPE [M+H]+
MS$FOCUSED_ION: PRECURSOR_M/Z 170.2
PK$SPLASH: splash10-0002-9300000000-b446b46bf05a1472c2be
PK$NUM_PEAK: 10
PK$PEAK: m/z int. rel.int.
  68.0 6650.0 36
  83.0 8555.0 46
  95.0 27726.0 150
  96.0 184439.0 999
  97.0 14065.0 76
  108.0 7307.0 40
  109.0 33485.0 181
  125.0 5700.0 31
  169.0 17174.0 93
  170.0 23345.0 126
//
