ACCESSION: MSBNK-RIKEN_ReSpect-PM000310
RECORD_TITLE: 4-Coumaroylquinic acid; LC-ESI-QQ; MS2
DATE: 2006.04.19
AUTHORS: Parejo I, et al.
LICENSE: CC BY-NC
COPYRIGHT: Copyright(C) 2012 Plant Science Center, RIKEN
PUBLICATION: Parejo, I.; Jauregui, O.; Sánchez-Rabaneda, F.; Viladomat, F.; Bastida, J.; Codina, C. Separation and Characterization of Phenolic Compounds in Fennel (Foeniculum Vulgare) Using Liquid Chromatography-Negative Electrospray Ionization Tandem Mass Spectrometry. Journal of Agricultural and Food Chemistry 2004, 52 (12), 3679–87. DOI:10.1021/jf030813h
COMMENT: 725
CH$NAME: 4-Coumaroylquinic acid
CH$COMPOUND_CLASS: CLASS1 Phenylpropanoid CLASS2 Phenylpropanoid ester CLASS3 Quinic acid
CH$FORMULA: C16H18O8
CH$EXACT_MASS: 338.312
CH$SMILES: O=C(/C=C/c1ccc(O)cc1)OC1[C@H](O)CC(O)(C(=O)O)C[C@H]1O
CH$IUPAC: InChI=1S/C16H18O8/c17-10-4-1-9(2-5-10)3-6-13(20)24-14-11(18)7-16(23,15(21)22)8-12(14)19/h1-6,11-12,14,17-19,23H,7-8H2,(H,21,22)/b6-3+/t11-,12-,14?,16?/m1/s1
CH$LINK: CAS 864467-51-6
CH$LINK: INCHIKEY XWRHBGVVCOSNKO-OPGYGNEESA-N
CH$LINK: PUBCHEM CID:5281766
SP$SAMPLE: Foeniculum vulgare
AC$INSTRUMENT: API 3000 triple-quadrupole mass spectrometer (PerkinElmer Sciex, Concord, ON, Canada)
AC$INSTRUMENT_TYPE: LC-ESI-QQ
AC$MASS_SPECTROMETRY: MS_TYPE MS2
AC$MASS_SPECTROMETRY: ION_MODE NEGATIVE
AC$MASS_SPECTROMETRY: IONIZATION ESI
AC$MASS_SPECTROMETRY: COLLISION_ENERGY 35
AC$CHROMATOGRAPHY: SOLVENT H2O/NH3CN/HCOOH
MS$FOCUSED_ION: ION_TYPE [M-H]-
MS$FOCUSED_ION: PRECURSOR_M/Z 337
PK$SPLASH: splash10-00di-0900000000-29c9020f95cb8e070834
PK$NUM_PEAK: 2
PK$PEAK: m/z int. rel.int.
  163.0 5.0 50
  173.0 100.0 999
//
