ACCESSION: MSBNK-RIKEN_ReSpect-PS108904
RECORD_TITLE: Indole-3-aldehyde, beta-Indolylaldehyde, 1H-indole-3-carbaldehyde, 3-Formylindole, Indole-3-carboxaldehyde , Indole-3-carbaldehyde; LC-ESI-QQ; MS2
DATE: 2009.02.09
AUTHORS: Sawada Y, Matsuda F, and Hirai MY. Plant Science Center, RIKEN
LICENSE: CC BY-NC
COPYRIGHT: Copyright(C) 2008 Plant Science Center, RIKEN
PUBLICATION: Sawada, Y.; Akiyama, K.; Sakata, A.; Kuwahara, A.; Otsuki, H.; Sakurai, T.; Saito, K.; Hirai, M. Y. Widely Targeted Metabolomics Based on Large-Scale MS/MS Data for Elucidating Metabolite Accumulation Patterns in Plants. Plant and Cell Physiology 2008, 50 (1), 37–47. DOI:10.1093/pcp/pcn183
COMMENT: Build 5
COMMENT: Data acquisition and generation is financially supported in part by CREST/JST.
COMMENT: Source compound Nakabayashi_Chiba_Univ, -.
COMMENT: PRIMe compound in-house ID R0006
COMMENT: This spectra was automatically generated from the raw data without manual curation of data quality.
COMMENT: The spectral data and services are available to the research and academic community only.
COMMENT: All users must cite follwing literature in publication(s).
CH$NAME: Indole-3-aldehyde
CH$NAME: beta-Indolylaldehyde
CH$NAME: 1H-indole-3-carbaldehyde
CH$NAME: 3-Formylindole
CH$NAME: Indole-3-carboxaldehyde
CH$NAME: Indole-3-carbaldehyde
CH$COMPOUND_CLASS: CLASS1 Alkaloid CLASS2 Indole CLASS3 Indole
CH$FORMULA: C9H7NO
CH$EXACT_MASS: 145.161
CH$SMILES: C1=CC=C2C(=C1)C(=CN2)C=O
CH$IUPAC: InChI=1S/C9H7NO/c11-6-7-5-10-9-4-2-1-3-8(7)9/h1-6,10H
CH$LINK: CAS 487-89-8
CH$LINK: KEGG C08493
CH$LINK: PUBCHEM CID:10256
CH$LINK: INCHIKEY OLNJUISKUQQNIM-UHFFFAOYSA-N
AC$INSTRUMENT: TQD, Waters
AC$INSTRUMENT_TYPE: LC-ESI-QQ
AC$MASS_SPECTROMETRY: MS_TYPE MS2
AC$MASS_SPECTROMETRY: ION_MODE POSITIVE
AC$MASS_SPECTROMETRY: IONIZATION ESI
AC$MASS_SPECTROMETRY: COLLISION_ENERGY 40
MS$FOCUSED_ION: ION_TYPE [M+H]+
MS$FOCUSED_ION: PRECURSOR_M/Z 146.14
PK$SPLASH: splash10-0006-9400000000-a444a09a239215390fdd
PK$NUM_PEAK: 7
PK$PEAK: m/z int. rel.int.
  65.0 4727.0 48
  89.0 4601.0 47
  90.0 37817.0 388
  91.0 97375.0 999
  116.0 5647.0 58
  117.0 35962.0 369
  118.0 23717.0 243
//
