ACCESSION: MSBNK-RIKEN_ReSpect-PS108703
RECORD_TITLE: Syringic aldehyde, Gallaldehyde 3,5-dimethyl ether, Syringylaldehyde, 3,5-Dimethoxy-4-hydroxybenzene carbonal, Syringealdehyde, Syringaldehyde, 4-Hydroxy-3,5-dimethoxybenzaldehyde; LC-ESI-QQ; MS2
DATE: 2009.02.09
AUTHORS: Sawada Y, Matsuda F, and Hirai MY. Plant Science Center, RIKEN
LICENSE: CC BY-NC
COPYRIGHT: Copyright(C) 2008 Plant Science Center, RIKEN
PUBLICATION: Sawada, Y.; Akiyama, K.; Sakata, A.; Kuwahara, A.; Otsuki, H.; Sakurai, T.; Saito, K.; Hirai, M. Y. Widely Targeted Metabolomics Based on Large-Scale MS/MS Data for Elucidating Metabolite Accumulation Patterns in Plants. Plant and Cell Physiology 2008, 50 (1), 37–47. DOI:10.1093/pcp/pcn183
COMMENT: Build 5
COMMENT: Data acquisition and generation is financially supported in part by CREST/JST.
COMMENT: Source compound Nakabayashi_Chiba_Univ, -.
COMMENT: PRIMe compound in-house ID R0004
COMMENT: This spectra was automatically generated from the raw data without manual curation of data quality.
COMMENT: The spectral data and services are available to the research and academic community only.
COMMENT: All users must cite follwing literature in publication(s).
CH$NAME: Syringic aldehyde
CH$NAME: Gallaldehyde 3,5-dimethyl ether
CH$NAME: Syringylaldehyde
CH$NAME: 3,5-Dimethoxy-4-hydroxybenzene carbonal
CH$NAME: Syringealdehyde
CH$NAME: Syringaldehyde
CH$NAME: 4-Hydroxy-3,5-dimethoxybenzaldehyde
CH$COMPOUND_CLASS: CLASS1 Phenylpropanoid CLASS2 Phenylpropanoid monomer CLASS3 Syringaldehyde
CH$FORMULA: C9H10O4
CH$EXACT_MASS: 182.175
CH$SMILES: COC1=CC(=CC(=C1O)OC)C=O
CH$IUPAC: InChI=1S/C9H10O4/c1-12-7-3-6(5-10)4-8(13-2)9(7)11/h3-5,11H,1-2H3
CH$LINK: CAS 134-96-3
CH$LINK: PUBCHEM CID:8655
CH$LINK: INCHIKEY KCDXJAYRVLXPFO-UHFFFAOYSA-N
AC$INSTRUMENT: TQD, Waters
AC$INSTRUMENT_TYPE: LC-ESI-QQ
AC$MASS_SPECTROMETRY: MS_TYPE MS2
AC$MASS_SPECTROMETRY: ION_MODE POSITIVE
AC$MASS_SPECTROMETRY: IONIZATION ESI
AC$MASS_SPECTROMETRY: COLLISION_ENERGY 30
MS$FOCUSED_ION: ION_TYPE [M+H]+
MS$FOCUSED_ION: PRECURSOR_M/Z 183.2
PK$SPLASH: splash10-004i-9400000000-2dbec98af26a584baa68
PK$NUM_PEAK: 16
PK$PEAK: m/z int. rel.int.
  23.0 3815.0 83
  50.0 1495.0 32
  55.0 1684.0 36
  65.0 1517.0 33
  77.0 46191.0 999
  93.0 4179.0 90
  94.0 5752.0 124
  95.0 20920.0 452
  97.0 1425.0 31
  122.0 1511.0 33
  123.0 20245.0 438
  139.0 1463.0 32
  140.0 11928.0 258
  155.0 2769.0 60
  182.0 2044.0 44
  183.0 4823.0 104
//
