ACCESSION: MSBNK-RIKEN_ReSpect-PM000422
RECORD_TITLE: Kaempferol; LC-ESI-QQ; MS2
DATE: 2006.04.20
AUTHORS: Sanchez-Rabaneda F, et al.
LICENSE: CC BY-NC
COPYRIGHT: Copyright(C) 2012 Plant Science Center, RIKEN
PUBLICATION: Sánchez-Rabaneda, F.; Jáuregui, O.; Casals, I.; Andrés-Lacueva, C.; Izquierdo-Pulido, M.; Lamuela-Raventós, R. M. Liquid Chromatographic/Electrospray Ionization Tandem Mass Spectrometric Study of the Phenolic Composition of Cocoa (Theobroma Cacao). Journal of Mass Spectrometry 2003, 38 (1), 35–42. DOI:10.1002/jms.395
COMMENT: 726
CH$NAME: Kaempferol
CH$COMPOUND_CLASS: CLASS1 Flavonoid CLASS2 Flavonol CLASS3 Kaempferol
CH$FORMULA: C15H10O6
CH$EXACT_MASS: 286.239
CH$SMILES: O=c1c(O)c(-c2ccc(O)cc2)oc2cc(O)cc(O)c12
CH$IUPAC: InChI=1S/C15H10O6/c16-8-3-1-7(2-4-8)15-14(20)13(19)12-10(18)5-9(17)6-11(12)21-15/h1-6,16-18,20H
CH$LINK: CAS 520-18-3
CH$LINK: INCHIKEY IYRMWMYZSQPJKC-UHFFFAOYSA-N
CH$LINK: PUBCHEM CID:5280863
CH$LINK: COMPTOX DTXSID7020768
SP$SAMPLE: Theobroma cacao
AC$INSTRUMENT: Agilent (Waldbronn, Germany) Model 1100; API 3000 triple-quadrupole mass spectrometer (Perkin-Elmer Sciex, Concord, ON, Canada)
AC$INSTRUMENT_TYPE: LC-ESI-QQ
AC$MASS_SPECTROMETRY: MS_TYPE MS2
AC$MASS_SPECTROMETRY: ION_MODE NEGATIVE
AC$MASS_SPECTROMETRY: IONIZATION ESI
AC$MASS_SPECTROMETRY: COLLISION_ENERGY -35
AC$CHROMATOGRAPHY: SOLVENT H2O/NH3CN/HCOOH
MS$FOCUSED_ION: ION_TYPE [M-H]-
MS$FOCUSED_ION: PRECURSOR_M/Z 285
PK$SPLASH: splash10-0f80-0970000000-fbd97741dcf96a8311e8
PK$NUM_PEAK: 4
PK$PEAK: m/z int. rel.int.
  133.0 75.0 749
  151.0 85.0 849
  217.0 40.0 400
  285.0 100.0 999
//
