ACCESSION: MSBNK-RIKEN_ReSpect-PS058903
RECORD_TITLE: DL-Glyceraldehyde 3-phosphate solution, Glyceraldehyde-3P; LC-ESI-QQ; MS2
DATE: 2009.02.09
AUTHORS: Sawada Y, Matsuda F, and Hirai MY. Plant Science Center, RIKEN
LICENSE: CC BY-NC
COPYRIGHT: Copyright(C) 2008 Plant Science Center, RIKEN
PUBLICATION: Sawada, Y.; Akiyama, K.; Sakata, A.; Kuwahara, A.; Otsuki, H.; Sakurai, T.; Saito, K.; Hirai, M. Y. Widely Targeted Metabolomics Based on Large-Scale MS/MS Data for Elucidating Metabolite Accumulation Patterns in Plants. Plant and Cell Physiology 2008, 50 (1), 37–47. DOI:10.1093/pcp/pcn183
COMMENT: Build 5
COMMENT: Data acquisition and generation is financially supported in part by CREST/JST.
COMMENT: Source compound SIGMA, G5251.
COMMENT: PRIMe compound in-house ID T0097
COMMENT: This spectra was automatically generated from the raw data without manual curation of data quality.
COMMENT: The spectral data and services are available to the research and academic community only.
COMMENT: All users must cite follwing literature in publication(s).
CH$NAME: DL-Glyceraldehyde 3-phosphate solution
CH$NAME: Glyceraldehyde-3P
CH$COMPOUND_CLASS: CLASS1 Other CLASS2 Suger phosphate CLASS3 Glyceraldehyde phosphate
CH$FORMULA: C3H7O6P
CH$EXACT_MASS: 170.059
CH$SMILES: C(C(C=O)O)OP(=O)(O)O
CH$IUPAC: InChI=1S/C3H7O6P/c4-1-3(5)2-9-10(6,7)8/h1,3,5H,2H2,(H2,6,7,8)
CH$LINK: CAS 591-59-3
CH$LINK: KEGG C00118
CH$LINK: PUBCHEM CID:729
CH$LINK: INCHIKEY LXJXRIRHZLFYRP-UHFFFAOYSA-N
AC$INSTRUMENT: TQD, Waters
AC$INSTRUMENT_TYPE: LC-ESI-QQ
AC$MASS_SPECTROMETRY: MS_TYPE MS2
AC$MASS_SPECTROMETRY: ION_MODE POSITIVE
AC$MASS_SPECTROMETRY: IONIZATION ESI
AC$MASS_SPECTROMETRY: COLLISION_ENERGY 30
MS$FOCUSED_ION: ION_TYPE [M+H]+
MS$FOCUSED_ION: PRECURSOR_M/Z 171.15
PK$SPLASH: splash10-0002-9000000000-9a555fdcea824abcff9d
PK$NUM_PEAK: 3
PK$PEAK: m/z int. rel.int.
  89.0 8919.0 109
  98.0 20195.0 247
  99.0 81543.0 999
//
