ACCESSION: MSBNK-RIKEN_ReSpect-PS037205
RECORD_TITLE: Uridylic acid, uridylate, UMP, Uridine-5'-monophosphate, U 5'-P; LC-ESI-QQ; MS2
DATE: 2009.02.09
AUTHORS: Sawada Y, Matsuda F, and Hirai MY. Plant Science Center, RIKEN
LICENSE: CC BY-NC
COPYRIGHT: Copyright(C) 2008 Plant Science Center, RIKEN
PUBLICATION: Sawada, Y.; Akiyama, K.; Sakata, A.; Kuwahara, A.; Otsuki, H.; Sakurai, T.; Saito, K.; Hirai, M. Y. Widely Targeted Metabolomics Based on Large-Scale MS/MS Data for Elucidating Metabolite Accumulation Patterns in Plants. Plant and Cell Physiology 2008, 50 (1), 37–47. DOI:10.1093/pcp/pcn183
COMMENT: Build 5
COMMENT: Data acquisition and generation is financially supported in part by CREST/JST.
COMMENT: Source compound SIGMA, U1752.
COMMENT: PRIMe compound in-house ID 372
COMMENT: This spectra was automatically generated from the raw data without manual curation of data quality.
COMMENT: The spectral data and services are available to the research and academic community only.
COMMENT: All users must cite follwing literature in publication(s).
CH$NAME: Uridylic acid
CH$NAME: uridylate
CH$NAME: UMP
CH$NAME: Uridine-5'-monophosphate
CH$NAME: U 5'-P
CH$COMPOUND_CLASS: CLASS1 Other CLASS2 Nucleotide CLASS3 Uridine phosphate
CH$FORMULA: C9H13N2O9P
CH$EXACT_MASS: 324.184
CH$SMILES: C1=CN(C(=O)NC1=O)C2C(C(C(O2)COP(=O)(O)O)O)O
CH$IUPAC: InChI=1S/C9H13N2O9P/c12-5-1-2-11(9(15)10-5)8-7(14)6(13)4(20-8)3-19-21(16,17)18/h1-2,4,6-8,13-14H,3H2,(H,10,12,15)(H2,16,17,18)
CH$LINK: CAS 58-97-9
CH$LINK: KEGG C00105
CH$LINK: PUBCHEM CID:6030
CH$LINK: INCHIKEY DJJCXFVJDGTHFX-UHFFFAOYSA-N
AC$INSTRUMENT: TQD, Waters
AC$INSTRUMENT_TYPE: LC-ESI-QQ
AC$MASS_SPECTROMETRY: MS_TYPE MS2
AC$MASS_SPECTROMETRY: ION_MODE POSITIVE
AC$MASS_SPECTROMETRY: IONIZATION ESI
AC$MASS_SPECTROMETRY: COLLISION_ENERGY 50
MS$FOCUSED_ION: ION_TYPE [M+H]+
MS$FOCUSED_ION: PRECURSOR_M/Z 325.25
PK$SPLASH: splash10-0002-9000000000-f4ab9704957fc9931c4d
PK$NUM_PEAK: 5
PK$PEAK: m/z int. rel.int.
  41.0 27163.0 189
  92.0 4489.0 31
  96.0 41348.0 288
  97.0 143506.0 999
  113.0 4348.0 30
//
