ACCESSION: MSBNK-RIKEN_ReSpect-PM000309
RECORD_TITLE: 5-O-Feruloylquinic acid; LC-ESI-QQ; MS2
DATE: 2006.04.19
AUTHORS: Parejo I, et al.
LICENSE: CC BY-NC
COPYRIGHT: Copyright(C) 2012 Plant Science Center, RIKEN
PUBLICATION: Parejo, I.; Jauregui, O.; Sánchez-Rabaneda, F.; Viladomat, F.; Bastida, J.; Codina, C. Separation and Characterization of Phenolic Compounds in Fennel (Foeniculum Vulgare) Using Liquid Chromatography-Negative Electrospray Ionization Tandem Mass Spectrometry. Journal of Agricultural and Food Chemistry 2004, 52 (12), 3679–87. DOI:10.1021/jf030813h
COMMENT: 725
CH$NAME: 5-O-Feruloylquinic acid
CH$COMPOUND_CLASS: CLASS1 Phenylpropanoid CLASS2 Phenylpropanoid ester CLASS3 Quinic acid
CH$FORMULA: C17H20O9
CH$EXACT_MASS: 368.338
CH$SMILES: COc1cc(C=CC(=O)OC2CC(O)(C(=O)O)CC(O)C2O)ccc1O
CH$IUPAC: InChI=1S/C17H20O9/c1-25-12-6-9(2-4-10(12)18)3-5-14(20)26-13-8-17(24,16(22)23)7-11(19)15(13)21/h2-6,11,13,15,18-19,21,24H,7-8H2,1H3,(H,22,23)
CH$LINK: CAS 40242-06-6
CH$LINK: INCHIKEY RAGZUCNPTLULOL-UHFFFAOYSA-N
CH$LINK: PUBCHEM CID:73210496
SP$SAMPLE: Foeniculum vulgare
AC$INSTRUMENT: API 3000 triple-quadrupole mass spectrometer (PerkinElmer Sciex, Concord, ON, Canada)
AC$INSTRUMENT_TYPE: LC-ESI-QQ
AC$MASS_SPECTROMETRY: MS_TYPE MS2
AC$MASS_SPECTROMETRY: ION_MODE NEGATIVE
AC$MASS_SPECTROMETRY: IONIZATION ESI
AC$MASS_SPECTROMETRY: COLLISION_ENERGY 35
AC$CHROMATOGRAPHY: SOLVENT H2O/NH3CN/HCOOH
MS$FOCUSED_ION: ION_TYPE [M-H]-
MS$FOCUSED_ION: PRECURSOR_M/Z 367
PK$SPLASH: splash10-006x-0900000000-31c0bcc61ab4a886108d
PK$NUM_PEAK: 2
PK$PEAK: m/z int. rel.int.
  173.0 57.0 569
  191.0 100.0 999
//
