ACCESSION: MSBNK-RIKEN_ReSpect-PS092904
RECORD_TITLE: myricetin-3-O-rhamnoside, Myricetin 3-O-alpha-L-rhamnopyranoside, Myricetin-3-Rhamnoside, Myricetrin, 3-((6-Deoxy-alpha-L-mannopyranosyl)oxy)-5,7-dihydroxy-2-(3,4,5-trihydroxyphenyl)-4H-benzopyran-4-one, Myrc-3-Rha, Myricitrin, Myricitroside, Myricitrine, Myricetol 3-rhamnoside; LC-ESI-QQ; MS2
DATE: 2009.02.09
AUTHORS: Sawada Y, Matsuda F, and Hirai MY. Plant Science Center, RIKEN
LICENSE: CC BY-NC
COPYRIGHT: Copyright(C) 2008 Plant Science Center, RIKEN
PUBLICATION: Sawada, Y.; Akiyama, K.; Sakata, A.; Kuwahara, A.; Otsuki, H.; Sakurai, T.; Saito, K.; Hirai, M. Y. Widely Targeted Metabolomics Based on Large-Scale MS/MS Data for Elucidating Metabolite Accumulation Patterns in Plants. Plant and Cell Physiology 2008, 50 (1), 37–47. DOI:10.1093/pcp/pcn183
COMMENT: Build 5
COMMENT: Data acquisition and generation is financially supported in part by CREST/JST.
COMMENT: Source compound AnalytiCon, NP-000648.
COMMENT: PRIMe compound in-house ID T0161
COMMENT: This spectra was automatically generated from the raw data without manual curation of data quality.
COMMENT: The spectral data and services are available to the research and academic community only.
COMMENT: All users must cite follwing literature in publication(s).
CH$NAME: myricetin-3-O-rhamnoside
CH$NAME: Myricetin 3-O-alpha-L-rhamnopyranoside
CH$NAME: Myricetin-3-Rhamnoside
CH$NAME: Myricetrin
CH$NAME: 3-((6-Deoxy-alpha-L-mannopyranosyl)oxy)-5,7-dihydroxy-2-(3,4,5-trihydroxyphenyl)-4H-benzopyran-4-one
CH$NAME: Myrc-3-Rha
CH$NAME: Myricitrin
CH$NAME: Myricitroside
CH$NAME: Myricitrine
CH$NAME: Myricetol 3-rhamnoside
CH$COMPOUND_CLASS: CLASS1 Flavonoid CLASS2 Flavonol CLASS3 Myricetin glycoside
CH$FORMULA: C21H20O12
CH$EXACT_MASS: 464.379
CH$SMILES: CC1C(C(C(C(O1)OC2=C(OC3=CC(=CC(=C3C2=O)O)O)C4=CC(=C(C(=C4)O)O)O)O)O)O
CH$IUPAC: InChI=1S/C21H20O12/c1-6-14(26)17(29)18(30)21(31-6)33-20-16(28)13-9(23)4-8(22)5-12(13)32-19(20)7-2-10(24)15(27)11(25)3-7/h2-6,14,17-18,21-27,29-30H,1H3
CH$LINK: CAS 17912-87-7
CH$LINK: KEGG C10108
CH$LINK: PUBCHEM CID:5281673
CH$LINK: INCHIKEY DCYOADKBABEMIQ-UHFFFAOYSA-N
AC$INSTRUMENT: TQD, Waters
AC$INSTRUMENT_TYPE: LC-ESI-QQ
AC$MASS_SPECTROMETRY: MS_TYPE MS2
AC$MASS_SPECTROMETRY: ION_MODE POSITIVE
AC$MASS_SPECTROMETRY: IONIZATION ESI
AC$MASS_SPECTROMETRY: COLLISION_ENERGY 40
MS$FOCUSED_ION: ION_TYPE [M+H]+
MS$FOCUSED_ION: PRECURSOR_M/Z 465.43
PK$SPLASH: splash10-01b9-9008000000-7b245f284b1502e2cca6
PK$NUM_PEAK: 8
PK$PEAK: m/z int. rel.int.
  70.0 2728.0 51
  71.0 42446.0 786
  84.0 12438.0 230
  85.0 30649.0 567
  129.0 4189.0 78
  317.0 2848.0 53
  318.0 27749.0 514
  319.0 53963.0 999
//
