ACCESSION: MSBNK-RIKEN_ReSpect-PS077101
RECORD_TITLE: rac-B-tocopherol, 5,8-dimethyltocol, beta-tocopherol; LC-ESI-QQ; MS2
DATE: 2009.02.09
AUTHORS: Sawada Y, Matsuda F, and Hirai MY. Plant Science Center, RIKEN
LICENSE: CC BY-NC
COPYRIGHT: Copyright(C) 2008 Plant Science Center, RIKEN
PUBLICATION: Sawada, Y.; Akiyama, K.; Sakata, A.; Kuwahara, A.; Otsuki, H.; Sakurai, T.; Saito, K.; Hirai, M. Y. Widely Targeted Metabolomics Based on Large-Scale MS/MS Data for Elucidating Metabolite Accumulation Patterns in Plants. Plant and Cell Physiology 2008, 50 (1), 37–47. DOI:10.1093/pcp/pcn183
COMMENT: Build 5
COMMENT: Data acquisition and generation is financially supported in part by CREST/JST.
COMMENT: Source compound Spelco, 40401-U.
COMMENT: PRIMe compound in-house ID S0181
COMMENT: This spectra was automatically generated from the raw data without manual curation of data quality.
COMMENT: The spectral data and services are available to the research and academic community only.
COMMENT: All users must cite follwing literature in publication(s).
CH$NAME: rac-B-tocopherol
CH$NAME: 5,8-dimethyltocol
CH$NAME: beta-tocopherol
CH$COMPOUND_CLASS: CLASS1 Other CLASS2 Vitamin
CH$FORMULA: C28H48O2
CH$EXACT_MASS: 416.69
CH$SMILES: CC1=CC(=C(C2=C1OC(CC2)(C)CCCC(C)CCCC(C)CCCC(C)C)C)O
CH$IUPAC: InChI=1S/C28H48O2/c1-20(2)11-8-12-21(3)13-9-14-22(4)15-10-17-28(7)18-16-25-24(6)26(29)19-23(5)27(25)30-28/h19-22,29H,8-18H2,1-7H3
CH$LINK: CAS 148-03-8
CH$LINK: KEGG C14152
CH$LINK: PUBCHEM CID:8989
CH$LINK: INCHIKEY WGVKWNUPNGFDFJ-UHFFFAOYSA-N
AC$INSTRUMENT: TQD, Waters
AC$INSTRUMENT_TYPE: LC-ESI-QQ
AC$MASS_SPECTROMETRY: MS_TYPE MS2
AC$MASS_SPECTROMETRY: ION_MODE POSITIVE
AC$MASS_SPECTROMETRY: IONIZATION ESI
AC$MASS_SPECTROMETRY: COLLISION_ENERGY 10
MS$FOCUSED_ION: ION_TYPE [M+H]+
MS$FOCUSED_ION: PRECURSOR_M/Z 417.6
PK$SPLASH: splash10-014i-0000900000-7e7d1e5bfabf38d54fb1
PK$NUM_PEAK: 3
PK$PEAK: m/z int. rel.int.
  151.0 3195.0 41
  417.0 65181.0 843
  418.0 77214.0 999
//
