ACCESSION: MSBNK-RIKEN_ReSpect-PS082101
RECORD_TITLE: N-(hexadecanoyl)-sphing-4-enine, (2S,3R,4E)-2-palmitoylaminooctadec-4-ene-1,3-diol, N-Palmitoyl-D-erythro-Sphingosine, D-erythro-N-palmitoylsphingosine, N-palmitoylsphingosine , C16-Cer, C16 Ceramide, (2S,3R,4E)-2-palmitoylamino-1,3-octadec-4-enediol; LC-ESI-QQ; MS2
DATE: 2009.02.09
AUTHORS: Sawada Y, Matsuda F, and Hirai MY. Plant Science Center, RIKEN
LICENSE: CC BY-NC
COPYRIGHT: Copyright(C) 2008 Plant Science Center, RIKEN
PUBLICATION: Sawada, Y.; Akiyama, K.; Sakata, A.; Kuwahara, A.; Otsuki, H.; Sakurai, T.; Saito, K.; Hirai, M. Y. Widely Targeted Metabolomics Based on Large-Scale MS/MS Data for Elucidating Metabolite Accumulation Patterns in Plants. Plant and Cell Physiology 2008, 50 (1), 37–47. DOI:10.1093/pcp/pcn183
COMMENT: Build 5
COMMENT: Data acquisition and generation is financially supported in part by CREST/JST.
COMMENT: Source compound Avanti, 860516P.
COMMENT: PRIMe compound in-house ID S0258
COMMENT: This spectra was automatically generated from the raw data without manual curation of data quality.
COMMENT: The spectral data and services are available to the research and academic community only.
COMMENT: All users must cite follwing literature in publication(s).
CH$NAME: N-(hexadecanoyl)-sphing-4-enine
CH$NAME: (2S,3R,4E)-2-palmitoylaminooctadec-4-ene-1,3-diol
CH$NAME: N-Palmitoyl-D-erythro-Sphingosine
CH$NAME: D-erythro-N-palmitoylsphingosine
CH$NAME: N-palmitoylsphingosine
CH$NAME: C16-Cer
CH$NAME: C16 Ceramide
CH$NAME: (2S,3R,4E)-2-palmitoylamino-1,3-octadec-4-enediol
CH$COMPOUND_CLASS: CLASS1 Other CLASS2 Sphingosine
CH$FORMULA: C34H67NO3
CH$EXACT_MASS: 537.914
CH$SMILES: CCCCCCCCCCCCCCCC(=O)NC(CO)C(C=CCCCCCCCCCCCCC)O
CH$IUPAC: InChI=1S/C34H67NO3/c1-3-5-7-9-11-13-15-17-19-21-23-25-27-29-33(37)32(31-36)35-34(38)30-28-26-24-22-20-18-16-14-12-10-8-6-4-2/h27,29,32-33,36-37H,3-26,28,30-31H2,1-2H3,(H,35,38)
CH$LINK: CAS 24696-26-2
CH$LINK: PUBCHEM CID:5283564
CH$LINK: INCHIKEY YDNKGFDKKRUKPY-UHFFFAOYSA-N
AC$INSTRUMENT: TQD, Waters
AC$INSTRUMENT_TYPE: LC-ESI-QQ
AC$MASS_SPECTROMETRY: MS_TYPE MS2
AC$MASS_SPECTROMETRY: ION_MODE POSITIVE
AC$MASS_SPECTROMETRY: IONIZATION ESI
AC$MASS_SPECTROMETRY: COLLISION_ENERGY 10
MS$FOCUSED_ION: ION_TYPE [M+H]+
MS$FOCUSED_ION: PRECURSOR_M/Z 538.83
PK$SPLASH: splash10-0079-0000090000-9ddcc095a15ad206f762
PK$NUM_PEAK: 7
PK$PEAK: m/z int. rel.int.
  519.0 6964.0 35
  520.0 123029.0 613
  521.0 96479.0 481
  522.0 17422.0 87
  538.0 192299.0 959
  539.0 200397.0 999
  540.0 34631.0 173
//
