ACCESSION: MSBNK-RIKEN_ReSpect-PS109704
RECORD_TITLE: DL-Pipecolinic acid, Homoproline, 6-carboxypiperidine, 2-piperidinecarboxylic acid, hexahydropicolinic acid, dihydrobaikiane, pipecolinic acid, pipecolate, pipecolic acid, piperidine-2-carboxylic acid, HomoPro, Hexahydropicolinic acid; LC-ESI-QQ; MS2
DATE: 2009.02.09
AUTHORS: Sawada Y, Matsuda F, and Hirai MY. Plant Science Center, RIKEN
LICENSE: CC BY-NC
COPYRIGHT: Copyright(C) 2008 Plant Science Center, RIKEN
PUBLICATION: Sawada, Y.; Akiyama, K.; Sakata, A.; Kuwahara, A.; Otsuki, H.; Sakurai, T.; Saito, K.; Hirai, M. Y. Widely Targeted Metabolomics Based on Large-Scale MS/MS Data for Elucidating Metabolite Accumulation Patterns in Plants. Plant and Cell Physiology 2008, 50 (1), 37–47. DOI:10.1093/pcp/pcn183
COMMENT: Build 5
COMMENT: Data acquisition and generation is financially supported in part by CREST/JST.
COMMENT: Source compound Aldrich, P45850.
COMMENT: PRIMe compound in-house ID V0042
COMMENT: This spectra was automatically generated from the raw data without manual curation of data quality.
COMMENT: The spectral data and services are available to the research and academic community only.
COMMENT: All users must cite follwing literature in publication(s).
CH$NAME: DL-Pipecolinic acid
CH$NAME: Homoproline
CH$NAME: 6-carboxypiperidine
CH$NAME: 2-piperidinecarboxylic acid
CH$NAME: hexahydropicolinic acid
CH$NAME: dihydrobaikiane
CH$NAME: pipecolinic acid
CH$NAME: pipecolate
CH$NAME: pipecolic acid
CH$NAME: piperidine-2-carboxylic acid
CH$NAME: HomoPro
CH$NAME: Hexahydropicolinic acid
CH$COMPOUND_CLASS: CLASS1 Other CLASS2 Carboxylic acid CLASS3 Pipecolic acid
CH$FORMULA: C6H11NO2
CH$EXACT_MASS: 129.159
CH$SMILES: C1CCNC(C1)C(=O)O
CH$IUPAC: InChI=1S/C6H11NO2/c8-6(9)5-3-1-2-4-7-5/h5,7H,1-4H2,(H,8,9)
CH$LINK: CAS 535-75-1
CH$LINK: KEGG C00408
CH$LINK: PUBCHEM CID:439227
CH$LINK: INCHIKEY HXEACLLIILLPRG-UHFFFAOYSA-N
AC$INSTRUMENT: TQD, Waters
AC$INSTRUMENT_TYPE: LC-ESI-QQ
AC$MASS_SPECTROMETRY: MS_TYPE MS2
AC$MASS_SPECTROMETRY: ION_MODE POSITIVE
AC$MASS_SPECTROMETRY: IONIZATION ESI
AC$MASS_SPECTROMETRY: COLLISION_ENERGY 40
MS$FOCUSED_ION: ION_TYPE [M+H]+
MS$FOCUSED_ION: PRECURSOR_M/Z 130.14
PK$SPLASH: splash10-053r-9000000000-8026f0b0e2fa8f93b35a
PK$NUM_PEAK: 5
PK$PEAK: m/z int. rel.int.
  28.0 4379.0 43
  55.0 15934.0 158
  56.0 57408.0 570
  83.0 25738.0 256
  84.0 100619.0 999
//
