ACCESSION: MSBNK-RIKEN_ReSpect-PS125605
RECORD_TITLE: alpha-Tocotrienol, (2R,3'E,7'E)-alpha-Tocotrienol; LC-ESI-QQ; MS2
DATE: 2009.02.09
AUTHORS: Sawada Y, Matsuda F, and Hirai MY. Plant Science Center, RIKEN
LICENSE: CC BY-NC
COPYRIGHT: Copyright(C) 2008 Plant Science Center, RIKEN
PUBLICATION: Sawada, Y.; Akiyama, K.; Sakata, A.; Kuwahara, A.; Otsuki, H.; Sakurai, T.; Saito, K.; Hirai, M. Y. Widely Targeted Metabolomics Based on Large-Scale MS/MS Data for Elucidating Metabolite Accumulation Patterns in Plants. Plant and Cell Physiology 2008, 50 (1), 37–47. DOI:10.1093/pcp/pcn183
COMMENT: Build 5
COMMENT: Data acquisition and generation is financially supported in part by CREST/JST.
COMMENT: Source compound Wako/Cayman Chemical Co, 10008377.
COMMENT: PRIMe compound in-house ID V0130
COMMENT: This spectra was automatically generated from the raw data without manual curation of data quality.
COMMENT: The spectral data and services are available to the research and academic community only.
COMMENT: All users must cite follwing literature in publication(s).
CH$NAME: alpha-Tocotrienol
CH$NAME: (2R,3'E,7'E)-alpha-Tocotrienol
CH$COMPOUND_CLASS: CLASS1 Other CLASS2 Vitamin
CH$FORMULA: C29H44O2
CH$EXACT_MASS: 424.669
CH$SMILES: CC1=C(C(=C2CCC(OC2=C1C)(C)CCC=C(C)CCC=C(C)CCC=C(C)C)C)O
CH$IUPAC: InChI=1S/C29H44O2/c1-20(2)12-9-13-21(3)14-10-15-22(4)16-11-18-29(8)19-17-26-25(7)27(30)23(5)24(6)28(26)31-29/h12,14,16,30H,9-11,13,15,17-19H2,1-8H3
CH$LINK: CAS 58864-81-6
CH$LINK: KEGG C14153
CH$LINK: PUBCHEM CID:5282347
CH$LINK: INCHIKEY RZFHLOLGZPDCHJ-UHFFFAOYSA-N
AC$INSTRUMENT: TQD, Waters
AC$INSTRUMENT_TYPE: LC-ESI-QQ
AC$MASS_SPECTROMETRY: MS_TYPE MS2
AC$MASS_SPECTROMETRY: ION_MODE POSITIVE
AC$MASS_SPECTROMETRY: IONIZATION ESI
AC$MASS_SPECTROMETRY: COLLISION_ENERGY 50
MS$FOCUSED_ION: ION_TYPE [M+H]+
MS$FOCUSED_ION: PRECURSOR_M/Z 425.64
PK$SPLASH: splash10-014i-0900000000-7ad14be635c4bf259bbb
PK$NUM_PEAK: 9
PK$PEAK: m/z int. rel.int.
  38.0 2570.0 34
  81.0 4533.0 60
  95.0 3293.0 44
  109.0 10565.0 140
  163.0 5680.0 75
  164.0 16447.0 218
  165.0 75301.0 999
  166.0 2416.0 32
  205.0 2572.0 34
//
