ACCESSION: MSBNK-RIKEN_ReSpect-PS045605
RECORD_TITLE: (+)-Epicatechin; LC-ESI-QQ; MS2
DATE: 2009.02.09
AUTHORS: Sawada Y, Matsuda F, and Hirai MY. Plant Science Center, RIKEN
LICENSE: CC BY-NC
COPYRIGHT: Copyright(C) 2008 Plant Science Center, RIKEN
PUBLICATION: Sawada, Y.; Akiyama, K.; Sakata, A.; Kuwahara, A.; Otsuki, H.; Sakurai, T.; Saito, K.; Hirai, M. Y. Widely Targeted Metabolomics Based on Large-Scale MS/MS Data for Elucidating Metabolite Accumulation Patterns in Plants. Plant and Cell Physiology 2008, 50 (1), 37–47. DOI:10.1093/pcp/pcn183
COMMENT: Build 5
COMMENT: Data acquisition and generation is financially supported in part by CREST/JST.
COMMENT: Source compound SIGMA, E4018(net-.(-),Catalog->(+)).
COMMENT: PRIMe compound in-house ID T0003
COMMENT: This spectra was automatically generated from the raw data without manual curation of data quality.
COMMENT: The spectral data and services are available to the research and academic community only.
COMMENT: All users must cite follwing literature in publication(s).
CH$NAME: ent-Epicatechin
CH$NAME: Epicatechol
CH$NAME: (+)-3,3',4',5,7-Pentahydroxyflavan
CH$NAME: (+)-Epicatechin
CH$NAME: EpCt-pl
CH$COMPOUND_CLASS: CLASS1 Flavonoid CLASS2 Flavanol CLASS3 Epicatechin
CH$FORMULA: C15H14O6
CH$EXACT_MASS: 290.271
CH$SMILES: C1[C@@H]([C@@H](OC2=CC(=CC(=C21)O)O)C3=CC(=C(C=C3)O)O)O
CH$IUPAC: InChI=1S/C15H14O6/c16-8-4-11(18)9-6-13(20)15(21-14(9)5-8)7-1-2-10(17)12(19)3-7/h1-5,13,15-20H,6H2/t13-,15-/m0/s1
CH$LINK: CAS 35323-91-2
CH$LINK: KEGG C09728
CH$LINK: PUBCHEM CID:182232
CH$LINK: INCHIKEY PFTAWBLQPZVEMU-ZFWWWQNUSA-N
AC$INSTRUMENT: TQD, Waters
AC$INSTRUMENT_TYPE: LC-ESI-QQ
AC$MASS_SPECTROMETRY: MS_TYPE MS2
AC$MASS_SPECTROMETRY: ION_MODE POSITIVE
AC$MASS_SPECTROMETRY: IONIZATION ESI
AC$MASS_SPECTROMETRY: COLLISION_ENERGY 50
MS$FOCUSED_ION: ION_TYPE [M+H]+
MS$FOCUSED_ION: PRECURSOR_M/Z 291.28
PK$SPLASH: splash10-0079-0900000000-7fcae59b18c204db49bb
PK$NUM_PEAK: 8
PK$PEAK: m/z int. rel.int.
  69.0 3186.0 71
  111.0 2189.0 49
  121.0 1904.0 42
  122.0 11082.0 246
  123.0 41815.0 929
  138.0 15944.0 354
  139.0 44947.0 999
  147.0 7033.0 156
//
