ACCESSION: MSBNK-RIKEN_ReSpect-PS076003
RECORD_TITLE: 3,4-Dimethoxycinnamic acid, Dimethylcaffeic acid, 3,4-Dimethoxyphenyl-2-propenoic acid, 3-(3,4-Dimethoxyphenyl)acrylic Acid; LC-ESI-QQ; MS2
DATE: 2009.02.09
AUTHORS: Sawada Y, Matsuda F, and Hirai MY. Plant Science Center, RIKEN
LICENSE: CC BY-NC
COPYRIGHT: Copyright(C) 2008 Plant Science Center, RIKEN
PUBLICATION: Sawada, Y.; Akiyama, K.; Sakata, A.; Kuwahara, A.; Otsuki, H.; Sakurai, T.; Saito, K.; Hirai, M. Y. Widely Targeted Metabolomics Based on Large-Scale MS/MS Data for Elucidating Metabolite Accumulation Patterns in Plants. Plant and Cell Physiology 2008, 50 (1), 37–47. DOI:10.1093/pcp/pcn183
COMMENT: Build 5
COMMENT: Data acquisition and generation is financially supported in part by CREST/JST.
COMMENT: Source compound Wako, 049-21172 .
COMMENT: PRIMe compound in-house ID S0167
COMMENT: This spectra was automatically generated from the raw data without manual curation of data quality.
COMMENT: The spectral data and services are available to the research and academic community only.
COMMENT: All users must cite follwing literature in publication(s).
CH$NAME: 3,4-Dimethoxycinnamic acid
CH$NAME: Dimethylcaffeic acid
CH$NAME: 3,4-Dimethoxyphenyl-2-propenoic acid
CH$NAME: 3-(3,4-Dimethoxyphenyl)acrylic Acid
CH$COMPOUND_CLASS: CLASS1 Phenylpropanoid CLASS2 Phenylpropanoid monomer CLASS3 Cinnamic acid
CH$FORMULA: C11H12O4
CH$EXACT_MASS: 208.213
CH$SMILES: COC1=C(C=C(C=C1)C=CC(=O)O)OC
CH$IUPAC: InChI=1S/C11H12O4/c1-14-9-5-3-8(4-6-11(12)13)7-10(9)15-2/h3-7H,1-2H3,(H,12,13)
CH$LINK: CAS 2316-26-9
CH$LINK: PUBCHEM CID:717531
CH$LINK: INCHIKEY HJBWJAPEBGSQPR-UHFFFAOYSA-N
AC$INSTRUMENT: TQD, Waters
AC$INSTRUMENT_TYPE: LC-ESI-QQ
AC$MASS_SPECTROMETRY: MS_TYPE MS2
AC$MASS_SPECTROMETRY: ION_MODE POSITIVE
AC$MASS_SPECTROMETRY: IONIZATION ESI
AC$MASS_SPECTROMETRY: COLLISION_ENERGY 30
MS$FOCUSED_ION: ION_TYPE [M+H]+
MS$FOCUSED_ION: PRECURSOR_M/Z 209.23
PK$SPLASH: splash10-01ox-0900000000-d20fbda63fee073e6300
PK$NUM_PEAK: 16
PK$PEAK: m/z int. rel.int.
  107.0 1750.0 30
  119.0 3698.0 64
  120.0 2000.0 35
  132.0 3205.0 55
  133.0 4931.0 85
  147.0 3839.0 66
  148.0 8722.0 151
  160.0 2192.0 38
  162.0 10496.0 182
  163.0 35783.0 619
  176.0 1905.0 33
  188.0 1827.0 32
  189.0 7187.0 124
  190.0 14931.0 258
  191.0 57763.0 999
  209.0 1979.0 34
//
