ACCESSION: MSBNK-RIKEN_ReSpect-PS065904
RECORD_TITLE: Ac-HSer, (2S)-4-(acetyloxy)-2-aminobutanoic acid, O-Acetyl-L-homoserine hydrochloride; LC-ESI-QQ; MS2
DATE: 2009.02.09
AUTHORS: Sawada Y, Matsuda F, and Hirai MY. Plant Science Center, RIKEN
LICENSE: CC BY-NC
COPYRIGHT: Copyright(C) 2008 Plant Science Center, RIKEN
PUBLICATION: Sawada, Y.; Akiyama, K.; Sakata, A.; Kuwahara, A.; Otsuki, H.; Sakurai, T.; Saito, K.; Hirai, M. Y. Widely Targeted Metabolomics Based on Large-Scale MS/MS Data for Elucidating Metabolite Accumulation Patterns in Plants. Plant and Cell Physiology 2008, 50 (1), 37–47. DOI:10.1093/pcp/pcn183
COMMENT: Build 5
COMMENT: Data acquisition and generation is financially supported in part by CREST/JST.
COMMENT: Source compound WAKO / Toronto, 571-78151 / A178300 .
COMMENT: PRIMe compound in-house ID S0046
COMMENT: This spectra was automatically generated from the raw data without manual curation of data quality.
COMMENT: The spectral data and services are available to the research and academic community only.
COMMENT: All users must cite follwing literature in publication(s).
CH$NAME: Ac-HSer
CH$NAME: (2S)-4-(acetyloxy)-2-aminobutanoic acid
CH$NAME: O-Acetyl-L-homoserine hydrochloride
CH$COMPOUND_CLASS: CLASS1 Amino acid CLASS2 Serine
CH$FORMULA: C6H11NO4
CH$EXACT_MASS: 161.157
CH$SMILES: CC(=O)OCCC(C(=O)O)N
CH$IUPAC: InChI=1S/C6H11NO4/c1-4(8)11-3-2-5(7)6(9)10/h5H,2-3,7H2,1H3,(H,9,10)
CH$LINK: CAS 7540-67-2
CH$LINK: KEGG C01077
CH$LINK: PUBCHEM CID:439389
CH$LINK: INCHIKEY FCXZBWSIAGGPCB-UHFFFAOYSA-N
AC$INSTRUMENT: TQD, Waters
AC$INSTRUMENT_TYPE: LC-ESI-QQ
AC$MASS_SPECTROMETRY: MS_TYPE MS2
AC$MASS_SPECTROMETRY: ION_MODE POSITIVE
AC$MASS_SPECTROMETRY: IONIZATION ESI
AC$MASS_SPECTROMETRY: COLLISION_ENERGY 40
MS$FOCUSED_ION: ION_TYPE [M+H]+
MS$FOCUSED_ION: PRECURSOR_M/Z 162.17
PK$SPLASH: splash10-0a4l-9000000000-e2ae6bc5db396d35064e
PK$NUM_PEAK: 10
PK$PEAK: m/z int. rel.int.
  27.0 1527.0 34
  28.0 5939.0 132
  42.0 5522.0 123
  43.0 32644.0 728
  44.0 4029.0 90
  46.0 3096.0 69
  55.0 8467.0 189
  56.0 44781.0 999
  73.0 4272.0 95
  74.0 24103.0 538
//
