ACCESSION: MSBNK-RIKEN_ReSpect-PS039902
RECORD_TITLE: 4-Flavanone, Flva, 2,3-dihydroflavone, 2-Phenylchromanone, 2-Phenylchroman-4-one, Flavanone; LC-ESI-QQ; MS2
DATE: 2009.02.09
AUTHORS: Sawada Y, Matsuda F, and Hirai MY. Plant Science Center, RIKEN
LICENSE: CC BY-NC
COPYRIGHT: Copyright(C) 2008 Plant Science Center, RIKEN
PUBLICATION: Sawada, Y.; Akiyama, K.; Sakata, A.; Kuwahara, A.; Otsuki, H.; Sakurai, T.; Saito, K.; Hirai, M. Y. Widely Targeted Metabolomics Based on Large-Scale MS/MS Data for Elucidating Metabolite Accumulation Patterns in Plants. Plant and Cell Physiology 2008, 50 (1), 37–47. DOI:10.1093/pcp/pcn183
COMMENT: Build 5
COMMENT: Data acquisition and generation is financially supported in part by CREST/JST.
COMMENT: Source compound EXTRASYNTHESE S.A, 1038.
COMMENT: PRIMe compound in-house ID H0007
COMMENT: This spectra was automatically generated from the raw data without manual curation of data quality.
COMMENT: The spectral data and services are available to the research and academic community only.
COMMENT: All users must cite follwing literature in publication(s).
CH$NAME: 4-Flavanone
CH$NAME: Flva
CH$NAME: 2,3-dihydroflavone
CH$NAME: 2-Phenylchromanone
CH$NAME: 2-Phenylchroman-4-one
CH$NAME: Flavanone
CH$COMPOUND_CLASS: CLASS1 Flavonoid CLASS2 Flavanone CLASS3 Flavanone
CH$FORMULA: C15H12O2
CH$EXACT_MASS: 224.259
CH$SMILES: C1C(OC2=CC=CC=C2C1=O)C3=CC=CC=C3
CH$IUPAC: InChI=1S/C15H12O2/c16-13-10-15(11-6-2-1-3-7-11)17-14-9-5-4-8-12(13)14/h1-9,15H,10H2
CH$LINK: CAS 487-26-3
CH$LINK: KEGG C00766
CH$LINK: PUBCHEM CID:10251
CH$LINK: INCHIKEY ZONYXWQDUYMKFB-UHFFFAOYSA-N
AC$INSTRUMENT: TQD, Waters
AC$INSTRUMENT_TYPE: LC-ESI-QQ
AC$MASS_SPECTROMETRY: MS_TYPE MS2
AC$MASS_SPECTROMETRY: ION_MODE POSITIVE
AC$MASS_SPECTROMETRY: IONIZATION ESI
AC$MASS_SPECTROMETRY: COLLISION_ENERGY 20
MS$FOCUSED_ION: ION_TYPE [M+H]+
MS$FOCUSED_ION: PRECURSOR_M/Z 225.24
PK$SPLASH: splash10-004i-0290000000-4896b78890fb713700b4
PK$NUM_PEAK: 7
PK$PEAK: m/z int. rel.int.
  120.0 4096.0 37
  121.0 31722.0 287
  131.0 8387.0 76
  209.0 4970.0 45
  210.0 5957.0 54
  224.0 18960.0 171
  225.0 110467.0 999
//
