ACCESSION: MSBNK-RIKEN_ReSpect-PM003604
RECORD_TITLE: Ginsenoside Rd; LC-ESI-QQ; MS2
DATE: 2006.07.19
AUTHORS: Wang X, Sakuma T, Asafu-Adjaye E, & Shiu GK
LICENSE: CC BY-NC
COPYRIGHT: Copyright(C) 2012 Plant Science Center, RIKEN
PUBLICATION: Wang, X.; Sakuma, T.; Asafu-Adjaye, E.; Shiu, G. K. Determination of Ginsenosides in Plant Extracts fromPanax ginsengandPanax Quinquefolius L. by LC/MS/MS. Analytical Chemistry 1999, 71 (8), 1579–84. DOI:10.1021/ac980890p
COMMENT: 781
CH$NAME: Ginsenoside Rd
CH$COMPOUND_CLASS: CLASS1 Terpenoid CLASS2 Triterpenoid CLASS3 Ginsenoside
CH$FORMULA: C48H82O18
CH$EXACT_MASS: 947.166
CH$SMILES: CC(=CCC[C@@](C)([C@H]1CC[C@@]2([C@@H]1[C@@H](C[C@H]3[C@]2(CC[C@@H]4[C@@]3(CC[C@@H](C4(C)C)O[C@H]5[C@@H]([C@H]([C@@H]([C@H](O5)CO)O)O)O[C@H]6[C@@H]([C@H]([C@@H]([C@H](O6)CO)O)O)O)C)C)O)C)O[C@H]7[C@@H]([C@H]([C@@H]([C@H](O7)CO)O)O)O)C
CH$IUPAC: InChI=1S/C48H82O18/c1-22(2)10-9-14-48(8,66-42-39(60)36(57)33(54)26(20-50)62-42)23-11-16-47(7)31(23)24(52)18-29-45(5)15-13-30(44(3,4)28(45)12-17-46(29,47)6)64-43-40(37(58)34(55)27(21-51)63-43)65-41-38(59)35(56)32(53)25(19-49)61-41/h10,23-43,49-60H,9,11-21H2,1-8H3/t23-,24+,25+,26+,27+,28-,29+,30-,31-,32+,33+,34+,35-,36-,37-,38+,39+,40+,41-,42-,43-,45-,46+,47+,48-/m0/s1
CH$LINK: CAS 52705-93-8
CH$LINK: INCHIKEY RLDVZILFNVRJTL-IWFVLDDISA-N
CH$LINK: PUBCHEM CID:11679800
SP$SAMPLE: authentic sample
AC$INSTRUMENT: Perkin-Elmer Sciex API 365 and 3000 triple-quadrupole mass
AC$INSTRUMENT_TYPE: LC-ESI-QQ
AC$MASS_SPECTROMETRY: MS_TYPE MS2
AC$MASS_SPECTROMETRY: ION_MODE POSITIVE
AC$MASS_SPECTROMETRY: IONIZATION ESI
AC$MASS_SPECTROMETRY: COLLISION_ENERGY n.d.
AC$CHROMATOGRAPHY: SOLVENT CH3CN/H2O/CH3COOH
MS$FOCUSED_ION: ION_TYPE [M+H]+
MS$FOCUSED_ION: PRECURSOR_M/Z 947
PK$SPLASH: splash10-0et6-0909440400-7dcdd8f173c993959f0f
PK$NUM_PEAK: 7
PK$PEAK: m/z int. rel.int.
  163.0 100.0 999
  181.0 100.0 999
  325.0 100.0 999
  343.0 100.0 999
  407.0 100.0 999
  587.0 100.0 999
  767.0 100.0 999
//
