ACCESSION: MSBNK-RIKEN_ReSpect-PS023309
RECORD_TITLE: Gibberellin A4, Gibbane-1,10-dicarboxylic acid, 2,4a-dihydroxy-1-methyl-8-methylene-, 1,4a-lactone, (1alpha,2beta,4aalpha,4bbeta,10beta)-, Gibberellic acid A4; LC-ESI-QQ; MS2
DATE: 2009.02.09
AUTHORS: Sawada Y, Matsuda F, and Hirai MY. Plant Science Center, RIKEN
LICENSE: CC BY-NC
COPYRIGHT: Copyright(C) 2008 Plant Science Center, RIKEN
PUBLICATION: Sawada, Y.; Akiyama, K.; Sakata, A.; Kuwahara, A.; Otsuki, H.; Sakurai, T.; Saito, K.; Hirai, M. Y. Widely Targeted Metabolomics Based on Large-Scale MS/MS Data for Elucidating Metabolite Accumulation Patterns in Plants. Plant and Cell Physiology 2008, 50 (1), 37–47. DOI:10.1093/pcp/pcn183
COMMENT: Build 5
COMMENT: Data acquisition and generation is financially supported in part by CREST/JST.
COMMENT: Source compound SIGMA, G7276.
COMMENT: PRIMe compound in-house ID 233
COMMENT: This spectra was automatically generated from the raw data without manual curation of data quality.
COMMENT: The spectral data and services are available to the research and academic community only.
COMMENT: All users must cite follwing literature in publication(s).
CH$NAME: Gibberellin A4
CH$NAME: Gibbane-1,10-dicarboxylic acid, 2,4a-dihydroxy-1-methyl-8-methylene-, 1,4a-lactone, (1alpha,2beta,4aalpha,4bbeta,10beta)-
CH$NAME: Gibberellic acid A4
CH$COMPOUND_CLASS: CLASS1 Terpenoid CLASS2 Diterpenoid CLASS3 Gibberellin
CH$FORMULA: C19H24O5
CH$EXACT_MASS: 332.396
CH$SMILES: CC12C(CCC3(C1C(C45C3CCC(C4)C(=C)C5)C(=O)O)OC2=O)O
CH$IUPAC: InChI=1S/C19H24O5/c1-9-7-18-8-10(9)3-4-11(18)19-6-5-12(20)17(2,16(23)24-19)14(19)13(18)15(21)22/h10-14,20H,1,3-8H2,2H3,(H,21,22)
CH$LINK: CAS 468-44-0
CH$LINK: KEGG C11864
CH$LINK: PUBCHEM CID:443457
CH$LINK: INCHIKEY RSQSQJNRHICNNH-UHFFFAOYSA-N
AC$INSTRUMENT: TQD, Waters
AC$INSTRUMENT_TYPE: LC-ESI-QQ
AC$MASS_SPECTROMETRY: MS_TYPE MS2
AC$MASS_SPECTROMETRY: ION_MODE NEGATIVE
AC$MASS_SPECTROMETRY: IONIZATION ESI
AC$MASS_SPECTROMETRY: COLLISION_ENERGY 30
MS$FOCUSED_ION: ION_TYPE [M-H]-
MS$FOCUSED_ION: PRECURSOR_M/Z 331.37
PK$SPLASH: splash10-001i-0039000000-712bc27585738d0ef81a
PK$NUM_PEAK: 11
PK$PEAK: m/z int. rel.int.
  43.0 5035.0 75
  213.0 3234.0 48
  225.0 8556.0 127
  243.0 8734.0 130
  257.0 13629.0 202
  269.0 4511.0 67
  287.0 3787.0 56
  329.0 2994.0 44
  330.0 22776.0 338
  331.0 67360.0 999
  332.0 2518.0 37
//
