ACCESSION: MSBNK-RIKEN_ReSpect-PS026702
RECORD_TITLE: Asn, (S)-2-Amino-4-butanediamic Acid, L-Asparagine, L-Aspartic acid 4-amide, (S)-2-Aminosuccinic acid 4-amide, (S)-2,4-Diamino-4-oxobutanoic acid; LC-ESI-QQ; MS2
DATE: 2009.02.09
AUTHORS: Sawada Y, Matsuda F, and Hirai MY. Plant Science Center, RIKEN
LICENSE: CC BY-NC
COPYRIGHT: Copyright(C) 2008 Plant Science Center, RIKEN
PUBLICATION: Sawada, Y.; Akiyama, K.; Sakata, A.; Kuwahara, A.; Otsuki, H.; Sakurai, T.; Saito, K.; Hirai, M. Y. Widely Targeted Metabolomics Based on Large-Scale MS/MS Data for Elucidating Metabolite Accumulation Patterns in Plants. Plant and Cell Physiology 2008, 50 (1), 37–47. DOI:10.1093/pcp/pcn183
COMMENT: Build 5
COMMENT: Data acquisition and generation is financially supported in part by CREST/JST.
COMMENT: Source compound SIGMA, A0884.
COMMENT: PRIMe compound in-house ID 267
COMMENT: This spectra was automatically generated from the raw data without manual curation of data quality.
COMMENT: The spectral data and services are available to the research and academic community only.
COMMENT: All users must cite follwing literature in publication(s).
CH$NAME: Asn
CH$NAME: (S)-2-Amino-4-butanediamic Acid
CH$NAME: L-Asparagine
CH$NAME: L-Aspartic acid 4-amide
CH$NAME: (S)-2-Aminosuccinic acid 4-amide
CH$NAME: (S)-2,4-Diamino-4-oxobutanoic acid
CH$COMPOUND_CLASS: CLASS1 Amino acid CLASS2 Asparagine
CH$FORMULA: C4H8N2O3
CH$EXACT_MASS: 132.119
CH$SMILES: C(C(C(=O)O)N)C(=O)N
CH$IUPAC: InChI=1S/C4H8N2O3/c5-2(4(8)9)1-3(6)7/h2H,1,5H2,(H2,6,7)(H,8,9)
CH$LINK: CAS 70-47-3
CH$LINK: KEGG C00152
CH$LINK: PUBCHEM CID:6267
CH$LINK: INCHIKEY DCXYFEDJOCDNAF-UHFFFAOYSA-N
AC$INSTRUMENT: TQD, Waters
AC$INSTRUMENT_TYPE: LC-ESI-QQ
AC$MASS_SPECTROMETRY: MS_TYPE MS2
AC$MASS_SPECTROMETRY: ION_MODE POSITIVE
AC$MASS_SPECTROMETRY: IONIZATION ESI
AC$MASS_SPECTROMETRY: COLLISION_ENERGY 20
MS$FOCUSED_ION: ION_TYPE [M+H]+
MS$FOCUSED_ION: PRECURSOR_M/Z 133.11
PK$SPLASH: splash10-00di-9100000000-87cb46a5323719d454e0
PK$NUM_PEAK: 12
PK$PEAK: m/z int. rel.int.
  43.0 3115.0 37
  44.0 5015.0 60
  46.0 7188.0 85
  70.0 3941.0 47
  73.0 17286.0 206
  74.0 84024.0 999
  86.0 9572.0 114
  87.0 35269.0 419
  88.0 8118.0 97
  116.0 8510.0 101
  132.0 11290.0 134
  133.0 16636.0 198
//
