ACCESSION: MSBNK-RIKEN_ReSpect-PS011707
RECORD_TITLE: D(-)-3-Phosphoglyceric acid disodium salt, (-)-Disodium D-3-phosphoglycerate, 2-D-Hydroxy-3-phosphonooxy-propanoic acid, 3-phospho-D-glyceric acid, D-Glycerate-3-phosphate disodium salt; LC-ESI-QQ; MS2
DATE: 2009.02.09
AUTHORS: Sawada Y, Matsuda F, and Hirai MY. Plant Science Center, RIKEN
LICENSE: CC BY-NC
COPYRIGHT: Copyright(C) 2008 Plant Science Center, RIKEN
PUBLICATION: Sawada, Y.; Akiyama, K.; Sakata, A.; Kuwahara, A.; Otsuki, H.; Sakurai, T.; Saito, K.; Hirai, M. Y. Widely Targeted Metabolomics Based on Large-Scale MS/MS Data for Elucidating Metabolite Accumulation Patterns in Plants. Plant and Cell Physiology 2008, 50 (1), 37–47. DOI:10.1093/pcp/pcn183
COMMENT: Build 5
COMMENT: Data acquisition and generation is financially supported in part by CREST/JST.
COMMENT: Source compound SIGMA, P8877.
COMMENT: PRIMe compound in-house ID 117
COMMENT: This spectra was automatically generated from the raw data without manual curation of data quality.
COMMENT: The spectral data and services are available to the research and academic community only.
COMMENT: All users must cite follwing literature in publication(s).
CH$NAME: D(-)-3-Phosphoglyceric acid disodium salt
CH$NAME: (-)-Disodium D-3-phosphoglycerate
CH$NAME: 2-D-Hydroxy-3-phosphonooxy-propanoic acid
CH$NAME: 3-phospho-D-glyceric acid
CH$NAME: D-Glycerate-3-phosphate disodium salt
CH$COMPOUND_CLASS: CLASS1 Other CLASS2 Other CLASS3 Propanoic acid
CH$FORMULA: C3H7O7P
CH$EXACT_MASS: 186.058
CH$SMILES: C(C(C(=O)O)O)OP(=O)(O)O
CH$IUPAC: InChI=1S/C3H7O7P/c4-2(3(5)6)1-10-11(7,8)9/h2,4H,1H2,(H,5,6)(H2,7,8,9)
CH$LINK: CAS 820-11-1
CH$LINK: KEGG C00197
CH$LINK: PUBCHEM CID:439183
CH$LINK: INCHIKEY OSJPPGNTCRNQQC-UHFFFAOYSA-N
AC$INSTRUMENT: TQD, Waters
AC$INSTRUMENT_TYPE: LC-ESI-QQ
AC$MASS_SPECTROMETRY: MS_TYPE MS2
AC$MASS_SPECTROMETRY: ION_MODE NEGATIVE
AC$MASS_SPECTROMETRY: IONIZATION ESI
AC$MASS_SPECTROMETRY: COLLISION_ENERGY 10
MS$FOCUSED_ION: ION_TYPE [M-H]-
MS$FOCUSED_ION: PRECURSOR_M/Z 185.14
PK$SPLASH: splash10-000i-0900000000-30d2528cd26967909b32
PK$NUM_PEAK: 2
PK$PEAK: m/z int. rel.int.
  184.0 11755.0 127
  185.0 92279.0 999
//
