ACCESSION: MSBNK-RIKEN_ReSpect-PS061603
RECORD_TITLE: (S)-3-Amino-4-(4-hydroxyphenyl)butyric acid hydrochloride, L-beta-homotyrosine-HCl; LC-ESI-QQ; MS2
DATE: 2009.02.09
AUTHORS: Sawada Y, Matsuda F, and Hirai MY. Plant Science Center, RIKEN
LICENSE: CC BY-NC
COPYRIGHT: Copyright(C) 2008 Plant Science Center, RIKEN
PUBLICATION: Sawada, Y.; Akiyama, K.; Sakata, A.; Kuwahara, A.; Otsuki, H.; Sakurai, T.; Saito, K.; Hirai, M. Y. Widely Targeted Metabolomics Based on Large-Scale MS/MS Data for Elucidating Metabolite Accumulation Patterns in Plants. Plant and Cell Physiology 2008, 50 (1), 37–47. DOI:10.1093/pcp/pcn183
COMMENT: Build 5
COMMENT: Data acquisition and generation is financially supported in part by CREST/JST.
COMMENT: Source compound Peptech, BL782.
COMMENT: PRIMe compound in-house ID T0138
COMMENT: This spectra was automatically generated from the raw data without manual curation of data quality.
COMMENT: The spectral data and services are available to the research and academic community only.
COMMENT: All users must cite follwing literature in publication(s).
CH$NAME: (S)-3-Amino-4-(4-hydroxyphenyl)butyric acid hydrochloride
CH$NAME: L-beta-homotyrosine-HCl
CH$COMPOUND_CLASS: CLASS1 Amino acid CLASS2 Tyrosine
CH$FORMULA: C10H13NO3
CH$EXACT_MASS: 195.218
CH$SMILES: C1=CC(=CC=C1CC(CC(=O)O)N)O
CH$IUPAC: InChI=1S/C10H13NO3/c11-8(6-10(13)14)5-7-1-3-9(12)4-2-7/h1-4,8,12H,5-6,11H2,(H,13,14)
CH$LINK: CAS 141899-12-9
CH$LINK: PUBCHEM CID:2761554
CH$LINK: INCHIKEY VUNPIAMEJXBAFP-UHFFFAOYSA-N
AC$INSTRUMENT: TQD, Waters
AC$INSTRUMENT_TYPE: LC-ESI-QQ
AC$MASS_SPECTROMETRY: MS_TYPE MS2
AC$MASS_SPECTROMETRY: ION_MODE POSITIVE
AC$MASS_SPECTROMETRY: IONIZATION ESI
AC$MASS_SPECTROMETRY: COLLISION_ENERGY 30
MS$FOCUSED_ION: ION_TYPE [M+H]+
MS$FOCUSED_ION: PRECURSOR_M/Z 196.24
PK$SPLASH: splash10-001r-0900000000-e128ae3debcf3448f096
PK$NUM_PEAK: 11
PK$PEAK: m/z int. rel.int.
  91.0 10874.0 77
  105.0 19405.0 137
  119.0 8236.0 58
  132.0 32766.0 232
  133.0 141233.0 999
  135.0 20138.0 142
  136.0 77422.0 548
  161.0 4775.0 34
  178.0 5758.0 41
  179.0 6752.0 48
  196.0 7658.0 54
//
