ACCESSION: MSBNK-RIKEN_ReSpect-PS108101
RECORD_TITLE: p-Hydroxybenzylglucosinolate, Sinalbin; LC-ESI-QQ; MS2
DATE: 2009.02.09
AUTHORS: Sawada Y, Matsuda F, and Hirai MY. Plant Science Center, RIKEN
LICENSE: CC BY-NC
COPYRIGHT: Copyright(C) 2008 Plant Science Center, RIKEN
PUBLICATION: Sawada, Y.; Akiyama, K.; Sakata, A.; Kuwahara, A.; Otsuki, H.; Sakurai, T.; Saito, K.; Hirai, M. Y. Widely Targeted Metabolomics Based on Large-Scale MS/MS Data for Elucidating Metabolite Accumulation Patterns in Plants. Plant and Cell Physiology 2008, 50 (1), 37–47. DOI:10.1093/pcp/pcn183
COMMENT: Build 5
COMMENT: Data acquisition and generation is financially supported in part by CREST/JST.
COMMENT: Source compound KVL/C2 BIOENGNEERING, 20-PM 19-10-99.
COMMENT: PRIMe compound in-house ID T0123
COMMENT: This spectra was automatically generated from the raw data without manual curation of data quality.
COMMENT: The spectral data and services are available to the research and academic community only.
COMMENT: All users must cite follwing literature in publication(s).
CH$NAME: p-Hydroxybenzylglucosinolate
CH$NAME: Sinalbin
CH$COMPOUND_CLASS: CLASS1 Glucosinolate CLASS2 Aliphatic glucosinolate
CH$FORMULA: C14H19NO10S2
CH$EXACT_MASS: 425.433
CH$SMILES: C1=CC(=CC=C1CC(=NOS(=O)(=O)O)SC2C(C(C(C(O2)CO)O)O)O)O
CH$IUPAC: InChI=1S/C14H19NO10S2/c16-6-9-11(18)12(19)13(20)14(24-9)26-10(15-25-27(21,22)23)5-7-1-3-8(17)4-2-7/h1-4,9,11-14,16-20H,5-6H2,(H,21,22,23)
CH$LINK: CAS 20196-67-2
CH$LINK: KEGG C08426
CH$LINK: PUBCHEM CID:9601115
CH$LINK: INCHIKEY WWBNBPSEKLOHJU-UHFFFAOYSA-N
AC$INSTRUMENT: TQD, Waters
AC$INSTRUMENT_TYPE: LC-ESI-QQ
AC$MASS_SPECTROMETRY: MS_TYPE MS2
AC$MASS_SPECTROMETRY: ION_MODE POSITIVE
AC$MASS_SPECTROMETRY: IONIZATION ESI
AC$MASS_SPECTROMETRY: COLLISION_ENERGY 10
MS$FOCUSED_ION: ION_TYPE [M+H]+
MS$FOCUSED_ION: PRECURSOR_M/Z 425.44
PK$SPLASH: splash10-004i-0000900000-84e62a98c684db93af6f
PK$NUM_PEAK: 3
PK$PEAK: m/z int. rel.int.
  424.0 71930.0 269
  425.0 267202.0 999
  426.0 19230.0 72
//
