ACCESSION: MSBNK-RIKEN_ReSpect-PM000816
RECORD_TITLE: Baccatin III; LC-ESI-QQ; MS2
DATE: 2006.04.26
AUTHORS: Madhusudanan KP, Chattopadhyay SK, Tripathi V, Sashidhara KV, & Kumar S
LICENSE: CC BY-NC
COPYRIGHT: Copyright(C) 2012 Plant Science Center, RIKEN
PUBLICATION: Madhusudanan, K. P.; Chattopadhyay, S. K.; Tripathi, V.; Sashidhara, K. V.; Kumar, S. MS/MS Profiling of Taxoids from the Needles of Taxus Wallichiana. Phytochemical Analysis 2002, 13 (1), 18–30. DOI:10.1002/pca.610
COMMENT: interpretasion of fragment patterns
COMMENT: 731
CH$NAME: Baccatin III
CH$COMPOUND_CLASS: CLASS1 Terpenoid CLASS2 Diterpenoid CLASS3 Baccatin
CH$FORMULA: C31H38O11
CH$EXACT_MASS: 586.634
CH$SMILES: CC(=O)O[C@H]1C(=O)[C@]2(C)[C@@H](O)C[C@H]3OC[C@@]3(OC(C)=O)[C@H]2[C@H](OC(=O)c2ccccc2)[C@]2(O)C[C@H](O)C(C)=C1C2(C)C
CH$IUPAC: InChI=1S/C31H38O11/c1-15-19(34)13-31(38)26(41-27(37)18-10-8-7-9-11-18)24-29(6,20(35)12-21-30(24,14-39-21)42-17(3)33)25(36)23(40-16(2)32)22(15)28(31,4)5/h7-11,19-21,23-24,26,34-35,38H,12-14H2,1-6H3/t19-,20-,21+,23+,24-,26-,29+,30-,31+/m0/s1
CH$LINK: CAS 27548-93-2
CH$LINK: INCHIKEY OVMSOCFBDVBLFW-VHLOTGQHSA-N
CH$LINK: PUBCHEM CID:65366
SP$SAMPLE: Taxus wallichiana
AC$INSTRUMENT: Micromass (Altrincham, UK) QuattroII triple-quadrupole mass spectrometer, JASCO(Tokyo, Japan) model 980 LC
AC$INSTRUMENT_TYPE: LC-ESI-QQ
AC$MASS_SPECTROMETRY: MS_TYPE MS2
AC$MASS_SPECTROMETRY: ION_MODE POSITIVE
AC$MASS_SPECTROMETRY: IONIZATION ESI
AC$MASS_SPECTROMETRY: COLLISION_ENERGY 25V
AC$CHROMATOGRAPHY: SOLVENT MeOH 2mM CH3COONH4
MS$FOCUSED_ION: ION_TYPE [M+H]+
MS$FOCUSED_ION: PRECURSOR_M/Z 587
PK$SPLASH: splash10-0a6r-0916230000-8528f48dad575d44505b
PK$NUM_PEAK: 12
PK$PEAK: m/z int. rel.int.
  105.0 100.0 999
  133.0 35.0 350
  177.0 65.0 649
  287.0 25.0 250
  327.0 55.0 549
  345.0 62.0 619
  387.0 28.0 280
  405.0 35.0 350
  449.0 21.0 210
  509.0 28.0 280
  527.0 25.0 250
  587.0 17.0 170
//
