ACCESSION: MSBNK-RIKEN_ReSpect-PS109101
RECORD_TITLE: 3-Indolylcarboxylic Acid, 3-Indoleformic Acid, Indole-3-carboxylic acid; LC-ESI-QQ; MS2
DATE: 2009.02.09
AUTHORS: Sawada Y, Matsuda F, and Hirai MY. Plant Science Center, RIKEN
LICENSE: CC BY-NC
COPYRIGHT: Copyright(C) 2008 Plant Science Center, RIKEN
PUBLICATION: Sawada, Y.; Akiyama, K.; Sakata, A.; Kuwahara, A.; Otsuki, H.; Sakurai, T.; Saito, K.; Hirai, M. Y. Widely Targeted Metabolomics Based on Large-Scale MS/MS Data for Elucidating Metabolite Accumulation Patterns in Plants. Plant and Cell Physiology 2008, 50 (1), 37–47. DOI:10.1093/pcp/pcn183
COMMENT: Build 5
COMMENT: Data acquisition and generation is financially supported in part by CREST/JST.
COMMENT: Source compound Nakabayashi_Chiba_Univ, -.
COMMENT: PRIMe compound in-house ID R0008
COMMENT: This spectra was automatically generated from the raw data without manual curation of data quality.
COMMENT: The spectral data and services are available to the research and academic community only.
COMMENT: All users must cite follwing literature in publication(s).
CH$NAME: 3-Indolylcarboxylic Acid
CH$NAME: 3-Indoleformic Acid
CH$NAME: Indole-3-carboxylic acid
CH$COMPOUND_CLASS: CLASS1 Alkaloid CLASS2 Indole CLASS3 Indole
CH$FORMULA: C9H7NO2
CH$EXACT_MASS: 161.16
CH$SMILES: C1=CC=C2C(=C1)C(=CN2)C(=O)O
CH$IUPAC: InChI=1S/C9H7NO2/c11-9(12)7-5-10-8-4-2-1-3-6(7)8/h1-5,10H,(H,11,12)
CH$LINK: CAS 771-50-6
CH$LINK: PUBCHEM CID:69867
CH$LINK: INCHIKEY KMAKOBLIOCQGJP-UHFFFAOYSA-N
AC$INSTRUMENT: TQD, Waters
AC$INSTRUMENT_TYPE: LC-ESI-QQ
AC$MASS_SPECTROMETRY: MS_TYPE MS2
AC$MASS_SPECTROMETRY: ION_MODE POSITIVE
AC$MASS_SPECTROMETRY: IONIZATION ESI
AC$MASS_SPECTROMETRY: COLLISION_ENERGY 10
MS$FOCUSED_ION: ION_TYPE [M+H]+
MS$FOCUSED_ION: PRECURSOR_M/Z 162.15
PK$SPLASH: splash10-03di-0900000000-13ea7a3c18ebe474dcb1
PK$NUM_PEAK: 4
PK$PEAK: m/z int. rel.int.
  118.0 24225.0 79
  144.0 9685.0 32
  161.0 63079.0 206
  162.0 305255.0 999
//
