ACCESSION: MSBNK-RIKEN_ReSpect-PS031001
RECORD_TITLE: N-Me-DL-Ala, N-Methyl-DL-Alanine, DL-N-Methylalanine; LC-ESI-QQ; MS2
DATE: 2009.02.09
AUTHORS: Sawada Y, Matsuda F, and Hirai MY. Plant Science Center, RIKEN
LICENSE: CC BY-NC
COPYRIGHT: Copyright(C) 2008 Plant Science Center, RIKEN
PUBLICATION: Sawada, Y.; Akiyama, K.; Sakata, A.; Kuwahara, A.; Otsuki, H.; Sakurai, T.; Saito, K.; Hirai, M. Y. Widely Targeted Metabolomics Based on Large-Scale MS/MS Data for Elucidating Metabolite Accumulation Patterns in Plants. Plant and Cell Physiology 2008, 50 (1), 37–47. DOI:10.1093/pcp/pcn183
COMMENT: Build 5
COMMENT: Data acquisition and generation is financially supported in part by CREST/JST.
COMMENT: Source compound SIGMA, M0506.
COMMENT: PRIMe compound in-house ID 310
COMMENT: This spectra was automatically generated from the raw data without manual curation of data quality.
COMMENT: The spectral data and services are available to the research and academic community only.
COMMENT: All users must cite follwing literature in publication(s).
CH$NAME: N-Me-DL-Ala
CH$NAME: N-Methyl-DL-Alanine
CH$NAME: DL-N-Methylalanine
CH$COMPOUND_CLASS: CLASS1 Amino acid CLASS2 Alanine
CH$FORMULA: C4H9NO2
CH$EXACT_MASS: 103.121
CH$SMILES: CC(C(=O)O)NC
CH$IUPAC: InChI=1S/C4H9NO2/c1-3(5-2)4(6)7/h3,5H,1-2H3,(H,6,7)
CH$LINK: CAS 600-21-5
CH$LINK: KEGG C02721
CH$LINK: PUBCHEM CID:5288725
CH$LINK: INCHIKEY GDFAOVXKHJXLEI-UHFFFAOYSA-N
AC$INSTRUMENT: TQD, Waters
AC$INSTRUMENT_TYPE: LC-ESI-QQ
AC$MASS_SPECTROMETRY: MS_TYPE MS2
AC$MASS_SPECTROMETRY: ION_MODE POSITIVE
AC$MASS_SPECTROMETRY: IONIZATION ESI
AC$MASS_SPECTROMETRY: COLLISION_ENERGY 10
MS$FOCUSED_ION: ION_TYPE [M+H]+
MS$FOCUSED_ION: PRECURSOR_M/Z 104.1
PK$SPLASH: splash10-0udi-3900000000-23f902bd49fcbfe30e00
PK$NUM_PEAK: 3
PK$PEAK: m/z int. rel.int.
  58.0 137835.0 402
  103.0 55630.0 162
  104.0 342478.0 999
//
