ACCESSION: MSBNK-RIKEN_ReSpect-PT104240
RECORD_TITLE: 7-[[2-O-(6-Deoxy-alpha-L-mannopyranosyl)-beta-D-glucopyranosyl]oxy]-3,5-dihydroxy-2-(4-hydroxyphenyl)-4H-1-benzopyran-4-one, kaempferol-7-O-neohesperidoside, Kaem-7-Glc-2pp-Man, 7-[(2S,3R,4S,5S,6R)-4,5-dihydroxy-6-(hydroxymethyl)-3-[(2S,3R,4R,5R,6S)-3,4,5-trihydroxy-6-methyloxan-2-yl]oxyoxan-2-yl]oxy-3,5-dihydroxy-2-(4-hydroxyphenyl)chromen-4-one; LC-ESI-QTOF; MS2
DATE: 2008.07.25
AUTHORS: Matsuda F, Suzuki M, Sawada Y, Plant Science Center, RIKEN.
LICENSE: CC BY-NC
COPYRIGHT: Copyright(C) 2009 Plant Science Center, RIKEN
COMMENT: Build 1 2009/06/24
COMMENT: Acquisition and generation of the data is financially supported in part by CREST/JST.
CH$NAME: 7-[[2-O-(6-Deoxy-alpha-L-mannopyranosyl)-beta-D-glucopyranosyl]oxy]-3,5-dihydroxy-2-(4-hydroxyphenyl)-4H-1-benzopyran-4-one
CH$NAME: kaempferol-7-O-neohesperidoside
CH$NAME: Kaem-7-Glc-2pp-Man
CH$NAME: 7-[(2S,3R,4S,5S,6R)-4,5-dihydroxy-6-(hydroxymethyl)-3-[(2S,3R,4R,5R,6S)-3,4,5-trihydroxy-6-methyloxan-2-yl]oxyoxan-2-yl]oxy-3,5-dihydroxy-2-(4-hydroxyphenyl)chromen-4-one
CH$COMPOUND_CLASS: CLASS1 Flavonoid CLASS2 Flavonol CLASS3 Kaempferol glycoside
CH$FORMULA: C27H30O15
CH$EXACT_MASS: 594.522
CH$SMILES: CC1C(C(C(C(O1)OC2C(C(C(OC2OC3=CC(=C4C(=C3)OC(=C(C4=O)O)C5=CC=C(C=C5)O)O)CO)O)O)O)O)O
CH$IUPAC: InChI=1S/C27H30O15/c1-9-17(31)20(34)23(37)26(38-9)42-25-21(35)18(32)15(8-28)41-27(25)39-12-6-13(30)16-14(7-12)40-24(22(36)19(16)33)10-2-4-11(29)5-3-10/h2-7,9,15,17-18,20-21,23,25-32,34-37H,8H2,1H3
CH$LINK: CAS 17353-03-6
CH$LINK: INCHIKEY ZEJXENDZTYVXDP-UHFFFAOYSA-N
AC$INSTRUMENT: Q-Tof Premier, Waters
AC$INSTRUMENT_TYPE: LC-ESI-QTOF
AC$MASS_SPECTROMETRY: MS_TYPE MS2
AC$MASS_SPECTROMETRY: ION_MODE POSITIVE
AC$MASS_SPECTROMETRY: IONIZATION ESI
AC$MASS_SPECTROMETRY: COLLISION_ENERGY Ramp 5-45 V
AC$MASS_SPECTROMETRY: CAPILLARY_VOLTAGE 3.0 kV
AC$CHROMATOGRAPHY: SOLVENT CH3CN/H2O
MS$FOCUSED_ION: ION_TYPE [M+H]+
MS$FOCUSED_ION: PRECURSOR_M/Z 595.16626
PK$SPLASH: splash10-000i-0090000000-9beb0a545479143e3120
PK$NUM_PEAK: 2
PK$PEAK: m/z int. rel.int.
  287.0551 2403.0 999
  595.1663 172.8 72
//
