ACCESSION: MSBNK-RIKEN_ReSpect-PS095301
RECORD_TITLE: Hippuric Acid, Benzoylaminoacetic acid, Hippurate, N-Benzoylglycine, Benzamidoacetic acid, Phenylcarbonylaminoacetic acid; LC-ESI-QQ; MS2
DATE: 2009.02.09
AUTHORS: Sawada Y, Matsuda F, and Hirai MY. Plant Science Center, RIKEN
LICENSE: CC BY-NC
COPYRIGHT: Copyright(C) 2008 Plant Science Center, RIKEN
PUBLICATION: Sawada, Y.; Akiyama, K.; Sakata, A.; Kuwahara, A.; Otsuki, H.; Sakurai, T.; Saito, K.; Hirai, M. Y. Widely Targeted Metabolomics Based on Large-Scale MS/MS Data for Elucidating Metabolite Accumulation Patterns in Plants. Plant and Cell Physiology 2008, 50 (1), 37–47. DOI:10.1093/pcp/pcn183
COMMENT: Build 5
COMMENT: Data acquisition and generation is financially supported in part by CREST/JST.
COMMENT: Source compound Aldrich, 112003.
COMMENT: PRIMe compound in-house ID N0011
COMMENT: This spectra was automatically generated from the raw data without manual curation of data quality.
COMMENT: The spectral data and services are available to the research and academic community only.
COMMENT: All users must cite follwing literature in publication(s).
CH$NAME: Hippuric Acid
CH$NAME: Benzoylaminoacetic acid
CH$NAME: Hippurate
CH$NAME: N-Benzoylglycine
CH$NAME: Benzamidoacetic acid
CH$NAME: Phenylcarbonylaminoacetic acid
CH$COMPOUND_CLASS: CLASS1 Other CLASS2 Carboxylic acid CLASS3 Hippuric acid
CH$FORMULA: C9H9NO3
CH$EXACT_MASS: 179.175
CH$SMILES: C1=CC=C(C=C1)C(=O)NCC(=O)O
CH$IUPAC: InChI=1S/C9H9NO3/c11-8(12)6-10-9(13)7-4-2-1-3-5-7/h1-5H,6H2,(H,10,13)(H,11,12)
CH$LINK: CAS 495-69-2
CH$LINK: KEGG C01586
CH$LINK: PUBCHEM CID:464
CH$LINK: INCHIKEY QIAFMBKCNZACKA-UHFFFAOYSA-N
AC$INSTRUMENT: TQD, Waters
AC$INSTRUMENT_TYPE: LC-ESI-QQ
AC$MASS_SPECTROMETRY: MS_TYPE MS2
AC$MASS_SPECTROMETRY: ION_MODE POSITIVE
AC$MASS_SPECTROMETRY: IONIZATION ESI
AC$MASS_SPECTROMETRY: COLLISION_ENERGY 10
MS$FOCUSED_ION: ION_TYPE [M+H]+
MS$FOCUSED_ION: PRECURSOR_M/Z 180.18
PK$SPLASH: splash10-053r-0900000000-73bf95cbf160273f89d4
PK$NUM_PEAK: 6
PK$PEAK: m/z int. rel.int.
  30.0 15449.0 60
  104.0 59987.0 234
  105.0 212687.0 828
  162.0 9459.0 37
  179.0 26660.0 104
  180.0 256460.0 999
//
