ACCESSION: MSBNK-RIKEN_ReSpect-PT202383
RECORD_TITLE: (2S,3S,4S,5R,6S)-6-[[(3S,4aR,6aR,6bS,8aS,11S,12aR,14aR,14bS)-11-carboxy-4,4,6a,6b,8a,11,14b-heptamethyl-14-oxo-2,3,4a,5,6,7,8,9,10,12,12a,14a-dodecahydro-1H-picen-3-yl]oxy]-5-[(2R,3R,4S,5S,6S)-6-carboxy-3,4,5-trihydroxyoxan-2-yl]oxy-3,4-dihydroxyoxane-2-carboxylic acid, Glycyrrhizic acid ammonium salt, Glycyrrhizin, 3-O-(2-O-beta-D-Glucopyranuronosyl-alpha-D-glucopyranuronosyl)-18beta-glycyrrhetinic acid ammonium salt; LC-ESI-QTOF; MS2
DATE: 2008.07.28
AUTHORS: Matsuda F, Suzuki M, Sawada Y, Plant Science Center, RIKEN.
LICENSE: CC BY-NC
COPYRIGHT: Copyright(C) 2009 Plant Science Center, RIKEN
COMMENT: Build 1 2009/06/24
COMMENT: Acquisition and generation of the data is financially supported in part by CREST/JST.
CH$NAME: (2S,3S,4S,5R,6S)-6-[[(3S,4aR,6aR,6bS,8aS,11S,12aR,14aR,14bS)-11-carboxy-4,4,6a,6b,8a,11,14b-heptamethyl-14-oxo-2,3,4a,5,6,7,8,9,10,12,12a,14a-dodecahydro-1H-picen-3-yl]oxy]-5-[(2R,3R,4S,5S,6S)-6-carboxy-3,4,5-trihydroxyoxan-2-yl]oxy-3,4-dihydroxyoxane-2-carboxylic acid
CH$NAME: Glycyrrhizic acid ammonium salt
CH$NAME: Glycyrrhizin
CH$NAME: 3-O-(2-O-beta-D-Glucopyranuronosyl-alpha-D-glucopyranuronosyl)-18beta-glycyrrhetinic acid ammonium salt
CH$COMPOUND_CLASS: CLASS1 Terpenoid CLASS2 Triterpenoid CLASS3 Glycyrrhetinic acid
CH$FORMULA: C42H62O16
CH$EXACT_MASS: 822.942
CH$SMILES: CC1(C2CCC3(C(C2(CCC1OC4C(C(C(C(O4)C(=O)O)O)O)OC5C(C(C(C(O5)C(=O)O)O)O)O)C)C(=O)C=C6C3(CCC7(C6CC(CC7)(C)C(=O)O)C)C)C)C
CH$IUPAC: InChI=1S/C42H62O16/c1-37(2)21-8-11-42(7)31(20(43)16-18-19-17-39(4,36(53)54)13-12-38(19,3)14-15-41(18,42)6)40(21,5)10-9-22(37)55-35-30(26(47)25(46)29(57-35)33(51)52)58-34-27(48)23(44)24(45)28(56-34)32(49)50/h16,19,21-31,34-35,44-48H,8-15,17H2,1-7H3,(H,49,50)(H,51,52)(H,53,54)
CH$LINK: CAS 1405-86-3
CH$LINK: INCHIKEY LPLVUJXQOOQHMX-UHFFFAOYSA-N
AC$INSTRUMENT: Q-Tof Premier, Waters
AC$INSTRUMENT_TYPE: LC-ESI-QTOF
AC$MASS_SPECTROMETRY: MS_TYPE MS2
AC$MASS_SPECTROMETRY: ION_MODE NEGATIVE
AC$MASS_SPECTROMETRY: IONIZATION ESI
AC$MASS_SPECTROMETRY: COLLISION_ENERGY 30 V
AC$MASS_SPECTROMETRY: CAPILLARY_VOLTAGE 3.0 kV
AC$CHROMATOGRAPHY: SOLVENT CH3CN/H2O
MS$FOCUSED_ION: ION_TYPE [M-H]-
MS$FOCUSED_ION: PRECURSOR_M/Z 821.39597
PK$SPLASH: splash10-00di-0002000090-301b760e1a43241eb03d
PK$NUM_PEAK: 2
PK$PEAK: m/z int. rel.int.
  351.0589 2385.0 294
  821.396 8115.0 999
//
