ACCESSION: MSBNK-RIKEN_ReSpect-PS066003
RECORD_TITLE: N-(4-Aminobutyl)guanidine sulfate salt, 1-Amino-4-guanidinobutane sulfate salt, Agmatine sulfate salt, 4-Guanidinobutylamine sulfate salt; LC-ESI-QQ; MS2
DATE: 2009.02.09
AUTHORS: Sawada Y, Matsuda F, and Hirai MY. Plant Science Center, RIKEN
LICENSE: CC BY-NC
COPYRIGHT: Copyright(C) 2008 Plant Science Center, RIKEN
PUBLICATION: Sawada, Y.; Akiyama, K.; Sakata, A.; Kuwahara, A.; Otsuki, H.; Sakurai, T.; Saito, K.; Hirai, M. Y. Widely Targeted Metabolomics Based on Large-Scale MS/MS Data for Elucidating Metabolite Accumulation Patterns in Plants. Plant and Cell Physiology 2008, 50 (1), 37–47. DOI:10.1093/pcp/pcn183
COMMENT: Build 5
COMMENT: Data acquisition and generation is financially supported in part by CREST/JST.
COMMENT: Source compound SIGMA, A7127.
COMMENT: PRIMe compound in-house ID S0047
COMMENT: This spectra was automatically generated from the raw data without manual curation of data quality.
COMMENT: The spectral data and services are available to the research and academic community only.
COMMENT: All users must cite follwing literature in publication(s).
CH$NAME: N-(4-Aminobutyl)guanidine sulfate salt
CH$NAME: 1-Amino-4-guanidinobutane sulfate salt
CH$NAME: Agmatine sulfate salt
CH$NAME: 4-Guanidinobutylamine sulfate salt
CH$COMPOUND_CLASS: CLASS1 Alkaloid CLASS2 Polyamine CLASS3 Agmatine
CH$FORMULA: C5H14N4
CH$EXACT_MASS: 130.195
CH$SMILES: C(CCN=C(N)N)CN
CH$IUPAC: InChI=1S/C5H14N4/c6-3-1-2-4-9-5(7)8/h1-4,6H2,(H4,7,8,9)
CH$LINK: CAS 306-60-5
CH$LINK: KEGG C00179
CH$LINK: PUBCHEM CID:199
CH$LINK: INCHIKEY QYPPJABKJHAVHS-UHFFFAOYSA-N
AC$INSTRUMENT: TQD, Waters
AC$INSTRUMENT_TYPE: LC-ESI-QQ
AC$MASS_SPECTROMETRY: MS_TYPE MS2
AC$MASS_SPECTROMETRY: ION_MODE POSITIVE
AC$MASS_SPECTROMETRY: IONIZATION ESI
AC$MASS_SPECTROMETRY: COLLISION_ENERGY 30
MS$FOCUSED_ION: ION_TYPE [M+H]+
MS$FOCUSED_ION: PRECURSOR_M/Z 131.12
PK$SPLASH: splash10-00di-9000000000-0f4d745a802cc2a6e396
PK$NUM_PEAK: 9
PK$PEAK: m/z int. rel.int.
  29.0 4946.0 97
  30.0 24179.0 472
  48.0 1983.0 39
  55.0 2031.0 40
  60.0 2909.0 57
  68.0 3473.0 68
  71.0 11954.0 234
  72.0 51133.0 999
  131.0 2102.0 41
//
