ACCESSION: MSBNK-RIKEN_ReSpect-PS003402
RECORD_TITLE: 5-Hydoxytryptamine hydrochloride, 5-HT, Enteramine, 3-(2-Aminoethyl)-5-hydroxyindole hydrochloride, Serotonin hydrochloride; LC-ESI-QQ; MS2
DATE: 2009.02.09
AUTHORS: Sawada Y, Matsuda F, and Hirai MY. Plant Science Center, RIKEN
LICENSE: CC BY-NC
COPYRIGHT: Copyright(C) 2008 Plant Science Center, RIKEN
PUBLICATION: Sawada, Y.; Akiyama, K.; Sakata, A.; Kuwahara, A.; Otsuki, H.; Sakurai, T.; Saito, K.; Hirai, M. Y. Widely Targeted Metabolomics Based on Large-Scale MS/MS Data for Elucidating Metabolite Accumulation Patterns in Plants. Plant and Cell Physiology 2008, 50 (1), 37–47. DOI:10.1093/pcp/pcn183
COMMENT: Build 5
COMMENT: Data acquisition and generation is financially supported in part by CREST/JST.
COMMENT: Source compound SIGMA, H9523.
COMMENT: PRIMe compound in-house ID 34
COMMENT: This spectra was automatically generated from the raw data without manual curation of data quality.
COMMENT: The spectral data and services are available to the research and academic community only.
COMMENT: All users must cite follwing literature in publication(s).
CH$NAME: 5-Hydoxytryptamine hydrochloride
CH$NAME: 5-HT
CH$NAME: Enteramine
CH$NAME: 3-(2-Aminoethyl)-5-hydroxyindole hydrochloride
CH$NAME: Serotonin hydrochloride
CH$COMPOUND_CLASS: CLASS1 Alkaloid CLASS2 Indole CLASS3 Tryptamine
CH$FORMULA: C10H12N2O
CH$EXACT_MASS: 176.219
CH$SMILES: C1=CC2=C(C=C1O)C(=CN2)CCN
CH$IUPAC: InChI=1S/C10H12N2O/c11-4-3-7-6-12-10-2-1-8(13)5-9(7)10/h1-2,5-6,12-13H,3-4,11H2
CH$LINK: CAS 50-67-9
CH$LINK: KEGG C00780
CH$LINK: PUBCHEM CID:5202
CH$LINK: INCHIKEY QZAYGJVTTNCVMB-UHFFFAOYSA-N
CH$LINK: COMPTOX DTXSID8075330
AC$INSTRUMENT: TQD, Waters
AC$INSTRUMENT_TYPE: LC-ESI-QQ
AC$MASS_SPECTROMETRY: MS_TYPE MS2
AC$MASS_SPECTROMETRY: ION_MODE POSITIVE
AC$MASS_SPECTROMETRY: IONIZATION ESI
AC$MASS_SPECTROMETRY: COLLISION_ENERGY 20
MS$FOCUSED_ION: ION_TYPE [M+H]+
MS$FOCUSED_ION: PRECURSOR_M/Z 177.21
PK$SPLASH: splash10-03di-0900000000-bfa39864b532707760f8
PK$NUM_PEAK: 2
PK$PEAK: m/z int. rel.int.
  159.0 219987.0 199
  160.0 1104160.0 999
//
