ACCESSION: MSBNK-RIKEN_ReSpect-PS123408
RECORD_TITLE: alpha-D(+)Mannose 1-phosphate bis(cyclohexylammonium) salt, alpha-Man-1P, alpha-D-Mannopyranosyl phosphate; LC-ESI-QQ; MS2
DATE: 2009.02.09
AUTHORS: Sawada Y, Matsuda F, and Hirai MY. Plant Science Center, RIKEN
LICENSE: CC BY-NC
COPYRIGHT: Copyright(C) 2008 Plant Science Center, RIKEN
PUBLICATION: Sawada, Y.; Akiyama, K.; Sakata, A.; Kuwahara, A.; Otsuki, H.; Sakurai, T.; Saito, K.; Hirai, M. Y. Widely Targeted Metabolomics Based on Large-Scale MS/MS Data for Elucidating Metabolite Accumulation Patterns in Plants. Plant and Cell Physiology 2008, 50 (1), 37–47. DOI:10.1093/pcp/pcn183
COMMENT: Build 5
COMMENT: Data acquisition and generation is financially supported in part by CREST/JST.
COMMENT: Source compound SIGMA, M4750.
COMMENT: PRIMe compound in-house ID V0108
COMMENT: This spectra was automatically generated from the raw data without manual curation of data quality.
COMMENT: The spectral data and services are available to the research and academic community only.
COMMENT: All users must cite follwing literature in publication(s).
CH$NAME: alpha-D(+)Mannose 1-phosphate bis(cyclohexylammonium) salt
CH$NAME: alpha-Man-1P
CH$NAME: alpha-D-Mannopyranosyl phosphate
CH$COMPOUND_CLASS: CLASS1 Other CLASS2 Suger phosphate CLASS3 Mannose phosphate
CH$FORMULA: C6H13O9P
CH$EXACT_MASS: 260.137
CH$SMILES: C(C1C(C(C(C(O1)OP(=O)(O)O)O)O)O)O
CH$IUPAC: InChI=1S/C6H13O9P/c7-1-2-3(8)4(9)5(10)6(14-2)15-16(11,12)13/h2-10H,1H2,(H2,11,12,13)
CH$LINK: CAS 15978-07-1
CH$LINK: KEGG C00636
CH$LINK: PUBCHEM CID:439279
CH$LINK: INCHIKEY HXXFSFRBOHSIMQ-UHFFFAOYSA-N
AC$INSTRUMENT: TQD, Waters
AC$INSTRUMENT_TYPE: LC-ESI-QQ
AC$MASS_SPECTROMETRY: MS_TYPE MS2
AC$MASS_SPECTROMETRY: ION_MODE NEGATIVE
AC$MASS_SPECTROMETRY: IONIZATION ESI
AC$MASS_SPECTROMETRY: COLLISION_ENERGY 20
MS$FOCUSED_ION: ION_TYPE [M-H]-
MS$FOCUSED_ION: PRECURSOR_M/Z 259.21
PK$SPLASH: splash10-052b-9050000000-681030d96aec91bceab2
PK$NUM_PEAK: 5
PK$PEAK: m/z int. rel.int.
  79.0 9233.0 228
  96.0 19495.0 482
  97.0 40408.0 999
  258.0 6815.0 168
  259.0 35465.0 877
//
