ACCESSION: MSBNK-RIKEN_ReSpect-PS087402
RECORD_TITLE: Vitexin; LC-ESI-QQ; MS2
DATE: 2009.02.09
AUTHORS: Sawada Y, Matsuda F, and Hirai MY. Plant Science Center, RIKEN
LICENSE: CC BY-NC
COPYRIGHT: Copyright(C) 2008 Plant Science Center, RIKEN
PUBLICATION: Sawada, Y.; Akiyama, K.; Sakata, A.; Kuwahara, A.; Otsuki, H.; Sakurai, T.; Saito, K.; Hirai, M. Y. Widely Targeted Metabolomics Based on Large-Scale MS/MS Data for Elucidating Metabolite Accumulation Patterns in Plants. Plant and Cell Physiology 2008, 50 (1), 37–47. DOI:10.1093/pcp/pcn183
COMMENT: Build 5
COMMENT: Data acquisition and generation is financially supported in part by CREST/JST.
COMMENT: Source compound EXTRASYNTHESE S.A, 9013.
COMMENT: PRIMe compound in-house ID S0316
COMMENT: This spectra was automatically generated from the raw data without manual curation of data quality.
COMMENT: The spectral data and services are available to the research and academic community only.
COMMENT: All users must cite follwing literature in publication(s).
CH$NAME: apigenin-8-C-glucoside
CH$NAME: 8-beta-D-Glucopyranosyl-apigenin
CH$NAME: Vitexin
CH$NAME: Orientoside
CH$NAME: Vitx
CH$COMPOUND_CLASS: CLASS1 Flavonoid CLASS2 Flavone CLASS3 Apigenin glycoside
CH$FORMULA: C21H20O10
CH$EXACT_MASS: 432.381
CH$SMILES: C1=CC(=CC=C1C2=CC(=O)C3=C(O2)C(=C(C=C3O)O)[C@H]4[C@@H]([C@H]([C@@H]([C@H](O4)CO)O)O)O)O
CH$IUPAC: InChI=1S/C21H20O10/c22-7-14-17(27)18(28)19(29)21(31-14)16-11(25)5-10(24)15-12(26)6-13(30-20(15)16)8-1-3-9(23)4-2-8/h1-6,14,17-19,21-25,27-29H,7H2/t14-,17-,18+,19-,21+/m1/s1
CH$LINK: CAS 3681-93-4
CH$LINK: KEGG C01460
CH$LINK: PUBCHEM CID:5280441
CH$LINK: INCHIKEY SGEWCQFRYRRZDC-VPRICQMDSA-N
AC$INSTRUMENT: TQD, Waters
AC$INSTRUMENT_TYPE: LC-ESI-QQ
AC$MASS_SPECTROMETRY: MS_TYPE MS2
AC$MASS_SPECTROMETRY: ION_MODE POSITIVE
AC$MASS_SPECTROMETRY: IONIZATION ESI
AC$MASS_SPECTROMETRY: COLLISION_ENERGY 20
MS$FOCUSED_ION: ION_TYPE [M+H]+
MS$FOCUSED_ION: PRECURSOR_M/Z 433.37
PK$SPLASH: splash10-001i-0000900000-bc70e1c77d9a847e3cd2
PK$NUM_PEAK: 3
PK$PEAK: m/z int. rel.int.
  432.0 213342.0 327
  433.0 650786.0 999
  434.0 114561.0 176
//
