ACCESSION: MSBNK-RIKEN_ReSpect-PS028501
RECORD_TITLE: (S)-2,5-Diaminopentanoate, L-2,5-Diaminovaleric Acid Monohydrochloride, Orn, L-Ornithine monohydrochloride, (S)-2,5-Diaminopentanoic acid monohydrochloride; LC-ESI-QQ; MS2
DATE: 2009.02.09
AUTHORS: Sawada Y, Matsuda F, and Hirai MY. Plant Science Center, RIKEN
LICENSE: CC BY-NC
COPYRIGHT: Copyright(C) 2008 Plant Science Center, RIKEN
PUBLICATION: Sawada, Y.; Akiyama, K.; Sakata, A.; Kuwahara, A.; Otsuki, H.; Sakurai, T.; Saito, K.; Hirai, M. Y. Widely Targeted Metabolomics Based on Large-Scale MS/MS Data for Elucidating Metabolite Accumulation Patterns in Plants. Plant and Cell Physiology 2008, 50 (1), 37–47. DOI:10.1093/pcp/pcn183
COMMENT: Build 5
COMMENT: Data acquisition and generation is financially supported in part by CREST/JST.
COMMENT: Source compound SIGMA, O2375.
COMMENT: PRIMe compound in-house ID 285
COMMENT: This spectra was automatically generated from the raw data without manual curation of data quality.
COMMENT: The spectral data and services are available to the research and academic community only.
COMMENT: All users must cite follwing literature in publication(s).
CH$NAME: (S)-2,5-Diaminopentanoate
CH$NAME: L-2,5-Diaminovaleric Acid Monohydrochloride
CH$NAME: Orn
CH$NAME: L-Ornithine monohydrochloride
CH$NAME: (S)-2,5-Diaminopentanoic acid monohydrochloride
CH$COMPOUND_CLASS: CLASS1 Amino acid CLASS2 Ornithine
CH$FORMULA: C5H12N2O2
CH$EXACT_MASS: 132.163
CH$SMILES: C(CC(C(=O)O)N)CN
CH$IUPAC: InChI=1S/C5H12N2O2/c6-3-1-2-4(7)5(8)9/h4H,1-3,6-7H2,(H,8,9)
CH$LINK: CAS 70-26-8
CH$LINK: KEGG C00077
CH$LINK: PUBCHEM CID:6262
CH$LINK: INCHIKEY AHLPHDHHMVZTML-UHFFFAOYSA-N
AC$INSTRUMENT: TQD, Waters
AC$INSTRUMENT_TYPE: LC-ESI-QQ
AC$MASS_SPECTROMETRY: MS_TYPE MS2
AC$MASS_SPECTROMETRY: ION_MODE POSITIVE
AC$MASS_SPECTROMETRY: IONIZATION ESI
AC$MASS_SPECTROMETRY: COLLISION_ENERGY 10
MS$FOCUSED_ION: ION_TYPE [M+H]+
MS$FOCUSED_ION: PRECURSOR_M/Z 133.14
PK$SPLASH: splash10-00lr-0900000000-4cc8686108e73f91af03
PK$NUM_PEAK: 5
PK$PEAK: m/z int. rel.int.
  70.0 15325.0 45
  115.0 104350.0 304
  116.0 183657.0 535
  132.0 22707.0 66
  133.0 342727.0 999
//
