ACCESSION: MSBNK-RIKEN_ReSpect-PS081704
RECORD_TITLE: N-Octanoyl-D-erythro-sphingosine, Octanamide , D-erythro-N-Octanoylsphingosine, C8-Cer, octanoylamino-4-octadecene-1, 3-diol, Ceramide C8, N-Octanoylsphingosine, N-Octanoylsphingosine,D-erythro; LC-ESI-QQ; MS2
DATE: 2009.02.09
AUTHORS: Sawada Y, Matsuda F, and Hirai MY. Plant Science Center, RIKEN
LICENSE: CC BY-NC
COPYRIGHT: Copyright(C) 2008 Plant Science Center, RIKEN
PUBLICATION: Sawada, Y.; Akiyama, K.; Sakata, A.; Kuwahara, A.; Otsuki, H.; Sakurai, T.; Saito, K.; Hirai, M. Y. Widely Targeted Metabolomics Based on Large-Scale MS/MS Data for Elucidating Metabolite Accumulation Patterns in Plants. Plant and Cell Physiology 2008, 50 (1), 37–47. DOI:10.1093/pcp/pcn183
COMMENT: Build 5
COMMENT: Data acquisition and generation is financially supported in part by CREST/JST.
COMMENT: Source compound Biomol International, SL-112.
COMMENT: PRIMe compound in-house ID S0254
COMMENT: This spectra was automatically generated from the raw data without manual curation of data quality.
COMMENT: The spectral data and services are available to the research and academic community only.
COMMENT: All users must cite follwing literature in publication(s).
CH$NAME: N-Octanoyl-D-erythro-sphingosine
CH$NAME: Octanamide , D-erythro-N-Octanoylsphingosine
CH$NAME: C8-Cer
CH$NAME: octanoylamino-4-octadecene-1, 3-diol
CH$NAME: Ceramide C8
CH$NAME: N-Octanoylsphingosine
CH$NAME: N-Octanoylsphingosine,D-erythro
CH$COMPOUND_CLASS: CLASS1 Other CLASS2 Sphingosine
CH$FORMULA: C26H51NO3
CH$EXACT_MASS: 425.698
CH$SMILES: CCCCCCCCCCCCCC=CC(C(CO)NC(=O)CCCCCCC)O
CH$IUPAC: InChI=1S/C26H51NO3/c1-3-5-7-9-10-11-12-13-14-15-16-18-19-21-25(29)24(23-28)27-26(30)22-20-17-8-6-4-2/h19,21,24-25,28-29H,3-18,20,22-23H2,1-2H3,(H,27,30)
CH$LINK: CAS 74713-59-0
CH$LINK: PUBCHEM CID:5702614
CH$LINK: INCHIKEY APDLCSPGWPLYEQ-UHFFFAOYSA-N
AC$INSTRUMENT: TQD, Waters
AC$INSTRUMENT_TYPE: LC-ESI-QQ
AC$MASS_SPECTROMETRY: MS_TYPE MS2
AC$MASS_SPECTROMETRY: ION_MODE POSITIVE
AC$MASS_SPECTROMETRY: IONIZATION ESI
AC$MASS_SPECTROMETRY: COLLISION_ENERGY 40
MS$FOCUSED_ION: ION_TYPE [M+H]+
MS$FOCUSED_ION: PRECURSOR_M/Z 426.64
PK$SPLASH: splash10-03di-1090000000-021b0d1ce7813614c974
PK$NUM_PEAK: 7
PK$PEAK: m/z int. rel.int.
  57.0 12590.0 117
  82.0 7488.0 70
  252.0 6539.0 61
  263.0 21542.0 200
  264.0 107490.0 999
  265.0 21641.0 201
  282.0 7096.0 66
//
