ACCESSION: MSBNK-RIKEN_ReSpect-PS045701
RECORD_TITLE: (-)-Epicatechin; LC-ESI-QQ; MS2
DATE: 2009.02.09
AUTHORS: Sawada Y, Matsuda F, and Hirai MY. Plant Science Center, RIKEN
LICENSE: CC BY-NC
COPYRIGHT: Copyright(C) 2008 Plant Science Center, RIKEN
PUBLICATION: Sawada, Y.; Akiyama, K.; Sakata, A.; Kuwahara, A.; Otsuki, H.; Sakurai, T.; Saito, K.; Hirai, M. Y. Widely Targeted Metabolomics Based on Large-Scale MS/MS Data for Elucidating Metabolite Accumulation Patterns in Plants. Plant and Cell Physiology 2008, 50 (1), 37–47. DOI:10.1093/pcp/pcn183
COMMENT: Build 5
COMMENT: Data acquisition and generation is financially supported in part by CREST/JST.
COMMENT: Source compound WAKO , 059-06751.
COMMENT: PRIMe compound in-house ID T0004
COMMENT: This spectra was automatically generated from the raw data without manual curation of data quality.
COMMENT: The spectral data and services are available to the research and academic community only.
COMMENT: All users must cite follwing literature in publication(s).
CH$NAME: (-)-3,3',4',5,7-Pentahydroxyflavan
CH$NAME: EpCt_mi
CH$NAME: (-)-Epicatechin
CH$COMPOUND_CLASS: CLASS1 Flavonoid CLASS2 Flavanol CLASS3 Epicatechin
CH$FORMULA: C15H14O6
CH$EXACT_MASS: 290.271
CH$SMILES: C1[C@H]([C@H](OC2=CC(=CC(=C21)O)O)C3=CC(=C(C=C3)O)O)O
CH$IUPAC: InChI=1S/C15H14O6/c16-8-4-11(18)9-6-13(20)15(21-14(9)5-8)7-1-2-10(17)12(19)3-7/h1-5,13,15-20H,6H2/t13-,15-/m1/s1
CH$LINK: CAS 490-46-0
CH$LINK: KEGG C09727
CH$LINK: PUBCHEM CID:72276
CH$LINK: INCHIKEY PFTAWBLQPZVEMU-UKRRQHHQSA-N
AC$INSTRUMENT: TQD, Waters
AC$INSTRUMENT_TYPE: LC-ESI-QQ
AC$MASS_SPECTROMETRY: MS_TYPE MS2
AC$MASS_SPECTROMETRY: ION_MODE POSITIVE
AC$MASS_SPECTROMETRY: IONIZATION ESI
AC$MASS_SPECTROMETRY: COLLISION_ENERGY 10
MS$FOCUSED_ION: ION_TYPE [M+H]+
MS$FOCUSED_ION: PRECURSOR_M/Z 291.28
PK$SPLASH: splash10-0006-0090000000-dc92ee8d231059359a56
PK$NUM_PEAK: 4
PK$PEAK: m/z int. rel.int.
  139.0 30513.0 91
  165.0 11773.0 35
  290.0 72697.0 218
  291.0 333162.0 999
//
