ACCESSION: MSBNK-RIKEN_ReSpect-PS076103
RECORD_TITLE: 3,5-Dimethoxycinnamic acid , 3,5-Dimethoxyphenyl-2-propenoic acid; LC-ESI-QQ; MS2
DATE: 2009.02.09
AUTHORS: Sawada Y, Matsuda F, and Hirai MY. Plant Science Center, RIKEN
LICENSE: CC BY-NC
COPYRIGHT: Copyright(C) 2008 Plant Science Center, RIKEN
PUBLICATION: Sawada, Y.; Akiyama, K.; Sakata, A.; Kuwahara, A.; Otsuki, H.; Sakurai, T.; Saito, K.; Hirai, M. Y. Widely Targeted Metabolomics Based on Large-Scale MS/MS Data for Elucidating Metabolite Accumulation Patterns in Plants. Plant and Cell Physiology 2008, 50 (1), 37–47. DOI:10.1093/pcp/pcn183
COMMENT: Build 5
COMMENT: Data acquisition and generation is financially supported in part by CREST/JST.
COMMENT: Source compound Aldrich, D134007.
COMMENT: PRIMe compound in-house ID S0168
COMMENT: This spectra was automatically generated from the raw data without manual curation of data quality.
COMMENT: The spectral data and services are available to the research and academic community only.
COMMENT: All users must cite follwing literature in publication(s).
CH$NAME: 3,5-Dimethoxycinnamic acid
CH$NAME: 3,5-Dimethoxyphenyl-2-propenoic acid
CH$COMPOUND_CLASS: CLASS1 Phenylpropanoid CLASS2 Phenylpropanoid monomer CLASS3 Cinnamic acid
CH$FORMULA: C11H12O4
CH$EXACT_MASS: 208.213
CH$SMILES: COC1=CC(=CC(=C1)C=CC(=O)O)OC
CH$IUPAC: InChI=1S/C11H12O4/c1-14-9-5-8(3-4-11(12)13)6-10(7-9)15-2/h3-7H,1-2H3,(H,12,13)
CH$LINK: CAS 16909-11-8
CH$LINK: PUBCHEM CID:5324677
CH$LINK: INCHIKEY VLSRUFWCGBMYDJ-UHFFFAOYSA-N
AC$INSTRUMENT: TQD, Waters
AC$INSTRUMENT_TYPE: LC-ESI-QQ
AC$MASS_SPECTROMETRY: MS_TYPE MS2
AC$MASS_SPECTROMETRY: ION_MODE POSITIVE
AC$MASS_SPECTROMETRY: IONIZATION ESI
AC$MASS_SPECTROMETRY: COLLISION_ENERGY 30
MS$FOCUSED_ION: ION_TYPE [M+H]+
MS$FOCUSED_ION: PRECURSOR_M/Z 209.23
PK$SPLASH: splash10-0005-0900000000-c4855e53e29573b25c37
PK$NUM_PEAK: 14
PK$PEAK: m/z int. rel.int.
  90.0 1272.0 31
  91.0 1855.0 46
  119.0 4294.0 105
  123.0 1229.0 30
  135.0 1580.0 39
  147.0 7248.0 178
  148.0 40721.0 999
  163.0 5099.0 125
  166.0 2724.0 67
  181.0 2018.0 50
  189.0 1439.0 35
  190.0 10730.0 263
  191.0 34057.0 836
  209.0 3515.0 86
//
