ACCESSION: MSBNK-RIKEN_ReSpect-PS075802
RECORD_TITLE: DL-2-Aminobutyric acid, Abu, DL-alpha-Aminobutanoic acid , DL-2-Aminobutanoic acid, Butyrine, AABA, DL-2-Amino-n-butyric acid; LC-ESI-QQ; MS2
DATE: 2009.02.09
AUTHORS: Sawada Y, Matsuda F, and Hirai MY. Plant Science Center, RIKEN
LICENSE: CC BY-NC
COPYRIGHT: Copyright(C) 2008 Plant Science Center, RIKEN
PUBLICATION: Sawada, Y.; Akiyama, K.; Sakata, A.; Kuwahara, A.; Otsuki, H.; Sakurai, T.; Saito, K.; Hirai, M. Y. Widely Targeted Metabolomics Based on Large-Scale MS/MS Data for Elucidating Metabolite Accumulation Patterns in Plants. Plant and Cell Physiology 2008, 50 (1), 37–47. DOI:10.1093/pcp/pcn183
COMMENT: Build 5
COMMENT: Data acquisition and generation is financially supported in part by CREST/JST.
COMMENT: Source compound Wako, 015-14542 .
COMMENT: PRIMe compound in-house ID S0163
COMMENT: This spectra was automatically generated from the raw data without manual curation of data quality.
COMMENT: The spectral data and services are available to the research and academic community only.
COMMENT: All users must cite follwing literature in publication(s).
CH$NAME: DL-2-Aminobutyric acid
CH$NAME: Abu
CH$NAME: DL-alpha-Aminobutanoic acid
CH$NAME: DL-2-Aminobutanoic acid
CH$NAME: Butyrine
CH$NAME: AABA
CH$NAME: DL-2-Amino-n-butyric acid
CH$COMPOUND_CLASS: CLASS1 Other CLASS2 Carboxylic acid CLASS3 Butyric acid
CH$FORMULA: C4H9NO2
CH$EXACT_MASS: 103.121
CH$SMILES: CCC(C(=O)O)N
CH$IUPAC: InChI=1S/C4H9NO2/c1-2-3(5)4(6)7/h3H,2,5H2,1H3,(H,6,7)
CH$LINK: CAS 80-60-4
CH$LINK: KEGG C02356
CH$LINK: PUBCHEM CID:80283
CH$LINK: INCHIKEY QWCKQJZIFLGMSD-UHFFFAOYSA-N
AC$INSTRUMENT: TQD, Waters
AC$INSTRUMENT_TYPE: LC-ESI-QQ
AC$MASS_SPECTROMETRY: MS_TYPE MS2
AC$MASS_SPECTROMETRY: ION_MODE POSITIVE
AC$MASS_SPECTROMETRY: IONIZATION ESI
AC$MASS_SPECTROMETRY: COLLISION_ENERGY 20
MS$FOCUSED_ION: ION_TYPE [M+H]+
MS$FOCUSED_ION: PRECURSOR_M/Z 104.08
PK$SPLASH: splash10-0a4i-9000000000-d34692feace0cbbacc2f
PK$NUM_PEAK: 2
PK$PEAK: m/z int. rel.int.
  57.0 65560.0 118
  58.0 556562.0 999
//
