ACCESSION: MSBNK-RIKEN_ReSpect-PS003002
RECORD_TITLE: 4-Hydroxyaniline hydrochloride, 4-Aminophenol hydrochloride, p-Aminophenol; LC-ESI-QQ; MS2
DATE: 2009.02.09
AUTHORS: Sawada Y, Matsuda F, and Hirai MY. Plant Science Center, RIKEN
LICENSE: CC BY-NC
COPYRIGHT: Copyright(C) 2008 Plant Science Center, RIKEN
PUBLICATION: Sawada, Y.; Akiyama, K.; Sakata, A.; Kuwahara, A.; Otsuki, H.; Sakurai, T.; Saito, K.; Hirai, M. Y. Widely Targeted Metabolomics Based on Large-Scale MS/MS Data for Elucidating Metabolite Accumulation Patterns in Plants. Plant and Cell Physiology 2008, 50 (1), 37–47. DOI:10.1093/pcp/pcn183
COMMENT: Build 5
COMMENT: Data acquisition and generation is financially supported in part by CREST/JST.
COMMENT: Source compound SIGMA, A6161.
COMMENT: PRIMe compound in-house ID 30
COMMENT: This spectra was automatically generated from the raw data without manual curation of data quality.
COMMENT: The spectral data and services are available to the research and academic community only.
COMMENT: All users must cite follwing literature in publication(s).
CH$NAME: 4-Hydroxyaniline hydrochloride
CH$NAME: 4-Aminophenol hydrochloride
CH$NAME: p-Aminophenol
CH$COMPOUND_CLASS: CLASS1 Other CLASS2 Phenol CLASS3 Other
CH$FORMULA: C6H7NO
CH$EXACT_MASS: 109.128
CH$SMILES: C1=CC(=CC=C1N)O
CH$IUPAC: InChI=1S/C6H7NO/c7-5-1-3-6(8)4-2-5/h1-4,8H,7H2
CH$LINK: CAS 123-30-8
CH$LINK: KEGG C02372
CH$LINK: PUBCHEM CID:403
CH$LINK: INCHIKEY PLIKAWJENQZMHA-UHFFFAOYSA-N
CH$LINK: COMPTOX DTXSID3024499
AC$INSTRUMENT: TQD, Waters
AC$INSTRUMENT_TYPE: LC-ESI-QQ
AC$MASS_SPECTROMETRY: MS_TYPE MS2
AC$MASS_SPECTROMETRY: ION_MODE POSITIVE
AC$MASS_SPECTROMETRY: IONIZATION ESI
AC$MASS_SPECTROMETRY: COLLISION_ENERGY 20
MS$FOCUSED_ION: ION_TYPE [M+H]+
MS$FOCUSED_ION: PRECURSOR_M/Z 110.05
PK$SPLASH: splash10-014i-9100000000-469b90850b0118eb3b10
PK$NUM_PEAK: 2
PK$PEAK: m/z int. rel.int.
  69.0 92432.0 999
  110.0 11965.0 129
//
