ACCESSION: MSBNK-RIKEN_ReSpect-PM000849
RECORD_TITLE: Taxacin; LC-ESI-QQ; MS2
DATE: 2006.04.26
AUTHORS: Madhusudanan KP, Chattopadhyay SK, Tripathi V, Sashidhara KV, & Kumar S
LICENSE: CC BY-NC
COPYRIGHT: Copyright(C) 2012 Plant Science Center, RIKEN
PUBLICATION: Madhusudanan, K. P.; Chattopadhyay, S. K.; Tripathi, V.; Sashidhara, K. V.; Kumar, S. MS/MS Profiling of Taxoids from the Needles of Taxus Wallichiana. Phytochemical Analysis 2002, 13 (1), 18–30. DOI:10.1002/pca.610
COMMENT: interpretasion of fragment patterns
COMMENT: 731
CH$NAME: Taxacin
CH$COMPOUND_CLASS: CLASS1 Terpenoid CLASS2 Diterpenoid CLASS3 Taxacin
CH$FORMULA: C44H48O15
CH$EXACT_MASS: 816.853
CH$SMILES: C=C1[C@@H](OC(=O)/C=C/c2ccccc2)C[C@H](OC(C)=O)[C@@]2(COC(=O)c3ccccc3)[C@@H](OC(C)=O)[C@H](OC(C)=O)[C@@]3(O)[C@]4(C)OC[C@@]3(C)[C@@H](CC4=O)[C@@H](OC(C)=O)[C@H]12
CH$IUPAC: InChI=1S/C44H48O15/c1-24-32(59-35(50)19-18-29-14-10-8-11-15-29)21-34(55-25(2)45)43(23-53-40(51)30-16-12-9-13-17-30)36(24)37(56-26(3)46)31-20-33(49)42(7)44(52,41(31,6)22-54-42)39(58-28(5)48)38(43)57-27(4)47/h8-19,31-32,34,36-39,52H,1,20-23H2,2-7H3/b19-18+/t31-,32-,34-,36-,37+,38-,39-,41-,42+,43+,44-/m0/s1
CH$LINK: CAS 117229-54-6
CH$LINK: INCHIKEY QSCIDKJZGZYKSP-KCCIQLONSA-N
CH$LINK: PUBCHEM CID:15226199
SP$SAMPLE: Taxus wallichiana
AC$INSTRUMENT: Micromass (Altrincham, UK) QuattroII triple-quadrupole mass spectrometer, JASCO(Tokyo, Japan) model 980 LC
AC$INSTRUMENT_TYPE: LC-ESI-QQ
AC$MASS_SPECTROMETRY: MS_TYPE MS2
AC$MASS_SPECTROMETRY: ION_MODE POSITIVE
AC$MASS_SPECTROMETRY: IONIZATION ESI
AC$MASS_SPECTROMETRY: COLLISION_ENERGY 25V
AC$CHROMATOGRAPHY: SOLVENT MeOH 2mM CH3COONH4
MS$FOCUSED_ION: ION_TYPE [M+H]+
MS$FOCUSED_ION: PRECURSOR_M/Z 817
PK$SPLASH: splash10-014i-0312429010-c788fa6d9a2bf6985d06
PK$NUM_PEAK: 11
PK$PEAK: m/z int. rel.int.
  105.0 7.0 70
  131.0 12.0 120
  195.0 28.0 280
  283.0 20.0 200
  325.0 31.0 310
  429.0 22.0 220
  487.0 32.0 320
  549.0 28.0 280
  609.0 18.0 180
  669.0 100.0 999
  817.0 18.0 180
//
