ACCESSION: MSBNK-RIKEN_ReSpect-PS086501
RECORD_TITLE: isosakuranetin-7-O-neohesperidoside, (S)-5,7-Dihydroxy-4'-methoxyflavanone-7-(2-O-(alpha-L-rhamnopyranosyl)-beta-D-Glucopyranoside)), Poncirin, Issk-7-Glc-2pp-Man; LC-ESI-QQ; MS2
DATE: 2009.02.09
AUTHORS: Sawada Y, Matsuda F, and Hirai MY. Plant Science Center, RIKEN
LICENSE: CC BY-NC
COPYRIGHT: Copyright(C) 2008 Plant Science Center, RIKEN
PUBLICATION: Sawada, Y.; Akiyama, K.; Sakata, A.; Kuwahara, A.; Otsuki, H.; Sakurai, T.; Saito, K.; Hirai, M. Y. Widely Targeted Metabolomics Based on Large-Scale MS/MS Data for Elucidating Metabolite Accumulation Patterns in Plants. Plant and Cell Physiology 2008, 50 (1), 37–47. DOI:10.1093/pcp/pcn183
COMMENT: Build 5
COMMENT: Data acquisition and generation is financially supported in part by CREST/JST.
COMMENT: Source compound EXTRASYNTHESE S.A, 1133 S.
COMMENT: PRIMe compound in-house ID S0308
COMMENT: This spectra was automatically generated from the raw data without manual curation of data quality.
COMMENT: The spectral data and services are available to the research and academic community only.
COMMENT: All users must cite follwing literature in publication(s).
CH$NAME: isosakuranetin-7-O-neohesperidoside
CH$NAME: (S)-5,7-Dihydroxy-4'-methoxyflavanone-7-(2-O-(alpha-L-rhamnopyranosyl)-beta-D-Glucopyranoside))
CH$NAME: Poncirin
CH$NAME: Issk-7-Glc-2pp-Man
CH$COMPOUND_CLASS: CLASS1 Flavonoid CLASS2 Flavanone CLASS3 Isosakuranetin glycoside
CH$FORMULA: C28H34O14
CH$EXACT_MASS: 594.566
CH$SMILES: CC1C(C(C(C(O1)OC2C(C(C(OC2OC3=CC(=C4C(=O)CC(OC4=C3)C5=CC=C(C=C5)OC)O)CO)O)O)O)O)O
CH$IUPAC: InChI=1S/C28H34O14/c1-11-21(32)23(34)25(36)27(38-11)42-26-24(35)22(33)19(10-29)41-28(26)39-14-7-15(30)20-16(31)9-17(40-18(20)8-14)12-3-5-13(37-2)6-4-12/h3-8,11,17,19,21-30,32-36H,9-10H2,1-2H3
CH$LINK: CAS 14941-08-3
CH$LINK: KEGG C09830
CH$LINK: PUBCHEM CID:442456
CH$LINK: INCHIKEY NLAWPKPYBMEWIR-UHFFFAOYSA-N
AC$INSTRUMENT: TQD, Waters
AC$INSTRUMENT_TYPE: LC-ESI-QQ
AC$MASS_SPECTROMETRY: MS_TYPE MS2
AC$MASS_SPECTROMETRY: ION_MODE POSITIVE
AC$MASS_SPECTROMETRY: IONIZATION ESI
AC$MASS_SPECTROMETRY: COLLISION_ENERGY 10
MS$FOCUSED_ION: ION_TYPE [M+H]+
MS$FOCUSED_ION: PRECURSOR_M/Z 595.51
PK$SPLASH: splash10-0002-0030190000-ff019b00ff1f40f37b0b
PK$NUM_PEAK: 10
PK$PEAK: m/z int. rel.int.
  286.0 6770.0 52
  287.0 80094.0 620
  288.0 5752.0 45
  432.0 5623.0 44
  433.0 13912.0 108
  449.0 6695.0 52
  594.0 9041.0 70
  595.0 128972.0 999
  596.0 75050.0 581
  597.0 4803.0 37
//
