ACCESSION: MSBNK-RIKEN_ReSpect-PS075504
RECORD_TITLE: Homopiperidinic acid, 5-Aminopentanoic acid, 5-Aminovaleric acid, delta-Aminovalerate, 5-Aminopentanoate; LC-ESI-QQ; MS2
DATE: 2009.02.09
AUTHORS: Sawada Y, Matsuda F, and Hirai MY. Plant Science Center, RIKEN
LICENSE: CC BY-NC
COPYRIGHT: Copyright(C) 2008 Plant Science Center, RIKEN
PUBLICATION: Sawada, Y.; Akiyama, K.; Sakata, A.; Kuwahara, A.; Otsuki, H.; Sakurai, T.; Saito, K.; Hirai, M. Y. Widely Targeted Metabolomics Based on Large-Scale MS/MS Data for Elucidating Metabolite Accumulation Patterns in Plants. Plant and Cell Physiology 2008, 50 (1), 37–47. DOI:10.1093/pcp/pcn183
COMMENT: Build 5
COMMENT: Data acquisition and generation is financially supported in part by CREST/JST.
COMMENT: Source compound Wako, 019-16941 .
COMMENT: PRIMe compound in-house ID S0157
COMMENT: This spectra was automatically generated from the raw data without manual curation of data quality.
COMMENT: The spectral data and services are available to the research and academic community only.
COMMENT: All users must cite follwing literature in publication(s).
CH$NAME: Homopiperidinic acid
CH$NAME: 5-Aminopentanoic acid
CH$NAME: 5-Aminovaleric acid
CH$NAME: delta-Aminovalerate
CH$NAME: 5-Aminopentanoate
CH$COMPOUND_CLASS: CLASS1 Other CLASS2 Carboxylic acid CLASS3 Valeric acid
CH$FORMULA: C5H11NO2
CH$EXACT_MASS: 117.148
CH$SMILES: C(CCN)CC(=O)O
CH$IUPAC: InChI=1S/C5H11NO2/c6-4-2-1-3-5(7)8/h1-4,6H2,(H,7,8)
CH$LINK: CAS 660-88-8
CH$LINK: KEGG C00431
CH$LINK: PUBCHEM CID:138
CH$LINK: INCHIKEY JJMDCOVWQOJGCB-UHFFFAOYSA-N
AC$INSTRUMENT: TQD, Waters
AC$INSTRUMENT_TYPE: LC-ESI-QQ
AC$MASS_SPECTROMETRY: MS_TYPE MS2
AC$MASS_SPECTROMETRY: ION_MODE POSITIVE
AC$MASS_SPECTROMETRY: IONIZATION ESI
AC$MASS_SPECTROMETRY: COLLISION_ENERGY 40
MS$FOCUSED_ION: ION_TYPE [M+H]+
MS$FOCUSED_ION: PRECURSOR_M/Z 118.1
PK$SPLASH: splash10-0a4i-9000000000-03f9ee7656e5c7d797d2
PK$NUM_PEAK: 12
PK$PEAK: m/z int. rel.int.
  27.0 2062.0 51
  28.0 2095.0 52
  29.0 4063.0 100
  30.0 3806.0 94
  31.0 2410.0 60
  41.0 1921.0 47
  52.0 1543.0 38
  54.0 9735.0 240
  55.0 40451.0 999
  56.0 18025.0 445
  58.0 3893.0 96
  59.0 10509.0 260
//
