ACCESSION: MSBNK-RIKEN_ReSpect-PS034903
RECORD_TITLE: Thiabendazole, Decco, Omnizole, Bioguard, LSP, 2-(4-Thiazolyl)benzimidazole, Lombristop, Thiabendazol, Bovizole, Merfect, Cropasal; LC-ESI-QQ; MS2
DATE: 2009.02.09
AUTHORS: Sawada Y, Matsuda F, and Hirai MY. Plant Science Center, RIKEN
LICENSE: CC BY-NC
COPYRIGHT: Copyright(C) 2008 Plant Science Center, RIKEN
PUBLICATION: Sawada, Y.; Akiyama, K.; Sakata, A.; Kuwahara, A.; Otsuki, H.; Sakurai, T.; Saito, K.; Hirai, M. Y. Widely Targeted Metabolomics Based on Large-Scale MS/MS Data for Elucidating Metabolite Accumulation Patterns in Plants. Plant and Cell Physiology 2008, 50 (1), 37–47. DOI:10.1093/pcp/pcn183
COMMENT: Build 5
COMMENT: Data acquisition and generation is financially supported in part by CREST/JST.
COMMENT: Source compound SIGMA, T8904.
COMMENT: PRIMe compound in-house ID 349
COMMENT: This spectra was automatically generated from the raw data without manual curation of data quality.
COMMENT: The spectral data and services are available to the research and academic community only.
COMMENT: All users must cite follwing literature in publication(s).
CH$NAME: Thiabendazole
CH$NAME: Decco
CH$NAME: Omnizole
CH$NAME: Bioguard
CH$NAME: LSP
CH$NAME: 2-(4-Thiazolyl)benzimidazole
CH$NAME: Lombristop
CH$NAME: Thiabendazol
CH$NAME: Bovizole
CH$NAME: Merfect
CH$NAME: Cropasal
CH$COMPOUND_CLASS: CLASS1 Other CLASS2 Other CLASS3 Thiabendazole
CH$FORMULA: C10H7N3S
CH$EXACT_MASS: 201.252
CH$SMILES: C1=CC=C2C(=C1)NC(=N2)C3=CSC=N3
CH$IUPAC: InChI=1S/C10H7N3S/c1-2-4-8-7(3-1)12-10(13-8)9-5-14-6-11-9/h1-6H,(H,12,13)
CH$LINK: CAS 148-79-8
CH$LINK: KEGG D00372
CH$LINK: PUBCHEM CID:5430
CH$LINK: INCHIKEY WJCNZQLZVWNLKY-UHFFFAOYSA-N
AC$INSTRUMENT: TQD, Waters
AC$INSTRUMENT_TYPE: LC-ESI-QQ
AC$MASS_SPECTROMETRY: MS_TYPE MS2
AC$MASS_SPECTROMETRY: ION_MODE POSITIVE
AC$MASS_SPECTROMETRY: IONIZATION ESI
AC$MASS_SPECTROMETRY: COLLISION_ENERGY 30
MS$FOCUSED_ION: ION_TYPE [M+H]+
MS$FOCUSED_ION: PRECURSOR_M/Z 202.19
PK$SPLASH: splash10-0udi-0190000000-095c974d1bb954a73bb4
PK$NUM_PEAK: 6
PK$PEAK: m/z int. rel.int.
  174.0 56195.0 66
  175.0 197983.0 232
  199.0 28511.0 33
  200.0 80884.0 95
  201.0 415722.0 487
  202.0 852096.0 999
//
