ACCESSION: MSBNK-RIKEN_ReSpect-PS004204
RECORD_TITLE: Anthranilic acid, o-Aminobenzoic Acid, Vitamin L1, 2-Carboxyaniline, 2-AA, 2-aminobenzoate; LC-ESI-QQ; MS2
DATE: 2009.02.09
AUTHORS: Sawada Y, Matsuda F, and Hirai MY. Plant Science Center, RIKEN
LICENSE: CC BY-NC
COPYRIGHT: Copyright(C) 2008 Plant Science Center, RIKEN
PUBLICATION: Sawada, Y.; Akiyama, K.; Sakata, A.; Kuwahara, A.; Otsuki, H.; Sakurai, T.; Saito, K.; Hirai, M. Y. Widely Targeted Metabolomics Based on Large-Scale MS/MS Data for Elucidating Metabolite Accumulation Patterns in Plants. Plant and Cell Physiology 2008, 50 (1), 37–47. DOI:10.1093/pcp/pcn183
COMMENT: Build 5
COMMENT: Data acquisition and generation is financially supported in part by CREST/JST.
COMMENT: Source compound Nacalai-T, 03109-52.
COMMENT: PRIMe compound in-house ID 42
COMMENT: This spectra was automatically generated from the raw data without manual curation of data quality.
COMMENT: The spectral data and services are available to the research and academic community only.
COMMENT: All users must cite follwing literature in publication(s).
CH$NAME: Anthranilic acid
CH$NAME: o-Aminobenzoic Acid
CH$NAME: Vitamin L1
CH$NAME: 2-Carboxyaniline
CH$NAME: 2-AA
CH$NAME: 2-aminobenzoate
CH$COMPOUND_CLASS: CLASS1 Other CLASS2 Vitamin
CH$FORMULA: C7H7NO2
CH$EXACT_MASS: 137.138
CH$SMILES: C1=CC=C(C(=C1)C(=O)O)N
CH$IUPAC: InChI=1S/C7H7NO2/c8-6-4-2-1-3-5(6)7(9)10/h1-4H,8H2,(H,9,10)
CH$LINK: CAS 118-92-3
CH$LINK: KEGG C00108
CH$LINK: PUBCHEM CID:227
CH$LINK: INCHIKEY RWZYAGGXGHYGMB-UHFFFAOYSA-N
CH$LINK: COMPTOX DTXSID8020094
AC$INSTRUMENT: TQD, Waters
AC$INSTRUMENT_TYPE: LC-ESI-QQ
AC$MASS_SPECTROMETRY: MS_TYPE MS2
AC$MASS_SPECTROMETRY: ION_MODE POSITIVE
AC$MASS_SPECTROMETRY: IONIZATION ESI
AC$MASS_SPECTROMETRY: COLLISION_ENERGY 40
MS$FOCUSED_ION: ION_TYPE [M+H]+
MS$FOCUSED_ION: PRECURSOR_M/Z 138.11
PK$SPLASH: splash10-014l-9100000000-9417e4c7354b905a8736
PK$NUM_PEAK: 7
PK$PEAK: m/z int. rel.int.
  39.0 4067.0 66
  64.0 16475.0 267
  65.0 60099.0 974
  91.0 7198.0 117
  92.0 61643.0 999
  119.0 14223.0 231
  120.0 13497.0 219
//
