ACCESSION: MSBNK-RIKEN_ReSpect-PS011402
RECORD_TITLE: N-(4-Aminobutyl)guanidine sulfate salt, 1-Amino-4-guanidinobutane sulfate salt, Agmatine sulfate salt, 4-Guanidinobutylamine sulfate salt; LC-ESI-QQ; MS2
DATE: 2009.02.09
AUTHORS: Sawada Y, Matsuda F, and Hirai MY. Plant Science Center, RIKEN
LICENSE: CC BY-NC
COPYRIGHT: Copyright(C) 2008 Plant Science Center, RIKEN
PUBLICATION: Sawada, Y.; Akiyama, K.; Sakata, A.; Kuwahara, A.; Otsuki, H.; Sakurai, T.; Saito, K.; Hirai, M. Y. Widely Targeted Metabolomics Based on Large-Scale MS/MS Data for Elucidating Metabolite Accumulation Patterns in Plants. Plant and Cell Physiology 2008, 50 (1), 37–47. DOI:10.1093/pcp/pcn183
COMMENT: Build 5
COMMENT: Data acquisition and generation is financially supported in part by CREST/JST.
COMMENT: Source compound SIGMA, A7127.
COMMENT: PRIMe compound in-house ID 114
COMMENT: This spectra was automatically generated from the raw data without manual curation of data quality.
COMMENT: The spectral data and services are available to the research and academic community only.
COMMENT: All users must cite follwing literature in publication(s).
CH$NAME: N-(4-Aminobutyl)guanidine sulfate salt
CH$NAME: 1-Amino-4-guanidinobutane sulfate salt
CH$NAME: Agmatine sulfate salt
CH$NAME: 4-Guanidinobutylamine sulfate salt
CH$COMPOUND_CLASS: CLASS1 Other CLASS2 Other CLASS3 Agmatine
CH$FORMULA: C5H14N4
CH$EXACT_MASS: 130.195
CH$SMILES: C(CCN=C(N)N)CN
CH$IUPAC: InChI=1S/C5H14N4/c6-3-1-2-4-9-5(7)8/h1-4,6H2,(H4,7,8,9)
CH$LINK: CAS 306-60-5
CH$LINK: KEGG C00179
CH$LINK: PUBCHEM CID:199
CH$LINK: INCHIKEY QYPPJABKJHAVHS-UHFFFAOYSA-N
CH$LINK: COMPTOX DTXSID0040961
AC$INSTRUMENT: TQD, Waters
AC$INSTRUMENT_TYPE: LC-ESI-QQ
AC$MASS_SPECTROMETRY: MS_TYPE MS2
AC$MASS_SPECTROMETRY: ION_MODE POSITIVE
AC$MASS_SPECTROMETRY: IONIZATION ESI
AC$MASS_SPECTROMETRY: COLLISION_ENERGY 20
MS$FOCUSED_ION: ION_TYPE [M+H]+
MS$FOCUSED_ION: PRECURSOR_M/Z 131.09
PK$SPLASH: splash10-00di-9000000000-69a9049d0d37baf9bd84
PK$NUM_PEAK: 9
PK$PEAK: m/z int. rel.int.
  30.0 3571.0 34
  59.0 5280.0 50
  60.0 34571.0 330
  69.0 11489.0 110
  71.0 18845.0 180
  72.0 104767.0 999
  89.0 3505.0 33
  114.0 7014.0 67
  131.0 11966.0 114
//
