ACCESSION: MSBNK-RIKEN_ReSpect-PS020007
RECORD_TITLE: (R)-(+)-2-Hydroxysuccinic acid, D-(+)-Malic acid, D-Hydroxybutanedioic acid; LC-ESI-QQ; MS2
DATE: 2009.02.09
AUTHORS: Sawada Y, Matsuda F, and Hirai MY. Plant Science Center, RIKEN
LICENSE: CC BY-NC
COPYRIGHT: Copyright(C) 2008 Plant Science Center, RIKEN
PUBLICATION: Sawada, Y.; Akiyama, K.; Sakata, A.; Kuwahara, A.; Otsuki, H.; Sakurai, T.; Saito, K.; Hirai, M. Y. Widely Targeted Metabolomics Based on Large-Scale MS/MS Data for Elucidating Metabolite Accumulation Patterns in Plants. Plant and Cell Physiology 2008, 50 (1), 37–47. DOI:10.1093/pcp/pcn183
COMMENT: Build 5
COMMENT: Data acquisition and generation is financially supported in part by CREST/JST.
COMMENT: Source compound SIGMA, M0750.
COMMENT: PRIMe compound in-house ID 200
COMMENT: This spectra was automatically generated from the raw data without manual curation of data quality.
COMMENT: The spectral data and services are available to the research and academic community only.
COMMENT: All users must cite follwing literature in publication(s).
CH$NAME: (R)-(+)-2-Hydroxysuccinic acid
CH$NAME: D-(+)-Malic acid
CH$NAME: D-Hydroxybutanedioic acid
CH$COMPOUND_CLASS: CLASS1 Other CLASS2 Carboxylic acid CLASS3 Malic acid
CH$FORMULA: C4H6O5
CH$EXACT_MASS: 134.087
CH$SMILES: C(C(C(=O)O)O)C(=O)O
CH$IUPAC: InChI=1S/C4H6O5/c5-2(4(8)9)1-3(6)7/h2,5H,1H2,(H,6,7)(H,8,9)
CH$LINK: CAS 636-61-3
CH$LINK: KEGG C00497
CH$LINK: PUBCHEM CID:92824
CH$LINK: INCHIKEY BJEPYKJPYRNKOW-UHFFFAOYSA-N
AC$INSTRUMENT: TQD, Waters
AC$INSTRUMENT_TYPE: LC-ESI-QQ
AC$MASS_SPECTROMETRY: MS_TYPE MS2
AC$MASS_SPECTROMETRY: ION_MODE NEGATIVE
AC$MASS_SPECTROMETRY: IONIZATION ESI
AC$MASS_SPECTROMETRY: COLLISION_ENERGY 10
MS$FOCUSED_ION: ION_TYPE [M-H]-
MS$FOCUSED_ION: PRECURSOR_M/Z 133.06
PK$SPLASH: splash10-001i-0900000000-5681fccdfb3146c76de5
PK$NUM_PEAK: 3
PK$PEAK: m/z int. rel.int.
  115.0 17697.0 170
  132.0 20647.0 198
  133.0 104078.0 999
//
