ACCESSION: MSBNK-RIKEN_ReSpect-PS042104
RECORD_TITLE: 3-((6-O-(6-Deoxy-alpha-L-mannopyranosyl)-beta-D-galactopyranosyl)oxy)-7-((6-deoxy-alpha-L-mannopyranosyl)oxy)-5-hydroxy-2-(4-hydroxyphenyl)-4H-1-benzopyran-4-one, Kaempferol-3-O-galactose-rhamnose-7-O-rhamnose, Kaem-3-Rob-7-Rha, kaempferol-3-O-robinoside-7-O-rhamnoside, Robinin, Kaem-3-Gal-Rha-7-Rha; LC-ESI-QQ; MS2
DATE: 2009.02.09
AUTHORS: Sawada Y, Matsuda F, and Hirai MY. Plant Science Center, RIKEN
LICENSE: CC BY-NC
COPYRIGHT: Copyright(C) 2008 Plant Science Center, RIKEN
PUBLICATION: Sawada, Y.; Akiyama, K.; Sakata, A.; Kuwahara, A.; Otsuki, H.; Sakurai, T.; Saito, K.; Hirai, M. Y. Widely Targeted Metabolomics Based on Large-Scale MS/MS Data for Elucidating Metabolite Accumulation Patterns in Plants. Plant and Cell Physiology 2008, 50 (1), 37–47. DOI:10.1093/pcp/pcn183
COMMENT: Build 5
COMMENT: Data acquisition and generation is financially supported in part by CREST/JST.
COMMENT: Source compound EXTRASYNTHESE S.A, 1032.
COMMENT: PRIMe compound in-house ID H0029
COMMENT: This spectra was automatically generated from the raw data without manual curation of data quality.
COMMENT: The spectral data and services are available to the research and academic community only.
COMMENT: All users must cite follwing literature in publication(s).
CH$NAME: 3-((6-O-(6-Deoxy-alpha-L-mannopyranosyl)-beta-D-galactopyranosyl)oxy)-7-((6-deoxy-alpha-L-mannopyranosyl)oxy)-5-hydroxy-2-(4-hydroxyphenyl)-4H-1-benzopyran-4-one
CH$NAME: Kaempferol-3-O-galactose-rhamnose-7-O-rhamnose
CH$NAME: Kaem-3-Rob-7-Rha
CH$NAME: kaempferol-3-O-robinoside-7-O-rhamnoside
CH$NAME: Robinin
CH$NAME: Kaem-3-Gal-Rha-7-Rha
CH$COMPOUND_CLASS: CLASS1 Flavonoid CLASS2 Flavonol CLASS3 Kaempferol glycoside
CH$FORMULA: C33H40O19
CH$EXACT_MASS: 740.664
CH$SMILES: CC1C(C(C(C(O1)OCC2C(C(C(C(O2)OC3=C(OC4=CC(=CC(=C4C3=O)O)OC5C(C(C(C(O5)C)O)O)O)C6=CC=C(C=C6)O)O)O)O)O)O)O
CH$IUPAC: InChI=1S/C33H40O19/c1-10-19(36)23(40)26(43)31(47-10)46-9-17-21(38)25(42)28(45)33(51-17)52-30-22(39)18-15(35)7-14(49-32-27(44)24(41)20(37)11(2)48-32)8-16(18)50-29(30)12-3-5-13(34)6-4-12/h3-8,10-11,17,19-21,23-28,31-38,40-45H,9H2,1-2H3
CH$LINK: CAS 301-19-9
CH$LINK: KEGG C10178
CH$LINK: PUBCHEM CID:5281693
CH$LINK: INCHIKEY PEFASEPMJYRQBW-UHFFFAOYSA-N
AC$INSTRUMENT: TQD, Waters
AC$INSTRUMENT_TYPE: LC-ESI-QQ
AC$MASS_SPECTROMETRY: MS_TYPE MS2
AC$MASS_SPECTROMETRY: ION_MODE POSITIVE
AC$MASS_SPECTROMETRY: IONIZATION ESI
AC$MASS_SPECTROMETRY: COLLISION_ENERGY 40
MS$FOCUSED_ION: ION_TYPE [M+H]+
MS$FOCUSED_ION: PRECURSOR_M/Z 741.67
PK$SPLASH: splash10-0019-1390500000-49820042f893b11ff6d5
PK$NUM_PEAK: 13
PK$PEAK: m/z int. rel.int.
  71.0 6219.0 65
  84.0 4679.0 49
  85.0 14837.0 154
  129.0 17789.0 185
  145.0 3218.0 33
  147.0 24670.0 257
  286.0 21367.0 222
  287.0 96034.0 999
  288.0 10651.0 111
  432.0 19950.0 208
  433.0 46418.0 483
  434.0 17455.0 182
  595.0 3630.0 38
//
