ACCESSION: MSBNK-RIKEN_ReSpect-PM000330
RECORD_TITLE: Isorhamnetin-3-O-glucuronide; LC-ESI-QQ; MS2
DATE: 2006.04.19
AUTHORS: Parejo I, et al.
LICENSE: CC BY-NC
COPYRIGHT: Copyright(C) 2012 Plant Science Center, RIKEN
PUBLICATION: Parejo, I.; Jauregui, O.; Sánchez-Rabaneda, F.; Viladomat, F.; Bastida, J.; Codina, C. Separation and Characterization of Phenolic Compounds in Fennel (Foeniculum Vulgare) Using Liquid Chromatography-Negative Electrospray Ionization Tandem Mass Spectrometry. Journal of Agricultural and Food Chemistry 2004, 52 (12), 3679–87. DOI:10.1021/jf030813h
COMMENT: 725
CH$NAME: Isorhamnetin-3-O-glucuronide
CH$COMPOUND_CLASS: CLASS1 Flavonoid CLASS2 Flavonol CLASS3 Isorhamnetin glycoside
CH$FORMULA: C22H20O13
CH$EXACT_MASS: 492.389
CH$SMILES: COc1cc(-c2oc3cc(O)cc(O)c3c(=O)c2O[C@@H]2O[C@H](C(=O)O)[C@@H](O)[C@H](O)[C@H]2O)ccc1O
CH$IUPAC: InChI=1S/C22H20O13/c1-32-11-4-7(2-3-9(11)24)18-19(14(26)13-10(25)5-8(23)6-12(13)33-18)34-22-17(29)15(27)16(28)20(35-22)21(30)31/h2-6,15-17,20,22-25,27-29H,1H3,(H,30,31)/t15-,16-,17+,20-,22+/m0/s1
CH$LINK: CAS 36687-76-0
CH$LINK: INCHIKEY VVZWHOMBDMMRSC-NTKSAMNMSA-N
CH$LINK: PUBCHEM CID:5491630
CH$LINK: COMPTOX DTXSID70957931
SP$SAMPLE: Foeniculum vulgare
AC$INSTRUMENT: API 3000 triple-quadrupole mass spectrometer (PerkinElmer Sciex, Concord, ON, Canada)
AC$INSTRUMENT_TYPE: LC-ESI-QQ
AC$MASS_SPECTROMETRY: MS_TYPE MS2
AC$MASS_SPECTROMETRY: ION_MODE NEGATIVE
AC$MASS_SPECTROMETRY: IONIZATION ESI
AC$MASS_SPECTROMETRY: COLLISION_ENERGY 35
AC$CHROMATOGRAPHY: SOLVENT H2O/NH3CN/HCOOH
MS$FOCUSED_ION: ION_TYPE [M-H]-
MS$FOCUSED_ION: PRECURSOR_M/Z 491
PK$SPLASH: splash10-0vw0-0449000000-dc5d43fde6174eaf9930
PK$NUM_PEAK: 4
PK$PEAK: m/z int. rel.int.
  135.0 100.0 999
  271.0 100.0 999
  300.0 100.0 999
  315.0 100.0 999
//
