ACCESSION: MSBNK-RIKEN_ReSpect-PS097401
RECORD_TITLE: 6-Deoxygalactose, Fuc, D-Galactomethylose, 6-Deoxy-D-galactopyranose, Rhodeose, D-Fucopyranose, D-(+)-Fucose; LC-ESI-QQ; MS2
DATE: 2009.02.09
AUTHORS: Sawada Y, Matsuda F, and Hirai MY. Plant Science Center, RIKEN
LICENSE: CC BY-NC
COPYRIGHT: Copyright(C) 2008 Plant Science Center, RIKEN
PUBLICATION: Sawada, Y.; Akiyama, K.; Sakata, A.; Kuwahara, A.; Otsuki, H.; Sakurai, T.; Saito, K.; Hirai, M. Y. Widely Targeted Metabolomics Based on Large-Scale MS/MS Data for Elucidating Metabolite Accumulation Patterns in Plants. Plant and Cell Physiology 2008, 50 (1), 37–47. DOI:10.1093/pcp/pcn183
COMMENT: Build 5
COMMENT: Data acquisition and generation is financially supported in part by CREST/JST.
COMMENT: Source compound SIGMA, F8150.
COMMENT: PRIMe compound in-house ID N0032
COMMENT: This spectra was automatically generated from the raw data without manual curation of data quality.
COMMENT: The spectral data and services are available to the research and academic community only.
COMMENT: All users must cite follwing literature in publication(s).
CH$NAME: 6-Deoxygalactose
CH$NAME: Fuc
CH$NAME: D-Galactomethylose
CH$NAME: 6-Deoxy-D-galactopyranose
CH$NAME: Rhodeose
CH$NAME: D-Fucopyranose
CH$NAME: D-(+)-Fucose
CH$COMPOUND_CLASS: CLASS1 Other CLASS2 Sugar CLASS3 Monosaccharide
CH$FORMULA: C6H12O5
CH$EXACT_MASS: 164.157
CH$SMILES: CC1C(C(C(C(O1)O)O)O)O
CH$IUPAC: InChI=1S/C6H12O5/c1-2-3(7)4(8)5(9)6(10)11-2/h2-10H,1H3
CH$LINK: CAS 3615-37-0
CH$LINK: KEGG C01018
CH$LINK: PUBCHEM CID:19466
CH$LINK: INCHIKEY SHZGCJCMOBCMKK-UHFFFAOYSA-N
AC$INSTRUMENT: TQD, Waters
AC$INSTRUMENT_TYPE: LC-ESI-QQ
AC$MASS_SPECTROMETRY: MS_TYPE MS2
AC$MASS_SPECTROMETRY: ION_MODE POSITIVE
AC$MASS_SPECTROMETRY: IONIZATION ESI
AC$MASS_SPECTROMETRY: COLLISION_ENERGY 10
MS$FOCUSED_ION: ION_TYPE [M+H]+
MS$FOCUSED_ION: PRECURSOR_M/Z 164.11
PK$SPLASH: splash10-00di-0900000000-0329e4a1585dea8b7a9c
PK$NUM_PEAK: 3
PK$PEAK: m/z int. rel.int.
  113.0 9645.0 129
  122.0 32278.0 431
  123.0 74852.0 999
//
