ACCESSION: MSBNK-RIKEN_ReSpect-PS041406
RECORD_TITLE: Rhoifolin, 7-((2-O-(6-Deoxy-alpha-L-mannopyranosyl)-beta-D-glucopyranosyl)oxy)-5-hydroxy-2-(4-hydroxyphenyl)-4H-benzopyran-4-one, Apig-7-Glc-2pp-Man, Rhoifoloside, apigenin-7-O-neohesperidoside; LC-ESI-QQ; MS2
DATE: 2009.02.09
AUTHORS: Sawada Y, Matsuda F, and Hirai MY. Plant Science Center, RIKEN
LICENSE: CC BY-NC
COPYRIGHT: Copyright(C) 2008 Plant Science Center, RIKEN
PUBLICATION: Sawada, Y.; Akiyama, K.; Sakata, A.; Kuwahara, A.; Otsuki, H.; Sakurai, T.; Saito, K.; Hirai, M. Y. Widely Targeted Metabolomics Based on Large-Scale MS/MS Data for Elucidating Metabolite Accumulation Patterns in Plants. Plant and Cell Physiology 2008, 50 (1), 37–47. DOI:10.1093/pcp/pcn183
COMMENT: Build 5
COMMENT: Data acquisition and generation is financially supported in part by CREST/JST.
COMMENT: Source compound EXTRASYNTHESE S.A, 1137 S.
COMMENT: PRIMe compound in-house ID H0022
COMMENT: This spectra was automatically generated from the raw data without manual curation of data quality.
COMMENT: The spectral data and services are available to the research and academic community only.
COMMENT: All users must cite follwing literature in publication(s).
CH$NAME: Rhoifolin
CH$NAME: 7-((2-O-(6-Deoxy-alpha-L-mannopyranosyl)-beta-D-glucopyranosyl)oxy)-5-hydroxy-2-(4-hydroxyphenyl)-4H-benzopyran-4-one
CH$NAME: Apig-7-Glc-2pp-Man
CH$NAME: Rhoifoloside
CH$NAME: apigenin-7-O-neohesperidoside
CH$COMPOUND_CLASS: CLASS1 Flavonoid CLASS2 Flavone CLASS3 Apigenin glycoside
CH$FORMULA: C27H30O14
CH$EXACT_MASS: 578.523
CH$SMILES: CC1C(C(C(C(O1)OC2C(C(C(OC2OC3=CC(=C4C(=C3)OC(=CC4=O)C5=CC=C(C=C5)O)O)CO)O)O)O)O)O
CH$IUPAC: InChI=1S/C27H30O14/c1-10-20(32)22(34)24(36)26(37-10)41-25-23(35)21(33)18(9-28)40-27(25)38-13-6-14(30)19-15(31)8-16(39-17(19)7-13)11-2-4-12(29)5-3-11/h2-8,10,18,20-30,32-36H,9H2,1H3
CH$LINK: CAS 17306-46-6
CH$LINK: KEGG C12627
CH$LINK: PUBCHEM CID:5282150
CH$LINK: INCHIKEY RPMNUQRUHXIGHK-UHFFFAOYSA-N
AC$INSTRUMENT: TQD, Waters
AC$INSTRUMENT_TYPE: LC-ESI-QQ
AC$MASS_SPECTROMETRY: MS_TYPE MS2
AC$MASS_SPECTROMETRY: ION_MODE POSITIVE
AC$MASS_SPECTROMETRY: IONIZATION ESI
AC$MASS_SPECTROMETRY: COLLISION_ENERGY 60
MS$FOCUSED_ION: ION_TYPE [M+H]+
MS$FOCUSED_ION: PRECURSOR_M/Z 579.51
PK$SPLASH: splash10-00di-0090000000-cb5c989ceab9e6ab6e02
PK$NUM_PEAK: 4
PK$PEAK: m/z int. rel.int.
  269.0 10809.0 53
  270.0 55539.0 271
  271.0 204520.0 999
  272.0 42007.0 205
//
