ACCESSION: MSBNK-RIKEN_ReSpect-PS085005
RECORD_TITLE: 4'-Methylnaringenin, Issk, 4'-Methoxy-5,7-dihydroxyflavonone, 5,7-Dihydroxy-4'-methoxyflavanone, Isosakuranetin; LC-ESI-QQ; MS2
DATE: 2009.02.09
AUTHORS: Sawada Y, Matsuda F, and Hirai MY. Plant Science Center, RIKEN
LICENSE: CC BY-NC
COPYRIGHT: Copyright(C) 2008 Plant Science Center, RIKEN
PUBLICATION: Sawada, Y.; Akiyama, K.; Sakata, A.; Kuwahara, A.; Otsuki, H.; Sakurai, T.; Saito, K.; Hirai, M. Y. Widely Targeted Metabolomics Based on Large-Scale MS/MS Data for Elucidating Metabolite Accumulation Patterns in Plants. Plant and Cell Physiology 2008, 50 (1), 37–47. DOI:10.1093/pcp/pcn183
COMMENT: Build 5
COMMENT: Data acquisition and generation is financially supported in part by CREST/JST.
COMMENT: Source compound EXTRASYNTHESE S.A, 90.
COMMENT: PRIMe compound in-house ID S0292
COMMENT: This spectra was automatically generated from the raw data without manual curation of data quality.
COMMENT: The spectral data and services are available to the research and academic community only.
COMMENT: All users must cite follwing literature in publication(s).
CH$NAME: 4'-Methylnaringenin
CH$NAME: Issk
CH$NAME: 4'-Methoxy-5,7-dihydroxyflavonone
CH$NAME: 5,7-Dihydroxy-4'-methoxyflavanone
CH$NAME: Isosakuranetin
CH$COMPOUND_CLASS: CLASS1 Flavonoid CLASS2 Flavanone CLASS3 Isosakuranetin
CH$FORMULA: C16H14O5
CH$EXACT_MASS: 286.283
CH$SMILES: COC1=CC=C(C=C1)C2CC(=O)C3=C(C=C(C=C3O2)O)O
CH$IUPAC: InChI=1S/C16H14O5/c1-20-11-4-2-9(3-5-11)14-8-13(19)16-12(18)6-10(17)7-15(16)21-14/h2-7,14,17-18H,8H2,1H3
CH$LINK: CAS 480-43-3
CH$LINK: KEGG C05334
CH$LINK: PUBCHEM CID:160481
CH$LINK: INCHIKEY HMUJXQRRKBLVOO-UHFFFAOYSA-N
AC$INSTRUMENT: TQD, Waters
AC$INSTRUMENT_TYPE: LC-ESI-QQ
AC$MASS_SPECTROMETRY: MS_TYPE MS2
AC$MASS_SPECTROMETRY: ION_MODE POSITIVE
AC$MASS_SPECTROMETRY: IONIZATION ESI
AC$MASS_SPECTROMETRY: COLLISION_ENERGY 50
MS$FOCUSED_ION: ION_TYPE [M+H]+
MS$FOCUSED_ION: PRECURSOR_M/Z 287.28
PK$SPLASH: splash10-0udi-1900000000-a9d38a40865ddbd0ebc8
PK$NUM_PEAK: 13
PK$PEAK: m/z int. rel.int.
  66.0 2879.0 43
  67.0 4299.0 64
  68.0 4628.0 69
  69.0 9346.0 139
  117.0 2030.0 30
  118.0 6118.0 91
  132.0 8542.0 127
  133.0 23307.0 347
  151.0 4685.0 70
  152.0 37521.0 559
  153.0 67069.0 999
  160.0 4170.0 62
  161.0 12428.0 185
//
