ACCESSION: MSBNK-RIKEN_ReSpect-PM000320
RECORD_TITLE: Narirutin; LC-ESI-QQ; MS2
DATE: 2006.04.19
AUTHORS: Parejo I, et al.
LICENSE: CC BY-NC
COPYRIGHT: Copyright(C) 2012 Plant Science Center, RIKEN
PUBLICATION: Parejo, I.; Jauregui, O.; Sánchez-Rabaneda, F.; Viladomat, F.; Bastida, J.; Codina, C. Separation and Characterization of Phenolic Compounds in Fennel (Foeniculum Vulgare) Using Liquid Chromatography-Negative Electrospray Ionization Tandem Mass Spectrometry. Journal of Agricultural and Food Chemistry 2004, 52 (12), 3679–87. DOI:10.1021/jf030813h
COMMENT: 725
CH$NAME: Narirutin
CH$COMPOUND_CLASS: CLASS1 Flavonoid CLASS2 Flavanone CLASS3 Narirutin
CH$FORMULA: C27H32O14
CH$EXACT_MASS: 580.539
CH$SMILES: C[C@@H]1O[C@@H](OC[C@H]2O[C@@H](Oc3cc(O)c4c(c3)O[C@H](c3ccc(O)cc3)CC4=O)[C@H](O)[C@@H](O)[C@@H]2O)[C@H](O)[C@H](O)[C@H]1O
CH$IUPAC: InChI=1S/C27H32O14/c1-10-20(31)22(33)24(35)26(38-10)37-9-18-21(32)23(34)25(36)27(41-18)39-13-6-14(29)19-15(30)8-16(40-17(19)7-13)11-2-4-12(28)5-3-11/h2-7,10,16,18,20-29,31-36H,8-9H2,1H3/t10-,16-,18+,20-,21+,22+,23-,24+,25+,26+,27+/m0/s1
CH$LINK: CAS 14259-46-2
CH$LINK: INCHIKEY HXTFHSYLYXVTHC-AJHDJQPGSA-N
CH$LINK: PUBCHEM CID:442431
CH$LINK: COMPTOX DTXSID30931535
SP$SAMPLE: Foeniculum vulgare
AC$INSTRUMENT: API 3000 triple-quadrupole mass spectrometer (PerkinElmer Sciex, Concord, ON, Canada)
AC$INSTRUMENT_TYPE: LC-ESI-QQ
AC$MASS_SPECTROMETRY: MS_TYPE MS2
AC$MASS_SPECTROMETRY: ION_MODE NEGATIVE
AC$MASS_SPECTROMETRY: IONIZATION ESI
AC$MASS_SPECTROMETRY: COLLISION_ENERGY 35
AC$CHROMATOGRAPHY: SOLVENT H2O/NH3CN/HCOOH
MS$FOCUSED_ION: ION_TYPE [M-H]-
MS$FOCUSED_ION: PRECURSOR_M/Z 579
PK$SPLASH: splash10-01i0-0990000000-f964f9abd9d3b47d9722
PK$NUM_PEAK: 2
PK$PEAK: m/z int. rel.int.
  119.0 100.0 999
  271.0 100.0 999
//
