ACCESSION: MSBNK-RIKEN_ReSpect-PS027603
RECORD_TITLE: L-Homocarnosine, GABA-His, gamma-aminobutyrylhistidine, gamma-Aminobutyryl-L-histidine; LC-ESI-QQ; MS2
DATE: 2009.02.09
AUTHORS: Sawada Y, Matsuda F, and Hirai MY. Plant Science Center, RIKEN
LICENSE: CC BY-NC
COPYRIGHT: Copyright(C) 2008 Plant Science Center, RIKEN
PUBLICATION: Sawada, Y.; Akiyama, K.; Sakata, A.; Kuwahara, A.; Otsuki, H.; Sakurai, T.; Saito, K.; Hirai, M. Y. Widely Targeted Metabolomics Based on Large-Scale MS/MS Data for Elucidating Metabolite Accumulation Patterns in Plants. Plant and Cell Physiology 2008, 50 (1), 37–47. DOI:10.1093/pcp/pcn183
COMMENT: Build 5
COMMENT: Data acquisition and generation is financially supported in part by CREST/JST.
COMMENT: Source compound SIGMA, H4885.
COMMENT: PRIMe compound in-house ID 276
COMMENT: This spectra was automatically generated from the raw data without manual curation of data quality.
COMMENT: The spectral data and services are available to the research and academic community only.
COMMENT: All users must cite follwing literature in publication(s).
CH$NAME: L-Homocarnosine
CH$NAME: GABA-His
CH$NAME: gamma-aminobutyrylhistidine
CH$NAME: gamma-Aminobutyryl-L-histidine
CH$COMPOUND_CLASS: CLASS1 Amino acid CLASS2 Carnosine
CH$FORMULA: C10H16N4O3
CH$EXACT_MASS: 240.263
CH$SMILES: C1=C(NC=N1)CC(C(=O)O)NC(=O)CCCN
CH$IUPAC: InChI=1S/C10H16N4O3/c11-3-1-2-9(15)14-8(10(16)17)4-7-5-12-6-13-7/h5-6,8H,1-4,11H2,(H,12,13)(H,14,15)(H,16,17)
CH$LINK: CAS 3650-73-5
CH$LINK: KEGG C00884
CH$LINK: PUBCHEM CID:89235
CH$LINK: INCHIKEY CCLQKVKJOGVQLU-UHFFFAOYSA-N
AC$INSTRUMENT: TQD, Waters
AC$INSTRUMENT_TYPE: LC-ESI-QQ
AC$MASS_SPECTROMETRY: MS_TYPE MS2
AC$MASS_SPECTROMETRY: ION_MODE POSITIVE
AC$MASS_SPECTROMETRY: IONIZATION ESI
AC$MASS_SPECTROMETRY: COLLISION_ENERGY 30
MS$FOCUSED_ION: ION_TYPE [M+H]+
MS$FOCUSED_ION: PRECURSOR_M/Z 241.33
PK$SPLASH: splash10-08fr-2900000000-9c027682ca0bb59356ba
PK$NUM_PEAK: 6
PK$PEAK: m/z int. rel.int.
  86.0 5000.0 91
  95.0 18921.0 344
  109.0 13481.0 245
  110.0 55002.0 999
  155.0 14072.0 256
  156.0 3638.0 66
//
