ACCESSION: MSBNK-RIKEN_ReSpect-PM000510
RECORD_TITLE: Kaempferol-7-O-neohesperidoside; LC-ESI-QIT; MS2
DATE: 2006.04.21
AUTHORS: Cuyckens F, Rozenberg R, de Hoffmann E, & Claeys M
LICENSE: CC BY-NC
COPYRIGHT: Copyright(C) 2012 Plant Science Center, RIKEN
PUBLICATION: Cuyckens, F.; Rozenberg, R.; de Hoffmann, E.; Claeys, M. Structure Characterization of flavonoidO-Diglycosides by Positive and Negative Nano-Electrospray Ionization Ion Trap Mass Spectrometry. Journal of Mass Spectrometry 2001, 36 (11), 1203–10. DOI:10.1002/jms.224
COMMENT: 727
CH$NAME: Kaempferol-7-O-neohesperidoside
CH$COMPOUND_CLASS: CLASS1 Flavonoid CLASS2 Flavonol CLASS3 Kaempferol glycoside
CH$FORMULA: C27H30O15
CH$EXACT_MASS: 594.522
CH$SMILES: C[C@@H]1O[C@@H](O[C@H]2C(Oc3cc(O)c4c(=O)c(O)c(-c5ccc(O)cc5)oc4c3)O[C@H](CO)[C@@H](O)[C@@H]2O)[C@H](O)C(O)[C@H]1O
CH$IUPAC: InChI=1S/C27H30O15/c1-9-17(31)20(34)23(37)26(38-9)42-25-21(35)18(32)15(8-28)41-27(25)39-12-6-13(30)16-14(7-12)40-24(22(36)19(16)33)10-2-4-11(29)5-3-10/h2-7,9,15,17-18,20-21,23,25-32,34-37H,8H2,1H3/t9-,15+,17-,18+,20?,21-,23+,25+,26-,27?/m0/s1
CH$LINK: CAS 17650-84-9
CH$LINK: INCHIKEY ZEJXENDZTYVXDP-ICERRTQUSA-N
CH$LINK: PUBCHEM CID:129710622
SP$SAMPLE: authentic sample
AC$INSTRUMENT: LCQ mass spectrometer (Finnigan MAT, San Jose, CA, USA)
AC$INSTRUMENT_TYPE: LC-ESI-QIT
AC$MASS_SPECTROMETRY: MS_TYPE MS2
AC$MASS_SPECTROMETRY: ION_MODE NEGATIVE
AC$MASS_SPECTROMETRY: IONIZATION ESI
AC$MASS_SPECTROMETRY: COLLISION_ENERGY 35%
AC$CHROMATOGRAPHY: SOLVENT H2O/MeOH
MS$FOCUSED_ION: ION_TYPE [M-H]-
MS$FOCUSED_ION: PRECURSOR_M/Z 593
PK$SPLASH: splash10-000i-0090000000-4a94a087279c47f26477
PK$NUM_PEAK: 4
PK$PEAK: m/z int. rel.int.
  285.0 100.0 999
  309.0 1.0 10
  327.0 3.0 30
  447.0 1.0 10
//
