ACCESSION: MSBNK-RIKEN_ReSpect-PS078902
RECORD_TITLE: Resveratrol; LC-ESI-QQ; MS2
DATE: 2009.02.09
AUTHORS: Sawada Y, Matsuda F, and Hirai MY. Plant Science Center, RIKEN
LICENSE: CC BY-NC
COPYRIGHT: Copyright(C) 2008 Plant Science Center, RIKEN
PUBLICATION: Sawada, Y.; Akiyama, K.; Sakata, A.; Kuwahara, A.; Otsuki, H.; Sakurai, T.; Saito, K.; Hirai, M. Y. Widely Targeted Metabolomics Based on Large-Scale MS/MS Data for Elucidating Metabolite Accumulation Patterns in Plants. Plant and Cell Physiology 2008, 50 (1), 37–47. DOI:10.1093/pcp/pcn183
COMMENT: Build 5
COMMENT: Data acquisition and generation is financially supported in part by CREST/JST.
COMMENT: Source compound Wako, 185-01721 .
COMMENT: PRIMe compound in-house ID S0219
COMMENT: This spectra was automatically generated from the raw data without manual curation of data quality.
COMMENT: The spectral data and services are available to the research and academic community only.
COMMENT: All users must cite follwing literature in publication(s).
CH$NAME: 3,4',5-Trihydroxy-trans-stilbene  (E)-5-(p-Hydroxystyryl)resorcinol
CH$NAME: Resveratrol
CH$NAME: 3,4,5-Trihydroxystilbene
CH$NAME: 3,5,4'-Stilbenetriol
CH$COMPOUND_CLASS: CLASS1 Stilbenoid CLASS2 Stilben CLASS3 Stilbene
CH$FORMULA: C14H12O3
CH$EXACT_MASS: 228.247
CH$SMILES: C1=CC(=CC=C1/C=C/C2=CC(=CC(=C2)O)O)O
CH$IUPAC: InChI=1S/C14H12O3/c15-12-5-3-10(4-6-12)1-2-11-7-13(16)9-14(17)8-11/h1-9,15-17H/b2-1+
CH$LINK: CAS 501-36-0
CH$LINK: KEGG C03582
CH$LINK: PUBCHEM CID:445154
CH$LINK: INCHIKEY LUKBXSAWLPMMSZ-OWOJBTEDSA-N
AC$INSTRUMENT: TQD, Waters
AC$INSTRUMENT_TYPE: LC-ESI-QQ
AC$MASS_SPECTROMETRY: MS_TYPE MS2
AC$MASS_SPECTROMETRY: ION_MODE POSITIVE
AC$MASS_SPECTROMETRY: IONIZATION ESI
AC$MASS_SPECTROMETRY: COLLISION_ENERGY 20
MS$FOCUSED_ION: ION_TYPE [M+H]+
MS$FOCUSED_ION: PRECURSOR_M/Z 229.27
PK$SPLASH: splash10-004i-0390000000-781b53b7b6e088dbe519
PK$NUM_PEAK: 11
PK$PEAK: m/z int. rel.int.
  106.0 1863.0 30
  107.0 6758.0 109
  118.0 2357.0 38
  119.0 8871.0 143
  134.0 3803.0 61
  135.0 16467.0 266
  211.0 11475.0 185
  227.0 3720.0 60
  228.0 25632.0 414
  229.0 61844.0 999
  230.0 2051.0 33
//
