ACCESSION: MSBNK-RIKEN_ReSpect-PS005404
RECORD_TITLE: L-(-)-Phenylalanine, L-2-Amino-3-phenylpropionic acid, (S)-alpha-Amino-benzenepropanoic acid, (S)-a-Aminohydrocinnamic acid, L-Phe; LC-ESI-QQ; MS2
DATE: 2009.02.09
AUTHORS: Sawada Y, Matsuda F, and Hirai MY. Plant Science Center, RIKEN
LICENSE: CC BY-NC
COPYRIGHT: Copyright(C) 2008 Plant Science Center, RIKEN
PUBLICATION: Sawada, Y.; Akiyama, K.; Sakata, A.; Kuwahara, A.; Otsuki, H.; Sakurai, T.; Saito, K.; Hirai, M. Y. Widely Targeted Metabolomics Based on Large-Scale MS/MS Data for Elucidating Metabolite Accumulation Patterns in Plants. Plant and Cell Physiology 2008, 50 (1), 37–47. DOI:10.1093/pcp/pcn183
COMMENT: Build 5
COMMENT: Data acquisition and generation is financially supported in part by CREST/JST.
COMMENT: Source compound WAKO, 163-01301.
COMMENT: PRIMe compound in-house ID 54
COMMENT: This spectra was automatically generated from the raw data without manual curation of data quality.
COMMENT: The spectral data and services are available to the research and academic community only.
COMMENT: All users must cite follwing literature in publication(s).
CH$NAME: L-(-)-Phenylalanine
CH$NAME: L-2-Amino-3-phenylpropionic acid
CH$NAME: (S)-alpha-Amino-benzenepropanoic acid
CH$NAME: (S)-a-Aminohydrocinnamic acid
CH$NAME: L-Phe
CH$COMPOUND_CLASS: CLASS1 Amino acid CLASS2 Phenylalanine
CH$FORMULA: C9H11NO2
CH$EXACT_MASS: 165.192
CH$SMILES: C1=CC=C(C=C1)C[C@@H](C(=O)O)N
CH$IUPAC: InChI=1S/C9H11NO2/c10-8(9(11)12)6-7-4-2-1-3-5-7/h1-5,8H,6,10H2,(H,11,12)/t8-/m0/s1
CH$LINK: CAS 63-91-2
CH$LINK: KEGG C00079
CH$LINK: PUBCHEM CID:6140
CH$LINK: INCHIKEY COLNVLDHVKWLRT-QMMMGPOBSA-N
CH$LINK: COMPTOX DTXSID4040763
AC$INSTRUMENT: TQD, Waters
AC$INSTRUMENT_TYPE: LC-ESI-QQ
AC$MASS_SPECTROMETRY: MS_TYPE MS2
AC$MASS_SPECTROMETRY: ION_MODE POSITIVE
AC$MASS_SPECTROMETRY: IONIZATION ESI
AC$MASS_SPECTROMETRY: COLLISION_ENERGY 40
MS$FOCUSED_ION: ION_TYPE [M+H]+
MS$FOCUSED_ION: PRECURSOR_M/Z 166.17
PK$SPLASH: splash10-0uk9-3900000000-8910b46279c99b817008
PK$NUM_PEAK: 11
PK$PEAK: m/z int. rel.int.
  76.0 7457.0 87
  77.0 25122.0 295
  79.0 15021.0 176
  90.0 2860.0 34
  91.0 11222.0 132
  93.0 3160.0 37
  102.0 19986.0 234
  103.0 85173.0 999
  118.0 5393.0 63
  119.0 17171.0 201
  120.0 53398.0 626
//
