ACCESSION: MSBNK-RIKEN_ReSpect-PS013603
RECORD_TITLE: beta-Pyridyl-alpha-N-methylpyrrolidine, (-)-Nicotine ; LC-ESI-QQ; MS2
DATE: 2009.02.09
AUTHORS: Sawada Y, Matsuda F, and Hirai MY. Plant Science Center, RIKEN
LICENSE: CC BY-NC
COPYRIGHT: Copyright(C) 2008 Plant Science Center, RIKEN
PUBLICATION: Sawada, Y.; Akiyama, K.; Sakata, A.; Kuwahara, A.; Otsuki, H.; Sakurai, T.; Saito, K.; Hirai, M. Y. Widely Targeted Metabolomics Based on Large-Scale MS/MS Data for Elucidating Metabolite Accumulation Patterns in Plants. Plant and Cell Physiology 2008, 50 (1), 37–47. DOI:10.1093/pcp/pcn183
COMMENT: Build 5
COMMENT: Data acquisition and generation is financially supported in part by CREST/JST.
COMMENT: Source compound SIGMA, N5511.
COMMENT: PRIMe compound in-house ID 136
COMMENT: This spectra was automatically generated from the raw data without manual curation of data quality.
COMMENT: The spectral data and services are available to the research and academic community only.
COMMENT: All users must cite follwing literature in publication(s).
CH$NAME: beta-Pyridyl-alpha-N-methylpyrrolidine
CH$NAME: (-)-Nicotine
CH$COMPOUND_CLASS: CLASS1 Alkaloid CLASS2 Nicotine CLASS3 Other
CH$FORMULA: C10H14N2
CH$EXACT_MASS: 162.236
CH$SMILES: CN1CCCC1C2=CN=CC=C2
CH$IUPAC: InChI=1S/C10H14N2/c1-12-7-3-5-10(12)9-4-2-6-11-8-9/h2,4,6,8,10H,3,5,7H2,1H3
CH$LINK: KEGG C00745
CH$LINK: PUBCHEM CID:89594
CH$LINK: INCHIKEY SNICXCGAKADSCV-UHFFFAOYSA-N
CH$LINK: COMPTOX DTXSID3048154
AC$INSTRUMENT: TQD, Waters
AC$INSTRUMENT_TYPE: LC-ESI-QQ
AC$MASS_SPECTROMETRY: MS_TYPE MS2
AC$MASS_SPECTROMETRY: ION_MODE POSITIVE
AC$MASS_SPECTROMETRY: IONIZATION ESI
AC$MASS_SPECTROMETRY: COLLISION_ENERGY 30
MS$FOCUSED_ION: ION_TYPE [M+H]+
MS$FOCUSED_ION: PRECURSOR_M/Z 163.21
PK$SPLASH: splash10-001i-1900000000-f745b0f7319e95c37887
PK$NUM_PEAK: 18
PK$PEAK: m/z int. rel.int.
  44.0 11642.0 124
  80.0 13244.0 141
  83.0 3820.0 41
  84.0 22112.0 235
  105.0 7032.0 75
  106.0 33267.0 353
  115.0 3015.0 32
  116.0 10742.0 114
  117.0 75278.0 800
  119.0 3785.0 40
  120.0 17487.0 186
  129.0 9589.0 102
  130.0 94022.0 999
  131.0 15044.0 160
  132.0 66596.0 708
  161.0 3589.0 38
  162.0 10105.0 107
  163.0 20021.0 213
//
