ACCESSION: MSBNK-RIKEN_ReSpect-PS024702
RECORD_TITLE: Guanosine-5'-triphosphate sodium salt, GTP, 5'-GTP; LC-ESI-QQ; MS2
DATE: 2009.02.09
AUTHORS: Sawada Y, Matsuda F, and Hirai MY. Plant Science Center, RIKEN
LICENSE: CC BY-NC
COPYRIGHT: Copyright(C) 2008 Plant Science Center, RIKEN
PUBLICATION: Sawada, Y.; Akiyama, K.; Sakata, A.; Kuwahara, A.; Otsuki, H.; Sakurai, T.; Saito, K.; Hirai, M. Y. Widely Targeted Metabolomics Based on Large-Scale MS/MS Data for Elucidating Metabolite Accumulation Patterns in Plants. Plant and Cell Physiology 2008, 50 (1), 37–47. DOI:10.1093/pcp/pcn183
COMMENT: Build 5
COMMENT: Data acquisition and generation is financially supported in part by CREST/JST.
COMMENT: Source compound SIGMA, G8877.
COMMENT: PRIMe compound in-house ID 247
COMMENT: This spectra was automatically generated from the raw data without manual curation of data quality.
COMMENT: The spectral data and services are available to the research and academic community only.
COMMENT: All users must cite follwing literature in publication(s).
CH$NAME: Guanosine-5'-triphosphate sodium salt
CH$NAME: GTP
CH$NAME: 5'-GTP
CH$COMPOUND_CLASS: CLASS1 Other CLASS2 Nucleotide CLASS3 Guanosine phosphate
CH$FORMULA: C10H16N5O14P3
CH$EXACT_MASS: 523.187
CH$SMILES: C1=NC2=C(N1C3C(C(C(O3)COP(=O)(O)OP(=O)(O)OP(=O)(O)O)O)O)NC(=NC2=O)N
CH$IUPAC: InChI=1S/C10H16N5O14P3/c11-10-13-7-4(8(18)14-10)12-2-15(7)9-6(17)5(16)3(27-9)1-26-31(22,23)29-32(24,25)28-30(19,20)21/h2-3,5-6,9,16-17H,1H2,(H,22,23)(H,24,25)(H2,19,20,21)(H3,11,13,14,18)
CH$LINK: KEGG C00044
CH$LINK: PUBCHEM CID:6830
CH$LINK: INCHIKEY XKMLYUALXHKNFT-UHFFFAOYSA-N
AC$INSTRUMENT: TQD, Waters
AC$INSTRUMENT_TYPE: LC-ESI-QQ
AC$MASS_SPECTROMETRY: MS_TYPE MS2
AC$MASS_SPECTROMETRY: ION_MODE POSITIVE
AC$MASS_SPECTROMETRY: IONIZATION ESI
AC$MASS_SPECTROMETRY: COLLISION_ENERGY 20
MS$FOCUSED_ION: ION_TYPE [M+H]+
MS$FOCUSED_ION: PRECURSOR_M/Z 524.32
PK$SPLASH: splash10-0fk9-0600090000-ec39ebfa9c8f53397196
PK$NUM_PEAK: 3
PK$PEAK: m/z int. rel.int.
  152.0 48024.0 999
  523.0 21857.0 455
  524.0 44829.0 933
//
