ACCESSION: MSBNK-RIKEN_ReSpect-PS031302
RECORD_TITLE: Propylacetic acid, 1-Butanecarboxylic acid, Valerate, Valerianic acid, Carboxylic Acid C5, n-Valeric acid, Pentanoic acid, Pentanoate, Pentane Acid; LC-ESI-QQ; MS2
DATE: 2009.02.09
AUTHORS: Sawada Y, Matsuda F, and Hirai MY. Plant Science Center, RIKEN
LICENSE: CC BY-NC
COPYRIGHT: Copyright(C) 2008 Plant Science Center, RIKEN
PUBLICATION: Sawada, Y.; Akiyama, K.; Sakata, A.; Kuwahara, A.; Otsuki, H.; Sakurai, T.; Saito, K.; Hirai, M. Y. Widely Targeted Metabolomics Based on Large-Scale MS/MS Data for Elucidating Metabolite Accumulation Patterns in Plants. Plant and Cell Physiology 2008, 50 (1), 37–47. DOI:10.1093/pcp/pcn183
COMMENT: Build 5
COMMENT: Data acquisition and generation is financially supported in part by CREST/JST.
COMMENT: Source compound SIGMA, V9759.
COMMENT: PRIMe compound in-house ID 313
COMMENT: This spectra was automatically generated from the raw data without manual curation of data quality.
COMMENT: The spectral data and services are available to the research and academic community only.
COMMENT: All users must cite follwing literature in publication(s).
CH$NAME: Propylacetic acid
CH$NAME: 1-Butanecarboxylic acid
CH$NAME: Valerate
CH$NAME: Valerianic acid
CH$NAME: Carboxylic Acid C5
CH$NAME: n-Valeric acid
CH$NAME: Pentanoic acid
CH$NAME: Pentanoate
CH$NAME: Pentane Acid
CH$COMPOUND_CLASS: CLASS1 Other CLASS2 Carboxylic acid CLASS3 Valeric acid
CH$FORMULA: C5H10O2
CH$EXACT_MASS: 102.133
CH$SMILES: CCCCC(=O)O
CH$IUPAC: InChI=1S/C5H10O2/c1-2-3-4-5(6)7/h2-4H2,1H3,(H,6,7)
CH$LINK: CAS 109-52-4
CH$LINK: KEGG C00803
CH$LINK: PUBCHEM CID:7991
CH$LINK: INCHIKEY NQPDZGIKBAWPEJ-UHFFFAOYSA-N
AC$INSTRUMENT: TQD, Waters
AC$INSTRUMENT_TYPE: LC-ESI-QQ
AC$MASS_SPECTROMETRY: MS_TYPE MS2
AC$MASS_SPECTROMETRY: ION_MODE POSITIVE
AC$MASS_SPECTROMETRY: IONIZATION ESI
AC$MASS_SPECTROMETRY: COLLISION_ENERGY 20
MS$FOCUSED_ION: ION_TYPE [M+H]+
MS$FOCUSED_ION: PRECURSOR_M/Z 102.11
PK$SPLASH: splash10-03dl-9000000000-8c81b455c0bca43ff5ad
PK$NUM_PEAK: 3
PK$PEAK: m/z int. rel.int.
  43.0 35459.0 576
  59.0 21230.0 345
  60.0 61540.0 999
//
