ACCESSION: MSBNK-RIKEN_ReSpect-PS084206
RECORD_TITLE: Datc-3-Glc-6pp-Rha, Datiscin, datiscetin-3-O-rutinoside; LC-ESI-QQ; MS2
DATE: 2009.02.09
AUTHORS: Sawada Y, Matsuda F, and Hirai MY. Plant Science Center, RIKEN
LICENSE: CC BY-NC
COPYRIGHT: Copyright(C) 2008 Plant Science Center, RIKEN
PUBLICATION: Sawada, Y.; Akiyama, K.; Sakata, A.; Kuwahara, A.; Otsuki, H.; Sakurai, T.; Saito, K.; Hirai, M. Y. Widely Targeted Metabolomics Based on Large-Scale MS/MS Data for Elucidating Metabolite Accumulation Patterns in Plants. Plant and Cell Physiology 2008, 50 (1), 37–47. DOI:10.1093/pcp/pcn183
COMMENT: Build 5
COMMENT: Data acquisition and generation is financially supported in part by CREST/JST.
COMMENT: Source compound EXTRASYNTHESE S.A, 86.
COMMENT: PRIMe compound in-house ID S0283
COMMENT: This spectra was automatically generated from the raw data without manual curation of data quality.
COMMENT: The spectral data and services are available to the research and academic community only.
COMMENT: All users must cite follwing literature in publication(s).
CH$NAME: Datc-3-Glc-6pp-Rha
CH$NAME: Datiscin
CH$NAME: datiscetin-3-O-rutinoside
CH$COMPOUND_CLASS: CLASS1 Flavonoid CLASS2 Flavonol CLASS3 Datiscetin glycoside
CH$FORMULA: C27H30O15
CH$EXACT_MASS: 594.522
CH$SMILES: CC1C(C(C(C(O1)OCC2C(C(C(C(O2)OC3=C(OC4=CC(=CC(=C4C3=O)O)O)C5=CC=CC=C5O)O)O)O)O)O)O
CH$IUPAC: InChI=1S/C27H30O15/c1-9-17(31)20(34)22(36)26(39-9)38-8-15-18(32)21(35)23(37)27(41-15)42-25-19(33)16-13(30)6-10(28)7-14(16)40-24(25)11-4-2-3-5-12(11)29/h2-7,9,15,17-18,20-23,26-32,34-37H,8H2,1H3
CH$LINK: CAS 16310-92-2
CH$LINK: PUBCHEM CID:5883291
CH$LINK: INCHIKEY BJJCTXDEJUWVIC-UHFFFAOYSA-N
AC$INSTRUMENT: TQD, Waters
AC$INSTRUMENT_TYPE: LC-ESI-QQ
AC$MASS_SPECTROMETRY: MS_TYPE MS2
AC$MASS_SPECTROMETRY: ION_MODE POSITIVE
AC$MASS_SPECTROMETRY: IONIZATION ESI
AC$MASS_SPECTROMETRY: COLLISION_ENERGY 60
MS$FOCUSED_ION: ION_TYPE [M+H]+
MS$FOCUSED_ION: PRECURSOR_M/Z 595.49
PK$SPLASH: splash10-000i-4090000000-780cfecccbf64deba8d8
PK$NUM_PEAK: 9
PK$PEAK: m/z int. rel.int.
  70.0 5047.0 51
  71.0 22933.0 233
  84.0 13261.0 135
  85.0 29617.0 301
  111.0 3583.0 36
  285.0 7990.0 81
  286.0 22731.0 231
  287.0 98428.0 999
  288.0 16616.0 169
//
