ACCESSION: MSBNK-RIKEN_ReSpect-PM000402
RECORD_TITLE: Protocatechuic acid; LC-ESI-QQ; MS2
DATE: 2006.04.20
AUTHORS: Sanchez-Rabaneda F, et al.
LICENSE: CC BY-NC
COPYRIGHT: Copyright(C) 2012 Plant Science Center, RIKEN
PUBLICATION: Sánchez-Rabaneda, F.; Jáuregui, O.; Casals, I.; Andrés-Lacueva, C.; Izquierdo-Pulido, M.; Lamuela-Raventós, R. M. Liquid Chromatographic/Electrospray Ionization Tandem Mass Spectrometric Study of the Phenolic Composition of Cocoa (Theobroma Cacao). Journal of Mass Spectrometry 2003, 38 (1), 35–42. DOI:10.1002/jms.395
COMMENT: 726
CH$NAME: Protocatechuic acid
CH$COMPOUND_CLASS: CLASS1 Other CLASS2 Benzoic acid CLASS3 Protocatechoic acid
CH$FORMULA: C7H6O4
CH$EXACT_MASS: 154.121
CH$SMILES: O=C(O)c1ccc(O)c(O)c1
CH$IUPAC: InChI=1S/C7H6O4/c8-5-2-1-4(7(10)11)3-6(5)9/h1-3,8-9H,(H,10,11)
CH$LINK: CAS 99-50-3
CH$LINK: INCHIKEY YQUVCSBJEUQKSH-UHFFFAOYSA-N
CH$LINK: PUBCHEM CID:72
CH$LINK: COMPTOX DTXSID4021212
SP$SAMPLE: Theobroma cacao
AC$INSTRUMENT: Agilent (Waldbronn, Germany) Model 1100; API 3000 triple-quadrupole mass spectrometer (Perkin-Elmer Sciex, Concord, ON, Canada)
AC$INSTRUMENT_TYPE: LC-ESI-QQ
AC$MASS_SPECTROMETRY: MS_TYPE MS2
AC$MASS_SPECTROMETRY: ION_MODE NEGATIVE
AC$MASS_SPECTROMETRY: IONIZATION ESI
AC$MASS_SPECTROMETRY: COLLISION_ENERGY -20
AC$CHROMATOGRAPHY: SOLVENT H2O/NH3CN/HCOOH
MS$FOCUSED_ION: ION_TYPE [M-H]-
MS$FOCUSED_ION: PRECURSOR_M/Z 153
PK$SPLASH: splash10-0a4i-0900000000-5c9c9dbf47ae88995509
PK$NUM_PEAK: 2
PK$PEAK: m/z int. rel.int.
  109.0 100.0 999
  153.0 35.0 350
//
