ACCESSION: MSBNK-RIKEN_ReSpect-PS026307
RECORD_TITLE: L-Hydroxybutanedioic acid, L-(-)-Malic acid, L-Malate, (S)-(?)-2-Hydroxysuccinic acid, Apple acid; LC-ESI-QQ; MS2
DATE: 2009.02.09
AUTHORS: Sawada Y, Matsuda F, and Hirai MY. Plant Science Center, RIKEN
LICENSE: CC BY-NC
COPYRIGHT: Copyright(C) 2008 Plant Science Center, RIKEN
PUBLICATION: Sawada, Y.; Akiyama, K.; Sakata, A.; Kuwahara, A.; Otsuki, H.; Sakurai, T.; Saito, K.; Hirai, M. Y. Widely Targeted Metabolomics Based on Large-Scale MS/MS Data for Elucidating Metabolite Accumulation Patterns in Plants. Plant and Cell Physiology 2008, 50 (1), 37–47. DOI:10.1093/pcp/pcn183
COMMENT: Build 5
COMMENT: Data acquisition and generation is financially supported in part by CREST/JST.
COMMENT: Source compound SIGMA, M6413.
COMMENT: PRIMe compound in-house ID 263
COMMENT: This spectra was automatically generated from the raw data without manual curation of data quality.
COMMENT: The spectral data and services are available to the research and academic community only.
COMMENT: All users must cite follwing literature in publication(s).
CH$NAME: L-Hydroxybutanedioic acid
CH$NAME: L-(-)-Malic acid
CH$NAME: L-Malate
CH$NAME: (S)-(?)-2-Hydroxysuccinic acid
CH$NAME: Apple acid
CH$COMPOUND_CLASS: CLASS1 Other CLASS2 Carboxylic acid CLASS3 Malic acid
CH$FORMULA: C4H6O5
CH$EXACT_MASS: 134.087
CH$SMILES: C(C(C(=O)O)O)C(=O)O
CH$IUPAC: InChI=1S/C4H6O5/c5-2(4(8)9)1-3(6)7/h2,5H,1H2,(H,6,7)(H,8,9)
CH$LINK: CAS 97-67-6
CH$LINK: KEGG C00149
CH$LINK: PUBCHEM CID:222656
CH$LINK: INCHIKEY BJEPYKJPYRNKOW-UHFFFAOYSA-N
AC$INSTRUMENT: TQD, Waters
AC$INSTRUMENT_TYPE: LC-ESI-QQ
AC$MASS_SPECTROMETRY: MS_TYPE MS2
AC$MASS_SPECTROMETRY: ION_MODE NEGATIVE
AC$MASS_SPECTROMETRY: IONIZATION ESI
AC$MASS_SPECTROMETRY: COLLISION_ENERGY 10
MS$FOCUSED_ION: ION_TYPE [M-H]-
MS$FOCUSED_ION: PRECURSOR_M/Z 133.06
PK$SPLASH: splash10-001i-0900000000-0661852f736a64e32484
PK$NUM_PEAK: 3
PK$PEAK: m/z int. rel.int.
  115.0 18800.0 133
  132.0 5116.0 36
  133.0 141127.0 999
//
