ACCESSION: MSBNK-RIKEN_ReSpect-PM000508
RECORD_TITLE: Apigenin 7-O-neohesperidoside; LC-ESI-QIT; MS2
DATE: 2006.04.21
AUTHORS: Cuyckens F, Rozenberg R, de Hoffmann E, & Claeys M
LICENSE: CC BY-NC
COPYRIGHT: Copyright(C) 2012 Plant Science Center, RIKEN
PUBLICATION: Cuyckens, F.; Rozenberg, R.; de Hoffmann, E.; Claeys, M. Structure Characterization of flavonoidO-Diglycosides by Positive and Negative Nano-Electrospray Ionization Ion Trap Mass Spectrometry. Journal of Mass Spectrometry 2001, 36 (11), 1203–10. DOI:10.1002/jms.224
COMMENT: 727
CH$NAME: Apigenin 7-O-neohesperidoside
CH$COMPOUND_CLASS: CLASS1 Flavonoid CLASS2 Flavone CLASS3 Apigenin glycoside
CH$FORMULA: C27H30O14
CH$EXACT_MASS: 578.523
CH$SMILES: C[C@@H]1O[C@@H](O[C@H]2C(Oc3cc(O)c4c(=O)cc(-c5ccc(O)cc5)oc4c3)O[C@H](CO)[C@@H](O)[C@@H]2O)[C@H](O)[C@H](O)[C@H]1O
CH$IUPAC: InChI=1S/C27H30O14/c1-10-20(32)22(34)24(36)26(37-10)41-25-23(35)21(33)18(9-28)40-27(25)38-13-6-14(30)19-15(31)8-16(39-17(19)7-13)11-2-4-12(29)5-3-11/h2-8,10,18,20-30,32-36H,9H2,1H3/t10-,18+,20-,21+,22+,23-,24+,25+,26-,27?/m0/s1
CH$LINK: CAS 17306-46-6
CH$LINK: INCHIKEY RPMNUQRUHXIGHK-DOVNQBDMSA-N
CH$LINK: PUBCHEM CID:45479322
SP$SAMPLE: authentic sample
AC$INSTRUMENT: LCQ mass spectrometer (Finnigan MAT, San Jose, CA, USA)
AC$INSTRUMENT_TYPE: LC-ESI-QIT
AC$MASS_SPECTROMETRY: MS_TYPE MS2
AC$MASS_SPECTROMETRY: ION_MODE NEGATIVE
AC$MASS_SPECTROMETRY: IONIZATION ESI
AC$MASS_SPECTROMETRY: COLLISION_ENERGY 35%
AC$CHROMATOGRAPHY: SOLVENT H2O/MeOH
MS$FOCUSED_ION: ION_TYPE [M-H]-
MS$FOCUSED_ION: PRECURSOR_M/Z 577
PK$SPLASH: splash10-014i-0090100000-3dca1f700a2dbac00de2
PK$NUM_PEAK: 7
PK$PEAK: m/z int. rel.int.
  269.0 100.0 999
  293.0 1.0 10
  311.0 6.0 60
  371.0 3.0 30
  413.0 6.0 60
  431.0 6.0 60
  457.0 6.0 60
//
