ACCESSION: MSBNK-RIKEN_ReSpect-PS005406
RECORD_TITLE: L-(-)-Phenylalanine, L-2-Amino-3-phenylpropionic acid, (S)-alpha-Amino-benzenepropanoic acid, (S)-a-Aminohydrocinnamic acid, L-Phe; LC-ESI-QQ; MS2
DATE: 2009.02.09
AUTHORS: Sawada Y, Matsuda F, and Hirai MY. Plant Science Center, RIKEN
LICENSE: CC BY-NC
COPYRIGHT: Copyright(C) 2008 Plant Science Center, RIKEN
PUBLICATION: Sawada, Y.; Akiyama, K.; Sakata, A.; Kuwahara, A.; Otsuki, H.; Sakurai, T.; Saito, K.; Hirai, M. Y. Widely Targeted Metabolomics Based on Large-Scale MS/MS Data for Elucidating Metabolite Accumulation Patterns in Plants. Plant and Cell Physiology 2008, 50 (1), 37–47. DOI:10.1093/pcp/pcn183
COMMENT: Build 5
COMMENT: Data acquisition and generation is financially supported in part by CREST/JST.
COMMENT: Source compound WAKO, 163-01301.
COMMENT: PRIMe compound in-house ID 54
COMMENT: This spectra was automatically generated from the raw data without manual curation of data quality.
COMMENT: The spectral data and services are available to the research and academic community only.
COMMENT: All users must cite follwing literature in publication(s).
CH$NAME: L-(-)-Phenylalanine
CH$NAME: L-2-Amino-3-phenylpropionic acid
CH$NAME: (S)-alpha-Amino-benzenepropanoic acid
CH$NAME: (S)-a-Aminohydrocinnamic acid
CH$NAME: L-Phe
CH$COMPOUND_CLASS: CLASS1 Amino acid CLASS2 Phenylalanine
CH$FORMULA: C9H11NO2
CH$EXACT_MASS: 165.192
CH$SMILES: C1=CC=C(C=C1)C[C@@H](C(=O)O)N
CH$IUPAC: InChI=1S/C9H11NO2/c10-8(9(11)12)6-7-4-2-1-3-5-7/h1-5,8H,6,10H2,(H,11,12)/t8-/m0/s1
CH$LINK: CAS 63-91-2
CH$LINK: KEGG C00079
CH$LINK: PUBCHEM CID:6140
CH$LINK: INCHIKEY COLNVLDHVKWLRT-QMMMGPOBSA-N
CH$LINK: COMPTOX DTXSID4040763
AC$INSTRUMENT: TQD, Waters
AC$INSTRUMENT_TYPE: LC-ESI-QQ
AC$MASS_SPECTROMETRY: MS_TYPE MS2
AC$MASS_SPECTROMETRY: ION_MODE POSITIVE
AC$MASS_SPECTROMETRY: IONIZATION ESI
AC$MASS_SPECTROMETRY: COLLISION_ENERGY 60
MS$FOCUSED_ION: ION_TYPE [M+H]+
MS$FOCUSED_ION: PRECURSOR_M/Z 166.17
PK$SPLASH: splash10-0fb9-9500000000-dd8c597f1e542b911e9f
PK$NUM_PEAK: 12
PK$PEAK: m/z int. rel.int.
  42.0 1216.0 30
  50.0 1875.0 47
  51.0 1731.0 43
  76.0 3839.0 96
  77.0 40101.0 999
  79.0 8040.0 200
  91.0 6072.0 151
  93.0 2086.0 52
  102.0 12730.0 317
  103.0 26941.0 671
  119.0 1280.0 32
  120.0 1264.0 31
//
