ACCESSION: MSBNK-RIKEN_ReSpect-PS038902
RECORD_TITLE: Piperidinic acid, 4-Aminobutanoic acid, Piperidic acid, 4-Aminobutylate, 4-Aminobutyric acid, Aminalon, GABA, gamma-Amino-n-butyric acid; LC-ESI-QQ; MS2
DATE: 2009.02.09
AUTHORS: Sawada Y, Matsuda F, and Hirai MY. Plant Science Center, RIKEN
LICENSE: CC BY-NC
COPYRIGHT: Copyright(C) 2008 Plant Science Center, RIKEN
PUBLICATION: Sawada, Y.; Akiyama, K.; Sakata, A.; Kuwahara, A.; Otsuki, H.; Sakurai, T.; Saito, K.; Hirai, M. Y. Widely Targeted Metabolomics Based on Large-Scale MS/MS Data for Elucidating Metabolite Accumulation Patterns in Plants. Plant and Cell Physiology 2008, 50 (1), 37–47. DOI:10.1093/pcp/pcn183
COMMENT: Build 5
COMMENT: Data acquisition and generation is financially supported in part by CREST/JST.
COMMENT: Source compound SIGMA, A5835.
COMMENT: PRIMe compound in-house ID 389
COMMENT: This spectra was automatically generated from the raw data without manual curation of data quality.
COMMENT: The spectral data and services are available to the research and academic community only.
COMMENT: All users must cite follwing literature in publication(s).
CH$NAME: Piperidinic acid
CH$NAME: 4-Aminobutanoic acid
CH$NAME: Piperidic acid
CH$NAME: 4-Aminobutylate
CH$NAME: 4-Aminobutyric acid
CH$NAME: Aminalon
CH$NAME: GABA
CH$NAME: gamma-Amino-n-butyric acid
CH$COMPOUND_CLASS: CLASS1 Amino acid CLASS2 Other CLASS3 GABA
CH$FORMULA: C4H9NO2
CH$EXACT_MASS: 103.121
CH$SMILES: C(CC(=O)O)CN
CH$IUPAC: InChI=1S/C4H9NO2/c5-3-1-2-4(6)7/h1-3,5H2,(H,6,7)
CH$LINK: KEGG C00334
CH$LINK: PUBCHEM CID:119
CH$LINK: INCHIKEY BTCSSZJGUNDROE-UHFFFAOYSA-N
AC$INSTRUMENT: TQD, Waters
AC$INSTRUMENT_TYPE: LC-ESI-QQ
AC$MASS_SPECTROMETRY: MS_TYPE MS2
AC$MASS_SPECTROMETRY: ION_MODE POSITIVE
AC$MASS_SPECTROMETRY: IONIZATION ESI
AC$MASS_SPECTROMETRY: COLLISION_ENERGY 20
MS$FOCUSED_ION: ION_TYPE [M+H]+
MS$FOCUSED_ION: PRECURSOR_M/Z 104.08
PK$SPLASH: splash10-000i-9000000000-c45ac5e7a064cc2dda32
PK$NUM_PEAK: 11
PK$PEAK: m/z int. rel.int.
  41.0 7295.0 96
  42.0 13189.0 173
  43.0 28664.0 377
  44.0 15582.0 205
  45.0 45152.0 593
  68.0 3801.0 50
  69.0 27520.0 361
  86.0 54724.0 719
  87.0 76055.0 999
  103.0 10109.0 133
  104.0 8054.0 106
//
