ACCESSION: MSBNK-RIKEN_ReSpect-PS035408
RECORD_TITLE: Thioglycolic acid solution , Mercaptoacetic acid, Mercaptoethanoic acid, Thioglycolate, Thiovanic acid, TGA, Mercaptoacetate; LC-ESI-QQ; MS2
DATE: 2009.02.09
AUTHORS: Sawada Y, Matsuda F, and Hirai MY. Plant Science Center, RIKEN
LICENSE: CC BY-NC
COPYRIGHT: Copyright(C) 2008 Plant Science Center, RIKEN
PUBLICATION: Sawada, Y.; Akiyama, K.; Sakata, A.; Kuwahara, A.; Otsuki, H.; Sakurai, T.; Saito, K.; Hirai, M. Y. Widely Targeted Metabolomics Based on Large-Scale MS/MS Data for Elucidating Metabolite Accumulation Patterns in Plants. Plant and Cell Physiology 2008, 50 (1), 37–47. DOI:10.1093/pcp/pcn183
COMMENT: Build 5
COMMENT: Data acquisition and generation is financially supported in part by CREST/JST.
COMMENT: Source compound SIGMA, T6750.
COMMENT: PRIMe compound in-house ID 354
COMMENT: This spectra was automatically generated from the raw data without manual curation of data quality.
COMMENT: The spectral data and services are available to the research and academic community only.
COMMENT: All users must cite follwing literature in publication(s).
CH$NAME: Thioglycolic acid solution
CH$NAME: Mercaptoacetic acid
CH$NAME: Mercaptoethanoic acid
CH$NAME: Thioglycolate
CH$NAME: Thiovanic acid
CH$NAME: TGA
CH$NAME: Mercaptoacetate
CH$COMPOUND_CLASS: CLASS1 Other CLASS2 Other CLASS3 Other
CH$FORMULA: C2H4O2S
CH$EXACT_MASS: 92.117
CH$SMILES: C(C(=O)O)S
CH$IUPAC: InChI=1S/C2H4O2S/c3-2(4)1-5/h5H,1H2,(H,3,4)
CH$LINK: KEGG C02086
CH$LINK: PUBCHEM CID:1133
CH$LINK: INCHIKEY CWERGRDVMFNCDR-UHFFFAOYSA-N
AC$INSTRUMENT: TQD, Waters
AC$INSTRUMENT_TYPE: LC-ESI-QQ
AC$MASS_SPECTROMETRY: MS_TYPE MS2
AC$MASS_SPECTROMETRY: ION_MODE NEGATIVE
AC$MASS_SPECTROMETRY: IONIZATION ESI
AC$MASS_SPECTROMETRY: COLLISION_ENERGY 20
MS$FOCUSED_ION: ION_TYPE [M-H]-
MS$FOCUSED_ION: PRECURSOR_M/Z 91
PK$SPLASH: splash10-0002-9000000000-c12cc5ad66b16232faef
PK$NUM_PEAK: 3
PK$PEAK: m/z int. rel.int.
  44.0 18313.0 170
  45.0 107593.0 999
  91.0 5686.0 53
//
