ACCESSION: MSBNK-RIKEN_ReSpect-PS020301
RECORD_TITLE: DL-Dapm, DL-2,6-Diaminoheptanedioic acid, M-DAP, DL-alpha,epsilon-Diaminopimelic acid, DL-2,6-Diaminopimelate; LC-ESI-QQ; MS2
DATE: 2009.02.09
AUTHORS: Sawada Y, Matsuda F, and Hirai MY. Plant Science Center, RIKEN
LICENSE: CC BY-NC
COPYRIGHT: Copyright(C) 2008 Plant Science Center, RIKEN
PUBLICATION: Sawada, Y.; Akiyama, K.; Sakata, A.; Kuwahara, A.; Otsuki, H.; Sakurai, T.; Saito, K.; Hirai, M. Y. Widely Targeted Metabolomics Based on Large-Scale MS/MS Data for Elucidating Metabolite Accumulation Patterns in Plants. Plant and Cell Physiology 2008, 50 (1), 37–47. DOI:10.1093/pcp/pcn183
COMMENT: Build 5
COMMENT: Data acquisition and generation is financially supported in part by CREST/JST.
COMMENT: Source compound SIGMA, D1377.
COMMENT: PRIMe compound in-house ID 203
COMMENT: This spectra was automatically generated from the raw data without manual curation of data quality.
COMMENT: The spectral data and services are available to the research and academic community only.
COMMENT: All users must cite follwing literature in publication(s).
CH$NAME: DL-Dapm
CH$NAME: DL-2,6-Diaminoheptanedioic acid
CH$NAME: M-DAP
CH$NAME: DL-alpha,epsilon-Diaminopimelic acid
CH$NAME: DL-2,6-Diaminopimelate
CH$COMPOUND_CLASS: CLASS1 Other CLASS2 Carboxylic acid CLASS3 Pimelic acid
CH$FORMULA: C7H14N2O4
CH$EXACT_MASS: 190.199
CH$SMILES: C(C[C@H](C(=O)O)N)C[C@@H](C(=O)O)N
CH$IUPAC: InChI=1S/C7H14N2O4/c8-4(6(10)11)2-1-3-5(9)7(12)13/h4-5H,1-3,8-9H2,(H,10,11)(H,12,13)/t4-,5+
CH$LINK: CAS 583-93-7
CH$LINK: KEGG C00680
CH$LINK: PUBCHEM CID:99290
CH$LINK: INCHIKEY GMKMEZVLHJARHF-SYDPRGILSA-N
AC$INSTRUMENT: TQD, Waters
AC$INSTRUMENT_TYPE: LC-ESI-QQ
AC$MASS_SPECTROMETRY: MS_TYPE MS2
AC$MASS_SPECTROMETRY: ION_MODE POSITIVE
AC$MASS_SPECTROMETRY: IONIZATION ESI
AC$MASS_SPECTROMETRY: COLLISION_ENERGY 10
MS$FOCUSED_ION: ION_TYPE [M+H]+
MS$FOCUSED_ION: PRECURSOR_M/Z 191.23
PK$SPLASH: splash10-0006-0900000000-4b3c9c74add92a4080d9
PK$NUM_PEAK: 3
PK$PEAK: m/z int. rel.int.
  173.0 36998.0 34
  190.0 78703.0 73
  191.0 1079970.0 999
//
