ACCESSION: MSBNK-RIKEN_ReSpect-PS022001
RECORD_TITLE: DL-beta-Hydroxybutyric acid; LC-ESI-QQ; MS2
DATE: 2009.02.09
AUTHORS: Sawada Y, Matsuda F, and Hirai MY. Plant Science Center, RIKEN
LICENSE: CC BY-NC
COPYRIGHT: Copyright(C) 2008 Plant Science Center, RIKEN
PUBLICATION: Sawada, Y.; Akiyama, K.; Sakata, A.; Kuwahara, A.; Otsuki, H.; Sakurai, T.; Saito, K.; Hirai, M. Y. Widely Targeted Metabolomics Based on Large-Scale MS/MS Data for Elucidating Metabolite Accumulation Patterns in Plants. Plant and Cell Physiology 2008, 50 (1), 37–47. DOI:10.1093/pcp/pcn183
COMMENT: Build 5
COMMENT: Data acquisition and generation is financially supported in part by CREST/JST.
COMMENT: Source compound SIGMA(Aldrich), H9256(166898).
COMMENT: PRIMe compound in-house ID 220
COMMENT: This spectra was automatically generated from the raw data without manual curation of data quality.
COMMENT: The spectral data and services are available to the research and academic community only.
COMMENT: All users must cite follwing literature in publication(s).
CH$NAME: DL-3-Hydroxybutyrate
CH$NAME: DL-beta-Hydroxybutyric acid
CH$NAME: DL-3-Hydroxybutyric acid
CH$NAME: (+/-)-3-Hydroxybutanoic acid
CH$COMPOUND_CLASS: CLASS1 Other CLASS2 Carboxylic acid CLASS3 Butyric acid
CH$FORMULA: C4H8O3
CH$EXACT_MASS: 104.105
CH$SMILES: CC(CC(=O)O)O
CH$IUPAC: InChI=1S/C4H8O3/c1-3(5)2-4(6)7/h3,5H,2H2,1H3,(H,6,7)
CH$LINK: CAS 300-85-6
CH$LINK: KEGG C01089
CH$LINK: PUBCHEM CID:441
CH$LINK: INCHIKEY WHBMMWSBFZVSSR-UHFFFAOYSA-N
AC$INSTRUMENT: TQD, Waters
AC$INSTRUMENT_TYPE: LC-ESI-QQ
AC$MASS_SPECTROMETRY: MS_TYPE MS2
AC$MASS_SPECTROMETRY: ION_MODE POSITIVE
AC$MASS_SPECTROMETRY: IONIZATION ESI
AC$MASS_SPECTROMETRY: COLLISION_ENERGY 10
MS$FOCUSED_ION: ION_TYPE [M+H]+
MS$FOCUSED_ION: PRECURSOR_M/Z 105.09
PK$SPLASH: splash10-03di-9000000000-4bf4d516874bbd65ab22
PK$NUM_PEAK: 3
PK$PEAK: m/z int. rel.int.
  23.0 37175.0 115
  63.0 86907.0 268
  64.0 323882.0 999
//
