ACCESSION: MSBNK-RIKEN_ReSpect-PS061703
RECORD_TITLE: (R)-3-Amino-4-methylvaleric acid, L-beta-Leucine hydrochloride, (R)-3-Amino-4-methylpentanoic acid hydrochloride, L-beta-homovaline-HCl; LC-ESI-QQ; MS2
DATE: 2009.02.09
AUTHORS: Sawada Y, Matsuda F, and Hirai MY. Plant Science Center, RIKEN
LICENSE: CC BY-NC
COPYRIGHT: Copyright(C) 2008 Plant Science Center, RIKEN
PUBLICATION: Sawada, Y.; Akiyama, K.; Sakata, A.; Kuwahara, A.; Otsuki, H.; Sakurai, T.; Saito, K.; Hirai, M. Y. Widely Targeted Metabolomics Based on Large-Scale MS/MS Data for Elucidating Metabolite Accumulation Patterns in Plants. Plant and Cell Physiology 2008, 50 (1), 37–47. DOI:10.1093/pcp/pcn183
COMMENT: Build 5
COMMENT: Data acquisition and generation is financially supported in part by CREST/JST.
COMMENT: Source compound Peptech, BL822.
COMMENT: PRIMe compound in-house ID T0139
COMMENT: This spectra was automatically generated from the raw data without manual curation of data quality.
COMMENT: The spectral data and services are available to the research and academic community only.
COMMENT: All users must cite follwing literature in publication(s).
CH$NAME: (R)-3-Amino-4-methylvaleric acid
CH$NAME: L-beta-Leucine hydrochloride
CH$NAME: (R)-3-Amino-4-methylpentanoic acid hydrochloride
CH$NAME: L-beta-homovaline-HCl
CH$COMPOUND_CLASS: CLASS1 Amino acid CLASS2 Valine
CH$FORMULA: C6H13NO2
CH$EXACT_MASS: 131.175
CH$SMILES: CC(C)C(CC(=O)O)N
CH$IUPAC: InChI=1S/C6H13NO2/c1-4(2)5(7)3-6(8)9/h4-5H,3,7H2,1-2H3,(H,8,9)
CH$LINK: CAS 219310-09-5
CH$LINK: KEGG C02486
CH$LINK: PUBCHEM CID:2761558
CH$LINK: INCHIKEY GLUJNGJDHCTUJY-UHFFFAOYSA-N
AC$INSTRUMENT: TQD, Waters
AC$INSTRUMENT_TYPE: LC-ESI-QQ
AC$MASS_SPECTROMETRY: MS_TYPE MS2
AC$MASS_SPECTROMETRY: ION_MODE POSITIVE
AC$MASS_SPECTROMETRY: IONIZATION ESI
AC$MASS_SPECTROMETRY: COLLISION_ENERGY 30
MS$FOCUSED_ION: ION_TYPE [M+H]+
MS$FOCUSED_ION: PRECURSOR_M/Z 132.15
PK$SPLASH: splash10-00di-9000000000-46f4e23b99fc07e6dfa2
PK$NUM_PEAK: 10
PK$PEAK: m/z int. rel.int.
  40.0 11306.0 96
  41.0 44559.0 377
  54.0 7659.0 65
  55.0 55724.0 471
  68.0 13283.0 112
  69.0 50359.0 426
  71.0 23768.0 201
  72.0 118108.0 999
  73.0 22373.0 189
  132.0 5607.0 47
//
