ACCESSION: MSBNK-RIKEN_ReSpect-PS056602
RECORD_TITLE: cis-9-Hexadecenoic acid, Palmitolinoleic acid, Palmitoleic acid, Palmitoleate; LC-ESI-QQ; MS2
DATE: 2009.02.09
AUTHORS: Sawada Y, Matsuda F, and Hirai MY. Plant Science Center, RIKEN
LICENSE: CC BY-NC
COPYRIGHT: Copyright(C) 2008 Plant Science Center, RIKEN
PUBLICATION: Sawada, Y.; Akiyama, K.; Sakata, A.; Kuwahara, A.; Otsuki, H.; Sakurai, T.; Saito, K.; Hirai, M. Y. Widely Targeted Metabolomics Based on Large-Scale MS/MS Data for Elucidating Metabolite Accumulation Patterns in Plants. Plant and Cell Physiology 2008, 50 (1), 37–47. DOI:10.1093/pcp/pcn183
COMMENT: Build 5
COMMENT: Data acquisition and generation is financially supported in part by CREST/JST.
COMMENT: Source compound MPBio, 156044.
COMMENT: PRIMe compound in-house ID T0074
COMMENT: This spectra was automatically generated from the raw data without manual curation of data quality.
COMMENT: The spectral data and services are available to the research and academic community only.
COMMENT: All users must cite follwing literature in publication(s).
CH$NAME: cis-9-Hexadecenoic acid
CH$NAME: Palmitolinoleic acid
CH$NAME: Palmitoleic acid
CH$NAME: Palmitoleate
CH$COMPOUND_CLASS: CLASS1 Other CLASS2 Carboxylic acid CLASS3 Hexadecenoic acid
CH$FORMULA: C16H30O2
CH$EXACT_MASS: 254.414
CH$SMILES: CCCCCCC=CCCCCCCCC(=O)O
CH$IUPAC: InChI=1S/C16H30O2/c1-2-3-4-5-6-7-8-9-10-11-12-13-14-15-16(17)18/h7-8H,2-6,9-15H2,1H3,(H,17,18)
CH$LINK: CAS 373-49-9
CH$LINK: KEGG C08362
CH$LINK: PUBCHEM CID:445638
CH$LINK: INCHIKEY SECPZKHBENQXJG-UHFFFAOYSA-N
AC$INSTRUMENT: TQD, Waters
AC$INSTRUMENT_TYPE: LC-ESI-QQ
AC$MASS_SPECTROMETRY: MS_TYPE MS2
AC$MASS_SPECTROMETRY: ION_MODE POSITIVE
AC$MASS_SPECTROMETRY: IONIZATION ESI
AC$MASS_SPECTROMETRY: COLLISION_ENERGY 20
MS$FOCUSED_ION: ION_TYPE [M+H]+
MS$FOCUSED_ION: PRECURSOR_M/Z 254.46
PK$SPLASH: splash10-0udi-0290000000-615c54cca35f2624dfad
PK$NUM_PEAK: 2
PK$PEAK: m/z int. rel.int.
  111.0 32211.0 311
  254.0 103390.0 999
//
