ACCESSION: MSBNK-IPB_Halle-PB000745
RECORD_TITLE: Ononin; LC-ESI-QTOF; MS2; CE:15 eV; [M+H]+
DATE: 2016.01.19 (Created 2008.03.23, modified 2013.06.04)
AUTHORS: Boettcher C, Institute of Plant Biochemistry, Halle, Germany
LICENSE: CC BY-SA
COMMENT: IPB_RECORD: 381
COMMENT: CONFIDENCE confident structure
CH$NAME: Ononin
CH$NAME: 3-(4-methoxyphenyl)-7-[(2S,3R,4S,5S,6R)-3,4,5-trihydroxy-6-(hydroxymethyl)oxan-2-yl]oxychromen-4-one
CH$COMPOUND_CLASS: Natural Product
CH$FORMULA: C22H22O9
CH$EXACT_MASS: 430.12638
CH$SMILES: COC1=CC=C(C=C1)C2=COC3=C(C2=O)C=CC(=C3)O[C@H]4[C@@H]([C@H]([C@@H]([C@H](O4)CO)O)O)O
CH$IUPAC: InChI=1S/C22H22O9/c1-28-12-4-2-11(3-5-12)15-10-29-16-8-13(6-7-14(16)18(15)24)30-22-21(27)20(26)19(25)17(9-23)31-22/h2-8,10,17,19-23,25-27H,9H2,1H3/t17-,19-,20+,21-,22-/m1/s1
CH$LINK: INCHIKEY MGJLSBDCWOSMHL-MIUGBVLSSA-N
CH$LINK: KEGG C10509
CH$LINK: PUBCHEM CID:442813
CH$LINK: COMPTOX DTXSID70964089
AC$INSTRUMENT: API QSTAR Pulsar i
AC$INSTRUMENT_TYPE: LC-ESI-QTOF
AC$MASS_SPECTROMETRY: MS_TYPE MS2
AC$MASS_SPECTROMETRY: ION_MODE POSITIVE
AC$MASS_SPECTROMETRY: COLLISION_ENERGY 15 eV
AC$MASS_SPECTROMETRY: IONIZATION ESI
MS$FOCUSED_ION: PRECURSOR_TYPE [M+H]+
PK$SPLASH: splash10-0159-0090600000-0bd2d7a22643c7b7e7d8
PK$NUM_PEAK: 2
PK$PEAK: m/z int. rel.int.
  269.081 10000.000 999
  431.134 6915.754 690
//
