ACCESSION: MSBNK-IPB_Halle-PB000388
RECORD_TITLE: Valine; LC-ESI-QTOF; MS2; CE:10 eV; [M+H]+
DATE: 2016.01.19 (Created 2008.01.02, modified 2013.06.04)
AUTHORS: Boettcher C, Institute of Plant Biochemistry, Halle, Germany
LICENSE: CC BY-SA
COMMENT: IPB_RECORD: 246
COMMENT: CONFIDENCE confident structure
CH$NAME: Valine
CH$NAME: 2-amino-3-methylbutanoic acid
CH$COMPOUND_CLASS: Natural Product; amino acid
CH$FORMULA: C5H11NO2
CH$EXACT_MASS: 117.07898
CH$SMILES: CC(C)C(C(=O)O)N
CH$IUPAC: InChI=1S/C5H11NO2/c1-3(2)4(6)5(7)8/h3-4H,6H2,1-2H3,(H,7,8)
CH$LINK: INCHIKEY KZSNJWFQEVHDMF-UHFFFAOYSA-N
CH$LINK: KEGG C00183
CH$LINK: PUBCHEM CID:1182
CH$LINK: COMPTOX DTXSID70859522
AC$INSTRUMENT: API QSTAR Pulsar i
AC$INSTRUMENT_TYPE: LC-ESI-QTOF
AC$MASS_SPECTROMETRY: MS_TYPE MS2
AC$MASS_SPECTROMETRY: ION_MODE POSITIVE
AC$MASS_SPECTROMETRY: COLLISION_ENERGY 10 eV
AC$MASS_SPECTROMETRY: IONIZATION ESI
MS$FOCUSED_ION: PRECURSOR_TYPE [M+H]+
PK$SPLASH: splash10-01b9-5900000000-cb4e7bfd595dddb15381
PK$NUM_PEAK: 2
PK$PEAK: m/z int. rel.int.
  72.082 5857.235 584
  118.090 10000.000 999
//
