ACCESSION: MSBNK-IPB_Halle-PN000048
RECORD_TITLE: Chrysoeriol glucosylglucoside; ESI-TOF; MS2; CE:25 eV; [M-H]-
DATE: 2011.03.19
AUTHORS: Institute of Bioorganic Chemistry, Polish Academy of Sciences,Poland/Anna Staszków
LICENSE: CC BY-SA
COPYRIGHT: Copyright(C) 2011
COMMENT: lupinus_mexico
CH$NAME: Chrysoeriol glucosylglucoside
CH$COMPOUND_CLASS: Natural Product; flavone
CH$FORMULA: C28H32O16
CH$EXACT_MASS: 624.169034944
CH$SMILES: N/A
CH$IUPAC: N/A
AC$INSTRUMENT: micrOTOF-Q
AC$INSTRUMENT_TYPE: ESI-TOF
AC$MASS_SPECTROMETRY: MS_TYPE MS2
AC$MASS_SPECTROMETRY: ION_MODE NEGATIVE
AC$MASS_SPECTROMETRY: IONIZATION ESI
AC$MASS_SPECTROMETRY: ISOLATION_WIDTH 7
AC$MASS_SPECTROMETRY: COLLISION_ENERGY 25 eV
AC$MASS_SPECTROMETRY: COLLISION_GAS argon
AC$MASS_SPECTROMETRY: PEAK_WIDTH 0.024
AC$MASS_SPECTROMETRY: MASS_RANGE_M/Z 44.7412-1204.75
AC$CHROMATOGRAPHY: RETENTION_TIME 298.397 sec
AC$CHROMATOGRAPHY: COLUMN_NAME Poroshell 120,EC-C18 2.1x100mm,2.7um
MS$FOCUSED_ION: PRECURSOR_M/Z 623.167
MS$FOCUSED_ION: PRECURSOR_TYPE [M-H]-
MS$FOCUSED_ION: BASE_PEAK 299.054
MS$DATA_PROCESSING: CHARGE_DECONVOLUTION 2
PK$SPLASH: splash10-0002-0091002000-cad3faf68d2972e24093
PK$NUM_PEAK: 7
PK$PEAK: m/z int. rel.int.
  284.033 41 41
  299.055 999 999
  300.057 116 116
  301.060 27 27
  623.166 157 157
  624.174 45 45
  625.175 30 30
//
