ACCESSION: MSBNK-IPB_Halle-PB000437
RECORD_TITLE: Cysteine; LC-ESI-QTOF; MS2; CE:15 eV; [M+H]+
DATE: 2016.01.19 (Created 2008.01.02, modified 2013.06.04)
AUTHORS: Boettcher C, Institute of Plant Biochemistry, Halle, Germany
LICENSE: CC BY-SA
COMMENT: IPB_RECORD: 258
COMMENT: CONFIDENCE confident structure
CH$NAME: Cysteine
CH$NAME: 2-amino-3-sulfanylpropanoic acid
CH$COMPOUND_CLASS: Natural Product; amino acid
CH$FORMULA: C3H7NO2S
CH$EXACT_MASS: 121.01975
CH$SMILES: C(C(C(=O)O)N)S
CH$IUPAC: InChI=1S/C3H7NO2S/c4-2(1-7)3(5)6/h2,7H,1,4H2,(H,5,6)
CH$LINK: INCHIKEY XUJNEKJLAYXESH-UHFFFAOYSA-N
CH$LINK: KEGG C00097
CH$LINK: PUBCHEM CID:594
CH$LINK: COMPTOX DTXSID5046988
AC$INSTRUMENT: API QSTAR Pulsar i
AC$INSTRUMENT_TYPE: LC-ESI-QTOF
AC$MASS_SPECTROMETRY: MS_TYPE MS2
AC$MASS_SPECTROMETRY: ION_MODE POSITIVE
AC$MASS_SPECTROMETRY: COLLISION_ENERGY 15 eV
AC$MASS_SPECTROMETRY: IONIZATION ESI
MS$FOCUSED_ION: PRECURSOR_TYPE [M+H]+
PK$SPLASH: splash10-056r-9500000000-f162f0f0e76fc5e48fae
PK$NUM_PEAK: 6
PK$PEAK: m/z int. rel.int.
  58.996 1129.763 111
  76.022 10000.000 999
  86.990 3512.590 350
  88.040 83.328 7
  105.001 4796.933 478
  122.029 3485.418 347
//
