ACCESSION: MSBNK-IPB_Halle-PN000025
RECORD_TITLE: 2'-Hydroxygenistein C-glucoside malonylated; ESI-TOF; MS2; CE:25 eV; [M-H]-
DATE: 2011.03.19
AUTHORS: Institute of Bioorganic Chemistry, Polish Academy of Sciences,Poland/Anna Staszków
LICENSE: CC BY-SA
COPYRIGHT: Copyright(C) 2011
COMMENT: lupinus_mexico
CH$NAME: 2'-Hydroxygenistein C-glucoside malonylated
CH$NAME: 2'Hydroxygenistein C-glucoside malonylated
CH$COMPOUND_CLASS: Natural Product; isoflavone
CH$FORMULA: C24H22O14
CH$EXACT_MASS: 534.1009553839999
CH$SMILES: N/A
CH$IUPAC: N/A
AC$INSTRUMENT: micrOTOF-Q
AC$INSTRUMENT_TYPE: ESI-TOF
AC$MASS_SPECTROMETRY: MS_TYPE MS2
AC$MASS_SPECTROMETRY: ION_MODE NEGATIVE
AC$MASS_SPECTROMETRY: IONIZATION ESI
AC$MASS_SPECTROMETRY: ISOLATION_WIDTH 7
AC$MASS_SPECTROMETRY: COLLISION_ENERGY 25 eV
AC$MASS_SPECTROMETRY: COLLISION_GAS argon
AC$MASS_SPECTROMETRY: PEAK_WIDTH 0.025
AC$MASS_SPECTROMETRY: MASS_RANGE_M/Z 49.999-1200
AC$CHROMATOGRAPHY: RETENTION_TIME 272.453 sec
AC$CHROMATOGRAPHY: COLUMN_NAME Poroshell 120,EC-C18 2.1x100mm,2.7um
MS$FOCUSED_ION: PRECURSOR_M/Z 533.079
MS$FOCUSED_ION: PRECURSOR_TYPE [M-H]-
MS$FOCUSED_ION: BASE_PEAK 327.039
MS$DATA_PROCESSING: CHARGE_DECONVOLUTION 2
PK$SPLASH: splash10-004i-0009000000-5403265019bc99a1aaf4
PK$NUM_PEAK: 12
PK$PEAK: m/z int. rel.int.
  285.030 39 39
  297.033 45 45
  299.045 46 46
  327.039 999 999
  328.044 136 136
  329.047 26 26
  357.054 255 255
  358.059 53 53
  369.051 46 46
  393.052 38 38
  429.077 77 77
  489.093 31 31
//
