ACCESSION: MSBNK-IPB_Halle-PB001381
RECORD_TITLE: 5-Hydroxyindole-3-acetic acid; LC-ESI-QTOF; MS2; CE:15 eV; [M+H]+
DATE: 2016.01.19 (Created 2008.05.23, modified 2013.06.04)
AUTHORS: Boettcher C, Institute of Plant Biochemistry, Halle, Germany
LICENSE: CC BY-SA
COMMENT: IPB_RECORD: 561
COMMENT: CONFIDENCE confident structure
CH$NAME: 5-Hydroxyindole-3-acetic acid
CH$NAME: 2-(5-hydroxy-1H-indol-3-yl)acetic acid
CH$COMPOUND_CLASS: Natural Product; Indole
CH$FORMULA: C10H9NO3
CH$EXACT_MASS: 191.05824
CH$SMILES: C1=CC2=C(C=C1O)C(=CN2)CC(=O)O
CH$IUPAC: InChI=1S/C10H9NO3/c12-7-1-2-9-8(4-7)6(5-11-9)3-10(13)14/h1-2,4-5,11-12H,3H2,(H,13,14)
CH$LINK: INCHIKEY DUUGKQCEGZLZNO-UHFFFAOYSA-N
CH$LINK: PUBCHEM CID:1826
CH$LINK: COMPTOX DTXSID50861582
AC$INSTRUMENT: API QSTAR Pulsar i
AC$INSTRUMENT_TYPE: LC-ESI-QTOF
AC$MASS_SPECTROMETRY: MS_TYPE MS2
AC$MASS_SPECTROMETRY: ION_MODE POSITIVE
AC$MASS_SPECTROMETRY: COLLISION_ENERGY 15 eV
AC$MASS_SPECTROMETRY: IONIZATION ESI
MS$FOCUSED_ION: PRECURSOR_TYPE [M+H]+
PK$SPLASH: splash10-0002-0900000000-dc26be88646175dd5588
PK$NUM_PEAK: 8
PK$PEAK: m/z int. rel.int.
  59.057 149.541 13
  60.060 85.852 7
  145.940 67.069 5
  146.060 10000.000 999
  147.064 153.597 14
  192.065 4838.242 482
  192.174 274.940 26
  193.069 81.796 7
//
