ACCESSION: MSBNK-IPB_Halle-PB006221
RECORD_TITLE: Vitexin-2''-O-rhamnoside; LC-ESI-QTOF; MS2; CE:10 eV; [M+H]+
DATE: 2016.01.19 (Created 2009.02.17, modified 2013.06.04)
AUTHORS: Heinz T, Institute of Plant Biochemistry, Halle, Germany
LICENSE: CC BY-SA
COMMENT: IPB_RECORD: 2041
COMMENT: CONFIDENCE confident structure
CH$NAME: Vitexin-2''-O-rhamnoside
CH$NAME: 8-[(2S,3R,4S,5S,6R)-4,5-dihydroxy-6-(hydroxymethyl)-3-[(2S,3R,4R,5R,6S)-3,4,5-trihydroxy-6-methyloxan-2-yl]oxyoxan-2-yl]-5,7-dihydroxy-2-(4-hydroxyphenyl)chromen-4-one
CH$COMPOUND_CLASS: Natural Product
CH$FORMULA: C27H30O14
CH$EXACT_MASS: 578.16356
CH$SMILES: C[C@H]1[C@@H]([C@H]([C@H]([C@@H](O1)O[C@@H]2[C@H]([C@@H]([C@H](O[C@H]2C3=C(C=C(C4=C3OC(=CC4=O)C5=CC=C(C=C5)O)O)O)CO)O)O)O)O)O
CH$IUPAC: InChI=1S/C27H30O14/c1-9-19(33)21(35)23(37)27(38-9)41-26-22(36)20(34)16(8-28)40-25(26)18-13(31)6-12(30)17-14(32)7-15(39-24(17)18)10-2-4-11(29)5-3-10/h2-7,9,16,19-23,25-31,33-37H,8H2,1H3/t9-,16+,19-,20+,21+,22-,23+,25-,26+,27-/m0/s1
CH$LINK: INCHIKEY LYGPBZVKGHHTIE-HUBYJIGHSA-N
CH$LINK: PUBCHEM CID:5282151
CH$LINK: COMPTOX DTXSID20215119
AC$INSTRUMENT: micrOTOF-Q
AC$INSTRUMENT_TYPE: LC-ESI-QTOF
AC$MASS_SPECTROMETRY: MS_TYPE MS2
AC$MASS_SPECTROMETRY: ION_MODE POSITIVE
AC$MASS_SPECTROMETRY: COLLISION_ENERGY 10 eV
AC$MASS_SPECTROMETRY: IONIZATION ESI
MS$FOCUSED_ION: PRECURSOR_TYPE [M+H]+
PK$SPLASH: splash10-004i-0000190000-e0cb650947897badda7d
PK$NUM_PEAK: 23
PK$PEAK: m/z int. rel.int.
  271.056 50.100 4
  283.059 10.020 0
  295.057 10.020 0
  313.065 80.160 7
  337.066 10.020 0
  367.076 10.020 0
  397.087 30.060 2
  415.097 90.180 8
  416.098 10.020 0
  433.108 1352.705 134
  434.111 190.381 18
  435.114 10.020 0
  459.124 10.020 0
  578.526 10.020 0
  578.645 10.020 0
  578.769 10.020 0
  578.862 10.020 0
  579.164 10000.000 999
  579.739 10.020 0
  579.860 10.020 0
  579.941 10.020 0
  580.167 2164.329 215
  581.169 130.261 12
//
