ACCESSION: MSBNK-IPB_Halle-PN000058
RECORD_TITLE: Luteolin 3',7-O-diglucoside; ESI-TOF; MS2; CE:15 eV; [M+H]+
DATE: 2011.03.18
AUTHORS: Institute of Bioorganic Chemistry, Polish Academy of Sciences,Poland/Anna Staszków
LICENSE: CC BY-SA
COPYRIGHT: Copyright(C) 2011
COMMENT: lupinus_mexico
CH$NAME: 5-hydroxy-2-[4-hydroxy-3-[(2S,3R,4S,5R,6R)-3,4,5-trihydroxy-6-(hydroxymethyl)oxan-2-yl]oxy-phenyl]-7-[(2S,3R,4S,5R,6R)-3,4,5-trihydroxy-6-(hydroxymethyl)oxan-2-yl]oxy-chromen-4-one
CH$NAME: luteolin-3',7-di-O-glucoside
CH$NAME: Luteolin 3',7-O-diglucoside
CH$NAME: Luteolin-7,3'-di-O-glucoside
CH$NAME: Lutl-3p-Glc-7-Glc
CH$COMPOUND_CLASS: Natural Product; flavone
CH$FORMULA: C27H30O16
CH$EXACT_MASS: 610.15338
CH$SMILES: C1=CC(=C(C=C1C2=CC(=O)C3=C(C=C(C=C3O2)O[C@H]4[C@@H]([C@H]([C@@H]([C@H](O4)CO)O)O)O)O)O[C@H]5[C@@H]([C@H]([C@@H]([C@H](O5)CO)O)O)O)O
CH$IUPAC: InChI=1S/C27H30O16/c28-7-17-20(33)22(35)24(37)26(42-17)39-10-4-12(31)19-13(32)6-14(40-16(19)5-10)9-1-2-11(30)15(3-9)41-27-25(38)23(36)21(34)18(8-29)43-27/h1-6,17-18,20-31,33-38H,7-8H2/t17-,18-,20-,21-,22+,23+,24-,25-,26-,27-/m1/s1
CH$LINK: CAS 52187-80-1
CH$LINK: CHEMSPIDER 4590322
CH$LINK: COMPTOX DTXSID90200214
CH$LINK: INCHIKEY BISZYPSIZGKOFA-IPOZFMEPSA-N
CH$LINK: KNAPSACK C00004290
CH$LINK: NIKKAJI J279.475F
CH$LINK: PUBCHEM CID:5490298
AC$INSTRUMENT: micrOTOF-Q
AC$INSTRUMENT_TYPE: ESI-TOF
AC$MASS_SPECTROMETRY: MS_TYPE MS2
AC$MASS_SPECTROMETRY: ION_MODE POSITIVE
AC$MASS_SPECTROMETRY: COLLISION_ENERGY 15 eV
AC$MASS_SPECTROMETRY: IONIZATION ESI
AC$MASS_SPECTROMETRY: ISOLATION_WIDTH 7
AC$MASS_SPECTROMETRY: COLLISION_GAS argon
AC$MASS_SPECTROMETRY: PEAK_WIDTH 0.019
AC$MASS_SPECTROMETRY: MASS_RANGE_M/Z 49.999-1000
AC$CHROMATOGRAPHY: RETENTION_TIME 246.395 sec
AC$CHROMATOGRAPHY: COLUMN_NAME Poroshell 120,EC-C18 2.1x100mm,2.7um
MS$FOCUSED_ION: PRECURSOR_M/Z 611.163
MS$FOCUSED_ION: PRECURSOR_TYPE [M+H]+
MS$FOCUSED_ION: BASE_PEAK 449.109
MS$DATA_PROCESSING: CHARGE_DECONVOLUTION 2
PK$SPLASH: splash10-0002-0000900000-4d2425a4bbb78e6c2a26
PK$NUM_PEAK: 6
PK$PEAK: m/z int. rel.int.
  287.0541 30 30
  449.1095 999 999
  450.1126 131 131
  451.1146 38 38
  611.1686 35 35
  612.1738 8 8
//
