ACCESSION: MSBNK-IPB_Halle-PB000384
RECORD_TITLE: Sinapoylcholine; LC-ESI-QTOF; MS2; CE:15 eV; M+
DATE: 2016.01.19 (Created 2008.04.18, modified 2013.06.04)
AUTHORS: Boettcher C, Institute of Plant Biochemistry, Halle, Germany
LICENSE: CC BY-SA
COMMENT: IPB_RECORD: 244
COMMENT: CONFIDENCE confident structure
CH$NAME: Sinapoylcholine
CH$NAME: 2-[(E)-3-(4-hydroxy-3,5-dimethoxyphenyl)prop-2-enoyl]oxyethyl-trimethylazanium
CH$COMPOUND_CLASS: Natural Product; phenolic choline ester
CH$FORMULA: [C16H24NO5]+
CH$EXACT_MASS: 310.16545
CH$SMILES: C[N+](C)(C)CCOC(=O)C=CC1=CC(=C(C(=C1)OC)O)OC
CH$IUPAC: InChI=1S/C16H23NO5/c1-17(2,3)8-9-22-15(18)7-6-12-10-13(20-4)16(19)14(11-12)21-5/h6-7,10-11H,8-9H2,1-5H3/p+1
CH$LINK: INCHIKEY HUJXHFRXWWGYQH-UHFFFAOYSA-O
CH$LINK: KEGG C00933
CH$LINK: PUBCHEM CID:5280385
CH$LINK: COMPTOX DTXSID10171957
AC$INSTRUMENT: API QSTAR Pulsar i
AC$INSTRUMENT_TYPE: LC-ESI-QTOF
AC$MASS_SPECTROMETRY: MS_TYPE MS2
AC$MASS_SPECTROMETRY: ION_MODE POSITIVE
AC$MASS_SPECTROMETRY: COLLISION_ENERGY 15 eV
AC$MASS_SPECTROMETRY: IONIZATION ESI
MS$FOCUSED_ION: PRECURSOR_TYPE [M]+
PK$SPLASH: splash10-0ik9-0069000000-dae71e5c3cb5e8c98d01
PK$NUM_PEAK: 2
PK$PEAK: m/z int. rel.int.
  251.093 7303.142 729
  310.165 10000.000 999
//
