ACCESSION: MSBNK-IPB_Halle-PB000901
RECORD_TITLE: Harman; LC-ESI-QTOF; MS2; CE:25 eV; [M+H]+
DATE: 2016.01.19 (Created 2008.04.15, modified 2013.06.04)
AUTHORS: Boettcher C, Institute of Plant Biochemistry, Halle, Germany
LICENSE: CC BY-SA
COMMENT: IPB_RECORD: 461
COMMENT: CONFIDENCE confident structure
CH$NAME: Harman
CH$NAME: 1-methyl-9H-pyrido[3,4-b]indole
CH$COMPOUND_CLASS: Natural Product; Harmine
CH$FORMULA: C12H10N2
CH$EXACT_MASS: 182.08440
CH$SMILES: CC1=NC=CC2=C1NC3=CC=CC=C23
CH$IUPAC: InChI=1S/C12H10N2/c1-8-12-10(6-7-13-8)9-4-2-3-5-11(9)14-12/h2-7,14H,1H3
CH$LINK: INCHIKEY PSFDQSOCUJVVGF-UHFFFAOYSA-N
CH$LINK: KEGG C06538
CH$LINK: PUBCHEM CID:5281404
CH$LINK: COMPTOX DTXSID80197568
AC$INSTRUMENT: API QSTAR Pulsar i
AC$INSTRUMENT_TYPE: LC-ESI-QTOF
AC$MASS_SPECTROMETRY: MS_TYPE MS2
AC$MASS_SPECTROMETRY: ION_MODE POSITIVE
AC$MASS_SPECTROMETRY: COLLISION_ENERGY 25 eV
AC$MASS_SPECTROMETRY: IONIZATION ESI
MS$FOCUSED_ION: PRECURSOR_TYPE [M+H]+
PK$SPLASH: splash10-001i-0900000000-3206fb22991bbadfb410
PK$NUM_PEAK: 9
PK$PEAK: m/z int. rel.int.
  115.059 912.179 90
  142.071 627.920 61
  156.088 109.031 9
  167.072 134.466 12
  168.077 566.032 55
  182.095 394.615 38
  183.092 10000.000 999
  183.198 112.013 10
  184.103 239.768 22
//
