ACCESSION: MSBNK-IPB_Halle-PB006064
RECORD_TITLE: Phenylalanine; LC-ESI-QTOF; MS2; CE:10 eV; [M+H]+
DATE: 2016.01.19 (Created 2009.03.27, modified 2013.06.04)
AUTHORS: Heinz T, Institute of Plant Biochemistry, Halle, Germany
LICENSE: CC BY-SA
COMMENT: IPB_RECORD: 2701
COMMENT: CONFIDENCE confident structure
CH$NAME: Phenylalanine
CH$NAME: (2S)-2-amino-3-phenylpropanoic acid
CH$COMPOUND_CLASS: Natural Product
CH$FORMULA: C9H11NO2
CH$EXACT_MASS: 165.07898
CH$SMILES: C1=CC=C(C=C1)C[C@@H](C(=O)O)N
CH$IUPAC: InChI=1S/C9H11NO2/c10-8(9(11)12)6-7-4-2-1-3-5-7/h1-5,8H,6,10H2,(H,11,12)/t8-/m0/s1
CH$LINK: INCHIKEY COLNVLDHVKWLRT-QMMMGPOBSA-N
CH$LINK: PUBCHEM CID:6140
CH$LINK: COMPTOX DTXSID4040763
AC$INSTRUMENT: micrOTOF-Q
AC$INSTRUMENT_TYPE: LC-ESI-QTOF
AC$MASS_SPECTROMETRY: MS_TYPE MS2
AC$MASS_SPECTROMETRY: ION_MODE POSITIVE
AC$MASS_SPECTROMETRY: COLLISION_ENERGY 10 eV
AC$MASS_SPECTROMETRY: IONIZATION ESI
MS$FOCUSED_ION: PRECURSOR_TYPE [M+H]+
PK$SPLASH: splash10-00di-0900000000-99b1e46c9ca3032be112
PK$NUM_PEAK: 12
PK$PEAK: m/z int. rel.int.
  103.052 50.100 4
  118.064 70.140 6
  119.071 40.080 3
  120.079 10000.000 999
  121.082 811.623 80
  122.086 10.020 0
  131.048 390.782 38
  132.051 30.060 2
  149.058 160.321 15
  150.062 10.020 0
  166.084 751.503 74
  167.087 60.120 5
//
