ACCESSION: MSBNK-IPB_Halle-PB000462
RECORD_TITLE: Glutamic acid; LC-ESI-QTOF; MS2; CE:15 eV; [M+H]+
DATE: 2016.01.19 (Created 2008.01.02, modified 2013.06.04)
AUTHORS: Boettcher C, Institute of Plant Biochemistry, Halle, Germany
LICENSE: CC BY-SA
COMMENT: IPB_RECORD: 264
COMMENT: CONFIDENCE confident structure
CH$NAME: Glutamic acid
CH$NAME: 2-aminopentanedioic acid
CH$COMPOUND_CLASS: Natural Product; amino acid
CH$FORMULA: C5H9NO4
CH$EXACT_MASS: 147.05316
CH$SMILES: C(CC(=O)O)C(C(=O)O)N
CH$IUPAC: InChI=1S/C5H9NO4/c6-3(5(9)10)1-2-4(7)8/h3H,1-2,6H2,(H,7,8)(H,9,10)
CH$LINK: INCHIKEY WHUUTDBJXJRKMK-UHFFFAOYSA-N
CH$LINK: KEGG C00025
CH$LINK: PUBCHEM CID:611
CH$LINK: COMPTOX DTXSID0046987
AC$INSTRUMENT: API QSTAR Pulsar i
AC$INSTRUMENT_TYPE: LC-ESI-QTOF
AC$MASS_SPECTROMETRY: MS_TYPE MS2
AC$MASS_SPECTROMETRY: ION_MODE POSITIVE
AC$MASS_SPECTROMETRY: COLLISION_ENERGY 15 eV
AC$MASS_SPECTROMETRY: IONIZATION ESI
MS$FOCUSED_ION: PRECURSOR_TYPE [M+H]+
PK$SPLASH: splash10-001i-3900000000-e514d6585bdf9bc9e803
PK$NUM_PEAK: 5
PK$PEAK: m/z int. rel.int.
  84.044 9788.381 977
  102.056 7529.029 751
  130.049 10000.000 999
  131.032 202.123 19
  148.059 7481.128 747
//
