ACCESSION: MSBNK-IPB_Halle-PN000092
RECORD_TITLE: Biochanin A glucosylglucoside malonylated; ESI-TOF; MS2; CE:15 eV; [M+H]+
DATE: 2011.03.18
AUTHORS: Institute of Bioorganic Chemistry, Polish Academy of Sciences,Poland/Anna Staszków
LICENSE: CC BY-SA
COPYRIGHT: Copyright(C) 2011
COMMENT: lupinus_mexico
CH$NAME: Biochanin A glucosylglucoside malonylated
CH$COMPOUND_CLASS: Natural Product; isoflavone
CH$FORMULA: C31H34O18
CH$EXACT_MASS: 694.1745142479999
CH$SMILES: N/A
CH$IUPAC: N/A
AC$INSTRUMENT: micrOTOF-Q
AC$INSTRUMENT_TYPE: ESI-TOF
AC$MASS_SPECTROMETRY: MS_TYPE MS2
AC$MASS_SPECTROMETRY: ION_MODE POSITIVE
AC$MASS_SPECTROMETRY: COLLISION_ENERGY 15 eV
AC$MASS_SPECTROMETRY: IONIZATION ESI
AC$MASS_SPECTROMETRY: ISOLATION_WIDTH 7
AC$MASS_SPECTROMETRY: COLLISION_GAS argon
AC$MASS_SPECTROMETRY: PEAK_WIDTH 0.022
AC$MASS_SPECTROMETRY: MASS_RANGE_M/Z 49.999-1000
AC$CHROMATOGRAPHY: RETENTION_TIME 383.044 sec
AC$CHROMATOGRAPHY: COLUMN_NAME Poroshell 120,EC-C18 2.1x100mm,2.7um
MS$FOCUSED_ION: PRECURSOR_M/Z 695.474
MS$FOCUSED_ION: PRECURSOR_TYPE [M+H]+
MS$FOCUSED_ION: BASE_PEAK 285.076
MS$DATA_PROCESSING: CHARGE_DECONVOLUTION 2
PK$SPLASH: splash10-000i-0090001000-15be4caed743381697cf
PK$NUM_PEAK: 10
PK$PEAK: m/z int. rel.int.
  231.0501 6 6
  285.0756 999 999
  286.0804 123 123
  287.0790 13 13
  447.1352 46 46
  448.1346 10 10
  609.1935 11 11
  695.1830 161 161
  696.1841 43 43
  697.1956 10 10
//
