ACCESSION: MSBNK-IPB_Halle-PB005727
RECORD_TITLE: Xanthohumol; LC-ESI-QTOF; MS2; CE:10 eV; [M+H]+
DATE: 2016.01.19 (Created 2009.02.18, modified 2013.06.04)
AUTHORS: Heinz T, Institute of Plant Biochemistry, Halle, Germany
LICENSE: CC BY-SA
COMMENT: IPB_RECORD: 2221
COMMENT: CONFIDENCE confident structure
CH$NAME: Xanthohumol
CH$NAME: (E)-1-[2,4-dihydroxy-6-methoxy-3-(3-methylbut-2-enyl)phenyl]-3-(4-hydroxyphenyl)prop-2-en-1-one
CH$COMPOUND_CLASS: Natural Product
CH$FORMULA: C21H22O5
CH$EXACT_MASS: 354.14672
CH$SMILES: CC(=CCC1=C(C(=C(C=C1O)OC)C(=O)/C=C/C2=CC=C(C=C2)O)O)C
CH$IUPAC: InChI=1S/C21H22O5/c1-13(2)4-10-16-18(24)12-19(26-3)20(21(16)25)17(23)11-7-14-5-8-15(22)9-6-14/h4-9,11-12,22,24-25H,10H2,1-3H3/b11-7+
CH$LINK: INCHIKEY ORXQGKIUCDPEAJ-YRNVUSSQSA-N
CH$LINK: PUBCHEM CID:639665
CH$LINK: COMPTOX DTXSID00893171
AC$INSTRUMENT: micrOTOF-Q
AC$INSTRUMENT_TYPE: LC-ESI-QTOF
AC$MASS_SPECTROMETRY: MS_TYPE MS2
AC$MASS_SPECTROMETRY: ION_MODE POSITIVE
AC$MASS_SPECTROMETRY: COLLISION_ENERGY 10 eV
AC$MASS_SPECTROMETRY: IONIZATION ESI
MS$FOCUSED_ION: PRECURSOR_TYPE [M+H]+
PK$SPLASH: splash10-0002-0293000000-07b3d1d40f210eb9247b
PK$NUM_PEAK: 13
PK$PEAK: m/z int. rel.int.
  179.031 2062.062 205
  180.035 120.120 11
  197.042 150.150 14
  198.045 10.010 0
  235.093 170.170 16
  236.097 20.020 1
  257.076 80.080 7
  299.086 10000.000 999
  299.451 10.010 0
  300.090 1401.401 139
  301.092 40.040 3
  355.148 1671.672 166
  356.151 320.320 31
//
