ACCESSION: MSBNK-IPB_Halle-PB000527
RECORD_TITLE: 4-methoxy-1H-indole-3-carbaldehyde; LC-ESI-QTOF; MS2; CE:15 eV; [M+H]+
DATE: 2016.01.19 (Created 2008.04.18, modified 2013.06.04)
AUTHORS: Boettcher C, Institute of Plant Biochemistry, Halle, Germany
LICENSE: CC BY-SA
COMMENT: IPB_RECORD: 279
COMMENT: CONFIDENCE structure hypothesis
CH$NAME: 4-methoxy-1H-indole-3-carbaldehyde
CH$COMPOUND_CLASS: Natural Product; Indole, Glucosinolate degradation product
CH$FORMULA: C10H9NO2
CH$EXACT_MASS: 175.06333
CH$SMILES: COC1=CC=CC2=C1C(=CN2)C=O
CH$IUPAC: InChI=1S/C10H9NO2/c1-13-9-4-2-3-8-10(9)7(6-12)5-11-8/h2-6,11H,1H3
CH$LINK: INCHIKEY GDVCEQRAPMIJBG-UHFFFAOYSA-N
CH$LINK: PUBCHEM CID:146229
CH$LINK: COMPTOX DTXSID50238250
AC$INSTRUMENT: API QSTAR Pulsar i
AC$INSTRUMENT_TYPE: LC-ESI-QTOF
AC$MASS_SPECTROMETRY: MS_TYPE MS2
AC$MASS_SPECTROMETRY: ION_MODE POSITIVE
AC$MASS_SPECTROMETRY: COLLISION_ENERGY 15 eV
AC$MASS_SPECTROMETRY: IONIZATION ESI
MS$FOCUSED_ION: PRECURSOR_M/Z 176.07115
MS$FOCUSED_ION: PRECURSOR_TYPE [M+H]+
PK$SPLASH: splash10-004i-0900000000-a562d100439166f6b4f5
PK$NUM_PEAK: 3
PK$PEAK: m/z int. rel.int.
  148.075 692.132 68
  161.047 574.991 56
  176.070 10000.000 999
//
