ACCESSION: MSBNK-IPB_Halle-PB000784
RECORD_TITLE: Naringin; LC-ESI-QTOF; MS2; CE:15 eV; [M+H]+
DATE: 2016.01.19 (Created 2008.03.25, modified 2013.06.04)
AUTHORS: Boettcher C, Institute of Plant Biochemistry, Halle, Germany
LICENSE: CC BY-SA
COMMENT: IPB_RECORD: 401
COMMENT: CONFIDENCE confident structure
CH$NAME: Naringin
CH$NAME: (2S)-7-[(2S,3R,4S,5S,6R)-4,5-dihydroxy-6-(hydroxymethyl)-3-[(2S,3R,4R,5R,6S)-3,4,5-trihydroxy-6-methyloxan-2-yl]oxyoxan-2-yl]oxy-5-hydroxy-2-(4-hydroxyphenyl)chroman-4-one
CH$COMPOUND_CLASS: Natural Product; Flavanone glycoside
CH$FORMULA: C27H32O14
CH$EXACT_MASS: 580.17921
CH$SMILES: C[C@H]1[C@@H]([C@H]([C@H]([C@@H](O1)O[C@@H]2[C@H]([C@@H]([C@H](O[C@H]2OC3=CC(=C4C(=O)C[C@H](OC4=C3)C5=CC=C(C=C5)O)O)CO)O)O)O)O)O
CH$IUPAC: InChI=1S/C27H32O14/c1-10-20(32)22(34)24(36)26(37-10)41-25-23(35)21(33)18(9-28)40-27(25)38-13-6-14(30)19-15(31)8-16(39-17(19)7-13)11-2-4-12(29)5-3-11/h2-7,10,16,18,20-30,32-36H,8-9H2,1H3/t10-,16-,18+,20-,21+,22+,23-,24+,25+,26-,27+/m0/s1
CH$LINK: INCHIKEY DFPMSGMNTNDNHN-ZPHOTFPESA-N
CH$LINK: KEGG C09789
CH$LINK: PUBCHEM CID:442428
CH$LINK: COMPTOX DTXSID6022478
AC$INSTRUMENT: API QSTAR Pulsar i
AC$INSTRUMENT_TYPE: LC-ESI-QTOF
AC$MASS_SPECTROMETRY: MS_TYPE MS2
AC$MASS_SPECTROMETRY: ION_MODE POSITIVE
AC$MASS_SPECTROMETRY: COLLISION_ENERGY 15 eV
AC$MASS_SPECTROMETRY: IONIZATION ESI
MS$FOCUSED_ION: PRECURSOR_TYPE [M+H]+
PK$SPLASH: splash10-00di-0090200000-6720eac9281b600c47b5
PK$NUM_PEAK: 13
PK$PEAK: m/z int. rel.int.
  129.051 332.219 32
  147.062 610.930 60
  255.089 63.483 5
  273.076 10000.000 999
  309.121 137.276 12
  315.089 319.984 30
  339.090 75.995 6
  383.125 116.476 10
  401.137 269.005 25
  417.126 337.113 32
  419.140 916.803 90
  435.136 984.502 97
  581.191 358.728 34
//
