ACCESSION: MSBNK-IPB_Halle-PB000484
RECORD_TITLE: Spermidine; LC-ESI-QTOF; MS2; CE:25 eV; [M+H]+
DATE: 2016.01.19 (Created 2008.01.02, modified 2013.06.04)
AUTHORS: Boettcher C, Institute of Plant Biochemistry, Halle, Germany
LICENSE: CC BY-SA
COMMENT: IPB_RECORD: 269
COMMENT: CONFIDENCE confident structure
CH$NAME: Spermidine
CH$NAME: N-(3-aminopropyl)butane-1,4-diamine
CH$COMPOUND_CLASS: Natural Product; biogenic amine
CH$FORMULA: C7H19N3
CH$EXACT_MASS: 145.15790
CH$SMILES: C(CCNCCCN)CN
CH$IUPAC: InChI=1S/C7H19N3/c8-4-1-2-6-10-7-3-5-9/h10H,1-9H2
CH$LINK: INCHIKEY ATHGHQPFGPMSJY-UHFFFAOYSA-N
CH$LINK: KEGG C00315
CH$LINK: PUBCHEM CID:1102
CH$LINK: COMPTOX DTXSID4036645
AC$INSTRUMENT: API QSTAR Pulsar i
AC$INSTRUMENT_TYPE: LC-ESI-QTOF
AC$MASS_SPECTROMETRY: MS_TYPE MS2
AC$MASS_SPECTROMETRY: ION_MODE POSITIVE
AC$MASS_SPECTROMETRY: COLLISION_ENERGY 25 eV
AC$MASS_SPECTROMETRY: IONIZATION ESI
MS$FOCUSED_ION: PRECURSOR_TYPE [M+H]+
PK$SPLASH: splash10-00di-9200000000-75eacba217a63f3b8847
PK$NUM_PEAK: 11
PK$PEAK: m/z int. rel.int.
  55.057 46.303 3
  58.068 1001.344 99
  70.068 42.309 3
  72.082 10000.000 999
  75.093 185.409 17
  84.084 1387.742 137
  91.057 332.701 32
  112.115 2005.140 199
  117.061 79.557 6
  118.070 1005.259 99
  129.142 167.023 15
//
