ACCESSION: MSBNK-IPB_Halle-PB000389
RECORD_TITLE: Valine; LC-ESI-QTOF; MS2; CE:25 eV; [M+H]+
DATE: 2016.01.19 (Created 2008.01.02, modified 2013.06.04)
AUTHORS: Boettcher C, Institute of Plant Biochemistry, Halle, Germany
LICENSE: CC BY-SA
COMMENT: IPB_RECORD: 246
COMMENT: CONFIDENCE confident structure
CH$NAME: Valine
CH$NAME: 2-amino-3-methylbutanoic acid
CH$COMPOUND_CLASS: Natural Product; amino acid
CH$FORMULA: C5H11NO2
CH$EXACT_MASS: 117.07898
CH$SMILES: CC(C)C(C(=O)O)N
CH$IUPAC: InChI=1S/C5H11NO2/c1-3(2)4(6)5(7)8/h3-4H,6H2,1-2H3,(H,7,8)
CH$LINK: INCHIKEY KZSNJWFQEVHDMF-UHFFFAOYSA-N
CH$LINK: KEGG C00183
CH$LINK: PUBCHEM CID:1182
CH$LINK: COMPTOX DTXSID70859522
AC$INSTRUMENT: API QSTAR Pulsar i
AC$INSTRUMENT_TYPE: LC-ESI-QTOF
AC$MASS_SPECTROMETRY: MS_TYPE MS2
AC$MASS_SPECTROMETRY: ION_MODE POSITIVE
AC$MASS_SPECTROMETRY: COLLISION_ENERGY 25 eV
AC$MASS_SPECTROMETRY: IONIZATION ESI
MS$FOCUSED_ION: PRECURSOR_TYPE [M+H]+
PK$SPLASH: splash10-05fr-9000000000-c3e6c9d813e91302060b
PK$NUM_PEAK: 6
PK$PEAK: m/z int. rel.int.
  44.051 40.346 3
  53.042 59.814 4
  55.057 6304.527 629
  57.060 371.575 36
  59.051 151.081 14
  72.082 10000.000 999
//
