ACCESSION: MSBNK-IPB_Halle-PN000082
RECORD_TITLE: Genistein xylosylglucoside malonylated; ESI-TOF; MS2; CE:15 eV; [M+H]+
DATE: 2011.03.18
AUTHORS: Institute of Bioorganic Chemistry, Polish Academy of Sciences,Poland/Anna Staszków
LICENSE: CC BY-SA
COPYRIGHT: Copyright(C) 2011
COMMENT: lupinus_mexico
CH$NAME: Genistein xylosylglucoside malonylated
CH$COMPOUND_CLASS: Natural Product; isoflavone
CH$FORMULA: C29H30O17
CH$EXACT_MASS: 650.1482995
CH$SMILES: N/A
CH$IUPAC: N/A
AC$INSTRUMENT: micrOTOF-Q
AC$INSTRUMENT_TYPE: ESI-TOF
AC$MASS_SPECTROMETRY: MS_TYPE MS2
AC$MASS_SPECTROMETRY: ION_MODE POSITIVE
AC$MASS_SPECTROMETRY: COLLISION_ENERGY 15 eV
AC$MASS_SPECTROMETRY: IONIZATION ESI
AC$MASS_SPECTROMETRY: ISOLATION_WIDTH 7
AC$MASS_SPECTROMETRY: COLLISION_GAS argon
AC$MASS_SPECTROMETRY: PEAK_WIDTH 0.021
AC$MASS_SPECTROMETRY: MASS_RANGE_M/Z 49.999-1000
AC$CHROMATOGRAPHY: RETENTION_TIME 339.699 sec
AC$CHROMATOGRAPHY: COLUMN_NAME Poroshell 120,EC-C18 2.1x100mm,2.7um
MS$FOCUSED_ION: PRECURSOR_M/Z 651.15
MS$FOCUSED_ION: PRECURSOR_TYPE [M+H]+
MS$FOCUSED_ION: BASE_PEAK 271.058
MS$DATA_PROCESSING: CHARGE_DECONVOLUTION 2
PK$SPLASH: splash10-00di-0090022000-7183138bdefe285a73f1
PK$NUM_PEAK: 6
PK$PEAK: m/z int. rel.int.
  271.0584 999 999
  272.0597 120 120
  519.1075 292 292
  520.1124 72 72
  651.1561 284 284
  652.1510 88 88
//
