ACCESSION: MSBNK-IPB_Halle-PB000444
RECORD_TITLE: Cystine; LC-ESI-QTOF; MS2; CE:10 eV; [M+H]+
DATE: 2016.01.19 (Created 2008.01.02, modified 2013.06.04)
AUTHORS: Boettcher C, Institute of Plant Biochemistry, Halle, Germany
LICENSE: CC BY-SA
COMMENT: IPB_RECORD: 260
COMMENT: CONFIDENCE confident structure
CH$NAME: Cystine
CH$NAME: 2-amino-3-(2-amino-3-hydroxy-3-oxopropyl)disulfanylpropanoic acid
CH$COMPOUND_CLASS: Natural Product; amino acid
CH$FORMULA: C6H12N2O4S2
CH$EXACT_MASS: 240.02385
CH$SMILES: C(C(C(=O)O)N)SSCC(C(=O)O)N
CH$IUPAC: InChI=1S/C6H12N2O4S2/c7-3(5(9)10)1-13-14-2-4(8)6(11)12/h3-4H,1-2,7-8H2,(H,9,10)(H,11,12)
CH$LINK: INCHIKEY LEVWYRKDKASIDU-UHFFFAOYSA-N
CH$LINK: KEGG C00491
CH$LINK: PUBCHEM CID:595
AC$INSTRUMENT: API QSTAR Pulsar i
AC$INSTRUMENT_TYPE: LC-ESI-QTOF
AC$MASS_SPECTROMETRY: MS_TYPE MS2
AC$MASS_SPECTROMETRY: ION_MODE POSITIVE
AC$MASS_SPECTROMETRY: COLLISION_ENERGY 10 eV
AC$MASS_SPECTROMETRY: IONIZATION ESI
MS$FOCUSED_ION: PRECURSOR_TYPE [M+H]+
PK$SPLASH: splash10-0006-0090000000-af3f7f01ab3650406cbd
PK$NUM_PEAK: 5
PK$PEAK: m/z int. rel.int.
  151.984 239.318 22
  154.000 54.425 4
  195.024 94.251 8
  241.031 10000.000 999
  242.033 99.614 8
//
