ACCESSION: MSBNK-IPB_Halle-PB000629
RECORD_TITLE: Kinetin; LC-ESI-QTOF; MS2; CE:40 eV; [M+H]+
DATE: 2016.01.19 (Created 2008.01.02, modified 2013.06.04)
AUTHORS: Boettcher C, Institute of Plant Biochemistry, Halle, Germany
LICENSE: CC BY-SA
COMMENT: IPB_RECORD: 305
COMMENT: CONFIDENCE confident structure
CH$NAME: Kinetin
CH$NAME: N-(furan-2-ylmethyl)-7H-purin-6-amine
CH$COMPOUND_CLASS: Natural Product
CH$FORMULA: C10H9N5O
CH$EXACT_MASS: 215.08071
CH$SMILES: C1=COC(=C1)CNC2=NC=NC3=C2NC=N3
CH$IUPAC: InChI=1S/C10H9N5O/c1-2-7(16-3-1)4-11-9-8-10(13-5-12-8)15-6-14-9/h1-3,5-6H,4H2,(H2,11,12,13,14,15)
CH$LINK: INCHIKEY QANMHLXAZMSUEX-UHFFFAOYSA-N
CH$LINK: KEGG C08272
CH$LINK: PUBCHEM CID:3830
CH$LINK: COMPTOX DTXSID9035175
AC$INSTRUMENT: API QSTAR Pulsar i
AC$INSTRUMENT_TYPE: LC-ESI-QTOF
AC$MASS_SPECTROMETRY: MS_TYPE MS2
AC$MASS_SPECTROMETRY: ION_MODE POSITIVE
AC$MASS_SPECTROMETRY: COLLISION_ENERGY 40 eV
AC$MASS_SPECTROMETRY: IONIZATION ESI
MS$FOCUSED_ION: PRECURSOR_TYPE [M+H]+
PK$SPLASH: splash10-001i-9000000000-ae066c9cd1bdc816afb5
PK$NUM_PEAK: 5
PK$PEAK: m/z int. rel.int.
  53.039 986.818 97
  81.034 10000.000 999
  119.037 201.057 19
  136.062 146.689 13
  148.062 274.914 26
//
