ACCESSION: MSBNK-IPB_Halle-PB000426
RECORD_TITLE: Lysine; LC-ESI-QTOF; MS2; CE:10 eV; [M+H]+
DATE: 2016.01.19 (Created 2008.01.02, modified 2013.06.04)
AUTHORS: Boettcher C, Institute of Plant Biochemistry, Halle, Germany
LICENSE: CC BY-SA
COMMENT: IPB_RECORD: 256
COMMENT: CONFIDENCE confident structure
CH$NAME: Lysine
CH$NAME: 2,6-diaminohexanoic acid
CH$COMPOUND_CLASS: Natural Product; amino acid
CH$FORMULA: C6H14N2O2
CH$EXACT_MASS: 146.10553
CH$SMILES: C(CCN)CC(C(=O)O)N
CH$IUPAC: InChI=1S/C6H14N2O2/c7-4-2-1-3-5(8)6(9)10/h5H,1-4,7-8H2,(H,9,10)
CH$LINK: INCHIKEY KDXKERNSBIXSRK-UHFFFAOYSA-N
CH$LINK: KEGG C00047
CH$LINK: PUBCHEM CID:866
AC$INSTRUMENT: API QSTAR Pulsar i
AC$INSTRUMENT_TYPE: LC-ESI-QTOF
AC$MASS_SPECTROMETRY: MS_TYPE MS2
AC$MASS_SPECTROMETRY: ION_MODE POSITIVE
AC$MASS_SPECTROMETRY: COLLISION_ENERGY 10 eV
AC$MASS_SPECTROMETRY: IONIZATION ESI
MS$FOCUSED_ION: PRECURSOR_TYPE [M+H]+
PK$SPLASH: splash10-0002-0900000000-8031c460403001d0490c
PK$NUM_PEAK: 4
PK$PEAK: m/z int. rel.int.
  84.082 234.254 22
  129.102 177.829 16
  130.086 2584.747 257
  147.113 10000.000 999
//
