ACCESSION: MSBNK-IPB_Halle-PB001606
RECORD_TITLE: Codeine; LC-ESI-QQ; MS2; CE:35 eV; [M+H]+
DATE: 2016.01.19 (Created 2008.05.29, modified 2013.06.04)
AUTHORS: Schmidt J, Institute of Plant Biochemistry, Halle, Germany
LICENSE: CC BY-SA
COMMENT: IPB_RECORD: 924
COMMENT: CONFIDENCE confident structure
CH$NAME: Codeine
CH$NAME: 7,8-Didehydro-4,5-epoxy-3-methoxy-17-methyl-(5,6)-morphinan-6-ol
CH$COMPOUND_CLASS: Natural Product; Morphinan Alkaloids
CH$FORMULA: C18H21NO3
CH$EXACT_MASS: 299.15214
CH$SMILES: CN1CC[C@]23[C@@H]4[C@H]1CC5=C2C(=C(C=C5)OC)O[C@H]3[C@H](C=C4)O
CH$IUPAC: InChI=1S/C18H21NO3/c1-19-8-7-18-11-4-5-13(20)17(18)22-16-14(21-2)6-3-10(15(16)18)9-12(11)19/h3-6,11-13,17,20H,7-9H2,1-2H3/t11-,12+,13-,17-,18-/m0/s1
CH$LINK: INCHIKEY OROGSEYTTFOCAN-DNJOTXNNSA-N
CH$LINK: PUBCHEM CID:5284371
CH$LINK: COMPTOX DTXSID2020341
AC$INSTRUMENT: TSQ 7000
AC$INSTRUMENT_TYPE: LC-ESI-QQ
AC$MASS_SPECTROMETRY: MS_TYPE MS2
AC$MASS_SPECTROMETRY: ION_MODE POSITIVE
AC$MASS_SPECTROMETRY: COLLISION_ENERGY 35 eV
AC$MASS_SPECTROMETRY: IONIZATION ESI
MS$FOCUSED_ION: PRECURSOR_TYPE [M+H]+
PK$SPLASH: splash10-0uyi-1952000000-3db61b1a0c8cde5b8c82
PK$NUM_PEAK: 188
PK$PEAK: m/z int. rel.int.
  30.000 101.539 9
  31.000 56.334 4
  32.000 22.494 1
  41.000 13.419 0
  42.000 37.257 2
  43.000 95.928 8
  44.000 1254.145 124
  45.000 55.354 4
  46.000 10.661 0
  55.000 308.358 29
  56.000 103.137 9
  57.000 291.597 28
  58.000 2270.635 226
  59.000 44.568 3
  60.000 23.948 1
  67.000 80.047 7
  69.000 90.067 8
  70.000 31.895 2
  71.000 65.172 5
  77.000 47.361 3
  79.000 55.154 4
  81.000 75.677 6
  82.000 16.125 0
  83.000 105.206 9
  84.000 13.577 0
  91.000 120.432 11
  93.000 94.916 8
  94.000 39.194 2
  95.000 66.858 5
  96.000 20.001 1
  97.000 54.446 4
  103.000 50.087 4
  105.000 44.167 3
  106.000 10.232 0
  107.000 62.735 5
  108.000 36.551 2
  109.000 17.906 0
  115.000 121.066 11
  116.000 17.220 0
  117.000 40.007 3
  119.000 33.697 2
  120.000 26.235 1
  121.000 257.516 24
  122.000 28.913 1
  123.000 12.137 0
  124.000 15.826 0
  127.000 58.536 4
  128.000 132.264 12
  129.000 154.148 14
  130.000 16.307 0
  131.000 156.482 14
  132.000 81.907 7
  133.000 38.142 2
  134.000 30.348 2
  135.000 22.033 1
  136.000 10.610 0
  137.000 655.662 64
  138.000 22.613 1
  139.000 11.048 0
  141.000 394.179 38
  142.000 49.546 3
  143.000 161.825 15
  144.000 555.643 54
  145.000 168.941 15
  146.000 135.147 12
  147.000 79.617 6
  148.000 39.458 2
  149.000 61.778 5
  150.000 37.790 2
  151.000 62.014 5
  152.000 130.097 12
  153.000 1004.337 99
  154.000 191.810 18
  155.000 1857.152 184
  156.000 332.929 32
  157.000 203.141 19
  158.000 426.633 41
  159.000 1013.035 100
  160.000 147.715 13
  161.000 1567.178 155
  162.000 124.284 11
  163.000 78.079 6
  164.000 107.397 9
  165.000 3236.052 322
  166.000 285.653 27
  167.000 331.363 32
  168.000 550.256 54
  169.000 259.575 24
  170.000 154.293 14
  171.000 1487.907 147
  172.000 783.496 77
  173.000 209.526 19
  174.000 267.053 25
  175.000 493.511 48
  176.000 75.649 6
  177.000 191.173 18
  178.000 286.012 27
  179.000 394.628 38
  180.000 133.575 12
  181.000 1898.672 188
  182.000 535.975 52
  183.000 3122.346 311
  184.000 354.304 34
  185.000 728.621 71
  186.000 455.616 44
  187.000 1964.735 195
  188.000 91.880 8
  189.000 136.115 12
  190.000 167.616 15
  191.000 724.279 71
  192.000 186.985 17
  193.000 1523.437 151
  194.000 1305.210 129
  195.000 371.443 36
  196.000 95.829 8
  197.000 752.548 74
  198.000 608.431 59
  199.000 4302.732 429
  200.000 668.295 65
  201.000 546.363 53
  202.000 145.862 13
  203.000 185.838 17
  204.000 33.647 2
  205.000 129.981 11
  206.000 62.674 5
  207.000 288.210 27
  208.000 285.299 27
  209.000 1097.066 108
  210.000 677.903 66
  211.000 588.110 57
  212.000 521.791 51
  213.000 1023.873 101
  214.000 152.045 14
  215.000 4079.062 406
  216.000 110.444 10
  217.000 29.104 1
  218.000 103.469 9
  219.000 380.136 37
  220.000 349.211 33
  221.000 557.770 54
  222.000 131.173 12
  223.000 954.376 94
  224.000 175.035 16
  225.000 2951.212 294
  226.000 230.040 22
  227.000 171.702 16
  228.000 193.666 18
  229.000 56.082 4
  230.000 49.867 3
  231.000 13.429 0
  232.000 12.971 0
  233.000 33.524 2
  234.000 44.536 3
  235.000 110.906 10
  236.000 334.912 32
  237.000 144.321 13
  238.000 231.816 22
  239.000 258.065 24
  240.000 69.951 5
  241.000 1334.694 132
  242.000 104.241 9
  243.000 1289.584 127
  244.000 96.063 8
  248.000 96.674 8
  249.000 52.806 4
  250.000 274.213 26
  251.000 350.792 34
  252.000 191.805 18
  253.000 175.881 16
  254.000 102.089 9
  256.000 34.117 2
  257.000 25.302 1
  264.000 14.213 0
  265.000 28.415 1
  266.000 793.418 78
  267.000 319.345 30
  268.000 65.585 5
  269.000 68.405 5
  270.000 16.025 0
  272.000 15.523 0
  280.000 19.977 0
  282.000 320.990 31
  283.000 33.113 2
  285.000 112.801 10
  298.000 24.118 1
  299.000 54.999 4
  300.000 10000.000 999
  301.000 657.200 64
//
