ACCESSION: MSBNK-IPB_Halle-PN000042
RECORD_TITLE: Genistein 4',7-O-diglucoside dimalonylated; ESI-TOF; MS2; CE:15 eV; [M+H]+
DATE: 2011.03.18
AUTHORS: Institute of Bioorganic Chemistry, Polish Academy of Sciences,Poland/Anna Staszków
LICENSE: CC BY-SA
COPYRIGHT: Copyright(C) 2011
COMMENT: lupinus_mexico
CH$NAME: Genistein 4',7-O-diglucoside dimalonylated
CH$COMPOUND_CLASS: Natural Product; isoflavone
CH$FORMULA: C33H34O21
CH$EXACT_MASS: 766.1592581079999
CH$SMILES: N/A
CH$IUPAC: N/A
AC$INSTRUMENT: micrOTOF-Q
AC$INSTRUMENT_TYPE: ESI-TOF
AC$MASS_SPECTROMETRY: MS_TYPE MS2
AC$MASS_SPECTROMETRY: ION_MODE POSITIVE
AC$MASS_SPECTROMETRY: COLLISION_ENERGY 15 eV
AC$MASS_SPECTROMETRY: IONIZATION ESI
AC$MASS_SPECTROMETRY: ISOLATION_WIDTH 7
AC$MASS_SPECTROMETRY: COLLISION_GAS argon
AC$MASS_SPECTROMETRY: PEAK_WIDTH 0.017
AC$MASS_SPECTROMETRY: MASS_RANGE_M/Z 44.9261-1004.93
AC$CHROMATOGRAPHY: RETENTION_TIME 278.464 sec
AC$CHROMATOGRAPHY: COLUMN_NAME Poroshell 120,EC-C18 2.1x100mm,2.7um
MS$FOCUSED_ION: PRECURSOR_M/Z 767.168
MS$FOCUSED_ION: PRECURSOR_TYPE [M+H]+
MS$FOCUSED_ION: BASE_PEAK 519.115
MS$DATA_PROCESSING: CHARGE_DECONVOLUTION 2
PK$SPLASH: splash10-014i-0010090400-e0dd363a250d6e68b269
PK$NUM_PEAK: 6
PK$PEAK: m/z int. rel.int.
  271.0609 177 177
  519.1165 999 999
  520.1147 229 229
  521.1138 66 66
  767.1696 528 528
  768.1718 129 129
//
