ACCESSION: MSBNK-IPB_Halle-PB002423
RECORD_TITLE: Resveratrol; LC-ESI-QTOF; MS2; CE:40 eV; [M-H]-
DATE: 2016.01.19 (Created 2008.03.20, modified 2013.06.04)
AUTHORS: Boettcher C, Institute of Plant Biochemistry, Halle, Germany
LICENSE: CC BY-SA
COMMENT: IPB_RECORD: 1781
COMMENT: CONFIDENCE confident structure
CH$NAME: Resveratrol
CH$NAME: 5-[(E)-2-(4-hydroxyphenyl)ethenyl]benzene-1,3-diol
CH$COMPOUND_CLASS: Natural Product; Stilbene
CH$FORMULA: C14H12O3
CH$EXACT_MASS: 228.07864
CH$SMILES: C1=CC(=CC=C1/C=C/C2=CC(=CC(=C2)O)O)O
CH$IUPAC: InChI=1S/C14H12O3/c15-12-5-3-10(4-6-12)1-2-11-7-13(16)9-14(17)8-11/h1-9,15-17H/b2-1+
CH$LINK: INCHIKEY LUKBXSAWLPMMSZ-OWOJBTEDSA-N
CH$LINK: KEGG C03582
CH$LINK: PUBCHEM CID:445154
CH$LINK: COMPTOX DTXSID4031980
AC$INSTRUMENT: API QSTAR Pulsar i
AC$INSTRUMENT_TYPE: LC-ESI-QTOF
AC$MASS_SPECTROMETRY: MS_TYPE MS2
AC$MASS_SPECTROMETRY: ION_MODE NEGATIVE
AC$MASS_SPECTROMETRY: COLLISION_ENERGY 40 eV
AC$MASS_SPECTROMETRY: IONIZATION ESI
MS$FOCUSED_ION: PRECURSOR_TYPE [M-H]-
PK$SPLASH: splash10-0006-0900000000-b1333b06db343c38f529
PK$NUM_PEAK: 17
PK$PEAK: m/z int. rel.int.
  93.031 178.579 16
  115.053 1432.241 142
  117.032 1340.984 133
  119.048 806.557 79
  141.070 298.798 28
  143.049 10000.000 999
  145.029 148.634 13
  156.058 287.978 27
  157.066 434.044 42
  159.081 422.404 41
  167.050 179.399 16
  180.056 285.792 27
  181.064 626.230 61
  182.071 588.525 57
  183.075 364.863 35
  184.051 164.645 15
  185.057 803.279 79
//
