ACCESSION: MSBNK-IPB_Halle-PN000103
RECORD_TITLE: Luteone O-glucoside; ESI-TOF; MS2; CE:15 eV; [M+H]+
DATE: 2011.03.18
AUTHORS: Institute of Bioorganic Chemistry, Polish Academy of Sciences,Poland/Anna Staszków
LICENSE: CC BY-SA
COPYRIGHT: Copyright(C) 2011
COMMENT: lupinus_mexico
CH$NAME: Luteone O-glucoside
CH$COMPOUND_CLASS: Natural Product; isoflavone
CH$FORMULA: C26H28O11
CH$EXACT_MASS: 516.163161716
CH$SMILES: N/A
CH$IUPAC: N/A
AC$INSTRUMENT: micrOTOF-Q
AC$INSTRUMENT_TYPE: ESI-TOF
AC$MASS_SPECTROMETRY: MS_TYPE MS2
AC$MASS_SPECTROMETRY: ION_MODE POSITIVE
AC$MASS_SPECTROMETRY: COLLISION_ENERGY 15 eV
AC$MASS_SPECTROMETRY: IONIZATION ESI
AC$MASS_SPECTROMETRY: ISOLATION_WIDTH 7
AC$MASS_SPECTROMETRY: COLLISION_GAS argon
AC$MASS_SPECTROMETRY: PEAK_WIDTH 0.021
AC$MASS_SPECTROMETRY: MASS_RANGE_M/Z 49.999-1000
AC$CHROMATOGRAPHY: RETENTION_TIME 430.297 sec
AC$CHROMATOGRAPHY: COLUMN_NAME Poroshell 120,EC-C18 2.1x100mm,2.7um
MS$FOCUSED_ION: PRECURSOR_M/Z 517.175
MS$FOCUSED_ION: PRECURSOR_TYPE [M+H]+
MS$FOCUSED_ION: BASE_PEAK 299.057
MS$DATA_PROCESSING: CHARGE_DECONVOLUTION 2
PK$SPLASH: splash10-052b-0095000000-1f283382fe94147384bb
PK$NUM_PEAK: 2
PK$PEAK: m/z int. rel.int.
  299.0570 999 999
  355.1176 600 600
//
