ACCESSION: MSBNK-IPB_Halle-PB005961
RECORD_TITLE: Safranin; LC-ESI-QTOF; MS2; CE:10 eV; M+
DATE: 2016.01.19 (Created 2009.03.23, modified 2013.06.04)
AUTHORS: Heinz T, Institute of Plant Biochemistry, Halle, Germany
LICENSE: CC BY-SA
COMMENT: IPB_RECORD: 2561
COMMENT: CONFIDENCE confident structure
CH$NAME: Safranin
CH$NAME: 3,7-dimethyl-10-phenylphenazin-10-ium-2,8-diamine
CH$COMPOUND_CLASS: Natural Product
CH$FORMULA: [C20H19N4]+
CH$EXACT_MASS: 315.16097
CH$SMILES: CC1=CC2=C(C=C1N)[N+](=C3C=C(C(=CC3=N2)C)N)C4=CC=CC=C4
CH$IUPAC: InChI=1S/C20H18N4/c1-12-8-17-19(10-15(12)21)24(14-6-4-3-5-7-14)20-11-16(22)13(2)9-18(20)23-17/h3-11H,1-2H3,(H3,21,22)/p+1
CH$LINK: INCHIKEY WULISCVZERSMML-UHFFFAOYSA-O
CH$LINK: PUBCHEM CID:2723801
CH$LINK: COMPTOX DTXSID40369103
AC$INSTRUMENT: micrOTOF-Q
AC$INSTRUMENT_TYPE: LC-ESI-QTOF
AC$MASS_SPECTROMETRY: MS_TYPE MS2
AC$MASS_SPECTROMETRY: ION_MODE POSITIVE
AC$MASS_SPECTROMETRY: COLLISION_ENERGY 10 eV
AC$MASS_SPECTROMETRY: IONIZATION ESI
MS$FOCUSED_ION: PRECURSOR_TYPE [M]+
PK$SPLASH: splash10-014i-0009000000-54734d2bb7494559e436
PK$NUM_PEAK: 4
PK$PEAK: m/z int. rel.int.
  315.156 10000.000 999
  315.585 10.010 0
  316.159 1751.752 174
  317.160 20.020 1
//
