ACCESSION: MSBNK-IPB_Halle-PB000841
RECORD_TITLE: Daidzein; LC-ESI-QTOF; MS2; CE:25 eV; [M+H]+
DATE: 2016.01.19 (Created 2008.03.25, modified 2013.06.04)
AUTHORS: Boettcher C, Institute of Plant Biochemistry, Halle, Germany
LICENSE: CC BY-SA
COMMENT: IPB_RECORD: 421
COMMENT: CONFIDENCE confident structure
CH$NAME: Daidzein
CH$NAME: 7-hydroxy-3-(4-hydroxyphenyl)chromen-4-one
CH$COMPOUND_CLASS: Natural Product; Isoflavone
CH$FORMULA: C15H10O4
CH$EXACT_MASS: 254.05791
CH$SMILES: C1=CC(=CC=C1C2=COC3=C(C2=O)C=CC(=C3)O)O
CH$IUPAC: InChI=1S/C15H10O4/c16-10-3-1-9(2-4-10)13-8-19-14-7-11(17)5-6-12(14)15(13)18/h1-8,16-17H
CH$LINK: INCHIKEY ZQSIJRDFPHDXIC-UHFFFAOYSA-N
CH$LINK: KEGG C10208
CH$LINK: PUBCHEM CID:5281708
CH$LINK: COMPTOX DTXSID9022310
AC$INSTRUMENT: API QSTAR Pulsar i
AC$INSTRUMENT_TYPE: LC-ESI-QTOF
AC$MASS_SPECTROMETRY: MS_TYPE MS2
AC$MASS_SPECTROMETRY: ION_MODE POSITIVE
AC$MASS_SPECTROMETRY: COLLISION_ENERGY 25 eV
AC$MASS_SPECTROMETRY: IONIZATION ESI
MS$FOCUSED_ION: PRECURSOR_TYPE [M+H]+
PK$SPLASH: splash10-0a4i-0290000000-d64d585a2d69c5127b54
PK$NUM_PEAK: 11
PK$PEAK: m/z int. rel.int.
  137.011 743.329 73
  145.017 165.227 15
  153.060 89.496 7
  157.057 110.292 10
  171.076 89.920 7
  181.063 249.301 23
  199.075 1441.762 143
  227.072 991.953 98
  237.060 390.343 38
  255.065 10000.000 999
  256.077 810.250 80
//
