ACCESSION: MSBNK-IPB_Halle-PB000431
RECORD_TITLE: Citrulline; LC-ESI-QTOF; MS2; CE:10 eV; [M+H]+
DATE: 2016.01.19 (Created 2008.01.02, modified 2013.06.04)
AUTHORS: Boettcher C, Institute of Plant Biochemistry, Halle, Germany
LICENSE: CC BY-SA
COMMENT: IPB_RECORD: 257
COMMENT: CONFIDENCE confident structure
CH$NAME: Citrulline
CH$NAME: 2-amino-5-(carbamoylamino)pentanoic acid
CH$COMPOUND_CLASS: Natural Product; amino acid
CH$FORMULA: C6H13N3O3
CH$EXACT_MASS: 175.09569
CH$SMILES: C(CC(C(=O)O)N)CNC(=O)N
CH$IUPAC: InChI=1S/C6H13N3O3/c7-4(5(10)11)2-1-3-9-6(8)12/h4H,1-3,7H2,(H,10,11)(H3,8,9,12)
CH$LINK: INCHIKEY RHGKLRLOHDJJDR-UHFFFAOYSA-N
CH$LINK: KEGG C00327
CH$LINK: PUBCHEM CID:833
AC$INSTRUMENT: API QSTAR Pulsar i
AC$INSTRUMENT_TYPE: LC-ESI-QTOF
AC$MASS_SPECTROMETRY: MS_TYPE MS2
AC$MASS_SPECTROMETRY: ION_MODE POSITIVE
AC$MASS_SPECTROMETRY: COLLISION_ENERGY 10 eV
AC$MASS_SPECTROMETRY: IONIZATION ESI
MS$FOCUSED_ION: PRECURSOR_TYPE [M+H]+
PK$SPLASH: splash10-056r-0900000000-4a5fc0dfc372dbdce3da
PK$NUM_PEAK: 7
PK$PEAK: m/z int. rel.int.
  113.071 43.231 3
  115.089 35.267 2
  130.097 64.512 5
  133.096 64.058 5
  158.094 67.857 5
  159.078 5159.509 514
  176.102 10000.000 999
//
