ACCESSION: MSBNK-IPB_Halle-PB006201
RECORD_TITLE: Rutin; LC-ESI-QTOF; MS2; CE:10 eV; [M+H]+
DATE: 2016.01.19 (Created 2009.02.16, modified 2013.06.04)
AUTHORS: Heinz T, Institute of Plant Biochemistry, Halle, Germany
LICENSE: CC BY-SA
COMMENT: IPB_RECORD: 1921
COMMENT: CONFIDENCE confident structure
CH$NAME: Rutin
CH$NAME: 2-(3,4-dihydroxyphenyl)-5,7-dihydroxy-3-[(2S,3R,4S,5S,6R)-3,4,5-trihydroxy-6-[[(2R,3R,4R,5R,6S)-3,4,5-trihydroxy-6-methyloxan-2-yl]oxymethyl]oxan-2-yl]oxychromen-4-one
CH$COMPOUND_CLASS: Natural Product; Flavonoids
CH$FORMULA: C27H30O16
CH$EXACT_MASS: 610.15338
CH$SMILES: C[C@H]1[C@@H]([C@H]([C@H]([C@@H](O1)OC[C@@H]2[C@H]([C@@H]([C@H]([C@@H](O2)OC3=C(OC4=CC(=CC(=C4C3=O)O)O)C5=CC(=C(C=C5)O)O)O)O)O)O)O)O
CH$IUPAC: InChI=1S/C27H30O16/c1-8-17(32)20(35)22(37)26(40-8)39-7-15-18(33)21(36)23(38)27(42-15)43-25-19(34)16-13(31)5-10(28)6-14(16)41-24(25)9-2-3-11(29)12(30)4-9/h2-6,8,15,17-18,20-23,26-33,35-38H,7H2,1H3/t8-,15+,17-,18+,20+,21-,22+,23+,26+,27-/m0/s1
CH$LINK: INCHIKEY IKGXIBQEEMLURG-NVPNHPEKSA-N
CH$LINK: PUBCHEM CID:5280805
CH$LINK: COMPTOX DTXSID3022326
AC$INSTRUMENT: micrOTOF-Q
AC$INSTRUMENT_TYPE: LC-ESI-QTOF
AC$MASS_SPECTROMETRY: MS_TYPE MS2
AC$MASS_SPECTROMETRY: ION_MODE POSITIVE
AC$MASS_SPECTROMETRY: COLLISION_ENERGY 10 eV
AC$MASS_SPECTROMETRY: IONIZATION ESI
MS$FOCUSED_ION: PRECURSOR_TYPE [M+H]+
PK$SPLASH: splash10-0udi-0009300000-d5183f81716bf8deb8ee
PK$NUM_PEAK: 19
PK$PEAK: m/z int. rel.int.
  129.053 20.020 1
  147.064 10.010 0
  255.083 10.010 0
  273.093 20.020 1
  302.771 10.010 0
  302.862 10.010 0
  303.046 10000.000 999
  303.676 10.010 0
  304.049 1031.031 102
  305.052 50.050 4
  309.114 40.040 3
  449.102 270.270 26
  450.106 40.040 3
  465.097 3733.734 372
  466.100 620.621 61
  467.103 30.030 2
  611.153 620.621 61
  612.156 150.150 14
  613.158 10.010 0
//
