ACCESSION: MSBNK-IPB_Halle-PN000087
RECORD_TITLE: Biochanin A O-glucosylglucoside; ESI-TOF; MS2; CE:15 eV; [M+H]+
DATE: 2011.03.18
AUTHORS: Institute of Bioorganic Chemistry, Polish Academy of Sciences,Poland/Anna Staszków
LICENSE: CC BY-SA
COPYRIGHT: Copyright(C) 2011
COMMENT: lupinus_mexico
CH$NAME: Biochanin A O-glucosylglucoside
CH$COMPOUND_CLASS: Natural Product; isoflavone
CH$FORMULA: C28H32O15
CH$EXACT_MASS: 608.174120324
CH$SMILES: N/A
CH$IUPAC: N/A
AC$INSTRUMENT: micrOTOF-Q
AC$INSTRUMENT_TYPE: ESI-TOF
AC$MASS_SPECTROMETRY: MS_TYPE MS2
AC$MASS_SPECTROMETRY: ION_MODE POSITIVE
AC$MASS_SPECTROMETRY: COLLISION_ENERGY 15 eV
AC$MASS_SPECTROMETRY: IONIZATION ESI
AC$MASS_SPECTROMETRY: ISOLATION_WIDTH 7
AC$MASS_SPECTROMETRY: COLLISION_GAS argon
AC$MASS_SPECTROMETRY: PEAK_WIDTH 0.023
AC$MASS_SPECTROMETRY: MASS_RANGE_M/Z 49.999-1000
AC$CHROMATOGRAPHY: RETENTION_TIME 364.532 sec
AC$CHROMATOGRAPHY: COLUMN_NAME Poroshell 120,EC-C18 2.1x100mm,2.7um
MS$FOCUSED_ION: PRECURSOR_M/Z 609.184
MS$FOCUSED_ION: PRECURSOR_TYPE [M+H]+
MS$FOCUSED_ION: BASE_PEAK 285.076
MS$DATA_PROCESSING: CHARGE_DECONVOLUTION 2
PK$SPLASH: splash10-000i-0090000000-f84ba9dccd3b5ca03f4d
PK$NUM_PEAK: 11
PK$PEAK: m/z int. rel.int.
  145.0527 5 5
  285.0756 999 999
  286.0797 99 99
  287.0877 11 11
  429.1245 4 4
  447.1291 55 55
  448.1372 9 9
  449.1383 4 4
  609.1815 33 33
  610.1848 7 7
  611.1953 3 3
//
