ACCESSION: MSBNK-IPB_Halle-PB004922
RECORD_TITLE: Xanthohumol; LC-ESI-QQ; MS2; CE:20 eV; [M+H]+
DATE: 2016.01.19 (Created 2009.05.12, modified 2013.06.04)
AUTHORS: Schmidt J, Institute of Plant Biochemistry, Halle, Germany
LICENSE: CC BY-SA
COMMENT: IPB_RECORD: 4101
COMMENT: CONFIDENCE confident structure
CH$NAME: Xanthohumol
CH$NAME: (E)-1-[2,4-dihydroxy-6-methoxy-3-(3-methylbut-2-enyl)phenyl]-3-(4-hydroxyphenyl)prop-2-en-1-one
CH$COMPOUND_CLASS: Natural Product; Chalcones
CH$FORMULA: C21H22O5
CH$EXACT_MASS: 354.14672
CH$SMILES: CC(=CCC1=C(C(=C(C=C1O)OC)C(=O)/C=C/C2=CC=C(C=C2)O)O)C
CH$IUPAC: InChI=1S/C21H22O5/c1-13(2)4-10-16-18(24)12-19(26-3)20(21(16)25)17(23)11-7-14-5-8-15(22)9-6-14/h4-9,11-12,22,24-25H,10H2,1-3H3/b11-7+
CH$LINK: INCHIKEY ORXQGKIUCDPEAJ-YRNVUSSQSA-N
CH$LINK: PUBCHEM CID:639665
CH$LINK: COMPTOX DTXSID00893171
AC$INSTRUMENT: TSQ QUANTUM AM
AC$INSTRUMENT_TYPE: LC-ESI-QQ
AC$MASS_SPECTROMETRY: MS_TYPE MS2
AC$MASS_SPECTROMETRY: ION_MODE POSITIVE
AC$MASS_SPECTROMETRY: COLLISION_ENERGY 20 eV
AC$MASS_SPECTROMETRY: IONIZATION ESI
MS$FOCUSED_ION: PRECURSOR_TYPE [M+H]+
PK$SPLASH: splash10-004i-0910000000-2dea6c7222209825ac37
PK$NUM_PEAK: 7
PK$PEAK: m/z int. rel.int.
  151.000 25.923 1
  179.000 10000.000 999
  197.000 11.395 0
  235.000 35.186 2
  257.000 179.211 16
  299.000 1114.878 110
  355.000 17.263 0
//
