ACCESSION: MSBNK-IPB_Halle-PB000500
RECORD_TITLE: 5-methoxyindole-3-carbaldehyde; LC-ESI-QTOF; MS2; CE:10 eV; [M+H]+
DATE: 2016.01.19 (Created 2008.01.02, modified 2013.06.04)
AUTHORS: Boettcher C, Institute of Plant Biochemistry, Halle, Germany
LICENSE: CC BY-SA
COMMENT: IPB_RECORD: 273
COMMENT: CONFIDENCE confident structure
CH$NAME: 5-methoxyindole-3-carbaldehyde
CH$COMPOUND_CLASS: Natural Product; indole
CH$FORMULA: C10H9NO2
CH$EXACT_MASS: 175.06333
CH$SMILES: COC1=CC2=C(C=C1)NC=C2C=O
CH$IUPAC: InChI=1S/C10H9NO2/c1-13-8-2-3-10-9(4-8)7(6-12)5-11-10/h2-6,11H,1H3
CH$LINK: INCHIKEY TUWARWGEOHQXCO-UHFFFAOYSA-N
CH$LINK: PUBCHEM CID:82758
CH$LINK: COMPTOX DTXSID70147471
AC$INSTRUMENT: API QSTAR Pulsar i
AC$INSTRUMENT_TYPE: LC-ESI-QTOF
AC$MASS_SPECTROMETRY: MS_TYPE MS2
AC$MASS_SPECTROMETRY: ION_MODE POSITIVE
AC$MASS_SPECTROMETRY: COLLISION_ENERGY 10 eV
AC$MASS_SPECTROMETRY: IONIZATION ESI
MS$FOCUSED_ION: PRECURSOR_TYPE [M+H]+
PK$SPLASH: splash10-004i-0900000000-60c5041c51a5a929a0ce
PK$NUM_PEAK: 2
PK$PEAK: m/z int. rel.int.
  148.075 137.297 12
  176.070 10000.000 999
//
