ACCESSION: MSBNK-IPB_Halle-PN000027
RECORD_TITLE: 2'-Hydroxygenistein C-glucoside malonylated; ESI-TOF; MS2; CE:25 eV; [M-H]-
DATE: 2011.03.19
AUTHORS: Institute of Bioorganic Chemistry, Polish Academy of Sciences,Poland/Anna Staszków
LICENSE: CC BY-SA
COPYRIGHT: Copyright(C) 2011
COMMENT: lupinus_mexico
CH$NAME: 2'-Hydroxygenistein C-glucoside malonylated
CH$NAME: 2'Hydroxygenistein C-glucoside malonylated
CH$COMPOUND_CLASS: Natural Product; isoflavone
CH$FORMULA: C24H22O14
CH$EXACT_MASS: 534.1009553839999
CH$SMILES: N/A
CH$IUPAC: N/A
AC$INSTRUMENT: micrOTOF-Q
AC$INSTRUMENT_TYPE: ESI-TOF
AC$MASS_SPECTROMETRY: MS_TYPE MS2
AC$MASS_SPECTROMETRY: ION_MODE NEGATIVE
AC$MASS_SPECTROMETRY: IONIZATION ESI
AC$MASS_SPECTROMETRY: ISOLATION_WIDTH 7
AC$MASS_SPECTROMETRY: COLLISION_ENERGY 25 eV
AC$MASS_SPECTROMETRY: COLLISION_GAS argon
AC$MASS_SPECTROMETRY: PEAK_WIDTH 0.024
AC$MASS_SPECTROMETRY: MASS_RANGE_M/Z 49.999-1200
AC$CHROMATOGRAPHY: RETENTION_TIME 273.132 sec
AC$CHROMATOGRAPHY: COLUMN_NAME Poroshell 120,EC-C18 2.1x100mm,2.7um
MS$FOCUSED_ION: PRECURSOR_M/Z 533.093
MS$FOCUSED_ION: PRECURSOR_TYPE [M-H]-
MS$FOCUSED_ION: BASE_PEAK 327.051
MS$DATA_PROCESSING: CHARGE_DECONVOLUTION 2
PK$SPLASH: splash10-004i-0009000000-35a7958e4a35e11d02e1
PK$NUM_PEAK: 16
PK$PEAK: m/z int. rel.int.
  285.038 31 31
  297.046 41 41
  299.055 56 56
  327.051 999 999
  328.056 143 143
  329.064 26 26
  339.050 25 25
  357.062 261 261
  358.064 65 65
  365.067 14 14
  369.063 52 52
  393.069 29 29
  429.081 89 89
  430.084 19 19
  447.094 15 15
  489.106 27 27
//
