ACCESSION: MSBNK-IPB_Halle-PB001329
RECORD_TITLE: Catechin; LC-ESI-QTOF; MS2; CE:15 eV; [M+H]+
DATE: 2016.01.19 (Created 2008.05.22, modified 2013.06.04)
AUTHORS: Boettcher C, Institute of Plant Biochemistry, Halle, Germany
LICENSE: CC BY-SA
COMMENT: IPB_RECORD: 501
COMMENT: CONFIDENCE confident structure
CH$NAME: Catechin
CH$NAME: (2R,3S)-2-(3,4-dihydroxyphenyl)chroman-3,5,7-triol
CH$COMPOUND_CLASS: Natural Product; Flavanol
CH$FORMULA: C15H14O6
CH$EXACT_MASS: 290.07904
CH$SMILES: C1[C@@H]([C@H](OC2=CC(=CC(=C21)O)O)C3=CC(=C(C=C3)O)O)O
CH$IUPAC: InChI=1S/C15H14O6/c16-8-4-11(18)9-6-13(20)15(21-14(9)5-8)7-1-2-10(17)12(19)3-7/h1-5,13,15-20H,6H2/t13-,15+/m0/s1
CH$LINK: INCHIKEY PFTAWBLQPZVEMU-DZGCQCFKSA-N
CH$LINK: KEGG C06562
CH$LINK: PUBCHEM CID:9064
CH$LINK: COMPTOX DTXSID3022322
AC$INSTRUMENT: API QSTAR Pulsar i
AC$INSTRUMENT_TYPE: LC-ESI-QTOF
AC$MASS_SPECTROMETRY: MS_TYPE MS2
AC$MASS_SPECTROMETRY: ION_MODE POSITIVE
AC$MASS_SPECTROMETRY: COLLISION_ENERGY 15 eV
AC$MASS_SPECTROMETRY: IONIZATION ESI
MS$FOCUSED_ION: PRECURSOR_TYPE [M+H]+
PK$SPLASH: splash10-0076-0950000000-f57ee00fad87339acfd6
PK$NUM_PEAK: 15
PK$PEAK: m/z int. rel.int.
  123.043 5195.263 518
  139.039 8541.194 853
  140.043 101.663 9
  147.044 418.241 40
  151.039 572.814 56
  153.056 88.095 7
  163.043 104.560 9
  165.058 3732.678 372
  169.054 369.992 35
  181.055 108.932 9
  207.070 184.051 17
  249.080 298.438 28
  273.078 571.303 56
  291.086 10000.000 999
  292.092 269.841 25
//
