ACCESSION: MSBNK-IPB_Halle-PB000479
RECORD_TITLE: Dopamine; LC-ESI-QTOF; MS2; CE:20 eV; [M+H]+
DATE: 2016.01.19 (Created 2008.01.02, modified 2013.06.04)
AUTHORS: Boettcher C, Institute of Plant Biochemistry, Halle, Germany
LICENSE: CC BY-SA
COMMENT: IPB_RECORD: 268
CH$NAME: Dopamine
CH$NAME: 4-(2-aminoethyl)benzene-1,2-diol
CH$COMPOUND_CLASS: Natural Product; biogenic amine
CH$FORMULA: C8H11NO2
CH$EXACT_MASS: 153.07898
CH$SMILES: C1=CC(=C(C=C1CCN)O)O
CH$IUPAC: InChI=1S/C8H11NO2/c9-4-3-6-1-2-7(10)8(11)5-6/h1-2,5,10-11H,3-4,9H2
CH$LINK: INCHIKEY VYFYYTLLBUKUHU-UHFFFAOYSA-N
CH$LINK: KEGG C03758
CH$LINK: PUBCHEM CID:681
CH$LINK: COMPTOX DTXSID6022420
AC$INSTRUMENT: API QSTAR Pulsar i
AC$INSTRUMENT_TYPE: LC-ESI-QTOF
AC$MASS_SPECTROMETRY: MS_TYPE MS2
AC$MASS_SPECTROMETRY: ION_MODE POSITIVE
AC$MASS_SPECTROMETRY: COLLISION_ENERGY 20 eV
AC$MASS_SPECTROMETRY: IONIZATION ESI
MS$FOCUSED_ION: PRECURSOR_TYPE [M+H]+
PK$SPLASH: splash10-000i-1900000000-0827bb8aa6cc224fce1e
PK$NUM_PEAK: 4
PK$PEAK: m/z int. rel.int.
  91.054 1492.033 148
  109.063 137.922 12
  119.048 1692.793 168
  137.059 10000.000 999
//
