ACCESSION: MSBNK-IPB_Halle-PB005761
RECORD_TITLE: Reserpine; LC-ESI-QTOF; MS2; CE:15 eV; [M+H]+
DATE: 2016.01.19 (Created 2009.02.18, modified 2013.06.04)
AUTHORS: Heinz T, Institute of Plant Biochemistry, Halle, Germany
LICENSE: CC BY-SA
COMMENT: IPB_RECORD: 2261
COMMENT: CONFIDENCE confident structure
CH$NAME: Reserpine
CH$NAME: methyl (1R,15S,17R,18R,19S,20S)-6,18-dimethoxy-17-[(3,4,5-trimethoxyphenyl)carbonyloxy]- 3,13-diazapentacyclo[11.8.0.02,10.04,9.015,20]henicosa-2(10),4(9),5,7-tetraene-19-carboxylate
CH$COMPOUND_CLASS: Natural Product
CH$FORMULA: C33H40N2O9
CH$EXACT_MASS: 608.27338
CH$SMILES: CO[C@H]1[C@@H](C[C@@H]2CN3CCC4=C([C@H]3C[C@@H]2[C@@H]1C(=O)OC)NC5=C4C=CC(=C5)OC)OC(=O)C6=CC(=C(C(=C6)OC)OC)OC
CH$IUPAC: InChI=1S/C33H40N2O9/c1-38-19-7-8-20-21-9-10-35-16-18-13-27(44-32(36)17-11-25(39-2)30(41-4)26(12-17)40-3)31(42-5)28(33(37)43-6)22(18)15-24(35)29(21)34-23(20)14-19/h7-8,11-12,14,18,22,24,27-28,31,34H,9-10,13,15-16H2,1-6H3/t18-,22+,24-,27-,28+,31+/m1/s1
CH$LINK: INCHIKEY QEVHRUUCFGRFIF-MDEJGZGSSA-N
CH$LINK: PUBCHEM CID:5770
CH$LINK: COMPTOX DTXSID7021237
AC$INSTRUMENT: micrOTOF-Q
AC$INSTRUMENT_TYPE: LC-ESI-QTOF
AC$MASS_SPECTROMETRY: MS_TYPE MS2
AC$MASS_SPECTROMETRY: ION_MODE POSITIVE
AC$MASS_SPECTROMETRY: COLLISION_ENERGY 15 eV
AC$MASS_SPECTROMETRY: IONIZATION ESI
MS$FOCUSED_ION: PRECURSOR_TYPE [M+H]+
PK$SPLASH: splash10-0a4i-0000009000-ff4084f4af36b83b2568
PK$NUM_PEAK: 13
PK$PEAK: m/z int. rel.int.
  174.089 10.020 0
  195.063 50.100 4
  236.124 10.020 0
  365.179 20.040 1
  397.207 400.802 39
  398.209 60.120 5
  448.191 30.060 2
  577.247 20.040 1
  608.788 10.020 0
  609.273 10000.000 999
  609.855 10.020 0
  610.276 2555.110 254
  611.278 120.240 11
//
