ACCESSION: MSBNK-IPB_Halle-PB005841
RECORD_TITLE: Cinchonine; LC-ESI-QTOF; MS2; CE:10 eV; [M+H]+
DATE: 2016.01.19 (Created 2009.02.20, modified 2013.06.04)
AUTHORS: Heinz T, Institute of Plant Biochemistry, Halle, Germany
LICENSE: CC BY-SA
COMMENT: IPB_RECORD: 2401
COMMENT: CONFIDENCE confident structure
CH$NAME: Cinchonine
CH$NAME: (S)-(5-ethenyl-1-azabicyclo[2.2.2]octan-7-yl)-quinolin-4-ylmethanol
CH$COMPOUND_CLASS: Natural Product
CH$FORMULA: C19H22N2O
CH$EXACT_MASS: 294.17321
CH$SMILES: C=C[C@H]1CN2CC[C@H]1C[C@@H]2[C@H](C3=CC=NC4=CC=CC=C34)O
CH$IUPAC: InChI=1S/C19H22N2O/c1-2-13-12-21-10-8-14(13)11-18(21)19(22)16-7-9-20-17-6-4-3-5-15(16)17/h2-7,9,13-14,18-19,22H,1,8,10-12H2/t13-,14-,18+,19-/m0/s1
CH$LINK: INCHIKEY KMPWYEUPVWOPIM-QAMTZSDWSA-N
CH$LINK: PUBCHEM CID:90454
AC$INSTRUMENT: micrOTOF-Q
AC$INSTRUMENT_TYPE: LC-ESI-QTOF
AC$MASS_SPECTROMETRY: MS_TYPE MS2
AC$MASS_SPECTROMETRY: ION_MODE POSITIVE
AC$MASS_SPECTROMETRY: COLLISION_ENERGY 10 eV
AC$MASS_SPECTROMETRY: IONIZATION ESI
MS$FOCUSED_ION: PRECURSOR_TYPE [M+H]+
PK$SPLASH: splash10-0002-0090000000-b83a007e04ce7afb5bf3
PK$NUM_PEAK: 7
PK$PEAK: m/z int. rel.int.
  234.124 10.010 0
  277.166 170.170 16
  278.170 20.020 1
  294.969 10.010 0
  295.176 10000.000 999
  296.180 1511.512 150
  297.183 20.020 1
//
