ACCESSION: MSBNK-IPB_Halle-PB000510
RECORD_TITLE: Indoleacetic acid; LC-ESI-QTOF; MS2; CE:10 eV; [M+H]+
DATE: 2016.01.19 (Created 2008.01.02, modified 2013.06.04)
AUTHORS: Boettcher C, Institute of Plant Biochemistry, Halle, Germany
LICENSE: CC BY-SA
COMMENT: IPB_RECORD: 275
COMMENT: CONFIDENCE confident structure
CH$NAME: Indoleacetic acid
CH$NAME: 2-(1H-indol-3-yl)acetic acid
CH$COMPOUND_CLASS: Natural Product; Indole
CH$FORMULA: C10H9NO2
CH$EXACT_MASS: 175.06333
CH$SMILES: C1=CC=C2C(=C1)C(=CN2)CC(=O)O
CH$IUPAC: InChI=1S/C10H9NO2/c12-10(13)5-7-6-11-9-4-2-1-3-8(7)9/h1-4,6,11H,5H2,(H,12,13)
CH$LINK: INCHIKEY SEOVTRFCIGRIMH-UHFFFAOYSA-N
CH$LINK: KEGG C00954
CH$LINK: PUBCHEM CID:802
CH$LINK: COMPTOX DTXSID5020738
AC$INSTRUMENT: API QSTAR Pulsar i
AC$INSTRUMENT_TYPE: LC-ESI-QTOF
AC$MASS_SPECTROMETRY: MS_TYPE MS2
AC$MASS_SPECTROMETRY: ION_MODE POSITIVE
AC$MASS_SPECTROMETRY: COLLISION_ENERGY 10 eV
AC$MASS_SPECTROMETRY: IONIZATION ESI
MS$FOCUSED_ION: PRECURSOR_TYPE [M+H]+
PK$SPLASH: splash10-004i-0900000000-85d7071f8c5d5256e548
PK$NUM_PEAK: 5
PK$PEAK: m/z int. rel.int.
  130.063 829.287 81
  144.043 69.837 5
  148.072 118.899 10
  176.070 10000.000 999
  177.072 97.372 8
//
