ACCESSION: MSBNK-ISAS_Dortmund-IA000408
RECORD_TITLE: Resolvin D5; LC-ESI-QTOF; MS2; CE: 30.0; R=N/A; [M-H]-
DATE: 2018.11.21
AUTHORS: Nils Hoffmann, Dominik Kopczynski, Bing Peng
LICENSE: CC BY-SA
COPYRIGHT: Copyright (C) 2019, Leibniz Institut fuer Analytische Wissenschaften - ISAS - e.V., Dortmund, Germany
COMMENT: CONFIDENCE standard compound
COMMENT: NATIVE_RUN_ID STD_neg_MSMS_1min0212.mzML
COMMENT: PROCESSING averaging of repeated ion fragments at 30.0 eV within 5 ppm window [MS, MS:1000575, mean of spectra, ]
CH$NAME: Resolvin D5
CH$COMPOUND_CLASS: Natural Product; Lipid Standard
CH$FORMULA: C22H32O4
CH$EXACT_MASS: 360.23006
CH$SMILES: C(C(O)=O)CC/C=C\[C@@H](/C=C/C=C\C\C=C/C=C/[C@H](C/C=C\CC)O)O
CH$IUPAC: InChI=1S/C22H32O4/c1-2-3-10-15-20(23)16-11-7-5-4-6-8-12-17-21(24)18-13-9-14-19-22(25)26/h3,5-8,10-13,16-18,20-21,23-24H,2,4,9,14-15,19H2,1H3,(H,25,26)/b7-5-,8-6-,10-3-,16-11+,17-12+,18-13-/t20-,21+/m0/s1
CH$LINK: CHEBI CHEBI:138645
CH$LINK: LIPIDMAPS LMFA04030003
CH$LINK: INCHIKEY JBRPFYYLEQERPG-XTIXYJHRSA-N
CH$LINK: PUBCHEM CID:16061139
AC$INSTRUMENT: Agilent QTof 6545, Agilent Technologies [MS:1000490]
AC$INSTRUMENT_TYPE: LC-ESI-QTOF
AC$MASS_SPECTROMETRY: MS_TYPE MS2
AC$MASS_SPECTROMETRY: ION_MODE NEGATIVE
AC$MASS_SPECTROMETRY: IONIZATION ESI
AC$MASS_SPECTROMETRY: FRAGMENTATION_MODE CID
AC$MASS_SPECTROMETRY: COLLISION_ENERGY 30.0 eV
AC$MASS_SPECTROMETRY: RESOLUTION N/A
MS$FOCUSED_ION: BASE_PEAK 359.222808837891
MS$FOCUSED_ION: PRECURSOR_M/Z 359.222808837891
MS$FOCUSED_ION: PRECURSOR_TYPE [M-H]-
PK$SPLASH: splash10-0002-0910000000-c58b5323dc3e28576660
PK$ANNOTATION: m/z annotation exact_mass error(ppm)
  141.05611739097176 141.056 141.0558 2.250109330909247
  199.1491687765731 199.149 199.1494 -1.1610551017476247
  227.1436545679024 227.144 227.1443 -2.8415069081594444
PK$NUM_PEAK: 3
PK$PEAK: m/z int. rel.int.
  141.05611739097176 100.060646 140
  199.1491687765731 684.8899533333333 999
  227.1436545679024 123.22845 173
//
