ACCESSION: MSBNK-ISAS_Dortmund-IA000364
RECORD_TITLE: 15d-PGJ2-[d4]; LC-ESI-QTOF; MS2; CE: 10.0; R=N/A; [M-H]-
DATE: 2018.11.21
AUTHORS: Nils Hoffmann, Dominik Kopczynski, Bing Peng
LICENSE: CC BY-SA
COPYRIGHT: Copyright (C) 2019, Leibniz Institut fuer Analytische Wissenschaften - ISAS - e.V., Dortmund, Germany
COMMENT: CONFIDENCE standard compound
COMMENT: NATIVE_RUN_ID STD_neg_MSMS_1min0219.mzML
COMMENT: PROCESSING averaging of repeated ion fragments at 10.0 eV within 5 ppm window [MS, MS:1000575, mean of spectra, ]
CH$NAME: 15d-PGJ2-[d4]
CH$COMPOUND_CLASS: Natural Product; Lipid Standard
CH$FORMULA: C20H30O4
CH$EXACT_MASS: 334.21441
CH$SMILES: CCCCC[C@H](O)\C=C\[C@@H]1[C@@H](C\C=C/CCCC(O)=O)C=CC1=O
CH$IUPAC: InChI=1S/C20H30O4/c1-2-3-6-10-17(21)13-14-18-16(12-15-19(18)22)9-7-4-5-8-11-20(23)24/h4,7,12-18,21H,2-3,5-6,8-11H2,1H3,(H,23,24)/b7-4-,14-13+/t16-,17-,18+/m0/s1
CH$LINK: CHEBI CHEBI:27485
CH$LINK: LIPIDMAPS LMFA03010019
CH$LINK: INCHIKEY UQOQENZZLBSFKO-POPPZSFYSA-N
CH$LINK: PUBCHEM CID:5280884
AC$INSTRUMENT: Agilent QTof 6545, Agilent Technologies [MS:1000490]
AC$INSTRUMENT_TYPE: LC-ESI-QTOF
AC$MASS_SPECTROMETRY: MS_TYPE MS2
AC$MASS_SPECTROMETRY: ION_MODE NEGATIVE
AC$MASS_SPECTROMETRY: IONIZATION ESI
AC$MASS_SPECTROMETRY: FRAGMENTATION_MODE CID
AC$MASS_SPECTROMETRY: COLLISION_ENERGY 10.0 eV
AC$MASS_SPECTROMETRY: RESOLUTION N/A
MS$FOCUSED_ION: BASE_PEAK 319.221710205078
MS$FOCUSED_ION: PRECURSOR_M/Z 319.221710205078
MS$FOCUSED_ION: PRECURSOR_TYPE [M-H]-
PK$SPLASH: splash10-00or-0095000000-44943705c379a13c99e1
PK$ANNOTATION: m/z annotation exact_mass error(ppm)
  59.01343641086835 59.014 59.0135 -1.0775353376628496
  161.09249350165325 161.093 161.0925 -0.040339225849254534
  203.14458026592828 203.144 203.1443 1.37963963683639
  245.188083512607 245.188 245.1878 1.1563079686492668
  275.23170921487025 275.232 275.2318 -0.32984971133147006
  301.21105431719167 301.211 301.211 0.18032937593486972
  319.2212912583852 precursor 319.221675390909 -1.203340980438726
PK$NUM_PEAK: 7
PK$PEAK: m/z int. rel.int.
  59.01343641086835 278.0645 10
  161.09249350165325 302.65436 12
  203.14458026592828 651.8596900000001 27
  245.188083512607 281.5172033333333 11
  275.23170921487025 24582.124000000003 999
  301.21105431719167 645.9598833333333 25
  319.2212912583852 16065.710857142858 652
//
