ACCESSION: MSBNK-ISAS_Dortmund-IA000360
RECORD_TITLE: Resolvin D2-[d5]; LC-ESI-QTOF; MS2; CE: 30.0; R=N/A; [M-H]-
DATE: 2018.11.21
AUTHORS: Nils Hoffmann, Dominik Kopczynski, Bing Peng
LICENSE: CC BY-SA
COPYRIGHT: Copyright (C) 2019, Leibniz Institut fuer Analytische Wissenschaften - ISAS - e.V., Dortmund, Germany
COMMENT: CONFIDENCE standard compound
COMMENT: NATIVE_RUN_ID STD_neg_MSMS_1min0197.mzML
COMMENT: PROCESSING averaging of repeated ion fragments at 30.0 eV within 5 ppm window [MS, MS:1000575, mean of spectra, ]
CH$NAME: Resolvin D2-[d5]
CH$COMPOUND_CLASS: Natural Product; Lipid Standard
CH$FORMULA: C22H32O5
CH$EXACT_MASS: 376.22497
CH$SMILES: C(C/C=C\C[C@@H](/C=C/C=C\C=C\C=C\[C@H]([C@H](C/C=C\CC)O)O)O)C(O)=O
CH$IUPAC: InChI=1S/C22H32O5/c1-2-3-9-16-20(24)21(25)17-12-7-5-4-6-10-14-19(23)15-11-8-13-18-22(26)27/h3-12,14,17,19-21,23-25H,2,13,15-16,18H2,1H3,(H,26,27)/b6-4-,7-5+,9-3-,11-8-,14-10+,17-12+/t19-,20+,21-/m1/s1
CH$LINK: CHEBI CHEBI:81565
CH$LINK: LIPIDMAPS LMFA04000007
CH$LINK: INCHIKEY IKFAUGXNBOBQDM-XFMPMKITSA-N
CH$LINK: PUBCHEM CID:11383310
AC$INSTRUMENT: Agilent QTof 6545, Agilent Technologies [MS:1000490]
AC$INSTRUMENT_TYPE: LC-ESI-QTOF
AC$MASS_SPECTROMETRY: MS_TYPE MS2
AC$MASS_SPECTROMETRY: ION_MODE NEGATIVE
AC$MASS_SPECTROMETRY: IONIZATION ESI
AC$MASS_SPECTROMETRY: FRAGMENTATION_MODE CID
AC$MASS_SPECTROMETRY: COLLISION_ENERGY 30.0 eV
AC$MASS_SPECTROMETRY: RESOLUTION N/A
MS$FOCUSED_ION: BASE_PEAK 380.249114990234
MS$FOCUSED_ION: PRECURSOR_M/Z 380.249114990234
MS$FOCUSED_ION: PRECURSOR_TYPE [M-H]-
PK$SPLASH: splash10-05r0-9800000000-bbdb324ab2d30a544c15
PK$ANNOTATION: m/z annotation exact_mass error(ppm)
  59.01361789609929 59.014 59.0135 1.9977818515051917
  69.03430730137116 69.034 69.0344 -1.3427889406968525
  113.06100595290404 113.061 113.0609 0.9371312632054405
  141.05587299784975 141.056 141.0558 0.5175104443900641
  175.07630995505366 175.077 175.0765 -1.0854966049158727
PK$NUM_PEAK: 5
PK$PEAK: m/z int. rel.int.
  59.01361789609929 1248.9107 792
  69.03430730137116 1211.625575 770
  113.06100595290404 490.22595 294
  141.05587299784975 166.6448 116
  175.07630995505366 1790.8363 999
//
