ACCESSION: MSBNK-ISAS_Dortmund-IA000362
RECORD_TITLE: AA-[d8]; LC-ESI-QTOF; MS2; CE: 20.0; R=N/A; [M-H]-
DATE: 2018.11.21
AUTHORS: Nils Hoffmann, Dominik Kopczynski, Bing Peng
LICENSE: CC BY-SA
COPYRIGHT: Copyright (C) 2019, Leibniz Institut fuer Analytische Wissenschaften - ISAS - e.V., Dortmund, Germany
COMMENT: CONFIDENCE standard compound
COMMENT: NATIVE_RUN_ID STD_neg_MSMS_1min0134.mzML
COMMENT: PROCESSING averaging of repeated ion fragments at 20.0 eV within 5 ppm window [MS, MS:1000575, mean of spectra, ]
CH$NAME: AA-[d8]
CH$COMPOUND_CLASS: Natural Product; Lipid Standard
CH$FORMULA: C20H32O2
CH$EXACT_MASS: 304.24023
CH$SMILES: CCCCC\C=C/C\C=C/C\C=C/C\C=C/CCCC(O)=O
CH$IUPAC: InChI=1S/C20H32O2/c1-2-3-4-5-6-7-8-9-10-11-12-13-14-15-16-17-18-19-20(21)22/h6-7,9-10,12-13,15-16H,2-5,8,11,14,17-19H2,1H3,(H,21,22)/b7-6-,10-9-,13-12-,16-15-
CH$LINK: CHEBI CHEBI:15843
CH$LINK: LIPIDMAPS LMFA01030001
CH$LINK: INCHIKEY YZXBAPSDXZZRGB-DOFZRALJSA-N
CH$LINK: PUBCHEM CID:444899
AC$INSTRUMENT: Agilent QTof 6545, Agilent Technologies [MS:1000490]
AC$INSTRUMENT_TYPE: LC-ESI-QTOF
AC$MASS_SPECTROMETRY: MS_TYPE MS2
AC$MASS_SPECTROMETRY: ION_MODE NEGATIVE
AC$MASS_SPECTROMETRY: IONIZATION ESI
AC$MASS_SPECTROMETRY: FRAGMENTATION_MODE CID
AC$MASS_SPECTROMETRY: COLLISION_ENERGY 20.0 eV
AC$MASS_SPECTROMETRY: RESOLUTION N/A
MS$FOCUSED_ION: BASE_PEAK 311.283203125
MS$FOCUSED_ION: PRECURSOR_M/Z 311.283203125
MS$FOCUSED_ION: PRECURSOR_TYPE [M-H]-
PK$SPLASH: splash10-03di-2019000000-00768795081d8c321b34
PK$ANNOTATION: m/z annotation exact_mass error(ppm)
  59.01358456845744 59.013 59.0133 4.822107176487054
  212.24063224788117 212.240 212.24 2.9789289538112507
  267.292230495341 267.293 267.2929 -2.504760354496625
  311.28251766674396 precursor 311.283167876909 -2.0888060521975147
PK$NUM_PEAK: 4
PK$PEAK: m/z int. rel.int.
  59.01358456845744 1985.125 261
  212.24063224788117 236.88467 28
  267.292230495341 1015.240225 120
  311.28251766674396 7959.91584 999
//
