ACCESSION: MSBNK-ISAS_Dortmund-IA000495
RECORD_TITLE: 11,12-DHET-[d11]; LC-ESI-QTOF; MS2; CE: 30.0; R=N/A; [M-H]-
DATE: 2018.11.21
AUTHORS: Nils Hoffmann, Dominik Kopczynski, Bing Peng
LICENSE: CC BY-SA
COPYRIGHT: Copyright (C) 2019, Leibniz Institut fuer Analytische Wissenschaften - ISAS - e.V., Dortmund, Germany
COMMENT: CONFIDENCE standard compound
COMMENT: NATIVE_RUN_ID STD_neg_MSMS_1min0230.mzML
COMMENT: PROCESSING averaging of repeated ion fragments at 30.0 eV within 5 ppm window [MS, MS:1000575, mean of spectra, ]
CH$NAME: 11,12-DHET-[d11]
CH$COMPOUND_CLASS: Natural Product; Lipid Standard
CH$FORMULA: C20H34O4
CH$EXACT_MASS: 338.24571
CH$SMILES: CCCCC\C=C/CC(O)C(O)C\C=C/C\C=C/CCCC(O)=O
CH$IUPAC: InChI=1S/C20H34O4/c1-2-3-4-5-9-12-15-18(21)19(22)16-13-10-7-6-8-11-14-17-20(23)24/h6,8-10,12-13,18-19,21-22H,2-5,7,11,14-17H2,1H3,(H,23,24)/b8-6-,12-9-,13-10-
CH$LINK: CHEBI CHEBI:63969
CH$LINK: LIPIDMAPS LMFA03050008
CH$LINK: INCHIKEY LRPPQRCHCPFBPE-KROJNAHFSA-N
CH$LINK: PUBCHEM CID:5283146
AC$INSTRUMENT: Agilent QTof 6545, Agilent Technologies [MS:1000490]
AC$INSTRUMENT_TYPE: LC-ESI-QTOF
AC$MASS_SPECTROMETRY: MS_TYPE MS2
AC$MASS_SPECTROMETRY: ION_MODE NEGATIVE
AC$MASS_SPECTROMETRY: IONIZATION ESI
AC$MASS_SPECTROMETRY: FRAGMENTATION_MODE CID
AC$MASS_SPECTROMETRY: COLLISION_ENERGY 30.0 eV
AC$MASS_SPECTROMETRY: RESOLUTION N/A
MS$FOCUSED_ION: BASE_PEAK 348.307495117188
MS$FOCUSED_ION: PRECURSOR_M/Z 348.307495117188
MS$FOCUSED_ION: PRECURSOR_TYPE [M-H]-
PK$SPLASH: splash10-066r-6900000000-bda8e9cb124ef1302c90
PK$ANNOTATION: m/z annotation exact_mass error(ppm)
  58.00562402948258 58.006 58.0057 -1.3097077944874893
  149.09716112653607 149.097 149.0973 -0.9314284293417553
  167.10763677696426 167.108 167.1079 -1.575168114431592
  180.19294288665986 180.193 180.1926 1.9028897959803033
  197.11922784858254 197.119 197.1185 3.692441767404722
  330.29608440081944 330.297 330.2971 -3.0748050181543265
PK$NUM_PEAK: 6
PK$PEAK: m/z int. rel.int.
  58.00562402948258 4472.744 935
  149.09716112653607 730.5146866666668 134
  167.10763677696426 5572.58775 998
  180.19294288665986 189.83338 36
  197.11922784858254 112.16071 23
  330.29608440081944 52.02439 10
//
