ACCESSION: MSBNK-ISAS_Dortmund-IA000409
RECORD_TITLE: TXB1; LC-ESI-QTOF; MS2; CE: 10.0; R=N/A; [M-H]-
DATE: 2018.11.21
AUTHORS: Nils Hoffmann, Dominik Kopczynski, Bing Peng
LICENSE: CC BY-SA
COPYRIGHT: Copyright (C) 2019, Leibniz Institut fuer Analytische Wissenschaften - ISAS - e.V., Dortmund, Germany
COMMENT: CONFIDENCE standard compound
COMMENT: NATIVE_RUN_ID STD_neg_MSMS_1min0155.mzML
COMMENT: PROCESSING averaging of repeated ion fragments at 10.0 eV within 5 ppm window [MS, MS:1000575, mean of spectra, ]
CH$NAME: TXB1
CH$COMPOUND_CLASS: Natural Product; Lipid Standard
CH$FORMULA: C20H36O6
CH$EXACT_MASS: 372.25119
CH$SMILES: CCCCC[C@H](O)\C=C\[C@H]1OC(O)C[C@H](O)[C@@H]1CCCCCCC(O)=O
CH$IUPAC: InChI=1S/C20H36O6/c1-2-3-6-9-15(21)12-13-18-16(17(22)14-20(25)26-18)10-7-4-5-8-11-19(23)24/h12-13,15-18,20-22,25H,2-11,14H2,1H3,(H,23,24)/b13-12+/t15-,16-,17-,18+,20?/m0/s1
CH$LINK: CHEBI CHEBI:73994
CH$LINK: INCHIKEY JSDWWNLTJCCSAV-VZBVYBAISA-N
CH$LINK: PUBCHEM CID:71668258
AC$INSTRUMENT: Agilent QTof 6545, Agilent Technologies [MS:1000490]
AC$INSTRUMENT_TYPE: LC-ESI-QTOF
AC$MASS_SPECTROMETRY: MS_TYPE MS2
AC$MASS_SPECTROMETRY: ION_MODE NEGATIVE
AC$MASS_SPECTROMETRY: IONIZATION ESI
AC$MASS_SPECTROMETRY: FRAGMENTATION_MODE CID
AC$MASS_SPECTROMETRY: COLLISION_ENERGY 10.0 eV
AC$MASS_SPECTROMETRY: RESOLUTION N/A
MS$FOCUSED_ION: BASE_PEAK 371.243896484375
MS$FOCUSED_ION: PRECURSOR_M/Z 371.243896484375
MS$FOCUSED_ION: PRECURSOR_TYPE [M-H]-
PK$SPLASH: splash10-00dj-0901000000-78ab36304ca41738aa08
PK$ANNOTATION: m/z annotation exact_mass error(ppm)
  171.10256384307988 171.103 171.1025 0.373127685882131
  193.12334221950178 193.123 193.1233 0.21861423131788213
  197.1184921369208 197.118 197.1182 1.4820393081847665
  291.1974938882773 291.197 291.1966 3.0697071232615145
  309.20767169379394 309.207 309.2072 1.5254942121644597
  327.21731691704167 327.218 327.2176 -0.8651214309166901
  371.24397861052955 precursor 371.243912584909 0.17784970557362334
PK$NUM_PEAK: 7
PK$PEAK: m/z int. rel.int.
  171.10256384307988 10707.440071428571 999
  193.12334221950178 173.80322 16
  197.1184921369208 6891.95207142857 642
  291.1974938882773 551.89898 50
  309.20767169379394 461.71750999999995 42
  327.21731691704167 1298.1566699999998 122
  371.24397861052955 2039.57166 187
//
