ACCESSION: MSBNK-ISAS_Dortmund-IA000489
RECORD_TITLE: 12-HEPE; LC-ESI-QTOF; MS2; CE: 30.0; R=N/A; [M-H]-
DATE: 2018.11.21
AUTHORS: Nils Hoffmann, Dominik Kopczynski, Bing Peng
LICENSE: CC BY-SA
COPYRIGHT: Copyright (C) 2019, Leibniz Institut fuer Analytische Wissenschaften - ISAS - e.V., Dortmund, Germany
COMMENT: CONFIDENCE standard compound
COMMENT: NATIVE_RUN_ID STD_neg_MSMS_1min0085.mzML
COMMENT: PROCESSING averaging of repeated ion fragments at 30.0 eV within 5 ppm window [MS, MS:1000575, mean of spectra, ]
CH$NAME: 12-HEPE
CH$COMPOUND_CLASS: Natural Product; Lipid Standard
CH$FORMULA: C20H30O3
CH$EXACT_MASS: 318.21949
CH$SMILES: C(\CC)=C\C/C=C\C[C@@H](/C=C/C=C\C/C=C\CCCC(=O)O)O
CH$IUPAC: InChI=1S/C20H30O3/c1-2-3-4-5-10-13-16-19(21)17-14-11-8-6-7-9-12-15-18-20(22)23/h3-4,7-11,13-14,17,19,21H,2,5-6,12,15-16,18H2,1H3,(H,22,23)/b4-3-,9-7-,11-8-,13-10-,17-14+/t19-/m0/s1
CH$LINK: CHEBI CHEBI:88345
CH$LINK: LIPIDMAPS LMFA03070008
CH$LINK: INCHIKEY MCRJLMXYVFDXLS-UOLHMMFFSA-N
CH$LINK: PUBCHEM CID:5283191
AC$INSTRUMENT: Agilent QTof 6545, Agilent Technologies [MS:1000490]
AC$INSTRUMENT_TYPE: LC-ESI-QTOF
AC$MASS_SPECTROMETRY: MS_TYPE MS2
AC$MASS_SPECTROMETRY: ION_MODE NEGATIVE
AC$MASS_SPECTROMETRY: IONIZATION ESI
AC$MASS_SPECTROMETRY: FRAGMENTATION_MODE CID
AC$MASS_SPECTROMETRY: COLLISION_ENERGY 30.0 eV
AC$MASS_SPECTROMETRY: RESOLUTION N/A
MS$FOCUSED_ION: BASE_PEAK 317.212188720703
MS$FOCUSED_ION: PRECURSOR_M/Z 317.212188720703
MS$FOCUSED_ION: PRECURSOR_TYPE [M-H]-
PK$SPLASH: splash10-0a4i-0900000000-7c7d5700c70c87d7fdd4
PK$ANNOTATION: m/z annotation exact_mass error(ppm)
  107.08653687424808 107.087 107.0866 -0.5894832024765013
  135.11822809239607 135.118 135.1179 2.428193422740089
  163.11287399438305 163.113 163.1127 1.0667126659139758
  179.10751311183753 179.108 179.1077 -1.0434401337369406
  255.21093004514668 255.212 255.2117 -3.016926157089649
PK$NUM_PEAK: 5
PK$PEAK: m/z int. rel.int.
  107.08653687424808 588.00289 999
  135.11822809239607 297.5931 502
  163.11287399438305 245.52333500000003 473
  179.10751311183753 251.74001666666663 423
  255.21093004514668 63.879032 130
//
