ACCESSION: MSBNK-ISAS_Dortmund-IA000396
RECORD_TITLE: 5-OxoETE-[d7]; LC-ESI-QTOF; MS2; CE: 30.0; R=N/A; [M-H]-
DATE: 2018.11.21
AUTHORS: Nils Hoffmann, Dominik Kopczynski, Bing Peng
LICENSE: CC BY-SA
COPYRIGHT: Copyright (C) 2019, Leibniz Institut fuer Analytische Wissenschaften - ISAS - e.V., Dortmund, Germany
COMMENT: CONFIDENCE standard compound
COMMENT: NATIVE_RUN_ID STD_neg_MSMS_1min0217.mzML
COMMENT: PROCESSING averaging of repeated ion fragments at 30.0 eV within 5 ppm window [MS, MS:1000575, mean of spectra, ]
CH$NAME: 5-OxoETE-[d7]
CH$COMPOUND_CLASS: Natural Product; Lipid Standard
CH$FORMULA: C20H30O3
CH$EXACT_MASS: 318.21949
CH$SMILES: CCCCC\C=C/C\C=C/C\C=C/C=C/C(=O)CCCC(O)=O
CH$IUPAC: InChI=1S/C20H30O3/c1-2-3-4-5-6-7-8-9-10-11-12-13-14-16-19(21)17-15-18-20(22)23/h6-7,9-10,12-14,16H,2-5,8,11,15,17-18H2,1H3,(H,22,23)/b7-6-,10-9-,13-12-,16-14+
CH$LINK: CHEBI CHEBI:52449
CH$LINK: LIPIDMAPS LMFA03060011
CH$LINK: INCHIKEY MEASLHGILYBXFO-XTDASVJISA-N
CH$LINK: PUBCHEM CID:5283159
AC$INSTRUMENT: Agilent QTof 6545, Agilent Technologies [MS:1000490]
AC$INSTRUMENT_TYPE: LC-ESI-QTOF
AC$MASS_SPECTROMETRY: MS_TYPE MS2
AC$MASS_SPECTROMETRY: ION_MODE NEGATIVE
AC$MASS_SPECTROMETRY: IONIZATION ESI
AC$MASS_SPECTROMETRY: FRAGMENTATION_MODE CID
AC$MASS_SPECTROMETRY: COLLISION_ENERGY 30.0 eV
AC$MASS_SPECTROMETRY: RESOLUTION N/A
MS$FOCUSED_ION: BASE_PEAK 324.256195068359
MS$FOCUSED_ION: PRECURSOR_M/Z 324.256195068359
MS$FOCUSED_ION: PRECURSOR_TYPE [M-H]-
PK$SPLASH: splash10-0a4i-9010000000-6d11a82666512e5c2002
PK$ANNOTATION: m/z annotation exact_mass error(ppm)
  59.01369365100472 59.014 59.0135 3.281469574276621
  71.0135308013131 71.014 71.0137 -2.3826203521967217
  131.06863359253956 131.068 131.0684 1.782218593943759
  210.22444854288543 210.225 210.2245 -0.24477220580850062
  280.2650023056269 280.266 280.2662 -4.273417105252938
PK$NUM_PEAK: 5
PK$PEAK: m/z int. rel.int.
  59.01369365100472 7588.998 998
  71.0135308013131 1425.5547000000001 180
  131.06863359253956 161.669395 19
  210.22444854288543 982.83594 118
  280.2650023056269 25.015625 3
//
