ACCESSION: MSBNK-ISAS_Dortmund-IA000369
RECORD_TITLE: 9-HOTrE; LC-ESI-QTOF; MS2; CE: 30.0; R=N/A; [M-H]-
DATE: 2018.11.21
AUTHORS: Nils Hoffmann, Dominik Kopczynski, Bing Peng
LICENSE: CC BY-SA
COPYRIGHT: Copyright (C) 2019, Leibniz Institut fuer Analytische Wissenschaften - ISAS - e.V., Dortmund, Germany
COMMENT: CONFIDENCE standard compound
COMMENT: NATIVE_RUN_ID STD_neg_MSMS_1min0205.mzML
COMMENT: PROCESSING averaging of repeated ion fragments at 30.0 eV within 5 ppm window [MS, MS:1000575, mean of spectra, ]
CH$NAME: 9-HOTrE
CH$COMPOUND_CLASS: Natural Product; Lipid Standard
CH$FORMULA: C18H30O3
CH$EXACT_MASS: 294.21949
CH$SMILES: CC\C=C/C\C=C/C=C/C(O)CCCCCCCC(O)=O
CH$IUPAC: InChI=1S/C18H30O3/c1-2-3-4-5-6-8-11-14-17(19)15-12-9-7-10-13-16-18(20)21/h3-4,6,8,11,14,17,19H,2,5,7,9-10,12-13,15-16H2,1H3,(H,20,21)/b4-3-,8-6-,14-11+
CH$LINK: CHEBI CHEBI:72625
CH$LINK: INCHIKEY RIGGEAZDTKMXSI-CUHSZNQNSA-N
CH$LINK: PUBCHEM CID:10447175
AC$INSTRUMENT: Agilent QTof 6545, Agilent Technologies [MS:1000490]
AC$INSTRUMENT_TYPE: LC-ESI-QTOF
AC$MASS_SPECTROMETRY: MS_TYPE MS2
AC$MASS_SPECTROMETRY: ION_MODE NEGATIVE
AC$MASS_SPECTROMETRY: IONIZATION ESI
AC$MASS_SPECTROMETRY: FRAGMENTATION_MODE CID
AC$MASS_SPECTROMETRY: COLLISION_ENERGY 30.0 eV
AC$MASS_SPECTROMETRY: RESOLUTION N/A
MS$FOCUSED_ION: BASE_PEAK 293.212188720703
MS$FOCUSED_ION: PRECURSOR_M/Z 293.212188720703
MS$FOCUSED_ION: PRECURSOR_TYPE [M-H]-
PK$SPLASH: splash10-00di-0910000000-da5475e0f7c5b15f5296
PK$ANNOTATION: m/z annotation exact_mass error(ppm)
  59.01320516909144 59.014 59.0135 -4.995990892900723
  121.10229409931671 121.102 121.1024 -0.8744722094833846
  171.10284992009073 171.103 171.1029 -0.29268883962668557
  185.11793280084865 185.118 185.1184 -2.523785595375471
  231.2107988639479 231.212 231.2119 -4.762454061031529
  275.2009310781368 275.202 275.2018 -3.157398909494399
  293.212657340809 precursor 293.212218484909 1.4967176412247585
PK$NUM_PEAK: 7
PK$PEAK: m/z int. rel.int.
  59.01320516909144 281.97742 180
  121.10229409931671 1464.2928000000002 900
  171.10284992009073 1625.6593 999
  185.11793280084865 151.24335 96
  231.2107988639479 64.85714 37
  275.2009310781368 396.9969966666667 243
  293.212657340809 56.625 35
//
