ACCESSION: MSBNK-ISAS_Dortmund-IA000508
RECORD_TITLE: LTB4-[d4]; LC-ESI-QTOF; MS2; CE: 10.0; R=N/A; [M-H]-
DATE: 2018.11.21
AUTHORS: Nils Hoffmann, Dominik Kopczynski, Bing Peng
LICENSE: CC BY-SA
COPYRIGHT: Copyright (C) 2019, Leibniz Institut fuer Analytische Wissenschaften - ISAS - e.V., Dortmund, Germany
COMMENT: CONFIDENCE standard compound
COMMENT: NATIVE_RUN_ID STD_neg_MSMS_1min0145.mzML
COMMENT: PROCESSING averaging of repeated ion fragments at 10.0 eV within 5 ppm window [MS, MS:1000575, mean of spectra, ]
CH$NAME: LTB4-[d4]
CH$COMPOUND_CLASS: Natural Product; Lipid Standard
CH$FORMULA: C20H32O4
CH$EXACT_MASS: 336.23006
CH$SMILES: CCCCC\C=C/C[C@@H](O)\C=C\C=C\C=C/[C@@H](O)CCCC(O)=O
CH$IUPAC: InChI=1S/C20H32O4/c1-2-3-4-5-6-9-13-18(21)14-10-7-8-11-15-19(22)16-12-17-20(23)24/h6-11,14-15,18-19,21-22H,2-5,12-13,16-17H2,1H3,(H,23,24)/b8-7+,9-6-,14-10+,15-11-/t18-,19-/m1/s1
CH$LINK: CHEBI CHEBI:15647
CH$LINK: LIPIDMAPS LMFA03020001
CH$LINK: INCHIKEY VNYSSYRCGWBHLG-AMOLWHMGSA-N
CH$LINK: PUBCHEM CID:5280492
AC$INSTRUMENT: Agilent QTof 6545, Agilent Technologies [MS:1000490]
AC$INSTRUMENT_TYPE: LC-ESI-QTOF
AC$MASS_SPECTROMETRY: MS_TYPE MS2
AC$MASS_SPECTROMETRY: ION_MODE NEGATIVE
AC$MASS_SPECTROMETRY: IONIZATION ESI
AC$MASS_SPECTROMETRY: FRAGMENTATION_MODE CID
AC$MASS_SPECTROMETRY: COLLISION_ENERGY 10.0 eV
AC$MASS_SPECTROMETRY: RESOLUTION N/A
MS$FOCUSED_ION: BASE_PEAK 339.247894287109
MS$FOCUSED_ION: PRECURSOR_M/Z 339.247894287109
MS$FOCUSED_ION: PRECURSOR_TYPE [M-H]-
PK$SPLASH: splash10-000i-0209000000-c102c77e07c7e15975a3
PK$ANNOTATION: m/z annotation exact_mass error(ppm)
  59.01348058145047 59.013 59.0133 3.060012750849267
  71.01357228142012 71.014 71.0135 1.0178546351193567
  130.06190259405508 130.062 130.0619 0.019944773141435057
  153.12582253872935 153.125 153.1253 3.4124911385783996
  197.11519018218516 197.115 197.1151 0.4575102828820568
  277.24705286494344 277.247 277.2472 -0.5306998829181061
  321.2366351716589 321.237 321.237 -1.1356983819260182
  339.24830455481913 precursor 339.247890160909 1.2215077003180195
PK$NUM_PEAK: 8
PK$PEAK: m/z int. rel.int.
  59.01348058145047 2207.9430666666667 76
  71.01357228142012 1008.6214499999999 30
  130.06190259405508 700.6767150000001 24
  153.12582253872935 869.73987 29
  197.11519018218516 6698.413133333333 206
  277.24705286494344 254.48215 8
  321.2366351716589 2688.554716666667 84
  339.24830455481913 31148.293285714288 999
//
