ACCESSION: MSBNK-ISAS_Dortmund-IA000453
RECORD_TITLE: 15-HEPE; LC-ESI-QTOF; MS2; CE: 30.0; R=N/A; [M-H]-
DATE: 2018.11.21
AUTHORS: Nils Hoffmann, Dominik Kopczynski, Bing Peng
LICENSE: CC BY-SA
COPYRIGHT: Copyright (C) 2019, Leibniz Institut fuer Analytische Wissenschaften - ISAS - e.V., Dortmund, Germany
COMMENT: CONFIDENCE standard compound
COMMENT: NATIVE_RUN_ID STD_neg_MSMS_1min0208.mzML
COMMENT: PROCESSING averaging of repeated ion fragments at 30.0 eV within 5 ppm window [MS, MS:1000575, mean of spectra, ]
CH$NAME: 15-HEPE
CH$COMPOUND_CLASS: Natural Product; Lipid Standard
CH$FORMULA: C20H30O3
CH$EXACT_MASS: 318.21949
CH$SMILES: C(\CC)=C\CC(/C=C/C=C\C/C=C\C/C=C\CCCC(=O)O)O
CH$IUPAC: InChI=1S/C20H30O3/c1-2-3-13-16-19(21)17-14-11-9-7-5-4-6-8-10-12-15-18-20(22)23/h3-5,8-11,13-14,17,19,21H,2,6-7,12,15-16,18H2,1H3,(H,22,23)/b5-4-,10-8-,11-9-,13-3-,17-14+
CH$LINK: CHEBI CHEBI:72627
CH$LINK: LIPIDMAPS LMFA03070032
CH$LINK: INCHIKEY WLKCSMCLEKGITB-XWJJKCKWSA-N
CH$LINK: PUBCHEM CID:16061131
AC$INSTRUMENT: Agilent QTof 6545, Agilent Technologies [MS:1000490]
AC$INSTRUMENT_TYPE: LC-ESI-QTOF
AC$MASS_SPECTROMETRY: MS_TYPE MS2
AC$MASS_SPECTROMETRY: ION_MODE NEGATIVE
AC$MASS_SPECTROMETRY: IONIZATION ESI
AC$MASS_SPECTROMETRY: FRAGMENTATION_MODE CID
AC$MASS_SPECTROMETRY: COLLISION_ENERGY 30.0 eV
AC$MASS_SPECTROMETRY: RESOLUTION N/A
MS$FOCUSED_ION: BASE_PEAK 317.212188720703
MS$FOCUSED_ION: PRECURSOR_M/Z 317.212188720703
MS$FOCUSED_ION: PRECURSOR_TYPE [M-H]-
PK$SPLASH: splash10-0a4i-9000000000-350b55e3ff9ef68ef86e
PK$ANNOTATION: m/z annotation exact_mass error(ppm)
  59.01376903808099 59.014 59.0135 4.558924330647412
  111.08213126652598 111.082 111.0817 3.882426412081493
  255.21208303715318 255.212 255.2119 0.7171967810432154
PK$NUM_PEAK: 3
PK$PEAK: m/z int. rel.int.
  59.01376903808099 2048.432 998
  111.08213126652598 48.166668 23
  255.21208303715318 147.75343 72
//
