ACCESSION: MSBNK-ISAS_Dortmund-IA000351
RECORD_TITLE: 12-HHTrE; LC-ESI-QTOF; MS2; CE: 30.0; R=N/A; [M-H]-
DATE: 2018.11.21
AUTHORS: Nils Hoffmann, Dominik Kopczynski, Bing Peng
LICENSE: CC BY-SA
COPYRIGHT: Copyright (C) 2019, Leibniz Institut fuer Analytische Wissenschaften - ISAS - e.V., Dortmund, Germany
COMMENT: CONFIDENCE standard compound
COMMENT: NATIVE_RUN_ID STD_neg_MSMS_1min0089.mzML
COMMENT: PROCESSING averaging of repeated ion fragments at 30.0 eV within 5 ppm window [MS, MS:1000575, mean of spectra, ]
CH$NAME: 12-HHTrE
CH$COMPOUND_CLASS: Natural Product; Lipid Standard
CH$FORMULA: C17H28O3
CH$EXACT_MASS: 280.20384
CH$SMILES: CCCCCC(O)\C=C\C=C\C\C=C\CCCC(O)=O
CH$IUPAC: InChI=1S/C17H28O3/c1-2-3-10-13-16(18)14-11-8-6-4-5-7-9-12-15-17(19)20/h5-8,11,14,16,18H,2-4,9-10,12-13,15H2,1H3,(H,19,20)/b7-5+,8-6+,14-11+
CH$LINK: CHEBI CHEBI:72783
CH$LINK: LIPIDMAPS LMFA01050195
CH$LINK: INCHIKEY KUKJHGXXZWHSBG-GMPNNLDHSA-N
CH$LINK: PUBCHEM CID:5312765
AC$INSTRUMENT: Agilent QTof 6545, Agilent Technologies [MS:1000490]
AC$INSTRUMENT_TYPE: LC-ESI-QTOF
AC$MASS_SPECTROMETRY: MS_TYPE MS2
AC$MASS_SPECTROMETRY: ION_MODE NEGATIVE
AC$MASS_SPECTROMETRY: IONIZATION ESI
AC$MASS_SPECTROMETRY: FRAGMENTATION_MODE CID
AC$MASS_SPECTROMETRY: COLLISION_ENERGY 30.0 eV
AC$MASS_SPECTROMETRY: RESOLUTION N/A
MS$FOCUSED_ION: BASE_PEAK 279.196594238281
MS$FOCUSED_ION: PRECURSOR_M/Z 279.196594238281
MS$FOCUSED_ION: PRECURSOR_TYPE [M-H]-
PK$SPLASH: splash10-01p9-0910000000-ae64656d390f72d57dbf
PK$ANNOTATION: m/z annotation exact_mass error(ppm)
  113.09671322448087 113.097 113.0971 -3.4198535517908333
  163.14989524615473 163.149 163.1491 4.874352078702073
  189.16442389086265 189.165 189.1648 -1.988261755592757
  217.19583021525173 217.196 217.1959 -0.3212986445603249
PK$NUM_PEAK: 4
PK$PEAK: m/z int. rel.int.
  113.09671322448087 363.18115 443
  163.14989524615473 69.78571 108
  189.16442389086265 674.3493733333333 999
  217.19583021525173 209.34161 311
//
