ACCESSION: MSBNK-ISAS_Dortmund-IA000423
RECORD_TITLE: PGI2; LC-ESI-QTOF; MS2; CE: 30.0; R=N/A; [M-H]-
DATE: 2018.11.21
AUTHORS: Nils Hoffmann, Dominik Kopczynski, Bing Peng
LICENSE: CC BY-SA
COPYRIGHT: Copyright (C) 2019, Leibniz Institut fuer Analytische Wissenschaften - ISAS - e.V., Dortmund, Germany
COMMENT: CONFIDENCE standard compound
COMMENT: NATIVE_RUN_ID STD_neg_MSMS_1min0196.mzML
COMMENT: PROCESSING averaging of repeated ion fragments at 30.0 eV within 5 ppm window [MS, MS:1000575, mean of spectra, ]
CH$NAME: PGI2
CH$COMPOUND_CLASS: Natural Product; Lipid Standard
CH$FORMULA: C20H32O5
CH$EXACT_MASS: 352.22497
CH$SMILES: [H][C@]12C[C@@H](O)[C@H](\C=C\[C@@H](O)CCCCC)[C@@]1([H])C\C(O2)=C\CCCC(O)=O
CH$IUPAC: InChI=1S/C20H32O5/c1-2-3-4-7-14(21)10-11-16-17-12-15(8-5-6-9-20(23)24)25-19(17)13-18(16)22/h8,10-11,14,16-19,21-22H,2-7,9,12-13H2,1H3,(H,23,24)/b11-10+,15-8-/t14-,16+,17+,18+,19-/m0/s1
CH$LINK: CHEBI CHEBI:15552
CH$LINK: LIPIDMAPS LMFA03010087
CH$LINK: INCHIKEY KAQKFAOMNZTLHT-OZUDYXHBSA-N
CH$LINK: PUBCHEM CID:5282411
AC$INSTRUMENT: Agilent QTof 6545, Agilent Technologies [MS:1000490]
AC$INSTRUMENT_TYPE: LC-ESI-QTOF
AC$MASS_SPECTROMETRY: MS_TYPE MS2
AC$MASS_SPECTROMETRY: ION_MODE NEGATIVE
AC$MASS_SPECTROMETRY: IONIZATION ESI
AC$MASS_SPECTROMETRY: FRAGMENTATION_MODE CID
AC$MASS_SPECTROMETRY: COLLISION_ENERGY 30.0 eV
AC$MASS_SPECTROMETRY: RESOLUTION N/A
MS$FOCUSED_ION: BASE_PEAK 351.217712402344
MS$FOCUSED_ION: PRECURSOR_M/Z 351.217712402344
MS$FOCUSED_ION: PRECURSOR_TYPE [M-H]-
PK$SPLASH: splash10-001i-9050000000-0cdb445ea91e032f9567
PK$ANNOTATION: m/z annotation exact_mass error(ppm)
  83.05014388086593 83.050 83.0503 -1.8798142097178183
  205.15999578447486 205.160 205.1599 0.46687717660940525
  215.10766252122897 215.108 215.1079 -1.103998370244164
  271.20732609841343 271.207 271.2069 1.5711193682204778
PK$NUM_PEAK: 4
PK$PEAK: m/z int. rel.int.
  83.05014388086593 515.7511 999
  205.15999578447486 125.38929666666667 379
  215.10766252122897 147.25262 404
  271.20732609841343 57.482616500000006 160
//
