ACCESSION: MSBNK-ISAS_Dortmund-IA000426
RECORD_TITLE: 11-HETE; LC-ESI-QTOF; MS2; CE: 30.0; R=N/A; [M-H]-
DATE: 2018.11.21
AUTHORS: Nils Hoffmann, Dominik Kopczynski, Bing Peng
LICENSE: CC BY-SA
COPYRIGHT: Copyright (C) 2019, Leibniz Institut fuer Analytische Wissenschaften - ISAS - e.V., Dortmund, Germany
COMMENT: CONFIDENCE standard compound
COMMENT: NATIVE_RUN_ID STD_neg_MSMS_1min0081.mzML
COMMENT: PROCESSING averaging of repeated ion fragments at 30.0 eV within 5 ppm window [MS, MS:1000575, mean of spectra, ]
CH$NAME: 11-HETE
CH$COMPOUND_CLASS: Natural Product; Lipid Standard
CH$FORMULA: C20H32O3
CH$EXACT_MASS: 320.23514
CH$SMILES: CCCCC\C=C/C=C/C(O)C\C=C/C\C=C/CCCC(O)=O
CH$IUPAC: InChI=1S/C20H32O3/c1-2-3-4-5-7-10-13-16-19(21)17-14-11-8-6-9-12-15-18-20(22)23/h6-7,9-11,13-14,16,19,21H,2-5,8,12,15,17-18H2,1H3,(H,22,23)/b9-6-,10-7-,14-11-,16-13+
CH$LINK: CHEBI CHEBI:72606
CH$LINK: LIPIDMAPS LMFA03060085
CH$LINK: INCHIKEY GCZRCCHPLVMMJE-RLZWZWKOSA-N
CH$LINK: PUBCHEM CID:14123410
AC$INSTRUMENT: Agilent QTof 6545, Agilent Technologies [MS:1000490]
AC$INSTRUMENT_TYPE: LC-ESI-QTOF
AC$MASS_SPECTROMETRY: MS_TYPE MS2
AC$MASS_SPECTROMETRY: ION_MODE NEGATIVE
AC$MASS_SPECTROMETRY: IONIZATION ESI
AC$MASS_SPECTROMETRY: FRAGMENTATION_MODE CID
AC$MASS_SPECTROMETRY: COLLISION_ENERGY 30.0 eV
AC$MASS_SPECTROMETRY: RESOLUTION N/A
MS$FOCUSED_ION: BASE_PEAK 319.227905273438
MS$FOCUSED_ION: PRECURSOR_M/Z 319.227905273438
MS$FOCUSED_ION: PRECURSOR_TYPE [M-H]-
PK$SPLASH: splash10-014i-0900000000-07aded9625bcc0f29a17
PK$ANNOTATION: m/z annotation exact_mass error(ppm)
  149.09696170982224 149.097 149.097 -0.2568138713991971
  167.1076186518362 167.108 167.1076 0.11161572669018464
  319.22773871147206 precursor 319.227868554909 -0.4067421729531875
PK$NUM_PEAK: 3
PK$PEAK: m/z int. rel.int.
  149.09696170982224 1710.67855 345
  167.1076186518362 5125.396116666667 999
  319.22773871147206 160.757 31
//
