ACCESSION: MSBNK-ISAS_Dortmund-IA000450
RECORD_TITLE: 8-HDoHE; LC-ESI-QTOF; MS2; CE: 30.0; R=N/A; [M-H]-
DATE: 2018.11.21
AUTHORS: Nils Hoffmann, Dominik Kopczynski, Bing Peng
LICENSE: CC BY-SA
COPYRIGHT: Copyright (C) 2019, Leibniz Institut fuer Analytische Wissenschaften - ISAS - e.V., Dortmund, Germany
COMMENT: CONFIDENCE standard compound
COMMENT: NATIVE_RUN_ID STD_neg_MSMS_1min0120.mzML
COMMENT: PROCESSING averaging of repeated ion fragments at 30.0 eV within 5 ppm window [MS, MS:1000575, mean of spectra, ]
CH$NAME: 8-HDoHE
CH$COMPOUND_CLASS: Natural Product; Lipid Standard
CH$FORMULA: C22H32O3
CH$EXACT_MASS: 344.23514
CH$SMILES: CC\C=C/C\C=C/C\C=C/C\C=C/CC(O)\C=C\C=C/CCC(O)=O
CH$IUPAC: InChI=1S/C22H32O3/c1-2-3-4-5-6-7-8-9-10-11-12-15-18-21(23)19-16-13-14-17-20-22(24)25/h3-4,6-7,9-10,12-16,19,21,23H,2,5,8,11,17-18,20H2,1H3,(H,24,25)/b4-3-,7-6-,10-9-,14-13-,15-12-,19-16+
CH$LINK: CHEBI CHEBI:72610
CH$LINK: LIPIDMAPS LMFA04000026
CH$LINK: INCHIKEY ZHBVYDMSPDDAKE-VTIZNUJUSA-N
CH$LINK: PUBCHEM CID:11976798
AC$INSTRUMENT: Agilent QTof 6545, Agilent Technologies [MS:1000490]
AC$INSTRUMENT_TYPE: LC-ESI-QTOF
AC$MASS_SPECTROMETRY: MS_TYPE MS2
AC$MASS_SPECTROMETRY: ION_MODE NEGATIVE
AC$MASS_SPECTROMETRY: IONIZATION ESI
AC$MASS_SPECTROMETRY: FRAGMENTATION_MODE CID
AC$MASS_SPECTROMETRY: COLLISION_ENERGY 30.0 eV
AC$MASS_SPECTROMETRY: RESOLUTION N/A
MS$FOCUSED_ION: BASE_PEAK 343.227905273438
MS$FOCUSED_ION: PRECURSOR_M/Z 343.227905273438
MS$FOCUSED_ION: PRECURSOR_TYPE [M-H]-
PK$SPLASH: splash10-0a4i-0900000000-92d57c99a0691b678b2d
PK$ANNOTATION: m/z annotation exact_mass error(ppm)
  107.08662760528081 107.087 107.0866 0.2577846416465013
  109.06578127994243 109.066 109.0658 -0.17164003345671702
  121.10240329555846 121.102 121.1022 1.6787106961217755
  135.11819622946695 135.118 135.1178 2.9324742333869507
PK$NUM_PEAK: 4
PK$PEAK: m/z int. rel.int.
  107.08662760528081 135.05625 68
  109.06578127994243 1731.09245 999
  121.10240329555846 197.23671 88
  135.11819622946695 472.52987 237
//
