ACCESSION: MSBNK-ISAS_Dortmund-IA000081
RECORD_TITLE: 9-HODE; LC-ESI-QFT; MS2; CE: 40.0; R=30.000; [M-H]-
DATE: 2018.11.21
AUTHORS: Nils Hoffmann, Dominik Kopczynski, Bing Peng
LICENSE: CC BY-SA
COPYRIGHT: Copyright (C) 2019, Leibniz Institut fuer Analytische Wissenschaften - ISAS - e.V., Dortmund, Germany
COMMENT: CONFIDENCE standard compound
COMMENT: NATIVE_RUN_ID QExHF03_NM_0001339.mzML
COMMENT: PROCESSING averaging of repeated ion fragments at 40.0 NCE within 5 ppm window [MS, MS:1000575, mean of spectra, ]
CH$NAME: 9-HODE
CH$COMPOUND_CLASS: Natural Product; Lipid Standard
CH$FORMULA: C18H32O3
CH$EXACT_MASS: 296.23514
CH$SMILES: CCCCC\C=C/C=C/C(O)CCCCCCCC(O)=O
CH$IUPAC: InChI=1S/C18H32O3/c1-2-3-4-5-6-8-11-14-17(19)15-12-9-7-10-13-16-18(20)21/h6,8,11,14,17,19H,2-5,7,9-10,12-13,15-16H2,1H3,(H,20,21)/b8-6-,14-11+
CH$LINK: CHEBI CHEBI:72651
CH$LINK: LIPIDMAPS LMFA02000151
CH$LINK: INCHIKEY NPDSHTNEKLQQIJ-ZJHFMPGASA-N
CH$LINK: PUBCHEM CID:5282944
AC$INSTRUMENT: Q-Exactive HF, Thermo Scientific [MS:1002523]
AC$INSTRUMENT_TYPE: LC-ESI-QFT
AC$MASS_SPECTROMETRY: MS_TYPE MS2
AC$MASS_SPECTROMETRY: ION_MODE NEGATIVE
AC$MASS_SPECTROMETRY: IONIZATION ESI
AC$MASS_SPECTROMETRY: FRAGMENTATION_MODE HCD
AC$MASS_SPECTROMETRY: COLLISION_ENERGY 40.0 NCE
AC$MASS_SPECTROMETRY: RESOLUTION 30.000
MS$FOCUSED_ION: BASE_PEAK 295.2279
MS$FOCUSED_ION: PRECURSOR_M/Z 295.2279
MS$FOCUSED_ION: PRECURSOR_TYPE [M-H]-
PK$SPLASH: splash10-00b9-0490000000-09dc916c303a1b993ec2
PK$ANNOTATION: m/z annotation exact_mass error(ppm)
  59.01349358809622 59.013 59.0133 3.2804146898432647
  123.11801348234478 123.118 123.1179 0.92173717040391
  171.10268683182565 171.103 171.1025 1.0919292568247265
  233.22750131707443 233.227 233.2274 0.43441325691415267
  277.2171197188528 277.217 277.2169 0.7925882324865906
  295.22767398231906 precursor 295.227868554909 -0.65905902059149
PK$NUM_PEAK: 6
PK$PEAK: m/z int. rel.int.
  59.01349358809622 414443.59526315785 26
  123.11801348234478 67243.44778947368 4
  171.10268683182565 11464957.55263158 721
  233.22750131707443 247474.22757894738 15
  277.2171197188528 15869199.157894736 999
  295.22767398231906 5360565.342105263 337
//
