ACCESSION: MSBNK-ISAS_Dortmund-IA000376
RECORD_TITLE: 9-HODE; LC-ESI-QTOF; MS2; CE: 10.0; R=N/A; [M-H]-
DATE: 2018.11.21
AUTHORS: Nils Hoffmann, Dominik Kopczynski, Bing Peng
LICENSE: CC BY-SA
COPYRIGHT: Copyright (C) 2019, Leibniz Institut fuer Analytische Wissenschaften - ISAS - e.V., Dortmund, Germany
COMMENT: CONFIDENCE standard compound
COMMENT: NATIVE_RUN_ID STD_neg_MSMS_1min0132.mzML
COMMENT: PROCESSING averaging of repeated ion fragments at 10.0 eV within 5 ppm window [MS, MS:1000575, mean of spectra, ]
CH$NAME: 9-HODE
CH$COMPOUND_CLASS: Natural Product; Lipid Standard
CH$FORMULA: C18H32O3
CH$EXACT_MASS: 296.23514
CH$SMILES: CCCCC\C=C/C=C/C(O)CCCCCCCC(O)=O
CH$IUPAC: InChI=1S/C18H32O3/c1-2-3-4-5-6-8-11-14-17(19)15-12-9-7-10-13-16-18(20)21/h6,8,11,14,17,19H,2-5,7,9-10,12-13,15-16H2,1H3,(H,20,21)/b8-6-,14-11+
CH$LINK: CHEBI CHEBI:72651
CH$LINK: LIPIDMAPS LMFA02000151
CH$LINK: INCHIKEY NPDSHTNEKLQQIJ-ZJHFMPGASA-N
CH$LINK: PUBCHEM CID:5282944
AC$INSTRUMENT: Agilent QTof 6545, Agilent Technologies [MS:1000490]
AC$INSTRUMENT_TYPE: LC-ESI-QTOF
AC$MASS_SPECTROMETRY: MS_TYPE MS2
AC$MASS_SPECTROMETRY: ION_MODE NEGATIVE
AC$MASS_SPECTROMETRY: IONIZATION ESI
AC$MASS_SPECTROMETRY: FRAGMENTATION_MODE CID
AC$MASS_SPECTROMETRY: COLLISION_ENERGY 10.0 eV
AC$MASS_SPECTROMETRY: RESOLUTION N/A
MS$FOCUSED_ION: BASE_PEAK 295.227905273438
MS$FOCUSED_ION: PRECURSOR_M/Z 295.227905273438
MS$FOCUSED_ION: PRECURSOR_TYPE [M-H]-
PK$SPLASH: splash10-0002-0090000000-505e9789d40e6ee08847
PK$ANNOTATION: m/z annotation exact_mass error(ppm)
  123.11794164271984 123.118 123.1179 0.3382344877802692
  171.10277545472854 171.103 171.1025 1.6098813784249166
  233.22758554463977 233.227 233.2274 0.7955524941620735
  277.21736697342556 277.217 277.2169 1.6845056183584874
  295.2279186700457 precursor 295.227868554909 0.1697506979119576
PK$NUM_PEAK: 5
PK$PEAK: m/z int. rel.int.
  123.11794164271984 936.78505 11
  171.10277545472854 7693.646957142858 100
  233.22758554463977 134.89606 1
  277.21736697342556 12996.087642857145 169
  295.2279186700457 76550.20714285715 999
//
