ACCESSION: MSBNK-Fiocruz-FIO00439
RECORD_TITLE: Dexamethasone; LC-ESI-QTOF; MS2; [M+H]+; CE: 50eV
DATE: 2016.01.19 (Created 2013.03.13)
AUTHORS: Markus Kohlhoff, Natural Product Chemistry Lab (CPqRR/FIOCRUZ, Brazil)
LICENSE: CC BY-NC
COPYRIGHT: (c) Research Center Rene Rachou (FIOCRUZ, Brazil)
COMMENT: [Raw Data] CB196_Dexamethasone_pos_50eV_isCID-10eV_rep000005.txt
CH$NAME: Dexamethasone
CH$COMPOUND_CLASS: Natural Product; Terpenoid (Steroid)
CH$FORMULA: C22H29FO5
CH$EXACT_MASS: 392.19990
CH$SMILES: OCC(=O)C(O)(C(C)4)C(C)(C3)C([H])(C4)C([H])(C1)C(F)(C(O)3)C(C)(C=2)C(=CC(=O)C2)C1
CH$IUPAC: InChI=1S/C22H29FO5/c1-12-8-16-15-5-4-13-9-14(25)6-7-19(13,2)21(15,23)17(26)10-20(16,3)22(12,28)18(27)11-24/h6-7,9,12,15-17,24,26,28H,4-5,8,10-11H2,1-3H3/t12-,15+,16+,17+,19+,20+,21+,22+/m1/s1
CH$LINK: CAS 50-02-2
CH$LINK: KEGG C15643
CH$LINK: NIKKAJI J1.356K
CH$LINK: PUBCHEM 17396633
CH$LINK: INCHIKEY UREBDLICKHMUKA-CXSFZGCWSA-N
CH$LINK: COMPTOX DTXSID3020384
AC$INSTRUMENT: maXis (Bruker Daltonics)
AC$INSTRUMENT_TYPE: LC-ESI-QTOF
AC$MASS_SPECTROMETRY: MS_TYPE MS2
AC$MASS_SPECTROMETRY: ION_MODE POSITIVE
AC$MASS_SPECTROMETRY: CAPILLARY_VOLTAGE 4500 V
AC$MASS_SPECTROMETRY: COLLISION_ENERGY 50 eV
AC$MASS_SPECTROMETRY: COLLISION_GAS Nitrogen
AC$MASS_SPECTROMETRY: DESOLVATION_GAS_FLOW 8 l/min
AC$MASS_SPECTROMETRY: DESOLVATION_TEMPERATURE 200 C
AC$MASS_SPECTROMETRY: FRAGMENTATION_METHOD CID
AC$MASS_SPECTROMETRY: IONIZATION ESI
AC$MASS_SPECTROMETRY: NEBULIZER 2.0 bar
AC$CHROMATOGRAPHY: COLUMN_NAME Waters Atlantis C18 3um 2.1x150mm
AC$CHROMATOGRAPHY: COLUMN_TEMPERATURE RT
AC$CHROMATOGRAPHY: FLOW_GRADIENT 1-100%B in 10min
AC$CHROMATOGRAPHY: FLOW_RATE 200ul/min
AC$CHROMATOGRAPHY: SOLVENT A water with 0.1% formic acid
AC$CHROMATOGRAPHY: SOLVENT B methanol with 0.1% formic acid
MS$FOCUSED_ION: BASE_PEAK 147.080700
MS$FOCUSED_ION: PRECURSOR_TYPE [M+H]+
PK$SPLASH: splash10-00dj-0940000000-730013951a30cf080ad4
PK$NUM_PEAK: 141
PK$PEAK: m/z int. rel.int.
  91.053900 416.000000 25
  93.070300 507.000000 30
  95.085500 728.000000 43
  105.070400 1658.000000 99
  107.085700 1605.000000 96
  109.101500 884.000000 53
  115.054600 458.000000 27
  117.070600 838.000000 50
  119.085900 3520.000000 210
  120.089500 288.000000 17
  121.065300 9812.000000 586
  122.068800 680.000000 41
  123.080800 762.000000 46
  125.060000 729.000000 44
  128.062500 907.000000 54
  129.070100 781.000000 47
  131.085900 2056.000000 123
  132.057000 630.000000 38
  133.101600 970.000000 58
  135.080800 3823.000000 228
  136.084500 389.000000 23
  137.096600 635.000000 38
  141.070500 795.000000 48
  142.077300 539.000000 32
  143.085800 2928.000000 175
  144.057400 390.000000 23
  145.065000 2759.000000 165
  146.072200 613.000000 37
  147.080700 16720.000000 999
  148.084200 1436.000000 86
  149.096100 946.000000 57
  151.075800 310.000000 19
  153.070200 270.000000 16
  155.085500 1134.000000 68
  156.092700 353.000000 21
  157.101300 995.000000 59
  158.072500 1930.000000 115
  159.080500 5315.000000 318
  160.085200 731.000000 44
  161.096100 3036.000000 181
  162.099400 350.000000 21
  163.075600 398.000000 24
  165.070000 534.000000 32
  166.077300 279.000000 17
  167.085400 659.000000 39
  169.100900 761.000000 45
  170.072200 492.000000 29
  171.080400 7507.000000 449
  172.085300 1069.000000 64
  173.096000 3659.000000 219
  174.099600 478.000000 29
  175.111500 447.000000 27
  177.091200 239.000000 14
  178.077900 416.000000 25
  179.085600 1442.000000 86
  180.092900 656.000000 39
  181.100500 716.000000 43
  182.072200 610.000000 36
  183.080100 1049.000000 63
  184.087600 564.000000 34
  185.095900 2535.000000 151
  186.100300 400.000000 24
  187.111400 786.000000 47
  189.071000 368.000000 22
  190.077100 468.000000 28
  191.085500 566.000000 34
  192.092600 722.000000 43
  193.100700 1210.000000 72
  194.108000 1067.000000 64
  195.080000 1578.000000 94
  196.087600 1670.000000 100
  197.095500 2399.000000 143
  198.102000 824.000000 49
  199.111100 738.000000 44
  203.084600 495.000000 30
  204.092700 1343.000000 80
  205.099700 742.000000 44
  206.107400 669.000000 40
  207.116400 810.000000 48
  208.087800 1826.000000 109
  209.095400 2893.000000 173
  210.102500 1488.000000 89
  211.111000 1949.000000 116
  212.118000 861.000000 51
  213.126500 866.000000 52
  215.106300 294.000000 18
  216.092700 277.000000 17
  217.100700 415.000000 25
  218.108300 292.000000 17
  219.116400 1222.000000 73
  220.087000 421.000000 25
  221.095600 1735.000000 104
  222.103400 4879.000000 292
  223.110200 2845.000000 170
  224.118000 1229.000000 73
  225.126000 933.000000 56
  226.098500 351.000000 21
  227.142900 387.000000 23
  229.100700 419.000000 25
  230.107600 445.000000 27
  231.115800 446.000000 27
  232.088600 200.000000 12
  233.095700 803.000000 48
  234.103100 941.000000 56
  235.111100 2108.000000 126
  236.117700 730.000000 44
  237.126900 2768.000000 165
  238.131000 595.000000 36
  239.142300 771.000000 46
  240.114100 175.000000 10
  242.109400 171.000000 10
  243.116500 487.000000 29
  244.123400 267.000000 16
  245.096200 614.000000 37
  246.103800 539.000000 32
  247.111200 1270.000000 76
  248.118700 1433.000000 86
  249.126200 1335.000000 80
  250.132500 427.000000 26
  251.142100 415.000000 25
  252.149600 451.000000 27
  253.122600 273.000000 16
  259.111300 679.000000 41
  260.117900 434.000000 26
  261.126700 1244.000000 74
  262.134400 1353.000000 81
  263.142100 2300.000000 137
  264.148100 825.000000 49
  265.155800 230.000000 14
  271.110900 319.000000 19
  272.117700 238.000000 14
  273.127400 348.000000 21
  274.135000 287.000000 17
  275.141800 324.000000 19
  276.149800 379.000000 23
  277.157900 454.000000 27
  278.165400 391.000000 23
  279.173200 453.000000 27
  281.152900 249.000000 15
  286.134900 323.000000 19
  291.137400 178.000000 11
//
