ACCESSION: MSBNK-Fiocruz-FIO00425
RECORD_TITLE: Colchicine; LC-ESI-QTOF; MS2; [M+H]+; CE: 10eV
DATE: 2016.01.19 (Created 2013.03.13)
AUTHORS: Markus Kohlhoff, Natural Product Chemistry Lab (CPqRR/FIOCRUZ, Brazil)
LICENSE: CC BY-NC
COPYRIGHT: (c) Research Center Rene Rachou (FIOCRUZ, Brazil)
COMMENT: [Raw Data] CB194_Colchicine_pos_10eV_CB000068.txt
CH$NAME: Colchicine
CH$COMPOUND_CLASS: Natural Product; Alkaloid
CH$FORMULA: C22H25NO6
CH$EXACT_MASS: 399.16819
CH$SMILES: COC(=C3)C(=O)C=C(C(NC(C)=O)2)C(=C3)c(c(CC2)1)c(OC)c(OC)c(OC)c1
CH$IUPAC: InChI=1S/C22H25NO6/c1-12(24)23-16-8-6-13-10-19(27-3)21(28-4)22(29-5)20(13)14-7-9-18(26-2)17(25)11-15(14)16/h7,9-11,16H,6,8H2,1-5H3,(H,23,24)/t16-/m0/s1
CH$LINK: CAS 64-86-8
CH$LINK: CHEBI CHEBI:27882
CH$LINK: KEGG C07592
CH$LINK: KNAPSACK C00002327
CH$LINK: NIKKAJI J9.267C
CH$LINK: PUBCHEM CID:6167
CH$LINK: INCHIKEY IAKHMKGGTNLKSZ-INIZCTEOSA-N
CH$LINK: COMPTOX DTXSID5024845
AC$INSTRUMENT: maXis (Bruker Daltonics)
AC$INSTRUMENT_TYPE: LC-ESI-QTOF
AC$MASS_SPECTROMETRY: MS_TYPE MS2
AC$MASS_SPECTROMETRY: ION_MODE POSITIVE
AC$MASS_SPECTROMETRY: CAPILLARY_VOLTAGE 4500 V
AC$MASS_SPECTROMETRY: COLLISION_ENERGY 10 eV
AC$MASS_SPECTROMETRY: COLLISION_GAS Nitrogen
AC$MASS_SPECTROMETRY: DESOLVATION_GAS_FLOW 8 l/min
AC$MASS_SPECTROMETRY: DESOLVATION_TEMPERATURE 200 C
AC$MASS_SPECTROMETRY: FRAGMENTATION_MODE CID
AC$MASS_SPECTROMETRY: IONIZATION ESI
AC$MASS_SPECTROMETRY: NEBULIZER 2.0 bar
AC$CHROMATOGRAPHY: COLUMN_NAME Waters Atlantis C18 3um 2.1x150mm
AC$CHROMATOGRAPHY: COLUMN_TEMPERATURE RT
AC$CHROMATOGRAPHY: FLOW_GRADIENT 1-100%B in 10min
AC$CHROMATOGRAPHY: FLOW_RATE 200ul/min
AC$CHROMATOGRAPHY: SOLVENT A water with 0.1% formic acid
AC$CHROMATOGRAPHY: SOLVENT B methanol with 0.1% formic acid
MS$FOCUSED_ION: BASE_PEAK 400.176200
MS$FOCUSED_ION: PRECURSOR_TYPE [M+H]+
PK$SPLASH: splash10-0udi-0000900000-d360bbc1ca27b2e657d4
PK$NUM_PEAK: 3
PK$PEAK: m/z int. rel.int.
  400.176200 376241.000000 999
  401.179200 70183.000000 186
  402.181700 10400.000000 28
//
