ACCESSION: MSBNK-Fiocruz-FIO00639
RECORD_TITLE: Kynurenine; LC-ESI-QTOF; MS2; [M+H]+; CE: 20eV
DATE: 2016.01.19 (Created 2014.10.02)
AUTHORS: Markus Kohlhoff, Natural Product Chemistry Lab (CPqRR/FIOCRUZ, Brazil)
LICENSE: CC BY-NC
COPYRIGHT: (c) Research Center Rene Rachou (FIOCRUZ, Brazil)
COMMENT: [Raw Data] CBA10_Kynurenine_pos_20eV_1-2_01_667.txt
CH$NAME: Kynurenine
CH$COMPOUND_CLASS: Natural Product; Amino acid metabolites
CH$FORMULA: C10H12N2O3
CH$EXACT_MASS: 208.08479
CH$SMILES: OC(=O)C(N)CC(=O)c(c1)c(N)ccc1
CH$IUPAC: InChI=1S/C10H12N2O3/c11-7-4-2-1-3-6(7)9(13)5-8(12)10(14)15/h1-4,8H,5,11-12H2,(H,14,15)/t8-/m0/s1
CH$LINK: CAS 2922-83-0
CH$LINK: CHEBI CHEBI:16946
CH$LINK: CHEMSPIDER 823
CH$LINK: KEGG C00328
CH$LINK: NIKKAJI J208.656E
CH$LINK: PUBCHEM CID:161166
CH$LINK: INCHIKEY YGPSJZOEDVAXAB-QMMMGPOBSA-N
AC$INSTRUMENT: maXis (Bruker Daltonics)
AC$INSTRUMENT_TYPE: LC-ESI-QTOF
AC$MASS_SPECTROMETRY: MS_TYPE MS2
AC$MASS_SPECTROMETRY: ION_MODE POSITIVE
AC$MASS_SPECTROMETRY: CAPILLARY_VOLTAGE 4500 V
AC$MASS_SPECTROMETRY: COLLISION_ENERGY 20 eV
AC$MASS_SPECTROMETRY: COLLISION_GAS Nitrogen
AC$MASS_SPECTROMETRY: DESOLVATION_GAS_FLOW 8 l/min
AC$MASS_SPECTROMETRY: DESOLVATION_TEMPERATURE 200 C
AC$MASS_SPECTROMETRY: FRAGMENTATION_MODE CID
AC$MASS_SPECTROMETRY: IONIZATION ESI
AC$MASS_SPECTROMETRY: NEBULIZER 2.0 bar
AC$CHROMATOGRAPHY: COLUMN_NAME Shimadzu Shim-Pack C18 2.2um
AC$CHROMATOGRAPHY: COLUMN_TEMPERATURE 40 C
AC$CHROMATOGRAPHY: FLOW_GRADIENT 5-100%B in 12min
AC$CHROMATOGRAPHY: FLOW_RATE 200ul/min
AC$CHROMATOGRAPHY: SOLVENT A water with 0.1% formic acid
AC$CHROMATOGRAPHY: SOLVENT B acetonitrile with 0.1% formic acid
MS$FOCUSED_ION: PRECURSOR_TYPE [M+H]+
MS$DATA_PROCESSING: FIND_PEAK local
MS$DATA_PROCESSING: WHOLE Mass++ 2.7.2
PK$SPLASH: splash10-00ds-0900000000-19c838d5478f570ffb50
PK$NUM_PEAK: 23
PK$PEAK: m/z int. rel.int.
  94.064900 1776.000000 243
  95.069600 149.000000 20
  99.007200 505.000000 69
  104.049400 143.000000 20
  118.064900 1929.000000 264
  118.942000 182.000000 25
  120.044000 3153.000000 432
  121.046400 157.000000 21
  132.044100 505.000000 69
  135.023300 151.000000 21
  136.075400 6391.000000 875
  137.078500 488.000000 67
  145.006900 111.000000 15
  146.059900 7299.000000 999
  147.063100 748.000000 102
  150.054900 2307.000000 316
  151.058000 209.000000 29
  163.086200 552.000000 76
  164.070700 404.000000 55
  174.054700 5850.000000 801
  175.057900 467.000000 64
  192.065200 2301.000000 315
  193.068700 202.000000 28
//
