ACCESSION: MSBNK-Fiocruz-FIO01062
RECORD_TITLE: Oleanolic acid; LC-ESI-QTOF; MS2; [M-H]-; CE: 40eV
DATE: 2020.06.09
AUTHORS: Markus Kohlhoff, Natural Product Chemistry Lab (FIOCRUZ Minas, Brazil)
LICENSE: CC BY
COPYRIGHT: (c) Institute Rene Rachou (FIOCRUZ Minas, Brazil)
COMMENT: [Raw Data] CBA90_Oleanolic-acid_neg_40eV.txt
CH$NAME: Oleanolic acid
CH$COMPOUND_CLASS: Natural Product; Terpenoids
CH$FORMULA: C30H48O3
CH$EXACT_MASS: 456.36035
CH$SMILES: CC(C)(C5([H])1)C(CCC(C)1C(C4(C)CC5)(CC=C(C4(C)3)C(C(CC3)2C(O)=O)([H])CC(C)(C)CC2)[H])O
CH$IUPAC: InChI=1S/C30H48O3/c1-25(2)14-16-30(24(32)33)17-15-28(6)19(20(30)18-25)8-9-22-27(5)12-11-23(31)26(3,4)21(27)10-13-29(22,28)7/h8,20-23,31H,9-18H2,1-7H3,(H,32,33)/t20-,21-,22+,23-,27-,28+,29+,30-/m0/s1
CH$LINK: KEGG C17148
CH$LINK: INCHIKEY MIJYXULNPSFWEK-GTOFXWBISA-N
AC$INSTRUMENT: maXis (Bruker Daltonics)
AC$INSTRUMENT_TYPE: LC-ESI-QTOF
AC$MASS_SPECTROMETRY: MS_TYPE MS2
AC$MASS_SPECTROMETRY: ION_MODE NEGATIVE
AC$MASS_SPECTROMETRY: CAPILLARY_VOLTAGE 4500 V
AC$MASS_SPECTROMETRY: COLLISION_ENERGY 40 eV
AC$MASS_SPECTROMETRY: COLLISION_GAS Nitrogen
AC$MASS_SPECTROMETRY: DESOLVATION_GAS_FLOW 8 l/min
AC$MASS_SPECTROMETRY: DESOLVATION_TEMPERATURE 200 C
AC$MASS_SPECTROMETRY: FRAGMENTATION_METHOD CID
AC$MASS_SPECTROMETRY: IONIZATION ESI
AC$MASS_SPECTROMETRY: NEBULIZER 3.0 bar
AC$CHROMATOGRAPHY: COLUMN_NAME Shimadzu Shim-Pack XR-ODS III; C18; 2.2um; 80A; 2.0x150mm
AC$CHROMATOGRAPHY: COLUMN_TEMPERATURE 40 C
AC$CHROMATOGRAPHY: FLOW_GRADIENT 5-100%B in 10min
AC$CHROMATOGRAPHY: FLOW_RATE 400ul/min
AC$CHROMATOGRAPHY: SOLVENT A water with 0.1% formic acid
AC$CHROMATOGRAPHY: SOLVENT B acetonitrile with 0.1% formic acid
MS$FOCUSED_ION: PRECURSOR_TYPE [M-H]-
MS$DATA_PROCESSING: FIND_PEAK centroid
MS$DATA_PROCESSING: WHOLE Mass++ 2.7.5
PK$SPLASH: splash10-0a4i-0000900000-8f61b5cbcf3f51a6107e
PK$NUM_PEAK: 5
PK$PEAK: m/z int. rel.int.
  407.329300 812.000000 14
  455.270700 632.000000 11
  455.351000 59932.000000 999
  456.354300 22968.000000 383
  457.356800 3344.000000 56
//
