ACCESSION: MSBNK-Fiocruz-FIO00897
RECORD_TITLE: Mycophenolic-acid; LC-ESI-QTOF; MS2; [M+H]+; CE: 40eV
DATE: 2019.01.15
AUTHORS: Markus Kohlhoff, Natural Product Chemistry Lab (FIOCRUZ Minas, Brazil)
LICENSE: CC BY
COPYRIGHT: (c) Institute Rene Rachou (FIOCRUZ Minas, Brazil)
COMMENT: [Raw Data] CBA66_Mycophenolic-acid_pos_40eV.txt
CH$NAME: Mycophenolic-acid
CH$COMPOUND_CLASS: Natural Product; Phenolic acid
CH$FORMULA: C17H20O6
CH$EXACT_MASS: 320.12599
CH$SMILES: OC(=O)CCC(C)=CCc(c(OC)1)c(O)c(C(=O)2)c(CO2)c(C)1
CH$IUPAC: InChI=1S/C17H20O6/c1-9(5-7-13(18)19)4-6-11-15(20)14-12(8-23-17(14)21)10(2)16(11)22-3/h4,20H,5-8H2,1-3H3,(H,18,19)/b9-4+
CH$LINK: KEGG D05096
CH$LINK: INCHIKEY HPNSFSBZBAHARI-RUDMXATFSA-N
CH$LINK: COMPTOX DTXSID4041070
AC$INSTRUMENT: maXis (Bruker Daltonics)
AC$INSTRUMENT_TYPE: LC-ESI-QTOF
AC$MASS_SPECTROMETRY: MS_TYPE MS2
AC$MASS_SPECTROMETRY: ION_MODE POSITIVE
AC$MASS_SPECTROMETRY: CAPILLARY_VOLTAGE 4500 V
AC$MASS_SPECTROMETRY: COLLISION_ENERGY 40 eV
AC$MASS_SPECTROMETRY: COLLISION_GAS Nitrogen
AC$MASS_SPECTROMETRY: DESOLVATION_GAS_FLOW 8 l/min
AC$MASS_SPECTROMETRY: DESOLVATION_TEMPERATURE 200 C
AC$MASS_SPECTROMETRY: FRAGMENTATION_METHOD CID
AC$MASS_SPECTROMETRY: IONIZATION ESI
AC$MASS_SPECTROMETRY: NEBULIZER 3.0 bar
AC$CHROMATOGRAPHY: COLUMN_NAME Shimadzu Shim-Pack XR-ODS III; C18; 2.2um; 80A; 2.0x150mm
AC$CHROMATOGRAPHY: COLUMN_TEMPERATURE 40 C
AC$CHROMATOGRAPHY: FLOW_GRADIENT 5-100%B in 10min
AC$CHROMATOGRAPHY: FLOW_RATE 400ul/min
AC$CHROMATOGRAPHY: SOLVENT A water with 0.1% formic acid
AC$CHROMATOGRAPHY: SOLVENT B acetonitrile with 0.1% formic acid
MS$FOCUSED_ION: PRECURSOR_TYPE [M+H]+
MS$DATA_PROCESSING: FIND_PEAK local
MS$DATA_PROCESSING: WHOLE Mass++ 2.7.4
PK$SPLASH: splash10-0a4i-0940000000-7a37557f8ebd5f1d2247
PK$NUM_PEAK: 16
PK$PEAK: m/z int. rel.int.
  103.054000 1087.000000 12
  131.049000 2556.000000 28
  135.080300 2047.000000 23
  149.059600 1937.000000 21
  159.044100 79836.000000 883
  160.047400 9785.000000 108
  175.075600 1480.000000 16
  177.054800 76019.000000 841
  178.058200 8251.000000 91
  179.070200 5186.000000 57
  195.065200 6178.000000 68
  207.065500 90300.000000 999
  208.068700 11634.000000 129
  209.070500 1542.000000 17
  215.106800 1312.000000 15
  221.080900 980.000000 11
//
