ACCESSION: MSBNK-Fiocruz-FIO00363
RECORD_TITLE: 3-(5-Acetyl-2-furyl)-5-methoxy-2-benzofuran-1(3H)-one; LC-ESI-QTOF; MS2; [M-H]-; CE: 20eV
DATE: 2016.01.19 (Created 2013.04.08)
AUTHORS: Markus Kohlhoff, Natural Product Chemistry Lab (CPqRR/FIOCRUZ, Brazil)
LICENSE: CC BY-NC
COPYRIGHT: (c) Research Center Rene Rachou (FIOCRUZ, Brazil)
COMMENT: [Raw Data] CB152_3-(5-Acetyl-2-furyl)-5-methoxy-2-benzofuran-1(3H)-one_neg_20eV_000030.txt
CH$NAME: 3-(5-Acetyl-2-furyl)-5-methoxy-2-benzofuran-1(3H)-one
CH$COMPOUND_CLASS: unknown
CH$FORMULA: C15H12O5
CH$EXACT_MASS: 272.06847
CH$SMILES: COc(c3)cc(c(c3)2)C(OC(=O)2)c(c1)oc(C(C)=O)c1
CH$IUPAC: InChI=1S/C15H12O5/c1-8(16)12-5-6-13(19-12)14-11-7-9(18-2)3-4-10(11)15(17)20-14/h3-7,14H,1-2H3
CH$LINK: CAS 166448-14-2
CH$LINK: CHEMSPIDER 23133148
CH$LINK: INCHIKEY KTVRYSLCSNORPS-UHFFFAOYSA-N
AC$INSTRUMENT: maXis (Bruker Daltonics)
AC$INSTRUMENT_TYPE: LC-ESI-QTOF
AC$MASS_SPECTROMETRY: MS_TYPE MS2
AC$MASS_SPECTROMETRY: ION_MODE NEGATIVE
AC$MASS_SPECTROMETRY: CAPILLARY_VOLTAGE 4500 V
AC$MASS_SPECTROMETRY: COLLISION_ENERGY 20 eV
AC$MASS_SPECTROMETRY: COLLISION_GAS Nitrogen
AC$MASS_SPECTROMETRY: DESOLVATION_GAS_FLOW 8 l/min
AC$MASS_SPECTROMETRY: DESOLVATION_TEMPERATURE 200 C
AC$MASS_SPECTROMETRY: FRAGMENTATION_METHOD CID
AC$MASS_SPECTROMETRY: IONIZATION ESI
AC$MASS_SPECTROMETRY: NEBULIZER 2.0 bar
AC$CHROMATOGRAPHY: COLUMN_NAME Waters Atlantis C18 3um 2.1x150mm
AC$CHROMATOGRAPHY: COLUMN_TEMPERATURE RT
AC$CHROMATOGRAPHY: FLOW_GRADIENT 1-100%B in 10min
AC$CHROMATOGRAPHY: FLOW_RATE 200ul/min
AC$CHROMATOGRAPHY: SOLVENT A water with 0.1% formic acid
AC$CHROMATOGRAPHY: SOLVENT B methanol with 0.1% formic acid
MS$FOCUSED_ION: BASE_PEAK 212.048100
MS$FOCUSED_ION: PRECURSOR_TYPE [M-H]-
PK$SPLASH: splash10-03fr-0290000000-6ab11990b27a8367dfbc
PK$NUM_PEAK: 17
PK$PEAK: m/z int. rel.int.
  131.050400 230.000000 147
  168.057100 137.000000 88
  171.081300 165.000000 106
  184.053300 309.000000 198
  199.076400 528.000000 338
  211.039800 404.000000 259
  212.048100 1560.000000 999
  213.019700 481.000000 308
  214.026100 101.000000 65
  215.072100 197.000000 126
  227.071400 547.000000 350
  228.042900 333.000000 213
  229.050000 377.000000 241
  243.066700 408.000000 261
  256.037700 1059.000000 678
  257.041200 125.000000 80
  271.061600 524.000000 336
//
