ACCESSION: MSBNK-Fiocruz-FIO01111
RECORD_TITLE: Azadirachtin; LC-ESI-QTOF; MS2; [M+H]+; CE: 30eV
DATE: 2020.06.10
AUTHORS: Markus Kohlhoff, Natural Product Chemistry Lab (FIOCRUZ Minas, Brazil)
LICENSE: CC BY
COPYRIGHT: (c) Institute Rene Rachou (FIOCRUZ Minas, Brazil)
COMMENT: [Raw Data] CBB03_Azadirachtin_pos_30eV.txt
CH$NAME: Azadirachtin
CH$COMPOUND_CLASS: Natural Product; Terpenoids
CH$FORMULA: C35H44O16
CH$EXACT_MASS: 720.26294
CH$SMILES: O([C@@](C)31)[C@]1([C@]([C@H](O)6)([C@@]([C@@](O)(C(OC)=O)8)([H])[C@](CO8)([C@@]5([H])7)[C@H](C[C@H]([C@@](CO[C@@]67[H])5C(=O)OC)OC(C)=O)OC(C(C)=CC)=O)C)[C@H](C4)O[C@@]([H])([C@@]2(O)[C@@H]34)OC=C2
CH$IUPAC: InChI=1S/C35H44O16/c1-8-15(2)24(38)49-18-12-19(48-16(3)36)32(26(39)43-6)13-46-21-22(32)31(18)14-47-34(42,27(40)44-7)25(31)29(4,23(21)37)35-20-11-17(30(35,5)51-35)33(41)9-10-45-28(33)50-20/h8-10,17-23,25,28,37,41-42H,11-14H2,1-7H3/b15-8+/t17-,18+,19-,20+,21-,22-,23-,25+,28+,29-,30+,31+,32+,33+,34+,35+/m1/s1
CH$LINK: KEGG C08748
CH$LINK: INCHIKEY FTNJWQUOZFUQQJ-NDAWSKJSSA-N
AC$INSTRUMENT: maXis (Bruker Daltonics)
AC$INSTRUMENT_TYPE: LC-ESI-QTOF
AC$MASS_SPECTROMETRY: MS_TYPE MS2
AC$MASS_SPECTROMETRY: ION_MODE POSITIVE
AC$MASS_SPECTROMETRY: CAPILLARY_VOLTAGE 4500 V
AC$MASS_SPECTROMETRY: COLLISION_ENERGY 30 eV
AC$MASS_SPECTROMETRY: COLLISION_GAS Nitrogen
AC$MASS_SPECTROMETRY: DESOLVATION_GAS_FLOW 8 l/min
AC$MASS_SPECTROMETRY: DESOLVATION_TEMPERATURE 200 C
AC$MASS_SPECTROMETRY: FRAGMENTATION_METHOD CID
AC$MASS_SPECTROMETRY: IONIZATION ESI
AC$MASS_SPECTROMETRY: NEBULIZER 3.0 bar
AC$CHROMATOGRAPHY: COLUMN_NAME Shimadzu Shim-Pack XR-ODS III; C18; 2.2um; 80A; 2.0x150mm
AC$CHROMATOGRAPHY: COLUMN_TEMPERATURE 40 C
AC$CHROMATOGRAPHY: FLOW_GRADIENT 5-100%B in 10min
AC$CHROMATOGRAPHY: FLOW_RATE 400ul/min
AC$CHROMATOGRAPHY: SOLVENT A water with 0.1% formic acid
AC$CHROMATOGRAPHY: SOLVENT B acetonitrile with 0.1% formic acid
MS$FOCUSED_ION: PRECURSOR_TYPE [M+H]+
MS$DATA_PROCESSING: FIND_PEAK centroid
MS$DATA_PROCESSING: WHOLE Mass++ 2.7.5
PK$SPLASH: splash10-000i-0023691100-7c3b34726932062ccebb
PK$NUM_PEAK: 272
PK$PEAK: m/z int. rel.int.
  123.043100 746.000000 10
  137.059300 1687.000000 23
  149.059900 918.000000 12
  161.059600 5154.000000 69
  162.063300 759.000000 10
  163.074600 1045.000000 14
  165.054700 818.000000 11
  179.070600 1848.000000 25
  183.080800 3377.000000 45
  197.096700 788.000000 11
  199.076100 1005.000000 13
  203.070600 903.000000 12
  211.075700 1384.000000 19
  213.091500 1539.000000 21
  217.049400 910.000000 12
  219.066100 1036.000000 14
  225.090400 1005.000000 13
  227.071000 1025.000000 14
  229.086100 1136.000000 15
  231.065500 1704.000000 23
  237.076500 989.000000 13
  239.070700 897.000000 12
  241.086400 7210.000000 97
  242.089700 1030.000000 14
  243.101700 2461.000000 33
  247.060600 811.000000 11
  249.076500 2059.000000 28
  255.065700 921.000000 12
  255.100700 1013.000000 14
  257.081200 980.000000 13
  259.097400 1163.000000 16
  261.076200 781.000000 10
  263.092600 851.000000 11
  267.088900 835.000000 11
  269.081400 10038.000000 135
  270.084400 1864.000000 25
  271.096800 2247.000000 30
  273.077200 1024.000000 14
  273.112600 1217.000000 16
  277.071200 1722.000000 23
  283.097000 4711.000000 63
  284.100900 928.000000 12
  285.076300 1709.000000 23
  287.092500 3017.000000 40
  289.106400 1003.000000 13
  291.087500 1997.000000 27
  297.076800 1316.000000 18
  297.114600 901.000000 12
  299.091300 1741.000000 23
  301.107600 5806.000000 78
  302.111100 1116.000000 15
  303.086300 929.000000 12
  303.123000 1052.000000 14
  305.102100 866.000000 12
  311.093200 1704.000000 23
  313.108200 971.000000 13
  315.087400 2658.000000 36
  315.137100 1324.000000 18
  317.102000 2025.000000 27
  319.120800 1047.000000 14
  327.087500 879.000000 12
  329.102800 15302.000000 205
  330.105700 2662.000000 36
  331.123000 1713.000000 23
  333.098800 1966.000000 26
  333.149100 1409.000000 19
  337.092100 1144.000000 15
  341.106800 917.000000 12
  343.083500 1066.000000 14
  343.130400 1658.000000 22
  345.097800 3738.000000 50
  347.113700 4916.000000 66
  348.117600 1054.000000 14
  349.096600 835.000000 11
  351.108400 942.000000 13
  353.102700 926.000000 12
  357.109700 1227.000000 16
  359.124900 1855.000000 25
  361.092500 1367.000000 18
  361.143400 2875.000000 39
  363.114900 1338.000000 18
  371.115300 1460.000000 20
  373.103900 1482.000000 20
  375.111900 2953.000000 40
  375.160600 1404.000000 19
  377.136700 1549.000000 21
  379.109600 990.000000 13
  379.153900 989.000000 13
  381.101800 764.000000 10
  385.107900 1222.000000 16
  387.109400 2760.000000 37
  388.113700 754.000000 10
  389.123900 7944.000000 107
  390.128200 2008.000000 27
  391.119700 1665.000000 22
  391.148800 1602.000000 21
  393.128700 1575.000000 21
  393.169700 1038.000000 14
  395.113900 808.000000 11
  395.148200 782.000000 10
  401.104600 1383.000000 19
  401.130800 1344.000000 18
  403.119300 2620.000000 35
  403.151500 1915.000000 26
  404.122700 876.000000 12
  405.120500 4237.000000 57
  406.125000 1225.000000 16
  407.131200 1256.000000 17
  409.128700 923.000000 12
  411.143600 1085.000000 15
  413.106200 1015.000000 14
  415.118000 1402.000000 19
  417.100000 1505.000000 20
  417.134000 1541.000000 21
  419.114600 3153.000000 42
  419.142000 2007.000000 27
  420.118600 869.000000 12
  420.153100 748.000000 10
  421.129500 3090.000000 41
  421.164500 2078.000000 28
  422.131900 801.000000 11
  423.142500 1346.000000 18
  425.122800 841.000000 11
  427.121700 789.000000 11
  429.097800 1297.000000 17
  429.133000 1587.000000 21
  430.140900 777.000000 10
  431.114300 2081.000000 28
  433.118000 3526.000000 47
  434.120800 894.000000 12
  435.110700 1884.000000 25
  435.139500 2995.000000 40
  437.123600 2089.000000 28
  437.157700 1512.000000 20
  439.138400 2646.000000 35
  439.176400 996.000000 13
  440.143600 777.000000 10
  441.153500 1103.000000 15
  443.121500 1254.000000 17
  445.129200 2728.000000 37
  447.111300 3585.000000 48
  447.137800 3381.000000 45
  448.112200 981.000000 13
  448.144100 992.000000 13
  449.123800 3466.000000 46
  449.155900 1174.000000 16
  450.126300 1144.000000 15
  451.137500 2659.000000 36
  453.120600 1047.000000 14
  453.154300 1890.000000 25
  455.136900 1276.000000 17
  457.148500 1560.000000 21
  461.124300 2266.000000 30
  462.127100 1110.000000 15
  463.139700 5211.000000 70
  464.143300 1537.000000 21
  465.122200 4659.000000 62
  465.151000 5075.000000 68
  466.123600 1696.000000 23
  466.155600 1659.000000 22
  467.134000 4068.000000 55
  467.169500 1394.000000 19
  468.138200 768.000000 10
  469.150300 1427.000000 19
  471.162500 939.000000 13
  475.104100 2448.000000 33
  475.141600 2551.000000 34
  476.144700 826.000000 11
  477.120800 1764.000000 24
  477.154800 1857.000000 25
  479.134400 4955.000000 66
  479.168000 1456.000000 20
  480.138400 1365.000000 18
  481.148600 4602.000000 62
  481.186000 3218.000000 43
  482.154200 1434.000000 19
  483.130200 2281.000000 31
  483.165200 2997.000000 40
  485.145500 1489.000000 20
  489.120700 2319.000000 31
  489.159100 2511.000000 34
  490.161300 775.000000 10
  493.116100 3099.000000 42
  493.149900 3339.000000 45
  494.120700 913.000000 12
  494.155800 838.000000 11
  495.131200 3407.000000 46
  495.166000 3819.000000 51
  496.169300 1319.000000 18
  497.145500 5871.000000 79
  498.149400 1848.000000 25
  499.160100 2856.000000 38
  501.175200 2682.000000 36
  503.157500 1310.000000 18
  507.131300 7368.000000 99
  507.165700 9750.000000 131
  508.135100 2141.000000 29
  508.168600 2853.000000 38
  509.143700 906.000000 12
  509.174000 796.000000 11
  511.127800 2248.000000 30
  511.160700 4002.000000 54
  513.140800 2808.000000 38
  513.175300 1009.000000 14
  515.155200 3446.000000 46
  516.158700 890.000000 12
  517.161800 746.000000 10
  525.140700 15462.000000 207
  525.175600 9983.000000 134
  526.144200 4547.000000 61
  526.179300 2844.000000 38
  527.149700 1109.000000 15
  527.182900 890.000000 12
  529.170500 2648.000000 36
  531.153100 1357.000000 18
  533.166300 2741.000000 37
  534.170500 880.000000 12
  535.161700 1077.000000 14
  537.178300 894.000000 12
  539.157200 1277.000000 17
  539.193800 835.000000 11
  543.151700 13386.000000 179
  543.186100 3612.000000 48
  544.154700 3162.000000 42
  545.158900 1410.000000 19
  547.181900 1434.000000 19
  549.176300 1966.000000 26
  553.136600 1038.000000 14
  553.170400 1527.000000 20
  555.185100 1492.000000 20
  557.168200 1173.000000 16
  561.161100 6595.000000 88
  562.165100 2234.000000 30
  567.187600 12419.000000 167
  568.191000 3768.000000 51
  569.193300 1008.000000 14
  571.182500 2309.000000 31
  579.172400 1482.000000 20
  581.201000 858.000000 12
  585.198300 74507.000000 999
  586.201500 23912.000000 321
  587.203500 5037.000000 68
  588.207400 788.000000 11
  589.192900 2584.000000 35
  601.229500 1207.000000 16
  603.173400 6046.000000 81
  603.209000 5207.000000 70
  604.178000 2105.000000 28
  604.211000 1560.000000 21
  607.205800 1271.000000 17
  621.182800 2976.000000 40
  622.186700 838.000000 11
  625.198600 1227.000000 16
  625.226700 1253.000000 17
  643.205500 1112.000000 15
  661.214700 2752.000000 37
  662.218900 1057.000000 14
  667.210800 780.000000 10
  667.238600 949.000000 13
  679.224400 1339.000000 18
  685.250000 3318.000000 44
  686.254400 1184.000000 16
  689.246100 1532.000000 21
  703.262800 26015.000000 349
  704.265300 8501.000000 114
  705.268700 2401.000000 32
  707.258100 3476.000000 47
  721.236800 8101.000000 109
  722.240700 2801.000000 38
  723.243100 763.000000 10
  724.224500 879.000000 12
  725.266900 1356.000000 18
//
