ACCESSION: MSBNK-Fiocruz-FIO00154
RECORD_TITLE: Hyperoside; LC-ESI-QTOF; MS2; [M+H]+; CE: 50eV
DATE: 2016.01.19 (Created 2013.03.13)
AUTHORS: Markus Kohlhoff, Natural Product Chemistry Lab (CPqRR/FIOCRUZ, Brazil)
LICENSE: CC BY-NC
COPYRIGHT: (c) Research Center Rene Rachou (FIOCRUZ, Brazil)
COMMENT: [Raw Data] CB050_Hyperoside_pos_50eV_CB000024.txt
CH$NAME: Hyperoside
CH$COMPOUND_CLASS: Natural Product; Flavonoid
CH$FORMULA: C21H20O12
CH$EXACT_MASS: 464.09548
CH$SMILES: OC[C@@H](O1)[C@H](O)[C@H](O)[C@@H](O)[C@@H]1OC(C(=O)3)=C(Oc(c4)c(c(O)cc(O)4)3)c(c2)cc(O)c(O)c2
CH$IUPAC: InChI=1S/C21H20O12/c22-6-13-15(27)17(29)18(30)21(32-13)33-20-16(28)14-11(26)4-8(23)5-12(14)31-19(20)7-1-2-9(24)10(25)3-7/h1-5,13,15,17-18,21-27,29-30H,6H2/t13-,15+,17+,18-,21+/m1/s1
CH$LINK: CAS 482-36-0
CH$LINK: CHEMSPIDER 4444962
CH$LINK: PUBCHEM CID:5378597
CH$LINK: INCHIKEY OVSQVDMCBVZWGM-DTGCRPNFSA-N
AC$INSTRUMENT: maXis (Bruker Daltonics)
AC$INSTRUMENT_TYPE: LC-ESI-QTOF
AC$MASS_SPECTROMETRY: MS_TYPE MS2
AC$MASS_SPECTROMETRY: ION_MODE POSITIVE
AC$MASS_SPECTROMETRY: CAPILLARY_VOLTAGE 4500 V
AC$MASS_SPECTROMETRY: COLLISION_ENERGY 50 eV
AC$MASS_SPECTROMETRY: COLLISION_GAS Nitrogen
AC$MASS_SPECTROMETRY: DESOLVATION_GAS_FLOW 8 l/min
AC$MASS_SPECTROMETRY: DESOLVATION_TEMPERATURE 200 C
AC$MASS_SPECTROMETRY: FRAGMENTATION_MODE CID
AC$MASS_SPECTROMETRY: IONIZATION ESI
AC$MASS_SPECTROMETRY: NEBULIZER 2.0 bar
AC$CHROMATOGRAPHY: COLUMN_NAME Waters Atlantis C18 3um 2.1x150mm
AC$CHROMATOGRAPHY: COLUMN_TEMPERATURE RT
AC$CHROMATOGRAPHY: FLOW_GRADIENT 1-100%B in 10min
AC$CHROMATOGRAPHY: FLOW_RATE 200ul/min
AC$CHROMATOGRAPHY: SOLVENT A water with 0.1% formic acid
AC$CHROMATOGRAPHY: SOLVENT B methanol with 0.1% formic acid
MS$FOCUSED_ION: BASE_PEAK 303.050000
MS$FOCUSED_ION: PRECURSOR_TYPE [M+H]+
PK$SPLASH: splash10-0udi-0009000000-5d64182b6ec0f035e317
PK$NUM_PEAK: 12
PK$PEAK: m/z int. rel.int.
  91.039100 1024.000000 10
  97.028300 1111.000000 11
  137.023400 1714.000000 17
  153.018300 3059.000000 31
  165.018100 2191.000000 22
  229.049300 3216.000000 32
  247.059700 1259.000000 13
  257.044400 3094.000000 31
  285.039400 2011.000000 20
  303.050000 99487.000000 999
  304.053300 13456.000000 135
  305.055300 2070.000000 21
//
