ACCESSION: MSBNK-Fiocruz-FIO01047
RECORD_TITLE: Hexahydrocurcumin; LC-ESI-QTOF; MS2; [M-H]-; CE: 40eV
DATE: 2020.06.09
AUTHORS: Markus Kohlhoff, Natural Product Chemistry Lab (FIOCRUZ Minas, Brazil)
LICENSE: CC BY
COPYRIGHT: (c) Institute Rene Rachou (FIOCRUZ Minas, Brazil)
COMMENT: [Raw Data] CBA88_Hexahydrocurcum_neg_40eV.txt
CH$NAME: Hexahydrocurcumin
CH$COMPOUND_CLASS: Natural Product; Phenols
CH$FORMULA: C21H26O6
CH$EXACT_MASS: 374.17294
CH$SMILES: COc(c1)c(O)ccc(CCC(O)CC(=O)CCc(c2)cc(OC)c(O)c2)1
CH$IUPAC: InChI=1S/C21H26O6/c1-26-20-11-14(5-9-18(20)24)3-7-16(22)13-17(23)8-4-15-6-10-19(25)21(12-15)27-2/h5-6,9-12,16,22,24-25H,3-4,7-8,13H2,1-2H3
CH$LINK: KEGG C17826
CH$LINK: PUBCHEM CID:5318039
CH$LINK: INCHIKEY RSAHICAPUYTWHW-UHFFFAOYSA-N
AC$INSTRUMENT: maXis (Bruker Daltonics)
AC$INSTRUMENT_TYPE: LC-ESI-QTOF
AC$MASS_SPECTROMETRY: MS_TYPE MS2
AC$MASS_SPECTROMETRY: ION_MODE NEGATIVE
AC$MASS_SPECTROMETRY: CAPILLARY_VOLTAGE 4500 V
AC$MASS_SPECTROMETRY: COLLISION_ENERGY 40 eV
AC$MASS_SPECTROMETRY: COLLISION_GAS Nitrogen
AC$MASS_SPECTROMETRY: DESOLVATION_GAS_FLOW 8 l/min
AC$MASS_SPECTROMETRY: DESOLVATION_TEMPERATURE 200 C
AC$MASS_SPECTROMETRY: FRAGMENTATION_MODE CID
AC$MASS_SPECTROMETRY: IONIZATION ESI
AC$MASS_SPECTROMETRY: NEBULIZER 3.0 bar
AC$CHROMATOGRAPHY: COLUMN_NAME Shimadzu Shim-Pack XR-ODS III; C18; 2.2um; 80A; 2.0x150mm
AC$CHROMATOGRAPHY: COLUMN_TEMPERATURE 40 C
AC$CHROMATOGRAPHY: FLOW_GRADIENT 5-100%B in 10min
AC$CHROMATOGRAPHY: FLOW_RATE 400ul/min
AC$CHROMATOGRAPHY: SOLVENT A water with 0.1% formic acid
AC$CHROMATOGRAPHY: SOLVENT B acetonitrile with 0.1% formic acid
MS$FOCUSED_ION: PRECURSOR_TYPE [M-H]-
MS$DATA_PROCESSING: FIND_PEAK centroid
MS$DATA_PROCESSING: WHOLE Mass++ 2.7.5
PK$SPLASH: splash10-004i-0900000000-6bb41cbca68c871a62ae
PK$NUM_PEAK: 18
PK$PEAK: m/z int. rel.int.
  121.029200 46890.000000 189
  122.034200 4424.000000 18
  123.044600 3259.000000 13
  134.037100 4906.000000 20
  135.045000 27169.000000 109
  136.050100 2715.000000 11
  137.060800 5825.000000 23
  149.060800 8688.000000 35
  162.032400 4089.000000 16
  163.040000 19937.000000 80
  164.048000 116512.000000 469
  165.053900 18037.000000 73
  176.048000 2913.000000 12
  177.055800 27813.000000 112
  178.063400 24944.000000 100
  179.071500 248053.000000 999
  180.074800 31008.000000 125
  193.087000 6984.000000 28
//
