ACCESSION: MSBNK-Fiocruz-FIO00988
RECORD_TITLE: Bacopaside X; LC-ESI-QTOF; MS2; [M+H]+; CE: 50eV
DATE: 2020.06.09
AUTHORS: Markus Kohlhoff, Natural Product Chemistry Lab (FIOCRUZ Minas, Brazil)
LICENSE: CC BY
COPYRIGHT: (c) Institute Rene Rachou (FIOCRUZ Minas, Brazil)
COMMENT: [Raw Data] CBA79_Bacopaside-X_pos_50eV.txt
CH$NAME: Bacopaside X
CH$COMPOUND_CLASS: Natural Product; Terpenoids
CH$FORMULA: C46H74O17
CH$EXACT_MASS: 898.49264
CH$SMILES: [H]C(C(C)(C)6)(C5)C(CCC6OC(O7)C(OC(C9O)OC(C(O)9)CO)C(OC(O8)C(C(O)C(C8CO)O)O)C(C7)O)(C(C(C)1C5)(CCC(C([H])42)([H])C(C3)1CC2(OC([H])(CC4(C)O)C=C(C)C)O3)[H])C
CH$IUPAC: InChI=1S/C46H74O17/c1-21(2)14-22-15-44(7,55)37-23-8-9-28-42(5)12-11-29(41(3,4)27(42)10-13-43(28,6)45(23)19-46(37,63-22)57-20-45)60-40-36(62-38-33(53)31(51)26(17-48)59-38)35(24(49)18-56-40)61-39-34(54)32(52)30(50)25(16-47)58-39/h14,22-40,47-55H,8-13,15-20H2,1-7H3/t22-,23+,24-,25+,26-,27-,28+,29-,30+,31-,32-,33+,34+,35-,36+,37-,38-,39-,40-,42-,43+,44-,45-,46-/m0/s1
CH$LINK: INCHIKEY RANQPHKSRUUPKK-GPUGMLHBSA-N
AC$INSTRUMENT: maXis (Bruker Daltonics)
AC$INSTRUMENT_TYPE: LC-ESI-QTOF
AC$MASS_SPECTROMETRY: MS_TYPE MS2
AC$MASS_SPECTROMETRY: ION_MODE POSITIVE
AC$MASS_SPECTROMETRY: CAPILLARY_VOLTAGE 4500 V
AC$MASS_SPECTROMETRY: COLLISION_ENERGY 50 eV
AC$MASS_SPECTROMETRY: COLLISION_GAS Nitrogen
AC$MASS_SPECTROMETRY: DESOLVATION_GAS_FLOW 8 l/min
AC$MASS_SPECTROMETRY: DESOLVATION_TEMPERATURE 200 C
AC$MASS_SPECTROMETRY: FRAGMENTATION_METHOD CID
AC$MASS_SPECTROMETRY: IONIZATION ESI
AC$MASS_SPECTROMETRY: NEBULIZER 3.0 bar
AC$CHROMATOGRAPHY: COLUMN_NAME Shimadzu Shim-Pack XR-ODS III; C18; 2.2um; 80A; 2.0x150mm
AC$CHROMATOGRAPHY: COLUMN_TEMPERATURE 40 C
AC$CHROMATOGRAPHY: FLOW_GRADIENT 5-100%B in 10min
AC$CHROMATOGRAPHY: FLOW_RATE 400ul/min
AC$CHROMATOGRAPHY: SOLVENT A water with 0.1% formic acid
AC$CHROMATOGRAPHY: SOLVENT B acetonitrile with 0.1% formic acid
MS$FOCUSED_ION: PRECURSOR_TYPE [M+H]+
MS$DATA_PROCESSING: FIND_PEAK centroid
MS$DATA_PROCESSING: WHOLE Mass++ 2.7.5
PK$SPLASH: splash10-0a4r-0975600000-7730fed124d603c7bef1
PK$NUM_PEAK: 249
PK$PEAK: m/z int. rel.int.
  115.038600 1560.000000 30
  119.084800 1509.000000 29
  121.100700 3386.000000 66
  123.116400 10274.000000 200
  124.119500 1196.000000 23
  127.038500 5286.000000 103
  128.041900 518.000000 10
  131.085300 588.000000 11
  133.049300 20026.000000 390
  133.101000 3533.000000 69
  134.052800 1245.000000 24
  135.116600 6620.000000 129
  136.119900 778.000000 15
  137.132200 3828.000000 75
  139.038800 1411.000000 27
  139.075100 655.000000 13
  143.033600 914.000000 18
  145.049500 13552.000000 264
  145.101000 1935.000000 38
  146.052800 833.000000 16
  147.116700 3066.000000 60
  149.096200 603.000000 12
  149.132200 4887.000000 95
  150.135900 585.000000 11
  151.075600 780.000000 15
  151.111300 597.000000 12
  151.148100 1043.000000 20
  153.091000 902.000000 18
  153.127300 720.000000 14
  157.049600 4438.000000 86
  157.100800 758.000000 15
  159.117000 3554.000000 69
  161.096600 532.000000 10
  161.132500 4655.000000 91
  162.136200 606.000000 12
  163.060400 5778.000000 113
  163.074600 1737.000000 34
  163.148100 5215.000000 102
  164.064300 542.000000 11
  164.151600 726.000000 14
  165.055200 635.000000 12
  165.091000 1231.000000 24
  165.127500 613.000000 12
  167.106800 746.000000 15
  169.049600 2176.000000 42
  171.117000 995.000000 19
  173.132600 2979.000000 58
  175.060100 2347.000000 46
  175.148000 4262.000000 83
  176.151600 619.000000 12
  177.091200 1700.000000 33
  177.127700 860.000000 17
  177.163700 3105.000000 60
  179.107000 1669.000000 33
  179.143000 1432.000000 28
  181.049700 1507.000000 29
  181.122300 573.000000 11
  183.064800 518.000000 10
  185.132700 1796.000000 35
  187.060400 970.000000 19
  187.113000 685.000000 13
  187.148400 6169.000000 120
  188.151700 1022.000000 20
  189.091100 948.000000 18
  189.127700 545.000000 11
  189.163900 6724.000000 131
  190.167400 1052.000000 20
  191.106700 2219.000000 43
  191.144100 704.000000 14
  191.179700 8262.000000 161
  192.182700 1146.000000 22
  193.049600 1705.000000 33
  193.122500 1111.000000 22
  193.159000 569.000000 11
  193.195200 965.000000 19
  197.132700 672.000000 13
  199.060600 1708.000000 33
  199.148500 1710.000000 33
  201.127900 799.000000 16
  201.164100 5374.000000 105
  202.167600 949.000000 18
  203.106900 1062.000000 21
  203.143700 845.000000 16
  203.179600 8615.000000 168
  204.183300 1552.000000 30
  205.122700 1413.000000 28
  205.158900 749.000000 15
  205.195100 1431.000000 28
  207.138300 1241.000000 24
  207.174800 1483.000000 29
  211.060400 7294.000000 142
  211.148400 615.000000 12
  212.063500 844.000000 16
  213.163600 1724.000000 34
  215.143200 803.000000 16
  215.179800 2436.000000 47
  216.183800 597.000000 12
  217.071000 1105.000000 22
  217.122700 1132.000000 22
  217.159300 807.000000 16
  217.195500 3302.000000 64
  218.198400 609.000000 12
  219.138500 2933.000000 57
  219.174700 618.000000 12
  219.211000 878.000000 17
  221.153700 1932.000000 38
  221.190200 1156.000000 23
  223.060200 3125.000000 61
  225.164100 571.000000 11
  227.143800 601.000000 12
  227.179900 1406.000000 27
  229.070900 8245.000000 161
  229.123400 547.000000 11
  229.158900 1160.000000 23
  229.195300 1585.000000 31
  230.074200 770.000000 15
  231.138100 2320.000000 45
  231.174400 662.000000 13
  231.211700 741.000000 14
  233.153800 3369.000000 66
  234.157200 647.000000 13
  235.169600 1678.000000 33
  239.179600 760.000000 15
  241.071100 4640.000000 90
  241.159300 606.000000 12
  241.195400 1346.000000 26
  242.073800 515.000000 10
  243.173900 615.000000 12
  243.211200 1443.000000 28
  245.153800 4222.000000 82
  245.190200 537.000000 10
  246.157200 716.000000 14
  247.081500 7406.000000 144
  247.169600 9738.000000 190
  248.084800 799.000000 16
  248.173000 1799.000000 35
  249.184400 756.000000 15
  253.195500 1276.000000 25
  255.175200 532.000000 10
  255.211000 2470.000000 48
  256.214600 555.000000 11
  257.154700 683.000000 13
  257.190900 738.000000 14
  257.225700 680.000000 13
  259.081400 3833.000000 75
  259.169600 1807.000000 35
  261.185300 1154.000000 22
  265.091900 3923.000000 76
  266.095200 551.000000 11
  267.211200 821.000000 16
  269.226700 1322.000000 26
  271.170000 856.000000 17
  271.206700 676.000000 13
  273.184900 1389.000000 27
  273.221300 600.000000 12
  275.200400 1625.000000 32
  277.091900 870.000000 17
  279.210900 605.000000 12
  281.226600 691.000000 13
  283.205500 633.000000 12
  285.184900 1629.000000 32
  285.222000 895.000000 17
  287.200300 1130.000000 22
  287.236900 551.000000 11
  289.216600 830.000000 16
  295.102900 1241.000000 24
  295.207000 659.000000 13
  295.242500 683.000000 13
  297.221600 1344.000000 26
  299.200400 1711.000000 33
  299.238100 574.000000 11
  301.216600 2396.000000 47
  302.220400 568.000000 11
  303.232100 1167.000000 23
  309.257500 1164.000000 23
  313.216600 3442.000000 67
  313.252200 1598.000000 31
  314.220100 906.000000 18
  315.232200 10634.000000 207
  316.235900 2296.000000 45
  317.244600 515.000000 10
  321.257400 520.000000 10
  323.273400 1051.000000 20
  327.233300 1362.000000 27
  327.268600 957.000000 19
  329.247000 728.000000 14
  331.227400 1125.000000 22
  331.263500 627.000000 12
  333.243700 736.000000 14
  335.273200 637.000000 12
  337.252400 681.000000 13
  337.289500 530.000000 10
  341.247700 1033.000000 20
  341.284300 621.000000 12
  343.263100 546.000000 11
  351.269400 1403.000000 27
  353.248300 695.000000 14
  353.284000 585.000000 11
  355.262900 3360.000000 65
  356.267700 1011.000000 20
  367.263500 1090.000000 21
  369.279200 9616.000000 187
  370.282000 2534.000000 49
  371.291900 1051.000000 20
  373.274100 8023.000000 156
  374.277900 1946.000000 38
  377.320600 2978.000000 58
  378.323700 903.000000 18
  381.279300 2521.000000 49
  382.282200 775.000000 15
  387.289400 4983.000000 97
  388.293500 1281.000000 25
  391.284900 12358.000000 241
  391.336300 2019.000000 39
  392.288400 2990.000000 58
  392.339500 655.000000 13
  393.291200 568.000000 11
  395.296500 1243.000000 24
  395.331400 3559.000000 69
  396.335000 1183.000000 23
  399.289500 1472.000000 29
  401.320600 775.000000 15
  409.347100 5516.000000 107
  410.350400 1733.000000 34
  411.359800 651.000000 13
  413.306200 542.000000 11
  419.331400 4180.000000 81
  420.334800 1342.000000 26
  437.342200 36279.000000 707
  438.345200 11319.000000 220
  439.348400 1750.000000 34
  441.300300 932.000000 18
  453.336700 1295.000000 25
  455.352900 51298.000000 999
  456.356200 14850.000000 289
  457.359000 2370.000000 46
  467.352800 972.000000 19
  473.362800 1790.000000 35
  474.366200 632.000000 12
  479.353000 887.000000 17
  497.362500 521.000000 10
  509.363300 673.000000 13
  515.354000 704.000000 14
  533.363300 3028.000000 59
  534.366500 1113.000000 22
  551.374200 1817.000000 35
  552.380200 769.000000 15
  587.394900 1188.000000 23
  588.398300 516.000000 10
//
