ACCESSION: MSBNK-Fiocruz-FIO01016
RECORD_TITLE: Silybin B; LC-ESI-QTOF; MS2; [M+H]+; CE: 30eV
DATE: 2020.06.09
AUTHORS: Markus Kohlhoff, Natural Product Chemistry Lab (FIOCRUZ Minas, Brazil)
LICENSE: CC BY
COPYRIGHT: (c) Institute Rene Rachou (FIOCRUZ Minas, Brazil)
COMMENT: [Raw Data] CBA85_Silybin-B_pos_30eV.txt
CH$NAME: Silybin B
CH$COMPOUND_CLASS: Natural Product; Flavonoids
CH$FORMULA: C25H22O10
CH$EXACT_MASS: 482.12130
CH$SMILES: COc(c(O)5)cc(cc5)C(O1)C(CO)Oc(c4)c(cc(c4)C(O2)C(O)C(=O)c(c(O)3)c(cc(O)c3)2)1
CH$IUPAC: InChI=1S/C25H22O10/c1-32-17-6-11(2-4-14(17)28)24-20(10-26)33-16-5-3-12(7-18(16)34-24)25-23(31)22(30)21-15(29)8-13(27)9-19(21)35-25/h2-9,20,23-29,31H,10H2,1H3
CH$LINK: KEGG C07610
CH$LINK: INCHIKEY SEBFKMXJBCUCAI-UHFFFAOYSA-N
AC$INSTRUMENT: maXis (Bruker Daltonics)
AC$INSTRUMENT_TYPE: LC-ESI-QTOF
AC$MASS_SPECTROMETRY: MS_TYPE MS2
AC$MASS_SPECTROMETRY: ION_MODE POSITIVE
AC$MASS_SPECTROMETRY: CAPILLARY_VOLTAGE 4500 V
AC$MASS_SPECTROMETRY: COLLISION_ENERGY 30 eV
AC$MASS_SPECTROMETRY: COLLISION_GAS Nitrogen
AC$MASS_SPECTROMETRY: DESOLVATION_GAS_FLOW 8 l/min
AC$MASS_SPECTROMETRY: DESOLVATION_TEMPERATURE 200 C
AC$MASS_SPECTROMETRY: FRAGMENTATION_METHOD CID
AC$MASS_SPECTROMETRY: IONIZATION ESI
AC$MASS_SPECTROMETRY: NEBULIZER 3.0 bar
AC$CHROMATOGRAPHY: COLUMN_NAME Shimadzu Shim-Pack XR-ODS III; C18; 2.2um; 80A; 2.0x150mm
AC$CHROMATOGRAPHY: COLUMN_TEMPERATURE 40 C
AC$CHROMATOGRAPHY: FLOW_GRADIENT 5-100%B in 10min
AC$CHROMATOGRAPHY: FLOW_RATE 400ul/min
AC$CHROMATOGRAPHY: SOLVENT A water with 0.1% formic acid
AC$CHROMATOGRAPHY: SOLVENT B acetonitrile with 0.1% formic acid
MS$FOCUSED_ION: PRECURSOR_TYPE [M+H]+
MS$DATA_PROCESSING: FIND_PEAK centroid
MS$DATA_PROCESSING: WHOLE Mass++ 2.7.5
PK$SPLASH: splash10-0uea-0941300000-b68a4c6c805b9eb47a62
PK$NUM_PEAK: 152
PK$PEAK: m/z int. rel.int.
  119.044200 1199.000000 23
  121.023300 896.000000 17
  121.060400 534.000000 10
  123.039300 1189.000000 22
  124.047200 990.000000 19
  127.035200 786.000000 15
  130.037600 991.000000 19
  131.045900 14944.000000 282
  132.049300 1425.000000 27
  133.025400 2751.000000 52
  133.061300 699.000000 13
  135.041300 2242.000000 42
  137.057100 11818.000000 223
  138.061200 1092.000000 21
  139.036300 1454.000000 27
  147.042200 8325.000000 157
  148.047000 969.000000 18
  149.021700 14634.000000 276
  149.058100 3639.000000 69
  150.025000 1357.000000 26
  150.065800 3020.000000 57
  151.037300 634.000000 12
  151.073300 2141.000000 40
  152.080800 1149.000000 22
  153.016900 53017.000000 999
  153.052800 758.000000 14
  154.020400 3721.000000 70
  155.022500 640.000000 12
  159.043100 1203.000000 23
  161.022400 876.000000 17
  161.058700 6272.000000 118
  162.066700 20978.000000 395
  163.038700 615.000000 12
  163.074000 12362.000000 233
  164.077600 1395.000000 26
  165.054100 3269.000000 62
  167.033400 12026.000000 227
  168.036400 953.000000 18
  175.039100 592.000000 11
  177.017700 1520.000000 29
  177.054500 9032.000000 170
  178.061000 2285.000000 43
  179.033300 736.000000 14
  179.069900 2737.000000 52
  180.077900 5273.000000 99
  181.082500 739.000000 14
  187.039300 1250.000000 24
  195.029300 31904.000000 601
  196.032700 3054.000000 58
  201.055400 1315.000000 25
  203.034600 1813.000000 34
  211.076200 686.000000 13
  213.055500 4005.000000 75
  215.034500 1232.000000 23
  223.075600 623.000000 12
  227.034600 960.000000 18
  227.071900 699.000000 13
  229.050500 8315.000000 157
  230.054000 1182.000000 22
  231.065900 894.000000 17
  239.071000 3307.000000 62
  240.075900 803.000000 15
  241.050400 7642.000000 144
  241.085800 863.000000 16
  242.056800 2914.000000 55
  243.063000 695.000000 13
  243.103000 676.000000 13
  251.071200 5399.000000 102
  252.076400 1527.000000 29
  253.085800 1286.000000 24
  255.066500 1676.000000 32
  255.102400 621.000000 12
  257.045500 13950.000000 263
  257.081100 547.000000 10
  258.049400 2156.000000 41
  258.089700 599.000000 11
  259.060000 1524.000000 29
  259.097100 932.000000 18
  267.066000 1269.000000 24
  269.045400 1491.000000 28
  269.081700 1319.000000 25
  270.089000 1991.000000 38
  271.062700 975.000000 18
  271.097100 10132.000000 191
  272.100400 1806.000000 34
  279.065900 1846.000000 35
  281.081100 1355.000000 26
  282.087000 623.000000 12
  283.061100 6669.000000 126
  283.097100 13355.000000 252
  284.064600 1145.000000 22
  284.100200 2205.000000 42
  285.040400 4627.000000 87
  285.075500 1825.000000 34
  286.043500 735.000000 14
  287.055100 1720.000000 32
  295.060600 5357.000000 101
  295.097000 622.000000 12
  296.064600 1254.000000 24
  299.055000 1097.000000 21
  301.072100 677.000000 13
  301.107500 2164.000000 41
  303.051200 632.000000 12
  307.060300 1457.000000 27
  309.076100 837.000000 16
  311.055300 6234.000000 117
  311.091900 607.000000 11
  312.059100 1033.000000 19
  313.070500 2434.000000 46
  314.074900 719.000000 14
  315.050400 1257.000000 24
  323.055300 1584.000000 30
  327.085800 719.000000 14
  329.066400 1417.000000 27
  339.085700 538.000000 10
  341.066000 2379.000000 45
  351.085400 938.000000 18
  359.090000 1141.000000 21
  363.086200 1500.000000 28
  364.089500 608.000000 11
  379.117000 6197.000000 117
  380.120100 1608.000000 30
  381.096400 615.000000 12
  387.085500 5639.000000 106
  388.088700 1321.000000 25
  389.099200 716.000000 13
  391.116400 5194.000000 98
  392.120600 1472.000000 28
  401.100800 749.000000 14
  405.093900 576.000000 11
  407.111600 9570.000000 180
  408.114500 2408.000000 45
  409.126500 4906.000000 92
  410.129800 1093.000000 21
  415.079600 2311.000000 44
  416.082900 579.000000 11
  417.095000 785.000000 15
  418.103200 883.000000 17
  419.111300 12436.000000 234
  420.114600 3427.000000 65
  421.117200 604.000000 11
  433.090500 18984.000000 358
  434.093800 4689.000000 88
  435.105200 8354.000000 157
  436.110700 3268.000000 62
  437.121500 16671.000000 314
  438.124700 3799.000000 72
  439.128900 730.000000 14
  447.106200 3456.000000 65
  448.108900 879.000000 17
  465.116400 2672.000000 50
  466.119700 737.000000 14
//
