ACCESSION: MSBNK-Fiocruz-FIO00552
RECORD_TITLE: Cochlioquinone A; LC-ESI-QTOF; MS2; [M-H]-; CE: 50eV
DATE: 2016.01.19 (Created 2013.04.08)
AUTHORS: Markus Kohlhoff, Natural Product Chemistry Lab (CPqRR/FIOCRUZ, Brazil)
LICENSE: CC BY-NC
COPYRIGHT: (c) Research Center Rene Rachou (FIOCRUZ, Brazil)
COMMENT: [Raw Data] CB284_Cochlioquinone-A_neg_50eV_000047.txt
CH$NAME: Cochlioquinone A
CH$COMPOUND_CLASS: Natural Product
CH$FORMULA: C30H44O8
CH$EXACT_MASS: 532.30362
CH$SMILES: [C@@H]([C@@H](C)c(c4=O)cc(c(c41)C(C([C@@]32C)C([C@@H](C)C[C@]([H])2O[C@H](CC3)[C@](C)(C)O)O1)O)=O)([C@@H](C)CC)OC(C)=O
CH$IUPAC: InChI=1S/C30H44O8/c1-9-14(2)26(36-17(5)31)16(4)18-13-19(32)22-25(34)23-27(38-28(22)24(18)33)15(3)12-21-30(23,8)11-10-20(37-21)29(6,7)35/h13-16,20-21,23,25-27,34-35H,9-12H2,1-8H3/t14-,15-,16-,20+,21+,23?,25?,26+,27?,30-/m0/s1
CH$LINK: CAS 32450-25-2
CH$LINK: CHEMSPIDER 476820
CH$LINK: PUBCHEM 547841
CH$LINK: INCHIKEY MERDNJKHMKQNFC-PGCPQKQNSA-N
AC$INSTRUMENT: maXis (Bruker Daltonics)
AC$INSTRUMENT_TYPE: LC-ESI-QTOF
AC$MASS_SPECTROMETRY: MS_TYPE MS2
AC$MASS_SPECTROMETRY: ION_MODE NEGATIVE
AC$MASS_SPECTROMETRY: CAPILLARY_VOLTAGE 4500 V
AC$MASS_SPECTROMETRY: COLLISION_ENERGY 50 eV
AC$MASS_SPECTROMETRY: COLLISION_GAS Nitrogen
AC$MASS_SPECTROMETRY: DESOLVATION_GAS_FLOW 8 l/min
AC$MASS_SPECTROMETRY: DESOLVATION_TEMPERATURE 200 C
AC$MASS_SPECTROMETRY: FRAGMENTATION_METHOD CID
AC$MASS_SPECTROMETRY: IONIZATION ESI
AC$MASS_SPECTROMETRY: NEBULIZER 2.0 bar
AC$CHROMATOGRAPHY: COLUMN_NAME Waters Atlantis C18 3um 2.1x150mm
AC$CHROMATOGRAPHY: COLUMN_TEMPERATURE RT
AC$CHROMATOGRAPHY: FLOW_GRADIENT 1-100%B in 10min
AC$CHROMATOGRAPHY: FLOW_RATE 200ul/min
AC$CHROMATOGRAPHY: SOLVENT A water with 0.1% formic acid
AC$CHROMATOGRAPHY: SOLVENT B methanol with 0.1% formic acid
MS$FOCUSED_ION: BASE_PEAK 471.275700
MS$FOCUSED_ION: PRECURSOR_TYPE [M-H]-
PK$SPLASH: splash10-00di-0010900000-9117c68e7539e4e04189
PK$NUM_PEAK: 22
PK$PEAK: m/z int. rel.int.
  191.034800 374.000000 56
  219.103100 178.000000 27
  221.118200 262.000000 39
  233.081900 112.000000 17
  247.098000 368.000000 55
  248.105300 761.000000 114
  249.112200 232.000000 35
  265.107500 134.000000 20
  387.218000 287.000000 43
  403.213100 247.000000 37
  404.217200 102.000000 15
  414.205000 636.000000 95
  415.208900 157.000000 24
  453.265700 165.000000 25
  454.270900 102.000000 15
  455.281400 644.000000 97
  456.285500 232.000000 35
  471.275700 6656.000000 999
  472.279300 2235.000000 335
  473.287100 513.000000 77
  474.291700 150.000000 23
  489.285800 105.000000 16
//
