ACCESSION: MSBNK-Fiocruz-FIO00538
RECORD_TITLE: Paclitaxel; LC-ESI-QTOF; MS2; [M+H]+; CE: 40eV
DATE: 2016.01.19 (Created 2013.03.13)
AUTHORS: Markus Kohlhoff, Natural Product Chemistry Lab (CPqRR/FIOCRUZ, Brazil)
LICENSE: CC BY-NC
COPYRIGHT: (c) Research Center Rene Rachou (FIOCRUZ, Brazil)
COMMENT: [Raw Data] CB246_Paclitaxel_pos_40eV_CB000085.txt
CH$NAME: Paclitaxel
CH$COMPOUND_CLASS: Natural Product; Terpenoid
CH$FORMULA: C47H51NO14
CH$EXACT_MASS: 853.33096
CH$SMILES: C(O7)[C@]([C@@H]57)(C([C@@H]4OC(c(c6)cccc6)=O)[C@]([C@H](C5)O)(C)C(=O)[C@@H](C(C(C)(C)3)=C(C)[C@H](C[C@](O)34)OC([C@H](O)[C@@H](NC(=O)c(c2)cccc2)c(c1)cccc1)=O)OC(C)=O)OC(C)=O
CH$IUPAC: InChI=1S/C47H51NO14/c1-25-31(60-43(56)36(52)35(28-16-10-7-11-17-28)48-41(54)29-18-12-8-13-19-29)23-47(57)40(61-42(55)30-20-14-9-15-21-30)38-45(6,32(51)22-33-46(38,24-58-33)62-27(3)50)39(53)37(59-26(2)49)34(25)44(47,4)5/h7-21,31-33,35-38,40,51-52,57H,22-24H2,1-6H3,(H,48,54)/t31-,32-,33+,35-,36+,37+,38?,40-,45+,46-,47+/m0/s1
CH$LINK: CAS 33069-62-4
CH$LINK: CHEBI CHEBI:45863
CH$LINK: KEGG C07394
CH$LINK: KNAPSACK C00002365
CH$LINK: NIKKAJI J17.834I
CH$LINK: PUBCHEM CID:441276
CH$LINK: INCHIKEY RCINICONZNJXQF-VAZQATRQSA-N
AC$INSTRUMENT: maXis (Bruker Daltonics)
AC$INSTRUMENT_TYPE: LC-ESI-QTOF
AC$MASS_SPECTROMETRY: MS_TYPE MS2
AC$MASS_SPECTROMETRY: ION_MODE POSITIVE
AC$MASS_SPECTROMETRY: CAPILLARY_VOLTAGE 4500 V
AC$MASS_SPECTROMETRY: COLLISION_ENERGY 40 eV
AC$MASS_SPECTROMETRY: COLLISION_GAS Nitrogen
AC$MASS_SPECTROMETRY: DESOLVATION_GAS_FLOW 8 l/min
AC$MASS_SPECTROMETRY: DESOLVATION_TEMPERATURE 200 C
AC$MASS_SPECTROMETRY: FRAGMENTATION_MODE CID
AC$MASS_SPECTROMETRY: IONIZATION ESI
AC$MASS_SPECTROMETRY: NEBULIZER 2.0 bar
AC$CHROMATOGRAPHY: COLUMN_NAME Waters Atlantis C18 3um 2.1x150mm
AC$CHROMATOGRAPHY: COLUMN_TEMPERATURE RT
AC$CHROMATOGRAPHY: FLOW_GRADIENT 1-100%B in 10min
AC$CHROMATOGRAPHY: FLOW_RATE 200ul/min
AC$CHROMATOGRAPHY: SOLVENT A water with 0.1% formic acid
AC$CHROMATOGRAPHY: SOLVENT B methanol with 0.1% formic acid
MS$FOCUSED_ION: BASE_PEAK 286.107500
MS$FOCUSED_ION: PRECURSOR_TYPE [M+H]+
PK$SPLASH: splash10-052u-0392000000-1409345ca8c825973055
PK$NUM_PEAK: 112
PK$PEAK: m/z int. rel.int.
  105.033900 19690.000000 341
  106.037100 1282.000000 22
  118.065500 1285.000000 22
  119.085900 1195.000000 21
  121.065200 1898.000000 33
  122.060500 23148.000000 401
  123.064100 1624.000000 28
  133.065200 4055.000000 70
  135.081000 1408.000000 24
  136.076200 1352.000000 23
  137.060200 645.000000 11
  139.075800 633.000000 11
  143.085900 796.000000 14
  145.101400 801.000000 14
  147.080800 1399.000000 24
  149.096300 3164.000000 55
  151.075600 2594.000000 45
  157.101500 804.000000 14
  159.080700 2761.000000 48
  161.096300 4073.000000 70
  163.075600 715.000000 12
  165.054900 649.000000 11
  167.070500 2358.000000 41
  169.101300 779.000000 13
  171.116800 674.000000 12
  173.096200 1223.000000 21
  175.075500 1629.000000 28
  177.054700 4295.000000 74
  179.070200 989.000000 17
  183.116700 1080.000000 19
  185.095800 847.000000 15
  187.111600 953.000000 16
  189.091100 1119.000000 19
  193.086100 714.000000 12
  195.065200 2098.000000 36
  197.114150 1020.000000 18
  199.111800 1055.000000 18
  203.106600 694.000000 12
  207.116500 835.000000 14
  209.132300 2026.000000 35
  210.091700 1317.000000 23
  211.111800 1963.000000 34
  213.076100 965.000000 17
  213.127200 1249.000000 22
  215.106500 830.000000 14
  221.132200 2936.000000 51
  223.111700 2162.000000 37
  225.127200 2257.000000 39
  227.142500 852.000000 15
  229.122400 875.000000 15
  233.131900 593.000000 10
  235.148000 3340.000000 58
  236.151600 710.000000 12
  237.127300 4142.000000 72
  238.131600 885.000000 15
  239.142900 4987.000000 86
  240.101800 45143.000000 781
  241.105300 6112.000000 106
  245.132400 1206.000000 21
  247.147700 640.000000 11
  248.119100 723.000000 13
  249.127100 2536.000000 44
  251.142700 2187.000000 38
  253.158500 3602.000000 62
  254.161900 695.000000 12
  255.137900 2036.000000 35
  257.153300 1138.000000 20
  261.127100 742.000000 13
  263.143000 7860.000000 136
  264.146500 1536.000000 27
  265.122500 1807.000000 31
  266.128600 668.000000 12
  267.137700 4709.000000 81
  268.096800 9255.000000 160
  269.081200 2957.000000 51
  271.168900 1061.000000 18
  273.127200 938.000000 16
  279.137800 2111.000000 37
  281.153600 11273.000000 195
  282.156900 2159.000000 37
  283.133000 1444.000000 25
  284.138600 655.000000 11
  285.148300 2134.000000 37
  286.107500 57739.000000 999
  287.110700 8802.000000 152
  288.113200 975.000000 17
  291.138000 6402.000000 111
  292.141200 1235.000000 21
  297.148400 1998.000000 35
  299.164100 5546.000000 96
  300.167500 1112.000000 19
  309.148600 18770.000000 325
  310.152000 3746.000000 65
  315.159400 763.000000 13
  327.159300 20404.000000 353
  328.162700 3974.000000 69
  341.174700 606.000000 10
  345.169800 4701.000000 81
  346.173200 971.000000 17
  351.159300 903.000000 16
  369.169900 3271.000000 57
  370.173000 748.000000 13
  387.180600 5821.000000 101
  388.184100 1287.000000 22
  405.190800 584.000000 10
  431.185500 1109.000000 19
  449.196200 2438.000000 42
  450.199600 687.000000 12
  491.206500 1489.000000 26
  509.217300 16516.000000 286
  510.220700 4666.000000 81
  511.223100 930.000000 16
//
