ACCESSION: MSBNK-Fiocruz-FIO00554
RECORD_TITLE: Isocochlioquinone A; LC-ESI-QTOF; MS2; [M+H]+; CE: 20eV
DATE: 2016.01.19 (Created 2013.03.13)
AUTHORS: Markus Kohlhoff, Natural Product Chemistry Lab (CPqRR/FIOCRUZ, Brazil)
LICENSE: CC BY-NC
COPYRIGHT: (c) Research Center Rene Rachou (FIOCRUZ, Brazil)
COMMENT: [Raw Data] CB285_Isocochlioquinone-A_pos_20eV_rep000006.txt
CH$NAME: Isocochlioquinone A
CH$COMPOUND_CLASS: Natural Product
CH$FORMULA: C30H44O8
CH$EXACT_MASS: 532.30362
CH$SMILES: [C@@H]([C@@H](C)c(c4O)cc(c(c41)C(C([C@@]32C)C([C@@H](C)C[C@]([H])2O[C@H](CC3)[C@](C)(C)O)O1)=O)O)([C@@H](C)CC)OC(C)=O
CH$IUPAC: InChI=1S/C30H44O8/c1-9-14(2)26(36-17(5)31)16(4)18-13-19(32)22-25(34)23-27(38-28(22)24(18)33)15(3)12-21-30(23,8)11-10-20(37-21)29(6,7)35/h13-16,20-21,23,26-27,32-33,35H,9-12H2,1-8H3/t14-,15-,16-,20+,21+,23?,26+,27?,30-/m0/s1
CH$LINK: CAS 156759-06-7
CH$LINK: INCHIKEY LNHBZLVBPXKQDO-ZCWCYIRTSA-N
AC$INSTRUMENT: maXis (Bruker Daltonics)
AC$INSTRUMENT_TYPE: LC-ESI-QTOF
AC$MASS_SPECTROMETRY: MS_TYPE MS2
AC$MASS_SPECTROMETRY: ION_MODE POSITIVE
AC$MASS_SPECTROMETRY: CAPILLARY_VOLTAGE 4500 V
AC$MASS_SPECTROMETRY: COLLISION_ENERGY 20 eV
AC$MASS_SPECTROMETRY: COLLISION_GAS Nitrogen
AC$MASS_SPECTROMETRY: DESOLVATION_GAS_FLOW 8 l/min
AC$MASS_SPECTROMETRY: DESOLVATION_TEMPERATURE 200 C
AC$MASS_SPECTROMETRY: FRAGMENTATION_METHOD CID
AC$MASS_SPECTROMETRY: IONIZATION ESI
AC$MASS_SPECTROMETRY: NEBULIZER 2.0 bar
AC$CHROMATOGRAPHY: COLUMN_NAME Waters Atlantis C18 3um 2.1x150mm
AC$CHROMATOGRAPHY: COLUMN_TEMPERATURE RT
AC$CHROMATOGRAPHY: FLOW_GRADIENT 1-100%B in 10min
AC$CHROMATOGRAPHY: FLOW_RATE 200ul/min
AC$CHROMATOGRAPHY: SOLVENT A water with 0.1% formic acid
AC$CHROMATOGRAPHY: SOLVENT B methanol with 0.1% formic acid
MS$FOCUSED_ION: BASE_PEAK 473.289200
MS$FOCUSED_ION: PRECURSOR_TYPE [M+H]+
PK$SPLASH: splash10-0fka-0040900000-a65069e5468c9771dd75
PK$NUM_PEAK: 20
PK$PEAK: m/z int. rel.int.
  179.033700 2116.000000 17
  189.163400 3469.000000 28
  207.173900 3156.000000 25
  223.168800 18406.000000 146
  224.172400 2440.000000 19
  249.111800 96775.000000 769
  250.115000 13166.000000 105
  251.117700 1475.000000 12
  385.200300 2031.000000 16
  389.195700 1611.000000 13
  403.211100 76523.000000 608
  404.214500 16248.000000 129
  405.216900 2604.000000 21
  415.210800 1647.000000 13
  455.278900 3236.000000 26
  471.273700 2904.000000 23
  472.278000 1592.000000 13
  473.289200 125650.000000 999
  474.292700 34375.000000 273
  475.295200 5760.000000 46
//
