ACCESSION: MSBNK-Fiocruz-FIO00219
RECORD_TITLE: Neriifolin; LC-ESI-QTOF; MS2; [M+H]+; CE: 50eV
DATE: 2016.01.19 (Created 2013.03.13)
AUTHORS: Markus Kohlhoff, Natural Product Chemistry Lab (CPqRR/FIOCRUZ, Brazil)
LICENSE: CC BY-NC
COPYRIGHT: (c) Research Center Rene Rachou (FIOCRUZ, Brazil)
COMMENT: [Raw Data] CB071_Neriifolin_pos_50eV_CB000031.txt
CH$NAME: Neriifolin
CH$COMPOUND_CLASS: Natural Product; Terpenoid
CH$FORMULA: C30H46O8
CH$EXACT_MASS: 534.31927
CH$SMILES: CO[C@H]([C@@H](O)1)[C@@H]([C@H](O[C@@H](C6)C[C@]([H])([C@](C6)2C)CC[C@]([C@@]43O)([H])[C@@](CC[C@]3(C)[C@@](C(C5)=CC(O5)=O)(CC4)[H])([H])2)O[C@@H](C)1)O
CH$IUPAC: InChI=1S/C30H46O8/c1-16-24(32)26(35-4)25(33)27(37-16)38-19-7-10-28(2)18(14-19)5-6-22-21(28)8-11-29(3)20(9-12-30(22,29)34)17-13-23(31)36-15-17/h13,16,18-22,24-27,32-34H,5-12,14-15H2,1-4H3/t16-,18+,19-,20+,21-,22+,24-,25-,26+,27-,28-,29+,30-/m0/s1
CH$LINK: CAS 466-07-9
CH$LINK: CHEBI CHEBI:7522
CH$LINK: KEGG C08876
CH$LINK: KNAPSACK C00003632
CH$LINK: NIKKAJI J12.074J
CH$LINK: PUBCHEM CID:441867
CH$LINK: INCHIKEY VPUNMTHWNSJUOG-BAOINKAISA-N
CH$LINK: COMPTOX DTXSID40881390
AC$INSTRUMENT: maXis (Bruker Daltonics)
AC$INSTRUMENT_TYPE: LC-ESI-QTOF
AC$MASS_SPECTROMETRY: MS_TYPE MS2
AC$MASS_SPECTROMETRY: ION_MODE POSITIVE
AC$MASS_SPECTROMETRY: CAPILLARY_VOLTAGE 4500 V
AC$MASS_SPECTROMETRY: COLLISION_ENERGY 50 eV
AC$MASS_SPECTROMETRY: COLLISION_GAS Nitrogen
AC$MASS_SPECTROMETRY: DESOLVATION_GAS_FLOW 8 l/min
AC$MASS_SPECTROMETRY: DESOLVATION_TEMPERATURE 200 C
AC$MASS_SPECTROMETRY: FRAGMENTATION_MODE CID
AC$MASS_SPECTROMETRY: IONIZATION ESI
AC$MASS_SPECTROMETRY: NEBULIZER 2.0 bar
AC$CHROMATOGRAPHY: COLUMN_NAME Waters Atlantis C18 3um 2.1x150mm
AC$CHROMATOGRAPHY: COLUMN_TEMPERATURE RT
AC$CHROMATOGRAPHY: FLOW_GRADIENT 1-100%B in 10min
AC$CHROMATOGRAPHY: FLOW_RATE 200ul/min
AC$CHROMATOGRAPHY: SOLVENT A water with 0.1% formic acid
AC$CHROMATOGRAPHY: SOLVENT B methanol with 0.1% formic acid
MS$FOCUSED_ION: BASE_PEAK 85.027500
MS$FOCUSED_ION: PRECURSOR_TYPE [M+H]+
PK$SPLASH: splash10-000j-1931000000-7d7c3db89e6b84bf53be
PK$NUM_PEAK: 134
PK$PEAK: m/z int. rel.int.
  83.048500 472.000000 66
  85.027500 7092.000000 999
  86.030800 406.000000 57
  87.043300 1504.000000 212
  93.069800 520.000000 73
  95.085300 506.000000 71
  99.044100 5086.000000 716
  100.047900 333.000000 47
  101.059900 939.000000 132
  103.039300 195.000000 27
  105.070000 811.000000 114
  107.085800 1738.000000 245
  109.101400 1199.000000 169
  111.044300 3027.000000 426
  112.047700 205.000000 29
  113.059900 568.000000 80
  115.075800 453.000000 64
  117.070400 496.000000 70
  119.085700 1331.000000 187
  121.101500 2681.000000 378
  122.104800 235.000000 33
  123.117300 342.000000 48
  125.059900 963.000000 136
  129.054900 1376.000000 194
  131.085700 1518.000000 214
  132.089600 193.000000 27
  133.101400 3017.000000 425
  134.105000 340.000000 48
  135.117000 4001.000000 564
  136.120700 437.000000 62
  137.059900 300.000000 42
  139.075600 313.000000 44
  143.070700 2269.000000 320
  144.074800 189.000000 27
  145.101300 3133.000000 441
  146.105000 372.000000 52
  147.117100 2932.000000 413
  148.120300 335.000000 47
  149.059900 408.000000 57
  149.132600 1241.000000 175
  150.136000 195.000000 27
  151.111900 1280.000000 180
  153.054900 963.000000 136
  155.085600 394.000000 56
  157.101200 1393.000000 196
  159.117000 3685.000000 519
  160.120700 463.000000 65
  161.081100 1031.000000 145
  161.132600 3759.000000 530
  162.136000 460.000000 65
  163.112000 1045.000000 147
  165.091300 356.000000 50
  169.101400 637.000000 90
  171.116800 1325.000000 187
  172.121000 206.000000 29
  173.132400 1390.000000 196
  174.136200 207.000000 29
  175.075200 493.000000 69
  175.148200 795.000000 112
  177.090900 1253.000000 177
  179.106500 329.000000 46
  181.101400 227.000000 32
  183.116800 1016.000000 143
  184.120500 182.000000 26
  185.132400 2679.000000 377
  186.135900 479.000000 67
  187.147900 1774.000000 250
  188.151300 277.000000 39
  189.090800 874.000000 123
  189.163700 486.000000 68
  191.106700 638.000000 90
  195.116400 351.000000 49
  197.132300 1171.000000 165
  198.136400 217.000000 31
  199.147900 1214.000000 171
  200.151800 247.000000 35
  201.163300 1011.000000 142
  202.167400 186.000000 26
  203.106700 576.000000 81
  205.122200 1258.000000 177
  206.125300 175.000000 25
  207.137800 319.000000 45
  209.132600 433.000000 61
  211.147700 1216.000000 171
  212.151600 191.000000 27
  213.163400 979.000000 138
  214.168900 245.000000 35
  215.106600 359.000000 51
  215.179000 813.000000 115
  216.183600 183.000000 26
  217.122100 832.000000 117
  219.137300 268.000000 38
  221.132000 218.000000 31
  223.148100 577.000000 81
  225.163800 574.000000 81
  227.178900 553.000000 78
  229.121900 1028.000000 145
  230.125800 220.000000 31
  231.137800 2179.000000 307
  232.141300 307.000000 43
  233.152600 170.000000 24
  237.163400 619.000000 87
  239.143300 567.000000 80
  241.158700 181.000000 25
  243.137800 987.000000 139
  244.141700 184.000000 26
  245.153300 634.000000 89
  251.179100 426.000000 60
  253.194600 353.000000 50
  255.210700 352.000000 50
  257.153300 1195.000000 168
  258.156900 219.000000 31
  259.168400 181.000000 25
  265.159200 256.000000 36
  269.153900 216.000000 30
  271.168800 421.000000 59
  277.194800 270.000000 38
  279.210500 1100.000000 155
  280.214700 330.000000 46
  283.168800 662.000000 93
  293.226200 2264.000000 319
  294.229400 504.000000 71
  295.240000 182.000000 26
  297.184500 255.000000 36
  303.210800 404.000000 57
  311.236700 470.000000 66
  321.221100 2040.000000 287
  322.223900 477.000000 67
  339.231600 4713.000000 664
  340.234800 1108.000000 156
  341.238700 173.000000 24
  357.242500 2379.000000 335
  358.245900 557.000000 78
  517.316100 138.000000 19
//
