ACCESSION: MSBNK-Fiocruz-FIO00497
RECORD_TITLE: Umbelliferone; LC-ESI-QTOF; MS2; [M+H]+; CE: 50eV
DATE: 2016.01.19 (Created 2013.03.13)
AUTHORS: Markus Kohlhoff, Natural Product Chemistry Lab (CPqRR/FIOCRUZ, Brazil)
LICENSE: CC BY-NC
COPYRIGHT: (c) Research Center Rene Rachou (FIOCRUZ, Brazil)
COMMENT: [Raw Data] CB220_Umbelliferone_pos_50eV_CB000077.txt
CH$NAME: Umbelliferone
CH$COMPOUND_CLASS: Natural Product; Phenylpropanoid
CH$FORMULA: C9H6O3
CH$EXACT_MASS: 162.03169
CH$SMILES: O=C(C=2)Oc(c1)c(C2)ccc(O)1
CH$IUPAC: InChI=1S/C9H6O3/c10-7-3-1-6-2-4-9(11)12-8(6)5-7/h1-5,10H
CH$LINK: CAS 93-35-6
CH$LINK: CHEBI CHEBI:27510
CH$LINK: KEGG C09315
CH$LINK: KNAPSACK C00002503
CH$LINK: NIKKAJI J4.673F
CH$LINK: PUBCHEM CID:5281426
CH$LINK: INCHIKEY ORHBXUUXSCNDEV-UHFFFAOYSA-N
CH$LINK: COMPTOX DTXSID5052626
AC$INSTRUMENT: maXis (Bruker Daltonics)
AC$INSTRUMENT_TYPE: LC-ESI-QTOF
AC$MASS_SPECTROMETRY: MS_TYPE MS2
AC$MASS_SPECTROMETRY: ION_MODE POSITIVE
AC$MASS_SPECTROMETRY: CAPILLARY_VOLTAGE 4500 V
AC$MASS_SPECTROMETRY: COLLISION_ENERGY 50 eV
AC$MASS_SPECTROMETRY: COLLISION_GAS Nitrogen
AC$MASS_SPECTROMETRY: DESOLVATION_GAS_FLOW 8 l/min
AC$MASS_SPECTROMETRY: DESOLVATION_TEMPERATURE 200 C
AC$MASS_SPECTROMETRY: FRAGMENTATION_MODE CID
AC$MASS_SPECTROMETRY: IONIZATION ESI
AC$MASS_SPECTROMETRY: NEBULIZER 2.0 bar
AC$CHROMATOGRAPHY: COLUMN_NAME Waters Atlantis C18 3um 2.1x150mm
AC$CHROMATOGRAPHY: COLUMN_TEMPERATURE RT
AC$CHROMATOGRAPHY: FLOW_GRADIENT 1-100%B in 10min
AC$CHROMATOGRAPHY: FLOW_RATE 200ul/min
AC$CHROMATOGRAPHY: SOLVENT A water with 0.1% formic acid
AC$CHROMATOGRAPHY: SOLVENT B methanol with 0.1% formic acid
MS$FOCUSED_ION: BASE_PEAK 105.044900
MS$FOCUSED_ION: PRECURSOR_TYPE [M+H]+
PK$SPLASH: splash10-0a4i-1900000000-fed0929c2b4a892424d3
PK$NUM_PEAK: 6
PK$PEAK: m/z int. rel.int.
  77.037200 326.000000 99
  95.049300 585.000000 177
  105.044900 3305.000000 999
  106.048300 268.000000 81
  107.049500 2451.000000 741
  108.053100 208.000000 63
//
