ACCESSION: MSBNK-Fiocruz-FIO00606
RECORD_TITLE: Eleutherol; LC-ESI-QTOF; MS2; [M-H]-; CE: 40eV
DATE: 2016.01.19 (Created 2014.10.02)
AUTHORS: Markus Kohlhoff, Natural Product Chemistry Lab (CPqRR/FIOCRUZ, Brazil)
LICENSE: CC BY-NC
COPYRIGHT: (c) Research Center Rene Rachou (FIOCRUZ, Brazil)
COMMENT: [Raw Data] CBA05_Eleutherol_neg_40eV000002.txt
CH$NAME: Eleutherol
CH$COMPOUND_CLASS: Natural Product; Polyketide
CH$FORMULA: C14H12O4
CH$EXACT_MASS: 244.07356
CH$SMILES: COc(c3)c(c(cc3)1)c(O)c([C@@H](C)2)c(C(=O)O2)c1
CH$IUPAC: InChI=1S/C14H12O4/c1-7-11-9(14(16)18-7)6-8-4-3-5-10(17-2)12(8)13(11)15/h3-7,15H,1-2H3/t7-/m1/s1
CH$LINK: CHEMSPIDER 107745
CH$LINK: INCHIKEY KNLHGXVYZRQSJZ-SSDOTTSWSA-N
CH$LINK: COMPTOX DTXSID50197373
AC$INSTRUMENT: maXis (Bruker Daltonics)
AC$INSTRUMENT_TYPE: LC-ESI-QTOF
AC$MASS_SPECTROMETRY: MS_TYPE MS2
AC$MASS_SPECTROMETRY: ION_MODE NEGATIVE
AC$MASS_SPECTROMETRY: CAPILLARY_VOLTAGE 4500 V
AC$MASS_SPECTROMETRY: COLLISION_ENERGY 40 eV
AC$MASS_SPECTROMETRY: COLLISION_GAS Nitrogen
AC$MASS_SPECTROMETRY: DESOLVATION_GAS_FLOW 8 l/min
AC$MASS_SPECTROMETRY: DESOLVATION_TEMPERATURE 200 C
AC$MASS_SPECTROMETRY: FRAGMENTATION_METHOD CID
AC$MASS_SPECTROMETRY: IONIZATION ESI
AC$MASS_SPECTROMETRY: NEBULIZER 2.0 bar
AC$CHROMATOGRAPHY: COLUMN_NAME Shimadzu Shim-Pack C18 2.2um
AC$CHROMATOGRAPHY: COLUMN_TEMPERATURE 40 C
AC$CHROMATOGRAPHY: FLOW_GRADIENT 5-100%B in 12min
AC$CHROMATOGRAPHY: FLOW_RATE 200ul/min
AC$CHROMATOGRAPHY: SOLVENT A water with 0.1% formic acid
AC$CHROMATOGRAPHY: SOLVENT B acetonitrile with 0.1% formic acid
MS$FOCUSED_ION: PRECURSOR_TYPE [M-H]-
MS$DATA_PROCESSING: FIND_PEAK local
MS$DATA_PROCESSING: WHOLE Mass++ 2.7.2
PK$SPLASH: splash10-001i-0900000000-1fc5bc421073f70d3dc6
PK$NUM_PEAK: 6
PK$PEAK: m/z int. rel.int.
  155.050400 572.000000 85
  156.056800 108.000000 16
  169.029800 132.000000 20
  183.045400 6722.000000 999
  184.051200 1297.000000 193
  185.056100 180.000000 27
//
