ACCESSION: MSBNK-Fiocruz-FIO01112
RECORD_TITLE: Azadirachtin; LC-ESI-QTOF; MS2; [M+H]+; CE: 40eV
DATE: 2020.06.10
AUTHORS: Markus Kohlhoff, Natural Product Chemistry Lab (FIOCRUZ Minas, Brazil)
LICENSE: CC BY
COPYRIGHT: (c) Institute Rene Rachou (FIOCRUZ Minas, Brazil)
COMMENT: [Raw Data] CBB03_Azadirachtin_pos_40eV.txt
CH$NAME: Azadirachtin
CH$COMPOUND_CLASS: Natural Product; Terpenoids
CH$FORMULA: C35H44O16
CH$EXACT_MASS: 720.26294
CH$SMILES: O([C@@](C)31)[C@]1([C@]([C@H](O)6)([C@@]([C@@](O)(C(OC)=O)8)([H])[C@](CO8)([C@@]5([H])7)[C@H](C[C@H]([C@@](CO[C@@]67[H])5C(=O)OC)OC(C)=O)OC(C(C)=CC)=O)C)[C@H](C4)O[C@@]([H])([C@@]2(O)[C@@H]34)OC=C2
CH$IUPAC: InChI=1S/C35H44O16/c1-8-15(2)24(38)49-18-12-19(48-16(3)36)32(26(39)43-6)13-46-21-22(32)31(18)14-47-34(42,27(40)44-7)25(31)29(4,23(21)37)35-20-11-17(30(35,5)51-35)33(41)9-10-45-28(33)50-20/h8-10,17-23,25,28,37,41-42H,11-14H2,1-7H3/b15-8+/t17-,18+,19-,20+,21-,22-,23-,25+,28+,29-,30+,31+,32+,33+,34+,35+/m1/s1
CH$LINK: KEGG C08748
CH$LINK: INCHIKEY FTNJWQUOZFUQQJ-NDAWSKJSSA-N
AC$INSTRUMENT: maXis (Bruker Daltonics)
AC$INSTRUMENT_TYPE: LC-ESI-QTOF
AC$MASS_SPECTROMETRY: MS_TYPE MS2
AC$MASS_SPECTROMETRY: ION_MODE POSITIVE
AC$MASS_SPECTROMETRY: CAPILLARY_VOLTAGE 4500 V
AC$MASS_SPECTROMETRY: COLLISION_ENERGY 40 eV
AC$MASS_SPECTROMETRY: COLLISION_GAS Nitrogen
AC$MASS_SPECTROMETRY: DESOLVATION_GAS_FLOW 8 l/min
AC$MASS_SPECTROMETRY: DESOLVATION_TEMPERATURE 200 C
AC$MASS_SPECTROMETRY: FRAGMENTATION_METHOD CID
AC$MASS_SPECTROMETRY: IONIZATION ESI
AC$MASS_SPECTROMETRY: NEBULIZER 3.0 bar
AC$CHROMATOGRAPHY: COLUMN_NAME Shimadzu Shim-Pack XR-ODS III; C18; 2.2um; 80A; 2.0x150mm
AC$CHROMATOGRAPHY: COLUMN_TEMPERATURE 40 C
AC$CHROMATOGRAPHY: FLOW_GRADIENT 5-100%B in 10min
AC$CHROMATOGRAPHY: FLOW_RATE 400ul/min
AC$CHROMATOGRAPHY: SOLVENT A water with 0.1% formic acid
AC$CHROMATOGRAPHY: SOLVENT B acetonitrile with 0.1% formic acid
MS$FOCUSED_ION: PRECURSOR_TYPE [M+H]+
MS$DATA_PROCESSING: FIND_PEAK centroid
MS$DATA_PROCESSING: WHOLE Mass++ 2.7.5
PK$SPLASH: splash10-00n3-0388940000-7cb9e1feb4267b61b7a0
PK$NUM_PEAK: 397
PK$PEAK: m/z int. rel.int.
  123.043500 841.000000 52
  133.064700 1384.000000 85
  135.044500 913.000000 56
  137.059800 2134.000000 131
  139.040200 526.000000 32
  143.085400 1033.000000 63
  145.065800 860.000000 53
  147.043900 614.000000 38
  149.059800 1961.000000 120
  151.075400 973.000000 60
  153.054400 684.000000 42
  155.085700 540.000000 33
  157.101400 1047.000000 64
  159.044900 798.000000 49
  159.080500 684.000000 42
  161.060300 6867.000000 421
  162.064000 1003.000000 61
  163.075700 1694.000000 104
  165.055500 1229.000000 75
  167.086200 546.000000 33
  169.064800 772.000000 47
  171.081100 916.000000 56
  173.060100 631.000000 39
  175.075500 653.000000 40
  177.055200 1068.000000 65
  177.091100 554.000000 34
  179.071100 2379.000000 146
  181.066600 541.000000 33
  182.072400 646.000000 40
  183.081100 4756.000000 291
  184.085700 1071.000000 66
  185.060900 685.000000 42
  185.096700 2252.000000 138
  187.076100 745.000000 46
  189.054900 751.000000 46
  189.092300 693.000000 42
  191.071300 1104.000000 68
  193.049500 627.000000 38
  195.080300 957.000000 59
  197.061200 633.000000 39
  197.097300 2002.000000 123
  199.076400 2447.000000 150
  200.081100 541.000000 33
  201.055300 679.000000 42
  201.091200 1592.000000 98
  203.070700 1544.000000 95
  205.086400 728.000000 45
  207.066200 558.000000 34
  209.060800 1145.000000 70
  211.076300 3946.000000 242
  211.112800 657.000000 40
  212.080600 650.000000 40
  213.055700 619.000000 38
  213.091400 2694.000000 165
  214.096000 551.000000 34
  215.071900 962.000000 59
  215.107300 1352.000000 83
  217.051100 985.000000 60
  217.086100 863.000000 53
  219.066300 1420.000000 87
  221.083400 749.000000 46
  223.075900 1467.000000 90
  225.055300 1067.000000 65
  225.091700 1286.000000 79
  227.071600 2553.000000 156
  227.106600 828.000000 51
  228.075000 642.000000 39
  229.086600 2060.000000 126
  230.089900 543.000000 33
  231.065700 1777.000000 109
  231.103400 857.000000 53
  233.081600 802.000000 49
  235.061100 717.000000 44
  235.098400 550.000000 34
  237.055500 845.000000 52
  237.092200 1161.000000 71
  239.071300 2096.000000 128
  239.107200 746.000000 46
  241.086700 11721.000000 718
  242.091400 2373.000000 145
  243.065900 829.000000 51
  243.102400 2618.000000 160
  245.081900 822.000000 50
  247.061400 853.000000 52
  249.076700 1455.000000 89
  251.071200 992.000000 61
  251.105300 556.000000 34
  253.050800 613.000000 38
  253.087000 1361.000000 83
  254.092500 532.000000 33
  255.066200 2333.000000 143
  255.102500 1795.000000 110
  257.082100 2212.000000 136
  258.086800 617.000000 38
  259.062100 1070.000000 66
  259.097600 2844.000000 174
  261.076900 1018.000000 62
  263.094000 821.000000 50
  265.086900 873.000000 53
  267.067500 1043.000000 64
  267.102800 1114.000000 68
  269.081900 16304.000000 999
  269.116800 556.000000 34
  270.085400 2822.000000 173
  271.062300 747.000000 46
  271.097100 2994.000000 183
  272.101800 562.000000 34
  273.077400 1379.000000 84
  273.115200 1135.000000 70
  275.094200 807.000000 49
  277.071800 1352.000000 83
  277.124500 743.000000 46
  279.069000 538.000000 33
  279.102200 905.000000 55
  281.082800 959.000000 59
  283.063100 630.000000 39
  283.097400 4892.000000 300
  284.101400 1061.000000 65
  285.076700 3478.000000 213
  285.114600 824.000000 50
  286.081800 793.000000 49
  287.092500 4715.000000 289
  287.143100 707.000000 43
  288.094900 818.000000 50
  289.073000 650.000000 40
  289.113700 898.000000 55
  291.088000 2147.000000 132
  291.138000 573.000000 35
  293.080900 888.000000 54
  293.118500 652.000000 40
  295.097500 881.000000 54
  297.076600 1923.000000 118
  297.114500 1137.000000 70
  298.081900 626.000000 38
  299.092900 3196.000000 196
  300.097500 803.000000 49
  301.074300 1081.000000 66
  301.108300 5502.000000 337
  302.111100 1000.000000 61
  303.088100 1554.000000 95
  303.138800 1510.000000 93
  305.115100 856.000000 52
  305.154700 729.000000 45
  307.084200 597.000000 37
  307.134600 752.000000 46
  309.079300 626.000000 38
  309.112200 740.000000 45
  311.092700 2031.000000 124
  312.096500 612.000000 37
  313.072100 963.000000 59
  313.111400 1540.000000 94
  314.115400 532.000000 33
  315.087700 3118.000000 191
  315.137700 1772.000000 109
  316.093800 700.000000 43
  317.104700 2249.000000 138
  318.109100 661.000000 41
  319.122100 1539.000000 94
  321.113100 781.000000 48
  323.092300 939.000000 58
  325.110600 931.000000 57
  327.088900 1656.000000 101
  329.103500 11048.000000 677
  330.107900 2271.000000 139
  331.128600 2391.000000 147
  332.133400 690.000000 42
  333.102900 1326.000000 81
  333.148300 1651.000000 101
  335.096000 781.000000 48
  335.127100 1136.000000 70
  337.097000 860.000000 53
  339.090000 920.000000 56
  341.107500 1838.000000 113
  342.112600 602.000000 37
  343.086600 1273.000000 78
  343.131000 1625.000000 100
  345.099000 4496.000000 275
  345.143400 678.000000 42
  346.104200 1104.000000 68
  347.114400 3616.000000 222
  348.117300 993.000000 61
  349.107000 817.000000 50
  349.142000 882.000000 54
  351.093700 767.000000 47
  351.108800 834.000000 51
  351.122600 836.000000 51
  353.104300 1525.000000 93
  354.110000 619.000000 38
  355.090600 1115.000000 68
  356.101800 535.000000 33
  357.112100 2055.000000 126
  358.116900 710.000000 44
  359.123500 2161.000000 132
  360.126900 531.000000 33
  361.098700 1824.000000 112
  361.144300 2793.000000 171
  362.111800 570.000000 35
  362.148500 790.000000 48
  363.121200 1614.000000 99
  363.160500 536.000000 33
  365.105400 689.000000 42
  365.136100 837.000000 51
  367.099400 678.000000 42
  369.110500 1162.000000 71
  370.117300 561.000000 34
  371.115800 1787.000000 109
  372.103000 602.000000 37
  372.117000 619.000000 38
  373.108500 2041.000000 125
  374.112800 684.000000 42
  375.120300 3023.000000 185
  375.158400 1026.000000 63
  376.125300 753.000000 46
  377.102300 888.000000 54
  377.137900 1613.000000 99
  379.114800 1101.000000 67
  379.154400 798.000000 49
  381.107300 645.000000 40
  381.134300 1105.000000 68
  383.095400 917.000000 56
  383.119900 816.000000 50
  385.108400 1770.000000 108
  386.113500 653.000000 40
  387.112200 3319.000000 203
  388.116400 786.000000 48
  389.124500 6607.000000 405
  390.128600 1298.000000 80
  391.119100 2379.000000 146
  391.149000 898.000000 55
  392.124500 725.000000 44
  393.133700 1694.000000 104
  395.113200 653.000000 40
  395.148500 728.000000 45
  397.110700 780.000000 48
  397.128700 582.000000 36
  399.093300 665.000000 41
  399.121800 984.000000 60
  401.103500 2227.000000 136
  401.135200 1253.000000 77
  402.107500 628.000000 38
  402.141400 622.000000 38
  403.119700 2961.000000 181
  403.151900 1146.000000 70
  404.124200 623.000000 38
  405.123000 2948.000000 181
  406.123900 826.000000 51
  407.116600 1438.000000 88
  407.138100 1225.000000 75
  409.129100 1505.000000 92
  411.094200 630.000000 39
  411.141200 1016.000000 62
  413.108500 907.000000 56
  415.083300 569.000000 35
  415.118900 1478.000000 91
  416.120600 562.000000 34
  417.102200 1566.000000 96
  417.133500 2489.000000 153
  418.137400 832.000000 51
  419.114600 3330.000000 204
  419.146300 2113.000000 129
  420.117700 896.000000 55
  420.149300 557.000000 34
  421.129400 2435.000000 149
  421.165700 1367.000000 84
  422.134100 598.000000 37
  423.112800 742.000000 45
  423.145800 1526.000000 94
  425.125400 776.000000 48
  425.160300 586.000000 36
  427.122300 945.000000 58
  429.099500 1685.000000 103
  429.134200 1852.000000 113
  430.138000 746.000000 46
  431.115100 2411.000000 148
  432.114800 631.000000 39
  433.125000 2379.000000 146
  434.132200 731.000000 45
  435.111000 1506.000000 92
  435.144300 1799.000000 110
  436.148000 579.000000 35
  437.124800 2688.000000 165
  437.160400 1287.000000 79
  438.127900 600.000000 37
  439.140100 1612.000000 99
  439.175000 712.000000 44
  441.153800 937.000000 57
  443.119400 818.000000 50
  445.128900 2792.000000 171
  446.133800 796.000000 49
  447.110200 3207.000000 197
  447.144500 3745.000000 229
  448.113100 958.000000 59
  448.148200 1559.000000 96
  449.124600 2772.000000 170
  449.158700 1075.000000 66
  450.128000 725.000000 44
  451.139500 2273.000000 139
  453.122300 1001.000000 61
  453.155100 1308.000000 80
  455.134100 687.000000 42
  455.169800 635.000000 39
  457.092500 829.000000 51
  457.135600 1292.000000 79
  459.109200 563.000000 34
  459.145600 621.000000 38
  461.125700 2039.000000 125
  462.129200 662.000000 41
  463.140300 3928.000000 241
  464.143700 1112.000000 68
  465.120800 3182.000000 195
  465.155400 4376.000000 268
  466.125200 815.000000 50
  466.160200 1842.000000 113
  467.134900 2178.000000 133
  467.168800 805.000000 49
  468.139300 713.000000 44
  469.150300 1057.000000 65
  471.165300 559.000000 34
  475.104600 1451.000000 89
  475.140400 2446.000000 150
  476.143000 545.000000 33
  477.122200 1046.000000 64
  477.154400 1543.000000 95
  478.160100 528.000000 32
  479.136000 3084.000000 189
  479.169800 1175.000000 72
  480.138100 878.000000 54
  481.150800 2559.000000 157
  481.184500 825.000000 51
  482.157400 947.000000 58
  483.129500 1408.000000 86
  483.165800 2012.000000 123
  484.134100 530.000000 32
  485.147000 1310.000000 80
  489.123100 1199.000000 73
  489.157400 1543.000000 95
  490.157800 554.000000 34
  493.115400 2287.000000 140
  493.150700 2389.000000 146
  494.120400 622.000000 38
  494.154500 724.000000 44
  495.132400 1545.000000 95
  495.166600 2244.000000 137
  496.137200 553.000000 34
  496.169800 782.000000 48
  497.146400 2309.000000 141
  497.179400 906.000000 56
  498.148100 634.000000 39
  499.157800 1206.000000 74
  501.176400 1840.000000 113
  503.154400 761.000000 47
  507.133900 2725.000000 167
  507.166600 5121.000000 314
  508.168200 1285.000000 79
  509.143400 550.000000 34
  509.174700 587.000000 36
  511.127300 1443.000000 88
  511.161800 2502.000000 153
  513.140800 1177.000000 72
  513.176000 625.000000 38
  515.158100 1065.000000 65
  517.154300 548.000000 34
  523.159400 534.000000 33
  525.141600 5411.000000 332
  525.177200 4873.000000 299
  526.143500 1344.000000 82
  526.181000 1286.000000 79
  527.154600 695.000000 43
  529.172300 1343.000000 82
  533.167600 612.000000 37
  535.129700 551.000000 34
  535.163500 728.000000 45
  537.178400 668.000000 41
  543.152100 3388.000000 208
  543.189300 1599.000000 98
  544.155500 858.000000 53
  544.185200 548.000000 34
  547.184400 663.000000 41
  549.178000 1255.000000 77
  553.139100 694.000000 43
  553.173000 732.000000 45
  555.189700 651.000000 40
  561.162100 968.000000 59
  562.166600 517.000000 32
  567.187900 4687.000000 287
  568.190700 1378.000000 84
  569.184700 555.000000 34
  571.182700 1377.000000 84
  585.198400 15570.000000 954
  586.202400 4764.000000 292
  587.204300 1196.000000 73
  589.196100 1008.000000 62
  603.174600 885.000000 54
  603.208300 957.000000 59
  644.273000 557.000000 34
  703.263100 1329.000000 81
  724.226400 704.000000 43
//
