ACCESSION: MSBNK-Fiocruz-FIO00865
RECORD_TITLE: Cytochalasin; LC-ESI-QTOF; MS2; [M+H]+; CE: 40eV
DATE: 2019.01.15
AUTHORS: Markus Kohlhoff, Natural Product Chemistry Lab (FIOCRUZ Minas, Brazil)
LICENSE: CC BY
COPYRIGHT: (c) Institute Rene Rachou (FIOCRUZ Minas, Brazil)
COMMENT: [Raw Data] CBA59_Cytochalasin-D_pos_40eV.txt
CH$NAME: Cytochalasin
CH$COMPOUND_CLASS: Natural Product; Alkaloids
CH$FORMULA: C30H37NO6
CH$EXACT_MASS: 507.26209
CH$SMILES: C(N3)(=O)C(C1OC(C)=O)(C(C3Cc(c4)cccc4)2)C(C(O)C(C2C)=C)C=CCC(C)C(=O)C(C=C1)(C)O
CH$IUPAC: InChI=1S/C30H37NO6/c1-17-10-9-13-22-26(33)19(3)18(2)25-23(16-21-11-7-6-8-12-21)31-28(35)30(22,25)24(37-20(4)32)14-15-29(5,36)27(17)34/h6-9,11-15,17-18,22-26,33,36H,3,10,16H2,1-2,4-5H3,(H,31,35)/b13-9+,15-14-/t17?,18-,22-,23?,24+,25?,26-,29+,30?/m0/s1
CH$LINK: INCHIKEY SDZRWUKZFQQKKV-ASPDFWPSSA-N
AC$INSTRUMENT: maXis (Bruker Daltonics)
AC$INSTRUMENT_TYPE: LC-ESI-QTOF
AC$MASS_SPECTROMETRY: MS_TYPE MS2
AC$MASS_SPECTROMETRY: ION_MODE POSITIVE
AC$MASS_SPECTROMETRY: CAPILLARY_VOLTAGE 4500 V
AC$MASS_SPECTROMETRY: COLLISION_ENERGY 40 eV
AC$MASS_SPECTROMETRY: COLLISION_GAS Nitrogen
AC$MASS_SPECTROMETRY: DESOLVATION_GAS_FLOW 8 l/min
AC$MASS_SPECTROMETRY: DESOLVATION_TEMPERATURE 200 C
AC$MASS_SPECTROMETRY: FRAGMENTATION_METHOD CID
AC$MASS_SPECTROMETRY: IONIZATION ESI
AC$MASS_SPECTROMETRY: NEBULIZER 3.0 bar
AC$CHROMATOGRAPHY: COLUMN_NAME Shimadzu Shim-Pack XR-ODS III; C18; 2.2um; 80A; 2.0x150mm
AC$CHROMATOGRAPHY: COLUMN_TEMPERATURE 40 C
AC$CHROMATOGRAPHY: FLOW_GRADIENT 5-100%B in 10min
AC$CHROMATOGRAPHY: FLOW_RATE 400ul/min
AC$CHROMATOGRAPHY: SOLVENT A water with 0.1% formic acid
AC$CHROMATOGRAPHY: SOLVENT B acetonitrile with 0.1% formic acid
MS$FOCUSED_ION: PRECURSOR_TYPE [M+H]+
MS$DATA_PROCESSING: FIND_PEAK local
MS$DATA_PROCESSING: WHOLE Mass++ 2.7.4
PK$SPLASH: splash10-0l19-0592200000-3f3fc803b12c5e85442c
PK$NUM_PEAK: 197
PK$PEAK: m/z int. rel.int.
  91.054100 830.000000 34
  105.069500 1533.000000 63
  107.084900 687.000000 28
  109.063800 637.000000 26
  117.069200 1759.000000 72
  118.072900 298.000000 12
  119.085000 2315.000000 95
  120.080000 24470.000000 999
  121.083500 2270.000000 93
  123.079900 534.000000 22
  128.048500 658.000000 27
  129.069000 764.000000 31
  131.085000 3560.000000 145
  132.080100 2914.000000 119
  133.100600 1970.000000 80
  134.095900 647.000000 26
  135.080000 2194.000000 90
  141.069000 866.000000 35
  143.085000 3498.000000 143
  144.088700 370.000000 15
  145.100600 4187.000000 171
  146.059600 8632.000000 352
  147.079600 2178.000000 89
  148.077100 378.000000 15
  149.095500 6605.000000 270
  150.099000 530.000000 22
  155.085200 2127.000000 87
  156.091100 402.000000 16
  157.100500 5504.000000 225
  158.104700 707.000000 29
  159.079900 2493.000000 102
  160.112400 572.000000 23
  161.095500 3430.000000 140
  163.111400 1495.000000 61
  167.085000 1206.000000 49
  169.100600 5225.000000 213
  170.104400 655.000000 27
  171.116200 2841.000000 116
  172.075400 2186.000000 89
  173.095500 2281.000000 93
  174.092700 537.000000 22
  175.111100 971.000000 40
  178.085500 637.000000 26
  179.085100 971.000000 40
  180.092200 569.000000 23
  181.100600 3664.000000 150
  182.105900 777.000000 32
  183.116300 3673.000000 150
  184.119500 542.000000 22
  185.095400 2742.000000 112
  186.092800 1094.000000 45
  187.111200 1310.000000 53
  189.090300 1046.000000 43
  192.094200 613.000000 25
  193.100600 2015.000000 82
  194.107600 1002.000000 41
  195.116400 6595.000000 269
  196.121100 1268.000000 52
  197.132000 2874.000000 117
  198.092000 1706.000000 70
  199.111300 2766.000000 113
  200.107500 1663.000000 68
  201.126300 589.000000 24
  202.086300 707.000000 29
  203.178600 530.000000 22
  205.100900 797.000000 33
  206.107900 1023.000000 42
  207.116400 3912.000000 160
  208.123500 3285.000000 134
  209.132000 10817.000000 442
  210.135900 1768.000000 72
  211.147400 2536.000000 104
  212.107500 1535.000000 63
  213.126400 1633.000000 67
  214.123300 821.000000 34
  217.101800 510.000000 21
  218.108600 857.000000 35
  219.115600 1398.000000 57
  220.122700 1196.000000 49
  221.131900 4644.000000 190
  222.138500 3041.000000 124
  223.147400 5717.000000 233
  224.111800 1093.000000 45
  225.126700 2963.000000 121
  226.125400 1028.000000 42
  227.142600 4097.000000 167
  228.138700 3154.000000 129
  231.115500 510.000000 21
  232.124200 1486.000000 61
  233.131700 1978.000000 81
  234.138300 1031.000000 42
  235.147700 5011.000000 205
  236.118500 3506.000000 143
  237.163300 18217.000000 744
  238.122500 14004.000000 572
  239.142100 2368.000000 97
  240.139400 1139.000000 47
  241.157500 1360.000000 56
  245.131700 1094.000000 45
  247.147700 9289.000000 379
  248.152900 2921.000000 119
  249.162700 2665.000000 109
  250.132600 2838.000000 116
  251.141900 3557.000000 145
  252.140800 1417.000000 58
  253.157300 1858.000000 76
  254.154500 1286.000000 53
  255.173900 5203.000000 212
  256.132600 19225.000000 785
  257.135500 3257.000000 133
  258.139100 641.000000 26
  259.147300 885.000000 36
  260.153700 713.000000 29
  261.161900 550.000000 22
  263.142500 3398.000000 139
  264.140500 2031.000000 83
  265.158100 22197.000000 906
  266.161500 5626.000000 230
  267.172300 2020.000000 82
  268.132800 4219.000000 172
  269.138500 1695.000000 69
  270.145700 557.000000 23
  271.147600 849.000000 35
  273.162300 581.000000 24
  275.143000 1676.000000 68
  276.145700 875.000000 36
  277.157100 1106.000000 45
  278.158100 1440.000000 59
  279.161000 575.000000 23
  280.168700 1069.000000 44
  281.152000 778.000000 32
  282.148500 1685.000000 69
  283.168700 4318.000000 176
  284.172000 1062.000000 43
  285.162700 532.000000 22
  288.137900 1074.000000 44
  290.153700 1458.000000 60
  292.169100 1239.000000 51
  293.176600 2661.000000 109
  294.150400 1398.000000 57
  295.153000 545.000000 22
  296.160800 558.000000 23
  300.174700 774.000000 32
  302.153400 1093.000000 45
  303.160800 1015.000000 41
  304.169100 938.000000 38
  306.148000 1255.000000 51
  308.163400 1112.000000 45
  310.160900 732.000000 30
  311.165800 957.000000 39
  313.194100 554.000000 23
  314.152400 721.000000 29
  316.168300 538.000000 22
  318.184600 1413.000000 58
  320.163700 1668.000000 68
  321.170600 1342.000000 55
  322.174200 662.000000 27
  327.163200 685.000000 28
  328.169000 5248.000000 214
  329.174100 2148.000000 88
  330.183100 1026.000000 42
  332.163500 735.000000 30
  339.210400 530.000000 22
  341.225200 790.000000 32
  344.164300 568.000000 23
  346.179500 5679.000000 232
  347.185200 2258.000000 92
  348.192000 1028.000000 42
  349.195100 491.000000 20
  350.247000 546.000000 22
  351.209500 706.000000 29
  356.199600 1978.000000 81
  357.206600 529.000000 22
  360.231800 613.000000 25
  366.219500 660.000000 27
  367.204900 659.000000 27
  369.220000 1074.000000 44
  370.216000 1785.000000 73
  374.211200 3241.000000 132
  375.213400 978.000000 40
  378.241800 1709.000000 70
  384.231600 8745.000000 357
  385.234600 2378.000000 97
  386.237900 546.000000 22
  388.226500 3777.000000 154
  389.229500 1054.000000 43
  394.215800 1398.000000 57
  395.217900 441.000000 18
  402.241900 16978.000000 693
  403.245600 5141.000000 210
  404.248600 982.000000 40
  412.226500 9464.000000 386
  413.229600 3023.000000 123
  414.233200 526.000000 21
  430.236800 16904.000000 690
  431.240100 5494.000000 224
  432.243000 805.000000 33
//
