ACCESSION: MSBNK-Fiocruz-FIO00567
RECORD_TITLE: Lapachol; LC-ESI-QTOF; MS2; [M-H]-; CE: 50eV
DATE: 2016.01.19 (Created 2013.04.08)
AUTHORS: Markus Kohlhoff, Natural Product Chemistry Lab (CPqRR/FIOCRUZ, Brazil)
LICENSE: CC BY-NC
COPYRIGHT: (c) Research Center Rene Rachou (FIOCRUZ, Brazil)
COMMENT: [Raw Data] CB290_Lapachol_neg_50eV_000049.txt
CH$NAME: Lapachol
CH$COMPOUND_CLASS: Natural Product; Naphtoquinone
CH$FORMULA: C15H14O3
CH$EXACT_MASS: 242.09434
CH$SMILES: CC(C)=CCc(c(O)1)c(=O)c(c2)c(ccc2)c(=O)1
CH$IUPAC: InChI=1S/C15H14O3/c1-9(2)7-8-12-13(16)10-5-3-4-6-11(10)14(17)15(12)18/h3-7,18H,8H2,1-2H3
CH$LINK: CAS 84-79-7
CH$LINK: KEGG C10366
CH$LINK: KNAPSACK C00002835
CH$LINK: NIKKAJI J4.900J
CH$LINK: PUBCHEM CID:3884
CH$LINK: INCHIKEY CIEYTVIYYGTCCI-UHFFFAOYSA-N
CH$LINK: COMPTOX DTXSID6049430
AC$INSTRUMENT: maXis (Bruker Daltonics)
AC$INSTRUMENT_TYPE: LC-ESI-QTOF
AC$MASS_SPECTROMETRY: MS_TYPE MS2
AC$MASS_SPECTROMETRY: ION_MODE NEGATIVE
AC$MASS_SPECTROMETRY: CAPILLARY_VOLTAGE 4500 V
AC$MASS_SPECTROMETRY: COLLISION_ENERGY 50 eV
AC$MASS_SPECTROMETRY: COLLISION_GAS Nitrogen
AC$MASS_SPECTROMETRY: DESOLVATION_GAS_FLOW 8 l/min
AC$MASS_SPECTROMETRY: DESOLVATION_TEMPERATURE 200 C
AC$MASS_SPECTROMETRY: FRAGMENTATION_MODE CID
AC$MASS_SPECTROMETRY: IONIZATION ESI
AC$MASS_SPECTROMETRY: NEBULIZER 2.0 bar
AC$CHROMATOGRAPHY: COLUMN_NAME Waters Atlantis C18 3um 2.1x150mm
AC$CHROMATOGRAPHY: COLUMN_TEMPERATURE RT
AC$CHROMATOGRAPHY: FLOW_GRADIENT 1-100%B in 10min
AC$CHROMATOGRAPHY: FLOW_RATE 200ul/min
AC$CHROMATOGRAPHY: SOLVENT A water with 0.1% formic acid
AC$CHROMATOGRAPHY: SOLVENT B methanol with 0.1% formic acid
MS$FOCUSED_ION: BASE_PEAK 197.060600
MS$FOCUSED_ION: PRECURSOR_TYPE [M-H]-
PK$SPLASH: splash10-0002-0910000000-f27e0384399b8b36be5f
PK$NUM_PEAK: 31
PK$PEAK: m/z int. rel.int.
  88.031800 101.000000 12
  101.040100 182.000000 21
  116.026900 615.000000 71
  145.029200 992.000000 115
  158.037500 251.000000 29
  159.044500 142.000000 16
  167.049300 107.000000 12
  169.065400 564.000000 65
  171.045000 1849.000000 214
  172.048600 214.000000 25
  179.050000 413.000000 48
  180.056200 117.000000 14
  182.037400 351.000000 41
  183.081400 100.000000 12
  186.032000 1115.000000 129
  187.036500 128.000000 15
  195.045000 1397.000000 162
  196.051300 291.000000 34
  197.060600 8633.000000 999
  197.106700 190.000000 22
  198.064400 1489.000000 172
  199.040200 588.000000 68
  200.044100 103.000000 12
  208.051900 143.000000 17
  209.060700 169.000000 20
  210.032800 138.000000 16
  211.076500 639.000000 74
  223.042000 103.000000 12
  225.055700 2360.000000 273
  226.058800 347.000000 40
  239.070200 133.000000 15
//
