ACCESSION: MSBNK-Fiocruz-FIO00111
RECORD_TITLE: Harman; LC-ESI-QTOF; MS2; [M+H]+; CE: 20eV
DATE: 2016.01.19 (Created 2013.03.13)
AUTHORS: Markus Kohlhoff, Natural Product Chemistry Lab (CPqRR/FIOCRUZ, Brazil)
LICENSE: CC BY-NC
COPYRIGHT: (c) Research Center Rene Rachou (FIOCRUZ, Brazil)
COMMENT: [Raw Data] CB042_Harman_pos_20eV_CB000019.txt
CH$NAME: Harman
CH$COMPOUND_CLASS: Natural Product; Alkaloid
CH$FORMULA: C12H10N2
CH$EXACT_MASS: 182.08440
CH$SMILES: CC1=NC=CC2=C1NC3=CC=CC=C23
CH$IUPAC: InChI=1S/C12H10N2/c1-8-12-10(6-7-13-8)9-4-2-3-5-11(9)14-12/h2-7,14H,1H3
CH$LINK: CAS 486-84-0
CH$LINK: CHEBI CHEBI:5623
CH$LINK: KEGG C09209
CH$LINK: KNAPSACK C00001736
CH$LINK: NIKKAJI J1.550D
CH$LINK: PUBCHEM CID:5281404
CH$LINK: INCHIKEY PSFDQSOCUJVVGF-UHFFFAOYSA-N
CH$LINK: COMPTOX DTXSID80197568
AC$INSTRUMENT: maXis (Bruker Daltonics)
AC$INSTRUMENT_TYPE: LC-ESI-QTOF
AC$MASS_SPECTROMETRY: MS_TYPE MS2
AC$MASS_SPECTROMETRY: ION_MODE POSITIVE
AC$MASS_SPECTROMETRY: CAPILLARY_VOLTAGE 4500 V
AC$MASS_SPECTROMETRY: COLLISION_ENERGY 20 eV
AC$MASS_SPECTROMETRY: COLLISION_GAS Nitrogen
AC$MASS_SPECTROMETRY: DESOLVATION_GAS_FLOW 8 l/min
AC$MASS_SPECTROMETRY: DESOLVATION_TEMPERATURE 200 C
AC$MASS_SPECTROMETRY: FRAGMENTATION_MODE CID
AC$MASS_SPECTROMETRY: IONIZATION ESI
AC$MASS_SPECTROMETRY: NEBULIZER 2.0 bar
AC$CHROMATOGRAPHY: COLUMN_NAME Waters Atlantis C18 3um 2.1x150mm
AC$CHROMATOGRAPHY: COLUMN_TEMPERATURE RT
AC$CHROMATOGRAPHY: FLOW_GRADIENT 1-100%B in 10min
AC$CHROMATOGRAPHY: FLOW_RATE 200ul/min
AC$CHROMATOGRAPHY: SOLVENT A water with 0.1% formic acid
AC$CHROMATOGRAPHY: SOLVENT B methanol with 0.1% formic acid
MS$FOCUSED_ION: BASE_PEAK 183.091900
MS$FOCUSED_ION: PRECURSOR_TYPE [M+H]+
PK$SPLASH: splash10-001i-0900000000-be2b3d6251e5698ec184
PK$NUM_PEAK: 2
PK$PEAK: m/z int. rel.int.
  183.091900 313729.000000 999
  184.094900 30549.000000 97
//
