ACCESSION: MSBNK-Fiocruz-FIO00365
RECORD_TITLE: 3-(5-Acetyl-2-furyl)-5-methoxy-2-benzofuran-1(3H)-one; LC-ESI-QTOF; MS2; [M-H]-; CE: 40eV
DATE: 2016.01.19 (Created 2013.04.08)
AUTHORS: Markus Kohlhoff, Natural Product Chemistry Lab (CPqRR/FIOCRUZ, Brazil)
LICENSE: CC BY-NC
COPYRIGHT: (c) Research Center Rene Rachou (FIOCRUZ, Brazil)
COMMENT: [Raw Data] CB152_3-(5-Acetyl-2-furyl)-5-methoxy-2-benzofuran-1(3H)-one_neg_40eV_000030.txt
CH$NAME: 3-(5-Acetyl-2-furyl)-5-methoxy-2-benzofuran-1(3H)-one
CH$COMPOUND_CLASS: unknown
CH$FORMULA: C15H12O5
CH$EXACT_MASS: 272.06847
CH$SMILES: COc(c3)cc(c(c3)2)C(OC(=O)2)c(c1)oc(C(C)=O)c1
CH$IUPAC: InChI=1S/C15H12O5/c1-8(16)12-5-6-13(19-12)14-11-7-9(18-2)3-4-10(11)15(17)20-14/h3-7,14H,1-2H3
CH$LINK: CAS 166448-14-2
CH$LINK: CHEMSPIDER 23133148
CH$LINK: INCHIKEY KTVRYSLCSNORPS-UHFFFAOYSA-N
AC$INSTRUMENT: maXis (Bruker Daltonics)
AC$INSTRUMENT_TYPE: LC-ESI-QTOF
AC$MASS_SPECTROMETRY: MS_TYPE MS2
AC$MASS_SPECTROMETRY: ION_MODE NEGATIVE
AC$MASS_SPECTROMETRY: CAPILLARY_VOLTAGE 4500 V
AC$MASS_SPECTROMETRY: COLLISION_ENERGY 40 eV
AC$MASS_SPECTROMETRY: COLLISION_GAS Nitrogen
AC$MASS_SPECTROMETRY: DESOLVATION_GAS_FLOW 8 l/min
AC$MASS_SPECTROMETRY: DESOLVATION_TEMPERATURE 200 C
AC$MASS_SPECTROMETRY: FRAGMENTATION_METHOD CID
AC$MASS_SPECTROMETRY: IONIZATION ESI
AC$MASS_SPECTROMETRY: NEBULIZER 2.0 bar
AC$CHROMATOGRAPHY: COLUMN_NAME Waters Atlantis C18 3um 2.1x150mm
AC$CHROMATOGRAPHY: COLUMN_TEMPERATURE RT
AC$CHROMATOGRAPHY: FLOW_GRADIENT 1-100%B in 10min
AC$CHROMATOGRAPHY: FLOW_RATE 200ul/min
AC$CHROMATOGRAPHY: SOLVENT A water with 0.1% formic acid
AC$CHROMATOGRAPHY: SOLVENT B methanol with 0.1% formic acid
MS$FOCUSED_ION: BASE_PEAK 131.050000
MS$FOCUSED_ION: PRECURSOR_TYPE [M-H]-
PK$SPLASH: splash10-03yi-0930000000-be791da5278e5a48c38a
PK$NUM_PEAK: 18
PK$PEAK: m/z int. rel.int.
  116.026900 1103.000000 577
  131.050000 1909.000000 999
  132.053300 228.000000 119
  141.035300 291.000000 152
  142.041900 419.000000 219
  156.058300 338.000000 177
  169.029700 380.000000 199
  170.036900 446.000000 233
  183.045700 298.000000 156
  184.052200 318.000000 166
  185.024300 741.000000 388
  186.029100 159.000000 83
  197.024500 498.000000 261
  211.040400 608.000000 318
  212.047200 234.000000 122
  213.019900 1346.000000 704
  214.024300 150.000000 78
  241.015300 178.000000 93
//
