ACCESSION: MSBNK-Fiocruz-FIO00642
RECORD_TITLE: Kynurenine; LC-ESI-QTOF; MS2; [M+H]+; CE: 50eV
DATE: 2016.01.19 (Created 2014.10.02)
AUTHORS: Markus Kohlhoff, Natural Product Chemistry Lab (CPqRR/FIOCRUZ, Brazil)
LICENSE: CC BY-NC
COPYRIGHT: (c) Research Center Rene Rachou (FIOCRUZ, Brazil)
COMMENT: [Raw Data] CBA10_Kynurenine_pos_50eV_1-2_01_670.txt
CH$NAME: Kynurenine
CH$COMPOUND_CLASS: Natural Product; Amino acid metabolites
CH$FORMULA: C10H12N2O3
CH$EXACT_MASS: 208.08479
CH$SMILES: OC(=O)C(N)CC(=O)c(c1)c(N)ccc1
CH$IUPAC: InChI=1S/C10H12N2O3/c11-7-4-2-1-3-6(7)9(13)5-8(12)10(14)15/h1-4,8H,5,11-12H2,(H,14,15)/t8-/m0/s1
CH$LINK: CAS 2922-83-0
CH$LINK: CHEBI CHEBI:16946
CH$LINK: CHEMSPIDER 823
CH$LINK: KEGG C00328
CH$LINK: NIKKAJI J208.656E
CH$LINK: PUBCHEM CID:161166
CH$LINK: INCHIKEY YGPSJZOEDVAXAB-QMMMGPOBSA-N
AC$INSTRUMENT: maXis (Bruker Daltonics)
AC$INSTRUMENT_TYPE: LC-ESI-QTOF
AC$MASS_SPECTROMETRY: MS_TYPE MS2
AC$MASS_SPECTROMETRY: ION_MODE POSITIVE
AC$MASS_SPECTROMETRY: CAPILLARY_VOLTAGE 4500 V
AC$MASS_SPECTROMETRY: COLLISION_ENERGY 50 eV
AC$MASS_SPECTROMETRY: COLLISION_GAS Nitrogen
AC$MASS_SPECTROMETRY: DESOLVATION_GAS_FLOW 8 l/min
AC$MASS_SPECTROMETRY: DESOLVATION_TEMPERATURE 200 C
AC$MASS_SPECTROMETRY: FRAGMENTATION_MODE CID
AC$MASS_SPECTROMETRY: IONIZATION ESI
AC$MASS_SPECTROMETRY: NEBULIZER 2.0 bar
AC$CHROMATOGRAPHY: COLUMN_NAME Shimadzu Shim-Pack C18 2.2um
AC$CHROMATOGRAPHY: COLUMN_TEMPERATURE 40 C
AC$CHROMATOGRAPHY: FLOW_GRADIENT 5-100%B in 12min
AC$CHROMATOGRAPHY: FLOW_RATE 200ul/min
AC$CHROMATOGRAPHY: SOLVENT A water with 0.1% formic acid
AC$CHROMATOGRAPHY: SOLVENT B acetonitrile with 0.1% formic acid
MS$FOCUSED_ION: PRECURSOR_TYPE [M+H]+
MS$DATA_PROCESSING: FIND_PEAK local
MS$DATA_PROCESSING: WHOLE Mass++ 2.7.2
PK$SPLASH: splash10-01bd-2900000000-069fda767e994e9546a0
PK$NUM_PEAK: 14
PK$PEAK: m/z int. rel.int.
  91.053800 1071.000000 610
  92.049300 881.000000 501
  94.065100 358.000000 204
  104.049400 182.000000 104
  105.044200 367.000000 209
  117.057500 1241.000000 706
  118.064800 1278.000000 727
  120.044300 1708.000000 972
  121.047500 155.000000 88
  128.049300 393.000000 224
  129.045000 216.000000 123
  132.044300 752.000000 428
  146.060000 1755.000000 999
  147.063100 107.000000 61
//
