ACCESSION: MSBNK-Fiocruz-FIO00512
RECORD_TITLE: Isatin; LC-ESI-QTOF; MS2; [M+H]+; CE: 30eV
DATE: 2016.01.19 (Created 2013.03.13)
AUTHORS: Markus Kohlhoff, Natural Product Chemistry Lab (CPqRR/FIOCRUZ, Brazil)
LICENSE: CC BY-NC
COPYRIGHT: (c) Research Center Rene Rachou (FIOCRUZ, Brazil)
COMMENT: [Raw Data] CB237_Isatin_pos_30eV_rep000005.txt
CH$NAME: Isatin
CH$COMPOUND_CLASS: Natural Product; Alkaloid
CH$FORMULA: C8H5NO2
CH$EXACT_MASS: 147.03203
CH$SMILES: C1=CC=C2C(=C1)C(=O)C(=O)N2
CH$IUPAC: InChI=1S/C8H5NO2/c10-7-5-3-1-2-4-6(5)9-8(7)11/h1-4H,(H,9,10,11)
CH$LINK: CAS 91-56-5
CH$LINK: CHEBI CHEBI:27539
CH$LINK: KEGG C11129
CH$LINK: KNAPSACK C00026981
CH$LINK: NIKKAJI J4.342G
CH$LINK: PUBCHEM CID:7054
CH$LINK: INCHIKEY JXDYKVIHCLTXOP-UHFFFAOYSA-N
CH$LINK: COMPTOX DTXSID3038694
AC$INSTRUMENT: maXis (Bruker Daltonics)
AC$INSTRUMENT_TYPE: LC-ESI-QTOF
AC$MASS_SPECTROMETRY: MS_TYPE MS2
AC$MASS_SPECTROMETRY: ION_MODE POSITIVE
AC$MASS_SPECTROMETRY: CAPILLARY_VOLTAGE 4500 V
AC$MASS_SPECTROMETRY: COLLISION_ENERGY 30 eV
AC$MASS_SPECTROMETRY: COLLISION_GAS Nitrogen
AC$MASS_SPECTROMETRY: DESOLVATION_GAS_FLOW 8 l/min
AC$MASS_SPECTROMETRY: DESOLVATION_TEMPERATURE 200 C
AC$MASS_SPECTROMETRY: FRAGMENTATION_MODE CID
AC$MASS_SPECTROMETRY: IONIZATION ESI
AC$MASS_SPECTROMETRY: NEBULIZER 2.0 bar
AC$CHROMATOGRAPHY: COLUMN_NAME Waters Atlantis C18 3um 2.1x150mm
AC$CHROMATOGRAPHY: COLUMN_TEMPERATURE RT
AC$CHROMATOGRAPHY: FLOW_GRADIENT 1-100%B in 10min
AC$CHROMATOGRAPHY: FLOW_RATE 200ul/min
AC$CHROMATOGRAPHY: SOLVENT A water with 0.1% formic acid
AC$CHROMATOGRAPHY: SOLVENT B methanol with 0.1% formic acid
MS$FOCUSED_ION: BASE_PEAK 130.040300
MS$FOCUSED_ION: PRECURSOR_TYPE [M+H]+
PK$SPLASH: splash10-001l-3900000000-a768411b3bdce1e8bbf7
PK$NUM_PEAK: 18
PK$PEAK: m/z int. rel.int.
  65.038800 774.000000 18
  75.023300 824.000000 19
  77.039000 2623.000000 60
  88.076100 558.000000 13
  90.034100 953.000000 22
  92.049800 26157.000000 602
  93.053100 1812.000000 42
  95.049400 3338.000000 77
  102.034100 11135.000000 256
  103.037400 756.000000 17
  105.045000 6795.000000 156
  110.060400 743.000000 17
  120.044800 11976.000000 276
  121.042900 877.000000 20
  130.040300 43381.000000 999
  131.043100 3259.000000 75
  148.039600 15880.000000 366
  149.042800 1443.000000 33
//
