ACCESSION: MSBNK-Fiocruz-FIO00734
RECORD_TITLE: Nicotiflorine; LC-ESI-QTOF; MS2; [M-H]-; CE: 20eV
DATE: 2016.01.19 (Created 2014.10.02)
AUTHORS: Markus Kohlhoff, Natural Product Chemistry Lab (CPqRR/FIOCRUZ, Brazil)
LICENSE: CC BY-NC
COPYRIGHT: (c) Research Center Rene Rachou (FIOCRUZ, Brazil)
COMMENT: [Raw Data] CBA23_Nicotiflorine_neg_20eV_1-5_01_1417.txt
CH$NAME: Nicotiflorine
CH$COMPOUND_CLASS: Natural Product; Flavonoids
CH$FORMULA: C27H30O15
CH$EXACT_MASS: 594.15847
CH$SMILES: c(c5)(O)cc(c(c51)C(C(O[C@H](O3)[C@@H]([C@H]([C@@H]([C@H]3CO[C@@H]([C@@H]4O)O[C@H]([C@@H]([C@H]4O)O)C)O)O)O)=C(c(c2)ccc(O)c2)O1)=O)O
CH$IUPAC: InChI=1S/C27H30O15/c1-9-17(31)20(34)22(36)26(39-9)38-8-15-18(32)21(35)23(37)27(41-15)42-25-19(33)16-13(30)6-12(29)7-14(16)40-24(25)10-2-4-11(28)5-3-10/h2-7,9,15,17-18,20-23,26-32,34-37H,8H2,1H3/t9-,15+,17-,18+,20+,21-,22+,23+,26+,27-/m0/s1
CH$LINK: CHEMSPIDER 4477257
CH$LINK: INCHIKEY RTATXGUCZHCSNG-QHWHWDPRSA-N
CH$LINK: COMPTOX DTXSID50938804
AC$INSTRUMENT: maXis (Bruker Daltonics)
AC$INSTRUMENT_TYPE: LC-ESI-QTOF
AC$MASS_SPECTROMETRY: MS_TYPE MS2
AC$MASS_SPECTROMETRY: ION_MODE NEGATIVE
AC$MASS_SPECTROMETRY: CAPILLARY_VOLTAGE 4500 V
AC$MASS_SPECTROMETRY: COLLISION_ENERGY 20 eV
AC$MASS_SPECTROMETRY: COLLISION_GAS Nitrogen
AC$MASS_SPECTROMETRY: DESOLVATION_GAS_FLOW 8 l/min
AC$MASS_SPECTROMETRY: DESOLVATION_TEMPERATURE 200 C
AC$MASS_SPECTROMETRY: FRAGMENTATION_METHOD CID
AC$MASS_SPECTROMETRY: IONIZATION ESI
AC$MASS_SPECTROMETRY: NEBULIZER 2.0 bar
AC$CHROMATOGRAPHY: COLUMN_NAME Supelco Titan C18 1.9um
AC$CHROMATOGRAPHY: COLUMN_TEMPERATURE 40 C
AC$CHROMATOGRAPHY: FLOW_GRADIENT 5-100%B in 12min
AC$CHROMATOGRAPHY: FLOW_RATE 200ul/min
AC$CHROMATOGRAPHY: SOLVENT A water with 0.1% formic acid
AC$CHROMATOGRAPHY: SOLVENT B acetonitrile with 0.1% formic acid
MS$FOCUSED_ION: PRECURSOR_TYPE [M-H]-
MS$DATA_PROCESSING: FIND_PEAK local
MS$DATA_PROCESSING: WHOLE Mass++ 2.7.2
PK$SPLASH: splash10-0006-0000090000-3d2362637eab2f29bb9f
PK$NUM_PEAK: 5
PK$PEAK: m/z int. rel.int.
  285.039800 538.000000 14
  593.151200 38335.000000 999
  594.155700 19052.000000 496
  595.158900 5235.000000 136
  596.162000 962.000000 25
//
