ACCESSION: MSBNK-Fiocruz-FIO00046
RECORD_TITLE: Demissidine; LC-ESI-QTOF; MS2; [M+H]+; CE: 50eV
DATE: 2016.01.19 (Created 2013.03.13)
AUTHORS: Markus Kohlhoff, Natural Product Chemistry Lab (CPqRR/FIOCRUZ, Brazil)
LICENSE: CC BY-NC
COPYRIGHT: (c) Research Center Rene Rachou (FIOCRUZ, Brazil)
COMMENT: [Raw Data] CB019_Demissidine_pos_50eV_rep000003.txt
CH$NAME: Demissidine
CH$COMPOUND_CLASS: Natural Product; Alkaloid
CH$FORMULA: C27H45NO
CH$EXACT_MASS: 399.35016
CH$SMILES: C[C@H]1CC[C@@H]2[C@H]([C@H]3[C@@H](N2C1)C[C@@H]4[C@@]3(CC[C@H]5[C@H]4CC[C@@H]6[C@@]5(CC[C@@H](C6)O)C)C)C
CH$IUPAC: InChI=1S/C27H45NO/c1-16-5-8-23-17(2)25-24(28(23)15-16)14-22-20-7-6-18-13-19(29)9-11-26(18,3)21(20)10-12-27(22,25)4/h16-25,29H,5-15H2,1-4H3/t16-,17+,18-,19-,20+,21-,22-,23+,24-,25-,26-,27-/m0/s1
CH$LINK: CAS 474-08-8
CH$LINK: CHEMSPIDER 310164
CH$LINK: PUBCHEM CID:101379
CH$LINK: INCHIKEY JALVTHFTYRPDMB-HRRTYWNUSA-N
AC$INSTRUMENT: maXis (Bruker Daltonics)
AC$INSTRUMENT_TYPE: LC-ESI-QTOF
AC$MASS_SPECTROMETRY: MS_TYPE MS2
AC$MASS_SPECTROMETRY: ION_MODE POSITIVE
AC$MASS_SPECTROMETRY: CAPILLARY_VOLTAGE 4500 V
AC$MASS_SPECTROMETRY: COLLISION_ENERGY 50 eV
AC$MASS_SPECTROMETRY: COLLISION_GAS Nitrogen
AC$MASS_SPECTROMETRY: DESOLVATION_GAS_FLOW 8 l/min
AC$MASS_SPECTROMETRY: DESOLVATION_TEMPERATURE 200 C
AC$MASS_SPECTROMETRY: FRAGMENTATION_METHOD CID
AC$MASS_SPECTROMETRY: IONIZATION ESI
AC$MASS_SPECTROMETRY: NEBULIZER 2.0 bar
AC$CHROMATOGRAPHY: COLUMN_NAME Waters Atlantis C18 3um 2.1x150mm
AC$CHROMATOGRAPHY: COLUMN_TEMPERATURE RT
AC$CHROMATOGRAPHY: FLOW_GRADIENT 1-100%B in 10min
AC$CHROMATOGRAPHY: FLOW_RATE 200ul/min
AC$CHROMATOGRAPHY: SOLVENT A water with 0.1% formic acid
AC$CHROMATOGRAPHY: SOLVENT B methanol with 0.1% formic acid
MS$FOCUSED_ION: BASE_PEAK 400.357800
MS$FOCUSED_ION: PRECURSOR_TYPE [M+H]+
PK$SPLASH: splash10-0udi-0000900000-c5c4d93bc279ec726000
PK$NUM_PEAK: 6
PK$PEAK: m/z int. rel.int.
  98.096600 5885.000000 58
  126.127900 1308.000000 13
  161.132800 2301.000000 23
  400.357800 101251.000000 999
  401.361000 26158.000000 258
  402.364000 3443.000000 34
//
