ACCESSION: MSBNK-Fiocruz-FIO00548
RECORD_TITLE: Cochlioquinone A; LC-ESI-QTOF; MS2; [M+H]+; CE: 50eV
DATE: 2016.01.19 (Created 2013.03.13)
AUTHORS: Markus Kohlhoff, Natural Product Chemistry Lab (CPqRR/FIOCRUZ, Brazil)
LICENSE: CC BY-NC
COPYRIGHT: (c) Research Center Rene Rachou (FIOCRUZ, Brazil)
COMMENT: [Raw Data] CB284_Cochlioquinone-A_pos_50eV_rep000005.txt
CH$NAME: Cochlioquinone A
CH$COMPOUND_CLASS: Natural Product
CH$FORMULA: C30H44O8
CH$EXACT_MASS: 532.30362
CH$SMILES: [C@@H]([C@@H](C)c(c4=O)cc(c(c41)C(C([C@@]32C)C([C@@H](C)C[C@]([H])2O[C@H](CC3)[C@](C)(C)O)O1)O)=O)([C@@H](C)CC)OC(C)=O
CH$IUPAC: InChI=1S/C30H44O8/c1-9-14(2)26(36-17(5)31)16(4)18-13-19(32)22-25(34)23-27(38-28(22)24(18)33)15(3)12-21-30(23,8)11-10-20(37-21)29(6,7)35/h13-16,20-21,23,25-27,34-35H,9-12H2,1-8H3/t14-,15-,16-,20+,21+,23?,25?,26+,27?,30-/m0/s1
CH$LINK: CAS 32450-25-2
CH$LINK: CHEMSPIDER 476820
CH$LINK: PUBCHEM 547841
CH$LINK: INCHIKEY MERDNJKHMKQNFC-PGCPQKQNSA-N
AC$INSTRUMENT: maXis (Bruker Daltonics)
AC$INSTRUMENT_TYPE: LC-ESI-QTOF
AC$MASS_SPECTROMETRY: MS_TYPE MS2
AC$MASS_SPECTROMETRY: ION_MODE POSITIVE
AC$MASS_SPECTROMETRY: CAPILLARY_VOLTAGE 4500 V
AC$MASS_SPECTROMETRY: COLLISION_ENERGY 50 eV
AC$MASS_SPECTROMETRY: COLLISION_GAS Nitrogen
AC$MASS_SPECTROMETRY: DESOLVATION_GAS_FLOW 8 l/min
AC$MASS_SPECTROMETRY: DESOLVATION_TEMPERATURE 200 C
AC$MASS_SPECTROMETRY: FRAGMENTATION_METHOD CID
AC$MASS_SPECTROMETRY: IONIZATION ESI
AC$MASS_SPECTROMETRY: NEBULIZER 2.0 bar
AC$CHROMATOGRAPHY: COLUMN_NAME Waters Atlantis C18 3um 2.1x150mm
AC$CHROMATOGRAPHY: COLUMN_TEMPERATURE RT
AC$CHROMATOGRAPHY: FLOW_GRADIENT 1-100%B in 10min
AC$CHROMATOGRAPHY: FLOW_RATE 200ul/min
AC$CHROMATOGRAPHY: SOLVENT A water with 0.1% formic acid
AC$CHROMATOGRAPHY: SOLVENT B methanol with 0.1% formic acid
MS$FOCUSED_ION: BASE_PEAK 177.054800
MS$FOCUSED_ION: PRECURSOR_TYPE [M+H]+
PK$SPLASH: splash10-003r-0982000000-06450736949ffb6bccf2
PK$NUM_PEAK: 116
PK$PEAK: m/z int. rel.int.
  85.063700 912.000000 12
  97.101700 2796.000000 37
  99.080600 3343.000000 44
  107.085900 7307.000000 97
  109.101500 3016.000000 40
  113.096700 917.000000 12
  119.086100 3994.000000 53
  121.101800 2462.000000 33
  123.080600 1179.000000 16
  125.096600 20981.000000 278
  126.100000 1807.000000 24
  127.075900 3568.000000 47
  131.086100 2482.000000 33
  133.101600 4857.000000 64
  135.080900 2833.000000 37
  136.088400 2752.000000 36
  137.096200 2336.000000 31
  143.107000 24693.000000 327
  144.110400 2176.000000 29
  145.101600 6125.000000 81
  146.105400 883.000000 12
  147.117000 2238.000000 30
  149.096200 2466.000000 33
  151.112300 2174.000000 29
  157.101400 1106.000000 15
  159.117200 2412.000000 32
  161.096500 3515.000000 46
  163.111900 1891.000000 25
  165.054900 11474.000000 152
  166.058200 1161.000000 15
  173.096300 1197.000000 16
  175.111800 1914.000000 25
  177.054800 75524.000000 999
  178.058000 7223.000000 96
  179.033900 6017.000000 80
  187.111900 3639.000000 48
  189.054900 1539.000000 20
  189.127700 1463.000000 19
  191.070300 4518.000000 60
  193.049700 1014.000000 13
  199.075500 908.000000 12
  201.090900 3755.000000 50
  203.070300 4171.000000 55
  203.143000 5870.000000 78
  204.077600 4056.000000 54
  205.158200 4518.000000 60
  211.075400 2803.000000 37
  213.091300 1042.000000 14
  215.106500 4911.000000 65
  217.085900 15964.000000 211
  218.090200 2647.000000 35
  221.117300 1002.000000 13
  222.161400 6006.000000 79
  223.166500 1288.000000 17
  225.090700 1437.000000 19
  227.070800 943.000000 12
  228.077700 977.000000 13
  229.085800 7710.000000 102
  230.090300 1586.000000 21
  231.101100 2290.000000 30
  233.117300 74619.000000 987
  234.120700 10667.000000 141
  235.130500 2203.000000 29
  239.106400 995.000000 13
  241.086400 2810.000000 37
  242.092300 1141.000000 15
  243.101600 5544.000000 73
  244.105700 984.000000 13
  245.116900 853.000000 11
  247.133100 832.000000 11
  249.112900 2304.000000 30
  251.128200 1040.000000 14
  253.122300 1033.000000 14
  255.101600 2468.000000 33
  257.117100 2825.000000 37
  259.132800 1593.000000 21
  265.122300 989.000000 13
  267.138000 2990.000000 40
  269.117100 1443.000000 19
  271.133000 2305.000000 30
  273.148400 1187.000000 16
  277.122400 1576.000000 21
  281.117500 3242.000000 43
  282.124500 2635.000000 35
  283.131700 2610.000000 35
  285.148500 2562.000000 34
  287.164000 1987.000000 26
  293.117800 888.000000 12
  295.133000 4725.000000 63
  296.137600 1137.000000 15
  297.148500 1994.000000 26
  299.164300 2291.000000 30
  309.148800 1834.000000 24
  311.164400 1692.000000 22
  313.180200 928.000000 12
  323.164100 886.000000 12
  338.187500 900.000000 12
  339.194900 1002.000000 13
  351.195900 4143.000000 55
  352.199400 1121.000000 15
  363.195400 899.000000 12
  365.211600 862.000000 11
  366.182200 1064.000000 14
  367.190200 2432.000000 32
  369.205800 1784.000000 24
  372.193700 1680.000000 22
  381.206600 4942.000000 65
  382.209800 1313.000000 17
  383.185800 19667.000000 260
  384.189400 4713.000000 62
  385.197600 1369.000000 18
  387.216700 4561.000000 60
  388.220600 1139.000000 15
  399.217000 2772.000000 37
  437.269200 2165.000000 29
  455.279300 1768.000000 23
//
