ACCESSION: MSBNK-Fiocruz-FIO00067
RECORD_TITLE: (-)-Epicatechin; LC-ESI-QTOF; MS2; [M+H]+; CE: 10eV
DATE: 2016.01.19 (Created 2013.03.13)
AUTHORS: Markus Kohlhoff, Natural Product Chemistry Lab (CPqRR/FIOCRUZ, Brazil)
LICENSE: CC BY-NC
COPYRIGHT: (c) Research Center Rene Rachou (FIOCRUZ, Brazil)
COMMENT: [Raw Data] CB030_(-)-Epicatechin_pos_10eV_CB000016.txt
CH$NAME: (-)-Epicatechin
CH$COMPOUND_CLASS: Natural Product; Flavonoid
CH$FORMULA: C15H14O6
CH$EXACT_MASS: 290.07904
CH$SMILES: Oc(c3)c(O)cc(c3)[C@@H](O1)[C@H](O)Cc(c(O)2)c(cc(O)c2)1
CH$IUPAC: InChI=1S/C15H14O6/c16-8-4-11(18)9-6-13(20)15(21-14(9)5-8)7-1-2-10(17)12(19)3-7/h1-5,13,15-20H,6H2/t13-,15-/m1/s1
CH$LINK: CAS 490-46-0
CH$LINK: CHEBI CHEBI:90
CH$LINK: KEGG C09727
CH$LINK: KNAPSACK C00000956
CH$LINK: NIKKAJI J21.603H
CH$LINK: PUBCHEM CID:72276
CH$LINK: INCHIKEY PFTAWBLQPZVEMU-UKRRQHHQSA-N
CH$LINK: COMPTOX DTXSID4045133
AC$INSTRUMENT: maXis (Bruker Daltonics)
AC$INSTRUMENT_TYPE: LC-ESI-QTOF
AC$MASS_SPECTROMETRY: MS_TYPE MS2
AC$MASS_SPECTROMETRY: ION_MODE POSITIVE
AC$MASS_SPECTROMETRY: CAPILLARY_VOLTAGE 4500 V
AC$MASS_SPECTROMETRY: COLLISION_ENERGY 10 eV
AC$MASS_SPECTROMETRY: COLLISION_GAS Nitrogen
AC$MASS_SPECTROMETRY: DESOLVATION_GAS_FLOW 8 l/min
AC$MASS_SPECTROMETRY: DESOLVATION_TEMPERATURE 200 C
AC$MASS_SPECTROMETRY: FRAGMENTATION_MODE CID
AC$MASS_SPECTROMETRY: IONIZATION ESI
AC$MASS_SPECTROMETRY: NEBULIZER 2.0 bar
AC$CHROMATOGRAPHY: COLUMN_NAME Waters Atlantis C18 3um 2.1x150mm
AC$CHROMATOGRAPHY: COLUMN_TEMPERATURE RT
AC$CHROMATOGRAPHY: FLOW_GRADIENT 1-100%B in 10min
AC$CHROMATOGRAPHY: FLOW_RATE 200ul/min
AC$CHROMATOGRAPHY: SOLVENT A water with 0.1% formic acid
AC$CHROMATOGRAPHY: SOLVENT B methanol with 0.1% formic acid
MS$FOCUSED_ION: BASE_PEAK 291.085900
MS$FOCUSED_ION: PRECURSOR_TYPE [M+H]+
PK$SPLASH: splash10-0006-0590000000-f325a1f04a1af6976f1d
PK$NUM_PEAK: 15
PK$PEAK: m/z int. rel.int.
  123.043800 9661.000000 154
  124.047300 694.000000 11
  139.038700 25558.000000 407
  140.042100 1390.000000 22
  147.043700 721.000000 11
  151.038800 1014.000000 16
  165.054300 9381.000000 149
  166.057700 838.000000 13
  169.049200 955.000000 15
  207.064500 997.000000 16
  249.075400 905.000000 14
  273.075400 1882.000000 30
  291.085900 62724.000000 999
  292.089200 9654.000000 154
  293.091200 1355.000000 22
//
