ACCESSION: MSBNK-Fiocruz-FIO00123
RECORD_TITLE: Harmine; LC-ESI-QTOF; MS2; [M+H]+; CE: 40eV
DATE: 2016.01.19 (Created 2013.03.13)
AUTHORS: Markus Kohlhoff, Natural Product Chemistry Lab (CPqRR/FIOCRUZ, Brazil)
LICENSE: CC BY-NC
COPYRIGHT: (c) Research Center Rene Rachou (FIOCRUZ, Brazil)
COMMENT: [Raw Data] CB043_Harmine_pos_40eV_CB000020.txt
CH$NAME: Harmine
CH$COMPOUND_CLASS: Natural Product; Alkaloid
CH$FORMULA: C13H12N2O
CH$EXACT_MASS: 212.09496
CH$SMILES: CC1=NC=CC2=C1NC3=C2C=CC(=C3)OC
CH$IUPAC: InChI=1S/C13H12N2O/c1-8-13-11(5-6-14-8)10-4-3-9(16-2)7-12(10)15-13/h3-7,15H,1-2H3
CH$LINK: CAS 442-51-3
CH$LINK: CHEBI CHEBI:28121
CH$LINK: KEGG C06538
CH$LINK: KNAPSACK C00001737
CH$LINK: NIKKAJI J11.378F
CH$LINK: PUBCHEM CID:5280953
CH$LINK: INCHIKEY BXNJHAXVSOCGBA-UHFFFAOYSA-N
CH$LINK: COMPTOX DTXSID30196066
AC$INSTRUMENT: maXis (Bruker Daltonics)
AC$INSTRUMENT_TYPE: LC-ESI-QTOF
AC$MASS_SPECTROMETRY: MS_TYPE MS2
AC$MASS_SPECTROMETRY: ION_MODE POSITIVE
AC$MASS_SPECTROMETRY: CAPILLARY_VOLTAGE 4500 V
AC$MASS_SPECTROMETRY: COLLISION_ENERGY 40 eV
AC$MASS_SPECTROMETRY: COLLISION_GAS Nitrogen
AC$MASS_SPECTROMETRY: DESOLVATION_GAS_FLOW 8 l/min
AC$MASS_SPECTROMETRY: DESOLVATION_TEMPERATURE 200 C
AC$MASS_SPECTROMETRY: FRAGMENTATION_MODE CID
AC$MASS_SPECTROMETRY: IONIZATION ESI
AC$MASS_SPECTROMETRY: NEBULIZER 2.0 bar
AC$CHROMATOGRAPHY: COLUMN_NAME Waters Atlantis C18 3um 2.1x150mm
AC$CHROMATOGRAPHY: COLUMN_TEMPERATURE RT
AC$CHROMATOGRAPHY: FLOW_GRADIENT 1-100%B in 10min
AC$CHROMATOGRAPHY: FLOW_RATE 200ul/min
AC$CHROMATOGRAPHY: SOLVENT A water with 0.1% formic acid
AC$CHROMATOGRAPHY: SOLVENT B methanol with 0.1% formic acid
MS$FOCUSED_ION: BASE_PEAK 170.084100
MS$FOCUSED_ION: PRECURSOR_TYPE [M+H]+
PK$SPLASH: splash10-00di-0900000000-996c89900776affe7b42
PK$NUM_PEAK: 8
PK$PEAK: m/z int. rel.int.
  144.080800 5407.000000 19
  155.060600 4155.000000 15
  169.076100 45492.000000 164
  170.084100 277925.000000 999
  171.087000 24438.000000 88
  198.078700 51894.000000 187
  199.081800 5734.000000 21
  213.102100 5093.000000 18
//
