ACCESSION: MSBNK-Fiocruz-FIO00282
RECORD_TITLE: Claussequinone; LC-ESI-QTOF; MS2; [M+H]+; CE: 10eV
DATE: 2016.01.19 (Created 2013.03.13)
AUTHORS: Markus Kohlhoff, Natural Product Chemistry Lab (CPqRR/FIOCRUZ, Brazil)
LICENSE: CC BY-NC
COPYRIGHT: (c) Research Center Rene Rachou (FIOCRUZ, Brazil)
COMMENT: [Raw Data] CB117_Claussequinone_pos_10eV_CB000042.txt
CH$NAME: Claussequinone
CH$COMPOUND_CLASS: Natural Product; Flavonoid
CH$FORMULA: C16H14O5
CH$EXACT_MASS: 286.08412
CH$SMILES: COc(c3)c(=O)cc(c(=O)3)C(C1)Cc(c2)c(cc(O)c2)O1
CH$IUPAC: InChI=1S/C16H14O5/c1-20-16-7-13(18)12(6-14(16)19)10-4-9-2-3-11(17)5-15(9)21-8-10/h2-3,5-7,10,17H,4,8H2,1H3
CH$LINK: CAS 35878-39-8
CH$LINK: CHEMSPIDER 90428
CH$LINK: PUBCHEM CID:100072
CH$LINK: INCHIKEY PDAKXMIQFUHWQC-UHFFFAOYSA-N
AC$INSTRUMENT: maXis (Bruker Daltonics)
AC$INSTRUMENT_TYPE: LC-ESI-QTOF
AC$MASS_SPECTROMETRY: MS_TYPE MS2
AC$MASS_SPECTROMETRY: ION_MODE POSITIVE
AC$MASS_SPECTROMETRY: CAPILLARY_VOLTAGE 4500 V
AC$MASS_SPECTROMETRY: COLLISION_ENERGY 10 eV
AC$MASS_SPECTROMETRY: COLLISION_GAS Nitrogen
AC$MASS_SPECTROMETRY: DESOLVATION_GAS_FLOW 8 l/min
AC$MASS_SPECTROMETRY: DESOLVATION_TEMPERATURE 200 C
AC$MASS_SPECTROMETRY: FRAGMENTATION_METHOD CID
AC$MASS_SPECTROMETRY: IONIZATION ESI
AC$MASS_SPECTROMETRY: NEBULIZER 2.0 bar
AC$CHROMATOGRAPHY: COLUMN_NAME Waters Atlantis C18 3um 2.1x150mm
AC$CHROMATOGRAPHY: COLUMN_TEMPERATURE RT
AC$CHROMATOGRAPHY: FLOW_GRADIENT 1-100%B in 10min
AC$CHROMATOGRAPHY: FLOW_RATE 200ul/min
AC$CHROMATOGRAPHY: SOLVENT A water with 0.1% formic acid
AC$CHROMATOGRAPHY: SOLVENT B methanol with 0.1% formic acid
MS$FOCUSED_ION: BASE_PEAK 287.091400
MS$FOCUSED_ION: PRECURSOR_TYPE [M+H]+
PK$SPLASH: splash10-000i-0690000000-e82912e83f7557dbcf08
PK$NUM_PEAK: 10
PK$PEAK: m/z int. rel.int.
  123.044100 12276.000000 102
  153.054700 7198.000000 60
  165.054700 51195.000000 423
  166.058100 4375.000000 36
  177.054500 27982.000000 231
  178.058000 2587.000000 21
  255.065000 1415.000000 12
  287.091400 120779.000000 999
  288.094700 18576.000000 154
  289.097500 2733.000000 23
//
