ACCESSION: MSBNK-Fiocruz-FIO01075
RECORD_TITLE: Hulupinic acid; LC-ESI-QTOF; MS2; [M-H]-; CE: 20eV
DATE: 2020.06.09
AUTHORS: Markus Kohlhoff, Natural Product Chemistry Lab (FIOCRUZ Minas, Brazil)
LICENSE: CC BY
COPYRIGHT: (c) Institute Rene Rachou (FIOCRUZ Minas, Brazil)
COMMENT: [Raw Data] CBA94_Hulupinic-acid_neg_20eV.txt
CH$NAME: Hulupinic acid
CH$COMPOUND_CLASS: Natural Product; Terpenoids
CH$FORMULA: C15H20O4
CH$EXACT_MASS: 264.13622
CH$SMILES: CC(C)=CCC(CC=C(C)C)(C(=O)1)C(=O)C(O)=C(O)1
CH$IUPAC: InChI=1S/C15H20O4/c1-9(2)5-7-15(8-6-10(3)4)13(18)11(16)12(17)14(15)19/h5-6,16-17H,7-8H2,1-4H3
CH$LINK: INCHIKEY KKNXLCGOZLVUHL-UHFFFAOYSA-N
AC$INSTRUMENT: maXis (Bruker Daltonics)
AC$INSTRUMENT_TYPE: LC-ESI-QTOF
AC$MASS_SPECTROMETRY: MS_TYPE MS2
AC$MASS_SPECTROMETRY: ION_MODE NEGATIVE
AC$MASS_SPECTROMETRY: CAPILLARY_VOLTAGE 4500 V
AC$MASS_SPECTROMETRY: COLLISION_ENERGY 20 eV
AC$MASS_SPECTROMETRY: COLLISION_GAS Nitrogen
AC$MASS_SPECTROMETRY: DESOLVATION_GAS_FLOW 8 l/min
AC$MASS_SPECTROMETRY: DESOLVATION_TEMPERATURE 200 C
AC$MASS_SPECTROMETRY: FRAGMENTATION_METHOD CID
AC$MASS_SPECTROMETRY: IONIZATION ESI
AC$MASS_SPECTROMETRY: NEBULIZER 3.0 bar
AC$CHROMATOGRAPHY: COLUMN_NAME Shimadzu Shim-Pack XR-ODS III; C18; 2.2um; 80A; 2.0x150mm
AC$CHROMATOGRAPHY: COLUMN_TEMPERATURE 40 C
AC$CHROMATOGRAPHY: FLOW_GRADIENT 5-100%B in 10min
AC$CHROMATOGRAPHY: FLOW_RATE 400ul/min
AC$CHROMATOGRAPHY: SOLVENT A water with 0.1% formic acid
AC$CHROMATOGRAPHY: SOLVENT B acetonitrile with 0.1% formic acid
MS$FOCUSED_ION: PRECURSOR_TYPE [M-H]-
MS$DATA_PROCESSING: FIND_PEAK centroid
MS$DATA_PROCESSING: WHOLE Mass++ 2.7.5
PK$SPLASH: splash10-0006-0910000000-1ab698583b5a61998a89
PK$NUM_PEAK: 11
PK$PEAK: m/z int. rel.int.
  125.995800 102128.000000 258
  126.999300 6352.000000 16
  139.003800 3972.000000 10
  151.004200 25796.000000 65
  179.035700 5056.000000 13
  193.051600 16996.000000 43
  194.059500 395056.000000 999
  195.062700 54840.000000 139
  209.046100 4096.000000 10
  263.129500 76140.000000 193
  264.132900 15080.000000 38
//
