ACCESSION: MSBNK-Fiocruz-FIO00614
RECORD_TITLE: Isoeleutherin; LC-ESI-QTOF; MS2; [M+H]+; CE: 20eV
DATE: 2016.01.19 (Created 2014.10.02)
AUTHORS: Markus Kohlhoff, Natural Product Chemistry Lab (CPqRR/FIOCRUZ, Brazil)
LICENSE: CC BY-NC
COPYRIGHT: (c) Research Center Rene Rachou (FIOCRUZ, Brazil)
COMMENT: [Raw Data] CBA07_Isoeleutherin_pos_20eV_000004.txt
CH$NAME: Isoeleutherin
CH$COMPOUND_CLASS: Natural Product; Polyketide
CH$FORMULA: C16H16O4
CH$EXACT_MASS: 272.10486
CH$SMILES: COc(c3)c(c(=O)1)c(cc3)c(=O)c(C2)c([C@@H](C)OC(C)2)1
CH$IUPAC: InChI=1S/C16H16O4/c1-8-7-11-13(9(2)20-8)16(18)14-10(15(11)17)5-4-6-12(14)19-3/h4-6,8-9H,7H2,1-3H3/t8?,9-/m1/s1
CH$LINK: INCHIKEY IAJIIJBMBCZPSW-YGPZHTELSA-N
AC$INSTRUMENT: maXis (Bruker Daltonics)
AC$INSTRUMENT_TYPE: LC-ESI-QTOF
AC$MASS_SPECTROMETRY: MS_TYPE MS2
AC$MASS_SPECTROMETRY: ION_MODE POSITIVE
AC$MASS_SPECTROMETRY: CAPILLARY_VOLTAGE 4500 V
AC$MASS_SPECTROMETRY: COLLISION_ENERGY 20 eV
AC$MASS_SPECTROMETRY: COLLISION_GAS Nitrogen
AC$MASS_SPECTROMETRY: DESOLVATION_GAS_FLOW 8 l/min
AC$MASS_SPECTROMETRY: DESOLVATION_TEMPERATURE 200 C
AC$MASS_SPECTROMETRY: FRAGMENTATION_METHOD CID
AC$MASS_SPECTROMETRY: IONIZATION ESI
AC$MASS_SPECTROMETRY: NEBULIZER 2.0 bar
AC$CHROMATOGRAPHY: COLUMN_NAME Shimadzu Shim-Pack C18 2.2um
AC$CHROMATOGRAPHY: COLUMN_TEMPERATURE 40 C
AC$CHROMATOGRAPHY: FLOW_GRADIENT 5-100%B in 12min
AC$CHROMATOGRAPHY: FLOW_RATE 200ul/min
AC$CHROMATOGRAPHY: SOLVENT A water with 0.1% formic acid
AC$CHROMATOGRAPHY: SOLVENT B acetonitrile with 0.1% formic acid
MS$FOCUSED_ION: PRECURSOR_TYPE [M+H]+
MS$DATA_PROCESSING: FIND_PEAK local
MS$DATA_PROCESSING: WHOLE Mass++ 2.7.2
PK$SPLASH: splash10-004i-0090000000-26d35a78008d527b44b3
PK$NUM_PEAK: 5
PK$PEAK: m/z int. rel.int.
  201.090900 15912.000000 46
  211.075100 5085.000000 15
  214.062200 3920.000000 11
  229.086100 342920.000000 999
  230.089300 35619.000000 104
//
