ACCESSION: MSBNK-Fiocruz-FIO00604
RECORD_TITLE: Eleutherol; LC-ESI-QTOF; MS2; [M-H]-; CE: 20eV
DATE: 2016.01.19 (Created 2014.10.02)
AUTHORS: Markus Kohlhoff, Natural Product Chemistry Lab (CPqRR/FIOCRUZ, Brazil)
LICENSE: CC BY-NC
COPYRIGHT: (c) Research Center Rene Rachou (FIOCRUZ, Brazil)
COMMENT: [Raw Data] CBA05_Eleutherol_neg_20eV000002.txt
CH$NAME: Eleutherol
CH$COMPOUND_CLASS: Natural Product; Polyketide
CH$FORMULA: C14H12O4
CH$EXACT_MASS: 244.07356
CH$SMILES: COc(c3)c(c(cc3)1)c(O)c([C@@H](C)2)c(C(=O)O2)c1
CH$IUPAC: InChI=1S/C14H12O4/c1-7-11-9(14(16)18-7)6-8-4-3-5-10(17-2)12(8)13(11)15/h3-7,15H,1-2H3/t7-/m1/s1
CH$LINK: CHEMSPIDER 107745
CH$LINK: INCHIKEY KNLHGXVYZRQSJZ-SSDOTTSWSA-N
CH$LINK: COMPTOX DTXSID50197373
AC$INSTRUMENT: maXis (Bruker Daltonics)
AC$INSTRUMENT_TYPE: LC-ESI-QTOF
AC$MASS_SPECTROMETRY: MS_TYPE MS2
AC$MASS_SPECTROMETRY: ION_MODE NEGATIVE
AC$MASS_SPECTROMETRY: CAPILLARY_VOLTAGE 4500 V
AC$MASS_SPECTROMETRY: COLLISION_ENERGY 20 eV
AC$MASS_SPECTROMETRY: COLLISION_GAS Nitrogen
AC$MASS_SPECTROMETRY: DESOLVATION_GAS_FLOW 8 l/min
AC$MASS_SPECTROMETRY: DESOLVATION_TEMPERATURE 200 C
AC$MASS_SPECTROMETRY: FRAGMENTATION_METHOD CID
AC$MASS_SPECTROMETRY: IONIZATION ESI
AC$MASS_SPECTROMETRY: NEBULIZER 2.0 bar
AC$CHROMATOGRAPHY: COLUMN_NAME Shimadzu Shim-Pack C18 2.2um
AC$CHROMATOGRAPHY: COLUMN_TEMPERATURE 40 C
AC$CHROMATOGRAPHY: FLOW_GRADIENT 5-100%B in 12min
AC$CHROMATOGRAPHY: FLOW_RATE 200ul/min
AC$CHROMATOGRAPHY: SOLVENT A water with 0.1% formic acid
AC$CHROMATOGRAPHY: SOLVENT B acetonitrile with 0.1% formic acid
MS$FOCUSED_ION: PRECURSOR_TYPE [M-H]-
MS$DATA_PROCESSING: FIND_PEAK local
MS$DATA_PROCESSING: WHOLE Mass++ 2.7.2
PK$SPLASH: splash10-001j-0920000000-629270058a4462070101
PK$NUM_PEAK: 9
PK$PEAK: m/z int. rel.int.
  183.045200 395.000000 35
  184.052900 11375.000000 999
  185.056500 1170.000000 103
  199.076400 9192.000000 807
  200.079900 1198.000000 105
  228.042200 187.000000 16
  243.066300 4067.000000 357
  244.069600 639.000000 56
  245.071200 115.000000 10
//
