ACCESSION: MSBNK-Fiocruz-FIO00203
RECORD_TITLE: Myricitrin; LC-ESI-QTOF; MS2; [M-H]-; CE: 40eV
DATE: 2016.01.19 (Created 2013.04.08)
AUTHORS: Markus Kohlhoff, Natural Product Chemistry Lab (CPqRR/FIOCRUZ, Brazil)
LICENSE: CC BY-NC
COPYRIGHT: (c) Research Center Rene Rachou (FIOCRUZ, Brazil)
COMMENT: [Raw Data] CB067_Myricitrin_neg_40eV_000020.txt
CH$NAME: Myricitrin
CH$COMPOUND_CLASS: Natural Product; Flavonoid
CH$FORMULA: C21H20O12
CH$EXACT_MASS: 464.09548
CH$SMILES: Oc(c4)cc(O1)c(c(O)4)C(=O)C(O[C@H](O3)[C@H](O)[C@H](O)[C@@H](O)[C@H](C)3)=C1c(c2)cc(O)c(O)c(O)2
CH$IUPAC: InChI=1S/C21H20O12/c1-6-14(26)17(29)18(30)21(31-6)33-20-16(28)13-9(23)4-8(22)5-12(13)32-19(20)7-2-10(24)15(27)11(25)3-7/h2-6,14,17-18,21-27,29-30H,1H3/t6-,14-,17+,18+,21-/m0/s1
CH$LINK: CAS 17912-87-7
CH$LINK: KEGG C10108
CH$LINK: KNAPSACK C00005730
CH$LINK: NIKKAJI J986E
CH$LINK: PUBCHEM CID:5281673
CH$LINK: INCHIKEY DCYOADKBABEMIQ-OWMUPTOHSA-N
CH$LINK: COMPTOX DTXSID40170771
AC$INSTRUMENT: maXis (Bruker Daltonics)
AC$INSTRUMENT_TYPE: LC-ESI-QTOF
AC$MASS_SPECTROMETRY: MS_TYPE MS2
AC$MASS_SPECTROMETRY: ION_MODE NEGATIVE
AC$MASS_SPECTROMETRY: CAPILLARY_VOLTAGE 4500 V
AC$MASS_SPECTROMETRY: COLLISION_ENERGY 40 eV
AC$MASS_SPECTROMETRY: COLLISION_GAS Nitrogen
AC$MASS_SPECTROMETRY: DESOLVATION_GAS_FLOW 8 l/min
AC$MASS_SPECTROMETRY: DESOLVATION_TEMPERATURE 200 C
AC$MASS_SPECTROMETRY: FRAGMENTATION_MODE CID
AC$MASS_SPECTROMETRY: IONIZATION ESI
AC$MASS_SPECTROMETRY: NEBULIZER 2.0 bar
AC$CHROMATOGRAPHY: COLUMN_NAME Waters Atlantis C18 3um 2.1x150mm
AC$CHROMATOGRAPHY: COLUMN_TEMPERATURE RT
AC$CHROMATOGRAPHY: FLOW_GRADIENT 1-100%B in 10min
AC$CHROMATOGRAPHY: FLOW_RATE 200ul/min
AC$CHROMATOGRAPHY: SOLVENT A water with 0.1% formic acid
AC$CHROMATOGRAPHY: SOLVENT B methanol with 0.1% formic acid
MS$FOCUSED_ION: BASE_PEAK 316.022300
MS$FOCUSED_ION: PRECURSOR_TYPE [M-H]-
PK$SPLASH: splash10-014i-0019000000-a5151ba54ece5590a461
PK$NUM_PEAK: 12
PK$PEAK: m/z int. rel.int.
  151.003300 491.000000 16
  178.998400 795.000000 26
  259.024400 334.000000 11
  270.016600 1114.000000 37
  271.024100 3310.000000 110
  272.027600 415.000000 14
  287.019500 1516.000000 50
  288.025700 715.000000 24
  300.027600 415.000000 14
  316.022300 30090.000000 999
  317.027500 7670.000000 255
  318.030300 1194.000000 40
//
