ACCESSION: MSBNK-Fiocruz-FIO00775
RECORD_TITLE: Myriocin; LC-ESI-QTOF; MS2; [M+H]+; CE: 30eV
DATE: 2016.01.19 (Created 2014.10.14)
AUTHORS: Markus Kohlhoff, Natural Product Chemistry Lab (CPqRR/FIOCRUZ, Brazil)
LICENSE: CC BY-NC
COPYRIGHT: (c) Research Center Rene Rachou (FIOCRUZ, Brazil)
COMMENT: [Raw Data] CBA29_Myriocin_pos_30eV_1-3_01_1558.txt
CH$NAME: Myriocin
CH$COMPOUND_CLASS: Natural Product; Lipids
CH$FORMULA: C21H39NO6
CH$EXACT_MASS: 401.27774
CH$SMILES: CCCCCCC(=O)CCCCCCC=CCC(O)C(O)C(N)(CO)C(O)=O
CH$IUPAC: InChI=1S/C21H39NO6/c1-2-3-4-10-13-17(24)14-11-8-6-5-7-9-12-15-18(25)19(26)21(22,16-23)20(27)28/h9,12,18-19,23,25-26H,2-8,10-11,13-16,22H2,1H3,(H,27,28)/b12-9+/t18-,19+,21+/m1/s1
CH$LINK: CAS 35891-70-4
CH$LINK: CHEMSPIDER 4942874
CH$LINK: KEGG C19914
CH$LINK: KNAPSACK C00016936
CH$LINK: PUBCHEM CID:6438394
CH$LINK: INCHIKEY ZZIKIHCNFWXKDY-GNTQXERDSA-N
CH$LINK: COMPTOX DTXSID9046360
AC$INSTRUMENT: maXis (Bruker Daltonics)
AC$INSTRUMENT_TYPE: LC-ESI-QTOF
AC$MASS_SPECTROMETRY: MS_TYPE MS2
AC$MASS_SPECTROMETRY: ION_MODE POSITIVE
AC$MASS_SPECTROMETRY: CAPILLARY_VOLTAGE 4500 V
AC$MASS_SPECTROMETRY: COLLISION_ENERGY 30 eV
AC$MASS_SPECTROMETRY: COLLISION_GAS Nitrogen
AC$MASS_SPECTROMETRY: DESOLVATION_GAS_FLOW 8 l/min
AC$MASS_SPECTROMETRY: DESOLVATION_TEMPERATURE 200 C
AC$MASS_SPECTROMETRY: FRAGMENTATION_MODE CID
AC$MASS_SPECTROMETRY: IONIZATION ESI
AC$MASS_SPECTROMETRY: NEBULIZER 2.0 bar
AC$CHROMATOGRAPHY: COLUMN_NAME Shimadzu Shim-Pack C18 2.2um
AC$CHROMATOGRAPHY: COLUMN_TEMPERATURE 40 C
AC$CHROMATOGRAPHY: FLOW_GRADIENT 5-100%B in 12min
AC$CHROMATOGRAPHY: FLOW_RATE 200ul/min
AC$CHROMATOGRAPHY: SOLVENT A water with 0.1% formic acid
AC$CHROMATOGRAPHY: SOLVENT B acetonitrile with 0.1% formic acid
MS$FOCUSED_ION: PRECURSOR_TYPE [M+H]+
MS$DATA_PROCESSING: FIND_PEAK local
MS$DATA_PROCESSING: WHOLE Mass++ 2.7.2
PK$SPLASH: splash10-0uk9-0759100000-5ceb3fac0c1eb7e59f91
PK$NUM_PEAK: 141
PK$PEAK: m/z int. rel.int.
  85.100000 464.000000 67
  90.054800 1040.000000 149
  91.054400 127.000000 18
  93.070200 170.000000 24
  95.085600 455.000000 65
  97.064700 365.000000 52
  98.060800 291.000000 42
  100.039500 426.000000 61
  101.024700 161.000000 23
  104.034500 5764.000000 829
  105.069600 234.000000 34
  107.085600 167.000000 24
  108.081900 138.000000 20
  109.101600 466.000000 67
  111.080900 138.000000 20
  112.076300 149.000000 21
  113.096800 6199.000000 891
  114.100300 437.000000 63
  117.069900 157.000000 23
  118.050700 960.000000 138
  119.086000 466.000000 67
  121.101800 3124.000000 449
  122.104900 299.000000 43
  123.117500 318.000000 46
  125.024300 285.000000 41
  126.055400 292.000000 42
  127.112500 205.000000 29
  128.035200 125.000000 18
  129.071000 140.000000 20
  131.086500 322.000000 46
  133.101900 1174.000000 169
  134.045500 760.000000 109
  135.117500 1007.000000 145
  137.133000 264.000000 38
  138.056000 220.000000 32
  141.128100 651.000000 94
  143.086300 156.000000 22
  145.101600 446.000000 64
  146.045200 503.000000 72
  147.117400 975.000000 140
  149.133000 634.000000 91
  151.148600 408.000000 59
  155.144000 490.000000 70
  157.101500 555.000000 80
  159.117400 802.000000 115
  161.133000 493.000000 71
  162.129900 144.000000 21
  163.148300 263.000000 38
  164.055800 270.000000 39
  165.164400 319.000000 46
  167.143500 337.000000 48
  169.158900 339.000000 49
  171.117000 210.000000 30
  173.096600 208.000000 30
  174.128700 127.000000 18
  175.148100 371.000000 53
  176.144400 137.000000 20
  177.127800 139.000000 20
  181.158400 332.000000 48
  183.174200 189.000000 27
  185.096000 275.000000 40
  189.127300 156.000000 22
  193.158900 140.000000 20
  195.174000 253.000000 36
  201.127000 129.000000 19
  203.106100 228.000000 33
  205.195200 168.000000 24
  207.137900 112.000000 16
  210.185400 188.000000 27
  219.210500 173.000000 25
  223.206300 113.000000 16
  231.210700 3065.000000 441
  232.214200 519.000000 75
  240.231400 156.000000 22
  241.216200 804.000000 116
  242.219300 141.000000 20
  243.210800 166.000000 24
  245.226300 312.000000 45
  249.221200 1150.000000 165
  250.224600 209.000000 30
  257.225700 105.000000 15
  264.232500 222.000000 32
  266.248000 3178.000000 457
  267.231900 4100.000000 589
  268.235200 708.000000 102
  269.229800 114.000000 16
  272.237200 192.000000 28
  273.221400 154.000000 22
  276.232600 132.000000 19
  278.247400 287.000000 41
  279.232500 243.000000 35
  280.263600 409.000000 59
  281.248000 114.000000 16
  283.206100 104.000000 15
  285.221700 272.000000 39
  286.253200 102.000000 15
  287.237100 123.000000 18
  290.248100 3508.000000 504
  291.251300 625.000000 90
  292.263700 1555.000000 224
  293.266600 286.000000 41
  294.279200 497.000000 71
  295.281900 123.000000 18
  296.258600 120.000000 17
  300.232400 132.000000 19
  301.216600 300.000000 43
  302.247900 2081.000000 299
  303.233900 523.000000 75
  304.263800 4376.000000 629
  305.266500 737.000000 106
  306.250200 145.000000 21
  308.259000 974.000000 140
  309.261800 199.000000 29
  310.274200 263.000000 38
  313.215900 265.000000 38
  318.243300 1611.000000 232
  319.245700 324.000000 47
  320.258800 6950.000000 999
  321.262100 1372.000000 197
  322.274100 3711.000000 533
  323.277500 763.000000 110
  330.243400 617.000000 89
  331.227400 524.000000 75
  332.231300 118.000000 17
  336.253700 1736.000000 250
  337.256000 376.000000 54
  338.269500 4202.000000 604
  339.272500 783.000000 113
  340.277300 130.000000 19
  348.253800 1179.000000 169
  349.239000 360.000000 52
  356.279900 1088.000000 156
  357.282800 238.000000 34
  366.264300 1522.000000 219
  367.268000 301.000000 43
  384.275100 4392.000000 631
  385.278700 945.000000 136
  386.283900 213.000000 31
  402.285900 6405.000000 921
  403.289100 1398.000000 201
  404.291100 213.000000 31
//
