ACCESSION: MSBNK-Fiocruz-FIO01113
RECORD_TITLE: Azadirachtin; LC-ESI-QTOF; MS2; [M+H]+; CE: 50eV
DATE: 2020.06.10
AUTHORS: Markus Kohlhoff, Natural Product Chemistry Lab (FIOCRUZ Minas, Brazil)
LICENSE: CC BY
COPYRIGHT: (c) Institute Rene Rachou (FIOCRUZ Minas, Brazil)
COMMENT: [Raw Data] CBB03_Azadirachtin_pos_50eV.txt
CH$NAME: Azadirachtin
CH$COMPOUND_CLASS: Natural Product; Terpenoids
CH$FORMULA: C35H44O16
CH$EXACT_MASS: 720.26294
CH$SMILES: O([C@@](C)31)[C@]1([C@]([C@H](O)6)([C@@]([C@@](O)(C(OC)=O)8)([H])[C@](CO8)([C@@]5([H])7)[C@H](C[C@H]([C@@](CO[C@@]67[H])5C(=O)OC)OC(C)=O)OC(C(C)=CC)=O)C)[C@H](C4)O[C@@]([H])([C@@]2(O)[C@@H]34)OC=C2
CH$IUPAC: InChI=1S/C35H44O16/c1-8-15(2)24(38)49-18-12-19(48-16(3)36)32(26(39)43-6)13-46-21-22(32)31(18)14-47-34(42,27(40)44-7)25(31)29(4,23(21)37)35-20-11-17(30(35,5)51-35)33(41)9-10-45-28(33)50-20/h8-10,17-23,25,28,37,41-42H,11-14H2,1-7H3/b15-8+/t17-,18+,19-,20+,21-,22-,23-,25+,28+,29-,30+,31+,32+,33+,34+,35+/m1/s1
CH$LINK: KEGG C08748
CH$LINK: INCHIKEY FTNJWQUOZFUQQJ-NDAWSKJSSA-N
AC$INSTRUMENT: maXis (Bruker Daltonics)
AC$INSTRUMENT_TYPE: LC-ESI-QTOF
AC$MASS_SPECTROMETRY: MS_TYPE MS2
AC$MASS_SPECTROMETRY: ION_MODE POSITIVE
AC$MASS_SPECTROMETRY: CAPILLARY_VOLTAGE 4500 V
AC$MASS_SPECTROMETRY: COLLISION_ENERGY 50 eV
AC$MASS_SPECTROMETRY: COLLISION_GAS Nitrogen
AC$MASS_SPECTROMETRY: DESOLVATION_GAS_FLOW 8 l/min
AC$MASS_SPECTROMETRY: DESOLVATION_TEMPERATURE 200 C
AC$MASS_SPECTROMETRY: FRAGMENTATION_METHOD CID
AC$MASS_SPECTROMETRY: IONIZATION ESI
AC$MASS_SPECTROMETRY: NEBULIZER 3.0 bar
AC$CHROMATOGRAPHY: COLUMN_NAME Shimadzu Shim-Pack XR-ODS III; C18; 2.2um; 80A; 2.0x150mm
AC$CHROMATOGRAPHY: COLUMN_TEMPERATURE 40 C
AC$CHROMATOGRAPHY: FLOW_GRADIENT 5-100%B in 10min
AC$CHROMATOGRAPHY: FLOW_RATE 400ul/min
AC$CHROMATOGRAPHY: SOLVENT A water with 0.1% formic acid
AC$CHROMATOGRAPHY: SOLVENT B acetonitrile with 0.1% formic acid
MS$FOCUSED_ION: PRECURSOR_TYPE [M+H]+
MS$DATA_PROCESSING: FIND_PEAK centroid
MS$DATA_PROCESSING: WHOLE Mass++ 2.7.5
PK$SPLASH: splash10-02vu-0396300000-7df8f1445870e6b21c76
PK$NUM_PEAK: 416
PK$PEAK: m/z int. rel.int.
  121.064400 564.000000 36
  123.043600 781.000000 49
  125.059400 555.000000 35
  133.064800 2422.000000 153
  135.043900 948.000000 60
  135.080400 878.000000 55
  137.059600 2728.000000 172
  139.039500 666.000000 42
  141.069400 531.000000 34
  142.078100 565.000000 36
  143.085300 1347.000000 85
  145.064600 1064.000000 67
  147.044100 688.000000 43
  147.080600 637.000000 40
  149.060500 2464.000000 155
  151.038800 582.000000 37
  151.075400 811.000000 51
  153.054400 752.000000 47
  155.085900 1347.000000 85
  157.065900 588.000000 37
  157.101400 2562.000000 162
  159.044400 1202.000000 76
  159.080300 947.000000 60
  161.060100 7571.000000 478
  162.064300 966.000000 61
  163.039400 510.000000 32
  163.075300 1308.000000 83
  165.055100 1440.000000 91
  167.035000 677.000000 43
  167.085400 1296.000000 82
  168.058300 522.000000 33
  169.065700 840.000000 53
  169.101600 921.000000 58
  171.045100 550.000000 35
  171.080800 1782.000000 112
  173.060200 949.000000 60
  173.096400 928.000000 59
  175.040500 602.000000 38
  175.075400 1072.000000 68
  177.054900 1242.000000 78
  177.091400 557.000000 35
  179.070900 1817.000000 115
  181.065200 711.000000 45
  181.101500 554.000000 35
  182.073300 1520.000000 96
  183.080900 7815.000000 493
  183.117600 541.000000 34
  184.085500 1490.000000 94
  185.060800 694.000000 44
  185.096700 2762.000000 174
  186.100200 587.000000 37
  187.039400 526.000000 33
  187.076300 953.000000 60
  189.055600 1372.000000 87
  189.091500 891.000000 56
  191.070800 1207.000000 76
  193.050600 666.000000 42
  195.080400 1833.000000 116
  196.086500 673.000000 42
  197.060400 1614.000000 102
  197.096100 2405.000000 152
  198.066800 512.000000 32
  199.075900 4052.000000 256
  199.111600 769.000000 49
  200.079600 736.000000 46
  201.056300 869.000000 55
  201.092400 2043.000000 129
  203.070900 2075.000000 131
  205.088100 537.000000 34
  207.066800 624.000000 39
  209.061000 2337.000000 147
  209.097000 907.000000 57
  210.066600 869.000000 55
  211.076000 7222.000000 456
  211.112200 822.000000 52
  212.081000 1161.000000 73
  213.056300 1015.000000 64
  213.091300 3763.000000 237
  214.095600 714.000000 45
  215.071200 1301.000000 82
  215.107300 1441.000000 91
  217.049800 1211.000000 76
  217.086700 1164.000000 73
  219.065800 1551.000000 98
  221.082800 651.000000 41
  221.096800 750.000000 47
  223.075900 2561.000000 162
  224.081700 554.000000 35
  225.055200 1760.000000 111
  225.091700 2119.000000 134
  226.098200 721.000000 45
  227.070800 4176.000000 263
  227.107800 1223.000000 77
  228.074700 947.000000 60
  229.050600 524.000000 33
  229.086700 2358.000000 149
  230.091200 518.000000 33
  231.066500 2252.000000 142
  231.103800 941.000000 59
  232.069400 532.000000 34
  233.081600 893.000000 56
  235.064400 558.000000 35
  235.073300 565.000000 36
  235.112800 655.000000 41
  237.055200 2029.000000 128
  237.091600 1941.000000 122
  238.097900 588.000000 37
  239.071000 3399.000000 214
  239.107700 950.000000 60
  240.076800 950.000000 60
  241.053600 958.000000 60
  241.086900 11842.000000 747
  242.091000 2181.000000 138
  243.066500 1738.000000 110
  243.102100 2132.000000 135
  245.082400 1278.000000 81
  245.132000 835.000000 53
  247.062200 1114.000000 70
  247.110800 817.000000 52
  249.078000 1455.000000 92
  249.128100 530.000000 33
  251.070800 1798.000000 113
  251.107900 778.000000 49
  252.076700 530.000000 33
  253.050500 1076.000000 68
  253.086000 2017.000000 127
  254.093600 1151.000000 73
  255.066000 4093.000000 258
  255.102800 2105.000000 133
  256.070700 705.000000 44
  256.106000 543.000000 34
  257.082000 3627.000000 229
  257.121100 512.000000 32
  258.087300 746.000000 47
  259.062200 1280.000000 81
  259.097500 2928.000000 185
  260.102000 565.000000 36
  261.078000 1241.000000 78
  261.127000 793.000000 50
  263.071500 653.000000 41
  263.097000 646.000000 41
  265.051200 542.000000 34
  265.086700 1275.000000 80
  265.122900 603.000000 38
  266.092900 522.000000 33
  267.067100 1571.000000 99
  267.102000 1421.000000 90
  268.071700 637.000000 40
  269.081700 15833.000000 999
  269.119500 612.000000 39
  270.085700 2829.000000 178
  271.061400 783.000000 49
  271.097900 3609.000000 228
  272.101900 668.000000 42
  272.117800 543.000000 34
  273.078300 1518.000000 96
  273.116300 1402.000000 88
  275.103200 1104.000000 70
  275.144400 837.000000 53
  277.074800 975.000000 62
  277.122500 853.000000 54
  279.066300 809.000000 51
  279.103000 1120.000000 71
  281.082100 1562.000000 99
  281.117900 817.000000 52
  282.088300 623.000000 39
  283.061100 825.000000 52
  283.097300 3494.000000 220
  284.101700 850.000000 54
  285.076800 4507.000000 284
  285.122800 1132.000000 71
  286.081300 931.000000 59
  287.092600 4925.000000 311
  287.142400 869.000000 55
  288.097600 1043.000000 66
  289.078700 749.000000 47
  289.121700 1312.000000 83
  291.068100 562.000000 35
  291.089900 1357.000000 86
  291.138500 812.000000 51
  292.108600 512.000000 32
  293.081200 1075.000000 68
  293.117300 865.000000 55
  294.086900 654.000000 41
  295.061400 807.000000 51
  295.097200 1428.000000 90
  296.104500 550.000000 35
  297.076900 2098.000000 132
  297.113600 1084.000000 68
  298.081100 603.000000 38
  299.093200 2949.000000 186
  300.099000 993.000000 63
  301.074100 1109.000000 70
  301.109500 2896.000000 183
  302.092100 664.000000 42
  302.113200 589.000000 37
  302.124400 639.000000 40
  303.091700 1548.000000 98
  303.138000 1712.000000 108
  304.105500 632.000000 40
  305.082900 521.000000 33
  305.118100 1357.000000 86
  305.155700 672.000000 42
  307.098000 926.000000 58
  307.132900 588.000000 37
  309.077200 1075.000000 68
  309.111100 950.000000 60
  311.093500 2186.000000 138
  312.099200 726.000000 46
  313.073000 1272.000000 80
  313.113600 1929.000000 122
  313.119100 1642.000000 104
  314.127300 657.000000 41
  315.088800 2858.000000 180
  315.137600 1797.000000 113
  316.094200 631.000000 40
  316.143000 523.000000 33
  317.112700 1782.000000 112
  318.121600 648.000000 41
  319.097600 1010.000000 64
  319.132300 1203.000000 76
  321.077000 702.000000 44
  321.112500 1063.000000 67
  323.092900 1357.000000 86
  323.128000 757.000000 48
  325.087700 750.000000 47
  325.109100 1066.000000 67
  327.091200 2269.000000 143
  328.104600 670.000000 42
  329.104700 4709.000000 297
  330.108300 832.000000 52
  331.099500 1813.000000 114
  331.132000 2738.000000 173
  332.104400 578.000000 36
  332.135000 634.000000 40
  333.110700 1846.000000 116
  333.148600 1035.000000 65
  334.118800 735.000000 46
  335.093400 847.000000 53
  335.128200 1241.000000 78
  337.092900 613.000000 39
  337.107000 651.000000 41
  339.093500 1050.000000 66
  340.108500 573.000000 36
  341.110600 1788.000000 113
  342.118800 842.000000 53
  343.096200 1872.000000 118
  343.129800 1529.000000 96
  344.102300 702.000000 44
  344.133700 594.000000 37
  345.100800 4056.000000 256
  345.141000 618.000000 39
  346.106500 1002.000000 63
  347.117800 2125.000000 134
  348.118000 526.000000 33
  349.108000 993.000000 63
  349.143800 810.000000 51
  351.090200 739.000000 47
  351.122300 993.000000 63
  353.103000 1062.000000 67
  353.138300 560.000000 35
  354.110400 664.000000 42
  355.095000 1603.000000 101
  356.103200 531.000000 34
  357.112100 2400.000000 151
  358.117200 790.000000 50
  359.094100 1503.000000 95
  359.127300 2648.000000 167
  360.098400 642.000000 41
  360.132500 858.000000 54
  361.106800 1714.000000 108
  361.144300 2019.000000 127
  362.148100 562.000000 35
  363.122500 2093.000000 132
  365.102800 816.000000 51
  365.139000 735.000000 46
  367.098100 683.000000 43
  367.116500 632.000000 40
  369.110700 1379.000000 87
  370.116000 580.000000 37
  371.095100 1359.000000 86
  371.115800 1540.000000 97
  372.097600 556.000000 35
  373.107900 2772.000000 175
  373.137900 871.000000 55
  374.113300 906.000000 57
  375.123100 2802.000000 177
  375.159800 591.000000 37
  376.126300 751.000000 47
  377.105300 1216.000000 77
  377.139500 1328.000000 84
  379.116600 1390.000000 88
  379.154500 784.000000 49
  380.120900 508.000000 32
  381.102800 561.000000 35
  381.133600 911.000000 57
  383.094400 1194.000000 75
  383.114100 997.000000 63
  385.107600 1955.000000 123
  386.112900 693.000000 44
  387.117200 2298.000000 145
  388.121000 691.000000 44
  389.124700 4105.000000 259
  390.114800 731.000000 46
  390.129400 648.000000 41
  391.118700 2292.000000 145
  391.152700 760.000000 48
  392.123600 603.000000 38
  393.102600 713.000000 45
  393.132400 1231.000000 78
  395.112600 615.000000 39
  395.149700 603.000000 38
  397.108700 814.000000 51
  399.089700 752.000000 47
  399.125100 665.000000 42
  401.103900 2115.000000 133
  401.138200 1150.000000 73
  402.107500 881.000000 56
  402.136700 546.000000 34
  403.118000 2339.000000 148
  403.151100 713.000000 45
  404.123400 756.000000 48
  405.129700 1923.000000 121
  406.131200 629.000000 40
  407.115000 1346.000000 85
  407.141800 904.000000 57
  409.129300 1068.000000 67
  411.091100 615.000000 39
  411.144500 845.000000 53
  413.105400 808.000000 51
  413.123100 671.000000 42
  415.118200 1432.000000 90
  417.099200 1242.000000 78
  417.133200 1476.000000 93
  418.102400 509.000000 32
  418.138900 530.000000 33
  419.113500 2686.000000 169
  419.148300 1220.000000 77
  420.118800 930.000000 59
  421.129000 1743.000000 110
  422.133400 568.000000 36
  423.109000 559.000000 35
  423.145800 1237.000000 78
  425.122200 650.000000 41
  427.122200 651.000000 41
  429.100300 1440.000000 91
  429.133500 1461.000000 92
  430.139200 628.000000 40
  431.112800 1184.000000 75
  433.127400 1743.000000 110
  434.127900 560.000000 35
  435.111300 1238.000000 78
  435.144300 1400.000000 88
  436.149900 560.000000 35
  437.123800 1172.000000 74
  437.159700 713.000000 45
  438.129200 586.000000 37
  439.139800 949.000000 60
  443.116600 556.000000 35
  445.094900 516.000000 33
  445.129000 1014.000000 64
  447.109800 2189.000000 138
  447.143900 2063.000000 130
  448.112100 665.000000 42
  448.150700 1204.000000 76
  449.123200 1615.000000 102
  449.159200 500.000000 32
  450.127400 559.000000 35
  451.138600 1136.000000 72
  453.119900 532.000000 34
  453.156100 743.000000 47
  457.094300 554.000000 35
  457.132100 703.000000 44
  461.124600 911.000000 57
  461.159300 700.000000 44
  463.108800 673.000000 42
  463.140600 1642.000000 104
  465.121700 1796.000000 113
  465.154300 2001.000000 126
  466.125500 508.000000 32
  466.160900 707.000000 45
  467.134200 1553.000000 98
  468.138400 493.000000 31
  469.150300 784.000000 49
  475.108600 906.000000 57
  475.139700 1070.000000 68
  477.117900 568.000000 36
  477.152800 794.000000 50
  479.135500 1288.000000 81
  479.170300 492.000000 31
  481.150700 1095.000000 69
  483.129400 536.000000 34
  483.165600 1007.000000 64
  485.145000 513.000000 32
  489.122000 526.000000 33
  489.155200 711.000000 45
  493.114800 1202.000000 76
  493.151200 1222.000000 77
  495.130200 605.000000 38
  495.165700 679.000000 43
  497.146100 1059.000000 67
  501.176000 497.000000 31
  507.133300 1089.000000 69
  507.166400 1438.000000 91
  508.171400 522.000000 33
  511.125500 501.000000 32
  511.160800 1214.000000 77
  513.141300 696.000000 44
  525.141200 1224.000000 77
  525.175800 1204.000000 76
  526.142700 592.000000 37
  526.180000 554.000000 35
  543.153900 771.000000 49
  567.186500 1244.000000 78
  571.182200 642.000000 41
  585.197300 1539.000000 97
//
