ACCESSION: MSBNK-Fiocruz-FIO00087
RECORD_TITLE: Fisetin; LC-ESI-QTOF; MS2; [M+H]+; CE: 30eV
DATE: 2016.01.19 (Created 2013.03.13)
AUTHORS: Markus Kohlhoff, Natural Product Chemistry Lab (CPqRR/FIOCRUZ, Brazil)
LICENSE: CC BY-NC
COPYRIGHT: (c) Research Center Rene Rachou (FIOCRUZ, Brazil)
COMMENT: [Raw Data] CB035_Fisetin_pos_30eV_CB000018.txt
CH$NAME: Fisetin
CH$COMPOUND_CLASS: Natural Product; Flavonoid
CH$FORMULA: C15H10O6
CH$EXACT_MASS: 286.04774
CH$SMILES: Oc(c3)cc(O1)c(c3)C(=O)C(O)=C1c(c2)cc(O)c(O)c2
CH$IUPAC: InChI=1S/C15H10O6/c16-8-2-3-9-12(6-8)21-15(14(20)13(9)19)7-1-4-10(17)11(18)5-7/h1-6,16-18,20H
CH$LINK: CAS 528-48-3
CH$LINK: CHEBI CHEBI:42567
CH$LINK: KEGG C10041
CH$LINK: KNAPSACK C00004579
CH$LINK: NIKKAJI J1.584I
CH$LINK: PUBCHEM CID:5281614
CH$LINK: INCHIKEY XHEFDIBZLJXQHF-UHFFFAOYSA-N
CH$LINK: COMPTOX DTXSID4022317
AC$INSTRUMENT: maXis (Bruker Daltonics)
AC$INSTRUMENT_TYPE: LC-ESI-QTOF
AC$MASS_SPECTROMETRY: MS_TYPE MS2
AC$MASS_SPECTROMETRY: ION_MODE POSITIVE
AC$MASS_SPECTROMETRY: CAPILLARY_VOLTAGE 4500 V
AC$MASS_SPECTROMETRY: COLLISION_ENERGY 30 eV
AC$MASS_SPECTROMETRY: COLLISION_GAS Nitrogen
AC$MASS_SPECTROMETRY: DESOLVATION_GAS_FLOW 8 l/min
AC$MASS_SPECTROMETRY: DESOLVATION_TEMPERATURE 200 C
AC$MASS_SPECTROMETRY: FRAGMENTATION_MODE CID
AC$MASS_SPECTROMETRY: IONIZATION ESI
AC$MASS_SPECTROMETRY: NEBULIZER 2.0 bar
AC$CHROMATOGRAPHY: COLUMN_NAME Waters Atlantis C18 3um 2.1x150mm
AC$CHROMATOGRAPHY: COLUMN_TEMPERATURE RT
AC$CHROMATOGRAPHY: FLOW_GRADIENT 1-100%B in 10min
AC$CHROMATOGRAPHY: FLOW_RATE 200ul/min
AC$CHROMATOGRAPHY: SOLVENT A water with 0.1% formic acid
AC$CHROMATOGRAPHY: SOLVENT B methanol with 0.1% formic acid
MS$FOCUSED_ION: BASE_PEAK 287.054700
MS$FOCUSED_ION: PRECURSOR_TYPE [M+H]+
PK$SPLASH: splash10-000i-0190000000-9735c20afc466c288b66
PK$NUM_PEAK: 16
PK$PEAK: m/z int. rel.int.
  121.028600 1718.000000 35
  137.023500 6908.000000 141
  149.023300 2792.000000 57
  185.059400 2192.000000 45
  203.070100 629.000000 13
  213.054200 5258.000000 108
  214.057500 672.000000 14
  231.064700 2448.000000 50
  241.049000 3750.000000 77
  242.052500 524.000000 11
  258.051900 957.000000 20
  259.059400 851.000000 17
  269.044100 2023.000000 41
  287.054700 48799.000000 999
  288.058200 6914.000000 142
  289.060100 959.000000 20
//
