ACCESSION: MSBNK-Fiocruz-FIO00547
RECORD_TITLE: Cochlioquinone A; LC-ESI-QTOF; MS2; [M+H]+; CE: 40eV
DATE: 2016.01.19 (Created 2013.03.13)
AUTHORS: Markus Kohlhoff, Natural Product Chemistry Lab (CPqRR/FIOCRUZ, Brazil)
LICENSE: CC BY-NC
COPYRIGHT: (c) Research Center Rene Rachou (FIOCRUZ, Brazil)
COMMENT: [Raw Data] CB284_Cochlioquinone-A_pos_40eV_rep000005.txt
CH$NAME: Cochlioquinone A
CH$COMPOUND_CLASS: Natural Product
CH$FORMULA: C30H44O8
CH$EXACT_MASS: 532.30362
CH$SMILES: [C@@H]([C@@H](C)c(c4=O)cc(c(c41)C(C([C@@]32C)C([C@@H](C)C[C@]([H])2O[C@H](CC3)[C@](C)(C)O)O1)O)=O)([C@@H](C)CC)OC(C)=O
CH$IUPAC: InChI=1S/C30H44O8/c1-9-14(2)26(36-17(5)31)16(4)18-13-19(32)22-25(34)23-27(38-28(22)24(18)33)15(3)12-21-30(23,8)11-10-20(37-21)29(6,7)35/h13-16,20-21,23,25-27,34-35H,9-12H2,1-8H3/t14-,15-,16-,20+,21+,23?,25?,26+,27?,30-/m0/s1
CH$LINK: CAS 32450-25-2
CH$LINK: CHEMSPIDER 476820
CH$LINK: PUBCHEM 547841
CH$LINK: INCHIKEY MERDNJKHMKQNFC-PGCPQKQNSA-N
AC$INSTRUMENT: maXis (Bruker Daltonics)
AC$INSTRUMENT_TYPE: LC-ESI-QTOF
AC$MASS_SPECTROMETRY: MS_TYPE MS2
AC$MASS_SPECTROMETRY: ION_MODE POSITIVE
AC$MASS_SPECTROMETRY: CAPILLARY_VOLTAGE 4500 V
AC$MASS_SPECTROMETRY: COLLISION_ENERGY 40 eV
AC$MASS_SPECTROMETRY: COLLISION_GAS Nitrogen
AC$MASS_SPECTROMETRY: DESOLVATION_GAS_FLOW 8 l/min
AC$MASS_SPECTROMETRY: DESOLVATION_TEMPERATURE 200 C
AC$MASS_SPECTROMETRY: FRAGMENTATION_METHOD CID
AC$MASS_SPECTROMETRY: IONIZATION ESI
AC$MASS_SPECTROMETRY: NEBULIZER 2.0 bar
AC$CHROMATOGRAPHY: COLUMN_NAME Waters Atlantis C18 3um 2.1x150mm
AC$CHROMATOGRAPHY: COLUMN_TEMPERATURE RT
AC$CHROMATOGRAPHY: FLOW_GRADIENT 1-100%B in 10min
AC$CHROMATOGRAPHY: FLOW_RATE 200ul/min
AC$CHROMATOGRAPHY: SOLVENT A water with 0.1% formic acid
AC$CHROMATOGRAPHY: SOLVENT B methanol with 0.1% formic acid
MS$FOCUSED_ION: BASE_PEAK 233.116600
MS$FOCUSED_ION: PRECURSOR_TYPE [M+H]+
PK$SPLASH: splash10-003r-0894100000-508ceba17f8d5b23b185
PK$NUM_PEAK: 98
PK$PEAK: m/z int. rel.int.
  97.100800 1787.000000 20
  99.080500 2544.000000 28
  107.085500 3539.000000 39
  109.101200 3862.000000 43
  119.085800 2651.000000 29
  121.101000 1924.000000 21
  125.096100 25965.000000 289
  126.099500 2125.000000 24
  127.111800 7112.000000 79
  131.085600 1655.000000 18
  133.101000 3430.000000 38
  135.080400 1559.000000 17
  137.095700 1597.000000 18
  143.106700 49465.000000 550
  144.109700 3313.000000 37
  145.101100 6326.000000 70
  147.116700 2222.000000 25
  149.096100 1667.000000 19
  151.111600 2062.000000 23
  155.106500 1090.000000 12
  159.116600 1557.000000 17
  161.132300 2505.000000 28
  163.111500 1892.000000 21
  165.054200 6884.000000 77
  175.147600 1289.000000 14
  177.054300 59211.000000 658
  178.057700 5911.000000 66
  179.033600 3821.000000 42
  187.147700 5279.000000 59
  191.069800 2441.000000 27
  199.147300 1074.000000 12
  201.054000 1790.000000 20
  201.126600 1808.000000 20
  203.142300 7383.000000 82
  204.149400 4389.000000 49
  205.157900 13935.000000 155
  206.161300 2077.000000 23
  211.074700 1569.000000 17
  215.105900 3481.000000 39
  217.085300 6545.000000 73
  217.158000 4086.000000 45
  221.116600 1517.000000 17
  222.160700 9272.000000 103
  223.166600 2679.000000 30
  229.084900 4556.000000 51
  231.100700 1615.000000 18
  233.116600 89892.000000 999
  234.119900 11921.000000 132
  235.131200 4657.000000 52
  241.085200 1847.000000 21
  243.100900 3960.000000 44
  249.111600 3749.000000 42
  251.127000 2299.000000 26
  255.100700 2654.000000 29
  257.116400 3577.000000 40
  259.131900 1975.000000 22
  267.137200 2656.000000 30
  269.116900 986.000000 11
  271.132400 2310.000000 26
  273.147200 1191.000000 13
  277.121200 971.000000 11
  281.116300 1926.000000 21
  282.122700 1111.000000 12
  283.131900 2388.000000 27
  285.147500 3605.000000 40
  287.163100 1561.000000 17
  295.132100 4578.000000 51
  297.147500 2283.000000 25
  299.163300 3953.000000 44
  309.147900 1676.000000 19
  311.163100 2302.000000 26
  313.178500 1601.000000 18
  333.184200 1111.000000 12
  339.194300 1746.000000 19
  349.179000 1003.000000 11
  351.194800 5727.000000 64
  352.198400 1304.000000 14
  353.175200 1614.000000 18
  363.194500 1911.000000 21
  365.210000 1351.000000 15
  367.189600 5950.000000 66
  368.193400 1483.000000 16
  369.204500 1937.000000 22
  381.205200 14636.000000 163
  382.208700 3709.000000 41
  383.184600 11708.000000 130
  384.188300 2962.000000 33
  385.199500 3497.000000 39
  387.215900 13485.000000 150
  388.219200 2968.000000 33
  399.215900 16786.000000 187
  400.219100 3978.000000 44
  419.256800 1872.000000 21
  437.267800 10383.000000 115
  438.270900 3156.000000 35
  455.278400 19703.000000 219
  456.281900 5644.000000 63
  457.284100 1114.000000 12
//
