ACCESSION: MSBNK-Fiocruz-FIO00119
RECORD_TITLE: Harman; LC-ESI-QTOF; MS2; [M-H]-; CE: 50eV
DATE: 2016.01.19 (Created 2013.04.08)
AUTHORS: Markus Kohlhoff, Natural Product Chemistry Lab (CPqRR/FIOCRUZ, Brazil)
LICENSE: CC BY-NC
COPYRIGHT: (c) Research Center Rene Rachou (FIOCRUZ, Brazil)
COMMENT: [Raw Data] CB042_Harman_neg_50eV_000012.txt
CH$NAME: Harman
CH$COMPOUND_CLASS: Natural Product; Alkaloid
CH$FORMULA: C12H10N2
CH$EXACT_MASS: 182.08440
CH$SMILES: CC1=NC=CC2=C1NC3=CC=CC=C23
CH$IUPAC: InChI=1S/C12H10N2/c1-8-12-10(6-7-13-8)9-4-2-3-5-11(9)14-12/h2-7,14H,1H3
CH$LINK: CAS 486-84-0
CH$LINK: CHEBI CHEBI:5623
CH$LINK: KEGG C09209
CH$LINK: KNAPSACK C00001736
CH$LINK: NIKKAJI J1.550D
CH$LINK: PUBCHEM CID:5281404
CH$LINK: INCHIKEY PSFDQSOCUJVVGF-UHFFFAOYSA-N
CH$LINK: COMPTOX DTXSID80197568
AC$INSTRUMENT: maXis (Bruker Daltonics)
AC$INSTRUMENT_TYPE: LC-ESI-QTOF
AC$MASS_SPECTROMETRY: MS_TYPE MS2
AC$MASS_SPECTROMETRY: ION_MODE NEGATIVE
AC$MASS_SPECTROMETRY: CAPILLARY_VOLTAGE 4500 V
AC$MASS_SPECTROMETRY: COLLISION_ENERGY 50 eV
AC$MASS_SPECTROMETRY: COLLISION_GAS Nitrogen
AC$MASS_SPECTROMETRY: DESOLVATION_GAS_FLOW 8 l/min
AC$MASS_SPECTROMETRY: DESOLVATION_TEMPERATURE 200 C
AC$MASS_SPECTROMETRY: FRAGMENTATION_MODE CID
AC$MASS_SPECTROMETRY: IONIZATION ESI
AC$MASS_SPECTROMETRY: NEBULIZER 2.0 bar
AC$CHROMATOGRAPHY: COLUMN_NAME Waters Atlantis C18 3um 2.1x150mm
AC$CHROMATOGRAPHY: COLUMN_TEMPERATURE RT
AC$CHROMATOGRAPHY: FLOW_GRADIENT 1-100%B in 10min
AC$CHROMATOGRAPHY: FLOW_RATE 200ul/min
AC$CHROMATOGRAPHY: SOLVENT A water with 0.1% formic acid
AC$CHROMATOGRAPHY: SOLVENT B methanol with 0.1% formic acid
MS$FOCUSED_ION: BASE_PEAK 165.045900
MS$FOCUSED_ION: PRECURSOR_TYPE [M-H]-
PK$SPLASH: splash10-014i-0900000000-fe40ad28de7c40fde973
PK$NUM_PEAK: 7
PK$PEAK: m/z int. rel.int.
  140.050200 342.000000 83
  164.039100 114.000000 28
  165.045900 4111.000000 999
  166.048600 552.000000 134
  167.061900 146.000000 35
  180.069000 383.000000 93
  181.076900 267.000000 65
//
