ACCESSION: MSBNK-Fiocruz-FIO00977
RECORD_TITLE: Bacoside A3; LC-ESI-QTOF; MS2; [M+H]+; CE: 50eV
DATE: 2020.06.09
AUTHORS: Markus Kohlhoff, Natural Product Chemistry Lab (FIOCRUZ Minas, Brazil)
LICENSE: CC BY
COPYRIGHT: (c) Institute Rene Rachou (FIOCRUZ Minas, Brazil)
COMMENT: [Raw Data] CBA76_Bacoside-A3_pos_50eV.txt
CH$NAME: Bacoside A3
CH$COMPOUND_CLASS: Natural Product; Terpenoids
CH$FORMULA: C47H76O18
CH$EXACT_MASS: 928.50321
CH$SMILES: CC(C)=CC(C9)OC(O2)(C1)C(C9(C)O)(C(C8)([H])C(C(C7)(C)C(C8)([H])C(C6)(C([H])(C7)C(C(C6)OC(C(OC(C(O)5)OC(C(O)5)CO)3)OC(CO)C(C3OC(C(O)4)OC(C(C(O)4)O)CO)O)(C)C)C)1C2)[H]
CH$IUPAC: InChI=1S/C47H76O18/c1-21(2)14-22-15-45(7,57)38-23-8-9-28-43(5)12-11-29(42(3,4)27(43)10-13-44(28,6)46(23)19-47(38,65-22)58-20-46)62-41-37(64-39-34(55)31(52)25(17-49)60-39)36(32(53)26(18-50)61-41)63-40-35(56)33(54)30(51)24(16-48)59-40/h14,22-41,48-57H,8-13,15-20H2,1-7H3/t22-,23+,24+,25-,26+,27-,28+,29-,30+,31-,32+,33-,34+,35+,36-,37+,38-,39-,40-,41-,43-,44+,45-,46-,47-/m0/s1
CH$LINK: INCHIKEY CDEVGTJBRPBOPH-INTDMYAHSA-N
AC$INSTRUMENT: maXis (Bruker Daltonics)
AC$INSTRUMENT_TYPE: LC-ESI-QTOF
AC$MASS_SPECTROMETRY: MS_TYPE MS2
AC$MASS_SPECTROMETRY: ION_MODE POSITIVE
AC$MASS_SPECTROMETRY: CAPILLARY_VOLTAGE 4500 V
AC$MASS_SPECTROMETRY: COLLISION_ENERGY 50 eV
AC$MASS_SPECTROMETRY: COLLISION_GAS Nitrogen
AC$MASS_SPECTROMETRY: DESOLVATION_GAS_FLOW 8 l/min
AC$MASS_SPECTROMETRY: DESOLVATION_TEMPERATURE 200 C
AC$MASS_SPECTROMETRY: FRAGMENTATION_METHOD CID
AC$MASS_SPECTROMETRY: IONIZATION ESI
AC$MASS_SPECTROMETRY: NEBULIZER 3.0 bar
AC$CHROMATOGRAPHY: COLUMN_NAME Shimadzu Shim-Pack XR-ODS III; C18; 2.2um; 80A; 2.0x150mm
AC$CHROMATOGRAPHY: COLUMN_TEMPERATURE 40 C
AC$CHROMATOGRAPHY: FLOW_GRADIENT 5-100%B in 10min
AC$CHROMATOGRAPHY: FLOW_RATE 400ul/min
AC$CHROMATOGRAPHY: SOLVENT A water with 0.1% formic acid
AC$CHROMATOGRAPHY: SOLVENT B acetonitrile with 0.1% formic acid
MS$FOCUSED_ION: PRECURSOR_TYPE [M+H]+
MS$DATA_PROCESSING: FIND_PEAK centroid
MS$DATA_PROCESSING: WHOLE Mass++ 2.7.5
PK$SPLASH: splash10-052s-0965600000-641c4729261bf896b2c5
PK$NUM_PEAK: 258
PK$PEAK: m/z int. rel.int.
  115.033700 732.000000 18
  119.080500 1173.000000 29
  121.096700 2456.000000 60
  123.112700 8801.000000 216
  124.116000 968.000000 24
  127.035300 5274.000000 130
  128.039000 429.000000 11
  131.081900 494.000000 12
  133.046700 8907.000000 219
  133.098300 2479.000000 61
  134.049700 566.000000 14
  135.077700 455.000000 11
  135.114200 5517.000000 136
  136.117800 599.000000 15
  137.130000 3745.000000 92
  138.134000 429.000000 11
  139.073100 544.000000 13
  143.083900 522.000000 13
  145.048000 21731.000000 534
  145.099400 1760.000000 43
  146.051300 1633.000000 40
  147.115500 2574.000000 63
  148.118300 484.000000 12
  149.094900 464.000000 11
  149.131200 4541.000000 112
  150.134800 644.000000 16
  151.074200 689.000000 17
  151.111100 456.000000 11
  151.146900 1061.000000 26
  153.090200 788.000000 19
  153.126300 567.000000 14
  157.100500 663.000000 16
  159.116400 3054.000000 75
  160.119400 515.000000 13
  161.096100 537.000000 13
  161.132100 3390.000000 83
  162.136100 538.000000 13
  163.059900 14853.000000 365
  163.147700 4240.000000 104
  164.063400 945.000000 23
  164.151000 575.000000 14
  165.090900 1119.000000 28
  165.126800 477.000000 12
  165.163900 509.000000 13
  167.106500 545.000000 13
  169.049700 427.000000 10
  171.117500 1078.000000 26
  173.132900 2446.000000 60
  174.136200 453.000000 11
  175.113000 413.000000 10
  175.148800 3356.000000 82
  176.152100 464.000000 11
  177.091500 1715.000000 42
  177.128100 686.000000 17
  177.164300 2506.000000 62
  178.167900 526.000000 13
  179.107000 1511.000000 37
  179.143300 1043.000000 26
  179.180100 526.000000 13
  181.072800 414.000000 10
  181.122600 439.000000 11
  185.133300 1488.000000 37
  187.060800 417.000000 10
  187.113100 442.000000 11
  187.149200 5161.000000 127
  188.152100 782.000000 19
  189.092300 1166.000000 29
  189.129100 455.000000 11
  189.164900 5094.000000 125
  190.168500 934.000000 23
  191.108000 2021.000000 50
  191.145300 560.000000 14
  191.180500 7240.000000 178
  192.183900 1061.000000 26
  193.050200 533.000000 13
  193.123400 881.000000 22
  193.159700 455.000000 11
  193.196300 1033.000000 25
  197.134000 471.000000 12
  199.061500 862.000000 21
  199.149400 1377.000000 34
  201.128700 594.000000 15
  201.165000 4612.000000 113
  202.168800 791.000000 19
  203.108200 879.000000 22
  203.144900 875.000000 22
  203.180900 6786.000000 167
  204.184500 1129.000000 28
  205.072200 490.000000 12
  205.123600 1110.000000 27
  205.160300 645.000000 16
  205.196500 1462.000000 36
  207.139300 976.000000 24
  207.175800 1174.000000 29
  211.061200 654.000000 16
  211.149300 637.000000 16
  213.128600 412.000000 10
  213.165100 1444.000000 35
  215.145400 528.000000 13
  215.181000 1947.000000 48
  216.184300 458.000000 11
  217.072200 759.000000 19
  217.123700 890.000000 22
  217.161000 687.000000 17
  217.196700 2884.000000 71
  218.199800 474.000000 12
  219.139300 2187.000000 54
  219.176800 485.000000 12
  219.212600 922.000000 23
  220.142900 563.000000 14
  221.155200 1590.000000 39
  221.192000 818.000000 20
  223.061700 1704.000000 42
  225.165800 643.000000 16
  227.145200 551.000000 14
  227.180900 1269.000000 31
  229.072700 525.000000 13
  229.123800 460.000000 11
  229.159900 947.000000 23
  229.196800 1334.000000 33
  231.139500 2561.000000 63
  231.176300 501.000000 12
  231.212200 593.000000 15
  232.142600 483.000000 12
  233.155300 2861.000000 70
  234.158400 561.000000 14
  235.171200 1221.000000 30
  239.181200 662.000000 16
  241.072500 2805.000000 69
  241.161300 484.000000 12
  241.196900 1231.000000 30
  243.138800 546.000000 13
  243.176900 488.000000 12
  243.212800 1472.000000 36
  245.155200 3482.000000 86
  246.159300 739.000000 18
  247.083800 419.000000 10
  247.171000 8821.000000 217
  247.206800 491.000000 12
  248.174600 1538.000000 38
  249.186000 694.000000 17
  253.197100 1109.000000 27
  255.176500 506.000000 12
  255.212400 1750.000000 43
  256.215800 470.000000 12
  257.155400 572.000000 14
  257.192000 470.000000 12
  257.228200 742.000000 18
  259.083300 3073.000000 76
  259.171100 1503.000000 37
  260.086300 455.000000 11
  261.186800 1180.000000 29
  267.212900 874.000000 21
  269.228400 1050.000000 26
  271.171600 920.000000 23
  271.206700 481.000000 12
  271.244500 408.000000 10
  273.186900 1170.000000 29
  273.222500 504.000000 12
  275.202200 1282.000000 32
  277.093600 848.000000 21
  279.211900 509.000000 13
  281.227600 605.000000 15
  283.206000 479.000000 12
  283.242100 412.000000 10
  285.186500 1339.000000 33
  285.222100 683.000000 17
  287.202100 1012.000000 25
  287.237300 430.000000 11
  289.094000 775.000000 19
  289.217600 838.000000 21
  295.103700 1383.000000 34
  295.207100 458.000000 11
  295.243700 639.000000 16
  297.223000 1095.000000 27
  299.201700 1557.000000 38
  300.205600 453.000000 11
  301.217300 2162.000000 53
  302.220900 562.000000 14
  303.232700 902.000000 22
  307.242600 410.000000 10
  309.259000 1108.000000 27
  310.263000 427.000000 10
  313.217600 2997.000000 74
  313.254100 1385.000000 34
  314.220700 652.000000 16
  315.233100 8637.000000 212
  316.236200 1977.000000 49
  317.243800 467.000000 11
  321.258800 634.000000 16
  323.274700 971.000000 24
  325.114200 1826.000000 45
  327.232600 1097.000000 27
  327.268600 974.000000 24
  329.248700 583.000000 14
  331.227600 789.000000 19
  331.263400 451.000000 11
  333.245100 714.000000 18
  335.273900 539.000000 13
  337.252700 644.000000 16
  337.288900 477.000000 12
  339.234000 417.000000 10
  339.268600 482.000000 12
  341.248500 963.000000 24
  341.283900 575.000000 14
  343.263500 534.000000 13
  351.268100 997.000000 25
  353.248500 620.000000 15
  353.283300 658.000000 16
  355.263300 2915.000000 72
  356.268300 957.000000 24
  363.270200 500.000000 12
  367.263000 1076.000000 26
  368.268300 427.000000 10
  369.279200 11285.000000 277
  370.282700 2903.000000 71
  371.291300 1070.000000 26
  373.274000 7003.000000 172
  374.277400 1859.000000 46
  377.286300 446.000000 11
  377.320500 3273.000000 80
  378.323900 1131.000000 28
  381.278900 2528.000000 62
  382.282100 679.000000 17
  387.289500 3357.000000 83
  388.292800 964.000000 24
  391.284200 8430.000000 207
  391.336500 1743.000000 43
  392.287600 2203.000000 54
  392.340100 604.000000 15
  395.297100 1105.000000 27
  395.330900 3219.000000 79
  396.333900 1060.000000 26
  399.289300 1061.000000 26
  401.320200 781.000000 19
  407.331500 444.000000 11
  409.346100 4046.000000 99
  410.350000 1243.000000 31
  411.359100 582.000000 14
  413.304000 408.000000 10
  419.330300 3521.000000 87
  420.333900 1230.000000 30
  437.341100 40641.000000 999
  438.344400 12264.000000 301
  439.346700 1946.000000 48
  455.351500 37492.000000 922
  456.354900 12126.000000 298
  457.358200 1956.000000 48
  467.351100 424.000000 10
  479.350700 445.000000 11
  485.324500 1511.000000 37
  486.327900 573.000000 14
  533.362600 678.000000 17
  551.372000 498.000000 12
  553.336000 693.000000 17
  617.404600 2590.000000 64
  618.408800 1119.000000 28
  779.465700 807.000000 20
//
