ACCESSION: MSBNK-Fiocruz-FIO00379
RECORD_TITLE: N,N-Diethyl-3-methoxybenzamide; LC-ESI-QTOF; MS2; [M+H]+; CE: 30eV
DATE: 2016.01.19 (Created 2013.03.13)
AUTHORS: Markus Kohlhoff, Natural Product Chemistry Lab (CPqRR/FIOCRUZ, Brazil)
LICENSE: CC BY-NC
COPYRIGHT: (c) Research Center Rene Rachou (FIOCRUZ, Brazil)
COMMENT: [Raw Data] CB155_N
COMMENT: N-Diethyl-3-methoxybenzamide_pos_30eV_CB000060.txt
CH$NAME: N,N-Diethyl-3-methoxybenzamide
CH$COMPOUND_CLASS: unknown
CH$FORMULA: C12H17NO2
CH$EXACT_MASS: 207.12593
CH$SMILES: COc(c1)cc(cc1)C(=O)N(CC)CC
CH$IUPAC: InChI=1S/C12H17NO2/c1-4-13(5-2)12(14)10-7-6-8-11(9-10)15-3/h6-9H,4-5H2,1-3H3
CH$LINK: CAS 62924-93-0
CH$LINK: CHEMSPIDER 582649
CH$LINK: INCHIKEY YYTOWTFIPGDNDQ-UHFFFAOYSA-N
CH$LINK: COMPTOX DTXSID80349969
AC$INSTRUMENT: maXis (Bruker Daltonics)
AC$INSTRUMENT_TYPE: LC-ESI-QTOF
AC$MASS_SPECTROMETRY: MS_TYPE MS2
AC$MASS_SPECTROMETRY: ION_MODE POSITIVE
AC$MASS_SPECTROMETRY: CAPILLARY_VOLTAGE 4500 V
AC$MASS_SPECTROMETRY: COLLISION_ENERGY 30 eV
AC$MASS_SPECTROMETRY: COLLISION_GAS Nitrogen
AC$MASS_SPECTROMETRY: DESOLVATION_GAS_FLOW 8 l/min
AC$MASS_SPECTROMETRY: DESOLVATION_TEMPERATURE 200 C
AC$MASS_SPECTROMETRY: FRAGMENTATION_METHOD CID
AC$MASS_SPECTROMETRY: IONIZATION ESI
AC$MASS_SPECTROMETRY: NEBULIZER 2.0 bar
AC$CHROMATOGRAPHY: COLUMN_NAME Waters Atlantis C18 3um 2.1x150mm
AC$CHROMATOGRAPHY: COLUMN_TEMPERATURE RT
AC$CHROMATOGRAPHY: FLOW_GRADIENT 1-100%B in 10min
AC$CHROMATOGRAPHY: FLOW_RATE 200ul/min
AC$CHROMATOGRAPHY: SOLVENT A water with 0.1% formic acid
AC$CHROMATOGRAPHY: SOLVENT B methanol with 0.1% formic acid
MS$FOCUSED_ION: BASE_PEAK 135.044300
MS$FOCUSED_ION: PRECURSOR_TYPE [M+H]+
PK$SPLASH: splash10-000i-0900000000-7ad4b8da60bb6e1eeead
PK$NUM_PEAK: 9
PK$PEAK: m/z int. rel.int.
  100.075600 1414.000000 18
  105.044900 1843.000000 24
  107.049200 7529.000000 98
  125.059800 11521.000000 150
  126.063200 802.000000 10
  134.060100 1143.000000 15
  135.044300 76699.000000 999
  136.047700 5135.000000 67
  208.132800 1339.000000 17
//
