ACCESSION: MSBNK-Fiocruz-FIO00218
RECORD_TITLE: Neriifolin; LC-ESI-QTOF; MS2; [M+H]+; CE: 40eV
DATE: 2016.01.19 (Created 2013.03.13)
AUTHORS: Markus Kohlhoff, Natural Product Chemistry Lab (CPqRR/FIOCRUZ, Brazil)
LICENSE: CC BY-NC
COPYRIGHT: (c) Research Center Rene Rachou (FIOCRUZ, Brazil)
COMMENT: [Raw Data] CB071_Neriifolin_pos_40eV_CB000031.txt
CH$NAME: Neriifolin
CH$COMPOUND_CLASS: Natural Product; Terpenoid
CH$FORMULA: C30H46O8
CH$EXACT_MASS: 534.31927
CH$SMILES: CO[C@H]([C@@H](O)1)[C@@H]([C@H](O[C@@H](C6)C[C@]([H])([C@](C6)2C)CC[C@]([C@@]43O)([H])[C@@](CC[C@]3(C)[C@@](C(C5)=CC(O5)=O)(CC4)[H])([H])2)O[C@@H](C)1)O
CH$IUPAC: InChI=1S/C30H46O8/c1-16-24(32)26(35-4)25(33)27(37-16)38-19-7-10-28(2)18(14-19)5-6-22-21(28)8-11-29(3)20(9-12-30(22,29)34)17-13-23(31)36-15-17/h13,16,18-22,24-27,32-34H,5-12,14-15H2,1-4H3/t16-,18+,19-,20+,21-,22+,24-,25-,26+,27-,28-,29+,30-/m0/s1
CH$LINK: CAS 466-07-9
CH$LINK: CHEBI CHEBI:7522
CH$LINK: KEGG C08876
CH$LINK: KNAPSACK C00003632
CH$LINK: NIKKAJI J12.074J
CH$LINK: PUBCHEM CID:441867
CH$LINK: INCHIKEY VPUNMTHWNSJUOG-BAOINKAISA-N
CH$LINK: COMPTOX DTXSID40881390
AC$INSTRUMENT: maXis (Bruker Daltonics)
AC$INSTRUMENT_TYPE: LC-ESI-QTOF
AC$MASS_SPECTROMETRY: MS_TYPE MS2
AC$MASS_SPECTROMETRY: ION_MODE POSITIVE
AC$MASS_SPECTROMETRY: CAPILLARY_VOLTAGE 4500 V
AC$MASS_SPECTROMETRY: COLLISION_ENERGY 40 eV
AC$MASS_SPECTROMETRY: COLLISION_GAS Nitrogen
AC$MASS_SPECTROMETRY: DESOLVATION_GAS_FLOW 8 l/min
AC$MASS_SPECTROMETRY: DESOLVATION_TEMPERATURE 200 C
AC$MASS_SPECTROMETRY: FRAGMENTATION_MODE CID
AC$MASS_SPECTROMETRY: IONIZATION ESI
AC$MASS_SPECTROMETRY: NEBULIZER 2.0 bar
AC$CHROMATOGRAPHY: COLUMN_NAME Waters Atlantis C18 3um 2.1x150mm
AC$CHROMATOGRAPHY: COLUMN_TEMPERATURE RT
AC$CHROMATOGRAPHY: FLOW_GRADIENT 1-100%B in 10min
AC$CHROMATOGRAPHY: FLOW_RATE 200ul/min
AC$CHROMATOGRAPHY: SOLVENT A water with 0.1% formic acid
AC$CHROMATOGRAPHY: SOLVENT B methanol with 0.1% formic acid
MS$FOCUSED_ION: BASE_PEAK 339.232200
MS$FOCUSED_ION: PRECURSOR_TYPE [M+H]+
PK$SPLASH: splash10-000i-2946000000-76557f48a605aaa56baf
PK$NUM_PEAK: 125
PK$PEAK: m/z int. rel.int.
  83.048200 394.000000 24
  85.027800 9335.000000 565
  86.031100 261.000000 16
  87.043300 984.000000 60
  93.069900 215.000000 13
  95.085400 403.000000 24
  99.044100 4175.000000 253
  100.047800 319.000000 19
  101.059800 680.000000 41
  105.069800 382.000000 23
  107.085800 1199.000000 73
  109.101100 669.000000 40
  111.044200 2733.000000 165
  112.047600 174.000000 11
  113.059800 508.000000 31
  115.075700 506.000000 31
  117.054900 727.000000 44
  119.085700 687.000000 42
  121.101500 2299.000000 139
  122.104800 208.000000 13
  123.117400 243.000000 15
  125.059900 602.000000 36
  129.054800 2880.000000 174
  130.058100 188.000000 11
  131.085800 861.000000 52
  133.101500 1580.000000 96
  134.105100 180.000000 11
  135.117000 3688.000000 223
  136.120300 375.000000 23
  137.077900 189.000000 11
  139.075300 277.000000 17
  143.070500 3511.000000 212
  144.073900 251.000000 15
  145.101300 1527.000000 92
  146.104900 184.000000 11
  147.116900 2111.000000 128
  148.120500 225.000000 14
  149.132500 1117.000000 68
  151.111900 1228.000000 74
  153.054900 1087.000000 66
  155.070800 278.000000 17
  157.101600 700.000000 42
  159.117100 2002.000000 121
  160.120100 241.000000 15
  161.081000 2480.000000 150
  161.132600 2997.000000 181
  162.135800 380.000000 23
  163.111800 867.000000 52
  165.091100 306.000000 19
  169.101300 289.000000 17
  171.116800 760.000000 46
  173.132600 773.000000 47
  175.075300 319.000000 19
  175.148100 804.000000 49
  177.091100 885.000000 54
  179.106600 374.000000 23
  183.116800 586.000000 35
  185.132300 1901.000000 115
  186.136200 271.000000 16
  187.148000 1801.000000 109
  188.151100 263.000000 16
  189.090700 538.000000 33
  189.163600 558.000000 34
  191.106600 590.000000 36
  193.122300 219.000000 13
  195.116600 210.000000 13
  197.132400 706.000000 43
  199.147900 1035.000000 63
  200.151800 182.000000 11
  201.163700 991.000000 60
  203.106500 600.000000 36
  205.122300 1721.000000 104
  206.125400 213.000000 13
  207.138100 628.000000 38
  209.132400 221.000000 13
  211.148300 879.000000 53
  213.163500 812.000000 49
  215.107100 288.000000 17
  215.179400 824.000000 50
  217.122100 900.000000 54
  219.137800 335.000000 20
  223.147700 303.000000 18
  225.163600 371.000000 22
  227.179100 426.000000 26
  229.122300 1214.000000 73
  230.125600 180.000000 11
  231.137800 3195.000000 193
  232.141000 498.000000 30
  233.152700 216.000000 13
  237.163600 348.000000 21
  239.143300 369.000000 22
  243.138100 1293.000000 78
  244.141200 223.000000 13
  245.153200 917.000000 55
  251.179500 311.000000 19
  253.194800 363.000000 22
  255.210400 463.000000 28
  257.153600 2110.000000 128
  258.157000 403.000000 24
  259.168600 292.000000 18
  265.194700 220.000000 13
  269.153700 205.000000 12
  271.169300 533.000000 32
  277.195400 347.000000 21
  279.210800 1379.000000 83
  280.214200 328.000000 20
  283.169300 818.000000 50
  293.226600 3502.000000 212
  294.229800 754.000000 46
  295.241100 383.000000 23
  297.185600 337.000000 20
  303.210800 531.000000 32
  311.237000 1242.000000 75
  312.240600 279.000000 17
  321.221500 3999.000000 242
  322.225100 876.000000 53
  337.216700 327.000000 20
  339.232200 16508.000000 999
  340.235500 3890.000000 235
  341.238700 464.000000 28
  357.242800 9876.000000 598
  358.246100 2150.000000 130
  359.248700 328.000000 20
  375.253200 474.000000 29
  517.316200 561.000000 34
//
