ACCESSION: MSBNK-Fiocruz-FIO00364
RECORD_TITLE: 3-(5-Acetyl-2-furyl)-5-methoxy-2-benzofuran-1(3H)-one; LC-ESI-QTOF; MS2; [M-H]-; CE: 30eV
DATE: 2016.01.19 (Created 2013.04.08)
AUTHORS: Markus Kohlhoff, Natural Product Chemistry Lab (CPqRR/FIOCRUZ, Brazil)
LICENSE: CC BY-NC
COPYRIGHT: (c) Research Center Rene Rachou (FIOCRUZ, Brazil)
COMMENT: [Raw Data] CB152_3-(5-Acetyl-2-furyl)-5-methoxy-2-benzofuran-1(3H)-one_neg_30eV_000030.txt
CH$NAME: 3-(5-Acetyl-2-furyl)-5-methoxy-2-benzofuran-1(3H)-one
CH$COMPOUND_CLASS: unknown
CH$FORMULA: C15H12O5
CH$EXACT_MASS: 272.06847
CH$SMILES: COc(c3)cc(c(c3)2)C(OC(=O)2)c(c1)oc(C(C)=O)c1
CH$IUPAC: InChI=1S/C15H12O5/c1-8(16)12-5-6-13(19-12)14-11-7-9(18-2)3-4-10(11)15(17)20-14/h3-7,14H,1-2H3
CH$LINK: CAS 166448-14-2
CH$LINK: CHEMSPIDER 23133148
CH$LINK: INCHIKEY KTVRYSLCSNORPS-UHFFFAOYSA-N
AC$INSTRUMENT: maXis (Bruker Daltonics)
AC$INSTRUMENT_TYPE: LC-ESI-QTOF
AC$MASS_SPECTROMETRY: MS_TYPE MS2
AC$MASS_SPECTROMETRY: ION_MODE NEGATIVE
AC$MASS_SPECTROMETRY: CAPILLARY_VOLTAGE 4500 V
AC$MASS_SPECTROMETRY: COLLISION_ENERGY 30 eV
AC$MASS_SPECTROMETRY: COLLISION_GAS Nitrogen
AC$MASS_SPECTROMETRY: DESOLVATION_GAS_FLOW 8 l/min
AC$MASS_SPECTROMETRY: DESOLVATION_TEMPERATURE 200 C
AC$MASS_SPECTROMETRY: FRAGMENTATION_METHOD CID
AC$MASS_SPECTROMETRY: IONIZATION ESI
AC$MASS_SPECTROMETRY: NEBULIZER 2.0 bar
AC$CHROMATOGRAPHY: COLUMN_NAME Waters Atlantis C18 3um 2.1x150mm
AC$CHROMATOGRAPHY: COLUMN_TEMPERATURE RT
AC$CHROMATOGRAPHY: FLOW_GRADIENT 1-100%B in 10min
AC$CHROMATOGRAPHY: FLOW_RATE 200ul/min
AC$CHROMATOGRAPHY: SOLVENT A water with 0.1% formic acid
AC$CHROMATOGRAPHY: SOLVENT B methanol with 0.1% formic acid
MS$FOCUSED_ION: BASE_PEAK 213.019200
MS$FOCUSED_ION: PRECURSOR_TYPE [M-H]-
PK$SPLASH: splash10-03e9-0980000000-2aca7864b1e30274e9cc
PK$NUM_PEAK: 25
PK$PEAK: m/z int. rel.int.
  95.013600 156.000000 89
  116.026100 179.000000 103
  131.049800 1712.000000 981
  132.053700 192.000000 110
  142.042600 114.000000 65
  156.057900 340.000000 195
  157.064900 180.000000 103
  158.038200 230.000000 132
  167.050100 138.000000 79
  170.037000 283.000000 162
  171.081400 110.000000 63
  183.044900 159.000000 91
  184.052500 578.000000 331
  185.024600 405.000000 232
  197.023900 573.000000 328
  198.029000 104.000000 60
  200.047400 179.000000 103
  211.040100 1001.000000 574
  212.047500 864.000000 495
  213.019200 1743.000000 999
  214.024500 245.000000 140
  227.034200 141.000000 81
  228.043100 188.000000 108
  241.014100 286.000000 164
  256.038000 391.000000 224
//
