ACCESSION: MSBNK-Fiocruz-FIO00928
RECORD_TITLE: Cynarine; LC-ESI-QTOF; MS2; [M+H]+; CE: 10eV
DATE: 2020.06.09
AUTHORS: Markus Kohlhoff, Natural Product Chemistry Lab (FIOCRUZ Minas, Brazil)
LICENSE: CC BY
COPYRIGHT: (c) Institute Rene Rachou (FIOCRUZ Minas, Brazil)
COMMENT: [Raw Data] CBA70_Cynarin_pos_10eV.txt
CH$NAME: Cynarine
CH$COMPOUND_CLASS: Natural Product; Phenylpropanoids
CH$FORMULA: C25H24O12
CH$EXACT_MASS: 516.12678
CH$SMILES: Oc(c1)c(O)cc(C=CC(=O)O[C@@H]([C@@H](O)2)C[C@@](OC(=O)C=Cc(c3)cc(O)c(O)c3)(C(O)=O)C[C@@H](O)2)c1
CH$IUPAC: InChI=1S/C25H24O12/c26-15-5-1-13(9-17(15)28)3-7-21(31)36-20-12-25(24(34)35,11-19(30)23(20)33)37-22(32)8-4-14-2-6-16(27)18(29)10-14/h1-10,19-20,23,26-30,33H,11-12H2,(H,34,35)/b7-3+,8-4+/t19-,20-,23+,25-/m1/s1
CH$LINK: KEGG C10445
CH$LINK: INCHIKEY YDDUMTOHNYZQPO-RVXRWRFUSA-N
AC$INSTRUMENT: maXis (Bruker Daltonics)
AC$INSTRUMENT_TYPE: LC-ESI-QTOF
AC$MASS_SPECTROMETRY: MS_TYPE MS2
AC$MASS_SPECTROMETRY: ION_MODE POSITIVE
AC$MASS_SPECTROMETRY: CAPILLARY_VOLTAGE 4500 V
AC$MASS_SPECTROMETRY: COLLISION_ENERGY 10 eV
AC$MASS_SPECTROMETRY: COLLISION_GAS Nitrogen
AC$MASS_SPECTROMETRY: DESOLVATION_GAS_FLOW 8 l/min
AC$MASS_SPECTROMETRY: DESOLVATION_TEMPERATURE 200 C
AC$MASS_SPECTROMETRY: FRAGMENTATION_METHOD CID
AC$MASS_SPECTROMETRY: IONIZATION ESI
AC$MASS_SPECTROMETRY: NEBULIZER 3.0 bar
AC$CHROMATOGRAPHY: COLUMN_NAME Shimadzu Shim-Pack XR-ODS III; C18; 2.2um; 80A; 2.0x150mm
AC$CHROMATOGRAPHY: COLUMN_TEMPERATURE 40 C
AC$CHROMATOGRAPHY: FLOW_GRADIENT 5-100%B in 10min
AC$CHROMATOGRAPHY: FLOW_RATE 400ul/min
AC$CHROMATOGRAPHY: SOLVENT A water with 0.1% formic acid
AC$CHROMATOGRAPHY: SOLVENT B acetonitrile with 0.1% formic acid
MS$FOCUSED_ION: PRECURSOR_TYPE [M+H]+
MS$DATA_PROCESSING: FIND_PEAK centroid
MS$DATA_PROCESSING: WHOLE Mass++ 2.7.5
PK$SPLASH: splash10-03dj-0903430000-a18151ab89b9b110f44c
PK$NUM_PEAK: 14
PK$PEAK: m/z int. rel.int.
  145.026600 1650.000000 11
  163.038700 144470.000000 999
  164.042000 13387.000000 93
  309.097000 2204.000000 15
  337.092200 43246.000000 299
  338.095700 8059.000000 56
  355.101900 5882.000000 41
  499.122000 78997.000000 546
  500.125300 20768.000000 144
  501.127400 4585.000000 32
  515.116400 3269.000000 23
  517.132200 26310.000000 182
  518.135800 6404.000000 44
  519.138500 1815.000000 13
//
