ACCESSION: MSBNK-Fiocruz-FIO00539
RECORD_TITLE: Paclitaxel; LC-ESI-QTOF; MS2; [M+H]+; CE: 50eV
DATE: 2016.01.19 (Created 2013.03.13)
AUTHORS: Markus Kohlhoff, Natural Product Chemistry Lab (CPqRR/FIOCRUZ, Brazil)
LICENSE: CC BY-NC
COPYRIGHT: (c) Research Center Rene Rachou (FIOCRUZ, Brazil)
COMMENT: [Raw Data] CB246_Paclitaxel_pos_50eV_CB000085.txt
CH$NAME: Paclitaxel
CH$COMPOUND_CLASS: Natural Product; Terpenoid
CH$FORMULA: C47H51NO14
CH$EXACT_MASS: 853.33096
CH$SMILES: C(O7)[C@]([C@@H]57)(C([C@@H]4OC(c(c6)cccc6)=O)[C@]([C@H](C5)O)(C)C(=O)[C@@H](C(C(C)(C)3)=C(C)[C@H](C[C@](O)34)OC([C@H](O)[C@@H](NC(=O)c(c2)cccc2)c(c1)cccc1)=O)OC(C)=O)OC(C)=O
CH$IUPAC: InChI=1S/C47H51NO14/c1-25-31(60-43(56)36(52)35(28-16-10-7-11-17-28)48-41(54)29-18-12-8-13-19-29)23-47(57)40(61-42(55)30-20-14-9-15-21-30)38-45(6,32(51)22-33-46(38,24-58-33)62-27(3)50)39(53)37(59-26(2)49)34(25)44(47,4)5/h7-21,31-33,35-38,40,51-52,57H,22-24H2,1-6H3,(H,48,54)/t31-,32-,33+,35-,36+,37+,38?,40-,45+,46-,47+/m0/s1
CH$LINK: CAS 33069-62-4
CH$LINK: CHEBI CHEBI:45863
CH$LINK: KEGG C07394
CH$LINK: KNAPSACK C00002365
CH$LINK: NIKKAJI J17.834I
CH$LINK: PUBCHEM CID:441276
CH$LINK: INCHIKEY RCINICONZNJXQF-VAZQATRQSA-N
AC$INSTRUMENT: maXis (Bruker Daltonics)
AC$INSTRUMENT_TYPE: LC-ESI-QTOF
AC$MASS_SPECTROMETRY: MS_TYPE MS2
AC$MASS_SPECTROMETRY: ION_MODE POSITIVE
AC$MASS_SPECTROMETRY: CAPILLARY_VOLTAGE 4500 V
AC$MASS_SPECTROMETRY: COLLISION_ENERGY 50 eV
AC$MASS_SPECTROMETRY: COLLISION_GAS Nitrogen
AC$MASS_SPECTROMETRY: DESOLVATION_GAS_FLOW 8 l/min
AC$MASS_SPECTROMETRY: DESOLVATION_TEMPERATURE 200 C
AC$MASS_SPECTROMETRY: FRAGMENTATION_MODE CID
AC$MASS_SPECTROMETRY: IONIZATION ESI
AC$MASS_SPECTROMETRY: NEBULIZER 2.0 bar
AC$CHROMATOGRAPHY: COLUMN_NAME Waters Atlantis C18 3um 2.1x150mm
AC$CHROMATOGRAPHY: COLUMN_TEMPERATURE RT
AC$CHROMATOGRAPHY: FLOW_GRADIENT 1-100%B in 10min
AC$CHROMATOGRAPHY: FLOW_RATE 200ul/min
AC$CHROMATOGRAPHY: SOLVENT A water with 0.1% formic acid
AC$CHROMATOGRAPHY: SOLVENT B methanol with 0.1% formic acid
MS$FOCUSED_ION: BASE_PEAK 240.101900
MS$FOCUSED_ION: PRECURSOR_TYPE [M+H]+
PK$SPLASH: splash10-059f-0691000000-fbd7224269531f12bdf5
PK$NUM_PEAK: 145
PK$PEAK: m/z int. rel.int.
  91.054200 765.000000 19
  93.069800 477.000000 12
  105.033900 31039.000000 775
  106.037200 2724.000000 68
  107.085700 888.000000 22
  109.065100 727.000000 18
  118.065400 3436.000000 86
  119.085800 1996.000000 50
  121.065100 2951.000000 74
  122.060400 27920.000000 697
  123.064100 2056.000000 51
  125.060000 452.000000 11
  131.085600 798.000000 20
  133.065000 4966.000000 124
  134.068600 565.000000 14
  135.080600 1845.000000 46
  136.076000 2250.000000 56
  137.060000 988.000000 25
  139.075600 934.000000 23
  143.085600 1244.000000 31
  145.101400 1268.000000 32
  147.080500 2316.000000 58
  149.096200 4667.000000 116
  150.099800 549.000000 14
  151.075400 2926.000000 73
  155.085800 489.000000 12
  157.101300 1460.000000 36
  159.080600 3642.000000 91
  160.085400 522.000000 13
  161.096200 5243.000000 131
  162.099900 544.000000 14
  163.075600 1063.000000 27
  165.054700 940.000000 23
  167.070300 2695.000000 67
  169.101100 1379.000000 34
  171.080500 1174.000000 29
  173.096200 1945.000000 49
  175.075400 2147.000000 54
  177.054600 4117.000000 103
  178.058100 530.000000 13
  179.070200 1194.000000 30
  181.100900 1035.000000 26
  183.116700 1794.000000 45
  185.095900 1657.000000 41
  187.111700 1492.000000 37
  189.090900 1444.000000 36
  191.070200 668.000000 17
  193.101100 1195.000000 30
  194.107300 450.000000 11
  195.116500 2518.000000 63
  196.121900 618.000000 15
  197.096100 1913.000000 48
  199.111600 1806.000000 45
  201.127200 767.000000 19
  203.106500 733.000000 18
  205.121900 446.000000 11
  206.108600 1023.000000 26
  207.116300 1391.000000 35
  208.122900 564.000000 14
  209.132300 3229.000000 81
  210.091800 1822.000000 45
  211.111700 3189.000000 80
  212.116300 607.000000 15
  213.127200 1830.000000 46
  215.106400 1003.000000 25
  217.122200 529.000000 13
  219.116300 656.000000 16
  220.124100 916.000000 23
  221.132300 3755.000000 94
  222.136500 789.000000 20
  223.111600 2975.000000 74
  224.117500 1004.000000 25
  225.127200 2825.000000 71
  226.131400 511.000000 13
  227.142800 1414.000000 35
  229.122300 1279.000000 32
  230.108900 456.000000 11
  231.102200 521.000000 13
  233.131700 954.000000 24
  234.103600 543.000000 14
  235.148000 4295.000000 107
  236.151400 840.000000 21
  237.127300 5076.000000 127
  238.132600 1243.000000 31
  239.143000 5621.000000 140
  240.101900 40022.000000 999
  241.105300 6341.000000 158
  242.107800 624.000000 16
  243.102300 578.000000 14
  245.132300 1648.000000 41
  247.112400 593.000000 15
  248.119300 1371.000000 34
  249.126900 2761.000000 69
  250.131800 694.000000 17
  251.142800 2529.000000 63
  252.146600 552.000000 14
  253.158700 4221.000000 105
  254.161900 882.000000 22
  255.137800 2482.000000 62
  256.142200 529.000000 13
  257.153300 1237.000000 31
  261.127300 719.000000 18
  263.142900 7167.000000 179
  264.146600 1605.000000 40
  265.122400 1859.000000 46
  266.128800 975.000000 24
  267.137800 4471.000000 112
  268.097000 3335.000000 83
  269.081200 2333.000000 58
  269.117100 1303.000000 33
  270.084400 429.000000 11
  271.169300 1305.000000 33
  273.127600 1018.000000 25
  276.114500 550.000000 14
  279.138000 1955.000000 49
  280.142200 495.000000 12
  281.153700 9208.000000 230
  282.157000 1742.000000 43
  283.132900 1509.000000 38
  284.138400 500.000000 12
  285.148400 1933.000000 48
  286.107400 21694.000000 542
  287.110800 3507.000000 88
  288.113900 467.000000 12
  291.138000 4578.000000 114
  292.141600 1065.000000 27
  297.148700 1894.000000 47
  299.164100 4348.000000 109
  300.167800 959.000000 24
  309.148600 10517.000000 263
  310.152000 2269.000000 57
  315.159000 802.000000 20
  327.159300 10583.000000 264
  328.162600 2366.000000 59
  345.169800 2789.000000 70
  346.173300 646.000000 16
  351.158900 429.000000 11
  359.185400 456.000000 11
  369.169700 1267.000000 32
  387.180500 1834.000000 46
  388.183700 484.000000 12
  431.185200 448.000000 11
  449.196000 821.000000 20
  509.217200 2635.000000 66
  510.220700 904.000000 23
//
