ACCESSION: MSBNK-Fiocruz-FIO00071
RECORD_TITLE: (-)-Epicatechin; LC-ESI-QTOF; MS2; [M+H]+; CE: 50eV
DATE: 2016.01.19 (Created 2013.03.13)
AUTHORS: Markus Kohlhoff, Natural Product Chemistry Lab (CPqRR/FIOCRUZ, Brazil)
LICENSE: CC BY-NC
COPYRIGHT: (c) Research Center Rene Rachou (FIOCRUZ, Brazil)
COMMENT: [Raw Data] CB030_(-)-Epicatechin_pos_50eV_CB000016.txt
CH$NAME: (-)-Epicatechin
CH$COMPOUND_CLASS: Natural Product; Flavonoid
CH$FORMULA: C15H14O6
CH$EXACT_MASS: 290.07904
CH$SMILES: Oc(c3)c(O)cc(c3)[C@@H](O1)[C@H](O)Cc(c(O)2)c(cc(O)c2)1
CH$IUPAC: InChI=1S/C15H14O6/c16-8-4-11(18)9-6-13(20)15(21-14(9)5-8)7-1-2-10(17)12(19)3-7/h1-5,13,15-20H,6H2/t13-,15-/m1/s1
CH$LINK: CAS 490-46-0
CH$LINK: CHEBI CHEBI:90
CH$LINK: KEGG C09727
CH$LINK: KNAPSACK C00000956
CH$LINK: NIKKAJI J21.603H
CH$LINK: PUBCHEM CID:72276
CH$LINK: INCHIKEY PFTAWBLQPZVEMU-UKRRQHHQSA-N
CH$LINK: COMPTOX DTXSID4045133
AC$INSTRUMENT: maXis (Bruker Daltonics)
AC$INSTRUMENT_TYPE: LC-ESI-QTOF
AC$MASS_SPECTROMETRY: MS_TYPE MS2
AC$MASS_SPECTROMETRY: ION_MODE POSITIVE
AC$MASS_SPECTROMETRY: CAPILLARY_VOLTAGE 4500 V
AC$MASS_SPECTROMETRY: COLLISION_ENERGY 50 eV
AC$MASS_SPECTROMETRY: COLLISION_GAS Nitrogen
AC$MASS_SPECTROMETRY: DESOLVATION_GAS_FLOW 8 l/min
AC$MASS_SPECTROMETRY: DESOLVATION_TEMPERATURE 200 C
AC$MASS_SPECTROMETRY: FRAGMENTATION_MODE CID
AC$MASS_SPECTROMETRY: IONIZATION ESI
AC$MASS_SPECTROMETRY: NEBULIZER 2.0 bar
AC$CHROMATOGRAPHY: COLUMN_NAME Waters Atlantis C18 3um 2.1x150mm
AC$CHROMATOGRAPHY: COLUMN_TEMPERATURE RT
AC$CHROMATOGRAPHY: FLOW_GRADIENT 1-100%B in 10min
AC$CHROMATOGRAPHY: FLOW_RATE 200ul/min
AC$CHROMATOGRAPHY: SOLVENT A water with 0.1% formic acid
AC$CHROMATOGRAPHY: SOLVENT B methanol with 0.1% formic acid
MS$FOCUSED_ION: BASE_PEAK 123.044000
MS$FOCUSED_ION: PRECURSOR_TYPE [M+H]+
PK$SPLASH: splash10-00dr-0900000000-e857cb0f972f6ed615a8
PK$NUM_PEAK: 24
PK$PEAK: m/z int. rel.int.
  91.053800 550.000000 24
  93.032700 394.000000 17
  95.048900 438.000000 19
  105.033900 547.000000 24
  107.049400 278.000000 12
  111.044200 1827.000000 79
  115.054200 1256.000000 54
  119.049000 3295.000000 142
  120.052600 268.000000 12
  121.028600 426.000000 18
  123.044000 23107.000000 999
  124.047500 1484.000000 64
  127.038900 296.000000 13
  131.049100 505.000000 22
  133.064700 656.000000 28
  137.023400 781.000000 34
  139.038900 14943.000000 646
  140.042300 936.000000 40
  143.049200 1568.000000 68
  147.044000 4788.000000 207
  148.047500 473.000000 20
  161.059500 1465.000000 63
  163.038500 566.000000 24
  189.054600 312.000000 13
//
