ACCESSION: MSBNK-Fiocruz-FIO01034
RECORD_TITLE: Xanthotoxin; LC-ESI-QTOF; MS2; [M+H]+; CE: 10eV
DATE: 2020.06.09
AUTHORS: Markus Kohlhoff, Natural Product Chemistry Lab (FIOCRUZ Minas, Brazil)
LICENSE: CC BY
COPYRIGHT: (c) Institute Rene Rachou (FIOCRUZ Minas, Brazil)
COMMENT: [Raw Data] CBA87_Xanthotoxin_pos_10eV.txt
CH$NAME: Xanthotoxin
CH$COMPOUND_CLASS: Natural Product; Phenylpropanoids
CH$FORMULA: C12H8O4
CH$EXACT_MASS: 216.04226
CH$SMILES: COc(c21)c(O3)c(C=CC(=O)3)cc(cco2)1
CH$IUPAC: InChI=1S/C12H8O4/c1-14-12-10-8(4-5-15-10)6-7-2-3-9(13)16-11(7)12/h2-6H,1H3
CH$LINK: KEGG C01864
CH$LINK: INCHIKEY QXKHYNVANLEOEG-UHFFFAOYSA-N
AC$INSTRUMENT: maXis (Bruker Daltonics)
AC$INSTRUMENT_TYPE: LC-ESI-QTOF
AC$MASS_SPECTROMETRY: MS_TYPE MS2
AC$MASS_SPECTROMETRY: ION_MODE POSITIVE
AC$MASS_SPECTROMETRY: CAPILLARY_VOLTAGE 4500 V
AC$MASS_SPECTROMETRY: COLLISION_ENERGY 10 eV
AC$MASS_SPECTROMETRY: COLLISION_GAS Nitrogen
AC$MASS_SPECTROMETRY: DESOLVATION_GAS_FLOW 8 l/min
AC$MASS_SPECTROMETRY: DESOLVATION_TEMPERATURE 200 C
AC$MASS_SPECTROMETRY: FRAGMENTATION_METHOD CID
AC$MASS_SPECTROMETRY: IONIZATION ESI
AC$MASS_SPECTROMETRY: NEBULIZER 3.0 bar
AC$CHROMATOGRAPHY: COLUMN_NAME Shimadzu Shim-Pack XR-ODS III; C18; 2.2um; 80A; 2.0x150mm
AC$CHROMATOGRAPHY: COLUMN_TEMPERATURE 40 C
AC$CHROMATOGRAPHY: FLOW_GRADIENT 5-100%B in 10min
AC$CHROMATOGRAPHY: FLOW_RATE 400ul/min
AC$CHROMATOGRAPHY: SOLVENT A water with 0.1% formic acid
AC$CHROMATOGRAPHY: SOLVENT B acetonitrile with 0.1% formic acid
MS$FOCUSED_ION: PRECURSOR_TYPE [M+H]+
MS$DATA_PROCESSING: FIND_PEAK centroid
MS$DATA_PROCESSING: WHOLE Mass++ 2.7.5
PK$SPLASH: splash10-014i-0090000000-bd477a066c5450b32def
PK$NUM_PEAK: 7
PK$PEAK: m/z int. rel.int.
  202.026400 24952.000000 37
  217.050300 669002.000000 999
  217.083700 29860.000000 45
  217.106400 26487.000000 40
  217.420100 12271.000000 18
  218.053400 138749.000000 207
  219.055300 14564.000000 22
//
