ACCESSION: MSBNK-Fiocruz-FIO00394
RECORD_TITLE: 3-Thiophenecarboxylic acid; LC-ESI-QTOF; MS2; [M+H]+; CE: 40eV
DATE: 2016.01.19 (Created 2013.03.13)
AUTHORS: Markus Kohlhoff, Natural Product Chemistry Lab (CPqRR/FIOCRUZ, Brazil)
LICENSE: CC BY-NC
COPYRIGHT: (c) Research Center Rene Rachou (FIOCRUZ, Brazil)
COMMENT: [Raw Data] CB161_3-Thiophenecarboxylic-acid_pos_40eV_rep000004.txt
CH$NAME: 3-Thiophenecarboxylic acid
CH$COMPOUND_CLASS: unknown
CH$FORMULA: C5H4O2S
CH$EXACT_MASS: 127.99320
CH$SMILES: OC(=O)c(c1)csc1
CH$IUPAC: InChI=1S/C5H4O2S/c6-5(7)4-1-2-8-3-4/h1-3H,(H,6,7)
CH$LINK: CAS 88-13-1
CH$LINK: CHEMSPIDER 6652
CH$LINK: PUBCHEM CID:6918
CH$LINK: INCHIKEY YNVOMSDITJMNET-UHFFFAOYSA-N
CH$LINK: COMPTOX DTXSID40236745
AC$INSTRUMENT: maXis (Bruker Daltonics)
AC$INSTRUMENT_TYPE: LC-ESI-QTOF
AC$MASS_SPECTROMETRY: MS_TYPE MS2
AC$MASS_SPECTROMETRY: ION_MODE POSITIVE
AC$MASS_SPECTROMETRY: CAPILLARY_VOLTAGE 4500 V
AC$MASS_SPECTROMETRY: COLLISION_ENERGY 40 eV
AC$MASS_SPECTROMETRY: COLLISION_GAS Nitrogen
AC$MASS_SPECTROMETRY: DESOLVATION_GAS_FLOW 8 l/min
AC$MASS_SPECTROMETRY: DESOLVATION_TEMPERATURE 200 C
AC$MASS_SPECTROMETRY: FRAGMENTATION_METHOD CID
AC$MASS_SPECTROMETRY: IONIZATION ESI
AC$MASS_SPECTROMETRY: NEBULIZER 2.0 bar
AC$CHROMATOGRAPHY: COLUMN_NAME Waters Atlantis C18 3um 2.1x150mm
AC$CHROMATOGRAPHY: COLUMN_TEMPERATURE RT
AC$CHROMATOGRAPHY: FLOW_GRADIENT 1-100%B in 10min
AC$CHROMATOGRAPHY: FLOW_RATE 200ul/min
AC$CHROMATOGRAPHY: SOLVENT A water with 0.1% formic acid
AC$CHROMATOGRAPHY: SOLVENT B methanol with 0.1% formic acid
MS$FOCUSED_ION: BASE_PEAK 85.011000
MS$FOCUSED_ION: PRECURSOR_TYPE [M+H]+
PK$SPLASH: splash10-01p9-9700000000-d87f6241b281c0f0e0b3
PK$NUM_PEAK: 7
PK$PEAK: m/z int. rel.int.
  82.995400 598.000000 412
  85.011000 1451.000000 999
  91.054700 290.000000 200
  103.054300 120.000000 83
  106.065500 124.000000 85
  110.990400 1438.000000 990
  115.054700 166.000000 114
//
