ACCESSION: MSBNK-Fiocruz-FIO00377
RECORD_TITLE: N,N-Diethyl-3-methoxybenzamide; LC-ESI-QTOF; MS2; [M+H]+; CE: 10eV
DATE: 2016.01.19 (Created 2013.03.13)
AUTHORS: Markus Kohlhoff, Natural Product Chemistry Lab (CPqRR/FIOCRUZ, Brazil)
LICENSE: CC BY-NC
COPYRIGHT: (c) Research Center Rene Rachou (FIOCRUZ, Brazil)
COMMENT: [Raw Data] CB155_N
COMMENT: N-Diethyl-3-methoxybenzamide_pos_10eV_CB000060.txt
CH$NAME: N,N-Diethyl-3-methoxybenzamide
CH$COMPOUND_CLASS: unknown
CH$FORMULA: C12H17NO2
CH$EXACT_MASS: 207.12593
CH$SMILES: COc(c1)cc(cc1)C(=O)N(CC)CC
CH$IUPAC: InChI=1S/C12H17NO2/c1-4-13(5-2)12(14)10-7-6-8-11(9-10)15-3/h6-9H,4-5H2,1-3H3
CH$LINK: CAS 62924-93-0
CH$LINK: CHEMSPIDER 582649
CH$LINK: INCHIKEY YYTOWTFIPGDNDQ-UHFFFAOYSA-N
CH$LINK: COMPTOX DTXSID80349969
AC$INSTRUMENT: maXis (Bruker Daltonics)
AC$INSTRUMENT_TYPE: LC-ESI-QTOF
AC$MASS_SPECTROMETRY: MS_TYPE MS2
AC$MASS_SPECTROMETRY: ION_MODE POSITIVE
AC$MASS_SPECTROMETRY: CAPILLARY_VOLTAGE 4500 V
AC$MASS_SPECTROMETRY: COLLISION_ENERGY 10 eV
AC$MASS_SPECTROMETRY: COLLISION_GAS Nitrogen
AC$MASS_SPECTROMETRY: DESOLVATION_GAS_FLOW 8 l/min
AC$MASS_SPECTROMETRY: DESOLVATION_TEMPERATURE 200 C
AC$MASS_SPECTROMETRY: FRAGMENTATION_METHOD CID
AC$MASS_SPECTROMETRY: IONIZATION ESI
AC$MASS_SPECTROMETRY: NEBULIZER 2.0 bar
AC$CHROMATOGRAPHY: COLUMN_NAME Waters Atlantis C18 3um 2.1x150mm
AC$CHROMATOGRAPHY: COLUMN_TEMPERATURE RT
AC$CHROMATOGRAPHY: FLOW_GRADIENT 1-100%B in 10min
AC$CHROMATOGRAPHY: FLOW_RATE 200ul/min
AC$CHROMATOGRAPHY: SOLVENT A water with 0.1% formic acid
AC$CHROMATOGRAPHY: SOLVENT B methanol with 0.1% formic acid
MS$FOCUSED_ION: BASE_PEAK 208.133100
MS$FOCUSED_ION: PRECURSOR_TYPE [M+H]+
PK$SPLASH: splash10-0a4i-0090000000-a70608f13d907873a000
PK$NUM_PEAK: 3
PK$PEAK: m/z int. rel.int.
  135.044000 7757.000000 43
  208.133100 180316.000000 999
  209.136200 17595.000000 97
//
