ACCESSION: MSBNK-Fiocruz-FIO00070
RECORD_TITLE: (-)-Epicatechin; LC-ESI-QTOF; MS2; [M+H]+; CE: 40eV
DATE: 2016.01.19 (Created 2013.03.13)
AUTHORS: Markus Kohlhoff, Natural Product Chemistry Lab (CPqRR/FIOCRUZ, Brazil)
LICENSE: CC BY-NC
COPYRIGHT: (c) Research Center Rene Rachou (FIOCRUZ, Brazil)
COMMENT: [Raw Data] CB030_(-)-Epicatechin_pos_40eV_CB000016.txt
CH$NAME: (-)-Epicatechin
CH$COMPOUND_CLASS: Natural Product; Flavonoid
CH$FORMULA: C15H14O6
CH$EXACT_MASS: 290.07904
CH$SMILES: Oc(c3)c(O)cc(c3)[C@@H](O1)[C@H](O)Cc(c(O)2)c(cc(O)c2)1
CH$IUPAC: InChI=1S/C15H14O6/c16-8-4-11(18)9-6-13(20)15(21-14(9)5-8)7-1-2-10(17)12(19)3-7/h1-5,13,15-20H,6H2/t13-,15-/m1/s1
CH$LINK: CAS 490-46-0
CH$LINK: CHEBI CHEBI:90
CH$LINK: KEGG C09727
CH$LINK: KNAPSACK C00000956
CH$LINK: NIKKAJI J21.603H
CH$LINK: PUBCHEM CID:72276
CH$LINK: INCHIKEY PFTAWBLQPZVEMU-UKRRQHHQSA-N
CH$LINK: COMPTOX DTXSID4045133
AC$INSTRUMENT: maXis (Bruker Daltonics)
AC$INSTRUMENT_TYPE: LC-ESI-QTOF
AC$MASS_SPECTROMETRY: MS_TYPE MS2
AC$MASS_SPECTROMETRY: ION_MODE POSITIVE
AC$MASS_SPECTROMETRY: CAPILLARY_VOLTAGE 4500 V
AC$MASS_SPECTROMETRY: COLLISION_ENERGY 40 eV
AC$MASS_SPECTROMETRY: COLLISION_GAS Nitrogen
AC$MASS_SPECTROMETRY: DESOLVATION_GAS_FLOW 8 l/min
AC$MASS_SPECTROMETRY: DESOLVATION_TEMPERATURE 200 C
AC$MASS_SPECTROMETRY: FRAGMENTATION_MODE CID
AC$MASS_SPECTROMETRY: IONIZATION ESI
AC$MASS_SPECTROMETRY: NEBULIZER 2.0 bar
AC$CHROMATOGRAPHY: COLUMN_NAME Waters Atlantis C18 3um 2.1x150mm
AC$CHROMATOGRAPHY: COLUMN_TEMPERATURE RT
AC$CHROMATOGRAPHY: FLOW_GRADIENT 1-100%B in 10min
AC$CHROMATOGRAPHY: FLOW_RATE 200ul/min
AC$CHROMATOGRAPHY: SOLVENT A water with 0.1% formic acid
AC$CHROMATOGRAPHY: SOLVENT B methanol with 0.1% formic acid
MS$FOCUSED_ION: BASE_PEAK 139.039100
MS$FOCUSED_ION: PRECURSOR_TYPE [M+H]+
PK$SPLASH: splash10-0079-0900000000-7f8bc4685fcd36a261f9
PK$NUM_PEAK: 26
PK$PEAK: m/z int. rel.int.
  111.044300 1026.000000 42
  115.054400 626.000000 26
  119.049200 2467.000000 102
  123.044200 19379.000000 798
  124.047600 1238.000000 51
  127.039200 399.000000 16
  131.049400 287.000000 12
  133.065000 666.000000 27
  135.044100 316.000000 13
  137.023500 772.000000 32
  139.039100 24257.000000 999
  140.042500 1653.000000 68
  143.049300 1662.000000 68
  147.044200 6943.000000 286
  148.047800 616.000000 25
  151.039000 328.000000 14
  153.054800 349.000000 14
  159.044200 295.000000 12
  161.059800 3878.000000 160
  162.063500 342.000000 14
  163.039200 679.000000 28
  165.054600 1069.000000 44
  177.054600 503.000000 21
  179.070200 769.000000 32
  189.054400 1039.000000 43
  207.065100 409.000000 17
//
