ACCESSION: MSBNK-Fiocruz-FIO00231
RECORD_TITLE: Santonin; LC-ESI-QTOF; MS2; [M+H]+; CE: 20eV
DATE: 2016.01.19 (Created 2013.03.13)
AUTHORS: Markus Kohlhoff, Natural Product Chemistry Lab (CPqRR/FIOCRUZ, Brazil)
LICENSE: CC BY-NC
COPYRIGHT: (c) Research Center Rene Rachou (FIOCRUZ, Brazil)
COMMENT: [Raw Data] CB081_Santonin_pos_20eV_CB000033.txt
CH$NAME: Santonin
CH$COMPOUND_CLASS: Natural Product; Terpenoid
CH$FORMULA: C15H18O3
CH$EXACT_MASS: 246.12559
CH$SMILES: O=C(C=3)C(C)=C([C@](C)(C3)2)[C@]([H])(O1)[C@]([H])(CC2)C(C)C(=O)1
CH$IUPAC: InChI=1S/C15H18O3/c1-8-10-4-6-15(3)7-5-11(16)9(2)12(15)13(10)18-14(8)17/h5,7-8,10,13H,4,6H2,1-3H3/t8-,10-,13-,15-/m0/s1
CH$LINK: CAS 481-06-1
CH$LINK: CHEBI CHEBI:16363
CH$LINK: KEGG C02206
CH$LINK: KNAPSACK C00003364
CH$LINK: NIKKAJI J6.172G
CH$LINK: PUBCHEM CID:221071
CH$LINK: INCHIKEY XJHDMGJURBVLLE-BOCCBSBMSA-N
CH$LINK: COMPTOX DTXSID7045312
AC$INSTRUMENT: maXis (Bruker Daltonics)
AC$INSTRUMENT_TYPE: LC-ESI-QTOF
AC$MASS_SPECTROMETRY: MS_TYPE MS2
AC$MASS_SPECTROMETRY: ION_MODE POSITIVE
AC$MASS_SPECTROMETRY: CAPILLARY_VOLTAGE 4500 V
AC$MASS_SPECTROMETRY: COLLISION_ENERGY 20 eV
AC$MASS_SPECTROMETRY: COLLISION_GAS Nitrogen
AC$MASS_SPECTROMETRY: DESOLVATION_GAS_FLOW 8 l/min
AC$MASS_SPECTROMETRY: DESOLVATION_TEMPERATURE 200 C
AC$MASS_SPECTROMETRY: FRAGMENTATION_MODE CID
AC$MASS_SPECTROMETRY: IONIZATION ESI
AC$MASS_SPECTROMETRY: NEBULIZER 2.0 bar
AC$CHROMATOGRAPHY: COLUMN_NAME Waters Atlantis C18 3um 2.1x150mm
AC$CHROMATOGRAPHY: COLUMN_TEMPERATURE RT
AC$CHROMATOGRAPHY: FLOW_GRADIENT 1-100%B in 10min
AC$CHROMATOGRAPHY: FLOW_RATE 200ul/min
AC$CHROMATOGRAPHY: SOLVENT A water with 0.1% formic acid
AC$CHROMATOGRAPHY: SOLVENT B methanol with 0.1% formic acid
MS$FOCUSED_ION: BASE_PEAK 173.096100
MS$FOCUSED_ION: PRECURSOR_TYPE [M+H]+
PK$SPLASH: splash10-00di-0910000000-6f71e3aa180fd1ed56d0
PK$NUM_PEAK: 14
PK$PEAK: m/z int. rel.int.
  135.080400 19343.000000 123
  136.083800 1692.000000 11
  145.101100 7847.000000 50
  149.096000 6053.000000 39
  158.072600 2479.000000 16
  159.080000 1753.000000 11
  161.095900 4338.000000 28
  173.096100 157019.000000 999
  174.100000 16464.000000 105
  191.106600 1792.000000 11
  201.127100 16857.000000 107
  202.130600 2261.000000 14
  229.122000 2558.000000 16
  247.132700 6993.000000 44
//
