ACCESSION: MSBNK-Fiocruz-FIO00226
RECORD_TITLE: Rhoifolin; LC-ESI-QTOF; MS2; [M-H]-; CE: 20eV
DATE: 2016.01.19 (Created 2013.04.08)
AUTHORS: Markus Kohlhoff, Natural Product Chemistry Lab (CPqRR/FIOCRUZ, Brazil)
LICENSE: CC BY-NC
COPYRIGHT: (c) Research Center Rene Rachou (FIOCRUZ, Brazil)
COMMENT: [Raw Data] CB080_Rhoifolin_neg_20eV_000023.txt
CH$NAME: Rhoifolin
CH$COMPOUND_CLASS: Natural Product; Flavonoid
CH$FORMULA: C27H30O14
CH$EXACT_MASS: 578.16356
CH$SMILES: O([C@H]5C)[C@H]([C@@H]([C@@H]([C@H]5O)O)O)O[C@H]([C@H]4O)[C@@H](O[C@@H]([C@H]4O)CO)Oc(c3)cc(O1)c(c3O)C(C=C(c(c2)ccc(O)c2)1)=O
CH$IUPAC: InChI=1S/C27H30O14/c1-10-20(32)22(34)24(36)26(37-10)41-25-23(35)21(33)18(9-28)40-27(25)38-13-6-14(30)19-15(31)8-16(39-17(19)7-13)11-2-4-12(29)5-3-11/h2-8,10,18,20-30,32-36H,9H2,1H3/t10-,18+,20-,21+,22+,23-,24+,25+,26-,27+/m0/s1
CH$LINK: CAS 17306-46-6
CH$LINK: CHEBI CHEBI:31227
CH$LINK: KEGG C12627
CH$LINK: KNAPSACK C00004157
CH$LINK: NIKKAJI J13.923H
CH$LINK: PUBCHEM CID:5282150
CH$LINK: INCHIKEY RPMNUQRUHXIGHK-PYXJVEIZSA-N
CH$LINK: COMPTOX DTXSID10938284
AC$INSTRUMENT: maXis (Bruker Daltonics)
AC$INSTRUMENT_TYPE: LC-ESI-QTOF
AC$MASS_SPECTROMETRY: MS_TYPE MS2
AC$MASS_SPECTROMETRY: ION_MODE NEGATIVE
AC$MASS_SPECTROMETRY: CAPILLARY_VOLTAGE 4500 V
AC$MASS_SPECTROMETRY: COLLISION_ENERGY 20 eV
AC$MASS_SPECTROMETRY: COLLISION_GAS Nitrogen
AC$MASS_SPECTROMETRY: DESOLVATION_GAS_FLOW 8 l/min
AC$MASS_SPECTROMETRY: DESOLVATION_TEMPERATURE 200 C
AC$MASS_SPECTROMETRY: FRAGMENTATION_MODE CID
AC$MASS_SPECTROMETRY: IONIZATION ESI
AC$MASS_SPECTROMETRY: NEBULIZER 2.0 bar
AC$CHROMATOGRAPHY: COLUMN_NAME Waters Atlantis C18 3um 2.1x150mm
AC$CHROMATOGRAPHY: COLUMN_TEMPERATURE RT
AC$CHROMATOGRAPHY: FLOW_GRADIENT 1-100%B in 10min
AC$CHROMATOGRAPHY: FLOW_RATE 200ul/min
AC$CHROMATOGRAPHY: SOLVENT A water with 0.1% formic acid
AC$CHROMATOGRAPHY: SOLVENT B methanol with 0.1% formic acid
MS$FOCUSED_ION: BASE_PEAK 577.156900
MS$FOCUSED_ION: PRECURSOR_TYPE [M-H]-
PK$SPLASH: splash10-004i-0000090000-6e0f10114b474becc508
PK$NUM_PEAK: 5
PK$PEAK: m/z int. rel.int.
  269.046300 196.000000 15
  577.156900 13371.000000 999
  578.160200 4126.000000 308
  579.162800 1058.000000 79
  580.166000 165.000000 12
//
