ACCESSION: MSBNK-Fiocruz-FIO01090
RECORD_TITLE: Berberine; LC-ESI-QTOF; MS2; [M+H]+; CE: 20eV
DATE: 2020.06.10
AUTHORS: Markus Kohlhoff, Natural Product Chemistry Lab (FIOCRUZ Minas, Brazil)
LICENSE: CC BY
COPYRIGHT: (c) Institute Rene Rachou (FIOCRUZ Minas, Brazil)
COMMENT: [Raw Data] CBA98_Berberine_pos_20eV.txt
CH$NAME: Berberine
CH$COMPOUND_CLASS: Natural Product; Alkaloids
CH$FORMULA: [C20H18NO4]+
CH$EXACT_MASS: 336.12358
CH$SMILES: COc(c5)c(OC)c(c4)c(c5)cc([n+1]34)c(c1)c(CC3)cc(O2)c(OC2)1
CH$IUPAC: InChI=1S/C20H18NO4/c1-22-17-4-3-12-7-16-14-9-19-18(24-11-25-19)8-13(14)5-6-21(16)10-15(12)20(17)23-2/h3-4,7-10H,5-6,11H2,1-2H3/q+1
CH$LINK: KEGG C00757
CH$LINK: INCHIKEY YBHILYKTIRIUTE-UHFFFAOYSA-N
AC$INSTRUMENT: maXis (Bruker Daltonics)
AC$INSTRUMENT_TYPE: LC-ESI-QTOF
AC$MASS_SPECTROMETRY: MS_TYPE MS2
AC$MASS_SPECTROMETRY: ION_MODE POSITIVE
AC$MASS_SPECTROMETRY: CAPILLARY_VOLTAGE 4500 V
AC$MASS_SPECTROMETRY: COLLISION_ENERGY 20 eV
AC$MASS_SPECTROMETRY: COLLISION_GAS Nitrogen
AC$MASS_SPECTROMETRY: DESOLVATION_GAS_FLOW 8 l/min
AC$MASS_SPECTROMETRY: DESOLVATION_TEMPERATURE 200 C
AC$MASS_SPECTROMETRY: FRAGMENTATION_METHOD CID
AC$MASS_SPECTROMETRY: IONIZATION ESI
AC$MASS_SPECTROMETRY: NEBULIZER 3.0 bar
AC$CHROMATOGRAPHY: COLUMN_NAME Shimadzu Shim-Pack XR-ODS III; C18; 2.2um; 80A; 2.0x150mm
AC$CHROMATOGRAPHY: COLUMN_TEMPERATURE 40 C
AC$CHROMATOGRAPHY: FLOW_GRADIENT 5-100%B in 10min
AC$CHROMATOGRAPHY: FLOW_RATE 400ul/min
AC$CHROMATOGRAPHY: SOLVENT A water with 0.1% formic acid
AC$CHROMATOGRAPHY: SOLVENT B acetonitrile with 0.1% formic acid
MS$FOCUSED_ION: PRECURSOR_TYPE [M+H]+
MS$DATA_PROCESSING: FIND_PEAK centroid
MS$DATA_PROCESSING: WHOLE Mass++ 2.7.5
PK$SPLASH: splash10-000i-0009000000-fa1649a48a28dfb9f89b
PK$NUM_PEAK: 9
PK$PEAK: m/z int. rel.int.
  292.097400 5905.000000 19
  320.092100 6502.000000 21
  321.099800 31145.000000 99
  322.103000 6190.000000 20
  336.123600 314348.000000 999
  336.164700 5095.000000 16
  336.193500 4163.000000 13
  337.126600 59443.000000 189
  338.129200 8726.000000 28
//
