ACCESSION: MSBNK-Fiocruz-FIO00943
RECORD_TITLE: Curcumin; LC-ESI-QTOF; MS2; [M-H]-; CE: 10eV
DATE: 2020.06.09
AUTHORS: Markus Kohlhoff, Natural Product Chemistry Lab (FIOCRUZ Minas, Brazil)
LICENSE: CC BY
COPYRIGHT: (c) Institute Rene Rachou (FIOCRUZ Minas, Brazil)
COMMENT: [Raw Data] CBA71_Curcumin_neg_10eV.txt
CH$NAME: Curcumin
CH$COMPOUND_CLASS: Natural Product; Phenols
CH$FORMULA: C21H20O6
CH$EXACT_MASS: 368.12599
CH$SMILES: COc(c1)c(O)ccc(C=CC(O)=CC(=O)C=Cc(c2)cc(OC)c(O)c2)1
CH$IUPAC: InChI=1S/C21H20O6/c1-26-20-11-14(5-9-18(20)24)3-7-16(22)13-17(23)8-4-15-6-10-19(25)21(12-15)27-2/h3-13,22,24-25H,1-2H3/b7-3+,8-4+,16-13-
CH$LINK: KEGG C10443
CH$LINK: INCHIKEY ZIUSSTSXXLLKKK-KOBPDPAPSA-N
AC$INSTRUMENT: maXis (Bruker Daltonics)
AC$INSTRUMENT_TYPE: LC-ESI-QTOF
AC$MASS_SPECTROMETRY: MS_TYPE MS2
AC$MASS_SPECTROMETRY: ION_MODE NEGATIVE
AC$MASS_SPECTROMETRY: CAPILLARY_VOLTAGE 4500 V
AC$MASS_SPECTROMETRY: COLLISION_ENERGY 10 eV
AC$MASS_SPECTROMETRY: COLLISION_GAS Nitrogen
AC$MASS_SPECTROMETRY: DESOLVATION_GAS_FLOW 8 l/min
AC$MASS_SPECTROMETRY: DESOLVATION_TEMPERATURE 200 C
AC$MASS_SPECTROMETRY: FRAGMENTATION_METHOD CID
AC$MASS_SPECTROMETRY: IONIZATION ESI
AC$MASS_SPECTROMETRY: NEBULIZER 3.0 bar
AC$CHROMATOGRAPHY: COLUMN_NAME Shimadzu Shim-Pack XR-ODS III; C18; 2.2um; 80A; 2.0x150mm
AC$CHROMATOGRAPHY: COLUMN_TEMPERATURE 40 C
AC$CHROMATOGRAPHY: FLOW_GRADIENT 5-100%B in 10min
AC$CHROMATOGRAPHY: FLOW_RATE 400ul/min
AC$CHROMATOGRAPHY: SOLVENT A water with 0.1% formic acid
AC$CHROMATOGRAPHY: SOLVENT B acetonitrile with 0.1% formic acid
MS$FOCUSED_ION: PRECURSOR_TYPE [M-H]-
MS$DATA_PROCESSING: FIND_PEAK centroid
MS$DATA_PROCESSING: WHOLE Mass++ 2.7.5
PK$SPLASH: splash10-014i-0139000000-053fd1265a96007084c5
PK$NUM_PEAK: 10
PK$PEAK: m/z int. rel.int.
  134.037700 3956.000000 14
  149.061500 23584.000000 86
  173.061700 12445.000000 45
  217.051600 113172.000000 413
  218.055000 15094.000000 55
  219.065600 2769.000000 10
  367.118400 273676.000000 999
  367.183900 3328.000000 12
  368.121700 68756.000000 251
  369.129200 12362.000000 45
//
