ACCESSION: MSBNK-Fiocruz-FIO00481
RECORD_TITLE: Cinchonine; LC-ESI-QTOF; MS2; [M+H]+; CE: 40eV
DATE: 2016.01.19 (Created 2013.03.13)
AUTHORS: Markus Kohlhoff, Natural Product Chemistry Lab (CPqRR/FIOCRUZ, Brazil)
LICENSE: CC BY-NC
COPYRIGHT: (c) Research Center Rene Rachou (FIOCRUZ, Brazil)
COMMENT: [Raw Data] CB216_Cinchonine_pos_40eV_CB000075.txt
CH$NAME: Cinchonine
CH$COMPOUND_CLASS: Natural Product; Alkaloid
CH$FORMULA: C19H22N2O
CH$EXACT_MASS: 294.17321
CH$SMILES: C=C[C@@H](C3)[C@@H](C4)C[C@@]([H])(N(C4)3)[C@@H](O)c(c1)c(c2)c(ccc2)nc1
CH$IUPAC: InChI=1S/C19H22N2O/c1-2-13-12-21-10-8-14(13)11-18(21)19(22)16-7-9-20-17-6-4-3-5-15(16)17/h2-7,9,13-14,18-19,22H,1,8,10-12H2/t13-,14-,18+,19-/m0/s1
CH$LINK: CAS 118-10-5
CH$LINK: CHEBI CHEBI:27509
CH$LINK: KEGG C06528
CH$LINK: NIKKAJI J2.475I
CH$LINK: PUBCHEM CID:90454
CH$LINK: INCHIKEY KMPWYEUPVWOPIM-QAMTZSDWSA-N
CH$LINK: COMPTOX DTXSID6045082
AC$INSTRUMENT: maXis (Bruker Daltonics)
AC$INSTRUMENT_TYPE: LC-ESI-QTOF
AC$MASS_SPECTROMETRY: MS_TYPE MS2
AC$MASS_SPECTROMETRY: ION_MODE POSITIVE
AC$MASS_SPECTROMETRY: CAPILLARY_VOLTAGE 4500 V
AC$MASS_SPECTROMETRY: COLLISION_ENERGY 40 eV
AC$MASS_SPECTROMETRY: COLLISION_GAS Nitrogen
AC$MASS_SPECTROMETRY: DESOLVATION_GAS_FLOW 8 l/min
AC$MASS_SPECTROMETRY: DESOLVATION_TEMPERATURE 200 C
AC$MASS_SPECTROMETRY: FRAGMENTATION_MODE CID
AC$MASS_SPECTROMETRY: IONIZATION ESI
AC$MASS_SPECTROMETRY: NEBULIZER 2.0 bar
AC$CHROMATOGRAPHY: COLUMN_NAME Waters Atlantis C18 3um 2.1x150mm
AC$CHROMATOGRAPHY: COLUMN_TEMPERATURE RT
AC$CHROMATOGRAPHY: FLOW_GRADIENT 1-100%B in 10min
AC$CHROMATOGRAPHY: FLOW_RATE 200ul/min
AC$CHROMATOGRAPHY: SOLVENT A water with 0.1% formic acid
AC$CHROMATOGRAPHY: SOLVENT B methanol with 0.1% formic acid
MS$FOCUSED_ION: BASE_PEAK 295.180600
MS$FOCUSED_ION: PRECURSOR_TYPE [M+H]+
PK$SPLASH: splash10-05pp-0940000000-7d1da979c71fc72791d6
PK$NUM_PEAK: 110
PK$PEAK: m/z int. rel.int.
  79.053500 315.000000 31
  81.068900 1180.000000 118
  82.064800 325.000000 32
  91.053800 234.000000 23
  93.069700 304.000000 30
  94.065400 259.000000 26
  95.074000 390.000000 39
  96.080500 411.000000 41
  105.069900 563.000000 56
  106.065500 342.000000 34
  107.085800 416.000000 42
  108.080800 1457.000000 146
  109.087000 238.000000 24
  110.096600 868.000000 87
  115.054500 366.000000 37
  117.070200 150.000000 15
  118.065800 130.000000 13
  120.081000 541.000000 54
  122.096400 888.000000 89
  124.112000 650.000000 65
  128.049700 1538.000000 154
  129.056700 501.000000 50
  130.065400 7238.000000 723
  131.068700 629.000000 63
  132.081000 674.000000 67
  134.096600 2379.000000 238
  135.103300 568.000000 57
  136.112200 1264.000000 126
  137.116000 138.000000 14
  138.128000 229.000000 23
  142.065400 8262.000000 825
  143.072400 3593.000000 359
  144.080400 2381.000000 238
  145.084300 231.000000 23
  146.060100 127.000000 13
  154.065300 4327.000000 432
  155.071500 860.000000 86
  156.080900 8103.000000 810
  157.085100 876.000000 88
  158.060200 911.000000 91
  159.067800 1865.000000 186
  160.072500 207.000000 21
  166.065200 1545.000000 154
  167.072900 3365.000000 336
  168.080800 8190.000000 818
  169.077800 1938.000000 194
  170.096200 725.000000 72
  171.092100 479.000000 48
  172.075700 2395.000000 239
  173.079900 255.000000 25
  179.073200 125.000000 12
  180.080700 3489.000000 349
  181.077200 1588.000000 159
  182.095800 1148.000000 115
  183.091600 1030.000000 103
  184.075600 2898.000000 290
  185.081100 530.000000 53
  186.090200 197.000000 20
  191.073000 238.000000 24
  192.080500 763.000000 76
  193.088200 781.000000 78
  194.096100 1894.000000 189
  195.093000 840.000000 84
  196.111900 1779.000000 178
  197.107600 1477.000000 148
  198.110900 221.000000 22
  199.087000 146.000000 15
  204.080600 821.000000 82
  205.088000 545.000000 54
  206.096000 1470.000000 147
  207.097400 368.000000 37
  208.111600 933.000000 93
  209.107800 746.000000 75
  210.091600 199.000000 20
  210.126300 318.000000 32
  212.107100 184.000000 18
  214.122800 189.000000 19
  217.088400 261.000000 26
  218.096000 861.000000 86
  219.102500 719.000000 72
  220.111500 831.000000 83
  221.107500 1554.000000 155
  222.114700 1229.000000 123
  223.122600 1488.000000 149
  224.143100 333.000000 33
  230.096100 130.000000 13
  231.103300 162.000000 16
  232.111800 526.000000 53
  233.113400 239.000000 24
  234.127500 1840.000000 184
  235.123400 2218.000000 222
  236.130000 882.000000 88
  237.145100 153.000000 15
  238.158200 197.000000 20
  246.127700 274.000000 27
  247.123600 339.000000 34
  248.142800 817.000000 82
  249.139800 438.000000 44
  250.157800 113.000000 11
  252.138100 486.000000 49
  261.138000 120.000000 12
  266.154000 412.000000 41
  267.157500 122.000000 12
  275.154600 124.000000 12
  277.169900 7591.000000 758
  278.173100 1372.000000 137
  279.176300 118.000000 12
  295.180600 9999.000000 999
  296.183800 1802.000000 180
  297.186900 243.000000 24
//
