ACCESSION: MSBNK-Fiocruz-FIO00551
RECORD_TITLE: Cochlioquinone A; LC-ESI-QTOF; MS2; [M-H]-; CE: 40eV
DATE: 2016.01.19 (Created 2013.04.08)
AUTHORS: Markus Kohlhoff, Natural Product Chemistry Lab (CPqRR/FIOCRUZ, Brazil)
LICENSE: CC BY-NC
COPYRIGHT: (c) Research Center Rene Rachou (FIOCRUZ, Brazil)
COMMENT: [Raw Data] CB284_Cochlioquinone-A_neg_40eV_000047.txt
CH$NAME: Cochlioquinone A
CH$COMPOUND_CLASS: Natural Product
CH$FORMULA: C30H44O8
CH$EXACT_MASS: 532.30362
CH$SMILES: [C@@H]([C@@H](C)c(c4=O)cc(c(c41)C(C([C@@]32C)C([C@@H](C)C[C@]([H])2O[C@H](CC3)[C@](C)(C)O)O1)O)=O)([C@@H](C)CC)OC(C)=O
CH$IUPAC: InChI=1S/C30H44O8/c1-9-14(2)26(36-17(5)31)16(4)18-13-19(32)22-25(34)23-27(38-28(22)24(18)33)15(3)12-21-30(23,8)11-10-20(37-21)29(6,7)35/h13-16,20-21,23,25-27,34-35H,9-12H2,1-8H3/t14-,15-,16-,20+,21+,23?,25?,26+,27?,30-/m0/s1
CH$LINK: CAS 32450-25-2
CH$LINK: CHEMSPIDER 476820
CH$LINK: PUBCHEM 547841
CH$LINK: INCHIKEY MERDNJKHMKQNFC-PGCPQKQNSA-N
AC$INSTRUMENT: maXis (Bruker Daltonics)
AC$INSTRUMENT_TYPE: LC-ESI-QTOF
AC$MASS_SPECTROMETRY: MS_TYPE MS2
AC$MASS_SPECTROMETRY: ION_MODE NEGATIVE
AC$MASS_SPECTROMETRY: CAPILLARY_VOLTAGE 4500 V
AC$MASS_SPECTROMETRY: COLLISION_ENERGY 40 eV
AC$MASS_SPECTROMETRY: COLLISION_GAS Nitrogen
AC$MASS_SPECTROMETRY: DESOLVATION_GAS_FLOW 8 l/min
AC$MASS_SPECTROMETRY: DESOLVATION_TEMPERATURE 200 C
AC$MASS_SPECTROMETRY: FRAGMENTATION_METHOD CID
AC$MASS_SPECTROMETRY: IONIZATION ESI
AC$MASS_SPECTROMETRY: NEBULIZER 2.0 bar
AC$CHROMATOGRAPHY: COLUMN_NAME Waters Atlantis C18 3um 2.1x150mm
AC$CHROMATOGRAPHY: COLUMN_TEMPERATURE RT
AC$CHROMATOGRAPHY: FLOW_GRADIENT 1-100%B in 10min
AC$CHROMATOGRAPHY: FLOW_RATE 200ul/min
AC$CHROMATOGRAPHY: SOLVENT A water with 0.1% formic acid
AC$CHROMATOGRAPHY: SOLVENT B methanol with 0.1% formic acid
MS$FOCUSED_ION: BASE_PEAK 471.275900
MS$FOCUSED_ION: PRECURSOR_TYPE [M-H]-
PK$SPLASH: splash10-00di-0000910000-213d602a6d37ffc65896
PK$NUM_PEAK: 17
PK$PEAK: m/z int. rel.int.
  247.098500 133.000000 10
  249.109800 175.000000 13
  376.192300 153.000000 11
  387.218400 355.000000 27
  403.211900 250.000000 19
  414.205300 181.000000 14
  455.282200 399.000000 30
  471.275900 13306.000000 999
  472.279500 4222.000000 317
  473.289500 1683.000000 126
  474.294200 408.000000 31
  489.288100 483.000000 36
  490.289200 322.000000 24
  531.297100 2686.000000 202
  532.300800 859.000000 64
  533.311100 542.000000 41
  534.314500 191.000000 14
//
