ACCESSION: MSBNK-Fiocruz-FIO00362
RECORD_TITLE: 3-(5-Acetyl-2-furyl)-5-methoxy-2-benzofuran-1(3H)-one; LC-ESI-QTOF; MS2; [M-H]-; CE: 10eV
DATE: 2016.01.19 (Created 2013.04.08)
AUTHORS: Markus Kohlhoff, Natural Product Chemistry Lab (CPqRR/FIOCRUZ, Brazil)
LICENSE: CC BY-NC
COPYRIGHT: (c) Research Center Rene Rachou (FIOCRUZ, Brazil)
COMMENT: [Raw Data] CB152_3-(5-Acetyl-2-furyl)-5-methoxy-2-benzofuran-1(3H)-one_neg_10eV_000030.txt
CH$NAME: 3-(5-Acetyl-2-furyl)-5-methoxy-2-benzofuran-1(3H)-one
CH$COMPOUND_CLASS: unknown
CH$FORMULA: C15H12O5
CH$EXACT_MASS: 272.06847
CH$SMILES: COc(c3)cc(c(c3)2)C(OC(=O)2)c(c1)oc(C(C)=O)c1
CH$IUPAC: InChI=1S/C15H12O5/c1-8(16)12-5-6-13(19-12)14-11-7-9(18-2)3-4-10(11)15(17)20-14/h3-7,14H,1-2H3
CH$LINK: CAS 166448-14-2
CH$LINK: CHEMSPIDER 23133148
CH$LINK: INCHIKEY KTVRYSLCSNORPS-UHFFFAOYSA-N
AC$INSTRUMENT: maXis (Bruker Daltonics)
AC$INSTRUMENT_TYPE: LC-ESI-QTOF
AC$MASS_SPECTROMETRY: MS_TYPE MS2
AC$MASS_SPECTROMETRY: ION_MODE NEGATIVE
AC$MASS_SPECTROMETRY: CAPILLARY_VOLTAGE 4500 V
AC$MASS_SPECTROMETRY: COLLISION_ENERGY 10 eV
AC$MASS_SPECTROMETRY: COLLISION_GAS Nitrogen
AC$MASS_SPECTROMETRY: DESOLVATION_GAS_FLOW 8 l/min
AC$MASS_SPECTROMETRY: DESOLVATION_TEMPERATURE 200 C
AC$MASS_SPECTROMETRY: FRAGMENTATION_METHOD CID
AC$MASS_SPECTROMETRY: IONIZATION ESI
AC$MASS_SPECTROMETRY: NEBULIZER 2.0 bar
AC$CHROMATOGRAPHY: COLUMN_NAME Waters Atlantis C18 3um 2.1x150mm
AC$CHROMATOGRAPHY: COLUMN_TEMPERATURE RT
AC$CHROMATOGRAPHY: FLOW_GRADIENT 1-100%B in 10min
AC$CHROMATOGRAPHY: FLOW_RATE 200ul/min
AC$CHROMATOGRAPHY: SOLVENT A water with 0.1% formic acid
AC$CHROMATOGRAPHY: SOLVENT B methanol with 0.1% formic acid
MS$FOCUSED_ION: BASE_PEAK 271.061400
MS$FOCUSED_ION: PRECURSOR_TYPE [M-H]-
PK$SPLASH: splash10-00di-0090000000-ebb6250c77ef4c78ec35
PK$NUM_PEAK: 11
PK$PEAK: m/z int. rel.int.
  199.076500 278.000000 45
  212.048000 485.000000 78
  227.071200 546.000000 88
  228.075500 129.000000 21
  229.050700 106.000000 17
  243.066500 632.000000 101
  244.070000 114.000000 18
  256.038100 234.000000 38
  271.061400 6227.000000 999
  272.064400 961.000000 154
  273.066800 148.000000 24
//
