ACCESSION: MSBNK-Fiocruz-FIO01079
RECORD_TITLE: Xanthohumol; LC-ESI-QTOF; MS2; [M+H]+; CE: 10eV
DATE: 2020.06.09
AUTHORS: Markus Kohlhoff, Natural Product Chemistry Lab (FIOCRUZ Minas, Brazil)
LICENSE: CC BY
COPYRIGHT: (c) Institute Rene Rachou (FIOCRUZ Minas, Brazil)
COMMENT: [Raw Data] CBA95_Xanthohumol_pos_10eV.txt
CH$NAME: Xanthohumol
CH$COMPOUND_CLASS: Natural Product; Flavonoids
CH$FORMULA: C21H22O5
CH$EXACT_MASS: 354.14672
CH$SMILES: CC(C)=CCc(c(O)1)c(O)c(C(=O)C=Cc(c2)ccc(O)c2)c(OC)c1
CH$IUPAC: InChI=1S/C21H22O5/c1-13(2)4-10-16-18(24)12-19(26-3)20(21(16)25)17(23)11-7-14-5-8-15(22)9-6-14/h4-9,11-12,22,24-25H,10H2,1-3H3/b11-7+
CH$LINK: KEGG C16417
CH$LINK: INCHIKEY ORXQGKIUCDPEAJ-YRNVUSSQSA-N
AC$INSTRUMENT: maXis (Bruker Daltonics)
AC$INSTRUMENT_TYPE: LC-ESI-QTOF
AC$MASS_SPECTROMETRY: MS_TYPE MS2
AC$MASS_SPECTROMETRY: ION_MODE POSITIVE
AC$MASS_SPECTROMETRY: CAPILLARY_VOLTAGE 4500 V
AC$MASS_SPECTROMETRY: COLLISION_ENERGY 10 eV
AC$MASS_SPECTROMETRY: COLLISION_GAS Nitrogen
AC$MASS_SPECTROMETRY: DESOLVATION_GAS_FLOW 8 l/min
AC$MASS_SPECTROMETRY: DESOLVATION_TEMPERATURE 200 C
AC$MASS_SPECTROMETRY: FRAGMENTATION_METHOD CID
AC$MASS_SPECTROMETRY: IONIZATION ESI
AC$MASS_SPECTROMETRY: NEBULIZER 3.0 bar
AC$CHROMATOGRAPHY: COLUMN_NAME Shimadzu Shim-Pack XR-ODS III; C18; 2.2um; 80A; 2.0x150mm
AC$CHROMATOGRAPHY: COLUMN_TEMPERATURE 40 C
AC$CHROMATOGRAPHY: FLOW_GRADIENT 5-100%B in 10min
AC$CHROMATOGRAPHY: FLOW_RATE 400ul/min
AC$CHROMATOGRAPHY: SOLVENT A water with 0.1% formic acid
AC$CHROMATOGRAPHY: SOLVENT B acetonitrile with 0.1% formic acid
MS$FOCUSED_ION: PRECURSOR_TYPE [M+H]+
MS$DATA_PROCESSING: FIND_PEAK centroid
MS$DATA_PROCESSING: WHOLE Mass++ 2.7.5
PK$SPLASH: splash10-0a4j-0069000000-6f1e1432f7abf5bab47e
PK$NUM_PEAK: 13
PK$PEAK: m/z int. rel.int.
  179.034600 74855.000000 134
  180.037900 6754.000000 12
  235.098200 8108.000000 14
  299.093500 559326.000000 999
  299.132300 13764.000000 25
  299.159300 13068.000000 23
  300.096600 98199.000000 175
  301.099000 12833.000000 23
  355.155500 529213.000000 945
  355.197700 12788.000000 23
  355.227300 12058.000000 22
  356.158600 111427.000000 199
  357.161000 17556.000000 31
//
