ACCESSION: MSBNK-Fiocruz-FIO00133
RECORD_TITLE: Hesperetin; LC-ESI-QTOF; MS2; [M+H]+; CE: 40eV
DATE: 2016.01.19 (Created 2013.03.13)
AUTHORS: Markus Kohlhoff, Natural Product Chemistry Lab (CPqRR/FIOCRUZ, Brazil)
LICENSE: CC BY-NC
COPYRIGHT: (c) Research Center Rene Rachou (FIOCRUZ, Brazil)
COMMENT: [Raw Data] CB046_Hesperetin_pos_40eV_CB000021.txt
CH$NAME: Hesperetin
CH$COMPOUND_CLASS: Natural Product; Flavonoid
CH$FORMULA: C16H14O6
CH$EXACT_MASS: 302.07904
CH$SMILES: COc(c3)c(O)cc(c3)[C@H](C1)Oc(c2)c(c(O)cc(O)2)C(=O)1
CH$IUPAC: InChI=1S/C16H14O6/c1-21-13-3-2-8(4-10(13)18)14-7-12(20)16-11(19)5-9(17)6-15(16)22-14/h2-6,14,17-19H,7H2,1H3/t14-/m0/s1
CH$LINK: CAS 520-33-2
CH$LINK: CHEBI CHEBI:28230
CH$LINK: KEGG C01709
CH$LINK: KNAPSACK C00000968
CH$LINK: NIKKAJI J9.235E
CH$LINK: PUBCHEM CID:72281
CH$LINK: INCHIKEY AIONOLUJZLIMTK-AWEZNQCLSA-N
CH$LINK: COMPTOX DTXSID4022319
AC$INSTRUMENT: maXis (Bruker Daltonics)
AC$INSTRUMENT_TYPE: LC-ESI-QTOF
AC$MASS_SPECTROMETRY: MS_TYPE MS2
AC$MASS_SPECTROMETRY: ION_MODE POSITIVE
AC$MASS_SPECTROMETRY: CAPILLARY_VOLTAGE 4500 V
AC$MASS_SPECTROMETRY: COLLISION_ENERGY 40 eV
AC$MASS_SPECTROMETRY: COLLISION_GAS Nitrogen
AC$MASS_SPECTROMETRY: DESOLVATION_GAS_FLOW 8 l/min
AC$MASS_SPECTROMETRY: DESOLVATION_TEMPERATURE 200 C
AC$MASS_SPECTROMETRY: FRAGMENTATION_MODE CID
AC$MASS_SPECTROMETRY: IONIZATION ESI
AC$MASS_SPECTROMETRY: NEBULIZER 2.0 bar
AC$CHROMATOGRAPHY: COLUMN_NAME Waters Atlantis C18 3um 2.1x150mm
AC$CHROMATOGRAPHY: COLUMN_TEMPERATURE RT
AC$CHROMATOGRAPHY: FLOW_GRADIENT 1-100%B in 10min
AC$CHROMATOGRAPHY: FLOW_RATE 200ul/min
AC$CHROMATOGRAPHY: SOLVENT A water with 0.1% formic acid
AC$CHROMATOGRAPHY: SOLVENT B methanol with 0.1% formic acid
MS$FOCUSED_ION: BASE_PEAK 153.018400
MS$FOCUSED_ION: PRECURSOR_TYPE [M+H]+
PK$SPLASH: splash10-0udi-0900000000-8857224e3cadbbf71a7d
PK$NUM_PEAK: 14
PK$PEAK: m/z int. rel.int.
  117.033600 11384.000000 77
  123.044100 1938.000000 13
  134.036300 3776.000000 25
  135.043800 2308.000000 16
  137.059700 3659.000000 25
  145.028400 9886.000000 67
  149.059800 18256.000000 123
  150.063000 1563.000000 11
  153.018400 148251.000000 999
  154.021600 8179.000000 55
  163.039000 5960.000000 40
  177.054500 19496.000000 131
  178.057900 1829.000000 12
  179.033800 3642.000000 25
//
