ACCESSION: MSBNK-Fiocruz-FIO00866
RECORD_TITLE: Cytochalasin; LC-ESI-QTOF; MS2; [M+H]+; CE: 50eV
DATE: 2019.01.15
AUTHORS: Markus Kohlhoff, Natural Product Chemistry Lab (FIOCRUZ Minas, Brazil)
LICENSE: CC BY
COPYRIGHT: (c) Institute Rene Rachou (FIOCRUZ Minas, Brazil)
COMMENT: [Raw Data] CBA59_Cytochalasin-D_pos_50eV.txt
CH$NAME: Cytochalasin
CH$COMPOUND_CLASS: Natural Product; Alkaloids
CH$FORMULA: C30H37NO6
CH$EXACT_MASS: 507.26209
CH$SMILES: C(N3)(=O)C(C1OC(C)=O)(C(C3Cc(c4)cccc4)2)C(C(O)C(C2C)=C)C=CCC(C)C(=O)C(C=C1)(C)O
CH$IUPAC: InChI=1S/C30H37NO6/c1-17-10-9-13-22-26(33)19(3)18(2)25-23(16-21-11-7-6-8-12-21)31-28(35)30(22,25)24(37-20(4)32)14-15-29(5,36)27(17)34/h6-9,11-15,17-18,22-26,33,36H,3,10,16H2,1-2,4-5H3,(H,31,35)/b13-9+,15-14-/t17?,18-,22-,23?,24+,25?,26-,29+,30?/m0/s1
CH$LINK: INCHIKEY SDZRWUKZFQQKKV-ASPDFWPSSA-N
AC$INSTRUMENT: maXis (Bruker Daltonics)
AC$INSTRUMENT_TYPE: LC-ESI-QTOF
AC$MASS_SPECTROMETRY: MS_TYPE MS2
AC$MASS_SPECTROMETRY: ION_MODE POSITIVE
AC$MASS_SPECTROMETRY: CAPILLARY_VOLTAGE 4500 V
AC$MASS_SPECTROMETRY: COLLISION_ENERGY 50 eV
AC$MASS_SPECTROMETRY: COLLISION_GAS Nitrogen
AC$MASS_SPECTROMETRY: DESOLVATION_GAS_FLOW 8 l/min
AC$MASS_SPECTROMETRY: DESOLVATION_TEMPERATURE 200 C
AC$MASS_SPECTROMETRY: FRAGMENTATION_METHOD CID
AC$MASS_SPECTROMETRY: IONIZATION ESI
AC$MASS_SPECTROMETRY: NEBULIZER 3.0 bar
AC$CHROMATOGRAPHY: COLUMN_NAME Shimadzu Shim-Pack XR-ODS III; C18; 2.2um; 80A; 2.0x150mm
AC$CHROMATOGRAPHY: COLUMN_TEMPERATURE 40 C
AC$CHROMATOGRAPHY: FLOW_GRADIENT 5-100%B in 10min
AC$CHROMATOGRAPHY: FLOW_RATE 400ul/min
AC$CHROMATOGRAPHY: SOLVENT A water with 0.1% formic acid
AC$CHROMATOGRAPHY: SOLVENT B acetonitrile with 0.1% formic acid
MS$FOCUSED_ION: PRECURSOR_TYPE [M+H]+
MS$DATA_PROCESSING: FIND_PEAK local
MS$DATA_PROCESSING: WHOLE Mass++ 2.7.4
PK$SPLASH: splash10-0abj-0891000000-c26e9913fdb73c0735ae
PK$NUM_PEAK: 200
PK$PEAK: m/z int. rel.int.
  91.054000 1452.000000 63
  105.069200 2085.000000 90
  107.084500 751.000000 33
  109.064100 495.000000 21
  111.079800 265.000000 11
  115.053900 400.000000 17
  117.069500 2624.000000 114
  118.071200 243.000000 11
  119.085100 3519.000000 153
  120.080300 23037.000000 999
  121.083600 1722.000000 75
  122.105000 242.000000 10
  123.080100 700.000000 30
  128.049000 1704.000000 74
  129.069300 1887.000000 82
  130.075100 320.000000 14
  131.085200 4201.000000 182
  132.080700 2304.000000 100
  133.064400 1346.000000 58
  133.100700 2449.000000 106
  134.096600 660.000000 29
  135.080200 3146.000000 136
  136.082800 362.000000 16
  141.069600 1203.000000 52
  142.076800 855.000000 37
  143.085300 5511.000000 239
  144.089000 773.000000 34
  145.100900 4491.000000 195
  146.060000 9395.000000 407
  147.080400 3141.000000 136
  148.077800 518.000000 22
  149.096100 5721.000000 248
  150.098000 514.000000 22
  153.069800 579.000000 25
  154.077200 383.000000 17
  155.085400 3792.000000 164
  156.091800 1412.000000 61
  157.101100 7095.000000 308
  158.060500 574.000000 25
  158.105300 820.000000 36
  159.080400 2956.000000 128
  160.076800 1019.000000 44
  161.096200 3237.000000 140
  162.092500 620.000000 27
  163.111300 1257.000000 55
  165.070100 1024.000000 44
  166.077600 842.000000 37
  167.085400 2685.000000 116
  168.092200 987.000000 43
  169.101100 7935.000000 344
  170.105600 1126.000000 49
  171.116800 3666.000000 159
  172.076000 2154.000000 93
  173.096200 2637.000000 114
  174.092500 746.000000 32
  175.111900 946.000000 41
  177.090200 290.000000 13
  178.084900 983.000000 43
  179.085600 2652.000000 115
  180.092900 1838.000000 80
  181.101100 5772.000000 250
  182.106900 1355.000000 59
  183.116700 4284.000000 186
  184.120900 767.000000 33
  185.096100 3828.000000 166
  186.092300 1526.000000 66
  187.111000 1229.000000 53
  189.091100 799.000000 35
  190.086300 466.000000 20
  191.086500 393.000000 17
  192.093800 1332.000000 58
  193.101100 4563.000000 198
  194.108400 2962.000000 128
  195.116800 9247.000000 401
  196.122000 2286.000000 99
  197.132300 2913.000000 126
  198.092000 2217.000000 96
  199.111600 2555.000000 111
  200.107800 1842.000000 80
  201.127200 467.000000 20
  202.086500 739.000000 32
  203.087400 558.000000 24
  204.138300 805.000000 35
  205.101100 1207.000000 52
  206.108800 2256.000000 98
  207.116800 5919.000000 257
  208.124300 4739.000000 206
  209.132500 11206.000000 486
  210.136600 2046.000000 89
  211.147900 2227.000000 97
  212.108100 2042.000000 89
  213.127100 1775.000000 77
  214.123700 1340.000000 58
  215.106000 430.000000 19
  217.101500 1155.000000 50
  218.108900 1764.000000 76
  219.116500 1982.000000 86
  220.124400 2715.000000 118
  221.132200 5065.000000 220
  222.139600 4678.000000 203
  223.147600 4655.000000 202
  224.115300 1681.000000 73
  225.126900 2620.000000 114
  226.124900 1738.000000 75
  227.143200 2398.000000 104
  228.138800 3974.000000 172
  229.142600 712.000000 31
  230.110300 549.000000 24
  231.117100 915.000000 40
  232.124500 2685.000000 116
  233.131700 2808.000000 122
  234.138700 1553.000000 67
  235.147900 4068.000000 176
  236.119100 4772.000000 207
  237.163800 10465.000000 454
  238.123100 14162.000000 614
  239.126600 2564.000000 111
  240.140300 852.000000 37
  241.158100 864.000000 37
  243.117500 547.000000 24
  244.124500 371.000000 16
  245.132400 1250.000000 54
  246.136800 573.000000 25
  247.148300 5880.000000 255
  248.154200 2152.000000 93
  249.126500 1704.000000 74
  250.132700 3342.000000 145
  251.142600 3472.000000 151
  252.141800 1118.000000 48
  253.157900 944.000000 41
  254.118100 1438.000000 62
  255.174100 2101.000000 91
  256.133400 17294.000000 750
  257.136000 3178.000000 138
  258.138400 700.000000 30
  259.147800 555.000000 24
  260.147700 739.000000 32
  261.126600 925.000000 40
  262.125700 743.000000 32
  263.142800 2675.000000 116
  264.140700 1607.000000 70
  265.158700 8009.000000 347
  266.161900 1872.000000 81
  267.171800 578.000000 25
  268.133000 2359.000000 102
  269.136900 940.000000 41
  271.147900 731.000000 32
  273.163100 419.000000 18
  274.158700 406.000000 18
  275.143200 1109.000000 48
  276.147600 666.000000 29
  277.154800 517.000000 22
  278.154700 1988.000000 86
  279.159700 578.000000 25
  280.168900 545.000000 24
  281.134100 402.000000 17
  282.147900 714.000000 31
  283.168600 1285.000000 56
  286.161700 391.000000 17
  288.138800 1363.000000 59
  290.154700 1063.000000 46
  291.158000 402.000000 17
  292.169700 923.000000 40
  293.176700 895.000000 39
  294.150200 490.000000 21
  299.131500 376.000000 16
  300.138700 638.000000 28
  302.154400 837.000000 36
  303.160400 546.000000 24
  304.169900 641.000000 28
  306.148400 917.000000 40
  307.149800 488.000000 21
  310.160000 543.000000 24
  312.140500 388.000000 17
  314.154100 713.000000 31
  316.170500 544.000000 24
  318.185400 1000.000000 43
  320.164100 736.000000 32
  321.168500 548.000000 24
  322.171100 375.000000 16
  326.155300 449.000000 19
  328.169400 2931.000000 127
  329.174700 1028.000000 45
  330.183900 548.000000 24
  332.163800 476.000000 21
  346.180600 3268.000000 142
  347.184500 934.000000 41
  356.201600 470.000000 20
  370.217700 654.000000 28
  374.211500 367.000000 16
  384.232200 2435.000000 106
  385.236000 547.000000 24
  388.226600 708.000000 31
  389.230500 288.000000 12
  402.243300 2629.000000 114
  403.245900 707.000000 31
  412.226900 1196.000000 52
  413.229800 382.000000 17
  430.238400 1127.000000 49
  431.241800 412.000000 18
//
