ACCESSION: MSBNK-Fiocruz-FIO00678
RECORD_TITLE: Quinolinic acid; LC-ESI-QTOF; MS2; [M+H]+; CE: 30eV
DATE: 2016.01.19 (Created 2014.10.02)
AUTHORS: Markus Kohlhoff, Natural Product Chemistry Lab (CPqRR/FIOCRUZ, Brazil)
LICENSE: CC BY-NC
COPYRIGHT: (c) Research Center Rene Rachou (FIOCRUZ, Brazil)
COMMENT: [Raw Data] CBA15_Quinolinic-acid_pos_30eV_1-7_01_813.txt
CH$NAME: Quinolinic acid
CH$COMPOUND_CLASS: Natural Product; Amino acid metabolites
CH$FORMULA: C7H5NO4
CH$EXACT_MASS: 167.02186
CH$SMILES: OC(=O)c(c1)c(ncc1)C(O)=O
CH$IUPAC: InChI=1S/C7H5NO4/c9-6(10)4-2-1-3-8-5(4)7(11)12/h1-3H,(H,9,10)(H,11,12)
CH$LINK: CAS 89-00-9
CH$LINK: CHEBI CHEBI:16675
CH$LINK: CHEMSPIDER 1037
CH$LINK: KEGG C03722
CH$LINK: KNAPSACK C00007381
CH$LINK: NIKKAJI J4.298F
CH$LINK: PUBCHEM CID:1066
CH$LINK: INCHIKEY GJAWHXHKYYXBSV-UHFFFAOYSA-N
CH$LINK: COMPTOX DTXSID8041327
AC$INSTRUMENT: maXis (Bruker Daltonics)
AC$INSTRUMENT_TYPE: LC-ESI-QTOF
AC$MASS_SPECTROMETRY: MS_TYPE MS2
AC$MASS_SPECTROMETRY: ION_MODE POSITIVE
AC$MASS_SPECTROMETRY: CAPILLARY_VOLTAGE 4500 V
AC$MASS_SPECTROMETRY: COLLISION_ENERGY 30 eV
AC$MASS_SPECTROMETRY: COLLISION_GAS Nitrogen
AC$MASS_SPECTROMETRY: DESOLVATION_GAS_FLOW 8 l/min
AC$MASS_SPECTROMETRY: DESOLVATION_TEMPERATURE 200 C
AC$MASS_SPECTROMETRY: FRAGMENTATION_MODE CID
AC$MASS_SPECTROMETRY: IONIZATION ESI
AC$MASS_SPECTROMETRY: NEBULIZER 2.0 bar
AC$CHROMATOGRAPHY: COLUMN_NAME Shimadzu Shim-Pack C18 2.2um
AC$CHROMATOGRAPHY: COLUMN_TEMPERATURE 40 C
AC$CHROMATOGRAPHY: FLOW_GRADIENT 5-100%B in 12min
AC$CHROMATOGRAPHY: FLOW_RATE 200ul/min
AC$CHROMATOGRAPHY: SOLVENT A water with 0.1% formic acid
AC$CHROMATOGRAPHY: SOLVENT B acetonitrile with 0.1% formic acid
MS$FOCUSED_ION: PRECURSOR_TYPE [M+H]+
MS$DATA_PROCESSING: FIND_PEAK local
MS$DATA_PROCESSING: WHOLE Mass++ 2.7.2
PK$SPLASH: splash10-00di-2900000000-44254e622ab95d3e8de7
PK$NUM_PEAK: 10
PK$PEAK: m/z int. rel.int.
  78.032700 177.000000 98
  94.028300 554.000000 308
  96.044300 308.000000 171
  106.027900 278.000000 155
  112.039300 595.000000 331
  122.023800 1797.000000 999
  123.027900 140.000000 78
  124.038900 1324.000000 736
  140.033700 294.000000 163
  150.019100 152.000000 85
//
