ACCESSION: MSBNK-Fiocruz-FIO01041
RECORD_TITLE: Hexahydrocurcumin; LC-ESI-QTOF; MS2; [M+H]+; CE: 30eV
DATE: 2020.06.09
AUTHORS: Markus Kohlhoff, Natural Product Chemistry Lab (FIOCRUZ Minas, Brazil)
LICENSE: CC BY
COPYRIGHT: (c) Institute Rene Rachou (FIOCRUZ Minas, Brazil)
COMMENT: [Raw Data] CBA88_Hexahydrocurcum_pos_30eV.txt
CH$NAME: Hexahydrocurcumin
CH$COMPOUND_CLASS: Natural Product; Phenols
CH$FORMULA: C21H26O6
CH$EXACT_MASS: 374.17294
CH$SMILES: COc(c1)c(O)ccc(CCC(O)CC(=O)CCc(c2)cc(OC)c(O)c2)1
CH$IUPAC: InChI=1S/C21H26O6/c1-26-20-11-14(5-9-18(20)24)3-7-16(22)13-17(23)8-4-15-6-10-19(25)21(12-15)27-2/h5-6,9-12,16,22,24-25H,3-4,7-8,13H2,1-2H3
CH$LINK: KEGG C17826
CH$LINK: PUBCHEM CID:5318039
CH$LINK: INCHIKEY RSAHICAPUYTWHW-UHFFFAOYSA-N
AC$INSTRUMENT: maXis (Bruker Daltonics)
AC$INSTRUMENT_TYPE: LC-ESI-QTOF
AC$MASS_SPECTROMETRY: MS_TYPE MS2
AC$MASS_SPECTROMETRY: ION_MODE POSITIVE
AC$MASS_SPECTROMETRY: CAPILLARY_VOLTAGE 4500 V
AC$MASS_SPECTROMETRY: COLLISION_ENERGY 30 eV
AC$MASS_SPECTROMETRY: COLLISION_GAS Nitrogen
AC$MASS_SPECTROMETRY: DESOLVATION_GAS_FLOW 8 l/min
AC$MASS_SPECTROMETRY: DESOLVATION_TEMPERATURE 200 C
AC$MASS_SPECTROMETRY: FRAGMENTATION_MODE CID
AC$MASS_SPECTROMETRY: IONIZATION ESI
AC$MASS_SPECTROMETRY: NEBULIZER 3.0 bar
AC$CHROMATOGRAPHY: COLUMN_NAME Shimadzu Shim-Pack XR-ODS III; C18; 2.2um; 80A; 2.0x150mm
AC$CHROMATOGRAPHY: COLUMN_TEMPERATURE 40 C
AC$CHROMATOGRAPHY: FLOW_GRADIENT 5-100%B in 10min
AC$CHROMATOGRAPHY: FLOW_RATE 400ul/min
AC$CHROMATOGRAPHY: SOLVENT A water with 0.1% formic acid
AC$CHROMATOGRAPHY: SOLVENT B acetonitrile with 0.1% formic acid
MS$FOCUSED_ION: PRECURSOR_TYPE [M+H]+
MS$DATA_PROCESSING: FIND_PEAK centroid
MS$DATA_PROCESSING: WHOLE Mass++ 2.7.5
PK$SPLASH: splash10-000i-0900000000-fd6f32bf5cd88e528944
PK$NUM_PEAK: 18
PK$PEAK: m/z int. rel.int.
  122.031800 25841.000000 25
  131.046000 167565.000000 162
  132.049500 15319.000000 15
  137.057500 1033991.000000 999
  137.072700 33020.000000 32
  137.083800 24159.000000 23
  137.102100 20286.000000 20
  138.060700 83173.000000 80
  145.063200 78431.000000 76
  162.067000 16434.000000 16
  163.075200 225423.000000 218
  164.078600 23114.000000 22
  165.090600 29534.000000 29
  177.091600 146760.000000 142
  178.095100 17520.000000 17
  179.070900 91076.000000 88
  189.091900 11516.000000 11
  207.103000 12961.000000 13
//
