ACCESSION: MSBNK-Fukuyama_Univ-FU000302
RECORD_TITLE: rubusoside; LC-ESI-QQ; MS2; CE:40V; [M-H]-
DATE: 2016.01.19 (Created 2010.03.30, modified 2011.05.06)
AUTHORS: Matsuura F, Ohta M, Kittaka M, Faculty of Life Science and Biotechnology, Fukuyama University
LICENSE: CC BY-SA
PUBLICATION: Masaya Ohta, Shingo Sasa, Ai Inoue, Tatsuya Tamai, Isao Fujita, Koji Morita and Fumito Matsuura (2010) Characterization of Novel Steviol Glycosides from Leaves of
COMMENT: [Chemical] Source; leaves of Stevia rebaudiana Morita and Stevia rebaudiana Bertoni
CH$NAME: rubusoside
CH$COMPOUND_CLASS: Natural Product; Steviol glycoside
CH$FORMULA: C32H50O13
CH$EXACT_MASS: 642.32514
CH$SMILES: C(C1O)(O)C(C(OC(OC(C6)(C2)C(=C)CC(C3)2C(C6)([H])C(C4)(C(C(C)(C(=O)OC(O5)C(C(C(C(CO)5)O)O)O)CC4)([H])C3)C)1)CO)O
CH$IUPAC: InChI=1S/C32H50O13/c1-15-11-31-9-5-18-29(2,7-4-8-30(18,3)28(41)44-26-24(39)22(37)20(35)16(12-33)42-26)19(31)6-10-32(15,14-31)45-27-25(40)23(38)21(36)17(13-34)43-27/h16-27,33-40H,1,4-14H2,2-3H3/t16-,17-,18+,19+,20-,21-,22+,23+,24-,25-,26+,27+,29-,30-,31-,32+/m1/s1
CH$LINK: CHEMSPIDER 23334893
CH$LINK: INCHIKEY YWPVROCHNBYFTP-OSHKXICASA-N
AC$INSTRUMENT: 2695 HPLC Quadro Micro API, Waters
AC$INSTRUMENT_TYPE: LC-ESI-QQ
AC$MASS_SPECTROMETRY: MS_TYPE MS2
AC$MASS_SPECTROMETRY: ION_MODE NEGATIVE
AC$MASS_SPECTROMETRY: COLLISION_ENERGY 40.0 V
AC$MASS_SPECTROMETRY: DATAFORMAT Centroid
AC$MASS_SPECTROMETRY: DESOLVATION_GAS_FLOW 897 L/Hr
AC$MASS_SPECTROMETRY: DESOLVATION_TEMPERATURE 399 C
AC$MASS_SPECTROMETRY: FRAGMENTATION_METHOD LOW-ENERGY CID
AC$MASS_SPECTROMETRY: IONIZATION ESI
AC$MASS_SPECTROMETRY: SCANNING 1 amu/sec (m/z = 20-2040)
AC$MASS_SPECTROMETRY: SOURCE_TEMPERATURE 101 C
AC$CHROMATOGRAPHY: COLUMN_NAME TSK-GEL Amide-80 2.0 mm X 250 mm (TOSOH)
AC$CHROMATOGRAPHY: COLUMN_TEMPERATURE 40 C
AC$CHROMATOGRAPHY: FLOW_GRADIENT 82/18 at 0 min, 66/34 at 60 min.
AC$CHROMATOGRAPHY: FLOW_RATE 0.2 ml/min
AC$CHROMATOGRAPHY: RETENTION_TIME 6.054 min
AC$CHROMATOGRAPHY: SAMPLING_CONE 23.57 V
AC$CHROMATOGRAPHY: SOLVENT A CH3CN
AC$CHROMATOGRAPHY: SOLVENT B H2O
MS$FOCUSED_ION: PRECURSOR_M/Z 641.00
MS$FOCUSED_ION: PRECURSOR_TYPE [M-H]-
PK$SPLASH: splash10-004i-0000900000-340f7894d2d4e07ebbb4
PK$NUM_PEAK: 5
PK$PEAK: m/z int. rel.int.
  317.1 73590 66
  478.3 99440 89
  478.9 1121000 999
  497.0 24890 22
  640.8 45030 40
//
