ACCESSION: MSBNK-Fukuyama_Univ-FU000295
RECORD_TITLE: steviolmonoside; LC-ESI-QQ; MS2; CE:20V; [M-H]-
DATE: 2016.01.19 (Created 2010.03.30, modified 2011.05.06)
AUTHORS: Matsuura F, Ohta M, Kittaka M, Faculty of Life Science and Biotechnology, Fukuyama University
LICENSE: CC BY-SA
PUBLICATION: Masaya Ohta, Shingo Sasa, Ai Inoue, Tatsuya Tamai, Isao Fujita, Koji Morita and Fumito Matsuura (2010) Characterization of Novel Steviol Glycosides from Leaves of
COMMENT: [Chemical] Source; leaves of Stevia rebaudiana Morita and Stevia rebaudiana Bertoni
CH$NAME: steviolmonoside
CH$COMPOUND_CLASS: Natural Product; Steviol glycoside
CH$FORMULA: C26H40O8
CH$EXACT_MASS: 480.27232
CH$SMILES: C=C(C4(OC(O5)C(C(C(C5CO)O)O)O)3)CC(C4)(C2([H])CC3)CCC(C2(C)1)(C(C)(C(O)=O)CCC1)[H]
CH$IUPAC: InChI=1S/C26H40O8/c1-14-11-25-9-5-16-23(2,7-4-8-24(16,3)22(31)32)17(25)6-10-26(14,13-25)34-21-20(30)19(29)18(28)15(12-27)33-21/h15-21,27-30H,1,4-13H2,2-3H3,(H,31,32)/t15-,16+,17+,18-,19+,20-,21+,23-,24-,25-,26+/m1/s1
CH$LINK: CHEMSPIDER 10216322
CH$LINK: INCHIKEY QSIDJGUAAUSPMG-CULFPKEHSA-N
AC$INSTRUMENT: 2695 HPLC Quadro Micro API, Waters
AC$INSTRUMENT_TYPE: LC-ESI-QQ
AC$MASS_SPECTROMETRY: MS_TYPE MS2
AC$MASS_SPECTROMETRY: ION_MODE NEGATIVE
AC$MASS_SPECTROMETRY: COLLISION_ENERGY 20.0 V
AC$MASS_SPECTROMETRY: DATAFORMAT Centroid
AC$MASS_SPECTROMETRY: DESOLVATION_GAS_FLOW 898 L/Hr
AC$MASS_SPECTROMETRY: DESOLVATION_TEMPERATURE 399 C
AC$MASS_SPECTROMETRY: FRAGMENTATION_METHOD LOW-ENERGY CID
AC$MASS_SPECTROMETRY: IONIZATION ESI
AC$MASS_SPECTROMETRY: SCANNING 1 amu/sec (m/z = 20-2040)
AC$MASS_SPECTROMETRY: SOURCE_TEMPERATURE 100 C
AC$CHROMATOGRAPHY: COLUMN_NAME TSK-GEL Amide-80 2.0 mm X 250 mm (TOSOH)
AC$CHROMATOGRAPHY: COLUMN_TEMPERATURE 40 C
AC$CHROMATOGRAPHY: FLOW_GRADIENT 82/18 at 0 min, 66/34 at 60 min.
AC$CHROMATOGRAPHY: FLOW_RATE 0.2 ml/min
AC$CHROMATOGRAPHY: RETENTION_TIME 3.912 min
AC$CHROMATOGRAPHY: SAMPLING_CONE 23.57 V
AC$CHROMATOGRAPHY: SOLVENT A CH3CN
AC$CHROMATOGRAPHY: SOLVENT B H2O
MS$FOCUSED_ION: PRECURSOR_M/Z 479.00
MS$FOCUSED_ION: PRECURSOR_TYPE [M-H]-
PK$SPLASH: splash10-00or-0004900000-33bcacd378db43537282
PK$NUM_PEAK: 5
PK$PEAK: m/z int. rel.int.
  316.4 5328 23
  317.0 152600 653
  478.3 45750 196
  479.0 233300 999
  479.5 14510 62
//
