ACCESSION: MSBNK-Eawag-EA272051
RECORD_TITLE: Perfluorodecanoic acid; LC-ESI-ITFT; MS2; CE: 35%; R=7500; [M-H]-
DATE: 2014.01.14
AUTHORS: Stravs M, Schymanski E, Singer H, Department of Environmental Chemistry, Eawag
LICENSE: CC BY
COPYRIGHT: Copyright (C) 2012 Eawag, Duebendorf, Switzerland
COMMENT: CONFIDENCE standard compound
COMMENT: EAWAG_UCHEM_ID 2720
CH$NAME: Perfluorodecanoic acid
CH$NAME: Nonadecafluorodecanoic acid
CH$NAME: 2,2,3,3,4,4,5,5,6,6,7,7,8,8,9,9,10,10,10-nonadecafluorocapric acid
CH$COMPOUND_CLASS: N/A; Environmental Standard
CH$FORMULA: C10HF19O2
CH$EXACT_MASS: 513.9673
CH$SMILES: O=C(O)C(F)(F)C(F)(F)C(F)(F)C(F)(F)C(F)(F)C(F)(F)C(F)(F)C(F)(F)C(F)(F)F
CH$IUPAC: InChI=1S/C10HF19O2/c11-2(12,1(30)31)3(13,14)4(15,16)5(17,18)6(19,20)7(21,22)8(23,24)9(25,26)10(27,28)29/h(H,30,31)
CH$LINK: CAS 335-76-2
CH$LINK: PUBCHEM CID:9555
CH$LINK: INCHIKEY PCIUEQPBYFRTEM-UHFFFAOYSA-N
CH$LINK: CHEMSPIDER 9181
CH$LINK: COMPTOX DTXSID3031860
AC$INSTRUMENT: LTQ Orbitrap XL Thermo Scientific
AC$INSTRUMENT_TYPE: LC-ESI-ITFT
AC$MASS_SPECTROMETRY: MS_TYPE MS2
AC$MASS_SPECTROMETRY: ION_MODE NEGATIVE
AC$MASS_SPECTROMETRY: IONIZATION ESI
AC$MASS_SPECTROMETRY: FRAGMENTATION_MODE CID
AC$MASS_SPECTROMETRY: COLLISION_ENERGY 35 % (nominal)
AC$MASS_SPECTROMETRY: RESOLUTION 7500
AC$CHROMATOGRAPHY: COLUMN_NAME XBridge C18 3.5um, 2.1x50mm, Waters
AC$CHROMATOGRAPHY: FLOW_GRADIENT 90/10 at 0 min, 50/50 at 4 min, 5/95 at 17 min, 5/95 at 25 min, 90/10 at 25.1 min, 90/10 at 30 min
AC$CHROMATOGRAPHY: FLOW_RATE 200 ul/min
AC$CHROMATOGRAPHY: RETENTION_TIME 15.2 min
AC$CHROMATOGRAPHY: SOLVENT A water with 0.1% formic acid
AC$CHROMATOGRAPHY: SOLVENT B methanol with 0.1% formic acid
MS$FOCUSED_ION: BASE_PEAK 512.961
MS$FOCUSED_ION: PRECURSOR_M/Z 512.96
MS$FOCUSED_ION: PRECURSOR_TYPE [M-H]-
MS$DATA_PROCESSING: DEPROFILE Spline
MS$DATA_PROCESSING: RECALIBRATE loess on assigned fragments and MS1
MS$DATA_PROCESSING: REANALYZE Peaks with additional N2/O included
MS$DATA_PROCESSING: WHOLE RMassBank 1.3.1
PK$SPLASH: splash10-014i-0000900000-e0a6aa84519c705530b7
PK$ANNOTATION: m/z tentative_formula formula_count mass error(ppm)
  218.986 C4F9- 1 218.9862 -0.95
  268.9826 C5F11- 1 268.983 -1.43
  468.9703 C9F19- 1 468.9702 0.3
PK$NUM_PEAK: 3
PK$PEAK: m/z int. rel.int.
  218.986 59744.2 52
  268.9826 49106 43
  468.9703 1128824.4 999
//
