ACCESSION: MSBNK-Eawag-EQ366204
RECORD_TITLE: Cefadroxil; LC-ESI-QFT; MS2; CE: 60; R=35000; [M+H]+
DATE: 2015.08.25
AUTHORS: Stravs M, Schymanski E, Singer H, Department of Environmental Chemistry, Eawag and Thomaidis N, University of Athens
LICENSE: CC BY
COPYRIGHT: Copyright (C) 2015 Eawag, Duebendorf, Switzerland
COMMENT: CONFIDENCE standard compound
COMMENT: EAWAG_UCHEM_ID 3662
CH$NAME: Cefadroxil
CH$NAME: 7-[[2-azaniumyl-2-(4-hydroxyphenyl)acetyl]amino]-3-methyl-8-oxo-5-thia-1-azabicyclo[4.2.0]oct-2-ene-2-carboxylate
CH$COMPOUND_CLASS: N/A; Environmental Standard
CH$FORMULA: C16H17N3O5S
CH$EXACT_MASS: 363.08889
CH$SMILES: CC1=C(N2C(C(C2=O)NC(=O)C(C3=CC=C(C=C3)O)N)SC1)C(=O)O
CH$IUPAC: InChI=1S/C16H17N3O5S/c1-7-6-25-15-11(14(22)19(15)12(7)16(23)24)18-13(21)10(17)8-2-4-9(20)5-3-8/h2-5,10-11,15,20H,6,17H2,1H3,(H,18,21)(H,23,24)
CH$LINK: CAS 50370-12-2
CH$LINK: KEGG C06878
CH$LINK: PUBCHEM CID:2610
CH$LINK: INCHIKEY BOEGTKLJZSQCCD-UHFFFAOYSA-N
CH$LINK: CHEMSPIDER 2511
AC$INSTRUMENT: Q Exactive Plus Orbitrap Thermo Scientific
AC$INSTRUMENT_TYPE: LC-ESI-QFT
AC$MASS_SPECTROMETRY: MS_TYPE MS2
AC$MASS_SPECTROMETRY: ION_MODE POSITIVE
AC$MASS_SPECTROMETRY: IONIZATION ESI
AC$MASS_SPECTROMETRY: FRAGMENTATION_MODE HCD
AC$MASS_SPECTROMETRY: COLLISION_ENERGY 60 (nominal)
AC$MASS_SPECTROMETRY: RESOLUTION 35000
AC$CHROMATOGRAPHY: COLUMN_NAME XBridge C18 3.5um, 2.1x50mm, Waters
AC$CHROMATOGRAPHY: FLOW_GRADIENT 90/10 at 0 min, 50/50 at 4 min, 5/95 at 17 min, 5/95 at 25 min, 90/10 at 25.1 min, 90/10 at 30 min
AC$CHROMATOGRAPHY: FLOW_RATE 200 ul/min
AC$CHROMATOGRAPHY: RETENTION_TIME 2.4 min
AC$CHROMATOGRAPHY: SOLVENT A water with 0.1% formic acid
AC$CHROMATOGRAPHY: SOLVENT B methanol with 0.1% formic acid
MS$FOCUSED_ION: BASE_PEAK 364.0954
MS$FOCUSED_ION: PRECURSOR_M/Z 364.0962
MS$FOCUSED_ION: PRECURSOR_TYPE [M+H]+
MS$DATA_PROCESSING: RECALIBRATE loess on assigned fragments and MS1
MS$DATA_PROCESSING: REANALYZE Peaks with additional N2/O included
MS$DATA_PROCESSING: WHOLE RMassBank 1.9.6
PK$SPLASH: splash10-03di-3900000000-84cfe7f46937c20129b5
PK$ANNOTATION: m/z tentative_formula formula_count mass error(ppm)
  53.0022 C3HO+ 1 53.0022 0.73
  58.995 C2H3S+ 1 58.995 -0.13
  68.0495 C4H6N+ 1 68.0495 0.21
  69.0335 C4H5O+ 1 69.0335 -0.6
  70.0651 C4H8N+ 1 70.0651 -0.08
  74.0059 C2H4NS+ 1 74.0059 -0.49
  78.0464 C6H6+ 1 78.0464 0.24
  80.0495 C5H6N+ 1 80.0495 -0.07
  81.0336 C5H5O+ 1 81.0335 1.1
  82.0412 C5H6O+ 1 82.0413 -1.17
  82.0651 C5H8N+ 1 82.0651 -0.19
  86.0059 C3H4NS+ 1 86.0059 -0.08
  91.0543 C7H7+ 1 91.0542 1.24
  94.0652 C6H8N+ 1 94.0651 0.9
  95.0491 C6H7O+ 1 95.0491 -0.01
  97.0285 C5H5O2+ 1 97.0284 1.07
  98.0601 C5H8NO+ 1 98.06 1.12
  102.0008 C3H4NOS+ 1 102.0008 -0.21
  105.0335 C7H5O+ 1 105.0335 0.37
  106.0413 C7H6O+ 1 106.0413 0.22
  106.0652 C7H8N+ 1 106.0651 0.61
  107.0491 C7H7O+ 1 107.0491 0.08
  108.0445 C6H6NO+ 1 108.0444 1.02
  109.0761 C6H9N2+ 1 109.076 1.15
  112.0216 C5H6NS+ 1 112.0215 0.3
  114.0008 C4H4NOS+ 1 114.0008 0.34
  116.0494 C8H6N+ 2 116.0495 -0.91
  119.0491 C8H7O+ 1 119.0491 0.07
  120.0444 C7H6NO+ 1 120.0444 -0.17
  120.057 C8H8O+ 1 120.057 0.11
  122.0601 C7H8NO+ 1 122.06 0.24
  126.0372 C6H8NS+ 1 126.0372 -0.21
  133.0285 C8H5O2+ 1 133.0284 0.56
  133.0522 C8H7NO+ 1 133.0522 0.26
  134.0363 C8H6O2+ 1 134.0362 0.37
  134.0601 C8H8NO+ 1 134.06 0.15
  135.044 C8H7O2+ 2 135.0441 -0.04
  135.0553 C7H7N2O+ 1 135.0553 -0.22
  137.0056 C7H5OS+ 1 137.0056 0.06
  137.0711 C7H9N2O+ 1 137.0709 1.17
  138.0313 C7H6O3+ 1 138.0311 1.12
  138.0549 C7H8NO2+ 1 138.055 -0.69
  139.0213 C7H7OS+ 1 139.0212 0.56
  140.0165 C6H6NOS+ 1 140.0165 0.21
  140.0342 C6H6NO3+ 1 140.0342 -0.14
  144.0559 C8H6N3+ 2 144.0556 1.78
  146.0603 C9H8NO+ 1 146.06 1.64
  151.0214 C8H7OS+ 1 151.0212 1.44
  152.0165 C7H6NOS+ 1 152.0165 0.39
  153.037 C8H9OS+ 1 153.0369 1.16
  158.0271 C6H8NO2S+ 1 158.027 0.66
  162.0549 C9H8NO2+ 2 162.055 -0.15
  163.0213 C9H7OS+ 1 163.0212 0.35
  166.0322 C8H8NOS+ 1 166.0321 0.47
  178.0322 C9H8NOS+ 1 178.0321 0.61
  180.0478 C9H10NOS+ 1 180.0478 -0.06
  190.0496 C10H8NO3+ 2 190.0499 -1.21
  194.0271 C9H8NO2S+ 1 194.027 0.23
  214.0625 C13H10O3+ 2 214.0624 0.49
  228.0656 C13H10NO3+ 2 228.0655 0.53
  241.0373 C13H7NO4+ 1 241.037 1.29
PK$NUM_PEAK: 61
PK$PEAK: m/z int. rel.int.
  53.0022 26308.7 1
  58.995 434888.2 23
  68.0495 3655547.5 193
  69.0335 62568.1 3
  70.0651 107530.9 5
  74.0059 73747.5 3
  78.0464 43175.8 2
  80.0495 27856.3 1
  81.0336 25748.5 1
  82.0412 45820 2
  82.0651 26942.2 1
  86.0059 4404811.5 233
  91.0543 40905.8 2
  94.0652 60507.9 3
  95.0491 90849.2 4
  97.0285 76568.7 4
  98.0601 37670.8 1
  102.0008 62670.2 3
  105.0335 61302.4 3
  106.0413 325538.7 17
  106.0652 189759 10
  107.0491 444275.7 23
  108.0445 24753.4 1
  109.0761 34479.5 1
  112.0216 150023.6 7
  114.0008 18875466 999
  116.0494 34048.8 1
  119.0491 118421.5 6
  120.0444 29289.7 1
  120.057 32482.7 1
  122.0601 247793.3 13
  126.0372 37769.7 1
  133.0285 131449 6
  133.0522 254117 13
  134.0363 2537664.5 134
  134.0601 1543366.6 81
  135.044 81287.1 4
  135.0553 47104.2 2
  137.0056 120151.6 6
  137.0711 28118.2 1
  138.0313 37403.7 1
  138.0549 50770.7 2
  139.0213 552617.5 29
  140.0165 59406.4 3
  140.0342 78976.6 4
  144.0559 34079 1
  146.0603 83353.1 4
  151.0214 29731 1
  152.0165 31864.3 1
  153.037 36646.6 1
  158.0271 674082.7 35
  162.0549 50148.5 2
  163.0213 166184.1 8
  166.0322 118939.8 6
  178.0322 96295.6 5
  180.0478 40566.9 2
  190.0496 29832.6 1
  194.0271 57387 3
  214.0625 59312.7 3
  228.0656 24964.4 1
  241.0373 28811.9 1
//
