ACCESSION: MSBNK-Eawag-EQ00295001
RECORD_TITLE: Chlorpyrifos; LC-ESI-QFT; MS2; CE: 15%; R=15000; [M+H]+
DATE: 2024.06.14
AUTHORS: F. Jud [dtc], K. Arturi [dtc], J. Hollender [dtc], A. Dax [com]
LICENSE: CC BY-SA
COPYRIGHT: Copyright (C) Eawag 2024
COMMENT: CONFIDENCE standard compound
COMMENT: UCHEM_ID 2950
CH$NAME: Chlorpyrifos
CH$NAME: diethoxy-sulfanylidene-(3,5,6-trichloropyridin-2-yl)oxy-lambda5-phosphane
CH$COMPOUND_CLASS: N/A
CH$FORMULA: C9H11Cl3NO3PS
CH$EXACT_MASS: 348.9262839
CH$SMILES: CCOP(=S)(OCC)OC1=NC(Cl)=C(Cl)C=C1Cl
CH$IUPAC: InChI=1S/C9H11Cl3NO3PS/c1-3-14-17(18,15-4-2)16-9-7(11)5-6(10)8(12)13-9/h5H,3-4H2,1-2H3
CH$LINK: CAS 2921-88-2
CH$LINK: CHEBI CHEBI:34631
CH$LINK: KEGG C14322
CH$LINK: PUBCHEM CID:2730
CH$LINK: INCHIKEY SBPBAQFWLVIOKP-UHFFFAOYSA-N
CH$LINK: CHEMSPIDER 2629
AC$INSTRUMENT: Q Exactive Plus
AC$INSTRUMENT_TYPE: LC-ESI-QFT
AC$MASS_SPECTROMETRY: MS_TYPE MS2
AC$MASS_SPECTROMETRY: ION_MODE POSITIVE
AC$MASS_SPECTROMETRY: IONIZATION ESI
AC$MASS_SPECTROMETRY: FRAGMENTATION_MODE HCD
AC$MASS_SPECTROMETRY: COLLISION_ENERGY 15 % (nominal)
AC$MASS_SPECTROMETRY: RESOLUTION 15000
AC$MASS_SPECTROMETRY: MASS_RANGE_M/Z 50-375
AC$CHROMATOGRAPHY: COLUMN_NAME XBridge C18 3.5um, 2.1x50mm, Waters
AC$CHROMATOGRAPHY: FLOW_GRADIENT 90/10 at 0 min, 50/50 at 4 min, 5/95 at 17 min, 5/95 at 25 min, 90/10 at 25.1 min, 90/10 at 30 min
AC$CHROMATOGRAPHY: FLOW_RATE 200 uL/min
AC$CHROMATOGRAPHY: RETENTION_TIME 14.392 min
MS$FOCUSED_ION: BASE_PEAK 349.9338
MS$FOCUSED_ION: PRECURSOR_M/Z 349.9336
MS$FOCUSED_ION: PRECURSOR_TYPE [M+H]+
MS$FOCUSED_ION: PRECURSOR_INTENSITY 86352622.98
MS$DATA_PROCESSING: RECALIBRATE loess on assigned fragments and MS1
MS$DATA_PROCESSING: REANALYZE Peaks with additional N2/O included
MS$DATA_PROCESSING: WHOLE RMassBank 3.15.1.1
PK$SPLASH: splash10-00dj-0914000000-90796eb137a64f65e94b
PK$ANNOTATION: m/z tentative_formula formula_count mass error(ppm)
  114.9613 H4O3PS+ 2 114.9613 -0.12
  124.982 C2H6O2PS+ 2 124.9821 -0.43
  142.9926 C2H8O3PS+ 4 142.9926 -0.04
  153.0133 C4H10O2PS+ 2 153.0134 -0.39
  171.0239 C4H12O3PS+ 2 171.0239 -0.45
  197.9274 C5H3Cl3NO+ 4 197.9275 -0.19
  275.8604 C5H2Cl3NO2PS+ 1 275.8604 0.15
  293.8708 C5H4Cl3NO3PS+ 2 293.871 -0.41
  321.9022 C7H8Cl3NO3PS+ 1 321.9023 -0.11
PK$NUM_PEAK: 9
PK$PEAK: m/z int. rel.int.
  114.9613 3026015.5 294
  124.982 328328.9 31
  142.9926 533238.4 51
  153.0133 2061290.4 200
  171.0239 4123151.8 401
  197.9274 8826035 859
  275.8604 134857.5 13
  293.8708 2870058 279
  321.9022 10254622 999
//
