ACCESSION: MSBNK-Eawag-EQ381951
RECORD_TITLE: 2-Acrylamido-2-methyl-1-propanesulfonic acid (AMPS); LC-ESI-QFT; MS2; CE: 15%; R=15000; [M-H]-
DATE: 2021.03.16
AUTHORS: K. Kiefer [dtc], J. Hollender [dtc], H. Singer [dtc], B. Lauper [com]
LICENSE: CC BY-SA
COPYRIGHT: Copyright (C) Eawag 2019
PUBLICATION: Kiefer, K.; Mueller, A.; Singer, H.; Hollender, J. New relevant pesticide transformation products in groundwater detected using target and suspect screening for agricultural and urban micropollutants with LC-HRMS. Water Research 2019, 165. DOI: https://doi.org/10.1016/j.watres.2019.114972
COMMENT: CONFIDENCE standard compound
COMMENT: UCHEM_ID 3819
CH$NAME: 2-Acrylamido-2-methyl-1-propanesulfonic acid (AMPS)
CH$NAME: 2-Acrylamido-2-methyl-1-propanesulfonic acid
CH$NAME: 2-methyl-2-(prop-2-enoylamino)propane-1-sulfonic acid
CH$COMPOUND_CLASS: N/A; Environmental Standard
CH$FORMULA: C7H13NO4S
CH$EXACT_MASS: 207.0565
CH$SMILES: CC(C)(CS(=O)(=O)O)NC(=O)C=C
CH$IUPAC: InChI=1S/C7H13NO4S/c1-4-6(9)8-7(2,3)5-13(10,11)12/h4H,1,5H2,2-3H3,(H,8,9)(H,10,11,12)
CH$LINK: CAS 82989-71-7
CH$LINK: CHEBI 166476
CH$LINK: PUBCHEM CID:65360
CH$LINK: INCHIKEY XHZPRMZZQOIPDS-UHFFFAOYSA-N
CH$LINK: CHEMSPIDER 58836
CH$LINK: COMPTOX DTXSID5027770
AC$INSTRUMENT: Orbitrap Exploris 240 Thermo Scientific
AC$INSTRUMENT_TYPE: LC-ESI-QFT
AC$MASS_SPECTROMETRY: MS_TYPE MS2
AC$MASS_SPECTROMETRY: ION_MODE NEGATIVE
AC$MASS_SPECTROMETRY: IONIZATION ESI
AC$MASS_SPECTROMETRY: FRAGMENTATION_MODE HCD
AC$MASS_SPECTROMETRY: COLLISION_ENERGY 15 % (nominal)
AC$MASS_SPECTROMETRY: RESOLUTION 15000
AC$MASS_SPECTROMETRY: MASS_RANGE_M/Z NA-NA
AC$CHROMATOGRAPHY: COLUMN_NAME Atlantis C18 3um, 3.0x150mm, Waters
AC$CHROMATOGRAPHY: FLOW_GRADIENT 100/0 at 0 min, 100/0 at 1.5 min, 5/95 at 18.5 min, 5/95 at 28.5 min, 100/0 at 29 min, 100/0 at 33 min
AC$CHROMATOGRAPHY: FLOW_RATE 300 uL/min
AC$CHROMATOGRAPHY: RETENTION_TIME 10.716 min
MS$FOCUSED_ION: BASE_PEAK 206.0491
MS$FOCUSED_ION: PRECURSOR_M/Z 206.0493
MS$FOCUSED_ION: PRECURSOR_TYPE [M-H]-
MS$FOCUSED_ION: PRECURSOR_INTENSITY 385628832
MS$DATA_PROCESSING: RECALIBRATE loess on assigned fragments and MS1
MS$DATA_PROCESSING: REANALYZE Peaks with additional N2/O included
MS$DATA_PROCESSING: WHOLE RMassBank 2.99.4
PK$SPLASH: splash10-0a4i-0090000000-92797f5e643124a24e83
PK$ANNOTATION: m/z tentative_formula formula_count mass error(ppm)
  135.0124 C4H7O3S- 1 135.0121 1.71
  206.0493 C7H12NO4S- 1 206.0493 0.06
PK$NUM_PEAK: 4
PK$PEAK: m/z int. rel.int.
  79.9538 759124.5 2
  79.9594 871649.9 3
  135.0124 2041716.6 7
  206.0493 270850304 999
//
