ACCESSION: MSBNK-Eawag-EQ365701
RECORD_TITLE: Cimaterol; LC-ESI-QFT; MS2; CE: 15; R=35000; [M+H]+
DATE: 2015.08.25
AUTHORS: Stravs M, Schymanski E, Singer H, Department of Environmental Chemistry, Eawag and Thomaidis N, University of Athens
LICENSE: CC BY
COPYRIGHT: Copyright (C) 2015 Eawag, Duebendorf, Switzerland
COMMENT: CONFIDENCE standard compound
COMMENT: EAWAG_UCHEM_ID 3657
CH$NAME: Cimaterol
CH$NAME: 2-amino-5-[1-hydroxy-2-(propan-2-ylamino)ethyl]benzonitrile
CH$COMPOUND_CLASS: N/A; Environmental Standard
CH$FORMULA: C12H17N3O
CH$EXACT_MASS: 219.13716
CH$SMILES: CC(C)NCC(C1=CC(=C(C=C1)N)C#N)O
CH$IUPAC: InChI=1S/C12H17N3O/c1-8(2)15-7-12(16)9-3-4-11(14)10(5-9)6-13/h3-5,8,12,15-16H,7,14H2,1-2H3
CH$LINK: CAS 5570-78-5
CH$LINK: PUBCHEM CID:2755
CH$LINK: INCHIKEY BUXRLJCGHZZYNE-UHFFFAOYSA-N
CH$LINK: CHEMSPIDER 2653
CH$LINK: COMPTOX DTXSID2045652
AC$INSTRUMENT: Q Exactive Plus Orbitrap Thermo Scientific
AC$INSTRUMENT_TYPE: LC-ESI-QFT
AC$MASS_SPECTROMETRY: MS_TYPE MS2
AC$MASS_SPECTROMETRY: ION_MODE POSITIVE
AC$MASS_SPECTROMETRY: IONIZATION ESI
AC$MASS_SPECTROMETRY: FRAGMENTATION_MODE HCD
AC$MASS_SPECTROMETRY: COLLISION_ENERGY 15 (nominal)
AC$MASS_SPECTROMETRY: RESOLUTION 35000
AC$CHROMATOGRAPHY: COLUMN_NAME XBridge C18 3.5um, 2.1x50mm, Waters
AC$CHROMATOGRAPHY: FLOW_GRADIENT 90/10 at 0 min, 50/50 at 4 min, 5/95 at 17 min, 5/95 at 25 min, 90/10 at 25.1 min, 90/10 at 30 min
AC$CHROMATOGRAPHY: FLOW_RATE 200 ul/min
AC$CHROMATOGRAPHY: RETENTION_TIME 1.5 min
AC$CHROMATOGRAPHY: SOLVENT A water with 0.1% formic acid
AC$CHROMATOGRAPHY: SOLVENT B methanol with 0.1% formic acid
MS$FOCUSED_ION: BASE_PEAK 220.1439
MS$FOCUSED_ION: PRECURSOR_M/Z 220.1444
MS$FOCUSED_ION: PRECURSOR_TYPE [M+H]+
MS$DATA_PROCESSING: RECALIBRATE loess on assigned fragments and MS1
MS$DATA_PROCESSING: REANALYZE Peaks with additional N2/O included
MS$DATA_PROCESSING: WHOLE RMassBank 1.9.6
PK$SPLASH: splash10-0udi-0190000000-fd704091a7fb282c7b36
PK$ANNOTATION: m/z tentative_formula formula_count mass error(ppm)
  143.0602 C9H7N2+ 1 143.0604 -1.36
  145.0759 C9H9N2+ 1 145.076 -0.93
  160.0869 C9H10N3+ 1 160.0869 -0.4
  161.0711 C9H9N2O+ 1 161.0709 1
  202.1337 C12H16N3+ 1 202.1339 -0.91
  220.1443 C12H18N3O+ 1 220.1444 -0.49
PK$NUM_PEAK: 6
PK$PEAK: m/z int. rel.int.
  143.0602 1022306.8 2
  145.0759 2214752.8 5
  160.0869 70367048 181
  161.0711 615541.3 1
  202.1337 387816544 999
  220.1443 7344518 18
//
