ACCESSION: MSBNK-Eawag-EQ009151
RECORD_TITLE: Metribuzin-desamino; LC-ESI-QFT; MS2; CE: 15; R=35000; [M-H]-
DATE: 2015.08.26
AUTHORS: Beck B, Stravs M, Schymanski E, Singer H, Department of Environmental Chemistry, Eawag
LICENSE: CC BY
COPYRIGHT: Copyright (C) 2015 Eawag, Duebendorf, Switzerland
COMMENT: CONFIDENCE standard compound
COMMENT: EAWAG_UCHEM_ID 91
CH$NAME: Metribuzin-desamino
CH$NAME: Deaminometribuzin
CH$NAME: 6-tert-butyl-3-(methylthio)-2H-1,2,4-triazin-5-one
CH$COMPOUND_CLASS: N/A; Environmental Standard
CH$FORMULA: C8H13N3OS
CH$EXACT_MASS: 199.27332
CH$SMILES: CC(C)(C)C1=NNC(=NC1=O)SC
CH$IUPAC: InChI=1S/C8H13N3OS/c1-8(2,3)5-6(12)9-7(13-4)11-10-5/h1-4H3,(H,9,11,12)
CH$LINK: CAS 35045-02-4
CH$LINK: PUBCHEM CID:37208
CH$LINK: INCHIKEY MIWRSUQXSCLDNV-UHFFFAOYSA-N
CH$LINK: CHEMSPIDER 33978
CH$LINK: COMPTOX DTXSID0052839
AC$INSTRUMENT: Q Exactive Plus Orbitrap Thermo Scientific
AC$INSTRUMENT_TYPE: LC-ESI-QFT
AC$MASS_SPECTROMETRY: MS_TYPE MS2
AC$MASS_SPECTROMETRY: ION_MODE NEGATIVE
AC$MASS_SPECTROMETRY: IONIZATION ESI
AC$MASS_SPECTROMETRY: FRAGMENTATION_MODE HCD
AC$MASS_SPECTROMETRY: COLLISION_ENERGY 15 (nominal)
AC$MASS_SPECTROMETRY: RESOLUTION 35000
AC$CHROMATOGRAPHY: COLUMN_NAME XBridge C18 3.5um, 2.1x50mm, Waters
AC$CHROMATOGRAPHY: FLOW_GRADIENT 90/10 at 0 min, 50/50 at 4 min, 5/95 at 17 min, 5/95 at 25 min, 90/10 at 25.1 min, 90/10 at 30 min
AC$CHROMATOGRAPHY: FLOW_RATE 200 ul/min
AC$CHROMATOGRAPHY: RETENTION_TIME 7.3 min
AC$CHROMATOGRAPHY: SOLVENT A water with 0.1% formic acid
AC$CHROMATOGRAPHY: SOLVENT B methanol with 0.1% formic acid
MS$FOCUSED_ION: BASE_PEAK 198.0703
MS$FOCUSED_ION: PRECURSOR_M/Z 198.0707
MS$FOCUSED_ION: PRECURSOR_TYPE [M-H]-
MS$DATA_PROCESSING: RECALIBRATE loess on assigned fragments and MS1
MS$DATA_PROCESSING: REANALYZE Peaks with additional N2/O included
MS$DATA_PROCESSING: WHOLE RMassBank 1.9.6
PK$SPLASH: splash10-0002-0900000000-4ca267480b52fe015cbd
PK$ANNOTATION: m/z tentative_formula formula_count mass error(ppm)
  57.9755 CNS- 1 57.9757 -3.86
  68.0015 C2N2O- 1 68.0016 -2.37
  198.0705 C8H12N3OS- 1 198.0707 -0.89
PK$NUM_PEAK: 3
PK$PEAK: m/z int. rel.int.
  57.9755 1978627.9 2
  68.0015 1378488.9 1
  198.0705 801207936 999
//
