ACCESSION: MSBNK-Eawag-EA070008
RECORD_TITLE: Pethoxamide; LC-ESI-ITFT; MS2; CE: 15%; R=15000; [M+H]+
DATE: 2014.01.14
AUTHORS: Stravs M, Schymanski E, Singer H, Department of Environmental Chemistry, Eawag
LICENSE: CC BY
COPYRIGHT: Copyright (C) 2012 Eawag, Duebendorf, Switzerland
COMMENT: CONFIDENCE standard compound
COMMENT: EAWAG_UCHEM_ID 700
CH$NAME: Pethoxamide
CH$NAME: 2-chloro-N-(2-ethoxyethyl)-N-(2-methyl-1-phenylprop-1-enyl)acetamide
CH$COMPOUND_CLASS: N/A; Environmental Standard
CH$FORMULA: C16H22ClNO2
CH$EXACT_MASS: 295.1334
CH$SMILES: ClCC(=O)N(CCOCC)\C(=C(\C)C)c1ccccc1
CH$IUPAC: InChI=1S/C16H22ClNO2/c1-4-20-11-10-18(15(19)12-17)16(13(2)3)14-8-6-5-7-9-14/h5-9H,4,10-12H2,1-3H3
CH$LINK: CAS 106700-29-2
CH$LINK: PUBCHEM CID:6450826
CH$LINK: INCHIKEY CSWIKHNSBZVWNQ-UHFFFAOYSA-N
CH$LINK: CHEMSPIDER 4953376
CH$LINK: COMPTOX DTXSID4057928
AC$INSTRUMENT: LTQ Orbitrap XL Thermo Scientific
AC$INSTRUMENT_TYPE: LC-ESI-ITFT
AC$MASS_SPECTROMETRY: MS_TYPE MS2
AC$MASS_SPECTROMETRY: ION_MODE POSITIVE
AC$MASS_SPECTROMETRY: IONIZATION ESI
AC$MASS_SPECTROMETRY: FRAGMENTATION_MODE HCD
AC$MASS_SPECTROMETRY: COLLISION_ENERGY 15 % (nominal)
AC$MASS_SPECTROMETRY: RESOLUTION 15000
AC$CHROMATOGRAPHY: COLUMN_NAME XBridge C18 3.5um, 2.1x50mm, Waters
AC$CHROMATOGRAPHY: FLOW_GRADIENT 90/10 at 0 min, 50/50 at 4 min, 5/95 at 17 min, 5/95 at 25 min, 90/10 at 25.1 min, 90/10 at 30 min
AC$CHROMATOGRAPHY: FLOW_RATE 200 ul/min
AC$CHROMATOGRAPHY: RETENTION_TIME 11.5 min
AC$CHROMATOGRAPHY: SOLVENT A water with 0.1% formic acid
AC$CHROMATOGRAPHY: SOLVENT B methanol with 0.1% formic acid
MS$FOCUSED_ION: BASE_PEAK 296.1418
MS$FOCUSED_ION: PRECURSOR_M/Z 296.1412
MS$FOCUSED_ION: PRECURSOR_TYPE [M+H]+
MS$DATA_PROCESSING: DEPROFILE Spline
MS$DATA_PROCESSING: RECALIBRATE loess on assigned fragments and MS1
MS$DATA_PROCESSING: REANALYZE Peaks with additional N2/O included
MS$DATA_PROCESSING: WHOLE RMassBank 1.3.1
PK$SPLASH: splash10-0f6t-0090000000-e13bdf3d89da791b9a06
PK$ANNOTATION: m/z tentative_formula formula_count mass error(ppm)
  73.0648 C4H9O+ 1 73.0648 0.12
  91.0546 C7H7+ 1 91.0542 3.66
  131.0855 C10H11+ 1 131.0855 0.02
  134.037 C5H9ClNO+ 1 134.0367 2.18
  148.0523 C6H11ClNO+ 2 148.0524 -0.59
  220.1692 C14H22NO+ 1 220.1696 -1.87
  250.0994 C14H17ClNO+ 1 250.0993 0.33
  296.1413 C16H23ClNO2+ 1 296.1412 0.36
PK$NUM_PEAK: 8
PK$PEAK: m/z int. rel.int.
  73.0648 20667.5 8
  91.0546 14161.4 6
  131.0855 79856.3 34
  134.037 4011.2 1
  148.0523 3795.9 1
  220.1692 8766.4 3
  250.0994 1217646.1 527
  296.1413 2306581.7 999
//
