ACCESSION: MSBNK-Eawag-EA067403
RECORD_TITLE: Verapamil; LC-ESI-ITFT; MS2; CE: 30%; R=7500; [M+H]+
DATE: 2014.01.14
AUTHORS: Stravs M, Schymanski E, Singer H, Department of Environmental Chemistry, Eawag
LICENSE: CC BY
COPYRIGHT: Copyright (C) 2012 Eawag, Duebendorf, Switzerland
COMMENT: CONFIDENCE standard compound
COMMENT: EAWAG_UCHEM_ID 674
CH$NAME: Verapamil
CH$NAME: 2-(3,4-dimethoxyphenyl)-5-[2-(3,4-dimethoxyphenyl)ethyl-methyl-amino]-2-propan-2-yl-pentanenitrile
CH$COMPOUND_CLASS: N/A; Environmental Standard
CH$FORMULA: C27H38N2O4
CH$EXACT_MASS: 454.2832
CH$SMILES: COC1=C(OC)C=CC(C(C(C)C)(C#N)CCCN(CCC2=CC(OC)=C(OC)C=C2)C)=C1
CH$IUPAC: InChI=1S/C27H38N2O4/c1-20(2)27(19-28,22-10-12-24(31-5)26(18-22)33-7)14-8-15-29(3)16-13-21-9-11-23(30-4)25(17-21)32-6/h9-12,17-18,20H,8,13-16H2,1-7H3
CH$LINK: CAS 56949-77-0
CH$LINK: HMDB HMDB01850
CH$LINK: KEGG C07188
CH$LINK: PUBCHEM CID:2520
CH$LINK: INCHIKEY SGTNSNPWRIOYBX-UHFFFAOYSA-N
CH$LINK: CHEMSPIDER 2425
CH$LINK: COMPTOX DTXSID9041152
AC$INSTRUMENT: LTQ Orbitrap XL Thermo Scientific
AC$INSTRUMENT_TYPE: LC-ESI-ITFT
AC$MASS_SPECTROMETRY: MS_TYPE MS2
AC$MASS_SPECTROMETRY: ION_MODE POSITIVE
AC$MASS_SPECTROMETRY: IONIZATION ESI
AC$MASS_SPECTROMETRY: FRAGMENTATION_MODE HCD
AC$MASS_SPECTROMETRY: COLLISION_ENERGY 30 % (nominal)
AC$MASS_SPECTROMETRY: RESOLUTION 7500
AC$CHROMATOGRAPHY: COLUMN_NAME XBridge C18 3.5um, 2.1x50mm, Waters
AC$CHROMATOGRAPHY: FLOW_GRADIENT 90/10 at 0 min, 50/50 at 4 min, 5/95 at 17 min, 5/95 at 25 min, 90/10 at 25.1 min, 90/10 at 30 min
AC$CHROMATOGRAPHY: FLOW_RATE 200 ul/min
AC$CHROMATOGRAPHY: RETENTION_TIME 7.3 min
AC$CHROMATOGRAPHY: SOLVENT A water with 0.1% formic acid
AC$CHROMATOGRAPHY: SOLVENT B methanol with 0.1% formic acid
MS$FOCUSED_ION: BASE_PEAK 455.292
MS$FOCUSED_ION: PRECURSOR_M/Z 455.2904
MS$FOCUSED_ION: PRECURSOR_TYPE [M+H]+
MS$DATA_PROCESSING: DEPROFILE Spline
MS$DATA_PROCESSING: RECALIBRATE loess on assigned fragments and MS1
MS$DATA_PROCESSING: REANALYZE Peaks with additional N2/O included
MS$DATA_PROCESSING: WHOLE RMassBank 1.3.1
PK$SPLASH: splash10-066r-0902600000-a675e624692c25472ce8
PK$ANNOTATION: m/z tentative_formula formula_count mass error(ppm)
  150.0675 C9H10O2+ 1 150.0675 -0.07
  165.0911 C10H13O2+ 1 165.091 0.87
  260.1645 C16H22NO2+ 1 260.1645 0.13
  261.1606 C15H21N2O2+ 1 261.1598 3.39
  264.1967 C16H26NO2+ 1 264.1958 3.42
  303.2067 C18H27N2O2+ 1 303.2067 -0.05
  455.2907 C27H39N2O4+ 1 455.2904 0.65
PK$NUM_PEAK: 7
PK$PEAK: m/z int. rel.int.
  150.0675 96036 34
  165.0911 2763437.3 999
  260.1645 100220.6 36
  261.1606 31861.9 11
  264.1967 16222.8 5
  303.2067 933760.7 337
  455.2907 1994710.4 721
//
