ACCESSION: MSBNK-Eawag-EA284612
RECORD_TITLE: Atomoxetine; LC-ESI-ITFT; MS2; CE: 75%; R=15000; [M+H]+
DATE: 2014.01.14
AUTHORS: Stravs M, Schymanski E, Singer H, Department of Environmental Chemistry, Eawag
LICENSE: CC BY
COPYRIGHT: Copyright (C) 2012 Eawag, Duebendorf, Switzerland
COMMENT: CONFIDENCE standard compound
COMMENT: EAWAG_UCHEM_ID 2846
CH$NAME: Atomoxetine
CH$NAME: (3R)-N-methyl-3-(2-methylphenoxy)-3-phenyl-1-propanamine
CH$COMPOUND_CLASS: N/A; Environmental Standard
CH$FORMULA: C17H21NO
CH$EXACT_MASS: 255.1623
CH$SMILES: c1c(c(ccc1)O[C@@H](c1ccccc1)CCNC)C
CH$IUPAC: InChI=1S/C17H21NO/c1-14-8-6-7-11-16(14)19-17(12-13-18-2)15-9-4-3-5-10-15/h3-11,17-18H,12-13H2,1-2H3/t17-/m1/s1
CH$LINK: CAS 83015-26-3
CH$LINK: KEGG D07473
CH$LINK: PUBCHEM CID:54841
CH$LINK: INCHIKEY VHGCDTVCOLNTBX-QGZVFWFLSA-N
CH$LINK: CHEMSPIDER 49516
CH$LINK: COMPTOX DTXSID9044297
AC$INSTRUMENT: LTQ Orbitrap XL Thermo Scientific
AC$INSTRUMENT_TYPE: LC-ESI-ITFT
AC$MASS_SPECTROMETRY: MS_TYPE MS2
AC$MASS_SPECTROMETRY: ION_MODE POSITIVE
AC$MASS_SPECTROMETRY: IONIZATION ESI
AC$MASS_SPECTROMETRY: FRAGMENTATION_MODE HCD
AC$MASS_SPECTROMETRY: COLLISION_ENERGY 75 % (nominal)
AC$MASS_SPECTROMETRY: RESOLUTION 15000
AC$CHROMATOGRAPHY: COLUMN_NAME XBridge C18 3.5um, 2.1x50mm, Waters
AC$CHROMATOGRAPHY: FLOW_GRADIENT 90/10 at 0 min, 50/50 at 4 min, 5/95 at 17 min, 5/95 at 25 min, 90/10 at 25.1 min, 90/10 at 30 min
AC$CHROMATOGRAPHY: FLOW_RATE 200 ul/min
AC$CHROMATOGRAPHY: RETENTION_TIME 8.0 min
AC$CHROMATOGRAPHY: SOLVENT A water with 0.1% formic acid
AC$CHROMATOGRAPHY: SOLVENT B methanol with 0.1% formic acid
MS$FOCUSED_ION: BASE_PEAK 256.1706
MS$FOCUSED_ION: PRECURSOR_M/Z 256.1696
MS$FOCUSED_ION: PRECURSOR_TYPE [M+H]+
MS$DATA_PROCESSING: DEPROFILE Spline
MS$DATA_PROCESSING: RECALIBRATE loess on assigned fragments and MS1
MS$DATA_PROCESSING: REANALYZE Peaks with additional N2/O included
MS$DATA_PROCESSING: WHOLE RMassBank 1.3.1
PK$SPLASH: splash10-01bd-1900000000-c4fd6863785e44cc724e
PK$ANNOTATION: m/z tentative_formula formula_count mass error(ppm)
  91.0543 C7H7+ 1 91.0542 0.48
  117.0699 C9H9+ 1 117.0699 0.11
  121.0648 C8H9O+ 1 121.0648 0.15
  147.0809 C10H11O+ 1 147.0804 3.32
  154.0776 C12H10+ 1 154.0777 -0.53
  182.0728 C13H10O+ 1 182.0726 1.06
  197.0959 C14H13O+ 1 197.0961 -0.87
PK$NUM_PEAK: 7
PK$PEAK: m/z int. rel.int.
  91.0543 30980.7 578
  117.0699 53512.3 999
  121.0648 27323.8 510
  147.0809 8991.7 167
  154.0776 8902.9 166
  182.0728 25101.3 468
  197.0959 18731.7 349
//
