ACCESSION: MSBNK-Eawag-EA292314
RECORD_TITLE: Bisperfluorodecyl phosphate; LC-ESI-ITFT; MS2; CE: 35%; R=15000; [M+H]+
DATE: 2014.01.14
AUTHORS: Stravs M, Schymanski E, Singer H, Department of Environmental Chemistry, Eawag
LICENSE: CC BY
COPYRIGHT: Copyright (C) 2012 Eawag, Duebendorf, Switzerland
COMMENT: CONFIDENCE standard compound
COMMENT: EAWAG_UCHEM_ID 2923
CH$NAME: Bisperfluorodecyl phosphate
CH$NAME: 8:2diPAP
CH$NAME: Bis(1H,1H,2H,2H-perfluorodecyl)phosphate
CH$COMPOUND_CLASS: N/A; Environmental Standard
CH$FORMULA: C20H9F34O4P
CH$EXACT_MASS: 989.9696
CH$SMILES: FC(F)(CCOP(=O)(OCCC(F)(F)C(F)(F)C(F)(F)C(F)(F)C(F)(F)C(F)(F)C(F)(F)C(F)(F)F)O)C(F)(F)C(F)(F)C(F)(F)C(F)(F)C(F)(F)C(F)(F)C(F)(F)F
CH$IUPAC: InChI=1S/C20H9F34O4P/c21-5(22,7(25,26)9(29,30)11(33,34)13(37,38)15(41,42)17(45,46)19(49,50)51)1-3-57-59(55,56)58-4-2-6(23,24)8(27,28)10(31,32)12(35,36)14(39,40)16(43,44)18(47,48)20(52,53)54/h1-4H2,(H,55,56)
CH$LINK: CAS 678-41-1
CH$LINK: PUBCHEM CID:3022253
CH$LINK: INCHIKEY AFWOYEYXUDHGHF-UHFFFAOYSA-N
CH$LINK: CHEMSPIDER 2288808
CH$LINK: COMPTOX DTXSID90218051
AC$INSTRUMENT: LTQ Orbitrap XL Thermo Scientific
AC$INSTRUMENT_TYPE: LC-ESI-ITFT
AC$MASS_SPECTROMETRY: MS_TYPE MS2
AC$MASS_SPECTROMETRY: ION_MODE POSITIVE
AC$MASS_SPECTROMETRY: IONIZATION ESI
AC$MASS_SPECTROMETRY: FRAGMENTATION_MODE CID
AC$MASS_SPECTROMETRY: COLLISION_ENERGY 35 % (nominal)
AC$MASS_SPECTROMETRY: RESOLUTION 15000
AC$CHROMATOGRAPHY: COLUMN_NAME XBridge C18 3.5um, 2.1x50mm, Waters
AC$CHROMATOGRAPHY: FLOW_GRADIENT 90/10 at 0 min, 50/50 at 4 min, 5/95 at 17 min, 5/95 at 25 min, 90/10 at 25.1 min, 90/10 at 30 min
AC$CHROMATOGRAPHY: FLOW_RATE 200 ul/min
AC$CHROMATOGRAPHY: RETENTION_TIME 20.4 min
AC$CHROMATOGRAPHY: SOLVENT A water with 0.1% formic acid
AC$CHROMATOGRAPHY: SOLVENT B methanol with 0.1% formic acid
MS$FOCUSED_ION: BASE_PEAK 413.2651
MS$FOCUSED_ION: PRECURSOR_M/Z 990.9768
MS$FOCUSED_ION: PRECURSOR_TYPE [M+H]+
MS$DATA_PROCESSING: DEPROFILE Spline
MS$DATA_PROCESSING: RECALIBRATE loess on assigned fragments and MS1
MS$DATA_PROCESSING: REANALYZE Peaks with additional N2/O included
MS$DATA_PROCESSING: WHOLE RMassBank 1.3.1
PK$SPLASH: splash10-0006-0000090000-56f70b66ade7356473cd
PK$ANNOTATION: m/z tentative_formula formula_count mass error(ppm)
  325.9584 C16HF2O4P+ 2 325.9575 2.69
  544.9787 C16H5F15O2P+ 6 544.9782 0.98
PK$NUM_PEAK: 2
PK$PEAK: m/z int. rel.int.
  325.9584 1676.9 35
  544.9787 47510.2 999
//
