ACCESSION: MSBNK-Eawag-EA030114
RECORD_TITLE: Benzisothiazolone (BIT); LC-ESI-ITFT; MS2; CE: 35%; R=15000; [M+H]+
DATE: 2014.01.14
AUTHORS: Stravs M, Schymanski E, Singer H, Department of Environmental Chemistry, Eawag
LICENSE: CC BY
COPYRIGHT: Copyright (C) 2012 Eawag, Duebendorf, Switzerland
COMMENT: CONFIDENCE standard compound
COMMENT: EAWAG_UCHEM_ID 301
CH$NAME: Benzisothiazolone (BIT)
CH$NAME: 1,2-Benzisothiazol-3(2H)-one
CH$NAME: 1,2-benzothiazol-3-one
CH$COMPOUND_CLASS: N/A; Environmental Standard
CH$FORMULA: C7H5NOS
CH$EXACT_MASS: 151.0092
CH$SMILES: c12c(cccc2)s[nH]c1=O
CH$IUPAC: InChI=1S/C7H5NOS/c9-7-5-3-1-2-4-6(5)10-8-7/h1-4H,(H,8,9)
CH$LINK: CAS 2634-33-5
CH$LINK: PUBCHEM CID:17520
CH$LINK: INCHIKEY DMSMPAJRVJJAGA-UHFFFAOYSA-N
CH$LINK: CHEMSPIDER 16567
CH$LINK: COMPTOX DTXSID5032523
AC$INSTRUMENT: LTQ Orbitrap XL Thermo Scientific
AC$INSTRUMENT_TYPE: LC-ESI-ITFT
AC$MASS_SPECTROMETRY: MS_TYPE MS2
AC$MASS_SPECTROMETRY: ION_MODE POSITIVE
AC$MASS_SPECTROMETRY: IONIZATION ESI
AC$MASS_SPECTROMETRY: FRAGMENTATION_MODE CID
AC$MASS_SPECTROMETRY: COLLISION_ENERGY 35 % (nominal)
AC$MASS_SPECTROMETRY: RESOLUTION 15000
AC$CHROMATOGRAPHY: COLUMN_NAME XBridge C18 3.5um, 2.1x50mm, Waters
AC$CHROMATOGRAPHY: FLOW_GRADIENT 90/10 at 0 min, 50/50 at 4 min, 5/95 at 17 min, 5/95 at 25 min, 90/10 at 25.1 min, 90/10 at 30 min
AC$CHROMATOGRAPHY: FLOW_RATE 200 ul/min
AC$CHROMATOGRAPHY: RETENTION_TIME 5.1 min
AC$CHROMATOGRAPHY: SOLVENT A water with 0.1% formic acid
AC$CHROMATOGRAPHY: SOLVENT B methanol with 0.1% formic acid
MS$FOCUSED_ION: BASE_PEAK 152.0163
MS$FOCUSED_ION: PRECURSOR_M/Z 152.0165
MS$FOCUSED_ION: PRECURSOR_TYPE [M+H]+
MS$DATA_PROCESSING: DEPROFILE Spline
MS$DATA_PROCESSING: RECALIBRATE loess on assigned fragments and MS1
MS$DATA_PROCESSING: REANALYZE Peaks with additional N2/O included
MS$DATA_PROCESSING: WHOLE RMassBank 1.3.1
PK$SPLASH: splash10-0a4i-0900000000-d878d4935d1f41202438
PK$ANNOTATION: m/z tentative_formula formula_count mass error(ppm)
  109.0106 C6H5S+ 1 109.0106 -0.53
  134.0055 C7H4NS+ 1 134.0059 -2.81
  152.0165 C7H6NOS+ 1 152.0165 0.45
PK$NUM_PEAK: 3
PK$PEAK: m/z int. rel.int.
  109.0106 535580.2 999
  134.0055 92209.5 171
  152.0165 20285.4 37
//
