ACCESSION: MSBNK-Eawag-EQ360451
RECORD_TITLE: Profoxydim; LC-ESI-QFT; MS2; CE: 15; R=35000; [M-H]-
DATE: 2015.08.26
AUTHORS: Stravs M, Schymanski E, Singer H, Department of Environmental Chemistry, Eawag and Thomaidis N, University of Athens
LICENSE: CC BY
COPYRIGHT: Copyright (C) 2015 Eawag, Duebendorf, Switzerland
COMMENT: CONFIDENCE standard compound
COMMENT: EAWAG_UCHEM_ID 3604
CH$NAME: Profoxydim
CH$NAME: 2-[1-[2-(4-chlorophenoxy)propoxyamino]butylidene]-5-(thian-3-yl)cyclohexane-1,3-dione
CH$COMPOUND_CLASS: N/A; Environmental Standard
CH$FORMULA: C24H32ClNO4S
CH$EXACT_MASS: 465.17406
CH$SMILES: CCCC(=C1C(=O)CC(CC1=O)C2CCCSC2)NOCC(C)OC3=CC=C(C=C3)Cl
CH$IUPAC: InChI=1S/C24H32ClNO4S/c1-3-5-21(26-29-14-16(2)30-20-9-7-19(25)8-10-20)24-22(27)12-18(13-23(24)28)17-6-4-11-31-15-17/h7-10,16-18,26H,3-6,11-15H2,1-2H3
CH$LINK: CAS 139001-49-3
CH$LINK: PUBCHEM CID:197395
CH$LINK: INCHIKEY NZYQPWCHQXECMD-UHFFFAOYSA-N
CH$LINK: CHEMSPIDER 26504703
AC$INSTRUMENT: Q Exactive Plus Orbitrap Thermo Scientific
AC$INSTRUMENT_TYPE: LC-ESI-QFT
AC$MASS_SPECTROMETRY: MS_TYPE MS2
AC$MASS_SPECTROMETRY: ION_MODE NEGATIVE
AC$MASS_SPECTROMETRY: IONIZATION ESI
AC$MASS_SPECTROMETRY: FRAGMENTATION_MODE HCD
AC$MASS_SPECTROMETRY: COLLISION_ENERGY 15 (nominal)
AC$MASS_SPECTROMETRY: RESOLUTION 35000
AC$CHROMATOGRAPHY: COLUMN_NAME XBridge C18 3.5um, 2.1x50mm, Waters
AC$CHROMATOGRAPHY: FLOW_GRADIENT 90/10 at 0 min, 50/50 at 4 min, 5/95 at 17 min, 5/95 at 25 min, 90/10 at 25.1 min, 90/10 at 30 min
AC$CHROMATOGRAPHY: FLOW_RATE 200 ul/min
AC$CHROMATOGRAPHY: RETENTION_TIME 14.4 min
AC$CHROMATOGRAPHY: SOLVENT A water with 0.1% formic acid
AC$CHROMATOGRAPHY: SOLVENT B methanol with 0.1% formic acid
MS$FOCUSED_ION: BASE_PEAK 464.1659
MS$FOCUSED_ION: PRECURSOR_M/Z 464.1668
MS$FOCUSED_ION: PRECURSOR_TYPE [M-H]-
MS$DATA_PROCESSING: RECALIBRATE loess on assigned fragments and MS1
MS$DATA_PROCESSING: REANALYZE Peaks with additional N2/O included
MS$DATA_PROCESSING: WHOLE RMassBank 1.9.6
PK$SPLASH: splash10-03di-0000900000-8f0dcf53fdafbe2f7ec3
PK$ANNOTATION: m/z tentative_formula formula_count mass error(ppm)
  126.9953 C6H4ClO- 1 126.9956 -2.17
  236.0739 C12H14NO2S- 2 236.0751 -4.8
  280.1373 C15H22NO2S- 1 280.1377 -1.44
  336.164 C18H26NO3S- 2 336.1639 0.45
  464.1662 C24H31ClNO4S- 1 464.1668 -1.29
PK$NUM_PEAK: 5
PK$PEAK: m/z int. rel.int.
  126.9953 742147.2 7
  236.0739 902864.6 9
  280.1373 902971.9 9
  336.164 161815 1
  464.1662 97993952 999
//
