ACCESSION: MSBNK-Eawag-EA275804
RECORD_TITLE: Ephedrine; LC-ESI-ITFT; MS2; CE: 45%; R=7500; [M+H]+
DATE: 2014.01.14
AUTHORS: Stravs M, Schymanski E, Singer H, Department of Environmental Chemistry, Eawag
LICENSE: CC BY
COPYRIGHT: Copyright (C) 2012 Eawag, Duebendorf, Switzerland
COMMENT: CONFIDENCE standard compound
COMMENT: EAWAG_UCHEM_ID 2758
CH$NAME: Ephedrine
CH$NAME: (1R,2S)-2-(methylamino)-1-phenyl-1-propanol
CH$COMPOUND_CLASS: N/A; Environmental Standard
CH$FORMULA: C10H15NO
CH$EXACT_MASS: 165.1154
CH$SMILES: c1([C@H]([C@@H](NC)C)O)ccccc1
CH$IUPAC: InChI=1S/C10H15NO/c1-8(11-2)10(12)9-6-4-3-5-7-9/h3-8,10-12H,1-2H3/t8-,10-/m0/s1
CH$LINK: CAS 299-42-3
CH$LINK: CHEBI CHEBI:15407
CH$LINK: KEGG C01575
CH$LINK: PUBCHEM CID:9294
CH$LINK: INCHIKEY KWGRBVOPPLSCSI-WPRPVWTQSA-N
CH$LINK: CHEMSPIDER 8935
CH$LINK: COMPTOX DTXSID0022985
AC$INSTRUMENT: LTQ Orbitrap XL Thermo Scientific
AC$INSTRUMENT_TYPE: LC-ESI-ITFT
AC$MASS_SPECTROMETRY: MS_TYPE MS2
AC$MASS_SPECTROMETRY: ION_MODE POSITIVE
AC$MASS_SPECTROMETRY: IONIZATION ESI
AC$MASS_SPECTROMETRY: FRAGMENTATION_MODE HCD
AC$MASS_SPECTROMETRY: COLLISION_ENERGY 45 % (nominal)
AC$MASS_SPECTROMETRY: RESOLUTION 7500
AC$CHROMATOGRAPHY: COLUMN_NAME XBridge C18 3.5um, 2.1x50mm, Waters
AC$CHROMATOGRAPHY: FLOW_GRADIENT 90/10 at 0 min, 50/50 at 4 min, 5/95 at 17 min, 5/95 at 25 min, 90/10 at 25.1 min, 90/10 at 30 min
AC$CHROMATOGRAPHY: FLOW_RATE 200 ul/min
AC$CHROMATOGRAPHY: RETENTION_TIME 2.9 min
AC$CHROMATOGRAPHY: SOLVENT A water with 0.1% formic acid
AC$CHROMATOGRAPHY: SOLVENT B methanol with 0.1% formic acid
MS$FOCUSED_ION: BASE_PEAK 166.123
MS$FOCUSED_ION: PRECURSOR_M/Z 166.1226
MS$FOCUSED_ION: PRECURSOR_TYPE [M+H]+
MS$DATA_PROCESSING: DEPROFILE Spline
MS$DATA_PROCESSING: RECALIBRATE loess on assigned fragments and MS1
MS$DATA_PROCESSING: REANALYZE Peaks with additional N2/O included
MS$DATA_PROCESSING: WHOLE RMassBank 1.3.1
PK$SPLASH: splash10-0002-0900000000-bdfb6079227a418eb706
PK$ANNOTATION: m/z tentative_formula formula_count mass error(ppm)
  56.0493 C3H6N+ 1 56.0495 -2.78
  57.0334 C3H5O+ 1 57.0335 -1.77
  70.0652 C4H8N+ 1 70.0651 0.35
  91.054 C7H7+ 1 91.0542 -2.05
  117.0699 C9H9+ 1 117.0699 -0.06
  133.0886 C9H11N+ 1 133.0886 -0.16
  135.0804 C9H11O+ 1 135.0804 -0.01
  148.1122 C10H14N+ 1 148.1121 0.97
  166.1223 C10H16NO+ 1 166.1226 -2.17
PK$NUM_PEAK: 9
PK$PEAK: m/z int. rel.int.
  56.0493 54386.8 5
  57.0334 12270.7 1
  70.0652 54654.5 5
  91.054 22036.3 2
  117.0699 480082.5 50
  133.0886 317144.1 33
  135.0804 189846.2 19
  148.1122 9544599.5 999
  166.1223 339990.9 35
//
