ACCESSION: MSBNK-Eawag-EA064402
RECORD_TITLE: Pantoprazole; LC-ESI-ITFT; MS2; CE: 15%; R=7500; [M+H]+
DATE: 2014.01.14
AUTHORS: Stravs M, Schymanski E, Singer H, Department of Environmental Chemistry, Eawag
LICENSE: CC BY
COPYRIGHT: Copyright (C) 2012 Eawag, Duebendorf, Switzerland
COMMENT: CONFIDENCE standard compound
COMMENT: EAWAG_UCHEM_ID 644
CH$NAME: Pantoprazole
CH$NAME: 6-(difluoromethoxy)-2-[(3,4-dimethoxy-2-pyridinyl)methylsulfinyl]-1H-benzimidazole
CH$COMPOUND_CLASS: N/A; Environmental Standard
CH$FORMULA: C16H15F2N3O4S
CH$EXACT_MASS: 383.0751
CH$SMILES: COC1=C(C(=NC=C1)CS(=O)C2=NC3=C(N2)C=C(C=C3)OC(F)F)OC
CH$IUPAC: InChI=1S/C16H15F2N3O4S/c1-23-13-5-6-19-12(14(13)24-2)8-26(22)16-20-10-4-3-9(25-15(17)18)7-11(10)21-16/h3-7,15H,8H2,1-2H3,(H,20,21)
CH$LINK: CAS 102625-70-7
CH$LINK: CHEBI CHEBI:7915
CH$LINK: HMDB HMDB05017
CH$LINK: KEGG C11806
CH$LINK: PUBCHEM CID:4679
CH$LINK: INCHIKEY IQPSEEYGBUAQFF-UHFFFAOYSA-N
CH$LINK: CHEMSPIDER 4517
CH$LINK: COMPTOX DTXSID4023416
AC$INSTRUMENT: LTQ Orbitrap XL Thermo Scientific
AC$INSTRUMENT_TYPE: LC-ESI-ITFT
AC$MASS_SPECTROMETRY: MS_TYPE MS2
AC$MASS_SPECTROMETRY: ION_MODE POSITIVE
AC$MASS_SPECTROMETRY: IONIZATION ESI
AC$MASS_SPECTROMETRY: FRAGMENTATION_MODE HCD
AC$MASS_SPECTROMETRY: COLLISION_ENERGY 15 % (nominal)
AC$MASS_SPECTROMETRY: RESOLUTION 7500
AC$CHROMATOGRAPHY: COLUMN_NAME XBridge C18 3.5um, 2.1x50mm, Waters
AC$CHROMATOGRAPHY: FLOW_GRADIENT 90/10 at 0 min, 50/50 at 4 min, 5/95 at 17 min, 5/95 at 25 min, 90/10 at 25.1 min, 90/10 at 30 min
AC$CHROMATOGRAPHY: FLOW_RATE 200 ul/min
AC$CHROMATOGRAPHY: RETENTION_TIME 6.6 min
AC$CHROMATOGRAPHY: SOLVENT A water with 0.1% formic acid
AC$CHROMATOGRAPHY: SOLVENT B methanol with 0.1% formic acid
MS$FOCUSED_ION: BASE_PEAK 384.0836
MS$FOCUSED_ION: PRECURSOR_M/Z 384.0824
MS$FOCUSED_ION: PRECURSOR_TYPE [M+H]+
MS$DATA_PROCESSING: DEPROFILE Spline
MS$DATA_PROCESSING: RECALIBRATE loess on assigned fragments and MS1
MS$DATA_PROCESSING: REANALYZE Peaks with additional N2/O included
MS$DATA_PROCESSING: WHOLE RMassBank 1.3.1
PK$SPLASH: splash10-0udi-0492000000-ad12657183be4d366241
PK$ANNOTATION: m/z tentative_formula formula_count mass error(ppm)
  107.073 C7H9N+ 1 107.073 -0.01
  122.0605 C7H8NO+ 1 122.06 4.09
  138.055 C7H8NO2+ 1 138.055 0.18
  152.0705 C8H10NO2+ 2 152.0706 -0.82
  153.0783 C8H11NO2+ 2 153.0784 -0.65
  168.0652 C6H12F2NS+ 2 168.0653 -0.61
  170.0811 C8H12NO3+ 2 170.0812 -0.41
  182.0273 C8H8NO2S+ 3 182.027 1.73
  185.0514 C5H12FNO3S+ 3 185.0516 -1.05
  200.0376 C8H10NO3S+ 3 200.0376 0.2
  384.082 C16H16F2N3O4S+ 1 384.0824 -1.07
PK$NUM_PEAK: 11
PK$PEAK: m/z int. rel.int.
  107.073 24613.3 21
  122.0605 3668.1 3
  138.055 340987.1 302
  152.0705 5728.6 5
  153.0783 101810.5 90
  168.0652 19822.5 17
  170.0811 12519.8 11
  182.0273 2957 2
  185.0514 6890.8 6
  200.0376 1125384.7 999
  384.082 254151 225
//
