ACCESSION: MSBNK-Eawag-EQ304704
RECORD_TITLE: Dichlorvos; LC-ESI-QFT; MS2; CE: 60; R=35000; [M+H]+
DATE: 2015.08.25
AUTHORS: Huntscha S, Stravs M, Schymanski E, Singer H, Department of Environmental Chemistry, Eawag
LICENSE: CC BY
COPYRIGHT: Copyright (C) 2015 Eawag, Duebendorf, Switzerland
COMMENT: CONFIDENCE standard compound
COMMENT: EAWAG_UCHEM_ID 3047
CH$NAME: Dichlorvos
CH$NAME: DDVP
CH$NAME: 2,2-bis(chloranyl)ethenyl dimethyl phosphate
CH$COMPOUND_CLASS: N/A; Environmental Standard
CH$FORMULA: C4H7Cl2O4P
CH$EXACT_MASS: 219.94590
CH$SMILES: O=P(O\C=C(/Cl)Cl)(OC)OC
CH$IUPAC: InChI=1S/C4H7Cl2O4P/c1-8-11(7,9-2)10-3-4(5)6/h3H,1-2H3
CH$LINK: CAS 62-73-7
CH$LINK: CHEBI CHEBI:34690
CH$LINK: KEGG C14430
CH$LINK: PUBCHEM CID:3039
CH$LINK: INCHIKEY OEBRKCOSUFCWJD-UHFFFAOYSA-N
CH$LINK: CHEMSPIDER 2931
CH$LINK: COMPTOX DTXSID5020449
AC$INSTRUMENT: Q Exactive Orbitrap Thermo Scientific
AC$INSTRUMENT_TYPE: LC-ESI-QFT
AC$MASS_SPECTROMETRY: MS_TYPE MS2
AC$MASS_SPECTROMETRY: ION_MODE POSITIVE
AC$MASS_SPECTROMETRY: IONIZATION ESI
AC$MASS_SPECTROMETRY: FRAGMENTATION_MODE HCD
AC$MASS_SPECTROMETRY: COLLISION_ENERGY 60 (nominal)
AC$MASS_SPECTROMETRY: RESOLUTION 35000
AC$CHROMATOGRAPHY: COLUMN_NAME XBridge C18 3.5um, 2.1x50mm, Waters
AC$CHROMATOGRAPHY: FLOW_GRADIENT 90/10 at 0 min, 50/50 at 4 min, 5/95 at 17 min, 5/95 at 25 min, 90/10 at 25.1 min, 90/10 at 30 min
AC$CHROMATOGRAPHY: FLOW_RATE 200 ul/min
AC$CHROMATOGRAPHY: RETENTION_TIME 7.4 min
AC$CHROMATOGRAPHY: SOLVENT A water with 0.1% formic acid
AC$CHROMATOGRAPHY: SOLVENT B methanol with 0.1% formic acid
MS$FOCUSED_ION: BASE_PEAK 220.9533
MS$FOCUSED_ION: PRECURSOR_M/Z 220.9532
MS$FOCUSED_ION: PRECURSOR_TYPE [M+H]+
MS$DATA_PROCESSING: DEPROFILE Spline
MS$DATA_PROCESSING: RECALIBRATE loess on assigned fragments and MS1
MS$DATA_PROCESSING: REANALYZE Peaks with additional N2/O included
MS$DATA_PROCESSING: WHOLE RMassBank 1.9.6
PK$SPLASH: splash10-004i-2900000000-051c8cc88647cdf4959e
PK$ANNOTATION: m/z tentative_formula formula_count mass error(ppm)
  59.9763 C2HCl+ 1 59.9761 2.85
  62.9997 C2H4Cl+ 2 62.9996 2
  64.9787 H2O2P+ 2 64.9787 -0.19
  76.9788 C2H2ClO+ 2 76.9789 -0.37
  78.9943 CH4O2P+ 2 78.9943 -0.54
  94.945 C2HCl2+ 2 94.945 -0.34
  96.9604 CH3ClOP+ 2 96.9605 -0.47
  97.0049 CH6O3P+ 2 97.0049 -0.18
  98.9841 H4O4P+ 2 98.9842 -0.72
  109.0049 C2H6O3P+ 2 109.0049 0.21
  111.9476 CH2ClO2P+ 2 111.9475 0.22
  112.9998 CH6O4P+ 2 112.9998 -0.28
  127.0155 C2H8O4P+ 2 127.0155 -0.17
  130.9656 CH5ClO3P+ 2 130.9659 -2.33
  144.9815 C2H7ClO3P+ 2 144.9816 -0.58
  220.9531 C4H8Cl2O4P+ 1 220.9532 -0.35
PK$NUM_PEAK: 16
PK$PEAK: m/z int. rel.int.
  59.9763 1013929.3 3
  62.9997 604950 1
  64.9787 693276.7 2
  76.9788 1678113.2 5
  78.9943 62357901.1 194
  94.945 2647968.7 8
  96.9604 9386188 29
  97.0049 3730538.4 11
  98.9841 954870.4 2
  109.0049 5124456.9 15
  111.9476 677317.8 2
  112.9998 10127184.2 31
  127.0155 320127440.7 999
  130.9656 1215398.2 3
  144.9815 3564930.3 11
  220.9531 888577.7 2
//
