ACCESSION: MSBNK-Eawag-EQ01089501
RECORD_TITLE: Fluroxypyr-meptyl; LC-ESI-QFT; MS2; CE: 15%; R=15000; [M+H]+
DATE: 2024.06.14
AUTHORS: F. Jud [dtc], K. Arturi [dtc], J. Hollender [dtc], A. Dax [com]
LICENSE: CC BY-SA
COPYRIGHT: Copyright (C) Eawag 2024
COMMENT: CONFIDENCE standard compound
COMMENT: UCHEM_ID 10895
CH$NAME: Fluroxypyr-meptyl
CH$NAME: octan-2-yl 2-(4-amino-3,5-dichloro-6-fluoropyridin-2-yl)oxyacetate
CH$COMPOUND_CLASS: N/A
CH$FORMULA: C15H21Cl2FN2O3
CH$EXACT_MASS: 366.0913261
CH$SMILES: CCCCCCC(C)OC(=O)COC1=NC(=C(C(=C1Cl)N)Cl)F
CH$IUPAC: InChI=1S/C15H21Cl2FN2O3/c1-3-4-5-6-7-9(2)23-10(21)8-22-15-12(17)13(19)11(16)14(18)20-15/h9H,3-8H2,1-2H3,(H2,19,20)
CH$LINK: CAS 69377-81-7
CH$LINK: PUBCHEM CID:54745
CH$LINK: INCHIKEY OLZQTUCTGLHFTQ-UHFFFAOYSA-N
CH$LINK: CHEMSPIDER 49451
AC$INSTRUMENT: Exploris 240 Thermo Scientific
AC$INSTRUMENT_TYPE: LC-ESI-QFT
AC$MASS_SPECTROMETRY: MS_TYPE MS2
AC$MASS_SPECTROMETRY: ION_MODE POSITIVE
AC$MASS_SPECTROMETRY: IONIZATION ESI
AC$MASS_SPECTROMETRY: FRAGMENTATION_MODE HCD
AC$MASS_SPECTROMETRY: COLLISION_ENERGY 15 % (nominal)
AC$MASS_SPECTROMETRY: RESOLUTION 15000
AC$MASS_SPECTROMETRY: MASS_RANGE_M/Z 50-395
AC$CHROMATOGRAPHY: COLUMN_NAME XBridge C18 3.5um, 2.1x50mm, Waters
AC$CHROMATOGRAPHY: FLOW_GRADIENT 90/10 at 0 min, 50/50 at 4 min, 5/95 at 17 min, 5/95 at 25 min, 90/10 at 25.1 min, 90/10 at 30 min
AC$CHROMATOGRAPHY: FLOW_RATE 200 uL/min
AC$CHROMATOGRAPHY: RETENTION_TIME 14.531 min
MS$FOCUSED_ION: BASE_PEAK 389.0807
MS$FOCUSED_ION: PRECURSOR_M/Z 367.0986
MS$FOCUSED_ION: PRECURSOR_TYPE [M+H]+
MS$DATA_PROCESSING: RECALIBRATE loess on assigned fragments and MS1
MS$DATA_PROCESSING: REANALYZE Peaks with additional N2/O included
MS$DATA_PROCESSING: WHOLE RMassBank 3.15.1.1
PK$SPLASH: splash10-0udi-0090000000-68216a3b9ab59110243b
PK$ANNOTATION: m/z tentative_formula formula_count mass error(ppm)
  236.9627 C7H4Cl2FN2O2+ 3 236.9628 -0.62
  254.9733 C7H6Cl2FN2O3+ 2 254.9734 -0.44
PK$NUM_PEAK: 2
PK$PEAK: m/z int. rel.int.
  236.9627 111736.4 37
  254.9733 3012991.2 999
//
