ACCESSION: MSBNK-Eawag-EQ328951
RECORD_TITLE: Nateglinide; LC-ESI-QFT; MS2; CE: 15; R=35000; [M-H]-
DATE: 2015.08.25
AUTHORS: Otto J, Stravs M, Schymanski E, Singer H, Department of Environmental Chemistry, Eawag
LICENSE: CC BY
COPYRIGHT: Copyright (C) 2015 Eawag, Duebendorf, Switzerland
COMMENT: CONFIDENCE standard compound
COMMENT: EAWAG_UCHEM_ID 3289
CH$NAME: Nateglinide
CH$COMPOUND_CLASS: N/A; Environmental Standard
CH$FORMULA: C19H27NO3
CH$EXACT_MASS: 317.19909
CH$SMILES: CC([C@H]1CC[C@@H](CC1)C(=O)N[C@@H](C(=O)O)CC2=CC=CC=C2)C
CH$IUPAC: InChI=1S/C19H27NO3/c1-13(2)15-8-10-16(11-9-15)18(21)20-17(19(22)23)12-14-6-4-3-5-7-14/h3-7,13,15-17H,8-12H2,1-2H3,(H,20,21)(H,22,23)/t15-,16-,17-/m1/s1
CH$LINK: CAS 105816-04-4
CH$LINK: KEGG D01111
CH$LINK: PUBCHEM CID:5311309
CH$LINK: INCHIKEY OELFLUMRDSZNSF-BRWVUGGUSA-N
CH$LINK: CHEMSPIDER 10482084
CH$LINK: COMPTOX DTXSID9040687
AC$INSTRUMENT: Q Exactive Orbitrap Thermo Scientific
AC$INSTRUMENT_TYPE: LC-ESI-QFT
AC$MASS_SPECTROMETRY: MS_TYPE MS2
AC$MASS_SPECTROMETRY: ION_MODE NEGATIVE
AC$MASS_SPECTROMETRY: IONIZATION ESI
AC$MASS_SPECTROMETRY: FRAGMENTATION_MODE HCD
AC$MASS_SPECTROMETRY: COLLISION_ENERGY 15 (nominal)
AC$MASS_SPECTROMETRY: RESOLUTION 35000
AC$CHROMATOGRAPHY: COLUMN_NAME XBridge C18 3.5um, 2.1x50mm, Waters
AC$CHROMATOGRAPHY: FLOW_GRADIENT 90/10 at 0 min, 50/50 at 4 min, 5/95 at 17 min, 5/95 at 25 min, 90/10 at 25.1 min, 90/10 at 30 min
AC$CHROMATOGRAPHY: FLOW_RATE 200 ul/min
AC$CHROMATOGRAPHY: RETENTION_TIME 13.6 min
AC$CHROMATOGRAPHY: SOLVENT A water with 0.1% formic acid
AC$CHROMATOGRAPHY: SOLVENT B methanol with 0.1% formic acid
MS$FOCUSED_ION: BASE_PEAK 316.1918
MS$FOCUSED_ION: PRECURSOR_M/Z 316.1918
MS$FOCUSED_ION: PRECURSOR_TYPE [M-H]-
MS$DATA_PROCESSING: DEPROFILE vendor picking in Proteowizard
MS$DATA_PROCESSING: RECALIBRATE loess on assigned fragments and MS1
MS$DATA_PROCESSING: REANALYZE Peaks with additional N2/O included
MS$DATA_PROCESSING: WHOLE RMassBank 1.9.6
PK$SPLASH: splash10-014i-0009000000-6d3ecfcb5cad6574fb53
PK$ANNOTATION: m/z tentative_formula formula_count mass error(ppm)
  91.0553 C7H7- 1 91.0553 -0.37
  147.0451 C9H7O2- 1 147.0452 -0.36
  164.0717 C9H10NO2- 1 164.0717 -0.07
  168.1393 C10H18NO- 1 168.1394 -0.76
  180.1394 C11H18NO- 1 180.1394 -0.21
  272.2021 C18H26NO- 1 272.202 0.52
  316.1915 C19H26NO3- 1 316.1918 -0.91
PK$NUM_PEAK: 7
PK$PEAK: m/z int. rel.int.
  91.0553 3193191.2 9
  147.0451 7620438 22
  164.0717 8042046.5 24
  168.1393 4950364 14
  180.1394 3132779.2 9
  272.2021 971897.3 2
  316.1915 331376096 999
//
