ACCESSION: MSBNK-Eawag-EQ370908
RECORD_TITLE: Fluometuron; LC-ESI-QFT; MS2; CE: 150%; R=15000; [M+H]+
DATE: 2021.03.16
AUTHORS: K. Kiefer [dtc], J. Hollender [dtc], H. Singer [dtc], B. Lauper [com]
LICENSE: CC BY-SA
COPYRIGHT: Copyright (C) Eawag 2019
PUBLICATION: Kiefer, K., Du, L., Singer, H., Hollender, J.. Identification of LC-HRMS Nontarget Signals in Groundwater After Source Related Prioritization. Water Research 2021, 196. DOI: https://doi.org/10.1016/j.watres.2021.116994
COMMENT: CONFIDENCE standard compound
COMMENT: UCHEM_ID 3709
CH$NAME: Fluometuron
CH$NAME: 1,1-dimethyl-3-[3-(trifluoromethyl)phenyl]urea
CH$COMPOUND_CLASS: N/A; Environmental Standard
CH$FORMULA: C10H11F3N2O
CH$EXACT_MASS: 232.0823
CH$SMILES: CN(C)C(=O)NC1=CC=CC(=C1)C(F)(F)F
CH$IUPAC: InChI=1S/C10H11F3N2O/c1-15(2)9(16)14-8-5-3-4-7(6-8)10(11,12)13/h3-6H,1-2H3,(H,14,16)
CH$LINK: CAS 2164-17-2
CH$LINK: CHEBI CHEBI:82012
CH$LINK: KEGG C18853
CH$LINK: PUBCHEM CID:16562
CH$LINK: INCHIKEY RZILCCPWPBTYDO-UHFFFAOYSA-N
CH$LINK: CHEMSPIDER 15702
CH$LINK: COMPTOX DTXSID8020628
AC$INSTRUMENT: Orbitrap Exploris 240 Thermo Scientific
AC$INSTRUMENT_TYPE: LC-ESI-QFT
AC$MASS_SPECTROMETRY: MS_TYPE MS2
AC$MASS_SPECTROMETRY: ION_MODE POSITIVE
AC$MASS_SPECTROMETRY: IONIZATION ESI
AC$MASS_SPECTROMETRY: FRAGMENTATION_MODE HCD
AC$MASS_SPECTROMETRY: COLLISION_ENERGY 150 % (nominal)
AC$MASS_SPECTROMETRY: RESOLUTION 15000
AC$MASS_SPECTROMETRY: MASS_RANGE_M/Z NA-NA
AC$CHROMATOGRAPHY: COLUMN_NAME Atlantis C18 3um, 3.0x150mm, Waters
AC$CHROMATOGRAPHY: FLOW_GRADIENT 100/0 at 0 min, 100/0 at 1.5 min, 5/95 at 18.5 min, 5/95 at 28.5 min, 100/0 at 29 min, 100/0 at 33 min
AC$CHROMATOGRAPHY: FLOW_RATE 300 uL/min
AC$CHROMATOGRAPHY: RETENTION_TIME 17.852 min
MS$FOCUSED_ION: BASE_PEAK 233.0894
MS$FOCUSED_ION: PRECURSOR_M/Z 233.0896
MS$FOCUSED_ION: PRECURSOR_TYPE [M+H]+
MS$FOCUSED_ION: PRECURSOR_INTENSITY 949104192
MS$DATA_PROCESSING: RECALIBRATE loess on assigned fragments and MS1
MS$DATA_PROCESSING: REANALYZE Peaks with additional N2/O included
MS$DATA_PROCESSING: WHOLE RMassBank 2.99.4
PK$SPLASH: splash10-00di-9100000000-697ace4c6d2cc16ae1e7
PK$ANNOTATION: m/z tentative_formula formula_count mass error(ppm)
  56.0132 C2H2NO+ 1 56.0131 1.44
  63.0231 C5H3+ 1 63.0229 2.89
  72.0444 C3H6NO+ 1 72.0444 -0.07
  75.0229 C6H3+ 1 75.0229 -0.67
  95.0291 C6H4F+ 1 95.0292 -0.26
  123.0356 C6H4FN2+ 1 123.0353 2.22
  125.02 C7H3F2+ 1 125.0197 2.5
  141.0261 C6H3F2N2+ 1 141.0259 1.4
  145.0259 C7H4F3+ 1 145.026 -0.09
PK$NUM_PEAK: 9
PK$PEAK: m/z int. rel.int.
  56.0132 6869369 177
  63.0231 1062793.8 27
  72.0444 38573116 999
  75.0229 2523158.8 65
  95.0291 1192793.9 30
  123.0356 2203114.5 57
  125.02 1247905.1 32
  141.0261 1040789.9 26
  145.0259 2404042.8 62
//
