ACCESSION: MSBNK-Eawag-EA284801
RECORD_TITLE: Acamprosate; LC-ESI-ITFT; MS2; CE: 35%; R=7500; [M+H]+
DATE: 2014.01.14
AUTHORS: Stravs M, Schymanski E, Singer H, Department of Environmental Chemistry, Eawag
LICENSE: CC BY
COPYRIGHT: Copyright (C) 2012 Eawag, Duebendorf, Switzerland
COMMENT: CONFIDENCE standard compound
COMMENT: EAWAG_UCHEM_ID 2848
CH$NAME: Acamprosate
CH$NAME: 3-acetamido-1-propanesulfonic acid
CH$COMPOUND_CLASS: N/A; Environmental Standard
CH$FORMULA: C5H11NO4S
CH$EXACT_MASS: 181.0409
CH$SMILES: O=S(=O)(O)CCCNC(=O)C
CH$IUPAC: InChI=1S/C5H11NO4S/c1-5(7)6-3-2-4-11(8,9)10/h2-4H2,1H3,(H,6,7)(H,8,9,10)
CH$LINK: CAS 77337-76-9
CH$LINK: CHEBI CHEBI:51041
CH$LINK: KEGG D07058
CH$LINK: PUBCHEM CID:71158
CH$LINK: INCHIKEY AFCGFAGUEYAMAO-UHFFFAOYSA-N
CH$LINK: CHEMSPIDER 64300
CH$LINK: COMPTOX DTXSID3044259
AC$INSTRUMENT: LTQ Orbitrap XL Thermo Scientific
AC$INSTRUMENT_TYPE: LC-ESI-ITFT
AC$MASS_SPECTROMETRY: MS_TYPE MS2
AC$MASS_SPECTROMETRY: ION_MODE POSITIVE
AC$MASS_SPECTROMETRY: IONIZATION ESI
AC$MASS_SPECTROMETRY: FRAGMENTATION_MODE CID
AC$MASS_SPECTROMETRY: COLLISION_ENERGY 35 % (nominal)
AC$MASS_SPECTROMETRY: RESOLUTION 7500
AC$CHROMATOGRAPHY: COLUMN_NAME XBridge C18 3.5um, 2.1x50mm, Waters
AC$CHROMATOGRAPHY: FLOW_GRADIENT 90/10 at 0 min, 50/50 at 4 min, 5/95 at 17 min, 5/95 at 25 min, 90/10 at 25.1 min, 90/10 at 30 min
AC$CHROMATOGRAPHY: FLOW_RATE 200 ul/min
AC$CHROMATOGRAPHY: RETENTION_TIME 1.0 min
AC$CHROMATOGRAPHY: SOLVENT A water with 0.1% formic acid
AC$CHROMATOGRAPHY: SOLVENT B methanol with 0.1% formic acid
MS$FOCUSED_ION: BASE_PEAK 182.0486
MS$FOCUSED_ION: PRECURSOR_M/Z 182.0482
MS$FOCUSED_ION: PRECURSOR_TYPE [M+H]+
MS$DATA_PROCESSING: DEPROFILE Spline
MS$DATA_PROCESSING: RECALIBRATE loess on assigned fragments and MS1
MS$DATA_PROCESSING: REANALYZE Peaks with additional N2/O included
MS$DATA_PROCESSING: WHOLE RMassBank 1.3.1
PK$SPLASH: splash10-0006-0900000000-d8de420d40b45a34ea95
PK$ANNOTATION: m/z tentative_formula formula_count mass error(ppm)
  123.0113 C3H7O3S+ 1 123.011 1.69
  140.0375 C3H10NO3S+ 1 140.0376 -0.58
PK$NUM_PEAK: 2
PK$PEAK: m/z int. rel.int.
  123.0113 13818.1 2
  140.0375 4869598.4 999
//
