ACCESSION: MSBNK-Eawag-EA267514
RECORD_TITLE: Moclobemide; LC-ESI-ITFT; MS2; CE: 35%; R=30000; [M+H]+
DATE: 2014.01.14
AUTHORS: Stravs M, Schymanski E, Singer H, Department of Environmental Chemistry, Eawag
LICENSE: CC BY
COPYRIGHT: Copyright (C) 2012 Eawag, Duebendorf, Switzerland
COMMENT: CONFIDENCE standard compound
COMMENT: EAWAG_UCHEM_ID 2675
CH$NAME: Moclobemide
CH$NAME: 4-chloranyl-N-(2-morpholin-4-ylethyl)benzamide
CH$COMPOUND_CLASS: N/A; Environmental Standard
CH$FORMULA: C13H17ClN2O2
CH$EXACT_MASS: 268.0979
CH$SMILES: Cl-c(ccc1C(=O)NCCN(CCO2)CC2)cc1
CH$IUPAC: InChI=1S/C13H17ClN2O2/c14-12-3-1-11(2-4-12)13(17)15-5-6-16-7-9-18-10-8-16/h1-4H,5-10H2,(H,15,17)
CH$LINK: CAS 71320-77-9
CH$LINK: KEGG D02561
CH$LINK: PUBCHEM CID:4235
CH$LINK: INCHIKEY YHXISWVBGDMDLQ-UHFFFAOYSA-N
CH$LINK: CHEMSPIDER 4087
CH$LINK: COMPTOX DTXSID9040554
AC$INSTRUMENT: LTQ Orbitrap XL Thermo Scientific
AC$INSTRUMENT_TYPE: LC-ESI-ITFT
AC$MASS_SPECTROMETRY: MS_TYPE MS2
AC$MASS_SPECTROMETRY: ION_MODE POSITIVE
AC$MASS_SPECTROMETRY: IONIZATION ESI
AC$MASS_SPECTROMETRY: FRAGMENTATION_MODE CID
AC$MASS_SPECTROMETRY: COLLISION_ENERGY 35 % (nominal)
AC$MASS_SPECTROMETRY: RESOLUTION 30000
AC$CHROMATOGRAPHY: COLUMN_NAME XBridge C18 3.5um, 2.1x50mm, Waters
AC$CHROMATOGRAPHY: FLOW_GRADIENT 90/10 at 0 min, 50/50 at 4 min, 5/95 at 17 min, 5/95 at 25 min, 90/10 at 25.1 min, 90/10 at 30 min
AC$CHROMATOGRAPHY: FLOW_RATE 200 ul/min
AC$CHROMATOGRAPHY: RETENTION_TIME 4.5 min
AC$CHROMATOGRAPHY: SOLVENT A water with 0.1% formic acid
AC$CHROMATOGRAPHY: SOLVENT B methanol with 0.1% formic acid
MS$FOCUSED_ION: BASE_PEAK 269.1062
MS$FOCUSED_ION: PRECURSOR_M/Z 269.1051
MS$FOCUSED_ION: PRECURSOR_TYPE [M+H]+
MS$DATA_PROCESSING: DEPROFILE Spline
MS$DATA_PROCESSING: RECALIBRATE loess on assigned fragments and MS1
MS$DATA_PROCESSING: REANALYZE Peaks with additional N2/O included
MS$DATA_PROCESSING: WHOLE RMassBank 1.3.1
PK$SPLASH: splash10-001i-0900000000-a885de4ee2be84e3748d
PK$ANNOTATION: m/z tentative_formula formula_count mass error(ppm)
  88.0757 C4H10NO+ 1 88.0757 0.34
  110.9991 C6H4Cl+ 1 110.9996 -4.81
  114.0914 C6H12NO+ 1 114.0913 0.7
  138.9945 C7H4ClO+ 1 138.9945 0.08
  182.0369 C9H9ClNO+ 2 182.0367 1.05
PK$NUM_PEAK: 5
PK$PEAK: m/z int. rel.int.
  88.0757 9694.3 2
  110.9991 4966.8 1
  114.0914 15206.7 3
  138.9945 15649 3
  182.0369 4028976 999
//
