ACCESSION: MSBNK-Eawag-EA029813
RECORD_TITLE: Sulfamethoxazole; LC-ESI-ITFT; MS2; CE: 90%; R=30000; [M+H]+
DATE: 2014.01.14
AUTHORS: Stravs M, Schymanski E, Singer H, Department of Environmental Chemistry, Eawag
LICENSE: CC BY
COPYRIGHT: Copyright (C) 2012 Eawag, Duebendorf, Switzerland
COMMENT: CONFIDENCE standard compound
COMMENT: EAWAG_UCHEM_ID 298
CH$NAME: Sulfamethoxazole
CH$NAME: 4-Amino-N-(5-methyl-3-isoxazolyl)benzenesulfonamide
CH$NAME: 4-amino-N-(5-methyl-1,2-oxazol-3-yl)benzenesulfonamide
CH$COMPOUND_CLASS: N/A; Environmental Standard
CH$FORMULA: C10H11N3O3S
CH$EXACT_MASS: 253.0521
CH$SMILES: c1(S(Nc2cc(C)on2)(=O)=O)ccc(N)cc1
CH$IUPAC: InChI=1S/C10H11N3O3S/c1-7-6-10(12-16-7)13-17(14,15)9-4-2-8(11)3-5-9/h2-6H,11H2,1H3,(H,12,13)
CH$LINK: CAS 723-46-6
CH$LINK: CHEBI CHEBI:9332
CH$LINK: KEGG C07315
CH$LINK: PUBCHEM CID:5329
CH$LINK: INCHIKEY JLKIGFTWXXRPMT-UHFFFAOYSA-N
CH$LINK: CHEMSPIDER 5138
CH$LINK: COMPTOX DTXSID8026064
AC$INSTRUMENT: LTQ Orbitrap XL Thermo Scientific
AC$INSTRUMENT_TYPE: LC-ESI-ITFT
AC$MASS_SPECTROMETRY: MS_TYPE MS2
AC$MASS_SPECTROMETRY: ION_MODE POSITIVE
AC$MASS_SPECTROMETRY: IONIZATION ESI
AC$MASS_SPECTROMETRY: FRAGMENTATION_MODE HCD
AC$MASS_SPECTROMETRY: COLLISION_ENERGY 90 % (nominal)
AC$MASS_SPECTROMETRY: RESOLUTION 30000
AC$CHROMATOGRAPHY: COLUMN_NAME XBridge C18 3.5um, 2.1x50mm, Waters
AC$CHROMATOGRAPHY: FLOW_GRADIENT 90/10 at 0 min, 50/50 at 4 min, 5/95 at 17 min, 5/95 at 25 min, 90/10 at 25.1 min, 90/10 at 30 min
AC$CHROMATOGRAPHY: FLOW_RATE 200 ul/min
AC$CHROMATOGRAPHY: RETENTION_TIME 4.6 min
AC$CHROMATOGRAPHY: SOLVENT A water with 0.1% formic acid
AC$CHROMATOGRAPHY: SOLVENT B methanol with 0.1% formic acid
MS$FOCUSED_ION: BASE_PEAK 254.0603
MS$FOCUSED_ION: PRECURSOR_M/Z 254.0594
MS$FOCUSED_ION: PRECURSOR_TYPE [M+H]+
MS$DATA_PROCESSING: DEPROFILE Spline
MS$DATA_PROCESSING: RECALIBRATE loess on assigned fragments and MS1
MS$DATA_PROCESSING: REANALYZE Peaks with additional N2/O included
MS$DATA_PROCESSING: WHOLE RMassBank 1.3.1
PK$SPLASH: splash10-05mo-9400000000-68dc3bc1422a652b6c43
PK$ANNOTATION: m/z tentative_formula formula_count mass error(ppm)
  65.0386 C5H5+ 1 65.0386 0.51
  68.0495 C4H6N+ 1 68.0495 -0.08
  72.0444 C3H6NO+ 1 72.0444 0
  78.0339 C5H4N+ 1 78.0338 0.31
  80.0495 C5H6N+ 1 80.0495 -0.07
  92.0495 C6H6N+ 1 92.0495 0.37
  93.0573 C6H7N+ 1 93.0573 -0.01
  94.0652 C6H8N+ 1 94.0651 0.26
  96.0444 C5H6NO+ 1 96.0444 0.21
  99.0553 C4H7N2O+ 1 99.0553 -0.3
  106.0526 C6H6N2+ 1 106.0525 0.76
  107.0604 C6H7N2+ 1 107.0604 0.52
  108.0444 C6H6NO+ 1 108.0444 0.18
  110.06 C6H8NO+ 1 110.06 -0.18
  119.0603 C7H7N2+ 1 119.0604 -0.88
  131.0602 C8H7N2+ 1 131.0604 -1.03
  146.0713 C8H8N3+ 1 146.0713 -0.09
  147.0788 C8H9N3+ 1 147.0791 -1.96
  160.0868 C9H10N3+ 1 160.0869 -0.46
PK$NUM_PEAK: 19
PK$PEAK: m/z int. rel.int.
  65.0386 232060.1 722
  68.0495 12347.6 38
  72.0444 2084.8 6
  78.0339 1437.8 4
  80.0495 65306.1 203
  92.0495 320914.4 999
  93.0573 84342.5 262
  94.0652 2863.3 8
  96.0444 3489.8 10
  99.0553 30217 94
  106.0526 1792 5
  107.0604 7817.4 24
  108.0444 278953.7 868
  110.06 26416.9 82
  119.0603 3232.4 10
  131.0602 1531.4 4
  146.0713 14520.4 45
  147.0788 5806.6 18
  160.0868 5226.6 16
//
