ACCESSION: MSBNK-Eawag-EQ417752
RECORD_TITLE: Terbuthylazine-TP CSCD692760 (LM3); LC-ESI-QFT; MS2; CE: 30%; R=17500; [M-H]-
DATE: 2019.12.03
AUTHORS: K. Kiefer [dtc], J. Hollender [dtc], H. Singer [dtc], M. Stravs [com]
LICENSE: CC BY-SA
COPYRIGHT: Copyright (C) Eawag 2019
PUBLICATION: Kiefer, K.; Mueller, A.; Singer, H.; Hollender, J. New relevant pesticide transformation products in groundwater detected using target and suspect screening for agricultural and urban micropollutants with LC-HRMS. Water Research 2019, 165. DOI: https://doi.org/10.1016/j.watres.2019.114972
COMMENT: CONFIDENCE standard compound
COMMENT: UCHEM_ID 4177
CH$NAME: Terbuthylazine-TP CSCD692760 (LM3)
CH$NAME: 6-Hydroxy-7,7-dimethyl-7,8-dihydroimidazo[1,2-a][1,3,5]triazine-2,4(3H,6H)-dione
CH$COMPOUND_CLASS: N/A; Environmental Standard
CH$FORMULA: C7H10N4O3
CH$EXACT_MASS: 198.0753
CH$SMILES: CC1(C)NC2=NC(O)=NC(=O)N2C1O
CH$IUPAC: InChI=1S/C7H10N4O3/c1-7(2)3(12)11-4(10-7)8-5(13)9-6(11)14/h3,12H,1-2H3,(H2,8,9,10,13,14)
CH$LINK: INCHIKEY SDFNUIRNRULFGI-UHFFFAOYSA-N
CH$LINK: CHEMSPIDER 71047231
AC$INSTRUMENT: Q Exactive Plus Orbitrap Thermo Scientific
AC$INSTRUMENT_TYPE: LC-ESI-QFT
AC$MASS_SPECTROMETRY: MS_TYPE MS2
AC$MASS_SPECTROMETRY: ION_MODE NEGATIVE
AC$MASS_SPECTROMETRY: IONIZATION ESI
AC$MASS_SPECTROMETRY: FRAGMENTATION_MODE HCD
AC$MASS_SPECTROMETRY: COLLISION_ENERGY 30 % (nominal)
AC$MASS_SPECTROMETRY: RESOLUTION 17500
AC$CHROMATOGRAPHY: COLUMN_NAME XBridge C18 3.5um, 2.1x50mm, Waters
AC$CHROMATOGRAPHY: FLOW_GRADIENT 90/10 at 0 min, 50/50 at 4 min, 5/95 at 17 min, 5/95 at 25 min, 90/10 at 25.1 min, 90/10 at 30 min
AC$CHROMATOGRAPHY: FLOW_RATE 200 uL/min
AC$CHROMATOGRAPHY: RETENTION_TIME 1.287 min
AC$CHROMATOGRAPHY: SOLVENT A water with 0.1% formic acid
AC$CHROMATOGRAPHY: SOLVENT B MeOH with 0.1% formic acid
MS$FOCUSED_ION: BASE_PEAK 197.0679
MS$FOCUSED_ION: PRECURSOR_M/Z 197.068
MS$FOCUSED_ION: PRECURSOR_TYPE [M-H]-
MS$DATA_PROCESSING: RECALIBRATE loess on assigned fragments and MS1
MS$DATA_PROCESSING: REANALYZE Peaks with additional N2/O included
MS$DATA_PROCESSING: WHOLE RMassBank 2.99.1
PK$SPLASH: splash10-01ot-0900000000-2338be3d163d35e5c821
PK$ANNOTATION: m/z tentative_formula formula_count mass error(ppm)
  67.0303 C3H3N2- 1 67.0302 1.5
  83.0615 C4H7N2- 1 83.0615 0.68
  84.0203 C2H2N3O- 1 84.0203 -0.18
  85.0044 C2HN2O2- 1 85.0044 0.58
  111.0564 C5H7N2O- 1 111.0564 -0.06
  112.0597 H8N4O3- 1 112.0602 -4.06
  125.0834 C5H9N4- 1 125.0833 1.13
  127.0261 C3H3N4O2- 1 127.0261 -0.06
  136.0516 C6H6N3O- 1 136.0516 -0.59
  154.0621 C6H8N3O2- 1 154.0622 -0.46
  169.0731 C6H9N4O2- 1 169.0731 0.17
  179.0573 C7H7N4O2- 1 179.0574 -0.78
  197.0679 C7H9N4O3- 1 197.068 -0.35
PK$NUM_PEAK: 14
PK$PEAK: m/z int. rel.int.
  67.0303 41254.1 5
  83.0615 100399.5 13
  84.0203 326521.5 43
  85.0044 113578.7 15
  111.0564 4399822.5 584
  112.0597 42098 5
  125.0834 76483.6 10
  127.0261 1123924.8 149
  136.0516 81534.2 10
  154.0621 420569.2 55
  169.0731 1986044.9 263
  179.0573 99087.6 13
  197.0679 7523898.5 999
  198.0714 160657.8 21
//
