ACCESSION: MSBNK-Eawag-EA295514
RECORD_TITLE: Thiacloprid-amide; LC-ESI-ITFT; MS2; CE: 35%; R=15000; [M+H]+
DATE: 2014.01.14
AUTHORS: Stravs M, Schymanski E, Singer H, Department of Environmental Chemistry, Eawag
LICENSE: CC BY
COPYRIGHT: Copyright (C) 2012 Eawag, Duebendorf, Switzerland
COMMENT: CONFIDENCE standard compound
COMMENT: EAWAG_UCHEM_ID 2955
CH$NAME: Thiacloprid-amide
CH$NAME: [3-(6-Chloro-3-pyridylmethyl)thiazolidin-2-ylidene]urea
CH$COMPOUND_CLASS: N/A; Environmental Standard
CH$FORMULA: C10H11ClN4OS
CH$EXACT_MASS: 270.0342
CH$SMILES: Clc1ncc(cc1)CN2C(=N/C(=O)N)/SCC2
CH$IUPAC: InChI=1S/C10H11ClN4OS/c11-8-2-1-7(5-13-8)6-15-3-4-17-10(15)14-9(12)16/h1-2,5H,3-4,6H2,(H2,12,16)/b14-10-
CH$LINK: CAS 676228-91-4
CH$LINK: PUBCHEM CID:16212161
CH$LINK: INCHIKEY LEZHOZPJYAQQNU-UVTDQMKNSA-N
CH$LINK: CHEMSPIDER 17340044
CH$LINK: COMPTOX DTXSID60583566
AC$INSTRUMENT: LTQ Orbitrap XL Thermo Scientific
AC$INSTRUMENT_TYPE: LC-ESI-ITFT
AC$MASS_SPECTROMETRY: MS_TYPE MS2
AC$MASS_SPECTROMETRY: ION_MODE POSITIVE
AC$MASS_SPECTROMETRY: IONIZATION ESI
AC$MASS_SPECTROMETRY: FRAGMENTATION_MODE CID
AC$MASS_SPECTROMETRY: COLLISION_ENERGY 35 % (nominal)
AC$MASS_SPECTROMETRY: RESOLUTION 15000
AC$CHROMATOGRAPHY: COLUMN_NAME XBridge C18 3.5um, 2.1x50mm, Waters
AC$CHROMATOGRAPHY: FLOW_GRADIENT 90/10 at 0 min, 50/50 at 4 min, 5/95 at 17 min, 5/95 at 25 min, 90/10 at 25.1 min, 90/10 at 30 min
AC$CHROMATOGRAPHY: FLOW_RATE 200 ul/min
AC$CHROMATOGRAPHY: RETENTION_TIME 4.6 min
AC$CHROMATOGRAPHY: SOLVENT A water with 0.1% formic acid
AC$CHROMATOGRAPHY: SOLVENT B methanol with 0.1% formic acid
MS$FOCUSED_ION: BASE_PEAK 271.0418
MS$FOCUSED_ION: PRECURSOR_M/Z 271.0415
MS$FOCUSED_ION: PRECURSOR_TYPE [M+H]+
MS$DATA_PROCESSING: DEPROFILE Spline
MS$DATA_PROCESSING: RECALIBRATE loess on assigned fragments and MS1
MS$DATA_PROCESSING: REANALYZE Peaks with additional N2/O included
MS$DATA_PROCESSING: WHOLE RMassBank 1.3.1
PK$SPLASH: splash10-0udi-0090000000-96facceb268b8499b281
PK$ANNOTATION: m/z tentative_formula formula_count mass error(ppm)
  126.01 C9H2O+ 2 126.01 -0.52
  228.0357 C9H11ClN3S+ 1 228.0357 -0.01
  229.0196 C9H10ClN2OS+ 1 229.0197 -0.3
  254.0149 C10H9ClN3OS+ 1 254.0149 -0.03
PK$NUM_PEAK: 4
PK$PEAK: m/z int. rel.int.
  126.01 77974.1 10
  228.0357 1739892.4 236
  229.0196 8125.7 1
  254.0149 7345843.8 999
//
