ACCESSION: MSBNK-Eawag-EQ501358
RECORD_TITLE: Xipamide; LC-ESI-QFT; MS2; CE: 150%; R=15000; [M-H]-
DATE: 2021.03.16
AUTHORS: K. Kiefer [dtc], J. Hollender [dtc], H. Singer [dtc], B. Lauper [com]
LICENSE: CC BY-SA
COPYRIGHT: Copyright (C) Eawag 2019
PUBLICATION: Kiefer, K.; Mueller, A.; Singer, H.; Hollender, J. New relevant pesticide transformation products in groundwater detected using target and suspect screening for agricultural and urban micropollutants with LC-HRMS. Water Research 2019, 165. DOI: https://doi.org/10.1016/j.watres.2019.114972
COMMENT: CONFIDENCE standard compound
COMMENT: UCHEM_ID 5013
CH$NAME: Xipamide
CH$NAME: 4-chloro-N-(2,6-dimethylphenyl)-2-hydroxy-5-sulfamoylbenzamide
CH$COMPOUND_CLASS: N/A; Environmental Standard
CH$FORMULA: C15H15ClN2O4S
CH$EXACT_MASS: 354.0441
CH$SMILES: CC1=C(C(=CC=C1)C)NC(=O)C2=CC(=C(C=C2O)Cl)S(=O)(=O)N
CH$IUPAC: InChI=1S/C15H15ClN2O4S/c1-8-4-3-5-9(2)14(8)18-15(20)10-6-13(23(17,21)22)11(16)7-12(10)19/h3-7,19H,1-2H3,(H,18,20)(H2,17,21,22)
CH$LINK: CAS 14293-44-8
CH$LINK: CHEBI 135499
CH$LINK: KEGG D06341
CH$LINK: PUBCHEM CID:26618
CH$LINK: INCHIKEY MTZBBNMLMNBNJL-UHFFFAOYSA-N
CH$LINK: CHEMSPIDER 24795
CH$LINK: COMPTOX DTXSID5023744
AC$INSTRUMENT: Orbitrap Exploris 240 Thermo Scientific
AC$INSTRUMENT_TYPE: LC-ESI-QFT
AC$MASS_SPECTROMETRY: MS_TYPE MS2
AC$MASS_SPECTROMETRY: ION_MODE NEGATIVE
AC$MASS_SPECTROMETRY: IONIZATION ESI
AC$MASS_SPECTROMETRY: FRAGMENTATION_MODE HCD
AC$MASS_SPECTROMETRY: COLLISION_ENERGY 150 % (nominal)
AC$MASS_SPECTROMETRY: RESOLUTION 15000
AC$MASS_SPECTROMETRY: MASS_RANGE_M/Z NA-NA
AC$CHROMATOGRAPHY: COLUMN_NAME Atlantis C18 3um, 3.0x150mm, Waters
AC$CHROMATOGRAPHY: FLOW_GRADIENT 100/0 at 0 min, 100/0 at 1.5 min, 5/95 at 18.5 min, 5/95 at 28.5 min, 100/0 at 29 min, 100/0 at 33 min
AC$CHROMATOGRAPHY: FLOW_RATE 300 uL/min
AC$CHROMATOGRAPHY: RETENTION_TIME 17.859 min
MS$FOCUSED_ION: BASE_PEAK 353.0365
MS$FOCUSED_ION: PRECURSOR_M/Z 353.0368
MS$FOCUSED_ION: PRECURSOR_TYPE [M-H]-
MS$FOCUSED_ION: PRECURSOR_INTENSITY 133348944
MS$DATA_PROCESSING: RECALIBRATE loess on assigned fragments and MS1
MS$DATA_PROCESSING: REANALYZE Peaks with additional N2/O included
MS$DATA_PROCESSING: WHOLE RMassBank 2.99.4
PK$SPLASH: splash10-004i-9000000000-f5b31cd5090b36cf7989
PK$ANNOTATION: m/z tentative_formula formula_count mass error(ppm)
  50.0037 C3N- 1 50.0036 0.97
  61.0084 C5H- 1 61.0084 0.98
  61.9707 NOS- 1 61.9706 2.22
  63.9624 O2S- 1 63.9624 -0.88
  65.0034 C4HO- 1 65.0033 1.13
  65.9985 C3NO- 1 65.9985 -0.42
  76.0193 C5H2N- 1 76.0193 0.45
  77.9655 NO2S- 1 77.9655 -0.64
  78.9734 HNO2S- 1 78.9733 1.12
  89.0032 C6HO- 1 89.0033 -0.79
  94.0297 C5H4NO- 1 94.0298 -1.98
  95.0136 C5H3O2- 1 95.0139 -3.11
  104.0148 H8O4S- 2 104.0149 -0.87
  105.0223 C3H6ClN2- 3 105.0225 -2.27
PK$NUM_PEAK: 14
PK$PEAK: m/z int. rel.int.
  50.0037 648087.5 107
  61.0084 210968.3 34
  61.9707 432643.3 71
  63.9624 1215833.1 201
  65.0034 281189.2 46
  65.9985 324242.2 53
  76.0193 228549.9 37
  77.9655 6038363.5 999
  78.9734 233109.9 38
  89.0032 149145 24
  94.0297 235812.5 39
  95.0136 264623 43
  104.0148 120635.6 19
  105.0223 236900.5 39
//
