ACCESSION: MSBNK-Eawag-EQ417102
RECORD_TITLE: Chlorothalonil-TP R471811; LC-ESI-QFT; MS2; CE: 30%; R=17500; [M+H]+
DATE: 2019.12.03
AUTHORS: K. Kiefer [dtc], J. Hollender [dtc], H. Singer [dtc], M. Stravs [com]
LICENSE: CC BY-SA
COPYRIGHT: Copyright (C) Eawag 2019
PUBLICATION: Kiefer, K.; Mueller, A.; Singer, H.; Hollender, J. New relevant pesticide transformation products in groundwater detected using target and suspect screening for agricultural and urban micropollutants with LC-HRMS. Water Research 2019, 165. DOI: https://doi.org/10.1016/j.watres.2019.114972
COMMENT: CONFIDENCE standard compound
COMMENT: UCHEM_ID 4171
CH$NAME: Chlorothalonil-TP R471811
CH$NAME: 2,4-dicarbamoyl-3,5,6-trichlorobenzenesulfonic acid
CH$COMPOUND_CLASS: N/A; Environmental Standard
CH$FORMULA: C8H5Cl3N2O5S
CH$EXACT_MASS: 345.8985
CH$SMILES: NC(=O)C1=C(Cl)C(C(N)=O)=C(C(Cl)=C1Cl)S(O)(=O)=O
CH$IUPAC: InChI=1S/C8H5Cl3N2O5S/c9-3-1(7(12)14)4(10)5(11)6(19(16,17)18)2(3)8(13)15/h(H2,12,14)(H2,13,15)(H,16,17,18)
CH$LINK: PUBCHEM CID:138402810
CH$LINK: INCHIKEY NLCNUAPJCIAONV-UHFFFAOYSA-N
AC$INSTRUMENT: Q Exactive Plus Orbitrap Thermo Scientific
AC$INSTRUMENT_TYPE: LC-ESI-QFT
AC$MASS_SPECTROMETRY: MS_TYPE MS2
AC$MASS_SPECTROMETRY: ION_MODE POSITIVE
AC$MASS_SPECTROMETRY: IONIZATION ESI
AC$MASS_SPECTROMETRY: FRAGMENTATION_MODE HCD
AC$MASS_SPECTROMETRY: COLLISION_ENERGY 30 % (nominal)
AC$MASS_SPECTROMETRY: RESOLUTION 17500
AC$CHROMATOGRAPHY: COLUMN_NAME XBridge C18 3.5um, 2.1x50mm, Waters
AC$CHROMATOGRAPHY: FLOW_GRADIENT 90/10 at 0 min, 50/50 at 4 min, 5/95 at 17 min, 5/95 at 25 min, 90/10 at 25.1 min, 90/10 at 30 min
AC$CHROMATOGRAPHY: FLOW_RATE 200 uL/min
AC$CHROMATOGRAPHY: RETENTION_TIME 1.062 min
AC$CHROMATOGRAPHY: SOLVENT A water with 0.1% formic acid
AC$CHROMATOGRAPHY: SOLVENT B MeOH with 0.1% formic acid
MS$FOCUSED_ION: BASE_PEAK 346.906
MS$FOCUSED_ION: PRECURSOR_M/Z 346.9058
MS$FOCUSED_ION: PRECURSOR_TYPE [M+H]+
MS$DATA_PROCESSING: RECALIBRATE loess on assigned fragments and MS1
MS$DATA_PROCESSING: REANALYZE Peaks with additional N2/O included
MS$DATA_PROCESSING: WHOLE RMassBank 2.99.1
PK$SPLASH: splash10-004i-0009000000-346987393aee6c431573
PK$ANNOTATION: m/z tentative_formula formula_count mass error(ppm)
  204.9015 C7Cl3O+ 1 204.9009 2.8
  221.9275 C7H3Cl3NO+ 1 221.9275 0.3
  222.9113 C7H2Cl3O2+ 2 222.9115 -0.89
  229.9408 C8H2Cl2NO3+ 2 229.9406 0.76
  265.9174 C8H3Cl3NO3+ 1 265.9173 0.5
  312.8526 C8Cl3O5S+ 1 312.8527 -0.29
  329.8792 C8H3Cl3NO5S+ 1 329.8792 0.05
PK$NUM_PEAK: 8
PK$PEAK: m/z int. rel.int.
  204.9015 7101.9 3
  221.9275 49173.8 27
  222.9113 64811.5 36
  229.9408 54262.5 30
  265.9174 35850.3 19
  312.8526 210772.1 117
  329.8792 1796356.2 999
  347.89 143322.9 79
//
