ACCESSION: MSBNK-Eawag-EQ01125854
RECORD_TITLE: Flubendiamide; LC-ESI-QFT; MS2; CE: 60%; R=17500; [M-H]-
DATE: 2023.04.27
AUTHORS: B. Beck [dtc,com], J. Hollender [dtc]
LICENSE: CC BY-SA
COPYRIGHT: Copyright (C) Eawag 2023
COMMENT: CONFIDENCE standard compound
COMMENT: UCHEM_ID 11258
CH$NAME: Flubendiamide
CH$NAME: 1-N-[4-(1,1,1,2,3,3,3-heptafluoropropan-2-yl)-2-methylphenyl]-3-iodo-2-N-(2-methyl-1-methylsulfonylpropan-2-yl)benzene-1,2-dicarboxamide
CH$COMPOUND_CLASS: N/A; Environmental Standard
CH$FORMULA: C23H22F7IN2O4S
CH$EXACT_MASS: 682.0233
CH$SMILES: CC1=C(C=CC(=C1)C(C(F)(F)F)(C(F)(F)F)F)NC(=O)C2=C(C(=CC=C2)I)C(=O)NC(C)(C)CS(=O)(=O)C
CH$IUPAC: InChI=1S/C23H22F7IN2O4S/c1-12-10-13(21(24,22(25,26)27)23(28,29)30)8-9-16(12)32-18(34)14-6-5-7-15(31)17(14)19(35)33-20(2,3)11-38(4,36)37/h5-10H,11H2,1-4H3,(H,32,34)(H,33,35)
CH$LINK: CAS 272451-65-7
CH$LINK: CHEBI CHEBI:38798
CH$LINK: PUBCHEM CID:11193251
CH$LINK: INCHIKEY ZGNITFSDLCMLGI-UHFFFAOYSA-N
CH$LINK: CHEMSPIDER 9368325
AC$INSTRUMENT: Exploris 240 Orbitrap Thermo Scientific
AC$INSTRUMENT_TYPE: LC-ESI-QFT
AC$MASS_SPECTROMETRY: MS_TYPE MS2
AC$MASS_SPECTROMETRY: ION_MODE NEGATIVE
AC$MASS_SPECTROMETRY: IONIZATION ESI
AC$MASS_SPECTROMETRY: FRAGMENTATION_MODE HCD
AC$MASS_SPECTROMETRY: COLLISION_ENERGY 60 % (nominal)
AC$MASS_SPECTROMETRY: RESOLUTION 17500
AC$MASS_SPECTROMETRY: MASS_RANGE_M/Z 71-716
AC$CHROMATOGRAPHY: COLUMN_NAME XBridge C18 3.5um, 2.1x50mm, Waters
AC$CHROMATOGRAPHY: FLOW_GRADIENT 90/10 at 0 min, 50/50 at 4 min, 5/95 at 17 min, 5/95 at 25 min, 90/10 at 25.1 min, 90/10 at 30 min
AC$CHROMATOGRAPHY: FLOW_RATE 200 uL/min
AC$CHROMATOGRAPHY: RETENTION_TIME 10.966 min
MS$FOCUSED_ION: BASE_PEAK 681.0162
MS$FOCUSED_ION: PRECURSOR_M/Z 681.016
MS$FOCUSED_ION: PRECURSOR_TYPE [M-H]-
MS$DATA_PROCESSING: RECALIBRATE loess on assigned fragments and MS1
MS$DATA_PROCESSING: REANALYZE Peaks with additional N2/O included
MS$DATA_PROCESSING: WHOLE RMassBank 3.11.0.1
PK$SPLASH: splash10-01r6-0890000000-09420a35b1988b0baf4e
PK$ANNOTATION: m/z tentative_formula formula_count mass error(ppm)
  116.9959 C5F3- 1 116.9958 1.12
  126.905 I- 1 126.905 0.17
  194.0224 C10H3F3N- 4 194.0223 0.27
  205.0279 C9H5F4O- 5 205.0282 -1.58
  207.0235 C9H7N2O2S- 5 207.0234 0.6
  214.0286 C10H4F4N- 5 214.0285 0.43
  234.0351 C18H4N- 9 234.0349 0.79
  254.041 F5H18IN- 9 254.041 0.04
  271.9214 C8H3INO2- 5 271.9214 -0.15
PK$NUM_PEAK: 9
PK$PEAK: m/z int. rel.int.
  116.9959 101423.9 8
  126.905 6567206 518
  194.0224 12646940 999
  205.0279 431237.1 34
  207.0235 213350.6 16
  214.0286 11491299 907
  234.0351 1419040.4 112
  254.041 4837202 382
  271.9214 2012362.6 158
//
