ACCESSION: MSBNK-Eawag-EQ314003
RECORD_TITLE: Nystatin; LC-ESI-QFT; MS2; CE: 45; R=35000; [M+H]+
DATE: 2015.08.25
AUTHORS: Beck B, Stravs M, Schymanski E, Singer H, Department of Environmental Chemistry, Eawag
LICENSE: CC BY
COPYRIGHT: Copyright (C) 2015 Eawag, Duebendorf, Switzerland
COMMENT: CONFIDENCE standard compound
COMMENT: EAWAG_UCHEM_ID 3140
CH$NAME: Nystatin
CH$NAME: (1S,3R,4R,7R,9R,11R,15S,16R,17R,18S,19E,21E,25E,27E,29E,31E,33R,35S,36R,37S)-33-[(3-Amino-3,6-dideoxy-?-D-mannopyranosyl)oxy]-1,3,4,7,9,11,17,37-octahydroxy-15,16,18-trimethyl-13-oxo-14,39-dioxabic yclo[33.3.1]nonatriaconta-19,21,25,27,29,31-hexaene-36-carboxylic acid
CH$COMPOUND_CLASS: N/A; Environmental Standard
CH$FORMULA: C47H75NO17
CH$EXACT_MASS: 925.50350
CH$SMILES: CC1C=CC=CCCC=CC=CC=CC=CC(CC2C(C(CC(O2)(CC(C(CCC(CC(CC(CC(=O)OC(C(C1O)C)C)O)O)O)O)O)O)O)C(=O)O)OC3C(C(C(C(O3)C)O)N)O
CH$IUPAC: InChI=1S/C47H75NO17/c1-27-17-15-13-11-9-7-5-6-8-10-12-14-16-18-34(64-46-44(58)41(48)43(57)30(4)63-46)24-38-40(45(59)60)37(54)26-47(61,65-38)25-36(53)35(52)20-19-31(49)21-32(50)22-33(51)23-39(55)62-29(3)28(2)42(27)56/h5-6,8,10-18,27-38,40-44,46,49-54,56-58,61H,7,9,19-26,48H2,1-4H3,(H,59,60)/b6-5+,10-8+,13-11+,14-12+,17-15+,18-16+/t27-,28-,29-,30+,31+,32+,33+,34-,35+,36+,37-,38-,40+,41-,42+,43+,44-,46-,47+/m0/s1
CH$LINK: PUBCHEM CID:11286230
CH$LINK: INCHIKEY VQOXZBDYSJBXMA-NQTDYLQESA-N
CH$LINK: CHEMSPIDER 23078586
CH$LINK: COMPTOX DTXSID80872323
AC$INSTRUMENT: Q Exactive Orbitrap Thermo Scientific
AC$INSTRUMENT_TYPE: LC-ESI-QFT
AC$MASS_SPECTROMETRY: MS_TYPE MS2
AC$MASS_SPECTROMETRY: ION_MODE POSITIVE
AC$MASS_SPECTROMETRY: IONIZATION ESI
AC$MASS_SPECTROMETRY: FRAGMENTATION_MODE HCD
AC$MASS_SPECTROMETRY: COLLISION_ENERGY 45 (nominal)
AC$MASS_SPECTROMETRY: RESOLUTION 35000
AC$CHROMATOGRAPHY: COLUMN_NAME XBridge C18 3.5um, 2.1x50mm, Waters
AC$CHROMATOGRAPHY: FLOW_GRADIENT 90/10 at 0 min, 50/50 at 4 min, 5/95 at 17 min, 5/95 at 25 min, 90/10 at 25.1 min, 90/10 at 30 min
AC$CHROMATOGRAPHY: FLOW_RATE 200 ul/min
AC$CHROMATOGRAPHY: RETENTION_TIME 11.6 min
AC$CHROMATOGRAPHY: SOLVENT A water with 0.1% formic acid
AC$CHROMATOGRAPHY: SOLVENT B methanol with 0.1% formic acid
MS$FOCUSED_ION: BASE_PEAK 926.5109
MS$FOCUSED_ION: PRECURSOR_M/Z 926.5108
MS$FOCUSED_ION: PRECURSOR_TYPE [M+H]+
MS$DATA_PROCESSING: DEPROFILE Spline
MS$DATA_PROCESSING: RECALIBRATE loess on assigned fragments and MS1
MS$DATA_PROCESSING: REANALYZE Peaks with additional N2/O included
MS$DATA_PROCESSING: WHOLE RMassBank 1.9.6
PK$SPLASH: splash10-05ox-3920000000-3bfc629a32d032c5754c
PK$ANNOTATION: m/z tentative_formula formula_count mass error(ppm)
  65.0385 C5H5+ 1 65.0386 -1.18
  67.0542 C5H7+ 1 67.0542 -0.7
  69.0334 C4H5O+ 1 69.0335 -0.74
  69.0698 C5H9+ 1 69.0699 -0.82
  71.0127 C3H3O2+ 1 71.0128 -1.07
  71.0491 C4H7O+ 1 71.0491 -1.14
  73.0284 C3H5O2+ 1 73.0284 -0.08
  74.0965 C4H12N+ 1 74.0964 1.27
  77.0384 C6H5+ 1 77.0386 -2.68
  79.0542 C6H7+ 1 79.0542 -0.59
  81.0335 C5H5O+ 1 81.0335 -0.39
  81.0698 C6H9+ 1 81.0699 -0.7
  83.0491 C5H7O+ 1 83.0491 -0.62
  83.0855 C6H11+ 1 83.0855 -0.56
  84.0443 C4H6NO+ 1 84.0444 -1.67
  85.0284 C4H5O2+ 1 85.0284 -0.54
  85.0648 C5H9O+ 1 85.0648 -0.49
  87.0439 C4H7O2+ 1 87.0441 -1.68
  89.0233 C3H5O3+ 1 89.0233 -0.68
  91.0542 C7H7+ 1 91.0542 -0.73
  93.0698 C7H9+ 1 93.0699 -0.82
  95.0127 C5H3O2+ 1 95.0128 -0.69
  95.0491 C6H7O+ 1 95.0491 -0.64
  95.0854 C7H11+ 1 95.0855 -0.91
  97.0283 C5H5O2+ 1 97.0284 -0.68
  97.0647 C6H9O+ 1 97.0648 -0.84
  97.1011 C7H13+ 1 97.1012 -0.89
  99.044 C5H7O2+ 1 99.0441 -0.46
  100.0474 H8N2O4+ 1 100.0479 -4.68
  101.0233 C4H5O3+ 1 101.0233 -0.4
  101.0597 C5H9O2+ 1 101.0597 -0.36
  103.0542 C8H7+ 1 103.0542 -0.26
  105.0698 C8H9+ 1 105.0699 -0.44
  106.0732 C3H10N2O2+ 1 106.0737 -4.8
  107.0491 C7H7O+ 1 107.0491 -0.29
  107.0855 C8H11+ 1 107.0855 -0.44
  108.0888 C3H12N2O2+ 1 108.0893 -4.52
  109.0647 C7H9O+ 1 109.0648 -0.65
  109.1011 C8H13+ 1 109.1012 -0.52
  110.1045 C3H14N2O2+ 1 110.105 -4.62
  111.044 C6H7O2+ 1 111.0441 -0.32
  111.0804 C7H11O+ 1 111.0804 -0.73
  113.0233 C5H5O3+ 1 113.0233 -0.62
  113.0596 C6H9O2+ 1 113.0597 -0.67
  113.096 C7H13O+ 1 113.0961 -0.63
  115.0389 C5H7O3+ 1 115.039 -0.79
  115.0541 C9H7+ 1 115.0542 -1.01
  116.062 C9H8+ 1 116.0621 -0.53
  117.0698 C9H9+ 1 117.0699 -0.91
  118.0731 C4H10N2O2+ 1 118.0737 -4.9
  119.0491 C8H7O+ 1 119.0491 -0.18
  119.0854 C9H11+ 1 119.0855 -0.73
  120.0888 C4H12N2O2+ 1 120.0893 -4.07
  121.0283 C7H5O2+ 1 121.0284 -0.79
  121.0647 C8H9O+ 1 121.0648 -0.75
  121.1011 C9H13+ 1 121.1012 -1.05
  122.0681 C3H10N2O3+ 1 122.0686 -4.37
  122.1044 C4H14N2O2+ 1 122.105 -4.42
  123.0439 C7H7O2+ 1 123.0441 -1.19
  123.0803 C8H11O+ 1 123.0804 -1.23
  123.1167 C9H15+ 1 123.1168 -1.27
  125.0232 C6H5O3+ 1 125.0233 -0.96
  125.0596 C7H9O2+ 1 125.0597 -0.69
  125.096 C8H13O+ 1 125.0961 -0.89
  127.039 C6H7O3+ 1 127.039 0.23
  127.0754 C7H11O2+ 1 127.0754 0.11
  128.0619 C10H8+ 1 128.0621 -0.95
  129.0546 C6H9O3+ 1 129.0546 -0.55
  129.0698 C10H9+ 1 129.0699 -0.75
  130.0731 C5H10N2O2+ 1 130.0737 -4.22
  130.0778 C10H10+ 1 130.0777 0.83
  131.0491 C9H7O+ 1 131.0491 -0.62
  131.0855 C10H11+ 1 131.0855 -0.51
  132.057 C9H8O+ 1 132.057 0.18
  132.0888 C5H12N2O2+ 1 132.0893 -3.7
  132.0934 C10H12+ 1 132.0934 0.21
  133.0647 C9H9O+ 1 133.0648 -0.46
  133.1011 C10H13+ 1 133.1012 -0.65
  134.0681 C4H10N2O3+ 1 134.0686 -3.91
  134.0726 C9H10O+ 1 134.0726 -0.49
  134.1044 C5H14N2O2+ 1 134.105 -4.39
  135.0439 C8H7O2+ 1 135.0441 -0.78
  135.0804 C9H11O+ 1 135.0804 -0.6
  135.1168 C10H15+ 1 135.1168 -0.5
  136.0839 C4H12N2O3+ 1 136.0842 -2.45
  137.0597 C8H9O2+ 1 137.0597 -0.19
  137.096 C9H13O+ 1 137.0961 -0.45
  139.0389 C7H7O3+ 1 139.039 -0.51
  139.0753 C8H11O2+ 1 139.0754 -0.55
  139.1118 C9H15O+ 1 139.1117 0.06
  141.0546 C7H9O3+ 1 141.0546 -0.07
  141.0698 C11H9+ 1 141.0699 -0.61
  142.0731 C6H10N2O2+ 1 142.0737 -4
  142.0779 C11H10+ 1 142.0777 1.25
  143.0856 C11H11+ 1 143.0855 0.23
  144.0568 C10H8O+ 1 144.057 -0.81
  144.0936 C11H12+ 1 144.0934 1.72
  145.0648 C10H9O+ 1 145.0648 0.34
  145.1012 C11H13+ 1 145.1012 -0.05
  146.0679 C5H10N2O3+ 1 146.0686 -4.75
  146.073 C10H10O+ 1 146.0726 2.83
  146.0812 C6H12NO3+ 1 146.0812 0.41
  146.1046 C6H14N2O2+ 1 146.105 -2.87
  146.1095 C11H14+ 1 146.109 3.14
  147.044 C9H7O2+ 1 147.0441 -0.11
  147.0804 C10H11O+ 1 147.0804 -0.21
  147.1168 C11H15+ 1 147.1168 -0.39
  148.084 C5H12N2O3+ 1 148.0842 -1.71
  148.1202 C6H16N2O2+ 1 148.1206 -2.56
  149.0231 C8H5O3+ 1 149.0233 -1.14
  149.0597 C9H9O2+ 1 149.0597 0.23
  149.0961 C10H13O+ 1 149.0961 0.12
  149.1325 C11H17+ 1 149.1325 -0.11
  151.039 C8H7O3+ 1 151.039 0.06
  151.0753 C9H11O2+ 1 151.0754 -0.11
  151.1117 C10H15O+ 1 151.1117 -0.41
  152.062 C12H8+ 1 152.0621 -0.47
  153.0546 C8H9O3+ 1 153.0546 -0.46
  153.0698 C12H9+ 1 153.0699 -0.63
  153.091 C9H13O2+ 1 153.091 0.29
  154.0778 C12H10+ 1 154.0777 0.7
  155.0704 C8H11O3+ 1 155.0703 0.96
  155.0855 C12H11+ 1 155.0855 -0.5
  156.0886 C7H12N2O2+ 1 156.0893 -4.67
  156.0941 C12H12+ 1 156.0934 4.6
  157.0648 C11H9O+ 1 157.0648 -0.07
  157.1012 C12H13+ 1 157.1012 -0.11
  158.0727 C11H10O+ 1 158.0726 0.53
  158.109 C12H14+ 1 158.109 0.24
  159.0441 C10H7O2+ 1 159.0441 0.09
  159.0804 C11H11O+ 1 159.0804 -0.32
  159.1168 C12H15+ 1 159.1168 -0.04
  161.0596 C10H9O2+ 1 161.0597 -0.53
  161.0961 C11H13O+ 1 161.0961 -0.07
  161.1325 C12H17+ 1 161.1325 -0.17
  162.1357 C7H18N2O2+ 1 162.1363 -3.51
  163.039 C9H7O3+ 1 163.039 0.06
  163.0753 C10H11O2+ 1 163.0754 -0.47
  163.1116 C11H15O+ 1 163.1117 -1.11
  165.0547 C9H9O3+ 1 165.0546 0.3
  165.0698 C13H9+ 1 165.0699 -0.34
  165.0909 C10H13O2+ 1 165.091 -0.58
  166.0779 C13H10+ 1 166.0777 1.07
  167.0704 C9H11O3+ 1 167.0703 0.71
  167.0855 C13H11+ 1 167.0855 0.02
  168.0572 C12H8O+ 1 168.057 1.33
  168.087 C5H14NO5+ 1 168.0866 2.33
  168.0939 C13H12+ 1 168.0934 3.38
  169.0648 C12H9O+ 1 169.0648 0.23
  169.0862 C9H13O3+ 1 169.0859 1.42
  169.1011 C13H13+ 1 169.1012 -0.28
  171.0439 C11H7O2+ 1 171.0441 -1.03
  171.0804 C12H11O+ 1 171.0804 -0.53
  171.1167 C13H15+ 1 171.1168 -0.45
  173.0597 C11H9O2+ 1 173.0597 -0.15
  173.0961 C12H13O+ 1 173.0961 0.11
  173.1325 C13H17+ 1 173.1325 -0.1
  174.1 C7H14N2O3+ 1 174.0999 0.32
  175.039 C10H7O3+ 1 175.039 0.11
  175.0753 C11H11O2+ 1 175.0754 -0.21
  175.1115 C12H15O+ 1 175.1117 -1.21
  175.1481 C13H19+ 1 175.1481 -0.27
  176.0787 C6H12N2O4+ 1 176.0792 -2.77
  177.0547 C10H9O3+ 1 177.0546 0.22
  177.0909 C11H13O2+ 1 177.091 -0.37
  177.1275 C12H17O+ 1 177.1274 0.61
  178.0777 C14H10+ 1 178.0777 -0.18
  179.0703 C10H11O3+ 1 179.0703 0.44
  179.0855 C14H11+ 1 179.0855 -0.32
  180.0938 C14H12+ 1 180.0934 2.71
  181.0494 C9H9O4+ 1 181.0495 -0.8
  181.0649 C13H9O+ 1 181.0648 0.38
  181.0862 C10H13O3+ 1 181.0859 1.6
  181.1012 C14H13+ 1 181.1012 -0.09
  182.0727 C13H10O+ 1 182.0726 0.68
  182.1091 C14H14+ 1 182.109 0.32
  183.0806 C13H11O+ 1 183.0804 0.76
  183.1169 C14H15+ 1 183.1168 0.4
  184.089 C13H12O+ 1 184.0883 3.71
  184.1254 C14H16+ 1 184.1247 4.01
  185.0597 C12H9O2+ 1 185.0597 -0.09
  185.0817 C9H13O4+ 1 185.0808 4.62
  185.0962 C13H13O+ 1 185.0961 0.42
  185.1326 C14H17+ 1 185.1325 0.83
  186.1356 C9H18N2O2+ 1 186.1363 -3.54
  187.0753 C12H11O2+ 1 187.0754 -0.19
  187.1117 C13H15O+ 1 187.1117 -0.33
  187.1481 C14H19+ 1 187.1481 -0.09
  189.0548 C11H9O3+ 1 189.0546 0.95
  189.0911 C12H13O2+ 1 189.091 0.29
  190.0776 C15H10+ 1 190.0777 -0.43
  190.0946 C7H14N2O4+ 1 190.0948 -0.99
  191.0704 C11H11O3+ 1 191.0703 0.68
  191.0853 C15H11+ 1 191.0855 -1.08
  191.1066 C12H15O2+ 1 191.1067 -0.45
  192.0938 C15H12+ 1 192.0934 2.39
  193.0864 C11H13O3+ 1 193.0859 2.43
  193.1012 C15H13+ 1 193.1012 0.07
  194.0725 C14H10O+ 1 194.0726 -0.44
  194.0898 C6H14N2O5+ 1 194.0897 0.55
  194.1096 C15H14+ 1 194.109 2.88
  195.0805 C14H11O+ 1 195.0804 0.35
  195.1169 C15H15+ 1 195.1168 0.27
  196.088 C14H12O+ 1 196.0883 -1.36
  196.125 C15H16+ 1 196.1247 1.77
  197.0596 C13H9O2+ 1 197.0597 -0.39
  197.0961 C14H13O+ 1 197.0961 -0.01
  197.1325 C15H17+ 1 197.1325 -0.04
  198.0995 C9H14N2O3+ 1 198.0999 -2.14
  199.0753 C13H11O2+ 1 199.0754 -0.08
  199.1116 C14H15O+ 1 199.1117 -0.76
  199.1481 C15H19+ 1 199.1481 -0.34
  200.1515 C10H20N2O2+ 1 200.1519 -2.39
  201.0545 C12H9O3+ 1 201.0546 -0.4
  201.0909 C13H13O2+ 1 201.091 -0.68
  201.1276 C14H17O+ 1 201.1274 0.84
  201.1639 C15H21+ 1 201.1638 0.41
  202.0776 C16H10+ 1 202.0777 -0.31
  203.0703 C12H11O3+ 1 203.0703 0.29
  203.0853 C16H11+ 1 203.0855 -1.02
  203.1061 C13H15O2+ 1 203.1067 -2.64
  204.0939 C16H12+ 1 204.0934 2.83
  205.1012 C16H13+ 1 205.1012 0.26
  205.1221 C13H17O2+ 1 205.1223 -1.01
  206.1097 C16H14+ 1 206.109 3.63
  207.0659 C11H11O4+ 1 207.0652 3.5
  207.0808 C15H11O+ 1 207.0804 1.59
  207.1019 C12H15O3+ 1 207.1016 1.73
  207.1168 C16H15+ 1 207.1168 0.11
  208.0886 C15H12O+ 1 208.0883 1.8
  208.1243 C16H16+ 1 208.1247 -1.74
  209.06 C14H9O2+ 1 209.0597 1.6
  209.081 C11H13O4+ 1 209.0808 0.98
  209.0961 C15H13O+ 1 209.0961 -0.05
  209.1173 C12H17O3+ 1 209.1172 0.14
  209.1325 C16H17+ 1 209.1325 0.01
  210.14 C16H18+ 1 210.1403 -1.25
  211.0754 C14H11O2+ 1 211.0754 0.16
  211.0967 C11H15O4+ 1 211.0965 0.97
  211.1117 C15H15O+ 1 211.1117 -0.34
  211.148 C16H19+ 1 211.1481 -0.51
  212.1562 C16H20+ 1 212.156 0.98
  213.0911 C14H13O2+ 1 213.091 0.25
  213.1275 C15H17O+ 1 213.1274 0.37
  213.1638 C16H21+ 1 213.1638 0.11
  214.172 C16H22+ 1 214.1716 1.86
  215.0703 C13H11O3+ 1 215.0703 0.23
  215.0853 C17H11+ 1 215.0855 -1.19
  215.1068 C14H15O2+ 1 215.1067 0.44
  216.0937 C17H12+ 1 216.0934 1.52
  217.086 C13H13O3+ 1 217.0859 0.37
  217.1012 C17H13+ 1 217.1012 0.2
  217.1228 C14H17O2+ 1 217.1223 2.41
  218.0896 C8H14N2O5+ 1 218.0897 -0.7
  218.1094 C17H14+ 1 218.109 1.83
  219.0654 C12H11O4+ 1 219.0652 1.03
  219.0804 C16H11O+ 1 219.0804 -0.37
  219.1017 C13H15O3+ 1 219.1016 0.77
  219.117 C17H15+ 1 219.1168 0.84
  220.0884 C16H12O+ 1 220.0883 0.47
  220.1248 C17H16+ 1 220.1247 0.76
  221.0961 C16H13O+ 1 221.0961 0.08
  221.1325 C17H17+ 1 221.1325 0.24
  222.1392 C17H18+ 1 222.1403 -4.78
  223.0753 C15H11O2+ 1 223.0754 -0.43
  223.1117 C16H15O+ 1 223.1117 -0.37
  223.1482 C17H19+ 1 223.1481 0.15
  225.091 C15H13O2+ 1 225.091 0.11
  225.1125 C12H17O4+ 1 225.1121 1.53
  225.1275 C16H17O+ 1 225.1274 0.39
  225.1635 C17H21+ 1 225.1638 -1.14
  227.0699 C14H11O3+ 1 227.0703 -1.54
  227.1066 C15H15O2+ 1 227.1067 -0.07
  227.143 C16H19O+ 1 227.143 -0.32
  227.18 C17H23+ 1 227.1794 2.57
  228.0931 C18H12+ 1 228.0934 -1.06
  229.0867 C14H13O3+ 1 229.0859 3.23
  229.1002 C18H13+ 1 229.1012 -4.05
  229.1221 C15H17O2+ 1 229.1223 -1.12
  230.1091 C18H14+ 1 230.109 0.6
  231.0805 C17H11O+ 1 231.0804 0.43
  231.102 C14H15O3+ 1 231.1016 1.68
  231.117 C18H15+ 1 231.1168 0.92
  232.0885 C17H12O+ 1 232.0883 1.05
  232.1238 C18H16+ 1 232.1247 -3.84
  233.0808 C13H13O4+ 1 233.0808 0.02
  233.0964 C17H13O+ 1 233.0961 1.37
  233.1174 C14H17O3+ 1 233.1172 0.94
  233.1324 C18H17+ 1 233.1325 -0.16
  234.1037 C17H14O+ 1 234.1039 -0.92
  235.0757 C16H11O2+ 1 235.0754 1.34
  235.0968 C13H15O4+ 1 235.0965 1.17
  235.1118 C17H15O+ 1 235.1117 0.42
  235.1325 C14H19O3+ 1 235.1329 -1.53
  235.1482 C18H19+ 1 235.1481 0.52
  237.0911 C16H13O2+ 1 237.091 0.31
  237.1126 C13H17O4+ 1 237.1121 1.96
  237.1275 C17H17O+ 1 237.1274 0.25
  237.1638 C18H21+ 1 237.1638 -0.07
  239.0709 C15H11O3+ 1 239.0703 2.8
  239.0852 C19H11+ 1 239.0855 -1.28
  239.1066 C16H15O2+ 1 239.1067 -0.32
  239.1431 C17H19O+ 1 239.143 0.41
  239.18 C18H23+ 1 239.1794 2.27
  240.1115 C11H16N2O4+ 1 240.1105 4.17
  241.0863 C15H13O3+ 1 241.0859 1.53
  241.1011 C19H13+ 1 241.1012 -0.11
  241.1223 C16H17O2+ 1 241.1223 0.06
  241.1592 C17H21O+ 1 241.1587 1.94
  242.1091 C19H14+ 1 242.109 0.57
  243.102 C15H15O3+ 1 243.1016 1.77
  243.117 C19H15+ 1 243.1168 0.67
  243.1381 C16H19O2+ 1 243.138 0.43
  244.1063 C10H16N2O5+ 1 244.1054 4
  244.1248 C19H16+ 1 244.1247 0.61
  245.0962 C18H13O+ 1 245.0961 0.48
  245.1187 C18H15N+ 1 245.1199 -4.74
  245.1323 C19H17+ 1 245.1325 -0.64
  246.1038 C18H14O+ 1 246.1039 -0.27
  247.0973 C14H15O4+ 1 247.0965 3.46
  247.1121 C18H15O+ 1 247.1117 1.37
  247.1479 C19H19+ 1 247.1481 -0.76
  248.1195 C18H16O+ 1 248.1196 -0.27
  248.1556 C19H20+ 1 248.156 -1.38
  249.091 C17H13O2+ 1 249.091 -0.02
  249.1272 C18H17O+ 1 249.1274 -0.93
  249.164 C19H21+ 1 249.1638 0.89
  250.1356 C18H18O+ 1 250.1352 1.53
  251.1068 C17H15O2+ 1 251.1067 0.73
  251.1282 C14H19O4+ 1 251.1278 1.69
  251.1432 C18H19O+ 1 251.143 0.71
  251.1796 C19H23+ 1 251.1794 0.85
  253.0864 C16H13O3+ 1 253.0859 2.05
  253.1024 C20H13+ 1 253.1012 4.67
  253.122 C17H17O2+ 1 253.1223 -1.17
  253.159 C18H21O+ 1 253.1587 1.38
  254.1087 C20H14+ 1 254.109 -0.99
  255.1017 C16H15O3+ 1 255.1016 0.55
  255.1167 C20H15+ 1 255.1168 -0.3
  255.1382 C17H19O2+ 1 255.138 0.88
  256.1255 C20H16+ 1 256.1247 3.12
  257.0808 C15H13O4+ 1 257.0808 -0.1
  257.096 C19H13O+ 1 257.0961 -0.32
  257.1174 C16H17O3+ 1 257.1172 0.81
  257.1326 C20H17+ 1 257.1325 0.48
  258.1031 C19H14O+ 1 258.1039 -3.12
  258.1391 C20H18+ 1 258.1403 -4.81
  259.0968 C15H15O4+ 1 259.0965 1.14
  259.1121 C19H15O+ 1 259.1117 1.31
  259.1485 C20H19+ 1 259.1481 1.25
  260.1191 C19H16O+ 1 260.1196 -1.68
  260.1552 C20H20+ 1 260.156 -2.97
  261.0912 C18H13O2+ 1 261.091 0.9
  261.1125 C15H17O4+ 1 261.1121 1.28
  261.1272 C19H17O+ 1 261.1274 -0.58
  261.1635 C20H21+ 1 261.1638 -1.25
  262.1153 C10H18N2O6+ 1 262.1159 -2.51
  263.1066 C18H15O2+ 1 263.1067 -0.14
  263.1427 C19H19O+ 1 263.143 -1.45
  263.1793 C20H23+ 1 263.1794 -0.45
  264.1133 C18H16O2+ 1 264.1145 -4.36
  265.0866 C17H13O3+ 1 265.0859 2.71
  265.1004 C21H13+ 1 265.1012 -2.97
  265.1229 C18H17O2+ 1 265.1223 2.05
  265.1581 C19H21O+ 1 265.1587 -2.34
  265.1957 C20H25+ 1 265.1951 2.42
  266.109 C21H14+ 1 266.109 -0.12
  267.1018 C17H15O3+ 1 267.1016 0.93
  267.1168 C21H15+ 1 267.1168 -0.03
  267.1386 C18H19O2+ 1 267.138 2.26
  268.1245 C21H16+ 1 268.1247 -0.68
  269.0968 C20H13O+ 1 269.0961 2.48
  269.1172 C17H17O3+ 1 269.1172 0.03
  269.1327 C21H17+ 1 269.1325 0.68
  269.1535 C18H21O2+ 1 269.1536 -0.32
  270.1043 C20H14O+ 1 270.1039 1.27
  270.1405 C21H18+ 1 270.1403 0.62
  271.0967 C16H15O4+ 1 271.0965 0.79
  271.112 C20H15O+ 1 271.1117 1.1
  271.1339 C17H19O3+ 1 271.1329 3.65
  271.1477 C21H19+ 1 271.1481 -1.72
  272.1189 C20H16O+ 1 272.1196 -2.34
  273.0916 C19H13O2+ 1 273.091 2.06
  273.1271 C20H17O+ 1 273.1274 -1.18
  273.1632 C21H21+ 1 273.1638 -2.08
  274.1347 C20H18O+ 1 274.1352 -1.74
  275.1057 C19H15O2+ 1 275.1067 -3.66
  275.1426 C20H19O+ 1 275.143 -1.75
  275.1798 C21H23+ 1 275.1794 1.43
  277.1219 C19H17O2+ 1 277.1223 -1.36
  277.1591 C20H21O+ 1 277.1587 1.51
  277.1956 C21H25+ 1 277.1951 1.96
  279.1017 C18H15O3+ 1 279.1016 0.46
  279.1224 C15H19O5+ 1 279.1227 -1.22
  279.1386 C19H19O2+ 1 279.138 2.45
  280.1251 C22H16+ 1 280.1247 1.53
  281.1174 C18H17O3+ 1 281.1172 0.64
  281.1326 C22H17+ 1 281.1325 0.51
  281.154 C19H21O2+ 1 281.1536 1.26
  282.1406 C22H18+ 1 282.1403 1.16
  283.113 C21H15O+ 1 283.1117 4.55
  283.1326 C18H19O3+ 1 283.1329 -0.89
  283.1486 C22H19+ 1 283.1481 1.6
  284.12 C21H16O+ 1 284.1196 1.46
  285.1123 C17H17O4+ 1 285.1121 0.68
  285.1277 C21H17O+ 1 285.1274 1.12
  285.1641 C22H21+ 1 285.1638 1.13
  287.1069 C20H15O2+ 1 287.1067 0.78
  287.1286 C17H19O4+ 1 287.1278 2.77
  287.1433 C21H19O+ 1 287.143 0.9
  287.1795 C22H23+ 1 287.1794 0.18
  289.1081 C16H17O5+ 1 289.1071 3.53
  289.1225 C20H17O2+ 1 289.1223 0.74
  289.1591 C21H21O+ 1 289.1587 1.52
  289.1953 C22H25+ 1 289.1951 0.87
  291.1021 C19H15O3+ 1 291.1016 1.99
  291.1377 C20H19O2+ 1 291.138 -0.78
  291.1744 C21H23O+ 1 291.1743 0.27
  291.211 C22H27+ 1 291.2107 0.83
  293.117 C19H17O3+ 1 293.1172 -0.86
  293.133 C23H17+ 1 293.1325 1.92
  293.1543 C20H21O2+ 1 293.1536 2.47
  294.1407 C23H18+ 1 294.1403 1.32
  295.0962 C18H15O4+ 1 295.0965 -0.9
  295.1119 C22H15O+ 1 295.1117 0.71
  295.1333 C19H19O3+ 1 295.1329 1.35
  295.1491 C23H19+ 1 295.1481 3.26
  295.1691 C20H23O2+ 1 295.1693 -0.56
  297.1342 C15H21O6+ 1 297.1333 3.21
  297.1632 C23H21+ 1 297.1638 -1.94
  298.1353 C22H18O+ 1 298.1352 0.25
  299.1438 C22H19O+ 1 299.143 2.4
  299.1793 C23H23+ 1 299.1794 -0.26
  301.1225 C21H17O2+ 1 301.1223 0.58
  301.1592 C22H21O+ 1 301.1587 1.65
  301.1951 C23H25+ 1 301.1951 -0.06
  302.1635 C17H22N2O3+ 1 302.1625 3.26
  303.1225 C17H19O5+ 1 303.1227 -0.83
  303.1375 C21H19O2+ 1 303.138 -1.47
  303.1741 C22H23O+ 1 303.1743 -0.67
  305.1175 C20H17O3+ 1 305.1172 1.08
  305.1544 C21H21O2+ 1 305.1536 2.63
  305.1895 C22H25O+ 1 305.19 -1.48
  307.1336 C20H19O3+ 1 307.1329 2.44
  307.1492 C24H19+ 1 307.1481 3.46
  307.169 C21H23O2+ 1 307.1693 -0.74
  309.1283 C23H17O+ 1 309.1274 2.84
  309.1483 C20H21O3+ 1 309.1485 -0.59
  309.1646 C24H21+ 1 309.1638 2.56
  311.1437 C23H19O+ 1 311.143 2.08
  313.1069 C18H17O5+ 1 313.1071 -0.32
  313.1233 C22H17O2+ 1 313.1223 3.11
  313.142 C19H21O4+ 1 313.1434 -4.65
  313.1591 C23H21O+ 1 313.1587 1.37
  313.1949 C24H25+ 1 313.1951 -0.44
  315.1383 C22H19O2+ 1 315.138 1.15
  315.1749 C23H23O+ 1 315.1743 1.87
  316.1451 C22H20O2+ 1 316.1458 -2.16
  317.1536 C22H21O2+ 1 317.1536 0.11
  319.1326 C21H19O3+ 1 319.1329 -0.85
  319.1689 C22H23O2+ 1 319.1693 -1.12
  321.1481 C21H21O3+ 1 321.1485 -1.44
  321.1651 C25H21+ 1 321.1638 4.09
  323.1799 C25H23+ 1 323.1794 1.37
  325.1223 C23H17O2+ 1 325.1223 0.04
  325.16 C24H21O+ 1 325.1587 3.9
  325.1966 C25H25+ 1 325.1951 4.59
  327.139 C23H19O2+ 1 327.138 3.07
  327.2104 C25H27+ 1 327.2107 -0.97
  329.155 C23H21O2+ 1 329.1536 4.2
  329.1915 C24H25O+ 1 329.19 4.49
  331.1178 C18H19O6+ 1 331.1176 0.53
  331.1696 C23H23O2+ 1 331.1693 1.1
  333.1859 C23H25O2+ 1 333.1849 2.86
  335.163 C22H23O3+ 1 335.1642 -3.37
  339.1587 C21H23O4+ 1 339.1591 -1.23
  339.2112 C26H27+ 1 339.2107 1.28
  343.1325 C23H19O3+ 1 343.1329 -1.14
  343.2057 C25H27O+ 1 343.2056 0.29
  345.1866 C24H25O2+ 1 345.1849 4.96
  347.1636 C23H23O3+ 1 347.1642 -1.7
  349.1279 C18H21O7+ 1 349.1282 -0.8
  369.2225 C27H29O+ 1 369.2213 3.33
  373.1811 C25H25O3+ 2 373.1798 3.45
  475.2851 C31H39O4+ 2 475.2843 1.69
PK$NUM_PEAK: 486
PK$PEAK: m/z int. rel.int.
  65.0385 529937.3 61
  67.0542 4284788.4 499
  69.0334 984535.6 114
  69.0698 1269076.1 147
  71.0127 477872.8 55
  71.0491 3559260.5 414
  73.0284 197895.5 23
  74.0965 24498 2
  77.0384 447946.8 52
  79.0542 5846708.3 681
  81.0335 3516775.4 410
  81.0698 3797390 442
  83.0491 1164836.7 135
  83.0855 480614.3 56
  84.0443 166540.2 19
  85.0284 1180799.6 137
  85.0648 668770.8 77
  87.0439 208956.8 24
  89.0233 243667.6 28
  91.0542 8568058.2 999
  93.0698 7353134.3 857
  95.0127 835238 97
  95.0491 5660235.1 659
  95.0854 3003345.4 350
  97.0283 1603941.1 187
  97.0647 1065996 124
  97.1011 200685.7 23
  99.044 3271570.8 381
  100.0474 98911 11
  101.0233 144625.6 16
  101.0597 289597.1 33
  103.0542 787623.6 91
  105.0698 8303617.7 968
  106.0732 333915.3 38
  107.0491 2859029.6 333
  107.0855 5959996.7 694
  108.0888 199674.8 23
  109.0284 540762.0326 63
  109.0647 1427176.1 166
  109.1011 2180782.5 254
  110.1045 34877 4
  111.044 1250960.7 145
  111.0804 581651.6 67
  113.0233 278666.7 32
  113.0596 1288146.1 150
  113.096 123286.1 14
  115.0389 236410.6 27
  115.0541 1154518.7 134
  116.062 241468.3 28
  117.0698 5492767.9 640
  118.0731 186422 21
  119.0491 968827.7 112
  119.0854 4883903.4 569
  120.0888 164307.3 19
  121.0283 499953.9 58
  121.0647 2371956.1 276
  121.1011 1896281.2 221
  122.0681 103484.3 12
  122.1044 87941 10
  123.0439 4170023 486
  123.0803 1192662.1 139
  123.1167 586714.1 68
  125.0232 316414.4 36
  125.0596 479574.3 55
  125.096 607478.6 70
  127.039 380448.2 44
  127.0754 40966.7 4
  128.0619 1241080.6 144
  129.0546 291634.2 34
  129.0698 5622169.5 655
  130.0731 218257.4 25
  130.0778 447330.9 52
  131.0491 1194795.2 139
  131.0855 4990502.3 581
  132.057 48278.5 5
  132.0888 194677.5 22
  132.0934 87977.6 10
  133.0647 3426438.3 399
  133.1011 2190445.2 255
  134.0681 143310.5 16
  134.0726 34373.3 4
  134.1044 113012.4 13
  135.0439 880591 102
  135.0804 1519733.6 177
  135.1168 1751206.7 204
  136.0839 88635.1 10
  137.0597 1276704.7 148
  137.096 493999.8 57
  139.0389 507898 59
  139.0753 778910.5 90
  139.1118 55508.1 6
  141.0546 607635.7 70
  141.0698 2087545.8 243
  142.0731 61299.5 7
  142.0779 530723.1 61
  143.0856 3915860 456
  144.0568 98283.8 11
  144.0936 191654.9 22
  145.0648 1914284.5 223
  145.1012 3059091.2 356
  146.0679 41199.9 4
  146.073 42439.5 4
  146.0812 37304.6 4
  146.1046 148893.6 17
  146.1095 34927.7 4
  147.044 1128184.3 131
  147.0804 2760164 321
  147.1168 900744.6 105
  148.084 113114.9 13
  148.1202 45324.9 5
  149.0231 167308.2 19
  149.0597 1431044.6 166
  149.0961 520672 60
  149.1325 97067.9 11
  151.039 1435399.7 167
  151.0753 1666844.8 194
  151.1117 336986.4 39
  152.062 145819 17
  153.0546 367634.5 42
  153.0698 758534 88
  153.091 88953.6 10
  154.0778 539539.4 62
  155.0704 454290 52
  155.0855 3182906.8 371
  156.0886 141794.6 16
  156.0941 354727.6 41
  157.0648 1380988.4 161
  157.1012 2162463.8 252
  158.0727 95810.9 11
  158.109 114971.1 13
  159.0441 338193.3 39
  159.0804 916361.3 106
  159.1168 1259886.3 146
  161.0596 766470.9 89
  161.0961 712035.1 83
  161.1325 1103727.3 128
  162.1357 99655.5 11
  163.039 256860.6 29
  163.0753 1044262.2 121
  163.1116 328336.8 38
  165.0547 634655.8 73
  165.0698 889269.3 103
  165.0909 762262.2 88
  166.0779 558369 65
  167.0704 1290432.7 150
  167.0855 2339296.7 272
  168.0572 23650.2 2
  168.087 22919.1 2
  168.0939 344587.3 40
  169.0648 385542.7 44
  169.0862 231707.6 27
  169.1011 2623188.9 305
  171.0439 105833.3 12
  171.0804 1438126.8 167
  171.1167 1530539.5 178
  173.0597 893888.6 104
  173.0961 1264829.3 147
  173.1325 583869.5 68
  174.1 97531.4 11
  175.039 407867.2 47
  175.0753 1425352.3 166
  175.1115 175689.2 20
  175.1481 131911.4 15
  176.0787 50255.7 5
  177.0547 370872.2 43
  177.0909 292707.6 34
  177.1275 104664.8 12
  178.0777 300277.4 35
  179.0703 407683.5 47
  179.0855 1628167 189
  180.0938 326866.5 38
  181.0494 139091.6 16
  181.0649 306862.3 35
  181.0862 144371.6 16
  181.1012 2377219.4 277
  182.0727 155238.5 18
  182.1091 243765.9 28
  183.0806 993741.1 115
  183.1169 1733354.1 202
  184.089 44133 5
  184.1254 59440.9 6
  185.0597 394643.1 46
  185.0817 157851.7 18
  185.0962 716021.4 83
  185.1326 664335.7 77
  186.1356 29793.6 3
  187.0753 570435.7 66
  187.1117 573048.4 66
  187.1481 279536.7 32
  189.0548 252742.6 29
  189.0911 910256.9 106
  190.0776 60766.5 7
  190.0946 45438.7 5
  191.0704 812773.9 94
  191.0853 610685.4 71
  191.1066 628701.7 73
  192.0938 284284 33
  193.0864 812355.5 94
  193.1012 1404375.5 163
  194.0725 96618.9 11
  194.0898 46507.8 5
  194.1096 237972.8 27
  195.0805 748608 87
  195.1169 1483577.2 172
  196.088 141481.6 16
  196.125 110738.3 12
  197.0596 239986.5 27
  197.0961 1264116.7 147
  197.1325 862116.4 100
  198.0995 42592.8 4
  199.0753 903503.7 105
  199.1116 490793.8 57
  199.1481 409173.2 47
  200.1515 25241.3 2
  201.0545 305022.6 35
  201.0909 667444.1 77
  201.1276 120962.7 14
  201.1639 151976.7 17
  202.0776 121421.3 14
  203.0703 357540.5 41
  203.0853 385084.4 44
  203.1061 207062.2 24
  204.0939 248128.2 28
  205.1012 1044697.6 121
  205.1221 53461.7 6
  206.1097 222035 25
  207.0659 189846.9 22
  207.0808 384053.7 44
  207.1019 386480.8 45
  207.1168 1321410.6 154
  208.0886 48095 5
  208.1243 142539.2 16
  209.06 103665.1 12
  209.081 361145.7 42
  209.0961 850661.7 99
  209.1173 139387.7 16
  209.1325 716943.4 83
  210.14 98116.1 11
  211.0754 388571.8 45
  211.0967 223510.7 26
  211.1117 437822.6 51
  211.148 410016.6 47
  212.1562 49199.7 5
  213.0911 424425.4 49
  213.1275 226688 26
  213.1638 204711.3 23
  214.172 26597.7 3
  215.0703 240850 28
  215.0853 231114.8 26
  215.1068 675711.8 78
  216.0937 240567.9 28
  217.086 535173.6 62
  217.1012 652540 76
  217.1228 98371.7 11
  218.0896 36442.9 4
  218.1094 305190.7 35
  219.0654 208260.4 24
  219.0804 267524.9 31
  219.1017 406876.8 47
  219.117 1085838.9 126
  220.0884 137382.6 16
  220.1248 229306.5 26
  221.0961 656426.6 76
  221.1325 957319.9 111
  222.1392 132635.8 15
  223.0753 341799.9 39
  223.1117 608152.3 70
  223.1482 474347.2 55
  225.091 737081.2 85
  225.1125 90899 10
  225.1275 343467.3 40
  225.1635 311468.8 36
  227.0699 183919.5 21
  227.1066 310610.5 36
  227.143 106018 12
  227.18 40050.3 4
  228.0931 56317.7 6
  229.0867 171369.4 19
  229.1002 334696.1 39
  229.1221 51110.3 5
  230.1091 219227.3 25
  231.0805 128085.3 14
  231.102 146111.9 17
  231.117 676566.3 78
  232.0885 45922.7 5
  232.1238 110480.1 12
  233.0808 48224.1 5
  233.0964 389045.5 45
  233.1174 570133.9 66
  233.1324 677777.7 79
  234.1037 126613.7 14
  235.0757 136943.4 15
  235.0968 183116.8 21
  235.1118 564444.9 65
  235.1325 54899.8 6
  235.1482 466187.6 54
  237.0911 336229.4 39
  237.1126 118849.9 13
  237.1275 393977.8 45
  237.1638 308694 35
  239.0709 55616.7 6
  239.0852 33815 3
  239.1066 542174 63
  239.1431 131863.7 15
  239.18 128732.9 15
  240.1115 31335.9 3
  241.0863 253863 29
  241.1011 220940.5 25
  241.1223 183763.7 21
  241.1592 37615.3 4
  242.1091 163121.3 19
  243.102 511332.6 59
  243.117 477884.6 55
  243.1381 36829.6 4
  244.1063 27052 3
  244.1248 199374.2 23
  245.0962 193208.9 22
  245.1187 52697.5 6
  245.1323 649283.3 75
  246.1038 119464.1 13
  247.0973 66886.9 7
  247.1121 419201.4 48
  247.1479 359395.9 41
  248.1195 50767.5 5
  248.1556 112150.7 13
  249.091 300277.9 35
  249.1272 306511.1 35
  249.164 288189.5 33
  250.1356 25540.5 2
  251.1068 357046.9 41
  251.1282 33031.4 3
  251.1432 207626.9 24
  251.1796 165414.1 19
  253.0864 197728.1 23
  253.1024 109115.3 12
  253.122 232623.7 27
  253.159 95383.2 11
  254.1087 37784.6 4
  255.1017 137169.1 15
  255.1167 292295.5 34
  255.1382 80477.2 9
  256.1255 163167.3 19
  257.0808 40766.7 4
  257.096 126990.6 14
  257.1174 186622.8 21
  257.1326 445160.4 51
  258.1031 75262.4 8
  258.1391 130869.1 15
  259.0968 99938.7 11
  259.1121 300316.1 35
  259.1485 272666.2 31
  260.1191 138088.4 16
  260.1552 49557.6 5
  261.0912 118358.1 13
  261.1125 492323.2 57
  261.1272 354759.1 41
  261.1635 212123.7 24
  262.1153 33118.5 3
  263.1066 298727.7 34
  263.1427 178129.3 20
  263.1793 114402 13
  264.1133 29806.5 3
  265.0866 76973.5 8
  265.1004 28512.3 3
  265.1229 220807.5 25
  265.1581 32857.6 3
  265.1957 34305.4 3
  266.109 26145.9 3
  267.1018 255428.3 29
  267.1168 161975.8 18
  267.1386 85641.6 9
  268.1245 111114.4 12
  269.0968 35872.5 4
  269.1172 139027.5 16
  269.1327 306682.5 35
  269.1535 24531.4 2
  270.1043 38592.9 4
  270.1405 122385 14
  271.0967 152781.9 17
  271.112 147751.5 17
  271.1339 54646.5 6
  271.1477 370469.7 43
  272.1189 52434.8 6
  273.0916 39103.6 4
  273.1271 246917.9 28
  273.1632 208708.6 24
  274.1347 45788 5
  275.1057 194355.7 22
  275.1426 217322.9 25
  275.1798 145359.8 16
  277.1219 249661.5 29
  277.1591 101737.9 11
  277.1956 87899.3 10
  279.1017 89261.7 10
  279.1224 351123.9 40
  279.1386 193632.1 22
  280.1251 85175.1 9
  281.1174 88120.2 10
  281.1326 196249.1 22
  281.154 33914.5 3
  282.1406 85495.6 9
  283.113 83034.2 9
  283.1326 98614.6 11
  283.1486 284102.4 33
  284.12 28486.8 3
  285.1123 157249.2 18
  285.1277 251867 29
  285.1641 178475.3 20
  287.1069 49432.6 5
  287.1286 37438.3 4
  287.1433 119490.4 13
  287.1795 125547.6 14
  289.1081 66437.4 7
  289.1225 159623.8 18
  289.1591 146790.1 17
  289.1953 40640.7 4
  291.1021 36028.7 4
  291.1377 160976.1 18
  291.1744 32085.9 3
  291.211 29248.2 3
  293.117 76100.2 8
  293.133 98902.7 11
  293.1543 41859.8 4
  294.1407 35489.1 4
  295.0962 37051.2 4
  295.1119 31290.5 3
  295.1333 85817.2 10
  295.1491 126185.9 14
  295.1691 27911.8 3
  297.1342 193240.7 22
  297.1632 209604.3 24
  298.1353 37046.9 4
  299.1438 164359.7 19
  299.1793 46133.1 5
  301.1225 147235.1 17
  301.1592 115889.8 13
  301.1951 39762 4
  302.1635 30326.5 3
  303.1225 44385 5
  303.1375 168791.3 19
  303.1741 97832.7 11
  305.1175 32626.3 3
  305.1544 132862.7 15
  305.1895 33941.3 3
  307.1336 92452.8 10
  307.1492 44006.1 5
  307.169 44154.7 5
  309.1283 35526.7 4
  309.1483 80653.4 9
  309.1646 46499 5
  311.1437 103430.1 12
  313.1069 50603.4 5
  313.1233 29586.4 3
  313.142 23918.3 2
  313.1591 114047.2 13
  313.1949 56170.3 6
  315.1383 106914.1 12
  315.1749 51460.7 6
  316.1451 29376.5 3
  317.1536 54345 6
  319.1326 42758 4
  319.1689 47162.6 5
  321.1481 45669.4 5
  321.1651 35799.5 4
  323.1799 34040.2 3
  325.1223 25557.4 2
  325.16 56045.1 6
  325.1966 35393.2 4
  327.139 34749.1 4
  327.2104 28770.7 3
  329.155 48327.7 5
  329.1915 37936.9 4
  331.1178 103293.6 12
  331.1696 92490.9 10
  333.1859 46820.4 5
  335.163 30603.2 3
  339.1587 35138.6 4
  339.2112 34571.9 4
  343.1325 39668 4
  343.2057 28445.7 3
  345.1866 34968.4 4
  347.1636 29403.4 3
  349.1279 99800.7 11
  369.2225 32462.3 3
  373.1811 25734.4 3
  475.2851 25399.7 2
//
