ACCESSION: MSBNK-Eawag-EA030411
RECORD_TITLE: Isoproturon-monodemethyl; LC-ESI-ITFT; MS2; CE: 60%; R=15000; [M+H]+
DATE: 2014.01.14
AUTHORS: Stravs M, Schymanski E, Singer H, Department of Environmental Chemistry, Eawag
LICENSE: CC BY
COPYRIGHT: Copyright (C) 2012 Eawag, Duebendorf, Switzerland
COMMENT: CONFIDENCE standard compound
COMMENT: EAWAG_UCHEM_ID 304
CH$NAME: Isoproturon-monodemethyl
CH$NAME: 1-(4-Isoprophenyl)-3-methylurea
CH$COMPOUND_CLASS: N/A; Environmental Standard
CH$FORMULA: C11H16N2O
CH$EXACT_MASS: 192.1263
CH$SMILES: N(C(=O)Nc1ccc(cc1)C(C)C)C
CH$IUPAC: InChI=1S/C11H16N2O/c1-8(2)9-4-6-10(7-5-9)13-11(14)12-3/h4-8H,1-3H3,(H2,12,13,14)
CH$LINK: CAS 34123-57-4
CH$LINK: PUBCHEM CID:182167
CH$LINK: INCHIKEY DOULWWSSZVEPIN-UHFFFAOYSA-N
CH$LINK: CHEMSPIDER 158440
CH$LINK: COMPTOX DTXSID90891449
AC$INSTRUMENT: LTQ Orbitrap XL Thermo Scientific
AC$INSTRUMENT_TYPE: LC-ESI-ITFT
AC$MASS_SPECTROMETRY: MS_TYPE MS2
AC$MASS_SPECTROMETRY: ION_MODE POSITIVE
AC$MASS_SPECTROMETRY: IONIZATION ESI
AC$MASS_SPECTROMETRY: FRAGMENTATION_MODE HCD
AC$MASS_SPECTROMETRY: COLLISION_ENERGY 60 % (nominal)
AC$MASS_SPECTROMETRY: RESOLUTION 15000
AC$CHROMATOGRAPHY: COLUMN_NAME XBridge C18 3.5um, 2.1x50mm, Waters
AC$CHROMATOGRAPHY: FLOW_GRADIENT 90/10 at 0 min, 50/50 at 4 min, 5/95 at 17 min, 5/95 at 25 min, 90/10 at 25.1 min, 90/10 at 30 min
AC$CHROMATOGRAPHY: FLOW_RATE 200 ul/min
AC$CHROMATOGRAPHY: RETENTION_TIME 8.6 min
AC$CHROMATOGRAPHY: SOLVENT A water with 0.1% formic acid
AC$CHROMATOGRAPHY: SOLVENT B methanol with 0.1% formic acid
MS$FOCUSED_ION: BASE_PEAK 193.1341
MS$FOCUSED_ION: PRECURSOR_M/Z 193.1335
MS$FOCUSED_ION: PRECURSOR_TYPE [M+H]+
MS$DATA_PROCESSING: DEPROFILE Spline
MS$DATA_PROCESSING: RECALIBRATE loess on assigned fragments and MS1
MS$DATA_PROCESSING: REANALYZE Peaks with additional N2/O included
MS$DATA_PROCESSING: WHOLE RMassBank 1.3.1
PK$SPLASH: splash10-0006-9600000000-1068b65f61c29b770fe9
PK$ANNOTATION: m/z tentative_formula formula_count mass error(ppm)
  58.0287 C2H4NO+ 1 58.0287 -0.18
  77.0385 C6H5+ 1 77.0386 -0.86
  91.0541 C7H7+ 1 91.0542 -1.17
  92.0496 C6H6N+ 1 92.0495 0.92
  94.0652 C6H8N+ 1 94.0651 1
  107.0857 C8H11+ 1 107.0855 1.99
  117.0695 C9H9+ 1 117.0699 -3.56
  120.0445 C7H6NO+ 1 120.0444 1.25
  121.089 C8H11N+ 1 121.0886 3.3
  134.0965 C9H12N+ 1 134.0964 0.4
  136.1122 C9H14N+ 1 136.1121 0.84
  147.0918 C9H11N2+ 1 147.0917 1.19
  151.0867 C8H11N2O+ 1 151.0866 0.73
  162.0915 C10H12NO+ 1 162.0913 0.74
  193.1336 C11H17N2O+ 1 193.1335 0.31
PK$NUM_PEAK: 15
PK$PEAK: m/z int. rel.int.
  58.0287 56718.9 17
  77.0385 30829 9
  91.0541 18454.7 5
  92.0496 19478 6
  94.0652 3237315 999
  107.0857 16427 5
  117.0695 9146.2 2
  120.0445 41782.2 12
  121.089 7758.8 2
  134.0965 150331.5 46
  136.1122 1197544.9 369
  147.0918 30767.1 9
  151.0867 954384.4 294
  162.0915 21342.2 6
  193.1336 116484.6 35
//
