ACCESSION: MSBNK-Eawag-EQ324651
RECORD_TITLE: MCLA; LC-ESI-QFT; MS2; CE: 15%; R=17500; [M-H]-
DATE: 2020.02.03
AUTHORS: E. Janssen [dtc], B. Lauper [com]
LICENSE: CC BY-SA
COPYRIGHT: Copyright (C) Eawag 2019
COMMENT: CONFIDENCE standard compound
COMMENT: UCHEM_ID 3246
COMMENT: NaToxAq - Natural Toxins and Drinking Water Quality - From Source to Tap (https://natoxaq.ku.dk)
COMMENT: EQ cyanopeptide spectra replaced with more comprehensive acquisition.
CH$NAME: MCLA
CH$NAME: Microcystin LA
CH$NAME: (5R,8S,11R,12S,15S,18S,19S,22R)-18-[(1E,3E,5S,6S)-6-methoxy-3,5-dimethyl-7-phenylhepta-1,3-dienyl]-1,5,12,15,19-pentamethyl-2-methylidene-8-(2-methylpropyl)-3,6,9,13,16,20,25-heptaoxo-1,4,7,10,14,17,21-heptazacyclopentacosane-11,22-dicarboxylic acid
CH$COMPOUND_CLASS: NA
CH$FORMULA: C46H67N7O12
CH$EXACT_MASS: 909.4848
CH$SMILES: CO[C@@H](Cc1ccccc1)[C@@H](C)\C=C(C)\C=C\[C@@H]2NC(=O)[C@H](C)NC(=O)[C@@H](C)[C@@H](NC(=O)[C@H](CC(C)C)NC(=O)[C@@H](C)NC(=O)C(=C)N(C)C(=O)CC[C@@H](NC(=O)[C@H]2C)C(O)=O)C(O)=O
CH$IUPAC: InChI=1S/C46H67N7O12/c1-24(2)21-35-44(60)52-38(46(63)64)28(6)40(56)47-29(7)41(57)49-33(18-17-25(3)22-26(4)36(65-11)23-32-15-13-12-14-16-32)27(5)39(55)50-34(45(61)62)19-20-37(54)53(10)31(9)43(59)48-30(8)42(58)51-35/h12-18,22,24,26-30,33-36,38H,9,19-21,23H2,1-8,10-11H3,(H,47,56)(H,48,59)(H,49,57)(H,50,55)(H,51,58)(H,52,60)(H,61,62)(H,63,64)/b18-17+,25-22+/t26-,27-,28-,29-,30+,33-,34+,35-,36-,38+/m0/s1
CH$LINK: CAS 96180-79-9
CH$LINK: PUBCHEM CID:6437382
CH$LINK: INCHIKEY DIAQQISRBBDJIM-DRSCAGMXSA-N
CH$LINK: CHEMSPIDER 4941946
AC$INSTRUMENT: Q Exactive Plus Orbitrap Thermo Scientific
AC$INSTRUMENT_TYPE: LC-ESI-QFT
AC$MASS_SPECTROMETRY: MS_TYPE MS2
AC$MASS_SPECTROMETRY: ION_MODE NEGATIVE
AC$MASS_SPECTROMETRY: IONIZATION ESI
AC$MASS_SPECTROMETRY: FRAGMENTATION_MODE HCD
AC$MASS_SPECTROMETRY: COLLISION_ENERGY 15 % (nominal)
AC$MASS_SPECTROMETRY: RESOLUTION 17500
AC$CHROMATOGRAPHY: COLUMN_NAME XBridge C18 3.5um, 2.1x50mm, Waters
AC$CHROMATOGRAPHY: FLOW_GRADIENT 90/10 at 0 min, 50/50 at 4 min, 5/95 at 17 min, 5/95 at 25 min, 90/10 at 25.1 min, 90/10 at 30 min
AC$CHROMATOGRAPHY: FLOW_RATE 200 uL/min
AC$CHROMATOGRAPHY: RETENTION_TIME 10.539 min
AC$CHROMATOGRAPHY: SOLVENT A water with 0.1% formic acid
AC$CHROMATOGRAPHY: SOLVENT B MeOH with 0.1% formic acid
MS$FOCUSED_ION: BASE_PEAK 190.9277
MS$FOCUSED_ION: PRECURSOR_M/Z 908.4775
MS$FOCUSED_ION: PRECURSOR_TYPE [M-H]-
MS$DATA_PROCESSING: RECALIBRATE loess on assigned fragments and MS1
MS$DATA_PROCESSING: REANALYZE Peaks with additional N2/O included
MS$DATA_PROCESSING: WHOLE RMassBank 2.99.1
PK$SPLASH: splash10-0a4i-0000000009-9d43604cf58d1d266f67
PK$ANNOTATION: m/z tentative_formula formula_count mass error(ppm)
  890.4688 C46H64N7O11- 1 890.4669 2.09
  908.4776 C46H66N7O12- 1 908.4775 0.09
PK$NUM_PEAK: 2
PK$PEAK: m/z int. rel.int.
  890.4688 70296.9 30
  908.4776 2280576.2 999
//
