ACCESSION: MSBNK-Eawag-EQ01143102
RECORD_TITLE: Metolachlor-TP SYN547977; LC-ESI-QFT; MS2; CE: 30%; R=17500; [M+H]+
DATE: 2023.08.10
AUTHORS: B. Beck [dtc,com], J. Hollender [dtc]
LICENSE: CC BY-SA
COPYRIGHT: Copyright (C) Eawag 2023
COMMENT: CONFIDENCE standard compound
COMMENT: UCHEM_ID 11431
CH$NAME: Metolachlor-TP SYN547977
CH$COMPOUND_CLASS: N/A; Environmental Standard
CH$FORMULA: C15H20ClNO3
CH$EXACT_MASS: 297.1132
CH$SMILES: ClCC(=O)N(C(C)COC)c1c(C)cccc1C(C)=O
CH$IUPAC: InChI=1S/C15H20ClNO3/c1-10-6-5-7-13(12(3)18)15(10)17(14(19)8-16)11(2)9-20-4/h5-7,11H,8-9H2,1-4H3
CH$LINK: INCHIKEY JQPYVRCWJNISTB-UHFFFAOYSA-N
AC$INSTRUMENT: Exploris 240 Orbitrap Thermo Scientific
AC$INSTRUMENT_TYPE: LC-ESI-QFT
AC$MASS_SPECTROMETRY: MS_TYPE MS2
AC$MASS_SPECTROMETRY: ION_MODE POSITIVE
AC$MASS_SPECTROMETRY: IONIZATION ESI
AC$MASS_SPECTROMETRY: FRAGMENTATION_MODE HCD
AC$MASS_SPECTROMETRY: COLLISION_ENERGY 30 % (nominal)
AC$MASS_SPECTROMETRY: RESOLUTION 17500
AC$MASS_SPECTROMETRY: MASS_RANGE_M/Z 50-325
AC$CHROMATOGRAPHY: COLUMN_NAME XBridge C18 3.5um, 2.1x50mm, Waters
AC$CHROMATOGRAPHY: FLOW_GRADIENT 90/10 at 0 min, 50/50 at 4 min, 5/95 at 17 min, 5/95 at 25 min, 90/10 at 25.1 min, 90/10 at 30 min
AC$CHROMATOGRAPHY: FLOW_RATE 200 uL/min
AC$CHROMATOGRAPHY: RETENTION_TIME 6.762 min
MS$FOCUSED_ION: BASE_PEAK 298.1202
MS$FOCUSED_ION: PRECURSOR_M/Z 298.1204
MS$FOCUSED_ION: PRECURSOR_TYPE [M+H]+
MS$DATA_PROCESSING: RECALIBRATE loess on assigned fragments and MS1
MS$DATA_PROCESSING: REANALYZE Peaks with additional N2/O included
MS$DATA_PROCESSING: WHOLE RMassBank 3.11.0.1
PK$SPLASH: splash10-014i-0090000000-589357a375f713bd0ab9
PK$ANNOTATION: m/z tentative_formula formula_count mass error(ppm)
  73.0647 C4H9O+ 1 73.0648 -1.77
  172.112 C12H14N+ 1 172.1121 -0.5
  186.1273 C13H16N+ 1 186.1277 -2.04
  190.1227 C12H16NO+ 1 190.1226 0.28
  208.0532 C11H11ClNO+ 1 208.0524 4.19
  266.0942 C14H17ClNO2+ 1 266.0942 -0.14
PK$NUM_PEAK: 6
PK$PEAK: m/z int. rel.int.
  73.0647 4177264.8 5
  172.112 14284701 17
  186.1273 9807998 12
  190.1227 27305396 34
  208.0532 4042105.2 5
  266.0942 800324864 999
//
