ACCESSION: MSBNK-Eawag-EA270908
RECORD_TITLE: Imidacloprid; LC-ESI-ITFT; MS2; CE: 15%; R=15000; [M+H]+
DATE: 2014.01.14
AUTHORS: Stravs M, Schymanski E, Singer H, Department of Environmental Chemistry, Eawag
LICENSE: CC BY
COPYRIGHT: Copyright (C) 2012 Eawag, Duebendorf, Switzerland
COMMENT: CONFIDENCE standard compound
COMMENT: EAWAG_UCHEM_ID 2709
CH$NAME: Imidacloprid
CH$NAME: N-[1-[(6-chloranylpyridin-3-yl)methyl]-4,5-dihydroimidazol-2-yl]nitramide
CH$COMPOUND_CLASS: N/A; Environmental Standard
CH$FORMULA: C9H10ClN5O2
CH$EXACT_MASS: 255.0523
CH$SMILES: Cl-c(ncc1CN(CC2)C(N2)=NN(=O)=O)cc1
CH$IUPAC: InChI=1S/C9H10ClN5O2/c10-8-2-1-7(5-12-8)6-14-4-3-11-9(14)13-15(16)17/h1-2,5H,3-4,6H2,(H,11,13)
CH$LINK: CAS 138261-41-3
CH$LINK: CHEBI CHEBI:5870
CH$LINK: KEGG C11110
CH$LINK: PUBCHEM CID:86418
CH$LINK: INCHIKEY YWTYJOPNNQFBPC-UHFFFAOYSA-N
CH$LINK: CHEMSPIDER 77934
CH$LINK: COMPTOX DTXSID5032442
AC$INSTRUMENT: LTQ Orbitrap XL Thermo Scientific
AC$INSTRUMENT_TYPE: LC-ESI-ITFT
AC$MASS_SPECTROMETRY: MS_TYPE MS2
AC$MASS_SPECTROMETRY: ION_MODE POSITIVE
AC$MASS_SPECTROMETRY: IONIZATION ESI
AC$MASS_SPECTROMETRY: FRAGMENTATION_MODE HCD
AC$MASS_SPECTROMETRY: COLLISION_ENERGY 15 % (nominal)
AC$MASS_SPECTROMETRY: RESOLUTION 15000
AC$CHROMATOGRAPHY: COLUMN_NAME XBridge C18 3.5um, 2.1x50mm, Waters
AC$CHROMATOGRAPHY: FLOW_GRADIENT 90/10 at 0 min, 50/50 at 4 min, 5/95 at 17 min, 5/95 at 25 min, 90/10 at 25.1 min, 90/10 at 30 min
AC$CHROMATOGRAPHY: FLOW_RATE 200 ul/min
AC$CHROMATOGRAPHY: RETENTION_TIME 4.8 min
AC$CHROMATOGRAPHY: SOLVENT A water with 0.1% formic acid
AC$CHROMATOGRAPHY: SOLVENT B methanol with 0.1% formic acid
MS$FOCUSED_ION: BASE_PEAK 256.0596
MS$FOCUSED_ION: PRECURSOR_M/Z 256.0596
MS$FOCUSED_ION: PRECURSOR_TYPE [M+H]+
MS$DATA_PROCESSING: DEPROFILE Spline
MS$DATA_PROCESSING: RECALIBRATE loess on assigned fragments and MS1
MS$DATA_PROCESSING: REANALYZE Peaks with additional N2/O included
MS$DATA_PROCESSING: WHOLE RMassBank 1.3.1
PK$SPLASH: splash10-0a4i-0190000000-7ec48b0289e1fbe705c2
PK$ANNOTATION: m/z tentative_formula formula_count mass error(ppm)
  84.0556 C3H6N3+ 1 84.0556 -0.76
  128.0261 C6H7ClN+ 2 128.0262 -0.18
  174.0899 C9H10N4+ 1 174.09 -0.5
  175.0977 C9H11N4+ 1 175.0978 -0.87
  194.0471 C9H9ClN3+ 1 194.048 -4.18
  209.0587 C9H10ClN4+ 1 209.0589 -0.82
  210.0665 C9H11ClN4+ 1 210.0667 -0.84
  212.0584 C9H11ClN3O+ 1 212.0585 -0.59
  226.0615 C9H11ClN4O+ 1 226.0616 -0.62
  256.0594 C9H11ClN5O2+ 1 256.0596 -0.54
PK$NUM_PEAK: 10
PK$PEAK: m/z int. rel.int.
  84.0556 408212.1 15
  128.0261 108084.1 4
  174.0899 521293.6 19
  175.0977 3735427.9 138
  194.0471 33882.7 1
  209.0587 4478819 166
  210.0665 3624763.8 134
  212.0584 2872437.6 106
  226.0615 105311.3 3
  256.0594 26949346.9 999
//
