ACCESSION: MSBNK-Eawag-EA009512
RECORD_TITLE: Epoxiconazole; LC-ESI-ITFT; MS2; CE: 75%; R=15000; [M+H]+
DATE: 2014.01.14
AUTHORS: Stravs M, Schymanski E, Singer H, Department of Environmental Chemistry, Eawag
LICENSE: CC BY
COPYRIGHT: Copyright (C) 2012 Eawag, Duebendorf, Switzerland
COMMENT: CONFIDENCE standard compound
COMMENT: EAWAG_UCHEM_ID 95
CH$NAME: Epoxiconazole
CH$NAME: 1-[[(2S,3R)-3-(2-chlorophenyl)-2-(4-fluorophenyl)-2-oxiranyl]methyl]-1,2,4-triazole
CH$COMPOUND_CLASS: N/A; Environmental Standard
CH$FORMULA: C17H13ClFN3O
CH$EXACT_MASS: 329.0726
CH$SMILES: C1=CC=C(C(=C1)C2C(O2)(CN3C=NC=N3)C4=CC=C(C=C4)F)Cl
CH$IUPAC: InChI=1S/C17H13ClFN3O/c18-15-4-2-1-3-14(15)16-17(23-16,9-22-11-20-10-21-22)12-5-7-13(19)8-6-12/h1-8,10-11,16H,9H2/t16-,17-/m1/s1
CH$LINK: CAS 133855-98-8
CH$LINK: KEGG C11229
CH$LINK: PUBCHEM CID:107901
CH$LINK: INCHIKEY ZMYFCFLJBGAQRS-IAGOWNOFSA-N
CH$LINK: CHEMSPIDER 97030
AC$INSTRUMENT: LTQ Orbitrap XL Thermo Scientific
AC$INSTRUMENT_TYPE: LC-ESI-ITFT
AC$MASS_SPECTROMETRY: MS_TYPE MS2
AC$MASS_SPECTROMETRY: ION_MODE POSITIVE
AC$MASS_SPECTROMETRY: IONIZATION ESI
AC$MASS_SPECTROMETRY: FRAGMENTATION_MODE HCD
AC$MASS_SPECTROMETRY: COLLISION_ENERGY 75 % (nominal)
AC$MASS_SPECTROMETRY: RESOLUTION 15000
AC$CHROMATOGRAPHY: COLUMN_NAME XBridge C18 3.5um, 2.1x50mm, Waters
AC$CHROMATOGRAPHY: FLOW_GRADIENT 90/10 at 0 min, 50/50 at 4 min, 5/95 at 17 min, 5/95 at 25 min, 90/10 at 25.1 min, 90/10 at 30 min
AC$CHROMATOGRAPHY: FLOW_RATE 200 ul/min
AC$CHROMATOGRAPHY: RETENTION_TIME 11.7 min
AC$CHROMATOGRAPHY: SOLVENT A water with 0.1% formic acid
AC$CHROMATOGRAPHY: SOLVENT B methanol with 0.1% formic acid
MS$FOCUSED_ION: BASE_PEAK 330.0812
MS$FOCUSED_ION: PRECURSOR_M/Z 330.0804
MS$FOCUSED_ION: PRECURSOR_TYPE [M+H]+
MS$DATA_PROCESSING: DEPROFILE Spline
MS$DATA_PROCESSING: RECALIBRATE loess on assigned fragments and MS1
MS$DATA_PROCESSING: REANALYZE Peaks with additional N2/O included
MS$DATA_PROCESSING: WHOLE RMassBank 1.3.1
PK$SPLASH: splash10-00di-0900000000-35aed288816b7f614dea
PK$ANNOTATION: m/z tentative_formula formula_count mass error(ppm)
  70.04 C2H4N3+ 1 70.04 0.23
  71.0293 C4H4F+ 1 71.0292 2.04
  75.0229 C6H3+ 2 75.0229 -0.22
  77.0386 C6H5+ 2 77.0386 0.3
  91.0543 C7H7+ 2 91.0542 0.48
  95.0292 C6H4F+ 1 95.0292 0.06
  101.0387 C3H4FN3+ 2 101.0384 2.8
  105.0448 C6H5N2+ 1 105.0447 0.81
  109.0448 C7H6F+ 1 109.0448 -0.04
  113.0152 C6H6Cl+ 2 113.0153 -0.21
  113.0397 C6H6FO+ 2 113.0397 0.18
  119.0491 C8H7O+ 3 119.0491 -0.35
  121.0449 C8H6F+ 1 121.0448 0.7
  123.0241 C7H4FO+ 2 123.0241 0.25
  123.0353 C6H4FN2+ 1 123.0353 -0.1
  129.0448 C8H5N2+ 1 129.0447 0.35
  130.0418 C6H9ClN+ 2 130.0418 -0.03
  138.9945 C7H4ClO+ 2 138.9945 -0.14
  139.0058 C6H4ClN2+ 2 139.0058 -0.02
  141.0101 C7H6ClO+ 2 141.0102 -0.28
  183.0606 C13H8F+ 1 183.0605 1.01
  196.0684 C14H9F+ 1 196.0683 0.82
  197.0766 C14H10F+ 1 197.0761 2.41
PK$NUM_PEAK: 23
PK$PEAK: m/z int. rel.int.
  70.04 341337.4 98
  71.0293 10952.5 3
  75.0229 46267.5 13
  77.0386 123322.4 35
  91.0543 41884.5 12
  95.0292 34082.8 9
  101.0387 119403.9 34
  105.0448 23293.6 6
  109.0448 21689.5 6
  113.0152 87956.8 25
  113.0397 17122.1 4
  119.0491 51305.8 14
  121.0449 3460684.3 999
  123.0241 666997.9 192
  123.0353 356468.5 102
  129.0448 1445897.1 417
  130.0418 8034.2 2
  138.9945 53904.9 15
  139.0058 28811.5 8
  141.0101 58821.8 16
  183.0606 9131.2 2
  196.0684 24161.7 6
  197.0766 11795.2 3
//
