ACCESSION: MSBNK-Eawag-EQ332703
RECORD_TITLE: Carisoprodol; LC-ESI-QFT; MS2; CE: 45; R=35000; [M+H]+
DATE: 2015.08.25
AUTHORS: Otto J, Stravs M, Schymanski E, Singer H, Department of Environmental Chemistry, Eawag
LICENSE: CC BY
COPYRIGHT: Copyright (C) 2015 Eawag, Duebendorf, Switzerland
COMMENT: CONFIDENCE standard compound
COMMENT: EAWAG_UCHEM_ID 3327
CH$NAME: Carisoprodol
CH$NAME: [2-(carbamoyloxymethyl)-2-methylpentyl] N-propan-2-ylcarbamate
CH$COMPOUND_CLASS: N/A; Environmental Standard
CH$FORMULA: C12H24N2O4
CH$EXACT_MASS: 260.17361
CH$SMILES: CCCC(C)(COC(=O)N)COC(=O)NC(C)C
CH$IUPAC: InChI=1S/C12H24N2O4/c1-5-6-12(4,7-17-10(13)15)8-18-11(16)14-9(2)3/h9H,5-8H2,1-4H3,(H2,13,15)(H,14,16)
CH$LINK: CAS 78-44-4
CH$LINK: KEGG D00768
CH$LINK: PUBCHEM CID:2576
CH$LINK: INCHIKEY OFZCIYFFPZCNJE-UHFFFAOYSA-N
CH$LINK: CHEMSPIDER 2478
CH$LINK: COMPTOX DTXSID8024733
AC$INSTRUMENT: Q Exactive Orbitrap Thermo Scientific
AC$INSTRUMENT_TYPE: LC-ESI-QFT
AC$MASS_SPECTROMETRY: MS_TYPE MS2
AC$MASS_SPECTROMETRY: ION_MODE POSITIVE
AC$MASS_SPECTROMETRY: IONIZATION ESI
AC$MASS_SPECTROMETRY: FRAGMENTATION_MODE HCD
AC$MASS_SPECTROMETRY: COLLISION_ENERGY 45 (nominal)
AC$MASS_SPECTROMETRY: RESOLUTION 35000
AC$CHROMATOGRAPHY: COLUMN_NAME XBridge C18 3.5um, 2.1x50mm, Waters
AC$CHROMATOGRAPHY: FLOW_GRADIENT 90/10 at 0 min, 50/50 at 4 min, 5/95 at 17 min, 5/95 at 25 min, 90/10 at 25.1 min, 90/10 at 30 min
AC$CHROMATOGRAPHY: FLOW_RATE 200 ul/min
AC$CHROMATOGRAPHY: RETENTION_TIME 8.8 min
AC$CHROMATOGRAPHY: SOLVENT A water with 0.1% formic acid
AC$CHROMATOGRAPHY: SOLVENT B methanol with 0.1% formic acid
MS$FOCUSED_ION: BASE_PEAK 261.1812
MS$FOCUSED_ION: PRECURSOR_M/Z 261.1809
MS$FOCUSED_ION: PRECURSOR_TYPE [M+H]+
MS$DATA_PROCESSING: DEPROFILE vendor picking in Proteowizard
MS$DATA_PROCESSING: RECALIBRATE loess on assigned fragments and MS1
MS$DATA_PROCESSING: REANALYZE Peaks with additional N2/O included
MS$DATA_PROCESSING: WHOLE RMassBank 1.9.6
PK$SPLASH: splash10-03dj-9100000000-a99d65f53726ca3b6116
PK$ANNOTATION: m/z tentative_formula formula_count mass error(ppm)
  53.0387 C4H5+ 1 53.0386 1.76
  55.0543 C4H7+ 1 55.0542 1.7
  59.0493 C3H7O+ 1 59.0491 1.84
  62.0237 CH4NO2+ 1 62.0237 1.37
  67.0542 C5H7+ 1 67.0542 -0.1
  69.0699 C5H9+ 1 69.0699 0.77
  71.0856 C5H11+ 1 71.0855 0.47
  73.0649 C4H9O+ 1 73.0648 0.94
  86.0601 C4H8NO+ 1 86.06 0.93
  97.1013 C7H13+ 1 97.1012 1.06
  104.0707 C4H10NO2+ 1 104.0706 1.3
  115.1118 C7H15O+ 1 115.1117 0.86
  158.1178 C8H16NO2+ 1 158.1176 1.42
  176.1284 C8H18NO3+ 1 176.1281 1.87
  200.1647 C11H22NO2+ 1 200.1645 0.77
PK$NUM_PEAK: 15
PK$PEAK: m/z int. rel.int.
  53.0387 721299.8 6
  55.0543 2591207 23
  59.0493 5195744 46
  62.0237 110771712 999
  67.0542 189225.3 1
  69.0699 17079544 154
  71.0856 2647544.2 23
  73.0649 2162519 19
  86.0601 1545384.1 13
  97.1013 80290896 724
  104.0707 11492365 103
  115.1118 9275035 83
  158.1178 7415296 66
  176.1284 736032.2 6
  200.1647 3700500.2 33
//
