ACCESSION: MSBNK-Eawag-EQ346001
RECORD_TITLE: N-Nitrosodibutylamine (NDBA); LC-ESI-QFT; MS2; CE: 15; R=70000; [M+H]+
DATE: 2015.08.25
AUTHORS: Beck B, Stravs M, Schymanski E, Singer H, Department of Environmental Chemistry, Eawag
LICENSE: CC BY
COPYRIGHT: Copyright (C) 2015 Eawag, Duebendorf, Switzerland
COMMENT: CONFIDENCE standard compound
COMMENT: EAWAG_UCHEM_ID 3460
CH$NAME: N-Nitrosodibutylamine (NDBA)
CH$NAME: N,N-dibutylnitrous amide
CH$COMPOUND_CLASS: N/A; Environmental Standard
CH$FORMULA: C8H18N2O
CH$EXACT_MASS: 158.14191
CH$SMILES: O=NN(CCCC)CCCC
CH$IUPAC: InChI=1S/C8H18N2O/c1-3-5-7-10(9-11)8-6-4-2/h3-8H2,1-2H3
CH$LINK: CAS 924-16-3
CH$LINK: KEGG C19277
CH$LINK: PUBCHEM CID:13542
CH$LINK: INCHIKEY YGJHZCLPZAZIHH-UHFFFAOYSA-N
CH$LINK: CHEMSPIDER 12954
CH$LINK: COMPTOX DTXSID2021026
AC$INSTRUMENT: Q Exactive Plus Orbitrap Thermo Scientific
AC$INSTRUMENT_TYPE: LC-ESI-QFT
AC$MASS_SPECTROMETRY: MS_TYPE MS2
AC$MASS_SPECTROMETRY: ION_MODE POSITIVE
AC$MASS_SPECTROMETRY: IONIZATION ESI
AC$MASS_SPECTROMETRY: FRAGMENTATION_MODE HCD
AC$MASS_SPECTROMETRY: COLLISION_ENERGY 15 (nominal)
AC$MASS_SPECTROMETRY: RESOLUTION 70000
AC$CHROMATOGRAPHY: COLUMN_NAME XBridge C18 3.5um, 2.1x50mm, Waters
AC$CHROMATOGRAPHY: FLOW_GRADIENT 90/10 at 0 min, 50/50 at 4 min, 5/95 at 17 min, 5/95 at 25 min, 90/10 at 25.1 min, 90/10 at 30 min
AC$CHROMATOGRAPHY: FLOW_RATE 200 ul/min
AC$CHROMATOGRAPHY: RETENTION_TIME 9.5 min
AC$CHROMATOGRAPHY: SOLVENT A water with 0.1% formic acid
AC$CHROMATOGRAPHY: SOLVENT B methanol with 0.1% formic acid
MS$FOCUSED_ION: BASE_PEAK 159.1492
MS$FOCUSED_ION: PRECURSOR_M/Z 159.1492
MS$FOCUSED_ION: PRECURSOR_TYPE [M+H]+
MS$DATA_PROCESSING: RECALIBRATE loess on assigned fragments and MS1
MS$DATA_PROCESSING: REANALYZE Peaks with additional N2/O included
MS$DATA_PROCESSING: WHOLE RMassBank 1.9.6
PK$SPLASH: splash10-0a4i-6900000000-d508d1c68f28ccbb12e1
PK$ANNOTATION: m/z tentative_formula formula_count mass error(ppm)
  53.0022 C3HO+ 1 53.0022 -0.02
  53.9975 C2NO+ 1 53.9974 0.74
  55.0542 C4H7+ 1 55.0542 -0.3
  57.0699 C4H9+ 1 57.0699 -0.29
  67.9892 C3O2+ 1 67.9893 -0.45
  73.0648 C4H9O+ 1 73.0648 -0.57
  103.0866 C4H11N2O+ 1 103.0866 -0.38
  121.0971 C4H13N2O2+ 1 121.0972 -0.36
  159.1492 C8H19N2O+ 1 159.1492 0.07
PK$NUM_PEAK: 9
PK$PEAK: m/z int. rel.int.
  53.0022 1169454.2 17
  53.9975 156190.2 2
  55.0542 298619.5 4
  57.0699 68067768 999
  67.9892 217345.9 3
  73.0648 181322.2 2
  103.0866 50247356 737
  121.0971 110890.2 1
  159.1492 52630788 772
//
