ACCESSION: MSBNK-Eawag-EA281909
RECORD_TITLE: 1-(3-(Trifluoromethyl)phenyl)piperazine; LC-ESI-ITFT; MS2; CE: 30%; R=15000; [M+H]+
DATE: 2014.01.14
AUTHORS: Stravs M, Schymanski E, Singer H, Department of Environmental Chemistry, Eawag
LICENSE: CC BY
COPYRIGHT: Copyright (C) 2012 Eawag, Duebendorf, Switzerland
COMMENT: CONFIDENCE standard compound
COMMENT: EAWAG_UCHEM_ID 2819
CH$NAME: 1-(3-(Trifluoromethyl)phenyl)piperazine
CH$COMPOUND_CLASS: N/A; Environmental Standard
CH$FORMULA: C11H13F3N2
CH$EXACT_MASS: 230.1031
CH$SMILES: c1c(C(F)(F)F)cccc1N1CCNCC1
CH$IUPAC: InChI=1S/C11H13F3N2/c12-11(13,14)9-2-1-3-10(8-9)16-6-4-15-5-7-16/h1-3,8,15H,4-7H2
CH$LINK: CAS 15532-75-9
CH$LINK: PUBCHEM CID:4296
CH$LINK: INCHIKEY KKIMDKMETPPURN-UHFFFAOYSA-N
CH$LINK: CHEMSPIDER 4145
CH$LINK: COMPTOX DTXSID10165876
AC$INSTRUMENT: LTQ Orbitrap XL Thermo Scientific
AC$INSTRUMENT_TYPE: LC-ESI-ITFT
AC$MASS_SPECTROMETRY: MS_TYPE MS2
AC$MASS_SPECTROMETRY: ION_MODE POSITIVE
AC$MASS_SPECTROMETRY: IONIZATION ESI
AC$MASS_SPECTROMETRY: FRAGMENTATION_MODE HCD
AC$MASS_SPECTROMETRY: COLLISION_ENERGY 30 % (nominal)
AC$MASS_SPECTROMETRY: RESOLUTION 15000
AC$CHROMATOGRAPHY: COLUMN_NAME XBridge C18 3.5um, 2.1x50mm, Waters
AC$CHROMATOGRAPHY: FLOW_GRADIENT 90/10 at 0 min, 50/50 at 4 min, 5/95 at 17 min, 5/95 at 25 min, 90/10 at 25.1 min, 90/10 at 30 min
AC$CHROMATOGRAPHY: FLOW_RATE 200 ul/min
AC$CHROMATOGRAPHY: RETENTION_TIME 5.9 min
AC$CHROMATOGRAPHY: SOLVENT A water with 0.1% formic acid
AC$CHROMATOGRAPHY: SOLVENT B methanol with 0.1% formic acid
MS$FOCUSED_ION: BASE_PEAK 231.1108
MS$FOCUSED_ION: PRECURSOR_M/Z 231.1104
MS$FOCUSED_ION: PRECURSOR_TYPE [M+H]+
MS$DATA_PROCESSING: DEPROFILE Spline
MS$DATA_PROCESSING: RECALIBRATE loess on assigned fragments and MS1
MS$DATA_PROCESSING: REANALYZE Peaks with additional N2/O included
MS$DATA_PROCESSING: WHOLE RMassBank 1.3.1
PK$SPLASH: splash10-001i-0090000000-6efdc985adc38b763898
PK$ANNOTATION: m/z tentative_formula formula_count mass error(ppm)
  188.0682 C9H9F3N+ 1 188.0682 0.37
  229.0944 C11H12F3N2+ 1 229.0947 -1.39
  231.1106 C11H14F3N2+ 1 231.1104 1.26
PK$NUM_PEAK: 3
PK$PEAK: m/z int. rel.int.
  188.0682 315224.9 18
  229.0944 60247.9 3
  231.1106 16702145.2 999
//
