ACCESSION: MSBNK-Eawag-EA065958
RECORD_TITLE: Oseltamivir carboxylate; LC-ESI-ITFT; MS2; CE: 15%; R=15000; [M-H]-
DATE: 2014.01.14
AUTHORS: Stravs M, Schymanski E, Singer H, Department of Environmental Chemistry, Eawag
LICENSE: CC BY
COPYRIGHT: Copyright (C) 2012 Eawag, Duebendorf, Switzerland
COMMENT: CONFIDENCE standard compound
COMMENT: EAWAG_UCHEM_ID 659
CH$NAME: Oseltamivir carboxylate
CH$NAME: (3R,4R,5S)-4-acetamido-5-amino-3-pentan-3-yloxycyclohexene-1-carboxylic acid
CH$COMPOUND_CLASS: N/A; Environmental Standard
CH$FORMULA: C14H24N2O4
CH$EXACT_MASS: 284.1736
CH$SMILES: CCC(CC)O[C@@H]1C=C(C[C@@H]([C@H]1NC(=O)C)N)C(=O)O
CH$IUPAC: InChI=1S/C14H24N2O4/c1-4-10(5-2)20-12-7-9(14(18)19)6-11(15)13(12)16-8(3)17/h7,10-13H,4-6,15H2,1-3H3,(H,16,17)(H,18,19)/t11-,12+,13+/m0/s1
CH$LINK: CAS 187227-45-8
CH$LINK: PUBCHEM CID:449381
CH$LINK: INCHIKEY NENPYTRHICXVCS-YNEHKIRRSA-N
CH$LINK: CHEMSPIDER 395929
CH$LINK: COMPTOX DTXSID50171996
AC$INSTRUMENT: LTQ Orbitrap XL Thermo Scientific
AC$INSTRUMENT_TYPE: LC-ESI-ITFT
AC$MASS_SPECTROMETRY: MS_TYPE MS2
AC$MASS_SPECTROMETRY: ION_MODE NEGATIVE
AC$MASS_SPECTROMETRY: IONIZATION ESI
AC$MASS_SPECTROMETRY: FRAGMENTATION_MODE HCD
AC$MASS_SPECTROMETRY: COLLISION_ENERGY 15 % (nominal)
AC$MASS_SPECTROMETRY: RESOLUTION 15000
AC$CHROMATOGRAPHY: COLUMN_NAME XBridge C18 3.5um, 2.1x50mm, Waters
AC$CHROMATOGRAPHY: FLOW_GRADIENT 90/10 at 0 min, 50/50 at 4 min, 5/95 at 17 min, 5/95 at 25 min, 90/10 at 25.1 min, 90/10 at 30 min
AC$CHROMATOGRAPHY: FLOW_RATE 200 ul/min
AC$CHROMATOGRAPHY: RETENTION_TIME 5.2 min
AC$CHROMATOGRAPHY: SOLVENT A water with 0.1% formic acid
AC$CHROMATOGRAPHY: SOLVENT B methanol with 0.1% formic acid
MS$FOCUSED_ION: BASE_PEAK 283.167
MS$FOCUSED_ION: PRECURSOR_M/Z 283.1663
MS$FOCUSED_ION: PRECURSOR_TYPE [M-H]-
MS$DATA_PROCESSING: DEPROFILE Spline
MS$DATA_PROCESSING: RECALIBRATE loess on assigned fragments and MS1
MS$DATA_PROCESSING: REANALYZE Peaks with additional N2/O included
MS$DATA_PROCESSING: WHOLE RMassBank 1.3.1
PK$SPLASH: splash10-001i-0390000000-3d155c49fbabbba63dab
PK$ANNOTATION: m/z tentative_formula formula_count mass error(ppm)
  136.0407 C7H6NO2- 1 136.0404 2.26
  149.072 C8H9N2O- 1 149.072 -0.18
  195.0774 C9H11N2O3- 1 195.0775 -0.75
  207.1023 C12H15O3- 1 207.1027 -1.92
  224.1291 C12H18NO3- 1 224.1292 -0.48
  283.1658 C14H23N2O4- 1 283.1663 -1.73
PK$NUM_PEAK: 6
PK$PEAK: m/z int. rel.int.
  136.0407 7773.8 89
  149.072 3542 40
  195.0774 33372 384
  207.1023 4218.8 48
  224.1291 17050.9 196
  283.1658 86684.9 999
//
