ACCESSION: MSBNK-Eawag-EA266853
RECORD_TITLE: Fipronil-sulfide; LC-ESI-ITFT; MS2; CE: 30%; R=7500; [M-H]-
DATE: 2014.01.14
AUTHORS: Stravs M, Schymanski E, Singer H, Department of Environmental Chemistry, Eawag
LICENSE: CC BY
COPYRIGHT: Copyright (C) 2012 Eawag, Duebendorf, Switzerland
COMMENT: CONFIDENCE standard compound
COMMENT: EAWAG_UCHEM_ID 2668
CH$NAME: Fipronil-sulfide
CH$NAME: 5-Amino-1-[2,6-dichloro-4-(trifluoromethyl)phenyl]-4-[(trifluoromethyl)sulfanyl]-1H-pyrazole-3-carbonitrile
CH$COMPOUND_CLASS: N/A; Environmental Standard
CH$FORMULA: C12H4Cl2F6N4S
CH$EXACT_MASS: 419.9438
CH$SMILES: FC(F)(F)c2cc(Cl)c(n1nc(C#N)c(SC(F)(F)F)c1N)c(Cl)c2
CH$IUPAC: InChI=1S/C12H4Cl2F6N4S/c13-5-1-4(11(15,16)17)2-6(14)8(5)24-10(22)9(7(3-21)23-24)25-12(18,19)20/h1-2H,22H2
CH$LINK: CAS 120067-83-6
CH$LINK: PUBCHEM CID:9953940
CH$LINK: INCHIKEY FQXWEKADCSXYOC-UHFFFAOYSA-N
CH$LINK: CHEMSPIDER 8129550
CH$LINK: COMPTOX DTXSID50869644
AC$INSTRUMENT: LTQ Orbitrap XL Thermo Scientific
AC$INSTRUMENT_TYPE: LC-ESI-ITFT
AC$MASS_SPECTROMETRY: MS_TYPE MS2
AC$MASS_SPECTROMETRY: ION_MODE NEGATIVE
AC$MASS_SPECTROMETRY: IONIZATION ESI
AC$MASS_SPECTROMETRY: FRAGMENTATION_MODE HCD
AC$MASS_SPECTROMETRY: COLLISION_ENERGY 30 % (nominal)
AC$MASS_SPECTROMETRY: RESOLUTION 7500
AC$CHROMATOGRAPHY: COLUMN_NAME XBridge C18 3.5um, 2.1x50mm, Waters
AC$CHROMATOGRAPHY: FLOW_GRADIENT 90/10 at 0 min, 50/50 at 4 min, 5/95 at 17 min, 5/95 at 25 min, 90/10 at 25.1 min, 90/10 at 30 min
AC$CHROMATOGRAPHY: FLOW_RATE 200 ul/min
AC$CHROMATOGRAPHY: RETENTION_TIME 13.0 min
AC$CHROMATOGRAPHY: SOLVENT A water with 0.1% formic acid
AC$CHROMATOGRAPHY: SOLVENT B methanol with 0.1% formic acid
MS$FOCUSED_ION: BASE_PEAK 418.9372
MS$FOCUSED_ION: PRECURSOR_M/Z 418.9365
MS$FOCUSED_ION: PRECURSOR_TYPE [M-H]-
MS$DATA_PROCESSING: DEPROFILE Spline
MS$DATA_PROCESSING: RECALIBRATE loess on assigned fragments and MS1
MS$DATA_PROCESSING: REANALYZE Peaks with additional N2/O included
MS$DATA_PROCESSING: WHOLE RMassBank 1.3.1
PK$SPLASH: splash10-03di-0409000000-660323eaa321a848fe0b
PK$ANNOTATION: m/z tentative_formula formula_count mass error(ppm)
  170.0096 C7HF3N2- 1 170.0097 -0.6
  313.9637 C11H2ClF3N4S- 1 313.9646 -2.92
PK$NUM_PEAK: 2
PK$PEAK: m/z int. rel.int.
  170.0096 57028.3 489
  313.9637 116425.5 999
//
