ACCESSION: MSBNK-Eawag-EQ01126754
RECORD_TITLE: Halosulfuron-Methyl; LC-ESI-QFT; MS2; CE: 60%; R=17500; [M-H]-
DATE: 2023.04.27
AUTHORS: B. Beck [dtc,com], J. Hollender [dtc]
LICENSE: CC BY-SA
COPYRIGHT: Copyright (C) Eawag 2023
COMMENT: CONFIDENCE standard compound
COMMENT: UCHEM_ID 11267
CH$NAME: Halosulfuron-Methyl
CH$NAME: methyl 3-chloro-5-[(4,6-dimethoxypyrimidin-2-yl)carbamoylsulfamoyl]-1-methylpyrazole-4-carboxylate
CH$COMPOUND_CLASS: N/A; Environmental Standard
CH$FORMULA: C13H15ClN6O7S
CH$EXACT_MASS: 434.0411
CH$SMILES: CN1C(=C(C(=N1)Cl)C(=O)OC)S(=O)(=O)NC(=O)NC2=NC(=CC(=N2)OC)OC
CH$IUPAC: InChI=1S/C13H15ClN6O7S/c1-20-10(8(9(14)18-20)11(21)27-4)28(23,24)19-13(22)17-12-15-6(25-2)5-7(16-12)26-3/h5H,1-4H3,(H2,15,16,17,19,22)
CH$LINK: CAS 100784-20-1
CH$LINK: CHEBI CHEBI:81750
CH$LINK: KEGG C18442
CH$LINK: PUBCHEM CID:91763
CH$LINK: INCHIKEY FMGZEUWROYGLAY-UHFFFAOYSA-N
CH$LINK: CHEMSPIDER 82861
AC$INSTRUMENT: Exploris 240 Orbitrap Thermo Scientific
AC$INSTRUMENT_TYPE: LC-ESI-QFT
AC$MASS_SPECTROMETRY: MS_TYPE MS2
AC$MASS_SPECTROMETRY: ION_MODE NEGATIVE
AC$MASS_SPECTROMETRY: IONIZATION ESI
AC$MASS_SPECTROMETRY: FRAGMENTATION_MODE HCD
AC$MASS_SPECTROMETRY: COLLISION_ENERGY 60 % (nominal)
AC$MASS_SPECTROMETRY: RESOLUTION 17500
AC$MASS_SPECTROMETRY: MASS_RANGE_M/Z 50-463
AC$CHROMATOGRAPHY: COLUMN_NAME XBridge C18 3.5um, 2.1x50mm, Waters
AC$CHROMATOGRAPHY: FLOW_GRADIENT 90/10 at 0 min, 50/50 at 4 min, 5/95 at 17 min, 5/95 at 25 min, 90/10 at 25.1 min, 90/10 at 30 min
AC$CHROMATOGRAPHY: FLOW_RATE 200 uL/min
AC$CHROMATOGRAPHY: RETENTION_TIME 10.035 min
MS$FOCUSED_ION: BASE_PEAK 433.0339
MS$FOCUSED_ION: PRECURSOR_M/Z 433.0339
MS$FOCUSED_ION: PRECURSOR_TYPE [M-H]-
MS$DATA_PROCESSING: RECALIBRATE loess on assigned fragments and MS1
MS$DATA_PROCESSING: REANALYZE Peaks with additional N2/O included
MS$DATA_PROCESSING: WHOLE RMassBank 3.11.0.1
PK$SPLASH: splash10-004i-9500000000-9a071ebae1dff731140e
PK$ANNOTATION: m/z tentative_formula formula_count mass error(ppm)
  65.0146 C3HN2- 1 65.0145 0.49
  65.9986 C3NO- 1 65.9985 0.5
  77.9655 NO2S- 1 77.9655 0.19
  82.0175 C3H2N2O- 2 82.0173 2.77
  90.0098 C4N3- 1 90.0098 0.77
  97.0409 C4H5N2O- 2 97.0407 1.62
  107.0124 C4HN3O- 1 107.0125 -0.66
  122.036 C5H4N3O- 2 122.036 -0.17
  124.0515 C5H6N3O- 2 124.0516 -0.85
  139.0387 C5H5N3O2- 2 139.0387 0.07
  154.0622 C6H8N3O2- 3 154.0622 -0.11
  188.0231 C6H7ClN3O2- 4 188.0232 -0.79
  219.959 C5H3ClN3O3S- 2 219.9589 0.48
  251.9853 C6H7ClN3O4S- 5 251.9851 0.75
PK$NUM_PEAK: 14
PK$PEAK: m/z int. rel.int.
  65.0146 5009501 110
  65.9986 2950650.2 65
  77.9655 45315716 999
  82.0175 227895.3 5
  90.0098 601541.7 13
  97.0409 604505.5 13
  107.0124 2078324.4 45
  122.036 5752658.5 126
  124.0515 951656 20
  139.0387 4530039.5 99
  154.0622 17868788 393
  188.0231 511571 11
  219.959 1126888.4 24
  251.9853 1147894.9 25
//
