ACCESSION: MSBNK-Eawag-EA281811
RECORD_TITLE: 1-(3-Chlorophenyl)piperazine; LC-ESI-ITFT; MS2; CE: 60%; R=15000; [M+H]+
DATE: 2014.01.14
AUTHORS: Stravs M, Schymanski E, Singer H, Department of Environmental Chemistry, Eawag
LICENSE: CC BY
COPYRIGHT: Copyright (C) 2012 Eawag, Duebendorf, Switzerland
COMMENT: CONFIDENCE standard compound
COMMENT: EAWAG_UCHEM_ID 2818
CH$NAME: 1-(3-Chlorophenyl)piperazine
CH$COMPOUND_CLASS: N/A; Environmental Standard
CH$FORMULA: C10H13ClN2
CH$EXACT_MASS: 196.0767
CH$SMILES: c1c(Cl)cccc1N1CCNCC1
CH$IUPAC: InChI=1S/C10H13ClN2/c11-9-2-1-3-10(8-9)13-6-4-12-5-7-13/h1-3,8,12H,4-7H2
CH$LINK: CAS 6640-24-0
CH$LINK: CHEBI CHEBI:10588
CH$LINK: KEGG C11738
CH$LINK: PUBCHEM CID:1355
CH$LINK: INCHIKEY VHFVKMTVMIZMIK-UHFFFAOYSA-N
CH$LINK: CHEMSPIDER 1314
CH$LINK: COMPTOX DTXSID9045138
AC$INSTRUMENT: LTQ Orbitrap XL Thermo Scientific
AC$INSTRUMENT_TYPE: LC-ESI-ITFT
AC$MASS_SPECTROMETRY: MS_TYPE MS2
AC$MASS_SPECTROMETRY: ION_MODE POSITIVE
AC$MASS_SPECTROMETRY: IONIZATION ESI
AC$MASS_SPECTROMETRY: FRAGMENTATION_MODE HCD
AC$MASS_SPECTROMETRY: COLLISION_ENERGY 60 % (nominal)
AC$MASS_SPECTROMETRY: RESOLUTION 15000
AC$CHROMATOGRAPHY: COLUMN_NAME XBridge C18 3.5um, 2.1x50mm, Waters
AC$CHROMATOGRAPHY: FLOW_GRADIENT 90/10 at 0 min, 50/50 at 4 min, 5/95 at 17 min, 5/95 at 25 min, 90/10 at 25.1 min, 90/10 at 30 min
AC$CHROMATOGRAPHY: FLOW_RATE 200 ul/min
AC$CHROMATOGRAPHY: RETENTION_TIME 5.2 min
AC$CHROMATOGRAPHY: SOLVENT A water with 0.1% formic acid
AC$CHROMATOGRAPHY: SOLVENT B methanol with 0.1% formic acid
MS$FOCUSED_ION: BASE_PEAK 197.0847
MS$FOCUSED_ION: PRECURSOR_M/Z 197.084
MS$FOCUSED_ION: PRECURSOR_TYPE [M+H]+
MS$DATA_PROCESSING: DEPROFILE Spline
MS$DATA_PROCESSING: RECALIBRATE loess on assigned fragments and MS1
MS$DATA_PROCESSING: REANALYZE Peaks with additional N2/O included
MS$DATA_PROCESSING: WHOLE RMassBank 1.3.1
PK$SPLASH: splash10-0udj-0900000000-0826be5530cb871f3576
PK$ANNOTATION: m/z tentative_formula formula_count mass error(ppm)
  58.0651 C3H8N+ 1 58.0651 -0.1
  70.0652 C4H8N+ 1 70.0651 0.49
  91.0541 C7H7+ 1 91.0542 -1.17
  117.0572 C8H7N+ 1 117.0573 -1.03
  118.0651 C8H8N+ 1 118.0651 0.12
  119.073 C8H9N+ 1 119.073 0.5
  120.0808 C8H10N+ 1 120.0808 0.37
  130.0649 C9H8N+ 1 130.0651 -1.43
  138.0104 C7H5ClN+ 1 138.0105 -0.68
  140.0261 C7H7ClN+ 1 140.0262 -0.17
  144.0811 C10H10N+ 1 144.0808 1.97
  145.0886 C10H11N+ 1 145.0886 0.2
  151.0186 C8H6ClN+ 1 151.0183 1.47
  152.0261 C8H7ClN+ 1 152.0262 -0.35
  154.0419 C8H9ClN+ 1 154.0418 0.63
  160.0997 C10H12N2+ 1 160.0995 1.13
  162.1151 C10H14N2+ 1 162.1151 -0.43
  166.0418 C9H9ClN+ 1 166.0418 0.04
  167.0371 C8H8ClN2+ 1 167.0371 0.11
  168.0445 C8H9ClN2+ 1 168.0449 -2.25
  168.0573 C9H11ClN+ 1 168.0575 -0.97
  180.0575 C10H11ClN+ 1 180.0575 0.15
  195.0684 C10H12ClN2+ 1 195.0684 0.4
  197.0842 C10H14ClN2+ 1 197.084 0.9
PK$NUM_PEAK: 24
PK$PEAK: m/z int. rel.int.
  58.0651 9290.6 3
  70.0652 62386.1 20
  91.0541 6123.4 2
  117.0572 15248.4 5
  118.0651 167868.6 55
  119.073 797221.6 263
  120.0808 9055.5 2
  130.0649 5238.1 1
  138.0104 12136.8 4
  140.0261 77313.9 25
  144.0811 17488.3 5
  145.0886 39087.5 12
  151.0186 4983.5 1
  152.0261 38858.9 12
  154.0419 3025903.2 999
  160.0997 5489.5 1
  162.1151 5469.3 1
  166.0418 33074.9 10
  167.0371 9058.3 2
  168.0445 7661.1 2
  168.0573 14910.6 4
  180.0575 87317.4 28
  195.0684 262327.1 86
  197.0842 1911348.1 631
//
