ACCESSION: MSBNK-Eawag-EQ00352002
RECORD_TITLE: Fenbuconazole; LC-ESI-QFT; MS2; CE: 30%; R=15000; [M+H]+
DATE: 2024.06.14
AUTHORS: F. Jud [dtc], K. Arturi [dtc], J. Hollender [dtc], A. Dax [com]
LICENSE: CC BY-SA
COPYRIGHT: Copyright (C) Eawag 2024
COMMENT: CONFIDENCE standard compound
COMMENT: UCHEM_ID 3520
CH$NAME: Fenbuconazole
CH$NAME: 4-(4-chlorophenyl)-2-phenyl-2-(1,2,4-triazol-1-ylmethyl)butanenitrile
CH$COMPOUND_CLASS: N/A
CH$FORMULA: C19H17ClN4
CH$EXACT_MASS: 336.1141742
CH$SMILES: C1=CC=C(C=C1)C(CCC2=CC=C(C=C2)Cl)(CN3C=NC=N3)C#N
CH$IUPAC: InChI=1S/C19H17ClN4/c20-18-8-6-16(7-9-18)10-11-19(12-21,13-24-15-22-14-23-24)17-4-2-1-3-5-17/h1-9,14-15H,10-11,13H2
CH$LINK: CAS 165453-92-9
CH$LINK: CHEBI CHEBI:83920
CH$LINK: KEGG C18461
CH$LINK: PUBCHEM CID:86138
CH$LINK: INCHIKEY RQDJADAKIFFEKQ-UHFFFAOYSA-N
CH$LINK: CHEMSPIDER 77712
AC$INSTRUMENT: Exploris 240 Thermo Scientific
AC$INSTRUMENT_TYPE: LC-ESI-QFT
AC$MASS_SPECTROMETRY: MS_TYPE MS2
AC$MASS_SPECTROMETRY: ION_MODE POSITIVE
AC$MASS_SPECTROMETRY: IONIZATION ESI
AC$MASS_SPECTROMETRY: FRAGMENTATION_MODE HCD
AC$MASS_SPECTROMETRY: COLLISION_ENERGY 30 % (nominal)
AC$MASS_SPECTROMETRY: RESOLUTION 15000
AC$MASS_SPECTROMETRY: MASS_RANGE_M/Z 50-365
AC$CHROMATOGRAPHY: COLUMN_NAME XBridge C18 3.5um, 2.1x50mm, Waters
AC$CHROMATOGRAPHY: FLOW_GRADIENT 90/10 at 0 min, 50/50 at 4 min, 5/95 at 17 min, 5/95 at 25 min, 90/10 at 25.1 min, 90/10 at 30 min
AC$CHROMATOGRAPHY: FLOW_RATE 200 uL/min
AC$CHROMATOGRAPHY: RETENTION_TIME 10.622 min
MS$FOCUSED_ION: BASE_PEAK 337.1211
MS$FOCUSED_ION: PRECURSOR_M/Z 337.1215
MS$FOCUSED_ION: PRECURSOR_TYPE [M+H]+
MS$DATA_PROCESSING: RECALIBRATE loess on assigned fragments and MS1
MS$DATA_PROCESSING: REANALYZE Peaks with additional N2/O included
MS$DATA_PROCESSING: WHOLE RMassBank 3.15.1.1
PK$SPLASH: splash10-00dr-9304000000-a221996cf278be98273e
PK$ANNOTATION: m/z tentative_formula formula_count mass error(ppm)
  70.0399 C2H4N3+ 1 70.04 -1.01
  91.0541 C7H7+ 1 91.0542 -1.43
  125.0151 C7H6Cl+ 1 125.0153 -0.9
  190.0414 C11H9ClN+ 1 190.0418 -2.33
  194.0475 C9H9ClN3+ 1 194.048 -2.2
  337.1212 C19H18ClN4+ 1 337.1215 -0.6
PK$NUM_PEAK: 6
PK$PEAK: m/z int. rel.int.
  70.0399 94806064 999
  91.0541 1789411.8 18
  125.0151 33412046 352
  190.0414 1792871 18
  194.0475 6925273 72
  337.1212 50508376 532
//
