ACCESSION: MSBNK-Eawag-EQ367805
RECORD_TITLE: Doxycycline; LC-ESI-QFT; MS2; CE: 75; R=35000; [M+H]+
DATE: 2015.08.25
AUTHORS: Stravs M, Schymanski E, Singer H, Department of Environmental Chemistry, Eawag and Thomaidis N, University of Athens
LICENSE: CC BY
COPYRIGHT: Copyright (C) 2015 Eawag, Duebendorf, Switzerland
COMMENT: CONFIDENCE standard compound
COMMENT: EAWAG_UCHEM_ID 3678
CH$NAME: Doxycycline
CH$NAME: 8-carbamoyl-10-(dimethylazaniumyl)-4,6a,7,11-tetrahydroxy-12-methyl-6,9-dioxo-10a,11,11a,12-tetrahydro-10H-tetracen-5-olate
CH$COMPOUND_CLASS: N/A; Environmental Standard
CH$FORMULA: C22H24N2O8
CH$EXACT_MASS: 444.15327
CH$SMILES: CC1C2C(C3C(C(=O)C(=C(C3(C(=O)C2=C(C4=C1C=CC=C4O)O)O)O)C(=O)N)N(C)C)O
CH$IUPAC: InChI=1S/C22H24N2O8/c1-7-8-5-4-6-9(25)11(8)16(26)12-10(7)17(27)14-15(24(2)3)18(28)13(21(23)31)20(30)22(14,32)19(12)29/h4-7,10,14-15,17,25-27,30,32H,1-3H3,(H2,23,31)
CH$LINK: CAS 564-25-0
CH$LINK: PUBCHEM CID:54681536
CH$LINK: INCHIKEY SGKRLCUYIXIAHR-UHFFFAOYSA-N
CH$LINK: CHEMSPIDER 10482106
AC$INSTRUMENT: Q Exactive Plus Orbitrap Thermo Scientific
AC$INSTRUMENT_TYPE: LC-ESI-QFT
AC$MASS_SPECTROMETRY: MS_TYPE MS2
AC$MASS_SPECTROMETRY: ION_MODE POSITIVE
AC$MASS_SPECTROMETRY: IONIZATION ESI
AC$MASS_SPECTROMETRY: FRAGMENTATION_MODE HCD
AC$MASS_SPECTROMETRY: COLLISION_ENERGY 75 (nominal)
AC$MASS_SPECTROMETRY: RESOLUTION 35000
AC$CHROMATOGRAPHY: COLUMN_NAME XBridge C18 3.5um, 2.1x50mm, Waters
AC$CHROMATOGRAPHY: FLOW_GRADIENT 90/10 at 0 min, 50/50 at 4 min, 5/95 at 17 min, 5/95 at 25 min, 90/10 at 25.1 min, 90/10 at 30 min
AC$CHROMATOGRAPHY: FLOW_RATE 200 ul/min
AC$CHROMATOGRAPHY: RETENTION_TIME 6.4 min
AC$CHROMATOGRAPHY: SOLVENT A water with 0.1% formic acid
AC$CHROMATOGRAPHY: SOLVENT B methanol with 0.1% formic acid
MS$FOCUSED_ION: BASE_PEAK 445.1595
MS$FOCUSED_ION: PRECURSOR_M/Z 445.1605
MS$FOCUSED_ION: PRECURSOR_TYPE [M+H]+
MS$DATA_PROCESSING: RECALIBRATE loess on assigned fragments and MS1
MS$DATA_PROCESSING: REANALYZE Peaks with additional N2/O included
MS$DATA_PROCESSING: WHOLE RMassBank 1.9.6
PK$SPLASH: splash10-0f6t-4890000000-caa6a03b4b07eec38ef7
PK$ANNOTATION: m/z tentative_formula formula_count mass error(ppm)
  50.0151 C4H2+ 1 50.0151 -0.23
  51.0229 C4H3+ 1 51.0229 -0.52
  53.0022 C3HO+ 1 53.0022 0.55
  53.0386 C4H5+ 1 53.0386 0.44
  54.0339 C3H4N+ 1 54.0338 1.75
  55.0179 C3H3O+ 1 55.0178 0.16
  55.0417 C3H5N+ 1 55.0417 1.44
  56.0495 C3H6N+ 1 56.0495 0.08
  57.0336 C3H5O+ 1 57.0335 2.26
  57.0574 C3H7N+ 1 57.0573 1.22
  58.0651 C3H8N+ 1 58.0651 0.07
  63.0228 C5H3+ 1 63.0229 -1.21
  65.0385 C5H5+ 1 65.0386 -1.02
  67.0178 C4H3O+ 1 67.0178 -0.46
  67.0542 C5H7+ 1 67.0542 -0.4
  68.0495 C4H6N+ 1 68.0495 0.06
  68.9971 C3HO2+ 1 68.9971 -0.52
  69.0335 C4H5O+ 1 69.0335 -0.31
  70.0651 C4H8N+ 1 70.0651 -0.37
  71.0365 C3H5NO+ 1 71.0366 -0.78
  71.0728 C4H9N+ 1 71.073 -1.84
  72.0444 C3H6NO+ 1 72.0444 -0.42
  72.0808 C4H10N+ 1 72.0808 -0.22
  74.06 C3H8NO+ 1 74.06 -0.81
  75.0228 C6H3+ 1 75.0229 -1.69
  77.0384 C6H5+ 1 77.0386 -2.81
  79.0178 C5H3O+ 1 79.0178 -0.14
  79.0542 C6H7+ 1 79.0542 -0.72
  80.0494 C5H6N+ 1 80.0495 -0.32
  81.0335 C5H5O+ 1 81.0335 0.23
  81.0571 C5H7N+ 1 81.0573 -2.48
  82.0651 C5H8N+ 1 82.0651 -0.56
  83.0127 C4H3O2+ 1 83.0128 -0.55
  83.0366 C4H5NO+ 1 83.0366 -0.06
  84.0444 C4H6NO+ 1 84.0444 0.12
  84.0808 C5H10N+ 1 84.0808 -0.19
  85.0284 C4H5O2+ 1 85.0284 -0.3
  86.06 C4H8NO+ 1 86.06 -0.58
  89.0386 C7H5+ 1 89.0386 -0.07
  91.0543 C7H7+ 1 91.0542 0.92
  93.0336 C6H5O+ 1 93.0335 1.49
  93.0576 C6H7N+ 1 93.0573 2.79
  93.0699 C7H9+ 1 93.0699 0.25
  94.0652 C6H8N+ 1 94.0651 0.79
  95.0127 C5H3O2+ 1 95.0128 -0.06
  95.0491 C6H7O+ 1 95.0491 0.09
  96.0444 C5H6NO+ 1 96.0444 0
  96.0808 C6H10N+ 1 96.0808 0.67
  97.0284 C5H5O2+ 1 97.0284 0.15
  97.0524 C5H7NO+ 1 97.0522 1.59
  98.0601 C5H8NO+ 1 98.06 0.2
  99.0076 C4H3O3+ 1 99.0077 -0.41
  100.0757 C5H10NO+ 1 100.0757 -0.1
  103.0542 C8H7+ 1 103.0542 -0.45
  105.0336 C7H5O+ 1 105.0335 0.56
  105.0447 C6H5N2+ 1 105.0447 -0.52
  105.07 C8H9+ 1 105.0699 1.55
  106.0651 C7H8N+ 1 106.0651 -0.43
  107.0127 C6H3O2+ 1 107.0128 -0.52
  107.0491 C7H7O+ 1 107.0491 0.08
  108.0444 C6H6NO+ 1 108.0444 0.28
  108.0807 C7H10N+ 1 108.0808 -0.79
  109.0285 C6H5O2+ 1 109.0284 0.5
  110.06 C6H8NO+ 1 110.06 -0.09
  111.0076 C5H3O3+ 1 111.0077 -0.27
  111.0441 C6H7O2+ 1 111.0441 0.13
  112.0757 C6H10NO+ 1 112.0757 -0.18
  114.0551 C5H8NO2+ 1 114.055 1.36
  115.0542 C9H7+ 1 115.0542 0.12
  116.062 C9H8+ 1 116.0621 -0.62
  117.0699 C9H9+ 1 117.0699 -0.14
  118.0651 C8H8N+ 1 118.0651 -0.22
  119.0128 C7H3O2+ 1 119.0128 0.71
  119.0492 C8H7O+ 1 119.0491 0.49
  119.0855 C9H11+ 1 119.0855 -0.48
  121.0284 C7H5O2+ 1 121.0284 -0.13
  121.0648 C8H9O+ 1 121.0648 0.24
  122.0601 C7H8NO+ 1 122.06 0.08
  123.0077 C6H3O3+ 1 123.0077 0.24
  123.044 C7H7O2+ 1 123.0441 -0.13
  124.0156 C6H4O3+ 1 124.0155 0.44
  124.0394 C6H6NO2+ 1 124.0393 0.93
  124.0758 C7H10NO+ 1 124.0757 0.64
  125.0235 C6H5O3+ 1 125.0233 1.28
  125.0469 C6H7NO2+ 1 125.0471 -1.76
  126.0549 C6H8NO2+ 1 126.055 -0.44
  127.0027 C5H3O4+ 1 127.0026 0.59
  127.0543 C10H7+ 1 127.0542 0.34
  128.062 C10H8+ 1 128.0621 -0.4
  128.0708 C6H10NO2+ 1 128.0706 1.6
  129.0699 C10H9+ 1 129.0699 -0.05
  131.0492 C9H7O+ 1 131.0491 0.14
  131.0855 C10H11+ 1 131.0855 0.02
  132.057 C9H8O+ 1 132.057 0.56
  133.0285 C8H5O2+ 1 133.0284 0.63
  133.0648 C9H9O+ 1 133.0648 0.14
  134.0599 C8H8NO+ 1 134.06 -0.75
  135.0076 C7H3O3+ 1 135.0077 -0.37
  135.0442 C8H7O2+ 1 135.0441 1.14
  136.0758 C8H10NO+ 1 136.0757 1.03
  137.0233 C7H5O3+ 1 137.0233 0.14
  138.055 C7H8NO2+ 1 138.055 0.18
  139.0265 C6H5NO3+ 1 139.0264 1.12
  139.039 C7H7O3+ 1 139.039 0
  139.0539 C11H7+ 1 139.0542 -2.06
  140.0619 C11H8+ 1 140.0621 -1.01
  140.0709 C7H10NO2+ 1 140.0706 1.75
  141.0699 C11H9+ 1 141.0699 -0.19
  142.0498 C6H8NO3+ 1 142.0499 -0.56
  142.0776 C11H10+ 1 142.0777 -0.5
  143.0493 C10H7O+ 1 143.0491 1.18
  143.0855 C11H11+ 1 143.0855 -0.26
  144.0571 C10H8O+ 1 144.057 0.79
  145.0648 C10H9O+ 1 145.0648 0.2
  147.0441 C9H7O2+ 1 147.0441 0.57
  147.0805 C10H11O+ 1 147.0804 0.26
  148.0521 C9H8O2+ 1 148.0519 1.41
  149.0234 C8H5O3+ 1 149.0233 0.67
  149.0598 C9H9O2+ 1 149.0597 0.63
  150.0549 C8H8NO2+ 1 150.055 -0.63
  151.0026 C7H3O4+ 1 151.0026 -0.03
  151.039 C8H7O3+ 1 151.039 0.26
  151.0541 C12H7+ 1 151.0542 -0.84
  152.0342 C7H6NO3+ 1 152.0342 -0.19
  152.062 C12H8+ 1 152.0621 -0.08
  152.0709 C8H10NO2+ 1 152.0706 1.87
  153.0181 C7H5O4+ 1 153.0182 -1.01
  153.0698 C12H9+ 1 153.0699 -0.37
  154.0498 C7H8NO3+ 1 154.0499 -0.32
  154.0777 C12H10+ 1 154.0777 0.18
  155.0604 C10H7N2+ 1 155.0604 0.03
  155.0855 C12H11+ 1 155.0855 -0.37
  156.0569 C11H8O+ 1 156.057 -0.68
  157.037 C6H7NO4+ 1 157.037 0.52
  157.0648 C11H9O+ 1 157.0648 0.25
  157.1014 C12H13+ 1 157.1012 1.23
  158.0727 C11H10O+ 1 158.0726 0.4
  159.044 C10H7O2+ 1 159.0441 -0.23
  159.0805 C11H11O+ 1 159.0804 0.24
  160.0519 C10H8O2+ 1 160.0519 -0.19
  161.0231 C9H5O3+ 1 161.0233 -1.18
  161.0599 C10H9O2+ 1 161.0597 1.02
  162.0548 C9H8NO2+ 1 162.055 -1.02
  163.0025 C8H3O4+ 1 163.0026 -0.77
  163.0389 C9H7O3+ 1 163.039 -0.56
  163.055 C13H7+ 1 163.0542 4.68
  163.0624 C9H9NO2+ 1 163.0628 -2.58
  164.0617 C13H8+ 1 164.0621 -2.14
  164.0706 C9H10NO2+ 1 164.0706 -0.27
  165.0183 C8H5O4+ 1 165.0182 0.58
  165.0699 C13H9+ 1 165.0699 0.38
  166.0499 C8H8NO3+ 1 166.0499 0.24
  166.0778 C13H10+ 1 166.0777 0.35
  167.0855 C13H11+ 1 167.0855 0.08
  168.057 C12H8O+ 1 168.057 0.2
  169.0649 C12H9O+ 1 169.0648 0.58
  169.0763 C11H9N2+ 1 169.076 1.75
  169.1013 C13H13+ 1 169.1012 0.91
  170.0728 C12H10O+ 1 170.0726 1.31
  171.0439 C11H7O2+ 1 171.0441 -0.97
  171.0804 C12H11O+ 1 171.0804 -0.07
  172.0521 C11H8O2+ 1 172.0519 1.16
  173.0236 C10H5O3+ 1 173.0233 1.67
  173.0598 C11H9O2+ 1 173.0597 0.43
  174.0676 C11H10O2+ 1 174.0675 0.34
  175.0754 C11H11O2+ 1 175.0754 0.31
  176.0622 C14H8+ 1 176.0621 1.07
  177.0699 C14H9+ 1 177.0699 0.02
  178.0778 C14H10+ 1 178.0777 0.44
  179.0855 C14H11+ 1 179.0855 -0.09
  180.0572 C13H8O+ 1 180.057 1.24
  180.0649 C9H10NO3+ 1 180.0655 -3.22
  181.0131 C8H5O5+ 1 181.0131 -0.44
  181.0648 C13H9O+ 1 181.0648 -0.23
  181.1014 C14H13+ 1 181.1012 1.34
  182.0728 C13H10O+ 1 182.0726 0.73
  182.0807 C9H12NO3+ 1 182.0812 -2.41
  183.0289 C8H7O5+ 1 183.0288 0.6
  183.0554 C11H7N2O+ 1 183.0553 0.39
  183.0805 C13H11O+ 1 183.0804 0.43
  184.0517 C12H8O2+ 1 184.0519 -0.82
  185.0598 C12H9O2+ 1 185.0597 0.29
  185.0711 C11H9N2O+ 1 185.0709 0.65
  185.0962 C13H13O+ 1 185.0961 0.37
  186.0311 C11H6O3+ 1 186.0311 -0.14
  186.0676 C12H10O2+ 1 186.0675 0.32
  187.0389 C11H7O3+ 1 187.039 -0.54
  187.0754 C12H11O2+ 1 187.0754 0.18
  189.0182 C10H5O4+ 1 189.0182 -0.19
  189.0549 C11H9O3+ 1 189.0546 1.48
  189.0699 C15H9+ 1 189.0699 0.02
  190.0776 C15H10+ 1 190.0777 -0.43
  191.0341 C10H7O4+ 1 191.0339 1.33
  191.0855 C15H11+ 1 191.0855 -0.19
  192.0569 C14H8O+ 1 192.057 -0.24
  193.0136 C9H5O5+ 1 193.0131 2.44
  193.065 C14H9O+ 1 193.0648 0.93
  193.0759 C13H9N2+ 1 193.076 -0.44
  193.1013 C15H13+ 1 193.1012 0.48
  194.0727 C14H10O+ 1 194.0726 0.17
  195.0805 C14H11O+ 1 195.0804 0.35
  196.052 C13H8O2+ 1 196.0519 0.35
  197.0598 C13H9O2+ 1 197.0597 0.27
  197.0961 C14H13O+ 1 197.0961 -0.06
  198.0675 C13H10O2+ 1 198.0675 0
  199.0385 C12H7O3+ 1 199.039 -2.16
  199.0754 C13H11O2+ 1 199.0754 0.02
  200.0464 C12H8O3+ 1 200.0468 -1.73
  201.0547 C12H9O3+ 1 201.0546 0.15
  202.0776 C16H10+ 1 202.0777 -0.55
  203.0708 C12H11O3+ 1 203.0703 2.66
  203.0857 C16H11+ 1 203.0855 1.1
  204.0571 C15H8O+ 1 204.057 0.66
  205.0498 C11H9O4+ 1 205.0495 1.24
  205.0649 C15H9O+ 1 205.0648 0.68
  206.0729 C15H10O+ 1 206.0726 1.23
  207.0806 C15H11O+ 1 207.0804 0.67
  208.0522 C14H8O2+ 1 208.0519 1.58
  208.0883 C15H12O+ 1 208.0883 0.31
  209.0597 C14H9O2+ 1 209.0597 -0.12
  209.0963 C15H13O+ 1 209.0961 0.85
  210.0676 C14H10O2+ 1 210.0675 0.42
  211.0391 C13H7O3+ 1 211.039 0.61
  211.0754 C14H11O2+ 1 211.0754 0.35
  212.0468 C13H8O3+ 1 212.0468 0.16
  212.0834 C14H12O2+ 1 212.0832 0.89
  213.0546 C13H9O3+ 1 213.0546 -0.33
  213.091 C14H13O2+ 1 213.091 0.21
  214.0626 C13H10O3+ 1 214.0624 0.86
  215.0701 C13H11O3+ 1 215.0703 -0.84
  217.0496 C12H9O4+ 1 217.0495 0.21
  217.065 C16H9O+ 1 217.0648 0.78
  218.0727 C16H10O+ 1 218.0726 0.29
  219.0289 C11H7O5+ 1 219.0288 0.23
  219.0651 C12H11O4+ 1 219.0652 -0.3
  219.0805 C16H11O+ 1 219.0804 0.4
  220.0522 C15H8O2+ 1 220.0519 1.36
  221.0599 C15H9O2+ 1 221.0597 0.65
  221.0956 C16H13O+ 1 221.0961 -2.04
  222.0675 C15H10O2+ 1 222.0675 -0.23
  223.0755 C15H11O2+ 1 223.0754 0.56
  224.0469 C14H8O3+ 1 224.0468 0.42
  224.0829 C15H12O2+ 1 224.0832 -1.21
  225.0546 C14H9O3+ 1 225.0546 0.04
  225.0911 C15H13O2+ 1 225.091 0.37
  226.0625 C14H10O3+ 1 226.0624 0.24
  227.0704 C14H11O3+ 1 227.0703 0.44
  229.0501 C13H9O4+ 1 229.0495 2.29
  229.0654 C17H9O+ 1 229.0648 2.57
  229.0759 C16H9N2+ 1 229.076 -0.68
  229.0858 C14H13O3+ 1 229.0859 -0.31
  231.0654 C13H11O4+ 1 231.0652 0.97
  231.0806 C17H11O+ 1 231.0804 0.9
  232.0519 C16H8O2+ 1 232.0519 0.25
  233.06 C16H9O2+ 1 233.0597 1.13
  234.0677 C16H10O2+ 1 234.0675 0.94
  234.0909 C16H12NO+ 1 234.0913 -1.71
  235.0753 C16H11O2+ 1 235.0754 -0.03
  236.0468 C15H8O3+ 1 236.0468 -0.02
  236.0829 C16H12O2+ 1 236.0832 -1.28
  237.0546 C15H9O3+ 1 237.0546 -0.04
  237.091 C16H13O2+ 1 237.091 -0.19
  238.0625 C15H10O3+ 1 238.0624 0.06
  239.0703 C15H11O3+ 1 239.0703 0.12
  240.0418 C14H8O4+ 1 240.0417 0.21
  240.0781 C15H12O3+ 1 240.0781 0.23
  241.086 C15H13O3+ 1 241.0859 0.25
  242.0573 C14H10O4+ 1 242.0574 -0.08
  243.0654 C14H11O4+ 1 243.0652 0.88
  243.1016 C15H15O3+ 1 243.1016 0
  245.0601 C17H9O2+ 1 245.0597 1.73
  246.068 C17H10O2+ 1 246.0675 2.11
  247.0753 C17H11O2+ 1 247.0754 -0.02
  248.0468 C16H8O3+ 1 248.0468 0.02
  248.0825 C17H12O2+ 1 248.0832 -2.79
  249.0546 C16H9O3+ 1 249.0546 -0.2
  249.0907 C17H13O2+ 1 249.091 -1.19
  250.0625 C16H10O3+ 1 250.0624 0.26
  251.0704 C16H11O3+ 1 251.0703 0.36
  252.0418 C15H8O4+ 1 252.0417 0.28
  253.049 C15H9O4+ 1 253.0495 -2
  253.0858 C16H13O3+ 1 253.0859 -0.52
  254.0573 C15H10O4+ 1 254.0574 -0.24
  255.065 C15H11O4+ 1 255.0652 -0.61
  257.0595 C18H9O2+ 1 257.0597 -0.88
  257.0807 C15H13O4+ 1 257.0808 -0.68
  259.0752 C18H11O2+ 1 259.0754 -0.72
  260.0467 C17H8O3+ 1 260.0468 -0.25
  261.0542 C17H9O3+ 1 261.0546 -1.69
  262.0622 C17H10O3+ 1 262.0624 -1.01
  262.0861 C17H12NO2+ 1 262.0863 -0.71
  263.0705 C17H11O3+ 1 263.0703 0.8
  263.0933 C17H13NO2+ 1 263.0941 -3.04
  264.042 C16H8O4+ 1 264.0417 1.14
  264.0779 C17H12O3+ 1 264.0781 -0.63
  265.0493 C16H9O4+ 1 265.0495 -0.96
  265.086 C17H13O3+ 1 265.0859 0.37
  266.0577 C16H10O4+ 1 266.0574 1.16
  267.0652 C16H11O4+ 1 267.0652 0.09
  268.0365 C15H8O5+ 1 268.0366 -0.47
  268.0732 C16H12O4+ 1 268.073 0.75
  269.0811 C16H13O4+ 1 269.0808 1.06
  270.0524 C15H10O5+ 1 270.0523 0.61
  271.0602 C15H11O5+ 1 271.0601 0.44
  273.0537 C18H9O3+ 1 273.0546 -3.3
  275.0704 C18H11O3+ 1 275.0703 0.54
  276.0417 C17H8O4+ 1 276.0417 0
  277.0496 C17H9O4+ 1 277.0495 0.41
  277.0858 C18H13O3+ 1 277.0859 -0.51
  278.0575 C17H10O4+ 1 278.0574 0.36
  279.0652 C17H11O4+ 1 279.0652 0.09
  279.0886 C17H13NO3+ 1 279.089 -1.24
  280.0725 C17H12O4+ 1 280.073 -1.79
  280.097 C17H14NO3+ 1 280.0968 0.72
  281.0807 C17H13O4+ 1 281.0808 -0.52
  281.1044 C17H15NO3+ 1 281.1046 -0.76
  282.0519 C16H10O5+ 1 282.0523 -1.51
  283.0612 C16H11O5+ 1 283.0601 3.89
  284.0679 C16H12O5+ 1 284.0679 -0.26
  285.0757 C16H13O5+ 1 285.0757 -0.07
  288.0651 C18H10NO3+ 1 288.0655 -1.53
  289.0509 C18H9O4+ 2 289.0495 4.79
  290.0565 C18H10O4+ 1 290.0574 -2.93
  291.0652 C18H11O4+ 1 291.0652 0.09
  292.0725 C18H12O4+ 1 292.073 -1.61
  292.0965 C18H14NO3+ 1 292.0968 -1.03
  293.0808 C18H13O4+ 1 293.0808 -0.19
  294.052 C17H10O5+ 1 294.0523 -1.04
  294.112 C18H16NO3+ 1 294.1125 -1.6
  295.0597 C17H11O5+ 1 295.0601 -1.36
  298.1078 C17H16NO4+ 1 298.1074 1.29
  303.065 C19H11O4+ 1 303.0652 -0.55
  304.0366 C18H8O5+ 1 304.0366 -0.05
  305.0436 C18H9O5+ 1 305.0444 -2.88
  306.0523 C18H10O5+ 1 306.0523 0.18
  308.0682 C18H12O5+ 1 308.0679 0.73
  319.0604 C19H11O5+ 1 319.0601 0.91
  321.0754 C19H13O5+ 1 321.0757 -1.06
  321.0999 C19H15NO4+ 1 321.0996 1.09
  322.047 C18H10O6+ 1 322.0472 -0.59
  334.0471 C19H10O6+ 1 334.0472 -0.24
PK$NUM_PEAK: 341
PK$PEAK: m/z int. rel.int.
  50.0151 7702.9 2
  51.0229 10727.7 2
  53.0022 33505.2 8
  53.0386 51430.6 13
  54.0339 6815.9 1
  55.0179 407978.3 105
  55.0417 21024.1 5
  56.0495 255701.9 66
  57.0336 7678.6 1
  57.0574 25444.4 6
  58.0651 1614360.4 419
  63.0228 8306.5 2
  65.0385 61122.9 15
  67.0178 78857.3 20
  67.0542 12473.6 3
  68.0495 153613.9 39
  68.9971 271109.5 70
  69.0335 70060.3 18
  70.0651 718164 186
  71.0365 30989.6 8
  71.0728 7371.4 1
  72.0444 276143.1 71
  72.0808 71189.2 18
  74.06 55000.9 14
  75.0228 6236.8 1
  77.0384 10412.4 2
  79.0178 73113.2 18
  79.0542 12647.5 3
  80.0494 62891.2 16
  81.0335 105748.3 27
  81.0571 9657 2
  82.0651 153256.8 39
  83.0127 316711.4 82
  83.0366 38975 10
  84.0444 272204.7 70
  84.0808 119994.3 31
  85.0284 36710.2 9
  86.06 100565.8 26
  89.0386 9170.1 2
  91.0543 173069.5 44
  93.0336 27599.4 7
  93.0576 6449.9 1
  93.0699 13991.2 3
  94.0652 73084.8 18
  95.0127 209021 54
  95.0491 14508.7 3
  96.0444 48867.8 12
  96.0808 32540.4 8
  97.0284 72419.3 18
  97.0524 30744.7 7
  98.0601 3847441.2 999
  99.0076 60212.7 15
  100.0757 130374.8 33
  103.0542 120825.2 31
  105.0336 28380.2 7
  105.0447 11146.2 2
  105.07 60055.2 15
  106.0651 27572.1 7
  107.0127 102746 26
  107.0491 105082.4 27
  108.0444 32805.1 8
  108.0807 42148.9 10
  109.0285 158752.1 41
  110.06 54287.7 14
  111.0076 116653.5 30
  111.0441 31563.2 8
  112.0757 40162.8 10
  114.0551 8953.5 2
  115.0542 325229.7 84
  116.062 30727.4 7
  117.0699 424148.3 110
  118.0651 8802.9 2
  119.0128 28112.4 7
  119.0492 75852.2 19
  119.0855 62091.7 16
  121.0284 229375.4 59
  121.0648 128789.1 33
  122.0601 25548.4 6
  123.0077 101912.9 26
  123.044 29250.8 7
  124.0156 12111.1 3
  124.0394 117299.6 30
  124.0758 29618.6 7
  125.0235 38549.4 10
  125.0469 6947.4 1
  126.0549 175658 45
  127.0027 24741.2 6
  127.0543 226346.4 58
  128.062 125200.7 32
  128.0708 8812.2 2
  129.0699 257880.3 66
  131.0492 196109.4 50
  131.0855 121729.9 31
  132.057 42875.8 11
  133.0285 12076.4 3
  133.0648 52701.2 13
  134.0599 32268.2 8
  135.0076 37476.4 9
  135.0442 9974.7 2
  136.0758 51649.3 13
  137.0233 262928.9 68
  138.055 13447.6 3
  139.0265 56957.2 14
  139.039 52574.1 13
  139.0539 25390.5 6
  140.0619 10334.6 2
  140.0709 23583.4 6
  141.0699 194966.2 50
  142.0498 7301.9 1
  142.0776 52052.3 13
  143.0493 13794.8 3
  143.0855 81555.1 21
  144.0571 165983.5 43
  145.0648 1862100.5 483
  147.0441 92331.9 23
  147.0805 308712.2 80
  148.0521 5420.4 1
  149.0234 56758.2 14
  149.0598 47283.2 12
  150.0549 14416.2 3
  151.0026 6791.7 1
  151.039 29276.9 7
  151.0541 7035.6 1
  152.0342 35018.8 9
  152.062 219152.9 56
  152.0709 12831.6 3
  153.0181 66984.8 17
  153.0698 139204 36
  154.0498 104059.7 27
  154.0777 29818.4 7
  155.0604 483926.6 125
  155.0855 166975.2 43
  156.0569 62222 16
  157.037 28050.1 7
  157.0648 356962.8 92
  157.1014 37282.5 9
  158.0727 37033.1 9
  159.044 51891.6 13
  159.0805 291209.2 75
  160.0519 224780.5 58
  161.0231 54100.3 14
  161.0599 68643 17
  162.0548 10332.8 2
  163.0025 25803.3 6
  163.0389 39945.5 10
  163.055 6510.4 1
  163.0624 13842.5 3
  164.0617 11057.8 2
  164.0706 38626.5 10
  165.0183 240646.9 62
  165.0699 546733.9 141
  166.0499 57881.5 15
  166.0778 106156.7 27
  167.0855 399424.5 103
  168.057 496254 128
  169.0649 178856.8 46
  169.0763 41496.1 10
  169.1013 27929.4 7
  170.0728 81416.2 21
  171.0439 29846.9 7
  171.0804 451072.8 117
  172.0521 38454.2 9
  173.0236 38120.2 9
  173.0598 323019.8 83
  174.0676 259103.3 67
  175.0754 373099.9 96
  176.0622 62471.2 16
  177.0699 196781.8 51
  178.0778 241651.6 62
  179.0855 319256 82
  180.0572 92089.6 23
  180.0649 14105.5 3
  181.0131 31761.1 8
  181.0648 254481.2 66
  181.1014 30185.6 7
  182.0728 180635.6 46
  182.0807 21450.8 5
  183.0289 30853.6 8
  183.0554 39706.9 10
  183.0805 385106 99
  184.0517 101857.6 26
  185.0598 122092.9 31
  185.0711 32958.4 8
  185.0962 242051.9 62
  186.0311 43346.9 11
  186.0676 31796.4 8
  187.0389 62858.6 16
  187.0754 728154.7 189
  189.0182 23442.1 6
  189.0549 12236 3
  189.0699 135917.4 35
  190.0776 102571 26
  191.0341 36578.6 9
  191.0855 203607.9 52
  192.0569 33376.5 8
  193.0136 24374.9 6
  193.065 179682 46
  193.0759 26481.2 6
  193.1013 23484.7 6
  194.0727 252337.6 65
  195.0805 976760.5 253
  196.052 587598.1 152
  197.0598 238453 61
  197.0961 124216.3 32
  198.0675 469974 122
  199.0385 25217.5 6
  199.0754 363377.6 94
  200.0464 47334.2 12
  201.0547 2389452.8 620
  202.0776 61911.3 16
  203.0708 20569.6 5
  203.0857 38997.1 10
  204.0571 32543.7 8
  205.0498 24511.8 6
  205.0649 130758.9 33
  206.0729 68162.9 17
  207.0806 277107.6 71
  208.0522 94207.1 24
  208.0883 12184.4 3
  209.0597 77491.5 20
  209.0963 142266.7 36
  210.0676 343562.2 89
  211.0391 202254 52
  211.0754 1589285.5 412
  212.0468 80082.4 20
  212.0834 61094.8 15
  213.0546 152845.7 39
  213.091 299962.1 77
  214.0626 12517.2 3
  215.0701 32152.1 8
  217.0496 9232.3 2
  217.065 53843.6 13
  218.0727 70432.4 18
  219.0289 44435.9 11
  219.0651 35138.7 9
  219.0805 305781.2 79
  220.0522 68953.3 17
  221.0599 382238.1 99
  221.0956 44839.1 11
  222.0675 259419 67
  223.0755 561882.4 145
  224.0469 933485.9 242
  224.0829 60204.3 15
  225.0546 107172.3 27
  225.0911 245117.1 63
  226.0625 1353622.6 351
  227.0704 230594.3 59
  229.0501 24798.9 6
  229.0654 9176.9 2
  229.0759 12626.9 3
  229.0858 11637.5 3
  231.0654 8100.1 2
  231.0806 36342.8 9
  232.0519 38165.5 9
  233.06 78857.4 20
  234.0677 146032.4 37
  234.0909 12588.7 3
  235.0753 376248.3 97
  236.0468 75322.7 19
  236.0829 33055.4 8
  237.0546 122297.9 31
  237.091 202217.1 52
  238.0625 429675.4 111
  239.0703 816547.5 212
  240.0418 53827.6 13
  240.0781 129617.9 33
  241.086 580232.4 150
  242.0573 294763.6 76
  243.0654 10232.5 2
  243.1016 33149.7 8
  245.0601 37432.2 9
  246.068 13998.9 3
  247.0753 258553.1 67
  248.0468 46284.2 12
  248.0825 24681.9 6
  249.0546 148985.6 38
  249.0907 46789.5 12
  250.0625 726566.3 188
  251.0704 313347.2 81
  252.0418 2378504.2 617
  253.049 15131.1 3
  253.0858 165906.2 43
  254.0573 169730.1 44
  255.065 48182 12
  257.0595 7100.1 1
  257.0807 33563.4 8
  259.0752 47435 12
  260.0467 24458.8 6
  261.0542 26757.5 6
  262.0622 86368.1 22
  262.0861 22845.2 5
  263.0705 209307.4 54
  263.0933 13901.4 3
  264.042 28733.2 7
  264.0779 49320.9 12
  265.0493 34149.1 8
  265.086 160489.3 41
  266.0577 83675.1 21
  267.0652 743697.5 193
  268.0365 39519.7 10
  268.0732 11535.3 2
  269.0811 94355.8 24
  270.0524 158357.4 41
  271.0602 13930.2 3
  273.0537 13071.7 3
  275.0704 153389 39
  276.0417 67970 17
  277.0496 34230.2 8
  277.0858 42414.2 11
  278.0575 442979.4 115
  279.0652 85869.5 22
  279.0886 14497.8 3
  280.0725 12953.9 3
  280.097 27085.5 7
  281.0807 14076.1 3
  281.1044 48968.7 12
  282.0519 8214.7 2
  283.0612 7985.8 2
  284.0679 9435.5 2
  285.0757 140225.7 36
  288.0651 6916.6 1
  289.0509 7027.8 1
  290.0565 13836.1 3
  291.0652 94445.8 24
  292.0725 14693.7 3
  292.0965 12231.9 3
  293.0808 182857.8 47
  294.052 47020.7 12
  294.112 8946.3 2
  295.0597 10633.1 2
  298.1078 8211.9 2
  303.065 65814.5 17
  304.0366 23832.6 6
  305.0436 13212.3 3
  306.0523 300799 78
  308.0682 7355.4 1
  319.0604 26084 6
  321.0754 34102.4 8
  321.0999 13511.5 3
  322.047 23545.7 6
  334.0471 202032.3 52
//
