ACCESSION: MSBNK-Eawag-EA066306
RECORD_TITLE: Flufenacet ESA; LC-ESI-ITFT; MS2; CE: 75%; R=7500; [M+H]+
DATE: 2014.01.14
AUTHORS: Stravs M, Schymanski E, Singer H, Department of Environmental Chemistry, Eawag
LICENSE: CC BY
COPYRIGHT: Copyright (C) 2012 Eawag, Duebendorf, Switzerland
COMMENT: CONFIDENCE standard compound
COMMENT: EAWAG_UCHEM_ID 663
CH$NAME: Flufenacet ESA
CH$NAME: 2-[(4-Fluorophenyl)(isopropyl)amino]-2-oxoethanesulfonic acid
CH$COMPOUND_CLASS: N/A; Environmental Standard
CH$FORMULA: C11H14FNO4S
CH$EXACT_MASS: 275.0628
CH$SMILES: Fc1ccc(cc1)N(C(C)C)C(=O)CS(O)(=O)=O
CH$IUPAC: InChI=1S/C11H14FNO4S/c1-8(2)13(11(14)7-18(15,16)17)10-5-3-9(12)4-6-10/h3-6,8H,7H2,1-2H3,(H,15,16,17)
CH$LINK: PUBCHEM CID:16212225
CH$LINK: INCHIKEY SZCMHDLOUVZYST-UHFFFAOYSA-N
CH$LINK: CHEMSPIDER 17340103
CH$LINK: COMPTOX DTXSID60891451
AC$INSTRUMENT: LTQ Orbitrap XL Thermo Scientific
AC$INSTRUMENT_TYPE: LC-ESI-ITFT
AC$MASS_SPECTROMETRY: MS_TYPE MS2
AC$MASS_SPECTROMETRY: ION_MODE POSITIVE
AC$MASS_SPECTROMETRY: IONIZATION ESI
AC$MASS_SPECTROMETRY: FRAGMENTATION_MODE HCD
AC$MASS_SPECTROMETRY: COLLISION_ENERGY 75 % (nominal)
AC$MASS_SPECTROMETRY: RESOLUTION 7500
AC$CHROMATOGRAPHY: COLUMN_NAME XBridge C18 3.5um, 2.1x50mm, Waters
AC$CHROMATOGRAPHY: FLOW_GRADIENT 90/10 at 0 min, 50/50 at 4 min, 5/95 at 17 min, 5/95 at 25 min, 90/10 at 25.1 min, 90/10 at 30 min
AC$CHROMATOGRAPHY: FLOW_RATE 200 ul/min
AC$CHROMATOGRAPHY: RETENTION_TIME 6.0 min
AC$CHROMATOGRAPHY: SOLVENT A water with 0.1% formic acid
AC$CHROMATOGRAPHY: SOLVENT B methanol with 0.1% formic acid
MS$FOCUSED_ION: BASE_PEAK 276.0707
MS$FOCUSED_ION: PRECURSOR_M/Z 276.07
MS$FOCUSED_ION: PRECURSOR_TYPE [M+H]+
MS$DATA_PROCESSING: DEPROFILE Spline
MS$DATA_PROCESSING: RECALIBRATE loess on assigned fragments and MS1
MS$DATA_PROCESSING: REANALYZE Peaks with additional N2/O included
MS$DATA_PROCESSING: WHOLE RMassBank 1.3.1
PK$SPLASH: splash10-03di-0900000000-745cd9d3e65b644c930a
PK$ANNOTATION: m/z tentative_formula formula_count mass error(ppm)
  92.0496 C6H6N+ 1 92.0495 1.79
  97.0452 C6H6F+ 1 97.0448 4.28
  109.0452 C7H6F+ 1 109.0448 3.26
  112.0558 C6H7FN+ 2 112.0557 0.77
  123.035 C3H9NO2S+ 1 123.0349 1.54
  124.0557 C7H7FN+ 2 124.0557 0.29
  135.048 C8H6FN+ 2 135.0479 1.05
  152.0507 C8H7FNO+ 2 152.0506 0.8
  216.012 C8H7FNO3S+ 2 216.0125 -2.54
PK$NUM_PEAK: 9
PK$PEAK: m/z int. rel.int.
  92.0496 6951.6 39
  97.0452 6428.1 36
  109.0452 17182.2 97
  112.0558 175471.3 999
  123.035 4653.8 26
  124.0557 63813.8 363
  135.048 59939.1 341
  152.0507 5764.2 32
  216.012 3422.7 19
//
