ACCESSION: MSBNK-Eawag-EA023402
RECORD_TITLE: Sulfapyridine; LC-ESI-ITFT; MS2; CE: 15%; R=7500; [M+H]+
DATE: 2014.01.14
AUTHORS: Stravs M, Schymanski E, Singer H, Department of Environmental Chemistry, Eawag
LICENSE: CC BY
COPYRIGHT: Copyright (C) 2012 Eawag, Duebendorf, Switzerland
COMMENT: CONFIDENCE standard compound
COMMENT: EAWAG_UCHEM_ID 234
CH$NAME: Sulfapyridine
CH$NAME: 2-Sulfapyridine
CH$NAME: 4-amino-N-(2-pyridinyl)benzenesulfonamide
CH$COMPOUND_CLASS: N/A; Environmental Standard
CH$FORMULA: C11H11N3O2S
CH$EXACT_MASS: 249.0572
CH$SMILES: c1(S(Nc2ccccn2)(=O)=O)ccc(N)cc1
CH$IUPAC: InChI=1S/C11H11N3O2S/c12-9-4-6-10(7-5-9)17(15,16)14-11-3-1-2-8-13-11/h1-8H,12H2,(H,13,14)
CH$LINK: CAS 144-83-2
CH$LINK: KEGG D02434
CH$LINK: PUBCHEM CID:5336
CH$LINK: INCHIKEY GECHUMIMRBOMGK-UHFFFAOYSA-N
CH$LINK: CHEMSPIDER 5145
CH$LINK: COMPTOX DTXSID3026067
AC$INSTRUMENT: LTQ Orbitrap XL Thermo Scientific
AC$INSTRUMENT_TYPE: LC-ESI-ITFT
AC$MASS_SPECTROMETRY: MS_TYPE MS2
AC$MASS_SPECTROMETRY: ION_MODE POSITIVE
AC$MASS_SPECTROMETRY: IONIZATION ESI
AC$MASS_SPECTROMETRY: FRAGMENTATION_MODE HCD
AC$MASS_SPECTROMETRY: COLLISION_ENERGY 15 % (nominal)
AC$MASS_SPECTROMETRY: RESOLUTION 7500
AC$CHROMATOGRAPHY: COLUMN_NAME XBridge C18 3.5um, 2.1x50mm, Waters
AC$CHROMATOGRAPHY: FLOW_GRADIENT 90/10 at 0 min, 50/50 at 4 min, 5/95 at 17 min, 5/95 at 25 min, 90/10 at 25.1 min, 90/10 at 30 min
AC$CHROMATOGRAPHY: FLOW_RATE 200 ul/min
AC$CHROMATOGRAPHY: RETENTION_TIME 2.9 min
AC$CHROMATOGRAPHY: SOLVENT A water with 0.1% formic acid
AC$CHROMATOGRAPHY: SOLVENT B methanol with 0.1% formic acid
MS$FOCUSED_ION: BASE_PEAK 250.0651
MS$FOCUSED_ION: PRECURSOR_M/Z 250.0645
MS$FOCUSED_ION: PRECURSOR_TYPE [M+H]+
MS$DATA_PROCESSING: DEPROFILE Spline
MS$DATA_PROCESSING: RECALIBRATE loess on assigned fragments and MS1
MS$DATA_PROCESSING: REANALYZE Peaks with additional N2/O included
MS$DATA_PROCESSING: WHOLE RMassBank 1.3.1
PK$SPLASH: splash10-0udi-0090000000-b794dcd70eedfd04a9e8
PK$ANNOTATION: m/z tentative_formula formula_count mass error(ppm)
  92.0491 C6H6N+ 1 92.0495 -4.3
  95.0602 C5H7N2+ 1 95.0604 -2.15
  156.0112 C6H6NO2S+ 1 156.0114 -1.32
  184.0864 C11H10N3+ 1 184.0869 -2.85
  250.0646 C11H12N3O2S+ 1 250.0645 0.58
PK$NUM_PEAK: 5
PK$PEAK: m/z int. rel.int.
  92.0491 14547 4
  95.0602 4900.6 1
  156.0112 64219.4 20
  184.0864 18638.9 5
  250.0646 3164138.7 999
//
