ACCESSION: MSBNK-Eawag-EQ01145452
RECORD_TITLE: NFDHA; LC-ESI-QFT; MS2; CE: 30%; R=17500; [M-H]-
DATE: 2024.05.15
AUTHORS: B. Beck [dtc,com], J. Hollender [dtc]
LICENSE: CC BY-SA
COPYRIGHT: Copyright (C) Eawag 2023
COMMENT: CONFIDENCE standard compound
COMMENT: UCHEM_ID 11454
CH$NAME: NFDHA
CH$NAME: Perfluoro-3,6-dioxaheptanoic acid
CH$NAME: 2,2-difluoro-2-[1,1,2,2-tetrafluoro-2-(trifluoromethoxy)ethoxy]acetic acid
CH$COMPOUND_CLASS: N/A; Environmental Standard
CH$FORMULA: C5HF9O4
CH$EXACT_MASS: 295.973112492
CH$SMILES: C(=O)(C(OC(C(OC(F)(F)F)(F)F)(F)F)(F)F)O
CH$IUPAC: InChI=1S/C5HF9O4/c6-2(7,1(15)16)17-3(8,9)4(10,11)18-5(12,13)14/h(H,15,16)
CH$LINK: PUBCHEM CID:2782393
CH$LINK: INCHIKEY PPWRLPJIHGWGFH-UHFFFAOYSA-N
CH$LINK: CHEMSPIDER 2062549
AC$INSTRUMENT: Exploris 240 Orbitrap Thermo Scientific
AC$INSTRUMENT_TYPE: LC-ESI-QFT
AC$MASS_SPECTROMETRY: MS_TYPE MS2
AC$MASS_SPECTROMETRY: ION_MODE NEGATIVE
AC$MASS_SPECTROMETRY: IONIZATION ESI
AC$MASS_SPECTROMETRY: FRAGMENTATION_MODE HCD
AC$MASS_SPECTROMETRY: COLLISION_ENERGY 30 % (nominal)
AC$MASS_SPECTROMETRY: RESOLUTION 17500
AC$MASS_SPECTROMETRY: MASS_RANGE_M/Z 50-322
AC$CHROMATOGRAPHY: COLUMN_NAME XBridge C18 3.5um, 2.1x50mm, Waters
AC$CHROMATOGRAPHY: FLOW_GRADIENT 90/10 at 0 min, 50/50 at 4 min, 5/95 at 17 min, 5/95 at 25 min, 90/10 at 25.1 min, 90/10 at 30 min
AC$CHROMATOGRAPHY: FLOW_RATE 200 uL/min
AC$CHROMATOGRAPHY: RETENTION_TIME 6.607 min
MS$FOCUSED_ION: BASE_PEAK 200.9793
MS$FOCUSED_ION: PRECURSOR_M/Z 294.9658
MS$FOCUSED_ION: PRECURSOR_TYPE [M-H]-
MS$DATA_PROCESSING: RECALIBRATE loess on assigned fragments and MS1
MS$DATA_PROCESSING: REANALYZE Peaks with additional N2/O included
MS$DATA_PROCESSING: WHOLE RMassBank 3.15.1.1
PK$SPLASH: splash10-0ue9-7090000000-61b81a83e33953492a5f
PK$ANNOTATION: m/z tentative_formula formula_count mass error(ppm)
  84.9907 CF3O- 1 84.9907 -0.17
  200.9791 C3F7O2- 1 200.9792 -0.64
PK$NUM_PEAK: 2
PK$PEAK: m/z int. rel.int.
  84.9907 35443.7 831
  200.9791 42601 999
//
