ACCESSION: MSBNK-Eawag-EA028506
RECORD_TITLE: Isoproturon-didemethyl; LC-ESI-ITFT; MS2; CE: 75%; R=7500; [M+H]+
DATE: 2014.01.14
AUTHORS: Stravs M, Schymanski E, Singer H, Department of Environmental Chemistry, Eawag
LICENSE: CC BY
COPYRIGHT: Copyright (C) 2012 Eawag, Duebendorf, Switzerland
COMMENT: CONFIDENCE standard compound
COMMENT: EAWAG_UCHEM_ID 285
CH$NAME: Isoproturon-didemethyl
CH$NAME: [4-(propan-2-yl)phenyl]urea
CH$NAME: 1-(4-Isopropylphenyl)urea
CH$COMPOUND_CLASS: N/A; Environmental Standard
CH$FORMULA: C10H14N2O
CH$EXACT_MASS: 178.1106
CH$SMILES: N(C(=O)N)c1ccc(cc1)C(C)C
CH$IUPAC: InChI=1S/C10H14N2O/c1-7(2)8-3-5-9(6-4-8)12-10(11)13/h3-7H,1-2H3,(H3,11,12,13)
CH$LINK: CAS 56046-17-4
CH$LINK: PUBCHEM CID:185831
CH$LINK: INCHIKEY ABBKOIZWGCVCKE-UHFFFAOYSA-N
CH$LINK: CHEMSPIDER 161537
CH$LINK: COMPTOX DTXSID10204592
AC$INSTRUMENT: LTQ Orbitrap XL Thermo Scientific
AC$INSTRUMENT_TYPE: LC-ESI-ITFT
AC$MASS_SPECTROMETRY: MS_TYPE MS2
AC$MASS_SPECTROMETRY: ION_MODE POSITIVE
AC$MASS_SPECTROMETRY: IONIZATION ESI
AC$MASS_SPECTROMETRY: FRAGMENTATION_MODE HCD
AC$MASS_SPECTROMETRY: COLLISION_ENERGY 75 % (nominal)
AC$MASS_SPECTROMETRY: RESOLUTION 7500
AC$CHROMATOGRAPHY: COLUMN_NAME XBridge C18 3.5um, 2.1x50mm, Waters
AC$CHROMATOGRAPHY: FLOW_GRADIENT 90/10 at 0 min, 50/50 at 4 min, 5/95 at 17 min, 5/95 at 25 min, 90/10 at 25.1 min, 90/10 at 30 min
AC$CHROMATOGRAPHY: FLOW_RATE 200 ul/min
AC$CHROMATOGRAPHY: RETENTION_TIME 8.0 min
AC$CHROMATOGRAPHY: SOLVENT A water with 0.1% formic acid
AC$CHROMATOGRAPHY: SOLVENT B methanol with 0.1% formic acid
MS$FOCUSED_ION: BASE_PEAK 179.1183
MS$FOCUSED_ION: PRECURSOR_M/Z 179.1179
MS$FOCUSED_ION: PRECURSOR_TYPE [M+H]+
MS$DATA_PROCESSING: DEPROFILE Spline
MS$DATA_PROCESSING: RECALIBRATE loess on assigned fragments and MS1
MS$DATA_PROCESSING: REANALYZE Peaks with additional N2/O included
MS$DATA_PROCESSING: WHOLE RMassBank 1.3.1
PK$SPLASH: splash10-0006-9300000000-b04ba5a3fac93aa695d4
PK$ANNOTATION: m/z tentative_formula formula_count mass error(ppm)
  65.0384 C5H5+ 1 65.0386 -2.56
  77.0386 C6H5+ 1 77.0386 0.82
  91.0542 C7H7+ 1 91.0542 0.15
  92.0495 C6H6N+ 1 92.0495 0.59
  94.0652 C6H8N+ 1 94.0651 0.9
  107.0855 C8H11+ 1 107.0855 0.12
  117.07 C9H9+ 1 117.0699 0.71
  119.0733 C8H9N+ 1 119.073 2.6
  120.0445 C7H6NO+ 1 120.0444 0.58
  134.0964 C9H12N+ 1 134.0964 -0.04
  136.1123 C9H14N+ 1 136.1121 1.57
  137.071 C7H9N2O+ 1 137.0709 0.59
  147.0918 C9H11N2+ 1 147.0917 0.92
  179.1185 C10H15N2O+ 1 179.1179 3.35
PK$NUM_PEAK: 14
PK$PEAK: m/z int. rel.int.
  65.0384 12301.4 5
  77.0386 110323.6 48
  91.0542 93265.4 40
  92.0495 181935.6 79
  94.0652 2285574.7 999
  107.0855 27106 11
  117.07 24233.6 10
  119.0733 16046.6 7
  120.0445 200952.8 87
  134.0964 130025 56
  136.1123 103414 45
  137.071 509526.8 222
  147.0918 34388.4 15
  179.1185 26115 11
//
