ACCESSION: MSBNK-Eawag-EQ01075101
RECORD_TITLE: Acetyl-Tributyl-Citrate; LC-ESI-QFT; MS2; CE: 15%; R=15000; [M+H]+
DATE: 2024.06.14
AUTHORS: B. Beck [dtc], C. Meyer [dtc], Q. Fu [dtc], J. Hollender [dtc], A. Dax [com]
LICENSE: CC BY-SA
COPYRIGHT: Copyright (C) Eawag 2024
COMMENT: CONFIDENCE standard compound
COMMENT: UCHEM_ID 10751
CH$NAME: Acetyl-Tributyl-Citrate
CH$NAME: tributyl 2-acetyloxypropane-1,2,3-tricarboxylate
CH$COMPOUND_CLASS: N/A
CH$FORMULA: C20H34O8
CH$EXACT_MASS: 402.225368
CH$SMILES: CCCCOC(=O)CC(CC(=O)OCCCC)(C(=O)OCCCC)OC(=O)C
CH$IUPAC: InChI=1S/C20H34O8/c1-5-8-11-25-17(22)14-20(28-16(4)21,19(24)27-13-10-7-3)15-18(23)26-12-9-6-2/h5-15H2,1-4H3
CH$LINK: CAS 77-90-7
CH$LINK: CHEBI CHEBI:168067
CH$LINK: PUBCHEM CID:6505
CH$LINK: INCHIKEY QZCLKYGREBVARF-UHFFFAOYSA-N
CH$LINK: CHEMSPIDER 6259
AC$INSTRUMENT: Exploris 240 Thermo Scientific
AC$INSTRUMENT_TYPE: LC-ESI-QFT
AC$MASS_SPECTROMETRY: MS_TYPE MS2
AC$MASS_SPECTROMETRY: ION_MODE POSITIVE
AC$MASS_SPECTROMETRY: IONIZATION ESI
AC$MASS_SPECTROMETRY: FRAGMENTATION_MODE HCD
AC$MASS_SPECTROMETRY: COLLISION_ENERGY 15 % (nominal)
AC$MASS_SPECTROMETRY: RESOLUTION 15000
AC$MASS_SPECTROMETRY: MASS_RANGE_M/Z 50-432
AC$CHROMATOGRAPHY: COLUMN_NAME XBridge C18 3.5um, 2.1x50mm, Waters
AC$CHROMATOGRAPHY: FLOW_GRADIENT 90/10 at 0 min, 50/50 at 4 min, 5/95 at 17 min, 5/95 at 25 min, 90/10 at 25.1 min, 90/10 at 30 min
AC$CHROMATOGRAPHY: FLOW_RATE 200 uL/min
AC$CHROMATOGRAPHY: RETENTION_TIME 13.909 min
MS$FOCUSED_ION: BASE_PEAK 403.2323
MS$FOCUSED_ION: PRECURSOR_M/Z 403.2326
MS$FOCUSED_ION: PRECURSOR_TYPE [M+H]+
MS$DATA_PROCESSING: RECALIBRATE loess on assigned fragments and MS1
MS$DATA_PROCESSING: REANALYZE Peaks with additional N2/O included
MS$DATA_PROCESSING: WHOLE RMassBank 3.15.1.1
PK$SPLASH: splash10-0a4i-0390000000-f965cd7a53e498e2511f
PK$ANNOTATION: m/z tentative_formula formula_count mass error(ppm)
  129.0182 C5H5O4+ 1 129.0182 -0.46
  139.003 C6H3O4+ 1 139.0026 3.04
  157.013 C6H5O5+ 1 157.0131 -0.76
  185.0808 C9H13O4+ 1 185.0808 -0.43
  202.0775 C16H10+ 1 202.0777 -0.84
  213.0757 C10H13O5+ 1 213.0757 -0.2
  217.0342 C8H9O7+ 1 217.0343 -0.58
  259.154 C13H23O5+ 1 259.154 -0.02
PK$NUM_PEAK: 8
PK$PEAK: m/z int. rel.int.
  129.0182 2715891.5 81
  139.003 1375216.5 41
  157.013 15629759 471
  185.0808 13465593 406
  202.0775 11884010 358
  213.0757 19411782 585
  217.0342 19600080 591
  259.154 33096138 999
//
