ACCESSION: MSBNK-Eawag-EQ320802
RECORD_TITLE: Pyridate; LC-ESI-QFT; MS2; CE: 30; R=35000; [M+H]+
DATE: 2015.08.25
AUTHORS: Beck B, Stravs M, Schymanski E, Singer H, Department of Environmental Chemistry, Eawag
LICENSE: CC BY
COPYRIGHT: Copyright (C) 2015 Eawag, Duebendorf, Switzerland
COMMENT: CONFIDENCE standard compound
COMMENT: EAWAG_UCHEM_ID 3208
CH$NAME: Pyridate
CH$NAME: Pyridat
CH$NAME: (6-chloro-3-phenylpyridazin-4-yl) octylsulfanylformate
CH$COMPOUND_CLASS: N/A; Environmental Standard
CH$FORMULA: C19H23ClN2O2S
CH$EXACT_MASS: 378.11688
CH$SMILES: O=C(SCCCCCCCC)Oc2cc(Cl)nnc2c1ccccc1
CH$IUPAC: InChI=1S/C19H23ClN2O2S/c1-2-3-4-5-6-10-13-25-19(23)24-16-14-17(20)21-22-18(16)15-11-8-7-9-12-15/h7-9,11-12,14H,2-6,10,13H2,1H3
CH$LINK: CAS 55512-33-9
CH$LINK: CHEBI CHEBI:81971
CH$LINK: KEGG C18803
CH$LINK: PUBCHEM CID:41463
CH$LINK: INCHIKEY JTZCTMAVMHRNTR-UHFFFAOYSA-N
CH$LINK: CHEMSPIDER 37831
CH$LINK: COMPTOX DTXSID2032639
AC$INSTRUMENT: Q Exactive Plus Orbitrap Thermo Scientific
AC$INSTRUMENT_TYPE: LC-ESI-QFT
AC$MASS_SPECTROMETRY: MS_TYPE MS2
AC$MASS_SPECTROMETRY: ION_MODE POSITIVE
AC$MASS_SPECTROMETRY: IONIZATION ESI
AC$MASS_SPECTROMETRY: FRAGMENTATION_MODE HCD
AC$MASS_SPECTROMETRY: COLLISION_ENERGY 30 (nominal)
AC$MASS_SPECTROMETRY: RESOLUTION 35000
AC$CHROMATOGRAPHY: COLUMN_NAME XBridge C18 3.5um, 2.1x50mm, Waters
AC$CHROMATOGRAPHY: FLOW_GRADIENT 90/10 at 0 min, 50/50 at 4 min, 5/95 at 17 min, 5/95 at 25 min, 90/10 at 25.1 min, 90/10 at 30 min
AC$CHROMATOGRAPHY: FLOW_RATE 200 ul/min
AC$CHROMATOGRAPHY: RETENTION_TIME 18.1 min
AC$CHROMATOGRAPHY: SOLVENT A water with 0.1% formic acid
AC$CHROMATOGRAPHY: SOLVENT B methanol with 0.1% formic acid
MS$FOCUSED_ION: BASE_PEAK 379.1241
MS$FOCUSED_ION: PRECURSOR_M/Z 379.1242
MS$FOCUSED_ION: PRECURSOR_TYPE [M+H]+
MS$DATA_PROCESSING: RECALIBRATE loess on assigned fragments and MS1
MS$DATA_PROCESSING: REANALYZE Peaks with additional N2/O included
MS$DATA_PROCESSING: WHOLE RMassBank 1.9.6
PK$SPLASH: splash10-0a4i-1090000000-57f1c7313703d2f3eb04
PK$ANNOTATION: m/z tentative_formula formula_count mass error(ppm)
  55.0542 C4H7+ 1 55.0542 -1.03
  57.0699 C4H9+ 1 57.0699 0.23
  68.0131 C3H2NO+ 1 68.0131 0.59
  69.0699 C5H9+ 1 69.0699 -0.1
  71.0855 C5H11+ 1 71.0855 -0.24
  77.0385 C6H5+ 1 77.0386 -0.6
  104.049 C7H6N+ 1 104.0495 -4.19
  111.1169 C8H15+ 1 111.1168 0.48
  145.1046 C8H17S+ 1 145.1045 0.29
  207.032 C10H8ClN2O+ 2 207.032 0.26
  319.1573 C18H24ClN2O+ 1 319.1572 0.35
  351.1301 C18H24ClN2OS+ 1 351.1292 2.37
PK$NUM_PEAK: 12
PK$PEAK: m/z int. rel.int.
  55.0542 422019.9 1
  57.0699 22754464 72
  68.0131 356174.5 1
  69.0699 5915937 18
  71.0855 26155222 82
  77.0385 621743.1 1
  104.049 620077.8 1
  111.1169 689085.4 2
  145.1046 1974834.1 6
  207.032 315576672 999
  319.1573 2506184.8 7
  351.1301 348783.9 1
//
