ACCESSION: MSBNK-Eawag-EA019656
RECORD_TITLE: Ranitidine; LC-ESI-ITFT; MS2; CE: 75%; R=7500; [M-H]-
DATE: 2014.01.14
AUTHORS: Stravs M, Schymanski E, Singer H, Department of Environmental Chemistry, Eawag
LICENSE: CC BY
COPYRIGHT: Copyright (C) 2012 Eawag, Duebendorf, Switzerland
COMMENT: CONFIDENCE standard compound
COMMENT: EAWAG_UCHEM_ID 196
CH$NAME: Ranitidine
CH$NAME: 1,1-Ethenediamine, N-(2-(((5-((dimethylamino)methyl)-2-furanyl)methyl)thio)ethyl)-N'-methyl-2-nitro-
CH$NAME: 1-N'-[2-[[5-(dimethylaminomethyl)furan-2-yl]methylsulfanyl]ethyl]-1-N-methyl-2-nitroethene-1,1-diamine
CH$COMPOUND_CLASS: N/A; Environmental Standard
CH$FORMULA: C13H22N4O3S
CH$EXACT_MASS: 314.1413
CH$SMILES: CN\C(NCCSCC1=CC=C(CN(C)C)O1)=C/[N+]([O-])=O
CH$IUPAC: InChI=1S/C13H22N4O3S/c1-14-13(9-17(18)19)15-6-7-21-10-12-5-4-11(20-12)8-16(2)3/h4-5,9,14-15H,6-8,10H2,1-3H3/b13-9+
CH$LINK: CAS 66357-35-5
CH$LINK: CHEBI CHEBI:8776
CH$LINK: HMDB HMDB01930
CH$LINK: KEGG D00422
CH$LINK: PUBCHEM CID:5039
CH$LINK: INCHIKEY VMXUWOKSQNHOCA-UKTHLTGXSA-N
CH$LINK: CHEMSPIDER 4863
AC$INSTRUMENT: LTQ Orbitrap XL Thermo Scientific
AC$INSTRUMENT_TYPE: LC-ESI-ITFT
AC$MASS_SPECTROMETRY: MS_TYPE MS2
AC$MASS_SPECTROMETRY: ION_MODE NEGATIVE
AC$MASS_SPECTROMETRY: IONIZATION ESI
AC$MASS_SPECTROMETRY: FRAGMENTATION_MODE HCD
AC$MASS_SPECTROMETRY: COLLISION_ENERGY 75 % (nominal)
AC$MASS_SPECTROMETRY: RESOLUTION 7500
AC$CHROMATOGRAPHY: COLUMN_NAME XBridge C18 3.5um, 2.1x50mm, Waters
AC$CHROMATOGRAPHY: FLOW_GRADIENT 90/10 at 0 min, 50/50 at 4 min, 5/95 at 17 min, 5/95 at 25 min, 90/10 at 25.1 min, 90/10 at 30 min
AC$CHROMATOGRAPHY: FLOW_RATE 200 ul/min
AC$CHROMATOGRAPHY: RETENTION_TIME 1.9 min
AC$CHROMATOGRAPHY: SOLVENT A water with 0.1% formic acid
AC$CHROMATOGRAPHY: SOLVENT B methanol with 0.1% formic acid
MS$FOCUSED_ION: BASE_PEAK 313.1329
MS$FOCUSED_ION: PRECURSOR_M/Z 313.134
MS$FOCUSED_ION: PRECURSOR_TYPE [M-H]-
MS$DATA_PROCESSING: DEPROFILE Spline
MS$DATA_PROCESSING: RECALIBRATE loess on assigned fragments and MS1
MS$DATA_PROCESSING: REANALYZE Peaks with additional N2/O included
MS$DATA_PROCESSING: WHOLE RMassBank 1.3.1
PK$SPLASH: splash10-03di-0900000000-d5953e08a3cb69d2aa2b
PK$ANNOTATION: m/z tentative_formula formula_count mass error(ppm)
  111.999 C5H4OS- 1 111.9988 1.84
  116.0471 C3H6N3O2- 1 116.0466 4.91
PK$NUM_PEAK: 2
PK$PEAK: m/z int. rel.int.
  111.999 11766.4 999
  116.0471 5123.7 435
//
