ACCESSION: MSBNK-Eawag-EQ00317105
RECORD_TITLE: Metconazole; LC-ESI-QFT; MS2; CE: 75%; R=15000; [M+H]+
DATE: 2024.06.14
AUTHORS: F. Jud [dtc], K. Arturi [dtc], J. Hollender [dtc], A. Dax [com]
LICENSE: CC BY-SA
COPYRIGHT: Copyright (C) Eawag 2024
COMMENT: CONFIDENCE standard compound
COMMENT: UCHEM_ID 3171
CH$NAME: Metconazole
CH$NAME: 5-[(4-chlorophenyl)methyl]-2,2-dimethyl-1-(1,2,4-triazol-1-ylmethyl)cyclopentan-1-ol
CH$COMPOUND_CLASS: N/A
CH$FORMULA: C17H22ClN3O
CH$EXACT_MASS: 319.14514
CH$SMILES: CC1(C)CCC(CC2=CC=C(Cl)C=C2)C1(O)CN1C=NC=N1
CH$IUPAC: InChI=1S/C17H22ClN3O/c1-16(2)8-7-14(9-13-3-5-15(18)6-4-13)17(16,22)10-21-12-19-11-20-21/h3-6,11-12,14,22H,7-10H2,1-2H3
CH$LINK: CAS 125116-23-6
CH$LINK: CHEBI CHEBI:81773
CH$LINK: KEGG C18476
CH$LINK: PUBCHEM CID:86210
CH$LINK: INCHIKEY XWPZUHJBOLQNMN-UHFFFAOYSA-N
CH$LINK: CHEMSPIDER 77764
AC$INSTRUMENT: Q Exactive Plus
AC$INSTRUMENT_TYPE: LC-ESI-QFT
AC$MASS_SPECTROMETRY: MS_TYPE MS2
AC$MASS_SPECTROMETRY: ION_MODE POSITIVE
AC$MASS_SPECTROMETRY: IONIZATION ESI
AC$MASS_SPECTROMETRY: FRAGMENTATION_MODE HCD
AC$MASS_SPECTROMETRY: COLLISION_ENERGY 75 % (nominal)
AC$MASS_SPECTROMETRY: RESOLUTION 15000
AC$MASS_SPECTROMETRY: MASS_RANGE_M/Z 50-345
AC$CHROMATOGRAPHY: COLUMN_NAME XBridge C18 3.5um, 2.1x50mm, Waters
AC$CHROMATOGRAPHY: FLOW_GRADIENT 90/10 at 0 min, 50/50 at 4 min, 5/95 at 17 min, 5/95 at 25 min, 90/10 at 25.1 min, 90/10 at 30 min
AC$CHROMATOGRAPHY: FLOW_RATE 200 uL/min
AC$CHROMATOGRAPHY: RETENTION_TIME 12.152 min
MS$FOCUSED_ION: BASE_PEAK 320.1526
MS$FOCUSED_ION: PRECURSOR_M/Z 320.1524
MS$FOCUSED_ION: PRECURSOR_TYPE [M+H]+
MS$FOCUSED_ION: PRECURSOR_INTENSITY 865316371.09
MS$DATA_PROCESSING: RECALIBRATE loess on assigned fragments and MS1
MS$DATA_PROCESSING: REANALYZE Peaks with additional N2/O included
MS$DATA_PROCESSING: WHOLE RMassBank 3.15.1.1
PK$SPLASH: splash10-00di-9100000000-097ab4bd84c0d7a0b7b8
PK$ANNOTATION: m/z tentative_formula formula_count mass error(ppm)
  70.04 C2H4N3+ 1 70.04 0.16
  125.0153 C7H6Cl+ 1 125.0153 0.52
PK$NUM_PEAK: 2
PK$PEAK: m/z int. rel.int.
  70.04 310155936 999
  125.0153 44498408 143
//
