ACCESSION: MSBNK-Eawag-EQ327505
RECORD_TITLE: Deprenyl; LC-ESI-QFT; MS2; CE: 75; R=35000; [M+H]+
DATE: 2015.08.25
AUTHORS: Beck B, Stravs M, Schymanski E, Singer H, Department of Environmental Chemistry, Eawag
LICENSE: CC BY
COPYRIGHT: Copyright (C) 2015 Eawag, Duebendorf, Switzerland
COMMENT: CONFIDENCE standard compound
COMMENT: EAWAG_UCHEM_ID 3275
CH$NAME: Deprenyl
CH$NAME: Selegiline
CH$NAME: (2R)-N-methyl-1-phenyl-N-prop-2-ynylpropan-2-amine
CH$COMPOUND_CLASS: N/A; Environmental Standard
CH$FORMULA: C13H17N
CH$EXACT_MASS: 187.13610
CH$SMILES: C[C@H](Cc1ccccc1)N(C)CC#C
CH$IUPAC: InChI=1S/C13H17N/c1-4-10-14(3)12(2)11-13-8-6-5-7-9-13/h1,5-9,12H,10-11H2,2-3H3/t12-/m1/s1
CH$LINK: CAS 14611-51-9
CH$LINK: CHEBI CHEBI:9086
CH$LINK: KEGG C07245
CH$LINK: PUBCHEM CID:26757
CH$LINK: INCHIKEY MEZLKOACVSPNER-GFCCVEGCSA-N
CH$LINK: CHEMSPIDER 24930
CH$LINK: COMPTOX DTXSID6023575
AC$INSTRUMENT: Q Exactive Plus Orbitrap Thermo Scientific
AC$INSTRUMENT_TYPE: LC-ESI-QFT
AC$MASS_SPECTROMETRY: MS_TYPE MS2
AC$MASS_SPECTROMETRY: ION_MODE POSITIVE
AC$MASS_SPECTROMETRY: IONIZATION ESI
AC$MASS_SPECTROMETRY: FRAGMENTATION_MODE HCD
AC$MASS_SPECTROMETRY: COLLISION_ENERGY 75 (nominal)
AC$MASS_SPECTROMETRY: RESOLUTION 35000
AC$CHROMATOGRAPHY: COLUMN_NAME XBridge C18 3.5um, 2.1x50mm, Waters
AC$CHROMATOGRAPHY: FLOW_GRADIENT 90/10 at 0 min, 50/50 at 4 min, 5/95 at 17 min, 5/95 at 25 min, 90/10 at 25.1 min, 90/10 at 30 min
AC$CHROMATOGRAPHY: FLOW_RATE 200 ul/min
AC$CHROMATOGRAPHY: RETENTION_TIME 4.1 min
AC$CHROMATOGRAPHY: SOLVENT A water with 0.1% formic acid
AC$CHROMATOGRAPHY: SOLVENT B methanol with 0.1% formic acid
MS$FOCUSED_ION: BASE_PEAK 188.1433
MS$FOCUSED_ION: PRECURSOR_M/Z 188.1434
MS$FOCUSED_ION: PRECURSOR_TYPE [M+H]+
MS$DATA_PROCESSING: RECALIBRATE loess on assigned fragments and MS1
MS$DATA_PROCESSING: REANALYZE Peaks with additional N2/O included
MS$DATA_PROCESSING: WHOLE RMassBank 1.9.6
PK$SPLASH: splash10-0006-9000000000-2b84827991f2b204e24b
PK$ANNOTATION: m/z tentative_formula formula_count mass error(ppm)
  51.0227 C4H3+ 1 51.0229 -4.05
  65.0386 C5H5+ 1 65.0386 0.05
  70.0651 C4H8N+ 1 70.0651 0.06
  91.0542 C7H7+ 1 91.0542 0.26
  96.0809 C6H10N+ 1 96.0808 1.29
  119.0855 C9H11+ 1 119.0855 0.11
PK$NUM_PEAK: 6
PK$PEAK: m/z int. rel.int.
  51.0227 1312509.4 1
  65.0386 8930932 8
  70.0651 17797148 16
  91.0542 1061721920 999
  96.0809 1314584.6 1
  119.0855 4204148 3
//
