ACCESSION: MSBNK-Eawag-EQ318455
RECORD_TITLE: 1H-Benzotriazole-5-carboxylic acid; LC-ESI-QFT; MS2; CE: 75; R=35000; [M-H]-
DATE: 2015.08.26
AUTHORS: Beck B, Stravs M, Schymanski E, Singer H, Department of Environmental Chemistry, Eawag
LICENSE: CC BY
COPYRIGHT: Copyright (C) 2015 Eawag, Duebendorf, Switzerland
COMMENT: CONFIDENCE standard compound
COMMENT: EAWAG_UCHEM_ID 3184
CH$NAME: 1H-Benzotriazole-5-carboxylic acid
CH$NAME: 1H-benzotriazole-5-carboxylic acid
CH$NAME: 2H-benzotriazole-5-carboxylic acid
CH$COMPOUND_CLASS: N/A; Environmental Standard
CH$FORMULA: C7H5N3O2
CH$EXACT_MASS: 163.03818
CH$SMILES: c1cc2c(cc1C(=O)O)nn[nH]2
CH$IUPAC: InChI=1S/C7H5N3O2/c11-7(12)4-1-2-5-6(3-4)9-10-8-5/h1-3H,(H,11,12)(H,8,9,10)
CH$LINK: CAS 23814-12-2
CH$LINK: PUBCHEM CID:72917
CH$LINK: INCHIKEY GUOVBFFLXKJFEE-UHFFFAOYSA-N
CH$LINK: CHEMSPIDER 65749
CH$LINK: COMPTOX DTXSID10881049
AC$INSTRUMENT: Q Exactive Plus Orbitrap Thermo Scientific
AC$INSTRUMENT_TYPE: LC-ESI-QFT
AC$MASS_SPECTROMETRY: MS_TYPE MS2
AC$MASS_SPECTROMETRY: ION_MODE NEGATIVE
AC$MASS_SPECTROMETRY: IONIZATION ESI
AC$MASS_SPECTROMETRY: FRAGMENTATION_MODE HCD
AC$MASS_SPECTROMETRY: COLLISION_ENERGY 75 (nominal)
AC$MASS_SPECTROMETRY: RESOLUTION 35000
AC$CHROMATOGRAPHY: COLUMN_NAME XBridge C18 3.5um, 2.1x50mm, Waters
AC$CHROMATOGRAPHY: FLOW_GRADIENT 90/10 at 0 min, 50/50 at 4 min, 5/95 at 17 min, 5/95 at 25 min, 90/10 at 25.1 min, 90/10 at 30 min
AC$CHROMATOGRAPHY: FLOW_RATE 200 ul/min
AC$CHROMATOGRAPHY: RETENTION_TIME 3.8 min
AC$CHROMATOGRAPHY: SOLVENT A water with 0.1% formic acid
AC$CHROMATOGRAPHY: SOLVENT B methanol with 0.1% formic acid
MS$FOCUSED_ION: BASE_PEAK 162.0307
MS$FOCUSED_ION: PRECURSOR_M/Z 162.0309
MS$FOCUSED_ION: PRECURSOR_TYPE [M-H]-
MS$DATA_PROCESSING: RECALIBRATE loess on assigned fragments and MS1
MS$DATA_PROCESSING: REANALYZE Peaks with additional N2/O included
MS$DATA_PROCESSING: WHOLE RMassBank 1.9.6
PK$SPLASH: splash10-014i-3900000000-a6e70ee1551085c40a36
PK$ANNOTATION: m/z tentative_formula formula_count mass error(ppm)
  50.0036 C3N- 1 50.0036 -0.85
  64.0193 C4H2N- 1 64.0193 0.43
  90.0349 C6H4N- 1 90.0349 -0.36
  91.0302 C5H3N2- 1 91.0302 -0.02
  118.0411 C6H4N3- 1 118.0411 0.33
  162.0309 C7H4N3O2- 1 162.0309 0.31
PK$NUM_PEAK: 6
PK$PEAK: m/z int. rel.int.
  50.0036 4288977.5 30
  64.0193 854986.4 6
  90.0349 48108256 344
  91.0302 536573.6 3
  118.0411 139620480 999
  162.0309 5711834 40
//
