ACCESSION: MSBNK-Eawag-EA011214
RECORD_TITLE: Cymoxanil; LC-ESI-ITFT; MS2; CE: 35%; R=30000; [M+H]+
DATE: 2014.01.14
AUTHORS: Stravs M, Schymanski E, Singer H, Department of Environmental Chemistry, Eawag
LICENSE: CC BY
COPYRIGHT: Copyright (C) 2012 Eawag, Duebendorf, Switzerland
COMMENT: CONFIDENCE standard compound
COMMENT: EAWAG_UCHEM_ID 112
CH$NAME: Cymoxanil
CH$NAME: 2-(ethylcarbamoylamino)-N-methoxy-2-oxoethanimidoyl cyanide
CH$COMPOUND_CLASS: N/A; Environmental Standard
CH$FORMULA: C7H10N4O3
CH$EXACT_MASS: 198.0753
CH$SMILES: CCNC(=O)NC(=O)/C(=N/OC)/C#N
CH$IUPAC: InChI=1S/C7H10N4O3/c1-3-9-7(13)10-6(12)5(4-8)11-14-2/h3H2,1-2H3,(H2,9,10,12,13)/b11-5+
CH$LINK: CAS 57966-95-7
CH$LINK: PUBCHEM CID:42614
CH$LINK: INCHIKEY XERJKGMBORTKEO-VZUCSPMQSA-N
CH$LINK: CHEMSPIDER 38865
CH$LINK: COMPTOX DTXSID6032358
AC$INSTRUMENT: LTQ Orbitrap XL Thermo Scientific
AC$INSTRUMENT_TYPE: LC-ESI-ITFT
AC$MASS_SPECTROMETRY: MS_TYPE MS2
AC$MASS_SPECTROMETRY: ION_MODE POSITIVE
AC$MASS_SPECTROMETRY: IONIZATION ESI
AC$MASS_SPECTROMETRY: FRAGMENTATION_MODE CID
AC$MASS_SPECTROMETRY: COLLISION_ENERGY 35 % (nominal)
AC$MASS_SPECTROMETRY: RESOLUTION 30000
AC$CHROMATOGRAPHY: COLUMN_NAME XBridge C18 3.5um, 2.1x50mm, Waters
AC$CHROMATOGRAPHY: FLOW_GRADIENT 90/10 at 0 min, 50/50 at 4 min, 5/95 at 17 min, 5/95 at 25 min, 90/10 at 25.1 min, 90/10 at 30 min
AC$CHROMATOGRAPHY: FLOW_RATE 200 ul/min
AC$CHROMATOGRAPHY: RETENTION_TIME 5.6 min
AC$CHROMATOGRAPHY: SOLVENT A water with 0.1% formic acid
AC$CHROMATOGRAPHY: SOLVENT B methanol with 0.1% formic acid
MS$FOCUSED_ION: BASE_PEAK 221.0649
MS$FOCUSED_ION: PRECURSOR_M/Z 199.0826
MS$FOCUSED_ION: PRECURSOR_TYPE [M+H]+
MS$DATA_PROCESSING: DEPROFILE Spline
MS$DATA_PROCESSING: RECALIBRATE loess on assigned fragments and MS1
MS$DATA_PROCESSING: REANALYZE Peaks with additional N2/O included
MS$DATA_PROCESSING: WHOLE RMassBank 1.3.1
PK$SPLASH: splash10-004i-0900000000-3f5bd267fc1ec7fcd6c4
PK$ANNOTATION: m/z tentative_formula formula_count mass error(ppm)
  58.0287 C2H4NO+ 1 58.0287 -0.86
  111.019 C4H3N2O2+ 1 111.0189 0.6
  128.0454 C4H6N3O2+ 1 128.0455 -0.26
  167.0675 C5H7N6O+ 1 167.0676 -0.39
PK$NUM_PEAK: 4
PK$PEAK: m/z int. rel.int.
  58.0287 5465.5 2
  111.019 32621.5 13
  128.0454 2490490.6 999
  167.0675 14759.8 5
//
