ACCESSION: MSBNK-Eawag-EQ420457
RECORD_TITLE: Methiocarb-TP methiocarb sulfone phenol (M05); LC-ESI-QFT; MS2; CE: 120%; R=17500; [M-H]-
DATE: 2019.12.03
AUTHORS: K. Kiefer [dtc], J. Hollender [dtc], H. Singer [dtc], M. Stravs [com]
LICENSE: CC BY-SA
COPYRIGHT: Copyright (C) Eawag 2019
PUBLICATION: Kiefer, K.; Mueller, A.; Singer, H.; Hollender, J. New relevant pesticide transformation products in groundwater detected using target and suspect screening for agricultural and urban micropollutants with LC-HRMS. Water Research 2019, 165. DOI: https://doi.org/10.1016/j.watres.2019.114972
COMMENT: CONFIDENCE standard compound
COMMENT: UCHEM_ID 4204
CH$NAME: Methiocarb-TP methiocarb sulfone phenol (M05)
CH$NAME: 3,5-dimethyl-4-methylsulfonylphenol
CH$NAME: methiocarb sulfone phenol
CH$COMPOUND_CLASS: N/A; Environmental Standard
CH$FORMULA: C9H12O3S
CH$EXACT_MASS: 200.0507
CH$SMILES: CC1=CC(O)=CC(C)=C1S(C)(=O)=O
CH$IUPAC: InChI=1S/C9H12O3S/c1-6-4-8(10)5-7(2)9(6)13(3,11)12/h4-5,10H,1-3H3
CH$LINK: CAS 14763-62-3
CH$LINK: PUBCHEM CID:203615
CH$LINK: INCHIKEY GRBGKIGVRUXTSK-UHFFFAOYSA-N
CH$LINK: CHEMSPIDER 176373
AC$INSTRUMENT: Q Exactive Orbitrap Thermo Scientific
AC$INSTRUMENT_TYPE: LC-ESI-QFT
AC$MASS_SPECTROMETRY: MS_TYPE MS2
AC$MASS_SPECTROMETRY: ION_MODE NEGATIVE
AC$MASS_SPECTROMETRY: IONIZATION ESI
AC$MASS_SPECTROMETRY: FRAGMENTATION_MODE HCD
AC$MASS_SPECTROMETRY: COLLISION_ENERGY 120 % (nominal)
AC$MASS_SPECTROMETRY: RESOLUTION 17500
AC$CHROMATOGRAPHY: COLUMN_NAME XBridge C18 3.5um, 2.1x50mm, Waters
AC$CHROMATOGRAPHY: FLOW_GRADIENT 90/10 at 0 min, 50/50 at 4 min, 5/95 at 17 min, 5/95 at 25 min, 90/10 at 25.1 min, 90/10 at 30 min
AC$CHROMATOGRAPHY: FLOW_RATE 200 uL/min
AC$CHROMATOGRAPHY: RETENTION_TIME 4.028 min
AC$CHROMATOGRAPHY: SOLVENT A water with 0.1% formic acid
AC$CHROMATOGRAPHY: SOLVENT B MeOH with 0.1% formic acid
MS$FOCUSED_ION: BASE_PEAK 199.0434
MS$FOCUSED_ION: PRECURSOR_M/Z 199.0434
MS$FOCUSED_ION: PRECURSOR_TYPE [M-H]-
MS$DATA_PROCESSING: RECALIBRATE loess on assigned fragments and MS1
MS$DATA_PROCESSING: REANALYZE Peaks with additional N2/O included
MS$DATA_PROCESSING: WHOLE RMassBank 2.99.1
PK$SPLASH: splash10-03di-9300000000-83a6ee06e158310566ad
PK$ANNOTATION: m/z tentative_formula formula_count mass error(ppm)
  63.9625 O2S- 1 63.9624 0.8
  120.058 C8H8O- 1 120.0581 -0.81
  135.0451 C8H7O2- 1 135.0452 -0.4
  136.0529 C8H8O2- 1 136.053 -0.62
PK$NUM_PEAK: 4
PK$PEAK: m/z int. rel.int.
  63.9625 2779547 999
  120.058 342018.8 122
  135.0451 522278.4 187
  136.0529 181722.2 65
//
