ACCESSION: MSBNK-Eawag-EA065263
RECORD_TITLE: Sulfanilic acid; LC-ESI-ITFT; MS2; CE: 90%; R=15000; [M-H]-
DATE: 2014.01.14
AUTHORS: Stravs M, Schymanski E, Singer H, Department of Environmental Chemistry, Eawag
LICENSE: CC BY
COPYRIGHT: Copyright (C) 2012 Eawag, Duebendorf, Switzerland
COMMENT: CONFIDENCE standard compound
COMMENT: EAWAG_UCHEM_ID 652
CH$NAME: Sulfanilic acid
CH$NAME: 4-aminobenzenesulfonic acid
CH$COMPOUND_CLASS: N/A; Environmental Standard
CH$FORMULA: C6H7NO3S
CH$EXACT_MASS: 173.0147
CH$SMILES: S(c1ccc(N)cc1)(O)(=O)=O
CH$IUPAC: InChI=1S/C6H7NO3S/c7-5-1-3-6(4-2-5)11(8,9)10/h1-4H,7H2,(H,8,9,10)
CH$LINK: CAS 121-57-3
CH$LINK: CHEBI CHEBI:27500
CH$LINK: KEGG C06335
CH$LINK: PUBCHEM CID:8479
CH$LINK: INCHIKEY HVBSAKJJOYLTQU-UHFFFAOYSA-N
CH$LINK: CHEMSPIDER 8166
CH$LINK: COMPTOX DTXSID6024464
AC$INSTRUMENT: LTQ Orbitrap XL Thermo Scientific
AC$INSTRUMENT_TYPE: LC-ESI-ITFT
AC$MASS_SPECTROMETRY: MS_TYPE MS2
AC$MASS_SPECTROMETRY: ION_MODE NEGATIVE
AC$MASS_SPECTROMETRY: IONIZATION ESI
AC$MASS_SPECTROMETRY: FRAGMENTATION_MODE HCD
AC$MASS_SPECTROMETRY: COLLISION_ENERGY 90 % (nominal)
AC$MASS_SPECTROMETRY: RESOLUTION 15000
AC$CHROMATOGRAPHY: COLUMN_NAME XBridge C18 3.5um, 2.1x50mm, Waters
AC$CHROMATOGRAPHY: FLOW_GRADIENT 90/10 at 0 min, 50/50 at 4 min, 5/95 at 17 min, 5/95 at 25 min, 90/10 at 25.1 min, 90/10 at 30 min
AC$CHROMATOGRAPHY: FLOW_RATE 200 ul/min
AC$CHROMATOGRAPHY: RETENTION_TIME 0.9 min
AC$CHROMATOGRAPHY: SOLVENT A water with 0.1% formic acid
AC$CHROMATOGRAPHY: SOLVENT B methanol with 0.1% formic acid
MS$FOCUSED_ION: BASE_PEAK 172.008
MS$FOCUSED_ION: PRECURSOR_M/Z 172.0074
MS$FOCUSED_ION: PRECURSOR_TYPE [M-H]-
MS$DATA_PROCESSING: DEPROFILE Spline
MS$DATA_PROCESSING: RECALIBRATE loess on assigned fragments and MS1
MS$DATA_PROCESSING: REANALYZE Peaks with additional N2/O included
MS$DATA_PROCESSING: WHOLE RMassBank 1.3.1
PK$SPLASH: splash10-004i-9300000000-3cfc8ddc908e0dec0d12
PK$ANNOTATION: m/z tentative_formula formula_count mass error(ppm)
  79.9574 O3S- 1 79.9574 0.33
  107.0376 C6H5NO- 1 107.0377 -0.4
  108.0454 C6H6NO- 1 108.0455 -0.99
  172.0077 C6H6NO3S- 1 172.0074 1.76
PK$NUM_PEAK: 4
PK$PEAK: m/z int. rel.int.
  79.9574 121985.4 999
  107.0376 5852.8 47
  108.0454 13677.3 112
  172.0077 32607.6 267
//
