ACCESSION: MSBNK-Eawag-EA266608
RECORD_TITLE: Fipronil; LC-ESI-ITFT; MS2; CE: 15%; R=15000; [M+H]+
DATE: 2014.01.14
AUTHORS: Stravs M, Schymanski E, Singer H, Department of Environmental Chemistry, Eawag
LICENSE: CC BY
COPYRIGHT: Copyright (C) 2012 Eawag, Duebendorf, Switzerland
COMMENT: CONFIDENCE standard compound
COMMENT: EAWAG_UCHEM_ID 2666
CH$NAME: Fipronil
CH$NAME: 5-amino-1-[2,6-dichloro-4-(trifluoromethyl)phenyl]-4-(trifluoromethylsulfinyl)-3-pyrazolecarbonitrile
CH$COMPOUND_CLASS: N/A; Environmental Standard
CH$FORMULA: C12H4Cl2F6N4OS
CH$EXACT_MASS: 435.9387
CH$SMILES: C1=C(C=C(C(=C1Cl)N2C(=C(C(=N2)C#N)S(=O)C(F)(F)F)N)Cl)C(F)(F)F
CH$IUPAC: InChI=1S/C12H4Cl2F6N4OS/c13-5-1-4(11(15,16)17)2-6(14)8(5)24-10(22)9(7(3-21)23-24)26(25)12(18,19)20/h1-2H,22H2
CH$LINK: CAS 120068-37-3
CH$LINK: CHEBI CHEBI:5063
CH$LINK: KEGG D01042
CH$LINK: PUBCHEM CID:3352
CH$LINK: INCHIKEY ZOCSXAVNDGMNBV-UHFFFAOYSA-N
CH$LINK: CHEMSPIDER 3235
CH$LINK: COMPTOX DTXSID4034609
AC$INSTRUMENT: LTQ Orbitrap XL Thermo Scientific
AC$INSTRUMENT_TYPE: LC-ESI-ITFT
AC$MASS_SPECTROMETRY: MS_TYPE MS2
AC$MASS_SPECTROMETRY: ION_MODE POSITIVE
AC$MASS_SPECTROMETRY: IONIZATION ESI
AC$MASS_SPECTROMETRY: FRAGMENTATION_MODE HCD
AC$MASS_SPECTROMETRY: COLLISION_ENERGY 15 % (nominal)
AC$MASS_SPECTROMETRY: RESOLUTION 15000
AC$CHROMATOGRAPHY: COLUMN_NAME XBridge C18 3.5um, 2.1x50mm, Waters
AC$CHROMATOGRAPHY: FLOW_GRADIENT 90/10 at 0 min, 50/50 at 4 min, 5/95 at 17 min, 5/95 at 25 min, 90/10 at 25.1 min, 90/10 at 30 min
AC$CHROMATOGRAPHY: FLOW_RATE 200 ul/min
AC$CHROMATOGRAPHY: RETENTION_TIME 12.6 min
AC$CHROMATOGRAPHY: SOLVENT A water with 0.1% formic acid
AC$CHROMATOGRAPHY: SOLVENT B methanol with 0.1% formic acid
MS$FOCUSED_ION: BASE_PEAK 458.9281
MS$FOCUSED_ION: PRECURSOR_M/Z 436.946
MS$FOCUSED_ION: PRECURSOR_TYPE [M+H]+
MS$DATA_PROCESSING: DEPROFILE Spline
MS$DATA_PROCESSING: RECALIBRATE loess on assigned fragments and MS1
MS$DATA_PROCESSING: REANALYZE Peaks with additional N2/O included
MS$DATA_PROCESSING: WHOLE RMassBank 1.3.1
PK$SPLASH: splash10-00kr-0006900000-0dd31f87cea5f9794291
PK$ANNOTATION: m/z tentative_formula formula_count mass error(ppm)
  367.9503 C11H5Cl2F3N4OS+ 1 367.9508 -1.2
  436.9447 C12H5Cl2F6N4OS+ 1 436.946 -2.94
PK$NUM_PEAK: 2
PK$PEAK: m/z int. rel.int.
  367.9503 19338.4 691
  436.9447 27936.9 999
//
