ACCESSION: MSBNK-Eawag-EQ416804
RECORD_TITLE: Pymetrozine-TP CGA294849; LC-ESI-QFT; MS2; CE: 60%; R=17500; [M+H]+
DATE: 2019.12.03
AUTHORS: K. Kiefer [dtc], J. Hollender [dtc], H. Singer [dtc], M. Stravs [com]
LICENSE: CC BY-SA
COPYRIGHT: Copyright (C) Eawag 2019
PUBLICATION: Kiefer, K.; Mueller, A.; Singer, H.; Hollender, J. New relevant pesticide transformation products in groundwater detected using target and suspect screening for agricultural and urban micropollutants with LC-HRMS. Water Research 2019, 165. DOI: https://doi.org/10.1016/j.watres.2019.114972
COMMENT: CONFIDENCE standard compound
COMMENT: UCHEM_ID 4168
CH$NAME: Pymetrozine-TP CGA294849
CH$NAME: 4-amino-6-methyl-2H-1,2,4-triazine-3,5-dione
CH$COMPOUND_CLASS: N/A; Environmental Standard
CH$FORMULA: C4H6N4O2
CH$EXACT_MASS: 142.0491
CH$SMILES: CC1=NNC(=O)N(N)C1=O
CH$IUPAC: InChI=1S/C4H6N4O2/c1-2-3(9)8(5)4(10)7-6-2/h5H2,1H3,(H,7,10)
CH$LINK: PUBCHEM CID:11073521
CH$LINK: INCHIKEY OBVMWVBNOLJKBG-UHFFFAOYSA-N
CH$LINK: CHEMSPIDER 9248670
AC$INSTRUMENT: Q Exactive Plus Orbitrap Thermo Scientific
AC$INSTRUMENT_TYPE: LC-ESI-QFT
AC$MASS_SPECTROMETRY: MS_TYPE MS2
AC$MASS_SPECTROMETRY: ION_MODE POSITIVE
AC$MASS_SPECTROMETRY: IONIZATION ESI
AC$MASS_SPECTROMETRY: FRAGMENTATION_MODE HCD
AC$MASS_SPECTROMETRY: COLLISION_ENERGY 60 % (nominal)
AC$MASS_SPECTROMETRY: RESOLUTION 17500
AC$CHROMATOGRAPHY: COLUMN_NAME XBridge C18 3.5um, 2.1x50mm, Waters
AC$CHROMATOGRAPHY: FLOW_GRADIENT 90/10 at 0 min, 50/50 at 4 min, 5/95 at 17 min, 5/95 at 25 min, 90/10 at 25.1 min, 90/10 at 30 min
AC$CHROMATOGRAPHY: FLOW_RATE 200 uL/min
AC$CHROMATOGRAPHY: RETENTION_TIME 1.128 min
AC$CHROMATOGRAPHY: SOLVENT A water with 0.1% formic acid
AC$CHROMATOGRAPHY: SOLVENT B MeOH with 0.1% formic acid
MS$FOCUSED_ION: BASE_PEAK 143.0565
MS$FOCUSED_ION: PRECURSOR_M/Z 143.0564
MS$FOCUSED_ION: PRECURSOR_TYPE [M+H]+
MS$DATA_PROCESSING: RECALIBRATE loess on assigned fragments and MS1
MS$DATA_PROCESSING: REANALYZE Peaks with additional N2/O included
MS$DATA_PROCESSING: WHOLE RMassBank 2.99.1
PK$SPLASH: splash10-001i-9200000000-39b0f9c7cbdb806c69fa
PK$ANNOTATION: m/z tentative_formula formula_count mass error(ppm)
  55.0291 C2H3N2+ 1 55.0291 -0.34
  56.0131 C2H2NO+ 1 56.0131 0.98
  59.0241 CH3N2O+ 1 59.024 1.33
  83.024 C3H3N2O+ 1 83.024 -0.08
  114.0422 C4H6N2O2+ 1 114.0424 -1.36
  115.0616 C3H7N4O+ 1 115.0614 1.12
  143.0562 C4H7N4O2+ 1 143.0564 -1.03
PK$NUM_PEAK: 7
PK$PEAK: m/z int. rel.int.
  55.0291 19242.6 32
  56.0131 92716.8 158
  59.0241 64379.6 109
  83.024 584943.9 999
  114.0422 40503.1 69
  115.0616 21264.9 36
  143.0562 111890.5 191
//
