ACCESSION: MSBNK-Eawag-EQ417451
RECORD_TITLE: Dimethachlor-TP CGA 369873; LC-ESI-QFT; MS2; CE: 15%; R=17500; [M-H]-
DATE: 2019.12.03
AUTHORS: K. Kiefer [dtc], J. Hollender [dtc], H. Singer [dtc], M. Stravs [com]
LICENSE: CC BY-SA
COPYRIGHT: Copyright (C) Eawag 2019
PUBLICATION: Kiefer, K.; Mueller, A.; Singer, H.; Hollender, J. New relevant pesticide transformation products in groundwater detected using target and suspect screening for agricultural and urban micropollutants with LC-HRMS. Water Research 2019, 165. DOI: https://doi.org/10.1016/j.watres.2019.114972
COMMENT: CONFIDENCE standard compound
COMMENT: UCHEM_ID 4174
CH$NAME: Dimethachlor-TP CGA 369873
CH$NAME: 2-(2,6-dimethylanilino)-2-oxoethane-1-sulfonic acid
CH$COMPOUND_CLASS: N/A; Environmental Standard
CH$FORMULA: C10H13NO4S
CH$EXACT_MASS: 243.0565
CH$SMILES: CC1=CC=CC(C)=C1NC(=O)CS(O)(=O)=O
CH$IUPAC: InChI=1S/C10H13NO4S/c1-7-4-3-5-8(2)10(7)11-9(12)6-16(13,14)15/h3-5H,6H2,1-2H3,(H,11,12)(H,13,14,15)
CH$LINK: INCHIKEY ZNKNVJGSYJFDHT-UHFFFAOYSA-N
AC$INSTRUMENT: Q Exactive Orbitrap Thermo Scientific
AC$INSTRUMENT_TYPE: LC-ESI-QFT
AC$MASS_SPECTROMETRY: MS_TYPE MS2
AC$MASS_SPECTROMETRY: ION_MODE NEGATIVE
AC$MASS_SPECTROMETRY: IONIZATION ESI
AC$MASS_SPECTROMETRY: FRAGMENTATION_MODE HCD
AC$MASS_SPECTROMETRY: COLLISION_ENERGY 15 % (nominal)
AC$MASS_SPECTROMETRY: RESOLUTION 17500
AC$CHROMATOGRAPHY: COLUMN_NAME XBridge C18 3.5um, 2.1x50mm, Waters
AC$CHROMATOGRAPHY: FLOW_GRADIENT 90/10 at 0 min, 50/50 at 4 min, 5/95 at 17 min, 5/95 at 25 min, 90/10 at 25.1 min, 90/10 at 30 min
AC$CHROMATOGRAPHY: FLOW_RATE 200 uL/min
AC$CHROMATOGRAPHY: RETENTION_TIME 3.028 min
AC$CHROMATOGRAPHY: SOLVENT A water with 0.1% formic acid
AC$CHROMATOGRAPHY: SOLVENT B MeOH with 0.1% formic acid
MS$FOCUSED_ION: BASE_PEAK 242.0493
MS$FOCUSED_ION: PRECURSOR_M/Z 242.0493
MS$FOCUSED_ION: PRECURSOR_TYPE [M-H]-
MS$DATA_PROCESSING: RECALIBRATE loess on assigned fragments and MS1
MS$DATA_PROCESSING: REANALYZE Peaks with additional N2/O included
MS$DATA_PROCESSING: WHOLE RMassBank 2.99.1
PK$SPLASH: splash10-0006-0090000000-10828d8541d0c9bcb47e
PK$ANNOTATION: m/z tentative_formula formula_count mass error(ppm)
  76.9702 CHO2S- 1 76.9703 -1.56
  79.957 O3S- 1 79.9574 -3.96
  94.9808 CH3O3S- 1 94.9808 0.11
  120.9602 C2HO4S- 1 120.9601 0.75
  178.0869 C10H12NO2- 1 178.0874 -2.74
  242.0495 C10H12NO4S- 1 242.0493 0.85
PK$NUM_PEAK: 6
PK$PEAK: m/z int. rel.int.
  76.9702 712077.6 6
  79.957 3050610.8 27
  94.9808 3367708.2 29
  120.9602 9639189 85
  178.0869 356021.9 3
  242.0495 112839888 999
//
