ACCESSION: MSBNK-Eawag-EQ335101
RECORD_TITLE: Memantine; LC-ESI-QFT; MS2; CE: 15; R=35000; [M+H]+
DATE: 2015.08.25
AUTHORS: Beck B, Stravs M, Schymanski E, Singer H, Department of Environmental Chemistry, Eawag
LICENSE: CC BY
COPYRIGHT: Copyright (C) 2015 Eawag, Duebendorf, Switzerland
COMMENT: CONFIDENCE standard compound
COMMENT: EAWAG_UCHEM_ID 3351
CH$NAME: Memantine
CH$NAME: 3,5-dimethyladamantan-1-amine
CH$COMPOUND_CLASS: N/A; Environmental Standard
CH$FORMULA: C12H21N
CH$EXACT_MASS: 179.16740
CH$SMILES: CC12CC3CC(C1)(CC(C3)(C2)N)C
CH$IUPAC: InChI=1S/C12H21N/c1-10-3-9-4-11(2,6-10)8-12(13,5-9)7-10/h9H,3-8,13H2,1-2H3
CH$LINK: CAS 19982-08-2
CH$LINK: CHEBI CHEBI:64312
CH$LINK: KEGG C13736
CH$LINK: PUBCHEM CID:4054
CH$LINK: INCHIKEY BUGYDGFZZOZRHP-UHFFFAOYSA-N
CH$LINK: CHEMSPIDER 3914
CH$LINK: COMPTOX DTXSID5045174
AC$INSTRUMENT: Q Exactive Plus Orbitrap Thermo Scientific
AC$INSTRUMENT_TYPE: LC-ESI-QFT
AC$MASS_SPECTROMETRY: MS_TYPE MS2
AC$MASS_SPECTROMETRY: ION_MODE POSITIVE
AC$MASS_SPECTROMETRY: IONIZATION ESI
AC$MASS_SPECTROMETRY: FRAGMENTATION_MODE HCD
AC$MASS_SPECTROMETRY: COLLISION_ENERGY 15 (nominal)
AC$MASS_SPECTROMETRY: RESOLUTION 35000
AC$CHROMATOGRAPHY: COLUMN_NAME XBridge C18 3.5um, 2.1x50mm, Waters
AC$CHROMATOGRAPHY: FLOW_GRADIENT 90/10 at 0 min, 50/50 at 4 min, 5/95 at 17 min, 5/95 at 25 min, 90/10 at 25.1 min, 90/10 at 30 min
AC$CHROMATOGRAPHY: FLOW_RATE 200 ul/min
AC$CHROMATOGRAPHY: RETENTION_TIME 6.7 min
AC$CHROMATOGRAPHY: SOLVENT A water with 0.1% formic acid
AC$CHROMATOGRAPHY: SOLVENT B methanol with 0.1% formic acid
MS$FOCUSED_ION: BASE_PEAK 180.1746
MS$FOCUSED_ION: PRECURSOR_M/Z 180.1747
MS$FOCUSED_ION: PRECURSOR_TYPE [M+H]+
MS$DATA_PROCESSING: RECALIBRATE loess on assigned fragments and MS1
MS$DATA_PROCESSING: REANALYZE Peaks with additional N2/O included
MS$DATA_PROCESSING: WHOLE RMassBank 1.9.6
PK$SPLASH: splash10-03e9-0900000000-65172d14e0f6b9102d73
PK$ANNOTATION: m/z tentative_formula formula_count mass error(ppm)
  55.0542 C4H7+ 1 55.0542 -0.12
  93.0695 C7H9+ 1 93.0699 -3.62
  107.0853 C8H11+ 1 107.0855 -2.49
  163.1481 C12H19+ 1 163.1481 -0.1
  180.1747 C12H22N+ 1 180.1747 0.02
PK$NUM_PEAK: 5
PK$PEAK: m/z int. rel.int.
  55.0542 2120543.5 1
  93.0695 2610582.5 1
  107.0853 21316974 14
  163.1481 1520543488 999
  180.1747 888981760 584
//
