ACCESSION: MSBNK-Eawag-EA298610
RECORD_TITLE: Acetamiprid; LC-ESI-ITFT; MS2; CE: 45%; R=15000; [M+H]+
DATE: 2014.01.14
AUTHORS: Stravs M, Schymanski E, Singer H, Department of Environmental Chemistry, Eawag
LICENSE: CC BY
COPYRIGHT: Copyright (C) 2012 Eawag, Duebendorf, Switzerland
COMMENT: CONFIDENCE standard compound
COMMENT: EAWAG_UCHEM_ID 2986
CH$NAME: Acetamiprid
CH$NAME: (1E)-N-[(6-Chloro-3-pyridinyl)methyl]-N'-cyano-N-methylethanimidamide
CH$COMPOUND_CLASS: N/A; Environmental Standard
CH$FORMULA: C10H11ClN4
CH$EXACT_MASS: 222.0672
CH$SMILES: CN(CC1=CN=C(Cl)C=C1)C(\C)=N\C#N
CH$IUPAC: InChI=1S/C10H11ClN4/c1-8(14-7-12)15(2)6-9-3-4-10(11)13-5-9/h3-5H,6H2,1-2H3/b14-8+
CH$LINK: CAS 160430-64-8
CH$LINK: CHEBI CHEBI:39164
CH$LINK: CHEMSPIDER 184719
CH$LINK: COMPTOX DTXSID0034300
CH$LINK: INCHIKEY WCXDHFDTOYPNIE-RIYZIHGNSA-N
AC$INSTRUMENT: LTQ Orbitrap XL Thermo Scientific
AC$INSTRUMENT_TYPE: LC-ESI-ITFT
AC$MASS_SPECTROMETRY: MS_TYPE MS2
AC$MASS_SPECTROMETRY: ION_MODE POSITIVE
AC$MASS_SPECTROMETRY: IONIZATION ESI
AC$MASS_SPECTROMETRY: FRAGMENTATION_MODE HCD
AC$MASS_SPECTROMETRY: COLLISION_ENERGY 45 % (nominal)
AC$MASS_SPECTROMETRY: RESOLUTION 15000
AC$CHROMATOGRAPHY: COLUMN_NAME XBridge C18 3.5um, 2.1x50mm, Waters
AC$CHROMATOGRAPHY: FLOW_GRADIENT 90/10 at 0 min, 50/50 at 4 min, 5/95 at 17 min, 5/95 at 25 min, 90/10 at 25.1 min, 90/10 at 30 min
AC$CHROMATOGRAPHY: FLOW_RATE 200 ul/min
AC$CHROMATOGRAPHY: RETENTION_TIME 5.3 min
AC$CHROMATOGRAPHY: SOLVENT A water with 0.1% formic acid
AC$CHROMATOGRAPHY: SOLVENT B methanol with 0.1% formic acid
MS$FOCUSED_ION: BASE_PEAK 223.0746
MS$FOCUSED_ION: PRECURSOR_M/Z 223.0745
MS$FOCUSED_ION: PRECURSOR_TYPE [M+H]+
MS$DATA_PROCESSING: DEPROFILE Spline
MS$DATA_PROCESSING: RECALIBRATE loess on assigned fragments and MS1
MS$DATA_PROCESSING: REANALYZE Peaks with additional N2/O included
MS$DATA_PROCESSING: WHOLE RMassBank 1.3.1
PK$SPLASH: splash10-004i-0900000000-217eb3ef0c01704b68d5
PK$ANNOTATION: m/z tentative_formula formula_count mass error(ppm)
  56.0494 C3H6N+ 1 56.0495 -0.99
  90.0337 C6H4N+ 1 90.0338 -0.84
  98.9993 C5H4Cl+ 1 98.9996 -3.28
  126.0104 C6H5ClN+ 1 126.0105 -0.66
  144.0209 C6H7ClNO+ 1 144.0211 -0.96
  146.071 C8H8N3+ 1 146.0713 -1.87
  155.037 C7H8ClN2+ 1 155.0371 -0.21
  181.0527 C9H10ClN2+ 1 181.0527 -0.07
  182.0477 C8H9ClN3+ 1 182.048 -1.33
  187.0978 C10H11N4+ 1 187.0978 -0.12
  196.0635 C9H11ClN3+ 1 196.0636 -0.72
  206.0478 C10H9ClN3+ 1 206.048 -0.98
  208.0502 C9H9ClN4+ 1 208.051 -4.06
  223.0742 C10H12ClN4+ 1 223.0745 -1.26
PK$NUM_PEAK: 14
PK$PEAK: m/z int. rel.int.
  56.0494 5038110 76
  90.0337 285417.7 4
  98.9993 102197.4 1
  126.0104 65499014.7 999
  144.0209 136811.9 2
  146.071 95282.1 1
  155.037 164237.1 2
  181.0527 514201.7 7
  182.0477 104631.7 1
  187.0978 591290.6 9
  196.0635 209566.5 3
  206.0478 329494.8 5
  208.0502 74060 1
  223.0742 5868049.3 89
//
