ACCESSION: MSBNK-Eawag-EQ365106
RECORD_TITLE: Ethoprop; LC-ESI-QFT; MS2; CE: 90; R=35000; [M+H]+
DATE: 2015.08.25
AUTHORS: Stravs M, Schymanski E, Singer H, Department of Environmental Chemistry, Eawag and Thomaidis N, University of Athens
LICENSE: CC BY
COPYRIGHT: Copyright (C) 2015 Eawag, Duebendorf, Switzerland
COMMENT: CONFIDENCE standard compound
COMMENT: EAWAG_UCHEM_ID 3651
CH$NAME: Ethoprop
CH$NAME: 1-[ethoxy(propylsulfanyl)phosphoryl]sulfanylpropane
CH$COMPOUND_CLASS: N/A; Environmental Standard
CH$FORMULA: C8H19O2PS2
CH$EXACT_MASS: 242.05641
CH$SMILES: CCCSP(=O)(OCC)SCCC
CH$IUPAC: InChI=1S/C8H19O2PS2/c1-4-7-12-11(9,10-6-3)13-8-5-2/h4-8H2,1-3H3
CH$LINK: CAS 13194-48-4
CH$LINK: CHEBI CHEBI:38665
CH$LINK: KEGG C18687
CH$LINK: PUBCHEM CID:3289
CH$LINK: INCHIKEY VJYFKVYYMZPMAB-UHFFFAOYSA-N
CH$LINK: CHEMSPIDER 3173
CH$LINK: COMPTOX DTXSID4032611
AC$INSTRUMENT: Q Exactive Plus Orbitrap Thermo Scientific
AC$INSTRUMENT_TYPE: LC-ESI-QFT
AC$MASS_SPECTROMETRY: MS_TYPE MS2
AC$MASS_SPECTROMETRY: ION_MODE POSITIVE
AC$MASS_SPECTROMETRY: IONIZATION ESI
AC$MASS_SPECTROMETRY: FRAGMENTATION_MODE HCD
AC$MASS_SPECTROMETRY: COLLISION_ENERGY 90 (nominal)
AC$MASS_SPECTROMETRY: RESOLUTION 35000
AC$CHROMATOGRAPHY: COLUMN_NAME XBridge C18 3.5um, 2.1x50mm, Waters
AC$CHROMATOGRAPHY: FLOW_GRADIENT 90/10 at 0 min, 50/50 at 4 min, 5/95 at 17 min, 5/95 at 25 min, 90/10 at 25.1 min, 90/10 at 30 min
AC$CHROMATOGRAPHY: FLOW_RATE 200 ul/min
AC$CHROMATOGRAPHY: RETENTION_TIME 11.5 min
AC$CHROMATOGRAPHY: SOLVENT A water with 0.1% formic acid
AC$CHROMATOGRAPHY: SOLVENT B methanol with 0.1% formic acid
MS$FOCUSED_ION: BASE_PEAK 243.0634
MS$FOCUSED_ION: PRECURSOR_M/Z 243.0637
MS$FOCUSED_ION: PRECURSOR_TYPE [M+H]+
MS$DATA_PROCESSING: RECALIBRATE loess on assigned fragments and MS1
MS$DATA_PROCESSING: REANALYZE Peaks with additional N2/O included
MS$DATA_PROCESSING: WHOLE RMassBank 1.9.6
PK$SPLASH: splash10-03di-4900000000-c613a13d6e5dff642526
PK$ANNOTATION: m/z tentative_formula formula_count mass error(ppm)
  53.0022 C3HO+ 1 53.0022 1.11
  53.9975 C2NO+ 1 53.9974 1.85
  63.0263 C2H7S+ 1 63.0263 0.51
  64.9787 H2O2P+ 1 64.9787 0.43
  67.9893 C3O2+ 1 67.9893 0.28
  77.0419 C3H9S+ 1 77.0419 -0.49
  78.9402 OPS+ 1 78.9402 0.4
  94.9174 PS2+ 1 94.9174 0.68
  96.9509 H2O2PS+ 1 96.9508 1
  102.9767 C3H4PS+ 1 102.9766 1.42
  110.9665 CH4O2PS+ 1 110.9664 1.14
  112.928 H2OPS2+ 1 112.9279 0.89
  114.9614 H4O3PS+ 1 114.9613 0.71
  128.977 CH6O3PS+ 1 128.977 0.4
  130.9386 H4O2PS2+ 1 130.9385 1.11
  132.9718 C6NOP+ 1 132.9712 4.8
PK$NUM_PEAK: 16
PK$PEAK: m/z int. rel.int.
  53.0022 411335.6 12
  53.9975 75215.1 2
  63.0263 67981.9 2
  64.9787 1605815.2 47
  67.9893 121233 3
  77.0419 98882.8 2
  78.9402 859505.3 25
  94.9174 1088244.4 32
  96.9509 13580672 400
  102.9767 78094.5 2
  110.9665 343034.3 10
  112.928 2045644.6 60
  114.9614 33858228 999
  128.977 392474.3 11
  130.9386 3312402.8 97
  132.9718 172663.1 5
//
