ACCESSION: MSBNK-Eawag-EQ01129804
RECORD_TITLE: Promecarb; LC-ESI-QFT; MS2; CE: 60%; R=17500; [M+H]+
DATE: 2023.04.27
AUTHORS: B. Beck [dtc,com], J. Hollender [dtc]
LICENSE: CC BY-SA
COPYRIGHT: Copyright (C) Eawag 2023
COMMENT: CONFIDENCE standard compound
COMMENT: UCHEM_ID 11298
CH$NAME: Promecarb
CH$NAME: (3-methyl-5-propan-2-ylphenyl) N-methylcarbamate
CH$COMPOUND_CLASS: N/A; Environmental Standard
CH$FORMULA: C12H17NO2
CH$EXACT_MASS: 207.1259
CH$SMILES: CC1=CC(=CC(=C1)OC(=O)NC)C(C)C
CH$IUPAC: InChI=1S/C12H17NO2/c1-8(2)10-5-9(3)6-11(7-10)15-12(14)13-4/h5-8H,1-4H3,(H,13,14)
CH$LINK: CAS 2631-37-0
CH$LINK: CHEBI CHEBI:82096
CH$LINK: KEGG C18956
CH$LINK: PUBCHEM CID:17516
CH$LINK: INCHIKEY DTAPQAJKAFRNJB-UHFFFAOYSA-N
CH$LINK: CHEMSPIDER 16563
AC$INSTRUMENT: Exploris 240 Orbitrap Thermo Scientific
AC$INSTRUMENT_TYPE: LC-ESI-QFT
AC$MASS_SPECTROMETRY: MS_TYPE MS2
AC$MASS_SPECTROMETRY: ION_MODE POSITIVE
AC$MASS_SPECTROMETRY: IONIZATION ESI
AC$MASS_SPECTROMETRY: FRAGMENTATION_MODE HCD
AC$MASS_SPECTROMETRY: COLLISION_ENERGY 60 % (nominal)
AC$MASS_SPECTROMETRY: RESOLUTION 17500
AC$MASS_SPECTROMETRY: MASS_RANGE_M/Z 46-233
AC$CHROMATOGRAPHY: COLUMN_NAME XBridge C18 3.5um, 2.1x50mm, Waters
AC$CHROMATOGRAPHY: FLOW_GRADIENT 90/10 at 0 min, 50/50 at 4 min, 5/95 at 17 min, 5/95 at 25 min, 90/10 at 25.1 min, 90/10 at 30 min
AC$CHROMATOGRAPHY: FLOW_RATE 200 uL/min
AC$CHROMATOGRAPHY: RETENTION_TIME 8.894 min
MS$FOCUSED_ION: BASE_PEAK 208.1331
MS$FOCUSED_ION: PRECURSOR_M/Z 208.1332
MS$FOCUSED_ION: PRECURSOR_TYPE [M+H]+
MS$DATA_PROCESSING: RECALIBRATE loess on assigned fragments and MS1
MS$DATA_PROCESSING: REANALYZE Peaks with additional N2/O included
MS$DATA_PROCESSING: WHOLE RMassBank 3.11.0.1
PK$SPLASH: splash10-0a4i-0900000000-17a4bf2a4dfb5eb48be0
PK$ANNOTATION: m/z tentative_formula formula_count mass error(ppm)
  65.0388 C5H5+ 1 65.0386 3.24
  81.0698 C6H9+ 1 81.0699 -0.33
  91.0542 C7H7+ 1 91.0542 -0.29
  94.0414 C6H6O+ 1 94.0413 1.07
  107.0493 C7H7O+ 1 107.0491 1.29
  109.0648 C7H9O+ 1 109.0648 -0.34
  151.1118 C10H15O+ 1 151.1117 0.5
PK$NUM_PEAK: 7
PK$PEAK: m/z int. rel.int.
  65.0388 650148.4 4
  81.0698 1891557.6 13
  91.0542 7985947.5 55
  94.0414 812854.5 5
  107.0493 1183237.5 8
  109.0648 144391808 999
  151.1118 1599638.2 11
//
