ACCESSION: MSBNK-Eawag-EA295409
RECORD_TITLE: Thiacloprid; LC-ESI-ITFT; MS2; CE: 30%; R=15000; [M+H]+
DATE: 2014.01.14
AUTHORS: Stravs M, Schymanski E, Singer H, Department of Environmental Chemistry, Eawag
LICENSE: CC BY
COPYRIGHT: Copyright (C) 2012 Eawag, Duebendorf, Switzerland
COMMENT: CONFIDENCE standard compound
COMMENT: EAWAG_UCHEM_ID 2954
CH$NAME: Thiacloprid
CH$NAME: (Z)-[3-[(6-Chloro-3-pyridinyl)methyl]-2-thiazolidinylidene]cyanamide
CH$NAME: Calypso
CH$COMPOUND_CLASS: N/A; Environmental Standard
CH$FORMULA: C10H9ClN4S
CH$EXACT_MASS: 252.0236
CH$SMILES: C1CSC(=NC#N)N1CC2=CN=C(C=C2)Cl
CH$IUPAC: InChI=1S/C10H9ClN4S/c11-9-2-1-8(5-13-9)6-15-3-4-16-10(15)14-7-12/h1-2,5H,3-4,6H2
CH$LINK: CAS 111988-49-9
CH$LINK: PUBCHEM CID:115224
CH$LINK: INCHIKEY HOKKPVIRMVDYPB-UHFFFAOYSA-N
CH$LINK: CHEMSPIDER 21865404
AC$INSTRUMENT: LTQ Orbitrap XL Thermo Scientific
AC$INSTRUMENT_TYPE: LC-ESI-ITFT
AC$MASS_SPECTROMETRY: MS_TYPE MS2
AC$MASS_SPECTROMETRY: ION_MODE POSITIVE
AC$MASS_SPECTROMETRY: IONIZATION ESI
AC$MASS_SPECTROMETRY: FRAGMENTATION_MODE HCD
AC$MASS_SPECTROMETRY: COLLISION_ENERGY 30 % (nominal)
AC$MASS_SPECTROMETRY: RESOLUTION 15000
AC$CHROMATOGRAPHY: COLUMN_NAME XBridge C18 3.5um, 2.1x50mm, Waters
AC$CHROMATOGRAPHY: FLOW_GRADIENT 90/10 at 0 min, 50/50 at 4 min, 5/95 at 17 min, 5/95 at 25 min, 90/10 at 25.1 min, 90/10 at 30 min
AC$CHROMATOGRAPHY: FLOW_RATE 200 ul/min
AC$CHROMATOGRAPHY: RETENTION_TIME 5.8 min
AC$CHROMATOGRAPHY: SOLVENT A water with 0.1% formic acid
AC$CHROMATOGRAPHY: SOLVENT B methanol with 0.1% formic acid
MS$FOCUSED_ION: BASE_PEAK 253.0312
MS$FOCUSED_ION: PRECURSOR_M/Z 253.0309
MS$FOCUSED_ION: PRECURSOR_TYPE [M+H]+
MS$DATA_PROCESSING: DEPROFILE Spline
MS$DATA_PROCESSING: RECALIBRATE loess on assigned fragments and MS1
MS$DATA_PROCESSING: REANALYZE Peaks with additional N2/O included
MS$DATA_PROCESSING: WHOLE RMassBank 1.3.1
PK$SPLASH: splash10-0ufr-0890000000-9b203c81c71425dc4f35
PK$ANNOTATION: m/z tentative_formula formula_count mass error(ppm)
  90.0339 C6H4N+ 1 90.0338 0.94
  126.0105 C6H5ClN+ 1 126.0105 0.29
  128.0264 C6H7ClN+ 1 128.0262 2.08
  151.0057 C7H4ClN2+ 1 151.0058 -0.21
  186.0139 C8H9ClNS+ 1 186.0139 -0.02
  190.0434 C9H8N3S+ 1 190.0433 0.45
  193.0273 C8H6ClN4+ 1 193.0276 -1.09
  194.048 C9H9ClN3+ 1 194.048 0.2
  211.0092 C9H8ClN2S+ 1 211.0091 0.13
  217.0543 C10H9N4S+ 1 217.0542 0.26
  226.02 C9H9ClN3S+ 1 226.02 -0.28
  236.0044 C10H7ClN3S+ 1 236.0044 -0.01
  253.0309 C10H10ClN4S+ 1 253.0309 0.11
PK$NUM_PEAK: 13
PK$PEAK: m/z int. rel.int.
  90.0339 95346.2 3
  126.0105 23779623.8 857
  128.0264 35217.6 1
  151.0057 158002.7 5
  186.0139 1885993.7 68
  190.0434 56964.7 2
  193.0273 74493.7 2
  194.048 40487.5 1
  211.0092 287610 10
  217.0543 392617.8 14
  226.02 470488.5 16
  236.0044 209618.4 7
  253.0309 27694654.3 999
//
