ACCESSION: MSBNK-Eawag-EA013051
RECORD_TITLE: Rimsulfuron; LC-ESI-ITFT; MS2; CE: 35%; R=7500; [M-H]-
DATE: 2014.01.14
AUTHORS: Stravs M, Schymanski E, Singer H, Department of Environmental Chemistry, Eawag
LICENSE: CC BY
COPYRIGHT: Copyright (C) 2012 Eawag, Duebendorf, Switzerland
COMMENT: CONFIDENCE standard compound
COMMENT: EAWAG_UCHEM_ID 130
CH$NAME: Rimsulfuron
CH$NAME: 1-(4,6-dimethoxy-2-pyrimidinyl)-3-[(3-ethylsulfonyl-2-pyridinyl)sulfonyl]urea
CH$COMPOUND_CLASS: N/A; Environmental Standard
CH$FORMULA: C14H17N5O7S2
CH$EXACT_MASS: 431.0569
CH$SMILES: CCS(=O)(=O)c1cccnc1S(=O)(=O)NC(=O)Nc1nc(OC)cc(OC)n1
CH$IUPAC: InChI=1S/C14H17N5O7S2/c1-4-27(21,22)9-6-5-7-15-12(9)28(23,24)19-14(20)18-13-16-10(25-2)8-11(17-13)26-3/h5-8H,4H2,1-3H3,(H2,16,17,18,19,20)
CH$LINK: CAS 122931-48-0
CH$LINK: KEGG C10952
CH$LINK: PUBCHEM CID:91779
CH$LINK: INCHIKEY MEFOUWRMVYJCQC-UHFFFAOYSA-N
CH$LINK: CHEMSPIDER 82876
CH$LINK: COMPTOX DTXSID1032642
AC$INSTRUMENT: LTQ Orbitrap XL Thermo Scientific
AC$INSTRUMENT_TYPE: LC-ESI-ITFT
AC$MASS_SPECTROMETRY: MS_TYPE MS2
AC$MASS_SPECTROMETRY: ION_MODE NEGATIVE
AC$MASS_SPECTROMETRY: IONIZATION ESI
AC$MASS_SPECTROMETRY: FRAGMENTATION_MODE CID
AC$MASS_SPECTROMETRY: COLLISION_ENERGY 35 % (nominal)
AC$MASS_SPECTROMETRY: RESOLUTION 7500
AC$CHROMATOGRAPHY: COLUMN_NAME XBridge C18 3.5um, 2.1x50mm, Waters
AC$CHROMATOGRAPHY: FLOW_GRADIENT 90/10 at 0 min, 50/50 at 4 min, 5/95 at 17 min, 5/95 at 25 min, 90/10 at 25.1 min, 90/10 at 30 min
AC$CHROMATOGRAPHY: FLOW_RATE 200 ul/min
AC$CHROMATOGRAPHY: RETENTION_TIME 7.9 min
AC$CHROMATOGRAPHY: SOLVENT A water with 0.1% formic acid
AC$CHROMATOGRAPHY: SOLVENT B methanol with 0.1% formic acid
MS$FOCUSED_ION: BASE_PEAK 430.0488
MS$FOCUSED_ION: PRECURSOR_M/Z 430.0497
MS$FOCUSED_ION: PRECURSOR_TYPE [M-H]-
MS$DATA_PROCESSING: DEPROFILE Spline
MS$DATA_PROCESSING: RECALIBRATE loess on assigned fragments and MS1
MS$DATA_PROCESSING: REANALYZE Peaks with additional N2/O included
MS$DATA_PROCESSING: WHOLE RMassBank 1.3.1
PK$SPLASH: splash10-004r-0910000000-9dea774d3a11708ccb45
PK$ANNOTATION: m/z tentative_formula formula_count mass error(ppm)
  157.0081 C5H5N2O2S- 2 157.0077 2.15
  157.992 C5H4NO3S- 1 157.9917 1.53
  164.0342 C6H4N4O2- 3 164.034 1.5
  179.0577 C7H7N4O2- 3 179.0574 1.23
  185.0393 C7H9N2O2S- 3 185.039 1.5
  186.0232 C7H8NO3S- 2 186.023 0.71
  231.975 C7H6NO4S2- 2 231.9744 2.66
  249.0013 C7H9N2O4S2- 2 249.0009 1.56
  274.9806 C8H7N2O5S2- 2 274.9802 1.36
  323.0821 C13H15N4O4S- 1 323.0819 0.59
PK$NUM_PEAK: 10
PK$PEAK: m/z int. rel.int.
  157.0081 12319.2 7
  157.992 93183.9 54
  164.0342 70371.5 41
  179.0577 1705148.1 999
  185.0393 12463.3 7
  186.0232 897424.6 525
  231.975 9139.7 5
  249.0013 76639.5 44
  274.9806 234955.1 137
  323.0821 113767 66
//
