ACCESSION: MSBNK-Eawag-EQ01110004
RECORD_TITLE: Methyl toluene-4-sulfonate; LC-ESI-QFT; MS2; CE: 60%; R=15000; [M+H]+
DATE: 2024.06.14
AUTHORS: F. Jud [dtc], K. Arturi [dtc], J. Hollender [dtc], A. Dax [com]
LICENSE: CC BY-SA
COPYRIGHT: Copyright (C) Eawag 2024
COMMENT: CONFIDENCE standard compound
COMMENT: UCHEM_ID 11100
CH$NAME: Methyl toluene-4-sulfonate
CH$NAME: Methyl p-toluenesulfonate
CH$NAME: methyl 4-methylbenzenesulfonate
CH$COMPOUND_CLASS: N/A
CH$FORMULA: C8H10O3S
CH$EXACT_MASS: 186.0350652
CH$SMILES: COS(=O)(=O)C1=CC=C(C)C=C1
CH$IUPAC: InChI=1S/C8H10O3S/c1-7-3-5-8(6-4-7)12(9,10)11-2/h3-6H,1-2H3
CH$LINK: CAS 80-48-8
CH$LINK: PUBCHEM CID:6645
CH$LINK: INCHIKEY VUQUOGPMUUJORT-UHFFFAOYSA-N
CH$LINK: CHEMSPIDER 6393
AC$INSTRUMENT: Exploris 240 Thermo Scientific
AC$INSTRUMENT_TYPE: LC-ESI-QFT
AC$MASS_SPECTROMETRY: MS_TYPE MS2
AC$MASS_SPECTROMETRY: ION_MODE POSITIVE
AC$MASS_SPECTROMETRY: IONIZATION ESI
AC$MASS_SPECTROMETRY: FRAGMENTATION_MODE HCD
AC$MASS_SPECTROMETRY: COLLISION_ENERGY 60 % (nominal)
AC$MASS_SPECTROMETRY: RESOLUTION 15000
AC$MASS_SPECTROMETRY: MASS_RANGE_M/Z 42-212
AC$CHROMATOGRAPHY: COLUMN_NAME XBridge C18 3.5um, 2.1x50mm, Waters
AC$CHROMATOGRAPHY: FLOW_GRADIENT 90/10 at 0 min, 50/50 at 4 min, 5/95 at 17 min, 5/95 at 25 min, 90/10 at 25.1 min, 90/10 at 30 min
AC$CHROMATOGRAPHY: FLOW_RATE 200 uL/min
AC$CHROMATOGRAPHY: RETENTION_TIME 5.707 min
MS$FOCUSED_ION: BASE_PEAK 187.0421
MS$FOCUSED_ION: PRECURSOR_M/Z 187.0423
MS$FOCUSED_ION: PRECURSOR_TYPE [M+H]+
MS$DATA_PROCESSING: RECALIBRATE loess on assigned fragments and MS1
MS$DATA_PROCESSING: REANALYZE Peaks with additional N2/O included
MS$DATA_PROCESSING: WHOLE RMassBank 3.15.1.1
PK$SPLASH: splash10-0006-9300000000-630c56e8ca30282747ce
PK$ANNOTATION: m/z tentative_formula formula_count mass error(ppm)
  65.0387 C5H5+ 1 65.0386 1.31
  91.0542 C7H7+ 1 91.0542 -0.08
  92.0619 C7H8+ 1 92.0621 -1.2
  109.0648 C7H9O+ 1 109.0648 -0.01
PK$NUM_PEAK: 4
PK$PEAK: m/z int. rel.int.
  65.0387 1887075.4 41
  91.0542 44975412 999
  92.0619 2472988.8 54
  109.0648 19484202 432
//
