ACCESSION: MSBNK-Eawag-EA012002
RECORD_TITLE: Napropamid; LC-ESI-ITFT; MS2; CE: 15%; R=7500; [M+H]+
DATE: 2014.01.14
AUTHORS: Stravs M, Schymanski E, Singer H, Department of Environmental Chemistry, Eawag
LICENSE: CC BY
COPYRIGHT: Copyright (C) 2012 Eawag, Duebendorf, Switzerland
COMMENT: CONFIDENCE standard compound
COMMENT: EAWAG_UCHEM_ID 120
CH$NAME: Napropamid
CH$NAME: N,N-diethyl-2-(1-naphthalenyloxy)propanamide
CH$COMPOUND_CLASS: N/A; Environmental Standard
CH$FORMULA: C17H21NO2
CH$EXACT_MASS: 271.1567
CH$SMILES: CCN(CC)C(=O)C(C)OC1=CC=CC2=CC=CC=C21
CH$IUPAC: InChI=1S/C17H21NO2/c1-4-18(5-2)17(19)13(3)20-16-12-8-10-14-9-6-7-11-15(14)16/h6-13H,4-5H2,1-3H3
CH$LINK: CAS 15299-99-7
CH$LINK: PUBCHEM CID:27189
CH$LINK: INCHIKEY WXZVAROIGSFCFJ-UHFFFAOYSA-N
CH$LINK: CHEMSPIDER 25304
CH$LINK: COMPTOX DTXSID5024211
AC$INSTRUMENT: LTQ Orbitrap XL Thermo Scientific
AC$INSTRUMENT_TYPE: LC-ESI-ITFT
AC$MASS_SPECTROMETRY: MS_TYPE MS2
AC$MASS_SPECTROMETRY: ION_MODE POSITIVE
AC$MASS_SPECTROMETRY: IONIZATION ESI
AC$MASS_SPECTROMETRY: FRAGMENTATION_MODE HCD
AC$MASS_SPECTROMETRY: COLLISION_ENERGY 15 % (nominal)
AC$MASS_SPECTROMETRY: RESOLUTION 7500
AC$CHROMATOGRAPHY: COLUMN_NAME XBridge C18 3.5um, 2.1x50mm, Waters
AC$CHROMATOGRAPHY: FLOW_GRADIENT 90/10 at 0 min, 50/50 at 4 min, 5/95 at 17 min, 5/95 at 25 min, 90/10 at 25.1 min, 90/10 at 30 min
AC$CHROMATOGRAPHY: FLOW_RATE 200 ul/min
AC$CHROMATOGRAPHY: RETENTION_TIME 11.7 min
AC$CHROMATOGRAPHY: SOLVENT A water with 0.1% formic acid
AC$CHROMATOGRAPHY: SOLVENT B methanol with 0.1% formic acid
MS$FOCUSED_ION: BASE_PEAK 272.1651
MS$FOCUSED_ION: PRECURSOR_M/Z 272.1645
MS$FOCUSED_ION: PRECURSOR_TYPE [M+H]+
MS$DATA_PROCESSING: DEPROFILE Spline
MS$DATA_PROCESSING: RECALIBRATE loess on assigned fragments and MS1
MS$DATA_PROCESSING: REANALYZE Peaks with additional N2/O included
MS$DATA_PROCESSING: WHOLE RMassBank 1.3.1
PK$SPLASH: splash10-00di-0190000000-d7cc1f21e2053e8c3fad
PK$ANNOTATION: m/z tentative_formula formula_count mass error(ppm)
  58.0649 C3H8N+ 1 58.0651 -4.58
  72.0808 C4H10N+ 1 72.0808 -0.08
  74.0964 C4H12N+ 1 74.0964 0.19
  100.0756 C5H10NO+ 1 100.0757 -1.4
  100.112 C6H14N+ 1 100.1121 -0.36
  114.0913 C6H12NO+ 1 114.0913 -0.35
  128.107 C7H14NO+ 1 128.107 -0.16
  129.1147 C7H15NO+ 1 129.1148 -0.51
  171.0805 C12H11O+ 1 171.0804 0.11
  199.0755 C13H11O2+ 1 199.0754 0.72
  272.1646 C17H22NO2+ 1 272.1645 0.27
PK$NUM_PEAK: 11
PK$PEAK: m/z int. rel.int.
  58.0649 18444.7 2
  72.0808 125585.8 18
  74.0964 395742.4 59
  100.0756 15600.9 2
  100.112 27266 4
  114.0913 71742.7 10
  128.107 139594.5 21
  129.1147 172408 26
  171.0805 156114.2 23
  199.0755 640211.1 96
  272.1646 6620981.1 999
//
